#------------------------------------------------------------------------------
#$Date: 2017-10-13 08:28:26 +0300 (Fri, 13 Oct 2017) $
#$Revision: 201972 $
#$URL: file:///home/coder/svn-repositories/cod/cif/2/10/35/2103564.cif $
#------------------------------------------------------------------------------
#
# This file is available in the Crystallography Open Database (COD),
# http://www.crystallography.net/. The original data for this entry
# were provided by IUCr Journals, http://journals.iucr.org/.
#
# The file may be used within the scientific community so long as
# proper attribution is given to the journal article from which the
# data were obtained.
#
data_2103564
loop_
_publ_author_name
'In, Yasuko'
'Fujii, Mayumi'
'Sasada, Yasuhiro'
'Ishida, Toshimasa'
_publ_section_title
;
 Structural studies on C-amidated amino acids and peptides: structures
 of hydrochloride salts of C-amidated Ile, Val, Thr, Ser, Met, Trp, Gln
 and Arg, and comparison with their C-unamidated counterparts
;
_journal_issue                   1
_journal_name_full               'Acta Crystallographica Section B'
_journal_page_first              72
_journal_page_last               81
_journal_paper_doi               10.1107/S0108768100013975
_journal_volume                  57
_journal_year                    2001
_chemical_formula_moiety         'C4 H11 N2 O2 +,Cl -'
_chemical_formula_sum            'C4 H11 Cl N2 O2'
_chemical_formula_weight         154.60
_chemical_name_systematic
;
 ?
;
_space_group_IT_number           19
_symmetry_cell_setting           orthorhombic
_symmetry_space_group_name_Hall  'P 2ac 2ab'
_symmetry_space_group_name_H-M   'P 21 21 21'
_audit_creation_method           SHELXL-97
_cell_angle_alpha                90.00
_cell_angle_beta                 90.00
_cell_angle_gamma                90.00
_cell_formula_units_Z            4
_cell_length_a                   10.1624(15)
_cell_length_b                   10.5673(17)
_cell_length_c                   6.749(3)
_cell_measurement_reflns_used    25
_cell_measurement_temperature    293(2)
_cell_measurement_theta_max      63.10
_cell_measurement_theta_min      .3
_cell_volume                     724.8(4)
_computing_cell_refinement       'MSC/AFC (Molecular Structure Corp. 1991)'
_computing_data_collection       'MSC/AFC (Molecular Structure Corp. 1991)'
_computing_data_reduction        'MSC/AFC (Molecular Structure Corp. 1991)'
_computing_structure_refinement  'SHELXL-97 (Sheldrick, 1997)'
_computing_structure_solution    'SHELXS-97 (Sheldrick, 1990)'
_diffrn_ambient_temperature      293(2)
_diffrn_measured_fraction_theta_full 1.000
_diffrn_measured_fraction_theta_max 1.001
_diffrn_measurement_device_type  'Rigaku AFC5R'
_diffrn_measurement_method       \w-2\q
_diffrn_radiation_monochromator  graphite
_diffrn_radiation_source         'fine-focus sealed tube'
_diffrn_radiation_type           'Cu K\a'
_diffrn_radiation_wavelength     1.54180
_diffrn_reflns_av_R_equivalents  .0000
_diffrn_reflns_av_sigmaI/netI    .0079
_diffrn_reflns_limit_h_max       11
_diffrn_reflns_limit_h_min       0
_diffrn_reflns_limit_k_max       12
_diffrn_reflns_limit_k_min       0
_diffrn_reflns_limit_l_max       0
_diffrn_reflns_limit_l_min       -7
_diffrn_reflns_number            710
_diffrn_reflns_theta_full        63.10
_diffrn_reflns_theta_max         63.10
_diffrn_reflns_theta_min         6.04
_diffrn_standards_decay_%        2
_diffrn_standards_interval_count 100
_diffrn_standards_number         3
_exptl_absorpt_coefficient_mu    4.173
_exptl_absorpt_correction_T_max  .999
_exptl_absorpt_correction_T_min  .782
_exptl_absorpt_correction_type   \y-scan
_exptl_absorpt_process_details   'North, et al., 1990'
_exptl_crystal_colour            colourless
_exptl_crystal_density_diffrn    1.417
_exptl_crystal_density_meas      1.402(5)
_exptl_crystal_density_method    measured
_exptl_crystal_description       cubic
_exptl_crystal_F_000             328
_exptl_crystal_size_max          .8
_exptl_crystal_size_mid          .6
_exptl_crystal_size_min          .6
_refine_diff_density_max         .496
_refine_diff_density_min         -.589
_refine_ls_abs_structure_details 'Flack H D (1983), Acta Cryst. A39, 876-881'
_refine_ls_abs_structure_Flack   .06(3)
_refine_ls_extinction_coef       .34(2)
_refine_ls_extinction_method     SHELXL
_refine_ls_goodness_of_fit_ref   1.098
_refine_ls_hydrogen_treatment    mixed
_refine_ls_matrix_type           full
_refine_ls_number_parameters     83
_refine_ls_number_reflns         710
_refine_ls_number_restraints     0
_refine_ls_restrained_S_all      1.098
_refine_ls_R_factor_all          .0471
_refine_ls_R_factor_gt           .0471
_refine_ls_shift/su_max          .049
_refine_ls_shift/su_mean         .008
_refine_ls_structure_factor_coef Fsqd
_refine_ls_weighting_details
'w=1/[\s^2^(Fo^2^)+(0.0986P)^2^+0.4071P] where P=(Fo^2^+2Fc^2^)/3'
_refine_ls_weighting_scheme      calc
_refine_ls_wR_factor_ref         .1210
_reflns_number_gt                710
_reflns_number_total             710
_reflns_threshold_expression     >2\s(I)
_cod_data_source_file            oa0030.cif
_cod_data_source_block           thrNH2
_cod_depositor_comments
;
The following automatic conversions were performed:

'_refine_ls_weighting_scheme' value 'calc
w=1/[\s^2^(Fo^2^)+(0.0986P)^2^+0.4071P] where P=(Fo^2^+2Fc^2^)/3' was
changed to 'calc'. New tag '_refine_ls_weighting_details' was
created. The value of the new tag was set to
'w=1/[\s^2^(Fo^2^)+(0.0986P)^2^+0.4071P] where P=(Fo^2^+2Fc^2^)/3'.

Automatic conversion script
Id: cif_fix_values 3143 2015-03-26 13:38:13Z robertas 
;
_cod_original_cell_volume        724.8(3)
_cod_original_sg_symbol_H-M      'P 212121'
_cod_database_code               2103564
_cod_database_fobs_code          2103564
loop_
_symmetry_equiv_pos_as_xyz
'x, y, z'
'-x+1/2, -y, z+1/2'
'-x, y+1/2, -z+1/2'
'x+1/2, -y+1/2, -z'
loop_
_atom_site_label
_atom_site_fract_x
_atom_site_fract_y
_atom_site_fract_z
_atom_site_U_iso_or_equiv
_atom_site_adp_type
_atom_site_calc_flag
_atom_site_refinement_flags
_atom_site_occupancy
_atom_site_type_symbol
Cl1 .96087(8) .37191(8) .35803(13) .0172(5) Uani d . 1 Cl
N1 .6071(3) .8326(3) .5331(4) .0130(8) Uani d . 1 N
H1A .5984 .7678 .6315 .016 Uiso d R 1 H
H1B .6741 .8889 .5626 .016 Uiso d R 1 H
H1C .5178 .8817 .5110 .016 Uiso d R 1 H
C1 .6337(3) .7750(3) .3361(5) .0078(8) Uani d . 1 C
H1 .5559 .7268 .2952 .009 Uiso calc R 1 H
C1' .7493(3) .6832(3) .3592(6) .0102(8) Uani d . 1 C
O1' .8240(3) .6913(3) .5026(4) .0216(8) Uani d . 1 O
N2 .7622(3) .5989(3) .2159(5) .0213(9) Uani d . 1 N
H2NA .8351 .5333 .2381 .026 Uiso d R 1 H
H2NB .6907 .5922 .1159 .026 Uiso d R 1 H
C2 .6600(4) .8772(3) .1821(5) .0125(9) Uani d . 1 C
H2 .6876 .8373 .0578 .015 Uiso calc R 1 H
C3 .5383(4) .9558(4) .1451(7) .0230(10) Uani d . 1 C
H3A .5575 1.0198 .0485 .034 Uiso calc R 1 H
H3B .5110 .9952 .2665 .034 Uiso calc R 1 H
H3C .4690 .9023 .0968 .034 Uiso calc R 1 H
O4 .7611(2) .9587(2) .2494(4) .0175(7) Uani d . 1 O
H4 .8359 .9158 .2558 .026 Uiso d R 1 H
loop_
_atom_site_aniso_label
_atom_site_aniso_U_11
_atom_site_aniso_U_22
_atom_site_aniso_U_33
_atom_site_aniso_U_12
_atom_site_aniso_U_13
_atom_site_aniso_U_23
Cl1 .0136(6) .0217(7) .0163(7) -.0004(3) .0039(4) .0026(4)
N1 .0121(16) .0158(15) .0110(15) .0010(13) .0040(13) .0019(15)
C1 .0037(16) .0103(16) .0094(18) -.0018(12) -.0002(14) -.0035(15)
C1' .0017(14) .0163(17) .0125(17) -.0019(14) -.0015(16) .0041(16)
O1' .0139(14) .0356(16) .0154(14) .0094(13) -.0075(12) -.0025(14)
N2 .0131(16) .0233(16) .0275(19) .0094(13) -.0100(16) -.0093(16)
C2 .0089(17) .0168(19) .0119(18) .0040(16) -.0015(15) -.0014(15)
C3 .015(2) .032(2) .022(2) .0084(15) .001(2) .010(2)
O4 .0101(12) .0177(13) .0246(16) -.0051(11) -.0022(14) .0054(13)
loop_
_atom_type_symbol
_atom_type_description
_atom_type_scat_dispersion_real
_atom_type_scat_dispersion_imag
_atom_type_scat_source
C C .0181 .0091 'International Tables Vol C Tables 4.2.6.8 and 6.1.1.4'
H H .0000 .0000 'International Tables Vol C Tables 4.2.6.8 and 6.1.1.4'
N N .0311 .0180 'International Tables Vol C Tables 4.2.6.8 and 6.1.1.4'
O O .0492 .0322 'International Tables Vol C Tables 4.2.6.8 and 6.1.1.4'
Cl Cl .3639 .7018 'International Tables Vol C Tables 4.2.6.8 and 6.1.1.4'
loop_
_geom_angle_atom_site_label_1
_geom_angle_atom_site_label_2
_geom_angle_atom_site_label_3
_geom_angle
N1 C1 C1' 107.9(3)
N1 C1 C2 110.6(3)
C1' C1 C2 112.6(3)
O1' C1' N2 124.0(3)
O1' C1' C1 120.6(3)
N2 C1' C1 115.4(3)
O4 C2 C3 108.2(3)
O4 C2 C1 109.9(3)
C3 C2 C1 111.0(3)
loop_
_geom_bond_atom_site_label_1
_geom_bond_atom_site_label_2
_geom_bond_distance
N1 C1 1.487(4)
C1 C1' 1.531(5)
C1 C2 1.523(5)
C1' O1' 1.233(4)
C1' N2 1.322(5)
C2 O4 1.415(4)
C2 C3 1.511(5)
loop_
_cod_related_entry_id
_cod_related_entry_database
_cod_related_entry_code
1 ChemSpider 21188449
