#------------------------------------------------------------------------------
#$Date: 2017-10-13 08:28:26 +0300 (Fri, 13 Oct 2017) $
#$Revision: 201972 $
#$URL: file:///home/coder/svn-repositories/cod/cif/2/10/34/2103481.cif $
#------------------------------------------------------------------------------
#
# This file is available in the Crystallography Open Database (COD),
# http://www.crystallography.net/. The original data for this entry
# were provided by IUCr Journals, http://journals.iucr.org/.
#
# The file may be used within the scientific community so long as
# proper attribution is given to the journal article from which the
# data were obtained.
#
data_2103481
loop_
_publ_author_name
'Saraswathi, N. T.'
'Vijayan, M.'
_publ_section_title
;
 X-ray studies on crystalline complexes involving amino acids and
 peptides. XL. Conformational variability, recurring and new features
 of aggregation, and effect of chirality in the malonic acid complexes
 of <small>DL</small>- and <small>L</small>-arginine
;
_journal_issue                   6
_journal_name_full               'Acta Crystallographica Section B'
_journal_page_first              1051
_journal_page_last               1056
_journal_paper_doi               10.1107/S0108768102018827
_journal_volume                  58
_journal_year                    2002
_chemical_formula_moiety         C9H18N4O6
_chemical_formula_sum            'C9 H18 N4 O6'
_chemical_formula_weight         278.27
_chemical_name_common            L-arginine-semimalonate
_chemical_name_systematic
;
 ?
;
_space_group_IT_number           1
_symmetry_cell_setting           triclinic
_symmetry_space_group_name_Hall  'P 1'
_symmetry_space_group_name_H-M   'P 1'
_atom_sites_solution_hydrogens   geom
_atom_sites_solution_primary     direct
_atom_sites_solution_secondary   difmap
_audit_creation_method           SHELXL-97
_cell_angle_alpha                69.530(16)
_cell_angle_beta                 89.035(17)
_cell_angle_gamma                71.128(16)
_cell_formula_units_Z            1
_cell_length_a                   5.353(6)
_cell_length_b                   6.931(8)
_cell_length_c                   9.922(11)
_cell_measurement_temperature    293(2)
_cell_volume                     324.4(6)
_computing_cell_refinement       SAINT
_computing_data_collection       SMART
_computing_data_reduction        SAINT
_computing_molecular_graphics    'ORTEP 3'
_computing_publication_material  'MS WORD 2000'
_computing_structure_refinement  'SHELXL-97 (Sheldrick, 1997)'
_computing_structure_solution    'SHELXS-97 (Sheldrick, 1990)'
_diffrn_ambient_temperature      293(2)
_diffrn_measured_fraction_theta_full .914
_diffrn_measured_fraction_theta_max .914
_diffrn_measurement_device_type  CCD
_diffrn_measurement_method       \w--2/q
_diffrn_radiation_monochromator  graphite
_diffrn_radiation_source         'fine-focus sealed tube'
_diffrn_radiation_type           MoK\a
_diffrn_radiation_wavelength     0.71073
_diffrn_reflns_av_R_equivalents  0.0304
_diffrn_reflns_av_sigmaI/netI    0.0328
_diffrn_reflns_limit_h_max       6
_diffrn_reflns_limit_h_min       -6
_diffrn_reflns_limit_k_max       8
_diffrn_reflns_limit_k_min       -8
_diffrn_reflns_limit_l_max       12
_diffrn_reflns_limit_l_min       -12
_diffrn_reflns_number            3424
_diffrn_reflns_theta_full        27.27
_diffrn_reflns_theta_max         27.27
_diffrn_reflns_theta_min         2.20
_exptl_absorpt_coefficient_mu    0.120
_exptl_absorpt_correction_type   none
_exptl_crystal_colour            Colourless
_exptl_crystal_density_diffrn    1.425
_exptl_crystal_density_method    'not measured'
_exptl_crystal_description       Platy
_exptl_crystal_F_000             148
_exptl_crystal_size_max          0.42
_exptl_crystal_size_mid          0.27
_exptl_crystal_size_min          0.15
_refine_diff_density_max         .296
_refine_diff_density_min         -.173
_refine_ls_abs_structure_details 'Flack H D (1983), Acta Cryst. A39, 876-881'
_refine_ls_extinction_method     none
_refine_ls_goodness_of_fit_ref   0.978
_refine_ls_hydrogen_treatment    mixed
_refine_ls_matrix_type           full
_refine_ls_number_parameters     176
_refine_ls_number_reflns         2525
_refine_ls_number_restraints     3
_refine_ls_restrained_S_all      0.977
_refine_ls_R_factor_all          0.0415
_refine_ls_R_factor_gt           0.0384
_refine_ls_shift/su_max          0.000
_refine_ls_shift/su_mean         0.000
_refine_ls_structure_factor_coef Fsqd
_refine_ls_weighting_scheme      calc
_refine_ls_wR_factor_gt          0.1047
_refine_ls_wR_factor_ref         0.1068
_reflns_number_gt                2415
_reflns_number_total             2525
_reflns_threshold_expression     >2sigma(I)
_cod_data_source_file            de0019.cif
_cod_data_source_block           L
_cod_depositor_comments
;
The following automatic conversions were performed:
'_symmetry_cell_setting' value 'Triclinic' changed to 'triclinic'
according to '/home/saulius/struct/CIF-dictionaries/cif_core.dic'
dictionary named 'cif_core.dic' version 2.4.1 from 2010-06-29.

Automatic conversion script
Id: cif_fix_enum 1527 2010-12-29 10:47:43Z saulius 

The following automatic conversions were performed:

'_symmetry_cell_setting' value 'Triclinic' changed to 'triclinic'
according to /home/saulius/struct/CIF-dictionaries/cif_core.dic
dictionary named 'cif_core.dic' version 2.4.1 from 2010-06-29.

Automatic conversion script
Id: cif_fix_values 1715 2011-07-08 13:25:40Z adriana 
;
_cod_original_sg_symbol_H-M      P1
_cod_database_code               2103481
_cod_database_fobs_code          2103481
loop_
_symmetry_equiv_pos_as_xyz
'x, y, z'
loop_
_atom_site_label
_atom_site_fract_x
_atom_site_fract_y
_atom_site_fract_z
_atom_site_U_iso_or_equiv
_atom_site_adp_type
_atom_site_calc_flag
_atom_site_refinement_flags
_atom_site_occupancy
_atom_site_type_symbol
N1 0.0671(3) 1.0348(3) 0.49646(16) 0.0311(3) Uani d . 1 N
H1B -0.0761 0.9954 0.5156 0.047 Uiso calc R 1 H
H1A 0.1673 0.9608 0.4461 0.047 Uiso calc R 1 H
H1C 0.0173 1.1776 0.4451 0.047 Uiso calc R 1 H
O1 0.5550(3) 1.0450(3) 0.48354(16) 0.0495(4) Uani d . 1 O
O2 0.5629(3) 1.1103(3) 0.68440(17) 0.0483(4) Uani d . 1 O
C1 0.4655(3) 1.0556(3) 0.59818(19) 0.0309(4) Uani d . 1 C
C2 0.2225(3) 0.9854(3) 0.63455(18) 0.0318(4) Uani d . 1 C
H2 0.1130 1.0668 0.6903 0.038 Uiso calc R 1 H
C3 0.3101(4) 0.7358(3) 0.7235(2) 0.0402(4) Uani d . 1 C
H3A 0.4140 0.6566 0.6664 0.048 Uiso calc R 1 H
H3B 0.4228 0.7023 0.8099 0.048 Uiso calc R 1 H
C4 0.0764(4) 0.6583(3) 0.7670(3) 0.0445(5) Uani d . 1 C
H4A -0.0226 0.7335 0.8274 0.053 Uiso calc R 1 H
H4B -0.0405 0.6991 0.6805 0.053 Uiso calc R 1 H
C5 0.1533(4) 0.4141(3) 0.8479(2) 0.0421(4) Uani d . 1 C
H5A -0.0052 0.3738 0.8544 0.051 Uiso calc R 1 H
H5B 0.2710 0.3384 0.7931 0.051 Uiso calc R 1 H
N6 0.2836(3) 0.3416(3) 0.99219(18) 0.0385(4) Uani d . 1 N
H6 0.1951 0.3964 1.0511 0.046 Uiso calc R 1 H
C7 0.5245(3) 0.1997(3) 1.04230(19) 0.0317(4) Uani d . 1 C
N8 0.6912(3) 0.1245(3) 0.95796(18) 0.0380(4) Uani d . 1 N
H8A 0.6437 0.1681 0.8669 0.046 Uiso calc R 1 H
H8B 0.8471 0.0320 0.9942 0.046 Uiso calc R 1 H
N9 0.6075(4) 0.1328(3) 1.18205(18) 0.0451(4) Uani d . 1 N
H9A 0.5041 0.1821 1.2386 0.054 Uiso calc R 1 H
H9B 0.7644 0.0403 1.2157 0.054 Uiso calc R 1 H
O11 0.7053(3) 0.6196(3) 0.06034(16) 0.0506(4) Uani d . 1 O
H11 0.523(14) 0.705(10) 0.055(6) 0.145(19) Uiso d . 1 H
O12 1.0040(3) 0.4097(2) 0.24880(17) 0.0467(4) Uani d . 1 O
C13 0.7776(4) 0.5358(3) 0.1979(2) 0.0371(4) Uani d . 1 C
C14 0.5744(4) 0.5978(3) 0.2955(2) 0.0403(4) Uani d . 1 C
H14A 0.6458 0.6598 0.3530 0.048 Uiso calc R 1 H
H14B 0.5524 0.4647 0.3618 0.048 Uiso calc R 1 H
C15 0.3006(4) 0.7584(3) 0.2241(2) 0.0401(4) Uani d . 1 C
O16 0.2553(3) 0.8193(3) 0.08737(17) 0.0512(4) Uani d . 1 O
O17 0.1349(3) 0.8216(3) 0.3008(2) 0.0573(4) Uani d . 1 O
loop_
_atom_site_aniso_label
_atom_site_aniso_U_11
_atom_site_aniso_U_22
_atom_site_aniso_U_33
_atom_site_aniso_U_12
_atom_site_aniso_U_13
_atom_site_aniso_U_23
N1 0.0204(6) 0.0406(7) 0.0290(7) -0.0118(6) 0.0027(5) -0.0072(6)
O1 0.0312(6) 0.0954(12) 0.0333(7) -0.0330(7) 0.0104(5) -0.0264(7)
O2 0.0365(7) 0.0697(10) 0.0536(9) -0.0215(7) 0.0049(6) -0.0368(8)
C1 0.0226(7) 0.0368(9) 0.0295(8) -0.0076(6) 0.0002(6) -0.0096(7)
C2 0.0262(8) 0.0457(10) 0.0261(8) -0.0146(7) 0.0079(6) -0.0141(7)
C3 0.0304(9) 0.0491(11) 0.0316(9) -0.0102(8) 0.0006(7) -0.0066(8)
C4 0.0302(9) 0.0412(10) 0.0493(11) -0.0076(8) 0.0042(8) -0.0056(9)
C5 0.0336(9) 0.0383(10) 0.0493(11) -0.0099(8) -0.0009(8) -0.0119(8)
N6 0.0358(8) 0.0373(8) 0.0374(8) -0.0080(7) 0.0096(7) -0.0120(7)
C7 0.0369(9) 0.0293(8) 0.0296(9) -0.0151(7) 0.0060(7) -0.0083(7)
N8 0.0332(8) 0.0425(8) 0.0310(8) -0.0044(6) 0.0011(6) -0.0125(7)
N9 0.0500(10) 0.0513(10) 0.0299(8) -0.0127(8) 0.0045(7) -0.0143(7)
O11 0.0540(9) 0.0478(8) 0.0363(8) -0.0078(7) 0.0107(6) -0.0081(6)
O12 0.0404(8) 0.0383(7) 0.0495(8) -0.0074(6) 0.0102(7) -0.0078(6)
C13 0.0372(10) 0.0296(9) 0.0414(10) -0.0110(8) 0.0069(8) -0.0095(8)
C14 0.0414(10) 0.0359(9) 0.0387(11) -0.0094(8) 0.0056(8) -0.0112(8)
C15 0.0382(10) 0.0363(9) 0.0484(12) -0.0116(8) 0.0059(8) -0.0195(9)
O16 0.0452(8) 0.0513(9) 0.0462(8) -0.0054(7) -0.0041(7) -0.0144(7)
O17 0.0420(8) 0.0653(10) 0.0676(12) -0.0061(7) 0.0055(7) -0.0386(9)
loop_
_atom_type_symbol
_atom_type_description
_atom_type_scat_dispersion_real
_atom_type_scat_dispersion_imag
_atom_type_scat_source
C C .0033 .0016 'International Tables Vol C Tables 4.2.6.8 and 6.1.1.4'
H H .0000 .0000 'International Tables Vol C Tables 4.2.6.8 and 6.1.1.4'
N N .0061 .0033 'International Tables Vol C Tables 4.2.6.8 and 6.1.1.4'
O O .0106 .0060 'International Tables Vol C Tables 4.2.6.8 and 6.1.1.4'
loop_
_geom_angle_atom_site_label_1
_geom_angle_atom_site_label_2
_geom_angle_atom_site_label_3
_geom_angle
O2 C1 O1 125.10(18)
O2 C1 C2 118.90(17)
O1 C1 C2 115.95(15)
N1 C2 C1 108.20(14)
N1 C2 C3 109.25(15)
C1 C2 C3 110.19(15)
C4 C3 C2 112.47(15)
C5 C4 C3 114.03(17)
N6 C5 C4 113.40(18)
C7 N6 C5 126.40(16)
N6 C7 N8 122.36(18)
N6 C7 N9 119.34(17)
N8 C7 N9 118.28(18)
O12 C13 O11 121.92(19)
O12 C13 C14 120.5(2)
O11 C13 C14 117.60(18)
C13 C14 C15 117.32(18)
O17 C15 O16 123.5(2)
O17 C15 C14 118.7(2)
O16 C15 C14 117.78(17)
loop_
_geom_bond_atom_site_label_1
_geom_bond_atom_site_label_2
_geom_bond_distance
N1 C2 1.487(3)
O1 C1 1.243(3)
O2 C1 1.232(2)
C1 C2 1.526(3)
C2 C3 1.554(3)
C3 C4 1.515(3)
C4 C5 1.513(3)
C5 N6 1.447(3)
N6 C7 1.318(3)
C7 N8 1.322(3)
C7 N9 1.331(3)
O11 C13 1.291(3)
O12 C13 1.231(3)
C13 C14 1.503(3)
C14 C15 1.522(3)
C15 O17 1.232(3)
C15 O16 1.273(3)
loop_
_geom_torsion_atom_site_label_1
_geom_torsion_atom_site_label_2
_geom_torsion_atom_site_label_3
_geom_torsion_atom_site_label_4
_geom_torsion
O2 C1 C2 N1 152.13(16)
O1 C1 C2 N1 -30.3(2)
O2 C1 C2 C3 -88.5(2)
O1 C1 C2 C3 89.1(2)
N1 C2 C3 C4 -63.2(2)
C1 C2 C3 C4 178.09(16)
C2 C3 C4 C5 177.33(17)
C3 C4 C5 N6 70.1(2)
C4 C5 N6 C7 -120.1(2)
C5 N6 C7 N8 8.3(3)
C5 N6 C7 N9 -173.36(18)
O12 C13 C14 C15 178.72(18)
O11 C13 C14 C15 -1.2(3)
C13 C14 C15 O17 -175.94(19)
C13 C14 C15 O16 4.4(3)
H1A N1 C2 C1 60.3
H1B N1 C2 C1 -179.7
H1C N1 C2 C1 -59.7
H1A N1 C2 H2 179.9
H1B N1 C2 H2 -60.1
H1C N1 C2 H2 59.9
H1A N1 C2 C3 -59.7
H1B N1 C2 C3 60.3
H1C N1 C2 C3 -179.7
O1 C1 C2 N1 -30.3(2)
O2 C1 C2 N1 152.13(16)
O11 C13 C14 C15 -1.2(3)
O12 C13 C14 C15 178.72(18)
O16 C15 C14 C13 4.4(3)
O17 C15 C14 C13 -175.94(19)
loop_
_cod_related_entry_id
_cod_related_entry_database
_cod_related_entry_code
1 ChemSpider 30654497
