#------------------------------------------------------------------------------
#$Date: 2017-10-13 08:28:26 +0300 (Fri, 13 Oct 2017) $
#$Revision: 201972 $
#$URL: file:///home/coder/svn-repositories/cod/cif/2/10/30/2103052.cif $
#------------------------------------------------------------------------------
#
# This file is available in the Crystallography Open Database (COD),
# http://www.crystallography.net/. The original data for this entry
# were provided by IUCr Journals, http://journals.iucr.org/.
#
# The file may be used within the scientific community so long as
# proper attribution is given to the journal article from which the
# data were obtained.
#
data_2103052
loop_
_publ_author_name
'Wardell, Solange M. S. V.'
'de Souza, Marcus V. N.'
'Vasconcelos, Thatyana R. A.'
'Ferreira, Marcelle de L.'
'Wardell, James L.'
'Low, John N.'
'Glidewell, Christopher'
_publ_section_title
;
 Patterns of hydrogen bonding in mono- and di-substituted
 <i>N</i>-arylpyrazinecarboxamides
;
_journal_coeditor_code           BM5049
_journal_issue                   1
_journal_name_full               'Acta Crystallographica Section B'
_journal_page_first              84
_journal_page_last               100
_journal_paper_doi               10.1107/S0108768107051804
_journal_volume                  64
_journal_year                    2008
_chemical_formula_moiety         'C11 H9 N3 O'
_chemical_formula_sum            'C11 H9 N3 O'
_chemical_formula_weight         199.21
_chemical_name_systematic
;
N-phenylpyrazinecarboxamide
;
_space_group_IT_number           2
_symmetry_cell_setting           triclinic
_symmetry_space_group_name_Hall  '-P 1'
_symmetry_space_group_name_H-M   'P -1'
_atom_sites_solution_hydrogens   geom
_atom_sites_solution_primary     direct
_atom_sites_solution_secondary   difmap
_cell_angle_alpha                83.295(3)
_cell_angle_beta                 85.377(4)
_cell_angle_gamma                69.009(3)
_cell_formula_units_Z            2
_cell_length_a                   5.9716(3)
_cell_length_b                   7.5270(4)
_cell_length_c                   11.0318(6)
_cell_measurement_reflns_used    2101
_cell_measurement_temperature    120(2)
_cell_measurement_theta_max      27.56
_cell_measurement_theta_min      2.91
_cell_volume                     459.38(4)
_computing_cell_refinement       'DENZO (Otwinowski & Minor, 1997) & COLLECT'
_computing_data_collection       'COLLECT (Hooft, 1999)'
_computing_data_reduction        'DENZO & COLLECT'
_computing_molecular_graphics    'PLATON (Spek, 2003)'
_computing_publication_material  'SHELXL-97 & PRPKAPPA (Ferguson, 1999)'
_computing_structure_refinement  'OSCAIL and SHELXL-97 (Sheldrick, 1997)'
_computing_structure_solution
'OSCAIL (McArdle, 2003) & SHELXS-97 (Sheldrick, 1997)'
_diffrn_ambient_temperature      120(2)
_diffrn_detector_area_resol_mean 9.091
_diffrn_measured_fraction_theta_full 0.994
_diffrn_measured_fraction_theta_max 0.986
_diffrn_measurement_device_type  'Bruker-Nonius KappaCCD'
_diffrn_measurement_method       '\f & \w scans'
_diffrn_radiation_monochromator  graphite
_diffrn_radiation_source         'Bruker-Nonius FR591 rotating anode'
_diffrn_radiation_type           'Mo K\a'
_diffrn_radiation_wavelength     0.71073
_diffrn_reflns_av_R_equivalents  0.0389
_diffrn_reflns_av_sigmaI/netI    0.0361
_diffrn_reflns_limit_h_max       7
_diffrn_reflns_limit_h_min       -7
_diffrn_reflns_limit_k_max       9
_diffrn_reflns_limit_k_min       -9
_diffrn_reflns_limit_l_max       14
_diffrn_reflns_limit_l_min       -14
_diffrn_reflns_number            7558
_diffrn_reflns_theta_full        25.00
_diffrn_reflns_theta_max         27.56
_diffrn_reflns_theta_min         2.91
_diffrn_standards_decay_%        0
_diffrn_standards_number         0
_exptl_absorpt_coefficient_mu    0.097
_exptl_absorpt_correction_T_max  0.998
_exptl_absorpt_correction_T_min  0.978
_exptl_absorpt_correction_type   multi-scan
_exptl_absorpt_process_details   'SADABS 2.10 (Sheldrick, 2003)'
_exptl_crystal_colour            colourless
_exptl_crystal_density_diffrn    1.440
_exptl_crystal_density_method    'not measured'
_exptl_crystal_description       plate
_exptl_crystal_F_000             208
_exptl_crystal_size_max          0.28
_exptl_crystal_size_mid          0.22
_exptl_crystal_size_min          0.02
_refine_diff_density_max         0.312
_refine_diff_density_min         -0.233
_refine_ls_extinction_method     none
_refine_ls_goodness_of_fit_ref   1.053
_refine_ls_hydrogen_treatment    constr
_refine_ls_matrix_type           full
_refine_ls_number_parameters     136
_refine_ls_number_reflns         2101
_refine_ls_number_restraints     0
_refine_ls_restrained_S_all      1.053
_refine_ls_R_factor_all          0.0556
_refine_ls_R_factor_gt           0.0467
_refine_ls_shift/su_max          0.000
_refine_ls_shift/su_mean         0.000
_refine_ls_structure_factor_coef Fsqd
_refine_ls_weighting_details
'w=1/[\s^2^(Fo^2^)+(0.0433P)^2^+0.2650P] where P=(Fo^2^+2Fc^2^)/3'
_refine_ls_weighting_scheme      calc
_refine_ls_wR_factor_gt          0.1119
_refine_ls_wR_factor_ref         0.1185
_reflns_number_gt                1823
_reflns_number_total             2101
_reflns_threshold_expression     I>2\s(I)
_cod_data_source_file            bm5049.cif
_cod_data_source_block           I
_cod_depositor_comments
;
The following automatic conversions were performed:
'_exptl_absorpt_correction_type' value 'Multi-scan' changed to
'multi-scan' according to
'/home/saulius/struct/CIF-dictionaries/cif_core.dic' dictionary named
'cif_core.dic' version 2.4.1 from 2010-06-29.

Automatic conversion script
Id: cif_fix_enum 1527 2010-12-29 10:47:43Z saulius 

The following automatic conversions were performed:

'_exptl_absorpt_correction_type' value 'Multi-scan' changed to
'multi-scan' according to
/home/saulius/struct/CIF-dictionaries/cif_core.dic dictionary named
'cif_core.dic' version 2.4.1 from 2010-06-29.

Automatic conversion script
Id: cif_fix_values 1715 2011-07-08 13:25:40Z adriana 
;
_cod_database_code               2103052
loop_
_symmetry_equiv_pos_as_xyz
'x, y, z'
'-x, -y, -z'
loop_
_atom_site_type_symbol
_atom_site_label
_atom_site_fract_x
_atom_site_fract_y
_atom_site_fract_z
_atom_site_U_iso_or_equiv
_atom_site_adp_type
_atom_site_calc_flag
_atom_site_refinement_flags
_atom_site_occupancy
N N1 0.5006(2) 0.16240(18) 0.29628(11) 0.0230(3) Uani d . 1
C C2 0.7005(3) 0.1647(2) 0.34092(12) 0.0211(3) Uani d . 1
C C3 0.9175(3) 0.1167(2) 0.27407(13) 0.0238(3) Uani d . 1
N N4 0.9394(2) 0.06413(19) 0.16051(11) 0.0259(3) Uani d . 1
C C5 0.7395(3) 0.0611(2) 0.11629(13) 0.0240(3) Uani d . 1
C C6 0.5219(3) 0.1100(2) 0.18288(13) 0.0249(3) Uani d . 1
C C7 0.6915(3) 0.2221(2) 0.46763(13) 0.0219(3) Uani d . 1
O O7 0.87125(19) 0.22883(16) 0.50993(9) 0.0275(3) Uani d . 1
N N17 0.4728(2) 0.26343(18) 0.52595(10) 0.0228(3) Uani d . 1
C C11 0.4057(3) 0.3224(2) 0.64507(12) 0.0212(3) Uani d . 1
C C12 0.5712(3) 0.3144(2) 0.72918(13) 0.0235(3) Uani d . 1
C C13 0.4907(3) 0.3697(2) 0.84524(13) 0.0249(3) Uani d . 1
C C14 0.2487(3) 0.4347(2) 0.87815(13) 0.0272(3) Uani d . 1
C C15 0.0846(3) 0.4438(2) 0.79329(14) 0.0279(3) Uani d . 1
C C16 0.1616(3) 0.3876(2) 0.67748(13) 0.0248(3) Uani d . 1
H H3 1.0546 0.1213 0.3099 0.029 Uiso calc R 1
H H5 0.7461 0.0241 0.0363 0.029 Uiso calc R 1
H H6 0.3846 0.1061 0.1470 0.030 Uiso calc R 1
H H17 0.3475 0.2684 0.4839 0.027 Uiso d R 1
H H12 0.7379 0.2714 0.7074 0.028 Uiso calc R 1
H H13 0.6038 0.3629 0.9030 0.030 Uiso calc R 1
H H14 0.1954 0.4725 0.9578 0.033 Uiso calc R 1
H H15 -0.0822 0.4890 0.8149 0.033 Uiso calc R 1
H H16 0.0481 0.3934 0.6202 0.030 Uiso calc R 1
loop_
_atom_site_aniso_label
_atom_site_aniso_U_11
_atom_site_aniso_U_22
_atom_site_aniso_U_33
_atom_site_aniso_U_12
_atom_site_aniso_U_13
_atom_site_aniso_U_23
N1 0.0239(6) 0.0252(6) 0.0205(6) -0.0087(5) -0.0006(5) -0.0043(5)
C2 0.0237(7) 0.0202(7) 0.0193(7) -0.0076(6) -0.0011(5) -0.0022(5)
C3 0.0220(7) 0.0277(8) 0.0217(7) -0.0078(6) -0.0019(5) -0.0047(6)
N4 0.0257(6) 0.0293(7) 0.0216(6) -0.0077(5) 0.0009(5) -0.0054(5)
C5 0.0290(8) 0.0251(7) 0.0181(7) -0.0086(6) -0.0013(6) -0.0050(5)
C6 0.0258(7) 0.0288(8) 0.0218(7) -0.0106(6) -0.0019(6) -0.0048(6)
C7 0.0247(7) 0.0211(7) 0.0200(7) -0.0080(6) -0.0011(5) -0.0032(5)
O7 0.0252(6) 0.0365(6) 0.0239(5) -0.0127(5) -0.0010(4) -0.0085(4)
N17 0.0230(6) 0.0293(7) 0.0185(6) -0.0106(5) -0.0007(5) -0.0066(5)
C11 0.0262(7) 0.0209(7) 0.0177(6) -0.0100(6) 0.0016(5) -0.0035(5)
C12 0.0224(7) 0.0262(7) 0.0221(7) -0.0084(6) -0.0007(5) -0.0034(5)
C13 0.0289(8) 0.0291(8) 0.0193(7) -0.0129(6) -0.0035(6) -0.0025(6)
C14 0.0308(8) 0.0346(9) 0.0202(7) -0.0155(7) 0.0047(6) -0.0094(6)
C15 0.0236(7) 0.0353(8) 0.0272(8) -0.0125(6) 0.0040(6) -0.0088(6)
C16 0.0249(7) 0.0305(8) 0.0227(7) -0.0135(6) -0.0014(6) -0.0052(6)
loop_
_atom_type_symbol
_atom_type_description
_atom_type_scat_dispersion_real
_atom_type_scat_dispersion_imag
_atom_type_scat_source
C C 0.0033 0.0016 'International Tables Vol C Tables 4.2.6.8 and 6.1.1.4'
H H 0.0000 0.0000 'International Tables Vol C Tables 4.2.6.8 and 6.1.1.4'
N N 0.0061 0.0033 'International Tables Vol C Tables 4.2.6.8 and 6.1.1.4'
O O 0.0106 0.0060 'International Tables Vol C Tables 4.2.6.8 and 6.1.1.4'
loop_
_geom_angle_atom_site_label_1
_geom_angle_atom_site_label_2
_geom_angle_atom_site_label_3
_geom_angle
_geom_angle_publ_flag
C2 N1 C6 115.88(12) no
N1 C2 C3 122.30(13) no
N1 C2 C7 119.17(12) no
C3 C2 C7 118.53(12) no
N4 C3 C2 121.93(13) no
N4 C3 H3 119.0 no
C2 C3 H3 119.0 no
C5 N4 C3 115.66(12) no
N4 C5 C6 122.47(13) no
N4 C5 H5 118.8 no
C6 C5 H5 118.8 no
N1 C6 C5 121.77(13) no
N1 C6 H6 119.1 no
C5 C6 H6 119.1 no
O7 C7 N17 125.47(13) no
O7 C7 C2 120.49(13) no
N17 C7 C2 114.04(12) no
C7 N17 C11 127.79(12) no
C7 N17 H17 118.7 no
C11 N17 H17 113.1 no
C12 C11 C16 119.84(13) no
C12 C11 N17 123.08(13) no
C16 C11 N17 117.07(12) no
C13 C12 C11 119.43(13) no
C13 C12 H12 120.3 no
C11 C12 H12 120.3 no
C14 C13 C12 121.10(13) no
C14 C13 H13 119.5 no
C12 C13 H13 119.5 no
C13 C14 C15 119.10(13) no
C13 C14 H14 120.5 no
C15 C14 H14 120.5 no
C16 C15 C14 120.61(14) no
C16 C15 H15 119.7 no
C14 C15 H15 119.7 no
C15 C16 C11 119.92(13) no
C15 C16 H16 120.0 no
C11 C16 H16 120.0 no
loop_
_geom_bond_atom_site_label_1
_geom_bond_atom_site_label_2
_geom_bond_distance
_geom_bond_publ_flag
N1 C2 1.3342(18) no
N1 C6 1.3382(18) no
C2 C3 1.388(2) no
C2 C7 1.5020(19) no
C3 N4 1.3401(18) no
C3 H3 0.95 no
N4 C5 1.3342(19) no
C5 C6 1.389(2) no
C5 H5 0.95 no
C6 H6 0.95 no
C7 O7 1.2238(17) no
C7 N17 1.3552(18) no
N17 C11 1.4174(17) no
N17 H17 0.90 no
C11 C12 1.391(2) no
C11 C16 1.392(2) no
C12 C13 1.388(2) no
C12 H12 0.95 no
C13 C14 1.382(2) no
C13 H13 0.95 no
C14 C15 1.388(2) no
C14 H14 0.95 no
C15 C16 1.384(2) no
C15 H15 0.95 no
C16 H16 0.95 no
loop_
_geom_hbond_atom_site_label_D
_geom_hbond_atom_site_label_H
_geom_hbond_atom_site_label_A
_geom_hbond_site_symmetry_A
_geom_hbond_distance_DH
_geom_hbond_distance_HA
_geom_hbond_distance_DA
_geom_hbond_angle_DHA
_geom_hbond_publ_flag
N17 H17 N1 . 0.90 2.31 2.7050(17) 107 no
C16 H16 O7 1_455 0.95 2.37 3.220(2) 148 no
loop_
_geom_torsion_atom_site_label_1
_geom_torsion_atom_site_label_2
_geom_torsion_atom_site_label_3
_geom_torsion_atom_site_label_4
_geom_torsion
_geom_torsion_publ_flag
C6 N1 C2 C3 0.3(2) no
C6 N1 C2 C7 179.97(12) no
N1 C2 C3 N4 -0.3(2) no
C7 C2 C3 N4 179.99(13) no
C2 C3 N4 C5 0.0(2) no
C3 N4 C5 C6 0.3(2) no
C2 N1 C6 C5 0.0(2) no
N4 C5 C6 N1 -0.3(2) no
N1 C2 C7 O7 -178.65(13) no
C3 C2 C7 O7 1.1(2) no
N1 C2 C7 N17 1.23(19) no
C3 C2 C7 N17 -179.06(13) no
O7 C7 N17 C11 0.2(2) no
C2 C7 N17 C11 -179.67(12) no
C7 N17 C11 C12 -11.7(2) no
C7 N17 C11 C16 169.43(14) no
C16 C11 C12 C13 0.7(2) no
N17 C11 C12 C13 -178.12(13) no
C11 C12 C13 C14 -0.7(2) no
C12 C13 C14 C15 0.2(2) no
C13 C14 C15 C16 0.4(2) no
C14 C15 C16 C11 -0.4(2) no
C12 C11 C16 C15 -0.1(2) no
N17 C11 C16 C15 178.76(13) no
loop_
_cod_related_entry_id
_cod_related_entry_database
_cod_related_entry_code
1 ChemSpider 246480
