#------------------------------------------------------------------------------
#$Date: 2017-10-13 08:28:26 +0300 (Fri, 13 Oct 2017) $
#$Revision: 201972 $
#$URL: file:///home/coder/svn-repositories/cod/cif/2/10/35/2103569.cif $
#------------------------------------------------------------------------------
#
# This file is available in the Crystallography Open Database (COD),
# http://www.crystallography.net/. The original data for this entry
# were provided by IUCr Journals, http://journals.iucr.org/.
#
# The file may be used within the scientific community so long as
# proper attribution is given to the journal article from which the
# data were obtained.
#
data_2103569
loop_
_publ_author_name
'In, Yasuko'
'Fujii, Mayumi'
'Sasada, Yasuhiro'
'Ishida, Toshimasa'
_publ_section_title
;
 Structural studies on C-amidated amino acids and peptides: structures
 of hydrochloride salts of C-amidated Ile, Val, Thr, Ser, Met, Trp, Gln
 and Arg, and comparison with their C-unamidated counterparts
;
_journal_issue                   1
_journal_name_full               'Acta Crystallographica Section B'
_journal_page_first              72
_journal_page_last               81
_journal_paper_doi               10.1107/S0108768100013975
_journal_volume                  57
_journal_year                    2001
_chemical_formula_moiety         'C5 H12 N3 O2 +,Cl -'
_chemical_formula_sum            'C5 H12 Cl N3 O2'
_chemical_formula_weight         181.63
_space_group_IT_number           4
_symmetry_cell_setting           monoclinic
_symmetry_space_group_name_Hall  'P 2yb'
_symmetry_space_group_name_H-M   'P 1 21 1'
_cell_angle_alpha                90.00
_cell_angle_beta                 94.180(13)
_cell_angle_gamma                90.00
_cell_formula_units_Z            2
_cell_length_a                   7.741(2)
_cell_length_b                   4.8907(13)
_cell_length_c                   10.8159(10)
_cell_measurement_reflns_used    25
_cell_measurement_temperature    293(2)
_cell_measurement_theta_max      67.61
_cell_measurement_theta_min      0
_cell_volume                     408.39(16)
_computing_cell_refinement       'MSC/AFC (Molecular Structure Corp. 1991)'
_computing_data_collection       'MSC/AFC (Molecular Structure Corp. 1991)'
_computing_data_reduction        'MSC/AFC (Molecular Structure Corp. 1991)'
_computing_structure_refinement  'SHELXL-97 (Sheldrick, 1997)'
_computing_structure_solution    'SHELXS-97 (Sheldrick, 1990)'
_diffrn_ambient_temperature      293(2)
_diffrn_measured_fraction_theta_full .983
_diffrn_measured_fraction_theta_max .983
_diffrn_measurement_device_type  'Rigaku AFC5R'
_diffrn_measurement_method       \w-2\q
_diffrn_radiation_monochromator  graphite
_diffrn_radiation_source         'fine-focus sealed tube'
_diffrn_radiation_type           'Cu K\a'
_diffrn_radiation_wavelength     1.54180
_diffrn_reflns_av_R_equivalents  .0648
_diffrn_reflns_av_sigmaI/netI    .0143
_diffrn_reflns_limit_h_max       9
_diffrn_reflns_limit_h_min       0
_diffrn_reflns_limit_k_max       5
_diffrn_reflns_limit_k_min       0
_diffrn_reflns_limit_l_max       12
_diffrn_reflns_limit_l_min       -12
_diffrn_reflns_number            877
_diffrn_reflns_theta_full        67.61
_diffrn_reflns_theta_max         67.61
_diffrn_reflns_theta_min         4.10
_diffrn_standards_decay_%        2
_diffrn_standards_interval_count 100
_diffrn_standards_number         3
_exptl_absorpt_coefficient_mu    3.832
_exptl_absorpt_correction_T_max  .465
_exptl_absorpt_correction_T_min  .355
_exptl_absorpt_correction_type   \y-scan
_exptl_absorpt_process_details   'North, et al., 1990'
_exptl_crystal_colour            colourless
_exptl_crystal_density_diffrn    1.477
_exptl_crystal_density_meas      1.462(5)
_exptl_crystal_density_method    measured
_exptl_crystal_description       needle
_exptl_crystal_F_000             192
_exptl_crystal_size_max          .8
_exptl_crystal_size_mid          .2
_exptl_crystal_size_min          .2
_refine_diff_density_max         .655
_refine_diff_density_min         -.389
_refine_ls_abs_structure_details 'Flack H D (1983), Acta Cryst. A39, 876-881'
_refine_ls_abs_structure_Flack   .00(3)
_refine_ls_extinction_coef       .187(19)
_refine_ls_extinction_method     SHELXL
_refine_ls_goodness_of_fit_ref   1.387
_refine_ls_hydrogen_treatment    mixed
_refine_ls_matrix_type           full
_refine_ls_number_parameters     100
_refine_ls_number_reflns         816
_refine_ls_number_restraints     0
_refine_ls_restrained_S_all      1.387
_refine_ls_R_factor_all          .0426
_refine_ls_R_factor_gt           .0425
_refine_ls_shift/su_max          .091
_refine_ls_shift/su_mean         .026
_refine_ls_structure_factor_coef Fsqd
_refine_ls_weighting_details
'w=1/[\w^2^(Fo^2^)+(0.1P)^2^] where P=(Fo^2^+2Fc^2^)/3'
_refine_ls_weighting_scheme      calc
_refine_ls_wR_factor_ref         .1368
_reflns_number_gt                812
_reflns_number_total             816
_reflns_threshold_expression     >2\s(I)
_cod_data_source_file            oa0030.cif
_cod_data_source_block           glnNH2
_cod_depositor_comments
;
The following automatic conversions were performed:

'_refine_ls_weighting_scheme' value 'calc
w=1/[\w^2^(Fo^2^)+(0.1P)^2^] where P=(Fo^2^+2Fc^2^)/3' was changed to
'calc'. New tag '_refine_ls_weighting_details' was created. The value
of the new tag was set to 'w=1/[\w^2^(Fo^2^)+(0.1P)^2^] where
P=(Fo^2^+2Fc^2^)/3'.

Automatic conversion script
Id: cif_fix_values 3143 2015-03-26 13:38:13Z robertas 
;
_cod_original_sg_symbol_Hall     'P 2y1'
_cod_original_sg_symbol_H-M      'P 21'
_cod_database_code               2103569
_cod_database_fobs_code          2103569
loop_
_symmetry_equiv_pos_as_xyz
'x, y, z'
'-x, y+1/2, -z'
loop_
_atom_site_label
_atom_site_fract_x
_atom_site_fract_y
_atom_site_fract_z
_atom_site_U_iso_or_equiv
_atom_site_adp_type
_atom_site_calc_flag
_atom_site_refinement_flags
_atom_site_occupancy
_atom_site_type_symbol
Cl1 .02342(8) .9375 .14451(6) .0283(4) Uani d . 1 Cl
N1 .7251(3) .9419(9) .8927(2) .0243(7) Uani d . 1 N
H1A .8062 1.0570 .8820 .029 Uiso d R 1 H
H1B .7834 .7940 .8831 .029 Uiso d R 1 H
H1C .6668 .9467 .9599 .029 Uiso d R 1 H
C1 .5705(4) .9710(9) .8019(3) .0220(8) Uani d . 1 C
H1 .5385 1.1642 .7926 .026 Uiso calc R 1 H
C1' .4228(4) .8108(9) .8536(3) .0221(7) Uani d . 1 C
O1' .4478(3) .5815(7) .8956(2) .0288(7) Uani d . 1 O
N2 .2716(3) .9408(11) .8498(3) .0350(8) Uani d . 1 N
H2NA .1645 .8615 .8674 .042 Uiso d R 1 H
H2NB .2575 1.0924 .7986 .042 Uiso d R 1 H
C2 .6081(4) .8499(10) .6755(2) .0278(9) Uani d . 1 C
H2A .6518 .6652 .6872 .033 Uiso calc R 1 H
H2B .5011 .8405 .6231 .033 Uiso calc R 1 H
C3 .7399(5) 1.0201(9) .6108(3) .0356(10) Uani d . 1 C
H3A .6971 1.2058 .6009 .043 Uiso calc R 1 H
H3B .8474 1.0264 .6627 .043 Uiso calc R 1 H
C4 .7760(4) .9076(12) .4850(3) .0299(10) Uani d . 1 C
O5 .7516(5) .6670(9) .4566(3) .0523(10) Uani d . 1 O
N6 .8393(4) 1.0866(9) .4092(3) .0364(9) Uani d . 1 N
H6A .8683 .9894 .3362 .044 Uiso d R 1 H
H6B .8974 1.2451 .4575 .044 Uiso d R 1 H
loop_
_atom_site_aniso_label
_atom_site_aniso_U_11
_atom_site_aniso_U_22
_atom_site_aniso_U_33
_atom_site_aniso_U_12
_atom_site_aniso_U_13
_atom_site_aniso_U_23
Cl1 .0253(5) .0304(6) .0297(5) .0029(4) .0045(3) .0013(4)
N1 .0216(12) .0287(16) .0231(11) -.0025(17) .0051(9) -.0046(17)
C1 .0243(14) .019(2) .0230(13) -.0006(16) .0041(11) .0000(16)
C1' .0242(15) .0258(19) .0167(12) -.0013(16) .0032(9) -.0008(15)
O1' .0280(13) .0277(16) .0317(13) -.0003(12) .0077(10) .0078(12)
N2 .0228(13) .039(2) .0438(16) .0054(19) .0035(11) .010(2)
C2 .0284(16) .035(2) .0206(15) -.0079(15) .0061(12) -.0004(17)
C3 .048(2) .036(3) .0244(15) -.0107(19) .0146(14) -.0065(17)
C4 .0291(16) .038(3) .0229(17) -.0002(17) .0018(12) -.006(2)
O5 .079(2) .038(2) .0423(16) -.0132(19) .0202(15) -.0157(17)
N6 .0504(19) .037(2) .0235(14) -.0023(19) .0151(13) -.0014(16)
loop_
_atom_type_symbol
_atom_type_description
_atom_type_scat_dispersion_real
_atom_type_scat_dispersion_imag
_atom_type_scat_source
C C .0181 .0091 'International Tables Vol C Tables 4.2.6.8 and 6.1.1.4'
H H .0000 .0000 'International Tables Vol C Tables 4.2.6.8 and 6.1.1.4'
O O .0492 .0322 'International Tables Vol C Tables 4.2.6.8 and 6.1.1.4'
N N .0311 .0180 'International Tables Vol C Tables 4.2.6.8 and 6.1.1.4'
Cl Cl .3639 .7018 'International Tables Vol C Tables 4.2.6.8 and 6.1.1.4'
loop_
_geom_angle_atom_site_label_1
_geom_angle_atom_site_label_2
_geom_angle_atom_site_label_3
_geom_angle
N1 C1 C1' 107.2(3)
N1 C1 C2 110.6(3)
C1' C1 C2 108.9(3)
O1' C1' N2 124.5(4)
O1' C1' C1 120.4(3)
N2 C1' C1 115.1(4)
C3 C2 C1 112.0(3)
C4 C3 C2 112.8(3)
O5 C4 N6 122.6(4)
O5 C4 C3 122.6(4)
N6 C4 C3 114.8(4)
loop_
_geom_bond_atom_site_label_1
_geom_bond_atom_site_label_2
_geom_bond_distance
N1 C1 1.499(4)
C1 C1' 1.525(5)
C1 C2 1.538(4)
C1' O1' 1.220(5)
C1' N2 1.330(5)
C2 C3 1.526(5)
C3 C4 1.512(5)
C4 O5 1.227(8)
C4 N6 1.317(6)
loop_
_cod_related_entry_id
_cod_related_entry_database
_cod_related_entry_code
1 ChemSpider 21188450
