#------------------------------------------------------------------------------
#$Date: 2017-10-13 08:28:26 +0300 (Fri, 13 Oct 2017) $
#$Revision: 201972 $
#$URL: file:///home/coder/svn-repositories/cod/cif/2/10/41/2104191.cif $
#------------------------------------------------------------------------------
#
# This file is available in the Crystallography Open Database (COD),
# http://www.crystallography.net/. The original data for this entry
# were provided by IUCr Journals, http://journals.iucr.org/.
#
# The file may be used within the scientific community so long as
# proper attribution is given to the journal article from which the
# data were obtained.
#
data_2104191
loop_
_publ_author_name
'Cobo, Justo'
'Trilleras, Jorge'
'Quiroga, Jairo'
'Marchal, Antonio'
'Nogueras, Manuel'
'Low, John N.'
'Glidewell, Christopher'
_publ_section_title
;
 <i>N</i>^6^-Substituted 2-amino-4-chloro-5-formylpyrimidines: puckered
 <i>versus</i> planar pyrimidine rings, and hydrogen-bonded aggregation
 in zero, one, two and three dimensions
;
_journal_coeditor_code           BM5057
_journal_issue                   5
_journal_name_full               'Acta Crystallographica Section B'
_journal_page_first              596
_journal_page_last               609
_journal_paper_doi               10.1107/S0108768108019915
_journal_volume                  64
_journal_year                    2008
_chemical_formula_moiety         'C12 H17 Cl N4 O'
_chemical_formula_sum            'C12 H17 Cl N4 O'
_chemical_formula_weight         268.75
_chemical_name_systematic
;
 ?
;
_space_group_IT_number           2
_symmetry_cell_setting           triclinic
_symmetry_space_group_name_Hall  '-P 1'
_symmetry_space_group_name_H-M   'P -1'
_atom_sites_solution_hydrogens   geom
_atom_sites_solution_primary     direct
_atom_sites_solution_secondary   difmap
_cell_angle_alpha                82.598(6)
_cell_angle_beta                 82.701(5)
_cell_angle_gamma                88.645(5)
_cell_formula_units_Z            2
_cell_length_a                   8.5722(6)
_cell_length_b                   8.7195(5)
_cell_length_c                   8.7681(7)
_cell_measurement_reflns_used    2950
_cell_measurement_temperature    120(2)
_cell_measurement_theta_max      27.50
_cell_measurement_theta_min      3.12
_cell_volume                     644.63(8)
_computing_cell_refinement       'DIRAX/LSQ (Duisenberg et al., 2000)'
_computing_data_collection       'COLLECT (Hooft, 1999)'
_computing_data_reduction        'EVALCCD (Duisenberg et al., 2003)'
_computing_molecular_graphics    'PLATON (Spek, 2003)'
_computing_publication_material  'SHELXL-97 and PRPKAPPA (Ferguson, 1999)'
_computing_structure_refinement
'OSCAIL (McArdle, 2003) and SHELXL-97 (Sheldrick, 1997)'
_computing_structure_solution    'Sir2004 (Burla et al., 2005)'
_diffrn_ambient_temperature      120(2)
_diffrn_measured_fraction_theta_full 0.997
_diffrn_measured_fraction_theta_max 0.997
_diffrn_measurement_device_type  'Bruker-Nonius KappaCCD'
_diffrn_measurement_method       '\f & \w scans'
_diffrn_radiation_monochromator  graphite
_diffrn_radiation_source         'Bruker-Nonius FR591 rotating anode'
_diffrn_radiation_type           'Mo K\a'
_diffrn_radiation_wavelength     0.71073
_diffrn_reflns_av_R_equivalents  0.0184
_diffrn_reflns_av_sigmaI/netI    0.0124
_diffrn_reflns_limit_h_max       11
_diffrn_reflns_limit_h_min       -11
_diffrn_reflns_limit_k_max       11
_diffrn_reflns_limit_k_min       -11
_diffrn_reflns_limit_l_max       11
_diffrn_reflns_limit_l_min       -11
_diffrn_reflns_number            18098
_diffrn_reflns_theta_full        27.50
_diffrn_reflns_theta_max         27.50
_diffrn_reflns_theta_min         3.12
_diffrn_standards_decay_%        0
_diffrn_standards_number         0
_exptl_absorpt_coefficient_mu    0.291
_exptl_absorpt_correction_T_max  0.966
_exptl_absorpt_correction_T_min  0.856
_exptl_absorpt_correction_type   multi-scan
_exptl_absorpt_process_details   'SADABS 2.10 (Sheldrick, 2003)'
_exptl_crystal_colour            colourless
_exptl_crystal_density_diffrn    1.385
_exptl_crystal_density_method    'not measured'
_exptl_crystal_description       lath
_exptl_crystal_F_000             284
_exptl_crystal_size_max          0.55
_exptl_crystal_size_mid          0.29
_exptl_crystal_size_min          0.12
_refine_diff_density_max         0.337
_refine_diff_density_min         -0.243
_refine_ls_extinction_method     none
_refine_ls_goodness_of_fit_ref   1.083
_refine_ls_hydrogen_treatment    constr
_refine_ls_matrix_type           full
_refine_ls_number_parameters     164
_refine_ls_number_reflns         2950
_refine_ls_number_restraints     0
_refine_ls_restrained_S_all      1.083
_refine_ls_R_factor_all          0.0364
_refine_ls_R_factor_gt           0.0310
_refine_ls_shift/su_max          0.000
_refine_ls_shift/su_mean         0.000
_refine_ls_structure_factor_coef Fsqd
_refine_ls_weighting_details
'w=1/[\s^2^(Fo^2^)+(0.0351P)^2^+0.3109P] where P=(Fo^2^+2Fc^2^)/3'
_refine_ls_weighting_scheme      calc
_refine_ls_wR_factor_gt          0.0754
_refine_ls_wR_factor_ref         0.0798
_reflns_number_gt                2650
_reflns_number_total             2950
_reflns_threshold_expression     I>2\s(I)
_cod_data_source_file            bm5057.cif
_cod_data_source_block           IV
_cod_depositor_comments
;
The following automatic conversions were performed:
'_exptl_absorpt_correction_type' value 'Multi-scan' changed to
'multi-scan' according to
'/home/saulius/struct/CIF-dictionaries/cif_core.dic' dictionary named
'cif_core.dic' version 2.4.1 from 2010-06-29.

Automatic conversion script
Id: cif_fix_enum 1527 2010-12-29 10:47:43Z saulius 

The following automatic conversions were performed:

'_exptl_absorpt_correction_type' value 'Multi-scan' changed to
'multi-scan' according to
/home/saulius/struct/CIF-dictionaries/cif_core.dic dictionary named
'cif_core.dic' version 2.4.1 from 2010-06-29.

Automatic conversion script
Id: cif_fix_values 1715 2011-07-08 13:25:40Z adriana 
;
_cod_database_code               2104191
loop_
_symmetry_equiv_pos_as_xyz
'x, y, z'
'-x, -y, -z'
loop_
_atom_site_type_symbol
_atom_site_label
_atom_site_fract_x
_atom_site_fract_y
_atom_site_fract_z
_atom_site_U_iso_or_equiv
_atom_site_adp_type
_atom_site_calc_flag
_atom_site_refinement_flags
_atom_site_occupancy
Cl Cl4 0.08515(3) 0.86418(3) 0.14913(4) 0.02344(10) Uani d . 1
O O51 0.10958(10) 0.37823(10) 0.11711(10) 0.02188(19) Uani d . 1
N N1 0.53482(11) 0.59963(11) 0.14624(11) 0.0155(2) Uani d . 1
N N2 0.65263(12) 0.82596(11) 0.03284(12) 0.0191(2) Uani d . 1
N N3 0.38672(12) 0.83698(11) 0.11058(12) 0.0171(2) Uani d . 1
N N61 0.41428(11) 0.37877(11) 0.27134(11) 0.0160(2) Uani d . 1
C C2 0.52251(14) 0.74955(13) 0.09633(13) 0.0158(2) Uani d . 1
C C4 0.25849(14) 0.75455(13) 0.14349(13) 0.0165(2) Uani d . 1
C C5 0.25019(13) 0.59279(13) 0.17197(13) 0.0159(2) Uani d . 1
C C6 0.40092(13) 0.52129(13) 0.19577(13) 0.0147(2) Uani d . 1
C C51 0.11337(14) 0.51353(14) 0.14201(14) 0.0196(2) Uani d . 1
C C61 0.57301(13) 0.31075(13) 0.28449(13) 0.0159(2) Uani d . 1
C C62 0.57286(15) 0.13447(13) 0.29619(15) 0.0205(2) Uani d . 1
C C63 0.74075(16) 0.07226(15) 0.29846(15) 0.0253(3) Uani d . 1
C C64 0.81615(16) 0.12409(16) 0.43179(16) 0.0261(3) Uani d . 1
C C65 0.81133(15) 0.29982(15) 0.42411(15) 0.0229(3) Uani d . 1
C C66 0.64347(14) 0.36293(14) 0.42108(14) 0.0187(2) Uani d . 1
C C67 0.28209(15) 0.30183(14) 0.37147(15) 0.0214(3) Uani d . 1
H H2A 0.7349 0.7723 0.0066 0.023 Uiso d R 1
H H2B 0.6437 0.9209 -0.0062 0.023 Uiso d R 1
H H51 0.0179 0.5710 0.1415 0.024 Uiso calc R 1
H H61 0.6426 0.3502 0.1877 0.019 Uiso calc R 1
H H62A 0.5282 0.1024 0.2066 0.025 Uiso calc R 1
H H62B 0.5065 0.0911 0.3921 0.025 Uiso calc R 1
H H63A 0.7394 -0.0421 0.3093 0.030 Uiso calc R 1
H H63B 0.8046 0.1096 0.1990 0.030 Uiso calc R 1
H H64A 0.7594 0.0774 0.5318 0.031 Uiso calc R 1
H H64B 0.9267 0.0876 0.4263 0.031 Uiso calc R 1
H H65A 0.8784 0.3458 0.3298 0.027 Uiso calc R 1
H H65B 0.8544 0.3303 0.5153 0.027 Uiso calc R 1
H H66A 0.6445 0.4773 0.4110 0.022 Uiso calc R 1
H H66B 0.5781 0.3247 0.5194 0.022 Uiso calc R 1
H H67A 0.2400 0.2225 0.3185 0.032 Uiso calc R 1
H H67B 0.1996 0.3781 0.3949 0.032 Uiso calc R 1
H H67C 0.3180 0.2532 0.4682 0.032 Uiso calc R 1
loop_
_atom_site_aniso_label
_atom_site_aniso_U_11
_atom_site_aniso_U_22
_atom_site_aniso_U_33
_atom_site_aniso_U_12
_atom_site_aniso_U_13
_atom_site_aniso_U_23
Cl4 0.02018(16) 0.02003(15) 0.02897(17) 0.00824(11) -0.00240(11) -0.00103(12)
O51 0.0208(4) 0.0190(4) 0.0262(5) -0.0006(3) -0.0041(3) -0.0032(3)
N1 0.0168(5) 0.0128(4) 0.0165(5) 0.0012(4) -0.0027(4) -0.0002(4)
N2 0.0189(5) 0.0118(4) 0.0255(5) 0.0010(4) -0.0017(4) 0.0006(4)
N3 0.0195(5) 0.0131(4) 0.0184(5) 0.0031(4) -0.0026(4) -0.0013(4)
N61 0.0157(5) 0.0140(4) 0.0172(5) 0.0014(4) -0.0022(4) 0.0019(4)
C2 0.0188(6) 0.0145(5) 0.0148(5) 0.0020(4) -0.0041(4) -0.0027(4)
C4 0.0184(5) 0.0171(5) 0.0137(5) 0.0059(4) -0.0032(4) -0.0013(4)
C5 0.0171(5) 0.0157(5) 0.0147(5) 0.0026(4) -0.0023(4) -0.0007(4)
C6 0.0180(5) 0.0134(5) 0.0129(5) 0.0023(4) -0.0023(4) -0.0022(4)
C51 0.0176(6) 0.0205(6) 0.0205(6) 0.0025(4) -0.0036(4) -0.0011(5)
C61 0.0168(5) 0.0139(5) 0.0161(5) 0.0037(4) -0.0020(4) 0.0005(4)
C62 0.0269(6) 0.0150(5) 0.0196(6) 0.0031(5) -0.0063(5) 0.0003(4)
C63 0.0319(7) 0.0200(6) 0.0240(6) 0.0116(5) -0.0061(5) -0.0026(5)
C64 0.0262(7) 0.0281(7) 0.0239(6) 0.0106(5) -0.0071(5) -0.0003(5)
C65 0.0179(6) 0.0277(6) 0.0231(6) 0.0037(5) -0.0044(5) -0.0019(5)
C66 0.0185(6) 0.0191(5) 0.0187(6) 0.0032(4) -0.0028(4) -0.0028(4)
C67 0.0199(6) 0.0201(6) 0.0220(6) -0.0010(5) -0.0009(5) 0.0040(5)
loop_
_atom_type_symbol
_atom_type_description
_atom_type_scat_dispersion_real
_atom_type_scat_dispersion_imag
_atom_type_scat_source
C C 0.0033 0.0016 'International Tables Vol C Tables 4.2.6.8 and 6.1.1.4'
H H 0.0000 0.0000 'International Tables Vol C Tables 4.2.6.8 and 6.1.1.4'
Cl Cl 0.1484 0.1585 'International Tables Vol C Tables 4.2.6.8 and 6.1.1.4'
N N 0.0061 0.0033 'International Tables Vol C Tables 4.2.6.8 and 6.1.1.4'
O O 0.0106 0.0060 'International Tables Vol C Tables 4.2.6.8 and 6.1.1.4'
loop_
_geom_angle_atom_site_label_1
_geom_angle_atom_site_label_2
_geom_angle_atom_site_label_3
_geom_angle
_geom_angle_publ_flag
C2 N1 C6 117.52(10) no
C2 N2 H2A 117.7 no
C2 N2 H2B 118.4 no
H2A N2 H2B 121.0 no
C4 N3 C2 113.70(10) no
C6 N61 C67 121.95(10) no
C6 N61 C61 119.35(10) no
C67 N61 C61 117.18(9) no
N1 C2 N2 118.40(10) no
N1 C2 N3 125.65(11) no
N2 C2 N3 115.88(10) no
N3 C4 C5 126.41(11) no
N3 C4 Cl4 114.03(9) no
C5 C4 Cl4 119.56(9) no
C4 C5 C51 120.36(10) no
C4 C5 C6 112.53(10) no
C51 C5 C6 125.50(10) no
N61 C6 N1 117.04(10) no
N61 C6 C5 122.60(10) no
N1 C6 C5 120.32(10) no
O51 C51 C5 125.76(11) no
O51 C51 H51 117.1 no
C5 C51 H51 117.1 no
N61 C61 C62 112.29(10) no
N61 C61 C66 111.37(9) no
C62 C61 C66 110.60(9) no
N61 C61 H61 107.4 no
C62 C61 H61 107.4 no
C66 C61 H61 107.4 no
C61 C62 C63 109.77(10) no
C61 C62 H62A 109.7 no
C63 C62 H62A 109.7 no
C61 C62 H62B 109.7 no
C63 C62 H62B 109.7 no
H62A C62 H62B 108.2 no
C64 C63 C62 111.39(10) no
C64 C63 H63A 109.4 no
C62 C63 H63A 109.4 no
C64 C63 H63B 109.4 no
C62 C63 H63B 109.4 no
H63A C63 H63B 108.0 no
C65 C64 C63 110.76(10) no
C65 C64 H64A 109.5 no
C63 C64 H64A 109.5 no
C65 C64 H64B 109.5 no
C63 C64 H64B 109.5 no
H64A C64 H64B 108.1 no
C64 C65 C66 111.47(11) no
C64 C65 H65A 109.3 no
C66 C65 H65A 109.3 no
C64 C65 H65B 109.3 no
C66 C65 H65B 109.3 no
H65A C65 H65B 108.0 no
C65 C66 C61 109.85(10) no
C65 C66 H66A 109.7 no
C61 C66 H66A 109.7 no
C65 C66 H66B 109.7 no
C61 C66 H66B 109.7 no
H66A C66 H66B 108.2 no
N61 C67 H67A 109.5 no
N61 C67 H67B 109.5 no
H67A C67 H67B 109.5 no
N61 C67 H67C 109.5 no
H67A C67 H67C 109.5 no
H67B C67 H67C 109.5 no
loop_
_geom_bond_atom_site_label_1
_geom_bond_atom_site_label_2
_geom_bond_distance
_geom_bond_publ_flag
Cl4 C4 1.7465(11) no
O51 C51 1.2290(15) no
N1 C2 1.3301(15) no
N1 C6 1.3441(15) no
N2 C2 1.3340(15) no
N2 H2A 0.8603 no
N2 H2B 0.86 no
N3 C4 1.3082(16) no
N3 C2 1.3775(15) no
N61 C6 1.3405(15) no
N61 C67 1.4616(15) no
N61 C61 1.4835(14) no
C4 C5 1.4023(16) no
C5 C51 1.4441(17) no
C5 C6 1.4487(15) no
C51 H51 0.95 no
C61 C62 1.5273(16) no
C61 C66 1.5308(16) no
C61 H61 1.00 no
C62 C63 1.5275(17) no
C62 H62A 0.99 no
C62 H62B 0.99 no
C63 C64 1.5266(19) no
C63 H63A 0.99 no
C63 H63B 0.99 no
C64 C65 1.5249(19) no
C64 H64A 0.99 no
C64 H64B 0.99 no
C65 C66 1.5306(16) no
C65 H65A 0.99 no
C65 H65B 0.99 no
C66 H66A 0.99 no
C66 H66B 0.99 no
C67 H67A 0.98 no
C67 H67B 0.98 no
C67 H67C 0.98 no
loop_
_geom_hbond_atom_site_label_D
_geom_hbond_atom_site_label_H
_geom_hbond_atom_site_label_A
_geom_hbond_site_symmetry_A
_geom_hbond_distance_DH
_geom_hbond_distance_HA
_geom_hbond_distance_DA
_geom_hbond_angle_DHA
_geom_hbond_publ_flag
N2 H2A O51 2_665 0.86 2.14 2.9672(14) 160 no
N2 H2B N3 2_675 0.86 2.21 3.0727(14) 178 no
loop_
_geom_torsion_atom_site_label_1
_geom_torsion_atom_site_label_2
_geom_torsion_atom_site_label_3
_geom_torsion_atom_site_label_4
_geom_torsion
_geom_torsion_publ_flag
C6 N1 C2 N2 -173.62(10) no
C6 N1 C2 N3 9.61(17) no
C4 N3 C2 N1 -16.20(17) no
C4 N3 C2 N2 166.96(10) no
C2 N3 C4 C5 3.51(17) no
C2 N3 C4 Cl4 -175.98(8) no
N3 C4 C5 C51 -153.44(12) no
Cl4 C4 C5 C51 26.02(15) no
N3 C4 C5 C6 12.91(17) no
Cl4 C4 C5 C6 -167.63(8) no
C67 N61 C6 N1 160.41(11) no
C61 N61 C6 N1 -5.12(15) no
C67 N61 C6 C5 -17.34(17) no
C61 N61 C6 C5 177.13(10) no
C2 N1 C6 N61 -168.26(10) no
C2 N1 C6 C5 9.54(16) no
C4 C5 C6 N61 158.15(11) no
C51 C5 C6 N61 -36.33(17) no
C4 C5 C6 N1 -19.52(15) no
C51 C5 C6 N1 146.00(12) no
C4 C5 C51 O51 156.72(12) no
C6 C5 C51 O51 -7.8(2) no
C6 N61 C61 C62 -151.21(10) no
C67 N61 C61 C62 42.58(14) no
C6 N61 C61 C66 84.13(13) no
C67 N61 C61 C66 -82.08(12) no
N61 C61 C62 C63 176.23(10) no
C66 C61 C62 C63 -58.69(13) no
C61 C62 C63 C64 57.30(14) no
C62 C63 C64 C65 -55.66(15) no
C63 C64 C65 C66 55.32(14) no
C64 C65 C66 C61 -56.62(14) no
N61 C61 C66 C65 -176.05(9) no
C62 C61 C66 C65 58.35(13) no
loop_
_cod_related_entry_id
_cod_related_entry_database
_cod_related_entry_code
1 ChemSpider 30654519
