#------------------------------------------------------------------------------
#$Date: 2017-10-13 08:28:26 +0300 (Fri, 13 Oct 2017) $
#$Revision: 201972 $
#$URL: file:///home/coder/svn-repositories/cod/cif/2/10/41/2104165.cif $
#------------------------------------------------------------------------------
#
# This file is available in the Crystallography Open Database (COD),
# http://www.crystallography.net/. The original data for this entry
# were provided by IUCr Journals, http://journals.iucr.org/.
#
# The file may be used within the scientific community so long as
# proper attribution is given to the journal article from which the
# data were obtained.
#
data_2104165
loop_
_publ_author_name
'Lozano-Casal, P.'
'Allan, D. R.'
'Parsons, S.'
_publ_section_title
;
 High-pressure structural study of <small>L</small>-\a-glutamine and
 the use of Hirshfeld surfaces and graph-set notation to investigate
 the hydrogen bonding present in the structure up to 4.9GPa
;
_journal_coeditor_code           BM5054
_journal_issue                   4
_journal_name_full               'Acta Crystallographica Section B'
_journal_page_first              466
_journal_page_last               475
_journal_paper_doi               10.1107/S010876810801793X
_journal_volume                  64
_journal_year                    2008
_chemical_formula_moiety         ' C5 H10 N2 O3 '
_chemical_formula_sum            'C5 H10 N2 O3'
_chemical_formula_weight         146.15
_chemical_name_systematic
;
?
;
_space_group_IT_number           19
_symmetry_cell_setting           orthorhombic
_symmetry_space_group_name_Hall  'P 2ac 2ab'
_symmetry_space_group_name_H-M   'P 21 21 21'
_atom_sites_solution_hydrogens   geom
_atom_sites_solution_primary     direct
_audit_creation_method           CRYSTALS_ver_12-03-99
_cell_angle_alpha                90
_cell_angle_beta                 90
_cell_angle_gamma                90
_cell_formula_units_Z            4
_cell_length_a                   15.191(8)
_cell_length_b                   7.455(5)
_cell_length_c                   4.882(4)
_cell_measurement_reflns_used    190
_cell_measurement_temperature    293
_cell_measurement_theta_max      22.51
_cell_measurement_theta_min      5.37
_cell_volume                     552.9(7)
_computing_cell_refinement
;
 SAINT (Siemens ,1995)
;
_computing_data_collection
;
 SMART (Siemens, 1993)
;
_computing_data_reduction
;
 SAINT (Siemens ,1995)
;
_computing_molecular_graphics
;
 CAMERON (Watkin et al 1996)
;
_computing_publication_material
;
 CRYSTALS (Watkin et al 2001)
;
_computing_structure_refinement
;
 CRYSTALS (Watkin et al 2001)
;
_computing_structure_solution
;
 SIR92 (Altomare et al, 1994)
;
_diffrn_ambient_temperature      293
_diffrn_measured_fraction_theta_full 0.664
_diffrn_measured_fraction_theta_max 0.566
_diffrn_measurement_device_type
;
Bruker SMART
;
_diffrn_measurement_method       '\f & \w scans'
_diffrn_radiation_monochromator  graphite
_diffrn_radiation_type           'Mo K\a'
_diffrn_radiation_wavelength     0.71073
_diffrn_reflns_av_R_equivalents  0.2135
_diffrn_reflns_limit_h_max       16
_diffrn_reflns_limit_h_min       -16
_diffrn_reflns_limit_k_max       8
_diffrn_reflns_limit_k_min       8
_diffrn_reflns_limit_l_max       3
_diffrn_reflns_limit_l_min       -3
_diffrn_reflns_number            292
_diffrn_reflns_theta_full        17.545
_diffrn_reflns_theta_max         23.238
_diffrn_reflns_theta_min         2.682
_diffrn_standards_decay_%        0.00
_diffrn_standards_interval_count 0
_diffrn_standards_interval_time  0
_diffrn_standards_number         0
_exptl_absorpt_coefficient_mu    0.145
_exptl_absorpt_correction_T_max  1.000
_exptl_absorpt_correction_T_min  0.722
_exptl_absorpt_correction_type   multi-scan
_exptl_absorpt_process_details
;
 SORTAV (Blessing)
;
_exptl_crystal_colour            ' colourless '
_exptl_crystal_density_diffrn    1.756
_exptl_crystal_description       ' block '
_exptl_crystal_F_000             312.000
_exptl_crystal_size_max          0.00
_exptl_crystal_size_mid          0.00
_exptl_crystal_size_min          0.00
_refine_diff_density_max         1.00
_refine_diff_density_min         -1.05
_refine_ls_extinction_method     None
_refine_ls_goodness_of_fit_ref   1.0975
_refine_ls_hydrogen_treatment    mixed
_refine_ls_matrix_type           full
_refine_ls_number_parameters     41
_refine_ls_number_reflns         278
_refine_ls_R_factor_all          0.1658
_refine_ls_R_factor_gt           0.1143
_refine_ls_shift/su_max          0.000027
_refine_ls_structure_factor_coef Fsqd
_refine_ls_weighting_details
;
Method = SHELXL 97 (Sheldrick, 1997)
 W = q / [Sigma^2(F*)+(P(1)p)^2+P(2)p+P(4)+P(5)Sin(theta) ]
 0.00 3.26 0.00 0.00 0.00 0.333
;
_refine_ls_weighting_scheme      calc
_refine_ls_wR_factor_all         0.1827
_refine_ls_wR_factor_gt          0.1707
_refine_ls_wR_factor_ref         0.1827
_reflns_number_gt                182
_reflns_number_total             283
_reflns_threshold_expression     I>2.00u(I)
_cod_data_source_file            bm5054.cif
_cod_data_source_block           4.9
_cod_depositor_comments
;
The following automatic conversions were performed:
'_symmetry_cell_setting' value 'Orthorhombic' changed to 'orthorhombic'
according to '/home/saulius/struct/CIF-dictionaries/cif_core.dic'
dictionary named 'cif_core.dic' version 2.4.1 from 2010-06-29.

Automatic conversion script
Id: cif_fix_enum 1527 2010-12-29 10:47:43Z saulius 

The following automatic conversions were performed:

'_symmetry_cell_setting' value 'Orthorhombic' changed to
'orthorhombic' according to
/home/saulius/struct/CIF-dictionaries/cif_core.dic dictionary named
'cif_core.dic' version 2.4.1 from 2010-06-29.

Automatic conversion script
Id: cif_fix_values 1715 2011-07-08 13:25:40Z adriana 
;
_cod_original_cell_volume        552.8(6)
_cod_original_sg_symbol_H-M      'P 21 21 21 '
_cod_original_formula_sum        ' C5 H10 N2 O3 '
_cod_database_code               2104165
loop_
_symmetry_equiv_pos_as_xyz
x,y,z
x+1/2,-y+1/2,-z
-x,y+1/2,-z+1/2
-x+1/2,-y,z+1/2
loop_
_atom_site_type_symbol
_atom_site_label
_atom_site_fract_x
_atom_site_fract_y
_atom_site_fract_z
_atom_site_U_iso_or_equiv
_atom_site_adp_type
_atom_site_occupancy
C C1 0.4946(8) 0.619(2) 0.736(4) 0.025(5) Uiso 1.0000
C C2 0.4083(8) 0.6962(17) 0.623(5) 0.028(5) Uiso 1.0000
C C3 0.3386(8) 0.5471(16) 0.625(5) 0.024(5) Uiso 1.0000
C C4 0.3657(8) 0.3955(16) 0.429(5) 0.019(4) Uiso 1.0000
C C5 0.2995(9) 0.2424(18) 0.468(4) 0.029(5) Uiso 1.0000
N N1 0.4169(8) 0.7804(18) 0.348(5) 0.033(4) Uiso 1.0000
N N2 0.3006(8) 0.1232(18) 0.260(4) 0.032(4) Uiso 1.0000
O O1 0.5562(6) 0.5959(14) 0.569(4) 0.033(3) Uiso 1.0000
O O2 0.2504(7) 0.2316(14) 0.673(4) 0.037(4) Uiso 1.0000
O O3 0.4959(6) 0.5678(16) 0.980(4) 0.038(4) Uiso 1.0000
H H10 0.3898 0.7972 0.7446 0.0336 Uiso 1.0000
H H2 0.3330 0.4979 0.8151 0.0286 Uiso 1.0000
H H3 0.2807 0.5978 0.5658 0.0286 Uiso 1.0000
H H8 0.4265 0.3532 0.4731 0.0225 Uiso 1.0000
H H6 0.3639 0.4392 0.2350 0.0225 Uiso 1.0000
H H5 0.3419 0.1409 0.1022 0.0389 Uiso 1.0000
H H4 0.2603 0.0172 0.2626 0.0389 Uiso 1.0000
H H9 0.4628 0.8765 0.3552 0.0400 Uiso 1.0000
H H1 0.4345 0.6873 0.2112 0.0400 Uiso 1.0000
H H7 0.3592 0.8341 0.2934 0.0400 Uiso 1.0000
loop_
_atom_type_symbol
_atom_type_scat_dispersion_real
_atom_type_scat_dispersion_imag
_atom_type_scat_source
'C   ' 0.0033 0.0016 International_Tables_Vol_IV_Table_2.2B
'H   ' 0.0000 0.0000 International_Tables_Vol_IV_Table_2.2B
'N   ' 0.0061 0.0033 International_Tables_Vol_IV_Table_2.2B
'O   ' 0.0106 0.0060 International_Tables_Vol_IV_Table_2.2B
loop_
_geom_angle_atom_site_label_1
_geom_angle_atom_site_label_2
_geom_angle_atom_site_label_3
_geom_angle
_geom_angle_publ_flag
C2 C1 O1 117.0(14) yes
C2 C1 O3 118.1(14) yes
O1 C1 O3 124.5(15) yes
C1 C2 C3 108.3(11) yes
C1 C2 N1 114.1(14) yes
C3 C2 N1 112.0(14) yes
C1 C2 H10 107.961 no
C3 C2 H10 110.293 no
N1 C2 H10 104.045 no
C2 C3 C4 110.0(12) yes
C2 C3 H2 109.354 no
C4 C3 H2 109.341 no
C2 C3 H3 109.328 no
C4 C3 H3 109.321 no
H2 C3 H3 109.472 no
C3 C4 C5 107.0(11) yes
C3 C4 H8 110.076 no
C5 C4 H8 110.072 no
C3 C4 H6 110.086 no
C5 C4 H6 110.072 no
H8 C4 H6 109.458 no
C4 C5 N2 112.7(12) yes
C4 C5 O2 122.6(13) yes
N2 C5 O2 124.6(13) yes
C2 N1 H9 109.466 no
C2 N1 H1 109.460 no
H9 N1 H1 109.472 no
C2 N1 H7 109.470 no
H9 N1 H7 109.484 no
H1 N1 H7 109.476 no
C5 N2 H5 119.996 no
C5 N2 H4 120.004 no
H5 N2 H4 120.000 no
loop_
_geom_bond_atom_site_label_1
_geom_bond_atom_site_label_2
_geom_bond_distance
_geom_bond_publ_flag
C1 C2 1.535(9) yes
C1 O1 1.253(9) yes
C1 O3 1.252(9) yes
C2 C3 1.535(9) yes
C2 N1 1.490(10) yes
C2 H10 1.000 no
C3 C4 1.539(9) yes
C3 H2 1.000 no
C3 H3 1.000 no
C4 C5 1.534(9) yes
C4 H8 1.000 no
C4 H6 1.000 no
C5 N2 1.351(9) yes
C5 O2 1.249(9) yes
N1 H9 1.000 no
N1 H1 1.000 no
N1 H7 1.000 no
N2 H5 1.000 no
N2 H4 1.000 no
loop_
_cod_related_entry_id
_cod_related_entry_database
_cod_related_entry_code
1 ChemSpider 5746
