#------------------------------------------------------------------------------
#$Date: 2017-10-13 08:28:26 +0300 (Fri, 13 Oct 2017) $
#$Revision: 201972 $
#$URL: file:///home/coder/svn-repositories/cod/cif/2/10/46/2104653.cif $
#------------------------------------------------------------------------------
#
# This file is available in the Crystallography Open Database (COD),
# http://www.crystallography.net/. The original data for this entry
# were provided by IUCr Journals, http://journals.iucr.org/.
#
# The file may be used within the scientific community so long as
# proper attribution is given to the journal article from which the
# data were obtained.
#
data_2104653
loop_
_publ_author_name
'Johnstone, Russell D. L.'
'Lennie, Alistair R.'
'Parsons, Simon'
'Pidcock, Elna'
'Warren, John E.'
_publ_section_title
;
 Comparison of the effects of pressure on three layered hydrates: a
 partially successful attempt to predict a high-pressure phase
 transition
;
_journal_issue                   6
_journal_name_full               'Acta Crystallographica Section B'
_journal_page_first              731
_journal_page_last               748
_journal_paper_doi               10.1107/S0108768109039469
_journal_volume                  65
_journal_year                    2009
_chemical_formula_moiety         'C3 H9 N1 O6 S1'
_chemical_formula_sum            'C3 H9 N O6 S'
_chemical_formula_weight         187.17
_chemical_name_common            'L-Cysteic acid monohydrate'
_space_group_IT_number           19
_symmetry_cell_setting           orthorhombic
_symmetry_space_group_name_Hall  'P 2ac 2ab'
_symmetry_space_group_name_H-M   'P 21 21 21'
_atom_sites_solution_hydrogens   geom
_atom_sites_solution_primary     direct
_cell_angle_alpha                90
_cell_angle_beta                 90
_cell_angle_gamma                90
_cell_formula_units_Z            4
_cell_length_a                   6.6284(3)
_cell_length_b                   18.508(3)
_cell_length_c                   5.1615(3)
_cell_measurement_reflns_used    1140
_cell_measurement_temperature    293
_cell_measurement_theta_max      19
_cell_measurement_theta_min      3
_cell_volume                     633.20(11)
_computing_cell_refinement       'Apex2 (Bruker AXS, 2006)'
_computing_data_collection       'Apex2 (Bruker AXS, 2006)'
_computing_data_reduction        'Apex2 (Bruker AXS, 2006)'
_computing_molecular_graphics    'CAMERON (Watkin et al., 1996)'
_computing_publication_material  'CRYSTALS (Betteridge et al., 2003)'
_computing_structure_refinement  'CRYSTALS (Betteridge et al., 2003)'
_computing_structure_solution    'SIR92 (Altomare et al., 1994)'
_diffrn_ambient_temperature      293
_diffrn_measured_fraction_theta_full 0.378
_diffrn_measured_fraction_theta_max 0.363
_diffrn_measurement_device       'Bruker Kappa Apex2'
_diffrn_measurement_device_type  Area
_diffrn_measurement_method       \w
_diffrn_radiation_monochromator  silicon
_diffrn_radiation_type           synchrotron
_diffrn_radiation_wavelength     0.47690
_diffrn_reflns_av_R_equivalents  0.0419
_diffrn_reflns_limit_h_max       9
_diffrn_reflns_limit_h_min       0
_diffrn_reflns_limit_k_max       10
_diffrn_reflns_limit_k_min       0
_diffrn_reflns_limit_l_max       7
_diffrn_reflns_limit_l_min       0
_diffrn_reflns_number            3503
_diffrn_reflns_reduction_process
;
 Scaled and merged with Sortav
 R.H. Blessing, (1987) Cryst. Rev. 1, 3-58
 R.H. Blessing, (1989) J. Appl. Cryst. 22, 396-397
;
_diffrn_reflns_theta_full        15.931
_diffrn_reflns_theta_max         19.914
_diffrn_reflns_theta_min         2.190
_diffrn_standards_number         0
_exptl_absorpt_coefficient_mu    0.497
_exptl_absorpt_correction_T_max  0.95
_exptl_absorpt_correction_T_min  0.76
_exptl_absorpt_correction_type   multi-scan
_exptl_absorpt_process_details   'SADABS (Siemens, 1996)'
_exptl_crystal_colour            colourless
_exptl_crystal_density_diffrn    1.963
_exptl_crystal_density_method    'not measured'
_exptl_crystal_description       block
_exptl_crystal_F_000             392
_exptl_crystal_size_max          0.20
_exptl_crystal_size_mid          0.20
_exptl_crystal_size_min          0.10
_refine_diff_density_max         0.22
_refine_diff_density_min         -0.20
_refine_ls_extinction_method     None
_refine_ls_goodness_of_fit_ref   0.8308
_refine_ls_hydrogen_treatment    mixed
_refine_ls_matrix_type           full
_refine_ls_number_parameters     108
_refine_ls_number_reflns         380
_refine_ls_number_restraints     253
_refine_ls_R_factor_all          0.0403
_refine_ls_R_factor_gt           0.0333
_refine_ls_shift/su_max          0.000101
_refine_ls_structure_factor_coef F
_refine_ls_weighting_details
;
 Method, part 1, Chebychev polynomial, (Watkin, 1994, Prince, 1982)
 [weight] = 1.0/[A~0~*T~0~(x)+A~1~*T~1~(x) ... +A~n-1~]*T~n-1~(x)]
 where A~i~ are the Chebychev coefficients listed below and x= Fcalc/Fmax
 Method = Robust Weighting (Prince, 1982)
 W = [weight] * [1-(deltaF/6*sigmaF)^2^]^2^
 A~i~ are:
 9.65 -9.22 6.26
;
_refine_ls_weighting_scheme      calc
_refine_ls_wR_factor_all         0.0356
_refine_ls_wR_factor_gt          0.0300
_refine_ls_wR_factor_ref         0.0300
_reflns_number_gt                380
_reflns_number_total             422
_reflns_threshold_expression     I>2.0\s(I)
_cod_data_source_file            ws5073.cif
_cod_data_source_block           CAM2.8GPa
_cod_depositor_comments
;
The following automatic conversions were performed:
'_symmetry_cell_setting' value 'Orthorhombic' changed to 'orthorhombic'
according to '/home/saulius/struct/CIF-dictionaries/cif_core.dic'
dictionary named 'cif_core.dic' version 2.4.1 from 2010-06-29.

Automatic conversion script
Id: cif_fix_enum 1527 2010-12-29 10:47:43Z saulius 

The following automatic conversions were performed:

'_symmetry_cell_setting' value 'Orthorhombic' changed to
'orthorhombic' according to
/home/saulius/struct/CIF-dictionaries/cif_core.dic dictionary named
'cif_core.dic' version 2.4.1 from 2010-06-29.

Automatic conversion script
Id: cif_fix_values 1715 2011-07-08 13:25:40Z adriana 
;
_cod_original_cell_volume        633.20(10)
_cod_original_sg_symbol_H-M      'P 21 21 21 '
_cod_original_formula_sum        'C3 H9 N1 O6 S1'
_cod_database_code               2104653
_cod_database_fobs_code          2104653
loop_
_symmetry_equiv_pos_as_xyz
x,y,z
x+1/2,-y+1/2,-z
-x,y+1/2,-z+1/2
-x+1/2,-y,z+1/2
loop_
_atom_site_type_symbol
_atom_site_label
_atom_site_fract_x
_atom_site_fract_y
_atom_site_fract_z
_atom_site_U_iso_or_equiv
_atom_site_adp_type
_atom_site_occupancy
_atom_site_disorder_assembly
_atom_site_disorder_group
S S1 0.36343(8) 0.39169(9) 0.44159(12) 0.0158 Uani 1.0000 . .
N N1 -0.0331(4) 0.4855(3) 0.4200(4) 0.0218 Uani 1.0000 . .
O O1 -0.1026(4) 0.3047(3) 0.6580(4) 0.0261 Uani 1.0000 . .
O O2 -0.1796(3) 0.4119(2) 0.8231(3) 0.0229 Uani 1.0000 . .
O O3 0.3938(4) 0.4694(3) 0.4111(4) 0.0277 Uani 1.0000 . .
O O4 0.3322(3) 0.3750(2) 0.7127(4) 0.0299 Uani 1.0000 . .
O O5 0.5169(3) 0.3504(2) 0.3153(5) 0.0348 Uani 1.0000 . .
C C1 -0.1161(3) 0.3741(2) 0.6508(4) 0.0172 Uani 1.0000 . .
C C2 -0.0502(3) 0.4055(3) 0.3930(4) 0.0167 Uani 1.0000 . .
C C3 0.1367(3) 0.3722(2) 0.2775(4) 0.0167 Uani 1.0000 . .
H H1 -0.1625 0.3963 0.2679 0.0200 Uiso 1.0000 . .
H H2 0.1185 0.3191 0.2766 0.0165 Uiso 1.0000 . .
H H3 0.1498 0.3898 0.0972 0.0165 Uiso 1.0000 . .
H H4 -0.1549 0.5041 0.4661 0.0327 Uiso 1.0000 . .
H H5 0.0597 0.4962 0.5441 0.0327 Uiso 1.0000 . .
H H6 0.0065 0.5049 0.2662 0.0327 Uiso 1.0000 . .
H H7 -0.145(4) 0.2880(11) 0.799(3) 0.0460(14) Uiso 1.0000 . .
O O6 0.2900(4) 0.2407(3) 0.9090(4) 0.0258 Uani 1.0000 . .
H H8 0.294(4) 0.2845(4) 0.866(4) 0.0630(10) Uiso 1.0000 . .
H H9 0.187(2) 0.2205(12) 0.847(5) 0.0630(10) Uiso 1.0000 . .
loop_
_atom_site_aniso_label
_atom_site_aniso_U_11
_atom_site_aniso_U_22
_atom_site_aniso_U_33
_atom_site_aniso_U_12
_atom_site_aniso_U_13
_atom_site_aniso_U_23
S1 0.0137(2) 0.0183(19) 0.0155(2) -0.0018(4) 0.00049(19) 0.0003(4)
N1 0.0261(8) 0.017(3) 0.0218(9) 0.0127(17) 0.0055(8) 0.0081(17)
O1 0.0324(10) 0.021(3) 0.0243(8) -0.0042(19) 0.0043(8) 0.0000(17)
O2 0.0241(7) 0.027(4) 0.0180(7) 0.0022(12) 0.0046(6) 0.0040(12)
O3 0.0369(10) 0.019(2) 0.0271(8) -0.0095(17) -0.0043(9) 0.0033(15)
O4 0.0299(9) 0.042(4) 0.0177(7) -0.0078(15) -0.0016(7) 0.0089(12)
O5 0.0150(7) 0.039(4) 0.0509(14) 0.0031(12) 0.0032(8) -0.0167(19)
C1 0.0122(8) 0.022(3) 0.0173(8) 0.001(2) -0.0011(7) 0.0054(15)
C2 0.0162(8) 0.020(3) 0.0139(8) 0.0075(16) 0.0005(6) 0.0000(14)
C3 0.0157(7) 0.018(4) 0.0162(7) -0.0026(13) 0.0025(7) -0.0081(13)
O6 0.0387(10) 0.011(5) 0.0273(9) -0.0029(15) -0.0083(8) 0.0067(15)
loop_
_atom_type_symbol
_atom_type_scat_dispersion_real
_atom_type_scat_dispersion_imag
_atom_type_scat_source
C 0.0000 0.0010 'International Tables Vol C 4.2.6.8 and 6.1.1.4'
H 0.0000 0.0000 'International Tables Vol C 4.2.6.8 and 6.1.1.4'
N 0.0010 0.0010 'International Tables Vol C 4.2.6.8 and 6.1.1.4'
O 0.0030 0.0030 'International Tables Vol C 4.2.6.8 and 6.1.1.4'
S 0.0610 0.0550 'International Tables Vol C 4.2.6.8 and 6.1.1.4'
loop_
_geom_angle_atom_site_label_1
_geom_angle_atom_site_label_2
_geom_angle_atom_site_label_3
_geom_angle_site_symmetry_1
_geom_angle_site_symmetry_2
_geom_angle_site_symmetry_3
_geom_angle
_geom_angle_publ_flag
O3 S1 O4 . . . 109.5(2) yes
O3 S1 O5 . . . 112.27(18) yes
O4 S1 O5 . . . 115.36(19) yes
O3 S1 C3 . . . 105.53(17) yes
O4 S1 C3 . . . 107.38(12) yes
O5 S1 C3 . . . 106.15(15) yes
C2 N1 H4 . . . 109.5 no
C2 N1 H5 . . . 109.5 no
H4 N1 H5 . . . 109.5 no
C2 N1 H6 . . . 109.5 no
H4 N1 H6 . . . 109.5 no
H5 N1 H6 . . . 109.5 no
C1 O1 H7 . . . 111.5(14) no
O1 C1 O2 . . . 125.5(2) yes
O1 C1 C2 . . . 112.8(2) yes
O2 C1 C2 . . . 121.7(2) yes
C1 C2 N1 . . . 108.70(18) yes
C1 C2 C3 . . . 115.3(2) yes
N1 C2 C3 . . . 112.4(2) yes
C1 C2 H1 . . . 106.6 no
N1 C2 H1 . . . 106.7 no
C3 C2 H1 . . . 106.6 no
C2 C3 S1 . . . 115.26(17) yes
C2 C3 H2 . . . 108.0 no
S1 C3 H2 . . . 108.0 no
C2 C3 H3 . . . 108.0 no
S1 C3 H3 . . . 108.0 no
H2 C3 H3 . . . 109.5 no
H8 O6 H9 . . . 111.0 no
loop_
_geom_bond_atom_site_label_1
_geom_bond_atom_site_label_2
_geom_bond_site_symmetry_1
_geom_bond_site_symmetry_2
_geom_bond_distance
_geom_bond_publ_flag
S1 O3 . . 1.461(5) yes
S1 O4 . . 1.448(2) yes
S1 O5 . . 1.430(3) yes
S1 C3 . . 1.763(2) yes
N1 C2 . . 1.490(5) yes
N1 H4 . . 0.910 no
N1 H5 . . 0.910 no
N1 H6 . . 0.910 no
O1 C1 . . 1.289(5) yes
O1 H7 . . 0.841(7) no
O2 C1 . . 1.207(4) yes
C1 C2 . . 1.516(3) yes
C2 C3 . . 1.507(3) yes
C2 H1 . . 1.000 no
C3 H2 . . 0.990 no
C3 H3 . . 0.990 no
O6 H8 . . 0.84000(11) no
O6 H9 . . 0.840 no
loop_
_cod_related_entry_id
_cod_related_entry_database
_cod_related_entry_code
1 ChemSpider 21171069
