#------------------------------------------------------------------------------
#$Date: 2017-10-13 08:28:26 +0300 (Fri, 13 Oct 2017) $
#$Revision: 201972 $
#$URL: file:///home/coder/svn-repositories/cod/cif/2/10/46/2104652.cif $
#------------------------------------------------------------------------------
#
# This file is available in the Crystallography Open Database (COD),
# http://www.crystallography.net/. The original data for this entry
# were provided by IUCr Journals, http://journals.iucr.org/.
#
# The file may be used within the scientific community so long as
# proper attribution is given to the journal article from which the
# data were obtained.
#
data_2104652
loop_
_publ_author_name
'Johnstone, Russell D. L.'
'Lennie, Alistair R.'
'Parsons, Simon'
'Pidcock, Elna'
'Warren, John E.'
_publ_section_title
;
 Comparison of the effects of pressure on three layered hydrates: a
 partially successful attempt to predict a high-pressure phase
 transition
;
_journal_issue                   6
_journal_name_full               'Acta Crystallographica Section B'
_journal_page_first              731
_journal_page_last               748
_journal_paper_doi               10.1107/S0108768109039469
_journal_volume                  65
_journal_year                    2009
_chemical_formula_moiety         'C3 H9 N1 O6 S1'
_chemical_formula_sum            'C3 H9 N O6 S'
_chemical_formula_weight         187.17
_chemical_name_common            'L-Cysteic acid monohydrate'
_space_group_IT_number           19
_symmetry_cell_setting           orthorhombic
_symmetry_space_group_name_Hall  'P 2ac 2ab'
_symmetry_space_group_name_H-M   'P 21 21 21'
_atom_sites_solution_hydrogens   geom
_atom_sites_solution_primary     direct
_cell_angle_alpha                90
_cell_angle_beta                 90
_cell_angle_gamma                90
_cell_formula_units_Z            4
_cell_length_a                   6.7622(2)
_cell_length_b                   18.7945(19)
_cell_length_c                   5.2343(2)
_cell_measurement_reflns_used    1361
_cell_measurement_temperature    293
_cell_measurement_theta_max      19
_cell_measurement_theta_min      3
_cell_volume                     665.24(7)
_computing_cell_refinement       'Apex2 (Bruker AXS, 2006)'
_computing_data_collection       'Apex2 (Bruker AXS, 2006)'
_computing_data_reduction        'Apex2 (Bruker AXS, 2006)'
_computing_molecular_graphics    'CAMERON (Watkin et al., 1996)'
_computing_publication_material  'CRYSTALS (Betteridge et al., 2003)'
_computing_structure_refinement  'CRYSTALS (Betteridge et al., 2003)'
_computing_structure_solution    'SIR92 (Altomare et al., 1994)'
_diffrn_ambient_temperature      293
_diffrn_measured_fraction_theta_full 0.408
_diffrn_measured_fraction_theta_max 0.394
_diffrn_measurement_device       'Bruker Kappa Apex2'
_diffrn_measurement_device_type  Area
_diffrn_measurement_method       \w
_diffrn_radiation_monochromator  silicon
_diffrn_radiation_type           synchrotron
_diffrn_radiation_wavelength     0.47690
_diffrn_reflns_av_R_equivalents  0.0402
_diffrn_reflns_limit_h_max       9
_diffrn_reflns_limit_h_min       0
_diffrn_reflns_limit_k_max       11
_diffrn_reflns_limit_k_min       0
_diffrn_reflns_limit_l_max       7
_diffrn_reflns_limit_l_min       0
_diffrn_reflns_number            4025
_diffrn_reflns_reduction_process
;
 Scaled and merged with Sortav
 R.H. Blessing, (1987) Cryst. Rev. 1, 3-58
 R.H. Blessing, (1989) J. Appl. Cryst. 22, 396-397
;
_diffrn_reflns_theta_full        15.132
_diffrn_reflns_theta_max         19.910
_diffrn_reflns_theta_min         2.148
_diffrn_standards_number         0
_exptl_absorpt_coefficient_mu    0.473
_exptl_absorpt_correction_T_max  0.95
_exptl_absorpt_correction_T_min  0.83
_exptl_absorpt_correction_type   multi-scan
_exptl_absorpt_process_details   'SADABS (Siemens, 1996)'
_exptl_crystal_density_diffrn    1.869
_exptl_crystal_density_method    'not measured'
_exptl_crystal_F_000             392
_exptl_crystal_size_max          0.20
_exptl_crystal_size_mid          0.20
_exptl_crystal_size_min          0.10
_refine_diff_density_max         0.15
_refine_diff_density_min         -0.13
_refine_ls_extinction_method     None
_refine_ls_goodness_of_fit_ref   0.9038
_refine_ls_hydrogen_treatment    mixed
_refine_ls_matrix_type           full
_refine_ls_number_parameters     108
_refine_ls_number_reflns         434
_refine_ls_number_restraints     253
_refine_ls_R_factor_all          0.0509
_refine_ls_R_factor_gt           0.0288
_refine_ls_shift/su_max          0.000154
_refine_ls_structure_factor_coef F
_refine_ls_weighting_details
;
 Method, part 1, Chebychev polynomial, (Watkin, 1994, Prince, 1982)
 [weight] = 1.0/[A~0~*T~0~(x)+A~1~*T~1~(x) ... +A~n-1~]*T~n-1~(x)]
 where A~i~ are the Chebychev coefficients listed below and x= Fcalc/Fmax
 Method = Robust Weighting (Prince, 1982)
 W = [weight] * [1-(deltaF/6*sigmaF)^2^]^2^
 A~i~ are:
 5.00 -3.61 2.91
;
_refine_ls_weighting_scheme      calc
_refine_ls_wR_factor_all         0.0326
_refine_ls_wR_factor_gt          0.0290
_refine_ls_wR_factor_ref         0.0290
_reflns_number_gt                434
_reflns_number_total             480
_reflns_threshold_expression     I>2.0\s(I)
_cod_data_source_file            ws5073.cif
_cod_data_source_block           CAM1.2GPa
_cod_depositor_comments
;
The following automatic conversions were performed:
'_symmetry_cell_setting' value 'Orthorhombic' changed to 'orthorhombic'
according to '/home/saulius/struct/CIF-dictionaries/cif_core.dic'
dictionary named 'cif_core.dic' version 2.4.1 from 2010-06-29.

Automatic conversion script
Id: cif_fix_enum 1527 2010-12-29 10:47:43Z saulius 

The following automatic conversions were performed:

'_symmetry_cell_setting' value 'Orthorhombic' changed to
'orthorhombic' according to
/home/saulius/struct/CIF-dictionaries/cif_core.dic dictionary named
'cif_core.dic' version 2.4.1 from 2010-06-29.

Automatic conversion script
Id: cif_fix_values 1715 2011-07-08 13:25:40Z adriana 
;
_cod_original_sg_symbol_H-M      'P 21 21 21 '
_cod_original_formula_sum        'C3 H9 N1 O6 S1'
_cod_database_code               2104652
_cod_database_fobs_code          2104652
loop_
_symmetry_equiv_pos_as_xyz
x,y,z
x+1/2,-y+1/2,-z
-x,y+1/2,-z+1/2
-x+1/2,-y,z+1/2
loop_
_atom_site_type_symbol
_atom_site_label
_atom_site_fract_x
_atom_site_fract_y
_atom_site_fract_z
_atom_site_U_iso_or_equiv
_atom_site_adp_type
_atom_site_occupancy
_atom_site_disorder_assembly
_atom_site_disorder_group
S S1 0.35928(7) 0.39158(8) 0.45424(9) 0.0184 Uani 1.0000 . .
N N1 -0.0280(3) 0.4846(3) 0.4286(4) 0.0237 Uani 1.0000 . .
O O1 -0.1058(3) 0.3086(3) 0.6691(3) 0.0267 Uani 1.0000 . .
O O2 -0.1766(2) 0.4152(2) 0.8270(3) 0.0253 Uani 1.0000 . .
O O3 0.3913(3) 0.4684(3) 0.4245(4) 0.0319 Uani 1.0000 . .
O O4 0.3274(3) 0.3746(2) 0.7217(3) 0.0331 Uani 1.0000 . .
O O5 0.5095(2) 0.3505(2) 0.3290(4) 0.0389 Uani 1.0000 . .
C C1 -0.1151(3) 0.3769(2) 0.6594(3) 0.0171 Uani 1.0000 . .
C C2 -0.0478(3) 0.4064(2) 0.4040(3) 0.0176 Uani 1.0000 . .
C C3 0.1358(3) 0.3721(2) 0.2911(3) 0.0194 Uani 1.0000 . .
H H1 -0.1579 0.3977 0.2804 0.0209 Uiso 1.0000 . .
H H2 0.1167 0.3199 0.2931 0.0191 Uiso 1.0000 . .
H H3 0.1495 0.3887 0.1124 0.0191 Uiso 1.0000 . .
H H4 -0.1468 0.5037 0.4725 0.0353 Uiso 1.0000 . .
H H5 0.0628 0.4949 0.5515 0.0353 Uiso 1.0000 . .
H H6 0.0124 0.5033 0.2768 0.0353 Uiso 1.0000 . .
H H7 -0.157(4) 0.2922(11) 0.803(3) 0.0459(15) Uiso 1.0000 . .
O O6 0.2781(4) 0.2379(3) 0.9073(4) 0.0353 Uani 1.0000 . .
H H8 0.305(4) 0.2794(7) 0.859(5) 0.0628(10) Uiso 1.0000 . .
H H9 0.188(3) 0.2202(11) 0.817(4) 0.0628(10) Uiso 1.0000 . .
loop_
_atom_site_aniso_label
_atom_site_aniso_U_11
_atom_site_aniso_U_22
_atom_site_aniso_U_33
_atom_site_aniso_U_12
_atom_site_aniso_U_13
_atom_site_aniso_U_23
S1 0.01498(19) 0.0244(16) 0.01567(18) -0.0008(4) 0.00087(15) -0.0011(3)
N1 0.0262(8) 0.018(3) 0.0267(9) 0.0096(14) 0.0058(7) 0.0085(14)
O1 0.0344(9) 0.021(3) 0.0246(7) -0.0023(18) 0.0063(7) 0.0046(14)
O2 0.0259(7) 0.031(4) 0.0191(6) 0.0002(10) 0.0051(5) -0.0002(10)
O3 0.0384(10) 0.027(2) 0.0307(8) -0.0142(16) -0.0042(7) 0.0017(13)
O4 0.0362(9) 0.046(4) 0.0175(6) -0.0078(14) -0.0027(6) 0.0071(11)
O5 0.0183(7) 0.049(4) 0.0494(11) 0.0057(11) 0.0030(8) -0.0197(14)
C1 0.0138(7) 0.020(3) 0.0175(7) -0.0020(16) -0.0021(6) 0.0044(12)
C2 0.0169(8) 0.021(3) 0.0153(7) 0.0021(14) -0.0009(6) 0.0014(12)
C3 0.0185(7) 0.023(4) 0.0163(7) -0.0017(12) 0.0011(6) -0.0087(13)
O6 0.0468(11) 0.027(5) 0.0321(9) 0.0000(16) -0.0152(8) 0.0038(13)
loop_
_atom_type_symbol
_atom_type_scat_dispersion_real
_atom_type_scat_dispersion_imag
_atom_type_scat_source
C 0.0000 0.0010 'International Tables Vol C 4.2.6.8 and 6.1.1.4'
H 0.0000 0.0000 'International Tables Vol C 4.2.6.8 and 6.1.1.4'
N 0.0010 0.0010 'International Tables Vol C 4.2.6.8 and 6.1.1.4'
O 0.0030 0.0030 'International Tables Vol C 4.2.6.8 and 6.1.1.4'
S 0.0610 0.0550 'International Tables Vol C 4.2.6.8 and 6.1.1.4'
loop_
_geom_angle_atom_site_label_1
_geom_angle_atom_site_label_2
_geom_angle_atom_site_label_3
_geom_angle_site_symmetry_1
_geom_angle_site_symmetry_2
_geom_angle_site_symmetry_3
_geom_angle
_geom_angle_publ_flag
O3 S1 O4 . . . 109.89(19) yes
O3 S1 O5 . . . 112.10(17) yes
O4 S1 O5 . . . 115.32(17) yes
O3 S1 C3 . . . 106.09(15) yes
O4 S1 C3 . . . 107.01(11) yes
O5 S1 C3 . . . 105.80(13) yes
C2 N1 H4 . . . 109.5 no
C2 N1 H5 . . . 109.5 no
H4 N1 H5 . . . 109.5 no
C2 N1 H6 . . . 109.5 no
H4 N1 H6 . . . 109.5 no
H5 N1 H6 . . . 109.5 no
C1 O1 H7 . . . 112.3(14) no
O1 C1 O2 . . . 125.6(2) yes
O1 C1 C2 . . . 112.68(18) yes
O2 C1 C2 . . . 121.6(2) yes
C1 C2 N1 . . . 108.28(17) yes
C1 C2 C3 . . . 115.6(2) yes
N1 C2 C3 . . . 112.4(2) yes
C1 C2 H1 . . . 106.7 no
N1 C2 H1 . . . 106.7 no
C3 C2 H1 . . . 106.7 no
C2 C3 S1 . . . 114.94(16) yes
C2 C3 H2 . . . 108.1 no
S1 C3 H2 . . . 108.1 no
C2 C3 H3 . . . 108.1 no
S1 C3 H3 . . . 108.1 no
H2 C3 H3 . . . 109.5 no
H8 O6 H9 . . . 111.0 no
loop_
_geom_bond_atom_site_label_1
_geom_bond_atom_site_label_2
_geom_bond_site_symmetry_1
_geom_bond_site_symmetry_2
_geom_bond_distance
_geom_bond_publ_flag
S1 O3 . . 1.469(4) yes
S1 O4 . . 1.4520(18) yes
S1 O5 . . 1.434(3) yes
S1 C3 . . 1.774(2) yes
N1 C2 . . 1.482(5) yes
N1 H4 . . 0.910 no
N1 H5 . . 0.910 no
N1 H6 . . 0.910 no
O1 C1 . . 1.286(5) yes
O1 H7 . . 0.840(7) no
O2 C1 . . 1.209(4) yes
C1 C2 . . 1.517(3) yes
C2 C3 . . 1.519(3) yes
C2 H1 . . 1.000 no
C3 H2 . . 0.990 no
C3 H3 . . 0.990 no
O6 H8 . . 0.84018(7) no
O6 H9 . . 0.840 no
loop_
_cod_related_entry_id
_cod_related_entry_database
_cod_related_entry_code
1 ChemSpider 21171069
