#------------------------------------------------------------------------------
#$Date: 2017-10-13 08:28:26 +0300 (Fri, 13 Oct 2017) $
#$Revision: 201972 $
#$URL: file:///home/coder/svn-repositories/cod/cif/2/10/42/2104254.cif $
#------------------------------------------------------------------------------
#
# This file is available in the Crystallography Open Database (COD),
# http://www.crystallography.net/. The original data for this entry
# were provided by IUCr Journals, http://journals.iucr.org/.
#
# The file may be used within the scientific community so long as
# proper attribution is given to the journal article from which the
# data were obtained.
#
data_2104254
loop_
_publ_author_name
'Lemmerer, Andreas'
'B\'athori, Nikoletta B.'
'Bourne, Susan A.'
_publ_section_title
;
 Chiral carboxylic acids and their effects on melting-point behaviour
 in co-crystals with isonicotinamide
;
_journal_coeditor_code           BS5070
_journal_issue                   6
_journal_name_full               'Acta Crystallographica Section B'
_journal_page_first              780
_journal_page_last               790
_journal_paper_doi               10.1107/S0108768108034526
_journal_volume                  64
_journal_year                    2008
_chemical_formula_moiety         'C10 H12 O2, C6 H6 N2 O'
_chemical_formula_sum            'C16 H18 N2 O3'
_chemical_formula_weight         286.32
_chemical_melting_point          361
_chemical_name_systematic
;
  ((S)-2-phenylbutyric acid).(iso-nicotinamide)
;
_space_group_IT_number           1
_symmetry_cell_setting           triclinic
_symmetry_space_group_name_Hall  'P 1'
_symmetry_space_group_name_H-M   'P 1'
_atom_sites_solution_hydrogens   geom
_atom_sites_solution_primary     direct
_atom_sites_solution_secondary   difmap
_audit_conform_dict_name         cif_core.dic
_audit_conform_dict_version      2.3
_audit_creation_method           'WinGX routine CIF_UPDATE'
_cell_angle_alpha                100.323(3)
_cell_angle_beta                 94.090(2)
_cell_angle_gamma                103.881(3)
_cell_formula_units_Z            2
_cell_length_a                   5.7059(3)
_cell_length_b                   9.7727(4)
_cell_length_c                   13.8321(7)
_cell_measurement_reflns_used    18951
_cell_measurement_temperature    173(2)
_cell_measurement_theta_max      28.28
_cell_measurement_theta_min      0.4
_cell_volume                     731.37(6)
_computing_cell_refinement       'DENZO-SMN (Otwinowski & Minor, 1997)'
_computing_data_collection       'COLLECT (Nonius, 2000)'
_computing_data_reduction        DENZO-SMN
_computing_molecular_graphics
;
Ortep-3 for Windows (Farrugia, 1997) and DIAMOND (Brandenburg, 1999)
;
_computing_publication_material
;
WinGX publication routines (Farrugia, 1999) and PLATON (Spek, 2002)
;
_computing_structure_refinement  'SHELXL-97 (Sheldrick, 1997)'
_computing_structure_solution    'SHELXS-97 (Sheldrick, 1997)'
_diffrn_ambient_temperature      173(2)
_diffrn_measured_fraction_theta_full 0.997
_diffrn_measured_fraction_theta_max 0.997
_diffrn_measurement_device_type  'Nonius KappaCCD area-detector'
_diffrn_measurement_method       '2.0\% \f and \w scans'
_diffrn_radiation_monochromator  graphite
_diffrn_radiation_type           MoK\a
_diffrn_radiation_wavelength     0.71073
_diffrn_reflns_av_R_equivalents  0.0677
_diffrn_reflns_limit_h_max       7
_diffrn_reflns_limit_h_min       -7
_diffrn_reflns_limit_k_max       12
_diffrn_reflns_limit_k_min       -12
_diffrn_reflns_limit_l_max       18
_diffrn_reflns_limit_l_min       -18
_diffrn_reflns_number            18714
_diffrn_reflns_theta_full        28
_diffrn_reflns_theta_max         28
_diffrn_reflns_theta_min         3.35
_diffrn_standards_number         0
_exptl_absorpt_coefficient_mu    0.091
_exptl_absorpt_correction_T_max  0.9917
_exptl_absorpt_correction_T_min  0.9533
_exptl_absorpt_correction_type   integration
_exptl_absorpt_process_details   'Bruker XPREP (Bruker, 1999)'
_exptl_crystal_colour            colourless
_exptl_crystal_density_diffrn    1.3
_exptl_crystal_density_method    'not measured'
_exptl_crystal_description       block
_exptl_crystal_F_000             304
_exptl_crystal_size_max          0.47
_exptl_crystal_size_mid          0.2
_exptl_crystal_size_min          0.09
_refine_diff_density_max         0.775
_refine_diff_density_min         -0.273
_refine_ls_extinction_method     none
_refine_ls_goodness_of_fit_ref   1.044
_refine_ls_hydrogen_treatment    mixed
_refine_ls_matrix_type           full
_refine_ls_number_parameters     399
_refine_ls_number_reflns         3529
_refine_ls_number_restraints     3
_refine_ls_restrained_S_all      1.043
_refine_ls_R_factor_all          0.06
_refine_ls_R_factor_gt           0.0533
_refine_ls_shift/su_max          0
_refine_ls_shift/su_mean         0
_refine_ls_structure_factor_coef Fsqd
_refine_ls_weighting_details
'calc w=1/[\s^2^(Fo^2^)+(0.1071P)^2^+0.1080P] where P=(Fo^2^+2Fc^2^)/3'
_refine_ls_weighting_scheme      calc
_refine_ls_wR_factor_gt          0.1446
_refine_ls_wR_factor_ref         0.1512
_reflns_number_gt                3151
_reflns_number_total             3529
_reflns_threshold_expression     >2sigma(I)
_cod_data_source_file            bs5070.cif
_cod_data_source_block           IX
_cod_depositor_comments
;
The following automatic conversions were performed:
'_symmetry_cell_setting' value 'Triclinic' changed to 'triclinic'
according to '/home/saulius/struct/CIF-dictionaries/cif_core.dic'
dictionary named 'cif_core.dic' version 2.4.1 from 2010-06-29.

Automatic conversion script
Id: cif_fix_enum 1527 2010-12-29 10:47:43Z saulius 

The following automatic conversions were performed:

'_symmetry_cell_setting' value 'Triclinic' changed to 'triclinic'
according to /home/saulius/struct/CIF-dictionaries/cif_core.dic
dictionary named 'cif_core.dic' version 2.4.1 from 2010-06-29.

Automatic conversion script
Id: cif_fix_values 1715 2011-07-08 13:25:40Z adriana 
;
_cod_original_cell_volume        731.36(6)
_cod_database_code               2104254
loop_
_symmetry_equiv_pos_as_xyz
'x, y, z'
loop_
_atom_site_type_symbol
_atom_site_label
_atom_site_fract_x
_atom_site_fract_y
_atom_site_fract_z
_atom_site_U_iso_or_equiv
_atom_site_adp_type
_atom_site_calc_flag
_atom_site_refinement_flags
_atom_site_occupancy
C C1A -0.8824(6) -0.4274(3) 0.7841(2) 0.0321(6) Uani d . 1
C C2A -1.0648(6) -0.4973(4) 0.8485(2) 0.0384(7) Uani d . 1
H H2A -1.224 -0.4771 0.8301 0.046 Uiso calc R 1
C C3A -1.0988(8) -0.6603(4) 0.8191(3) 0.0473(8) Uani d . 1
H H3A1 -0.9467 -0.6845 0.8402 0.057 Uiso calc R 1
H H3A2 -1.1333 -0.6909 0.7462 0.057 Uiso calc R 1
C C4A -1.3115(9) -0.7427(4) 0.8679(3) 0.0532(10) Uani d . 1
H H4A1 -1.4629 -0.7212 0.8454 0.08 Uiso calc R 1
H H4A2 -1.2774 -0.7124 0.9401 0.08 Uiso calc R 1
H H4A3 -1.3281 -0.8465 0.849 0.08 Uiso calc R 1
C C5A -0.9925(6) -0.4372(3) 0.9583(2) 0.0357(7) Uani d . 1
C C6A -0.8009(6) -0.4654(4) 1.0146(3) 0.0412(7) Uani d . 1
H H6A -0.7096 -0.5271 0.9841 0.049 Uiso calc R 1
C C7A -0.7454(6) -0.4032(4) 1.1143(2) 0.0386(7) Uani d . 1
H H7A -0.6182 -0.4235 1.153 0.046 Uiso calc R 1
C C8A -0.8763(6) -0.3116(4) 1.1571(2) 0.0374(7) Uani d . 1
H H8A -0.8355 -0.2668 1.2251 0.045 Uiso calc R 1
C C9A -1.0637(7) -0.2844(4) 1.1031(3) 0.0434(8) Uani d . 1
H H9A -1.1539 -0.2223 1.1338 0.052 Uiso calc R 1
C C10A -1.1220(7) -0.3473(4) 1.0036(3) 0.0417(7) Uani d . 1
H H10A -1.2526 -0.3283 0.9663 0.05 Uiso calc R 1
O O1A -0.6557(4) -0.3786(3) 0.82201(17) 0.0418(6) Uani d . 1
H H1A -0.575(9) -0.321(5) 0.787(3) 0.05 Uiso d . 1
O O2A -0.9572(5) -0.4127(3) 0.70373(19) 0.0487(6) Uani d . 1
C C1B 1.3344(5) 1.0972(3) 0.3337(2) 0.0256(5) Uani d . 1
C C2B 1.4471(4) 1.2045(3) 0.27201(19) 0.0222(5) Uani d . 1
H H2B 1.3538 1.2795 0.2765 0.027 Uiso calc R 1
C C3B 1.7133(5) 1.2811(3) 0.3114(2) 0.0267(5) Uani d . 1
H H3B1 1.7237 1.3272 0.382 0.032 Uiso calc R 1
H H3B2 1.8105 1.2093 0.3071 0.032 Uiso calc R 1
C C4B 1.8195(6) 1.3951(3) 0.2532(2) 0.0364(7) Uani d . 1
H H4B1 1.7241 1.4666 0.2576 0.055 Uiso calc R 1
H H4B2 1.8143 1.3493 0.1837 0.055 Uiso calc R 1
H H4B3 1.9885 1.4427 0.2808 0.055 Uiso calc R 1
C C5B 1.4123(5) 1.1266(3) 0.16454(19) 0.0246(5) Uani d . 1
C C6B 1.2391(5) 1.1464(4) 0.0965(2) 0.0336(6) Uani d . 1
H H6B 1.1434 1.2111 0.1172 0.04 Uiso calc R 1
C C7B 1.2031(6) 1.0727(4) -0.0019(2) 0.0421(7) Uani d . 1
H H7B 1.0825 1.0867 -0.0474 0.051 Uiso calc R 1
C C8B 1.3420(6) 0.9802(4) -0.0328(2) 0.0370(7) Uani d . 1
H H8B 1.3184 0.9306 -0.0999 0.044 Uiso calc R 1
C C9B 1.5170(6) 0.9592(4) 0.0338(2) 0.0370(7) Uani d . 1
H H9B 1.6122 0.8945 0.0126 0.044 Uiso calc R 1
C C10B 1.5533(6) 1.0330(3) 0.1318(2) 0.0315(6) Uani d . 1
H H10B 1.6754 1.0195 0.1769 0.038 Uiso calc R 1
O O1B 1.1004(4) 1.0436(2) 0.30739(16) 0.0317(5) Uani d . 1
H H1B 1.027(7) 1.006(4) 0.349(3) 0.038 Uiso d . 1
O O2B 1.4456(4) 1.0613(3) 0.39959(17) 0.0369(5) Uani d . 1
C C11A -0.1255(5) 0.0271(3) 0.64573(19) 0.0233(5) Uani d . 1
C C12A -0.3707(5) -0.0339(3) 0.6133(2) 0.0293(6) Uani d . 1
H H12A -0.4511 -0.0024 0.5623 0.035 Uiso calc R 1
C C13A -0.4955(5) -0.1424(3) 0.6572(2) 0.0311(6) Uani d . 1
H H13A -0.6626 -0.1848 0.6343 0.037 Uiso calc R 1
C C14A -0.1609(5) -0.1288(3) 0.7625(2) 0.0300(6) Uani d . 1
H H14A -0.088 -0.1597 0.8157 0.036 Uiso calc R 1
C C15A -0.0189(5) -0.0212(3) 0.7223(2) 0.0296(6) Uani d . 1
H H15A 0.1481 0.0187 0.7467 0.035 Uiso calc R 1
C C16A 0.0339(5) 0.1445(3) 0.6047(2) 0.0285(6) Uani d . 1
N N1A -0.0632(5) 0.1866(3) 0.52813(19) 0.0316(5) Uani d . 1
H H1AS 0.011(8) 0.252(5) 0.510(3) 0.038 Uiso d . 1
H H1AA -0.232(8) 0.146(4) 0.494(3) 0.038 Uiso d . 1
N N2A -0.3938(5) -0.1903(3) 0.72990(18) 0.0295(5) Uani d . 1
O O3A 0.2463(4) 0.1961(3) 0.64189(18) 0.0438(6) Uani d . 1
C C11B 0.6188(5) 0.6023(3) 0.4671(2) 0.0240(5) Uani d . 1
C C12B 0.8660(5) 0.6611(3) 0.4972(2) 0.0286(6) Uani d . 1
H H12B 0.9503 0.6242 0.544 0.034 Uiso calc R 1
C C13B 0.9860(5) 0.7747(3) 0.4572(2) 0.0300(6) Uani d . 1
H H13B 1.1546 0.8153 0.4782 0.036 Uiso calc R 1
C C14B 0.6413(5) 0.7719(3) 0.3611(2) 0.0293(6) Uani d . 1
H H14B 0.5621 0.8102 0.3137 0.035 Uiso calc R 1
C C15B 0.5056(5) 0.6572(3) 0.3968(2) 0.0283(6) Uani d . 1
H H15B 0.3382 0.6172 0.3733 0.034 Uiso calc R 1
C C16B 0.4643(5) 0.4784(3) 0.5048(2) 0.0268(5) Uani d . 1
N N1B 0.5576(5) 0.4426(3) 0.5847(2) 0.0340(6) Uani d . 1
H H1BS 0.437(8) 0.380(5) 0.604(3) 0.041 Uiso d . 1
H H1BA 0.688(8) 0.492(5) 0.616(3) 0.041 Uiso d . 1
N N2B 0.8772(4) 0.8304(2) 0.39062(17) 0.0268(5) Uani d . 1
O O3B 0.2612(4) 0.4178(3) 0.46077(17) 0.0379(5) Uani d . 1
loop_
_atom_site_aniso_label
_atom_site_aniso_U_11
_atom_site_aniso_U_22
_atom_site_aniso_U_33
_atom_site_aniso_U_12
_atom_site_aniso_U_13
_atom_site_aniso_U_23
C1A 0.0328(14) 0.0333(14) 0.0243(13) -0.0019(12) 0.0004(11) 0.0061(11)
C2A 0.0366(15) 0.0417(16) 0.0352(15) 0.0070(13) 0.0046(12) 0.0073(13)
C3A 0.056(2) 0.0348(16) 0.0444(19) -0.0001(15) 0.0120(16) 0.0049(13)
C4A 0.067(3) 0.0344(17) 0.050(2) -0.0063(17) 0.0145(19) 0.0100(15)
C5A 0.0360(16) 0.0381(16) 0.0249(13) -0.0085(13) 0.0027(11) 0.0104(12)
C6A 0.0394(17) 0.0480(19) 0.0329(16) 0.0054(14) 0.0076(13) 0.0065(13)
C7A 0.0322(15) 0.0533(18) 0.0300(15) 0.0094(14) -0.0009(12) 0.0116(13)
C8A 0.0369(16) 0.0439(17) 0.0264(14) 0.0021(14) 0.0015(12) 0.0068(12)
C9A 0.0450(19) 0.0452(18) 0.0390(17) 0.0114(15) 0.0021(14) 0.0076(14)
C10A 0.0410(18) 0.0429(17) 0.0383(17) 0.0029(14) -0.0047(13) 0.0151(14)
O1A 0.0354(12) 0.0535(14) 0.0302(12) -0.0079(10) -0.0049(9) 0.0218(10)
O2A 0.0363(13) 0.0617(16) 0.0392(13) -0.0079(11) -0.0094(10) 0.0207(11)
C1B 0.0295(14) 0.0232(12) 0.0243(12) 0.0061(11) 0.0031(10) 0.0062(10)
C2B 0.0203(11) 0.0219(11) 0.0225(11) 0.0002(9) 0.0005(9) 0.0074(9)
C3B 0.0224(12) 0.0273(12) 0.0273(12) 0.0001(10) -0.0011(9) 0.0077(10)
C4B 0.0353(16) 0.0308(14) 0.0367(16) -0.0054(12) 0.0041(12) 0.0095(12)
C5B 0.0246(12) 0.0230(11) 0.0241(12) 0.0004(10) 0.0011(10) 0.0081(10)
C6B 0.0298(14) 0.0437(16) 0.0272(14) 0.0109(12) -0.0014(11) 0.0065(12)
C7B 0.0388(16) 0.056(2) 0.0301(16) 0.0136(15) -0.0063(13) 0.0062(14)
C8B 0.0400(17) 0.0381(16) 0.0268(14) 0.0011(13) 0.0013(12) 0.0037(12)
C9B 0.0461(18) 0.0327(15) 0.0329(16) 0.0136(13) 0.0061(13) 0.0034(12)
C10B 0.0351(15) 0.0332(14) 0.0268(13) 0.0109(12) -0.0023(11) 0.0068(11)
O1B 0.0244(10) 0.0380(11) 0.0337(11) 0.0017(8) 0.0018(8) 0.0189(9)
O2B 0.0324(11) 0.0428(12) 0.0356(11) 0.0035(9) -0.0045(8) 0.0201(9)
C11A 0.0241(13) 0.0241(12) 0.0193(12) 0.0024(10) 0.0020(9) 0.0035(9)
C12A 0.0263(14) 0.0322(14) 0.0270(14) 0.0026(11) -0.0012(11) 0.0078(11)
C13A 0.0249(14) 0.0359(15) 0.0271(14) -0.0029(11) 0.0003(11) 0.0082(11)
C14A 0.0324(15) 0.0289(13) 0.0248(13) 0.0011(12) -0.0026(11) 0.0070(11)
C15A 0.0259(13) 0.0294(14) 0.0290(14) -0.0012(11) -0.0020(11) 0.0080(11)
C16A 0.0262(13) 0.0270(13) 0.0278(13) -0.0028(10) 0.0006(10) 0.0076(10)
N1A 0.0294(13) 0.0325(12) 0.0292(13) -0.0039(10) -0.0028(10) 0.0150(10)
N2A 0.0315(13) 0.0309(12) 0.0235(11) 0.0019(10) 0.0030(9) 0.0071(9)
O3A 0.0291(11) 0.0505(14) 0.0450(13) -0.0098(10) -0.0087(10) 0.0247(11)
C11B 0.0253(14) 0.0232(12) 0.0228(12) 0.0050(10) 0.0038(10) 0.0046(10)
C12B 0.0251(13) 0.0340(15) 0.0258(13) 0.0033(11) -0.0008(10) 0.0105(11)
C13B 0.0223(13) 0.0351(14) 0.0294(14) 0.0005(11) -0.0003(10) 0.0088(11)
C14B 0.0302(14) 0.0286(13) 0.0286(14) 0.0047(11) -0.0017(11) 0.0103(11)
C15B 0.0220(12) 0.0300(14) 0.0296(14) 0.0012(11) -0.0029(10) 0.0072(11)
C16B 0.0262(13) 0.0259(12) 0.0270(13) 0.0021(10) 0.0021(10) 0.0083(10)
N1B 0.0295(13) 0.0337(13) 0.0343(14) -0.0049(11) -0.0033(11) 0.0158(11)
N2B 0.0292(12) 0.0257(11) 0.0228(11) 0.0012(9) 0.0015(9) 0.0064(9)
O3B 0.0297(11) 0.0399(11) 0.0375(12) -0.0074(9) -0.0066(9) 0.0173(9)
loop_
_atom_type_symbol
_atom_type_description
_atom_type_scat_dispersion_real
_atom_type_scat_dispersion_imag
_atom_type_scat_source
C C 0.0033 0 'International Tables Vol C Tables 4.2.6.8 and 6.1.1.4'
H H 0 0 'International Tables Vol C Tables 4.2.6.8 and 6.1.1.4'
N N 0.0061 0 'International Tables Vol C Tables 4.2.6.8 and 6.1.1.4'
O O 0.0106 0 'International Tables Vol C Tables 4.2.6.8 and 6.1.1.4'
loop_
_exptl_crystal_face_index_h
_exptl_crystal_face_index_k
_exptl_crystal_face_index_l
_exptl_crystal_face_perp_dist
0 0 -1 0.066
0 0 1 0.026
0 1 0 0.104
0 -1 0 0.095
1 -1 0 0.245
-3 4 0 0.231
loop_
_geom_angle_atom_site_label_1
_geom_angle_atom_site_label_2
_geom_angle_atom_site_label_3
_geom_angle
O2A C1A O1A 123.2(3)
O2A C1A C2A 118.8(3)
O1A C1A C2A 117.8(3)
C5A C2A C3A 113.8(3)
C5A C2A C1A 113.2(3)
C3A C2A C1A 107.0(3)
C5A C2A H2A 107.5
C3A C2A H2A 107.5
C1A C2A H2A 107.5
C2A C3A C4A 110.9(3)
C2A C3A H3A1 109.5
C4A C3A H3A1 109.5
C2A C3A H3A2 109.5
C4A C3A H3A2 109.5
H3A1 C3A H3A2 108
C3A C4A H4A1 109.5
C3A C4A H4A2 109.5
H4A1 C4A H4A2 109.5
C3A C4A H4A3 109.5
H4A1 C4A H4A3 109.5
H4A2 C4A H4A3 109.5
C10A C5A C6A 119.1(3)
C10A C5A C2A 116.7(3)
C6A C5A C2A 124.1(3)
C7A C6A C5A 119.9(3)
C7A C6A H6A 120
C5A C6A H6A 120
C8A C7A C6A 119.4(3)
C8A C7A H7A 120.3
C6A C7A H7A 120.3
C9A C8A C7A 120.9(3)
C9A C8A H8A 119.5
C7A C8A H8A 119.5
C8A C9A C10A 120.0(3)
C8A C9A H9A 120
C10A C9A H9A 120
C5A C10A C9A 120.6(3)
C5A C10A H10A 119.7
C9A C10A H10A 119.7
C1A O1A H1A 110(3)
O2B C1B O1B 122.6(3)
O2B C1B C2B 125.1(3)
O1B C1B C2B 112.3(2)
C5B C2B C1B 108.4(2)
C5B C2B C3B 113.4(2)
C1B C2B C3B 112.1(2)
C5B C2B H2B 107.6
C1B C2B H2B 107.6
C3B C2B H2B 107.6
C4B C3B C2B 111.6(2)
C4B C3B H3B1 109.3
C2B C3B H3B1 109.3
C4B C3B H3B2 109.3
C2B C3B H3B2 109.3
H3B1 C3B H3B2 108
C3B C4B H4B1 109.5
C3B C4B H4B2 109.5
H4B1 C4B H4B2 109.5
C3B C4B H4B3 109.5
H4B1 C4B H4B3 109.5
H4B2 C4B H4B3 109.5
C6B C5B C10B 118.3(3)
C6B C5B C2B 120.9(2)
C10B C5B C2B 120.8(2)
C5B C6B C7B 121.0(3)
C5B C6B H6B 119.5
C7B C6B H6B 119.5
C8B C7B C6B 120.0(3)
C8B C7B H7B 120
C6B C7B H7B 120
C7B C8B C9B 119.9(3)
C7B C8B H8B 120
C9B C8B H8B 120
C8B C9B C10B 120.0(3)
C8B C9B H9B 120
C10B C9B H9B 120
C9B C10B C5B 120.7(3)
C9B C10B H10B 119.7
C5B C10B H10B 119.7
C1B O1B H1B 114(3)
C12A C11A C15A 118.2(2)
C12A C11A C16A 124.4(2)
C15A C11A C16A 117.3(2)
C13A C12A C11A 118.3(3)
C13A C12A H12A 120.8
C11A C12A H12A 120.8
N2A C13A C12A 123.7(3)
N2A C13A H13A 118.1
C12A C13A H13A 118.1
N2A C14A C15A 123.0(3)
N2A C14A H14A 118.5
C15A C14A H14A 118.5
C14A C15A C11A 118.9(3)
C14A C15A H15A 120.5
C11A C15A H15A 120.5
O3A C16A N1A 122.9(3)
O3A C16A C11A 119.3(3)
N1A C16A C11A 117.8(3)
C16A N1A H1AS 119(3)
C16A N1A H1AA 126(2)
H1AS N1A H1AA 115(4)
C14A N2A C13A 117.7(3)
C15B C11B C12B 118.7(2)
C15B C11B C16B 117.3(2)
C12B C11B C16B 124.0(2)
C13B C12B C11B 118.3(3)
C13B C12B H12B 120.9
C11B C12B H12B 120.9
N2B C13B C12B 123.5(3)
N2B C13B H13B 118.3
C12B C13B H13B 118.3
N2B C14B C15B 122.9(3)
N2B C14B H14B 118.5
C15B C14B H14B 118.5
C11B C15B C14B 118.9(3)
C11B C15B H15B 120.6
C14B C15B H15B 120.6
O3B C16B N1B 124.0(3)
O3B C16B C11B 118.4(3)
N1B C16B C11B 117.6(3)
C16B N1B H1BS 107(3)
C16B N1B H1BA 121(3)
H1BS N1B H1BA 129(4)
C14B N2B C13B 117.7(2)
loop_
_geom_bond_atom_site_label_1
_geom_bond_atom_site_label_2
_geom_bond_distance
C1A O2A 1.208(4)
C1A O1A 1.301(4)
C1A C2A 1.533(4)
C2A C5A 1.516(4)
C2A C3A 1.533(5)
C2A H2A 1
C3A C4A 1.556(5)
C3A H3A1 0.99
C3A H3A2 0.99
C4A H4A1 0.98
C4A H4A2 0.98
C4A H4A3 0.98
C5A C10A 1.374(5)
C5A C6A 1.406(5)
C6A C7A 1.385(5)
C6A H6A 0.95
C7A C8A 1.380(5)
C7A H7A 0.95
C8A C9A 1.366(5)
C8A H8A 0.95
C9A C10A 1.384(5)
C9A H9A 0.95
C10A H10A 0.95
O1A H1A 0.88(5)
C1B O2B 1.223(4)
C1B O1B 1.310(3)
C1B C2B 1.522(3)
C2B C5B 1.519(3)
C2B C3B 1.535(3)
C2B H2B 1
C3B C4B 1.525(4)
C3B H3B1 0.99
C3B H3B2 0.99
C4B H4B1 0.98
C4B H4B2 0.98
C4B H4B3 0.98
C5B C6B 1.387(4)
C5B C10B 1.395(4)
C6B C7B 1.397(4)
C6B H6B 0.95
C7B C8B 1.372(5)
C7B H7B 0.95
C8B C9B 1.387(5)
C8B H8B 0.95
C9B C10B 1.392(4)
C9B H9B 0.95
C10B H10B 0.95
O1B H1B 0.83(4)
C11A C12A 1.389(4)
C11A C15A 1.393(4)
C11A C16A 1.507(4)
C12A C13A 1.389(4)
C12A H12A 0.95
C13A N2A 1.335(4)
C13A H13A 0.95
C14A N2A 1.328(4)
C14A C15A 1.391(4)
C14A H14A 0.95
C15A H15A 0.95
C16A O3A 1.230(4)
C16A N1A 1.334(4)
N1A H1AS 0.77(4)
N1A H1AA 1.00(4)
C11B C15B 1.383(4)
C11B C12B 1.391(4)
C11B C16B 1.516(4)
C12B C13B 1.385(4)
C12B H12B 0.95
C13B N2B 1.338(4)
C13B H13B 0.95
C14B N2B 1.332(4)
C14B C15B 1.391(4)
C14B H14B 0.95
C15B H15B 0.95
C16B O3B 1.227(4)
C16B N1B 1.330(4)
N1B H1BS 0.90(5)
N1B H1BA 0.82(5)
loop_
_geom_hbond_atom_site_label_D
_geom_hbond_atom_site_label_H
_geom_hbond_atom_site_label_A
_geom_hbond_site_symmetry_A
_geom_hbond_distance_DH
_geom_hbond_distance_HA
_geom_hbond_distance_DA
_geom_hbond_angle_DHA
O1A H1A N2A . 0.88(5) 1.78(5) 2.652(3) 173(4)
O1B H1B N2B . 0.83(4) 1.93(4) 2.662(3) 147(4)
N1A H1AS O3B . 0.77(4) 2.13(5) 2.897(3) 171(4)
N1A H1AA O2B 1_345 1.00(4) 2.08(4) 3.062(3) 169(3)
N1B H1BS O3A . 0.90(5) 2.04(5) 2.901(3) 160(4)
N1B H1BA O2A 1_765 0.82(5) 2.19(5) 3.002(4) 170(4)
loop_
_geom_torsion_atom_site_label_1
_geom_torsion_atom_site_label_2
_geom_torsion_atom_site_label_3
_geom_torsion_atom_site_label_4
_geom_torsion
O2A C1A C2A C5A -146.6(3)
O1A C1A C2A C5A 29.2(4)
O2A C1A C2A C3A 87.2(4)
O1A C1A C2A C3A -97.0(4)
C5A C2A C3A C4A 63.4(4)
C1A C2A C3A C4A -170.8(3)
C3A C2A C5A C10A -131.4(3)
C1A C2A C5A C10A 106.1(3)
C3A C2A C5A C6A 50.0(4)
C1A C2A C5A C6A -72.5(4)
C10A C5A C6A C7A 0.2(5)
C2A C5A C6A C7A 178.8(3)
C5A C6A C7A C8A -1.3(5)
C6A C7A C8A C9A 1.7(5)
C7A C8A C9A C10A -1.0(6)
C6A C5A C10A C9A 0.5(5)
C2A C5A C10A C9A -178.2(3)
C8A C9A C10A C5A -0.1(6)
O2B C1B C2B C5B 117.6(3)
O1B C1B C2B C5B -61.4(3)
O2B C1B C2B C3B -8.3(4)
O1B C1B C2B C3B 172.7(2)
C5B C2B C3B C4B 60.5(3)
C1B C2B C3B C4B -176.4(2)
C1B C2B C5B C6B 104.7(3)
C3B C2B C5B C6B -130.1(3)
C1B C2B C5B C10B -75.1(3)
C3B C2B C5B C10B 50.0(3)
C10B C5B C6B C7B 1.2(5)
C2B C5B C6B C7B -178.7(3)
C5B C6B C7B C8B -0.7(5)
C6B C7B C8B C9B 0.4(5)
C7B C8B C9B C10B -0.6(5)
C8B C9B C10B C5B 1.1(5)
C6B C5B C10B C9B -1.4(4)
C2B C5B C10B C9B 178.5(3)
C15A C11A C12A C13A -1.5(4)
C16A C11A C12A C13A 179.5(3)
C11A C12A C13A N2A 0.8(5)
N2A C14A C15A C11A 1.4(4)
C12A C11A C15A C14A 0.5(4)
C16A C11A C15A C14A 179.6(3)
C12A C11A C16A O3A 176.5(3)
C15A C11A C16A O3A -2.5(4)
C12A C11A C16A N1A -4.2(4)
C15A C11A C16A N1A 176.8(3)
C15A C14A N2A C13A -2.1(4)
C12A C13A N2A C14A 1.0(5)
C15B C11B C12B C13B 1.7(4)
C16B C11B C12B C13B -179.7(3)
C11B C12B C13B N2B -0.5(5)
C12B C11B C15B C14B -2.0(4)
C16B C11B C15B C14B 179.4(3)
N2B C14B C15B C11B 1.0(4)
C15B C11B C16B O3B 11.7(4)
C12B C11B C16B O3B -166.8(3)
C15B C11B C16B N1B -167.8(3)
C12B C11B C16B N1B 13.7(4)
C15B C14B N2B C13B 0.3(4)
C12B C13B N2B C14B -0.5(4)
loop_
_cod_related_entry_id
_cod_related_entry_database
_cod_related_entry_code
1 ChemSpider 30654530
