#------------------------------------------------------------------------------
#$Date: 2017-10-13 08:28:26 +0300 (Fri, 13 Oct 2017) $
#$Revision: 201972 $
#$URL: file:///home/coder/svn-repositories/cod/cif/2/10/47/2104782.cif $
#------------------------------------------------------------------------------
#
# This file is available in the Crystallography Open Database (COD),
# http://www.crystallography.net/. The original data for this entry
# were provided by IUCr Journals, http://journals.iucr.org/.
#
# The file may be used within the scientific community so long as
# proper attribution is given to the journal article from which the
# data were obtained.
#
data_2104782
loop_
_publ_author_name
'Tumanov, N. A.'
'Boldyreva, E. V.'
'Kolesov, B. A.'
'Kurnosov, A. V.'
'Quesada Cabrera, R.'
_publ_section_title
;
 Pressure-induced phase transitions in <small>L</small>-alanine,
 revisited
;
_journal_coeditor_code           GP5038
_journal_issue                   4
_journal_name_full               'Acta Crystallographica Section B'
_journal_page_first              458
_journal_page_last               471
_journal_paper_doi               10.1107/S010876811001983X
_journal_volume                  66
_journal_year                    2010
_chemical_formula_moiety         'C3 H7 N O2'
_chemical_formula_sum            'C3 H7 N O2'
_chemical_formula_weight         89.10
_chemical_name_common            L-alanine
_chemical_name_systematic
;
 (S)-2-Aminopropanoic acid
;
_space_group_IT_number           19
_symmetry_cell_setting           orthorhombic
_symmetry_space_group_name_Hall  'P 2ac 2ab'
_symmetry_space_group_name_H-M   'P 21 21 21'
_atom_sites_solution_hydrogens   geom
_atom_sites_solution_primary     direct
_atom_sites_solution_secondary   difmap
_audit_creation_method           SHELXL-97
_cell_angle_alpha                90.00
_cell_angle_beta                 90.00
_cell_angle_gamma                90.00
_cell_formula_units_Z            4
_cell_length_a                   5.7952(6)
_cell_length_b                   5.933(8)
_cell_length_c                   12.362(3)
_cell_measurement_pressure       200000
_cell_measurement_reflns_used    842
_cell_measurement_temperature    293(2)
_cell_measurement_theta_max      26.9888
_cell_measurement_theta_min      3.8789
_cell_volume                     425.0(6)
_computing_cell_refinement
;
CrysAlis Pro (Oxford Diffraction Ltd., 2009)
;
_computing_data_collection
;
CrysAlis Pro (Oxford Diffraction Ltd., 2009)
;
_computing_data_reduction
;
CrysAlis Pro (Oxford Diffraction Ltd., 2009)
;
_computing_molecular_graphics    'Mercury (Macrae et al., 2006)'
_computing_publication_material
;
Mercury (Macrae et al., 2006),
CrystalExplorer (Wolff et al., 2007),
PLATON (Spek, 2003)
;
_computing_structure_refinement  'SHELXL-97 (Sheldrick, 1997)'
_computing_structure_solution    'SHELXS-97 (Sheldrick, 1990)'
_diffrn_ambient_temperature      293(2)
_diffrn_detector_area_resol_mean 10.3457
_diffrn_measured_fraction_theta_full 0.433
_diffrn_measured_fraction_theta_max 0.433
_diffrn_measurement_device_type  'Oxford Diffraction KM4 CCD'
_diffrn_measurement_method       \w
_diffrn_radiation_monochromator  graphite
_diffrn_radiation_source         'fine-focus sealed tube'
_diffrn_radiation_type           MoK\a
_diffrn_radiation_wavelength     0.71073
_diffrn_reflns_av_R_equivalents  0.0982
_diffrn_reflns_av_sigmaI/netI    0.0698
_diffrn_reflns_limit_h_max       7
_diffrn_reflns_limit_h_min       -7
_diffrn_reflns_limit_k_max       2
_diffrn_reflns_limit_k_min       -2
_diffrn_reflns_limit_l_max       15
_diffrn_reflns_limit_l_min       -15
_diffrn_reflns_number            2729
_diffrn_reflns_theta_full        26.92
_diffrn_reflns_theta_max         26.92
_diffrn_reflns_theta_min         3.88
_exptl_absorpt_coefficient_mu    0.116
_exptl_absorpt_correction_T_max  0.994
_exptl_absorpt_correction_T_min  0.994
_exptl_absorpt_correction_type   numerical
_exptl_absorpt_process_details
;
Absorb6.1 (R. J. Angel, 2006)
;
_exptl_crystal_colour            colorless
_exptl_crystal_density_diffrn    1.392
_exptl_crystal_density_method    'not measured'
_exptl_crystal_description       plate
_exptl_crystal_F_000             192
_exptl_crystal_size_max          0.15
_exptl_crystal_size_mid          0.1
_exptl_crystal_size_min          0.05
_refine_diff_density_max         0.110
_refine_diff_density_min         -0.117
_refine_ls_extinction_method     none
_refine_ls_goodness_of_fit_ref   0.871
_refine_ls_hydrogen_treatment    constr
_refine_ls_matrix_type           full
_refine_ls_number_parameters     57
_refine_ls_number_reflns         372
_refine_ls_number_restraints     0
_refine_ls_restrained_S_all      0.871
_refine_ls_R_factor_all          0.0621
_refine_ls_R_factor_gt           0.0358
_refine_ls_shift/su_max          0.000
_refine_ls_shift/su_mean         0.000
_refine_ls_structure_factor_coef Fsqd
_refine_ls_weighting_details
'calc w=1/[\s^2^(Fo^2^)+(0.0511P)^2^+0.0000P] where P=(Fo^2^+2Fc^2^)/3'
_refine_ls_weighting_scheme      calc
_refine_ls_wR_factor_gt          0.0803
_refine_ls_wR_factor_ref         0.0858
_reflns_number_gt                249
_reflns_number_total             372
_reflns_threshold_expression     >2sigma(I)
_cod_data_source_file            gp5038.cif
_cod_data_source_block           0.2GPa
_cod_database_code               2104782
_cod_database_fobs_code          2104782
loop_
_symmetry_equiv_pos_as_xyz
'x, y, z'
'-x+1/2, -y, z+1/2'
'x+1/2, -y+1/2, -z'
'-x, y+1/2, -z+1/2'
loop_
_atom_site_type_symbol
_atom_site_label
_atom_site_fract_x
_atom_site_fract_y
_atom_site_fract_z
_atom_site_U_iso_or_equiv
_atom_site_adp_type
_atom_site_calc_flag
_atom_site_refinement_flags
_atom_site_occupancy
_atom_site_disorder_assembly
_atom_site_disorder_group
C C2 0.1466(6) 0.5292(19) 0.1614(3) 0.021(5) Uani d . 1 . .
H H21 0.1614 0.5735 0.2374 0.025 Uiso calc R 1 . .
C C1 -0.1000(6) 0.4429(18) 0.1410(3) 0.030(5) Uani d . 1 . .
C C3 0.1983(6) 0.725(2) 0.0920(3) 0.030(5) Uani d . 1 . .
H H31 0.3518 0.7779 0.1069 0.036 Uiso calc R 1 . .
H H33 0.0897 0.8436 0.1067 0.036 Uiso calc R 1 . .
H H32 0.1871 0.6820 0.0174 0.036 Uiso calc R 1 . .
O O2 -0.1265(4) 0.2731(14) 0.0843(2) 0.041(4) Uani d . 1 . .
O O1 -0.2596(4) 0.5553(10) 0.18462(16) 0.039(4) Uani d . 1 . .
N N1 0.3164(4) 0.3475(15) 0.1373(2) 0.044(5) Uani d . 1 . .
H H13 0.3004 0.3035 0.0689 0.053 Uiso calc R 1 . .
H H11 0.2914 0.2309 0.1811 0.053 Uiso calc R 1 . .
H H12 0.4588 0.3994 0.1476 0.053 Uiso calc R 1 . .
loop_
_atom_site_aniso_label
_atom_site_aniso_U_11
_atom_site_aniso_U_22
_atom_site_aniso_U_33
_atom_site_aniso_U_12
_atom_site_aniso_U_13
_atom_site_aniso_U_23
C2 0.0215(17) 0.016(15) 0.0246(17) -0.002(4) 0.0015(13) 0.005(3)
C1 0.0229(18) 0.049(16) 0.0190(18) -0.007(4) -0.0001(15) 0.000(4)
C3 0.0279(19) 0.012(17) 0.049(2) -0.002(4) -0.0031(17) -0.004(4)
O2 0.0271(12) 0.061(12) 0.0364(14) -0.005(3) -0.0025(12) -0.013(2)
O1 0.0189(11) 0.059(11) 0.0400(12) 0.003(3) 0.0038(10) -0.008(2)
N1 0.0200(15) 0.081(14) 0.0309(15) 0.000(3) 0.0000(12) 0.002(3)
loop_
_atom_type_symbol
_atom_type_description
_atom_type_scat_dispersion_real
_atom_type_scat_dispersion_imag
_atom_type_scat_source
C C 0.0033 0.0016 'International Tables Vol C Tables 4.2.6.8 and 6.1.1.4'
H H 0.0000 0.0000 'International Tables Vol C Tables 4.2.6.8 and 6.1.1.4'
N N 0.0061 0.0033 'International Tables Vol C Tables 4.2.6.8 and 6.1.1.4'
O O 0.0106 0.0060 'International Tables Vol C Tables 4.2.6.8 and 6.1.1.4'
loop_
_geom_angle_atom_site_label_1
_geom_angle_atom_site_label_2
_geom_angle_atom_site_label_3
_geom_angle_site_symmetry_1
_geom_angle_site_symmetry_3
_geom_angle
_geom_angle_publ_flag
C3 C2 N1 . . 108.7(4) ?
C3 C2 C1 . . 110.8(5) ?
N1 C2 C1 . . 109.9(8) ?
C3 C2 H21 . . 109.1 ?
N1 C2 H21 . . 109.1 ?
C1 C2 H21 . . 109.1 ?
O2 C1 O1 . . 125.6(4) ?
O2 C1 C2 . . 118.6(6) ?
O1 C1 C2 . . 115.8(7) ?
C2 C3 H31 . . 109.5 ?
C2 C3 H33 . . 109.5 ?
H31 C3 H33 . . 109.5 ?
C2 C3 H32 . . 109.5 ?
H31 C3 H32 . . 109.5 ?
H33 C3 H32 . . 109.5 ?
C2 N1 H13 . . 109.5 ?
C2 N1 H11 . . 109.5 ?
H13 N1 H11 . . 109.5 ?
C2 N1 H12 . . 109.5 ?
H13 N1 H12 . . 109.5 ?
H11 N1 H12 . . 109.5 ?
loop_
_geom_bond_atom_site_label_1
_geom_bond_atom_site_label_2
_geom_bond_site_symmetry_2
_geom_bond_distance
_geom_bond_publ_flag
C2 C3 . 1.477(14) ?
C2 N1 . 1.490(11) ?
C2 C1 . 1.538(7) ?
C2 H21 . 0.9800 ?
C1 O2 . 1.237(10) ?
C1 O1 . 1.261(7) ?
C3 H31 . 0.9600 ?
C3 H33 . 0.9600 ?
C3 H32 . 0.9600 ?
N1 H13 . 0.8900 ?
N1 H11 . 0.8900 ?
N1 H12 . 0.8900 ?
loop_
_geom_hbond_atom_site_label_D
_geom_hbond_atom_site_label_H
_geom_hbond_atom_site_label_A
_geom_hbond_site_symmetry_A
_geom_hbond_distance_DH
_geom_hbond_distance_HA
_geom_hbond_distance_DA
_geom_hbond_angle_DHA
N1 H11 O1 4_545 0.89 1.97 2.821(8) 160.0
N1 H12 O1 1_655 0.89 1.93 2.811(6) 169.6
N1 H13 O2 3 0.89 1.99 2.851(5) 161.4
C2 H21 O2 4 0.98 2.51 3.463(7) 164.1
loop_
_geom_torsion_atom_site_label_1
_geom_torsion_atom_site_label_2
_geom_torsion_atom_site_label_3
_geom_torsion_atom_site_label_4
_geom_torsion_site_symmetry_1
_geom_torsion_site_symmetry_2
_geom_torsion_site_symmetry_3
_geom_torsion_site_symmetry_4
_geom_torsion
_geom_torsion_publ_flag
C3 C2 C1 O2 . . . . 101.8(10) ?
N1 C2 C1 O2 . . . . -18.4(8) ?
C3 C2 C1 O1 . . . . -78.0(6) ?
N1 C2 C1 O1 . . . . 161.8(5) ?
loop_
_cod_related_entry_id
_cod_related_entry_database
_cod_related_entry_code
1 ChemSpider 5735
