#------------------------------------------------------------------------------
#$Date: 2017-10-13 08:28:26 +0300 (Fri, 13 Oct 2017) $
#$Revision: 201972 $
#$URL: file:///home/coder/svn-repositories/cod/cif/2/10/47/2104785.cif $
#------------------------------------------------------------------------------
#
# This file is available in the Crystallography Open Database (COD),
# http://www.crystallography.net/. The original data for this entry
# were provided by IUCr Journals, http://journals.iucr.org/.
#
# The file may be used within the scientific community so long as
# proper attribution is given to the journal article from which the
# data were obtained.
#
data_2104785
loop_
_publ_author_name
'Tumanov, N. A.'
'Boldyreva, E. V.'
'Kolesov, B. A.'
'Kurnosov, A. V.'
'Quesada Cabrera, R.'
_publ_section_title
;
 Pressure-induced phase transitions in <small>L</small>-alanine,
 revisited
;
_journal_coeditor_code           GP5038
_journal_issue                   4
_journal_name_full               'Acta Crystallographica Section B'
_journal_page_first              458
_journal_page_last               471
_journal_paper_doi               10.1107/S010876811001983X
_journal_volume                  66
_journal_year                    2010
_chemical_formula_moiety         'C3 H7 N O2'
_chemical_formula_sum            'C3 H7 N O2'
_chemical_formula_weight         89.10
_chemical_name_common            L-alanine
_chemical_name_systematic
;
 (S)-2-Aminopropanoic acid
;
_space_group_IT_number           19
_symmetry_cell_setting           orthorhombic
_symmetry_space_group_name_Hall  'P 2ac 2ab'
_symmetry_space_group_name_H-M   'P 21 21 21'
_atom_sites_solution_hydrogens   geom
_atom_sites_solution_primary     direct
_atom_sites_solution_secondary   difmap
_audit_creation_method           SHELXL-97
_cell_angle_alpha                90.00
_cell_angle_beta                 90.00
_cell_angle_gamma                90.00
_cell_formula_units_Z            4
_cell_length_a                   5.6729(7)
_cell_length_b                   5.671(2)
_cell_length_c                   12.047(5)
_cell_measurement_pressure       2200000
_cell_measurement_reflns_used    1089
_cell_measurement_temperature    293(2)
_cell_measurement_theta_max      30.8176
_cell_measurement_theta_min      3.5800
_cell_volume                     387.6(2)
_computing_cell_refinement
;
CrysAlis Pro (Oxford Diffraction Ltd., 2009)
;
_computing_data_collection
;
CrysAlis Pro (Oxford Diffraction Ltd., 2009)
;
_computing_data_reduction
;
CrysAlis Pro (Oxford Diffraction Ltd., 2009)
;
_computing_molecular_graphics    'Mercury (Macrae et al., 2006)'
_computing_publication_material
;
Mercury (Macrae et al., 2006),
CrystalExplorer (Wolff et al., 2007),
PLATON (Spek, 2003)
;
_computing_structure_refinement  'SHELXL-97 (Sheldrick, 1997)'
_computing_structure_solution    'SHELXS-97 (Sheldrick, 1990)'
_diffrn_ambient_temperature      293(2)
_diffrn_detector_area_resol_mean 10.3457
_diffrn_measured_fraction_theta_full 0.444
_diffrn_measured_fraction_theta_max 0.444
_diffrn_measurement_device_type  'Oxford Diffraction KM4 CCD'
_diffrn_measurement_method       \w
_diffrn_radiation_monochromator  graphite
_diffrn_radiation_source         'fine-focus sealed tube'
_diffrn_radiation_type           MoK\a
_diffrn_radiation_wavelength     0.71073
_diffrn_reflns_av_R_equivalents  0.0880
_diffrn_reflns_av_sigmaI/netI    0.0965
_diffrn_reflns_limit_h_max       8
_diffrn_reflns_limit_h_min       -8
_diffrn_reflns_limit_k_max       6
_diffrn_reflns_limit_k_min       -6
_diffrn_reflns_limit_l_max       13
_diffrn_reflns_limit_l_min       -12
_diffrn_reflns_number            3618
_diffrn_reflns_theta_full        30.90
_diffrn_reflns_theta_max         30.90
_diffrn_reflns_theta_min         3.97
_exptl_absorpt_coefficient_mu    0.127
_exptl_absorpt_correction_T_max  0.993
_exptl_absorpt_correction_T_min  0.992
_exptl_absorpt_correction_type   numerical
_exptl_absorpt_process_details
;
Absorb6.1 (R. J. Angel, 2006)
;
_exptl_crystal_colour            colorless
_exptl_crystal_density_diffrn    1.527
_exptl_crystal_density_method    'not measured'
_exptl_crystal_description       plate
_exptl_crystal_F_000             192
_exptl_crystal_size_max          0.14
_exptl_crystal_size_mid          0.06
_exptl_crystal_size_min          0.05
_refine_diff_density_max         0.128
_refine_diff_density_min         -0.127
_refine_ls_extinction_method     none
_refine_ls_goodness_of_fit_ref   0.861
_refine_ls_hydrogen_treatment    constr
_refine_ls_matrix_type           full
_refine_ls_number_parameters     57
_refine_ls_number_reflns         565
_refine_ls_number_restraints     0
_refine_ls_restrained_S_all      0.861
_refine_ls_R_factor_all          0.0770
_refine_ls_R_factor_gt           0.0354
_refine_ls_shift/su_max          0.000
_refine_ls_shift/su_mean         0.000
_refine_ls_structure_factor_coef Fsqd
_refine_ls_weighting_details
'calc w=1/[\s^2^(Fo^2^)+(0.0446P)^2^+0.0000P] where P=(Fo^2^+2Fc^2^)/3'
_refine_ls_weighting_scheme      calc
_refine_ls_wR_factor_gt          0.0781
_refine_ls_wR_factor_ref         0.0848
_reflns_number_gt                318
_reflns_number_total             565
_reflns_threshold_expression     >2sigma(I)
_cod_data_source_file            gp5038.cif
_cod_data_source_block           2.2GPa
_cod_original_cell_volume        387.5(2)
_cod_database_code               2104785
_cod_database_fobs_code          2104785
loop_
_symmetry_equiv_pos_as_xyz
'x, y, z'
'-x+1/2, -y, z+1/2'
'x+1/2, -y+1/2, -z'
'-x, y+1/2, -z+1/2'
loop_
_atom_site_type_symbol
_atom_site_label
_atom_site_fract_x
_atom_site_fract_y
_atom_site_fract_z
_atom_site_U_iso_or_equiv
_atom_site_adp_type
_atom_site_calc_flag
_atom_site_refinement_flags
_atom_site_occupancy
_atom_site_disorder_assembly
_atom_site_disorder_group
C C2 0.1767(5) 0.5455(6) 0.1605(3) 0.0204(9) Uani d . 1 . .
H H21 0.1956 0.5889 0.2387 0.025 Uiso calc R 1 . .
C C1 -0.0751(5) 0.4562(8) 0.1423(4) 0.0213(10) Uani d . 1 . .
C C3 0.2300(5) 0.7589(7) 0.0893(3) 0.0299(11) Uani d . 1 . .
H H31 0.3859 0.8150 0.1056 0.036 Uiso calc R 1 . .
H H33 0.1176 0.8810 0.1048 0.036 Uiso calc R 1 . .
H H32 0.2205 0.7160 0.0123 0.036 Uiso calc R 1 . .
O O2 -0.1034(3) 0.2734(5) 0.0860(2) 0.0280(9) Uani d . 1 . .
O O1 -0.2354(3) 0.5801(4) 0.1842(2) 0.0301(8) Uani d . 1 . .
N N1 0.3463(4) 0.3539(5) 0.1335(3) 0.0258(9) Uani d . 1 . .
H H13 0.3295 0.3123 0.0627 0.031 Uiso calc R 1 . .
H H11 0.3183 0.2299 0.1768 0.031 Uiso calc R 1 . .
H H12 0.4928 0.4048 0.1448 0.031 Uiso calc R 1 . .
loop_
_atom_site_aniso_label
_atom_site_aniso_U_11
_atom_site_aniso_U_22
_atom_site_aniso_U_33
_atom_site_aniso_U_12
_atom_site_aniso_U_13
_atom_site_aniso_U_23
C2 0.0213(16) 0.028(4) 0.012(4) 0.0039(16) -0.0023(16) -0.0018(16)
C1 0.0215(17) 0.027(4) 0.015(4) -0.0023(17) 0.0014(15) 0.0028(17)
C3 0.0210(13) 0.024(4) 0.045(5) 0.000(2) 0.0003(17) 0.0069(18)
O2 0.0244(11) 0.027(3) 0.032(3) 0.0001(14) -0.0067(12) -0.0076(14)
O1 0.0159(10) 0.034(2) 0.041(3) 0.0042(11) 0.0030(12) -0.0059(13)
N1 0.0163(12) 0.021(3) 0.041(3) -0.0011(13) 0.0013(15) -0.0008(12)
loop_
_atom_type_symbol
_atom_type_description
_atom_type_scat_dispersion_real
_atom_type_scat_dispersion_imag
_atom_type_scat_source
C C 0.0033 0.0016 'International Tables Vol C Tables 4.2.6.8 and 6.1.1.4'
H H 0.0000 0.0000 'International Tables Vol C Tables 4.2.6.8 and 6.1.1.4'
N N 0.0061 0.0033 'International Tables Vol C Tables 4.2.6.8 and 6.1.1.4'
O O 0.0106 0.0060 'International Tables Vol C Tables 4.2.6.8 and 6.1.1.4'
loop_
_geom_angle_atom_site_label_1
_geom_angle_atom_site_label_2
_geom_angle_atom_site_label_3
_geom_angle_site_symmetry_1
_geom_angle_site_symmetry_3
_geom_angle
_geom_angle_publ_flag
N1 C2 C3 . . 109.3(3) ?
N1 C2 C1 . . 109.3(3) ?
C3 C2 C1 . . 111.7(3) ?
N1 C2 H21 . . 108.8 ?
C3 C2 H21 . . 108.8 ?
C1 C2 H21 . . 108.8 ?
O2 C1 O1 . . 126.2(3) ?
O2 C1 C2 . . 118.2(3) ?
O1 C1 C2 . . 115.6(3) ?
C2 C3 H31 . . 109.5 ?
C2 C3 H33 . . 109.5 ?
H31 C3 H33 . . 109.5 ?
C2 C3 H32 . . 109.5 ?
H31 C3 H32 . . 109.5 ?
H33 C3 H32 . . 109.5 ?
C2 N1 H13 . . 109.5 ?
C2 N1 H11 . . 109.5 ?
H13 N1 H11 . . 109.5 ?
C2 N1 H12 . . 109.5 ?
H13 N1 H12 . . 109.5 ?
H11 N1 H12 . . 109.5 ?
loop_
_geom_bond_atom_site_label_1
_geom_bond_atom_site_label_2
_geom_bond_site_symmetry_2
_geom_bond_distance
_geom_bond_publ_flag
C2 N1 . 1.488(4) ?
C2 C3 . 1.514(4) ?
C2 C1 . 1.531(4) ?
C2 H21 . 0.9800 ?
C1 O2 . 1.249(4) ?
C1 O1 . 1.255(4) ?
C3 H31 . 0.9600 ?
C3 H33 . 0.9600 ?
C3 H32 . 0.9600 ?
N1 H13 . 0.8900 ?
N1 H11 . 0.8900 ?
N1 H12 . 0.8900 ?
loop_
_geom_hbond_atom_site_label_D
_geom_hbond_atom_site_label_H
_geom_hbond_atom_site_label_A
_geom_hbond_site_symmetry_A
_geom_hbond_distance_DH
_geom_hbond_distance_HA
_geom_hbond_distance_DA
_geom_hbond_angle_DHA
N1 H11 O1 4_545 0.89 1.94 2.762(4) 153.8
N1 H12 O1 1_655 0.89 1.90 2.766(3) 165.5
N1 H13 O2 3 0.89 1.89 2.755(4) 162.2
C2 H21 O2 4 0.98 2.41 3.342(5) 157.9
loop_
_geom_torsion_atom_site_label_1
_geom_torsion_atom_site_label_2
_geom_torsion_atom_site_label_3
_geom_torsion_atom_site_label_4
_geom_torsion_site_symmetry_1
_geom_torsion_site_symmetry_2
_geom_torsion_site_symmetry_3
_geom_torsion_site_symmetry_4
_geom_torsion
_geom_torsion_publ_flag
N1 C2 C1 O2 . . . . -16.5(6) ?
C3 C2 C1 O2 . . . . 104.6(5) ?
N1 C2 C1 O1 . . . . 165.2(3) ?
C3 C2 C1 O1 . . . . -73.7(6) ?
loop_
_cod_related_entry_id
_cod_related_entry_database
_cod_related_entry_code
1 ChemSpider 5735
