#------------------------------------------------------------------------------
#$Date: 2017-10-13 08:28:26 +0300 (Fri, 13 Oct 2017) $
#$Revision: 201972 $
#$URL: file:///home/coder/svn-repositories/cod/cif/2/10/42/2104248.cif $
#------------------------------------------------------------------------------
#
# This file is available in the Crystallography Open Database (COD),
# http://www.crystallography.net/. The original data for this entry
# were provided by IUCr Journals, http://journals.iucr.org/.
#
# The file may be used within the scientific community so long as
# proper attribution is given to the journal article from which the
# data were obtained.
#
data_2104248
loop_
_publ_author_name
'Lemmerer, Andreas'
'B\'athori, Nikoletta B.'
'Bourne, Susan A.'
_publ_section_title
;
 Chiral carboxylic acids and their effects on melting-point behaviour
 in co-crystals with isonicotinamide
;
_journal_coeditor_code           BS5070
_journal_issue                   6
_journal_name_full               'Acta Crystallographica Section B'
_journal_page_first              780
_journal_page_last               790
_journal_paper_doi               10.1107/S0108768108034526
_journal_volume                  64
_journal_year                    2008
_chemical_formula_moiety         'C9 H10 O2'
_chemical_formula_sum            'C9 H10 O2'
_chemical_formula_weight         150.17
_chemical_melting_point          302.5(5)
_chemical_name_systematic
;
  (S)-2-phenylpropionic acid
;
_space_group_IT_number           4
_symmetry_cell_setting           monoclinic
_symmetry_space_group_name_Hall  'P 2yb'
_symmetry_space_group_name_H-M   'P 1 21 1'
_atom_sites_solution_hydrogens   geom
_atom_sites_solution_primary     direct
_atom_sites_solution_secondary   difmap
_audit_conform_dict_name         cif_core.dic
_audit_conform_dict_version      2.3
_audit_creation_method           'WinGX routine CIF_UPDATE'
_cell_angle_alpha                90
_cell_angle_beta                 100.41(3)
_cell_angle_gamma                90
_cell_formula_units_Z            2
_cell_length_a                   6.4280(13)
_cell_length_b                   7.1935(14)
_cell_length_c                   8.6507(17)
_cell_measurement_reflns_used    5429
_cell_measurement_temperature    173(2)
_cell_measurement_theta_max      28.28
_cell_measurement_theta_min      0.41
_cell_volume                     393.42(14)
_computing_cell_refinement       'DENZO-SMN (Otwinowski & Minor, 1997)'
_computing_data_collection       'COLLECT (Nonius, 2000)'
_computing_data_reduction        DENZO-SMN
_computing_molecular_graphics
;
Ortep-3 for Windows (Farrugia, 1997) and DIAMOND (Brandenburg, 1999)
;
_computing_publication_material
;
WinGX publication routines (Farrugia, 1999) and PLATON (Spek, 2002)
;
_computing_structure_refinement  'SHELXL-97 (Sheldrick, 1997)'
_computing_structure_solution    'SHELXS-97 (Sheldrick, 1997)'
_diffrn_ambient_temperature      173(2)
_diffrn_measured_fraction_theta_full 0.998
_diffrn_measured_fraction_theta_max 0.998
_diffrn_measurement_device_type  'Nonius KappaCCD area-detector'
_diffrn_measurement_method       '2.0\% \f and \w scans'
_diffrn_radiation_monochromator  graphite
_diffrn_radiation_type           MoK\a
_diffrn_radiation_wavelength     0.71073
_diffrn_reflns_av_R_equivalents  0.0418
_diffrn_reflns_limit_h_max       7
_diffrn_reflns_limit_h_min       -7
_diffrn_reflns_limit_k_max       8
_diffrn_reflns_limit_k_min       -8
_diffrn_reflns_limit_l_max       10
_diffrn_reflns_limit_l_min       -10
_diffrn_reflns_number            4966
_diffrn_reflns_theta_full        25.49
_diffrn_reflns_theta_max         25.49
_diffrn_reflns_theta_min         3.65
_diffrn_standards_number         0
_exptl_absorpt_coefficient_mu    0.089
_exptl_absorpt_correction_T_max  0.970
_exptl_absorpt_correction_T_min  0.963
_exptl_absorpt_correction_type   multi-scan
_exptl_absorpt_process_details   'SADABS (Sheldrick, 1996)'
_exptl_crystal_colour            colourless
_exptl_crystal_density_diffrn    1.268
_exptl_crystal_density_method    'not measured'
_exptl_crystal_description       spheroid
_exptl_crystal_F_000             160
_exptl_crystal_size_max          0.45
_exptl_crystal_size_mid          0.4
_exptl_crystal_size_min          0.38
_refine_diff_density_max         0.173
_refine_diff_density_min         -0.191
_refine_ls_extinction_method     none
_refine_ls_goodness_of_fit_ref   1.074
_refine_ls_hydrogen_treatment    mixed
_refine_ls_matrix_type           full
_refine_ls_number_parameters     104
_refine_ls_number_reflns         801
_refine_ls_number_restraints     1
_refine_ls_restrained_S_all      1.074
_refine_ls_R_factor_all          0.0547
_refine_ls_R_factor_gt           0.0403
_refine_ls_shift/su_max          0.004
_refine_ls_shift/su_mean         0.001
_refine_ls_structure_factor_coef Fsqd
_refine_ls_weighting_details
'calc w=1/[\s^2^(Fo^2^)+(0.0613P)^2^+0.0318P] where P=(Fo^2^+2Fc^2^)/3'
_refine_ls_weighting_scheme      calc
_refine_ls_wR_factor_gt          0.0921
_refine_ls_wR_factor_ref         0.1
_reflns_number_gt                676
_reflns_number_total             801
_reflns_threshold_expression     >2sigma(I)
_cod_data_source_file            bs5070.cif
_cod_data_source_block           II
_cod_depositor_comments
;
The following automatic conversions were performed:
'_symmetry_cell_setting' value 'Monoclinic' changed to 'monoclinic'
according to '/home/saulius/struct/CIF-dictionaries/cif_core.dic'
dictionary named 'cif_core.dic' version 2.4.1 from 2010-06-29.

Automatic conversion script
Id: cif_fix_enum 1527 2010-12-29 10:47:43Z saulius 

The following automatic conversions were performed:

'_chemical_melting_point' value '302-303' was changed to '302.5(5)' -
the average value was taken and precision was estimated.

Automatic conversion script
Id: cif_fix_values 1646 2011-03-28 12:23:43Z adriana 

The following automatic conversions were performed:

'_chemical_melting_point' value '302-303' was changed to '302.5(5)' -
the average value was taken and precision was
estimated.

'_symmetry_cell_setting' value 'Monoclinic' changed to
'monoclinic' according to
/home/saulius/struct/CIF-dictionaries/cif_core.dic dictionary named
'cif_core.dic' version 2.4.1 from 2010-06-29.

Automatic conversion script
Id: cif_fix_values 1715 2011-07-08 13:25:40Z adriana 
;
_cod_original_cell_volume        393.43(13)
_cod_original_sg_symbol_H-M      P2(1)
_cod_database_code               2104248
loop_
_symmetry_equiv_pos_as_xyz
'x, y, z'
'-x, y+1/2, -z'
loop_
_atom_site_type_symbol
_atom_site_label
_atom_site_fract_x
_atom_site_fract_y
_atom_site_fract_z
_atom_site_U_iso_or_equiv
_atom_site_adp_type
_atom_site_calc_flag
_atom_site_refinement_flags
_atom_site_occupancy
C C1 0.3467(4) 0.4456(4) 0.9103(3) 0.0305(6) Uani d . 1
C C2 0.1981(4) 0.2967(3) 0.8299(3) 0.0313(6) Uani d . 1
H H2 0.2468 0.1747 0.8788 0.038 Uiso calc R 1
C C3 -0.0265(5) 0.3313(4) 0.8603(3) 0.0421(7) Uani d . 1
H H3A -0.076 0.4531 0.8181 0.063 Uiso calc R 1
H H3B -0.0256 0.3286 0.9737 0.063 Uiso calc R 1
H H3C -0.1213 0.2342 0.8086 0.063 Uiso calc R 1
C C5 0.2182(4) 0.2879(3) 0.6577(3) 0.0305(6) Uani d . 1
C C6 0.0732(4) 0.3683(4) 0.5385(3) 0.0356(7) Uani d . 1
H H6 -0.0474 0.4303 0.5627 0.043 Uiso calc R 1
C C7 0.1034(5) 0.3586(4) 0.3835(3) 0.0404(8) Uani d . 1
H H7 0.002 0.4124 0.3024 0.048 Uiso calc R 1
C C8 0.2788(5) 0.2718(4) 0.3466(3) 0.0421(8) Uani d . 1
H H8 0.2993 0.2674 0.2407 0.051 Uiso calc R 1
C C9 0.4252(5) 0.1911(4) 0.4643(3) 0.0412(7) Uani d . 1
H H9 0.5473 0.1318 0.4397 0.049 Uiso calc R 1
C C10 0.3927(5) 0.1974(4) 0.6187(3) 0.0361(7) Uani d . 1
H H10 0.4913 0.1388 0.699 0.043 Uiso calc R 1
O O1 0.2893(3) 0.6159(2) 0.8649(2) 0.0398(6) Uani d . 1
H H1 0.382(5) 0.702(5) 0.927(4) 0.048 Uiso d . 1
O O2 0.5046(3) 0.4142(3) 1.0067(2) 0.0396(5) Uani d . 1
loop_
_atom_site_aniso_label
_atom_site_aniso_U_11
_atom_site_aniso_U_22
_atom_site_aniso_U_33
_atom_site_aniso_U_12
_atom_site_aniso_U_13
_atom_site_aniso_U_23
C1 0.0375(16) 0.0252(13) 0.0296(13) 0.0017(11) 0.0086(12) 0.0005(11)
C2 0.0353(15) 0.0223(12) 0.0358(14) -0.0016(11) 0.0049(12) 0.0002(11)
C3 0.0412(17) 0.0417(17) 0.0442(16) -0.0054(13) 0.0095(13) -0.0009(13)
C5 0.0363(15) 0.0183(13) 0.0359(14) -0.0036(12) 0.0037(12) -0.0025(11)
C6 0.0421(17) 0.0247(14) 0.0388(15) 0.0039(12) 0.0034(13) -0.0016(12)
C7 0.0555(19) 0.0270(14) 0.0356(15) 0.0006(13) 0.0000(14) 0.0015(12)
C8 0.061(2) 0.0294(16) 0.0384(15) -0.0043(15) 0.0154(15) -0.0053(13)
C9 0.0420(17) 0.0349(17) 0.0485(17) 0.0003(13) 0.0126(14) -0.0060(14)
C10 0.0353(16) 0.0285(16) 0.0426(15) -0.0004(12) 0.0021(12) -0.0035(12)
O1 0.0459(12) 0.0218(10) 0.0463(12) 0.0021(9) -0.0063(9) -0.0002(9)
O2 0.0429(11) 0.0258(10) 0.0442(10) 0.0006(9) -0.0077(9) 0.0004(8)
loop_
_atom_type_symbol
_atom_type_description
_atom_type_scat_dispersion_real
_atom_type_scat_dispersion_imag
_atom_type_scat_source
C C 0.0033 0 'International Tables Vol C Tables 4.2.6.8 and 6.1.1.4'
H H 0 0 'International Tables Vol C Tables 4.2.6.8 and 6.1.1.4'
O O 0.0106 0 'International Tables Vol C Tables 4.2.6.8 and 6.1.1.4'
loop_
_geom_angle_atom_site_label_1
_geom_angle_atom_site_label_2
_geom_angle_atom_site_label_3
_geom_angle
O2 C1 O1 122.2(3)
O2 C1 C2 124.3(3)
O1 C1 C2 113.6(2)
C1 C2 C5 108.7(2)
C1 C2 C3 109.9(2)
C5 C2 C3 115.1(2)
C1 C2 H2 107.6
C5 C2 H2 107.6
C3 C2 H2 107.6
C2 C3 H3A 109.5
C2 C3 H3B 109.5
H3A C3 H3B 109.5
C2 C3 H3C 109.5
H3A C3 H3C 109.5
H3B C3 H3C 109.5
C6 C5 C10 118.6(2)
C6 C5 C2 123.2(2)
C10 C5 C2 118.2(2)
C5 C6 C7 120.3(3)
C5 C6 H6 119.9
C7 C6 H6 119.9
C8 C7 C6 120.6(3)
C8 C7 H7 119.7
C6 C7 H7 119.7
C7 C8 C9 119.8(3)
C7 C8 H8 120.1
C9 C8 H8 120.1
C8 C9 C10 119.5(3)
C8 C9 H9 120.2
C10 C9 H9 120.2
C5 C10 C9 121.1(3)
C5 C10 H10 119.4
C9 C10 H10 119.4
C1 O1 H1 109(2)
loop_
_geom_bond_atom_site_label_1
_geom_bond_atom_site_label_2
_geom_bond_distance
C1 O2 1.213(3)
C1 O1 1.318(3)
C1 C2 1.518(4)
C2 C5 1.519(4)
C2 C3 1.533(4)
C2 H2 1
C3 H3A 0.98
C3 H3B 0.98
C3 H3C 0.98
C5 C6 1.386(4)
C5 C10 1.390(4)
C6 C7 1.390(4)
C6 H6 0.95
C7 C8 1.376(4)
C7 H7 0.95
C8 C9 1.383(4)
C8 H8 0.95
C9 C10 1.390(4)
C9 H9 0.95
C10 H10 0.95
O1 H1 0.96(3)
loop_
_geom_hbond_atom_site_label_D
_geom_hbond_atom_site_label_H
_geom_hbond_atom_site_label_A
_geom_hbond_site_symmetry_A
_geom_hbond_distance_DH
_geom_hbond_distance_HA
_geom_hbond_distance_DA
_geom_hbond_angle_DHA
O1 H1 O2 2_657 0.96(3) 1.74(4) 2.657(3) 159(3)
C2 H2 O2 2_647 1.00 2.54 3.500(3) 159.7
loop_
_geom_torsion_atom_site_label_1
_geom_torsion_atom_site_label_2
_geom_torsion_atom_site_label_3
_geom_torsion_atom_site_label_4
_geom_torsion
O2 C1 C2 C5 -110.7(3)
O1 C1 C2 C5 68.9(3)
O2 C1 C2 C3 122.5(3)
O1 C1 C2 C3 -58.0(3)
C1 C2 C5 C6 -101.2(3)
C3 C2 C5 C6 22.6(4)
C1 C2 C5 C10 77.6(3)
C3 C2 C5 C10 -158.5(2)
C10 C5 C6 C7 -0.3(4)
C2 C5 C6 C7 178.6(2)
C5 C6 C7 C8 -1.0(4)
C6 C7 C8 C9 0.9(4)
C7 C8 C9 C10 0.5(5)
C6 C5 C10 C9 1.6(4)
C2 C5 C10 C9 -177.2(3)
C8 C9 C10 C5 -1.8(4)
loop_
_cod_related_entry_id
_cod_related_entry_database
_cod_related_entry_code
1 ChemSpider 2006749
