#------------------------------------------------------------------------------
#$Date: 2017-10-13 08:28:26 +0300 (Fri, 13 Oct 2017) $
#$Revision: 201972 $
#$URL: file:///home/coder/svn-repositories/cod/cif/2/10/47/2104789.cif $
#------------------------------------------------------------------------------
#
# This file is available in the Crystallography Open Database (COD),
# http://www.crystallography.net/. The original data for this entry
# were provided by IUCr Journals, http://journals.iucr.org/.
#
# The file may be used within the scientific community so long as
# proper attribution is given to the journal article from which the
# data were obtained.
#
data_2104789
loop_
_publ_author_name
'Tumanov, N. A.'
'Boldyreva, E. V.'
'Kolesov, B. A.'
'Kurnosov, A. V.'
'Quesada Cabrera, R.'
_publ_section_title
;
 Pressure-induced phase transitions in <small>L</small>-alanine,
 revisited
;
_journal_coeditor_code           GP5038
_journal_issue                   4
_journal_name_full               'Acta Crystallographica Section B'
_journal_page_first              458
_journal_page_last               471
_journal_paper_doi               10.1107/S010876811001983X
_journal_volume                  66
_journal_year                    2010
_chemical_formula_moiety         'C3 H7 N O2'
_chemical_formula_sum            'C3 H7 N O2'
_chemical_formula_weight         89.10
_chemical_name_common            L-alanine
_chemical_name_systematic
;
 2-Aminopropanoic acid
;
_space_group_IT_number           19
_symmetry_cell_setting           orthorhombic
_symmetry_space_group_name_Hall  'P 2ac 2ab'
_symmetry_space_group_name_H-M   'P 21 21 21'
_atom_sites_solution_hydrogens   geom
_atom_sites_solution_primary     direct
_atom_sites_solution_secondary   difmap
_audit_creation_method           SHELXL-97
_cell_angle_alpha                90.00
_cell_angle_beta                 90.00
_cell_angle_gamma                90.00
_cell_formula_units_Z            4
_cell_length_a                   5.5845(5)
_cell_length_b                   5.4749(19)
_cell_length_c                   11.721(3)
_cell_measurement_pressure       4700000
_cell_measurement_reflns_used    601
_cell_measurement_temperature    293(2)
_cell_measurement_theta_max      30.9031
_cell_measurement_theta_min      3.6428
_cell_volume                     358.36(16)
_computing_cell_refinement
;
CrysAlis Pro (Oxford Diffraction Ltd., 2009)
;
_computing_data_collection
;
CrysAlis Pro (Oxford Diffraction Ltd., 2009)
;
_computing_data_reduction
;
CrysAlis Pro (Oxford Diffraction Ltd., 2009)
;
_computing_molecular_graphics    'Mercury (Macrae et al., 2006)'
_computing_publication_material
;
Mercury (Macrae et al., 2006),
CrystalExplorer (Wolff et al., 2007),
PLATON (Spek, 2003)
;
_computing_structure_refinement  'SHELXL-97 (Sheldrick, 1997)'
_computing_structure_solution    'SHELXS-97 (Sheldrick, 1990)'
_diffrn_ambient_temperature      293(2)
_diffrn_detector_area_resol_mean 10.3457
_diffrn_measured_fraction_theta_full 0.417
_diffrn_measured_fraction_theta_max 0.417
_diffrn_measurement_device_type  'Oxford Diffraction KM4 CCD'
_diffrn_measurement_method       \w
_diffrn_radiation_monochromator  graphite
_diffrn_radiation_source         'fine-focus sealed tube'
_diffrn_radiation_type           MoK\a
_diffrn_radiation_wavelength     0.71073
_diffrn_reflns_av_R_equivalents  0.0750
_diffrn_reflns_av_sigmaI/netI    0.0709
_diffrn_reflns_limit_h_max       8
_diffrn_reflns_limit_h_min       -8
_diffrn_reflns_limit_k_max       5
_diffrn_reflns_limit_k_min       -5
_diffrn_reflns_limit_l_max       13
_diffrn_reflns_limit_l_min       -12
_diffrn_reflns_number            2416
_diffrn_reflns_theta_full        30.96
_diffrn_reflns_theta_max         30.96
_diffrn_reflns_theta_min         4.04
_exptl_absorpt_coefficient_mu    0.138
_exptl_absorpt_correction_T_max  0.993
_exptl_absorpt_correction_T_min  0.992
_exptl_absorpt_correction_type   numerical
_exptl_absorpt_process_details
;
Absorb6.1 (R. J. Angel, 2006)
;
_exptl_crystal_colour            colorless
_exptl_crystal_density_diffrn    1.651
_exptl_crystal_density_method    'not measured'
_exptl_crystal_description       plate
_exptl_crystal_F_000             192
_exptl_crystal_size_max          0.2
_exptl_crystal_size_mid          0.11
_exptl_crystal_size_min          0.05
_refine_diff_density_max         0.159
_refine_diff_density_min         -0.131
_refine_ls_extinction_method     none
_refine_ls_goodness_of_fit_ref   0.887
_refine_ls_hydrogen_treatment    constr
_refine_ls_matrix_type           full
_refine_ls_number_parameters     57
_refine_ls_number_reflns         492
_refine_ls_number_restraints     0
_refine_ls_restrained_S_all      0.887
_refine_ls_R_factor_all          0.0573
_refine_ls_R_factor_gt           0.0342
_refine_ls_shift/su_max          0.000
_refine_ls_shift/su_mean         0.000
_refine_ls_structure_factor_coef Fsqd
_refine_ls_weighting_details
'calc w=1/[\s^2^(Fo^2^)+(0.0319P)^2^+0.0000P] where P=(Fo^2^+2Fc^2^)/3'
_refine_ls_weighting_scheme      calc
_refine_ls_wR_factor_gt          0.0597
_refine_ls_wR_factor_ref         0.0634
_reflns_number_gt                335
_reflns_number_total             492
_reflns_threshold_expression     >2sigma(I)
_cod_data_source_file            gp5038.cif
_cod_data_source_block           4.7GPa
_cod_original_cell_volume        358.38(16)
_cod_database_code               2104789
_cod_database_fobs_code          2104789
loop_
_symmetry_equiv_pos_as_xyz
'x, y, z'
'-x+1/2, -y, z+1/2'
'x+1/2, -y+1/2, -z'
'-x, y+1/2, -z+1/2'
loop_
_atom_site_type_symbol
_atom_site_label
_atom_site_fract_x
_atom_site_fract_y
_atom_site_fract_z
_atom_site_U_iso_or_equiv
_atom_site_adp_type
_atom_site_calc_flag
_atom_site_refinement_flags
_atom_site_occupancy
_atom_site_disorder_assembly
_atom_site_disorder_group
C C2 0.2126(3) 0.5481(6) 0.1609(3) 0.0168(7) Uani d . 1 . .
H H21 0.2342 0.5940 0.2410 0.020 Uiso calc R 1 . .
C C1 -0.0436(4) 0.4600(6) 0.1454(3) 0.0174(7) Uani d . 1 . .
C C3 0.2677(4) 0.7651(7) 0.0893(3) 0.0254(8) Uani d . 1 . .
H H31 0.4258 0.8230 0.1068 0.031 Uiso calc R 1 . .
H H33 0.1533 0.8918 0.1047 0.031 Uiso calc R 1 . .
H H32 0.2596 0.7207 0.0101 0.031 Uiso calc R 1 . .
O O2 -0.0782(2) 0.2686(4) 0.08903(18) 0.0250(6) Uani d . 1 . .
O O1 -0.2055(2) 0.5943(4) 0.18521(18) 0.0245(6) Uani d . 1 . .
N N1 0.3797(3) 0.3505(4) 0.1349(2) 0.0211(7) Uani d . 1 . .
H H13 0.3678 0.3111 0.0615 0.025 Uiso calc R 1 . .
H H11 0.3446 0.2209 0.1776 0.025 Uiso calc R 1 . .
H H12 0.5284 0.3993 0.1499 0.025 Uiso calc R 1 . .
loop_
_atom_site_aniso_label
_atom_site_aniso_U_11
_atom_site_aniso_U_22
_atom_site_aniso_U_33
_atom_site_aniso_U_12
_atom_site_aniso_U_13
_atom_site_aniso_U_23
C2 0.0154(10) 0.021(3) 0.014(3) -0.0022(12) -0.0004(11) -0.0028(11)
C1 0.0199(11) 0.030(3) 0.003(3) -0.0008(12) -0.0018(11) 0.0020(11)
C3 0.0199(10) 0.019(3) 0.037(3) -0.0019(14) 0.0004(14) 0.0014(15)
O2 0.0203(8) 0.033(2) 0.022(2) -0.0006(10) -0.0045(9) -0.0039(10)
O1 0.0158(7) 0.038(2) 0.0196(19) 0.0023(9) 0.0023(8) -0.0040(10)
N1 0.0144(8) 0.027(3) 0.022(2) -0.0008(10) 0.0016(10) 0.0003(9)
loop_
_atom_type_symbol
_atom_type_description
_atom_type_scat_dispersion_real
_atom_type_scat_dispersion_imag
_atom_type_scat_source
C C 0.0033 0.0016 'International Tables Vol C Tables 4.2.6.8 and 6.1.1.4'
H H 0.0000 0.0000 'International Tables Vol C Tables 4.2.6.8 and 6.1.1.4'
N N 0.0061 0.0033 'International Tables Vol C Tables 4.2.6.8 and 6.1.1.4'
O O 0.0106 0.0060 'International Tables Vol C Tables 4.2.6.8 and 6.1.1.4'
loop_
_geom_angle_atom_site_label_1
_geom_angle_atom_site_label_2
_geom_angle_atom_site_label_3
_geom_angle_site_symmetry_1
_geom_angle_site_symmetry_3
_geom_angle
_geom_angle_publ_flag
N1 C2 C3 . . 110.0(2) ?
N1 C2 C1 . . 110.0(2) ?
C3 C2 C1 . . 112.4(3) ?
N1 C2 H21 . . 108.1 ?
C3 C2 H21 . . 108.1 ?
C1 C2 H21 . . 108.1 ?
O2 C1 O1 . . 125.1(2) ?
O2 C1 C2 . . 118.2(2) ?
O1 C1 C2 . . 116.6(2) ?
C2 C3 H31 . . 109.5 ?
C2 C3 H33 . . 109.5 ?
H31 C3 H33 . . 109.5 ?
C2 C3 H32 . . 109.5 ?
H31 C3 H32 . . 109.5 ?
H33 C3 H32 . . 109.5 ?
C2 N1 H13 . . 109.5 ?
C2 N1 H11 . . 109.5 ?
H13 N1 H11 . . 109.5 ?
C2 N1 H12 . . 109.5 ?
H13 N1 H12 . . 109.5 ?
H11 N1 H12 . . 109.5 ?
loop_
_geom_bond_atom_site_label_1
_geom_bond_atom_site_label_2
_geom_bond_site_symmetry_2
_geom_bond_distance
_geom_bond_publ_flag
C2 N1 . 1.460(4) ?
C2 C3 . 1.487(4) ?
C2 C1 . 1.521(3) ?
C2 H21 . 0.9800 ?
C1 O2 . 1.254(3) ?
C1 O1 . 1.255(3) ?
C3 H31 . 0.9600 ?
C3 H33 . 0.9600 ?
C3 H32 . 0.9600 ?
N1 H13 . 0.8900 ?
N1 H11 . 0.8900 ?
N1 H12 . 0.8900 ?
loop_
_geom_hbond_atom_site_label_D
_geom_hbond_atom_site_label_H
_geom_hbond_atom_site_label_A
_geom_hbond_site_symmetry_A
_geom_hbond_distance_DH
_geom_hbond_distance_HA
_geom_hbond_distance_DA
_geom_hbond_angle_DHA
N1 H11 O1 4_545 0.89 1.92 2.713(3) 148.1
N1 H12 O1 1_655 0.89 1.88 2.738(2) 162.4
N1 H13 O2 3 0.89 1.84 2.715(3) 166.3
C2 H21 O2 4 0.98 2.38 3.258(4) 149.6
loop_
_geom_torsion_atom_site_label_1
_geom_torsion_atom_site_label_2
_geom_torsion_atom_site_label_3
_geom_torsion_atom_site_label_4
_geom_torsion_site_symmetry_1
_geom_torsion_site_symmetry_2
_geom_torsion_site_symmetry_3
_geom_torsion_site_symmetry_4
_geom_torsion
_geom_torsion_publ_flag
N1 C2 C1 O2 . . . . -17.1(5) ?
C3 C2 C1 O2 . . . . 105.8(4) ?
N1 C2 C1 O1 . . . . 166.9(3) ?
C3 C2 C1 O1 . . . . -70.2(5) ?
loop_
_cod_related_entry_id
_cod_related_entry_database
_cod_related_entry_code
1 ChemSpider 5735
