#------------------------------------------------------------------------------
#$Date: 2017-10-13 08:28:26 +0300 (Fri, 13 Oct 2017) $
#$Revision: 201972 $
#$URL: file:///home/coder/svn-repositories/cod/cif/2/10/50/2105095.cif $
#------------------------------------------------------------------------------
#
# This file is available in the Crystallography Open Database (COD),
# http://www.crystallography.net/. The original data for this entry
# were provided by IUCr Journals, http://journals.iucr.org/.
#
# The file may be used within the scientific community so long as
# proper attribution is given to the journal article from which the
# data were obtained.
#
data_2105095
loop_
_publ_author_name
'Zakharov, Boris A.'
'Kolesov, Boris A.'
'Boldyreva, Elena V.'
_publ_section_title
;
 Effect of pressure on crystalline <small>L</small>- and
 <small>DL</small>-serine: revisited by a combined single-crystal X-ray
 diffraction at a laboratory source and polarized Raman spectroscopy study
;
_journal_coeditor_code           GP5049
_journal_issue                   3
_journal_name_full               'Acta Crystallographica Section B'
_journal_page_first              275
_journal_page_last               286
_journal_paper_doi               10.1107/S0108768112015960
_journal_volume                  68
_journal_year                    2012
_chemical_formula_moiety         'C3 H7 N O3'
_chemical_formula_sum            'C3 H7 N O3'
_chemical_formula_weight         105.10
_chemical_melting_point          501
_chemical_name_common            DL-serine
_chemical_name_systematic
;
2-amino-3-hydroxypropanoic acid
;
_space_group_IT_number           14
_symmetry_cell_setting           monoclinic
_symmetry_space_group_name_Hall  '-P 2yn'
_symmetry_space_group_name_H-M   'P 1 21/n 1'
_atom_sites_solution_hydrogens   geom
_atom_sites_solution_primary     direct
_atom_sites_solution_secondary   difmap
_audit_creation_method           SHELXL-97
_cell_angle_alpha                90.00
_cell_angle_beta                 101.33(5)
_cell_angle_gamma                90.00
_cell_formula_units_Z            4
_cell_length_a                   4.8307(12)
_cell_length_b                   8.956(2)
_cell_length_c                   10.175(10)
_cell_measurement_reflns_used    906
_cell_measurement_temperature    293(2)
_cell_measurement_theta_max      30.5591
_cell_measurement_theta_min      3.0504
_cell_volume                     431.6(5)
_computing_cell_refinement
;
CrysAlisPro, Oxford Diffraction Ltd.,
Version 1.171.34.44 (release 25-10-2010 CrysAlis171 .NET)
(compiled Oct 25 2010,18:11:34)
;
_computing_data_collection
;
CrysAlisPro, Oxford Diffraction Ltd.,
Version 1.171.34.44 (release 25-10-2010 CrysAlis171 .NET)
(compiled Oct 25 2010,18:11:34)
;
_computing_data_reduction
;
CrysAlisPro, Oxford Diffraction Ltd.,
Version 1.171.34.44 (release 25-10-2010 CrysAlis171 .NET)
(compiled Oct 25 2010,18:11:34)
;
_computing_molecular_graphics    'Mercury (Macrae <i>et al.</i>, 2006)'
_computing_publication_material
;
Mercury (Macrae et al., 2006),
PLATON (Spek, 2009),
enCIFer (Allen et al., 2004)
;
_computing_structure_refinement  'SHELXL-97 (Sheldrick, 2008)'
_computing_structure_solution    'SHELXS-97 (Sheldrick, 2008)'
_diffrn_ambient_temperature      293(2)
_diffrn_detector_area_resol_mean 10.3457
_diffrn_measured_fraction_theta_full 0.328
_diffrn_measured_fraction_theta_max 0.328
_diffrn_measurement_device_type  'Xcalibur, Ruby, Gemini ultra'
_diffrn_measurement_method       'rotation method'
_diffrn_radiation_monochromator  graphite
_diffrn_radiation_source         'Enhance (Mo) X-ray Source'
_diffrn_radiation_type           MoK\a
_diffrn_radiation_wavelength     0.71073
_diffrn_reflns_av_R_equivalents  0.0778
_diffrn_reflns_av_sigmaI/netI    0.0612
_diffrn_reflns_limit_h_max       6
_diffrn_reflns_limit_h_min       -6
_diffrn_reflns_limit_k_max       12
_diffrn_reflns_limit_k_min       -11
_diffrn_reflns_limit_l_max       8
_diffrn_reflns_limit_l_min       -7
_diffrn_reflns_number            1715
_diffrn_reflns_theta_full        30.63
_diffrn_reflns_theta_max         30.63
_diffrn_reflns_theta_min         3.06
_exptl_absorpt_coefficient_mu    0.145
_exptl_absorpt_correction_T_max  0.473
_exptl_absorpt_correction_T_min  0.400
_exptl_absorpt_correction_type   gaussian
_exptl_absorpt_process_details
;
Absorb Angel (2004) J. Appl. Cryst. 37:486-492
;
_exptl_crystal_colour            colourless
_exptl_crystal_density_diffrn    1.617
_exptl_crystal_density_method    'not measured'
_exptl_crystal_description       prism
_exptl_crystal_F_000             224
_exptl_crystal_size_max          0.25
_exptl_crystal_size_mid          0.15
_exptl_crystal_size_min          0.07
_refine_diff_density_max         0.129
_refine_diff_density_min         -0.088
_refine_ls_extinction_method     none
_refine_ls_goodness_of_fit_ref   0.887
_refine_ls_hydrogen_treatment    constr
_refine_ls_matrix_type           full
_refine_ls_number_parameters     66
_refine_ls_number_reflns         438
_refine_ls_number_restraints     55
_refine_ls_restrained_S_all      0.832
_refine_ls_R_factor_all          0.0608
_refine_ls_R_factor_gt           0.0286
_refine_ls_shift/su_max          0.000
_refine_ls_shift/su_mean         0.000
_refine_ls_structure_factor_coef Fsqd
_refine_ls_weighting_details
'calc w=1/[\s^2^(Fo^2^)+(0.0209P)^2^+0.0000P] where P=(Fo^2^+2Fc^2^)/3'
_refine_ls_weighting_scheme      calc
_refine_ls_wR_factor_gt          0.0437
_refine_ls_wR_factor_ref         0.0468
_reflns_number_gt                277
_reflns_number_total             438
_reflns_threshold_expression     >2sigma(I)
_iucr_refine_instructions_details
;
TITL
CELL  0.71073  4.83067  8.95593 10.17472 90.00000 101.33080 90.00000
ZERR 4  0.00118  0.00224  0.00974  0.00000  0.05340  0.00000
LATT 1
SYMM -X+ 0.50000, Y+ 0.50000, -Z+ 0.50000
SFAC C H N O
UNIT 12 28 4 12
PLAN 30
FMAP 2
L.S. 20
EQIV $1 1/2+X,1/2-Y,1/2+Z
EQIV $2 1/2-X,-1/2+Y,1/2-Z
EQIV $3 3/2-X,-1/2+Y,1/2-Z
HTAB N1 O2_$1
HTAB N1 O3_$2
HTAB N1 O3_$3
HTAB O2 O1_$2
BOND $H
BOND
DELU
SIMU
ISOR 0.01 C1
CONF
ACTA
WGHT    0.020900
FVAR       0.37656
O1    4    0.261235    0.386724    0.331259    11.00000    0.02936    0.02678 =
         0.03228    0.00048    0.01359    0.00486
O2    4    0.313471    0.150190    0.061042    11.00000    0.03825    0.02415 =
         0.02478    0.00302   -0.00506   -0.00715
AFIX 147
H2    2    0.290706    0.062117    0.078228    11.00000   -1.20000
AFIX   0
N1    3    0.604282    0.157612    0.355538    11.00000    0.02738    0.02142 =
         0.02950   -0.00047    0.00832    0.00317
AFIX 137
H1A   2    0.436786    0.112689    0.337087    11.00000   -1.20000
H1B   2    0.622091    0.206156    0.433073    11.00000   -1.20000
H1C   2    0.740366    0.089522    0.361447    11.00000   -1.20000
AFIX   0
O3    4    0.407105    0.489602    0.157400    11.00000    0.02947    0.02617 =
         0.03937    0.00967    0.00872    0.00095
C1    1    0.627171    0.266095    0.246174    11.00000    0.01801    0.02254 =
         0.02465    0.00145    0.00683    0.00204
AFIX  13
H1    2    0.815915    0.310753    0.267211    11.00000   -1.20000
AFIX   0
C2    1    0.413252    0.390585    0.246409    11.00000    0.01760    0.01853 =
         0.03020   -0.00274    0.00179   -0.00523
C3    1    0.596156    0.191641    0.112857    11.00000    0.02565    0.02913 =
         0.01768    0.00014    0.00348    0.00110
AFIX  23
H3A   2    0.660457    0.258982    0.050450    11.00000   -1.20000
H3B   2    0.714619    0.103333    0.121553    11.00000   -1.20000
HKLF 4
REM
REM R1 =  0.0286 for    277 Fo > 4sig(Fo)  and  0.0608 for all    438 data
REM     66 parameters refined using     55 restraints
END
WGHT      0.0230      0.0000
REM Highest difference peak  0.129,  deepest hole -0.088,  1-sigma level  0.026
Q1    1   0.5299  0.3250  0.2486  11.00000  0.05    0.13
Q2    1   0.5617  0.3042  0.0470  11.00000  0.05    0.11
Q3    1   0.5677  0.0461  0.1197  11.00000  0.05    0.09
Q4    1   0.7155  0.4046  0.3392  11.00000  0.05    0.09
Q5    1   0.8694  0.1036  0.3601  11.00000  0.05    0.09
Q6    1   1.0611  0.2926  0.3409  11.00000  0.05    0.09
Q7    1   0.1856  0.2132  0.0652  11.00000  0.05    0.08
Q8    1   0.4056  0.0620  0.4370  11.00000  0.05    0.07
Q9    1   0.2453  0.1633  0.2984  11.00000  0.05    0.07
Q10   1   0.7926  0.0438  0.2638  11.00000  0.05    0.07
Q11   1   0.3508 -0.0324  0.0263  11.00000  0.05    0.07
Q12   1   1.0488  0.3435  0.2569  11.00000  0.05    0.07
Q13   1   0.2192  0.1217  0.3985  11.00000  0.05    0.07
Q14   1   0.5230  0.3801  0.4538  11.00000  0.05    0.07
Q15   1   0.8591  0.2019  0.4290  11.00000  0.05    0.07
Q16   1   0.1317  0.4796  0.0209  11.00000  0.05    0.06
Q17   1   0.3654  0.0247  0.3685  11.00000  0.05    0.06
Q18   1   0.7353 -0.0486  0.4652  11.00000  0.05    0.06
Q19   1   0.8998  0.3006  0.0134  11.00000  0.05    0.06
Q20   1   0.8728  0.0316  0.1225  11.00000  0.05    0.06
Q21   1   0.3502  0.3449  0.0722  11.00000  0.05    0.06
Q22   1   0.3858  0.0233 -0.0320  11.00000  0.05    0.06
Q23   1   0.8906  0.1917  0.2500  11.00000  0.05    0.06
Q24   1   0.7175  0.1910  0.0320  11.00000  0.05    0.06
Q25   1   0.0300  0.4165  0.3622  11.00000  0.05    0.06
Q26   1   0.6725  0.1130  0.3576  11.00000  0.05    0.06
Q27   1   0.4309  0.2005  0.0444  11.00000  0.05    0.06
Q28   1   0.4169  0.1815  0.4840  11.00000  0.05    0.06
Q29   1   0.5391  0.2152  0.2381  11.00000  0.05    0.06
Q30   1   0.2228  0.2170  0.3810  11.00000  0.05    0.06
;
_cod_data_source_file            gp5049.cif
_cod_data_source_block           DL-serine0.6GPa
_cod_depositor_comments
;
The following automatic conversions were performed:

'_exptl_absorpt_correction_type' value 'Gaussian' changed to
'gaussian' according to
/home/saulius/struct/CIF-dictionaries/cif_core.dic dictionary named
'cif_core.dic' version 2.4.1 from 2010-06-29.

Automatic conversion script
Id: cif_fix_values 1891 2012-01-12 08:04:46Z andrius 
;
_cod_original_cell_volume        431.6(4)
_cod_original_sg_symbol_H-M      P21/n
_cod_database_code               2105095
_cod_database_fobs_code          2105095
loop_
_symmetry_equiv_pos_as_xyz
'x, y, z'
'-x+1/2, y+1/2, -z+1/2'
'-x, -y, -z'
'x-1/2, -y-1/2, z-1/2'
loop_
_atom_site_type_symbol
_atom_site_label
_atom_site_fract_x
_atom_site_fract_y
_atom_site_fract_z
_atom_site_U_iso_or_equiv
_atom_site_adp_type
_atom_site_calc_flag
_atom_site_refinement_flags
_atom_site_occupancy
_atom_site_symmetry_multiplicity
O O1 0.2612(2) 0.38672(10) 0.33126(19) 0.0284(7) Uani d U 1 1
O O2 0.3135(3) 0.15019(11) 0.06104(18) 0.0306(8) Uani d U 1 1
H H2 0.2907 0.0621 0.0782 0.037 Uiso calc R 1 1
N N1 0.6043(3) 0.15761(13) 0.3555(2) 0.0257(9) Uani d U 1 1
H H1A 0.4368 0.1127 0.3371 0.031 Uiso calc R 1 1
H H1B 0.6221 0.2062 0.4331 0.031 Uiso calc R 1 1
H H1C 0.7404 0.0895 0.3614 0.031 Uiso calc R 1 1
O O3 0.4071(2) 0.48960(11) 0.15740(19) 0.0314(7) Uani d U 1 1
C C1 0.6272(4) 0.26609(17) 0.2462(3) 0.0214(10) Uani d U 1 1
H H1 0.8159 0.3108 0.2672 0.026 Uiso calc R 1 1
C C2 0.4133(4) 0.39058(17) 0.2464(3) 0.0225(10) Uani d U 1 1
C C3 0.5962(4) 0.19164(19) 0.1129(3) 0.0243(11) Uani d U 1 1
H H3A 0.6605 0.2590 0.0504 0.029 Uiso calc R 1 1
H H3B 0.7146 0.1033 0.1216 0.029 Uiso calc R 1 1
loop_
_atom_site_aniso_label
_atom_site_aniso_U_11
_atom_site_aniso_U_22
_atom_site_aniso_U_33
_atom_site_aniso_U_12
_atom_site_aniso_U_13
_atom_site_aniso_U_23
O1 0.0294(7) 0.0268(6) 0.032(2) 0.0049(6) 0.0136(11) 0.0005(6)
O2 0.0382(8) 0.0241(8) 0.025(3) -0.0071(6) -0.0051(12) 0.0030(6)
N1 0.0274(9) 0.0214(7) 0.030(3) 0.0032(7) 0.0083(14) -0.0005(8)
O3 0.0295(8) 0.0262(7) 0.039(2) 0.0009(6) 0.0087(11) 0.0097(8)
C1 0.0180(10) 0.0225(10) 0.025(4) 0.0020(8) 0.0068(15) 0.0015(10)
C2 0.0176(9) 0.0185(9) 0.030(4) -0.0052(8) 0.0018(15) -0.0027(10)
C3 0.0256(10) 0.0291(10) 0.018(4) 0.0011(8) 0.0035(16) 0.0001(10)
loop_
_atom_type_symbol
_atom_type_description
_atom_type_scat_dispersion_real
_atom_type_scat_dispersion_imag
_atom_type_scat_source
C C 0.0033 0.0016 'International Tables Vol C Tables 4.2.6.8 and 6.1.1.4'
H H 0.0000 0.0000 'International Tables Vol C Tables 4.2.6.8 and 6.1.1.4'
N N 0.0061 0.0033 'International Tables Vol C Tables 4.2.6.8 and 6.1.1.4'
O O 0.0106 0.0060 'International Tables Vol C Tables 4.2.6.8 and 6.1.1.4'
loop_
_geom_angle_atom_site_label_1
_geom_angle_atom_site_label_2
_geom_angle_atom_site_label_3
_geom_angle
C3 O2 H2 109.5
C1 N1 H1A 109.5
C1 N1 H1B 109.5
H1A N1 H1B 109.5
C1 N1 H1C 109.5
H1A N1 H1C 109.5
H1B N1 H1C 109.5
C3 C1 N1 112.12(16)
C3 C1 C2 112.5(3)
N1 C1 C2 108.97(18)
C3 C1 H1 107.7
N1 C1 H1 107.7
C2 C1 H1 107.7
O1 C2 O3 125.82(16)
O1 C2 C1 118.47(19)
O3 C2 C1 115.70(19)
O2 C3 C1 111.93(17)
O2 C3 H3A 109.2
C1 C3 H3A 109.2
O2 C3 H3B 109.2
C1 C3 H3B 109.2
H3A C3 H3B 107.9
loop_
_geom_bond_atom_site_label_1
_geom_bond_atom_site_label_2
_geom_bond_distance
O1 C2 1.239(3)
O2 C3 1.413(3)
O2 H2 0.8200
N1 C1 1.498(4)
N1 H1A 0.8900
N1 H1B 0.8900
N1 H1C 0.8900
O3 C2 1.264(3)
C1 C3 1.492(5)
C1 C2 1.520(2)
C1 H1 0.9800
C3 H3A 0.9700
C3 H3B 0.9700
loop_
_geom_hbond_atom_site_label_D
_geom_hbond_atom_site_label_H
_geom_hbond_atom_site_label_A
_geom_hbond_site_symmetry_A
_geom_hbond_distance_DH
_geom_hbond_distance_HA
_geom_hbond_distance_DA
_geom_hbond_angle_DHA
N1 H1B O2 4_666 0.89 1.93 2.743(3) 150.8
N1 H1A O3 2_545 0.89 2.00 2.8734(17) 165.3
N1 H1C O3 2_645 0.89 1.97 2.8239(16) 161.4
O2 H2 O1 2_545 0.82 1.86 2.6560(16) 162.4
loop_
_geom_torsion_atom_site_label_1
_geom_torsion_atom_site_label_2
_geom_torsion_atom_site_label_3
_geom_torsion_atom_site_label_4
_geom_torsion
C3 C1 C2 O1 125.5(2)
N1 C1 C2 O1 0.5(3)
C3 C1 C2 O3 -54.2(3)
N1 C1 C2 O3 -179.1(2)
N1 C1 C3 O2 73.7(3)
C2 C1 C3 O2 -49.5(2)
loop_
_cod_related_entry_id
_cod_related_entry_database
_cod_related_entry_code
1 ChemSpider 597
