#------------------------------------------------------------------------------
#$Date: 2017-10-13 08:28:26 +0300 (Fri, 13 Oct 2017) $
#$Revision: 201972 $
#$URL: file:///home/coder/svn-repositories/cod/cif/2/10/50/2105094.cif $
#------------------------------------------------------------------------------
#
# This file is available in the Crystallography Open Database (COD),
# http://www.crystallography.net/. The original data for this entry
# were provided by IUCr Journals, http://journals.iucr.org/.
#
# The file may be used within the scientific community so long as
# proper attribution is given to the journal article from which the
# data were obtained.
#
data_2105094
loop_
_publ_author_name
'Zakharov, Boris A.'
'Kolesov, Boris A.'
'Boldyreva, Elena V.'
_publ_section_title
;
 Effect of pressure on crystalline <small>L</small>- and
 <small>DL</small>-serine: revisited by a combined single-crystal X-ray
 diffraction at a laboratory source and polarized Raman spectroscopy study
;
_journal_coeditor_code           GP5049
_journal_issue                   3
_journal_name_full               'Acta Crystallographica Section B'
_journal_page_first              275
_journal_page_last               286
_journal_paper_doi               10.1107/S0108768112015960
_journal_volume                  68
_journal_year                    2012
_chemical_formula_moiety         'C3 H7 N O3'
_chemical_formula_sum            'C3 H7 N O3'
_chemical_formula_weight         105.10
_chemical_melting_point          501
_chemical_name_common            DL-serine
_chemical_name_systematic
;
2-amino-3-hydroxypropanoic acid
;
_space_group_IT_number           14
_symmetry_cell_setting           monoclinic
_symmetry_space_group_name_Hall  '-P 2yn'
_symmetry_space_group_name_H-M   'P 1 21/n 1'
_atom_sites_solution_hydrogens   geom
_atom_sites_solution_primary     direct
_atom_sites_solution_secondary   difmap
_audit_creation_method           SHELXL-97
_cell_angle_alpha                90.00
_cell_angle_beta                 101.03(4)
_cell_angle_gamma                90.00
_cell_formula_units_Z            4
_cell_length_a                   4.8424(6)
_cell_length_b                   8.9832(6)
_cell_length_c                   10.250(11)
_cell_measurement_reflns_used    1785
_cell_measurement_temperature    293(2)
_cell_measurement_theta_max      30.9949
_cell_measurement_theta_min      4.2793
_cell_volume                     437.6(5)
_computing_cell_refinement
;
CrysAlisPro, Oxford Diffraction Ltd.,
Version 1.171.34.44 (release 25-10-2010 CrysAlis171 .NET)
(compiled Oct 25 2010,18:11:34)
;
_computing_data_collection
;
CrysAlisPro, Oxford Diffraction Ltd.,
Version 1.171.34.44 (release 25-10-2010 CrysAlis171 .NET)
(compiled Oct 25 2010,18:11:34)
;
_computing_data_reduction
;
CrysAlisPro, Oxford Diffraction Ltd.,
Version 1.171.34.44 (release 25-10-2010 CrysAlis171 .NET)
(compiled Oct 25 2010,18:11:34)
;
_computing_molecular_graphics    'Mercury (Macrae <i>et al.</i>, 2006)'
_computing_publication_material
;
Mercury (Macrae et al., 2006),
PLATON (Spek, 2009),
enCIFer (Allen et al., 2004)
;
_computing_structure_refinement  'SHELXL-97 (Sheldrick, 2008)'
_computing_structure_solution    'SHELXS-97 (Sheldrick, 2008)'
_diffrn_ambient_temperature      293(2)
_diffrn_measured_fraction_theta_full 0.268
_diffrn_measured_fraction_theta_max 0.268
_diffrn_measurement_device_type  'Xcalibur, Ruby, Gemini ultra'
_diffrn_measurement_method       'rotation method'
_diffrn_radiation_monochromator  graphite
_diffrn_radiation_source         'Enhance (Mo) X-ray Source'
_diffrn_radiation_type           MoK\a
_diffrn_radiation_wavelength     0.71073
_diffrn_reflns_av_R_equivalents  0.0495
_diffrn_reflns_av_sigmaI/netI    0.0256
_diffrn_reflns_limit_h_max       7
_diffrn_reflns_limit_h_min       -7
_diffrn_reflns_limit_k_max       13
_diffrn_reflns_limit_k_min       -13
_diffrn_reflns_limit_l_max       5
_diffrn_reflns_limit_l_min       -5
_diffrn_reflns_number            3587
_diffrn_reflns_theta_full        31.06
_diffrn_reflns_theta_max         31.06
_diffrn_reflns_theta_min         4.38
_exptl_absorpt_coefficient_mu    0.143
_exptl_absorpt_correction_T_max  0.473
_exptl_absorpt_correction_T_min  0.399
_exptl_absorpt_correction_type   gaussian
_exptl_absorpt_process_details
;
Absorb Angel (2004) J. Appl. Cryst. 37:486-492
;
_exptl_crystal_colour            colourless
_exptl_crystal_density_diffrn    1.595
_exptl_crystal_density_method    'not measured'
_exptl_crystal_description       prism
_exptl_crystal_F_000             224
_exptl_crystal_size_max          0.25
_exptl_crystal_size_mid          0.15
_exptl_crystal_size_min          0.07
_refine_diff_density_max         0.119
_refine_diff_density_min         -0.108
_refine_ls_extinction_method     none
_refine_ls_goodness_of_fit_ref   1.068
_refine_ls_hydrogen_treatment    constr
_refine_ls_matrix_type           full
_refine_ls_number_parameters     66
_refine_ls_number_reflns         372
_refine_ls_number_restraints     55
_refine_ls_restrained_S_all      1.003
_refine_ls_R_factor_all          0.0447
_refine_ls_R_factor_gt           0.0314
_refine_ls_shift/su_max          0.000
_refine_ls_shift/su_mean         0.000
_refine_ls_structure_factor_coef Fsqd
_refine_ls_weighting_details
'calc w=1/[\s^2^(Fo^2^)+(0.0434P)^2^+0.0295P] where P=(Fo^2^+2Fc^2^)/3'
_refine_ls_weighting_scheme      calc
_refine_ls_wR_factor_gt          0.0693
_refine_ls_wR_factor_ref         0.0743
_reflns_number_gt                313
_reflns_number_total             372
_reflns_threshold_expression     >2sigma(I)
_iucr_refine_instructions_details
;
TITL
CELL  0.71073  4.84242  8.98325 10.25009 90.00000 101.03470 90.00000
ZERR 4  0.00059  0.00057  0.01148  0.00000  0.04240  0.00000
LATT 1
SYMM -X+ 0.50000, Y+ 0.50000, -Z+ 0.50000
SFAC C H N O
UNIT 12 28 4 12
PLAN 30
FMAP 2
L.S. 20
EQIV $1 1/2+X,1/2-Y,1/2+Z
EQIV $2 1/2-X,-1/2+Y,1/2-Z
EQIV $3 3/2-X,-1/2+Y,1/2-Z
HTAB N1 O2_$1
HTAB N1 O3_$2
HTAB N1 O3_$3
HTAB O2 O1_$2
BOND $H
BOND
CONF
DELU
SIMU
ISOR 0.01 C1
ACTA
WGHT    0.043400    0.029500
FVAR       6.89771
O1    4    0.261819    0.388588    0.331203    11.00000    0.02667    0.02582 =
         0.07357   -0.00159    0.01891    0.00234
O2    4    0.311022    0.151976    0.062319    11.00000    0.03785    0.02607 =
         0.04242    0.00514   -0.00291   -0.00689
AFIX 147
H2    2    0.281549    0.069274    0.090632    11.00000   -1.20000
AFIX   0
N1    3    0.601847    0.158834    0.355144    11.00000    0.02402    0.02127 =
         0.04630   -0.00465    0.01200    0.00244
AFIX 137
H1A   2    0.434163    0.114840    0.337352    11.00000   -1.20000
H1B   2    0.620352    0.207617    0.431902    11.00000   -1.20000
H1C   2    0.736291    0.090257    0.360929    11.00000   -1.20000
AFIX   0
O3    4    0.408636    0.491230    0.158663    11.00000    0.03027    0.02409 =
         0.07744    0.00701    0.01750    0.00156
C1    1    0.626775    0.266750    0.245603    11.00000    0.01979    0.01957 =
         0.05790   -0.00376    0.01335   -0.00164
AFIX  13
H1    2    0.815249    0.310828    0.265957    11.00000   -1.20000
AFIX   0
C2    1    0.411488    0.392856    0.245632    11.00000    0.01772    0.01683 =
         0.04461   -0.00238    0.00413   -0.00265
C3    1    0.593214    0.193888    0.112589    11.00000    0.02472    0.02815 =
         0.04955   -0.00621    0.00684    0.00162
AFIX  23
H3A   2    0.655422    0.261941    0.050640    11.00000   -1.20000
H3B   2    0.711986    0.106177    0.119682    11.00000   -1.20000
HKLF 4
REM
REM R1 =  0.0314 for    313 Fo > 4sig(Fo)  and  0.0447 for all    372 data
REM     66 parameters refined using     55 restraints
END
WGHT      0.0434      0.0295
REM Highest difference peak  0.119,  deepest hole -0.108,  1-sigma level  0.026
Q1    1   0.5279  0.3337  0.2697  11.00000  0.05    0.12
Q2    1   0.5070  0.3137  0.4632  11.00000  0.05    0.10
Q3    1   0.1701  0.1335  0.1623  11.00000  0.05    0.09
Q4    1   0.3485  0.0618  0.3597  11.00000  0.05    0.09
Q5    1   0.8228  0.1209  0.2169  11.00000  0.05    0.07
Q6    1   0.9756  0.4462  0.2139  11.00000  0.05    0.07
Q7    1   0.2094  0.4951  0.1663  11.00000  0.05    0.07
Q8    1   0.0031  0.1462  0.0398  11.00000  0.05    0.07
Q9    1   0.8294  0.0838  0.3331  11.00000  0.05    0.07
Q10   1   0.5030  0.5639  0.1318  11.00000  0.05    0.07
Q11   1   0.4921  0.0537  0.4892  11.00000  0.05    0.06
Q12   1   0.8852  0.2238  0.3800  11.00000  0.05    0.06
Q13   1   0.6820  0.0294  0.1232  11.00000  0.05    0.06
Q14   1   0.5053  0.1216  0.5546  11.00000  0.05    0.06
Q15   1   1.0021  0.3367  0.2323  11.00000  0.05    0.06
Q16   1   0.7001  0.2626  0.4216  11.00000  0.05    0.06
Q17   1   0.1644  0.4831  0.3144  11.00000  0.05    0.06
Q18   1   0.1840  0.3201  0.2448  11.00000  0.05    0.06
Q19   1   0.8685  0.2250  0.3453  11.00000  0.05    0.06
Q20   1   0.1823  0.1953  0.0212  11.00000  0.05    0.06
Q21   1   0.6012  0.2553  0.1052  11.00000  0.05    0.06
Q22   1   0.8292  0.3758 -0.0143  11.00000  0.05    0.06
Q23   1   0.8193  0.0154  0.4932  11.00000  0.05    0.06
Q24   1   0.3277  0.1022  0.1033  11.00000  0.05    0.06
Q25   1   0.6731  0.1471  0.1648  11.00000  0.05    0.06
Q26   1   0.1812  0.3649  0.3987  11.00000  0.05    0.06
Q27   1   0.7107  0.2953  0.3074  11.00000  0.05    0.05
Q28   1   0.3418  0.3113  0.3674  11.00000  0.05    0.05
Q29   1   0.3348  0.4021  0.3185  11.00000  0.05    0.05
Q30   1   0.6867 -0.0005  0.3714  11.00000  0.05    0.05
;
_cod_data_source_file            gp5049.cif
_cod_data_source_block           DL-serine0.4GPa
_cod_depositor_comments
;
The following automatic conversions were performed:

'_exptl_absorpt_correction_type' value 'Gaussian' changed to
'gaussian' according to
/home/saulius/struct/CIF-dictionaries/cif_core.dic dictionary named
'cif_core.dic' version 2.4.1 from 2010-06-29.

Automatic conversion script
Id: cif_fix_values 1891 2012-01-12 08:04:46Z andrius 
;
_cod_original_sg_symbol_H-M      P21/n
_cod_database_code               2105094
_cod_database_fobs_code          2105094
loop_
_symmetry_equiv_pos_as_xyz
'x, y, z'
'-x+1/2, y+1/2, -z+1/2'
'-x, -y, -z'
'x-1/2, -y-1/2, z-1/2'
loop_
_atom_site_type_symbol
_atom_site_label
_atom_site_fract_x
_atom_site_fract_y
_atom_site_fract_z
_atom_site_U_iso_or_equiv
_atom_site_adp_type
_atom_site_calc_flag
_atom_site_refinement_flags
_atom_site_occupancy
_atom_site_symmetry_multiplicity
O O1 0.2618(3) 0.38859(12) 0.3312(4) 0.041(2) Uani d U 1 1
O O2 0.3110(3) 0.15198(13) 0.0623(4) 0.037(2) Uani d U 1 1
H H2 0.2815 0.0693 0.0906 0.044 Uiso calc R 1 1
N N1 0.6018(3) 0.15883(14) 0.3551(4) 0.030(3) Uani d U 1 1
H H1A 0.4342 0.1148 0.3374 0.036 Uiso calc R 1 1
H H1B 0.6204 0.2076 0.4319 0.036 Uiso calc R 1 1
H H1C 0.7363 0.0903 0.3609 0.036 Uiso calc R 1 1
O O3 0.4086(3) 0.49123(13) 0.1587(4) 0.043(3) Uani d U 1 1
C C1 0.6268(4) 0.26675(18) 0.2456(6) 0.032(2) Uani d U 1 1
H H1 0.8152 0.3108 0.2660 0.038 Uiso calc R 1 1
C C2 0.4115(3) 0.39286(16) 0.2456(5) 0.027(3) Uani d U 1 1
C C3 0.5932(4) 0.1939(2) 0.1126(8) 0.034(3) Uani d U 1 1
H H3A 0.6554 0.2619 0.0506 0.041 Uiso calc R 1 1
H H3B 0.7120 0.1062 0.1197 0.041 Uiso calc R 1 1
loop_
_atom_site_aniso_label
_atom_site_aniso_U_11
_atom_site_aniso_U_22
_atom_site_aniso_U_33
_atom_site_aniso_U_12
_atom_site_aniso_U_13
_atom_site_aniso_U_23
O1 0.0267(7) 0.0258(5) 0.074(7) 0.0023(5) 0.0189(19) -0.0016(11)
O2 0.0379(8) 0.0261(5) 0.042(8) -0.0069(5) -0.0029(18) 0.0051(12)
N1 0.0240(8) 0.0213(6) 0.046(8) 0.0024(5) 0.012(2) -0.0046(13)
O3 0.0303(7) 0.0241(6) 0.077(8) 0.0016(4) 0.017(2) 0.0070(11)
C1 0.0198(8) 0.0196(7) 0.058(7) -0.0016(5) 0.0133(19) -0.0038(16)
C2 0.0177(8) 0.0168(7) 0.045(9) -0.0026(5) 0.004(2) -0.0024(15)
C3 0.0247(10) 0.0281(8) 0.050(8) 0.0016(7) 0.007(2) -0.006(2)
loop_
_atom_type_symbol
_atom_type_description
_atom_type_scat_dispersion_real
_atom_type_scat_dispersion_imag
_atom_type_scat_source
C C 0.0033 0.0016 'International Tables Vol C Tables 4.2.6.8 and 6.1.1.4'
H H 0.0000 0.0000 'International Tables Vol C Tables 4.2.6.8 and 6.1.1.4'
N N 0.0061 0.0033 'International Tables Vol C Tables 4.2.6.8 and 6.1.1.4'
O O 0.0106 0.0060 'International Tables Vol C Tables 4.2.6.8 and 6.1.1.4'
loop_
_geom_angle_atom_site_label_1
_geom_angle_atom_site_label_2
_geom_angle_atom_site_label_3
_geom_angle
C3 O2 H2 109.5
C1 N1 H1A 109.5
C1 N1 H1B 109.5
H1A N1 H1B 109.5
C1 N1 H1C 109.5
H1A N1 H1C 109.5
H1B N1 H1C 109.5
C3 C1 N1 112.9(2)
C3 C1 C2 111.6(4)
N1 C1 C2 108.8(3)
C3 C1 H1 107.8
N1 C1 H1 107.8
C2 C1 H1 107.8
O1 C2 O3 126.59(16)
O1 C2 C1 117.7(3)
O3 C2 C1 115.7(3)
O2 C3 C1 112.2(3)
O2 C3 H3A 109.2
C1 C3 H3A 109.2
O2 C3 H3B 109.2
C1 C3 H3B 109.2
H3A C3 H3B 107.9
loop_
_geom_bond_atom_site_label_1
_geom_bond_atom_site_label_2
_geom_bond_distance
O1 C2 1.241(4)
O2 C3 1.416(4)
O2 H2 0.8200
N1 C1 1.506(6)
N1 H1A 0.8900
N1 H1B 0.8900
N1 H1C 0.8900
O3 C2 1.253(5)
C1 C3 1.493(9)
C1 C2 1.540(2)
C1 H1 0.9800
C3 H3A 0.9700
C3 H3B 0.9700
loop_
_geom_hbond_atom_site_label_D
_geom_hbond_atom_site_label_H
_geom_hbond_atom_site_label_A
_geom_hbond_site_symmetry_A
_geom_hbond_distance_DH
_geom_hbond_distance_HA
_geom_hbond_distance_DA
_geom_hbond_angle_DHA
N1 H1B O2 4_666 0.89 1.94 2.757(5) 152.1
N1 H1A O3 2_545 0.89 2.00 2.8747(17) 165.6
N1 H1C O3 2_645 0.89 1.98 2.8345(16) 160.5
O2 H2 O1 2_545 0.82 1.84 2.657(3) 174.6
loop_
_geom_torsion_atom_site_label_1
_geom_torsion_atom_site_label_2
_geom_torsion_atom_site_label_3
_geom_torsion_atom_site_label_4
_geom_torsion
C3 C1 C2 O1 126.1(4)
N1 C1 C2 O1 0.9(4)
C3 C1 C2 O3 -54.7(3)
N1 C1 C2 O3 -179.9(3)
N1 C1 C3 O2 72.5(3)
C2 C1 C3 O2 -50.4(4)
loop_
_cod_related_entry_id
_cod_related_entry_database
_cod_related_entry_code
1 ChemSpider 597
