#------------------------------------------------------------------------------
#$Date: 2017-10-13 08:28:26 +0300 (Fri, 13 Oct 2017) $
#$Revision: 201972 $
#$URL: file:///home/coder/svn-repositories/cod/cif/2/10/51/2105154.cif $
#------------------------------------------------------------------------------
#
# This file is available in the Crystallography Open Database (COD),
# http://www.crystallography.net/. The original data for this entry
# were provided by IUCr Journals, http://journals.iucr.org/.
#
# The file may be used within the scientific community so long as
# proper attribution is given to the journal article from which the
# data were obtained.
#
data_2105154
loop_
_publ_author_name
'Tumanov, Nikolay A.'
'Boldyreva, Elena V.'
_publ_section_title
;
 X-ray diffraction and Raman study of <small>DL</small>-alanine at high
 pressure: revision of phase transitions
;
_journal_coeditor_code           GP5051
_journal_issue                   4
_journal_name_full               'Acta Crystallographica Section B'
_journal_page_first              412
_journal_page_last               423
_journal_paper_doi               10.1107/S0108768112028972
_journal_volume                  68
_journal_year                    2012
_chemical_formula_moiety         'C3 H7 N O2'
_chemical_formula_sum            'C3 H7 N O2'
_chemical_formula_weight         89.10
_chemical_name_common            DL-alanine
_chemical_name_systematic        'DL-2-Aminopropionic Acid '
_space_group_IT_number           33
_symmetry_cell_setting           orthorhombic
_symmetry_space_group_name_Hall  'P 2c -2n'
_symmetry_space_group_name_H-M   'P n a 21'
_atom_sites_solution_hydrogens   geom
_atom_sites_solution_primary     direct
_atom_sites_solution_secondary   difmap
_audit_creation_method           SHELXL-97
_cell_angle_alpha                90.00
_cell_angle_beta                 90.00
_cell_angle_gamma                90.00
_cell_formula_units_Z            4
_cell_length_a                   11.4915(17)
_cell_length_b                   5.5249(18)
_cell_length_c                   5.6262(5)
_cell_measurement_reflns_used    1339
_cell_measurement_temperature    293(2)
_cell_measurement_theta_max      30.6162
_cell_measurement_theta_min      3.6140
_cell_volume                     357.20(13)
_computing_cell_refinement       'CrysAlis Pro (Oxford Diffraction Ltd, 2010)'
_computing_data_collection       'CrysAlis Pro (Oxford Diffraction Ltd, 2010)'
_computing_data_reduction        'CrysAlis Pro (Oxford Diffraction Ltd, 2010)'
_computing_molecular_graphics    'Mercury (Macrae <i>et al.</i>, 2008)'
_computing_publication_material
;
Mercury (Macrae <i>et al.</i>, 2008),
PLATON (Spek, 2009),
enCIFer (Allen <i>et al.</i>, 2004)
;
_computing_structure_refinement  'SHELXL-97 (Sheldrick, 1997)'
_computing_structure_solution    'SHELXS-97 (Sheldrick, 1990)'
_diffrn_ambient_temperature      293(2)
_diffrn_detector_area_resol_mean 10.3457
_diffrn_measured_fraction_theta_full 0.469
_diffrn_measured_fraction_theta_max 0.469
_diffrn_measurement_device_type  'Oxford Diffraction Gemini Ultra R'
_diffrn_measurement_method       \w
_diffrn_radiation_monochromator  graphite
_diffrn_radiation_type           MoK\a
_diffrn_radiation_wavelength     0.71073
_diffrn_reflns_av_R_equivalents  0.0676
_diffrn_reflns_av_sigmaI/netI    0.0481
_diffrn_reflns_limit_h_max       14
_diffrn_reflns_limit_h_min       -14
_diffrn_reflns_limit_k_max       5
_diffrn_reflns_limit_k_min       -5
_diffrn_reflns_limit_l_max       8
_diffrn_reflns_limit_l_min       -8
_diffrn_reflns_number            2999
_diffrn_reflns_theta_full        30.68
_diffrn_reflns_theta_max         30.68
_diffrn_reflns_theta_min         4.09
_exptl_absorpt_coefficient_mu    0.138
_exptl_absorpt_correction_T_max  0.478
_exptl_absorpt_correction_T_min  0.409
_exptl_absorpt_correction_type   gaussian
_exptl_absorpt_process_details
;
Absorb6.1 (R. J. Angel, 2004)
;
_exptl_crystal_colour            colorless
_exptl_crystal_density_diffrn    1.657
_exptl_crystal_density_method    'not measured'
_exptl_crystal_description       plate
_exptl_crystal_F_000             192
_exptl_crystal_size_max          0.16
_exptl_crystal_size_mid          0.10
_exptl_crystal_size_min          0.06
_refine_diff_density_max         0.153
_refine_diff_density_min         -0.127
_refine_ls_extinction_method     none
_refine_ls_goodness_of_fit_ref   1.089
_refine_ls_hydrogen_treatment    constr
_refine_ls_matrix_type           full
_refine_ls_number_parameters     57
_refine_ls_number_reflns         512
_refine_ls_number_restraints     1
_refine_ls_restrained_S_all      1.088
_refine_ls_R_factor_all          0.0583
_refine_ls_R_factor_gt           0.0412
_refine_ls_shift/su_max          0.000
_refine_ls_shift/su_mean         0.000
_refine_ls_structure_factor_coef Fsqd
_refine_ls_weighting_details
'calc w=1/[\s^2^(Fo^2^)+(0.0256P)^2^+0.0000P] where P=(Fo^2^+2Fc^2^)/3'
_refine_ls_weighting_scheme      calc
_refine_ls_wR_factor_gt          0.0661
_refine_ls_wR_factor_ref         0.0706
_reflns_number_gt                425
_reflns_number_total             512
_reflns_threshold_expression     I>2\s(I)
_iucr_refine_instructions_details
;
TITL DLALA_55KBAR_NV_OU IN PNA2(1)
CELL  0.71073 11.49154  5.52493  5.62624 90.00000 90.00000 90.00000
ZERR 3  0.00167  0.00184  0.00047  0.00000  0.00000  0.00000
LATT -1
SYMM -X, -Y, Z+ 0.50000
SYMM -X+ 0.50000, Y+ 0.50000, Z+ 0.50000
SYMM X+ 0.50000, -Y+ 0.50000, Z
SFAC C H N O
UNIT 12 28 4 8
L.S. 10
PLAN  30
FMAP 2
ACTA
CONF
BOND $H
EQIV $1 x,y,-1+z
EQIV $2 1-x,1-y,-1/2+z
EQIV $3 3/2-x,1/2+y,-1/2+z
HTAB N1 O2_$2
HTAB N1 O1_$1
HTAB N1 O2_$1
HTAB N1 O1_$3
WGHT    0.025600
FVAR       6.59688
O2    4    0.594848    0.483510    0.611019    11.00000    0.02983    0.03239 =
         0.02247   -0.00347    0.00116    0.00696
O1    4    0.683818    0.153402    0.747684    11.00000    0.03182    0.03379 =
         0.01573   -0.00028   -0.00110    0.00750
C1    1    0.645084    0.288851    0.582915    11.00000    0.01009    0.03659 =
         0.01795    0.00053    0.00176   -0.00397
C2    1    0.662081    0.190062    0.331724    11.00000    0.02028    0.02252 =
         0.01321    0.00131   -0.00172    0.00040
AFIX  13
H2    2    0.744243    0.147584    0.310800    11.00000   -1.20000
AFIX   0
C3    1    0.589874   -0.030494    0.288065    11.00000    0.03528    0.02170 =
         0.02058    0.00022    0.00008   -0.00248
AFIX 137
H3B   2    0.609436   -0.098025    0.136012    11.00000   -1.20000
H3A   2    0.508959    0.012678    0.289974    11.00000   -1.20000
H3C   2    0.604847   -0.147802    0.410167    11.00000   -1.20000
AFIX   0
N1    3    0.631581    0.377013    0.158484    11.00000    0.02546    0.03655 =
         0.01588   -0.00170    0.00062   -0.00374
AFIX 137
H1C   2    0.676413    0.506349    0.181013    11.00000   -1.20000
H1A   2    0.557258    0.418267    0.176868    11.00000   -1.20000
H1B   2    0.642514    0.320169    0.012167    11.00000   -1.20000
HKLF 4
REM  DLALA_55KBAR_NV_OU IN PNA2(1)
REM R1 =  0.0412 for    425 Fo > 4sig(Fo)  and  0.0583 for all    512 data
REM     57 parameters refined using      1 restraints
END
WGHT      0.0254      0.0000
REM Highest difference peak  0.153,  deepest hole -0.127,  1-sigma level  0.037
Q1    1   0.6609  0.2560  0.4533  11.00000  0.05    0.15
Q2    1   0.5011  0.5825  0.1434  11.00000  0.05    0.13
Q3    1   0.5668  0.4072  0.7712  11.00000  0.05    0.13
Q4    1   0.7554  0.4968  0.2203  11.00000  0.05    0.13
Q5    1   0.6287  0.0989  0.1506  11.00000  0.05    0.12
Q6    1   0.5437  0.6101  0.6557  11.00000  0.05    0.12
Q7    1   0.5946  0.6120  0.1236  11.00000  0.05    0.12
Q8    1   0.7187  0.0951  0.2988  11.00000  0.05    0.12
Q9    1   0.4984 -0.1684  0.0769  11.00000  0.05    0.12
Q10   1   0.4412 -0.0782  0.3573  11.00000  0.05    0.12
Q11   1   0.4580  0.4379  0.3493  11.00000  0.05    0.11
Q12   1   0.6763  0.2525 -0.1205  11.00000  0.05    0.11
Q13   1   0.5491  0.4144  0.0730  11.00000  0.05    0.10
Q14   1   0.4775  0.2357  0.2307  11.00000  0.05    0.10
Q15   1   0.6276  0.0721  0.3219  11.00000  0.05    0.10
Q16   1   0.7045  0.7081  0.0894  11.00000  0.05    0.10
Q17   1   0.6165 -0.0307  0.7690  11.00000  0.05    0.10
Q18   1   0.5235 -0.1538  0.3613  11.00000  0.05    0.10
Q19   1   0.6122  0.6985  0.6711  11.00000  0.05    0.09
Q20   1   0.5998  0.5747  0.7573  11.00000  0.05    0.09
Q21   1   0.7126  0.4252  0.0734  11.00000  0.05    0.09
Q22   1   0.5205  0.1338  0.1550  11.00000  0.05    0.09
Q23   1   0.5473  0.0802  0.2551  11.00000  0.05    0.09
Q24   1   0.5990  0.4254  0.4668  11.00000  0.05    0.09
Q25   1   0.8537  0.2747  0.3022  11.00000  0.05    0.09
Q26   1   0.7001  0.5674  0.3177  11.00000  0.05    0.09
Q27   1   0.6338 -0.1815  0.1018  11.00000  0.05    0.09
Q28   1   0.5942  0.5643  0.5575  11.00000  0.05    0.09
Q29   1   0.5713 -0.0211  0.4339  11.00000  0.05    0.09
Q30   1   0.5730 -0.0501  0.1885  11.00000  0.05    0.08
;
_cod_data_source_file            gp5051.cif
_cod_data_source_block           dlala_55kbar
_cod_original_cell_volume        357.21(13)
_cod_database_code               2105154
loop_
_symmetry_equiv_pos_as_xyz
'x, y, z'
'-x, -y, z+1/2'
'-x+1/2, y+1/2, z+1/2'
'x+1/2, -y+1/2, z'
loop_
_atom_site_type_symbol
_atom_site_label
_atom_site_fract_x
_atom_site_fract_y
_atom_site_fract_z
_atom_site_U_iso_or_equiv
_atom_site_adp_type
_atom_site_calc_flag
_atom_site_refinement_flags
_atom_site_occupancy
_atom_site_symmetry_multiplicity
O O2 0.59485(19) 0.4835(6) 0.6110(3) 0.0282(9) Uani d . 1 1
O O1 0.68382(16) 0.1534(5) 0.7477(3) 0.0271(7) Uani d . 1 1
C C1 0.6451(2) 0.2889(8) 0.5829(4) 0.0215(12) Uani d . 1 1
C C2 0.6621(2) 0.1901(8) 0.3317(4) 0.0187(11) Uani d . 1 1
H H2 0.7442 0.1476 0.3108 0.022 Uiso calc R 1 1
C C3 0.5899(3) -0.0305(9) 0.2881(5) 0.0259(12) Uani d . 1 1
H H3B 0.6094 -0.0980 0.1360 0.031 Uiso calc R 1 1
H H3A 0.5090 0.0127 0.2900 0.031 Uiso calc R 1 1
H H3C 0.6048 -0.1478 0.4102 0.031 Uiso calc R 1 1
N N1 0.63158(19) 0.3770(6) 0.1585(3) 0.0260(10) Uani d . 1 1
H H1C 0.6764 0.5063 0.1810 0.031 Uiso calc R 1 1
H H1A 0.5573 0.4183 0.1769 0.031 Uiso calc R 1 1
H H1B 0.6425 0.3202 0.0122 0.031 Uiso calc R 1 1
loop_
_atom_site_aniso_label
_atom_site_aniso_U_11
_atom_site_aniso_U_22
_atom_site_aniso_U_33
_atom_site_aniso_U_12
_atom_site_aniso_U_13
_atom_site_aniso_U_23
O2 0.0298(13) 0.032(3) 0.0225(11) 0.0070(10) 0.0012(8) -0.0035(12)
O1 0.0318(13) 0.034(3) 0.0157(8) 0.0075(9) -0.0011(8) -0.0003(12)
C1 0.0101(17) 0.037(5) 0.0180(14) -0.0040(11) 0.0018(11) 0.0005(17)
C2 0.0203(18) 0.023(4) 0.0132(13) 0.0004(12) -0.0017(9) 0.0013(16)
C3 0.035(2) 0.022(4) 0.0206(16) -0.0025(13) 0.0001(11) 0.0002(17)
N1 0.0255(16) 0.037(4) 0.0159(11) -0.0037(10) 0.0006(8) -0.0017(16)
loop_
_atom_type_symbol
_atom_type_description
_atom_type_scat_dispersion_real
_atom_type_scat_dispersion_imag
_atom_type_scat_source
C C 0.0033 0.0016 'International Tables Vol C Tables 4.2.6.8 and 6.1.1.4'
H H 0.0000 0.0000 'International Tables Vol C Tables 4.2.6.8 and 6.1.1.4'
N N 0.0061 0.0033 'International Tables Vol C Tables 4.2.6.8 and 6.1.1.4'
O O 0.0106 0.0060 'International Tables Vol C Tables 4.2.6.8 and 6.1.1.4'
loop_
_geom_angle_atom_site_label_1
_geom_angle_atom_site_label_2
_geom_angle_atom_site_label_3
_geom_angle
O2 C1 O1 125.8(3)
O2 C1 C2 119.4(3)
O1 C1 C2 114.8(3)
N1 C2 C3 109.5(2)
N1 C2 C1 109.5(3)
C3 C2 C1 111.9(3)
N1 C2 H2 108.7
C3 C2 H2 108.7
C1 C2 H2 108.7
C2 C3 H3B 109.5
C2 C3 H3A 109.5
H3B C3 H3A 109.5
C2 C3 H3C 109.5
H3B C3 H3C 109.5
H3A C3 H3C 109.5
C2 N1 H1C 109.5
C2 N1 H1A 109.5
H1C N1 H1A 109.5
C2 N1 H1B 109.5
H1C N1 H1B 109.5
H1A N1 H1B 109.5
loop_
_geom_bond_atom_site_label_1
_geom_bond_atom_site_label_2
_geom_bond_distance
O2 C1 1.231(5)
O1 C1 1.272(4)
C1 C2 1.528(3)
C2 N1 1.463(5)
C2 C3 1.495(6)
C2 H2 0.9800
C3 H3B 0.9600
C3 H3A 0.9600
C3 H3C 0.9600
N1 H1C 0.8900
N1 H1A 0.8900
N1 H1B 0.8900
loop_
_geom_hbond_atom_site_label_D
_geom_hbond_atom_site_label_H
_geom_hbond_atom_site_label_A
_geom_hbond_site_symmetry_A
_geom_hbond_distance_DH
_geom_hbond_distance_HA
_geom_hbond_distance_DA
_geom_hbond_angle_DHA
N1 H1A O2 2_664 0.89 1.87 2.727(3) 161.7
N1 H1B O1 1_554 0.89 1.81 2.689(3) 167.2
N1 H1B O2 1_554 0.89 2.49 3.164(3) 132.8
N1 H1C O1 3_654 0.89 1.84 2.662(3) 152.8
loop_
_geom_torsion_atom_site_label_1
_geom_torsion_atom_site_label_2
_geom_torsion_atom_site_label_3
_geom_torsion_atom_site_label_4
_geom_torsion
O2 C1 C2 N1 10.5(4)
O1 C1 C2 N1 -170.9(3)
O2 C1 C2 C3 -111.0(5)
O1 C1 C2 C3 67.5(4)
loop_
_cod_related_entry_id
_cod_related_entry_database
_cod_related_entry_code
1 ChemSpider 582
