#------------------------------------------------------------------------------
#$Date: 2017-10-13 08:28:26 +0300 (Fri, 13 Oct 2017) $
#$Revision: 201972 $
#$URL: file:///home/coder/svn-repositories/cod/cif/2/10/51/2105108.cif $
#------------------------------------------------------------------------------
#
# This file is available in the Crystallography Open Database (COD),
# http://www.crystallography.net/. The original data for this entry
# were provided by IUCr Journals, http://journals.iucr.org/.
#
# The file may be used within the scientific community so long as
# proper attribution is given to the journal article from which the
# data were obtained.
#
data_2105108
loop_
_publ_author_name
'Zakharov, Boris A.'
'Kolesov, Boris A.'
'Boldyreva, Elena V.'
_publ_section_title
;
 Effect of pressure on crystalline <small>L</small>- and
 <small>DL</small>-serine: revisited by a combined single-crystal X-ray
 diffraction at a laboratory source and polarized Raman spectroscopy study
;
_journal_coeditor_code           GP5049
_journal_issue                   3
_journal_name_full               'Acta Crystallographica Section B'
_journal_page_first              275
_journal_page_last               286
_journal_paper_doi               10.1107/S0108768112015960
_journal_volume                  68
_journal_year                    2012
_chemical_formula_moiety         'C3 H7 N O3'
_chemical_formula_sum            'C3 H7 N O3'
_chemical_formula_weight         105.10
_chemical_name_common            L-serine
_chemical_name_systematic
;
(S)-2-amino-3-hydroxypropanoic acid
;
_space_group_IT_number           19
_symmetry_cell_setting           orthorhombic
_symmetry_space_group_name_Hall  'P 2ac 2ab'
_symmetry_space_group_name_H-M   'P 21 21 21'
_atom_sites_solution_hydrogens   geom
_atom_sites_solution_primary     direct
_atom_sites_solution_secondary   difmap
_audit_creation_method           SHELXL-97
_cell_angle_alpha                90.00
_cell_angle_beta                 90.00
_cell_angle_gamma                90.00
_cell_formula_units_Z            4
_cell_length_a                   5.5668(17)
_cell_length_b                   8.463(10)
_cell_length_c                   9.072(5)
_cell_measurement_reflns_used    713
_cell_measurement_temperature    293(2)
_cell_measurement_theta_max      31.6490
_cell_measurement_theta_min      2.2364
_cell_volume                     427.4(6)
_computing_cell_refinement
;
CrysAlisPro, Oxford Diffraction Ltd.,
Version 1.171.34.40 (release 27-08-2010 CrysAlis171 .NET)
(compiled Aug 27 2010,11:50:40)
;
_computing_data_collection
;
CrysAlisPro, Oxford Diffraction Ltd.,
Version 1.171.34.40 (release 27-08-2010 CrysAlis171 .NET)
(compiled Aug 27 2010,11:50:40)
;
_computing_data_reduction
;
CrysAlisPro, Oxford Diffraction Ltd.,
Version 1.171.34.40 (release 27-08-2010 CrysAlis171 .NET)
(compiled Aug 27 2010,11:50:40)
;
_computing_molecular_graphics    'Mercury (Macrae <i>et al.</i>, 2006)'
_computing_publication_material
;
Mercury (Macrae et al., 2006),
PLATON (Spek, 2009),
enCIFer (Allen et al., 2004)
;
_computing_structure_refinement  'SHELXL-97 (Sheldrick, 2008)'
_computing_structure_solution    'SHELXS-97 (Sheldrick, 2008)'
_diffrn_ambient_temperature      293(2)
_diffrn_detector_area_resol_mean 10.3457
_diffrn_measured_fraction_theta_full 0.472
_diffrn_measured_fraction_theta_max 0.472
_diffrn_measurement_device_type  'Xcalibur, Ruby, Gemini ultra'
_diffrn_measurement_method       'rotation method'
_diffrn_radiation_monochromator  graphite
_diffrn_radiation_source         'fine-focus sealed tube'
_diffrn_radiation_type           MoK\a
_diffrn_radiation_wavelength     0.71073
_diffrn_reflns_av_R_equivalents  0.0788
_diffrn_reflns_av_sigmaI/netI    0.1018
_diffrn_reflns_limit_h_max       8
_diffrn_reflns_limit_h_min       -8
_diffrn_reflns_limit_k_max       7
_diffrn_reflns_limit_k_min       -8
_diffrn_reflns_limit_l_max       11
_diffrn_reflns_limit_l_min       -12
_diffrn_reflns_number            2426
_diffrn_reflns_theta_full        31.73
_diffrn_reflns_theta_max         31.73
_diffrn_reflns_theta_min         3.29
_exptl_absorpt_coefficient_mu    0.146
_exptl_absorpt_correction_T_max  0.474
_exptl_absorpt_correction_T_min  0.395
_exptl_absorpt_correction_type   gaussian
_exptl_absorpt_process_details
' Absorb Angel (2004) J. Appl. Cryst. 37:486-492'
_exptl_crystal_colour            colourless
_exptl_crystal_density_diffrn    1.633
_exptl_crystal_density_method    'not measured'
_exptl_crystal_description       prism
_exptl_crystal_F_000             224
_exptl_crystal_size_max          0.25
_exptl_crystal_size_mid          0.05
_exptl_crystal_size_min          0.05
_refine_diff_density_max         0.181
_refine_diff_density_min         -0.159
_refine_ls_extinction_method     none
_refine_ls_goodness_of_fit_ref   0.978
_refine_ls_hydrogen_treatment    constr
_refine_ls_matrix_type           full
_refine_ls_number_parameters     66
_refine_ls_number_reflns         626
_refine_ls_number_restraints     0
_refine_ls_restrained_S_all      0.978
_refine_ls_R_factor_all          0.1366
_refine_ls_R_factor_gt           0.0594
_refine_ls_shift/su_max          0.000
_refine_ls_shift/su_mean         0.000
_refine_ls_structure_factor_coef Fsqd
_refine_ls_weighting_details
'calc w=1/[\s^2^(Fo^2^)+(0.0539P)^2^+0.0000P] where P=(Fo^2^+2Fc^2^)/3'
_refine_ls_weighting_scheme      calc
_refine_ls_wR_factor_gt          0.1108
_refine_ls_wR_factor_ref         0.1377
_reflns_number_gt                343
_reflns_number_total             626
_reflns_threshold_expression     >2sigma(I)
_iucr_refine_instructions_details
;
TITL
CELL  0.71073  5.56679  8.46325  9.07167 90.00000 90.00000 90.00000
ZERR 4  0.00170  0.00960  0.00480  0.00000  0.00000  0.00000
LATT -1
SYMM -X+ 0.50000, -Y, Z+ 0.50000
SYMM X+ 0.50000, -Y+ 0.50000, -Z
SYMM -X, Y+ 0.50000, -Z+ 0.50000
SFAC C H N O
UNIT 12 28 4 12
PLAN 30
FMAP 2
L.S. 20
EQIV $1 -1+X,Y,Z
EQIV $2 -1/2+X,1/2-Y,2-Z
EQIV $3 1-X,1/2+Y,1.5-Z
EQIV $4 -1/2+X,1/2-Y,1-Z
EQIV $11 1-X,-1/2+Y,3/2-Z
EQIV $12 -1/2+X,1/2-Y,1-Z
HTAB N1 O1_$1
HTAB N1 O2_$1
HTAB N1 O2_$2
HTAB N1 O1_$3
HTAB O3 O3_$4
BOND $H
BOND
CONF
ACTA
WGHT    0.053900
FVAR       3.82189
N1    3    0.218970    0.199692    0.815443    11.00000    0.02878    0.04656 =
         0.03784    0.00177   -0.00115   -0.00444
AFIX 137
H1    2    0.241782    0.291322    0.769384    11.00000   -1.20000
H2    2    0.247746    0.211720    0.911293    11.00000   -1.20000
H3    2    0.067873    0.168254    0.802485    11.00000   -1.20000
AFIX   0
O1    4    0.799479    0.021422    0.756848    11.00000    0.03127    0.04655 =
         0.08694   -0.02477    0.00469    0.01022
O2    4    0.677435    0.223911    0.884408    11.00000    0.04304    0.04785 =
         0.04728   -0.01672   -0.01530   -0.00002
C1    1    0.384889    0.079273    0.754026    11.00000    0.02985    0.03729 =
         0.03306   -0.00210   -0.00034   -0.00392
AFIX  13
H4    2    0.336310   -0.024348    0.791923    11.00000   -1.20000
AFIX   0
O3    4    0.425502    0.228265    0.528753    11.00000    0.05947    0.05105 =
         0.04823    0.01069    0.00064    0.01265
AFIX 147
H5    2    0.304162    0.269181    0.494558    11.00000   -1.20000
AFIX   0
C2    1    0.366538    0.075263    0.588093    11.00000    0.03781    0.04136 =
         0.03719   -0.00638   -0.01105    0.00963
AFIX  23
H6    2    0.476027   -0.003440    0.549004    11.00000   -1.20000
H7    2    0.204590    0.046387    0.559260    11.00000   -1.20000
AFIX   0
C3    1    0.642958    0.110871    0.804176    11.00000    0.03555    0.05163 =
         0.03511   -0.00240    0.00176   -0.00664
HKLF 4
REM
REM R1 =  0.0594 for    343 Fo > 4sig(Fo)  and  0.1366 for all    626 data
REM     66 parameters refined using      0 restraints
END
WGHT      0.0539      0.0000
REM Highest difference peak  0.181,  deepest hole -0.159,  1-sigma level  0.047
Q1    1   0.8963  0.0262  0.8239  11.00000  0.05    0.18
Q2    1   0.4987  0.0701  0.8189  11.00000  0.05    0.17
Q3    1   0.8488  0.2982  0.9020  11.00000  0.05    0.17
Q4    1   0.9291 -0.0228  0.7991  11.00000  0.05    0.17
Q5    1   0.7753  0.1975  0.9674  11.00000  0.05    0.15
Q6    1   0.6059  0.3255  0.5186  11.00000  0.05    0.15
Q7    1   0.5521  0.2429  0.4624  11.00000  0.05    0.14
Q8    1   0.1124  0.2017  0.8580  11.00000  0.05    0.14
Q9    1   0.3973  0.4022  0.6907  11.00000  0.05    0.14
Q10   1   0.5262  0.3259  0.8746  11.00000  0.05    0.14
Q11   1   0.2977  0.1949  0.8751  11.00000  0.05    0.14
Q12   1   0.3696  0.2174  0.5490  11.00000  0.05    0.14
Q13   1   0.5266  0.2506  0.5842  11.00000  0.05    0.13
Q14   1   0.1172  0.1237  0.5932  11.00000  0.05    0.13
Q15   1   0.5954  0.0924  0.4462  11.00000  0.05    0.13
Q16   1   0.2091  0.0159  0.7436  11.00000  0.05    0.13
Q17   1   0.4287 -0.0972  0.8470  11.00000  0.05    0.13
Q18   1   0.6203  0.0662  1.0391  11.00000  0.05    0.13
Q19   1   0.9168  0.0624  0.6959  11.00000  0.05    0.12
Q20   1  -0.0476  0.1020  0.5899  11.00000  0.05    0.12
Q21   1   0.3672 -0.0477  0.5715  11.00000  0.05    0.12
Q22   1   0.2618  0.3923  0.4385  11.00000  0.05    0.11
Q23   1   0.5411 -0.0604  0.7553  11.00000  0.05    0.11
Q24   1   0.3184 -0.0870  0.7667  11.00000  0.05    0.11
Q25   1   0.8083  0.1556  0.8201  11.00000  0.05    0.11
Q26   1   0.0360  0.0471  0.7942  11.00000  0.05    0.11
Q27   1   0.4667  0.1119  0.5381  11.00000  0.05    0.11
Q28   1   0.0396 -0.0397  0.6372  11.00000  0.05    0.11
Q29   1  -0.0029  0.2089  0.6741  11.00000  0.05    0.11
Q30   1   0.2757  0.0817  0.5424  11.00000  0.05    0.11
;
_cod_data_source_file            gp5049.cif
_cod_data_source_block           L-serine1.0GPa
_cod_database_code               2105108
_cod_database_fobs_code          2105108
loop_
_symmetry_equiv_pos_as_xyz
'x, y, z'
'-x+1/2, -y, z+1/2'
'x+1/2, -y+1/2, -z'
'-x, y+1/2, -z+1/2'
loop_
_atom_site_type_symbol
_atom_site_label
_atom_site_fract_x
_atom_site_fract_y
_atom_site_fract_z
_atom_site_U_iso_or_equiv
_atom_site_adp_type
_atom_site_calc_flag
_atom_site_refinement_flags
_atom_site_occupancy
_atom_site_symmetry_multiplicity
N N1 0.2190(5) 0.1997(7) 0.8154(4) 0.0377(17) Uani d . 1 1
H H1 0.2418 0.2913 0.7694 0.045 Uiso calc R 1 1
H H2 0.2477 0.2117 0.9113 0.045 Uiso calc R 1 1
H H3 0.0679 0.1683 0.8025 0.045 Uiso calc R 1 1
O O1 0.7995(6) 0.0214(6) 0.7568(4) 0.0549(18) Uani d . 1 1
O O2 0.6774(5) 0.2239(7) 0.8844(4) 0.0461(18) Uani d . 1 1
C C1 0.3849(7) 0.0793(8) 0.7540(5) 0.033(2) Uani d . 1 1
H H4 0.3363 -0.0243 0.7919 0.040 Uiso calc R 1 1
O O3 0.4255(7) 0.2283(6) 0.5288(4) 0.0529(19) Uani d . 1 1
H H5 0.3042 0.2692 0.4946 0.063 Uiso calc R 1 1
C C2 0.3665(8) 0.0753(8) 0.5881(5) 0.039(2) Uani d . 1 1
H H6 0.4760 -0.0034 0.5490 0.047 Uiso calc R 1 1
H H7 0.2046 0.0464 0.5593 0.047 Uiso calc R 1 1
C C3 0.6430(8) 0.1109(11) 0.8042(6) 0.041(2) Uani d . 1 1
loop_
_atom_site_aniso_label
_atom_site_aniso_U_11
_atom_site_aniso_U_22
_atom_site_aniso_U_33
_atom_site_aniso_U_12
_atom_site_aniso_U_13
_atom_site_aniso_U_23
N1 0.0288(16) 0.047(6) 0.038(3) -0.004(3) -0.0011(18) 0.002(2)
O1 0.0313(15) 0.047(6) 0.087(4) 0.010(2) 0.0047(19) -0.025(3)
O2 0.0430(18) 0.048(7) 0.047(3) 0.000(3) -0.0153(18) -0.017(2)
C1 0.0298(18) 0.037(8) 0.033(4) -0.004(3) 0.000(2) -0.002(2)
O3 0.059(2) 0.051(7) 0.048(3) 0.013(3) 0.001(2) 0.011(2)
C2 0.038(2) 0.041(9) 0.037(5) 0.010(3) -0.011(2) -0.006(3)
C3 0.036(2) 0.052(8) 0.035(4) -0.007(4) 0.002(2) -0.002(3)
loop_
_atom_type_symbol
_atom_type_description
_atom_type_scat_dispersion_real
_atom_type_scat_dispersion_imag
_atom_type_scat_source
C C 0.0033 0.0016 'International Tables Vol C Tables 4.2.6.8 and 6.1.1.4'
H H 0.0000 0.0000 'International Tables Vol C Tables 4.2.6.8 and 6.1.1.4'
N N 0.0061 0.0033 'International Tables Vol C Tables 4.2.6.8 and 6.1.1.4'
O O 0.0106 0.0060 'International Tables Vol C Tables 4.2.6.8 and 6.1.1.4'
loop_
_geom_angle_atom_site_label_1
_geom_angle_atom_site_label_2
_geom_angle_atom_site_label_3
_geom_angle
C1 N1 H1 109.5
C1 N1 H2 109.5
H1 N1 H2 109.5
C1 N1 H3 109.5
H1 N1 H3 109.5
H2 N1 H3 109.5
N1 C1 C2 110.4(4)
N1 C1 C3 110.6(4)
C2 C1 C3 111.3(4)
N1 C1 H4 108.1
C2 C1 H4 108.1
C3 C1 H4 108.1
C2 O3 H5 109.5
O3 C2 C1 109.7(5)
O3 C2 H6 109.7
C1 C2 H6 109.7
O3 C2 H7 109.7
C1 C2 H7 109.7
H6 C2 H7 108.2
O2 C3 O1 125.5(5)
O2 C3 C1 117.6(5)
O1 C3 C1 116.9(5)
loop_
_geom_bond_atom_site_label_1
_geom_bond_atom_site_label_2
_geom_bond_distance
N1 C1 1.484(6)
N1 H1 0.8900
N1 H2 0.8900
N1 H3 0.8900
O1 C3 1.232(7)
O2 C3 1.217(8)
C1 C2 1.509(7)
C1 C3 1.530(7)
C1 H4 0.9800
O3 C2 1.440(7)
O3 H5 0.8200
C2 H6 0.9700
C2 H7 0.9700
loop_
_geom_hbond_atom_site_label_D
_geom_hbond_atom_site_label_H
_geom_hbond_atom_site_label_A
_geom_hbond_site_symmetry_A
_geom_hbond_distance_DH
_geom_hbond_distance_HA
_geom_hbond_distance_DA
_geom_hbond_angle_DHA
N1 H3 O1 1_455 0.89 1.99 2.831(5) 157.7
N1 H3 O2 1_455 0.89 2.34 3.086(4) 140.7
N1 H2 O2 3_457 0.89 1.97 2.808(5) 156.1
N1 H1 O1 4_656 0.89 1.98 2.803(8) 154.0
O3 H5 O3 3_456 0.82 2.12 2.8557(18) 149.5
loop_
_geom_torsion_atom_site_label_1
_geom_torsion_atom_site_label_2
_geom_torsion_atom_site_label_3
_geom_torsion_atom_site_label_4
_geom_torsion
N1 C1 C2 O3 59.2(5)
C3 C1 C2 O3 -64.1(6)
N1 C1 C3 O2 0.4(9)
C2 C1 C3 O2 123.5(8)
N1 C1 C3 O1 -177.9(6)
C2 C1 C3 O1 -54.8(9)
loop_
_cod_related_entry_id
_cod_related_entry_database
_cod_related_entry_code
1 ChemSpider 5736
