#------------------------------------------------------------------------------
#$Date: 2017-10-13 08:28:26 +0300 (Fri, 13 Oct 2017) $
#$Revision: 201972 $
#$URL: file:///home/coder/svn-repositories/cod/cif/2/10/51/2105150.cif $
#------------------------------------------------------------------------------
#
# This file is available in the Crystallography Open Database (COD),
# http://www.crystallography.net/. The original data for this entry
# were provided by IUCr Journals, http://journals.iucr.org/.
#
# The file may be used within the scientific community so long as
# proper attribution is given to the journal article from which the
# data were obtained.
#
data_2105150
loop_
_publ_author_name
'Tumanov, Nikolay A.'
'Boldyreva, Elena V.'
_publ_section_title
;
 X-ray diffraction and Raman study of <small>DL</small>-alanine at high
 pressure: revision of phase transitions
;
_journal_coeditor_code           GP5051
_journal_issue                   4
_journal_name_full               'Acta Crystallographica Section B'
_journal_page_first              412
_journal_page_last               423
_journal_paper_doi               10.1107/S0108768112028972
_journal_volume                  68
_journal_year                    2012
_chemical_formula_moiety         'C3 H7 N O2'
_chemical_formula_sum            'C3 H7 N O2'
_chemical_formula_weight         89.10
_chemical_name_common            DL-alanine
_chemical_name_systematic        'DL-2-Aminopropionic Acid '
_space_group_IT_number           33
_symmetry_cell_setting           orthorhombic
_symmetry_space_group_name_Hall  'P 2c -2n'
_symmetry_space_group_name_H-M   'P n a 21'
_atom_sites_solution_hydrogens   geom
_atom_sites_solution_primary     direct
_atom_sites_solution_secondary   difmap
_audit_creation_method           SHELXL-97
_cell_angle_alpha                90.00
_cell_angle_beta                 90.00
_cell_angle_gamma                90.00
_cell_formula_units_Z            4
_cell_length_a                   11.617(3)
_cell_length_b                   5.611(4)
_cell_length_c                   5.7156(15)
_cell_measurement_reflns_used    711
_cell_measurement_temperature    293(2)
_cell_measurement_theta_max      30.6385
_cell_measurement_theta_min      3.5575
_cell_volume                     372.6(3)
_computing_cell_refinement       'CrysAlis Pro (Oxford Diffraction Ltd, 2010)'
_computing_data_collection       'CrysAlis Pro (Oxford Diffraction Ltd, 2010)'
_computing_data_reduction        'CrysAlis Pro (Oxford Diffraction Ltd, 2010)'
_computing_molecular_graphics    'Mercury (Macrae <i>et al.</i>, 2008)'
_computing_publication_material
;
Mercury (Macrae <i>et al.</i>, 2008),
PLATON (Spek, 2009),
enCIFer (Allen <i>et al.</i>, 2004)
;
_computing_structure_refinement  'SHELXL-97 (Sheldrick, 1997)'
_computing_structure_solution    'SHELXS-97 (Sheldrick, 1990)'
_diffrn_ambient_temperature      293(2)
_diffrn_detector_area_resol_mean 10.3457
_diffrn_measured_fraction_theta_full 0.430
_diffrn_measured_fraction_theta_max 0.430
_diffrn_measurement_device_type  'Oxford Diffraction Gemini Ultra R'
_diffrn_measurement_method       \w
_diffrn_radiation_monochromator  graphite
_diffrn_radiation_type           MoK\a
_diffrn_radiation_wavelength     0.71073
_diffrn_reflns_av_R_equivalents  0.0618
_diffrn_reflns_av_sigmaI/netI    0.0531
_diffrn_reflns_limit_h_max       15
_diffrn_reflns_limit_h_min       -15
_diffrn_reflns_limit_k_max       4
_diffrn_reflns_limit_k_min       -4
_diffrn_reflns_limit_l_max       7
_diffrn_reflns_limit_l_min       -7
_diffrn_reflns_number            1714
_diffrn_reflns_theta_full        30.71
_diffrn_reflns_theta_max         30.71
_diffrn_reflns_theta_min         5.00
_exptl_absorpt_coefficient_mu    0.133
_exptl_absorpt_correction_T_max  0.477
_exptl_absorpt_correction_T_min  0.410
_exptl_absorpt_process_details
;
Absorb6.1 (R. J. Angel, 2004)
;
_exptl_crystal_colour            colorless
_exptl_crystal_density_diffrn    1.588
_exptl_crystal_density_method    'not measured'
_exptl_crystal_description       plate
_exptl_crystal_F_000             192
_exptl_crystal_size_max          0.16
_exptl_crystal_size_mid          0.10
_exptl_crystal_size_min          0.06
_refine_diff_density_max         0.146
_refine_diff_density_min         -0.153
_refine_ls_extinction_method     none
_refine_ls_goodness_of_fit_ref   0.996
_refine_ls_hydrogen_treatment    constr
_refine_ls_matrix_type           full
_refine_ls_number_parameters     57
_refine_ls_number_reflns         477
_refine_ls_number_restraints     1
_refine_ls_restrained_S_all      0.994
_refine_ls_R_factor_all          0.0631
_refine_ls_R_factor_gt           0.0403
_refine_ls_shift/su_max          0.000
_refine_ls_shift/su_mean         0.000
_refine_ls_structure_factor_coef Fsqd
_refine_ls_weighting_details
'calc w=1/[\s^2^(Fo^2^)+(0.0276P)^2^+0.0000P] where P=(Fo^2^+2Fc^2^)/3'
_refine_ls_weighting_scheme      calc
_refine_ls_wR_factor_gt          0.0668
_refine_ls_wR_factor_ref         0.0731
_reflns_number_gt                359
_reflns_number_total             477
_reflns_threshold_expression     I>2\s(I)
_iucr_refine_instructions_details
;
TITL DLALA_36KBAR_NV_OU_PART1 IN PNA2(1)
CELL 0.71073 11.61749 5.61128 5.7156 90 90 90
ZERR 4 0.00271 0.00363 0.00146 0 0 0
LATT -1
SYMM -X,-Y,0.5+Z
SYMM 0.5-X,0.5+Y,0.5+Z
SYMM 0.5+X,0.5-Y,+Z
SFAC C H N O
UNIT 12 28 4 8
L.S. 10
PLAN  30
FMAP 2
ACTA
CONF
BOND $H
EQIV $1 x,y,-1+z
EQIV $2 1-x,1-y,-1/2+z
EQIV $3 3/2-x,1/2+y,-1/2+z
HTAB N1 O2_$2
HTAB N1 O1_$1
HTAB N1 O2_$1
HTAB N1 O1_$3
WGHT    0.027600
FVAR       6.60041
O2    4    0.592741    0.484311    0.607613    11.00000    0.03252    0.03609 =
         0.02330   -0.00232   -0.00014    0.00623
O1    4    0.684085    0.164538    0.745492    11.00000    0.03580    0.03293 =
         0.01600    0.00369   -0.00054    0.00678
C1    1    0.644491    0.292074    0.581806    11.00000    0.01384    0.03103 =
         0.01978    0.00223    0.00304   -0.00384
C2    1    0.662328    0.196487    0.335109    11.00000    0.02090    0.01945 =
         0.01282    0.00054    0.00028    0.00199
AFIX  13
H2    2    0.743562    0.153131    0.317100    11.00000   -1.20000
AFIX   0
C3    1    0.589745   -0.023471    0.290441    11.00000    0.03647    0.02709 =
         0.02468    0.00241   -0.00139   -0.00290
AFIX 137
H3B   2    0.607337   -0.086387    0.138397    11.00000   -1.20000
H3A   2    0.509679    0.018254    0.297374    11.00000   -1.20000
H3C   2    0.606269   -0.141528    0.407273    11.00000   -1.20000
AFIX   0
N1    3    0.634374    0.379584    0.160918    11.00000    0.02787    0.03048 =
         0.01469   -0.00260    0.00074   -0.00285
AFIX 137
H1C   2    0.680811    0.504237    0.179934    11.00000   -1.20000
H1A   2    0.561617    0.425587    0.179279    11.00000   -1.20000
H1B   2    0.643736    0.320005    0.017867    11.00000   -1.20000
HKLF 4
REM  DLALA_36KBAR_NV_OU_PART1 IN PNA2(1)
REM R1 =  0.0403 for    359 Fo > 4sig(Fo)  and  0.0631 for all    477 data
REM     57 parameters refined using      1 restraints
END
WGHT      0.0275      0.0000
REM Highest difference peak  0.146,  deepest hole -0.153,  1-sigma level  0.040
Q1    1   0.5810  0.6748  0.6558  11.00000  0.05    0.15
Q2    1   0.4930  0.5022  0.3687  11.00000  0.05    0.14
Q3    1   0.7210 -0.1289  0.1080  11.00000  0.05    0.14
Q4    1   0.5587  0.6523  0.5651  11.00000  0.05    0.13
Q5    1   0.7446  0.3065  0.1934  11.00000  0.05    0.13
Q6    1   0.6043  0.5079  0.8067  11.00000  0.05    0.13
Q7    1   0.5804  0.5098  0.3944  11.00000  0.05    0.12
Q8    1   0.3814  0.1740  0.2717  11.00000  0.05    0.12
Q9    1   0.5417  0.1076  0.0411  11.00000  0.05    0.12
Q10   1   0.4607  0.2491  0.3385  11.00000  0.05    0.12
Q11   1   0.7458  0.2151  0.8645  11.00000  0.05    0.12
Q12   1   0.7177  0.0592  0.2828  11.00000  0.05    0.11
Q13   1   0.6727 -0.2536  0.0606  11.00000  0.05    0.11
Q14   1   0.7596  0.4895  0.3049  11.00000  0.05    0.11
Q15   1   0.6086  0.6268  0.1170  11.00000  0.05    0.11
Q16   1   0.5171  0.4796  0.5748  11.00000  0.05    0.11
Q17   1   0.6180 -0.3482  0.3825  11.00000  0.05    0.11
Q18   1   0.7619  0.1452  0.5228  11.00000  0.05    0.10
Q19   1   0.7564 -0.0743  0.2506  11.00000  0.05    0.10
Q20   1   0.7743  0.4385  0.1984  11.00000  0.05    0.10
Q21   1   0.6253  0.3631  0.3715  11.00000  0.05    0.10
Q22   1   0.5450 -0.0758  0.1683  11.00000  0.05    0.10
Q23   1   0.7620  0.0879  0.8103  11.00000  0.05    0.10
Q24   1   0.7569  0.1421  0.8467  11.00000  0.05    0.10
Q25   1   0.5612 -0.0131  0.1648  11.00000  0.05    0.10
Q26   1   0.5707 -0.1527  0.3173  11.00000  0.05    0.10
Q27   1   0.5572  0.5691  0.6936  11.00000  0.05    0.10
Q28   1   0.5378  0.3937  0.0314  11.00000  0.05    0.10
Q29   1   0.7598  0.3066  0.8590  11.00000  0.05    0.10
Q30   1   0.4306  0.1073  0.3952  11.00000  0.05    0.10
;
_cod_data_source_file            gp5051.cif
_cod_data_source_block           dlala_36kbar
_cod_database_code               2105150
loop_
_symmetry_equiv_pos_as_xyz
'x, y, z'
'-x, -y, z+1/2'
'-x+1/2, y+1/2, z+1/2'
'x+1/2, -y+1/2, z'
loop_
_atom_site_type_symbol
_atom_site_label
_atom_site_fract_x
_atom_site_fract_y
_atom_site_fract_z
_atom_site_U_iso_or_equiv
_atom_site_adp_type
_atom_site_calc_flag
_atom_site_refinement_flags
_atom_site_occupancy
_atom_site_symmetry_multiplicity
O O2 0.59274(19) 0.4843(8) 0.6076(5) 0.0306(14) Uani d . 1 1
O O1 0.68409(17) 0.1645(6) 0.7455(4) 0.0282(10) Uani d . 1 1
C C1 0.6445(2) 0.2921(10) 0.5818(6) 0.0215(17) Uani d . 1 1
C C2 0.6623(2) 0.1965(10) 0.3351(5) 0.0177(16) Uani d . 1 1
H H2 0.7436 0.1531 0.3171 0.021 Uiso calc R 1 1
C C3 0.5897(3) -0.0235(12) 0.2904(7) 0.029(2) Uani d . 1 1
H H3B 0.6073 -0.0864 0.1384 0.035 Uiso calc R 1 1
H H3A 0.5097 0.0183 0.2974 0.035 Uiso calc R 1 1
H H3C 0.6063 -0.1415 0.4073 0.035 Uiso calc R 1 1
N N1 0.6344(2) 0.3796(8) 0.1609(4) 0.0243(13) Uani d . 1 1
H H1C 0.6808 0.5042 0.1799 0.029 Uiso calc R 1 1
H H1A 0.5616 0.4256 0.1793 0.029 Uiso calc R 1 1
H H1B 0.6437 0.3200 0.0179 0.029 Uiso calc R 1 1
loop_
_atom_site_aniso_label
_atom_site_aniso_U_11
_atom_site_aniso_U_22
_atom_site_aniso_U_33
_atom_site_aniso_U_12
_atom_site_aniso_U_13
_atom_site_aniso_U_23
O2 0.0325(12) 0.036(5) 0.0233(17) 0.0062(11) -0.0001(11) -0.0023(17)
O1 0.0358(12) 0.033(3) 0.0160(12) 0.0068(11) -0.0005(9) 0.0037(19)
C1 0.0138(16) 0.031(6) 0.020(2) -0.0038(13) 0.0030(14) 0.002(3)
C2 0.0209(17) 0.019(6) 0.013(2) 0.0020(15) 0.0003(11) 0.001(2)
C3 0.0365(19) 0.027(7) 0.025(3) -0.0029(16) -0.0014(13) 0.002(2)
N1 0.0279(15) 0.030(5) 0.0147(17) -0.0028(12) 0.0007(10) -0.003(2)
loop_
_atom_type_symbol
_atom_type_description
_atom_type_scat_dispersion_real
_atom_type_scat_dispersion_imag
_atom_type_scat_source
C C 0.0033 0.0016 'International Tables Vol C Tables 4.2.6.8 and 6.1.1.4'
H H 0.0000 0.0000 'International Tables Vol C Tables 4.2.6.8 and 6.1.1.4'
N N 0.0061 0.0033 'International Tables Vol C Tables 4.2.6.8 and 6.1.1.4'
O O 0.0106 0.0060 'International Tables Vol C Tables 4.2.6.8 and 6.1.1.4'
loop_
_geom_angle_atom_site_label_1
_geom_angle_atom_site_label_2
_geom_angle_atom_site_label_3
_geom_angle
O2 C1 O1 125.4(4)
O2 C1 C2 118.8(4)
O1 C1 C2 115.9(4)
N1 C2 C3 109.4(3)
N1 C2 C1 110.6(4)
C3 C2 C1 111.5(3)
N1 C2 H2 108.4
C3 C2 H2 108.4
C1 C2 H2 108.4
C2 C3 H3B 109.5
C2 C3 H3A 109.5
H3B C3 H3A 109.5
C2 C3 H3C 109.5
H3B C3 H3C 109.5
H3A C3 H3C 109.5
C2 N1 H1C 109.5
C2 N1 H1A 109.5
H1C N1 H1A 109.5
C2 N1 H1B 109.5
H1C N1 H1B 109.5
H1A N1 H1B 109.5
loop_
_geom_bond_atom_site_label_1
_geom_bond_atom_site_label_2
_geom_bond_distance
O2 C1 1.244(7)
O1 C1 1.265(5)
C1 C2 1.523(5)
C2 N1 1.467(5)
C2 C3 1.516(8)
C2 H2 0.9800
C3 H3B 0.9600
C3 H3A 0.9600
C3 H3C 0.9600
N1 H1C 0.8900
N1 H1A 0.8900
N1 H1B 0.8900
loop_
_geom_hbond_atom_site_label_D
_geom_hbond_atom_site_label_H
_geom_hbond_atom_site_label_A
_geom_hbond_site_symmetry_A
_geom_hbond_distance_DH
_geom_hbond_distance_HA
_geom_hbond_distance_DA
_geom_hbond_angle_DHA
N1 H1A O2 2_664 0.89 1.91 2.764(3) 160.8
N1 H1B O1 1_554 0.89 1.85 2.725(4) 169.7
N1 H1B O2 1_554 0.89 2.59 3.253(4) 132.1
N1 H1C O1 3_654 0.89 1.85 2.690(4) 157.3
loop_
_geom_torsion_atom_site_label_1
_geom_torsion_atom_site_label_2
_geom_torsion_atom_site_label_3
_geom_torsion_atom_site_label_4
_geom_torsion
O2 C1 C2 N1 11.9(5)
O1 C1 C2 N1 -168.5(4)
O2 C1 C2 C3 -110.1(6)
O1 C1 C2 C3 69.4(4)
loop_
_cod_related_entry_id
_cod_related_entry_database
_cod_related_entry_code
1 ChemSpider 582
