#------------------------------------------------------------------------------
#$Date: 2017-10-13 08:28:26 +0300 (Fri, 13 Oct 2017) $
#$Revision: 201972 $
#$URL: file:///home/coder/svn-repositories/cod/cif/2/10/51/2105147.cif $
#------------------------------------------------------------------------------
#
# This file is available in the Crystallography Open Database (COD),
# http://www.crystallography.net/. The original data for this entry
# were provided by IUCr Journals, http://journals.iucr.org/.
#
# The file may be used within the scientific community so long as
# proper attribution is given to the journal article from which the
# data were obtained.
#
data_2105147
loop_
_publ_author_name
'Tumanov, Nikolay A.'
'Boldyreva, Elena V.'
_publ_section_title
;
 X-ray diffraction and Raman study of <small>DL</small>-alanine at high
 pressure: revision of phase transitions
;
_journal_coeditor_code           GP5051
_journal_issue                   4
_journal_name_full               'Acta Crystallographica Section B'
_journal_page_first              412
_journal_page_last               423
_journal_paper_doi               10.1107/S0108768112028972
_journal_volume                  68
_journal_year                    2012
_chemical_formula_moiety         'C3 H7 N O2'
_chemical_formula_sum            'C3 H7 N O2'
_chemical_formula_weight         89.10
_chemical_name_common            DL-alanine
_chemical_name_systematic        'DL-2-Aminopropionic Acid '
_space_group_IT_number           33
_symmetry_cell_setting           orthorhombic
_symmetry_space_group_name_Hall  'P 2c -2n'
_symmetry_space_group_name_H-M   'P n a 21'
_atom_sites_solution_hydrogens   geom
_atom_sites_solution_primary     direct
_atom_sites_solution_secondary   difmap
_audit_creation_method           SHELXL-97
_cell_angle_alpha                90.00
_cell_angle_beta                 90.00
_cell_angle_gamma                90.00
_cell_formula_units_Z            4
_cell_length_a                   11.770(3)
_cell_length_b                   5.751(4)
_cell_length_c                   5.7748(8)
_cell_measurement_reflns_used    1447
_cell_measurement_temperature    293(2)
_cell_measurement_theta_max      30.9897
_cell_measurement_theta_min      3.4548
_cell_volume                     390.9(3)
_computing_cell_refinement       'CrysAlis Pro (Oxford Diffraction Ltd, 2010)'
_computing_data_collection       'CrysAlis Pro (Oxford Diffraction Ltd, 2010)'
_computing_data_reduction        'CrysAlis Pro (Oxford Diffraction Ltd, 2010)'
_computing_molecular_graphics    'Mercury (Macrae <i>et al.</i>, 2008)'
_computing_publication_material
;
Mercury (Macrae <i>et al.</i>, 2008),
PLATON (Spek, 2009),
enCIFer (Allen <i>et al.</i>, 2004)
;
_computing_structure_refinement  'SHELXL-97 (Sheldrick, 1997)'
_computing_structure_solution    'SHELXS-97 (Sheldrick, 1990)'
_diffrn_ambient_temperature      293(2)
_diffrn_detector_area_resol_mean 10.3457
_diffrn_measured_fraction_theta_full 0.450
_diffrn_measured_fraction_theta_max 0.450
_diffrn_measurement_device_type  'Oxford Diffraction Gemini Ultra R'
_diffrn_measurement_method       \w
_diffrn_radiation_monochromator  graphite
_diffrn_radiation_type           MoK\a
_diffrn_radiation_wavelength     0.71073
_diffrn_reflns_av_R_equivalents  0.0788
_diffrn_reflns_av_sigmaI/netI    0.0549
_diffrn_reflns_limit_h_max       15
_diffrn_reflns_limit_h_min       -15
_diffrn_reflns_limit_k_max       4
_diffrn_reflns_limit_k_min       -4
_diffrn_reflns_limit_l_max       8
_diffrn_reflns_limit_l_min       -8
_diffrn_reflns_number            3228
_diffrn_reflns_theta_full        31.06
_diffrn_reflns_theta_max         31.06
_diffrn_reflns_theta_min         3.46
_exptl_absorpt_coefficient_mu    0.126
_exptl_absorpt_correction_T_max  0.478
_exptl_absorpt_correction_T_min  0.410
_exptl_absorpt_correction_type   gaussian
_exptl_absorpt_process_details
;
Absorb6.1 (R. J. Angel, 2004)
;
_exptl_crystal_colour            colorless
_exptl_crystal_density_diffrn    1.514
_exptl_crystal_density_method    'not measured'
_exptl_crystal_description       plate
_exptl_crystal_F_000             192
_exptl_crystal_size_max          0.16
_exptl_crystal_size_mid          0.10
_exptl_crystal_size_min          0.06
_refine_diff_density_max         0.131
_refine_diff_density_min         -0.151
_refine_ls_extinction_method     none
_refine_ls_goodness_of_fit_ref   1.062
_refine_ls_hydrogen_treatment    constr
_refine_ls_matrix_type           full
_refine_ls_number_parameters     57
_refine_ls_number_reflns         564
_refine_ls_number_restraints     1
_refine_ls_restrained_S_all      1.061
_refine_ls_R_factor_all          0.0673
_refine_ls_R_factor_gt           0.0463
_refine_ls_shift/su_max          0.000
_refine_ls_shift/su_mean         0.000
_refine_ls_structure_factor_coef Fsqd
_refine_ls_weighting_details
'calc w=1/[\s^2^(Fo^2^)+(0.0294P)^2^+0.0000P] where P=(Fo^2^+2Fc^2^)/3'
_refine_ls_weighting_scheme      calc
_refine_ls_wR_factor_gt          0.0753
_refine_ls_wR_factor_ref         0.0813
_reflns_number_gt                432
_reflns_number_total             564
_reflns_threshold_expression     I>2\s(I)
_iucr_refine_instructions_details
;
TITL DLALA_20KBAR_NV_OU IN PNA2(1)
CELL  0.71073 11.77048  5.75129  5.77481 90.00000 90.00000 90.00000
ZERR 4  0.00254  0.00383  0.00077  0.00000  0.00000  0.00000
LATT -1
SYMM -X, -Y, Z+ 0.50000
SYMM -X+ 0.50000, Y+ 0.50000, Z+ 0.50000
SYMM X+ 0.50000, -Y+ 0.50000, Z
SFAC C H N O
UNIT 12 28 4 8
PLAN 30
FMAP 2
L.S. 10
ACTA
CONF
BOND $H
EQIV $1 x,y,-1+z
EQIV $2 1-x,1-y,-1/2+z
EQIV $3 3/2-x,1/2+y,-1/2+z
HTAB N1 O2_$2
HTAB N1 O1_$1
HTAB N1 O2_$1
HTAB N1 O1_$3
WGHT    0.029400
FVAR       6.46600
O2    4    0.591485    0.486832    0.604770    11.00000    0.03919    0.02811 =
         0.02625   -0.00373    0.00071    0.00549
O1    4    0.684321    0.176670    0.743721    11.00000    0.03781    0.04156 =
         0.01912    0.00316   -0.00133    0.00664
C1    1    0.643770    0.295158    0.581378    11.00000    0.02307    0.02737 =
         0.01977   -0.00344    0.00134   -0.00387
C2    1    0.662269    0.199835    0.336211    11.00000    0.02656    0.02181 =
         0.01563    0.00165    0.00145    0.00020
AFIX  13
H2    2    0.742326    0.155803    0.320414    11.00000   -1.20000
AFIX   0
C3    1    0.590677   -0.011955    0.293661    11.00000    0.03936    0.04415 =
         0.02313   -0.00113   -0.00163   -0.00400
AFIX 137
H3B   2    0.607469   -0.073815    0.143101    11.00000   -1.20000
H3C   2    0.511777    0.029618    0.301345    11.00000   -1.20000
H3A   2    0.607008   -0.127088    0.409331    11.00000   -1.20000
AFIX   0
N1    3    0.636800    0.383628    0.162694    11.00000    0.02940    0.04058 =
         0.01452    0.00006    0.00110   -0.00247
AFIX 137
H1C   2    0.682608    0.504578    0.185594    11.00000   -1.20000
H1B   2    0.564869    0.428848    0.177827    11.00000   -1.20000
H1A   2    0.647678    0.327458    0.020809    11.00000   -1.20000
HKLF 4
REM  DLALA_20KBAR_NV_OU IN PNA2(1)
REM R1 =  0.0463 for    432 Fo > 4sig(Fo)  and  0.0673 for all    564 data
REM     57 parameters refined using      1 restraints
END
WGHT      0.0293      0.0000
REM Highest difference peak  0.131,  deepest hole -0.151,  1-sigma level  0.035
Q1    1   0.5230  0.2280  0.6189  11.00000  0.05    0.13
Q2    1   0.6836  0.0991  0.1574  11.00000  0.05    0.12
Q3    1   0.6987  0.1501  0.1596  11.00000  0.05    0.12
Q4    1   0.8641  0.2264  0.3310  11.00000  0.05    0.12
Q5    1   0.7641  0.4529  0.2723  11.00000  0.05    0.11
Q6    1   0.5034 -0.1452  0.1075  11.00000  0.05    0.11
Q7    1   0.5190  0.3113  0.4089  11.00000  0.05    0.11
Q8    1   0.7803  0.1590  0.2317  11.00000  0.05    0.11
Q9    1   0.5207  0.4114  0.1567  11.00000  0.05    0.11
Q10   1   0.5788  0.6300  0.7322  11.00000  0.05    0.11
Q11   1   0.6317 -0.0369  0.1617  11.00000  0.05    0.11
Q12   1   0.6765 -0.2158  0.1815  11.00000  0.05    0.10
Q13   1   0.7232  0.1280  0.6394  11.00000  0.05    0.10
Q14   1   0.6290  0.4651  0.7419  11.00000  0.05    0.10
Q15   1   0.7781  0.2025  0.3691  11.00000  0.05    0.10
Q16   1   0.7224  0.5909  0.2779  11.00000  0.05    0.10
Q17   1   0.7386  0.2783  0.1864  11.00000  0.05    0.10
Q18   1   0.6021  0.3333  0.7443  11.00000  0.05    0.10
Q19   1   0.5678 -0.0784  0.1938  11.00000  0.05    0.10
Q20   1   0.6322  0.2133  0.0506  11.00000  0.05    0.10
Q21   1   0.5065 -0.1819  0.4193  11.00000  0.05    0.10
Q22   1   0.5780  0.5547  0.1775  11.00000  0.05    0.10
Q23   1   0.7171  0.4971  0.0997  11.00000  0.05    0.09
Q24   1   0.6833  0.3148  0.8452  11.00000  0.05    0.09
Q25   1   0.5372 -0.0071  0.1745  11.00000  0.05    0.09
Q26   1   0.5014  0.4742  0.0613  11.00000  0.05    0.09
Q27   1   0.5468 -0.2663  0.1047  11.00000  0.05    0.09
Q28   1   0.5246  0.0658  0.1881  11.00000  0.05    0.09
Q29   1   0.7176  0.6307  0.1799  11.00000  0.05    0.09
Q30   1   0.5444  0.4733  0.7428  11.00000  0.05    0.09
;
_cod_data_source_file            gp5051.cif
_cod_data_source_block           dlala_20kbar
_cod_database_code               2105147
loop_
_symmetry_equiv_pos_as_xyz
'x, y, z'
'-x, -y, z+1/2'
'-x+1/2, y+1/2, z+1/2'
'x+1/2, -y+1/2, z'
loop_
_atom_site_type_symbol
_atom_site_label
_atom_site_fract_x
_atom_site_fract_y
_atom_site_fract_z
_atom_site_U_iso_or_equiv
_atom_site_adp_type
_atom_site_calc_flag
_atom_site_refinement_flags
_atom_site_occupancy
_atom_site_symmetry_multiplicity
O O2 0.59149(18) 0.4868(7) 0.6048(4) 0.0312(15) Uani d . 1 1
O O1 0.68432(15) 0.1767(5) 0.7437(3) 0.0328(11) Uani d . 1 1
C C1 0.6438(2) 0.2952(10) 0.5814(5) 0.0234(17) Uani d . 1 1
C C2 0.6623(2) 0.1998(10) 0.3362(4) 0.0213(19) Uani d . 1 1
H H2 0.7423 0.1558 0.3204 0.026 Uiso calc R 1 1
C C3 0.5907(2) -0.0120(12) 0.2937(6) 0.036(3) Uani d . 1 1
H H3B 0.6075 -0.0738 0.1431 0.043 Uiso calc R 1 1
H H3C 0.5118 0.0296 0.3013 0.043 Uiso calc R 1 1
H H3A 0.6070 -0.1271 0.4093 0.043 Uiso calc R 1 1
N N1 0.63680(19) 0.3836(7) 0.1627(3) 0.0282(12) Uani d . 1 1
H H1C 0.6826 0.5046 0.1856 0.034 Uiso calc R 1 1
H H1B 0.5649 0.4288 0.1778 0.034 Uiso calc R 1 1
H H1A 0.6477 0.3275 0.0208 0.034 Uiso calc R 1 1
loop_
_atom_site_aniso_label
_atom_site_aniso_U_11
_atom_site_aniso_U_22
_atom_site_aniso_U_33
_atom_site_aniso_U_12
_atom_site_aniso_U_13
_atom_site_aniso_U_23
O2 0.0392(13) 0.028(5) 0.0263(13) 0.0055(11) 0.0007(9) -0.0037(14)
O1 0.0378(12) 0.042(4) 0.0191(8) 0.0066(13) -0.0013(9) 0.0032(15)
C1 0.0231(17) 0.027(6) 0.0198(14) -0.0039(14) 0.0013(11) -0.003(2)
C2 0.0266(18) 0.022(7) 0.0156(13) 0.0002(15) 0.0014(9) 0.002(2)
C3 0.039(2) 0.044(9) 0.023(2) -0.0040(17) -0.0016(12) -0.001(2)
N1 0.0294(14) 0.041(5) 0.0145(10) -0.0025(13) 0.0011(9) 0.0001(16)
loop_
_atom_type_symbol
_atom_type_description
_atom_type_scat_dispersion_real
_atom_type_scat_dispersion_imag
_atom_type_scat_source
C C 0.0033 0.0016 'International Tables Vol C Tables 4.2.6.8 and 6.1.1.4'
H H 0.0000 0.0000 'International Tables Vol C Tables 4.2.6.8 and 6.1.1.4'
N N 0.0061 0.0033 'International Tables Vol C Tables 4.2.6.8 and 6.1.1.4'
O O 0.0106 0.0060 'International Tables Vol C Tables 4.2.6.8 and 6.1.1.4'
loop_
_geom_angle_atom_site_label_1
_geom_angle_atom_site_label_2
_geom_angle_atom_site_label_3
_geom_angle
O1 C1 O2 125.2(3)
O1 C1 C2 116.2(4)
O2 C1 C2 118.5(3)
N1 C2 C3 110.7(3)
N1 C2 C1 109.8(4)
C3 C2 C1 111.2(3)
N1 C2 H2 108.3
C3 C2 H2 108.3
C1 C2 H2 108.3
C2 C3 H3B 109.5
C2 C3 H3C 109.5
H3B C3 H3C 109.5
C2 C3 H3A 109.5
H3B C3 H3A 109.5
H3C C3 H3A 109.5
C2 N1 H1C 109.5
C2 N1 H1B 109.5
H1C N1 H1B 109.5
C2 N1 H1A 109.5
H1C N1 H1A 109.5
H1B N1 H1A 109.5
loop_
_geom_bond_atom_site_label_1
_geom_bond_atom_site_label_2
_geom_bond_distance
O2 C1 1.270(7)
O1 C1 1.253(4)
C1 C2 1.534(4)
C2 N1 1.487(5)
C2 C3 1.501(8)
C2 H2 0.9800
C3 H3B 0.9600
C3 H3C 0.9600
C3 H3A 0.9600
N1 H1C 0.8900
N1 H1B 0.8900
N1 H1A 0.8900
loop_
_geom_hbond_atom_site_label_D
_geom_hbond_atom_site_label_H
_geom_hbond_atom_site_label_A
_geom_hbond_site_symmetry_A
_geom_hbond_distance_DH
_geom_hbond_distance_HA
_geom_hbond_distance_DA
_geom_hbond_angle_DHA
N1 H1B O2 2_664 0.89 1.95 2.808(3) 161.7
N1 H1A O1 1_554 0.89 1.87 2.754(3) 171.5
N1 H1A O2 1_554 0.89 2.66 3.319(3) 132.2
N1 H1C O1 3_654 0.89 1.88 2.737(4) 160.3
loop_
_geom_torsion_atom_site_label_1
_geom_torsion_atom_site_label_2
_geom_torsion_atom_site_label_3
_geom_torsion_atom_site_label_4
_geom_torsion
O1 C1 C2 N1 -165.6(4)
O2 C1 C2 N1 13.1(5)
O1 C1 C2 C3 71.6(4)
O2 C1 C2 C3 -109.8(5)
loop_
_cod_related_entry_id
_cod_related_entry_database
_cod_related_entry_code
1 ChemSpider 582
