#------------------------------------------------------------------------------
#$Date: 2016-02-20 02:53:41 +0200 (Sat, 20 Feb 2016) $
#$Revision: 176768 $
#$URL: svn://www.crystallography.net/cod/cif/2/10/57/2105738.cif $
#------------------------------------------------------------------------------
#
# This file is available in the Crystallography Open Database (COD),
# http://www.crystallography.net/
#
# All data on this site have been placed in the public domain by the
# contributors.
#
data_2105738
loop_
_publ_author_name
'Durka, Krzysztof'
'Luli\'nski, Sergiusz'
'Jarzembska, Katarzyna N.'
'Smetek, Jaromir'
'Serwatowski, Janusz'
'Wo\'zniak, Krzysztof'
_publ_section_title
;
 Competition between hydrogen and halogen bonding in the structures of
 5,10-dihydroxy-5,10-dihydroboranthrenes
;
_journal_coeditor_code           BI5017
_journal_issue                   1
_journal_name_full               'Acta Crystallographica Section B'
_journal_page_first              157
_journal_page_last               171
_journal_paper_doi               10.1107/S2052520613034987
_journal_volume                  70
_journal_year                    2014
_chemical_formula_moiety         'C12 H8 B2 Cl2 O2'
_chemical_formula_sum            'C12 H8 B2 Cl2 O2'
_chemical_formula_weight         276.70
_space_group_crystal_system      monoclinic
_space_group_IT_number           14
_space_group_name_Hall           '-P 2yn'
_space_group_name_H-M_alt        'P 1 21/n 1'
_symmetry_space_group_name_Hall  '-P 2yn'
_symmetry_space_group_name_H-M   'P 1 21/n 1'
_atom_sites_solution_hydrogens   geom
_audit_creation_method           SHELXL-2013
_cell_angle_alpha                90
_cell_angle_beta                 97.543(14)
_cell_angle_gamma                90
_cell_formula_units_Z            2
_cell_length_a                   7.3645(10)
_cell_length_b                   3.8696(6)
_cell_length_c                   20.125(3)
_cell_measurement_reflns_used    1683
_cell_measurement_temperature    100(2)
_cell_measurement_theta_max      32.1156
_cell_measurement_theta_min      2.0375
_cell_volume                     568.55(15)
_computing_cell_refinement       CrysAlisPro
_computing_data_collection       'CrysAlisPro (Agilent, 2011)'
_computing_data_reduction        CrysAlisPro
_computing_molecular_graphics    'SHELXTL (Bruker, 2011)'
_computing_publication_material  SHELXL-2013
_computing_structure_refinement  SHELXL-2013
_computing_structure_solution    'SHELXS-2013 (Sheldrick, 2008)'
_diffrn_ambient_temperature      100(2)
_diffrn_measured_fraction_theta_full 1.000
_diffrn_measured_fraction_theta_max 0.954
_diffrn_measurement_device_type  'KUMA KM4 CCD'
_diffrn_measurement_method       '\w scans'
_diffrn_radiation_monochromator  graphite
_diffrn_radiation_source         'fine-focus sealed tube'
_diffrn_radiation_type           MoK\a
_diffrn_radiation_wavelength     0.71073
_diffrn_reflns_av_R_equivalents  0.1092
_diffrn_reflns_limit_h_max       11
_diffrn_reflns_limit_h_min       -10
_diffrn_reflns_limit_k_max       5
_diffrn_reflns_limit_k_min       -5
_diffrn_reflns_limit_l_max       29
_diffrn_reflns_limit_l_min       -29
_diffrn_reflns_number            8905
_diffrn_reflns_theta_full        25.242
_diffrn_reflns_theta_max         32.188
_diffrn_reflns_theta_min         2.042
_diffrn_standards_number         0
_exptl_absorpt_coefficient_mu    0.555
_exptl_absorpt_correction_T_max  1.000
_exptl_absorpt_correction_T_min  0.421
_exptl_absorpt_correction_type   multi-scan
_exptl_absorpt_process_details   'CrysAlisPro (Agilent, 2011)'
_exptl_crystal_colour            colourless
_exptl_crystal_density_diffrn    1.616
_exptl_crystal_description       block
_exptl_crystal_F_000             280
_exptl_crystal_size_max          0.15
_exptl_crystal_size_mid          0.14
_exptl_crystal_size_min          0.13
_refine_diff_density_max         0.268
_refine_diff_density_min         -0.296
_refine_ls_extinction_method     none
_refine_ls_goodness_of_fit_ref   0.992
_refine_ls_hydrogen_treatment    constr
_refine_ls_matrix_type           full
_refine_ls_number_parameters     164
_refine_ls_number_reflns         1906
_refine_ls_number_restraints     12
_refine_ls_restrained_S_all      0.991
_refine_ls_R_factor_all          0.1405
_refine_ls_R_factor_gt           0.0644
_refine_ls_shift/su_max          0.000
_refine_ls_shift/su_mean         0.000
_refine_ls_structure_factor_coef Fsqd
_refine_ls_weighting_details
'w=1/[\s^2^(Fo^2^)+(0.0509P)^2^] where P=(Fo^2^+2Fc^2^)/3'
_refine_ls_weighting_scheme      calc
_refine_ls_wR_factor_gt          0.1342
_refine_ls_wR_factor_ref         0.1645
_reflns_number_gt                977
_reflns_number_total             1906
_reflns_threshold_expression     I>2\s(I)
_iucr_refine_instructions_details
;
TITL diBCl in P2(1)/n
CELL  0.71073   7.3645   3.8696  20.1248   90.000   97.543   90.000
ZERR     2.00   0.0010   0.0006   0.0030    0.000    0.014    0.000
LATT   1
SYMM  1/2 - X, 1/2 + Y, 1/2 - Z
SFAC  C    H    B    O    CL
UNIT  24   16   4    4    4
MERG   2
ISOR 0.007 C5B C5A
FMAP   2
PLAN    5
ACTA
TEMP -173
BOND   $H
LIST   4
L.S.  14
TEMP  -173.00
WGHT    0.050900
FVAR       0.70180   0.62017
PART    1
CL1A  5    0.834368    0.681040    0.188836    21.00000    0.03955    0.03631 =
         0.02401   -0.00046    0.01857    0.00219
O1A   4    1.316929    0.667586   -0.059498    21.00000    0.02346    0.04956 =
         0.02745   -0.00347    0.01486   -0.00551
AFIX  83
H1A   2    1.325982    0.547372   -0.093663    21.00000   -1.50000
AFIX   0
C1A   1    1.158385    0.683367    0.041853    21.00000    0.02270    0.01969 =
         0.01603    0.00263    0.00325    0.00120
C2A   1    1.002735    0.619282    0.074718    21.00000    0.01869    0.02527 =
         0.01608    0.00600    0.00829    0.00509
B1A   3    1.164329    0.574003   -0.032986    21.00000    0.01265    0.02581 =
         0.01909    0.00326    0.00403    0.00125
C3A   1    1.017319    0.734544    0.140865    21.00000    0.02790    0.02509 =
         0.01946    0.00674    0.00661    0.00481
C4A   1    1.170285    0.898315    0.175129    21.00000    0.03994    0.02657 =
         0.01652    0.00010    0.00004    0.00281
AFIX  43
H4A   2    1.171982    0.969456    0.220386    21.00000   -1.20000
AFIX   0
C5A   1    1.320975    0.954870    0.141054    21.00000    0.03679    0.02631 =
         0.03724    0.00099    0.00233    0.00705
AFIX  43
H5A   2    1.427090    1.067359    0.162842    21.00000   -1.20000
AFIX   0
C6A   1    1.314564    0.845730    0.075253    21.00000    0.01698    0.02901 =
         0.02688    0.00115    0.00251   -0.00268
AFIX  43
H6A   2    1.417830    0.881497    0.052327    21.00000   -1.20000
AFIX   0
PART    2
C5B   1    0.867151    0.687575    0.175437   -21.00000    0.03508    0.03334 =
         0.03152    0.00205    0.02045    0.00541
AFIX  43
H5B   2    0.794970    0.692217    0.211236   -21.00000   -1.20000
AFIX   0
CL1B  5    1.368949    0.958785    0.150531   -21.00000    0.03674    0.04016 =
         0.03020    0.00311    0.00226   -0.00514
C3B   1    1.144700    0.807148    0.133110   -21.00000    0.02376    0.02842 =
         0.04113    0.01404    0.00730    0.00303
C1B   1    1.099941    0.476597   -0.060401   -21.00000    0.00763    0.03441 =
         0.01699    0.01098    0.00604    0.00431
O1B   4    1.347490    0.817672    0.001224   -21.00000    0.03138    0.06544 =
         0.02841    0.00522    0.00814   -0.02087
AFIX  83
H1B   2    1.389685    0.900664    0.038651   -21.00000   -1.50000
AFIX   0
C2B   1    1.079008    0.661720    0.069196   -21.00000    0.02664    0.02031 =
         0.01620    0.00234    0.01227   -0.00093
C4B   1    1.040332    0.824209    0.184054   -21.00000    0.03392    0.02813 =
         0.02655    0.00692    0.00545    0.00379
AFIX  43
H4B   2    1.087268    0.930202    0.225335   -21.00000   -1.20000
AFIX   0
B1B   3    1.183388    0.653126    0.006358   -21.00000    0.01977    0.02682 =
         0.01666    0.00264   -0.00250    0.00010
C6B   1    1.202138    0.456609   -0.114731   -21.00000    0.01987    0.03425 =
         0.03022    0.00232    0.01567    0.00474
AFIX  43
H6B   2    1.323358    0.545833   -0.109340   -21.00000   -1.20000
AFIX   0
HKLF 4
REM  diBCl in P2(1)/n
REM R1 =  0.0644 for     977 Fo > 4sig(Fo)  and  0.1405 for all    1906 data
REM    164 parameters refined using     12 restraints
END
WGHT      0.0493      0.0000
REM Highest difference peak  0.268,  deepest hole -0.296,  1-sigma level  0.072
Q1    1   1.1259  1.0878  0.2080  11.00000  0.05    0.27
Q2    1   1.1419  0.7962 -0.1602  11.00000  0.05    0.26
Q3    1   1.2012  0.8575 -0.1028  11.00000  0.05    0.24
Q4    1   1.0999  0.3337 -0.0444  11.00000  0.05    0.24
Q5    1   0.8421  0.9796  0.1900  11.00000  0.05    0.23
;
_cod_data_source_file            bi5017sup1.cif
_cod_data_source_block           III
_cod_database_code               2105738
_cod_database_fobs_code          2105738
#BEGIN Tags that were not found in dictionaries:
_shelx_space_group_comment
;
The symmetry employed for this shelxl refinement is uniquely defined
by the following loop, which should always be used as a source of
symmetry information in preference to the above space-group names.
They are only intended as comments.
;
#END Tags that were not found in dictionaries
loop_
_space_group_symop_operation_xyz
'x, y, z'
'-x+1/2, y+1/2, -z+1/2'
'-x, -y, -z'
'x-1/2, -y-1/2, z-1/2'
loop_
_atom_site_type_symbol
_atom_site_label
_atom_site_fract_x
_atom_site_fract_y
_atom_site_fract_z
_atom_site_U_iso_or_equiv
_atom_site_adp_type
_atom_site_calc_flag
_atom_site_occupancy
_atom_site_disorder_assembly
_atom_site_disorder_group
Cl Cl1A 0.8344(4) 0.6810(8) 0.18884(12) 0.0320(5) Uani d 0.620(3) A 1
O O1A 1.3169(4) 0.6676(8) -0.05950(15) 0.0325(8) Uani d 0.620(3) A 1
H H1A 1.3260 0.5474 -0.0937 0.049 Uiso calc 0.620(3) A 1
B B1A 1.1643(9) 0.5740(15) -0.0330(4) 0.0190(10) Uani d 0.620(3) A 1
C C1A 1.1584(7) 0.6834(11) 0.0419(3) 0.0194(8) Uani d 0.620(3) A 1
C C2A 1.0027(10) 0.6193(15) 0.0747(3) 0.0195(11) Uani d 0.620(3) A 1
C C3A 1.0173(7) 0.7345(10) 0.1409(2) 0.0238(9) Uani d 0.620(3) A 1
C C4A 1.1703(7) 0.8983(11) 0.1751(3) 0.0280(11) Uani d 0.620(3) A 1
H H4A 1.1720 0.9695 0.2204 0.034 Uiso calc 0.620(3) A 1
C C5A 1.3210(16) 0.955(4) 0.1411(7) 0.034(3) Uani d 0.620(3) A 1
H H5A 1.4271 1.0674 0.1628 0.040 Uiso calc 0.620(3) A 1
C C6A 1.3146(5) 0.8457(10) 0.0753(2) 0.0243(9) Uani d 0.620(3) A 1
H H6A 1.4178 0.8815 0.0523 0.029 Uiso calc 0.620(3) A 1
Cl Cl1B 1.3689(7) 0.9588(19) 0.1505(3) 0.0359(10) Uani d 0.380(3) A 2
O O1B 1.3475(7) 0.8177(15) 0.0012(3) 0.0414(16) Uani d 0.380(3) A 2
H H1B 1.3897 0.9007 0.0387 0.062 Uiso calc 0.380(3) A 2
B B1B 1.1834(12) 0.653(2) 0.0064(7) 0.0215(16) Uani d 0.380(3) A 2
C C1B 1.0999(14) 0.477(2) -0.0604(5) 0.0193(15) Uani d 0.380(3) A 2
C C2B 1.0790(18) 0.662(2) 0.0692(4) 0.0202(18) Uani d 0.380(3) A 2
C C3B 1.1447(11) 0.807(2) 0.1331(5) 0.0308(17) Uani d 0.380(3) A 2
C C4B 1.0403(11) 0.8242(19) 0.1841(4) 0.0294(16) Uani d 0.380(3) A 2
H H4B 1.0873 0.9302 0.2253 0.035 Uiso calc 0.380(3) A 2
C C5B 0.867(2) 0.688(5) 0.1754(8) 0.032(4) Uani d 0.380(3) A 2
H H5B 0.7950 0.6922 0.2112 0.038 Uiso calc 0.380(3) A 2
C C6B 1.2021(10) 0.4566(18) -0.1147(4) 0.0270(16) Uani d 0.380(3) A 2
H H6B 1.3234 0.5458 -0.1093 0.032 Uiso calc 0.380(3) A 2
loop_
_atom_site_aniso_label
_atom_site_aniso_U_11
_atom_site_aniso_U_22
_atom_site_aniso_U_33
_atom_site_aniso_U_12
_atom_site_aniso_U_13
_atom_site_aniso_U_23
Cl1A 0.0395(10) 0.0363(8) 0.0240(9) 0.0022(7) 0.0186(7) -0.0005(6)
O1A 0.0235(16) 0.0496(19) 0.0275(18) -0.0055(14) 0.0149(13) -0.0035(14)
B1A 0.013(3) 0.026(3) 0.019(4) 0.001(2) 0.004(2) 0.003(2)
C1A 0.023(3) 0.020(2) 0.016(3) 0.0012(17) 0.003(2) 0.003(2)
C2A 0.019(3) 0.025(3) 0.016(2) 0.005(3) 0.008(3) 0.006(2)
C3A 0.028(2) 0.025(2) 0.019(2) 0.0048(17) 0.0066(18) 0.0067(17)
C4A 0.040(3) 0.027(2) 0.017(2) 0.003(2) 0.000(2) 0.0001(18)
C5A 0.037(6) 0.026(3) 0.037(5) 0.007(4) 0.002(4) 0.001(3)
C6A 0.0170(19) 0.029(2) 0.027(2) -0.0027(16) 0.0025(16) 0.0012(17)
Cl1B 0.037(2) 0.0402(15) 0.0302(17) -0.0051(17) 0.0023(15) 0.0031(12)
O1B 0.031(3) 0.065(4) 0.028(3) -0.021(3) 0.008(2) 0.005(3)
B1B 0.020(4) 0.027(4) 0.017(5) 0.000(3) -0.002(5) 0.003(4)
C1B 0.008(4) 0.034(4) 0.017(5) 0.004(3) 0.006(3) 0.011(3)
C2B 0.027(6) 0.020(4) 0.016(5) -0.001(4) 0.012(5) 0.002(3)
C3B 0.024(4) 0.028(4) 0.041(5) 0.003(3) 0.007(4) 0.014(4)
C4B 0.034(5) 0.028(4) 0.027(4) 0.004(3) 0.005(3) 0.007(3)
C5B 0.035(6) 0.033(5) 0.032(7) 0.005(4) 0.020(4) 0.002(5)
C6B 0.020(3) 0.034(4) 0.030(4) 0.005(3) 0.016(3) 0.002(3)
loop_
_atom_type_symbol
_atom_type_description
_atom_type_scat_dispersion_real
_atom_type_scat_dispersion_imag
_atom_type_scat_source
C C 0.0033 0.0016 'International Tables Vol C Tables 4.2.6.8 and 6.1.1.4'
H H 0.0000 0.0000 'International Tables Vol C Tables 4.2.6.8 and 6.1.1.4'
B B 0.0013 0.0007 'International Tables Vol C Tables 4.2.6.8 and 6.1.1.4'
O O 0.0106 0.0060 'International Tables Vol C Tables 4.2.6.8 and 6.1.1.4'
Cl Cl 0.1484 0.1585 'International Tables Vol C Tables 4.2.6.8 and 6.1.1.4'
loop_
_geom_angle_atom_site_label_1
_geom_angle_atom_site_label_2
_geom_angle_atom_site_label_3
_geom_angle_site_symmetry_1
_geom_angle_site_symmetry_3
_geom_angle
B1A O1A H1A . . 109.5
C6A C1A C2A . . 121.1(6)
C6A C1A B1A . . 117.1(6)
C2A C1A B1A . . 121.7(4)
C3A C2A C1A . . 115.1(6)
C3A C2A B1A . 3_765 127.9(7)
C1A C2A B1A . 3_765 117.0(5)
O1A B1A C1A . . 115.8(7)
O1A B1A C2A . 3_765 123.0(7)
C1A B1A C2A . 3_765 121.2(4)
C4A C3A C2A . . 125.0(6)
C4A C3A Cl1A . . 114.0(4)
C2A C3A Cl1A . . 121.0(5)
C3A C4A C5A . . 118.1(7)
C3A C4A H4A . . 120.9
C5A C4A H4A . . 120.9
C6A C5A C4A . . 119.5(9)
C6A C5A H5A . . 120.3
C4A C5A H5A . . 120.3
C5A C6A C1A . . 121.2(7)
C5A C6A H6A . . 119.4
C1A C6A H6A . . 119.4
C4B C5B C6B . 3_765 119.9(10)
C4B C5B H5B . . 120.1
C6B C5B H5B 3_765 . 120.1
C4B C3B C2B . . 122.6(9)
C4B C3B Cl1B . . 116.5(8)
C2B C3B Cl1B . . 120.9(8)
C6B C1B C2B . 3_765 117.8(10)
C6B C1B B1B . . 120.2(11)
C2B C1B B1B 3_765 . 122.0(7)
B1B O1B H1B . . 109.5
C1B C2B C3B 3_765 . 117.5(9)
C1B C2B B1B 3_765 . 116.1(8)
C3B C2B B1B . . 126.3(11)
C3B C4B C5B . . 119.6(10)
C3B C4B H4B . . 120.2
C5B C4B H4B . . 120.2
O1B B1B C1B . . 112.8(11)
O1B B1B C2B . . 125.3(12)
C1B B1B C2B . . 121.7(7)
C5B C6B C1B 3_765 . 122.5(10)
C5B C6B H6B 3_765 . 118.8
C1B C6B H6B . . 118.8
loop_
_geom_bond_atom_site_label_1
_geom_bond_atom_site_label_2
_geom_bond_site_symmetry_2
_geom_bond_distance
Cl1A C3A . 1.770(5)
O1A B1A . 1.355(6)
O1A H1A . 0.8400
C1A C6A . 1.402(6)
C1A C2A . 1.418(7)
C1A B1A . 1.571(8)
C2A C3A . 1.395(8)
C2A B1A 3_765 1.583(9)
B1A C2A 3_765 1.583(9)
C3A C4A . 1.394(7)
C4A C5A . 1.396(15)
C4A H4A . 0.9500
C5A C6A . 1.385(15)
C5A H5A . 0.9500
C6A H6A . 0.9500
C5B C4B . 1.370(19)
C5B C6B 3_765 1.379(19)
C5B H5B . 0.9500
Cl1B C3B . 1.744(10)
C3B C4B . 1.361(12)
C3B C2B . 1.429(15)
C1B C6B . 1.409(9)
C1B C2B 3_765 1.412(11)
C1B B1B . 1.560(12)
O1B B1B . 1.382(10)
O1B H1B . 0.8400
C2B C1B 3_765 1.412(11)
C2B B1B . 1.564(14)
C4B H4B . 0.9500
C6B C5B 3_765 1.379(19)
C6B H6B . 0.9500
