#------------------------------------------------------------------------------
#$Date: 2017-10-13 08:28:26 +0300 (Fri, 13 Oct 2017) $
#$Revision: 201972 $
#$URL: file:///home/coder/svn-repositories/cod/cif/2/10/52/2105247.cif $
#------------------------------------------------------------------------------
#
# This file is available in the Crystallography Open Database (COD),
# http://www.crystallography.net/. The original data for this entry
# were provided by IUCr Journals, http://journals.iucr.org/.
#
# The file may be used within the scientific community so long as
# proper attribution is given to the journal article from which the
# data were obtained.
#
data_2105247
loop_
_publ_author_name
'Briggs, Naomi E. B.'
'Kennedy, Alan R.'
'Morrison, Catriona A.'
_publ_section_title
;
 42 salt forms of tyramine: structural comparison and the occurrence of
 hydrate formation
;
_journal_issue                   4
_journal_name_full               'Acta Crystallographica Section B'
_journal_page_first              453
_journal_page_last               464
_journal_paper_doi               10.1107/S0108768112026456
_journal_volume                  68
_journal_year                    2012
_chemical_formula_sum            'C16 H19 N O4'
_chemical_formula_weight         289.32
_space_group_IT_number           4
_symmetry_cell_setting           monoclinic
_symmetry_space_group_name_Hall  'P 2yb'
_symmetry_space_group_name_H-M   'P 1 21 1'
_atom_sites_solution_hydrogens   geom
_atom_sites_solution_primary     direct
_atom_sites_solution_secondary   difmap
_audit_creation_method           SHELXL-97
_cell_angle_alpha                90.00
_cell_angle_beta                 91.246(7)
_cell_angle_gamma                90.00
_cell_formula_units_Z            2
_cell_length_a                   8.9110(7)
_cell_length_b                   8.3625(6)
_cell_length_c                   9.6575(8)
_cell_measurement_reflns_used    2132
_cell_measurement_temperature    123(2)
_cell_measurement_theta_max      28.6972
_cell_measurement_theta_min      3.0711
_cell_volume                     719.49(10)
_computing_structure_refinement  'SHELXL-97 (Sheldrick, 1997)'
_diffrn_ambient_temperature      123(2)
_diffrn_measured_fraction_theta_full 0.992
_diffrn_measured_fraction_theta_max 0.922
_diffrn_measurement_device_type  'Oxford Diffraction Xcalibur E'
_diffrn_measurement_method       'omega scans'
_diffrn_radiation_monochromator  graphite
_diffrn_radiation_source         'fine-focus sealed tube'
_diffrn_radiation_type           MoK\a
_diffrn_radiation_wavelength     0.71073
_diffrn_reflns_av_R_equivalents  0.0356
_diffrn_reflns_av_sigmaI/netI    0.1176
_diffrn_reflns_limit_h_max       11
_diffrn_reflns_limit_h_min       -11
_diffrn_reflns_limit_k_max       11
_diffrn_reflns_limit_k_min       -11
_diffrn_reflns_limit_l_max       12
_diffrn_reflns_limit_l_min       -13
_diffrn_reflns_number            6898
_diffrn_reflns_theta_full        27.00
_diffrn_reflns_theta_max         28.76
_diffrn_reflns_theta_min         3.08
_exptl_absorpt_coefficient_mu    0.096
_exptl_absorpt_correction_T_max  1.00000
_exptl_absorpt_correction_T_min  0.81559
_exptl_absorpt_correction_type   multi-scan
_exptl_absorpt_process_details
;
CrysAlisPro, Oxford Diffraction Ltd.,
Version 1.171.33.55 (release 05-01-2010 CrysAlis171 .NET)
(compiled Jan  5 2010,16:28:46)
Empirical absorption correction using spherical harmonics,
 implemented in SCALE3 ABSPACK scaling algorithm.
;
_exptl_crystal_colour            Colourless
_exptl_crystal_density_diffrn    1.335
_exptl_crystal_density_method    'not measured'
_exptl_crystal_description       Fragment
_exptl_crystal_F_000             308
_exptl_crystal_size_max          0.2
_exptl_crystal_size_mid          0.15
_exptl_crystal_size_min          0.12
_refine_diff_density_max         0.177
_refine_diff_density_min         -0.229
_refine_ls_abs_structure_details 'Flack H D (1983), Acta Cryst. A39, 876-881'
_refine_ls_abs_structure_Flack   -0.7(8)
_refine_ls_extinction_method     none
_refine_ls_goodness_of_fit_ref   0.749
_refine_ls_hydrogen_treatment    mixed
_refine_ls_matrix_type           full
_refine_ls_number_parameters     204
_refine_ls_number_reflns         3213
_refine_ls_number_restraints     1
_refine_ls_restrained_S_all      0.749
_refine_ls_R_factor_all          0.0703
_refine_ls_R_factor_gt           0.0358
_refine_ls_shift/su_max          0.000
_refine_ls_shift/su_mean         0.000
_refine_ls_structure_factor_coef Fsqd
_refine_ls_weighting_details
'calc w=1/[\s^2^(Fo^2^)+(0.0159P)^2^+0.0000P] where P=(Fo^2^+2Fc^2^)/3'
_refine_ls_weighting_scheme      calc
_refine_ls_wR_factor_gt          0.0460
_refine_ls_wR_factor_ref         0.0495
_reflns_number_gt                2006
_reflns_number_total             3213
_reflns_threshold_expression     I>2/s(I)
_cod_data_source_file            ry5045.cif
_cod_data_source_block           tyrlmd
_cod_original_sg_symbol_H-M      P21
_cod_database_code               2105247
loop_
_symmetry_equiv_pos_as_xyz
'x, y, z'
'-x, y+1/2, -z'
loop_
_atom_site_type_symbol
_atom_site_label
_atom_site_fract_x
_atom_site_fract_y
_atom_site_fract_z
_atom_site_U_iso_or_equiv
_atom_site_adp_type
_atom_site_calc_flag
_atom_site_refinement_flags
_atom_site_occupancy
_atom_site_symmetry_multiplicity
O O1 0.37429(13) 0.45997(15) 0.15428(13) 0.0205(3) Uani d . 1 1
H H1H 0.3972 0.3961 0.2184 0.031 Uiso calc R 1 1
O O2 0.51957(15) -0.15658(13) 0.38761(13) 0.0213(3) Uani d . 1 1
H H2H 0.5334 -0.2035 0.4637 0.032 Uiso calc R 1 1
O O3 0.46687(14) 0.25714(14) 0.33732(12) 0.0178(3) Uani d . 1 1
O O4 0.51154(13) 0.06600(14) 0.17975(12) 0.0180(3) Uani d . 1 1
N N1 -0.45430(18) 0.7313(2) 0.09047(19) 0.0165(4) Uani d . 1 1
C C1 -0.0893(2) 0.4912(2) 0.0981(2) 0.0171(5) Uani d . 1 1
C C2 -0.0294(2) 0.4114(2) 0.2116(2) 0.0188(5) Uani d . 1 1
H H2 -0.0948 0.3637 0.2760 0.023 Uiso calc R 1 1
C C3 0.1254(2) 0.3994(2) 0.2332(2) 0.0182(5) Uani d . 1 1
H H3 0.1651 0.3451 0.3122 0.022 Uiso calc R 1 1
C C4 0.2201(2) 0.4673(2) 0.1389(2) 0.0162(5) Uani d . 1 1
C C5 0.1623(2) 0.5471(2) 0.0238(2) 0.0181(5) Uani d . 1 1
H H5 0.2277 0.5935 -0.0414 0.022 Uiso calc R 1 1
C C6 0.0089(2) 0.5586(2) 0.0048(2) 0.0189(5) Uani d . 1 1
H H6 -0.0306 0.6138 -0.0738 0.023 Uiso calc R 1 1
C C7 -0.2565(2) 0.5172(2) 0.0788(2) 0.0210(5) Uani d . 1 1
H H7A -0.3121 0.4369 0.1328 0.025 Uiso calc R 1 1
H H7B -0.2856 0.5049 -0.0201 0.025 Uiso calc R 1 1
C C8 -0.29580(18) 0.6853(2) 0.1281(2) 0.0180(5) Uani d . 1 1
H H8A -0.2817 0.6908 0.2300 0.022 Uiso calc R 1 1
H H8B -0.2262 0.7630 0.0864 0.022 Uiso calc R 1 1
C C9 0.2707(2) -0.0333(2) 0.39909(19) 0.0168(5) Uani d . 1 1
C C10 0.2079(2) -0.1484(2) 0.31148(19) 0.0209(5) Uani d . 1 1
H H10 0.2714 -0.2212 0.2652 0.025 Uiso calc R 1 1
C C11 0.0541(2) -0.1580(2) 0.2909(2) 0.0246(5) Uani d . 1 1
H H11 0.0129 -0.2365 0.2300 0.030 Uiso calc R 1 1
C C12 -0.0401(2) -0.0539(2) 0.3585(2) 0.0229(5) Uani d . 1 1
H H12 -0.1457 -0.0605 0.3442 0.027 Uiso calc R 1 1
C C13 0.0205(2) 0.0593(2) 0.4469(2) 0.0245(5) Uani d . 1 1
H H13 -0.0437 0.1306 0.4942 0.029 Uiso calc R 1 1
C C14 0.1743(2) 0.0699(2) 0.46704(19) 0.0208(5) Uani d . 1 1
H H14 0.2148 0.1486 0.5281 0.025 Uiso calc R 1 1
C C15 0.4389(2) -0.0120(2) 0.40917(19) 0.0157(5) Uani d . 1 1
H H19 0.4667 0.0316 0.5027 0.019 Uiso calc R 1 1
C C16 0.4796(2) 0.1112(2) 0.2984(2) 0.0157(5) Uani d . 1 1
H H1N -0.525(3) 0.639(3) 0.136(2) 0.086(9) Uiso d . 1 1
H H2N -0.4658(19) 0.721(2) -0.0006(19) 0.022(6) Uiso d . 1 1
H H3N -0.477(2) 0.830(2) 0.127(2) 0.044(7) Uiso d . 1 1
loop_
_atom_site_aniso_label
_atom_site_aniso_U_11
_atom_site_aniso_U_22
_atom_site_aniso_U_33
_atom_site_aniso_U_12
_atom_site_aniso_U_13
_atom_site_aniso_U_23
O1 0.0170(8) 0.0222(8) 0.0223(9) 0.0006(7) -0.0022(7) 0.0092(7)
O2 0.0277(8) 0.0178(8) 0.0183(8) 0.0051(7) -0.0011(7) 0.0059(7)
O3 0.0229(8) 0.0122(7) 0.0181(8) 0.0001(6) -0.0039(6) -0.0012(6)
O4 0.0212(8) 0.0204(7) 0.0124(8) -0.0010(7) 0.0019(6) -0.0006(7)
N1 0.0173(10) 0.0188(11) 0.0134(11) 0.0032(8) 0.0006(9) 0.0013(9)
C1 0.0183(12) 0.0124(11) 0.0206(12) 0.0017(9) -0.0023(10) -0.0041(10)
C2 0.0162(13) 0.0190(12) 0.0213(12) -0.0003(9) 0.0037(10) 0.0006(10)
C3 0.0204(13) 0.0190(11) 0.0150(11) 0.0018(9) -0.0021(10) 0.0025(10)
C4 0.0113(12) 0.0168(11) 0.0204(12) 0.0014(10) 0.0000(9) -0.0052(11)
C5 0.0212(13) 0.0161(11) 0.0171(11) 0.0006(10) 0.0050(9) 0.0004(10)
C6 0.0228(12) 0.0172(11) 0.0165(11) 0.0025(10) -0.0044(9) -0.0001(11)
C7 0.0219(13) 0.0158(11) 0.0252(13) -0.0005(9) -0.0038(10) -0.0028(10)
C8 0.0121(11) 0.0190(11) 0.0226(13) 0.0000(9) -0.0024(9) -0.0003(10)
C9 0.0224(12) 0.0139(10) 0.0141(11) -0.0013(10) 0.0008(9) 0.0018(10)
C10 0.0259(13) 0.0157(11) 0.0213(12) -0.0010(10) 0.0041(10) -0.0033(11)
C11 0.0273(13) 0.0198(11) 0.0266(13) -0.0062(11) 0.0013(11) -0.0045(11)
C12 0.0215(13) 0.0218(13) 0.0253(12) -0.0044(10) -0.0013(10) 0.0055(11)
C13 0.0267(14) 0.0233(12) 0.0240(13) 0.0046(11) 0.0094(10) 0.0037(11)
C14 0.0269(13) 0.0188(11) 0.0167(12) -0.0008(10) -0.0001(10) -0.0046(11)
C15 0.0223(12) 0.0141(10) 0.0108(11) 0.0040(9) -0.0018(9) 0.0002(9)
C16 0.0060(11) 0.0215(12) 0.0193(13) -0.0025(9) -0.0043(9) 0.0027(10)
loop_
_atom_type_symbol
_atom_type_description
_atom_type_scat_dispersion_real
_atom_type_scat_dispersion_imag
_atom_type_scat_source
O O 0.0106 0.0060 'International Tables Vol C Tables 4.2.6.8 and 6.1.1.4'
N N 0.0061 0.0033 'International Tables Vol C Tables 4.2.6.8 and 6.1.1.4'
C C 0.0033 0.0016 'International Tables Vol C Tables 4.2.6.8 and 6.1.1.4'
H H 0.0000 0.0000 'International Tables Vol C Tables 4.2.6.8 and 6.1.1.4'
loop_
_geom_angle_atom_site_label_1
_geom_angle_atom_site_label_2
_geom_angle_atom_site_label_3
_geom_angle
C4 O1 H1H 109.5
C15 O2 H2H 109.5
C8 N1 H1N 105.8(12)
C8 N1 H2N 107.7(11)
H1N N1 H2N 106.2(17)
C8 N1 H3N 110.4(12)
H1N N1 H3N 109.8(15)
H2N N1 H3N 116.4(17)
C2 C1 C6 118.21(19)
C2 C1 C7 121.99(18)
C6 C1 C7 119.65(18)
C1 C2 C3 121.19(19)
C1 C2 H2 119.4
C3 C2 H2 119.4
C4 C3 C2 119.30(18)
C4 C3 H3 120.3
C2 C3 H3 120.3
C3 C4 O1 122.20(18)
C3 C4 C5 120.45(17)
O1 C4 C5 117.35(17)
C6 C5 C4 119.33(18)
C6 C5 H5 120.3
C4 C5 H5 120.3
C5 C6 C1 121.51(19)
C5 C6 H6 119.2
C1 C6 H6 119.2
C1 C7 C8 109.01(15)
C1 C7 H7A 109.9
C8 C7 H7A 109.9
C1 C7 H7B 109.9
C8 C7 H7B 109.9
H7A C7 H7B 108.3
N1 C8 C7 112.42(15)
N1 C8 H8A 109.1
C7 C8 H8A 109.1
N1 C8 H8B 109.1
C7 C8 H8B 109.1
H8A C8 H8B 107.9
C10 C9 C14 118.15(18)
C10 C9 C15 120.41(17)
C14 C9 C15 121.20(17)
C11 C10 C9 120.78(18)
C11 C10 H10 119.6
C9 C10 H10 119.6
C12 C11 C10 120.4(2)
C12 C11 H11 119.8
C10 C11 H11 119.8
C13 C12 C11 119.4(2)
C13 C12 H12 120.3
C11 C12 H12 120.3
C12 C13 C14 120.34(19)
C12 C13 H13 119.8
C14 C13 H13 119.8
C13 C14 C9 120.91(19)
C13 C14 H14 119.5
C9 C14 H14 119.5
O2 C15 C9 113.20(16)
O2 C15 C16 109.91(15)
C9 C15 C16 106.46(15)
O2 C15 H19 109.1
C9 C15 H19 109.1
C16 C15 H19 109.1
O4 C16 O3 125.59(17)
O4 C16 C15 119.98(17)
O3 C16 C15 114.25(17)
loop_
_geom_bond_atom_site_label_1
_geom_bond_atom_site_label_2
_geom_bond_distance
O1 C4 1.381(2)
O1 H1H 0.8400
O2 C15 1.4238(19)
O2 H2H 0.8400
O3 C16 1.283(2)
O4 C16 1.245(2)
N1 C8 1.501(2)
N1 H1N 1.10(3)
N1 H2N 0.887(18)
N1 H3N 0.92(2)
C1 C2 1.381(2)
C1 C6 1.389(2)
C1 C7 1.513(2)
C2 C3 1.394(2)
C2 H2 0.9500
C3 C4 1.378(2)
C3 H3 0.9500
C4 C5 1.386(2)
C5 C6 1.379(2)
C5 H5 0.9500
C6 H6 0.9500
C7 C8 1.527(2)
C7 H7A 0.9900
C7 H7B 0.9900
C8 H8A 0.9900
C8 H8B 0.9900
C9 C10 1.391(2)
C9 C14 1.392(2)
C9 C15 1.511(2)
C10 C11 1.383(2)
C10 H10 0.9500
C11 C12 1.383(2)
C11 H11 0.9500
C12 C13 1.377(3)
C12 H12 0.9500
C13 C14 1.384(2)
C13 H13 0.9500
C14 H14 0.9500
C15 C16 1.535(2)
C15 H19 1.0000
loop_
_geom_torsion_atom_site_label_1
_geom_torsion_atom_site_label_2
_geom_torsion_atom_site_label_3
_geom_torsion_atom_site_label_4
_geom_torsion
C6 C1 C2 C3 0.6(3)
C7 C1 C2 C3 -174.90(17)
C1 C2 C3 C4 -0.6(3)
C2 C3 C4 O1 179.93(17)
C2 C3 C4 C5 0.2(3)
C3 C4 C5 C6 0.3(3)
O1 C4 C5 C6 -179.47(17)
C4 C5 C6 C1 -0.3(3)
C2 C1 C6 C5 -0.1(3)
C7 C1 C6 C5 175.49(17)
C2 C1 C7 C8 98.1(2)
C6 C1 C7 C8 -77.3(2)
C1 C7 C8 N1 170.19(17)
C14 C9 C10 C11 1.0(3)
C15 C9 C10 C11 -173.42(18)
C9 C10 C11 C12 -0.6(3)
C10 C11 C12 C13 -0.1(3)
C11 C12 C13 C14 0.5(3)
C12 C13 C14 C9 -0.1(3)
C10 C9 C14 C13 -0.7(3)
C15 C9 C14 C13 173.75(18)
C10 C9 C15 O2 -31.2(2)
C14 C9 C15 O2 154.53(16)
C10 C9 C15 C16 89.7(2)
C14 C9 C15 C16 -84.6(2)
O2 C15 C16 O4 32.3(2)
C9 C15 C16 O4 -90.7(2)
O2 C15 C16 O3 -152.27(15)
C9 C15 C16 O3 84.78(19)
loop_
_cod_related_entry_id
_cod_related_entry_database
_cod_related_entry_code
1 ChemSpider 30654592
