#------------------------------------------------------------------------------
#$Date: 2016-02-20 02:53:41 +0200 (Sat, 20 Feb 2016) $
#$Revision: 176768 $
#$URL: svn://www.crystallography.net/cod/cif/2/10/58/2105866.cif $
#------------------------------------------------------------------------------
#
# This file is available in the Crystallography Open Database (COD),
# http://www.crystallography.net/. The original data for this entry
# were provided by IUCr Journals, http://journals.iucr.org/.
#
# The file may be used within the scientific community so long as
# proper attribution is given to the journal article from which the
# data were obtained.
#
data_2105866
loop_
_publ_author_name
'Patyk, Ewa'
'Marciniak, Jedrzej'
'Tomkowiak, Hanna'
'Katrusiak, Andrzej'
'Merz, Klaus'
_publ_section_title
;
 Isothermal and isochoric crystallization of highly hygroscopic pyridine
 <i>N</i>-oxide of aqueous solution
;
_journal_issue                   3
_journal_name_full               'Acta Crystallographica Section B'
_journal_page_first              487
_journal_page_last               491
_journal_paper_doi               10.1107/S2052520614011226
_journal_volume                  70
_journal_year                    2014
_chemical_formula_moiety         'C5 H5 N O'
_chemical_formula_sum            'C5 H5 N O'
_chemical_formula_weight         95.10
_chemical_melting_point          338
_chemical_name_common            Pyridine-N-oxide
_chemical_name_systematic        Pyridine-N-oxide
_space_group_IT_number           92
_symmetry_cell_setting           tetragonal
_symmetry_space_group_name_Hall  'P 4abw 2nw'
_symmetry_space_group_name_H-M   'P 41 21 2'
_atom_sites_solution_hydrogens   geom
_atom_sites_solution_primary     direct
_atom_sites_solution_secondary   difmap
_audit_creation_method           SHELXL-97
_cell_angle_alpha                90.00
_cell_angle_beta                 90.00
_cell_angle_gamma                90.00
_cell_formula_units_Z            4
_cell_length_a                   5.6608(8)
_cell_length_b                   5.6608(8)
_cell_length_c                   13.625(3)
_cell_measurement_reflns_used    1450
_cell_measurement_temperature    295(2)
_cell_measurement_theta_max      26.85
_cell_measurement_theta_min      3.90
_cell_volume                     436.61(13)
_computing_cell_refinement       'CrysAlisRED (Oxford Diffraction, 2004)'
_computing_data_collection       'CrysAlisCCD (Oxford Diffraction, 2004)'
_computing_data_reduction
'CrysAlisRED (Oxford Diffraction, 2004); REDSHABS (Katrusiak, A.  2003)'
_computing_molecular_graphics    'SHELXTL (Sheldrick, 1990)'
_computing_publication_material  'SHELXL--97 (Sheldrick, 1997)'
_computing_structure_refinement  'SHELXL--97 (Sheldrick, 1997)'
_computing_structure_solution    'SHELXS--97 (Sheldrick, 1997)'
_diffrn_ambient_temperature      295(2)
_diffrn_measured_fraction_theta_full 0.544
_diffrn_measured_fraction_theta_max 0.544
_diffrn_measurement_device_type  'KM-4 CCD'
_diffrn_measurement_method       '\f- and \w-scans'
_diffrn_radiation_monochromator  graphite
_diffrn_radiation_source         'fine-focus sealed tube'
_diffrn_radiation_type           MoK\a
_diffrn_radiation_wavelength     0.71073
_diffrn_reflns_av_R_equivalents  0.0483
_diffrn_reflns_av_sigmaI/netI    0.0318
_diffrn_reflns_limit_h_max       7
_diffrn_reflns_limit_h_min       -7
_diffrn_reflns_limit_k_max       5
_diffrn_reflns_limit_k_min       -5
_diffrn_reflns_limit_l_max       12
_diffrn_reflns_limit_l_min       -12
_diffrn_reflns_number            1450
_diffrn_reflns_theta_full        26.85
_diffrn_reflns_theta_max         26.85
_diffrn_reflns_theta_min         3.90
_diffrn_standards_decay_%        0
_diffrn_standards_interval_count 0
_diffrn_standards_number         0
_exptl_absorpt_coefficient_mu    0.103
_exptl_absorpt_correction_T_max  0.89
_exptl_absorpt_correction_T_min  0.47
_exptl_absorpt_correction_type   numerical
_exptl_absorpt_process_details
;
 Correction for absorption of the diamond-anvil cell and the sample
 were made using program REDSHABS (Katrusiak, A. (2003) REDSHABS. Adam
 Mickiewicz University Pozna\'n; Katrusiak, A. (2004) Z. Kristallogr.
 219, 461-467).
;
_exptl_crystal_colour            colourless
_exptl_crystal_density_diffrn    1.447
_exptl_crystal_density_method    'not measured'
_exptl_crystal_description       'tetragonal trapezohedron'
_exptl_crystal_F_000             200
_exptl_crystal_size_max          0.40
_exptl_crystal_size_mid          0.36
_exptl_crystal_size_min          0.15
_refine_diff_density_max         0.211
_refine_diff_density_min         -0.142
_refine_ls_abs_structure_details 'Flack H D (1983), Acta Cryst. A39, 876-881'
_refine_ls_abs_structure_Flack   5(5)
_refine_ls_extinction_coef       0.55(8)
_refine_ls_extinction_expression Fc^*^=kFc[1+0.001xFc^2^\l^3^/sin(2\q)]^-1/4^
_refine_ls_extinction_method     SHELXL
_refine_ls_goodness_of_fit_ref   1.151
_refine_ls_hydrogen_treatment    constr
_refine_ls_matrix_type           full
_refine_ls_number_parameters     35
_refine_ls_number_reflns         262
_refine_ls_number_restraints     0
_refine_ls_restrained_S_all      1.151
_refine_ls_R_factor_all          0.0530
_refine_ls_R_factor_gt           0.0425
_refine_ls_shift/su_max          0.000
_refine_ls_shift/su_mean         0.000
_refine_ls_structure_factor_coef Fsqd
_refine_ls_weighting_details
'calc w=1/[\s^2^(Fo^2^)+(0.0631P)^2^+0.0000P] where P=(Fo^2^+2Fc^2^)/3'
_refine_ls_weighting_scheme      calc
_refine_ls_wR_factor_gt          0.0970
_refine_ls_wR_factor_ref         0.1016
_reflns_number_gt                233
_reflns_number_total             262
_reflns_threshold_expression     >2sigma(I)
_cod_data_source_file            zb5041sup1.cif
_cod_data_source_block           3PNO_0.78GPa
_cod_original_cell_volume        436.61(12)
_cod_original_sg_symbol_H-M      P4(1)2(1)2
_cod_database_code               2105866
_cod_database_fobs_code          2105866
loop_
_symmetry_equiv_pos_as_xyz
'x, y, z'
'-x, -y, z+1/2'
'-y+1/2, x+1/2, z+1/4'
'y+1/2, -x+1/2, z+3/4'
'-x+1/2, y+1/2, -z+1/4'
'x+1/2, -y+1/2, -z+3/4'
'y, x, -z'
'-y, -x, -z+1/2'
loop_
_atom_site_type_symbol
_atom_site_label
_atom_site_fract_x
_atom_site_fract_y
_atom_site_fract_z
_atom_site_U_iso_or_equiv
_atom_site_adp_type
_atom_site_calc_flag
_atom_site_refinement_flags
_atom_site_occupancy
_atom_site_symmetry_multiplicity
O O1 0.1754(3) 0.1754(3) 0.0000 0.0483(10) Uani d S 1 2
N N1 0.0108(4) 0.0108(4) 0.0000 0.0335(10) Uani d S 1 2
C C1 0.0386(4) -0.1863(5) 0.0548(3) 0.0333(10) Uani d . 1 1
H H1 0.1736 -0.2047 0.0929 0.040 Uiso calc R 1 1
C C2 -0.1312(4) -0.3596(4) 0.0546(3) 0.0363(10) Uani d . 1 1
H H2 -0.1092 -0.4958 0.0916 0.044 Uiso calc R 1 1
C C3 -0.3331(4) -0.3331(4) 0.0000 0.0392(12) Uani d S 1 2
H H3 -0.4492 -0.4492 0.0000 0.047 Uiso calc SR 1 2
loop_
_atom_site_aniso_label
_atom_site_aniso_U_11
_atom_site_aniso_U_22
_atom_site_aniso_U_33
_atom_site_aniso_U_12
_atom_site_aniso_U_13
_atom_site_aniso_U_23
O1 0.0434(11) 0.0434(11) 0.058(3) -0.0134(17) 0.0009(9) -0.0009(9)
N1 0.0342(14) 0.0342(14) 0.032(3) 0.0051(15) 0.0026(10) -0.0026(10)
C1 0.0309(16) 0.0392(17) 0.030(2) 0.0111(14) -0.0033(13) -0.0004(14)
C2 0.0472(19) 0.0306(16) 0.031(3) 0.0086(17) 0.0098(14) 0.0063(11)
C3 0.0370(16) 0.0370(16) 0.044(3) -0.003(2) 0.0079(14) -0.0079(14)
loop_
_atom_type_symbol
_atom_type_description
_atom_type_scat_dispersion_real
_atom_type_scat_dispersion_imag
_atom_type_scat_source
C C 0.0033 0.0016 'International Tables Vol C Tables 4.2.6.8 and 6.1.1.4'
H H 0.0000 0.0000 'International Tables Vol C Tables 4.2.6.8 and 6.1.1.4'
N N 0.0061 0.0033 'International Tables Vol C Tables 4.2.6.8 and 6.1.1.4'
O O 0.0106 0.0060 'International Tables Vol C Tables 4.2.6.8 and 6.1.1.4'
loop_
_geom_angle_atom_site_label_1
_geom_angle_atom_site_label_2
_geom_angle_atom_site_label_3
_geom_angle_site_symmetry_1
_geom_angle_site_symmetry_3
_geom_angle
O1 N1 C1 . 7 120.10(17)
O1 N1 C1 . . 120.10(17)
C1 N1 C1 7 . 119.8(3)
N1 C1 C2 . . 120.5(3)
C3 C2 C1 . . 120.4(3)
C2 C3 C2 . 7 118.4(4)
loop_
_geom_bond_atom_site_label_1
_geom_bond_atom_site_label_2
_geom_bond_site_symmetry_2
_geom_bond_distance
O1 N1 . 1.318(4)
N1 C1 7 1.352(3)
N1 C1 . 1.352(3)
C1 C2 . 1.373(4)
C2 C3 . 1.371(3)
C3 C2 7 1.371(3)
