#------------------------------------------------------------------------------
#$Date: 2017-10-13 08:28:26 +0300 (Fri, 13 Oct 2017) $
#$Revision: 201972 $
#$URL: file:///home/coder/svn-repositories/cod/cif/2/10/51/2105149.cif $
#------------------------------------------------------------------------------
#
# This file is available in the Crystallography Open Database (COD),
# http://www.crystallography.net/. The original data for this entry
# were provided by IUCr Journals, http://journals.iucr.org/.
#
# The file may be used within the scientific community so long as
# proper attribution is given to the journal article from which the
# data were obtained.
#
data_2105149
loop_
_publ_author_name
'Tumanov, Nikolay A.'
'Boldyreva, Elena V.'
_publ_section_title
;
 X-ray diffraction and Raman study of <small>DL</small>-alanine at high
 pressure: revision of phase transitions
;
_journal_coeditor_code           GP5051
_journal_issue                   4
_journal_name_full               'Acta Crystallographica Section B'
_journal_page_first              412
_journal_page_last               423
_journal_paper_doi               10.1107/S0108768112028972
_journal_volume                  68
_journal_year                    2012
_chemical_formula_moiety         'C3 H7 N O2'
_chemical_formula_sum            'C3 H7 N O2'
_chemical_formula_weight         89.10
_chemical_name_common            DL-alanine
_chemical_name_systematic        'DL-2-Aminopropionic Acid '
_space_group_IT_number           33
_symmetry_cell_setting           orthorhombic
_symmetry_space_group_name_Hall  'P 2c -2n'
_symmetry_space_group_name_H-M   'P n a 21'
_atom_sites_solution_hydrogens   geom
_atom_sites_solution_primary     direct
_atom_sites_solution_secondary   difmap
_audit_creation_method           SHELXL-97
_cell_angle_alpha                90.00
_cell_angle_beta                 90.00
_cell_angle_gamma                90.00
_cell_formula_units_Z            4
_cell_length_a                   11.6535(18)
_cell_length_b                   5.681(3)
_cell_length_c                   5.7217(6)
_cell_measurement_reflns_used    1377
_cell_measurement_temperature    293(2)
_cell_measurement_theta_max      30.9496
_cell_measurement_theta_min      3.4895
_cell_volume                     378.8(2)
_computing_cell_refinement       'CrysAlis Pro (Oxford Diffraction Ltd, 2010)'
_computing_data_collection       'CrysAlis Pro (Oxford Diffraction Ltd, 2010)'
_computing_data_reduction        'CrysAlis Pro (Oxford Diffraction Ltd, 2010)'
_computing_molecular_graphics    'Mercury (Macrae <i>et al.</i>, 2008)'
_computing_publication_material
;
Mercury (Macrae <i>et al.</i>, 2008),
PLATON (Spek, 2009),
enCIFer (Allen <i>et al.</i>, 2004)
;
_computing_structure_refinement  'SHELXL-97 (Sheldrick, 1997)'
_computing_structure_solution    'SHELXS-97 (Sheldrick, 1990)'
_diffrn_ambient_temperature      293(2)
_diffrn_detector_area_resol_mean 10.3457
_diffrn_measured_fraction_theta_full 0.436
_diffrn_measured_fraction_theta_max 0.436
_diffrn_measurement_device_type  'Oxford Diffraction Gemini Ultra R'
_diffrn_measurement_method       \w
_diffrn_radiation_monochromator  graphite
_diffrn_radiation_type           MoK\a
_diffrn_radiation_wavelength     0.71073
_diffrn_reflns_av_R_equivalents  0.0704
_diffrn_reflns_av_sigmaI/netI    0.0512
_diffrn_reflns_limit_h_max       16
_diffrn_reflns_limit_h_min       -16
_diffrn_reflns_limit_k_max       4
_diffrn_reflns_limit_k_min       -4
_diffrn_reflns_limit_l_max       8
_diffrn_reflns_limit_l_min       -8
_diffrn_reflns_number            3073
_diffrn_reflns_theta_full        31.02
_diffrn_reflns_theta_max         31.02
_diffrn_reflns_theta_min         3.50
_exptl_absorpt_coefficient_mu    0.130
_exptl_absorpt_correction_T_max  0.478
_exptl_absorpt_correction_T_min  0.408
_exptl_absorpt_process_details
;
Absorb6.1 (R. J. Angel, 2004)
;
_exptl_crystal_colour            colorless
_exptl_crystal_density_diffrn    1.562
_exptl_crystal_density_method    'not measured'
_exptl_crystal_description       plate
_exptl_crystal_F_000             192
_exptl_crystal_size_max          0.16
_exptl_crystal_size_mid          0.10
_exptl_crystal_size_min          0.06
_refine_diff_density_max         0.134
_refine_diff_density_min         -0.138
_refine_ls_extinction_method     none
_refine_ls_goodness_of_fit_ref   1.003
_refine_ls_hydrogen_treatment    constr
_refine_ls_matrix_type           full
_refine_ls_number_parameters     57
_refine_ls_number_reflns         510
_refine_ls_number_restraints     1
_refine_ls_restrained_S_all      1.001
_refine_ls_R_factor_all          0.0562
_refine_ls_R_factor_gt           0.0374
_refine_ls_shift/su_max          0.000
_refine_ls_shift/su_mean         0.000
_refine_ls_structure_factor_coef Fsqd
_refine_ls_weighting_details
'calc w=1/[\s^2^(Fo^2^)+(0.0188P)^2^+0.0000P] where P=(Fo^2^+2Fc^2^)/3'
_refine_ls_weighting_scheme      calc
_refine_ls_wR_factor_gt          0.0543
_refine_ls_wR_factor_ref         0.0589
_reflns_number_gt                399
_reflns_number_total             510
_reflns_threshold_expression     I>2\s(I)
_iucr_refine_instructions_details
;
TITL DLALA_30KBAR_NV_OU IN PNA2(1)
CELL  0.71073 11.65351  5.68133  5.72165 90.00000 90.00000 90.00000
ZERR 4  0.00175  0.00320  0.00055  0.00000  0.00000  0.00000
LATT -1
SYMM -X, -Y, Z+ 0.50000
SYMM -X+ 0.50000, Y+ 0.50000, Z+ 0.50000
SYMM X+ 0.50000, -Y+ 0.50000, Z
SFAC C H N O
UNIT 12 28 4 8
PLAN 30
FMAP 2
L.S. 10
ACTA
CONF
BOND $H
EQIV $1 x,y,-1+z
EQIV $2 1-x,1-y,-1/2+z
EQIV $3 3/2-x,1/2+y,-1/2+z
HTAB N1 O2_$2
HTAB N1 O1_$1
HTAB N1 O2_$1
HTAB N1 O1_$3
WGHT    0.018800
FVAR       0.68466
O2    4    0.591558    0.487450    0.605614    11.00000    0.03693    0.02717 =
         0.02509   -0.00204   -0.00253    0.00311
O1    4    0.684034    0.167109    0.745626    11.00000    0.03754    0.04829 =
         0.01596    0.00862   -0.00100    0.00974
C1    1    0.644268    0.294956    0.584081    11.00000    0.01737    0.05929 =
         0.01764   -0.00607    0.00115   -0.00998
C2    1    0.662698    0.198201    0.336097    11.00000    0.02251    0.03049 =
         0.01462    0.00816   -0.00072   -0.00218
AFIX  13
H2    2    0.743596    0.154409    0.318845    11.00000   -1.20000
AFIX   0
C3    1    0.589685   -0.017273    0.290769    11.00000    0.03967    0.03468 =
         0.02104   -0.00069   -0.00263   -0.00226
AFIX 137
H3B   2    0.603786   -0.073828    0.135292    11.00000   -1.20000
H3C   2    0.510085    0.023196    0.306661    11.00000   -1.20000
H3A   2    0.608863   -0.137885    0.401596    11.00000   -1.20000
AFIX   0
N1    3    0.635246    0.379975    0.161044    11.00000    0.03073    0.04289 =
         0.01331   -0.00425    0.00141   -0.00382
AFIX 137
H1C   2    0.679980    0.504902    0.183551    11.00000   -1.20000
H1B   2    0.562038    0.422141    0.175546    11.00000   -1.20000
H1A   2    0.647141    0.322652    0.018325    11.00000   -1.20000
HKLF 4
REM  DLALA_30KBAR_NV_OU IN PNA2(1)
REM R1 =  0.0374 for    399 Fo > 4sig(Fo)  and  0.0562 for all    510 data
REM     57 parameters refined using      1 restraints
END
WGHT      0.0188      0.0000
REM Highest difference peak  0.134,  deepest hole -0.138,  1-sigma level  0.035
Q1    1   0.7188  0.6229  0.2797  11.00000  0.05    0.13
Q2    1   0.5847  0.3545 -0.1430  11.00000  0.05    0.12
Q3    1   0.7691  0.4326  0.1033  11.00000  0.05    0.12
Q4    1   0.7228  0.0447  0.6383  11.00000  0.05    0.12
Q5    1   0.5530  0.6435  0.7567  11.00000  0.05    0.12
Q6    1   0.4929  0.4999  0.3666  11.00000  0.05    0.12
Q7    1   0.5026 -0.1098  0.0586  11.00000  0.05    0.12
Q8    1   0.7400  0.1570  0.0938  11.00000  0.05    0.11
Q9    1   0.7022  0.4993  0.6017  11.00000  0.05    0.11
Q10   1   0.5209  0.4592  0.6435  11.00000  0.05    0.11
Q11   1   0.8283  0.2775  0.1414  11.00000  0.05    0.11
Q12   1   0.8575  0.2001  0.2781  11.00000  0.05    0.10
Q13   1   0.6985  0.5748  0.0719  11.00000  0.05    0.10
Q14   1   0.6955 -0.0239  0.3042  11.00000  0.05    0.09
Q15   1   0.6422  0.0563  0.6007  11.00000  0.05    0.09
Q16   1   0.6030  0.6017  0.6255  11.00000  0.05    0.09
Q17   1   0.6184 -0.0140  0.4129  11.00000  0.05    0.09
Q18   1   0.6006 -0.0591  0.6597  11.00000  0.05    0.09
Q19   1   0.5478 -0.3137  0.2748  11.00000  0.05    0.09
Q20   1   0.5371  0.6252  0.5441  11.00000  0.05    0.09
Q21   1   0.7159  0.6213  0.0297  11.00000  0.05    0.09
Q22   1   0.7587  0.3179  0.6533  11.00000  0.05    0.09
Q23   1   0.5437 -0.2197  0.1572  11.00000  0.05    0.09
Q24   1   0.5013  0.2108  0.1978  11.00000  0.05    0.09
Q25   1   0.5193  0.3901  0.3972  11.00000  0.05    0.08
Q26   1   0.5319  0.3417  0.7183  11.00000  0.05    0.08
Q27   1   0.7467  0.3660  0.7281  11.00000  0.05    0.08
Q28   1   0.5726  0.2508  0.6019  11.00000  0.05    0.08
Q29   1   0.7626  0.2257  0.3939  11.00000  0.05    0.08
Q30   1   0.7736  0.1228  0.9357  11.00000  0.05    0.08
;
_cod_data_source_file            gp5051.cif
_cod_data_source_block           dlala_30kbar
_cod_database_code               2105149
loop_
_symmetry_equiv_pos_as_xyz
'x, y, z'
'-x, -y, z+1/2'
'-x+1/2, y+1/2, z+1/2'
'x+1/2, -y+1/2, z'
loop_
_atom_site_type_symbol
_atom_site_label
_atom_site_fract_x
_atom_site_fract_y
_atom_site_fract_z
_atom_site_U_iso_or_equiv
_atom_site_adp_type
_atom_site_calc_flag
_atom_site_refinement_flags
_atom_site_occupancy
_atom_site_symmetry_multiplicity
O O2 0.59156(15) 0.4875(7) 0.6056(4) 0.0297(15) Uani d . 1 1
O O1 0.68403(12) 0.1671(6) 0.7456(3) 0.0339(13) Uani d . 1 1
C C1 0.6443(2) 0.2950(10) 0.5841(5) 0.031(2) Uani d . 1 1
C C2 0.66270(18) 0.1982(10) 0.3361(4) 0.023(2) Uani d . 1 1
H H2 0.7436 0.1544 0.3188 0.027 Uiso calc R 1 1
C C3 0.58968(19) -0.0173(12) 0.2908(5) 0.032(3) Uani d . 1 1
H H3B 0.6038 -0.0738 0.1353 0.038 Uiso calc R 1 1
H H3C 0.5101 0.0232 0.3067 0.038 Uiso calc R 1 1
H H3A 0.6089 -0.1379 0.4016 0.038 Uiso calc R 1 1
N N1 0.63525(16) 0.3800(8) 0.1610(2) 0.0290(15) Uani d . 1 1
H H1C 0.6800 0.5049 0.1836 0.035 Uiso calc R 1 1
H H1B 0.5620 0.4221 0.1755 0.035 Uiso calc R 1 1
H H1A 0.6471 0.3227 0.0183 0.035 Uiso calc R 1 1
loop_
_atom_site_aniso_label
_atom_site_aniso_U_11
_atom_site_aniso_U_22
_atom_site_aniso_U_33
_atom_site_aniso_U_12
_atom_site_aniso_U_13
_atom_site_aniso_U_23
O2 0.0369(11) 0.027(5) 0.0251(11) 0.0031(13) -0.0025(9) -0.0020(13)
O1 0.0375(10) 0.048(4) 0.0160(7) 0.0097(12) -0.0010(8) 0.0086(15)
C1 0.0174(15) 0.059(8) 0.0176(13) -0.0100(16) 0.0011(10) -0.006(3)
C2 0.0225(14) 0.030(7) 0.0146(12) -0.0022(16) -0.0007(8) 0.008(2)
C3 0.0397(15) 0.035(9) 0.0210(16) -0.0023(18) -0.0026(10) -0.0007(19)
N1 0.0307(12) 0.043(5) 0.0133(9) -0.0038(13) 0.0014(8) -0.0042(18)
loop_
_atom_type_symbol
_atom_type_description
_atom_type_scat_dispersion_real
_atom_type_scat_dispersion_imag
_atom_type_scat_source
C C 0.0033 0.0016 'International Tables Vol C Tables 4.2.6.8 and 6.1.1.4'
H H 0.0000 0.0000 'International Tables Vol C Tables 4.2.6.8 and 6.1.1.4'
N N 0.0061 0.0033 'International Tables Vol C Tables 4.2.6.8 and 6.1.1.4'
O O 0.0106 0.0060 'International Tables Vol C Tables 4.2.6.8 and 6.1.1.4'
loop_
_geom_angle_atom_site_label_1
_geom_angle_atom_site_label_2
_geom_angle_atom_site_label_3
_geom_angle
O2 C1 O1 127.3(3)
O2 C1 C2 118.0(3)
O1 C1 C2 114.7(4)
N1 C2 C3 109.2(3)
N1 C2 C1 110.3(4)
C3 C2 C1 111.7(3)
N1 C2 H2 108.6
C3 C2 H2 108.6
C1 C2 H2 108.6
C2 C3 H3B 109.5
C2 C3 H3C 109.5
H3B C3 H3C 109.5
C2 C3 H3A 109.5
H3B C3 H3A 109.5
H3C C3 H3A 109.5
C2 N1 H1C 109.5
C2 N1 H1B 109.5
H1C N1 H1B 109.5
C2 N1 H1A 109.5
H1C N1 H1A 109.5
H1B N1 H1A 109.5
loop_
_geom_bond_atom_site_label_1
_geom_bond_atom_site_label_2
_geom_bond_distance
O2 C1 1.260(6)
O1 C1 1.264(5)
C1 C2 1.537(4)
C2 N1 1.474(6)
C2 C3 1.513(8)
C2 H2 0.9800
C3 H3B 0.9600
C3 H3C 0.9600
C3 H3A 0.9600
N1 H1C 0.8900
N1 H1B 0.8900
N1 H1A 0.8900
loop_
_geom_hbond_atom_site_label_D
_geom_hbond_atom_site_label_H
_geom_hbond_atom_site_label_A
_geom_hbond_site_symmetry_A
_geom_hbond_distance_DH
_geom_hbond_distance_HA
_geom_hbond_distance_DA
_geom_hbond_angle_DHA
N1 H1B O2 2_664 0.89 1.90 2.767(3) 162.5
N1 H1A O1 1_554 0.89 1.84 2.727(3) 171.1
N1 H1A O2 1_554 0.89 2.62 3.276(3) 131.1
N1 H1C O1 3_654 0.89 1.87 2.708(4) 156.7
loop_
_geom_torsion_atom_site_label_1
_geom_torsion_atom_site_label_2
_geom_torsion_atom_site_label_3
_geom_torsion_atom_site_label_4
_geom_torsion
O2 C1 C2 N1 12.2(4)
O1 C1 C2 N1 -168.4(4)
O2 C1 C2 C3 -109.3(5)
O1 C1 C2 C3 70.1(4)
loop_
_cod_related_entry_id
_cod_related_entry_database
_cod_related_entry_code
1 ChemSpider 582
