#------------------------------------------------------------------------------
#$Date: 2017-10-13 08:28:26 +0300 (Fri, 13 Oct 2017) $
#$Revision: 201972 $
#$URL: file:///home/coder/svn-repositories/cod/cif/2/10/51/2105100.cif $
#------------------------------------------------------------------------------
#
# This file is available in the Crystallography Open Database (COD),
# http://www.crystallography.net/. The original data for this entry
# were provided by IUCr Journals, http://journals.iucr.org/.
#
# The file may be used within the scientific community so long as
# proper attribution is given to the journal article from which the
# data were obtained.
#
data_2105100
loop_
_publ_author_name
'Zakharov, Boris A.'
'Kolesov, Boris A.'
'Boldyreva, Elena V.'
_publ_section_title
;
 Effect of pressure on crystalline <small>L</small>- and
 <small>DL</small>-serine: revisited by a combined single-crystal X-ray
 diffraction at a laboratory source and polarized Raman spectroscopy study
;
_journal_coeditor_code           GP5049
_journal_issue                   3
_journal_name_full               'Acta Crystallographica Section B'
_journal_page_first              275
_journal_page_last               286
_journal_paper_doi               10.1107/S0108768112015960
_journal_volume                  68
_journal_year                    2012
_chemical_formula_moiety         'C3 H7 N O3'
_chemical_formula_sum            'C3 H7 N O3'
_chemical_formula_weight         105.10
_chemical_melting_point          501
_chemical_name_common            DL-serine
_chemical_name_systematic
;
2-amino-3-hydroxypropanoic acid
;
_space_group_IT_number           14
_symmetry_cell_setting           monoclinic
_symmetry_space_group_name_Hall  '-P 2yn'
_symmetry_space_group_name_H-M   'P 1 21/n 1'
_atom_sites_solution_hydrogens   geom
_atom_sites_solution_primary     direct
_atom_sites_solution_secondary   difmap
_audit_creation_method           SHELXL-97
_cell_angle_alpha                90.00
_cell_angle_beta                 102.14(4)
_cell_angle_gamma                90.00
_cell_formula_units_Z            4
_cell_length_a                   4.7926(5)
_cell_length_b                   8.7932(5)
_cell_length_c                   9.907(9)
_cell_measurement_reflns_used    1979
_cell_measurement_temperature    293(2)
_cell_measurement_theta_max      30.8029
_cell_measurement_theta_min      2.3115
_cell_volume                     408.2(4)
_computing_cell_refinement
;
CrysAlisPro, Oxford Diffraction Ltd.,
Version 1.171.34.44 (release 25-10-2010 CrysAlis171 .NET)
(compiled Oct 25 2010,18:11:34)
;
_computing_data_collection
;
CrysAlisPro, Oxford Diffraction Ltd.,
Version 1.171.34.44 (release 25-10-2010 CrysAlis171 .NET)
(compiled Oct 25 2010,18:11:34)
;
_computing_data_reduction
;
CrysAlisPro, Oxford Diffraction Ltd.,
Version 1.171.34.44 (release 25-10-2010 CrysAlis171 .NET)
(compiled Oct 25 2010,18:11:34)
;
_computing_molecular_graphics    'Mercury (Macrae <i>et al.</i>, 2006)'
_computing_publication_material
;
Mercury (Macrae et al., 2006),
PLATON (Spek, 2009),
enCIFer (Allen et al., 2004)
;
_computing_structure_refinement  'SHELXL-97 (Sheldrick, 2008)'
_computing_structure_solution    'SHELXS-97 (Sheldrick, 2008)'
_diffrn_ambient_temperature      293(2)
_diffrn_detector_area_resol_mean 10.3457
_diffrn_measured_fraction_theta_full 0.307
_diffrn_measured_fraction_theta_max 0.307
_diffrn_measurement_device_type  'Xcalibur, Ruby, Gemini ultra'
_diffrn_measurement_method       'rotation method'
_diffrn_radiation_monochromator  graphite
_diffrn_radiation_source         'Enhance (Mo) X-ray Source'
_diffrn_radiation_type           MoK\a
_diffrn_radiation_wavelength     0.71073
_diffrn_reflns_av_R_equivalents  0.0490
_diffrn_reflns_av_sigmaI/netI    0.0282
_diffrn_reflns_limit_h_max       6
_diffrn_reflns_limit_h_min       -6
_diffrn_reflns_limit_k_max       12
_diffrn_reflns_limit_k_min       -12
_diffrn_reflns_limit_l_max       5
_diffrn_reflns_limit_l_min       -5
_diffrn_reflns_number            3895
_diffrn_reflns_theta_full        30.67
_diffrn_reflns_theta_max         30.67
_diffrn_reflns_theta_min         4.42
_exptl_absorpt_coefficient_mu    0.153
_exptl_absorpt_correction_T_max  0.474
_exptl_absorpt_correction_T_min  0.394
_exptl_absorpt_correction_type   gaussian
_exptl_absorpt_process_details
;
Absorb Angel (2004) J. Appl. Cryst. 37:486-492
;
_exptl_crystal_colour            colourless
_exptl_crystal_density_diffrn    1.710
_exptl_crystal_density_method    'not measured'
_exptl_crystal_description       prism
_exptl_crystal_F_000             224
_exptl_crystal_size_max          0.25
_exptl_crystal_size_mid          0.15
_exptl_crystal_size_min          0.07
_refine_diff_density_max         0.125
_refine_diff_density_min         -0.111
_refine_ls_extinction_method     none
_refine_ls_goodness_of_fit_ref   1.089
_refine_ls_hydrogen_treatment    constr
_refine_ls_matrix_type           full
_refine_ls_number_parameters     66
_refine_ls_number_reflns         389
_refine_ls_number_restraints     55
_refine_ls_restrained_S_all      1.013
_refine_ls_R_factor_all          0.0429
_refine_ls_R_factor_gt           0.0306
_refine_ls_shift/su_max          0.000
_refine_ls_shift/su_mean         0.000
_refine_ls_structure_factor_coef Fsqd
_refine_ls_weighting_details
'calc w=1/[\s^2^(Fo^2^)+(0.0368P)^2^+0.0480P] where P=(Fo^2^+2Fc^2^)/3'
_refine_ls_weighting_scheme      calc
_refine_ls_wR_factor_gt          0.0674
_refine_ls_wR_factor_ref         0.0733
_reflns_number_gt                329
_reflns_number_total             389
_reflns_threshold_expression     >2sigma(I)
_iucr_refine_instructions_details
;
TITL
CELL  0.71073  4.79261  8.79320  9.90674 90.00000 102.14490 90.00000
ZERR 4  0.00050  0.00051  0.00936  0.00000  0.03630  0.00000
LATT 1
SYMM -X+ 0.50000, Y+ 0.50000, -Z+ 0.50000
SFAC C H N O
UNIT 12 28 4 12
PLAN 30
FMAP 2
L.S. 20
EQIV $1 1/2+X,1/2-Y,1/2+Z
EQIV $2 1/2-X,-1/2+Y,1/2-Z
EQIV $3 3/2-X,-1/2+Y,1/2-Z
HTAB N1 O2_$1
HTAB N1 O3_$2
HTAB N1 O3_$3
HTAB O2 O1_$2
BOND $H
BOND
CONF
DELU
SIMU
ISOR 0.01 C1
ACTA
WGHT    0.036800    0.048000
FVAR       7.16173
O1    4    0.259721    0.379068    0.332337    11.00000    0.02166    0.02314 =
         0.02982    0.00081    0.01337    0.00185
O2    4    0.326274    0.140768    0.055089    11.00000    0.03155    0.01923 =
         0.02342    0.00451   -0.00584   -0.00410
AFIX 147
H2    2    0.289208    0.061491    0.091222    11.00000   -1.20000
AFIX   0
N1    3    0.612174    0.149573    0.360324    11.00000    0.01809    0.01896 =
         0.01812   -0.00612    0.00116    0.00127
AFIX 137
H1A   2    0.440673    0.106100    0.341164    11.00000   -1.20000
H1B   2    0.635064    0.198609    0.440496    11.00000   -1.20000
H1C   2    0.746191    0.078422    0.365900    11.00000   -1.20000
AFIX   0
O3    4    0.396335    0.481550    0.151654    11.00000    0.02452    0.02048 =
         0.01962    0.00533    0.00453    0.00151
C1    1    0.636534    0.259050    0.249186    11.00000    0.01356    0.01717 =
         0.03016   -0.00414    0.00497   -0.00120
AFIX  13
H1    2    0.824958    0.307075    0.273587    11.00000   -1.20000
AFIX   0
C2    1    0.410035    0.383906    0.243334    11.00000    0.01369    0.01548 =
         0.02382   -0.00736    0.00203   -0.00463
C3    1    0.611633    0.186001    0.114607    11.00000    0.02296    0.02128 =
         0.02684    0.00031    0.00451    0.00392
AFIX  23
H3A   2    0.677621    0.255954    0.052346    11.00000   -1.20000
H3B   2    0.734363    0.097196    0.124920    11.00000   -1.20000
HKLF 4
REM
REM R1 =  0.0306 for    329 Fo > 4sig(Fo)  and  0.0429 for all    389 data
REM     66 parameters refined using     55 restraints
END
WGHT      0.0368      0.0480
REM Highest difference peak  0.125,  deepest hole -0.111,  1-sigma level  0.030
Q1    1   0.5355  0.3207  0.2708  11.00000  0.05    0.12
Q2    1   0.2488  0.2639  0.3050  11.00000  0.05    0.10
Q3    1   0.1491  0.5220  0.0419  11.00000  0.05    0.09
Q4    1   0.1731  0.5182  0.0770  11.00000  0.05    0.09
Q5    1   0.8200  0.1435  0.0392  11.00000  0.05    0.09
Q6    1   0.4620  0.0006  0.3398  11.00000  0.05    0.09
Q7    1   0.8204  0.1555  0.0042  11.00000  0.05    0.09
Q8    1   0.3254  0.0736  0.3238  11.00000  0.05    0.08
Q9    1   0.3473  0.3704  0.3270  11.00000  0.05    0.08
Q10   1   0.9607  0.4010  0.1879  11.00000  0.05    0.08
Q11   1   0.1799  0.1433  0.1869  11.00000  0.05    0.08
Q12   1   0.3506  0.0799  0.3570  11.00000  0.05    0.08
Q13   1   0.3824 -0.0049  0.0212  11.00000  0.05    0.08
Q14   1   0.6800  0.0556  0.4676  11.00000  0.05    0.08
Q15   1   0.4971  0.0630  0.4937  11.00000  0.05    0.07
Q16   1   0.0760  0.4432  0.3275  11.00000  0.05    0.07
Q17   1   0.4981  0.1519  0.1298  11.00000  0.05    0.07
Q18   1   0.3663  0.4943  0.0541  11.00000  0.05    0.07
Q19   1   0.8338  0.3871  0.2117  11.00000  0.05    0.07
Q20   1   0.6853  0.2388  0.4216  11.00000  0.05    0.07
Q21   1   0.6498 -0.0599  0.4395  11.00000  0.05    0.07
Q22   1   0.3983 -0.0169  0.2609  11.00000  0.05    0.07
Q23   1   0.8542  0.3882  0.2508  11.00000  0.05    0.07
Q24   1   0.6106 -0.0811  0.3751  11.00000  0.05    0.07
Q25   1   0.7042  0.2447  0.4569  11.00000  0.05    0.07
Q26   1   0.5748  0.2805  0.0187  11.00000  0.05    0.07
Q27   1   0.6150  0.2068 -0.0765  11.00000  0.05    0.07
Q28   1   0.7431  0.3450  0.3647  11.00000  0.05    0.07
Q29   1   0.3860  0.4921  0.0913  11.00000  0.05    0.07
Q30   1   0.0824  0.2717  0.3601  11.00000  0.05    0.07
;
_cod_data_source_file            gp5049.cif
_cod_data_source_block           DL-serine2.5GPa
_cod_depositor_comments
;
The following automatic conversions were performed:

'_exptl_absorpt_correction_type' value 'GAUSSIAN' changed to
'gaussian' according to
/home/saulius/struct/CIF-dictionaries/cif_core.dic dictionary named
'cif_core.dic' version 2.4.1 from 2010-06-29.

Automatic conversion script
Id: cif_fix_values 1891 2012-01-12 08:04:46Z andrius 
;
_cod_original_cell_volume        408.1(4)
_cod_original_sg_symbol_H-M      P21/n
_cod_database_code               2105100
_cod_database_fobs_code          2105100
loop_
_symmetry_equiv_pos_as_xyz
'x, y, z'
'-x+1/2, y+1/2, -z+1/2'
'-x, -y, -z'
'x-1/2, -y-1/2, z-1/2'
loop_
_atom_site_type_symbol
_atom_site_label
_atom_site_fract_x
_atom_site_fract_y
_atom_site_fract_z
_atom_site_U_iso_or_equiv
_atom_site_adp_type
_atom_site_calc_flag
_atom_site_refinement_flags
_atom_site_occupancy
_atom_site_symmetry_multiplicity
O O1 0.2597(3) 0.37907(11) 0.3323(4) 0.024(2) Uani d U 1 1
O O2 0.3263(3) 0.14077(12) 0.0551(4) 0.026(2) Uani d U 1 1
H H2 0.2892 0.0615 0.0912 0.032 Uiso calc R 1 1
N N1 0.6122(3) 0.14957(14) 0.3603(5) 0.019(2) Uani d U 1 1
H H1A 0.4407 0.1061 0.3412 0.023 Uiso calc R 1 1
H H1B 0.6351 0.1986 0.4405 0.023 Uiso calc R 1 1
H H1C 0.7462 0.0784 0.3659 0.023 Uiso calc R 1 1
O O3 0.3963(3) 0.48155(13) 0.1517(4) 0.022(2) Uani d U 1 1
C C1 0.6365(4) 0.25905(18) 0.2492(6) 0.020(2) Uani d U 1 1
H H1 0.8250 0.3071 0.2736 0.024 Uiso calc R 1 1
C C2 0.4100(4) 0.38391(16) 0.2433(5) 0.018(2) Uani d U 1 1
C C3 0.6116(4) 0.1860(2) 0.1146(7) 0.024(2) Uani d U 1 1
H H3A 0.6776 0.2560 0.0523 0.029 Uiso calc R 1 1
H H3B 0.7344 0.0972 0.1249 0.029 Uiso calc R 1 1
loop_
_atom_site_aniso_label
_atom_site_aniso_U_11
_atom_site_aniso_U_22
_atom_site_aniso_U_33
_atom_site_aniso_U_12
_atom_site_aniso_U_13
_atom_site_aniso_U_23
O1 0.0217(6) 0.0231(6) 0.030(6) 0.0018(4) 0.0134(16) 0.0008(10)
O2 0.0315(7) 0.0192(5) 0.023(7) -0.0041(4) -0.0058(16) 0.0045(10)
N1 0.0181(7) 0.0190(6) 0.018(7) 0.0013(5) 0.001(2) -0.0061(12)
O3 0.0245(7) 0.0205(6) 0.020(6) 0.0015(4) 0.0045(17) 0.0053(11)
C1 0.0136(8) 0.0172(7) 0.030(6) -0.0012(6) 0.0050(18) -0.0041(16)
C2 0.0137(8) 0.0155(7) 0.024(8) -0.0046(5) 0.002(2) -0.0074(14)
C3 0.0230(9) 0.0213(8) 0.027(7) 0.0039(6) 0.005(2) 0.0003(19)
loop_
_atom_type_symbol
_atom_type_description
_atom_type_scat_dispersion_real
_atom_type_scat_dispersion_imag
_atom_type_scat_source
C C 0.0033 0.0016 'International Tables Vol C Tables 4.2.6.8 and 6.1.1.4'
H H 0.0000 0.0000 'International Tables Vol C Tables 4.2.6.8 and 6.1.1.4'
N N 0.0061 0.0033 'International Tables Vol C Tables 4.2.6.8 and 6.1.1.4'
O O 0.0106 0.0060 'International Tables Vol C Tables 4.2.6.8 and 6.1.1.4'
loop_
_geom_angle_atom_site_label_1
_geom_angle_atom_site_label_2
_geom_angle_atom_site_label_3
_geom_angle
C3 O2 H2 109.5
C1 N1 H1A 109.5
C1 N1 H1B 109.5
H1A N1 H1B 109.5
C1 N1 H1C 109.5
H1A N1 H1C 109.5
H1B N1 H1C 109.5
C3 C1 N1 112.8(2)
C3 C1 C2 111.0(4)
N1 C1 C2 109.0(3)
C3 C1 H1 108.0
N1 C1 H1 108.0
C2 C1 H1 108.0
O3 C2 O1 126.11(16)
O3 C2 C1 116.7(3)
O1 C2 C1 117.1(3)
O2 C3 C1 112.7(3)
O2 C3 H3A 109.0
C1 C3 H3A 109.0
O2 C3 H3B 109.0
C1 C3 H3B 109.0
H3A C3 H3B 107.8
loop_
_geom_bond_atom_site_label_1
_geom_bond_atom_site_label_2
_geom_bond_distance
O1 C2 1.251(4)
O2 C3 1.427(4)
O2 H2 0.8200
N1 C1 1.485(5)
N1 H1A 0.8900
N1 H1B 0.8900
N1 H1C 0.8900
O3 C2 1.242(5)
C1 C3 1.462(8)
C1 C2 1.536(2)
C1 H1 0.9800
C3 H3A 0.9700
C3 H3B 0.9700
loop_
_geom_hbond_atom_site_label_D
_geom_hbond_atom_site_label_H
_geom_hbond_atom_site_label_A
_geom_hbond_site_symmetry_A
_geom_hbond_distance_DH
_geom_hbond_distance_HA
_geom_hbond_distance_DA
_geom_hbond_angle_DHA
N1 H1B O2 4_666 0.89 1.92 2.710(4) 146.9
N1 H1A O3 2_545 0.89 1.97 2.8310(16) 163.9
N1 H1C O3 2_645 0.89 1.95 2.8041(16) 159.4
O2 H2 O1 2_545 0.82 1.81 2.627(3) 174.3
loop_
_geom_torsion_atom_site_label_1
_geom_torsion_atom_site_label_2
_geom_torsion_atom_site_label_3
_geom_torsion_atom_site_label_4
_geom_torsion
C3 C1 C2 O3 -52.6(3)
N1 C1 C2 O3 -177.4(3)
C3 C1 C2 O1 128.4(3)
N1 C1 C2 O1 3.6(4)
N1 C1 C3 O2 73.5(3)
C2 C1 C3 O2 -49.2(3)
loop_
_cod_related_entry_id
_cod_related_entry_database
_cod_related_entry_code
1 ChemSpider 597
