#------------------------------------------------------------------------------
#$Date: 2016-02-20 02:53:41 +0200 (Sat, 20 Feb 2016) $
#$Revision: 176768 $
#$URL: svn://www.crystallography.net/cod/cif/2/10/55/2105564.cif $
#------------------------------------------------------------------------------
#
# This file is available in the Crystallography Open Database (COD),
# http://www.crystallography.net/. The original data for this entry
# were provided by IUCr Journals, http://journals.iucr.org/.
#
# The file may be used within the scientific community so long as
# proper attribution is given to the journal article from which the
# data were obtained.
#
data_2105564
loop_
_publ_author_name
'Fu, Y.'
'Brock, C. P.'
_publ_section_title
;
 Temperature Dependence of the Rigid-Body Motion of Anthraquinone
;
_journal_issue                   3
_journal_name_full               'Acta Crystallographica Section B'
_journal_page_first              308
_journal_page_last               315
_journal_paper_doi               10.1107/S0108768197013414
_journal_volume                  54
_journal_year                    1998
_chemical_formula_moiety         'C14 H8 O2'
_chemical_formula_sum            'C14 H8 O2'
_chemical_formula_weight         208.22
_chemical_melting_point          558.0(10)
_chemical_name_systematic
;
anthraquinone
;
_space_group_IT_number           14
_symmetry_cell_setting           monoclinic
_symmetry_space_group_name_Hall  '-P 2ybc'
_symmetry_space_group_name_H-M   'P 1 21/c 1'
_audit_creation_method           'created by SHELXL-93 and C P Brock'
_cell_angle_alpha                90.
_cell_angle_beta                 102.548(18)
_cell_angle_gamma                90.
_cell_formula_units_Z            2
_cell_length_a                   7.8674(10)
_cell_length_b                   3.8948(8)
_cell_length_c                   15.651(4)
_cell_measurement_reflns_used    22
_cell_measurement_temperature    162.0(10)
_cell_measurement_theta_max      13.2
_cell_measurement_theta_min      10.6
_cell_volume                     468.12(17)
_computing_cell_refinement       'CAD4-VAX (ENRAF-Nonius, 1988)'
_computing_data_collection       'CAD4-VAX (ENRAF-Nonius, 1988)'
_computing_structure_refinement  'SHELXL-93 (Sheldrick, 1993)'
_diffrn_ambient_temperature      162.0(10)
_diffrn_measurement_device       'ENRAF-Nonius CAD4-VAX diffractometer'
_diffrn_measurement_method       '\w/2\q scans'
_diffrn_radiation_monochromator  graphite
_diffrn_radiation_type           'Mo K\a'
_diffrn_radiation_wavelength     0.71073
_diffrn_reflns_av_sigmaI/netI    0.017
_diffrn_reflns_limit_h_max       10
_diffrn_reflns_limit_h_min       0
_diffrn_reflns_limit_k_max       5
_diffrn_reflns_limit_k_min       0
_diffrn_reflns_limit_l_max       19
_diffrn_reflns_limit_l_min       -20
_diffrn_reflns_number            1061
_diffrn_reflns_theta_max         27.43
_diffrn_reflns_theta_min         2.65
_diffrn_standards_decay_%        -1.1
_diffrn_standards_interval_time  120
_diffrn_standards_number         3
_exptl_absorpt_coefficient_mu    0.09
_exptl_absorpt_correction_type   none
_exptl_crystal_colour            yellow
_exptl_crystal_density_diffrn    1.477
_exptl_crystal_density_meas      ?
_exptl_crystal_description
;
Laths.  Major faces are {001}, {100}, {111}, and {10-2}.
;
_exptl_crystal_F_000             216
_exptl_crystal_size_max          0.55
_exptl_crystal_size_mid          0.52
_exptl_crystal_size_min          0.18
_refine_diff_density_max         0.33
_refine_diff_density_min         -0.33
_refine_ls_extinction_method     none
_refine_ls_goodness_of_fit_all   1.06
_refine_ls_goodness_of_fit_obs   1.10
_refine_ls_hydrogen_treatment    refall
_refine_ls_matrix_type           full
_refine_ls_number_parameters     89
_refine_ls_number_reflns         1060
_refine_ls_number_restraints     0
_refine_ls_R_factor_all          0.070
_refine_ls_R_factor_obs          0.055
_refine_ls_shift/esd_max         -0.001
_refine_ls_shift/esd_mean        0.000
_refine_ls_structure_factor_coef Fsqd
_refine_ls_weighting_details
'w=1/[\s^2^(Fo^2^)+(0.1200P)^2^+0.0700P] where P=(Fo^2^+2Fc^2^)/3'
_refine_ls_weighting_scheme      calc
_refine_ls_wR_factor_all         0.167
_refine_ls_wR_factor_obs         0.147
_reflns_number_observed          841
_reflns_number_total             1061
_reflns_observed_criterion       >2sigma(I)
_cod_data_source_file            cr0524.cif
_cod_data_source_block           162
_cod_depositor_comments
;
The following automatic conversions were performed:

'_exptl_crystal_density_meas' value 'not measured' was changed to '?'
- the value is perceived as not measured.

Automatic conversion script
Id: cif_fix_values 3008 2015-01-20 13:52:24Z robertas 

The following automatic conversions were performed:

'_refine_ls_weighting_scheme' value 'calc
w=1/[\s^2^(Fo^2^)+(0.1200P)^2^+0.0700P] where P=(Fo^2^+2Fc^2^)/3' was
changed to 'calc'. New tag '_refine_ls_weighting_details' was
created. The value of the new tag was set to
'w=1/[\s^2^(Fo^2^)+(0.1200P)^2^+0.0700P] where P=(Fo^2^+2Fc^2^)/3'.

Automatic conversion script
Id: cif_fix_values 3143 2015-03-26 13:38:13Z robertas 
;
_cod_original_cell_volume        468.13(17)
_cod_original_sg_symbol_H-M      'P 21/c'
_cod_database_code               2105564
loop_
_symmetry_equiv_pos_as_xyz
'x, y, z'
'-x, y+1/2, -z+1/2'
'-x, -y, -z'
'x, -y-1/2, z-1/2'
loop_
_atom_site_aniso_label
_atom_site_aniso_U_11
_atom_site_aniso_U_22
_atom_site_aniso_U_33
_atom_site_aniso_U_12
_atom_site_aniso_U_13
_atom_site_aniso_U_23
O 0.0274(7) 0.0617(10) 0.0222(6) -0.0065(5) 0.0138(5) -0.0083(5)
C1 0.0201(7) 0.0297(9) 0.0230(7) 0.0008(6) 0.0047(5) 0.0030(6)
C2 0.0221(8) 0.0308(9) 0.0261(8) -0.0025(6) -0.0016(6) 0.0025(6)
C3 0.0319(8) 0.0317(9) 0.0173(7) -0.0013(6) -0.0019(6) 0.0005(6)
C4 0.0290(8) 0.0301(9) 0.0147(7) 0.0003(6) 0.0042(5) 0.0005(6)
C5 0.0205(7) 0.0255(8) 0.0144(7) 0.0017(5) 0.0032(5) 0.0024(6)
C6 0.0194(7) 0.0262(9) 0.0157(7) 0.0022(5) 0.0042(5) 0.0034(5)
C7 0.0211(7) 0.0307(9) 0.0158(7) 0.0015(6) 0.0064(5) 0.0025(6)
loop_
_atom_site_label
_atom_site_fract_x
_atom_site_fract_y
_atom_site_fract_z
_atom_site_U_iso_or_equiv
_atom_site_thermal_displace_type
_atom_site_calc_flag
_atom_site_occupancy
_atom_site_type_symbol
O -0.20894(15) 0.0239(4) 0.11487(7) 0.0358(4) Uani d 1 O
C1 0.3427(2) 0.2714(4) 0.04877(10) 0.0242(4) Uani d 1 C
C2 0.4032(2) 0.4165(5) 0.13054(10) 0.0273(4) Uani d 1 C
C3 0.2955(2) 0.4302(5) 0.19011(10) 0.0280(4) Uani d 1 C
C4 0.1281(2) 0.2993(4) 0.16787(9) 0.0247(4) Uani d 1 C
C5 0.0655(2) 0.1544(4) 0.08558(9) 0.0202(4) Uani d 1 C
C6 0.1745(2) 0.1408(4) 0.02541(9) 0.0204(4) Uani d 1 C
C7 -0.1141(2) 0.0138(4) 0.06272(9) 0.0222(4) Uani d 1 C
H1 0.419(3) 0.256(5) 0.0070(13) 0.031(5) Uiso d 1 H
H2 0.520(3) 0.512(5) 0.1461(14) 0.032(5) Uiso d 1 H
H3 0.332(3) 0.529(6) 0.2450(17) 0.047(6) Uiso d 1 H
H4 0.050(3) 0.313(6) 0.2109(15) 0.038(5) Uiso d 1 H
loop_
_atom_type_symbol
_atom_type_description
_atom_type_scat_dispersion_real
_atom_type_scat_dispersion_imag
_atom_type_scat_source
C C 0.0033 0.0016 'International Tables Vol C Tables 4.2.6.8 and 6.1.1.4'
H H 0.0000 0.0000 'International Tables Vol C Tables 4.2.6.8 and 6.1.1.4'
O O 0.0106 0.0060 'International Tables Vol C Tables 4.2.6.8 and 6.1.1.4'
loop_
_geom_angle_atom_site_label_1
_geom_angle_atom_site_label_2
_geom_angle_atom_site_label_3
_geom_angle_site_symmetry_3
_geom_angle
_geom_angle_publ_flag
C6 C1 C2 . 120.60(14) y
C1 C2 C3 . 119.82(14) y
C2 C3 C4 . 120.17(15) y
C3 C4 C5 . 120.47(15) y
C4 C5 C6 . 119.32(14) y
C4 C5 C7 . 119.90(13) y
C6 C5 C7 . 120.77(13) y
C1 C6 C5 . 119.61(14) y
C1 C6 C7 3 119.15(13) y
C5 C6 C7 3 121.23(13) y
O C7 C5 . 121.00(14) y
O C7 C6 3 121.01(13) y
C5 C7 C6 3 118.00(12) y
C2 C1 H1 . 120.2(12) y
C6 C1 H1 . 119.2(12) y
C1 C2 H2 . 120.4(13) y
C3 C2 H2 . 119.8(13) y
C2 C3 H3 . 121.6(14) y
C4 C3 H3 . 118.2(14) y
C3 C4 H4 . 119.9(12) y
C5 C4 H4 . 119.7(12) y
loop_
_geom_bond_atom_site_label_1
_geom_bond_atom_site_label_2
_geom_bond_site_symmetry_2
_geom_bond_distance
_geom_bond_publ_flag
O C7 . 1.221(2) y
C1 C2 . 1.385(2) y
C1 C6 . 1.390(2) y
C2 C3 . 1.391(2) y
C3 C4 . 1.384(2) y
C4 C5 . 1.394(2) y
C5 C6 . 1.406(2) y
C5 C7 . 1.485(2) y
C6 C7 3 1.485(2) y
C1 H1 . 0.98(2) y
C2 H2 . 0.97(2) y
C3 H3 . 0.93(3) y
C4 H4 . 1.01(2) y
