#------------------------------------------------------------------------------
#$Date: 2017-10-13 08:28:26 +0300 (Fri, 13 Oct 2017) $
#$Revision: 201972 $
#$URL: file:///home/coder/svn-repositories/cod/cif/2/10/51/2105148.cif $
#------------------------------------------------------------------------------
#
# This file is available in the Crystallography Open Database (COD),
# http://www.crystallography.net/. The original data for this entry
# were provided by IUCr Journals, http://journals.iucr.org/.
#
# The file may be used within the scientific community so long as
# proper attribution is given to the journal article from which the
# data were obtained.
#
data_2105148
loop_
_publ_author_name
'Tumanov, Nikolay A.'
'Boldyreva, Elena V.'
_publ_section_title
;
 X-ray diffraction and Raman study of <small>DL</small>-alanine at high
 pressure: revision of phase transitions
;
_journal_coeditor_code           GP5051
_journal_issue                   4
_journal_name_full               'Acta Crystallographica Section B'
_journal_page_first              412
_journal_page_last               423
_journal_paper_doi               10.1107/S0108768112028972
_journal_volume                  68
_journal_year                    2012
_chemical_formula_moiety         'C3 H7 N O2'
_chemical_formula_sum            'C3 H7 N O2'
_chemical_formula_weight         89.10
_chemical_name_common            DL-alanine
_chemical_name_systematic        'DL-2-Aminopropionic Acid '
_space_group_IT_number           33
_symmetry_cell_setting           orthorhombic
_symmetry_space_group_name_Hall  'P 2c -2n'
_symmetry_space_group_name_H-M   'P n a 21'
_atom_sites_solution_hydrogens   geom
_atom_sites_solution_primary     direct
_atom_sites_solution_secondary   difmap
_audit_creation_method           SHELXL-97
_cell_angle_alpha                90.00
_cell_angle_beta                 90.00
_cell_angle_gamma                90.00
_cell_formula_units_Z            4
_cell_length_a                   11.677(2)
_cell_length_b                   5.705(2)
_cell_length_c                   5.7311(8)
_cell_measurement_reflns_used    1104
_cell_measurement_temperature    293(2)
_cell_measurement_theta_max      31.1666
_cell_measurement_theta_min      3.5478
_cell_volume                     381.79(16)
_computing_cell_refinement       'CrysAlis Pro (Oxford Diffraction Ltd, 2010)'
_computing_data_collection       'CrysAlis Pro (Oxford Diffraction Ltd, 2010)'
_computing_data_reduction        'CrysAlis Pro (Oxford Diffraction Ltd, 2010)'
_computing_molecular_graphics    'Mercury (Macrae <i>et al.</i>, 2008)'
_computing_publication_material
;
Mercury (Macrae <i>et al.</i>, 2008),
PLATON (Spek, 2009),
enCIFer (Allen <i>et al.</i>, 2004)
;
_computing_structure_refinement  'SHELXL-97 (Sheldrick, 1997)'
_computing_structure_solution    'SHELXS-97 (Sheldrick, 1990)'
_diffrn_ambient_temperature      293(2)
_diffrn_detector_area_resol_mean 10.3457
_diffrn_measured_fraction_theta_full 0.469
_diffrn_measured_fraction_theta_max 0.469
_diffrn_measurement_device_type  'Oxford Diffraction Gemini Ultra R'
_diffrn_measurement_method       \w
_diffrn_radiation_monochromator  graphite
_diffrn_radiation_type           MoK\a
_diffrn_radiation_wavelength     0.71073
_diffrn_reflns_av_R_equivalents  0.0626
_diffrn_reflns_av_sigmaI/netI    0.0668
_diffrn_reflns_limit_h_max       14
_diffrn_reflns_limit_h_min       -15
_diffrn_reflns_limit_k_max       5
_diffrn_reflns_limit_k_min       -5
_diffrn_reflns_limit_l_max       8
_diffrn_reflns_limit_l_min       -8
_diffrn_reflns_number            2540
_diffrn_reflns_theta_full        31.24
_diffrn_reflns_theta_max         31.24
_diffrn_reflns_theta_min         4.98
_exptl_absorpt_coefficient_mu    0.129
_exptl_absorpt_correction_T_max  0.478
_exptl_absorpt_correction_T_min  0.406
_exptl_absorpt_process_details
;
Absorb6.1 (R. J. Angel, 2004)
;
_exptl_crystal_colour            colorless
_exptl_crystal_density_diffrn    1.550
_exptl_crystal_density_method    'not measured'
_exptl_crystal_description       plate
_exptl_crystal_F_000             192
_exptl_crystal_size_max          0.16
_exptl_crystal_size_mid          0.10
_exptl_crystal_size_min          0.06
_refine_diff_density_max         0.138
_refine_diff_density_min         -0.153
_refine_ls_extinction_method     none
_refine_ls_goodness_of_fit_ref   0.993
_refine_ls_hydrogen_treatment    constr
_refine_ls_matrix_type           full
_refine_ls_number_parameters     57
_refine_ls_number_reflns         571
_refine_ls_number_restraints     1
_refine_ls_restrained_S_all      0.992
_refine_ls_R_factor_all          0.0674
_refine_ls_R_factor_gt           0.0420
_refine_ls_shift/su_max          0.000
_refine_ls_shift/su_mean         0.000
_refine_ls_structure_factor_coef Fsqd
_refine_ls_weighting_details
'calc w=1/[\s^2^(Fo^2^)+(0.0153P)^2^+0.0000P] where P=(Fo^2^+2Fc^2^)/3'
_refine_ls_weighting_scheme      calc
_refine_ls_wR_factor_gt          0.0611
_refine_ls_wR_factor_ref         0.0686
_reflns_number_gt                428
_reflns_number_total             571
_reflns_threshold_expression     I>2\s(I)
_iucr_refine_instructions_details
;
TITL DLALA_25KBAR_NV_OU IN PNA2(1)
CELL  0.71073 11.67703  5.70455  5.73112 90.00000 90.00000 90.00000
ZERR 4  0.00221  0.00233  0.00078  0.00000  0.00000  0.00000
LATT -1
SYMM -X, -Y, Z+ 0.50000
SYMM -X+ 0.50000, Y+ 0.50000, Z+ 0.50000
SYMM X+ 0.50000, -Y+ 0.50000, Z
SFAC C H N O
UNIT 12 28 4 8
PLAN 30
FMAP 2
L.S. 10
ACTA
CONF
BOND $H
EQIV $1 x,y,-1+z
EQIV $2 1-x,1-y,-1/2+z
EQIV $3 3/2-x,1/2+y,-1/2+z
HTAB N1 O2_$2
HTAB N1 O1_$1
HTAB N1 O2_$1
HTAB N1 O1_$3
WGHT    0.015300
FVAR       6.59058
O2    4    0.591126    0.485434    0.605571    11.00000    0.03515    0.03224 =
         0.02229   -0.00477    0.00041    0.00968
O1    4    0.683909    0.171796    0.745306    11.00000    0.03618    0.04092 =
         0.01757    0.00274   -0.00101    0.00932
C1    1    0.644456    0.297773    0.581926    11.00000    0.01503    0.03710 =
         0.01764   -0.00300    0.00290   -0.00545
C2    1    0.662473    0.200131    0.337096    11.00000    0.02437    0.02037 =
         0.01690    0.00438   -0.00169    0.00190
AFIX  13
H2    2    0.743260    0.156656    0.320558    11.00000   -1.20000
AFIX   0
C3    1    0.590300   -0.014681    0.290151    11.00000    0.03917    0.03009 =
         0.02842    0.00093   -0.00020   -0.00199
AFIX 137
H3B   2    0.607221   -0.073954    0.137216    11.00000   -1.20000
H3C   2    0.510677    0.026271    0.299010    11.00000   -1.20000
H3A   2    0.607159   -0.132804    0.404407    11.00000   -1.20000
AFIX   0
N1    3    0.635907    0.381257    0.162084    11.00000    0.02747    0.03858 =
         0.01589   -0.00423    0.00056   -0.00288
AFIX 137
H1C   2    0.680786    0.505254    0.184925    11.00000   -1.20000
H1B   2    0.562912    0.423962    0.175848    11.00000   -1.20000
H1A   2    0.647973    0.323989    0.019739    11.00000   -1.20000
HKLF 4
REM  DLALA_25KBAR_NV_OU IN PNA2(1)
REM R1 =  0.0420 for    428 Fo > 4sig(Fo)  and  0.0674 for all    571 data
REM     57 parameters refined using      1 restraints
END
WGHT      0.0153      0.0000
REM Highest difference peak  0.138,  deepest hole -0.153,  1-sigma level  0.040
Q1    1   0.6520 -0.1907  0.1394  11.00000  0.05    0.14
Q2    1   0.5569 -0.0053  0.0217  11.00000  0.05    0.13
Q3    1   0.6192 -0.0023  0.8853  11.00000  0.05    0.13
Q4    1   0.5092 -0.1688  0.5147  11.00000  0.05    0.12
Q5    1   0.6434  0.6397  0.5865  11.00000  0.05    0.12
Q6    1   0.7546  0.3386  0.7553  11.00000  0.05    0.12
Q7    1   0.5526  0.6693  0.6365  11.00000  0.05    0.12
Q8    1   0.7043  0.5037  0.6043  11.00000  0.05    0.12
Q9    1   0.4236 -0.0973  0.3699  11.00000  0.05    0.12
Q10   1   0.6873  0.7255  0.0355  11.00000  0.05    0.12
Q11   1   0.5759  0.5103  0.7558  11.00000  0.05    0.11
Q12   1   0.7400  0.3498  0.3633  11.00000  0.05    0.11
Q13   1   0.6986  0.6731  0.1858  11.00000  0.05    0.11
Q14   1   0.5441  0.0648  0.0328  11.00000  0.05    0.11
Q15   1   0.7148  0.1916  0.8845  11.00000  0.05    0.11
Q16   1   0.7062  0.4983  0.4021  11.00000  0.05    0.11
Q17   1   0.6606 -0.1690  0.3228  11.00000  0.05    0.11
Q18   1   0.5061  0.4386  0.5799  11.00000  0.05    0.10
Q19   1   0.5465 -0.3096  0.2526  11.00000  0.05    0.10
Q20   1   0.6632 -0.1204 -0.1210  11.00000  0.05    0.10
Q21   1   0.6400 -0.1448  0.4810  11.00000  0.05    0.10
Q22   1   0.5667  0.1571  0.0880  11.00000  0.05    0.10
Q23   1   0.6754 -0.0852  0.6494  11.00000  0.05    0.10
Q24   1   0.6435  0.6709  0.2655  11.00000  0.05    0.10
Q25   1   0.5826 -0.1160  0.3283  11.00000  0.05    0.10
Q26   1   0.6009  0.0313  0.6685  11.00000  0.05    0.10
Q27   1   0.4714  0.2195  0.2987  11.00000  0.05    0.10
Q28   1   0.5726  0.1213  0.4802  11.00000  0.05    0.09
Q29   1   0.7975  0.2356  0.3676  11.00000  0.05    0.09
Q30   1   0.7190  0.5089  0.2473  11.00000  0.05    0.09
;
_cod_data_source_file            gp5051.cif
_cod_data_source_block           dlala_25kbar
_cod_original_cell_volume        381.76(18)
_cod_database_code               2105148
loop_
_symmetry_equiv_pos_as_xyz
'x, y, z'
'-x, -y, z+1/2'
'-x+1/2, y+1/2, z+1/2'
'x+1/2, -y+1/2, z'
loop_
_atom_site_type_symbol
_atom_site_label
_atom_site_fract_x
_atom_site_fract_y
_atom_site_fract_z
_atom_site_U_iso_or_equiv
_atom_site_adp_type
_atom_site_calc_flag
_atom_site_refinement_flags
_atom_site_occupancy
_atom_site_symmetry_multiplicity
O O2 0.59113(18) 0.4854(6) 0.6056(4) 0.0299(9) Uani d . 1 1
O O1 0.68391(17) 0.1718(5) 0.7453(3) 0.0316(8) Uani d . 1 1
C C1 0.6445(2) 0.2978(8) 0.5819(5) 0.0233(12) Uani d . 1 1
C C2 0.6625(2) 0.2001(8) 0.3371(5) 0.0205(12) Uani d . 1 1
H H2 0.7433 0.1567 0.3206 0.025 Uiso calc R 1 1
C C3 0.5903(3) -0.0147(9) 0.2902(7) 0.0326(14) Uani d . 1 1
H H3B 0.6072 -0.0740 0.1372 0.039 Uiso calc R 1 1
H H3C 0.5107 0.0263 0.2990 0.039 Uiso calc R 1 1
H H3A 0.6072 -0.1328 0.4044 0.039 Uiso calc R 1 1
N N1 0.63591(19) 0.3813(6) 0.1621(3) 0.0273(9) Uani d . 1 1
H H1C 0.6808 0.5053 0.1849 0.033 Uiso calc R 1 1
H H1B 0.5629 0.4240 0.1758 0.033 Uiso calc R 1 1
H H1A 0.6480 0.3240 0.0197 0.033 Uiso calc R 1 1
loop_
_atom_site_aniso_label
_atom_site_aniso_U_11
_atom_site_aniso_U_22
_atom_site_aniso_U_33
_atom_site_aniso_U_12
_atom_site_aniso_U_13
_atom_site_aniso_U_23
O2 0.0351(14) 0.032(3) 0.0223(13) 0.0097(10) 0.0004(11) -0.0048(13)
O1 0.0362(13) 0.041(3) 0.0176(9) 0.0093(10) -0.0010(10) 0.0027(15)
C1 0.015(2) 0.037(5) 0.0176(16) -0.0054(12) 0.0029(12) -0.003(2)
C2 0.024(2) 0.020(5) 0.0169(15) 0.0019(12) -0.0017(11) 0.004(2)
C3 0.039(3) 0.030(5) 0.028(2) -0.0020(14) -0.0002(14) 0.0009(19)
N1 0.0275(16) 0.039(4) 0.0159(12) -0.0029(11) 0.0006(10) -0.0042(16)
loop_
_atom_type_symbol
_atom_type_description
_atom_type_scat_dispersion_real
_atom_type_scat_dispersion_imag
_atom_type_scat_source
C C 0.0033 0.0016 'International Tables Vol C Tables 4.2.6.8 and 6.1.1.4'
H H 0.0000 0.0000 'International Tables Vol C Tables 4.2.6.8 and 6.1.1.4'
N N 0.0061 0.0033 'International Tables Vol C Tables 4.2.6.8 and 6.1.1.4'
O O 0.0106 0.0060 'International Tables Vol C Tables 4.2.6.8 and 6.1.1.4'
loop_
_geom_angle_atom_site_label_1
_geom_angle_atom_site_label_2
_geom_angle_atom_site_label_3
_geom_angle
O2 C1 O1 126.1(3)
O2 C1 C2 118.9(3)
O1 C1 C2 115.0(3)
N1 C2 C3 109.3(3)
N1 C2 C1 110.0(3)
C3 C2 C1 112.5(3)
N1 C2 H2 108.3
C3 C2 H2 108.3
C1 C2 H2 108.3
C2 C3 H3B 109.5
C2 C3 H3C 109.5
H3B C3 H3C 109.5
C2 C3 H3A 109.5
H3B C3 H3A 109.5
H3C C3 H3A 109.5
C2 N1 H1C 109.5
C2 N1 H1B 109.5
H1C N1 H1B 109.5
C2 N1 H1A 109.5
H1C N1 H1A 109.5
H1B N1 H1A 109.5
loop_
_geom_bond_atom_site_label_1
_geom_bond_atom_site_label_2
_geom_bond_distance
O2 C1 1.246(5)
O1 C1 1.267(4)
C1 C2 1.524(4)
C2 N1 1.473(4)
C2 C3 1.511(6)
C2 H2 0.9800
C3 H3B 0.9600
C3 H3C 0.9600
C3 H3A 0.9600
N1 H1C 0.8900
N1 H1B 0.8900
N1 H1A 0.8900
loop_
_geom_hbond_atom_site_label_D
_geom_hbond_atom_site_label_H
_geom_hbond_atom_site_label_A
_geom_hbond_site_symmetry_A
_geom_hbond_distance_DH
_geom_hbond_distance_HA
_geom_hbond_distance_DA
_geom_hbond_angle_DHA
N1 H1B O2 2_664 0.89 1.91 2.777(3) 162.8
N1 H1A O1 1_554 0.89 1.84 2.729(3) 172.0
N1 H1A O2 1_554 0.89 2.63 3.286(3) 131.2
N1 H1C O1 3_654 0.89 1.88 2.721(3) 157.8
loop_
_geom_torsion_atom_site_label_1
_geom_torsion_atom_site_label_2
_geom_torsion_atom_site_label_3
_geom_torsion_atom_site_label_4
_geom_torsion
O2 C1 C2 N1 13.9(5)
O1 C1 C2 N1 -168.0(3)
O2 C1 C2 C3 -108.2(5)
O1 C1 C2 C3 69.9(4)
loop_
_cod_related_entry_id
_cod_related_entry_database
_cod_related_entry_code
1 ChemSpider 582
