#------------------------------------------------------------------------------
#$Date: 2017-10-13 08:28:26 +0300 (Fri, 13 Oct 2017) $
#$Revision: 201972 $
#$URL: file:///home/coder/svn-repositories/cod/cif/2/10/50/2105098.cif $
#------------------------------------------------------------------------------
#
# This file is available in the Crystallography Open Database (COD),
# http://www.crystallography.net/. The original data for this entry
# were provided by IUCr Journals, http://journals.iucr.org/.
#
# The file may be used within the scientific community so long as
# proper attribution is given to the journal article from which the
# data were obtained.
#
data_2105098
loop_
_publ_author_name
'Zakharov, Boris A.'
'Kolesov, Boris A.'
'Boldyreva, Elena V.'
_publ_section_title
;
 Effect of pressure on crystalline <small>L</small>- and
 <small>DL</small>-serine: revisited by a combined single-crystal X-ray
 diffraction at a laboratory source and polarized Raman spectroscopy study
;
_journal_coeditor_code           GP5049
_journal_issue                   3
_journal_name_full               'Acta Crystallographica Section B'
_journal_page_first              275
_journal_page_last               286
_journal_paper_doi               10.1107/S0108768112015960
_journal_volume                  68
_journal_year                    2012
_chemical_formula_moiety         'C3 H7 N O3'
_chemical_formula_sum            'C3 H7 N O3'
_chemical_formula_weight         105.10
_chemical_melting_point          501
_chemical_name_common            DL-serine
_chemical_name_systematic
;
2-amino-3-hydroxypropanoic acid
;
_space_group_IT_number           14
_symmetry_cell_setting           monoclinic
_symmetry_space_group_name_Hall  '-P 2yn'
_symmetry_space_group_name_H-M   'P 1 21/n 1'
_atom_sites_solution_hydrogens   geom
_atom_sites_solution_primary     direct
_atom_sites_solution_secondary   difmap
_audit_creation_method           SHELXL-97
_cell_angle_alpha                90.00
_cell_angle_beta                 101.69(3)
_cell_angle_gamma                90.00
_cell_formula_units_Z            4
_cell_length_a                   4.8235(5)
_cell_length_b                   8.8863(6)
_cell_length_c                   10.094(8)
_cell_measurement_reflns_used    2027
_cell_measurement_temperature    293(2)
_cell_measurement_theta_max      31.1679
_cell_measurement_theta_min      2.2873
_cell_volume                     423.7(3)
_computing_cell_refinement
;
CrysAlisPro, Oxford Diffraction Ltd.,
Version 1.171.34.44 (release 25-10-2010 CrysAlis171 .NET)
(compiled Oct 25 2010,18:11:34)
;
_computing_data_collection
;
CrysAlisPro, Oxford Diffraction Ltd.,
Version 1.171.34.44 (release 25-10-2010 CrysAlis171 .NET)
(compiled Oct 25 2010,18:11:34)
;
_computing_data_reduction
;
CrysAlisPro, Oxford Diffraction Ltd.,
Version 1.171.34.44 (release 25-10-2010 CrysAlis171 .NET)
(compiled Oct 25 2010,18:11:34)
;
_computing_molecular_graphics    'Mercury (Macrae <i>et al.</i>, 2006)'
_computing_publication_material
;
Mercury (Macrae et al., 2006),
PLATON (Spek, 2009),
enCIFer (Allen et al., 2004)
;
_computing_structure_refinement  'SHELXL-97 (Sheldrick, 2008)'
_computing_structure_solution    'SHELXS-97 (Sheldrick, 2008)'
_diffrn_ambient_temperature      293(2)
_diffrn_detector_area_resol_mean 10.3457
_diffrn_measured_fraction_theta_full 0.317
_diffrn_measured_fraction_theta_max 0.317
_diffrn_measurement_device_type  'Xcalibur, Ruby, Gemini ultra'
_diffrn_measurement_method       'rotation method'
_diffrn_radiation_monochromator  graphite
_diffrn_radiation_source         'Enhance (Mo) X-ray Source'
_diffrn_radiation_type           MoK\a
_diffrn_radiation_wavelength     0.71073
_diffrn_reflns_av_R_equivalents  0.0471
_diffrn_reflns_av_sigmaI/netI    0.0277
_diffrn_reflns_limit_h_max       6
_diffrn_reflns_limit_h_min       -7
_diffrn_reflns_limit_k_max       12
_diffrn_reflns_limit_k_min       -12
_diffrn_reflns_limit_l_max       5
_diffrn_reflns_limit_l_min       -5
_diffrn_reflns_number            3981
_diffrn_reflns_theta_full        31.24
_diffrn_reflns_theta_max         31.24
_diffrn_reflns_theta_min         4.59
_exptl_absorpt_coefficient_mu    0.147
_exptl_absorpt_correction_T_max  0.472
_exptl_absorpt_correction_T_min  0.395
_exptl_absorpt_correction_type   gaussian
_exptl_absorpt_process_details
;
Absorb Angel (2004) J. Appl. Cryst. 37:486-492
;
_exptl_crystal_colour            colourless
_exptl_crystal_density_diffrn    1.648
_exptl_crystal_density_method    'not measured'
_exptl_crystal_description       prism
_exptl_crystal_F_000             224
_exptl_crystal_size_max          0.25
_exptl_crystal_size_mid          0.15
_exptl_crystal_size_min          0.07
_refine_diff_density_max         0.105
_refine_diff_density_min         -0.101
_refine_ls_extinction_method     none
_refine_ls_goodness_of_fit_ref   1.082
_refine_ls_hydrogen_treatment    constr
_refine_ls_matrix_type           full
_refine_ls_number_parameters     66
_refine_ls_number_reflns         435
_refine_ls_number_restraints     55
_refine_ls_restrained_S_all      1.013
_refine_ls_R_factor_all          0.0399
_refine_ls_R_factor_gt           0.0301
_refine_ls_shift/su_max          0.000
_refine_ls_shift/su_mean         0.000
_refine_ls_structure_factor_coef Fsqd
_refine_ls_weighting_details
'calc w=1/[\s^2^(Fo^2^)+(0.0355P)^2^+0.0194P] where P=(Fo^2^+2Fc^2^)/3'
_refine_ls_weighting_scheme      calc
_refine_ls_wR_factor_gt          0.0647
_refine_ls_wR_factor_ref         0.0684
_reflns_number_gt                369
_reflns_number_total             435
_reflns_threshold_expression     >2sigma(I)
_iucr_refine_instructions_details
;
TITL
CELL  0.71073  4.82354  8.88628 10.09411 90.00000 101.68640 90.00000
ZERR 4  0.00049  0.00059  0.00841  0.00000  0.03260  0.00000
LATT 1
SYMM -X+ 0.50000, Y+ 0.50000, -Z+ 0.50000
SFAC C H N O
UNIT 12 28 4 12
PLAN 30
FMAP 2
L.S. 20
EQIV $1 1/2+X,1/2-Y,1/2+Z
EQIV $2 1/2-X,-1/2+Y,1/2-Z
EQIV $3 3/2-X,-1/2+Y,1/2-Z
HTAB N1 O2_$1
HTAB N1 O3_$2
HTAB N1 O3_$3
HTAB O2 O1_$2
BOND $H
DELU
SIMU
ISOR 0.01 C1
BOND
CONF
ACTA
WGHT    0.035500    0.019400
FVAR       7.13566
O1    4    0.260495    0.382222    0.331742    11.00000    0.02323    0.02577 =
         0.03832   -0.00191    0.01422    0.00147
O2    4    0.318907    0.144264    0.058154    11.00000    0.03540    0.02160 =
         0.03589    0.00431   -0.00245   -0.00534
AFIX 147
H2    2    0.286364    0.062817    0.090021    11.00000   -1.20000
AFIX   0
N1    3    0.607725    0.153296    0.357105    11.00000    0.02060    0.02055 =
         0.01143   -0.00584    0.00043    0.00104
AFIX 137
H1A   2    0.437478    0.110416    0.339159    11.00000   -1.20000
H1B   2    0.630979    0.201816    0.435717    11.00000   -1.20000
H1C   2    0.740410    0.082779    0.361890    11.00000   -1.20000
AFIX   0
O3    4    0.401392    0.484741    0.153565    11.00000    0.02799    0.02208 =
         0.03507    0.00871    0.00809    0.00173
C1    1    0.631551    0.261336    0.248106    11.00000    0.01510    0.01952 =
         0.02658   -0.00307    0.00474   -0.00155
AFIX  13
H1    2    0.819655    0.307608    0.270573    11.00000   -1.20000
AFIX   0
C2    1    0.410276    0.386708    0.243865    11.00000    0.01577    0.01690 =
         0.02735   -0.00248    0.00235   -0.00273
C3    1    0.602062    0.187824    0.112954    11.00000    0.02572    0.02361 =
         0.02145   -0.00189    0.00574    0.00235
AFIX  23
H3A   2    0.665860    0.256989    0.051044    11.00000   -1.20000
H3B   2    0.722834    0.099610    0.121550    11.00000   -1.20000
HKLF 4
REM
REM R1 =  0.0301 for    369 Fo > 4sig(Fo)  and  0.0399 for all    435 data
REM     66 parameters refined using     55 restraints
END
WGHT      0.0355      0.0194
REM Highest difference peak  0.105,  deepest hole -0.101,  1-sigma level  0.026
Q1    1   0.5005 -0.0018  0.2790  11.00000  0.05    0.10
Q2    1   0.5431  0.3329  0.2966  11.00000  0.05    0.10
Q3    1   0.6755  0.0151  0.4911  11.00000  0.05    0.09
Q4    1   0.3262  0.0303  0.3068  11.00000  0.05    0.08
Q5    1   0.6790 -0.0229  0.1242  11.00000  0.05    0.08
Q6    1   0.9589  0.2043  0.0811  11.00000  0.05    0.08
Q7    1   0.5480  0.2857  0.0330  11.00000  0.05    0.08
Q8    1   0.3952  0.2865  0.1025  11.00000  0.05    0.07
Q9    1   0.1526  0.2658  0.3298  11.00000  0.05    0.07
Q10   1   0.8586  0.0570  0.2815  11.00000  0.05    0.07
Q11   1   0.8678  0.1738  0.2495  11.00000  0.05    0.07
Q12   1   0.4233 -0.0208  0.4191  11.00000  0.05    0.07
Q13   1   0.6448  0.0321  0.0993  11.00000  0.05    0.07
Q14   1   0.7330  0.2770  0.2498  11.00000  0.05    0.07
Q15   1   0.4282  0.2962  0.1373  11.00000  0.05    0.07
Q16   1   0.6472  0.0591  0.3804  11.00000  0.05    0.07
Q17   1   0.5761  0.4684  0.1446  11.00000  0.05    0.06
Q18   1   0.6042  0.4673  0.1768  11.00000  0.05    0.06
Q19   1   0.2506  0.2954  0.2839  11.00000  0.05    0.06
Q20   1   0.3794  0.0731  0.4290  11.00000  0.05    0.06
Q21   1   0.1772  0.2063  0.0884  11.00000  0.05    0.06
Q22   1   0.5397  0.0809  0.0652  11.00000  0.05    0.06
Q23   1   0.1052  0.1072  0.1568  11.00000  0.05    0.06
Q24   1   0.1641  0.1976  0.2850  11.00000  0.05    0.06
Q25   1   0.4669  0.0574  0.2177  11.00000  0.05    0.06
Q26   1   0.4275  0.4176  0.3939  11.00000  0.05    0.06
Q27   1   0.3236  0.5263  0.0043  11.00000  0.05    0.06
Q28   1   0.3478  0.3746  0.2843  11.00000  0.05    0.06
Q29   1   0.5427  0.2142  0.5524  11.00000  0.05    0.06
Q30   1  -0.0331  0.1448  0.0070  11.00000  0.05    0.06
;
_cod_data_source_file            gp5049.cif
_cod_data_source_block           DL-serine1.3GPa
_cod_depositor_comments
;
The following automatic conversions were performed:

'_exptl_absorpt_correction_type' value 'Gaussian' changed to
'gaussian' according to
/home/saulius/struct/CIF-dictionaries/cif_core.dic dictionary named
'cif_core.dic' version 2.4.1 from 2010-06-29.

Automatic conversion script
Id: cif_fix_values 1891 2012-01-12 08:04:46Z andrius 
;
_cod_original_cell_volume        423.7(4)
_cod_original_sg_symbol_H-M      P21/n
_cod_database_code               2105098
_cod_database_fobs_code          2105098
loop_
_symmetry_equiv_pos_as_xyz
'x, y, z'
'-x+1/2, y+1/2, -z+1/2'
'-x, -y, -z'
'x-1/2, -y-1/2, z-1/2'
loop_
_atom_site_type_symbol
_atom_site_label
_atom_site_fract_x
_atom_site_fract_y
_atom_site_fract_z
_atom_site_U_iso_or_equiv
_atom_site_adp_type
_atom_site_calc_flag
_atom_site_refinement_flags
_atom_site_occupancy
_atom_site_symmetry_multiplicity
O O1 0.2605(2) 0.38222(10) 0.3317(3) 0.0280(15) Uani d U 1 1
O O2 0.3189(3) 0.14426(11) 0.0582(3) 0.0323(15) Uani d U 1 1
H H2 0.2864 0.0628 0.0900 0.039 Uiso calc R 1 1
N N1 0.6077(3) 0.15330(12) 0.3571(3) 0.0179(17) Uani d U 1 1
H H1A 0.4375 0.1104 0.3392 0.022 Uiso calc R 1 1
H H1B 0.6310 0.2018 0.4357 0.022 Uiso calc R 1 1
H H1C 0.7404 0.0828 0.3619 0.022 Uiso calc R 1 1
O O3 0.4014(2) 0.48474(11) 0.1536(3) 0.0281(15) Uani d U 1 1
C C1 0.6316(3) 0.26134(15) 0.2481(5) 0.0203(17) Uani d U 1 1
H H1 0.8197 0.3076 0.2706 0.024 Uiso calc R 1 1
C C2 0.4103(3) 0.38671(14) 0.2439(4) 0.0203(19) Uani d U 1 1
C C3 0.6021(3) 0.18782(16) 0.1130(5) 0.0235(19) Uani d U 1 1
H H3A 0.6659 0.2570 0.0510 0.028 Uiso calc R 1 1
H H3B 0.7228 0.0996 0.1216 0.028 Uiso calc R 1 1
loop_
_atom_site_aniso_label
_atom_site_aniso_U_11
_atom_site_aniso_U_22
_atom_site_aniso_U_33
_atom_site_aniso_U_12
_atom_site_aniso_U_13
_atom_site_aniso_U_23
O1 0.0232(5) 0.0258(5) 0.038(5) 0.0015(4) 0.0142(13) -0.0019(8)
O2 0.0354(6) 0.0216(5) 0.036(5) -0.0053(4) -0.0025(12) 0.0043(8)
N1 0.0206(6) 0.0206(6) 0.011(6) 0.0010(4) 0.0004(15) -0.0058(9)
O3 0.0280(6) 0.0221(5) 0.035(5) 0.0017(3) 0.0081(12) 0.0087(8)
C1 0.0151(6) 0.0195(6) 0.027(5) -0.0016(5) 0.0047(14) -0.0031(12)
C2 0.0158(7) 0.0169(6) 0.027(6) -0.0027(4) 0.0024(16) -0.0025(11)
C3 0.0257(8) 0.0236(7) 0.021(6) 0.0024(5) 0.0057(17) -0.0019(14)
loop_
_atom_type_symbol
_atom_type_description
_atom_type_scat_dispersion_real
_atom_type_scat_dispersion_imag
_atom_type_scat_source
C C 0.0033 0.0016 'International Tables Vol C Tables 4.2.6.8 and 6.1.1.4'
H H 0.0000 0.0000 'International Tables Vol C Tables 4.2.6.8 and 6.1.1.4'
N N 0.0061 0.0033 'International Tables Vol C Tables 4.2.6.8 and 6.1.1.4'
O O 0.0106 0.0060 'International Tables Vol C Tables 4.2.6.8 and 6.1.1.4'
loop_
_geom_angle_atom_site_label_1
_geom_angle_atom_site_label_2
_geom_angle_atom_site_label_3
_geom_angle
C3 O2 H2 109.5
C1 N1 H1A 109.5
C1 N1 H1B 109.5
H1A N1 H1B 109.5
C1 N1 H1C 109.5
H1A N1 H1C 109.5
H1B N1 H1C 109.5
N1 C1 C3 112.80(15)
N1 C1 C2 109.4(2)
C3 C1 C2 110.8(3)
N1 C1 H1 107.9
C3 C1 H1 107.9
C2 C1 H1 107.9
O1 C2 O3 126.61(13)
O1 C2 C1 117.0(3)
O3 C2 C1 116.4(3)
O2 C3 C1 112.4(2)
O2 C3 H3A 109.1
C1 C3 H3A 109.1
O2 C3 H3B 109.1
C1 C3 H3B 109.1
H3A C3 H3B 107.9
loop_
_geom_bond_atom_site_label_1
_geom_bond_atom_site_label_2
_geom_bond_distance
O1 C2 1.253(4)
O2 C3 1.420(3)
O2 H2 0.8200
N1 C1 1.482(4)
N1 H1A 0.8900
N1 H1B 0.8900
N1 H1C 0.8900
O3 C2 1.255(4)
C1 C3 1.493(7)
C1 C2 1.5374(18)
C1 H1 0.9800
C3 H3A 0.9700
C3 H3B 0.9700
loop_
_geom_hbond_atom_site_label_D
_geom_hbond_atom_site_label_H
_geom_hbond_atom_site_label_A
_geom_hbond_site_symmetry_A
_geom_hbond_distance_DH
_geom_hbond_distance_HA
_geom_hbond_distance_DA
_geom_hbond_angle_DHA
N1 H1B O2 4_666 0.89 1.94 2.749(4) 150.2
N1 H1A O3 2_545 0.89 1.99 2.8598(14) 164.2
N1 H1C O3 2_645 0.89 1.97 2.8222(13) 160.1
O2 H2 O1 2_545 0.82 1.82 2.641(2) 175.9
loop_
_geom_torsion_atom_site_label_1
_geom_torsion_atom_site_label_2
_geom_torsion_atom_site_label_3
_geom_torsion_atom_site_label_4
_geom_torsion
N1 C1 C2 O1 2.8(3)
C3 C1 C2 O1 127.8(3)
N1 C1 C2 O3 -178.3(2)
C3 C1 C2 O3 -53.3(2)
N1 C1 C3 O2 73.1(2)
C2 C1 C3 O2 -50.0(3)
loop_
_cod_related_entry_id
_cod_related_entry_database
_cod_related_entry_code
1 ChemSpider 597
