#------------------------------------------------------------------------------
#$Date: 2017-10-13 08:28:26 +0300 (Fri, 13 Oct 2017) $
#$Revision: 201972 $
#$URL: file:///home/coder/svn-repositories/cod/cif/2/10/51/2105111.cif $
#------------------------------------------------------------------------------
#
# This file is available in the Crystallography Open Database (COD),
# http://www.crystallography.net/. The original data for this entry
# were provided by IUCr Journals, http://journals.iucr.org/.
#
# The file may be used within the scientific community so long as
# proper attribution is given to the journal article from which the
# data were obtained.
#
data_2105111
loop_
_publ_author_name
'Zakharov, Boris A.'
'Kolesov, Boris A.'
'Boldyreva, Elena V.'
_publ_section_title
;
 Effect of pressure on crystalline <small>L</small>- and
 <small>DL</small>-serine: revisited by a combined single-crystal X-ray
 diffraction at a laboratory source and polarized Raman spectroscopy study
;
_journal_coeditor_code           GP5049
_journal_issue                   3
_journal_name_full               'Acta Crystallographica Section B'
_journal_page_first              275
_journal_page_last               286
_journal_paper_doi               10.1107/S0108768112015960
_journal_volume                  68
_journal_year                    2012
_chemical_formula_moiety         'C3 H7 N O3'
_chemical_formula_sum            'C3 H7 N O3'
_chemical_formula_weight         105.10
_chemical_name_common            L-serine
_chemical_name_systematic
;
(S)-2-amino-3-hydroxypropanoic acid
;
_space_group_IT_number           19
_symmetry_cell_setting           orthorhombic
_symmetry_space_group_name_Hall  'P 2ac 2ab'
_symmetry_space_group_name_H-M   'P 21 21 21'
_atom_sites_solution_hydrogens   geom
_atom_sites_solution_primary     direct
_atom_sites_solution_secondary   difmap
_audit_creation_method           SHELXL-97
_cell_angle_alpha                90.00
_cell_angle_beta                 90.00
_cell_angle_gamma                90.00
_cell_formula_units_Z            4
_cell_length_a                   5.489(2)
_cell_length_b                   8.339(10)
_cell_length_c                   8.632(6)
_cell_measurement_reflns_used    557
_cell_measurement_temperature    293(2)
_cell_measurement_theta_max      31.7895
_cell_measurement_theta_min      2.3546
_cell_volume                     395.1(6)
_computing_cell_refinement
;
CrysAlisPro, Oxford Diffraction Ltd.,
Version 1.171.34.40 (release 27-08-2010 CrysAlis171 .NET)
(compiled Aug 27 2010,11:50:40)
;
_computing_data_collection
;
CrysAlisPro, Oxford Diffraction Ltd.,
Version 1.171.34.40 (release 27-08-2010 CrysAlis171 .NET)
(compiled Aug 27 2010,11:50:40)
;
_computing_data_reduction
;
CrysAlisPro, Oxford Diffraction Ltd.,
Version 1.171.34.40 (release 27-08-2010 CrysAlis171 .NET)
(compiled Aug 27 2010,11:50:40)
;
_computing_molecular_graphics    'Mercury (Macrae <i>et al.</i>, 2006)'
_computing_publication_material
;
Mercury (Macrae et al., 2006),
PLATON (Spek, 2009),
enCIFer (Allen et al., 2004)
;
_computing_structure_refinement  'SHELXL-97 (Sheldrick, 2008)'
_computing_structure_solution    'SHELXS-97 (Sheldrick, 2008)'
_diffrn_ambient_temperature      293(2)
_diffrn_detector_area_resol_mean 10.3457
_diffrn_measured_fraction_theta_full 0.455
_diffrn_measured_fraction_theta_max 0.455
_diffrn_measurement_device_type  'Xcalibur, Ruby, Gemini ultra'
_diffrn_measurement_method       'rotation method'
_diffrn_radiation_monochromator  graphite
_diffrn_radiation_source         'fine-focus sealed tube'
_diffrn_radiation_type           MoK\a
_diffrn_radiation_wavelength     0.71073
_diffrn_reflns_av_R_equivalents  0.1297
_diffrn_reflns_av_sigmaI/netI    0.1547
_diffrn_reflns_limit_h_max       8
_diffrn_reflns_limit_h_min       -8
_diffrn_reflns_limit_k_max       8
_diffrn_reflns_limit_k_min       -8
_diffrn_reflns_limit_l_max       11
_diffrn_reflns_limit_l_min       -10
_diffrn_reflns_number            2131
_diffrn_reflns_theta_full        31.86
_diffrn_reflns_theta_max         31.86
_diffrn_reflns_theta_min         3.40
_exptl_absorpt_coefficient_mu    0.158
_exptl_absorpt_correction_T_max  0.473
_exptl_absorpt_correction_T_min  0.394
_exptl_absorpt_correction_type   gaussian
_exptl_absorpt_process_details
' Absorb Angel (2004) J. Appl. Cryst. 37:486-492'
_exptl_crystal_colour            colourless
_exptl_crystal_density_diffrn    1.767
_exptl_crystal_density_method    'not measured'
_exptl_crystal_description       prism
_exptl_crystal_F_000             224
_exptl_crystal_size_max          0.25
_exptl_crystal_size_mid          0.05
_exptl_crystal_size_min          0.05
_refine_diff_density_max         0.166
_refine_diff_density_min         -0.163
_refine_ls_extinction_method     none
_refine_ls_goodness_of_fit_ref   0.942
_refine_ls_hydrogen_treatment    constr
_refine_ls_matrix_type           full
_refine_ls_number_parameters     66
_refine_ls_number_reflns         549
_refine_ls_number_restraints     0
_refine_ls_restrained_S_all      0.942
_refine_ls_R_factor_all          0.1581
_refine_ls_R_factor_gt           0.0647
_refine_ls_shift/su_max          0.000
_refine_ls_shift/su_mean         0.000
_refine_ls_structure_factor_coef Fsqd
_refine_ls_weighting_details
'calc w=1/[\s^2^(Fo^2^)+(0.0471P)^2^+0.0000P] where P=(Fo^2^+2Fc^2^)/3'
_refine_ls_weighting_scheme      calc
_refine_ls_wR_factor_gt          0.1204
_refine_ls_wR_factor_ref         0.1519
_reflns_number_gt                254
_reflns_number_total             549
_reflns_threshold_expression     >2sigma(I)
_iucr_refine_instructions_details
;
TITL
CELL  0.71073  5.48877  8.33884  8.63217 90.00000 90.00000 90.00000
ZERR 4  0.00230  0.01010  0.00580  0.00000  0.00000  0.00000
LATT -1
SYMM -X+ 0.50000, -Y, Z+ 0.50000
SYMM X+ 0.50000, -Y+ 0.50000, -Z
SYMM -X, Y+ 0.50000, -Z+ 0.50000
SFAC C H N O
UNIT 12 28 4 12
PLAN 30
FMAP 2
L.S. 20
EQIV $1 -1+X,Y,Z
EQIV $2 -1/2+X,1/2-Y,2-Z
EQIV $3 1-X,1/2+Y,1.5-Z
EQIV $4 -1/2+X,1/2-Y,1-Z
EQIV $11 1-X,-1/2+Y,3/2-Z
EQIV $12 -1/2+X,1/2-Y,1-Z
HTAB N1 O1_$1
HTAB N1 O2_$1
HTAB N1 O2_$2
HTAB N1 O1_$3
HTAB O3 O3_$4
BOND $H
BOND
CONF
ACTA
WGHT    0.047100
FVAR       3.74439
N1    3    0.216180    0.199020    0.813348    11.00000    0.03951    0.03908 =
         0.03355    0.00289    0.00732   -0.00504
AFIX 137
H1    2    0.246374    0.293275    0.768951    11.00000   -1.20000
H2    2    0.238589    0.207020    0.915168    11.00000   -1.20000
H3    2    0.062876    0.170391    0.794287    11.00000   -1.20000
AFIX   0
O1    4    0.804231    0.012668    0.750544    11.00000    0.04668    0.03207 =
         0.09658   -0.02040    0.00033    0.00584
O2    4    0.680837    0.226649    0.881611    11.00000    0.04096    0.06008 =
         0.04802   -0.01238   -0.00782   -0.00168
C1    1    0.386176    0.074732    0.748586    11.00000    0.04542    0.00989 =
         0.02752    0.00308    0.00095   -0.00745
AFIX  13
H4    2    0.335410   -0.030264    0.788073    11.00000   -1.20000
AFIX   0
O3    4    0.424537    0.223019    0.510588    11.00000    0.04639    0.07090 =
         0.04790    0.01687   -0.00033    0.00197
AFIX 147
H5    2    0.298731    0.268909    0.484907    11.00000   -1.20000
AFIX   0
C2    1    0.366227    0.071621    0.576746    11.00000    0.05165    0.04838 =
         0.02291   -0.00115    0.00523   -0.01128
AFIX  23
H6    2    0.475781   -0.009174    0.535724    11.00000   -1.20000
H7    2    0.201438    0.042227    0.547732    11.00000   -1.20000
AFIX   0
C3    1    0.647693    0.104798    0.801345    11.00000    0.05170    0.04392 =
         0.02340    0.00128    0.00301    0.00195
HKLF 4
REM
REM R1 =  0.0647 for    254 Fo > 4sig(Fo)  and  0.1581 for all    549 data
REM     66 parameters refined using      0 restraints
END
WGHT      0.0471      0.0000
REM Highest difference peak  0.166,  deepest hole -0.163,  1-sigma level  0.046
Q1    1   0.8993  0.0380  0.8830  11.00000  0.05    0.17
Q2    1   0.6383  0.0811  0.4588  11.00000  0.05    0.16
Q3    1   0.4560  0.3493  0.8096  11.00000  0.05    0.15
Q4    1   0.5818  0.1665  0.3856  11.00000  0.05    0.15
Q5    1   0.5712  0.2710  0.4398  11.00000  0.05    0.15
Q6    1   0.1544  0.2242  0.3819  11.00000  0.05    0.14
Q7    1   0.1397  0.0651  0.5000  11.00000  0.05    0.14
Q8    1   0.9458 -0.0807  0.6768  11.00000  0.05    0.14
Q9    1  -0.0661  0.1546  0.7723  11.00000  0.05    0.14
Q10   1   0.3430  0.1416  1.0010  11.00000  0.05    0.14
Q11   1   0.0880  0.0802  0.6437  11.00000  0.05    0.14
Q12   1   0.5009  0.0830  0.7790  11.00000  0.05    0.13
Q13   1   0.1152  0.0908  0.4754  11.00000  0.05    0.13
Q14   1   0.5505 -0.0434  0.6163  11.00000  0.05    0.13
Q15   1   0.7367  0.1931  0.9726  11.00000  0.05    0.13
Q16   1   0.8984 -0.0664  0.7981  11.00000  0.05    0.13
Q17   1  -0.0728  0.2306  0.8242  11.00000  0.05    0.12
Q18   1   0.1994  0.2225  0.6903  11.00000  0.05    0.12
Q19   1   0.3671  0.0883  0.8664  11.00000  0.05    0.12
Q20   1   0.5085  0.2495  0.5551  11.00000  0.05    0.11
Q21   1   0.6345 -0.0057  0.5336  11.00000  0.05    0.11
Q22   1   0.5045 -0.1518  0.8470  11.00000  0.05    0.10
Q23   1   0.1977  0.2728  0.7406  11.00000  0.05    0.10
Q24   1   0.2261 -0.0458  0.6049  11.00000  0.05    0.10
Q25   1   0.1719 -0.0649  0.7356  11.00000  0.05    0.10
Q26   1   0.6513  0.2221  0.8396  11.00000  0.05    0.10
Q27   1   0.2592  0.1015  0.7577  11.00000  0.05    0.10
Q28   1   0.0930 -0.0252  0.5678  11.00000  0.05    0.10
Q29   1   0.7844  0.0735  0.8080  11.00000  0.05    0.10
Q30   1   0.0878  0.0300  0.8056  11.00000  0.05    0.10
;
_cod_data_source_file            gp5049.cif
_cod_data_source_block           L-serine4.0GPa
_cod_database_code               2105111
_cod_database_fobs_code          2105111
loop_
_symmetry_equiv_pos_as_xyz
'x, y, z'
'-x+1/2, -y, z+1/2'
'x+1/2, -y+1/2, -z'
'-x, y+1/2, -z+1/2'
loop_
_atom_site_type_symbol
_atom_site_label
_atom_site_fract_x
_atom_site_fract_y
_atom_site_fract_z
_atom_site_U_iso_or_equiv
_atom_site_adp_type
_atom_site_calc_flag
_atom_site_refinement_flags
_atom_site_occupancy
_atom_site_symmetry_multiplicity
N N1 0.2162(6) 0.1990(8) 0.8133(5) 0.0374(18) Uani d . 1 1
H H1 0.2464 0.2933 0.7690 0.045 Uiso calc R 1 1
H H2 0.2386 0.2070 0.9152 0.045 Uiso calc R 1 1
H H3 0.0629 0.1704 0.7943 0.045 Uiso calc R 1 1
O O1 0.8042(8) 0.0127(8) 0.7505(5) 0.058(2) Uani d . 1 1
O O2 0.6808(7) 0.2266(8) 0.8816(6) 0.050(2) Uani d . 1 1
C C1 0.3862(9) 0.0747(8) 0.7486(6) 0.0276(19) Uani d . 1 1
H H4 0.3354 -0.0303 0.7881 0.033 Uiso calc R 1 1
O O3 0.4245(8) 0.2230(8) 0.5106(5) 0.055(2) Uani d . 1 1
H H5 0.2987 0.2689 0.4849 0.066 Uiso calc R 1 1
C C2 0.3662(10) 0.0716(9) 0.5767(7) 0.041(2) Uani d . 1 1
H H6 0.4758 -0.0092 0.5357 0.049 Uiso calc R 1 1
H H7 0.2014 0.0422 0.5477 0.049 Uiso calc R 1 1
C C3 0.6477(12) 0.1048(12) 0.8013(7) 0.040(2) Uani d . 1 1
loop_
_atom_site_aniso_label
_atom_site_aniso_U_11
_atom_site_aniso_U_22
_atom_site_aniso_U_33
_atom_site_aniso_U_12
_atom_site_aniso_U_13
_atom_site_aniso_U_23
N1 0.040(2) 0.039(7) 0.034(4) -0.005(3) 0.007(2) 0.003(2)
O1 0.047(2) 0.032(7) 0.097(5) 0.006(3) 0.000(3) -0.020(3)
O2 0.041(2) 0.060(8) 0.048(4) -0.002(3) -0.008(2) -0.012(3)
C1 0.045(3) 0.010(8) 0.028(5) -0.007(4) 0.001(3) 0.003(2)
O3 0.046(2) 0.071(8) 0.048(4) 0.002(3) 0.000(2) 0.017(3)
C2 0.052(3) 0.048(10) 0.023(5) -0.011(4) 0.005(3) -0.001(3)
C3 0.052(4) 0.044(9) 0.023(5) 0.002(5) 0.003(3) 0.001(3)
loop_
_atom_type_symbol
_atom_type_description
_atom_type_scat_dispersion_real
_atom_type_scat_dispersion_imag
_atom_type_scat_source
C C 0.0033 0.0016 'International Tables Vol C Tables 4.2.6.8 and 6.1.1.4'
H H 0.0000 0.0000 'International Tables Vol C Tables 4.2.6.8 and 6.1.1.4'
N N 0.0061 0.0033 'International Tables Vol C Tables 4.2.6.8 and 6.1.1.4'
O O 0.0106 0.0060 'International Tables Vol C Tables 4.2.6.8 and 6.1.1.4'
loop_
_geom_angle_atom_site_label_1
_geom_angle_atom_site_label_2
_geom_angle_atom_site_label_3
_geom_angle
C1 N1 H1 109.5
C1 N1 H2 109.5
H1 N1 H2 109.5
C1 N1 H3 109.5
H1 N1 H3 109.5
H2 N1 H3 109.5
C2 C1 N1 109.7(5)
C2 C1 C3 111.7(4)
N1 C1 C3 111.1(5)
C2 C1 H4 108.1
N1 C1 H4 108.1
C3 C1 H4 108.1
C2 O3 H5 109.5
O3 C2 C1 111.6(7)
O3 C2 H6 109.3
C1 C2 H6 109.3
O3 C2 H7 109.3
C1 C2 H7 109.3
H6 C2 H7 108.0
O1 C3 O2 127.3(6)
O1 C3 C1 116.5(6)
O2 C3 C1 116.0(6)
loop_
_geom_bond_atom_site_label_1
_geom_bond_atom_site_label_2
_geom_bond_distance
N1 C1 1.502(7)
N1 H1 0.8900
N1 H2 0.8900
N1 H3 0.8900
O1 C3 1.233(8)
O2 C3 1.243(9)
C1 C2 1.488(8)
C1 C3 1.527(8)
C1 H4 0.9800
O3 C2 1.422(8)
O3 H5 0.8200
C2 H6 0.9700
C2 H7 0.9700
loop_
_geom_hbond_atom_site_label_D
_geom_hbond_atom_site_label_H
_geom_hbond_atom_site_label_A
_geom_hbond_site_symmetry_A
_geom_hbond_distance_DH
_geom_hbond_distance_HA
_geom_hbond_distance_DA
_geom_hbond_angle_DHA
N1 H3 O1 1_455 0.89 1.97 2.797(6) 153.5
N1 H3 O2 1_455 0.89 2.28 3.006(5) 139.0
N1 H2 O2 3_457 0.89 1.87 2.712(7) 158.0
N1 H1 O1 4_656 0.89 1.86 2.675(9) 151.7
O3 H5 O3 3_456 0.82 2.06 2.787(2) 148.4
loop_
_geom_torsion_atom_site_label_1
_geom_torsion_atom_site_label_2
_geom_torsion_atom_site_label_3
_geom_torsion_atom_site_label_4
_geom_torsion
N1 C1 C2 O3 59.3(6)
C3 C1 C2 O3 -64.4(7)
C2 C1 C3 O1 -54.8(10)
N1 C1 C3 O1 -177.6(8)
C2 C1 C3 O2 120.1(9)
N1 C1 C3 O2 -2.7(11)
loop_
_cod_related_entry_id
_cod_related_entry_database
_cod_related_entry_code
1 ChemSpider 5736
