#------------------------------------------------------------------------------
#$Date: 2017-10-13 08:28:26 +0300 (Fri, 13 Oct 2017) $
#$Revision: 201972 $
#$URL: file:///home/coder/svn-repositories/cod/cif/2/10/50/2105099.cif $
#------------------------------------------------------------------------------
#
# This file is available in the Crystallography Open Database (COD),
# http://www.crystallography.net/. The original data for this entry
# were provided by IUCr Journals, http://journals.iucr.org/.
#
# The file may be used within the scientific community so long as
# proper attribution is given to the journal article from which the
# data were obtained.
#
data_2105099
loop_
_publ_author_name
'Zakharov, Boris A.'
'Kolesov, Boris A.'
'Boldyreva, Elena V.'
_publ_section_title
;
 Effect of pressure on crystalline <small>L</small>- and
 <small>DL</small>-serine: revisited by a combined single-crystal X-ray
 diffraction at a laboratory source and polarized Raman spectroscopy study
;
_journal_coeditor_code           GP5049
_journal_issue                   3
_journal_name_full               'Acta Crystallographica Section B'
_journal_page_first              275
_journal_page_last               286
_journal_paper_doi               10.1107/S0108768112015960
_journal_volume                  68
_journal_year                    2012
_chemical_formula_moiety         'C3 H7 N O3'
_chemical_formula_sum            'C3 H7 N O3'
_chemical_formula_weight         105.10
_chemical_melting_point          501
_chemical_name_common            DL-serine
_chemical_name_systematic
;
2-amino-3-hydroxypropanoic acid
;
_space_group_IT_number           14
_symmetry_cell_setting           monoclinic
_symmetry_space_group_name_Hall  '-P 2yn'
_symmetry_space_group_name_H-M   'P 1 21/n 1'
_atom_sites_solution_hydrogens   geom
_atom_sites_solution_primary     direct
_atom_sites_solution_secondary   difmap
_audit_creation_method           SHELXL-97
_cell_angle_alpha                90.00
_cell_angle_beta                 101.94(3)
_cell_angle_gamma                90.00
_cell_formula_units_Z            4
_cell_length_a                   4.8098(4)
_cell_length_b                   8.8377(5)
_cell_length_c                   9.971(8)
_cell_measurement_reflns_used    1666
_cell_measurement_temperature    293(2)
_cell_measurement_theta_max      30.6381
_cell_measurement_theta_min      2.2999
_cell_volume                     414.7(3)
_computing_cell_refinement
;
CrysAlisPro, Oxford Diffraction Ltd.,
Version 1.171.34.44 (release 25-10-2010 CrysAlis171 .NET)
(compiled Oct 25 2010,18:11:34)
;
_computing_data_collection
;
CrysAlisPro, Oxford Diffraction Ltd.,
Version 1.171.34.44 (release 25-10-2010 CrysAlis171 .NET)
(compiled Oct 25 2010,18:11:34)
;
_computing_data_reduction
;
CrysAlisPro, Oxford Diffraction Ltd.,
Version 1.171.34.44 (release 25-10-2010 CrysAlis171 .NET)
(compiled Oct 25 2010,18:11:34)
;
_computing_molecular_graphics    'Mercury (Macrae <i>et al.</i>, 2006)'
_computing_publication_material
;
Mercury (Macrae et al., 2006),
PLATON (Spek, 2009),
enCIFer (Allen et al., 2004)
;
_computing_structure_refinement  'SHELXL-97 (Sheldrick, 2008)'
_computing_structure_solution    'SHELXS-97 (Sheldrick, 2008)'
_diffrn_ambient_temperature      293(2)
_diffrn_detector_area_resol_mean 10.3457
_diffrn_measured_fraction_theta_full 0.321
_diffrn_measured_fraction_theta_max 0.321
_diffrn_measurement_device_type  'Xcalibur, Ruby, Gemini ultra'
_diffrn_measurement_method       'rotation method'
_diffrn_radiation_monochromator  graphite
_diffrn_radiation_source         'Enhance (Mo) X-ray Source'
_diffrn_radiation_type           MoK\a
_diffrn_radiation_wavelength     0.71073
_diffrn_reflns_av_R_equivalents  0.0497
_diffrn_reflns_av_sigmaI/netI    0.0313
_diffrn_reflns_limit_h_max       6
_diffrn_reflns_limit_h_min       -6
_diffrn_reflns_limit_k_max       12
_diffrn_reflns_limit_k_min       -12
_diffrn_reflns_limit_l_max       5
_diffrn_reflns_limit_l_min       -5
_diffrn_reflns_number            3261
_diffrn_reflns_theta_full        30.71
_diffrn_reflns_theta_max         30.71
_diffrn_reflns_theta_min         4.40
_exptl_absorpt_coefficient_mu    0.150
_exptl_absorpt_correction_T_max  0.473
_exptl_absorpt_correction_T_min  0.394
_exptl_absorpt_correction_type   gaussian
_exptl_absorpt_process_details
;
Absorb Angel (2004) J. Appl. Cryst. 37:486-492
;
_exptl_crystal_colour            colourless
_exptl_crystal_density_diffrn    1.683
_exptl_crystal_density_method    'not measured'
_exptl_crystal_description       prism
_exptl_crystal_F_000             224
_exptl_crystal_size_max          0.25
_exptl_crystal_size_mid          0.15
_exptl_crystal_size_min          0.07
_refine_diff_density_max         0.143
_refine_diff_density_min         -0.105
_refine_ls_extinction_method     none
_refine_ls_goodness_of_fit_ref   1.078
_refine_ls_hydrogen_treatment    constr
_refine_ls_matrix_type           full
_refine_ls_number_parameters     66
_refine_ls_number_reflns         413
_refine_ls_number_restraints     55
_refine_ls_restrained_S_all      1.011
_refine_ls_R_factor_all          0.0440
_refine_ls_R_factor_gt           0.0345
_refine_ls_shift/su_max          0.000
_refine_ls_shift/su_mean         0.000
_refine_ls_structure_factor_coef Fsqd
_refine_ls_weighting_details
'calc w=1/[\s^2^(Fo^2^)+(0.0470P)^2^+0.0016P] where P=(Fo^2^+2Fc^2^)/3'
_refine_ls_weighting_scheme      calc
_refine_ls_wR_factor_gt          0.0762
_refine_ls_wR_factor_ref         0.0800
_reflns_number_gt                350
_reflns_number_total             413
_reflns_threshold_expression     >2sigma(I)
_iucr_refine_instructions_details
;
TITL
CELL  0.71073  4.80975  8.83767  9.97063 90.00000 101.94000 90.00000
ZERR 4  0.00043  0.00047  0.00772  0.00000  0.02950  0.00000
LATT 1
SYMM -X+ 0.50000, Y+ 0.50000, -Z+ 0.50000
SFAC C H N O
UNIT 12 28 4 12
PLAN 30
FMAP 2
L.S. 20
EQIV $1 1/2+X,1/2-Y,1/2+Z
EQIV $2 1/2-X,-1/2+Y,1/2-Z
EQIV $3 3/2-X,-1/2+Y,1/2-Z
HTAB N1 O2_$1
HTAB N1 O3_$2
HTAB N1 O3_$3
HTAB O2 O1_$2
DELU
SIMU
ISOR 0.01 C1
BOND $H
BOND
CONF
ACTA
WGHT    0.047000    0.001600
FVAR       7.11940
O1    4    0.260127    0.380418    0.332115    11.00000    0.02178    0.02521 =
         0.03201   -0.00076    0.01224    0.00160
O2    4    0.322533    0.141988    0.056346    11.00000    0.03358    0.02085 =
         0.02930    0.00331   -0.00340   -0.00461
AFIX 147
H2    2    0.285242    0.064136    0.093760    11.00000   -1.20000
AFIX   0
N1    3    0.610485    0.151318    0.359539    11.00000    0.01978    0.01930 =
         0.02122   -0.00461    0.00408    0.00183
AFIX 137
H1A   2    0.441286    0.106437    0.339749    11.00000   -1.20000
H1B   2    0.629168    0.200288    0.438902    11.00000   -1.20000
H1C   2    0.746530    0.081816    0.366045    11.00000   -1.20000
AFIX   0
O3    4    0.398506    0.482897    0.152597    11.00000    0.02573    0.02159 =
         0.02076    0.00620    0.00547    0.00138
C1    1    0.634526    0.259992    0.249765    11.00000    0.01470    0.01718 =
         0.03434   -0.00344    0.00570   -0.00092
AFIX  13
H1    2    0.822634    0.307268    0.273348    11.00000   -1.20000
AFIX   0
C2    1    0.410214    0.384910    0.243800    11.00000    0.01587    0.01516 =
         0.03013   -0.00605    0.00452   -0.00395
C3    1    0.606733    0.186529    0.113227    11.00000    0.02451    0.02225 =
         0.03474   -0.00300    0.00913    0.00203
AFIX  23
H3A   2    0.670820    0.256396    0.050959    11.00000   -1.20000
H3B   2    0.728752    0.098134    0.122346    11.00000   -1.20000
HKLF 4
REM
REM R1 =  0.0345 for    350 Fo > 4sig(Fo)  and  0.0440 for all    413 data
REM     66 parameters refined using     55 restraints
END
WGHT      0.0470      0.0016
REM Highest difference peak  0.143,  deepest hole -0.105,  1-sigma level  0.032
Q1    1  -0.0124  0.4848  0.2698  11.00000  0.05    0.14
Q2    1   0.5740  0.3172  0.2876  11.00000  0.05    0.11
Q3    1   0.2231  0.2768  0.3340  11.00000  0.05    0.10
Q4    1   0.4008  0.3140  0.1108  11.00000  0.05    0.09
Q5    1   0.2523  0.2618  0.2078  11.00000  0.05    0.08
Q6    1   0.0778  0.0974  0.1275  11.00000  0.05    0.08
Q7    1   0.3610  0.0717  0.4121  11.00000  0.05    0.08
Q8    1   0.5789  0.2612  0.1105  11.00000  0.05    0.08
Q9    1   0.7631 -0.0519  0.4608  11.00000  0.05    0.08
Q10   1   0.3257 -0.0262  0.0712  11.00000  0.05    0.08
Q11   1   0.3874  0.0248  0.3153  11.00000  0.05    0.08
Q12   1   0.5783  0.2513  0.4517  11.00000  0.05    0.08
Q13   1   1.0257  0.3136  0.1070  11.00000  0.05    0.07
Q14   1   0.7346  0.2648  0.2383  11.00000  0.05    0.07
Q15   1   0.6762 -0.0531  0.0903  11.00000  0.05    0.07
Q16   1   0.6494  0.4631  0.1595  11.00000  0.05    0.07
Q17   1   0.8170  0.1353  0.0662  11.00000  0.05    0.07
Q18   1   0.6127  0.0255  0.1123  11.00000  0.05    0.07
Q19   1   0.9678  0.2073  0.0699  11.00000  0.05    0.07
Q20   1   0.8487  0.2022  0.2325  11.00000  0.05    0.07
Q21   1   0.5429  0.3241 -0.0602  11.00000  0.05    0.07
Q22   1   0.1390 -0.0218  0.1018  11.00000  0.05    0.07
Q23   1   0.2756  0.1465  0.2549  11.00000  0.05    0.07
Q24   1   0.7225  0.2999  0.4174  11.00000  0.05    0.07
Q25   1   0.7386  0.3054  0.4560  11.00000  0.05    0.07
Q26   1   0.6304  0.2084  0.2997  11.00000  0.05    0.07
Q27   1   0.6070  0.5249  0.2532  11.00000  0.05    0.07
Q28   1   0.4574  0.5538  0.2209  11.00000  0.05    0.07
Q29   1   0.4399  0.5405  0.1864  11.00000  0.05    0.06
Q30   1   0.4026  0.2329  0.4882  11.00000  0.05    0.06
;
_cod_data_source_file            gp5049.cif
_cod_data_source_block           DL-serine1.9GPa
_cod_depositor_comments
;
The following automatic conversions were performed:

'_exptl_absorpt_correction_type' value 'GAUSSIAN' changed to
'gaussian' according to
/home/saulius/struct/CIF-dictionaries/cif_core.dic dictionary named
'cif_core.dic' version 2.4.1 from 2010-06-29.

Automatic conversion script
Id: cif_fix_values 1891 2012-01-12 08:04:46Z andrius 
;
_cod_original_sg_symbol_H-M      P21/n
_cod_database_code               2105099
_cod_database_fobs_code          2105099
loop_
_symmetry_equiv_pos_as_xyz
'x, y, z'
'-x+1/2, y+1/2, -z+1/2'
'-x, -y, -z'
'x-1/2, -y-1/2, z-1/2'
loop_
_atom_site_type_symbol
_atom_site_label
_atom_site_fract_x
_atom_site_fract_y
_atom_site_fract_z
_atom_site_U_iso_or_equiv
_atom_site_adp_type
_atom_site_calc_flag
_atom_site_refinement_flags
_atom_site_occupancy
_atom_site_symmetry_multiplicity
O O1 0.2601(3) 0.38042(11) 0.3321(3) 0.0254(19) Uani d U 1 1
O O2 0.3225(3) 0.14199(13) 0.0563(4) 0.0293(19) Uani d U 1 1
H H2 0.2852 0.0641 0.0938 0.035 Uiso calc R 1 1
N N1 0.6105(3) 0.15132(14) 0.3595(4) 0.020(2) Uani d U 1 1
H H1A 0.4413 0.1064 0.3397 0.024 Uiso calc R 1 1
H H1B 0.6292 0.2003 0.4389 0.024 Uiso calc R 1 1
H H1C 0.7465 0.0818 0.3660 0.024 Uiso calc R 1 1
O O3 0.3985(3) 0.48290(12) 0.1526(3) 0.0226(18) Uani d U 1 1
C C1 0.6345(3) 0.25999(17) 0.2498(5) 0.0220(19) Uani d U 1 1
H H1 0.8226 0.3073 0.2733 0.026 Uiso calc R 1 1
C C2 0.4102(3) 0.38491(15) 0.2438(5) 0.020(2) Uani d U 1 1
C C3 0.6067(4) 0.18653(18) 0.1132(6) 0.027(2) Uani d U 1 1
H H3A 0.6708 0.2564 0.0510 0.032 Uiso calc R 1 1
H H3B 0.7288 0.0981 0.1223 0.032 Uiso calc R 1 1
loop_
_atom_site_aniso_label
_atom_site_aniso_U_11
_atom_site_aniso_U_22
_atom_site_aniso_U_33
_atom_site_aniso_U_12
_atom_site_aniso_U_13
_atom_site_aniso_U_23
O1 0.0218(6) 0.0252(6) 0.032(6) 0.0016(4) 0.0122(15) -0.0008(9)
O2 0.0336(7) 0.0209(5) 0.029(6) -0.0046(4) -0.0034(15) 0.0033(9)
N1 0.0198(7) 0.0193(6) 0.021(6) 0.0018(5) 0.0041(17) -0.0046(11)
O3 0.0257(7) 0.0216(6) 0.021(6) 0.0014(4) 0.0055(15) 0.0062(9)
C1 0.0147(7) 0.0172(7) 0.034(6) -0.0009(5) 0.0057(17) -0.0034(14)
C2 0.0159(8) 0.0152(7) 0.030(7) -0.0039(5) 0.0045(18) -0.0060(12)
C3 0.0245(9) 0.0222(8) 0.035(7) 0.0020(6) 0.009(2) -0.0030(16)
loop_
_atom_type_symbol
_atom_type_description
_atom_type_scat_dispersion_real
_atom_type_scat_dispersion_imag
_atom_type_scat_source
C C 0.0033 0.0016 'International Tables Vol C Tables 4.2.6.8 and 6.1.1.4'
H H 0.0000 0.0000 'International Tables Vol C Tables 4.2.6.8 and 6.1.1.4'
N N 0.0061 0.0033 'International Tables Vol C Tables 4.2.6.8 and 6.1.1.4'
O O 0.0106 0.0060 'International Tables Vol C Tables 4.2.6.8 and 6.1.1.4'
loop_
_geom_angle_atom_site_label_1
_geom_angle_atom_site_label_2
_geom_angle_atom_site_label_3
_geom_angle
C3 O2 H2 109.5
C1 N1 H1A 109.5
C1 N1 H1B 109.5
H1A N1 H1B 109.5
C1 N1 H1C 109.5
H1A N1 H1C 109.5
H1B N1 H1C 109.5
N1 C1 C3 112.80(18)
N1 C1 C2 109.5(3)
C3 C1 C2 110.4(3)
N1 C1 H1 108.0
C3 C1 H1 108.0
C2 C1 H1 108.0
O3 C2 O1 126.14(15)
O3 C2 C1 116.9(3)
O1 C2 C1 117.0(3)
O2 C3 C1 112.5(2)
O2 C3 H3A 109.1
C1 C3 H3A 109.1
O2 C3 H3B 109.1
C1 C3 H3B 109.1
H3A C3 H3B 107.8
loop_
_geom_bond_atom_site_label_1
_geom_bond_atom_site_label_2
_geom_bond_distance
O1 C2 1.249(4)
O2 C3 1.423(3)
O2 H2 0.8200
N1 C1 1.479(5)
N1 H1A 0.8900
N1 H1B 0.8900
N1 H1C 0.8900
O3 C2 1.249(4)
C1 C3 1.489(8)
C1 C2 1.536(2)
C1 H1 0.9800
C3 H3A 0.9700
C3 H3B 0.9700
loop_
_geom_hbond_atom_site_label_D
_geom_hbond_atom_site_label_H
_geom_hbond_atom_site_label_A
_geom_hbond_site_symmetry_A
_geom_hbond_distance_DH
_geom_hbond_distance_HA
_geom_hbond_distance_DA
_geom_hbond_angle_DHA
N1 H1B O2 4_666 0.89 1.93 2.720(4) 146.9
N1 H1A O3 2_545 0.89 1.98 2.8462(15) 164.0
N1 H1C O3 2_645 0.89 1.96 2.8153(16) 160.4
O2 H2 O1 2_545 0.82 1.82 2.631(2) 172.5
loop_
_geom_torsion_atom_site_label_1
_geom_torsion_atom_site_label_2
_geom_torsion_atom_site_label_3
_geom_torsion_atom_site_label_4
_geom_torsion
N1 C1 C2 O3 -177.8(3)
C3 C1 C2 O3 -53.0(3)
N1 C1 C2 O1 3.4(4)
C3 C1 C2 O1 128.2(3)
N1 C1 C3 O2 73.0(3)
C2 C1 C3 O2 -49.8(3)
loop_
_cod_related_entry_id
_cod_related_entry_database
_cod_related_entry_code
1 ChemSpider 597
