#------------------------------------------------------------------------------
#$Date: 2017-10-13 08:28:26 +0300 (Fri, 13 Oct 2017) $
#$Revision: 201972 $
#$URL: file:///home/coder/svn-repositories/cod/cif/2/10/50/2105097.cif $
#------------------------------------------------------------------------------
#
# This file is available in the Crystallography Open Database (COD),
# http://www.crystallography.net/. The original data for this entry
# were provided by IUCr Journals, http://journals.iucr.org/.
#
# The file may be used within the scientific community so long as
# proper attribution is given to the journal article from which the
# data were obtained.
#
data_2105097
loop_
_publ_author_name
'Zakharov, Boris A.'
'Kolesov, Boris A.'
'Boldyreva, Elena V.'
_publ_section_title
;
 Effect of pressure on crystalline <small>L</small>- and
 <small>DL</small>-serine: revisited by a combined single-crystal X-ray
 diffraction at a laboratory source and polarized Raman spectroscopy study
;
_journal_coeditor_code           GP5049
_journal_issue                   3
_journal_name_full               'Acta Crystallographica Section B'
_journal_page_first              275
_journal_page_last               286
_journal_paper_doi               10.1107/S0108768112015960
_journal_volume                  68
_journal_year                    2012
_chemical_formula_moiety         'C3 H7 N O3'
_chemical_formula_sum            'C3 H7 N O3'
_chemical_formula_weight         105.10
_chemical_melting_point          501
_chemical_name_common            DL-serine
_chemical_name_systematic
;
2-amino-3-hydroxypropanoic acid
;
_space_group_IT_number           14
_symmetry_cell_setting           monoclinic
_symmetry_space_group_name_Hall  '-P 2yn'
_symmetry_space_group_name_H-M   'P 1 21/n 1'
_atom_sites_solution_hydrogens   geom
_atom_sites_solution_primary     direct
_atom_sites_solution_secondary   difmap
_audit_creation_method           SHELXL-97
_cell_angle_alpha                90.00
_cell_angle_beta                 101.58(3)
_cell_angle_gamma                90.00
_cell_formula_units_Z            4
_cell_length_a                   4.8329(5)
_cell_length_b                   8.9119(6)
_cell_length_c                   10.088(7)
_cell_measurement_reflns_used    1788
_cell_measurement_temperature    293(2)
_cell_measurement_theta_max      31.0046
_cell_measurement_theta_min      2.2799
_cell_volume                     425.6(3)
_computing_cell_refinement
;
CrysAlisPro, Oxford Diffraction Ltd.,
Version 1.171.34.44 (release 25-10-2010 CrysAlis171 .NET)
(compiled Oct 25 2010,18:11:34)
;
_computing_data_collection
;
CrysAlisPro, Oxford Diffraction Ltd.,
Version 1.171.34.44 (release 25-10-2010 CrysAlis171 .NET)
(compiled Oct 25 2010,18:11:34)
;
_computing_data_reduction
;
CrysAlisPro, Oxford Diffraction Ltd.,
Version 1.171.34.44 (release 25-10-2010 CrysAlis171 .NET)
(compiled Oct 25 2010,18:11:34)
;
_computing_molecular_graphics    'Mercury (Macrae <i>et al.</i>, 2006)'
_computing_publication_material
;
Mercury (Macrae et al., 2006),
PLATON (Spek, 2009),
enCIFer (Allen et al., 2004)
;
_computing_structure_refinement  'SHELXL-97 (Sheldrick, 2008)'
_computing_structure_solution    'SHELXS-97 (Sheldrick, 2008)'
_diffrn_ambient_temperature      293(2)
_diffrn_detector_area_resol_mean 10.3457
_diffrn_measured_fraction_theta_full 0.323
_diffrn_measured_fraction_theta_max 0.323
_diffrn_measurement_device_type  'Xcalibur, Ruby, Gemini ultra'
_diffrn_measurement_method       'rotation method'
_diffrn_radiation_monochromator  graphite
_diffrn_radiation_source         'Enhance (Mo) X-ray Source'
_diffrn_radiation_type           MoK\a
_diffrn_radiation_wavelength     0.71073
_diffrn_reflns_av_R_equivalents  0.0518
_diffrn_reflns_av_sigmaI/netI    0.0325
_diffrn_reflns_limit_h_max       6
_diffrn_reflns_limit_h_min       -7
_diffrn_reflns_limit_k_max       12
_diffrn_reflns_limit_k_min       -12
_diffrn_reflns_limit_l_max       5
_diffrn_reflns_limit_l_min       -5
_diffrn_reflns_number            3353
_diffrn_reflns_theta_full        31.08
_diffrn_reflns_theta_max         31.08
_diffrn_reflns_theta_min         4.38
_exptl_absorpt_coefficient_mu    0.147
_exptl_absorpt_correction_T_max  0.473
_exptl_absorpt_correction_T_min  0.396
_exptl_absorpt_correction_type   gaussian
_exptl_absorpt_process_details
;
Absorb Angel (2004) J. Appl. Cryst. 37:486-492
;
_exptl_crystal_colour            colourless
_exptl_crystal_density_diffrn    1.640
_exptl_crystal_density_method    'not measured'
_exptl_crystal_description       prism
_exptl_crystal_F_000             224
_exptl_crystal_size_max          0.25
_exptl_crystal_size_mid          0.15
_exptl_crystal_size_min          0.07
_refine_diff_density_max         0.112
_refine_diff_density_min         -0.106
_refine_ls_extinction_method     none
_refine_ls_goodness_of_fit_ref   1.040
_refine_ls_hydrogen_treatment    constr
_refine_ls_matrix_type           full
_refine_ls_number_parameters     66
_refine_ls_number_reflns         438
_refine_ls_number_restraints     55
_refine_ls_restrained_S_all      0.978
_refine_ls_R_factor_all          0.0456
_refine_ls_R_factor_gt           0.0300
_refine_ls_shift/su_max          0.000
_refine_ls_shift/su_mean         0.000
_refine_ls_structure_factor_coef Fsqd
_refine_ls_weighting_details
'calc w=1/[\s^2^(Fo^2^)+(0.0359P)^2^+0.0000P] where P=(Fo^2^+2Fc^2^)/3'
_refine_ls_weighting_scheme      calc
_refine_ls_wR_factor_gt          0.0617
_refine_ls_wR_factor_ref         0.0671
_reflns_number_gt                349
_reflns_number_total             438
_reflns_threshold_expression     >2sigma(I)
_iucr_refine_instructions_details
;
TITL
CELL  0.71073  4.83292  8.91188 10.08754 90.00000 101.58180 90.00000
ZERR 4  0.00045  0.00057  0.00735  0.00000  0.02790  0.00000
LATT 1
SYMM -X+ 0.50000, Y+ 0.50000, -Z+ 0.50000
SFAC C H N O
UNIT 12 28 4 12
PLAN 30
FMAP 2
L.S. 20
EQIV $1 1/2+X,1/2-Y,1/2+Z
EQIV $2 1/2-X,-1/2+Y,1/2-Z
EQIV $3 3/2-X,-1/2+Y,1/2-Z
HTAB N1 O2_$1
HTAB N1 O3_$2
HTAB N1 O3_$3
HTAB O2 O1_$2
BOND $H
BOND
CONF
ACTA
SIMU
DELU
ISOR 0.01 C1
WGHT    0.035900
FVAR       6.99977
O1    4    0.260378    0.383605    0.330938    11.00000    0.02347    0.02433 =
         0.03582   -0.00056    0.01489    0.00138
O2    4    0.317143    0.145672    0.059592    11.00000    0.03555    0.02154 =
         0.03851    0.00427    0.00032   -0.00574
AFIX 147
H2    2    0.282972    0.065837    0.093400    11.00000   -1.20000
AFIX   0
N1    3    0.606601    0.154196    0.356506    11.00000    0.02087    0.02053 =
         0.01604   -0.00615    0.00233    0.00048
AFIX 137
H1A   2    0.436599    0.111601    0.338838    11.00000   -1.20000
H1B   2    0.630336    0.202483    0.435210    11.00000   -1.20000
H1C   2    0.738704    0.083764    0.360956    11.00000   -1.20000
AFIX   0
O3    4    0.402813    0.485654    0.155077    11.00000    0.02779    0.02242 =
         0.03980    0.00818    0.00942    0.00202
C1    1    0.630222    0.262163    0.247295    11.00000    0.01398    0.01842 =
         0.03572   -0.00125    0.00558   -0.00035
AFIX  13
H1    2    0.818425    0.307730    0.269278    11.00000   -1.20000
AFIX   0
C2    1    0.411247    0.387598    0.245538    11.00000    0.01535    0.01633 =
         0.03852   -0.00250    0.00484   -0.00250
C3    1    0.600024    0.188476    0.113411    11.00000    0.02648    0.02485 =
         0.02304   -0.00264    0.00698    0.00274
AFIX  23
H3A   2    0.663885    0.256763    0.050935    11.00000   -1.20000
H3B   2    0.719685    0.100180    0.122223    11.00000   -1.20000
HKLF 4
REM
REM R1 =  0.0300 for    349 Fo > 4sig(Fo)  and  0.0456 for all    438 data
REM     66 parameters refined using     55 restraints
END
WGHT      0.0359      0.0000
REM Highest difference peak  0.112,  deepest hole -0.106,  1-sigma level  0.028
Q1    1   0.5310  0.3241  0.2617  11.00000  0.05    0.11
Q2    1   0.5073  0.3161  0.2207  11.00000  0.05    0.11
Q3    1   0.5643  0.3373  0.3167  11.00000  0.05    0.11
Q4    1   0.5983  0.2595  0.1237  11.00000  0.05    0.10
Q5    1   0.1839  0.1999  0.1448  11.00000  0.05    0.09
Q6    1   0.5701  0.1937 -0.0197  11.00000  0.05    0.09
Q7    1   0.1884  0.4634  0.0391  11.00000  0.05    0.08
Q8    1   0.5848  0.4774  0.0910  11.00000  0.05    0.08
Q9    1   0.7509  0.2852  0.2940  11.00000  0.05    0.08
Q10   1   0.4446  0.3142  0.4964  11.00000  0.05    0.08
Q11   1   0.8958  0.2145  0.3821  11.00000  0.05    0.08
Q12   1   0.5996  0.1808  0.0351  11.00000  0.05    0.07
Q13   1   0.4599  0.1728  0.0877  11.00000  0.05    0.07
Q14   1   0.8315  0.1774  0.0779  11.00000  0.05    0.07
Q15   1   0.3104 -0.0256  0.0672  11.00000  0.05    0.07
Q16   1   0.3195  0.5068 -0.0008  11.00000  0.05    0.07
Q17   1   0.8590  0.0136  0.3401  11.00000  0.05    0.07
Q18   1   0.2562  0.2789  0.2911  11.00000  0.05    0.07
Q19   1   0.3270  0.0658 -0.0690  11.00000  0.05    0.07
Q20   1   0.3187  0.0475  0.3229  11.00000  0.05    0.07
Q21   1   0.3489  0.5028  0.0456  11.00000  0.05    0.07
Q22   1   0.3568  0.4032  0.1131  11.00000  0.05    0.07
Q23   1   0.7062  0.2146 -0.0528  11.00000  0.05    0.07
Q24   1   0.2896  0.1951  0.0744  11.00000  0.05    0.06
Q25   1   0.3202  0.4113  0.0798  11.00000  0.05    0.06
Q26   1   0.2473  0.1885  0.0389  11.00000  0.05    0.06
Q27   1   0.8539  0.1153  0.2090  11.00000  0.05    0.06
Q28   1   0.5738  0.5601  0.2462  11.00000  0.05    0.06
Q29   1   0.6433 -0.0187  0.4560  11.00000  0.05    0.06
Q30   1   0.3926  0.4948  0.0981  11.00000  0.05    0.06
;
_cod_data_source_file            gp5049.cif
_cod_data_source_block           DL-serine1.1GPa
_cod_depositor_comments
;
The following automatic conversions were performed:

'_exptl_absorpt_correction_type' value 'Gaussian' changed to
'gaussian' according to
/home/saulius/struct/CIF-dictionaries/cif_core.dic dictionary named
'cif_core.dic' version 2.4.1 from 2010-06-29.

Automatic conversion script
Id: cif_fix_values 1891 2012-01-12 08:04:46Z andrius 
;
_cod_original_sg_symbol_H-M      P21/n
_cod_database_code               2105097
_cod_database_fobs_code          2105097
loop_
_symmetry_equiv_pos_as_xyz
'x, y, z'
'-x+1/2, y+1/2, -z+1/2'
'-x, -y, -z'
'x-1/2, -y-1/2, z-1/2'
loop_
_atom_site_type_symbol
_atom_site_label
_atom_site_fract_x
_atom_site_fract_y
_atom_site_fract_z
_atom_site_U_iso_or_equiv
_atom_site_adp_type
_atom_site_calc_flag
_atom_site_refinement_flags
_atom_site_occupancy
_atom_site_symmetry_multiplicity
O O1 0.2604(2) 0.38361(9) 0.3309(3) 0.0266(14) Uani d U 1 1
O O2 0.3171(2) 0.14567(11) 0.0596(3) 0.0329(15) Uani d U 1 1
H H2 0.2830 0.0658 0.0934 0.039 Uiso calc R 1 1
N N1 0.6066(3) 0.15420(11) 0.3565(3) 0.0193(17) Uani d U 1 1
H H1A 0.4366 0.1116 0.3388 0.023 Uiso calc R 1 1
H H1B 0.6303 0.2025 0.4352 0.023 Uiso calc R 1 1
H H1C 0.7387 0.0838 0.3610 0.023 Uiso calc R 1 1
O O3 0.4028(2) 0.48565(10) 0.1551(3) 0.0296(15) Uani d U 1 1
C C1 0.6302(3) 0.26216(15) 0.2473(4) 0.0226(17) Uani d U 1 1
H H1 0.8184 0.3077 0.2693 0.027 Uiso calc R 1 1
C C2 0.4112(3) 0.38760(14) 0.2455(4) 0.0235(18) Uani d U 1 1
C C3 0.6000(3) 0.18848(16) 0.1134(5) 0.0245(18) Uani d U 1 1
H H3A 0.6639 0.2568 0.0509 0.029 Uiso calc R 1 1
H H3B 0.7197 0.1002 0.1222 0.029 Uiso calc R 1 1
loop_
_atom_site_aniso_label
_atom_site_aniso_U_11
_atom_site_aniso_U_22
_atom_site_aniso_U_33
_atom_site_aniso_U_12
_atom_site_aniso_U_13
_atom_site_aniso_U_23
O1 0.0235(5) 0.0243(5) 0.036(5) 0.0014(4) 0.0149(12) -0.0006(7)
O2 0.0355(6) 0.0215(5) 0.039(5) -0.0057(4) 0.0003(12) 0.0043(8)
N1 0.0209(6) 0.0205(6) 0.016(5) 0.0005(4) 0.0023(15) -0.0061(9)
O3 0.0278(6) 0.0224(5) 0.040(5) 0.0020(4) 0.0094(12) 0.0082(8)
C1 0.0140(6) 0.0184(6) 0.036(5) -0.0003(4) 0.0056(14) -0.0013(11)
C2 0.0154(7) 0.0163(6) 0.039(6) -0.0025(4) 0.0048(16) -0.0025(10)
C3 0.0265(8) 0.0249(7) 0.023(6) 0.0027(5) 0.0070(17) -0.0026(13)
loop_
_atom_type_symbol
_atom_type_description
_atom_type_scat_dispersion_real
_atom_type_scat_dispersion_imag
_atom_type_scat_source
C C 0.0033 0.0016 'International Tables Vol C Tables 4.2.6.8 and 6.1.1.4'
H H 0.0000 0.0000 'International Tables Vol C Tables 4.2.6.8 and 6.1.1.4'
N N 0.0061 0.0033 'International Tables Vol C Tables 4.2.6.8 and 6.1.1.4'
O O 0.0106 0.0060 'International Tables Vol C Tables 4.2.6.8 and 6.1.1.4'
loop_
_geom_angle_atom_site_label_1
_geom_angle_atom_site_label_2
_geom_angle_atom_site_label_3
_geom_angle
C3 O2 H2 109.5
C1 N1 H1A 109.5
C1 N1 H1B 109.5
H1A N1 H1B 109.5
C1 N1 H1C 109.5
H1A N1 H1C 109.5
H1B N1 H1C 109.5
C3 C1 N1 112.39(15)
C3 C1 C2 111.7(3)
N1 C1 C2 108.9(2)
C3 C1 H1 107.9
N1 C1 H1 107.9
C2 C1 H1 107.9
O1 C2 O3 126.00(14)
O1 C2 C1 118.2(2)
O3 C2 C1 115.8(3)
O2 C3 C1 112.3(2)
O2 C3 H3A 109.2
C1 C3 H3A 109.2
O2 C3 H3B 109.2
C1 C3 H3B 109.2
H3A C3 H3B 107.9
loop_
_geom_bond_atom_site_label_1
_geom_bond_atom_site_label_2
_geom_bond_distance
O1 C2 1.236(3)
O2 C3 1.418(3)
O2 H2 0.8200
N1 C1 1.484(4)
N1 H1A 0.8900
N1 H1B 0.8900
N1 H1C 0.8900
O3 C2 1.258(4)
C1 C3 1.482(6)
C1 C2 1.5370(19)
C1 H1 0.9800
C3 H3A 0.9700
C3 H3B 0.9700
loop_
_geom_hbond_atom_site_label_D
_geom_hbond_atom_site_label_H
_geom_hbond_atom_site_label_A
_geom_hbond_site_symmetry_A
_geom_hbond_distance_DH
_geom_hbond_distance_HA
_geom_hbond_distance_DA
_geom_hbond_angle_DHA
N1 H1B O2 4_666 0.89 1.94 2.753(4) 150.9
N1 H1A O3 2_545 0.89 2.00 2.8663(13) 164.5
N1 H1C O3 2_645 0.89 1.98 2.8289(13) 160.0
O2 H2 O1 2_545 0.82 1.82 2.642(2) 174.9
loop_
_geom_torsion_atom_site_label_1
_geom_torsion_atom_site_label_2
_geom_torsion_atom_site_label_3
_geom_torsion_atom_site_label_4
_geom_torsion
C3 C1 C2 O1 126.2(3)
N1 C1 C2 O1 1.4(3)
C3 C1 C2 O3 -53.5(2)
N1 C1 C2 O3 -178.3(2)
N1 C1 C3 O2 73.3(2)
C2 C1 C3 O2 -49.6(3)
loop_
_cod_related_entry_id
_cod_related_entry_database
_cod_related_entry_code
1 ChemSpider 597
