#------------------------------------------------------------------------------
#$Date: 2017-10-13 08:28:26 +0300 (Fri, 13 Oct 2017) $
#$Revision: 201972 $
#$URL: file:///home/coder/svn-repositories/cod/cif/2/10/51/2105101.cif $
#------------------------------------------------------------------------------
#
# This file is available in the Crystallography Open Database (COD),
# http://www.crystallography.net/. The original data for this entry
# were provided by IUCr Journals, http://journals.iucr.org/.
#
# The file may be used within the scientific community so long as
# proper attribution is given to the journal article from which the
# data were obtained.
#
data_2105101
loop_
_publ_author_name
'Zakharov, Boris A.'
'Kolesov, Boris A.'
'Boldyreva, Elena V.'
_publ_section_title
;
 Effect of pressure on crystalline <small>L</small>- and
 <small>DL</small>-serine: revisited by a combined single-crystal X-ray
 diffraction at a laboratory source and polarized Raman spectroscopy study
;
_journal_coeditor_code           GP5049
_journal_issue                   3
_journal_name_full               'Acta Crystallographica Section B'
_journal_page_first              275
_journal_page_last               286
_journal_paper_doi               10.1107/S0108768112015960
_journal_volume                  68
_journal_year                    2012
_chemical_formula_moiety         'C3 H7 N O3'
_chemical_formula_sum            'C3 H7 N O3'
_chemical_formula_weight         105.10
_chemical_melting_point          501
_chemical_name_common            DL-serine
_chemical_name_systematic
;
2-amino-3-hydroxypropanoic acid
;
_space_group_IT_number           14
_symmetry_cell_setting           monoclinic
_symmetry_space_group_name_Hall  '-P 2yn'
_symmetry_space_group_name_H-M   'P 1 21/n 1'
_atom_sites_solution_hydrogens   geom
_atom_sites_solution_primary     direct
_atom_sites_solution_secondary   difmap
_audit_creation_method           SHELXL-97
_cell_angle_alpha                90.00
_cell_angle_beta                 102.14(4)
_cell_angle_gamma                90.00
_cell_formula_units_Z            4
_cell_length_a                   4.7708(6)
_cell_length_b                   8.7429(7)
_cell_length_c                   9.864(11)
_cell_measurement_reflns_used    1919
_cell_measurement_temperature    293(2)
_cell_measurement_theta_max      30.7663
_cell_measurement_theta_min      2.3248
_cell_volume                     402.2(5)
_computing_cell_refinement
;
CrysAlisPro, Oxford Diffraction Ltd.,
Version 1.171.34.44 (release 25-10-2010 CrysAlis171 .NET)
(compiled Oct 25 2010,18:11:34)
;
_computing_data_collection
;
CrysAlisPro, Oxford Diffraction Ltd.,
Version 1.171.34.44 (release 25-10-2010 CrysAlis171 .NET)
(compiled Oct 25 2010,18:11:34)
;
_computing_data_reduction
;
CrysAlisPro, Oxford Diffraction Ltd.,
Version 1.171.34.44 (release 25-10-2010 CrysAlis171 .NET)
(compiled Oct 25 2010,18:11:34)
;
_computing_molecular_graphics    'Mercury (Macrae <i>et al.</i>, 2006)'
_computing_publication_material
;
Mercury (Macrae et al., 2006),
PLATON (Spek, 2009),
enCIFer (Allen et al., 2004)
;
_computing_structure_refinement  'SHELXL-97 (Sheldrick, 2008)'
_computing_structure_solution    'SHELXS-97 (Sheldrick, 2008)'
_diffrn_ambient_temperature      293(2)
_diffrn_detector_area_resol_mean 10.3457
_diffrn_measured_fraction_theta_full 0.284
_diffrn_measured_fraction_theta_max 0.284
_diffrn_measurement_device_type  'Xcalibur, Ruby, Gemini ultra'
_diffrn_measurement_method       'rotation method'
_diffrn_radiation_monochromator  graphite
_diffrn_radiation_source         'Enhance (Mo) X-ray Source'
_diffrn_radiation_type           MoK\a
_diffrn_radiation_wavelength     0.71073
_diffrn_reflns_av_R_equivalents  0.0476
_diffrn_reflns_av_sigmaI/netI    0.0245
_diffrn_reflns_limit_h_max       6
_diffrn_reflns_limit_h_min       -6
_diffrn_reflns_limit_k_max       12
_diffrn_reflns_limit_k_min       -12
_diffrn_reflns_limit_l_max       4
_diffrn_reflns_limit_l_min       -4
_diffrn_reflns_number            3631
_diffrn_reflns_theta_full        30.84
_diffrn_reflns_theta_max         30.84
_diffrn_reflns_theta_min         4.44
_exptl_absorpt_coefficient_mu    0.155
_exptl_absorpt_correction_T_max  0.474
_exptl_absorpt_correction_T_min  0.393
_exptl_absorpt_correction_type   gaussian
_exptl_absorpt_process_details
;
Absorb Angel (2004) J. Appl. Cryst. 37:486-492
;
_exptl_crystal_colour            colourless
_exptl_crystal_density_diffrn    1.736
_exptl_crystal_density_method    'not measured'
_exptl_crystal_description       prism
_exptl_crystal_F_000             224
_exptl_crystal_size_max          0.25
_exptl_crystal_size_mid          0.15
_exptl_crystal_size_min          0.07
_refine_diff_density_max         0.127
_refine_diff_density_min         -0.110
_refine_ls_extinction_method     none
_refine_ls_goodness_of_fit_ref   1.035
_refine_ls_hydrogen_treatment    constr
_refine_ls_matrix_type           full
_refine_ls_number_parameters     66
_refine_ls_number_reflns         360
_refine_ls_number_restraints     55
_refine_ls_restrained_S_all      0.966
_refine_ls_R_factor_all          0.0371
_refine_ls_R_factor_gt           0.0286
_refine_ls_shift/su_max          0.000
_refine_ls_shift/su_mean         0.000
_refine_ls_structure_factor_coef Fsqd
_refine_ls_weighting_details
'calc w=1/[\s^2^(Fo^2^)+(0.0504P)^2^+0.0000P] where P=(Fo^2^+2Fc^2^)/3'
_refine_ls_weighting_scheme      calc
_refine_ls_wR_factor_gt          0.0696
_refine_ls_wR_factor_ref         0.0732
_reflns_number_gt                312
_reflns_number_total             360
_reflns_threshold_expression     >2sigma(I)
_iucr_refine_instructions_details
;
TITL
CELL  0.71073  4.77083  8.74289  9.86365 90.00000 102.13710 90.00000
ZERR 4  0.00062  0.00065  0.01143  0.00000  0.04480  0.00000
LATT 1
SYMM -X+ 0.50000, Y+ 0.50000, -Z+ 0.50000
SFAC C H N O
UNIT 12 28 4 12
PLAN 30
FMAP 2
L.S. 20
EQIV $1 1/2+X,1/2-Y,1/2+Z
EQIV $2 1/2-X,-1/2+Y,1/2-Z
EQIV $3 3/2-X,-1/2+Y,1/2-Z
HTAB N1 O2_$1
HTAB N1 O3_$2
HTAB N1 O3_$3
HTAB O2 O1_$2
BOND $H
BOND
CONF
DELU
SIMU
ISOR 0.01 C1
ACTA
WGHT    0.050400
FVAR       7.25510
O1    4    0.259810    0.378121    0.333345    11.00000    0.02144    0.02426 =
         0.03037   -0.00226    0.01559    0.00044
O2    4    0.329699    0.139949    0.054593    11.00000    0.03195    0.01880 =
         0.02094    0.00263   -0.00354   -0.00405
AFIX 147
H2    2    0.291913    0.060413    0.091021    11.00000   -1.20000
AFIX   0
N1    3    0.613781    0.148504    0.361012    11.00000    0.01772    0.01857 =
         0.02134   -0.00264    0.00299    0.00213
AFIX 137
H1A   2    0.440135    0.106313    0.342507    11.00000   -1.20000
H1B   2    0.640258    0.197367    0.441864    11.00000   -1.20000
H1C   2    0.745950    0.075789    0.365435    11.00000   -1.20000
AFIX   0
O3    4    0.394058    0.480626    0.150516    11.00000    0.02405    0.01947 =
         0.02168    0.00418    0.00532    0.00176
C1    1    0.638814    0.258713    0.249589    11.00000    0.01541    0.01654 =
         0.04083   -0.00088    0.00953    0.00026
AFIX  13
H1    2    0.827483    0.307601    0.274635    11.00000   -1.20000
AFIX   0
C2    1    0.410583    0.382737    0.244273    11.00000    0.01357    0.01355 =
         0.03293   -0.00363    0.00286   -0.00349
C3    1    0.616312    0.185620    0.115053    11.00000    0.02500    0.01960 =
         0.03896   -0.00197    0.00925    0.00416
AFIX  23
H3A   2    0.683277    0.256086    0.052819    11.00000   -1.20000
H3B   2    0.739857    0.096397    0.125762    11.00000   -1.20000
HKLF 4
REM
REM R1 =  0.0286 for    312 Fo > 4sig(Fo)  and  0.0371 for all    360 data
REM     66 parameters refined using     55 restraints
END
WGHT      0.0504      0.0000
REM Highest difference peak  0.127,  deepest hole -0.110,  1-sigma level  0.027
Q1    1   0.8817  0.2360  0.3510  11.00000  0.05    0.13
Q2    1   0.5241  0.2963  0.2669  11.00000  0.05    0.10
Q3    1   0.1842  0.1843  0.0888  11.00000  0.05    0.09
Q4    1   0.1837  0.5255  0.0421  11.00000  0.05    0.09
Q5    1   0.3531  0.4877  0.0524  11.00000  0.05    0.08
Q6    1   0.6688  0.0669  0.4388  11.00000  0.05    0.08
Q7    1   0.6887  0.2619  0.4285  11.00000  0.05    0.07
Q8    1   0.6118  0.2574  0.1060  11.00000  0.05    0.07
Q9    1   0.6087  0.3583  0.3421  11.00000  0.05    0.07
Q10   1   0.8075  0.1174  0.0788  11.00000  0.05    0.07
Q11   1   0.3795  0.0221  0.0801  11.00000  0.05    0.07
Q12   1   0.1787  0.3951  0.2226  11.00000  0.05    0.07
Q13   1   0.4726  0.0378  0.4158  11.00000  0.05    0.07
Q14   1   0.0757  0.3986  0.3185  11.00000  0.05    0.06
Q15   1   0.4022  0.5268  0.1321  11.00000  0.05    0.06
Q16   1   0.6011  0.1764  0.0221  11.00000  0.05    0.06
Q17   1   0.8952  0.1720  0.1541  11.00000  0.05    0.06
Q18   1   0.8170 -0.0343  0.2797  11.00000  0.05    0.06
Q19   1   0.5716 -0.0363  0.3848  11.00000  0.05    0.06
Q20   1   0.8791  0.1153  0.4353  11.00000  0.05    0.06
Q21   1   0.1140  0.4809  0.2974  11.00000  0.05    0.06
Q22   1   0.5779  0.5213  0.1536  11.00000  0.05    0.06
Q23   1   0.5260  0.0042  0.2870  11.00000  0.05    0.06
Q24   1   0.2725  0.2525  0.2899  11.00000  0.05    0.06
Q25   1   0.5415 -0.0306  0.3295  11.00000  0.05    0.05
Q26   1   0.8681  0.3675  0.0515  11.00000  0.05    0.05
Q27   1   0.9328  0.3781  0.4183  11.00000  0.05    0.05
Q28   1   0.5970  0.3179 -0.0121  11.00000  0.05    0.05
Q29   1   0.4190  0.3836  0.3855  11.00000  0.05    0.05
Q30   1   0.2124  0.2807  0.2057  11.00000  0.05    0.05
;
_cod_data_source_file            gp5049.cif
_cod_data_source_block           DL-serine3.1GPa
_cod_depositor_comments
;
The following automatic conversions were performed:

'_exptl_absorpt_correction_type' value 'GAUSSIAN' changed to
'gaussian' according to
/home/saulius/struct/CIF-dictionaries/cif_core.dic dictionary named
'cif_core.dic' version 2.4.1 from 2010-06-29.

Automatic conversion script
Id: cif_fix_values 1891 2012-01-12 08:04:46Z andrius 
;
_cod_original_sg_symbol_H-M      P21/n
_cod_database_code               2105101
_cod_database_fobs_code          2105101
loop_
_symmetry_equiv_pos_as_xyz
'x, y, z'
'-x+1/2, y+1/2, -z+1/2'
'-x, -y, -z'
'x-1/2, -y-1/2, z-1/2'
loop_
_atom_site_type_symbol
_atom_site_label
_atom_site_fract_x
_atom_site_fract_y
_atom_site_fract_z
_atom_site_U_iso_or_equiv
_atom_site_adp_type
_atom_site_calc_flag
_atom_site_refinement_flags
_atom_site_occupancy
_atom_site_symmetry_multiplicity
O O1 0.2598(2) 0.37812(10) 0.3333(3) 0.024(2) Uani d U 1 1
O O2 0.3297(3) 0.13995(11) 0.0546(4) 0.025(2) Uani d U 1 1
H H2 0.2919 0.0604 0.0910 0.030 Uiso calc R 1 1
N N1 0.6138(3) 0.14850(13) 0.3610(4) 0.019(2) Uani d U 1 1
H H1A 0.4401 0.1063 0.3425 0.023 Uiso calc R 1 1
H H1B 0.6403 0.1974 0.4419 0.023 Uiso calc R 1 1
H H1C 0.7459 0.0758 0.3654 0.023 Uiso calc R 1 1
O O3 0.3941(3) 0.48063(12) 0.1505(3) 0.022(2) Uani d U 1 1
C C1 0.6388(3) 0.25871(17) 0.2496(5) 0.024(2) Uani d U 1 1
H H1 0.8275 0.3076 0.2746 0.028 Uiso calc R 1 1
C C2 0.4106(3) 0.38274(14) 0.2443(5) 0.020(2) Uani d U 1 1
C C3 0.6163(4) 0.18562(18) 0.1151(6) 0.027(2) Uani d U 1 1
H H3A 0.6833 0.2561 0.0528 0.033 Uiso calc R 1 1
H H3B 0.7399 0.0964 0.1258 0.033 Uiso calc R 1 1
loop_
_atom_site_aniso_label
_atom_site_aniso_U_11
_atom_site_aniso_U_22
_atom_site_aniso_U_33
_atom_site_aniso_U_12
_atom_site_aniso_U_13
_atom_site_aniso_U_23
O1 0.0214(6) 0.0243(6) 0.030(6) 0.0004(4) 0.0156(16) -0.0023(9)
O2 0.0319(7) 0.0188(5) 0.021(7) -0.0040(4) -0.0035(16) 0.0026(9)
N1 0.0177(7) 0.0186(5) 0.021(7) 0.0021(4) 0.0030(19) -0.0026(11)
O3 0.0240(7) 0.0195(5) 0.022(6) 0.0018(4) 0.0053(16) 0.0042(10)
C1 0.0154(7) 0.0165(6) 0.041(6) 0.0003(5) 0.0095(18) -0.0009(15)
C2 0.0136(7) 0.0135(6) 0.033(8) -0.0035(4) 0.003(2) -0.0036(13)
C3 0.0250(9) 0.0196(7) 0.039(7) 0.0042(6) 0.009(2) -0.0020(18)
loop_
_atom_type_symbol
_atom_type_description
_atom_type_scat_dispersion_real
_atom_type_scat_dispersion_imag
_atom_type_scat_source
C C 0.0033 0.0016 'International Tables Vol C Tables 4.2.6.8 and 6.1.1.4'
H H 0.0000 0.0000 'International Tables Vol C Tables 4.2.6.8 and 6.1.1.4'
N N 0.0061 0.0033 'International Tables Vol C Tables 4.2.6.8 and 6.1.1.4'
O O 0.0106 0.0060 'International Tables Vol C Tables 4.2.6.8 and 6.1.1.4'
loop_
_geom_angle_atom_site_label_1
_geom_angle_atom_site_label_2
_geom_angle_atom_site_label_3
_geom_angle
C3 O2 H2 109.5
C1 N1 H1A 109.5
C1 N1 H1B 109.5
H1A N1 H1B 109.5
C1 N1 H1C 109.5
H1A N1 H1C 109.5
H1B N1 H1C 109.5
C3 C1 N1 112.81(19)
C3 C1 C2 111.4(4)
N1 C1 C2 108.5(3)
C3 C1 H1 108.0
N1 C1 H1 108.0
C2 C1 H1 108.0
O1 C2 O3 125.94(15)
O1 C2 C1 117.7(3)
O3 C2 C1 116.4(3)
O2 C3 C1 112.6(2)
O2 C3 H3A 109.1
C1 C3 H3A 109.1
O2 C3 H3B 109.1
C1 C3 H3B 109.1
H3A C3 H3B 107.8
loop_
_geom_bond_atom_site_label_1
_geom_bond_atom_site_label_2
_geom_bond_distance
O1 C2 1.248(4)
O2 C3 1.429(3)
O2 H2 0.8200
N1 C1 1.485(5)
N1 H1A 0.8900
N1 H1B 0.8900
N1 H1C 0.8900
O3 C2 1.250(5)
C1 C3 1.456(8)
C1 C2 1.530(2)
C1 H1 0.9800
C3 H3A 0.9700
C3 H3B 0.9700
loop_
_geom_hbond_atom_site_label_D
_geom_hbond_atom_site_label_H
_geom_hbond_atom_site_label_A
_geom_hbond_site_symmetry_A
_geom_hbond_distance_DH
_geom_hbond_distance_HA
_geom_hbond_distance_DA
_geom_hbond_angle_DHA
N1 H1B O2 4_666 0.89 1.91 2.702(4) 147.0
N1 H1A O3 2_545 0.89 1.95 2.8145(15) 163.6
N1 H1C O3 2_645 0.89 1.94 2.7915(15) 158.5
O2 H2 O1 2_545 0.82 1.80 2.616(2) 174.4
loop_
_geom_torsion_atom_site_label_1
_geom_torsion_atom_site_label_2
_geom_torsion_atom_site_label_3
_geom_torsion_atom_site_label_4
_geom_torsion
C3 C1 C2 O1 128.7(3)
N1 C1 C2 O1 3.9(4)
C3 C1 C2 O3 -51.8(3)
N1 C1 C2 O3 -176.5(3)
N1 C1 C3 O2 73.6(3)
C2 C1 C3 O2 -48.7(3)
loop_
_cod_related_entry_id
_cod_related_entry_database
_cod_related_entry_code
1 ChemSpider 597
