#------------------------------------------------------------------------------
#$Date: 2017-10-13 08:28:26 +0300 (Fri, 13 Oct 2017) $
#$Revision: 201972 $
#$URL: file:///home/coder/svn-repositories/cod/cif/2/10/51/2105104.cif $
#------------------------------------------------------------------------------
#
# This file is available in the Crystallography Open Database (COD),
# http://www.crystallography.net/. The original data for this entry
# were provided by IUCr Journals, http://journals.iucr.org/.
#
# The file may be used within the scientific community so long as
# proper attribution is given to the journal article from which the
# data were obtained.
#
data_2105104
loop_
_publ_author_name
'Zakharov, Boris A.'
'Kolesov, Boris A.'
'Boldyreva, Elena V.'
_publ_section_title
;
 Effect of pressure on crystalline <small>L</small>- and
 <small>DL</small>-serine: revisited by a combined single-crystal X-ray
 diffraction at a laboratory source and polarized Raman spectroscopy study
;
_journal_coeditor_code           GP5049
_journal_issue                   3
_journal_name_full               'Acta Crystallographica Section B'
_journal_page_first              275
_journal_page_last               286
_journal_paper_doi               10.1107/S0108768112015960
_journal_volume                  68
_journal_year                    2012
_chemical_formula_moiety         'C3 H7 N O3'
_chemical_formula_sum            'C3 H7 N O3'
_chemical_formula_weight         105.10
_chemical_name_common            L-serine
_chemical_name_systematic
;
(S)-2-amino-3-hydroxypropanoic acid
;
_space_group_IT_number           19
_symmetry_cell_setting           orthorhombic
_symmetry_space_group_name_Hall  'P 2ac 2ab'
_symmetry_space_group_name_H-M   'P 21 21 21'
_atom_sites_solution_hydrogens   geom
_atom_sites_solution_primary     direct
_atom_sites_solution_secondary   difmap
_audit_creation_method           SHELXL-97
_cell_angle_alpha                90.00
_cell_angle_beta                 90.00
_cell_angle_gamma                90.00
_cell_formula_units_Z            4
_cell_length_a                   5.590(2)
_cell_length_b                   8.569(13)
_cell_length_c                   9.233(7)
_cell_measurement_reflns_used    742
_cell_measurement_temperature    293(2)
_cell_measurement_theta_max      32.0636
_cell_measurement_theta_min      2.2014
_cell_volume                     442.3(8)
_computing_cell_refinement
;
CrysAlisPro, Oxford Diffraction Ltd.,
Version 1.171.34.40 (release 27-08-2010 CrysAlis171 .NET)
(compiled Aug 27 2010,11:50:40)
;
_computing_data_collection
;
CrysAlisPro, Oxford Diffraction Ltd.,
Version 1.171.34.40 (release 27-08-2010 CrysAlis171 .NET)
(compiled Aug 27 2010,11:50:40)
;
_computing_data_reduction
;
CrysAlisPro, Oxford Diffraction Ltd.,
Version 1.171.34.40 (release 27-08-2010 CrysAlis171 .NET)
(compiled Aug 27 2010,11:50:40)
;
_computing_molecular_graphics    'Mercury (Macrae <i>et al.</i>, 2006)'
_computing_publication_material
;
Mercury (Macrae et al., 2006),
PLATON (Spek, 2009),
enCIFer (Allen et al., 2004)
;
_computing_structure_refinement  'SHELXL-97 (Sheldrick, 2008)'
_computing_structure_solution    'SHELXS-97 (Sheldrick, 2008)'
_diffrn_ambient_temperature      293(2)
_diffrn_detector_area_resol_mean 10.3457
_diffrn_measured_fraction_theta_full 0.462
_diffrn_measured_fraction_theta_max 0.462
_diffrn_measurement_device_type  'Xcalibur, Ruby, Gemini ultra'
_diffrn_measurement_method       'rotation method'
_diffrn_radiation_monochromator  graphite
_diffrn_radiation_source         'fine-focus sealed tube'
_diffrn_radiation_type           MoK\a
_diffrn_radiation_wavelength     0.71073
_diffrn_reflns_av_R_equivalents  0.0940
_diffrn_reflns_av_sigmaI/netI    0.1149
_diffrn_reflns_limit_h_max       8
_diffrn_reflns_limit_h_min       -8
_diffrn_reflns_limit_k_max       7
_diffrn_reflns_limit_k_min       -8
_diffrn_reflns_limit_l_max       12
_diffrn_reflns_limit_l_min       -12
_diffrn_reflns_number            2565
_diffrn_reflns_theta_full        32.14
_diffrn_reflns_theta_max         32.14
_diffrn_reflns_theta_min         3.24
_exptl_absorpt_coefficient_mu    0.141
_exptl_absorpt_correction_T_max  0.474
_exptl_absorpt_correction_T_min  0.388
_exptl_absorpt_correction_type   gaussian
_exptl_absorpt_process_details
' Absorb Angel (2004) J. Appl. Cryst. 37:486-492'
_exptl_crystal_colour            colourless
_exptl_crystal_density_diffrn    1.578
_exptl_crystal_density_method    'not measured'
_exptl_crystal_description       prism
_exptl_crystal_F_000             224
_exptl_crystal_size_max          0.25
_exptl_crystal_size_mid          0.05
_exptl_crystal_size_min          0.05
_refine_diff_density_max         0.174
_refine_diff_density_min         -0.159
_refine_ls_extinction_method     none
_refine_ls_goodness_of_fit_ref   0.980
_refine_ls_hydrogen_treatment    constr
_refine_ls_matrix_type           full
_refine_ls_number_parameters     66
_refine_ls_number_reflns         661
_refine_ls_number_restraints     0
_refine_ls_restrained_S_all      0.980
_refine_ls_R_factor_all          0.1434
_refine_ls_R_factor_gt           0.0636
_refine_ls_shift/su_max          0.000
_refine_ls_shift/su_mean         0.000
_refine_ls_structure_factor_coef Fsqd
_refine_ls_weighting_details
'calc w=1/[\s^2^(Fo^2^)+(0.0404P)^2^+0.0000P] where P=(Fo^2^+2Fc^2^)/3'
_refine_ls_weighting_scheme      calc
_refine_ls_wR_factor_gt          0.1029
_refine_ls_wR_factor_ref         0.1283
_reflns_number_gt                334
_reflns_number_total             661
_reflns_threshold_expression     >2sigma(I)
_iucr_refine_instructions_details
;
TITL
CELL  0.71073  5.58996  8.56858  9.23288 90.00000 90.00000 90.00000
ZERR 4  0.00240  0.01310  0.00670  0.00000  0.00000  0.00000
LATT -1
SYMM -X+ 0.50000, -Y, Z+ 0.50000
SYMM X+ 0.50000, -Y+ 0.50000, -Z
SYMM -X, Y+ 0.50000, -Z+ 0.50000
SFAC C H N O
UNIT 12 28 4 12
PLAN 30
FMAP 2
L.S. 20
EQIV $1 -1+X,Y,Z
EQIV $2 -1/2+X,1/2-Y,2-Z
EQIV $3 1-X,1/2+Y,1.5-Z
EQIV $4 -1/2+X,1/2-Y,1-Z
EQIV $11 1-X,-1/2+Y,3/2-Z
EQIV $12 -1/2+X,1/2-Y,1-Z
HTAB N1 O1_$1
HTAB N1 O2_$1
HTAB N1 O2_$2
HTAB N1 O1_$3
HTAB O3 O3_$4
BOND $H
BOND
CONF
ACTA
WGHT    0.040400
FVAR       0.85732
N1    3    0.220525    0.203208    0.817007    11.00000    0.03044    0.07996 =
         0.02940    0.00157    0.00032   -0.00648
AFIX 137
H1    2    0.242764    0.292633    0.769857    11.00000   -1.20000
H2    2    0.251389    0.217080    0.910693    11.00000   -1.20000
H3    2    0.069592    0.172300    0.806115    11.00000   -1.20000
AFIX   0
O1    4    0.798062    0.025626    0.757105    11.00000    0.03691    0.05629 =
         0.08823   -0.02124    0.00395    0.00588
O2    4    0.676820    0.224746    0.885693    11.00000    0.04724    0.05684 =
         0.05526   -0.02216   -0.01247    0.00054
C1    1    0.385318    0.081271    0.756968    11.00000    0.03208    0.04472 =
         0.03036    0.00385    0.00762   -0.00521
AFIX  13
H4    2    0.335961   -0.020818    0.794343    11.00000   -1.20000
AFIX   0
O3    4    0.424244    0.231234    0.534831    11.00000    0.06249    0.05106 =
         0.04946    0.01304   -0.00205    0.00552
AFIX 147
H5    2    0.301527    0.277087    0.511237    11.00000   -1.20000
AFIX   0
C2    1    0.363425    0.079443    0.593832    11.00000    0.04812    0.04344 =
         0.03962   -0.01554   -0.00583    0.00226
AFIX  23
H6    2    0.469762    0.000962    0.553986    11.00000   -1.20000
H7    2    0.200929    0.052548    0.566712    11.00000   -1.20000
AFIX   0
C3    1    0.640029    0.112970    0.805910    11.00000    0.04209    0.03031 =
         0.03848    0.00541   -0.00079   -0.00251
HKLF 4
REM
REM R1 =  0.0636 for    334 Fo > 4sig(Fo)  and  0.1434 for all    661 data
REM     66 parameters refined using      0 restraints
END
WGHT      0.0404      0.0000
REM Highest difference peak  0.174,  deepest hole -0.159,  1-sigma level  0.043
Q1    1   0.1675  0.4004  0.8079  11.00000  0.05    0.17
Q2    1   0.8349  0.2572  0.8852  11.00000  0.05    0.16
Q3    1   0.0945 -0.0909  0.7500  11.00000  0.05    0.16
Q4    1   0.2233  0.3936  0.4536  11.00000  0.05    0.15
Q5    1   0.9372 -0.0257  0.7610  11.00000  0.05    0.14
Q6    1   0.7841  0.0904  0.8374  11.00000  0.05    0.14
Q7    1   0.2022  0.0848  0.5837  11.00000  0.05    0.14
Q8    1   0.6851  0.1132  0.9439  11.00000  0.05    0.14
Q9    1   0.6635  0.0057  0.7502  11.00000  0.05    0.14
Q10   1  -0.0501  0.1250  0.7075  11.00000  0.05    0.13
Q11   1   0.5971  0.2690  0.4653  11.00000  0.05    0.13
Q12   1   0.3603  0.2587  0.8352  11.00000  0.05    0.12
Q13   1   0.4613  0.3127  0.4757  11.00000  0.05    0.12
Q14   1   0.3118  0.2203  0.5365  11.00000  0.05    0.12
Q15   1   0.2218 -0.0415  0.6637  11.00000  0.05    0.12
Q16   1  -0.0853  0.2000  0.7823  11.00000  0.05    0.12
Q17   1   0.4441  0.3470  0.4662  11.00000  0.05    0.11
Q18   1   0.0330  0.0067  0.8810  11.00000  0.05    0.11
Q19   1   0.5947  0.1881  0.5205  11.00000  0.05    0.11
Q20   1   0.2426  0.0854  0.7522  11.00000  0.05    0.11
Q21   1   0.2060  0.0864  0.9030  11.00000  0.05    0.11
Q22   1   0.8629  0.0048  0.6219  11.00000  0.05    0.11
Q23   1   0.2174  0.0660  0.4585  11.00000  0.05    0.11
Q24   1   0.0085  0.0174  0.4746  11.00000  0.05    0.10
Q25   1   0.8142 -0.0179  0.6446  11.00000  0.05    0.10
Q26   1   0.5031  0.1188  0.7720  11.00000  0.05    0.10
Q27   1   0.4541  0.1009  0.8799  11.00000  0.05    0.10
Q28   1   0.1664  0.2043  0.6730  11.00000  0.05    0.10
Q29   1   0.4920  0.2347  0.9141  11.00000  0.05    0.10
Q30   1   0.7451  0.3320  0.8183  11.00000  0.05    0.10
;
_cod_data_source_file            gp5049.cif
_cod_data_source_block           L-serine0.1GPa
_cod_original_cell_volume        442.2(8)
_cod_database_code               2105104
_cod_database_fobs_code          2105104
loop_
_symmetry_equiv_pos_as_xyz
'x, y, z'
'-x+1/2, -y, z+1/2'
'x+1/2, -y+1/2, -z'
'-x, y+1/2, -z+1/2'
loop_
_atom_site_type_symbol
_atom_site_label
_atom_site_fract_x
_atom_site_fract_y
_atom_site_fract_z
_atom_site_U_iso_or_equiv
_atom_site_adp_type
_atom_site_calc_flag
_atom_site_refinement_flags
_atom_site_occupancy
_atom_site_symmetry_multiplicity
N N1 0.2205(5) 0.2032(7) 0.8170(4) 0.0466(18) Uani d . 1 1
H H1 0.2428 0.2926 0.7699 0.056 Uiso calc R 1 1
H H2 0.2514 0.2171 0.9107 0.056 Uiso calc R 1 1
H H3 0.0696 0.1723 0.8061 0.056 Uiso calc R 1 1
O O1 0.7981(6) 0.0256(6) 0.7571(4) 0.0605(19) Uani d . 1 1
O O2 0.6768(5) 0.2247(7) 0.8857(4) 0.053(2) Uani d . 1 1
C C1 0.3853(6) 0.0813(8) 0.7570(4) 0.0357(19) Uani d . 1 1
H H4 0.3360 -0.0208 0.7943 0.043 Uiso calc R 1 1
O O3 0.4242(6) 0.2312(6) 0.5348(4) 0.0543(19) Uani d . 1 1
H H5 0.3015 0.2771 0.5112 0.065 Uiso calc R 1 1
C C2 0.3634(9) 0.0794(9) 0.5938(5) 0.044(2) Uani d . 1 1
H H6 0.4698 0.0010 0.5540 0.052 Uiso calc R 1 1
H H7 0.2009 0.0525 0.5667 0.052 Uiso calc R 1 1
C C3 0.6400(9) 0.1130(10) 0.8059(5) 0.0370(19) Uani d . 1 1
loop_
_atom_site_aniso_label
_atom_site_aniso_U_11
_atom_site_aniso_U_22
_atom_site_aniso_U_33
_atom_site_aniso_U_12
_atom_site_aniso_U_13
_atom_site_aniso_U_23
N1 0.0304(16) 0.080(7) 0.029(3) -0.006(3) 0.0003(18) 0.002(2)
O1 0.0369(15) 0.056(6) 0.088(4) 0.006(2) 0.004(2) -0.021(2)
O2 0.0472(18) 0.057(7) 0.055(3) 0.001(3) -0.012(2) -0.022(2)
C1 0.0321(19) 0.045(7) 0.030(3) -0.005(3) 0.008(2) 0.004(2)
O3 0.062(2) 0.051(6) 0.049(3) 0.006(3) -0.002(2) 0.013(2)
C2 0.048(3) 0.043(9) 0.040(4) 0.002(4) -0.006(3) -0.016(3)
C3 0.042(3) 0.030(8) 0.038(4) -0.003(4) -0.001(2) 0.005(3)
loop_
_atom_type_symbol
_atom_type_description
_atom_type_scat_dispersion_real
_atom_type_scat_dispersion_imag
_atom_type_scat_source
C C 0.0033 0.0016 'International Tables Vol C Tables 4.2.6.8 and 6.1.1.4'
H H 0.0000 0.0000 'International Tables Vol C Tables 4.2.6.8 and 6.1.1.4'
N N 0.0061 0.0033 'International Tables Vol C Tables 4.2.6.8 and 6.1.1.4'
O O 0.0106 0.0060 'International Tables Vol C Tables 4.2.6.8 and 6.1.1.4'
loop_
_geom_angle_atom_site_label_1
_geom_angle_atom_site_label_2
_geom_angle_atom_site_label_3
_geom_angle
C1 N1 H1 109.5
C1 N1 H2 109.5
H1 N1 H2 109.5
C1 N1 H3 109.5
H1 N1 H3 109.5
H2 N1 H3 109.5
N1 C1 C2 109.0(4)
N1 C1 C3 110.0(4)
C2 C1 C3 112.0(4)
N1 C1 H4 108.6
C2 C1 H4 108.6
C3 C1 H4 108.6
C2 O3 H5 109.5
O3 C2 C1 110.2(5)
O3 C2 H6 109.6
C1 C2 H6 109.6
O3 C2 H7 109.6
C1 C2 H7 109.6
H6 C2 H7 108.1
O2 C3 O1 124.7(5)
O2 C3 C1 118.4(5)
O1 C3 C1 116.8(5)
loop_
_geom_bond_atom_site_label_1
_geom_bond_atom_site_label_2
_geom_bond_distance
N1 C1 1.499(6)
N1 H1 0.8900
N1 H2 0.8900
N1 H3 0.8900
O1 C3 1.242(7)
O2 C3 1.226(8)
C1 C2 1.511(6)
C1 C3 1.518(6)
C1 H4 0.9800
O3 C2 1.451(8)
O3 H5 0.8200
C2 H6 0.9700
C2 H7 0.9700
loop_
_geom_hbond_atom_site_label_D
_geom_hbond_atom_site_label_H
_geom_hbond_atom_site_label_A
_geom_hbond_site_symmetry_A
_geom_hbond_distance_DH
_geom_hbond_distance_HA
_geom_hbond_distance_DA
_geom_hbond_angle_DHA
N1 H3 O1 1_455 0.89 2.02 2.863(5) 157.2
N1 H3 O2 1_455 0.89 2.36 3.110(4) 142.2
N1 H2 O2 3_457 0.89 1.99 2.824(6) 155.7
N1 H1 O1 4_656 0.89 2.02 2.848(8) 153.3
O3 H5 O3 3_456 0.82 2.15 2.886(2) 148.9
loop_
_geom_torsion_atom_site_label_1
_geom_torsion_atom_site_label_2
_geom_torsion_atom_site_label_3
_geom_torsion_atom_site_label_4
_geom_torsion
N1 C1 C2 O3 59.1(5)
C3 C1 C2 O3 -62.8(6)
N1 C1 C3 O2 1.5(9)
C2 C1 C3 O2 122.9(7)
N1 C1 C3 O1 -176.0(6)
C2 C1 C3 O1 -54.6(9)
loop_
_cod_related_entry_id
_cod_related_entry_database
_cod_related_entry_code
1 ChemSpider 5736
