#------------------------------------------------------------------------------
#$Date: 2016-02-20 02:53:41 +0200 (Sat, 20 Feb 2016) $
#$Revision: 176768 $
#$URL: svn://www.crystallography.net/cod/cif/2/10/56/2105696.cif $
#------------------------------------------------------------------------------
#
# This file is available in the Crystallography Open Database (COD),
# http://www.crystallography.net/. The original data for this entry
# were provided by IUCr Journals, http://journals.iucr.org/.
#
# The file may be used within the scientific community so long as
# proper attribution is given to the journal article from which the
# data were obtained.
#
data_2105696
loop_
_publ_author_name
'Langan, Paul'
'Mason, Sax A.'
'Myles, Dean'
'Schoenborn, Benno P.'
_publ_section_title
;
 Structural characterization of crystals of \a-glycine during anomalous
 electrical behaviour
;
_journal_issue                   4
_journal_name_full
'Acta Crystallographica Section B Structural Science'
_journal_page_first              728
_journal_paper_doi               10.1107/S0108768102004263
_journal_volume                  58
_journal_year                    2002
_chemical_formula_sum            'C2 H5 N O2'
_chemical_formula_weight         75.06
_chemical_name_common            glycine
_chemical_name_systematic
;
 ?
;
_space_group_IT_number           14
_symmetry_cell_setting           monoclinic
_symmetry_space_group_name_Hall  '-P 2yn'
_symmetry_space_group_name_H-M   'P 1 21/n 1'
_atom_sites_solution_hydrogens   geom
_atom_sites_solution_primary     direct
_atom_sites_solution_secondary   difmap
_audit_creation_method           SHELXL-97
_cell_angle_alpha                90.00
_cell_angle_beta                 111.784(2)
_cell_angle_gamma                90.00
_cell_formula_units_Z            4
_cell_length_a                   5.0993(3)
_cell_length_b                   11.9416(6)
_cell_length_c                   5.4608(3)
_cell_measurement_reflns_used    1319
_cell_measurement_temperature    288(2)
_cell_measurement_theta_max      45.02
_cell_measurement_theta_min      4.03
_cell_volume                     308.78(3)
_computing_cell_refinement       'ILL RAFD9'
_computing_data_collection       'ILL MAD'
_computing_data_reduction        'ILL RETREAT'
_computing_molecular_graphics    PLATON
_computing_structure_refinement  'SHELXL-97 (Sheldrick, 1997)'
_computing_structure_solution    'SHELXL-97 (Sheldrick, 1997)'
_diffrn_ambient_temperature      288(2)
_diffrn_measured_fraction_theta_full 1.000
_diffrn_measured_fraction_theta_max 0.854
_diffrn_measurement_device_type  d9
_diffrn_measurement_method       'equatorial geometry'
_diffrn_radiation_probe          neutron
_diffrn_radiation_source         'ILL reactor'
_diffrn_radiation_type           neutron
_diffrn_radiation_wavelength     0.83950
_diffrn_reflns_av_R_equivalents  0.0159
_diffrn_reflns_av_sigmaI/netI    0.0266
_diffrn_reflns_limit_h_max       2
_diffrn_reflns_limit_h_min       -8
_diffrn_reflns_limit_k_max       18
_diffrn_reflns_limit_k_min       -13
_diffrn_reflns_limit_l_max       9
_diffrn_reflns_limit_l_min       -6
_diffrn_reflns_number            1540
_diffrn_reflns_theta_full        35.00
_diffrn_reflns_theta_max         45.02
_diffrn_reflns_theta_min         4.03
_diffrn_standards_decay_%        0
_diffrn_standards_interval_count 50
_diffrn_standards_number         3
_exptl_absorpt_coefficient_mu    0.239
_exptl_absorpt_correction_T_max  0.7061
_exptl_absorpt_correction_T_min  0.5504
_exptl_absorpt_correction_type   gaussian
_exptl_absorpt_process_details
;
  P. Coppens: The evaluation of absorption and extinction in
  single crystal structure analysis in crystallographic computing,
  ed F.R.Ahmed, Munsgaad, 1970.
;
_exptl_crystal_colour            none
_exptl_crystal_density_diffrn    1.615
_exptl_crystal_density_meas      ?
_exptl_crystal_density_method    'not measured'
_exptl_crystal_description       needle
_exptl_crystal_F_000             62
_exptl_crystal_size_max          6
_exptl_crystal_size_mid          1.8
_exptl_crystal_size_min          1.7
_refine_diff_density_max         0.681
_refine_diff_density_min         -0.622
_refine_ls_extinction_coef       0.615(18)
_refine_ls_extinction_expression Fc^*^=kFc[1+0.001xFc^2^\l^3^/sin(2\q)]^-1/4^
_refine_ls_extinction_method     SHELXL
_refine_ls_goodness_of_fit_ref   1.204
_refine_ls_hydrogen_treatment    mixed
_refine_ls_matrix_type           full
_refine_ls_number_parameters     92
_refine_ls_number_reflns         1319
_refine_ls_number_restraints     0
_refine_ls_restrained_S_all      1.204
_refine_ls_R_factor_all          0.0407
_refine_ls_R_factor_gt           0.0371
_refine_ls_shift/su_max          0.000
_refine_ls_shift/su_mean         0.000
_refine_ls_structure_factor_coef Fsqd
_refine_ls_weighting_details
'calc w=1/[\s^2^(Fo^2^)+(0.0324P)^2^+0.5346P] where P=(Fo^2^+2Fc^2^)/3'
_refine_ls_weighting_scheme      calc
_refine_ls_wR_factor_gt          0.0764
_refine_ls_wR_factor_ref         0.0777
_reflns_number_gt                1249
_reflns_number_total             1319
_reflns_threshold_expression     >2sigma(I)
_cod_data_source_file            an0604sup1.cif
_cod_data_source_block           288K
_cod_depositor_comments
;
The following automatic conversions were performed:

'_exptl_crystal_density_meas' value 'not measured' was changed to '?'
- the value is perceived as not measured.

Automatic conversion script
Id: cif_fix_values 3008 2015-01-20 13:52:24Z robertas 
;
_cod_database_code               2105696
loop_
_symmetry_equiv_pos_as_xyz
'x, y, z'
'-x+1/2, y+1/2, -z+1/2'
'-x, -y, -z'
'x-1/2, -y-1/2, z-1/2'
loop_
_atom_site_label
_atom_site_fract_x
_atom_site_fract_y
_atom_site_fract_z
_atom_site_U_iso_or_equiv
_atom_site_adp_type
_atom_site_calc_flag
_atom_site_occupancy
_atom_site_type_symbol
O1 0.30477(17) 0.09419(8) 0.23523(15) 0.02178(18) Uani d 1 O
O2 -0.14853(18) 0.14157(9) 0.10710(18) 0.02504(19) Uani d 1 O
N3 0.30030(10) 0.08977(5) -0.25894(9) 0.01858(13) Uani d 1 N
C4 0.07438(12) 0.12480(5) 0.06593(12) 0.01364(13) Uani d 1 C
C5 0.06373(13) 0.14504(6) -0.21334(12) 0.01592(14) Uani d 1 C
H6 0.2883(4) 0.10017(18) -0.4544(3) 0.0325(3) Uani d 1 H
H7 0.4949(4) 0.1191(2) -0.1310(4) 0.0360(4) Uani d 1 H
H8 0.2977(5) 0.00465(16) -0.2260(4) 0.0382(4) Uani d 1 H
H9 0.0767(5) 0.23489(16) -0.2434(4) 0.0407(4) Uani d 1 H
H10 -0.1343(4) 0.1145(2) -0.3568(4) 0.0419(4) Uani d 1 H
loop_
_atom_site_aniso_label
_atom_site_aniso_U_11
_atom_site_aniso_U_22
_atom_site_aniso_U_33
_atom_site_aniso_U_12
_atom_site_aniso_U_13
_atom_site_aniso_U_23
O1 0.0199(3) 0.0343(4) 0.0128(3) 0.0060(3) 0.0079(3) 0.0036(3)
O2 0.0185(3) 0.0402(5) 0.0211(4) 0.0016(3) 0.0127(3) -0.0027(3)
N3 0.0192(2) 0.0271(2) 0.0116(2) 0.00508(15) 0.00822(15) 0.00170(15)
C4 0.0152(2) 0.0158(3) 0.0124(2) -0.00079(17) 0.00792(19) -0.00083(18)
C5 0.0163(2) 0.0199(3) 0.0128(3) 0.00294(19) 0.00693(19) 0.0033(2)
H6 0.0334(7) 0.0480(9) 0.0202(6) 0.0048(6) 0.0149(5) 0.0035(6)
H7 0.0247(6) 0.0566(11) 0.0266(7) 0.0010(6) 0.0095(5) -0.0015(7)
H8 0.0526(11) 0.0309(8) 0.0314(8) 0.0128(7) 0.0159(8) 0.0027(6)
H9 0.0604(12) 0.0263(7) 0.0446(10) 0.0116(7) 0.0302(9) 0.0139(7)
H10 0.0241(7) 0.0730(14) 0.0251(7) -0.0014(8) 0.0049(6) -0.0061(8)
loop_
_atom_type_symbol
_atom_type_description
_atom_type_scat_dispersion_real
_atom_type_scat_dispersion_imag
_atom_type_scat_source
C C 0.0000 0.0000 'International Tables Vol C Tables 4.2.6.8 and 6.1.1.4'
H H 0.0000 0.0000 'International Tables Vol C Tables 4.2.6.8 and 6.1.1.4'
N N 0.0000 0.0000 'International Tables Vol C Tables 4.2.6.8 and 6.1.1.4'
O O 0.0000 0.0000 'International Tables Vol C Tables 4.2.6.8 and 6.1.1.4'
loop_
_geom_angle_atom_site_label_1
_geom_angle_atom_site_label_2
_geom_angle_atom_site_label_3
_geom_angle
C5 N3 H6 111.99(11)
C5 N3 H7 111.86(12)
C5 N3 H8 110.29(13)
O1 C4 O2 125.43(7)
O1 C4 C5 117.45(6)
O2 C4 C5 117.11(7)
N3 C5 C4 111.72(5)
N3 C5 H9 108.40(12)
C4 C5 H9 108.93(12)
N3 C5 H10 109.12(13)
C4 C5 H10 110.29(12)
loop_
_geom_bond_atom_site_label_1
_geom_bond_atom_site_label_2
_geom_bond_distance
O1 C4 1.2500(10)
O2 C4 1.2540(9)
N3 C5 1.4751(8)
N3 H6 1.0535(16)
N3 H7 1.0397(19)
N3 H8 1.033(2)
C4 C5 1.5250(9)
C5 H9 1.091(2)
C5 H10 1.086(2)
loop_
_geom_hbond_atom_site_label_D
_geom_hbond_atom_site_label_H
_geom_hbond_atom_site_label_A
_geom_hbond_site_symmetry_A
_geom_hbond_distance_DH
_geom_hbond_distance_HA
_geom_hbond_distance_DA
_geom_hbond_angle_DHA
N3 H6 O1 1_554 1.0535(16) 1.7293(17) 2.7713(9) 169.23(17)
N3 H6 O2 1_554 1.0535(16) 2.642(2) 3.4242(11) 130.75(12)
N3 H7 O2 1_655 1.0397(19) 1.820(2) 2.8474(10) 168.8(2)
N3 H8 O2 3 1.033(2) 2.101(2) 3.0650(12) 154.26(17)
N3 H8 O1 3_655 1.033(2) 2.362(2) 2.9504(10) 114.92(17)
N3 H8 O1 3_655 1.033(2) 2.362(2) 2.9504(10) 114.92(17)
