#------------------------------------------------------------------------------
#$Date: 2016-02-20 02:53:41 +0200 (Sat, 20 Feb 2016) $
#$Revision: 176768 $
#$URL: svn://www.crystallography.net/cod/cif/2/10/55/2105562.cif $
#------------------------------------------------------------------------------
#
# This file is available in the Crystallography Open Database (COD),
# http://www.crystallography.net/. The original data for this entry
# were provided by IUCr Journals, http://journals.iucr.org/.
#
# The file may be used within the scientific community so long as
# proper attribution is given to the journal article from which the
# data were obtained.
#
data_2105562
loop_
_publ_author_name
'Fu, Y.'
'Brock, C. P.'
_publ_section_title
;
 Temperature Dependence of the Rigid-Body Motion of Anthraquinone
;
_journal_issue                   3
_journal_name_full               'Acta Crystallographica Section B'
_journal_page_first              308
_journal_page_last               315
_journal_paper_doi               10.1107/S0108768197013414
_journal_volume                  54
_journal_year                    1998
_chemical_formula_moiety         'C14 H8 O2'
_chemical_formula_sum            'C14 H8 O2'
_chemical_formula_weight         208.22
_chemical_melting_point          558.0(10)
_chemical_name_systematic
;
anthraquinone
;
_space_group_IT_number           14
_symmetry_cell_setting           monoclinic
_symmetry_space_group_name_Hall  '-P 2ybc'
_symmetry_space_group_name_H-M   'P 1 21/c 1'
_audit_creation_method           'created by SHELXL-93 and C P Brock'
_cell_angle_alpha                90.
_cell_angle_beta                 102.616(13)
_cell_angle_gamma                90.
_cell_formula_units_Z            2
_cell_length_a                   7.8616(7)
_cell_length_b                   3.9280(6)
_cell_length_c                   15.713(3)
_cell_measurement_reflns_used    22
_cell_measurement_temperature    230.0(10)
_cell_measurement_theta_max      13.1
_cell_measurement_theta_min      10.4
_cell_volume                     473.51(13)
_computing_cell_refinement       'CAD4-VAX (ENRAF-Nonius, 1988)'
_computing_data_collection       'CAD4-VAX (ENRAF-Nonius, 1988)'
_computing_structure_refinement  'SHELXL-93 (Sheldrick, 1993)'
_diffrn_ambient_temperature      230.0(10)
_diffrn_measurement_device       'ENRAF-Nonius CAD4-VAX diffractometer'
_diffrn_measurement_method       '\w/2\q scans'
_diffrn_radiation_monochromator  graphite
_diffrn_radiation_type           'Mo K\a'
_diffrn_radiation_wavelength     0.71073
_diffrn_reflns_av_sigmaI/netI    0.018
_diffrn_reflns_limit_h_max       10
_diffrn_reflns_limit_h_min       0
_diffrn_reflns_limit_k_max       5
_diffrn_reflns_limit_k_min       0
_diffrn_reflns_limit_l_max       19
_diffrn_reflns_limit_l_min       -20
_diffrn_reflns_number            1077
_diffrn_reflns_theta_max         27.46
_diffrn_reflns_theta_min         2.65
_diffrn_standards_decay_%        -0.1
_diffrn_standards_interval_time  120
_diffrn_standards_number         3
_exptl_absorpt_coefficient_mu    0.09
_exptl_absorpt_correction_type   none
_exptl_crystal_colour            yellow
_exptl_crystal_density_diffrn    1.460
_exptl_crystal_density_meas      ?
_exptl_crystal_description
;
Laths.  Major faces are {001}, {100}, {111}, and {10-2}.
;
_exptl_crystal_F_000             216
_exptl_crystal_size_max          0.55
_exptl_crystal_size_mid          0.52
_exptl_crystal_size_min          0.18
_refine_diff_density_max         0.24
_refine_diff_density_min         -0.26
_refine_ls_extinction_method     none
_refine_ls_goodness_of_fit_all   1.04
_refine_ls_goodness_of_fit_obs   1.10
_refine_ls_hydrogen_treatment    refall
_refine_ls_matrix_type           full
_refine_ls_number_parameters     89
_refine_ls_number_reflns         1074
_refine_ls_number_restraints     0
_refine_ls_R_factor_all          0.071
_refine_ls_R_factor_obs          0.051
_refine_ls_shift/esd_max         -0.03
_refine_ls_shift/esd_mean        0.003
_refine_ls_structure_factor_coef Fsqd
_refine_ls_weighting_details
'w=1/[\s^2^(Fo^2^)+(0.1000P)^2^+0.1000P] where P=(Fo^2^+2Fc^2^)/3'
_refine_ls_weighting_scheme      calc
_refine_ls_wR_factor_all         0.157
_refine_ls_wR_factor_obs         0.138
_reflns_number_observed          809
_reflns_number_total             1077
_reflns_observed_criterion       >2sigma(I)
_cod_data_source_file            cr0524.cif
_cod_data_source_block           230
_cod_depositor_comments
;
The following automatic conversions were performed:

'_exptl_crystal_density_meas' value 'not measured' was changed to '?'
- the value is perceived as not measured.

Automatic conversion script
Id: cif_fix_values 3008 2015-01-20 13:52:24Z robertas 

The following automatic conversions were performed:

'_refine_ls_weighting_scheme' value 'calc
w=1/[\s^2^(Fo^2^)+(0.1000P)^2^+0.1000P] where P=(Fo^2^+2Fc^2^)/3' was
changed to 'calc'. New tag '_refine_ls_weighting_details' was
created. The value of the new tag was set to
'w=1/[\s^2^(Fo^2^)+(0.1000P)^2^+0.1000P] where P=(Fo^2^+2Fc^2^)/3'.

Automatic conversion script
Id: cif_fix_values 3143 2015-03-26 13:38:13Z robertas 
;
_cod_original_sg_symbol_H-M      'P 21/c'
_cod_database_code               2105562
loop_
_symmetry_equiv_pos_as_xyz
'x, y, z'
'-x, y+1/2, -z+1/2'
'-x, -y, -z'
'x, -y-1/2, z-1/2'
loop_
_atom_site_aniso_label
_atom_site_aniso_U_11
_atom_site_aniso_U_22
_atom_site_aniso_U_33
_atom_site_aniso_U_12
_atom_site_aniso_U_13
_atom_site_aniso_U_23
O 0.0405(7) 0.0888(12) 0.0357(7) -0.0095(7) 0.0216(5) -0.0116(7)
C1 0.0283(8) 0.0418(10) 0.0367(8) -0.0005(7) 0.0073(6) 0.0031(7)
C2 0.0325(8) 0.0436(11) 0.0407(9) -0.0038(7) -0.0023(7) 0.0026(8)
C3 0.0464(9) 0.0436(10) 0.0283(8) -0.0017(8) -0.0024(7) -0.0005(7)
C4 0.0433(9) 0.0416(10) 0.0238(7) 0.0004(7) 0.0071(6) -0.0001(7)
C5 0.0300(7) 0.0341(9) 0.0231(7) 0.0024(6) 0.0057(5) 0.0029(6)
C6 0.0272(7) 0.0342(9) 0.0258(7) 0.0024(6) 0.0056(5) 0.0043(6)
C7 0.0308(8) 0.0415(10) 0.0259(7) 0.0020(6) 0.0106(6) 0.0026(6)
loop_
_atom_site_label
_atom_site_fract_x
_atom_site_fract_y
_atom_site_fract_z
_atom_site_U_iso_or_equiv
_atom_site_thermal_displace_type
_atom_site_calc_flag
_atom_site_occupancy
_atom_site_type_symbol
O -0.2111(2) 0.0233(4) 0.11301(8) 0.0530(5) Uani d 1 O
C1 0.3421(2) 0.2710(5) 0.05011(10) 0.0356(4) Uani d 1 C
C2 0.4009(2) 0.4157(5) 0.13145(11) 0.0405(5) Uani d 1 C
C3 0.2921(2) 0.4282(5) 0.18987(11) 0.0411(5) Uani d 1 C
C4 0.1250(2) 0.2989(5) 0.16715(10) 0.0363(4) Uani d 1 C
C5 0.0637(2) 0.1535(4) 0.08520(9) 0.0291(4) Uani d 1 C
C6 0.1740(2) 0.1404(4) 0.02609(9) 0.0291(4) Uani d 1 C
C7 -0.1152(2) 0.0136(4) 0.06177(10) 0.0321(4) Uani d 1 C
H1 0.419(3) 0.258(5) 0.0113(13) 0.042(5) Uiso d 1 H
H2 0.519(3) 0.512(5) 0.1474(14) 0.050(6) Uiso d 1 H
H3 0.331(3) 0.534(6) 0.2440(16) 0.059(6) Uiso d 1 H
H4 0.046(3) 0.314(6) 0.2097(14) 0.051(6) Uiso d 1 H
loop_
_atom_type_symbol
_atom_type_description
_atom_type_scat_dispersion_real
_atom_type_scat_dispersion_imag
_atom_type_scat_source
C C 0.0033 0.0016 'International Tables Vol C Tables 4.2.6.8 and 6.1.1.4'
H H 0.0000 0.0000 'International Tables Vol C Tables 4.2.6.8 and 6.1.1.4'
O O 0.0106 0.0060 'International Tables Vol C Tables 4.2.6.8 and 6.1.1.4'
loop_
_geom_angle_atom_site_label_1
_geom_angle_atom_site_label_2
_geom_angle_atom_site_label_3
_geom_angle_site_symmetry_3
_geom_angle
_geom_angle_publ_flag
C6 C1 C2 . 120.54(15) yes
C1 C2 C3 . 119.8(2) yes
C2 C3 C4 . 120.4(2) yes
C3 C4 C5 . 120.4(2) yes
C4 C5 C6 . 119.17(14) yes
C4 C5 C7 . 119.98(14) yes
C6 C5 C7 . 120.85(13) yes
C1 C6 C5 . 119.65(14) yes
C1 C6 C7 3 119.11(14) yes
C5 C6 C7 3 121.23(13) yes
O C7 C5 . 121.05(15) yes
O C7 C6 3 121.04(15) yes
C5 C7 C6 3 117.92(12) yes
C2 C1 H1 . 119.0(12) yes
C6 C1 H1 . 120.5(12) yes
C1 C2 H2 . 120.0(12) yes
C3 C2 H2 . 120.2(12) yes
C2 C3 H3 . 119.4(14) yes
C4 C3 H3 . 120.2(15) yes
C3 C4 H4 . 119.9(12) yes
C5 C4 H4 . 119.7(12) yes
loop_
_geom_bond_atom_site_label_1
_geom_bond_atom_site_label_2
_geom_bond_site_symmetry_2
_geom_bond_distance
_geom_bond_publ_flag
O C7 . 1.218(2) yes
C1 C2 . 1.383(2) yes
C1 C6 . 1.391(2) yes
C2 C3 . 1.385(3) yes
C3 C4 . 1.381(2) yes
C4 C5 . 1.395(2) yes
C5 C6 . 1.403(2) yes
C5 C7 . 1.480(2) yes
C6 C7 3 1.485(2) yes
C1 H1 . 0.95(2) yes
C2 H2 . 0.99(2) yes
C3 H3 . 0.94(2) yes
C4 H4 . 1.01(2) yes
