#------------------------------------------------------------------------------
#$Date: 2017-10-13 08:28:26 +0300 (Fri, 13 Oct 2017) $
#$Revision: 201972 $
#$URL: file:///home/coder/svn-repositories/cod/cif/2/10/51/2105102.cif $
#------------------------------------------------------------------------------
#
# This file is available in the Crystallography Open Database (COD),
# http://www.crystallography.net/. The original data for this entry
# were provided by IUCr Journals, http://journals.iucr.org/.
#
# The file may be used within the scientific community so long as
# proper attribution is given to the journal article from which the
# data were obtained.
#
data_2105102
loop_
_publ_author_name
'Zakharov, Boris A.'
'Kolesov, Boris A.'
'Boldyreva, Elena V.'
_publ_section_title
;
 Effect of pressure on crystalline <small>L</small>- and
 <small>DL</small>-serine: revisited by a combined single-crystal X-ray
 diffraction at a laboratory source and polarized Raman spectroscopy study
;
_journal_coeditor_code           GP5049
_journal_issue                   3
_journal_name_full               'Acta Crystallographica Section B'
_journal_page_first              275
_journal_page_last               286
_journal_paper_doi               10.1107/S0108768112015960
_journal_volume                  68
_journal_year                    2012
_chemical_formula_moiety         'C3 H7 N O3'
_chemical_formula_sum            'C3 H7 N O3'
_chemical_formula_weight         105.10
_chemical_melting_point          501
_chemical_name_common            DL-serine
_chemical_name_systematic
;
2-amino-3-hydroxypropanoic acid
;
_space_group_IT_number           14
_symmetry_cell_setting           monoclinic
_symmetry_space_group_name_Hall  '-P 2yn'
_symmetry_space_group_name_H-M   'P 1 21/n 1'
_atom_sites_solution_hydrogens   geom
_atom_sites_solution_primary     direct
_atom_sites_solution_secondary   difmap
_audit_creation_method           SHELXL-97
_cell_angle_alpha                90.00
_cell_angle_beta                 102.25(4)
_cell_angle_gamma                90.00
_cell_formula_units_Z            4
_cell_length_a                   4.7576(6)
_cell_length_b                   8.7046(6)
_cell_length_c                   9.785(11)
_cell_measurement_reflns_used    1547
_cell_measurement_temperature    293(2)
_cell_measurement_theta_max      30.8791
_cell_measurement_theta_min      2.3350
_cell_volume                     396.0(5)
_computing_cell_refinement
;
CrysAlisPro, Oxford Diffraction Ltd.,
Version 1.171.34.44 (release 25-10-2010 CrysAlis171 .NET)
(compiled Oct 25 2010,18:11:34)
;
_computing_data_collection
;
CrysAlisPro, Oxford Diffraction Ltd.,
Version 1.171.34.44 (release 25-10-2010 CrysAlis171 .NET)
(compiled Oct 25 2010,18:11:34)
;
_computing_data_reduction
;
CrysAlisPro, Oxford Diffraction Ltd.,
Version 1.171.34.44 (release 25-10-2010 CrysAlis171 .NET)
(compiled Oct 25 2010,18:11:34)
;
_computing_molecular_graphics    'Mercury (Macrae <i>et al.</i>, 2006)'
_computing_publication_material
;
Mercury (Macrae et al., 2006),
PLATON (Spek, 2009),
enCIFer (Allen et al., 2004)
;
_computing_structure_refinement  'SHELXL-97 (Sheldrick, 2008)'
_computing_structure_solution    'SHELXS-97 (Sheldrick, 2008)'
_diffrn_ambient_temperature      293(2)
_diffrn_detector_area_resol_mean 10.3457
_diffrn_measured_fraction_theta_full 0.284
_diffrn_measured_fraction_theta_max 0.284
_diffrn_measurement_device_type  'Xcalibur, Ruby, Gemini ultra'
_diffrn_measurement_method       'rotation method'
_diffrn_radiation_monochromator  graphite
_diffrn_radiation_source         'Enhance (Mo) X-ray Source'
_diffrn_radiation_type           MoK\a
_diffrn_radiation_wavelength     0.71073
_diffrn_reflns_av_R_equivalents  0.0506
_diffrn_reflns_av_sigmaI/netI    0.0290
_diffrn_reflns_limit_h_max       6
_diffrn_reflns_limit_h_min       -6
_diffrn_reflns_limit_k_max       12
_diffrn_reflns_limit_k_min       -12
_diffrn_reflns_limit_l_max       4
_diffrn_reflns_limit_l_min       -4
_diffrn_reflns_number            3026
_diffrn_reflns_theta_full        30.95
_diffrn_reflns_theta_max         30.95
_diffrn_reflns_theta_min         4.45
_exptl_absorpt_coefficient_mu    0.158
_exptl_absorpt_correction_T_max  0.474
_exptl_absorpt_correction_T_min  0.396
_exptl_absorpt_correction_type   gaussian
_exptl_absorpt_process_details
;
Absorb Angel (2004) J. Appl. Cryst. 37:486-492
;
_exptl_crystal_colour            colourless
_exptl_crystal_density_diffrn    1.763
_exptl_crystal_density_method    'not measured'
_exptl_crystal_description       prism
_exptl_crystal_F_000             224
_exptl_crystal_size_max          0.25
_exptl_crystal_size_mid          0.15
_exptl_crystal_size_min          0.07
_refine_diff_density_max         0.107
_refine_diff_density_min         -0.118
_refine_ls_extinction_method     none
_refine_ls_goodness_of_fit_ref   1.121
_refine_ls_hydrogen_treatment    constr
_refine_ls_matrix_type           full
_refine_ls_number_parameters     66
_refine_ls_number_reflns         358
_refine_ls_number_restraints     55
_refine_ls_restrained_S_all      1.036
_refine_ls_R_factor_all          0.0414
_refine_ls_R_factor_gt           0.0319
_refine_ls_shift/su_max          0.000
_refine_ls_shift/su_mean         0.000
_refine_ls_structure_factor_coef Fsqd
_refine_ls_weighting_details
'calc w=1/[\s^2^(Fo^2^)+(0.0479P)^2^+0.0000P] where P=(Fo^2^+2Fc^2^)/3'
_refine_ls_weighting_scheme      calc
_refine_ls_wR_factor_gt          0.0752
_refine_ls_wR_factor_ref         0.0801
_reflns_number_gt                307
_reflns_number_total             358
_reflns_threshold_expression     >2sigma(I)
_iucr_refine_instructions_details
;
TITL
CELL  0.71073  4.75760  8.70465  9.78464 90.00000 102.24810 90.00000
ZERR 4  0.00061  0.00060  0.01130  0.00000  0.04430  0.00000
LATT 1
SYMM -X+ 0.50000, Y+ 0.50000, -Z+ 0.50000
SFAC C H N O
UNIT 12 28 4 12
PLAN 30
FMAP 2
L.S. 20
EQIV $1 1/2+X,1/2-Y,1/2+Z
EQIV $2 1/2-X,-1/2+Y,1/2-Z
EQIV $3 3/2-X,-1/2+Y,1/2-Z
HTAB N1 O2_$1
HTAB N1 O3_$2
HTAB N1 O3_$3
HTAB O2 O1_$2
DELU
SIMU
ISOR 0.01 C1
BOND $H
BOND
CONF
ACTA
WGHT    0.047900
FVAR       7.29383
O1    4    0.260130    0.377275    0.333572    11.00000    0.02180    0.02219 =
         0.04161   -0.00299    0.01721    0.00083
O2    4    0.334049    0.139022    0.054309    11.00000    0.03147    0.01699 =
         0.02075    0.00295   -0.00301   -0.00302
AFIX 147
H2    2    0.299709    0.057822    0.089994    11.00000   -1.20000
AFIX   0
N1    3    0.616825    0.147144    0.362563    11.00000    0.01684    0.01846 =
         0.01737   -0.00322    0.00303    0.00112
AFIX 137
H1A   2    0.444462    0.102736    0.342527    11.00000   -1.20000
H1B   2    0.638814    0.196187    0.443956    11.00000   -1.20000
H1C   2    0.752676    0.075723    0.368232    11.00000   -1.20000
AFIX   0
O3    4    0.391299    0.480232    0.149615    11.00000    0.02420    0.01970 =
         0.03518    0.00590    0.01084    0.00226
C1    1    0.641058    0.258580    0.250722    11.00000    0.01488    0.01694 =
         0.03207   -0.00248    0.00605    0.00002
AFIX  13
H1    2    0.829454    0.308555    0.276574    11.00000   -1.20000
AFIX   0
C2    1    0.409710    0.382138    0.243580    11.00000    0.01333    0.01380 =
         0.03310   -0.00409    0.00334   -0.00349
C3    1    0.619766    0.185823    0.113595    11.00000    0.02274    0.02159 =
         0.02914   -0.00340    0.00483    0.00390
AFIX  23
H3A   2    0.684036    0.257723    0.050916    11.00000   -1.20000
H3B   2    0.745629    0.097010    0.123661    11.00000   -1.20000
HKLF 4
REM
REM R1 =  0.0319 for    307 Fo > 4sig(Fo)  and  0.0414 for all    358 data
REM     66 parameters refined using     55 restraints
END
WGHT      0.0479      0.0000
REM Highest difference peak  0.107,  deepest hole -0.118,  1-sigma level  0.031
Q1    1   0.3527  0.0348  0.4621  11.00000  0.05    0.11
Q2    1   0.5916  0.2596  0.1052  11.00000  0.05    0.11
Q3    1   0.5321  0.2386  0.5105  11.00000  0.05    0.10
Q4    1   0.6144 -0.0239  0.4968  11.00000  0.05    0.10
Q5    1   0.7131  0.2746  0.4231  11.00000  0.05    0.10
Q6    1   0.5318  0.3067  0.2647  11.00000  0.05    0.10
Q7    1   0.4963 -0.0229  0.1717  11.00000  0.05    0.09
Q8    1   0.3838  0.2199  0.0946  11.00000  0.05    0.09
Q9    1   0.4893  0.4598  0.0345  11.00000  0.05    0.08
Q10   1   0.8180 -0.0004  0.4996  11.00000  0.05    0.08
Q11   1   0.3208  0.2739  0.3785  11.00000  0.05    0.08
Q12   1   0.8890  0.2163  0.4456  11.00000  0.05    0.07
Q13   1   0.2543  0.5022  0.1572  11.00000  0.05    0.07
Q14   1   0.6512  0.4653  0.2052  11.00000  0.05    0.07
Q15   1   0.3801  0.5719  0.1804  11.00000  0.05    0.07
Q16   1   0.3686  0.5654  0.2158  11.00000  0.05    0.07
Q17   1   0.7043  0.1138  0.1854  11.00000  0.05    0.07
Q18   1   0.6739  0.0535  0.4685  11.00000  0.05    0.07
Q19   1   0.1824  0.1809  0.2209  11.00000  0.05    0.07
Q20   1   0.1840  0.2074  0.1477  11.00000  0.05    0.07
Q21   1   0.9613  0.3722  0.0780  11.00000  0.05    0.06
Q22   1   0.8112  0.1089  0.0469  11.00000  0.05    0.06
Q23   1   0.2233  0.3383  0.3906  11.00000  0.05    0.06
Q24   1   0.3170 -0.0536  0.0563  11.00000  0.05    0.06
Q25   1   0.2510  0.1793  0.0418  11.00000  0.05    0.06
Q26   1   0.8922  0.2527  0.3320  11.00000  0.05    0.06
Q27   1   0.1730  0.0956  0.1432  11.00000  0.05    0.06
Q28   1   0.6481  0.0470  0.4303  11.00000  0.05    0.06
Q29   1   0.7423  0.2643  0.2227  11.00000  0.05    0.06
Q30   1   0.7065  0.0548  0.5147  11.00000  0.05    0.06
;
_cod_data_source_file            gp5049.cif
_cod_data_source_block           DL-serine3.7GPa
_cod_depositor_comments
;
The following automatic conversions were performed:

'_exptl_absorpt_correction_type' value 'GAUSSIAN' changed to
'gaussian' according to
/home/saulius/struct/CIF-dictionaries/cif_core.dic dictionary named
'cif_core.dic' version 2.4.1 from 2010-06-29.

Automatic conversion script
Id: cif_fix_values 1891 2012-01-12 08:04:46Z andrius 
;
_cod_original_sg_symbol_H-M      P21/n
_cod_database_code               2105102
_cod_database_fobs_code          2105102
loop_
_symmetry_equiv_pos_as_xyz
'x, y, z'
'-x+1/2, y+1/2, -z+1/2'
'-x, -y, -z'
'x-1/2, -y-1/2, z-1/2'
loop_
_atom_site_type_symbol
_atom_site_label
_atom_site_fract_x
_atom_site_fract_y
_atom_site_fract_z
_atom_site_U_iso_or_equiv
_atom_site_adp_type
_atom_site_calc_flag
_atom_site_refinement_flags
_atom_site_occupancy
_atom_site_symmetry_multiplicity
O O1 0.2601(3) 0.37727(10) 0.3336(4) 0.027(2) Uani d U 1 1
O O2 0.3340(3) 0.13902(12) 0.0543(4) 0.024(2) Uani d U 1 1
H H2 0.2997 0.0578 0.0900 0.029 Uiso calc R 1 1
N N1 0.6168(3) 0.14714(13) 0.3626(5) 0.018(2) Uani d U 1 1
H H1A 0.4445 0.1027 0.3425 0.021 Uiso calc R 1 1
H H1B 0.6388 0.1962 0.4440 0.021 Uiso calc R 1 1
H H1C 0.7527 0.0757 0.3682 0.021 Uiso calc R 1 1
O O3 0.3913(3) 0.48023(12) 0.1496(4) 0.026(2) Uani d U 1 1
C C1 0.6411(4) 0.25858(18) 0.2507(6) 0.021(2) Uani d U 1 1
H H1 0.8295 0.3086 0.2766 0.025 Uiso calc R 1 1
C C2 0.4097(4) 0.38214(15) 0.2436(6) 0.020(3) Uani d U 1 1
C C3 0.6198(4) 0.18582(19) 0.1136(7) 0.025(2) Uani d U 1 1
H H3A 0.6840 0.2577 0.0509 0.030 Uiso calc R 1 1
H H3B 0.7456 0.0970 0.1237 0.030 Uiso calc R 1 1
loop_
_atom_site_aniso_label
_atom_site_aniso_U_11
_atom_site_aniso_U_22
_atom_site_aniso_U_33
_atom_site_aniso_U_12
_atom_site_aniso_U_13
_atom_site_aniso_U_23
O1 0.0218(7) 0.0222(5) 0.042(7) 0.0008(4) 0.0172(18) -0.0030(10)
O2 0.0315(7) 0.0170(5) 0.021(7) -0.0030(4) -0.0030(15) 0.0029(10)
N1 0.0168(8) 0.0185(6) 0.017(8) 0.0011(5) 0.0030(19) -0.0032(12)
O3 0.0242(7) 0.0197(5) 0.035(7) 0.0023(4) 0.0108(17) 0.0059(11)
C1 0.0149(8) 0.0169(7) 0.032(6) 0.0000(5) 0.0060(19) -0.0025(15)
C2 0.0133(8) 0.0138(6) 0.033(8) -0.0035(5) 0.003(2) -0.0041(14)
C3 0.0227(10) 0.0216(8) 0.029(8) 0.0039(6) 0.005(2) -0.003(2)
loop_
_atom_type_symbol
_atom_type_description
_atom_type_scat_dispersion_real
_atom_type_scat_dispersion_imag
_atom_type_scat_source
C C 0.0033 0.0016 'International Tables Vol C Tables 4.2.6.8 and 6.1.1.4'
H H 0.0000 0.0000 'International Tables Vol C Tables 4.2.6.8 and 6.1.1.4'
N N 0.0061 0.0033 'International Tables Vol C Tables 4.2.6.8 and 6.1.1.4'
O O 0.0106 0.0060 'International Tables Vol C Tables 4.2.6.8 and 6.1.1.4'
loop_
_geom_angle_atom_site_label_1
_geom_angle_atom_site_label_2
_geom_angle_atom_site_label_3
_geom_angle
C3 O2 H2 109.5
C1 N1 H1A 109.5
C1 N1 H1B 109.5
H1A N1 H1B 109.5
C1 N1 H1C 109.5
H1A N1 H1C 109.5
H1B N1 H1C 109.5
C3 C1 N1 113.0(2)
C3 C1 C2 110.6(4)
N1 C1 C2 109.0(3)
C3 C1 H1 108.0
N1 C1 H1 108.0
C2 C1 H1 108.0
O3 C2 O1 125.80(16)
O3 C2 C1 117.0(3)
O1 C2 C1 117.2(3)
O2 C3 C1 111.8(3)
O2 C3 H3A 109.3
C1 C3 H3A 109.3
O2 C3 H3B 109.3
C1 C3 H3B 109.3
H3A C3 H3B 107.9
loop_
_geom_bond_atom_site_label_1
_geom_bond_atom_site_label_2
_geom_bond_distance
O1 C2 1.245(5)
O2 C3 1.420(4)
O2 H2 0.8200
N1 C1 1.485(5)
N1 H1A 0.8900
N1 H1B 0.8900
N1 H1C 0.8900
O3 C2 1.244(5)
C1 C3 1.468(8)
C1 C2 1.530(2)
C1 H1 0.9800
C3 H3A 0.9700
C3 H3B 0.9700
loop_
_geom_hbond_atom_site_label_D
_geom_hbond_atom_site_label_H
_geom_hbond_atom_site_label_A
_geom_hbond_site_symmetry_A
_geom_hbond_distance_DH
_geom_hbond_distance_HA
_geom_hbond_distance_DA
_geom_hbond_angle_DHA
N1 H1B O2 4_666 0.89 1.91 2.689(4) 144.6
N1 H1A O3 2_545 0.89 1.94 2.8013(16) 163.8
N1 H1C O3 2_645 0.89 1.93 2.7784(16) 159.4
O2 H2 O1 2_545 0.82 1.79 2.608(3) 177.4
loop_
_geom_torsion_atom_site_label_1
_geom_torsion_atom_site_label_2
_geom_torsion_atom_site_label_3
_geom_torsion_atom_site_label_4
_geom_torsion
C3 C1 C2 O3 -51.5(3)
N1 C1 C2 O3 -176.3(3)
C3 C1 C2 O1 129.7(3)
N1 C1 C2 O1 4.9(4)
N1 C1 C3 O2 73.1(3)
C2 C1 C3 O2 -49.4(3)
loop_
_cod_related_entry_id
_cod_related_entry_database
_cod_related_entry_code
1 ChemSpider 597
