#------------------------------------------------------------------------------
#$Date: 2017-10-13 08:28:26 +0300 (Fri, 13 Oct 2017) $
#$Revision: 201972 $
#$URL: file:///home/coder/svn-repositories/cod/cif/2/10/51/2105106.cif $
#------------------------------------------------------------------------------
#
# This file is available in the Crystallography Open Database (COD),
# http://www.crystallography.net/. The original data for this entry
# were provided by IUCr Journals, http://journals.iucr.org/.
#
# The file may be used within the scientific community so long as
# proper attribution is given to the journal article from which the
# data were obtained.
#
data_2105106
loop_
_publ_author_name
'Zakharov, Boris A.'
'Kolesov, Boris A.'
'Boldyreva, Elena V.'
_publ_section_title
;
 Effect of pressure on crystalline <small>L</small>- and
 <small>DL</small>-serine: revisited by a combined single-crystal X-ray
 diffraction at a laboratory source and polarized Raman spectroscopy study
;
_journal_coeditor_code           GP5049
_journal_issue                   3
_journal_name_full               'Acta Crystallographica Section B'
_journal_page_first              275
_journal_page_last               286
_journal_paper_doi               10.1107/S0108768112015960
_journal_volume                  68
_journal_year                    2012
_chemical_formula_moiety         'C3 H7 N O3'
_chemical_formula_sum            'C3 H7 N O3'
_chemical_formula_weight         105.10
_chemical_name_common            L-serine
_chemical_name_systematic
;
(S)-2-amino-3-hydroxypropanoic acid
;
_space_group_IT_number           19
_symmetry_cell_setting           orthorhombic
_symmetry_space_group_name_Hall  'P 2ac 2ab'
_symmetry_space_group_name_H-M   'P 21 21 21'
_atom_sites_solution_hydrogens   geom
_atom_sites_solution_primary     direct
_atom_sites_solution_secondary   difmap
_audit_creation_method           SHELXL-97
_cell_angle_alpha                90.00
_cell_angle_beta                 90.00
_cell_angle_gamma                90.00
_cell_formula_units_Z            4
_cell_length_a                   5.5885(14)
_cell_length_b                   8.542(9)
_cell_length_c                   9.146(4)
_cell_measurement_reflns_used    742
_cell_measurement_temperature    293(2)
_cell_measurement_theta_max      31.8873
_cell_measurement_theta_min      2.2224
_cell_volume                     436.6(5)
_computing_cell_refinement
;
CrysAlisPro, Oxford Diffraction Ltd.,
Version 1.171.34.40 (release 27-08-2010 CrysAlis171 .NET)
(compiled Aug 27 2010,11:50:40)
;
_computing_data_collection
;
CrysAlisPro, Oxford Diffraction Ltd.,
Version 1.171.34.40 (release 27-08-2010 CrysAlis171 .NET)
(compiled Aug 27 2010,11:50:40)
;
_computing_data_reduction
;
CrysAlisPro, Oxford Diffraction Ltd.,
Version 1.171.34.40 (release 27-08-2010 CrysAlis171 .NET)
(compiled Aug 27 2010,11:50:40)
;
_computing_molecular_graphics    'Mercury (Macrae <i>et al.</i>, 2006)'
_computing_publication_material
;
Mercury (Macrae et al., 2006),
PLATON (Spek, 2009),
enCIFer (Allen et al., 2004)
;
_computing_structure_refinement  'SHELXL-97 (Sheldrick, 2008)'
_computing_structure_solution    'SHELXS-97 (Sheldrick, 2008)'
_diffrn_ambient_temperature      293(2)
_diffrn_detector_area_resol_mean 10.3457
_diffrn_measured_fraction_theta_full 0.470
_diffrn_measured_fraction_theta_max 0.470
_diffrn_measurement_device_type  'Xcalibur, Ruby, Gemini ultra'
_diffrn_measurement_method       'rotation method'
_diffrn_radiation_monochromator  graphite
_diffrn_radiation_source         'fine-focus sealed tube'
_diffrn_radiation_type           MoK\a
_diffrn_radiation_wavelength     0.71073
_diffrn_reflns_av_R_equivalents  0.0904
_diffrn_reflns_av_sigmaI/netI    0.1249
_diffrn_reflns_limit_h_max       8
_diffrn_reflns_limit_h_min       -8
_diffrn_reflns_limit_k_max       7
_diffrn_reflns_limit_k_min       -7
_diffrn_reflns_limit_l_max       12
_diffrn_reflns_limit_l_min       -12
_diffrn_reflns_number            2478
_diffrn_reflns_theta_full        31.96
_diffrn_reflns_theta_max         31.96
_diffrn_reflns_theta_min         3.26
_exptl_absorpt_coefficient_mu    0.143
_exptl_absorpt_correction_T_max  0.474
_exptl_absorpt_correction_T_min  0.389
_exptl_absorpt_correction_type   gaussian
_exptl_absorpt_process_details
' Absorb Angel (2004) J. Appl. Cryst. 37:486-492'
_exptl_crystal_colour            colourless
_exptl_crystal_density_diffrn    1.599
_exptl_crystal_density_method    'not measured'
_exptl_crystal_description       prism
_exptl_crystal_F_000             224
_exptl_crystal_size_max          0.25
_exptl_crystal_size_mid          0.05
_exptl_crystal_size_min          0.05
_refine_diff_density_max         0.183
_refine_diff_density_min         -0.214
_refine_ls_extinction_method     none
_refine_ls_goodness_of_fit_ref   0.970
_refine_ls_hydrogen_treatment    constr
_refine_ls_matrix_type           full
_refine_ls_number_parameters     66
_refine_ls_number_reflns         649
_refine_ls_number_restraints     0
_refine_ls_restrained_S_all      0.970
_refine_ls_R_factor_all          0.1472
_refine_ls_R_factor_gt           0.0610
_refine_ls_shift/su_max          0.000
_refine_ls_shift/su_mean         0.000
_refine_ls_structure_factor_coef Fsqd
_refine_ls_weighting_details
'calc w=1/[\s^2^(Fo^2^)+(0.0528P)^2^+0.0000P] where P=(Fo^2^+2Fc^2^)/3'
_refine_ls_weighting_scheme      calc
_refine_ls_wR_factor_gt          0.1190
_refine_ls_wR_factor_ref         0.1521
_reflns_number_gt                306
_reflns_number_total             649
_reflns_threshold_expression     >2sigma(I)
_iucr_refine_instructions_details
;
TITL
CELL  0.71073  5.58852  8.54232  9.14560 90.00000 90.00000 90.00000
ZERR 4  0.00140  0.00850  0.00380  0.00000  0.00000  0.00000
LATT -1
SYMM -X+ 0.50000, -Y, Z+ 0.50000
SYMM X+ 0.50000, -Y+ 0.50000, -Z
SYMM -X, Y+ 0.50000, -Z+ 0.50000
SFAC C H N O
UNIT 12 28 4 12
PLAN 30
FMAP 2
L.S. 20
EQIV $1 -1+X,Y,Z
EQIV $2 -1/2+X,1/2-Y,2-Z
EQIV $3 1-X,1/2+Y,1.5-Z
EQIV $4 -1/2+X,1/2-Y,1-Z
EQIV $11 1-X,-1/2+Y,3/2-Z
EQIV $12 -1/2+X,1/2-Y,1-Z
HTAB N1 O1_$1
HTAB N1 O2_$1
HTAB N1 O2_$2
HTAB N1 O1_$3
HTAB O3 O3_$4
BOND $H
BOND
CONF
ACTA
WGHT    0.052800
FVAR       1.09203
N1    3    0.219198    0.199424    0.817263    11.00000    0.03095    0.04145 =
         0.04745    0.00077    0.00035   -0.00713
AFIX 137
H1    2    0.242125    0.290607    0.772316    11.00000   -1.20000
H2    2    0.247455    0.210497    0.912473    11.00000   -1.20000
H3    2    0.068742    0.168399    0.803929    11.00000   -1.20000
AFIX   0
O1    4    0.798630    0.022350    0.757237    11.00000    0.03693    0.06489 =
         0.08212   -0.02477    0.00033    0.00890
O2    4    0.677721    0.225133    0.885591    11.00000    0.04721    0.06889 =
         0.05470   -0.02012   -0.01024    0.00209
C1    1    0.385361    0.080198    0.755451    11.00000    0.03992    0.03879 =
         0.03060   -0.00064    0.00686   -0.00862
AFIX  13
H4    2    0.337190   -0.022577    0.792876    11.00000   -1.20000
AFIX   0
O3    4    0.424636    0.227486    0.532473    11.00000    0.05811    0.06317 =
         0.04990    0.00855    0.00615    0.00688
AFIX 147
H5    2    0.302214    0.272408    0.506351    11.00000   -1.20000
AFIX   0
C2    1    0.364372    0.076652    0.591335    11.00000    0.03804    0.04324 =
         0.04725   -0.00337   -0.00723   -0.00560
AFIX  23
H6    2    0.471420   -0.002070    0.551791    11.00000   -1.20000
H7    2    0.202103    0.049303    0.563684    11.00000   -1.20000
AFIX   0
C3    1    0.642400    0.110855    0.804744    11.00000    0.03822    0.03190 =
         0.04259    0.00662   -0.00442   -0.00932
HKLF 4
REM
REM R1 =  0.0610 for    306 Fo > 4sig(Fo)  and  0.1472 for all    649 data
REM     66 parameters refined using      0 restraints
END
WGHT      0.0528      0.0000
REM Highest difference peak  0.183,  deepest hole -0.214,  1-sigma level  0.050
Q1    1   0.7921  0.0810  0.8238  11.00000  0.05    0.18
Q2    1   0.1931  0.1076  0.6008  11.00000  0.05    0.17
Q3    1   0.3134 -0.0112  0.5408  11.00000  0.05    0.16
Q4    1   0.3575  0.2051  0.5399  11.00000  0.05    0.15
Q5    1   0.4935  0.0976  0.8228  11.00000  0.05    0.15
Q6    1   0.5298  0.2927  0.4821  11.00000  0.05    0.14
Q7    1   0.5326  0.3026  0.8347  11.00000  0.05    0.14
Q8    1  -0.0904  0.2584  0.8588  11.00000  0.05    0.14
Q9    1   0.2203 -0.0095  0.7077  11.00000  0.05    0.13
Q10   1   0.8708 -0.0214  0.5583  11.00000  0.05    0.13
Q11   1   0.1941  0.1185  0.8766  11.00000  0.05    0.13
Q12   1  -0.0825  0.1973  0.7493  11.00000  0.05    0.13
Q13   1   1.0141 -0.0801  0.6986  11.00000  0.05    0.13
Q14   1   0.1384 -0.1057  0.8963  11.00000  0.05    0.13
Q15   1   0.3716  0.0713  0.6771  11.00000  0.05    0.13
Q16   1   0.6053 -0.0019  0.8640  11.00000  0.05    0.12
Q17   1   0.8571 -0.0403  0.7698  11.00000  0.05    0.12
Q18   1   0.3878  0.1995  0.3399  11.00000  0.05    0.12
Q19   1   0.0111  0.0054  0.4757  11.00000  0.05    0.12
Q20   1   0.5566 -0.0770  0.8183  11.00000  0.05    0.12
Q21   1   0.1167  0.3066  0.5008  11.00000  0.05    0.12
Q22   1   0.0516  0.2886  0.7402  11.00000  0.05    0.12
Q23   1   0.6035  0.0995  0.4433  11.00000  0.05    0.12
Q24   1   0.9946 -0.0136  0.8023  11.00000  0.05    0.11
Q25   1   0.3320  0.2346  0.8478  11.00000  0.05    0.11
Q26   1   0.1970  0.0663  0.4598  11.00000  0.05    0.11
Q27   1   0.1853  0.0992  0.4744  11.00000  0.05    0.11
Q28   1   0.6563  0.1879  0.8403  11.00000  0.05    0.11
Q29   1   0.9547  0.0114  0.7783  11.00000  0.05    0.11
Q30   1   0.3940  0.4047  0.7766  11.00000  0.05    0.11
;
_cod_data_source_file            gp5049.cif
_cod_data_source_block           L-serine0.5GPa
_cod_database_code               2105106
_cod_database_fobs_code          2105106
loop_
_symmetry_equiv_pos_as_xyz
'x, y, z'
'-x+1/2, -y, z+1/2'
'x+1/2, -y+1/2, -z'
'-x, y+1/2, -z+1/2'
loop_
_atom_site_type_symbol
_atom_site_label
_atom_site_fract_x
_atom_site_fract_y
_atom_site_fract_z
_atom_site_U_iso_or_equiv
_atom_site_adp_type
_atom_site_calc_flag
_atom_site_refinement_flags
_atom_site_occupancy
_atom_site_symmetry_multiplicity
N N1 0.2192(6) 0.1994(7) 0.8173(5) 0.040(2) Uani d . 1 1
H H1 0.2421 0.2906 0.7723 0.048 Uiso calc R 1 1
H H2 0.2475 0.2105 0.9125 0.048 Uiso calc R 1 1
H H3 0.0687 0.1684 0.8039 0.048 Uiso calc R 1 1
O O1 0.7986(6) 0.0224(7) 0.7572(5) 0.061(2) Uani d . 1 1
O O2 0.6777(6) 0.2251(8) 0.8856(5) 0.057(2) Uani d . 1 1
C C1 0.3854(8) 0.0802(9) 0.7555(5) 0.036(2) Uani d . 1 1
H H4 0.3372 -0.0226 0.7929 0.044 Uiso calc R 1 1
O O3 0.4246(7) 0.2275(7) 0.5325(5) 0.057(2) Uani d . 1 1
H H5 0.3022 0.2724 0.5064 0.068 Uiso calc R 1 1
C C2 0.3644(9) 0.0767(10) 0.5913(6) 0.043(3) Uani d . 1 1
H H6 0.4714 -0.0021 0.5518 0.051 Uiso calc R 1 1
H H7 0.2021 0.0493 0.5637 0.051 Uiso calc R 1 1
C C3 0.6424(9) 0.1109(11) 0.8047(7) 0.038(2) Uani d . 1 1
loop_
_atom_site_aniso_label
_atom_site_aniso_U_11
_atom_site_aniso_U_22
_atom_site_aniso_U_33
_atom_site_aniso_U_12
_atom_site_aniso_U_13
_atom_site_aniso_U_23
N1 0.0309(17) 0.041(8) 0.047(4) -0.007(3) 0.000(2) 0.001(2)
O1 0.0369(18) 0.065(8) 0.082(4) 0.009(2) 0.000(2) -0.025(3)
O2 0.047(2) 0.069(8) 0.055(4) 0.002(3) -0.010(2) -0.020(3)
C1 0.040(2) 0.039(9) 0.031(4) -0.009(4) 0.007(2) -0.001(2)
O3 0.058(2) 0.063(8) 0.050(3) 0.007(4) 0.006(2) 0.009(3)
C2 0.038(3) 0.043(10) 0.047(5) -0.006(4) -0.007(3) -0.003(3)
C3 0.038(3) 0.032(9) 0.043(5) -0.009(4) -0.004(2) 0.007(3)
loop_
_atom_type_symbol
_atom_type_description
_atom_type_scat_dispersion_real
_atom_type_scat_dispersion_imag
_atom_type_scat_source
C C 0.0033 0.0016 'International Tables Vol C Tables 4.2.6.8 and 6.1.1.4'
H H 0.0000 0.0000 'International Tables Vol C Tables 4.2.6.8 and 6.1.1.4'
N N 0.0061 0.0033 'International Tables Vol C Tables 4.2.6.8 and 6.1.1.4'
O O 0.0106 0.0060 'International Tables Vol C Tables 4.2.6.8 and 6.1.1.4'
loop_
_geom_angle_atom_site_label_1
_geom_angle_atom_site_label_2
_geom_angle_atom_site_label_3
_geom_angle
C1 N1 H1 109.5
C1 N1 H2 109.5
H1 N1 H2 109.5
C1 N1 H3 109.5
H1 N1 H3 109.5
H2 N1 H3 109.5
N1 C1 C2 110.1(5)
N1 C1 C3 110.9(5)
C2 C1 C3 111.8(4)
N1 C1 H4 108.0
C2 C1 H4 108.0
C3 C1 H4 108.0
C2 O3 H5 109.5
O3 C2 C1 109.7(6)
O3 C2 H6 109.7
C1 C2 H6 109.7
O3 C2 H7 109.7
C1 C2 H7 109.7
H6 C2 H7 108.2
O1 C3 O2 125.4(5)
O1 C3 C1 117.1(6)
O2 C3 C1 117.4(6)
loop_
_geom_bond_atom_site_label_1
_geom_bond_atom_site_label_2
_geom_bond_distance
N1 C1 1.490(7)
N1 H1 0.8900
N1 H2 0.8900
N1 H3 0.8900
O1 C3 1.234(8)
O2 C3 1.240(9)
C1 C2 1.506(7)
C1 C3 1.528(7)
C1 H4 0.9800
O3 C2 1.436(8)
O3 H5 0.8200
C2 H6 0.9700
C2 H7 0.9700
loop_
_geom_hbond_atom_site_label_D
_geom_hbond_atom_site_label_H
_geom_hbond_atom_site_label_A
_geom_hbond_site_symmetry_A
_geom_hbond_distance_DH
_geom_hbond_distance_HA
_geom_hbond_distance_DA
_geom_hbond_angle_DHA
N1 H3 O1 1_455 0.89 2.00 2.848(6) 157.8
N1 H3 O2 1_455 0.89 2.36 3.098(5) 140.4
N1 H2 O2 3_457 0.89 1.97 2.803(7) 156.0
N1 H1 O1 4_656 0.89 2.01 2.843(8) 155.1
O3 H5 O3 3_456 0.82 2.14 2.882(2) 150.6
loop_
_geom_torsion_atom_site_label_1
_geom_torsion_atom_site_label_2
_geom_torsion_atom_site_label_3
_geom_torsion_atom_site_label_4
_geom_torsion
N1 C1 C2 O3 60.1(6)
C3 C1 C2 O3 -63.6(7)
N1 C1 C3 O1 -178.0(7)
C2 C1 C3 O1 -54.7(9)
N1 C1 C3 O2 0.0(10)
C2 C1 C3 O2 123.2(8)
loop_
_cod_related_entry_id
_cod_related_entry_database
_cod_related_entry_code
1 ChemSpider 5736
