#------------------------------------------------------------------------------
#$Date: 2016-02-20 02:53:41 +0200 (Sat, 20 Feb 2016) $
#$Revision: 176768 $
#$URL: svn://www.crystallography.net/cod/cif/2/10/55/2105560.cif $
#------------------------------------------------------------------------------
#
# This file is available in the Crystallography Open Database (COD),
# http://www.crystallography.net/. The original data for this entry
# were provided by IUCr Journals, http://journals.iucr.org/.
#
# The file may be used within the scientific community so long as
# proper attribution is given to the journal article from which the
# data were obtained.
#
data_2105560
loop_
_publ_author_name
'Fu, Y.'
'Brock, C. P.'
_publ_section_title
;
 Temperature Dependence of the Rigid-Body Motion of Anthraquinone
;
_journal_issue                   3
_journal_name_full               'Acta Crystallographica Section B'
_journal_page_first              308
_journal_page_last               315
_journal_paper_doi               10.1107/S0108768197013414
_journal_volume                  54
_journal_year                    1998
_chemical_formula_moiety         'C14 H8 O2'
_chemical_formula_sum            'C14 H8 O2'
_chemical_formula_weight         208.22
_chemical_melting_point          558.0(10)
_chemical_name_systematic
;
anthraquinone
;
_space_group_IT_number           14
_symmetry_cell_setting           monoclinic
_symmetry_space_group_name_Hall  '-P 2ybc'
_symmetry_space_group_name_H-M   'P 1 21/c 1'
_audit_creation_method           'created by SHELXL-93 and C P Brock'
_cell_angle_alpha                90.
_cell_angle_beta                 102.687(6)
_cell_angle_gamma                90.
_cell_formula_units_Z            2
_cell_length_a                   7.8684(5)
_cell_length_b                   3.9634(3)
_cell_length_c                   15.7839(13)
_cell_measurement_reflns_used    22
_cell_measurement_temperature    296.0(10)
_cell_measurement_theta_max      13.0
_cell_measurement_theta_min      10.3
_cell_volume                     480.21(6)
_computing_cell_refinement       'CAD4-VAX (ENRAF-Nonius, 1988)'
_computing_data_collection       'CAD4-VAX (ENRAF-Nonius, 1988)'
_computing_structure_refinement  'SHELXL-93 (Sheldrick, 1993)'
_diffrn_ambient_temperature      296.0(10)
_diffrn_measurement_device       'ENRAF-Nonius CAD4-VAX diffractometer'
_diffrn_measurement_method       '\w/2\q scans'
_diffrn_radiation_monochromator  graphite
_diffrn_radiation_type           'Mo K\a'
_diffrn_radiation_wavelength     0.71073
_diffrn_reflns_av_sigmaI/netI    0.023
_diffrn_reflns_limit_h_max       10
_diffrn_reflns_limit_h_min       0
_diffrn_reflns_limit_k_max       5
_diffrn_reflns_limit_k_min       0
_diffrn_reflns_limit_l_max       19
_diffrn_reflns_limit_l_min       -20
_diffrn_reflns_number            1096
_diffrn_reflns_theta_max         27.43
_diffrn_reflns_theta_min         2.65
_diffrn_standards_decay_%        -0.7
_diffrn_standards_interval_time  120
_diffrn_standards_number         3
_exptl_absorpt_coefficient_mu    0.09
_exptl_absorpt_correction_type   none
_exptl_crystal_colour            yellow
_exptl_crystal_density_diffrn    1.440
_exptl_crystal_density_meas      ?
_exptl_crystal_F_000             216
_exptl_crystal_size_max          0.55
_exptl_crystal_size_mid          0.52
_exptl_crystal_size_min          0.18
_refine_diff_density_max         0.19
_refine_diff_density_min         -0.13
_refine_ls_extinction_coef       0.101(15)
_refine_ls_extinction_method     SHELXL
_refine_ls_goodness_of_fit_all   1.06
_refine_ls_goodness_of_fit_obs   1.14
_refine_ls_hydrogen_treatment    refall
_refine_ls_matrix_type           full
_refine_ls_number_parameters     90
_refine_ls_number_reflns         1096
_refine_ls_number_restraints     0
_refine_ls_R_factor_all          0.072
_refine_ls_R_factor_obs          0.038
_refine_ls_shift/esd_max         -0.001
_refine_ls_shift/esd_mean        0.000
_refine_ls_structure_factor_coef Fsqd
_refine_ls_weighting_details
'w=1/[\s^2^(Fo^2^)+(0.0600P)^2^+0.0800P] where P=(Fo^2^+2Fc^2^)/3'
_refine_ls_weighting_scheme      calc
_refine_ls_wR_factor_all         0.119
_refine_ls_wR_factor_obs         0.104
_reflns_number_observed          749
_reflns_number_total             1096
_reflns_observed_criterion       >2sigma(I)
_cod_data_source_file            cr0524.cif
_cod_data_source_block           296
_cod_depositor_comments
;
The following automatic conversions were performed:

'_exptl_crystal_density_meas' value 'not measured' was changed to '?'
- the value is perceived as not measured.

Automatic conversion script
Id: cif_fix_values 3008 2015-01-20 13:52:24Z robertas 

The following automatic conversions were performed:

'_refine_ls_weighting_scheme' value 'calc
w=1/[\s^2^(Fo^2^)+(0.0600P)^2^+0.0800P] where P=(Fo^2^+2Fc^2^)/3' was
changed to 'calc'. New tag '_refine_ls_weighting_details' was
created. The value of the new tag was set to
'w=1/[\s^2^(Fo^2^)+(0.0600P)^2^+0.0800P] where P=(Fo^2^+2Fc^2^)/3'.

Automatic conversion script
Id: cif_fix_values 3143 2015-03-26 13:38:13Z robertas 
;
_cod_original_cell_volume        480.21(7)
_cod_original_sg_symbol_H-M      'P 21/c'
_cod_database_code               2105560
loop_
_symmetry_equiv_pos_as_xyz
'x, y, z'
'-x, y+1/2, -z+1/2'
'-x, -y, -z'
'x, -y-1/2, z-1/2'
loop_
_atom_site_aniso_label
_atom_site_aniso_U_11
_atom_site_aniso_U_22
_atom_site_aniso_U_33
_atom_site_aniso_U_12
_atom_site_aniso_U_13
_atom_site_aniso_U_23
O 0.0582(7) 0.1123(12) 0.0557(7) -0.0126(7) 0.0309(6) -0.0151(7)
C1 0.0433(8) 0.0511(10) 0.0551(9) -0.0012(7) 0.0117(6) 0.0049(7)
C2 0.0470(9) 0.0533(10) 0.0615(10) -0.0050(8) -0.0036(7) 0.0039(8)
C3 0.0666(10) 0.0535(10) 0.0442(8) -0.0031(8) -0.0018(7) -0.0011(7)
C4 0.0618(9) 0.0512(9) 0.0390(8) 0.0013(8) 0.0114(6) 0.0003(7)
C5 0.0428(7) 0.0409(8) 0.0360(7) 0.0037(6) 0.0093(5) 0.0045(6)
C6 0.0384(7) 0.0414(8) 0.0400(7) 0.0035(6) 0.0089(5) 0.0060(6)
C7 0.0432(7) 0.0522(10) 0.0402(7) 0.0030(6) 0.0154(6) 0.0031(6)
loop_
_atom_site_label
_atom_site_fract_x
_atom_site_fract_y
_atom_site_fract_z
_atom_site_U_iso_or_equiv
_atom_site_thermal_displace_type
_atom_site_calc_flag
_atom_site_occupancy
_atom_site_type_symbol
O -0.2128(2) 0.0219(4) 0.11138(7) 0.0726(5) Uani d 1 O
C1 0.3414(2) 0.2716(4) 0.05132(10) 0.0497(4) Uani d 1 C
C2 0.3981(2) 0.4140(5) 0.13246(11) 0.0563(5) Uani d 1 C
C3 0.2887(2) 0.4267(5) 0.18957(11) 0.0569(5) Uani d 1 C
C4 0.1222(2) 0.2976(4) 0.16637(9) 0.0506(4) Uani d 1 C
C5 0.0627(2) 0.1528(4) 0.08467(8) 0.0398(4) Uani d 1 C
C6 0.1737(2) 0.1400(4) 0.02664(8) 0.0399(4) Uani d 1 C
C7 -0.1159(2) 0.0126(4) 0.06100(9) 0.0442(4) Uani d 1 C
H1 0.416(2) 0.257(4) 0.0099(11) 0.059(5) Uiso d 1 H
H2 0.515(3) 0.508(5) 0.1489(12) 0.068(5) Uiso d 1 H
H3 0.329(3) 0.522(5) 0.2460(14) 0.073(6) Uiso d 1 H
H4 0.043(3) 0.306(5) 0.2069(12) 0.066(5) Uiso d 1 H
loop_
_atom_type_symbol
_atom_type_description
_atom_type_scat_dispersion_real
_atom_type_scat_dispersion_imag
_atom_type_scat_source
C C 0.0033 0.0016 'International Tables Vol C Tables 4.2.6.8 and 6.1.1.4'
H H 0.0000 0.0000 'International Tables Vol C Tables 4.2.6.8 and 6.1.1.4'
O O 0.0106 0.0060 'International Tables Vol C Tables 4.2.6.8 and 6.1.1.4'
loop_
_geom_angle_atom_site_label_1
_geom_angle_atom_site_label_2
_geom_angle_atom_site_label_3
_geom_angle_site_symmetry_3
_geom_angle
_geom_angle_publ_flag
C2 C1 C6 . 120.36(15) yes
C1 C2 C3 . 120.1(2) yes
C2 C3 C4 . 120.4(2) yes
C3 C4 C5 . 120.3(2) yes
C4 C5 C6 . 119.30(13) yes
C4 C5 C7 . 119.65(13) yes
C6 C5 C7 . 121.06(12) yes
C5 C6 C1 . 119.54(13) yes
C1 C6 C7 3 119.33(13) yes
C5 C6 C7 3 121.13(12) yes
O C7 C5 . 121.31(13) yes
O C7 C6 3 120.88(13) yes
C5 C7 C6 3 117.81(11) yes
C2 C1 H1 . 121.9(10) yes
C6 C1 H1 . 117.7(10) yes
C1 C2 H2 . 119.8(11) yes
C3 C2 H2 . 120.1(11) yes
C2 C3 H3 . 119.9(12) yes
C4 C3 H3 . 119.7(12) yes
C3 C4 H4 . 120.9(10) yes
C5 C4 H4 . 118.8(10) yes
loop_
_geom_bond_atom_site_label_1
_geom_bond_atom_site_label_2
_geom_bond_site_symmetry_2
_geom_bond_distance
_geom_bond_publ_flag
O C7 . 1.217(2) yes
C1 C2 . 1.381(2) yes
C1 C6 . 1.393(2) yes
C2 C3 . 1.377(2) yes
C3 C4 . 1.379(2) yes
C4 C5 . 1.395(2) yes
C5 C6 . 1.398(2) yes
C5 C7 . 1.481(2) yes
C6 C7 3 1.486(2) yes
C1 H1 . 0.97(2) yes
C2 H2 . 0.97(2) yes
C3 H3 . 0.96(2) yes
C4 H4 . 0.98(2) yes
