#------------------------------------------------------------------------------
#$Date: 2017-10-13 08:28:26 +0300 (Fri, 13 Oct 2017) $
#$Revision: 201972 $
#$URL: file:///home/coder/svn-repositories/cod/cif/2/10/51/2105145.cif $
#------------------------------------------------------------------------------
#
# This file is available in the Crystallography Open Database (COD),
# http://www.crystallography.net/. The original data for this entry
# were provided by IUCr Journals, http://journals.iucr.org/.
#
# The file may be used within the scientific community so long as
# proper attribution is given to the journal article from which the
# data were obtained.
#
data_2105145
loop_
_publ_author_name
'Tumanov, Nikolay A.'
'Boldyreva, Elena V.'
_publ_section_title
;
 X-ray diffraction and Raman study of <small>DL</small>-alanine at high
 pressure: revision of phase transitions
;
_journal_coeditor_code           GP5051
_journal_issue                   4
_journal_name_full               'Acta Crystallographica Section B'
_journal_page_first              412
_journal_page_last               423
_journal_paper_doi               10.1107/S0108768112028972
_journal_volume                  68
_journal_year                    2012
_chemical_formula_moiety         'C3 H7 N O2'
_chemical_formula_sum            'C3 H7 N O2'
_chemical_formula_weight         89.10
_chemical_name_common            DL-alanine
_chemical_name_systematic        'DL-2-Aminopropionic Acid '
_space_group_IT_number           33
_symmetry_cell_setting           orthorhombic
_symmetry_space_group_name_Hall  'P 2c -2n'
_symmetry_space_group_name_H-M   'P n a 21'
_atom_sites_solution_hydrogens   geom
_atom_sites_solution_primary     direct
_atom_sites_solution_secondary   difmap
_audit_creation_method           SHELXL-97
_cell_angle_alpha                90.00
_cell_angle_beta                 90.00
_cell_angle_gamma                90.00
_cell_formula_units_Z            4
_cell_length_a                   11.852(2)
_cell_length_b                   5.8715(14)
_cell_length_c                   5.8057(5)
_cell_measurement_reflns_used    1471
_cell_measurement_temperature    293(2)
_cell_measurement_theta_max      30.8924
_cell_measurement_theta_min      3.5022
_cell_volume                     404.01(12)
_computing_cell_refinement       'CrysAlis Pro (Oxford Diffraction Ltd, 2010)'
_computing_data_collection       'CrysAlis Pro (Oxford Diffraction Ltd, 2010)'
_computing_data_reduction        'CrysAlis Pro (Oxford Diffraction Ltd, 2010)'
_computing_molecular_graphics    'Mercury (Macrae <i>et al.</i>, 2008)'
_computing_publication_material
;
Mercury (Macrae <i>et al.</i>, 2008),
PLATON (Spek, 2009),
enCIFer (Allen <i>et al.</i>, 2004)
;
_computing_structure_refinement  'SHELXL-97 (Sheldrick, 1997)'
_computing_structure_solution    'SHELXS-97 (Sheldrick, 1990)'
_diffrn_ambient_temperature      293(2)
_diffrn_detector_area_resol_mean 10.3457
_diffrn_measured_fraction_theta_full 0.479
_diffrn_measured_fraction_theta_max 0.479
_diffrn_measurement_device_type  'Oxford Diffraction Gemini Ultra R'
_diffrn_measurement_method       \w
_diffrn_radiation_monochromator  graphite
_diffrn_radiation_type           MoK\a
_diffrn_radiation_wavelength     0.71073
_diffrn_reflns_av_R_equivalents  0.0596
_diffrn_reflns_av_sigmaI/netI    0.0476
_diffrn_reflns_limit_h_max       13
_diffrn_reflns_limit_h_min       -13
_diffrn_reflns_limit_k_max       6
_diffrn_reflns_limit_k_min       -6
_diffrn_reflns_limit_l_max       8
_diffrn_reflns_limit_l_min       -8
_diffrn_reflns_number            3497
_diffrn_reflns_theta_full        30.96
_diffrn_reflns_theta_max         30.96
_diffrn_reflns_theta_min         3.87
_exptl_absorpt_coefficient_mu    0.122
_exptl_absorpt_correction_T_max  0.478
_exptl_absorpt_correction_T_min  0.406
_exptl_absorpt_correction_type   gaussian
_exptl_absorpt_process_details
;
Absorb6.1 (R. J. Angel, 2004)
;
_exptl_crystal_colour            colorless
_exptl_crystal_density_diffrn    1.465
_exptl_crystal_density_method    'not measured'
_exptl_crystal_description       plate
_exptl_crystal_F_000             192
_exptl_crystal_size_max          0.16
_exptl_crystal_size_mid          0.10
_exptl_crystal_size_min          0.06
_refine_diff_density_max         0.137
_refine_diff_density_min         -0.139
_refine_ls_extinction_method     none
_refine_ls_goodness_of_fit_ref   1.019
_refine_ls_hydrogen_treatment    constr
_refine_ls_matrix_type           full
_refine_ls_number_parameters     57
_refine_ls_number_reflns         607
_refine_ls_number_restraints     1
_refine_ls_restrained_S_all      1.018
_refine_ls_R_factor_all          0.0605
_refine_ls_R_factor_gt           0.0391
_refine_ls_shift/su_max          0.000
_refine_ls_shift/su_mean         0.000
_refine_ls_structure_factor_coef Fsqd
_refine_ls_weighting_details
'calc w=1/[\s^2^(Fo^2^)+(0.0291P)^2^+0.0000P] where P=(Fo^2^+2Fc^2^)/3'
_refine_ls_weighting_scheme      calc
_refine_ls_wR_factor_gt          0.0634
_refine_ls_wR_factor_ref         0.0687
_reflns_number_gt                472
_reflns_number_total             607
_reflns_threshold_expression     I>2\s(I)
_iucr_refine_instructions_details
;
TITL DLALA_10KBAR_NV_OU IN PNA2(1)
CELL  0.71073 11.85231  5.87152  5.80565 90.00000 90.00000 90.00000
ZERR 4  0.00203  0.00136  0.00045  0.00000  0.00000  0.00000
LATT -1
SYMM -X, -Y, Z+ 0.50000
SYMM -X+ 0.50000, Y+ 0.50000, Z+ 0.50000
SYMM X+ 0.50000, -Y+ 0.50000, Z
SFAC C H N O
UNIT 12 28 4 8
PLAN 30
FMAP 2
L.S. 10
ACTA
CONF
BOND $H
EQIV $1 x,y,-1+z
EQIV $2 1-x,1-y,-1/2+z
EQIV $3 3/2-x,1/2+y,-1/2+z
HTAB N1 O2_$2
HTAB N1 O1_$1
HTAB N1 O2_$1
HTAB N1 O1_$3
WGHT    0.029100
FVAR       6.40240
O2    4    0.589092    0.483980    0.603599    11.00000    0.03805    0.04174 =
         0.02555   -0.00533    0.00298    0.01479
O1    4    0.685018    0.186320    0.741934    11.00000    0.03939    0.04744 =
         0.01683    0.00279    0.00005    0.00775
C1    1    0.644696    0.306910    0.581200    11.00000    0.01598    0.04976 =
         0.01575   -0.00207    0.00450   -0.00859
C2    1    0.662989    0.207266    0.337830    11.00000    0.01682    0.03277 =
         0.01812    0.00104   -0.00003   -0.00034
AFIX  13
H2    2    0.742308    0.162461    0.323028    11.00000   -1.20000
AFIX   0
C3    1    0.590956    0.002467    0.293817    11.00000    0.04135    0.04035 =
         0.02308    0.00024   -0.00085   -0.00499
AFIX 137
H3B   2    0.608574   -0.059357    0.145023    11.00000   -1.20000
H3C   2    0.512863    0.045636    0.298187    11.00000   -1.20000
H3A   2    0.605229   -0.110239    0.410012    11.00000   -1.20000
AFIX   0
N1    3    0.638554    0.387060    0.163203    11.00000    0.02929    0.03162 =
         0.01590    0.00074    0.00041   -0.00374
AFIX 137
H1C   2    0.682735    0.507031    0.188574    11.00000   -1.20000
H1B   2    0.566587    0.428962    0.174097    11.00000   -1.20000
H1A   2    0.651764    0.332434    0.022771    11.00000   -1.20000
HKLF 4
REM  DLALA_10KBAR_NV_OU IN PNA2(1)
REM R1 =  0.0391 for    472 Fo > 4sig(Fo)  and  0.0605 for all    607 data
REM     57 parameters refined using      1 restraints
END
WGHT      0.0292      0.0000
REM Highest difference peak  0.137,  deepest hole -0.139,  1-sigma level  0.035
Q1    1   0.4845  0.3585  0.1009  11.00000  0.05    0.14
Q2    1   0.6579  0.2365  0.4564  11.00000  0.05    0.13
Q3    1   0.6847  0.1901  0.6116  11.00000  0.05    0.12
Q4    1   0.5189 -0.2190  0.0772  11.00000  0.05    0.12
Q5    1   0.6637 -0.0361  0.3757  11.00000  0.05    0.12
Q6    1   0.6994 -0.0300  0.6828  11.00000  0.05    0.12
Q7    1   0.6764  0.6999  0.1677  11.00000  0.05    0.12
Q8    1   0.6074 -0.2135  0.5918  11.00000  0.05    0.12
Q9    1   0.6999  0.7061  0.3194  11.00000  0.05    0.11
Q10   1   0.7007  0.2600  0.6022  11.00000  0.05    0.11
Q11   1   0.7532  0.2948  0.7130  11.00000  0.05    0.11
Q12   1   0.6693  0.6272  0.2974  11.00000  0.05    0.11
Q13   1   0.6553  0.2733  0.7471  11.00000  0.05    0.10
Q14   1   0.6661  0.4719  0.3537  11.00000  0.05    0.10
Q15   1   0.6559  0.2804 -0.1181  11.00000  0.05    0.10
Q16   1   0.6201  0.1433  0.4915  11.00000  0.05    0.10
Q17   1   0.5666 -0.0430  0.3368  11.00000  0.05    0.10
Q18   1   0.5015  0.1757  0.3091  11.00000  0.05    0.10
Q19   1   0.4562  0.2217  0.1954  11.00000  0.05    0.10
Q20   1   0.7261  0.5074  0.2638  11.00000  0.05    0.10
Q21   1   0.6157  0.1171  0.0541  11.00000  0.05    0.09
Q22   1   0.7317  0.5941  0.1820  11.00000  0.05    0.09
Q23   1   0.5403  0.0954  0.5675  11.00000  0.05    0.09
Q24   1   0.8188  0.1945  0.4019  11.00000  0.05    0.09
Q25   1   0.5621  0.6781  0.5275  11.00000  0.05    0.09
Q26   1   0.7469  0.3872  0.1806  11.00000  0.05    0.09
Q27   1   0.5813  0.5687  0.7168  11.00000  0.05    0.09
Q28   1   0.3996  0.0036  0.2492  11.00000  0.05    0.09
Q29   1   0.4684 -0.2093  0.3566  11.00000  0.05    0.09
Q30   1   0.7254  0.3707  0.3732  11.00000  0.05    0.09
;
_cod_data_source_file            gp5051.cif
_cod_data_source_block           dlala_10kbar
_cod_original_cell_volume        404.02(12)
_cod_database_code               2105145
loop_
_symmetry_equiv_pos_as_xyz
'x, y, z'
'-x, -y, z+1/2'
'-x+1/2, y+1/2, z+1/2'
'x+1/2, -y+1/2, z'
loop_
_atom_site_type_symbol
_atom_site_label
_atom_site_fract_x
_atom_site_fract_y
_atom_site_fract_z
_atom_site_U_iso_or_equiv
_atom_site_adp_type
_atom_site_calc_flag
_atom_site_refinement_flags
_atom_site_occupancy
_atom_site_symmetry_multiplicity
O O2 0.58909(17) 0.4840(4) 0.6036(3) 0.0351(6) Uani d . 1 1
O O1 0.68502(16) 0.1863(3) 0.7419(2) 0.0346(5) Uani d . 1 1
C C1 0.6447(2) 0.3069(6) 0.5812(4) 0.0272(7) Uani d . 1 1
C C2 0.6630(2) 0.2073(6) 0.3378(3) 0.0226(7) Uani d . 1 1
H H2 0.7423 0.1625 0.3230 0.027 Uiso calc R 1 1
C C3 0.5910(2) 0.0025(7) 0.2938(4) 0.0349(9) Uani d . 1 1
H H3B 0.6086 -0.0594 0.1450 0.042 Uiso calc R 1 1
H H3C 0.5129 0.0456 0.2982 0.042 Uiso calc R 1 1
H H3A 0.6052 -0.1102 0.4100 0.042 Uiso calc R 1 1
N N1 0.63855(16) 0.3871(4) 0.1632(3) 0.0256(5) Uani d . 1 1
H H1C 0.6827 0.5070 0.1886 0.031 Uiso calc R 1 1
H H1B 0.5666 0.4290 0.1741 0.031 Uiso calc R 1 1
H H1A 0.6518 0.3324 0.0228 0.031 Uiso calc R 1 1
loop_
_atom_site_aniso_label
_atom_site_aniso_U_11
_atom_site_aniso_U_22
_atom_site_aniso_U_33
_atom_site_aniso_U_12
_atom_site_aniso_U_13
_atom_site_aniso_U_23
O2 0.0380(16) 0.042(2) 0.0256(10) 0.0148(9) 0.0030(9) -0.0053(8)
O1 0.0394(16) 0.047(2) 0.0168(6) 0.0077(9) 0.0000(9) 0.0028(10)
C1 0.016(2) 0.050(3) 0.0157(11) -0.0086(11) 0.0045(10) -0.0021(14)
C2 0.017(2) 0.033(3) 0.0181(11) -0.0003(10) 0.0000(10) 0.0010(12)
C3 0.041(3) 0.040(3) 0.0231(15) -0.0050(12) -0.0008(12) 0.0002(13)
N1 0.0293(15) 0.032(2) 0.0159(8) -0.0037(9) 0.0004(9) 0.0007(9)
loop_
_atom_type_symbol
_atom_type_description
_atom_type_scat_dispersion_real
_atom_type_scat_dispersion_imag
_atom_type_scat_source
C C 0.0033 0.0016 'International Tables Vol C Tables 4.2.6.8 and 6.1.1.4'
H H 0.0000 0.0000 'International Tables Vol C Tables 4.2.6.8 and 6.1.1.4'
N N 0.0061 0.0033 'International Tables Vol C Tables 4.2.6.8 and 6.1.1.4'
O O 0.0106 0.0060 'International Tables Vol C Tables 4.2.6.8 and 6.1.1.4'
loop_
_geom_angle_atom_site_label_1
_geom_angle_atom_site_label_2
_geom_angle_atom_site_label_3
_geom_angle
O2 C1 O1 126.4(2)
O2 C1 C2 119.3(2)
O1 C1 C2 114.2(2)
N1 C2 C3 110.0(2)
N1 C2 C1 109.0(2)
C3 C2 C1 112.4(2)
N1 C2 H2 108.5
C3 C2 H2 108.5
C1 C2 H2 108.5
C2 C3 H3B 109.5
C2 C3 H3C 109.5
H3B C3 H3C 109.5
C2 C3 H3A 109.5
H3B C3 H3A 109.5
H3C C3 H3A 109.5
C2 N1 H1C 109.5
C2 N1 H1B 109.5
H1C N1 H1B 109.5
C2 N1 H1A 109.5
H1C N1 H1A 109.5
H1B N1 H1A 109.5
loop_
_geom_bond_atom_site_label_1
_geom_bond_atom_site_label_2
_geom_bond_distance
O2 C1 1.238(4)
O1 C1 1.265(3)
C1 C2 1.545(3)
C2 N1 1.492(3)
C2 C3 1.497(4)
C2 H2 0.9800
C3 H3B 0.9600
C3 H3C 0.9600
C3 H3A 0.9600
N1 H1C 0.8900
N1 H1B 0.8900
N1 H1A 0.8900
loop_
_geom_hbond_atom_site_label_D
_geom_hbond_atom_site_label_H
_geom_hbond_atom_site_label_A
_geom_hbond_site_symmetry_A
_geom_hbond_distance_DH
_geom_hbond_distance_HA
_geom_hbond_distance_DA
_geom_hbond_angle_DHA
N1 H1B O2 2_664 0.89 1.96 2.824(3) 163.8
N1 H1A O1 1_554 0.89 1.88 2.770(2) 173.5
N1 H1A O2 1_554 0.89 2.70 3.350(3) 131.3
N1 H1C O1 3_654 0.89 1.91 2.769(2) 160.8
loop_
_geom_torsion_atom_site_label_1
_geom_torsion_atom_site_label_2
_geom_torsion_atom_site_label_3
_geom_torsion_atom_site_label_4
_geom_torsion
O2 C1 C2 N1 17.6(4)
O1 C1 C2 N1 -166.0(2)
O2 C1 C2 C3 -104.6(4)
O1 C1 C2 C3 71.8(4)
loop_
_cod_related_entry_id
_cod_related_entry_database
_cod_related_entry_code
1 ChemSpider 582
