#------------------------------------------------------------------------------
#$Date: 2016-02-13 21:28:24 +0200 (Sat, 13 Feb 2016) $
#$Revision: 176429 $
#$URL: svn://www.crystallography.net/cod/cif/2/10/63/2106332.cif $
#------------------------------------------------------------------------------
#
# This file is available in the Crystallography Open Database (COD),
# http://www.crystallography.net/. The original data for this entry
# were provided by IUCr Journals, http://journals.iucr.org/.
#
# The file may be used within the scientific community so long as
# proper attribution is given to the journal article from which the
# data were obtained.
#
data_2106332
loop_
_publ_author_name
'Heger, G.'
'Deiseroth, H.J.'
'Schulz, H.'
_publ_section_title
;
 Combined X-ray and neutron diffraction study of K2 (Pt (CN)4 X0.3 .3H2 O
 with X= Br, Cl (KCP) between 31 K and room temperature
;
_journal_name_full               'Acta Crystallographica B (24,1968-38,1982)'
_journal_page_first              725
_journal_page_last               731
_journal_volume                  34
_journal_year                    1978
_chemical_formula_sum            'C4 H6.68 Cl0.32 K2 N4 O3.34 Pt'
_chemical_name_systematic        'K2 (Pt (C N)4) Cl0.32 (H2 O)3.34'
_space_group_IT_number           99
_symmetry_space_group_name_Hall  'P 4 -2'
_symmetry_space_group_name_H-M   'P 4 m m'
_cell_angle_alpha                90
_cell_angle_beta                 90
_cell_angle_gamma                90
_cell_formula_units_Z            2
_cell_length_a                   9.871
_cell_length_b                   9.871
_cell_length_c                   5.775
_cell_volume                     562.697
_citation_journal_id_ASTM        ACBCAR
_cod_data_source_file            Heger_ACBCAR_1978_1422.cif
_cod_data_source_block           C4H6.68Cl0.32K2N4O3.34Pt1
_cod_original_cell_volume        562.6967
_cod_original_formula_sum        'C4 H6.68 Cl0.32 K2 N4 O3.34 Pt1'
_cod_database_code               2106332
loop_
_symmetry_equiv_pos_as_xyz
x,y,z
-y,x,z
-x,-y,z
y,-x,z
-x,y,z
-y,-x,z
x,-y,z
y,x,z
loop_
_atom_site_label
_atom_site_type_symbol
_atom_site_fract_x
_atom_site_fract_y
_atom_site_fract_z
_atom_site_occupancy
_atom_site_U_iso_or_equiv
N2 N-3 0.2252 0.2252 0.503 1 0.0
C1 C+2 0.2027 0 0.014 1 0.0
C2 C+2 0.1435 0.1435 0.502 1 0.0
Pt1 Pt+2 0 0 0 1 0.0
K1 K+1 0.1974 0.5 0.268 1 0.0
N1 N-3 0.3189 0 0.019 1 0.0
O3 O-2 0.5 0.5 0.396 0.34 0.0
Cl1 Cl-1 0.5 0.5 0.505 0.65 0.0
O1 O-2 0.5 0 0.603 0.95 0.0
Pt2 Pt+2 0 0 0.4996 1 0.0
O2 O-2 0.3416 0.3416 -0.066 1.11 0.0
