#------------------------------------------------------------------------------
#$Date: 2021-07-28 08:19:57 +0300 (Wed, 28 Jul 2021) $
#$Revision: 267780 $
#$URL: file:///home/coder/svn-repositories/cod/cif/2/10/88/2108840.cif $
#------------------------------------------------------------------------------
#
# This file is available in the Crystallography Open Database (COD),
# http://www.crystallography.net/. The original data for this entry
# were provided by IUCr Journals, http://journals.iucr.org/.
#
# The file may be used within the scientific community so long as
# proper attribution is given to the journal article from which the
# data were obtained.
#
data_2108840
loop_
_publ_author_name
'Dissanayaka Mudiyanselage, Ranuri S.'
'Kong, Tai'
'Xie, Weiwei'
_publ_section_title
;
 Crystal growth and physical properties of an antiferromagnetic molecule:
 <i>trans</i>-dibromidotetrakis(acetonitrile)chromium(III) tribromide,
 [CrBr~2~(NCCH~3~)~4~](Br~3~)
;
_journal_coeditor_code           RM5050SUP1
_journal_issue                   4
_journal_name_full               'Acta Crystallographica Section B'
_journal_page_first
;
;
_journal_paper_doi               10.1107/S2052520621004662
_journal_volume                  77
_journal_year                    2021
_chemical_formula_moiety         'C8 H12 Br2 Cr N4, 2(Br1.5)'
_chemical_formula_sum            'C8 H12 Br5 Cr N4'
_chemical_formula_weight         615.77
_space_group_crystal_system      monoclinic
_space_group_IT_number           12
_space_group_name_Hall           '-C 2y'
_space_group_name_H-M_alt        'C 1 2/m 1'
_atom_sites_solution_hydrogens   geom
_audit_creation_date             2020-04-10
_audit_creation_method
;
Olex2 1.2
(compiled 2018.05.29 svn.r3508 for OlexSys, GUI svn.r5506)
;
_audit_update_record
;
2021-06-01 # Formatted by IUCr publCIF

;
_cell_angle_alpha                90
_cell_angle_beta                 103.685(11)
_cell_angle_gamma                90
_cell_formula_units_Z            2
_cell_length_a                   14.700(7)
_cell_length_b                   10.319(5)
_cell_length_c                   6.308(3)
_cell_measurement_reflns_used    1704
_cell_measurement_temperature    296
_cell_measurement_theta_max      29.23
_cell_measurement_theta_min      2.43
_cell_volume                     929.7(8)
_computing_cell_refinement       'SAINT (Bruker, 2016)'
_computing_data_collection       'APEX2 (Bruker, 2016)'
_computing_data_reduction        'SAINT (Bruker, 2016)'
_computing_molecular_graphics    'OLEX2 (Dolomanov et al., 2009)'
_computing_publication_material  'OLEX2 (Dolomanov et al., 2009)'
_computing_structure_refinement  'SHELXL2016 (Sheldrick, 2015b)'
_computing_structure_solution    'SHELXT (Sheldrick, 2015a)'
_diffrn_ambient_temperature      296.15
_diffrn_measured_fraction_theta_full 0.953
_diffrn_measured_fraction_theta_max 0.974
_diffrn_measurement_device_type  'Bruker APEXII CCD'
_diffrn_measurement_method       '\f and \w scans'
_diffrn_radiation_type           MoK\a
_diffrn_radiation_wavelength     0.71073
_diffrn_reflns_av_R_equivalents  0.0471
_diffrn_reflns_av_unetI/netI     0.0617
_diffrn_reflns_Laue_measured_fraction_full 0.953
_diffrn_reflns_Laue_measured_fraction_max 0.974
_diffrn_reflns_limit_h_max       22
_diffrn_reflns_limit_h_min       -23
_diffrn_reflns_limit_k_max       16
_diffrn_reflns_limit_k_min       -16
_diffrn_reflns_limit_l_max       10
_diffrn_reflns_limit_l_min       -9
_diffrn_reflns_number            2081
_diffrn_reflns_point_group_measured_fraction_full 0.953
_diffrn_reflns_point_group_measured_fraction_max 0.974
_diffrn_reflns_theta_full        25.242
_diffrn_reflns_theta_max         35.007
_diffrn_reflns_theta_min         2.435
_diffrn_standards_number         0
_exptl_absorpt_coefficient_mu    11.349
_exptl_absorpt_correction_T_max  0.7469
_exptl_absorpt_correction_T_min  0.3278
_exptl_absorpt_correction_type   empirical
_exptl_absorpt_process_details
;
(SADABS; Bruker, 2016)
;
_exptl_crystal_density_diffrn    2.199
_exptl_crystal_description       block
_exptl_crystal_F_000             574
_exptl_crystal_size_max          0.05
_exptl_crystal_size_mid          0.05
_exptl_crystal_size_min          0.05
_refine_diff_density_max         1.099
_refine_diff_density_min         -1.043
_refine_diff_density_rms         0.175
_refine_ls_extinction_method     none
_refine_ls_goodness_of_fit_ref   1.017
_refine_ls_hydrogen_treatment    constr
_refine_ls_matrix_type           full
_refine_ls_number_parameters     50
_refine_ls_number_reflns         2081
_refine_ls_number_restraints     0
_refine_ls_restrained_S_all      1.017
_refine_ls_R_factor_all          0.0811
_refine_ls_R_factor_gt           0.0464
_refine_ls_shift/su_max          0.000
_refine_ls_shift/su_mean         0.000
_refine_ls_structure_factor_coef Fsqd
_refine_ls_weighting_details
'w=1/[\s^2^(Fo^2^)+(0.0513P)^2^+0.1136P] where P=(Fo^2^+2Fc^2^)/3'
_refine_ls_weighting_scheme      calc
_refine_ls_wR_factor_gt          0.1055
_refine_ls_wR_factor_ref         0.1194
_reflns_Friedel_coverage         0.000
_reflns_number_gt                1356
_reflns_number_total             2081
_reflns_threshold_expression     'I > 2\s(I)'
_cod_data_source_file            rm5050sup1.cif
_cod_data_source_block           I
_cod_original_cell_volume        929.8(8)
_cod_database_code               2108840
_shelx_shelxl_version_number     2016/6
_shelx_space_group_comment
;
The symmetry employed for this shelxl refinement is uniquely defined
by the following loop, which should always be used as a source of
symmetry information in preference to the above space-group names.
They are only intended as comments.
;
_shelx_estimated_absorpt_t_max   0.601
_shelx_estimated_absorpt_t_min   0.601
_exptl_absorpt_special_details
;
SADABS-2016/2 (Bruker,2016/2) was used for absorption correction.
wR2(int) was 0.1149 before and 0.0602 after correction.
The Ratio of minimum to maximum transmission is 0.4389.
The \l/2 correction factor is Not present.
;
_olex2_refinement_description
;
1. Twinned data refinement
 Scales: 0.741(7)
 0.259(7)
2. Fixed Uiso
 At 1.5 times of:
  All C(H,H,H) groups
3.a Idealised Me refined as rotating group:
 C2(H2A,H2B,H2C)
;
_shelx_res_file
;
TITL RS_NaCrS2_01272020_0m in C2/m
    rs_nacrs2_01272020_0m_sx.res
    created by SHELXL-2016/6 at 19:07:37 on 10-Apr-2020
CELL 0.71073 14.7 10.3195 6.3082 90 103.6845 90
ZERR 2 0.007 0.0049 0.0029 0 0.0105 0
LATT 7
SYMM -X,+Y,-Z
SFAC C H Br Cr N
UNIT 16 24 10 2 8

L.S. 40
PLAN  5
SIZE 0.05 0.05 0.05
TEMP 23
BOND $H
fmap 2
acta
REM <olex2.extras>
REM <HklSrc "%.\\RS_NaCrS2_01272020_0m_sx_tw.hkl">
REM </olex2.extras>

WGHT    0.051300    0.113600
BASF   0.25850
FVAR      11.41600
BR1   3    0.132026    0.000000    0.318299    10.50000    0.03819    0.04764 =
         0.04085    0.00000    0.00585    0.00000
CR1   4    0.000000    0.000000    0.000000    10.25000    0.02786    0.01935 =
         0.03115    0.00000    0.01616    0.00000
BR2   3    0.500000    0.000000    1.000000    10.25000    0.06711    0.03637 =
         0.04241    0.00000    0.02399    0.00000
BR3   3    0.326211    0.000000    0.814353    10.50000    0.06163    0.07555 =
         0.05417    0.00000    0.01155    0.00000
N1    5    0.064382    0.136946   -0.141566    11.00000    0.04311    0.02776 =
         0.04495    0.00253    0.02511   -0.00427
C1    1    0.102433    0.207867   -0.223661    11.00000    0.04924    0.03014 =
         0.04553   -0.00265    0.02466   -0.00655
C2    1    0.152549    0.298907   -0.329506    11.00000    0.10372    0.04350 =
         0.08168   -0.00185    0.06320   -0.02647
AFIX 137
H2A   2    0.198665    0.253323   -0.385914    11.00000   -1.50000
H2B   2    0.182906    0.362535   -0.225586    11.00000   -1.50000
H2C   2    0.109245    0.341118   -0.447071    11.00000   -1.50000
AFIX   0
HKLF 5




REM  RS_NaCrS2_01272020_0m in C2/m
REM R1 =  0.0464 for    1356 Fo > 4sig(Fo)  and  0.0811 for all    2081 data
REM     50 parameters refined using      0 restraints

END

WGHT      0.0513      0.1136

REM Highest difference peak  1.099,  deepest hole -1.043,  1-sigma level  0.175
Q1    1   0.1383  0.0000 -0.1756  10.50000  0.05    1.10
Q2    1   0.3198  0.0000  0.9276  10.50000  0.05    0.95
Q3    1   0.0000  0.5000 -0.5000  10.25000  0.05    0.84
Q4    1   0.0000  0.0000  0.5000  10.25000  0.05    0.83
Q5    1   0.1338  0.5000 -0.1846  10.50000  0.05    0.72
;
_shelx_res_checksum              14121
_shelx_hkl_file
;
   8   0   0  751695  114985  -2
   8   0   0  751695  114985   1
  12   0   0   78096    6433  -2
  12   0   0   78096    6433   1
  14   0   0   75083    6759  -2
  14   0   0   75083    6759   1
  16   0   0  201550   14577  -2
  16   0   0  201550   14577   1
  18   0   0    7655    3746  -2
  18   0   0    7655    3746   1
  20   0   0     326    4316  -2
  20   0   0     326    4316   1
  22   0   0   15310    5375  -2
  22   0   0   15310    5375   1
   1  -1   0  186879    6097  -2
   1   1   0  186879    6097   1
   7  -1   0  112783    9155  -2
   7   1   0  112783    9155   1
   9  -1   0  654367   42084  -2
   9   1   0  654367   42084   1
  11  -1   0  939481   43561  -2
  11   1   0  939481   43561   1
  13  -1   0    3610    1419  -2
  13   1   0    3610    1419   1
  15  -1   0  292211   14193  -2
  15   1   0  292211   14193   1
  17  -1   0    4575    2468  -2
  17   1   0    4575    2468   1
  19  -1   0    6922    2846  -2
  19   1   0    6922    2846   1
  21  -1   0    6072    3368  -2
  21   1   0    6072    3368   1
   0  -2   0 8143438  530626  -2
   0   2   0 8143438  530626   1
   2  -2   0   88655    2644  -2
   2   2   0   88655    2644   1
   6  -2   0 3991779  150075  -2
   6   2   0 3991779  150075   1
   8  -2   0  689359   31987  -2
   8   2   0  689359   31987   1
  12  -2   0   39973    3861  -2
  12   2   0   39973    3861   1
  14  -2   0   76467    5904  -2
  14   2   0   76467    5904   1
  16  -2   0  183003    9471  -2
  16   2   0  183003    9471   1
  18  -2   0      47    2608  -2
  18   2   0      47    2608   1
  20  -2   0     366    4520  -2
  20   2   0     366    4520   1
  22  -2   0   19973    3763  -2
  22   2   0   19973    3763   1
   5  -3   0 1023170   38490  -2
   5   3   0 1023170   38490   1
   9  -3   0  641063   91736  -2
   9   3   0  641063   91736   1
  11  -3   0  945575  144750  -2
  11   3   0  945575  144750   1
  13  -3   0     432    1472  -2
  13   3   0     432    1472   1
  15  -3   0  188311   12134  -2
  15   3   0  188311   12134   1
  17  -3   0    8021    2608  -2
  17   3   0    8021    2608   1
  19  -3   0    9136    2932  -2
  19   3   0    9136    2932   1
  21  -3   0    5922    3326  -2
  21   3   0    5922    3326   1
   0  -4   0 7757107  357560  -2
   0   4   0 7757107  357560   1
   2  -4   0    1041     599  -2
   2   4   0    1041     599   1
   6  -4   0 3182243   92467  -2
   6   4   0 3182243   92467   1
   8  -4   0 1000878   39625  -2
   8   4   0 1000878   39625   1
  10  -4   0   74911    4029  -2
  10   4   0   74911    4029   1
  12  -4   0   38065    4768  -2
  12   4   0   38065    4768   1
  14  -4   0   26823    2539  -2
  14   4   0   26823    2539   1
  16  -4   0   80546    7858  -2
  16   4   0   80546    7858   1
  18  -4   0   -1053    3176  -2
  18   4   0   -1053    3176   1
  20  -4   0    -311    3091  -2
  20   4   0    -311    3091   1
  22  -4   0   18800    3732  -2
  22   4   0   18800    3732   1
   1  -5   0    4905     513  -2
   1   5   0    4905     513   1
   3  -5   0    1189     638  -2
   3   5   0    1189     638   1
   7  -5   0  153510    5358  -2
   7   5   0  153510    5358   1
   9  -5   0  579479   15514  -2
   9   5   0  579479   15514   1
  11  -5   0  350595   13555  -2
  11   5   0  350595   13555   1
  13  -5   0    7343    2647  -2
  13   5   0    7343    2647   1
  15  -5   0  105751    6238  -2
  15   5   0  105751    6238   1
  17  -5   0    2114    2445  -2
  17   5   0    2114    2445   1
  19  -5   0     241    2759  -2
  19   5   0     241    2759   1
  21  -5   0    6084    3228  -2
  21   5   0    6084    3228   1
   0  -6   0 5395979  202984  -2
   0   6   0 5395979  202984   1
   2  -6   0  130343    5172  -2
   2   6   0  130343    5172   1
   4  -6   0   89215    4675  -2
   4   6   0   89215    4675   1
   6  -6   0 1422683   55608  -2
   6   6   0 1422683   55608   1
   8  -6   0  425105   15856  -2
   8   6   0  425105   15856   1
  12  -6   0   14894    1390  -2
  12   6   0   14894    1390   1
  14  -6   0   66346    7020  -2
  14   6   0   66346    7020   1
  16  -6   0   97478    5060  -2
  16   6   0   97478    5060   1
  18  -6   0    1596    2180  -2
  18   6   0    1596    2180   1
  20  -6   0   -1090    3426  -2
  20   6   0   -1090    3426   1
   1  -7   0   55243    1935  -2
   1   7   0   55243    1935   1
   3  -7   0   10198    1112  -2
   3   7   0   10198    1112   1
   5  -7   0  342191   16335  -2
   5   7   0  342191   16335   1
   7  -7   0   92535    7665  -2
   7   7   0   92535    7665   1
   9  -7   0   37740    2198  -2
   9   7   0   37740    2198   1
  11  -7   0  325022   17260  -2
  11   7   0  325022   17260   1
  13  -7   0   -1420    1818  -2
  13   7   0   -1420    1818   1
  15  -7   0  136063    8231  -2
  15   7   0  136063    8231   1
  17  -7   0   -1953    2945  -2
  17   7   0   -1953    2945   1
  19  -7   0     110    3396  -2
  19   7   0     110    3396   1
   0  -8   0 2271213  104772  -2
   0   8   0 2271213  104772   1
   2  -8   0  122305    4344  -2
   2   8   0  122305    4344   1
   4  -8   0    2403    1140  -2
   4   8   0    2403    1140   1
   8  -8   0  150780   10894  -2
   8   8   0  150780   10894   1
  10  -8   0    6339    1580  -2
  10   8   0    6339    1580   1
  12  -8   0   15134    1904  -2
  12   8   0   15134    1904   1
  14  -8   0   48496    3465  -2
  14   8   0   48496    3465   1
  16  -8   0   66905    5660  -2
  16   8   0   66905    5660   1
  18  -8   0   -3092    3359  -2
  18   8   0   -3092    3359   1
  20  -8   0   -1059    4805  -2
  20   8   0   -1059    4805   1
   1  -9   0   29855    1764  -2
   1   9   0   29855    1764   1
   3  -9   0    9365    1124  -2
   3   9   0    9365    1124   1
   5  -9   0  249428   13303  -2
   5   9   0  249428   13303   1
   7  -9   0   44512    2521  -2
   7   9   0   44512    2521   1
   9  -9   0   92219    5191  -2
   9   9   0   92219    5191   1
  11  -9   0   77931    6084  -2
  11   9   0   77931    6084   1
  13  -9   0   -1459    2037  -2
  13   9   0   -1459    2037   1
  15  -9   0   44608    5945  -2
  15   9   0   44608    5945   1
  17  -9   0    1350    3245  -2
  17   9   0    1350    3245   1
  19  -9   0    4479    4805  -2
  19   9   0    4479    4805   1
   0 -10   0 1103437   51249  -2
   0  10   0 1103437   51249   1
   2 -10   0   36408    2288  -2
   2  10   0   36408    2288   1
   4 -10   0   19130    2148  -2
   4  10   0   19130    2148   1
   6 -10   0  353044   20774  -2
   6  10   0  353044   20774   1
   8 -10   0  224871   16956  -2
   8  10   0  224871   16956   1
  10 -10   0   20676    2320  -2
  10  10   0   20676    2320   1
  12 -10   0    8479    2090  -2
  12  10   0    8479    2090   1
  14 -10   0    9000    2439  -2
  14  10   0    9000    2439   1
  16 -10   0   16518    3652  -2
  16  10   0   16518    3652   1
  18 -10   0   -4397    4397  -2
  18  10   0   -4397    4397   1
   1 -11   0     342    2237  -2
   1  11   0     342    2237   1
   3 -11   0   14659    3013  -2
   3  11   0   14659    3013   1
   5 -11   0   26977    2224  -2
   5  11   0   26977    2224   1
   7 -11   0   55477    3125  -2
   7  11   0   55477    3125   1
   9 -11   0   35267    5126  -2
   9  11   0   35267    5126   1
  11 -11   0   27282    2594  -2
  11  11   0   27282    2594   1
  13 -11   0      45    2345  -2
  13  11   0      45    2345   1
  15 -11   0    3849    3008  -2
  15  11   0    3849    3008   1
  17 -11   0    1954    4642  -2
  17  11   0    1954    4642   1
   0 -12   0  206680   15473  -2
   0  12   0  206680   15473   1
   2 -12   0   22357    3109  -2
   2  12   0   22357    3109   1
   4 -12   0   12770    2864  -2
   4  12   0   12770    2864   1
   6 -12   0  160808   14332  -2
   6  12   0  160808   14332   1
   8 -12   0   81330   15147  -2
   8  12   0   81330   15147   1
  10 -12   0    7074    2450  -2
  10  12   0    7074    2450   1
  12 -12   0     411    2316  -2
  12  12   0     411    2316   1
  14 -12   0   11427    2795  -2
  14  12   0   11427    2795   1
   1 -13   0   12810    3225  -2
   1  13   0   12810    3225   1
   3 -13   0    7020    3950  -2
   3  13   0    7020    3950   1
   5 -13   0   12923    3235  -2
   5  13   0   12923    3235   1
   7 -13   0   20292    4112  -2
   7  13   0   20292    4112   1
   9 -13   0    8257    2981  -2
   9  13   0    8257    2981   1
  11 -13   0   14972    3340  -2
  11  13   0   14972    3340   1
  13 -13   0      95    3305  -2
  13  13   0      95    3305   1
   2 -14   0   35234    4318  -2
   2  14   0   35234    4318   1
   4 -14   0    2410    3499  -2
   4  14   0    2410    3499   1
   6 -14   0   33578    3991  -2
   6  14   0   33578    3991   1
   8 -14   0   24889    4642  -2
   8  14   0   24889    4642   1
  10 -14   0    5897    3389  -2
  10  14   0    5897    3389   1
  12 -14   0    3990    4235  -2
  12  14   0    3990    4235   1
   1 -15   0   14617    4088  -2
   1  15   0   14617    4088   1
   3 -15   0    1734    3763  -2
   3  15   0    1734    3763   1
   5 -15   0    4824    3581  -2
   5  15   0    4824    3581   1
   7 -15   0    3602    3732  -2
   7  15   0    3602    3732   1
   9 -15   0    6963    3814  -2
   9  15   0    6963    3814   1
   0 -16   0   49349    7655  -2
   0  16   0   49349    7655   1
   2 -16   0   17417    4686  -2
   2  16   0   17417    4686   1
   4 -16   0    5159   10994  -2
   4  16   0    5159   10994   1
   6 -16   0   18944    5090  -2
   6  16   0   18944    5090   1
 -22   0   1     733    4560   1
 -20   0   1     407    3990   1
 -18   0   1  182332   13600   1
 -16   0   1   49756    4886   1
 -14   0   1    6969    2048   1
 -12   0   1  395967   22964   1
 -10   0   1  470349   22964   1
  -8   0   1  410203   19117   1
  -6   0   1   44164    2500   1
  -4   0   1    1547     814   1
  -2   0   1 4099570  154213   1
   0   0   1 1407430   92021   1
   4   0   1 4985524  229986   1
   6   0   1 1361840   62852   1
   8   0   1  467409   28298   1
  10   0   1   99632   10953   1
  12   0   1  312004   35465   1
  14   0   1   60261    6433   1
  16   0   1    5130    3665   1
  18   0   1     -81    4235   1
  20   0   1   38193    6026   1
  22   0   1    1303    5456   1
 -23   1   1     -23    3511   1
 -21   1   1     285    3052   1
 -19   1   1    -295    5049   1
 -17   1   1   57210    7736   1
 -15   1   1    9412    1792   1
 -13   1   1  278808   10939   1
 -11   1   1  163991    6759   1
  -9   1   1  687695   25984   1
  -7   1   1 2285242   86008   1
  -5   1   1  413915   13559   1
  -3   1   1 1366785   33629   1
  -1   1   1  516307   16826   1
   1   1   1  110841    3654   1
   3   1   1   16404     968   1
   5   1   1   15264    1222   1
   7   1   1  194675    5797   1
   9   1   1  546056   21047   1
  11   1   1   80904    6382   1
  13   1   1  366545   25277   1
  15   1   1    9500    4112   1
  17   1   1   36055    3656   1
  19   1   1   30709    3857   1
  21   1   1    6343    3846   1
 -22   2   1    3835    3392   1
 -20   2   1    2873    2897   1
 -18   2   1  124339    9731   1
 -16   2   1   12395    2237   1
 -14   2   1    2598    1566   1
 -12   2   1  354684   16756   1
 -10   2   1  312930   14712   1
  -8   2   1  468260   15371   1
  -6   2   1  122778    4172   1
  -4   2   1   13133     788   1
  -2   2   1 7387179  257778   1
   0   2   1 1105740   35913   1
   2   2   1 2654343   86422   1
   4   2   1 3169301  103279   1
   6   2   1 2348006   88312   1
   8   2   1  162500    6409   1
  10   2   1  128194    5148   1
  12   2   1  286036   17151   1
  14   2   1   41746    2828   1
  16   2   1    4153    2591   1
  18   2   1    1357    2962   1
  20   2   1   19241    3846   1
  22   2   1   -1721    5171   1
 -23   3   1    2725    3477   1
 -21   3   1    -770    2968   1
 -19   3   1    4983    2690   1
 -17   3   1   31982    2968   1
 -15   3   1     105    1633   1
 -13   3   1  285651   15907   1
 -11   3   1  141555    5703   1
  -9   3   1  447367   14688   1
  -7   3   1 1670900   56944   1
  -5   3   1   36606    2187   1
  -3   3   1 2500199   72874   1
  -1   3   1 1091414   41108   1
   1   3   1  742500   27975   1
   3   3   1  146344    5642   1
   5   3   1   15409    1378   1
   7   3   1  341319   11278   1
   9   3   1  189790   11547   1
  11   3   1   34745    2206   1
  13   3   1  274360   19480   1
  15   3   1    4231    2091   1
  17   3   1   39884    6800   1
  19   3   1   15052    3303   1
  21   3   1    5994    3513   1
 -22   4   1    4063    3177   1
 -20   4   1    4338    2778   1
 -18   4   1  127887    7368   1
 -16   4   1   15554    2367   1
 -14   4   1   24420    3217   1
 -12   4   1  136111    8799   1
 -10   4   1  300530   11131   1
  -8   4   1  521429   15193   1
  -6   4   1  279664    9232   1
  -4   4   1  175295    5832   1
  -2   4   1 3754093  122345   1
   0   4   1  277372    9121   1
   2   4   1  783033   25570   1
   4   4   1 1980533   74505   1
   6   4   1 1155681   43615   1
   8   4   1   84751    3227   1
  10   4   1  165420   10973   1
  12   4   1  292142   20222   1
  14   4   1   38184    2741   1
  16   4   1   -2426    2426   1
  18   4   1   -1055    2817   1
  20   4   1   17772    3441   1
 -21   5   1   -2280    4642   1
 -19   5   1    4263    2681   1
 -17   5   1   42493    3316   1
 -15   5   1    1686    1895   1
 -13   5   1  244235   14170   1
 -11   5   1   28687    1581   1
  -9   5   1  429048   19230   1
  -7   5   1  528569   17345   1
  -5   5   1   75599    3211   1
  -3   5   1  485480   15920   1
  -1   5   1  174580    6692   1
   1   5   1  189997    6732   1
   3   5   1   21546    1434   1
   5   5   1    9993    1227   1
   7   5   1   62611    3049   1
   9   5   1  233675    7908   1
  11   5   1    3981    1461   1
  13   5   1  244867   12028   1
  15   5   1    9247    2422   1
  17   5   1   29680    3665   1
  19   5   1   14495    3217   1
  21   5   1    3980    3444   1
 -20   6   1   -1384    4479   1
 -18   6   1   78747    8469   1
 -16   6   1   20993    2179   1
 -14   6   1     265    1510   1
 -12   6   1  167427    7123   1
 -10   6   1  210387    7499   1
  -8   6   1  179022    6115   1
  -6   6   1   36782    2065   1
  -4   6   1   37170    2005   1
  -2   6   1 2139923   62392   1
   0   6   1  355789   13540   1
   2   6   1  134837    4662   1
   4   6   1 1553633   50693   1
   6   6   1  726356   23768   1
   8   6   1   60667    2623   1
  10   6   1   48566    2461   1
  12   6   1  135008   10920   1
  14   6   1   25148    2289   1
  16   6   1   -1218    2119   1
  18   6   1    -866    2930   1
  20   6   1   10681    2873   1
 -21   7   1    3990    4723   1
 -19   7   1   -3990    3990   1
 -17   7   1   18048    6515   1
 -15   7   1     900    2532   1
 -13   7   1   39365    2512   1
 -11   7   1  102597    5415   1
  -9   7   1  112431    4888   1
  -7   7   1  840522   33447   1
  -5   7   1   60744    2977   1
  -3   7   1  458364   13496   1
  -1   7   1   78957    2567   1
   1   7   1   55612    2614   1
   3   7   1     734     976   1
   5   7   1   13668    1164   1
   7   7   1   63734    3388   1
   9   7   1  128488    7135   1
  11   7   1   28425    2680   1
  13   7   1   76676    5032   1
  15   7   1   -2735    2735   1
  17   7   1    4024    3311   1
  19   7   1    8070    6311   1
 -20   8   1   -1873    4642   1
 -18   8   1   34202    5293   1
 -16   8   1    8230    3624   1
 -14   8   1   -1971    1971   1
 -12   8   1  103310    5209   1
 -10   8   1  154638    6549   1
  -8   8   1  104740    4685   1
  -6   8   1    -803    1277   1
  -4   8   1   16702    1706   1
  -2   8   1 1318823   38392   1
   0   8   1  226444    7654   1
   2   8   1   59591    2969   1
   4   8   1  778646   29463   1
   6   8   1  484054   22391   1
   8   8   1   25047    2292   1
  10   8   1   11929    2102   1
  12   8   1   77010    4160   1
  14   8   1   17519    3128   1
  16   8   1    -855    3109   1
  18   8   1   -2324    3511   1
 -19   9   1    1954    4316   1
 -17   9   1   15473    4886   1
 -15   9   1   -2279    2279   1
 -13   9   1   31171    3163   1
 -11   9   1   19978    3807   1
  -9   9   1   84644    4299   1
  -7   9   1  124814    5497   1
  -5   9   1   26814    3057   1
  -3   9   1   85776    4059   1
  -1   9   1   24019    1477   1
   1   9   1   41181    2402   1
   3   9   1     820    1274   1
   5   9   1   16172    1619   1
   7   9   1    4710    1506   1
   9   9   1   66229    3561   1
  11   9   1    2038    1915   1
  13   9   1   60163    3555   1
  15   9   1    2442    3827   1
  17   9   1    2901    3582   1
 -18  10   1   28909    5456   1
 -16  10   1    5912    7248   1
 -14  10   1    2708    2457   1
 -12  10   1   22468    2311   1
 -10  10   1   87916    4505   1
  -8  10   1   90964    4698   1
  -6  10   1   38958    2433   1
  -4  10   1   66590    3759   1
  -2  10   1  366034   14246   1
   0  10   1   46588    2190   1
   2  10   1    1479    1407   1
   4  10   1  278821   12167   1
   6  10   1  124339    5563   1
   8  10   1    1041    1629   1
  10  10   1   31518    2404   1
  12  10   1   68900    3933   1
  14  10   1    6683    4642   1
  16  10   1     -42    4275   1
 -17  11   1   14740    5212   1
 -15  11   1   -2864    2864   1
 -13  11   1   14742    3624   1
 -11  11   1    6252    2264   1
  -9  11   1   37010    3733   1
  -7  11   1   39869    2705   1
  -5  11   1     409    1778   1
  -3  11   1   87093    4619   1
  -1  11   1    8818    1923   1
   1  11   1   56754    7207   1
   3  11   1   14780    2492   1
   5  11   1    7336    2405   1
   7  11   1   11472    2379   1
   9  11   1    6357    1937   1
  11  11   1   -2028    2028   1
  13  11   1   20902    3890   1
  15  11   1   -3404    3404   1
 -16  12   1   -3694    6800   1
 -14  12   1    4460    3019   1
 -12  12   1   16007    3061   1
 -10  12   1   29888    2759   1
  -8  12   1   33795    2807   1
  -6  12   1    8875    2108   1
  -4  12   1   38625    3533   1
  -2  12   1  265374   13416   1
   0  12   1   22732    3665   1
   2  12   1   11166    2932   1
   4  12   1  100935    7533   1
   6  12   1  106854    7014   1
   8  12   1    4109    2606   1
  10  12   1   10803    4235   1
  12  12   1   17112    3583   1
  14  12   1   -3972    7777   1
 -13  13   1    5619    3909   1
 -11  13   1   10424    3990   1
  -9  13   1    8456    3310   1
  -7  13   1   20959    3339   1
  -5  13   1    4177    3244   1
  -3  13   1   26110    3570   1
  -1  13   1    1301    3026   1
   1  13   1    6401    3037   1
   3  13   1   -1440    2915   1
   5  13   1   11552    2973   1
   7  13   1    4473    2953   1
   9  13   1    4851    3909   1
  11  13   1    4174    3284   1
 -12  14   1    8469    4072   1
 -10  14   1   25570    4967   1
  -8  14   1   15473    4479   1
  -6  14   1    1366    3812   1
  -4  14   1    8917    3685   1
  -2  14   1   50265    5171   1
   0  14   1   22093    4357   1
   2  14   1   10785    5578   1
   4  14   1   65999    5125   1
   6  14   1   29004    6637   1
   8  14   1     863    5741   1
  10  14   1    3220    3224   1
  -9  15   1    3257    4642   1
  -7  15   1   11075    5130   1
  -5  15   1    9935    5538   1
  -3  15   1     -81    5863   1
  -1  15   1    6002    4102   1
   1  15   1    2501    5212   1
   3  15   1    6276    3812   1
   5  15   1    9053    3645   1
   7  15   1    2310    3688   1
   9  15   1    1792    6352   1
  -6  16   1    3909    5619   1
  -4  16   1   13600    6108   1
  -2  16   1   38356    7655   1
   0  16   1   10994    6678   1
   2  16   1    5375    6840   1
   4  16   1    8713    6433   1
 -22   0   2    1384    4560   1
 -20   0   2   46906    5538   1
 -18   0   2   10586    3502   1
 -16   0   2   31861    4316   1
 -14   0   2  411908   19633   1
 -12   0   2  687388   45278   1
 -10   0   2     929    1954   1
  -8   0   2  613673   56841   1
  -6   0   2  499681   32818   1
  -4   0   2  905788   34102   1
  -2   0   2 1163127   75978   1
   2   0   2 2217363  143339   1
   4   0   2 5328472  245619   1
   6   0   2  434415   66491   1
   8   0   2   17713    1898   1
  10   0   2 1164307   84651   1
  14   0   2   18594    7818   1
  16   0   2   30945    5375   1
  18   0   2   22313    5375   1
  20   0   2    -570    5538   1
 -23   1   2    3695    3338   1
 -21   1   2   14557    3167   1
 -19   1   2    7615    2616   1
 -15   1   2   23999    1979   1
 -13   1   2   66952   12419   1
 -11   1   2  407650   13609   1
  -9   1   2  664498   25185   1
  -7   1   2  399126   13182   1
  -5   1   2 2457382   56589   1
  -3   1   2 1017504   38334   1
  -1   1   2 3335311  143694   1
   1   1   2 1173886   51592   1
   3   1   2   97721    6759   1
  11   1   2  155621    5792   1
  13   1   2   13547    4460   1
  15   1   2   87461    5179   1
  17   1   2   43574    4398   1
  19   1   2   21945    3999   1
  21   1   2    3706    4084   1
 -22   2   2    1211    3142   1
 -20   2   2   86234    6033   1
 -18   2   2   31691    3061   1
 -16   2   2   59174    3278   1
 -14   2   2  228889    9262   1
 -12   2   2  787125   68649   1
  -8   2   2  258031   12989   1
  -6   2   2  670398   21865   1
  -4   2   2 1238914   32952   1
  -2   2   2 1074555   40450   1
   0   2   2   20358    1291   1
   2   2   2 1827960   95726   1
   4   2   2 2384363  109897   1
   6   2   2  542660   20798   1
   8   2   2   87747    3714   1
  10   2   2 1356507   44382   1
  14   2   2   12787    2789   1
  16   2   2   34634    7434   1
  18   2   2   32315    5660   1
  20   2   2    -191    3868   1
 -23   3   2    1672    3269   1
 -21   3   2   19047    3153   1
 -19   3   2   18430    2778   1
 -17   3   2    6520    3624   1
 -15   3   2   30253    2139   1
 -13   3   2    8632    2443   1
 -11   3   2  190131    7582   1
  -9   3   2  478600   15778   1
  -7   3   2  463902   17367   1
  -5   3   2 1579500   46004   1
  -3   3   2   20498     909   1
  -1   3   2  856220   32269   1
   1   3   2  379455   12429   1
   5   3   2  452908   70359   1
  11   3   2  208956   14205   1
  13   3   2    4186    2330   1
  15   3   2   64028    4151   1
  17   3   2   30834    3754   1
  19   3   2    6125    6270   1
  21   3   2   -2599    3913   1
 -22   4   2    7655    5049   1
 -20   4   2   60231    5049   1
 -18   4   2   31388    2974   1
 -16   4   2    8053    1954   1
 -14   4   2  221449    8940   1
 -10   4   2   39214    2251   1
  -8   4   2  239153   18537   1
  -6   4   2  772015   29134   1
  -4   4   2 1403763   45776   1
  -2   4   2 1167170   43960   1
   0   4   2  140717    4723   1
   2   4   2  890647   41143   1
   4   4   2 1886752   87065   1
   6   4   2  347528   16295   1
   8   4   2   25119    1778   1
  10   4   2  803760   40461   1
  14   4   2    -816    2341   1
  16   4   2   22538    3339   1
  18   4   2   14487    3909   1
  20   4   2   -3004    3639   1
 -21   5   2    7492    4723   1
 -19   5   2    7736    4316   1
 -17   5   2    6192    2362   1
 -15   5   2    5686    1600   1
 -13   5   2   23880    2237   1
 -11   5   2  101128    3757   1
  -9   5   2  591257   19401   1
  -7   5   2  142092    4883   1
  -5   5   2 1805503   58887   1
  -3   5   2  168082    5689   1
  -1   5   2 1371979   51702   1
   1   5   2  304199   10047   1
   3   5   2   25408    2687   1
   5   5   2   74463    4026   1
   9   5   2   16043    3176   1
  11   5   2   88838    5670   1
  13   5   2     980    2091   1
  15   5   2   22204    5538   1
  17   5   2   15785    3227   1
  19   5   2    -661    4764   1
 -22   6   2    1140    4886   1
 -20   6   2   32981    5456   1
 -18   6   2    7166    3990   1
 -16   6   2   12785    3909   1
 -14   6   2  133256    7229   1
 -12   6   2  382875   15930   1
 -10   6   2    9621    1442   1
  -8   6   2  140495    4919   1
  -6   6   2  256410   12207   1
  -4   6   2  522494   17172   1
  -2   6   2  338132   12945   1
   0   6   2   40508    2474   1
   2   6   2  805915   26283   1
   4   6   2 1274104   41572   1
   6   6   2  112571    8707   1
   8   6   2   25325    1790   1
  10   6   2  453263   17521   1
  14   6   2   -1680    2935   1
  16   6   2    6451    3449   1
  18   6   2   13727    3942   1
 -21   7   2    5375    4805   1
 -19   7   2    4153    4560   1
 -17   7   2    5375    3909   1
 -15   7   2   11409    2524   1
 -13   7   2   25086    2574   1
 -11   7   2  151745    6424   1
  -9   7   2   78716    3783   1
  -7   7   2  121958    5166   1
  -5   7   2  201762    6870   1
  -3   7   2  125095    4407   1
  -1   7   2  400936   18743   1
   1   7   2  150044    8228   1
   3   7   2   49023    4316   1
   5   7   2   17671    2280   1
   7   7   2   17083    6148   1
   9   7   2    -178    2728   1
  11   7   2   48490    3127   1
  13   7   2    4905    2809   1
  15   7   2   21518    3442   1
  17   7   2   15453    3858   1
  19   7   2    2888    6026   1
 -20   8   2   21254    5212   1
 -18   8   2   13274    4642   1
 -16   8   2   10749    4153   1
 -14   8   2   75124    5225   1
 -12   8   2  261249   12286   1
 -10   8   2   18846    2062   1
  -8   8   2   68346    3630   1
  -6   8   2  214880   10506   1
  -4   8   2  265254   18835   1
  -2   8   2   93487    3531   1
   0   8   2    1349    1832   1
   2   8   2  570524   25777   1
   4   8   2  592535   22568   1
   6   8   2   22986    6678   1
   8   8   2   41394    2621   1
  10   8   2  252080   22390   1
  12   8   2    4538    8062   1
  14   8   2   -2904    2904   1
  16   8   2    4143    3705   1
  18   8   2   11503    4026   1
 -19   9   2    9691    5049   1
 -17   9   2    1629    4560   1
 -15   9   2    1481    2502   1
 -13   9   2    5608    2184   1
 -11   9   2   35491    2968   1
  -9   9   2   97808    4743   1
  -7   9   2   26461    2027   1
  -5   9   2  281800   11110   1
  -3   9   2   33049    1790   1
  -1   9   2  297610   10026   1
   1   9   2   36094    2632   1
   3   9   2   28013    3176   1
   5   9   2    6452    2510   1
   7   9   2    7613    3868   1
   9   9   2    5872    3620   1
  11   9   2   19271    2335   1
  13   9   2   -3298    3298   1
  15   9   2    -846    3351   1
  17   9   2    6405    3904   1
 -18  10   2    5538    4967   1
 -16  10   2    1041    4642   1
 -14  10   2   36556    3420   1
 -12  10   2   50339    3698   1
 -10  10   2    2108    2231   1
  -8  10   2   35796    2546   1
  -6  10   2  173931   12608   1
  -4  10   2  302055   11926   1
  -2  10   2  117951    4599   1
   0  10   2    5532    1592   1
   2  10   2  208391   14577   1
   4  10   2  277714   13473   1
   6  10   2   14762    2577   1
   8  10   2    6409    1649   1
  10  10   2  106904    5413   1
  12  10   2    6354    2514   1
  14  10   2   -3228    3228   1
  16  10   2    6389    3717   1
 -17  11   2   -7940    7940   1
 -15  11   2     201    3095   1
 -13  11   2    6281    2515   1
 -11  11   2    4470    2504   1
  -9  11   2   43909    3533   1
  -7  11   2    8104    2057   1
  -5  11   2  101202    5203   1
  -3  11   2    3495    2132   1
  -1  11   2   52295    2684   1
   1  11   2   16375    1753   1
   3  11   2    9017    2227   1
   5  11   2   18858    3542   1
   7  11   2   14902    3257   1
   9  11   2    6625    2606   1
  11  11   2   16493    3013   1
  13  11   2   -4397    5212   1
  15  11   2    -733    5863   1
 -16  12   2   -3420    3420   1
 -14  12   2   13518    3169   1
 -12  12   2   45906    4011   1
 -10  12   2   10807    2681   1
  -8  12   2    3347    2673   1
  -6  12   2   57445    6718   1
  -4  12   2  121942    7686   1
  -2  12   2   46649    3080   1
   0  12   2   18788    2352   1
   2  12   2  119243    7899   1
   4  12   2   45290    8021   1
   6  12   2    4475    2486   1
   8  12   2   17173    2907   1
  10  12   2   48616    6352   1
  12  12   2    3176    5700   1
  14  12   2   -5782    5782   1
 -13  13   2    3330    3008   1
 -11  13   2   10596    3052   1
  -9  13   2    2023    3827   1
  -7  13   2    3811    3077   1
  -5  13   2   12704    4723   1
  -3  13   2       0    4479   1
  -1  13   2   13925    4886   1
   1  13   2   -1140    4723   1
   3  13   2    9528    5049   1
   5  13   2    6108    5130   1
   7  13   2   -2606    5212   1
   9  13   2    4235    5293   1
  11  13   2    7818    5945   1
 -12  14   2   17020    4642   1
 -10  14   2    1710    4153   1
  -8  14   2   18323    5049   1
  -6  14   2   31271    5782   1
  -4  14   2   33877    6108   1
  -2  14   2    4723    5375   1
   0  14   2   -5375    5375   1
   2  14   2   55864    7411   1
   4  14   2   55213    7085   1
   6  14   2    1303    5700   1
   8  14   2    -977    5863   1
  10  14   2   12622    6026   1
  -9  15   2    9121    5130   1
  -7  15   2    2036    5456   1
  -5  15   2   22150    6352   1
  -3  15   2    3909    6026   1
  -1  15   2   16775    6515   1
   1  15   2   -6108    6108   1
   3  15   2   14170    6189   1
   5  15   2   -2117    6189   1
   7  15   2    -814    6352   1
  -4  16   2   23779    7003   1
  -2  16   2   12948    7003   1
   0  16   2    1140    7003   1
   2  16   2   20929    7166   1
 -22   0   3   28095    5049   1
 -20   0   3   12991    5945   1
 -18   0   3   27513    7818   1
 -16   0   3   66790    5009   1
 -14   0   3  503158   23866   1
 -12   0   3   10447    1985   1
 -10   0   3   82040    4835   1
  -8   0   3 1780074  107778   1
  -6   0   3  323191    9592   1
  -4   0   3  143540    7082   1
  -2   0   3  218407   14821   1
   0   0   3  353425   23290   1
   2   0   3 1217165   56172   1
   4   0   3   19423    1667   1
   6   0   3   58860    3769   1
   8   0   3 1670405  103585   1
  10   0   3   11635    2532   1
  12   0   3  100453   12215   1
  14   0   3   80949    5785   1
  16   0   3   35994    6189   1
  18   0   3     896    5456   1
  20   0   3   -4072    5863   1
 -23   1   3   15379    3565   1
 -21   1   3    8215    2935   1
 -19   1   3   17142    2519   1
 -17   1   3    1353    1904   1
 -15   1   3   12469    1692   1
 -13   1   3   13013    1489   1
 -11   1   3   37152    2363   1
  -9   1   3  128245    4684   1
  -7   1   3  788243   21077   1
  -5   1   3    1197     349   1
  -3   1   3 2725904   88784   1
  -1   1   3  357203   10488   1
   1   1   3  268367   12553   1
   3   1   3 1150174   43302   1
   5   1   3    1735     944   1
   7   1   3  145833    5251   1
   9   1   3    5906    1561   1
  11   1   3    5267    1865   1
  13   1   3   41932    2910   1
  15   1   3   18004    3837   1
  17   1   3   16353    4077   1
  19   1   3    7992    4167   1
 -22   2   3   22313    3449   1
 -20   2   3   18011    2988   1
 -18   2   3    3932    2126   1
 -16   2   3  131999    5724   1
 -14   2   3  325454   10281   1
 -12   2   3   87457    4360   1
 -10   2   3  118028    4454   1
  -8   2   3 1712016   45557   1
  -6   2   3   85859    2044   1
  -4   2   3  179747    4890   1
  -2   2   3  322687    9497   1
   0   2   3  521717   19731   1
   2   2   3 1974539  128748   1
   4   2   3   12848    1497   1
   6   2   3   16365    2015   1
   8   2   3 1094306   35801   1
  10   2   3   23306    1969   1
  12   2   3   50217    2956   1
  14   2   3   84298    5774   1
  16   2   3   33755    3810   1
  18   2   3     934    3757   1
  20   2   3   -4070    4070   1
 -23   3   3    6678    4886   1
 -21   3   3    4267    4967   1
 -19   3   3    6311    2394   1
 -17   3   3   19708    2317   1
 -15   3   3   29351    3044   1
 -13   3   3    7103    1487   1
 -11   3   3  126921    4531   1
  -9   3   3  235873    7106   1
  -7   3   3  705774   17451   1
  -5   3   3   11082     682   1
  -3   3   3 2299024   86510   1
  -1   3   3  871552   32880   1
   1   3   3  707227   23107   1
   3   3   3  876631   40625   1
   5   3   3   38475    2930   1
   7   3   3   28214    2112   1
   9   3   3     864    1539   1
  11   3   3    1717    2013   1
  13   3   3   11619    2885   1
  15   3   3   22564    3175   1
  17   3   3   10578    3294   1
  19   3   3      41    8917   1
 -22   4   3   17590    5130   1
 -20   4   3   12459    4642   1
 -18   4   3    2028    2262   1
 -16   4   3  116283    6488   1
 -14   4   3  369174   17881   1
 -12   4   3   17698    1364   1
 -10   4   3   11673     948   1
  -8   4   3  729855   23860   1
  -6   4   3  105242    3272   1
  -4   4   3  252561    8347   1
  -2   4   3  497429   16307   1
   0   4   3  689122   22557   1
   2   4   3 1037652   30315   1
   4   4   3   42536    2413   1
   6   4   3    -890    1739   1
   8   4   3  744755   34808   1
  10   4   3    5393    2589   1
  12   4   3   33873    5578   1
  14   4   3   81281    7492   1
  16   4   3   29574    4607   1
  18   4   3   -6108    6108   1
 -21   5   3    9772    4723   1
 -19   5   3    7663    4005   1
 -17   5   3    5293    3746   1
 -15   5   3   25652    3990   1
 -13   5   3   11134    1554   1
 -11   5   3   29722    1852   1
  -9   5   3  126358    4447   1
  -7   5   3  165750    5007   1
  -5   5   3     684     650   1
  -3   5   3  627897   23759   1
  -1   5   3  306278   11722   1
   1   5   3  117893    4090   1
   3   5   3  543567   17875   1
   5   5   3    6922    1128   1
   7   5   3   46545    3397   1
   9   5   3     222    2402   1
  11   5   3    4669    2815   1
  13   5   3   10904    3396   1
  15   5   3   15790    5863   1
  19   5   3   -6433    6433   1
 -20   6   3    6922    4560   1
 -18   6   3    2036    4235   1
 -16   6   3   44219    5212   1
 -14   6   3  211388   10591   1
 -12   6   3    7378    2321   1
 -10   6   3   46547    5497   1
  -8   6   3  809564   30623   1
  -6   6   3  136127    4790   1
  -4   6   3   51040    1995   1
  -2   6   3  105399    4366   1
   0   6   3  293695   11314   1
   2   6   3  612118   17991   1
   4   6   3    6621     999   1
   6   6   3   10982    1356   1
   8   6   3  479148   22629   1
  10   6   3    4519    1904   1
  12   6   3   15151    3358   1
  14   6   3   33773    3277   1
  16   6   3    8804    3745   1
  18   6   3   -5008    5008   1
 -21   7   3    6922    4805   1
 -19   7   3   -4316    4316   1
 -17   7   3    -163    3990   1
 -15   7   3    2092    2348   1
 -13   7   3    2670    1972   1
 -11   7   3   22954    3950   1
  -9   7   3    8073    1836   1
  -7   7   3  384363   14825   1
  -5   7   3    7255    1066   1
  -3   7   3  981979   37174   1
  -1   7   3   73584    3380   1
   1   7   3  127307    4514   1
   3   7   3  225376    7675   1
   5   7   3    5582    1976   1
   7   7   3   39326    2609   1
   9   7   3    3176    2610   1
  11   7   3   -3551    3551   1
  13   7   3    3482    2654   1
  15   7   3    4834    3590   1
  17   7   3   -3344    3944   1
 -20   8   3    1710    4967   1
 -18   8   3    1384    4642   1
 -16   8   3   24406    4886   1
 -14   8   3   80600    5414   1
 -12   8   3    -943    1988   1
 -10   8   3   62348    4416   1
  -8   8   3  461960   21822   1
  -6   8   3   87478    4157   1
  -4   8   3   39238    1906   1
  -2   8   3   36943    2850   1
   0   8   3  140531    5887   1
   2   8   3  336532   13054   1
   4   8   3    1436    1178   1
   6   8   3   11897    1453   1
   8   8   3  270723   10718   1
  10   8   3    3927    3182   1
  12   8   3    3650    3650   1
  14   8   3   12545    3599   1
  16   8   3    2889    3887   1
 -19   9   3    3909    4886   1
 -17   9   3   -1954    4316   1
 -15   9   3   11482    2718   1
 -13   9   3    2492    2168   1
 -11   9   3   14706    2422   1
  -9   9   3    9373    2268   1
  -7   9   3   67020    4670   1
  -5   9   3    2693    1609   1
  -3   9   3  162290    6784   1
  -1   9   3   52242    4031   1
   1   9   3   31979    2209   1
   3   9   3  109229    5032   1
   5   9   3    1829    1691   1
   7   9   3   22950    3019   1
   9   9   3    3545    2736   1
  11   9   3    2098    2356   1
  13   9   3     424    5375   1
  15   9   3    -540    3769   1
 -18  10   3    6433    5130   1
 -16  10   3   15481    4194   1
 -14  10   3   85336    5958   1
 -12  10   3    3333    2515   1
 -10  10   3     644    2243   1
  -8  10   3  112158    6686   1
  -6  10   3   63856    4251   1
  -4  10   3   33260    2515   1
  -2  10   3   70525    3975   1
   0  10   3  162624   12215   1
   2  10   3   98375    6331   1
   4  10   3    2321    2677   1
   6  10   3   15571    3045   1
   8  10   3  108010    6956   1
  10  10   3    5456    4560   1
  12  10   3    2443    5130   1
  14  10   3   10505    5700   1
 -17  11   3   -1084    7329   1
 -15  11   3    5129    2862   1
 -13  11   3    1637    2694   1
 -11  11   3    2492    2561   1
  -9  11   3    8951    2778   1
  -7  11   3   19273    2895   1
  -5  11   3     733    2666   1
  -3  11   3   51965    3178   1
  -1  11   3   35957    2753   1
   1  11   3   23046    4397   1
   3  11   3   26222    4723   1
   5  11   3    5538    4153   1
   7  11   3    2966    3108   1
   9  11   3    1303    4642   1
  11  11   3   -4642    5049   1
  13  11   3   -3013    5619   1
 -16  12   3   20833    6800   1
 -14  12   3   26772    3502   1
 -12  12   3    1143    2795   1
 -10  12   3   11067    2972   1
  -8  12   3   76545    5125   1
  -6  12   3   24721    3571   1
  -4  12   3    6364    3153   1
  -2  12   3   18701    2615   1
   0  12   3   77934    4991   1
   2  12   3   80539    7655   1
   4  12   3   -4153    4642   1
   6  12   3    4805    4805   1
   8  12   3   39007    6189   1
  10  12   3    8469    5538   1
  12  12   3   -3013    5782   1
 -13  13   3    1800    6026   1
 -11  13   3    4331    3150   1
  -9  13   3     265    3211   1
  -7  13   3   28252    8266   1
  -5  13   3    6027    4112   1
  -3  13   3   28807    3944   1
  -1  13   3    6922    3628   1
   1  13   3    4316    5130   1
   3  13   3    7248    5375   1
   5  13   3    -733    5293   1
   7  13   3    7981    5700   1
   9  13   3   -2036    5700   1
  11  13   3   -2117    6108   1
 -12  14   3    4523    4031   1
 -10  14   3    6873    3432   1
  -8  14   3   33225    5700   1
  -6  14   3   29072    5945   1
  -4  14   3   11075    5945   1
  -2  14   3     814    5782   1
   0  14   3    7818    5782   1
   2  14   3   17753    6189   1
   4  14   3   -2932    5863   1
   6  14   3   16287    6270   1
   8  14   3   14251    6352   1
  -9  15   3    6108    4967   1
  -7  15   3    4479    5782   1
  -5  15   3    6352    6189   1
  -3  15   3    8632    6433   1
  -1  15   3   -5945    6433   1
   1  15   3   -6270    6270   1
   3  15   3   -4886    6433   1
   5  15   3   -1792    6433   1
 -22   0   4    5212    4235   1
 -20   0   4   10896    3439   1
 -18   0   4   47574    3977   1
 -16   0   4  131784   12635   1
 -14   0   4   42385    3983   1
 -12   0   4   16991    3176   1
 -10   0   4 1665295   62939   1
  -8   0   4  118810    4441   1
  -6   0   4   23181    1184   1
  -4   0   4 1436442   66364   1
  -2   0   4  591208   27581   1
   0   0   4  119383    8388   1
   2   0   4   48362    2962   1
   4   0   4    1954    2199   1
   6   0   4  667110   44056   1
   8   0   4  135351   10871   1
  10   0   4   59062    4405   1
  12   0   4  111268   10790   1
  14   0   4   59340    7736   1
  16   0   4   15480    4538   1
  18   0   4   -6189    6189   1
 -23   1   4    8206    3293   1
 -21   1   4    4725    2848   1
 -19   1   4   12507    2453   1
 -17   1   4   27227    2415   1
 -15   1   4   40387    2596   1
 -13   1   4   16528    1678   1
 -11   1   4     -15    1300   1
  -9   1   4   80060    4937   1
  -7   1   4   27178    1003   1
  -5   1   4  837444   24465   1
  -3   1   4   66520    2860   1
  -1   1   4  669788   19614   1
   1   1   4 1326880   61239   1
   3   1   4  171106    6767   1
   5   1   4  499015   19057   1
   7   1   4   17414    1990   1
   9   1   4   48986    2666   1
  11   1   4    5794    2188   1
  13   1   4   10768    2566   1
  15   1   4    4105    3210   1
  17   1   4    9922    3764   1
 -22   2   4    9833    6230   1
 -20   2   4    3161    2940   1
 -18   2   4   41731    3103   1
 -16   2   4  221188    7460   1
 -14   2   4    4016    1642   1
 -12   2   4    1714    1466   1
 -10   2   4  979754   37142   1
  -8   2   4  163557    3766   1
  -6   2   4    8829     531   1
  -4   2   4  952971   27903   1
  -2   2   4  530614   15513   1
   0   2   4  127753    6264   1
   2   2   4   86646    6433   1
   4   2   4   57314    5090   1
   6   2   4  632453   24135   1
   8   2   4   42107    2832   1
  10   2   4   86540    5006   1
  12   2   4  112823    6398   1
  14   2   4   72508    7573   1
  16   2   4    6185    4738   1
  18   2   4   -1213    4961   1
 -21   3   4   15310    4805   1
 -19   3   4    4464    3795   1
 -17   3   4   59618    3489   1
 -15   3   4    4580    1745   1
 -13   3   4     867    1501   1
 -11   3   4    2230    1021   1
  -7   3   4    6272     893   1
  -5   3   4  578819   16964   1
  -3   3   4   47151    3070   1
  -1   3   4  441368   16800   1
   1   3   4  660458   25028   1
   3   3   4   30294    3257   1
   5   3   4  382210   18138   1
   7   3   4   42273    2725   1
   9   3   4   84665    4774   1
  11   3   4    3187    2604   1
  13   3   4   17725    4084   1
  15   3   4   -4219    4219   1
  17   3   4   -2373    5741   1
 -22   4   4    2769    4805   1
 -20   4   4   -3734    3734   1
 -18   4   4   28444    4113   1
 -16   4   4  164597    9473   1
 -14   4   4    5627    2359   1
 -12   4   4   20249    1475   1
 -10   4   4  927514   35089   1
  -8   4   4   30387    1492   1
  -6   4   4   98081    3199   1
  -4   4   4  669919   19608   1
  -2   4   4  524058   17274   1
   0   4   4  265758   10280   1
   2   4   4  125107    6273   1
   4   4   4   23520    1688   1
   6   4   4  506988   59325   1
   8   4   4   28075    2547   1
  10   4   4   51910    4375   1
  12   4   4   58237    4981   1
  14   4   4   41206    4952   1
  16   4   4   -5063   10668   1
  18   4   4   -6759    6759   1
 -21   5   4    7085    4967   1
 -19   5   4   11905    4275   1
 -17   5   4   14658    4072   1
 -15   5   4    6026    3420   1
 -13   5   4    -268    1759   1
 -11   5   4    2081    1602   1
  -9   5   4   34063    2724   1
  -7   5   4    1669    1219   1
  -5   5   4  668998   25404   1
  -3   5   4   43297    2793   1
  -1   5   4  545378   20781   1
   1   5   4  469769   15513   1
   3   5   4   71467    5782   1
   5   5   4  218463   10736   1
   7   5   4    9203    2015   1
   9   5   4   30371    3432   1
  11   5   4   -1420    3787   1
  13   5   4    -242    4397   1
  15   5   4  -10709   10709   1
  17   5   4   -6026    6026   1
 -20   6   4    1143    4332   1
 -18   6   4   27525    5049   1
 -16   6   4   64740    6515   1
 -14   6   4    1300    2079   1
 -12   6   4    6761    1936   1
 -10   6   4  557065   26113   1
  -8   6   4   79454    3865   1
  -6   6   4   -1107    1107   1
  -4   6   4  471522   22111   1
  -2   6   4  264018   12637   1
   0   6   4   62368    3239   1
   2   6   4   23246    1693   1
   4   6   4   25402    1862   1
   6   6   4  275904   13387   1
   8   6   4   21689    2550   1
  10   6   4   12750    2619   1
  12   6   4   38862    3242   1
  14   6   4   20347    4801   1
  16   6   4   -3884    3884   1
 -21   7   4    6352    5049   1
 -19   7   4   -2687    4723   1
 -17   7   4   15717    4723   1
 -15   7   4    6498    2565   1
 -13   7   4   13742    2319   1
 -11   7   4    -364    1868   1
  -9   7   4   24193    2439   1
  -7   7   4    6265    1650   1
  -5   7   4   82634    3482   1
  -3   7   4   23678    2250   1
  -1   7   4   44038    3048   1
   1   7   4  332087   12867   1
   3   7   4   17682    2237   1
   5   7   4  134908    5892   1
   7   7   4    3336    1719   1
   9   7   4   14198    2559   1
  11   7   4   -1601    5368   1
  13   7   4    3032    4103   1
  15   7   4   -3743    3743   1
 -20   8   4    4967    5049   1
 -18   8   4    5945    4479   1
 -16   8   4   43055    3695   1
 -14   8   4      42    2350   1
 -12   8   4   -1308    2182   1
 -10   8   4  254384   12596   1
  -8   8   4   98416    5797   1
  -6   8   4    5884    1707   1
  -4   8   4  226696    9103   1
  -2   8   4  164958    8517   1
   0   8   4   23635    2468   1
   2   8   4    4508    2113   1
   4   8   4   25136    3542   1
   6   8   4  179901    9444   1
   8   8   4    8223    2082   1
  10   8   4    2108    2045   1
  12   8   4   24597    5161   1
  14   8   4    8989    3799   1
 -19   9   4    5863    5212   1
 -17   9   4    3013    4642   1
 -15   9   4    1537    3542   1
 -13   9   4    2610    2405   1
 -11   9   4     777    2281   1
  -9   9   4    8768    2364   1
  -7   9   4     960    1855   1
  -5   9   4  104557    5114   1
  -3   9   4   18872    2523   1
  -1   9   4   78600    6759   1
   1   9   4  106260    6304   1
   3   9   4   18212    2793   1
   5   9   4   46796    3756   1
   7   9   4    1733    3705   1
   9   9   4    4989    3223   1
  11   9   4     501    3326   1
  13   9   4   11238    5456   1
 -18  10   4   15065    5375   1
 -16  10   4   26888    8551   1
 -14  10   4    1555    2649   1
 -12  10   4   17536    2846   1
 -10  10   4  154694    8615   1
  -8  10   4    9453    2614   1
  -6  10   4    2084    2190   1
  -4  10   4  104628    5306   1
  -2  10   4  122090    7226   1
   0  10   4   53742    5415   1
   2  10   4   12326    2955   1
   4  10   4   14124    3037   1
   6  10   4   72278    6189   1
   8  10   4    3932    3244   1
  10  10   4   -4805    4805   1
  12  10   4    9854    5619   1
 -15  11   4    5678    3058   1
 -13  11   4    -163    2710   1
 -11  11   4   -1503    2636   1
  -9  11   4    7190    2938   1
  -7  11   4    2649    2802   1
  -5  11   4   41216    3085   1
  -3  11   4    5610    2390   1
  -1  11   4   31216    5415   1
   1  11   4   19870    4560   1
   3  11   4   -2593    3108   1
   5  11   4   27413    4194   1
   7  11   4     834    3475   1
   9  11   4    -733    5130   1
  11  11   4    2932    5456   1
 -14  12   4    5282    3008   1
 -12  12   4    8257    3117   1
 -10  12   4   37353    6678   1
  -8  12   4   22405    3612   1
  -6  12   4    4090    3326   1
  -4  12   4   36115    3311   1
  -2  12   4   47395    3494   1
   0  12   4   11654    2596   1
   2  12   4    8469    4805   1
   4  12   4   19056    5456   1
   6  12   4   38787    6555   1
   8  12   4   -2687    5619   1
  10  12   4   -1059    5863   1
 -13  13   4    1067    3193   1
 -11  13   4    6170    3178   1
  -9  13   4    7480    3581   1
  -7  13   4     828    3579   1
  -5  13   4    6475    3837   1
  -3  13   4    8364    3000   1
  -1  13   4    1677    2816   1
   1  13   4    8188    2908   1
   3  13   4    5130    5619   1
   5  13   4    7411    5700   1
   7  13   4    3827    6026   1
   9  13   4    3909    6189   1
 -10  14   4   39931    4341   1
  -8  14   4   11948    3928   1
  -6  14   4    3530    4723   1
  -4  14   4   19731    6515   1
  -2  14   4   24349    6596   1
   0  14   4    1629    6189   1
   2  14   4    2850    6270   1
   4  14   4    6352    6189   1
   6  14   4   15880    6596   1
  -5  15   4    2036    6433   1
  -3  15   4    9365    6759   1
  -1  15   4    2932    6922   1
   1  15   4    5863    6922   1
 -22   0   5    9309    4332   1
 -20   0   5   44122    4308   1
 -18   0   5   61863    4618   1
 -16   0   5   15433    4233   1
 -14   0   5   -1335    2332   1
 -12   0   5  237109   10000   1
 -10   0   5  190156    6856   1
  -6   0   5  725848   21355   1
  -4   0   5  881671   43364   1
   0   0   5  142033    9976   1
   2   0   5  275433   13157   1
   4   0   5   88275    7411   1
   6   0   5   20277    3909   1
   8   0   5    6026    4072   1
  10   0   5   77118    7981   1
  12   0   5   73942    8795   1
  14   0   5    8632    7166   1
  16   0   5    3583    8225   1
 -21   1   5   12247    2691   1
 -19   1   5   42533    2964   1
 -17   1   5   12927    2178   1
 -15   1   5   14148    1946   1
 -11   1   5   11155    1557   1
  -7   1   5   27235    6707   1
  -5   1   5    7591    1587   1
  -3   1   5  204802    8038   1
  -1   1   5  279194    9342   1
   1   1   5  200243    6890   1
   3   1   5  405662   15624   1
   5   1   5   15378    2526   1
   7   1   5  201863   10393   1
   9   1   5   55688    4660   1
  11   1   5   35618    6352   1
  13   1   5    9652    4778   1
  15   1   5    2483    5405   1
  17   1   5    -407    8388   1
 -22   2   5    5173    4044   1
 -20   2   5   19079    3579   1
 -18   2   5   30687    2674   1
 -16   2   5    4687    1921   1
 -14   2   5   15657    1853   1
 -12   2   5  508142   14081   1
 -10   2   5   97111    4270   1
  -8   2   5  146181    3484   1
  -6   2   5  726896   18057   1
  -4   2   5  880453   25827   1
  -2   2   5   24870    1560   1
   0   2   5   99047    5052   1
   2   2   5  248538   16938   1
   4   2   5  120468    6677   1
   6   2   5   66993    4742   1
   8   2   5    3553    3045   1
  10   2   5   42748    3616   1
  12   2   5   61215    4540   1
  14   2   5    -151    4675   1
  16   2   5   -2564    7533   1
 -21   3   5    5306    4166   1
 -19   3   5   10747    3631   1
 -17   3   5   18152    4205   1
 -15   3   5     883    2857   1
 -13   3   5   91508    4828   1
 -11   3   5     958    1533   1
  -7   3   5   73412    2083   1
  -5   3   5   10718     844   1
  -3   3   5  148736    5226   1
  -1   3   5  244528    9554   1
   1   3   5  171902    8375   1
   3   3   5  405869   27199   1
   5   3   5   -1722    2561   1
   7   3   5  134005    7683   1
   9   3   5   22780    2936   1
  11   3   5   13643    3231   1
  13   3   5   -1085    4209   1
  15   3   5   -4554    4554   1
 -22   4   5    3810    4610   1
 -20   4   5   13797    7288   1
 -18   4   5   18811    4225   1
 -16   4   5    4740    3597   1
 -14   4   5   13111    4072   1
 -12   4   5  361665   17268   1
 -10   4   5  160081    8039   1
  -8   4   5   27413    1590   1
  -6   4   5  352933    8335   1
  -4   4   5  376677   12578   1
  -2   4   5   20993    1669   1
   0   4   5   98719    4344   1
   2   4   5  302013   14338   1
   4   4   5  131994    6872   1
   6   4   5   27894    3339   1
   8   4   5    3464    2412   1
  10   4   5   33066    4209   1
  12   4   5   29973    4696   1
  14   4   5   -4452    4452   1
  16   4   5   -4961    4961   1
 -21   5   5     601    6393   1
 -19   5   5   23599    4720   1
 -17   5   5    5293    4072   1
 -15   5   5   13518    4235   1
 -13   5   5   36222    2922   1
 -11   5   5     336    1643   1
  -9   5   5   10609    1452   1
  -7   5   5   18213    3644   1
  -5   5   5    1270    1278   1
  -3   5   5   23055    1466   1
  -1   5   5  167807    5918   1
   1   5   5   35206    1885   1
   3   5   5  257613   12494   1
   5   5   5    8851    2107   1
   7   5   5  104028    5247   1
   9   5   5   17501    2508   1
  11   5   5   11114    3950   1
  13   5   5   -5848   11727   1
  15   5   5  -10673   12948   1
 -20   6   5   12383    4610   1
 -18   6   5   25815    5456   1
 -16   6   5    6433    4397   1
 -14   6   5    2152    2219   1
 -12   6   5  173731    9038   1
 -10   6   5   73482    4716   1
  -8   6   5   12588    1832   1
  -6   6   5  311607   10554   1
  -4   6   5  396495   18684   1
  -2   6   5    1190    1754   1
   0   6   5   41761    2541   1
   2   6   5  117459    9161   1
   4   6   5   59936    6108   1
   6   6   5   15473    3257   1
   8   6   5    -339    2204   1
  10   6   5   28790    4443   1
  12   6   5   18297    5400   1
  14   6   5   -3184    5108   1
 -19   7   5   11401    5130   1
 -17   7   5    3176    4642   1
 -15   7   5    -135    2500   1
 -13   7   5   14129    2479   1
 -11   7   5    4962    3054   1
  -9   7   5   12437    1862   1
  -7   7   5   10405    2414   1
  -5   7   5   15894    2198   1
  -3   7   5  110695    6166   1
  -1   7   5   80544    4170   1
   1   7   5   82684    5205   1
   3   7   5   85965    7044   1
   5   7   5    3746    2443   1
   7   7   5   38769    2819   1
   9   7   5   10768    3210   1
  11   7   5    7077    7871   1
  13   7   5    -456    3912   1
 -18   8   5   18241    5538   1
 -16   8   5    -722    2742   1
 -14   8   5    6340    2546   1
 -12   8   5  124809    7281   1
 -10   8   5   18317    2466   1
  -8   8   5    9993    2079   1
  -6   8   5  238484    9633   1
  -4   8   5  270702   13296   1
  -2   8   5   -1872    1872   1
   0   8   5   19785    2574   1
   2   8   5   62431    7981   1
   4   8   5   32650    3223   1
   6   8   5    7430    2922   1
   8   8   5   -3061    3061   1
  10   8   5   20720    3108   1
  12   8   5   11230    3238   1
 -17   9   5    2280    5293   1
 -15   9   5    1460    2811   1
 -13   9   5    4390    2545   1
 -11   9   5    4470    2472   1
  -9   9   5    4858    2453   1
  -7   9   5    4062    2101   1
  -5   9   5    1370    2074   1
  -3   9   5    6912    2558   1
  -1   9   5   34984    5945   1
   1   9   5    2276    2655   1
   3   9   5   47965    3929   1
   5   9   5    2569    2990   1
   7   9   5   24949    3606   1
   9   9   5    7239    2957   1
  11   9   5    9840    3226   1
 -16  10   5    1158    3339   1
 -14  10   5    8449    2933   1
 -12  10   5   49858    4067   1
 -10  10   5   39226    3616   1
  -8  10   5    2246    2627   1
  -6  10   5   50979    3337   1
  -4  10   5   58085    3528   1
  -2  10   5   -2935    2935   1
   0  10   5   22993    3374   1
   2  10   5   57436    7166   1
   4  10   5   39451    4020   1
   6  10   5     901    3432   1
   8  10   5      25    3640   1
  10  10   5    6856    4687   1
 -15  11   5    1320    3149   1
 -13  11   5   17395    7573   1
 -11  11   5    3729    2954   1
  -9  11   5     258    3083   1
  -7  11   5    5813    2646   1
  -5  11   5     460    3692   1
  -3  11   5   -1262    2552   1
  -1  11   5   12459    4723   1
   1  11   5   -1977    3351   1
   3  11   5   31339    4114   1
   5  11   5   -1631    3538   1
   7  11   5    4947    3887   1
   9  11   5   -1547    5619   1
 -14  12   5    8143    3909   1
 -12  12   5   53675    4589   1
 -10  12   5   11377    3354   1
  -8  12   5       5    3405   1
  -6  12   5   35734    3511   1
  -4  12   5   47289    3778   1
  -2  12   5   -2320    2876   1
   0  12   5   -2687    5212   1
   2  12   5   19463    5700   1
   4  12   5   21839    4232   1
   6  12   5    5985    4146   1
   8  12   5    3013    6189   1
 -11  13   5    4061    3354   1
  -9  13   5    1517    3541   1
  -7  13   5    3925    3891   1
  -5  13   5    7540    3334   1
  -3  13   5    2574    3195   1
  -1  13   5    5256    3159   1
   1  13   5   -1558    3987   1
   3  13   5    3746    6189   1
   5  13   5    2606    6108   1
  -8  14   5    9365    5293   1
  -6  14   5   23416    4672   1
  -4  14   5   23816    3821   1
  -2  14   5    -973    3453   1
   0  14   5    -814    6433   1
   2  14   5    4723    6922   1
 -20   0   6   11038    4195   1
 -18   0   6   17383    3484   1
 -16   0   6   48123    4139   1
 -14   0   6  117733    6785   1
 -12   0   6   37481    3251   1
 -10   0   6   59540    3154   1
  -8   0   6  213232    6790   1
  -6   0   6  814425   31091   1
  -4   0   6   24593    3990   1
  -2   0   6   21751    2435   1
   0   0   6  643713   30116   1
   2   0   6   33632    4316   1
   4   0   6    2443    3746   1
   6   0   6   17427    4479   1
   8   0   6   18404    5456   1
  10   0   6   27362    6759   1
  12   0   6    7411    6922   1
  14   0   6    9284    8225   1
 -21   1   6   15949    3837   1
 -19   1   6    5431    3070   1
 -17   1   6      35    2167   1
 -15   1   6   69886    3472   1
 -13   1   6    1583    1834   1
 -11   1   6  102630    4052   1
  -9   1   6    5495     941   1
  -7   1   6    2825     782   1
  -5   1   6     748    1241   1
  -3   1   6   15869    1843   1
  -1   1   6   47032    2233   1
   1   1   6  114788    5233   1
   3   1   6    2381    2377   1
   5   1   6  197515   10335   1
   7   1   6   22529    3626   1
   9   1   6   40945    4750   1
  11   1   6   24172    4994   1
  13   1   6    3399    5340   1
  15   1   6    8270    6045   1
 -20   2   6    5834    3741   1
 -18   2   6    6490    3335   1
 -16   2   6   22536    3004   1
 -14   2   6   74352    3490   1
 -12   2   6   91852    3788   1
 -10   2   6     505    1241   1
  -8   2   6  160888    3984   1
  -6   2   6  421939   10653   1
  -4   2   6   17629    1130   1
  -2   2   6   34408    1987   1
   0   2   6  524333   20012   1
   2   2   6   23298    1674   1
   4   2   6     319    4438   1
   6   2   6   24967    3533   1
   8   2   6   41726    4498   1
  10   2   6   24416    4629   1
  12   2   6    4779    7981   1
  14   2   6   -4642    8062   1
 -21   3   6   17207    4586   1
 -19   3   6    1648    3491   1
 -17   3   6   15823    3414   1
 -15   3   6   32870    3507   1
 -13   3   6    1264    3118   1
 -11   3   6   31017    3702   1
  -9   3   6   21192    1245   1
  -7   3   6    8173     869   1
  -5   3   6   15749    1236   1
  -3   3   6   53085    2537   1
  -1   3   6   39463    2666   1
   1   3   6   85663    4916   1
   3   3   6   -1597    2142   1
   5   3   6  117440    7284   1
   7   3   6   37836    4185   1
   9   3   6   34030    4680   1
  11   3   6   17025    4936   1
  13   3   6   -6189    7492   1
 -20   4   6    -286    4122   1
 -18   4   6    3375    3843   1
 -16   4   6    9001    5519   1
 -14   4   6   66076    5570   1
 -12   4   6   63615    5197   1
 -10   4   6    -534    1286   1
  -8   4   6  208080    6616   1
  -6   4   6  458567   17793   1
  -4   4   6   30743    1738   1
  -2   4   6    1253    1112   1
   0   4   6  328470   15574   1
   2   4   6   30745    2544   1
   4   4   6    2956    1866   1
   6   4   6   26785    2545   1
   8   4   6   25655    2911   1
  10   4   6   10681    5212   1
  12   4   6    8062    7329   1
  14   4   6    3176    7736   1
 -19   5   6   -4049    4478   1
 -17   5   6   -2286    4266   1
 -15   5   6   35994    5700   1
 -13   5   6     489    4235   1
 -11   5   6   37991    4712   1
  -9   5   6   14009    1505   1
  -7   5   6    8762    1322   1
  -5   5   6     201    1392   1
  -3   5   6   29164    1786   1
  -1   5   6   52752    2762   1
   1   5   6   56409    3239   1
   3   5   6    2047    2150   1
   5   5   6   68536    4196   1
   7   5   6   13569    2907   1
   9   5   6   17394    3354   1
  11   5   6    7069    3662   1
  13   5   6   -2850    5904   1
 -18   6   6    -977    7940   1
 -16   6   6   11482    5049   1
 -14   6   6   61809    7003   1
 -12   6   6   25642    2762   1
 -10   6   6    2003    1650   1
  -8   6   6  114753    4334   1
  -6   6   6  265147    8303   1
  -4   6   6    1748    1630   1
  -2   6   6   22405    2049   1
   0   6   6  249695   10089   1
   2   6   6   17008    2465   1
   4   6   6    1059    3176   1
   6   6   6    9425    2934   1
   8   6   6   14953    3269   1
  10   6   6   11052    3676   1
  12   6   6    2165    3992   1
 -19   7   6   -2425    8347   1
 -17   7   6    2117    4967   1
 -15   7   6   16205    5538   1
 -13   7   6     541    2440   1
 -11   7   6   28972    2846   1
  -9   7   6    1176    1765   1
  -7   7   6    -728    1522   1
  -5   7   6    1078    1870   1
  -3   7   6    4537    1889   1
  -1   7   6    1084    1914   1
   1   7   6   40842    3403   1
   3   7   6    3901    5863   1
   5   7   6   53600    4110   1
   7   7   6    9064    2718   1
   9   7   6   12090    2967   1
  11   7   6    1437    3850   1
 -18   8   6    6515    5212   1
 -16   8   6   13844    5782   1
 -14   8   6   22980    3119   1
 -12   8   6   20788    2828   1
 -10   8   6    -318    2226   1
  -8   8   6   46653    2956   1
  -6   8   6  114899    4604   1
  -4   8   6    -788    2065   1
  -2   8   6   27171    2594   1
   0   8   6  140345   12704   1
   2   8   6   10890    2815   1
   4   8   6    1296    2932   1
   6   8   6    2043    3909   1
   8   8   6   14912    3381   1
  10   8   6    3829    3249   1
 -17   9   6    2036    5538   1
 -15   9   6   17050    4357   1
 -13   9   6    -649    2671   1
 -11   9   6   16234    3624   1
  -9   9   6    1146    2276   1
  -7   9   6    5608    2254   1
  -5   9   6     -75    1927   1
  -3   9   6    7446    3135   1
  -1   9   6    2417    2757   1
   1   9   6   18632    3303   1
   3   9   6    1536    3037   1
   5   9   6   14315    3513   1
   7   9   6   10927    3695   1
   9   9   6    5788    3277   1
 -14  10   6   33672    3869   1
 -12  10   6   16939    3205   1
 -10  10   6      68    2793   1
  -8  10   6   54545    3698   1
  -6  10   6   80963    6983   1
  -4  10   6    -968    2473   1
  -2  10   6    -991    3032   1
   0  10   6   55378    7207   1
   2  10   6    6637    3392   1
   4  10   6    6281    3606   1
   6  10   6    8127    3919   1
   8  10   6    9952    4035   1
 -13  11   6    2637    3121   1
 -11  11   6    -729    3038   1
  -9  11   6    5339    3267   1
  -7  11   6    3953    2847   1
  -5  11   6    4385    2799   1
  -3  11   6    2061    4382   1
  -1  11   6   -1422    3513   1
   1  11   6    7911    3837   1
   3  11   6    -157    3803   1
   5  11   6     486    4020   1
   7  11   6   -1781    4283   1
 -10  12   6   13669    3520   1
  -8  12   6   23069    3901   1
  -6  12   6   20407    3296   1
  -4  12   6    -636    3057   1
  -2  12   6    6250    3748   1
   0  12   6   25652    6026   1
   2  12   6    7079    4283   1
   4  12   6     452    6840   1
  -7  13   6    4855    4682   1
  -5  13   6    4628    3416   1
  -3  13   6    -723    3508   1
  -1  13   6   -1188    3397   1
   1  13   6   -1370    4462   1
 -20   0   7     671    7049   1
 -18   0   7   33534    4221   1
 -16   0   7   44991    4201   1
 -14   0   7   45776    6855   1
 -12   0   7   41267    9854   1
 -10   0   7   43911    2446   1
  -8   0   7  102459    4102   1
  -4   0   7   22179    6678   1
  -2   0   7  411189   19635   1
   2   0   7   18811    4479   1
   4   0   7   76630    8551   1
   6   0   7   58307    7329   1
   8   0   7    4235    6108   1
  10   0   7   11319    7085   1
  12   0   7   -3746    7981   1
 -19   1   7    6926    3266   1
 -17   1   7   31358    3417   1
 -15   1   7   15054    2514   1
 -13   1   7   39726    2656   1
  -9   1   7   18259    1290   1
  -7   1   7   75010    2210   1
  -5   1   7    9088    2127   1
  -3   1   7    8063    2539   1
   1   1   7    -593    1445   1
   3   1   7   48731    4202   1
   5   1   7    5767    3423   1
   7   1   7   32867    4629   1
   9   1   7   21560    5094   1
  11   1   7   -2141    5326   1
 -20   2   7    7677    4015   1
 -18   2   7   26469    3986   1
 -16   2   7   18588    3314   1
 -10   2   7   81769    3054   1
  -8   2   7  261463    6203   1
  -4   2   7    1320    1707   1
  -2   2   7  341068   16494   1
   2   2   7   14170    4560   1
   4   2   7   62784    3779   1
   6   2   7   40312    6963   1
   8   2   7    3144    4174   1
  10   2   7    2430    5036   1
  12   2   7    2877    5985   1
 -19   3   7    8056    4298   1
 -17   3   7   14596    3938   1
 -15   3   7   11712    4821   1
 -13   3   7   53490    4532   1
 -11   3   7   37462    6948   1
  -9   3   7   51993    2750   1
  -7   3   7   30650    2312   1
  -5   3   7    7197    2033   1
  -3   3   7    1692    2211   1
  -1   3   7    3912    3705   1
   1   3   7     725    2919   1
   3   3   7   34085    2617   1
   5   3   7    9609    2269   1
   7   3   7   24002    2912   1
   9   3   7   12590    4660   1
  11   3   7    6565    5240   1
 -18   4   7   11966    4143   1
 -16   4   7   15537    4182   1
 -14   4   7   21592    8064   1
 -10   4   7   75075    3854   1
  -8   4   7  161979    6462   1
  -6   4   7    9365    3990   1
  -4   4   7    8366    1340   1
  -2   4   7  225062    9064   1
   2   4   7   14742    3258   1
   4   4   7   52075    5153   1
   6   4   7   34252    3082   1
   8   4   7      69    2757   1
  10   4   7    -238    3510   1
 -19   5   7     702    4358   1
 -17   5   7    1883    4165   1
 -15   5   7    5421    4195   1
 -13   5   7   14840    4805   1
 -11   5   7    3556    3013   1
  -9   5   7   12283    1574   1
  -7   5   7   17547    1592   1
  -5   5   7    2520    2014   1
  -3   5   7    4224    1456   1
  -1   5   7    3070    1679   1
   1   5   7    2048    1891   1
   3   5   7   27109    3013   1
   5   5   7    9026    2614   1
   7   5   7   12932    3292   1
   9   5   7    6810    3561   1
  11   5   7     108    4031   1
 -18   6   7    6147    7572   1
 -16   6   7    4759    6630   1
 -14   6   7    7105    4581   1
 -12   6   7   11101    2312   1
 -10   6   7   34610    2432   1
  -8   6   7   81505    3411   1
  -6   6   7   29898   11500   1
  -4   6   7    4259    1867   1
  -2   6   7  175408    7676   1
   0   6   7   20289    2710   1
   2   6   7    4235    2591   1
   4   6   7   28719    4140   1
   6   6   7   22074    3541   1
   8   6   7    2526    5782   1
  10   6   7    -399    3826   1
 -17   7   7   16752    5375   1
 -15   7   7    3185   12337   1
 -13   7   7    8906    4964   1
 -11   7   7    8255    2306   1
  -9   7   7   11875    2017   1
  -7   7   7   28334    2174   1
  -5   7   7    7455    2159   1
  -3   7   7     340    2146   1
  -1   7   7    8567    2553   1
   1   7   7    2500    2694   1
   3   7   7    7242    2953   1
   5   7   7    1837    2657   1
   7   7   7    3568    2921   1
   9   7   7    2467    3255   1
 -16   8   7    9883   19422   1
 -14   8   7     827    6139   1
 -12   8   7    1354    6802   1
 -10   8   7   25092    2562   1
  -8   8   7   58841    3536   1
  -6   8   7   15400    6589   1
  -4   8   7    2571    2313   1
  -2   8   7  110138   11075   1
   0   8   7   19554    5538   1
   2   8   7    1375    2974   1
   4   8   7   18019    3594   1
   6   8   7   10609    3565   1
   8   8   7    2901    3230   1
 -15   9   7   -3746    3746   1
 -13   9   7   -6711    9202   1
 -11   9   7     300    7050   1
  -9   9   7    -313    4514   1
  -7   9   7    6542    2382   1
  -5   9   7     860    2189   1
  -3   9   7    1661    2981   1
  -1   9   7    1262    3068   1
   1   9   7   -1213    3149   1
   3   9   7    6534    3637   1
   5   9   7    4312    3803   1
   7   9   7    2129    3237   1
 -12  10   7    7086    6200   1
 -10  10   7   23621    5279   1
  -8  10   7   26854    3661   1
  -6  10   7    6735    2873   1
  -4  10   7    7887    2652   1
  -2  10   7   38543    4226   1
   0  10   7    -246    3541   1
   2  10   7    5751    3716   1
   4  10   7   13293    4069   1
  -9  11   7    9733    4002   1
  -7  11   7    7373    3042   1
  -5  11   7    -652    3142   1
  -3  11   7   -1932    3450   1
  -1  11   7    1262    3795   1
   1  11   7    -738    3895   1
   3  11   7    -114    4069   1
  -6  12   7    8876    4805   1
  -4  12   7    5409    3530   1
  -2  12   7   17671    5782   1
 -18   0   8   12791    7451   1
 -16   0   8    5783    6289   1
 -14   0   8   40220    4326   1
 -12   0   8   63432    4825   1
 -10   0   8   46420    3436   1
  -8   0   8    6251    1937   1
  -6   0   8   -1707    2229   1
  -4   0   8  114854    7295   1
  -2   0   8   49029    4167   1
   0   0   8    9609    4479   1
   2   0   8   48372    6515   1
   4   0   8   54805    7329   1
   6   0   8    3746    6352   1
   8   0   8   10342    7085   1
 -17   1   8    5322    3332   1
 -15   1   8    5336    3438   1
 -13   1   8   11904    3362   1
 -11   1   8   34086    3400   1
  -9   1   8   37481    1921   1
  -7   1   8   15479    1339   1
  -5   1   8   24281    2098   1
  -3   1   8    2334    2083   1
  -1   1   8    9170    3050   1
   1   1   8    -147    3161   1
   3   1   8    3724    3622   1
   5   1   8    7614    4146   1
   7   1   8    5787    4635   1
   9   1   8    2460    5326   1
 -18   2   8   13830    4357   1
 -16   2   8    7948    4008   1
 -14   2   8   19553    3593   1
 -12   2   8   32875    3678   1
 -10   2   8   23291    2252   1
  -8   2   8   15385    2061   1
  -6   2   8   17599    2528   1
  -4   2   8  110307    4960   1
  -2   2   8   18024    2682   1
   0   2   8    7833    3135   1
   2   2   8   46330    4565   1
   4   2   8   51403    3492   1
   6   2   8    3206    3985   1
   8   2   8   -2203    2931   1
 -17   3   8    4280    4206   1
 -15   3   8    8950    4099   1
 -13   3   8    6184    3872   1
 -11   3   8    6245    2261   1
  -9   3   8   14617    2455   1
  -7   3   8    1779    2096   1
  -5   3   8   35013    6678   1
  -3   3   8     729    2385   1
  -1   3   8   11289    5049   1
   1   3   8    1054    3164   1
   3   3   8   -1495    2379   1
   5   3   8    5008    2585   1
   7   3   8    -376    2849   1
   9   3   8     803    3246   1
 -16   4   8    3699    4171   1
 -14   4   8    6997    4231   1
 -12   4   8   23773    4139   1
 -10   4   8   25982    2681   1
  -8   4   8    9698    2818   1
  -6   4   8    9750    3450   1
  -4   4   8  107751   11564   1
  -2   4   8   28940    2972   1
   0   4   8    7078    4068   1
   2   4   8   19045    2786   1
   4   4   8   31103    3131   1
   6   4   8    -478    2828   1
   8   4   8     156    3396   1
 -15   5   8   10321    4456   1
 -13   5   8    4759    6285   1
 -11   5   8   20365    3830   1
  -9   5   8   23517    2882   1
  -7   5   8    7544    3036   1
  -5   5   8   26395    7696   1
  -3   5   8    6108    5130   1
  -1   5   8    4720    3131   1
   1   5   8    -556    2327   1
   3   5   8   -2120    2186   1
   5   5   8    2366    2799   1
   7   5   8    -762    3537   1
 -14   6   8    8116    8740   1
 -12   6   8   20855    5196   1
 -10   6   8   25212    3563   1
  -8   6   8    3811    2791   1
  -6   6   8    1453    2691   1
  -4   6   8   72762    6074   1
  -2   6   8   10912    5456   1
   0   6   8     736    2661   1
   2   6   8   23476    3565   1
   4   6   8   19211    3741   1
   6   6   8   -1332    2986   1
 -13   7   8    2286    5271   1
 -11   7   8    5049    4987   1
  -9   7   8    7710    3538   1
  -7   7   8    5096    2869   1
  -5   7   8    3067    3490   1
  -3   7   8    3990    5619   1
  -1   7   8    3960    3827   1
   1   7   8    -863    7085   1
   3   7   8    4041    2920   1
   5   7   8      60    2960   1
 -12   8   8   14454    5762   1
 -10   8   8   11535    3830   1
  -8   8   8    7018    3696   1
  -6   8   8    4030    3080   1
  -4   8   8   37345    5130   1
  -2   8   8    7158    4235   1
   0   8   8   -3502    3502   1
   2   8   8   16652    3618   1
   4   8   8   16487    3247   1
 -11   9   8    6446    5944   1
  -9   9   8   -1588    3942   1
  -7   9   8   -3371    4276   1
  -5   9   8    6590    3033   1
  -3   9   8    2579    3231   1
  -1   9   8     302    3434   1
   1   9   8   -1541    3612   1
  -6  10   8    2712    3033   1
  -4  10   8   26326    6512   1
  -2  10   8    7788    3796   1
  -4   0  -9   32167    8876  -2
 -14   0   9   32167    8876   1
   0   0  -9   26573    4054  -2
 -10   0   9   26573    4054   1
   2   0  -9   32516    3244  -2
  -8   0   9   32516    3244   1
   4   0  -9   19723    2543  -2
  -6   0   9   19723    2543   1
   6   0  -9   12052    4479  -2
  -4   0   9   12052    4479   1
  10   0  -9   33551    6026  -2
   0   0   9   33551    6026   1
  12   0  -9   40147    6678  -2
   2   0   9   40147    6678   1
  -5  -1  -9   12487    5665  -2
 -15   1   9   12487    5665   1
  -3  -1  -9   11467    3996  -2
 -13   1   9   11467    3996   1
  -1  -1  -9   10219    3658  -2
 -11   1   9   10219    3658   1
   1  -1  -9    6416    2735  -2
  -9   1   9    6416    2735   1
   5  -1  -9    -970    2818  -2
  -5   1   9    -970    2818   1
   7  -1  -9   31386    4601  -2
  -3   1   9   31386    4601   1
   9  -1  -9    3233    3417  -2
  -1   1   9    3233    3417   1
  11  -1  -9    5327    3821  -2
   1   1   9    5327    3821   1
  15  -1  -9    3454    4845  -2
   5   1   9    3454    4845   1
  -4  -2  -9   33703    4829  -2
 -14   2   9   33703    4829   1
  -2  -2  -9   21214    6862  -2
 -12   2   9   21214    6862   1
   0  -2  -9   12155    3172  -2
 -10   2   9   12155    3172   1
   2  -2  -9   19495    2730  -2
  -8   2   9   19495    2730   1
   4  -2  -9   36067    2627  -2
  -6   2   9   36067    2627   1
   6  -2  -9   27913    4035  -2
  -4   2   9   27913    4035   1
  10  -2  -9   16577    3837  -2
   0   2   9   16577    3837   1
  12  -2  -9   25790    4464  -2
   2   2   9   25790    4464   1
  -3  -3  -9    8585    4297  -2
 -13   3   9    8585    4297   1
  -1  -3  -9   18451    3287  -2
 -11   3   9   18451    3287   1
   1  -3  -9   11122    2719  -2
  -9   3   9   11122    2719   1
   3  -3  -9   21090    2868  -2
  -7   3   9   21090    2868   1
   5  -3  -9      44    3125  -2
  -5   3   9      44    3125   1
   7  -3  -9   16844    3953  -2
  -3   3   9   16844    3953   1
   9  -3  -9    3106    2950  -2
  -1   3   9    3106    2950   1
  11  -3  -9   10388    4601  -2
   1   3   9   10388    4601   1
  13  -3  -9    8052    4424  -2
   3   3   9    8052    4424   1
  -4  -4  -9   14222    8515  -2
 -14   4   9   14222    8515   1
   2  -4  -9   13149    3561  -2
  -8   4   9   13149    3561   1
   4  -4  -9   25117    3009  -2
  -6   4   9   25117    3009   1
   6  -4  -9   24919    6352  -2
  -4   4   9   24919    6352   1
   8  -4  -9    3593    3929  -2
  -2   4   9    3593    3929   1
  10  -4  -9   17118    3270  -2
   0   4   9   17118    3270   1
  12  -4  -9   21634    3580  -2
   2   4   9   21634    3580   1
  14  -4  -9   10385    4545  -2
   4   4   9   10385    4545   1
  -3  -5  -9   -1414    5093  -2
 -13   5   9   -1414    5093   1
  -1  -5  -9    6977    3368  -2
 -11   5   9    6977    3368   1
   1  -5  -9   -1171    4042  -2
  -9   5   9   -1171    4042   1
   3  -5  -9   13297    3674  -2
  -7   5   9   13297    3674   1
   5  -5  -9    -344    4433  -2
  -5   5   9    -344    4433   1
   7  -5  -9   16938    6352  -2
  -3   5   9   16938    6352   1
   9  -5  -9   -4084    4084  -2
  -1   5   9   -4084    4084   1
  11  -5  -9    4265    3270  -2
   1   5   9    4265    3270   1
  13  -5  -9   -3650    3650  -2
   3   5   9   -3650    3650   1
   0  -6  -9   11797    3480  -2
 -10   6   9   11797    3480   1
   2  -6  -9    9846    3045  -2
  -8   6   9    9846    3045   1
   4  -6  -9   10115    3221  -2
  -6   6   9   10115    3221   1
   6  -6  -9   20359    6678  -2
  -4   6   9   20359    6678   1
   8  -6  -9    7655    6189  -2
  -2   6   9    7655    6189   1
  10  -6  -9    4528    4308  -2
   0   6   9    4528    4308   1
   1  -7  -9    2040    3951  -2
  -9   7   9    2040    3951   1
   3  -7  -9   12057    4925  -2
  -7   7   9   12057    4925   1
   5  -7  -9    -291    4752  -2
  -5   7   9    -291    4752   1
   7  -7  -9   12378    6515  -2
  -3   7   9   12378    6515   1
   9  -7  -9   -4072    6352  -2
  -1   7   9   -4072    6352   1
  -8   0  10   19544    7981   1
  -4   0  10   -5945    5945   1
  -2   0  10    7411    5293   1
  -9   1  10   14382    5105   1
  -7   1  10    2249    3263   1
  -5   1  10     733    6108   1
  -3   1  10    1081    6922   1
  -8   2  10    6577    3537   1
  -6   2  10   -3172    3257   1
  -4   2  10    1863    4045   1
  -5   3  10    4316    6678   1
;
_shelx_hkl_checksum              2400
_olex2_submission_special_instructions 'No special instructions were received'
_publcif_info_exptl_table_max_cols 5
_publcif_info_exptl_table_use_headnotes n
_publcif_funding_html
'<span class="funder"><span class="fundref-name" data-id="100000997">Arnold and Mabel Beckman Foundation</span><span class="fundref-subname" data-id=""></span> (<span class="fundref-grant-group"><span class="fundref-grant-type">award</span><span class="fundref-grant-id"></span> to <span class="fundref-grant-recipient">Weiwei Xie</span></span>); </span><span class="funder"><span class="fundref-name" data-id="100000001">National Science Foundation</span>, <span class="fundref-subname" data-id="100000086">Directorate for Mathematical and Physical Sciences</span> (<span class="fundref-grant-group"><span class="fundref-grant-type">grant</span> No. <span class="fundref-grant-id">2053287</span></span>).</span>'
loop_
_space_group_symop_operation_xyz
'x, y, z'
'-x, y, -z'
'x+1/2, y+1/2, z'
'-x+1/2, y+1/2, -z'
'-x, -y, -z'
'x, -y, z'
'-x+1/2, -y+1/2, -z'
'x+1/2, -y+1/2, z'
loop_
_atom_site_label
_atom_site_type_symbol
_atom_site_fract_x
_atom_site_fract_y
_atom_site_fract_z
_atom_site_U_iso_or_equiv
_atom_site_adp_type
_atom_site_occupancy
_atom_site_site_symmetry_order
_atom_site_calc_flag
_atom_site_refinement_flags_posn
_atom_site_refinement_flags_adp
_atom_site_refinement_flags_occupancy
_atom_site_disorder_assembly
_atom_site_disorder_group
Br1 Br 0.13203(3) 0.000000 0.31830(8) 0.04281(15) Uani 1 2 d S T P . .
Cr1 Cr 0.000000 0.000000 0.000000 0.02459(18) Uani 1 4 d S T P . .
Br2 Br 0.500000 0.000000 1.000000 0.04678(19) Uani 1 4 d S T P . .
Br3 Br 0.32621(5) 0.000000 0.81435(10) 0.06414(19) Uani 1 2 d S T P . .
N1 N 0.0644(2) 0.1369(2) -0.1416(4) 0.0362(5) Uani 1 1 d . . . . .
C1 C 0.1024(2) 0.2079(3) -0.2237(5) 0.0394(7) Uani 1 1 d . . . . .
C2 C 0.1525(4) 0.2989(4) -0.3295(8) 0.0694(14) Uani 1 1 d . . . . .
H2A H 0.198665 0.253323 -0.385914 0.104 Uiso 1 1 calc GR . . . .
H2B H 0.182906 0.362535 -0.225586 0.104 Uiso 1 1 calc GR . . . .
H2C H 0.109245 0.341118 -0.447071 0.104 Uiso 1 1 calc GR . . . .
loop_
_atom_site_aniso_label
_atom_site_aniso_U_11
_atom_site_aniso_U_22
_atom_site_aniso_U_33
_atom_site_aniso_U_23
_atom_site_aniso_U_13
_atom_site_aniso_U_12
Br1 0.0382(3) 0.0476(3) 0.0409(2) 0.000 0.00585(18) 0.000
Cr1 0.0279(4) 0.0193(3) 0.0311(4) 0.000 0.0162(3) 0.000
Br2 0.0671(5) 0.0364(3) 0.0424(3) 0.000 0.0240(3) 0.000
Br3 0.0616(4) 0.0755(4) 0.0542(3) 0.000 0.0115(3) 0.000
N1 0.0431(14) 0.0278(11) 0.0450(13) 0.0025(10) 0.0251(11) -0.0043(9)
C1 0.0492(18) 0.0301(13) 0.0455(16) -0.0027(12) 0.0247(14) -0.0065(12)
C2 0.104(4) 0.0435(19) 0.082(3) -0.002(2) 0.063(3) -0.026(2)
loop_
_atom_type_symbol
_atom_type_description
_atom_type_scat_dispersion_real
_atom_type_scat_dispersion_imag
_atom_type_scat_source
C C 0.0033 0.0016 'International Tables Vol C Tables 4.2.6.8 and 6.1.1.4'
H H 0.0000 0.0000 'International Tables Vol C Tables 4.2.6.8 and 6.1.1.4'
Br Br -0.2901 2.4595 'International Tables Vol C Tables 4.2.6.8 and 6.1.1.4'
Cr Cr 0.3209 0.6236 'International Tables Vol C Tables 4.2.6.8 and 6.1.1.4'
N N 0.0061 0.0033 'International Tables Vol C Tables 4.2.6.8 and 6.1.1.4'
loop_
_geom_angle_atom_site_label_1
_geom_angle_atom_site_label_2
_geom_angle_atom_site_label_3
_geom_angle
_geom_angle_site_symmetry_1
_geom_angle_site_symmetry_3
_geom_angle_publ_flag
Br1 Cr1 Br1 180.0 5 . ?
N1 Cr1 Br1 89.95(9) 6 . ?
N1 Cr1 Br1 90.05(9) 6 5 ?
N1 Cr1 Br1 89.95(9) 2 5 ?
N1 Cr1 Br1 90.05(9) 5 . ?
N1 Cr1 Br1 89.95(9) . . ?
N1 Cr1 Br1 89.95(9) 5 5 ?
N1 Cr1 Br1 90.05(9) . 5 ?
N1 Cr1 Br1 90.05(9) 2 . ?
N1 Cr1 N1 88.66(14) 6 . ?
N1 Cr1 N1 91.34(14) 6 5 ?
N1 Cr1 N1 88.66(14) 2 5 ?
N1 Cr1 N1 91.34(14) 2 . ?
N1 Cr1 N1 180.0 5 . ?
N1 Cr1 N1 180.00(16) 6 2 ?
Br3 Br2 Br3 180.0 . 5_657 ?
C1 N1 Cr1 176.5(2) . . ?
N1 C1 C2 179.4(4) . . ?
C1 C2 H2A 109.5 . . ?
C1 C2 H2B 109.5 . . ?
C1 C2 H2C 109.5 . . ?
H2A C2 H2B 109.5 . . ?
H2A C2 H2C 109.5 . . ?
H2B C2 H2C 109.5 . . ?
loop_
_geom_bond_atom_site_label_1
_geom_bond_atom_site_label_2
_geom_bond_distance
_geom_bond_site_symmetry_2
_geom_bond_publ_flag
Br1 Cr1 2.4402(10) . ?
Cr1 N1 2.022(2) 5 ?
Cr1 N1 2.022(2) . ?
Cr1 N1 2.022(2) 6 ?
Cr1 N1 2.022(2) 2 ?
Br2 Br3 2.5461(13) 5_657 ?
Br2 Br3 2.5460(13) . ?
N1 C1 1.120(4) . ?
C1 C2 1.450(4) . ?
C2 H2A 0.9600 . ?
C2 H2B 0.9600 . ?
C2 H2C 0.9600 . ?
loop_
_twin_individual_id
_twin_individual_mass_fraction_refined
1 0.741(7)
2 0.259(7)
loop_
_publcif_info_tables.block_id
_publcif_info_tables.reference_item
{a71662f2-f57f-401b-a060-6990b27d792a} '_publcif_info_datablock.publ_exptl'
loop_
_publcif_info_cif.paper_type
CB
loop_
_publcif_info_datablock.id
_publcif_info_datablock.publ_exptl
_publcif_info_datablock.publ_geom
_publcif_info_datablock.structure
{a71662f2-f57f-401b-a060-6990b27d792a} y y y
loop_
_publcif_info_exptl_table_extra_item
sin_theta_over_lambda_max
loop_
_publcif_info_exptl_table_header_item
?

_cod_database_fobs_code 2108840
