#------------------------------------------------------------------------------
#$Date: 2019-05-18 08:14:21 +0300 (Sat, 18 May 2019) $
#$Revision: 215299 $
#$URL: file:///home/coder/svn-repositories/cod/cif/2/10/83/2108397.cif $
#------------------------------------------------------------------------------
#
# This file is available in the Crystallography Open Database (COD),
# http://www.crystallography.net/. The original data for this entry
# were provided by IUCr Journals, http://journals.iucr.org/.
#
# The file may be used within the scientific community so long as
# proper attribution is given to the journal article from which the
# data were obtained.
#
data_2108397
loop_
_publ_author_name
'Tcho\'n, Daniel'
'Makal, Anna'
_publ_section_title
;
 Structure and piezochromism of pyrene-1-carbaldehyde at high pressure
;
_journal_issue                   3
_journal_name_full               'Acta Crystallographica Section B'
_journal_page_first
;
;
_journal_paper_doi               10.1107/S2052520619003354
_journal_volume                  75
_journal_year                    2019
_chemical_formula_moiety         'C17 H10 O'
_chemical_formula_sum            'C17 H10 O'
_chemical_formula_weight         230.25
_space_group_crystal_system      triclinic
_space_group_IT_number           2
_space_group_name_Hall           '-P 1'
_space_group_name_H-M_alt        'P -1'
_symmetry_space_group_name_Hall  '-P 1'
_symmetry_space_group_name_H-M   'P -1'
_atom_sites_solution_hydrogens   geom
_audit_creation_date             2018-06-25
_audit_creation_method
;
Olex2 1.2
(compiled May 29 2018 13:30:08 for OlexSys, GUI svn.r5506)
;
_cell_angle_alpha                109.439(19)
_cell_angle_beta                 99.563(19)
_cell_angle_gamma                100.637(19)
_cell_formula_units_Z            2
_cell_length_a                   6.6139(17)
_cell_length_b                   8.1151(16)
_cell_length_c                   10.272(2)
_cell_measurement_reflns_used    599
_cell_measurement_temperature    293(2)
_cell_measurement_theta_max      21.4430
_cell_measurement_theta_min      1.8840
_cell_volume                     495.3(2)
_computing_cell_refinement
'CrysAlisPro, Agilent Technologies, Version 1.171.37.34 (release 22-05-2014 CrysAlis171 .NET) (compiled May 22 2014,16:03:01)'
_computing_data_collection
'CrysAlisPro, Agilent Technologies, Version 1.171.37.34 (release 22-05-2014 CrysAlis171 .NET) (compiled May 22 2014,16:03:01)'
_computing_data_reduction
'CrysAlisPro, Agilent Technologies, Version 1.171.37.34 (release 22-05-2014 CrysAlis171 .NET) (compiled May 22 2014,16:03:01)'
_computing_molecular_graphics    'Olex2 (Dolomanov et al., 2009)'
_computing_publication_material  'Olex2 (Dolomanov et al., 2009)'
_computing_structure_refinement  'ShelXL (Sheldrick, 2015)'
_diffrn_ambient_temperature      293(2)
_diffrn_detector                 'CCD plate'
_diffrn_measured_fraction_theta_full 0.559
_diffrn_measured_fraction_theta_max 0.396
_diffrn_measurement_details
'#__ type_ start__ end____ width___ exp.time_ 1 omega -150.00 -94.00 0.2000 0.3970 omega____ theta____ kappa____ phi______ frames - -20.0000 70.0000 -24.2319 280 #__ type_ start__ end____ width___ exp.time_ 2 omega -150.00 -94.00 0.2000 0.3970 omega____ theta____ kappa____ phi______ frames - -20.0000 70.0000 155.7681 280 #__ type_ start__ end____ width___ exp.time_ 3 omega -105.00 -75.60 0.2000 0.3970 omega____ theta____ kappa____ phi______ frames - 20.0000 70.0000 155.7700 147 #__ type_ start__ end____ width___ exp.time_ 4 omega -105.00 -75.20 0.2000 0.3970 omega____ theta____ kappa____ phi______ frames - 20.0000 70.0000 -24.2300 149 #__ type_ start__ end____ width___ exp.time_ 5 omega -96.00 -30.00 0.2000 0.3970 omega____ theta____ kappa____ phi______ frames - 20.0000 -70.0000 24.2300 330 #__ type_ start__ end____ width___ exp.time_ 6 omega -102.80 -66.00 0.2000 0.3970 omega____ theta____ kappa____ phi______ frames - -20.0000 -70.0000 -155.7700 184 #__ type_ start__ end____ width___ exp.time_ 7 omega -103.20 -66.00 0.2000 0.3970 omega____ theta____ kappa____ phi______ frames - -20.0000 -70.0000 24.2300 186 #__ type_ start__ end____ width___ exp.time_ 8 omega -96.00 -30.00 0.2000 0.3970 omega____ theta____ kappa____ phi______ frames - 20.0000 -70.0000 -155.7700 330'
_diffrn_measurement_device       'abstract diffractometer'
_diffrn_measurement_device_type
'dectris-CrysAlisPro-abstract goniometer imported dectris images'
_diffrn_measurement_method       '\w scans'
_diffrn_orient_matrix_UB_11      -0.0483900000
_diffrn_orient_matrix_UB_12      0.0237766000
_diffrn_orient_matrix_UB_13      -0.0253660000
_diffrn_orient_matrix_UB_21      0.0588330000
_diffrn_orient_matrix_UB_22      0.0310240000
_diffrn_orient_matrix_UB_23      -0.0129997000
_diffrn_orient_matrix_UB_31      -0.0119742000
_diffrn_orient_matrix_UB_32      -0.0528324000
_diffrn_orient_matrix_UB_33      -0.0431912000
_diffrn_radiation_monochromator  synchrotron
_diffrn_radiation_probe          x-ray
_diffrn_radiation_type           synchrotron
_diffrn_radiation_wavelength     0.4859
_diffrn_reflns_av_R_equivalents  0.0819
_diffrn_reflns_av_unetI/netI     0.0506
_diffrn_reflns_Laue_measured_fraction_full 0.559
_diffrn_reflns_Laue_measured_fraction_max 0.396
_diffrn_reflns_limit_h_max       10
_diffrn_reflns_limit_h_min       -10
_diffrn_reflns_limit_k_max       12
_diffrn_reflns_limit_k_min       -12
_diffrn_reflns_limit_l_max       14
_diffrn_reflns_limit_l_min       -14
_diffrn_reflns_number            1747
_diffrn_reflns_point_group_measured_fraction_full 0.559
_diffrn_reflns_point_group_measured_fraction_max 0.396
_diffrn_reflns_theta_full        16.950
_diffrn_reflns_theta_max         22.607
_diffrn_reflns_theta_min         1.883
_diffrn_source                   synchrotron
_exptl_absorpt_coefficient_mu    0.049
_exptl_absorpt_correction_T_max  1.00000
_exptl_absorpt_correction_T_min  0.72877
_exptl_absorpt_correction_type   multi-scan
_exptl_absorpt_process_details
'CrysAlisPro, Agilent Technologies, Version 1.171.37.34 (release 22-05-2014 CrysAlis171 .NET) (compiled May 22 2014,16:03:01) Empirical absorption correction using spherical harmonics, implemented in SCALE3 ABSPACK scaling algorithm.'
_exptl_crystal_density_diffrn    1.544
_exptl_crystal_description
;
;
_exptl_crystal_F_000             240
_refine_diff_density_max         0.410
_refine_diff_density_min         -0.314
_refine_diff_density_rms         0.073
_refine_ls_extinction_method     none
_refine_ls_goodness_of_fit_ref   1.056
_refine_ls_hydrogen_treatment    constr
_refine_ls_matrix_type           full
_refine_ls_number_parameters     164
_refine_ls_number_reflns         1747
_refine_ls_number_restraints     0
_refine_ls_restrained_S_all      1.056
_refine_ls_R_factor_all          0.1498
_refine_ls_R_factor_gt           0.0799
_refine_ls_shift/su_max          0.000
_refine_ls_shift/su_mean         0.000
_refine_ls_structure_factor_coef Fsqd
_refine_ls_weighting_details
'w=1/[\s^2^(Fo^2^)+(0.1346P)^2^] where P=(Fo^2^+2Fc^2^)/3'
_refine_ls_weighting_scheme      calc
_refine_ls_wR_factor_gt          0.2021
_refine_ls_wR_factor_ref         0.2387
_reflns_Friedel_coverage         0.000
_reflns_number_gt                912
_reflns_number_total             1747
_reflns_threshold_expression     'I > 2\s(I)'
_cod_data_source_file            xk5054sup1.cif
_cod_data_source_block           15kbar
_cod_database_code               2108397
_shelx_shelxl_version_number     2016/6
_chemical_oxdiff_formula         'C17 H10 O1'
_shelx_space_group_comment
;
The symmetry employed for this shelxl refinement is uniquely defined
by the following loop, which should always be used as a source of
symmetry information in preference to the above space-group names.
They are only intended as comments.
;
_diffrn_oxdiff_twin_integration_method simultaneous
_olex2_refinement_description
;
1. Twinned data refinement
 Scales: 0.731(4)
 0.269(4)
2. Fixed Uiso
 At 1.2 times of:
  All C(H) groups
3.a Aromatic/amide H refined with riding coordinates:
 C13(H13), C4(H4), C11(H11), C14(H14), C8(H8), C7(H7), C3(H3), C10(H10),
 C17(H17), C6(H6)
;
_shelx_res_file
;
TITL 3d_twin1_hklf4_a.res in P-1
    3d_twin1_hklf4.res
    created by SHELXL-2016/6 at 18:18:39 on 25-Jun-2018
REM Old TITL 3d_twin1_hklf4 in P-1
REM SHELXT solution in P-1
REM R1 0.430, Rweak 0.015, Alpha 0.134, Orientation as input
REM Formula found by SHELXT: C17 O
CELL 0.4859 6.6139 8.1151 10.2717 109.439 99.563 100.637
ZERR 2 0.0017 0.0016 0.0022 0.019 0.019 0.019
LATT 1
SFAC C H O
DISP C 0.001 0.001 6.068
DISP H -0 0 0.607
DISP O 0.004 0.003 13.336
UNIT 34 20 2

L.S. 5
PLAN  20
BOND $H
list 4
fmap 2
acta
OMIT -4 12 -7
OMIT 0 5 -3
OMIT -6 4 9
OMIT -5 -1 13
REM <olex2.extras>
REM <HklSrc "%./3d_twin1_hklf5.hkl">
REM </olex2.extras>

WGHT    0.134600
BASF   0.26940
FVAR      16.41961
O1    3    0.408873    1.016723    0.807255    11.00000    0.07716    0.02308 =
         0.03847    0.00141    0.02618    0.00246
C2    1    0.290598    0.658130    0.554375    11.00000    0.02376    0.02284 =
         0.02087    0.00440    0.00736    0.00438
C15   1    0.240958    0.474113    0.456801    11.00000    0.02582    0.01808 =
         0.02437    0.00478    0.01152    0.00490
C1    1    0.295596    0.690211    0.699388    11.00000    0.02504    0.02396 =
         0.02091    0.00674    0.00669    0.00628
C13   1    0.205246    0.367188    0.649435    11.00000    0.03125    0.03127 =
         0.02346    0.01552    0.00807    0.00674
AFIX  43
H13   2    0.178572    0.273466    0.682316    11.00000   -1.20000
AFIX   0
C4    1    0.321555    0.759397    0.357782    11.00000    0.03745    0.01965 =
         0.03051    0.01272    0.01229    0.00672
AFIX  43
H4    2    0.347449    0.853373    0.325101    11.00000   -1.20000
AFIX   0
C11   1    0.152067    0.146191    0.404583    11.00000    0.03278    0.02012 =
         0.03257    0.01196    0.01064    0.00500
AFIX  43
H11   2    0.122498    0.050892    0.435456    11.00000   -1.20000
AFIX   0
C12   1    0.199510    0.329037    0.505174    11.00000    0.02695    0.02074 =
         0.02243    0.00904    0.00763    0.00448
C14   1    0.250847    0.545191    0.742736    11.00000    0.04131    0.02987 =
         0.02515    0.00738    0.01482    0.01003
AFIX  43
H14   2    0.251578    0.568626    0.837839    11.00000   -1.20000
AFIX   0
C8    1    0.195775    0.217984    0.070804    11.00000    0.04178    0.02495 =
         0.02513    0.00477    0.00905    0.00639
AFIX  43
H8    2    0.169235    0.099237    0.007483    11.00000   -1.20000
AFIX   0
C16   1    0.236724    0.434737    0.309757    11.00000    0.02739    0.02013 =
         0.01815    0.00728    0.00624    0.00843
C9    1    0.192006    0.251537    0.212651    11.00000    0.02746    0.02499 =
         0.02202    0.00572    0.00420    0.00610
C7    1    0.238098    0.357442    0.022473    11.00000    0.05994    0.03543 =
         0.01866    0.00942    0.01094    0.00947
AFIX  43
H7    2    0.241035    0.331644   -0.072348    11.00000   -1.20000
AFIX   0
C3    1    0.326532    0.798238    0.497958    11.00000    0.03233    0.01639 =
         0.02431    0.00857    0.00616    0.00431
AFIX  43
H3    2    0.353838    0.918322    0.558785    11.00000   -1.20000
AFIX   0
C10   1    0.149662    0.110258    0.265775    11.00000    0.03749    0.01500 =
         0.03106    0.00467    0.00793    0.00781
AFIX  43
H10   2    0.119694   -0.009394    0.203462    11.00000   -1.20000
AFIX   0
C17   1    0.353030    0.868890    0.815353    11.00000    0.04923    0.02857 =
         0.03215    0.00344    0.02099    0.00709
AFIX  43
H17   2    0.346087    0.869549    0.905209    11.00000   -1.20000
AFIX   0
C5    1    0.277148    0.576358    0.259630    11.00000    0.02598    0.02310 =
         0.01874    0.00922    0.00385    0.00406
C6    1    0.276354    0.536197    0.114661    11.00000    0.05057    0.03138 =
         0.02504    0.01421    0.01104    0.00994
AFIX  43
H6    2    0.301396    0.629232    0.080899    11.00000   -1.20000
AFIX   0
HKLF 5




REM  3d_twin1_hklf4_a.res in P-1
REM R1 =  0.0799 for     912 Fo > 4sig(Fo)  and  0.1498 for all    1747 data
REM    164 parameters refined using      0 restraints

END

WGHT      0.1346      0.0000

REM Highest difference peak  0.410,  deepest hole -0.314,  1-sigma level  0.073
Q1    1   0.2370  0.4413  0.3791  11.00000  0.05    0.41
Q2    1   0.2937  0.6705  0.6244  11.00000  0.05    0.32
Q3    1   0.1978  0.2236  0.1437  11.00000  0.05    0.29
Q4    1   0.2025  0.3492  0.5809  11.00000  0.05    0.28
Q5    1   0.1928  0.3557  0.2657  11.00000  0.05    0.27
Q6    1   0.1556  0.7836  0.8880  11.00000  0.05    0.27
Q7    1   0.2932  0.5505  0.1968  11.00000  0.05    0.27
Q8    1   0.2775  0.5426  0.4899  11.00000  0.05    0.26
Q9    1   0.3456  0.7453  0.4384  11.00000  0.05    0.25
Q10   1   0.0508  0.0182 -0.1177  11.00000  0.05    0.25
Q11   1   0.5867  0.9016  0.9210  11.00000  0.05    0.25
Q12   1   0.0369  0.2941  0.1411  11.00000  0.05    0.24
Q13   1  -0.0107  0.2607  0.0689  11.00000  0.05    0.24
Q14   1   0.4503  0.7372  0.4195  11.00000  0.05    0.24
Q15   1   0.3240  0.4172  0.3427  11.00000  0.05    0.24
Q16   1   0.0054  0.1824  0.3559  11.00000  0.05    0.24
Q17   1   0.4223  0.7876  0.7755  11.00000  0.05    0.24
Q18   1   0.0749  0.3981  0.5528  11.00000  0.05    0.24
Q19   1   0.3194  0.7925  0.4369  11.00000  0.05    0.23
Q20   1   0.1469  0.2346  0.4648  11.00000  0.05    0.23
;
_shelx_res_checksum              76801
_shelx_hkl_file
;
   0   0  -2 52161.9 217.984   1
   0   0  -3 12287.1 260.118   1
   0  -1   0 255616. 346.212   1
   0  -1  -1 43209.6 120.974   1
   0   1   2 67268.1 212.076   1
   0   1   3 45657.8 203.086   1
   0  -1  -4 12.7460 211.581   1
   0  -1  -5 671.945 198.428   1
   0  -1  -6 2947.46 326.358   1
   0  -1  -7 24664.6 642.531   1
   0   2   0 1659.48 94.4641   1
   0  -2  -1 1681.87 95.3901   1
   0   2   2 137273. 353.232   1
   0  -2  -3 30548.5 256.077   1
   0  -2  -4 3012.67 209.479   1
   0   2   5 7493.85 212.628   1
   0   2   6 19188.2 300.890   1
   0  -2  -8-55.7042 533.651   1
   0   3   0 388.985 168.255   1
   0  -3  -1 868.486 178.789   1
   0   3   2 74735.8 261.067   1
   0  -3  -3 507.908 164.719   1
   0  -3  -4 4091.26 177.675   1
   0   3   5 4414.09 218.906   1
   0   3   6 32092.1 306.254   1
   0   3   7 2959.01 271.124   1
   0  -3  -8 9577.92 596.955   1
   0  -4   0 80.4571 193.396   1
   0  -4  -1 7571.84 217.385   1
   0  -4  -2 1956.19 156.356   1
   0  -4  -3 13129.4 256.465   1
   0   4   4 2293.49 185.437   1
   0   4   5 1893.05 521.947   1
   0  -4  -6 2361.65 375.883   1
   0  -4  -7 3604.52 421.877   1
  -4   2  -2 3369.31 263.605  -2
   0  -5   0 3369.31 263.605   1
   0   5   1 14083.2 291.295   1
   0   5   2 230.004 320.673   1
   0   5   3 4753.28 361.677   1
   0  -5  -4 7613.40 380.494   1
   0  -5  -5 243.754 379.992   1
   0  -5  -6 2160.64 455.743   1
   0  -5  -7 8648.49 841.051   1
   0  -6   0 5565.10 331.473   1
   0   6   1 15289.2 398.804   1
   0  -6  -2 1958.92 381.024   1
   0  -6  -3 44270.2 555.487   1
   0   6   4 1670.29 498.469   1
   0   6   5 987.658 728.449   1
   0   6   6 2881.15 460.708   1
   0   6   7 2930.46 617.922   1
   0  -7   0 648.351 494.879   1
   0   7   1 1778.60 493.773   1
   0  -7  -3 2756.08 459.605   1
   0  -7  -4 2912.68 476.933   1
   0  -7  -5 864.926 475.840   1
   0  -7  -6 1023.78 508.122   1
   0  -8  -1 8780.29 473.776   1
   0  -8  -2 409.497 531.376   1
   0   8   4 7369.12 505.145   1
   0  -8  -5 64579.0 710.273   1
   0   8   6 520.236 534.922   1
   0  -9  -2 914.122 510.141   1
   0  -9  -3-96.9530 512.995   1
   0  -9  -4 21614.3 594.355   1
   0  -9  -5 21253.9 613.000   1
   0   9   6 1800.92 1461.62   1
   0 -10  -3 924.214 1161.00   1
  -1   9   5 863.116 1444.89   1
   1  -9  -4 30152.3 1287.92   1
  -1   8   5 2727.07 553.023   1
   1  -8  -4-563.062 487.289   1
   1  -8  -3 1073.36 942.985   1
   1  -7  -5 1342.89 468.470   1
   1  -7  -4 173.959 914.871   1
   1  -7  -2 728.812 763.428   1
  -1   6   5 781.602 415.382   1
  -1   6   4 5773.01 412.360   1
   1  -6  -3 32720.1 478.977   1
   1  -6  -2 3605.98 347.571   1
  -1   5   6 415.556 371.144   1
   1  -5  -5 1576.30 370.789   1
   1  -5  -4 3813.21 253.502   1
   1  -5  -3 2723.24 284.251   1
   1  -5  -2 3640.50 289.221   1
   1  -4  -8 715.071 337.674   1
  -1   4   7-40.7349 304.288   1
   1  -4  -6 309.810 217.046   1
  -1   4   5 4320.22 205.779   1
   1  -4  -4 8680.48 215.563   1
   1  -4  -3 3118.24 179.865   1
   1  -4  -2 3737.87 214.126   1
   1  -4  -1 71901.5 695.542   1
   1  -3 -11 2475.95 726.511   1
  -1   3  10 423.308 416.683   1
   1  -3  -8 5513.73 380.843   1
   1  -3  -7 250.610 326.304   1
  -1   3   6 138457. 454.141   1
   1  -3  -5 26187.6 233.218   1
  -1   3   4 361.311 149.151   1
   1  -3  -3 8580.43 209.319   1
   1  -3  -2 214857. 1270.02   1
   1  -2 -10 2298.80 597.720   1
   1  -2  -9 99.5851 486.747   1
  -1   2   8 3633.27 346.810   1
   1  -2  -7 58682.1 519.081   1
  -1   2   6 285221. 568.932   1
   1  -2  -5 13549.7 285.256   1
   1  -2  -4 1600.50 130.643   1
  -1   2   2 22592.2 154.247   1
  -1   1   9-107.664 342.841   1
   1  -1  -8 5265.32 339.896   1
   1  -1  -7 2429.17 295.153   1
  -1   1   5-38.2059 158.911   1
   1  -1  -4 7217.70 162.563   1
   1  -1  -3 39230.2 242.976   1
  -1   1   2 3741.38 66.0683   1
  -1   1   1 164.173 69.6783   1
   1   0  -8 4052.23 470.420   1
   1   0  -7 5365.23 281.088   1
  -1   0   6 10619.5 268.645   1
   1   0  -5 18292.5 317.809   1
   1   0  -3 187734. 504.710   1
   1   0  -2 23226.1 159.195   1
  -1   0   1 37636.0 166.978   1
   1   1  -6-47.7636 251.313   1
   1   1  -5 21640.4 264.776   1
  -1  -1   4 1196.09 174.557   1
   1   1  -3 646.877 98.7096   1
   1   1  -2 185421. 234.674   1
   1   1  -1 71497.0 227.772   1
   1   1   0 44906.6 242.107   1
  -1  -1  -1 70613.2 336.357   1
  -1  -1  -2 44346.0 401.512   1
   1   2  -2 1890.90 79.1071   1
   1   2  -1 20151.0 183.274   1
   1   2   0 16566.6 198.146   1
  -1  -2  -1 47148.1 256.618   1
   1   2   2 296443. 613.461   1
   1   2   3 261.863 187.710   1
   1   2   4 3874.59 245.607   1
  -1  -2  -5 9623.46 335.565   1
  -1  -3   2 40519.9 344.906   1
  -1  -3   0 14144.6 241.880   1
   1   3   1 217922. 315.009   1
  -1  -3  -2 35411.1 194.284   1
  -4   3   1 1922.91 273.766  -2
  -1  -3  -3 1922.91 273.766   1
  -1  -3  -4 205.083 253.827   1
  -1  -3  -5 288.688 299.617   1
  -1  -3  -7 519.938 900.763   1
  -1  -3  -8 3525.47 998.867   1
  -1  -4   2 17739.7 269.025   1
  -1  -4   1 3859.28 231.572   1
  -1  -4   0 46885.6 288.337   1
  -1  -4  -1 1999.75 153.194   1
  -1  -4  -2-44.3947 281.689   1
   1   4   3-79.6167 410.437   1
  -1  -4  -4 343.947 351.839   1
   1   4   5 2317.96 387.407   1
  -1  -4  -6 2937.83 436.133   1
   1   4   7-863.434 982.646   1
   1   4   8 4232.94 655.114   1
  -1  -5   2 8370.78 289.171   1
  -1  -5   1 31517.4 391.014   1
   1   5   0-15.8562 300.474   1
  -1  -5  -1 9569.80 372.820   1
   1   5   2 431.643 347.819   1
  -1  -5  -3 23367.9 441.256   1
  -1  -5  -4 12632.0 441.897   1
  -1  -5  -6 1223.01 464.864   1
   1   5   7 2349.34 491.986   1
   1   5   8 19773.2 641.634   1
   1   6  -2 75039.2 555.960   1
   1   6  -1 187420. 820.514   1
  -1  -6   0 10488.0 402.907   1
  -1  -6  -1 2985.30 403.984   1
  -1  -6  -2 1949.43 405.004   1
  -1  -6  -4 1497.79 444.324   1
  -1  -6  -5 59.7163 474.484   1
  -1  -6  -6 887.671 489.492   1
  -1  -6  -7-299.921 521.669   1
  -1  -7  -1 632.114 891.190   1
   1   7   2 332.270 457.628   1
  -1  -7  -3 494.376 453.682   1
   1   7   4 2953.87 487.593   1
   1   7   5 282.425 494.634   1
  -1  -7  -6 1470.47 522.799   1
  -1  -7  -7 1957.69 553.824   1
   1   8  -1 708.338 427.247   1
  -1  -8   0 833.358 447.002   1
  -1  -8  -1-2.25624 495.946   1
  -1  -8  -2 3133.56 502.302   1
  -1  -8  -3 934.037 1122.87   1
   8  -5   1 2666.17 542.365  -2
   1   8   3 2666.17 542.365   1
  -1  -8  -4 10861.7 550.832   1
  -1  -8  -5 6190.69 555.958   1
   1   8   6 1337.02 723.518   1
  -9   7   0 3766.06 895.105  -2
  -1  -8  -6 3766.06 895.105   1
   1   8   7 234.054 607.458   1
   1   9   0 8836.58 528.772   1
  -1  -9  -1 130.049 522.342   1
  -1  -9  -2 592.182 534.444   1
  -1  -9  -3 857.027 523.330   1
   1   9   4 7675.94 572.768   1
  -1  -9  -5 2504.20 696.406   1
  -1 -10  -1-224.733 788.941   1
  -1 -10  -2 658.926 565.090   1
  -2   6   5 1606.71 530.095   1
   2  -6  -4 4130.12 585.147   1
  -2   5   8 7197.28 649.607   1
   2  -5  -7 4856.03 401.344   1
   2  -5  -6 1746.07 327.521   1
   2  -5  -5 1731.15 228.509   1
   2  -5  -4 75.5705 283.372   1
   2  -5  -3 3761.23 430.303   1
  -2   4  11 2537.65 736.829   1
   2  -4 -10 1356.82 404.574   1
  -2   4   9 299.210 376.363   1
   2  -4  -7 12083.9 372.130   1
  -2   4   6 7756.95 330.008   1
  -2   4   5 918.734 199.256   1
   2  -4  -4 709.493 204.403   1
  -2   4   3 1063.89 213.779   1
   2  -3 -13 577.454 711.330   1
   2  -3 -12 1263.39 487.115   1
   2  -3 -11 6258.11 483.593   1
   2  -3 -10 231.770 416.349   1
   2  -3  -9 396.794 344.985   1
  -2   3   8 1309.60 324.678   1
   2  -3  -7 47942.0 467.326   1
   2  -3  -6 36868.7 408.863   1
   2  -3  -5 370.143 167.473   1
  -2   3   4 6673.19 277.223   1
   2  -3  -3 30682.3 357.336   1
   2  -2 -11 5216.05 464.204   1
   2  -2 -10 549.064 393.566   1
   2  -2  -8 12721.7 397.895   1
  -2   2   7 42786.4 484.847   1
   2  -2  -6 25488.3 387.635   1
   2  -2  -5 307.207 132.052   1
  -2   2   4 10021.6 165.441   1
  -2   2   3 8994.86 174.765   1
   3  -9   0 10058.7 838.756  -2
  -2   1  11 10058.7 838.756   1
  -2   1  10 529.961 378.998   1
   2  -1  -9 10485.8 394.201   1
   2  -1  -8 5230.93 403.864   1
   2  -7   1 14612.1 1150.26  -2
  -2   1   8 14612.1 1150.26   1
   2  -1  -7 2748.77 305.522   1
  -2   1   6 9556.25 205.739   1
   2  -1  -5 623.826 106.358   1
   2  -1  -4 323.368 117.661   1
   2  -1  -3 4523.28 159.817   1
  -2   1   2 12445.5 262.888   1
   2   0 -10-359.153 568.235   1
   2   0  -9 33132.4 497.201   1
   2   0  -8 446.501 304.294   1
   2   0  -7 6738.81 297.262   1
   2   0  -6 5135.96 255.040   1
   2   0  -5 216547. 720.688   1
   2   0  -4 301419. 1213.80   1
  -2   0   3 46524.4 435.489   1
  -2   0   2 22473.2 207.999   1
  -2  -1   8 2488.02 299.023   1
  -2  -1   7 3779.14 272.994   1
   2   1  -6 9069.44 264.399   1
   2   1  -5 93897.0 483.391   1
   2   1  -3 882.524 69.5249   1
   2   1  -2 5691.74 96.1754   1
  -2  -1   1 93460.8 379.739   1
  -2  -1   0 7143.32 244.565   1
   2   2  -8 951.101 431.584   1
   2   2  -7 77.3554 242.614   1
   2   2  -6 25477.3 337.808   1
   2   2  -5 245.842 180.035   1
   2   2  -4 8701.91 157.067   1
  -2  -2   3 662.307 96.9775   1
  -2  -2   2 2398.18 80.0786   1
   2   2  -1 253.097 154.143   1
  -2  -2  -1 1411.36 274.207   1
  -2  -2  -2 43331.3 468.378   1
  -2  -2  -3 1637.78 357.802   1
   2   3  -6 712.478 352.095   1
   2   3  -5-139.471 289.734   1
   2   3  -4 5519.02 280.419   1
   2   3  -3 73165.0 485.230   1
   2   3  -2 18716.1 168.447   1
  -2  -3   1 2772.38 255.443   1
  -2  -3   0 2572.66 240.528   1
  -2  -3  -1 802.542 133.157   1
  -2  -3  -2 32402.8 494.038   1
   2   3   3 3414.53 437.397   1
   2   3   4 262.966 471.214   1
  -2  -3  -5-364.474 506.162   1
   2   4  -4-163.179 241.235   1
   2   4  -3 1283.04 161.799   1
  -2  -4   2 9468.98 287.561   1
  -2  -4   1 306.204 271.003   1
   2   4   0 7873.17 351.905   1
  -2  -4  -1 2686.40 311.856   1
  -2  -4  -3 769.561 372.399   1
  -2  -4  -4 323.681 520.276   1
   2   4   6 850.389 612.417   1
  -2  -4  -7 6707.21 1105.87   1
  -2  -5   4 343.976 496.383   1
   2   5  -3 310.822 286.864   1
  -2  -5   2 13718.9 361.865   1
  -2  -5   1 31976.7 454.583   1
  -2  -5   0 8562.48 384.005   1
   2   5   1 208.303 350.336   1
  -2  -5  -2 4070.14 396.795   1
  -2  -5  -3 25869.4 697.123   1
  -2  -5  -4 1515.62 464.982   1
  -2  -5  -5 2064.60 479.349   1
  -2  -5  -6-464.836 495.676   1
   2   5   7 3337.41 582.646   1
  -2  -6   4 3491.82 614.883   1
   2   6  -3 244.830 340.063   1
  -2  -6   2 249091. 962.479   1
  -2  -6   1 53504.2 581.428   1
  -2  -6   0 3548.62 417.755   1
  -2  -6  -2 6328.90 445.151   1
   2   6   3 1699.42 455.201   1
   2   6   4 581.494 491.585   1
  -2  -6  -5 5318.54 527.082   1
  -2  -6  -6 136.687 554.193   1
  -2  -6  -7 65.9227 553.526   1
  -2  -6  -8 2636.25 716.314   1
  -2  -7   4 8239.37 752.486   1
   2   7  -3 120.321 475.659   1
  -2  -7   2 11450.1 926.111   1
  -2  -7   1 2935.67 884.092   1
  -7   2   0 5522.41 641.516  -2
  -2  -7   0 5522.41 641.516   1
   2   7   1 268.111 433.229   1
  -2  -7  -2 538.770 478.418   1
   2   7   3 361.486 480.521   1
  -2  -7  -4 437.317 499.202   1
   2   7   5 15401.7 577.766   1
  -2  -7  -6 1515.00 552.424   1
   2   7   7-127.757 586.058   1
   2   8  -3 8209.24 472.450   1
  -2  -8   2 1291.17 452.381   1
  -2  -8   1 1296.88 473.649   1
   2   8   0 13008.8 544.491   1
   2   8   1 7387.41 507.975   1
   2   8   2 1521.63 504.092   1
  -2  -8  -3 409.261 521.519   1
   2   8   4 14991.1 588.251   1
  -2  -8  -5 35258.3 680.515   1
   2   9  -2-1103.84 494.510   1
   2   9  -1 3718.82 523.339   1
  -2  -9   0 16553.6 651.192   1
   2   9   1 666.591 515.411   1
   2   9   2 1257.18 538.806   1
   2   9   3 630.534 556.244   1
   2  10  -1-1074.15 526.139   1
   3  -6  -7 2454.49 394.230   1
  -3   6   6-232.705 836.734   1
   3  -6  -5 1971.19 911.505   1
  -3   5  10 454.165 436.738   1
  -3   5   9 998.959 420.391   1
   3  -5  -8 7882.10 427.325   1
  -3   5   7 14.7876 453.969   1
   3  -5  -6 1144.72 333.021   1
  -3   5   5 2214.19 358.248   1
   3  -5  -4 2959.15 785.701   1
  -3   4  12 224.843 457.574   1
  -3   4  11 89.4024 445.258   1
  -3   4  10 1282.47 412.742   1
   3  -4  -9 1693.39 391.041   1
  -3   4   8 2573.50 367.743   1
   3  -4  -7 595.900 512.518   1
   3  -4  -6 16566.6 375.042   1
   3  -4  -5 4920.94 353.623   1
   3  -4  -4 397.420 243.114   1
   3  -3 -13-161.766 455.519   1
  -3   3  12 1512.63 445.435   1
  -3   3  11 1238.20 414.566   1
   3  -3 -10 2349.50 394.742   1
  -3   3   9 217.388 372.617   1
   3  -3  -7 7008.83 332.282   1
  -3   3   6 345854. 1006.71   1
   3  -3  -5 16381.7 383.278   1
  -3   3   4 11148.7 371.714   1
   3  -2 -13 89.1922 478.592   1
   3  -2 -12 328.951 453.601   1
   3  -2 -11 23369.6 490.478   1
  -3   2  10 2238.65 427.919   1
  -3   2   9 5253.17 854.744   1
  -3   2   8 605.797 398.115   1
  -3   2   7 44095.9 447.110   1
   3  -2  -6 11370.0 306.034   1
   3  -2  -5 21688.4 388.064   1
  -3   2   4 14902.3 243.624   1
  -3   2   3 1942.85 210.303   1
  -3   1  13-338.599 471.893   1
   3  -1 -12 1900.00 465.844   1
   3  -1 -11 3279.19 436.084   1
   3  -1 -10 1640.42 401.827   1
  -3   1   8 250.467 322.107   1
   3  -1  -7 16266.5 332.375   1
   3  -1  -6 2191.52 242.410   1
   3  -1  -5 14428.6 273.597   1
   3  -1  -4 22529.6 326.733   1
  -3   1   3 3629.89 205.323   1
  -3   0  12 2777.61 436.768   1
   3   0 -11 1156.60 403.924   1
  -3   0  10 819.801 374.517   1
   3   0  -9 4023.41 368.298   1
   3   0  -8 222.556 305.760   1
  -3   0   7 5280.06 306.034   1
  -3   0   6 1175.49 245.123   1
  -3   0   5 7144.65 224.116   1
   3   0  -4-10.2546 216.884   1
   3   0  -3 18812.0 308.469   1
   3   1 -11 731.275 391.218   1
   3   1 -10 10986.3 644.786   1
   3   1  -8 339.253 301.497   1
  -3  -1   7 16149.6 349.721   1
   3   1  -6 355.812 240.075   1
  -3  -1   5 3498.52 224.589   1
   3   1  -4 7263.69 131.522   1
   3   1  -3 822.066 261.360   1
   3   1  -2 6221.52 278.967   1
   3   2  -9 2484.64 348.159   1
   3   2  -8 333.245 304.377   1
   3   2  -7 2140.55 334.354   1
  -3  -2   6 6775.08 267.600   1
   3   2  -5-127.489 147.666   1
   3   2  -4 1374.95 165.124   1
  -3  -2   3 92197.2 258.214   1
   3   2  -2 12030.6 423.360   1
  -3  -2   1 269.624 284.111   1
   3   2   0 472.466 313.444   1
  -3  -2  -1 112919. 687.254   1
   3   3  -9 2895.72 503.583   1
   3   3  -8 168762. 952.241   1
  -3  -3   7 70912.2 523.895   1
   3   3  -6 865.583 247.482   1
   3   3  -5 1903.71 217.719   1
   3   3  -4 16221.3 214.511   1
   3   3  -3 199164. 354.510   1
  -3  -3   2 445.665 171.498   1
   3   3  -1 1156.78 349.965   1
  -3  -3   0 3554.99 384.323   1
  -3  -3  -1 9928.26 452.319   1
  -3  -3  -2 4564.94 473.462   1
  -3  -3  -3-231.666 490.328   1
   3   4  -8 192251. 1338.50   1
   3   4  -7 3295.56 448.077   1
   3   4  -6 4384.73 324.566   1
  -3  -4   5 659.272 235.131   1
   3   4  -4 15872.9 329.909   1
  -3  -4   3 6812.21 316.602   1
  -3  -4   2 553.461 292.559   1
   3   4  -1 3809.18 343.559   1
  -3  -4   0 1978.42 340.770   1
  -3  -4  -1 2105.59 376.738   1
  -3  -4  -2 1576.07 513.788   1
  -3  -4  -3 2975.50 933.455   1
   3   4   4 4074.70 593.097   1
  -3  -4  -5 4035.46 1022.60   1
   3   5  -5 4573.84 317.626   1
   3   5  -4 3470.46 329.863   1
  -3  -5   3 374.840 342.120   1
  -3  -5   2 3397.47 364.636   1
   3   5  -1 140700. 717.167   1
   3   5   0 98.5356 378.826   1
   3   5   1 1153.07 386.759   1
  -3  -5  -2 3205.14 723.090   1
  -3  -5  -3 6681.37 477.177   1
  -3  -5  -4 4810.74 508.997   1
   3   5   5 279.851 518.723   1
  -3  -5  -6 97.7058 694.311   1
   3   6  -5-490.264 340.628   1
  -3  -6   4 7648.85 394.916   1
   3   6  -3 1532.04 394.799   1
   3   6  -2 42582.5 561.395   1
  -3  -6   1 28549.6 650.020   1
   3   6   0 2057.19 718.587   1
   3   6   1 1436.38 441.278   1
  -3  -6  -2 961.311 469.216   1
   3   6   3 1767.11 494.413   1
  -3  -6  -4 403.438 511.937   1
  -3  -6  -5 905.567 542.555   1
   3   6   6-657.109 550.928   1
  -3  -7   6 2563.45 765.489   1
  -3  -7   5-115.640 770.665   1
   3   7  -4 5216.85 507.749   1
  -3  -7   3 673.911 879.644   1
  -3  -7   2 55.6272 444.739   1
   3   7  -1 882.031 492.318   1
   3   7   0 1040.31 453.638   1
   3   7   1-43.5809 475.488   1
  -3  -7  -2 1475.48 514.168   1
  -3  -7  -3 969.845 520.399   1
   3   7   4-326.837 542.158   1
   3   7   5 3758.74 568.343   1
  -3  -8   5 2839.30 925.389   1
  -3  -8   4 602.562 481.458   1
  -3  -8   3 648.241 472.582   1
   3   8  -2 528.883 485.192   1
  -3  -8   1 990.633 481.255   1
  -3  -8   0 5936.91 515.136   1
   3   8   1-870.713 527.989   1
  -3  -8  -2 542.945 526.580   1
   3   8   3 130.421 543.968   1
  -3  -8  -4 10285.8 733.475   1
  -3  -9   4 3628.51 1072.10   1
  -3  -9   3 223.833 512.920   1
  -3  -9   2 815.276 540.162   1
   3   9  -1 5465.31 533.984   1
   3   9   0 1669.86 535.768   1
   3   9   1-507.663 550.231   1
  -3 -10   3 579.438 1140.57   1
   3  10  -2 1826.58 568.419   1
  -3 -10   1 537.015 657.837   1
   4  -6 -10 218.552 733.429   1
  -4   6   9 201.753 736.829   1
  -4   6   8 2516.82 442.434   1
   4  -6  -7 12330.0 700.048   1
  -4   5  11 1150.87 467.987   1
  -4   5  10-922.117 503.907   1
  -4   5   9 533.248 415.898   1
  -4   5   8 879.452 396.597   1
  -4   5   7 3679.81 417.060   1
  -4   5   6 813.799 815.405   1
   4  -4 -12 2760.03 474.985   1
  -4   4  11 1852.88 471.046   1
  -4   4  10 1832.86 423.803   1
  -4   4   9 850.848 400.527   1
   4  -4  -8 2659.77 597.062   1
   3  -9   5 1460.42 853.397  -2
  -4   4   8 1460.42 853.397   1
  -4   4   7 653.841 338.866   1
   4  -4  -6 21165.0 566.290   1
   4  -4  -5 1047.29 526.319   1
   4  -3 -13 2614.22 714.423   1
   4  -3 -12 1401.77 447.264   1
   4  -3 -11 9465.44 470.399   1
  -4   3  10 781.693 393.978   1
  -4   3   9 2912.73 383.958   1
  -4   3   8 366.066 344.423   1
   4  -3  -7 23578.8 682.548   1
   4  -3  -6 37529.4 545.027   1
  -4   3   5-63.6402 316.241   1
  -4   2  13 952.877 439.660   1
   4  -2 -12 551.733 418.247   1
  -4   2  11 3786.96 417.953   1
  -4   2  10 2309.77 388.063   1
  -4   2   9 1109.14 357.665   1
  -4   2   7 17583.1 379.637   1
  -4   2   6 203.197 327.038   1
  -4   2   5 79.5969 300.319   1
   4  -2  -4 2400.28 274.263   1
  -4   1  14 831.595 694.783   1
   4  -1 -13 3101.35 447.290   1
   4  -1 -12 750.381 407.727   1
   4  -1 -11 1423.23 384.437   1
  -4   1  10 1869.76 372.289   1
   4  -1  -9 1173.29 338.686   1
  -4   1   8 282.979 311.701   1
  -4   1   7 6484.09 316.861   1
   4  -1  -6 279.246 261.907   1
  -4   1   5 3628.82 298.453   1
   4  -1  -4 93461.1 606.592   1
   4   0 -14 9167.84 659.203   1
   4   0 -13 6570.31 506.978   1
   4   0 -12 1579.74 449.266   1
   4   0 -11 88.0096 411.238   1
   4   0 -10 7999.60 421.585   1
  -4   0   8 688.850 298.126   1
  -4   0   7 1353.62 281.773   1
   4   0  -6 727.670 252.167   1
  -4   0   5 145502. 742.515   1
   4   0  -4 17803.4 337.181   1
   4   0  -3 9202.63 593.171   1
   4   1 -13 4118.12 478.379   1
   4   1 -12 975.961 429.641   1
   4   1 -11 670.086 409.623   1
  -4  -1  10 8573.24 424.899   1
   4   1  -9 4065.23 429.230   1
   1   7  -3 1415.32 583.880  -2
   4   1  -8 1415.32 583.880   1
  -4  -1   7 397.157 266.941   1
  -4  -1   6 2396.84 263.013   1
  -4  -1   5-87.9700 220.566   1
   4   1  -4 1966.16 215.110   1
  -4  -1   3 273.419 346.410   1
   4   2 -12 9.29966 421.054   1
  -4  -2  11 463.422 399.554   1
   4   2 -10 371.048 569.410   1
   4   2  -9 12038.9 462.389   1
   4   2  -8 1209.41 332.637   1
   4   2  -7 1187.50 304.007   1
  -4  -2   6 2252.61 280.408   1
   4   2  -5 190.831 216.521   1
  -4  -2   4 141.313 192.370   1
  -4  -2   3 3737.60 407.455   1
   4   2  -2 28733.2 357.239   1
  -4  -2   1-200.490 646.312   1
  -4  -2   0 518.616 673.092   1
   4   3 -11 744.429 591.818   1
  -4  -3   9 3700.78 367.310   1
   4   3  -8 545.253 319.064   1
   4   3  -7 40308.9 473.042   1
   4   3  -6 8006.26 268.004   1
  -4  -3   5 983.754 219.268   1
  -4  -3   4 929.384 271.710   1
   4   3  -3 5723.68 310.882   1
  -4  -3   2-78.6287 398.811   1
   4   3  -1 96.5292 438.031   1
  -4  -3   0 1013.28 459.770   1
   4   3   1-435.854 599.078   1
   4   4 -11 4027.91 687.820   1
   4   4  -9 662.125 502.657   1
   4   4  -8 1063.99 521.245   1
  -4  -4   5 1781.17 462.604   1
  -4  -4   4 4539.03 313.644   1
  -4  -4   3 411.364 330.423   1
  -4  -4   2 453.400 339.412   1
  -4  -4   1 643.671 378.294   1
  -4  -4   0 496.911 631.631   1
   6   0  -4 2249.66 870.364  -2
   4   4   0 2249.66 870.364   1
  -4  -4  -1 3528.40 547.463   1
  -4  -4  -2 799.115 712.297   1
  -4  -4  -3 4203.86 621.155   1
   4   5  -5 950.814 358.232   1
  -4  -5   4 4624.68 358.641   1
  -4  -5   3 714.042 569.660   1
   4   5  -2 57091.8 560.552   1
   4   5  -1 68337.8 628.593   1
   7  -1  -4 1758.87 460.982  -2
   4   5   1 1758.87 460.982   1
  -4  -5  -2 1026.57 487.210   1
  -4  -5  -3 8736.20 545.291   1
  -4  -5  -4 36.3039 534.173   1
   4   6  -5 1532.53 395.433   1
   4   6  -4 1386.99 418.448   1
   4   6  -3 499.197 617.024   1
   4   6  -2 65227.4 1426.51   1
   4   6  -1 660.479 438.084   1
   4   6   0 320.258 459.551   1
   4   6   1 896.154 484.188   1
  -4  -6  -2 128.448 577.022   1
  -4  -6  -3-87.4427 529.173   1
  -4  -6  -4 62.9942 543.341   1
  -4  -7   5 588.128 903.730   1
   4   7  -4 1563.97 471.974   1
  -4  -7   3 3666.09 486.890   1
   4   7  -2 1002.32 462.022   1
   4   7  -1 2116.53 655.121   1
   4   7   0 2595.78 526.943   1
   4   7   1 4843.31 529.573   1
   4   7   2-442.914 525.707   1
   4   7   3 741.526 570.553   1
   4   8  -5 1744.59 496.752   1
   4   8  -4 4373.58 521.831   1
   4   8  -3 1064.17 480.731   1
   4   8  -2-250.773 489.720   1
   4   8  -1 679.549 514.081   1
   4   8   0 12346.8 573.112   1
  -4  -8  -1 1436.73 546.187   1
   4   8   2 251.983 604.133   1
  -4  -9   6 3099.79 1034.39   1
  -4  -9   5 8806.49 1133.61   1
   4   9  -4 9540.19 543.917   1
   4   9  -3 280.165 566.639   1
   4   9  -2 487.073 535.190   1
   4   9  -1 196.561 548.435   1
  10  -2  -2 1481.38 693.190  -2
   4   9   0 1481.38 693.190   1
  -4 -10   4 1416.86 727.911   1
   4  10  -3 414.503 679.948   1
  -5   6  10 198.023 465.251   1
   5  -6  -9 1200.95 696.846   1
  -5   5  11-146.236 471.915   1
  -5   5  10 498.404 452.234   1
  -5   5   9 193.153 422.867   1
  -5   5   8 48.4947 397.758   1
  -5   4  11 483.985 447.928   1
  -5   4  10 602.218 424.450   1
   5  -4  -9-51.3898 397.087   1
   5  -4  -8 1438.16 387.503   1
  -5   4   7 536.796 418.073   1
  -5   3  12 177.197 451.540   1
   5  -3 -11 5975.33 453.232   1
   5  -3 -10 8086.42 443.990   1
  -5   3   9 1972.48 395.387   1
  -5   3   8 11.8479 358.475   1
   5  -3  -7 25728.3 555.621   1
  -5   2  13-21.9185 400.848   1
  -5   2  12 171.129 437.795   1
  -5   2  11 11585.7 470.365   1
   5  -2 -10 841.261 439.269   1
  -5   2   9 523.500 369.941   1
  -5   2   8 2392.00 354.014   1
   5  -2  -6 3669.80 520.449   1
   5  -2  -5-206.248 765.213   1
   5  -1 -13 572.214 446.706   1
  -5   1  12-36.4061 417.167   1
  -5   1  11 60.8967 395.388   1
   5  -1 -10-134.465 492.688   1
  -5   1   9-312.293 347.990   1
  -5   1   8 1870.59 446.247   1
   5  -1  -7 169.433 309.762   1
  -5   1   6 750.123 339.655   1
   5  -1  -5 1540.07 322.054   1
  -1  12  -3 8445.24 2468.02  -2
   5   0 -14 8445.24 2468.02   1
   5   0 -13 1654.10 439.522   1
   5   0 -12 974.405 419.245   1
  -5   0  11 1316.32 496.798   1
   5   0 -10 4925.34 386.241   1
  -5   0   9 1382.29 346.059   1
   5   0  -8 5156.53 538.705   1
  -5   0   7 551.108 297.941   1
  -5   0   6-539.701 342.114   1
   5   0  -5 4602.51 335.299   1
   5   0  -4-245.636 663.950   1
   5   1 -14 4761.33 511.168   1
   5   1 -13 223.465 476.810   1
   0 -11   3 9236.88 1565.80  -2
  -5  -1  13 9236.88 1565.80   1
   5   1 -12 1000.79 401.858   1
   5   1 -11 1316.64 384.414   1
  -5  -1  10 1391.58 364.443   1
  -5  -1   8 3000.68 352.435   1
  -5  -1   7 1520.34 298.300   1
  -5  -1   6 1685.30 302.705   1
  -5  -1   5-49.7242 302.818   1
   5   1  -4 303.425 654.786   1
   5   1  -3 6821.76 666.739   1
   5   2 -14 383.437 703.509   1
   5   2 -13-105.374 647.702   1
   5   2 -12 2627.95 445.728   1
   5   2 -11 180.008 413.491   1
  -5  -2  10 296.282 357.815   1
  -5  -2   9-706.624 527.367   1
   5   2  -8 23486.9 413.785   1
   5   2  -7 31275.2 415.623   1
  -5  -2   6 62.1097 277.336   1
   5   2  -5 129.896 344.939   1
  -5  -2   3 78062.1 1087.94   1
  -5  -2   2 10616.6 825.703   1
   5   3 -13 4674.31 745.155   1
  -5  -3  12 4389.60 474.676   1
   5   3 -11 397.617 422.905   1
   5   3 -10-29.0075 562.394   1
   5   3  -9 2039.06 342.094   1
   5   3  -8 147318. 941.832   1
  -5  -3   3 9968.43 480.299   1
  -5  -3   2 2273.20 485.585   1
  -5  -3   1 2995.08 895.009   1
  -5  -3   0 3926.66 953.260   1
   5   4 -12 9245.08 748.279   1
  -5  -4   4 1146.05 630.928   1
   5   4  -3 1776.34 455.569   1
   5   4  -2-226.197 416.313   1
  -5  -4   1 16013.9 613.524   1
  -5  -4   0 194.784 711.102   1
  -5  -4  -1 6678.09 1045.21   1
  -5  -5   4 3397.68 400.634   1
  -5  -5   3 635.203 414.367   1
  -5  -5   1 52438.5 638.075   1
   5   5   0-191.014 481.141   1
   5   5   1-234.184 504.436   1
   5   5   2-1461.10 594.109   1
  -5  -6   4 1123.21 1093.78   1
   5   6  -3 1059.05 465.202   1
   5   6  -2 2035.90 483.148   1
  -5  -6   1 1593.39 499.440   1
  -5  -6   0 1048.74 512.565   1
   5   6   1-97.7391 523.958   1
   5   6   2-294.397 538.684   1
   5   6   3 700.992 676.263   1
   5   7  -4 100.043 479.461   1
   5   7  -3 1227.61 497.352   1
   5   7  -2 631.816 498.603   1
   5   7  -1 739.959 517.568   1
   5   7   0 703.724 527.837   1
  -5  -7  -1 104.247 550.913   1
   5   7   2 941.240 574.951   1
   5   8  -4 2008.08 523.106   1
   5   8  -3 123.533 533.621   1
   5   8  -2-291.754 528.138   1
  -5  -8   1 3286.62 560.100   1
   5   8   0 2592.63 569.014   1
  -5  -9   4 730.781 542.468   1
   5   9  -3 966.808 553.976   1
   5   9  -2-702.347 855.300   1
 -10   0   3 4995.94 1221.81  -2
  -5  -9   2 4995.94 1221.81   1
  -6   5  10 1142.68 455.572   1
  -6   4  11 3218.10 474.223   1
  -6   4  10-144.659 444.929   1
  -6   4   9 2839.64 487.604   1
  -6   3  11 3133.90 1097.13   1
  -6   3  10 543.403 424.558   1
  -6   3   9 264.804 397.305   1
  -6   3   8 4975.18 404.855   1
  -6   2  12 292.679 461.408   1
  -6   2  11 3300.74 446.373   1
  -6   2  10 160.977 410.022   1
  -6   2   9 1555.79 393.945   1
  -6   2   8 369.766 366.120   1
   6  -2  -7 188.329 402.237   1
  -6   1  13 485.199 697.304   1
   6  -1 -12 553.519 443.877   1
  -6   1  11 505.616 432.538   1
  -6   1  10 1173.60 440.458   1
  -6   1   9 16716.3 450.786   1
   6  -1  -8 617.457 359.220   1
   6  -1  -7 32.1787 444.201   1
   6  -1  -6 114.995 885.428   1
  -6   0  13 9020.65 496.761   1
  -6   0  12 580.802 428.304   1
  -6   0  11 357.670 419.855   1
   6   0 -10 7351.88 425.779   1
   6   0  -9 18511.6 472.076   1
  -6   0   8 619.320 356.451   1
   6   0  -7 216.841 527.069   1
   6   0  -6 250.223 366.289   1
   6   0  -5 7160.41 899.964   1
   6   1 -13 757.904 446.606   1
   6   1 -12 563.716 429.303   1
  -6  -1  11-61.5866 404.040   1
  -6  -1  10 1727.22 400.627   1
  -6  -1   9 1178.47 385.170   1
  -6  -1   7 70.4364 324.964   1
   6   1  -6 1492.94 365.467   1
   6   1  -5 396.015 838.129   1
   6   2 -14 333.719 456.528   1
   6   2 -13 1724.87 453.120   1
   6   2 -12 665.665 420.247   1
   6   2 -11 89.9703 400.955   1
  -6  -2  10 397.083 392.218   1
  -6  -2   9 808.365 521.499   1
   6   2  -8 1875.08 480.354   1
  -6  -3  14-52.4265 452.940   1
   6   3 -13 2162.68 451.724   1
   6   3 -12 1195.07 526.095   1
  -6  -3   2 1534.21 948.605   1
  -6  -4   1 20114.2 1213.49   1
  -6  -5   3-386.286 744.792   1
  -6  -5   2 41555.8 632.441   1
   6   5  -1 11213.0 552.380   1
   6   5   0-22.3554 688.460   1
   6   6  -3 135.117 503.808   1
   6   6  -2 583.330 553.723   1
   6   6  -1-55.6403 536.779   1
   6   6   0 127.940 825.387   1
   6   6   1 503.820 698.581   1
  -6  -7   3 1504.33 550.486   1
   6   7  -2 818.994 549.247   1
   6   7  -1 370.852 555.454   1
   6   7   0 3136.32 575.642   1
   6   8  -3-355.895 556.258   1
  -6  -8   2 617.164 576.400   1
  -7   3  11 9398.73 768.547   1
  -7   3  10 1394.05 449.884   1
  -7   2  11 905.199 457.247   1
  -7   2  10-237.905 424.513   1
  -7   2   9 86.0866 408.144   1
  -7   1  12 150.842 457.342   1
  -7   1  11 216.422 444.823   1
  -7   1  10-212.278 417.236   1
  -7   1   9 1003.08 408.387   1
   7  -1  -8 182.563 385.838   1
  -7   0  12 656.684 469.058   1
  -7   0  11-4.32395 446.444   1
  -7   0  10-156.832 454.890   1
  -7   0   9-6.02149 398.620   1
  -7   0   8-20.1182 381.936   1
   7   0  -7 1309.30 1119.45   1
   7   1 -13 195.987 465.635   1
  -7  -1  12 312.954 452.675   1
  -7  -1  11 967.818 440.330   1
  -7  -1  10 443.879 453.001   1
  -7  -1   9 398.918 399.294   1
   7   2 -13 939.059 471.597   1
   7   2 -12 3262.34 597.270   1
  -7  -6   1 4487.37 1201.20   1
  -7  -7   2 603.380 953.000   1
  -8   1  11 178.505 459.942   1
   8   0 -12 19.5775 1137.52   1
  -8   0  11-300.513 463.937   1
   8   0 -10 2216.57 459.970   1
   8   0  -9 1494.80 687.940   1
   8   1 -12 38.1535 724.135   1
   0   1  -1 181760. 400.627   2
   0   1   0 89248.0 297.268   2
   0   2  -2 34924.1 281.862   2
   0   2  -1 74470.8 421.465   2
   0   2   0 602.134 165.993   2
   0   3  -2 36281.4 345.746   2
   0  -3   1 1799.69 210.799   2
   0   3   0 379.377 337.586   2
   0  -4   4-174.043 245.087   2
   0   4  -3 27833.2 381.806   2
   0   4  -2 6492.68 443.363   2
   0   4  -1 589.697 304.586   2
   0   4   0 277.293 362.331   2
   0   5  -5 3858.71 982.705   2
   0  -5   4 2077.59 322.803   2
   0   5  -3-5883.74 607.594   2
   0   5  -2-4568.77 661.600   2
   0   5  -1-78.3773 404.564   2
   0   5   0 429.417 464.557   2
   0  -6   5 1137.15 411.290   2
   0  -6   4 2565.28 420.014   2
   0  -6   3 212.465 391.479   2
   0   6  -2 49926.9 655.403   2
   0  -6   1 32275.1 647.801   2
   0   6   0 2144.73 567.849   2
   0  -7   5 817.907 1068.93   2
   0   7  -4 798.269 448.034   2
   0  -7   3 1437.73 478.968   2
   0   7  -2 69570.9 837.294   2
   0   8  -7 3612.21 1572.96   2
   0   8  -6 652.303 651.704   2
   0   8  -1 952.629 943.728   2
   0  -9   7-170.222 579.172   2
   0  -9   6-140.422 510.814   2
   0  -9   5 1599.48 559.629   2
   0   9  -4 790.946 601.627   2
   0   9  -3 167.141 686.640   2
   0   9  -2 804.921 698.571   2
   0   9  -1 1090.14 768.753   2
   0 -10   7-252.910 584.888   2
   0 -10   6-257.248 644.370   2
   0 -10   5 4624.86 661.989   2
   0 -10   4 2429.17 960.441   2
   0  10  -3-174.942 703.065   2
   0  10  -2 611.742 775.843   2
   0 -11   8 545.157 640.876   2
   0 -11   7-39.4135 615.104   2
   0 -11   6 464.696 630.883   2
   0 -11   5 406.488 666.522   2
   0  11  -4 955.495 717.522   2
   0  11  -3 21.2422 869.060   2
   0  11  -2-109.729 855.594   2
   0  12  -7 1019.26 1265.86   2
   0 -12   6 567.317 1024.74   2
   0  12  -5 701.488 698.162   2
   0  12  -4 1135.34 1013.32   2
  -1  12  -4 543.511 1057.80   2
   1 -12   5-573.978 706.344   2
   1 -12   6-95.0145 667.343   2
   1 -12   7 651.374 1018.85   2
  -1  12  -8 3284.94 1281.54   2
  -1  11  -2 1972.94 855.114   2
  -1  11  -3 1588.69 726.246   2
   1 -11   4 293.303 689.811   2
   1 -11   5 300.957 653.043   2
   1 -11   6 495.674 623.514   2
   1 -11   7-202.874 622.075   2
  -1  11  -8-282.407 927.023   2
  -1  10  -1 3255.50 814.517   2
  -1  10  -2 324.515 795.755   2
  -1  10  -3 569.797 661.953   2
   1 -10   4 436.679 622.013   2
  -1  10  -5 5375.09 680.289   2
   1 -10   6 453.390 555.107   2
   1 -10   7-1730.19 574.393   2
  -1   9  -1 727.961 712.498   2
  -1   9  -2-40.9500 687.251   2
   1  -9   3 178.800 596.097   2
   1  -9   4 632.769 563.587   2
   1  -9   5 960.269 547.342   2
   1  -9   6-76.7921 509.765   2
  -1   9  -7-236.786 558.755   2
  -1   8   0-577.758 693.754   2
  -1   8  -1 1477.97 931.521   2
  -1   8  -3 3.12697 914.183   2
  -1   8  -4 2433.41 920.324   2
  -1   8  -6 358.379 550.120   2
  -1   7   0 2713.03 637.507   2
  -1   7  -1 8941.04 627.427   2
  -1   7  -2 38602.3 701.241   2
   1  -7   3 405.385 462.386   2
   1  -7   4 2168.56 427.985   2
   1  -7   5-310.685 463.517   2
  -1   7  -6 6054.50 845.014   2
   1  -6   0 1274.17 852.311   2
  -1   6  -1 52862.7 700.061   2
  -1   6  -2 295.808 443.634   2
   1  -6   3-144.460 375.936   2
   1  -6   4 3697.57 417.625   2
   1  -6   5-226.657 390.273   2
  -1   5   0 10127.0 475.987   2
  -1   5  -1 3286.77 128.584   2
   1  -5   2 1469.40 59.6075   2
   1  -5   3 1313.52 133.442   2
  -1   5  -4 18916.0 412.506   2
  -1   4   0 385.488 439.679   2
   1  -4   1 188.380 51.2542   2
   1  -4   2 2413.34 76.5303   2
  -1   4  -3 112554. 367.179   2
   1  -3   0 430.888 321.386   2
  -1   3  -1 22.7558 53.5718   2
   1  -3   2 860.592 77.5258   2
  -1   2   0 2465.07 60.7540   2
  -1   2  -1 332.367 33.3075   2
  -1   1   0 390.830 29.0235   2
   1  -1   1 55764.6 154.303   2
  -1   0   1 12570.4 94.2348   2
  -1   0   0 3852.10 39.3303   2
   1   1  -1 25360.9 78.6532   2
   1   1   0 19527.5 143.546   2
   1   2  -2 919.321 137.765   2
   1   2  -1 6445.91 58.5031   2
   1   2   0 5821.77 240.054   2
   1   3  -3 166044. 1451.32   2
   1   3  -2 13773.7 100.752   2
  -1  -3   1 244.322 83.7172   2
   1   4  -4 43841.6 461.204   2
   1   4  -3 28400.6 150.672   2
   1   4  -2 5416.07 332.056   2
   1   4  -1 1144.42 77.4472   2
   1   4   0 16103.9 493.733   2
   1   5  -5-297.454 339.653   2
   1   5  -4 822.949 349.220   2
   1   5  -3 10327.7 381.992   2
   1   5  -2 2831.26 405.334   2
   1   5  -1 9445.46 484.511   2
   1   5   0-227.951 515.371   2
   1   6  -6-628.826 1201.24   2
  -1  -6   5 1757.64 410.045   2
  -1  -6   4 761.116 390.405   2
  -1  -6   3 3243.06 439.175   2
   1   6  -2 25114.1 599.246   2
   1   6  -1 58766.4 776.213   2
   1   6   0 4377.44 943.406   2
  -1  -7   6 6601.23 518.611   2
  -1  -7   5 4147.13 443.697   2
  -1  -7   4 370.557 468.865   2
   1   7  -2 5404.38 599.628   2
   1   7  -1 425.193 625.907   2
   1   8  -7-251.528 522.539   2
   1   8  -6 265.624 639.693   2
   1   8  -2 103.866 867.061   2
  -1  -8   1 96.1129 703.485   2
  -1  -9   7-695.944 542.809   2
   1   9  -6-328.845 558.084   2
  -1  -9   5 2720.77 596.359   2
  -1  -9   4 86.8882 620.675   2
   1   9  -3-583.691 737.357   2
   1   9  -2 1242.04 748.169   2
   1   9  -1 4156.92 1118.29   2
   1  10  -8 290.719 896.829   2
  -1 -10   7-412.591 599.975   2
  -1 -10   6-144.531 594.863   2
  -1 -10   5 2012.89 636.194   2
   1  10  -4 299.171 680.782   2
   1  10  -3 953.084 785.330   2
   1  10  -2 678.904 1350.43   2
   1  11  -8 183.765 678.920   2
  -1 -11   7-316.147 645.047   2
  -1 -11   6 474.904 664.614   2
  -1 -11   5-684.057 702.886   2
   1  11  -4 789.597 757.584   2
   1  11  -2 652.039 1198.18   2
  -1 -12   7-127.778 1323.22   2
  -1 -12   6-424.214 985.402   2
   1  12  -5 1861.90 1364.29   2
  -2  12  -3 506.781 829.528   2
  -2  12  -4-185.749 737.637   2
   2 -12   5 129.007 705.702   2
   2 -12   6 370.869 676.224   2
   2 -12   7 3872.29 1570.40   2
  -2  11  -2 1233.35 825.380   2
  -2  11  -3 25.7285 717.483   2
   2 -11   4-678.492 681.073   2
   2 -11   5 2760.74 671.724   2
   2 -11   6 23.4644 617.467   2
   2 -11   7-1013.67 618.358   2
  -2  10  -1 2980.75 776.279   2
  -2  10  -2 788.647 754.272   2
   2 -10   3-239.224 673.468   2
   2 -10   4 2656.46 636.812   2
  -2  10  -5 2728.70 599.729   2
   2 -10   6-151.566 561.080   2
  -2  10  -7-315.961 564.532   2
  -2   9   0 3738.35 1166.26   2
  -2   9  -1 1258.83 708.582   2
  -2   9  -2 319.223 687.214   2
   2  -9   3 1879.01 601.556   2
   2  -9   4 154.414 547.200   2
   2  -9   5 382.314 505.224   2
   2  -9   6 136.305 508.341   2
  -2   8   0 505.573 980.618   2
   2  -8   2 4782.16 1277.16   2
  -2   8  -4 3709.72 1026.52   2
   2  -8   6 2535.28 572.861   2
  -2   7   0 412.441 616.516   2
  -2   7  -1 13461.1 792.580   2
  -2   7  -2 77361.8 823.625   2
  -2   7  -3 1040.40 462.471   2
  -2   7  -4 94.6871 448.395   2
   2  -7   5 279.080 461.196   2
  -2   6   1 1107.70 843.824   2
  -2   6   0 2953.93 542.454   2
  -2   6  -1 3521.33 505.089   2
  -2   6  -2 12567.2 463.434   2
   2  -6   3 501.907 371.214   2
  -2   6  -4 71.7078 383.403   2
  -2   6  -5 462.108 1219.13   2
  -2   5   1-250.412 493.098   2
   2  -5   1 168.315 82.6156   2
   2  -5   2 5790.73 105.084   2
  -2   5  -3 516.509 333.099   2
   2  -5   4 430.926 326.496   2
  -2   4   1 497.103 411.054   2
  -2   4   0 313.187 89.7565   2
   2  -4   1 233.044 69.3417   2
   2  -4   2 7268.14 102.294   2
  -2   4  -3 23894.2 377.250   2
  -2   3   0 3395.56 108.362   2
  -2   3  -1-1614.32 395.860   2
   2  -3   2 2060.95 81.5294   2
  -2   2   1 3936.88 86.6066   2
  -2   2   0 17776.7 104.276   2
   2  -2   1 2726.79 60.9835   2
  -2   1   1 17321.1 114.914   2
  -2   1   0 960425. 552.295   2
   2  -1   1 266429. 428.377   2
  -2   0   2 8614.87 127.510   2
  -2   0   1 179471. 323.236   2
  -2   0   0 694429. 616.357   2
  -2  -1   2 1987.88 71.1334   2
  -2  -1   1 33250.4 118.997   2
   2   1   0 2653.00 68.2967   2
   2   2  -2 813.456 64.0994   2
   2   2  -1-105.166 64.8143   2
   2   3  -3 27916.6 231.510   2
  -2  -3   2 6941.68 74.2514   2
   2   3  -1 737.500 118.268   2
   2   3   0 1603.50 643.835   2
   2   4  -5 4422.92 940.830   2
  -2  -4   4 53.2293 129.133   2
   2   4  -3 326.410 90.4924   2
   2   4  -2 2960.91 103.407   2
   2   4  -1 70.5107 125.623   2
   2   4   0 2190.78 786.349   2
   2   5  -5 2200.47 445.204   2
  -2  -5   4 422.870 352.687   2
  -2  -5   3-44.9882 394.932   2
   2   5  -2 5019.79 488.609   2
   2   5  -1 10432.2 577.376   2
   2   5   0 3436.60 898.015   2
   2   6  -6 667.297 1267.68   2
  -2  -6   5 1075.66 445.232   2
  -2  -6   4 1324.48 417.030   2
  -2  -6   3 591.936 468.811   2
   2   6  -2 84506.4 847.898   2
   2   6  -1 15587.9 665.231   2
   2   7  -7 5351.54 1484.73   2
   2   7  -6 5297.20 555.491   2
  -2  -7   5 422.172 480.929   2
  -2  -7   4 2372.81 501.429   2
   2   7  -3-355.058 606.658   2
   2   7  -2 4299.33 628.980   2
   2   7  -1 910.042 935.040   2
   2   8  -7-768.465 557.533   2
   2   8  -6-318.141 667.993   2
   2   8  -3 2178.77 906.573   2
   2   8  -2 1106.80 700.121   2
   2   8  -1 14.6213 1054.35   2
   2   9  -8-785.578 1072.99   2
  -2  -9   7-691.750 571.921   2
  -2  -9   6-130.363 563.065   2
  -2  -9   5 1760.36 622.414   2
   2   9  -4 4358.32 682.468   2
   2   9  -3 903.803 762.786   2
   2   9  -2 513.272 801.136   2
   2  10  -8-514.548 922.030   2
  -2 -10   7 8.36426 635.478   2
  -2 -10   6-163.172 636.505   2
  -2 -10   5 2338.10 682.066   2
   2  10  -4 1214.64 729.301   2
   2  10  -3 1206.50 762.024   2
   2  10  -2-383.019 1167.31   2
  -2 -11   8 998.122 670.029   2
  -2 -11   7-64.1760 664.926   2
  -2 -11   6 882.636 683.847   2
   2  11  -5 166.039 721.388   2
   2  11  -4 632.720 774.727   2
  -2 -11   3-194.341 803.395   2
  -3  12  -2 2551.16 1346.34   2
  -3  12  -3 1042.78 774.345   2
  -3  12  -4 24.3327 719.132   2
   3 -12   5 769.225 718.737   2
   3 -12   6 148.014 670.515   2
   3 -12   7 1761.25 957.830   2
  -3  11  -1 1092.77 894.596   2
  -3  11  -2 1174.65 747.643   2
  -3  11  -3 343.682 727.150   2
   3 -11   4-530.477 661.852   2
   3 -11   5 2836.40 643.323   2
   3 -11   6 768.033 620.825   2
  -3  11  -7-117.634 634.264   2
  -3  10  -1 2642.98 811.750   2
  -3  10  -2 1053.37 713.235   2
   3 -10   3-269.074 673.183   2
   3 -10   4 451.477 630.973   2
   3 -10   5 2247.18 615.680   2
   3 -10   6 172.123 588.976   2
  -3   9  -1 1202.67 719.794   2
   3  -9   2 614.519 1221.98   2
   3  -9   3-128.055 620.863   2
   3  -9   4 1839.63 559.441   2
  -3   9  -5-831.959 675.008   2
   3  -9   6 1375.90 646.039   2
  -3   8   0-282.917 919.699   2
   3  -8   2 10914.8 1038.59   2
  -3   8  -3 608.584 944.826   2
  -3   8  -6 3250.73 1514.79   2
  -3   7   1 2153.47 949.698   2
  -3   7   0 2142.81 623.637   2
  -3   7  -1 32481.5 711.401   2
  -3   7  -2 16505.3 565.495   2
   3  -7   3 3247.69 465.817   2
  -3   7  -4-301.065 460.874   2
  -3   7  -5 8.19072 457.267   2
  -3   6   1 226.868 233.769   2
  -3   6   0 723.402 208.594   2
   3  -6   1 1513.85 121.507   2
   3  -6   2-10.0965 105.654   2
   3  -6   3 3533.77 138.705   2
   3  -6   4 181.807 199.410   2
  -3   5   1 355.070 212.114   2
  -3   5   0 3917.08 136.654   2
  -3   5  -1 259.526 100.198   2
   3  -5   2 157.701 106.486   2
   3  -5   3 8685.82 144.730   2
  -3   5  -4 20452.9 1281.55   2
  -3   4   1 68105.9 285.309   2
  -3   4   0 1972.88 112.679   2
   3  -4   1 604.965 95.1199   2
   3  -4   2 1983.99 109.169   2
  -3   4  -3 51045.4 1218.31   2
  -3   3   2 32442.3 396.477   2
   3  -3  -1 5056.91 124.512   2
   3  -3   0 934.905 81.6213   2
   3  -3   1 2994.89 92.4416   2
   3  -3   2 126.227 95.3270   2
  -3   2   2 3762.89 124.795   2
  -3   2   1 3988.28 104.536   2
   3  -2   0 921.111 87.7970   2
   3  -2   1 8281.02 117.082   2
   3  -2   2 26400.5 197.985   2
  -3   1   2 4011.89 114.255   2
  -3   1   1 1120.51 90.0899   2
  -3   1   0 2446.74 82.1024   2
   3  -1   1 18055.2 153.524   2
  -3   0   3 5827.97 132.705   2
  -3   0   1 12999.5 239.157   2
  -3   0   0 182.645 134.379   2
   3   0   1 3266.53 105.626   2
  -3  -1   3 246.201 97.6680   2
   3   1  -2 1841.06 376.096   2
   3   1  -1 1465.53 118.567   2
   3   1   0 121.341 86.0563   2
  -3  -2   4 198.456 186.373   2
   3   2  -3 33883.6 814.822   2
   3   2  -2 4117.64 198.190   2
   3   2  -1-27.8586 364.342   2
  -3  -2   0 215.050 163.408   2
   3   3  -3 69083.4 726.253   2
   3   3  -2 146.433 486.672   2
  -3  -3   1 151.893 176.965   2
   3   3   0 2469.32 719.364   2
   3   4  -5 2203.01 1171.48   2
  -3  -4   4 6589.51 368.705   2
  -3  -4   3 2138.90 115.810   2
   3   4  -2 200.908 175.509   2
   3   4  -1 1585.11 213.067   2
   3   4   0 108.951 827.311   2
   3   5  -6 403.505 1294.36   2
  -3  -5   5 1647.13 411.468   2
  -3  -5   4 1219.43 381.453   2
   3   5  -3 557.727 416.808   2
   3   5  -2 1926.01 503.770   2
   3   5  -1 43961.4 1078.37   2
   3   6  -6 7156.66 1404.53   2
  -3  -6   5 332.604 418.628   2
   3   6  -4 2525.30 461.429   2
  -3  -6   3 463.198 495.794   2
   3   6  -2 14998.9 652.297   2
   3   6  -1 8728.69 960.092   2
   3   7  -7 3247.38 1596.03   2
  -3  -7   6 684.939 496.459   2
  -3  -7   5 638.592 485.889   2
  -3  -7   4 1420.88 538.918   2
   3   7  -3 930.175 594.804   2
   3   7  -2 510.171 684.766   2
   3   8  -8 3039.77 1853.18   2
   3   8  -7 47.2065 1108.00   2
  -3  -8   6 226.856 668.221   2
   3   8  -5-474.027 835.750   2
   3   8  -4-1166.56 856.769   2
  -3  -8   3-640.616 809.776   2
   3   8  -2 3130.24 1057.48   2
  -4  12  -2 2069.81 1395.53   2
  -4  12  -3 1508.76 778.627   2
  -4  12  -4 453.970 745.525   2
   4 -12   5 772.184 684.051   2
  -4  12  -6-209.863 1335.91   2
  -4  12  -7 10196.3 1379.81   2
  -4  11  -1 1038.43 860.689   2
  -4  11  -2 1397.03 780.610   2
  -4  11  -3-294.480 772.275   2
   4 -11   4 2721.92 738.966   2
   4 -11   5 997.035 737.928   2
   4 -11   6-722.090 641.780   2
  -4  11  -7 261.988 2246.08   2
  -4  10  -1 890.571 803.350   2
  -4  10  -2 267.279 703.837   2
   4 -10   3 58.2484 662.024   2
   4 -10   4 588.187 644.139   2
   4 -10   5 550.932 605.272   2
   4 -10   6-533.948 594.984   2
  -4   9   0 931.920 774.589   2
  -4   9  -1 657.881 741.332   2
   4  -9   2 555.821 659.979   2
   4  -9   3 1065.83 627.309   2
   4  -9   4 1013.52 563.006   2
   4  -9   5 149.469 558.037   2
  -4   9  -6 1897.98 1960.17   2
  -4   8   1 154.128 1017.48   2
  -4   8  -2 27989.6 1139.34   2
  -4   8  -3 3051.48 1012.51   2
  -4   8  -5-100.064 579.265   2
  -4   7   1 382.439 950.717   2
  -4   7   0 1927.00 677.049   2
  -4   7  -1 7336.85 617.702   2
  -4   7  -2 26499.0 597.541   2
  -4   7  -3 156.944 445.941   2
   4  -7   4 32.7488 532.308   2
  -4   7  -5-380.483 1444.42   2
  -4   6   1-214.419 261.071   2
   4  -6   0-292.683 154.156   2
   4  -6   1 241.560 129.965   2
   4  -6   2-83.9280 125.922   2
   4  -6   3 2035.43 164.321   2
  -4   6  -4 4.28546 261.824   2
  -4   5   1 470.031 152.353   2
   4  -5   0 99.6660 128.293   2
   4  -5   1 977.533 120.448   2
   4  -5   2 145.090 128.361   2
   4  -5   3 4389.61 166.119   2
  -4   4   2 3510.23 225.927   2
  -4   4   1 1853.63 140.655   2
  -4   4   0 1375.82 116.943   2
  -4   4  -1 282.529 115.091   2
   4  -4   2 1195.25 134.196   2
   4  -4   3 1561.29 168.805   2
  -4   3   2 11251.1 193.508   2
   4  -3  -1 371.956 574.260   2
   4  -3   0 1024.52 114.247   2
  -4   3  -1 8615.76 134.906   2
   4  -3   2 1574.68 131.787   2
  -4   2   3 215.033 142.564   2
  -4   2   2 3058.33 140.648   2
  -4   2   1 3803.45 111.645   2
  -4   2   0 14887.4 150.751   2
   4  -2   1 59320.8 277.063   2
  -4   1   3 61.2585 131.775   2
  -4   1   2 3422.96 149.283   2
  -4   1   1 15962.3 178.681   2
  -4   1   0 334408. 539.407   2
   4  -1   1 19552.1 195.091   2
  -4   0   4 6177.78 292.382   2
  -4   0   3 3334.05 151.088   2
   4   0  -2 246.739 102.723   2
   4   0  -1 1816.37 120.296   2
   4   0   0 11066.8 162.971   2
   4   0   1 430.313 122.709   2
  -4  -1   4 647.257 143.017   2
   4   1  -3 258.476 122.639   2
  -4  -1   2 2522.24 115.419   2
  -4  -1   1 6179.11 135.198   2
   4   1   0 645.551 121.696   2
  -4  -1  -1 20.5949 233.986   2
  -4  -2   5-139.247 244.637   2
  -4  -2   4-51.5368 142.562   2
   4   2  -3 2018.37 122.221   2
  -4  -2   2 9959.34 156.108   2
   4   2  -1 125.453 121.439   2
  -4  -2   0 375.329 230.173   2
  -4  -3   5 170.050 242.412   2
  -4  -3   4 221.851 142.647   2
   4   3  -3 2020.63 125.911   2
   4   3  -2-45.6542 124.243   2
   4   3  -1-37.3972 131.133   2
  -4  -3   0 452.447 239.591   2
  -5  12  -2 966.032 1429.32   2
  -5  12  -3 3911.97 1427.73   2
  -5  12  -4-581.089 824.462   2
   5 -12   5-9.95815 1407.28   2
  -5  12  -6 122.631 1431.64   2
  -5  11  -1 1098.81 819.428   2
  -5  11  -2 446.803 764.591   2
  -5  11  -3-717.751 708.980   2
   5 -11   4 272.380 674.502   2
  -5  11  -6 2558.32 1038.42   2
  -5  10  -1 1726.96 764.529   2
  -5  10  -2 431.857 716.490   2
   5 -10   3 1212.76 715.012   2
   5 -10   4 76.8249 632.907   2
   5 -10   5-122.695 642.561   2
  -5  10  -6 587.486 1252.12   2
  -5   9   1 3434.62 1149.34   2
  -5   9   0-407.803 799.787   2
  -5   9  -1 2170.55 706.953   2
   5  -9   2-251.201 634.991   2
   5  -9   3 703.856 620.402   2
   5  -9   4 29.9098 585.627   2
  -5   9  -5-95.5136 897.318   2
  -5   8   1 1572.70 1106.73   2
   5  -8   2 17339.0 1367.15   2
  -5   7   1-402.881 905.608   2
  -5   7   0 1066.05 640.852   2
   5  -7   1 7976.37 579.142   2
   5  -7   2 578.565 500.924   2
   5  -7   3-352.798 810.720   2
  -5   6   2 340.083 328.522   2
  -5   6   1-193.489 175.588   2
   5  -6   0 1780.26 168.218   2
   5  -6   1 378.858 146.734   2
   5  -6   2 83.9847 171.359   2
   5  -6   3 206.632 191.853   2
  -5   6  -4 2335.34 352.515   2
  -5   5   1 8379.94 190.883   2
   5  -5   0 618.672 377.178   2
  -5   5  -1 339.200 144.755   2
   5  -5   2 351.629 164.947   2
   5  -5   3 12275.9 280.883   2
  -5   4   3 32.2094 319.083   2
  -5   4   2 10589.9 224.595   2
  -5   4   1 21119.9 220.260   2
   5  -4   0 1.66366 194.760   2
   5  -4   1 18.8018 148.528   2
   5  -4   2 497.979 160.978   2
   5  -4   3 6392.68 200.100   2
  -5   3   3 667.052 182.498   2
  -5   3   2 217.370 164.804   2
   5  -3  -1 481.429 159.983   2
   5  -3   0 85.0801 148.087   2
   5  -3   1-160.472 146.646   2
   5  -3   2 2109.12 167.678   2
  -5   2   3 1438.76 179.057   2
  -5   2   2 350.364 166.395   2
   5  -2  -1 1143.06 139.902   2
  -5   2   0 256.163 146.460   2
   5  -2   1 3247.75 163.958   2
   5  -2   2 1171.01 162.596   2
  -5   1   4 462.806 177.274   2
  -5   1   3 2972.75 181.471   2
   5  -1  -2 773.773 134.616   2
  -5   1   1 238.948 143.904   2
   5  -1   0 1168.45 152.448   2
   5  -1   1 10464.5 197.872   2
  -5   0   4 176.549 169.416   2
  -5   0   3 96.9970 156.489   2
   5   0  -2 2486.53 148.076   2
  -5   0   1 251.338 142.185   2
   5   0   0 409.711 146.253   2
  -5   0  -1 2194.86 164.454   2
  -5  -1   5-68.0558 289.309   2
  -5  -1   4 86.5149 165.305   2
   5   1  -3 2914.67 151.794   2
   5   1  -2 168.600 128.882   2
   5   1  -1-132.026 143.168   2
   5   1   0 320.407 154.157   2
  -5  -1  -1 3205.82 304.698   2
   5   2  -5 92.5206 240.298   2
  -5  -2   4 132.136 148.068   2
  -5  -2   3 24681.2 221.182   2
  -5  -2   2 3497.65 159.515   2
   5   2  -1 588.003 157.173   2
  -5  -2   0 412.892 291.722   2
  -5  -3   6 376.160 303.749   2
  -5  -3   5 487.312 180.252   2
  -5  -3   4 4846.39 170.184   2
  -5  -3   3 4119.14 151.434   2
   5   3  -2 1010.22 159.066   2
   5   3  -1 1160.11 168.608   2
  -6   7  -1 651.292 238.995   2
  -6   7  -4 485.066 400.059   2
   6  -6  -1 124.227 258.353   2
   6  -6   0 209.213 189.414   2
  -6   6  -1 482.111 186.792   2
   6  -6   2 1029.67 238.276   2
  -6   6  -4 302.522 376.732   2
  -6   5   2 392.310 334.924   2
   6  -5  -1 1234.76 186.350   2
   6  -5   0 392.716 168.751   2
   6  -5   1 109.107 162.100   2
  -6   5  -2 1293.31 238.372   2
  -6   4   3 1238.64 339.490   2
  -6   4   2 3224.72 193.608   2
  -6   4   1 148.582 173.475   2
  -6   4   0 490.511 177.864   2
   6  -4   1 1098.74 185.591   2
   6  -4   2 353.225 196.984   2
  -6   3   3 203.968 198.040   2
   6  -3  -2-101.087 168.678   2
   6  -3  -1-1.50087 161.911   2
   6  -3   0 1164.34 170.860   2
   6  -3   1 1846.29 188.110   2
  -6   3  -2 173.901 178.262   2
  -6   2   4 1211.67 209.810   2
  -6   2   3 747.962 201.404   2
   6  -2  -2 268.656 166.150   2
   6  -2  -1 130.897 153.335   2
   6  -2   0 60982.3 361.903   2
   6  -2   1 32996.7 306.668   2
   6  -2   2 1646.31 236.399   2
   6  -1  -3 1234.89 174.504   2
   6  -1  -2-135.844 158.161   2
  -6   1   1 8362.74 247.472   2
   6  -1   0 40067.1 319.189   2
  -6   0   5 2941.45 221.171   2
  -6   0   4 337.718 215.503   2
   6   0  -3 102.008 167.247   2
  -6   0   2 324.299 153.797   2
   6   0  -1 2068.93 175.517   2
   6   0   0 591.479 180.950   2
   6   0   1 20.6386 224.893   2
  -6  -1   5 165.958 201.974   2
   6   1  -4 158.137 170.489   2
  -6  -1   3 50.4176 160.334   2
   6   1  -2 671.222 148.582   2
   6   1  -1 188.510 174.038   2
   6   1   0 281.020 210.904   2
  -6  -2   6 188.059 327.066   2
   6   2  -5 13.5842 176.461   2
   6   2  -4 443.364 181.908   2
  -6  -2   3 3608.69 280.265   2
   6   2  -2 1711.39 186.075   2
   6   2  -1 191.034 181.296   2
  -6  -2   0-124.031 355.406   2
  -6  -3   6 871.415 320.654   2
   6   3  -5 655.793 179.723   2
   6   3  -4 277.408 167.571   2
   6   3  -3-55.2022 160.937   2
   6   3  -2 542.340 191.046   2
  -6  -3   1 439.378 364.588   2
  -6  -3   0-150.777 370.800   2
  -7   7   2-160.761 314.719   2
   7  -7  -1 111.388 218.398   2
   7  -7   0 250.168 207.144   2
  -7   7  -1 183.814 208.657   2
  -7   7  -2 225.039 208.164   2
   7  -7   3-33.7415 239.778   2
  -7   7  -4 1366.41 438.337   2
  -7   6   3 432.640 413.571   2
   7  -6  -2-197.583 219.237   2
   7  -6  -1 200.706 211.730   2
   7  -6   0 137.472 197.566   2
   7  -6   1 54.8752 198.077   2
   7  -6   2 288.203 230.406   2
  -7   6  -3 1222.67 235.731   2
   7  -5  -2 1176.40 217.402   2
  -7   5   1 8505.75 235.451   2
   7  -5   0 742.874 188.503   2
   7  -5   1 29.9030 186.730   2
   7  -5   2 381.044 271.345   2
   7  -5   3 4371.10 262.126   2
   7  -4  -3 387.734 206.744   2
   7  -4  -2 1452.75 322.638   2
   7  -4  -1 1307.95 194.913   2
  -7   4   0 276.651 186.275   2
   7  -4   1-247.786 210.625   2
  -7   4  -2 306.004 217.184   2
  -7   3   4 410.339 233.403   2
  -7   3   3 138.555 197.457   2
   7  -3  -2-28.6299 193.075   2
  -7   3   1 422.943 181.509   2
   7  -3   0 75.3550 202.185   2
   7  -3   1 259.277 209.836   2
   7  -3   2 402.099 217.930   2
  -7   2   4 122.852 225.167   2
   7  -2  -3 2.92202 192.459   2
   7  -2  -2 126.704 183.894   2
   7  -2  -1 76.3629 170.885   2
   7  -2   1 3005.01 222.131   2
   7  -2   2-131.373 210.709   2
  -7   1   5 494.456 233.386   2
   7  -1  -3 107.035 190.417   2
   7  -1  -2 730.145 179.650   2
   7  -1  -1 213.339 171.027   2
   7  -1   0 302.257 203.036   2
   7  -1   1 235.553 212.587   2
  -7   0   5-492.703 224.759   2
   7   0  -4 236.276 197.446   2
   7   0  -3-44.9501 180.687   2
   7   0  -2-32.7762 207.547   2
   7   0  -1 5.10501 200.981   2
   7   0   0 186.852 204.287   2
  -7   0  -1 48.8965 409.753   2
  -7  -1   6 1080.76 377.408   2
  -7  -1   5 191.017 203.563   2
   7   1  -4-3.51292 233.648   2
  -7  -1   3 4310.13 315.520   2
   7   1  -2 1560.87 220.869   2
   7   1  -1 276.403 209.667   2
   7   1   0-57.8852 212.417   2
  -7  -2   6 279.232 299.419   2
   7   2  -5-162.989 202.924   2
  -7  -2   4 1073.89 313.313   2
   7   2  -2 215.774 216.098   2
  -7  -2   1 112.624 229.251   2
  -7  -2   0 901.288 433.655   2
   8  -7  -2 256.818 254.356   2
   8  -7  -1 166.551 236.721   2
   8  -7   0-8.48166 224.252   2
   8  -7   1 35.4383 228.449   2
   8  -7   2 236.595 232.115   2
   8  -7   3-150.066 316.050   2
   8  -6  -3-25.5465 302.346   2
   8  -6  -2-18.8735 243.205   2
   8  -6  -1 270.522 224.549   2
  -8   6   0 103.212 216.688   2
   8  -6   1 31.4582 220.772   2
   8  -6   2 89.4724 234.583   2
  -8   6  -3-77.4166 254.652   2
   8  -5  -3-147.619 235.321   2
   8  -5  -2 343.106 227.721   2
   8  -5  -1 465.706 208.975   2
   8  -5   0 515.805 216.546   2
  -8   5  -1 486.197 457.546   2
  -8   5  -2 164.304 245.789   2
  -8   5  -3 1501.43 477.846   2
   8  -4  -4-166.071 234.671   2
   8  -4  -3-60.5135 230.396   2
   8  -4  -2 443.282 222.482   2
   8  -4  -1 230.529 203.610   2
   8  -4   0 261.473 209.394   2
  -8   4  -1 684.376 245.607   2
   8  -4   2 246.236 246.383   2
   8  -3  -4 22.8246 227.902   2
   8  -3  -3 121.149 226.629   2
   8  -3  -2 356.180 209.098   2
  -8   3   1-4.05978 198.265   2
   8  -3   0 2843.57 219.103   2
   8  -3   1 9324.89 280.719   2
   8  -3   2 55.6188 240.997   2
   8  -2  -5 222.533 229.991   2
  -8   2   4 4742.68 291.441   2
   8  -2  -3 262.304 215.488   2
   8  -2  -2 253.861 199.658   2
  -8   2   1 1970.05 207.438   2
   8  -2   0 23660.7 335.052   2
   8  -2   1 5253.12 261.422   2
   8  -1  -5 3171.85 242.162   2
   8  -1  -4 1319.82 224.024   2
   8  -1  -3 278.331 207.490   2
  -8   1   2 33.7550 195.092   2
   8  -1  -1-17.9982 201.270   2
   8  -1   0 1417.71 240.916   2
   8  -1   1-76.0291 234.968   2
   8   0  -6 76.5766 314.714   2
   8   0  -5-330.040 225.716   2
   8   0  -4 11.9091 216.549   2
   8   0  -3 311.675 202.748   2
   8   0  -2 256.286 204.493   2
  -8   0   1 825.449 233.783   2
   8   0   0 229.221 237.667   2
  -8  -1   6-275.834 229.792   2
   8   1  -5 157.434 230.954   2
   8   1  -4 88.2768 225.424   2
   8   1  -3 983.442 222.311   2
   8   1  -2 988.038 213.888   2
   8   1  -1 305.574 240.458   2
  -8  -1   0 975.217 466.476   2
   8   2  -6-162.927 234.887   2
   8   2  -5 60.2087 220.062   2
  -8  -2   4 38.6237 207.526   2
   8   2  -3 113.764 213.694   2
   8   2  -2 390.837 218.132   2
   8   2  -1 1302.42 290.752   2
   9  -7  -3 1692.03 381.336   2
   9  -7  -2-402.571 256.321   2
   9  -7  -1 30.5291 245.763   2
   9  -7   0 165.611 346.895   2
  -9   7  -1 508.418 253.061   2
   9  -7   2 236.050 253.557   2
  -9   7  -3-111.571 373.130   2
   9  -6  -3 184.503 261.937   2
   9  -6  -2 336.479 254.729   2
  -9   6   1 1176.12 243.949   2
   9  -6   0 333.415 245.224   2
   9  -6   1 669.218 245.140   2
   9  -6   2 38.7792 248.903   2
  -9   6  -3 1166.30 525.982   2
   9  -5  -4 312.908 358.955   2
   9  -5  -3 91.3146 253.627   2
   9  -5  -2 192.641 248.984   2
   9  -5  -1 3152.12 267.145   2
   9  -5   0-348.513 247.260   2
   9  -5   1 297.752 242.660   2
   9  -5   2 65.8885 273.748   2
   9  -4  -4-87.9333 264.992   2
   9  -4  -3-41.2026 245.594   2
   9  -4  -2 231.448 230.912   2
   9  -4  -1 14.4923 231.649   2
   9  -4   0 46.8038 231.159   2
   9  -4   1 88.1905 271.989   2
  -9   4  -2-72.2802 339.595   2
   9  -3  -5-20.8689 319.679   2
  -9   3   4 177.747 289.534   2
   9  -3  -3 165.398 238.059   2
   9  -3  -2 44.0382 223.372   2
   9  -3  -1-31.0516 228.627   2
   9  -3   0 184.730 233.157   2
   9  -3   1 560.776 319.411   2
   9  -2  -5 379.139 257.012   2
   9  -2  -4-108.063 245.443   2
   9  -2  -3 75.7890 223.679   2
   9  -2  -2 425.613 224.692   2
   9  -2  -1 137.100 230.089   2
   9  -2   0 62.8021 231.107   2
   9  -2   1 695.069 272.539   2
   9  -1  -5 6.04900 253.962   2
   9  -1  -4 20.0707 235.246   2
   9  -1  -3 232.161 223.344   2
   9  -1  -2-14.0693 227.911   2
   9  -1  -1 238.175 232.675   2
   9  -1   0 182.454 261.125   2
   9   0  -6 280.654 532.184   2
   9   0  -5-25.3036 247.823   2
   9   0  -4 120.297 227.700   2
   9   0  -3 382.682 229.144   2
   9   0  -2 409.342 232.826   2
   9   0  -1 352.890 321.342   2
  -9   0   0-558.663 507.895   2
   9   1  -6 83.5079 256.769   2
   9   1  -5 49.9981 241.450   2
  -9  -1   4-41.2825 232.983   2
   9   1  -3 3154.17 255.215   2
   9   1  -2 982.973 244.047   2
   9   1  -1 78.5614 238.653   2
  -9  -2   6 93.8821 456.922   2
  -9  -2   5 198.682 489.968   2
  10  -2  -3 114.732 316.188   2
  10  -1  -4 121.456 317.348   2
  10  -1  -3 20.7060 282.603   2
  10  -1  -2 784.398 346.050   2
  10   0  -5 236.903 327.046   2
  10   0  -4-18.9996 319.187   2
  10   0  -3-366.893 486.327   2
  10   0  -2 569.962 339.731   2
 -10  -1   6 302.392 448.982   2
 -10  -1   5-257.722 321.117   2
  10   1  -4 4.55496 257.732   2
  10   1  -3 530.516 305.846   2
;
_shelx_hkl_checksum              44492
_olex2_submission_special_instructions 'No special instructions were received'
loop_
_space_group_symop_operation_xyz
'x, y, z'
'-x, -y, -z'
loop_
_atom_site_label
_atom_site_type_symbol
_atom_site_fract_x
_atom_site_fract_y
_atom_site_fract_z
_atom_site_U_iso_or_equiv
_atom_site_adp_type
_atom_site_occupancy
_atom_site_site_symmetry_order
_atom_site_calc_flag
_atom_site_refinement_flags_posn
O1 O 0.4089(5) 1.0167(3) 0.8073(3) 0.0489(13) Uani 1 1 d .
C2 C 0.2906(6) 0.6581(4) 0.5544(4) 0.0235(13) Uani 1 1 d .
C15 C 0.2410(5) 0.4741(4) 0.4568(4) 0.0230(14) Uani 1 1 d .
C1 C 0.2956(6) 0.6902(4) 0.6994(4) 0.0236(13) Uani 1 1 d .
C13 C 0.2052(6) 0.3672(5) 0.6494(5) 0.0273(14) Uani 1 1 d .
H13 H 0.178572 0.273466 0.682316 0.033 Uiso 1 1 calc R
C4 C 0.3216(6) 0.7594(4) 0.3578(5) 0.0279(14) Uani 1 1 d .
H4 H 0.347449 0.853373 0.325101 0.033 Uiso 1 1 calc R
C11 C 0.1521(6) 0.1462(4) 0.4046(5) 0.0279(14) Uani 1 1 d .
H11 H 0.122498 0.050892 0.435456 0.033 Uiso 1 1 calc R
C12 C 0.1995(6) 0.3290(4) 0.5052(5) 0.0232(13) Uani 1 1 d .
C14 C 0.2508(6) 0.5452(4) 0.7427(4) 0.0319(14) Uani 1 1 d .
H14 H 0.251578 0.568626 0.837839 0.038 Uiso 1 1 calc R
C8 C 0.1958(7) 0.2180(5) 0.0708(5) 0.0321(15) Uani 1 1 d .
H8 H 0.169235 0.099237 0.007483 0.038 Uiso 1 1 calc R
C16 C 0.2367(6) 0.4347(4) 0.3098(4) 0.0215(13) Uani 1 1 d .
C9 C 0.1920(6) 0.2515(4) 0.2127(4) 0.0260(14) Uani 1 1 d .
C7 C 0.2381(7) 0.3574(5) 0.0225(5) 0.0384(15) Uani 1 1 d .
H7 H 0.241035 0.331644 -0.072348 0.046 Uiso 1 1 calc R
C3 C 0.3265(6) 0.7982(4) 0.4980(4) 0.0245(13) Uani 1 1 d .
H3 H 0.353838 0.918322 0.558785 0.029 Uiso 1 1 calc R
C10 C 0.1497(6) 0.1103(4) 0.2658(5) 0.0288(14) Uani 1 1 d .
H10 H 0.119694 -0.009394 0.203462 0.035 Uiso 1 1 calc R
C17 C 0.3530(6) 0.8689(5) 0.8154(4) 0.0378(16) Uani 1 1 d .
H17 H 0.346087 0.869549 0.905209 0.045 Uiso 1 1 calc R
C5 C 0.2771(6) 0.5764(4) 0.2596(4) 0.0228(13) Uani 1 1 d .
C6 C 0.2764(7) 0.5362(5) 0.1147(5) 0.0346(16) Uani 1 1 d .
H6 H 0.301396 0.629232 0.080899 0.041 Uiso 1 1 calc R
loop_
_atom_site_aniso_label
_atom_site_aniso_U_11
_atom_site_aniso_U_22
_atom_site_aniso_U_33
_atom_site_aniso_U_23
_atom_site_aniso_U_13
_atom_site_aniso_U_12
O1 0.077(2) 0.0231(14) 0.038(2) 0.0014(13) 0.026(2) 0.0025(13)
C2 0.024(2) 0.0228(17) 0.021(3) 0.0044(16) 0.007(2) 0.0044(13)
C15 0.026(2) 0.0181(16) 0.024(3) 0.0048(15) 0.012(2) 0.0049(13)
C1 0.025(2) 0.0240(17) 0.021(3) 0.0067(16) 0.007(2) 0.0063(14)
C13 0.031(2) 0.0313(18) 0.023(3) 0.0155(17) 0.008(3) 0.0067(15)
C4 0.037(2) 0.0196(16) 0.031(3) 0.0127(16) 0.012(3) 0.0067(14)
C11 0.033(2) 0.0201(17) 0.033(3) 0.0120(17) 0.011(3) 0.0050(14)
C12 0.027(2) 0.0207(16) 0.022(3) 0.0090(15) 0.008(2) 0.0045(13)
C14 0.041(2) 0.030(2) 0.025(3) 0.0074(17) 0.015(3) 0.0100(16)
C8 0.042(3) 0.0249(19) 0.025(3) 0.0048(18) 0.009(3) 0.0064(15)
C16 0.027(2) 0.0201(16) 0.018(3) 0.0073(15) 0.006(2) 0.0084(14)
C9 0.027(2) 0.0250(18) 0.022(3) 0.0057(16) 0.004(2) 0.0061(14)
C7 0.060(3) 0.035(2) 0.019(3) 0.0094(18) 0.011(3) 0.0095(18)
C3 0.032(2) 0.0164(15) 0.024(3) 0.0086(15) 0.006(3) 0.0043(13)
C10 0.037(2) 0.0150(15) 0.031(3) 0.0047(15) 0.008(3) 0.0078(14)
C17 0.049(3) 0.029(2) 0.032(3) 0.0034(18) 0.021(3) 0.0071(17)
C5 0.026(2) 0.0231(17) 0.019(3) 0.0092(16) 0.004(2) 0.0041(13)
C6 0.051(3) 0.031(2) 0.025(3) 0.0142(18) 0.011(3) 0.0099(17)
loop_
_atom_type_symbol
_atom_type_description
_atom_type_scat_dispersion_real
_atom_type_scat_dispersion_imag
_atom_type_scat_source
C C 0.0010 0.0010 'International Tables Vol C Tables 4.2.6.8 and 6.1.1.4'
H H 0.0000 0.0000 'International Tables Vol C Tables 4.2.6.8 and 6.1.1.4'
O O 0.0040 0.0030 'International Tables Vol C Tables 4.2.6.8 and 6.1.1.4'
loop_
_geom_angle_atom_site_label_1
_geom_angle_atom_site_label_2
_geom_angle_atom_site_label_3
_geom_angle
C15 C2 C3 117.8(3)
C1 C2 C15 118.0(4)
C1 C2 C3 124.2(3)
C12 C15 C2 120.6(3)
C12 C15 C16 119.3(3)
C16 C15 C2 120.1(4)
C2 C1 C17 125.6(4)
C14 C1 C2 119.9(3)
C14 C1 C17 114.4(3)
C12 C13 H13 120.2
C14 C13 H13 120.2
C14 C13 C12 119.6(4)
C3 C4 H4 119.4
C3 C4 C5 121.2(4)
C5 C4 H4 119.4
C12 C11 H11 119.4
C10 C11 H11 119.4
C10 C11 C12 121.2(4)
C15 C12 C11 119.1(3)
C13 C12 C15 119.4(3)
C13 C12 C11 121.5(4)
C1 C14 H14 118.8
C13 C14 C1 122.4(4)
C13 C14 H14 118.8
C9 C8 H8 119.3
C7 C8 H8 119.3
C7 C8 C9 121.4(3)
C9 C16 C15 120.3(4)
C5 C16 C15 120.2(3)
C5 C16 C9 119.5(3)
C8 C9 C16 118.9(4)
C8 C9 C10 122.6(3)
C10 C9 C16 118.5(3)
C8 C7 H7 119.8
C8 C7 C6 120.5(4)
C6 C7 H7 119.8
C2 C3 H3 119.2
C4 C3 C2 121.6(3)
C4 C3 H3 119.2
C11 C10 C9 121.6(3)
C11 C10 H10 119.2
C9 C10 H10 119.2
O1 C17 C1 127.5(4)
O1 C17 H17 116.3
C1 C17 H17 116.3
C16 C5 C4 119.1(3)
C16 C5 C6 119.7(3)
C6 C5 C4 121.2(4)
C7 C6 C5 120.0(4)
C7 C6 H6 120.0
C5 C6 H6 120.0
loop_
_geom_bond_atom_site_label_1
_geom_bond_atom_site_label_2
_geom_bond_distance
O1 C17 1.223(4)
C2 C15 1.434(4)
C2 C1 1.418(6)
C2 C3 1.439(6)
C15 C12 1.423(6)
C15 C16 1.430(5)
C1 C14 1.391(5)
C1 C17 1.470(4)
C13 H13 0.9300
C13 C12 1.402(6)
C13 C14 1.385(4)
C4 H4 0.9300
C4 C3 1.361(6)
C4 C5 1.433(4)
C11 H11 0.9300
C11 C12 1.438(4)
C11 C10 1.354(6)
C14 H14 0.9300
C8 H8 0.9300
C8 C9 1.396(6)
C8 C7 1.382(6)
C16 C9 1.430(4)
C16 C5 1.408(5)
C9 C10 1.428(6)
C7 H7 0.9300
C7 C6 1.391(4)
C3 H3 0.9300
C10 H10 0.9300
C17 H17 0.9300
C5 C6 1.413(6)
C6 H6 0.9300
loop_
_diffrn_oxdiff_twin_id
_diffrn_oxdiff_twin_ratio
_diffrn_oxdiff_twin_reflns_isolated
_diffrn_oxdiff_twin_reflns_overlapped
1 0.7441 2840 34
2 0.2559 2830 34
loop_
_twin_individual_id
_twin_individual_mass_fraction_refined
1 0.731(4)
2 0.269(4)

_cod_database_fobs_code 2108397
