#------------------------------------------------------------------------------
#$Date: 2022-06-09 04:56:52 +0300 (Thu, 09 Jun 2022) $
#$Revision: 275937 $
#$URL: file:///home/coder/svn-repositories/cod/cif/2/10/89/2108999.cif $
#------------------------------------------------------------------------------
#
# This file is available in the Crystallography Open Database (COD),
# http://www.crystallography.net/. The original data for this entry
# were provided by IUCr Journals, http://journals.iucr.org/.
#
# The file may be used within the scientific community so long as
# proper attribution is given to the journal article from which the
# data were obtained.
#
data_2108999
loop_
_publ_author_name
'Hoser, Anna Agnieszka'
'Rekis, Toms'
'Madsen, Anders \/Ostergaard'
_publ_section_title
;
 Dynamics and disorder: on the stability of pyrazinamide polymorphs
;
_journal_coeditor_code           SO5076
_journal_issue                   '3 Part 1'
_journal_name_full               'Acta Crystallographica Section B'
_journal_page_first              416
_journal_page_last               424
_journal_paper_doi               10.1107/S2052520622004577
_journal_volume                  78
_journal_year                    2022
_chemical_formula_sum            'C5 H5 N3 O'
_chemical_formula_weight         123.1
_chemical_name_common            Pyrazinamide
_space_group_IT_number           14
_space_group_name_Hall           '-P 2yn'
_space_group_name_H-M_alt        'P 1 21/n 1'
_symmetry_cell_setting           monoclinic
_symmetry_Int_Tables_number      14
_symmetry_space_group_name_Hall  '-P 2yn'
_symmetry_space_group_name_H-M   'P 1 21/n 1'
_cell_angle_alpha                90
_cell_angle_beta                 92.748(8)
_cell_angle_gamma                90
_cell_formula_units_Z            4
_cell_length_a                   3.5885(9)
_cell_length_b                   6.7605(17)
_cell_length_c                   22.434(6)
_cell_measurement_reflns_used    9779
_cell_measurement_temperature    10
_cell_measurement_theta_max      36.22
_cell_measurement_theta_min      3.15
_cell_volume                     543.6(2)
_diffrn_ambient_temperature      10
_diffrn_measured_fraction_theta_full 0.98
_diffrn_measured_fraction_theta_max 0.95
_diffrn_measurement_device       'four-circle diffractometer'
_diffrn_measurement_device_type  'Bruker CCD'
_diffrn_measurement_method       'Bruker CCD'
_diffrn_radiation_monochromator  graphite
_diffrn_radiation_probe          x-ray
_diffrn_radiation_source         'X-ray tube'
_diffrn_radiation_type           'Mo K\a'
_diffrn_radiation_wavelength     0.71073
_diffrn_reflns_av_R_equivalents  0.048
_diffrn_reflns_av_unetI/netI     0.0496
_diffrn_reflns_limit_h_max       4
_diffrn_reflns_limit_h_min       -5
_diffrn_reflns_limit_k_max       10
_diffrn_reflns_limit_k_min       -10
_diffrn_reflns_limit_l_max       36
_diffrn_reflns_limit_l_min       -35
_diffrn_reflns_number            9779
_diffrn_reflns_theta_full        35.75
_diffrn_reflns_theta_max         36.22
_diffrn_reflns_theta_min         3.15
_exptl_absorpt_coefficient_mu    0.112
_exptl_crystal_colour            colorless
_exptl_crystal_density_diffrn    1.5042
_exptl_crystal_description       prism
_exptl_crystal_F_000             256
_refine_diff_density_max         0.70
_refine_diff_density_min         -0.37
_refine_ls_extinction_method     none
_refine_ls_goodness_of_fit_gt    2.03
_refine_ls_goodness_of_fit_ref   1.72
_refine_ls_hydrogen_treatment    constr
_refine_ls_number_constraints    0
_refine_ls_number_parameters     82
_refine_ls_number_reflns         2486
_refine_ls_number_restraints     0
_refine_ls_R_factor_all          0.0773
_refine_ls_R_factor_gt           0.0432
_refine_ls_shift/su_max          0.0086
_refine_ls_shift/su_mean         0.0012
_refine_ls_structure_factor_coef F
_refine_ls_weighting_details     w=1/(\s^2^(F)+0.0001F^2^)
_refine_ls_weighting_scheme      sigma
_refine_ls_wR_factor_gt          0.0479
_refine_ls_wR_factor_ref         0.0502
_reflns_number_gt                1669
_reflns_number_total             2486
_reflns_threshold_expression     I>3\s(I)
_cod_data_source_file            so5076sup1.cif
_cod_data_source_block           alpha10K
_cod_depositor_comments
;
The following automatic conversions were performed:

data item '_diffrn_radiation_probe' value 'X-ray' was changed to
'x-ray' in accordance with the
/home/data/users/saulius/crontab/automatic-downloads/rss-feeds/IUCr/lib/dictionaries/cif_core.dic
dictionary named 'cif_core.dic' version 2.4.2 last updated on
2011-04-26.

Automatic conversion script
Id: cif_fix_values 7556 2019-12-06 15:28:31Z antanas 
;
_cod_original_sg_symbol_Hall     '-P 2yabc'
_cod_original_formula_sum        'C5 H5 N3 O1'
_cod_database_code               2108999
loop_
_space_group_symop_id
_space_group_symop_operation_xyz
1 x,y,z
2 -x+1/2,y+1/2,-z+1/2
3 -x,-y,-z
4 x+1/2,-y+1/2,z+1/2
loop_
_atom_site_label
_atom_site_type_symbol
_atom_site_fract_x
_atom_site_fract_y
_atom_site_fract_z
_atom_site_adp_type
_atom_site_U_iso_or_equiv
_atom_site_site_symmetry_multiplicity
_atom_site_occupancy
_atom_site_calc_flag
_atom_site_refinement_flags
_atom_site_disorder_assembly
_atom_site_disorder_group
O1 O 0.04626(17) 0.96722(10) 0.08394(3) Uani 0.00907(18) 4 1 d . . .
N1 N 0.4338(2) 0.56610(12) 0.21265(4) Uani 0.0080(2) 4 1 d . . .
N2 N 0.4628(2) 0.48882(12) 0.08984(3) Uani 0.0071(2) 4 1 d . . .
N3 N 0.2338(2) 0.77105(11) 0.00877(3) Uani 0.0094(2) 4 1 d . . .
C1 C 0.3353(2) 0.66144(13) 0.11036(4) Uani 0.0059(2) 4 1 d . . .
C2 C 0.5534(2) 0.39283(13) 0.19177(4) Uani 0.0080(2) 4 1 d . . .
C3 C 0.1950(2) 0.81339(12) 0.06601(3) Uani 0.0066(2) 4 1 d . . .
C4 C 0.5700(2) 0.35444(14) 0.13091(4) Uani 0.0076(2) 4 1 d . . .
C5 C 0.3239(2) 0.70026(14) 0.17137(4) Uani 0.0072(2) 4 1 d . . .
H1n3 H 0.342764 0.661784 -0.001192 Uiso 0.0113 4 1 d . . .
H2n3 H 0.150182 0.852614 -0.01873 Uiso 0.0113 4 1 d . . .
H1c2 H 0.630481 0.291554 0.219712 Uiso 0.0096 4 1 d . . .
H1c4 H 0.660583 0.228466 0.118164 Uiso 0.0091 4 1 d . . .
H1c5 H 0.235047 0.826543 0.184153 Uiso 0.0086 4 1 d . . .
loop_
_atom_site_aniso_label
_atom_site_aniso_type_symbol
_atom_site_aniso_U_11
_atom_site_aniso_U_22
_atom_site_aniso_U_33
_atom_site_aniso_U_12
_atom_site_aniso_U_13
_atom_site_aniso_U_23
O1 O 0.0118(3) 0.0069(3) 0.0086(3) 0.0031(3) 0.0010(2) -0.0001(3)
N1 N 0.0090(4) 0.0077(3) 0.0074(4) 0.0000(3) 0.0006(3) 0.0004(3)
N2 N 0.0074(4) 0.0063(3) 0.0078(3) 0.0003(3) 0.0008(3) 0.0003(3)
N3 N 0.0144(4) 0.0081(4) 0.0058(4) 0.0046(3) 0.0005(3) 0.0010(3)
C1 C 0.0055(4) 0.0056(4) 0.0065(4) -0.0004(3) 0.0007(3) 0.0005(3)
C2 C 0.0082(4) 0.0080(4) 0.0077(4) 0.0001(3) -0.0001(3) 0.0019(3)
C3 C 0.0060(4) 0.0066(4) 0.0072(4) -0.0001(3) 0.0006(3) 0.0005(3)
C4 C 0.0079(4) 0.0060(4) 0.0090(4) 0.0008(3) 0.0013(3) 0.0002(3)
C5 C 0.0071(4) 0.0070(4) 0.0074(4) 0.0001(3) 0.0011(3) -0.0005(3)
loop_
_atom_type_symbol
_atom_type_scat_dispersion_real
_atom_type_scat_dispersion_imag
_atom_type_scat_source
C 0.0033 0.0016 'International Tables Vol C tables 4.2.6.8 and 6.1.1.1'
H 0.0000 0.0000 'International Tables Vol C tables 4.2.6.8 and 6.1.1.1'
N 0.0061 0.0033 'International Tables Vol C tables 4.2.6.8 and 6.1.1.1'
O 0.0106 0.0060 'International Tables Vol C tables 4.2.6.8 and 6.1.1.1'
loop_
_diffrn_standard_refln_index_h
_diffrn_standard_refln_index_k
_diffrn_standard_refln_index_l
? ? ?
loop_
_exptl_crystal_face_index_h
_exptl_crystal_face_index_k
_exptl_crystal_face_index_l
_exptl_crystal_face_perp_dist
? ? ? ?
loop_
_geom_angle_atom_site_label_1
_geom_angle_atom_site_label_2
_geom_angle_atom_site_label_3
_geom_angle_site_symmetry_1
_geom_angle_site_symmetry_2
_geom_angle_site_symmetry_3
_geom_angle
_geom_angle_publ_flag
C2 N1 C5 . . . 115.97(8) ?
C1 N2 C4 . . . 116.47(8) ?
C3 N3 H1n3 . . . 120 ?
C3 N3 H2n3 . . . 120 ?
H1n3 N3 H2n3 . . . 120 ?
N2 C1 C3 . . . 118.47(8) ?
N2 C1 C5 . . . 121.72(8) ?
C3 C1 C5 . . . 119.80(8) ?
N1 C2 C4 . . . 122.33(8) ?
N1 C2 H1c2 . . . 118.84 ?
C4 C2 H1c2 . . . 118.84 ?
O1 C3 N3 . . . 123.95(8) ?
O1 C3 C1 . . . 119.55(7) ?
N3 C3 C1 . . . 116.49(7) ?
N2 C4 C2 . . . 121.60(8) ?
N2 C4 H1c4 . . . 119.2 ?
C2 C4 H1c4 . . . 119.2 ?
N1 C5 C1 . . . 121.88(9) ?
N1 C5 H1c5 . . . 119.06 ?
C1 C5 H1c5 . . . 119.06 ?
loop_
_geom_bond_atom_site_label_1
_geom_bond_atom_site_label_2
_geom_bond_site_symmetry_1
_geom_bond_site_symmetry_2
_geom_bond_distance
_geom_bond_publ_flag
O1 C3 . . 1.2446(11) ?
N1 C2 . . 1.3399(13) ?
N1 C5 . . 1.3419(13) ?
N2 C1 . . 1.3429(13) ?
N2 C4 . . 1.3372(13) ?
N3 C3 . . 1.3295(12) ?
N3 H1n3 . . 0.87 ?
N3 H2n3 . . 0.87 ?
C1 C3 . . 1.5002(13) ?
C1 C5 . . 1.3961(14) ?
C2 C4 . . 1.3940(14) ?
C2 H1c2 . . 0.96 ?
C4 H1c4 . . 0.96 ?
C5 H1c5 . . 0.96 ?
loop_
_geom_hbond_atom_site_label_D
_geom_hbond_atom_site_label_H
_geom_hbond_atom_site_label_A
_geom_hbond_site_symmetry_D
_geom_hbond_site_symmetry_H
_geom_hbond_site_symmetry_A
_geom_hbond_distance_DH
_geom_hbond_distance_HA
_geom_hbond_distance_DA
_geom_hbond_angle_DHA
_geom_hbond_publ_flag
N3 H1n3 N2 . . 3_665 0.87 2.37 3.0655(14) 137.28 ?
N3 H2n3 O1 . . 3_575 0.87 2.01 2.8752(14) 178.06 ?
C4 H1c4 O1 . . 1_645 0.96 2.39 3.3252(16) 163.66 ?
loop_
_geom_torsion_atom_site_label_1
_geom_torsion_atom_site_label_2
_geom_torsion_atom_site_label_3
_geom_torsion_atom_site_label_4
_geom_torsion_site_symmetry_1
_geom_torsion_site_symmetry_2
_geom_torsion_site_symmetry_3
_geom_torsion_site_symmetry_4
_geom_torsion
_geom_torsion_publ_flag
? ? ? ? ? ? ? ? ? ?
loop_
_refln_index_h
_refln_index_k
_refln_index_l
_refln_F_squared_calc
_refln_F_squared_meas
_refln_F_squared_sigma
_refln_observed_status
2 0 0 202.39 213.72 5.27 o
4 0 0 39.74 47.32 3.78 o
1 1 0 8689.61 9509.97 95.92 o
2 1 0 418.03 456.16 6.66 o
3 1 0 89.15 91.45 2.09 o
4 1 0 35.82 45.43 2.39 o
5 1 0 5.59 3.18 2.78 <
0 2 0 18.97 4.57 0.60 o
1 2 0 222.51 246.22 3.18 o
2 2 0 2449.80 2680.03 42.94 o
3 2 0 307.25 322.07 5.86 o
4 2 0 11.37 9.64 2.29 o
5 2 0 3.38 2.09 4.77 <
1 3 0 5.55 6.46 0.70 o
2 3 0 69.68 74.75 1.69 o
3 3 0 617.08 648.41 14.02 o
4 3 0 38.13 39.96 3.28 o
5 3 0 26.16 22.37 4.77 o
0 4 0 135.85 131.91 4.27 o
1 4 0 1.56 0.50 0.60 <
2 4 0 3.35 4.97 0.80 o
3 4 0 29.19 29.42 1.89 o
4 4 0 75.02 74.85 4.77 o
5 4 0 38.52 30.22 5.57 o
1 5 0 93.91 89.26 2.68 o
2 5 0 112.54 113.42 2.49 o
3 5 0 94.06 92.54 3.48 o
4 5 0 9.48 5.47 3.58 <
5 5 0 111.17 114.41 7.36 o
0 6 0 188.04 181.81 6.06 o
1 6 0 92.67 96.02 2.58 o
2 6 0 0.15 0.80 0.99 <
3 6 0 22.88 20.87 2.09 o
4 6 0 6.15 3.68 4.17 <
5 6 0 117.78 116.60 11.23 o
1 7 0 26.35 28.33 2.09 o
2 7 0 7.31 7.65 1.49 o
3 7 0 28.60 34.19 2.78 o
4 7 0 104.05 115.11 9.24 o
0 8 0 11.11 9.54 2.88 o
1 8 0 13.26 13.82 2.09 o
2 8 0 66.86 69.09 3.08 o
3 8 0 63.53 77.93 4.57 o
4 8 0 12.20 10.64 8.45 <
1 9 0 0.72 0.00 2.98 <
2 9 0 13.98 19.18 3.08 o
3 9 0 27.96 19.98 4.77 o
0 10 0 0.66 -3.58 4.57 <
1 10 0 34.74 31.11 4.17 o
2 10 0 5.40 5.57 3.18 <
-5 0 1 0.52 4.97 3.58 <
-3 0 1 1.80 1.39 0.89 <
-1 0 1 145.19 150.40 2.88 o
1 0 1 3154.83 3294.24 52.49 o
3 0 1 3.67 3.78 0.99 o
5 0 1 52.56 63.92 5.17 o
-5 1 1 21.02 18.59 2.68 o
-4 1 1 5.70 6.66 1.69 o
-3 1 1 167.56 184.99 3.08 o
-2 1 1 47.65 47.22 1.09 o
-1 1 1 2997.09 3188.78 32.11 o
0 1 1 278.92 259.64 3.78 o
1 1 1 4852.28 5055.09 49.40 o
2 1 1 415.29 441.55 6.76 o
3 1 1 27.93 29.72 1.29 o
4 1 1 1.47 3.18 1.69 <
5 1 1 0.63 -2.78 2.88 <
-5 2 1 33.36 29.62 3.88 o
-4 2 1 32.08 25.55 2.58 o
-3 2 1 169.87 165.81 3.48 o
-2 2 1 164.71 154.87 2.68 o
-1 2 1 12.27 11.83 0.40 o
0 2 1 70.92 59.54 1.29 o
1 2 1 51.46 49.60 0.80 o
2 2 1 1130.22 1221.77 18.39 o
3 2 1 177.96 185.99 3.58 o
4 2 1 10.43 10.34 1.89 o
5 2 1 177.72 169.98 7.75 o
-5 3 1 0.06 -2.39 4.77 <
-4 3 1 159.29 154.57 6.46 o
-3 3 1 143.25 141.55 4.47 o
-2 3 1 121.27 117.79 2.49 o
-1 3 1 387.29 417.99 6.66 o
0 3 1 37.17 38.37 1.39 o
1 3 1 49.26 49.30 1.29 o
2 3 1 24.76 26.34 1.19 o
3 3 1 249.65 258.65 6.76 o
4 3 1 705.53 714.42 21.57 o
5 3 1 17.96 6.46 4.97 <
-5 4 1 67.34 78.33 6.16 o
-4 4 1 157.26 157.36 6.76 o
-3 4 1 58.34 56.96 3.28 o
-2 4 1 34.71 34.79 1.39 o
-1 4 1 203.04 205.17 4.57 o
0 4 1 9.86 12.33 0.70 o
1 4 1 7.94 7.65 0.99 o
2 4 1 135.39 128.63 2.68 o
3 4 1 184.81 183.60 5.27 o
4 4 1 129.63 120.97 5.86 o
5 4 1 101.67 91.05 7.16 o
-5 5 1 0.35 -2.49 5.47 <
-4 5 1 3.13 -0.30 4.67 <
-3 5 1 0.07 -2.09 1.89 <
-2 5 1 37.65 34.69 1.39 o
-1 5 1 12.70 15.61 1.09 o
0 5 1 77.74 78.83 2.19 o
1 5 1 32.71 27.53 1.49 o
2 5 1 290.18 287.87 5.07 o
3 5 1 41.89 42.45 2.39 o
4 5 1 16.59 8.85 3.58 <
5 5 1 83.93 63.42 5.96 o
-5 6 1 18.36 23.16 7.36 o
-4 6 1 58.71 53.88 4.77 o
-3 6 1 1.92 0.60 2.39 <
-2 6 1 32.35 36.68 1.89 o
-1 6 1 0.13 0.70 0.80 <
0 6 1 72.13 74.95 2.29 o
1 6 1 129.19 124.06 3.08 o
2 6 1 1.47 2.98 1.19 <
3 6 1 8.87 3.68 2.19 <
4 6 1 5.85 -0.10 4.08 <
5 6 1 1.01 -1.89 12.62 <
-4 7 1 48.05 48.71 5.17 o
-3 7 1 3.67 2.78 2.68 <
-2 7 1 32.17 32.90 2.09 o
-1 7 1 72.62 67.99 2.88 o
0 7 1 207.02 212.13 4.67 o
1 7 1 13.58 13.62 1.39 o
2 7 1 53.07 57.46 2.49 o
3 7 1 24.15 22.56 3.18 o
4 7 1 1.58 -0.10 5.07 <
-4 8 1 0.44 -0.40 6.06 <
-3 8 1 73.76 77.54 4.57 o
-2 8 1 1.24 2.68 1.89 <
-1 8 1 211.13 222.86 6.16 o
0 8 1 23.69 27.24 2.39 o
1 8 1 12.28 11.33 1.99 o
2 8 1 70.48 70.18 3.28 o
3 8 1 0.66 -0.50 3.48 <
4 8 1 8.11 13.32 5.07 <
-3 9 1 4.15 -2.09 5.77 <
-2 9 1 167.88 180.62 5.86 o
-1 9 1 101.48 120.18 5.96 o
0 9 1 1.65 0.80 2.88 <
1 9 1 64.97 66.00 4.87 o
2 9 1 5.91 3.88 2.68 <
3 9 1 36.98 25.55 4.97 o
-2 10 1 67.35 69.78 4.37 o
-1 10 1 0.06 7.06 3.78 <
0 10 1 109.67 122.27 7.55 o
1 10 1 15.57 15.81 3.88 o
2 10 1 25.45 23.96 3.38 o
-4 0 2 355.40 383.30 10.74 o
-2 0 2 272.36 303.48 5.27 o
2 0 2 340.10 341.25 7.36 o
4 0 2 11.23 3.88 2.58 <
-5 1 2 87.84 88.67 4.08 o
-4 1 2 0.04 0.30 1.49 <
-3 1 2 15.35 15.81 0.89 o
-2 1 2 1430.79 1652.49 24.55 o
-1 1 2 9.73 10.84 0.30 o
0 1 2 974.86 976.44 13.52 o
1 1 2 4.62 4.67 0.20 o
2 1 2 6.60 9.54 0.50 o
3 1 2 18.86 19.38 1.09 o
4 1 2 11.49 8.05 1.59 o
5 1 2 1.32 1.29 2.68 <
-5 2 2 0.67 0.99 3.28 <
-4 2 2 45.96 40.56 2.98 o
-3 2 2 434.20 460.34 8.15 o
-2 2 2 304.78 316.01 5.27 o
-1 2 2 409.88 427.93 5.27 o
0 2 2 241.92 217.50 3.48 o
1 2 2 539.97 558.05 6.46 o
2 2 2 177.05 171.77 4.27 o
3 2 2 38.95 38.17 1.49 o
4 2 2 2.85 3.08 1.99 <
5 2 2 214.26 202.98 9.05 o
-5 3 2 140.93 139.16 7.36 o
-4 3 2 209.83 212.43 10.93 o
-3 3 2 5.48 5.07 1.49 o
-2 3 2 0.80 1.19 0.60 <
-1 3 2 160.22 191.75 3.18 o
0 3 2 40.97 43.74 1.69 o
1 3 2 68.54 68.29 1.79 o
2 3 2 128.49 138.27 2.88 o
3 3 2 157.36 152.59 4.57 o
4 3 2 200.29 219.09 8.05 o
5 3 2 98.49 80.32 5.77 o
-5 4 2 209.61 191.65 9.15 o
-4 4 2 4.48 3.08 3.58 <
-3 4 2 2.11 2.19 1.99 <
-2 4 2 1.35 1.49 0.89 <
-1 4 2 109.29 104.47 2.39 o
0 4 2 574.01 633.70 12.72 o
1 4 2 16.32 20.18 1.19 o
2 4 2 73.99 70.28 2.09 o
3 4 2 900.51 936.58 22.07 o
4 4 2 233.96 225.45 8.75 o
5 4 2 7.44 5.07 4.87 <
-5 5 2 0.75 -0.70 5.57 <
-4 5 2 2.67 3.28 3.48 <
-3 5 2 0.01 0.99 1.99 <
-2 5 2 51.80 56.46 1.89 o
-1 5 2 118.81 113.72 2.49 o
0 5 2 82.13 80.52 2.19 o
1 5 2 321.85 326.84 7.26 o
2 5 2 446.39 424.06 7.65 o
3 5 2 91.71 90.06 3.48 o
4 5 2 40.54 41.95 3.88 o
5 5 2 1.43 -3.38 5.57 <
-4 6 2 7.64 5.47 4.17 <
-3 6 2 1.60 3.38 2.39 <
-2 6 2 63.09 64.02 2.58 o
-1 6 2 11.42 10.74 1.29 o
0 6 2 124.17 116.80 2.78 o
1 6 2 824.76 844.93 17.50 o
2 6 2 143.31 141.95 3.48 o
3 6 2 10.06 7.75 2.09 o
4 6 2 21.88 20.38 4.27 o
-4 7 2 0.06 -3.48 4.87 <
-3 7 2 40.24 49.50 3.28 o
-2 7 2 11.90 15.31 1.99 o
-1 7 2 90.53 86.38 3.28 o
0 7 2 342.17 348.31 6.96 o
1 7 2 53.71 49.01 2.19 o
2 7 2 2.14 1.49 1.39 <
3 7 2 12.02 5.77 2.78 <
4 7 2 3.71 8.85 5.47 <
-4 8 2 4.13 1.09 6.16 <
-3 8 2 24.29 23.36 3.68 o
-2 8 2 38.18 37.38 2.39 o
-1 8 2 77.12 71.17 3.48 o
0 8 2 31.75 29.03 2.29 o
1 8 2 23.85 29.03 2.39 o
2 8 2 8.28 8.15 2.09 o
3 8 2 6.43 6.56 3.58 <
4 8 2 2.26 6.16 6.46 <
-3 9 2 3.73 3.88 6.06 <
-2 9 2 21.41 23.16 2.58 o
-1 9 2 3.75 2.19 4.57 <
0 9 2 68.61 64.61 4.47 o
1 9 2 2.03 5.47 2.68 <
2 9 2 0.84 2.88 2.78 <
3 9 2 2.47 0.70 4.97 <
-2 10 2 0.60 3.28 3.28 <
-1 10 2 55.48 53.08 5.17 o
0 10 2 4.57 0.70 3.68 <
1 10 2 3.93 2.88 3.68 <
2 10 2 5.63 -1.69 3.58 <
-5 0 3 32.91 32.11 4.87 o
-3 0 3 38.64 43.14 1.99 o
-1 0 3 8102.65 8720.11 129.03 o
1 0 3 673.67 691.75 10.44 o
3 0 3 82.45 89.76 3.08 o
5 0 3 3.08 4.17 4.17 <
-5 1 3 0.09 9.05 3.98 <
-4 1 3 4.13 4.47 1.69 <
-3 1 3 288.23 312.13 5.07 o
-2 1 3 508.95 550.20 7.46 o
-1 1 3 362.02 407.76 4.57 o
0 1 3 3262.94 3457.66 45.03 o
1 1 3 58.94 50.60 0.70 o
2 1 3 12.07 11.63 0.60 o
3 1 3 188.54 197.91 3.68 o
4 1 3 5.39 5.96 1.49 o
5 1 3 11.28 13.42 2.98 o
-5 2 3 6.20 9.64 3.58 <
-4 2 3 117.64 122.66 4.37 o
-3 2 3 587.63 639.66 10.93 o
-2 2 3 769.90 858.05 12.03 o
-1 2 3 60.68 72.47 1.19 o
0 2 3 559.88 575.25 7.75 o
1 2 3 25.20 26.64 0.70 o
2 2 3 79.81 91.75 2.68 o
3 2 3 0.07 1.19 0.99 <
4 2 3 15.08 13.42 2.29 o
5 2 3 200.75 188.27 8.25 o
-5 3 3 52.81 65.90 5.96 o
-4 3 3 342.32 345.13 9.15 o
-3 3 3 159.58 171.87 4.77 o
-2 3 3 44.79 43.14 1.19 o
-1 3 3 990.05 1109.65 15.81 o
0 3 3 1048.91 1176.84 21.07 o
1 3 3 11.21 13.22 0.89 o
2 3 3 38.70 44.33 1.39 o
3 3 3 13.35 23.36 2.19 o
4 3 3 254.55 270.38 9.44 o
5 3 3 179.22 170.98 8.15 o
-5 4 3 186.03 167.60 9.05 o
-4 4 3 37.46 34.29 3.28 o
-3 4 3 15.62 16.40 2.39 o
-2 4 3 144.96 143.14 3.28 o
-1 4 3 36.94 34.89 1.69 o
0 4 3 281.68 314.71 6.66 o
1 4 3 179.61 193.34 6.16 o
2 4 3 239.93 243.04 4.77 o
3 4 3 181.77 173.36 5.07 o
4 4 3 59.12 51.39 3.98 o
5 4 3 27.02 25.94 4.37 o
-5 5 3 0.19 4.97 5.37 <
-4 5 3 4.97 5.47 3.68 <
-3 5 3 22.32 22.47 2.49 o
-2 5 3 8.34 9.05 1.09 o
-1 5 3 60.40 54.47 1.99 o
0 5 3 46.60 47.22 1.39 o
1 5 3 616.24 640.36 13.32 o
2 5 3 704.04 711.23 13.42 o
3 5 3 1.02 2.29 1.69 <
4 5 3 0.39 1.69 3.58 <
5 5 3 10.51 0.20 5.47 <
-4 6 3 2.10 1.99 4.08 <
-3 6 3 0.43 3.48 2.19 <
-2 6 3 30.90 29.72 1.79 o
-1 6 3 94.93 94.83 3.08 o
0 6 3 444.19 451.79 8.55 o
1 6 3 122.52 113.62 3.38 o
2 6 3 39.15 45.03 2.29 o
3 6 3 64.47 63.42 3.58 o
4 6 3 89.31 97.71 6.46 o
-4 7 3 0.43 2.68 5.07 <
-3 7 3 2.79 4.47 2.88 <
-2 7 3 151.40 154.87 4.37 o
-1 7 3 354.54 350.10 8.25 o
0 7 3 50.17 48.61 2.29 o
1 7 3 60.99 64.21 2.39 o
2 7 3 3.61 3.68 1.39 <
3 7 3 115.83 118.39 4.87 o
4 7 3 38.56 45.53 4.87 o
-4 8 3 11.70 -2.39 6.16 <
-3 8 3 140.14 150.50 6.06 o
-2 8 3 150.44 156.46 5.47 o
-1 8 3 6.45 6.66 1.99 o
0 8 3 67.73 69.19 3.08 o
1 8 3 4.53 4.47 1.69 <
2 8 3 144.21 140.96 4.17 o
3 8 3 4.71 2.49 3.48 <
4 8 3 22.29 16.60 8.75 <
-3 9 3 109.86 109.14 7.46 o
-2 9 3 2.63 2.39 2.78 <
-1 9 3 12.00 11.83 2.98 o
0 9 3 12.63 12.72 2.98 o
1 9 3 103.44 106.16 5.07 o
2 9 3 12.03 13.52 4.08 o
3 9 3 45.49 30.32 5.67 o
-2 10 3 7.85 8.05 3.28 <
-1 10 3 5.34 5.17 3.78 <
0 10 3 21.45 20.58 3.88 o
1 10 3 4.80 9.34 3.68 <
2 10 3 27.63 27.04 5.57 o
-4 0 4 15.59 10.34 2.09 o
-2 0 4 35.98 30.91 1.09 o
0 0 4 1178.81 1206.96 23.56 o
2 0 4 939.17 984.79 19.48 o
4 0 4 176.19 188.37 5.47 o
-5 1 4 9.34 8.65 2.88 <
-4 1 4 78.14 79.52 2.98 o
-3 1 4 3.29 3.18 0.60 o
-2 1 4 189.45 218.29 3.18 o
-1 1 4 212.87 230.91 2.58 o
0 1 4 381.14 385.49 5.17 o
1 1 4 1003.33 1079.33 11.43 o
2 1 4 172.61 176.44 2.78 o
3 1 4 10.94 8.55 1.09 o
4 1 4 5.59 5.67 1.59 o
5 1 4 3.54 2.39 3.28 <
-5 2 4 34.90 33.30 4.17 o
-4 2 4 0.51 -0.89 1.99 <
-3 2 4 4.43 4.77 0.99 o
-2 2 4 10.69 15.41 0.60 o
-1 2 4 9.87 12.52 0.50 o
0 2 4 339.93 335.39 5.27 o
1 2 4 650.30 686.09 8.75 o
2 2 4 0.54 0.40 0.60 <
3 2 4 0.03 -0.50 1.09 <
4 2 4 351.62 362.03 8.65 o
5 2 4 0.20 -1.29 4.47 <
-5 3 4 9.10 6.96 4.37 <
-4 3 4 1.70 -1.29 2.49 <
-3 3 4 0.63 1.79 1.29 <
-2 3 4 168.07 178.23 2.78 o
-1 3 4 49.23 39.76 1.29 o
0 3 4 29.71 25.25 0.99 o
1 3 4 42.46 53.88 1.69 o
2 3 4 1.85 0.60 0.60 <
3 3 4 405.71 409.05 10.24 o
4 3 4 1.08 1.59 2.88 <
5 3 4 21.84 15.81 4.77 o
-5 4 4 12.74 12.23 5.27 <
-4 4 4 0.04 -8.05 3.58 <
-3 4 4 95.98 97.71 4.08 o
-2 4 4 15.77 11.03 1.09 o
-1 4 4 313.32 337.18 8.05 o
0 4 4 35.30 42.25 1.49 o
1 4 4 311.44 307.16 5.96 o
2 4 4 393.34 372.57 6.76 o
3 4 4 6.98 8.15 1.59 o
4 4 4 7.88 8.75 3.68 <
5 4 4 18.55 11.73 5.37 <
-5 5 4 9.90 5.37 8.85 <
-4 5 4 104.97 107.75 5.86 o
-3 5 4 10.29 5.77 2.68 <
-2 5 4 179.93 168.39 4.17 o
-1 5 4 0.93 3.28 0.89 o
0 5 4 39.77 36.88 1.19 o
1 5 4 578.19 542.55 11.43 o
2 5 4 165.76 168.99 3.98 o
3 5 4 1.33 2.88 1.69 <
4 5 4 30.33 22.86 4.17 o
5 5 4 1.80 -8.45 7.46 <
-4 6 4 33.29 39.56 4.17 o
-3 6 4 145.96 152.19 4.47 o
-2 6 4 5.55 2.58 1.39 <
-1 6 4 26.86 30.22 1.89 o
0 6 4 665.25 661.14 12.13 o
1 6 4 15.27 12.82 1.29 o
2 6 4 3.65 4.77 1.29 o
3 6 4 125.94 121.87 4.47 o
4 6 4 11.07 5.37 4.27 <
-4 7 4 18.96 13.22 5.07 <
-3 7 4 30.11 22.86 2.98 o
-2 7 4 15.27 17.40 1.79 o
-1 7 4 577.58 585.19 12.72 o
0 7 4 0.10 -1.79 0.89 <
1 7 4 8.00 6.96 1.09 o
2 7 4 12.90 11.23 1.69 o
3 7 4 1.94 3.48 2.49 <
4 7 4 16.49 7.06 5.57 <
-4 8 4 2.09 -7.95 7.26 <
-3 8 4 81.33 71.97 4.08 o
-2 8 4 427.11 433.80 11.43 o
-1 8 4 10.15 12.82 2.19 o
0 8 4 6.56 5.86 1.99 <
1 8 4 4.18 4.57 1.79 <
2 8 4 4.45 7.55 2.49 o
3 8 4 1.56 5.17 3.58 <
4 8 4 4.25 -2.19 8.25 <
-3 9 4 157.37 149.30 8.15 o
-2 9 4 0.10 -0.50 2.29 <
-1 9 4 1.63 4.87 2.98 <
0 9 4 22.36 26.24 3.18 o
1 9 4 4.28 9.15 2.78 o
2 9 4 32.96 31.61 3.68 o
3 9 4 6.25 -3.38 5.77 <
-2 10 4 4.60 4.47 3.28 <
-1 10 4 3.96 7.55 3.98 <
0 10 4 4.79 5.07 3.58 <
1 10 4 39.24 41.75 4.37 o
2 10 4 0.96 -0.89 5.07 <
-5 0 5 214.00 220.58 8.55 o
-3 0 5 21.36 21.37 1.79 o
-1 0 5 48.85 51.19 0.99 o
1 0 5 1310.50 1423.46 22.86 o
3 0 5 263.93 263.12 5.57 o
5 0 5 110.36 96.02 5.57 o
-5 1 5 5.99 6.86 3.38 <
-4 1 5 95.22 101.89 3.38 o
-3 1 5 87.69 99.50 2.49 o
-2 1 5 0.45 0.30 0.30 <
-1 1 5 237.77 224.75 2.68 o
0 1 5 518.82 555.97 8.45 o
1 1 5 227.38 207.95 2.49 o
2 1 5 536.58 570.38 10.64 o
3 1 5 256.19 263.22 4.37 o
4 1 5 96.71 96.92 2.68 o
5 1 5 238.01 202.19 6.36 o
-5 2 5 19.43 20.97 3.48 o
-4 2 5 47.62 47.61 3.18 o
-3 2 5 45.28 51.19 1.89 o
-2 2 5 232.68 250.20 3.38 o
-1 2 5 124.68 131.01 1.99 o
0 2 5 24.94 21.67 0.60 o
1 2 5 244.93 243.24 3.48 o
2 2 5 129.76 146.62 2.68 o
3 2 5 96.02 94.83 2.68 o
4 2 5 69.29 67.00 2.68 o
5 2 5 6.76 12.82 4.67 <
-5 3 5 19.75 13.32 7.36 <
-4 3 5 6.37 0.60 2.58 <
-3 3 5 49.58 49.20 2.19 o
-2 3 5 17.05 19.98 0.89 o
-1 3 5 0.38 0.00 0.60 <
0 3 5 102.47 105.96 2.29 o
1 3 5 247.93 258.85 5.37 o
2 3 5 1.33 1.79 0.60 <
3 3 5 266.31 266.20 6.56 o
4 3 5 12.11 4.97 2.68 <
5 3 5 4.95 6.46 4.47 <
-5 4 5 3.96 11.83 7.06 <
-4 4 5 5.73 4.37 3.98 <
-3 4 5 13.09 8.35 2.29 o
-2 4 5 18.18 19.28 1.49 o
-1 4 5 22.67 28.53 2.39 o
0 4 5 197.02 227.04 6.86 o
1 4 5 5.49 5.86 0.70 o
2 4 5 408.54 393.74 7.06 o
3 4 5 92.69 90.95 3.38 o
4 4 5 24.41 15.41 3.78 o
5 4 5 5.14 10.64 4.97 <
-5 5 5 8.32 7.26 8.35 <
-4 5 5 27.84 20.48 4.17 o
-3 5 5 33.46 35.59 2.88 o
-2 5 5 42.64 27.63 2.09 o
-1 5 5 53.73 40.95 2.09 o
0 5 5 157.65 165.90 3.88 o
1 5 5 419.85 381.02 8.35 o
2 5 5 99.99 92.54 2.68 o
3 5 5 31.75 30.42 2.29 o
4 5 5 25.90 17.79 3.88 o
5 5 5 2.16 0.20 6.96 <
-4 6 5 20.84 12.43 4.97 <
-3 6 5 53.00 53.58 2.78 o
-2 6 5 12.03 9.64 1.59 o
-1 6 5 235.71 222.17 5.57 o
0 6 5 352.43 365.31 7.06 o
1 6 5 213.70 193.44 5.77 o
2 6 5 4.59 3.98 1.19 o
3 6 5 12.11 11.93 2.49 o
4 6 5 2.91 5.86 4.67 <
-4 7 5 0.06 2.68 5.86 <
-3 7 5 3.05 2.29 2.88 <
-2 7 5 159.19 153.98 4.37 o
-1 7 5 287.64 306.46 8.25 o
0 7 5 277.14 248.51 5.27 o
1 7 5 2.25 2.68 1.19 <
2 7 5 32.55 31.51 2.09 o
3 7 5 30.06 27.63 3.08 o
4 7 5 32.89 29.62 5.47 o
-4 8 5 4.11 3.88 10.44 <
-3 8 5 5.07 7.46 3.68 <
-2 8 5 231.03 231.81 6.16 o
-1 8 5 106.07 100.70 4.27 o
0 8 5 0.24 0.20 1.69 <
1 8 5 82.74 75.45 4.77 o
2 8 5 68.94 68.49 3.38 o
3 8 5 8.54 6.06 3.28 <
-3 9 5 189.11 182.70 7.55 o
-2 9 5 0.18 3.28 2.29 <
-1 9 5 3.27 3.08 2.49 <
0 9 5 13.25 13.22 2.88 o
1 9 5 17.64 17.69 2.98 o
2 9 5 7.21 6.26 3.28 <
3 9 5 1.39 -5.67 5.67 <
-2 10 5 6.35 9.44 3.38 <
-1 10 5 9.40 6.06 3.78 <
0 10 5 0.39 4.17 3.28 <
1 10 5 0.19 0.10 3.58 <
2 10 5 20.79 31.11 6.06 o
-4 0 6 195.06 207.36 6.76 o
-2 0 6 820.69 836.19 15.01 o
0 0 6 276.64 352.78 7.16 o
2 0 6 720.28 744.34 17.59 o
4 0 6 105.12 110.74 4.17 o
-5 1 6 47.45 51.69 5.07 o
-4 1 6 3.12 5.67 1.79 o
-3 1 6 253.15 261.53 5.27 o
-2 1 6 55.48 59.15 1.09 o
-1 1 6 852.08 942.75 10.74 o
0 1 6 406.34 400.90 5.77 o
1 1 6 1144.32 1264.42 13.82 o
2 1 6 117.30 122.37 2.39 o
3 1 6 4.24 3.38 0.89 o
4 1 6 12.05 9.44 1.69 o
5 1 6 0.05 -2.78 3.08 <
-5 2 6 1.13 2.09 4.08 <
-4 2 6 23.34 22.96 2.29 o
-3 2 6 78.42 82.21 2.09 o
-2 2 6 281.48 318.69 4.08 o
-1 2 6 259.61 261.43 3.38 o
0 2 6 3134.18 3468.20 55.37 o
1 2 6 0.03 0.20 0.40 <
2 2 6 14.68 15.90 0.89 o
3 2 6 8.34 8.45 1.19 o
4 2 6 121.18 124.06 3.68 o
5 2 6 38.06 43.24 4.17 o
-5 3 6 19.58 20.87 7.55 <
-4 3 6 35.76 35.88 3.18 o
-3 3 6 48.75 48.51 2.49 o
-2 3 6 135.35 146.32 2.58 o
-1 3 6 1688.68 1829.53 32.31 o
0 3 6 0.07 2.98 0.70 o
1 3 6 251.34 227.54 4.37 o
2 3 6 30.98 28.03 1.19 o
3 3 6 256.96 253.58 6.36 o
4 3 6 118.41 110.83 4.97 o
5 3 6 14.38 16.20 5.07 o
-5 4 6 20.48 26.84 7.95 o
-4 4 6 2.53 -0.30 3.98 <
-3 4 6 26.84 23.36 2.09 o
-2 4 6 583.41 577.34 11.13 o
-1 4 6 8.02 5.96 1.49 o
0 4 6 182.23 191.65 4.87 o
1 4 6 39.67 36.88 1.29 o
2 4 6 538.47 521.57 9.05 o
3 4 6 22.46 20.58 1.99 o
4 4 6 37.22 29.22 2.78 o
5 4 6 85.52 87.38 6.36 o
-5 5 6 2.13 9.74 8.25 <
-4 5 6 10.51 12.62 4.97 <
-3 5 6 108.50 112.62 4.67 o
-2 5 6 1.51 1.59 1.59 <
-1 5 6 50.87 32.70 2.19 o
0 5 6 83.77 78.83 2.29 o
1 5 6 494.36 511.33 9.64 o
2 5 6 15.67 13.32 1.19 o
3 5 6 45.74 44.73 2.88 o
4 5 6 20.82 15.11 4.17 o
5 5 6 0.33 -2.88 7.16 <
-4 6 6 97.40 94.33 6.36 o
-3 6 6 4.48 6.06 1.99 o
-2 6 6 15.55 12.72 2.29 o
-1 6 6 121.94 103.88 3.58 o
0 6 6 350.58 317.99 6.26 o
1 6 6 0.08 0.00 0.99 <
2 6 6 29.27 30.62 1.89 o
3 6 6 22.44 26.64 2.58 o
4 6 6 0.06 0.99 4.17 <
-4 7 6 0.10 4.27 5.77 <
-3 7 6 17.38 17.00 2.09 o
-2 7 6 133.57 129.82 3.98 o
-1 7 6 33.01 28.23 2.19 o
0 7 6 36.14 33.30 1.99 o
1 7 6 50.42 50.99 2.39 o
2 7 6 3.88 5.17 1.49 o
3 7 6 0.11 -1.09 2.88 <
4 7 6 15.38 6.56 5.37 <
-4 8 6 53.64 -23.16 18.69 <
-3 8 6 67.21 64.41 4.08 o
-2 8 6 6.55 3.88 2.29 <
-1 8 6 34.56 35.39 2.88 o
0 8 6 5.49 7.55 1.79 o
1 8 6 5.06 1.09 2.98 <
2 8 6 28.53 26.24 2.29 o
3 8 6 23.57 15.51 3.48 o
-3 9 6 2.16 2.68 3.48 <
-2 9 6 5.80 7.36 2.29 o
-1 9 6 11.03 13.62 2.58 o
0 9 6 0.81 1.89 2.58 <
1 9 6 5.48 6.96 2.68 <
2 9 6 35.76 31.71 3.88 o
3 9 6 135.69 134.00 8.65 o
-2 10 6 16.18 19.09 3.68 o
-1 10 6 17.86 16.80 3.98 o
0 10 6 7.53 11.73 3.68 o
1 10 6 0.04 5.57 3.38 <
2 10 6 21.57 27.04 7.95 o
-5 0 7 63.21 61.13 6.66 o
-3 0 7 22.34 24.35 1.79 o
-1 0 7 49.08 45.73 1.19 o
1 0 7 16.67 17.79 0.70 o
3 0 7 452.11 459.25 9.64 o
5 0 7 0.90 7.06 6.36 <
-5 1 7 0.05 1.29 3.28 <
-4 1 7 31.82 39.36 2.78 o
-3 1 7 13.39 11.43 0.99 o
-2 1 7 17.44 17.10 0.60 o
-1 1 7 112.66 103.78 1.59 o
0 1 7 17.42 16.40 0.50 o
1 1 7 55.05 55.57 0.89 o
2 1 7 259.79 277.54 4.87 o
3 1 7 31.98 29.13 1.59 o
4 1 7 68.42 68.39 2.58 o
5 1 7 3.67 3.88 3.58 <
-5 2 7 26.74 29.42 4.47 o
-4 2 7 2.27 4.37 2.09 <
-3 2 7 35.05 36.78 1.79 o
-2 2 7 0.80 0.70 0.40 <
-1 2 7 53.38 52.29 1.09 o
0 2 7 38.54 51.19 1.09 o
1 2 7 828.31 906.56 14.81 o
2 2 7 88.77 92.05 1.99 o
3 2 7 4.06 5.96 1.19 o
4 2 7 5.26 7.85 1.89 o
5 2 7 56.60 53.48 4.47 o
-5 3 7 73.09 99.21 9.84 o
-4 3 7 47.25 60.24 4.47 o
-3 3 7 0.76 0.60 1.39 <
-2 3 7 32.10 30.91 1.29 o
-1 3 7 223.75 215.90 3.98 o
0 3 7 253.99 285.89 5.17 o
1 3 7 180.51 167.20 3.78 o
2 3 7 20.69 20.97 1.09 o
3 3 7 56.53 55.27 2.58 o
4 3 7 10.89 10.34 2.98 o
5 3 7 50.96 56.66 5.07 o
-5 4 7 15.88 12.82 7.16 <
-4 4 7 115.89 104.47 5.77 o
-3 4 7 48.40 44.33 2.49 o
-2 4 7 99.47 103.38 2.98 o
-1 4 7 84.91 79.82 3.98 o
0 4 7 50.94 54.08 2.19 o
1 4 7 35.63 26.04 1.29 o
2 4 7 87.69 88.17 2.58 o
3 4 7 14.13 11.33 1.69 o
4 4 7 185.53 178.53 5.86 o
5 4 7 34.77 27.53 5.07 o
-5 5 7 2.84 9.54 9.15 <
-4 5 7 4.51 -1.69 4.67 <
-3 5 7 319.61 305.87 7.26 o
-2 5 7 1.61 3.08 1.59 <
-1 5 7 76.46 64.12 2.88 o
0 5 7 96.95 86.58 3.08 o
1 5 7 59.26 57.85 2.09 o
2 5 7 15.95 17.89 1.39 o
3 5 7 183.07 184.39 5.37 o
4 5 7 54.25 61.43 4.57 o
5 5 7 55.45 58.35 12.03 o
-4 6 7 21.78 19.09 4.87 o
-3 6 7 22.61 22.56 2.98 o
-2 6 7 4.23 -0.99 1.89 <
-1 6 7 232.81 216.60 6.06 o
0 6 7 145.09 133.80 3.78 o
1 6 7 44.85 41.25 2.58 o
2 6 7 156.03 149.01 3.88 o
3 6 7 16.11 16.50 2.29 o
4 6 7 18.02 13.72 4.17 o
-4 7 7 29.71 1.99 7.75 <
-3 7 7 98.59 107.56 4.17 o
-2 7 7 78.03 65.41 4.27 o
-1 7 7 3.98 5.96 1.69 o
0 7 7 99.28 94.93 3.38 o
1 7 7 261.55 261.93 6.46 o
2 7 7 29.07 33.60 2.29 o
3 7 7 9.32 7.16 2.68 <
4 7 7 17.92 14.81 5.07 <
-4 8 7 90.35 6.56 18.59 <
-3 8 7 42.88 30.82 3.58 o
-2 8 7 146.98 150.90 4.77 o
-1 8 7 7.53 3.48 2.39 <
0 8 7 22.71 23.16 2.29 o
1 8 7 22.66 20.58 2.78 o
2 8 7 54.12 59.54 3.28 o
3 8 7 3.29 1.59 3.18 <
-3 9 7 77.96 74.45 4.77 o
-2 9 7 0.35 0.70 2.29 <
-1 9 7 123.06 127.04 5.07 o
0 9 7 103.92 112.53 5.57 o
1 9 7 2.81 -0.89 3.18 <
2 9 7 4.65 7.46 3.08 <
3 9 7 34.77 26.84 8.45 o
-2 10 7 31.07 33.90 4.08 o
-1 10 7 93.06 103.88 6.66 o
0 10 7 26.56 31.91 4.17 o
1 10 7 1.53 2.19 3.38 <
2 10 7 2.70 11.53 7.55 <
-4 0 8 15.08 16.30 2.29 o
-2 0 8 72.76 69.28 1.79 o
0 0 8 190.28 180.91 3.88 o
2 0 8 306.05 318.79 6.16 o
4 0 8 67.26 61.43 2.88 o
-5 1 8 0.36 -2.49 3.28 <
-4 1 8 0.16 -0.80 1.79 <
-3 1 8 0.04 -0.30 0.80 <
-2 1 8 8.61 9.34 0.60 o
-1 1 8 151.03 162.52 2.39 o
0 1 8 5.78 6.16 0.40 o
1 1 8 475.16 513.52 7.95 o
2 1 8 213.64 226.04 4.17 o
3 1 8 107.58 106.76 2.98 o
4 1 8 21.89 16.50 1.79 o
5 1 8 30.22 22.37 3.88 o
-5 2 8 3.11 7.06 3.88 <
-4 2 8 7.97 10.93 2.09 o
-3 2 8 0.40 0.50 0.99 <
-2 2 8 4.43 7.16 0.60 o
-1 2 8 56.15 61.63 1.29 o
0 2 8 623.49 685.99 9.24 o
1 2 8 523.30 575.45 9.64 o
2 2 8 153.63 161.13 3.28 o
3 2 8 0.16 -0.40 1.09 <
4 2 8 30.11 34.39 2.09 o
5 2 8 24.16 21.07 3.48 o
-5 3 8 50.72 56.26 8.05 o
-4 3 8 21.35 22.86 3.98 o
-3 3 8 27.53 31.01 2.19 o
-2 3 8 6.86 8.95 0.80 o
-1 3 8 134.93 130.72 2.68 o
0 3 8 775.56 816.90 16.90 o
1 3 8 121.07 123.16 4.27 o
2 3 8 7.10 7.55 1.09 o
3 3 8 40.70 39.66 2.39 o
4 3 8 13.47 8.35 2.39 o
5 3 8 12.30 7.36 4.47 <
-5 4 8 0.78 6.56 6.76 <
-4 4 8 53.30 50.40 4.97 o
-3 4 8 55.63 48.31 2.58 o
-2 4 8 110.23 101.49 2.98 o
-1 4 8 296.05 288.57 7.16 o
0 4 8 7.41 8.25 0.99 o
1 4 8 34.63 31.41 1.39 o
2 4 8 4.59 5.07 0.99 o
3 4 8 1.97 3.08 1.49 <
4 4 8 8.60 9.94 2.68 o
5 4 8 0.98 -5.57 4.97 <
-5 5 8 4.08 11.13 16.10 <
-4 5 8 6.00 8.35 5.17 <
-3 5 8 32.99 24.16 2.29 o
-2 5 8 392.29 343.84 7.06 o
-1 5 8 12.77 13.12 1.69 o
0 5 8 3.01 3.98 1.49 <
1 5 8 5.32 5.57 0.89 o
2 5 8 0.94 0.70 0.89 <
3 5 8 62.35 57.26 2.98 o
4 5 8 21.88 13.72 3.98 o
-4 6 8 26.19 27.73 5.67 o
-3 6 8 13.83 7.06 2.88 <
-2 6 8 98.76 78.13 3.28 o
-1 6 8 82.42 68.39 2.78 o
0 6 8 1.15 0.80 1.09 <
1 6 8 0.06 -0.89 1.49 <
2 6 8 82.37 78.33 2.78 o
3 6 8 84.69 88.87 3.98 o
4 6 8 18.66 19.68 4.77 o
-4 7 8 0.06 -13.02 8.45 <
-3 7 8 21.86 22.47 2.58 o
-2 7 8 56.81 63.12 3.38 o
-1 7 8 115.48 95.23 3.48 o
0 7 8 79.82 69.28 2.88 o
1 7 8 30.81 27.93 2.19 o
2 7 8 133.25 140.06 4.67 o
3 7 8 26.38 26.64 3.18 o
4 7 8 1.21 0.70 4.97 <
-4 8 8 6.81 -15.01 20.38 <
-3 8 8 72.17 80.72 4.47 o
-2 8 8 33.74 38.67 3.38 o
-1 8 8 47.71 47.52 3.08 o
0 8 8 92.06 85.98 4.37 o
1 8 8 374.57 389.96 11.43 o
2 8 8 59.68 63.22 3.58 o
3 8 8 0.63 -3.18 3.38 <
-3 9 8 9.08 20.28 3.78 o
-2 9 8 35.80 42.94 3.18 o
-1 9 8 58.66 75.05 4.27 o
0 9 8 12.19 16.40 3.08 o
1 9 8 10.76 11.83 2.78 o
2 9 8 20.45 16.20 3.38 o
3 9 8 6.28 2.29 7.75 <
-2 10 8 14.10 13.12 3.88 o
-1 10 8 12.61 13.72 3.98 o
0 10 8 218.55 242.94 8.05 o
1 10 8 110.78 119.88 6.06 o
2 10 8 40.61 53.98 14.12 o
-5 0 9 28.94 30.02 5.77 o
-3 0 9 242.66 278.93 7.16 o
-1 0 9 1900.15 2027.84 45.92 o
1 0 9 48.25 47.42 1.79 o
3 0 9 227.31 233.10 6.16 o
5 0 9 46.09 33.30 7.06 o
-5 1 9 48.17 36.78 6.06 o
-4 1 9 71.22 44.73 4.87 o
-3 1 9 18.92 19.88 1.29 o
-2 1 9 584.34 624.65 7.65 o
-1 1 9 133.41 137.57 2.29 o
0 1 9 741.41 755.97 10.04 o
1 1 9 69.19 68.19 1.49 o
2 1 9 80.13 78.43 2.29 o
3 1 9 0.63 1.09 1.09 <
4 1 9 95.89 96.32 3.08 o
5 1 9 1.68 4.57 4.57 <
-5 2 9 94.73 98.81 9.24 o
-4 2 9 94.73 99.01 4.47 o
-3 2 9 135.24 138.67 3.38 o
-2 2 9 108.94 108.95 1.69 o
-1 2 9 214.67 223.86 3.88 o
0 2 9 64.24 70.18 1.39 o
1 2 9 4.47 4.37 0.70 o
2 2 9 13.94 13.82 0.89 o
3 2 9 28.23 32.01 1.79 o
4 2 9 4.88 4.08 2.09 <
5 2 9 80.66 91.55 4.67 o
-5 3 9 0.98 -5.77 6.36 <
-4 3 9 209.26 169.68 6.56 o
-3 3 9 157.44 163.12 3.48 o
-2 3 9 54.73 60.93 1.59 o
-1 3 9 144.05 144.43 3.38 o
0 3 9 8.78 16.70 1.49 o
1 3 9 72.91 71.77 2.29 o
2 3 9 3.72 3.98 1.09 o
3 3 9 12.66 13.22 1.69 o
4 3 9 42.25 38.67 2.68 o
5 3 9 17.43 11.33 4.87 <
-5 4 9 14.15 15.51 7.46 <
-4 4 9 1.58 0.00 4.17 <
-3 4 9 283.32 272.07 6.06 o
-2 4 9 235.49 243.44 5.27 o
-1 4 9 10.64 7.26 1.19 o
0 4 9 161.35 154.87 4.47 o
1 4 9 8.77 7.65 0.80 o
2 4 9 10.42 9.44 1.09 o
3 4 9 1.66 2.09 1.59 <
4 4 9 19.91 22.56 2.49 o
5 4 9 54.16 50.50 5.07 o
-5 5 9 20.07 59.15 23.96 <
-4 5 9 26.84 35.39 6.96 o
-3 5 9 13.88 15.31 2.58 o
-2 5 9 156.56 133.90 3.48 o
-1 5 9 175.99 173.46 4.17 o
0 5 9 8.43 6.76 1.19 o
1 5 9 46.34 40.85 1.79 o
2 5 9 47.05 41.85 1.99 o
3 5 9 81.40 84.10 3.58 o
4 5 9 22.44 19.98 3.58 o
-4 6 9 69.28 49.01 8.65 o
-3 6 9 1.33 0.40 2.98 <
-2 6 9 1.05 3.18 2.19 <
-1 6 9 180.53 147.62 3.78 o
0 6 9 40.37 40.76 1.99 o
1 6 9 27.45 27.73 2.09 o
2 6 9 132.90 126.74 3.58 o
3 6 9 136.72 145.23 4.97 o
4 6 9 38.14 47.71 4.47 o
-4 7 9 42.19 41.05 8.95 o
-3 7 9 36.69 43.14 2.98 o
-2 7 9 9.60 9.64 2.09 o
-1 7 9 2.62 2.09 1.49 <
0 7 9 96.13 89.07 3.18 o
1 7 9 85.20 84.89 3.08 o
2 7 9 98.71 100.20 4.08 o
3 7 9 28.34 33.60 3.18 o
4 7 9 25.94 25.45 4.77 o
-4 8 9 0.00 12.82 20.78 <
-3 8 9 18.56 13.42 3.58 o
-2 8 9 35.10 40.56 2.98 o
-1 8 9 52.40 55.07 3.28 o
0 8 9 22.11 24.75 2.58 o
1 8 9 3.01 1.29 1.59 <
2 8 9 44.49 46.92 3.58 o
3 8 9 0.08 1.99 3.08 <
-3 9 9 0.84 14.02 4.67 o
-2 9 9 1.18 2.09 2.49 <
-1 9 9 162.32 188.27 6.26 o
0 9 9 208.75 230.42 8.15 o
1 9 9 26.55 21.87 2.88 o
2 9 9 97.65 89.07 5.37 o
3 9 9 66.60 58.35 7.85 o
-2 10 9 52.21 55.87 5.96 o
-1 10 9 23.11 27.53 4.27 o
0 10 9 32.15 30.72 5.17 o
1 10 9 17.36 17.59 3.88 o
2 10 9 151.98 168.49 20.97 o
-4 0 10 14.04 13.92 3.38 o
-2 0 10 57.54 58.25 1.39 o
0 0 10 3784.04 3974.96 77.54 o
2 0 10 336.19 333.90 8.55 o
4 0 10 59.69 70.18 3.98 o
-5 1 10 2.98 2.29 3.48 <
-4 1 10 0.93 2.09 1.59 <
-3 1 10 14.43 16.70 1.19 o
-2 1 10 89.32 92.84 1.49 o
-1 1 10 680.03 689.27 10.54 o
0 1 10 243.34 235.29 3.68 o
1 1 10 1642.74 1712.93 27.63 o
2 1 10 22.49 20.58 1.09 o
3 1 10 180.09 183.80 4.27 o
4 1 10 9.17 5.17 1.79 <
5 1 10 6.07 5.27 4.67 <
-5 2 10 10.99 11.63 5.67 <
-4 2 10 13.19 18.89 2.68 o
-3 2 10 62.17 60.14 2.19 o
-2 2 10 149.70 151.49 2.29 o
-1 2 10 15.47 12.33 0.99 o
0 2 10 308.45 310.64 4.97 o
1 2 10 141.31 133.20 2.78 o
2 2 10 885.47 885.19 13.62 o
3 2 10 1.19 1.59 1.19 <
4 2 10 34.06 31.81 1.99 o
5 2 10 2.89 1.59 4.57 <
-5 3 10 11.28 24.25 6.06 o
-4 3 10 0.28 -0.20 2.78 <
-3 3 10 0.35 -1.29 1.29 <
-2 3 10 39.54 40.46 1.39 o
-1 3 10 149.80 158.15 3.58 o
0 3 10 51.59 52.88 1.79 o
1 3 10 185.56 182.80 4.17 o
2 3 10 25.53 25.75 1.59 o
3 3 10 191.76 181.31 4.97 o
4 3 10 30.60 27.83 2.39 o
5 3 10 28.24 23.26 4.97 o
-5 4 10 58.60 55.47 8.55 o
-4 4 10 0.05 -1.19 5.37 <
-3 4 10 11.44 8.85 1.99 o
-2 4 10 17.55 17.99 1.59 o
-1 4 10 70.56 65.61 2.98 o
0 4 10 101.33 104.67 3.68 o
1 4 10 74.57 73.66 2.19 o
2 4 10 0.71 2.19 0.89 <
3 4 10 62.19 60.44 2.88 o
4 4 10 125.80 128.13 5.07 o
5 4 10 10.62 4.97 5.27 <
-4 5 10 47.39 52.09 7.75 o
-3 5 10 28.63 23.76 2.68 o
-2 5 10 27.54 24.45 1.79 o
-1 5 10 14.84 15.90 1.69 o
0 5 10 45.66 36.98 2.58 o
1 5 10 8.26 13.32 1.09 o
2 5 10 15.62 17.10 1.39 o
3 5 10 0.00 0.20 1.69 <
4 5 10 20.26 14.71 3.38 o
-4 6 10 84.74 75.65 9.64 o
-3 6 10 23.73 15.11 3.18 o
-2 6 10 15.16 17.69 2.19 o
-1 6 10 83.39 76.54 2.88 o
0 6 10 12.06 14.81 2.29 o
1 6 10 0.42 -0.40 0.99 <
2 6 10 0.56 0.40 1.19 <
3 6 10 32.36 32.60 2.78 o
4 6 10 166.97 172.37 8.15 o
-4 7 10 184.71 167.50 13.42 o
-3 7 10 48.82 55.37 3.38 o
-2 7 10 0.32 -0.40 2.68 <
-1 7 10 2.31 1.49 1.49 <
0 7 10 171.24 167.89 4.77 o
1 7 10 16.43 14.51 1.59 o
2 7 10 0.54 1.79 1.59 <
3 7 10 131.72 134.10 5.27 o
4 7 10 51.53 40.56 5.27 o
-3 8 10 297.42 329.72 10.44 o
-2 8 10 9.69 11.73 2.78 o
-1 8 10 4.09 4.67 2.29 <
0 8 10 35.60 41.45 3.18 o
1 8 10 110.64 103.78 4.67 o
2 8 10 45.18 59.05 3.88 o
3 8 10 6.40 6.56 3.28 <
-3 9 10 9.52 17.40 6.36 <
-2 9 10 273.68 309.74 9.94 o
-1 9 10 99.33 103.28 4.97 o
0 9 10 0.13 -3.78 3.28 <
1 9 10 28.93 30.91 3.18 o
2 9 10 27.70 31.81 3.68 o
3 9 10 32.81 33.10 8.25 o
-1 10 10 149.29 150.50 9.54 o
0 10 10 2.09 2.58 4.57 <
1 10 10 23.08 22.47 3.88 o
-5 0 11 73.70 63.22 7.26 o
-3 0 11 2.19 2.78 1.49 <
-1 0 11 3.07 4.67 0.80 o
1 0 11 74.90 64.51 2.68 o
3 0 11 43.32 44.63 2.49 o
5 0 11 14.33 5.47 6.46 <
-5 1 11 3.24 8.15 3.58 <
-4 1 11 8.83 8.05 2.19 o
-3 1 11 183.68 183.70 4.08 o
-2 1 11 2.15 1.79 0.40 o
-1 1 11 348.91 353.08 7.65 o
0 1 11 29.29 28.43 0.89 o
1 1 11 173.36 169.38 3.58 o
2 1 11 16.38 15.41 1.09 o
3 1 11 7.16 4.27 1.39 o
4 1 11 0.03 0.99 2.09 <
5 1 11 13.30 11.33 4.87 <
-5 2 11 6.84 10.93 5.27 <
-4 2 11 45.48 49.40 3.48 o
-3 2 11 9.07 9.74 1.29 o
-2 2 11 5.91 5.86 0.50 o
-1 2 11 24.03 20.08 1.19 o
0 2 11 156.04 160.44 2.78 o
1 2 11 0.04 0.50 0.70 <
2 2 11 24.95 23.76 1.19 o
3 2 11 27.65 29.52 1.79 o
4 2 11 4.19 4.17 2.49 <
5 2 11 2.74 -1.79 4.47 <
-5 3 11 0.06 0.89 5.17 <
-4 3 11 17.23 17.79 4.37 o
-3 3 11 11.66 14.41 1.59 o
-2 3 11 0.00 -0.80 0.70 <
-1 3 11 4.20 3.58 0.80 o
0 3 11 0.76 -0.60 0.70 <
1 3 11 284.19 290.06 7.36 o
2 3 11 42.15 43.44 1.89 o
3 3 11 33.11 36.88 2.29 o
4 3 11 7.32 3.38 2.39 <
5 3 11 0.03 -2.98 7.36 <
-5 4 11 38.80 50.40 8.55 o
-4 4 11 64.62 66.90 6.76 o
-3 4 11 9.27 6.46 1.99 o
-2 4 11 50.56 46.32 1.99 o
-1 4 11 4.24 5.37 1.59 o
0 4 11 25.29 22.66 1.89 o
1 4 11 3.63 4.97 1.79 <
2 4 11 107.71 87.28 2.58 o
3 4 11 2.51 2.19 1.59 <
4 4 11 19.18 8.85 3.08 <
-4 5 11 40.95 37.87 6.46 o
-3 5 11 141.24 120.48 4.27 o
-2 5 11 36.61 35.69 2.29 o
-1 5 11 135.54 126.74 4.08 o
0 5 11 8.74 8.35 1.89 o
1 5 11 2.74 -0.99 0.89 <
2 5 11 17.01 19.78 1.59 o
3 5 11 121.64 113.82 4.87 o
4 5 11 6.76 5.37 3.28 <
-4 6 11 0.41 -1.89 8.45 <
-3 6 11 4.57 3.88 2.29 <
-2 6 11 175.95 166.10 5.67 o
-1 6 11 50.11 43.84 2.88 o
0 6 11 58.48 42.54 3.38 o
1 6 11 4.35 5.77 1.39 o
2 6 11 30.00 31.61 1.99 o
3 6 11 4.39 3.78 2.88 <
4 6 11 9.27 3.88 4.27 <
-4 7 11 238.86 245.03 14.51 o
-3 7 11 7.81 6.26 3.88 <
-2 7 11 0.30 1.29 3.28 <
-1 7 11 78.27 66.10 3.58 o
0 7 11 15.33 14.71 1.99 o
1 7 11 121.87 128.33 4.77 o
2 7 11 3.88 5.77 1.69 o
3 7 11 6.58 7.65 2.78 <
4 7 11 19.39 14.02 6.06 <
-3 8 11 307.68 341.35 10.93 o
-2 8 11 42.69 53.28 3.98 o
-1 8 11 1.43 -0.10 2.29 <
0 8 11 154.95 163.22 5.86 o
1 8 11 82.38 96.32 4.57 o
2 8 11 0.26 1.09 2.39 <
3 8 11 0.01 0.80 4.08 <
-3 9 11 1.30 6.96 7.46 <
-2 9 11 312.83 360.24 9.54 o
-1 9 11 0.87 -2.09 2.88 <
0 9 11 66.32 76.74 6.06 o
1 9 11 1.34 0.40 2.78 <
2 9 11 35.24 35.09 3.78 o
-2 10 11 41.51 40.16 6.96 o
-1 10 11 446.21 502.68 24.95 o
0 10 11 97.21 87.97 7.16 o
1 10 11 20.17 12.62 3.78 o
-4 0 12 450.76 438.17 14.31 o
-2 0 12 270.13 283.10 7.06 o
0 0 12 495.56 515.71 10.44 o
2 0 12 9.78 8.35 1.19 o
4 0 12 3.87 2.29 2.88 <
-5 1 12 104.87 98.41 6.76 o
-4 1 12 84.78 85.89 4.47 o
-3 1 12 57.23 52.29 1.99 o
-2 1 12 279.06 282.90 4.27 o
-1 1 12 10.35 9.84 0.80 o
0 1 12 35.71 43.94 1.19 o
1 1 12 193.49 189.07 4.47 o
2 1 12 2.88 3.08 0.70 o
3 1 12 4.31 4.77 1.39 o
4 1 12 29.23 23.56 2.39 o
5 1 12 2.88 7.65 4.87 <
-5 2 12 98.03 107.26 10.54 o
-4 2 12 7.02 5.07 2.49 <
-3 2 12 310.41 304.87 6.26 o
-2 2 12 837.18 836.09 10.64 o
-1 2 12 252.17 231.71 5.37 o
0 2 12 8.39 6.66 0.60 o
1 2 12 35.55 32.21 1.49 o
2 2 12 165.62 161.63 3.58 o
3 2 12 38.78 42.25 2.09 o
4 2 12 33.62 25.65 2.58 o
5 2 12 61.50 56.86 4.97 o
-5 3 12 91.57 78.33 9.15 o
-4 3 12 165.38 176.74 9.44 o
-3 3 12 105.22 98.51 3.48 o
-2 3 12 235.93 235.59 4.27 o
-1 3 12 991.92 978.53 28.93 o
0 3 12 187.72 186.08 3.68 o
1 3 12 50.53 46.22 2.39 o
2 3 12 85.86 86.78 2.68 o
3 3 12 170.02 159.94 4.67 o
4 3 12 43.93 43.14 2.88 o
5 3 12 23.37 20.87 8.15 <
-5 4 12 2.48 -6.46 5.86 <
-4 4 12 4.04 11.93 5.86 <
-3 4 12 115.60 101.39 3.38 o
-2 4 12 89.12 86.08 2.58 o
-1 4 12 141.35 129.03 4.97 o
0 4 12 1023.69 1000.40 23.36 o
1 4 12 27.23 22.56 2.19 o
2 4 12 56.22 38.37 1.79 o
3 4 12 73.55 65.01 2.98 o
4 4 12 120.07 117.10 4.77 o
-4 5 12 1.07 2.09 6.86 <
-3 5 12 13.62 8.05 2.58 o
-2 5 12 52.89 47.81 2.49 o
-1 5 12 89.89 83.70 3.28 o
0 5 12 12.40 9.84 1.99 o
1 5 12 706.08 651.69 15.90 o
2 5 12 2.53 5.37 1.29 o
3 5 12 43.84 39.07 2.68 o
4 5 12 83.05 91.25 4.77 o
-4 6 12 9.50 15.21 8.95 <
-3 6 12 0.16 0.40 2.98 <
-2 6 12 11.28 10.93 2.88 o
-1 6 12 2.54 1.19 2.09 <
0 6 12 54.25 34.29 4.08 o
1 6 12 1.85 0.89 1.29 <
2 6 12 482.15 490.56 9.94 o
3 6 12 13.36 18.09 2.78 o
4 6 12 0.01 1.59 4.47 <
-4 7 12 82.05 116.20 11.23 o
-3 7 12 27.91 20.38 4.57 o
-2 7 12 2.75 0.99 3.38 <
-1 7 12 3.42 1.19 3.68 <
0 7 12 3.15 1.79 2.19 <
1 7 12 55.92 57.95 3.28 o
2 7 12 76.73 91.95 3.48 o
3 7 12 133.15 136.08 5.37 o
4 7 12 9.94 9.24 5.47 <
-3 8 12 87.71 93.34 7.65 o
-2 8 12 75.43 71.57 5.07 o
-1 8 12 2.04 1.19 2.29 <
0 8 12 9.11 9.24 2.19 o
1 8 12 81.88 91.05 4.57 o
2 8 12 0.39 -0.99 2.58 <
3 8 12 52.63 62.92 5.57 o
-2 9 12 90.68 107.65 5.47 o
-1 9 12 203.77 215.81 7.95 o
0 9 12 43.81 47.61 5.17 o
1 9 12 0.58 -1.39 2.68 <
2 9 12 29.83 34.39 4.47 o
-1 10 12 10.66 16.50 6.56 <
0 10 12 93.59 100.20 8.55 o
1 10 12 1.04 -2.78 3.98 <
-5 0 13 50.78 50.60 7.26 o
-3 0 13 0.87 6.26 1.79 o
-1 0 13 1449.75 1534.20 60.24 o
1 0 13 33.96 33.80 1.69 o
3 0 13 50.85 54.57 3.08 o
5 0 13 0.61 -5.86 6.96 <
-5 1 13 38.39 36.48 4.37 o
-4 1 13 14.40 17.99 2.68 o
-3 1 13 421.02 431.91 9.64 o
-2 1 13 103.84 108.95 1.89 o
-1 1 13 169.38 170.68 4.57 o
0 1 13 446.95 468.69 9.44 o
1 1 13 1.20 1.29 0.60 <
2 1 13 0.17 -0.60 0.80 <
3 1 13 2.15 0.99 1.29 <
4 1 13 8.05 5.96 2.29 <
5 1 13 4.87 -5.07 4.27 <
-5 2 13 0.73 6.56 5.67 <
-4 2 13 51.00 46.22 4.37 o
-3 2 13 112.69 112.62 3.68 o
-2 2 13 182.38 175.35 2.88 o
-1 2 13 59.17 55.17 1.89 o
0 2 13 45.74 42.84 1.49 o
1 2 13 127.62 137.77 3.38 o
2 2 13 5.25 3.18 0.89 o
3 2 13 8.69 5.96 1.59 o
4 2 13 0.01 0.10 2.19 <
5 2 13 40.34 26.24 5.67 o
-5 3 13 19.51 8.45 6.86 <
-4 3 13 5.36 11.53 5.07 <
-3 3 13 2.87 2.68 1.19 <
-2 3 13 1.26 1.99 0.80 <
-1 3 13 498.35 473.66 12.03 o
0 3 13 185.49 166.80 3.48 o
1 3 13 9.13 6.26 1.59 o
2 3 13 81.70 69.09 2.58 o
3 3 13 5.62 4.67 1.59 <
4 3 13 4.42 1.59 3.08 <
5 3 13 3.79 3.18 7.95 <
-5 4 13 16.97 17.59 8.05 <
-4 4 13 18.65 24.45 6.16 o
-3 4 13 5.07 3.38 1.99 <
-2 4 13 11.18 12.13 1.49 o
-1 4 13 0.21 0.99 0.99 <
0 4 13 847.77 817.90 19.28 o
1 4 13 155.33 174.85 5.37 o
2 4 13 41.37 37.48 2.09 o
3 4 13 0.35 3.18 1.69 <
4 4 13 0.01 1.69 2.78 <
-4 5 13 17.33 18.19 7.65 <
-3 5 13 3.27 -0.10 2.88 <
-2 5 13 1.62 3.18 1.89 <
-1 5 13 79.02 64.31 3.18 o
0 5 13 3.23 0.89 2.58 <
1 5 13 764.34 753.38 18.19 o
2 5 13 297.83 286.98 6.26 o
3 5 13 16.31 16.70 2.19 o
4 5 13 15.41 17.69 3.58 o
-4 6 13 0.07 5.57 8.35 <
-3 6 13 35.57 33.00 3.98 o
-2 6 13 4.31 5.57 2.78 <
-1 6 13 8.59 6.06 2.49 <
0 6 13 75.11 57.95 4.57 o
1 6 13 6.70 4.08 1.39 <
2 6 13 366.27 362.13 8.85 o
3 6 13 366.93 387.28 9.74 o
4 6 13 33.10 31.91 4.37 o
-4 7 13 36.58 59.54 18.29 o
-3 7 13 18.95 9.94 4.97 <
-2 7 13 80.48 68.49 4.47 o
-1 7 13 3.18 1.69 3.98 <
0 7 13 0.01 0.50 2.19 <
1 7 13 6.63 5.27 1.79 <
2 7 13 35.84 44.53 3.08 o
3 7 13 248.26 235.29 7.26 o
-3 8 13 48.25 42.84 5.77 o
-2 8 13 21.58 22.27 3.18 o
-1 8 13 26.00 27.63 3.08 o
0 8 13 2.14 2.39 2.19 <
1 8 13 19.92 22.96 2.58 o
2 8 13 3.66 0.00 2.58 <
3 8 13 15.22 11.43 4.47 <
-2 9 13 12.04 9.74 3.08 o
-1 9 13 14.60 17.00 3.38 o
0 9 13 2.14 0.99 3.18 <
1 9 13 0.01 -0.50 2.68 <
2 9 13 10.30 16.90 3.98 o
-1 10 13 7.83 10.64 7.46 <
0 10 13 36.15 36.18 7.36 o
1 10 13 4.29 1.99 10.34 <
-4 0 14 4.92 8.05 2.98 <
-2 0 14 15.62 17.10 1.19 o
0 0 14 375.49 366.01 7.65 o
2 0 14 206.25 203.08 5.67 o
4 0 14 118.74 120.88 5.67 o
-5 1 14 42.34 42.54 4.77 o
-4 1 14 295.38 290.26 7.65 o
-3 1 14 1.10 0.10 1.19 <
-2 1 14 65.18 67.20 1.79 o
-1 1 14 71.60 71.27 2.19 o
0 1 14 333.15 338.87 5.86 o
1 1 14 215.27 203.48 4.77 o
2 1 14 146.17 139.46 2.88 o
3 1 14 94.02 92.45 2.98 o
4 1 14 123.15 118.89 3.98 o
5 1 14 2.54 1.49 5.07 <
-5 2 14 13.54 7.75 6.06 <
-4 2 14 42.53 45.03 3.58 o
-3 2 14 177.15 173.16 4.87 o
-2 2 14 189.40 185.19 3.08 o
-1 2 14 3.55 3.38 0.60 o
0 2 14 43.29 39.76 1.39 o
1 2 14 541.59 509.35 9.44 o
2 2 14 29.57 27.24 1.49 o
3 2 14 1.28 -0.60 1.49 <
4 2 14 8.57 7.16 2.78 <
5 2 14 66.38 55.77 4.97 o
-5 3 14 4.96 -5.27 5.77 <
-4 3 14 5.41 1.89 4.77 <
-3 3 14 10.56 13.12 2.29 o
-2 3 14 396.17 397.22 7.95 o
-1 3 14 170.45 160.14 4.17 o
0 3 14 11.61 7.75 0.99 o
1 3 14 1.26 0.50 1.49 <
2 3 14 19.79 24.75 1.59 o
3 3 14 63.02 56.36 3.38 o
4 3 14 1.47 4.17 3.28 <
5 3 14 1.43 -2.29 13.62 <
-4 4 14 66.53 49.80 8.25 o
-3 4 14 2.15 -0.20 2.29 <
-2 4 14 4.63 5.96 1.39 o
-1 4 14 407.05 372.37 7.85 o
0 4 14 73.55 66.90 2.68 o
1 4 14 183.09 142.94 4.67 o
2 4 14 69.44 53.58 2.58 o
3 4 14 16.10 17.20 2.49 o
4 4 14 12.24 12.33 3.58 o
-4 5 14 0.42 -2.98 9.64 <
-3 5 14 21.54 22.47 3.48 o
-2 5 14 1.17 3.98 1.89 <
-1 5 14 1.07 2.78 2.78 <
0 5 14 17.04 21.07 3.38 o
1 5 14 0.40 -0.40 1.19 <
2 5 14 132.49 134.29 4.27 o
3 5 14 0.03 1.99 2.39 <
4 5 14 25.57 31.71 4.57 o
-4 6 14 0.66 7.46 8.95 <
-3 6 14 4.98 7.16 4.67 <
-2 6 14 0.28 -0.30 2.88 <
-1 6 14 120.82 96.92 4.57 o
0 6 14 50.20 32.90 4.37 o
1 6 14 27.86 28.63 2.19 o
2 6 14 33.58 28.43 2.68 o
3 6 14 61.56 60.54 4.47 o
4 6 14 2.96 2.88 4.97 <
-4 7 14 28.78 21.17 15.81 <
-3 7 14 13.42 5.77 5.57 <
-2 7 14 12.28 5.37 3.98 <
-1 7 14 36.13 20.08 3.58 o
0 7 14 28.14 31.31 4.27 o
1 7 14 1.74 1.69 1.89 <
2 7 14 52.12 53.48 3.58 o
3 7 14 23.05 17.89 3.78 o
-3 8 14 0.52 -1.59 4.57 <
-2 8 14 41.24 40.95 4.47 o
-1 8 14 2.90 2.29 2.39 <
0 8 14 11.86 12.62 2.39 o
1 8 14 0.35 -0.70 2.09 <
2 8 14 5.58 5.67 2.98 <
3 8 14 27.49 25.25 5.17 o
-2 9 14 10.25 10.44 3.88 <
-1 9 14 23.89 19.09 3.58 o
0 9 14 20.08 18.19 3.38 o
1 9 14 24.60 27.44 3.38 o
2 9 14 0.03 4.97 4.08 <
0 10 14 23.22 18.69 5.37 o
1 10 14 16.77 21.67 15.81 <
-5 0 15 1117.49 1154.58 48.61 o
-3 0 15 0.33 -0.70 1.79 <
-1 0 15 38.30 40.95 2.39 o
1 0 15 106.04 103.48 3.38 o
3 0 15 859.31 859.45 21.07 o
5 0 15 46.85 18.09 8.35 <
-5 1 15 26.78 35.49 7.06 o
-4 1 15 374.08 388.17 9.44 o
-3 1 15 90.40 86.38 3.28 o
-2 1 15 15.59 15.31 0.89 o
-1 1 15 84.27 77.93 2.39 o
0 1 15 0.44 1.29 0.50 <
1 1 15 66.73 62.92 2.68 o
2 1 15 368.83 358.55 6.16 o
3 1 15 40.22 39.86 2.09 o
4 1 15 242.17 242.15 6.16 o
5 1 15 198.28 184.29 8.35 o
-5 2 15 0.38 -8.45 6.26 <
-4 2 15 103.91 102.78 6.26 o
-3 2 15 733.32 726.74 15.51 o
-2 2 15 213.84 206.46 3.68 o
-1 2 15 12.08 9.34 0.89 o
0 2 15 1.07 1.89 0.70 <
1 2 15 74.06 63.72 1.79 o
2 2 15 1.88 1.59 0.89 <
3 2 15 11.73 11.13 1.79 o
4 2 15 74.15 70.38 3.28 o
5 2 15 91.94 93.64 13.42 o
-5 3 15 0.84 5.27 6.36 <
-4 3 15 7.00 10.04 4.57 <
-3 3 15 77.11 79.62 4.27 o
-2 3 15 947.31 899.11 15.01 o
-1 3 15 19.90 16.10 1.39 o
0 3 15 32.88 33.40 1.69 o
1 3 15 33.87 27.63 2.29 o
2 3 15 24.64 21.87 1.79 o
3 3 15 140.32 129.23 4.97 o
4 3 15 0.41 2.49 4.47 <
-4 4 15 5.95 2.88 4.27 <
-3 4 15 12.54 10.54 2.58 o
-2 4 15 9.35 11.43 1.49 o
-1 4 15 440.51 388.47 9.74 o
0 4 15 80.80 65.51 2.98 o
1 4 15 18.19 10.64 2.19 o
2 4 15 85.85 63.72 2.88 o
3 4 15 24.61 23.36 2.98 o
4 4 15 14.21 16.90 3.98 o
-4 5 15 32.72 36.48 9.94 o
-3 5 15 114.67 100.30 6.56 o
-2 5 15 41.10 41.25 2.68 o
-1 5 15 2.73 2.98 2.58 <
0 5 15 580.70 519.78 12.23 o
1 5 15 33.87 22.47 2.88 o
2 5 15 0.71 0.80 1.49 <
3 5 15 4.56 8.95 2.98 <
4 5 15 0.10 3.38 4.08 <
-4 6 15 63.37 73.66 13.22 o
-3 6 15 1.03 2.68 5.86 <
-2 6 15 50.69 50.20 2.78 o
-1 6 15 3.49 4.77 2.68 <
0 6 15 194.26 168.59 6.46 o
1 6 15 210.37 202.68 6.26 o
2 6 15 0.01 -0.89 2.19 <
3 6 15 21.27 21.97 3.38 o
4 6 15 1.89 1.69 6.86 <
-3 7 15 14.85 19.78 7.16 <
-2 7 15 18.93 17.79 4.17 o
-1 7 15 184.48 186.28 6.26 o
0 7 15 40.13 43.54 4.17 o
1 7 15 79.94 73.26 5.37 o
2 7 15 47.00 46.52 3.48 o
3 7 15 2.57 1.79 3.88 <
-3 8 15 31.42 22.86 5.27 o
-2 8 15 64.35 61.43 4.27 o
-1 8 15 2.65 0.20 2.49 <
0 8 15 80.56 93.24 3.98 o
1 8 15 46.18 43.74 3.38 o
2 8 15 100.33 102.58 5.17 o
3 8 15 56.18 43.64 6.86 o
-2 9 15 13.70 13.02 4.08 o
-1 9 15 46.01 55.17 4.47 o
0 9 15 5.27 7.95 2.58 o
1 9 15 88.73 103.58 5.47 o
2 9 15 3.47 15.01 6.06 <
-4 0 16 58.65 60.84 5.17 o
-2 0 16 0.08 0.50 0.89 <
0 0 16 23.74 26.54 1.29 o
2 0 16 1034.91 1016.01 23.96 o
4 0 16 53.45 49.70 3.98 o
-5 1 16 0.33 -1.09 5.96 <
-4 1 16 281.53 286.48 8.15 o
-3 1 16 32.31 34.29 2.29 o
-2 1 16 1.14 1.19 0.70 <
-1 1 16 5.31 4.08 0.89 o
0 1 16 31.37 22.96 0.99 o
1 1 16 357.65 320.78 6.36 o
2 1 16 2.84 2.19 1.09 <
3 1 16 74.30 74.16 2.78 o
4 1 16 5.24 2.98 2.39 <
5 1 16 0.14 3.88 14.12 <
-5 2 16 9.23 1.39 6.66 <
-4 2 16 2.71 2.98 2.49 <
-3 2 16 271.41 259.94 6.66 o
-2 2 16 156.59 143.04 3.08 o
-1 2 16 50.75 49.50 1.59 o
0 2 16 919.09 862.43 15.90 o
1 2 16 4.46 3.08 0.99 o
2 2 16 14.45 10.84 1.49 o
3 2 16 3.92 1.39 1.69 <
4 2 16 165.45 153.18 5.27 o
5 2 16 29.62 13.82 15.81 <
-5 3 16 0.14 -1.19 6.56 <
-4 3 16 4.42 4.17 4.77 <
-3 3 16 9.15 10.24 2.39 o
-2 3 16 122.84 113.32 3.08 o
-1 3 16 1418.47 1416.90 25.45 o
0 3 16 0.46 -1.29 1.19 <
1 3 16 38.56 41.25 2.68 o
2 3 16 1.11 0.30 1.09 <
3 3 16 17.11 15.11 2.58 o
4 3 16 9.72 9.24 3.98 <
-4 4 16 11.24 4.67 7.85 <
-3 4 16 104.55 104.57 6.26 o
-2 4 16 337.05 327.44 8.75 o
-1 4 16 371.78 341.05 11.03 o
0 4 16 242.35 237.87 6.56 o
1 4 16 34.11 32.70 2.88 o
2 4 16 164.42 140.96 4.27 o
3 4 16 2.47 1.19 2.19 <
4 4 16 1.36 0.10 4.08 <
-4 5 16 17.78 -1.59 10.34 <
-3 5 16 173.06 169.09 7.55 o
-2 5 16 6.15 7.55 2.19 o
-1 5 16 9.70 9.84 3.18 o
0 5 16 419.63 394.04 10.04 o
1 5 16 399.98 358.85 9.54 o
2 5 16 40.00 38.47 2.58 o
3 5 16 30.38 35.79 3.58 o
4 5 16 17.36 10.84 4.77 <
-4 6 16 41.40 12.33 12.72 <
-3 6 16 23.00 17.59 6.16 <
-2 6 16 21.95 20.87 3.68 o
-1 6 16 0.11 -0.89 2.58 <
0 6 16 0.27 0.89 2.98 <
1 6 16 266.07 260.93 7.55 o
2 6 16 123.47 119.78 4.57 o
3 6 16 34.99 36.58 4.08 o
4 6 16 3.63 -7.16 5.77 <
-3 7 16 56.46 56.76 8.05 o
-2 7 16 45.07 39.76 4.47 o
-1 7 16 0.11 -1.09 4.57 <
0 7 16 1.00 1.19 1.79 <
1 7 16 22.80 18.59 2.39 o
2 7 16 105.29 103.18 5.47 o
3 7 16 47.90 45.92 4.77 o
-3 8 16 37.27 37.77 5.96 o
-2 8 16 8.53 8.95 5.67 <
-1 8 16 36.36 36.58 3.28 o
0 8 16 3.64 3.18 1.89 <
1 8 16 16.02 14.51 2.78 o
2 8 16 25.82 21.67 3.58 o
3 8 16 2.24 -2.29 6.66 <
-2 9 16 37.30 37.57 5.57 o
-1 9 16 4.43 1.99 3.48 <
0 9 16 5.20 3.68 2.58 <
1 9 16 0.51 2.09 3.08 <
-5 0 17 3.38 9.74 5.86 <
-3 0 17 118.15 117.10 5.57 o
-1 0 17 2.25 0.60 1.29 <
1 0 17 7.81 5.47 1.19 o
3 0 17 535.47 542.55 14.12 o
-5 1 17 70.59 52.68 7.55 o
-4 1 17 13.53 15.11 2.68 o
-3 1 17 1.23 2.98 1.59 <
-2 1 17 34.39 33.30 1.49 o
-1 1 17 1.02 0.50 0.99 <
0 1 17 7.59 7.46 0.70 o
1 1 17 1190.13 1160.04 20.97 o
2 1 17 153.41 139.36 3.48 o
3 1 17 172.41 172.37 4.37 o
4 1 17 85.56 82.21 3.78 o
5 1 17 0.08 -4.57 14.61 <
-5 2 17 22.61 22.37 7.36 o
-4 2 17 104.63 103.78 5.47 o
-3 2 17 15.67 17.69 1.89 o
-2 2 17 0.00 -0.89 0.89 <
-1 2 17 0.04 -1.09 0.70 <
0 2 17 947.40 888.17 16.40 o
1 2 17 133.31 132.31 3.48 o
2 2 17 79.61 77.04 2.68 o
3 2 17 15.79 13.32 2.09 o
4 2 17 97.46 88.57 3.78 o
5 2 17 17.78 -6.56 15.11 <
-5 3 17 2.03 -3.78 10.24 <
-4 3 17 1.71 0.50 4.08 <
-3 3 17 93.04 87.48 4.77 o
-2 3 17 127.90 123.16 3.38 o
-1 3 17 564.39 559.74 10.64 o
0 3 17 42.51 40.76 1.99 o
1 3 17 0.26 2.39 1.89 <
2 3 17 29.10 26.04 1.99 o
3 3 17 45.43 43.14 3.98 o
4 3 17 45.43 45.73 4.37 o
-4 4 17 8.06 1.19 8.15 <
-3 4 17 36.14 40.26 4.08 o
-2 4 17 765.35 781.41 16.90 o
-1 4 17 180.30 188.27 6.56 o
0 4 17 43.58 33.40 2.58 o
1 4 17 60.26 52.09 3.38 o
2 4 17 1.63 4.97 1.49 o
3 4 17 31.46 29.13 3.58 o
4 4 17 13.25 2.68 3.88 <
-4 5 17 122.61 89.66 12.52 o
-3 5 17 112.44 79.72 6.26 o
-2 5 17 18.03 15.31 2.88 o
-1 5 17 6.65 12.72 3.38 o
0 5 17 0.02 -0.80 2.49 <
1 5 17 49.43 46.72 3.68 o
2 5 17 27.10 25.05 2.39 o
3 5 17 11.35 13.82 2.98 o
4 5 17 0.17 -8.45 4.17 <
-4 6 17 124.52 91.45 14.41 o
-3 6 17 53.12 45.92 6.96 o
-2 6 17 67.36 63.02 4.47 o
-1 6 17 36.84 27.53 3.28 o
0 6 17 20.40 20.08 3.38 o
1 6 17 0.59 0.80 1.69 <
2 6 17 47.98 42.74 3.08 o
3 6 17 2.64 8.05 3.28 <
4 6 17 30.14 28.93 6.96 o
-3 7 17 7.30 9.34 7.55 <
-2 7 17 0.00 -4.17 3.88 <
-1 7 17 9.24 10.64 3.98 <
0 7 17 14.11 8.25 2.09 o
1 7 17 31.73 34.49 2.88 o
2 7 17 29.86 31.61 3.28 o
3 7 17 54.40 55.87 4.97 o
-3 8 17 1.45 -9.15 9.15 <
-2 8 17 6.17 7.65 5.77 <
-1 8 17 3.97 7.55 2.78 <
0 8 17 0.13 1.39 2.09 <
1 8 17 2.30 1.19 2.58 <
2 8 17 12.70 13.82 3.98 o
-2 9 17 5.20 9.44 5.37 <
-1 9 17 22.89 20.18 3.98 o
0 9 17 29.31 29.72 3.08 o
1 9 17 2.03 7.06 3.48 <
-4 0 18 1.40 5.37 3.68 <
-2 0 18 199.89 186.28 5.37 o
0 0 18 4.89 6.46 0.80 o
2 0 18 1566.56 1578.63 36.68 o
4 0 18 156.46 165.61 7.46 o
-5 1 18 75.18 82.21 8.95 o
-4 1 18 9.64 4.87 2.58 <
-3 1 18 31.93 31.01 2.39 o
-2 1 18 117.76 112.33 2.68 o
-1 1 18 60.19 52.88 1.89 o
0 1 18 54.91 51.19 1.79 o
1 1 18 529.21 507.16 9.74 o
2 1 18 391.54 362.43 6.96 o
3 1 18 441.24 456.56 9.34 o
4 1 18 115.13 113.62 4.17 o
-5 2 18 0.10 2.58 6.86 <
-4 2 18 7.93 6.86 3.58 <
-3 2 18 72.01 69.98 3.58 o
-2 2 18 1.48 0.99 1.39 <
-1 2 18 12.34 12.03 0.99 o
0 2 18 756.78 699.70 14.71 o
1 2 18 157.48 148.41 3.78 o
2 2 18 7.07 6.36 1.89 o
3 2 18 22.95 21.57 2.29 o
4 2 18 114.59 115.11 4.27 o
-4 3 18 1.23 4.17 4.08 <
-3 3 18 91.36 95.33 4.97 o
-2 3 18 3.27 2.68 1.19 <
-1 3 18 302.43 292.64 6.96 o
0 3 18 357.43 349.60 7.26 o
1 3 18 26.43 25.75 2.39 o
2 3 18 4.60 4.27 1.49 <
3 3 18 9.15 11.53 2.58 o
4 3 18 6.10 4.77 3.38 <
-4 4 18 4.77 1.29 5.27 <
-3 4 18 92.52 93.04 6.06 o
-2 4 18 46.35 52.39 3.08 o
-1 4 18 62.86 59.24 2.88 o
0 4 18 0.74 -0.80 1.79 <
1 4 18 16.56 20.68 2.88 o
2 4 18 3.69 4.17 1.69 <
3 4 18 2.87 1.29 2.49 <
4 4 18 6.43 1.69 4.47 <
-4 5 18 200.64 161.63 14.61 o
-3 5 18 226.46 220.38 9.44 o
-2 5 18 6.10 5.57 2.58 <
-1 5 18 19.37 17.10 3.28 o
0 5 18 11.17 8.75 2.88 o
1 5 18 13.82 13.82 3.68 o
2 5 18 19.73 24.85 2.68 o
3 5 18 11.56 17.40 3.48 o
4 5 18 93.75 81.21 6.66 o
-4 6 18 20.75 -5.27 25.94 <
-3 6 18 53.36 49.40 7.16 o
-2 6 18 33.35 31.11 3.88 o
-1 6 18 79.48 69.88 4.47 o
0 6 18 2.84 6.26 3.18 <
1 6 18 0.17 -1.99 2.19 <
2 6 18 58.64 71.87 4.08 o
3 6 18 210.50 235.69 8.65 o
4 6 18 12.46 -3.38 6.36 <
-3 7 18 3.34 -4.77 7.65 <
-2 7 18 93.59 78.33 5.47 o
-1 7 18 113.88 128.33 5.47 o
0 7 18 15.79 12.03 3.98 o
1 7 18 38.29 46.22 3.38 o
2 7 18 110.08 107.75 5.17 o
3 7 18 44.75 40.85 4.87 o
-2 8 18 13.39 19.48 5.86 o
-1 8 18 21.41 21.37 3.38 o
0 8 18 162.09 179.13 5.77 o
1 8 18 42.02 39.46 3.68 o
2 8 18 11.08 12.23 3.68 o
-2 9 18 12.18 16.50 6.46 <
-1 9 18 40.95 44.23 5.27 o
0 9 18 13.76 10.74 2.88 o
1 9 18 43.68 36.38 4.27 o
-5 0 19 41.02 50.60 8.15 o
-3 0 19 49.66 61.93 4.67 o
-1 0 19 199.58 164.21 6.26 o
1 0 19 618.53 583.80 14.31 o
3 0 19 147.17 137.87 5.37 o
-5 1 19 29.32 16.80 7.36 <
-4 1 19 38.12 37.97 3.38 o
-3 1 19 32.99 34.49 2.58 o
-2 1 19 0.00 -0.10 0.89 <
-1 1 19 127.14 106.96 2.78 o
0 1 19 80.47 82.21 2.78 o
1 1 19 0.83 1.59 0.99 <
2 1 19 17.47 19.48 1.29 o
3 1 19 40.30 40.16 2.39 o
4 1 19 52.83 56.36 3.18 o
-5 2 19 1.92 -3.18 7.55 <
-4 2 19 85.67 78.83 6.56 o
-3 2 19 2.27 3.28 1.99 <
-2 2 19 47.85 48.41 1.99 o
-1 2 19 683.05 634.40 11.93 o
0 2 19 95.88 78.73 2.88 o
1 2 19 77.29 65.51 2.49 o
2 2 19 51.94 46.82 2.49 o
3 2 19 41.12 34.49 3.28 o
4 2 19 22.90 17.40 2.88 o
-4 3 19 1.38 2.29 5.27 <
-3 3 19 21.79 25.75 3.68 o
-2 3 19 582.63 555.47 10.84 o
-1 3 19 39.83 38.97 2.29 o
0 3 19 72.39 76.34 3.08 o
1 3 19 152.92 131.91 4.87 o
2 3 19 22.22 24.95 2.29 o
3 3 19 6.84 9.05 3.38 <
4 3 19 32.32 31.11 3.58 o
-4 4 19 136.13 131.41 11.53 o
-3 4 19 293.36 307.36 11.33 o
-2 4 19 17.69 21.27 2.39 o
-1 4 19 39.29 36.88 2.49 o
0 4 19 87.75 86.28 3.38 o
1 4 19 62.58 58.15 3.88 o
2 4 19 10.64 11.13 2.09 o
3 4 19 18.22 17.50 3.08 o
4 4 19 0.88 -2.68 4.08 <
-4 5 19 215.60 212.33 19.09 o
-3 5 19 88.87 87.87 6.06 o
-2 5 19 0.17 -0.70 3.78 <
-1 5 19 44.96 43.34 3.38 o
0 5 19 6.52 0.50 2.68 <
1 5 19 3.43 3.38 3.48 <
2 5 19 18.13 16.40 2.68 o
3 5 19 0.44 -1.69 2.98 <
4 5 19 261.70 277.04 16.60 o
-4 6 19 5.82 -3.48 30.42 <
-3 6 19 0.00 -3.38 6.16 <
-2 6 19 86.36 79.32 5.07 o
-1 6 19 12.87 13.12 2.78 o
0 6 19 0.64 1.09 4.97 <
1 6 19 1.70 2.78 2.19 <
2 6 19 4.58 4.17 2.29 <
3 6 19 115.69 137.28 6.66 o
-3 7 19 1.29 0.10 7.26 <
-2 7 19 11.41 13.62 5.07 <
-1 7 19 13.70 14.12 4.17 o
0 7 19 25.49 25.35 4.67 o
1 7 19 5.71 1.69 2.39 <
2 7 19 218.93 229.23 7.55 o
3 7 19 3.19 2.09 4.27 <
-2 8 19 3.81 1.69 5.27 <
-1 8 19 7.43 8.95 2.58 o
0 8 19 26.24 23.96 2.68 o
1 8 19 240.41 256.46 8.55 o
2 8 19 0.02 3.28 3.68 <
-1 9 19 1.67 -0.20 3.68 <
0 9 19 123.57 136.58 6.06 o
1 9 19 13.65 9.34 4.97 <
-4 0 20 62.76 64.12 5.86 o
-2 0 20 192.98 178.63 5.47 o
0 0 20 53.54 48.51 2.29 o
2 0 20 179.46 177.14 4.97 o
4 0 20 168.15 170.58 7.85 o
-5 1 20 14.21 8.75 7.65 <
-4 1 20 3.69 2.68 3.38 <
-3 1 20 100.67 100.99 4.17 o
-2 1 20 108.73 100.10 2.68 o
-1 1 20 80.90 67.50 2.19 o
0 1 20 750.49 642.15 13.72 o
1 1 20 16.76 16.60 1.39 o
2 1 20 16.50 18.89 1.49 o
3 1 20 148.82 140.36 5.07 o
4 1 20 0.20 0.00 2.78 <
-4 2 20 14.69 16.70 5.17 o
-3 2 20 34.80 29.52 2.58 o
-2 2 20 15.44 14.31 1.29 o
-1 2 20 221.03 199.70 5.27 o
0 2 20 11.47 10.04 1.39 o
1 2 20 246.28 231.21 6.06 o
2 2 20 8.79 7.16 1.69 o
3 2 20 19.31 25.05 2.39 o
4 2 20 0.00 -0.70 2.58 <
-4 3 20 22.03 24.25 4.57 o
-3 3 20 7.98 9.44 2.78 o
-2 3 20 261.18 259.74 6.76 o
-1 3 20 22.78 20.28 1.79 o
0 3 20 1.53 1.79 1.49 <
1 3 20 4.74 6.46 2.19 <
2 3 20 70.60 57.36 3.68 o
3 3 20 84.76 83.30 4.77 o
4 3 20 6.65 4.37 3.48 <
-4 4 20 24.83 8.35 8.95 <
-3 4 20 164.16 167.69 9.94 o
-2 4 20 61.72 60.14 3.48 o
-1 4 20 2.62 3.98 1.79 <
0 4 20 0.42 -1.59 2.09 <
1 4 20 30.99 32.70 3.58 o
2 4 20 78.41 69.68 3.78 o
3 4 20 48.46 52.98 4.17 o
4 4 20 3.22 1.59 4.67 <
-4 5 20 80.67 78.43 13.02 o
-3 5 20 42.67 36.18 5.96 o
-2 5 20 1.63 -0.40 3.08 <
-1 5 20 5.02 2.98 2.68 <
0 5 20 25.83 24.75 2.98 o
1 5 20 107.65 110.83 5.67 o
2 5 20 7.05 7.16 2.09 o
3 5 20 2.14 3.08 3.38 <
4 5 20 4.66 4.77 7.06 <
-3 6 20 8.33 6.26 6.96 <
-2 6 20 0.71 4.57 3.88 <
-1 6 20 43.38 42.35 3.68 o
0 6 20 46.05 41.95 4.17 o
1 6 20 0.00 -2.88 1.99 <
2 6 20 0.39 0.40 2.39 <
3 6 20 71.08 77.63 6.16 o
-3 7 20 3.84 2.58 7.95 <
-2 7 20 39.34 38.07 5.47 o
-1 7 20 23.85 23.36 3.98 o
0 7 20 0.50 2.68 4.37 <
1 7 20 21.94 17.59 2.98 o
2 7 20 33.82 29.82 4.17 o
3 7 20 79.29 78.73 14.12 o
-2 8 20 0.10 -8.95 5.86 <
-1 8 20 4.35 8.05 4.37 <
0 8 20 42.01 38.77 3.68 o
1 8 20 24.69 28.53 3.78 o
2 8 20 23.76 22.47 4.77 o
-1 9 20 90.35 83.70 7.26 o
0 9 20 16.40 19.98 4.57 o
-3 0 21 197.60 196.22 8.45 o
-1 0 21 88.68 70.88 4.08 o
1 0 21 147.13 130.72 4.47 o
3 0 21 0.04 0.80 2.68 <
-5 1 21 0.01 1.09 7.75 <
-4 1 21 94.12 85.49 5.17 o
-3 1 21 25.96 28.03 2.49 o
-2 1 21 14.69 14.61 1.29 o
-1 1 21 3.71 2.49 1.09 <
0 1 21 3.23 3.38 1.29 <
1 1 21 148.60 127.14 3.38 o
2 1 21 12.17 12.52 1.49 o
3 1 21 11.55 11.33 2.29 o
4 1 21 3.78 2.58 3.08 <
-4 2 21 9.15 9.24 4.27 <
-3 2 21 2.89 2.88 2.19 <
-2 2 21 5.33 4.97 1.19 o
-1 2 21 213.91 192.65 5.17 o
0 2 21 72.49 64.71 2.88 o
1 2 21 62.91 55.07 3.18 o
2 2 21 174.80 157.46 4.47 o
3 2 21 4.26 2.68 1.99 <
4 2 21 65.15 70.48 3.78 o
-4 3 21 20.38 18.39 4.97 o
-3 3 21 4.14 7.26 3.38 <
-2 3 21 139.76 131.61 4.47 o
-1 3 21 99.35 88.17 3.38 o
0 3 21 7.00 4.37 1.69 <
1 3 21 68.64 65.51 3.68 o
2 3 21 145.45 149.01 5.27 o
3 3 21 0.72 1.69 2.68 <
4 3 21 15.18 17.40 3.98 o
-4 4 21 21.56 7.06 8.95 <
-3 4 21 167.64 188.97 8.25 o
-2 4 21 6.87 7.46 2.49 <
-1 4 21 4.19 6.56 1.99 o
0 4 21 87.56 73.16 3.78 o
1 4 21 9.71 10.93 3.08 o
2 4 21 26.50 23.06 2.68 o
3 4 21 83.24 84.49 5.07 o
4 4 21 189.03 170.58 20.48 o
-4 5 21 57.64 75.45 26.24 <
-3 5 21 0.00 -6.66 5.37 <
-2 5 21 23.42 23.26 3.48 o
-1 5 21 7.08 11.13 3.88 <
0 5 21 1.40 1.69 3.08 <
1 5 21 3.29 4.67 4.97 <
2 5 21 0.12 1.29 2.19 <
3 5 21 166.75 175.45 7.55 o
-3 6 21 1.01 -4.37 7.26 <
-2 6 21 4.75 0.20 3.98 <
-1 6 21 6.13 5.37 2.88 <
0 6 21 19.40 15.71 3.68 o
1 6 21 29.52 35.09 3.38 o
2 6 21 327.41 340.16 10.44 o
3 6 21 9.01 15.21 4.27 o
-3 7 21 3.85 2.68 7.16 <
-2 7 21 0.04 0.10 4.77 <
-1 7 21 1.01 4.27 3.38 <
0 7 21 95.10 98.91 4.97 o
1 7 21 281.35 304.67 9.54 o
2 7 21 52.16 50.50 4.57 o
-2 8 21 0.00 -4.77 4.47 <
-1 8 21 78.29 82.41 5.77 o
0 8 21 351.50 356.56 10.84 o
1 8 21 77.98 86.08 5.67 o
-1 9 21 247.10 279.62 18.09 o
0 9 21 49.18 46.62 5.07 o
-4 0 22 9.24 15.71 4.97 o
-2 0 22 381.19 327.04 8.95 o
0 0 22 38.02 38.27 2.49 o
2 0 22 54.86 52.09 3.18 o
4 0 22 60.01 62.72 5.27 o
-4 1 22 10.04 6.36 3.58 <
-3 1 22 114.80 113.12 4.67 o
-2 1 22 42.41 40.66 1.99 o
-1 1 22 143.95 115.71 3.88 o
0 1 22 0.97 0.99 1.09 <
1 1 22 34.61 34.00 1.79 o
2 1 22 68.95 59.44 2.29 o
3 1 22 62.76 64.51 3.18 o
4 1 22 4.06 4.77 3.18 <
-4 2 22 73.40 68.49 6.06 o
-3 2 22 17.83 16.40 3.18 o
-2 2 22 5.58 8.75 1.39 o
-1 2 22 53.80 48.91 2.58 o
0 2 22 114.80 90.86 4.27 o
1 2 22 60.92 59.94 3.48 o
2 2 22 43.89 41.35 2.68 o
3 2 22 12.49 10.14 2.09 o
4 2 22 15.80 13.02 3.28 o
-4 3 22 34.24 34.10 5.57 o
-3 3 22 0.02 -1.59 2.88 <
-2 3 22 61.32 63.02 3.58 o
-1 3 22 7.44 10.14 1.79 o
0 3 22 221.47 211.33 5.96 o
1 3 22 163.74 145.13 5.37 o
2 3 22 3.56 0.99 3.48 <
3 3 22 39.00 41.45 3.88 o
4 3 22 18.56 20.08 4.17 o
-4 4 22 11.80 -8.55 9.74 <
-3 4 22 94.35 99.40 6.86 o
-2 4 22 3.81 1.49 2.88 <
-1 4 22 228.96 247.52 6.96 o
0 4 22 79.93 90.66 3.78 o
1 4 22 49.55 48.71 4.27 o
2 4 22 0.04 0.20 2.78 <
3 4 22 2.05 3.98 3.28 <
4 4 22 75.98 85.59 6.76 o
-4 5 22 25.83 71.97 26.94 <
-3 5 22 4.34 -0.80 5.86 <
-2 5 22 183.22 174.06 6.16 o
-1 5 22 92.57 85.89 3.98 o
0 5 22 78.34 87.38 4.27 o
1 5 22 0.64 4.77 4.08 <
2 5 22 16.75 16.50 2.68 o
3 5 22 272.78 274.16 9.84 o
-3 6 22 32.93 28.13 7.85 o
-2 6 22 21.96 17.30 4.77 o
-1 6 22 45.75 47.32 4.67 o
0 6 22 0.76 -0.50 3.98 <
1 6 22 35.14 38.37 3.28 o
2 6 22 334.09 366.60 11.13 o
3 6 22 58.39 63.22 5.47 o
-2 7 22 0.24 -4.37 5.47 <
-1 7 22 11.43 17.69 4.97 o
0 7 22 7.00 1.79 4.47 <
1 7 22 340.27 370.48 11.03 o
2 7 22 17.88 21.07 3.98 o
-2 8 22 6.59 7.75 7.26 <
-1 8 22 3.13 4.57 5.57 <
0 8 22 154.65 156.16 7.16 o
1 8 22 36.16 45.13 4.57 o
0 9 22 38.89 45.53 5.37 o
-3 0 23 47.95 51.19 4.97 o
-1 0 23 36.51 27.93 2.98 o
1 0 23 30.38 34.19 2.58 o
3 0 23 138.86 138.47 6.36 o
-4 1 23 14.96 12.03 4.67 <
-3 1 23 35.55 26.94 3.08 o
-2 1 23 42.21 33.90 1.89 o
-1 1 23 27.13 16.00 1.79 o
0 1 23 18.87 14.12 1.49 o
1 1 23 17.97 18.09 1.49 o
2 1 23 19.25 18.89 1.79 o
3 1 23 0.84 4.27 1.99 <
4 1 23 7.09 3.88 2.78 <
-4 2 23 57.50 53.28 5.77 o
-3 2 23 11.85 6.76 2.68 <
-2 2 23 0.30 0.30 1.19 <
-1 2 23 12.62 8.95 2.09 o
0 2 23 81.12 59.94 2.98 o
1 2 23 39.51 53.68 3.28 o
2 2 23 1.22 -1.39 2.29 <
3 2 23 30.05 28.23 2.58 o
4 2 23 50.31 47.81 3.58 o
-4 3 23 4.99 2.49 5.17 <
-3 3 23 0.53 3.78 3.28 <
-2 3 23 0.31 2.78 1.59 <
-1 3 23 21.09 27.34 2.39 o
0 3 23 23.28 26.44 2.49 o
1 3 23 5.97 4.97 2.78 <
2 3 23 29.49 24.75 2.88 o
3 3 23 48.47 50.60 4.17 o
4 3 23 1.20 -1.29 4.77 <
-4 4 23 0.19 -6.46 9.84 <
-3 4 23 0.13 2.98 4.27 <
-2 4 23 1.74 2.78 2.49 <
-1 4 23 12.30 12.72 2.39 o
0 4 23 5.24 4.77 2.88 <
1 4 23 64.28 67.89 4.97 o
2 4 23 84.03 85.79 4.77 o
3 4 23 3.65 6.76 3.48 <
-3 5 23 0.05 -3.78 6.26 <
-2 5 23 3.82 0.10 3.58 <
-1 5 23 50.47 46.02 4.17 o
0 5 23 91.12 92.45 5.27 o
1 5 23 58.61 68.59 5.37 o
2 5 23 0.00 0.00 2.58 <
3 5 23 1.41 5.17 5.47 <
-3 6 23 6.38 9.64 8.45 <
-2 6 23 88.95 91.55 5.37 o
-1 6 23 62.95 56.26 6.66 o
0 6 23 9.11 8.55 4.37 <
1 6 23 1.01 0.60 5.07 <
2 6 23 0.53 -2.09 3.28 <
3 6 23 66.16 68.79 12.82 o
-2 7 23 19.79 8.65 5.37 <
-1 7 23 0.28 4.17 4.77 <
0 7 23 6.31 5.07 5.57 <
1 7 23 25.00 25.25 3.58 o
2 7 23 65.07 67.59 5.27 o
-2 8 23 3.87 -12.52 7.55 <
-1 8 23 32.47 43.94 5.27 o
0 8 23 38.11 36.38 4.17 o
1 8 23 6.73 11.13 5.17 <
-4 0 24 2.92 0.89 5.37 <
-2 0 24 72.52 61.33 3.38 o
0 0 24 145.18 156.06 5.17 o
2 0 24 167.72 160.54 6.36 o
4 0 24 36.74 37.08 4.77 o
-4 1 24 0.89 -0.70 4.67 <
-3 1 24 7.71 4.27 2.49 <
-2 1 24 0.60 0.20 1.29 <
-1 1 24 105.67 97.02 3.78 o
0 1 24 10.28 12.33 1.49 o
1 1 24 145.76 152.29 3.78 o
2 1 24 49.44 48.81 3.28 o
3 1 24 118.37 133.30 4.67 o
4 1 24 54.66 52.58 3.78 o
-4 2 24 14.24 11.63 5.17 <
-3 2 24 8.64 4.57 3.28 <
-2 2 24 16.90 19.68 1.79 o
-1 2 24 8.42 8.35 1.89 o
0 2 24 118.99 102.29 3.98 o
1 2 24 12.59 12.23 2.39 o
2 2 24 129.80 127.54 4.08 o
3 2 24 24.22 25.25 2.68 o
4 2 24 58.76 58.05 4.57 o
-4 3 24 0.06 -0.70 5.57 <
-3 3 24 10.59 11.83 3.78 o
-2 3 24 22.47 23.46 2.19 o
-1 3 24 37.54 46.92 3.68 o
0 3 24 7.73 8.95 2.09 o
1 3 24 177.89 148.41 6.06 o
2 3 24 109.01 114.51 5.27 o
3 3 24 38.41 42.15 4.08 o
4 3 24 10.59 10.93 8.55 <
-4 4 24 0.71 -12.62 19.88 <
-3 4 24 0.15 1.79 4.57 <
-2 4 24 0.43 -1.49 2.58 <
-1 4 24 0.45 5.57 3.38 <
0 4 24 146.88 140.36 7.06 o
1 4 24 132.30 135.09 6.16 o
2 4 24 49.43 55.37 4.27 o
3 4 24 0.51 2.88 3.88 <
-3 5 24 17.44 15.11 6.56 <
-2 5 24 15.98 10.93 3.98 <
-1 5 24 41.98 29.03 7.16 o
0 5 24 179.29 201.79 6.66 o
1 5 24 34.73 42.54 5.47 o
2 5 24 5.87 7.16 2.98 <
3 5 24 20.72 17.79 4.77 o
-3 6 24 28.65 33.80 6.66 o
-2 6 24 116.08 127.34 6.16 o
-1 6 24 40.72 35.79 6.26 o
0 6 24 0.25 -2.58 4.57 <
1 6 24 5.87 11.83 5.47 <
2 6 24 15.75 22.07 3.98 o
-2 7 24 8.90 2.68 9.15 <
-1 7 24 6.81 12.23 5.67 <
0 7 24 80.08 83.90 5.37 o
1 7 24 6.61 11.53 3.68 o
2 7 24 0.49 -6.46 5.77 <
-1 8 24 117.66 122.27 7.85 o
0 8 24 0.01 9.74 4.57 <
1 8 24 28.66 39.96 6.56 o
-3 0 25 94.71 85.89 7.75 o
-1 0 25 132.23 119.48 6.16 o
1 0 25 0.03 -0.40 1.99 <
3 0 25 2.20 2.49 2.88 <
-4 1 25 141.12 147.12 9.34 o
-3 1 25 0.73 0.99 2.68 <
-2 1 25 114.27 91.85 3.38 o
-1 1 25 2.84 0.00 1.59 <
0 1 25 31.00 29.82 1.99 o
1 1 25 10.29 9.74 1.59 o
2 1 25 0.09 1.49 1.59 <
3 1 25 2.61 3.68 2.39 <
4 1 25 97.02 102.19 7.36 o
-4 2 25 12.70 13.52 5.47 <
-3 2 25 208.61 217.10 8.65 o
-2 2 25 0.96 0.30 1.39 <
-1 2 25 33.74 30.82 2.58 o
0 2 25 1.88 2.19 1.79 <
1 2 25 26.67 34.39 3.08 o
2 2 25 6.39 4.17 1.79 <
3 2 25 112.40 124.15 4.57 o
4 2 25 0.84 -2.09 7.55 <
-4 3 25 36.77 31.01 5.86 o
-3 3 25 19.57 23.86 4.08 o
-2 3 25 143.92 160.14 5.67 o
-1 3 25 7.09 7.06 2.78 <
0 3 25 42.70 40.46 3.18 o
1 3 25 2.07 5.27 3.38 <
2 3 25 64.05 62.82 4.17 o
3 3 25 7.41 10.93 2.88 o
-3 4 25 3.77 11.13 4.57 <
-2 4 25 48.52 48.91 3.68 o
-1 4 25 198.13 231.51 9.05 o
0 4 25 10.50 3.18 4.08 <
1 4 25 46.34 48.91 4.87 o
2 4 25 0.49 2.88 2.88 <
3 4 25 0.24 3.38 3.98 <
-3 5 25 5.89 1.49 6.76 <
-2 5 25 5.85 3.38 5.47 <
-1 5 25 34.87 34.59 5.27 o
0 5 25 1.41 0.40 3.98 <
1 5 25 1.29 3.68 5.67 <
2 5 25 8.98 8.75 3.38 <
3 5 25 6.03 6.86 4.97 <
-2 6 25 22.23 24.65 5.67 o
-1 6 25 98.50 108.85 7.36 o
0 6 25 2.20 0.70 4.67 <
1 6 25 105.38 95.73 6.66 o
2 6 25 9.52 6.36 3.78 <
-2 7 25 62.63 76.04 11.73 o
-1 7 25 81.94 84.79 7.06 o
0 7 25 1.06 -4.17 5.77 <
1 7 25 15.72 18.39 3.88 o
-4 0 26 23.52 22.66 6.76 o
-2 0 26 3.23 2.09 2.09 <
0 0 26 39.58 38.57 3.88 o
2 0 26 19.70 24.06 2.78 o
-4 1 26 8.85 10.84 5.77 <
-3 1 26 5.44 7.55 2.98 <
-2 1 26 16.03 16.30 1.79 o
-1 1 26 3.00 0.89 1.89 <
0 1 26 5.33 7.85 1.99 o
1 1 26 23.29 23.76 1.89 o
2 1 26 0.54 -0.89 2.09 <
3 1 26 11.02 13.92 2.58 o
-4 2 26 2.56 5.17 5.47 <
-3 2 26 3.94 7.16 3.88 <
-2 2 26 2.46 1.59 1.59 <
-1 2 26 20.90 26.44 3.68 o
0 2 26 0.01 0.40 1.59 <
1 2 26 7.02 10.93 3.78 <
2 2 26 13.07 10.74 2.98 o
3 2 26 50.13 57.06 3.38 o
-4 3 26 30.77 26.34 9.44 <
-3 3 26 18.60 25.55 4.47 o
-2 3 26 17.07 21.47 2.88 o
-1 3 26 1.13 3.88 2.49 <
0 3 26 16.54 20.68 3.58 o
1 3 26 0.08 -2.58 3.58 <
2 3 26 18.06 18.99 3.08 o
3 3 26 0.14 -4.27 3.18 <
-3 4 26 27.63 38.77 5.57 o
-2 4 26 10.16 11.13 3.08 o
-1 4 26 23.05 37.57 4.57 o
0 4 26 15.85 16.20 3.48 o
1 4 26 22.31 15.51 4.87 o
2 4 26 2.46 4.17 2.98 <
3 4 26 1.33 8.05 4.27 <
-3 5 26 0.08 -12.23 7.16 <
-2 5 26 58.50 68.79 4.77 o
-1 5 26 31.17 25.05 5.37 o
0 5 26 165.66 163.92 6.96 o
1 5 26 8.56 7.95 5.07 <
2 5 26 0.37 -0.40 3.28 <
-2 6 26 5.30 -3.58 7.46 <
-1 6 26 3.18 8.05 6.86 <
0 6 26 5.40 2.98 6.56 <
1 6 26 61.41 73.76 7.46 o
2 6 26 3.21 9.34 4.27 <
-1 7 26 4.31 12.03 6.46 <
0 7 26 37.37 24.16 9.24 <
1 7 26 1.06 -4.27 3.88 <
-3 0 27 0.64 2.68 4.47 <
-1 0 27 3.34 1.39 3.08 <
1 0 27 81.29 95.73 4.87 o
3 0 27 43.77 50.89 4.47 o
-4 1 27 17.66 24.75 6.36 o
-3 1 27 10.30 14.02 3.58 o
-2 1 27 1.84 -0.80 1.99 <
-1 1 27 22.38 21.07 2.58 o
0 1 27 18.72 21.97 2.58 o
1 1 27 50.69 56.76 2.68 o
2 1 27 53.78 56.86 2.88 o
3 1 27 0.65 -1.69 2.39 <
-4 2 27 24.25 21.77 6.76 o
-3 2 27 36.81 37.18 4.77 o
-2 2 27 36.24 30.82 2.58 o
-1 2 27 12.25 13.62 2.39 o
0 2 27 109.24 110.14 5.37 o
1 2 27 2.72 0.70 2.39 <
2 2 27 53.83 54.47 3.48 o
3 2 27 0.28 3.18 3.28 <
-3 3 27 41.78 44.53 5.07 o
-2 3 27 85.85 86.08 4.77 o
-1 3 27 83.52 84.39 5.57 o
0 3 27 6.14 5.77 3.28 <
1 3 27 124.87 129.82 5.77 o
2 3 27 27.58 30.02 3.58 o
3 3 27 40.28 39.56 4.17 o
-3 4 27 3.04 5.67 5.67 <
-2 4 27 73.50 74.35 4.97 o
-1 4 27 108.03 123.76 7.65 o
0 4 27 102.22 116.60 6.86 o
1 4 27 4.63 3.68 4.77 <
2 4 27 84.37 94.04 5.77 o
3 4 27 9.25 18.09 5.67 o
-2 5 27 14.04 5.67 5.86 <
-1 5 27 128.12 127.04 7.75 o
0 5 27 49.54 51.09 7.06 o
1 5 27 49.63 50.60 6.06 o
2 5 27 0.77 1.59 3.58 <
-2 6 27 7.61 8.05 12.33 <
-1 6 27 1.32 1.19 7.26 <
0 6 27 75.22 70.78 8.55 o
1 6 27 67.39 67.20 7.65 o
2 6 27 0.54 -1.89 6.66 <
-1 7 27 0.65 2.98 4.47 <
0 7 27 1.07 -15.01 13.52 <
1 7 27 8.20 12.03 6.56 <
-4 0 28 3.28 -1.79 11.63 <
-2 0 28 93.82 105.57 11.63 o
0 0 28 0.20 5.27 3.08 <
2 0 28 207.74 249.11 13.82 o
-4 1 28 0.05 -0.99 7.06 <
-3 1 28 21.60 20.87 4.17 o
-2 1 28 3.94 6.06 2.58 <
-1 1 28 21.57 26.04 2.78 o
0 1 28 0.82 0.30 2.19 <
1 1 28 47.33 46.32 3.28 o
2 1 28 4.10 -0.10 1.89 <
3 1 28 127.57 141.65 5.57 o
-3 2 28 9.89 2.58 4.57 <
-2 2 28 1.30 0.10 2.58 <
-1 2 28 6.45 4.27 2.39 <
0 2 28 99.79 106.86 6.56 o
1 2 28 4.34 1.49 2.09 <
2 2 28 16.76 15.90 2.78 o
3 2 28 0.93 0.50 3.38 <
-3 3 28 75.55 79.03 6.76 o
-2 3 28 16.84 15.21 3.88 o
-1 3 28 13.29 11.53 2.78 o
0 3 28 0.39 0.70 3.78 <
1 3 28 68.88 68.19 5.27 o
2 3 28 0.97 -1.49 2.49 <
3 3 28 2.81 6.56 3.58 <
-3 4 28 0.72 5.67 6.56 <
-2 4 28 13.81 15.51 4.47 o
-1 4 28 4.32 8.55 4.67 <
0 4 28 20.14 11.23 5.07 <
1 4 28 0.14 6.16 5.07 <
2 4 28 45.69 55.27 4.57 o
-2 5 28 1.16 1.19 5.77 <
-1 5 28 0.00 -1.49 6.06 <
0 5 28 5.96 -2.09 6.26 <
1 5 28 23.73 23.06 5.86 o
2 5 28 36.09 52.19 5.37 o
-1 6 28 6.65 5.27 7.46 <
0 6 28 4.52 5.37 7.65 <
1 6 28 3.13 0.30 7.26 <
2 6 28 6.85 -0.89 7.06 <
-1 7 28 221.26 232.21 16.40 o
-3 0 29 71.50 73.76 6.86 o
-1 0 29 67.78 70.68 5.96 o
1 0 29 132.48 157.06 6.86 o
3 0 29 2.76 5.17 4.08 <
-3 1 29 18.11 18.49 4.97 o
-2 1 29 44.93 47.71 3.78 o
-1 1 29 218.13 254.47 7.65 o
0 1 29 2.58 3.58 2.58 <
1 1 29 0.48 0.10 2.29 <
2 1 29 33.90 37.28 2.78 o
3 1 29 1.88 0.50 2.78 <
-3 2 29 7.97 6.46 4.87 <
-2 2 29 58.83 59.24 5.07 o
-1 2 29 13.18 13.22 2.78 o
0 2 29 143.82 170.38 6.26 o
1 2 29 12.75 12.13 3.08 o
2 2 29 0.00 -0.50 2.58 <
3 2 29 25.11 22.56 3.88 o
-3 3 29 0.01 0.80 4.97 <
-2 3 29 32.85 41.05 4.57 o
-1 3 29 7.48 6.66 3.08 <
0 3 29 0.00 7.06 4.17 <
1 3 29 102.06 108.75 6.36 o
2 3 29 9.46 10.84 3.08 o
3 3 29 0.87 11.53 6.46 <
-2 4 29 25.50 33.80 5.57 o
-1 4 29 6.25 8.35 4.77 <
0 4 29 0.00 0.10 5.67 <
1 4 29 1.30 2.78 7.26 <
2 4 29 69.66 88.87 6.06 o
-2 5 29 13.78 14.02 7.55 <
-1 5 29 38.78 33.40 6.36 o
0 5 29 7.49 1.79 7.16 <
1 5 29 1.33 -3.48 7.85 <
2 5 29 7.65 9.54 5.57 <
-1 6 29 2.79 -0.70 5.67 <
0 6 29 25.09 13.22 8.65 <
1 6 29 4.29 6.36 8.55 <
-2 0 30 366.42 389.27 14.61 o
0 0 30 2.86 2.19 3.68 <
2 0 30 2.00 8.85 3.48 <
-3 1 30 84.98 87.28 7.16 o
-2 1 30 12.86 8.45 3.28 <
-1 1 30 120.54 128.53 5.77 o
0 1 30 301.60 338.37 9.24 o
1 1 30 4.65 1.79 3.18 <
2 1 30 12.34 13.42 2.88 o
3 1 30 0.88 -2.49 4.17 <
-3 2 30 2.17 7.55 5.37 <
-2 2 30 1.32 0.89 3.78 <
-1 2 30 91.55 95.73 5.37 o
0 2 30 177.01 208.85 7.16 o
1 2 30 141.73 161.53 6.96 o
2 2 30 40.68 40.36 3.68 o
3 2 30 18.83 21.47 6.26 o
-3 3 30 18.14 23.26 6.56 o
-2 3 30 106.38 120.58 7.65 o
-1 3 30 18.41 19.09 3.48 o
0 3 30 4.85 2.78 3.48 <
1 3 30 258.54 302.78 9.74 o
2 3 30 95.25 102.58 5.47 o
-2 4 30 1.27 1.59 5.27 <
-1 4 30 7.82 12.23 5.37 <
0 4 30 34.90 40.66 6.86 o
1 4 30 0.00 9.74 7.95 <
2 4 30 144.39 162.23 7.46 o
-1 5 30 0.14 -4.77 6.66 <
0 5 30 1.12 5.86 7.75 <
1 5 30 2.65 4.57 12.92 <
2 5 30 0.78 -1.99 6.86 <
-1 6 30 0.13 -1.59 5.96 <
0 6 30 13.20 23.36 16.50 <
-3 0 31 561.17 592.45 21.47 o
-1 0 31 15.87 16.20 4.67 o
1 0 31 155.10 177.44 9.94 o
3 0 31 0.57 -3.48 6.16 <
-3 1 31 1.06 4.77 5.37 <
-2 1 31 107.69 124.06 5.96 o
-1 1 31 2.17 3.38 2.78 <
0 1 31 8.15 13.12 3.18 o
1 1 31 2.74 2.19 3.58 <
2 1 31 20.21 19.18 3.38 o
3 1 31 11.74 11.03 5.17 <
-3 2 31 3.41 10.84 6.76 <
-2 2 31 0.06 0.10 4.17 <
-1 2 31 243.27 265.90 8.35 o
0 2 31 4.00 11.73 3.58 o
1 2 31 46.15 48.81 5.17 o
2 2 31 0.01 -3.08 3.28 <
-2 3 31 5.43 -1.49 4.27 <
-1 3 31 0.01 0.30 3.38 <
0 3 31 36.78 49.20 4.97 o
1 3 31 1.36 10.04 5.57 <
2 3 31 163.73 171.37 9.64 o
-2 4 31 1.70 -2.88 5.47 <
-1 4 31 14.84 22.96 4.77 o
0 4 31 0.04 -11.43 6.96 <
1 4 31 1.17 -2.19 8.55 <
2 4 31 16.79 8.45 10.34 <
-1 5 31 1.77 -1.69 6.36 <
0 5 31 25.70 21.57 8.65 <
1 5 31 13.35 3.48 10.44 <
-2 0 32 301.35 326.24 13.82 o
0 0 32 1.17 4.87 4.27 <
2 0 32 2.74 -0.60 5.57 <
-3 1 32 95.51 108.65 12.33 o
-2 1 32 250.58 280.62 8.85 o
-1 1 32 76.54 93.64 6.06 o
0 1 32 0.06 -0.10 3.18 <
1 1 32 0.40 1.19 4.08 <
2 1 32 28.18 26.24 5.07 o
-2 2 32 0.55 -1.99 4.67 <
-1 2 32 212.23 255.27 8.45 o
0 2 32 38.01 47.61 4.37 o
1 2 32 18.46 15.81 5.17 o
2 2 32 1.38 1.09 4.67 <
-2 3 32 7.91 1.99 5.77 <
-1 3 32 15.18 17.50 3.88 o
0 3 32 230.10 284.69 12.52 o
1 3 32 60.95 67.30 6.86 o
2 3 32 41.86 46.32 11.23 o
-1 4 32 7.50 12.62 4.77 <
0 4 32 2.03 -4.87 5.47 <
1 4 32 207.58 226.14 13.12 o
-1 5 32 0.02 -11.13 6.96 <
0 5 32 1.24 15.90 19.09 <
-1 0 33 11.19 12.13 5.17 <
1 0 33 0.01 1.79 6.16 <
-2 1 33 147.93 154.47 9.15 o
-1 1 33 128.93 139.36 6.96 o
0 1 33 6.84 8.45 3.78 <
1 1 33 17.55 25.55 5.07 o
-2 2 33 0.20 -0.40 7.06 <
-1 2 33 138.03 164.21 7.36 o
0 2 33 168.15 198.31 8.15 o
1 2 33 11.00 4.08 5.47 <
-2 3 33 1.20 -8.65 8.05 <
-1 3 33 6.47 8.95 4.27 <
0 3 33 146.85 188.47 9.34 o
1 3 33 1.40 18.39 6.66 <
2 3 33 29.38 17.10 12.52 <
-1 4 33 0.82 10.34 5.37 <
0 4 33 223.29 242.25 9.74 o
1 4 33 119.60 151.69 16.80 o
-1 5 33 124.81 139.46 13.82 o
-2 0 34 30.27 36.88 6.76 o
0 0 34 0.29 -2.78 5.17 <
-2 1 34 25.32 34.00 6.76 o
-1 1 34 19.78 23.46 4.27 o
0 1 34 2.43 4.17 3.68 <
1 1 34 0.02 1.89 5.07 <
-2 2 34 29.34 26.34 6.96 o
-1 2 34 5.99 10.84 3.88 <
0 2 34 39.83 51.69 5.27 o
1 2 34 0.34 -2.09 6.06 <
-1 3 34 10.77 16.10 5.07 o
0 3 34 3.55 7.16 5.86 <
1 3 34 449.89 467.99 28.13 o
-1 4 34 0.75 14.12 7.85 <
0 4 34 113.44 208.45 19.58 o
-1 0 35 150.77 153.28 11.63 o
1 0 35 8.23 5.96 8.05 <
-2 1 35 101.37 114.41 10.54 o
-1 1 35 3.05 1.49 4.57 <
0 1 35 15.89 12.13 4.47 <
1 1 35 0.22 9.54 8.25 <
-1 2 35 0.74 18.09 6.46 <
0 2 35 0.01 0.89 5.17 <
1 2 35 80.63 67.20 14.31 o
-1 3 35 14.94 31.31 7.85 o
0 3 35 36.11 50.30 5.77 o
0 0 36 30.72 35.29 7.95 o
0 1 36 122.25 146.72 9.54 o
0 2 36 13.89 7.75 7.46 <
loop_
_restr_angle_atom_site_label_1
_restr_angle_site_symmetry_1
_restr_angle_atom_site_label_2
_restr_angle_site_symmetry_2
_restr_angle_atom_site_label_3
_restr_angle_site_symmetry_3
_restr_angle_target
_restr_angle_target_weight_param
? ? ? ? ? ? ? ?
loop_
_restr_distance_atom_site_label_1
_restr_distance_site_symmetry_1
_restr_distance_atom_site_label_2
_restr_distance_site_symmetry_2
_restr_distance_target
_restr_distance_target_weight_param
? ? ? ? ? ?
loop_
_restr_equal_angle_atom_site_label_1
_restr_equal_angle_site_symmetry_1
_restr_equal_angle_atom_site_label_2
_restr_equal_angle_site_symmetry_2
_restr_equal_angle_atom_site_label_3
_restr_equal_angle_site_symmetry_3
_restr_equal_angle_class_class_id
_restr_equal_angle_class_target_weight_param
? ? ? ? ? ? ? ?
loop_
_restr_equal_distance_atom_site_label_1
_restr_equal_distance_site_symmetry_1
_restr_equal_distance_atom_site_label_2
_restr_equal_distance_site_symmetry_2
_restr_equal_distance_class_class_id
_restr_equal_distance_class_target_weight_param
? ? ? ? ? ?
loop_
_restr_equal_torsion_atom_site_label_1
_restr_equal_torsion_site_symmetry_1
_restr_equal_torsion_atom_site_label_2
_restr_equal_torsion_site_symmetry_2
_restr_equal_torsion_atom_site_label_3
_restr_equal_torsion_site_symmetry_3
_restr_equal_torsion_atom_site_label_4
_restr_equal_torsion_site_symmetry_4
_restr_equal_torsion_class_class_id
_restr_equal_torsion_class_target_weight_param
? ? ? ? ? ? ? ? ? ?
loop_
_restr_torsion_atom_site_label_1
_restr_torsion_site_symmetry_1
_restr_torsion_atom_site_label_2
_restr_torsion_site_symmetry_2
_restr_torsion_atom_site_label_3
_restr_torsion_site_symmetry_3
_restr_torsion_atom_site_label_4
_restr_torsion_site_symmetry_4
_restr_torsion_angle_target
_restr_torsion_weight_param
? ? ? ? ? ? ? ? ? ?
loop_
_twin_individual_id
_twin_individual_mass_fraction_refined
_twin_individual_twin_matrix_11
_twin_individual_twin_matrix_12
_twin_individual_twin_matrix_13
_twin_individual_twin_matrix_21
_twin_individual_twin_matrix_22
_twin_individual_twin_matrix_23
_twin_individual_twin_matrix_31
_twin_individual_twin_matrix_32
_twin_individual_twin_matrix_33
? ? ? ? ? ? ? ? ? ? ?
loop_
_twin_refln_datum_id
_twin_refln_individual_id
_twin_refln_index_h
_twin_refln_index_k
_twin_refln_index_l
_twin_refln_F_squared_calc
_twin_refln_F_squared_meas
_twin_refln_F_squared_sigma
_twin_refln_include_status
? ? ? ? ? ? ? ? ?
loop_
_jana_atom_site_adp_c_label
_jana_atom_site_adp_c_type_symbol
_jana_atom_site_adp_c_111
_jana_atom_site_adp_c_112
_jana_atom_site_adp_c_113
_jana_atom_site_adp_c_122
_jana_atom_site_adp_c_123
_jana_atom_site_adp_c_133
_jana_atom_site_adp_c_222
_jana_atom_site_adp_c_223
_jana_atom_site_adp_c_233
_jana_atom_site_adp_c_333
? ? ? ? ? ? ? ? ? ? ? ?
loop_
_jana_atom_site_adp_d_label
_jana_atom_site_adp_d_type_symbol
_jana_atom_site_adp_d_1111
_jana_atom_site_adp_d_1112
_jana_atom_site_adp_d_1113
_jana_atom_site_adp_d_1122
_jana_atom_site_adp_d_1123
_jana_atom_site_adp_d_1133
_jana_atom_site_adp_d_1222
_jana_atom_site_adp_d_1223
_jana_atom_site_adp_d_1233
_jana_atom_site_adp_d_1333
_jana_atom_site_adp_d_2222
_jana_atom_site_adp_d_2223
_jana_atom_site_adp_d_2233
_jana_atom_site_adp_d_2333
_jana_atom_site_adp_d_3333
? ? ? ? ? ? ? ? ? ? ? ? ? ? ? ? ?
loop_
_jana_atom_site_adp_e_label
_jana_atom_site_adp_e_type_symbol
_jana_atom_site_adp_e_11111
_jana_atom_site_adp_e_11112
_jana_atom_site_adp_e_11113
_jana_atom_site_adp_e_11122
_jana_atom_site_adp_e_11123
_jana_atom_site_adp_e_11133
_jana_atom_site_adp_e_11222
_jana_atom_site_adp_e_11223
_jana_atom_site_adp_e_11233
_jana_atom_site_adp_e_11333
_jana_atom_site_adp_e_12222
_jana_atom_site_adp_e_12223
_jana_atom_site_adp_e_12233
_jana_atom_site_adp_e_12333
_jana_atom_site_adp_e_13333
_jana_atom_site_adp_e_22222
_jana_atom_site_adp_e_22223
_jana_atom_site_adp_e_22233
_jana_atom_site_adp_e_22333
_jana_atom_site_adp_e_23333
_jana_atom_site_adp_e_33333
? ? ? ? ? ? ? ? ? ? ? ? ? ? ? ? ? ? ? ? ? ? ?
loop_
_jana_atom_site_adp_f_label
_jana_atom_site_adp_f_type_symbol
_jana_atom_site_adp_f_111111
_jana_atom_site_adp_f_111112
_jana_atom_site_adp_f_111113
_jana_atom_site_adp_f_111122
_jana_atom_site_adp_f_111123
_jana_atom_site_adp_f_111133
_jana_atom_site_adp_f_111222
_jana_atom_site_adp_f_111223
_jana_atom_site_adp_f_111233
_jana_atom_site_adp_f_111333
_jana_atom_site_adp_f_112222
_jana_atom_site_adp_f_112223
_jana_atom_site_adp_f_112233
_jana_atom_site_adp_f_112333
_jana_atom_site_adp_f_113333
_jana_atom_site_adp_f_122222
_jana_atom_site_adp_f_122223
_jana_atom_site_adp_f_122233
_jana_atom_site_adp_f_122333
_jana_atom_site_adp_f_123333
_jana_atom_site_adp_f_133333
_jana_atom_site_adp_f_222222
_jana_atom_site_adp_f_222223
_jana_atom_site_adp_f_222233
_jana_atom_site_adp_f_222333
_jana_atom_site_adp_f_223333
_jana_atom_site_adp_f_233333
_jana_atom_site_adp_f_333333
? ? ? ? ? ? ? ? ? ? ? ? ? ? ? ? ? ? ? ? ? ? ? ? ? ? ? ? ? ?
