#------------------------------------------------------------------------------
#$Date: 2022-05-12 04:39:41 +0300 (Thu, 12 May 2022) $
#$Revision: 275356 $
#$URL: file:///home/coder/svn-repositories/cod/cif/2/10/89/2108967.cif $
#------------------------------------------------------------------------------
#
# This file is available in the Crystallography Open Database (COD),
# http://www.crystallography.net/. The original data for this entry
# were provided by IUCr Journals, http://journals.iucr.org/.
#
# The file may be used within the scientific community so long as
# proper attribution is given to the journal article from which the
# data were obtained.
#
data_2108967
loop_
_publ_author_name
'Aree, Thammarat'
'McMonagle, Charles J.'
'Michalchuk, Adam A. L.'
'Chernyshov, Dmitry'
_publ_section_title
;
 Low-frequency lattice vibrations from atomic displacement parameters of
 \a-FOX-7, a high energy density material
;
_journal_coeditor_code           WU5002
_journal_issue                   3
_journal_name_full               'Acta Crystallographica Section B'
_journal_page_first
;
;
_journal_paper_doi               10.1107/S2052520622002700
_journal_volume                  78
_journal_year                    2022
_chemical_formula_moiety         'C2 H4 N4 O4'
_chemical_formula_sum            'C2 H4 N4 O4'
_chemical_formula_weight         148.079
_chemical_name_systematic        1,1-Diamino-2,2-dinitroethylene
_space_group_crystal_system      monoclinic
_space_group_IT_number           14
_space_group_name_Hall           '-P 2yn'
_space_group_name_H-M_alt        'P 1 21/n 1'
_atom_sites_solution_primary     notdet
_audit_creation_method
;
Olex2 1.3
(compiled 2020.11.12 svn.r5f609507 for OlexSys, GUI svn.r6408)
;
_cell_angle_alpha                90
_cell_angle_beta                 90.4816(15)
_cell_angle_gamma                90
_cell_formula_units_Z            4
_cell_length_a                   6.91290(10)
_cell_length_b                   6.48720(10)
_cell_length_c                   11.2465(2)
_cell_measurement_reflns_used    2137
_cell_measurement_temperature    80.0
_cell_measurement_theta_max      32.8210
_cell_measurement_theta_min      3.2190
_cell_volume                     504.336(14)
_computing_cell_refinement
;
CrysAlisPro 1.171.40.67a (Rigaku OD, 2019)
;
_computing_data_collection
;
CrysAlisPro 1.171.40.67a (Rigaku OD, 2019)
;
_computing_data_reduction
;
CrysAlisPro 1.171.40.67a (Rigaku OD, 2019)
;
_computing_molecular_graphics
;
Olex2 1.3 (Dolomanov <i>et al.</i>,  2009)
;
_computing_publication_material
;
Olex2 1.3 (Dolomanov <i>et al.</i>,  2009)
;
_computing_structure_refinement
;
olex2.refine 1.3 (Bourhis <i>et al.</i>,  2015)
;
_diffrn_ambient_temperature      80.0
_diffrn_detector                 'Hybrid Pixel Array Detector'
_diffrn_detector_area_resol_mean 5.8140
_diffrn_measured_fraction_theta_full 0.8949
_diffrn_measured_fraction_theta_max 0.6601
_diffrn_measurement_device       'one-circle diffractometer'
_diffrn_measurement_device_type  'BM01 ESRF 2M 20210501'
_diffrn_measurement_method       '\w scans'
_diffrn_radiation_monochromator  'silicon 111'
_diffrn_radiation_probe          x-ray
_diffrn_radiation_type           synchrotron
_diffrn_radiation_wavelength     0.66418
_diffrn_reflns_av_R_equivalents  0.0129
_diffrn_reflns_av_unetI/netI     0.0155
_diffrn_reflns_limit_h_max       11
_diffrn_reflns_limit_h_min       -11
_diffrn_reflns_limit_k_max       10
_diffrn_reflns_limit_k_min       -10
_diffrn_reflns_limit_l_max       13
_diffrn_reflns_limit_l_min       -13
_diffrn_reflns_number            4645
_diffrn_reflns_theta_full        23.4849
_diffrn_reflns_theta_max         32.97
_diffrn_reflns_theta_min         3.22
_diffrn_source
;
European Synchrotron Radiation Facility (ESRF), BM01 - The Swiss-Norwegian
Beamlines
;
_exptl_absorpt_coefficient_mu    0.156
_exptl_absorpt_correction_T_max  1.00000
_exptl_absorpt_correction_T_min  0.70056
_exptl_absorpt_correction_type   multi-scan
_exptl_absorpt_process_details
;
CrysAlisPro 1.171.40.67a (Rigaku OD, 2019)
Empirical absorption correction using spherical harmonics,
implemented in SCALE3 ABSPACK scaling algorithm.
;
_exptl_crystal_colour            'clear yellow'
_exptl_crystal_density_diffrn    1.950
_exptl_crystal_description       block
_exptl_crystal_F_000             304.164
_exptl_crystal_size_max          0.2
_exptl_crystal_size_mid          0.1
_exptl_crystal_size_min          0.1
_refine_diff_density_max         0.2564
_refine_diff_density_min         -0.2680
_refine_ls_goodness_of_fit_ref   1.0223
_refine_ls_hydrogen_treatment    refall
_refine_ls_matrix_type           full
_refine_ls_number_constraints    0
_refine_ls_number_parameters     127
_refine_ls_number_reflns         1536
_refine_ls_number_restraints     93
_refine_ls_restrained_S_all      0.9901
_refine_ls_R_factor_all          0.0292
_refine_ls_R_factor_gt           0.0267
_refine_ls_shift/su_max          0.0009
_refine_ls_shift/su_mean         0.0001
_refine_ls_structure_factor_coef Fsqd
_refine_ls_weighting_details
'w=1/[\s^2^(Fo^2^)+(0.0442P)^2^+0.1719P] where P=(Fo^2^+2Fc^2^)/3'
_refine_ls_weighting_scheme      calc
_refine_ls_wR_factor_gt          0.0734
_refine_ls_wR_factor_ref         0.0750
_reflns_number_gt                1414
_reflns_number_total             1536
_reflns_threshold_expression     I>=2u(I)
_iucr_refine_instructions_details
;
TITL 080_a.res in P2(1)/n
REM Old TITL 080 in P2(1)/n
REM SHELXT solution in P2(1)/n: R1 0.095, Rweak 0.008, Alpha 0.021
REM <I/s> 0.719 for 71 systematic absences, Orientation as input
REM Formula found by SHELXT: C3 N2 O5
CELL 0.66418 6.9129 6.4872 11.2465 90 90.4816 90
ZERR 4 0.0001 0.0001 0.0002 0 0.0015 0
LATT 1
SYMM 0.5-X,0.5+Y,0.5-Z
SFAC C H N O
DISP C 0.0028 0.0014 9.9123
DISP H -0 0 0.6652
DISP N 0.0056 0.0029 16.5876
DISP O 0.0097 0.0054 27.0096
UNIT 8 16 16 16
RIGU O11 O12 O21 O22 N11 N12 N21 H21a H21b N22 H22a H22b C1 C2
L.S. 30
PLAN  5
TEMP -193.15
CONF
BOND
MORE -1
BOND $H
fmap 2
acta
LIST -6
OMIT -1 0 9
WGHT 0.044228 0.171862
FVAR 9.04075
REM <olex2.extras>
REM <HklSrc "%.\\080.hkl">
REM </olex2.extras>
O12   4     0.58072  0.69889  0.58094  11.00000  0.00861  0.02144  0.00616 =
 0.00321  0.00174 -0.00003
O11   4     0.52176  0.55443  0.75064  11.00000  0.00947  0.01696  0.00388 =
 0.00255 -0.00049  0.00114
O22   4     0.19460  0.66407  0.83708  11.00000  0.01040  0.02188  0.00166 =
 -0.00101  0.00040 -0.00102
O21   4    -0.02077  0.55282  0.71296  11.00000  0.00957  0.01814  0.00410 =
 0.00029  0.00120 -0.00295
N12   3     0.14201  0.62407  0.73433  11.00000  0.00831  0.01240  0.00217 =
 -0.00019  0.00069 -0.00007
N11   3     0.46429  0.64124  0.65835  11.00000  0.00748  0.01275  0.00262 =
 0.00054  0.00088  0.00001
N22   3    -0.00509  0.75482  0.51006  11.00000  0.00852  0.01506  0.00416 =
 0.00134  0.00007  0.00045
H22a  2    -0.05249  0.80994  0.43226  11.00000  0.01863  0.05862  0.01613 =
 0.01981 -0.00367  0.00045
H22b  2    -0.09787  0.70126  0.56875  11.00000  0.01502  0.04470  0.01771 =
 0.01617  0.00322 -0.00066
N21   3     0.29790  0.80147  0.43819  11.00000  0.00999  0.01821  0.00396 =
 0.00261  0.00180 -0.00002
H21a  2     0.24348  0.85266  0.36085  11.00000  0.02151  0.05020  0.00935 =
 0.01358 -0.00084  0.00202
H21b  2     0.44123  0.79969  0.44746  11.00000  0.01150  0.04585  0.02366 =
 0.01399  0.00132 -0.00075
C2    1     0.18522  0.74003  0.52563  11.00000  0.00855  0.01160  0.00179 =
 0.00037  0.00019  0.00049
C1    1     0.26634  0.66653  0.63712  11.00000  0.00742  0.01319  0.00196 =
 0.00102  0.00050  0.00030
HKLF 4
END
Q3 1 -0.233333 0.574074 0.729167 11 0.05 0.24
Q1 1 -0.1 0.462963 0.75 11 0.05 0.26
Q2 1 0.633333 0.481481 0.708333 11 0.05 0.25
Q4 1 0.5 0.833333 0.416667 11 0.05 0.21
Q5 1 0.333333 0.981481 0.354167 11 0.05 0.21
  REM The information below was added by Olex2.
  REM
  REM R1 = 0.0267 for 1414 Fo > 4sig(Fo) and 0.0292 for all 1536 data
  REM 127 parameters refined using 93 restraints
  REM Highest difference peak 0.2564, deepest hole -0.2680
  REM Mean Shift 0.0001, Max Shift 0.0009.
  REM +++ Tabular Listing of Refinement Information +++
  REM R1_all = 0.0292
  REM R1_gt = 0.0267
  REM wR_ref = 0.0750
  REM GOOF = 1.0223
  REM Shift_max = 0.0009
  REM Shift_mean = 0.0001
  REM Reflections_all = 1536
  REM Reflections_gt = 1414
  REM Parameters = 127
  REM Hole = -0.2680
  REM Peak = 0.2564
  REM Flack = n/a
;
_cod_data_source_file            wu5002sup1.cif
_cod_data_source_block           080
_cod_database_code               2108967
loop_
_space_group_symop_id
_space_group_symop_operation_xyz
1 x,y,z
2 -x+1/2,y+1/2,-z+1/2
3 -x,-y,-z
4 x-1/2,-y-1/2,z-1/2
loop_
_atom_site_type_symbol
_atom_site_label
_atom_site_fract_x
_atom_site_fract_y
_atom_site_fract_z
_atom_site_U_iso_or_equiv
_atom_site_adp_type
_atom_site_occupancy
O O12 0.58072(8) 0.69889(9) 0.58094(6) 0.01206(14) Uani 1.000000
O O11 0.52176(8) 0.55443(8) 0.75064(5) 0.01010(14) Uani 1.000000
O O22 0.19460(8) 0.66407(9) 0.83708(5) 0.01131(14) Uani 1.000000
O O21 -0.02077(8) 0.55282(8) 0.71296(6) 0.01060(14) Uani 1.000000
N N12 0.14201(9) 0.62407(9) 0.73433(6) 0.00762(15) Uani 1.000000
N N11 0.46429(9) 0.64124(9) 0.65835(6) 0.00761(14) Uani 1.000000
N N22 -0.00509(9) 0.75482(9) 0.51006(6) 0.00925(15) Uani 1.000000
H H22a -0.052(2) 0.810(3) 0.4323(14) 0.031(4) Uani 1.000000
H H22b -0.098(2) 0.701(3) 0.5688(15) 0.026(4) Uani 1.000000
N N21 0.29790(10) 0.80147(10) 0.43819(7) 0.01071(15) Uani 1.000000
H H21a 0.243(2) 0.853(3) 0.3608(13) 0.027(4) Uani 1.000000
H H21b 0.441(2) 0.800(3) 0.4475(16) 0.027(4) Uani 1.000000
C C2 0.18522(10) 0.74003(10) 0.52563(7) 0.00731(16) Uani 1.000000
C C1 0.26634(10) 0.66653(10) 0.63712(7) 0.00752(16) Uani 1.000000
loop_
_atom_site_aniso_label
_atom_site_aniso_U_11
_atom_site_aniso_U_22
_atom_site_aniso_U_33
_atom_site_aniso_U_12
_atom_site_aniso_U_13
_atom_site_aniso_U_23
O12 0.0086(2) 0.0214(2) 0.0062(3) -0.00003(17) 0.0017(2) 0.0032(2)
O11 0.0095(2) 0.0170(2) 0.0039(3) 0.00114(16) -0.0005(2) 0.00255(18)
O22 0.0104(2) 0.0219(2) 0.0017(3) -0.00102(17) 0.0004(2) -0.00101(19)
O21 0.0096(2) 0.0181(2) 0.0041(4) -0.00295(16) 0.0012(2) 0.00029(18)
N12 0.0083(2) 0.0124(2) 0.0022(4) -0.00007(17) 0.0007(2) -0.00019(19)
N11 0.0075(2) 0.0127(2) 0.0026(4) 0.00001(17) 0.0009(2) 0.00054(19)
N22 0.0085(3) 0.0151(2) 0.0042(4) 0.00045(18) 0.0001(3) 0.0013(2)
H22a 0.019(6) 0.059(11) 0.016(5) 0.000(4) -0.004(2) 0.020(3)
H22b 0.015(5) 0.045(10) 0.018(6) -0.001(3) 0.003(2) 0.016(4)
N21 0.0100(3) 0.0182(3) 0.0040(4) -0.00002(19) 0.0018(2) 0.0026(2)
H21a 0.022(6) 0.050(10) 0.009(4) 0.002(4) -0.001(2) 0.014(3)
H21b 0.011(3) 0.046(10) 0.024(8) -0.0008(18) 0.0013(17) 0.014(5)
C2 0.0086(3) 0.0116(2) 0.0018(4) 0.00049(19) 0.0002(3) 0.0004(2)
C1 0.0074(3) 0.0132(2) 0.0020(4) 0.00030(19) 0.0005(3) 0.0010(2)
loop_
_atom_type_symbol
_atom_type_scat_dispersion_source
_atom_type_scat_dispersion_real
_atom_type_scat_dispersion_imag
_atom_type_scat_source
H custom 0.00000 0.00000 'NoSpherA2: Chem.Sci. 2021, DOI:10.1039/D0SC05526C'
C custom 0.00280 0.00140 'NoSpherA2: Chem.Sci. 2021, DOI:10.1039/D0SC05526C'
O custom 0.00970 0.00540 'NoSpherA2: Chem.Sci. 2021, DOI:10.1039/D0SC05526C'
N custom 0.00560 0.00290 'NoSpherA2: Chem.Sci. 2021, DOI:10.1039/D0SC05526C'
loop_
_diffrn_refln_index_h
_diffrn_refln_index_k
_diffrn_refln_index_l
0 0 2
0 0 -3
0 0 3
0 0 -4
0 0 4
0 0 5
0 0 -5
0 0 -6
0 0 6
0 0 7
0 0 -7
0 0 -8
0 0 8
0 0 11
0 0 -12
0 0 12
0 -1 0
0 1 0
0 1 1
0 -1 -1
0 1 2
0 -1 -2
0 1 -2
0 -1 2
0 -1 3
0 1 3
0 -1 -3
0 1 -3
0 1 4
0 -1 4
0 -1 -4
0 1 -4
0 -1 5
0 1 5
0 1 -5
0 1 6
0 1 -6
0 -1 -6
0 1 7
0 -1 -7
0 1 -8
0 -1 8
0 -1 9
0 1 -9
0 -1 10
0 1 -10
0 -1 -10
0 -1 -11
0 1 11
0 -1 11
0 1 -11
0 1 -12
0 1 12
0 -1 12
0 -1 -12
0 2 0
0 -2 0
0 -2 1
0 2 -1
0 2 1
0 -2 -1
0 -2 -2
0 2 2
0 -2 -3
0 2 3
0 2 -4
0 -2 4
0 2 -5
0 -2 5
0 2 -6
0 2 6
0 -2 7
0 2 7
0 -2 -7
0 2 -7
0 2 8
0 2 -8
0 -2 8
0 -2 -8
0 -2 -9
0 2 9
0 2 -9
0 -2 9
0 2 10
0 -2 -10
0 2 -10
0 -2 10
0 -2 11
0 2 11
0 2 -11
0 2 12
0 2 -12
0 3 0
0 -3 0
0 -3 -1
0 3 1
0 -3 1
0 3 -1
0 3 -2
0 -3 -2
0 -3 2
0 3 2
0 3 3
0 -3 -3
0 -3 3
0 3 -3
0 -3 -4
0 3 4
0 -3 4
0 3 -4
0 3 5
0 -3 5
0 -3 -5
0 3 6
0 -3 -6
0 -3 7
0 -3 -7
0 3 7
0 -3 -8
0 3 8
0 -3 8
0 3 9
0 -3 -9
0 -3 9
0 3 10
0 -3 -10
0 3 11
0 -3 -11
0 3 -12
0 -3 12
0 4 0
0 -4 0
0 4 1
0 -4 -1
0 -4 1
0 4 -1
0 4 2
0 -4 2
0 -4 -2
0 -4 3
0 4 3
0 -4 -3
0 4 -3
0 -4 4
0 4 4
0 -4 -4
0 4 -4
0 -4 -5
0 -4 -6
0 4 6
0 4 -7
0 4 7
0 -4 -7
0 -4 7
0 -4 8
0 4 -8
0 -4 9
0 4 -9
0 4 -10
0 -4 10
0 4 11
0 -4 11
0 4 -11
0 -4 -11
0 -4 12
0 -5 0
0 5 0
0 5 1
0 5 -1
0 -5 -1
0 -5 1
0 5 2
0 5 -2
0 -5 -2
0 -5 2
0 -5 3
0 5 -3
0 -5 -3
0 5 3
0 5 4
0 5 -4
0 -5 4
0 -5 -5
0 5 -5
0 5 5
0 -5 5
0 -5 6
0 -5 -6
0 5 6
0 5 -6
0 5 -7
0 -5 -7
0 5 7
0 -5 7
0 5 8
0 -5 8
0 5 -8
0 -5 -8
0 5 9
0 5 -9
0 -5 9
0 -5 -9
0 -5 -10
0 5 10
0 5 -11
0 -5 11
0 6 0
0 -6 0
0 -6 -1
0 6 1
0 -6 1
0 6 -1
0 -6 2
0 6 -2
0 -6 -3
0 6 3
0 -6 -4
0 6 5
0 -6 -5
0 -6 5
0 -6 6
0 6 -6
0 6 -7
0 -6 7
0 -6 8
0 6 -8
0 -6 -9
0 6 9
0 -6 9
0 6 -9
0 -6 10
0 6 -10
0 -6 11
0 7 0
0 -7 0
0 -7 1
0 7 1
0 7 -1
0 -7 -1
0 7 -2
0 -7 -2
0 7 2
0 -7 2
0 7 3
0 7 -3
0 -7 3
0 7 -4
0 7 4
0 -7 4
0 -7 -4
0 -7 -5
0 7 5
0 -7 5
0 -7 6
0 7 6
0 -7 -6
0 -7 -7
0 7 7
0 7 8
0 7 -8
0 -7 8
0 -7 -8
0 7 9
0 7 -9
0 -7 -9
0 -7 9
0 -7 10
0 7 -10
0 8 0
0 -8 0
0 -8 -1
0 -8 1
0 8 -1
0 8 1
0 8 -2
0 -8 2
0 -8 -2
0 8 2
0 -8 3
0 8 -3
0 8 -4
0 -8 4
0 -8 -4
0 8 4
0 -8 -5
0 8 -5
0 8 5
0 8 6
0 8 -6
0 -8 -6
0 -8 6
0 -8 -7
0 8 7
0 8 8
0 -8 8
0 -8 -8
0 8 -8
0 -8 9
0 8 -9
0 9 0
0 -9 0
0 -9 -1
0 -9 1
0 9 1
0 9 -1
0 9 2
0 9 -2
0 -9 3
0 9 3
0 9 -3
0 -9 -3
0 -9 4
0 -9 -4
0 9 4
0 9 -4
0 9 5
0 -9 -5
0 -9 6
0 9 6
0 9 -6
0 -9 -6
0 9 -7
0 -9 7
0 9 -8
0 -9 8
0 -10 1
0 10 -1
0 -10 2
0 10 -2
0 -10 -3
0 10 -3
0 -10 3
0 10 3
0 10 4
0 -10 -4
0 -10 4
0 10 5
0 -10 5
0 -10 -5
0 10 -5
-1 0 10
-1 0 9
1 0 -9
1 0 -8
-1 0 8
1 0 -7
-1 0 7
-1 0 1
1 0 -1
-1 0 0
1 0 0
-1 0 -1
1 0 1
-1 0 -2
1 0 2
-1 0 -3
1 0 3
-1 0 -4
1 0 4
1 0 6
1 0 7
-1 0 -7
-1 0 -8
1 0 8
-1 0 -9
1 0 9
-1 0 -10
1 0 10
1 0 11
-1 0 -11
1 0 12
-1 0 -12
1 0 13
-1 -1 12
-1 -1 11
1 1 -11
-1 -1 10
1 1 -10
-1 -1 9
-1 1 9
1 1 -9
1 1 -8
1 -1 -8
-1 1 7
1 1 -7
1 1 -6
-1 -1 6
-1 1 6
1 1 -5
-1 -1 5
-1 1 4
-1 -1 4
1 1 -4
1 -1 -3
-1 1 3
1 1 -3
-1 -1 3
-1 -1 2
1 -1 -2
-1 1 1
1 -1 -1
1 1 -1
-1 -1 1
1 -1 0
-1 1 0
-1 -1 0
1 1 0
1 -1 1
1 1 1
-1 -1 -1
-1 1 -1
1 -1 2
-1 -1 -2
1 1 2
-1 1 -2
-1 1 -3
1 -1 3
-1 -1 -3
1 1 3
1 -1 5
-1 1 -5
-1 -1 -6
1 1 6
1 -1 6
1 1 7
1 -1 7
-1 1 -7
-1 -1 -7
1 -1 8
-1 1 -8
1 1 8
-1 -1 -8
-1 1 -9
1 -1 9
1 1 9
1 1 10
1 -1 10
-1 -1 -10
-1 1 -10
1 1 11
-1 -1 -11
1 -1 11
-1 -1 -12
1 -1 12
1 1 12
-1 -2 12
-1 -2 11
1 2 -11
-1 2 11
1 2 -10
-1 -2 10
-1 2 10
-1 2 9
1 -2 -9
1 2 -9
-1 -2 9
1 -2 -8
-1 2 8
1 2 -8
-1 -2 8
-1 2 7
-1 -2 7
1 2 -7
1 -2 -7
1 -2 -6
-1 2 6
-1 2 5
1 -2 -5
-1 2 4
1 -2 -3
-1 2 3
-1 2 2
1 -2 -2
-1 2 1
1 -2 -1
-1 2 -2
1 -2 2
1 2 2
-1 -2 -2
-1 2 -3
-1 -2 -3
1 2 3
1 -2 3
-1 -2 -4
-1 2 -4
1 -2 4
1 2 4
-1 2 -5
1 2 5
-1 -2 -5
1 -2 5
1 -2 6
-1 -2 -6
1 2 6
1 2 7
1 -2 7
-1 -2 -7
-1 2 -7
1 -2 8
1 2 8
-1 2 -8
-1 -2 -8
1 -2 9
1 2 9
-1 2 -9
-1 2 -10
1 2 10
-1 -2 -10
1 -2 10
-1 -2 -11
1 2 11
-1 -2 -12
-1 2 -12
1 -2 12
1 2 12
1 -2 13
-1 3 11
1 3 -11
1 -3 -11
-1 -3 11
1 3 -10
-1 -3 10
-1 3 10
1 -3 -10
-1 -3 9
1 3 -9
1 -3 -9
-1 3 9
1 3 -8
-1 -3 8
-1 3 8
1 -3 -8
-1 3 7
1 -3 -7
-1 -3 7
1 3 -7
1 3 -6
1 -3 -6
-1 -3 6
-1 3 6
-1 -3 5
1 -3 -5
1 3 -5
-1 3 5
1 3 -4
1 -3 -4
-1 -3 4
-1 3 4
1 3 -3
-1 -3 3
-1 3 3
1 -3 -3
-1 -3 2
-1 3 2
1 -3 -2
1 3 -2
-1 -3 1
-1 3 1
1 3 -1
1 -3 -1
-1 3 0
1 3 0
1 -3 0
1 3 1
1 -3 1
-1 -3 -1
-1 3 -1
-1 3 -2
1 -3 2
-1 -3 -2
1 3 2
-1 -3 -3
1 -3 3
-1 3 -3
1 3 3
1 -3 4
-1 3 -4
1 3 4
-1 3 -5
1 3 5
1 -3 5
-1 -3 -5
1 -3 6
-1 -3 -6
1 -3 7
1 3 7
-1 -3 -7
-1 3 -7
1 3 8
-1 -3 -8
-1 3 -9
1 -3 9
-1 -3 -9
1 3 9
-1 3 -10
1 -3 10
1 -3 11
1 3 11
-1 3 -11
-1 -3 -11
1 -3 12
1 3 12
-1 -3 -12
-1 3 -12
-1 -4 11
1 4 -11
1 4 -10
-1 -4 10
1 -4 -10
-1 4 10
1 -4 -9
-1 4 9
1 4 -9
-1 -4 9
-1 4 8
1 -4 -8
1 4 -8
-1 -4 8
1 -4 -7
-1 4 7
1 -4 -6
-1 4 6
1 4 -5
1 -4 -5
-1 4 5
1 -4 -4
-1 -4 4
1 4 -4
-1 -4 3
1 4 -3
1 -4 -3
-1 4 3
1 4 -2
-1 4 2
1 -4 -2
-1 -4 2
1 -4 -1
-1 -4 1
1 4 -1
-1 4 1
1 -4 0
-1 4 0
-1 -4 0
-1 -4 -1
1 4 1
-1 4 -1
1 -4 1
-1 4 -2
-1 -4 -2
1 -4 2
1 4 2
-1 -4 -3
1 4 3
-1 4 -5
1 -4 5
1 -4 6
-1 -4 -6
-1 4 -7
1 -4 7
1 4 7
-1 -4 -7
1 4 8
-1 -4 -8
-1 4 -8
1 -4 8
1 -4 9
-1 4 -9
1 4 9
-1 -4 -9
-1 4 -10
-1 -4 -10
1 -4 10
1 4 10
1 4 11
-1 -4 -11
1 5 -11
-1 -5 11
-1 5 10
1 -5 -10
-1 -5 10
1 5 -10
-1 -5 9
1 5 -9
1 -5 -9
-1 5 9
1 -5 -8
-1 5 8
1 5 -8
-1 -5 8
1 -5 -7
-1 -5 7
1 5 -7
-1 5 7
-1 5 6
1 5 -6
1 -5 -6
1 5 -5
1 -5 -5
-1 5 5
1 5 -4
1 -5 -4
-1 -5 4
-1 5 4
-1 5 3
1 5 -3
-1 -5 3
1 5 -2
1 -5 -2
-1 5 2
-1 -5 2
1 5 -1
-1 -5 1
-1 5 1
1 -5 -1
-1 5 0
-1 -5 0
1 -5 0
1 -5 1
1 5 1
-1 5 -1
-1 -5 -1
1 5 2
-1 -5 -2
-1 5 -2
1 -5 2
-1 -5 -3
-1 5 -3
1 -5 3
1 5 3
1 -5 4
-1 -5 -4
-1 5 -4
1 5 4
1 -5 5
-1 5 -5
1 5 5
-1 -5 -5
-1 -5 -6
1 5 6
1 -5 6
-1 -5 -7
1 5 7
-1 5 -7
1 -5 7
-1 -5 -8
1 5 8
-1 -5 -9
1 5 9
-1 5 -9
1 -5 9
-1 -5 -10
1 -5 10
-1 5 -10
1 5 10
-1 5 -11
1 -5 11
1 -5 12
-1 -6 10
1 6 -10
1 6 -9
-1 -6 9
1 -6 -8
-1 6 8
-1 -6 8
1 6 -8
1 6 -7
-1 -6 7
1 -6 -7
-1 6 7
-1 6 6
1 -6 -6
1 6 -6
1 -6 -5
-1 6 5
1 -6 -4
-1 6 4
-1 6 3
1 -6 -3
-1 6 2
1 -6 -2
-1 -6 2
-1 6 1
1 -6 -1
-1 -6 1
1 -6 0
-1 6 0
1 6 0
-1 -6 0
-1 -6 -1
1 6 1
-1 6 -1
1 -6 1
1 6 2
1 -6 4
-1 6 -4
1 -6 5
-1 6 -5
-1 6 -6
1 6 6
1 -6 6
-1 -6 -6
1 -6 7
-1 6 -7
-1 -6 -7
1 6 7
-1 -6 -8
1 -6 8
1 6 8
-1 6 -8
1 -6 9
-1 -6 -9
-1 6 -9
1 6 9
1 6 10
-1 -6 -10
1 -6 11
-1 6 -11
-1 -7 10
-1 -7 9
1 7 -9
1 7 -8
1 -7 -8
-1 7 8
-1 -7 8
-1 7 7
1 -7 -7
1 -7 -6
-1 7 6
1 -7 -5
1 7 -5
-1 -7 5
-1 7 5
1 -7 -4
-1 -7 4
-1 7 4
-1 7 3
1 7 -3
1 -7 -3
-1 -7 3
-1 7 2
1 7 -2
-1 -7 2
-1 -7 1
1 7 -1
1 -7 -1
-1 7 1
-1 7 0
-1 -7 0
1 -7 0
1 7 0
1 -7 1
-1 -7 -1
-1 7 -1
1 7 1
-1 -7 -2
1 -7 2
-1 7 -2
1 -7 3
-1 -7 -3
-1 7 -3
1 7 3
1 7 4
-1 -7 -4
-1 7 -4
1 -7 4
1 7 5
-1 -7 -5
-1 -7 -6
1 7 6
-1 7 -7
1 -7 7
-1 7 -8
1 -7 8
-1 -7 -9
-1 7 -9
1 7 9
1 -7 9
-1 7 -10
1 -7 10
1 -7 11
-1 -8 9
-1 -8 8
1 8 -8
1 -8 -7
-1 8 7
-1 -8 6
-1 8 6
1 8 -6
1 -8 -6
-1 8 5
-1 -8 5
1 -8 -5
-1 8 4
1 -8 -4
-1 -8 4
1 -8 -3
-1 -8 3
1 8 -3
-1 8 3
1 8 -2
1 -8 -2
-1 -8 2
1 8 -1
-1 8 1
-1 -8 1
1 -8 -1
-1 8 0
-1 -8 0
1 -8 0
1 8 0
1 -8 1
1 8 1
-1 -8 -1
-1 8 -1
1 8 2
-1 8 -2
1 -8 2
-1 -8 -2
-1 8 -3
1 8 3
1 -8 3
1 8 4
1 -8 4
-1 -8 -4
-1 8 -4
-1 8 -5
1 -8 5
1 8 5
-1 -8 -5
-1 -8 -6
1 8 6
1 8 7
-1 8 -7
-1 -8 -7
1 -8 7
1 -8 8
-1 8 -8
1 -8 9
-1 8 -9
1 9 -8
-1 -9 8
-1 -9 7
1 9 -7
-1 9 6
1 9 -6
-1 -9 6
1 -9 -6
-1 9 5
1 -9 -5
-1 9 4
1 -9 -4
1 9 -4
1 -9 -3
-1 -9 3
-1 9 3
1 9 -3
1 9 -2
-1 9 2
1 -9 -2
-1 -9 2
-1 9 1
-1 -9 1
1 9 -1
1 9 0
1 -9 0
-1 -9 0
-1 9 0
-1 -9 -1
1 -9 1
1 9 1
-1 9 -1
-1 -9 -2
-1 9 -2
1 -9 2
1 9 2
-1 -9 -3
-1 9 -3
1 -9 3
-1 -9 -4
1 9 4
1 -9 5
-1 -9 -5
1 9 5
-1 9 -6
1 -9 6
1 9 7
-1 -9 -7
-1 9 -7
1 -9 7
-1 9 -9
1 -9 9
-1 10 5
1 10 -5
1 -10 -5
-1 -10 5
1 -10 -4
-1 -10 4
-1 10 4
1 -10 -3
-1 -10 3
-1 10 3
-1 -10 2
1 10 -2
1 10 -1
-1 -10 1
1 -10 0
1 10 0
-1 -10 0
-1 10 0
-1 -10 -1
1 -10 1
1 10 1
1 10 2
1 -10 2
-1 10 -2
-1 -10 -3
-1 10 -3
1 -10 3
1 10 3
-1 -10 -4
-1 10 -4
1 10 4
-1 -10 -5
1 10 5
2 0 -4
-2 0 4
-2 0 3
2 0 -3
2 0 -2
-2 0 2
2 0 -1
-2 0 1
2 0 0
-2 0 0
2 0 1
-2 0 -1
2 0 3
-2 0 -3
-2 0 -4
2 0 4
2 0 5
-2 0 -5
2 0 6
-2 0 -6
2 0 7
-2 0 -7
-2 0 -8
2 0 8
2 0 9
-2 0 -9
2 0 11
-2 0 -11
2 0 12
-2 0 -12
-2 0 -13
2 0 13
2 1 -8
-2 -1 8
2 1 -7
-2 -1 7
-2 -1 6
2 1 -6
2 -1 -5
2 1 -5
-2 -1 4
2 1 -4
2 -1 -3
-2 1 3
2 1 -3
-2 -1 3
-2 -1 2
2 -1 -2
2 1 -2
-2 1 2
-2 1 1
2 -1 -1
-2 -1 1
2 1 -1
-2 1 0
2 -1 0
2 1 0
-2 -1 0
2 -1 2
-2 1 -2
2 1 2
-2 -1 -2
-2 -1 -3
2 -1 3
2 1 3
-2 1 -3
-2 1 -4
2 1 4
2 -1 4
-2 -1 -4
-2 1 -5
2 1 5
2 -1 5
-2 -1 -5
2 -1 6
2 1 6
-2 1 -6
-2 -1 -6
-2 -1 -7
2 -1 7
-2 1 -7
-2 -1 -8
2 -1 8
-2 1 -8
2 1 8
2 1 9
-2 -1 -9
-2 1 -10
2 -1 10
2 -1 11
2 1 11
-2 1 -11
-2 -1 -11
2 -1 12
2 1 12
-2 1 -12
-2 -1 -12
2 -1 13
-2 1 -13
-2 -1 -13
2 1 13
-2 -2 11
2 2 -11
2 2 -10
-2 -2 10
-2 2 8
2 -2 -8
2 -2 -7
-2 2 7
-2 2 6
2 -2 -6
-2 2 5
2 -2 -5
2 -2 -4
2 -2 -3
-2 2 3
-2 -2 2
2 2 -2
-2 2 1
2 -2 -1
-2 -2 1
2 2 -1
2 -2 0
-2 2 0
2 2 0
-2 -2 0
2 -2 1
-2 -2 -1
2 2 1
-2 -2 -2
-2 2 -2
2 2 2
2 -2 2
-2 -2 -3
2 -2 3
-2 2 -3
2 2 3
2 -2 4
2 2 4
-2 2 -4
-2 -2 -4
2 -2 5
2 2 5
-2 2 -5
-2 -2 -5
-2 -2 -6
-2 2 -6
2 2 6
2 -2 6
2 -2 7
-2 -2 -7
2 2 7
-2 2 -7
-2 -2 -8
2 2 8
2 -2 9
-2 2 -9
2 2 10
2 -2 10
2 -2 11
2 2 11
-2 -2 -11
2 2 12
-2 2 -12
2 -2 12
-2 -2 -12
-2 2 -13
2 2 13
2 -2 13
-2 -3 11
-2 3 10
2 -3 -10
-2 -3 10
2 3 -10
2 3 -9
-2 -3 9
2 -3 -8
-2 3 8
-2 -3 8
-2 3 7
2 -3 -7
-2 -3 7
2 -3 -6
-2 -3 6
2 -3 -5
-2 3 5
-2 -3 5
2 3 -5
-2 3 4
2 -3 -4
-2 -3 4
2 3 -4
-2 -3 3
2 3 -3
2 3 -2
-2 -3 2
2 -3 -1
-2 3 1
2 3 -1
-2 -3 1
-2 -3 0
2 -3 0
-2 3 0
2 -3 1
-2 3 -1
-2 -3 -1
2 3 1
2 -3 2
-2 3 -2
-2 -3 -2
2 3 2
-2 -3 -3
2 -3 3
-2 3 -3
2 3 3
2 3 4
-2 3 -4
-2 -3 -4
2 -3 4
2 3 5
-2 -3 -5
2 -3 7
-2 3 -7
2 -3 8
-2 -3 -8
2 3 8
-2 3 -8
2 3 9
-2 3 -9
-2 -3 -9
2 -3 9
2 -3 10
-2 3 -10
2 3 10
-2 -3 -10
2 3 11
2 -3 11
-2 3 -11
-2 -3 -11
2 3 12
-2 -3 -12
2 -3 13
2 -4 -10
-2 4 10
2 -4 -9
-2 4 9
-2 4 8
2 -4 -8
2 -4 -7
-2 4 7
-2 4 6
2 -4 -6
-2 4 5
2 -4 -5
2 -4 -4
-2 4 4
2 4 -4
-2 -4 4
2 4 -3
2 -4 -3
-2 4 3
-2 -4 3
2 4 -2
2 -4 -2
-2 4 2
-2 -4 2
2 -4 -1
-2 4 1
-2 4 0
2 -4 0
2 -4 2
-2 4 -2
-2 4 -3
2 -4 3
2 -4 4
2 4 4
-2 -4 -4
-2 4 -4
-2 4 -5
2 -4 5
-2 -4 -5
2 4 5
-2 4 -6
2 -4 6
-2 -4 -6
2 4 6
2 -4 7
-2 4 -7
-2 -4 -7
2 4 7
-2 4 -8
2 -4 8
-2 -4 -8
2 4 8
-2 4 -9
-2 -4 -9
2 4 9
2 -4 9
2 4 10
-2 -4 -10
2 -4 11
-2 4 -11
-2 4 -12
2 -4 12
-2 -5 10
2 5 -10
-2 -5 9
-2 5 9
2 -5 -9
2 -5 -8
-2 -5 8
-2 5 8
-2 5 7
2 -5 -7
-2 5 6
2 5 -6
2 -5 -6
-2 -5 6
2 -5 -5
-2 5 5
-2 -5 5
2 5 -5
2 5 -4
-2 -5 4
-2 5 4
2 -5 -4
2 5 -3
2 -5 -3
-2 -5 3
-2 5 2
-2 -5 2
2 -5 -2
2 5 -2
-2 5 1
-2 -5 1
2 -5 -1
2 5 -1
2 5 0
-2 5 0
-2 -5 0
2 -5 0
2 5 1
2 -5 1
-2 5 -1
-2 -5 -1
2 5 2
2 -5 2
-2 -5 -2
-2 -5 -3
2 5 3
-2 -5 -4
-2 5 -4
2 -5 4
2 5 4
-2 5 -5
2 -5 5
2 5 5
-2 -5 -5
-2 -5 -6
-2 5 -7
2 5 7
-2 5 -8
2 -5 8
-2 -5 -9
-2 5 -9
2 -5 9
2 5 9
2 -5 10
-2 -5 -10
-2 5 -10
2 5 10
-2 -5 -11
2 5 11
2 -5 11
-2 5 -11
-2 -6 10
2 6 -9
-2 -6 9
-2 6 9
2 -6 -8
2 6 -8
-2 6 8
-2 -6 8
-2 6 7
-2 -6 7
2 6 -7
2 -6 -7
2 6 -6
-2 -6 6
2 -6 -6
-2 6 6
-2 -6 5
2 6 -5
2 -6 -5
-2 6 5
-2 6 4
2 -6 -4
2 -6 -3
-2 6 3
-2 6 2
-2 6 1
2 -6 -1
2 6 2
-2 -6 -2
2 -6 2
-2 6 -2
2 6 3
-2 6 -3
-2 -6 -3
2 -6 3
2 -6 4
-2 6 -4
-2 -6 -4
2 6 4
2 6 5
2 -6 5
-2 6 -5
2 6 6
-2 -6 -6
-2 6 -6
2 -6 6
2 6 7
-2 6 -7
-2 -6 -7
-2 -6 -8
2 -6 8
-2 6 -8
2 6 8
2 6 9
-2 -6 -9
2 -6 10
-2 6 -10
2 -6 11
-2 6 -11
2 6 11
2 -6 12
-2 -7 9
2 7 -9
-2 -7 8
2 7 -8
-2 7 8
2 -7 -7
-2 7 7
2 -7 -6
-2 -7 6
2 7 -6
-2 7 6
-2 -7 5
2 7 -5
2 -7 -5
-2 -7 4
2 7 -4
2 -7 -4
-2 7 4
2 7 -3
2 -7 -3
-2 7 3
-2 -7 3
2 7 -2
2 -7 -2
-2 -7 2
-2 -7 1
2 7 -1
2 -7 -1
-2 7 1
2 7 0
-2 -7 0
2 -7 0
-2 7 0
2 7 1
-2 -7 -1
2 -7 1
-2 7 -1
-2 -7 -2
2 -7 2
-2 7 -2
2 7 2
2 -7 3
-2 7 -3
2 7 3
-2 -7 -3
2 7 4
-2 -7 -4
-2 7 -5
2 -7 5
-2 -7 -6
-2 7 -6
2 -7 6
2 7 6
-2 -7 -7
2 -7 7
-2 7 -7
2 7 7
-2 -7 -8
2 -7 8
-2 7 -8
2 7 8
2 7 9
-2 -7 -9
-2 7 -10
2 -7 10
2 7 10
-2 7 -11
2 -7 11
2 8 -8
-2 -8 8
-2 8 7
2 -8 -6
-2 8 6
2 8 -6
-2 -8 6
2 -8 -5
-2 8 5
-2 -8 5
-2 -8 4
2 8 -4
2 -8 -4
2 -8 -3
-2 8 3
-2 -8 2
-2 8 2
2 8 -2
2 -8 -2
2 8 -1
-2 -8 1
2 -8 -1
-2 8 1
2 8 0
-2 8 0
2 -8 0
-2 -8 0
2 -8 1
-2 -8 -1
-2 8 -1
2 8 1
2 8 2
2 -8 2
-2 8 -2
-2 -8 -2
-2 -8 -3
2 -8 3
2 8 3
-2 8 -3
-2 8 -4
2 8 4
2 -8 4
-2 -8 -5
-2 8 -5
2 8 5
2 -8 6
-2 -8 -7
-2 8 -7
2 -8 7
2 8 7
-2 -8 -8
-2 8 -8
2 -8 8
2 8 8
2 -8 9
-2 8 -9
2 8 9
2 -8 10
-2 8 -10
-2 -9 7
2 9 -7
2 9 -6
-2 -9 6
2 -9 -5
-2 9 5
2 -9 -4
-2 9 4
-2 9 3
2 9 -3
2 -9 -3
2 9 -2
-2 -9 2
2 -9 -2
-2 9 2
-2 -9 1
2 -9 -1
-2 9 1
2 9 -1
-2 -9 0
-2 9 0
2 9 0
-2 -9 -1
2 -9 1
-2 9 -1
2 9 1
-2 -9 -2
2 -9 2
-2 9 -2
2 9 2
2 -9 4
-2 9 -5
2 -9 5
2 9 5
-2 -9 -5
2 9 6
-2 9 -6
-2 -9 -6
-2 -9 -7
2 9 7
2 -9 8
-2 9 -8
-2 9 -9
2 10 -4
-2 -10 4
2 -10 -4
-2 10 4
2 -10 -3
-2 10 3
2 10 -3
-2 -10 2
2 -10 -2
2 10 -2
-2 10 2
-2 -10 1
2 -10 -1
-2 10 1
2 10 -1
2 10 0
2 -10 0
-2 -10 0
-2 -10 -1
2 10 1
2 -10 1
-2 10 -1
-2 -10 -2
2 -10 2
-2 10 -2
2 10 2
-2 -10 -3
2 -10 3
-2 10 -3
2 10 4
3 0 -5
-3 0 5
3 0 -4
-3 0 4
3 0 -3
-3 0 3
3 0 -2
-3 0 2
3 0 0
-3 0 0
3 0 1
-3 0 -1
3 0 2
-3 0 -2
3 0 3
-3 0 -3
3 0 4
-3 0 -4
3 0 5
-3 0 -5
3 0 6
-3 0 -6
3 0 8
-3 0 -8
3 0 9
-3 0 -9
3 0 10
-3 0 -10
3 0 11
-3 0 -11
3 0 12
-3 0 -12
-3 -1 7
3 1 -7
3 -1 -6
-3 1 6
3 1 -6
-3 -1 6
3 1 -5
-3 1 5
3 -1 -5
-3 -1 5
3 1 -4
3 -1 -4
-3 -1 4
3 -1 -3
-3 1 3
3 -1 -1
-3 1 1
-3 -1 1
3 1 -1
-3 1 0
3 -1 0
3 1 0
-3 -1 0
3 1 1
-3 -1 -1
3 -1 1
-3 1 -1
3 -1 2
-3 1 -2
-3 -1 -2
3 1 2
3 -1 3
-3 -1 -3
-3 1 -3
3 1 3
3 -1 4
3 1 4
-3 -1 -4
-3 1 -4
3 -1 5
3 1 5
-3 -1 -5
-3 1 -5
3 -1 6
-3 -1 -6
3 1 6
-3 1 -6
-3 -1 -8
3 1 8
-3 1 -8
3 -1 9
3 1 9
-3 1 -9
3 -1 10
3 1 10
-3 1 -10
3 1 11
3 -1 11
-3 -1 -11
-3 1 -11
3 -1 12
3 1 12
-3 1 -12
-3 -1 -12
3 -1 13
-3 1 -13
3 2 -10
-3 -2 10
3 2 -9
-3 -2 9
3 -2 -7
-3 2 7
-3 -2 6
3 -2 -6
-3 2 6
3 2 -6
-3 -2 5
3 -2 -5
-3 2 5
3 2 -5
-3 -2 4
3 2 -4
3 -2 -3
-3 -2 3
3 -2 -2
-3 2 2
-3 -2 2
3 2 -2
3 2 -1
-3 2 1
3 -2 -1
-3 -2 1
3 -2 0
-3 2 0
3 2 0
-3 -2 0
3 -2 1
-3 2 -1
3 2 1
-3 -2 -1
-3 -2 -2
3 -2 2
-3 2 -2
3 2 2
-3 -2 -3
-3 2 -3
3 -2 3
3 2 3
3 -2 4
-3 2 -4
3 2 4
-3 -2 -4
-3 -2 -5
3 2 5
3 -2 6
-3 2 -6
3 2 7
3 -2 7
-3 -2 -7
-3 2 -7
-3 -2 -8
3 2 8
-3 2 -8
3 -2 9
-3 2 -9
3 2 9
-3 -2 -9
-3 -2 -10
3 -2 10
-3 2 -10
3 2 10
3 -2 11
3 2 11
-3 -2 -11
-3 2 -11
3 -2 12
-3 2 -12
3 -2 13
3 2 13
3 3 -10
-3 -3 10
3 -3 -9
-3 -3 9
-3 3 9
3 3 -9
3 3 -8
-3 -3 8
-3 -3 7
3 3 -7
-3 -3 6
3 -3 -6
-3 3 6
3 3 -6
3 3 -5
3 -3 -5
-3 3 5
-3 -3 4
-3 3 4
3 -3 -4
3 3 -4
3 -3 -3
-3 3 3
-3 -3 3
-3 -3 2
-3 3 2
3 3 -2
-3 -3 1
3 -3 -1
-3 3 1
3 3 -1
3 -3 0
-3 -3 0
-3 3 0
3 3 0
-3 -3 -1
-3 3 -1
3 3 1
3 -3 2
-3 -3 -2
-3 3 -2
3 3 2
3 -3 4
3 3 4
-3 -3 -4
3 3 5
-3 -3 -5
3 -3 6
-3 -3 -6
3 3 6
3 -3 7
-3 -3 -7
3 3 8
-3 -3 -8
3 -3 9
3 3 9
-3 3 -9
-3 -3 -9
3 3 10
-3 -3 -10
3 -3 11
-3 3 -11
3 -3 12
3 3 12
-3 3 -12
-3 -3 -12
3 -3 13
-3 3 -13
3 -4 -9
-3 4 9
3 -4 -8
-3 4 8
-3 4 7
3 -4 -7
3 -4 -6
-3 4 6
-3 4 5
3 -4 -5
3 -4 -4
-3 4 4
-3 -4 3
3 -4 -3
-3 4 3
-3 -4 2
3 4 -2
-3 -4 1
3 4 -1
-3 -4 0
-3 4 0
3 -4 0
3 4 0
-3 -4 -1
3 -4 1
-3 4 -1
3 4 1
-3 -4 -2
3 -4 2
-3 4 -2
3 4 2
3 -4 3
3 4 3
-3 4 -3
-3 -4 -3
3 4 4
3 -4 4
-3 -4 -4
-3 4 -4
3 4 5
-3 4 -5
3 -4 5
-3 -4 -5
3 -4 6
3 4 6
-3 4 -6
-3 -4 -6
-3 -4 -7
3 -4 7
3 4 7
-3 4 -7
-3 -4 -8
3 4 8
3 -4 9
-3 4 -9
-3 -4 -10
3 -4 10
3 4 10
-3 4 -10
-3 -4 -11
-3 4 -11
3 4 11
3 4 12
-3 -4 -12
3 -4 13
-3 -5 9
3 5 -9
-3 5 8
3 -5 -8
3 5 -8
3 5 -7
-3 -5 7
3 -5 -7
3 5 -6
3 -5 -6
-3 5 6
-3 -5 6
3 5 -5
3 -5 -5
-3 -5 5
-3 5 5
3 5 -4
-3 -5 4
3 -5 -4
-3 5 4
-3 -5 3
3 -5 -3
-3 5 3
3 5 -3
3 5 -2
-3 -5 2
-3 -5 1
3 5 -1
3 -5 -1
-3 5 1
-3 -5 0
3 -5 0
3 5 0
-3 -5 -1
3 -5 1
3 5 1
-3 5 -1
-3 -5 -2
-3 5 -2
3 -5 2
3 5 2
-3 -5 -3
-3 5 -3
3 -5 3
3 5 3
-3 -5 -4
3 5 4
3 -5 5
-3 5 -5
-3 5 -6
3 -5 6
3 5 6
3 -5 7
-3 -5 -7
3 5 7
3 -5 8
-3 -5 -8
3 5 8
3 5 9
3 -5 9
-3 5 -9
-3 -5 -9
-3 -5 -10
3 5 10
3 -5 11
-3 5 -11
3 -5 12
-3 5 -12
-3 -6 9
-3 -6 8
-3 6 8
3 6 -8
3 6 -7
-3 -6 7
-3 6 7
3 -6 -7
3 6 -6
-3 -6 6
3 -6 -6
-3 6 6
3 6 -5
-3 -6 5
3 -6 -5
-3 6 5
3 6 -4
-3 -6 4
-3 6 4
3 -6 -4
3 6 -3
3 6 -2
-3 -6 2
3 6 -1
-3 -6 1
-3 6 1
-3 -6 0
3 -6 0
-3 6 0
3 6 0
3 6 1
-3 -6 -1
3 -6 1
-3 6 -1
-3 -6 -2
-3 6 -2
3 -6 2
3 6 2
-3 6 -3
-3 -6 -3
3 -6 3
3 6 3
-3 -6 -4
3 6 4
-3 -6 -5
3 6 5
3 -6 6
-3 6 -6
-3 -6 -7
3 6 7
3 -6 8
-3 6 -8
-3 -6 -9
3 6 9
-3 -6 -10
3 6 10
3 -6 10
-3 6 -10
3 6 11
3 -6 12
-3 6 -12
3 7 -8
-3 -7 8
3 7 -7
-3 -7 7
-3 7 7
3 -7 -6
-3 7 6
3 -7 -5
-3 7 5
3 -7 -4
-3 7 4
3 -7 -3
-3 7 3
3 7 -3
3 7 -2
3 -7 -2
-3 -7 2
-3 7 2
3 7 -1
-3 -7 1
3 -7 -1
3 -7 0
-3 7 0
3 -7 1
-3 7 -1
-3 -7 -3
-3 7 -3
3 -7 3
3 7 3
-3 -7 -4
3 -7 4
-3 7 -4
3 7 4
-3 7 -5
3 7 5
3 -7 6
-3 7 -6
-3 -7 -6
3 -7 7
-3 7 -7
3 7 7
-3 -7 -7
3 7 8
-3 -7 -8
3 -7 9
-3 7 -9
3 -7 10
3 7 10
-3 7 -10
-3 -7 -10
3 -7 11
-3 7 -11
3 8 -7
-3 -8 7
3 -8 -6
-3 8 6
3 -8 -5
-3 8 5
-3 -8 4
3 -8 -4
-3 8 4
3 8 -4
-3 -8 3
3 -8 -3
-3 8 3
3 8 -3
-3 -8 2
-3 8 2
3 -8 -2
3 8 -1
-3 -8 1
3 -8 -1
-3 8 1
-3 8 0
-3 -8 0
3 8 0
-3 8 -1
-3 -8 -1
3 -8 1
3 8 1
-3 -8 -4
-3 8 -4
3 -8 4
3 8 4
-3 8 -5
3 -8 5
-3 -8 -5
-3 -8 -6
-3 8 -6
3 -8 6
3 8 6
3 8 7
-3 -8 -7
-3 8 -8
3 -8 8
-3 -8 -9
-3 8 -9
3 -8 9
3 8 9
-3 8 -10
-3 -9 6
3 9 -6
3 9 -5
-3 -9 5
-3 -9 4
3 -9 -4
-3 9 4
3 9 -4
-3 -9 3
3 -9 -3
-3 9 3
3 9 -3
3 -9 -2
-3 9 2
3 9 -2
3 -9 -1
-3 9 1
3 9 0
-3 -9 0
-3 -9 -1
3 9 1
-3 -9 -2
3 -9 2
-3 9 -2
3 9 2
-3 -9 -3
3 9 3
3 -9 3
-3 9 -3
3 -9 4
3 9 4
-3 9 -4
-3 9 -5
-3 -9 -5
3 9 5
3 -9 5
-3 9 -6
3 -9 6
3 -9 7
3 9 7
-3 -9 -7
-3 -9 -8
3 9 8
3 -10 -3
-3 10 3
3 -10 -2
-3 10 2
3 -10 -1
-3 10 1
3 -10 0
-3 10 0
4 0 -6
-4 0 6
4 0 -5
-4 0 5
4 0 -3
-4 0 3
4 0 -2
-4 0 2
4 0 -1
-4 0 1
4 0 0
-4 0 0
4 0 1
-4 0 -1
-4 0 -2
4 0 2
4 0 3
-4 0 -3
4 0 5
-4 0 -5
4 0 6
-4 0 -6
4 0 7
-4 0 -7
4 0 8
-4 0 -8
4 0 9
-4 0 -9
-4 0 -11
4 0 11
-4 0 -12
4 0 12
4 0 13
-4 0 -13
-4 -1 8
4 1 -7
-4 -1 7
4 -1 -6
-4 -1 6
-4 1 6
4 1 -6
4 -1 -5
-4 1 5
4 -1 -4
4 1 -4
-4 1 4
-4 -1 4
-4 1 3
4 -1 -3
4 1 -3
-4 -1 3
4 -1 -2
-4 1 2
-4 -1 2
4 1 -1
4 -1 -1
-4 1 1
-4 -1 1
4 1 0
4 -1 0
-4 -1 0
-4 1 0
4 1 1
4 -1 1
-4 1 -1
-4 -1 -1
4 -1 2
4 1 2
-4 1 -2
-4 -1 -2
4 -1 3
-4 1 -3
-4 -1 -3
4 1 3
-4 1 -5
4 -1 5
4 1 5
-4 -1 -5
4 -1 6
-4 -1 -6
4 1 6
-4 1 -7
-4 -1 -7
4 -1 7
4 1 7
-4 -1 -8
4 -1 8
-4 1 -8
-4 1 -9
4 1 9
4 -1 9
-4 -1 -9
-4 1 -11
4 1 11
4 -1 11
-4 -1 -11
4 1 12
-4 1 -12
4 -1 12
-4 -1 -12
4 1 13
4 -1 13
-4 -1 -13
-4 1 -13
4 2 -9
-4 -2 9
4 -2 -7
-4 2 7
-4 -2 7
-4 -2 6
4 2 -6
4 -2 -5
4 2 -5
-4 2 5
-4 -2 5
4 2 -4
4 -2 -4
-4 2 4
-4 -2 4
4 -2 -3
4 2 -3
-4 -2 3
4 -2 -2
-4 -2 2
4 -2 -1
-4 -2 1
-4 2 1
4 2 -1
4 -2 0
-4 2 0
4 2 0
-4 -2 0
-4 -2 -1
4 -2 1
4 2 1
-4 2 -1
4 -2 3
4 2 3
-4 -2 -3
-4 2 -3
4 2 4
4 -2 4
-4 2 -4
-4 -2 -4
4 -2 5
-4 -2 -5
4 2 5
-4 2 -5
4 -2 6
-4 2 -6
4 2 6
-4 -2 -6
4 -2 7
-4 -2 -7
4 2 7
4 -2 8
-4 -2 -8
-4 -2 -9
4 2 9
-4 -2 -10
-4 2 -10
4 -2 10
4 2 10
4 -2 11
4 2 11
-4 2 -11
-4 -2 -11
4 -2 12
4 2 12
-4 -2 -12
-4 2 -12
4 2 13
-4 -2 -13
4 3 -9
-4 3 9
-4 -3 9
4 3 -8
-4 -3 8
-4 -3 7
4 -3 -7
-4 3 7
4 3 -7
4 -3 -6
4 3 -6
-4 3 6
-4 -3 6
-4 -3 5
4 3 -5
4 -3 -4
-4 3 4
-4 -3 4
4 3 -4
-4 -3 3
4 -3 -3
-4 3 3
4 3 -3
4 -3 -2
-4 3 2
-4 3 1
4 3 0
-4 -3 0
4 -3 1
4 3 1
-4 -3 -1
-4 3 -2
4 -3 2
4 3 2
-4 -3 -2
4 -3 3
4 3 3
-4 3 -3
-4 -3 -3
4 -3 4
-4 3 -4
4 3 4
-4 -3 -4
-4 3 -5
4 -3 5
4 3 5
-4 -3 -5
-4 -3 -6
4 -3 6
-4 3 -6
4 3 6
4 -3 7
4 3 7
-4 3 -7
4 -3 8
4 -3 9
-4 -3 -9
-4 3 -9
4 3 9
4 -3 10
4 3 10
-4 -3 -10
4 3 11
-4 -3 -11
4 3 12
-4 -3 -12
4 -3 13
-4 3 -13
-4 -4 8
4 -4 -8
-4 4 8
4 4 -8
-4 -4 7
4 -4 -7
-4 4 7
4 4 -7
-4 -4 6
4 -4 -6
-4 4 6
4 4 -6
-4 -4 5
4 4 -5
-4 -4 4
4 4 -4
-4 -4 3
4 -4 -3
-4 4 3
4 4 -3
4 -4 -2
-4 4 2
-4 -4 2
4 -4 -1
-4 4 1
4 4 -1
-4 -4 1
-4 -4 0
4 -4 0
-4 4 0
4 4 0
-4 -4 -1
4 -4 1
4 4 1
-4 4 -1
-4 -4 -2
-4 4 -2
4 -4 2
4 4 2
-4 4 -3
4 -4 3
4 4 3
-4 -4 -3
4 -4 4
4 4 4
-4 4 -4
-4 -4 -4
4 4 5
-4 -4 -5
-4 4 -6
4 -4 6
4 -4 7
-4 4 -7
4 4 7
-4 -4 -7
4 -4 8
4 4 8
-4 4 -8
-4 -4 -8
4 -4 9
4 4 9
-4 4 -9
-4 -4 -9
4 4 10
-4 -4 -10
-4 4 -11
4 -4 11
4 -4 12
-4 4 -12
4 4 12
-4 -4 -12
4 -4 13
-4 -5 9
-4 -5 8
4 5 -8
-4 -5 7
4 -5 -7
-4 5 7
4 5 -7
4 5 -6
4 -5 -6
-4 5 6
4 -5 -5
-4 5 5
4 5 -5
-4 -5 4
4 -5 -4
-4 5 4
4 5 -4
4 -5 -3
-4 -5 3
-4 5 3
4 5 -3
-4 -5 2
4 -5 -2
4 5 -2
-4 -5 1
4 -5 -1
4 5 -1
4 -5 0
-4 5 0
4 -5 1
-4 5 -1
-4 -5 -2
4 5 2
-4 -5 -3
4 -5 3
4 5 3
-4 5 -3
4 -5 4
-4 5 -4
4 5 4
-4 -5 -4
4 5 5
4 -5 5
-4 5 -5
-4 -5 -5
-4 5 -6
4 5 6
-4 -5 -6
4 -5 7
-4 5 -7
-4 -5 -7
4 5 8
-4 -5 -8
4 -5 9
-4 5 -9
4 -5 10
-4 -5 -10
-4 5 -10
4 5 10
-4 -5 -11
4 5 11
-4 5 -11
4 -5 11
4 -5 12
-4 5 -12
4 5 12
-4 -6 8
4 6 -8
-4 -6 7
4 6 -7
4 6 -6
-4 -6 6
4 6 -5
-4 -6 5
-4 -6 4
4 -6 -4
-4 6 4
4 6 -4
-4 -6 3
4 -6 -3
-4 6 3
4 6 -3
4 -6 -2
-4 6 2
4 6 -2
-4 -6 1
4 -6 -1
-4 6 1
4 6 -1
-4 -6 0
-4 6 0
4 6 0
-4 -6 -1
4 6 1
-4 -6 -2
4 6 2
-4 -6 -3
4 -6 3
-4 6 -3
4 6 3
4 -6 4
-4 6 -4
4 6 4
-4 -6 -4
-4 6 -6
4 -6 6
4 6 6
4 -6 7
4 6 7
-4 6 -7
-4 -6 -7
-4 6 -8
4 6 8
-4 -6 -8
4 6 9
-4 -6 -9
4 -6 10
-4 6 -10
-4 -6 -11
-4 6 -11
4 6 11
4 -6 11
4 -6 12
-4 6 -12
4 7 -7
-4 -7 7
4 7 -6
-4 -7 6
4 7 -5
-4 -7 5
4 -7 -5
-4 7 5
4 7 -4
-4 -7 4
4 -7 -4
-4 7 4
-4 -7 3
4 -7 -3
-4 7 3
4 7 -3
4 7 -2
-4 -7 1
4 7 -1
-4 -7 0
4 7 0
-4 -7 -1
4 -7 1
-4 7 -1
4 7 1
-4 -7 -2
4 -7 2
4 7 2
-4 7 -2
-4 -7 -3
4 -7 3
-4 7 -3
4 7 3
-4 -7 -4
4 7 4
4 -7 4
-4 7 -4
4 -7 5
4 7 5
-4 -7 -5
4 -7 7
-4 -7 -7
4 7 7
-4 -7 -8
-4 7 -8
4 -7 8
4 7 8
-4 -7 -9
4 7 9
-4 7 -10
4 -7 10
4 -7 11
-4 7 -11
4 8 -6
-4 -8 6
-4 -8 5
4 8 -5
-4 -8 4
4 -8 -4
-4 8 4
4 8 -4
-4 -8 3
4 -8 -3
-4 8 3
4 8 -3
-4 -8 2
4 -8 -2
-4 8 2
4 8 -2
-4 -8 1
-4 -8 0
4 8 0
-4 -8 -1
-4 8 -1
4 8 1
-4 -8 -2
-4 8 -2
4 8 2
-4 -8 -3
-4 8 -3
4 -8 3
4 8 3
-4 -8 -4
4 8 4
4 -8 4
-4 8 -4
4 8 5
4 -8 6
-4 8 -6
-4 -8 -7
4 -8 7
-4 -8 -8
4 8 8
-4 8 -9
4 -8 9
-4 -9 5
4 9 -5
-4 -9 4
4 9 -4
-4 -9 3
4 -9 -3
-4 9 3
4 9 -3
-4 -9 2
4 -9 -2
-4 9 2
4 9 -2
4 -9 -1
-4 9 1
-4 -9 0
4 -9 0
-4 9 0
4 9 0
-4 -9 -1
4 -9 1
-4 9 -1
4 9 1
-4 9 -2
-4 -9 -2
4 9 2
-4 9 -3
4 -9 3
-4 -9 -4
-4 9 -4
4 -9 4
4 9 4
-4 -9 -5
-4 9 -5
4 -9 5
4 9 6
-4 -9 -6
-4 9 -6
4 -9 6
5 0 -7
-5 0 7
5 0 -6
-5 0 6
5 0 -5
-5 0 5
5 0 -4
-5 0 4
5 0 -3
-5 0 3
5 0 -2
-5 0 2
5 0 -1
-5 0 1
5 0 0
-5 0 0
5 0 2
-5 0 -2
-5 0 -3
5 0 3
5 0 4
5 0 5
-5 0 -5
5 0 6
-5 0 -6
5 0 7
-5 0 -7
5 0 8
-5 0 -8
-5 0 -9
5 0 9
5 0 10
-5 0 -10
5 0 11
-5 0 -11
5 0 13
-5 0 -13
-5 -1 8
5 1 -8
-5 1 7
5 -1 -7
5 1 -6
-5 -1 6
5 -1 -5
-5 1 5
5 1 -5
-5 -1 5
5 -1 -4
-5 -1 4
5 1 -4
-5 1 4
5 -1 -3
-5 -1 3
5 1 -3
-5 1 3
5 -1 -2
5 1 -2
-5 -1 2
-5 1 2
5 -1 -1
-5 -1 1
-5 1 1
5 -1 1
5 1 1
-5 1 -1
-5 -1 -1
-5 -1 -2
5 -1 2
5 1 2
-5 1 -2
-5 1 -3
5 -1 3
5 1 3
-5 -1 -3
5 -1 4
-5 -1 -4
5 1 4
-5 1 -4
-5 1 -5
5 -1 5
5 1 5
-5 -1 -5
5 1 6
-5 -1 -6
-5 1 -6
5 1 7
-5 1 -8
5 -1 8
5 -1 9
5 1 9
-5 1 -9
5 -1 10
5 1 10
-5 -1 -10
-5 1 -10
5 1 11
-5 -1 -11
-5 1 -11
5 -1 11
5 -1 12
5 1 12
-5 1 -12
-5 -1 -12
5 -1 13
5 1 13
-5 1 -13
-5 -1 -13
5 -2 -8
-5 2 8
5 2 -8
-5 -2 8
5 2 -7
-5 -2 7
5 -2 -6
-5 2 6
5 2 -6
-5 -2 6
-5 -2 5
-5 2 5
5 2 -5
5 2 -4
-5 -2 4
5 -2 -3
5 2 -3
-5 2 3
-5 -2 3
5 -2 -2
-5 2 2
-5 2 0
5 -2 0
5 2 0
-5 -2 0
-5 -2 -1
5 2 1
-5 2 -1
5 -2 1
-5 -2 -2
5 2 2
-5 2 -2
5 -2 2
-5 -2 -3
5 -2 3
5 2 3
-5 2 -3
-5 2 -4
5 -2 4
5 2 4
-5 -2 -4
-5 2 -5
5 -2 5
5 2 5
-5 -2 -5
5 2 6
-5 -2 -6
-5 -2 -7
5 -2 7
5 2 7
-5 2 -7
5 -2 8
5 2 8
-5 2 -8
-5 2 -9
5 2 9
-5 -2 -9
5 2 10
-5 2 -10
5 -2 10
-5 -2 -10
5 -2 12
5 2 12
-5 2 -12
-5 -2 -12
-5 -2 -13
5 -2 13
5 2 13
-5 2 -13
-5 -3 8
5 3 -8
5 -3 -7
-5 3 7
5 3 -7
-5 -3 7
5 -3 -6
-5 3 6
5 -3 -5
-5 3 5
5 -3 -4
-5 -3 4
-5 3 4
5 3 -4
5 3 -3
-5 -3 3
5 -3 -2
-5 3 2
5 3 -2
-5 -3 2
5 -3 -1
-5 -3 1
-5 3 0
5 3 0
-5 -3 0
-5 -3 -1
5 -3 1
5 3 1
-5 3 -1
5 -3 2
-5 3 -2
5 3 2
-5 -3 -2
5 -3 3
-5 3 -3
5 3 3
-5 -3 -3
-5 -3 -4
5 -3 4
5 3 4
-5 3 -4
-5 -3 -6
-5 3 -6
5 3 6
5 -3 6
5 -3 7
-5 3 -7
5 3 7
-5 -3 -7
5 -3 8
-5 3 -8
-5 -3 -8
5 3 9
-5 3 -9
-5 -3 -9
5 -3 10
-5 3 -10
5 -3 11
5 3 11
-5 3 -11
-5 -3 -11
5 -3 12
5 3 12
-5 -3 -12
5 -3 13
-5 3 -13
5 4 -8
-5 -4 8
-5 4 7
-5 -4 7
5 -4 -7
5 4 -7
5 4 -6
-5 -4 6
5 -4 -5
5 4 -5
-5 -4 5
5 -4 -4
-5 4 4
5 4 -4
-5 -4 4
5 -4 -3
-5 4 3
5 4 -3
-5 -4 3
5 -4 -2
-5 4 2
5 4 -2
-5 -4 2
5 -4 -1
-5 4 1
-5 -4 1
5 -4 0
-5 4 0
5 4 0
-5 -4 0
5 4 1
5 -4 1
-5 4 -1
-5 -4 -1
5 -4 3
-5 4 -3
5 4 3
-5 -4 -3
5 -4 4
5 4 4
-5 4 -4
-5 -4 -4
5 -4 5
-5 4 -5
5 4 5
-5 -4 -5
-5 4 -6
5 -4 6
-5 -4 -6
5 4 6
5 -4 7
-5 4 -7
5 4 7
-5 -4 -7
5 4 8
-5 -4 -8
5 -4 9
5 4 9
-5 -4 -9
-5 4 -9
5 -4 10
5 4 10
-5 4 -10
-5 -4 -10
-5 -4 -11
5 4 11
5 -4 11
-5 4 -11
5 -4 12
-5 4 -12
5 -4 13
-5 4 -13
-5 5 7
5 -5 -6
-5 5 6
5 -5 -5
-5 5 5
-5 -5 4
5 -5 -4
-5 5 4
5 5 -4
-5 -5 3
-5 5 3
5 5 -3
-5 -5 2
5 5 -2
5 -5 -1
-5 5 1
5 5 -1
-5 -5 1
5 -5 0
5 5 0
-5 -5 0
5 5 1
5 -5 1
-5 5 -1
-5 -5 -1
5 -5 2
-5 5 -2
5 5 2
-5 -5 -2
5 5 3
5 -5 3
-5 5 -3
-5 -5 -3
5 -5 4
-5 5 -4
5 5 4
-5 -5 -4
-5 -5 -5
-5 5 -5
5 5 5
5 -5 5
5 -5 6
-5 5 -6
-5 5 -7
5 5 7
5 -5 7
5 -5 8
5 5 8
-5 5 -8
-5 -5 -8
5 -5 9
-5 5 -9
5 5 9
-5 -5 -9
5 -5 10
-5 5 -10
5 -5 11
-5 5 -11
5 5 11
-5 -5 -11
5 5 12
-5 -6 7
5 6 -7
-5 -6 6
-5 6 6
5 6 -6
-5 -6 5
5 -6 -5
-5 6 5
5 6 -5
-5 -6 4
5 -6 -4
-5 6 4
5 6 -4
-5 -6 3
-5 6 3
5 -6 -3
5 6 -3
-5 -6 2
5 -6 -2
-5 6 2
5 6 -2
5 -6 -1
5 6 -1
-5 -6 0
5 6 0
5 -6 0
-5 6 0
-5 6 -1
5 6 2
-5 -6 -2
-5 -6 -3
-5 6 -3
5 -6 3
5 6 3
-5 6 -4
5 -6 4
5 6 4
-5 -6 -4
5 -6 5
-5 6 -5
5 6 5
-5 -6 -5
-5 -6 -6
5 6 6
-5 6 -6
5 -6 6
-5 -6 -7
-5 -6 -8
5 6 8
5 -6 8
5 -6 9
-5 6 -9
5 6 9
-5 -6 -9
5 6 10
-5 -6 -10
-5 -6 -11
5 6 11
-5 6 -11
5 -6 11
-5 -7 6
5 7 -6
-5 -7 5
-5 7 5
5 7 -5
-5 7 4
-5 -7 4
5 -7 -4
5 7 -4
-5 -7 3
-5 7 3
5 -7 -3
5 7 -3
-5 -7 2
5 -7 -2
-5 7 2
5 7 -2
-5 7 1
5 -7 -1
5 7 -1
-5 -7 0
5 -7 0
-5 7 0
5 7 0
-5 -7 -1
5 -7 1
5 7 1
5 -7 2
5 7 2
-5 -7 -2
-5 7 -4
-5 -7 -4
-5 -7 -5
5 -7 5
5 7 5
-5 7 -5
5 -7 6
-5 7 -6
5 7 7
-5 -7 -7
-5 -7 -8
5 7 8
5 -7 8
5 7 9
-5 -7 -9
5 -7 10
-5 7 -10
-5 -8 5
5 8 -5
-5 -8 4
-5 8 4
5 8 -4
-5 -8 3
5 -8 -3
-5 8 3
5 8 -3
-5 -8 2
5 -8 -2
-5 8 2
5 8 -2
-5 -8 1
5 -8 -1
-5 8 1
5 8 -1
-5 -8 0
5 -8 0
-5 8 0
-5 -8 -1
5 -8 1
-5 8 -1
5 8 1
5 -8 2
-5 8 -2
-5 -8 -3
5 8 3
-5 -8 -4
5 -8 4
-5 8 -4
5 8 4
5 -8 5
-5 8 -5
5 8 5
-5 -8 -5
-5 -8 -6
5 8 7
5 -8 7
-5 8 -7
-5 -8 -7
5 8 8
-5 -8 -8
-5 -9 4
5 9 -4
-5 -9 3
5 9 -3
-5 -9 2
5 -9 -2
5 9 -2
-5 9 2
-5 -9 1
5 9 -1
5 9 0
-5 -9 -1
-5 9 -1
5 -9 1
5 9 1
5 -9 2
-5 9 -2
5 9 2
-5 -9 -2
-5 9 -3
5 9 3
-5 -9 -3
-6 0 7
6 0 -7
6 0 -6
-6 0 6
6 0 -5
-6 0 5
6 0 -4
-6 0 4
6 0 -2
-6 0 2
6 0 -1
-6 0 1
-6 0 0
6 0 0
6 0 1
-6 0 -1
6 0 2
-6 0 -2
6 0 3
-6 0 -3
6 0 4
-6 0 -4
6 0 5
-6 0 -5
6 0 6
-6 0 -6
6 0 7
-6 0 -7
6 0 8
-6 0 -8
-6 0 -9
6 0 10
-6 0 -10
-6 0 -11
6 0 11
6 0 12
-6 0 -12
-6 0 -13
6 0 13
-6 -1 8
6 -1 -7
6 1 -7
-6 1 7
-6 -1 7
-6 1 6
6 -1 -6
6 1 -6
6 -1 -5
6 1 -5
-6 -1 5
-6 1 5
6 -1 -4
-6 1 4
6 -1 -2
-6 1 2
6 1 -2
-6 -1 2
6 -1 -1
6 1 -1
-6 -1 1
-6 1 1
6 1 0
-6 -1 0
6 -1 1
6 1 1
-6 1 -1
-6 -1 -1
6 -1 2
6 1 2
-6 1 -2
-6 -1 -2
6 -1 3
6 1 3
-6 1 -3
-6 -1 -3
6 1 5
-6 1 -5
-6 -1 -5
6 -1 6
6 1 6
-6 1 -6
-6 -1 -6
6 -1 7
6 1 7
6 -1 8
6 1 8
-6 1 -8
6 -1 10
6 1 10
-6 1 -10
-6 -1 -10
6 1 11
-6 1 -11
-6 -1 -11
6 -1 11
6 1 12
-6 -1 -12
6 -1 13
6 1 13
-6 1 -13
-6 -1 -13
6 -2 -7
6 2 -7
-6 -2 7
-6 2 6
6 2 -6
-6 -2 6
6 -2 -5
6 2 -4
-6 -2 4
6 -2 -3
-6 2 3
6 2 -3
-6 -2 3
6 -2 -2
6 2 -2
-6 2 2
-6 -2 2
-6 2 1
6 -2 -1
6 2 -1
-6 -2 1
6 -2 0
-6 -2 0
6 -2 1
6 2 1
-6 2 -1
-6 -2 -1
-6 2 -2
6 -2 2
6 2 2
-6 -2 -2
-6 -2 -4
6 2 4
-6 2 -4
6 -2 4
6 -2 5
-6 2 -5
6 2 5
-6 -2 -5
6 -2 6
6 2 6
-6 2 -6
-6 -2 -6
6 -2 7
6 2 7
-6 2 -7
-6 -2 -7
6 -2 8
6 2 8
-6 2 -8
-6 -2 -8
6 -2 9
6 2 9
-6 2 -9
-6 -2 -9
6 2 10
-6 2 -10
6 -2 10
-6 -2 -10
6 2 11
-6 2 -11
6 -2 11
-6 -2 -11
-6 2 -12
6 -2 12
-6 -2 -12
6 -2 13
6 2 13
-6 2 -13
-6 -2 -13
-6 3 7
6 3 -7
-6 -3 7
6 3 -6
-6 -3 6
-6 -3 5
6 3 -5
6 -3 -5
-6 3 5
6 -3 -4
-6 3 4
6 3 -4
-6 -3 4
6 -3 -3
6 3 -3
-6 3 3
-6 -3 3
-6 -3 2
6 -3 -2
6 3 -2
6 -3 -1
-6 3 1
6 3 -1
-6 -3 1
6 -3 0
-6 3 0
-6 -3 0
-6 3 -1
6 3 2
-6 -3 -2
6 -3 3
6 3 3
-6 3 -3
-6 -3 -3
6 -3 4
-6 3 -4
6 3 4
-6 -3 -4
6 -3 5
6 3 5
-6 3 -5
-6 -3 -5
6 -3 6
6 3 6
-6 3 -6
-6 -3 -6
6 3 7
-6 -3 -7
6 -3 8
6 3 8
-6 3 -8
6 -3 9
6 3 9
-6 3 -9
-6 -3 -9
6 -3 10
6 3 10
-6 3 -10
-6 -3 -10
6 -3 11
-6 3 -11
6 -3 12
6 3 12
-6 3 -12
-6 -4 7
6 -4 -6
-6 4 6
6 4 -6
-6 -4 6
6 -4 -5
-6 4 5
6 4 -5
-6 -4 5
6 -4 -4
-6 4 4
6 -4 -3
-6 4 3
6 -4 -2
-6 4 2
6 4 -2
-6 -4 2
6 4 -1
-6 -4 1
6 -4 0
-6 4 0
6 4 0
-6 -4 0
6 -4 1
6 4 1
-6 4 -1
-6 -4 -1
-6 -4 -2
6 4 2
-6 4 -2
6 -4 2
6 4 3
-6 -4 -3
6 4 4
-6 -4 -4
6 -4 5
6 4 5
-6 -4 -5
6 -4 6
6 4 6
-6 -4 -6
6 -4 7
-6 -4 -7
6 4 7
-6 -4 -8
6 4 8
6 -4 8
6 4 9
-6 -4 -9
6 -4 10
6 4 10
-6 4 -10
-6 -4 -10
6 4 11
-6 4 -11
6 -4 11
-6 -4 -11
6 -4 12
-6 4 -12
6 -4 13
6 5 -6
-6 -5 6
-6 -5 5
6 5 -5
6 5 -4
-6 -5 4
6 -5 -3
-6 5 3
6 5 -3
-6 -5 3
6 -5 -2
-6 5 2
6 5 -2
-6 -5 2
6 -5 -1
-6 5 1
6 5 -1
-6 -5 1
6 -5 0
-6 5 0
6 5 0
-6 -5 0
6 -5 1
6 5 1
-6 -5 -1
6 -5 2
-6 5 -2
6 5 3
-6 -5 -3
-6 5 -4
-6 -5 -4
6 5 4
6 -5 4
6 -5 5
-6 5 -5
6 5 5
-6 -5 -5
-6 -5 -6
-6 5 -6
6 5 6
6 -5 6
6 5 7
-6 -5 -7
6 -5 8
-6 5 -8
-6 -5 -8
-6 -5 -9
6 5 9
-6 5 -9
6 5 10
-6 -5 -10
-6 -5 -11
-6 5 -11
6 5 11
6 -5 11
6 5 12
-6 -6 6
-6 -6 5
6 6 -5
-6 -6 4
-6 6 4
6 -6 -4
6 6 -4
6 -6 -3
-6 6 3
6 6 -3
-6 -6 3
6 6 -2
-6 -6 2
-6 6 1
6 6 -1
-6 -6 1
6 -6 0
-6 6 0
6 6 0
6 -6 1
-6 6 -1
-6 -6 -1
-6 -6 -2
-6 6 -2
6 6 2
6 -6 2
6 -6 3
-6 6 -3
6 6 3
-6 -6 -3
-6 -6 -5
6 6 5
6 -6 5
-6 6 -5
6 -6 6
-6 6 -6
6 6 6
-6 -6 -6
6 6 7
6 -6 7
-6 6 -7
-6 -6 -9
6 6 9
-6 6 -9
6 6 10
-6 -6 -10
-6 -6 -11
6 6 11
6 -6 11
-6 -7 5
6 7 -5
6 7 -4
-6 -7 4
6 -7 -3
-6 7 3
6 7 -3
-6 -7 3
-6 -7 2
-6 7 2
6 -7 -2
6 7 -2
6 7 -1
-6 -7 1
-6 -7 0
6 7 0
6 7 1
-6 -7 -1
6 7 2
-6 -7 -2
-6 7 -3
-6 -7 -3
6 -7 3
6 7 3
-6 -7 -4
-6 7 -4
6 7 4
6 -7 4
6 -7 5
-6 7 -5
6 7 5
-6 -7 -6
-6 7 -6
6 7 6
6 -7 6
6 -7 7
-6 7 -7
-6 -7 -7
-6 -7 -8
-6 7 -8
6 7 8
6 -7 8
6 -7 9
-6 7 -9
6 7 9
-6 -7 -9
-6 -8 4
6 8 -4
6 8 -3
-6 -8 3
6 8 -2
-6 -8 2
-6 -8 1
6 -8 0
-6 8 0
6 8 0
-6 -8 0
6 -8 1
-6 8 -1
-6 -8 -1
6 -8 2
-6 8 -2
-6 -8 -2
6 -8 3
6 -8 4
-6 8 -4
6 8 4
-6 -8 -4
-6 -8 -5
6 -8 5
6 8 5
-6 8 -5
-6 9 1
7 0 -5
-7 0 5
7 0 -4
-7 0 4
7 0 -3
-7 0 3
7 0 -2
-7 0 2
7 0 -1
-7 0 1
7 0 0
-7 0 0
7 0 2
-7 0 -2
7 0 3
-7 0 -3
7 0 4
-7 0 -4
7 0 5
-7 0 -5
7 0 6
-7 0 -6
7 0 7
-7 0 -7
7 0 8
-7 0 -8
7 0 9
-7 0 -11
7 0 11
-7 0 -12
7 0 12
7 0 13
-7 0 -13
7 -1 -5
7 1 -5
-7 1 5
-7 -1 5
7 -1 -4
-7 1 4
7 -1 -3
7 1 -3
-7 1 3
-7 -1 3
7 -1 -2
7 1 -2
-7 1 2
-7 -1 2
7 1 -1
-7 1 1
7 -1 -1
-7 -1 1
7 -1 0
7 1 0
-7 1 0
-7 -1 0
7 1 1
-7 -1 -1
7 1 2
-7 1 -2
-7 -1 -2
7 -1 2
7 -1 3
7 1 3
-7 1 -3
-7 -1 -3
7 -1 4
7 1 4
-7 1 -4
-7 -1 -4
7 1 5
-7 1 -5
-7 -1 -5
7 -1 5
7 -1 7
7 1 7
-7 1 -7
-7 -1 -7
7 -1 8
7 1 8
-7 1 -8
-7 -1 -8
7 -1 9
7 1 9
-7 1 -9
7 -1 10
-7 1 -10
7 -1 11
7 1 11
-7 1 -11
-7 -1 -11
-7 1 -13
-7 -1 -13
7 -1 13
7 1 13
7 2 -6
-7 -2 6
7 2 -5
7 -2 -5
-7 -2 5
7 -2 -4
7 2 -4
-7 2 4
-7 -2 4
7 2 -3
-7 2 3
7 -2 -3
-7 -2 3
7 -2 -2
7 2 -2
-7 2 2
-7 -2 2
7 -2 -1
-7 2 1
-7 -2 0
7 2 0
7 -2 1
7 2 1
-7 2 -1
-7 -2 -1
7 2 2
-7 2 -2
-7 -2 -2
7 -2 3
7 2 3
-7 2 -3
-7 -2 -3
7 -2 4
7 2 4
-7 2 -4
-7 -2 -4
7 -2 5
7 2 5
-7 2 -5
-7 -2 -5
7 -2 6
7 2 6
-7 2 -6
-7 -2 -6
7 2 7
-7 2 -7
7 -2 7
-7 -2 -7
7 -2 8
7 2 8
-7 -2 -8
-7 2 -8
-7 -2 -9
7 2 10
-7 2 -10
7 -2 10
-7 -2 -10
7 -2 11
7 2 11
-7 2 -11
-7 -2 -11
7 2 12
-7 2 -12
7 -2 12
-7 -2 -12
7 2 13
-7 2 -13
7 -2 13
-7 -3 6
7 -3 -5
-7 3 5
7 3 -5
-7 -3 5
7 -3 -4
-7 3 4
-7 3 3
7 -3 -3
7 3 -2
-7 -3 2
7 -3 -1
-7 3 1
7 3 -1
-7 -3 1
7 -3 0
7 3 0
-7 3 0
-7 -3 0
7 -3 1
7 3 1
-7 3 -1
-7 -3 -1
7 3 2
-7 3 -2
-7 -3 -2
7 -3 3
7 3 3
-7 3 -3
-7 -3 -3
-7 -3 -5
7 3 5
-7 3 -5
7 -3 5
7 -3 6
7 3 6
-7 3 -6
-7 -3 -6
7 -3 7
7 3 7
-7 3 -7
-7 -3 -7
7 -3 9
-7 3 -9
-7 -3 -9
7 3 10
-7 3 -10
7 -3 10
-7 -3 -10
7 -3 11
-7 3 -11
7 -3 12
7 3 12
-7 3 -12
-7 -3 -12
7 -3 13
-7 -4 6
7 4 -5
-7 -4 5
-7 -4 4
7 4 -4
7 -4 -4
-7 4 4
7 -4 -3
-7 4 3
7 4 -3
-7 -4 3
7 -4 -2
-7 4 2
7 4 -2
-7 -4 2
-7 -4 1
7 4 -1
-7 4 1
7 -4 -1
7 -4 0
-7 4 0
7 4 0
-7 -4 0
7 -4 1
-7 4 -1
-7 -4 -2
7 4 2
7 4 3
-7 -4 -3
7 -4 4
7 4 4
-7 -4 -4
7 -4 5
7 4 5
-7 -4 -5
-7 4 -5
7 -4 6
7 4 6
-7 4 -6
-7 -4 -6
-7 -4 -7
7 4 7
7 -4 7
7 4 8
-7 -4 -8
7 4 9
7 -4 9
-7 -4 -9
7 -4 10
7 4 10
-7 4 -10
-7 -4 -10
-7 4 -11
7 4 11
7 -4 11
-7 -4 -11
7 4 12
-7 4 -12
7 -4 12
-7 -4 -12
-7 5 4
-7 5 3
7 -5 -3
-7 -5 2
7 5 -2
-7 5 2
7 -5 -2
7 5 -1
-7 -5 1
7 -5 0
-7 5 0
7 5 0
-7 -5 0
-7 5 -1
7 5 1
7 -5 1
-7 -5 -2
7 5 2
7 -5 2
-7 5 -2
-7 5 -3
7 5 3
-7 -5 -3
7 -5 5
-7 5 -5
7 5 5
-7 -5 -5
7 -5 6
-7 5 -6
7 5 6
-7 -5 -6
7 -5 7
-7 5 -7
7 5 7
-7 -5 -7
7 -5 8
-7 5 -8
7 -5 9
7 5 9
-7 -5 -9
7 -5 10
-7 5 -10
7 -5 11
-7 5 -11
7 5 11
-7 -5 -11
7 6 -4
-7 -6 4
7 -6 -3
7 6 -3
-7 -6 3
7 -6 -2
-7 6 2
7 6 -2
-7 -6 2
7 -6 -1
-7 6 1
7 -6 0
-7 6 0
7 6 0
-7 -6 0
7 6 1
7 -6 2
-7 6 -2
7 6 2
-7 -6 -2
-7 -6 -3
7 6 3
7 -6 3
7 -6 4
-7 6 -4
7 6 4
-7 -6 -4
-7 -6 -6
7 6 6
7 -6 6
-7 6 -6
-7 6 -7
-7 -6 -7
7 6 7
7 -6 7
7 -6 8
-7 6 -8
7 -6 9
7 6 9
-7 -6 -9
-7 -7 3
7 7 -3
-7 7 2
7 -7 -1
-7 7 1
7 7 0
-7 -7 0
7 7 1
-7 -7 -1
-7 -7 -2
-7 7 -2
7 -7 2
7 -7 3
-7 7 -3
7 7 3
-7 -7 -3
-7 7 -4
7 7 4
-7 -7 -4
7 -7 5
-7 7 -5
7 7 5
-7 -7 -5
-7 -7 -6
-7 7 -6
7 -7 6
7 7 6
-7 -8 2
7 8 -2
7 8 -1
-7 -8 1
-7 -8 0
-7 8 0
7 -8 0
7 8 0
7 8 1
-7 -8 -1
7 -8 2
-7 8 -2
-8 0 5
8 0 -4
-8 0 4
8 0 -2
-8 0 2
8 0 -1
-8 0 1
8 0 0
-8 0 0
8 0 1
-8 0 -1
8 0 2
8 0 4
-8 0 -4
8 0 5
-8 0 -5
8 0 6
-8 0 -6
8 0 8
-8 0 -8
-8 0 -9
8 0 9
-8 0 -11
8 0 11
8 0 12
-8 0 -12
-8 1 5
-8 -1 5
8 -1 -4
-8 1 4
8 1 -3
-8 -1 3
8 -1 -2
8 1 -2
-8 1 2
-8 -1 2
8 -1 -1
8 1 -1
-8 1 1
8 -1 0
8 1 0
-8 1 0
8 -1 1
8 1 1
-8 1 -1
8 -1 2
8 1 2
-8 1 -2
8 1 4
-8 1 -4
-8 -1 -4
8 -1 4
8 -1 5
8 1 5
-8 1 -5
-8 -1 -5
8 -1 6
8 1 6
-8 1 -6
-8 -1 -6
8 -1 8
8 1 8
-8 1 -8
-8 -1 -8
8 -1 9
8 1 9
-8 1 -9
-8 -1 -9
8 1 10
-8 1 -10
-8 -1 -10
8 1 11
-8 1 -11
-8 -1 -11
8 -1 11
8 -1 12
8 1 12
-8 1 -12
-8 -1 -12
8 2 -4
-8 -2 4
8 -2 -3
8 2 -3
-8 2 3
-8 -2 3
8 2 -2
-8 2 2
8 -2 -2
-8 -2 2
8 -2 -1
8 2 -1
-8 2 1
-8 -2 1
8 -2 0
8 2 0
-8 2 0
-8 -2 0
8 -2 1
8 2 1
-8 2 -1
-8 -2 -1
8 2 3
-8 2 -3
-8 -2 -3
8 -2 4
8 2 4
-8 2 -4
-8 -2 -4
8 -2 5
8 2 5
-8 2 -5
-8 -2 -5
-8 2 -6
8 -2 7
-8 2 -7
-8 -2 -7
8 -2 8
8 2 8
-8 2 -8
8 2 10
-8 2 -10
-8 -2 -10
8 2 12
-8 2 -12
8 -2 12
-8 -2 -12
8 3 -4
-8 3 4
-8 -3 4
8 -3 -3
8 3 -3
-8 -3 3
8 -3 -2
8 3 -2
-8 3 2
-8 -3 2
-8 -3 1
8 3 -1
8 -3 -1
-8 3 1
-8 3 0
8 -3 1
8 3 1
-8 3 -1
-8 -3 -1
8 3 2
-8 3 -2
8 -3 2
8 -3 3
8 3 3
-8 -3 -3
8 -3 4
8 3 4
-8 3 -4
-8 -3 -4
8 -3 6
8 3 6
-8 3 -6
-8 -3 -6
8 -3 7
8 3 7
-8 3 -7
-8 -3 -7
8 -3 9
8 3 9
-8 3 -9
8 3 10
-8 -3 -10
8 -3 11
8 3 11
-8 3 -11
8 -4 -3
-8 4 3
8 4 -3
-8 -4 3
-8 -4 2
8 4 -2
8 -4 -1
-8 4 1
8 4 -1
-8 -4 1
-8 -4 0
8 4 0
8 -4 0
-8 4 0
8 -4 1
8 4 1
-8 4 -1
-8 -4 -1
8 4 2
8 -4 2
-8 -4 -4
8 4 4
-8 4 -4
-8 -4 -5
8 4 5
-8 4 -5
8 -4 5
8 -4 6
8 4 6
-8 4 -6
-8 -4 -6
8 4 7
-8 4 -7
8 -4 7
8 -4 8
8 4 8
-8 -4 -8
8 4 10
-8 4 -10
-8 -4 -10
-8 -5 3
8 5 -3
8 -5 -2
-8 5 2
8 5 -2
-8 -5 2
-8 5 1
8 -5 -1
-8 -5 0
-8 5 0
8 5 0
-8 -5 -1
8 5 1
-8 5 -1
8 -5 1
8 -5 2
-8 5 -2
8 5 2
-8 -5 -2
8 -5 3
-8 5 -3
8 5 3
-8 -5 -3
-8 5 -4
8 -5 4
8 -5 5
-8 5 -5
8 5 5
-8 -5 -5
8 -5 6
-8 5 -6
8 5 6
-8 -5 -6
8 -5 8
8 5 8
-8 5 -8
-8 -5 -8
-8 -6 3
-8 -6 2
8 6 -2
-8 -6 1
8 -6 -1
-8 6 1
8 6 -1
8 -6 0
-8 6 0
8 6 1
-8 -6 -1
-8 -6 -2
8 6 2
8 -6 2
-8 6 -2
8 -6 3
-8 6 -3
-8 -6 -3
-8 -6 -4
8 6 4
8 -6 4
-8 6 -4
8 -6 5
-8 6 -5
8 6 5
-8 -6 -5
-8 -6 -6
-8 6 -6
8 6 6
8 -6 6
-8 -7 1
8 7 -1
-8 -7 0
8 7 0
-8 7 0
8 -7 1
-8 7 -1
8 7 1
-8 -7 -1
8 -7 2
-8 7 -2
8 7 2
-8 -7 -2
-8 7 -3
8 -7 3
-9 0 3
-9 0 2
9 0 -2
9 0 0
-9 0 0
9 0 1
-9 0 -1
-9 0 -2
9 0 3
-9 0 -3
-9 0 -4
9 0 5
-9 0 -5
9 0 6
-9 0 -6
-9 0 -8
9 0 8
-9 0 -10
9 1 -3
-9 1 3
-9 -1 3
9 -1 -2
-9 1 2
9 1 -1
-9 -1 1
9 -1 -1
9 1 0
-9 1 0
-9 -1 0
9 -1 0
9 1 1
-9 1 -1
-9 -1 -1
9 -1 1
9 -1 2
9 1 2
-9 1 -2
-9 -1 -2
9 -1 3
-9 1 -3
-9 1 -4
-9 -1 -4
9 -1 4
9 1 5
-9 1 -5
-9 -1 -5
9 -1 5
9 -1 6
9 1 6
-9 1 -6
-9 -1 -6
9 -1 7
9 1 7
-9 1 -7
-9 -1 -7
9 -1 8
9 1 8
-9 1 -8
-9 -1 -8
9 -1 10
-9 -1 -10
9 2 -2
-9 -2 2
9 -2 -1
9 2 -1
-9 2 1
-9 -2 1
9 -2 0
9 2 0
-9 2 0
-9 -2 0
9 -2 1
9 2 1
-9 2 -1
-9 -2 -1
-9 2 -2
9 -2 2
9 -2 3
9 2 3
-9 2 -3
-9 -2 -3
9 -2 4
-9 -2 -4
9 -2 5
9 2 5
-9 2 -5
9 -2 7
9 2 7
-9 2 -7
-9 -2 -7
9 2 8
-9 2 -8
9 -2 8
-9 -2 -8
9 -2 9
9 2 9
-9 2 -9
-9 -2 -9
-9 -3 3
9 3 -2
-9 -3 2
9 -3 -1
9 3 -1
-9 3 1
-9 -3 1
9 3 0
-9 3 0
9 -3 0
-9 -3 0
9 3 1
9 -3 2
9 3 2
-9 3 -2
-9 -3 -2
9 -3 3
9 3 3
-9 3 -3
-9 -3 -3
9 -3 4
-9 3 -4
-9 -3 -4
9 3 6
-9 3 -6
9 -3 6
-9 -3 -6
9 -3 7
9 3 7
-9 3 -7
-9 -3 -7
9 -3 8
-9 3 -8
-9 -3 -8
-9 -4 2
9 4 -2
9 4 -1
-9 -4 1
9 -4 0
9 4 0
-9 4 0
-9 -4 0
9 -4 1
9 4 1
-9 4 -1
-9 -4 -1
9 -4 2
9 4 2
-9 -4 -2
9 -4 4
-9 -4 -4
9 4 5
-9 -4 -5
9 4 7
9 -4 7
-9 -4 -7
-9 -5 2
-9 -5 0
9 5 0
9 -5 1
-9 5 -1
9 5 1
-9 -5 -1
-9 -5 -2
-9 5 -2
9 5 2
9 -5 2
9 -5 3
-9 5 -3
-9 -5 -4
9 -5 5
9 5 5
-9 -5 -5
-9 -6 1
9 6 0
-9 -6 0
9 -6 1
-9 6 -1
9 6 1
-9 -6 -1
9 -6 2
-9 6 -2
9 6 2
-9 -6 -2
10 0 0
-10 0 0
-10 0 -1
10 0 1
10 0 2
-10 0 -2
10 0 4
-10 0 -4
10 0 5
10 0 6
-10 0 -6
-10 0 -7
10 0 7
-10 -1 1
10 -1 0
10 1 0
-10 1 0
-10 -1 0
10 1 1
-10 1 -1
-10 -1 -1
10 -1 1
10 -1 2
10 1 2
-10 1 -2
-10 -1 -2
10 1 3
-10 -1 -3
10 -1 4
10 1 4
-10 1 -4
-10 -1 -4
10 -1 5
10 1 5
10 -1 6
10 1 6
-10 1 -6
-10 -1 -6
10 -1 7
10 1 7
-10 1 -7
-10 -1 -7
-10 -2 1
10 -2 0
10 2 0
-10 2 0
-10 -2 0
10 -2 1
10 2 1
-10 2 -1
-10 -2 -1
10 -2 3
10 2 3
-10 2 -3
10 -2 4
10 2 4
-10 2 -4
-10 -2 -4
10 2 6
-10 2 -6
-10 -2 -6
-10 3 0
10 3 1
-10 3 -1
10 -3 1
-10 -3 -1
10 3 2
10 -3 2
-10 3 -2
-10 -3 -2
10 -3 3
10 3 3
-10 3 -3
-10 -3 -3
10 -3 4
10 3 4
-10 3 -4
10 3 5
-10 3 -5
10 4 0
-10 -4 0
10 -4 1
-10 4 -1
10 4 2
-10 -4 -2
10 -4 3
10 4 3
-10 4 -3
-10 -4 -3
10 -4 4
-11 0 -2
11 0 2
11 0 3
-11 0 -3
11 1 2
-11 1 -2
-11 -1 -2
11 -1 2
11 -1 3
11 1 3
-11 -1 -3
11 2 2
-11 2 -2
loop_
_geom_angle_atom_site_label_1
_geom_angle_atom_site_label_2
_geom_angle_atom_site_label_3
_geom_angle_site_symmetry_1
_geom_angle_site_symmetry_3
_geom_angle
_geom_angle_publ_flag
O21 N12 O22 . . 121.30(7) ?
C1 N12 O22 . . 120.18(6) ?
C1 N12 O21 . . 118.48(6) ?
O11 N11 O12 . . 120.98(6) ?
C1 N11 O12 . . 118.83(6) ?
C1 N11 O11 . . 120.11(7) ?
N21 C2 N22 . . 117.99(7) ?
C1 C2 N22 . . 120.85(8) ?
C1 C2 N21 . . 121.12(6) ?
N11 C1 N12 . . 116.30(6) ?
C2 C1 N12 . . 119.76(6) ?
C2 C1 N11 . . 123.90(7) ?
loop_
_geom_bond_atom_site_label_1
_geom_bond_atom_site_label_2
_geom_bond_site_symmetry_2
_geom_bond_distance
_geom_bond_publ_flag
O12 N11 . 1.2480(10) ?
O11 N11 . 1.2432(8) ?
O22 N12 . 1.2361(8) ?
O21 N12 . 1.2382(7) ?
N12 C1 . 1.4233(11) ?
N11 C1 . 1.3968(9) ?
N22 C2 . 1.3292(9) ?
N21 C2 . 1.3212(12) ?
C2 C1 . 1.4499(10) ?
loop_
_geom_torsion_atom_site_label_1
_geom_torsion_atom_site_label_2
_geom_torsion_atom_site_label_3
_geom_torsion_atom_site_label_4
_geom_torsion_site_symmetry_1
_geom_torsion_site_symmetry_2
_geom_torsion_site_symmetry_3
_geom_torsion_site_symmetry_4
_geom_torsion
_geom_torsion_publ_flag
O12 N11 C1 N12 . . . . -171.83(6) ?
O12 N11 C1 C2 . . . . 5.55(7) ?
O11 N11 C1 N12 . . . . 11.29(7) ?
O11 N11 C1 C2 . . . . -171.32(6) ?
O22 N12 C1 N11 . . . . 34.60(7) ?
O22 N12 C1 C2 . . . . -142.90(6) ?
O21 N12 C1 N11 . . . . -147.62(6) ?
O21 N12 C1 C2 . . . . 34.88(7) ?
N12 C1 C2 N22 . . . . -4.71(7) ?
N12 C1 C2 N21 . . . . 172.74(6) ?
N11 C1 C2 N22 . . . . 177.99(7) ?
N11 C1 C2 N21 . . . . -4.55(8) ?
