#------------------------------------------------------------------------------
#$Date: 2018-01-26 09:44:00 +0200 (Fri, 26 Jan 2018) $
#$Revision: 205693 $
#$URL: file:///home/coder/svn-repositories/cod/cif/2/10/81/2108188.cif $
#------------------------------------------------------------------------------
#
# This file is available in the Crystallography Open Database (COD),
# http://www.crystallography.net/. The original data for this entry
# were provided by IUCr Journals, http://journals.iucr.org/.
#
# The file may be used within the scientific community so long as
# proper attribution is given to the journal article from which the
# data were obtained.
#
data_2108188
loop_
_publ_author_name
'Truong, Khai-Nghi'
'Merkens, Carina'
'Meven, Martin'
'Fa\&sb\"ander, Bj\"orn'
'Dronskowski, Richard'
'Englert, Ulli'
_publ_section_title
;
 Phase transition and proton ordering at 50K in
 3-(pyridin-4-yl)pentane-2,4-dione
;
_journal_coeditor_code           HW5050SUP1
_journal_issue                   6
_journal_name_full               'Acta Crystallographica Section B'
_journal_page_first              1172
_journal_page_last               1178
_journal_paper_doi               10.1107/S2052520617015591
_journal_volume                  73
_journal_year                    2017
_chemical_formula_moiety         'C10 H11 N O2'
_chemical_formula_sum            'C10 H11 N O2'
_chemical_formula_weight         177.20
_chemical_name_common            'compound 1beta'
_space_group_crystal_system      triclinic
_space_group_IT_number           2
_space_group_name_Hall           '-P 1'
_space_group_name_H-M_alt        'P -1'
_symmetry_space_group_name_Hall  '-P 1'
_symmetry_space_group_name_H-M   'P -1'
_atom_sites_solution_hydrogens   difmap
_audit_creation_method           SHELXL-2014/7
_cell_angle_alpha                101.482(3)
_cell_angle_beta                 96.2307(13)
_cell_angle_gamma                96.0785(13)
_cell_formula_units_Z            2
_cell_length_a                   6.2755(2)
_cell_length_b                   8.6368(2)
_cell_length_c                   8.6570(2)
_cell_measurement_reflns_used    34
_cell_measurement_temperature    2.5(5)
_cell_volume                     453.17(2)
_computing_structure_refinement  'SHELXL-2014/7 (Sheldrick, 2014)'
_diffrn_ambient_temperature      2.5(5)
_diffrn_measured_fraction_theta_full 0.971
_diffrn_measured_fraction_theta_max 0.638
_diffrn_measurement_device_type  'closed Eulerian cradle HEiDi'
_diffrn_measurement_method       'rocking scan'
_diffrn_radiation_source         'FRM II'
_diffrn_radiation_type           neutrons
_diffrn_radiation_wavelength     0.793
_diffrn_reflns_av_R_equivalents  0.0733
_diffrn_reflns_av_unetI/netI     0.0817
_diffrn_reflns_Laue_measured_fraction_full 0.971
_diffrn_reflns_Laue_measured_fraction_max 0.638
_diffrn_reflns_limit_h_max       7
_diffrn_reflns_limit_h_min       -8
_diffrn_reflns_limit_k_max       11
_diffrn_reflns_limit_k_min       -11
_diffrn_reflns_limit_l_max       10
_diffrn_reflns_limit_l_min       -11
_diffrn_reflns_number            2315
_diffrn_reflns_point_group_measured_fraction_full 0.971
_diffrn_reflns_point_group_measured_fraction_max 0.638
_diffrn_reflns_theta_full        28.411
_diffrn_reflns_theta_max         36.069
_diffrn_reflns_theta_min         2.703
_diffrn_standards_decay_%        0
_diffrn_standards_interval_count 0
_diffrn_standards_number         0
_exptl_absorpt_coefficient_mu    0.001
_exptl_absorpt_correction_type   none
_exptl_crystal_colour            colourless
_exptl_crystal_density_diffrn    1.299
_exptl_crystal_description       prism
_exptl_crystal_F_000             18
_exptl_crystal_size_max          4.4
_exptl_crystal_size_mid          4.3
_exptl_crystal_size_min          3.3
_refine_diff_density_max         0.271
_refine_diff_density_min         -0.188
_refine_diff_density_rms         0.042
_refine_ls_extinction_coef       1.9(8)
_refine_ls_extinction_expression Fc^*^=kFc[1+0.001xFc^2^\l^3^/sin(2\q)]^-1/4^
_refine_ls_extinction_method     'SHELXL-2014/7 (Sheldrick 2014'
_refine_ls_goodness_of_fit_ref   1.084
_refine_ls_hydrogen_treatment    refall
_refine_ls_matrix_type           full
_refine_ls_number_parameters     160
_refine_ls_number_reflns         1555
_refine_ls_number_restraints     67
_refine_ls_restrained_S_all      1.073
_refine_ls_R_factor_all          0.1460
_refine_ls_R_factor_gt           0.1069
_refine_ls_shift/su_max          0.002
_refine_ls_shift/su_mean         0.000
_refine_ls_structure_factor_coef Fsqd
_refine_ls_weighting_details
'w=1/[\s^2^(Fo^2^)+(0.1200P)^2^+0.3000P] where P=(Fo^2^+2Fc^2^)/3'
_refine_ls_weighting_scheme      calc
_refine_ls_wR_factor_gt          0.2514
_refine_ls_wR_factor_ref         0.2844
_reflns_Friedel_coverage         0.000
_reflns_number_gt                1121
_reflns_number_total             1555
_reflns_threshold_expression     'I > 2\s(I)'
_cod_data_source_file            hw5050sup1.cif
_cod_data_source_block           2k5
_cod_database_code               2108188
_shelx_shelxl_version_number     2014/7
_shelx_space_group_comment
;
The symmetry employed for this shelxl refinement is uniquely defined
by the following loop, which should always be used as a source of
symmetry information in preference to the above space-group names.
They are only intended as comments.
;
_shelx_res_file
;

    all_unscaled.res created by SHELXL-2014/7


TITL 2k5 all data
CELL  0.793  6.2755    8.6368    8.6570  101.4821   96.2307   96.0785
ZERR     2    0.0002    0.0002    0.0002    0.0029    0.0013    0.0013
LATT   1
SFAC C 0. 0. 0. 0. 0. 0. 0. 0. 0.6646 0. 0.  0.1 0.8 12.011
SFAC H 0. 0. 0. 0. 0. 0. 0. 0. -0.3790 0. 0.  0.1 0.4 1.008
SFAC N 0. 0. 0. 0. 0. 0. 0. 0. 0.936 0. 0.  0.1 0.7 14.007
SFAC  O 0. 0. 0. 0. 0. 0. 0. 0. 0.5803 0. 0.  0.1 0.7 15.999
UNIT   20   22   2   4
TEMP -270.7
ACTA
FMAP -2
PLAN  -10
BOND $H
L.S.    49
DAMP 20
SADI C3 C4 C4 C5
OMIT     1  -2   7
OMIT    -2   3   2
OMIT    -2   2   3
CONF
TWIN 1 0 0 0 0 1 0 1 0
ISOR .01 $H
WGHT    0.120000    0.300000
EXTI    1.915994
BASF   0.52292
FVAR       3.75639   0.04542
O1    4    0.291032    0.556284    0.667635    11.00000    0.01826
H1O   2    0.255189    0.444849    0.594753    11.00000    0.04443    0.01349 =
         0.04148   -0.01469    0.01097    0.00157
O2    4    0.219530    0.336079    0.437042    11.00000    0.02602
N1    3    0.242228    0.920399    0.075888    11.00000    0.02673    0.01484 =
         0.02364   -0.00673    0.00555   -0.00044
C2    1    0.083257    0.903958    0.166649    11.00000    0.02407
H2    2   -0.043007    0.980943    0.156573    11.00000    0.01370    0.04238 =
         0.04905    0.01184    0.00364    0.00863
C3    1    0.081891    0.801306    0.274924    11.00000    0.02582
H3    2   -0.058505    0.791306    0.344488    11.00000    0.04115    0.02956 =
         0.05508    0.01242    0.03134    0.01233
C4    1    0.246441    0.708232    0.287220    11.00000    0.01965
C5    1    0.410570    0.726393    0.191270    11.00000    0.01873
H5    2    0.536118    0.657487    0.195320    11.00000    0.03388    0.03179 =
         0.04665    0.00191    0.01301   -0.00887
C6    1    0.400500    0.832891    0.086933    11.00000    0.01964
H6    2    0.531678    0.852054    0.019359    11.00000    0.05905    0.04878 =
         0.04780    0.01321    0.02902    0.01502
C7    1    0.338562    0.826095    0.644636    11.00000    0.02205
H7A   2    0.261141    0.855188    0.750979    11.00000    0.06916    0.05193 =
         0.06221    0.00796    0.03536    0.03152
H7B   2    0.288266    0.909457    0.568975    11.00000    0.08194    0.03902 =
         0.03519    0.01541   -0.00861    0.02923
H7C   2    0.520124    0.853082    0.685351    11.00000    0.03750    0.04582 =
         0.07362   -0.02771   -0.00014   -0.02166
C8    1    0.286969    0.655679    0.565997    11.00000    0.01800
C9    1    0.254082    0.600915    0.402956    11.00000    0.01973
C10   1    0.214248    0.432519    0.339998    11.00000    0.02210
C11   1    0.171461    0.364965    0.163490    11.00000    0.02144
H11A  2    0.140331    0.231505    0.149096    11.00000    0.04645    0.01189 =
         0.04320   -0.01314    0.01105    0.00569
H11B  2    0.308046    0.395397    0.102191    11.00000    0.04575    0.06027 =
         0.03147   -0.01958    0.02008   -0.01749
H11C  2    0.034360    0.405183    0.119500    11.00000    0.03403    0.04974 =
         0.04040   -0.02026    0.00019    0.01129
REM  model  - SHELXL
REM R1 =  0.0976 for    2037 Fo > 4sig(Fo)  and  0.0981 for all    2069 data
REM     55 parameters refined using      0 restraints
REM Highest difference peak  1.499,  deepest hole -1.041,  1-sigma level  0.112
HKLF 4 1  0.0000  0.0000 -1.0000 -0.5000 -0.5000  0.0000 -0.5000  0.5000  0.0000

REM  2k5 all data
REM R1 =  0.1069 for    1121 Fo > 4sig(Fo)  and  0.1460 for all    1555 data
REM    160 parameters refined using     67 restraints

END

WGHT      0.1629      0.2091

REM Highest difference peak  0.271,  deepest hole -0.188,  1-sigma level  0.042
Q1    1   0.2855  0.6019  0.6183  11.00000  0.05    0.27
Q2    1   0.2130  0.3917  0.4005  11.00000  0.05    0.25
Q3    1   0.2623  0.6540  0.3509  11.00000  0.05    0.24
Q4    1   0.2277  0.4909  0.3245  11.00000  0.05    0.20
Q5    1   0.2439  0.7477  0.3652  11.00000  0.05   -0.19
Q6    1   0.0898  0.8580  0.2432  11.00000  0.05    0.19
Q7    1   0.2455  0.5551  0.4395  11.00000  0.05    0.18
Q8    1   0.3947  0.7758  0.1428  11.00000  0.05    0.18
Q9    1   0.2820  0.9991  0.2426  11.00000  0.05   -0.17
Q10   1   0.2822  0.6874  0.6335  11.00000  0.05   -0.17
;
_shelx_res_checksum              8137
_shelx_hkl_file
;
  -2  -7   0   -0.29    0.58   1
  -1  -7   0   47.50    3.17   1
   0  -7   0   -0.29    3.02   1
   1  -7   0   51.52    3.19   1
   2  -7   0    9.93    4.50   1
   1  -7   1   42.26    2.50   1
   0  -7   1   -1.36    0.57   1
  -1  -7   1  182.90    4.45   1
  -2  -7   1    4.19    4.66   1
  -4  -6   0  367.41    6.33   1
  -3  -6   0    9.34    6.74   1
  -2  -6   0    3.03    4.69   1
  -1  -6   0    0.73    1.19   1
   0  -6   0  491.53   10.19   1
   1  -6   0   -1.21    1.16   1
   2  -6   0    1.93    4.77   1
   3  -6   0   -0.70    1.56   1
   4  -6   0  325.98    8.42   1
   3  -6   1   -4.06    2.47   1
   2  -6   1   41.95    3.79   1
   1  -6   1    0.04    0.60   1
   0  -6   1   13.47    5.84   1
  -1  -6   1    3.05    5.07   1
  -2  -6   1  159.56    4.48   1
  -3  -6   1    0.12    2.75   1
  -2  -6   2   22.75    1.97   1
  -1  -6   2    0.86    1.35   1
   0  -6   2  587.31    7.63   1
   1  -6   2   -1.61    0.56   1
   4  -5   0    0.35    7.21   1
   3  -5   0   59.36    3.25   1
   2  -5   0    0.82    2.57   1
   1  -5   0    6.86    6.03   1
   0  -5   0   -0.89    0.55   1
  -1  -5   0    0.19    3.25   1
  -2  -5   0   -0.98    2.35   1
  -3  -5   0   70.97    3.79   1
  -4  -5   0   -0.23    0.92   1
  -4  -5   1    1.85    1.74   1
  -3  -5   1   51.21    2.73   1
  -2  -5   1   -0.79    0.84   1
  -1  -5   1  239.95    4.29   1
   0  -5   1   -0.21    0.75   1
   1  -5   1  103.04    3.74   1
   2  -5   1    6.40    5.41   1
   3  -5   1    4.98    6.19   1
   4  -5   1   -1.27    4.65   1
   2  -5   2    7.43    4.84   1
   1  -5   2  522.31    8.38   1
   0  -5   2   -0.21    0.61   1
  -1  -5   2   40.33    1.37   1
  -2  -5   2    6.38    6.15   1
  -3  -5   2  234.01    3.93   1
  -5  -4   0   -0.18    0.57   1
  -4  -4   0   79.76    3.10   1
  -3  -4   0   -0.97    3.71   1
  -2  -4   0    8.42    3.39   1
  -1  -4   0    0.05    0.41   1
   0  -4   0   -0.41    1.14   1
   1  -4   0    3.70    3.20   1
   2  -4   0    6.16    3.48   1
   3  -4   0    0.89    0.83   1
   4  -4   0   81.63    3.40   1
   5  -4   0    1.92    2.22   1
   4  -4   1  271.24   11.39   1
   3  -4   1    0.41    1.10   1
   2  -4   1   20.79    2.25   1
   1  -4   1    3.09    3.55   1
   0  -4   1    7.93    3.42   1
  -1  -4   1   -0.44    3.39   1
  -2  -4   1  221.89    4.16   1
  -3  -4   1   -0.34    0.57   1
  -4  -4   1   95.21    4.20   1
  -5  -4   1    1.77    4.50   1
  -4  -4   2  168.51    3.83   1
  -3  -4   2   -0.09    0.59   1
  -2  -4   2   40.41    2.79   1
  -1  -4   2    8.32    6.72   1
   0  -4   2   42.55    3.56   1
   1  -4   2   -0.17    0.99   1
   2  -4   2   -0.88    0.62   1
   3  -4   2    1.06    4.78   1
   0  -4   3   34.67    2.20   1
  -1  -4   3   -0.29    0.60   1
  -2  -4   3   17.56    2.12   1
  -5  -3   0  136.59    5.84   1
  -4  -3   0    7.56    6.24   1
  -3  -3   0   53.80    2.21   1
  -2  -3   0   -0.33    0.37   1
  -1  -3   0  245.82    4.63   1
   0  -3   0   -0.76    0.31   1
   1  -3   0  260.13    4.52   1
   2  -3   0    0.19    0.39   1
   3  -3   0   47.62    3.68   1
   4  -3   0   10.72    6.18   1
   5  -3   0  158.52    6.10   1
   5  -3   1  175.80    5.45   1
   4  -3   1   -2.08    2.15   1
   3  -3   1    6.69    5.23   1
   2  -3   1    2.05    3.39   1
   1  -3   1  105.60    3.58   1
   0  -3   1    0.29    0.39   1
  -1  -3   1  165.90    2.69   1
  -2  -3   1    1.49    2.63   1
  -3  -3   1   34.73    2.14   1
  -4  -3   1    6.28    6.67   1
  -5  -3   2  517.34    7.09   1
  -4  -3   2   -2.98    5.69   1
  -3  -3   2  233.11    5.35   1
  -2  -3   2   -2.68    0.70   1
  -1  -3   2   34.14    3.66   1
   0  -3   2    0.21    0.93   1
   1  -3   2   -5.18    5.40   1
   2  -3   2    9.74    8.58   1
   3  -3   2  274.01    7.73   1
   4  -3   2    8.76    4.62   1
   1  -3   3    8.11    1.91   1
   0  -3   3    7.17    2.81   1
  -1  -3   3  644.75    8.96   1
  -2  -3   3   -0.89    0.73   1
  -3  -3   3   -0.08    4.84   1
  -6  -2   0  228.17    4.28   1
  -5  -2   0    3.94    4.36   1
  -4  -2   0  243.73    5.96   1
  -3  -2   0   -0.34    0.38   1
  -2  -2   0   54.12    2.03   1
  -1  -2   0    2.21    1.86   1
   0  -2   0   78.57    2.43   1
   1  -2   0   -0.83    2.21   1
   2  -2   0   62.84    2.40   1
   3  -2   0    0.12    0.40   1
   4  -2   0  297.84    7.49   1
   5  -2   0    0.05    0.59   1
   6  -2   0  232.67    5.03   1
   5  -2   1    1.58    5.68   1
   4  -2   1   28.66    7.85   1
   3  -2   1    4.55    4.39   1
   2  -2   1   59.80    2.66   1
   1  -2   1   -1.36    1.62   1
   0  -2   1   16.61    1.33   1
  -1  -2   1    0.41    2.64   1
  -2  -2   1   -0.23    2.89   1
  -3  -2   1   -0.69    0.39   1
  -4  -2   1   23.81    5.62   1
  -5  -2   1   -1.17    2.69   1
  -6  -2   1   93.07    2.65   1
  -5  -2   2    0.07    0.75   1
  -4  -2   2   13.17    5.13   1
  -3  -2   2   -1.26    0.67   1
  -2  -2   2  321.26    3.99   1
  -1  -2   2   -0.36    0.44   1
   0  -2   2  372.12    5.14   1
   1  -2   2   12.13    6.62   1
   2  -2   2  146.21    4.96   1
   3  -2   2    3.63    4.79   1
   4  -2   2  184.66    4.23   1
   2  -2   3  146.60    3.93   1
   1  -2   3    6.98    6.64   1
   0  -2   3  251.77    4.53   1
  -1  -2   3   -3.17    5.42   1
  -2  -2   3  514.04    5.58   1
  -3  -2   3    1.94    4.69   1
  -4  -2   3   79.31    2.05   1
  -6  -1   0    0.33    0.58   1
  -5  -1   0  185.38    5.22   1
  -4  -1   0    3.97    2.42   1
  -3  -1   0  448.44    4.32   1
  -2  -1   0   -0.04    0.29   1
  -1  -1   0   70.74    1.91   1
   1  -1   0   76.37    2.00   1
   2  -1   0   -0.34    0.29   1
   3  -1   0  504.12    4.75   1
   4  -1   0    0.61    0.60   1
   5  -1   0  205.39    6.85   1
   6  -1   0    1.06    0.60   1
   5  -1   1  415.43    5.61   1
   4  -1   1   -1.00    0.72   1
   3  -1   1  343.06    4.00   1
   2  -1   1    0.92    2.90   1
   1  -1   1  638.82    5.25   1
   0  -1   1    0.81    1.16   1
  -1  -1   1  502.85    4.13   1
  -2  -1   1    0.34    0.34   1
  -3  -1   1  230.10    3.03   1
  -4  -1   1    5.51    6.39   1
  -5  -1   1   92.90    3.53   1
  -6  -1   1    1.25    2.11   1
  -5  -1   2   97.21    3.85   1
  -4  -1   2   -1.48    1.20   1
  -3  -1   2   33.90    6.53   1
  -2  -1   2    1.77    3.51   1
  -1  -1   2  512.00    5.37   1
   0  -1   2   -0.71    0.42   1
   1  -1   2   15.43    1.13   1
   2  -1   2   -1.87    0.87   1
   3  -1   2  346.68    6.51   1
   4  -1   2   -4.79    6.60   1
   2  -1   3    0.45    4.67   1
   1  -1   3  272.18    4.44   1
   0  -1   3    9.57    4.70   1
  -1  -1   3   39.98    1.39   1
  -2  -1   3   -3.98    4.88   1
  -3  -1   3  313.01    4.53   1
  -4  -1   3    7.13    4.42   1
  -6   0   0  166.98    3.27   1
  -5   0   0   -1.02    0.93   1
  -4   0   0   51.22    1.45   1
  -3   0   0   -1.45    2.85   1
  -2   0   0  772.51    5.45   1
  -1   0   0   -0.03    0.20   1
   1   0   0   -0.26    0.19   1
   2   0   0  686.01    5.14   1
   3   0   0    7.90    2.79   1
   4   0   0   48.59    1.81   1
   5   0   0    1.55    6.50   1
   6   0   0  148.21    3.80   1
   5   0   1    0.63    7.05   1
   4   0   1   13.59    2.96   1
   3   0   1    0.40    2.74   1
   2   0   1    4.77    2.88   1
   1   0   1   -1.50    2.09   1
   0   0   1   -0.24    0.27   1
  -1   0   1   -0.29    0.27   1
  -2   0   1    2.60    1.50   1
  -3   0   1    1.51    1.49   1
  -4   0   1   10.60    5.69   1
  -5   0   1   -1.73    1.03   1
  -6   0   1   11.31    1.96   1
  -5   0   2    0.44    0.87   1
  -4   0   2  665.09    6.72   1
  -3   0   2   -1.28    0.87   1
  -2   0   2  122.59    2.31   1
  -1   0   2    0.70    3.43   1
   0   0   2 1150.86    8.56   1
   1   0   2    1.13    3.50   1
   2   0   2  147.52    3.58   1
   3   0   2   -2.22    1.08   1
   4   0   2  298.35    5.10   1
   2   0   3    4.38    1.87   1
   1   0   3    3.58    5.78   1
   0   0   3    6.34    4.66   1
  -1   0   3   -1.06    4.71   1
  -2   0   3   10.35    4.69   1
  -3   0   3    5.64    6.45   1
  -4   0   3    5.20    4.60   1
  -6   1   0    0.58    0.59   1
  -5   1   0  188.37    5.87   1
  -4   1   0   12.27    4.75   1
  -3   1   0  483.52    4.87   1
  -2   1   0    2.87    2.34   1
  -1   1   0   82.09    2.02   1
   1   1   0   72.49    1.95   1
   3   1   0  426.93    4.11   1
   4   1   0    1.79    4.62   1
   5   1   0  197.19    5.40   1
   6   1   0    4.05    4.50   1
   5   1   1  456.45    6.37   1
   4   1   1   10.63    6.33   1
   3   1   1  289.87    3.74   1
   2   1   1    4.40    2.82   1
   1   1   1  570.82    4.67   1
   0   1   1   -0.22    0.28   1
  -1   1   1  444.62    4.05   1
  -2   1   1    0.73    1.35   1
  -3   1   1  226.23    3.43   1
  -4   1   1    3.25    2.69   1
  -5   1   1  104.61    3.93   1
  -6   1   1    0.82    4.45   1
  -5   1   2   84.93    3.41   1
  -4   1   2   12.16    7.95   1
  -3   1   2   28.08    6.06   1
  -2   1   2    2.71    3.42   1
  -1   1   2  482.69    5.39   1
   0   1   2    2.55    3.38   1
   1   1   2   11.55    1.93   1
   2   1   2   18.57    5.96   1
   3   1   2  310.41    5.57   1
   4   1   2   -1.71    5.95   1
   2   1   3   -0.35    0.59   1
   1   1   3  271.01    5.01   1
   0   1   3    7.18    4.67   1
  -1   1   3   32.55    1.35   1
  -2   1   3    0.45    0.64   1
  -3   1   3  301.13    4.87   1
  -4   1   3    3.81    4.62   1
  -6   2   0  241.18    4.21   1
  -5   2   0    0.02    0.59   1
  -4   2   0  305.05    7.95   1
  -3   2   0    1.25    3.16   1
  -2   2   0   63.33    2.37   1
  -1   2   0    1.80    2.20   1
   0   2   0   83.74    1.95   1
   1   2   0   -0.14    0.28   1
   2   2   0   58.00    2.33   1
   3   2   0   -1.87    3.09   1
   4   2   0  238.95    7.34   1
   5   2   0   -0.16    4.50   1
   6   2   0  226.97    4.28   1
   5   2   1   -1.56    0.79   1
   4   2   1   -4.58    4.99   1
   3   2   1    2.54    5.10   1
   2   2   1   44.80    1.95   1
   1   2   1    1.52    2.67   1
  -2   2   1    1.83    2.87   1
  -3   2   1    0.47    0.42   1
  -4   2   1   10.45    6.94   1
  -5   2   1   -4.12    2.95   1
  -6   2   1  105.47    4.45   1
  -5   2   2    1.61    1.76   1
  -4   2   2    9.37    5.90   1
  -3   2   2    3.74    4.77   1
  -2   2   2  325.24    4.68   1
   1   2   2    0.17    0.66   1
   2   2   2  146.93    5.02   1
   3   2   2   -0.13    0.59   1
   4   2   2  171.82    5.01   1
   1   2   3    3.14    5.56   1
   0   2   3  264.41    5.60   1
  -1   2   3   -0.84    0.72   1
  -2   2   3  461.00    5.58   1
  -3   2   3   -1.63    0.77   1
  -4   2   3   71.16    1.92   1
  -5   3   0  171.20    6.03   1
  -4   3   0    0.73    0.78   1
  -3   3   0   61.78    2.29   1
  -2   3   0   -0.52    3.03   1
  -1   3   0  275.88    5.09   1
   0   3   0    0.42    1.23   1
   1   3   0  245.77    5.08   1
   2   3   0    1.79    2.98   1
   3   3   0   49.96    2.10   1
   4   3   0   -0.51    0.72   1
   5   3   0  140.36    6.01   1
   5   3   1  164.51    5.19   1
   4   3   1    7.53    4.83   1
   3   3   1    1.69    6.10   1
   2   3   1   -0.19    0.41   1
   1   3   1   88.16    3.46   1
   0   3   1   -0.61    2.52   1
  -1   3   1  179.36    3.44   1
  -2   3   1    0.06    0.41   1
  -3   3   1   26.97    2.18   1
  -4   3   1    0.79    0.84   1
  -5   3   1  476.97    7.28   1
  -5   3   2  558.18    6.14   1
  -4   3   2   -0.41    4.34   1
  -3   3   2  211.37    8.47   1
  -2   3   2    1.59    5.20   1
   1   3   2    0.15    0.62   1
   2   3   2    9.05    7.93   1
   3   3   2  213.00    9.71   1
   4   3   2    1.55    4.63   1
   1   3   3    6.61    4.78   1
   0   3   3   -3.28    6.91   1
  -3   3   3    8.21    4.61   1
  -5   4   0    2.63    1.77   1
  -4   4   0   88.48    3.39   1
  -3   4   0   -1.14    7.37   1
  -2   4   0    0.58    0.46   1
  -1   4   0   -4.02    3.10   1
   0   4   0    0.20    0.40   1
   1   4   0   -2.51    2.82   1
   2   4   0   -1.26    3.54   1
   3   4   0   -1.25    0.89   1
   4   4   0   68.03    3.29   1
   5   4   0    0.26    3.48   1
   4   4   1  255.20    7.52   1
   3   4   1    1.78    8.20   1
   2   4   1   12.80    2.69   1
   1   4   1    2.32    3.44   1
   0   4   1   -0.25    3.51   1
  -1   4   1    0.93    0.97   1
  -3   4   1    2.03    4.73   1
  -4   4   1   94.33    3.81   1
  -5   4   1   -1.20    2.80   1
  -4   4   2  156.22    3.89   1
  -3   4   2    1.02    0.61   1
   1   4   2    1.35    2.36   1
   2   4   2    0.07    4.93   1
   3   4   2    5.04    4.68   1
   4   5   0    3.60    4.37   1
   3   5   0   75.91    4.35   1
   2   5   0    0.01    0.73   1
   1   5   0   12.33    6.67   1
   0   5   0   -0.69    0.57   1
  -1   5   0   -1.82    4.84   1
  -2   5   0    0.63    0.75   1
  -3   5   0   72.19    2.68   1
  -4   5   0   -0.81    7.11   1
  -4   5   1    0.44    1.70   1
  -3   5   1   45.67    2.96   1
  -2   5   1   -0.69    0.70   1
  -1   5   1  236.51    4.42   1
   0   5   1   -1.58    0.73   1
   1   5   1   79.21    3.81   1
   2   5   1    1.65    7.81   1
   3   5   1    8.53    5.29   1
   4   5   1    1.78    2.15   1
   2   5   2   -2.71    3.80   1
   1   5   2  429.18   11.76   1
  -2   5   2    7.88    6.30   1
  -3   5   2  196.85    6.06   1
  -4   5   2   11.66    4.64   1
  -4   6   0  368.93    8.81   1
  -3   6   0    1.47    0.88   1
  -2   6   0   11.83    5.03   1
  -1   6   0   20.58    8.43   1
   0   6   0  478.30    9.36   1
   1   6   0    0.64    1.11   1
   2   6   0    9.89    5.08   1
   3   6   0   -0.59    0.87   1
   4   6   0  298.47    6.32   1
   3   6   1   -0.27    0.58   1
   2   6   1   35.16    3.34   1
   1   6   1    0.86    3.15   1
   0   6   1    0.10    1.15   1
  -1   6   1   -1.97    0.66   1
  -2   6   1  165.87    4.29   1
  -3   6   1   -0.09    0.75   1
  -2   6   2   31.06    2.14   1
  -1   6   2    1.71    1.34   1
   1   6   2    2.92    4.62   1
   2   7   0    1.34    1.55   1
   1   7   0   54.60    3.30   1
   0   7   0    0.67    1.79   1
  -1   7   0   56.24    3.35   1
  -2   7   0   -0.15    0.60   1
  -2   7   1    0.80    2.72   1
  -1   7   1  226.25    4.13   1
   0   7   1   -0.56    0.66   1
   1   7   1   52.88    3.78   1
  -1 -13   0  229.75    7.67   1
   1 -13   0  175.85    6.03   1
   4 -12   0   59.38    5.01   1
   2 -12   0   53.16    3.73   1
   0 -12   0  120.46    5.38   1
  -2 -12   0   58.20    3.22   1
  -4 -12   0  100.05    3.93   1
  -4 -12   1    2.04    2.49   1
  -2 -12   1   10.06    7.50   1
   0 -12   1   92.67    4.21   1
   2 -12   1   21.28    7.34   1
   0 -12   2   -0.16    0.84   1
  -2 -12   2   18.48    6.54   1
  -5 -11   0  110.15    4.42   1
  -3 -11   0  176.79    7.38   1
  -1 -11   0   14.99    3.52   1
   1 -11   0   50.47    3.57   1
   3 -11   0  309.55   10.10   1
   5 -11   0  215.92    7.41   1
   5 -11   1    4.06    6.50   1
   3 -11   1   18.57    4.66   1
   1 -11   1    9.18    9.51   1
  -1 -11   1   26.04    8.05   1
  -3 -11   1   14.62    8.52   1
  -5 -11   1   44.94    6.36   1
  -5 -11   2   27.11    3.28   1
  -3 -11   2  111.67    5.07   1
  -1 -11   2  238.10    9.10   1
   1 -11   2  341.97    9.85   1
   3 -11   2   62.79    3.87   1
   1 -11   3   -0.14    0.83   1
  -1 -11   3    9.96    6.79   1
  -3 -11   3    5.40    4.16   1
  -6 -10   0   69.00    3.87   1
  -4 -10   0  524.68   12.47   1
  -2 -10   0  135.08    5.35   1
   0 -10   0    0.14    1.10   1
   2 -10   0  136.20    5.24   1
   4 -10   0  571.98   12.89   1
   6 -10   0   76.01    3.77   1
   6 -10   1  100.51    4.36   1
   4 -10   1  284.06   11.88   1
   2 -10   1   28.11    6.19   1
   0 -10   1   11.37    9.84   1
  -2 -10   1  155.41    6.86   1
  -4 -10   1  181.81    8.15   1
  -6 -10   1  181.10    6.68   1
  -6 -10   2  225.32    6.77   1
  -4 -10   2  418.87    7.24   1
  -2 -10   2    2.99    6.92   1
   0 -10   2   39.63    3.72   1
   2 -10   2   48.47    4.29   1
   4 -10   2  379.53    8.95   1
   2 -10   3   71.60    3.76   1
   0 -10   3  193.14    7.09   1
  -2 -10   3   73.56    4.14   1
  -4 -10   3   77.98    3.80   1
  -7  -9   0   44.63    3.84   1
  -5  -9   0  338.96    9.92   1
  -3  -9   0   73.41    4.43   1
  -1  -9   0  155.84    4.29   1
   1  -9   0  247.97    6.14   1
   3  -9   0   78.35    4.38   1
   5  -9   0  397.50   12.65   1
   7  -9   0   25.62    3.78   1
   7  -9   1   10.93    4.88   1
   5  -9   1  109.67    5.06   1
   3  -9   1   29.38    8.74   1
   1  -9   1   22.23    2.85   1
  -1  -9   1  109.73    4.25   1
  -3  -9   1  182.61    7.48   1
  -5  -9   1  603.91   10.06   1
  -7  -9   1  234.36    8.43   1
  -7  -9   2  119.37    4.41   1
  -5  -9   2  612.26   10.99   1
  -3  -9   2  116.98    4.92   1
  -1  -9   2   86.29    4.38   1
   1  -9   2  -13.25    8.07   1
   3  -9   2  414.11   12.48   1
   5  -9   2   86.36    4.19   1
   3  -9   3  461.72    6.73   1
   1  -9   3  179.58    7.74   1
  -1  -9   3  320.62    7.88   1
  -3  -9   3   86.04    5.89   1
  -5  -9   3  213.38    6.05   1
  -3  -9   4    0.60    6.93   1
  -1  -9   4   33.73    2.79   1
   1  -9   4   35.79    3.46   1
   8  -8   0  239.37   11.55   1
   6  -8   0   58.77    3.74   1
   4  -8   0  300.41    9.91   1
   2  -8   0   34.13    2.68   1
   0  -8   0    0.53    1.41   1
  -2  -8   0   21.00    5.35   1
  -4  -8   0  270.41    6.83   1
  -6  -8   0   51.26    3.70   1
  -8  -8   0  344.65    8.31   1
  -8  -8   1   60.74    3.56   1
  -6  -8   1   22.38    7.29   1
  -4  -8   1  294.19    5.79   1
  -2  -8   1   48.03    3.58   1
   0  -8   1  176.07    6.04   1
   2  -8   1   82.04    4.23   1
   4  -8   1  221.45    8.05   1
   6  -8   1   45.30    5.17   1
   6  -8   2   40.63    3.40   1
   4  -8   2  218.78    5.96   1
   2  -8   2    9.81    7.48   1
   0  -8   2  389.78    5.38   1
  -2  -8   2  638.44    7.02   1
  -4  -8   2   61.03    4.21   1
  -6  -8   2   90.20    5.00   1
  -8  -8   2  306.55    5.66   1
  -6  -8   3  112.34    3.94   1
  -4  -8   3  113.07    4.83   1
  -2  -8   3   37.63    3.39   1
   0  -8   3   49.50    4.41   1
   2  -8   3   85.28    2.67   1
   4  -8   3   88.57    2.63   1
   2  -8   4   31.01    2.25   1
   0  -8   4  302.48    5.36   1
  -2  -8   4  199.79    5.14   1
  -4  -8   4   28.60    6.74   1
  -7  -7   0   21.71    4.92   1
  -5  -7   0   18.63    5.44   1
  -3  -7   0   89.93    2.90   1
   3  -7   0   93.65    3.27   1
   5  -7   0   17.34    5.53   1
   7  -7   0   17.46    6.59   1
   7  -7   1   74.74    4.84   1
   5  -7   1  165.76    6.22   1
   3  -7   1  350.53    5.89   1
  -3  -7   1   25.49    2.11   1
  -5  -7   1   57.79    2.16   1
  -7  -7   1   95.40    2.65   1
  -9  -7   1   35.04    3.20   1
  -7  -7   2   75.51    4.26   1
  -5  -7   2   83.81    3.44   1
  -3  -7   2  101.04    3.78   1
  -1  -7   2   78.78    2.17   1
   1  -7   2    1.80    5.73   1
   3  -7   2   42.91    3.12   1
   5  -7   2   61.15    3.77   1
   7  -7   2   40.31    3.60   1
   5  -7   3    8.30    7.77   1
   3  -7   3  104.06    4.24   1
   1  -7   3  378.67    8.43   1
  -1  -7   3   24.42    4.36   1
  -3  -7   3  327.85    6.85   1
  -5  -7   3   95.19    2.61   1
  -7  -7   3   12.15    4.57   1
  -5  -7   4   42.81    2.64   1
  -3  -7   4    7.39    9.00   1
  -1  -7   4   34.90    3.15   1
   1  -7   4   24.62   10.85   1
   3  -7   4   91.66    3.81   1
  -1  -7   5  196.10    4.44   1
  -3  -7   5  120.14    3.92   1
  -8  -6   0  513.66    9.18   1
  -6  -6   0    0.08    6.68   1
   6  -6   0    2.52    2.16   1
   8  -6   0  449.12   11.83   1
   8  -6   1   40.17    3.78   1
   6  -6   1   12.06    8.21   1
   4  -6   1    7.19    4.99   1
  -4  -6   1   19.09    2.40   1
  -6  -6   1    5.02    6.34   1
  -8  -6   1   19.37   11.78   1
  -8  -6   2   14.51    7.33   1
  -6  -6   2   73.27    2.97   1
  -4  -6   2    1.19    6.45   1
   2  -6   2   30.09    2.56   1
   4  -6   2  320.37    8.51   1
   6  -6   2   -2.54    5.75   1
   8  -6   2  292.83    6.80   1
   6  -6   3   38.25    4.46   1
   4  -6   3    7.45    7.02   1
   2  -6   3   13.98    6.09   1
   0  -6   3   60.61    3.16   1
  -2  -6   3   24.58    4.80   1
  -4  -6   3   37.90    2.31   1
  -6  -6   3   19.96    5.37   1
  -8  -6   3   45.17    2.33   1
  -6  -6   4  280.95    5.66   1
  -4  -6   4  122.11    3.18   1
  -2  -6   4  246.00    6.02   1
   0  -6   4    9.53    7.58   1
   2  -6   4    6.03    6.87   1
   4  -6   4   17.65    6.75   1
   2  -6   5    9.38    6.37   1
   0  -6   5   84.52    2.54   1
  -2  -6   5   21.37    4.14   1
  -4  -6   5   41.17    2.57   1
  -9  -5   0    9.91    6.71   1
  -7  -5   0  321.14    9.29   1
  -5  -5   0   55.20    2.52   1
   5  -5   0   60.01    2.55   1
   7  -5   0  248.25    9.42   1
   9  -5   0   12.69    3.37   1
   9  -5   1   40.84    5.18   1
   7  -5   1   19.34    7.38   1
   5  -5   1   49.79    3.36   1
  -5  -5   1  265.83    5.11   1
  -7  -5   1    0.28    1.13   1
  -9  -5   1   70.30    3.78   1
  -9  -5   2   33.84    2.43   1
  -7  -5   2   48.23    3.80   1
  -5  -5   2  150.63    3.75   1
   3  -5   2    7.32    4.03   1
   5  -5   2  126.61    4.77   1
   7  -5   2   17.04   12.24   1
   7  -5   3   49.30    3.38   1
   5  -5   3   63.10    3.68   1
   3  -5   3   25.49    2.96   1
   1  -5   3   51.07    3.08   1
  -1  -5   3    3.91    5.08   1
  -3  -5   3   22.52    7.08   1
  -5  -5   3   66.24    3.77   1
  -7  -5   3   58.68    2.01   1
  -9  -5   3  172.53    3.85   1
  -7  -5   4  134.77    3.31   1
  -5  -5   4   21.67    6.30   1
  -3  -5   4  322.56    6.18   1
  -1  -5   4   24.19    5.82   1
   1  -5   4   81.10    2.43   1
   3  -5   4   69.01    2.01   1
   5  -5   4   54.45    3.72   1
   3  -5   5   18.30    4.35   1
   1  -5   5   61.24    4.80   1
  -1  -5   5  113.42    5.83   1
  -3  -5   5   82.03    3.42   1
  -5  -5   5   19.75    4.95   1
 -10  -4   0   19.62    6.59   1
  -8  -4   0    2.61    7.37   1
  -6  -4   0   52.03    2.97   1
   6  -4   0   58.09    2.89   1
   8  -4   0   -3.25    7.32   1
  10  -4   0   20.32    6.47   1
   8  -4   1   90.16    4.21   1
   6  -4   1   91.19    4.26   1
  -6  -4   1  251.47    4.74   1
  -8  -4   1    3.73    7.34   1
 -10  -4   1   77.73    2.95   1
 -10  -4   2   13.64    4.21   1
  -8  -4   2    1.91    7.14   1
  -6  -4   2   65.55    3.95   1
   4  -4   2  205.67    6.93   1
   6  -4   2   12.53    8.30   1
   8  -4   2   17.47    6.86   1
   6  -4   3  128.28    8.44   1
   4  -4   3   51.91    4.31   1
   2  -4   3  123.06    5.81   1
  -4  -4   3   61.91    1.87   1
  -6  -4   3   35.42    3.11   1
  -8  -4   3   97.43    4.28   1
  -8  -4   4   13.48    6.89   1
  -6  -4   4  165.15    3.78   1
  -4  -4   4   37.69    2.63   1
  -2  -4   4   16.06    6.14   1
   0  -4   4   53.16    3.37   1
   2  -4   4  141.03    5.13   1
   4  -4   4   26.57    4.75   1
   6  -4   4   26.68    2.54   1
   2  -4   5   22.86    5.72   1
   0  -4   5   66.62    5.87   1
  -2  -4   5    3.60    2.78   1
  -4  -4   5   27.30    2.20   1
  -6  -4   5   33.07    2.18   1
  -9  -3   0   28.08   11.08   1
  -7  -3   0   69.63    2.84   1
   7  -3   0   71.32    3.26   1
   9  -3   0   -1.12   11.23   1
   9  -3   1   55.71    5.64   1
   7  -3   1   11.12    8.87   1
  -7  -3   1    9.73    5.61   1
  -9  -3   1  324.09   10.36   1
  -9  -3   2    0.95    8.78   1
  -7  -3   2  222.29    4.77   1
   5  -3   2   67.38    4.13   1
   7  -3   2   95.88    3.90   1
   9  -3   2   62.40    4.97   1
   7  -3   3  148.30    5.25   1
   5  -3   3   26.42    4.57   1
   3  -3   3  387.60    7.26   1
  -5  -3   3  385.46    5.62   1
  -7  -3   3   30.19    6.69   1
  -9  -3   3  201.10    4.96   1
  -7  -3   4    2.07    6.53   1
  -5  -3   4  148.87    2.86   1
  -3  -3   4   23.70    1.80   1
  -1  -3   4   41.02    1.61   1
   1  -3   4   58.37    3.05   1
   3  -3   4  585.37   11.59   1
   5  -3   4   69.01    4.22   1
   3  -3   5   77.96    2.70   1
   1  -3   5    9.65   11.98   1
  -1  -3   5   70.53    2.16   1
  -3  -3   5   37.17    3.33   1
  -5  -3   5   37.75    5.60   1
  -7  -3   5   48.96    2.16   1
 -10  -2   0  128.27    4.00   1
  -8  -2   0  469.35    8.38   1
   8  -2   0  357.55    8.29   1
  10  -2   0  121.14    4.99   1
  10  -2   1   24.22    3.25   1
   8  -2   1   18.72    3.57   1
   6  -2   1  108.20    3.49   1
  -8  -2   1  199.73    5.41   1
 -10  -2   1  201.01    7.10   1
 -10  -2   2  126.57    4.57   1
  -8  -2   2  204.46    6.40   1
  -6  -2   2   10.86    7.73   1
   6  -2   2  157.44    4.47   1
   8  -2   2   97.21    4.14   1
   8  -2   3    5.35    6.07   1
   6  -2   3   15.74    7.68   1
   4  -2   3   36.75    2.87   1
  -6  -2   3  177.95    4.87   1
  -8  -2   3   47.33    2.53   1
  -8  -2   4   92.37    2.19   1
  -6  -2   4  340.17    5.91   1
  -4  -2   4  227.33    4.25   1
  -2  -2   4  213.65    4.43   1
   0  -2   4  206.18    4.69   1
   2  -2   4   28.82    7.35   1
   4  -2   4   37.82    4.14   1
   6  -2   4   80.76    2.88   1
   4  -2   5    6.41    4.24   1
   2  -2   5   66.67    3.86   1
   0  -2   5   85.68    2.03   1
  -2  -2   5   14.49    7.40   1
  -4  -2   5  235.68    6.30   1
  -6  -2   5   24.42    2.74   1
  -2  -2   6   38.76    2.05   1
  -9  -1   0  403.28    8.39   1
  -7  -1   0   47.83    3.66   1
   7  -1   0   44.32    3.65   1
   9  -1   0  403.30    9.76   1
   9  -1   1  303.17    4.26   1
   7  -1   1  250.21    4.89   1
  -7  -1   1   38.27    5.48   1
  -9  -1   1   51.55    2.35   1
  -9  -1   2  710.85   12.06   1
  -7  -1   2   55.61    2.62   1
   5  -1   2  412.63    6.81   1
   7  -1   2   75.41    3.72   1
   9  -1   2   -4.39    6.81   1
   7  -1   3  301.02    5.73   1
   5  -1   3   72.71    4.58   1
   3  -1   3  153.68    3.47   1
  -5  -1   3  196.95    3.90   1
  -7  -1   3   88.79    3.08   1
  -9  -1   3  738.73    8.80   1
  -9  -1   4   44.40    2.48   1
  -7  -1   4  573.75    7.30   1
  -5  -1   4  299.80    6.10   1
  -3  -1   4   10.05    5.40   1
  -1  -1   4  539.84    6.40   1
   1  -1   4    0.03    5.95   1
   3  -1   4   20.43    3.37   1
   5  -1   4   77.84    4.55   1
   3  -1   5   31.21    3.40   1
   1  -1   5  156.17    4.30   1
  -1  -1   5  642.65    7.30   1
  -3  -1   5  592.03    6.96   1
  -5  -1   5  315.98    5.74   1
  -7  -1   5  312.43    5.61   1
  -3  -1   6   41.15    2.54   1
  -1  -1   6   28.45    2.82   1
 -10   0   0  203.16    5.73   1
  -8   0   0  870.19   11.28   1
   8   0   0  909.70    9.09   1
  10   0   0  191.87    6.34   1
  10   0   1    7.09    6.10   1
   8   0   1   29.70    7.93   1
   6   0   1   15.96    2.85   1
  -8   0   1   -0.56    1.16   1
 -10   0   1    8.60    6.66   1
 -10   0   2  588.12    7.49   1
  -8   0   2   30.19    4.38   1
  -6   0   2  653.43    7.88   1
   6   0   2  173.87    4.17   1
   8   0   2 1218.54   15.30   1
   8   0   3   36.67    2.16   1
   6   0   3   -0.98    1.02   1
   4   0   3   43.79    2.12   1
  -6   0   3   26.06    1.71   1
  -8   0   3   -0.80    8.09   1
 -10   0   3   61.37    3.38   1
  -8   0   4  365.78    6.70   1
  -6   0   4  891.01    9.04   1
  -4   0   4   83.37    2.34   1
  -2   0   4 1339.82   13.21   1
   0   0   4   14.08    5.63   1
   2   0   4  230.85    4.31   1
   4   0   4  418.17    6.17   1
   6   0   4   55.26    1.98   1
   4   0   5   21.21    1.71   1
   2   0   5    9.17   12.23   1
   0   0   5   97.56    2.12   1
  -2   0   5   -0.67    2.18   1
  -4   0   5   27.50    2.62   1
  -6   0   5   13.33    4.51   1
  -4   0   6  152.48    3.55   1
  -2   0   6  889.05    8.87   1
   0   0   6  335.44    5.27   1
  -9   1   0  417.25    8.24   1
  -7   1   0   55.08    4.11   1
   7   1   0   55.64    3.19   1
   9   1   0  431.39    8.48   1
   9   1   1  296.66    5.05   1
   7   1   1  291.90    4.99   1
  -7   1   1   57.39    4.04   1
  -9   1   1   58.66    2.39   1
  -9   1   2  633.29   12.16   1
  -7   1   2   47.62    2.27   1
   5   1   2  390.02    5.16   1
   7   1   2   72.50    3.21   1
   9   1   2   16.64    6.60   1
   7   1   3  298.16    6.09   1
   5   1   3   62.74    4.01   1
   3   1   3  145.51    3.41   1
  -5   1   3  184.69    3.98   1
  -7   1   3   95.58    3.93   1
  -9   1   3  768.97    8.62   1
  -9   1   4   42.55    2.58   1
  -7   1   4  546.30    7.29   1
  -5   1   4  266.02    5.30   1
  -3   1   4   23.40    7.44   1
  -1   1   4  513.74    6.41   1
   1   1   4   -0.40    4.09   1
   3   1   4   15.87    4.56   1
   5   1   4   64.27    5.27   1
   3   1   5   33.19    5.24   1
   1   1   5  170.33    3.68   1
  -1   1   5  566.47    6.82   1
  -3   1   5  618.92    7.36   1
  -5   1   5  408.30    7.48   1
  -7   1   5  288.36    5.75   1
  -3   1   6   40.02    2.06   1
  -1   1   6   24.39    2.39   1
 -10   2   0  118.34    4.23   1
  -8   2   0  401.61    7.18   1
   8   2   0  344.73    6.97   1
  10   2   0  111.73    4.38   1
  10   2   1   28.78    3.21   1
   8   2   1   22.80    7.53   1
   6   2   1  111.89    3.59   1
  -8   2   1  193.70    4.78   1
 -10   2   1  189.75    6.48   1
 -10   2   2  141.12    4.30   1
  -8   2   2  206.93    6.47   1
  -6   2   2   21.99    3.72   1
   6   2   2  146.11    3.95   1
   8   2   2   97.92    4.10   1
   8   2   3    5.18    6.21   1
   6   2   3    4.60    4.24   1
   4   2   3   35.65    2.99   1
  -6   2   3  172.28    4.95   1
  -8   2   3   44.54    3.29   1
  -8   2   4  102.41    3.55   1
  -6   2   4  303.12    5.94   1
  -4   2   4  192.01    4.18   1
  -2   2   4  166.94    3.93   1
   0   2   4  201.03    4.08   1
   2   2   4   24.50    5.38   1
   4   2   4   17.70    3.07   1
   6   2   4   81.25    2.38   1
   4   2   5   11.05    3.93   1
   2   2   5   73.93    3.30   1
   0   2   5   92.12    2.03   1
  -2   2   5   16.12    7.13   1
  -4   2   5  158.18    3.87   1
  -6   2   5   30.40    7.12   1
  -2   2   6   42.13    1.74   1
  -9   3   0   10.80   10.79   1
  -7   3   0   63.06    2.86   1
   7   3   0   68.23    2.86   1
   9   3   0    0.31    1.43   1
   9   3   1   25.16    6.09   1
   7   3   1   -5.11    8.72   1
  -7   3   1    6.46    5.66   1
  -9   3   1  330.66    8.66   1
  -9   3   2    4.36    9.87   1
  -7   3   2  231.53    5.58   1
   5   3   2   64.97    3.91   1
   7   3   2   84.52    4.47   1
   9   3   2   71.84    3.38   1
   7   3   3  164.73    6.60   1
   5   3   3   40.61    9.43   1
   3   3   3  345.61    7.49   1
  -5   3   3  390.77    6.90   1
  -7   3   3   55.96    4.75   1
  -9   3   3  236.63    6.17   1
  -7   3   4   12.28   11.39   1
  -5   3   4  125.77    5.08   1
  -3   3   4    9.45    3.39   1
  -1   3   4   41.72    2.01   1
   1   3   4   45.38    3.74   1
   3   3   4  498.05    8.16   1
   5   3   4   63.41    4.00   1
   3   3   5   79.24    2.75   1
   1   3   5    6.96   10.65   1
  -1   3   5   67.06    2.17   1
  -3   3   5   33.34    3.66   1
  -5   3   5   28.90    7.76   1
  -7   3   5   54.57    3.33   1
 -10   4   0   42.91    3.23   1
  -8   4   0   -4.13    7.55   1
  -6   4   0   56.23    2.98   1
   6   4   0   59.57    2.90   1
   8   4   0   18.63    7.29   1
  10   4   0   26.82    3.24   1
   8   4   1   97.57    4.08   1
   6   4   1  113.68    5.09   1
  -6   4   1  274.76    6.22   1
  -8   4   1    3.40    7.79   1
 -10   4   1   84.21    3.49   1
 -10   4   2    8.09    6.41   1
  -8   4   2    7.66    8.04   1
  -6   4   2   68.89    3.64   1
   4   4   2  169.10    5.54   1
   6   4   2   12.93    8.28   1
   8   4   2   20.83    7.34   1
   6   4   3  127.81    5.71   1
   4   4   3   36.19    8.20   1
   2   4   3  101.13    5.33   1
  -4   4   3   57.10    4.41   1
  -6   4   3   41.30    5.10   1
  -8   4   3   94.55    5.76   1
  -8   4   4   17.26    6.61   1
  -6   4   4  191.71    7.16   1
  -4   4   4   47.85    5.10   1
   0   4   4   43.81    4.03   1
   2   4   4  117.73    4.48   1
   4   4   4   33.88   10.71   1
   6   4   4   19.67    4.36   1
   2   4   5   19.48    4.61   1
   0   4   5   39.39    6.55   1
  -2   4   5    5.85   10.75   1
  -4   4   5   22.08    5.06   1
  -6   4   5   31.63    3.35   1
  -9   5   0   20.47    6.71   1
  -7   5   0  335.12    9.51   1
  -5   5   0   57.26    2.58   1
   5   5   0   58.05    3.68   1
   7   5   0  284.19    9.34   1
   9   5   0    9.66    6.64   1
   9   5   1   52.34    5.21   1
   7   5   1   33.35    7.73   1
   5   5   1   36.48    3.29   1
  -5   5   1  270.39    8.07   1
  -7   5   1   -3.70    4.06   1
  -9   5   1   72.66    4.19   1
  -9   5   2   29.46    3.32   1
  -7   5   2   52.76    5.08   1
  -5   5   2  174.66    6.10   1
   3   5   2   10.91    3.85   1
   5   5   2   97.86    4.25   1
   7   5   2   -2.26    1.45   1
   7   5   3   38.75    3.28   1
   5   5   3   66.00    3.70   1
   3   5   3   13.44    2.68   1
   1   5   3    3.23    2.00   1
  -5   5   3   67.61    3.63   1
  -7   5   3   63.03    3.37   1
  -9   5   3  181.25    6.28   1
  -7   5   4  138.84    5.06   1
  -5   5   4   34.56    3.42   1
   1   5   4   96.90    5.65   1
   3   5   4   71.16    3.45   1
   5   5   4   43.01    3.44   1
   3   5   5    7.76    6.47   1
   1   5   5   44.10    4.72   1
  -5   5   5   18.89    3.51   1
  -8   6   0  493.70   12.02   1
  -6   6   0    2.25    9.37   1
   6   6   0   -1.68    6.28   1
   8   6   0  493.22   11.84   1
   8   6   1   60.67    2.99   1
   6   6   1   10.13    8.30   1
   4   6   1   10.58    4.96   1
  -4   6   1   23.38    1.79   1
  -6   6   1    9.05    4.70   1
  -8   6   1   15.65    5.71   1
  -8   6   2   10.06    6.99   1
  -6   6   2   72.36    4.66   1
  -4   6   2    7.94    6.38   1
   2   6   2   16.38    4.92   1
   4   6   2  255.94    6.85   1
   6   6   2    0.60    6.94   1
   8   6   2  283.28    8.05   1
   6   6   3   67.19    2.82   1
   4   6   3   -1.13    0.94   1
   2   6   3    9.63    2.40   1
  -4   6   3   32.37    5.49   1
  -6   6   3   27.56    7.49   1
  -8   6   3   53.21    2.40   1
  -6   6   4  259.41    8.69   1
  -4   6   4   92.56    3.96   1
   2   6   4    2.76    6.27   1
   4   6   4    8.85    7.00   1
   2   6   5    1.27    1.20   1
   7   7   0   14.69    6.55   1
   5   7   0    3.20    5.66   1
   3   7   0   68.22    2.81   1
  -3   7   0   76.94    3.39   1
  -5   7   0   24.61    5.56   1
  -7   7   0   16.81    6.61   1
  -9   7   1   29.41    3.17   1
  -7   7   1  106.31    4.57   1
  -5   7   1   47.89    2.96   1
  -3   7   1   41.28    1.64   1
   3   7   1  288.23    6.61   1
   5   7   1  101.91    4.63   1
   7   7   1   66.45    5.06   1
   7   7   2   53.84    2.52   1
   5   7   2   61.75    4.11   1
   3   7   2   21.29    2.00   1
   1   7   2    4.58    5.80   1
  -1   7   2   62.00    2.41   1
  -3   7   2   69.25    4.14   1
  -5   7   2   58.67    5.16   1
  -7   7   2   66.57    8.06   1
  -7   7   3   17.80    4.82   1
  -5   7   3   79.63    3.09   1
  -3   7   3  254.09    7.98   1
   1   7   3  256.69    9.78   1
   3   7   3   84.01    4.03   1
   5   7   3   -0.36    7.72   1
   3   7   4   69.70    3.11   1
   1   7   4    0.90    9.23   1
  -5   7   4   29.18    5.60   1
   1   7   5   23.40    4.99   1
   8   8   0  286.86    8.21   1
   6   8   0   45.84    3.86   1
   4   8   0  293.10    6.98   1
   2   8   0   25.18    2.65   1
   0   8   0    2.70    4.26   1
  -2   8   0   24.10    2.70   1
  -4   8   0  314.33    7.08   1
  -6   8   0   58.64    4.13   1
  -8   8   0  334.09    8.34   1
  -8   8   1   61.39    3.47   1
  -6   8   1   19.46    3.03   1
  -4   8   1  336.79    6.29   1
  -2   8   1   64.76    3.10   1
   0   8   1  181.51    4.45   1
   2   8   1  105.40    7.00   1
   4   8   1  150.02    9.36   1
   6   8   1   43.47    5.32   1
   6   8   2   21.57    7.26   1
   4   8   2  218.39    8.63   1
   2   8   2    9.16    5.18   1
   0   8   2  227.19    8.76   1
  -2   8   2  487.52    6.07   1
  -4   8   2   50.18    5.31   1
  -6   8   2   55.49    3.91   1
  -8   8   2  226.28    6.87   1
  -6   8   3   83.23    3.97   1
  -4   8   3   84.22    3.11   1
   2   8   3   28.90    2.71   1
   4   8   3   49.09    5.68   1
   2   8   4   29.19    6.39   1
  -6   8   4  148.85    3.95   1
  -7   9   0   47.52    3.67   1
  -5   9   0  513.22   12.68   1
  -3   9   0   91.74    4.16   1
  -1   9   0  245.60    6.29   1
   1   9   0  220.66    6.68   1
   3   9   0   66.46    4.24   1
   5   9   0  345.74   15.46   1
   7   9   0   39.50    3.72   1
   7   9   1   12.59    6.44   1
   5   9   1   -7.03    1.27   1
   3   9   1    9.84    9.25   1
   1   9   1   32.56    3.00   1
  -1   9   1  104.27    3.00   1
  -3   9   1  183.21    6.11   1
  -5   9   1  654.35    9.44   1
  -7   9   1  281.94    7.91   1
  -7   9   2  126.80    4.36   1
  -5   9   2  836.59   10.36   1
  -3   9   2  167.41    5.80   1
  -1   9   2  111.27    5.69   1
   1   9   2   18.94   10.08   1
   3   9   2  457.58   12.87   1
   5   9   2   45.38    3.20   1
   3   9   3  384.91   13.51   1
   1   9   3  195.12   12.03   1
  -1   9   3  334.82    7.00   1
  -3   9   3  111.07    3.32   1
  -5   9   3  309.13    6.79   1
   1   9   4   37.24    3.54   1
   6  10   0   81.77    3.73   1
   4  10   0  574.03   12.17   1
   2  10   0  139.31    5.29   1
   0  10   0   14.57    8.56   1
  -2  10   0  142.63    7.10   1
  -4  10   0  619.02   10.02   1
  -6  10   0   79.22    3.67   1
  -6  10   1  190.29    7.19   1
  -4  10   1  237.09    7.00   1
  -2  10   1  112.07    3.43   1
   0  10   1   11.07   10.32   1
   2  10   1  105.85    3.21   1
   4  10   1  268.85   13.94   1
   6  10   1  103.54    4.47   1
   4  10   2  374.12    9.10   1
   2  10   2   47.42    4.26   1
   0  10   2   17.32    7.87   1
  -2  10   2   -0.45    0.89   1
  -4  10   2  573.72    9.19   1
  -6  10   2  316.76    6.64   1
  -4  10   3  126.55    3.29   1
  -2  10   3  133.05    3.12   1
   0  10   3  186.95    6.28   1
   2  10   3   39.41    3.84   1
   5  11   0  140.94    5.91   1
   3  11   0  194.04    9.13   1
   1  11   0   24.62    7.15   1
  -1  11   0   51.20    3.57   1
  -3  11   0  253.29    9.68   1
  -5  11   0  170.39    5.61   1
  -5  11   1   48.52    3.40   1
  -3  11   1   -0.38    1.34   1
  -1  11   1    8.32    7.14   1
   1  11   1    0.22    1.58   1
   3  11   1    1.03    3.21   1
   5  11   1    7.40    5.11   1
   3  11   2   83.69    3.33   1
   1  11   2  285.08    7.51   1
  -1  11   2  296.73    5.09   1
  -3  11   2  154.18    3.23   1
  -5  11   2   18.08    3.37   1
  -3  11   3    0.41    0.85   1
  -1  11   3    9.92    6.99   1
   1  11   3    3.44    6.64   1
   4  12   0   81.83    3.55   1
   2  12   0   47.69    3.76   1
   0  12   0  125.67    8.21   1
  -2  12   0   71.76    3.72   1
  -4  12   0   72.12    5.19   1
  -4  12   1   11.67    5.48   1
  -2  12   1   16.62    6.90   1
   0  12   1  265.08    5.38   1
   2  12   1   31.50    5.32   1
   0  12   2    1.00    0.91   1
  -2  12   2   -0.67    0.82   1
  -1  13   0  162.03    6.35   1
   1  13   0  247.70    7.86   1
   4  -8   1  161.15    6.96   1
   6  -8   1   31.29   10.45   1
   6  -8   2   35.26    3.38   1
   4  -8   2  251.48    8.30   1
   0  -8   2  257.40    6.94   1
  -2  -8   2  450.71    6.42   1
  -4  -8   2   46.53    4.21   1
  -6  -8   2   50.34    4.92   1
  -8  -8   2  225.39    6.11   1
  -6  -8   3   77.60    2.52   1
  -4  -8   3   69.74    2.64   1
  -2  -8   3   23.90    5.11   1
   0  -8   3   48.04    5.28   1
   2  -8   3   44.08    3.66   1
   4  -8   3   50.40    4.00   1
   2  -8   4   28.91    3.78   1
   0  -8   4  136.77    5.47   1
  -2  -8   4   95.09    4.03   1
  -3  -7   0   71.87    2.77   1
   3  -7   0   81.29    4.46   1
   7  -7   1   49.77    4.92   1
   5  -7   1  119.76    4.91   1
   3  -7   1  300.51    6.88   1
  -3  -7   1   35.48    2.49   1
  -5  -7   1   44.92    2.91   1
  -7  -7   1   92.47    3.49   1
  -9  -7   1   23.70    3.20   1
  -7  -7   2   64.71    6.16   1
  -5  -7   2   75.05    4.71   1
  -3  -7   2   78.88    4.27   1
  -1  -7   2   62.80    2.68   1
   3  -7   2   17.18    3.85   1
   5  -7   2   68.02    2.89   1
   7  -7   2   63.71    2.91   1
   3  -7   3  113.66    4.50   1
   1  -7   3  333.31   10.44   1
  -1  -7   3   32.00    3.17   1
  -3  -7   3  248.45    6.69   1
  -5  -7   3   81.28    3.16   1
  -5  -7   4   35.97    5.63   1
  -1  -7   4   33.15    4.28   1
   3  -7   4   84.69    1.95   1
  -1  -7   5  203.09    3.70   1
  -3  -7   5   84.53    3.00   1
  -8  -6   0  500.06   11.45   1
   8  -6   0  479.48   11.84   1
   8  -6   1   61.51    3.64   1
  -4  -6   1   26.44    2.42   1
  -6  -6   2   76.71    4.39   1
   2  -6   2   13.06    5.21   1
   4  -6   2  293.00    7.56   1
   8  -6   2  293.47    7.59   1
   6  -6   3   79.26    2.48   1
   0  -6   3   89.53    3.21   1
  -2  -6   3   22.19    4.68   1
  -4  -6   3   56.52    2.69   1
  -8  -6   3   45.49    3.46   1
  -6  -6   4  234.51    5.61   1
  -4  -6   4  120.08    2.62   1
  -2  -6   4  221.07    5.68   1
   0  -6   5   93.83    2.66   1
  -2  -6   5   28.54    6.95   1
  -4  -6   5   38.86    2.33   1
  -7  -5   0  314.53    9.33   1
  -5  -5   0   46.31    2.53   1
   5  -5   0   64.05    2.53   1
   7  -5   0  257.72    9.36   1
   1   7   0   59.70    3.28   1
  -1   7   0   57.70    3.29   1
  -1   7  -1   54.54    2.54   1
   1   7  -1  207.04    4.46   1
   4   6   0  344.25    6.39   1
   0   6   0  527.00   10.25   1
  -4   6   0  383.44    7.31   1
  -2   6  -1   42.99    3.87   1
   2   6  -1  172.44    5.44   1
   2   6  -2   31.01    2.43   1
   0   6  -2  653.26    7.66   1
  -3   5   0   70.38    2.86   1
   3   5   0   65.87    4.37   1
   3   5  -1   45.99    3.01   1
   1   5  -1  235.31    5.32   1
  -1   5  -1  104.94    3.98   1
  -1   5  -2  565.23    8.21   1
   1   5  -2   42.60    1.48   1
   3   5  -2  201.39    4.07   1
   4   4   0   70.89    3.28   1
  -4   4   0   90.66    3.75   1
  -4   4  -1  281.64   11.53   1
  -2   4  -1   33.98    6.71   1
   2   4  -1  217.90    4.16   1
   4   4  -1   83.43    3.52   1
   4   4  -2  144.12    3.66   1
   2   4  -2   51.24    3.66   1
   0   4  -2   48.80    3.43   1
   0   4  -3   36.61    2.16   1
   2   4  -3   16.43    4.25   1
   5   3   0  144.97    8.28   1
   3   3   0   50.46    1.88   1
   1   3   0  223.05    3.65   1
  -3   3   0   58.64    2.35   1
  -5   3   0  167.84    6.10   1
  -5   3  -1  209.00    5.55   1
  -1   3  -1  118.52    3.62   1
   1   3  -1  194.18    2.73   1
   3   3  -1   31.62    2.04   1
   5   3  -2  606.31    7.28   1
   3   3  -2  230.39    4.74   1
   1   3  -2   29.76    3.37   1
  -3   3  -2  268.40    7.31   1
   1   3  -3  667.77    8.83   1
   6   2   0  241.24    4.43   1
   4   2   0  245.99    7.27   1
   2   2   0   46.44    1.92   1
   0   2   0   94.16    2.26   1
  -2   2   0   73.09    2.91   1
  -4   2   0  292.90    7.91   1
  -6   2   0  259.16    4.50   1
  -2   2  -1   57.00    2.09   1
   0   2  -1   14.27    1.33   1
   6   2  -1   92.33    3.27   1
   2   2  -2  344.27    5.31   1
   0   2  -2  388.06    5.15   1
  -2   2  -2  172.48    5.73   1
  -4   2  -2  196.17    4.26   1
  -2   2  -3  174.64    4.08   1
   0   2  -3  259.86    4.66   1
   2   2  -3  536.24    7.82   1
   4   2  -3   86.88    1.71   1
   5   1   0  193.42    5.22   1
   3   1   0  455.49    5.21   1
   1   1   0   69.53    1.96   1
  -1   1   0   73.89    2.03   1
  -3   1   0  515.65    4.59   1
  -5   1   0  197.77    5.55   1
  -5   1  -1  467.04    6.14   1
  -3   1  -1  342.09    4.75   1
  -1   1  -1  621.68    5.27   1
   1   1  -1  499.55    4.16   1
   3   1  -1  221.85    3.04   1
   5   1  -1   93.47    3.69   1
   5   1  -2   86.80    3.64   1
   3   1  -2   29.04    7.29   1
   1   1  -2  498.21    5.28   1
  -1   1  -2   12.37    1.00   1
  -3   1  -2  371.39    6.83   1
  -1   1  -3  261.91    4.32   1
   3   1  -3  236.83    3.96   1
   6   0   0  166.21    3.48   1
   4   0   0   48.63    1.41   1
   2   0   0  637.99    5.04   1
  -2   0   0  729.08    5.19   1
  -4   0   0   50.80    1.31   1
  -6   0   0  156.00    3.44   1
   6   0  -1    1.07    0.63   1
   4   0  -2  497.96    6.57   1
  -2   0  -2  143.08    3.07   1
  -4   0  -2  295.21    5.02   1
   5  -1   0  190.58    5.82   1
   3  -1   0  480.78    6.10   1
   1  -1   0   84.20    2.02   1
  -1  -1   0   69.87    1.94   1
  -3  -1   0  458.30    4.28   1
  -5  -1   0  193.29    5.38   1
  -5  -1  -1  437.68    6.04   1
  -3  -1  -1  302.57    4.09   1
   3  -1  -1  230.57    3.23   1
   5  -1  -1   97.03    4.21   1
   5  -1  -2   86.90    3.41   1
  -3  -1  -2  300.55    7.27   1
   6  -2   0  271.25    5.02   1
   4  -2   0  299.30    7.45   1
   2  -2   0   67.72    2.40   1
   0  -2   0   81.58    2.44   1
  -2  -2   0   52.29    1.79   1
  -4  -2   0  236.75    6.94   1
  -6  -2   0  232.24    4.29   1
   6  -2  -1   78.86    4.14   1
  -4  -2  -2  158.69    4.21   1
   5  -3   0  158.27    5.42   1
   3  -3   0   56.80    2.12   1
   1  -3   0  257.63    4.93   1
  -1  -3   0  256.71    4.48   1
  -3  -3   0   54.68    1.83   1
  -5  -3   0  147.86    5.74   1
  -5  -3  -1  165.02    5.40   1
   5  -3  -1  465.83    8.00   1
   4  -4   0   83.28    4.28   1
  -4  -4   0   82.30    3.13   1
  -4  -4  -1  261.47    7.45   1
  -3  -5   0   77.66    3.97   1
   3  -5   0   57.63    3.11   1
   4  -6   0  335.28    8.51   1
   0  -6   0  496.04   11.05   1
  -4  -6   0  326.28    6.24   1
  -1  -7   0   57.74    3.15   1
   1  -7   0   55.50    3.14   1
   1  13   0  249.16    7.79   1
  -1  13   0  215.59    7.80   1
  -4  12   0   70.81    5.17   1
  -2  12   0   65.06    3.78   1
   0  12   0  127.94    6.44   1
   2  12   0   57.60    3.73   1
   4  12   0   96.82    6.34   1
   0  12  -1  116.45    4.81   1
   5  11   0  135.04    5.10   1
   3  11   0  188.04    8.15   1
  -1  11   0   47.82    3.61   1
  -3  11   0  247.92   10.03   1
  -5  11   0  203.85    7.26   1
   5  11  -1   15.56    7.65   1
   5  11  -2   14.90    6.59   1
   3  11  -2  118.25    4.59   1
   1  11  -2  252.03    8.73   1
  -1  11  -2  327.63    9.50   1
  -3  11  -2   88.95    4.97   1
   6  10   0   69.47    5.61   1
   4  10   0  574.46    9.49   1
   2  10   0  156.47    6.74   1
  -2  10   0  150.31    7.79   1
  -6  10  -1  133.06    5.82   1
  -4  10  -1  308.24   11.96   1
   2  10  -1  168.37    6.46   1
   4  10  -1  225.16    7.24   1
   6  10  -1  155.20    5.53   1
   6  10  -2  253.00    7.11   1
   4  10  -2  462.09    8.07   1
   0  10  -2   36.24    3.98   1
  -2  10  -2   69.06    4.47   1
  -4  10  -2  497.57    9.19   1
  -2  10  -3   79.15    3.68   1
   0  10  -3  205.30    7.07   1
   2  10  -3   92.92    4.10   1
   4  10  -3   91.80    3.84   1
  -5   9  -1  123.37    4.77   1
  -1   9  -1   16.20    4.32   1
   1   9  -1  114.82    3.73   1
   3   9  -1  193.35    7.77   1
   5   9  -1  552.94   14.52   1
   7   9  -1  235.97    8.14   1
   7   9  -2  121.92    4.44   1
   5   9  -2  618.42    9.84   1
   3   9  -2  147.70    5.64   1
   1   9  -2  101.63    4.64   1
  -3   9  -2  490.07    9.71   1
  -5   9  -2   85.53    4.30   1
  -3   9  -3  539.39   10.22   1
  -1   9  -3  197.38    7.44   1
   1   9  -3  353.45    6.73   1
   3   9  -3   92.62    4.96   1
   5   9  -3  214.40    5.67   1
   1   9  -4   40.21    2.37   1
  -1   9  -4   48.82    3.63   1
   8   8  -1   51.13    3.60   1
   4   8  -1  303.43    7.06   1
   2   8  -1   54.05    3.47   1
   0   8  -1  216.92    8.58   1
  -2   8  -1   94.34    4.47   1
  -4   8  -1  200.99    8.14   1
  -6   8  -1   60.44    4.80   1
  -6   8  -2   32.25    3.55   1
  -4   8  -2  239.60    8.48   1
   0   8  -2  265.16    7.06   1
   2   8  -2  468.25    6.33   1
   4   8  -2   45.17    4.42   1
   6   8  -2   57.33    4.31   1
   8   8  -2  216.66    6.67   1
   6   8  -3   75.29    2.80   1
   4   8  -3   86.12    3.05   1
   2   8  -3   15.40   11.28   1
   0   8  -3   48.73    5.59   1
  -2   8  -3   42.90    3.83   1
  -4   8  -3   68.32    3.85   1
  -2   8  -4   31.93    1.82   1
   0   8  -4  140.78    6.34   1
   2   8  -4  101.00    4.35   1
  -7   7  -1   79.80    5.02   1
  -5   7  -1  143.56    5.79   1
  -3   7  -1  313.24    6.72   1
   3   7  -1   25.90    3.69   1
   5   7  -1   40.91    2.94   1
   7   7  -1   84.38    3.47   1
   9   7  -1   20.69    6.50   1
   7   7  -2   62.30    5.89   1
   5   7  -2   85.81    4.86   1
   3   7  -2   80.78    3.21   1
   1   7  -2   68.86    3.11   1
  -3   7  -2   31.36    2.50   1
  -5   7  -2   67.13    2.71   1
  -7   7  -2   60.71    2.53   1
  -3   7  -3  120.53    4.87   1
  -1   7  -3  324.61    9.90   1
   1   7  -3   35.92    2.87   1
   3   7  -3  239.41    5.50   1
   5   7  -3   82.04    2.96   1
   5   7  -4   29.17    2.74   1
   1   7  -4   25.80    7.17   1
  -3   7  -4   90.48    2.18   1
   1   7  -5  207.51    4.78   1
   3   7  -5   79.38    2.87   1
  -8   6  -1   59.08    3.44   1
   4   6  -1   27.04    2.35   1
   6   6  -2   68.44    3.63   1
  -2   6  -2   31.59    2.53   1
  -4   6  -2  326.13    7.53   1
  -8   6  -2  345.72    8.16   1
  -6   6  -3   84.60    2.56   1
   0   6  -3   87.47    3.19   1
   2   6  -3   16.28    8.07   1
   4   6  -3   57.64    2.08   1
   8   6  -3   32.26    3.40   1
   6   6  -4  239.24    5.28   1
   4   6  -4  115.74    2.27   1
   2   6  -4  230.53    6.42   1
   0   6  -5  111.11    3.25   1
   2   6  -5   18.65    2.18   1
   4   6  -5   32.78    2.17   1
  -9   5  -1   67.18    3.53   1
  -5   5  -1   59.56    3.23   1
   5   5  -1  251.85    5.92   1
   9   5  -1   70.42    3.88   1
   9   5  -2   20.95    6.84   1
   7   5  -2   45.47   10.86   1
   5   5  -2  146.81    4.03   1
  -5   5  -2  128.93    5.04   1
  -7   5  -3   53.81    3.53   1
  -5   5  -3   88.82    3.88   1
  -3   5  -3   31.60    2.93   1
  -1   5  -3   52.44    2.89   1
   5   5  -3   74.75    3.45   1
   7   5  -3   52.78    2.11   1
   9   5  -3  148.95    4.04   1
   7   5  -4  128.46    3.77   1
   3   5  -4  305.30    6.17   1
  -1   5  -4  110.18    2.86   1
  -3   5  -4   86.32    2.08   1
  -5   5  -4   70.68    4.00   1
  -1   5  -5   74.31    4.26   1
   1   5  -5  120.37    5.32   1
   3   5  -5   68.54    4.69   1
  -8   4  -1  116.51    5.22   1
  -6   4  -1  122.23    4.23   1
   6   4  -1  232.00    4.98   1
  10   4  -1   74.56    3.38   1
   6   4  -2   71.77    3.63   1
  -4   4  -2  224.53    7.68   1
  -6   4  -3  137.50    6.31   1
  -4   4  -3   62.40    3.92   1
  -2   4  -3  158.59    5.82   1
   4   4  -3   53.27    1.77   1
   6   4  -3   41.54    3.62   1
   8   4  -3   76.69    4.22   1
   6   4  -4  165.36    4.25   1
   4   4  -4   39.47    2.36   1
   0   4  -4   68.98    2.88   1
  -2   4  -4  154.30    9.26   1
  -4   4  -4   32.25    5.00   1
  -6   4  -4   27.24    2.09   1
   0   4  -5   70.55    5.67   1
   4   4  -5   26.67    3.44   1
   6   4  -5   34.82    2.81   1
  -9   3  -1   50.01    5.87   1
   9   3  -1  352.00   12.90   1
   7   3  -2  211.57    5.00   1
  -5   3  -2   75.65    4.24   1
  -7   3  -2  103.91    4.12   1
  -9   3  -2   92.97    3.41   1
  -7   3  -3  185.50    7.22   1
  -5   3  -3   42.60    4.40   1
  -3   3  -3  477.36    7.41   1
   5   3  -3  421.25    6.11   1
   9   3  -3  189.72    5.97   1
   5   3  -4  132.88    3.26   1
   3   3  -4   23.61    2.87   1
   1   3  -4   39.45    1.90   1
  -1   3  -4   60.62    2.98   1
  -3   3  -4  646.97    9.29   1
  -5   3  -4  107.02    4.31   1
  -3   3  -5   78.79    3.00   1
   1   3  -5   71.79    2.44   1
   5   3  -5   46.51    3.37   1
   7   3  -5   44.51    2.13   1
   8   2  -1  212.80    6.80   1
  10   2  -1  195.05    7.73   1
  10   2  -2  116.01    4.93   1
   8   2  -2  198.34    5.44   1
  -6   2  -2  177.25    4.76   1
  -8   2  -2  133.36    4.72   1
  -4   2  -3   38.71    3.01   1
   6   2  -3  156.27    3.80   1
   8   2  -3   41.42    2.45   1
   8   2  -4   90.68    2.74   1
   6   2  -4  302.69    5.27   1
   4   2  -4  217.35    4.11   1
   2   2  -4  212.77    4.90   1
   0   2  -4  228.12    5.39   1
  -4   2  -4   55.97    4.11   1
  -6   2  -4  112.14    4.30   1
  -2   2  -5   72.75    4.10   1
   0   2  -5  100.40    2.48   1
   4   2  -5  226.03    5.36   1
   6   2  -5   18.30    7.94   1
  -9   1  -1  339.39   10.87   1
  -7   1  -1  291.24    5.20   1
   7   1  -1   45.09    3.51   1
   9   1  -1   45.55    3.06   1
   9   1  -2  724.26   12.43   1
   7   1  -2   52.74    2.90   1
  -5   1  -2  427.30    5.47   1
  -7   1  -2   88.31    4.04   1
  -7   1  -3  414.77    7.01   1
  -5   1  -3   77.80    4.40   1
  -3   1  -3  166.86    3.64   1
   5   1  -3  205.27    4.24   1
   7   1  -3   95.30    3.56   1
   9   1  -3  812.70   11.54   1
   9   1  -4   45.96    2.87   1
   7   1  -4  579.48    8.63   1
   5   1  -4  260.52    5.31   1
  -3   1  -4   21.90    8.63   1
  -5   1  -4  100.85    5.34   1
  -3   1  -5   35.34    3.30   1
   7   1  -5  258.11    5.26   1
  -6   0  -1   25.93    1.83   1
  10   0  -2  559.57    7.64   1
   8   0  -2   39.63    4.32   1
   6   0  -2  622.07    7.52   1
  -6   0  -2  182.23    3.99   1
  -8   0  -2 1556.53   15.89   1
  -8   0  -3   40.80    2.10   1
  -4   0  -3   51.91    2.44   1
   6   0  -3   17.34    3.05   1
  10   0  -3   59.10    2.71   1
   8   0  -4  353.93    6.46   1
  -4   0  -4  565.13    7.03   1
  -6   0  -4   55.25    2.56   1
  -4   0  -5   40.68    3.43   1
  -9  -1  -1  334.13    9.19   1
  -7  -1  -1  320.14    5.27   1
   7  -1  -1   58.48    3.98   1
   9  -1  -1   52.61    3.11   1
   9  -1  -2  728.11   11.98   1
   7  -1  -2   47.69    2.61   1
  -5  -1  -2  466.18    5.88   1
  -7  -1  -2   87.21    3.70   1
  -7  -1  -3  344.88    6.50   1
  -5  -1  -3   89.86    4.24   1
   7  -1  -3   81.53    3.69   1
   9  -1  -3  783.75   11.88   1
   9  -1  -4   33.65    4.86   1
  -5  -1  -4   88.52    4.62   1
 -10  -2  -1   31.68    3.28   1
  -6  -2  -1  127.25    4.25   1
   8  -2  -1  211.47    6.88   1
  10  -2  -1  183.44    5.70   1
  10  -2  -2  135.67    6.26   1
   8  -2  -2  203.66    8.71   1
   6  -2  -2   16.38    4.92   1
  -6  -2  -2  188.58    5.02   1
  -8  -2  -2  138.11    5.97   1
   8  -2  -3   46.81    3.58   1
  -6  -2  -4  107.21    3.61   1
   9  -3  -1  378.64   11.66   1
   7  -3  -2  227.56    5.56   1
  -5  -3  -2   76.04    3.91   1
  -7  -3  -2  101.19    4.07   1
  -9  -3  -2   96.39    5.11   1
  -7  -3  -3  208.33    8.10   1
   9  -3  -3  230.92    5.76   1
  -8  -4  -1  124.81    4.54   1
  -6  -4  -1  112.43    4.60   1
   6  -4  -1  240.03    6.24   1
  10  -4  -1   85.03    3.75   1
  -6  -4  -3  114.39    8.06   1
  -9  -5  -1   68.40    3.58   1
  -5  -5  -1   25.38    2.21   1
   5  -5  -1  283.14    6.18   1
   9  -5  -1   75.67    6.66   1
   9  -5  -2   29.84    3.51   1
   7  -5  -2   49.36    5.14   1
  -5  -5  -2  124.47    5.26   1
  -7  -5  -3   54.89    3.40   1
  -8  -6  -1   63.65    3.76   1
  -8  -6  -2  360.20    8.08   1
   9  -7  -1   19.31    6.37   1
   7  -7  -1   82.10    3.64   1
  -5  -7  -1  125.98    8.97   1
  -7  -7  -1   60.65    4.85   1
  -7  -7  -2   56.71    2.95   1
   8  -8  -1   47.36    3.47   1
   6  -8  -1   14.67    5.59   1
  -4  -8  -1  186.78    7.69   1
  -6  -8  -1   48.81   10.76   1
   7  -9  -1  229.19    8.07   1
   6 -10  -1  144.41    6.37   1
  -6 -10  -1  108.13    3.52   1
   2 -16   2   21.58   13.37   1
   4 -10   4  282.90   10.46   1
  -9  -9   1  313.11   11.65   1
   3  -9   4  659.69   14.77   1
   6  -8   4  233.77    9.14   1
  10  -4   0    4.06    9.00   1
 -13  -3   0  289.64    8.33   1
   0  -2   6   69.39    3.30   1
 -13  -1   3  329.30    9.02   1
  -7  -1   6   84.09    3.63   1
 -12   0   2  209.79    5.18   1
  10   0   2  476.19   10.78   1
 -10   0   4 1328.71   13.10   1
 -10   0   6  294.95    6.31   1
 -11   1   0   -4.03    1.59   1
  11   1   0   16.38   12.89   1
  13   1   0   17.26   12.42   1
 -13   1   1    5.60    3.34   1
 -11   1   2   30.62   12.79   1
  11   1   2   19.92   13.12   1
 -13   1   3  335.35    8.44   1
 -11   1   4   14.80    8.24   1
   9   1   4   17.16   15.32   1
   7   1   5    6.71   12.29   1
  -9   1   6   10.87   14.91   1
   5   1   6   -1.95   15.77   1
  -5   1   7   16.56   16.70   1
  -7   1   7   18.57   12.51   1
  -1   1   8   -3.83   11.27   1
 -12   2   0   31.43   12.97   1
  12   2   0   11.91   12.48   1
 -10   2   3   10.78    9.56   1
 -12   2   4   14.53   12.24   1
 -10   2   5   44.55   13.42   1
 -12   2   5   -5.37   13.51   1
  -8   2   6   50.44   14.07   1
  -4   2   6    9.12    4.09   1
   2   2   7    0.44    1.78   1
   0   2   7   28.96   15.54   1
  -2   2   7   24.88   13.12   1
  -4   2   7   12.71    7.23   1
  -6   2   7   46.77    6.15   1
 -13   3   0  282.29    7.93   1
  13   3   0  274.07    7.21   1
  11   3   1   13.40    7.83   1
 -11   3   1   34.60   13.25   1
 -11   3   2   34.16   13.04   1
  11   3   2   14.82   15.74   1
   9   3   3    9.09    5.61   1
 -11   3   3   -5.35    2.72   1
   7   3   4   -9.28   11.32   1
   9   3   4   -0.34   15.19   1
   9   3   5   33.81   13.49   1
   5   3   5   10.71   12.89   1
  -9   3   5    9.30   10.26   1
  -9   3   6   12.42   13.20   1
  -5   3   6   21.98   13.46   1
   1   3   6   21.34   12.57   1
   5   3   6   52.22   15.54   1
   7   3   6   14.07   13.30   1
   3   3   7   -1.16    1.53   1
   1   3   7   18.48   15.48   1
  -1   3   7    0.73   15.59   1
  -5   3   7   18.42   15.45   1
 -12   4   0   46.48    7.94   1
 -10   4   0   17.86    8.99   1
  10   4   0    1.54    8.90   1
  12   4   0   33.32   15.74   1
  12   4   1    4.29   11.79   1
 -12   4   1   22.36   15.20   1
 -12   4   2   11.88   15.73   1
 -10   4   2   -0.40    9.24   1
  10   4   2   26.08    9.97   1
  10   4   3   -9.66   13.44   1
   8   4   3   16.63   10.92   1
 -10   4   3   47.99    6.40   1
 -12   4   3   23.49   13.25   1
 -12   4   4   18.06   12.18   1
  10   4   4   11.02   11.30   1
   8   4   5   39.40   12.09   1
   6   4   5   20.87   10.20   1
  -8   4   5   10.43   12.96   1
 -10   4   5    1.55    7.45   1
 -10   4   6    1.46   11.83   1
  -8   4   6   54.03   15.81   1
  -4   4   6   15.21   13.31   1
  -2   4   6    7.04   11.45   1
   0   4   6    6.48    6.40   1
   4   4   6   24.58   14.58   1
   6   4   6    5.73    6.86   1
   4   4   7   50.81    4.34   1
   2   4   7   46.09   12.58   1
   0   4   7   15.42   15.27   1
  -2   4   7   19.69   12.20   1
  13   5   0   43.54   11.43   1
  11   5   1   62.00    6.84   1
 -11   5   1   12.98   10.18   1
 -13   5   1    0.67    9.04   1
 -13   5   2    3.97   11.38   1
   9   5   2   28.42   10.06   1
  11   5   2   12.02   12.27   1
  11   5   3   23.05   11.82   1
   9   5   3   11.69    9.98   1
 -11   5   4   11.89    6.92   1
  -9   5   4    2.10    4.27   1
   7   5   4    3.39    5.93   1
   7   5   5    0.37    1.78   1
   5   5   5    8.09   11.35   1
  -7   5   5  -10.15   13.15   1
  -9   5   5  -10.88   13.65   1
 -11   5   5    7.86   11.21   1
  -7   5   6   15.48   14.69   1
  -5   5   6   23.89   11.42   1
  -3   5   6    8.34    8.83   1
  -1   5   6   15.03   13.76   1
   1   5   6   27.26   15.71   1
   3   5   6   22.78   11.61   1
   3   5   7   31.40   11.69   1
   1   5   7  -15.64   13.27   1
  -1   5   7    7.82    7.33   1
  -3   5   7   15.14   14.86   1
  -5   5   7   -0.65   13.15   1
 -12   6   0   28.80   11.76   1
 -10   6   0   14.64   13.82   1
  10   6   0    8.77    3.91   1
  12   6   0   19.10   12.07   1
  12   6   1    1.43    1.47   1
  10   6   1   25.16   10.67   1
 -10   6   1   33.48    6.51   1
 -12   6   1   19.91   11.89   1
  10   6   2  -17.71   14.19   1
  10   6   3   51.30   10.15   1
   8   6   3   17.92   11.75   1
 -10   6   3    1.75    8.83   1
 -12   6   4    1.66    1.78   1
   6   6   4   20.44   13.05   1
   8   6   4   95.60    8.09   1
   8   6   5   24.83   12.47   1
   6   6   5   37.26   15.85   1
   4   6   5    1.77   13.32   1
  -6   6   5  -15.46   11.10   1
  -8   6   5   17.30   10.11   1
 -10   6   5   -6.23   12.55   1
  -8   6   6    3.20   12.69   1
  -6   6   6   38.12    9.84   1
   4   6   6   -0.03    1.80   1
   2   6   7    1.20    1.49   1
   0   6   7    4.63   12.97   1
  -2   6   7   24.85   13.35   1
  -4   6   7   32.53   12.82   1
  -6   6   7    2.56    6.22   1
 -11   7   0    4.69   15.95   1
  -9   7   0   90.07    5.11   1
  11   7   0   12.97   16.08   1
  11   7   1    4.70    6.00   1
   9   7   1   47.89   13.57   1
  -9   7   1   20.43    9.10   1
 -11   7   2    5.64    3.67   1
   9   7   2   -0.75    7.00   1
  11   7   2    9.98   11.28   1
   9   7   3   13.10    7.41   1
 -11   7   3   32.07    6.91   1
  -9   7   4   14.11    9.91   1
   5   7   4   29.79   11.83   1
   7   7   5    8.26    5.06   1
   5   7   5   34.24    5.17   1
  -9   7   5   -1.85    1.68   1
  -7   7   6   22.73   13.18   1
   1   7   6   18.63    5.50   1
   3   7   6   27.09    8.09   1
   5   7   6   17.75   10.87   1
  -5   7   7    3.46   11.63   1
 -12   8   0   69.45    6.25   1
  10   8   1   22.11   15.64   1
 -10   8   1   30.99    3.79   1
 -12   8   1   28.33   11.40   1
 -12   8   2    6.59   12.06   1
   8   8   2    8.15   12.34   1
  10   8   2   -0.94   12.04   1
  10   8   3   39.50   13.03   1
   8   8   3    2.02   13.45   1
   6   8   3   23.64   11.25   1
  -8   8   3   12.93    6.26   1
 -10   8   3   -4.13    1.97   1
 -10   8   4    9.51    5.51   1
  -8   8   4   18.07    7.62   1
   6   8   4  204.89    7.93   1
  -8   8   5    2.62   11.01   1
 -10   8   5   18.63   12.75   1
  -8   8   6    5.82   11.92   1
   4   8   6   32.90    8.34   1
  11   9   0   41.97    6.26   1
  -9   9   0   49.39    3.63   1
 -11   9   0   47.26   12.82   1
  -9   9   1  299.20   12.10   1
   9   9   1   26.14    5.26   1
   9   9   2   87.20   11.51   1
   7   9   2   47.16    6.65   1
  -9   9   2   18.54   10.20   1
 -11   9   2   -0.44    2.94   1
 -11   9   3   -1.83   11.48   1
  -9   9   3   -4.19    9.31   1
   7   9   3   45.28    5.30   1
   9   9   3  -10.54   11.66   1
   7   9   4   29.38   12.48   1
   3   9   4  458.17   20.06   1
  -9   9   5   -0.79   11.23   1
  -7   9   5   -3.65    1.93   1
   5   9   5   87.75    6.53   1
 -10  10   0   25.13   11.90   1
  -8  10   0   -2.60    5.14   1
   8  10   0   12.38   11.85   1
  10  10   0  -14.01   11.58   1
   8  10   1    9.97    9.77   1
 -10  10   2   12.35    6.41   1
  -8  10   2    8.06   11.11   1
   6  10   2   11.48   13.00   1
   8  10   2    7.36   15.69   1
  -8  10   3   48.70    5.61   1
  -8  10   4    0.83   14.68   1
   4  10   4  235.94   13.50   1
   6  10   4   36.72    7.62   1
   4  10   5   34.08    6.58   1
   2  10   5   16.20   14.75   1
  -8  10   5   15.53   11.30   1
  -9  11   1   54.14   14.59   1
  -7  11   1   23.91   12.57   1
   7  11   1    0.29    1.27   1
   9  11   1   28.13   12.49   1
   9  11   2   20.10   11.47   1
   7  11   2   24.53   14.73   1
  -7  11   2   28.05   11.14   1
  -9  11   3   -0.52    1.57   1
  -7  11   3    0.04    1.47   1
  -5  11   3   16.56    9.15   1
   3  11   3   16.57   13.25   1
   5  11   3    5.47   10.36   1
   7  11   3   20.42   12.05   1
   5  11   4   50.85   13.43   1
   3  11   4  -10.56    8.41   1
   1  11   4   63.56    9.59   1
  -9  11   4    6.10   12.40   1
  -7  11   5   -0.57    1.40   1
   1  11   5   15.82   15.04   1
   3  11   5    1.73    7.32   1
   8  12   0   13.02   11.53   1
   6  12   0   40.85   11.43   1
  -6  12   0   31.07   11.58   1
  -8  12   0   33.18   14.29   1
  -8  12   1   30.96   15.20   1
  -4  12   1   16.53    8.63   1
   6  12   1   42.88    5.08   1
   6  12   2   26.92   15.19   1
   2  12   2   29.39   10.19   1
  -8  12   2   11.23   14.12   1
  -8  12   3    5.55   12.79   1
  -6  12   3   -1.57    1.71   1
  -4  12   3   -3.14    1.53   1
  -2  12   3    0.91    1.81   1
   0  12   3   10.92    6.27   1
   2  12   3   40.16   12.64   1
   4  12   3    3.86   11.97   1
   6  12   3   47.46    6.37   1
   4  12   4   33.47   13.12   1
   2  12   4  115.26   11.62   1
   0  12   4   -0.01   16.90   1
  -2  12   4   -0.64   10.80   1
  -4  12   4   10.92   14.31   1
  -8  12   4   15.83   12.39   1
   2  12   5   14.06    8.78   1
   5  13   0    1.82    9.93   1
   3  13   0   -0.01   13.25   1
  -3  13   0   10.66   11.46   1
  -5  13   0   20.70   10.07   1
  -7  13   0    6.18   12.04   1
  -7  13   1    1.41    1.88   1
  -5  13   1    9.13   10.35   1
  -3  13   1    7.61   11.05   1
  -1  13   1   17.75    5.24   1
   3  13   1   23.92   13.19   1
   7  13   1   15.51   12.49   1
   5  13   2   35.29   16.24   1
   3  13   2   -0.85    1.29   1
  -3  13   2   31.20    9.21   1
  -5  13   2    2.81    7.76   1
  -7  13   2   -1.65    1.65   1
  -7  13   3   13.64    8.53   1
  -5  13   3   22.65   15.80   1
  -3  13   3    1.28    1.36   1
   1  13   3   -6.69    9.47   1
   3  13   3   22.07   15.91   1
   5  13   3   14.96    5.66   1
   3  13   4    5.81   10.67   1
   1  13   4   12.65   14.42   1
  -1  13   4   57.54   13.97   1
  -3  13   4   70.58    8.24   1
  -5  13   4   22.86   12.66   1
   1  13   5    1.70    1.66   1
   4  14   0   22.05   12.34   1
   2  14   0   24.47    8.50   1
   0  14   0    0.52   12.43   1
  -6  14   1   15.14    9.84   1
  -4  14   1   25.54   12.67   1
  -2  14   1   -2.23    1.29   1
   0  14   1    1.27    1.49   1
   2  14   1   16.52   10.39   1
   4  14   1   -0.21    6.71   1
   6  14   1    1.35   12.91   1
   6  14   2    2.13   12.22   1
   4  14   2    1.76   14.36   1
   2  14   2   29.30   14.17   1
   0  14   2    3.16   10.56   1
  -2  14   2    0.11    7.72   1
  -4  14   2   -2.62    2.03   1
  -6  14   2    0.83    1.64   1
  -6  14   3    0.24    1.43   1
  -4  14   3   -0.34   10.33   1
  -2  14   3   -3.73   10.16   1
   0  14   3   -3.02    3.66   1
   2  14   3   11.73   13.42   1
   4  14   3   21.56   11.02   1
   2  14   4   12.85   11.60   1
   0  14   4   20.98   11.75   1
  -2  14   4    8.36   12.08   1
  -4  14   4   22.01    6.66   1
  -3  15   0   22.81   15.13   1
  -1  15   0   27.33   14.98   1
   3  15   0   18.80   15.13   1
   5  15   1    0.00    1.43   1
   3  15   1   18.67   13.75   1
   1  15   1   38.76   16.30   1
  -1  15   1   54.60   11.86   1
  -5  15   2   25.30   11.59   1
  -3  15   2   10.96   12.97   1
   1  15   2   -0.79    1.78   1
   1  15   3   19.80   10.04   1
  -3  15   3   14.92   11.45   1
   0  16   0   -2.66    1.55   1
   4  16   0   52.94    6.33   1
   2  16   1   -2.83   11.92   1
   0  16   1    2.90   12.78   1
  -4  16   1    3.78   12.61   1
   2  16   2   10.64   12.67   1
  -9 -13   2   97.31    6.11   1
 -10 -12   3  103.46    6.73   1
 -11 -11   2  123.87    5.81   1
  -9 -11   0  212.47    8.82   1
  -9 -11   2  151.32    6.33   1
   7 -11   4  191.25    6.60   1
   9 -11   4  143.37    7.21   1
 -12 -10   1  107.81    6.81   1
 -12 -10   2   27.12   14.22   1
 -10 -10   1  158.66    9.43   1
   2 -10   4  338.88   13.16   1
   4 -10   3  107.66    3.46   1
   6 -10   4   55.93    6.07   1
   8 -10   3   49.46    4.11   1
   8 -10   5  139.71    7.40   1
 -13  -9   1  303.16   11.97   1
 -13  -9   1  287.02   11.22   1
 -13  -9   2  252.46   11.94   1
 -11  -9   0   26.86   12.48   1
 -11  -9   1   74.71    6.43   1
 -11  -9   4   74.24    4.71   1
   5  -9   3  148.84    6.58   1
   5  -9   4  163.90    7.46   1
   5  -9   5  113.66    6.32   1
   7  -9   3   41.07    6.71   1
   9  -9   2  122.21    7.47   1
  13  -9   0  632.57   15.86   1
 -10  -8   0  194.70    8.40   1
 -10  -8   2  160.11   10.25   1
   4  -8   4   45.88    3.96   1
   8  -8   1   76.63    5.24   1
   8  -8   4  217.79    9.00   1
  10  -8   0  263.91    9.98   1
  12  -8   1  166.52    6.33   1
  12  -8   2  152.04    7.25   1
 -13  -7   3  191.48    6.38   1
 -11  -7   1  177.69    7.96   1
  -9  -7   0   79.62    5.13   1
  -9  -7   2   56.11    5.41   1
  -9  -7   3  155.63    5.47   1
   7  -7   3  124.99    6.61   1
   9  -7  -1   16.85    8.95   1
   9  -7   0   94.12    5.13   1
  11  -7   3  159.44    6.63   1
 -12  -6   2   71.67    5.93   1
 -12  -6   3   70.71    5.88   1
 -10  -6   2   95.86    7.00   1
 -10  -6   4  251.77    6.85   1
  -6  -6   6   16.94   11.54   1
   8  -6   4  117.59    7.99   1
 -13  -5   0   54.79   12.86   1
 -11  -5   0  108.48    5.08   1
 -11  -5   2  103.62    5.11   1
 -11  -5   3   78.52    6.54   1
  -9  -5   6  124.38    3.77   1
  11  -5   0   95.03    5.08   1
 -14  -4   4  148.92    5.42   1
 -10  -4   4   45.43    4.35   1
  10  -4   1  203.68    7.10   1
  12  -4   2  126.05    4.67   1
 -13  -3   3   28.66   11.71   1
 -11  -3   0   75.56    6.32   1
 -11  -3   5  100.38    4.86   1
  -9  -3   4   87.15    4.10   1
  11  -3   0   63.43    6.58   1
  13  -3   0  288.66   11.51   1
  13  -3   1   65.25    6.37   1
 -14  -2   2  181.86    5.48   1
 -10  -2   6  146.47    3.70   1
  10  -2   3   51.50    5.94   1
  10  -2   4   52.12   10.85   1
  12  -2   2  126.36    4.91   1
  12  -2   3   -8.43   11.27   1
 -13  -1   2   91.75    4.53   1
 -11  -1   3  253.00    5.55   1
 -11  -1   5  171.42    5.39   1
 -11  -1   6  253.03    5.30   1
  -9  -1   5   70.67    3.35   1
 -12   0   0   57.99    4.23   1
 -12   0   4  184.45    4.73   1
 -11   1   3  254.99    6.91   1
 -11   1   5  158.68    5.89   1
 -11   1   6  238.12    5.29   1
 -14   2   2  178.62    4.93   1
 -12   2   3  124.48    8.00   1
 -10   2   4   50.68    6.23   1
 -10   2   6  143.54    4.09   1
  -8   2   5   86.85    4.07   1
  12   2   2  127.76    4.15   1
 -13   3   1   65.08    6.31   1
 -11   3   7  158.93    4.62   1
 -14   4   4  136.08    5.27   1
  10   4   1  187.62    7.85   1
  12   4   2  119.84    4.17   1
 -11   5   0   97.44    5.15   1
  11   5   0  103.70    4.49   1
   0   6   6   52.77    3.23   1
   2   6   6  181.84    8.07   1
   1   7   7   52.14   18.35   1
   7   7   3   89.98    6.56   1
   9   7   0   75.10    5.12   1
   8   8   4  170.92    6.76   1
  10   8   0  180.10    8.90   1
   1   9   8  131.48   10.55   1
   3   9   5  126.80    9.88   1
   3   9   6  124.46    8.67   1
  13   9   0  608.90   15.80   1
  -8  10   1  277.64   11.41   1
   4  10   3  136.48    6.78   1
   8  10   3   35.93    6.09   1
  12  10   0  342.20   12.92   1
  12  10   2  286.69   13.13   1
   9  11   0  218.03   12.66   1
  11  11   0  208.13    7.28   1
  -4  12   0  105.11    7.25   1
  -4  12   2  146.89    4.60   1
   8  12   1  170.58   10.62   1
   8  12   2   98.30    8.81   1
  -1  13   2  101.07    4.12   1
  -1  13   3   59.31    6.19   1
   1  13   2   75.91   15.56   1
   7  13   0    5.69   13.79   1
   7  13   2  116.22    5.98   1
  -1  15   3   50.60    7.66   1
  -1  15   3   83.67    8.49   1
   4 -16   0   17.72   13.39   1
  -5 -15  -1    0.25    1.44   1
  -6 -12  -1   34.25    4.91   1
   8 -12  -1   -1.66    1.83   1
  -9 -11  -2   16.51   11.94   1
 -10 -10  -3    6.16   14.03   1
 -10 -10  -1   73.21    6.32   1
  -8 -10  -1    4.11    3.41   1
 -11  -9  -1   34.91    6.13   1
  -9  -9  -4   19.03    5.63   1
  -9  -9  -1   20.11   10.92   1
  -9  -9   0   33.18   10.20   1
   9  -9  -2   30.13    9.62   1
  11  -9   0   45.63    6.12   1
 -12  -8   0   69.14    6.57   1
 -10  -8  -2    1.07    1.52   1
 -10  -8  -1   -0.45    1.98   1
   8  -8  -1   56.49    3.67   1
 -11  -7  -1    7.95   12.19   1
  -9  -7  -3   18.65   15.09   1
  -9  -7  -2   12.12    5.02   1
  -9  -7   0   79.65    5.12   1
 -12  -6  -2  148.17    6.88   1
 -10  -6  -4   40.35    6.33   1
 -10  -6  -2    9.87   13.99   1
 -10  -6  -1   20.15   10.52   1
  -8  -6  -4   77.50   16.09   1
  10  -6  -3   -2.07   10.27   1
 -11  -5  -2    0.12    1.55   1
  -9  -5  -6   15.12   12.75   1
  11  -5  -1   -1.74    1.77   1
 -12  -4   0   27.18   15.82   1
 -10  -4  -3   -5.76   15.33   1
  10  -4  -1   52.68    4.42   1
  12  -4  -2   14.25   15.56   1
 -13  -3  -3   24.93   12.98   1
 -13  -3  -2   72.02    5.18   1
 -13  -3  -1   76.27    6.39   1
 -11  -3  -5  113.72    6.88   1
 -11  -3  -4  112.40    5.81   1
  -9  -3  -4   11.44   15.00   1
  11  -3  -3    8.36    7.67   1
  13  -3  -1   70.00    6.43   1
 -12  -2  -3   11.63   12.17   1
 -12  -2  -1   14.99   14.74   1
 -10  -2  -6    2.04   11.51   1
 -10  -2  -4   46.22    5.11   1
  -8  -2  -7   30.35   11.41   1
  -8  -2  -5   62.15    6.08   1
  10  -2  -4   47.55    5.26   1
  10  -2  -3    3.79    9.32   1
  12  -2  -2   18.78    8.83   1
 -13  -1  -3  119.33    4.94   1
 -13  -1  -2  182.02    4.96   1
 -11  -1  -5    6.10   13.90   1
 -11  -1  -3  359.26    9.68   1
 -11  -1  -1  106.19    5.89   1
  -9  -1  -5   49.65    5.82   1
  -7  -1  -6  250.34    6.07   1
   9  -1  -3  463.51   10.32   1
  11  -1  -3  268.77    8.34   1
  11  -1  -1   31.56   12.00   1
 -12   0  -4   38.04    5.42   1
 -10   0  -6    9.52   11.92   1
  -8   0   4  225.03    4.55   1
  -6   0   6    1.02   13.40   1
   8   0  -4  217.47    5.09   1
  10   0  -4 1360.02   14.90   1
  10   0  -2  366.42    8.12   1
  12   0  -2  192.74    5.33   1
  12   0   4   39.09   12.35   1
 -13   1  -4  164.86    4.48   1
 -13   1  -3  134.72    5.59   1
 -13   1  -2  179.43    5.13   1
 -13   1   0   22.13   12.39   1
 -11   1  -5   18.17   14.10   1
 -11   1  -3  354.04    9.83   1
  -9   1  -5   35.68   11.83   1
  -7   1  -6  251.71    7.25   1
  -5   1  -6    5.98   15.20   1
   7   1  -4  362.71    6.58   1
   9   1  -5   70.82    4.35   1
   9   1  -3  442.30   11.04   1
  11   1  -3  273.83    7.35   1
  11   1  -1   50.01   11.81   1
  13   1  -1   19.01   11.53   1
 -12   2  -3    1.74    1.59   1
 -12   2  -2  148.73    4.83   1
 -10   2  -6    2.43   11.81   1
 -10   2  -4   62.49    5.61   1
  -8   2  -7   32.29   11.73   1
  -8   2  -5   56.05   12.13   1
  -6   2  -6  105.63    5.49   1
   6   2  -6   85.43    4.38   1
   6   2  -5   19.22   11.33   1
   8   2  -5   79.73    3.96   1
   8   2  -4   60.76    4.09   1
  10   2  -4   48.24    8.51   1
  10   2  -3    1.28    9.36   1
  10   2  -2   88.69    4.37   1
  10   2  -1  119.97    5.14   1
  12   2  -2   34.74   11.95   1
  12   2  -1   55.88    5.39   1
 -13   3  -3   -9.10   13.42   1
 -13   3  -1   83.43    5.93   1
 -11   3  -5  128.36    7.18   1
 -11   3  -4  118.31    5.71   1
  -9   3  -4    7.06   15.45   1
  -7   3  -7   17.61   14.25   1
  -7   3  -6    8.00    4.18   1
  -3   3  -7   27.18   12.93   1
  -3   3  -6   73.27    5.23   1
  -1   3  -6   23.12    6.08   1
   3   3  -6   68.41    3.00   1
   7   3  -5   58.04    2.69   1
  11   3  -3   -1.98    6.50   1
  13   3  -1   62.53    6.16   1
 -10   4  -4   -5.50   11.46   1
  -8   4  -7   74.57    6.39   1
  -6   4  -7   16.14   13.94   1
  -6   4  -6   30.06   12.65   1
  -4   4  -7   42.09   12.96   1
   2   4  -6   18.17   10.81   1
   4   4  -5   45.80   11.16   1
   8   4  -4   16.09    5.30   1
  10   4  -1   46.39    4.47   1
  12   4  -2   -0.60    3.70   1
 -13   5   0   66.27    6.21   1
 -11   5  -3   11.12   11.72   1
 -11   5  -2   19.66   19.16   1
  -9   5  -6   19.46    7.81   1
  -7   5  -7   57.50   12.66   1
   5   5  -6   10.65   11.03   1
   9   5  -4   -0.23   13.71   1
 -12   6  -3   35.93   13.48   1
 -12   6  -2  131.19    6.52   1
 -10   6  -4   33.87   12.29   1
 -10   6  -2   39.50    6.65   1
  -8   6  -4   92.54    8.14   1
  -2   6  -6  207.09    9.08   1
   0   6  -6   57.98    5.83   1
   2   6  -6  188.89    6.70   1
   6   6  -6   24.13   13.28   1
 -11   7  -4   41.32   13.85   1
 -11   7  -1   16.36   12.65   1
  -9   7  -3   14.96   15.64   1
  -9   7  -2    1.08    1.34   1
  -7   7  -5   12.21   11.72   1
  -7   7  -4   29.76    8.11   1
  -5   7  -5   53.15    6.72   1
   1   7  -7   -0.27    1.62   1
   1   7  -5  134.38    4.91   1
   3   7  -5  102.61    3.53   1
   7   7  -4   63.18    3.59   1
   7   7  -3   -1.83   10.45   1
 -10   8  -2   -5.00   11.69   1
  -6   8  -6  126.20    6.73   1
  -6   8  -5   65.61    5.71   1
  -6   8  -4  242.63    8.91   1
   2   8  -6    0.14   13.51   1
   2   8  -5   10.27   10.99   1
   4   8  -5   17.32   10.30   1
   4   8  -4   18.10    6.71   1
   6   8  -5   49.73    3.56   1
   6   8  -4  157.52    3.73   1
   8   8  -4   36.75    8.31   1
   8   8  -1   35.57    4.67   1
  12   8   0   65.10    6.36   1
 -11   9  -1   55.68    5.87   1
  -9   9  -4   24.42   11.32   1
  -9   9  -1   45.21   10.53   1
  -7   9  -6   16.55   13.84   1
  -7   9  -4   14.89   12.09   1
  -7   9  -3   54.99    5.29   1
  -5   9  -4  175.25    6.93   1
  -3   9  -6  173.85    6.25   1
   1   9  -5   21.10   13.73   1
   3   9  -6   69.12   12.71   1
   3   9  -5    3.43   12.99   1
   3   9  -4   23.33    8.98   1
   5   9  -4  218.43    8.00   1
   5   9  -3  317.97    7.84   1
   9   9   0   43.61    5.14   1
  11   9  -1   50.12   11.88   1
 -10  10  -3    6.18    4.67   1
 -10  10  -1   81.11    6.48   1
  -8  10  -1    9.71    9.99   1
  -6  10  -5  153.30    6.61   1
  -6  10  -4   40.85   12.56   1
  -6  10  -3   89.12    5.28   1
  -4  10  -5   58.95    6.39   1
  -4  10  -4  272.71   14.58   1
   0  10  -5   66.33    5.44   1
   2  10  -6   21.94   13.39   1
   2  10  -4   11.87    9.86   1
   4  10  -4   42.29   12.16   1
   4  10  -3  121.30    4.70   1
   6  10  -3   37.07   11.19   1
   8  10  -3   32.81    9.25   1
  10  10  -1  138.54    9.82   1
  -9  11  -2   -0.24    1.45   1
  -7  11  -4  188.00    8.24   1
  -5  11  -4   69.74    6.34   1
  -5  11  -2   79.56    5.84   1
  -3  11  -4   31.69    5.67   1
  -1  11  -4   60.18    6.11   1
   5  11  -2   36.38    9.34   1
   7  11   0  115.60    6.40   1
  -6  12  -4   32.34   12.84   1
  -6  12  -2   33.77   15.15   1
  -6  12  -1   53.59    5.11   1
  -4  12  -2   86.42    6.77   1
  -2  12  -5    2.80    4.35   1
   4  12  -2  143.21    6.65   1
   4  12  -1   -0.74    9.65   1
   8  12  -2   15.40   12.99   1
   8  12  -1   21.60   14.53   1
  -1  13  -3   14.23   10.68   1
  -1  13  -2   90.48    7.00   1
   1  13  -2  106.39    7.08   1
   1  13  -1   13.78   11.20   1
   5  13  -1    0.39    4.68   1
   7  13  -2    2.88    1.60   1
   7  13   0   30.66    6.78   1
  -4  14   0   36.82   12.15   1
  -2  14   0   21.12   10.78   1
   6  14   0   80.37    6.32   1
  -5  15  -1    6.97   11.79   1
  -5  15   0   36.52   13.01   1
  -3  15  -1   39.94   12.94   1
  -1  15  -3   30.58   11.99   1
  -1  15  -2   28.40   12.78   1
   3  15  -2   14.62   12.06   1
   5  15   0   32.38   13.16   1
  -2  16  -2    2.42   13.12   1
  -2  16  -1    1.18    1.60   1
  -2  16   0   40.87   12.66   1
   0  16  -2   78.00    5.88   1
   2  16   0   32.21    6.39   1
  -4 -16   0   31.36   13.22   1
  -2 -16   0    4.51    8.48   1
   2 -16   0   31.00   12.36   1
  -2 -16   1   40.24   12.38   1
  -2 -16   2   21.37   12.30   1
   0 -16   2   72.89    5.96   1
  -5 -15   0   38.12    6.25   1
   1 -15   0   -1.51    9.28   1
   5 -15   0   33.41   12.39   1
  -3 -15   1   74.11    6.74   1
  -5 -15   1   82.01    6.31   1
  -1 -15   2   90.06    6.47   1
   3 -15   2    9.59   10.88   1
  -1 -15   3   62.58    6.21   1
  -6 -14   0   77.49    6.12   1
  -4 -14   0   43.12    6.54   1
  -2 -14   0   24.89    9.56   1
   6 -14   0   67.44    9.28   1
   7 -13   0   41.28   12.88   1
   1 -13   0  257.59    8.97   1
  -1 -13   0  240.73    9.32   1
   1 -13   1   28.48    5.84   1
   5 -13   1   35.44    5.71   1
   7 -13   2  127.05    6.13   1
   1 -13   2   78.90    6.63   1
  -1 -13   2   93.28    6.94   1
  -1 -13   3   53.26    5.15   1
  -4 -12   0  110.22    4.83   1
   4 -12   0   91.45    7.19   1
   8 -12   1  165.22    6.55   1
   4 -12   1  248.23   14.55   1
  -6 -12   1   37.23   11.16   1
  -6 -12   2  102.84    5.12   1
  -4 -12   2  138.59    6.30   1
   4 -12   2   60.86    4.88   1
   8 -12   2  109.03    5.95   1
  -6 -12   4  130.35    4.40   1
  -2 -12   5   84.11    6.43   1
  -7 -11   0  117.37    6.01   1
   7 -11   0  110.32    9.05   1
   9 -11   0  193.33   16.15   1
  -5 -11   2   18.63    9.59   1
   5 -11   2   48.31    5.07   1
  -7 -11   4  101.28    4.38   1
  -5 -11   4   51.69    8.95   1
  -3 -11   4   75.76    5.85   1
  -1 -11   4  130.65    6.75   1
  10 -10   1   68.54    6.27   1
  -8 -10   1  238.19    9.57   1
   6 -10   3   86.82    5.21   1
  -6 -10   3   26.31   12.38   1
 -10 -10   3   31.97    6.18   1
  -6 -10   4  234.42    5.51   1
  -4 -10   4   47.42    6.74   1
   0 -10   5   65.92    5.57   1
  -4 -10   5   52.23    6.85   1
  -6 -10   5  114.95    4.73   1
   2 -10   6  183.16    9.05   1
   9  -9   0   53.42    4.98   1
  11  -9   1   52.37   12.21   1
  -7  -9   3   71.86    5.52   1
  -5  -9   4  258.54    6.61   1
  -7  -9   4   72.88    3.20   1
  -9  -9   4   63.34    4.92   1
   1  -9   5   58.05    5.42   1
   3  -9   5  200.66    7.28   1
   3  -9   6  160.97    6.47   1
  -3  -9   6   60.31    6.77   1
  -7  -9   6  200.91    4.32   1
  12  -8   0   58.27   12.90   1
  -6  -8   4  170.98    3.49   1
   6  -8   5   62.81    9.72   1
   4  -8   5   44.77    4.29   1
   2  -8   5  101.63    6.57   1
  -6  -8   5   61.30    3.68   1
  -6  -8   6   84.20    4.89   1
   2  -8   6  125.35    6.62   1
 -11  -7   4   13.57   11.12   1
  -7  -7   4   63.32    3.72   1
   7  -7   4   26.09    6.75   1
   3  -7   5   38.00    6.26   1
   1  -7   5   51.24    4.89   1
  -5  -7   5  132.27    4.57   1
  -7  -7   5  129.43    3.03   1
   1  -7   7   86.80    6.53   1
  -8  -6   4   57.10    4.70   1
  -2  -6   6  209.16    6.40   1
   0  -6   6   67.40    5.51   1
   2  -6   6  200.08    7.85   1
   6  -6   6  164.25    6.94   1
   9  -5   4  118.15    6.06   1
   5  -5   6   70.31    6.27   1
  -7  -5   7   18.57   10.51   1
   8  -4   4   10.69    5.91   1
   4  -4   5   35.89   10.51   1
  -6  -4   6   86.70    3.25   1
   2  -4   6   78.44    3.15   1
  -4  -4   7   52.92    5.53   1
  -6  -4   7   64.37    3.96   1
  -8  -4   7  127.12    4.88   1
 -13  -3   1   55.33    5.38   1
 -13  -3   2   84.21    4.98   1
  11  -3   3   78.99    4.48   1
 -11  -3   4   84.15    6.18   1
   7  -3   5  160.48    7.29   1
  -7  -3   6  117.11    2.91   1
  -3  -3   6   75.67    3.10   1
  -1  -3   6   97.76    4.91   1
   3  -3   6   75.51    5.04   1
  -3  -3   7   92.14    6.85   1
  -7  -3   7  142.13    4.13   1
  12  -2   1   23.10   10.71   1
  10  -2   1   28.29    7.40   1
 -12  -2   1   49.25    3.77   1
 -12  -2   2   32.28    8.09   1
  10  -2   2   48.80   10.24   1
 -12  -2   3  105.69    7.42   1
 -10  -2   4   59.64    4.35   1
   8  -2   4  160.57    3.57   1
   8  -2   5   57.57    5.24   1
   6  -2   5  184.85    4.93   1
  -8  -2   5   83.78    4.38   1
  -6  -2   6   99.20    3.50   1
   2  -2   6  256.49    6.68   1
   4  -2   6  132.77    3.75   1
   6  -2   6   99.33    5.36   1
   4  -2   7  100.04    5.12   1
  -8  -2   7   43.51    8.72   1
  -2  -2   8  169.36    5.42   1
 -13  -1   0   30.85    6.22   1
  13  -1   1   15.22    7.69   1
  11  -1   1   85.20    5.82   1
 -11  -1   1   45.43   12.17   1
  11  -1   3  302.80    7.08   1
   9  -1   3   94.38    4.02   1
 -13  -1   4   37.83    7.84   1
   7  -1   4  341.83    7.49   1
   9  -1   5   43.90    4.31   1
   5  -1   5   62.81    4.37   1
  -5  -1   6  126.81    3.83   1
   1  -1   6  203.33    4.51   1
   3  -1   6  227.01    5.23   1
   7  -1   6  244.55    5.76   1
   3  -1   7  240.90    5.68   1
   1  -1   7  206.88    5.99   1
  -1  -1   7  104.27    4.28   1
  -3  -1   7   91.34    4.28   1
  -3  -1   8  204.74    4.95   1
  12   0   0   72.35    4.17   1
  12   0   2  112.57    3.95   1
   8   0   4  307.41    7.06   1
  10   0   4  137.69    5.02   1
   6   0   5   28.44    5.97   1
   0   0   0    0.00    0.00   1
;
_shelx_hkl_checksum              82974
loop_
_space_group_symop_operation_xyz
'x, y, z'
'-x, -y, -z'
loop_
_atom_site_label
_atom_site_type_symbol
_atom_site_fract_x
_atom_site_fract_y
_atom_site_fract_z
_atom_site_U_iso_or_equiv
_atom_site_adp_type
_atom_site_occupancy
_atom_site_site_symmetry_order
_atom_site_calc_flag
_atom_site_refinement_flags_posn
_atom_site_refinement_flags_adp
O1 O 0.2910(14) 0.5563(10) 0.6676(10) 0.0183(17) Uiso 1 1 d . .
H1O H 0.255(3) 0.4448(14) 0.5948(16) 0.036(3) Uani 1 1 d . U
O2 O 0.2195(16) 0.3361(11) 0.4370(11) 0.026(2) Uiso 1 1 d . .
N1 N 0.2422(12) 0.9204(6) 0.0759(7) 0.0233(8) Uani 1 1 d . .
C2 C 0.0833(13) 0.9040(10) 0.1666(10) 0.0241(18) Uiso 1 1 d . .
H2 H -0.043(2) 0.981(2) 0.157(2) 0.034(4) Uani 1 1 d . U
C3 C 0.0819(13) 0.8013(10) 0.2749(11) 0.0258(18) Uiso 1 1 d D .
H3 H -0.059(3) 0.791(2) 0.344(2) 0.039(4) Uani 1 1 d . U
C4 C 0.2464(14) 0.7082(9) 0.2872(9) 0.0197(10) Uiso 1 1 d D .
C5 C 0.4106(12) 0.7264(10) 0.1913(9) 0.0187(15) Uiso 1 1 d D .
H5 H 0.536(3) 0.657(2) 0.195(2) 0.039(4) Uani 1 1 d . U
C6 C 0.4005(12) 0.8329(9) 0.0869(9) 0.0196(16) Uiso 1 1 d . .
H6 H 0.532(4) 0.852(3) 0.019(3) 0.049(5) Uani 1 1 d . U
C7 C 0.3386(13) 0.8261(9) 0.6446(9) 0.0221(15) Uiso 1 1 d . .
H7A H 0.261(4) 0.855(2) 0.751(3) 0.058(5) Uani 1 1 d . U
H7B H 0.288(4) 0.9095(19) 0.5690(19) 0.051(4) Uani 1 1 d . U
H7C H 0.520(3) 0.853(2) 0.685(3) 0.061(5) Uani 1 1 d . U
C8 C 0.2870(12) 0.6557(9) 0.5660(9) 0.0180(14) Uiso 1 1 d . .
C9 C 0.2541(15) 0.6009(9) 0.4030(9) 0.0197(10) Uiso 1 1 d . .
C10 C 0.2142(13) 0.4325(9) 0.3400(10) 0.0221(15) Uiso 1 1 d . .
C11 C 0.1715(13) 0.3650(9) 0.1635(9) 0.0214(16) Uiso 1 1 d . .
H11A H 0.140(3) 0.2315(14) 0.1491(19) 0.036(3) Uani 1 1 d . U
H11B H 0.308(3) 0.395(2) 0.1022(19) 0.051(4) Uani 1 1 d . U
H11C H 0.034(3) 0.405(2) 0.1195(19) 0.046(4) Uani 1 1 d . U
loop_
_atom_site_aniso_label
_atom_site_aniso_U_11
_atom_site_aniso_U_22
_atom_site_aniso_U_33
_atom_site_aniso_U_23
_atom_site_aniso_U_13
_atom_site_aniso_U_12
H1O 0.044(7) 0.013(5) 0.041(7) -0.015(5) 0.011(7) 0.002(5)
N1 0.0267(19) 0.015(3) 0.024(3) -0.0067(12) 0.006(2) 0.000(2)
H2 0.014(6) 0.042(8) 0.049(8) 0.012(6) 0.004(6) 0.009(6)
H3 0.041(9) 0.030(7) 0.055(9) 0.012(6) 0.031(7) 0.012(6)
H5 0.034(8) 0.032(7) 0.047(8) 0.002(6) 0.013(7) -0.009(6)
H6 0.059(10) 0.049(9) 0.048(9) 0.013(7) 0.029(8) 0.015(8)
H7A 0.069(11) 0.052(9) 0.062(10) 0.008(7) 0.035(9) 0.032(8)
H7B 0.082(11) 0.039(7) 0.035(7) 0.015(6) -0.009(7) 0.029(8)
H7C 0.038(7) 0.046(8) 0.074(10) -0.028(7) 0.000(7) -0.022(6)
H11A 0.046(8) 0.012(5) 0.043(7) -0.013(5) 0.011(6) 0.006(5)
H11B 0.046(8) 0.060(9) 0.031(7) -0.020(6) 0.020(6) -0.017(7)
H11C 0.034(7) 0.050(8) 0.040(7) -0.020(6) 0.000(6) 0.011(6)
loop_
_atom_type_symbol
_atom_type_description
_atom_type_scat_dispersion_real
_atom_type_scat_dispersion_imag
_atom_type_scat_source
C C 0.0000 0.0000 'International Tables Vol C Tables 4.2.6.8 and 6.1.1.4'
H H 0.0000 0.0000 'International Tables Vol C Tables 4.2.6.8 and 6.1.1.4'
N N 0.0000 0.0000 'International Tables Vol C Tables 4.2.6.8 and 6.1.1.4'
O O 0.0000 0.0000 'International Tables Vol C Tables 4.2.6.8 and 6.1.1.4'
loop_
_geom_angle_atom_site_label_1
_geom_angle_atom_site_label_2
_geom_angle_atom_site_label_3
_geom_angle
C8 O1 H1O 103.9(11)
C10 O2 H1O 103.1(9)
C6 N1 C2 117.8(4)
N1 C2 C3 123.3(8)
N1 C2 H2 115.6(13)
C3 C2 H2 121.0(13)
C4 C3 C2 119.6(8)
C4 C3 H3 121.0(13)
C2 C3 H3 119.3(12)
C3 C4 C5 116.4(5)
C3 C4 C9 121.3(8)
C5 C4 C9 122.2(7)
C4 C5 C6 120.4(7)
C4 C5 H5 119.0(13)
C6 C5 H5 120.5(13)
N1 C6 C5 122.6(7)
N1 C6 H6 117.2(15)
C5 C6 H6 120.1(15)
C8 C7 H7A 112.2(13)
C8 C7 H7B 114.3(11)
H7A C7 H7B 105.6(17)
C8 C7 H7C 108.5(11)
H7A C7 H7C 106.2(18)
H7B C7 H7C 109.8(19)
O1 C8 C9 122.3(7)
O1 C8 C7 113.9(7)
C9 C8 C7 123.7(7)
C8 C9 C10 118.8(4)
C8 C9 C4 123.5(8)
C10 C9 C4 117.6(8)
O2 C10 C9 119.2(8)
O2 C10 C11 119.3(8)
C9 C10 C11 121.5(7)
C10 C11 H11A 106.0(10)
C10 C11 H11B 112.6(10)
H11A C11 H11B 109.4(15)
C10 C11 H11C 107.9(10)
H11A C11 H11C 109.2(15)
H11B C11 H11C 111.4(18)
loop_
_geom_bond_atom_site_label_1
_geom_bond_atom_site_label_2
_geom_bond_distance
O1 C8 1.346(11)
O1 H1O 1.028(12)
O2 C10 1.296(13)
O2 H1O 1.475(14)
N1 C6 1.317(11)
N1 C2 1.348(11)
C2 C3 1.413(12)
C2 H2 1.09(2)
C3 C4 1.382(9)
C3 H3 1.125(18)
C4 C5 1.407(9)
C4 C9 1.495(7)
C5 C6 1.413(10)
C5 H5 1.04(2)
C6 H6 1.08(2)
C7 C8 1.479(10)
C7 H7A 1.09(2)
C7 H7B 1.113(16)
C7 H7C 1.140(18)
C8 C9 1.382(11)
C9 C10 1.433(11)
C10 C11 1.507(11)
C11 H11A 1.128(14)
C11 H11B 1.092(18)
C11 H11C 1.025(19)
loop_
_geom_hbond_atom_site_label_D
_geom_hbond_atom_site_label_H
_geom_hbond_atom_site_label_A
_geom_hbond_distance_DH
_geom_hbond_distance_HA
_geom_hbond_distance_DA
_geom_hbond_angle_DHA
O1 H1O O2 1.028(12) 1.475(14) 2.432(8) 152.3(15)
loop_
_geom_torsion_atom_site_label_1
_geom_torsion_atom_site_label_2
_geom_torsion_atom_site_label_3
_geom_torsion_atom_site_label_4
_geom_torsion
C6 N1 C2 C3 1.7(13)
N1 C2 C3 C4 -2.0(13)
C2 C3 C4 C5 1.7(14)
C2 C3 C4 C9 178.5(9)
C3 C4 C5 C6 -1.2(13)
C9 C4 C5 C6 -178.0(8)
C2 N1 C6 C5 -1.2(12)
C4 C5 C6 N1 1.0(12)
O1 C8 C9 C10 2.6(15)
C7 C8 C9 C10 177.3(7)
O1 C8 C9 C4 179.3(8)
C7 C8 C9 C4 -5.9(14)
C3 C4 C9 C8 -66.4(13)
C5 C4 C9 C8 110.2(11)
C3 C4 C9 C10 110.4(10)
C5 C4 C9 C10 -73.0(12)
C8 C9 C10 O2 -3.0(15)
C4 C9 C10 O2 -180.0(9)
C8 C9 C10 C11 178.4(7)
C4 C9 C10 C11 1.5(13)

_cod_database_fobs_code 2108188
