#------------------------------------------------------------------------------
#$Date: 2022-03-18 04:53:20 +0200 (Fri, 18 Mar 2022) $
#$Revision: 273773 $
#$URL: file:///home/coder/svn-repositories/cod/cif/2/10/89/2108945.cif $
#------------------------------------------------------------------------------
#
# This file is available in the Crystallography Open Database (COD),
# http://www.crystallography.net/. The original data for this entry
# were provided by IUCr Journals, http://journals.iucr.org/.
#
# The file may be used within the scientific community so long as
# proper attribution is given to the journal article from which the
# data were obtained.
#
data_2108945
loop_
_publ_author_name
'Habermehl, Stefan'
'Schlesinger, Carina'
'Schmidt, Martin U.'
_publ_section_title
;
 Structure determination from unindexed powder data from scratch by a
 global optimization approach using pattern comparison based on
 cross-correlation functions
;
_journal_coeditor_code           RA5106
_journal_issue                   2
_journal_name_full               'Acta Crystallographica Section B'
_journal_page_first
;
;
_journal_paper_doi               10.1107/S2052520622001500
_journal_volume                  78
_journal_year                    2022
_chemical_formula_moiety         'C20 H10 Cl2 N2 O2'
_chemical_formula_sum            'C20 H10 Cl2 N2 O2'
_chemical_formula_weight         381.2016
_chemical_name_common
'2,9-Dichloro-quinacridone, Pigment Red 202, alpha-phase'
_chemical_name_systematic
'2,9-Dichloroquino[2,3-b]acridine-7,14(5H,12H)-dione, alpha-phase'
_space_group_crystal_system      triclinic
_space_group_IT_number           2
_space_group_name_Hall           '-P 1'
_space_group_name_H-M_alt        'P -1'
_cell_angle_alpha                93.744(26)
_cell_angle_beta                 92.189(21)
_cell_angle_gamma                100.918(19)
_cell_formula_units_Z            1
_cell_length_a                   3.7718(11)
_cell_length_b                   6.4792(18)
_cell_length_c                   15.7740(49)
_cell_measurement_reflns_used    51
_cell_measurement_temperature    300
_cell_measurement_theta_max      33.98
_cell_measurement_theta_min      4.00
_cell_volume                     377.20(19)
_computing_cell_refinement
'<i>FIDEL-GO</i>, <i>TOPAS-Academic</i> (Coelho, 2009)'
_computing_data_collection       '<i>WINX^POW^</i> (Stoe & Cie, 2004)'
_computing_data_reduction        '<i>WINX^POW^</i> (Stoe & Cie, 2004)'
_computing_molecular_graphics    '<i>Mercury</i> (Macrae <i>et al.</i>, 2008)'
_computing_structure_refinement  '<i>TOPAS-Academic</i> (Coelho, 2009)'
_computing_structure_solution    <i>FIDEL-GO</i>
_diffrn_ambient_temperature      300
_diffrn_measurement_device_type  STOE-Stadi-P
_diffrn_radiation_monochromator  Ge(111)
_diffrn_radiation_type           'Cu K\a~1~'
_diffrn_radiation_wavelength     1.54056
_exptl_crystal_density_diffrn    1.670
_exptl_crystal_description       powder
_pd_calc_method                  'Rietveld Refinement'
_pd_char_colour                  red
_pd_char_particle_morphology     powder
_pd_meas_2theta_range_inc        0.02
_pd_meas_2theta_range_max        33.98
_pd_meas_2theta_range_min        3.00
_pd_meas_number_of_points        1550
_pd_meas_scan_method             cont
_pd_proc_2theta_range_inc        0.02
_pd_proc_2theta_range_max        33.98
_pd_proc_2theta_range_min        4.00
_pd_proc_ls_background_function  'Chebyshev function with 20 terms'
_pd_proc_ls_pref_orient_corr     '4th order spherical harmonics'
_pd_proc_ls_profile_function     'fundamental parameters'
_pd_proc_ls_prof_R_factor        0.03965
_pd_proc_ls_prof_wR_expected     0.04599
_pd_proc_ls_prof_wR_factor       0.05219
_pd_proc_wavelength              1.54056
_pd_spec_mounting                'prepared between polymer films'
_pd_spec_mount_mode              transmission
_refine_ls_extinction_method     none
_refine_ls_goodness_of_fit_all   1.135
_refine_ls_hydrogen_treatment    refxyz
_refine_ls_matrix_type           fullcycle
_refine_ls_number_constraints    0
_refine_ls_number_parameters     111
_refine_ls_number_restraints     61
_refine_ls_R_factor_all          0.19079424
_refine_ls_shift/su_max          0.001
_refine_ls_weighting_details     w=1/\s[Y~obs~]^2^
_refine_ls_weighting_scheme      sigma
_cod_data_source_file            ra5106sup1.cif
_cod_data_source_block           DCQ
_cod_database_code               2108945
loop_
_symmetry_equiv_pos_site_id
_symmetry_equiv_pos_as_xyz
1 x,y,z
2 -x,-y,-z
loop_
_atom_site_label
_atom_site_type_symbol
_atom_site_fract_x
_atom_site_fract_y
_atom_site_fract_z
_atom_site_U_iso_or_equiv
_atom_site_thermal_displace_type
C13 C 0.14824(82) 0.21251(42) 0.00703(18) 0.0648 Uiso
H18 H 0.2659(31) 0.3776(37) 0.0128(13) 0.0777 Uiso
C11 C -0.04673(77) 0.12731(60) -0.06795(17) 0.0648 Uiso
C12 C -0.19799(82) -0.09157(57) -0.07463(18) 0.0648 Uiso
C10 C -0.0978(11) 0.25686(50) -0.13846(20) 0.0648 Uiso
N3 N -0.3900(10) -0.18364(47) -0.14705(19) 0.0648 Uiso
C9 C -0.3046(10) 0.14743(57) -0.21206(19) 0.0648 Uiso
O2 O 0.0243(23) 0.45192(73) -0.13592(43) 0.0648 Uiso
H15 H -0.4921(52) -0.3444(31) -0.15043(67) 0.0777 Uiso
C8 C -0.4455(10) -0.07149(53) -0.21468(19) 0.0648 Uiso
C4 C -0.3653(11) 0.26068(49) -0.28180(20) 0.0648 Uiso
C7 C -0.6471(12) -0.17321(49) -0.28764(20) 0.0648 Uiso
H14 H -0.2561(46) 0.4301(32) -0.27817(63) 0.0777 Uiso
C5 C -0.5630(13) 0.15840(54) -0.35220(20) 0.0648 Uiso
H17 H -0.7535(39) -0.3425(30) -0.28923(61) 0.0777 Uiso
C6 C -0.7047(13) -0.05872(51) -0.35557(20) 0.0648 Uiso
Cl1 Cl -0.6394(22) 0.29626(94) -0.43843(24) 0.1061 Uiso
H16 H -0.8593(41) -0.1336(34) -0.41244(68) 0.0777 Uiso
loop_
_geom_angle_atom_site_label_1
_geom_angle_atom_site_label_2
_geom_angle_atom_site_label_3
_geom_angle
H18 C13 C11 119(1)
C13 C11 C12 118.0(3)
C13 C11 C10 121.8(3)
C12 C11 C10 120.2(3)
C11 C12 N3 120.4(3)
C11 C10 C9 115.7(3)
C11 C10 O2 123.2(4)
C9 C10 O2 121.0(4)
C12 N3 H15 119(1)
C12 N3 C8 122.0(3)
H15 N3 C8 119(1)
C10 C9 C8 121.1(3)
C10 C9 C4 119.0(3)
C8 C9 C4 119.9(3)
N3 C8 C9 120.5(3)
N3 C8 C7 119.9(3)
C9 C8 C7 119.6(3)
C9 C4 H14 118.6(9)
C9 C4 C5 119.6(3)
H14 C4 C5 121.8(9)
C8 C7 H17 119.1(8)
C8 C7 C6 119.7(3)
H17 C7 C6 121.3(8)
C4 C5 C6 121.1(3)
C4 C5 Cl1 120.0(4)
C6 C5 Cl1 118.9(4)
C7 C6 C5 120.2(3)
C7 C6 H16 121.0(9)
C5 C6 H16 118.8(9)
loop_
_geom_bond_atom_site_label_1
_geom_bond_atom_site_label_2
_geom_bond_distance
C13 H18 1.07(2)
C13 C11 1.392(4)
C11 C12 1.420(5)
C11 C10 1.465(5)
C12 N3 1.367(4)
C10 C9 1.440(4)
C10 O2 1.258(6)
N3 H15 1.04(2)
N3 C8 1.361(5)
C9 C8 1.415(5)
C9 C4 1.397(5)
C8 C7 1.408(4)
C4 H14 1.09(2)
C4 C5 1.372(5)
C7 H17 1.09(2)
C7 C6 1.376(5)
C5 C6 1.404(5)
C5 Cl1 1.720(6)
C6 H16 1.08(1)
loop_
_pd_meas_2theta_scan
_pd_proc_intensity_total
_pd_calc_intensity_total
_pd_proc_ls_weight
4.00000 621.00000 628.09964 0.00161
4.02000 646.00000 623.13072 0.00155
4.04000 652.00000 617.87545 0.00153
4.06000 614.00000 612.39160 0.00163
4.08000 580.00000 606.73392 0.00172
4.10000 602.00000 600.95376 0.00166
4.12000 577.00000 595.10003 0.00173
4.14000 555.00000 589.22012 0.00180
4.16000 562.00000 583.35962 0.00178
4.18000 580.00000 577.56256 0.00172
4.20000 546.00000 571.87327 0.00183
4.22000 552.00000 566.33858 0.00181
4.24000 574.00000 561.01159 0.00174
4.26000 520.00000 555.96705 0.00192
4.28000 529.00000 551.39557 0.00189
4.30000 579.00000 547.24781 0.00173
4.32000 551.00000 542.65473 0.00181
4.34000 592.00000 538.13103 0.00169
4.36000 547.00000 533.89380 0.00183
4.38000 534.00000 529.97625 0.00187
4.40000 515.00000 526.39908 0.00194
4.42000 550.00000 523.18254 0.00182
4.44000 531.00000 520.34617 0.00188
4.46000 539.00000 517.90851 0.00186
4.48000 532.00000 515.88779 0.00188
4.50000 553.00000 514.30206 0.00181
4.52000 526.00000 513.16864 0.00190
4.54000 524.00000 512.50470 0.00191
4.56000 528.00000 512.32778 0.00189
4.58000 554.00000 512.65531 0.00181
4.60000 522.00000 513.50494 0.00192
4.62000 513.00000 514.89507 0.00195
4.64000 568.00000 516.84446 0.00176
4.66000 516.00000 519.37249 0.00194
4.68000 512.00000 522.49974 0.00195
4.70000 527.00000 526.24774 0.00190
4.72000 510.00000 530.63921 0.00196
4.74000 529.00000 535.69869 0.00189
4.76000 513.00000 541.45241 0.00195
4.78000 526.00000 547.92869 0.00190
4.80000 538.00000 555.15850 0.00186
4.82000 570.00000 563.17535 0.00175
4.84000 512.00000 572.01607 0.00195
4.86000 531.00000 581.72132 0.00188
4.88000 591.00000 592.33588 0.00169
4.90000 556.00000 603.90974 0.00180
4.92000 572.00000 616.49887 0.00175
4.94000 598.00000 630.16676 0.00167
4.96000 606.00000 644.98661 0.00165
4.98000 650.00000 661.04349 0.00154
5.00000 677.00000 678.43647 0.00148
5.02000 699.00000 697.27886 0.00143
5.04000 702.00000 717.69554 0.00142
5.06000 682.00000 739.81827 0.00147
5.08000 734.00000 763.78356 0.00136
5.10000 808.00000 789.73847 0.00124
5.12000 873.00000 817.85029 0.00115
5.14000 849.00000 848.31565 0.00118
5.16000 935.00000 881.36733 0.00107
5.18000 969.00000 917.28047 0.00103
5.20000 978.00000 956.37931 0.00102
5.22000 1040.00000 999.04560 0.00096
5.24000 1088.00000 1045.72874 0.00092
5.26000 1098.00000 1096.95699 0.00091
5.28000 1191.00000 1153.34850 0.00084
5.30000 1174.00000 1215.62201 0.00085
5.32000 1245.00000 1284.61079 0.00080
5.34000 1393.00000 1361.29324 0.00072
5.36000 1455.00000 1446.86581 0.00069
5.38000 1526.00000 1542.89810 0.00066
5.40000 1703.00000 1651.61511 0.00059
5.42000 1798.00000 1776.34096 0.00056
5.44000 1969.00000 1922.06451 0.00051
5.46000 2138.00000 2095.73220 0.00047
5.48000 2292.00000 2305.03798 0.00044
5.50000 2574.00000 2553.57800 0.00039
5.52000 2848.00000 2830.81033 0.00035
5.54000 3069.00000 3098.80299 0.00033
5.56000 3265.00000 3282.98789 0.00031
5.58000 3291.00000 3280.53088 0.00030
5.60000 2983.00000 3011.21073 0.00034
5.62000 2475.00000 2505.98327 0.00040
5.64000 1967.00000 1916.29005 0.00051
5.66000 1373.00000 1392.56176 0.00073
5.68000 986.00000 1003.10531 0.00101
5.70000 698.00000 747.31018 0.00143
5.72000 634.00000 592.79109 0.00158
5.74000 518.00000 502.56477 0.00193
5.76000 480.00000 448.37874 0.00208
5.78000 405.00000 413.16922 0.00247
5.80000 406.00000 388.14313 0.00246
5.82000 374.00000 369.11520 0.00267
5.84000 340.00000 354.04569 0.00294
5.86000 327.00000 341.81675 0.00306
5.88000 365.00000 331.72508 0.00274
5.90000 336.00000 323.28440 0.00298
5.92000 344.00000 316.14132 0.00291
5.94000 326.00000 310.03201 0.00307
5.96000 327.00000 304.75588 0.00306
5.98000 295.00000 300.15810 0.00339
6.00000 308.00000 296.11758 0.00325
6.02000 280.00000 292.53847 0.00357
6.04000 277.00000 289.34405 0.00361
6.06000 275.00000 286.47234 0.00364
6.08000 253.00000 283.87278 0.00395
6.10000 288.00000 281.50382 0.00347
6.12000 318.00000 279.33101 0.00314
6.14000 264.00000 277.32564 0.00379
6.16000 287.00000 275.46361 0.00348
6.18000 257.00000 273.72456 0.00389
6.20000 286.00000 272.09123 0.00350
6.22000 294.00000 270.54890 0.00340
6.24000 271.00000 269.08496 0.00369
6.26000 235.00000 267.68858 0.00426
6.28000 265.00000 266.35041 0.00377
6.30000 292.00000 265.06237 0.00342
6.32000 240.00000 263.81743 0.00417
6.34000 267.00000 262.60948 0.00375
6.36000 267.00000 261.43319 0.00375
6.38000 268.00000 260.28383 0.00373
6.40000 267.00000 259.15733 0.00375
6.42000 248.00000 258.05006 0.00403
6.44000 275.00000 256.95890 0.00364
6.46000 230.00000 255.88103 0.00435
6.48000 247.00000 254.81399 0.00405
6.50000 256.00000 253.75557 0.00391
6.52000 245.00000 252.70381 0.00408
6.54000 270.00000 251.65693 0.00370
6.56000 247.00000 250.61330 0.00405
6.58000 229.00000 249.57144 0.00437
6.60000 256.00000 248.52993 0.00391
6.62000 250.00000 247.48742 0.00400
6.64000 258.00000 246.44256 0.00388
6.66000 245.00000 245.39398 0.00408
6.68000 255.00000 244.34027 0.00392
6.70000 229.00000 243.28004 0.00437
6.72000 238.00000 242.21185 0.00420
6.74000 270.00000 241.13394 0.00370
6.76000 250.00000 240.04415 0.00400
6.78000 224.00000 238.93960 0.00446
6.80000 250.00000 237.81632 0.00400
6.82000 225.00000 236.66837 0.00444
6.84000 242.00000 235.48622 0.00413
6.86000 226.00000 234.25256 0.00442
6.88000 210.00000 232.92822 0.00476
6.90000 215.00000 231.36296 0.00465
6.92000 216.00000 229.64726 0.00463
6.94000 213.00000 228.71539 0.00469
6.96000 241.00000 227.88261 0.00415
6.98000 226.00000 227.11593 0.00442
7.00000 222.00000 226.34877 0.00450
7.02000 210.00000 225.58173 0.00476
7.04000 228.00000 224.81536 0.00439
7.06000 221.00000 224.05022 0.00452
7.08000 217.00000 223.28684 0.00461
7.10000 210.00000 222.52576 0.00476
7.12000 231.00000 221.76749 0.00433
7.14000 235.00000 221.01251 0.00426
7.16000 213.00000 220.26132 0.00469
7.18000 213.00000 219.51438 0.00469
7.20000 223.00000 218.77213 0.00448
7.22000 216.00000 218.03503 0.00463
7.24000 231.00000 217.30347 0.00433
7.26000 197.00000 216.57787 0.00508
7.28000 196.00000 215.85860 0.00510
7.30000 231.00000 215.14605 0.00433
7.32000 201.00000 214.44055 0.00498
7.34000 222.00000 213.74244 0.00450
7.36000 225.00000 213.05203 0.00444
7.38000 195.00000 212.36963 0.00513
7.40000 188.00000 211.69552 0.00532
7.42000 209.00000 211.02997 0.00478
7.44000 221.00000 210.37321 0.00452
7.46000 228.00000 209.72549 0.00439
7.48000 195.00000 209.08701 0.00513
7.50000 212.00000 208.45797 0.00472
7.52000 200.00000 207.83855 0.00500
7.54000 228.00000 207.22892 0.00439
7.56000 230.00000 206.62922 0.00435
7.58000 202.00000 206.03959 0.00495
7.60000 218.00000 205.46013 0.00459
7.62000 220.00000 204.89096 0.00455
7.64000 205.00000 204.33215 0.00488
7.66000 222.00000 203.78377 0.00450
7.68000 210.00000 203.24587 0.00476
7.70000 204.00000 202.71851 0.00490
7.72000 192.00000 202.20169 0.00521
7.74000 189.00000 201.69544 0.00529
7.76000 186.00000 201.19975 0.00538
7.78000 198.00000 200.71461 0.00505
7.80000 186.00000 200.23998 0.00538
7.82000 212.00000 199.77583 0.00472
7.84000 228.00000 199.32211 0.00439
7.86000 202.00000 198.87875 0.00495
7.88000 202.00000 198.44568 0.00495
7.90000 226.00000 198.02281 0.00442
7.92000 177.00000 197.61004 0.00565
7.94000 200.00000 197.20727 0.00500
7.96000 200.00000 196.81437 0.00500
7.98000 221.00000 196.43123 0.00452
8.00000 200.00000 196.05772 0.00500
8.02000 205.00000 195.69367 0.00488
8.04000 187.00000 195.33895 0.00535
8.06000 182.00000 194.99340 0.00549
8.08000 187.00000 194.65684 0.00535
8.10000 213.00000 194.32911 0.00469
8.12000 190.00000 194.01002 0.00526
8.14000 177.00000 193.69940 0.00565
8.16000 205.00000 193.39704 0.00488
8.18000 223.00000 193.10276 0.00448
8.20000 192.00000 192.81635 0.00521
8.22000 207.00000 192.53762 0.00483
8.24000 184.00000 192.26634 0.00543
8.26000 200.00000 192.00231 0.00500
8.28000 179.00000 191.74533 0.00559
8.30000 215.00000 191.49516 0.00465
8.32000 196.00000 191.25161 0.00510
8.34000 211.00000 191.01445 0.00474
8.36000 196.00000 190.78348 0.00510
8.38000 220.00000 190.55847 0.00455
8.40000 197.00000 190.33922 0.00508
8.42000 204.00000 190.12553 0.00490
8.44000 188.00000 189.91719 0.00532
8.46000 194.00000 189.71402 0.00515
8.48000 188.00000 189.51586 0.00532
8.50000 172.00000 189.32254 0.00581
8.52000 191.00000 189.13395 0.00524
8.54000 174.00000 188.95003 0.00575
8.56000 178.00000 188.77081 0.00562
8.58000 189.00000 188.59648 0.00529
8.60000 184.00000 188.42777 0.00543
8.62000 193.00000 188.26741 0.00518
8.64000 189.00000 188.11295 0.00529
8.66000 182.00000 187.94563 0.00549
8.68000 193.00000 187.77948 0.00518
8.70000 190.00000 187.61552 0.00526
8.72000 176.00000 187.45352 0.00568
8.74000 180.00000 187.29329 0.00556
8.76000 218.00000 187.13462 0.00459
8.78000 192.00000 186.97733 0.00521
8.80000 175.00000 186.82122 0.00571
8.82000 185.00000 186.66610 0.00541
8.84000 196.00000 186.51180 0.00510
8.86000 193.00000 186.35814 0.00518
8.88000 184.00000 186.20496 0.00543
8.90000 206.00000 186.05209 0.00485
8.92000 197.00000 185.89939 0.00508
8.94000 187.00000 185.74670 0.00535
8.96000 193.00000 185.59388 0.00518
8.98000 186.00000 185.44080 0.00538
9.00000 191.00000 185.28735 0.00524
9.02000 165.00000 185.13341 0.00606
9.04000 192.00000 184.97888 0.00521
9.06000 191.00000 184.82367 0.00524
9.08000 195.00000 184.66771 0.00513
9.10000 174.00000 184.51093 0.00575
9.12000 184.00000 184.35330 0.00543
9.14000 182.00000 184.19481 0.00549
9.16000 167.00000 184.03545 0.00599
9.18000 187.00000 183.87526 0.00535
9.20000 167.00000 183.71433 0.00599
9.22000 193.00000 183.55279 0.00518
9.24000 201.00000 183.39087 0.00498
9.26000 162.00000 183.22890 0.00617
9.28000 172.00000 183.06734 0.00581
9.30000 161.00000 182.90696 0.00621
9.32000 175.00000 182.74932 0.00571
9.34000 179.00000 182.59890 0.00559
9.36000 173.00000 182.46149 0.00578
9.38000 162.00000 182.31732 0.00617
9.40000 202.00000 182.13490 0.00495
9.42000 171.00000 181.94761 0.00585
9.44000 163.00000 181.75812 0.00613
9.46000 161.00000 181.56643 0.00621
9.48000 169.00000 181.37255 0.00592
9.50000 185.00000 181.17651 0.00541
9.52000 197.00000 180.97832 0.00508
9.54000 175.00000 180.77801 0.00571
9.56000 158.00000 180.57563 0.00633
9.58000 170.00000 180.37123 0.00588
9.60000 180.00000 180.16485 0.00556
9.62000 155.00000 179.95656 0.00645
9.64000 191.00000 179.74643 0.00524
9.66000 163.00000 179.53454 0.00613
9.68000 159.00000 179.32097 0.00629
9.70000 195.00000 179.10582 0.00513
9.72000 193.00000 178.88918 0.00518
9.74000 176.00000 178.67118 0.00568
9.76000 189.00000 178.45194 0.00529
9.78000 196.00000 178.23159 0.00510
9.80000 184.00000 178.01027 0.00543
9.82000 163.00000 177.78816 0.00613
9.84000 179.00000 177.56543 0.00559
9.86000 180.00000 177.34227 0.00556
9.88000 182.00000 177.11891 0.00549
9.90000 181.00000 176.89557 0.00552
9.92000 171.00000 176.67252 0.00585
9.94000 183.00000 176.45005 0.00546
9.96000 182.00000 176.22850 0.00549
9.98000 179.00000 176.00826 0.00559
10.00000 168.00000 175.78983 0.00595
10.02000 210.00000 175.57382 0.00476
10.04000 199.00000 175.36103 0.00503
10.06000 167.00000 175.15245 0.00599
10.08000 176.00000 174.94937 0.00568
10.10000 178.00000 174.75334 0.00562
10.12000 180.00000 174.56618 0.00556
10.14000 175.00000 174.38987 0.00571
10.16000 167.00000 174.22645 0.00599
10.18000 188.00000 174.07787 0.00532
10.20000 165.00000 173.94603 0.00606
10.22000 162.00000 173.83268 0.00617
10.24000 196.00000 173.73957 0.00510
10.26000 183.00000 173.66837 0.00546
10.28000 174.00000 173.62082 0.00575
10.30000 170.00000 173.59867 0.00588
10.32000 153.00000 173.60378 0.00654
10.34000 173.00000 173.63812 0.00578
10.36000 182.00000 173.70379 0.00549
10.38000 192.00000 173.80306 0.00521
10.40000 176.00000 173.93839 0.00568
10.42000 167.00000 174.11245 0.00599
10.44000 188.00000 174.32815 0.00532
10.46000 178.00000 174.58870 0.00562
10.48000 210.00000 174.89766 0.00476
10.50000 182.00000 175.25896 0.00549
10.52000 176.00000 175.67698 0.00568
10.54000 169.00000 176.15664 0.00592
10.56000 178.00000 176.70357 0.00562
10.58000 165.00000 177.32433 0.00606
10.60000 201.00000 178.02669 0.00498
10.62000 183.00000 178.82013 0.00546
10.64000 167.00000 179.71765 0.00599
10.66000 181.00000 180.74517 0.00552
10.68000 175.00000 181.92907 0.00571
10.70000 183.00000 183.19373 0.00546
10.72000 185.00000 184.46318 0.00541
10.74000 200.00000 185.86042 0.00500
10.76000 195.00000 187.40909 0.00513
10.78000 177.00000 189.12619 0.00565
10.80000 185.00000 191.03155 0.00541
10.82000 212.00000 193.14840 0.00472
10.84000 181.00000 195.50429 0.00552
10.86000 184.00000 198.13215 0.00543
10.88000 175.00000 201.07202 0.00571
10.90000 200.00000 204.37247 0.00500
10.92000 210.00000 208.08944 0.00476
10.94000 207.00000 212.29266 0.00483
10.96000 232.00000 217.07748 0.00431
10.98000 244.00000 222.56041 0.00410
11.00000 227.00000 228.88968 0.00441
11.02000 225.00000 236.25161 0.00444
11.04000 282.00000 244.86753 0.00355
11.06000 275.00000 254.96750 0.00364
11.08000 266.00000 266.72262 0.00376
11.10000 289.00000 280.12150 0.00346
11.12000 301.00000 294.79413 0.00332
11.14000 334.00000 309.81444 0.00299
11.16000 323.00000 323.53730 0.00310
11.18000 344.00000 333.55199 0.00291
11.20000 351.00000 336.93037 0.00285
11.22000 373.00000 331.11121 0.00268
11.24000 367.00000 315.47633 0.00272
11.26000 295.00000 292.51361 0.00339
11.28000 255.00000 266.92054 0.00392
11.30000 230.00000 242.89851 0.00435
11.32000 227.00000 222.78524 0.00441
11.34000 213.00000 207.25372 0.00469
11.36000 187.00000 195.97358 0.00535
11.38000 207.00000 188.14545 0.00483
11.40000 189.00000 182.85983 0.00529
11.42000 173.00000 179.31708 0.00578
11.44000 164.00000 176.90232 0.00610
11.46000 155.00000 175.14303 0.00645
11.48000 176.00000 173.81854 0.00568
11.50000 174.00000 172.78787 0.00575
11.52000 171.00000 171.96463 0.00585
11.54000 169.00000 171.29676 0.00592
11.56000 157.00000 170.75088 0.00637
11.58000 158.00000 170.30388 0.00633
11.60000 170.00000 169.93875 0.00588
11.62000 172.00000 169.64247 0.00581
11.64000 182.00000 169.40482 0.00549
11.66000 163.00000 169.21766 0.00613
11.68000 183.00000 169.07444 0.00546
11.70000 173.00000 168.96983 0.00578
11.72000 175.00000 168.89946 0.00571
11.74000 165.00000 168.85971 0.00606
11.76000 184.00000 168.84759 0.00543
11.78000 176.00000 168.86059 0.00568
11.80000 160.00000 168.89660 0.00625
11.82000 170.00000 168.95381 0.00588
11.84000 168.00000 169.03072 0.00595
11.86000 173.00000 169.12602 0.00578
11.88000 185.00000 169.23858 0.00541
11.90000 170.00000 169.36745 0.00588
11.92000 151.00000 169.51180 0.00662
11.94000 165.00000 169.67089 0.00606
11.96000 195.00000 169.84410 0.00513
11.98000 130.00000 170.03088 0.00769
12.00000 146.00000 170.23076 0.00685
12.02000 177.00000 170.44331 0.00565
12.04000 175.00000 170.66816 0.00571
12.06000 191.00000 170.90501 0.00524
12.08000 179.00000 171.15356 0.00559
12.10000 151.00000 171.41358 0.00662
12.12000 187.00000 171.68486 0.00535
12.14000 165.00000 171.96724 0.00606
12.16000 170.00000 172.26058 0.00588
12.18000 165.00000 172.56474 0.00606
12.20000 176.00000 172.87955 0.00568
12.22000 161.00000 173.20498 0.00621
12.24000 183.00000 173.54099 0.00546
12.26000 185.00000 173.88757 0.00541
12.28000 175.00000 174.24469 0.00571
12.30000 186.00000 174.61238 0.00538
12.32000 167.00000 174.99066 0.00599
12.34000 185.00000 175.37962 0.00541
12.36000 175.00000 175.77932 0.00571
12.38000 154.00000 176.18988 0.00649
12.40000 164.00000 176.61144 0.00610
12.42000 158.00000 177.04415 0.00633
12.44000 163.00000 177.48822 0.00613
12.46000 183.00000 177.94388 0.00546
12.48000 205.00000 178.41138 0.00488
12.50000 182.00000 178.89102 0.00549
12.52000 186.00000 179.38316 0.00538
12.54000 174.00000 179.88817 0.00575
12.56000 186.00000 180.40650 0.00538
12.58000 199.00000 180.93864 0.00503
12.60000 178.00000 181.48516 0.00562
12.62000 163.00000 182.04668 0.00613
12.64000 173.00000 182.62392 0.00578
12.66000 169.00000 183.21769 0.00592
12.68000 197.00000 183.82888 0.00508
12.70000 196.00000 184.45854 0.00510
12.72000 156.00000 185.10781 0.00641
12.74000 187.00000 185.77803 0.00535
12.76000 200.00000 186.47070 0.00500
12.78000 187.00000 187.18755 0.00535
12.80000 208.00000 187.93061 0.00481
12.82000 220.00000 188.70224 0.00455
12.84000 189.00000 189.50519 0.00529
12.86000 172.00000 190.34275 0.00581
12.88000 205.00000 191.21885 0.00488
12.90000 196.00000 192.13819 0.00510
12.92000 203.00000 193.10642 0.00493
12.94000 214.00000 194.13031 0.00467
12.96000 186.00000 195.21793 0.00538
12.98000 198.00000 196.37885 0.00505
13.00000 186.00000 197.62425 0.00538
13.02000 207.00000 198.96710 0.00483
13.04000 213.00000 200.42243 0.00469
13.06000 210.00000 202.00832 0.00476
13.08000 215.00000 203.73444 0.00465
13.10000 162.00000 205.58718 0.00617
13.12000 195.00000 207.62338 0.00513
13.14000 247.00000 209.89122 0.00405
13.16000 199.00000 212.37855 0.00503
13.18000 215.00000 215.10162 0.00465
13.20000 205.00000 218.08153 0.00488
13.22000 233.00000 221.34080 0.00429
13.24000 227.00000 224.90366 0.00441
13.26000 229.00000 228.79642 0.00437
13.28000 214.00000 233.04779 0.00467
13.30000 239.00000 237.68931 0.00418
13.32000 270.00000 242.75581 0.00370
13.34000 267.00000 248.28593 0.00375
13.36000 252.00000 254.32276 0.00397
13.38000 262.00000 260.91455 0.00382
13.40000 284.00000 268.11557 0.00352
13.42000 264.00000 275.98721 0.00379
13.44000 274.00000 284.59931 0.00365
13.46000 271.00000 294.03175 0.00369
13.48000 301.00000 304.37664 0.00332
13.50000 329.00000 315.74089 0.00304
13.52000 320.00000 328.24954 0.00313
13.54000 339.00000 342.04972 0.00295
13.56000 328.00000 357.31516 0.00305
13.58000 381.00000 374.25070 0.00262
13.60000 397.00000 393.09604 0.00252
13.62000 401.00000 414.12654 0.00249
13.64000 421.00000 437.64875 0.00238
13.66000 405.00000 463.98651 0.00247
13.68000 517.00000 493.45353 0.00193
13.70000 545.00000 526.30789 0.00183
13.72000 566.00000 562.68544 0.00177
13.74000 615.00000 602.51071 0.00163
13.76000 650.00000 645.38629 0.00154
13.78000 750.00000 690.46292 0.00133
13.80000 752.00000 736.29358 0.00133
13.82000 740.00000 780.68002 0.00135
13.84000 831.00000 820.54005 0.00120
13.86000 869.00000 851.88115 0.00115
13.88000 912.00000 870.06910 0.00110
13.90000 859.00000 870.65855 0.00116
13.92000 872.00000 850.87257 0.00115
13.94000 817.00000 811.19126 0.00122
13.96000 792.00000 755.88104 0.00126
13.98000 732.00000 691.72079 0.00137
14.00000 675.00000 625.67149 0.00148
14.02000 572.00000 563.06310 0.00175
14.04000 547.00000 507.03142 0.00183
14.06000 519.00000 458.81818 0.00193
14.08000 455.00000 418.60143 0.00220
14.10000 419.00000 385.85765 0.00239
14.12000 364.00000 359.71235 0.00275
14.14000 341.00000 339.16609 0.00293
14.16000 329.00000 323.22627 0.00304
14.18000 339.00000 310.98599 0.00295
14.20000 277.00000 301.66620 0.00361
14.22000 297.00000 294.63036 0.00337
14.24000 293.00000 289.37950 0.00341
14.26000 274.00000 285.53529 0.00365
14.28000 270.00000 282.81754 0.00370
14.30000 246.00000 281.02107 0.00407
14.32000 250.00000 279.99499 0.00400
14.34000 263.00000 279.62564 0.00380
14.36000 256.00000 279.82332 0.00391
14.38000 253.00000 280.51255 0.00395
14.40000 244.00000 281.62620 0.00410
14.42000 289.00000 283.09686 0.00346
14.44000 284.00000 284.82931 0.00352
14.46000 266.00000 286.71647 0.00376
14.48000 290.00000 288.68063 0.00345
14.50000 286.00000 290.60601 0.00350
14.52000 303.00000 292.35836 0.00330
14.54000 317.00000 293.79089 0.00315
14.56000 312.00000 294.75389 0.00321
14.58000 304.00000 295.11068 0.00329
14.60000 292.00000 294.75910 0.00342
14.62000 314.00000 293.65389 0.00318
14.64000 291.00000 291.82308 0.00344
14.66000 296.00000 289.37104 0.00338
14.68000 307.00000 286.46504 0.00326
14.70000 301.00000 283.30883 0.00332
14.72000 299.00000 280.11193 0.00334
14.74000 255.00000 277.06399 0.00392
14.76000 267.00000 274.31969 0.00375
14.78000 271.00000 271.99434 0.00369
14.80000 230.00000 270.16745 0.00435
14.82000 254.00000 268.89009 0.00394
14.84000 279.00000 268.19335 0.00358
14.86000 302.00000 268.09578 0.00331
14.88000 271.00000 268.60955 0.00369
14.90000 273.00000 269.74501 0.00366
14.92000 270.00000 271.51413 0.00370
14.94000 269.00000 273.93304 0.00372
14.96000 301.00000 277.02390 0.00332
14.98000 282.00000 280.81640 0.00355
15.00000 294.00000 285.34875 0.00340
15.02000 319.00000 290.66830 0.00313
15.04000 274.00000 296.83135 0.00365
15.06000 313.00000 303.90219 0.00319
15.08000 333.00000 311.95065 0.00300
15.10000 313.00000 321.04808 0.00319
15.12000 362.00000 331.26100 0.00276
15.14000 346.00000 342.64220 0.00289
15.16000 350.00000 355.21877 0.00286
15.18000 362.00000 368.97676 0.00276
15.20000 384.00000 383.84211 0.00260
15.22000 391.00000 399.65747 0.00256
15.24000 369.00000 416.15461 0.00271
15.26000 423.00000 432.92223 0.00236
15.28000 461.00000 449.37094 0.00217
15.30000 459.00000 464.70103 0.00218
15.32000 440.00000 477.88773 0.00227
15.34000 498.00000 487.71205 0.00201
15.36000 490.00000 492.87713 0.00204
15.38000 515.00000 492.24101 0.00194
15.40000 461.00000 485.14255 0.00217
15.42000 491.00000 471.70213 0.00204
15.44000 462.00000 452.91681 0.00216
15.46000 452.00000 430.44533 0.00221
15.48000 427.00000 406.17288 0.00234
15.50000 384.00000 381.78331 0.00260
15.52000 360.00000 358.51614 0.00278
15.54000 331.00000 337.12972 0.00302
15.56000 342.00000 317.98787 0.00292
15.58000 295.00000 301.18019 0.00339
15.60000 313.00000 286.62658 0.00319
15.62000 290.00000 274.15182 0.00345
15.64000 285.00000 263.53429 0.00351
15.66000 261.00000 254.53662 0.00383
15.68000 266.00000 246.92469 0.00376
15.70000 235.00000 240.47951 0.00426
15.72000 230.00000 235.00403 0.00435
15.74000 228.00000 230.32655 0.00439
15.76000 251.00000 226.30143 0.00398
15.78000 265.00000 222.80799 0.00377
15.80000 213.00000 219.74812 0.00469
15.82000 236.00000 217.04330 0.00424
15.84000 209.00000 214.63137 0.00478
15.86000 196.00000 212.46339 0.00510
15.88000 205.00000 210.50093 0.00488
15.90000 228.00000 208.71369 0.00439
15.92000 179.00000 207.07767 0.00559
15.94000 216.00000 205.57369 0.00463
15.96000 209.00000 204.18629 0.00478
15.98000 182.00000 202.90298 0.00549
16.00000 171.00000 201.71362 0.00585
16.02000 216.00000 200.61004 0.00463
16.04000 186.00000 199.58581 0.00538
16.06000 193.00000 198.63597 0.00518
16.08000 214.00000 197.75701 0.00467
16.10000 209.00000 196.94668 0.00478
16.12000 198.00000 196.20400 0.00505
16.14000 209.00000 195.52916 0.00478
16.16000 186.00000 194.92344 0.00538
16.18000 200.00000 194.38913 0.00500
16.20000 214.00000 193.92940 0.00467
16.22000 185.00000 193.54818 0.00541
16.24000 181.00000 193.25015 0.00552
16.26000 201.00000 193.04084 0.00498
16.28000 200.00000 192.92621 0.00500
16.30000 179.00000 192.91086 0.00559
16.32000 184.00000 193.00278 0.00543
16.34000 166.00000 193.21140 0.00602
16.36000 189.00000 193.54680 0.00529
16.38000 202.00000 194.02103 0.00495
16.40000 177.00000 194.64675 0.00565
16.42000 218.00000 195.43340 0.00459
16.44000 205.00000 196.40245 0.00488
16.46000 195.00000 197.57513 0.00513
16.48000 188.00000 198.97608 0.00532
16.50000 211.00000 200.63495 0.00474
16.52000 182.00000 202.58771 0.00549
16.54000 216.00000 204.87865 0.00463
16.56000 235.00000 207.56266 0.00426
16.58000 209.00000 210.70801 0.00478
16.60000 177.00000 214.39904 0.00565
16.62000 209.00000 218.73758 0.00478
16.64000 224.00000 223.84143 0.00446
16.66000 204.00000 229.83707 0.00490
16.68000 232.00000 236.84371 0.00431
16.70000 224.00000 244.94571 0.00446
16.72000 256.00000 254.15288 0.00391
16.74000 263.00000 264.35070 0.00380
16.76000 304.00000 275.24619 0.00329
16.78000 270.00000 286.31765 0.00370
16.80000 285.00000 296.77812 0.00351
16.82000 333.00000 305.56875 0.00300
16.84000 374.00000 311.41969 0.00267
16.86000 337.00000 313.05140 0.00297
16.88000 334.00000 309.57858 0.00299
16.90000 300.00000 301.00723 0.00333
16.92000 260.00000 288.45196 0.00385
16.94000 244.00000 273.76922 0.00410
16.96000 240.00000 258.84001 0.00417
16.98000 244.00000 245.04791 0.00410
17.00000 200.00000 233.16631 0.00500
17.02000 231.00000 223.48164 0.00433
17.04000 194.00000 215.95593 0.00515
17.06000 190.00000 210.35697 0.00526
17.08000 216.00000 206.35399 0.00463
17.10000 206.00000 203.58674 0.00485
17.12000 200.00000 201.71168 0.00500
17.14000 183.00000 200.42635 0.00546
17.16000 173.00000 199.46966 0.00578
17.18000 215.00000 198.63341 0.00465
17.20000 220.00000 197.86245 0.00455
17.22000 234.00000 197.12221 0.00427
17.24000 211.00000 196.24601 0.00474
17.26000 207.00000 195.18570 0.00483
17.28000 205.00000 193.94394 0.00488
17.30000 192.00000 192.54534 0.00521
17.32000 202.00000 190.98477 0.00495
17.34000 183.00000 189.32010 0.00546
17.36000 193.00000 187.62975 0.00518
17.38000 183.00000 185.96703 0.00546
17.40000 186.00000 184.37386 0.00538
17.42000 183.00000 182.88123 0.00546
17.44000 185.00000 181.50980 0.00541
17.46000 201.00000 180.27150 0.00498
17.48000 176.00000 179.17167 0.00568
17.50000 173.00000 178.21103 0.00578
17.52000 157.00000 177.38729 0.00637
17.54000 165.00000 176.69645 0.00606
17.56000 174.00000 176.13370 0.00575
17.58000 168.00000 175.69405 0.00595
17.60000 192.00000 175.37280 0.00521
17.62000 177.00000 175.16585 0.00565
17.64000 165.00000 175.06988 0.00606
17.66000 195.00000 175.08255 0.00513
17.68000 151.00000 175.20260 0.00662
17.70000 177.00000 175.43001 0.00565
17.72000 191.00000 175.76606 0.00524
17.74000 176.00000 176.21349 0.00568
17.76000 195.00000 176.77675 0.00513
17.78000 179.00000 177.46237 0.00559
17.80000 183.00000 178.27937 0.00546
17.82000 203.00000 179.24075 0.00493
17.84000 213.00000 180.36688 0.00469
17.86000 194.00000 181.70609 0.00515
17.88000 194.00000 183.27249 0.00515
17.90000 194.00000 184.84143 0.00515
17.92000 205.00000 186.53247 0.00488
17.94000 214.00000 188.41736 0.00467
17.96000 197.00000 190.51725 0.00508
17.98000 221.00000 192.85015 0.00452
18.00000 199.00000 195.43528 0.00503
18.02000 199.00000 198.29292 0.00503
18.04000 208.00000 201.44426 0.00481
18.06000 210.00000 204.91119 0.00476
18.08000 205.00000 208.71610 0.00488
18.10000 224.00000 212.88152 0.00446
18.12000 220.00000 217.42980 0.00455
18.14000 224.00000 222.38275 0.00446
18.16000 227.00000 227.76126 0.00441
18.18000 237.00000 233.58539 0.00422
18.20000 220.00000 239.87613 0.00455
18.22000 263.00000 246.67104 0.00380
18.24000 244.00000 253.96666 0.00410
18.26000 267.00000 261.54863 0.00375
18.28000 287.00000 269.51785 0.00348
18.30000 268.00000 277.86372 0.00373
18.32000 262.00000 286.52449 0.00382
18.34000 286.00000 295.41501 0.00350
18.36000 284.00000 304.43234 0.00352
18.38000 316.00000 313.43580 0.00316
18.40000 302.00000 322.24731 0.00331
18.42000 313.00000 330.64974 0.00319
18.44000 328.00000 338.38794 0.00305
18.46000 346.00000 345.17508 0.00289
18.48000 349.00000 350.70616 0.00287
18.50000 336.00000 354.68024 0.00298
18.52000 339.00000 356.83053 0.00295
18.54000 361.00000 356.95939 0.00277
18.56000 357.00000 354.97150 0.00280
18.58000 397.00000 350.89680 0.00252
18.60000 332.00000 344.89579 0.00301
18.62000 322.00000 337.24360 0.00311
18.64000 328.00000 328.29606 0.00305
18.66000 296.00000 318.44616 0.00338
18.68000 316.00000 308.07941 0.00316
18.70000 292.00000 297.53819 0.00342
18.72000 263.00000 287.11152 0.00380
18.74000 237.00000 277.01893 0.00422
18.76000 279.00000 267.41488 0.00358
18.78000 251.00000 258.39789 0.00398
18.80000 220.00000 250.02148 0.00455
18.82000 219.00000 242.30518 0.00457
18.84000 231.00000 235.24410 0.00433
18.86000 220.00000 228.81676 0.00455
18.88000 212.00000 222.99103 0.00472
18.90000 203.00000 217.72854 0.00493
18.92000 210.00000 212.98776 0.00476
18.94000 193.00000 208.72616 0.00518
18.96000 182.00000 204.90173 0.00549
18.98000 216.00000 201.47392 0.00463
19.00000 173.00000 198.40428 0.00578
19.02000 215.00000 195.65685 0.00465
19.04000 213.00000 193.19833 0.00469
19.06000 199.00000 190.99823 0.00503
19.08000 195.00000 189.02883 0.00513
19.10000 217.00000 187.26510 0.00461
19.12000 211.00000 185.68461 0.00474
19.14000 201.00000 184.26734 0.00498
19.16000 174.00000 182.99559 0.00575
19.18000 173.00000 181.85378 0.00578
19.20000 206.00000 180.82796 0.00485
19.22000 175.00000 179.90490 0.00571
19.24000 181.00000 179.07444 0.00552
19.26000 154.00000 178.32716 0.00649
19.28000 182.00000 177.65451 0.00549
19.30000 183.00000 177.04871 0.00546
19.32000 187.00000 176.50233 0.00535
19.34000 192.00000 176.00625 0.00521
19.36000 194.00000 175.55206 0.00515
19.38000 163.00000 175.15500 0.00613
19.40000 174.00000 174.82776 0.00575
19.42000 194.00000 174.54710 0.00515
19.44000 183.00000 174.30895 0.00546
19.46000 150.00000 174.11664 0.00667
19.48000 190.00000 173.97487 0.00526
19.50000 161.00000 173.85355 0.00621
19.52000 154.00000 173.71304 0.00649
19.54000 178.00000 173.58955 0.00562
19.56000 177.00000 173.48323 0.00565
19.58000 179.00000 173.38644 0.00559
19.60000 195.00000 173.28749 0.00513
19.62000 177.00000 173.21085 0.00565
19.64000 174.00000 173.21164 0.00575
19.66000 181.00000 173.23586 0.00552
19.68000 187.00000 173.27651 0.00535
19.70000 168.00000 173.33275 0.00595
19.72000 170.00000 173.40386 0.00588
19.74000 169.00000 173.48917 0.00592
19.76000 156.00000 173.58814 0.00641
19.78000 180.00000 173.70030 0.00556
19.80000 172.00000 173.82530 0.00581
19.82000 177.00000 173.96290 0.00565
19.84000 170.00000 174.11299 0.00588
19.86000 195.00000 174.27563 0.00513
19.88000 197.00000 174.45106 0.00508
19.90000 173.00000 174.63980 0.00578
19.92000 192.00000 174.84273 0.00521
19.94000 178.00000 175.06122 0.00562
19.96000 159.00000 175.29755 0.00629
19.98000 163.00000 175.55552 0.00613
20.00000 179.00000 175.84145 0.00559
20.02000 171.00000 176.16641 0.00585
20.04000 157.00000 176.55986 0.00637
20.06000 192.00000 177.07772 0.00521
20.08000 199.00000 177.63316 0.00503
20.10000 180.00000 177.90670 0.00556
20.12000 187.00000 178.15510 0.00535
20.14000 181.00000 178.40972 0.00552
20.16000 157.00000 178.67081 0.00637
20.18000 181.00000 178.93885 0.00552
20.20000 185.00000 179.21465 0.00541
20.22000 177.00000 179.49973 0.00565
20.24000 194.00000 179.79701 0.00515
20.26000 164.00000 180.11439 0.00610
20.28000 179.00000 180.46308 0.00559
20.30000 183.00000 180.81319 0.00546
20.32000 200.00000 181.10840 0.00500
20.34000 189.00000 181.40125 0.00529
20.36000 157.00000 181.69844 0.00637
20.38000 173.00000 182.00013 0.00578
20.40000 188.00000 182.30650 0.00532
20.42000 183.00000 182.61781 0.00546
20.44000 189.00000 182.93435 0.00529
20.46000 190.00000 183.25649 0.00526
20.48000 171.00000 183.58468 0.00585
20.50000 178.00000 183.91942 0.00562
20.52000 214.00000 184.26130 0.00467
20.54000 207.00000 184.61101 0.00483
20.56000 172.00000 184.96925 0.00581
20.58000 186.00000 185.33680 0.00538
20.60000 196.00000 185.71441 0.00510
20.62000 170.00000 186.10242 0.00588
20.64000 192.00000 186.49937 0.00521
20.66000 191.00000 186.90921 0.00524
20.68000 196.00000 187.35198 0.00510
20.70000 162.00000 187.81543 0.00617
20.72000 213.00000 188.30036 0.00469
20.74000 197.00000 188.80899 0.00508
20.76000 221.00000 189.34365 0.00452
20.78000 183.00000 189.90667 0.00546
20.80000 224.00000 190.50030 0.00446
20.82000 189.00000 191.12657 0.00529
20.84000 192.00000 191.78713 0.00521
20.86000 181.00000 192.48303 0.00552
20.88000 163.00000 193.21440 0.00613
20.90000 202.00000 193.98023 0.00495
20.92000 192.00000 194.77791 0.00521
20.94000 205.00000 195.60285 0.00488
20.96000 181.00000 196.44792 0.00552
20.98000 208.00000 197.30295 0.00481
21.00000 183.00000 198.15413 0.00546
21.02000 195.00000 198.98359 0.00513
21.04000 205.00000 199.76937 0.00488
21.06000 198.00000 200.48617 0.00505
21.08000 211.00000 201.10742 0.00474
21.10000 225.00000 201.60894 0.00444
21.12000 197.00000 201.97386 0.00508
21.14000 205.00000 202.19749 0.00488
21.16000 197.00000 202.29012 0.00508
21.18000 200.00000 202.27610 0.00500
21.20000 199.00000 202.18913 0.00503
21.22000 209.00000 202.06572 0.00478
21.24000 201.00000 201.93927 0.00498
21.26000 190.00000 201.83655 0.00526
21.28000 206.00000 201.77666 0.00485
21.30000 214.00000 201.77176 0.00467
21.32000 231.00000 201.82855 0.00433
21.34000 198.00000 201.94985 0.00505
21.36000 203.00000 202.13590 0.00493
21.38000 183.00000 202.38531 0.00546
21.40000 183.00000 202.69576 0.00546
21.42000 182.00000 203.06450 0.00549
21.44000 195.00000 203.48868 0.00513
21.46000 211.00000 203.96558 0.00474
21.48000 215.00000 204.49283 0.00465
21.50000 221.00000 205.06849 0.00452
21.52000 228.00000 205.69112 0.00439
21.54000 201.00000 206.35990 0.00498
21.56000 190.00000 207.07455 0.00526
21.58000 199.00000 207.83542 0.00503
21.60000 184.00000 208.64341 0.00543
21.62000 201.00000 209.50003 0.00498
21.64000 239.00000 210.40730 0.00418
21.66000 228.00000 211.36783 0.00439
21.68000 216.00000 212.38478 0.00463
21.70000 200.00000 213.46190 0.00500
21.72000 219.00000 214.60354 0.00457
21.74000 212.00000 215.81473 0.00472
21.76000 225.00000 217.10124 0.00444
21.78000 232.00000 218.46971 0.00431
21.80000 217.00000 219.92779 0.00461
21.82000 229.00000 221.48436 0.00437
21.84000 218.00000 223.14992 0.00459
21.86000 226.00000 224.93712 0.00442
21.88000 242.00000 226.86060 0.00413
21.90000 218.00000 228.93624 0.00459
21.92000 198.00000 231.19371 0.00505
21.94000 235.00000 233.66670 0.00426
21.96000 242.00000 236.33428 0.00413
21.98000 248.00000 239.15685 0.00403
22.00000 268.00000 242.23148 0.00373
22.02000 230.00000 245.60070 0.00435
22.04000 256.00000 249.30429 0.00391
22.06000 261.00000 253.38786 0.00383
22.08000 264.00000 257.90589 0.00379
22.10000 278.00000 262.91592 0.00360
22.12000 243.00000 268.44868 0.00412
22.14000 256.00000 274.57081 0.00391
22.16000 267.00000 281.37498 0.00375
22.18000 281.00000 288.94954 0.00356
22.20000 298.00000 297.39313 0.00336
22.22000 304.00000 306.81768 0.00329
22.24000 309.00000 317.34600 0.00324
22.26000 321.00000 329.11924 0.00312
22.28000 355.00000 342.29309 0.00282
22.30000 331.00000 357.02878 0.00302
22.32000 367.00000 373.48398 0.00272
22.34000 377.00000 391.79680 0.00265
22.36000 424.00000 412.06288 0.00236
22.38000 382.00000 434.30623 0.00262
22.40000 471.00000 458.44510 0.00212
22.42000 464.00000 484.25493 0.00216
22.44000 501.00000 511.33144 0.00200
22.46000 527.00000 539.05663 0.00190
22.48000 565.00000 566.57226 0.00177
22.50000 602.00000 592.76977 0.00166
22.52000 615.00000 616.31738 0.00163
22.54000 622.00000 635.76222 0.00161
22.56000 649.00000 649.74995 0.00154
22.58000 621.00000 657.35980 0.00161
22.60000 667.00000 658.44730 0.00150
22.62000 659.00000 653.82388 0.00152
22.64000 684.00000 644.87856 0.00146
22.66000 619.00000 632.43962 0.00162
22.68000 687.00000 617.72143 0.00146
22.70000 644.00000 602.09989 0.00155
22.72000 637.00000 586.18894 0.00157
22.74000 643.00000 570.27769 0.00156
22.76000 578.00000 554.49001 0.00173
22.78000 594.00000 538.86800 0.00168
22.80000 523.00000 523.42681 0.00191
22.82000 488.00000 508.18629 0.00205
22.84000 501.00000 493.18546 0.00200
22.86000 456.00000 478.48519 0.00219
22.88000 462.00000 464.16346 0.00216
22.90000 449.00000 450.30715 0.00223
22.92000 408.00000 437.00312 0.00245
22.94000 396.00000 424.33062 0.00253
22.96000 383.00000 412.35593 0.00261
22.98000 397.00000 401.12937 0.00252
23.00000 381.00000 390.68453 0.00262
23.02000 352.00000 381.03914 0.00284
23.04000 396.00000 372.19694 0.00253
23.06000 330.00000 364.15023 0.00303
23.08000 369.00000 356.88248 0.00271
23.10000 332.00000 350.37109 0.00301
23.12000 329.00000 344.59041 0.00304
23.14000 311.00000 339.51223 0.00322
23.16000 324.00000 335.09740 0.00309
23.18000 339.00000 331.31185 0.00295
23.20000 358.00000 328.13443 0.00279
23.22000 307.00000 325.54089 0.00326
23.24000 313.00000 323.51193 0.00319
23.26000 326.00000 322.03284 0.00307
23.28000 352.00000 321.06652 0.00284
23.30000 339.00000 320.56952 0.00295
23.32000 343.00000 320.55149 0.00292
23.34000 356.00000 321.01761 0.00281
23.36000 308.00000 321.97257 0.00325
23.38000 334.00000 323.42050 0.00299
23.40000 346.00000 325.33294 0.00289
23.42000 340.00000 327.73208 0.00294
23.44000 341.00000 330.64634 0.00293
23.46000 347.00000 334.10123 0.00288
23.48000 337.00000 338.12274 0.00297
23.50000 338.00000 342.72102 0.00296
23.52000 381.00000 347.94319 0.00262
23.54000 373.00000 353.83098 0.00268
23.56000 366.00000 360.42726 0.00273
23.58000 372.00000 367.77785 0.00269
23.60000 390.00000 375.93093 0.00256
23.62000 409.00000 384.93589 0.00244
23.64000 396.00000 394.84272 0.00253
23.66000 395.00000 405.70457 0.00253
23.68000 417.00000 417.57225 0.00240
23.70000 436.00000 430.48689 0.00229
23.72000 396.00000 444.48667 0.00253
23.74000 471.00000 459.60192 0.00212
23.76000 494.00000 475.85134 0.00202
23.78000 519.00000 493.23815 0.00193
23.80000 562.00000 511.74552 0.00178
23.82000 506.00000 531.33144 0.00198
23.84000 568.00000 551.92362 0.00176
23.86000 570.00000 573.41508 0.00175
23.88000 587.00000 595.66218 0.00170
23.90000 667.00000 618.48693 0.00150
23.92000 661.00000 641.68620 0.00151
23.94000 696.00000 665.04985 0.00144
23.96000 723.00000 688.38847 0.00138
23.98000 760.00000 711.56822 0.00132
24.00000 754.00000 734.54666 0.00133
24.02000 795.00000 757.39982 0.00126
24.04000 781.00000 780.33047 0.00128
24.06000 772.00000 803.65097 0.00130
24.08000 789.00000 827.74141 0.00127
24.10000 839.00000 852.99080 0.00119
24.12000 863.00000 879.73323 0.00116
24.14000 927.00000 908.18959 0.00108
24.16000 948.00000 938.42133 0.00105
24.18000 962.00000 970.29705 0.00104
24.20000 984.00000 1003.46997 0.00102
24.22000 1011.00000 1037.36383 0.00099
24.24000 1067.00000 1071.16721 0.00094
24.26000 1097.00000 1103.84000 0.00091
24.28000 1141.00000 1134.14003 0.00088
24.30000 1189.00000 1160.68057 0.00084
24.32000 1257.00000 1182.02807 0.00080
24.34000 1213.00000 1196.84254 0.00082
24.36000 1231.00000 1204.05403 0.00081
24.38000 1176.00000 1203.04029 0.00085
24.40000 1268.00000 1193.76347 0.00079
24.42000 1138.00000 1176.82416 0.00088
24.44000 1131.00000 1153.40585 0.00088
24.46000 1110.00000 1125.11981 0.00090
24.48000 1120.00000 1093.79244 0.00089
24.50000 1082.00000 1061.25102 0.00092
24.52000 991.00000 1029.15418 0.00101
24.54000 996.00000 998.88920 0.00100
24.56000 993.00000 971.53401 0.00101
24.58000 921.00000 947.86685 0.00109
24.60000 857.00000 928.40259 0.00117
24.62000 881.00000 913.43809 0.00114
24.64000 870.00000 903.09531 0.00115
24.66000 900.00000 897.35621 0.00111
24.68000 846.00000 896.08768 0.00118
24.70000 871.00000 899.05682 0.00115
24.72000 889.00000 905.93773 0.00112
24.74000 873.00000 916.31140 0.00115
24.76000 927.00000 929.66036 0.00108
24.78000 952.00000 945.35996 0.00105
24.80000 992.00000 962.66909 0.00101
24.82000 1021.00000 980.72413 0.00098
24.84000 1005.00000 998.54095 0.00100
24.86000 1048.00000 1015.03053 0.00095
24.88000 1003.00000 1029.04266 0.00100
24.90000 1066.00000 1039.43708 0.00094
24.92000 997.00000 1045.17746 0.00100
24.94000 1091.00000 1045.44960 0.00092
24.96000 979.00000 1039.77659 0.00102
24.98000 985.00000 1028.10236 0.00102
25.00000 1021.00000 1010.81649 0.00098
25.02000 989.00000 988.70695 0.00101
25.04000 958.00000 962.84989 0.00104
25.06000 900.00000 934.46516 0.00111
25.08000 918.00000 904.77378 0.00109
25.10000 870.00000 874.88635 0.00115
25.12000 831.00000 845.73636 0.00120
25.14000 817.00000 818.05636 0.00122
25.16000 786.00000 792.38549 0.00127
25.18000 753.00000 769.09699 0.00133
25.20000 730.00000 748.43618 0.00137
25.22000 700.00000 730.55072 0.00143
25.24000 719.00000 715.52408 0.00139
25.26000 688.00000 703.40099 0.00145
25.28000 662.00000 694.20713 0.00151
25.30000 695.00000 687.96557 0.00144
25.32000 646.00000 684.70942 0.00155
25.34000 681.00000 684.49118 0.00147
25.36000 643.00000 687.38914 0.00156
25.38000 660.00000 693.51024 0.00152
25.40000 723.00000 702.98898 0.00138
25.42000 717.00000 715.98187 0.00139
25.44000 701.00000 732.65739 0.00143
25.46000 791.00000 753.17846 0.00126
25.48000 799.00000 777.66988 0.00125
25.50000 857.00000 806.20752 0.00117
25.52000 887.00000 838.80009 0.00113
25.54000 879.00000 875.33694 0.00114
25.56000 895.00000 915.56112 0.00112
25.58000 930.00000 959.03773 0.00108
25.60000 1000.00000 1005.12312 0.00100
25.62000 1108.00000 1052.94256 0.00090
25.64000 1102.00000 1101.39110 0.00091
25.66000 1169.00000 1149.18357 0.00086
25.68000 1223.00000 1194.98566 0.00082
25.70000 1230.00000 1237.65272 0.00081
25.72000 1273.00000 1276.56638 0.00079
25.74000 1310.00000 1311.87358 0.00076
25.76000 1330.00000 1344.52705 0.00075
25.78000 1332.00000 1375.98159 0.00075
25.80000 1380.00000 1407.90736 0.00072
25.82000 1404.00000 1441.68873 0.00071
25.84000 1471.00000 1478.13788 0.00068
25.86000 1521.00000 1517.36378 0.00066
25.88000 1506.00000 1558.76447 0.00066
25.90000 1514.00000 1601.07468 0.00066
25.92000 1600.00000 1642.43742 0.00063
25.94000 1669.00000 1680.50198 0.00060
25.96000 1671.00000 1712.57102 0.00060
25.98000 1746.00000 1735.82137 0.00057
26.00000 1787.00000 1747.60719 0.00056
26.02000 1807.00000 1745.82210 0.00055
26.04000 1710.00000 1729.25512 0.00058
26.06000 1741.00000 1697.83525 0.00057
26.08000 1647.00000 1652.69120 0.00061
26.10000 1619.00000 1595.97831 0.00062
26.12000 1536.00000 1530.52306 0.00065
26.14000 1449.00000 1459.39288 0.00069
26.16000 1370.00000 1385.51053 0.00073
26.18000 1318.00000 1311.39044 0.00076
26.20000 1224.00000 1239.01592 0.00082
26.22000 1190.00000 1169.83021 0.00084
26.24000 1139.00000 1104.79752 0.00088
26.26000 1098.00000 1044.49319 0.00091
26.28000 1037.00000 989.19590 0.00096
26.30000 910.00000 938.96810 0.00110
26.32000 868.00000 893.71955 0.00115
26.34000 894.00000 853.25391 0.00112
26.36000 818.00000 817.31106 0.00122
26.38000 772.00000 785.58976 0.00130
26.40000 751.00000 757.76806 0.00133
26.42000 750.00000 733.51899 0.00133
26.44000 715.00000 712.52217 0.00140
26.46000 704.00000 694.47257 0.00142
26.48000 691.00000 679.08697 0.00145
26.50000 717.00000 666.10843 0.00139
26.52000 678.00000 655.30908 0.00147
26.54000 639.00000 646.49140 0.00156
26.56000 622.00000 639.48838 0.00161
26.58000 654.00000 634.16270 0.00153
26.60000 645.00000 630.40532 0.00155
26.62000 613.00000 628.13457 0.00163
26.64000 642.00000 627.29278 0.00156
26.66000 611.00000 627.82540 0.00164
26.68000 646.00000 629.68492 0.00155
26.70000 646.00000 632.87609 0.00155
26.72000 614.00000 637.39757 0.00163
26.74000 617.00000 643.25064 0.00162
26.76000 633.00000 650.43868 0.00158
26.78000 680.00000 658.96346 0.00147
26.80000 733.00000 668.82122 0.00136
26.82000 687.00000 679.99847 0.00146
26.84000 667.00000 692.46749 0.00150
26.86000 714.00000 706.18136 0.00140
26.88000 683.00000 721.06849 0.00146
26.90000 704.00000 737.02679 0.00142
26.92000 721.00000 753.91758 0.00139
26.94000 779.00000 771.56003 0.00128
26.96000 761.00000 789.72701 0.00131
26.98000 802.00000 808.14429 0.00125
27.00000 851.00000 826.49534 0.00118
27.02000 801.00000 844.43475 0.00125
27.04000 864.00000 861.61292 0.00116
27.06000 863.00000 877.71347 0.00116
27.08000 887.00000 892.50171 0.00113
27.10000 900.00000 905.87848 0.00111
27.12000 927.00000 917.92959 0.00108
27.14000 925.00000 928.95915 0.00108
27.16000 923.00000 939.49756 0.00108
27.18000 981.00000 950.28161 0.00102
27.20000 994.00000 962.21244 0.00101
27.22000 1042.00000 976.30335 0.00096
27.24000 1055.00000 993.63036 0.00095
27.26000 1099.00000 1015.29478 0.00091
27.28000 1147.00000 1042.40069 0.00087
27.30000 1175.00000 1076.04514 0.00085
27.32000 1222.00000 1117.31353 0.00082
27.34000 1271.00000 1167.26747 0.00079
27.36000 1344.00000 1226.94048 0.00074
27.38000 1405.00000 1297.33838 0.00071
27.40000 1520.00000 1379.38657 0.00066
27.42000 1620.00000 1473.89460 0.00062
27.44000 1617.00000 1581.50420 0.00062
27.46000 1765.00000 1702.62409 0.00057
27.48000 1838.00000 1837.35327 0.00054
27.50000 2008.00000 1985.39248 0.00050
27.52000 2145.00000 2145.94302 0.00047
27.54000 2269.00000 2317.59242 0.00044
27.56000 2417.00000 2498.18594 0.00041
27.58000 2545.00000 2684.68547 0.00039
27.60000 2736.00000 2873.02468 0.00037
27.62000 2918.00000 3057.98188 0.00034
27.64000 3090.00000 3233.11445 0.00032
27.66000 3270.00000 3390.82922 0.00031
27.68000 3403.00000 3522.68988 0.00029
27.70000 3541.00000 3620.06368 0.00028
27.72000 3634.00000 3675.14677 0.00028
27.74000 3807.00000 3682.26047 0.00026
27.76000 3710.00000 3639.11088 0.00027
27.78000 3618.00000 3547.56867 0.00028
27.80000 3545.00000 3413.59772 0.00028
27.82000 3387.00000 3246.27283 0.00030
27.84000 3239.00000 3056.21213 0.00031
27.86000 2892.00000 2853.95816 0.00035
27.88000 2777.00000 2648.75809 0.00036
27.90000 2559.00000 2447.92598 0.00039
27.92000 2288.00000 2256.71694 0.00044
27.94000 2101.00000 2078.52290 0.00048
27.96000 1888.00000 1915.20394 0.00053
27.98000 1715.00000 1767.43402 0.00058
28.00000 1613.00000 1635.00700 0.00062
28.02000 1433.00000 1517.09399 0.00070
28.04000 1382.00000 1412.46243 0.00072
28.06000 1242.00000 1319.66782 0.00081
28.08000 1169.00000 1237.21793 0.00086
28.10000 1092.00000 1163.69796 0.00092
28.12000 1035.00000 1097.84207 0.00097
28.14000 991.00000 1038.54917 0.00101
28.16000 958.00000 984.86010 0.00104
28.18000 918.00000 935.92518 0.00109
28.20000 832.00000 890.98712 0.00120
28.22000 819.00000 849.38727 0.00122
28.24000 743.00000 810.58643 0.00135
28.26000 702.00000 774.18369 0.00142
28.28000 715.00000 739.91946 0.00140
28.30000 695.00000 707.65768 0.00144
28.32000 673.00000 677.35202 0.00149
28.34000 648.00000 649.00628 0.00154
28.36000 549.00000 622.63915 0.00182
28.38000 544.00000 598.25949 0.00184
28.40000 520.00000 575.85334 0.00192
28.42000 533.00000 555.38030 0.00188
28.44000 499.00000 536.77572 0.00200
28.46000 490.00000 519.95552 0.00204
28.48000 508.00000 504.82122 0.00197
28.50000 478.00000 491.26409 0.00209
28.52000 470.00000 479.16784 0.00213
28.54000 428.00000 468.40991 0.00234
28.56000 463.00000 458.86153 0.00216
28.58000 440.00000 450.38676 0.00227
28.60000 430.00000 442.84099 0.00233
28.62000 443.00000 436.06900 0.00226
28.64000 434.00000 429.90355 0.00230
28.66000 441.00000 424.16519 0.00227
28.68000 437.00000 418.66477 0.00229
28.70000 398.00000 413.21023 0.00251
28.72000 392.00000 407.61886 0.00255
28.74000 404.00000 401.73473 0.00248
28.76000 437.00000 395.44851 0.00229
28.78000 408.00000 388.71387 0.00245
28.80000 434.00000 381.55409 0.00230
28.82000 408.00000 374.05488 0.00245
28.84000 359.00000 366.34476 0.00279
28.86000 379.00000 358.56972 0.00264
28.88000 380.00000 350.86977 0.00263
28.90000 371.00000 343.36281 0.00270
28.92000 345.00000 336.13728 0.00290
28.94000 328.00000 329.25155 0.00305
28.96000 326.00000 322.73731 0.00307
28.98000 322.00000 316.60466 0.00311
29.00000 320.00000 310.84739 0.00313
29.02000 316.00000 305.44808 0.00316
29.04000 294.00000 300.38282 0.00340
29.06000 305.00000 295.62576 0.00328
29.08000 313.00000 291.15294 0.00319
29.10000 274.00000 286.94499 0.00365
29.12000 303.00000 282.98815 0.00330
29.14000 267.00000 279.27353 0.00375
29.16000 294.00000 275.79524 0.00340
29.18000 273.00000 272.54825 0.00366
29.20000 269.00000 269.52613 0.00372
29.22000 254.00000 266.72201 0.00394
29.24000 235.00000 264.12744 0.00426
29.26000 245.00000 261.73261 0.00408
29.28000 270.00000 259.52683 0.00370
29.30000 269.00000 257.49886 0.00372
29.32000 252.00000 255.63706 0.00397
29.34000 275.00000 253.92948 0.00364
29.36000 239.00000 252.36390 0.00418
29.38000 255.00000 250.92794 0.00392
29.40000 248.00000 249.60916 0.00403
29.42000 252.00000 248.39536 0.00397
29.44000 256.00000 247.27495 0.00391
29.46000 265.00000 246.23738 0.00377
29.48000 236.00000 245.27302 0.00424
29.50000 261.00000 244.36947 0.00383
29.52000 252.00000 243.51644 0.00397
29.54000 255.00000 242.76959 0.00392
29.56000 234.00000 242.19729 0.00427
29.58000 241.00000 241.76131 0.00415
29.60000 280.00000 241.47378 0.00357
29.62000 274.00000 241.36149 0.00365
29.64000 249.00000 241.45350 0.00402
29.66000 220.00000 241.78009 0.00455
29.68000 242.00000 242.37193 0.00413
29.70000 234.00000 243.25933 0.00427
29.72000 242.00000 244.47147 0.00413
29.74000 231.00000 246.03663 0.00433
29.76000 240.00000 247.98124 0.00417
29.78000 241.00000 250.32930 0.00415
29.80000 258.00000 253.10163 0.00388
29.82000 276.00000 256.31489 0.00362
29.84000 265.00000 259.98041 0.00377
29.86000 294.00000 264.10266 0.00340
29.88000 318.00000 268.67759 0.00314
29.90000 308.00000 273.69053 0.00325
29.92000 291.00000 279.11389 0.00344
29.94000 264.00000 284.90450 0.00379
29.96000 309.00000 291.00072 0.00324
29.98000 311.00000 297.31945 0.00322
30.00000 304.00000 303.75333 0.00329
30.02000 330.00000 310.16866 0.00303
30.04000 317.00000 316.40484 0.00315
30.06000 303.00000 322.27640 0.00330
30.08000 305.00000 327.57860 0.00328
30.10000 326.00000 332.09785 0.00307
30.12000 350.00000 335.62694 0.00286
30.14000 361.00000 337.98415 0.00277
30.16000 319.00000 339.03374 0.00313
30.18000 345.00000 338.70381 0.00290
30.20000 327.00000 336.99770 0.00306
30.22000 331.00000 333.99577 0.00302
30.24000 313.00000 329.84728 0.00319
30.26000 316.00000 324.75416 0.00316
30.28000 309.00000 318.95030 0.00324
30.30000 314.00000 312.68047 0.00318
30.32000 297.00000 306.18189 0.00337
30.34000 301.00000 299.67046 0.00332
30.36000 274.00000 293.33207 0.00365
30.38000 285.00000 287.31877 0.00351
30.40000 295.00000 281.74834 0.00339
30.42000 264.00000 276.70640 0.00379
30.44000 242.00000 272.24953 0.00413
30.46000 250.00000 268.40883 0.00400
30.48000 235.00000 265.19343 0.00426
30.50000 244.00000 262.59357 0.00410
30.52000 236.00000 260.58309 0.00424
30.54000 270.00000 259.12097 0.00370
30.56000 250.00000 258.15150 0.00400
30.58000 273.00000 257.60274 0.00366
30.60000 232.00000 257.38356 0.00431
30.62000 252.00000 257.38013 0.00397
30.64000 269.00000 257.45339 0.00372
30.66000 239.00000 257.43984 0.00418
30.68000 251.00000 257.15848 0.00398
30.70000 263.00000 256.42704 0.00380
30.72000 264.00000 255.08820 0.00379
30.74000 275.00000 253.03918 0.00364
30.76000 245.00000 250.27145 0.00408
30.78000 264.00000 246.92788 0.00379
30.80000 228.00000 243.16413 0.00439
30.82000 228.00000 239.17978 0.00439
30.84000 210.00000 235.17844 0.00476
30.86000 200.00000 231.33824 0.00500
30.88000 249.00000 227.79226 0.00402
30.90000 236.00000 224.62456 0.00424
30.92000 209.00000 221.85523 0.00478
30.94000 239.00000 219.50899 0.00418
30.96000 203.00000 217.84314 0.00493
30.98000 232.00000 216.67670 0.00431
31.00000 224.00000 215.97710 0.00446
31.02000 240.00000 215.67891 0.00417
31.04000 249.00000 215.73415 0.00402
31.06000 216.00000 216.09297 0.00463
31.08000 231.00000 216.70700 0.00433
31.10000 207.00000 217.53224 0.00483
31.12000 187.00000 218.53098 0.00535
31.14000 233.00000 219.67267 0.00429
31.16000 239.00000 220.93350 0.00418
31.18000 249.00000 222.29458 0.00402
31.20000 243.00000 223.73934 0.00412
31.22000 229.00000 225.25034 0.00437
31.24000 246.00000 226.80648 0.00407
31.26000 195.00000 228.38074 0.00513
31.28000 232.00000 229.93908 0.00431
31.30000 280.00000 231.44022 0.00357
31.32000 234.00000 232.83654 0.00427
31.34000 245.00000 234.07597 0.00408
31.36000 248.00000 235.10470 0.00403
31.38000 209.00000 235.87072 0.00478
31.40000 229.00000 236.32782 0.00437
31.42000 243.00000 236.43955 0.00412
31.44000 229.00000 236.18245 0.00437
31.46000 236.00000 235.54740 0.00424
31.48000 233.00000 234.53326 0.00429
31.50000 260.00000 233.16875 0.00385
31.52000 236.00000 231.58550 0.00424
31.54000 247.00000 229.77260 0.00405
31.56000 241.00000 227.78730 0.00415
31.58000 221.00000 225.67689 0.00452
31.60000 222.00000 223.49158 0.00450
31.62000 209.00000 221.27378 0.00478
31.64000 220.00000 219.05598 0.00455
31.66000 209.00000 216.85967 0.00478
31.68000 228.00000 214.69447 0.00439
31.70000 221.00000 212.55621 0.00452
31.72000 200.00000 210.41159 0.00500
31.74000 181.00000 208.25595 0.00552
31.76000 207.00000 206.29839 0.00483
31.78000 215.00000 204.35453 0.00465
31.80000 204.00000 202.43713 0.00490
31.82000 223.00000 200.52235 0.00448
31.84000 193.00000 198.60880 0.00518
31.86000 177.00000 196.70039 0.00565
31.88000 199.00000 194.80613 0.00503
31.90000 188.00000 192.93904 0.00532
31.92000 192.00000 191.11462 0.00521
31.94000 178.00000 189.34893 0.00562
31.96000 180.00000 187.65640 0.00556
31.98000 179.00000 186.04784 0.00559
32.00000 189.00000 184.52739 0.00529
32.02000 178.00000 183.07847 0.00562
32.04000 177.00000 181.65648 0.00565
32.06000 180.00000 180.36359 0.00556
32.08000 158.00000 179.50283 0.00633
32.10000 180.00000 178.83965 0.00556
32.12000 184.00000 178.33832 0.00543
32.14000 171.00000 178.00024 0.00585
32.16000 189.00000 177.82585 0.00529
32.18000 203.00000 177.81473 0.00493
32.20000 191.00000 177.96575 0.00524
32.22000 169.00000 178.27703 0.00592
32.24000 179.00000 178.74592 0.00559
32.26000 170.00000 179.36898 0.00588
32.28000 171.00000 180.14193 0.00585
32.30000 185.00000 181.05953 0.00541
32.32000 203.00000 182.11553 0.00493
32.34000 191.00000 183.30239 0.00524
32.36000 184.00000 184.61094 0.00543
32.38000 182.00000 186.02985 0.00549
32.40000 185.00000 187.54501 0.00541
32.42000 208.00000 189.13894 0.00481
32.44000 225.00000 190.79024 0.00444
32.46000 191.00000 192.47329 0.00524
32.48000 181.00000 194.15820 0.00552
32.50000 199.00000 195.81102 0.00503
32.52000 206.00000 197.39461 0.00485
32.54000 194.00000 198.86982 0.00515
32.56000 217.00000 200.19725 0.00461
32.58000 214.00000 201.33931 0.00467
32.60000 211.00000 202.26275 0.00474
32.62000 205.00000 202.94112 0.00488
32.64000 188.00000 203.35706 0.00532
32.66000 166.00000 203.50395 0.00602
32.68000 209.00000 203.38670 0.00478
32.70000 203.00000 203.02133 0.00493
32.72000 198.00000 202.43353 0.00505
32.74000 215.00000 201.65629 0.00465
32.76000 200.00000 200.72681 0.00500
32.78000 184.00000 199.68304 0.00543
32.80000 186.00000 198.55991 0.00538
32.82000 206.00000 197.38493 0.00485
32.84000 192.00000 196.17226 0.00521
32.86000 193.00000 194.90867 0.00518
32.88000 193.00000 193.48785 0.00518
32.90000 174.00000 191.84863 0.00575
32.92000 181.00000 190.76532 0.00552
32.94000 213.00000 190.19312 0.00469
32.96000 198.00000 189.89997 0.00505
32.98000 211.00000 189.75743 0.00474
33.00000 182.00000 189.76163 0.00549
33.02000 187.00000 189.91118 0.00535
33.04000 172.00000 190.20286 0.00581
33.06000 171.00000 190.63230 0.00585
33.08000 205.00000 191.19496 0.00488
33.10000 211.00000 191.88721 0.00474
33.12000 206.00000 192.70731 0.00485
33.14000 180.00000 193.65595 0.00556
33.16000 170.00000 194.73595 0.00588
33.18000 197.00000 195.95123 0.00508
33.20000 209.00000 197.30535 0.00478
33.22000 199.00000 198.80018 0.00503
33.24000 198.00000 200.43484 0.00505
33.26000 204.00000 202.20526 0.00490
33.28000 221.00000 204.10390 0.00452
33.30000 231.00000 206.11965 0.00433
33.32000 213.00000 208.23784 0.00469
33.34000 224.00000 210.44019 0.00446
33.36000 236.00000 212.70470 0.00424
33.38000 219.00000 215.00568 0.00457
33.40000 204.00000 217.31369 0.00490
33.42000 225.00000 219.59571 0.00444
33.44000 205.00000 221.81550 0.00488
33.46000 245.00000 223.93435 0.00408
33.48000 228.00000 225.91245 0.00439
33.50000 210.00000 227.71090 0.00476
33.52000 205.00000 229.29461 0.00488
33.54000 221.00000 230.63587 0.00452
33.56000 236.00000 231.71824 0.00424
33.58000 236.00000 232.54040 0.00424
33.60000 243.00000 233.11895 0.00412
33.62000 243.00000 233.48968 0.00412
33.64000 244.00000 233.70680 0.00410
33.66000 253.00000 233.83992 0.00395
33.68000 262.00000 233.96945 0.00382
33.70000 219.00000 234.18092 0.00457
33.72000 217.00000 234.55926 0.00461
33.74000 222.00000 235.18358 0.00450
33.76000 196.00000 236.12303 0.00510
33.78000 230.00000 237.43374 0.00435
33.80000 242.00000 239.15679 0.00413
33.82000 267.00000 241.31685 0.00375
33.84000 261.00000 243.92117 0.00383
33.86000 270.00000 246.95916 0.00370
33.88000 241.00000 250.40302 0.00415
33.90000 232.00000 254.20478 0.00431
33.92000 272.00000 258.29777 0.00368
33.94000 265.00000 262.59756 0.00377
33.96000 266.00000 267.00157 0.00376
33.98000 273.00000 271.39589 0.00366

_cod_database_fobs_code 2108945
