#------------------------------------------------------------------------------
#$Date: 2022-05-12 04:39:41 +0300 (Thu, 12 May 2022) $
#$Revision: 275356 $
#$URL: file:///home/coder/svn-repositories/cod/cif/2/10/89/2108969.cif $
#------------------------------------------------------------------------------
#
# This file is available in the Crystallography Open Database (COD),
# http://www.crystallography.net/. The original data for this entry
# were provided by IUCr Journals, http://journals.iucr.org/.
#
# The file may be used within the scientific community so long as
# proper attribution is given to the journal article from which the
# data were obtained.
#
data_2108969
loop_
_publ_author_name
'Aree, Thammarat'
'McMonagle, Charles J.'
'Michalchuk, Adam A. L.'
'Chernyshov, Dmitry'
_publ_section_title
;
 Low-frequency lattice vibrations from atomic displacement parameters of
 \a-FOX-7, a high energy density material
;
_journal_coeditor_code           WU5002
_journal_issue                   3
_journal_name_full               'Acta Crystallographica Section B'
_journal_page_first
;
;
_journal_paper_doi               10.1107/S2052520622002700
_journal_volume                  78
_journal_year                    2022
_chemical_formula_moiety         'C2 H4 N4 O4'
_chemical_formula_sum            'C2 H4 N4 O4'
_chemical_formula_weight         148.079
_chemical_name_systematic        1,1-Diamino-2,2-dinitroethylene
_space_group_crystal_system      monoclinic
_space_group_IT_number           14
_space_group_name_Hall           '-P 2yn'
_space_group_name_H-M_alt        'P 1 21/n 1'
_atom_sites_solution_primary     notdet
_audit_creation_method
;
Olex2 1.3
(compiled 2020.11.12 svn.r5f609507 for OlexSys, GUI svn.r6408)
;
_cell_angle_alpha                90
_cell_angle_beta                 90.4987(13)
_cell_angle_gamma                90
_cell_formula_units_Z            4
_cell_length_a                   6.91650(10)
_cell_length_b                   6.50720(10)
_cell_length_c                   11.2575(2)
_cell_measurement_reflns_used    2136
_cell_measurement_temperature    120
_cell_measurement_theta_max      32.7980
_cell_measurement_theta_min      2.8130
_cell_volume                     506.648(14)
_computing_cell_refinement
;
CrysAlisPro 1.171.40.67a (Rigaku OD, 2019)
;
_computing_data_collection
;
CrysAlisPro 1.171.40.67a (Rigaku OD, 2019)
;
_computing_data_reduction
;
CrysAlisPro 1.171.40.67a (Rigaku OD, 2019)
;
_computing_molecular_graphics
;
Olex2 1.3 (Dolomanov <i>et al.</i>,  2009)
;
_computing_publication_material
;
Olex2 1.3 (Dolomanov <i>et al.</i>,  2009)
;
_computing_structure_refinement
;
olex2.refine 1.3 (Bourhis <i>et al.</i>,  2015)
;
_diffrn_ambient_temperature      120.0
_diffrn_detector                 'Hybrid Pixel Array Detector'
_diffrn_detector_area_resol_mean 5.8140
_diffrn_measured_fraction_theta_full 0.8936
_diffrn_measured_fraction_theta_max 0.6639
_diffrn_measurement_device       'one-circle diffractometer'
_diffrn_measurement_device_type  'BM01 ESRF 2M 20210501'
_diffrn_measurement_method       '\w scans'
_diffrn_radiation_monochromator  'silicon 111'
_diffrn_radiation_probe          x-ray
_diffrn_radiation_type           synchrotron
_diffrn_radiation_wavelength     0.66418
_diffrn_reflns_av_R_equivalents  0.0146
_diffrn_reflns_av_unetI/netI     0.0182
_diffrn_reflns_limit_h_max       11
_diffrn_reflns_limit_h_min       -11
_diffrn_reflns_limit_k_max       10
_diffrn_reflns_limit_k_min       -10
_diffrn_reflns_limit_l_max       13
_diffrn_reflns_limit_l_min       -13
_diffrn_reflns_number            4699
_diffrn_reflns_theta_full        23.4849
_diffrn_reflns_theta_max         32.88
_diffrn_reflns_theta_min         3.22
_diffrn_source
;
European Synchrotron Radiation Facility (ESRF), BM01 - The Swiss-Norwegian
Beamlines
;
_exptl_absorpt_coefficient_mu    0.155
_exptl_absorpt_correction_T_max  1.00000
_exptl_absorpt_correction_T_min  0.63230
_exptl_absorpt_correction_type   multi-scan
_exptl_absorpt_process_details
;
CrysAlisPro 1.171.40.67a (Rigaku OD, 2019)
Empirical absorption correction using spherical harmonics,
implemented in SCALE3 ABSPACK scaling algorithm.
;
_exptl_crystal_colour            'clear yellow'
_exptl_crystal_density_diffrn    1.941
_exptl_crystal_description       block
_exptl_crystal_F_000             304.164
_exptl_crystal_size_max          0.2
_exptl_crystal_size_mid          0.1
_exptl_crystal_size_min          0.1
_refine_diff_density_max         0.2129
_refine_diff_density_min         -0.2238
_refine_ls_goodness_of_fit_ref   1.0408
_refine_ls_hydrogen_treatment    refall
_refine_ls_matrix_type           full
_refine_ls_number_constraints    0
_refine_ls_number_parameters     127
_refine_ls_number_reflns         1539
_refine_ls_number_restraints     93
_refine_ls_restrained_S_all      1.0081
_refine_ls_R_factor_all          0.0303
_refine_ls_R_factor_gt           0.0279
_refine_ls_shift/su_max          0.0001
_refine_ls_shift/su_mean         0.0000
_refine_ls_structure_factor_coef Fsqd
_refine_ls_weighting_details
'w=1/[\s^2^(Fo^2^)+(0.0386P)^2^+0.1667P] where P=(Fo^2^+2Fc^2^)/3'
_refine_ls_weighting_scheme      calc
_refine_ls_wR_factor_gt          0.0731
_refine_ls_wR_factor_ref         0.0748
_reflns_number_gt                1394
_reflns_number_total             1539
_reflns_threshold_expression     I>=2u(I)
_iucr_refine_instructions_details
;
TITL 080_a.res in P2(1)/n
REM Old TITL 080 in P2(1)/n
REM SHELXT solution in P2(1)/n: R1 0.095, Rweak 0.008, Alpha 0.021
REM <I/s> 0.719 for 71 systematic absences, Orientation as input
REM Formula found by SHELXT: C3 N2 O5
CELL 0.66418 6.9165 6.5072 11.2575 90 90.4987 90
ZERR 4 0.0001 0.0001 0.0002 0 0.0013 0
LATT 1
SYMM 0.5-X,0.5+Y,0.5-Z
SFAC C H N O
DISP C 0.0028 0.0014 9.9123
DISP H -0 0 0.6652
DISP N 0.0056 0.0029 16.5876
DISP O 0.0097 0.0054 27.0096
UNIT 8 16 16 16
RIGU O11 O12 O21 O22 N11 N12 N21 H21a H21b N22 H22a H22b C1 C2
L.S. 30
PLAN  5
TEMP -153.15
CONF
BOND
MORE -1
BOND $H
fmap 2
acta
LIST -6
OMIT -1 0 9
WGHT 0.038617 0.166737
FVAR 9.111494
REM <olex2.extras>
REM <HklSrc "%.\\120.hkl">
REM </olex2.extras>
O12   4     0.58066  0.69956  0.58105  11.00000  0.01071  0.02994  0.01132 =
 0.00456  0.00080 -0.00020
O11   4     0.52197  0.55566  0.75044  11.00000  0.01214  0.02329  0.00767 =
 0.00302 -0.00231  0.00164
O22   4     0.19504  0.66467  0.83676  11.00000  0.01354  0.03048  0.00429 =
 -0.00138 -0.00081 -0.00146
O21   4    -0.02034  0.55436  0.71293  11.00000  0.01219  0.02525  0.00779 =
 0.00036  0.00008 -0.00415
N12   3     0.14239  0.62514  0.73420  11.00000  0.01049  0.01723  0.00504 =
 -0.00005 -0.00066  0.00006
N11   3     0.46442  0.64208  0.65832  11.00000  0.00980  0.01766  0.00629 =
 0.00074 -0.00066  0.00021
N22   3    -0.00450  0.75484  0.51000  11.00000  0.01083  0.01999  0.00791 =
 0.00149 -0.00154  0.00050
H22a  2    -0.05337  0.80807  0.43170  11.00000  0.02283  0.06255  0.02017 =
 0.01902 -0.00568  0.00114
H22b  2    -0.09794  0.70054  0.56752  11.00000  0.01878  0.05459  0.02315 =
 0.01791  0.00178 -0.00136
N21   3     0.29806  0.80106  0.43832  11.00000  0.01281  0.02506  0.00759 =
 0.00353  0.00099  0.00016
H21a  2     0.24359  0.85330  0.36162  11.00000  0.02469  0.06768  0.01428 =
 0.01795 -0.00207  0.00356
H21b  2     0.44022  0.79847  0.44679  11.00000  0.01422  0.04829  0.02636 =
 0.01279  0.00074 -0.00057
C2    1     0.18554  0.74011  0.52568  11.00000  0.01108  0.01565  0.00511 =
 0.00032 -0.00137  0.00065
C1    1     0.26663  0.66729  0.63695  11.00000  0.00941  0.01756  0.00510 =
 0.00101 -0.00080  0.00037
HKLF 4
END
Q2 1 0.4 0.5 0.770833 11 0.05 0.19
Q1 1 -0.133333 0.5 0.75 11 0.05 0.21
Q4 1 0.033333 0.648148 0.833333 11 0.05 0.17
Q3 1 0.333333 0.685185 0.520833 11 0.05 0.19
Q5 1 0.233333 0.907407 0.229167 11 0.05 0.17
  REM The information below was added by Olex2.
  REM
  REM R1 = 0.0279 for 1394 Fo > 4sig(Fo) and 0.0303 for all 1539 data
  REM 127 parameters refined using 93 restraints
  REM Highest difference peak 0.2129, deepest hole -0.2238
  REM Mean Shift 0.0000, Max Shift 0.0001.
  REM +++ Tabular Listing of Refinement Information +++
  REM R1_all = 0.0303
  REM R1_gt = 0.0279
  REM wR_ref = 0.0748
  REM GOOF = 1.0408
  REM Shift_max = 0.0001
  REM Shift_mean = 0.0000
  REM Reflections_all = 1539
  REM Reflections_gt = 1394
  REM Parameters = 127
  REM Hole = -0.2238
  REM Peak = 0.2129
  REM Flack = n/a
;
_cod_data_source_file            wu5002sup1.cif
_cod_data_source_block           120
_cod_database_code               2108969
loop_
_space_group_symop_id
_space_group_symop_operation_xyz
1 x,y,z
2 -x+1/2,y+1/2,-z+1/2
3 -x,-y,-z
4 x-1/2,-y-1/2,z-1/2
loop_
_atom_site_type_symbol
_atom_site_label
_atom_site_fract_x
_atom_site_fract_y
_atom_site_fract_z
_atom_site_U_iso_or_equiv
_atom_site_adp_type
_atom_site_occupancy
O O12 0.58066(8) 0.69956(10) 0.58105(6) 0.01732(15) Uani 1.000000
O O11 0.52197(8) 0.55566(9) 0.75044(6) 0.01438(15) Uani 1.000000
O O22 0.19504(9) 0.66467(10) 0.83676(6) 0.01611(15) Uani 1.000000
O O21 -0.02034(8) 0.55436(9) 0.71293(6) 0.01508(15) Uani 1.000000
N N12 0.14239(9) 0.62514(9) 0.73420(6) 0.01092(15) Uani 1.000000
N N11 0.46442(9) 0.64208(10) 0.65832(6) 0.01126(15) Uani 1.000000
N N22 -0.00450(9) 0.75484(10) 0.51000(7) 0.01292(16) Uani 1.000000
H H22a -0.053(2) 0.808(3) 0.4317(14) 0.035(4) Uani 1.000000
H H22b -0.098(2) 0.701(3) 0.5675(15) 0.032(4) Uani 1.000000
N N21 0.29806(10) 0.80106(11) 0.43832(7) 0.01515(16) Uani 1.000000
H H21a 0.244(2) 0.853(3) 0.3616(13) 0.036(4) Uani 1.000000
H H21b 0.440(2) 0.798(3) 0.4468(15) 0.030(4) Uani 1.000000
C C2 0.18554(10) 0.74011(10) 0.52568(7) 0.01062(17) Uani 1.000000
C C1 0.26663(10) 0.66729(11) 0.63695(7) 0.01069(16) Uani 1.000000
loop_
_atom_site_aniso_label
_atom_site_aniso_U_11
_atom_site_aniso_U_22
_atom_site_aniso_U_33
_atom_site_aniso_U_12
_atom_site_aniso_U_13
_atom_site_aniso_U_23
O12 0.0107(3) 0.0299(3) 0.0113(4) -0.00020(19) 0.0008(2) 0.0046(2)
O11 0.0121(2) 0.0233(2) 0.0077(4) 0.00164(18) -0.0023(2) 0.0030(2)
O22 0.0135(3) 0.0305(3) 0.0043(3) -0.0015(2) -0.0008(2) -0.0014(2)
O21 0.0122(2) 0.0253(3) 0.0078(4) -0.00415(18) 0.0001(2) 0.0004(2)
N12 0.0105(3) 0.0172(2) 0.0050(4) 0.00006(19) -0.0007(3) -0.0001(2)
N11 0.0098(3) 0.0177(2) 0.0063(4) 0.00021(18) -0.0007(2) 0.0007(2)
N22 0.0108(3) 0.0200(3) 0.0079(4) 0.0005(2) -0.0015(3) 0.0015(2)
H22a 0.023(6) 0.063(11) 0.020(5) 0.001(4) -0.006(2) 0.019(3)
H22b 0.019(5) 0.055(10) 0.023(6) -0.001(3) 0.002(2) 0.018(4)
N21 0.0128(3) 0.0251(3) 0.0076(4) 0.0002(2) 0.0010(3) 0.0035(2)
H21a 0.025(6) 0.068(11) 0.014(5) 0.004(4) -0.002(3) 0.018(3)
H21b 0.014(3) 0.048(10) 0.026(8) -0.0006(18) 0.0007(17) 0.013(5)
C2 0.0111(3) 0.0157(3) 0.0051(4) 0.0006(2) -0.0014(3) 0.0003(2)
C1 0.0094(3) 0.0176(3) 0.0051(4) 0.0004(2) -0.0008(3) 0.0010(2)
loop_
_atom_type_symbol
_atom_type_scat_dispersion_source
_atom_type_scat_dispersion_real
_atom_type_scat_dispersion_imag
_atom_type_scat_source
H custom 0.00000 0.00000 'NoSpherA2: Chem.Sci. 2021, DOI:10.1039/D0SC05526C'
C custom 0.00280 0.00140 'NoSpherA2: Chem.Sci. 2021, DOI:10.1039/D0SC05526C'
O custom 0.00970 0.00540 'NoSpherA2: Chem.Sci. 2021, DOI:10.1039/D0SC05526C'
N custom 0.00560 0.00290 'NoSpherA2: Chem.Sci. 2021, DOI:10.1039/D0SC05526C'
loop_
_diffrn_refln_index_h
_diffrn_refln_index_k
_diffrn_refln_index_l
0 0 2
0 0 3
0 0 -3
0 0 -4
0 0 4
0 0 5
0 0 -5
0 0 -6
0 0 6
0 0 7
0 0 -7
0 0 -8
0 0 8
0 0 11
0 0 12
0 0 -12
0 -1 0
0 1 0
0 -1 -1
0 1 -1
0 1 1
0 1 -2
0 1 2
0 -1 2
0 -1 -2
0 1 3
0 -1 3
0 -1 -3
0 1 -3
0 -1 4
0 1 -4
0 1 4
0 -1 -4
0 1 -5
0 -1 5
0 1 5
0 -1 -6
0 1 6
0 1 -6
0 -1 -7
0 1 7
0 1 -8
0 -1 8
0 -1 9
0 1 -9
0 1 -10
0 -1 -10
0 -1 11
0 1 11
0 -1 -12
0 -1 12
0 1 12
0 1 -12
0 2 0
0 -2 0
0 2 1
0 -2 1
0 2 -1
0 -2 -1
0 2 2
0 -2 -2
0 2 3
0 -2 -3
0 -2 4
0 2 -4
0 -2 5
0 2 -5
0 2 -6
0 2 -7
0 -2 7
0 -2 -7
0 2 7
0 -2 -8
0 2 -8
0 -2 8
0 2 8
0 -2 -9
0 2 9
0 2 -9
0 -2 9
0 -2 10
0 2 10
0 -2 -10
0 2 -10
0 2 11
0 -2 11
0 2 12
0 2 -12
0 -3 0
0 3 0
0 -3 -1
0 3 1
0 3 -1
0 -3 1
0 3 -2
0 -3 2
0 3 2
0 -3 -2
0 3 -3
0 -3 3
0 -3 -3
0 3 3
0 -3 4
0 -3 -4
0 3 4
0 3 -4
0 -3 5
0 3 5
0 -3 -5
0 -3 -6
0 3 6
0 3 7
0 -3 -7
0 3 8
0 -3 -8
0 3 9
0 -3 -9
0 3 10
0 -3 -10
0 3 11
0 -3 -11
0 -3 12
0 3 12
0 -4 0
0 4 0
0 4 -1
0 -4 1
0 -4 -1
0 4 1
0 -4 -2
0 -4 2
0 4 2
0 4 -2
0 -4 3
0 4 -3
0 -4 -3
0 4 3
0 -4 -4
0 -4 4
0 4 -4
0 4 4
0 -4 -5
0 4 6
0 -4 -6
0 4 -7
0 -4 7
0 -4 -7
0 4 7
0 -4 8
0 4 -8
0 -4 9
0 4 -9
0 4 -10
0 -4 10
0 4 -11
0 -4 11
0 -4 12
0 5 0
0 -5 0
0 5 1
0 -5 1
0 5 -1
0 -5 -1
0 5 -2
0 5 2
0 -5 -2
0 -5 2
0 -5 -3
0 5 3
0 -5 3
0 5 -3
0 -5 4
0 5 -4
0 -5 -5
0 -5 5
0 5 5
0 5 -5
0 -5 -6
0 -5 6
0 5 6
0 5 -6
0 -5 7
0 5 7
0 5 -7
0 -5 -7
0 5 -8
0 5 8
0 -5 -8
0 -5 9
0 5 9
0 5 -9
0 -5 -9
0 -5 -10
0 5 10
0 5 -11
0 -5 11
0 -6 0
0 6 0
0 6 1
0 -6 -1
0 6 -1
0 -6 1
0 -6 2
0 6 -2
0 -6 -2
0 6 2
0 -6 -3
0 6 3
0 -6 -4
0 6 5
0 -6 -5
0 -6 5
0 6 6
0 -6 6
0 6 -6
0 -6 -6
0 6 -7
0 -6 7
0 -6 8
0 6 -8
0 6 -9
0 -6 9
0 6 9
0 -6 -9
0 6 -10
0 -6 10
0 6 10
0 -6 11
0 7 0
0 -7 0
0 7 -1
0 7 1
0 -7 -1
0 -7 1
0 7 -2
0 -7 -2
0 7 2
0 -7 2
0 7 3
0 -7 3
0 7 -3
0 -7 -4
0 7 4
0 7 -4
0 -7 4
0 7 5
0 -7 5
0 -7 -5
0 -7 -6
0 7 6
0 -7 6
0 7 -6
0 -7 -7
0 7 7
0 7 -8
0 -7 -8
0 -7 8
0 -7 9
0 7 9
0 7 -9
0 -7 -9
0 7 -10
0 -7 10
0 8 0
0 -8 0
0 -8 1
0 8 -1
0 -8 -1
0 8 1
0 8 2
0 8 -2
0 -8 2
0 -8 -2
0 -8 3
0 -8 -3
0 8 -3
0 -8 -4
0 -8 4
0 8 4
0 8 -4
0 8 5
0 -8 -5
0 8 -5
0 8 -6
0 8 6
0 -8 -6
0 -8 6
0 8 7
0 -8 -7
0 8 8
0 -8 -8
0 -8 8
0 8 -8
0 -8 9
0 8 -9
0 9 0
0 -9 0
0 -9 -1
0 9 -1
0 -9 1
0 9 1
0 9 -2
0 -9 2
0 9 2
0 9 3
0 -9 -3
0 -9 3
0 9 -3
0 9 -4
0 9 4
0 -9 -4
0 -9 4
0 9 5
0 -9 -5
0 9 -6
0 -9 -6
0 9 6
0 -9 7
0 9 -7
0 -9 8
0 9 -8
0 -10 2
0 10 -2
0 -10 3
0 10 -3
0 -10 4
0 10 4
0 -10 -4
0 -10 5
0 10 -5
0 10 5
0 -10 -5
-1 0 10
-1 0 9
1 0 -9
1 0 -8
-1 0 8
-1 0 7
1 0 -7
1 0 -1
-1 0 1
1 0 0
-1 0 0
1 0 1
-1 0 -1
1 0 2
-1 0 -2
-1 0 -3
1 0 3
1 0 4
-1 0 -4
1 0 6
1 0 7
-1 0 -7
1 0 8
-1 0 -8
1 0 9
-1 0 -9
1 0 10
-1 0 -10
1 0 11
-1 0 -11
-1 0 -12
1 0 12
1 0 13
-1 -1 12
1 1 -11
-1 -1 11
1 1 -10
-1 -1 10
-1 -1 9
-1 1 9
-1 -1 8
-1 1 8
1 1 -8
-1 1 7
1 1 -7
-1 1 6
1 1 -6
1 1 -5
-1 -1 5
-1 -1 4
-1 1 4
-1 -1 3
-1 1 3
1 -1 -3
1 1 -3
-1 -1 2
-1 1 2
1 1 -2
1 -1 -2
1 -1 -1
-1 -1 1
-1 1 1
1 1 -1
1 -1 0
-1 1 0
1 1 0
-1 -1 0
1 -1 1
-1 -1 -1
1 1 1
-1 1 -1
1 1 2
-1 1 -2
1 -1 2
-1 -1 -2
1 -1 3
-1 -1 -3
1 1 3
-1 1 -3
-1 1 -5
1 -1 5
1 -1 6
1 1 6
-1 -1 -6
-1 -1 -7
-1 1 -7
1 -1 7
1 1 7
1 1 8
-1 1 -8
-1 -1 -8
-1 -1 -9
1 -1 9
1 1 9
-1 1 -9
1 -1 10
1 1 10
-1 -1 -10
-1 1 -10
1 1 11
-1 -1 -11
1 -1 11
-1 -1 -12
1 1 12
1 -1 12
-1 -2 12
-1 2 11
1 -2 -11
-1 -2 11
-1 -2 10
1 -2 -10
1 2 -10
-1 2 10
1 2 -9
-1 2 9
-1 -2 9
-1 2 8
1 2 -8
1 -2 -8
-1 -2 8
-1 -2 7
1 2 -7
1 -2 -7
-1 2 7
-1 2 6
1 -2 -6
1 -2 -5
-1 2 5
-1 2 4
-1 2 3
1 -2 -3
1 -2 -2
-1 2 2
1 -2 -1
-1 2 1
1 2 2
-1 2 -2
-1 -2 -2
1 -2 2
1 2 3
-1 -2 -3
1 -2 3
-1 2 -3
1 2 4
1 -2 4
-1 -2 -4
-1 2 -4
-1 -2 -5
1 2 5
-1 2 -5
1 -2 5
-1 -2 -6
1 2 6
1 -2 6
1 2 7
1 -2 7
-1 2 -7
-1 -2 -7
1 -2 8
1 2 8
-1 2 -8
-1 -2 -8
1 -2 9
-1 2 -9
1 2 9
1 -2 10
1 2 10
-1 -2 -10
-1 2 -10
-1 -2 -11
1 2 11
1 -2 12
-1 -2 -12
1 2 12
-1 2 -12
1 -2 13
-1 -3 11
-1 3 11
1 3 -11
1 -3 -11
-1 -3 10
1 -3 -10
-1 3 10
1 3 -10
1 3 -9
-1 -3 9
-1 3 9
1 3 -8
1 -3 -8
-1 3 8
-1 -3 8
-1 3 7
1 -3 -7
-1 -3 7
1 3 -7
1 -3 -6
-1 -3 6
1 3 -6
-1 3 6
-1 -3 5
-1 3 5
1 3 -5
1 -3 -5
1 3 -4
-1 3 4
-1 -3 4
1 -3 -4
-1 -3 3
-1 3 3
1 3 -3
1 -3 -3
-1 -3 2
-1 3 2
1 3 -2
1 -3 -2
-1 3 1
1 3 -1
1 -3 -1
-1 -3 1
-1 -3 0
1 -3 0
-1 3 0
1 3 0
-1 -3 -1
1 3 1
-1 3 -1
-1 -3 -2
1 3 2
-1 3 -2
1 -3 2
1 -3 3
-1 3 -3
-1 -3 -3
1 3 3
1 3 4
-1 -3 -4
1 -3 4
-1 3 -4
1 -3 5
-1 -3 -5
1 3 5
-1 3 -5
1 -3 6
-1 -3 -6
1 3 7
-1 3 -7
-1 -3 -7
1 -3 7
1 3 8
-1 -3 -8
1 -3 9
-1 -3 -9
1 3 9
-1 3 -9
-1 3 -10
1 -3 10
1 3 11
-1 -3 -11
1 -3 11
-1 3 -11
-1 3 -12
1 3 12
1 -3 12
-1 4 11
1 4 -11
-1 4 10
1 -4 -10
-1 -4 10
1 4 -10
1 -4 -9
-1 -4 9
-1 4 9
1 4 -9
-1 -4 8
-1 4 8
1 4 -8
1 -4 -8
1 -4 -7
-1 4 7
-1 4 6
1 -4 -6
1 4 -5
1 -4 -5
-1 4 5
1 -4 -4
1 4 -4
-1 -4 4
-1 -4 3
-1 4 3
1 -4 -3
1 4 -3
1 -4 -2
-1 4 2
1 4 -2
-1 -4 2
-1 -4 1
-1 4 1
1 -4 -1
1 4 -1
1 4 0
1 -4 0
-1 -4 0
-1 4 0
1 4 1
1 -4 1
-1 4 -1
-1 -4 -1
-1 4 -2
1 -4 2
-1 -4 -2
1 4 2
-1 -4 -3
1 4 3
1 4 4
-1 4 -5
1 -4 5
1 -4 6
1 4 7
1 -4 7
-1 4 -7
1 -4 8
-1 4 -8
-1 -4 -8
1 4 8
1 4 9
-1 -4 -9
1 -4 9
-1 4 -9
-1 -4 -10
1 -4 10
-1 4 -10
1 4 10
-1 -4 -11
1 4 11
-1 -5 11
1 5 -10
-1 5 10
1 -5 -10
-1 -5 10
-1 5 9
1 5 -9
-1 -5 9
1 -5 -9
-1 -5 8
1 5 -8
-1 5 8
-1 -5 7
1 5 -7
1 -5 -7
-1 5 7
1 -5 -6
-1 5 6
1 5 -6
-1 -5 6
-1 5 5
1 5 -5
1 -5 -5
1 -5 -4
-1 -5 4
1 5 -4
-1 5 4
1 5 -3
-1 5 3
-1 -5 3
1 -5 -2
1 5 -2
-1 -5 2
-1 5 2
1 5 -1
-1 5 1
1 -5 -1
-1 -5 1
1 -5 0
-1 5 0
-1 -5 0
1 5 0
-1 5 -1
1 -5 1
-1 -5 -1
1 5 1
-1 5 -2
1 -5 2
-1 -5 -2
1 5 2
1 -5 3
1 5 3
-1 5 -3
-1 5 -4
1 -5 4
-1 -5 -4
1 5 4
1 -5 5
-1 5 -5
1 5 5
-1 -5 -5
-1 -5 -6
1 5 6
1 -5 6
1 -5 7
-1 -5 -7
-1 5 -7
1 5 7
-1 -5 -8
1 5 8
1 5 9
-1 5 -9
1 -5 9
-1 -5 -9
1 -5 10
1 5 10
-1 5 -10
-1 -5 -10
-1 5 -11
1 -5 11
1 -5 12
1 6 -10
-1 -6 10
-1 -6 9
1 6 -9
-1 6 9
1 -6 -9
1 -6 -8
-1 -6 8
-1 6 8
1 6 -8
-1 6 7
1 6 -7
1 -6 -7
-1 -6 7
-1 -6 6
-1 6 6
1 6 -6
1 -6 -5
-1 6 5
1 -6 -4
-1 6 4
1 -6 -3
-1 6 3
1 -6 -2
-1 6 2
1 6 -1
-1 -6 1
-1 6 1
1 -6 -1
-1 -6 0
1 6 0
-1 6 0
1 -6 0
1 -6 1
1 6 1
-1 6 -1
-1 -6 -1
1 6 2
-1 6 -4
1 -6 4
-1 6 -5
1 -6 5
-1 6 -6
-1 -6 -6
1 -6 6
1 6 6
-1 -6 -7
-1 6 -7
1 6 7
1 -6 7
-1 6 -8
1 -6 8
-1 -6 -8
1 6 8
1 -6 9
-1 6 -9
1 6 9
-1 -6 -9
1 6 10
-1 -6 -10
1 -6 11
-1 6 -11
-1 -7 10
1 7 -9
-1 -7 9
-1 7 8
-1 -7 8
1 -7 -8
1 7 -8
-1 7 7
1 -7 -7
1 7 -6
-1 -7 6
1 -7 -6
-1 7 6
1 7 -5
-1 7 5
-1 -7 5
1 -7 -5
-1 7 4
-1 -7 4
1 -7 -4
-1 7 3
-1 -7 3
1 7 -3
1 -7 -3
1 7 -2
-1 7 2
-1 -7 2
1 -7 -2
1 7 -1
-1 7 1
-1 -7 1
1 -7 -1
-1 7 0
1 -7 0
-1 -7 0
1 7 0
-1 -7 -1
1 7 1
1 -7 1
-1 7 -1
1 -7 2
1 7 2
-1 7 -2
-1 -7 -2
1 -7 3
1 7 3
-1 7 -3
-1 -7 -3
-1 -7 -4
1 -7 4
1 7 4
-1 7 -4
1 7 5
-1 7 -5
-1 -7 -5
1 -7 5
1 7 6
-1 -7 -6
1 -7 7
-1 7 -7
-1 -7 -7
1 7 7
1 -7 8
-1 7 -8
1 -7 9
-1 7 -9
1 7 9
-1 -7 -9
-1 7 -10
1 -7 10
1 -7 11
-1 -8 9
1 8 -9
1 8 -8
-1 -8 8
-1 8 7
1 -8 -7
1 8 -6
1 -8 -6
-1 8 6
-1 -8 6
1 -8 -5
-1 8 5
1 8 -5
-1 -8 5
1 -8 -4
-1 -8 4
1 8 -4
-1 8 4
1 -8 -3
-1 8 3
-1 -8 3
1 8 -3
-1 -8 2
1 -8 -2
1 8 -2
1 8 -1
1 -8 -1
-1 -8 1
-1 8 1
-1 8 0
1 8 0
1 -8 0
-1 -8 0
1 -8 1
1 8 1
-1 -8 -1
-1 8 -1
-1 -8 -2
-1 8 -2
1 -8 2
1 8 2
-1 8 -3
1 8 3
1 -8 3
1 -8 4
1 8 4
-1 8 -4
-1 -8 -4
1 -8 5
1 8 5
-1 8 -5
-1 -8 -6
1 8 6
1 -8 7
1 8 7
-1 -8 -7
-1 8 -7
1 -8 8
-1 8 -8
-1 8 -9
1 -8 9
1 9 -8
-1 -9 8
-1 -9 7
1 9 -7
-1 -9 6
1 9 -6
1 -9 -6
-1 9 6
1 -9 -5
-1 9 5
1 9 -4
1 -9 -4
-1 9 4
1 -9 -3
-1 9 3
-1 -9 3
1 9 -3
-1 9 2
-1 -9 2
1 9 -2
-1 -9 1
-1 9 1
1 9 -1
-1 -9 0
-1 9 0
1 -9 0
1 9 0
-1 -9 -1
-1 9 -1
1 -9 1
1 9 1
-1 9 -2
1 9 2
1 -9 2
-1 -9 -2
-1 9 -3
-1 -9 -3
1 -9 3
1 -9 4
-1 -9 -4
1 9 4
-1 9 -4
-1 -9 -5
1 9 5
-1 9 -6
1 -9 6
1 -9 7
-1 9 -7
-1 -9 -7
1 9 7
1 -9 9
-1 9 -9
1 10 -5
-1 -10 5
-1 -10 4
-1 10 4
-1 -10 3
-1 -10 2
1 10 -2
-1 -10 1
1 10 -1
-1 -10 0
1 10 0
-1 -10 -1
1 -10 1
1 10 1
-1 10 -2
1 -10 2
1 10 2
1 -10 3
-1 10 -3
-1 -10 -3
1 10 3
-1 10 -4
1 -10 4
-1 -10 -4
1 10 4
-1 -10 -5
1 10 5
2 0 -4
-2 0 4
2 0 -3
-2 0 3
-2 0 2
2 0 -2
-2 0 1
2 0 -1
-2 0 0
2 0 0
2 0 1
-2 0 -1
-2 0 -3
2 0 3
2 0 4
-2 0 -4
2 0 5
-2 0 -5
2 0 6
-2 0 -6
-2 0 -7
2 0 7
-2 0 -8
2 0 8
-2 0 -9
2 0 9
-2 0 -11
2 0 11
-2 0 -12
2 0 12
-2 0 -13
2 0 13
2 1 -8
-2 -1 8
2 1 -7
-2 -1 7
2 1 -6
-2 -1 6
2 1 -5
2 -1 -5
-2 -1 5
-2 -1 4
2 1 -4
-2 -1 3
2 -1 -3
2 1 -3
-2 1 3
-2 1 2
2 -1 -2
-2 -1 2
2 1 -2
-2 1 1
2 1 -1
-2 -1 1
2 -1 -1
2 -1 0
-2 -1 0
-2 1 0
2 1 0
2 -1 2
-2 1 -2
2 1 2
-2 -1 -2
2 -1 3
-2 -1 -3
-2 1 -3
2 1 3
-2 1 -4
2 1 4
-2 -1 -4
2 -1 4
2 -1 5
-2 1 -5
2 1 5
-2 -1 -5
-2 1 -6
2 -1 6
-2 -1 -6
2 1 6
2 -1 7
-2 1 -7
2 -1 8
2 1 8
-2 1 -8
-2 -1 -8
-2 -1 -9
2 -1 9
2 1 9
-2 1 -10
2 -1 10
2 1 11
2 -1 11
-2 -1 -11
2 1 12
2 -1 12
-2 1 -12
-2 -1 -12
-2 1 -13
2 1 13
2 -1 13
-2 -2 11
2 2 -11
2 2 -10
-2 -2 10
2 -2 -8
-2 2 8
-2 2 7
2 -2 -7
2 -2 -6
-2 2 6
-2 2 5
2 -2 -5
2 -2 -4
-2 2 3
2 2 -3
2 -2 -3
-2 -2 3
-2 -2 2
2 2 -2
-2 2 1
2 2 -1
2 -2 -1
-2 -2 1
2 -2 0
-2 2 0
2 2 0
-2 -2 0
-2 -2 -1
-2 2 -1
2 -2 1
2 2 1
2 -2 2
-2 -2 -2
2 2 2
-2 2 -2
2 -2 3
2 2 3
-2 2 -3
-2 -2 -3
-2 2 -4
2 -2 4
2 2 4
-2 -2 -4
2 -2 5
2 2 5
-2 2 -5
-2 -2 -5
2 -2 6
2 2 6
-2 2 -6
-2 -2 -6
-2 -2 -7
2 -2 7
-2 2 -7
2 2 7
2 2 8
-2 -2 -8
-2 2 -9
2 -2 9
2 2 10
2 -2 10
2 2 11
2 -2 11
-2 -2 -11
2 -2 12
2 2 12
-2 2 -12
-2 2 -13
2 2 13
2 -2 13
-2 -3 11
2 3 -11
-2 -3 10
-2 3 10
2 -3 -10
2 3 -10
2 3 -9
-2 -3 9
2 3 -8
-2 -3 8
-2 3 8
2 -3 -8
2 -3 -7
-2 3 7
-2 -3 7
2 -3 -6
2 3 -6
-2 3 6
-2 3 5
2 -3 -5
2 3 -5
-2 -3 5
2 3 -4
-2 3 4
2 -3 -4
-2 -3 4
-2 -3 3
2 3 -3
-2 -3 2
2 3 -2
2 -3 -1
-2 3 1
2 3 -1
-2 -3 1
2 -3 0
-2 -3 0
-2 3 0
2 3 0
-2 -3 -1
2 3 1
-2 3 -1
2 -3 1
2 -3 2
-2 3 -2
2 3 2
-2 -3 -2
2 -3 3
-2 3 -3
2 3 3
-2 -3 -3
2 -3 4
-2 -3 -4
2 3 4
-2 3 -4
2 3 5
-2 3 -5
-2 -3 -5
2 -3 5
2 -3 7
-2 3 -7
-2 3 -8
2 -3 8
2 3 8
-2 -3 -8
-2 3 -9
2 -3 9
2 3 9
-2 -3 -9
-2 3 -10
-2 -3 -10
2 3 10
2 -3 10
-2 3 -11
2 -3 11
-2 -3 -11
-2 -3 -12
2 3 12
2 -3 13
2 -4 -10
-2 4 10
-2 4 9
2 -4 -9
2 -4 -8
-2 4 8
2 -4 -7
-2 4 7
-2 4 6
2 -4 -6
-2 4 5
2 -4 -5
-2 -4 4
2 -4 -4
-2 4 4
2 4 -4
2 4 -3
2 -4 -3
-2 4 3
-2 -4 3
2 -4 -2
-2 -4 2
2 4 -2
2 -4 -1
-2 4 1
2 4 -1
-2 -4 1
2 -4 0
-2 4 0
2 -4 3
-2 -4 -3
2 4 3
-2 4 -3
-2 -4 -4
2 -4 4
-2 4 -4
2 4 4
2 -4 5
2 4 5
-2 4 -5
-2 -4 -5
2 -4 6
-2 4 -6
-2 -4 -6
2 4 6
2 4 7
-2 -4 -7
2 -4 7
-2 4 -7
2 -4 8
-2 -4 -8
2 4 8
-2 4 -8
2 -4 9
-2 4 -9
2 4 9
-2 -4 -9
2 4 10
-2 -4 -10
2 -4 11
2 4 11
-2 -4 -11
-2 4 -11
-2 4 -12
2 -4 12
-2 -5 10
2 5 -10
2 5 -9
-2 -5 9
2 -5 -9
-2 5 9
-2 -5 8
2 5 -8
-2 5 8
2 -5 -8
2 -5 -7
2 5 -7
-2 5 7
-2 -5 7
-2 5 6
2 5 -6
-2 -5 6
2 -5 -6
2 5 -5
-2 -5 5
2 -5 -5
2 5 -4
-2 5 4
2 -5 -4
-2 -5 4
2 5 -3
2 -5 -3
-2 -5 3
-2 -5 2
2 -5 -2
2 5 -2
-2 5 2
2 5 -1
-2 -5 1
-2 5 1
2 -5 -1
-2 5 0
2 -5 0
-2 -5 0
2 5 0
2 -5 1
-2 -5 -1
-2 5 -1
2 5 1
-2 -5 -2
2 5 2
2 -5 2
-2 -5 -3
2 5 3
2 5 4
-2 5 -4
2 -5 4
-2 -5 -4
2 -5 5
-2 -5 -5
2 5 5
-2 5 -5
2 -5 6
-2 5 -6
-2 -5 -6
-2 5 -7
2 5 7
-2 -5 -7
2 -5 8
-2 5 -8
2 5 9
-2 -5 -9
2 -5 9
-2 5 -9
2 -5 10
2 5 10
-2 5 -10
2 -5 11
-2 5 -11
2 5 11
-2 -5 -11
-2 -6 10
-2 -6 9
-2 6 9
2 6 -9
-2 -6 8
2 -6 -8
2 6 -8
2 6 -7
2 -6 -7
-2 -6 7
-2 6 7
-2 6 6
2 6 -6
-2 -6 6
2 -6 -6
-2 -6 5
-2 6 5
2 -6 -5
2 6 -5
-2 6 4
2 -6 -4
2 -6 -3
-2 6 3
-2 6 2
2 -6 -1
-2 6 1
-2 -6 -2
2 -6 2
-2 6 -2
2 6 2
2 -6 3
-2 6 -3
2 6 3
-2 -6 -4
2 -6 4
2 6 4
-2 6 -4
2 -6 5
-2 6 -5
2 6 5
2 -6 6
-2 6 -6
-2 -6 -6
2 6 6
-2 -6 -7
-2 6 -7
2 6 7
-2 6 -8
2 6 8
2 -6 8
-2 -6 -8
2 6 9
-2 -6 -9
2 -6 10
-2 6 -10
-2 -6 -10
2 6 10
-2 6 -11
2 -6 11
2 -6 12
-2 -7 9
2 7 -9
-2 7 8
-2 -7 8
2 7 -8
2 -7 -7
-2 7 7
-2 7 6
2 -7 -6
-2 -7 6
2 7 -6
-2 7 5
-2 -7 5
2 -7 -5
2 7 -5
2 7 -4
-2 -7 4
-2 7 4
2 -7 -4
-2 7 3
2 -7 -3
-2 -7 3
2 7 -3
2 -7 -2
-2 -7 2
2 7 -2
-2 -7 1
2 7 -1
2 -7 -1
-2 7 1
2 7 0
-2 -7 0
-2 7 0
2 -7 0
-2 -7 -1
2 7 1
2 -7 1
-2 7 -1
-2 -7 -2
2 -7 2
-2 7 -2
2 7 2
2 -7 3
-2 -7 -3
2 7 3
-2 7 -3
-2 -7 -4
2 7 4
-2 7 -5
2 -7 5
-2 7 -6
2 7 6
2 -7 6
-2 -7 -6
2 -7 7
-2 7 -7
2 7 7
-2 -7 -7
2 7 8
2 -7 8
-2 7 -8
-2 -7 -8
2 -7 9
-2 7 -9
2 7 9
-2 -7 -9
-2 7 -10
2 -7 10
2 7 10
-2 -7 -10
2 -7 11
-2 7 -11
2 8 -8
-2 -8 8
-2 8 7
2 8 -6
2 -8 -6
-2 -8 6
-2 8 6
-2 8 5
-2 -8 5
2 -8 -5
2 8 -5
-2 8 4
-2 -8 4
2 -8 -4
2 8 -4
-2 -8 3
-2 8 3
2 -8 -3
-2 -8 2
-2 8 2
2 -8 -2
2 8 -2
-2 -8 1
-2 8 1
2 -8 -1
2 8 -1
-2 -8 0
2 -8 0
-2 8 0
2 8 0
-2 -8 -1
-2 8 -1
2 -8 1
2 8 1
-2 -8 -2
2 8 2
-2 8 -2
2 -8 2
-2 -8 -3
2 -8 3
-2 8 -3
2 8 3
2 -8 4
2 8 4
-2 -8 -5
2 8 5
2 -8 6
-2 8 -7
2 -8 7
2 8 7
-2 -8 -7
2 -8 8
-2 8 -8
-2 -8 -8
2 8 8
2 8 9
-2 8 -10
2 -8 10
-2 -9 7
2 9 -7
-2 -9 6
2 9 -6
2 -9 -5
-2 9 5
-2 9 4
2 -9 -4
-2 9 3
2 9 -3
2 -9 -3
-2 -9 2
2 -9 -2
2 9 -2
-2 9 2
-2 -9 1
2 -9 -1
-2 9 1
2 9 -1
-2 -9 0
2 9 0
-2 9 0
-2 -9 -1
-2 9 -1
2 -9 1
2 9 1
2 -9 2
-2 -9 -2
-2 9 -2
2 9 2
-2 -9 -3
2 9 3
2 -9 4
2 -9 5
-2 9 -5
2 9 5
-2 -9 -5
-2 -9 -6
-2 9 -6
2 9 6
2 9 7
-2 -9 -7
2 -9 8
-2 9 -8
-2 9 -9
-2 -10 4
2 -10 -4
2 10 -4
-2 10 4
2 -10 -3
-2 10 3
2 10 -3
-2 10 2
2 -10 -2
2 10 -2
-2 -10 2
-2 -10 1
2 10 -1
-2 10 1
2 -10 -1
-2 -10 0
2 -10 0
2 10 0
-2 -10 -1
-2 10 -1
2 -10 1
2 10 1
-2 -10 -2
2 -10 2
-2 10 -2
2 10 2
-2 -10 -3
2 -10 3
-2 10 -3
-2 -10 -4
2 10 4
3 0 -5
-3 0 5
3 0 -4
-3 0 4
3 0 -3
-3 0 3
3 0 -2
-3 0 2
3 0 0
-3 0 0
3 0 1
-3 0 -1
3 0 2
-3 0 -2
-3 0 -3
3 0 3
3 0 4
-3 0 -4
3 0 5
-3 0 -5
-3 0 -6
3 0 6
-3 0 -8
3 0 8
3 0 9
-3 0 -9
3 0 10
-3 0 -10
3 0 11
-3 0 -11
-3 0 -12
3 0 12
3 1 -7
-3 -1 7
-3 1 6
3 -1 -6
3 1 -6
-3 -1 6
3 -1 -5
-3 1 5
-3 -1 5
3 1 -5
3 -1 -4
3 1 -4
-3 -1 4
3 -1 -3
-3 1 3
3 1 -1
-3 -1 1
-3 1 1
3 -1 -1
3 -1 0
3 1 0
-3 -1 0
3 -1 1
-3 1 -1
3 1 1
-3 -1 -1
3 -1 2
3 1 2
-3 1 -2
-3 -1 -2
3 -1 3
3 1 3
-3 1 -3
-3 -1 -3
3 -1 4
-3 -1 -4
3 1 4
-3 1 -4
-3 -1 -5
3 -1 5
3 1 5
-3 1 -5
3 -1 6
-3 -1 -6
3 1 6
3 -1 8
3 1 8
-3 1 -8
-3 -1 -8
3 1 9
3 -1 9
-3 1 -9
-3 -1 -9
3 -1 10
3 1 10
-3 -1 -10
-3 1 -10
3 -1 11
-3 -1 -11
3 1 11
-3 1 -11
3 1 12
-3 1 -12
-3 -1 -12
-3 1 -13
3 -1 13
3 2 -10
-3 -2 10
3 2 -9
-3 -2 9
3 -2 -7
-3 2 7
3 -2 -6
-3 -2 6
3 2 -6
-3 2 6
3 -2 -5
3 2 -5
-3 2 5
-3 -2 5
-3 -2 4
3 2 -4
-3 -2 3
3 -2 -3
3 -2 -2
3 2 -2
-3 -2 2
3 -2 -1
-3 2 1
3 2 -1
-3 -2 1
-3 2 0
3 -2 0
-3 -2 0
3 2 0
3 2 1
3 -2 1
-3 2 -1
-3 -2 -1
-3 2 -2
3 -2 2
3 2 2
-3 -2 -2
3 -2 3
-3 2 -3
-3 -2 -3
3 2 3
3 2 4
3 -2 4
-3 2 -4
-3 -2 -4
3 2 5
-3 -2 -5
3 -2 6
-3 2 -6
-3 2 -7
-3 -2 -7
3 2 7
3 -2 7
3 2 8
-3 -2 -8
-3 2 -8
-3 2 -9
3 -2 9
-3 -2 -9
3 2 9
3 -2 10
-3 -2 -10
3 2 10
-3 2 -10
3 -2 11
3 2 11
-3 -2 -11
-3 2 -11
-3 2 -12
3 -2 12
3 2 13
3 -2 13
-3 -3 10
3 3 -10
-3 3 9
-3 -3 9
3 3 -9
-3 -3 8
3 3 -8
-3 3 7
3 -3 -7
3 3 -7
-3 -3 6
3 -3 -6
-3 3 6
3 3 -6
-3 -3 5
3 -3 -5
-3 3 5
3 3 -5
-3 -3 4
3 -3 -4
3 3 -4
-3 -3 3
3 -3 -3
-3 3 3
3 3 -2
-3 3 2
-3 -3 2
-3 -3 1
3 -3 -1
3 3 -1
-3 3 1
-3 -3 0
3 -3 0
-3 3 0
3 3 0
3 -3 1
-3 3 -1
-3 -3 -1
3 3 1
3 -3 2
3 3 2
-3 3 -2
-3 -3 -2
3 -3 4
-3 -3 -4
3 3 4
3 -3 5
3 3 5
-3 -3 -5
3 -3 6
3 3 6
-3 -3 -6
3 -3 7
-3 -3 -7
3 3 8
-3 -3 -8
3 -3 9
-3 -3 -9
-3 -3 -10
3 3 10
-3 3 -11
3 -3 11
3 -3 12
-3 -3 -12
-3 3 -12
3 3 12
-3 3 -13
3 -3 13
3 -4 -9
-3 4 9
3 -4 -8
-3 4 8
3 -4 -7
-3 4 7
-3 4 6
3 -4 -6
3 -4 -5
-3 4 5
3 -4 -4
-3 4 4
3 -4 -3
-3 4 3
-3 -4 3
-3 -4 2
3 4 -2
-3 -4 1
3 4 -1
-3 -4 0
3 -4 0
-3 4 0
3 4 0
3 -4 1
-3 4 -1
-3 -4 -1
3 4 1
-3 -4 -2
3 -4 2
-3 4 -2
3 4 2
-3 -4 -3
3 -4 3
3 4 3
-3 4 -3
3 4 4
3 -4 4
-3 4 -4
-3 -4 -4
3 -4 5
-3 4 -5
-3 -4 -5
3 4 5
3 -4 6
-3 4 -6
3 4 6
-3 -4 -6
3 -4 7
-3 4 -7
3 4 7
-3 -4 -7
-3 -4 -8
3 4 8
3 -4 9
-3 4 -9
3 4 10
3 -4 10
-3 -4 -10
-3 4 -10
3 4 11
-3 4 -11
-3 -4 -11
3 -4 12
-3 4 -12
3 4 12
-3 -4 -12
3 -4 13
-3 -5 9
3 5 -9
-3 -5 8
3 -5 -8
-3 5 8
3 5 -8
-3 -5 7
-3 5 7
3 -5 -7
3 5 -7
-3 -5 6
-3 5 6
3 -5 -6
3 5 -6
-3 -5 5
3 5 -5
3 -5 -5
-3 5 5
-3 -5 4
3 -5 -4
3 5 -4
-3 5 4
-3 -5 3
3 -5 -3
-3 5 3
3 5 -3
-3 -5 2
3 -5 -2
3 5 -2
-3 -5 1
3 -5 -1
-3 5 1
3 5 -1
-3 -5 0
3 5 0
-3 -5 -1
3 -5 1
-3 5 -1
3 5 1
-3 -5 -2
3 -5 2
3 5 2
-3 5 -2
-3 -5 -3
-3 5 -3
3 -5 3
3 5 3
3 5 4
-3 -5 -4
3 -5 5
-3 5 -5
-3 5 -6
3 -5 6
3 5 6
3 -5 7
-3 -5 -7
3 5 7
3 -5 8
-3 5 -8
3 5 8
-3 -5 -8
3 -5 9
-3 -5 -9
-3 5 -9
3 5 9
3 5 10
-3 -5 -10
-3 5 -11
3 -5 11
3 -5 12
-3 5 -12
-3 -6 9
3 6 -9
-3 -6 8
3 6 -8
-3 -6 7
-3 6 7
3 -6 -7
3 6 -7
-3 -6 6
3 -6 -6
-3 6 6
3 6 -6
-3 -6 5
-3 6 5
3 -6 -5
3 6 -5
-3 -6 4
3 -6 -4
-3 6 4
3 6 -4
3 6 -3
-3 -6 2
3 6 -2
-3 -6 1
-3 6 1
3 6 -1
3 -6 0
-3 6 0
3 6 0
-3 -6 -1
3 -6 1
-3 6 -1
3 6 1
-3 -6 -2
3 -6 2
-3 6 -2
3 6 2
-3 -6 -3
3 -6 3
3 6 3
3 6 4
-3 -6 -4
-3 6 -5
3 6 5
-3 -6 -5
-3 6 -6
-3 -6 -6
3 6 7
-3 -6 -7
3 -6 8
-3 6 -8
3 6 9
3 -6 9
-3 6 -9
-3 -6 -9
3 6 10
3 -6 10
-3 6 -10
-3 -6 -10
3 6 11
3 -6 12
-3 -7 8
3 7 -8
-3 -7 7
-3 7 7
3 7 -7
3 -7 -6
-3 7 6
3 -7 -5
-3 7 5
-3 7 4
3 -7 -4
3 -7 -3
3 7 -3
3 -7 -2
-3 7 2
3 7 -2
-3 -7 1
3 -7 -1
3 7 -1
3 -7 0
-3 7 0
-3 7 -1
3 -7 1
-3 -7 -3
3 -7 3
-3 7 -3
3 7 3
-3 -7 -4
-3 7 -4
3 7 4
3 -7 4
3 -7 5
-3 7 -5
3 7 5
-3 7 -6
3 -7 6
-3 -7 -6
-3 7 -7
3 -7 7
3 7 7
-3 -7 -7
3 7 8
-3 -7 -8
-3 7 -9
3 -7 9
-3 -7 -10
3 -7 10
-3 7 -10
3 7 10
-3 -8 7
3 8 -7
-3 8 6
3 -8 -6
-3 8 5
3 -8 -5
-3 -8 4
3 -8 -4
-3 8 4
3 8 -4
-3 -8 3
-3 8 3
3 -8 -3
3 8 -3
-3 -8 2
3 -8 -2
-3 8 2
-3 -8 1
3 -8 -1
-3 8 1
3 8 -1
-3 -8 0
3 8 0
-3 8 0
3 -8 1
3 8 1
-3 -8 -1
3 -8 2
-3 8 -2
-3 -8 -4
-3 8 -4
3 -8 4
3 8 4
-3 8 -5
3 -8 5
-3 -8 -5
-3 8 -6
3 -8 6
3 8 6
-3 -8 -6
-3 8 -7
3 8 7
-3 8 -8
3 -8 8
3 8 8
-3 8 -9
-3 -8 -9
3 -8 9
3 8 9
-3 -9 6
3 9 -6
-3 -9 5
3 9 -5
-3 9 4
3 -9 -4
3 9 -4
-3 -9 3
-3 9 3
3 -9 -3
3 9 -3
3 -9 -2
-3 9 2
-3 9 1
3 -9 -1
-3 -9 -1
3 9 1
-3 -9 -2
3 -9 2
-3 9 -2
3 9 2
-3 -9 -3
3 -9 3
-3 9 -3
3 9 3
3 -9 4
3 9 4
-3 9 -4
3 -9 5
3 9 5
-3 9 -5
-3 -9 -5
3 9 6
3 -9 7
-3 9 -7
3 9 7
-3 -9 -7
3 9 8
-3 -9 -8
3 -10 -3
-3 10 3
3 -10 -2
-3 10 2
-3 -10 1
3 -10 -1
-3 10 1
3 10 -1
-3 -10 0
3 -10 0
3 -10 1
-4 0 6
4 0 -6
4 0 -5
-4 0 5
-4 0 3
4 0 -3
-4 0 2
4 0 -2
4 0 -1
-4 0 1
4 0 0
-4 0 0
4 0 1
-4 0 -1
4 0 2
-4 0 -2
4 0 3
-4 0 -3
-4 0 -5
4 0 5
4 0 6
-4 0 -6
-4 0 -7
4 0 7
4 0 8
-4 0 -8
4 0 9
-4 0 -9
-4 0 -11
4 0 11
-4 0 -12
4 0 12
4 0 13
-4 0 -13
-4 -1 8
4 1 -7
-4 -1 7
4 -1 -6
4 1 -6
-4 1 6
-4 -1 6
4 -1 -5
-4 -1 5
-4 1 5
4 -1 -4
-4 1 4
4 1 -4
-4 -1 4
4 -1 -3
-4 1 3
4 1 -3
-4 -1 3
-4 -1 2
-4 1 2
4 -1 -2
-4 -1 1
4 -1 -1
4 1 -1
4 -1 0
4 1 0
-4 1 0
-4 -1 0
-4 1 -1
4 -1 1
4 1 1
-4 -1 -1
4 -1 2
-4 1 -2
4 1 2
-4 -1 -2
-4 -1 -3
4 -1 3
4 1 3
-4 1 -3
4 -1 5
4 1 5
-4 -1 -5
-4 1 -5
-4 -1 -6
4 -1 6
4 1 6
-4 1 -6
4 -1 7
4 1 7
-4 -1 -7
-4 1 -8
4 -1 8
-4 -1 -8
-4 -1 -9
4 -1 9
-4 1 -9
4 1 9
4 -1 11
-4 1 -11
4 1 11
-4 -1 -11
4 1 12
-4 1 -12
4 -1 12
-4 -1 -12
-4 1 -13
-4 -1 -13
4 -1 13
4 1 13
4 2 -9
-4 -2 9
4 -2 -7
-4 2 7
4 2 -7
-4 -2 7
4 2 -6
-4 -2 6
4 -2 -5
-4 2 5
4 2 -5
-4 -2 5
4 -2 -4
-4 2 4
4 2 -4
-4 -2 4
4 -2 -3
4 2 -3
-4 -2 3
4 -2 -2
-4 -2 2
4 -2 -1
4 2 -1
-4 2 1
-4 -2 1
4 -2 0
4 2 0
-4 2 0
-4 -2 0
4 -2 1
4 2 1
-4 2 -1
-4 -2 -1
4 -2 3
4 2 3
-4 2 -3
-4 -2 -3
4 -2 4
4 2 4
-4 -2 -4
-4 2 -4
4 -2 5
4 2 5
-4 2 -5
-4 -2 -5
-4 2 -6
4 -2 6
4 2 6
-4 -2 -6
4 -2 7
-4 2 -7
4 2 7
-4 -2 -7
4 -2 8
-4 -2 -8
4 2 9
-4 -2 -9
4 -2 10
4 2 10
-4 -2 -10
-4 2 -10
4 -2 11
4 2 11
-4 -2 -11
-4 2 -11
-4 2 -12
4 -2 12
4 2 12
-4 -2 -12
4 2 13
-4 -2 -13
-4 3 9
4 3 -9
-4 -3 9
4 3 -8
-4 -3 8
-4 3 7
4 3 -7
-4 -3 7
4 -3 -6
-4 3 6
4 3 -6
-4 -3 6
4 3 -5
-4 -3 5
4 -3 -4
-4 3 4
4 3 -4
-4 -3 4
4 -3 -3
-4 3 3
4 3 -3
-4 -3 3
4 -3 -2
-4 3 2
-4 -3 2
-4 3 1
4 3 0
-4 -3 0
4 -3 1
-4 3 -1
4 3 1
-4 -3 -1
4 -3 2
-4 3 -2
4 3 2
-4 -3 -2
4 -3 3
-4 3 -3
-4 -3 -3
4 3 3
4 -3 4
-4 3 -4
4 3 4
-4 -3 -4
-4 -3 -5
4 -3 5
4 3 5
-4 3 -5
4 -3 6
-4 3 -6
4 3 6
-4 -3 -6
4 -3 7
-4 3 -7
4 3 7
4 -3 8
4 -3 9
4 3 9
-4 3 -9
-4 -3 -9
4 -3 10
-4 -3 -10
4 3 10
-4 3 -10
4 -3 11
-4 -3 -11
4 3 11
4 3 12
-4 -3 -12
4 -3 13
-4 3 -13
4 3 13
-4 -4 8
-4 4 8
4 -4 -8
4 4 -8
-4 -4 7
-4 4 7
4 -4 -7
4 4 -7
-4 -4 6
-4 4 6
4 4 -6
-4 -4 5
-4 4 5
4 -4 -5
4 4 -5
-4 -4 4
4 4 -4
-4 -4 3
4 -4 -3
-4 4 3
4 4 -3
-4 -4 2
-4 4 2
4 -4 -2
4 -4 -1
-4 4 1
-4 -4 1
4 4 -1
4 -4 0
-4 4 0
4 4 0
-4 -4 0
4 -4 1
-4 4 -1
4 4 1
-4 -4 -1
-4 4 -2
4 4 2
4 -4 2
-4 -4 -2
4 -4 3
-4 4 -3
4 4 3
-4 -4 -3
4 -4 4
-4 4 -4
4 4 4
-4 -4 -4
-4 -4 -5
4 4 5
4 -4 6
-4 4 -6
4 -4 7
-4 4 -7
4 4 7
-4 -4 -7
4 -4 8
-4 4 -8
4 4 8
-4 -4 -8
4 -4 9
-4 4 -9
4 4 9
-4 -4 -9
4 4 10
-4 -4 -10
4 -4 11
-4 4 -11
4 -4 12
-4 4 -12
4 4 12
-4 -4 -12
4 -4 13
-4 -5 9
-4 -5 8
-4 5 8
4 5 -8
-4 -5 7
4 -5 -7
-4 5 7
4 5 -7
-4 -5 6
4 -5 -6
-4 5 6
4 5 -6
-4 -5 5
-4 5 5
4 5 -5
-4 -5 4
4 -5 -4
-4 5 4
4 5 -4
-4 -5 3
4 -5 -3
-4 5 3
4 5 -3
-4 -5 2
4 5 -2
-4 -5 1
4 -5 -1
4 5 -1
-4 -5 0
4 -5 0
-4 5 0
4 5 0
4 -5 1
-4 5 -1
4 5 2
-4 -5 -2
4 -5 3
-4 5 -3
4 5 3
-4 -5 -3
4 -5 4
-4 5 -4
4 5 4
-4 -5 -4
4 -5 5
-4 5 -5
4 5 5
-4 -5 -5
-4 5 -6
4 5 6
-4 -5 -6
4 -5 7
-4 5 -7
-4 -5 -7
4 5 8
-4 -5 -8
4 -5 9
-4 5 -9
4 -5 10
-4 5 -10
4 5 10
-4 -5 -10
4 5 11
-4 5 -11
4 -5 11
-4 -5 -11
4 -5 12
-4 5 -12
4 5 12
-4 -6 8
4 6 -8
-4 -6 7
-4 6 7
4 6 -7
-4 -6 6
4 6 -6
-4 -6 5
4 6 -5
-4 -6 4
4 -6 -4
-4 6 4
4 6 -4
-4 -6 3
-4 6 3
4 6 -3
-4 -6 2
4 -6 -2
-4 6 2
4 6 -2
-4 -6 1
4 -6 -1
-4 6 1
4 6 -1
-4 -6 0
-4 6 0
4 6 0
-4 -6 -1
-4 6 -1
4 6 1
4 -6 2
4 6 2
-4 -6 -2
4 -6 3
-4 6 -3
4 6 3
-4 -6 -3
4 -6 4
-4 6 -4
4 6 4
-4 -6 -4
-4 6 -6
4 6 6
4 -6 6
4 -6 7
-4 6 -7
4 6 7
-4 -6 -7
-4 6 -8
4 6 8
-4 -6 -8
4 6 9
-4 -6 -9
4 -6 10
-4 6 -10
4 6 11
4 -6 11
-4 -6 -11
-4 6 -11
4 -6 12
-4 6 -12
-4 -7 7
4 7 -7
-4 -7 6
-4 7 6
4 -7 -6
4 7 -6
-4 -7 5
4 -7 -5
4 7 -5
-4 -7 4
4 -7 -4
4 7 -4
-4 -7 3
4 -7 -3
-4 7 3
4 7 -3
4 7 -2
-4 -7 1
4 7 -1
-4 -7 0
4 -7 0
4 7 0
-4 -7 -1
4 -7 1
-4 7 -1
4 7 1
4 -7 2
-4 7 -2
4 7 2
-4 -7 -2
4 -7 3
-4 7 -3
4 7 3
-4 -7 -3
4 -7 4
-4 7 -4
4 7 4
-4 -7 -4
4 7 5
-4 7 -5
4 -7 5
-4 -7 -5
4 7 7
-4 -7 -7
4 7 8
4 -7 8
-4 -7 -8
4 7 9
-4 -7 -9
4 -7 10
-4 7 -10
4 -7 11
-4 7 -11
-4 -8 6
4 8 -6
-4 -8 5
-4 8 5
4 -8 -5
4 8 -5
-4 -8 4
-4 8 4
4 -8 -4
4 8 -4
-4 -8 3
4 -8 -3
4 8 -3
-4 8 3
-4 -8 2
4 -8 -2
-4 8 2
4 8 -2
-4 -8 1
-4 -8 0
4 8 0
-4 -8 -1
-4 8 -1
4 8 1
4 -8 2
-4 8 -2
4 8 2
-4 8 -3
4 -8 3
4 8 3
-4 -8 -3
-4 8 -4
4 8 4
-4 -8 -4
-4 8 -5
4 -8 5
4 8 5
4 -8 6
-4 8 -6
4 -8 7
4 8 7
-4 -8 -7
-4 8 -8
4 -8 8
4 8 8
-4 -8 -8
-4 8 -9
4 -8 9
-4 -9 5
4 9 -5
-4 -9 4
4 9 -4
-4 -9 3
-4 9 3
4 -9 -3
4 9 -3
-4 -9 2
-4 9 2
4 -9 -2
4 9 -2
-4 -9 1
4 -9 -1
-4 9 1
4 9 -1
-4 -9 0
4 -9 0
-4 9 0
4 9 0
-4 -9 -1
4 -9 1
-4 9 -1
4 9 1
4 9 2
-4 9 -2
-4 -9 -2
4 -9 3
4 9 3
-4 9 -3
-4 -9 -3
4 -9 4
-4 9 -4
4 -9 5
-4 9 -5
-4 -9 -5
4 -9 6
4 9 6
-4 -9 -6
-4 9 -6
5 0 -7
-5 0 7
-5 0 6
5 0 -6
5 0 -5
-5 0 5
-5 0 4
5 0 -4
5 0 -3
-5 0 3
-5 0 2
5 0 -2
5 0 -1
-5 0 1
5 0 0
-5 0 0
-5 0 -2
5 0 2
5 0 3
-5 0 -3
5 0 4
-5 0 -5
5 0 5
-5 0 -6
5 0 6
-5 0 -7
5 0 7
-5 0 -8
5 0 8
-5 0 -9
5 0 9
-5 0 -10
5 0 10
5 0 11
-5 0 -11
5 0 13
-5 0 -13
5 1 -8
-5 -1 8
-5 1 7
5 -1 -7
5 -1 -6
-5 -1 6
5 1 -6
5 -1 -5
5 1 -5
-5 -1 5
-5 1 5
5 -1 -4
5 1 -4
-5 1 4
-5 -1 4
5 -1 -3
5 1 -3
-5 1 3
-5 -1 3
5 -1 -2
5 1 -2
-5 1 2
-5 -1 2
5 -1 -1
-5 1 1
-5 -1 1
5 -1 1
5 1 1
-5 1 -1
-5 -1 -1
5 1 2
5 -1 2
-5 1 -2
-5 -1 -2
5 -1 3
5 1 3
-5 1 -3
-5 -1 -3
5 -1 4
5 1 4
-5 1 -4
-5 -1 -4
5 -1 5
5 1 5
-5 1 -5
-5 -1 -5
5 -1 6
-5 1 -6
5 1 6
-5 -1 -6
5 1 7
-5 -1 -7
5 -1 8
5 1 8
-5 1 -8
5 -1 9
5 1 9
-5 1 -9
-5 -1 -9
5 -1 10
5 1 10
-5 1 -10
-5 -1 -10
-5 1 -11
-5 -1 -11
5 -1 11
5 1 11
5 -1 12
-5 1 -12
5 -1 13
5 1 13
-5 1 -13
-5 -1 -13
-5 2 8
5 -2 -8
5 2 -8
-5 -2 8
5 2 -7
-5 -2 7
-5 2 6
5 2 -6
-5 -2 6
5 2 -5
-5 -2 5
-5 2 5
5 -2 -4
5 2 -4
-5 -2 4
5 -2 -3
5 2 -3
-5 2 3
-5 -2 3
5 -2 -2
-5 2 2
5 -2 0
-5 2 0
5 2 0
-5 -2 0
5 2 1
-5 2 -1
5 -2 1
-5 -2 -1
5 2 2
-5 2 -2
5 -2 2
-5 -2 -2
5 -2 3
5 2 3
-5 2 -3
-5 -2 -3
-5 2 -4
5 -2 4
5 2 4
-5 -2 -4
-5 2 -5
5 -2 5
5 2 5
-5 -2 -5
5 -2 6
-5 2 -6
5 2 6
-5 -2 -6
5 -2 7
5 2 7
-5 2 -7
-5 -2 -7
5 -2 8
5 2 8
-5 2 -8
5 2 9
-5 -2 -9
-5 2 -9
5 2 10
-5 2 -10
5 -2 10
-5 -2 -10
5 -2 12
-5 2 -12
5 2 12
-5 -2 -12
5 -2 13
5 2 13
-5 -2 -13
-5 2 -13
5 3 -8
-5 3 8
-5 -3 8
5 -3 -7
-5 3 7
5 3 -7
-5 -3 7
5 -3 -6
-5 3 6
5 -3 -5
-5 3 5
-5 -3 4
5 -3 -4
-5 3 4
5 3 -4
5 3 -3
-5 -3 3
5 -3 -2
-5 3 2
5 3 -2
-5 -3 2
5 -3 -1
-5 -3 1
5 3 0
-5 3 0
-5 -3 0
5 3 1
-5 3 -1
5 -3 1
-5 -3 -1
5 -3 2
5 3 2
-5 3 -2
-5 -3 -2
5 -3 3
5 3 3
-5 3 -3
-5 -3 -3
5 -3 4
5 3 4
-5 3 -4
-5 -3 -4
5 3 6
-5 3 -6
-5 -3 -6
5 -3 6
5 -3 7
5 3 7
-5 3 -7
-5 -3 -7
5 -3 8
-5 3 -8
-5 -3 -8
5 3 9
-5 3 -9
-5 -3 -9
5 -3 10
-5 3 -10
5 -3 11
-5 3 -11
5 3 11
-5 -3 -11
5 -3 12
-5 -3 -12
5 3 12
5 -3 13
-5 3 -13
5 4 -8
-5 -4 8
5 -4 -7
5 4 -7
-5 4 7
-5 -4 7
5 4 -6
-5 -4 6
5 4 -5
-5 -4 5
5 -4 -4
-5 4 4
5 4 -4
-5 -4 4
5 -4 -3
5 4 -3
-5 -4 3
5 -4 -2
-5 4 2
5 4 -2
-5 -4 2
5 -4 -1
-5 4 1
-5 -4 1
5 -4 0
-5 4 0
5 4 0
-5 -4 0
5 -4 1
-5 4 -1
-5 -4 -1
5 4 1
5 -4 3
5 4 3
-5 4 -3
-5 -4 -3
5 -4 4
-5 4 -4
5 4 4
-5 -4 -4
5 -4 5
5 4 5
-5 4 -5
-5 -4 -5
5 -4 6
-5 4 -6
5 4 6
-5 -4 -6
-5 -4 -7
-5 4 -7
5 4 7
5 4 8
-5 -4 -8
5 -4 9
-5 4 -9
5 4 9
-5 -4 -9
5 -4 10
-5 4 -10
5 4 10
-5 -4 -10
5 4 11
-5 -4 -11
5 -4 11
-5 4 -11
5 -4 12
-5 4 -12
5 -4 13
-5 4 -13
-5 5 7
5 -5 -6
-5 5 6
5 -5 -5
-5 5 5
5 -5 -4
-5 5 4
5 5 -4
-5 -5 4
-5 5 3
5 5 -3
-5 -5 3
5 5 -2
-5 -5 2
5 5 -1
-5 -5 1
5 -5 0
5 5 0
-5 -5 0
5 -5 1
-5 5 -1
5 5 1
-5 -5 -1
5 -5 2
-5 5 -2
5 5 2
-5 -5 -2
5 -5 3
-5 5 -3
5 5 3
-5 -5 -3
5 -5 4
-5 5 -4
5 5 4
-5 -5 -4
-5 5 -5
5 5 5
5 -5 5
-5 -5 -5
5 -5 6
-5 5 -6
5 5 7
-5 5 -7
5 -5 7
5 -5 8
-5 5 -8
5 5 8
-5 -5 -8
5 -5 9
-5 5 -9
5 5 9
-5 -5 -9
5 -5 10
-5 5 -10
5 -5 11
-5 5 -11
5 5 11
-5 -5 -11
5 5 12
5 6 -7
-5 -6 7
-5 6 6
5 6 -6
-5 -6 6
-5 6 5
5 6 -5
-5 -6 5
5 -6 -4
-5 6 4
5 6 -4
-5 -6 4
-5 6 3
5 -6 -3
5 6 -3
-5 -6 3
5 -6 -2
-5 6 2
5 6 -2
-5 -6 2
5 -6 -1
5 6 -1
5 -6 0
-5 6 0
5 6 0
-5 -6 0
-5 6 -1
5 6 2
-5 -6 -2
-5 6 -3
5 6 3
5 -6 3
-5 -6 -3
-5 6 -4
5 6 4
5 -6 4
-5 -6 -4
5 -6 5
-5 6 -5
5 6 5
-5 -6 -5
5 6 6
-5 6 -6
5 -6 6
-5 -6 -6
-5 -6 -7
5 6 8
5 -6 8
-5 -6 -8
5 -6 9
-5 6 -9
5 6 9
-5 -6 -9
5 6 10
-5 -6 -10
5 6 11
5 -6 11
-5 -6 -11
-5 -7 6
5 7 -6
-5 -7 5
5 7 -5
-5 -7 4
5 -7 -4
5 7 -4
-5 7 4
-5 7 3
5 -7 -3
5 7 -3
-5 -7 3
5 -7 -2
-5 7 2
5 7 -2
-5 -7 2
-5 7 1
5 -7 -1
5 7 -1
5 -7 0
-5 7 0
5 7 0
-5 -7 0
5 -7 1
5 7 1
-5 -7 -1
5 7 2
-5 -7 -2
5 -7 4
-5 7 -4
5 7 4
-5 -7 -4
5 7 5
5 -7 5
-5 7 -5
-5 -7 -5
5 -7 6
-5 7 -6
5 7 6
5 7 7
-5 -7 -7
5 7 8
5 -7 8
-5 -7 -8
5 -7 9
-5 7 -9
5 7 9
-5 -7 -9
5 -7 10
-5 7 -10
-5 -8 5
5 8 -5
5 8 -4
-5 -8 4
5 -8 -3
5 8 -3
-5 -8 3
5 -8 -2
-5 8 2
5 8 -2
-5 -8 2
5 -8 -1
5 8 -1
-5 -8 1
5 -8 0
-5 8 0
-5 -8 0
5 -8 1
-5 8 -1
5 8 1
-5 -8 -1
-5 8 -2
5 -8 2
5 8 3
-5 -8 -3
-5 8 -4
5 -8 4
5 8 4
-5 -8 -4
5 -8 5
-5 8 -5
5 8 5
-5 -8 -5
5 -8 6
-5 8 -6
-5 -8 -6
5 -8 7
-5 8 -7
5 8 7
-5 -8 -7
-5 8 -8
5 8 8
-5 -8 -8
5 9 -4
-5 -9 4
5 9 -3
-5 -9 3
5 -9 -2
5 9 -2
-5 9 2
-5 -9 2
5 -9 -1
-5 9 1
5 9 -1
-5 -9 1
5 9 0
5 -9 1
5 9 1
-5 9 -1
-5 -9 -1
5 -9 2
-5 9 -2
5 9 2
-5 -9 -2
-5 9 -3
5 9 3
-6 0 7
6 0 -7
6 0 -6
-6 0 6
6 0 -5
-6 0 5
6 0 -4
-6 0 4
-6 0 2
6 0 -2
-6 0 1
6 0 -1
6 0 0
-6 0 0
-6 0 -1
6 0 1
6 0 2
-6 0 -2
-6 0 -3
6 0 3
-6 0 -4
6 0 4
-6 0 -5
6 0 5
6 0 6
-6 0 -6
-6 0 -7
6 0 7
6 0 8
-6 0 -8
-6 0 -9
-6 0 -10
6 0 10
-6 0 -11
6 0 11
6 0 12
-6 0 -12
-6 0 -13
6 0 13
-6 -1 8
6 -1 -7
-6 1 7
6 1 -7
-6 -1 7
6 -1 -6
6 1 -6
-6 1 6
-6 -1 6
6 -1 -5
6 1 -5
-6 1 5
-6 -1 5
6 -1 -4
-6 1 4
6 -1 -2
6 1 -2
-6 -1 2
-6 1 2
6 -1 -1
6 1 -1
-6 1 1
-6 -1 1
6 -1 0
-6 -1 0
6 -1 1
6 1 1
-6 1 -1
-6 -1 -1
6 -1 2
6 1 2
-6 1 -2
-6 -1 -2
6 1 3
-6 1 -3
-6 -1 -3
6 -1 3
6 -1 5
6 1 5
-6 1 -5
-6 -1 -5
-6 -1 -6
6 -1 6
6 1 6
-6 1 -6
6 -1 7
6 1 7
-6 1 -7
-6 -1 -7
6 -1 8
6 1 8
-6 1 -8
6 -1 10
6 1 10
-6 -1 -10
-6 1 -10
6 -1 11
-6 1 -11
-6 -1 -11
6 1 11
6 1 12
-6 -1 -12
6 -1 13
6 1 13
-6 1 -13
-6 -1 -13
6 -2 -7
-6 2 7
6 2 -7
-6 -2 7
6 -2 -6
-6 2 6
6 2 -6
-6 -2 6
6 -2 -5
6 2 -4
-6 -2 4
6 -2 -3
6 2 -3
-6 2 3
-6 -2 3
-6 2 2
6 -2 -2
6 2 -2
-6 -2 2
6 -2 -1
6 2 -1
-6 2 1
-6 -2 1
6 -2 0
-6 -2 0
6 -2 1
6 2 1
-6 2 -1
-6 -2 -1
-6 2 -2
6 -2 2
6 2 2
-6 -2 -2
6 2 4
6 -2 4
-6 2 -4
-6 -2 -4
6 -2 5
6 2 5
-6 2 -5
-6 -2 -5
6 -2 6
6 2 6
-6 2 -6
-6 -2 -6
6 -2 7
6 2 7
-6 2 -7
-6 -2 -7
6 -2 8
6 2 8
-6 2 -8
-6 -2 -8
6 -2 9
6 2 9
-6 2 -9
-6 -2 -9
-6 2 -10
6 -2 10
-6 -2 -10
6 2 10
-6 -2 -11
-6 2 -11
6 -2 11
6 2 11
-6 2 -12
6 -2 12
6 -2 13
-6 2 -13
6 2 13
-6 -2 -13
6 3 -7
-6 -3 7
6 3 -6
-6 -3 6
6 3 -5
6 -3 -5
-6 3 5
-6 -3 5
6 -3 -4
-6 3 4
6 3 -4
-6 -3 4
6 -3 -3
-6 3 3
6 3 -3
-6 -3 3
6 3 -2
6 -3 -2
-6 -3 2
6 -3 -1
6 3 -1
-6 3 1
-6 -3 1
6 -3 0
-6 3 0
-6 -3 0
-6 3 -1
6 3 2
-6 -3 -2
6 -3 3
6 3 3
-6 3 -3
-6 -3 -3
-6 3 -4
6 -3 4
6 3 4
-6 -3 -4
6 -3 5
6 3 5
-6 3 -5
-6 -3 -5
6 -3 6
6 3 6
-6 3 -6
-6 -3 -6
6 3 7
-6 -3 -7
6 -3 8
6 3 8
-6 3 -8
6 -3 9
6 3 9
-6 3 -9
-6 -3 -9
6 -3 10
6 3 10
-6 3 -10
-6 -3 -10
6 -3 11
-6 3 -11
6 -3 12
6 3 12
-6 3 -12
-6 -3 -12
6 3 13
-6 -4 7
6 -4 -6
-6 4 6
6 4 -6
-6 -4 6
6 -4 -5
-6 4 5
6 4 -5
-6 -4 5
6 -4 -4
-6 4 4
6 4 -4
-6 -4 4
6 -4 -3
-6 4 3
6 -4 -2
-6 4 2
6 4 -2
-6 -4 2
6 4 -1
-6 -4 1
6 -4 0
-6 4 0
-6 -4 0
6 -4 1
-6 4 -1
6 4 1
-6 -4 -1
6 4 2
-6 4 -2
6 -4 2
-6 -4 -2
6 4 3
-6 -4 -3
6 -4 4
6 4 4
-6 -4 -4
6 -4 5
6 4 5
-6 -4 -5
6 -4 6
6 4 6
-6 -4 -6
6 -4 7
6 4 7
-6 -4 -7
6 4 8
6 -4 8
-6 -4 -8
6 4 9
-6 -4 -9
-6 4 -10
6 -4 10
6 4 10
-6 -4 -10
6 4 11
-6 4 -11
6 -4 11
-6 -4 -11
6 -4 12
-6 4 -12
-6 4 -13
6 -4 13
6 5 -6
-6 -5 6
6 5 -5
-6 -5 5
-6 5 4
6 5 -4
-6 -5 4
6 -5 -3
6 5 -3
-6 5 3
6 -5 -2
-6 5 2
6 5 -2
-6 -5 2
6 -5 -1
-6 5 1
6 5 -1
-6 -5 1
6 -5 0
-6 5 0
6 5 0
-6 -5 0
6 5 1
6 -5 1
-6 -5 -1
6 -5 2
-6 5 -2
6 5 3
-6 -5 -3
6 5 4
6 -5 4
-6 5 -4
-6 -5 -4
6 -5 5
-6 5 -5
6 5 5
-6 -5 -5
-6 5 -6
6 5 6
6 -5 6
-6 -5 -6
6 5 7
-6 -5 -7
6 -5 8
-6 5 -8
-6 -5 -8
6 5 9
-6 5 -9
-6 -5 -9
6 5 10
-6 -5 -10
6 5 11
-6 5 -11
6 -5 11
-6 -5 -11
6 5 12
-6 -6 6
6 6 -5
-6 -6 5
-6 6 4
6 -6 -4
6 6 -4
-6 -6 4
6 -6 -3
-6 6 3
6 6 -3
-6 -6 3
6 6 -2
-6 -6 2
6 -6 -1
-6 6 1
6 6 -1
-6 -6 1
6 -6 0
-6 6 0
6 6 0
6 -6 1
-6 6 -1
-6 -6 -1
-6 6 -2
6 6 2
6 -6 2
-6 -6 -2
6 -6 3
-6 6 -3
6 6 3
-6 -6 -3
6 -6 4
-6 6 -4
6 6 5
6 -6 5
-6 6 -5
-6 -6 -5
6 -6 6
-6 6 -6
6 6 6
-6 -6 -6
6 6 7
6 -6 7
-6 6 -7
6 6 9
-6 6 -9
-6 -6 -9
6 6 10
-6 -6 -10
6 6 11
6 -6 11
-6 -6 -11
6 7 -4
6 -7 -3
-6 7 3
6 7 -3
-6 7 2
6 -7 -2
6 7 -2
-6 -7 2
6 7 -1
-6 -7 1
6 7 0
-6 -7 0
6 7 1
-6 -7 -1
6 -7 2
-6 7 -2
6 7 2
-6 -7 -2
6 7 3
6 -7 3
-6 7 -3
-6 -7 -3
6 7 4
6 -7 4
-6 7 -4
-6 -7 -4
6 -7 5
-6 7 -5
6 7 5
-6 -7 -5
6 7 6
6 -7 6
-6 -7 -6
-6 7 -6
6 -7 7
-6 -7 -7
6 -7 8
-6 7 -8
6 -7 9
-6 7 -9
6 7 9
-6 -7 -9
6 8 -4
-6 -8 4
6 8 -3
-6 -8 3
6 8 -2
-6 -8 2
6 8 -1
-6 -8 1
6 -8 0
-6 8 0
6 8 0
-6 -8 0
6 -8 1
-6 8 -1
-6 -8 -1
6 -8 2
-6 8 -2
6 8 2
-6 -8 -2
6 -8 3
6 8 4
6 -8 4
-6 8 -4
-6 -8 -4
6 8 5
6 -8 5
-6 8 -5
-6 -8 -5
6 8 6
-6 9 1
7 0 -5
-7 0 5
-7 0 4
7 0 -4
7 0 -3
-7 0 3
-7 0 2
7 0 -2
7 0 -1
-7 0 1
-7 0 0
7 0 0
-7 0 -2
7 0 2
7 0 3
-7 0 -3
-7 0 -4
7 0 4
7 0 5
-7 0 -5
-7 0 -6
7 0 6
7 0 7
-7 0 -7
-7 0 -8
7 0 8
7 0 9
-7 0 -11
7 0 11
-7 0 -12
7 0 12
7 0 13
-7 0 -13
7 -1 -5
7 1 -5
-7 1 5
-7 -1 5
7 -1 -4
7 1 -4
-7 1 4
-7 -1 4
7 -1 -3
7 1 -3
-7 1 3
-7 -1 3
7 -1 -2
7 1 -2
-7 1 2
-7 -1 2
7 1 -1
-7 1 1
7 -1 -1
-7 -1 1
7 -1 0
7 1 0
-7 -1 0
7 1 1
-7 -1 -1
7 1 2
-7 1 -2
-7 -1 -2
7 -1 2
7 -1 3
7 1 3
-7 -1 -3
7 -1 4
7 1 4
-7 1 -4
-7 -1 -4
-7 1 -5
-7 -1 -5
7 -1 5
7 1 5
7 -1 7
7 1 7
-7 1 -7
-7 -1 -7
7 -1 8
7 1 8
-7 1 -8
-7 -1 -8
7 -1 9
7 1 9
-7 1 -9
7 -1 10
-7 1 -10
7 -1 11
7 1 11
-7 1 -11
-7 -1 -11
-7 1 -13
-7 -1 -13
7 -1 13
7 1 13
7 2 -6
-7 -2 6
7 2 -5
7 -2 -5
-7 -2 5
7 -2 -4
7 2 -4
-7 2 4
-7 -2 4
7 2 -3
-7 2 3
7 -2 -3
-7 -2 3
7 -2 -2
7 2 -2
-7 2 2
-7 -2 2
7 -2 -1
-7 2 1
7 2 0
-7 -2 0
7 -2 1
7 2 1
-7 2 -1
-7 -2 -1
7 2 2
-7 2 -2
-7 -2 -2
7 -2 3
7 2 3
-7 2 -3
-7 -2 -3
7 -2 4
7 2 4
-7 2 -4
-7 -2 -4
7 -2 5
7 2 5
-7 2 -5
-7 -2 -5
7 -2 6
7 2 6
-7 2 -6
-7 -2 -6
7 2 7
-7 2 -7
7 -2 7
-7 -2 -7
7 -2 8
7 2 8
-7 2 -8
-7 -2 -8
-7 -2 -9
-7 2 -10
7 -2 10
-7 -2 -10
7 2 10
7 -2 11
7 2 11
-7 2 -11
-7 -2 -11
-7 2 -12
7 -2 12
-7 -2 -12
7 2 12
-7 2 -13
7 -2 13
7 2 13
-7 -3 6
7 -3 -5
-7 3 5
7 3 -5
-7 -3 5
7 -3 -4
-7 3 4
7 -3 -3
-7 3 3
7 3 -2
-7 -3 2
7 -3 -1
7 3 -1
-7 3 1
-7 -3 1
7 -3 0
7 3 0
-7 3 0
-7 -3 0
-7 3 -1
7 -3 1
7 3 1
-7 -3 -1
7 3 2
-7 3 -2
-7 -3 -2
7 -3 3
7 3 3
-7 3 -3
-7 -3 -3
7 3 5
-7 3 -5
7 -3 5
-7 -3 -5
7 -3 6
7 3 6
-7 3 -6
-7 -3 -6
7 -3 7
-7 3 -7
7 3 7
-7 -3 -7
7 3 8
-7 -3 -8
7 -3 9
-7 3 -9
-7 -3 -9
7 3 10
-7 3 -10
7 -3 10
-7 -3 -10
7 -3 11
-7 3 -11
-7 3 -12
7 -3 12
-7 -3 -12
7 3 12
7 -3 13
-7 3 -13
-7 -4 6
7 4 -5
-7 -4 5
7 4 -4
-7 4 4
7 -4 -4
-7 -4 4
7 -4 -3
-7 4 3
7 4 -3
-7 -4 3
7 -4 -2
-7 4 2
7 4 -2
-7 -4 2
7 4 -1
7 -4 -1
-7 4 1
-7 -4 1
7 -4 0
-7 4 0
7 4 0
-7 -4 0
7 -4 1
-7 4 -1
7 4 2
7 -4 3
7 4 3
-7 -4 -3
7 -4 4
7 4 4
-7 4 -4
-7 -4 -4
7 -4 5
7 4 5
-7 4 -5
-7 -4 -5
7 -4 6
7 4 6
-7 4 -6
-7 -4 -6
7 4 7
-7 4 -7
7 -4 7
-7 -4 -7
7 -4 8
7 4 8
-7 -4 -8
7 4 9
7 -4 9
-7 -4 -9
-7 4 -10
7 4 10
-7 -4 -10
7 4 11
7 -4 11
-7 -4 -11
-7 4 -11
-7 4 -12
7 4 12
-7 -4 -12
-7 5 4
-7 5 3
7 -5 -3
7 5 -2
-7 5 2
7 -5 -2
-7 -5 2
7 5 -1
-7 -5 1
-7 5 0
7 -5 0
7 5 0
-7 -5 0
-7 5 -1
7 5 1
7 -5 1
7 5 2
7 -5 2
-7 5 -2
-7 -5 -2
-7 5 -3
7 5 3
-7 -5 -3
-7 5 -4
7 -5 5
-7 5 -5
7 5 5
-7 -5 -5
7 -5 6
-7 5 -6
7 5 6
-7 -5 -6
7 -5 7
-7 5 -7
7 5 7
-7 -5 -7
7 -5 8
-7 5 -8
7 -5 9
7 5 9
-7 -5 -9
7 -5 10
-7 5 -10
7 -5 11
-7 5 -11
7 5 11
-7 -5 -11
7 6 -4
-7 -6 4
7 6 -3
-7 -6 3
7 -6 -2
7 6 -2
-7 6 2
-7 -6 2
7 -6 -1
-7 6 1
7 -6 0
-7 6 0
7 6 0
-7 -6 0
7 6 1
7 -6 2
-7 6 -2
7 6 2
-7 -6 -2
7 6 3
7 -6 3
-7 -6 -3
-7 6 -4
7 -6 4
7 6 4
-7 -6 -4
7 6 6
7 -6 6
-7 6 -6
-7 -6 -6
7 6 7
7 -6 7
-7 6 -7
-7 -6 -7
7 -6 8
-7 6 -8
7 6 9
7 -6 9
-7 -6 -9
-7 -7 4
7 7 -3
-7 -7 3
-7 7 2
7 -7 -2
7 -7 -1
-7 7 1
-7 7 0
7 7 0
7 7 1
-7 -7 -1
7 -7 2
-7 7 -2
-7 -7 -2
7 -7 3
-7 7 -3
7 7 3
-7 -7 -3
-7 7 -4
7 7 4
7 -7 5
-7 7 -5
7 7 5
-7 -7 -5
-7 7 -6
7 7 6
7 -7 6
-7 -7 -6
7 8 -2
-7 -8 2
7 8 -1
-7 -8 1
-7 8 0
7 8 0
7 -8 0
-7 -8 0
7 -8 1
7 8 1
-7 -8 -1
7 -8 2
-7 8 -2
-8 0 5
8 0 -4
-8 0 4
8 0 -2
-8 0 2
-8 0 1
8 0 -1
-8 0 0
8 0 0
-8 0 -1
8 0 1
8 0 2
8 0 4
-8 0 -4
-8 0 -5
8 0 5
8 0 6
-8 0 -6
8 0 8
-8 0 -8
-8 0 -9
8 0 9
-8 0 -11
8 0 11
8 0 12
-8 0 -12
-8 1 5
-8 -1 5
8 -1 -4
-8 1 4
8 1 -3
-8 -1 3
8 -1 -2
8 1 -2
-8 1 2
-8 -1 2
8 -1 -1
8 1 -1
-8 1 1
-8 -1 1
8 -1 0
8 1 0
-8 1 0
-8 -1 0
8 -1 1
8 1 1
-8 1 -1
-8 -1 -1
8 -1 2
8 1 2
-8 1 -2
-8 1 -4
-8 -1 -4
8 -1 4
8 1 4
8 -1 5
8 1 5
-8 1 -5
-8 -1 -5
8 -1 6
8 1 6
-8 1 -6
-8 -1 -6
8 -1 8
-8 1 -8
-8 -1 -8
8 -1 9
8 1 9
-8 1 -9
-8 -1 -9
8 1 10
-8 1 -10
-8 -1 -10
-8 1 -11
-8 -1 -11
8 -1 11
8 1 11
8 -1 12
-8 1 -12
-8 -1 -12
8 2 -4
-8 -2 4
8 -2 -3
8 2 -3
-8 2 3
-8 -2 3
8 2 -2
-8 2 2
8 -2 -2
-8 -2 2
8 -2 -1
8 2 -1
-8 2 1
-8 -2 1
8 -2 0
8 2 0
-8 2 0
-8 -2 0
8 2 1
-8 2 -1
8 -2 1
-8 -2 -1
8 2 3
-8 2 -3
-8 -2 -3
8 -2 4
8 2 4
-8 2 -4
-8 -2 -4
8 -2 5
8 2 5
-8 2 -5
-8 -2 -5
8 -2 6
-8 2 -6
8 -2 7
8 2 7
-8 2 -7
-8 -2 -7
8 -2 8
8 2 8
-8 2 -8
-8 -2 -8
-8 2 -10
-8 -2 -10
8 2 10
8 -2 12
-8 -2 -12
8 2 12
-8 3 4
8 3 -4
-8 -3 4
8 3 -3
-8 -3 3
8 -3 -2
-8 3 2
8 3 -2
-8 -3 2
8 3 -1
-8 3 1
8 -3 -1
-8 -3 1
-8 3 0
8 -3 1
8 3 1
-8 3 -1
-8 -3 -1
8 3 2
-8 3 -2
8 -3 2
8 -3 3
-8 -3 -3
8 -3 4
8 3 4
-8 3 -4
-8 -3 -4
8 -3 6
8 3 6
-8 3 -6
-8 -3 -6
8 -3 7
8 3 7
-8 3 -7
-8 -3 -7
8 -3 9
8 3 9
-8 3 -9
-8 -3 -10
8 3 10
8 -3 11
8 3 11
-8 3 -11
8 -4 -3
-8 4 3
8 4 -3
-8 -4 3
8 4 -2
-8 -4 2
8 -4 -1
-8 4 1
8 4 -1
-8 -4 1
8 4 0
-8 4 0
8 -4 0
-8 -4 0
-8 4 -1
8 4 1
-8 -4 -1
8 4 2
8 -4 2
8 4 4
-8 4 -4
8 -4 4
-8 -4 -4
8 4 5
-8 4 -5
8 -4 5
-8 -4 -5
8 -4 6
8 4 6
-8 4 -6
-8 -4 -6
8 4 7
-8 4 -7
8 -4 7
-8 -4 -7
8 -4 8
8 4 8
-8 -4 -8
8 4 10
-8 4 -10
-8 -4 -10
8 5 -3
-8 -5 3
8 -5 -2
-8 5 2
8 5 -2
-8 -5 2
8 -5 -1
-8 5 1
-8 5 0
8 5 0
8 -5 0
-8 -5 0
8 5 1
-8 5 -1
8 -5 1
-8 -5 -1
8 -5 2
-8 5 -2
8 5 2
-8 -5 -2
8 -5 3
-8 5 -3
8 5 3
-8 -5 -3
8 5 4
-8 5 -4
8 -5 4
-8 -5 -4
8 5 5
-8 5 -5
8 -5 5
-8 -5 -5
8 -5 6
-8 5 -6
8 5 6
-8 -5 -6
8 5 7
-8 -5 -7
8 -5 8
-8 5 -8
8 5 8
-8 -5 -8
-8 -6 3
8 6 -2
-8 -6 2
-8 6 1
8 6 -1
8 -6 -1
-8 -6 1
-8 6 0
8 -6 0
8 6 1
-8 -6 -1
8 6 2
8 -6 2
-8 6 -2
-8 -6 -2
8 -6 3
-8 6 -3
-8 -6 -3
8 6 4
8 -6 4
-8 6 -4
-8 -6 -4
8 -6 5
-8 6 -5
8 6 5
-8 -6 -5
-8 6 -6
8 6 6
8 -6 6
-8 -6 -6
8 7 0
8 -7 0
-8 7 0
-8 -7 0
8 -7 1
8 7 1
-8 -7 -1
8 -7 2
-8 7 -2
8 7 2
-8 -7 -2
8 -7 3
-8 7 -3
9 0 -3
-9 0 3
-9 0 2
9 0 -2
-9 0 0
9 0 0
-9 0 -1
9 0 1
-9 0 -2
9 0 3
-9 0 -3
-9 0 -4
9 0 5
-9 0 -5
-9 0 -6
9 0 6
-9 0 -8
9 0 8
-9 0 -10
9 1 -3
-9 1 3
-9 -1 3
9 -1 -2
-9 1 2
-9 -1 1
9 -1 -1
9 1 -1
-9 1 0
-9 -1 0
9 -1 0
9 1 0
-9 1 -1
-9 -1 -1
9 -1 1
9 1 1
9 -1 2
9 1 2
-9 1 -2
-9 -1 -2
9 -1 3
-9 1 -3
-9 1 -4
-9 -1 -4
-9 1 -5
-9 -1 -5
9 -1 5
9 1 5
9 -1 6
9 1 6
-9 1 -6
-9 -1 -6
9 -1 7
9 1 7
-9 1 -7
9 -1 8
9 1 8
-9 1 -8
-9 -1 -8
-9 -1 -10
9 2 -2
-9 -2 2
9 -2 -1
9 2 -1
-9 2 1
-9 -2 1
9 -2 0
9 2 0
-9 2 0
-9 -2 0
9 -2 1
9 2 1
-9 2 -1
-9 -2 -1
-9 2 -2
9 -2 2
-9 -2 -2
9 -2 3
9 2 3
9 -2 4
-9 -2 -4
9 -2 5
9 2 5
-9 2 -5
-9 -2 -5
9 -2 7
9 2 7
-9 2 -7
-9 -2 -7
-9 2 -8
9 -2 8
-9 -2 -8
9 2 8
9 -2 9
9 2 9
-9 2 -9
-9 -2 -9
-9 -3 3
9 -3 -2
9 3 -2
-9 -3 2
9 -3 -1
9 3 -1
-9 3 1
-9 -3 1
9 3 0
-9 3 0
9 -3 0
-9 -3 0
9 -3 2
9 3 2
-9 3 -2
-9 -3 -2
9 -3 3
9 3 3
-9 3 -3
-9 -3 -3
9 -3 4
-9 3 -4
-9 -3 -4
9 3 6
-9 3 -6
9 -3 6
-9 -3 -6
9 -3 7
9 3 7
-9 3 -7
-9 -3 -7
9 -3 8
9 3 8
-9 3 -8
-9 -3 -8
9 4 -2
-9 -4 2
9 4 -1
-9 -4 1
9 -4 0
9 4 0
-9 -4 0
-9 4 -1
9 4 1
-9 -4 -1
9 -4 2
9 4 2
-9 -4 -2
9 -4 4
-9 -4 -4
9 4 5
-9 4 -5
-9 -4 -5
9 4 7
9 -4 7
-9 -4 -7
-9 -5 2
9 5 0
-9 -5 0
9 -5 1
-9 5 -1
9 5 1
-9 -5 -1
9 5 2
9 -5 2
-9 -5 -2
-9 5 -2
9 -5 3
-9 5 -3
9 5 3
-9 -5 -3
-9 -5 -4
9 -5 5
9 5 5
-9 -5 -5
9 6 -1
9 6 0
-9 -6 0
9 6 1
-9 -6 -1
9 -6 2
-9 6 -2
9 6 2
-9 -6 -2
-9 6 -3
10 0 0
-10 0 0
-10 0 -1
10 0 1
10 0 2
-10 0 -2
10 0 4
-10 0 -4
10 0 5
-10 0 -7
10 0 7
-10 -1 1
10 -1 0
-10 1 0
-10 -1 0
-10 1 -1
-10 -1 -1
10 -1 1
10 1 1
10 -1 2
10 1 2
-10 1 -2
-10 -1 -2
10 1 3
10 -1 4
10 1 4
-10 1 -4
-10 -1 -4
10 -1 5
10 1 5
10 -1 6
10 1 6
-10 -1 -6
10 -1 7
10 1 7
-10 1 -7
-10 -1 -7
10 2 -1
-10 -2 1
10 -2 0
10 2 0
-10 2 0
-10 -2 0
10 -2 1
10 2 1
-10 2 -1
-10 -2 -1
10 -2 3
10 2 3
-10 2 -3
10 -2 4
10 2 4
-10 2 -4
-10 -2 -4
-10 2 -6
-10 -2 -6
10 2 6
-10 3 0
10 3 1
-10 3 -1
10 -3 1
-10 -3 -1
10 3 2
-10 3 -2
10 -3 2
-10 -3 -2
10 -3 3
10 3 3
-10 3 -3
-10 -3 -3
10 -3 4
10 3 4
-10 -3 -4
10 3 5
-10 3 -5
10 4 0
-10 -4 0
-10 4 -1
10 4 2
-10 -4 -2
10 -4 3
10 4 3
-10 -4 -3
10 -4 4
-11 0 -2
11 0 2
11 0 3
-11 0 -3
-11 1 -2
-11 -1 -2
11 -1 2
11 1 2
11 -1 3
11 1 3
11 2 2
-11 2 -2
loop_
_geom_angle_atom_site_label_1
_geom_angle_atom_site_label_2
_geom_angle_atom_site_label_3
_geom_angle_site_symmetry_1
_geom_angle_site_symmetry_3
_geom_angle
_geom_angle_publ_flag
O21 N12 O22 . . 121.25(7) ?
C1 N12 O22 . . 120.24(6) ?
C1 N12 O21 . . 118.47(6) ?
O11 N11 O12 . . 120.95(6) ?
C1 N11 O12 . . 118.76(7) ?
C1 N11 O11 . . 120.22(7) ?
N21 C2 N22 . . 117.93(7) ?
C1 C2 N22 . . 120.94(8) ?
C1 C2 N21 . . 121.09(7) ?
N11 C1 N12 . . 116.20(6) ?
C2 C1 N12 . . 119.76(6) ?
C2 C1 N11 . . 123.99(8) ?
loop_
_geom_bond_atom_site_label_1
_geom_bond_atom_site_label_2
_geom_bond_site_symmetry_2
_geom_bond_distance
_geom_bond_publ_flag
O12 N11 . 1.2470(10) ?
O11 N11 . 1.2422(8) ?
O22 N12 . 1.2347(8) ?
O21 N12 . 1.2376(8) ?
N12 C1 . 1.4243(12) ?
N11 C1 . 1.3966(9) ?
N22 C2 . 1.3282(9) ?
N21 C2 . 1.3204(12) ?
C2 C1 . 1.4477(10) ?
loop_
_geom_torsion_atom_site_label_1
_geom_torsion_atom_site_label_2
_geom_torsion_atom_site_label_3
_geom_torsion_atom_site_label_4
_geom_torsion_site_symmetry_1
_geom_torsion_site_symmetry_2
_geom_torsion_site_symmetry_3
_geom_torsion_site_symmetry_4
_geom_torsion
_geom_torsion_publ_flag
O12 N11 C1 N12 . . . . -171.76(7) ?
O12 N11 C1 C2 . . . . 5.64(8) ?
O11 N11 C1 N12 . . . . 11.38(8) ?
O11 N11 C1 C2 . . . . -171.22(7) ?
O22 N12 C1 N11 . . . . 34.41(7) ?
O22 N12 C1 C2 . . . . -143.10(7) ?
O21 N12 C1 N11 . . . . -147.74(7) ?
O21 N12 C1 C2 . . . . 34.75(7) ?
N12 C1 C2 N22 . . . . -4.70(8) ?
N12 C1 C2 N21 . . . . 172.76(7) ?
N11 C1 C2 N22 . . . . 177.99(7) ?
N11 C1 C2 N21 . . . . -4.55(9) ?
