#------------------------------------------------------------------------------
#$Date: 2022-05-12 04:39:41 +0300 (Thu, 12 May 2022) $
#$Revision: 275356 $
#$URL: file:///home/coder/svn-repositories/cod/cif/2/10/89/2108974.cif $
#------------------------------------------------------------------------------
#
# This file is available in the Crystallography Open Database (COD),
# http://www.crystallography.net/. The original data for this entry
# were provided by IUCr Journals, http://journals.iucr.org/.
#
# The file may be used within the scientific community so long as
# proper attribution is given to the journal article from which the
# data were obtained.
#
data_2108974
loop_
_publ_author_name
'Aree, Thammarat'
'McMonagle, Charles J.'
'Michalchuk, Adam A. L.'
'Chernyshov, Dmitry'
_publ_section_title
;
 Low-frequency lattice vibrations from atomic displacement parameters of
 \a-FOX-7, a high energy density material
;
_journal_coeditor_code           WU5002
_journal_issue                   3
_journal_name_full               'Acta Crystallographica Section B'
_journal_page_first
;
;
_journal_paper_doi               10.1107/S2052520622002700
_journal_volume                  78
_journal_year                    2022
_chemical_formula_moiety         'C2 H4 N4 O4'
_chemical_formula_sum            'C2 H4 N4 O4'
_chemical_formula_weight         148.079
_chemical_name_systematic        1,1-Diamino-2,2-dinitroethylene
_space_group_crystal_system      monoclinic
_space_group_IT_number           14
_space_group_name_Hall           '-P 2yn'
_space_group_name_H-M_alt        'P 1 21/n 1'
_atom_sites_solution_primary     notdet
_audit_creation_method
;
Olex2 1.3
(compiled 2020.11.12 svn.r5f609507 for OlexSys, GUI svn.r6408)
;
_cell_angle_alpha                90
_cell_angle_beta                 90.5886(16)
_cell_angle_gamma                90
_cell_formula_units_Z            4
_cell_length_a                   6.93500(10)
_cell_length_b                   6.61900(10)
_cell_length_c                   11.3172(2)
_cell_measurement_reflns_used    1144
_cell_measurement_temperature    280
_cell_measurement_theta_max      32.2390
_cell_measurement_theta_min      3.3340
_cell_volume                     519.463(14)
_computing_cell_refinement
;
CrysAlisPro 1.171.40.67a (Rigaku OD, 2019)
;
_computing_data_collection
;
CrysAlisPro 1.171.40.67a (Rigaku OD, 2019)
;
_computing_data_reduction
;
CrysAlisPro 1.171.40.67a (Rigaku OD, 2019)
;
_computing_molecular_graphics
;
Olex2 1.3 (Dolomanov <i>et al.</i>,  2009)
;
_computing_publication_material
;
Olex2 1.3 (Dolomanov <i>et al.</i>,  2009)
;
_computing_structure_refinement
;
olex2.refine 1.3 (Bourhis <i>et al.</i>,  2015)
;
_diffrn_ambient_temperature      280.0
_diffrn_detector                 'Hybrid Pixel Array Detector'
_diffrn_detector_area_resol_mean 5.8140
_diffrn_measured_fraction_theta_full 0.9021
_diffrn_measured_fraction_theta_max 0.6701
_diffrn_measurement_device       'one-circle diffractometer'
_diffrn_measurement_device_type  'BM01 ESRF 2M 20210501'
_diffrn_measurement_method       '\w scans'
_diffrn_radiation_monochromator  'silicon 111'
_diffrn_radiation_probe          x-ray
_diffrn_radiation_type           synchrotron
_diffrn_radiation_wavelength     0.66418
_diffrn_reflns_av_R_equivalents  0.0334
_diffrn_reflns_av_unetI/netI     0.0438
_diffrn_reflns_limit_h_max       11
_diffrn_reflns_limit_h_min       -11
_diffrn_reflns_limit_k_max       10
_diffrn_reflns_limit_k_min       -10
_diffrn_reflns_limit_l_max       13
_diffrn_reflns_limit_l_min       -13
_diffrn_reflns_number            4928
_diffrn_reflns_theta_full        23.4849
_diffrn_reflns_theta_max         32.73
_diffrn_reflns_theta_min         3.23
_diffrn_source
;
European Synchrotron Radiation Facility (ESRF), BM01 - The Swiss-Norwegian
Beamlines
;
_exptl_absorpt_coefficient_mu    0.152
_exptl_absorpt_correction_T_max  1.00000
_exptl_absorpt_correction_T_min  0.73422
_exptl_absorpt_correction_type   multi-scan
_exptl_absorpt_process_details
;
CrysAlisPro 1.171.40.67a (Rigaku OD, 2019)
Empirical absorption correction using spherical harmonics,
implemented in SCALE3 ABSPACK scaling algorithm.
;
_exptl_crystal_colour            'clear yellow'
_exptl_crystal_density_diffrn    1.893
_exptl_crystal_description       block
_exptl_crystal_F_000             304.164
_exptl_crystal_size_max          0.2
_exptl_crystal_size_mid          0.1
_exptl_crystal_size_min          0.1
_refine_diff_density_max         0.4863
_refine_diff_density_min         -0.3178
_refine_ls_goodness_of_fit_ref   1.0455
_refine_ls_hydrogen_treatment    refall
_refine_ls_matrix_type           full
_refine_ls_number_constraints    0
_refine_ls_number_parameters     127
_refine_ls_number_reflns         1576
_refine_ls_number_restraints     93
_refine_ls_restrained_S_all      1.0135
_refine_ls_R_factor_all          0.0696
_refine_ls_R_factor_gt           0.0574
_refine_ls_shift/su_max          0.0001
_refine_ls_shift/su_mean         0.0000
_refine_ls_structure_factor_coef Fsqd
_refine_ls_weighting_details
'w=1/[\s^2^(Fo^2^)+(0.1274P)^2^+0.0555P] where P=(Fo^2^+2Fc^2^)/3'
_refine_ls_weighting_scheme      calc
_refine_ls_wR_factor_gt          0.1682
_refine_ls_wR_factor_ref         0.1874
_reflns_number_gt                1222
_reflns_number_total             1576
_reflns_threshold_expression     I>=2u(I)
_iucr_refine_instructions_details
;
TITL 080_a.res in P2(1)/n
REM Old TITL 080 in P2(1)/n
REM SHELXT solution in P2(1)/n: R1 0.095, Rweak 0.008, Alpha 0.021
REM <I/s> 0.719 for 71 systematic absences, Orientation as input
REM Formula found by SHELXT: C3 N2 O5
CELL 0.66418 6.935 6.619 11.3172 90 90.5886 90
ZERR 4 0.0001 0.0001 0.0002 0 0.0016 0
LATT 1
SYMM 0.5-X,0.5+Y,0.5-Z
SFAC C H N O
DISP C 0.0028 0.0014 9.9123
DISP H -0 0 0.6652
DISP N 0.0056 0.0029 16.5876
DISP O 0.0097 0.0054 27.0096
UNIT 8 16 16 16
RIGU O11 O12 O21 O22 N11 N12 N21 H21a H21b N22 H22a H22b C1 C2
L.S. 30
PLAN  5
TEMP 6.85
CONF
BOND
MORE -1
BOND $H
fmap 2
acta
LIST -6
OMIT -2 0 4
OMIT -1 0 1
OMIT -4 1 8
WGHT 0.127404 0.055506
FVAR 9.220506
REM <olex2.extras>
REM <HklSrc "%.\\280.hkl">
REM </olex2.extras>
O12   4     0.58111  0.70251  0.58113  11.00000  0.02658  0.07395  0.03402 =
 0.00995  0.00229  0.00061
O11   4     0.52327  0.56192  0.74958  11.00000  0.03044  0.05385  0.02900 =
 0.00696 -0.00669  0.00397
O22   4     0.19785  0.66760  0.83524  11.00000  0.03215  0.07141  0.02116 =
 -0.00277 -0.00034 -0.00361
O21   4    -0.01722  0.56190  0.71261  11.00000  0.02984  0.05999  0.02729 =
 0.00129  0.00058 -0.01039
N12   3     0.14537  0.62982  0.73361  11.00000  0.02608  0.03919  0.02197 =
 0.00130 -0.00182 -0.00009
N11   3     0.46549  0.64628  0.65803  11.00000  0.02498  0.04147  0.02087 =
 0.00020 -0.00139  0.00173
N22   3    -0.00191  0.75450  0.50974  11.00000  0.02905  0.04459  0.02597 =
 0.00333 -0.00497  0.00116
H22a  2    -0.06007  0.80073  0.43599  11.00000  0.03254  0.06335  0.03756 =
 0.01497 -0.00891 -0.00445
H22b  2    -0.09548  0.70096  0.56984  11.00000  0.03927  0.07418  0.04097 =
 0.02079  0.00017  0.00051
N21   3     0.29928  0.79937  0.43929  11.00000  0.03225  0.05789  0.02872 =
 0.00928  0.00082  0.00165
H21a  2     0.24645  0.85460  0.36463  11.00000  0.03858  0.06644  0.02992 =
 0.01121  0.00116  0.00318
H21b  2     0.43949  0.79841  0.45263  11.00000  0.03253  0.04833  0.04275 =
 0.00646 -0.00015  0.00129
C2    1     0.18755  0.74099  0.52566  11.00000  0.02664  0.03410  0.02045 =
 0.00066 -0.00138  0.00135
C1    1     0.26876  0.67055  0.63638  11.00000  0.02393  0.03548  0.02142 =
 0.00234 -0.00170  0.00034
HKLF 4
END
Q2 1 0.2 0.666667 0.833333 11 0.05 0.46
Q3 1 -0.033333 0.574074 0.708333 11 0.05 0.46
Q1 1 0 0.759259 0.520833 11 0.05 0.49
Q4 1 0.133333 0.62963 0.729167 11 0.05 0.46
Q5 1 0.3 0.814815 0.4375 11 0.05 0.45
  REM The information below was added by Olex2.
  REM
  REM R1 = 0.0574 for 1222 Fo > 4sig(Fo) and 0.0696 for all 1576 data
  REM 127 parameters refined using 93 restraints
  REM Highest difference peak 0.4863, deepest hole -0.3178
  REM Mean Shift 0.0000, Max Shift 0.0001.
  REM +++ Tabular Listing of Refinement Information +++
  REM R1_all = 0.0696
  REM R1_gt = 0.0574
  REM wR_ref = 0.1874
  REM GOOF = 1.0455
  REM Shift_max = 0.0001
  REM Shift_mean = 0.0000
  REM Reflections_all = 1576
  REM Reflections_gt = 1222
  REM Parameters = 127
  REM Hole = -0.3178
  REM Peak = 0.4863
  REM Flack = n/a
;
_cod_data_source_file            wu5002sup1.cif
_cod_data_source_block           280
_cod_database_code               2108974
loop_
_space_group_symop_id
_space_group_symop_operation_xyz
1 x,y,z
2 -x+1/2,y+1/2,-z+1/2
3 -x,-y,-z
4 x-1/2,-y-1/2,z-1/2
loop_
_atom_site_type_symbol
_atom_site_label
_atom_site_fract_x
_atom_site_fract_y
_atom_site_fract_z
_atom_site_U_iso_or_equiv
_atom_site_adp_type
_atom_site_occupancy
O O12 0.58111(18) 0.7025(2) 0.58113(13) 0.0448(4) Uani 1.000000
O O11 0.52327(17) 0.56192(19) 0.74958(12) 0.0378(4) Uani 1.000000
O O22 0.19785(18) 0.6676(2) 0.83524(12) 0.0416(4) Uani 1.000000
O O21 -0.01722(16) 0.5619(2) 0.71261(12) 0.0390(4) Uani 1.000000
N N12 0.14537(18) 0.62982(19) 0.73361(12) 0.0291(3) Uani 1.000000
N N11 0.46549(18) 0.64628(19) 0.65803(12) 0.0291(3) Uani 1.000000
N N22 -0.00191(19) 0.75450(19) 0.50974(14) 0.0332(4) Uani 1.000000
H H22a -0.060(4) 0.801(4) 0.436(2) 0.045(6) Uani 1.000000
H H22b -0.095(5) 0.701(5) 0.570(3) 0.051(7) Uani 1.000000
N N21 0.2993(2) 0.7994(2) 0.43929(15) 0.0396(4) Uani 1.000000
H H21a 0.246(4) 0.855(4) 0.365(2) 0.045(6) Uani 1.000000
H H21b 0.439(4) 0.798(4) 0.453(3) 0.041(6) Uani 1.000000
C C2 0.1875(2) 0.7410(2) 0.52566(14) 0.0271(4) Uani 1.000000
C C1 0.2688(2) 0.6706(2) 0.63638(14) 0.0270(4) Uani 1.000000
loop_
_atom_site_aniso_label
_atom_site_aniso_U_11
_atom_site_aniso_U_22
_atom_site_aniso_U_33
_atom_site_aniso_U_12
_atom_site_aniso_U_13
_atom_site_aniso_U_23
O12 0.0266(6) 0.0740(9) 0.0340(9) 0.0006(5) 0.0023(5) 0.0099(6)
O11 0.0304(6) 0.0538(7) 0.0290(8) 0.0040(4) -0.0067(5) 0.0070(5)
O22 0.0322(6) 0.0714(8) 0.0212(7) -0.0036(5) -0.0003(5) -0.0028(5)
O21 0.0298(6) 0.0600(7) 0.0273(8) -0.0104(4) 0.0006(5) 0.0013(5)
N12 0.0261(5) 0.0392(6) 0.0220(8) -0.0001(4) -0.0018(5) 0.0013(4)
N11 0.0250(5) 0.0415(6) 0.0209(8) 0.0017(4) -0.0014(5) 0.0002(5)
N22 0.0291(6) 0.0446(7) 0.0260(9) 0.0012(5) -0.0050(6) 0.0033(5)
H22a 0.033(8) 0.063(15) 0.038(6) -0.004(5) -0.009(3) 0.015(4)
H22b 0.039(7) 0.074(17) 0.041(9) 0.001(4) 0.000(3) 0.021(6)
N21 0.0323(7) 0.0579(8) 0.0287(9) 0.0016(6) 0.0008(6) 0.0093(6)
H21a 0.039(9) 0.066(15) 0.030(6) 0.003(5) 0.001(3) 0.011(4)
H21b 0.033(4) 0.048(14) 0.043(10) 0.001(2) -0.0001(19) 0.006(6)
C2 0.0266(6) 0.0341(6) 0.0205(9) 0.0013(4) -0.0014(5) 0.0007(5)
C1 0.0239(6) 0.0355(6) 0.0214(9) 0.0003(4) -0.0017(5) 0.0023(5)
loop_
_atom_type_symbol
_atom_type_scat_dispersion_source
_atom_type_scat_dispersion_real
_atom_type_scat_dispersion_imag
_atom_type_scat_source
H custom 0.00000 0.00000 'NoSpherA2: Chem.Sci. 2021, DOI:10.1039/D0SC05526C'
C custom 0.00280 0.00140 'NoSpherA2: Chem.Sci. 2021, DOI:10.1039/D0SC05526C'
O custom 0.00970 0.00540 'NoSpherA2: Chem.Sci. 2021, DOI:10.1039/D0SC05526C'
N custom 0.00560 0.00290 'NoSpherA2: Chem.Sci. 2021, DOI:10.1039/D0SC05526C'
loop_
_diffrn_refln_index_h
_diffrn_refln_index_k
_diffrn_refln_index_l
0 0 -2
0 0 2
0 0 3
0 0 -3
0 0 -4
0 0 4
0 0 5
0 0 -5
0 0 -6
0 0 7
0 0 -7
0 0 -8
0 0 8
0 0 11
0 0 -12
0 0 12
0 1 0
0 -1 0
0 1 -1
0 -1 1
0 -1 -1
0 1 1
0 -1 -2
0 1 2
0 -1 2
0 1 -2
0 1 3
0 1 -3
0 -1 3
0 -1 -3
0 1 4
0 -1 4
0 -1 -4
0 1 -4
0 1 5
0 1 -5
0 -1 5
0 1 6
0 -1 -6
0 -1 -7
0 1 7
0 1 -8
0 -1 8
0 -1 -8
0 1 8
0 1 -9
0 -1 9
0 -1 10
0 1 -10
0 -1 11
0 1 11
0 1 -11
0 -1 -11
0 1 12
0 1 -12
0 -1 -12
0 -1 12
0 -2 0
0 2 0
0 -2 -1
0 2 1
0 2 -1
0 -2 1
0 2 2
0 -2 -2
0 2 3
0 -2 -3
0 -2 4
0 2 -4
0 -2 -4
0 2 4
0 2 -5
0 -2 5
0 2 -6
0 -2 7
0 2 -7
0 2 7
0 -2 -7
0 2 8
0 2 -8
0 -2 8
0 -2 -8
0 2 9
0 2 -9
0 -2 9
0 -2 -9
0 -2 10
0 2 -10
0 -2 -10
0 2 10
0 2 -11
0 2 11
0 -2 11
0 2 12
0 -2 -12
0 2 -12
0 -2 12
0 -3 0
0 3 0
0 3 -1
0 -3 -1
0 3 1
0 -3 1
0 3 2
0 3 -2
0 -3 2
0 -3 -2
0 3 3
0 3 -3
0 -3 3
0 -3 -3
0 3 4
0 -3 -4
0 3 5
0 -3 -5
0 3 -6
0 -3 -6
0 3 6
0 -3 -7
0 3 -7
0 3 7
0 -3 7
0 3 8
0 -3 -8
0 3 -8
0 -3 9
0 -3 -9
0 3 9
0 3 10
0 3 -10
0 -3 -10
0 -3 10
0 -3 -11
0 3 11
0 3 -12
0 -3 12
0 3 12
0 -4 0
0 4 0
0 4 -1
0 -4 -1
0 -4 1
0 4 1
0 4 2
0 4 -2
0 -4 -2
0 -4 2
0 -4 -3
0 4 3
0 4 -3
0 -4 3
0 -4 4
0 4 -4
0 4 4
0 -4 -4
0 -4 -5
0 4 6
0 -4 -6
0 -4 -7
0 -4 7
0 4 7
0 4 -7
0 4 -8
0 -4 8
0 4 8
0 -4 -8
0 -4 9
0 4 -9
0 4 -10
0 -4 10
0 4 -11
0 -4 11
0 -4 12
0 -5 0
0 5 0
0 5 1
0 -5 -1
0 -5 1
0 5 -1
0 5 2
0 -5 2
0 -5 -2
0 5 -2
0 5 3
0 -5 -3
0 5 -3
0 -5 3
0 -5 4
0 5 -4
0 5 4
0 5 5
0 -5 -5
0 5 -5
0 -5 5
0 -5 -6
0 5 -6
0 -5 6
0 5 6
0 -5 7
0 -5 -7
0 5 7
0 5 -7
0 -5 -8
0 5 8
0 -5 8
0 5 -8
0 5 -9
0 -5 -9
0 5 9
0 -5 9
0 -5 -10
0 5 10
0 5 11
0 -6 0
0 6 0
0 -6 1
0 6 1
0 -6 -1
0 6 -1
0 6 2
0 6 -2
0 -6 2
0 -6 -2
0 -6 3
0 6 -3
0 6 3
0 -6 -3
0 -6 -4
0 6 5
0 -6 -5
0 6 -6
0 -6 6
0 -6 -6
0 6 6
0 6 -7
0 -6 7
0 -6 -7
0 6 7
0 -6 8
0 6 -8
0 6 -9
0 -6 9
0 6 -10
0 -6 10
0 6 10
0 -6 -10
0 6 -11
0 -6 11
0 7 0
0 -7 0
0 -7 -1
0 7 1
0 -7 1
0 7 -1
0 7 2
0 -7 -2
0 -7 2
0 7 -2
0 7 -3
0 7 3
0 -7 3
0 -7 4
0 7 4
0 -7 -4
0 7 -4
0 7 5
0 -7 5
0 -7 -5
0 -7 6
0 7 -6
0 7 6
0 -7 -6
0 -7 -7
0 7 7
0 -7 -8
0 7 8
0 7 -8
0 -7 8
0 7 9
0 -7 9
0 -7 -9
0 7 -9
0 7 -10
0 -7 10
0 8 0
0 -8 0
0 8 1
0 -8 1
0 8 -1
0 -8 -1
0 -8 2
0 -8 -2
0 8 2
0 8 -2
0 8 -3
0 -8 -3
0 -8 3
0 -8 4
0 -8 -4
0 8 -4
0 8 4
0 8 -5
0 -8 -5
0 8 5
0 -8 5
0 8 6
0 -8 6
0 -8 -6
0 8 -6
0 8 -7
0 8 7
0 -8 7
0 -8 -7
0 8 8
0 -8 -8
0 -8 9
0 8 -9
0 -8 10
0 9 0
0 -9 0
0 -9 1
0 -9 -1
0 9 1
0 9 -1
0 -9 2
0 9 -2
0 9 2
0 -9 -3
0 -9 3
0 9 -3
0 9 3
0 -9 4
0 9 -4
0 -9 -4
0 9 4
0 -9 5
0 9 5
0 9 -5
0 -9 -5
0 9 6
0 -9 -6
0 -9 -7
0 9 -7
0 -9 7
0 9 7
0 -9 8
0 9 -8
0 -9 9
0 -10 0
0 10 0
0 -10 1
0 10 -1
0 10 1
0 -10 -1
0 10 -2
0 -10 2
0 -10 -2
0 10 2
0 -10 -3
0 10 3
0 -10 4
0 10 4
0 -10 -4
0 10 -5
0 -10 5
0 -10 6
0 10 6
0 10 -6
1 0 -9
-1 0 9
-1 0 8
1 0 -8
-1 0 7
1 0 -1
-1 0 1
-1 0 0
1 0 0
-1 0 -1
1 0 1
1 0 2
-1 0 -2
1 0 3
-1 0 -3
-1 0 -4
1 0 4
1 0 6
-1 0 -7
1 0 7
-1 0 -8
1 0 8
-1 0 -9
1 0 9
-1 0 -10
1 0 10
-1 0 -11
1 0 11
1 0 12
-1 0 -12
1 0 13
-1 -1 12
-1 -1 11
1 1 -11
-1 -1 10
1 1 -10
-1 -1 9
-1 1 9
1 -1 -9
1 1 -9
-1 1 8
-1 -1 8
1 1 -8
-1 -1 7
1 1 -7
1 1 -6
-1 -1 6
-1 1 6
1 1 -5
-1 -1 5
1 1 -4
-1 -1 4
-1 1 4
1 -1 -3
1 1 -3
-1 1 3
-1 -1 3
1 -1 -2
1 1 -2
-1 -1 2
-1 1 2
-1 -1 1
1 -1 -1
-1 1 1
1 1 -1
-1 1 0
1 1 0
-1 -1 0
1 -1 0
1 1 1
-1 1 -1
1 -1 1
-1 -1 -1
-1 -1 -2
-1 1 -2
1 1 2
1 -1 2
1 1 3
1 -1 3
-1 1 -3
-1 -1 -3
1 1 4
-1 -1 -4
-1 1 -5
1 -1 5
1 -1 6
-1 -1 -6
1 1 6
1 -1 7
-1 1 -7
1 1 7
-1 -1 -7
-1 1 -8
1 1 8
1 -1 8
-1 -1 -9
1 -1 9
-1 1 -9
1 1 9
1 -1 10
-1 1 -10
1 1 11
1 -1 11
-1 -1 -11
-1 -1 -12
1 1 12
1 -1 12
1 1 13
-1 -2 12
1 2 -11
-1 -2 11
1 -2 -11
-1 -2 10
-1 2 10
1 -2 -10
1 2 -10
-1 -2 9
1 2 -9
1 -2 -9
-1 2 9
1 2 -8
-1 -2 8
-1 2 8
1 -2 -8
1 -2 -7
-1 2 7
-1 -2 7
1 2 -7
-1 2 6
1 -2 -6
-1 2 5
1 -2 -5
-1 2 4
-1 2 3
1 -2 -3
1 -2 -2
-1 2 2
1 -2 -1
-1 2 1
1 -2 2
-1 2 -2
1 2 3
-1 2 -3
1 -2 3
-1 -2 -3
1 2 4
-1 -2 -4
-1 2 -4
1 -2 4
-1 2 -5
-1 -2 -5
1 2 5
1 -2 5
1 -2 6
-1 -2 -6
1 2 6
-1 -2 -7
-1 2 -7
1 -2 7
1 2 7
1 2 8
-1 2 -8
-1 -2 -8
1 -2 8
1 -2 9
-1 -2 -9
1 2 9
-1 2 -9
-1 -2 -10
1 -2 10
-1 2 -10
1 2 10
1 2 11
-1 -2 -11
-1 2 -12
-1 -2 -12
1 2 12
1 -2 12
1 -2 13
-1 -3 12
1 -3 -11
-1 -3 11
1 3 -11
-1 3 11
-1 3 10
1 3 -10
1 -3 -10
-1 -3 10
1 -3 -9
1 3 -9
-1 3 9
-1 -3 9
1 3 -8
1 -3 -8
-1 3 8
-1 -3 8
1 3 -7
-1 3 7
-1 -3 7
1 -3 -7
1 -3 -6
-1 3 6
1 3 -6
-1 -3 6
1 3 -5
1 -3 -5
-1 3 5
-1 -3 5
-1 -3 4
1 -3 -4
-1 3 4
1 3 -4
-1 -3 3
1 -3 -3
-1 3 3
1 3 -3
-1 3 2
1 -3 -2
1 3 -2
-1 -3 2
1 -3 -1
-1 -3 1
1 3 -1
-1 3 1
-1 -3 0
1 3 0
1 -3 1
1 3 1
-1 3 -1
-1 -3 -1
1 3 2
-1 3 -2
1 -3 2
-1 -3 -2
1 3 3
-1 3 -3
1 -3 3
-1 -3 -3
-1 -3 -4
1 3 4
1 -3 4
-1 3 -4
1 -3 5
-1 -3 -5
1 3 5
-1 3 -5
1 -3 6
-1 -3 -6
1 3 7
-1 -3 -7
-1 3 -7
1 -3 7
-1 -3 -8
1 3 8
-1 -3 -9
1 -3 9
-1 3 -9
1 3 9
-1 3 -10
1 -3 10
1 -3 11
-1 3 -11
-1 -3 -12
-1 3 -12
1 3 12
1 -3 12
-1 -4 11
-1 4 11
-1 -4 10
1 -4 -10
-1 4 10
1 4 -10
1 -4 -9
1 4 -9
-1 -4 9
-1 4 9
1 -4 -8
-1 4 8
1 -4 -7
-1 4 7
-1 4 6
-1 -4 6
1 -4 -6
1 4 -6
-1 -4 5
-1 4 5
1 4 -5
1 -4 -5
-1 4 4
1 -4 -4
1 4 -4
-1 -4 4
1 4 -3
-1 -4 3
1 -4 -3
-1 4 3
-1 -4 2
1 -4 -2
1 4 -2
-1 4 2
1 -4 -1
1 4 -1
-1 -4 1
-1 4 1
1 4 0
-1 -4 0
-1 4 0
1 -4 0
-1 -4 -1
1 -4 1
-1 4 -1
1 4 1
1 4 2
-1 -4 -2
-1 -4 -3
-1 4 -3
1 4 3
1 -4 3
-1 -4 -4
1 4 4
-1 4 -5
1 -4 5
1 -4 6
1 4 7
-1 4 -7
1 -4 7
-1 -4 -7
1 4 8
1 -4 8
-1 4 -8
-1 -4 -8
1 4 9
1 -4 9
-1 -4 -9
-1 4 -9
1 4 10
1 -4 10
-1 4 -10
-1 -4 -10
1 -4 11
-1 4 -11
1 4 11
-1 -4 -11
1 4 12
-1 -5 11
1 5 -11
-1 -5 10
1 -5 -10
1 5 -10
-1 5 10
1 5 -9
1 -5 -9
-1 -5 9
-1 5 9
1 5 -8
-1 5 8
-1 -5 8
1 -5 -8
-1 5 7
1 -5 -7
1 5 -7
-1 -5 7
-1 -5 6
-1 5 6
1 -5 -6
1 5 -6
1 -5 -5
-1 5 5
1 5 -5
1 -5 -4
1 5 -4
-1 -5 4
-1 5 4
-1 5 3
-1 -5 3
1 5 -3
-1 5 2
1 -5 -2
1 5 -2
-1 -5 2
-1 5 1
-1 -5 1
1 -5 -1
1 5 -1
1 5 0
-1 5 0
1 -5 0
-1 -5 0
-1 -5 -1
1 -5 1
-1 5 -1
1 5 1
-1 5 -2
1 -5 2
-1 -5 -2
1 5 2
1 -5 3
-1 5 -3
1 5 3
-1 -5 -3
1 5 4
-1 5 -4
1 -5 4
-1 -5 -4
1 5 5
1 -5 5
-1 -5 -5
-1 5 -5
1 5 6
1 -5 6
-1 -5 -6
1 5 7
-1 -5 -7
-1 5 -7
1 -5 7
1 -5 8
-1 5 -8
-1 -5 -8
1 5 8
-1 -5 -9
1 5 9
1 -5 10
-1 5 -10
-1 -5 -10
1 5 10
-1 5 -11
1 -5 11
1 5 11
-1 -5 -11
1 -5 12
1 6 -10
-1 -6 10
-1 6 9
-1 -6 9
1 -6 -9
1 6 -9
1 6 -8
-1 6 8
-1 -6 8
1 -6 -8
1 -6 -7
-1 -6 7
1 6 -7
-1 6 7
1 -6 -6
-1 6 6
-1 6 5
1 -6 -5
1 6 -4
1 -6 -4
-1 -6 4
-1 6 4
1 6 -3
1 -6 -3
-1 6 3
-1 -6 3
-1 -6 2
-1 6 2
1 -6 -2
1 6 -2
1 -6 -1
1 6 -1
-1 6 1
-1 -6 1
-1 -6 0
-1 6 0
1 -6 0
1 6 0
-1 6 -1
-1 -6 -1
1 -6 1
1 6 1
-1 6 -2
-1 -6 -2
1 -6 2
1 6 2
1 6 3
-1 -6 -3
1 6 4
-1 -6 -4
-1 6 -5
1 -6 5
-1 6 -6
1 -6 6
1 6 7
-1 6 -7
1 -6 7
-1 -6 -7
-1 6 -8
-1 -6 -8
1 -6 8
1 6 8
1 -6 9
-1 6 -9
-1 -6 -9
1 6 9
1 6 10
1 -6 10
-1 -6 -10
-1 -7 10
1 7 -9
-1 -7 9
-1 7 8
1 -7 -8
1 7 -7
-1 7 7
-1 -7 7
1 -7 -7
1 -7 -6
-1 7 6
-1 -7 6
1 7 -6
-1 7 5
1 7 -5
1 -7 -5
-1 -7 5
1 7 -4
-1 -7 4
1 -7 -4
-1 7 4
-1 -7 3
1 -7 -3
-1 7 3
1 7 -3
1 7 -2
1 -7 -2
-1 -7 2
-1 7 2
1 7 -1
1 -7 -1
-1 -7 1
-1 7 1
1 7 0
-1 7 0
-1 -7 0
1 -7 0
1 7 1
1 -7 1
-1 -7 -1
-1 7 -1
-1 7 -2
-1 -7 -2
1 7 2
1 -7 2
-1 -7 -3
-1 7 -3
1 -7 3
1 7 3
-1 -7 -4
-1 7 -4
1 -7 4
1 7 4
-1 7 -5
-1 -7 -5
1 7 5
1 -7 5
1 7 6
-1 -7 -6
-1 7 -7
-1 -7 -7
1 -7 7
1 7 7
1 7 8
1 -7 8
-1 -7 -8
-1 7 -8
-1 7 -9
1 -7 9
1 -7 10
-1 7 -10
1 8 -9
-1 -8 9
-1 8 8
1 8 -7
1 -8 -7
-1 8 7
-1 -8 7
-1 8 6
1 8 -6
1 -8 -6
-1 -8 6
1 -8 -5
-1 -8 5
1 8 -5
-1 8 5
-1 -8 4
-1 8 4
1 -8 -4
1 -8 -3
-1 8 3
1 8 -3
-1 -8 3
1 8 -2
-1 8 2
-1 -8 2
1 -8 -2
-1 8 1
1 -8 -1
-1 -8 1
1 8 -1
-1 -8 0
1 -8 0
-1 8 0
1 8 0
-1 8 -1
-1 -8 -1
1 8 1
1 -8 1
1 -8 2
-1 8 -2
1 8 2
-1 -8 -2
-1 -8 -3
1 8 3
-1 8 -3
1 -8 3
-1 -8 -4
-1 8 -4
1 -8 4
1 8 4
1 8 5
1 -8 5
-1 8 -5
-1 -8 -5
-1 -8 -6
-1 8 -6
1 8 6
1 -8 6
-1 -8 -7
1 8 7
-1 8 -8
1 -8 8
-1 -8 -8
1 8 8
-1 8 -9
1 -8 9
-1 8 -10
1 -8 10
1 9 -8
-1 -9 8
1 9 -7
-1 9 6
1 9 -6
-1 -9 6
1 -9 -6
-1 -9 5
1 -9 -5
1 9 -5
-1 9 5
1 -9 -4
-1 9 4
1 9 -4
-1 -9 3
1 -9 -3
-1 9 3
1 9 -3
1 -9 -2
-1 -9 2
-1 9 2
1 9 -2
-1 -9 1
-1 9 1
1 9 -1
-1 9 0
-1 -9 0
1 9 0
1 -9 0
-1 -9 -1
1 -9 1
1 9 1
-1 9 -1
-1 -9 -2
1 -9 2
1 9 2
-1 9 -2
-1 -9 -3
-1 9 -3
1 -9 3
-1 -9 -4
1 9 4
1 -9 4
-1 9 -4
1 -9 5
1 9 5
-1 -9 -5
-1 -9 -6
1 9 6
-1 9 -7
-1 9 -8
1 -9 8
-1 -10 6
-1 -10 5
1 10 -5
-1 -10 4
1 -10 -4
-1 10 4
1 10 -4
-1 10 3
1 -10 -3
-1 10 2
1 -10 -2
-1 -10 1
1 -10 -1
1 10 -1
-1 10 1
-1 -10 0
1 -10 0
1 10 0
-1 10 0
1 -10 1
-1 -10 -1
1 10 1
-1 10 -1
1 10 2
-1 10 -4
1 -10 4
1 10 5
-1 -10 -5
-1 10 -5
1 10 6
-1 -10 -6
-2 0 4
2 0 -4
2 0 -3
-2 0 3
-2 0 2
2 0 -2
2 0 -1
-2 0 1
-2 0 0
2 0 0
2 0 1
-2 0 -1
-2 0 -3
2 0 3
-2 0 -4
2 0 4
-2 0 -5
2 0 5
2 0 6
-2 0 -6
-2 0 -7
2 0 7
2 0 8
-2 0 -8
2 0 9
-2 0 -9
-2 0 -11
2 0 11
2 0 12
-2 0 -12
2 0 13
-2 0 -13
2 1 -8
-2 -1 8
-2 -1 7
2 1 -7
-2 -1 6
2 1 -6
2 1 -5
-2 1 5
2 -1 -5
-2 -1 5
-2 1 4
-2 -1 4
2 1 -4
2 -1 -4
-2 1 3
2 1 -3
-2 -1 3
2 -1 -3
-2 1 2
-2 -1 2
2 1 -2
2 -1 -2
2 -1 -1
-2 1 1
-2 -1 1
2 1 -1
2 -1 0
-2 -1 0
-2 1 0
2 1 0
-2 -1 -2
2 1 2
-2 1 -2
2 -1 2
-2 1 -3
-2 -1 -3
2 -1 3
2 1 3
-2 -1 -4
2 -1 4
-2 1 -4
2 1 4
-2 1 -5
-2 -1 -5
2 -1 5
2 1 5
-2 -1 -6
-2 1 -6
2 1 6
2 -1 6
2 -1 7
-2 1 -7
-2 -1 -7
2 -1 8
-2 -1 -8
-2 1 -8
2 1 8
2 1 9
-2 -1 -9
2 -1 9
-2 1 -9
-2 1 -11
2 1 11
2 -1 11
2 1 12
-2 -1 -12
2 -1 12
2 1 13
2 -1 13
-2 1 -13
-2 -2 11
2 2 -11
2 2 -10
-2 -2 10
-2 2 8
2 -2 -8
2 -2 -7
-2 2 7
2 -2 -6
-2 2 6
-2 2 5
2 -2 -5
2 -2 -4
-2 2 3
2 -2 -3
2 2 -2
-2 -2 2
-2 -2 1
-2 2 1
2 2 -1
2 -2 -1
2 2 0
-2 -2 0
2 -2 0
2 2 1
-2 2 -1
-2 -2 -1
2 -2 1
2 2 2
-2 -2 -2
2 -2 2
-2 2 -2
2 2 3
2 -2 3
-2 -2 -3
-2 2 -3
-2 -2 -4
2 2 4
2 -2 4
-2 2 -4
2 2 5
-2 -2 -5
-2 2 -5
2 -2 5
2 2 6
-2 2 -6
2 -2 6
-2 -2 -6
2 2 7
2 -2 7
-2 2 -7
-2 -2 -7
2 2 8
-2 -2 -8
-2 2 -9
2 -2 9
2 -2 10
-2 2 -10
-2 -2 -10
2 2 10
2 -2 11
-2 -2 -11
2 2 11
-2 2 -12
-2 -2 -12
2 2 12
2 -2 12
2 -2 13
-2 2 -13
-2 -3 11
2 3 -11
2 3 -10
2 -3 -10
-2 -3 10
-2 3 10
2 -3 -9
2 3 -9
-2 3 9
2 3 -8
-2 -3 8
-2 -3 7
-2 3 7
2 3 -7
2 -3 -7
-2 3 6
-2 -3 6
2 -3 -6
2 3 -6
-2 3 5
2 3 -5
-2 -3 5
2 -3 -5
-2 -3 4
-2 3 4
2 3 -4
2 -3 -4
2 3 -3
-2 3 3
2 3 -2
-2 3 2
-2 -3 2
2 -3 -2
2 3 -1
-2 3 1
-2 -3 1
2 -3 -1
2 -3 0
-2 -3 0
2 3 0
-2 3 0
2 -3 1
2 3 1
-2 -3 -1
-2 3 -1
2 -3 2
-2 -3 -2
2 3 2
-2 3 -2
2 -3 3
-2 -3 -3
2 3 3
-2 3 -3
-2 3 -4
-2 -3 -4
2 3 4
2 -3 4
-2 3 -5
2 3 5
-2 -3 -5
2 -3 5
2 3 6
-2 3 -7
2 -3 7
2 -3 8
-2 -3 -8
2 3 8
-2 3 -8
-2 3 -9
2 3 9
-2 -3 -9
2 -3 9
2 -3 10
-2 3 -10
2 3 10
-2 -3 -10
-2 3 -11
-2 -3 -11
2 3 11
2 -3 11
-2 -3 -12
2 -3 12
-2 3 -12
2 3 12
-2 3 -13
2 -3 13
-2 4 10
2 -4 -10
-2 4 9
2 -4 -9
-2 4 8
2 -4 -8
2 -4 -7
-2 4 7
-2 4 6
2 -4 -6
2 4 -6
-2 -4 6
-2 4 5
2 4 -5
-2 -4 5
2 -4 -5
2 4 -4
-2 4 4
-2 -4 4
2 -4 -4
2 4 -3
-2 4 3
-2 -4 3
2 -4 -3
-2 -4 2
2 4 -2
2 -4 -2
-2 4 2
2 4 -1
-2 -4 1
-2 4 0
2 4 0
2 -4 0
-2 -4 0
-2 4 -3
2 4 3
-2 -4 -3
2 -4 3
2 -4 4
2 4 4
-2 -4 -4
-2 4 -4
-2 4 -5
2 -4 5
-2 -4 -5
2 4 5
2 4 6
2 -4 6
-2 4 -6
-2 -4 -6
2 4 7
-2 4 -7
-2 -4 -7
2 -4 7
2 4 8
-2 4 -8
2 -4 8
-2 -4 -8
-2 -4 -9
2 4 9
-2 4 -9
2 -4 9
2 4 10
-2 -4 -10
-2 4 -11
2 -4 11
-2 -4 -11
2 4 11
-2 4 -12
2 -4 12
2 5 -10
-2 -5 10
2 5 -9
-2 -5 9
-2 5 8
2 5 -8
2 -5 -8
-2 -5 8
2 -5 -7
-2 5 7
2 5 -7
-2 -5 7
-2 5 6
2 -5 -6
2 5 -6
-2 -5 6
2 5 -5
-2 5 5
-2 -5 5
2 -5 -5
-2 5 4
-2 -5 4
2 5 -4
2 -5 -4
2 5 -3
2 -5 -3
-2 -5 3
2 5 -2
-2 5 2
-2 -5 2
2 -5 -2
2 -5 -1
-2 5 1
-2 -5 1
2 5 -1
2 -5 0
-2 5 0
2 5 0
-2 -5 0
2 -5 1
-2 5 -1
2 5 1
-2 -5 -1
-2 5 -2
2 5 2
2 -5 2
-2 -5 -2
-2 5 -3
2 5 3
-2 -5 -3
2 -5 3
2 5 4
-2 -5 -4
-2 5 -4
2 -5 4
2 -5 5
-2 -5 -5
-2 5 -5
2 5 5
-2 -5 -6
2 -5 6
-2 5 -6
2 5 6
2 5 7
-2 -5 -7
-2 5 -8
2 5 8
2 -5 8
2 -5 9
-2 5 -9
2 -5 10
-2 5 -10
-2 -5 -10
2 5 10
2 -5 11
2 5 11
-2 5 -11
-2 -5 -11
-2 -6 10
-2 6 9
2 6 -9
-2 -6 9
-2 6 8
2 -6 -8
2 6 -8
-2 -6 8
2 -6 -7
-2 6 7
-2 -6 7
2 6 -7
-2 6 6
2 -6 -6
-2 -6 6
2 6 -6
-2 6 5
2 -6 -5
2 -6 -4
-2 6 4
-2 6 3
2 -6 -3
-2 6 2
2 -6 -1
-2 6 1
2 -6 0
-2 6 0
-2 6 -3
2 -6 3
-2 -6 -4
2 6 4
2 -6 4
-2 6 -4
2 -6 5
-2 -6 -5
-2 6 -5
2 6 5
2 6 6
-2 6 -6
-2 -6 -6
2 -6 6
2 6 7
-2 6 -7
-2 -6 -7
2 6 8
2 -6 8
-2 6 -8
-2 -6 -8
2 6 9
-2 -6 -9
2 6 10
2 -6 10
-2 6 -10
-2 -6 -10
-2 6 -11
2 -6 11
2 -6 12
2 7 -9
-2 -7 9
2 -7 -8
-2 7 8
2 7 -7
-2 -7 7
-2 7 7
2 -7 -7
2 7 -6
2 -7 -6
-2 -7 6
-2 7 6
2 7 -5
-2 7 5
-2 -7 5
2 -7 -5
-2 7 4
2 7 -4
2 -7 -4
2 7 -3
-2 -7 3
-2 7 3
2 -7 -3
2 -7 -2
-2 -7 2
2 7 -2
-2 -7 1
-2 7 1
2 7 -1
2 -7 -1
-2 -7 0
-2 7 0
2 7 0
2 -7 0
2 -7 1
2 7 1
-2 7 -1
-2 -7 -1
2 7 2
2 -7 2
-2 7 -2
-2 -7 -2
2 -7 3
2 7 3
-2 7 -3
-2 -7 -3
2 -7 4
2 7 4
-2 -7 -4
-2 7 -4
-2 -7 -5
2 -7 6
-2 7 -6
-2 -7 -7
2 7 7
2 -7 7
-2 7 -7
2 7 8
-2 7 -8
2 -7 8
-2 -7 -8
-2 7 -9
2 7 9
2 -7 9
-2 -7 -9
2 7 10
2 -7 11
-2 7 -11
-2 8 7
2 8 -7
-2 -8 7
-2 8 6
-2 -8 6
2 8 -6
2 -8 -6
-2 -8 5
-2 8 5
2 -8 -5
2 8 -4
-2 -8 4
2 -8 -4
-2 8 4
-2 -8 3
-2 8 3
2 -8 -3
-2 8 2
2 -8 -2
-2 -8 2
2 8 -2
-2 8 1
-2 -8 1
2 8 -1
2 -8 -1
-2 8 0
2 8 0
-2 -8 0
2 -8 0
-2 8 -1
-2 -8 -1
2 8 1
2 -8 1
-2 -8 -2
2 8 2
-2 8 -2
2 -8 2
2 8 3
-2 8 -3
-2 -8 -3
2 -8 3
2 -8 4
2 8 4
-2 8 -4
2 8 5
-2 8 -5
-2 -8 -5
2 -8 5
2 8 6
-2 -8 -6
2 -8 6
2 -8 7
-2 8 -7
2 8 8
-2 -8 -8
-2 8 -8
2 -8 8
2 8 9
-2 8 -9
-2 -8 -9
2 -8 9
2 -8 10
-2 8 -10
2 9 -7
-2 -9 7
-2 9 6
2 9 -5
-2 9 5
-2 -9 5
2 -9 -5
-2 -9 4
2 9 -4
-2 9 4
2 -9 -4
2 9 -3
-2 -9 3
2 -9 -3
-2 9 3
2 9 -2
-2 -9 2
2 -9 -2
-2 9 2
2 -9 -1
2 9 -1
-2 -9 1
-2 9 1
-2 9 0
2 -9 0
-2 -9 0
2 9 0
2 9 1
2 -9 1
-2 -9 -1
-2 9 -1
-2 9 -2
-2 -9 -2
2 9 2
2 -9 2
-2 9 -3
-2 -9 -3
2 9 3
2 9 4
-2 -9 -4
-2 9 -5
2 -9 5
-2 9 -6
2 9 7
-2 9 -7
-2 -9 -7
2 -9 7
2 9 8
-2 -9 -8
-2 9 -9
2 -9 9
2 10 -6
-2 -10 5
2 10 -5
-2 -10 4
2 10 -4
-2 10 3
2 10 -3
-2 -10 3
2 10 -2
-2 -10 2
-2 10 2
2 -10 -2
-2 -10 -2
-2 10 -2
2 10 2
2 -10 2
-2 -10 -3
-2 10 -3
2 -10 3
2 10 4
-2 -10 -4
-2 10 -4
2 -10 4
2 10 5
-2 -10 -5
-3 0 5
3 0 -5
-3 0 4
3 0 -4
3 0 -3
-3 0 3
-3 0 2
3 0 -2
-3 0 0
3 0 0
3 0 1
-3 0 -1
-3 0 -2
3 0 2
-3 0 -3
3 0 3
-3 0 -4
3 0 4
3 0 5
-3 0 -5
-3 0 -6
3 0 6
-3 0 -8
3 0 8
-3 0 -9
3 0 9
-3 0 -10
3 0 10
-3 0 -11
3 0 11
-3 0 -12
3 0 12
3 1 -7
-3 -1 7
-3 1 6
-3 -1 6
-3 1 5
3 1 -5
-3 -1 5
3 -1 -5
3 1 -4
3 -1 -4
-3 1 4
-3 -1 4
-3 1 3
3 -1 -3
-3 1 1
-3 -1 1
3 -1 -1
3 1 -1
3 1 0
-3 1 0
3 -1 0
-3 -1 0
3 1 1
-3 1 -1
-3 -1 -1
3 -1 1
3 1 2
-3 1 -2
3 -1 2
-3 -1 -2
-3 -1 -3
3 -1 3
3 1 3
-3 1 -3
-3 1 -4
-3 -1 -4
3 1 4
3 -1 4
3 1 5
-3 1 -5
3 -1 5
-3 -1 -5
-3 1 -6
3 -1 6
-3 -1 -6
3 1 6
-3 1 -8
3 1 8
-3 -1 -8
3 -1 8
3 1 9
3 -1 9
-3 1 -9
-3 -1 -9
-3 1 -10
3 -1 10
3 1 10
-3 1 -11
3 -1 11
3 -1 12
-3 1 -12
-3 -1 -12
-3 -2 10
3 2 -10
3 2 -9
-3 -2 9
-3 2 7
3 -2 -7
3 2 -6
-3 2 6
3 -2 -6
-3 -2 6
3 -2 -5
3 2 -5
-3 -2 5
-3 2 5
3 2 -4
-3 -2 4
-3 -2 3
3 -2 -3
3 2 -2
3 -2 -2
-3 -2 2
3 2 -1
3 -2 -1
-3 -2 1
-3 2 1
-3 2 0
3 2 0
3 -2 0
-3 -2 0
3 2 1
-3 2 -1
-3 -2 -1
3 -2 1
-3 2 -2
-3 -2 -2
3 -2 2
3 2 3
-3 -2 -3
3 -2 3
-3 2 -3
-3 2 -4
3 -2 4
-3 -2 -4
3 2 4
3 2 5
-3 -2 -5
-3 2 -6
3 -2 6
3 2 7
-3 -2 -7
-3 2 -7
3 -2 7
-3 2 -8
-3 -2 -8
3 2 8
-3 2 -9
3 2 9
-3 -2 -9
3 -2 9
-3 2 -10
3 2 10
3 -2 10
-3 -2 -10
3 2 11
-3 2 -11
-3 -2 -11
3 -2 11
-3 2 -12
3 -2 12
-3 -2 -12
3 2 12
3 -2 13
3 2 13
3 3 -10
-3 -3 10
-3 3 9
3 3 -9
-3 -3 9
3 -3 -9
3 3 -8
-3 -3 8
3 3 -7
-3 3 7
3 -3 -7
-3 -3 7
-3 3 6
3 3 -6
-3 -3 6
3 -3 -6
3 3 -5
-3 3 5
-3 -3 5
3 -3 -5
3 3 -4
-3 3 4
-3 -3 4
3 -3 -3
-3 3 3
-3 -3 3
-3 3 2
3 3 -2
-3 -3 2
3 3 -1
3 -3 -1
-3 3 1
-3 -3 1
3 3 0
-3 3 0
-3 -3 0
3 -3 0
3 3 1
-3 3 -1
-3 -3 -1
3 -3 1
3 -3 2
-3 -3 -2
3 3 2
3 3 4
3 -3 4
-3 3 -4
-3 -3 -4
-3 3 -5
3 -3 5
3 3 5
-3 -3 -5
3 3 6
-3 3 -6
-3 -3 -6
3 -3 6
-3 -3 -7
-3 3 -7
3 -3 7
-3 -3 -8
3 3 8
3 3 9
-3 -3 -9
3 -3 9
-3 -3 -10
3 3 10
-3 3 -11
3 -3 11
-3 -3 -12
-3 3 -12
3 -3 12
3 3 12
-3 3 -13
3 -3 13
-3 4 9
3 -4 -9
-3 4 8
3 -4 -8
3 -4 -7
-3 4 7
-3 4 6
3 -4 -6
-3 4 5
3 -4 -5
-3 4 4
3 -4 -4
3 -4 -3
-3 4 3
-3 4 2
3 4 -2
-3 -4 2
3 -4 -2
3 4 -1
-3 -4 1
3 -4 0
3 4 0
-3 4 0
3 4 1
-3 -4 -1
3 -4 1
-3 4 -1
3 -4 2
3 4 2
-3 4 -2
-3 -4 -2
3 4 3
3 -4 3
-3 -4 -3
-3 4 -3
-3 4 -4
3 4 4
-3 -4 -4
3 -4 4
3 4 5
-3 4 -5
-3 -4 -5
3 -4 5
3 4 6
-3 4 -6
-3 -4 -6
3 -4 6
3 -4 7
-3 -4 -7
-3 4 -7
3 4 7
-3 -4 -8
3 4 8
3 -4 9
-3 4 -9
3 4 10
-3 4 -10
-3 -4 -10
3 -4 11
-3 -4 -11
-3 4 -11
3 4 11
3 -4 12
-3 4 -12
-3 -4 -12
3 4 12
3 -4 13
-3 -5 10
-3 -5 9
3 5 -9
3 5 -8
-3 -5 8
-3 -5 7
3 5 -7
-3 5 7
3 -5 -7
-3 5 6
-3 -5 6
3 5 -6
3 -5 -6
-3 5 5
3 5 -5
-3 -5 5
3 -5 -5
-3 5 4
3 5 -4
-3 -5 4
3 -5 -4
3 5 -3
-3 5 3
-3 -5 3
3 -5 -3
3 5 -2
-3 -5 2
3 -5 -2
3 5 -1
-3 5 1
-3 -5 1
3 -5 -1
3 -5 0
-3 5 0
3 5 0
-3 -5 0
-3 5 -1
3 5 1
-3 -5 -1
3 -5 1
3 -5 2
3 5 2
-3 5 -2
-3 -5 -2
3 -5 3
3 5 3
-3 -5 -3
-3 5 -3
-3 5 -4
3 5 4
-3 -5 -4
3 -5 4
3 -5 6
-3 5 -6
3 5 7
-3 -5 -7
3 -5 7
-3 5 -7
3 -5 8
-3 -5 -8
-3 5 -8
3 5 8
3 -5 9
-3 -5 -9
3 5 9
-3 5 -9
3 -5 10
-3 -5 -10
-3 5 -10
3 5 10
3 -5 11
-3 -5 -11
-3 5 -11
3 5 11
3 -5 12
-3 5 -12
3 6 -9
-3 -6 9
3 6 -8
-3 6 8
-3 -6 8
3 6 -7
-3 -6 7
-3 6 7
3 -6 -7
-3 6 6
3 6 -6
-3 -6 6
3 -6 -6
-3 6 5
-3 -6 5
3 6 -5
3 -6 -5
-3 6 4
3 6 -4
-3 -6 4
3 -6 -4
-3 6 3
3 6 -3
-3 -6 3
3 -6 -3
-3 -6 2
3 6 -2
3 6 -1
-3 -6 1
3 6 0
-3 6 0
-3 -6 0
3 -6 0
3 -6 1
-3 -6 -1
3 6 1
-3 6 -1
3 6 2
-3 6 -2
-3 -6 -2
3 -6 2
3 -6 3
-3 6 -3
3 6 3
-3 -6 -3
3 6 4
-3 6 -4
-3 -6 -4
3 -6 4
-3 6 -5
3 6 5
-3 -6 -5
3 -6 5
3 -6 6
-3 6 -6
-3 -6 -6
3 6 7
3 -6 7
-3 -6 -7
3 6 8
3 -6 8
-3 6 -8
-3 -6 -8
3 -6 9
-3 6 -9
3 -6 10
-3 6 -10
-3 -6 -10
3 6 10
3 -6 11
-3 -6 -11
3 6 11
-3 6 -12
3 -6 12
3 7 -8
-3 7 7
3 -7 -7
-3 7 6
3 -7 -6
-3 7 5
-3 -7 5
3 7 -5
3 -7 -5
3 -7 -4
-3 7 4
3 7 -4
-3 -7 4
-3 7 3
3 7 -3
3 -7 -3
3 7 -2
-3 7 2
-3 -7 2
3 -7 -2
3 -7 -1
3 7 -1
-3 -7 1
3 7 0
3 -7 0
-3 7 0
-3 -7 0
3 -7 1
-3 -7 -1
3 7 1
-3 7 -1
3 -7 2
-3 7 -2
3 7 4
-3 7 -4
3 -7 4
-3 -7 -4
3 7 5
3 -7 5
-3 7 -5
3 -7 6
-3 7 -6
3 7 6
-3 -7 -6
3 -7 7
3 7 7
-3 -7 -7
3 7 8
-3 -7 -8
3 -7 9
-3 -7 -9
3 7 9
-3 7 -9
-3 7 -10
3 7 10
-3 -7 -10
3 -7 10
-3 -8 8
3 8 -6
-3 -8 6
-3 8 6
3 -8 -6
3 8 -5
-3 -8 5
3 -8 -5
-3 8 5
3 8 -4
-3 8 4
-3 -8 4
3 -8 -4
-3 8 3
3 8 -3
-3 -8 3
3 -8 -3
-3 8 2
3 8 -2
-3 -8 2
3 -8 -2
3 8 -1
-3 -8 1
3 -8 -1
3 8 0
-3 8 0
-3 -8 0
3 8 1
-3 8 -1
-3 -8 -1
3 -8 1
-3 -8 -2
3 8 2
-3 8 -2
3 -8 2
3 8 3
-3 8 -3
-3 -8 -3
3 -8 3
-3 -8 -5
-3 8 -5
3 -8 5
3 -8 6
3 8 6
-3 -8 -6
-3 8 -6
3 8 7
-3 8 -7
-3 -8 -7
3 8 8
-3 -8 -8
3 -8 9
-3 8 -9
3 -8 10
-3 8 -10
3 -8 11
-3 -9 7
3 9 -6
-3 -9 6
-3 9 5
3 -9 -4
-3 9 4
-3 9 3
3 9 -3
3 -9 -3
-3 -9 3
-3 -9 2
-3 9 2
3 -9 -2
-3 9 1
3 9 -1
-3 -9 1
3 -9 -1
-3 9 0
3 9 0
-3 -9 0
3 -9 0
3 -9 1
-3 9 -1
3 9 1
-3 -9 -1
3 9 4
-3 9 -4
3 -9 4
3 9 5
-3 9 -5
3 -9 5
-3 -9 -5
3 9 6
3 -9 6
-3 9 -6
-3 -9 -6
3 9 7
-3 9 -7
-3 -9 -7
3 -9 7
-3 9 -8
-3 -9 -8
3 9 8
3 -9 8
-3 -10 4
3 10 -4
-3 -10 3
3 10 -3
3 -10 -3
-3 10 3
3 10 -2
3 -10 -2
-3 10 2
-3 -10 1
3 10 -1
-3 10 1
3 -10 -1
3 10 0
-3 -10 0
-3 10 0
3 -10 0
-3 -10 -1
3 10 1
3 -10 1
3 10 2
-3 -10 -2
-3 10 -2
3 -10 2
-3 10 -3
3 10 3
-3 -10 -3
3 -10 3
4 0 -7
-4 0 6
4 0 -6
-4 0 5
4 0 -5
-4 0 3
4 0 -3
-4 0 2
-4 0 1
4 0 -1
4 0 0
-4 0 0
-4 0 -1
4 0 1
4 0 2
-4 0 -2
-4 0 -3
4 0 3
-4 0 -5
4 0 5
4 0 6
-4 0 -6
-4 0 -7
4 0 7
-4 0 -8
4 0 8
-4 0 -9
4 0 9
-4 0 -10
4 0 10
-4 0 -11
4 0 11
-4 0 -12
4 0 12
-4 0 -13
4 0 13
-4 -1 8
4 1 -8
-4 1 7
4 1 -7
-4 -1 7
-4 1 6
4 -1 -6
4 1 -5
-4 -1 5
4 -1 -5
-4 1 4
4 -1 -4
-4 -1 4
4 1 -4
-4 -1 3
4 1 -3
-4 1 3
4 -1 -3
-4 1 2
-4 -1 2
4 -1 -2
4 1 -1
-4 1 1
-4 -1 1
4 -1 -1
4 1 0
-4 1 0
-4 -1 0
4 -1 0
4 1 1
-4 1 -1
-4 -1 -1
4 -1 1
-4 -1 -2
4 1 2
4 -1 2
4 1 3
-4 1 -3
-4 -1 -3
4 -1 3
4 1 5
-4 -1 -5
-4 1 -5
4 -1 5
4 1 6
-4 -1 -6
-4 1 -6
4 -1 6
4 1 7
-4 1 -7
-4 -1 -7
4 -1 7
-4 1 -8
-4 -1 -8
4 -1 8
-4 1 -9
-4 -1 -9
4 -1 9
4 1 9
-4 1 -11
-4 -1 -11
4 -1 11
4 1 11
4 -1 12
-4 1 -12
-4 -1 -12
4 1 12
-4 1 -13
4 -1 13
-4 -1 -13
4 1 13
4 2 -9
-4 -2 9
-4 2 7
-4 -2 7
4 -2 -7
4 2 -7
4 2 -6
-4 -2 6
4 -2 -5
-4 2 5
-4 -2 5
4 2 -5
4 2 -4
-4 2 4
-4 -2 4
4 -2 -4
4 2 -3
-4 2 3
4 -2 -3
-4 -2 3
-4 -2 2
-4 2 2
4 -2 -2
4 2 -1
-4 2 1
4 -2 -1
-4 -2 1
-4 2 0
4 -2 0
-4 -2 0
4 2 0
4 2 1
-4 2 -1
-4 -2 -1
4 -2 1
-4 2 -2
4 -2 2
-4 2 -3
4 -2 3
-4 -2 -3
4 2 3
-4 2 -4
4 -2 4
-4 -2 -4
4 2 4
4 2 5
-4 2 -5
4 -2 5
-4 -2 -5
4 2 6
-4 2 -6
-4 -2 -6
4 -2 6
4 2 7
-4 2 -7
-4 -2 -7
4 -2 7
-4 -2 -8
-4 2 -8
4 -2 8
-4 -2 -9
4 2 9
4 2 10
-4 2 -10
-4 -2 -10
4 -2 10
-4 2 -11
4 -2 11
-4 -2 -11
4 2 11
-4 2 -12
4 -2 12
-4 -2 -12
4 2 12
-4 2 -13
4 -2 13
-4 -2 -13
4 2 13
-4 3 9
-4 -3 9
4 3 -8
-4 -3 8
4 3 -7
-4 3 7
-4 -3 7
4 -3 -7
4 3 -6
4 -3 -6
-4 -3 6
-4 3 6
4 3 -5
-4 -3 5
4 -3 -5
-4 3 5
4 3 -4
-4 3 4
-4 -3 4
4 -3 -4
4 3 -3
-4 3 3
-4 -3 3
4 -3 -3
4 -3 -2
-4 -3 2
-4 3 1
4 -3 -1
4 3 0
-4 -3 0
4 3 1
-4 3 -1
-4 -3 -1
4 -3 1
4 3 2
-4 3 -2
-4 -3 -2
4 -3 2
-4 3 -3
4 3 3
-4 -3 -3
4 -3 3
4 3 4
-4 3 -4
4 -3 4
-4 -3 -4
4 3 5
-4 3 -5
-4 -3 -5
4 -3 5
4 3 6
-4 3 -6
-4 -3 -6
4 -3 6
4 3 7
-4 3 -7
4 -3 7
-4 3 -9
4 -3 9
-4 -3 -9
4 3 9
-4 3 -10
-4 -3 -10
4 3 10
4 -3 10
4 -3 11
-4 -3 -11
4 3 11
-4 -3 -12
4 3 12
-4 3 -13
4 -3 13
4 4 -8
-4 -4 8
-4 4 8
4 -4 -8
4 4 -7
-4 4 7
-4 -4 7
4 -4 -7
4 4 -6
-4 4 6
4 -4 -6
4 4 -5
-4 4 5
-4 -4 5
4 -4 -5
4 4 -4
-4 -4 4
4 4 -3
-4 4 3
-4 -4 3
4 -4 -3
4 -4 -2
-4 4 2
-4 -4 2
4 4 -1
-4 4 1
-4 -4 1
4 4 0
-4 4 0
-4 -4 0
4 -4 0
4 -4 1
4 4 1
-4 4 -1
-4 -4 -1
4 4 2
4 -4 2
-4 -4 -2
-4 4 -2
4 4 3
4 -4 3
-4 4 -3
-4 -4 -3
4 4 4
-4 4 -4
-4 -4 -4
4 -4 4
4 4 5
-4 4 -5
-4 -4 -5
4 -4 5
4 -4 6
-4 4 -6
-4 4 -7
-4 -4 -7
4 4 7
4 -4 7
4 4 8
-4 4 -8
4 -4 8
-4 -4 -8
-4 4 -9
4 -4 9
-4 -4 -9
4 4 9
4 4 10
-4 -4 -10
4 -4 10
-4 4 -10
4 -4 11
-4 4 -11
-4 -4 -11
4 4 11
4 -4 12
-4 -4 -12
4 4 12
-4 4 -12
4 -4 13
-4 4 -13
-4 -5 9
4 5 -8
-4 -5 8
-4 5 8
-4 5 7
4 5 -7
-4 -5 7
4 -5 -7
4 5 -6
-4 5 6
-4 -5 6
4 -5 -6
4 5 -5
-4 -5 5
-4 5 5
4 -5 -5
4 -5 -4
4 5 -4
-4 -5 4
-4 5 4
-4 5 3
4 -5 -3
4 5 -3
-4 -5 3
-4 5 2
-4 -5 2
4 -5 -2
4 -5 -1
4 5 -1
-4 -5 1
4 -5 0
4 5 0
-4 5 0
-4 -5 0
-4 5 -1
4 -5 1
4 5 3
-4 5 -3
-4 -5 -3
4 -5 3
4 5 4
4 -5 4
-4 5 -4
-4 -5 -4
4 -5 5
-4 5 -5
-4 -5 -5
4 5 5
4 5 6
-4 5 -6
-4 -5 -6
4 -5 6
4 -5 7
-4 -5 -7
-4 5 -7
-4 -5 -8
4 5 8
4 -5 9
-4 5 -9
4 -5 10
-4 5 -10
-4 -5 -10
4 5 10
-4 5 -11
4 -5 11
-4 -5 -11
4 5 11
4 5 12
4 6 -8
-4 -6 8
-4 -6 7
4 6 -7
4 -6 -7
-4 6 7
-4 6 6
4 6 -6
-4 -6 6
4 -6 -6
4 6 -5
-4 -6 5
4 6 -4
-4 -6 4
4 -6 -3
4 6 -3
-4 -6 3
-4 6 3
4 -6 -2
4 6 -2
-4 -6 2
-4 6 2
4 -6 -1
4 6 -1
-4 -6 1
-4 6 0
4 6 0
-4 -6 0
4 6 1
-4 6 -1
-4 -6 -1
4 -6 1
4 -6 2
4 6 2
-4 6 -2
-4 -6 -2
-4 6 -3
-4 -6 -3
4 -6 3
4 6 4
-4 6 -4
-4 -6 -4
4 -6 4
4 6 5
-4 -6 -5
4 -6 6
-4 6 -6
4 6 7
4 -6 7
-4 -6 -7
-4 6 -7
-4 -6 -8
-4 6 -8
4 6 8
4 -6 9
-4 -6 -9
-4 6 -9
4 6 9
-4 6 -10
-4 -6 -10
4 -6 10
4 6 10
4 -6 11
-4 -6 -11
-4 6 -11
4 6 11
4 7 -7
-4 -7 7
-4 7 6
4 7 -6
-4 -7 6
4 -7 -6
-4 7 5
-4 -7 5
4 7 -5
4 -7 -5
4 7 -4
-4 7 4
-4 -7 4
4 -7 -4
4 7 -3
-4 7 3
-4 -7 3
4 -7 -3
4 7 -2
-4 7 2
4 -7 -2
4 7 -1
-4 -7 1
4 7 0
-4 -7 0
4 7 1
-4 7 -1
-4 -7 -1
4 -7 1
-4 7 -2
4 -7 2
4 7 2
-4 -7 -2
4 -7 3
-4 7 -3
4 7 3
-4 -7 -3
4 -7 4
4 7 4
-4 7 -4
-4 -7 -4
4 -7 5
4 7 5
-4 7 -5
-4 -7 -5
-4 -7 -6
4 -7 7
-4 7 -7
4 7 8
4 -7 8
-4 7 -8
-4 -7 -8
4 -7 9
-4 7 -9
-4 -7 -9
4 7 9
-4 7 -10
-4 -7 -10
4 7 10
4 -7 11
-4 7 -11
-4 -8 7
4 8 -6
-4 -8 6
-4 8 5
4 8 -5
-4 -8 5
4 -8 -5
-4 8 4
4 -8 -4
-4 8 3
4 -8 -3
-4 8 2
4 -8 -2
-4 8 1
4 -8 -1
-4 8 0
4 -8 0
4 8 1
-4 -8 -1
4 8 2
-4 8 -2
-4 -8 -2
4 -8 2
4 -8 3
4 8 3
-4 -8 -3
-4 8 -3
4 -8 4
4 8 4
-4 -8 -4
-4 8 -4
4 -8 5
4 8 5
-4 8 -5
4 8 6
-4 -8 -6
4 -8 7
-4 8 -7
4 8 8
4 -8 8
-4 -8 -8
-4 8 -8
-4 -8 -9
4 8 9
4 -8 10
-4 8 -10
-4 -9 6
4 9 -5
-4 -9 5
4 9 -4
-4 -9 4
-4 9 4
-4 9 3
4 9 -3
4 9 -2
-4 -9 2
-4 -9 1
4 9 0
-4 9 0
-4 -9 0
4 -9 0
4 9 1
-4 9 -1
-4 -9 -1
4 -9 1
4 9 2
-4 9 -2
-4 -9 -2
4 -9 2
4 9 3
-4 9 -3
-4 -9 -3
4 -9 3
4 9 4
-4 9 -4
-4 -9 -4
4 -9 4
-4 9 -5
4 -9 5
4 9 6
-4 -9 -6
-4 9 -6
4 -9 6
4 9 7
-4 -9 -7
-4 10 2
4 -10 -2
-4 10 1
4 -10 -1
-5 0 7
5 0 -7
-5 0 6
5 0 -6
5 0 -5
-5 0 5
-5 0 4
5 0 -4
-5 0 3
5 0 -3
-5 0 2
5 0 -2
-5 0 1
-5 0 0
5 0 0
-5 0 -2
5 0 2
5 0 3
-5 0 -3
-5 0 -4
5 0 4
5 0 5
-5 0 -5
-5 0 -6
5 0 6
-5 0 -7
5 0 7
-5 0 -9
5 0 9
-5 0 -10
5 0 10
5 0 11
-5 0 -11
-5 0 -13
5 0 13
-5 -1 8
5 1 -8
5 -1 -7
-5 1 7
-5 -1 7
5 1 -7
5 1 -6
5 -1 -6
-5 1 6
-5 -1 6
5 1 -5
-5 1 5
-5 -1 5
5 -1 -5
-5 1 4
5 -1 -4
-5 -1 4
5 1 -4
5 1 -3
-5 1 3
-5 -1 3
5 -1 -3
5 1 -2
-5 1 2
-5 -1 2
5 -1 -2
-5 1 1
-5 -1 1
5 -1 -1
-5 1 0
5 -1 0
5 1 1
-5 -1 -1
-5 1 -1
5 -1 1
-5 1 -2
5 1 2
-5 -1 -2
5 -1 2
5 1 3
-5 1 -3
-5 -1 -3
5 -1 3
-5 1 -4
-5 -1 -4
5 -1 4
5 1 4
5 1 5
-5 1 -5
-5 -1 -5
5 -1 5
5 1 6
-5 1 -6
-5 -1 -6
5 -1 6
5 1 7
-5 1 -7
-5 -1 -7
5 -1 7
5 1 8
-5 1 -8
5 -1 8
5 1 9
-5 1 -9
-5 -1 -9
5 -1 9
-5 1 -10
5 -1 10
-5 1 -11
-5 -1 -11
5 -1 11
5 1 11
-5 1 -12
5 -1 12
-5 1 -13
-5 -1 -13
5 -1 13
5 1 13
5 2 -8
-5 2 8
-5 -2 8
5 -2 -8
5 -2 -7
-5 2 7
-5 -2 7
5 2 -7
5 2 -6
-5 2 6
-5 -2 6
5 -2 -6
-5 2 5
-5 -2 5
5 2 -5
5 2 -4
-5 2 4
-5 -2 4
5 -2 -4
5 2 -3
-5 2 3
-5 -2 3
-5 2 2
5 -2 -2
5 2 0
-5 2 0
-5 -2 0
5 -2 0
-5 2 -1
5 -2 1
-5 -2 -1
5 2 1
-5 2 -2
5 -2 2
-5 -2 -2
5 2 2
5 2 3
-5 2 -3
-5 -2 -3
5 -2 3
5 2 4
-5 2 -4
-5 -2 -4
5 -2 4
5 -2 5
-5 -2 -5
-5 2 -5
5 2 5
5 2 6
-5 2 -6
-5 -2 -6
5 -2 6
-5 2 -7
5 -2 7
5 2 8
-5 2 -8
-5 -2 -8
5 -2 8
-5 2 -9
5 -2 9
-5 -2 -9
5 2 9
-5 2 -10
5 -2 10
-5 -2 -10
5 2 10
5 2 11
-5 -2 -11
-5 2 -12
5 -2 12
-5 -2 -12
5 2 12
-5 2 -13
5 -2 13
-5 -2 -13
5 2 13
-5 3 8
-5 -3 8
5 3 -8
5 -3 -7
5 3 -7
-5 -3 7
-5 3 6
5 -3 -6
-5 3 5
5 -3 -5
5 3 -4
-5 3 4
-5 -3 4
5 -3 -4
5 3 -3
-5 -3 3
5 3 -2
-5 -3 2
5 -3 -2
-5 3 1
-5 -3 1
5 -3 -1
5 3 0
-5 3 0
-5 -3 0
5 -3 0
-5 3 -1
5 -3 1
-5 -3 -1
5 3 1
-5 3 -2
5 -3 2
-5 -3 -2
5 3 2
-5 3 -3
5 -3 3
-5 -3 -3
5 3 3
5 3 4
-5 3 -4
-5 -3 -4
5 -3 4
-5 3 -6
5 -3 6
-5 -3 -6
5 3 6
-5 3 -7
5 -3 7
-5 -3 -7
5 3 7
-5 3 -8
-5 -3 -8
5 -3 8
5 3 9
-5 3 -9
-5 -3 -9
5 -3 9
-5 -3 -10
5 3 10
-5 3 -11
5 -3 11
-5 -3 -11
5 3 11
5 3 12
-5 3 -12
-5 -3 -12
5 -3 12
5 3 13
5 4 -8
-5 -4 8
5 4 -7
-5 4 7
-5 -4 7
5 -4 -7
5 4 -6
-5 -4 6
5 4 -5
-5 4 5
-5 -4 5
5 -4 -5
5 4 -4
-5 4 4
-5 -4 4
5 -4 -4
5 4 -3
-5 4 3
-5 -4 3
5 -4 -3
5 4 -2
5 -4 -2
-5 4 2
-5 -4 2
-5 4 1
-5 -4 1
5 -4 -1
5 4 0
-5 4 0
-5 -4 0
5 -4 0
5 4 1
-5 4 -1
-5 -4 -1
5 -4 1
-5 4 -2
5 -4 2
5 4 3
-5 -4 -3
5 4 4
-5 -4 -4
5 -4 4
5 -4 5
-5 -4 -5
5 4 5
5 -4 6
-5 -4 -6
5 4 6
5 4 7
-5 -4 -7
5 -4 7
-5 -4 -8
5 4 8
5 -4 9
-5 4 -9
5 -4 10
-5 -4 -10
-5 4 -10
5 4 10
5 -4 11
-5 -4 -11
5 4 11
-5 4 -11
5 -4 12
5 4 12
-5 4 -12
5 -4 13
-5 4 -13
-5 -5 8
-5 5 7
-5 5 6
5 -5 -6
5 -5 -5
-5 5 5
5 -5 -4
-5 5 4
5 -5 -3
5 5 -3
-5 5 3
-5 -5 3
5 -5 -2
5 5 -2
-5 5 2
-5 -5 2
-5 -5 1
5 5 0
-5 -5 0
5 -5 0
5 5 1
5 -5 1
-5 5 -1
-5 -5 -1
5 5 2
5 -5 2
-5 -5 -2
-5 5 -2
5 5 3
-5 5 -3
-5 -5 -3
5 -5 3
5 5 4
5 -5 4
-5 -5 -4
-5 5 -4
-5 5 -5
5 -5 5
-5 -5 -5
5 5 5
-5 5 -7
5 -5 7
5 5 7
5 -5 8
-5 -5 -8
5 5 8
-5 5 -8
5 -5 9
-5 -5 -9
-5 5 -9
5 5 9
-5 -5 -10
5 5 10
5 5 11
-5 5 -11
-5 -5 -11
5 -5 11
5 -5 12
-5 5 -12
5 5 12
5 6 -7
-5 -6 7
5 6 -6
-5 6 6
-5 -6 6
5 6 -5
-5 6 5
-5 -6 5
5 -6 -5
5 -6 -4
5 6 -4
-5 -6 4
-5 6 4
5 -6 -3
5 6 -3
-5 -6 3
-5 6 3
5 -6 -2
-5 6 2
5 6 -2
-5 -6 2
5 -6 -1
5 6 -1
-5 6 1
-5 -6 1
5 -6 0
5 6 0
-5 6 0
-5 -6 0
5 6 1
-5 6 -1
-5 -6 -1
5 6 3
5 -6 3
-5 -6 -3
-5 6 -3
5 6 4
5 -6 4
-5 -6 -4
-5 6 -4
-5 6 -5
5 6 5
5 -6 5
-5 -6 -5
-5 6 -6
5 -6 6
-5 -6 -6
5 6 6
-5 6 -7
-5 -6 -7
5 -6 7
5 -6 8
5 -6 9
-5 -6 -9
5 6 9
-5 6 -9
5 -6 10
-5 -6 -10
5 6 10
-5 6 -10
5 -6 11
-5 6 -11
5 -6 12
5 7 -6
-5 -7 6
5 7 -5
-5 -7 5
5 7 -4
-5 -7 4
5 -7 -3
5 7 -3
-5 -7 3
-5 7 3
5 -7 -2
5 7 -2
-5 -7 2
-5 7 2
5 -7 -1
5 7 -1
-5 7 1
-5 7 0
5 -7 0
5 7 0
-5 -7 0
5 -7 1
5 7 1
-5 -7 -1
5 -7 2
5 7 2
-5 7 -2
-5 -7 -2
5 -7 3
5 7 3
-5 7 -3
-5 -7 -3
5 7 5
5 -7 5
-5 7 -5
-5 -7 -5
5 7 6
5 -7 6
-5 7 -6
5 -7 7
-5 7 -7
-5 -7 -7
5 7 7
5 -7 8
5 -7 9
-5 7 -9
-5 -7 -9
5 7 9
-5 -7 -10
5 7 10
5 -7 11
-5 7 -11
-5 -8 6
5 8 -5
-5 -8 5
5 8 -4
-5 -8 4
5 8 -3
-5 -8 3
5 8 -2
-5 8 2
-5 -8 2
5 -8 -2
5 -8 -1
5 8 -1
-5 8 1
-5 -8 1
5 -8 0
5 8 0
-5 -8 0
-5 8 0
5 -8 1
5 8 1
-5 -8 -1
-5 8 -1
5 8 2
-5 -8 -2
-5 8 -2
5 -8 3
-5 8 -3
-5 8 -5
5 -8 5
5 8 5
-5 -8 -5
5 -8 6
-5 8 -6
-5 -8 -6
-5 -8 -7
5 8 7
-5 8 -8
-5 -8 -8
5 8 8
-5 -8 -9
5 8 9
-5 9 2
5 -9 -2
-5 9 1
5 -9 -1
-5 9 0
5 -9 0
-5 9 -1
5 9 2
-5 -9 -2
5 -9 3
5 9 3
-5 -9 -3
-5 9 -3
5 -9 4
5 9 4
-5 -9 -4
-5 9 -4
-6 0 8
-6 0 7
6 0 -7
-6 0 6
6 0 -6
-6 0 5
6 0 -5
-6 0 4
6 0 -4
-6 0 2
6 0 -2
-6 0 1
6 0 -1
6 0 0
-6 0 0
-6 0 -1
6 0 1
-6 0 -2
6 0 2
-6 0 -3
6 0 3
-6 0 -4
6 0 4
-6 0 -6
6 0 6
-6 0 -7
6 0 7
-6 0 -8
6 0 8
-6 0 -9
-6 0 -10
6 0 10
-6 0 -11
6 0 11
-6 0 -12
6 0 12
-6 0 -13
6 0 13
-6 -1 8
6 -1 -7
6 1 -7
-6 1 6
6 -1 -6
-6 -1 6
6 1 -5
-6 1 5
-6 -1 5
6 -1 -5
-6 1 4
6 -1 -4
-6 -1 3
6 1 -3
6 1 -2
-6 1 2
-6 -1 2
6 -1 -2
6 1 -1
-6 -1 1
-6 1 1
6 -1 -1
-6 1 0
-6 -1 0
6 -1 0
-6 1 -1
-6 -1 -1
6 -1 1
6 1 1
6 1 2
-6 1 -2
-6 -1 -2
6 -1 2
-6 1 -3
-6 -1 -3
6 -1 3
6 1 3
6 1 5
-6 1 -5
-6 -1 -5
6 -1 5
6 1 6
-6 1 -6
-6 -1 -6
6 -1 6
-6 1 -7
-6 -1 -7
6 -1 7
6 1 7
-6 1 -8
-6 -1 -8
6 -1 8
6 1 8
-6 -1 -9
-6 1 -10
6 -1 10
-6 1 -11
-6 -1 -11
6 -1 11
6 1 11
-6 1 -12
-6 -1 -12
6 -1 12
-6 1 -13
-6 -1 -13
6 -1 13
6 1 13
-6 -2 8
6 -2 -7
-6 -2 7
6 2 -7
-6 2 7
6 2 -6
-6 2 6
-6 -2 6
6 -2 -6
6 -2 -5
6 2 -4
-6 -2 4
6 2 -3
-6 2 3
-6 -2 3
6 -2 -3
6 2 -2
-6 2 2
-6 -2 2
6 -2 -2
6 2 -1
-6 2 1
-6 -2 1
6 -2 -1
6 -2 0
-6 -2 0
-6 2 -1
6 -2 1
-6 -2 -1
6 2 1
6 2 2
-6 2 -2
-6 -2 -2
6 -2 2
-6 2 -3
-6 2 -4
6 -2 4
-6 -2 -4
6 2 4
-6 2 -5
6 -2 5
-6 -2 -5
6 2 5
-6 2 -6
6 -2 6
-6 -2 -6
6 2 6
6 2 7
-6 2 -7
6 -2 7
-6 -2 -7
-6 2 -8
6 -2 8
-6 -2 -8
6 2 8
-6 2 -9
6 -2 9
-6 2 -10
6 -2 10
-6 -2 -10
6 2 10
-6 2 -11
6 -2 11
-6 -2 -11
6 2 11
-6 2 -12
6 -2 12
-6 2 -13
6 -2 13
-6 -2 -13
6 2 13
-6 3 7
-6 -3 7
6 3 -7
-6 -3 6
6 3 -6
6 -3 -5
-6 3 5
-6 -3 5
6 3 -5
6 -3 -4
-6 3 4
-6 -3 4
6 3 -4
6 -3 -3
-6 3 3
-6 -3 3
6 3 -3
-6 3 2
6 -3 -2
-6 -3 2
6 3 -2
6 3 -1
-6 3 1
-6 -3 1
6 -3 -1
-6 3 0
6 -3 0
-6 -3 0
-6 3 -1
6 3 2
-6 -3 -2
-6 3 -3
6 -3 3
-6 -3 -3
6 3 3
-6 3 -4
-6 -3 -4
6 3 4
6 -3 4
6 3 5
-6 -3 -5
6 -3 5
-6 3 -5
-6 3 -6
6 -3 6
-6 -3 -6
6 3 6
-6 3 -7
6 -3 7
-6 -3 -7
6 3 7
6 3 8
6 -3 8
6 3 9
-6 -3 -9
6 -3 9
6 3 10
-6 3 -10
6 -3 10
-6 -3 -10
-6 3 -11
6 -3 11
-6 3 -12
6 -3 12
-6 -3 -12
6 3 12
6 3 13
6 4 -7
-6 -4 7
6 4 -6
-6 4 6
-6 -4 6
6 -4 -6
6 -4 -5
-6 4 5
-6 -4 5
6 4 -5
6 -4 -4
-6 -4 4
-6 4 4
6 4 -4
6 -4 -3
-6 4 3
-6 4 2
6 -4 -2
6 4 -1
-6 -4 1
6 -4 0
-6 -4 0
-6 4 0
6 4 1
-6 4 -1
-6 -4 -1
6 -4 1
6 -4 2
-6 -4 -2
6 4 2
6 4 3
6 -4 3
6 4 4
-6 4 -4
-6 -4 -4
6 -4 4
-6 4 -5
6 -4 5
-6 -4 -5
6 4 5
-6 4 -6
6 -4 6
-6 4 -7
6 -4 7
-6 -4 -7
6 4 7
6 -4 8
-6 -4 -8
6 4 8
6 -4 9
-6 -4 -9
6 4 9
6 -4 10
-6 4 -10
-6 4 -11
6 -4 11
-6 -4 -11
6 4 11
-6 -4 -12
6 4 12
6 -4 13
-6 4 -13
-6 -5 7
6 5 -6
-6 -5 6
-6 5 6
6 5 -5
-6 -5 5
6 5 -4
6 -5 -4
-6 5 4
-6 -5 4
6 5 -3
6 -5 -3
-6 5 3
-6 -5 3
6 5 -2
6 -5 -2
-6 5 2
6 5 -1
6 -5 -1
-6 5 1
-6 -5 1
-6 5 0
-6 -5 0
6 -5 0
-6 -5 -1
6 -5 1
6 5 1
-6 5 -2
6 -5 2
-6 -5 -2
6 -5 4
-6 5 -4
-6 -5 -4
6 5 4
6 -5 5
-6 -5 -5
-6 5 -5
6 5 5
6 -5 6
-6 -5 -6
-6 5 -6
6 5 6
6 -5 7
-6 -5 -7
-6 5 -7
6 5 7
-6 5 -8
6 -5 8
-6 5 -9
-6 -5 -9
6 5 9
-6 5 -10
6 -5 10
-6 -5 -10
6 5 10
6 -5 11
-6 -5 -11
6 5 11
-6 5 -11
6 5 12
6 6 -5
-6 6 5
6 -6 -4
6 6 -4
-6 -6 4
-6 6 4
6 -6 -3
6 6 -3
-6 6 3
-6 -6 3
6 6 -2
-6 6 2
-6 -6 2
6 -6 -2
6 6 -1
-6 -6 1
6 6 0
6 -6 0
-6 6 0
-6 -6 0
6 6 1
6 -6 1
-6 -6 -1
-6 6 -1
6 6 2
-6 -6 -2
-6 6 -2
-6 6 -3
6 -6 3
-6 -6 -3
6 6 3
6 -6 4
-6 6 -4
-6 -6 -4
6 6 4
6 -6 6
-6 6 -6
-6 -6 -6
6 6 6
6 -6 7
-6 6 -7
6 6 7
-6 -6 -8
6 6 8
-6 6 -9
-6 -6 -9
6 6 9
-6 6 -10
6 -6 10
-6 -6 -10
6 6 10
-6 6 -11
6 -6 11
-6 7 4
6 -7 -3
-6 7 3
6 -7 -2
-6 7 2
6 -7 -1
6 7 -1
-6 7 1
-6 -7 1
6 7 0
6 7 1
6 -7 1
-6 7 -1
-6 -7 -1
6 7 2
6 -7 2
-6 -7 -2
6 7 3
6 -7 3
-6 7 -3
-6 -7 -3
6 -7 4
-6 7 -4
-6 -7 -4
6 7 4
6 -7 6
-6 -7 -6
-6 7 -6
6 7 6
6 -7 7
-6 -7 -7
-6 7 -7
-6 -7 -9
-6 7 -9
6 7 9
6 8 -4
-6 -8 4
6 8 -3
-6 -8 3
6 -8 -2
6 8 -2
-6 -8 2
-6 8 2
6 -8 -1
6 8 -1
-6 -8 1
-6 8 1
6 8 0
-6 -8 0
6 -8 1
6 8 1
-6 -8 -1
-6 8 -1
6 8 2
6 -8 2
-6 -8 -2
-6 8 -2
6 8 3
6 -8 3
-6 8 -3
-6 -8 -3
6 -8 5
-6 8 -5
-6 -8 -5
6 8 5
6 -8 6
-6 8 -6
6 8 6
-6 -9 2
-6 9 1
6 -9 -1
-6 9 0
6 -9 0
6 -9 1
-6 9 -1
-7 0 5
7 0 -5
-7 0 4
7 0 -4
-7 0 3
7 0 -3
-7 0 2
7 0 -2
-7 0 1
7 0 -1
-7 0 0
7 0 0
-7 0 -2
7 0 2
-7 0 -3
7 0 3
-7 0 -4
7 0 4
-7 0 -5
7 0 5
-7 0 -6
7 0 6
-7 0 -7
7 0 7
-7 0 -8
7 0 8
7 0 9
-7 0 -11
7 0 11
-7 0 -12
7 0 12
-7 0 -13
7 0 13
-7 -1 6
7 1 -6
-7 1 5
7 -1 -5
-7 -1 5
7 1 -5
-7 1 4
7 -1 -4
-7 -1 4
7 1 -4
7 1 -3
-7 1 3
-7 -1 3
7 -1 -3
-7 1 2
-7 -1 2
7 -1 -2
7 1 -2
-7 1 1
-7 -1 1
7 -1 -1
7 1 -1
-7 1 0
-7 -1 0
7 -1 0
7 1 0
7 1 1
-7 -1 -1
-7 1 -2
-7 -1 -2
7 -1 2
7 1 2
7 1 3
-7 1 -3
-7 -1 -3
7 -1 3
-7 1 -4
-7 -1 -4
7 -1 4
7 1 4
-7 1 -5
-7 -1 -5
7 -1 5
7 1 5
-7 1 -6
-7 -1 -6
7 -1 6
7 1 6
7 1 7
-7 1 -7
7 -1 7
-7 1 -8
-7 -1 -8
7 -1 8
7 1 8
7 -1 9
7 1 9
-7 1 -11
-7 -1 -11
7 -1 11
7 1 11
-7 1 -12
-7 -1 -12
7 -1 12
7 1 12
-7 1 -13
-7 -1 -13
7 -1 13
7 1 13
7 -2 -6
-7 2 6
-7 -2 6
7 2 -6
-7 2 5
7 -2 -5
-7 -2 5
7 2 -5
-7 2 4
7 -2 -4
-7 -2 4
7 2 -4
-7 2 3
7 -2 -3
-7 -2 3
7 2 -3
7 2 -2
-7 2 2
-7 -2 2
7 -2 -2
-7 2 1
7 -2 -1
-7 -2 0
7 2 0
7 -2 1
-7 -2 -1
7 2 2
-7 2 -2
-7 -2 -2
7 -2 2
7 2 3
-7 2 -3
-7 -2 -3
7 -2 3
7 2 4
-7 2 -4
-7 -2 -4
7 -2 4
7 2 5
-7 2 -5
-7 -2 -5
7 -2 5
7 2 6
-7 2 -6
-7 -2 -6
7 -2 6
-7 2 -7
7 -2 7
-7 -2 -7
7 2 7
-7 2 -8
7 -2 8
-7 -2 -8
7 2 8
-7 2 -9
7 -2 9
-7 -2 -9
-7 2 -10
7 -2 10
-7 -2 -10
7 2 10
-7 2 -11
7 -2 11
-7 -2 -11
7 2 11
-7 2 -12
7 -2 12
-7 2 -13
7 -2 13
-7 -2 -13
7 2 13
-7 -3 6
7 3 -6
7 -3 -5
-7 -3 5
7 3 -5
-7 3 5
7 -3 -4
-7 3 4
7 -3 -3
-7 -3 2
7 3 -2
7 3 -1
-7 3 1
-7 -3 1
7 -3 -1
-7 3 0
7 -3 0
-7 -3 0
7 3 0
-7 3 -1
7 -3 1
-7 -3 -1
-7 3 -2
-7 -3 -2
7 3 2
7 3 3
-7 3 -3
-7 -3 -3
7 -3 3
-7 3 -5
7 -3 5
-7 -3 -5
7 3 5
7 3 6
-7 3 -6
-7 -3 -6
7 -3 6
-7 3 -7
-7 -3 -7
7 3 7
7 3 8
-7 3 -8
-7 -3 -8
7 -3 8
-7 3 -9
7 -3 9
-7 -3 -9
7 3 9
-7 3 -10
7 -3 10
-7 -3 -10
7 3 10
-7 3 -12
7 -3 12
-7 -3 -12
7 3 12
-7 3 -13
7 -3 13
-7 -4 6
7 -4 -5
-7 -4 5
-7 4 5
7 4 -5
-7 -4 4
7 4 -4
7 -4 -3
-7 -4 3
-7 4 3
7 4 -3
7 4 -2
-7 4 2
-7 -4 2
7 -4 -2
7 -4 -1
-7 -4 1
7 4 -1
-7 4 1
7 4 0
-7 4 0
7 -4 0
7 -4 1
-7 -4 -1
7 4 1
-7 4 -3
7 -4 3
-7 -4 -3
7 4 3
7 4 4
-7 4 -4
-7 -4 -4
7 -4 4
-7 4 -5
7 -4 5
-7 -4 -5
7 4 5
-7 4 -6
7 -4 6
-7 -4 -6
7 4 6
-7 4 -8
7 -4 8
7 4 8
-7 4 -9
7 -4 9
-7 -4 -9
7 4 9
7 -4 10
7 -4 11
-7 -4 -11
7 4 11
-7 4 -11
-7 4 -12
-7 -5 5
7 5 -5
7 -5 -4
-7 5 4
7 -5 -3
-7 5 3
-7 5 2
7 -5 -2
-7 -5 2
7 5 -2
-7 -5 1
7 5 -1
7 -5 0
-7 -5 0
-7 5 0
7 5 0
-7 5 -1
7 -5 1
-7 -5 -1
7 5 1
7 -5 2
-7 5 -2
-7 -5 -2
-7 -5 -3
-7 5 -3
7 5 3
7 5 4
-7 5 -4
-7 -5 -4
-7 5 -5
7 -5 5
-7 -5 -5
7 5 5
7 -5 6
-7 5 -6
-7 -5 -6
7 5 6
7 5 7
-7 5 -7
-7 -5 -7
7 -5 7
7 -5 9
-7 -5 -9
7 5 9
-7 -5 -10
7 5 10
7 -5 11
-7 5 -11
-7 -5 -11
7 5 11
-7 -6 5
-7 -6 4
7 6 -4
7 6 -3
7 -6 -3
-7 6 3
-7 -6 3
7 -6 -2
-7 6 2
-7 -6 2
7 6 -2
7 -6 -1
-7 -6 1
-7 6 1
7 6 -1
7 -6 0
-7 6 0
7 6 1
-7 6 -2
7 -6 2
-7 -6 -2
7 6 2
7 -6 3
-7 6 -3
-7 -6 -3
7 6 3
7 -6 4
-7 6 -4
-7 -6 -4
7 6 4
7 -6 5
-7 6 -5
-7 -6 -5
7 6 5
7 -6 6
-7 -6 -6
-7 6 -6
7 6 6
7 -6 7
-7 -6 -7
-7 6 -7
7 6 7
-7 -6 -8
7 6 8
7 -6 9
-7 -6 -9
7 6 9
-7 -7 4
7 7 -3
-7 -7 3
7 7 -2
-7 7 2
7 -7 -2
-7 -7 2
7 7 -1
7 -7 -1
-7 7 1
-7 -7 1
7 -7 0
-7 7 0
7 -7 1
-7 7 -1
-7 -7 -2
7 7 2
7 -7 3
-7 -7 -3
-7 7 -3
7 7 3
-7 -7 -4
-7 7 -4
7 7 4
7 -7 6
-7 -7 -6
-7 7 -6
7 7 6
7 -7 7
-7 7 -7
7 7 7
7 8 -2
-7 -8 2
7 8 -1
-7 -8 1
-7 8 1
7 8 0
-7 -8 0
-7 8 -1
7 -8 1
-7 -8 -1
-7 8 -2
-7 -8 -2
7 -8 3
-7 8 -3
-8 0 5
8 0 -5
-8 0 4
8 0 -4
-8 0 2
8 0 -2
-8 0 1
8 0 -1
-8 0 0
8 0 0
-8 0 -1
8 0 1
8 0 2
-8 0 -4
8 0 4
-8 0 -5
8 0 5
-8 0 -6
8 0 6
-8 0 -8
8 0 8
-8 0 -9
8 0 9
8 0 11
-8 0 -12
8 0 12
-8 1 5
-8 -1 5
-8 1 4
8 -1 -4
-8 -1 3
8 1 -3
8 1 -2
-8 1 2
-8 -1 2
8 -1 -2
-8 1 1
-8 -1 1
8 -1 -1
8 1 -1
-8 1 0
-8 -1 0
8 -1 0
8 1 0
-8 1 -1
-8 -1 -1
8 -1 1
8 1 1
8 -1 2
8 1 2
-8 1 -4
-8 -1 -4
8 -1 4
8 1 4
-8 1 -5
-8 -1 -5
8 -1 5
8 1 5
-8 1 -6
-8 -1 -6
8 1 6
-8 1 -8
8 -1 8
-8 1 -9
-8 -1 -9
8 -1 9
8 1 9
-8 1 -10
8 -1 10
-8 1 -11
-8 -1 -11
8 -1 11
8 1 11
-8 1 -12
-8 -1 -12
8 -1 12
8 1 12
-8 -2 4
8 2 -4
-8 -2 3
8 2 -3
-8 2 3
8 -2 -3
-8 2 2
8 -2 -2
-8 -2 2
8 2 -2
-8 2 1
8 -2 -1
-8 -2 1
8 2 -1
8 2 0
-8 2 0
-8 -2 0
8 -2 0
-8 2 -1
8 -2 1
-8 -2 -1
8 2 1
-8 2 -3
-8 -2 -3
8 2 3
-8 2 -4
8 -2 4
-8 -2 -4
8 2 4
-8 2 -5
8 -2 5
-8 -2 -5
8 2 5
-8 2 -6
8 -2 6
-8 -2 -6
8 2 6
-8 2 -7
8 -2 7
-8 -2 -7
8 2 7
-8 2 -8
8 -2 8
-8 -2 -8
8 2 8
8 2 9
-8 2 -10
-8 -2 -10
8 2 10
-8 -2 -11
8 2 11
8 -2 12
-8 -2 -12
8 2 12
-8 -3 5
8 -3 -4
-8 3 4
-8 -3 4
8 3 -4
8 -3 -3
-8 -3 3
8 3 -3
-8 3 2
8 -3 -2
-8 -3 2
8 3 -2
-8 3 1
8 -3 -1
-8 -3 1
8 3 -1
-8 3 0
8 -3 0
8 -3 1
-8 -3 -1
8 3 1
-8 3 -2
8 -3 2
-8 -3 -2
8 3 2
-8 3 -3
8 -3 3
-8 -3 -3
-8 3 -4
8 -3 4
-8 -3 -4
8 3 4
-8 3 -6
8 -3 6
-8 -3 -6
8 3 6
-8 3 -7
8 -3 7
-8 -3 -7
8 3 7
-8 3 -8
8 -3 8
-8 -3 -8
8 3 8
-8 3 -9
8 -3 9
-8 -3 -9
8 3 9
-8 3 -10
-8 -3 -10
8 3 10
-8 -3 -11
8 3 11
-8 3 -11
8 -3 11
8 -4 -3
-8 -4 3
8 4 -3
-8 4 3
-8 -4 2
8 4 -2
8 -4 -1
-8 4 1
-8 -4 1
8 4 -1
8 -4 0
-8 4 0
-8 -4 0
8 4 0
-8 -4 -1
8 4 1
8 -4 1
-8 4 -2
8 -4 2
8 4 2
8 -4 3
-8 4 -4
8 -4 4
-8 -4 -4
8 4 4
-8 4 -5
8 -4 5
-8 -4 -5
8 4 5
-8 4 -6
8 -4 6
-8 -4 -6
8 4 6
-8 4 -8
8 -4 8
-8 -4 -8
8 4 8
-8 -4 -9
8 4 9
8 -4 10
-8 -4 -10
8 4 10
-8 -5 4
-8 -5 3
8 5 -3
8 -5 -2
-8 5 2
-8 -5 2
8 5 -2
8 -5 -1
-8 5 1
8 -5 0
-8 5 0
-8 -5 -1
8 5 1
8 -5 2
-8 5 -2
8 5 2
-8 5 -3
8 -5 3
-8 -5 -3
8 5 3
-8 5 -4
-8 -5 -4
8 5 4
8 -5 6
-8 -5 -6
8 5 6
-8 5 -6
8 -5 7
-8 -5 -7
-8 5 -7
8 5 7
8 -5 8
-8 5 -8
8 5 8
-8 5 -9
8 -5 9
-8 -5 -9
8 5 9
-8 -6 3
8 6 -3
-8 -6 2
8 6 -2
8 -6 -1
-8 -6 1
-8 6 1
8 6 -1
8 -6 0
-8 -6 0
8 6 0
-8 6 0
-8 6 -1
8 -6 1
-8 -6 -2
8 6 2
8 -6 3
-8 6 -3
-8 -6 -3
8 6 3
8 -6 4
-8 -6 -4
8 6 4
8 -6 6
-8 -6 -6
-8 6 -6
8 6 6
-8 -6 -7
8 6 7
-8 -7 2
8 7 -2
8 -7 0
-8 7 0
-8 -7 -1
8 7 1
8 -7 2
-8 -7 -2
-8 7 -2
8 7 2
8 -7 3
-8 -7 -3
-8 7 -3
-9 0 3
9 0 -3
-9 0 2
9 0 -2
-9 0 0
9 0 0
-9 0 -1
9 0 1
-9 0 -2
9 0 2
-9 0 -3
9 0 3
-9 0 -5
9 0 5
-9 0 -6
9 0 6
-9 0 -8
9 0 8
-9 0 -10
-9 1 3
-9 -1 3
-9 1 2
9 -1 -2
-9 1 1
-9 -1 1
9 -1 -1
9 1 -1
-9 1 0
-9 -1 0
9 -1 0
9 1 0
-9 1 -1
-9 -1 -1
9 -1 1
9 1 1
-9 1 -2
-9 -1 -2
9 -1 2
9 1 2
-9 1 -3
9 -1 3
-9 1 -4
-9 -1 -4
9 1 4
-9 1 -5
-9 -1 -5
9 -1 5
9 1 5
-9 1 -6
9 -1 6
-9 -1 -8
9 1 8
-9 1 -8
9 -1 8
-9 1 -10
-9 -1 -10
9 1 10
-9 2 3
-9 -2 2
9 2 -2
-9 2 1
9 -2 -1
-9 -2 1
9 2 -1
-9 2 0
9 -2 0
-9 -2 0
9 2 0
-9 2 -1
9 -2 1
-9 -2 -1
9 2 1
-9 2 -2
9 -2 2
-9 -2 -2
9 2 2
9 2 3
-9 2 -4
9 -2 4
-9 -2 -4
9 2 4
-9 2 -5
9 -2 5
-9 -2 -5
9 2 5
-9 2 -7
-9 -2 -7
9 2 7
-9 2 -8
9 -2 8
-9 -2 -8
9 2 8
-9 2 -9
9 -2 9
-9 -2 -9
-9 -3 3
9 3 -3
9 3 -2
-9 3 2
-9 -3 2
9 -3 -2
-9 3 1
9 -3 -1
-9 -3 1
9 3 -1
-9 3 0
9 -3 0
-9 -3 0
9 3 0
-9 3 -2
9 -3 2
-9 -3 -2
9 3 2
-9 3 -3
9 -3 3
9 3 3
9 -3 4
-9 -3 -4
9 3 4
-9 3 -6
9 -3 6
-9 -3 -6
9 3 6
-9 3 -7
9 -3 7
-9 -3 -7
9 3 7
-9 3 -8
-9 -3 -8
-9 3 -9
9 -3 9
9 3 9
-9 -4 1
9 4 -1
9 4 0
-9 4 0
-9 -4 0
9 -4 0
9 -4 1
-9 -4 -1
9 4 1
-9 4 -2
9 -4 2
-9 -4 -2
9 4 2
-9 4 -3
9 -4 3
-9 4 -4
9 -4 4
-9 -4 -4
9 4 4
-9 4 -5
-9 -4 -5
9 4 5
-9 4 -7
9 -4 7
-9 -4 -7
9 4 7
-9 -5 2
9 -5 0
-9 -5 0
9 5 0
-9 5 0
-9 -5 -1
9 5 1
9 -5 2
-9 -5 -2
-9 5 -2
9 5 2
9 -5 3
-9 -5 -3
9 5 3
-9 5 -3
9 -5 5
-9 -5 -5
9 5 5
9 -5 6
-9 5 -6
-9 -6 0
-9 -6 -1
9 6 1
9 -6 2
-9 6 -2
-9 -6 -2
9 6 2
9 -6 3
-9 6 -3
-10 0 0
10 0 0
-10 0 -1
10 0 1
-10 0 -2
10 0 2
-10 0 -4
10 0 4
-10 0 -5
10 0 5
-10 0 -7
10 0 7
-10 -1 1
10 1 -1
-10 1 0
10 -1 0
-10 1 -1
-10 -1 -1
10 -1 1
10 1 1
10 1 2
-10 1 -2
10 -1 2
-10 1 -4
10 -1 4
10 1 4
-10 -1 -5
10 -1 5
-10 1 -6
-10 -1 -6
10 -1 6
10 1 6
-10 1 -7
-10 -1 -7
10 -1 7
10 1 7
-10 -2 1
10 2 -1
-10 2 0
10 -2 0
-10 -2 0
10 2 0
-10 2 -1
10 -2 1
-10 -2 -1
10 2 1
-10 -2 -3
-10 2 -3
10 -2 3
10 2 3
-10 2 -4
10 -2 4
-10 -2 -4
10 2 4
-10 2 -6
10 -2 6
-10 -2 -6
10 2 6
-10 -3 1
-10 3 0
-10 -3 -1
10 3 1
-10 3 -2
10 -3 2
-10 -3 -2
10 3 2
10 3 3
-10 3 -3
-10 -3 -3
10 -3 3
-10 -3 -4
10 3 4
-10 3 -5
-10 -3 -5
10 4 0
-10 -4 0
10 -4 1
-10 4 -1
-10 -4 -2
10 4 2
10 -4 3
-10 -4 -3
10 4 3
-10 4 -4
10 -4 4
-10 -5 0
-11 0 -2
11 0 2
-11 0 -3
11 0 3
-11 1 -2
-11 -1 -2
11 -1 2
11 1 2
-11 1 -3
-11 -1 -3
11 -1 3
11 1 3
-11 -2 -1
-11 2 -2
-11 -2 -2
loop_
_geom_angle_atom_site_label_1
_geom_angle_atom_site_label_2
_geom_angle_atom_site_label_3
_geom_angle_site_symmetry_1
_geom_angle_site_symmetry_3
_geom_angle
_geom_angle_publ_flag
O21 N12 O22 . . 121.03(14) ?
C1 N12 O22 . . 120.62(12) ?
C1 N12 O21 . . 118.30(13) ?
O11 N11 O12 . . 120.88(13) ?
C1 N11 O12 . . 118.60(13) ?
C1 N11 O11 . . 120.43(15) ?
N21 C2 N22 . . 118.06(14) ?
C1 C2 N22 . . 121.04(16) ?
C1 C2 N21 . . 120.87(13) ?
N11 C1 N12 . . 115.89(13) ?
C2 C1 N12 . . 119.87(12) ?
C2 C1 N11 . . 124.18(15) ?
loop_
_geom_bond_atom_site_label_1
_geom_bond_atom_site_label_2
_geom_bond_site_symmetry_2
_geom_bond_distance
_geom_bond_publ_flag
O12 N11 . 1.246(2) ?
O11 N11 . 1.2398(17) ?
O22 N12 . 1.2285(17) ?
O21 N12 . 1.2347(16) ?
N12 C1 . 1.427(2) ?
N11 C1 . 1.3930(18) ?
N22 C2 . 1.3274(18) ?
N21 C2 . 1.312(2) ?
C2 C1 . 1.446(2) ?
loop_
_geom_torsion_atom_site_label_1
_geom_torsion_atom_site_label_2
_geom_torsion_atom_site_label_3
_geom_torsion_atom_site_label_4
_geom_torsion_site_symmetry_1
_geom_torsion_site_symmetry_2
_geom_torsion_site_symmetry_3
_geom_torsion_site_symmetry_4
_geom_torsion
_geom_torsion_publ_flag
O12 N11 C1 N12 . . . . -171.60(14) ?
O12 N11 C1 C2 . . . . 5.66(17) ?
O11 N11 C1 N12 . . . . 11.70(15) ?
O11 N11 C1 C2 . . . . -171.04(14) ?
O22 N12 C1 N11 . . . . 33.73(15) ?
O22 N12 C1 C2 . . . . -143.66(14) ?
O21 N12 C1 N11 . . . . -148.54(13) ?
O21 N12 C1 C2 . . . . 34.07(15) ?
N12 C1 C2 N22 . . . . -5.02(16) ?
N12 C1 C2 N21 . . . . 172.84(14) ?
N11 C1 C2 N22 . . . . 177.82(14) ?
N11 C1 C2 N21 . . . . -4.32(18) ?
