#------------------------------------------------------------------------------
#$Date: 2021-09-22 04:47:00 +0300 (Wed, 22 Sep 2021) $
#$Revision: 269240 $
#$URL: file:///home/coder/svn-repositories/cod/cif/2/10/88/2108879.cif $
#------------------------------------------------------------------------------
#
# This file is available in the Crystallography Open Database (COD),
# http://www.crystallography.net/. The original data for this entry
# were provided by IUCr Journals, http://journals.iucr.org/.
#
# The file may be used within the scientific community so long as
# proper attribution is given to the journal article from which the
# data were obtained.
#
data_2108879
loop_
_publ_author_name
'Novelli, Giulia'
'McMonagle, Charles J.'
'Kleemiss, Florian'
'Probert, Michael'
'Puschmann, Horst'
'Grabowsky, Simon'
'Maynard-Casely, Helen E.'
'McIntyre, Garry J.'
'Parsons, Simon'
_publ_section_title
;
 Accurate H-atom parameters for the two polymorphs of
 <small>L</small>-histidine at 5, 105 and 295K
;
_journal_issue                   5
_journal_name_full               'Acta Crystallographica Section B'
_journal_page_first
;
;
_journal_paper_doi               10.1107/S205252062100740X
_journal_volume                  77
_journal_year                    2021
_chemical_absolute_configuration syn
_chemical_formula_moiety         'C6 H9 N3 O2'
_chemical_formula_sum            'C6 H9 N3 O2'
_chemical_formula_weight         155.16
_chemical_name_common            L-histidine
_chemical_name_systematic        '2-Amino-3-(1H-imidazol-4-yl)propanoic acid'
_space_group_crystal_system      orthorhombic
_space_group_IT_number           19
_space_group_name_Hall           'P 2ac 2ab'
_space_group_name_H-M_alt        'P 21 21 21'
_atom_sites_solution_hydrogens   difmap
_audit_creation_date             2021-01-18
_audit_creation_method
;
Olex2 1.3
(compiled 2020.11.12 svn.r5f609507 for OlexSys, GUI svn.r6226)
;
_cell_angle_alpha                90
_cell_angle_beta                 90
_cell_angle_gamma                90
_cell_formula_units_Z            4
_cell_length_a                   5.1498(2)
_cell_length_b                   7.1902(2)
_cell_length_c                   18.8503(6)
_cell_measurement_reflns_used    7499
_cell_measurement_temperature    5
_cell_measurement_theta_max      36.27
_cell_measurement_theta_min      3.03
_cell_volume                     697.99(4)
_computing_cell_refinement       'LaueG (Piltz, 2011)'
_computing_data_collection       'MAATEL/ANSTO control program'
_computing_data_reduction
'argonne_boxes (Wilkinson et al., 1988) & LaueG (Piltz, 2011)'
_computing_molecular_graphics    'Olex2 1.3 (Dolomanov et al., 2009)'
_computing_publication_material  'Olex2 1.3 (Dolomanov et al., 2009)'
_computing_structure_refinement  'XL  (Sheldrick, 2008)'
_computing_structure_solution    'from X-ray model at 5 K'
_diffrn_ambient_temperature      5
_diffrn_measured_fraction_theta_full 0.866
_diffrn_measured_fraction_theta_max 0.866
_diffrn_measurement_details      '27 images, exposure time   0 minutes'
_diffrn_measurement_device       'Laue image-plate diffractometer'
_diffrn_measurement_device_type  KOALA
_diffrn_measurement_method       Laue
_diffrn_radiation_probe          neutron
_diffrn_radiation_type           neutron
_diffrn_radiation_wavelength     0.80
_diffrn_reflns_av_R_equivalents  0.1884
_diffrn_reflns_av_unetI/netI     0.2206
_diffrn_reflns_limit_h_max       8
_diffrn_reflns_limit_h_min       -8
_diffrn_reflns_limit_k_max       11
_diffrn_reflns_limit_k_min       -12
_diffrn_reflns_limit_l_max       28
_diffrn_reflns_limit_l_min       -28
_diffrn_reflns_number            33762
_diffrn_reflns_reduction_process 'LaueG (Piltz, 2011)'
_diffrn_reflns_resolution_max    1.67
_diffrn_reflns_theta_full        71.06
_diffrn_reflns_theta_max         71.16
_diffrn_source                   'nuclear reactor'
_diffrn_source_details           'thermal neutrons, supermirror guides'
_diffrn_source_type
'OPAL reactor, ANSTO, Lucas Heights, Australia'
_exptl_absorpt_coefficient_mu    0.0
_exptl_absorpt_correction_type   none
_exptl_crystal_colour            colourless
_exptl_crystal_density_diffrn    1.476
_exptl_crystal_description       needle
_exptl_crystal_F_000             184
_exptl_crystal_size_max          0.35
_exptl_crystal_size_mid          0.30
_exptl_crystal_size_min          0.15
_refine_diff_density_max         1.49
_refine_diff_density_min         -1.341
_refine_diff_density_rms         0.310
_refine_ls_abs_structure_details
;
Absolute structure known from synthesis
;
_refine_ls_extinction_method     none
_refine_ls_goodness_of_fit_ref   1.153
_refine_ls_hydrogen_treatment    refall
_refine_ls_matrix_type           full
_refine_ls_number_parameters     181
_refine_ls_number_reflns         1375
_refine_ls_number_restraints     0
_refine_ls_restrained_S_all      1.153
_refine_ls_R_factor_all          0.0715
_refine_ls_R_factor_gt           0.0475
_refine_ls_shift/su_max          0.000
_refine_ls_shift/su_mean         0.000
_refine_ls_structure_factor_coef Fsqd
_refine_ls_weighting_details
'w=1/[\s^2^(Fo^2^)+(0.0300P)^2^] where P=(Fo^2^+2Fc^2^)/3'
_refine_ls_weighting_scheme      calc
_refine_ls_wR_factor_gt          0.0649
_refine_ls_wR_factor_ref         0.0692
_reflns_Friedel_coverage         0.000
_reflns_Friedel_fraction_full    0.000
_reflns_Friedel_fraction_max     0.000
_reflns_number_gt                1133
_reflns_number_total             1375
_reflns_threshold_expression     'I > 2\s(I)'
_cod_data_source_file            um5050sup1.cif
_cod_data_source_block           HOTN00
_cod_database_code               2108879
_shelx_shelxl_version_number     2017/1
_shelx_space_group_comment
;
The symmetry employed for this shelxl refinement is uniquely defined
by the following loop, which should always be used as a source of
symmetry information in preference to the above space-group names.
They are only intended as comments.
;
_olex2_refinement_description
;
;
_shelx_res_file
;
TITL cmm190030_5k_0m_a.res in P2(1)2(1)2(1)
    hotn00.res
    created by SHELXL-2017/1 at 09:42:50 on 18-Jan-2021
REM Old TITL CMM190030_5K_0m in P2(1)2(1)2(1)
REM SHELXT solution in P2(1)2(1)2(1): R1 0.098, Rweak 0.023, Alpha 0.001
REM <I/s> 1.903 for 15 systematic absences, Orientation as input
REM Flack x = -0.394 ( 0.361 ) from 533 Parsons' quotients
REM Formula found by SHELXT: C8 N O2
CELL 0.71073 5.1498 7.1902 18.8503 90 90 90
ZERR 4 0.0002 0.0002 0.0006 0 0 0
LATT -1
SYMM 0.5-X,-Y,0.5+Z
SYMM -X,0.5+Y,0.5-Z
SYMM 0.5+X,0.5-Y,-Z
NEUT
SFAC  C 0.000 0 0 0 0 0 0 0 6.646 0 0 0 0 12.011
SFAC  H 0.000 0 0 0 0 0 0 0 -3.739 0 0 0 0 1.008
SFAC  N 0.000 0 0 0 0 0 0 0 9.36 0 0 0 0 14.007
SFAC  O 0.000 0 0 0 0 0 0 0 5.803 0 0 0 0 15.999
UNIT 24 36 12 8

RIGU

L.S. 99
PLAN  1
TEMP -268.14
CONF
BOND
list 4
MORE -1
BOND $H
fmap 2 53
acta
OMIT 1 0 1
OMIT 1 2 2
OMIT 0 8 7
OMIT 0 5 19
OMIT 0 2 19
OMIT 0 8 3
OMIT 0 4 19
OMIT 0 1 20
OMIT 0 1 21
OMIT 0 7 1
OMIT 1 0 21
OMIT 0 7 3
OMIT 1 2 21
OMIT 1 0 17
OMIT 1 1 22
OMIT 1 4 19
OMIT 2 1 22
OMIT 1 0 20
OMIT 3 1 27
OMIT 2 0 21
OMIT 1 2 22
OMIT 2 2 21
OMIT 2 0 19
OMIT 3 0 20
OMIT 0 1 16
OMIT 0 11 7
OMIT 0 8 13
OMIT 0 7 11
OMIT 0 11 5
OMIT 0 10 13
OMIT 5 5 17
OMIT 0 7 8
OMIT 0 7 19
OMIT 7 0 8
OMIT 7 7 1
OMIT 2 8 3
OMIT 2 2 1
OMIT 0 7 4
OMIT 6 6 11
OMIT 3 2 28
OMIT 0 9 20
OMIT 0 8 15
OMIT 0 10 1
OMIT 2 3 25
OMIT 2 1 25
OMIT 2 6 25
OMIT 3 4 26
OMIT 3 1 28
OMIT 1 4 21
OMIT 3 5 25
OMIT 2 3 23
OMIT 1 6 22
OMIT 1 8 22
OMIT 1 3 22
OMIT 5 3 24
OMIT 0 11 9
OMIT 0 7 18
OMIT 8 2 1
OMIT 2 1 24
OMIT 5 5 19
OMIT 8 4 1
OMIT 1 6 20
OMIT 3 6 25
OMIT 1 3 23
OMIT 7 0 16
OMIT 3 11 0
OMIT 4 3 25
OMIT 2 11 5
OMIT 0 6 17
OMIT 1 9 20
OMIT 5 6 20
OMIT 6 7 7
OMIT 1 2 24
OMIT 1 4 20
OMIT 2 1 23
OMIT 3 7 23
OMIT 3 1 25
OMIT 5 8 13
OMIT 5 7 8
OMIT 4 7 19
OMIT 7 6 2
OMIT 2 6 23
OMIT 1 8 23
OMIT 2 5 25
OMIT 4 0 27
OMIT 0 7 20
OMIT 3 2 25
OMIT 3 0 26
OMIT 3 2 27
OMIT 3 3 26
OMIT 3 4 25
OMIT 2 0 23
OMIT 2 5 24
OMIT 3 3 23
OMIT 2 9 17
OMIT 1 7 23
OMIT 4 2 27
OMIT 1 10 14
OMIT 5 9 6
OMIT 1 8 21
OMIT 7 3 15
OMIT 3 3 25
OMIT 0 9 11
OMIT 2 4 5
OMIT 1 1 17
REM <olex2.extras>
REM <HklSrc "%.\\HOTN00.hkl">
REM </olex2.extras>

WGHT    0.030000
FVAR       0.33761
O2    4    0.325202    0.494707    0.239625    11.00000    0.00451    0.00865 =
         0.01138    0.00145   -0.00056   -0.00057
O1    4    0.732835    0.491730    0.197492    11.00000    0.00488    0.01164 =
         0.00772    0.00049    0.00073   -0.00002
N1    3    0.918211    0.311577    0.312079    11.00000    0.00694    0.00634 =
         0.00959   -0.00086   -0.00044    0.00114
H1B   2    1.042623    0.379143    0.276940    11.00000    0.01859    0.01766 =
         0.02182    0.00189    0.00439    0.00083
H1C   2    0.879415    0.177023    0.295075    11.00000    0.02106    0.01220 =
         0.02823   -0.00769   -0.00109    0.00092
H1A   2    1.012224    0.310179    0.360963    11.00000    0.01565    0.02290 =
         0.01458    0.00023   -0.00279    0.00299
N3    3    0.869522    0.503641    0.553380    11.00000    0.00712    0.00874 =
         0.00628   -0.00119   -0.00011    0.00012
H3    2    0.847793    0.504554    0.608955    11.00000    0.02017    0.02356 =
         0.01419   -0.00002   -0.00087    0.00190
N2    3    1.032165    0.439157    0.446806    11.00000    0.00626    0.00782 =
         0.00868   -0.00110    0.00033    0.00183
C4    1    0.802990    0.539515    0.438744    11.00000    0.00648    0.00661 =
         0.00624   -0.00099   -0.00054    0.00049
C1    1    0.565799    0.470104    0.245197    11.00000    0.00526    0.00535 =
         0.00789    0.00048   -0.00009   -0.00012
C2    1    0.666620    0.413678    0.319173    11.00000    0.00423    0.00551 =
         0.00525   -0.00068   -0.00021    0.00059
H2    2    0.525514    0.317623    0.344397    11.00000    0.01451    0.01911 =
         0.01698    0.00108    0.00058   -0.00311
C6    1    0.700752    0.579124    0.504495    11.00000    0.00569    0.00785 =
         0.00596   -0.00090   -0.00086    0.00153
H6    2    0.528535    0.655624    0.520138    11.00000    0.01781    0.02811 =
         0.02822   -0.00348    0.00263    0.00945
C5    1    1.062755    0.420521    0.516521    11.00000    0.00666    0.00847 =
         0.00776    0.00022    0.00002    0.00184
H5    2    1.222440    0.347757    0.541531    11.00000    0.02005    0.03002 =
         0.02186    0.00421   -0.00604    0.00991
C3    1    0.702668    0.587425    0.366188    11.00000    0.00823    0.00499 =
         0.00857   -0.00060   -0.00152    0.00180
H3A   2    0.837092    0.684879    0.339674    11.00000    0.02774    0.01845 =
         0.02393    0.00555   -0.00202   -0.00707
H3B   2    0.513865    0.656259    0.371255    11.00000    0.01746    0.03000 =
         0.02332   -0.00278   -0.00270    0.01192
HKLF 4




REM  cmm190030_5k_0m_a.res in P2(1)2(1)2(1)
REM R1 =  0.0475 for    1133 Fo > 4sig(Fo)  and  0.0715 for all    1375 data
REM    181 parameters refined using      0 restraints

END

WGHT      0.0360      0.8420

REM Highest difference peak  1.495,  deepest hole -1.341,  1-sigma level  0.310
Q1    1   0.5009  0.4348  0.4419  11.00000  0.05    1.49
;
_shelx_res_checksum              50150
_shelx_hkl_file
;
   0   1   1    11.7     0.9
   0   1   2   167.0     2.8
   0   1   3     7.2     0.7
   0   1   4   108.0     3.5
   0   1   5   114.0     2.7
   0   1   6    43.9     1.7
   0   1   7     3.5     1.9
   0   1   8    28.9     2.3
   0   1   9   153.3     2.9
   0   1  10   512.1     5.1
   0   1  11   582.7     5.8
   0   1  12    31.0     4.4
   0   1  13   356.5     7.0
   0   1  14   921.1    15.7
   0   1  15    51.0    12.7
   0   1  16    24.0    18.7
   0   1  17    90.5    29.7
   0   1  18    26.5    43.4
   0   1  19   289.4    64.2
   0   1  20   240.6   146.2
   0   1  21   172.7   264.1
   0   2   1   200.2     3.8
   0   2   3    73.8     2.3
   0   2   5    21.5     2.1
   0   2   7   407.6     5.4
   0   2   9   611.4     8.9
   0   2  11    18.5     4.4
   0   2  13    44.6     8.1
   0   2  15  1564.0    34.9
   0   2  17    63.9    43.4
   0   2  19   340.7    77.3
   0   3   1     5.3     1.8
   0   3   2     2.8     1.7
   0   3   4   123.6     4.5
   0   3   5    10.9     3.0
   0   3   7     1.5     3.8
   0   3   8    53.7     4.1
   0   3  10    10.4     4.8
   0   3  11    28.0     5.5
   0   3  13   186.4    10.1
   0   3  14   167.2    13.3
   0   3  16    22.5    28.6
   0   3  17    49.0    41.1
   0   3  19  -378.9   149.2
   0   3  20   624.2   334.6
   0   4   1    28.3     2.5
   0   4   3    12.1     3.8
   0   4   5   174.2     5.3
   0   4   7    34.0     5.3
   0   4   9   112.9     6.0
   0   4  11   407.5     7.4
   0   4  13    66.6    10.2
   0   4  15    98.1    24.4
   0   4  17   272.4    47.7
   0   4  19   277.3   119.1
   0   5   1    12.6     4.0
   0   5   2   491.0     6.6
   0   5   3    14.5     4.1
   0   5   4     6.1     4.2
   0   5   6    18.7     5.1
   0   5   7    58.9     4.8
   0   5   8   249.3     5.6
   0   5   9    95.1     5.6
   0   5  11    45.0     6.6
   0   5  12  1258.2    17.4
   0   5  13    78.9    11.8
   0   5  14   304.2    16.0
   0   5  16   348.7    32.8
   0   5  17   129.5    44.6
   0   5  18   -28.0   112.7
   0   5  19   338.3   186.7
   0   6   1   436.5     7.8
   0   6   5   159.0     7.1
   0   6   7    -7.6     6.3
   0   6  11    17.7     7.6
   0   6  13    57.7    10.6
   0   6  17   102.3    47.5
   0   6  19   274.7   155.3
   0   7   1    79.1     8.8
   0   7   2   728.4    30.0
   0   7   3   105.3     8.8
   0   7   4    93.0     8.8
   0   7   5    14.8    10.7
   0   7   6   535.3    11.5
   0   7   8   119.9    14.6
   0   7   9    52.4     9.1
   0   7  10   222.4     9.1
   0   7  11   142.4    12.1
   0   7  12   605.0    16.7
   0   7  13    36.0    14.0
   0   7  15    39.6    21.1
   0   7  16   611.6    38.6
   0   7  18   247.8   115.3
   0   7  19  1362.8   237.8
   0   7  20    35.3   217.2
   0   8   1   182.2    10.4
   0   8   3   389.7    52.1
   0   8   5    24.4    13.0
   0   8   7  1170.1   197.2
   0   8   9   572.7    17.7
   0   8  11    64.8    13.2
   0   8  13   165.0    18.7
   0   8  15   122.1    32.1
   0   8  17   161.8    49.1
   0   9   1   180.0    21.1
   0   9   2   211.9    13.6
   0   9   4   204.8    22.7
   0   9   5   557.6    40.5
   0   9   7   899.0    17.8
   0   9  11   238.2    20.9
   0   9  13   336.9    33.6
   0   9  14   635.1    33.4
   0   9  16   244.4    47.6
   0   9  17   400.9    64.7
   0   9  19   308.6   124.4
   0   9  20   685.4   195.3
   0  10   1   317.1   157.2
   0  10   7   557.0    25.4
   0  10   9  1046.6   487.9
   0  10  13   339.3    41.7
   0  11   1   117.4    65.3
   0  11   4  1187.8    68.7
   0  11   5   596.0    56.1
   0  11   7   455.7    41.4
   0  11   8   147.3    45.4
   0  11   9   210.9   119.3
   0  12   1   252.1    78.2
   1   0   0     3.0     0.5
   1   0   1   141.2     4.9
   1   0   2    91.9     2.4
   1   0   3   403.3     8.9
   1   0   4    64.5     1.4
   1   0   5   232.7     9.7
   1   0   6   256.7     8.2
   1   0   7    92.3     5.6
   1   0   8    31.9     5.8
   1   0   9   660.7    15.4
   1   0  10    -0.0     5.2
   1   0  11     5.2     6.8
   1   0  12    16.4     8.0
   1   0  13   293.6     8.2
   1   0  14    11.5     8.7
   1   0  15   322.1    13.5
   1   0  16   -42.8    15.7
   1   0  17   145.2    23.0
   1   0  18  1142.1    43.0
   1   0  19  -151.3    50.7
   1   0  20   126.7    82.5
   1   0  21    71.7   139.6
   1   0  22  -194.1   270.3
   1   1   0  1444.8   191.4
   1   1   1   720.2    14.7
   1   1   2    56.0     0.9
   1   1   3   418.8     2.8
   1   1   4    21.7     0.8
   1   1   5   158.8     1.7
   1   1   6   245.9     2.1
   1   1   7   309.7     2.4
   1   1   8   739.1     4.5
   1   1   9   422.6     4.2
   1   1  10   261.1     3.7
   1   1  11   302.2     4.9
   1   1  12   161.3     5.1
   1   1  13   301.7     5.3
   1   1  14   144.1     6.1
   1   1  15     2.9     7.6
   1   1  16  1052.2    17.9
   1   1  17   166.5    15.2
   1   1  18    14.5    20.8
   1   1  19   122.2    34.2
   1   1  20   115.9    55.0
   1   1  21   117.8    84.8
   1   1  22   165.8   137.7
   1   1  23   340.5   202.7
   1   2   0    76.7     3.3
   1   2   1   345.5     2.9
   1   2   2   146.1     2.0
   1   2   3   587.8     4.2
   1   2   4    10.9     1.2
   1   2   5   122.7     2.1
   1   2   6   380.6     4.0
   1   2   7   212.7     2.5
   1   2   8   206.6     2.4
   1   2   9   191.5     2.6
   1   2  10    56.6     2.7
   1   2  11    90.6     3.0
   1   2  12    74.6     3.7
   1   2  13   540.4     6.2
   1   2  14   223.8     6.1
   1   2  15   535.4    10.2
   1   2  16    48.2    10.5
   1   2  17   317.6    17.7
   1   2  18    61.9    23.5
   1   2  19   133.3    31.2
   1   2  20   229.9    54.9
   1   2  21    77.3   113.5
   1   2  22  -143.8   197.7
   1   2  23  -115.5   303.3
   1   2  24   143.1   517.6
   1   3   0    22.8     2.4
   1   3   1    22.8     1.8
   1   3   2   123.7     2.3
   1   3   3   465.1     4.2
   1   3   4   242.0     3.3
   1   3   5    79.5     2.1
   1   3   6    14.8     2.2
   1   3   7   244.3     3.3
   1   3   8   228.6     3.1
   1   3   9   175.9     3.3
   1   3  10   114.8     3.6
   1   3  11   858.4     7.3
   1   3  12   496.8     7.0
   1   3  13   801.9     8.7
   1   3  14   423.2     8.4
   1   3  15    33.1    10.0
   1   3  16   178.9    14.6
   1   3  17   219.0    20.7
   1   3  18   291.7    29.5
   1   3  19   241.8    43.9
   1   3  20   253.6    62.6
   1   3  21   188.6   132.9
   1   3  22   236.9   212.2
   1   3  23   173.5   350.3
   1   4   0    -0.0     3.3
   1   4   1   872.8     6.1
   1   4   2  1604.8     7.9
   1   4   3    32.2     2.5
   1   4   4   104.5     2.8
   1   4   5   216.0     3.4
   1   4   6    52.2     3.1
   1   4   7    74.3     3.4
   1   4   8   403.6     4.7
   1   4   9    72.0     3.9
   1   4  10    78.5     4.6
   1   4  11   341.8     6.3
   1   4  12   256.1     6.3
   1   4  13    53.8     7.0
   1   4  14   525.5    10.7
   1   4  15   770.0    14.4
   1   4  16    89.8    13.8
   1   4  17    33.4    22.1
   1   4  18   121.7    33.4
   1   4  19   143.3    46.4
   1   4  20   128.5    75.4
   1   4  21   496.6   105.8
   1   4  22    55.3   198.2
   1   5   0    15.7     4.3
   1   5   1    43.5     3.4
   1   5   2    43.5     3.3
   1   5   3   433.3     4.8
   1   5   4   143.3     3.8
   1   5   5   306.7     4.5
   1   5   6    71.7     3.9
   1   5   7   303.6     4.8
   1   5   8  1196.0     8.3
   1   5   9    54.5     4.9
   1   5  10    36.6     5.9
   1   5  11   149.1     6.4
   1   5  12   865.7     8.7
   1   5  13   239.6     7.5
   1   5  14   254.8     9.1
   1   5  15    14.4     9.8
   1   5  16   155.4    16.3
   1   5  17   223.1    24.4
   1   5  18    89.8    35.2
   1   5  19   143.1    48.6
   1   5  20   356.8    69.8
   1   5  21   405.4   126.6
   1   5  22   255.9   188.7
   1   5  23  -153.0   308.9
   1   6   0   214.4     6.1
   1   6   1   104.1     4.2
   1   6   2   428.9     5.1
   1   6   3   156.9     4.6
   1   6   4    46.4     4.5
   1   6   5   805.2     7.0
   1   6   6   246.6     5.2
   1   6   7   106.9     5.0
   1   6   8   468.1     6.0
   1   6   9   101.9     5.2
   1   6  10    82.0     5.6
   1   6  11   361.0     7.2
   1   6  12    95.3     7.1
   1   6  13   229.7     8.1
   1   6  14   357.2     9.6
   1   6  15   131.7    11.0
   1   6  16    47.0    15.3
   1   6  17   236.9    21.8
   1   6  18   135.6    32.9
   1   6  19    97.8    56.3
   1   6  20   220.5    70.7
   1   6  21   257.1   249.6
   1   6  22   430.0   389.1
   1   7   0    55.6     7.8
   1   7   1    20.7     5.4
   1   7   2   171.1     5.7
   1   7   3    91.2     5.5
   1   7   4    92.3     5.6
   1   7   5   208.7     6.1
   1   7   6   410.9     6.5
   1   7   7    75.1     5.9
   1   7   8   534.4     7.0
   1   7   9    48.2     6.3
   1   7  10   110.3     6.8
   1   7  11    13.9     7.5
   1   7  12   335.8     8.9
   1   7  13    31.1     9.7
   1   7  14    43.6    12.2
   1   7  15    45.6    13.9
   1   7  16   284.1    17.2
   1   7  17    50.4    21.6
   1   7  18    80.8    28.8
   1   7  19   237.5    54.9
   1   7  20   204.6    70.3
   1   7  21    82.8   109.5
   1   7  22   446.1   221.9
   1   7  23   -58.0   294.7
   1   8   0   331.4    10.3
   1   8   1   239.3     7.0
   1   8   2   134.1     7.0
   1   8   3    55.2     6.8
   1   8   4   181.0     7.0
   1   8   5   391.8     7.5
   1   8   6   183.9     7.4
   1   8   7   673.8     8.6
   1   8   8   359.4     8.2
   1   8   9   401.5     9.1
   1   8  10   185.7     9.7
   1   8  11   206.4    10.6
   1   8  12    41.5    11.7
   1   8  13   202.5    13.8
   1   8  14   511.7    17.4
   1   8  15   590.3    19.7
   1   8  16   106.1    24.0
   1   8  17   140.5    29.5
   1   8  18   120.5    35.8
   1   8  19    17.0    45.3
   1   8  20     4.2    78.6
   1   8  21   -68.9   176.5
   1   8  22   335.5   230.2
   1   8  23   207.5   307.4
   1   9   0   -18.5    13.5
   1   9   1   139.2     9.8
   1   9   2    51.6     9.8
   1   9   3     5.0     9.8
   1   9   4    44.6    10.0
   1   9   5    22.0    10.4
   1   9   6    67.0    11.1
   1   9   7   357.2    12.0
   1   9   8   103.5    11.8
   1   9   9    73.8    12.8
   1   9  10   126.1    13.6
   1   9  11   -26.9    15.5
   1   9  12    98.9    17.8
   1   9  13   238.6    20.0
   1   9  14   251.8    23.3
   1   9  15    63.6    27.3
   1   9  16    40.6    31.4
   1   9  17    14.6    44.0
   1   9  18    31.6    58.0
   1   9  19   202.1    65.6
   1   9  20   135.6    79.4
   1  10   0  1119.9    23.9
   1  10   1    55.0    15.2
   1  10   2     3.5    15.4
   1  10   3   425.6    16.3
   1  10   4   468.2    16.3
   1  10   5   187.6    16.4
   1  10   6    91.8    17.7
   1  10   7   384.0    18.8
   1  10   8   -16.5    19.5
   1  10   9   425.4    20.9
   1  10  10    82.6    21.5
   1  10  11    49.7    23.5
   1  10  12    82.9    26.5
   1  10  13   575.5    32.6
   1  10  14    -2.3    36.8
   1  10  15    74.1    42.5
   1  10  16   198.7    51.4
   1  10  17    31.5    60.4
   1  11   0   229.1    36.9
   1  11   1    23.8    25.3
   1  11   2    16.5    25.0
   1  11   3   -13.1    26.3
   1  11   4   117.2    26.8
   1  11   5    96.6    28.0
   1  11   6   378.4    29.5
   1  11   7    52.0    31.3
   1  11   8   133.1    32.8
   1  11   9   -29.2    34.4
   1  11  10   195.6    37.5
   1  11  11   -23.6    39.6
   1  11  12   326.4    44.4
   2   0   1     8.8     1.4
   2   0   3    17.0     2.4
   2   0   5    33.4     1.4
   2   0   7   664.7    10.5
   2   0   9   640.3    12.4
   2   0  11   175.1     8.6
   2   0  13   100.1     9.6
   2   0  15    47.0     9.8
   2   0  17    11.6    14.7
   2   0  19   -16.6    32.1
   2   0  21   -22.1    68.3
   2   0  23   -65.6   168.5
   2   1   0    32.9     1.9
   2   1   1   375.3     3.7
   2   1   2   138.0     1.7
   2   1   3   359.9     4.6
   2   1   4    63.2     1.4
   2   1   5    51.4     1.3
   2   1   6   461.6     2.8
   2   1   7   182.9     2.6
   2   1   8    30.9     3.8
   2   1   9    22.7     4.7
   2   1  10    88.6     5.2
   2   1  11   302.3     6.8
   2   1  12    67.8     6.5
   2   1  13   416.9     7.8
   2   1  14    71.7     6.4
   2   1  15   744.1     9.2
   2   1  16    31.9     7.1
   2   1  17   122.0     9.3
   2   1  18   132.2    12.4
   2   1  19   144.6    15.9
   2   1  20    13.8    22.2
   2   1  21    89.6    33.5
   2   1  22   147.0    53.9
   2   1  23   136.0    91.6
   2   1  24   187.5   139.8
   2   1  25   891.9   476.2
   2   2   1    17.5     1.3
   2   2   3   170.5     2.4
   2   2   5    88.3     2.1
   2   2   7   441.8     3.9
   2   2   9   392.8     5.2
   2   2  11   474.6     6.5
   2   2  13   616.2     8.4
   2   2  15   694.4     8.9
   2   2  17    71.5     9.6
   2   2  19   519.1    20.3
   2   2  21    -0.3    42.9
   2   2  23   -65.9    97.6
   2   2  25 -1392.6   464.0
   2   3   0   323.9     4.8
   2   3   1  1304.2     7.0
   2   3   2   133.5     2.6
   2   3   3   362.8     3.8
   2   3   4    60.4     2.3
   2   3   5    56.1     2.3
   2   3   6    16.2     2.2
   2   3   7   517.5     4.6
   2   3   8   464.9     5.0
   2   3   9   150.4     4.1
   2   3  10   157.9     4.9
   2   3  11   218.9     6.1
   2   3  12   222.3     6.1
   2   3  13   272.7     6.9
   2   3  14   389.7     8.3
   2   3  15   736.8     9.6
   2   3  16    95.0     8.8
   2   3  17   102.2    10.6
   2   3  18   136.7    15.2
   2   3  19   387.1    20.3
   2   3  20    55.1    25.6
   2   3  21    31.0    42.5
   2   3  22    48.5    53.5
   2   3  23   477.7    86.6
   2   3  24   361.0   128.1
   2   3  25   649.2   265.0
   2   4   1   363.5     4.5
   2   4   3   430.2     4.8
   2   4   5   205.8     3.9
   2   4   7    23.1     3.5
   2   4   9   828.8     8.8
   2   4  11   722.8     9.4
   2   4  13   717.6    10.5
   2   4  15   318.4     8.8
   2   4  17   264.0    12.5
   2   4  19   104.7    22.3
   2   4  21   206.2    59.3
   2   4  23   -15.2   121.0
   2   4  25   298.2   295.4
   2   5   0   401.6     7.6
   2   5   1   605.4     5.8
   2   5   2    83.7     3.6
   2   5   3   170.0     4.1
   2   5   4   481.7     5.2
   2   5   5   467.6     5.5
   2   5   6   176.1     4.5
   2   5   7    50.2     4.5
   2   5   8   242.0     6.1
   2   5   9   318.2     7.2
   2   5  10   204.9     7.3
   2   5  11   130.2     7.5
   2   5  12   242.0     8.8
   2   5  13   151.6     8.7
   2   5  14   107.9     8.0
   2   5  15   377.5     9.3
   2   5  16   152.0    10.6
   2   5  17   246.4    12.4
   2   5  18   152.9    15.7
   2   5  19   396.3    22.7
   2   5  20   185.3    34.4
   2   5  21   429.2    52.8
   2   5  22     4.4    83.9
   2   5  23  -128.9   132.5
   2   5  24  -110.2   183.9
   2   5  25   192.7   667.7
   2   6   1  1045.6     7.4
   2   6   3    64.0     4.4
   2   6   5  1060.6     7.7
   2   6   7    69.9     5.7
   2   6   9   315.3     7.6
   2   6  11    88.6     8.0
   2   6  13   160.1     8.4
   2   6  15   653.7    12.4
   2   6  17   273.3    15.3
   2   6  19    61.6    22.1
   2   6  21   351.1    51.9
   2   6  23   430.4   144.8
   2   6  25   793.7   310.8
   2   7   0    20.2     7.5
   2   7   1    68.9     5.5
   2   7   2    57.2     5.4
   2   7   3    80.6     5.7
   2   7   4   296.2     6.2
   2   7   5   222.5     6.2
   2   7   6   434.9     6.7
   2   7   7   921.2     8.5
   2   7   8    96.8     7.1
   2   7   9   145.9     7.6
   2   7  10   173.4     8.2
   2   7  11    35.8     9.1
   2   7  12   141.5    10.0
   2   7  13   233.3    11.1
   2   7  14   219.1    12.9
   2   7  15    63.5    14.2
   2   7  16   286.2    16.3
   2   7  17   141.4    18.4
   2   7  18   124.3    20.1
   2   7  19    38.3    27.4
   2   7  20   108.9    34.6
   2   7  21   241.7    43.6
   2   7  22   130.3    67.3
   2   7  23   152.1   134.7
   2   7  24    69.0   178.8
   2   8   1   252.8     7.1
   2   8   3   279.7     7.5
   2   8   5   179.5     7.7
   2   8   7    15.5     8.7
   2   8   9    76.2    10.0
   2   8  11   202.6    13.0
   2   8  13    92.0    15.8
   2   8  15   128.6    19.3
   2   8  17    56.2    25.6
   2   8  19   594.0    35.4
   2   8  21   261.9    59.8
   2   9   0   206.7    15.1
   2   9   1    27.3    10.5
   2   9   2    24.3    10.3
   2   9   3   145.0    11.1
   2   9   4    55.8    11.3
   2   9   5    66.1    12.0
   2   9   6    38.7    12.3
   2   9   7   361.0    13.4
   2   9   8    26.4    13.4
   2   9   9   312.0    16.3
   2   9  10    48.1    17.0
   2   9  11    31.2    18.1
   2   9  12   -27.6    20.8
   2   9  13   111.6    24.4
   2   9  14    24.2    28.2
   2   9  15    70.1    31.6
   2   9  16   311.5    35.8
   2   9  17   -17.4    38.8
   2   9  18    36.9    44.8
   2   9  19   -23.4    51.6
   2  10   1     4.7    16.4
   2  10   3    24.2    17.4
   2  10   5    34.1    18.7
   2  10   7   110.7    21.2
   2  10   9   293.7    24.0
   2  10  11    15.4    29.9
   2  10  13   580.7    37.3
   2  10  15   173.6    49.1
   2  11   0    13.2    38.8
   2  11   1   210.5    27.9
   2  11   2    39.7    29.0
   2  11   3   397.1    29.7
   2  11   4    65.9    30.1
   2  11   5    90.8    31.3
   2  11   6   289.5    32.5
   2  11   7   167.0    35.2
   2  11   8   252.5    38.5
   2  11   9    16.9    39.8
   2  11  10   156.0    43.3
   3   0   1   651.2     8.2
   3   0   2     9.0     2.3
   3   0   4   593.6     5.7
   3   0   5    74.5     3.3
   3   0   7   248.9     4.2
   3   0   8    11.2     5.4
   3   0  10    27.2     7.5
   3   0  11   301.1    10.8
   3   0  13   251.2    10.9
   3   0  14   166.6    11.1
   3   0  16   476.1    11.8
   3   0  17    19.6     9.5
   3   0  19    97.5    12.9
   3   0  20    -9.3    17.3
   3   0  22   -22.4    29.4
   3   0  23    33.0    49.2
   3   0  25    85.6   164.3
   3   0  26    22.7   242.1
   3   1   0   222.2     4.8
   3   1   1   442.1     4.8
   3   1   2   718.3     5.4
   3   1   3    20.0     1.8
   3   1   4    15.1     1.8
   3   1   5    27.5     2.2
   3   1   6   643.0     5.3
   3   1   7   954.0     7.2
   3   1   8     4.5     3.4
   3   1   9    43.3     5.1
   3   1  10   321.8     7.4
   3   1  11   293.5     7.2
   3   1  12   174.6     6.9
   3   1  13    58.8     6.9
   3   1  14   260.7     7.6
   3   1  15    77.2     7.2
   3   1  16    32.0     7.0
   3   1  17   177.7     7.3
   3   1  18    23.4     7.6
   3   1  19    20.3     9.3
   3   1  20    70.7    11.8
   3   1  21    87.5    18.9
   3   1  22    81.2    27.8
   3   1  23   497.2    41.2
   3   1  24   -35.7    61.4
   3   1  25   128.1    95.5
   3   1  26    24.1   136.5
   3   1  27   -19.7   218.2
   3   1  28   609.2   394.8
   3   2   0    18.8     2.9
   3   2   1    74.7     2.3
   3   2   2   148.7     2.3
   3   2   3   402.7     3.5
   3   2   4   215.2     2.8
   3   2   5   253.2     3.5
   3   2   6   162.0     3.4
   3   2   7    83.6     3.6
   3   2   8  1180.6     9.3
   3   2   9   107.1     5.2
   3   2  10   163.4     6.0
   3   2  11    97.8     6.0
   3   2  12   363.0     7.5
   3   2  13   154.3     6.7
   3   2  14   606.6     8.8
   3   2  15   652.9     9.2
   3   2  16   487.1     8.5
   3   2  17    19.8     7.6
   3   2  18   164.6     9.1
   3   2  19   161.2    10.9
   3   2  20   128.5    13.3
   3   2  21   167.1    20.2
   3   2  22   165.3    25.4
   3   2  23   320.8    35.2
   3   2  24   311.9    52.4
   3   2  25    13.1   106.4
   3   2  26    23.9   153.0
   3   2  27    16.4   323.6
   3   2  28  1204.1   724.9
   3   3   1   302.9     3.2
   3   3   2   257.3     3.1
   3   3   4    71.1     2.8
   3   3   5    45.8     2.9
   3   3   7    78.0     3.9
   3   3   8   612.2     6.7
   3   3  10  1342.2    12.4
   3   3  11    86.6     6.1
   3   3  13    41.9     7.0
   3   3  14   101.0     7.5
   3   3  16   253.2     8.6
   3   3  17   155.8     9.0
   3   3  19    12.9    11.8
   3   3  20    17.6    14.4
   3   3  22    83.0    32.3
   3   3  23   -27.9    41.2
   3   3  25   -27.5    97.1
   3   3  26  -107.0   185.7
   3   4   0   474.6     6.8
   3   4   1    63.8     3.1
   3   4   2     9.8     3.0
   3   4   3    68.7     3.3
   3   4   4   371.0     4.7
   3   4   5   903.9     7.1
   3   4   6   225.8     5.1
   3   4   7   136.6     5.2
   3   4   8   744.7     8.2
   3   4   9    62.8     6.2
   3   4  10   136.8     7.1
   3   4  11    54.8     7.4
   3   4  12   214.6     8.6
   3   4  13   178.4     8.8
   3   4  14    62.0     8.4
   3   4  15    21.5     8.5
   3   4  16   273.2    10.5
   3   4  17    36.4    11.2
   3   4  18   100.5    12.9
   3   4  19   119.2    14.4
   3   4  20    87.1    17.3
   3   4  21   154.2    23.0
   3   4  22    99.3    27.8
   3   4  23   174.0    41.2
   3   4  24   331.0    72.7
   3   4  25  -107.2   150.9
   3   4  26   626.2   222.2
   3   4  27   165.2   347.8
   3   5   0   788.9     8.9
   3   5   1   574.0     5.5
   3   5   2   203.6     4.2
   3   5   3    34.3     4.0
   3   5   4   277.1     4.8
   3   5   5   190.7     5.1
   3   5   6   138.5     5.5
   3   5   7   137.9     6.3
   3   5   8    18.9     6.9
   3   5   9   161.4     8.0
   3   5  10    97.4     8.1
   3   5  11    57.5     8.7
   3   5  12   184.2     9.3
   3   5  13    85.6     9.4
   3   5  14   204.0    10.1
   3   5  15   434.0    11.9
   3   5  16   643.5    13.8
   3   5  17   516.2    15.2
   3   5  18    30.2    15.7
   3   5  19    26.6    17.5
   3   5  20    69.4    20.4
   3   5  21   592.6    28.1
   3   5  22   268.3    34.6
   3   5  23   163.7    42.4
   3   5  24   147.6    70.3
   3   5  25   453.0   111.5
   3   5  26    76.8   183.4
   3   6   1     4.1     4.4
   3   6   2   179.3     4.9
   3   6   4   189.1     5.5
   3   6   5   164.4     6.0
   3   6   7    14.3     7.5
   3   6   8   164.2     8.5
   3   6  10   147.0     8.9
   3   6  11   221.8     9.5
   3   6  13   144.9    10.6
   3   6  14   352.8    12.3
   3   6  16    43.4    13.9
   3   6  17   -10.3    16.0
   3   6  19   -12.7    21.3
   3   6  20   332.8    24.7
   3   6  22   -12.8    36.3
   3   6  23    34.6    46.1
   3   6  25   218.1   172.0
   3   7   0   274.3     8.5
   3   7   1   557.5     6.5
   3   7   2   404.1     6.4
   3   7   3    53.9     5.8
   3   7   4   241.1     6.8
   3   7   5   309.1     7.2
   3   7   6    46.9     7.3
   3   7   7    44.3     8.2
   3   7   8   172.7     9.1
   3   7   9   114.3     9.6
   3   7  10   236.8    10.6
   3   7  11   144.2    11.9
   3   7  12   125.6    12.6
   3   7  13   104.7    13.5
   3   7  14   105.2    14.6
   3   7  15   415.0    16.7
   3   7  16    67.3    20.0
   3   7  17   567.4    24.4
   3   7  18   223.0    26.2
   3   7  19    68.4    29.2
   3   7  20   188.4    33.2
   3   7  21   488.1    40.1
   3   7  22    59.4    45.4
   3   7  23   111.8    60.4
   3   8   0    18.0    11.4
   3   8   1    -1.3     8.2
   3   8   2   117.7     8.3
   3   8   3    37.4     8.5
   3   8   4     6.1     8.8
   3   8   5   184.8     9.6
   3   8   6    62.5    10.3
   3   8   7    57.5    10.9
   3   8   8    43.8    12.1
   3   8   9    74.8    13.8
   3   8  10   146.0    15.4
   3   8  11    80.9    16.2
   3   8  12   232.4    17.6
   3   8  13    -1.0    18.8
   3   8  14   357.4    21.6
   3   8  15    15.4    22.6
   3   8  16    44.6    27.1
   3   8  17   128.1    31.2
   3   8  18   223.8    34.2
   3   8  19    31.9    38.9
   3   8  20   222.3    45.0
   3   9   1   199.9    12.8
   3   9   2   375.1    13.5
   3   9   4    95.8    13.8
   3   9   5   400.4    14.9
   3   9   7   200.3    16.6
   3   9   8     3.9    17.9
   3   9  10   433.6    21.9
   3   9  11   608.1    25.4
   3   9  13    27.7    28.6
   3   9  14    36.2    32.7
   3   9  16   124.1    40.4
   3   9  17   352.6    46.2
   3  10   0   -12.3    28.6
   3  10   1   209.7    21.1
   3  10   2    73.5    20.5
   3  10   3    85.0    21.2
   3  10   4    64.2    21.9
   3  10   5    52.5    23.2
   3  10   6   135.0    25.3
   3  10   7    61.2    26.2
   3  10   8    83.2    28.1
   3  10   9    32.4    31.2
   3  10  10    31.6    33.6
   3  10  11   128.5    38.1
   3  10  12   159.2    42.4
   3  10  13     2.3    46.2
   3  11   0    99.1    49.2
   3  11   1   121.3    34.1
   3  11   2    16.0    35.6
   3  11   3   131.1    38.1
   3  11   4    -3.5    37.3
   3  11   5    63.2    38.9
   3  11   6   101.0    39.7
   4   0   1     6.6     3.2
   4   0   3  1607.7    12.9
   4   0   5   314.2     7.2
   4   0   7   440.9     8.9
   4   0   9   517.0    10.9
   4   0  11   200.1     9.8
   4   0  13    89.7    11.0
   4   0  15    73.5    10.4
   4   0  17   137.4    11.4
   4   0  19   931.2    19.2
   4   0  21   393.1    21.6
   4   0  23    57.4    29.3
   4   0  25   129.2    44.2
   4   0  27   167.3   130.1
   4   1   0     9.3     3.4
   4   1   1    26.1     2.4
   4   1   2   454.9     4.7
   4   1   3   167.3     3.7
   4   1   4  1269.1    10.6
   4   1   5  1363.1    10.4
   4   1   6   190.8     4.7
   4   1   7   508.9     7.3
   4   1   8   742.1     9.2
   4   1   9   173.9     6.3
   4   1  10    73.3     6.1
   4   1  11   763.8     9.8
   4   1  12   761.3    10.0
   4   1  13     8.3     7.2
   4   1  14   135.1     7.8
   4   1  15   283.3     7.8
   4   1  16   338.5     8.2
   4   1  17    46.0     8.3
   4   1  18    40.5     9.4
   4   1  19    13.8    11.0
   4   1  20    66.6    12.8
   4   1  21   815.0    17.6
   4   1  22    93.2    18.6
   4   1  23    53.6    20.9
   4   1  24   482.9    26.9
   4   1  25    80.8    35.4
   4   1  26   207.5    46.9
   4   1  27   121.5    76.3
   4   2   1   422.5     3.6
   4   2   3    99.8     3.2
   4   2   5   180.0     4.6
   4   2   7   122.6     4.9
   4   2   9   690.3     8.6
   4   2  11     1.6     6.0
   4   2  13   174.2     7.2
   4   2  15   303.9     8.2
   4   2  17    83.7     9.7
   4   2  19   153.7    13.1
   4   2  21    49.3    16.2
   4   2  23    92.9    23.4
   4   2  25   307.5    38.1
   4   2  27  -115.8    80.3
   4   3   0   580.4     6.8
   4   3   1  1121.6     6.6
   4   3   2   499.1     4.9
   4   3   3    53.1     3.4
   4   3   4   208.2     4.3
   4   3   5   159.8     4.6
   4   3   6   156.2     5.0
   4   3   7    27.2     4.9
   4   3   8   680.6     8.6
   4   3   9   155.8     6.3
   4   3  10    22.5     6.5
   4   3  11   438.2     8.0
   4   3  12   511.2     8.8
   4   3  13    15.6     7.8
   4   3  14   260.3     8.6
   4   3  15   431.9     9.7
   4   3  16   213.0     9.7
   4   3  17    39.3    10.7
   4   3  18    53.1    12.5
   4   3  19    63.2    14.7
   4   3  20   207.7    17.6
   4   3  21    75.6    19.5
   4   3  22   176.1    23.8
   4   3  23    96.6    28.5
   4   3  24   430.3    36.2
   4   3  25    89.6    43.6
   4   3  26    73.7    62.4
   4   4   1   203.7     4.4
   4   4   3    31.0     4.4
   4   4   5    19.2     5.4
   4   4   7   153.4     6.7
   4   4   9    93.8     7.7
   4   4  11    12.0     8.1
   4   4  13    51.9     8.8
   4   4  15   380.2    11.8
   4   4  17    10.0    13.3
   4   4  19    54.1    17.7
   4   4  21   153.0    24.7
   4   4  23   216.4    35.4
   4   4  25   149.0    52.2
   4   5   0   281.2     7.2
   4   5   1    99.0     4.7
   4   5   2    87.4     5.0
   4   5   3    43.1     5.5
   4   5   4   479.9     7.6
   4   5   5   148.1     6.9
   4   5   6    68.1     7.3
   4   5   7   429.4     9.1
   4   5   8   344.7     9.2
   4   5   9   616.3    10.6
   4   5  10    34.4     9.0
   4   5  11   117.4     9.7
   4   5  12   146.9    10.7
   4   5  13   112.7    11.3
   4   5  14    61.2    12.1
   4   5  15    71.4    13.5
   4   5  16   363.7    15.7
   4   5  17   125.7    18.0
   4   5  18    65.4    20.4
   4   5  19   148.0    24.1
   4   5  20   173.5    28.2
   4   5  21    25.4    33.0
   4   5  22    10.4    38.4
   4   5  23   -17.5    42.9
   4   5  24   221.2    51.8
   4   6   1    37.4     5.4
   4   6   3    22.3     6.0
   4   6   5    39.7     7.3
   4   6   7    54.4     8.7
   4   6   9    10.4    10.1
   4   6  11    52.9    11.4
   4   6  13    -9.3    14.8
   4   6  15   287.5    18.5
   4   6  17    -8.5    22.4
   4   6  19   -26.4    29.0
   4   6  21    14.0    44.0
   4   6  23   574.4    60.6
   4   7   0    10.8    10.6
   4   7   1   243.2     7.9
   4   7   2   118.0     7.8
   4   7   3   136.1     8.1
   4   7   4   119.2     8.7
   4   7   5   124.7     9.7
   4   7   6   255.9    11.2
   4   7   7    42.4    11.3
   4   7   8   169.5    12.2
   4   7   9   113.8    14.1
   4   7  10   142.8    15.2
   4   7  11    54.1    16.1
   4   7  12    53.5    17.1
   4   7  13   439.5    19.4
   4   7  14   245.4    20.0
   4   7  15     0.1    22.1
   4   7  16   145.8    25.2
   4   7  17   322.9    26.8
   4   7  18    32.0    29.4
   4   7  19    45.3    34.4
   4   7  20     0.7    50.5
   4   7  21   160.5    59.4
   4   8   1    26.4    11.0
   4   8   3   369.0    12.3
   4   8   5   209.9    13.7
   4   8   7   148.1    15.8
   4   8   9    15.7    18.9
   4   8  11   459.2    22.3
   4   8  13    28.4    26.2
   4   8  15   228.0    33.6
   4   8  17    62.8    41.1
   4   9   0   -14.7    24.4
   4   9   1    31.9    17.4
   4   9   2  1040.5    19.6
   4   9   3   207.7    18.1
   4   9   4     0.2    18.3
   4   9   5   122.9    20.4
   4   9   6    36.4    21.2
   4   9   7   197.6    23.4
   4   9   8   187.1    26.4
   4   9   9    59.7    28.2
   4   9  10   -17.0    30.0
   4   9  11    54.1    32.1
   4   9  12   132.6    34.5
   4   9  13   193.0    39.8
   4   9  14   920.9    45.7
   4  10   1   388.2    29.4
   4  10   3   159.0    29.2
   4  10   5   283.4    32.6
   4  10   7     4.9    37.5
   4  10   9   259.5    42.3
   5   0   1   142.1     5.4
   5   0   2    43.4     5.6
   5   0   3   546.4     9.1
   5   0   4    37.1     6.0
   5   0   6     8.1     6.6
   5   0   7    36.8     7.1
   5   0   8    74.5     8.1
   5   0   9    73.5     9.2
   5   0  11   184.4    10.0
   5   0  12    17.7    10.0
   5   0  13   190.3    10.6
   5   0  14    74.3    11.0
   5   0  16   391.3    14.5
   5   0  17   365.8    16.0
   5   0  18   -24.5    16.7
   5   0  19   314.6    20.7
   5   0  21  1097.7    32.8
   5   0  22    20.5    32.2
   5   0  23   -27.6    38.9
   5   0  24   379.3    49.0
   5   1   0    30.2     4.8
   5   1   1    88.0     3.6
   5   1   2  1397.7     8.6
   5   1   3   100.3     4.4
   5   1   4    95.0     4.6
   5   1   5   127.1     5.1
   5   1   6   177.2     5.7
   5   1   7   414.1     7.1
   5   1   8   547.5     7.7
   5   1   9   116.4     6.5
   5   1  10   169.9     6.5
   5   1  11   195.2     6.9
   5   1  12   162.8     7.3
   5   1  13    15.7     7.3
   5   1  14    91.6     8.1
   5   1  15    33.4     8.8
   5   1  16     7.4     9.9
   5   1  17   141.1    11.5
   5   1  18   691.4    14.7
   5   1  19    20.8    14.2
   5   1  20    90.5    16.8
   5   1  21    97.5    20.0
   5   1  22   216.0    23.9
   5   1  23   361.1    30.0
   5   1  24   114.9    35.9
   5   1  25   -45.5    43.4
   5   2   0    57.1     5.5
   5   2   1   101.1     3.8
   5   2   2   217.8     4.5
   5   2   3   262.0     4.9
   5   2   4   306.2     5.4
   5   2   5   313.5     5.6
   5   2   6    70.6     5.1
   5   2   7   224.1     6.1
   5   2   8   430.0     7.3
   5   2   9    68.3     6.1
   5   2  10    66.4     6.5
   5   2  11   115.4     7.1
   5   2  12    83.3     7.4
   5   2  13    29.6     8.1
   5   2  14   165.7     9.2
   5   2  15   148.9    10.5
   5   2  16    65.3    11.4
   5   2  17    64.8    13.1
   5   2  18   139.8    15.0
   5   2  19   139.0    17.4
   5   2  20   314.5    21.1
   5   2  21   244.1    24.1
   5   2  22   173.9    26.3
   5   2  23   333.7    32.6
   5   2  24   515.6    40.8
   5   2  25    45.8    47.9
   5   3   0    11.7     6.3
   5   3   1    37.7     4.7
   5   3   2   476.7     6.0
   5   3   3   276.3     5.7
   5   3   4    36.9     5.3
   5   3   5   149.9     5.8
   5   3   6    62.2     5.8
   5   3   7   440.4     7.4
   5   3   8   614.5     8.6
   5   3   9   187.5     7.5
   5   3  10   208.2     7.9
   5   3  11    49.1     8.2
   5   3  12   140.9     9.3
   5   3  13   175.1    10.0
   5   3  14   115.3    10.8
   5   3  15   511.4    13.3
   5   3  16    34.7    13.5
   5   3  17    45.6    15.3
   5   3  18   367.7    18.5
   5   3  19   123.8    19.5
   5   3  20   178.0    25.1
   5   3  21   185.2    30.0
   5   3  22   375.7    36.9
   5   3  23   273.9    44.3
   5   3  24   199.9    54.2
   5   4   0   575.9     9.1
   5   4   1   414.1     6.7
   5   4   2    -3.0     5.9
   5   4   3   147.1     6.5
   5   4   4   156.3     6.8
   5   4   5   213.4     7.3
   5   4   6    80.3     7.3
   5   4   7    29.6     7.6
   5   4   8   297.1     8.7
   5   4   9    15.1     8.7
   5   4  10   260.4    10.0
   5   4  11    84.1    10.4
   5   4  12   124.5    11.8
   5   4  13   251.7    13.4
   5   4  14   167.9    14.5
   5   4  15    66.1    15.4
   5   4  16   366.3    17.9
   5   4  17   153.6    19.4
   5   4  18   135.1    22.1
   5   4  19   148.8    25.6
   5   4  20    99.2    29.0
   5   4  21   231.5    34.7
   5   4  22   489.3    41.0
   5   4  23   113.2    48.4
   5   5   1    17.9     6.7
   5   5   2   302.5     7.8
   5   5   3    48.8     8.1
   5   5   4    65.4     8.6
   5   5   6   155.9    10.1
   5   5   7   284.7    10.8
   5   5   8     0.1    10.7
   5   5   9   453.4    12.6
   5   5  11     8.8    13.5
   5   5  12   156.7    15.0
   5   5  13   547.1    17.9
   5   5  14   377.3    18.7
   5   5  16   152.4    21.6
   5   5  17   253.3    25.0
   5   5  18   244.8    28.0
   5   5  19   156.1    32.6
   5   5  21    95.1    44.4
   5   5  22    83.0    49.1
   5   6   0    19.1    11.6
   5   6   1    60.1     8.4
   5   6   2    78.1     9.3
   5   6   3   118.9    10.5
   5   6   4    29.2    10.8
   5   6   5    78.4    11.6
   5   6   6   145.1    12.9
   5   6   7    49.3    13.7
   5   6   8   258.9    15.3
   5   6   9    26.4    15.5
   5   6  10   440.1    17.6
   5   6  11   180.6    18.0
   5   6  12    41.1    20.1
   5   6  13   227.0    22.1
   5   6  14   401.8    24.0
   5   6  15    42.4    25.2
   5   6  16   214.2    28.8
   5   6  17    25.7    31.1
   5   6  18    10.0    33.9
   5   6  19    23.9    43.9
   5   6  20   100.0    50.9
   5   7   0   512.3    17.0
   5   7   1   269.8    12.1
   5   7   2   142.5    12.5
   5   7   3   347.0    13.5
   5   7   4   117.7    13.8
   5   7   5   285.4    15.5
   5   7   6    -0.1    16.7
   5   7   7   423.8    18.1
   5   7   8    73.4    18.0
   5   7   9   466.3    20.7
   5   7  10    41.4    20.9
   5   7  11   233.3    22.5
   5   7  12    35.2    26.4
   5   7  13    74.4    31.0
   5   7  14   309.9    33.3
   5   7  15   284.4    35.8
   5   7  16    38.4    39.5
   5   7  17   330.4    45.4
   5   8   0   219.5    24.8
   5   8   1   121.6    17.7
   5   8   2   125.2    18.0
   5   8   3    45.2    19.3
   5   8   4   420.1    21.1
   5   8   5   265.3    22.0
   5   8   6    21.4    23.0
   5   8   7   128.4    23.7
   5   8   8    89.0    27.6
   5   8   9    93.8    28.8
   5   8  10    42.2    30.5
   5   8  11    19.4    32.8
   5   8  12   591.5    36.8
   5   8  13    87.3    37.8
   5   8  14   422.8    43.1
   5   9   0   148.9    38.0
   5   9   1   172.0    27.6
   5   9   2   -18.9    27.8
   5   9   3   120.8    29.5
   5   9   4   269.7    30.0
   5   9   5   167.7    31.4
   5   9   6   -13.5    32.3
   5   9   7   112.2    35.4
   5   9   8    15.7    40.7
   5   9   9   220.1    43.0
   5   9  10   109.2    44.0
   6   0   1   278.6    12.6
   6   0   5     6.7     7.8
   6   0   7   158.9     9.1
   6   0  11    65.2    12.7
   6   0  13    26.9    14.9
   6   0  17   341.2    24.0
   6   0  19   211.2    30.3
   6   1   0    38.5    10.8
   6   1   1    46.3     7.3
   6   1   2   129.9     6.8
   6   1   3    69.5     6.1
   6   1   4    11.7     6.1
   6   1   5   132.6     6.5
   6   1   6   123.3     6.7
   6   1   7    55.9     6.8
   6   1   8    31.2     7.2
   6   1   9     9.7     7.7
   6   1  10    25.7     8.4
   6   1  11    88.3     9.5
   6   1  12   111.5    10.5
   6   1  13    21.4    11.5
   6   1  14    96.2    12.9
   6   1  15   146.6    14.3
   6   1  16    33.8    15.7
   6   1  17    -7.5    17.8
   6   1  18    46.3    20.7
   6   1  19   467.9    24.5
   6   1  20    41.5    26.3
   6   1  21   137.0    31.4
   6   1  22    52.8    34.6
   6   2   1   510.0     9.2
   6   2   3   155.5     7.1
   6   2   5    38.8     7.0
   6   2   7    68.1     7.7
   6   2   9    65.5     8.6
   6   2  11   192.3    10.9
   6   2  13    15.8    12.8
   6   2  15    25.1    15.7
   6   2  17    70.6    20.0
   6   2  19   293.3    26.6
   6   2  21   143.2    34.7
   6   3   1    41.5     9.8
   6   3   2   481.2    10.1
   6   3   4   235.9     9.4
   6   3   5   333.0     9.7
   6   3   7   201.5    10.1
   6   3   8   392.2    11.3
   6   3  10   224.0    12.2
   6   3  11    36.5    12.6
   6   3  13   246.2    15.3
   6   3  14   339.9    17.8
   6   3  16    11.6    21.4
   6   3  17    76.4    24.3
   6   3  19   113.2    32.1
   6   3  20    76.0    37.9
   6   4   1   143.8    11.0
   6   4   3    25.3    11.2
   6   4   5    25.3    11.6
   6   4   7   736.0    15.3
   6   4   9   230.3    15.1
   6   4  11   297.5    17.0
   6   4  13    58.9    19.7
   6   4  15   171.7    24.3
   6   4  17    95.1    32.1
   6   4  19   149.1    42.0
   6   5   0   319.5    17.6
   6   5   1    31.7    13.4
   6   5   2   244.0    14.4
   6   5   3   519.5    16.4
   6   5   4   241.0    15.7
   6   5   5    20.8    15.2
   6   5   6   282.4    16.3
   6   5   7    90.9    17.0
   6   5   8   448.3    19.1
   6   5   9   111.7    18.8
   6   5  10   307.4    20.6
   6   5  11   373.4    21.1
   6   5  12    74.9    23.1
   6   5  13   634.8    27.4
   6   5  14   -47.9    27.7
   6   5  15   256.6    31.0
   6   5  16    63.2    34.2
   6   5  17    85.0    42.2
   6   5  18   280.4    48.3
   6   6   1   753.8    17.7
   6   6   5   162.7    21.3
   6   6   7   391.6    24.9
   6   6  11   162.2    29.7
   6   6  13    17.9    33.9
   6   7   0   274.8    29.4
   6   7   1    94.7    20.4
   6   7   2    47.1    22.8
   6   7   3   286.4    23.9
   6   7   4    95.9    26.1
   6   7   5   111.3    27.8
   6   7   6   140.6    28.5
   6   7   7    95.7    32.2
   6   7   8    66.2    33.2
   6   7   9   146.7    35.5
   6   7  10    49.5    37.3
   6   7  11   333.9    40.7
   6   7  12    71.5    42.7
   6   7  13   664.8    52.5
   6   8   1   164.1    31.0
   6   8   3    63.6    32.4
   6   8   5   106.3    38.0
   6   8   7   137.7    42.1
   7   0   1   -10.5    28.6
   7   0   2    92.7    17.3
   7   0   3   104.6    14.4
   7   0   4    86.3    14.3
   7   0   5    57.2    14.5
   7   0   6   137.2    15.2
   7   0   8   156.0    16.8
   7   0   9   438.3    19.9
   7   0  10   101.7    19.9
   7   0  11   165.7    21.6
   7   0  12    23.8    23.5
   7   0  13   138.0    26.1
   7   0  15   282.4    32.1
   7   0  16   121.8    36.0
   7   0  17   116.6    40.6
   7   0  18   219.4    45.3
   7   1   0   206.1    35.9
   7   1   1    18.4    18.1
   7   1   2   142.4    14.7
   7   1   3   154.0    11.1
   7   1   4   291.1    11.5
   7   1   5    82.3    11.5
   7   1   6    65.9    12.1
   7   1   7    64.5    12.5
   7   1   8    72.8    13.1
   7   1   9     1.5    14.1
   7   1  10   121.4    15.4
   7   1  11   289.0    17.3
   7   1  12   140.2    18.6
   7   1  13    38.0    20.1
   7   1  14   270.3    22.5
   7   1  15    29.0    24.6
   7   1  16    -0.1    27.9
   7   1  17   -34.7    31.6
   7   1  18    45.5    36.1
   7   2   0   347.1    31.6
   7   2   1   381.0    18.9
   7   2   2   234.4    16.0
   7   2   3   352.1    14.4
   7   2   4   143.0    13.7
   7   2   5    93.0    14.2
   7   2   6   530.4    15.8
   7   2   7    53.8    14.4
   7   2   8   111.5    14.9
   7   2   9    11.0    16.0
   7   2  10   231.0    17.7
   7   2  11   197.1    19.0
   7   2  12    33.9    20.5
   7   2  13   192.5    23.3
   7   2  14    15.6    25.8
   7   2  15   179.0    29.1
   7   2  16   247.6    33.2
   7   2  17   344.8    37.8
   7   3   0    60.7    38.4
   7   3   1    34.4    21.5
   7   3   2    38.7    19.1
   7   3   3   253.4    16.5
   7   3   4   113.5    18.0
   7   3   5    96.9    17.9
   7   3   6   353.1    18.7
   7   3   7   -20.3    18.0
   7   3   8    12.8    18.6
   7   3   9   168.0    19.7
   7   3  10    21.9    20.5
   7   3  11   116.3    22.8
   7   3  12   118.1    24.6
   7   3  13   580.7    28.6
   7   3  14    36.5    29.9
   7   3  15   -59.0    33.0
   7   3  16     9.9    37.5
   7   4   0   -19.3    38.7
   7   4   1   357.3    27.5
   7   4   2   289.3    23.3
   7   4   3   764.0    24.5
   7   4   4    51.0    22.6
   7   4   5    82.7    23.6
   7   4   6   343.2    24.6
   7   4   7    52.5    24.0
   7   4   8   220.7    25.1
   7   4   9    27.8    25.7
   7   4  10    37.8    27.4
   7   4  11   338.3    32.1
   7   4  12    74.2    33.9
   7   4  13   449.5    37.7
   7   4  14   137.4    40.0
   7   4  15   133.7    44.5
   7   5   0   860.6    42.9
   7   5   1    56.0    29.7
   7   5   2   275.5    28.9
   7   5   3   426.4    29.1
   7   5   4   114.7    27.9
   7   5   5   179.5    29.8
   7   5   6   153.0    29.9
   7   5   7    42.2    30.4
   7   5   8    42.3    30.9
   7   5   9   162.8    34.6
   7   5  10   -22.3    36.1
   7   5  11    76.6    41.6
   7   5  12    22.0    44.9
   7   6   0    10.1    44.8
   7   6   1   219.5    37.7
   7   6   2    42.3    36.5
   7   6   3   136.7    37.6
   7   6   4   228.7    41.3
   7   6   5    85.5    40.5
   7   6   6   313.1    41.1
   7   6   7   286.9    41.6
   7   6   8    76.2    41.9
   7   6   9    51.5    46.8
   7   7   1   431.0    54.0
   8   0   1    94.1    86.8
   8   0   3   164.4    33.2
   8   0   5   168.0    30.8
   8   0   7   782.0    35.3
   8   0   9   514.0    36.5
   8   0  11    77.7    43.1
   8   1   0   110.2   120.0
   8   1   1    -3.4    48.3
   8   1   2   350.1    38.4
   8   1   3   235.3    25.8
   8   1   4    50.4    23.1
   8   1   5   152.1    23.3
   8   1   6   121.2    23.7
   8   1   7   474.3    26.4
   8   1   8   110.5    27.3
   8   1   9   169.0    28.7
   8   1  10   421.2    32.1
   8   1  11    84.0    33.2
   8   2   1   210.5    51.1
   8   2   3   172.3    28.1
   8   2   5    62.7    30.3
   8   2   7   106.0    30.2
   8   2   9    66.5    33.5
   8   3   0   229.0   132.9
   8   3   1   182.5    74.8
   8   3   2   138.2    44.5
   8   3   3   298.7    40.5
   8   3   4   224.0    36.0
   8   3   5    51.2    35.8
   8   3   6   291.3    36.4
   8   3   7   -26.2    36.1
   8   3   8   -43.1    36.6
   8   4   1   188.2    75.8
   8   4   3   143.7    46.7
   8   4   5     3.3    48.3
;
_shelx_hkl_checksum              69141
_olex2_submission_special_instructions 'No special instructions were received'
loop_
_space_group_symop_operation_xyz
'x, y, z'
'-x+1/2, -y, z+1/2'
'-x, y+1/2, -z+1/2'
'x+1/2, -y+1/2, -z'
loop_
_atom_site_label
_atom_site_type_symbol
_atom_site_fract_x
_atom_site_fract_y
_atom_site_fract_z
_atom_site_U_iso_or_equiv
_atom_site_adp_type
_atom_site_occupancy
_atom_site_site_symmetry_order
_atom_site_calc_flag
_atom_site_refinement_flags_posn
_atom_site_refinement_flags_adp
_atom_site_refinement_flags_occupancy
_atom_site_disorder_assembly
_atom_site_disorder_group
O2 O 0.3252(3) 0.4947(3) 0.23962(11) 0.0082(4) Uani 1 1 d . . . . .
O1 O 0.7328(3) 0.4917(3) 0.19749(13) 0.0081(4) Uani 1 1 d . . . . .
N1 N 0.9182(2) 0.31158(16) 0.31208(8) 0.0076(3) Uani 1 1 d . . . . .
N3 N 0.86952(19) 0.50364(16) 0.55338(8) 0.0074(2) Uani 1 1 d . . . . .
N2 N 1.0322(2) 0.43916(15) 0.44681(8) 0.0076(2) Uani 1 1 d . . . . .
C4 C 0.8030(3) 0.5395(2) 0.43874(10) 0.0064(3) Uani 1 1 d . . . . .
C1 C 0.5658(3) 0.4701(2) 0.24520(9) 0.0062(3) Uani 1 1 d . . . . .
C2 C 0.6666(3) 0.4137(2) 0.31917(10) 0.0050(3) Uani 1 1 d . . . . .
C6 C 0.7008(3) 0.5791(2) 0.50449(10) 0.0065(3) Uani 1 1 d . . . . .
C5 C 1.0628(3) 0.4205(2) 0.51652(10) 0.0076(3) Uani 1 1 d . . . . .
C3 C 0.7027(3) 0.5874(2) 0.36619(10) 0.0073(3) Uani 1 1 d . . . . .
H1B H 1.0426(7) 0.3791(5) 0.2769(2) 0.0194(8) Uani 1 1 d . . . . .
H1C H 0.8794(7) 0.1770(5) 0.2951(2) 0.0205(9) Uani 1 1 d . . . . .
H1A H 1.0122(6) 0.3102(6) 0.3610(2) 0.0177(8) Uani 1 1 d . . . . .
H3 H 0.8478(6) 0.5046(6) 0.6090(2) 0.0193(8) Uani 1 1 d . . . . .
H2 H 0.5255(6) 0.3176(5) 0.3444(2) 0.0169(7) Uani 1 1 d . . . . .
H6 H 0.5285(7) 0.6556(6) 0.5201(3) 0.0247(9) Uani 1 1 d . . . . .
H5 H 1.2224(7) 0.3478(6) 0.5415(2) 0.0240(9) Uani 1 1 d . . . . .
H3A H 0.8371(8) 0.6849(5) 0.3397(2) 0.0234(9) Uani 1 1 d . . . . .
H3B H 0.5139(7) 0.6563(6) 0.3713(3) 0.0236(9) Uani 1 1 d . . . . .
loop_
_atom_site_aniso_label
_atom_site_aniso_U_11
_atom_site_aniso_U_22
_atom_site_aniso_U_33
_atom_site_aniso_U_23
_atom_site_aniso_U_13
_atom_site_aniso_U_12
O2 0.0045(7) 0.0086(8) 0.0114(12) 0.0015(8) -0.0006(6) -0.0006(6)
O1 0.0049(6) 0.0116(8) 0.0077(12) 0.0005(7) 0.0007(5) 0.0000(6)
N1 0.0069(4) 0.0063(5) 0.0096(8) -0.0009(4) -0.0004(4) 0.0011(4)
N3 0.0071(4) 0.0087(5) 0.0063(8) -0.0012(5) -0.0001(4) 0.0001(4)
N2 0.0063(4) 0.0078(5) 0.0087(7) -0.0011(5) 0.0003(4) 0.0018(3)
C4 0.0065(5) 0.0066(6) 0.0062(10) -0.0010(6) -0.0005(5) 0.0005(5)
C1 0.0053(6) 0.0053(6) 0.0079(10) 0.0005(6) -0.0001(5) -0.0001(5)
C2 0.0042(6) 0.0055(6) 0.0053(10) -0.0007(6) -0.0002(5) 0.0006(5)
C6 0.0057(6) 0.0078(6) 0.0060(10) -0.0009(6) -0.0009(5) 0.0015(5)
C5 0.0067(6) 0.0085(7) 0.0078(10) 0.0002(6) 0.0000(6) 0.0018(6)
C3 0.0082(6) 0.0050(6) 0.0086(10) -0.0006(6) -0.0015(6) 0.0018(5)
H1B 0.0186(16) 0.0177(15) 0.022(3) 0.0019(14) 0.0044(15) 0.0008(13)
H1C 0.0211(15) 0.0122(15) 0.028(3) -0.0077(15) -0.0011(14) 0.0009(12)
H1A 0.0156(15) 0.0229(17) 0.015(2) 0.0002(16) -0.0028(13) 0.0030(12)
H3 0.0202(15) 0.0236(16) 0.014(2) 0.0000(16) -0.0009(13) 0.0019(14)
H2 0.0145(14) 0.0191(15) 0.017(2) 0.0011(15) 0.0006(13) -0.0031(12)
H6 0.0178(16) 0.0281(19) 0.028(3) -0.0035(18) 0.0026(15) 0.0095(14)
H5 0.0201(16) 0.030(2) 0.022(3) 0.0042(17) -0.0060(15) 0.0099(14)
H3A 0.0277(18) 0.0184(16) 0.024(3) 0.0056(16) -0.0020(16) -0.0071(15)
H3B 0.0175(16) 0.030(2) 0.023(3) -0.0028(17) -0.0027(15) 0.0119(13)
loop_
_atom_type_symbol
_atom_type_description
_atom_type_scat_dispersion_real
_atom_type_scat_dispersion_imag
_atom_type_scat_source
C C 0.0000 0.0000
'Neutron Data Booklet, ILL Grenoble, France (2003) ISBN 0-9704143-7-4'
H H 0.0000 0.0000
'Neutron Data Booklet, ILL Grenoble, France (2003) ISBN 0-9704143-7-4'
N N 0.0000 0.0000
'Neutron Data Booklet, ILL Grenoble, France (2003) ISBN 0-9704143-7-4'
O O 0.0000 0.0000
'Neutron Data Booklet, ILL Grenoble, France (2003) ISBN 0-9704143-7-4'
loop_
_geom_angle_atom_site_label_1
_geom_angle_atom_site_label_2
_geom_angle_atom_site_label_3
_geom_angle
_geom_angle_site_symmetry_1
_geom_angle_site_symmetry_3
_geom_angle_publ_flag
C4 N2 C5 105.11(13) . . ?
O1 C1 C2 116.75(15) . . ?
N1 C2 C3 110.15(12) . . ?
N2 C4 C3 120.67(15) . . ?
N2 C5 N3 112.06(13) . . ?
C2 N1 H1A 109.2(2) . . ?
C5 N3 H3 126.3(2) . . ?
C1 C2 H2 109.3(2) . . ?
C2 C3 H3B 108.0(3) . . ?
N3 C6 H6 122.3(3) . . ?
C5 N3 C6 107.12(15) . . ?
O2 C1 C2 116.41(16) . . ?
C1 C2 C3 110.31(12) . . ?
N2 C4 C6 109.46(15) . . ?
N3 C6 C4 106.24(13) . . ?
C2 N1 H1B 111.2(2) . . ?
C6 N3 H3 126.6(2) . . ?
C3 C2 H2 109.7(2) . . ?
C4 C3 H3A 110.0(2) . . ?
N2 C5 H5 124.7(2) . . ?
C4 C6 H6 131.5(3) . . ?
O1 C1 O2 126.80(19) . . ?
N1 C2 C1 109.88(14) . . ?
C2 C3 C4 112.27(13) . . ?
C3 C4 C6 129.87(14) . . ?
C2 N1 H1C 108.6(2) . . ?
N1 C2 H2 107.5(2) . . ?
C2 C3 H3A 109.3(2) . . ?
C4 C3 H3B 109.2(3) . . ?
N3 C5 H5 123.3(3) . . ?
H1A N1 H1B 106.4(3) . . ?
H3A C3 H3B 108.0(3) . . ?
H1A N1 H1C 110.7(3) . . ?
H1B N1 H1C 110.9(3) . . ?
loop_
_geom_bond_atom_site_label_1
_geom_bond_atom_site_label_2
_geom_bond_distance
_geom_bond_site_symmetry_2
_geom_bond_publ_flag
O1 C1 1.254(3) . ?
N2 C5 1.330(2) . ?
C2 C3 1.543(2) . ?
N1 H1A 1.042(4) . ?
C2 H2 1.110(4) . ?
C6 H6 1.085(4) . ?
O2 C1 1.256(2) . ?
N3 C5 1.353(2) . ?
C3 C4 1.502(3) . ?
N1 H1B 1.042(4) . ?
C3 H3A 1.105(4) . ?
N1 C2 1.4953(19) . ?
N3 C6 1.378(2) . ?
C4 C6 1.376(3) . ?
N1 H1C 1.039(4) . ?
C3 H3B 1.096(4) . ?
N2 C4 1.3917(18) . ?
C1 C2 1.542(2) . ?
N3 H3 1.054(4) . ?
C5 H5 1.082(4) . ?
loop_
_geom_torsion_atom_site_label_1
_geom_torsion_atom_site_label_2
_geom_torsion_atom_site_label_3
_geom_torsion_atom_site_label_4
_geom_torsion
_geom_torsion_site_symmetry_1
_geom_torsion_site_symmetry_2
_geom_torsion_site_symmetry_3
_geom_torsion_site_symmetry_4
_geom_torsion_publ_flag
C5 N2 C4 C3 -179.65(13) . . . . ?
C6 N3 C5 N2 0.80(16) . . . . ?
O1 C1 C2 C3 94.99(19) . . . . ?
N1 C2 C3 C4 -58.05(18) . . . . ?
C2 C3 C4 C6 -123.87(17) . . . . ?
H1A N1 C2 C1 162.7(3) . . . . ?
H1B N1 C2 C1 45.6(3) . . . . ?
H1C N1 C2 C1 -76.6(3) . . . . ?
C4 N2 C5 H5 179.5(3) . . . . ?
H3 N3 C5 H5 -1.9(4) . . . . ?
H3 N3 C6 H6 3.4(4) . . . . ?
C5 N2 C4 C6 0.05(16) . . . . ?
C5 N3 C6 C4 -0.72(16) . . . . ?
O2 C1 C2 N1 155.31(16) . . . . ?
C1 C2 C3 C4 -179.52(13) . . . . ?
N2 C4 C6 N3 0.42(16) . . . . ?
H1A N1 C2 C3 40.9(3) . . . . ?
H1B N1 C2 C3 -76.1(3) . . . . ?
H1C N1 C2 C3 161.7(3) . . . . ?
C6 N3 C5 H5 -179.2(3) . . . . ?
C5 N3 C6 H6 -179.3(3) . . . . ?
O1 C1 C2 H2 -144.3(3) . . . . ?
C4 N2 C5 N3 -0.53(16) . . . . ?
O1 C1 C2 N1 -26.6(2) . . . . ?
O2 C1 C2 C3 -83.06(19) . . . . ?
C2 C3 C4 N2 55.75(18) . . . . ?
C3 C4 C6 N3 -179.92(15) . . . . ?
H1A N1 C2 H2 -78.5(3) . . . . ?
H1B N1 C2 H2 164.4(3) . . . . ?
H1C N1 C2 H2 42.3(3) . . . . ?
H3 N3 C5 N2 178.1(3) . . . . ?
H3 N3 C6 C4 -178.0(3) . . . . ?
O2 C1 C2 H2 37.6(3) . . . . ?
N1 C2 C3 H3A 64.2(3) . . . . ?
C1 C2 C3 H3B 60.0(3) . . . . ?
H2 C2 C3 H3B -60.5(4) . . . . ?
H3B C3 C4 N2 175.6(3) . . . . ?
C3 C4 C6 H6 -1.5(4) . . . . ?
N1 C2 C3 H3B -178.5(3) . . . . ?
H2 C2 C3 C4 60.0(3) . . . . ?
H3A C3 C4 N2 -66.1(3) . . . . ?
H3B C3 C4 C6 -4.1(3) . . . . ?
C1 C2 C3 H3A -57.2(3) . . . . ?
H2 C2 C3 H3A -177.7(3) . . . . ?
H3A C3 C4 C6 114.3(3) . . . . ?
N2 C4 C6 H6 178.8(3) . . . . ?

_cod_database_fobs_code 2108879
