#------------------------------------------------------------------------------
#$Date: 2022-05-12 04:39:41 +0300 (Thu, 12 May 2022) $
#$Revision: 275356 $
#$URL: file:///home/coder/svn-repositories/cod/cif/2/10/89/2108972.cif $
#------------------------------------------------------------------------------
#
# This file is available in the Crystallography Open Database (COD),
# http://www.crystallography.net/. The original data for this entry
# were provided by IUCr Journals, http://journals.iucr.org/.
#
# The file may be used within the scientific community so long as
# proper attribution is given to the journal article from which the
# data were obtained.
#
data_2108972
loop_
_publ_author_name
'Aree, Thammarat'
'McMonagle, Charles J.'
'Michalchuk, Adam A. L.'
'Chernyshov, Dmitry'
_publ_section_title
;
 Low-frequency lattice vibrations from atomic displacement parameters of
 \a-FOX-7, a high energy density material
;
_journal_coeditor_code           WU5002
_journal_issue                   3
_journal_name_full               'Acta Crystallographica Section B'
_journal_page_first
;
;
_journal_paper_doi               10.1107/S2052520622002700
_journal_volume                  78
_journal_year                    2022
_chemical_formula_moiety         'C2 H4 N4 O4'
_chemical_formula_sum            'C2 H4 N4 O4'
_chemical_formula_weight         148.079
_chemical_name_systematic        1,1-Diamino-2,2-dinitroethylene
_space_group_crystal_system      monoclinic
_space_group_IT_number           14
_space_group_name_Hall           '-P 2yn'
_space_group_name_H-M_alt        'P 1 21/n 1'
_atom_sites_solution_primary     notdet
_audit_creation_method
;
Olex2 1.3
(compiled 2020.11.12 svn.r5f609507 for OlexSys, GUI svn.r6408)
;
_cell_angle_alpha                90
_cell_angle_beta                 90.5441(13)
_cell_angle_gamma                90
_cell_formula_units_Z            4
_cell_length_a                   6.92540(10)
_cell_length_b                   6.55820(10)
_cell_length_c                   11.2866(2)
_cell_measurement_reflns_used    1840
_cell_measurement_temperature    200
_cell_measurement_theta_max      32.7450
_cell_measurement_theta_min      3.3530
_cell_volume                     512.593(14)
_computing_cell_refinement
;
CrysAlisPro 1.171.40.67a (Rigaku OD, 2019)
;
_computing_data_collection
;
CrysAlisPro 1.171.40.67a (Rigaku OD, 2019)
;
_computing_data_reduction
;
CrysAlisPro 1.171.40.67a (Rigaku OD, 2019)
;
_computing_molecular_graphics
;
Olex2 1.3 (Dolomanov <i>et al.</i>,  2009)
;
_computing_publication_material
;
Olex2 1.3 (Dolomanov <i>et al.</i>,  2009)
;
_computing_structure_refinement
;
olex2.refine 1.3 (Bourhis <i>et al.</i>,  2015)
;
_diffrn_ambient_temperature      200.0
_diffrn_detector                 'Hybrid Pixel Array Detector'
_diffrn_detector_area_resol_mean 5.8140
_diffrn_measured_fraction_theta_full 0.8989
_diffrn_measured_fraction_theta_max 0.6733
_diffrn_measurement_device       'one-circle diffractometer'
_diffrn_measurement_device_type  'BM01 ESRF 2M 20210501'
_diffrn_measurement_method       '\w scans'
_diffrn_radiation_monochromator  'silicon 111'
_diffrn_radiation_probe          x-ray
_diffrn_radiation_type           synchrotron
_diffrn_radiation_wavelength     0.66418
_diffrn_reflns_av_R_equivalents  0.0186
_diffrn_reflns_av_unetI/netI     0.0243
_diffrn_reflns_limit_h_max       11
_diffrn_reflns_limit_h_min       -11
_diffrn_reflns_limit_k_max       10
_diffrn_reflns_limit_k_min       -10
_diffrn_reflns_limit_l_max       13
_diffrn_reflns_limit_l_min       -13
_diffrn_reflns_number            4839
_diffrn_reflns_theta_full        23.4849
_diffrn_reflns_theta_max         32.74
_diffrn_reflns_theta_min         3.24
_diffrn_source
;
European Synchrotron Radiation Facility (ESRF), BM01 - The Swiss-Norwegian
Beamlines
;
_exptl_absorpt_coefficient_mu    0.154
_exptl_absorpt_correction_T_max  1.00000
_exptl_absorpt_correction_T_min  0.66640
_exptl_absorpt_correction_type   multi-scan
_exptl_absorpt_process_details
;
CrysAlisPro 1.171.40.67a (Rigaku OD, 2019)
Empirical absorption correction using spherical harmonics,
implemented in SCALE3 ABSPACK scaling algorithm.
;
_exptl_crystal_colour            'clear yellow'
_exptl_crystal_density_diffrn    1.919
_exptl_crystal_description       block
_exptl_crystal_F_000             304.164
_exptl_crystal_size_max          0.2
_exptl_crystal_size_mid          0.1
_exptl_crystal_size_min          0.1
_refine_diff_density_max         0.1800
_refine_diff_density_min         -0.1863
_refine_ls_goodness_of_fit_ref   1.0317
_refine_ls_hydrogen_treatment    refall
_refine_ls_matrix_type           full
_refine_ls_number_constraints    0
_refine_ls_number_parameters     127
_refine_ls_number_reflns         1560
_refine_ls_number_restraints     93
_refine_ls_restrained_S_all      0.9998
_refine_ls_R_factor_all          0.0377
_refine_ls_R_factor_gt           0.0334
_refine_ls_shift/su_max          0.0007
_refine_ls_shift/su_mean         0.0001
_refine_ls_structure_factor_coef Fsqd
_refine_ls_weighting_details
'w=1/[\s^2^(Fo^2^)+(0.0468P)^2^+0.1568P] where P=(Fo^2^+2Fc^2^)/3'
_refine_ls_weighting_scheme      calc
_refine_ls_wR_factor_gt          0.0880
_refine_ls_wR_factor_ref         0.0917
_reflns_number_gt                1363
_reflns_number_total             1560
_reflns_threshold_expression     I>=2u(I)
_iucr_refine_instructions_details
;
TITL 080_a.res in P2(1)/n
REM Old TITL 080 in P2(1)/n
REM SHELXT solution in P2(1)/n: R1 0.095, Rweak 0.008, Alpha 0.021
REM <I/s> 0.719 for 71 systematic absences, Orientation as input
REM Formula found by SHELXT: C3 N2 O5
CELL 0.66418 6.9254 6.5582 11.2866 90 90.5441 90
ZERR 4 0.0001 0.0001 0.0002 0 0.0013 0
LATT 1
SYMM 0.5-X,0.5+Y,0.5-Z
SFAC C H N O
DISP C 0.0028 0.0014 9.9123
DISP H -0 0 0.6652
DISP N 0.0056 0.0029 16.5876
DISP O 0.0097 0.0054 27.0096
UNIT 8 16 16 16
RIGU O11 O12 O21 O22 N11 N12 N21 H21a H21b N22 H22a H22b C1 C2
L.S. 30
PLAN  5
TEMP -73.15
CONF
BOND
MORE -1
BOND $H
fmap 2
acta
LIST -6
OMIT -1 0 9
OMIT -2 0 4
OMIT -1 0 1
OMIT -4 1 8
WGHT 0.046819 0.156775
FVAR 9.239178
REM <olex2.extras>
REM <HklSrc "%.\\200.hkl">
REM </olex2.extras>
O12   4     0.58069  0.70099  0.58105  11.00000  0.01783  0.04900  0.02051 =
 0.00740  0.00274  0.00024
O11   4     0.52240  0.55864  0.75008  11.00000  0.02068  0.03587  0.01576 =
 0.00429 -0.00265  0.00263
O22   4     0.19620  0.66615  0.83607  11.00000  0.02301  0.04838  0.00998 =
 -0.00210  0.00008 -0.00263
O21   4    -0.01907  0.55803  0.71280  11.00000  0.02072  0.04027  0.01498 =
 0.00059  0.00163 -0.00686
N12   3     0.14363  0.62735  0.73387  11.00000  0.01805  0.02653  0.01050 =
 0.00061  0.00062  0.00013
N11   3     0.46480  0.64429  0.65819  11.00000  0.01732  0.02770  0.01196 =
 0.00083  0.00013  0.00065
N22   3    -0.00324  0.75464  0.50978  11.00000  0.01947  0.03082  0.01424 =
 0.00273 -0.00170  0.00083
H22a  2    -0.05420  0.80840  0.43170  11.00000  0.02957  0.07671  0.02820 =
 0.02245 -0.00648 -0.00156
H22b  2    -0.09553  0.69972  0.56798  11.00000  0.03018  0.06665  0.02984 =
 0.02046  0.00222 -0.00115
N21   3     0.29859  0.80024  0.43863  11.00000  0.02201  0.03971  0.01372 =
 0.00587  0.00269  0.00069
H21a  2     0.24563  0.85103  0.36081  11.00000  0.03617  0.06871  0.02095 =
 0.01468 -0.00194  0.00155
H21b  2     0.44199  0.79936  0.44914  11.00000  0.02388  0.04904  0.02895 =
 0.00400  0.00221  0.00101
C2    1     0.18645  0.74048  0.52564  11.00000  0.01871  0.02381  0.01048 =
 -0.00010 -0.00014  0.00102
C1    1     0.26732  0.66893  0.63683  11.00000  0.01613  0.02609  0.00993 =
 0.00153  0.00054  0.00021
HKLF 4
END
Q2 1 0.466667 0.851852 0.422222 11 0.05 0.17
Q4 1 -0.1 1.037037 0.511111 11 0.05 0.16
Q1 1 0.5 0.759259 0.5 11 0.05 0.18
Q5 1 0.1 0.648148 0.633333 11 0.05 0.16
Q3 1 0.333333 0.62963 0.733333 11 0.05 0.17
  REM The information below was added by Olex2.
  REM
  REM R1 = 0.0334 for 1363 Fo > 4sig(Fo) and 0.0377 for all 1560 data
  REM 127 parameters refined using 93 restraints
  REM Highest difference peak 0.1800, deepest hole -0.1863
  REM Mean Shift 0.0001, Max Shift 0.0007.
  REM +++ Tabular Listing of Refinement Information +++
  REM R1_all = 0.0377
  REM R1_gt = 0.0334
  REM wR_ref = 0.0917
  REM GOOF = 1.0317
  REM Shift_max = 0.0007
  REM Shift_mean = 0.0001
  REM Reflections_all = 1560
  REM Reflections_gt = 1363
  REM Parameters = 127
  REM Hole = -0.1863
  REM Peak = 0.1800
  REM Flack = n/a
;
_cod_data_source_file            wu5002sup1.cif
_cod_data_source_block           200
_cod_database_code               2108972
loop_
_space_group_symop_id
_space_group_symop_operation_xyz
1 x,y,z
2 -x+1/2,y+1/2,-z+1/2
3 -x,-y,-z
4 x-1/2,-y-1/2,z-1/2
loop_
_atom_site_type_symbol
_atom_site_label
_atom_site_fract_x
_atom_site_fract_y
_atom_site_fract_z
_atom_site_U_iso_or_equiv
_atom_site_adp_type
_atom_site_occupancy
O O12 0.58069(10) 0.70099(13) 0.58105(8) 0.0291(2) Uani 1.000000
O O11 0.52240(10) 0.55864(11) 0.75008(7) 0.02412(18) Uani 1.000000
O O22 0.19620(11) 0.66615(13) 0.83607(7) 0.02713(19) Uani 1.000000
O O21 -0.01907(10) 0.55803(12) 0.71280(7) 0.02531(19) Uani 1.000000
N N12 0.14363(11) 0.62735(12) 0.73387(7) 0.01836(18) Uani 1.000000
N N11 0.46480(11) 0.64429(12) 0.65819(8) 0.01900(18) Uani 1.000000
N N22 -0.00324(12) 0.75464(12) 0.50978(8) 0.0215(2) Uani 1.000000
H H22a -0.054(3) 0.808(3) 0.4317(16) 0.045(5) Uani 1.000000
H H22b -0.096(3) 0.700(3) 0.5680(18) 0.042(5) Uani 1.000000
N N21 0.29859(13) 0.80024(14) 0.43863(8) 0.0251(2) Uani 1.000000
H H21a 0.246(3) 0.851(3) 0.3608(15) 0.042(5) Uani 1.000000
H H21b 0.442(3) 0.799(3) 0.4491(17) 0.034(4) Uani 1.000000
C C2 0.18645(12) 0.74048(13) 0.52564(8) 0.0177(2) Uani 1.000000
C C1 0.26732(12) 0.66893(13) 0.63683(8) 0.01738(19) Uani 1.000000
loop_
_atom_site_aniso_label
_atom_site_aniso_U_11
_atom_site_aniso_U_22
_atom_site_aniso_U_33
_atom_site_aniso_U_12
_atom_site_aniso_U_13
_atom_site_aniso_U_23
O12 0.0178(3) 0.0490(4) 0.0205(5) 0.0002(3) 0.0027(3) 0.0074(3)
O11 0.0207(3) 0.0359(3) 0.0158(4) 0.0026(2) -0.0026(3) 0.0043(3)
O22 0.0230(3) 0.0484(4) 0.0100(4) -0.0026(3) 0.0001(3) -0.0021(3)
O21 0.0207(3) 0.0403(4) 0.0150(4) -0.0069(3) 0.0016(3) 0.0006(3)
N12 0.0180(3) 0.0265(3) 0.0105(4) 0.0001(2) 0.0006(3) 0.0006(3)
N11 0.0173(3) 0.0277(3) 0.0120(4) 0.0007(2) 0.0001(3) 0.0008(3)
N22 0.0195(3) 0.0308(4) 0.0142(5) 0.0008(3) -0.0017(3) 0.0027(3)
H22a 0.030(7) 0.077(13) 0.028(5) -0.002(5) -0.006(3) 0.022(4)
H22b 0.030(6) 0.067(12) 0.030(7) -0.001(4) 0.002(3) 0.020(5)
N21 0.0220(4) 0.0397(4) 0.0137(5) 0.0007(3) 0.0027(3) 0.0059(3)
H21a 0.036(7) 0.069(12) 0.021(5) 0.002(5) -0.002(3) 0.015(3)
H21b 0.024(3) 0.049(11) 0.029(8) 0.0010(19) 0.0022(18) 0.004(5)
C2 0.0187(4) 0.0238(3) 0.0105(5) 0.0010(3) -0.0001(3) -0.0001(3)
C1 0.0161(3) 0.0261(4) 0.0099(5) 0.0002(3) 0.0005(3) 0.0015(3)
loop_
_atom_type_symbol
_atom_type_scat_dispersion_source
_atom_type_scat_dispersion_real
_atom_type_scat_dispersion_imag
_atom_type_scat_source
H custom 0.00000 0.00000 'NoSpherA2: Chem.Sci. 2021, DOI:10.1039/D0SC05526C'
C custom 0.00280 0.00140 'NoSpherA2: Chem.Sci. 2021, DOI:10.1039/D0SC05526C'
O custom 0.00970 0.00540 'NoSpherA2: Chem.Sci. 2021, DOI:10.1039/D0SC05526C'
N custom 0.00560 0.00290 'NoSpherA2: Chem.Sci. 2021, DOI:10.1039/D0SC05526C'
loop_
_diffrn_refln_index_h
_diffrn_refln_index_k
_diffrn_refln_index_l
0 0 2
0 0 -2
0 0 3
0 0 -3
0 0 -4
0 0 4
0 0 -5
0 0 5
0 0 -6
0 0 7
0 0 -7
0 0 -8
0 0 8
0 0 11
0 0 -12
0 0 12
0 1 0
0 -1 0
0 1 1
0 -1 -1
0 1 -1
0 -1 1
0 -1 2
0 1 -2
0 -1 -2
0 1 2
0 1 -3
0 1 3
0 -1 -3
0 -1 3
0 -1 -4
0 -1 4
0 1 -4
0 1 4
0 1 5
0 1 -5
0 -1 5
0 -1 -6
0 1 6
0 1 -6
0 1 7
0 -1 -7
0 1 8
0 -1 8
0 -1 -8
0 1 -8
0 1 -9
0 -1 9
0 1 -10
0 -1 10
0 1 -11
0 -1 -11
0 1 11
0 -1 11
0 1 12
0 -1 -12
0 -1 12
0 1 -12
0 -2 0
0 2 0
0 2 1
0 -2 -1
0 -2 1
0 2 -1
0 -2 -2
0 2 2
0 2 3
0 -2 -3
0 2 -4
0 -2 4
0 2 -5
0 -2 5
0 2 -6
0 -2 7
0 2 -7
0 -2 -7
0 2 7
0 -2 8
0 -2 -8
0 2 -8
0 2 8
0 -2 -9
0 2 -9
0 2 9
0 -2 9
0 -2 10
0 2 -10
0 -2 -10
0 2 10
0 -2 11
0 2 11
0 2 -11
0 -2 -11
0 2 12
0 -2 -12
0 2 -12
0 3 0
0 -3 0
0 3 1
0 -3 1
0 -3 -1
0 3 -1
0 3 -2
0 -3 2
0 3 2
0 -3 -2
0 3 3
0 3 -3
0 -3 3
0 -3 -3
0 3 4
0 -3 4
0 -3 -4
0 3 5
0 -3 -5
0 -3 -6
0 3 -6
0 3 6
0 3 7
0 -3 -7
0 3 -7
0 -3 -8
0 3 -8
0 3 8
0 -3 -9
0 3 -9
0 3 10
0 3 -10
0 -3 -10
0 -3 10
0 -3 -11
0 3 11
0 3 12
0 -3 12
0 -4 0
0 4 0
0 -4 -1
0 4 1
0 -4 1
0 4 -1
0 -4 -2
0 -4 2
0 4 -2
0 4 2
0 -4 -3
0 4 -3
0 4 3
0 -4 3
0 4 -4
0 -4 4
0 4 4
0 -4 -4
0 -4 -5
0 4 6
0 -4 -6
0 -4 -7
0 4 7
0 4 -7
0 -4 7
0 -4 -8
0 -4 8
0 4 8
0 4 -8
0 -4 9
0 4 -9
0 4 -10
0 -4 10
0 4 -11
0 -4 11
0 -4 12
0 -5 0
0 5 0
0 -5 -1
0 5 1
0 -5 1
0 5 -1
0 -5 2
0 -5 -2
0 5 -2
0 5 2
0 5 3
0 -5 -3
0 5 -3
0 -5 3
0 -5 4
0 5 4
0 5 -4
0 5 -5
0 -5 -5
0 -5 5
0 5 5
0 -5 6
0 5 -6
0 -5 -6
0 5 6
0 5 -7
0 -5 -7
0 -5 7
0 5 7
0 -5 -8
0 -5 8
0 5 8
0 5 -8
0 -5 -9
0 5 9
0 5 -9
0 -5 9
0 5 10
0 -5 -10
0 -5 11
0 5 11
0 5 -11
0 -6 0
0 6 0
0 6 -1
0 -6 -1
0 -6 1
0 6 1
0 6 2
0 -6 -2
0 6 -2
0 -6 2
0 6 -3
0 6 3
0 -6 3
0 -6 -3
0 -6 -4
0 6 5
0 -6 -5
0 -6 6
0 6 6
0 -6 -6
0 6 -6
0 6 -7
0 -6 7
0 6 -8
0 -6 8
0 6 -9
0 -6 9
0 6 10
0 -6 10
0 6 -10
0 -6 11
0 6 -11
0 7 0
0 -7 0
0 7 -1
0 -7 1
0 7 1
0 -7 -1
0 -7 2
0 7 2
0 7 -2
0 -7 -2
0 7 -3
0 7 3
0 7 4
0 -7 -4
0 -7 4
0 7 -4
0 -7 -5
0 7 5
0 -7 5
0 7 -6
0 7 6
0 -7 6
0 -7 -6
0 -7 -7
0 -7 -8
0 7 -8
0 -7 8
0 7 8
0 7 9
0 -7 9
0 -7 -9
0 7 -9
0 -7 10
0 7 -10
0 -8 0
0 8 0
0 -8 -1
0 8 1
0 8 -1
0 -8 1
0 8 2
0 -8 2
0 -8 -2
0 8 -2
0 8 -3
0 -8 -3
0 -8 3
0 -8 -4
0 8 4
0 -8 4
0 -8 -5
0 8 5
0 8 -5
0 -8 6
0 8 6
0 8 -6
0 -8 -6
0 -8 -7
0 8 7
0 8 -8
0 8 8
0 -8 8
0 -8 -8
0 -8 9
0 8 -9
0 -9 0
0 9 0
0 9 -1
0 -9 -1
0 -9 1
0 9 1
0 9 -2
0 -9 2
0 9 2
0 9 3
0 9 -3
0 -9 3
0 -9 -3
0 9 4
0 9 -4
0 -9 4
0 -9 -4
0 -9 5
0 -9 -5
0 9 5
0 9 -5
0 -9 -6
0 9 6
0 9 -7
0 9 7
0 -9 -7
0 -9 7
0 -9 8
0 9 -8
0 10 0
0 -10 0
0 10 1
0 -10 -1
0 10 2
0 -10 -2
0 -10 3
0 10 -3
0 -10 4
0 -10 5
0 10 -5
0 -10 -5
0 10 5
0 10 6
-1 0 9
1 0 -9
1 0 -8
-1 0 8
1 0 -7
-1 0 7
-1 0 1
1 0 -1
1 0 0
-1 0 0
1 0 1
-1 0 -1
-1 0 -2
1 0 2
-1 0 -3
1 0 3
1 0 4
-1 0 -4
1 0 6
1 0 7
-1 0 -7
-1 0 -8
1 0 8
-1 0 -9
1 0 9
1 0 10
-1 0 -10
1 0 11
-1 0 -11
1 0 12
-1 0 -12
1 0 13
-1 -1 12
-1 -1 11
1 1 -11
1 1 -10
-1 -1 10
1 1 -9
-1 -1 9
-1 1 9
-1 1 8
-1 -1 8
-1 -1 7
-1 1 7
-1 -1 6
-1 1 6
1 1 -5
-1 -1 5
-1 -1 4
-1 1 4
1 1 -3
-1 1 3
1 -1 -3
-1 -1 3
-1 1 2
1 -1 -2
-1 -1 2
1 1 -2
-1 -1 1
1 1 -1
1 -1 -1
-1 1 1
1 1 0
-1 1 0
1 -1 0
-1 -1 0
-1 1 -1
-1 -1 -1
1 -1 1
1 1 1
-1 1 -2
-1 -1 -2
1 -1 2
1 1 2
1 1 3
-1 -1 -3
1 -1 3
-1 1 -3
1 1 4
-1 -1 -4
-1 1 -5
1 -1 5
1 -1 6
1 1 6
-1 -1 -6
-1 -1 -7
-1 1 -7
1 1 7
1 -1 7
-1 1 -8
-1 -1 -8
1 1 8
1 -1 8
1 1 9
-1 -1 -9
-1 1 -9
1 -1 9
1 1 10
-1 1 -10
1 -1 10
-1 -1 -11
1 1 11
1 -1 11
-1 1 -12
1 1 12
-1 -1 -12
1 1 13
-1 -2 12
1 2 -11
1 -2 -11
-1 -2 11
-1 -2 10
1 -2 -10
1 2 -10
-1 2 10
-1 2 9
1 -2 -9
1 2 -9
-1 -2 9
1 -2 -8
-1 2 8
1 2 -8
-1 -2 8
-1 -2 7
1 -2 -7
-1 2 7
1 2 -7
-1 2 6
1 -2 -6
-1 2 5
1 -2 -5
-1 2 4
1 -2 -3
-1 2 3
1 -2 -2
-1 2 2
1 -2 -1
-1 2 1
1 -2 2
-1 -2 -2
-1 2 -2
1 2 2
1 2 3
-1 -2 -3
-1 2 -3
1 -2 3
1 2 4
1 -2 4
-1 -2 -4
-1 2 -4
-1 -2 -5
-1 2 -5
1 -2 5
1 2 5
1 2 6
-1 -2 -6
1 -2 6
1 -2 7
-1 2 -7
-1 -2 -7
1 2 7
1 2 8
1 -2 8
-1 2 -8
-1 -2 -8
1 2 9
-1 -2 -9
-1 2 -9
1 -2 9
-1 2 -10
1 -2 10
1 2 10
-1 -2 -10
-1 -2 -11
1 2 11
1 -2 12
-1 -2 -12
1 2 12
1 -2 13
-1 -3 12
-1 -3 11
1 -3 -11
-1 3 11
1 3 -11
-1 3 10
1 3 -10
1 -3 -10
-1 -3 10
1 3 -9
-1 3 9
1 -3 -9
-1 -3 9
-1 -3 8
1 -3 -8
-1 3 8
1 3 -8
1 3 -7
-1 3 7
1 -3 -7
1 -3 -6
1 3 -6
-1 3 6
-1 -3 6
1 -3 -5
-1 3 5
1 3 -5
-1 3 4
1 -3 -4
1 3 -4
-1 -3 4
1 -3 -3
1 3 -3
-1 -3 3
-1 3 3
-1 3 2
-1 -3 2
1 -3 -2
-1 -3 1
1 3 -1
1 -3 -1
-1 3 1
-1 -3 0
1 3 0
-1 3 -1
1 3 1
-1 -3 -1
1 -3 1
-1 -3 -2
-1 3 -2
1 3 2
1 -3 2
1 3 3
1 -3 3
-1 3 -3
-1 -3 -3
1 -3 4
-1 -3 -4
-1 3 -4
1 3 4
-1 -3 -5
1 -3 5
1 3 5
-1 3 -5
1 -3 6
-1 -3 -6
-1 -3 -7
1 -3 7
-1 3 -7
1 3 7
-1 -3 -8
1 3 8
-1 3 -9
1 -3 9
1 3 9
-1 -3 -9
1 -3 10
-1 3 -10
-1 3 -11
1 -3 11
-1 -3 -12
1 3 12
-1 3 -12
1 -3 12
-1 -4 11
1 4 -11
-1 4 11
1 4 -10
-1 4 10
-1 -4 10
1 -4 -10
1 4 -9
1 -4 -9
-1 -4 9
-1 4 9
-1 4 8
1 4 -8
1 -4 -8
-1 -4 8
1 -4 -7
-1 4 7
-1 4 6
1 -4 -6
1 4 -5
-1 4 5
-1 -4 5
1 -4 -5
1 -4 -4
1 4 -4
-1 -4 4
1 4 -3
1 -4 -3
-1 -4 3
-1 4 3
1 4 -2
-1 4 2
-1 -4 2
1 -4 -2
1 4 -1
-1 -4 1
-1 4 1
1 -4 -1
-1 4 0
1 -4 0
-1 -4 0
1 4 0
1 -4 1
-1 -4 -1
-1 4 -1
1 4 1
1 4 2
1 -4 2
-1 -4 -2
1 4 3
-1 -4 -3
-1 -4 -4
1 4 4
-1 4 -5
1 -4 5
1 -4 6
1 -4 7
-1 -4 -7
1 4 7
-1 4 -7
-1 4 -8
1 4 8
-1 -4 -8
1 -4 8
1 -4 9
-1 4 -9
-1 -4 -9
1 4 9
1 -4 10
-1 4 -10
-1 -4 -10
1 4 10
-1 -4 -11
-1 4 -11
1 4 11
1 5 -11
-1 -5 11
-1 5 10
1 5 -10
-1 -5 10
1 -5 -10
1 5 -9
-1 5 9
1 -5 -9
-1 -5 9
1 -5 -8
1 5 -8
-1 5 8
1 -5 -7
-1 5 7
-1 -5 7
1 5 -7
-1 -5 6
-1 5 6
1 5 -6
1 -5 -6
-1 5 5
1 5 -5
1 -5 -5
-1 5 4
1 -5 -4
-1 -5 4
1 5 -4
1 5 -3
-1 5 3
-1 -5 3
-1 -5 2
1 5 -2
1 -5 -2
-1 5 2
1 5 -1
1 -5 -1
-1 -5 1
-1 -5 0
-1 5 0
1 -5 0
1 5 0
-1 5 -1
1 5 1
1 -5 1
-1 -5 -1
1 -5 2
-1 5 -2
1 5 2
-1 -5 -2
1 5 3
-1 5 -3
-1 -5 -3
1 -5 3
-1 -5 -4
1 -5 4
1 5 4
-1 5 -4
-1 5 -5
-1 -5 -5
1 -5 5
1 5 5
1 -5 6
1 5 6
-1 -5 -6
-1 -5 -7
1 5 7
-1 5 -7
1 -5 7
-1 5 -8
1 5 8
1 -5 8
-1 -5 -8
-1 -5 -9
1 5 9
-1 5 -9
1 5 10
1 -5 10
-1 -5 -10
1 -5 11
-1 5 -11
1 -5 12
1 6 -10
-1 -6 10
-1 -6 9
1 -6 -9
1 6 -9
-1 6 9
-1 6 8
-1 -6 8
1 -6 -8
1 6 -8
1 -6 -7
-1 6 7
1 6 -7
-1 -6 7
1 6 -6
-1 6 6
-1 -6 6
1 -6 -6
1 -6 -5
-1 6 5
-1 6 4
1 -6 -4
1 -6 -3
-1 6 3
1 6 -3
-1 -6 3
-1 -6 2
1 6 -2
-1 6 2
1 -6 -2
-1 6 1
-1 -6 1
1 -6 -1
1 6 -1
1 -6 0
-1 -6 0
1 6 0
-1 6 0
-1 -6 -1
1 -6 1
-1 6 -1
1 6 1
-1 -6 -2
1 6 2
1 -6 2
-1 6 -2
1 6 3
-1 -6 -3
1 -6 4
-1 6 -4
-1 6 -5
1 -6 5
-1 6 -6
-1 -6 -6
1 6 6
1 -6 6
-1 6 -7
1 6 7
-1 -6 -7
1 -6 7
1 -6 8
-1 -6 -8
1 6 8
-1 6 -8
1 -6 9
-1 -6 -9
-1 6 -9
1 6 9
-1 6 -10
1 6 10
1 -6 10
-1 -6 -10
1 -6 11
-1 6 -11
-1 -7 10
-1 -7 9
1 7 -9
-1 7 8
1 -7 -8
1 -7 -7
-1 -7 7
-1 7 7
-1 -7 6
-1 7 6
1 -7 -6
1 7 -6
1 7 -5
-1 -7 5
1 -7 -5
-1 7 5
-1 -7 4
-1 7 4
1 -7 -4
1 -7 -3
-1 -7 3
-1 7 3
1 7 -3
1 -7 -2
1 7 -2
-1 -7 2
-1 7 2
1 -7 -1
-1 7 1
-1 -7 1
1 7 -1
-1 7 0
1 7 0
1 -7 0
-1 -7 0
1 -7 1
1 7 1
-1 7 -1
-1 -7 -1
-1 7 -2
1 7 2
1 -7 2
-1 -7 -2
1 -7 3
1 7 3
-1 -7 -3
-1 7 -3
1 7 4
-1 7 -4
1 -7 4
-1 -7 -4
1 -7 5
-1 7 -5
1 7 5
-1 -7 -5
-1 -7 -6
1 7 6
1 7 7
1 -7 7
-1 7 -7
-1 -7 -7
1 -7 8
-1 7 -8
-1 -7 -9
-1 7 -9
1 7 9
1 -7 9
1 -7 10
-1 7 -10
-1 -8 9
1 8 -9
-1 8 7
1 -8 -7
1 8 -7
-1 -8 7
-1 -8 6
-1 8 6
1 -8 -6
1 8 -6
-1 -8 5
1 8 -5
1 -8 -5
-1 8 5
-1 -8 4
-1 8 4
1 -8 -4
1 -8 -3
-1 -8 3
1 8 -3
-1 8 3
1 -8 -2
1 8 -2
-1 -8 2
1 -8 -1
-1 -8 1
1 8 -1
-1 8 1
1 -8 0
-1 8 0
1 8 0
-1 -8 0
-1 -8 -1
1 -8 1
-1 8 -1
1 8 1
1 8 2
-1 -8 -2
-1 8 -2
1 -8 2
1 -8 3
-1 8 -3
-1 -8 -3
-1 8 -4
1 8 4
-1 -8 -4
1 -8 4
-1 8 -5
-1 -8 -5
1 -8 5
-1 -8 -6
1 8 6
1 -8 7
-1 -8 -7
1 8 7
-1 8 -7
-1 8 -8
1 -8 8
1 -8 9
-1 8 -9
1 9 -8
-1 -9 8
1 9 -7
-1 -9 7
1 -9 -6
-1 9 6
1 9 -5
-1 -9 5
-1 9 5
1 -9 -5
1 9 -4
-1 9 4
1 -9 -4
1 9 -3
-1 9 3
-1 -9 3
1 -9 -3
1 9 -2
-1 -9 2
-1 9 2
1 -9 -2
-1 -9 1
1 9 -1
-1 9 1
-1 9 0
-1 -9 0
1 -9 0
1 9 0
1 -9 1
1 9 1
-1 9 -1
-1 -9 -1
-1 -9 -2
1 9 2
-1 9 -2
1 -9 2
-1 9 -3
-1 -9 -3
1 -9 3
1 9 4
1 -9 4
-1 9 -4
-1 -9 -4
-1 -9 -5
1 9 5
-1 9 -6
1 9 6
-1 -9 -6
1 -9 6
1 -9 7
-1 9 -7
-1 9 -8
1 -9 8
-1 9 -9
1 -9 9
1 10 -5
1 -10 -5
-1 10 5
-1 -10 5
-1 -10 4
1 10 -4
1 10 -3
-1 -10 3
1 -10 -2
-1 10 2
-1 10 1
1 -10 -1
1 -10 2
-1 10 -2
-1 -10 -3
1 10 3
1 -10 3
-1 10 -3
1 10 4
-1 10 -4
1 -10 4
-1 -10 -4
1 10 5
-1 10 -5
-1 -10 -5
-1 -10 -6
1 10 6
-2 0 4
2 0 -4
2 0 -3
-2 0 3
-2 0 2
2 0 -2
-2 0 1
2 0 -1
-2 0 0
2 0 0
-2 0 -1
2 0 1
2 0 3
-2 0 -3
-2 0 -4
2 0 4
2 0 5
-2 0 -5
-2 0 -6
2 0 6
2 0 7
-2 0 -7
-2 0 -8
2 0 8
2 0 9
-2 0 -9
-2 0 -11
2 0 11
2 0 12
-2 0 -12
-2 0 -13
2 0 13
-2 -1 8
2 1 -8
-2 -1 7
2 1 -7
2 1 -6
-2 -1 6
-2 -1 5
-2 1 5
2 1 -5
2 -1 -5
2 1 -4
2 -1 -4
-2 1 4
-2 -1 4
-2 1 3
-2 -1 3
2 -1 -3
2 1 -3
2 -1 -2
-2 1 2
2 1 -2
-2 -1 2
2 1 -1
-2 1 1
2 -1 -1
-2 -1 1
-2 1 0
-2 -1 0
2 1 0
2 -1 0
-2 1 -2
-2 -1 -2
2 1 2
2 -1 2
-2 -1 -3
-2 1 -3
2 -1 3
2 1 3
2 -1 4
-2 1 -4
2 1 4
-2 -1 -4
2 1 5
-2 1 -5
-2 -1 -5
2 -1 5
-2 1 -6
2 -1 6
2 1 6
-2 -1 -6
-2 1 -7
2 -1 7
-2 -1 -7
2 -1 8
-2 1 -8
2 1 8
-2 -1 -8
2 -1 9
-2 -1 -9
-2 1 -9
2 1 9
-2 1 -10
-2 1 -11
-2 -1 -11
2 -1 11
2 1 12
-2 -1 -12
2 -1 12
2 -1 13
2 1 13
-2 1 -13
-2 -2 11
2 2 -11
2 2 -10
-2 -2 10
2 -2 -8
-2 2 8
2 -2 -7
-2 2 7
-2 2 6
2 -2 -6
2 -2 -5
-2 2 5
2 -2 -4
-2 -2 3
2 2 -3
-2 2 3
2 -2 -3
2 2 -2
-2 -2 2
-2 2 1
2 2 -1
-2 -2 1
2 -2 -1
-2 2 0
2 2 0
2 -2 0
-2 -2 0
2 -2 1
2 2 1
-2 2 -1
-2 -2 -1
-2 -2 -2
2 2 2
2 -2 2
-2 2 -2
-2 2 -3
-2 -2 -3
2 -2 3
2 2 3
-2 -2 -4
2 2 4
2 -2 4
-2 2 -4
-2 -2 -5
2 -2 5
2 2 5
-2 2 -5
-2 2 -6
2 -2 6
2 2 6
-2 -2 -6
2 2 7
-2 -2 -7
2 -2 7
-2 2 -7
2 2 8
-2 -2 -8
-2 2 -9
2 -2 9
2 2 10
2 -2 10
-2 -2 -11
2 -2 11
2 2 11
2 2 12
-2 -2 -12
2 -2 12
-2 2 -12
2 -2 13
-2 2 -13
2 2 13
2 3 -11
-2 -3 11
-2 -3 10
-2 3 10
2 -3 -10
2 3 -10
2 3 -9
-2 -3 9
2 3 -8
-2 -3 8
-2 3 7
2 3 -7
2 -3 -7
-2 -3 7
-2 -3 6
2 3 -6
2 -3 -6
-2 3 6
2 -3 -5
2 3 -5
-2 -3 5
-2 3 5
2 -3 -4
-2 3 4
2 3 -4
-2 -3 4
-2 -3 3
-2 3 3
2 3 -3
2 3 -2
-2 3 2
-2 -3 2
-2 -3 1
2 3 -1
2 -3 -1
-2 3 1
2 -3 0
2 3 0
-2 3 0
-2 -3 0
2 3 1
2 -3 1
-2 3 -1
-2 -3 -1
2 -3 2
-2 -3 -2
2 3 2
-2 3 -2
2 -3 3
-2 3 -3
-2 -3 -3
2 3 3
-2 3 -4
2 3 4
2 -3 4
-2 -3 -4
2 -3 5
-2 3 -5
-2 -3 -5
2 3 5
2 3 6
2 -3 7
-2 3 -7
2 -3 8
-2 3 -8
2 3 8
-2 -3 -8
-2 3 -9
2 -3 9
2 3 9
-2 -3 -9
-2 3 -10
-2 -3 -10
2 -3 10
2 3 10
2 -3 11
2 3 11
-2 -3 -11
-2 3 -11
2 3 12
-2 -3 -12
2 -3 13
2 -4 -10
-2 4 10
-2 4 9
2 -4 -9
-2 4 8
2 -4 -8
2 -4 -7
-2 4 7
2 -4 -6
-2 4 6
-2 -4 5
2 4 -5
2 -4 -5
-2 4 5
-2 4 4
2 4 -4
-2 -4 4
2 -4 -4
2 -4 -3
-2 4 3
2 4 -3
-2 -4 3
2 -4 -2
2 4 -2
-2 4 2
-2 -4 2
2 -4 -1
2 4 -1
-2 -4 1
-2 4 0
2 -4 0
2 -4 3
2 4 3
-2 -4 -3
-2 4 -3
2 4 4
-2 -4 -4
2 -4 4
-2 4 -4
2 -4 5
2 4 5
-2 4 -5
-2 -4 -5
-2 4 -6
-2 -4 -6
2 -4 6
2 4 6
2 -4 7
-2 -4 -7
2 4 7
-2 4 -7
2 -4 8
2 4 8
-2 4 -8
-2 -4 -8
-2 4 -9
2 -4 9
-2 -4 -9
2 4 9
-2 -4 -10
2 4 10
-2 -4 -11
2 4 11
-2 4 -11
2 -4 11
2 -4 12
-2 4 -12
-2 -5 10
2 5 -10
2 5 -9
-2 5 9
-2 -5 9
2 -5 -9
-2 5 8
2 5 -8
-2 -5 8
2 -5 -8
2 5 -7
-2 5 7
-2 -5 7
2 -5 -7
-2 5 6
-2 -5 6
2 -5 -6
2 5 -6
-2 -5 5
2 5 -5
-2 5 5
2 -5 -5
2 -5 -4
2 5 -4
-2 -5 4
-2 5 4
2 5 -3
-2 -5 3
2 -5 -3
2 5 -2
2 -5 -2
-2 5 2
-2 -5 2
-2 -5 1
-2 5 1
2 5 -1
2 -5 -1
2 5 0
-2 -5 0
2 -5 0
-2 5 0
-2 -5 -1
-2 5 -1
2 5 1
2 -5 1
-2 -5 -2
-2 5 -2
2 5 2
2 -5 3
-2 5 -3
2 5 3
-2 -5 -3
2 5 4
2 -5 4
-2 -5 -4
-2 5 -4
2 5 5
-2 -5 -5
2 -5 5
-2 5 -5
2 5 6
-2 5 -6
2 -5 6
-2 -5 -6
2 5 7
-2 -5 -7
2 -5 8
-2 5 -8
2 5 9
-2 5 -9
-2 -5 -9
2 5 10
2 -5 10
-2 -5 -10
-2 5 -10
-2 -5 -11
-2 5 -11
2 -5 11
2 5 11
-2 -6 10
2 6 -9
-2 -6 9
2 6 -8
2 -6 -8
-2 -6 8
-2 6 7
2 6 -7
2 -6 -7
-2 -6 7
-2 6 6
2 6 -6
2 -6 -6
-2 -6 6
2 -6 -5
-2 6 5
2 -6 -4
-2 6 4
2 -6 -3
-2 6 3
-2 6 2
-2 6 1
2 -6 -1
2 -6 0
-2 6 0
2 -6 2
-2 6 -2
2 -6 3
-2 6 -3
2 6 3
-2 -6 -3
2 -6 4
-2 6 -4
2 6 4
-2 -6 -4
2 6 5
2 -6 5
-2 6 -5
2 6 6
-2 -6 -6
2 -6 6
-2 6 -6
-2 -6 -7
-2 6 -7
-2 6 -8
-2 -6 -8
2 6 8
2 -6 8
-2 -6 -9
2 6 9
-2 -6 -10
-2 6 -10
2 -6 10
2 6 10
2 -6 11
-2 6 -11
2 -6 12
2 7 -9
-2 -7 9
-2 7 8
2 -7 -7
-2 7 7
2 7 -6
-2 7 6
2 -7 -6
-2 -7 6
-2 7 5
2 7 -5
2 -7 -5
-2 -7 5
2 -7 -4
2 7 -4
-2 7 4
-2 -7 4
2 -7 -3
-2 7 3
2 7 -3
2 -7 -2
2 7 -2
-2 -7 2
-2 7 1
-2 -7 1
2 7 -1
2 -7 -1
-2 -7 0
2 7 0
2 -7 0
-2 7 0
2 7 1
-2 7 -1
-2 -7 -1
2 -7 1
2 7 2
-2 7 -2
-2 -7 -2
2 -7 2
2 -7 3
-2 -7 -3
-2 7 -3
2 7 3
-2 -7 -4
2 7 4
-2 -7 -5
-2 7 -5
2 -7 5
2 -7 6
-2 7 -6
2 -7 7
2 7 7
-2 7 -7
-2 -7 -7
2 -7 8
-2 -7 -8
2 7 8
-2 -7 -9
2 -7 9
2 7 9
-2 7 -9
2 -7 10
-2 -7 -10
-2 7 -10
2 7 10
-2 7 -11
2 -7 11
2 8 -8
-2 -8 8
-2 8 7
2 -8 -6
2 8 -6
-2 -8 6
-2 8 5
-2 -8 5
2 -8 -5
2 8 -5
2 -8 -4
2 8 -4
-2 8 4
-2 -8 4
2 -8 -3
-2 -8 3
-2 8 3
2 8 -2
-2 8 2
2 -8 -2
-2 -8 2
2 -8 -1
2 8 -1
-2 8 1
-2 -8 1
-2 8 0
2 8 0
2 -8 0
-2 -8 0
2 -8 1
-2 -8 -1
2 8 1
-2 8 -1
2 -8 2
-2 8 -2
2 8 2
-2 -8 -2
-2 8 -3
2 8 3
-2 -8 -3
2 -8 3
-2 8 -4
2 8 4
2 -8 4
-2 -8 -5
2 8 5
2 -8 6
2 -8 7
-2 -8 -7
2 8 7
2 8 8
-2 8 -8
-2 -8 -8
2 -8 8
-2 -8 -9
2 8 9
2 -8 10
-2 8 -10
-2 -9 7
2 9 -7
2 9 -6
-2 -9 6
-2 9 5
2 -9 -5
2 9 -4
-2 -9 4
2 -9 -4
-2 -9 3
-2 9 3
2 -9 -3
2 9 -3
-2 9 2
2 9 -2
-2 -9 2
2 -9 -2
-2 9 1
-2 -9 1
2 -9 -1
2 9 -1
2 9 0
-2 9 0
-2 -9 0
2 -9 0
2 9 1
-2 -9 -1
-2 9 -1
2 -9 1
2 9 2
-2 -9 -2
2 -9 2
-2 9 -2
-2 9 -3
2 -9 3
-2 -9 -3
2 9 3
-2 -9 -4
2 9 4
2 -9 5
-2 9 -5
-2 9 -6
-2 -9 -6
-2 -9 -7
2 9 7
2 -9 7
-2 9 -7
-2 9 -8
-2 -9 -8
2 9 8
2 -9 8
-2 9 -9
2 -9 9
2 10 -5
-2 -10 5
2 10 -4
-2 10 4
-2 -10 4
2 -10 -4
2 10 -3
-2 -10 3
2 10 -2
-2 -10 2
2 10 -1
-2 -10 1
-2 -10 0
2 -10 0
2 10 0
2 10 1
-2 10 -1
-2 -10 -1
2 -10 1
2 10 2
-2 -10 -2
2 -10 2
-2 10 -2
-2 10 -3
-2 -10 -3
2 -10 3
2 10 4
-2 -10 -4
2 -10 4
-2 10 -4
-2 -10 -5
2 10 5
3 0 -5
-3 0 5
-3 0 4
3 0 -4
3 0 -3
-3 0 3
3 0 -2
-3 0 2
-3 0 0
3 0 0
3 0 1
-3 0 -1
-3 0 -2
3 0 2
3 0 3
-3 0 -3
-3 0 -4
3 0 4
3 0 5
-3 0 -5
-3 0 -6
3 0 6
-3 0 -8
3 0 8
-3 0 -9
3 0 9
3 0 10
-3 0 -10
3 0 11
-3 0 -11
-3 0 -12
3 0 12
-3 -1 7
3 1 -7
-3 -1 6
3 1 -6
-3 1 6
-3 -1 5
3 1 -5
3 -1 -5
-3 1 5
3 -1 -4
3 1 -4
-3 1 4
-3 -1 4
-3 1 3
3 -1 -3
-3 -1 1
3 1 -1
-3 1 1
3 -1 -1
3 -1 0
-3 -1 0
-3 1 0
3 1 0
-3 -1 -1
-3 1 -1
3 -1 1
3 1 1
-3 -1 -2
3 1 2
3 -1 2
-3 1 -2
-3 1 -3
3 -1 3
3 1 3
-3 -1 -3
3 -1 4
-3 1 -4
3 1 4
-3 -1 -4
-3 1 -5
3 -1 5
-3 -1 -5
3 1 5
-3 1 -6
3 1 6
3 -1 6
-3 -1 -6
-3 -1 -8
3 -1 8
3 1 8
-3 1 -8
3 -1 9
3 1 9
-3 1 -9
-3 -1 -9
-3 1 -10
3 1 10
3 -1 10
-3 -1 -10
3 -1 11
3 1 11
-3 1 -11
3 1 12
3 -1 12
-3 1 -12
-3 -1 -12
-3 1 -13
3 -1 13
3 2 -10
-3 -2 10
-3 -2 9
3 2 -9
3 -2 -7
-3 2 7
3 -2 -6
-3 2 6
3 2 -6
-3 -2 6
3 -2 -5
-3 2 5
-3 -2 5
3 2 -5
3 2 -4
-3 -2 4
3 -2 -3
-3 -2 3
3 -2 -2
3 2 -2
-3 -2 2
-3 -2 1
3 2 -1
-3 2 1
3 -2 -1
-3 2 0
3 -2 0
-3 -2 0
3 2 0
3 -2 1
-3 2 -1
3 2 1
-3 -2 -1
3 -2 2
3 2 2
-3 2 -2
-3 -2 -2
-3 -2 -3
3 -2 3
3 2 3
-3 2 -3
3 -2 4
3 2 4
-3 2 -4
-3 -2 -4
3 2 5
-3 -2 -5
3 -2 6
-3 2 -6
-3 2 -7
3 -2 7
-3 -2 -7
3 2 7
-3 2 -8
-3 -2 -8
3 2 8
-3 -2 -9
3 -2 9
3 2 9
3 -2 10
3 2 10
-3 2 -10
-3 -2 -10
3 -2 11
3 2 11
-3 2 -11
-3 -2 -11
-3 2 -12
3 -2 12
3 2 12
3 -2 13
3 2 13
-3 -3 10
3 3 -10
-3 -3 9
-3 3 9
3 3 -9
3 -3 -9
3 3 -8
-3 -3 8
-3 3 7
3 3 -7
-3 -3 7
3 -3 -6
3 3 -6
-3 3 6
-3 -3 6
-3 3 5
3 3 -5
3 -3 -5
-3 -3 5
-3 -3 4
3 3 -4
-3 -3 3
3 -3 -3
-3 3 3
3 3 -2
-3 -3 2
-3 3 2
-3 3 1
3 -3 -1
-3 -3 1
3 3 -1
-3 3 0
3 -3 0
-3 -3 0
3 3 0
3 -3 1
3 3 1
-3 -3 -1
-3 3 -1
-3 3 -2
3 -3 2
3 3 2
-3 -3 -2
3 -3 4
3 3 4
-3 -3 -4
3 3 5
3 -3 5
-3 -3 -5
-3 3 -5
3 -3 6
3 3 6
-3 3 -6
3 -3 7
-3 -3 -7
-3 -3 -8
3 3 8
3 -3 9
3 3 9
3 3 10
-3 -3 -10
3 -3 11
-3 3 -11
-3 3 -12
3 3 12
3 -3 12
-3 -3 -12
3 -3 13
-3 3 -13
3 -4 -9
-3 4 9
-3 4 8
3 -4 -8
-3 4 7
3 -4 -7
-3 4 6
3 -4 -6
3 -4 -5
-3 4 5
-3 4 4
3 -4 -4
-3 -4 3
3 -4 -3
-3 4 3
3 4 -2
-3 -4 2
-3 -4 1
3 4 -1
-3 -4 0
3 -4 0
3 4 0
-3 4 -1
3 4 1
3 -4 1
-3 -4 -1
3 -4 2
-3 4 -2
3 4 2
-3 -4 -2
3 4 3
-3 -4 -3
-3 4 -3
3 -4 3
3 -4 4
-3 -4 -4
3 4 4
-3 4 -4
3 -4 5
-3 -4 -5
3 4 5
-3 4 -5
-3 4 -6
3 -4 6
-3 -4 -6
3 4 6
3 4 7
-3 -4 -7
-3 4 -7
3 -4 7
-3 -4 -8
3 4 8
3 -4 9
-3 4 -9
3 -4 10
3 4 10
-3 -4 -10
-3 4 -10
-3 4 -11
3 4 11
-3 -4 -11
3 -4 12
3 4 12
-3 4 -12
-3 -4 -12
3 -4 13
-3 -5 10
3 5 -9
-3 -5 9
3 5 -8
-3 5 8
-3 -5 8
3 -5 -8
3 -5 -7
3 5 -7
-3 5 7
-3 -5 7
3 -5 -6
-3 5 6
3 5 -6
-3 -5 6
-3 5 5
-3 -5 5
3 -5 -5
3 5 -5
3 -5 -4
-3 5 4
3 5 -4
-3 -5 4
-3 5 3
3 5 -3
3 -5 -3
-3 -5 3
3 -5 -2
3 5 -2
-3 -5 2
3 5 -1
-3 -5 1
3 -5 0
-3 -5 0
3 5 0
-3 5 0
-3 5 -1
3 -5 1
3 5 1
-3 -5 -1
3 5 2
-3 -5 -2
-3 5 -2
3 -5 2
-3 -5 -3
-3 5 -3
3 -5 3
3 5 3
3 -5 4
3 5 4
-3 5 -4
-3 -5 -4
3 -5 5
-3 5 -5
3 5 6
-3 5 -6
3 -5 6
-3 -5 -7
3 5 7
3 -5 7
-3 5 -7
3 -5 8
-3 -5 -8
3 5 8
-3 5 -8
-3 -5 -9
-3 5 -9
3 5 9
3 -5 9
-3 -5 -10
3 5 10
3 -5 11
-3 -5 -11
-3 5 -11
3 5 11
3 -5 12
-3 5 -12
3 6 -9
-3 -6 9
3 6 -8
-3 6 8
-3 -6 8
3 6 -7
-3 6 7
-3 -6 7
3 -6 -7
3 6 -6
-3 -6 6
3 -6 -6
-3 6 6
-3 -6 5
3 6 -5
3 -6 -5
-3 6 5
3 -6 -4
3 6 -4
-3 6 4
-3 -6 4
3 -6 -3
-3 6 3
3 6 -3
-3 -6 3
3 6 -2
-3 -6 2
3 6 -1
-3 -6 1
3 -6 0
3 6 0
-3 6 0
-3 -6 0
3 6 1
-3 6 -1
-3 -6 -1
3 -6 1
3 6 2
-3 6 -2
3 -6 2
-3 -6 -2
-3 -6 -3
-3 6 -3
3 6 3
-3 -6 -4
3 6 4
-3 6 -4
-3 6 -5
3 -6 5
3 6 5
-3 -6 -6
3 -6 6
-3 6 -6
3 6 7
-3 -6 -7
3 -6 8
-3 6 -8
3 -6 9
3 6 9
-3 6 -9
-3 -6 -9
-3 6 -10
3 6 10
-3 -6 -10
3 -6 10
3 6 11
3 -6 12
-3 6 -12
3 7 -8
-3 -7 8
-3 7 7
3 -7 -7
3 -7 -6
-3 7 6
-3 7 5
3 -7 -5
3 7 -4
-3 -7 4
3 -7 -4
-3 7 4
3 -7 -3
3 7 -3
-3 7 3
3 -7 -2
-3 7 2
3 7 -2
-3 -7 2
3 -7 -1
3 7 -1
-3 -7 1
3 -7 0
3 7 0
-3 7 0
-3 -7 0
3 7 1
-3 -7 -1
-3 7 -1
3 -7 1
3 -7 3
-3 7 -3
3 7 4
3 -7 4
-3 7 -4
-3 -7 -4
-3 7 -5
3 -7 5
3 -7 6
3 7 6
-3 7 -6
-3 -7 -6
3 -7 7
-3 -7 -7
-3 7 -7
3 7 7
-3 -7 -8
3 7 8
3 -7 9
-3 7 -9
-3 -7 -10
3 7 10
-3 7 -10
3 -7 10
3 8 -7
-3 8 6
3 -8 -5
3 8 -5
-3 8 5
-3 -8 5
-3 8 4
3 8 -4
-3 -8 4
3 -8 -4
3 8 -3
-3 -8 3
3 -8 -3
-3 8 3
-3 8 2
3 8 -2
3 -8 -2
-3 -8 2
-3 8 1
3 8 -1
-3 -8 1
3 -8 -1
3 8 0
-3 8 0
-3 -8 0
3 -8 1
3 8 1
-3 8 -1
-3 -8 -1
3 8 2
-3 8 -2
-3 -8 -2
3 -8 2
3 -8 4
-3 8 -4
3 -8 5
-3 -8 -5
-3 8 -5
-3 -8 -6
-3 8 -6
3 -8 6
3 8 6
3 8 7
-3 8 -7
-3 -8 -7
3 -8 8
3 8 8
-3 -8 -8
-3 8 -8
3 -8 9
-3 8 -9
-3 -9 7
-3 -9 6
3 9 -5
-3 -9 5
-3 9 5
3 -9 -4
-3 9 4
3 -9 -3
-3 9 3
3 -9 -2
-3 9 2
3 -9 -1
-3 9 1
-3 9 0
3 -9 0
3 9 3
-3 9 -3
3 -9 3
-3 -9 -3
3 9 4
-3 9 -4
3 -9 4
-3 -9 -5
3 -9 5
-3 9 -5
3 9 5
-3 -9 -6
3 9 6
-3 9 -7
3 -9 7
3 9 8
-3 9 -8
-3 -9 -8
3 -9 8
3 10 -3
-3 -10 3
-3 10 3
3 -10 -3
3 10 -2
-3 -10 2
3 -10 -2
3 10 -1
-3 -10 1
-3 10 1
3 10 0
3 -10 0
-3 -10 0
-3 10 0
3 10 1
-3 -10 -1
3 -10 1
3 -10 2
3 10 2
-3 10 -2
-3 -10 -2
4 0 -6
-4 0 6
4 0 -5
-4 0 5
-4 0 3
4 0 -3
4 0 -2
-4 0 2
-4 0 1
4 0 -1
4 0 0
-4 0 0
-4 0 -1
4 0 1
4 0 2
-4 0 -2
-4 0 -3
4 0 3
-4 0 -5
4 0 5
4 0 6
-4 0 -6
-4 0 -7
4 0 7
4 0 8
-4 0 -8
-4 0 -9
4 0 9
-4 0 -10
4 0 10
-4 0 -11
4 0 11
-4 0 -12
4 0 12
-4 0 -13
4 0 13
4 1 -8
-4 -1 8
4 1 -7
-4 -1 7
4 -1 -6
-4 1 6
4 1 -6
-4 1 5
4 -1 -5
4 1 -5
-4 -1 5
4 -1 -4
4 1 -4
-4 -1 4
-4 1 4
4 -1 -3
4 1 -3
-4 1 3
-4 -1 3
4 -1 -2
-4 -1 2
-4 1 2
-4 1 1
4 -1 -1
-4 -1 1
4 1 -1
4 -1 0
4 1 0
-4 1 0
-4 -1 0
4 -1 1
-4 1 -1
4 1 1
-4 -1 -1
4 -1 2
-4 -1 -2
4 1 2
-4 1 -2
4 -1 3
4 1 3
-4 1 -3
-4 -1 -3
4 -1 5
4 1 5
-4 -1 -5
-4 1 -5
-4 1 -6
4 -1 6
4 1 6
-4 -1 -6
4 -1 7
4 1 7
-4 1 -7
-4 -1 -7
-4 1 -8
-4 -1 -8
4 -1 8
-4 1 -9
-4 -1 -9
4 -1 9
4 1 9
-4 -1 -11
4 -1 11
4 1 11
-4 1 -11
-4 1 -12
-4 -1 -12
4 -1 12
4 1 12
-4 1 -13
-4 -1 -13
4 -1 13
4 1 13
4 2 -9
-4 -2 9
-4 2 7
4 -2 -7
-4 -2 7
4 2 -7
4 2 -6
-4 -2 6
-4 2 5
4 -2 -5
4 2 -5
-4 -2 5
4 -2 -4
4 2 -4
-4 -2 4
-4 2 4
4 -2 -3
4 2 -3
-4 -2 3
4 -2 -2
-4 -2 2
-4 2 1
4 -2 -1
-4 -2 1
4 2 -1
-4 2 0
4 -2 0
-4 -2 0
4 2 0
4 -2 1
4 2 1
-4 2 -1
-4 -2 -1
4 -2 3
4 2 3
-4 2 -3
-4 -2 -3
-4 -2 -4
4 -2 4
4 2 4
-4 2 -4
4 -2 5
4 2 5
-4 2 -5
-4 -2 -5
4 -2 6
4 2 6
-4 2 -6
-4 -2 -6
4 -2 7
4 2 7
-4 2 -7
-4 -2 -7
4 -2 8
-4 2 -8
-4 -2 -8
-4 -2 -9
4 2 9
4 -2 10
4 2 10
-4 2 -10
-4 -2 -10
-4 2 -11
4 -2 11
-4 -2 -11
4 2 11
4 -2 12
-4 -2 -12
4 2 12
-4 2 -12
4 2 13
-4 -2 -13
4 3 -9
-4 3 9
-4 -3 9
-4 -3 8
4 3 -8
4 -3 -7
-4 -3 7
4 3 -7
-4 3 7
4 3 -6
-4 3 6
-4 -3 6
-4 3 5
4 -3 -5
4 3 -5
-4 -3 5
4 -3 -4
4 3 -4
-4 3 4
-4 -3 4
-4 -3 3
-4 3 3
4 3 -3
-4 3 2
-4 -3 2
4 -3 -2
-4 3 1
4 3 0
-4 -3 0
-4 -3 -1
4 -3 1
4 3 1
-4 3 -1
4 -3 2
4 3 2
-4 3 -2
-4 -3 -2
4 -3 3
-4 3 -3
4 3 3
-4 -3 -3
4 -3 4
4 3 4
-4 3 -4
-4 -3 -4
4 -3 5
4 3 5
-4 3 -5
-4 -3 -5
4 -3 6
-4 -3 -6
-4 3 -6
4 3 6
4 -3 7
4 3 7
-4 3 -7
4 -3 8
4 -3 9
4 3 9
-4 3 -9
-4 -3 -9
4 -3 10
4 3 10
-4 3 -10
-4 -3 -10
4 -3 11
4 3 11
-4 -3 -11
-4 -3 -12
4 3 12
4 -3 13
-4 3 -13
4 4 -8
-4 -4 8
-4 4 8
4 -4 -8
4 -4 -7
4 4 -7
-4 4 7
-4 -4 7
4 -4 -6
-4 4 6
4 4 -6
-4 -4 6
-4 4 5
4 4 -5
-4 -4 5
4 4 -4
-4 -4 4
-4 4 3
4 4 -3
4 -4 -3
-4 -4 3
-4 -4 2
-4 4 2
4 -4 -2
4 -4 -1
4 4 -1
-4 -4 1
-4 4 1
4 -4 0
4 4 0
-4 -4 0
-4 4 0
4 4 1
4 -4 1
-4 -4 -1
-4 4 -1
4 -4 2
-4 -4 -2
-4 4 -2
4 4 2
-4 -4 -3
4 -4 3
4 4 3
-4 4 -3
4 -4 4
4 4 4
-4 4 -4
-4 -4 -4
4 4 5
-4 -4 -5
4 -4 6
-4 4 -6
4 -4 7
4 4 7
-4 -4 -7
-4 4 -7
4 -4 8
4 4 8
-4 4 -8
4 -4 9
-4 -4 -9
4 4 9
-4 4 -9
4 -4 10
4 4 10
-4 -4 -10
-4 4 -10
-4 4 -11
4 -4 11
4 -4 12
4 4 12
-4 -4 -12
-4 4 -12
-4 4 -13
4 -4 13
-4 -5 9
-4 5 8
-4 -5 8
4 5 -8
4 5 -7
-4 5 7
-4 -5 7
4 -5 -7
-4 -5 6
4 -5 -6
-4 5 6
4 5 -6
4 -5 -5
-4 5 5
4 5 -5
-4 -5 5
4 -5 -4
-4 -5 4
4 5 -4
-4 5 4
4 -5 -3
-4 5 3
4 5 -3
-4 -5 3
-4 5 2
-4 -5 2
4 5 -1
-4 -5 1
4 -5 -1
-4 5 0
4 5 0
-4 -5 0
4 -5 1
-4 5 -1
4 -5 3
-4 -5 -3
4 5 3
-4 5 -3
4 -5 4
-4 -5 -4
4 5 4
-4 5 -4
4 -5 5
4 5 5
-4 -5 -5
-4 5 -5
4 -5 6
-4 -5 -6
4 5 6
-4 5 -6
4 -5 7
-4 -5 -7
-4 5 -7
-4 -5 -8
4 5 8
4 -5 9
-4 5 -9
-4 5 -10
-4 -5 -10
4 5 10
4 -5 10
-4 5 -11
-4 -5 -11
4 5 11
4 -5 11
4 -5 12
-4 5 -12
4 6 -8
-4 -6 8
4 -6 -7
4 6 -7
-4 6 7
-4 -6 7
-4 -6 6
4 6 -6
4 6 -5
-4 -6 5
4 6 -4
-4 -6 4
4 6 -3
-4 6 3
-4 -6 3
4 -6 -2
4 6 -2
-4 6 2
-4 -6 2
4 -6 -1
-4 6 1
-4 -6 1
4 6 0
-4 -6 0
-4 6 0
4 -6 1
4 6 1
-4 6 -1
-4 -6 -1
4 -6 2
4 6 2
-4 6 -2
4 -6 3
-4 -6 -3
4 6 3
-4 6 -3
4 -6 4
4 6 4
-4 6 -4
-4 -6 -4
-4 6 -6
4 6 6
4 -6 6
4 -6 7
4 6 7
-4 -6 -7
-4 6 -7
4 6 8
-4 -6 -8
-4 6 -8
4 -6 9
-4 -6 -9
4 6 9
-4 6 -9
4 -6 10
-4 6 -10
-4 -6 -11
-4 6 -11
4 6 11
4 -6 11
4 7 -7
-4 -7 7
4 7 -6
-4 -7 6
4 -7 -6
-4 7 6
-4 -7 5
4 7 -5
4 -7 -5
-4 7 5
4 -7 -4
4 7 -4
-4 7 4
-4 -7 4
4 7 -3
-4 7 3
-4 -7 3
4 -7 -3
4 7 -2
-4 7 2
4 -7 -2
4 7 -1
-4 -7 1
4 -7 0
4 7 0
-4 -7 0
4 -7 1
-4 7 -1
-4 -7 -1
4 7 1
4 -7 2
-4 7 -2
-4 -7 -2
4 7 2
4 -7 3
-4 -7 -3
4 7 3
-4 7 -3
-4 7 -4
4 -7 4
-4 -7 -4
4 7 4
-4 7 -5
-4 -7 -5
4 7 5
-4 -7 -6
-4 7 -7
4 -7 7
-4 7 -8
-4 -7 -8
4 7 8
4 -7 8
-4 -7 -9
4 7 9
-4 7 -9
-4 7 -10
-4 -7 -10
4 7 10
4 -7 11
-4 7 -11
-4 -8 7
4 8 -6
-4 -8 6
4 8 -5
-4 8 5
4 8 -4
-4 -8 4
4 -8 -4
-4 8 4
-4 8 3
4 8 -3
4 -8 -3
-4 -8 3
4 -8 -2
4 8 -2
-4 -8 2
-4 8 2
4 8 -1
4 -8 -1
-4 8 1
-4 -8 1
4 8 0
-4 -8 0
4 8 1
-4 8 -1
-4 -8 -1
-4 8 -2
4 -8 2
-4 -8 -2
4 -8 3
-4 -8 -3
-4 8 -3
4 8 3
-4 -8 -4
-4 8 -4
4 -8 4
4 8 4
-4 8 -5
4 -8 5
4 8 5
-4 -8 -7
4 8 7
4 -8 7
-4 -8 -8
-4 8 -8
4 8 8
4 -8 8
-4 -8 -9
-4 8 -9
4 8 9
4 -8 9
4 -8 10
-4 8 -10
-4 -9 6
4 9 -5
-4 -9 5
4 9 -4
-4 -9 4
4 9 -3
-4 -9 3
4 9 -2
-4 -9 2
-4 9 1
4 -9 -1
-4 -9 1
4 -9 0
4 9 0
-4 9 0
4 9 1
-4 9 -1
-4 -9 -1
4 -9 1
-4 9 -2
-4 -9 -2
4 -9 2
4 9 2
-4 9 -3
-4 -9 -3
4 -9 3
4 9 3
-4 -9 -5
-4 9 -5
4 -9 5
4 9 5
-4 -9 -6
-4 9 -6
4 -9 6
4 9 6
-4 -9 -7
4 9 7
-5 0 7
5 0 -7
-5 0 6
5 0 -6
5 0 -5
-5 0 5
-5 0 4
5 0 -4
5 0 -3
-5 0 3
-5 0 2
5 0 -2
5 0 -1
-5 0 1
-5 0 0
5 0 0
-5 0 -2
5 0 2
5 0 3
-5 0 -3
-5 0 -4
5 0 4
5 0 5
-5 0 -5
-5 0 -6
5 0 6
5 0 7
-5 0 -7
-5 0 -8
5 0 8
5 0 9
-5 0 -9
-5 0 -10
5 0 10
5 0 11
-5 0 -11
-5 0 -13
5 0 13
-5 -1 8
5 1 -8
-5 -1 7
5 1 -7
-5 1 7
5 -1 -7
5 -1 -6
5 1 -6
-5 -1 6
5 -1 -5
5 1 -5
-5 1 5
-5 -1 5
5 -1 -4
5 1 -4
-5 1 4
-5 -1 4
5 -1 -3
5 1 -3
-5 1 3
-5 -1 3
5 -1 -2
5 1 -2
-5 1 2
-5 -1 2
5 -1 -1
-5 1 1
-5 -1 1
5 -1 1
5 1 1
-5 1 -1
-5 -1 -1
-5 1 -2
-5 -1 -2
5 -1 2
5 1 2
5 -1 3
5 1 3
-5 1 -3
-5 -1 -3
5 -1 4
5 1 4
-5 1 -4
-5 -1 -4
5 -1 5
5 1 5
-5 1 -5
-5 -1 -5
5 -1 6
5 1 6
-5 1 -6
-5 -1 -6
5 1 7
-5 -1 -7
5 -1 8
5 1 8
-5 1 -8
5 -1 9
5 1 9
-5 1 -9
-5 -1 -9
-5 1 -10
5 -1 10
5 1 10
-5 -1 -10
-5 1 -11
-5 -1 -11
5 -1 11
5 1 11
-5 1 -12
5 -1 12
5 -1 13
5 1 13
-5 1 -13
-5 -1 -13
5 -2 -8
5 2 -8
-5 2 8
-5 -2 8
-5 -2 7
5 2 -7
-5 2 7
5 -2 -6
-5 -2 6
5 2 -6
-5 2 6
-5 -2 5
5 2 -5
-5 2 5
-5 -2 4
5 -2 -4
5 2 -4
5 -2 -3
5 2 -3
-5 2 3
-5 -2 3
5 -2 -2
-5 2 2
-5 -2 0
5 -2 0
5 2 0
-5 2 0
-5 2 -1
5 -2 1
-5 -2 -1
5 2 1
-5 2 -2
5 -2 2
-5 -2 -2
5 2 2
5 -2 3
5 2 3
-5 2 -3
-5 -2 -3
5 -2 4
5 2 4
-5 2 -4
-5 -2 -4
5 -2 5
5 2 5
-5 2 -5
-5 -2 -5
5 -2 6
5 2 6
-5 2 -6
-5 -2 -6
5 -2 7
5 2 7
-5 2 -7
-5 -2 -7
5 -2 8
5 2 8
-5 2 -8
-5 -2 -8
5 -2 9
5 2 9
-5 2 -9
-5 -2 -9
-5 2 -10
5 -2 10
-5 -2 -10
5 2 10
5 2 11
-5 2 -12
5 -2 12
-5 -2 -12
5 2 12
-5 2 -13
5 -2 13
-5 -2 -13
5 2 13
-5 -3 8
5 3 -8
-5 3 8
5 -3 -7
5 3 -7
-5 3 7
-5 -3 7
5 -3 -6
-5 3 6
5 -3 -5
-5 3 5
5 -3 -4
5 3 -4
-5 -3 4
-5 3 4
5 3 -3
-5 -3 3
-5 3 2
5 -3 -2
5 3 -2
-5 -3 2
5 -3 -1
-5 -3 1
-5 -3 0
5 3 0
-5 3 0
-5 3 -1
5 -3 1
-5 -3 -1
5 3 1
5 -3 2
-5 -3 -2
5 3 2
-5 3 -2
5 -3 3
5 3 3
-5 3 -3
-5 -3 -3
5 -3 4
-5 3 -4
5 3 4
-5 -3 -4
-5 3 -6
5 -3 6
-5 -3 -6
5 3 6
5 -3 7
5 3 7
-5 3 -7
-5 -3 -7
5 -3 8
-5 3 -8
-5 -3 -8
5 -3 9
-5 3 -9
-5 -3 -9
5 -3 11
5 3 11
-5 3 -11
-5 -3 -11
5 -3 12
-5 -3 -12
5 3 13
5 4 -8
-5 -4 8
-5 4 7
-5 -4 7
5 -4 -7
5 4 -7
5 4 -6
-5 -4 6
5 4 -5
-5 4 5
-5 -4 5
5 -4 -4
5 4 -4
-5 4 4
-5 -4 4
5 -4 -3
5 4 -3
-5 4 3
-5 -4 3
-5 4 2
-5 -4 2
5 4 -2
5 -4 -2
5 -4 -1
-5 -4 1
-5 4 1
5 -4 0
5 4 0
-5 -4 0
-5 4 0
5 -4 1
5 4 1
-5 -4 -1
-5 4 -1
5 -4 2
-5 4 -2
-5 4 -3
5 -4 3
5 4 3
-5 -4 -3
-5 4 -4
5 -4 4
5 4 4
-5 -4 -4
5 -4 5
-5 -4 -5
5 4 5
5 -4 6
-5 -4 -6
5 4 6
-5 4 -7
5 -4 7
5 4 7
-5 -4 -7
-5 -4 -8
5 4 8
-5 4 -9
5 -4 9
5 4 9
-5 -4 -9
5 -4 10
5 4 10
-5 -4 -10
-5 4 -10
5 -4 11
-5 -4 -11
-5 4 -11
5 4 11
5 -4 12
-5 4 -12
-5 4 -13
5 -4 13
-5 5 7
5 -5 -6
-5 5 6
-5 5 5
5 -5 -5
5 -5 -4
-5 5 4
-5 5 3
-5 -5 3
5 -5 -3
5 5 -3
5 5 -2
-5 -5 2
-5 -5 1
5 -5 0
5 5 0
-5 -5 0
5 -5 1
5 5 1
-5 -5 -1
-5 5 -1
-5 -5 -2
-5 5 -2
5 5 2
5 -5 2
5 -5 3
5 5 3
-5 -5 -3
-5 5 -3
5 -5 4
5 5 4
-5 -5 -4
-5 5 -4
-5 -5 -5
-5 5 -5
5 5 5
5 -5 5
5 5 7
-5 5 -7
5 -5 7
5 -5 8
5 5 8
-5 -5 -8
-5 5 -8
5 -5 9
5 5 9
-5 -5 -9
-5 5 -9
5 -5 10
-5 -5 -10
5 5 10
-5 5 -10
5 -5 11
5 5 11
-5 -5 -11
-5 5 -11
5 5 12
5 6 -7
-5 -6 7
-5 6 6
-5 -6 6
5 -6 -6
5 6 -6
5 -6 -5
5 6 -5
-5 6 5
-5 -6 5
5 -6 -4
5 6 -4
-5 6 4
-5 -6 4
5 -6 -3
-5 -6 3
-5 6 3
5 6 -3
5 6 -2
-5 -6 2
5 -6 -1
5 6 -1
-5 6 1
-5 -6 1
5 -6 0
5 6 0
-5 6 0
-5 -6 0
-5 6 -1
-5 -6 -3
-5 6 -3
5 6 3
5 -6 3
-5 -6 -4
-5 6 -4
5 6 4
5 -6 4
5 -6 5
5 6 5
-5 -6 -5
-5 6 -5
-5 -6 -6
5 6 6
-5 6 -6
5 -6 6
-5 -6 -7
5 -6 8
5 -6 9
5 6 9
-5 6 -9
-5 -6 -10
5 6 10
5 -6 11
-5 -7 6
5 7 -6
-5 -7 5
5 7 -5
-5 7 4
-5 -7 4
5 -7 -4
5 7 -4
-5 -7 3
-5 7 3
5 7 -3
5 -7 -3
-5 -7 2
-5 7 2
5 -7 -2
5 7 -2
5 -7 -1
-5 7 1
5 7 -1
5 -7 0
5 7 0
-5 7 0
-5 -7 0
5 -7 1
5 7 1
-5 -7 -1
5 7 2
-5 7 -2
-5 -7 -2
-5 7 -3
5 -7 3
-5 7 -4
-5 -7 -4
5 7 4
5 -7 4
-5 7 -5
-5 -7 -5
5 7 5
5 -7 5
-5 7 -6
5 7 6
5 -7 6
-5 -7 -7
-5 7 -7
5 7 7
5 -7 7
5 -7 8
5 -7 9
5 7 9
-5 -7 -9
-5 7 -9
-5 7 -10
-5 -7 -10
5 7 10
5 -7 10
-5 7 -11
5 8 -5
-5 -8 5
5 8 -4
-5 8 4
-5 -8 4
5 -8 -3
5 8 -3
-5 8 3
-5 -8 3
5 -8 -2
-5 -8 2
-5 8 2
5 8 -2
5 -8 -1
5 8 -1
-5 -8 1
-5 8 0
5 8 0
-5 -8 0
5 -8 1
5 8 1
-5 8 -1
-5 -8 -1
-5 -8 -2
-5 8 -2
5 -8 2
5 8 2
-5 8 -4
5 8 4
-5 -8 -5
5 8 5
5 -8 5
-5 8 -5
5 -8 6
-5 8 -6
-5 -8 -6
5 -8 7
-5 8 -7
-5 -8 -8
5 8 8
-5 8 -8
-5 -9 4
5 9 -4
-5 9 2
5 -9 -2
-5 9 1
5 -9 -1
-5 9 0
-5 -9 0
5 -9 0
-5 -9 -1
5 9 1
-5 -9 -2
-5 9 -2
5 9 2
5 -9 2
-5 -9 -3
-5 9 -3
5 9 3
-5 -9 -4
-5 9 -4
5 -9 4
5 9 4
-6 0 7
6 0 -7
6 0 -6
-6 0 6
-6 0 5
6 0 -5
6 0 -4
-6 0 4
6 0 -2
-6 0 2
-6 0 1
6 0 -1
6 0 0
-6 0 0
-6 0 -1
6 0 1
-6 0 -2
6 0 2
-6 0 -3
6 0 3
-6 0 -4
6 0 4
-6 0 -5
6 0 5
-6 0 -6
6 0 6
-6 0 -7
6 0 7
6 0 8
-6 0 -8
-6 0 -9
-6 0 -10
6 0 10
-6 0 -11
6 0 11
-6 0 -12
6 0 12
-6 0 -13
6 0 13
-6 -1 8
6 -1 -7
6 1 -7
6 -1 -6
6 1 -6
-6 1 6
-6 -1 6
6 -1 -5
6 1 -5
-6 1 5
-6 -1 5
6 -1 -4
-6 1 4
6 1 -3
-6 -1 3
6 -1 -2
6 1 -2
-6 1 2
-6 -1 2
6 -1 -1
6 1 -1
-6 1 1
-6 -1 1
6 -1 0
-6 1 0
-6 -1 0
-6 1 -1
-6 -1 -1
6 -1 1
6 1 1
6 -1 2
6 1 2
-6 1 -2
-6 -1 -2
-6 1 -3
-6 -1 -3
6 -1 3
6 1 3
6 -1 5
6 1 5
-6 1 -5
-6 -1 -5
6 -1 6
6 1 6
-6 1 -6
-6 -1 -6
-6 -1 -7
6 -1 7
6 1 7
-6 1 -7
6 -1 8
6 1 8
-6 1 -8
-6 -1 -8
6 -1 10
6 1 10
-6 1 -10
-6 1 -11
-6 -1 -11
6 -1 11
6 1 11
6 1 12
-6 1 -12
-6 -1 -12
6 -1 13
6 1 13
-6 1 -13
-6 -1 -13
-6 -2 8
6 -2 -7
6 2 -7
-6 -2 7
-6 2 7
6 -2 -6
6 2 -6
-6 -2 6
-6 2 6
6 -2 -5
6 2 -4
-6 -2 4
6 -2 -3
6 2 -3
-6 2 3
-6 -2 3
6 -2 -2
6 2 -2
-6 2 2
-6 -2 2
6 -2 -1
6 2 -1
-6 2 1
-6 -2 1
6 -2 0
-6 -2 0
6 -2 1
6 2 1
-6 2 -1
-6 -2 -1
6 -2 2
6 2 2
-6 2 -2
-6 -2 -2
-6 2 -4
6 -2 4
-6 -2 -4
6 2 4
-6 2 -5
6 -2 5
-6 -2 -5
6 2 5
6 -2 6
-6 2 -6
6 2 6
-6 -2 -6
6 -2 7
6 2 7
-6 2 -7
-6 -2 -7
6 -2 8
6 2 8
-6 2 -8
-6 -2 -8
-6 2 -9
-6 -2 -9
6 -2 9
6 2 9
-6 2 -10
6 -2 10
-6 -2 -10
6 2 10
-6 2 -11
6 -2 11
-6 -2 -11
6 2 11
-6 2 -12
6 -2 12
6 -2 13
-6 2 -13
-6 -2 -13
6 3 -7
-6 3 7
-6 -3 7
6 3 -6
-6 -3 6
-6 3 5
-6 -3 5
6 3 -5
6 -3 -5
-6 3 4
-6 -3 4
6 3 -4
6 -3 -4
6 -3 -3
-6 3 3
6 3 -3
-6 -3 3
6 -3 -2
-6 -3 2
6 3 -2
6 -3 -1
6 3 -1
-6 3 1
-6 -3 1
6 -3 0
-6 3 0
-6 -3 0
-6 3 -1
6 3 2
-6 -3 -2
6 -3 3
6 3 3
-6 3 -3
-6 -3 -3
6 -3 4
-6 3 -4
6 3 4
-6 -3 -4
6 -3 5
6 3 5
-6 3 -5
-6 -3 -5
6 -3 6
6 3 6
-6 3 -6
-6 -3 -6
6 3 7
-6 -3 -7
6 -3 8
6 3 8
-6 3 -8
6 -3 9
6 3 9
-6 3 -9
-6 -3 -9
6 -3 10
6 3 10
-6 3 -10
-6 -3 -10
6 -3 11
-6 3 -11
-6 3 -12
6 -3 12
-6 -3 -12
6 3 12
6 3 13
6 4 -7
-6 -4 7
6 4 -6
-6 -4 6
6 -4 -5
6 4 -5
-6 -4 5
-6 4 5
-6 -4 4
6 4 -4
-6 4 4
6 -4 -4
6 -4 -3
-6 4 3
6 -4 -2
6 4 -2
-6 -4 2
-6 4 2
6 4 -1
-6 -4 1
6 -4 0
-6 -4 0
-6 4 0
-6 4 -1
6 -4 1
6 4 1
-6 -4 -1
6 -4 2
-6 -4 -2
6 4 2
6 -4 3
6 4 3
-6 -4 -3
6 -4 4
6 4 4
-6 -4 -4
6 -4 5
6 4 5
-6 -4 -5
6 -4 6
6 4 6
-6 -4 -6
6 -4 7
-6 -4 -7
6 4 7
6 -4 8
-6 -4 -8
6 4 8
6 -4 9
-6 -4 -9
6 4 9
6 -4 10
-6 -4 -10
6 4 10
-6 4 -10
6 -4 11
-6 -4 -11
-6 4 -11
6 4 11
6 -4 12
-6 4 -12
6 -4 13
-6 4 -13
6 5 -6
-6 -5 6
-6 -5 5
6 5 -5
-6 5 4
-6 -5 4
6 5 -4
6 -5 -4
-6 -5 3
-6 5 3
6 5 -3
6 -5 -3
6 -5 -2
6 5 -2
-6 -5 2
-6 5 2
-6 -5 1
6 5 -1
-6 5 1
6 -5 0
6 5 0
-6 -5 0
-6 5 0
6 -5 1
6 5 1
-6 -5 -1
-6 5 -2
6 -5 2
6 5 3
-6 -5 -3
-6 5 -4
-6 -5 -4
6 5 4
6 -5 4
6 -5 5
6 5 5
-6 5 -5
6 -5 6
-6 -5 -6
6 5 6
-6 5 -6
6 -5 7
-6 -5 -7
-6 5 -7
6 5 7
6 -5 8
6 5 8
-6 -5 -8
-6 5 -8
-6 5 -9
-6 -5 -9
6 5 9
-6 -5 -10
6 5 10
-6 -5 -11
6 5 11
-6 5 -11
6 -5 11
6 5 12
-6 -6 6
-6 -6 5
-6 6 5
6 6 -5
-6 -6 4
-6 6 4
6 -6 -4
6 6 -4
-6 -6 3
6 6 -3
6 -6 -3
6 6 -2
-6 -6 2
6 6 -1
-6 -6 1
6 -6 0
6 6 0
-6 6 0
6 -6 1
6 6 1
-6 -6 -1
-6 6 -1
-6 -6 -2
-6 6 -2
6 6 2
6 -6 2
6 -6 3
6 6 3
-6 -6 -3
-6 6 -3
6 -6 4
6 6 4
-6 -6 -4
-6 6 -4
-6 6 -5
-6 -6 -5
6 6 5
6 -6 5
6 -6 6
6 6 6
-6 -6 -6
-6 6 -6
-6 6 -7
6 6 7
6 -6 7
-6 -6 -8
6 6 8
-6 6 -9
-6 -6 -9
6 6 9
-6 -6 -10
6 6 10
-6 -6 -11
6 6 11
-6 6 -11
6 -6 11
-6 7 4
-6 7 3
6 -7 -3
-6 -7 2
-6 7 2
6 -7 -2
6 7 -2
-6 -7 1
6 -7 -1
6 7 -1
-6 7 1
6 7 0
6 -7 1
6 7 1
-6 7 -1
-6 -7 -1
6 -7 2
6 7 2
-6 7 -2
-6 -7 -2
-6 -7 -3
-6 7 -3
6 7 3
6 -7 3
-6 -7 -4
-6 7 -4
6 7 4
6 -7 4
-6 -7 -6
-6 7 -6
6 7 6
6 -7 6
6 -7 7
-6 -7 -7
-6 7 -7
-6 7 -8
6 -7 8
6 7 9
-6 -7 -9
-6 7 -9
-6 -8 4
6 8 -4
6 8 -3
-6 -8 3
6 -8 -2
6 8 -2
-6 8 2
-6 -8 2
6 8 -1
-6 -8 1
6 -8 0
6 8 0
-6 8 0
-6 -8 0
-6 -8 -1
-6 8 -1
6 -8 1
6 -8 2
6 8 2
-6 8 -2
-6 -8 -2
-6 -8 -3
6 8 3
6 -8 3
-6 -8 -5
6 8 5
6 -8 5
-6 8 -5
-6 8 -6
6 8 6
-6 9 1
6 -9 -1
6 -9 0
7 0 -5
-7 0 5
-7 0 4
7 0 -4
7 0 -3
-7 0 3
-7 0 2
7 0 -2
7 0 -1
-7 0 1
-7 0 0
7 0 0
-7 0 -2
7 0 2
7 0 3
-7 0 -3
-7 0 -4
7 0 4
7 0 5
-7 0 -5
-7 0 -6
7 0 6
7 0 7
-7 0 -7
-7 0 -8
7 0 8
7 0 9
-7 0 -11
7 0 11
-7 0 -12
7 0 12
-7 0 -13
7 0 13
7 1 -6
-7 -1 6
7 -1 -5
7 1 -5
-7 1 5
-7 -1 5
7 -1 -4
7 1 -4
-7 1 4
-7 -1 4
7 -1 -3
7 1 -3
-7 1 3
-7 -1 3
7 -1 -2
7 1 -2
-7 1 2
-7 -1 2
-7 1 1
-7 -1 1
7 -1 -1
7 1 -1
7 -1 0
7 1 0
-7 1 0
-7 -1 0
7 1 1
-7 -1 -1
-7 1 -2
-7 -1 -2
7 -1 2
7 1 2
7 -1 3
7 1 3
-7 1 -3
-7 -1 -3
7 -1 4
7 1 4
-7 1 -4
-7 -1 -4
-7 1 -5
-7 -1 -5
7 -1 5
7 1 5
-7 -1 -6
7 1 6
7 -1 7
7 1 7
-7 1 -7
-7 -1 -7
-7 1 -8
-7 -1 -8
7 -1 8
7 1 8
7 -1 9
7 1 9
7 -1 11
7 1 11
-7 1 -11
-7 -1 -11
7 1 12
-7 -1 -12
-7 1 -13
-7 -1 -13
7 -1 13
7 1 13
7 2 -6
-7 -2 6
-7 2 6
7 -2 -5
-7 -2 5
7 2 -5
7 -2 -4
7 2 -4
-7 2 4
-7 -2 4
-7 2 3
7 -2 -3
-7 -2 3
7 2 -3
7 -2 -2
7 2 -2
-7 2 2
-7 -2 2
7 -2 -1
-7 2 1
-7 -2 0
7 2 0
-7 2 -1
7 -2 1
-7 -2 -1
7 2 1
7 -2 2
7 2 2
-7 2 -2
-7 -2 -2
7 -2 3
7 2 3
-7 2 -3
-7 -2 -3
7 -2 4
7 2 4
-7 2 -4
-7 -2 -4
7 -2 5
7 2 5
-7 2 -5
-7 -2 -5
7 -2 6
7 2 6
-7 2 -6
-7 -2 -6
-7 2 -7
7 -2 7
-7 -2 -7
7 2 7
7 -2 8
7 2 8
-7 2 -8
-7 -2 -8
-7 -2 -9
-7 2 -10
7 -2 10
-7 -2 -10
7 2 10
-7 2 -11
7 -2 11
-7 -2 -11
7 2 11
-7 2 -12
7 -2 12
-7 -2 -12
7 2 12
-7 2 -13
7 -2 13
7 2 13
-7 -3 6
7 3 -6
7 -3 -5
7 3 -5
-7 -3 5
-7 3 5
7 -3 -4
-7 3 4
7 -3 -3
-7 -3 2
7 3 -2
7 -3 -1
7 3 -1
-7 3 1
-7 -3 1
-7 3 0
7 -3 0
-7 -3 0
7 3 0
-7 3 -1
7 -3 1
-7 -3 -1
7 3 1
7 3 2
-7 3 -2
-7 -3 -2
7 -3 3
7 3 3
-7 3 -3
-7 -3 -3
-7 3 -5
7 -3 5
-7 -3 -5
7 3 5
7 -3 6
7 3 6
-7 3 -6
-7 -3 -6
7 -3 7
7 3 7
-7 3 -7
-7 -3 -7
7 3 8
-7 -3 -8
7 -3 9
-7 3 -9
-7 -3 -9
-7 3 -10
7 -3 10
-7 -3 -10
7 3 10
-7 3 -11
7 -3 11
-7 3 -12
7 -3 12
-7 -3 -12
7 3 12
-7 3 -13
7 -3 13
-7 -4 6
7 4 -5
-7 -4 5
-7 4 5
-7 4 4
-7 -4 4
7 4 -4
7 -4 -4
7 -4 -3
7 4 -3
-7 -4 3
-7 4 3
7 -4 -2
7 4 -2
-7 -4 2
-7 4 2
7 -4 -1
-7 -4 1
7 4 -1
-7 4 1
7 -4 0
7 4 0
-7 -4 0
-7 4 0
7 -4 1
7 4 1
-7 -4 -1
7 -4 3
7 4 3
-7 4 -3
-7 -4 -3
7 -4 4
7 4 4
-7 4 -4
-7 -4 -4
7 -4 5
7 4 5
-7 4 -5
-7 -4 -5
-7 4 -6
7 -4 6
7 4 6
-7 -4 -6
-7 4 -7
7 -4 7
-7 4 -8
7 -4 8
-7 -4 -8
7 4 8
7 -4 9
-7 -4 -9
7 4 9
7 -4 10
7 4 10
-7 -4 -10
7 -4 11
-7 -4 -11
7 4 11
-7 4 -11
-7 4 -12
-7 -4 -12
7 4 12
-7 -5 5
7 5 -5
-7 5 4
7 -5 -4
-7 5 3
7 -5 -3
7 5 -2
-7 5 2
7 -5 -2
7 5 -1
-7 -5 1
-7 -5 0
-7 5 0
7 5 0
7 -5 0
7 5 1
-7 5 -1
7 -5 1
-7 5 -2
-7 -5 -2
7 5 2
7 -5 2
7 5 3
-7 -5 -3
-7 5 -3
7 -5 4
-7 5 -4
7 -5 5
7 5 5
-7 -5 -5
-7 5 -5
7 -5 6
7 5 6
-7 -5 -6
-7 5 -6
7 -5 7
7 5 7
-7 -5 -7
-7 5 -7
7 -5 8
-7 5 -8
7 -5 9
7 5 9
-7 -5 -9
7 5 10
-7 5 -11
7 5 11
7 -5 11
-7 -6 4
7 6 -4
7 6 -3
-7 6 3
-7 -6 3
-7 6 2
-7 -6 2
7 6 -2
7 -6 -2
7 -6 -1
-7 6 1
7 -6 0
-7 6 0
7 6 1
7 -6 2
7 6 2
-7 -6 -2
-7 6 -2
-7 -6 -3
7 6 3
7 -6 3
-7 6 -4
-7 -6 -4
7 6 4
7 -6 4
-7 -6 -6
-7 6 -6
7 6 6
7 -6 6
-7 -6 -7
-7 6 -7
7 6 7
7 -6 7
-7 -6 -9
7 6 9
7 -6 9
-7 -7 4
-7 -7 3
7 7 -3
-7 -7 2
7 7 -2
7 -7 -2
-7 7 2
-7 7 1
7 -7 -1
-7 7 0
7 -7 0
7 7 1
-7 -7 -1
-7 -7 -2
-7 7 -2
7 7 2
7 -7 2
7 -7 3
7 7 3
-7 -7 -3
-7 7 -3
7 7 4
-7 -7 -4
-7 7 -4
-7 -7 -6
-7 7 -6
7 7 6
7 -7 6
7 7 7
-7 -8 3
-7 -8 2
7 8 -2
-7 -8 1
7 8 -1
-7 -8 0
7 8 0
7 -8 1
-7 8 -1
-7 -8 -1
-7 -8 -2
-7 8 -2
-7 8 -3
-8 0 5
8 0 -4
-8 0 4
8 0 -2
-8 0 2
-8 0 1
8 0 -1
-8 0 0
8 0 0
-8 0 -1
8 0 1
8 0 2
8 0 4
-8 0 -4
-8 0 -5
8 0 5
8 0 6
-8 0 -6
8 0 8
-8 0 -8
-8 0 -9
8 0 9
-8 0 -11
8 0 11
-8 0 -12
8 0 12
-8 1 5
-8 -1 5
8 -1 -4
-8 1 4
8 1 -3
-8 -1 3
8 -1 -2
8 1 -2
-8 1 2
-8 -1 2
-8 1 1
-8 -1 1
8 -1 -1
8 1 -1
-8 1 0
-8 -1 0
8 -1 0
8 1 0
-8 1 -1
-8 -1 -1
8 -1 1
8 1 1
-8 1 -2
8 -1 2
8 1 2
-8 1 -4
-8 -1 -4
8 -1 4
8 1 4
8 -1 5
8 1 5
-8 1 -5
-8 -1 -5
8 -1 6
8 1 6
-8 1 -6
-8 -1 -6
8 -1 8
8 1 8
-8 1 -8
8 -1 9
8 1 9
-8 1 -9
-8 -1 -9
8 1 10
-8 1 -10
-8 -1 -10
-8 1 -11
-8 -1 -11
8 -1 11
8 1 11
8 -1 12
8 1 12
-8 1 -12
-8 -1 -12
8 2 -4
-8 -2 4
8 -2 -3
8 2 -3
-8 2 3
-8 -2 3
-8 2 2
8 -2 -2
-8 -2 2
8 2 -2
8 -2 -1
8 2 -1
-8 2 1
-8 -2 1
8 -2 0
8 2 0
-8 2 0
-8 -2 0
-8 2 -1
8 -2 1
-8 -2 -1
8 2 1
8 2 3
-8 2 -3
-8 -2 -3
8 -2 4
8 2 4
-8 2 -4
-8 -2 -4
-8 2 -5
8 -2 5
-8 -2 -5
8 2 5
8 -2 6
8 2 6
-8 2 -6
-8 -2 -6
8 -2 7
8 2 7
-8 2 -7
-8 -2 -7
8 -2 8
8 2 8
-8 2 -8
-8 -2 -8
8 2 9
-8 2 -10
-8 -2 -10
8 2 10
8 2 11
8 -2 12
-8 -2 -12
8 2 12
8 3 -4
-8 -3 4
-8 3 4
8 -3 -3
8 3 -3
-8 3 2
8 -3 -2
-8 -3 2
8 3 -2
-8 3 1
8 -3 -1
-8 -3 1
8 3 -1
-8 3 0
8 -3 0
-8 3 -1
8 -3 1
-8 -3 -1
8 3 1
-8 3 -2
8 -3 2
8 3 2
-8 3 -3
8 -3 3
-8 -3 -3
8 -3 4
8 3 4
-8 -3 -4
-8 3 -6
8 -3 6
-8 -3 -6
8 3 6
8 -3 7
8 3 7
-8 3 -7
8 3 8
-8 -3 -8
8 -3 9
8 3 9
-8 3 -9
-8 -3 -9
-8 3 -10
-8 -3 -10
8 3 10
8 -3 11
8 3 11
-8 3 -11
-8 -3 -11
8 4 -3
-8 4 3
-8 -4 3
8 -4 -3
-8 -4 2
8 4 -2
8 -4 -1
8 4 -1
-8 -4 1
-8 4 1
8 -4 0
-8 -4 0
8 4 0
-8 4 0
8 -4 1
8 4 1
-8 -4 -1
8 -4 2
8 4 2
8 -4 3
-8 4 -3
-8 4 -4
8 -4 4
-8 -4 -4
8 4 4
-8 4 -5
8 -4 5
-8 -4 -5
8 4 5
8 -4 6
8 4 6
-8 4 -6
-8 -4 -6
-8 4 -8
8 -4 8
-8 -4 -8
8 4 8
8 -4 10
8 4 10
-8 -5 4
-8 -5 3
8 5 -3
-8 5 2
-8 -5 2
8 5 -2
8 -5 -2
-8 5 1
8 -5 -1
-8 -5 0
8 5 0
-8 5 0
8 -5 0
-8 -5 -1
8 5 1
8 -5 2
8 5 2
-8 5 -2
8 -5 3
8 5 3
-8 5 -3
-8 5 -4
-8 -5 -4
8 5 4
-8 -5 -5
8 5 5
8 -5 6
-8 -5 -6
-8 5 -6
8 5 6
8 -5 7
-8 -5 -7
-8 5 -7
8 5 7
8 -5 8
8 5 8
-8 -5 -8
-8 5 -8
-8 -5 -9
8 5 9
-8 -6 3
-8 -6 2
8 6 -2
-8 -6 1
-8 6 1
8 6 -1
8 -6 -1
-8 6 0
8 -6 0
-8 -6 -1
8 6 1
-8 6 -1
8 -6 1
-8 6 -2
-8 -6 -2
8 6 2
8 -6 2
8 -6 3
8 6 3
-8 -6 -3
-8 6 -3
-8 -6 -4
-8 6 -4
8 6 4
8 -6 4
-8 -6 -5
8 6 5
-8 -6 -6
-8 6 -6
8 6 6
8 -6 6
-8 7 0
-8 -7 0
8 7 0
8 -7 0
-8 -7 -1
8 7 1
8 -7 2
-8 -7 -2
-8 7 -2
-8 -7 -3
-8 7 -3
8 -7 3
9 0 -3
-9 0 3
-9 0 2
9 0 -2
-9 0 0
9 0 0
-9 0 -1
9 0 1
-9 0 -2
9 0 2
9 0 3
-9 0 -3
-9 0 -4
9 0 5
-9 0 -5
-9 0 -6
9 0 6
-9 0 -8
9 0 8
-9 0 -10
9 -1 -3
-9 -1 3
9 -1 -2
-9 1 2
-9 1 1
-9 -1 1
9 -1 -1
9 1 -1
-9 1 0
-9 -1 0
9 -1 0
9 1 0
-9 1 -1
-9 -1 -1
9 -1 1
9 1 1
9 -1 2
9 1 2
-9 1 -2
-9 -1 -2
9 -1 3
9 1 3
-9 1 -3
-9 1 -4
-9 -1 -4
9 1 4
-9 1 -5
-9 -1 -5
9 -1 5
9 1 5
9 -1 6
9 1 6
-9 1 -6
9 -1 7
9 1 7
-9 1 -7
-9 -1 -7
9 -1 8
9 1 8
-9 1 -8
-9 -1 -8
-9 1 -10
-9 -1 -10
-9 2 3
9 2 -2
-9 -2 2
9 -2 -1
9 2 -1
-9 2 1
-9 -2 1
9 -2 0
9 2 0
-9 2 0
-9 -2 0
9 -2 1
9 2 1
-9 2 -1
-9 -2 -1
-9 2 -2
9 -2 2
-9 -2 -2
9 2 2
9 2 3
-9 -2 -3
9 -2 4
9 2 4
-9 -2 -4
-9 2 -5
9 -2 5
-9 -2 -5
9 2 5
9 -2 7
9 2 7
-9 2 -7
-9 -2 -7
-9 2 -8
9 -2 8
-9 -2 -8
9 2 8
9 -2 9
9 2 9
-9 2 -9
-9 -2 -9
-9 -3 3
9 -3 -2
9 3 -2
-9 3 2
-9 -3 2
-9 3 1
9 -3 -1
-9 -3 1
9 3 -1
-9 3 0
9 -3 0
-9 -3 0
9 3 0
9 -3 2
9 3 2
-9 3 -2
-9 -3 -2
-9 3 -3
9 -3 3
-9 -3 -3
9 3 3
9 -3 4
9 3 4
-9 3 -4
-9 -3 -4
-9 3 -6
9 -3 6
-9 -3 -6
9 3 6
9 -3 7
9 3 7
-9 3 -7
-9 -3 -7
9 -3 8
9 3 8
-9 3 -8
9 3 9
-9 -4 2
9 4 -2
-9 -4 1
9 4 -1
-9 4 0
9 -4 0
9 4 0
-9 -4 0
-9 4 -1
9 -4 1
9 4 1
-9 -4 -1
9 4 2
-9 -4 -2
-9 4 -4
9 -4 4
-9 -4 -4
9 4 4
9 4 5
-9 4 -5
-9 -4 -5
-9 4 -7
9 -4 7
-9 -4 -7
9 4 7
-9 -5 2
-9 -5 0
9 5 0
-9 5 0
9 -5 0
9 -5 1
9 5 1
-9 -5 -1
-9 5 -1
-9 -5 -2
-9 5 -2
9 5 2
9 -5 2
9 -5 3
9 5 3
-9 -5 -3
-9 5 -3
-9 -5 -4
9 -5 5
9 5 5
-9 -5 -5
9 6 0
-9 -6 0
9 -6 1
9 6 1
-9 -6 -1
-9 6 -1
9 -6 2
9 6 2
-9 -6 -2
-9 6 -2
-9 6 -3
9 -6 3
10 0 0
-10 0 0
-10 0 -1
10 0 1
10 0 2
-10 0 -2
-10 0 -4
10 0 4
10 0 5
-10 0 -7
10 0 7
10 1 -1
-10 -1 1
10 -1 0
10 1 0
-10 1 0
-10 -1 0
-10 1 -1
-10 -1 -1
10 -1 1
10 1 1
10 -1 2
10 1 2
-10 1 -2
-10 -1 -2
10 -1 4
10 1 4
-10 1 -4
-10 -1 -4
10 -1 5
10 1 5
-10 -1 -5
-10 1 -6
-10 -1 -6
10 -1 6
10 1 6
-10 1 -7
-10 -1 -7
10 -1 7
10 1 7
-10 -2 1
10 -2 0
10 2 0
-10 2 0
-10 -2 0
10 -2 1
10 2 1
-10 2 -1
-10 -2 -1
10 -2 3
10 2 3
-10 2 -3
10 -2 4
10 2 4
-10 2 -4
-10 -2 -4
-10 2 -6
10 -2 6
-10 -2 -6
10 2 6
-10 -3 1
-10 3 0
-10 3 -1
10 -3 1
-10 -3 -1
10 3 1
-10 3 -2
10 -3 2
-10 -3 -2
10 3 2
10 -3 3
10 3 3
-10 3 -3
-10 -3 -3
-10 -3 -4
10 3 4
-10 3 -5
-10 -3 -5
10 4 0
-10 -4 0
10 -4 1
-10 4 -1
-10 -4 -2
10 4 2
10 -4 3
-10 -4 -3
10 4 3
10 -4 4
-11 0 -2
11 0 2
11 0 3
-11 0 -3
-11 1 -2
-11 -1 -2
11 -1 2
11 1 2
11 -1 3
11 1 3
-11 -1 -3
11 2 2
-11 2 -2
loop_
_geom_angle_atom_site_label_1
_geom_angle_atom_site_label_2
_geom_angle_atom_site_label_3
_geom_angle_site_symmetry_1
_geom_angle_site_symmetry_3
_geom_angle
_geom_angle_publ_flag
O21 N12 O22 . . 121.10(9) ?
C1 N12 O22 . . 120.39(7) ?
C1 N12 O21 . . 118.46(8) ?
O11 N11 O12 . . 120.96(8) ?
C1 N11 O12 . . 118.76(8) ?
C1 N11 O11 . . 120.20(9) ?
N21 C2 N22 . . 117.92(8) ?
C1 C2 N22 . . 120.92(9) ?
C1 C2 N21 . . 121.11(8) ?
N11 C1 N12 . . 116.15(8) ?
C2 C1 N12 . . 119.90(7) ?
C2 C1 N11 . . 123.89(9) ?
loop_
_geom_bond_atom_site_label_1
_geom_bond_atom_site_label_2
_geom_bond_site_symmetry_2
_geom_bond_distance
_geom_bond_publ_flag
O12 N11 . 1.2465(12) ?
O11 N11 . 1.2420(10) ?
O22 N12 . 1.2327(10) ?
O21 N12 . 1.2360(10) ?
N12 C1 . 1.4232(13) ?
N11 C1 . 1.3959(11) ?
N22 C2 . 1.3274(11) ?
N21 C2 . 1.3175(15) ?
C2 C1 . 1.4475(12) ?
loop_
_geom_torsion_atom_site_label_1
_geom_torsion_atom_site_label_2
_geom_torsion_atom_site_label_3
_geom_torsion_atom_site_label_4
_geom_torsion_site_symmetry_1
_geom_torsion_site_symmetry_2
_geom_torsion_site_symmetry_3
_geom_torsion_site_symmetry_4
_geom_torsion
_geom_torsion_publ_flag
O12 N11 C1 N12 . . . . -171.80(9) ?
O12 N11 C1 C2 . . . . 5.64(10) ?
O11 N11 C1 N12 . . . . 11.53(9) ?
O11 N11 C1 C2 . . . . -171.03(8) ?
O22 N12 C1 N11 . . . . 34.13(9) ?
O22 N12 C1 C2 . . . . -143.42(8) ?
O21 N12 C1 N11 . . . . -148.17(8) ?
O21 N12 C1 C2 . . . . 34.28(9) ?
N12 C1 C2 N22 . . . . -4.74(10) ?
N12 C1 C2 N21 . . . . 172.86(8) ?
N11 C1 C2 N22 . . . . 177.91(9) ?
N11 C1 C2 N21 . . . . -4.49(11) ?
