#------------------------------------------------------------------------------
#$Date: 2018-01-26 09:54:59 +0200 (Fri, 26 Jan 2018) $
#$Revision: 205698 $
#$URL: file:///home/coder/svn-repositories/cod/cif/2/10/82/2108207.cif $
#------------------------------------------------------------------------------
#
# This file is available in the Crystallography Open Database (COD),
# http://www.crystallography.net/. The original data for this entry
# were provided by IUCr Journals, http://journals.iucr.org/.
#
# The file may be used within the scientific community so long as
# proper attribution is given to the journal article from which the
# data were obtained.
#
data_2108207
loop_
_publ_author_name
'Hutchison, Ian B.'
'Bull, Craig L.'
'Marshall, William G.'
'Parsons, Simon'
'Urquhart, Andrew J.'
'Oswald, Iain D. H.'
_publ_section_title
;
 Compression of glycolide-h~4~ to 6GPa
;
_journal_issue                   6
_journal_name_full               'Acta Crystallographica Section B'
_journal_page_first              1151
_journal_page_last               1157
_journal_paper_doi               10.1107/S2052520617015657
_journal_volume                  73
_journal_year                    2017
_chemical_formula_iupac          C4H4O4
_chemical_formula_moiety         C4H4O4
_chemical_formula_structural     C4H4O4
_chemical_formula_sum            'C4 H4 O4'
_chemical_formula_weight         116.07
_chemical_name_systematic
;
Glycolide
;
_space_group_crystal_system      orthorhombic
_space_group_IT_number           61
_space_group_name_Hall           '-P 2ac 2ab'
_symmetry_space_group_name_Hall  '-P 2ac 2ab'
_symmetry_space_group_name_H-M   'P b c a'
_cell_angle_alpha                90
_cell_angle_beta                 90
_cell_angle_gamma                90
_cell_formula_units_Z            4
_cell_length_a                   4.8571(4)
_cell_length_b                   7.1033(5)
_cell_length_c                   11.4462(10)
_cell_measurement_pressure_gPa   2.574(13)
_cell_measurement_temperature    298
_cell_volume                     394.91(5)
_computing_cell_refinement       'TOPAS Academic'
_computing_data_collection       'ISIS data collection'
_computing_data_reduction        Mantid
_computing_structure_refinement  'TOPAS Academic'
_computing_structure_solution    CSD
_diffrn_ambient_temperature      298
_diffrn_detector                 'ZnS scintillator'
_diffrn_measurement_device_type  'ZnS scintillator'
_diffrn_source                   'Spallation source'
_diffrn_source_target            W
_diffrn_source_type              spallation
_exptl_crystal_density_diffrn    1.952
_exptl_crystal_density_method    'not measured'
_exptl_crystal_F_000             240
_pd_block_diffractogram_id       35tnsprofile
_pd_instr_location
; ISIS neutron and muon Facility, 
Rutherford Appleton Laboratories Harwell,
Didcot,
UK
;
_pd_meas_scan_method             tof
_pd_proc_ls_background_function  'Chebyshev polynomial'
_pd_proc_ls_profile_function     pseudo-Voigt
_pd_proc_ls_prof_R_factor        1.653
_pd_proc_ls_prof_wR_factor       1.621
_refine_ls_goodness_of_fit_all   1.040
_cod_data_source_file            xk5043sup1.cif
_cod_data_source_block           35tns
_cod_depositor_comments
;
The following automatic conversions were performed:
data name '__refine_ls_goodness_of_fit_all' replaced with
'_refine_ls_goodness_of_fit_all'.

Automatic conversion script
Id: cif_correct_tags 4968 2017-02-21 14:55:21Z antanas 
;
_cod_original_sg_symbol_H-M      Pbca
_cod_database_code               2108207
_pd_proc_ls_prof_r_expected      1.558
loop_
_symmetry_equiv_pos_as_xyz
'x, y, z '
'-x, y+1/2, -z+1/2 '
'-x+1/2, -y, z+1/2 '
'-x+1/2, y+1/2, z '
'x, -y+1/2, z+1/2 '
'-x, -y, -z '
'x+1/2, -y+1/2, -z '
'x+1/2, y, -z+1/2 '
loop_
_atom_site_label
_atom_site_type_symbol
_atom_site_symmetry_multiplicity
_atom_site_fract_x
_atom_site_fract_y
_atom_site_fract_z
_atom_site_occupancy
_atom_site_B_iso_or_equiv
O1 O 8 0.336(12) 0.744(9) 0.343(5) 0.5 0.22497
C1 C 8 0.394(5) 0.613(4) 0.4077(12) 0.5 0.22497
O2 O 8 0.248(4) 0.600(4) 0.5065(12) 0.5 0.22497
C3 C 8 0.351(4) 0.503(5) 0.6086(11) 0.5 0.22497
H31 H 8 0.417(11) 0.610(8) 0.671(2) 0.5 0.269964
H32 H 8 0.177(6) 0.426(10) 0.647(5) 0.5 0.269964
C4 C 8 0.598(6) 0.377(5) 0.5892(16) 0.5 0.22497
O4 O 8 0.701(11) 0.290(9) 0.670(3) 0.5 0.22497
O5 O 8 0.730(10) 0.378(9) 0.487(3) 0.5 0.22497
C6 C 8 0.656(4) 0.507(4) 0.3938(10) 0.5 0.22497
H61 H 8 0.630(11) 0.423(9) 0.314(3) 0.5 0.269964
H62 H 8 0.832(6) 0.601(7) 0.381(7) 0.5 0.269964
loop_
_atom_type_symbol
_atom_type_scat_dispersion_real
_atom_type_scat_dispersion_imag
_atom_type_scat_Cromer_Mann_a1
_atom_type_scat_Cromer_Mann_b1
_atom_type_scat_Cromer_Mann_a2
_atom_type_scat_Cromer_Mann_b2
_atom_type_scat_Cromer_Mann_a3
_atom_type_scat_Cromer_Mann_b3
_atom_type_scat_Cromer_Mann_a4
_atom_type_scat_Cromer_Mann_b4
_atom_type_scat_Cromer_Mann_c
_atom_type_scat_source
C 0.0033 0.0016 2.3100 20.8439 1.0200 10.2075 1.5886 0.5687 0.8650 51.6512
0.2156 'International Tables Vol C 4.2.6.8 and 6.1.1.4'
H 0.0000 0.0000 0.4930 10.5109 0.3229 26.1257 0.1402 3.1424 0.0408 57.7998
0.0030 'International Tables Vol C 4.2.6.8 and 6.1.1.4'
O 0.0106 0.0060 3.0485 13.2771 2.2868 5.7011 1.5463 0.3239 0.8670 32.9089
0.2508 'International Tables Vol C 4.2.6.8 and 6.1.1.4'
