#------------------------------------------------------------------------------
#$Date: 2021-09-22 04:47:00 +0300 (Wed, 22 Sep 2021) $
#$Revision: 269240 $
#$URL: file:///home/coder/svn-repositories/cod/cif/2/10/88/2108878.cif $
#------------------------------------------------------------------------------
#
# This file is available in the Crystallography Open Database (COD),
# http://www.crystallography.net/. The original data for this entry
# were provided by IUCr Journals, http://journals.iucr.org/.
#
# The file may be used within the scientific community so long as
# proper attribution is given to the journal article from which the
# data were obtained.
#
data_2108878
loop_
_publ_author_name
'Novelli, Giulia'
'McMonagle, Charles J.'
'Kleemiss, Florian'
'Probert, Michael'
'Puschmann, Horst'
'Grabowsky, Simon'
'Maynard-Casely, Helen E.'
'McIntyre, Garry J.'
'Parsons, Simon'
_publ_section_title
;
 Accurate H-atom parameters for the two polymorphs of
 <small>L</small>-histidine at 5, 105 and 295K
;
_journal_issue                   5
_journal_name_full               'Acta Crystallographica Section B'
_journal_page_first
;
;
_journal_paper_doi               10.1107/S205252062100740X
_journal_volume                  77
_journal_year                    2021
_chemical_absolute_configuration syn
_chemical_formula_moiety         'C6 H9 N3 O2'
_chemical_formula_sum            'C6 H9 N3 O2'
_chemical_formula_weight         155.16
_chemical_name_common            L-histidine
_chemical_name_systematic        '2-Amino-3-(1H-imidazol-4-yl)propanoic acid'
_space_group_crystal_system      monoclinic
_space_group_IT_number           4
_space_group_name_Hall           'P 2yb'
_space_group_name_H-M_alt        'P 1 21 1'
_atom_sites_solution_hydrogens   difmap
_audit_creation_date             2021-01-18
_audit_creation_method
;
Olex2 1.3
(compiled 2020.11.12 svn.r5f609507 for OlexSys, GUI svn.r6226)
;
_cell_angle_alpha                90
_cell_angle_beta                 98.182(10)
_cell_angle_gamma                90
_cell_formula_units_Z            2
_cell_length_a                   5.1854(8)
_cell_length_b                   7.3998(10)
_cell_length_c                   9.4976(12)
_cell_measurement_reflns_used    2412
_cell_measurement_temperature    295
_cell_measurement_theta_max      30.23
_cell_measurement_theta_min      3.50
_cell_volume                     360.72(9)
_computing_cell_refinement       'LaueG (Piltz, 2011)'
_computing_data_collection       'MAATEL/ANSTO control program'
_computing_data_reduction
'argonne_boxes (Wilkinson et al., 1988) & LaueG (Piltz, 2011)'
_computing_molecular_graphics    'Olex2 1.3 (Dolomanov et al., 2009)'
_computing_publication_material  'Olex2 1.3 (Dolomanov et al., 2009)'
_computing_structure_refinement  'XL  (Sheldrick, 2008)'
_computing_structure_solution    'from X-ray model at 295 K'
_diffrn_ambient_temperature      295
_diffrn_measured_fraction_theta_full 0.791
_diffrn_measured_fraction_theta_max 0.791
_diffrn_measurement_details      '32 images, exposure time   0 minutes'
_diffrn_measurement_device       'Laue image-plate diffractometer'
_diffrn_measurement_device_type  KOALA
_diffrn_measurement_method       Laue
_diffrn_radiation_probe          neutron
_diffrn_radiation_type           neutron
_diffrn_radiation_wavelength     0.80
_diffrn_reflns_av_R_equivalents  0.1341
_diffrn_reflns_av_unetI/netI     0.1594
_diffrn_reflns_limit_h_max       8
_diffrn_reflns_limit_h_min       -8
_diffrn_reflns_limit_k_max       12
_diffrn_reflns_limit_k_min       -12
_diffrn_reflns_limit_l_max       14
_diffrn_reflns_limit_l_min       -14
_diffrn_reflns_number            20381
_diffrn_reflns_reduction_process 'LaueG (Piltz, 2011)'
_diffrn_reflns_resolution_max    1.67
_diffrn_reflns_theta_full        71.00
_diffrn_reflns_theta_max         71.09
_diffrn_source                   'nuclear reactor'
_diffrn_source_details           'thermal neutrons, supermirror guides'
_diffrn_source_type
'OPAL reactor, ANSTO, Lucas Heights, Australia'
_exptl_absorpt_coefficient_mu    0.0
_exptl_absorpt_correction_type   none
_exptl_crystal_colour            colourless
_exptl_crystal_density_diffrn    1.428
_exptl_crystal_description       plate
_exptl_crystal_F_000             92
_exptl_crystal_size_max          0.45
_exptl_crystal_size_mid          0.35
_exptl_crystal_size_min          0.30
_refine_diff_density_max         0.77
_refine_diff_density_min         -1.001
_refine_diff_density_rms         0.189
_refine_ls_abs_structure_details
;
Absolute structure known from synthesis
;
_refine_ls_extinction_method     none
_refine_ls_goodness_of_fit_ref   1.106
_refine_ls_hydrogen_treatment    refall
_refine_ls_matrix_type           full
_refine_ls_number_parameters     181
_refine_ls_number_reflns         1354
_refine_ls_number_restraints     1
_refine_ls_restrained_S_all      1.105
_refine_ls_R_factor_all          0.1244
_refine_ls_R_factor_gt           0.0533
_refine_ls_shift/su_max          0.000
_refine_ls_shift/su_mean         0.000
_refine_ls_structure_factor_coef Fsqd
_refine_ls_weighting_details
'w=1/[\s^2^(Fo^2^)+(0.0300P)^2^] where P=(Fo^2^+2Fc^2^)/3'
_refine_ls_weighting_scheme      calc
_refine_ls_wR_factor_gt          0.0628
_refine_ls_wR_factor_ref         0.0746
_reflns_Friedel_coverage         0.000
_reflns_Friedel_fraction_full    0.000
_reflns_Friedel_fraction_max     0.000
_reflns_number_gt                914
_reflns_number_total             1354
_reflns_threshold_expression     'I > 2\s(I)'
_cod_data_source_file            um5050sup1.cif
_cod_data_source_block           HMTN02
_cod_database_code               2108878
_shelx_shelxl_version_number     2017/1
_shelx_space_group_comment
;
The symmetry employed for this shelxl refinement is uniquely defined
by the following loop, which should always be used as a source of
symmetry information in preference to the above space-group names.
They are only intended as comments.
;
_olex2_refinement_description
;
;
_shelx_res_file
;
TITL HMTX13 in P2(1)
    hmtn02.res
    created by SHELXL-2017/1 at 09:44:24 on 18-Jan-2021
CELL 0.8 5.1854 7.3998 9.4976 90 98.182 90
ZERR 2 0.0008 0.001 0.0012 0 0.01 0
LATT -1
SYMM -X,0.5+Y,-Z
NEUT
SFAC  C 0.000 0 0 0 0 0 0 0 6.646 0 0 0 0 12.011
SFAC  H 0.000 0 0 0 0 0 0 0 -3.739 0 0 0 0 1.008
SFAC  N 0.000 0 0 0 0 0 0 0 9.36 0 0 0 0 14.007
SFAC  O 0.000 0 0 0 0 0 0 0 5.803 0 0 0 0 15.999
UNIT 12 18 6 4

L.S. 99
PLAN  1
CONF
BOND
list 4
MORE -1
BOND $H
fmap 2 53
acta
OMIT -1 4 1
OMIT 2 1 10
OMIT 2 0 9
OMIT -1 5 14
OMIT 5 1 8
OMIT 7 1 7
OMIT -1 12 1
OMIT -3 11 2
OMIT -3 7 12
OMIT -3 2 12
OMIT 1 3 10
OMIT 5 3 10
OMIT -1 1 11
OMIT 0 1 10
OMIT 2 4 11
OMIT 0 12 1
OMIT 2 5 12
OMIT -6 5 10
OMIT -3 1 11
OMIT 7 6 2
REM <olex2.extras>
REM <HklSrc "%.\\HMTN02.hkl">
REM </olex2.extras>

WGHT    0.030000
FVAR       0.49518
O2    4    0.314007    0.445157    1.009933    11.00000    0.02773    0.04609 =
         0.03942    0.01681    0.01224    0.00125
O1    4    0.736273    0.442518    1.097557    11.00000    0.03221    0.06602 =
         0.01896    0.00928    0.00379    0.00296
N1    3    0.868544    0.633212    0.876119    11.00000    0.02753    0.02732 =
         0.02021   -0.00200    0.00531   -0.00428
H1A   2    0.937378    0.642292    0.778303    11.00000    0.04071    0.05158 =
         0.03510    0.00350    0.01235   -0.00994
H1B   2    1.008635    0.565293    0.943914    11.00000    0.04084    0.05245 =
         0.03675    0.00259   -0.00096   -0.00319
H1C   2    0.838715    0.761781    0.916716    11.00000    0.05319    0.03419 =
         0.04042   -0.00928    0.00527   -0.00621
N3    3    0.722383    0.446868    0.387682    11.00000    0.04313    0.03713 =
         0.01898    0.00077    0.00774    0.00088
H3    2    0.692273    0.437851    0.277480    11.00000    0.05934    0.05301 =
         0.02683   -0.00232    0.00387    0.00315
N2    3    0.919317    0.519177    0.602560    11.00000    0.03774    0.04099 =
         0.02048   -0.00091    0.00770   -0.00856
C1    1    0.549945    0.470097    1.002168    11.00000    0.02541    0.02835 =
         0.01799    0.00334    0.00701    0.00256
C4    1    0.700762    0.416811    0.615943    11.00000    0.03311    0.02629 =
         0.01929   -0.00145    0.00756   -0.00321
C6    1    0.576608    0.371343    0.483102    11.00000    0.03751    0.03642 =
         0.01959   -0.00298    0.00297   -0.00539
H6    2    0.403189    0.293171    0.450583    11.00000    0.06273    0.07879 =
         0.04649   -0.01025    0.00428   -0.03040
C2    1    0.616849    0.532924    0.856658    11.00000    0.02472    0.02438 =
         0.01645    0.00262    0.00516   -0.00058
H2    2    0.465079    0.625088    0.807109    11.00000    0.03763    0.04433 =
         0.04167    0.01072    0.00618    0.00652
C5    1    0.923360    0.534270    0.463282    11.00000    0.04036    0.04016 =
         0.02358    0.00063    0.01355   -0.00484
H5    2    1.067291    0.610069    0.414856    11.00000    0.06983    0.09121 =
         0.04258    0.00598    0.02581   -0.02785
C3    1    0.633811    0.368179    0.759671    11.00000    0.04595    0.02487 =
         0.02038   -0.00075    0.00901   -0.00716
H3A   2    0.779372    0.273732    0.813894    11.00000    0.09637    0.03987 =
         0.03576    0.00763    0.01781    0.01857
H3B   2    0.445533    0.297890    0.748396    11.00000    0.08218    0.07280 =
         0.04081   -0.01286    0.02102   -0.04855
HKLF 4




REM  HMTX13 in P2(1)
REM R1 =  0.0533 for     914 Fo > 4sig(Fo)  and  0.1244 for all    1354 data
REM    181 parameters refined using      1 restraints

END

WGHT      0.0278      0.0000

REM Highest difference peak  0.774,  deepest hole -1.001,  1-sigma level  0.189
Q1    1   0.4485  0.7624  0.6957  11.00000  0.05    0.77
;
_shelx_res_checksum              84880
_shelx_hkl_file
;
   0   1   1    96.3     2.6
   0   1   2    34.4     2.0
   0   1   3    75.4     3.0
   0   1   4    27.7     0.9
   0   1   5   401.0     4.1
   0   1   6   110.0     2.7
   0   1   7   401.4     7.0
   0   1   8   418.1    11.7
   0   1   9     6.3    15.3
   0   1  10    29.0    49.9
   0   2   1    55.3     1.4
   0   2   3   101.6     4.8
   0   2   5   848.1     8.2
   0   2   7   405.4     6.7
   0   2   9    27.0     9.2
   0   2  11   -19.7    52.0
   0   3   1     4.4     0.7
   0   3   2    29.9     0.9
   0   3   4    49.8     2.0
   0   3   5   148.4     3.2
   0   3   7    88.9     4.1
   0   3   8    75.1     4.5
   0   3  10    50.8    14.7
   0   3  11    12.9    31.1
   0   4   1    91.6     1.5
   0   4   3   361.9     3.5
   0   4   5   569.6     6.4
   0   4   7   118.2     4.3
   0   4   9     6.0     3.8
   0   4  11    16.1    17.7
   0   5   1   124.4     2.1
   0   5   2     1.7     1.3
   0   5   3    71.7     2.2
   0   5   4    71.9     2.5
   0   5   6   303.3     6.7
   0   5   7   113.9     4.1
   0   5   8    55.0     3.6
   0   5   9    43.3     4.3
   0   5  11     5.0     8.4
   0   5  12    52.4    18.6
   0   5  13    19.1    55.1
   0   6   1   317.4     4.5
   0   6   5    23.5     3.4
   0   6   7    56.7     3.8
   0   6  11    22.3     9.2
   0   6  13    21.6    25.0
   0   7   1   151.5     3.1
   0   7   2    42.5     3.0
   0   7   3    41.7     3.2
   0   7   4     1.3     3.0
   0   7   5    39.2     3.5
   0   7   6   107.6     4.4
   0   7   8    91.0     5.4
   0   7   9     3.2     6.3
   0   7  10    22.5     8.3
   0   7  11     7.6    11.6
   0   7  12    -7.5    17.1
   0   8   1    49.5     3.2
   0   8   3    65.3     3.8
   0   8   5    89.4     4.4
   0   8   7    23.3     5.2
   0   8   9    29.8     7.9
   0   8  11    52.5    15.5
   0   9   1    29.9     4.8
   0   9   2     2.6     4.7
   0   9   4    -3.8     4.9
   0   9   5    90.1     6.3
   0   9   7    53.2     7.4
   0   9   8    75.2     9.2
   0   9  10   -15.3    14.9
   0  10   1    -5.7     8.5
   0  10   3    13.4     7.6
   0  10   7    41.9    11.3
   0  10   9    10.8    17.0
   0  11   1    39.2    15.6
   0  11   2    53.2    13.1
   0  11   3     7.5    12.6
   0  11   4     3.7    12.9
   0  11   5   -12.6    13.9
   0  11   6    64.1    15.7
   0  11   7    -5.6    33.0
   0  12   1    91.5    30.9
   1   0 -10   126.8    46.3
   1   0  -9   141.3    23.3
   1   0  -8    58.8     7.6
   1   0  -7    36.8     4.4
   1   0  -6   131.5     3.4
   1   0  -5   185.6     3.4
   1   0  -4    95.2     3.5
   1   0  -3   389.9    23.7
   1   0  -2    22.1     1.3
   1   0  -1    67.8     4.5
   1   0   1   507.6     6.5
   1   0   2   129.0     2.6
   1   0   3     7.2     1.1
   1   0   4   247.6     4.6
   1   0   5     2.3     1.4
   1   0   6    51.8     3.3
   1   0   7   162.2     8.6
   1   0   8   416.5    24.2
   1   0   9   183.7    57.1
   1   1 -11   105.0    61.7
   1   1 -10    78.3    19.0
   1   1  -9    30.2     9.3
   1   1  -8   187.0     6.0
   1   1  -7   304.1     4.8
   1   1  -6   464.5     4.9
   1   1  -5   177.0     2.1
   1   1  -4   555.0     5.2
   1   1  -3   342.6     5.4
   1   1  -2   210.5     3.4
   1   1  -1   170.2     4.1
   1   1   1   265.2     5.2
   1   1   2    14.7     0.5
   1   1   3     5.5     0.6
   1   1   4   839.4     3.8
   1   1   5    39.2     1.3
   1   1   6   106.5     2.2
   1   1   7   160.5     4.7
   1   1   8   456.5    14.1
   1   1   9   134.0    18.1
   1   1  10   129.4    54.7
   1   2 -11    39.1    40.5
   1   2 -10   101.1    15.6
   1   2  -9    32.1     5.3
   1   2  -8   116.0     4.0
   1   2  -7    21.8     2.0
   1   2  -6    59.0     2.4
   1   2  -5   199.7     2.2
   1   2  -4    60.9     1.1
   1   2  -3   149.0     2.3
   1   2  -2   317.0    11.2
   1   2  -1   126.4     1.9
   1   2   0   264.2     4.2
   1   2   1   487.3     5.9
   1   2   2    73.1     1.4
   1   2   3   572.6     3.9
   1   2   4    15.2     1.7
   1   2   5    90.5     3.1
   1   2   6   375.9     5.0
   1   2   7   161.0     4.3
   1   2   8   375.5     8.5
   1   2   9    44.9     9.1
   1   2  10    32.9    21.3
   1   3 -12   -30.9    54.5
   1   3 -11    42.3    19.6
   1   3 -10   122.1     8.7
   1   3  -9   194.4     6.3
   1   3  -8   144.8     3.9
   1   3  -7   962.6     8.3
   1   3  -6   294.9     5.7
   1   3  -5    94.2     2.7
   1   3  -4   209.6     2.8
   1   3  -3    46.6     1.4
   1   3  -2   275.0     4.1
   1   3  -1    27.6     1.1
   1   3   0    18.0     0.9
   1   3   1   339.8     4.3
   1   3   2    88.8     1.6
   1   3   3    56.1     1.2
   1   3   4   182.4     4.8
   1   3   5   373.4     7.4
   1   3   6   375.9     5.2
   1   3   7    71.6     3.0
   1   3   8    -0.2     3.7
   1   3   9   157.7     9.2
   1   3  10    -2.3    14.2
   1   3  11    -8.2    30.9
   1   4 -13    30.6   110.9
   1   4 -12   -26.2    22.7
   1   4 -11    90.2    13.1
   1   4 -10    62.6     7.6
   1   4  -9    75.7     3.7
   1   4  -8    62.3     3.5
   1   4  -7    79.6     3.1
   1   4  -6   132.9     3.5
   1   4  -5    54.5     2.4
   1   4  -4   161.9     3.6
   1   4  -3   125.6     2.5
   1   4  -2   105.6     2.1
   1   4  -1  1077.7     7.7
   1   4   0   131.6     2.3
   1   4   1   368.9     4.8
   1   4   2    93.7     2.1
   1   4   3     5.5     1.6
   1   4   4   142.1     4.6
   1   4   5   229.0     4.5
   1   4   6   136.9     3.4
   1   4   7   412.7     6.1
   1   4   8    45.7     3.6
   1   4   9    58.9     5.4
   1   4  10    30.4    12.9
   1   4  11    80.5    27.4
   1   4  12    86.3    58.7
   1   5 -14   147.8    87.6
   1   5 -13    39.3    41.8
   1   5 -12     4.1    17.9
   1   5 -11    16.3     7.3
   1   5 -10    25.4     5.1
   1   5  -9    85.8     4.3
   1   5  -8    91.9     4.1
   1   5  -7   273.1     5.3
   1   5  -6    91.9     3.5
   1   5  -5    27.1     2.2
   1   5  -4   449.8     5.3
   1   5  -3    37.3     2.6
   1   5  -2   145.7     2.6
   1   5  -1    44.6     1.7
   1   5   0    17.5     1.5
   1   5   1    95.2     2.1
   1   5   2   330.2     4.2
   1   5   3   103.8     2.8
   1   5   4   457.2     6.1
   1   5   5     7.6     2.7
   1   5   6   300.7     5.2
   1   5   7    17.8     3.2
   1   5   8    16.5     3.7
   1   5   9    25.3     4.8
   1   5  10   128.7     8.7
   1   5  11   -21.8    14.8
   1   5  12   -12.7    27.4
   1   6 -13   100.9    19.3
   1   6 -12    25.0    11.9
   1   6 -11    31.5     8.5
   1   6 -10    49.7     6.8
   1   6  -9    51.3     5.1
   1   6  -8     2.6     3.6
   1   6  -7    53.6     3.5
   1   6  -6   130.4     4.0
   1   6  -5    95.1     3.4
   1   6  -4    78.2     3.2
   1   6  -3   297.0     4.7
   1   6  -2   152.4     2.9
   1   6  -1    19.2     1.5
   1   6   0    57.0     1.8
   1   6   1   198.4     3.2
   1   6   2   172.6     3.2
   1   6   3   117.4     3.2
   1   6   4    98.5     3.3
   1   6   5   203.9     4.6
   1   6   6    84.6     3.7
   1   6   7   127.1     4.6
   1   6   8    29.3     4.9
   1   6   9    34.0     6.2
   1   6  10    69.1     9.0
   1   6  11    71.2    13.1
   1   6  12    20.9    17.0
   1   6  13   -14.9    43.6
   1   7 -12    28.8    16.9
   1   7 -11    59.7    11.9
   1   7 -10     4.5     8.1
   1   7  -9    38.1     6.4
   1   7  -8     6.0     4.8
   1   7  -7    23.2     3.8
   1   7  -6    69.0     3.8
   1   7  -5     2.3     3.1
   1   7  -4    88.5     3.7
   1   7  -3   248.4     5.0
   1   7  -2    53.9     2.7
   1   7  -1    47.7     2.4
   1   7   0    35.0     2.3
   1   7   1   116.6     3.0
   1   7   2    24.2     2.7
   1   7   3    24.2     3.3
   1   7   4    67.8     3.7
   1   7   5    33.0     3.3
   1   7   6    20.1     3.7
   1   7   7    57.3     5.1
   1   7   8    32.8     6.3
   1   7   9    86.9     8.8
   1   7  10    79.6    11.2
   1   7  11   -18.4    16.2
   1   7  12    -5.4    24.8
   1   8 -11    27.6    14.7
   1   8 -10    36.7    11.8
   1   8  -9    15.7     8.4
   1   8  -8    70.7     7.1
   1   8  -7    37.4     5.6
   1   8  -6    -7.7     4.5
   1   8  -5    11.7     4.0
   1   8  -4   158.2     4.8
   1   8  -3   150.4     4.7
   1   8  -2    23.4     3.2
   1   8  -1    76.2     3.6
   1   8   0    48.9     3.9
   1   8   1    37.1     3.3
   1   8   2   116.1     4.2
   1   8   3    20.2     3.6
   1   8   4   119.3     5.1
   1   8   5   159.8     5.6
   1   8   6    -0.1     5.2
   1   8   7   164.7     7.7
   1   8   8     8.5     8.0
   1   8   9     8.1    11.0
   1   8  10   -25.7    14.6
   1   8  11   -13.7    21.1
   1   9 -10   -13.4    16.1
   1   9  -9    -4.1    11.4
   1   9  -8     6.6     9.6
   1   9  -7   100.7     8.4
   1   9  -6    17.2     6.9
   1   9  -5    21.0     6.0
   1   9  -4   164.3     6.8
   1   9  -3     8.3     5.0
   1   9  -2     0.7     5.1
   1   9  -1     0.2     5.4
   1   9   0    19.6     6.6
   1   9   1    34.6     5.3
   1   9   2    13.4     5.5
   1   9   3    27.6     5.7
   1   9   4    97.6     7.4
   1   9   5    10.1     6.8
   1   9   6    11.6     7.7
   1   9   7    11.2     9.2
   1   9   8    11.7    12.0
   1   9   9    19.3    15.9
   1   9  10    29.9    20.7
   1  10  -9    -3.2    18.1
   1  10  -8    19.9    14.3
   1  10  -7    12.5    11.6
   1  10  -6    22.4    10.3
   1  10  -5    21.6     9.2
   1  10  -4    -5.7     8.5
   1  10  -3    48.3     8.6
   1  10  -2    50.7     8.4
   1  10  -1     1.1    10.1
   1  10   0    80.8    13.0
   1  10   1    33.4     9.1
   1  10   2    19.1     9.0
   1  10   3    33.6     9.7
   1  10   4    54.7    10.5
   1  10   5    22.0    10.7
   1  10   6    31.3    12.5
   1  10   7   -29.0    14.3
   1  10   8    14.6    18.8
   1  11  -7    12.4    19.1
   1  11  -6    -9.7    16.4
   1  11  -5     9.0    15.2
   1  11  -4    49.8    15.4
   1  11  -3    38.1    14.0
   1  11  -2   -15.6    13.4
   1  11  -1   -26.6    19.1
   1  11   0    60.8    26.9
   1  11   1    11.5    15.5
   1  11   2    20.7    15.8
   1  11   3    25.1    16.8
   1  11   4    17.7    17.7
   1  11   5    25.5    18.7
   1  11   6    25.5    21.1
   1  12  -3    35.7    26.3
   1  12  -2     9.2    25.5
   1  12  -1    64.0    39.7
   1  12   0    -8.7    56.8
   1  12   1     0.4    26.4
   1  12   2    22.4    27.5
   2   0  -9    22.0    11.7
   2   0  -7    14.9     2.8
   2   0  -5   407.1     4.6
   2   0  -3   121.4     3.4
   2   0  -1   207.8     7.8
   2   0   1    49.3     1.8
   2   0   3   513.0     6.9
   2   0   5    -1.2     1.9
   2   0   7   145.4     9.9
   2   0   9   177.9    79.9
   2   1 -10     9.1    18.9
   2   1  -9    88.2     9.5
   2   1  -8   254.9     7.2
   2   1  -7   522.4     6.7
   2   1  -6   126.2     2.5
   2   1  -5    51.7     1.7
   2   1  -4    57.2     1.9
   2   1  -3   121.9     2.0
   2   1  -2   262.7     3.7
   2   1  -1    70.8     1.6
   2   1   0   281.0     3.8
   2   1   1   167.7     3.5
   2   1   2    29.9     1.3
   2   1   3   309.5     3.4
   2   1   4    35.0     1.4
   2   1   5   115.4     2.5
   2   1   6    41.6     3.3
   2   1   7    61.2     7.6
   2   1   8    88.5    41.9
   2   1   9    34.7    31.5
   2   1  10   281.0   121.1
   2   2 -11    14.0    33.6
   2   2  -9    47.7     5.7
   2   2  -7   277.2     4.6
   2   2  -5     0.5     1.4
   2   2  -3    31.2     1.2
   2   2  -1    40.9     1.4
   2   2   1   208.8     2.5
   2   2   3   138.8     2.5
   2   2   5    47.7     2.4
   2   2   7   565.9    10.5
   2   2   9   184.3    21.9
   2   3 -12    25.1    30.0
   2   3 -11    39.3    13.4
   2   3 -10    43.0     6.0
   2   3  -9    29.1     3.7
   2   3  -8    47.5     3.1
   2   3  -7    79.1     3.7
   2   3  -6   293.8     4.8
   2   3  -5   107.6     2.5
   2   3  -4   440.9     3.5
   2   3  -3    36.7     1.4
   2   3  -2   253.9     2.8
   2   3  -1   763.9     5.5
   2   3   0   308.4     3.3
   2   3   1   220.0     3.2
   2   3   2     3.6     1.2
   2   3   3    45.2     1.8
   2   3   4   353.3     5.2
   2   3   5    35.0     2.6
   2   3   6   129.5     4.0
   2   3   7   362.6     6.5
   2   3   8   157.0     7.4
   2   3   9    21.7    10.5
   2   3  10    18.3    22.5
   2   3  11    69.3    74.8
   2   4 -13   130.5    84.2
   2   4 -11    22.9     8.8
   2   4  -9   151.3     4.6
   2   4  -7    85.1     3.6
   2   4  -5   499.5     6.6
   2   4  -3    92.4     2.0
   2   4  -1   152.3     2.8
   2   4   1    16.3     1.3
   2   4   3   128.0     3.1
   2   4   5    23.9     3.1
   2   4   7    91.4     3.8
   2   4   9    54.1     7.2
   2   4  11    91.7    29.6
   2   5 -14     3.3   126.5
   2   5 -13    82.0    26.3
   2   5 -12     3.5    11.1
   2   5 -11   153.3     8.9
   2   5 -10    47.9     5.8
   2   5  -9    37.7     4.4
   2   5  -8   126.4     4.3
   2   5  -7   116.4     4.1
   2   5  -6   146.7     4.2
   2   5  -5   340.6     5.8
   2   5  -4    28.7     2.2
   2   5  -3   342.3     4.3
   2   5  -2    22.4     1.5
   2   5  -1   403.5     4.5
   2   5   0    68.0     2.1
   2   5   1   221.2     3.4
   2   5   2    50.1     2.3
   2   5   3    27.1     2.6
   2   5   4     6.9     2.8
   2   5   5    99.5     3.9
   2   5   6    -0.8     3.3
   2   5   7   130.2     4.2
   2   5   8    36.8     4.3
   2   5   9    59.3     5.8
   2   5  10    70.7     9.0
   2   5  11     0.1    29.8
   2   5  12    72.2    66.3
   2   5  13  -126.0   197.7
   2   6 -13    77.8    19.7
   2   6 -11    41.3     9.3
   2   6  -9   225.9     6.5
   2   6  -7    26.0     3.2
   2   6  -5    72.4     3.2
   2   6  -3   290.6     4.7
   2   6  -1   266.5     3.5
   2   6   1    39.3     3.0
   2   6   3     8.9     2.9
   2   6   5    74.3     3.7
   2   6   7    76.1     4.4
   2   6   9    14.3     7.4
   2   6  11    34.9    15.6
   2   7 -12   -17.1    18.7
   2   7 -11   123.7    13.3
   2   7 -10     7.2     9.2
   2   7  -9    14.2     6.7
   2   7  -8    37.4     5.3
   2   7  -7    63.8     4.5
   2   7  -6    20.8     3.5
   2   7  -5    35.8     3.3
   2   7  -4   386.3     6.8
   2   7  -3   185.8     4.1
   2   7  -2    35.3     2.7
   2   7  -1    12.7     2.1
   2   7   0    -0.2     2.3
   2   7   1    48.4     3.2
   2   7   2    80.0     3.8
   2   7   3     3.2     3.1
   2   7   4   137.1     4.4
   2   7   5    19.3     3.6
   2   7   6    12.0     4.4
   2   7   7    -0.6     5.2
   2   7   8    22.8     7.2
   2   7   9     2.7     9.3
   2   7  10    56.4    13.6
   2   7  11     8.3    20.0
   2   8 -11    48.8    17.0
   2   8  -9     8.1     9.0
   2   8  -7    19.2     5.9
   2   8  -5    10.0     4.7
   2   8  -3   125.5     4.5
   2   8  -1    19.0     3.4
   2   8   1    12.6     3.7
   2   8   3    10.6     4.5
   2   8   5    50.8     5.3
   2   8   7    10.6     7.5
   2   8   9    46.6    13.1
   2   9 -10    -6.3    17.2
   2   9  -9    26.6    13.0
   2   9  -8    38.7    10.5
   2   9  -7     1.4     8.5
   2   9  -6   -17.5     7.3
   2   9  -5    -8.1     6.6
   2   9  -4    54.9     6.6
   2   9  -3     3.3     6.1
   2   9  -2    18.6     5.7
   2   9  -1    -0.3     6.2
   2   9   0    34.9     5.6
   2   9   1    15.4     5.8
   2   9   2    20.0     5.9
   2   9   3    17.5     6.0
   2   9   4    72.7     7.7
   2   9   5    -3.6     7.4
   2   9   6    12.7     8.8
   2   9   7     8.0    10.5
   2   9   8    20.3    13.7
   2   9   9    23.9    19.3
   2  10  -7    13.5    13.6
   2  10  -5     6.9    10.8
   2  10  -3    -4.1    10.1
   2  10  -1    13.1    14.6
   2  10   1    19.5     8.8
   2  10   3    20.1    10.2
   2  10   5    16.3    11.7
   2  10   7     5.1    17.9
   2  11  -6    23.3    20.5
   2  11  -5   -22.8    17.9
   2  11  -4    32.9    17.6
   2  11  -3    10.6    15.2
   2  11  -2    15.5    17.9
   2  11  -1    16.5    27.0
   2  11   0    18.7    19.8
   2  11   1    28.2    15.3
   2  11   2    -7.3    14.9
   2  11   3     9.4    17.2
   2  11   4    14.5    17.6
   2  11   5    11.6    19.9
   3   0 -10    45.0    24.2
   3   0  -8   299.9    12.1
   3   0  -7   979.8    11.9
   3   0  -5    18.4     2.1
   3   0  -4    -0.8     2.1
   3   0  -2    62.9     2.9
   3   0  -1   150.9     3.6
   3   0   1   360.5     6.6
   3   0   2   236.1     6.6
   3   0   4    32.3     2.3
   3   0   5   662.6    13.5
   3   0   7   197.5    17.3
   3   0   8    18.6    32.4
   3   1 -11    34.9    32.2
   3   1 -10    48.5    17.0
   3   1  -9    35.9     7.2
   3   1  -8     9.0     3.7
   3   1  -7   292.3     4.7
   3   1  -6   107.5     2.2
   3   1  -5    18.0     1.3
   3   1  -4   735.9     5.3
   3   1  -3     0.7     0.9
   3   1  -2   244.2     3.1
   3   1  -1   122.2     2.3
   3   1   0   482.2     4.2
   3   1   1    27.5     1.3
   3   1   2    27.2     1.4
   3   1   3   291.5     3.1
   3   1   4   262.0     3.6
   3   1   5     2.7     2.1
   3   1   6    68.2     4.3
   3   1   7   148.5    10.9
   3   1   8    61.4    15.0
   3   1   9     6.8    63.0
   3   2 -12   -16.9    92.6
   3   2 -11    73.4    20.2
   3   2 -10    20.7    10.5
   3   2  -9    53.3     5.2
   3   2  -8   256.9     5.4
   3   2  -7   177.6     3.7
   3   2  -6    55.0     2.4
   3   2  -5   182.3     3.0
   3   2  -4   180.2     2.5
   3   2  -3   150.1     2.5
   3   2  -2     6.0     1.2
   3   2  -1    30.1     1.3
   3   2   0   265.7     4.0
   3   2   1   157.0     2.8
   3   2   2    34.0     1.3
   3   2   3   288.0     4.0
   3   2   4   114.7     3.0
   3   2   5   131.4     3.2
   3   2   6   180.1     4.6
   3   2   7   171.8     7.8
   3   2   8   127.8    16.0
   3   2   9    67.5    30.6
   3   3 -14    92.9   170.8
   3   3 -13   154.1    65.3
   3   3 -11    -3.8    12.2
   3   3 -10    13.7     5.2
   3   3  -8    12.0     3.0
   3   3  -7   125.1     3.7
   3   3  -5   452.7     6.0
   3   3  -4   337.7     4.0
   3   3  -2    10.5     1.3
   3   3  -1     6.8     1.1
   3   3   1    96.9     2.0
   3   3   2   110.7     2.3
   3   3   4   626.6     7.1
   3   3   5     4.4     2.6
   3   3   7    40.4     4.7
   3   3   8    13.3     6.3
   3   3  10    37.6    28.5
   3   3  11  -183.8   103.1
   3   4 -14    34.9    68.0
   3   4 -13   -46.4    30.6
   3   4 -12   152.8    15.8
   3   4 -11    35.5     7.1
   3   4 -10    34.3     5.2
   3   4  -9    60.3     4.2
   3   4  -8   117.6     4.0
   3   4  -7    11.8     3.0
   3   4  -6    88.4     3.7
   3   4  -5   281.9     4.3
   3   4  -4   276.3     4.1
   3   4  -3   276.0     3.8
   3   4  -2    54.0     1.9
   3   4  -1    93.0     2.3
   3   4   0    48.4     1.7
   3   4   1     1.8     1.5
   3   4   2   236.8     4.7
   3   4   3   144.9     3.8
   3   4   4    21.8     2.8
   3   4   5    37.7     3.4
   3   4   6    40.9     3.1
   3   4   7    64.1     3.8
   3   4   8    51.7     4.9
   3   4   9    -2.5    10.1
   3   4  10    23.4    19.7
   3   4  11    25.8    51.0
   3   5 -13   124.3    20.9
   3   5 -12   -14.3    11.4
   3   5 -11    59.5     8.3
   3   5 -10    50.2     5.9
   3   5  -9   231.6     6.3
   3   5  -8    50.9     3.7
   3   5  -7    15.8     3.0
   3   5  -6    24.2     3.1
   3   5  -5   131.8     4.1
   3   5  -4    50.2     2.7
   3   5  -3   123.2     3.0
   3   5  -2    50.3     2.0
   3   5  -1   402.3     4.3
   3   5   0   240.1     3.3
   3   5   1    76.7     2.5
   3   5   2   148.6     3.7
   3   5   3    42.7     3.1
   3   5   4    51.1     3.4
   3   5   5    41.4     3.6
   3   5   6   136.8     4.2
   3   5   7   136.6     5.1
   3   5   8     5.0     5.1
   3   5   9    14.9     7.0
   3   5  10    20.7    10.7
   3   5  11    28.1    24.3
   3   5  12    56.2    51.1
   3   6 -13    24.9    23.7
   3   6 -11   169.6    11.1
   3   6 -10    37.9     7.1
   3   6  -8   219.9     6.0
   3   6  -7    51.7     3.7
   3   6  -5    60.5     3.2
   3   6  -4    11.7     3.1
   3   6  -2    77.3     2.5
   3   6  -1    13.3     2.0
   3   6   1    25.0     3.0
   3   6   2     2.0     2.9
   3   6   4    23.1     3.4
   3   6   5    18.8     3.3
   3   6   7    58.3     5.4
   3   6   8    54.1     7.2
   3   6  10    79.7    14.1
   3   6  11    14.0    20.0
   3   7 -12    55.9    19.9
   3   7 -11    47.9    13.3
   3   7 -10    41.6     9.7
   3   7  -9   138.0     8.2
   3   7  -8    84.2     6.2
   3   7  -7     6.3     4.5
   3   7  -6    58.1     4.2
   3   7  -5    14.3     3.5
   3   7  -4    72.0     3.6
   3   7  -3    74.1     3.5
   3   7  -2    15.9     2.6
   3   7  -1   139.7     3.0
   3   7   0   163.0     3.7
   3   7   1    31.4     3.3
   3   7   2    10.4     3.4
   3   7   3    33.7     3.6
   3   7   4    66.6     4.3
   3   7   5    44.9     4.7
   3   7   6     5.6     5.6
   3   7   7    17.8     6.9
   3   7   8    53.5     9.4
   3   7   9    57.3    13.4
   3   7  10    -4.3    17.1
   3   8 -11     5.3    19.8
   3   8 -10    21.5    13.8
   3   8  -9    15.9    10.2
   3   8  -8    68.5     8.7
   3   8  -7    19.4     6.2
   3   8  -6    20.4     5.6
   3   8  -5     5.9     4.7
   3   8  -4    15.8     4.5
   3   8  -3     6.4     4.3
   3   8  -2    42.6     4.4
   3   8  -1    11.2     3.7
   3   8   0    12.0     4.0
   3   8   1     6.7     4.3
   3   8   2    34.3     4.5
   3   8   3    -2.2     4.9
   3   8   4    42.8     5.4
   3   8   5    35.6     6.3
   3   8   6    10.4     7.5
   3   8   7    20.6     9.6
   3   8   8    49.0    12.7
   3   8   9     8.7    16.1
   3   9  -8    20.4    12.3
   3   9  -7    24.4    10.2
   3   9  -5    13.1     8.1
   3   9  -4    49.3     7.4
   3   9  -2    -3.1     6.3
   3   9  -1    17.4     5.9
   3   9   1     9.5     6.5
   3   9   2    18.5     7.0
   3   9   4    57.3     8.6
   3   9   5    10.4     9.3
   3   9   7    37.1    14.3
   3   9   8    22.3    16.8
   3  10  -8    42.5    19.7
   3  10  -7     3.9    16.9
   3  10  -6    13.4    14.9
   3  10  -5     8.4    13.4
   3  10  -4     3.9    12.9
   3  10  -3    59.8    12.4
   3  10  -2    32.3    11.3
   3  10  -1    28.0    12.0
   3  10   0    26.2    10.4
   3  10   1    12.4    10.9
   3  10   2     3.1    10.9
   3  10   3    -9.9    12.1
   3  10   4    -3.3    13.0
   3  10   5    40.9    15.1
   3  10   6    65.8    18.5
   3  11  -5    33.3    22.7
   3  11  -4    33.6    21.6
   3  11  -3    10.7    20.9
   3  11  -2    59.6    19.9
   3  11  -1    23.2    23.8
   3  11   0     7.1    19.1
   3  11   1    30.6    18.7
   3  11   2    -2.0    20.7
   3  11   3    77.0    21.3
   4   0  -9     2.1     9.9
   4   0  -7    58.2     3.3
   4   0  -5    29.2     2.6
   4   0  -3   384.6     6.6
   4   0  -1    46.3     2.0
   4   0   1    33.0     2.4
   4   0   3    72.0     2.7
   4   0   5     5.2     5.4
   4   0   7    15.0    99.2
   4   1 -12   219.5    98.1
   4   1 -11   -51.2    35.3
   4   1 -10    60.7    15.9
   4   1  -9   112.8     7.6
   4   1  -8    14.8     3.2
   4   1  -7   432.3     4.9
   4   1  -6   323.9     3.9
   4   1  -5   190.8     2.9
   4   1  -4   603.8     5.5
   4   1  -3   138.6     2.5
   4   1  -2   282.6     4.0
   4   1  -1    22.0     1.5
   4   1   0    10.0     1.5
   4   1   1  1050.0     8.1
   4   1   2   106.5     2.3
   4   1   3   136.4     2.6
   4   1   4   352.3     4.4
   4   1   5    68.9     3.7
   4   1   6   155.7     7.7
   4   1   7    20.7    12.1
   4   1   8    23.1    25.3
   4   2 -13   -45.5   120.3
   4   2 -11    68.9    20.3
   4   2  -9    22.9     4.3
   4   2  -7   192.7     4.2
   4   2  -5    11.1     2.0
   4   2  -3     7.5     1.6
   4   2  -1   187.8     3.1
   4   2   1     5.4     1.5
   4   2   3    45.8     2.7
   4   2   5    26.8     3.0
   4   2   7     1.7     7.9
   4   2   9    11.2    43.8
   4   3 -13    52.9    74.5
   4   3 -12    83.0    27.3
   4   3 -11    19.6     9.5
   4   3 -10    39.1     6.1
   4   3  -9   119.9     5.7
   4   3  -8    60.4     4.0
   4   3  -7   231.6     5.4
   4   3  -6    52.6     3.2
   4   3  -5    71.1     2.5
   4   3  -4   192.1     3.0
   4   3  -3    47.3     2.0
   4   3  -2   286.0     3.7
   4   3  -1   263.0     3.4
   4   3   0    85.6     2.1
   4   3   1   162.5     2.6
   4   3   2    22.4     2.1
   4   3   3   175.2     3.9
   4   3   4   222.0     4.7
   4   3   5     2.2     3.1
   4   3   6   178.2     4.9
   4   3   7    38.9     5.3
   4   3   8    19.4    11.5
   4   3   9   -98.8    34.2
   4   3  10    20.2    66.1
   4   4 -13    43.9    22.8
   4   4 -11   -16.7     8.8
   4   4  -9     7.2     4.9
   4   4  -7    43.5     3.8
   4   4  -5    64.3     2.7
   4   4  -3     1.9     1.8
   4   4  -1    87.5     2.5
   4   4   1     1.2     1.8
   4   4   3    29.8     2.7
   4   4   5    13.7     3.4
   4   4   7    23.2     5.3
   4   4   9   113.4    12.7
   4   4  11   -11.7    57.6
   4   5 -13     7.6    20.4
   4   5 -12     2.3    13.8
   4   5 -11     2.9     9.8
   4   5 -10    20.8     7.6
   4   5  -9   130.2     7.2
   4   5  -8    27.9     4.7
   4   5  -7    58.0     4.2
   4   5  -6    35.2     3.5
   4   5  -5    72.1     3.6
   4   5  -4    90.5     3.0
   4   5  -3    19.9     2.1
   4   5  -2    16.5     2.1
   4   5  -1    71.0     2.4
   4   5   0    66.0     2.8
   4   5   1   101.2     3.2
   4   5   2    39.9     3.1
   4   5   3   119.0     4.3
   4   5   4    87.8     4.2
   4   5   5     3.7     4.3
   4   5   6     6.0     4.9
   4   5   7    26.8     6.1
   4   5   8    44.8     7.9
   4   5   9     0.1    10.2
   4   5  10     7.8    15.0
   4   5  11    19.9    43.3
   4   6 -11   -19.7    12.1
   4   6  -9    -6.2     6.9
   4   6  -7    58.0     5.1
   4   6  -5    25.2     3.6
   4   6  -3     4.6     2.6
   4   6  -1    60.3     2.6
   4   6   1     9.7     3.0
   4   6   3     6.8     3.8
   4   6   5    -3.4     4.9
   4   6   7    38.1     7.1
   4   6   9    10.9    12.3
   4   7 -11    28.3    14.9
   4   7 -10    30.6    10.9
   4   7  -9    52.1     8.8
   4   7  -8    43.0     6.8
   4   7  -7    11.0     6.0
   4   7  -6    30.8     5.5
   4   7  -5    43.7     5.0
   4   7  -4    23.8     4.4
   4   7  -3     4.2     3.8
   4   7  -2    50.9     3.5
   4   7  -1    40.4     3.6
   4   7   0    30.2     4.1
   4   7   1     9.9     4.0
   4   7   2    27.4     4.9
   4   7   3    65.4     5.4
   4   7   4    34.1     5.6
   4   7   5    45.6     6.4
   4   7   6    15.2     7.1
   4   7   7     3.9     8.7
   4   7   8     5.8    11.3
   4   7   9    -6.5    15.8
   4   8  -9    24.2    11.1
   4   8  -7   100.9     8.6
   4   8  -5    25.1     6.8
   4   8  -3    72.0     6.2
   4   8  -1     5.6     5.1
   4   8   1    14.8     6.3
   4   8   3   -10.7     6.7
   4   8   5    23.8     8.0
   4   8   7    -3.2    11.6
   4   9  -8    10.5    13.7
   4   9  -7    46.2    11.7
   4   9  -6    10.6    10.2
   4   9  -5    23.3     9.6
   4   9  -4     8.3     9.1
   4   9  -3    61.3     9.0
   4   9  -2   138.6     8.7
   4   9  -1    11.4     7.9
   4   9   0    33.8     9.3
   4   9   1    12.7     9.7
   4   9   2   -21.0     9.2
   4   9   3     2.4     8.9
   4   9   4   -10.6    10.0
   4   9   5    45.1    11.8
   4   9   6    19.1    14.1
   4  10  -5   -11.2    15.4
   4  10  -3   -13.1    14.4
   4  10  -1    -0.3    12.9
   4  10   1    -7.3    14.1
   4  10   3    33.9    14.7
   5   0 -11    65.5    45.4
   5   0  -9    65.1     7.9
   5   0  -8     5.8     4.8
   5   0  -7    15.4     3.3
   5   0  -6   209.3     4.6
   5   0  -4   199.8     4.6
   5   0  -3   258.0     5.8
   5   0  -2   318.8     6.1
   5   0  -1    49.7     3.4
   5   0   1   130.8     4.1
   5   0   2    17.3     2.7
   5   0   3    12.2     2.8
   5   0   4    45.0     4.8
   5   0   6   -46.0    15.9
   5   0   7    -0.8    41.2
   5   1 -12    75.1    64.7
   5   1 -11   111.7    26.9
   5   1 -10    92.9    10.6
   5   1  -9    56.9     5.2
   5   1  -8    80.4     4.0
   5   1  -7    73.2     3.0
   5   1  -6    47.8     2.3
   5   1  -5    88.6     2.4
   5   1  -4    62.1     2.0
   5   1  -3   152.2     2.9
   5   1  -2    51.6     2.1
   5   1  -1    12.2     1.8
   5   1   0   154.2     2.9
   5   1   1    13.5     1.7
   5   1   2   321.4     3.7
   5   1   3    27.0     2.3
   5   1   4    -1.3     2.9
   5   1   5    31.5     4.7
   5   1   6    -4.6     9.1
   5   1   7   -15.4    18.3
   5   1   8   129.8    87.1
   5   2 -13   223.0   102.8
   5   2 -12    -8.5    37.3
   5   2 -11    27.7    13.3
   5   2 -10    42.8     7.4
   5   2  -9    21.7     5.6
   5   2  -8     7.7     4.2
   5   2  -7    19.0     3.0
   5   2  -6   108.3     2.8
   5   2  -5   314.3     3.8
   5   2  -4    15.2     2.0
   5   2  -3   145.3     2.8
   5   2  -2   136.6     2.5
   5   2  -1     5.2     1.7
   5   2   0    69.1     2.1
   5   2   1    68.5     2.3
   5   2   2    20.3     2.0
   5   2   3    62.0     3.0
   5   2   4    24.1     3.6
   5   2   5    55.3     4.5
   5   2   6    25.5     6.5
   5   2   7    18.2    13.2
   5   2   8   -26.0    43.1
   5   2   9    -2.9    97.0
   5   3 -13    -6.5    88.0
   5   3 -12    -5.1    15.9
   5   3 -11    12.6    10.7
   5   3 -10    20.8     8.6
   5   3  -9    34.3     6.9
   5   3  -8   117.7     5.9
   5   3  -7    45.8     4.1
   5   3  -6    18.4     2.8
   5   3  -5    66.5     2.7
   5   3  -4    53.9     2.4
   5   3  -3     3.4     2.0
   5   3  -2    15.6     2.1
   5   3  -1    48.7     2.2
   5   3   0   233.4     3.5
   5   3   1    68.4     2.4
   5   3   2   135.2     3.4
   5   3   3    49.9     3.4
   5   3   4    -2.9     3.7
   5   3   5    -2.3     5.1
   5   3   6   114.7     7.3
   5   3   7    10.4     7.5
   5   3   8    66.1    17.5
   5   3   9    61.5    46.0
   5   3  10  -181.0   113.7
   5   4 -12    55.7    16.9
   5   4 -11    19.8    14.2
   5   4 -10   -20.6     9.9
   5   4  -9    19.8     8.2
   5   4  -8    84.1     6.5
   5   4  -7    32.6     5.0
   5   4  -6    41.1     3.7
   5   4  -5    31.8     2.9
   5   4  -4    62.3     2.7
   5   4  -3    57.4     2.5
   5   4  -2    14.3     2.2
   5   4  -1   182.6     3.3
   5   4   0    21.5     2.3
   5   4   1     6.6     2.7
   5   4   2    15.7     3.1
   5   4   3    11.8     3.8
   5   4   4    95.4     5.4
   5   4   5    26.0     5.9
   5   4   6    14.4     6.6
   5   4   7   116.5     9.6
   5   4   8    50.1    10.9
   5   4   9    -5.3    18.8
   5   4  10     5.3    43.6
   5   5 -12     0.8    19.4
   5   5 -11   -25.4    13.9
   5   5  -9    28.5     9.0
   5   5  -8    37.7     7.3
   5   5  -7    43.3     6.2
   5   5  -6    62.2     5.4
   5   5  -4     4.0     3.0
   5   5  -3    27.3     2.9
   5   5  -2    20.6     2.7
   5   5  -1    18.0     2.6
   5   5   1    15.6     3.4
   5   5   2    28.3     4.1
   5   5   3   102.0     5.3
   5   5   4    15.5     5.4
   5   5   6    60.3     8.3
   5   5   7    10.5     9.1
   5   5   8    -4.7    13.1
   5   5   9    42.6    18.6
   5   6 -11    32.5    17.4
   5   6 -10    10.9    12.7
   5   6  -9    40.7    10.4
   5   6  -8   132.6     9.8
   5   6  -7    28.1     7.3
   5   6  -6    46.6     6.3
   5   6  -5    25.5     5.5
   5   6  -4     5.1     4.4
   5   6  -3    28.0     3.9
   5   6  -2     2.4     3.6
   5   6  -1    30.5     3.8
   5   6   0    67.8     4.2
   5   6   1    20.2     4.8
   5   6   2    51.5     5.7
   5   6   3    83.5     6.1
   5   6   4    24.5     6.6
   5   6   5    -0.1     8.0
   5   6   6    17.3     9.5
   5   6   7    14.8    12.8
   5   6   8     3.5    17.6
   5   7 -10     0.0    17.2
   5   7  -9    43.4    13.7
   5   7  -8    31.0    10.2
   5   7  -7     5.6     8.8
   5   7  -6    40.2     8.8
   5   7  -5    27.7     7.7
   5   7  -4     6.7     6.4
   5   7  -3    18.8     5.6
   5   7  -2    62.7     5.4
   5   7  -1    76.0     5.5
   5   7   0    25.9     5.8
   5   7   1    32.9     6.5
   5   7   2    48.4     7.1
   5   7   3    18.3     8.0
   5   7   4    -8.9     9.6
   5   7   5    39.3    10.6
   5   7   6    84.9    13.5
   5   7   7     9.2    16.3
   5   8  -8     5.7    14.5
   5   8  -7    37.5    12.8
   5   8  -6    71.7    11.8
   5   8  -5     0.4     9.9
   5   8  -4    42.5     8.6
   5   8  -3    21.5     7.9
   5   8  -2    39.1     7.2
   5   8  -1    31.7     7.6
   5   8   0    27.7     9.2
   5   8   1    45.9    10.2
   5   8   2    16.9    10.2
   5   8   3    14.7    11.1
   5   8   4    43.1    12.9
   5   8   5   -23.1    14.3
   5   8   6    29.7    18.0
   5   9  -6    20.9    17.4
   5   9  -5    12.5    16.1
   5   9  -4     6.4    14.8
   5   9  -3    21.4    13.1
   5   9  -2    49.5    11.3
   5   9  -1    23.8    12.4
   5   9   0     2.5    15.2
   5   9   1    35.6    14.2
   5   9   2    -7.8    16.2
   5   9   3    21.2    16.5
   5   9   4     5.4    18.2
   5  10  -2    35.4    17.5
   5  10  -1    27.2    21.3
   6   0 -11    47.4    33.7
   6   0  -7     7.5     5.4
   6   0  -5    13.1     3.8
   6   0  -1     3.4     2.9
   6   0   1    28.7     3.7
   6   0   5   -25.7    13.3
   6   0   7  -159.9    86.4
   6   1 -12    17.3    37.0
   6   1 -11    57.1    15.2
   6   1 -10    29.1    10.5
   6   1  -9    69.8     7.6
   6   1  -8    16.8     4.7
   6   1  -7    18.9     3.8
   6   1  -6    47.2     3.4
   6   1  -5    58.5     3.0
   6   1  -4    27.5     2.5
   6   1  -3    40.9     2.4
   6   1  -2    17.3     2.2
   6   1  -1     4.9     2.2
   6   1   0    33.3     2.5
   6   1   1    23.5     2.7
   6   1   2    13.6     2.9
   6   1   3     6.5     3.5
   6   1   4    20.2     5.1
   6   1   5    -3.4     7.3
   6   1   6    -4.0    11.5
   6   1   7     5.8    28.7
   6   1   8    65.6    83.5
   6   2 -11    16.1    14.5
   6   2  -9    10.5     7.4
   6   2  -7    26.0     4.0
   6   2  -5    53.0     3.1
   6   2  -3    36.2     2.7
   6   2  -1    99.4     3.0
   6   2   1    16.1     2.8
   6   2   3    11.7     4.3
   6   2   5    13.9     7.1
   6   2   7     0.7    16.3
   6   3 -11    42.5    18.3
   6   3 -10    -3.4    12.3
   6   3  -8    38.8     6.7
   6   3  -7    34.6     4.6
   6   3  -5    27.6     3.5
   6   3  -4    85.5     3.6
   6   3  -2    14.0     3.0
   6   3  -1    35.5     3.0
   6   3   1    46.7     3.4
   6   3   2    43.1     4.2
   6   3   4    40.3     6.4
   6   3   5    -3.0     7.6
   6   3   7    23.3    13.5
   6   3   8    11.8    25.5
   6   4 -11    19.4    19.4
   6   4  -9    24.7    11.0
   6   4  -7    43.6     6.4
   6   4  -5   148.1     4.7
   6   4  -3    16.7     3.8
   6   4  -1    24.9     3.6
   6   4   1    29.4     4.0
   6   4   3    47.3     6.5
   6   4   5    19.1    10.3
   6   4   7    21.1    15.9
   6   5 -10    44.8    20.8
   6   5  -9    13.9    14.6
   6   5  -8   130.2    12.3
   6   5  -7    22.7     8.7
   6   5  -6     8.7     6.5
   6   5  -5    19.9     5.1
   6   5  -4    91.6     5.0
   6   5  -3     3.9     4.3
   6   5  -2     1.8     4.2
   6   5  -1    57.4     4.5
   6   5   0   163.9     5.2
   6   5   1    18.3     5.4
   6   5   2    20.3     6.6
   6   5   3    90.3     8.9
   6   5   4    65.4    10.1
   6   5   5    25.5    12.3
   6   5   6    28.2    13.0
   6   5   7    68.1    19.2
   6   6  -7    24.6    13.9
   6   6  -5    19.0     7.5
   6   6  -1   113.8     6.2
   6   6   1     4.2     7.6
   6   6   5    10.7    14.0
   6   7  -8    40.6    18.6
   6   7  -7    22.1    17.1
   6   7  -6     4.5    14.3
   6   7  -5   -11.5    11.7
   6   7  -4    14.4     9.4
   6   7  -3    10.3     8.7
   6   7  -2     8.1     8.2
   6   7  -1    53.4     8.7
   6   7   0    18.4     9.3
   6   7   1    32.3    11.9
   6   7   2    23.7    12.5
   6   7   3    13.9    15.1
   6   7   4   -16.0    14.3
   6   7   5    22.5    17.6
   6   8  -5   -12.1    17.2
   6   8  -3    14.8    13.0
   6   8  -1   -17.0    12.5
   6   8   1    51.6    16.3
   6   8   3    26.7    17.7
   7   0 -10    26.6    18.1
   7   0  -9    -1.2    13.9
   7   0  -8    10.2    11.6
   7   0  -6    49.6     7.9
   7   0  -5    23.9     6.7
   7   0  -4    -0.5     5.7
   7   0  -3    -2.4     5.2
   7   0  -2   -11.1     4.9
   7   0  -1   -10.4     5.1
   7   0   1     3.8     6.6
   7   0   2    26.2     7.7
   7   0   3     3.7     8.9
   7   0   4     9.2    10.8
   7   0   5     6.1    16.8
   7   0   6     4.9    53.4
   7   1 -10    13.6    15.6
   7   1  -9    16.0    10.2
   7   1  -8     6.5     7.7
   7   1  -7    46.1     6.6
   7   1  -6    47.3     5.6
   7   1  -5    15.0     4.7
   7   1  -4    31.1     4.2
   7   1  -3    40.6     4.0
   7   1  -2     4.8     3.9
   7   1  -1    12.8     3.9
   7   1   0    29.6     4.2
   7   1   1    14.6     4.7
   7   1   2     7.3     5.5
   7   1   3     6.0     6.8
   7   1   4     6.7     8.5
   7   1   5    -9.0    13.7
   7   1   6    51.5    23.3
   7   1   7    78.2    51.7
   7   2 -10    34.5    16.7
   7   2  -9    30.3    12.1
   7   2  -8    11.8     8.4
   7   2  -7    30.7     6.8
   7   2  -6    11.8     5.6
   7   2  -5    21.8     5.3
   7   2  -4    26.8     4.7
   7   2  -3   100.9     5.2
   7   2  -2    44.5     4.8
   7   2  -1    -1.3     4.7
   7   2   0     2.7     4.7
   7   2   1    55.0     5.3
   7   2   2    23.6     6.2
   7   2   3    -1.3     7.3
   7   2   4    -4.9    11.3
   7   2   5    37.2    14.6
   7   2   6    -9.0    18.5
   7   3 -10    39.2    18.6
   7   3  -9     7.6    12.6
   7   3  -8    58.2     9.2
   7   3  -7    55.7     7.9
   7   3  -6     6.8     6.6
   7   3  -5    41.3     6.3
   7   3  -4    30.6     5.6
   7   3  -3    42.2     5.5
   7   3  -2    13.6     5.2
   7   3  -1     5.7     5.4
   7   3   0     1.2     5.6
   7   3   1    26.9     6.2
   7   3   2    19.0     6.9
   7   3   3    14.7     9.7
   7   3   4    19.0    11.7
   7   3   5   -18.4    15.0
   7   3   6    29.8    20.0
   7   4  -9    12.6    15.6
   7   4  -8    67.6    12.0
   7   4  -7    14.7     8.7
   7   4  -6    -5.1     7.9
   7   4  -5    21.9     7.2
   7   4  -4    42.6     6.9
   7   4  -3    29.1     6.5
   7   4  -2    12.1     6.3
   7   4  -1    37.6     6.5
   7   4   0   108.9     7.6
   7   4   1    19.8     7.4
   7   4   2    19.6     9.4
   7   4   3    30.9    11.0
   7   4   4    29.3    13.4
   7   4   5   -12.6    16.6
   7   5  -8    42.1    16.7
   7   5  -7    19.7    12.0
   7   5  -6    23.7     9.6
   7   5  -5    21.0     8.7
   7   5  -4    22.1     8.5
   7   5  -3     7.0     7.8
   7   5  -2    20.3     8.5
   7   5  -1    55.7     8.6
   7   5   0     2.7     8.3
   7   5   1    11.2     8.7
   7   5   2    17.1    11.2
   7   5   3    -9.3    14.0
   7   5   4   -18.6    17.2
   7   6  -6     9.7    13.3
   7   6  -5    -3.7    12.1
   7   6  -4    31.5    11.1
   7   6  -3    -1.6    10.5
   7   6  -2    -7.1    10.4
   7   6  -1     6.0     9.8
   7   6   0    43.2    10.8
   7   6   1    25.4    13.1
   7   6   2    37.8    15.6
   7   6   3     4.1    20.3
   7   7  -3    26.1    14.3
   7   7  -2     2.8    13.8
   7   7  -1   -34.0    14.1
   8   0  -7    38.9    17.7
   8   0  -5    45.0    12.2
   8   0  -3    71.6    10.0
   8   0  -1    13.8     9.9
   8   0   1     5.3    14.0
   8   0   3    35.9    18.8
   8   1  -7    41.9    12.6
   8   1  -6    19.3    10.5
   8   1  -5     3.6     9.0
   8   1  -4     1.8     7.7
   8   1  -3    18.2     7.3
   8   1  -2    31.0     7.9
   8   1  -1    -5.4     7.8
   8   1   0    10.3     8.5
   8   1   1    16.9     9.7
   8   1   2     4.4    11.4
   8   1   3     2.7    13.9
   8   2  -7    31.1    13.3
   8   2  -5    15.2     9.7
   8   2  -3    40.0     9.9
   8   2  -1    21.5     9.2
   8   2   1    -5.4    10.6
   8   2   3     7.4    14.8
   8   3  -6    32.8    12.8
   8   3  -5   -15.1    12.7
   8   3  -4    12.4    11.3
   8   3  -3    -5.9    10.7
   8   3  -2     8.8    10.7
   8   3  -1    10.1    10.6
   8   3   0    16.5    12.0
   8   3   1    50.7    13.4
   8   3   2     7.0    14.8
   8   4  -3    22.5    12.9
   8   4  -1     7.6    13.9
;
_shelx_hkl_checksum              24615
_olex2_submission_special_instructions 'No special instructions were received'
loop_
_space_group_symop_operation_xyz
'x, y, z'
'-x, y+1/2, -z'
loop_
_atom_site_label
_atom_site_type_symbol
_atom_site_fract_x
_atom_site_fract_y
_atom_site_fract_z
_atom_site_U_iso_or_equiv
_atom_site_adp_type
_atom_site_occupancy
_atom_site_site_symmetry_order
_atom_site_calc_flag
_atom_site_refinement_flags_posn
_atom_site_refinement_flags_adp
_atom_site_refinement_flags_occupancy
_atom_site_disorder_assembly
_atom_site_disorder_group
O2 O 0.3140(4) 0.4452(4) 1.0099(3) 0.0370(6) Uani 1 1 d . . . . .
O1 O 0.7363(4) 0.4425(5) 1.0976(3) 0.0390(6) Uani 1 1 d . . . . .
N1 N 0.8685(2) 0.63321(18) 0.87612(15) 0.0248(3) Uani 1 1 d . . . . .
H1A H 0.9374(7) 0.6423(7) 0.7783(5) 0.0418(9) Uani 1 1 d . . . . .
H1B H 1.0086(8) 0.5653(6) 0.9439(5) 0.0440(10) Uani 1 1 d . . . . .
H1C H 0.8387(9) 0.7618(6) 0.9167(5) 0.0427(10) Uani 1 1 d . . . . .
N3 N 0.7224(3) 0.4469(2) 0.38768(18) 0.0328(3) Uani 1 1 d . . . . .
H3 H 0.6923(9) 0.4379(7) 0.2775(5) 0.0466(10) Uani 1 1 d . . . . .
N2 N 0.9193(3) 0.5192(2) 0.60256(16) 0.0327(3) Uani 1 1 d . . . . .
C1 C 0.5499(3) 0.4701(2) 1.0022(2) 0.0235(4) Uani 1 1 d . . . . .
C4 C 0.7008(3) 0.4168(2) 0.6159(2) 0.0259(4) Uani 1 1 d . . . . .
C6 C 0.5766(4) 0.3713(3) 0.4831(2) 0.0313(4) Uani 1 1 d . . . . .
H6 H 0.4032(11) 0.2932(9) 0.4506(6) 0.0630(14) Uani 1 1 d . . . . .
C2 C 0.6168(3) 0.5329(2) 0.85666(19) 0.0216(3) Uani 1 1 d . . . . .
H2 H 0.4651(7) 0.6251(6) 0.8071(5) 0.0412(9) Uani 1 1 d . . . . .
C5 C 0.9234(4) 0.5343(3) 0.4633(2) 0.0338(5) Uani 1 1 d . . . . .
H5 H 1.0673(11) 0.6101(9) 0.4149(6) 0.0662(16) Uani 1 1 d . . . . .
C3 C 0.6338(4) 0.3682(3) 0.7597(2) 0.0300(4) Uani 1 1 d . . . . .
H3A H 0.7794(12) 0.2737(7) 0.8139(6) 0.0565(14) Uani 1 1 d . . . . .
H3B H 0.4455(12) 0.2979(8) 0.7484(6) 0.0641(16) Uani 1 1 d . . . . .
loop_
_atom_site_aniso_label
_atom_site_aniso_U_11
_atom_site_aniso_U_22
_atom_site_aniso_U_33
_atom_site_aniso_U_23
_atom_site_aniso_U_13
_atom_site_aniso_U_12
O2 0.0277(8) 0.0461(13) 0.0394(17) 0.0168(12) 0.0122(9) 0.0012(10)
O1 0.0322(10) 0.0660(15) 0.0190(14) 0.0093(12) 0.0038(9) 0.0030(12)
N1 0.0275(6) 0.0273(7) 0.0202(9) -0.0020(5) 0.0053(6) -0.0043(5)
H1A 0.0407(17) 0.052(2) 0.035(3) 0.004(2) 0.0123(18) -0.0099(18)
H1B 0.041(2) 0.052(3) 0.037(3) 0.0026(19) -0.0010(19) -0.0032(17)
H1C 0.053(2) 0.034(2) 0.040(3) -0.0093(17) 0.0053(19) -0.0062(17)
N3 0.0431(7) 0.0371(7) 0.0190(10) 0.0008(6) 0.0077(6) 0.0009(6)
H3 0.059(2) 0.053(3) 0.027(3) -0.002(2) 0.0039(19) 0.003(2)
N2 0.0377(6) 0.0410(8) 0.0205(9) -0.0009(6) 0.0077(6) -0.0086(6)
C1 0.0254(6) 0.0284(9) 0.0180(11) 0.0033(6) 0.0070(6) 0.0026(7)
C4 0.0331(8) 0.0263(10) 0.0193(12) -0.0015(7) 0.0076(7) -0.0032(7)
C6 0.0375(10) 0.0364(10) 0.0196(13) -0.0030(8) 0.0030(8) -0.0054(8)
H6 0.063(3) 0.079(4) 0.046(4) -0.010(3) 0.004(2) -0.030(3)
C2 0.0247(6) 0.0244(8) 0.0164(10) 0.0026(7) 0.0052(6) -0.0006(7)
H2 0.0376(17) 0.044(2) 0.042(3) 0.0107(19) 0.0062(17) 0.0065(17)
C5 0.0404(9) 0.0402(10) 0.0236(13) 0.0006(9) 0.0135(9) -0.0048(9)
H5 0.070(3) 0.091(4) 0.043(3) 0.006(3) 0.026(3) -0.028(3)
C3 0.0460(10) 0.0249(9) 0.0204(12) -0.0008(7) 0.0090(9) -0.0072(8)
H3A 0.096(4) 0.040(2) 0.036(3) 0.0076(19) 0.018(3) 0.019(2)
H3B 0.082(3) 0.073(3) 0.041(3) -0.013(2) 0.021(3) -0.049(3)
loop_
_atom_type_symbol
_atom_type_description
_atom_type_scat_dispersion_real
_atom_type_scat_dispersion_imag
_atom_type_scat_source
C C 0.0000 0.0000
'Neutron Data Booklet, ILL Grenoble, France (2003) ISBN 0-9704143-7-4'
H H 0.0000 0.0000
'Neutron Data Booklet, ILL Grenoble, France (2003) ISBN 0-9704143-7-4'
N N 0.0000 0.0000
'Neutron Data Booklet, ILL Grenoble, France (2003) ISBN 0-9704143-7-4'
O O 0.0000 0.0000
'Neutron Data Booklet, ILL Grenoble, France (2003) ISBN 0-9704143-7-4'
loop_
_geom_angle_atom_site_label_1
_geom_angle_atom_site_label_2
_geom_angle_atom_site_label_3
_geom_angle
_geom_angle_site_symmetry_1
_geom_angle_site_symmetry_3
_geom_angle_publ_flag
C4 N2 C5 105.43(16) . . ?
O1 C1 C2 116.82(17) . . ?
N1 C2 C3 110.20(14) . . ?
N2 C4 C3 120.89(16) . . ?
N2 C5 N3 111.70(18) . . ?
C2 N1 H1A 109.1(3) . . ?
C5 N3 H3 124.3(3) . . ?
C1 C2 H2 109.5(3) . . ?
C2 C3 H3B 107.9(3) . . ?
N3 C6 H6 122.9(3) . . ?
C5 N3 C6 107.46(16) . . ?
O2 C1 C2 116.32(19) . . ?
C1 C2 C3 109.69(13) . . ?
N2 C4 C6 109.46(16) . . ?
N3 C6 C4 105.95(17) . . ?
C2 N1 H1B 111.2(3) . . ?
C6 N3 H3 128.2(3) . . ?
C3 C2 H2 109.6(3) . . ?
C4 C3 H3A 110.2(3) . . ?
N2 C5 H5 125.0(4) . . ?
C4 C6 H6 131.2(4) . . ?
O1 C1 O2 126.8(2) . . ?
N1 C2 C1 110.08(14) . . ?
C2 C3 C4 113.31(16) . . ?
C3 C4 C6 129.64(16) . . ?
C2 N1 H1C 109.0(3) . . ?
N1 C2 H2 107.8(2) . . ?
C2 C3 H3A 108.5(3) . . ?
C4 C3 H3B 110.0(3) . . ?
N3 C5 H5 123.3(3) . . ?
H1A N1 H1B 106.7(4) . . ?
H3A C3 H3B 106.6(5) . . ?
H1A N1 H1C 110.9(4) . . ?
H1B N1 H1C 110.0(4) . . ?
loop_
_geom_bond_atom_site_label_1
_geom_bond_atom_site_label_2
_geom_bond_distance
_geom_bond_site_symmetry_2
_geom_bond_publ_flag
O1 C1 1.244(3) . ?
N2 C5 1.331(2) . ?
C2 C3 1.538(3) . ?
N1 H1A 1.044(5) . ?
C2 H2 1.096(4) . ?
C6 H6 1.077(6) . ?
O2 C1 1.249(3) . ?
N3 C5 1.344(3) . ?
C3 C4 1.500(3) . ?
N1 H1B 1.030(5) . ?
C3 H3A 1.102(6) . ?
N1 C2 1.4899(19) . ?
N3 C6 1.379(3) . ?
C4 C6 1.374(3) . ?
N1 H1C 1.046(5) . ?
C3 H3B 1.098(7) . ?
N2 C4 1.384(2) . ?
C1 C2 1.544(3) . ?
N3 H3 1.038(5) . ?
C5 H5 1.086(6) . ?
loop_
_geom_torsion_atom_site_label_1
_geom_torsion_atom_site_label_2
_geom_torsion_atom_site_label_3
_geom_torsion_atom_site_label_4
_geom_torsion
_geom_torsion_site_symmetry_1
_geom_torsion_site_symmetry_2
_geom_torsion_site_symmetry_3
_geom_torsion_site_symmetry_4
_geom_torsion_publ_flag
C5 N2 C4 C3 178.91(17) . . . . ?
C6 N3 C5 N2 0.5(2) . . . . ?
O1 C1 C2 C3 93.4(2) . . . . ?
N1 C2 C3 C4 -58.10(19) . . . . ?
C2 C3 C4 C6 -127.7(2) . . . . ?
H1A N1 C2 C1 163.9(3) . . . . ?
H1B N1 C2 C1 46.6(3) . . . . ?
H1C N1 C2 C1 -74.9(3) . . . . ?
C4 N2 C5 H5 178.2(5) . . . . ?
H3 N3 C5 H5 3.5(6) . . . . ?
H3 N3 C6 H6 -1.7(6) . . . . ?
C5 N2 C4 C6 0.2(2) . . . . ?
C5 N3 C6 C4 -0.4(2) . . . . ?
O2 C1 C2 N1 154.78(19) . . . . ?
C1 C2 C3 C4 -179.46(14) . . . . ?
N2 C4 C6 N3 0.2(2) . . . . ?
H1A N1 C2 C3 42.8(3) . . . . ?
H1B N1 C2 C3 -74.6(3) . . . . ?
H1C N1 C2 C3 164.0(3) . . . . ?
C6 N3 C5 H5 -178.1(4) . . . . ?
C5 N3 C6 H6 -180.0(5) . . . . ?
O1 C1 C2 H2 -146.4(3) . . . . ?
C4 N2 C5 N3 -0.4(2) . . . . ?
O1 C1 C2 N1 -28.1(3) . . . . ?
O2 C1 C2 C3 -83.8(2) . . . . ?
C2 C3 C4 N2 53.9(2) . . . . ?
C3 C4 C6 N3 -178.46(17) . . . . ?
H1A N1 C2 H2 -76.7(4) . . . . ?
H1B N1 C2 H2 165.9(4) . . . . ?
H1C N1 C2 H2 44.5(4) . . . . ?
H3 N3 C5 N2 -177.8(4) . . . . ?
H3 N3 C6 C4 177.9(4) . . . . ?
O2 C1 C2 H2 36.5(3) . . . . ?
N1 C2 C3 H3A 64.6(4) . . . . ?
C1 C2 C3 H3B 58.4(4) . . . . ?
H2 C2 C3 H3B -61.8(4) . . . . ?
H3B C3 C4 N2 174.8(4) . . . . ?
C3 C4 C6 H6 1.1(6) . . . . ?
N1 C2 C3 H3B 179.8(3) . . . . ?
H2 C2 C3 C4 60.4(3) . . . . ?
H3A C3 C4 N2 -67.9(4) . . . . ?
H3B C3 C4 C6 -6.7(4) . . . . ?
C1 C2 C3 H3A -56.7(4) . . . . ?
H2 C2 C3 H3A -176.9(4) . . . . ?
H3A C3 C4 C6 110.5(4) . . . . ?
N2 C4 C6 H6 179.7(5) . . . . ?

_cod_database_fobs_code 2108878
