#------------------------------------------------------------------------------
#$Date: 2022-05-12 04:39:41 +0300 (Thu, 12 May 2022) $
#$Revision: 275356 $
#$URL: file:///home/coder/svn-repositories/cod/cif/2/10/89/2108973.cif $
#------------------------------------------------------------------------------
#
# This file is available in the Crystallography Open Database (COD),
# http://www.crystallography.net/. The original data for this entry
# were provided by IUCr Journals, http://journals.iucr.org/.
#
# The file may be used within the scientific community so long as
# proper attribution is given to the journal article from which the
# data were obtained.
#
data_2108973
loop_
_publ_author_name
'Aree, Thammarat'
'McMonagle, Charles J.'
'Michalchuk, Adam A. L.'
'Chernyshov, Dmitry'
_publ_section_title
;
 Low-frequency lattice vibrations from atomic displacement parameters of
 \a-FOX-7, a high energy density material
;
_journal_coeditor_code           WU5002
_journal_issue                   3
_journal_name_full               'Acta Crystallographica Section B'
_journal_page_first
;
;
_journal_paper_doi               10.1107/S2052520622002700
_journal_volume                  78
_journal_year                    2022
_chemical_formula_moiety         'C2 H4 N4 O4'
_chemical_formula_sum            'C2 H4 N4 O4'
_chemical_formula_weight         148.079
_chemical_name_systematic        1,1-Diamino-2,2-dinitroethylene
_space_group_crystal_system      monoclinic
_space_group_IT_number           14
_space_group_name_Hall           '-P 2yn'
_space_group_name_H-M_alt        'P 1 21/n 1'
_atom_sites_solution_primary     notdet
_audit_creation_method
;
Olex2 1.3
(compiled 2020.11.12 svn.r5f609507 for OlexSys, GUI svn.r6408)
;
_cell_angle_alpha                90
_cell_angle_beta                 90.5672(15)
_cell_angle_gamma                90
_cell_formula_units_Z            4
_cell_length_a                   6.93030(10)
_cell_length_b                   6.58730(10)
_cell_length_c                   11.3017(3)
_cell_measurement_reflns_used    1568
_cell_measurement_temperature    240
_cell_measurement_theta_max      32.7210
_cell_measurement_theta_min      3.3310
_cell_volume                     515.920(17)
_computing_cell_refinement
;
CrysAlisPro 1.171.40.67a (Rigaku OD, 2019)
;
_computing_data_collection
;
CrysAlisPro 1.171.40.67a (Rigaku OD, 2019)
;
_computing_data_reduction
;
CrysAlisPro 1.171.40.67a (Rigaku OD, 2019)
;
_computing_molecular_graphics
;
Olex2 1.3 (Dolomanov <i>et al.</i>,  2009)
;
_computing_publication_material
;
Olex2 1.3 (Dolomanov <i>et al.</i>,  2009)
;
_computing_structure_refinement
;
olex2.refine 1.3 (Bourhis <i>et al.</i>,  2015)
;
_diffrn_ambient_temperature      240.0
_diffrn_detector                 'Hybrid Pixel Array Detector'
_diffrn_detector_area_resol_mean 5.8140
_diffrn_measured_fraction_theta_full 0.9018
_diffrn_measured_fraction_theta_max 0.6696
_diffrn_measurement_device       'one-circle diffractometer'
_diffrn_measurement_device_type  'BM01 ESRF 2M 20210501'
_diffrn_measurement_method       '\w scans'
_diffrn_radiation_monochromator  'silicon 111'
_diffrn_radiation_probe          x-ray
_diffrn_radiation_type           synchrotron
_diffrn_radiation_wavelength     0.66418
_diffrn_reflns_av_R_equivalents  0.0208
_diffrn_reflns_av_unetI/netI     0.0265
_diffrn_reflns_limit_h_max       11
_diffrn_reflns_limit_h_min       -11
_diffrn_reflns_limit_k_max       10
_diffrn_reflns_limit_k_min       -10
_diffrn_reflns_limit_l_max       13
_diffrn_reflns_limit_l_min       -13
_diffrn_reflns_number            4905
_diffrn_reflns_theta_full        23.4849
_diffrn_reflns_theta_max         32.84
_diffrn_reflns_theta_min         3.24
_diffrn_source
;
European Synchrotron Radiation Facility (ESRF), BM01 - The Swiss-Norwegian
Beamlines
;
_exptl_absorpt_coefficient_mu    0.153
_exptl_absorpt_correction_T_max  1.00000
_exptl_absorpt_correction_T_min  0.67837
_exptl_absorpt_correction_type   multi-scan
_exptl_absorpt_process_details
;
CrysAlisPro 1.171.40.67a (Rigaku OD, 2019)
Empirical absorption correction using spherical harmonics,
implemented in SCALE3 ABSPACK scaling algorithm.
;
_exptl_crystal_colour            'clear yellow'
_exptl_crystal_density_diffrn    1.906
_exptl_crystal_description       block
_exptl_crystal_F_000             304.164
_exptl_crystal_size_max          0.2
_exptl_crystal_size_mid          0.1
_exptl_crystal_size_min          0.1
_refine_diff_density_max         0.2068
_refine_diff_density_min         -0.2150
_refine_ls_goodness_of_fit_ref   1.0134
_refine_ls_hydrogen_treatment    refall
_refine_ls_matrix_type           full
_refine_ls_number_constraints    0
_refine_ls_number_parameters     127
_refine_ls_number_reflns         1577
_refine_ls_number_restraints     93
_refine_ls_restrained_S_all      0.9824
_refine_ls_R_factor_all          0.0442
_refine_ls_R_factor_gt           0.0387
_refine_ls_shift/su_max          0.0008
_refine_ls_shift/su_mean         0.0001
_refine_ls_structure_factor_coef Fsqd
_refine_ls_weighting_details
'w=1/[\s^2^(Fo^2^)+(0.0603P)^2^+0.1587P] where P=(Fo^2^+2Fc^2^)/3'
_refine_ls_weighting_scheme      calc
_refine_ls_wR_factor_gt          0.1059
_refine_ls_wR_factor_ref         0.1106
_reflns_number_gt                1340
_reflns_number_total             1577
_reflns_threshold_expression     I>=2u(I)
_iucr_refine_instructions_details
;
TITL 080_a.res in P2(1)/n
REM Old TITL 080 in P2(1)/n
REM SHELXT solution in P2(1)/n: R1 0.095, Rweak 0.008, Alpha 0.021
REM <I/s> 0.719 for 71 systematic absences, Orientation as input
REM Formula found by SHELXT: C3 N2 O5
CELL 0.66418 6.9303 6.5873 11.3017 90 90.5672 90
ZERR 4 0.0001 0.0001 0.0003 0 0.0015 0
LATT 1
SYMM 0.5-X,0.5+Y,0.5-Z
SFAC C H N O
DISP C 0.0028 0.0014 9.9123
DISP H -0 0 0.6652
DISP N 0.0056 0.0029 16.5876
DISP O 0.0097 0.0054 27.0096
UNIT 8 16 16 16
RIGU O11 O12 O21 O22 N11 N12 N21 H21A H21B N22 H22A H22B C1 C2
L.S. 30
PLAN  5
TEMP -33.15
CONF
BOND
MORE -1
BOND $H
fmap 2
acta
LIST -6
OMIT -2 0 4
OMIT -1 0 9
OMIT -1 0 1
OMIT -4 1 8
WGHT 0.060256 0.158659
FVAR 9.320953
REM <olex2.extras>
REM <HklSrc "%.\\240.hkl">
REM </olex2.extras>
O12   4     0.58084  0.70182  0.58121  11.00000  0.02228  0.06127  0.02500 =
 0.00880  0.00428  0.00025
O11   4     0.52282  0.56019  0.74977  11.00000  0.02580  0.04489  0.01927 =
 0.00525 -0.00257  0.00309
O22   4     0.19707  0.66690  0.83560  11.00000  0.02779  0.05965  0.01259 =
 -0.00206  0.00124 -0.00296
O21   4    -0.01818  0.55974  0.71277  11.00000  0.02542  0.04988  0.01901 =
 0.00080  0.00276 -0.00841
N12   3     0.14440  0.62856  0.73367  11.00000  0.02221  0.03274  0.01330 =
 0.00079  0.00068  0.00018
N11   3     0.46517  0.64531  0.65810  11.00000  0.02126  0.03448  0.01372 =
 0.00111  0.00141  0.00093
N22   3    -0.00247  0.75448  0.50981  11.00000  0.02459  0.03792  0.01808 =
 0.00307 -0.00195  0.00090
H22A  2    -0.05272  0.80378  0.43224  11.00000  0.02844  0.07961  0.03196 =
 0.02242 -0.00579 -0.00503
H22B  2    -0.09520  0.70078  0.57051  11.00000  0.03478  0.06801  0.02982 =
 0.01950  0.00153  0.00036
N21   3     0.29873  0.79985  0.43893  11.00000  0.02795  0.04853  0.01744 =
 0.00723  0.00380  0.00112
H21A  2     0.24427  0.85005  0.36223  11.00000  0.03884  0.06942  0.02218 =
 0.01229  0.00261  0.00528
H21B  2     0.44061  0.79791  0.45093  11.00000  0.02984  0.04709  0.03858 =
 0.00674  0.00272  0.00185
C2    1     0.18703  0.74084  0.52559  11.00000  0.02268  0.02980  0.01284 =
 0.00017  0.00108  0.00134
C1    1     0.26793  0.66987  0.63680  11.00000  0.01999  0.03108  0.01282 =
 0.00184  0.00158  0.00022
HKLF 4
END
Q5 1 0.166667 0.740741 0.520833 11 0.05 0.17
Q1 1 0.333333 0.592593 0.729167 11 0.05 0.21
Q2 1 0.033333 0.648148 0.833333 11 0.05 0.19
Q3 1 -0.2 0.759259 0.458333 11 0.05 0.19
Q4 1 0.5 0.777778 0.479167 11 0.05 0.18
  REM The information below was added by Olex2.
  REM
  REM R1 = 0.0387 for 1340 Fo > 4sig(Fo) and 0.0442 for all 1577 data
  REM 127 parameters refined using 93 restraints
  REM Highest difference peak 0.2068, deepest hole -0.2150
  REM Mean Shift 0.0001, Max Shift 0.0008.
  REM +++ Tabular Listing of Refinement Information +++
  REM R1_all = 0.0442
  REM R1_gt = 0.0387
  REM wR_ref = 0.1106
  REM GOOF = 1.0134
  REM Shift_max = 0.0008
  REM Shift_mean = 0.0001
  REM Reflections_all = 1577
  REM Reflections_gt = 1340
  REM Parameters = 127
  REM Hole = -0.2150
  REM Peak = 0.2068
  REM Flack = n/a
;
_cod_data_source_file            wu5002sup1.cif
_cod_data_source_block           240
_cod_database_code               2108973
loop_
_space_group_symop_id
_space_group_symop_operation_xyz
1 x,y,z
2 -x+1/2,y+1/2,-z+1/2
3 -x,-y,-z
4 x-1/2,-y-1/2,z-1/2
loop_
_atom_site_type_symbol
_atom_site_label
_atom_site_fract_x
_atom_site_fract_y
_atom_site_fract_z
_atom_site_U_iso_or_equiv
_atom_site_adp_type
_atom_site_occupancy
O O12 0.58084(12) 0.70182(16) 0.58121(9) 0.0362(2) Uani 1.000000
O O11 0.52282(12) 0.56019(14) 0.74977(8) 0.0300(2) Uani 1.000000
O O22 0.19707(13) 0.66690(16) 0.83560(8) 0.0333(2) Uani 1.000000
O O21 -0.01818(12) 0.55974(14) 0.71277(8) 0.0314(2) Uani 1.000000
N N12 0.14440(13) 0.62856(14) 0.73367(8) 0.0227(2) Uani 1.000000
N N11 0.46517(13) 0.64531(14) 0.65810(9) 0.0231(2) Uani 1.000000
N N22 -0.00247(14) 0.75448(14) 0.50981(9) 0.0269(2) Uani 1.000000
H H22A -0.053(3) 0.804(3) 0.4322(17) 0.047(5) Uani 1.000000
H H22B -0.095(3) 0.701(3) 0.571(2) 0.044(5) Uani 1.000000
N N21 0.29873(15) 0.79985(17) 0.43893(10) 0.0313(2) Uani 1.000000
H H21A 0.244(3) 0.850(3) 0.3622(16) 0.043(5) Uani 1.000000
H H21B 0.441(3) 0.798(3) 0.4509(19) 0.038(4) Uani 1.000000
C C2 0.18703(15) 0.74084(15) 0.52559(10) 0.0218(2) Uani 1.000000
C C1 0.26793(14) 0.66987(15) 0.63680(10) 0.0213(2) Uani 1.000000
loop_
_atom_site_aniso_label
_atom_site_aniso_U_11
_atom_site_aniso_U_22
_atom_site_aniso_U_33
_atom_site_aniso_U_12
_atom_site_aniso_U_13
_atom_site_aniso_U_23
O12 0.0223(4) 0.0613(6) 0.0250(5) 0.0003(3) 0.0043(4) 0.0088(4)
O11 0.0258(4) 0.0449(5) 0.0193(5) 0.0031(3) -0.0026(3) 0.0052(3)
O22 0.0278(4) 0.0597(6) 0.0126(5) -0.0030(4) 0.0012(3) -0.0021(3)
O21 0.0254(4) 0.0499(5) 0.0190(5) -0.0084(3) 0.0028(3) 0.0008(3)
N12 0.0222(4) 0.0327(4) 0.0133(5) 0.0002(3) 0.0007(3) 0.0008(3)
N11 0.0213(4) 0.0345(4) 0.0137(5) 0.0009(3) 0.0014(3) 0.0011(3)
N22 0.0246(4) 0.0379(5) 0.0181(6) 0.0009(3) -0.0020(4) 0.0031(4)
H22A 0.028(7) 0.080(14) 0.032(5) -0.005(5) -0.006(3) 0.022(4)
H22B 0.035(6) 0.068(13) 0.030(7) 0.000(4) 0.002(3) 0.020(5)
N21 0.0279(5) 0.0485(6) 0.0174(6) 0.0011(4) 0.0038(4) 0.0072(4)
H21A 0.039(8) 0.069(13) 0.022(5) 0.005(5) 0.003(3) 0.012(3)
H21B 0.030(4) 0.047(11) 0.039(9) 0.0019(19) 0.0027(18) 0.007(5)
C2 0.0227(4) 0.0298(4) 0.0128(6) 0.0013(3) 0.0011(4) 0.0002(3)
C1 0.0200(4) 0.0311(4) 0.0128(6) 0.0002(3) 0.0016(4) 0.0018(3)
loop_
_atom_type_symbol
_atom_type_scat_dispersion_source
_atom_type_scat_dispersion_real
_atom_type_scat_dispersion_imag
_atom_type_scat_source
H custom 0.00000 0.00000 'NoSpherA2: Chem.Sci. 2021, DOI:10.1039/D0SC05526C'
C custom 0.00280 0.00140 'NoSpherA2: Chem.Sci. 2021, DOI:10.1039/D0SC05526C'
O custom 0.00970 0.00540 'NoSpherA2: Chem.Sci. 2021, DOI:10.1039/D0SC05526C'
N custom 0.00560 0.00290 'NoSpherA2: Chem.Sci. 2021, DOI:10.1039/D0SC05526C'
loop_
_diffrn_refln_index_h
_diffrn_refln_index_k
_diffrn_refln_index_l
0 0 -2
0 0 2
0 0 -3
0 0 3
0 0 -4
0 0 4
0 0 5
0 0 -5
0 0 -6
0 0 7
0 0 -7
0 0 -8
0 0 8
0 0 11
0 0 -12
0 0 12
0 -1 0
0 1 0
0 -1 -1
0 1 1
0 1 -1
0 -1 -2
0 1 2
0 1 -2
0 -1 2
0 -1 3
0 -1 -3
0 1 3
0 1 -3
0 1 -4
0 1 4
0 -1 -4
0 -1 4
0 1 5
0 1 -5
0 -1 5
0 1 -6
0 1 6
0 -1 -6
0 1 7
0 -1 -7
0 -1 -8
0 1 -8
0 1 8
0 -1 8
0 1 -9
0 -1 9
0 -1 10
0 1 -10
0 -1 -11
0 1 11
0 -1 11
0 1 -11
0 -1 -12
0 -1 12
0 1 -12
0 1 12
0 2 0
0 -2 0
0 -2 -1
0 -2 1
0 2 -1
0 2 1
0 2 2
0 -2 -2
0 2 3
0 -2 -3
0 -2 4
0 2 -4
0 2 -5
0 -2 5
0 2 -6
0 -2 7
0 -2 -7
0 2 -7
0 2 7
0 -2 8
0 2 8
0 -2 -8
0 2 -8
0 2 -9
0 -2 -9
0 -2 9
0 2 9
0 -2 10
0 -2 -10
0 2 10
0 -2 -11
0 2 11
0 -2 11
0 2 -11
0 2 12
0 2 -12
0 -2 12
0 -2 -12
0 -3 0
0 3 0
0 -3 1
0 -3 -1
0 3 -1
0 3 1
0 -3 2
0 3 -2
0 3 2
0 -3 -2
0 3 -3
0 3 3
0 -3 -3
0 -3 3
0 3 4
0 -3 -4
0 3 5
0 -3 -5
0 -3 -6
0 3 -6
0 3 6
0 3 7
0 -3 -7
0 3 -7
0 -3 -8
0 3 -8
0 3 8
0 3 9
0 -3 -9
0 -3 -10
0 3 10
0 3 -10
0 -3 10
0 -3 -11
0 3 11
0 -3 12
0 3 -12
0 3 12
0 4 0
0 -4 0
0 -4 -1
0 4 1
0 4 -1
0 -4 1
0 4 -2
0 -4 2
0 -4 -2
0 4 2
0 4 -3
0 4 3
0 -4 3
0 -4 -3
0 -4 4
0 4 4
0 -4 -4
0 4 -4
0 -4 -5
0 4 6
0 -4 -6
0 -4 7
0 -4 -7
0 4 -7
0 4 7
0 -4 8
0 4 -8
0 4 8
0 -4 -8
0 4 -9
0 -4 9
0 4 -10
0 -4 10
0 4 -11
0 -4 11
0 4 -12
0 -4 12
0 -5 0
0 5 0
0 -5 1
0 5 1
0 5 -1
0 -5 -1
0 5 2
0 5 -2
0 -5 -2
0 -5 2
0 5 3
0 -5 3
0 -5 -3
0 5 -3
0 5 -4
0 5 4
0 -5 4
0 5 5
0 -5 -5
0 5 -5
0 -5 5
0 -5 -6
0 5 6
0 -5 6
0 5 -6
0 5 -7
0 -5 7
0 -5 -7
0 5 7
0 5 -8
0 -5 8
0 -5 -8
0 5 8
0 -5 9
0 -5 -9
0 5 9
0 5 -9
0 -5 -10
0 5 10
0 -5 11
0 5 -11
0 5 11
0 -6 0
0 6 0
0 -6 -1
0 6 -1
0 6 1
0 -6 1
0 -6 -2
0 -6 2
0 6 2
0 6 -2
0 -6 -3
0 -6 3
0 6 -3
0 6 3
0 -6 -4
0 -6 -5
0 6 5
0 6 -6
0 -6 -6
0 -6 6
0 6 6
0 -6 -7
0 6 -7
0 -6 7
0 6 7
0 6 -8
0 -6 8
0 -6 9
0 6 -9
0 -6 10
0 6 10
0 6 -10
0 6 -11
0 -6 11
0 7 0
0 -7 0
0 7 1
0 -7 1
0 7 -1
0 -7 -1
0 -7 2
0 -7 -2
0 7 2
0 7 -2
0 7 3
0 -7 3
0 7 -3
0 7 -4
0 -7 -4
0 -7 4
0 7 4
0 -7 -5
0 -7 5
0 7 5
0 -7 6
0 7 6
0 7 -6
0 -7 -6
0 7 7
0 -7 -7
0 7 8
0 -7 8
0 -7 -8
0 7 -8
0 -7 -9
0 7 9
0 7 -9
0 -7 9
0 -7 10
0 7 -10
0 -8 0
0 8 0
0 8 1
0 -8 -1
0 8 -1
0 -8 -2
0 8 2
0 8 -2
0 -8 2
0 8 -3
0 -8 -3
0 -8 3
0 -8 -4
0 8 -4
0 -8 4
0 8 4
0 8 -5
0 8 5
0 -8 -5
0 -8 -6
0 -8 6
0 8 -6
0 8 6
0 8 7
0 -8 -7
0 -8 -8
0 8 -8
0 -8 8
0 8 8
0 8 -9
0 -8 9
0 -8 10
0 9 0
0 -9 0
0 -9 -1
0 -9 1
0 9 1
0 9 -1
0 -9 -2
0 9 2
0 9 -2
0 -9 2
0 -9 -3
0 -9 3
0 9 -3
0 9 3
0 -9 4
0 9 4
0 9 -4
0 -9 -4
0 9 -5
0 -9 -5
0 9 5
0 -9 5
0 9 6
0 -9 -6
0 9 7
0 -9 -7
0 -9 7
0 9 -7
0 -9 8
0 9 -8
0 -9 9
0 10 0
0 -10 0
0 10 -1
0 -10 -1
0 -10 1
0 10 1
0 10 2
0 -10 -2
0 10 3
0 -10 -3
0 -10 4
0 -10 5
0 10 -6
0 10 6
0 -10 6
1 0 -9
-1 0 9
1 0 -8
-1 0 8
-1 0 7
-1 0 1
1 0 -1
-1 0 0
1 0 0
1 0 1
-1 0 -1
1 0 2
-1 0 -2
1 0 3
-1 0 -3
-1 0 -4
1 0 4
1 0 6
1 0 7
-1 0 -7
-1 0 -8
1 0 8
-1 0 -9
1 0 9
1 0 10
-1 0 -10
-1 0 -11
1 0 11
1 0 12
-1 0 -12
1 0 13
-1 -1 12
1 1 -11
-1 -1 11
1 1 -10
-1 -1 10
-1 1 9
-1 -1 9
1 -1 -9
1 1 -9
1 1 -8
-1 -1 8
1 1 -7
-1 -1 7
-1 1 6
1 1 -6
-1 -1 6
-1 -1 5
1 1 -5
-1 1 4
1 1 -4
-1 -1 4
-1 1 3
1 1 -3
1 -1 -3
-1 -1 3
-1 1 2
1 -1 -2
1 1 -2
-1 -1 2
-1 -1 1
1 -1 -1
-1 1 1
1 1 -1
-1 1 0
-1 -1 0
1 1 0
1 -1 0
1 -1 1
-1 1 -1
1 1 1
-1 -1 -1
-1 1 -2
-1 -1 -2
1 -1 2
1 1 2
1 1 3
-1 1 -3
1 -1 3
-1 -1 -3
1 1 4
-1 -1 -4
1 -1 5
-1 1 -5
1 -1 6
-1 -1 -6
1 1 6
1 1 7
-1 1 -7
1 -1 7
-1 -1 -7
1 -1 8
-1 1 -8
1 1 8
-1 -1 -8
-1 1 -9
1 1 9
1 -1 9
-1 -1 -9
-1 1 -10
1 -1 10
1 1 11
1 -1 11
-1 -1 -11
-1 1 -12
1 1 12
-1 -1 -12
1 -1 12
1 1 13
-1 -2 12
-1 2 11
1 2 -11
1 -2 -11
-1 -2 11
-1 2 10
1 -2 -10
1 2 -10
-1 -2 10
-1 -2 9
1 2 -9
1 -2 -9
-1 2 9
-1 -2 8
1 -2 -8
-1 2 8
1 2 -8
1 2 -7
-1 2 7
-1 -2 7
1 -2 -7
-1 2 6
1 -2 -6
-1 2 5
1 -2 -5
-1 2 4
-1 2 3
1 -2 -3
-1 2 2
1 -2 -2
1 -2 -1
-1 2 1
-1 -2 -2
-1 2 -2
1 -2 2
1 2 2
-1 -2 -3
-1 2 -3
1 -2 3
1 2 3
1 2 4
-1 2 -4
1 -2 4
-1 -2 -4
1 -2 5
-1 2 -5
-1 -2 -5
1 2 5
1 -2 6
1 2 6
-1 -2 -6
1 2 7
-1 -2 -7
1 -2 7
-1 -2 -8
1 2 8
-1 2 -8
1 -2 8
1 2 9
-1 2 -9
-1 -2 -9
1 -2 9
1 -2 10
-1 -2 -10
-1 2 -10
1 2 10
-1 -2 -11
1 2 11
1 -2 12
1 2 12
-1 2 -12
-1 -2 -12
1 -2 13
-1 -3 12
1 3 -11
1 -3 -11
-1 -3 11
-1 3 11
-1 3 10
1 3 -10
1 -3 -10
-1 -3 10
1 3 -9
1 -3 -9
-1 3 9
-1 -3 9
-1 3 8
-1 -3 8
1 3 -8
1 -3 -8
1 -3 -7
-1 3 7
1 3 -7
-1 -3 7
1 3 -6
-1 3 6
-1 -3 6
1 -3 -6
-1 3 5
-1 -3 5
1 3 -5
1 -3 -5
-1 3 4
1 3 -4
-1 -3 4
1 -3 -4
-1 -3 3
-1 3 3
1 -3 -3
1 3 -3
1 -3 -2
-1 -3 2
-1 3 2
1 -3 -1
-1 3 1
-1 -3 1
1 3 -1
1 -3 0
-1 3 0
1 3 0
-1 -3 0
-1 -3 -1
-1 3 -1
1 3 1
1 -3 2
-1 3 -2
1 3 2
-1 -3 -2
-1 -3 -3
-1 3 -3
1 3 3
1 -3 3
-1 3 -4
1 3 4
1 -3 4
-1 -3 -4
1 3 5
1 -3 5
-1 3 -5
-1 -3 -5
1 -3 6
-1 -3 -6
-1 3 -7
1 3 7
-1 -3 -7
1 -3 7
1 3 8
-1 -3 -8
-1 3 -9
1 -3 9
-1 -3 -9
1 3 9
1 -3 10
-1 3 -10
-1 3 -11
1 -3 11
1 -3 12
-1 -3 -12
-1 3 -12
1 3 12
-1 -4 11
1 4 -11
-1 4 10
1 -4 -10
-1 -4 10
1 4 -10
-1 -4 9
1 4 -9
1 -4 -9
-1 4 9
1 -4 -8
-1 4 8
1 -4 -7
-1 4 7
-1 4 6
1 -4 -6
-1 4 5
-1 -4 5
1 -4 -5
1 4 -5
1 4 -4
1 -4 -4
-1 -4 4
-1 -4 3
-1 4 3
1 4 -3
1 -4 -3
1 -4 -2
-1 -4 2
-1 4 2
1 4 -1
1 -4 -1
-1 -4 1
-1 4 1
1 -4 0
1 4 0
-1 -4 0
-1 4 0
1 -4 1
-1 4 -1
-1 -4 -1
1 4 1
-1 -4 -2
1 4 2
1 4 3
1 -4 3
-1 -4 -3
-1 4 -3
-1 -4 -4
1 4 4
-1 4 -5
1 -4 5
1 -4 6
1 4 7
-1 -4 -7
-1 4 -7
1 -4 7
-1 4 -8
1 -4 8
-1 -4 -8
1 4 8
1 4 9
1 -4 9
-1 -4 -9
-1 4 -9
1 -4 10
-1 4 -10
-1 -4 -10
1 4 10
-1 4 -11
-1 -4 -11
1 -4 11
1 4 11
1 4 12
-1 -5 11
1 5 -11
1 5 -10
-1 -5 10
-1 5 10
1 -5 -10
1 5 -9
-1 -5 9
1 -5 -9
-1 5 9
1 5 -8
1 -5 -8
-1 -5 8
-1 5 8
1 5 -7
-1 -5 7
1 -5 -7
-1 5 7
-1 5 6
1 5 -6
-1 -5 6
1 -5 -6
-1 5 5
1 5 -5
1 -5 -5
-1 -5 4
1 -5 -4
-1 5 4
1 5 -4
-1 5 3
1 5 -3
-1 -5 3
1 -5 -2
1 5 -2
-1 5 2
-1 -5 2
1 5 -1
-1 5 1
1 -5 -1
-1 -5 1
-1 5 0
-1 -5 0
1 5 0
1 -5 0
1 5 1
-1 5 -1
1 -5 1
-1 -5 -2
-1 5 -2
1 -5 2
1 5 2
1 5 3
1 -5 3
-1 -5 -3
-1 5 -3
1 5 4
-1 -5 -4
1 -5 4
-1 -5 -5
1 -5 5
1 5 5
-1 5 -5
1 5 6
-1 -5 -6
1 -5 6
-1 -5 -7
1 5 7
1 5 8
-1 -5 -8
-1 5 -8
1 -5 8
-1 -5 -9
1 5 9
-1 -5 -10
1 -5 10
1 5 10
-1 5 -10
1 5 11
-1 -5 -11
-1 5 -11
1 -5 11
1 -5 12
-1 -6 10
1 6 -10
-1 -6 9
-1 6 9
1 6 -9
1 -6 -9
-1 -6 8
1 6 -8
-1 6 8
1 -6 -8
-1 6 7
1 6 -7
1 -6 -7
-1 -6 7
-1 -6 6
-1 6 6
1 6 -6
1 -6 -6
-1 6 5
1 -6 -5
1 -6 -4
-1 6 4
-1 6 3
1 -6 -3
1 6 -3
-1 -6 3
1 6 -2
1 -6 -2
-1 6 2
-1 -6 2
-1 -6 1
1 6 -1
-1 6 1
1 -6 -1
1 6 0
-1 6 0
-1 -6 0
1 -6 0
-1 -6 -1
-1 6 -1
1 -6 1
1 6 1
1 6 2
-1 -6 -2
1 -6 2
-1 6 -2
-1 -6 -3
1 6 3
-1 -6 -4
1 6 4
-1 6 -5
1 -6 5
-1 6 -6
1 -6 6
-1 6 -7
1 -6 7
1 6 7
-1 -6 -7
-1 -6 -8
-1 6 -8
1 6 8
1 -6 8
-1 6 -9
1 -6 9
1 6 9
-1 -6 -9
1 6 10
-1 6 -10
1 -6 10
-1 -6 -10
1 -6 11
-1 6 -11
-1 -7 10
1 7 -10
1 7 -9
-1 -7 9
-1 7 8
1 -7 -8
1 -7 -7
-1 7 7
-1 -7 7
1 7 -7
1 7 -6
-1 7 6
1 -7 -6
-1 -7 6
-1 7 5
1 -7 -5
1 7 -5
-1 -7 5
1 7 -4
-1 -7 4
-1 7 4
1 -7 -4
-1 7 3
1 -7 -3
1 7 -3
-1 -7 3
1 -7 -2
-1 -7 2
1 7 -2
-1 7 2
1 7 -1
1 -7 -1
-1 7 1
-1 -7 1
1 7 0
-1 7 0
-1 -7 0
1 -7 0
-1 7 -1
1 7 1
-1 -7 -1
1 -7 1
1 -7 2
-1 7 -2
-1 -7 -2
1 7 2
1 -7 3
-1 7 -3
1 7 3
-1 -7 -3
1 -7 4
-1 7 -4
-1 -7 -4
1 7 4
-1 7 -5
-1 -7 -5
1 -7 5
1 7 5
-1 -7 -6
1 7 6
1 -7 7
-1 -7 -7
-1 7 -7
1 7 7
1 -7 8
-1 7 -8
1 -7 9
-1 7 -9
-1 7 -10
1 -7 10
-1 -8 9
1 8 -9
1 8 -7
1 -8 -7
-1 -8 7
-1 8 7
1 8 -6
1 -8 -6
-1 -8 6
-1 8 6
-1 8 5
1 -8 -5
1 8 -5
-1 -8 5
-1 8 4
1 -8 -4
-1 -8 4
-1 -8 3
1 8 -3
1 -8 -3
-1 8 3
1 8 -2
-1 -8 2
-1 8 2
1 -8 -2
1 8 -1
-1 8 1
1 -8 -1
-1 -8 1
1 -8 0
1 8 0
-1 -8 0
-1 8 0
1 8 1
-1 -8 -1
1 -8 1
-1 8 -1
-1 8 -2
-1 -8 -2
1 8 2
1 -8 2
-1 8 -3
-1 -8 -3
1 8 3
1 -8 3
-1 -8 -4
1 -8 4
-1 8 -4
1 8 4
1 8 5
1 -8 5
-1 8 -5
-1 -8 -5
1 -8 6
-1 -8 -6
1 8 6
-1 8 -6
-1 -8 -7
-1 8 -7
1 8 7
1 -8 7
1 -8 8
-1 -8 -8
-1 8 -8
1 8 8
-1 8 -9
1 -8 9
1 -8 10
-1 -9 8
1 9 -8
1 9 -7
-1 -9 7
-1 9 6
1 -9 -6
1 -9 -5
1 9 -5
-1 9 5
-1 -9 5
-1 9 4
1 -9 -4
1 9 -4
-1 9 3
1 9 -3
1 -9 -3
-1 -9 3
-1 -9 2
1 9 -2
1 -9 -2
-1 9 2
-1 9 1
1 9 -1
-1 -9 1
1 9 0
-1 9 0
1 -9 0
-1 -9 0
-1 -9 -1
-1 9 -1
1 -9 1
1 9 1
1 -9 2
-1 9 -2
1 9 2
-1 -9 -2
-1 -9 -3
1 -9 3
-1 9 -3
1 9 4
-1 9 -4
1 -9 4
-1 -9 -4
1 9 5
-1 -9 -5
-1 -9 -6
1 -9 6
-1 9 -6
1 9 6
-1 9 -7
1 -9 7
1 -9 8
-1 9 -8
-1 9 -9
1 -9 9
-1 -10 6
-1 -10 5
1 10 -5
1 10 -4
-1 -10 4
1 10 -3
-1 10 3
1 -10 -3
-1 -10 3
-1 10 2
1 -10 -2
1 -10 -1
-1 10 1
-1 10 0
1 -10 0
1 -10 3
-1 10 -3
-1 10 -4
1 10 4
-1 -10 -4
1 -10 4
-1 -10 -5
1 10 5
-1 10 -5
1 10 6
-1 -10 -6
-2 0 4
2 0 -4
2 0 -3
-2 0 3
2 0 -2
-2 0 2
-2 0 1
2 0 -1
2 0 0
-2 0 0
2 0 1
-2 0 -1
-2 0 -3
2 0 3
-2 0 -4
2 0 4
2 0 5
-2 0 -5
-2 0 -6
2 0 6
-2 0 -7
2 0 7
2 0 8
-2 0 -8
-2 0 -9
2 0 9
2 0 11
-2 0 -11
2 0 12
-2 0 -12
-2 0 -13
2 0 13
-2 -1 8
2 1 -8
-2 -1 7
2 1 -7
-2 -1 6
2 1 -6
-2 -1 5
2 1 -5
-2 1 5
2 -1 -5
-2 1 4
2 1 -4
-2 -1 4
2 1 -3
-2 1 3
2 -1 -3
-2 -1 3
-2 -1 2
2 1 -2
-2 1 2
2 -1 -2
2 1 -1
-2 -1 1
2 -1 -1
-2 1 1
2 1 0
2 -1 0
-2 1 0
-2 -1 0
2 1 2
-2 -1 -2
2 -1 2
-2 1 -2
-2 1 -3
2 -1 3
-2 -1 -3
2 1 3
2 1 4
-2 -1 -4
-2 1 -4
2 -1 4
2 -1 5
2 1 5
-2 1 -5
-2 -1 -5
2 -1 6
2 1 6
-2 1 -6
-2 -1 -6
2 -1 7
-2 1 -7
2 -1 8
2 1 8
-2 1 -8
-2 -1 -8
2 -1 9
2 1 9
-2 1 -9
-2 -1 -9
2 -1 11
-2 1 -11
-2 -1 -12
2 1 12
2 -1 12
2 -1 13
-2 1 -13
2 1 13
-2 -2 11
2 2 -11
-2 -2 10
2 2 -10
-2 2 8
2 -2 -8
-2 2 7
2 -2 -7
2 -2 -6
-2 2 6
2 -2 -5
-2 2 5
2 -2 -4
2 -2 -3
-2 2 3
2 2 -2
-2 -2 2
2 2 -1
-2 2 1
-2 -2 1
2 -2 -1
2 2 0
-2 2 0
2 -2 0
-2 -2 0
-2 -2 -1
-2 2 -1
2 -2 1
2 2 1
-2 2 -2
2 2 2
-2 -2 -2
2 -2 2
-2 2 -3
2 2 3
2 -2 3
-2 -2 -3
2 2 4
-2 -2 -4
-2 2 -4
2 -2 4
-2 2 -5
2 2 5
-2 -2 -5
2 -2 5
2 2 6
2 -2 6
-2 2 -6
-2 -2 -6
-2 2 -7
2 2 7
2 -2 7
-2 -2 -7
-2 -2 -8
2 2 8
-2 2 -9
2 -2 9
2 2 10
2 -2 10
-2 2 -10
-2 -2 -10
2 2 11
-2 -2 -11
2 -2 11
2 -2 12
2 2 12
-2 2 -12
-2 -2 -12
-2 2 -13
2 -2 13
-2 -3 11
2 3 -11
2 3 -10
-2 3 10
-2 -3 10
2 -3 -10
2 3 -9
-2 -3 9
-2 -3 8
2 3 -8
2 3 -7
-2 3 7
-2 -3 7
2 -3 -7
-2 3 6
2 3 -6
2 -3 -6
-2 -3 6
2 3 -5
-2 -3 5
2 -3 -5
-2 3 5
2 3 -4
2 -3 -4
-2 3 4
-2 -3 4
2 3 -3
-2 3 3
-2 -3 3
-2 -3 2
-2 3 2
2 3 -2
2 -3 -1
2 3 -1
-2 3 1
-2 -3 1
-2 -3 0
-2 3 0
2 -3 0
2 3 0
-2 -3 -1
2 3 1
2 -3 1
-2 3 -1
2 -3 2
-2 3 -2
2 3 2
-2 -3 -2
2 -3 3
2 3 3
-2 -3 -3
-2 3 -3
2 -3 4
-2 -3 -4
2 3 4
-2 3 -4
-2 -3 -5
-2 3 -5
2 3 5
2 -3 5
2 3 6
2 -3 7
-2 3 -7
2 -3 8
2 3 8
-2 3 -8
-2 -3 -8
2 -3 9
2 3 9
-2 3 -9
-2 -3 -9
2 3 10
-2 3 -10
2 -3 10
-2 -3 -10
2 -3 11
-2 3 -11
2 3 11
-2 -3 -11
2 3 12
-2 3 -12
2 -3 12
-2 -3 -12
2 -3 13
-2 4 10
2 -4 -10
-2 4 9
2 -4 -9
-2 4 8
2 -4 -8
-2 4 7
2 -4 -7
2 -4 -6
-2 4 6
2 -4 -5
-2 4 5
-2 -4 5
2 4 -5
-2 4 4
2 4 -4
2 -4 -4
-2 -4 4
-2 4 3
2 -4 -3
-2 -4 3
2 4 -3
-2 -4 2
-2 4 2
2 4 -2
2 -4 -2
2 4 -1
-2 -4 1
-2 4 0
2 4 0
2 -4 0
-2 -4 0
-2 -4 -3
2 4 3
2 -4 3
-2 4 -3
-2 4 -4
-2 -4 -4
2 -4 4
2 4 4
2 -4 5
2 4 5
-2 4 -5
-2 -4 -5
2 4 6
2 -4 6
-2 -4 -6
-2 4 -6
2 -4 7
2 4 7
-2 -4 -7
-2 4 -7
-2 4 -8
2 4 8
2 -4 8
-2 -4 -8
-2 -4 -9
-2 4 -9
2 4 9
2 -4 9
2 4 10
-2 -4 -10
2 4 11
2 -4 11
-2 4 -11
-2 -4 -11
2 -4 12
-2 4 -12
2 5 -10
-2 -5 10
2 5 -9
-2 -5 9
2 -5 -8
2 5 -8
-2 5 8
-2 -5 8
2 -5 -7
-2 5 7
2 5 -7
-2 -5 7
-2 5 6
2 -5 -6
2 5 -6
-2 -5 6
2 -5 -5
2 5 -5
-2 5 5
-2 -5 5
2 5 -4
-2 -5 4
2 -5 -4
-2 5 4
2 5 -3
2 -5 -3
-2 -5 3
2 -5 -2
2 5 -2
-2 -5 2
-2 5 1
-2 -5 1
2 -5 -1
2 5 -1
-2 -5 0
-2 5 0
2 -5 0
2 5 0
2 -5 1
-2 -5 -1
2 5 1
-2 5 -1
2 5 2
-2 5 -2
-2 -5 -2
2 -5 3
-2 5 -3
2 5 3
-2 -5 -3
2 5 4
2 -5 4
-2 5 -4
-2 -5 -4
-2 -5 -5
2 -5 5
2 5 5
-2 5 -5
-2 5 -6
2 5 6
-2 -5 -6
2 -5 6
2 5 7
-2 -5 -7
-2 5 -8
2 -5 8
2 5 9
2 -5 9
-2 5 -9
-2 -5 -9
2 -5 10
2 5 10
-2 -5 -10
-2 5 -10
2 5 11
2 -5 11
-2 5 -11
-2 -5 -11
-2 -6 10
-2 -6 9
2 6 -9
-2 6 8
2 6 -8
-2 -6 8
2 -6 -8
-2 6 7
2 6 -7
-2 -6 7
2 -6 -7
2 -6 -6
-2 -6 6
2 6 -6
-2 6 6
-2 6 5
2 -6 -5
2 -6 -4
-2 6 4
-2 6 3
2 -6 -3
-2 6 2
2 -6 -1
-2 6 1
-2 6 0
2 -6 0
2 6 3
-2 6 -3
-2 -6 -3
2 -6 3
2 6 4
2 -6 4
-2 6 -4
-2 -6 -4
-2 6 -5
2 -6 5
2 6 5
-2 -6 -5
-2 -6 -6
2 -6 6
-2 6 -6
2 6 6
2 6 7
-2 -6 -7
2 -6 8
2 6 8
-2 6 -8
-2 -6 -8
2 6 9
-2 -6 -9
2 6 10
-2 6 -10
2 -6 10
-2 -6 -10
-2 6 -11
2 -6 11
2 -6 12
2 7 -9
-2 -7 9
-2 7 8
2 7 -7
-2 7 7
2 -7 -7
-2 -7 7
-2 7 6
2 7 -6
2 -7 -6
-2 -7 6
2 -7 -5
-2 -7 5
2 7 -5
2 7 -4
-2 7 4
2 -7 -4
2 7 -3
-2 7 3
-2 -7 3
2 -7 -3
2 -7 -2
-2 -7 2
2 7 -2
2 7 -1
-2 -7 1
2 -7 -1
-2 7 1
-2 -7 0
2 -7 0
-2 7 0
2 7 0
2 -7 1
2 7 1
-2 7 -1
-2 -7 -1
-2 -7 -2
2 -7 2
2 7 2
-2 7 -2
-2 7 -3
-2 -7 -3
2 -7 3
2 7 3
-2 -7 -4
2 7 4
-2 7 -4
2 -7 4
-2 -7 -5
-2 7 -6
2 -7 6
-2 -7 -7
2 7 7
-2 7 -7
2 -7 7
-2 -7 -8
2 -7 8
2 7 8
-2 -7 -9
-2 7 -9
2 -7 9
2 7 9
2 7 10
-2 7 -10
2 -7 10
2 -7 11
-2 7 -11
2 8 -7
-2 -8 7
-2 8 7
2 -8 -6
-2 8 6
2 8 -6
-2 -8 6
2 8 -5
-2 8 5
2 -8 -5
-2 -8 5
2 -8 -4
2 8 -4
-2 8 4
-2 -8 4
-2 -8 3
-2 8 3
2 -8 -3
2 8 -2
-2 8 2
2 -8 -2
-2 -8 2
-2 -8 1
2 -8 -1
2 8 -1
-2 8 1
-2 -8 0
2 -8 0
-2 8 0
2 8 0
-2 8 -1
-2 -8 -1
2 8 1
2 -8 1
2 8 2
-2 8 -2
-2 -8 -2
2 -8 2
-2 -8 -3
2 -8 3
2 8 3
-2 8 -3
-2 -8 -4
2 -8 4
2 8 4
-2 8 -4
-2 -8 -5
2 8 5
-2 -8 -6
2 8 6
2 -8 6
2 -8 7
-2 8 -7
-2 -8 -8
2 -8 8
2 8 8
-2 8 -8
-2 -8 -9
2 8 9
-2 8 -10
2 -8 10
2 9 -7
-2 -9 7
-2 9 6
2 9 -5
-2 9 5
2 -9 -5
-2 -9 5
-2 -9 4
2 9 -4
-2 9 4
2 -9 -4
2 -9 -3
-2 9 3
-2 -9 3
2 9 -3
2 -9 -2
-2 -9 2
-2 9 2
2 9 -2
-2 9 1
2 -9 -1
2 9 -1
-2 -9 1
-2 -9 0
2 -9 0
-2 9 0
2 9 0
-2 -9 -1
2 -9 1
-2 9 -1
2 9 1
-2 -9 -2
2 9 2
2 -9 2
-2 9 -2
-2 -9 -3
2 -9 3
-2 9 -3
2 9 3
-2 -9 -4
2 9 4
-2 9 -5
2 -9 5
-2 9 -6
2 9 6
-2 -9 -6
2 -9 7
2 9 7
-2 9 -7
-2 -9 -7
2 9 8
2 -9 8
-2 9 -8
2 -9 9
-2 9 -9
2 10 -5
-2 -10 5
-2 -10 4
2 10 -4
-2 -10 3
2 10 -3
2 10 -2
-2 -10 2
-2 -10 1
2 10 -1
-2 -10 0
2 10 0
-2 -10 -1
2 -10 1
-2 10 -1
2 10 1
-2 -10 -2
2 -10 2
2 10 2
-2 10 -2
2 -10 3
-2 10 -3
-2 -10 -3
2 -10 4
-2 10 -4
2 10 4
-2 -10 -4
-2 -10 -5
2 10 5
3 0 -5
-3 0 5
-3 0 4
3 0 -4
3 0 -3
-3 0 3
3 0 -2
-3 0 2
3 0 0
-3 0 0
3 0 1
-3 0 -1
-3 0 -2
3 0 2
3 0 3
-3 0 -3
3 0 4
-3 0 -4
3 0 5
-3 0 -5
-3 0 -6
3 0 6
-3 0 -8
3 0 8
-3 0 -9
3 0 9
3 0 10
-3 0 -10
3 0 11
-3 0 -11
-3 0 -12
3 0 12
3 1 -7
-3 -1 7
3 1 -6
-3 1 6
-3 -1 6
3 -1 -5
3 1 -5
-3 -1 5
3 -1 -4
3 1 -4
-3 1 4
-3 -1 4
3 -1 -3
-3 1 3
-3 1 1
3 1 -1
-3 -1 1
3 -1 -1
-3 -1 0
3 1 0
3 -1 0
-3 1 0
3 1 1
-3 1 -1
-3 -1 -1
3 -1 1
3 1 2
-3 1 -2
3 -1 2
-3 -1 -2
3 -1 3
-3 -1 -3
3 1 3
-3 1 -3
3 1 4
-3 -1 -4
-3 1 -4
3 -1 4
3 1 5
-3 -1 -5
-3 1 -5
3 -1 5
3 -1 6
3 1 6
-3 1 -6
-3 -1 -6
-3 1 -8
3 -1 8
-3 -1 -8
3 1 8
3 1 9
3 -1 9
-3 -1 -9
-3 1 -9
3 -1 10
3 1 10
-3 1 -10
3 -1 11
-3 1 -11
3 1 12
-3 1 -12
3 -1 12
-3 -1 -12
3 -1 13
-3 1 -13
3 2 -10
-3 -2 10
3 2 -9
-3 -2 9
-3 2 7
3 -2 -7
-3 -2 6
-3 2 6
3 -2 -6
3 2 -6
-3 -2 5
3 -2 -5
-3 2 5
3 2 -5
3 2 -4
-3 -2 4
3 -2 -3
-3 -2 3
3 2 -2
3 -2 -2
-3 -2 2
-3 2 1
-3 -2 1
3 -2 -1
3 2 -1
-3 -2 0
-3 2 0
3 2 0
3 -2 0
3 2 1
-3 -2 -1
3 -2 1
-3 2 -1
3 -2 2
3 2 2
-3 -2 -2
-3 2 -2
3 2 3
-3 2 -3
3 -2 3
-3 -2 -3
-3 2 -4
3 2 4
-3 -2 -4
3 -2 4
3 2 5
-3 -2 -5
3 -2 6
-3 2 -6
3 -2 7
-3 2 -7
3 2 7
-3 -2 -7
3 2 8
-3 2 -8
-3 -2 -8
-3 2 -9
3 2 9
3 -2 9
-3 -2 -9
3 -2 10
3 2 10
-3 2 -10
-3 -2 -10
3 2 11
-3 2 -11
-3 -2 -11
3 -2 11
3 -2 12
-3 -2 -12
-3 2 -12
3 2 12
3 2 13
3 -2 13
3 3 -10
-3 -3 10
-3 3 9
3 3 -9
-3 -3 9
3 -3 -9
3 3 -8
-3 -3 8
3 3 -7
-3 3 7
3 -3 -7
3 3 -6
-3 3 6
-3 -3 6
3 -3 -6
3 3 -5
-3 3 5
-3 -3 5
3 -3 -5
3 3 -4
-3 -3 4
-3 3 3
-3 -3 3
3 -3 -3
-3 -3 2
-3 3 2
3 3 -2
3 -3 -1
3 3 -1
-3 3 1
-3 -3 1
3 -3 0
3 3 0
-3 3 0
-3 -3 0
3 -3 1
3 3 1
-3 3 -1
-3 -3 -1
3 -3 2
-3 -3 -2
3 3 2
3 -3 4
3 3 4
-3 3 -4
-3 -3 -4
-3 -3 -5
3 -3 5
3 3 5
-3 3 -5
-3 -3 -6
3 -3 6
3 3 6
-3 3 -6
3 -3 7
-3 -3 -7
-3 3 -7
3 3 8
-3 -3 -8
3 -3 9
3 3 9
-3 -3 -9
-3 -3 -10
3 3 10
-3 3 -11
3 -3 11
3 -3 12
-3 -3 -12
3 3 12
-3 3 -12
-3 3 -13
3 -3 13
3 -4 -9
-3 4 9
-3 4 8
3 -4 -8
-3 4 7
3 -4 -7
3 -4 -6
-3 4 6
-3 4 5
3 -4 -5
-3 4 4
3 -4 -4
3 -4 -3
-3 4 3
3 -4 -2
3 4 -2
-3 4 2
-3 -4 2
3 4 -1
-3 -4 1
-3 4 0
3 4 0
-3 -4 0
3 -4 0
3 -4 1
3 4 1
-3 4 -1
-3 -4 -1
3 4 2
-3 4 -2
3 -4 2
-3 -4 -2
-3 -4 -3
-3 4 -3
3 4 3
3 -4 3
3 -4 4
-3 4 -4
3 4 4
-3 -4 -4
3 4 5
3 -4 5
-3 -4 -5
-3 4 -5
3 4 6
3 -4 6
-3 4 -6
-3 -4 -6
3 4 7
-3 4 -7
3 -4 7
-3 -4 -7
3 4 8
-3 -4 -8
3 -4 9
-3 4 -9
3 -4 10
-3 4 -10
-3 -4 -10
3 4 10
-3 4 -11
3 4 11
3 -4 11
-3 -4 -11
3 4 12
3 -4 12
-3 4 -12
-3 -4 -12
3 -4 13
-3 -5 10
-3 -5 9
3 5 -9
3 5 -8
-3 5 8
3 -5 -8
-3 -5 8
-3 5 7
3 5 -7
-3 -5 7
3 -5 -6
-3 5 6
3 5 -6
-3 -5 5
3 -5 -5
-3 5 5
3 5 -5
3 5 -4
-3 5 4
3 -5 -4
-3 -5 4
3 -5 -3
3 5 -3
-3 5 3
-3 -5 3
3 5 -2
3 -5 -2
-3 -5 2
3 5 -1
-3 -5 1
3 -5 0
-3 -5 0
-3 5 0
3 5 0
3 -5 1
3 5 1
-3 5 -1
-3 -5 -1
-3 -5 -2
3 5 2
3 -5 2
-3 5 -2
-3 5 -3
3 -5 3
3 5 3
-3 -5 -3
3 -5 4
3 5 4
-3 5 -4
-3 -5 -4
-3 5 -6
3 5 6
3 -5 6
3 5 7
3 -5 7
-3 5 -7
-3 -5 -7
3 5 8
-3 5 -8
-3 -5 -8
3 -5 8
-3 5 -9
3 5 9
3 -5 9
-3 -5 -9
3 5 10
-3 -5 -10
-3 5 -11
3 5 11
3 -5 11
-3 -5 -11
3 -5 12
-3 5 -12
3 6 -9
-3 -6 9
-3 -6 8
-3 6 8
3 6 -8
-3 6 7
-3 -6 7
3 -6 -7
3 6 -7
-3 -6 6
3 -6 -6
-3 6 6
3 6 -6
-3 -6 5
3 -6 -5
-3 6 5
3 6 -5
3 6 -4
-3 6 4
3 -6 -4
-3 -6 4
-3 -6 3
3 -6 -3
3 6 -3
-3 6 3
3 6 -2
-3 -6 2
3 6 -1
-3 -6 1
3 6 0
-3 6 0
-3 -6 0
3 -6 0
-3 -6 -1
-3 6 -1
3 -6 1
3 6 1
3 6 2
-3 -6 -2
-3 6 -3
-3 -6 -3
3 6 3
3 -6 3
3 -6 4
3 6 4
-3 6 -4
-3 -6 -4
3 6 5
3 -6 5
-3 6 -5
-3 -6 -5
3 -6 6
-3 6 -6
-3 -6 -6
-3 -6 -7
3 6 7
3 -6 8
-3 -6 -8
3 6 8
3 -6 9
3 6 9
-3 6 -9
-3 -6 -9
-3 6 -10
3 6 10
3 -6 10
-3 -6 -10
3 6 11
-3 -6 -11
3 -6 12
-3 6 -12
-3 -7 8
3 7 -8
-3 7 7
3 -7 -7
-3 7 6
3 -7 -6
3 -7 -5
-3 7 5
-3 -7 5
3 7 -5
-3 -7 4
3 -7 -4
-3 7 4
3 7 -4
3 -7 -3
-3 7 3
3 7 -3
-3 -7 2
3 7 -2
-3 7 2
3 -7 -2
-3 -7 1
3 -7 -1
3 7 -1
3 7 0
-3 7 0
-3 -7 0
3 -7 0
-3 -7 -1
-3 7 -1
3 7 1
3 -7 1
-3 -7 -4
-3 7 -4
3 -7 4
3 7 4
-3 7 -5
3 7 5
3 -7 5
-3 -7 -6
3 7 6
-3 7 -6
3 -7 6
-3 -7 -7
-3 7 -7
3 -7 7
3 7 7
-3 -7 -8
3 7 8
-3 7 -9
3 7 9
3 -7 9
-3 -7 -9
-3 -7 -10
3 7 10
-3 7 -10
3 -7 10
-3 -8 8
-3 8 6
3 -8 -6
3 -8 -5
-3 8 5
-3 -8 5
3 8 -5
-3 -8 4
3 -8 -4
-3 8 4
3 8 -4
-3 -8 3
3 -8 -3
-3 8 3
3 8 -3
-3 -8 2
3 -8 -2
-3 8 2
3 8 -2
-3 -8 1
3 -8 -1
3 8 -1
-3 8 1
-3 -8 0
3 8 0
-3 8 0
3 8 1
-3 8 -1
-3 -8 -1
3 -8 1
-3 -8 -2
3 -8 2
3 8 2
-3 8 -2
3 8 3
-3 -8 -3
-3 8 -4
3 -8 4
-3 -8 -5
-3 8 -5
3 -8 5
-3 -8 -6
3 -8 6
3 8 6
-3 8 -6
3 8 7
-3 8 -7
-3 -8 -7
-3 -8 -8
3 8 8
-3 8 -9
3 -8 9
3 -8 11
-3 -9 7
-3 -9 6
3 9 -6
-3 -9 5
-3 9 5
3 9 -5
3 -9 -4
-3 9 4
3 -9 -3
-3 9 3
-3 -9 2
3 -9 -2
-3 9 2
3 9 -1
-3 9 1
-3 -9 1
3 -9 -1
-3 -9 0
3 -9 0
-3 9 0
3 9 0
-3 9 -1
3 -9 1
-3 -9 -3
3 -9 3
3 9 3
-3 9 -3
3 -9 4
-3 9 -4
3 9 4
-3 -9 -5
3 -9 5
3 9 5
-3 9 -5
-3 -9 -6
3 9 6
3 -9 7
-3 9 -7
-3 -9 -8
3 -9 8
3 9 8
-3 9 -8
-3 -10 3
-3 10 3
3 -10 -3
3 10 -3
3 -10 -2
-3 10 2
3 10 -2
3 -10 -1
-3 10 1
3 10 -1
-3 -10 1
-3 -10 0
3 -10 0
-3 10 0
3 10 0
-3 -10 -1
3 10 1
3 -10 1
-3 -10 -2
3 -10 2
-3 10 -2
3 10 2
4 0 -7
4 0 -6
-4 0 6
-4 0 5
4 0 -5
4 0 -3
-4 0 3
4 0 -2
-4 0 2
4 0 -1
-4 0 1
4 0 0
-4 0 0
4 0 1
-4 0 -1
4 0 2
-4 0 -2
4 0 3
-4 0 -3
4 0 5
-4 0 -5
4 0 6
-4 0 -6
-4 0 -7
4 0 7
4 0 8
-4 0 -8
-4 0 -9
4 0 9
4 0 10
-4 0 -10
-4 0 -11
4 0 11
-4 0 -12
4 0 12
4 0 13
-4 0 -13
-4 -1 8
4 1 -8
4 1 -7
-4 -1 7
4 -1 -6
-4 1 6
4 -1 -5
4 1 -5
-4 -1 5
-4 1 5
4 -1 -4
4 1 -4
-4 -1 4
-4 1 4
4 -1 -3
4 1 -3
-4 -1 3
-4 1 3
4 -1 -2
-4 -1 2
-4 1 2
4 -1 -1
4 1 -1
-4 1 1
-4 -1 1
-4 -1 0
4 -1 0
4 1 0
-4 1 0
4 -1 1
4 1 1
-4 1 -1
-4 -1 -1
4 -1 2
4 1 2
-4 1 -2
-4 -1 -2
-4 -1 -3
4 -1 3
4 1 3
-4 1 -3
4 -1 5
4 1 5
-4 1 -5
-4 -1 -5
4 -1 6
4 1 6
-4 1 -6
-4 -1 -6
4 -1 7
4 1 7
-4 1 -7
-4 -1 -7
4 -1 8
-4 -1 -8
-4 1 -8
4 1 9
-4 1 -9
-4 -1 -9
4 -1 9
-4 1 -11
4 -1 11
-4 -1 -11
4 1 11
4 -1 12
-4 1 -12
-4 -1 -12
4 1 12
-4 1 -13
4 -1 13
4 1 13
-4 -1 -13
-4 -2 9
4 2 -9
4 2 -7
4 -2 -7
-4 2 7
-4 -2 7
4 2 -6
-4 -2 6
4 -2 -5
4 2 -5
-4 2 5
-4 -2 5
4 -2 -4
4 2 -4
-4 2 4
-4 -2 4
4 2 -3
-4 2 3
4 -2 -3
-4 -2 3
4 -2 -2
-4 -2 2
-4 2 1
4 2 -1
-4 -2 1
4 -2 -1
4 2 0
-4 2 0
4 -2 0
-4 -2 0
4 -2 1
4 2 1
-4 -2 -1
-4 2 -1
4 -2 2
-4 2 -2
4 -2 3
-4 2 -3
4 2 3
-4 -2 -3
-4 2 -4
4 -2 4
4 2 4
-4 -2 -4
-4 2 -5
4 -2 5
4 2 5
-4 -2 -5
4 -2 6
4 2 6
-4 -2 -6
-4 2 -6
4 -2 7
4 2 7
-4 2 -7
-4 -2 -7
4 -2 8
-4 -2 -8
-4 2 -8
4 2 9
-4 -2 -9
-4 -2 -10
4 2 10
-4 2 -10
4 2 11
-4 2 -11
4 -2 11
-4 -2 -11
-4 2 -12
-4 -2 -12
4 -2 12
4 2 12
4 -2 13
-4 -2 -13
-4 3 9
-4 -3 9
4 3 -8
-4 -3 8
4 3 -7
-4 3 7
-4 -3 7
4 -3 -7
4 3 -6
-4 3 6
-4 -3 6
4 -3 -6
4 3 -5
4 -3 -5
-4 -3 5
4 -3 -4
4 3 -4
-4 3 4
-4 -3 4
4 3 -3
-4 3 3
4 -3 -3
-4 -3 3
-4 3 2
4 -3 -2
-4 -3 2
-4 3 1
4 -3 -1
4 3 0
-4 -3 0
4 -3 1
4 3 1
-4 -3 -1
-4 3 -1
4 3 2
-4 3 -2
-4 -3 -2
4 -3 3
4 3 3
-4 -3 -3
-4 3 -3
4 -3 4
4 3 4
-4 3 -4
-4 -3 -4
4 -3 5
4 3 5
-4 -3 -5
-4 3 -5
4 3 6
4 -3 6
-4 3 -6
-4 -3 -6
4 -3 7
4 3 7
-4 3 -7
4 -3 8
-4 3 -8
4 3 9
4 -3 9
-4 3 -9
-4 -3 -9
4 -3 10
4 3 10
-4 -3 -10
-4 3 -10
4 -3 11
4 3 11
-4 -3 -11
4 3 12
-4 -3 -12
4 -3 13
-4 3 -13
-4 -4 8
-4 4 8
4 -4 -8
4 4 -8
4 4 -7
-4 4 7
-4 -4 7
4 -4 -7
4 4 -6
-4 4 6
-4 -4 6
4 -4 -6
4 4 -5
-4 4 5
-4 -4 5
4 -4 -5
4 4 -4
-4 -4 4
4 4 -3
-4 4 3
-4 -4 3
4 -4 -3
-4 -4 2
-4 4 2
4 -4 -2
4 -4 -1
-4 -4 1
4 4 -1
-4 4 1
4 -4 0
4 4 0
-4 4 0
-4 -4 0
4 -4 1
4 4 1
-4 4 -1
-4 -4 -1
-4 4 -2
-4 -4 -2
4 4 2
4 -4 2
4 -4 3
4 4 3
-4 4 -3
-4 -4 -3
4 -4 4
4 4 4
-4 4 -4
-4 -4 -4
4 4 5
-4 -4 -5
-4 4 -6
4 -4 6
4 -4 7
4 4 7
-4 4 -7
-4 -4 -7
4 -4 8
4 4 8
-4 4 -8
-4 -4 -8
4 -4 9
4 4 9
-4 4 -9
-4 -4 -9
4 -4 10
-4 4 -10
-4 -4 -10
4 4 11
4 -4 11
-4 4 -11
-4 -4 -11
4 4 12
4 -4 12
-4 4 -12
-4 -4 -12
-4 4 -13
4 -4 13
-4 -5 9
4 5 -8
-4 5 8
-4 -5 7
4 5 -7
4 -5 -7
-4 5 7
4 5 -6
-4 5 6
-4 -5 6
4 -5 -6
4 5 -5
-4 5 5
-4 -5 5
4 -5 -5
-4 -5 4
-4 5 4
4 -5 -4
4 5 -4
-4 -5 3
4 -5 -3
-4 5 3
4 5 -3
4 -5 -2
-4 5 2
-4 -5 2
-4 -5 1
4 -5 -1
4 5 -1
4 -5 0
4 5 0
-4 5 0
-4 -5 0
-4 5 -1
4 -5 1
4 -5 3
4 5 3
-4 5 -3
-4 -5 -3
4 -5 4
4 5 4
-4 5 -4
-4 -5 -4
-4 -5 -5
4 5 5
4 -5 5
-4 5 -5
4 -5 6
4 5 6
-4 5 -6
-4 -5 -6
4 -5 7
-4 5 -7
-4 -5 -7
4 5 8
-4 -5 -8
4 -5 9
-4 5 -9
-4 5 -10
4 5 10
4 -5 10
-4 -5 -10
4 5 11
-4 5 -11
4 -5 11
-4 -5 -11
4 -5 12
-4 5 -12
-4 -6 8
4 6 -8
4 6 -7
-4 6 7
-4 -6 7
4 -6 -7
4 6 -6
-4 6 6
-4 -6 6
4 -6 -6
4 6 -5
-4 -6 5
4 6 -4
-4 -6 4
-4 6 3
-4 -6 3
4 -6 -3
-4 -6 2
-4 6 2
4 -6 -2
4 6 -2
4 6 -1
-4 -6 1
4 -6 -1
-4 -6 0
4 6 0
-4 6 0
4 -6 1
4 6 1
-4 6 -1
-4 -6 -1
4 -6 2
4 6 2
-4 6 -2
-4 -6 -2
4 -6 3
4 6 3
-4 6 -3
-4 -6 -3
4 -6 4
4 6 4
-4 6 -4
-4 -6 -4
4 6 5
-4 -6 -5
-4 6 -6
4 -6 6
-4 6 -7
4 6 7
4 -6 7
-4 -6 -7
-4 -6 -8
4 6 8
-4 6 -8
-4 6 -9
4 6 9
4 -6 9
-4 -6 -9
4 -6 10
4 6 10
-4 6 -10
-4 -6 -10
4 6 11
4 -6 11
-4 -6 -11
-4 6 -11
4 7 -7
-4 -7 7
-4 -7 6
4 7 -6
4 -7 -6
-4 7 6
-4 -7 5
4 7 -5
4 -7 -5
-4 7 5
4 7 -4
-4 7 4
-4 -7 4
4 -7 -4
-4 -7 3
4 -7 -3
4 7 -3
-4 7 3
-4 7 2
4 -7 -2
4 7 -2
-4 -7 1
4 7 -1
4 7 0
-4 -7 0
4 7 1
-4 7 -1
-4 -7 -1
4 -7 1
4 7 2
4 -7 2
-4 7 -2
-4 -7 -2
-4 -7 -3
4 -7 3
-4 7 -3
4 7 3
-4 -7 -4
4 -7 4
4 7 4
-4 7 -4
-4 -7 -5
4 -7 5
4 7 5
-4 7 -5
-4 -7 -6
4 -7 7
-4 7 -7
4 7 8
4 -7 8
-4 7 -8
-4 -7 -8
4 7 9
4 -7 9
-4 7 -9
-4 -7 -9
4 7 10
-4 7 -10
-4 -7 -10
-4 7 -11
4 -7 11
-4 -8 7
-4 -8 6
4 8 -6
4 8 -5
-4 -8 5
4 -8 -5
-4 8 5
-4 -8 4
4 -8 -4
-4 8 4
4 8 -4
-4 8 3
4 -8 -3
4 -8 -2
-4 8 2
4 -8 -1
-4 8 1
-4 -8 0
4 8 0
-4 -8 -1
4 8 1
4 8 2
-4 8 -2
-4 -8 -2
4 -8 2
-4 -8 -3
-4 8 -3
4 -8 3
4 8 3
-4 -8 -4
-4 8 -4
4 -8 4
4 8 4
-4 8 -5
4 -8 5
4 8 5
4 8 6
-4 -8 -6
-4 -8 -7
-4 8 -7
4 8 7
4 -8 7
-4 8 -8
4 8 8
4 -8 8
-4 -8 -8
-4 8 -9
4 8 9
4 -8 9
-4 -8 -9
-4 8 -10
4 -8 10
-4 -9 6
-4 -9 5
4 9 -5
-4 -9 4
4 9 -4
-4 -9 3
4 9 -3
4 9 -2
-4 -9 2
-4 -9 1
4 9 0
-4 9 0
-4 -9 0
4 -9 0
-4 -9 -1
4 -9 1
4 9 1
-4 9 -1
-4 -9 -2
4 -9 2
4 9 2
-4 9 -2
-4 -9 -3
4 -9 3
4 9 3
-4 9 -3
-4 -9 -4
4 9 4
-4 9 -5
4 -9 5
-4 -9 -6
-4 9 -6
4 -9 6
4 9 6
-4 -9 -7
4 9 7
4 -10 -2
5 0 -7
-5 0 7
5 0 -6
-5 0 6
5 0 -5
-5 0 5
-5 0 4
5 0 -4
5 0 -3
-5 0 3
5 0 -2
-5 0 2
-5 0 1
5 0 0
-5 0 0
5 0 2
-5 0 -2
-5 0 -3
5 0 3
5 0 4
-5 0 -4
5 0 5
-5 0 -5
-5 0 -6
5 0 6
5 0 7
-5 0 -7
5 0 9
-5 0 -9
-5 0 -10
5 0 10
5 0 11
-5 0 -11
5 0 13
-5 0 -13
-5 -1 8
5 1 -8
5 -1 -7
-5 1 7
-5 -1 7
5 1 -7
5 -1 -6
-5 1 6
5 1 -6
-5 -1 6
5 -1 -5
-5 1 5
-5 -1 5
5 1 -5
5 -1 -4
5 1 -4
-5 1 4
-5 -1 4
5 -1 -3
5 1 -3
-5 1 3
-5 -1 3
5 -1 -2
5 1 -2
-5 -1 2
-5 1 2
5 -1 -1
-5 1 1
-5 -1 1
-5 1 0
5 -1 1
5 1 1
-5 1 -1
-5 -1 -1
5 1 2
-5 1 -2
-5 -1 -2
5 -1 2
5 -1 3
5 1 3
-5 1 -3
-5 -1 -3
5 -1 4
5 1 4
-5 1 -4
-5 -1 -4
5 -1 5
5 1 5
-5 1 -5
-5 -1 -5
5 -1 6
5 1 6
-5 -1 -6
-5 1 -6
5 -1 7
-5 1 -7
5 1 7
-5 -1 -7
5 -1 8
5 1 8
-5 1 -8
5 -1 9
5 1 9
-5 -1 -9
-5 1 -9
5 -1 10
5 1 10
-5 1 -10
-5 1 -11
-5 -1 -11
5 1 11
5 -1 11
-5 1 -12
5 -1 12
5 -1 13
5 1 13
-5 -1 -13
-5 1 -13
-5 -2 8
5 2 -8
-5 2 8
5 -2 -8
5 2 -7
5 -2 -7
-5 -2 7
5 -2 -6
5 2 -6
-5 2 6
-5 -2 6
5 2 -5
-5 2 5
-5 -2 5
5 -2 -4
5 2 -4
-5 2 4
-5 -2 4
5 -2 -3
5 2 -3
-5 2 3
-5 -2 3
5 -2 -2
-5 2 2
5 -2 0
5 2 0
-5 2 0
-5 -2 0
5 2 1
-5 2 -1
5 -2 1
-5 -2 -1
5 2 2
-5 2 -2
5 -2 2
-5 -2 -2
-5 -2 -3
5 -2 3
5 2 3
-5 2 -3
-5 2 -4
5 -2 4
5 2 4
-5 -2 -4
5 -2 5
5 2 5
-5 2 -5
-5 -2 -5
5 -2 6
5 2 6
-5 2 -6
-5 -2 -6
5 -2 7
-5 2 -7
5 -2 8
-5 -2 -8
5 2 8
-5 2 -8
5 -2 9
-5 2 -9
5 2 9
-5 -2 -9
5 2 10
-5 2 -10
5 -2 10
-5 -2 -10
5 2 11
-5 -2 -11
-5 2 -12
-5 -2 -12
5 -2 12
5 2 12
5 -2 13
-5 2 -13
-5 -2 -13
5 2 13
5 3 -8
-5 3 8
-5 -3 8
5 3 -7
-5 3 7
-5 -3 7
5 -3 -7
5 -3 -6
-5 3 6
5 -3 -5
-5 3 5
5 -3 -4
5 3 -4
-5 3 4
-5 -3 4
5 3 -3
-5 -3 3
5 -3 -2
5 3 -2
-5 3 2
-5 -3 2
5 -3 -1
-5 -3 1
5 -3 0
5 3 0
-5 3 0
-5 -3 0
5 3 1
5 -3 1
-5 3 -1
-5 -3 -1
5 3 2
5 -3 2
-5 3 -2
-5 -3 -2
5 -3 3
-5 3 -3
5 3 3
-5 -3 -3
5 -3 4
-5 -3 -4
5 3 4
-5 3 -4
5 3 6
-5 3 -6
5 -3 6
-5 -3 -6
5 -3 7
5 3 7
-5 3 -7
-5 -3 -7
5 -3 8
-5 3 -8
-5 -3 -8
5 -3 9
-5 3 -9
5 3 9
-5 -3 -9
5 3 10
-5 -3 -10
5 -3 11
5 3 11
-5 3 -11
-5 -3 -11
5 -3 12
5 3 12
-5 -3 -12
-5 3 -12
5 3 13
5 4 -8
-5 -4 8
-5 -4 7
5 -4 -7
5 4 -7
-5 4 7
5 4 -6
-5 -4 6
5 -4 -5
5 4 -5
-5 -4 5
5 -4 -4
5 4 -4
-5 4 4
-5 -4 4
5 -4 -3
5 4 -3
-5 4 3
-5 -4 3
-5 -4 2
5 4 -2
5 -4 -2
-5 4 2
5 -4 -1
-5 4 1
-5 -4 1
5 -4 0
5 4 0
-5 4 0
-5 -4 0
5 -4 1
5 4 1
-5 4 -1
-5 -4 -1
5 -4 2
-5 4 -2
5 4 3
-5 -4 -3
5 -4 4
5 4 4
-5 4 -4
-5 -4 -4
5 4 5
5 -4 5
-5 -4 -5
5 4 6
5 -4 6
-5 -4 -6
5 -4 7
5 4 7
-5 4 -7
-5 -4 -7
5 4 8
-5 -4 -8
5 -4 9
-5 4 -9
-5 -4 -9
5 -4 10
5 4 10
-5 4 -10
-5 -4 -10
5 4 11
5 -4 11
-5 -4 -11
-5 4 -11
-5 4 -12
5 -4 12
-5 4 -13
5 -4 13
-5 -5 8
-5 5 7
5 -5 -6
-5 5 6
-5 5 5
5 -5 -5
-5 5 4
5 -5 -4
-5 -5 3
5 -5 -3
5 5 -3
-5 5 3
5 -5 -2
-5 -5 2
5 5 -2
-5 5 2
-5 -5 1
5 -5 0
5 5 0
-5 -5 0
5 -5 1
5 5 1
-5 5 -1
-5 -5 -1
-5 -5 -2
-5 5 -2
5 5 2
5 -5 2
5 -5 3
5 5 3
-5 5 -3
-5 -5 -3
5 -5 4
5 5 4
-5 5 -4
-5 -5 -4
5 5 5
-5 5 -5
5 -5 5
-5 -5 -5
5 5 7
-5 5 -7
5 -5 7
5 5 8
-5 5 -8
5 -5 8
-5 -5 -8
5 -5 9
-5 -5 -9
5 5 9
-5 5 -9
5 5 10
-5 5 -10
-5 -5 -10
5 -5 11
5 5 11
-5 5 -11
-5 -5 -11
5 -5 12
5 5 12
5 6 -7
-5 -6 7
-5 -6 6
5 6 -6
-5 6 6
5 6 -5
-5 6 5
-5 -6 5
5 -6 -5
5 6 -4
-5 6 4
-5 -6 4
5 -6 -4
-5 -6 3
-5 6 3
5 -6 -3
5 6 -3
5 6 -2
-5 6 2
-5 -6 2
-5 -6 1
5 -6 -1
5 6 -1
-5 6 1
-5 -6 0
5 -6 0
5 6 0
-5 6 0
-5 6 -1
-5 -6 -3
-5 6 -3
5 6 3
5 -6 3
-5 -6 -4
-5 6 -4
5 6 4
5 -6 4
5 -6 5
5 6 5
-5 6 -5
-5 -6 -5
5 6 6
-5 6 -6
5 -6 6
-5 -6 -6
5 -6 7
-5 6 -7
-5 -6 -7
5 -6 8
5 -6 9
5 6 9
-5 6 -9
-5 -6 -9
5 6 10
-5 -6 -10
-5 6 -11
5 -6 11
-5 -7 6
5 7 -6
-5 -7 5
5 7 -5
-5 -7 4
5 7 -4
-5 -7 3
-5 7 3
5 -7 -3
5 7 -3
-5 -7 2
-5 7 2
5 -7 -2
5 7 -2
-5 7 1
5 -7 -1
5 7 -1
5 7 0
-5 7 0
-5 -7 0
5 -7 0
-5 -7 -1
5 -7 1
5 7 1
5 -7 2
5 7 2
-5 7 -2
-5 -7 -2
-5 -7 -3
5 -7 3
5 7 3
-5 7 -3
-5 -7 -5
5 7 5
5 -7 5
-5 7 -5
5 7 6
5 -7 6
-5 7 -6
5 7 7
5 -7 7
-5 7 -7
-5 -7 -7
5 -7 8
5 -7 9
5 7 9
-5 7 -9
-5 -7 -9
5 7 10
-5 -7 -10
5 -7 11
-5 7 -11
-5 -8 6
-5 -8 5
5 8 -5
-5 -8 4
5 8 -4
-5 -8 3
5 -8 -3
5 8 -3
-5 8 3
-5 -8 2
5 -8 -2
5 8 -2
-5 8 2
-5 8 1
5 8 -1
5 -8 -1
-5 -8 1
-5 -8 0
5 8 0
-5 8 0
5 -8 0
-5 -8 -1
-5 8 -1
5 8 1
5 -8 1
-5 -8 -2
-5 8 -2
5 -8 2
5 8 2
-5 8 -4
5 8 4
-5 -8 -5
5 8 5
-5 8 -5
5 -8 5
5 -8 6
-5 8 -6
-5 -8 -6
5 -8 7
-5 8 -7
5 8 8
-5 8 -8
-5 -8 -8
5 8 9
-5 -8 -9
5 -9 -2
-5 9 2
5 -9 -1
-5 9 1
5 -9 0
-5 9 0
-5 -9 -1
5 9 1
-5 -9 -2
-5 9 -2
5 -9 2
5 9 2
-5 -9 -3
-5 9 -3
5 -9 3
5 9 3
-5 -9 -4
-5 9 -4
5 -9 4
5 9 4
-6 0 8
-6 0 7
6 0 -7
6 0 -6
-6 0 6
-6 0 5
6 0 -5
6 0 -4
-6 0 4
6 0 -2
-6 0 2
-6 0 1
6 0 -1
6 0 0
-6 0 0
-6 0 -1
6 0 1
-6 0 -2
6 0 2
-6 0 -3
6 0 3
-6 0 -4
6 0 4
-6 0 -5
6 0 5
-6 0 -6
6 0 6
-6 0 -7
6 0 7
6 0 8
-6 0 -8
-6 0 -9
-6 0 -10
6 0 10
6 0 11
-6 0 -11
6 0 12
-6 0 -12
-6 0 -13
6 0 13
-6 -1 8
6 -1 -7
6 1 -7
6 -1 -6
6 1 -6
-6 -1 6
-6 1 6
6 -1 -5
6 1 -5
-6 1 5
-6 -1 5
6 -1 -4
-6 1 4
6 1 -3
-6 -1 3
6 -1 -2
6 1 -2
-6 1 2
-6 -1 2
6 -1 -1
6 1 -1
-6 1 1
-6 -1 1
6 -1 0
-6 1 0
-6 -1 0
6 1 1
-6 1 -1
-6 -1 -1
6 -1 1
6 -1 2
6 1 2
-6 -1 -2
-6 1 -2
6 1 3
-6 -1 -3
6 -1 3
-6 1 -3
6 -1 5
6 1 5
-6 1 -5
-6 -1 -5
6 -1 6
6 1 6
-6 1 -6
-6 -1 -6
6 1 7
-6 1 -7
-6 -1 -7
6 -1 7
6 -1 8
6 1 8
-6 1 -8
-6 -1 -8
-6 -1 -9
6 -1 10
-6 1 -10
-6 1 -11
-6 -1 -11
6 -1 11
6 1 11
6 -1 12
-6 1 -12
-6 -1 -12
6 -1 13
6 1 13
-6 1 -13
-6 -1 -13
-6 -2 8
6 -2 -7
6 2 -7
-6 2 7
-6 -2 7
6 -2 -6
6 2 -6
-6 2 6
-6 -2 6
6 -2 -5
6 2 -4
-6 -2 4
6 -2 -3
6 2 -3
-6 2 3
-6 -2 3
6 -2 -2
6 2 -2
-6 2 2
-6 -2 2
6 -2 -1
6 2 -1
-6 2 1
-6 -2 1
6 -2 0
-6 -2 0
6 -2 1
6 2 1
-6 2 -1
-6 -2 -1
6 -2 2
6 2 2
-6 2 -2
-6 -2 -2
-6 2 -3
6 2 4
-6 2 -4
6 -2 4
-6 -2 -4
6 2 5
-6 2 -5
6 -2 5
-6 -2 -5
6 -2 6
6 2 6
-6 2 -6
-6 -2 -6
6 -2 7
6 2 7
-6 2 -7
-6 -2 -7
6 -2 8
6 2 8
-6 2 -8
-6 -2 -8
6 2 9
-6 2 -9
6 -2 9
-6 -2 -9
6 2 10
-6 2 -10
6 -2 10
-6 -2 -10
6 -2 11
-6 2 -11
-6 -2 -11
6 2 11
-6 2 -12
6 -2 12
-6 2 -13
6 -2 13
6 2 13
6 3 -7
-6 -3 7
6 3 -6
-6 -3 6
6 3 -5
6 -3 -5
-6 3 5
-6 -3 5
6 3 -4
6 -3 -4
-6 3 4
-6 -3 4
-6 3 3
6 3 -3
6 -3 -3
-6 -3 3
6 3 -2
-6 3 2
6 -3 -2
-6 -3 2
6 -3 -1
6 3 -1
-6 3 1
-6 -3 1
6 -3 0
-6 -3 0
-6 3 -1
6 3 2
-6 -3 -2
6 -3 3
6 3 3
-6 3 -3
-6 -3 -3
6 -3 4
6 3 4
-6 3 -4
-6 -3 -4
6 -3 5
6 3 5
-6 3 -5
-6 -3 -5
6 -3 6
6 3 6
-6 3 -6
-6 -3 -6
6 3 7
-6 -3 -7
6 -3 8
6 3 8
6 -3 9
6 3 9
-6 3 -9
-6 -3 -9
6 -3 10
-6 3 -10
6 3 10
-6 -3 -10
6 -3 11
-6 3 -11
6 3 12
-6 3 -12
6 -3 12
-6 -3 -12
6 3 13
6 4 -7
-6 -4 7
6 4 -6
-6 4 6
-6 -4 6
6 -4 -5
6 4 -5
-6 4 5
-6 -4 5
6 4 -4
-6 4 4
6 -4 -4
-6 -4 4
6 -4 -3
-6 4 3
6 -4 -2
6 4 -2
-6 4 2
6 4 -1
-6 -4 1
6 -4 0
-6 4 0
-6 -4 0
6 -4 1
6 4 1
-6 4 -1
-6 -4 -1
6 4 2
-6 -4 -2
6 -4 3
6 4 3
-6 -4 -3
6 -4 4
6 4 4
-6 4 -4
-6 -4 -4
6 4 5
-6 4 -5
6 -4 5
-6 -4 -5
6 -4 6
-6 4 -6
6 4 7
-6 4 -7
6 -4 7
-6 -4 -7
6 4 8
6 -4 8
-6 -4 -8
6 4 9
6 -4 9
-6 -4 -9
6 4 10
6 -4 10
-6 4 -10
-6 -4 -10
6 4 11
-6 4 -11
6 -4 11
-6 -4 -11
6 4 12
-6 4 -12
6 -4 12
-6 -4 -12
-6 4 -13
6 -4 13
-6 -5 7
-6 -5 6
6 5 -6
-6 -5 5
6 5 -5
-6 -5 4
6 5 -4
6 -5 -4
-6 5 4
-6 -5 3
6 5 -3
6 -5 -3
-6 5 3
6 -5 -2
6 5 -2
-6 5 2
-6 -5 2
6 5 -1
6 -5 -1
-6 5 1
-6 -5 1
6 -5 0
6 5 0
-6 5 0
-6 -5 0
6 -5 1
6 5 1
-6 -5 -1
-6 5 -2
6 -5 2
6 5 3
-6 -5 -3
6 5 4
6 -5 4
-6 5 -4
-6 -5 -4
-6 5 -5
6 5 5
6 -5 5
-6 -5 -5
-6 5 -6
6 5 6
6 -5 6
-6 -5 -6
-6 5 -7
6 5 7
6 -5 7
-6 -5 -7
6 -5 8
-6 5 -8
6 5 9
-6 5 -9
-6 -5 -9
6 5 10
-6 -5 -10
6 5 11
-6 5 -11
6 -5 11
-6 -5 -11
6 5 12
-6 -6 5
-6 6 5
6 6 -5
-6 -6 4
-6 6 4
6 -6 -4
6 6 -4
-6 -6 3
6 6 -3
6 -6 -3
-6 6 3
6 6 -2
-6 -6 2
-6 -6 1
6 6 -1
6 -6 0
6 6 0
-6 6 0
-6 -6 0
-6 -6 -1
-6 6 -1
6 6 1
6 -6 1
-6 6 -2
6 6 2
-6 -6 -2
6 6 3
-6 6 -3
6 -6 3
-6 -6 -3
6 -6 4
6 6 4
-6 6 -4
-6 -6 -4
6 -6 6
6 6 6
-6 6 -6
-6 -6 -6
6 6 7
6 -6 7
-6 6 -7
6 6 8
-6 -6 -8
6 6 9
-6 6 -9
-6 -6 -9
6 6 10
-6 6 -10
6 -6 10
-6 -6 -10
6 6 11
-6 6 -11
6 -6 11
-6 -6 -11
-6 7 4
-6 7 3
6 -7 -3
-6 7 2
6 -7 -2
-6 -7 1
6 -7 -1
6 7 -1
-6 7 1
6 7 0
-6 -7 -1
6 7 1
6 -7 1
-6 7 -1
6 -7 2
6 7 2
-6 7 -2
-6 -7 -2
6 7 3
6 -7 3
-6 7 -3
-6 -7 -3
6 7 4
6 -7 4
-6 -7 -4
-6 7 -4
-6 7 -6
6 7 6
6 -7 6
-6 -7 -6
-6 7 -7
6 -7 7
-6 -7 -7
-6 7 -8
6 -7 8
6 7 9
-6 7 -9
-6 -7 -9
-6 -8 4
6 8 -4
-6 -8 3
6 8 -3
-6 -8 2
-6 8 2
6 -8 -2
6 8 -2
-6 -8 1
6 8 -1
-6 -8 0
6 8 0
-6 -8 -1
-6 8 -1
6 -8 1
6 8 1
-6 -8 -2
-6 8 -2
6 8 2
6 -8 2
6 8 3
6 -8 3
-6 -8 -3
6 8 5
6 -8 5
-6 8 -5
-6 -8 -5
6 8 6
6 -8 6
-6 8 -6
6 -9 -1
-6 9 1
-6 9 0
6 -9 0
7 0 -5
-7 0 5
-7 0 4
7 0 -4
7 0 -3
-7 0 3
-7 0 2
7 0 -2
7 0 -1
-7 0 1
-7 0 0
7 0 0
-7 0 -2
7 0 2
7 0 3
-7 0 -3
-7 0 -4
7 0 4
7 0 5
-7 0 -5
-7 0 -6
7 0 6
7 0 7
-7 0 -7
-7 0 -8
7 0 8
7 0 9
-7 0 -11
7 0 11
-7 0 -12
7 0 12
-7 0 -13
7 0 13
7 1 -6
-7 -1 6
7 -1 -5
-7 -1 5
-7 1 5
7 1 -5
7 -1 -4
7 1 -4
-7 1 4
-7 -1 4
7 -1 -3
7 1 -3
-7 1 3
-7 -1 3
7 -1 -2
7 1 -2
-7 1 2
-7 -1 2
7 1 -1
-7 1 1
-7 -1 1
7 -1 -1
7 -1 0
7 1 0
-7 1 0
-7 -1 0
7 1 1
-7 -1 -1
7 1 2
-7 1 -2
-7 -1 -2
7 -1 2
7 -1 3
7 1 3
-7 1 -3
-7 -1 -3
7 1 4
-7 1 -4
-7 -1 -4
7 -1 4
7 1 5
-7 -1 -5
7 -1 5
-7 1 -5
7 1 6
-7 1 -6
-7 -1 -6
7 -1 6
7 -1 7
7 1 7
-7 1 -7
-7 -1 -7
-7 1 -8
-7 -1 -8
7 -1 8
7 1 8
-7 -1 -9
7 -1 9
-7 1 -11
7 -1 11
7 1 11
-7 -1 -11
-7 -1 -12
7 -1 12
7 1 12
-7 1 -13
-7 -1 -13
7 -1 13
7 1 13
7 2 -6
-7 -2 6
7 2 -5
-7 2 5
7 -2 -5
-7 -2 5
7 -2 -4
7 2 -4
-7 2 4
-7 -2 4
7 2 -3
-7 2 3
7 -2 -3
-7 -2 3
7 -2 -2
7 2 -2
-7 2 2
-7 -2 2
7 -2 -1
-7 2 1
7 2 0
-7 -2 0
7 2 1
7 -2 1
-7 -2 -1
7 -2 2
7 2 2
-7 2 -2
-7 -2 -2
7 -2 3
7 2 3
-7 2 -3
-7 -2 -3
7 -2 4
7 2 4
-7 2 -4
-7 -2 -4
7 -2 5
7 2 5
-7 2 -5
-7 -2 -5
7 -2 6
7 2 6
-7 2 -6
-7 -2 -6
7 2 7
-7 2 -7
7 -2 7
-7 -2 -7
7 -2 8
7 2 8
-7 2 -8
-7 -2 -8
7 -2 9
-7 2 -9
-7 -2 -9
-7 2 -10
7 -2 10
-7 -2 -10
7 2 10
-7 2 -11
7 -2 11
-7 -2 -11
7 2 11
-7 2 -12
7 -2 12
-7 2 -13
7 -2 13
7 2 13
7 3 -6
-7 -3 6
7 -3 -5
-7 3 5
7 3 -5
-7 -3 5
7 -3 -4
-7 3 4
7 -3 -3
7 3 -2
-7 -3 2
7 -3 -1
7 3 -1
-7 3 1
-7 -3 1
7 3 0
-7 3 0
7 -3 0
-7 -3 0
7 3 1
-7 3 -1
7 -3 1
-7 -3 -1
7 3 2
-7 3 -2
-7 -3 -2
7 -3 3
7 3 3
-7 3 -3
-7 -3 -3
7 3 5
-7 3 -5
7 -3 5
-7 -3 -5
7 -3 6
7 3 6
-7 3 -6
-7 -3 -6
7 -3 7
7 3 7
-7 3 -7
-7 -3 -7
7 3 8
-7 -3 -8
7 3 9
-7 3 -9
7 -3 9
-7 -3 -9
7 3 10
-7 3 -10
7 -3 10
-7 -3 -10
-7 3 -11
7 -3 11
-7 3 -12
7 -3 12
-7 -3 -12
7 3 12
-7 3 -13
7 -3 13
-7 -4 6
-7 4 5
7 4 -5
7 4 -4
7 -4 -4
-7 -4 4
7 -4 -3
7 4 -3
-7 4 3
-7 -4 3
7 -4 -2
7 4 -2
-7 4 2
-7 -4 2
-7 4 1
7 4 -1
7 -4 -1
-7 -4 1
7 -4 0
7 4 0
-7 4 0
-7 -4 0
7 -4 1
7 4 1
-7 -4 -1
7 4 3
-7 4 -3
7 -4 3
-7 -4 -3
7 -4 4
7 4 4
-7 4 -4
-7 -4 -4
7 -4 5
7 4 5
-7 4 -5
-7 -4 -5
7 4 6
-7 4 -6
7 -4 6
-7 -4 -6
7 4 8
-7 4 -8
7 -4 8
7 4 9
7 -4 9
-7 -4 -9
7 -4 10
7 4 11
-7 4 -11
7 -4 11
-7 -4 -11
7 4 12
-7 -4 -12
-7 4 -12
7 5 -5
-7 -5 5
7 -5 -4
-7 5 4
-7 5 3
7 -5 -3
7 5 -2
-7 5 2
7 -5 -2
-7 -5 2
7 5 -1
-7 -5 1
-7 5 0
7 5 0
7 -5 0
-7 -5 0
7 5 1
-7 5 -1
7 -5 1
-7 -5 -1
7 5 2
7 -5 2
-7 5 -2
-7 -5 -2
7 5 3
-7 5 -3
-7 -5 -3
7 -5 4
-7 5 -4
7 -5 5
7 5 5
-7 5 -5
-7 -5 -5
7 -5 6
7 5 6
-7 5 -6
-7 -5 -6
7 -5 7
7 5 7
-7 5 -7
-7 -5 -7
7 5 9
7 -5 9
-7 -5 -9
7 5 10
-7 -5 -10
7 5 11
-7 5 -11
7 -5 11
-7 -5 -11
-7 -6 5
7 6 -4
-7 -6 4
7 -6 -3
7 6 -3
-7 6 3
-7 -6 3
7 6 -2
7 -6 -2
-7 6 2
-7 -6 2
7 -6 -1
-7 6 1
-7 6 0
7 -6 0
7 6 1
7 -6 2
7 6 2
-7 6 -2
-7 -6 -2
7 6 3
7 -6 3
-7 -6 -3
7 6 4
7 -6 4
-7 6 -4
-7 -6 -4
7 -6 5
-7 6 -5
7 6 6
7 -6 6
-7 6 -6
-7 -6 -6
7 6 7
7 -6 7
-7 6 -7
-7 -6 -7
7 6 9
7 -6 9
-7 -6 -9
-7 -7 4
7 7 -3
-7 -7 3
7 7 -2
7 -7 -2
-7 7 2
-7 -7 2
7 7 -1
7 -7 -1
-7 7 1
-7 -7 1
7 -7 0
-7 7 0
7 7 1
7 -7 1
-7 7 -1
-7 -7 -1
7 7 2
7 -7 2
-7 7 -2
-7 -7 -2
-7 7 -3
7 7 3
7 -7 3
-7 -7 -3
7 7 4
-7 7 -4
-7 -7 -4
-7 7 -6
7 7 6
7 -7 6
-7 -7 -6
-7 7 -7
7 7 7
7 -7 7
7 8 -3
-7 -8 3
7 8 -2
-7 -8 2
-7 8 1
7 8 -1
-7 -8 1
7 8 0
-7 -8 0
-7 8 -1
7 -8 1
-7 -8 -1
-7 8 -2
-7 -8 -2
7 -8 3
-7 8 -3
-8 0 5
-8 0 4
8 0 -4
8 0 -2
-8 0 2
-8 0 1
8 0 -1
-8 0 0
8 0 0
-8 0 -1
8 0 1
8 0 2
8 0 4
-8 0 -4
-8 0 -5
8 0 5
8 0 6
-8 0 -6
8 0 8
-8 0 -8
-8 0 -9
8 0 9
-8 0 -11
8 0 11
-8 0 -12
8 0 12
-8 1 5
-8 -1 5
8 -1 -4
-8 1 4
8 1 -3
-8 -1 3
8 -1 -2
8 1 -2
-8 1 2
-8 -1 2
8 1 -1
-8 1 1
-8 -1 1
8 -1 -1
8 1 0
-8 1 0
-8 -1 0
8 -1 0
8 1 1
-8 1 -1
-8 -1 -1
8 -1 1
8 1 2
-8 1 -2
8 -1 2
-8 1 -4
-8 -1 -4
8 -1 4
8 1 4
-8 1 -5
-8 -1 -5
8 -1 5
8 1 5
8 -1 6
8 1 6
-8 1 -6
8 -1 8
-8 1 -8
8 -1 9
8 1 9
-8 1 -9
-8 1 -10
-8 -1 -10
8 -1 10
8 1 10
-8 1 -11
-8 -1 -11
8 -1 11
8 1 11
8 -1 12
8 1 12
-8 1 -12
-8 -1 -12
8 2 -4
-8 -2 4
8 -2 -3
8 2 -3
-8 2 3
-8 -2 3
8 2 -2
-8 2 2
8 -2 -2
-8 -2 2
8 -2 -1
8 2 -1
-8 2 1
-8 -2 1
8 -2 0
-8 2 0
-8 -2 0
8 2 1
-8 2 -1
8 -2 1
-8 -2 -1
8 2 3
-8 2 -3
8 -2 4
8 2 4
-8 2 -4
-8 -2 -4
8 2 5
-8 2 -5
8 -2 5
-8 -2 -5
8 -2 6
8 2 6
-8 2 -6
-8 -2 -6
8 2 7
-8 2 -7
8 -2 7
-8 -2 -7
8 -2 8
8 2 8
-8 2 -8
-8 -2 -8
8 2 9
-8 2 -10
-8 -2 -10
8 2 10
-8 -2 -11
8 2 11
8 -2 12
-8 -2 -12
8 2 12
-8 -3 5
8 3 -4
-8 3 4
8 -3 -4
-8 -3 4
8 -3 -3
8 3 -3
-8 -3 3
8 3 -2
-8 3 2
8 -3 -2
-8 -3 2
8 3 -1
-8 3 1
8 -3 -1
-8 -3 1
-8 3 0
8 -3 0
8 3 1
-8 3 -1
8 -3 1
-8 -3 -1
8 3 2
-8 3 -2
8 -3 2
-8 -3 -2
-8 3 -3
8 -3 3
-8 -3 -3
8 3 4
-8 3 -4
8 -3 4
-8 -3 -4
8 3 6
-8 3 -6
8 -3 6
-8 -3 -6
8 -3 7
8 3 7
-8 3 -7
-8 -3 -7
8 3 8
-8 3 -8
8 -3 8
-8 -3 -8
8 -3 9
8 3 9
-8 3 -9
-8 -3 -9
8 3 10
-8 3 -10
-8 -3 -10
8 3 11
-8 3 -11
-8 -3 -11
8 4 -3
-8 4 3
8 -4 -3
-8 -4 3
8 4 -2
-8 -4 2
8 4 -1
-8 4 1
8 -4 -1
-8 -4 1
8 4 0
8 -4 0
-8 4 0
-8 -4 0
8 -4 1
8 4 1
-8 -4 -1
8 4 2
-8 4 -2
8 -4 2
8 -4 3
8 4 4
-8 4 -4
8 -4 4
-8 -4 -4
8 4 5
-8 4 -5
8 -4 5
-8 -4 -5
8 -4 6
8 4 6
-8 4 -6
-8 -4 -6
8 4 8
-8 4 -8
8 -4 8
-8 -4 -8
8 4 9
-8 -4 -9
8 -4 10
8 4 10
-8 -4 -10
-8 -5 4
8 5 -3
-8 -5 3
8 5 -2
8 -5 -2
-8 5 2
-8 -5 2
-8 5 1
8 -5 -1
8 5 0
-8 5 0
8 -5 0
-8 -5 0
8 5 1
-8 -5 -1
8 5 2
8 -5 2
-8 5 -2
8 5 3
-8 5 -3
8 -5 3
-8 -5 -3
8 5 4
-8 5 -4
-8 -5 -4
8 5 5
-8 -5 -5
-8 5 -6
8 5 6
8 -5 6
-8 -5 -6
8 5 7
8 -5 7
-8 5 -7
-8 -5 -7
8 -5 8
8 5 8
-8 5 -8
-8 -5 -8
8 5 9
-8 -5 -9
8 6 -3
-8 -6 3
8 6 -2
-8 -6 2
-8 6 1
8 6 -1
8 -6 -1
-8 -6 1
-8 6 0
8 -6 0
-8 6 -1
8 -6 1
8 6 2
-8 -6 -2
8 6 3
8 -6 3
-8 6 -3
-8 -6 -3
8 6 4
8 -6 4
-8 -6 -4
-8 6 -4
-8 6 -6
8 6 6
8 -6 6
-8 -6 -6
8 7 -2
-8 -7 2
8 7 0
8 -7 0
-8 7 0
8 7 1
-8 -7 -1
-8 7 -2
8 -7 2
-8 -7 -2
-8 7 -3
8 -7 3
-8 -7 -3
9 0 -3
-9 0 3
-9 0 2
9 0 -2
-9 0 0
9 0 0
-9 0 -1
9 0 1
-9 0 -2
9 0 2
9 0 3
-9 0 -3
9 0 5
-9 0 -5
-9 0 -6
9 0 6
-9 0 -8
9 0 8
-9 0 -10
-9 1 3
-9 -1 3
-9 1 2
9 -1 -2
-9 1 1
-9 -1 1
9 -1 -1
9 1 -1
-9 1 0
-9 -1 0
9 -1 0
9 1 0
-9 1 -1
-9 -1 -1
9 -1 1
9 1 1
-9 1 -2
-9 -1 -2
9 -1 2
9 -1 3
-9 1 -3
-9 1 -4
-9 -1 -4
9 1 4
-9 1 -5
-9 -1 -5
9 -1 5
-9 1 -6
-9 -1 -6
9 -1 7
-9 1 -7
-9 -1 -7
9 -1 8
9 1 8
-9 1 -8
-9 -1 -8
-9 1 -10
-9 -1 -10
9 1 10
-9 2 3
9 2 -2
-9 -2 2
9 -2 -1
9 2 -1
-9 2 1
-9 -2 1
9 2 0
-9 2 0
-9 -2 0
9 -2 0
9 -2 1
9 2 1
-9 2 -1
-9 -2 -1
9 2 2
-9 2 -2
9 -2 2
-9 -2 -2
9 2 3
-9 -2 -3
9 -2 4
9 2 4
-9 2 -4
-9 -2 -4
9 2 5
-9 2 -5
9 -2 5
-9 -2 -5
9 -2 7
9 2 7
-9 2 -7
-9 -2 -7
-9 2 -8
9 -2 8
-9 -2 -8
9 2 8
-9 2 -9
9 -2 9
-9 -3 3
9 -3 -2
9 3 -2
-9 3 2
-9 -3 2
9 3 -1
-9 3 1
9 -3 -1
-9 -3 1
9 3 0
-9 3 0
9 -3 0
-9 -3 0
9 -3 2
9 3 2
-9 3 -2
-9 -3 -2
9 3 3
-9 3 -3
9 -3 3
-9 -3 -3
9 -3 4
9 3 4
-9 -3 -4
9 3 6
-9 3 -6
9 -3 6
-9 -3 -6
9 3 7
-9 3 -7
9 -3 7
-9 -3 -7
9 3 8
-9 3 -8
9 -3 8
-9 -3 -8
9 3 9
-9 3 -9
9 -3 9
9 4 -2
-9 -4 2
9 4 -1
-9 -4 1
9 -4 0
9 4 0
-9 4 0
-9 -4 0
9 -4 1
9 4 1
-9 -4 -1
9 -4 2
9 4 2
-9 -4 -2
9 4 4
-9 4 -4
9 -4 4
-9 -4 -4
9 4 5
-9 4 -5
-9 -4 -5
9 4 7
-9 4 -7
9 -4 7
-9 -4 -7
9 5 -2
-9 -5 2
9 5 0
-9 5 0
9 -5 0
-9 -5 0
9 5 1
-9 -5 -1
9 5 2
9 -5 2
-9 -5 -2
-9 5 -2
9 5 3
-9 5 -3
9 -5 3
-9 -5 -3
9 5 4
-9 -5 -4
9 -5 5
9 5 5
-9 -5 -5
-9 5 -6
9 6 0
-9 -6 0
9 6 1
-9 -6 -1
9 -6 2
9 6 2
-9 6 -2
-9 -6 -2
9 -6 3
-9 6 -3
10 0 0
-10 0 0
-10 0 -1
10 0 1
10 0 2
-10 0 -2
-10 0 -4
10 0 4
-10 0 -5
10 0 5
-10 0 -7
10 0 7
-10 -1 1
10 1 -1
10 -1 0
10 1 0
-10 1 0
-10 -1 0
-10 1 -1
-10 -1 -1
10 -1 1
10 1 1
10 -1 2
10 1 2
-10 1 -2
10 -1 4
10 1 4
-10 1 -4
10 -1 5
-10 -1 -5
-10 1 -6
-10 -1 -6
10 -1 6
10 1 6
-10 1 -7
-10 -1 -7
10 -1 7
10 1 7
-10 -2 1
10 2 -1
10 -2 0
10 2 0
-10 2 0
-10 -2 0
10 2 1
-10 2 -1
-10 -2 -1
10 -2 3
-10 2 -3
-10 -2 -3
10 -2 4
-10 2 -4
-10 -2 -4
-10 2 -6
10 -2 6
-10 -2 -6
10 2 6
-10 -3 1
-10 3 0
10 3 1
10 -3 1
-10 -3 -1
10 3 2
-10 3 -2
10 -3 2
-10 -3 -2
10 -3 3
10 3 3
-10 3 -3
-10 -3 -3
10 3 4
-10 -3 -4
-10 3 -5
-10 -3 -5
10 4 0
-10 -4 0
10 -4 1
-10 4 -1
10 4 2
-10 -4 -2
10 4 3
10 -4 3
-10 -4 -3
10 -4 4
-10 -5 0
-11 0 -2
11 0 2
-11 0 -3
11 0 3
-11 1 -2
-11 -1 -2
11 -1 2
11 1 2
11 -1 3
11 1 3
-11 1 -3
-11 -1 -3
-11 2 -2
-11 -2 -2
loop_
_geom_angle_atom_site_label_1
_geom_angle_atom_site_label_2
_geom_angle_atom_site_label_3
_geom_angle_site_symmetry_1
_geom_angle_site_symmetry_3
_geom_angle
_geom_angle_publ_flag
O21 N12 O22 . . 121.05(10) ?
C1 N12 O22 . . 120.38(9) ?
C1 N12 O21 . . 118.54(9) ?
O11 N11 O12 . . 120.91(9) ?
C1 N11 O12 . . 118.78(9) ?
C1 N11 O11 . . 120.23(10) ?
N21 C2 N22 . . 118.01(10) ?
C1 C2 N22 . . 120.84(11) ?
C1 C2 N21 . . 121.11(9) ?
N11 C1 N12 . . 116.17(9) ?
C2 C1 N12 . . 119.91(9) ?
C2 C1 N11 . . 123.87(10) ?
loop_
_geom_bond_atom_site_label_1
_geom_bond_atom_site_label_2
_geom_bond_site_symmetry_2
_geom_bond_distance
_geom_bond_publ_flag
O12 N11 . 1.2450(14) ?
O11 N11 . 1.2406(12) ?
O22 N12 . 1.2312(12) ?
O21 N12 . 1.2351(11) ?
N12 C1 . 1.4228(15) ?
N11 C1 . 1.3950(13) ?
N22 C2 . 1.3266(13) ?
N21 C2 . 1.3133(17) ?
C2 C1 . 1.4486(14) ?
loop_
_geom_torsion_atom_site_label_1
_geom_torsion_atom_site_label_2
_geom_torsion_atom_site_label_3
_geom_torsion_atom_site_label_4
_geom_torsion_site_symmetry_1
_geom_torsion_site_symmetry_2
_geom_torsion_site_symmetry_3
_geom_torsion_site_symmetry_4
_geom_torsion
_geom_torsion_publ_flag
O12 N11 C1 N12 . . . . -171.73(10) ?
O12 N11 C1 C2 . . . . 5.81(12) ?
O11 N11 C1 N12 . . . . 11.52(11) ?
O11 N11 C1 C2 . . . . -170.94(10) ?
O22 N12 C1 N11 . . . . 34.03(11) ?
O22 N12 C1 C2 . . . . -143.62(10) ?
O21 N12 C1 N11 . . . . -148.21(10) ?
O21 N12 C1 C2 . . . . 34.15(11) ?
N12 C1 C2 N22 . . . . -4.79(11) ?
N12 C1 C2 N21 . . . . 172.94(10) ?
N11 C1 C2 N22 . . . . 177.76(10) ?
N11 C1 C2 N21 . . . . -4.51(13) ?
