#------------------------------------------------------------------------------
#$Date: 2021-09-22 04:47:00 +0300 (Wed, 22 Sep 2021) $
#$Revision: 269240 $
#$URL: file:///home/coder/svn-repositories/cod/cif/2/10/88/2108876.cif $
#------------------------------------------------------------------------------
#
# This file is available in the Crystallography Open Database (COD),
# http://www.crystallography.net/. The original data for this entry
# were provided by IUCr Journals, http://journals.iucr.org/.
#
# The file may be used within the scientific community so long as
# proper attribution is given to the journal article from which the
# data were obtained.
#
data_2108876
loop_
_publ_author_name
'Novelli, Giulia'
'McMonagle, Charles J.'
'Kleemiss, Florian'
'Probert, Michael'
'Puschmann, Horst'
'Grabowsky, Simon'
'Maynard-Casely, Helen E.'
'McIntyre, Garry J.'
'Parsons, Simon'
_publ_section_title
;
 Accurate H-atom parameters for the two polymorphs of
 <small>L</small>-histidine at 5, 105 and 295K
;
_journal_coeditor_code           UM5050
_journal_issue                   5
_journal_name_full               'Acta Crystallographica Section B'
_journal_page_first
;
;
_journal_paper_doi               10.1107/S205252062100740X
_journal_volume                  77
_journal_year                    2021
_chemical_absolute_configuration syn
_chemical_formula_moiety         'C6 H9 N3 O2'
_chemical_formula_sum            'C6 H9 N3 O2'
_chemical_formula_weight         155.16
_chemical_name_common            L-histidine
_chemical_name_systematic        '2-Amino-3-(1H-imidazol-4-yl)propanoic acid'
_space_group_crystal_system      monoclinic
_space_group_IT_number           4
_space_group_name_Hall           'P 2yb'
_space_group_name_H-M_alt        'P 1 21 1'
_atom_sites_solution_hydrogens   difmap
_audit_creation_date             2021-01-18
_audit_creation_method
;
Olex2 1.3
(compiled 2020.11.12 svn.r5f609507 for OlexSys, GUI svn.r6226)
;
_cell_angle_alpha                90
_cell_angle_beta                 97.065(2)
_cell_angle_gamma                90
_cell_formula_units_Z            2
_cell_length_a                   5.1651(2)
_cell_length_b                   7.2324(2)
_cell_length_c                   9.4957(3)
_cell_measurement_reflns_used    4301
_cell_measurement_temperature    5
_cell_measurement_theta_max      30.47
_cell_measurement_theta_min      3.55
_cell_volume                     352.03(2)
_computing_cell_refinement       'LaueG (Piltz, 2011)'
_computing_data_collection       'MAATEL/ANSTO control program'
_computing_data_reduction
'argonne_boxes (Wilkinson et al., 1988) & LaueG (Piltz, 2011)'
_computing_molecular_graphics    'Olex2 1.3 (Dolomanov et al., 2009)'
_computing_publication_material  'Olex2 1.3 (Dolomanov et al., 2009)'
_computing_structure_refinement  'XL  (Sheldrick, 2008)'
_computing_structure_solution    'from X-ray model at 5 K'
_diffrn_ambient_temperature      5
_diffrn_measured_fraction_theta_full 0.762
_diffrn_measured_fraction_theta_max 0.762
_diffrn_measurement_details      '22 images, exposure time   0 minutes'
_diffrn_measurement_device       'Laue image-plate diffractometer'
_diffrn_measurement_device_type  KOALA
_diffrn_measurement_method       Laue
_diffrn_radiation_probe          neutron
_diffrn_radiation_type           neutron
_diffrn_radiation_wavelength     0.80
_diffrn_reflns_av_R_equivalents  0.1382
_diffrn_reflns_av_unetI/netI     0.1519
_diffrn_reflns_limit_h_max       9
_diffrn_reflns_limit_h_min       -9
_diffrn_reflns_limit_k_max       13
_diffrn_reflns_limit_k_min       -13
_diffrn_reflns_limit_l_max       15
_diffrn_reflns_limit_l_min       -15
_diffrn_reflns_number            16604
_diffrn_reflns_reduction_process 'LaueG (Piltz, 2011)'
_diffrn_reflns_resolution_max    1.82
_diffrn_reflns_theta_full        70.98
_diffrn_reflns_theta_max         71.08
_diffrn_source                   'nuclear reactor'
_diffrn_source_details           'thermal neutrons, supermirror guides'
_diffrn_source_type
'OPAL reactor, ANSTO, Lucas Heights, Australia'
_exptl_absorpt_coefficient_mu    0.0
_exptl_absorpt_correction_type   none
_exptl_crystal_colour            colourless
_exptl_crystal_density_diffrn    1.464
_exptl_crystal_description       plate
_exptl_crystal_F_000             92
_exptl_crystal_size_max          0.45
_exptl_crystal_size_mid          0.35
_exptl_crystal_size_min          0.30
_refine_diff_density_max         1.62
_refine_diff_density_min         -1.995
_refine_diff_density_rms         0.391
_refine_ls_abs_structure_details
;
Absolute structure known from synthesis
;
_refine_ls_extinction_method     none
_refine_ls_goodness_of_fit_ref   1.212
_refine_ls_hydrogen_treatment    refall
_refine_ls_matrix_type           full
_refine_ls_number_parameters     181
_refine_ls_number_reflns         1629
_refine_ls_number_restraints     1
_refine_ls_restrained_S_all      1.212
_refine_ls_R_factor_all          0.0933
_refine_ls_R_factor_gt           0.0601
_refine_ls_shift/su_max          0.000
_refine_ls_shift/su_mean         0.000
_refine_ls_structure_factor_coef Fsqd
_refine_ls_weighting_details
'w=1/[\s^2^(Fo^2^)+(0.0300P)^2^] where P=(Fo^2^+2Fc^2^)/3'
_refine_ls_weighting_scheme      calc
_refine_ls_wR_factor_gt          0.0769
_refine_ls_wR_factor_ref         0.0816
_reflns_Friedel_coverage         0.000
_reflns_Friedel_fraction_full    0.000
_reflns_Friedel_fraction_max     0.000
_reflns_number_gt                1267
_reflns_number_total             1629
_reflns_threshold_expression     'I > 2\s(I)'
_cod_data_source_file            um5050sup1.cif
_cod_data_source_block           HMTN00
_cod_database_code               2108876
_shelx_shelxl_version_number     2017/1
_shelx_space_group_comment
;
The symmetry employed for this shelxl refinement is uniquely defined
by the following loop, which should always be used as a source of
symmetry information in preference to the above space-group names.
They are only intended as comments.
;
_olex2_refinement_description
;
;
_shelx_res_file
;
TITL hmtx19_a.res in P2(1)
    hmtn00.res
    created by SHELXL-2017/1 at 09:49:02 on 18-Jan-2021
REM Old TITL HMTX19 in P2(1)
REM SHELXT solution in P2(1)
REM R1 0.076, Rweak 0.027, Alpha 0.003, Orientation as input
REM Flack x = 0.342 ( 1.559 ) from Parsons' quotients
REM Formula found by SHELXT: C7 N2 O1
CELL 0.8 5.1651 7.2324 9.4957 90 97.065 90
ZERR 2 0.0002 0.0002 0.0003 0 0.002 0
LATT -1
SYMM -X,0.5+Y,-Z
NEUT
SFAC  C 0.000 0 0 0 0 0 0 0 6.646 0 0 0 0 12.011
SFAC  H 0.000 0 0 0 0 0 0 0 -3.739 0 0 0 0 1.008
SFAC  N 0.000 0 0 0 0 0 0 0 9.36 0 0 0 0 14.007
SFAC  O 0.000 0 0 0 0 0 0 0 5.803 0 0 0 0 15.999
UNIT 12 18 6 4

L.S. 99 0 0
PLAN  1
TEMP -168.15
CONF
BOND $H
list 4
MORE -1
fmap 2 53
acta
OMIT 0 13 2
OMIT 0 9 11
OMIT 5 3 12
OMIT -9 0 5
OMIT 9 0 2
OMIT -1 8 13
OMIT -6 7 10
OMIT 0 13 1
OMIT -7 4 10
OMIT -6 3 14
OMIT 5 4 12
OMIT 0 12 5
OMIT 0 8 13
OMIT -4 11 4
OMIT -8 3 9
OMIT 8 5 3
OMIT -8 4 7
OMIT -8 5 1
OMIT -4 7 12
OMIT -1 11 9
OMIT 1 7 11
OMIT -6 8 9
OMIT 7 0 9
OMIT 7 8 3
OMIT 4 9 4
OMIT 7 1 7
OMIT -2 10 9
OMIT 4 3 9
OMIT -1 12 4
OMIT 5 9 0
OMIT -8 7 3
OMIT 1 13 0
OMIT 2 5 13
OMIT -7 3 12
OMIT -5 9 8
OMIT 3 6 13
OMIT -5 7 12
OMIT -6 10 3
OMIT -1 10 5
OMIT 1 8 13
OMIT -1 2 11
OMIT -3 8 13
OMIT 1 11 6
OMIT 7 1 9
OMIT 3 2 11
OMIT -1 4 12
OMIT -1 13 2
OMIT 0 2 11
OMIT 4 11 3
OMIT -5 6 13
OMIT 0 1 10
OMIT -7 5 10
OMIT -7 0 12
OMIT 8 2 7
OMIT 7 0 10
OMIT 4 11 2
OMIT -5 11 2
OMIT -3 12 1
OMIT 5 0 9
OMIT 4 7 11
OMIT -1 4 13
OMIT 7 6 6
OMIT -1 9 12
OMIT 1 13 1
OMIT -8 1 10
OMIT 0 4 11
OMIT 2 3 11
OMIT 3 1 9
OMIT -9 1 6
OMIT 3 10 6
OMIT 3 7 12
OMIT 8 1 7
OMIT 6 5 8
OMIT -8 5 8
OMIT 2 11 6
OMIT 3 5 12
OMIT -1 12 3
OMIT 0 1 1
OMIT -8 0 3
OMIT -1 2 3
OMIT 0 1 2
OMIT -1 6 13
OMIT 4 4 13
OMIT 6 3 11
OMIT 5 8 9
OMIT -4 4 13
OMIT -4 1 10
OMIT 3 4 12
OMIT 6 9 4
OMIT 1 12 4
OMIT 0 11 9
OMIT -1 10 4
OMIT 1 10 9
REM <olex2.extras>
REM <HklSrc "%.\\HMTN00.hkl">
REM </olex2.extras>

WGHT    0.030000
FVAR       0.55362
O2    4    0.315347    0.453227    1.015937    11.00000    0.00475    0.00857 =
         0.00931    0.00164    0.00135    0.00030
O1    4    0.741797    0.447558    1.099028    11.00000    0.00541    0.01043 =
         0.01038    0.00134   -0.00100    0.00073
N1    3    0.876572    0.635306    0.872889    11.00000    0.00663    0.00549 =
         0.00932   -0.00052    0.00110   -0.00057
H1A   2    0.946167    0.639407    0.774013    11.00000    0.01596    0.02578 =
         0.01836   -0.00053    0.00565   -0.00373
H1B   2    1.016864    0.565782    0.942509    11.00000    0.01841    0.01941 =
         0.02646    0.00658   -0.00208    0.00106
H1C   2    0.849968    0.770219    0.911279    11.00000    0.02504    0.01159 =
         0.02336   -0.00339    0.00177   -0.00067
N3    3    0.720778    0.444353    0.387715    11.00000    0.00740    0.00890 =
         0.00740    0.00025    0.00040   -0.00047
H3    2    0.689919    0.437393    0.276982    11.00000    0.02404    0.02640 =
         0.00969   -0.00053   -0.00097   -0.00333
N2    3    0.921978    0.515256    0.601018    11.00000    0.00586    0.00853 =
         0.00780   -0.00067    0.00020   -0.00146
C1    1    0.553442    0.475701    1.004767    11.00000    0.00601    0.00535 =
         0.00455    0.00020    0.00150    0.00022
C4    1    0.698995    0.413841    0.616672    11.00000    0.00550    0.00691 =
         0.00799    0.00008   -0.00026   -0.00105
C6    1    0.572062    0.369372    0.484267    11.00000    0.00668    0.00789 =
         0.00607   -0.00074    0.00090   -0.00171
H6    2    0.396280    0.290806    0.453546    11.00000    0.01757    0.03096 =
         0.02025   -0.00109   -0.00142   -0.01087
C2    1    0.620389    0.536002    0.857807    11.00000    0.00533    0.00539 =
         0.00602    0.00120    0.00023    0.00022
H2    2    0.470184    0.633045    0.809638    11.00000    0.01439    0.01919 =
         0.02224    0.00294   -0.00122    0.00517
C5    1    0.926588    0.529995    0.461911    11.00000    0.00698    0.00843 =
         0.00793   -0.00023    0.00252   -0.00153
H5    2    1.072927    0.603077    0.411779    11.00000    0.02153    0.02784 =
         0.02567    0.00172    0.00981   -0.01069
C3    1    0.630180    0.365934    0.761614    11.00000    0.00863    0.00603 =
         0.00531   -0.00048    0.00164   -0.00227
H3A   2    0.772332    0.266739    0.813440    11.00000    0.03006    0.01663 =
         0.01722   -0.00044    0.00117    0.00717
H3B   2    0.437477    0.298080    0.752370    11.00000    0.02099    0.02507 =
         0.02900   -0.00482    0.00569   -0.01394
HKLF 4




REM  hmtx19_a.res in P2(1)
REM R1 =  0.0601 for    1267 Fo > 4sig(Fo)  and  0.0933 for all    1629 data
REM    181 parameters refined using      1 restraints

END

WGHT      0.0371      1.2201

REM Highest difference peak  1.622,  deepest hole -1.995,  1-sigma level  0.391
Q1    1   1.0374  0.5349  0.5035  11.00000  0.05    1.62
;
_shelx_res_checksum              50904
_shelx_hkl_file
;
   0   0   1   85.00   23.46
   0   1   1  140.27    3.37
   0   1   2   64.11    1.45
   0   1   3  106.05    3.21
   0   1   4   67.81    3.37
   0   1   5  654.92    8.19
   0   1   6  142.04    4.98
   0   1   7  763.70   12.37
   0   1   8  695.58   24.42
   0   1   9   50.45   37.12
   0   1  10  -93.68  120.03
   0   2   1  115.85    2.25
   0   2   3  157.46    4.02
   0   2   5 1354.03   11.41
   0   2   7  796.32   13.98
   0   2   9   85.80   22.01
   0   2  11  -45.63  145.41
   0   3   1    1.77    2.25
   0   3   2   70.06    2.89
   0   3   4  102.19    6.75
   0   3   5  237.32    6.43
   0   3   7  116.01    7.39
   0   3   8  168.71   10.93
   0   3  10  200.53   36.15
   0   3  11  419.05   87.41
   0   4   1  130.79    3.70
   0   4   3  725.94    8.52
   0   4   5 1019.18   14.46
   0   4   7  294.04    9.96
   0   4   9   -0.32   11.09
   0   4  11   37.44   51.10
   0   5   1  300.47    5.46
   0   5   2    7.07    3.21
   0   5   3  127.42    6.27
   0   5   4   98.17    5.95
   0   5   6  911.85   14.78
   0   5   7  254.67    9.32
   0   5   8  189.28   10.44
   0   5   9  154.25   10.44
   0   5  11   39.85   31.49
   0   5  12   98.66   54.79
   0   5  13  274.28  151.52
   0   6   1  930.00   11.09
   0   6   5   28.44    7.23
   0   6   7  277.33   11.57
   0   6  11  153.13   20.57
   0   6  13  -83.71  121.79
   0   7   1  441.06    8.03
   0   7   2   61.86    6.59
   0   7   3  184.30    8.84
   0   7   4   45.63    6.75
   0   7   5  107.01    8.68
   0   7   6  397.04   13.18
   0   7   8  442.99   16.39
   0   7   9   58.33   15.75
   0   7  10  337.26   23.46
   0   7  11   47.56   29.56
   0   7  12  223.50   39.53
   0   7  13   53.67   54.63
   0   8   1  384.34   10.28
   0   8   3  184.94    9.96
   0   8   5  202.45   11.89
   0   8   7  129.83   13.18
   0   8   9  281.83   25.39
   0   8  11  602.06   46.44
   0   8  13  266.57   88.05
   0   9   1  197.63   14.14
   0   9   2   65.07   13.34
   0   9   4    2.57   13.50
   0   9   5  500.99   19.60
   0   9   7  387.88   22.17
   0   9   8  575.23   31.65
   0   9  10   35.19   45.63
   0   9  11 1457.03   80.66
   0  10   1   85.96   22.17
   0  10   3  151.68   22.49
   0  10   7   79.86   29.56
   0  10   9  344.49   55.43
   0  10  11   46.92   93.51
   0  11   1  121.31   35.67
   0  11   2  696.22   43.70
   0  11   3  235.88   38.88
   0  11   4  124.53   41.78
   0  11   5   42.10   39.53
   0  11   6  531.84   47.24
   0  11   7  203.10   50.45
   0  11   8  353.49   57.36
   0  11   9  260.30   71.34
   0  12   1  485.09   66.68
   0  12   5  533.13   75.84
   0  12   7  365.22   89.50
   0  13   1  370.36  130.95
   0  13   2 1252.00  161.32
   0  13   3  330.35  136.58
   1   0  -8   58.17   25.07
   1   0  -7   11.09    9.64
   1   0  -6   90.14    5.14
   1   0  -5  157.30    5.14
   1   0  -4  115.05    4.34
   1   0  -3  593.06    9.80
   1   0  -1   71.02    4.82
   1   0   2  176.75   25.87
   1   0   3    0.32    2.09
   1   0   4  406.68    7.39
   1   0   5    2.73    3.53
   1   0   6   87.41    7.07
   1   0   7  299.18   21.05
   1   0   8 1347.45  102.03
   1   1 -10   64.27   94.80
   1   1  -9   41.78   29.24
   1   1  -8  214.18   14.14
   1   1  -7  394.79   10.44
   1   1  -6  768.84    8.03
   1   1  -5  292.76    4.18
   1   1  -4  827.33    5.62
   1   1  -3  533.45    5.95
   1   1  -2  286.17    4.50
   1   1   1  420.33   13.34
   1   1   2   19.12    1.29
   1   1   3   11.09    1.29
   1   1   4 1343.59    7.87
   1   1   5   58.81    3.86
   1   1   6  138.18    4.66
   1   1   7  268.49   13.01
   1   1   8 1214.89   28.92
   1   1   9  193.78   33.74
   1   1  10   80.34   82.27
   1   2 -11  -42.26  106.53
   1   2 -10  130.95   39.04
   1   2  -9   59.93   16.55
   1   2  -8  166.78    9.64
   1   2  -7   13.18    4.82
   1   2  -6  133.84    5.30
   1   2  -5  367.79    6.75
   1   2  -4   97.21    4.02
   1   2  -3  174.98    2.57
   1   2  -2  467.89    8.19
   1   2  -1  243.59    4.02
   1   2   0  368.27   10.60
   1   2   1  766.11   14.30
   1   2   2  107.17    2.57
   1   2   3  931.61    9.00
   1   2   4   21.53    3.05
   1   2   5  174.18    4.66
   1   2   6  786.68   10.60
   1   2   7  320.23   10.12
   1   2   8  766.11   18.48
   1   2   9   35.51   38.88
   1   3 -12  -43.38  183.01
   1   3 -11   46.28   70.06
   1   3 -10  336.30   34.39
   1   3  -9  412.78   21.05
   1   3  -8  332.12   10.77
   1   3  -7 1868.69   16.87
   1   3  -6  694.93    9.48
   1   3  -5   79.37    5.30
   1   3  -4  422.90    6.43
   1   3  -3   64.27    2.89
   1   3  -2  485.09    5.78
   1   3  -1   39.53    4.02
   1   3   0   33.26    2.25
   1   3   1  497.78    9.64
   1   3   2  154.73    4.34
   1   3   3   93.03    3.53
   1   3   4  312.20    5.46
   1   3   5  646.73    9.80
   1   3   6  631.63    9.80
   1   3   7  171.12   11.09
   1   3   8   37.12    9.96
   1   3   9  322.32   19.44
   1   3  10  410.69  106.69
   1   4 -13  167.11  336.94
   1   4 -12 -999.90  153.29
   1   4 -11  299.66   63.47
   1   4 -10   78.73   22.82
   1   4  -9  172.09   11.73
   1   4  -8  124.36    7.87
   1   4  -7  285.53    9.16
   1   4  -6  310.11    7.71
   1   4  -5   78.89    6.91
   1   4  -4  277.65    7.07
   1   4  -3  230.25    4.82
   1   4  -2  195.06    4.18
   1   4  -1 2258.81   22.49
   1   4   0  180.60    3.70
   1   4   1  846.93   12.05
   1   4   2  182.05    4.18
   1   4   3    8.19    3.05
   1   4   4  244.87    6.91
   1   4   5  480.91    9.48
   1   4   6  440.42   10.77
   1   4   7  860.91   12.53
   1   4   8  142.04    9.64
   1   4   9  182.37   13.82
   1   4  10   50.29   27.15
   1   4  11  395.43   74.88
   1   5 -13  267.69  275.88
   1   5 -12   50.93   71.34
   1   5 -11   31.49   29.08
   1   5 -10   28.92   15.26
   1   5  -9  289.06   13.66
   1   5  -8  304.81   10.77
   1   5  -7  681.44   13.66
   1   5  -6  401.05    9.32
   1   5  -5   82.43    6.11
   1   5  -4 1042.16   11.09
   1   5  -3   32.46    4.18
   1   5  -2  252.26    5.30
   1   5  -1  146.70    4.50
   1   5   0   12.85    3.53
   1   5   1  202.78    4.98
   1   5   2  639.82    8.03
   1   5   3  216.11    7.71
   1   5   4 1091.81   17.03
   1   5   5   48.69    6.91
   1   5   6  718.87   14.46
   1   5   7   91.59    8.03
   1   5   8   68.45    8.84
   1   5   9  113.92   12.21
   1   5  10  553.86   20.25
   1   5  11   33.58   26.03
   1   5  12   32.62   79.70
   1   6 -14  221.58  231.22
   1   6 -13  528.79  100.42
   1   6 -12  139.79   44.35
   1   6 -11  146.38   28.12
   1   6 -10  175.94   21.85
   1   6  -9  332.93   16.87
   1   6  -8   50.29    9.96
   1   6  -7  286.81   10.44
   1   6  -6  260.46   11.41
   1   6  -5  236.04    9.32
   1   6  -4  459.22    9.96
   1   6  -3  972.26   10.93
   1   6  -2  277.17    6.27
   1   6  -1   82.11    4.50
   1   6   0  238.77    6.75
   1   6   1  587.92    8.68
   1   6   2  349.31    8.52
   1   6   3  211.45    9.00
   1   6   4  220.29    9.00
   1   6   5  627.45   12.85
   1   6   6  349.31   11.73
   1   6   7  630.02   12.69
   1   6   8   61.70   10.93
   1   6   9  224.95   16.07
   1   6  10  402.02   22.66
   1   6  11  287.94   29.40
   1   6  12  196.19   46.11
   1   6  13  100.58   80.50
   1   6  14  346.58  252.10
   1   7 -14  551.29  165.82
   1   7 -13   37.76   84.03
   1   7 -12  137.54   52.70
   1   7 -11  536.18   40.65
   1   7 -10   17.67   23.62
   1   7  -9  173.05   19.44
   1   7  -8   52.38   13.50
   1   7  -7  115.21   11.25
   1   7  -6  225.91   10.60
   1   7  -5   20.41    7.39
   1   7  -4  402.66   11.73
   1   7  -3  756.47   12.21
   1   7  -2  125.33    7.23
   1   7  -1   66.36    5.78
   1   7   0   43.06    4.98
   1   7   1  285.36    8.52
   1   7   2   40.17    7.55
   1   7   3   81.62    8.52
   1   7   4  245.68   10.60
   1   7   5  152.48    9.16
   1   7   6  143.97    9.64
   1   7   7  187.99   12.21
   1   7   8  138.18   15.43
   1   7   9  302.88   20.73
   1   7  10  328.43   26.51
   1   7  11   -6.91   35.35
   1   7  12  101.39   54.63
   1   7  13  205.83   89.50
   1   7  14  163.57  164.05
   1   8 -13  196.19  110.23
   1   8 -12  453.76   73.59
   1   8 -11  144.45   47.08
   1   8 -10  142.52   33.74
   1   8  -9  151.36   25.71
   1   8  -8  357.83   21.53
   1   8  -7  248.09   16.07
   1   8  -6   -6.11   11.89
   1   8  -5   47.40   10.77
   1   8  -4  859.15   15.59
   1   8  -3  486.85   12.85
   1   8  -2   93.03    9.32
   1   8  -1  221.90    9.80
   1   8   0  452.79   10.12
   1   8   1  217.40    9.64
   1   8   2  400.25   11.25
   1   8   3  193.94   10.28
   1   8   4  576.35   12.85
   1   8   5  778.16   15.59
   1   8   6   31.97   12.21
   1   8   7 1351.79   22.01
   1   8   8    0.16   17.84
   1   8   9   43.87   23.62
   1   8  10   39.04   32.30
   1   8  11   17.51   44.67
   1   8  12  115.05   72.95
   1   8  13  -53.02  119.87
   1   9 -12   38.88  103.80
   1   9 -11   17.67   63.79
   1   9 -10   79.70   48.04
   1   9  -9   24.10   38.08
   1   9  -8   36.47   26.83
   1   9  -7  824.44   31.33
   1   9  -6   38.88   17.35
   1   9  -5   80.18   16.87
   1   9  -4  831.83   22.82
   1   9  -3   14.78   14.78
   1   9  -2   13.01   14.62
   1   9  -1   69.09   14.30
   1   9   0  160.52   13.82
   1   9   1  128.70   13.66
   1   9   2   88.53   13.34
   1   9   3  243.27   15.43
   1   9   4  475.13   18.64
   1   9   5  -17.35   14.94
   1   9   6  118.42   19.28
   1   9   7   54.15   20.08
   1   9   8   70.54   27.64
   1   9   9  262.07   34.87
   1   9  10  137.54   44.51
   1   9  11   59.45   65.72
   1   9  12  188.80  103.16
   1  10 -11  193.14  101.55
   1  10 -10  342.24   79.37
   1  10  -9  194.90   53.35
   1  10  -8  295.17   44.83
   1  10  -7  183.17   38.40
   1  10  -6  108.14   28.92
   1  10  -5    0.32   26.35
   1  10  -4    9.00   27.48
   1  10  -3  221.58   26.99
   1  10  -2  505.01   31.01
   1  10  -1   73.11   22.66
   1  10   0  762.58   30.37
   1  10   1   94.96   21.53
   1  10   2  235.55   24.74
   1  10   3  247.12   24.26
   1  10   4  201.17   23.46
   1  10   5  182.21   25.55
   1  10   6  259.50   31.17
   1  10   7   77.29   31.97
   1  10   8   82.75   38.40
   1  10   9    8.84   49.33
   1  10  10  363.45   72.79
   1  11  -9 -101.71   90.46
   1  11  -8  236.04   74.88
   1  11  -7   84.68   62.66
   1  11  -6  243.43   53.18
   1  11  -5  147.66   46.60
   1  11  -4  595.31   49.65
   1  11  -3  467.09   48.69
   1  11  -2   98.50   45.79
   1  11  -1   30.85   33.90
   1  11   0  149.59   46.28
   1  11   1  -21.85   35.83
   1  11   2    7.87   36.96
   1  11   3   81.62   37.28
   1  11   4  241.02   39.53
   1  11   5  523.65   48.04
   1  11   6  -11.41   44.67
   1  11   7  103.48   51.90
   1  11   8   39.69   64.43
   1  11   9  255.96   84.20
   1  12  -7   36.96  114.24
   1  12  -6  121.47   95.12
   1  12  -5  463.72   94.00
   1  12  -4 -109.26   83.39
   1  12  -3   18.48   84.84
   1  12  -2  292.11   62.50
   1  12  -1   56.40   60.58
   1  12   0   -3.86  101.23
   1  12   1   -5.30   80.18
   1  12   2  440.90   80.18
   1  12   3  603.51   81.79
   1  12   4  253.55   72.47
   1  12   5  -69.41   76.16
   1  12   6  -16.07   82.75
   1  13  -2  -28.60  119.38
   1  13  -1   53.99  121.79
   1  13   0 -380.33  256.28
   1  13   1   55.27  171.28
   1  13   2  106.69  133.68
   2   0  -9   72.79   64.27
   2   0  -7   89.34   10.44
   2   0  -5  694.13    9.00
   2   0  -3  113.60    4.18
   2   0  -1  392.86   15.75
   2   0   1   80.18   11.09
   2   0   3  869.27   25.55
   2   0   5   -0.16    5.14
   2   0   7  219.00   18.64
   2   0   9   57.52  107.17
   2   1 -10   37.60   80.02
   2   1  -9  159.55   25.55
   2   1  -8  617.65   20.41
   2   1  -7  999.26   15.59
   2   1  -6  235.88    6.11
   2   1  -5   65.24    3.37
   2   1  -4   77.77    3.05
   2   1  -3  222.54    5.95
   2   1  -2  358.15    5.95
   2   1  -1   94.80    2.09
   2   1   0  518.35    8.68
   2   1   1  295.17   15.26
   2   1   2   61.86    2.89
   2   1   3  575.23    7.07
   2   1   4   73.75    3.37
   2   1   5  205.51    4.98
   2   1   6   77.61    6.59
   2   1   7   77.29    9.00
   2   1   8  186.23   24.91
   2   2  -9   90.14   20.89
   2   2  -7  331.64    9.00
   2   2  -5    2.09    2.89
   2   2  -3   34.87    2.09
   2   2  -1   81.46    2.57
   2   2   1  362.33    4.18
   2   2   3  253.39    4.02
   2   2   5   68.45    4.50
   2   2   7 1362.87   16.71
   2   2   9  728.51   67.32
   2   3 -10  164.53   32.94
   2   3  -9   34.71   13.82
   2   3  -8   63.47    9.16
   2   3  -7  168.71    8.52
   2   3  -6  621.99    9.32
   2   3  -5  184.94    5.78
   2   3  -4  837.45   11.57
   2   3  -3   81.30    3.53
   2   3  -2  393.66    7.23
   2   3  -1 1513.11   14.94
   2   3   0  502.44    7.39
   2   3   1  380.65    5.95
   2   3   2   10.12    3.21
   2   3   3   86.61    3.37
   2   3   4  752.13    9.00
   2   3   5   78.89    4.98
   2   3   6  223.02    8.68
   2   3   7  940.93   15.59
   2   3   8  337.91   12.85
   2   3   9   30.69   21.53
   2   3  10   67.65   40.81
   2   3  11   51.26   93.35
   2   3  12  -32.30  253.07
   2   4 -13  499.23  264.96
   2   4 -11   33.26   31.97
   2   4  -9  318.62   13.66
   2   4  -7  159.87    9.64
   2   4  -5 1271.29   14.14
   2   4  -3   85.96    4.82
   2   4  -1  289.54    4.66
   2   4   1   17.03    3.53
   2   4   3  149.27    8.36
   2   4   5  120.03    6.59
   2   4   7  419.05   11.09
   2   4   9  193.30   15.59
   2   4  11   98.50   45.31
   2   5 -13  468.70  219.33
   2   5 -12   60.09   64.59
   2   5 -11  648.34   31.65
   2   5 -10  203.10   15.75
   2   5  -9   80.18   10.77
   2   5  -8  513.85   12.69
   2   5  -7  266.40   10.44
   2   5  -6  320.87   10.60
   2   5  -5  651.71   10.60
   2   5  -4   11.09    6.91
   2   5  -3 1011.95   13.66
   2   5  -2   79.21    4.50
   2   5  -1  705.06    7.39
   2   5   0  179.64    5.14
   2   5   1  592.90    7.71
   2   5   2   41.94    4.66
   2   5   3   72.63    5.78
   2   5   4   32.94    7.07
   2   5   5  212.58    9.48
   2   5   6   11.89    7.39
   2   5   7  363.13   11.25
   2   5   8  141.56   10.93
   2   5   9  323.93   20.89
   2   5  10  290.83   26.19
   2   5  11   65.56   26.67
   2   5  12   23.14   86.44
   2   5  13  -53.02  188.31
   2   6 -13  637.73  100.42
   2   6 -11  164.21   27.15
   2   6  -9  690.59   17.67
   2   6  -7   66.04   10.93
   2   6  -5  196.99    9.32
   2   6  -3  867.66   11.09
   2   6  -1  584.55    8.36
   2   6   1  197.47    6.59
   2   6   3   10.44    6.11
   2   6   5  299.18   10.44
   2   6   7  243.43   12.21
   2   6   9  209.68   18.64
   2   6  11  194.42   32.62
   2   6  13  241.18   72.31
   2   7 -14   64.75  156.02
   2   7 -13  152.00   88.21
   2   7 -12  260.94   56.24
   2   7 -11  690.27   47.40
   2   7 -10    8.36   26.51
   2   7  -9   64.27   19.28
   2   7  -8  256.28   18.32
   2   7  -7  359.44   15.26
   2   7  -6   97.37    9.32
   2   7  -5   80.82    9.64
   2   7  -4 1430.84   16.55
   2   7  -3  550.16   12.37
   2   7  -2   66.36    8.84
   2   7  -1   39.04    6.59
   2   7   0   39.53    5.78
   2   7   1  278.62    8.36
   2   7   2  163.41    9.16
   2   7   3   82.59    8.68
   2   7   4  498.58   12.69
   2   7   5   18.64    8.84
   2   7   6   66.68   11.25
   2   7   7   20.25   12.21
   2   7   8  187.99   17.67
   2   7   9   63.63   21.53
   2   7  10  236.20   31.33
   2   7  11  125.49   44.99
   2   7  12  489.26   70.22
   2   7  13   84.36  106.21
   2   8 -13  210.65  123.56
   2   8 -11  147.66   52.22
   2   8  -9   26.67   26.03
   2   8  -7   35.03   16.23
   2   8  -5   -2.89   10.28
   2   8  -3  376.31   14.30
   2   8  -1   27.96    8.52
   2   8   1   29.73    9.00
   2   8   3   20.57   10.28
   2   8   5  252.59   14.14
   2   8   7   60.90   16.39
   2   8   9  349.96   31.81
   2   8  11  216.75   58.49
   2   9 -12  112.64  109.58
   2   9 -11  -13.18   70.06
   2   9 -10   75.20   50.45
   2   9  -9   78.09   35.83
   2   9  -8   83.07   30.05
   2   9  -7   67.48   26.35
   2   9  -6    0.00   22.82
   2   9  -5   29.56   17.51
   2   9  -4  369.40   22.17
   2   9  -3  113.28   17.35
   2   9  -2   36.47   15.75
   2   9  -1  -29.24   14.14
   2   9   0  209.20   15.91
   2   9   1  182.53   15.43
   2   9   2   16.55   14.62
   2   9   3   96.25   15.91
   2   9   4  677.58   22.49
   2   9   5   35.35   18.48
   2   9   6  118.74   20.89
   2   9   7  144.45   26.35
   2   9   8  274.12   31.65
   2   9   9  229.45   45.47
   2   9  10  101.07   56.40
   2   9  11  478.18   86.44
   2  10 -11   67.16  112.31
   2  10  -9  -22.17   58.81
   2  10  -7  292.92   38.08
   2  10  -5  352.53   35.35
   2  10  -3   54.15   26.35
   2  10  -1   43.54   24.42
   2  10   1   80.50   24.74
   2  10   3   94.80   24.91
   2  10   5  -43.54   27.32
   2  10   7  467.57   42.58
   2  10   9   70.54   62.66
   2  11  -9  125.33   92.23
   2  11  -8  181.57   72.14
   2  11  -7  469.82   65.07
   2  11  -6  147.98   57.36
   2  11  -5  107.49   49.49
   2  11  -4  295.17   47.40
   2  11  -3   78.25   46.44
   2  11  -2  158.27   49.97
   2  11  -1  141.40   50.45
   2  11   0  155.38   50.45
   2  11   1  208.72   43.87
   2  11   2   65.24   40.17
   2  11   3  267.21   44.03
   2  11   4  179.64   48.20
   2  11   5  251.46   47.72
   2  11   6   26.67   54.95
   2  11   7  -19.28   61.54
   2  11   8  112.31   80.98
   2  12  -5  247.28   94.64
   2  12  -3   89.82   79.37
   2  12  -1  308.98   90.14
   2  12   1  108.14   79.86
   2  12   3  304.65   82.91
   2  12   5 -176.26   88.05
   3   0  -8  649.30   30.69
   3   0  -7 1808.11   19.28
   3   0  -5   22.49    3.86
   3   0  -4   47.08    5.30
   3   0  -2  145.57    3.86
   3   0  -1  377.91    6.91
   3   0   1  788.45    9.48
   3   0   2  496.98    8.68
   3   0   4   73.43    5.95
   3   0   5 1775.33   18.64
   3   0   7  645.28   26.03
   3   0   8  108.30   39.53
   3   1 -10  181.08   75.52
   3   1  -9  100.91   27.96
   3   1  -8   50.93   15.10
   3   1  -7  637.57   12.21
   3   1  -6  202.62    6.43
   3   1  -5   66.20    4.50
   3   1  -4 1512.46   10.28
   3   1  -3   -1.77    2.41
   3   1  -2  393.34    5.78
   3   1  -1  255.48    4.66
   3   1   0 1090.04   12.85
   3   1   1   58.00    3.86
   3   1   2  105.08    4.18
   3   1   3  617.81    8.68
   3   1   4  655.73    8.36
   3   1   5    8.68    4.82
   3   1   6   74.39    7.71
   3   1   7  454.40   20.41
   3   1   8  156.18   34.06
   3   1   9   32.94   69.89
   3   1  10  209.85  166.62
   3   2 -11  342.73   79.05
   3   2 -10   47.56   32.94
   3   2  -9  168.71   23.30
   3   2  -8  428.05   14.62
   3   2  -7  532.17   11.57
   3   2  -6   80.82    6.11
   3   2  -5  409.09    6.75
   3   2  -4  236.36    4.98
   3   2  -3  378.72    5.30
   3   2  -2   61.06    2.89
   3   2  -1   53.18    2.89
   3   2   0  428.53    6.91
   3   2   1  255.00    4.50
   3   2   2  149.75    4.66
   3   2   3  721.28    8.19
   3   2   4  186.71    5.46
   3   2   5  357.19    7.55
   3   2   6  521.88   10.44
   3   2   7  727.55   13.34
   3   2   8  493.76   24.91
   3   2   9  197.96   33.74
   3   2  10   -3.70   62.18
   3   2  11  -12.69  125.33
   3   3 -11   14.62   48.04
   3   3 -10   47.72   26.67
   3   3  -8   84.03    9.64
   3   3  -7  370.36    9.48
   3   3  -5 1009.70   14.14
   3   3  -4  636.93    8.19
   3   3  -2   11.89    2.89
   3   3  -1    0.80    2.41
   3   3   1  150.23    6.43
   3   3   2  345.30    6.59
   3   3   4 1622.69   19.12
   3   3   5   16.71    5.62
   3   3   7  181.08   11.89
   3   3   8   31.97   12.69
   3   3  10  118.26   37.60
   3   3  11   55.27   62.50
   3   4 -12  355.26   80.82
   3   4 -11   56.08   35.51
   3   4 -10  110.23   23.14
   3   4  -9  249.05   13.98
   3   4  -8  382.41   11.73
   3   4  -7   77.13    8.19
   3   4  -6  277.81   10.12
   3   4  -5  523.17   11.25
   3   4  -4  432.71    9.80
   3   4  -3  809.66   10.28
   3   4  -2  129.99    5.46
   3   4  -1  175.94    5.30
   3   4   0   90.62    4.50
   3   4   1   11.57    4.02
   3   4   2  718.55    9.32
   3   4   3  311.88    8.68
   3   4   4   21.05    5.78
   3   4   5  155.22    8.52
   3   4   6  163.89    9.32
   3   4   7  286.49   12.53
   3   4   8  281.67   15.43
   3   4   9  106.85   22.66
   3   4  10  263.83   33.90
   3   4  11  354.78   69.09
   3   4  12  319.59  121.95
   3   5 -13  563.98   92.23
   3   5 -12   91.59   49.81
   3   5 -11  311.55   29.73
   3   5 -10  193.78   20.41
   3   5  -9  746.67   19.44
   3   5  -8  103.32   10.44
   3   5  -7   32.46    8.52
   3   5  -6  136.58    8.52
   3   5  -5  339.51   10.12
   3   5  -4   55.43    6.43
   3   5  -3  283.76    7.55
   3   5  -2   31.01    4.50
   3   5  -1 1068.03    9.00
   3   5   0  771.09    8.03
   3   5   1  210.01    7.07
   3   5   2  391.25   10.28
   3   5   3   86.44    7.39
   3   5   4   85.80    8.68
   3   5   5  224.79   10.28
   3   5   6  435.28   12.69
   3   5   7  764.51   16.39
   3   5   8  139.95   15.75
   3   5   9   46.44   22.49
   3   5  10  288.10   36.15
   3   5  11  -40.65   49.81
   3   5  12   26.35   80.98
   3   5  13  453.43  146.22
   3   6 -14  415.35  188.64
   3   6 -13   79.54   75.36
   3   6 -11  876.66   43.38
   3   6 -10   35.51   23.14
   3   6  -8  701.36   18.64
   3   6  -7  299.66   12.85
   3   6  -5  117.78    8.68
   3   6  -4   34.87    7.07
   3   6  -2  309.79    8.19
   3   6  -1   38.56    5.78
   3   6   1   42.10    5.46
   3   6   2   49.17    6.75
   3   6   4  132.40    8.84
   3   6   5   78.41    9.32
   3   6   7  317.66   16.55
   3   6   8  524.61   25.87
   3   6  10  802.27   40.49
   3   6  11  127.26   51.90
   3   6  13 -116.33  156.02
   3   7 -14  760.65  113.76
   3   7 -13   16.07   69.41
   3   7 -12    8.03   51.74
   3   7 -11  104.92   45.31
   3   7 -10  299.66   31.33
   3   7  -9  405.71   26.03
   3   7  -8  669.22   22.98
   3   7  -7    3.05   12.69
   3   7  -6  291.95   13.66
   3   7  -5   23.46    9.00
   3   7  -4  325.53   11.73
   3   7  -3  450.54   12.05
   3   7  -2  110.71    9.00
   3   7  -1  498.58    9.96
   3   7   0  973.87   11.41
   3   7   1   74.23    9.16
   3   7   2  132.72    9.96
   3   7   3  110.06   10.60
   3   7   4  333.09   13.98
   3   7   5  320.39   14.94
   3   7   6   56.88   14.46
   3   7   7  186.07   18.96
   3   7   8  459.22   29.89
   3   7   9  124.20   33.42
   3   7  10  294.84   42.26
   3   7  11  123.40   59.29
   3   7  12    8.52   89.34
   3   8 -13  -15.75   93.03
   3   8 -12   14.30   68.29
   3   8 -11   74.07   50.93
   3   8 -10  211.29   36.96
   3   8  -9   85.16   30.05
   3   8  -8  343.53   27.32
   3   8  -7  135.13   18.32
   3   8  -6   57.84   14.94
   3   8  -5  142.84   14.62
   3   8  -4   89.50   13.34
   3   8  -3   69.25   12.85
   3   8  -2  160.52   12.69
   3   8  -1    6.27   11.09
   3   8   0   73.59   10.93
   3   8   1   29.08   12.37
   3   8   2  174.18   15.10
   3   8   3   18.64   13.98
   3   8   4  258.05   17.51
   3   8   5  147.98   19.44
   3   8   6   97.69   21.69
   3   8   7    8.36   23.46
   3   8   8  729.32   41.13
   3   8   9  -24.74   43.70
   3   8  10  446.52   56.56
   3   8  11   58.33   80.34
   3   9 -11  174.82   71.50
   3   9 -10  316.38   53.18
   3   9  -8  209.68   30.21
   3   9  -7  102.67   23.62
   3   9  -5   12.85   19.76
   3   9  -4  533.93   22.66
   3   9  -2  111.83   17.67
   3   9  -1  161.16   19.76
   3   9   1    9.48   19.92
   3   9   2   43.38   20.73
   3   9   4  502.60   30.69
   3   9   5  278.13   27.80
   3   9   7  229.77   37.92
   3   9   8  147.34   51.74
   3   9  10  751.17   86.77
   3  10 -10  117.62   78.73
   3  10  -9   99.30   55.27
   3  10  -8  334.21   51.42
   3  10  -7   82.75   42.26
   3  10  -6   25.71   35.35
   3  10  -5  -60.09   31.65
   3  10  -4   25.71   30.69
   3  10  -3  569.93   35.99
   3  10  -2  295.65   30.05
   3  10  -1  155.54   28.12
   3  10   0   48.36   36.31
   3  10   1  148.63   27.48
   3  10   2    6.59   35.35
   3  10   3  129.19   37.12
   3  10   4   83.39   38.88
   3  10   5  728.03   58.81
   3  10   6    9.80   57.36
   3  10   7  126.94   74.23
   3  10   8   71.18   72.47
   3  10   9   91.91  100.58
   3  11  -8  384.82   88.05
   3  11  -7   10.44   67.65
   3  11  -6  352.85   63.15
   3  11  -5  152.32   60.58
   3  11  -4  197.31   55.11
   3  11  -3   99.78   50.13
   3  11  -2   23.62   49.01
   3  11  -1   37.44   49.17
   3  11   0  245.52   66.04
   3  11   1   60.74   47.08
   3  11   2   10.28   47.72
   3  11   3  844.85   63.15
   3  11   4   73.75   57.84
   3  11   5   55.43   62.66
   3  11   6   77.77   79.54
   3  11   7  207.92   83.87
   3  12  -5   57.04  111.99
   3  12  -4  124.20  113.28
   3  12  -2  151.84   94.00
   3  12  -1  398.96  115.53
   3  12   1  115.69   94.16
   3  12   2  335.34  102.83
   3  12   4 -132.40  107.49
   4   0  -9    5.62   24.58
   4   0  -7   53.51    8.68
   4   0  -5   -1.61    4.82
   4   0  -3  996.69   13.18
   4   0  -1  127.26    4.98
   4   0   1  187.67    8.68
   4   0   3  108.46    7.07
   4   0   5   -7.39    6.75
   4   0   7   62.50   18.80
   4   0   9   31.49   63.79
   4   1 -10  354.30  118.26
   4   1  -9  249.05   22.01
   4   1  -8  117.78   12.69
   4   1  -7  820.74   11.89
   4   1  -6  719.52    8.36
   4   1  -5  511.12    7.55
   4   1  -4 1685.03   10.60
   4   1  -3  246.16    4.82
   4   1  -2  594.35    6.43
   4   1  -1   40.49    3.21
   4   1   0  106.69    4.02
   4   1   1 3105.91   14.78
   4   1   2  203.58    4.82
   4   1   3  415.35    6.11
   4   1   4 1136.64   10.93
   4   1   5  270.26    7.55
   4   1   6  638.05   10.28
   4   1   7  132.88   13.98
   4   1   8   77.93   27.48
   4   1   9  545.82   62.66
   4   2 -11  288.42   65.07
   4   2  -9   33.90   14.30
   4   2  -7  552.73   10.60
   4   2  -5   56.88    6.11
   4   2  -3   19.76    3.37
   4   2  -1  410.05    5.46
   4   2   1    8.36    3.37
   4   2   3  127.26    6.11
   4   2   5  130.15    7.39
   4   2   7   -5.14   12.69
   4   2   9   68.45   32.14
   4   3 -13  451.34  353.17
   4   3 -12  184.78  150.39
   4   3 -11   49.49   62.18
   4   3 -10   98.66   18.80
   4   3  -9  431.58   19.92
   4   3  -8   89.66    9.48
   4   3  -7  804.03   11.41
   4   3  -6   99.94    8.03
   4   3  -5  195.22    7.39
   4   3  -4  255.48    6.91
   4   3  -3   68.45    4.98
   4   3  -2  752.62    8.36
   4   3  -1 1004.88    9.48
   4   3   0  293.40    6.43
   4   3   1  522.20    8.03
   4   3   2   59.29    5.30
   4   3   3  738.48    9.64
   4   3   4  698.63   11.57
   4   3   5   20.08    6.91
   4   3   6  703.13   14.14
   4   3   7  100.58   13.18
   4   3   8  216.11   19.76
   4   3   9  -32.62   25.23
   4   3  10   85.00   37.92
   4   3  11  164.53  196.51
   4   4 -13  356.22  247.44
   4   4 -11   59.61   25.87
   4   4  -9   28.76   13.01
   4   4  -7  128.06    9.32
   4   4  -5  204.70    9.32
   4   4  -3   30.05    4.98
   4   4  -1  248.41    7.07
   4   4   1   14.94    4.66
   4   4   3   85.00    7.23
   4   4   5   48.85    9.16
   4   4   7  118.10   12.69
   4   4   9 1140.98   40.49
   4   4  11   44.19   59.13
   4   4  13  398.96  367.95
   4   5 -15  224.47  423.71
   4   5 -14  164.70  204.70
   4   5 -13  132.88  123.72
   4   5 -12   20.57   59.45
   4   5 -11  138.18   34.22
   4   5 -10   45.63   20.73
   4   5  -9  638.53   21.37
   4   5  -8   41.29   13.66
   4   5  -7  376.63   15.26
   4   5  -6   59.45    9.16
   4   5  -5  309.14   11.41
   4   5  -4  367.63   10.12
   4   5  -3  109.74    6.75
   4   5  -2   38.08    5.14
   4   5  -1  228.97    6.43
   4   5   0  147.82    6.11
   4   5   1  503.08    8.84
   4   5   2  120.83    7.39
   4   5   3  806.60   14.30
   4   5   4  309.31   11.09
   4   5   5   24.42    9.64
   4   5   6   13.98   11.09
   4   5   7   84.52   15.59
   4   5   8  302.07   23.30
   4   5   9  116.97   33.26
   4   5  10  182.21   51.74
   4   5  11  736.55   81.79
   4   5  12  301.75  124.69
   4   5  13  110.55  188.64
   4   6 -13  153.29   98.17
   4   6 -11   67.97   40.49
   4   6  -9   32.62   21.05
   4   6  -7  259.66   14.62
   4   6  -5   39.21    9.32
   4   6  -3   66.20    7.23
   4   6  -1  202.45    7.39
   4   6   1   36.63    7.39
   4   6   3    9.00    9.00
   4   6   5  -14.30   13.98
   4   6   7  408.28   27.48
   4   6   9  105.73   35.19
   4   6  11   53.02   78.57
   4   7 -13  311.07  128.22
   4   7 -12  -27.48   78.73
   4   7 -11   78.41   53.83
   4   7 -10   62.34   35.83
   4   7  -9  369.56   30.05
   4   7  -8  137.22   21.85
   4   7  -7  218.04   19.44
   4   7  -6  213.86   18.16
   4   7  -5  218.04   14.46
   4   7  -4   88.21   12.21
   4   7  -3   66.20   10.77
   4   7  -2  210.81   11.25
   4   7  -1  118.42    9.16
   4   7   0  291.79   11.89
   4   7   1   25.07   10.28
   4   7   2   83.87   12.21
   4   7   3  457.77   19.12
   4   7   4  182.05   17.84
   4   7   5  302.07   22.33
   4   7   6   31.97   20.25
   4   7   7  327.30   28.28
   4   7   8  104.60   32.78
   4   7   9   47.56   46.76
   4   7  10  317.18   65.88
   4   7  11  144.61  102.03
   4   8 -11  289.06   73.91
   4   8  -9  187.19   37.92
   4   8  -7 1016.93   33.90
   4   8  -5  155.86   23.14
   4   8  -3  640.95   20.57
   4   8  -1   24.26   13.98
   4   8   1   98.50   15.43
   4   8   3    3.05   20.25
   4   8   5  128.22   26.67
   4   8   7  152.32   37.28
   4   8   9  220.45   67.48
   4   9 -11  214.02  107.33
   4   9 -10  368.27   73.43
   4   9  -9 -178.03   51.26
   4   9  -8  489.26   51.42
   4   9  -7  254.03   35.67
   4   9  -6   66.84   30.53
   4   9  -5  262.55   30.69
   4   9  -4  -20.89   26.03
   4   9  -3  338.87   29.89
   4   9  -2 1090.68   32.62
   4   9  -1   42.42   22.66
   4   9   0  433.83   27.64
   4   9   1  259.98   26.35
   4   9   2  171.44   30.37
   4   9   3  215.63   31.81
   4   9   4   -7.07   34.22
   4   9   5  535.22   46.11
   4   9   6  401.86   45.63
   4   9   7  -64.75   54.15
   4   9   8   -8.84   70.86
   4   9   9   28.60   86.77
   4  10  -9  250.34   82.59
   4  10  -7  963.43   72.31
   4  10  -5  106.53   44.83
   4  10  -3   82.91   45.95
   4  10  -1  144.29   40.65
   4  10   1    0.32   45.15
   4  10   3  532.01   54.15
   4  10   5  187.67   58.49
   4  10   7  315.57   86.12
   4  11  -7  232.18  102.67
   4  11  -6  191.85   85.96
   4  11  -5  219.97   85.00
   4  11  -4  205.83   80.18
   4  11  -3   69.25   82.43
   4  11  -2  203.26   70.54
   4  11  -1  660.71   78.89
   4  11   0  594.51   72.63
   4  11   1  549.52   90.94
   4  11   2  414.07   94.32
   4  11   3  -38.40   93.35
   4  11   4  129.51   93.19
   4  11   5  456.33  109.42
   5   0 -11  536.66  138.50
   5   0  -9  253.23   39.85
   5   0  -8   -3.53   16.71
   5   0  -7   -6.11   11.89
   5   0  -6  453.11   12.69
   5   0  -4  858.02   14.78
   5   0  -3  488.14   11.25
   5   0  -2  781.22   11.41
   5   0  -1   93.35    6.75
   5   0   1  676.94   10.77
   5   0   2   92.39    7.55
   5   0   3   22.98    6.59
   5   0   4  220.13    9.96
   5   0   6   -6.75   12.21
   5   0   7   24.26   19.28
   5   0   8  197.31   48.85
   5   0   9  408.12  103.80
   5   1 -12   99.46  154.25
   5   1 -11  550.00   97.85
   5   1 -10  481.71   54.15
   5   1  -9  218.36   17.84
   5   1  -8  280.70   14.30
   5   1  -7  201.65    9.80
   5   1  -6   66.04    6.43
   5   1  -5  162.28    6.59
   5   1  -4   53.51    5.14
   5   1  -3  381.61    6.91
   5   1  -2  303.36    6.27
   5   1  -1   50.77    4.02
   5   1   0  709.88    7.55
   5   1   1  106.37    4.82
   5   1   2 1210.87    9.80
   5   1   3   85.00    5.62
   5   1   4   14.78    5.78
   5   1   5  187.35    8.68
   5   1   6    8.19    9.32
   5   1   7  119.22   14.30
   5   1   8  172.89   23.30
   5   1   9  153.29   87.09
   5   1  10 1019.98  198.92
   5   2 -12    0.16   87.09
   5   2 -11  175.30   43.38
   5   2 -10  172.89   29.40
   5   2  -9   41.45   18.16
   5   2  -8   -4.34   11.57
   5   2  -7   52.38    8.03
   5   2  -6  380.97    9.16
   5   2  -5 1089.72   10.60
   5   2  -4   84.52    5.46
   5   2  -3  585.83    7.71
   5   2  -2  410.05    6.27
   5   2  -1   19.76    4.18
   5   2   0  219.65    6.27
   5   2   1  358.47    7.87
   5   2   2   88.05    5.78
   5   2   3  194.58    7.23
   5   2   4  259.01    8.52
   5   2   5  292.92    9.64
   5   2   6  127.42   11.57
   5   2   7   75.20   16.71
   5   2   8  114.88   22.82
   5   2   9  334.69   32.62
   5   2  10  794.23   98.34
   5   2  11  -89.82  146.38
   5   3 -12   17.51   60.58
   5   3 -11   60.58   39.37
   5   3 -10   87.57   27.32
   5   3  -9   66.84   19.28
   5   3  -8  276.85   14.14
   5   3  -7  111.99    9.96
   5   3  -6   22.01    7.07
   5   3  -5  356.22    8.68
   5   3  -4  169.84    6.75
   5   3  -3   29.73    4.66
   5   3  -2   11.57    4.18
   5   3  -1   78.89    4.82
   5   3   0  918.11    9.32
   5   3   1  311.88    7.23
   5   3   2  512.24    9.16
   5   3   3  301.75    9.64
   5   3   4   36.63    6.91
   5   3   5   15.91   11.25
   5   3   6  737.35   20.08
   5   3   7  141.88   22.17
   5   3   8  387.88   39.04
   5   3   9  798.09   50.45
   5   3  10  673.24   73.11
   5   3  11   35.99   90.62
   5   3  12  622.79  239.89
   5   4 -13  133.36   78.25
   5   4 -12  643.19   62.50
   5   4 -11    2.09   39.53
   5   4 -10   69.73   24.91
   5   4  -9  134.33   20.25
   5   4  -8  501.48   19.12
   5   4  -7  273.80   13.50
   5   4  -6  155.86   11.41
   5   4  -5  173.53    8.68
   5   4  -4  353.65    8.84
   5   4  -3  243.59    7.55
   5   4  -2   88.21    5.30
   5   4  -1  802.59    8.52
   5   4   0  231.86    6.75
   5   4   1   65.56    6.11
   5   4   2   18.80    6.91
   5   4   3   -0.48    7.87
   5   4   4  763.06   14.46
   5   4   5  235.23   14.62
   5   4   6   42.26   16.55
   5   4   7  887.43   28.76
   5   4   8  353.65   31.97
   5   4   9  -36.47   43.54
   5   4  10  207.27   65.24
   5   4  11  326.66  101.07
   5   4  12  442.35  168.55
   5   5 -14  -86.93  130.31
   5   5 -13  284.56   88.05
   5   5 -12  152.80   57.84
   5   5 -11   -9.96   36.96
   5   5  -9  205.67   24.42
   5   5  -8  197.63   18.80
   5   5  -7   47.88   14.30
   5   5  -6  482.84   15.91
   5   5  -4   45.15    8.03
   5   5  -3   43.22    7.23
   5   5  -2   95.44    7.07
   5   5  -1  240.86    8.19
   5   5   1   52.86    7.71
   5   5   2  244.71   10.44
   5   5   3  647.53   14.78
   5   5   4   23.14   11.41
   5   5   6  472.72   23.46
   5   5   7  206.47   26.67
   5   5   8  212.26   32.46
   5   5   9  287.94   41.94
   5   5  11  119.71  110.71
   5   6 -13 -128.54  100.10
   5   6 -12   42.90   68.13
   5   6 -11   39.53   48.85
   5   6 -10   26.51   36.63
   5   6  -9  263.35   28.44
   5   6  -8 1274.82   29.08
   5   6  -7  339.19   22.49
   5   6  -6  368.27   19.12
   5   6  -5  144.45   13.18
   5   6  -4   50.61   11.09
   5   6  -3  116.65   11.09
   5   6  -2   76.80    9.64
   5   6  -1  113.44    9.32
   5   6   0  383.22   11.89
   5   6   1   56.24   10.44
   5   6   2  137.70   12.69
   5   6   3  433.03   17.19
   5   6   4  165.18   17.19
   5   6   5  178.51   21.37
   5   6   6  -11.09   23.30
   5   6   7  439.78   33.42
   5   6   8  132.72   38.08
   5   6   9  156.02   50.61
   5   6  10   92.71   70.86
   5   6  11  315.25  124.36
   5   7 -12  -33.74  106.69
   5   7 -11  570.57   74.23
   5   7 -10  516.26   57.36
   5   7  -9  137.86   39.21
   5   7  -8   16.23   29.08
   5   7  -7  168.87   25.23
   5   7  -6  300.15   21.05
   5   7  -5  128.38   17.51
   5   7  -4   22.01   14.94
   5   7  -3  231.38   16.07
   5   7  -2  257.25   16.39
   5   7  -1  461.63   17.03
   5   7   0  173.69   14.94
   5   7   1  421.78   18.96
   5   7   2  431.42   20.57
   5   7   3  481.87   25.23
   5   7   4   34.22   22.82
   5   7   5  124.20   25.55
   5   7   6  798.41   39.53
   5   7   7   40.33   39.53
   5   7   8  387.88   71.02
   5   7   9   81.14   91.91
   5   7  10  140.91  141.40
   5   8 -11   89.34   95.92
   5   8 -10   87.73   69.57
   5   8  -9  208.56   57.04
   5   8  -8  218.52   44.99
   5   8  -7  327.78   34.22
   5   8  -6  572.34   33.90
   5   8  -5  -54.15   25.39
   5   8  -4  315.57   26.19
   5   8  -3  258.21   22.01
   5   8  -2  109.74   19.92
   5   8  -1  367.95   21.05
   5   8   0  197.47   22.82
   5   8   1  188.80   24.26
   5   8   2  145.57   29.56
   5   8   3  125.17   32.30
   5   8   4   24.58   32.30
   5   8   5  303.84   47.08
   5   8   6   72.47   53.99
   5   8   7  182.21   66.36
   5   8   8   19.44   88.69
   5   8   9  408.44  139.95
   5   9  -9  107.98   79.70
   5   9  -8  -25.07   69.73
   5   9  -7  966.48   72.95
   5   9  -6  193.94   45.79
   5   9  -5    5.95   39.69
   5   9  -4  162.61   39.53
   5   9  -3  161.00   38.40
   5   9  -2  280.22   32.46
   5   9  -1   31.97   29.40
   5   9   0  -63.95   36.96
   5   9   1  772.22   49.33
   5   9   2   61.70   44.35
   5   9   3  326.34   55.59
   5   9   4   81.62   63.15
   5   9   5  166.94   69.41
   5   9   6  679.35   74.07
   5   9   7  230.73   82.27
   5  10  -7  100.26   78.09
   5  10  -6  348.99   86.61
   5  10  -4 -129.51   63.63
   5  10  -3  300.15   60.41
   5  10  -2  260.62   56.72
   5  10  -1  546.31   61.06
   5  10   1  267.21   57.04
   5  10   2  116.33   66.84
   5  10   3   58.17   71.82
   5  10   4   20.57   78.73
   5  11  -4  392.54  131.76
   5  11  -3   59.61  108.94
   5  11  -2  347.06  107.98
   5  11  -1  602.70  112.80
   5  11   0 -149.11   98.34
   5  11   1  230.73  123.24
   6   0  -7   -1.61   17.19
   6   0  -5   75.68   10.28
   6   0  -1   59.13    8.03
   6   0   1  124.04    9.64
   6   0   5   32.94   18.32
   6   0   7  101.39   30.85
   6   1 -12 -827.33  321.20
   6   1 -11  326.82   74.07
   6   1 -10   75.52   34.87
   6   1  -9  299.50   27.80
   6   1  -8   67.97   15.43
   6   1  -7  116.81   12.53
   6   1  -6  113.60    9.80
   6   1  -5  216.43    9.16
   6   1  -4  156.50    7.39
   6   1  -3  164.37    7.71
   6   1  -2  170.80    7.23
   6   1  -1    9.96    5.62
   6   1   0   97.69    6.27
   6   1   1  316.38    7.71
   6   1   2   30.05    6.75
   6   1   3   68.13    7.71
   6   1   4  191.53   11.89
   6   1   5   35.19   12.05
   6   1   6  196.19   18.00
   6   1   7   21.69   20.73
   6   1   8  992.35   45.31
   6   1   9  184.46   51.26
   6   1  10 1124.43  162.77
   6   2 -13   93.03  304.32
   6   2 -11   50.77   50.29
   6   2  -9   72.95   27.48
   6   2  -7   83.23   13.01
   6   2  -5  241.98   10.77
   6   2  -3  134.65    7.39
   6   2  -1  768.20    9.64
   6   2   1   61.86    6.43
   6   2   3   46.92    8.52
   6   2   5   68.45   13.66
   6   2   7  157.79   26.67
   6   2   9   26.83   49.97
   6   2  11 -284.56  247.77
   6   3 -14  307.70  293.88
   6   3 -13  383.70  175.14
   6   3 -11   53.51   58.17
   6   3 -10   26.83   39.85
   6   3  -8  218.52   19.60
   6   3  -7  207.11   15.59
   6   3  -5  123.24   10.60
   6   3  -4  405.39   10.44
   6   3  -2   93.35    6.91
   6   3  -1  124.04    7.23
   6   3   1  560.77   11.25
   6   3   2  435.44   12.37
   6   3   4  258.69   13.50
   6   3   5  232.02   14.94
   6   3   7  153.29   28.44
   6   3   8   79.54   46.11
   6   3  10  144.45  156.82
   6   3  11  393.98  168.39
   6   4 -13  789.41  174.18
   6   4 -11   88.86   54.63
   6   4  -9   57.36   25.87
   6   4  -7  303.36   21.37
   6   4  -5  904.30   16.55
   6   4  -3   88.37    9.16
   6   4  -1  258.37   10.44
   6   4   1   53.83    8.84
   6   4   3  514.97   15.43
   6   4   5   55.76   20.41
   6   4   7    8.84   38.24
   6   4   9 -170.64   86.77
   6   5 -13  194.74  246.32
   6   5 -12  674.69   99.94
   6   5 -11  132.72   64.59
   6   5 -10    2.57   44.99
   6   5  -9  169.84   35.03
   6   5  -8  843.72   38.24
   6   5  -7  325.37   26.83
   6   5  -6   58.97   16.23
   6   5  -5   42.42   13.50
   6   5  -4  502.44   15.91
   6   5  -3   11.09   10.44
   6   5  -2   49.01    9.32
   6   5  -1  274.76   12.05
   6   5   0 1274.50   17.19
   6   5   1  149.27   12.21
   6   5   2  182.37   15.59
   6   5   3  518.99   21.05
   6   5   4  638.05   26.19
   6   5   5  226.40   28.76
   6   5   6  175.46   35.19
   6   5   7  551.77   54.31
   6   5   8    2.89   55.92
   6   5   9  292.11   84.84
   6   5  10   27.48  117.78
   6   6 -11  -30.37   77.13
   6   6  -7   84.68   26.51
   6   6  -5   73.11   20.25
   6   6  -1 1096.15   20.08
   6   6   1   85.48   17.67
   6   6   5  183.49   33.10
   6   6   7  -14.46   50.29
   6   7 -11   65.07   87.89
   6   7 -10  273.80   65.07
   6   7  -9  561.41   62.83
   6   7  -8  328.10   47.88
   6   7  -7  866.70   46.11
   6   7  -6  192.81   34.87
   6   7  -5   38.24   26.51
   6   7  -4   39.69   24.91
   6   7  -3  205.51   25.71
   6   7  -2  112.15   21.85
   6   7  -1  209.68   22.01
   6   7   0  167.11   21.21
   6   7   1  486.53   29.08
   6   7   2   -1.61   26.35
   6   7   3   48.52   31.81
   6   7   4  106.69   37.44
   6   7   5  559.48   49.01
   6   7   6  426.92   56.88
   6   7   7  570.57   73.59
   6   7   8   18.96   76.16
   6   8  -9  -19.28   80.02
   6   8  -7   61.38   45.15
   6   8  -5  171.76   39.69
   6   8  -3  176.91   38.08
   6   8  -1   49.65   31.01
   6   8   1  336.46   38.56
   6   8   3  144.45   48.52
   6   8   5  322.48   61.54
   6   9  -7  419.37   79.70
   6   9  -5  121.47   53.51
   6   9  -4   89.82   51.26
   6   9  -2  312.52   50.93
   6   9  -1   59.61   48.52
   6   9   1  361.85   64.59
   6   9   2  114.56   68.77
   6   9   4  267.53   88.86
   6  10  -3  -44.35   86.93
   6  10  -1   83.23   84.03
   6  10   1   85.32  101.87
   7   0 -12  -96.73  258.85
   7   0 -11  156.98  153.61
   7   0 -10  138.67   84.03
   7   0  -9  177.87   58.17
   7   0  -8  252.75   45.47
   7   0  -6  662.80   29.08
   7   0  -5  264.15   20.89
   7   0  -4   25.07   16.87
   7   0  -3  136.58   16.55
   7   0  -2   23.46   14.78
   7   0  -1   -1.45   14.78
   7   0   1    1.61   14.94
   7   0   2  383.22   22.98
   7   0   3    4.34   19.60
   7   0   4   77.77   23.46
   7   0   5   32.14   32.94
   7   0   6  -42.90   46.44
   7   0   8  248.41   82.43
   7   0   9  -21.85  122.28
   7   0  10  625.36  331.96
   7   1 -12   94.32  113.44
   7   1 -11  338.71   97.85
   7   1 -10  125.65   51.58
   7   1  -9  191.53   36.63
   7   1  -8   20.08   26.03
   7   1  -7  466.45   22.17
   7   1  -6  350.60   18.16
   7   1  -5   47.24   13.01
   7   1  -4  183.49   13.98
   7   1  -3  439.62   13.98
   7   1  -2   58.49   11.09
   7   1  -1  110.06   12.05
   7   1   0  353.17   12.85
   7   1   1  288.58   12.37
   7   1   2   98.01   12.37
   7   1   3   16.55   14.62
   7   1   4  122.76   18.16
   7   1   5   83.55   23.78
   7   1   6  140.43   33.26
   7   1   7  -35.99   44.35
   7   1   8  609.93   73.11
   7   1   9  -80.66   96.25
   7   2 -12  304.16  124.53
   7   2 -11  695.09   93.51
   7   2 -10  188.80   59.29
   7   2  -9   90.78   34.71
   7   2  -8   79.05   26.99
   7   2  -7  240.70   23.78
   7   2  -6   49.17   18.16
   7   2  -5  114.24   14.30
   7   2  -4  169.52   13.01
   7   2  -3  686.10   16.23
   7   2  -2  533.77   15.59
   7   2  -1  135.29   11.57
   7   2   0   76.32   11.25
   7   2   1  589.85   15.59
   7   2   2  266.24   14.62
   7   2   3  185.74   16.87
   7   2   4   90.14   19.76
   7   2   5  151.68   26.51
   7   2   6  177.71   36.31
   7   2   7  -15.75   42.26
   7   2   8   87.09   64.91
   7   2   9  613.95  107.98
   7   3 -12 -133.68  170.80
   7   3 -11   51.26   82.11
   7   3 -10  162.45   53.67
   7   3  -9   17.03   37.28
   7   3  -8  538.91   37.28
   7   3  -7  347.71   27.15
   7   3  -6   53.67   21.69
   7   3  -5  384.34   20.89
   7   3  -4  270.10   17.19
   7   3  -3  237.48   13.82
   7   3  -2   46.44   11.73
   7   3  -1   90.46   11.89
   7   3   0   23.30   13.34
   7   3   1  199.24   14.46
   7   3   2   18.00   14.78
   7   3   3  313.64   21.69
   7   3   4   92.87   22.49
   7   3   5  243.43   27.15
   7   3   6  137.86   31.33
   7   3   7  283.92   44.83
   7   3   8  595.79   86.93
   7   3   9  236.68  108.62
   7   4 -11  156.02   80.02
   7   4 -10  313.00   73.91
   7   4  -9  130.79   49.49
   7   4  -8  702.32   44.03
   7   4  -7   76.32   26.35
   7   4  -6    1.61   20.41
   7   4  -5  151.84   20.08
   7   4  -4  262.07   17.84
   7   4  -3  250.50   17.19
   7   4  -2  100.10   14.30
   7   4  -1  484.28   19.12
   7   4   0 1339.25   25.23
   7   4   1  280.22   19.76
   7   4   2  347.87   18.48
   7   4   3  296.77   23.78
   7   4   4  348.83   26.99
   7   4   5  268.49   31.81
   7   4   6  191.53   39.37
   7   4   7  141.88   59.29
   7   4   8   12.21  112.15
   7   5 -11  -40.01  106.05
   7   5 -10  -34.39   87.89
   7   5  -9  274.28   61.38
   7   5  -8  278.46   46.76
   7   5  -7  105.40   32.78
   7   5  -6  100.10   26.99
   7   5  -5  255.32   26.03
   7   5  -4   60.41   19.44
   7   5  -3   69.41   18.48
   7   5  -2  310.11   20.41
   7   5  -1  513.37   23.62
   7   5   0   10.44   19.12
   7   5   1    7.23   19.60
   7   5   2   43.70   22.01
   7   5   3   91.75   24.58
   7   5   4   26.19   35.35
   7   5   5  105.89   47.72
   7   5   6   54.31   67.65
   7   5   7  307.38   93.84
   7   5   8  196.67  210.65
   7   6 -10  -31.33   93.35
   7   6  -9   43.87   89.82
   7   6  -8  230.25   72.47
   7   6  -7  155.38   49.81
   7   6  -6   84.03   36.47
   7   6  -5  505.65   39.04
   7   6  -4  346.58   33.42
   7   6  -3  149.11   27.15
   7   6  -2   32.14   22.98
   7   6  -1  165.18   26.35
   7   6   0  891.76   33.74
   7   6   1  704.09   32.46
   7   6   2   22.33   36.63
   7   6   3  -12.37   39.85
   7   6   4  275.08   53.02
   7   6   5  369.24   67.32
   7   6   6   64.11  100.10
   7   7  -8   90.62   76.96
   7   7  -6  292.92   58.97
   7   7  -5  110.23   51.74
   7   7  -4   -7.55   45.15
   7   7  -3   59.45   42.90
   7   7  -2   81.95   33.26
   7   7  -1   -3.70   33.42
   7   7   1   37.92   46.60
   7   7   2  215.63   61.54
   7   7   3   52.54   59.13
   7   7   4  166.78   78.25
   7   7   5    2.89   96.73
   7   8  -6  180.44   91.43
   7   8  -5  489.75   73.75
   7   8  -4  180.92   66.52
   7   8  -3  528.15   63.31
   7   8  -2  674.37   62.83
   7   8  -1  -61.70   64.43
   7   8   0  136.09   70.54
   7   8   1  365.06   68.77
   7   8   2  181.41   77.13
   7   8   3  -24.74   80.66
   8   0  -9  222.06  115.21
   8   0  -7  170.32   42.10
   8   0  -5  356.54   42.10
   8   0  -3  899.15   39.69
   8   0  -1   76.32   29.08
   8   0   1  788.29   43.54
   8   0   3   76.96   42.10
   8   0   5  395.75   58.81
   8   0   7   30.37  129.19
   8   1 -10   32.14   88.37
   8   1  -9 1135.51   76.00
   8   1  -8   64.59   40.81
   8   1  -7  539.40   41.45
   8   1  -6  224.47   27.96
   8   1  -5  214.67   25.71
   8   1  -4   51.26   22.66
   8   1  -3   71.18   22.49
   8   1  -2  360.56   25.55
   8   1  -1   34.22   22.01
   8   1   0  161.48   22.82
   8   1   1  126.13   24.91
   8   1   2  321.20   26.51
   8   1   3  156.82   29.56
   8   1   4  253.07   42.58
   8   1   5  147.82   54.95
   8   1   6  173.85   66.04
   8   1   7   10.44  102.51
   8   2  -9 -119.06   73.91
   8   2  -7   71.82   39.37
   8   2  -5  129.99   26.83
   8   2  -3  349.80   27.96
   8   2  -1    2.41   23.30
   8   2   1   81.30   24.42
   8   2   3  195.71   32.78
   8   2   5  663.28   59.61
   8   2   7    0.64  162.12
   8   3 -10 -113.92  109.58
   8   3  -9  -28.44   80.82
   8   3  -8   42.42   57.20
   8   3  -7  600.29   59.45
   8   3  -6  204.38   39.85
   8   3  -5   37.60   31.49
   8   3  -4  191.53   27.96
   8   3  -3  101.71   25.39
   8   3  -2  154.41   23.62
   8   3  -1  370.04   28.28
   8   3   0  200.04   27.64
   8   3   1  522.04   33.58
   8   3   2  127.58   31.33
   8   3   3   94.48   36.31
   8   3   4  165.66   48.85
   8   3   5  273.80   62.18
   8   3   6  -31.17   81.95
   8   4  -9   23.62   81.30
   8   4  -7  -13.34   55.59
   8   4  -5  301.27   38.08
   8   4  -3  359.44   33.26
   8   4  -1  181.24   29.24
   8   4   1   75.52   33.42
   8   4   3  -15.75   49.33
   8   4   5  422.90   64.91
   8   5  -8    8.68   74.72
   8   5  -7   40.01   60.41
   8   5  -6  287.94   50.29
   8   5  -5  233.63   52.22
   8   5  -4  298.70   43.54
   8   5  -3   65.24   38.88
   8   5  -2  -39.85   41.13
   8   5  -1  -13.50   39.53
   8   5   0  147.18   40.01
   8   5   1  449.26   41.62
   8   5   2  116.33   43.70
   8   5   3  -13.98   51.74
   8   5   4  175.94   54.95
   8   6  -5  198.60   63.63
   8   6  -3  546.31   53.18
   8   6  -1  468.22   55.76
   8   6   1   95.92   55.76
   8   6   3   16.71   65.07
   8   7  -3 -122.12  183.82
   8   7  -2  174.18   69.73
   8   7  -1  188.64   78.09
   9   0  -7  348.35   84.36
   9   0  -5  148.15   93.35
   9   0  -4   64.11   66.36
   9   0  -2  600.13   62.34
   9   0  -1  358.31   63.47
   9   0   1   62.50   77.61
   9   0   2  150.07   99.14
   9   1  -7  106.53   70.38
   9   1  -6   23.78   57.84
   9   1  -5   78.25   59.13
   9   1  -4   48.69   52.38
   9   1  -3   84.84   48.85
   9   1  -2   16.71   54.63
   9   1  -1 1072.85   58.65
   9   1   0    9.64   49.65
   9   1   1  951.54   68.61
   9   1   2  248.89   64.43
   9   1   3   39.37   71.98
   9   2  -6  164.05   63.95
   9   2  -5  138.02   55.11
   9   2  -4  297.42   59.93
   9   2  -3   98.98   61.22
   9   2  -2   98.66   51.26
   9   2  -1  125.33   58.49
   9   2   0  225.43   56.56
   9   2   1  467.25   56.24
   9   2   2  339.83   65.56
   9   3  -5  400.09   73.11
   9   3  -4  246.00   61.86
   9   3  -2  387.56   56.72
   9   3  -1  115.21   58.17
   9   3   1  141.56   60.74
   9   4  -2  -62.02   62.02
   0   0   0    0.00    0.00

_computing_structure_solution     'SHELXT 2014/5 (Sheldrick, 2014)'
;
_shelx_hkl_checksum              79094
_olex2_submission_special_instructions 'No special instructions were received'
loop_
_space_group_symop_operation_xyz
'x, y, z'
'-x, y+1/2, -z'
loop_
_atom_site_label
_atom_site_type_symbol
_atom_site_fract_x
_atom_site_fract_y
_atom_site_fract_z
_atom_site_U_iso_or_equiv
_atom_site_adp_type
_atom_site_occupancy
_atom_site_site_symmetry_order
_atom_site_calc_flag
_atom_site_refinement_flags_posn
_atom_site_refinement_flags_adp
_atom_site_refinement_flags_occupancy
_atom_site_disorder_assembly
_atom_site_disorder_group
O2 O 0.3153(3) 0.4532(3) 1.0159(2) 0.0075(4) Uani 1 1 d . . . . .
O1 O 0.7418(3) 0.4476(3) 1.0990(3) 0.0089(4) Uani 1 1 d . . . . .
N1 N 0.8766(2) 0.63531(16) 0.87289(15) 0.0071(3) Uani 1 1 d . . . . .
H1A H 0.9462(7) 0.6394(6) 0.7740(5) 0.0197(8) Uani 1 1 d . . . . .
H1B H 1.0169(7) 0.5658(5) 0.9425(5) 0.0218(9) Uani 1 1 d . . . . .
H1C H 0.8500(8) 0.7702(5) 0.9113(5) 0.0201(8) Uani 1 1 d . . . . .
N3 N 0.7208(2) 0.44435(18) 0.38771(17) 0.0079(3) Uani 1 1 d . . . . .
H3 H 0.6899(7) 0.4374(6) 0.2770(5) 0.0203(8) Uani 1 1 d . . . . .
N2 N 0.9220(2) 0.51526(17) 0.60102(15) 0.0074(3) Uani 1 1 d . . . . .
C1 C 0.5534(3) 0.4757(2) 1.0048(2) 0.0052(3) Uani 1 1 d . . . . .
C4 C 0.6990(3) 0.4138(2) 0.6167(2) 0.0069(4) Uani 1 1 d . . . . .
C6 C 0.5721(3) 0.3694(2) 0.4843(2) 0.0069(3) Uani 1 1 d . . . . .
H6 H 0.3963(8) 0.2908(6) 0.4535(6) 0.0232(9) Uani 1 1 d . . . . .
C2 C 0.6204(3) 0.5360(2) 0.8578(2) 0.0056(3) Uani 1 1 d . . . . .
H2 H 0.4702(6) 0.6330(6) 0.8096(5) 0.0189(8) Uani 1 1 d . . . . .
C5 C 0.9266(3) 0.5300(3) 0.4619(2) 0.0076(3) Uani 1 1 d . . . . .
H5 H 1.0729(8) 0.6031(6) 0.4118(6) 0.0244(10) Uani 1 1 d . . . . .
C3 C 0.6302(3) 0.3659(2) 0.7616(2) 0.0066(3) Uani 1 1 d . . . . .
H3A H 0.7723(8) 0.2667(6) 0.8134(5) 0.0214(9) Uani 1 1 d . . . . .
H3B H 0.4375(8) 0.2981(6) 0.7524(6) 0.0248(10) Uani 1 1 d . . . . .
loop_
_atom_site_aniso_label
_atom_site_aniso_U_11
_atom_site_aniso_U_22
_atom_site_aniso_U_33
_atom_site_aniso_U_23
_atom_site_aniso_U_13
_atom_site_aniso_U_12
O2 0.0047(6) 0.0086(8) 0.0093(13) 0.0016(7) 0.0014(6) 0.0003(6)
O1 0.0054(6) 0.0104(8) 0.0104(12) 0.0013(8) -0.0010(6) 0.0007(6)
N1 0.0066(4) 0.0055(5) 0.0093(8) -0.0005(4) 0.0011(4) -0.0006(3)
H1A 0.0160(13) 0.0258(19) 0.018(3) -0.0005(17) 0.0057(14) -0.0037(13)
H1B 0.0184(14) 0.0194(19) 0.026(3) 0.0066(16) -0.0021(15) 0.0011(12)
H1C 0.0250(16) 0.0116(16) 0.023(3) -0.0034(14) 0.0018(16) -0.0007(12)
N3 0.0074(4) 0.0089(5) 0.0074(9) 0.0003(4) 0.0004(4) -0.0005(4)
H3 0.0240(15) 0.026(2) 0.010(3) -0.0005(15) -0.0010(14) -0.0033(15)
N2 0.0059(4) 0.0085(5) 0.0078(8) -0.0007(5) 0.0002(4) -0.0015(4)
C1 0.0060(5) 0.0053(7) 0.0046(11) 0.0002(5) 0.0015(5) 0.0002(5)
C4 0.0055(5) 0.0069(7) 0.0080(11) 0.0001(6) -0.0003(5) -0.0010(5)
C6 0.0067(5) 0.0079(7) 0.0061(11) -0.0007(6) 0.0009(6) -0.0017(5)
H6 0.0176(15) 0.031(2) 0.020(3) -0.0011(17) -0.0014(15) -0.0109(14)
C2 0.0053(5) 0.0054(7) 0.0060(10) 0.0012(6) 0.0002(5) 0.0002(5)
H2 0.0144(12) 0.0192(17) 0.022(3) 0.0029(15) -0.0012(14) 0.0052(12)
C5 0.0070(5) 0.0084(7) 0.0079(11) -0.0002(6) 0.0025(6) -0.0015(5)
H5 0.0215(15) 0.028(2) 0.026(3) 0.0017(17) 0.0098(16) -0.0107(14)
C3 0.0086(5) 0.0060(7) 0.0053(10) -0.0005(6) 0.0016(6) -0.0023(5)
H3A 0.0301(18) 0.0166(18) 0.017(3) -0.0004(14) 0.0012(16) 0.0072(14)
H3B 0.0210(16) 0.025(2) 0.029(3) -0.0048(17) 0.0057(17) -0.0139(14)
loop_
_atom_type_symbol
_atom_type_description
_atom_type_scat_dispersion_real
_atom_type_scat_dispersion_imag
_atom_type_scat_source
C C 0.0000 0.0000
'Neutron Data Booklet, ILL Grenoble, France (2003) ISBN 0-9704143-7-4'
H H 0.0000 0.0000
'Neutron Data Booklet, ILL Grenoble, France (2003) ISBN 0-9704143-7-4'
N N 0.0000 0.0000
'Neutron Data Booklet, ILL Grenoble, France (2003) ISBN 0-9704143-7-4'
O O 0.0000 0.0000
'Neutron Data Booklet, ILL Grenoble, France (2003) ISBN 0-9704143-7-4'
loop_
_geom_angle_atom_site_label_1
_geom_angle_atom_site_label_2
_geom_angle_atom_site_label_3
_geom_angle
_geom_angle_site_symmetry_1
_geom_angle_site_symmetry_3
_geom_angle_publ_flag
C4 N2 C5 105.40(14) . . ?
O1 C1 C2 116.78(16) . . ?
N1 C2 C3 110.34(13) . . ?
N2 C4 C3 120.82(15) . . ?
N2 C5 N3 111.87(15) . . ?
C2 N1 H1A 109.0(3) . . ?
C5 N3 H3 124.0(2) . . ?
C1 C2 H2 109.3(3) . . ?
C2 C3 H3B 107.9(3) . . ?
N3 C6 H6 123.1(3) . . ?
C5 N3 C6 107.49(15) . . ?
O2 C1 C2 116.30(16) . . ?
C1 C2 C3 109.83(12) . . ?
N2 C4 C6 109.39(15) . . ?
N3 C6 C4 105.86(14) . . ?
C2 N1 H1B 111.4(2) . . ?
C6 N3 H3 128.5(2) . . ?
C3 C2 H2 109.6(3) . . ?
C4 C3 H3A 109.9(3) . . ?
N2 C5 H5 125.2(3) . . ?
C4 C6 H6 131.1(3) . . ?
O1 C1 O2 126.9(2) . . ?
N1 C2 C1 110.08(14) . . ?
C2 C3 C4 112.85(13) . . ?
C3 C4 C6 129.79(14) . . ?
C2 N1 H1C 109.0(2) . . ?
N1 C2 H2 107.6(2) . . ?
C2 C3 H3A 109.0(3) . . ?
C4 C3 H3B 110.0(3) . . ?
N3 C5 H5 122.9(3) . . ?
H1B N1 H1C 109.6(3) . . ?
H1A N1 H1C 110.9(4) . . ?
H1A N1 H1B 107.0(3) . . ?
H3A C3 H3B 107.0(3) . . ?
loop_
_geom_bond_atom_site_label_1
_geom_bond_atom_site_label_2
_geom_bond_distance
_geom_bond_site_symmetry_2
_geom_bond_publ_flag
O2 C1 1.258(2) . ?
O1 C1 1.255(3) . ?
N1 H1A 1.046(5) . ?
N1 H1B 1.047(4) . ?
N1 H1C 1.056(4) . ?
N1 C2 1.4970(19) . ?
N3 H3 1.045(5) . ?
N3 C6 1.378(2) . ?
N3 C5 1.351(2) . ?
N2 C4 1.3891(19) . ?
N2 C5 1.329(2) . ?
C1 C2 1.542(3) . ?
C4 C6 1.382(3) . ?
C4 C3 1.503(3) . ?
C2 H2 1.103(4) . ?
C2 C3 1.537(2) . ?
C6 H6 1.081(5) . ?
C3 H3A 1.098(5) . ?
C3 H3B 1.103(4) . ?
C5 H5 1.080(5) . ?
loop_
_geom_torsion_atom_site_label_1
_geom_torsion_atom_site_label_2
_geom_torsion_atom_site_label_3
_geom_torsion_atom_site_label_4
_geom_torsion
_geom_torsion_site_symmetry_1
_geom_torsion_site_symmetry_2
_geom_torsion_site_symmetry_3
_geom_torsion_site_symmetry_4
_geom_torsion_publ_flag
C5 N2 C4 C3 178.96(15) . . . . ?
C6 N3 C5 N2 0.2(2) . . . . ?
O1 C1 C2 C3 94.23(19) . . . . ?
N1 C2 C3 C4 -57.55(18) . . . . ?
C2 C3 C4 C6 -127.54(17) . . . . ?
H1A N1 C2 C1 162.9(3) . . . . ?
H1B N1 C2 C1 45.1(3) . . . . ?
H1C N1 C2 C1 -75.9(3) . . . . ?
C4 N2 C5 H5 178.8(3) . . . . ?
H3 N3 C5 H5 2.4(5) . . . . ?
H3 N3 C6 H6 -0.2(5) . . . . ?
C5 N2 C4 C6 -0.12(17) . . . . ?
C5 N3 C6 C4 -0.23(17) . . . . ?
O2 C1 C2 N1 155.13(16) . . . . ?
C1 C2 C3 C4 -179.07(13) . . . . ?
N2 C4 C6 N3 0.22(16) . . . . ?
H1A N1 C2 C3 41.5(3) . . . . ?
H1B N1 C2 C3 -76.3(3) . . . . ?
H1C N1 C2 C3 162.7(3) . . . . ?
C6 N3 C5 H5 -178.7(3) . . . . ?
C5 N3 C6 H6 -179.0(3) . . . . ?
O1 C1 C2 H2 -145.5(3) . . . . ?
C4 N2 C5 N3 0.0(2) . . . . ?
O1 C1 C2 N1 -27.5(2) . . . . ?
O2 C1 C2 C3 -83.19(19) . . . . ?
C2 C3 C4 N2 53.59(19) . . . . ?
C3 C4 C6 N3 -178.75(14) . . . . ?
H1A N1 C2 H2 -78.0(4) . . . . ?
H1B N1 C2 H2 164.2(4) . . . . ?
H1C N1 C2 H2 43.2(4) . . . . ?
H3 N3 C5 N2 -178.7(3) . . . . ?
H3 N3 C6 C4 178.6(3) . . . . ?
O2 C1 C2 H2 37.1(3) . . . . ?
N1 C2 C3 H3A 64.9(3) . . . . ?
C1 C2 C3 H3B 59.2(3) . . . . ?
H2 C2 C3 H3B -61.0(4) . . . . ?
H3B C3 C4 N2 174.2(3) . . . . ?
C3 C4 C6 H6 -0.1(4) . . . . ?
N1 C2 C3 H3B -179.3(3) . . . . ?
H2 C2 C3 C4 60.8(3) . . . . ?
H3A C3 C4 N2 -68.3(3) . . . . ?
H3B C3 C4 C6 -7.0(3) . . . . ?
C1 C2 C3 H3A -56.7(3) . . . . ?
H2 C2 C3 H3A -176.8(3) . . . . ?
H3A C3 C4 C6 110.6(3) . . . . ?
N2 C4 C6 H6 178.8(3) . . . . ?

_cod_database_fobs_code 2108876
