#------------------------------------------------------------------------------
#$Date: 2021-09-22 04:47:00 +0300 (Wed, 22 Sep 2021) $
#$Revision: 269240 $
#$URL: file:///home/coder/svn-repositories/cod/cif/2/10/88/2108880.cif $
#------------------------------------------------------------------------------
#
# This file is available in the Crystallography Open Database (COD),
# http://www.crystallography.net/. The original data for this entry
# were provided by IUCr Journals, http://journals.iucr.org/.
#
# The file may be used within the scientific community so long as
# proper attribution is given to the journal article from which the
# data were obtained.
#
data_2108880
loop_
_publ_author_name
'Novelli, Giulia'
'McMonagle, Charles J.'
'Kleemiss, Florian'
'Probert, Michael'
'Puschmann, Horst'
'Grabowsky, Simon'
'Maynard-Casely, Helen E.'
'McIntyre, Garry J.'
'Parsons, Simon'
_publ_section_title
;
 Accurate H-atom parameters for the two polymorphs of
 <small>L</small>-histidine at 5, 105 and 295K
;
_journal_issue                   5
_journal_name_full               'Acta Crystallographica Section B'
_journal_page_first
;
;
_journal_paper_doi               10.1107/S205252062100740X
_journal_volume                  77
_journal_year                    2021
_chemical_absolute_configuration syn
_chemical_formula_moiety         'C6 H9 N3 O2'
_chemical_formula_sum            'C6 H9 N3 O2'
_chemical_formula_weight         155.16
_chemical_name_common            L-histidine
_chemical_name_systematic        '2-Amino-3-(1H-imidazol-4-yl)propanoic acid'
_space_group_crystal_system      orthorhombic
_space_group_IT_number           19
_space_group_name_Hall           'P 2ac 2ab'
_space_group_name_H-M_alt        'P 21 21 21'
_atom_sites_solution_hydrogens   difmap
_audit_creation_date             2021-01-18
_audit_creation_method
;
Olex2 1.3
(compiled 2020.11.12 svn.r5f609507 for OlexSys, GUI svn.r6226)
;
_cell_angle_alpha                90
_cell_angle_beta                 90
_cell_angle_gamma                90
_cell_formula_units_Z            4
_cell_length_a                   5.1521(10)
_cell_length_b                   7.2228(2)
_cell_length_c                   18.8440(6)
_cell_measurement_reflns_used    6123
_cell_measurement_temperature    105
_cell_measurement_theta_max      36.01
_cell_measurement_theta_min      3.02
_cell_volume                     701.23(14)
_computing_cell_refinement       'LaueG (Piltz, 2011)'
_computing_data_collection       'MAATEL/ANSTO control program'
_computing_data_reduction
'argonne_boxes (Wilkinson et al., 1988) & LaueG (Piltz, 2011)'
_computing_molecular_graphics    'Olex2 1.3 (Dolomanov et al., 2009)'
_computing_publication_material  'Olex2 1.3 (Dolomanov et al., 2009)'
_computing_structure_refinement  'XL  (Sheldrick, 2008)'
_computing_structure_solution    'from X-ray model at 105 K'
_diffrn_ambient_temperature      105
_diffrn_measured_fraction_theta_full 0.865
_diffrn_measured_fraction_theta_max 0.865
_diffrn_measurement_details      '26 images, exposure time   0 minutes'
_diffrn_measurement_device       'Laue image-plate diffractometer'
_diffrn_measurement_device_type  KOALA
_diffrn_measurement_method       Laue
_diffrn_radiation_probe          neutron
_diffrn_radiation_type           neutron
_diffrn_radiation_wavelength     0.80
_diffrn_reflns_av_R_equivalents  0.2137
_diffrn_reflns_av_unetI/netI     0.2487
_diffrn_reflns_limit_h_max       8
_diffrn_reflns_limit_h_min       -8
_diffrn_reflns_limit_k_max       11
_diffrn_reflns_limit_k_min       -12
_diffrn_reflns_limit_l_max       28
_diffrn_reflns_limit_l_min       -28
_diffrn_reflns_number            32598
_diffrn_reflns_reduction_process 'LaueG (Piltz, 2011)'
_diffrn_reflns_resolution_max    1.67
_diffrn_reflns_theta_full        71.07
_diffrn_reflns_theta_max         71.17
_diffrn_source                   'nuclear reactor'
_diffrn_source_details           'thermal neutrons, supermirror guides'
_diffrn_source_type
'OPAL reactor, ANSTO, Lucas Heights, Australia'
_exptl_absorpt_coefficient_mu    0.0
_exptl_absorpt_correction_type   none
_exptl_crystal_colour            colourless
_exptl_crystal_density_diffrn    1.470
_exptl_crystal_description       needle
_exptl_crystal_F_000             184
_exptl_crystal_size_max          0.35
_exptl_crystal_size_mid          0.30
_exptl_crystal_size_min          0.15
_refine_diff_density_max         1.27
_refine_diff_density_min         -1.098
_refine_diff_density_rms         0.272
_refine_ls_abs_structure_details
;
Absolute structure known from synthesis
;
_refine_ls_extinction_method     none
_refine_ls_goodness_of_fit_ref   1.145
_refine_ls_hydrogen_treatment    refall
_refine_ls_matrix_type           full
_refine_ls_number_parameters     181
_refine_ls_number_reflns         1361
_refine_ls_number_restraints     0
_refine_ls_restrained_S_all      1.145
_refine_ls_R_factor_all          0.0886
_refine_ls_R_factor_gt           0.0522
_refine_ls_shift/su_max          0.000
_refine_ls_shift/su_mean         0.000
_refine_ls_structure_factor_coef Fsqd
_refine_ls_weighting_details
'w=1/[\s^2^(Fo^2^)+(0.0300P)^2^] where P=(Fo^2^+2Fc^2^)/3'
_refine_ls_weighting_scheme      calc
_refine_ls_wR_factor_gt          0.0677
_refine_ls_wR_factor_ref         0.0739
_reflns_Friedel_coverage         0.000
_reflns_Friedel_fraction_full    0.000
_reflns_Friedel_fraction_max     0.000
_reflns_number_gt                1061
_reflns_number_total             1361
_reflns_threshold_expression     'I > 2\s(I)'
_cod_data_source_file            um5050sup1.cif
_cod_data_source_block           HOTN01
_cod_database_code               2108880
_shelx_shelxl_version_number     2017/1
_shelx_space_group_comment
;
The symmetry employed for this shelxl refinement is uniquely defined
by the following loop, which should always be used as a source of
symmetry information in preference to the above space-group names.
They are only intended as comments.
;
_olex2_refinement_description
;
;
_shelx_res_file
;
TITL cmm190030_5k_0m_a.res in P2(1)2(1)2(1)
    hotn01.res
    created by SHELXL-2017/1 at 09:41:04 on 18-Jan-2021
REM Old TITL CMM190030_5K_0m in P2(1)2(1)2(1)
REM SHELXT solution in P2(1)2(1)2(1): R1 0.098, Rweak 0.023, Alpha 0.001
REM <I/s> 1.903 for 15 systematic absences, Orientation as input
REM Flack x = -0.394 ( 0.361 ) from 533 Parsons' quotients
REM Formula found by SHELXT: C8 N O2
CELL 0.71073 5.1521 7.2228 18.844 90 90 90
ZERR 4 0.001 0.0002 0.0006 0 0 0
LATT -1
SYMM 0.5-X,-Y,0.5+Z
SYMM -X,0.5+Y,0.5-Z
SYMM 0.5+X,0.5-Y,-Z
NEUT
SFAC  C 0.000 0 0 0 0 0 0 0 6.646 0 0 0 0 12.011
SFAC  H 0.000 0 0 0 0 0 0 0 -3.739 0 0 0 0 1.008
SFAC  N 0.000 0 0 0 0 0 0 0 9.36 0 0 0 0 14.007
SFAC  O 0.000 0 0 0 0 0 0 0 5.803 0 0 0 0 15.999
UNIT 24 36 12 8

RIGU

L.S. 99
PLAN  1
TEMP -268.14
CONF
BOND
list 4
MORE -1
BOND $H
fmap 2 53
acta
OMIT 0 7 19
OMIT 0 7 8
OMIT 0 7 11
OMIT 0 8 3
OMIT 0 8 7
OMIT 0 7 1
OMIT 2 8 3
OMIT 0 8 13
OMIT 0 7 3
OMIT 2 0 5
OMIT 0 9 11
OMIT 0 2 21
OMIT 0 1 21
OMIT 1 5 23
OMIT 1 3 23
OMIT 0 9 10
OMIT 0 6 19
OMIT 1 2 22
OMIT 0 7 18
OMIT 0 1 20
OMIT 0 4 19
OMIT 2 1 25
OMIT 1 6 21
OMIT 0 2 19
OMIT 2 4 23
OMIT 2 1 23
OMIT 0 5 18
OMIT 0 6 17
OMIT 2 3 22
OMIT 0 2 17
OMIT 0 3 19
OMIT 0 3 16
OMIT 2 0 17
OMIT 0 7 5
OMIT 0 8 15
OMIT 1 3 21
OMIT 0 5 19
OMIT 3 3 23
OMIT 2 0 23
OMIT 1 0 20
OMIT 0 3 20
OMIT 1 4 21
OMIT 2 1 24
OMIT 0 9 13
OMIT 1 5 22
OMIT 1 5 19
OMIT 1 4 20
OMIT 2 2 25
OMIT 1 5 20
OMIT 0 1 19
OMIT 0 4 17
OMIT 0 11 6
OMIT 0 11 5
OMIT 0 9 20
OMIT 0 11 10
OMIT 0 11 2
OMIT 7 0 16
OMIT 3 1 26
OMIT 0 10 13
OMIT 1 10 17
OMIT 1 8 21
OMIT 1 6 22
OMIT 3 1 28
OMIT 3 4 27
OMIT 2 4 25
OMIT 2 6 23
OMIT 3 0 26
OMIT 0 9 19
OMIT 0 11 7
OMIT 3 0 25
OMIT 1 7 22
OMIT 1 8 23
OMIT 0 7 20
OMIT 4 0 27
OMIT 2 6 25
OMIT 5 4 19
OMIT 1 11 12
OMIT 3 11 1
OMIT 1 10 11
OMIT 7 4 12
OMIT 4 2 27
OMIT 3 10 10
OMIT 6 1 22
OMIT 5 4 23
OMIT 7 3 12
OMIT 3 4 25
OMIT 3 8 20
OMIT 3 1 27
OMIT 6 2 21
OMIT 3 5 25
OMIT 6 5 12
OMIT 5 9 10
OMIT 6 4 19
OMIT 5 7 13
OMIT 6 3 16
OMIT 4 3 26
OMIT 7 5 11
OMIT 7 4 9
OMIT 8 2 9
OMIT 1 11 7
OMIT 5 8 10
OMIT 3 2 28
OMIT 7 4 7
OMIT 0 11 9
OMIT 2 7 23
OMIT 1 7 21
OMIT 3 5 26
OMIT 5 5 17
OMIT 7 7 1
OMIT 2 3 25
OMIT 2 10 15
OMIT 1 8 20
OMIT 6 6 11
OMIT 4 7 20
OMIT 3 4 26
OMIT 1 11 0
OMIT 2 4 5
OMIT 7 0 8
REM <olex2.extras>
REM <HklSrc "%.\\HOTN01.hkl">
REM </olex2.extras>

WGHT    0.030000
FVAR       0.32914
O2    4    0.324228    0.497913    0.240075    11.00000    0.01116    0.01736 =
         0.01556    0.00400   -0.00177    0.00032
O1    4    0.730560    0.494165    0.197886    11.00000    0.00964    0.02355 =
         0.01218    0.00208    0.00062   -0.00123
N1    3    0.916661    0.313450    0.311667    11.00000    0.01027    0.01244 =
         0.01146   -0.00030   -0.00033    0.00220
H1B   2    1.039120    0.379885    0.276758    11.00000    0.02464    0.02527 =
         0.02176    0.00310    0.00855    0.00298
H1C   2    0.878584    0.179871    0.294313    11.00000    0.03038    0.01595 =
         0.02948   -0.00463   -0.00219    0.00281
H1A   2    1.009684    0.311018    0.361010    11.00000    0.02112    0.03120 =
         0.01945    0.00100   -0.00305    0.00505
N3    3    0.870717    0.502526    0.553321    11.00000    0.01486    0.01522 =
         0.00789   -0.00090    0.00058    0.00038
H3    2    0.848315    0.504565    0.609194    11.00000    0.02820    0.03419 =
         0.01192    0.00389   -0.00254   -0.00180
N2    3    1.032257    0.439475    0.446863    11.00000    0.01351    0.01505 =
         0.01052   -0.00116   -0.00005    0.00330
C4    1    0.804124    0.539217    0.439096    11.00000    0.01165    0.01004 =
         0.01139    0.00016    0.00020    0.00123
C1    1    0.564810    0.472774    0.245412    11.00000    0.00879    0.01109 =
         0.01259   -0.00003   -0.00188   -0.00072
C2    1    0.665984    0.416076    0.319375    11.00000    0.00874    0.00810 =
         0.00962    0.00126    0.00029    0.00086
H2    2    0.525476    0.321231    0.344034    11.00000    0.02157    0.02304 =
         0.02195    0.00347    0.00160   -0.00483
C6    1    0.701810    0.578584    0.504887    11.00000    0.01105    0.01505 =
         0.00976   -0.00278    0.00037    0.00169
H6    2    0.531196    0.653417    0.520238    11.00000    0.02519    0.04166 =
         0.02966   -0.00806    0.00210    0.01557
C5    1    1.063361    0.420060    0.516588    11.00000    0.01333    0.01617 =
         0.01121    0.00018   -0.00329    0.00407
H5    2    1.222238    0.345874    0.541881    11.00000    0.02701    0.03947 =
         0.02861    0.00598   -0.00677    0.01379
C3    1    0.704255    0.588491    0.366643    11.00000    0.01550    0.00994 =
         0.01332   -0.00073   -0.00340    0.00191
H3A   2    0.837645    0.683371    0.339968    11.00000    0.04092    0.02491 =
         0.02726    0.00664   -0.00260   -0.01044
H3B   2    0.516554    0.657647    0.370846    11.00000    0.02713    0.03847 =
         0.03272   -0.00765   -0.00895    0.01932
HKLF 4




REM  cmm190030_5k_0m_a.res in P2(1)2(1)2(1)
REM R1 =  0.0522 for    1061 Fo > 4sig(Fo)  and  0.0886 for all    1361 data
REM    181 parameters refined using      0 restraints

END

WGHT      0.0308      1.3825

REM Highest difference peak  1.266,  deepest hole -1.098,  1-sigma level  0.272
Q1    1   0.5273  0.4379  0.4422  11.00000  0.05    1.27
;
_shelx_res_checksum              5154
_shelx_hkl_file
;
   0   1   1    10.6     0.8
   0   1   2   167.4     9.2
   0   1   3     7.3     0.7
   0   1   4    94.7     2.1
   0   1   5   117.6     2.5
   0   1   6    40.2     1.4
   0   1   7     1.4     1.8
   0   1   8    24.6     2.1
   0   1   9   132.9     2.8
   0   1  10   460.6     5.1
   0   1  11   502.8     5.5
   0   1  12    33.6     4.0
   0   1  13   293.7     6.9
   0   1  14   810.7    15.4
   0   1  15    35.7    12.4
   0   1  16    67.2    18.7
   0   1  17    78.2    34.4
   0   1  18    19.0    56.5
   0   1  19   283.1    61.2
   0   1  20   168.7   138.7
   0   1  21  1178.3   291.8
   0   2   1   161.3     4.6
   0   2   3    60.2     1.9
   0   2   5    17.1     1.8
   0   2   7   373.1     4.2
   0   2   9   572.9     6.9
   0   2  11    24.1     4.3
   0   2  13    19.8     7.4
   0   2  15  1271.0    28.0
   0   2  17    69.9    40.4
   0   2  19   341.4    70.5
   0   2  21  1772.3   377.3
   0   3   1     0.8     1.9
   0   3   2     6.3     1.6
   0   3   4   110.7     3.8
   0   3   5    12.2     2.8
   0   3   7    16.2     3.5
   0   3   8    61.9     3.8
   0   3  10    12.3     4.2
   0   3  11    19.7     5.0
   0   3  13   169.9     8.9
   0   3  14   156.3    11.9
   0   3  16    25.8    26.2
   0   3  17   -47.8    56.7
   0   3  19    52.2   117.1
   0   3  20   263.6   254.8
   0   4   1    35.0     2.6
   0   4   3     4.5     3.5
   0   4   5   108.1     4.4
   0   4   7    15.0     4.8
   0   4   9    76.5     5.4
   0   4  11   334.5     6.7
   0   4  13    54.1     9.0
   0   4  15    51.9    21.7
   0   4  17   264.8    43.4
   0   4  19   207.3    96.8
   0   5   1    -2.2     3.8
   0   5   2   397.0     6.1
   0   5   3     9.0     3.9
   0   5   4     0.7     4.0
   0   5   6    23.4     4.9
   0   5   7    48.8     4.5
   0   5   8   220.8     5.4
   0   5   9    83.0     5.2
   0   5  11    58.2     6.0
   0   5  12  1017.9    15.3
   0   5  13    23.1    10.8
   0   5  14   210.3    14.0
   0   5  16   293.5    29.4
   0   5  17    22.6    51.4
   0   5  18   142.4    98.2
   0   5  19   -23.0   161.8
   0   6   1   323.3     6.6
   0   6   5    91.7     6.0
   0   6   7     9.9     5.9
   0   6  11    22.8     7.2
   0   6  13    39.9     9.8
   0   6  17   114.2    41.8
   0   6  19   503.8   110.1
   0   7   1    62.2     7.5
   0   7   2   543.4    20.7
   0   7   3    95.3     8.2
   0   7   4    60.1     7.6
   0   7   5    38.4     8.0
   0   7   6   365.5     8.7
   0   7   8   106.2     8.7
   0   7   9    34.5     8.0
   0   7  10   145.8     8.1
   0   7  11   129.5     9.6
   0   7  12   412.7    12.6
   0   7  13    50.5    13.0
   0   7  15    35.0    20.1
   0   7  16   448.1    30.8
   0   7  18   316.6   110.4
   0   7  19  1483.2   156.7
   0   7  20   -16.1   188.3
   0   8   1    97.7     9.2
   0   8   3   245.1    17.4
   0   8   5    16.1    10.4
   0   8   7   422.0    32.2
   0   8   9   378.5    13.2
   0   8  11    40.3    11.8
   0   8  13   115.0    16.6
   0   8  15    92.9    26.3
   0   8  17    95.2    49.2
   0   9   1   106.7    12.8
   0   9   2   113.4    12.2
   0   9   4   143.9    13.9
   0   9   5   239.4    18.2
   0   9   7   467.6    15.2
   0   9  10   613.5   198.2
   0   9  11   193.1    18.6
   0   9  13   213.2    26.4
   0   9  14   413.7    29.6
   0   9  16   274.8    40.5
   0   9  17   136.3    57.6
   0   9  19   306.7   113.3
   0   9  20   687.3   172.8
   0  10   1    94.5    25.3
   0  10   7   417.3    22.9
   0  10  13   198.1    36.3
   0  11   1    74.9    46.2
   0  11   2   245.2    41.3
   0  11   4   754.7    40.0
   0  11   5   271.5    38.2
   0  11   6   599.3    70.9
   0  11   7   291.0    36.5
   0  11   8    43.4    45.0
   0  11   9   250.4    44.6
   0  11  10   629.2   171.3
   0  11  12   341.9   107.0
   0  12   1   126.6    67.1
   1   0   0     1.9     0.5
   1   0   1   134.9     6.3
   1   0   2    80.1     1.6
   1   0   3   390.5     5.8
   1   0   4    62.3     1.4
   1   0   5   224.2     6.8
   1   0   6   243.6     6.9
   1   0   7    91.4     4.8
   1   0   8    28.4     5.2
   1   0   9   630.1    17.6
   1   0  10    -3.5     4.8
   1   0  11     1.3     6.3
   1   0  12    28.1     7.5
   1   0  13   256.9     7.5
   1   0  14     2.2     7.9
   1   0  15   269.0    11.7
   1   0  16   -37.6    14.1
   1   0  17   116.7    20.8
   1   0  18   874.7    37.5
   1   0  19  -166.9    45.2
   1   0  20    87.0    73.7
   1   0  21  -107.8   127.4
   1   0  22  -363.7   260.8
   1   1   0  1358.6   140.4
   1   1   1   693.9    12.4
   1   1   2    52.0     0.7
   1   1   3   389.7     3.1
   1   1   4    20.3     0.8
   1   1   5   148.8     1.7
   1   1   6   226.8     1.9
   1   1   7   277.8     2.4
   1   1   8   665.3     4.0
   1   1   9   383.8     3.7
   1   1  10   232.1     3.5
   1   1  11   265.5     4.4
   1   1  12   155.7     4.6
   1   1  13   262.7     4.9
   1   1  14   129.8     5.6
   1   1  15     5.5     7.0
   1   1  16   878.0    15.0
   1   1  17   155.9    14.0
   1   1  18    -1.4    19.1
   1   1  19    27.5    27.2
   1   1  20   144.4    49.7
   1   1  21   218.2    76.0
   1   1  22   330.7   116.6
   1   2   0    87.7     4.2
   1   2   1   323.3     3.5
   1   2   2   131.0     1.8
   1   2   3   560.7     3.5
   1   2   4     9.9     1.1
   1   2   5   130.7     2.2
   1   2   6   344.7     3.5
   1   2   7   199.6     2.4
   1   2   8   183.6     2.2
   1   2   9   173.9     2.3
   1   2  10    47.3     2.4
   1   2  11    86.6     2.9
   1   2  12    55.8     3.5
   1   2  13   476.9     6.1
   1   2  14   171.3     5.6
   1   2  15   407.5     8.5
   1   2  16    36.0    11.1
   1   2  17   264.7    17.0
   1   2  18    92.6    23.4
   1   2  19    81.7    40.2
   1   2  20   229.3    53.9
   1   2  21  -122.3   124.7
   1   2  22   448.9   166.9
   1   3   0    18.2     2.1
   1   3   1    18.1     1.6
   1   3   2   109.2     1.9
   1   3   3   430.6     4.3
   1   3   4   199.1     3.0
   1   3   5    75.9     2.1
   1   3   6    20.2     2.1
   1   3   7   218.1     3.2
   1   3   8   202.2     2.9
   1   3   9   152.4     3.0
   1   3  10   109.8     3.4
   1   3  11   741.7     6.9
   1   3  12   384.7     5.9
   1   3  13   726.5     7.8
   1   3  14   363.2     7.6
   1   3  15    46.2     9.1
   1   3  16   129.3    13.5
   1   3  17   161.1    19.3
   1   3  18   209.5    27.3
   1   3  19   100.8    40.3
   1   3  20   191.7    56.5
   1   3  21   -14.3   114.2
   1   3  22    32.6   190.1
   1   3  23   530.2   310.1
   1   4   0     4.6     3.0
   1   4   1   769.7     5.9
   1   4   2  1350.3     7.8
   1   4   3    40.3     2.5
   1   4   4    87.1     2.5
   1   4   5   176.9     3.1
   1   4   6    42.1     2.8
   1   4   7    57.1     3.1
   1   4   8   348.0     4.2
   1   4   9    51.5     3.5
   1   4  10    78.4     4.2
   1   4  11   294.8     5.4
   1   4  12   197.8     5.8
   1   4  13    37.4     6.2
   1   4  14   392.9     9.0
   1   4  15   633.7    12.3
   1   4  16    98.4    12.6
   1   4  17    38.1    17.9
   1   4  18    47.4    23.9
   1   4  19   159.7    46.4
   1   4  20   -85.7    70.3
   1   4  21   346.9    94.8
   1   4  22    83.3   189.5
   1   5   0    10.0     4.1
   1   5   1    33.1     3.2
   1   5   2    23.1     3.0
   1   5   3   371.4     4.4
   1   5   4   153.0     3.5
   1   5   5   245.7     4.0
   1   5   6    67.5     3.5
   1   5   7   261.5     4.4
   1   5   8   954.1     7.3
   1   5   9    37.2     4.3
   1   5  10    42.2     5.3
   1   5  11    92.9     5.9
   1   5  12   680.4     7.9
   1   5  13   221.4     7.0
   1   5  14   186.2     8.0
   1   5  15    32.7     8.7
   1   5  16    87.2    14.5
   1   5  17   179.5    23.7
   1   5  18   110.2    31.8
   1   5  19   155.3    42.9
   1   5  20   302.6    60.6
   1   5  21   248.3   109.6
   1   5  22   221.5   164.4
   1   5  23   476.6   247.4
   1   6   0   159.4     5.7
   1   6   1    69.6     4.0
   1   6   2   336.9     4.7
   1   6   3   154.5     4.4
   1   6   4    41.3     4.3
   1   6   5   654.6     6.4
   1   6   6   154.0     4.7
   1   6   7    94.4     4.6
   1   6   8   332.5     5.2
   1   6   9   101.4     4.8
   1   6  10    68.1     5.2
   1   6  11   307.6     6.6
   1   6  12    87.5     6.5
   1   6  13   191.6     7.4
   1   6  14   251.0     8.6
   1   6  15    84.8    10.5
   1   6  16    25.3    13.6
   1   6  17   182.5    19.2
   1   6  18    55.5    28.3
   1   6  19    78.3    49.6
   1   6  20  -238.0   110.7
   1   6  21   390.9   220.7
   1   6  22   551.9   348.1
   1   7   0    54.4     7.2
   1   7   1    17.2     5.1
   1   7   2   126.3     5.3
   1   7   3    81.5     5.2
   1   7   4    82.0     5.2
   1   7   5   175.3     5.5
   1   7   6   292.0     5.8
   1   7   7    67.6     5.4
   1   7   8   324.6     6.1
   1   7   9    37.1     5.7
   1   7  10   103.1     6.2
   1   7  11    13.2     6.8
   1   7  12   237.8     8.0
   1   7  13    29.2     9.0
   1   7  14    30.6    10.8
   1   7  15    27.2    12.6
   1   7  16   183.5    15.0
   1   7  17    55.2    19.8
   1   7  18    38.6    26.9
   1   7  19   200.4    49.0
   1   7  20   139.3    61.7
   1   7  21   193.6    92.9
   1   7  22  -141.6   195.6
   1   8   0   148.2     9.1
   1   8   1   186.5     6.5
   1   8   2   115.2     6.4
   1   8   3    23.5     6.2
   1   8   4   121.3     6.4
   1   8   5   313.3     6.8
   1   8   6   136.9     6.6
   1   8   7   450.0     7.6
   1   8   8   263.9     7.4
   1   8   9   250.7     8.1
   1   8  10   121.7     8.4
   1   8  11   150.6     9.6
   1   8  12    22.1    10.7
   1   8  13   102.8    12.7
   1   8  14   302.1    15.1
   1   8  15   391.5    17.9
   1   8  16    86.6    22.7
   1   8  17    70.0    26.3
   1   8  18    41.3    31.0
   1   8  19   -40.3    41.5
   1   8  20   126.9    73.7
   1   8  21   231.2   154.1
   1   8  22    18.9   197.0
   1   8  23  -100.7   267.7
   1   9   0   -14.9    12.2
   1   9   1    74.2     8.9
   1   9   2    18.2     8.9
   1   9   3    18.9     8.9
   1   9   4    23.1     9.0
   1   9   5     4.4     9.3
   1   9   6    19.7    10.0
   1   9   7   294.1    10.8
   1   9   8    35.0    10.6
   1   9   9    97.3    11.5
   1   9  10    67.5    12.2
   1   9  11    -8.6    14.0
   1   9  12    71.7    16.1
   1   9  13   103.5    18.5
   1   9  14   147.0    21.7
   1   9  15    23.8    24.5
   1   9  16    56.1    29.9
   1   9  17   -32.3    39.5
   1   9  18     9.5    52.1
   1   9  19   204.2    59.4
   1   9  20    89.1    71.7
   1  10   0   596.4    20.9
   1  10   1    46.2    13.9
   1  10   2   -34.8    13.9
   1  10   3   255.1    14.5
   1  10   4   241.5    14.4
   1  10   5   142.4    14.6
   1  10   6    60.5    15.8
   1  10   7   216.1    16.7
   1  10   8    10.5    17.5
   1  10   9   243.5    18.1
   1  10  10    23.7    19.2
   1  10  11    21.3    21.7
   1  10  12    38.3    23.8
   1  10  13   288.6    28.7
   1  10  14    73.0    33.3
   1  10  15    28.0    38.3
   1  10  16    29.1    46.0
   1  10  17   192.2    54.4
   1  11   0    83.7    33.3
   1  11   1    29.7    22.9
   1  11   2    11.0    22.6
   1  11   3    35.7    23.5
   1  11   4    46.2    23.6
   1  11   5    71.6    24.9
   1  11   6   168.6    25.9
   1  11   7   -14.6    25.9
   1  11   8    99.6    29.1
   1  11   9    18.9    30.6
   1  11  10   117.7    33.0
   1  11  11   -23.4    35.8
   1  11  12    24.1    39.5
   2   0   1     8.6     1.3
   2   0   3    17.5     2.1
   2   0   5    30.4     1.3
   2   0   7   634.4     9.9
   2   0   9   570.8    11.3
   2   0  11   175.5     8.2
   2   0  13   116.8     9.1
   2   0  15    61.0     9.0
   2   0  17    24.8    13.3
   2   0  19   -29.0    29.0
   2   0  21    63.9    60.3
   2   0  23     0.8   151.5
   2   1   0    24.5     1.7
   2   1   1   344.8     4.0
   2   1   2   132.9     1.7
   2   1   3   327.2     4.4
   2   1   4    57.3     1.3
   2   1   5    46.2     1.3
   2   1   6   409.5     2.6
   2   1   7   168.5     2.4
   2   1   8    19.5     3.3
   2   1   9    25.9     4.4
   2   1  10    68.6     4.7
   2   1  11   272.2     6.1
   2   1  12    57.7     5.9
   2   1  13   358.5     7.1
   2   1  14    73.2     6.3
   2   1  15   595.6     8.2
   2   1  16    20.0     6.7
   2   1  17    84.9     8.5
   2   1  18   100.6    11.3
   2   1  19   108.0    14.3
   2   1  20   -55.3    21.2
   2   1  21    44.3    30.6
   2   1  22   184.2    48.2
   2   1  23   185.1    83.9
   2   1  24   173.0   259.7
   2   1  25   498.8   469.6
   2   2   1    12.6     1.2
   2   2   3   151.2     2.1
   2   2   5    79.4     1.9
   2   2   7   400.9     3.5
   2   2   9   339.3     4.6
   2   2  11   413.0     6.1
   2   2  13   533.0     7.8
   2   2  15   621.1     8.7
   2   2  17    61.1     9.1
   2   2  19   424.6    19.4
   2   2  21   -47.7    45.5
   2   2  23  -139.3   111.2
   2   2  25 -1022.1   436.7
   2   3   0   266.2     4.6
   2   3   1  1151.9     6.3
   2   3   2   113.2     2.3
   2   3   3   347.6     3.8
   2   3   4    58.3     2.1
   2   3   5    39.3     2.1
   2   3   6     9.1     2.1
   2   3   7   457.5     4.1
   2   3   8   378.8     4.7
   2   3   9   142.9     4.0
   2   3  10   157.5     4.8
   2   3  11   177.8     5.7
   2   3  12   192.2     5.9
   2   3  13   226.4     6.5
   2   3  14   310.1     7.4
   2   3  15   574.9     8.8
   2   3  16    78.0     8.0
   2   3  17    74.9    10.1
   2   3  18    80.7    14.0
   2   3  19   321.7    18.7
   2   3  20    60.3    26.0
   2   3  21    76.7    39.8
   2   3  22    81.6    57.4
   2   3  23   114.1    89.0
   2   3  24   129.0   185.6
   2   3  25   245.8   246.4
   2   4   1   304.2     4.2
   2   4   3   358.9     4.1
   2   4   5   167.2     3.5
   2   4   7    29.7     3.3
   2   4   9   638.8     7.1
   2   4  11   573.7     8.0
   2   4  13   577.1     9.2
   2   4  15   248.4     7.7
   2   4  17   219.3    11.8
   2   4  19    76.9    19.8
   2   4  21   194.4    54.1
   2   4  23   172.7   112.2
   2   4  25   489.1   267.3
   2   5   0   371.4     7.0
   2   5   1   467.0     5.1
   2   5   2    61.5     3.4
   2   5   3   161.3     3.8
   2   5   4   368.4     4.5
   2   5   5   389.3     4.9
   2   5   6   106.0     4.0
   2   5   7    26.0     4.1
   2   5   8   201.3     5.4
   2   5   9   275.5     6.3
   2   5  10   159.0     6.5
   2   5  11   125.6     6.8
   2   5  12   168.4     7.8
   2   5  13   118.7     8.3
   2   5  14    82.4     7.4
   2   5  15   257.2     8.3
   2   5  16   123.6     9.4
   2   5  17   194.5    10.9
   2   5  18   102.6    13.7
   2   5  19   272.1    19.6
   2   5  20   188.5    31.1
   2   5  21   215.8    46.1
   2   5  22   -25.3    75.3
   2   5  23  -153.7   116.5
   2   5  24   137.9   162.0
   2   6   1   816.0     6.8
   2   6   3    34.5     4.1
   2   6   5   870.5     7.1
   2   6   7    48.3     5.3
   2   6   9   241.9     7.2
   2   6  11    70.9     7.5
   2   6  13   147.2     7.9
   2   6  15   469.7    11.0
   2   6  17   231.9    12.9
   2   6  19    24.8    19.5
   2   6  21   275.8    45.9
   2   6  23   433.2   130.4
   2   6  25    87.4   270.3
   2   7   0    20.4     7.0
   2   7   1    35.4     5.0
   2   7   2    40.6     5.0
   2   7   3    47.2     5.2
   2   7   4   204.5     5.5
   2   7   5   183.1     5.7
   2   7   6   337.0     6.1
   2   7   7   622.2     7.5
   2   7   8    93.7     6.6
   2   7   9   124.2     7.1
   2   7  10   130.1     7.8
   2   7  11    -0.0     8.5
   2   7  12    97.4     9.2
   2   7  13   148.5    10.2
   2   7  14   119.6    11.8
   2   7  15    37.7    12.9
   2   7  16   167.1    14.7
   2   7  17   115.7    16.6
   2   7  18    74.1    18.3
   2   7  19    27.5    25.1
   2   7  20   128.1    31.5
   2   7  21   118.6    41.4
   2   7  22    52.8    58.1
   2   7  23   208.2   120.8
   2   7  24   231.0   153.7
   2   8   1   192.8     6.5
   2   8   3   198.4     6.8
   2   8   5   158.7     7.1
   2   8   7    14.8     7.9
   2   8   9    83.0     9.2
   2   8  11   125.1    12.0
   2   8  13    53.4    14.6
   2   8  15    53.7    18.3
   2   8  17    51.0    23.5
   2   8  19   344.8    31.5
   2   8  21   154.2    55.5
   2   9   0   113.6    13.7
   2   9   1    38.0     9.5
   2   9   2     8.4     9.3
   2   9   3    83.2    10.0
   2   9   4    23.5    10.2
   2   9   5    29.3    10.8
   2   9   6    26.0    11.1
   2   9   7   206.6    11.9
   2   9   8    10.4    12.4
   2   9   9   185.3    14.6
   2   9  10    46.9    15.3
   2   9  11    -2.7    16.5
   2   9  12   -22.4    19.0
   2   9  13   104.1    23.4
   2   9  14    13.8    26.0
   2   9  15    72.4    29.1
   2   9  16   175.3    33.0
   2   9  17    66.0    35.7
   2   9  18   -42.9    41.0
   2   9  19     8.1    47.4
   2  10   1   -10.4    14.9
   2  10   3    29.4    15.5
   2  10   5    29.5    16.9
   2  10   7    58.7    19.2
   2  10   9   180.2    21.4
   2  10  11    55.3    26.6
   2  10  13   249.1    33.5
   2  10  15   161.6    45.1
   2  11   0   -36.7    35.4
   2  11   1   118.6    25.4
   2  11   2    -4.3    26.4
   2  11   3   211.4    26.8
   2  11   4   -14.5    27.0
   2  11   5   -39.4    27.3
   2  11   6   153.7    29.3
   2  11   7    10.1    31.5
   2  11   8   111.8    34.3
   2  11   9   -12.7    35.7
   2  11  10    51.8    38.4
   3   0   1   540.2     7.4
   3   0   2     5.4     2.0
   3   0   4   506.7     5.0
   3   0   5    65.2     2.9
   3   0   7   205.0     3.8
   3   0   8    -0.1     5.0
   3   0  10    13.7     7.0
   3   0  11   245.2     9.9
   3   0  13   202.8    10.0
   3   0  14   137.7    10.2
   3   0  16   391.2    10.9
   3   0  17     6.2     9.1
   3   0  19    97.4    12.7
   3   0  20    11.5    16.2
   3   0  22    -3.8    27.2
   3   0  23    92.1    40.1
   3   0  25   -20.1   149.0
   3   0  26   357.7   231.9
   3   1   0   180.1     4.1
   3   1   1   379.5     4.3
   3   1   2   641.9     5.0
   3   1   3    13.5     1.6
   3   1   4    16.1     1.7
   3   1   5    24.9     2.0
   3   1   6   569.2     4.8
   3   1   7   782.9     6.3
   3   1   8    -5.5     3.1
   3   1   9    35.5     4.6
   3   1  10   258.2     6.5
   3   1  11   246.7     6.5
   3   1  12   127.0     6.3
   3   1  13    53.6     6.4
   3   1  14   242.0     7.0
   3   1  15    80.3     6.7
   3   1  16    22.6     6.6
   3   1  17   147.9     6.9
   3   1  18     3.1     7.2
   3   1  19    34.8     8.8
   3   1  20    61.5    10.9
   3   1  21    67.1    19.6
   3   1  22    55.1    27.9
   3   1  23   274.2    37.0
   3   1  24   -68.5    55.6
   3   1  25    12.2    87.2
   3   1  26    96.9   124.7
   3   1  27  -233.0   188.5
   3   1  28   543.0   327.4
   3   2   0    17.3     2.6
   3   2   1    73.8     2.0
   3   2   2   125.1     2.1
   3   2   3   336.2     3.2
   3   2   4   188.8     2.5
   3   2   5   200.9     3.0
   3   2   6   145.5     3.1
   3   2   7    78.0     3.3
   3   2   8   983.5     8.8
   3   2   9    69.8     4.7
   3   2  10   149.3     5.9
   3   2  11    81.6     5.5
   3   2  12   274.5     6.7
   3   2  13   126.1     6.2
   3   2  14   490.5     8.5
   3   2  15   529.6     9.3
   3   2  16   386.6     8.0
   3   2  17    -1.1     7.1
   3   2  18   115.0     8.4
   3   2  19   121.3    10.6
   3   2  20    86.8    12.5
   3   2  21   129.9    18.8
   3   2  22   108.0    23.8
   3   2  23   209.0    32.9
   3   2  24   256.2    49.9
   3   2  25   186.8   113.0
   3   2  26  -129.1   166.6
   3   2  27   200.8   421.6
   3   2  28  -294.2   670.1
   3   3   1   244.5     3.0
   3   3   2   221.7     2.9
   3   3   4    60.1     2.6
   3   3   5    28.5     2.7
   3   3   7    59.7     3.8
   3   3   8   535.8     6.7
   3   3  10  1117.5    11.9
   3   3  11    66.6     5.9
   3   3  13    16.7     6.5
   3   3  14    96.5     6.9
   3   3  16   180.9     7.7
   3   3  17   101.8     8.1
   3   3  19    -3.2    10.8
   3   3  20     5.9    13.1
   3   3  22   106.7    30.0
   3   3  23   -33.2    38.2
   3   3  25    10.3    89.6
   3   3  26   133.8   152.8
   3   4   0   378.3     5.8
   3   4   1    50.9     2.7
   3   4   2    11.2     2.7
   3   4   3    63.1     3.0
   3   4   4   279.7     4.1
   3   4   5   707.0     6.5
   3   4   6   197.8     4.9
   3   4   7   106.7     4.9
   3   4   8   640.5     7.8
   3   4   9    34.2     5.8
   3   4  10    97.7     6.6
   3   4  11    27.7     6.8
   3   4  12   159.1     7.7
   3   4  13   151.1     8.0
   3   4  14    36.1     7.7
   3   4  15    18.6     7.6
   3   4  16   195.5     9.3
   3   4  17    22.2    10.1
   3   4  18    74.7    11.6
   3   4  19    56.3    12.8
   3   4  20    27.4    15.7
   3   4  21   104.0    20.7
   3   4  22    59.7    24.8
   3   4  23   146.5    36.8
   3   4  24   225.0    64.0
   3   4  25   -93.9   137.1
   3   4  26   376.5   198.2
   3   4  27   708.4   319.8
   3   5   0   641.1     7.7
   3   5   1   449.2     4.7
   3   5   2   162.1     3.8
   3   5   3    15.4     3.6
   3   5   4   216.4     4.3
   3   5   5   148.5     4.6
   3   5   6   115.3     5.0
   3   5   7   116.9     5.8
   3   5   8    24.1     6.4
   3   5   9   113.0     7.2
   3   5  10    61.8     7.5
   3   5  11    27.8     8.0
   3   5  12   113.7     8.3
   3   5  13    53.9     8.6
   3   5  14   162.3     9.0
   3   5  15   313.4    10.4
   3   5  16   500.2    12.1
   3   5  17   292.4    12.9
   3   5  18    60.0    14.0
   3   5  19    19.9    15.3
   3   5  20    72.5    18.2
   3   5  21   294.1    22.5
   3   5  22   121.5    30.4
   3   5  23    53.5    43.1
   3   5  24   114.7    63.0
   3   5  25    -3.5    98.5
   3   5  26   212.2   164.2
   3   6   1     3.7     4.1
   3   6   2   144.3     4.5
   3   6   4   161.4     5.1
   3   6   5   113.9     5.4
   3   6   7    -0.3     7.0
   3   6   8   149.2     8.0
   3   6  10   104.4     8.3
   3   6  11   136.4     8.9
   3   6  13    68.1     9.9
   3   6  14   272.5    11.2
   3   6  16    20.0    12.6
   3   6  17   -24.0    14.7
   3   6  19   -22.2    19.6
   3   6  20   234.5    22.6
   3   6  22   -16.4    31.6
   3   6  23    56.4    40.2
   3   7   0   210.2     7.8
   3   7   1   385.5     5.9
   3   7   2   256.6     5.7
   3   7   3    38.2     5.4
   3   7   4   169.4     6.0
   3   7   5   212.9     6.6
   3   7   6    47.6     6.9
   3   7   7    34.9     7.7
   3   7   8   119.4     8.5
   3   7   9    89.3     9.1
   3   7  10   158.3     9.9
   3   7  11    83.9    11.1
   3   7  12   100.3    11.6
   3   7  13    80.0    12.6
   3   7  14    43.7    13.8
   3   7  15   252.3    15.3
   3   7  16    61.7    18.7
   3   7  17   396.4    22.2
   3   7  18   109.0    23.8
   3   7  19    56.5    26.9
   3   7  20   117.4    30.2
   3   7  21   233.8    36.0
   3   7  22    87.1    41.8
   3   7  23    66.9    53.1
   3   8   0    -5.4    10.3
   3   8   1    29.1     7.5
   3   8   2    82.8     7.6
   3   8   3     1.2     7.7
   3   8   4    21.0     8.1
   3   8   5   113.2     8.8
   3   8   6    26.1     9.5
   3   8   7    35.2     9.9
   3   8   8    48.1    11.6
   3   8   9    33.7    12.8
   3   8  10    45.7    14.4
   3   8  11    58.3    15.3
   3   8  12   133.8    16.6
   3   8  13     4.0    17.8
   3   8  14   223.6    19.9
   3   8  15   -33.3    22.4
   3   8  16   -26.2    24.8
   3   8  17   113.9    28.5
   3   8  18   205.1    31.3
   3   8  19     1.9    35.2
   3   8  20    -1.9    40.3
   3   9   1    97.8    11.6
   3   9   2   222.3    12.1
   3   9   4    89.0    12.5
   3   9   5   246.2    13.1
   3   9   7   101.8    15.1
   3   9   8     2.5    16.2
   3   9  10   305.1    20.7
   3   9  11   326.2    23.8
   3   9  13   -50.4    27.0
   3   9  14    -6.6    30.5
   3   9  16    50.5    37.9
   3   9  17   128.2    42.6
   3  10   0   -23.7    25.9
   3  10   1   134.2    19.1
   3  10   2    54.8    18.6
   3  10   3    70.7    19.2
   3  10   4     3.4    20.0
   3  10   5    60.5    20.9
   3  10   6    91.6    22.2
   3  10   7    14.4    23.8
   3  10   8    35.7    25.6
   3  10   9     5.5    28.7
   3  10  10     0.7    30.9
   3  10  11    75.4    34.9
   3  10  12    21.3    39.0
   3  10  13    39.0    42.5
   3  11   0   -54.7    44.4
   3  11   1    24.7    30.9
   3  11   2   -19.9    32.3
   3  11   3   101.1    33.3
   3  11   4    -9.5    33.7
   3  11   5    87.9    35.5
   3  11   6    62.3    36.0
   4   0   1     6.0     2.8
   4   0   3  1246.8    10.1
   4   0   5   265.3     6.2
   4   0   7   349.6     8.1
   4   0   9   388.2     9.7
   4   0  11   165.9     9.0
   4   0  13    70.2     9.8
   4   0  15    44.8     9.6
   4   0  17    86.2    11.1
   4   0  19   696.2    18.1
   4   0  21   193.2    21.0
   4   0  23    37.0    26.9
   4   0  25   154.0    40.3
   4   0  27    43.0   117.1
   4   1   0    16.3     3.0
   4   1   1    21.5     2.1
   4   1   2   392.0     4.0
   4   1   3   146.6     3.3
   4   1   4  1025.2     9.3
   4   1   5  1155.9     9.0
   4   1   6   135.1     4.0
   4   1   7   426.7     6.6
   4   1   8   592.6     7.8
   4   1   9   161.5     5.7
   4   1  10    46.5     5.5
   4   1  11   664.6     8.9
   4   1  12   581.3     8.9
   4   1  13     8.3     6.7
   4   1  14   125.5     7.3
   4   1  15   224.9     7.4
   4   1  16   242.2     7.7
   4   1  17    25.8     8.0
   4   1  18    36.9     9.0
   4   1  19    45.8    10.5
   4   1  20    29.3    12.2
   4   1  21   572.8    16.4
   4   1  22    97.5    17.8
   4   1  23    55.5    20.4
   4   1  24   326.0    26.0
   4   1  25    56.2    33.7
   4   1  26   195.1    42.7
   4   1  27    98.6    76.2
   4   2   1   367.0     3.3
   4   2   3    85.5     2.8
   4   2   5   164.8     4.1
   4   2   7   109.9     4.5
   4   2   9   515.3     7.3
   4   2  11    -1.1     5.7
   4   2  13   135.4     6.9
   4   2  15   239.5     7.8
   4   2  17    75.6     9.1
   4   2  19   120.8    12.2
   4   2  21    29.9    16.2
   4   2  23    83.9    22.1
   4   2  25   233.6    35.7
   4   2  27   -26.7    84.7
   4   3   0   385.5     5.6
   4   3   1   851.7     5.6
   4   3   2   406.5     4.3
   4   3   3    36.4     3.2
   4   3   4   153.0     4.0
   4   3   5   150.7     4.4
   4   3   6   135.0     4.7
   4   3   7    25.7     4.7
   4   3   8   507.9     7.7
   4   3   9   130.0     6.2
   4   3  10     7.2     6.1
   4   3  11   359.6     7.6
   4   3  12   356.2     8.1
   4   3  13     9.6     7.3
   4   3  14   172.3     7.8
   4   3  15   331.8     8.8
   4   3  16   150.9     8.9
   4   3  17    44.7     9.9
   4   3  18    35.4    11.4
   4   3  19    33.9    13.5
   4   3  20   126.0    15.9
   4   3  21    42.7    18.0
   4   3  22   147.8    21.7
   4   3  23    86.7    26.0
   4   3  24   243.4    32.6
   4   3  25    21.0    39.1
   4   3  26   -96.4    56.9
   4   4   1   171.2     4.0
   4   4   3    37.4     4.0
   4   4   5    19.9     5.0
   4   4   7   102.6     6.0
   4   4   9    62.1     7.0
   4   4  11     2.5     7.4
   4   4  13    34.7     8.1
   4   4  15   263.4    10.4
   4   4  17    -9.9    12.7
   4   4  19    42.0    16.3
   4   4  21   103.6    22.7
   4   4  23   128.7    31.7
   4   4  25    79.8    47.2
   4   5   0   199.0     6.5
   4   5   1    76.4     4.4
   4   5   2    60.2     4.5
   4   5   3    24.3     5.0
   4   5   4   337.0     6.5
   4   5   5   125.1     6.4
   4   5   6    37.8     6.7
   4   5   7   320.9     8.1
   4   5   8   223.6     8.1
   4   5   9   454.8     9.2
   4   5  10    17.9     8.2
   4   5  11   108.0     8.9
   4   5  12    84.2     9.5
   4   5  13    58.7    10.1
   4   5  14    27.7    10.9
   4   5  15    43.7    12.1
   4   5  16   241.8    13.8
   4   5  17    76.0    16.4
   4   5  18    49.3    18.8
   4   5  19   104.8    21.8
   4   5  20   128.4    25.8
   4   5  21    25.5    29.0
   4   5  22    67.5    35.1
   4   5  23    11.7    39.0
   4   5  24    64.5    46.6
   4   6   1    21.1     5.0
   4   6   3    13.6     5.6
   4   6   5    33.0     6.9
   4   6   7    28.3     8.0
   4   6   9    30.9     9.5
   4   6  11    33.3    10.8
   4   6  13   -10.3    13.4
   4   6  15   161.7    16.5
   4   6  17    40.7    20.3
   4   6  19    73.2    26.0
   4   6  21    -4.0    39.8
   4   6  23   438.9    54.8
   4   7   0    17.6     9.8
   4   7   1   171.5     7.3
   4   7   2    65.9     7.1
   4   7   3    85.5     7.5
   4   7   4    66.7     8.1
   4   7   5    57.8     9.1
   4   7   6   187.3    10.5
   4   7   7    23.1    10.6
   4   7   8   113.0    11.5
   4   7   9   124.2    13.5
   4   7  10    98.9    14.3
   4   7  11    21.6    15.3
   4   7  12     7.4    16.1
   4   7  13   337.5    18.3
   4   7  14   130.2    18.5
   4   7  15   -28.3    21.2
   4   7  16   132.5    24.1
   4   7  17   225.3    26.7
   4   7  18    35.3    28.0
   4   7  19     8.5    32.2
   4   7  20    74.7    45.2
   4   7  21     4.7    52.9
   4   8   1    16.0    10.1
   4   8   3   256.6    11.3
   4   8   5   129.1    12.7
   4   8   7   100.5    14.7
   4   8   9    35.4    18.4
   4   8  11   327.2    20.8
   4   8  13    90.5    24.9
   4   8  15    74.5    31.7
   4   8  17   105.1    39.3
   4   9   0     2.5    22.3
   4   9   1    46.8    15.8
   4   9   2   576.9    17.0
   4   9   3   151.7    16.2
   4   9   4   -18.2    16.9
   4   9   5    89.5    18.8
   4   9   6     7.6    19.7
   4   9   7    90.2    22.6
   4   9   8   115.9    24.8
   4   9   9    15.2    26.8
   4   9  10    -0.7    28.3
   4   9  11    18.8    30.4
   4   9  12   102.4    32.7
   4   9  13   116.5    37.3
   4   9  14   454.8    40.8
   4  10   1   165.2    26.3
   4  10   3    84.1    26.6
   4  10   5   149.3    29.3
   4  10   7    46.7    33.3
   4  10   9    94.9    39.9
   5   0   1   153.0     4.8
   5   0   2    39.2     4.8
   5   0   3   434.8     7.5
   5   0   4     7.4     5.1
   5   0   6    -1.3     5.8
   5   0   7    33.1     6.4
   5   0   8    38.6     7.1
   5   0   9    79.9     8.2
   5   0  11   146.5     9.2
   5   0  12    12.8     9.3
   5   0  13   131.8    10.0
   5   0  14    51.8    10.6
   5   0  16   276.2    13.9
   5   0  17   272.7    15.4
   5   0  18   -32.0    16.8
   5   0  19   306.3    20.5
   5   0  21   782.8    31.1
   5   0  22   -38.6    32.6
   5   0  23   -52.4    39.7
   5   0  24   196.0    48.5
   5   1   0     9.1     4.0
   5   1   1    71.9     3.2
   5   1   2  1027.6     7.0
   5   1   3    65.6     3.8
   5   1   4    94.3     4.1
   5   1   5   100.9     4.5
   5   1   6   136.3     5.0
   5   1   7   304.5     6.1
   5   1   8   450.5     7.0
   5   1   9    88.8     5.9
   5   1  10   122.5     6.1
   5   1  11   125.2     6.4
   5   1  12   124.9     6.9
   5   1  13     1.6     6.9
   5   1  14    54.4     7.7
   5   1  15    24.6     8.4
   5   1  16    19.2     9.5
   5   1  17   110.5    11.1
   5   1  18   453.1    13.8
   5   1  19    45.5    13.9
   5   1  20    87.1    16.4
   5   1  21    58.2    19.2
   5   1  22   178.7    23.1
   5   1  23   230.6    28.5
   5   1  24    65.9    34.4
   5   1  25    49.5    42.1
   5   2   0    53.2     5.0
   5   2   1    74.1     3.4
   5   2   2   156.6     4.0
   5   2   3   202.3     4.4
   5   2   4   192.3     4.6
   5   2   5   204.8     5.0
   5   2   6    66.0     4.8
   5   2   7   165.9     5.6
   5   2   8   322.7     7.1
   5   2   9    51.1     5.7
   5   2  10    46.1     6.2
   5   2  11    85.5     6.7
   5   2  12    56.1     7.2
   5   2  13    28.3     7.8
   5   2  14   103.2     8.9
   5   2  15    88.0     9.8
   5   2  16    31.6    10.8
   5   2  17    36.5    12.4
   5   2  18    80.2    14.3
   5   2  19    79.7    16.5
   5   2  20   156.5    19.8
   5   2  21   189.3    23.7
   5   2  22    75.1    25.1
   5   2  23   275.9    31.1
   5   2  24   379.0    38.2
   5   2  25    74.3    45.7
   5   3   0     6.9     5.6
   5   3   1    36.1     4.1
   5   3   2   340.7     5.1
   5   3   3   207.8     5.0
   5   3   4    25.2     4.7
   5   3   5   123.7     5.3
   5   3   6    41.4     5.3
   5   3   7   290.6     6.5
   5   3   8   446.5     7.7
   5   3   9    96.1     6.8
   5   3  10   126.5     7.2
   5   3  11    33.1     7.6
   5   3  12    86.5     8.5
   5   3  13   116.8     9.2
   5   3  14    67.6     9.9
   5   3  15   347.9    12.0
   5   3  16    31.6    12.5
   5   3  17     3.8    14.2
   5   3  18   223.4    16.7
   5   3  19    73.8    18.1
   5   3  20   100.8    21.4
   5   3  21   180.9    27.8
   5   3  22   231.3    33.6
   5   3  23   100.5    40.4
   5   3  24    49.4    49.7
   5   4   0   391.9     7.7
   5   4   1   297.4     5.8
   5   4   2    -6.7     5.2
   5   4   3   102.7     5.8
   5   4   4    90.1     6.0
   5   4   5   153.1     6.5
   5   4   6    53.7     6.5
   5   4   7    18.9     6.9
   5   4   8   172.3     7.7
   5   4   9    12.3     8.0
   5   4  10   151.7     8.9
   5   4  11    46.0     9.5
   5   4  12    81.5    10.9
   5   4  13   168.4    12.1
   5   4  14    88.7    13.3
   5   4  15    39.5    14.1
   5   4  16   259.7    16.2
   5   4  17    95.6    17.7
   5   4  18    94.6    20.1
   5   4  19    67.5    22.9
   5   4  20   127.1    26.6
   5   4  21   132.2    30.3
   5   4  22   166.8    36.0
   5   4  23     1.8    43.1
   5   5   1     6.0     6.1
   5   5   2   202.9     6.9
   5   5   3    21.2     7.2
   5   5   4    83.5     7.6
   5   5   6    84.2     8.9
   5   5   7   204.3     9.6
   5   5   8    -6.5     9.7
   5   5   9   308.0    11.1
   5   5  11    41.6    12.5
   5   5  12    85.1    13.6
   5   5  13   339.5    15.6
   5   5  14   323.5    16.9
   5   5  16   114.7    19.8
   5   5  17   165.9    22.5
   5   5  18   169.7    24.4
   5   5  19    59.8    29.8
   5   5  21    23.7    41.0
   5   5  22    32.0    45.4
   5   6   0    54.5    10.5
   5   6   1    37.3     7.6
   5   6   2    35.7     8.4
   5   6   3    90.0     9.6
   5   6   4    27.5    10.0
   5   6   5    50.2    10.9
   5   6   6   125.3    12.1
   5   6   7    12.5    12.9
   5   6   8   213.8    13.8
   5   6   9    40.8    14.1
   5   6  10   317.5    15.8
   5   6  11    84.1    17.2
   5   6  12    47.7    18.3
   5   6  13   100.9    20.1
   5   6  14   201.5    21.5
   5   6  15     4.4    23.3
   5   6  16   180.8    26.1
   5   6  17    63.8    28.4
   5   6  18    31.4    31.0
   5   6  19    31.2    40.8
   5   6  20    32.7    47.1
   5   7   0   326.2    15.3
   5   7   1   163.5    10.9
   5   7   2   120.0    11.4
   5   7   3   180.5    12.2
   5   7   4    78.6    12.7
   5   7   5   179.2    14.5
   5   7   6     3.5    15.8
   5   7   7   286.5    16.8
   5   7   8    11.8    16.9
   5   7   9   265.8    19.5
   5   7  10     6.7    20.0
   5   7  11   159.8    22.9
   5   7  12    24.7    25.9
   5   7  13    -5.9    28.1
   5   7  14   167.6    29.8
   5   7  15   160.6    32.5
   5   7  16    61.6    35.6
   5   7  17   106.1    39.8
   5   8   0   119.7    22.8
   5   8   1    64.6    16.4
   5   8   2   115.8    16.7
   5   8   3   -27.2    17.9
   5   8   4   205.8    18.7
   5   8   5   192.2    20.2
   5   8   6   -21.2    21.4
   5   8   7    59.2    21.9
   5   8   8    67.3    24.5
   5   8   9    50.6    27.4
   5   8  10   -18.2    28.9
   5   8  11    43.5    31.1
   5   8  12   276.4    34.0
   5   8  13    -6.2    35.9
   5   8  14   215.4    41.2
   5   9   0   103.4    35.1
   5   9   1   144.3    25.6
   5   9   2    17.4    25.8
   5   9   3   109.8    27.2
   5   9   4   105.8    27.5
   5   9   5    91.0    29.0
   5   9   6    78.7    30.3
   5   9   7     4.3    36.0
   5   9   8   -18.7    38.5
   5   9   9   127.5    39.1
   5   9  10   -39.7    41.1
   6   0   1   192.3    10.2
   6   0   5   -11.2     7.2
   6   0   7   102.8     8.4
   6   0  11    64.5    12.2
   6   0  13    15.6    14.5
   6   0  17   219.5    23.5
   6   0  19   138.2    29.8
   6   1   0    25.1     9.3
   6   1   1    35.5     6.3
   6   1   2    92.6     6.0
   6   1   3    54.8     5.4
   6   1   4     2.1     5.5
   6   1   5    84.7     5.9
   6   1   6    82.9     6.1
   6   1   7    54.1     6.3
   6   1   8    27.1     6.8
   6   1   9    -1.4     7.3
   6   1  10    33.1     8.2
   6   1  11    49.0     9.0
   6   1  12    76.0    10.0
   6   1  13     2.7    11.0
   6   1  14    79.6    12.3
   6   1  15   109.6    13.7
   6   1  16   -13.3    15.2
   6   1  17    44.7    17.4
   6   1  18    12.3    19.9
   6   1  19   307.3    23.6
   6   1  20    45.7    25.6
   6   1  21    65.4    30.3
   6   1  22   -20.7    35.8
   6   2   1   315.1     7.9
   6   2   3   122.1     6.4
   6   2   5    14.1     6.3
   6   2   7    40.1     7.0
   6   2   9    36.7     8.1
   6   2  11   135.5    10.2
   6   2  13     8.8    12.1
   6   2  15    30.8    15.1
   6   2  17    28.1    19.4
   6   2  19   215.5    25.8
   6   2  21    -5.1    34.6
   6   3   1    30.6     8.1
   6   3   2   336.3     8.8
   6   3   4   175.2     8.3
   6   3   5   188.4     8.5
   6   3   7   111.5     9.1
   6   3   8   247.7    10.1
   6   3  10   154.6    11.1
   6   3  11    20.9    11.6
   6   3  13   167.5    14.0
   6   3  14   193.9    16.4
   6   3  16   -13.2    20.1
   6   3  17    46.9    22.6
   6   3  19    77.9    30.3
   6   3  20     3.9    35.1
   6   4   1   112.3     9.6
   6   4   3    21.0     9.9
   6   4   5    72.7    10.5
   6   4   7   484.2    13.0
   6   4   9   172.0    13.7
   6   4  11   192.5    15.4
   6   4  13    63.7    18.1
   6   4  15   103.7    22.1
   6   4  17   111.5    29.4
   6   4  19   -47.1    38.5
   6   5   0   163.9    16.0
   6   5   1    16.2    11.7
   6   5   2   137.5    12.5
   6   5   3   383.7    14.3
   6   5   4   141.1    13.9
   6   5   5     4.3    13.7
   6   5   6   216.3    14.5
   6   5   7    16.0    15.2
   6   5   8   239.3    16.6
   6   5   9    53.6    17.0
   6   5  10   214.7    17.7
   6   5  11   218.7    19.0
   6   5  12    -4.5    21.2
   6   5  13   359.0    24.2
   6   5  14    -8.4    25.3
   6   5  15   122.0    28.4
   6   5  16     8.2    31.4
   6   5  17    54.9    38.9
   6   5  18   197.6    44.5
   6   6   1   430.0    15.3
   6   6   5   103.9    19.2
   6   6   7   227.1    22.1
   6   6  11   128.9    26.6
   6   6  13     4.0    31.7
   6   7   0   166.4    25.0
   6   7   1    34.2    18.4
   6   7   2    43.9    20.5
   6   7   3   155.2    22.8
   6   7   4    13.8    24.3
   6   7   5    79.4    26.2
   6   7   6   114.2    26.8
   6   7   7   -24.6    30.7
   6   7   8    72.4    32.1
   6   7   9   137.1    32.0
   6   7  10    49.5    33.8
   6   7  11   192.5    36.8
   6   7  12   -11.6    42.3
   6   7  13   270.0    46.7
   6   8   1   103.8    27.7
   6   8   3    30.5    28.2
   6   8   5    98.3    34.8
   6   8   7    53.6    38.7
   7   0   1    -6.6    24.3
   7   0   2    62.6    14.1
   7   0   3    83.0    13.6
   7   0   4     1.0    13.3
   7   0   5     3.2    13.8
   7   0   6   101.0    14.4
   7   0   8   104.9    15.8
   7   0   9   276.4    18.8
   7   0  10     7.1    19.3
   7   0  11    58.3    21.1
   7   0  12    32.1    23.1
   7   0  13    87.3    25.4
   7   0  15   111.9    31.3
   7   0  16    67.5    36.2
   7   0  17    57.1    40.7
   7   0  18   130.4    45.8
   7   1   0   106.2    30.3
   7   1   1   -21.9    15.1
   7   1   2    92.9    13.1
   7   1   3   104.4    10.0
   7   1   4   155.6    10.3
   7   1   5    65.0    10.6
   7   1   6    23.2    11.2
   7   1   7    64.9    11.7
   7   1   8    23.2    12.7
   7   1   9    13.4    13.5
   7   1  10    55.0    14.5
   7   1  11   156.8    16.1
   7   1  12    79.5    17.6
   7   1  13    51.6    19.3
   7   1  14   127.8    21.5
   7   1  15    69.3    23.8
   7   1  16    20.3    26.9
   7   1  17   -25.2    30.4
   7   1  18    -8.0    34.8
   7   2   0   199.1    26.8
   7   2   1   250.0    16.7
   7   2   2   168.4    13.4
   7   2   3   216.7    12.5
   7   2   4    74.8    12.0
   7   2   5    41.9    12.6
   7   2   6   338.2    13.7
   7   2   7    17.8    13.1
   7   2   8    54.0    13.9
   7   2   9    19.1    15.2
   7   2  10   191.4    16.8
   7   2  11   112.8    18.1
   7   2  12     4.5    20.3
   7   2  13   151.4    22.7
   7   2  14    68.2    25.2
   7   2  15   112.0    28.2
   7   2  16   200.6    32.4
   7   2  17   153.5    36.3
   7   3   0    33.5    31.7
   7   3   1     3.0    19.0
   7   3   2    16.6    16.9
   7   3   3   155.3    14.4
   7   3   4   105.9    16.0
   7   3   5    62.4    15.9
   7   3   6   211.6    16.6
   7   3   7    -1.8    16.3
   7   3   8   -16.8    16.8
   7   3   9    75.8    17.8
   7   3  10     8.3    18.7
   7   3  11    22.0    21.1
   7   3  12    -3.5    23.0
   7   3  13   330.6    26.2
   7   3  14    76.8    28.7
   7   3  15    -8.8    31.8
   7   3  16    53.1    36.1
   7   4   0   -27.9    34.5
   7   4   1   201.8    23.8
   7   4   2   173.9    19.3
   7   4   3   511.7    20.7
   7   4   4    10.6    19.9
   7   4   5    68.8    21.0
   7   4   6   183.2    21.6
   7   4   7   -25.9    21.6
   7   4   8   111.9    22.5
   7   4   9    -2.6    23.2
   7   4  10    49.2    24.7
   7   4  11   188.6    28.6
   7   4  12    10.3    30.5
   7   4  13   224.5    33.7
   7   4  14    71.9    36.5
   7   4  15   110.1    41.3
   7   5   0   453.7    36.7
   7   5   1     6.5    26.3
   7   5   2   213.4    25.3
   7   5   3   227.9    25.5
   7   5   4    63.4    25.0
   7   5   5    90.6    26.9
   7   5   6   122.3    27.0
   7   5   7    -9.5    27.2
   7   5   8    29.3    27.7
   7   5   9    68.9    31.1
   7   5  10     9.3    32.8
   7   5  11   -22.3    37.3
   7   5  12    22.0    40.7
   7   6   0     5.1    43.0
   7   6   1   105.7    34.8
   7   6   2   -16.4    32.2
   7   6   3    66.2    33.1
   7   6   4   164.7    36.9
   7   6   5    37.4    36.6
   7   6   6   180.1    37.1
   7   6   7   136.4    37.4
   7   6   8    62.4    38.2
   7   6   9    20.0    42.9
   7   7   1   204.0    41.7
   8   0   1   110.7    73.1
   8   0   3   118.2    29.4
   8   0   5   150.0    29.8
   8   0   7   537.4    33.3
   8   0   9   350.6    35.5
   8   0  11   100.9    42.7
   8   1   0   211.8   107.4
   8   1   1    -4.9    41.3
   8   1   2   165.2    32.3
   8   1   3    95.9    23.2
   8   1   4     4.1    21.2
   8   1   5    95.6    21.3
   8   1   6    25.2    21.7
   8   1   7   262.6    24.3
   8   1   8   113.4    26.2
   8   1   9    34.9    27.1
   8   1  10   205.3    30.5
   8   1  11    26.9    32.3
   8   2   1    86.6    45.8
   8   2   3   109.1    24.5
   8   2   5    35.7    27.0
   8   2   7    61.8    27.4
   8   2   9   -29.2    31.4
   8   3   0    99.8   121.7
   8   3   1    86.4    65.6
   8   3   2    36.4    39.2
   8   3   3   159.2    35.4
   8   3   4   187.3    31.4
   8   3   5    15.8    31.3
   8   3   6   127.3    32.1
   8   3   7   -38.4    32.1
   8   3   8    14.3    33.0
   8   4   1    35.3    67.3
   8   4   3    68.9    41.3
   8   4   5    20.4    50.3
;
_shelx_hkl_checksum              97846
_olex2_submission_special_instructions 'No special instructions were received'
loop_
_space_group_symop_operation_xyz
'x, y, z'
'-x+1/2, -y, z+1/2'
'-x, y+1/2, -z+1/2'
'x+1/2, -y+1/2, -z'
loop_
_atom_site_label
_atom_site_type_symbol
_atom_site_fract_x
_atom_site_fract_y
_atom_site_fract_z
_atom_site_U_iso_or_equiv
_atom_site_adp_type
_atom_site_occupancy
_atom_site_site_symmetry_order
_atom_site_calc_flag
_atom_site_refinement_flags_posn
_atom_site_refinement_flags_adp
_atom_site_refinement_flags_occupancy
_atom_site_disorder_assembly
_atom_site_disorder_group
O2 O 0.3242(4) 0.4979(3) 0.24007(13) 0.0147(5) Uani 1 1 d . . . . .
O1 O 0.7306(4) 0.4942(3) 0.19789(14) 0.0151(5) Uani 1 1 d . . . . .
N1 N 0.9167(2) 0.31345(17) 0.31167(9) 0.0114(3) Uani 1 1 d . . . . .
H1B H 1.0391(8) 0.3799(6) 0.2768(3) 0.0239(9) Uani 1 1 d . . . . .
H1C H 0.8786(8) 0.1799(5) 0.2943(3) 0.0253(10) Uani 1 1 d . . . . .
H1A H 1.0097(7) 0.3110(6) 0.3610(3) 0.0239(9) Uani 1 1 d . . . . .
N3 N 0.8707(2) 0.50253(18) 0.55332(9) 0.0127(3) Uani 1 1 d . . . . .
H3 H 0.8483(7) 0.5046(6) 0.6092(2) 0.0248(9) Uani 1 1 d . . . . .
N2 N 1.0323(2) 0.43948(18) 0.44686(9) 0.0130(3) Uani 1 1 d . . . . .
C4 C 0.8041(3) 0.5392(2) 0.43910(11) 0.0110(4) Uani 1 1 d . . . . .
C1 C 0.5648(3) 0.4728(2) 0.24541(10) 0.0108(4) Uani 1 1 d . . . . .
C2 C 0.6660(3) 0.4161(2) 0.31938(11) 0.0088(4) Uani 1 1 d . . . . .
H2 H 0.5255(7) 0.3212(6) 0.3440(2) 0.0222(9) Uani 1 1 d . . . . .
C6 C 0.7018(4) 0.5786(3) 0.50489(11) 0.0120(4) Uani 1 1 d . . . . .
H6 H 0.5312(8) 0.6534(7) 0.5202(3) 0.0322(11) Uani 1 1 d . . . . .
C5 C 1.0634(3) 0.4201(3) 0.51659(12) 0.0136(4) Uani 1 1 d . . . . .
H5 H 1.2222(8) 0.3459(7) 0.5419(3) 0.0317(11) Uani 1 1 d . . . . .
C3 C 0.7043(4) 0.5885(2) 0.36664(12) 0.0129(4) Uani 1 1 d . . . . .
H3A H 0.8376(10) 0.6834(6) 0.3400(3) 0.0310(11) Uani 1 1 d . . . . .
H3B H 0.5166(8) 0.6576(7) 0.3708(3) 0.0328(11) Uani 1 1 d . . . . .
loop_
_atom_site_aniso_label
_atom_site_aniso_U_11
_atom_site_aniso_U_22
_atom_site_aniso_U_33
_atom_site_aniso_U_23
_atom_site_aniso_U_13
_atom_site_aniso_U_12
O2 0.0112(9) 0.0174(10) 0.0156(14) 0.0040(10) -0.0018(7) 0.0003(8)
O1 0.0096(8) 0.0235(10) 0.0122(14) 0.0021(9) 0.0006(7) -0.0012(8)
N1 0.0103(5) 0.0124(6) 0.0115(9) -0.0003(5) -0.0003(5) 0.0022(4)
H1B 0.0246(19) 0.0253(19) 0.022(3) 0.0031(16) 0.0085(17) 0.0030(15)
H1C 0.0304(19) 0.0159(17) 0.029(3) -0.0046(17) -0.0022(17) 0.0028(14)
H1A 0.0211(18) 0.031(2) 0.019(3) 0.0010(19) -0.0030(16) 0.0051(14)
N3 0.0149(5) 0.0152(6) 0.0079(9) -0.0009(6) 0.0006(4) 0.0004(5)
H3 0.0282(18) 0.034(2) 0.012(3) 0.0039(19) -0.0025(15) -0.0018(18)
N2 0.0135(5) 0.0151(6) 0.0105(8) -0.0012(6) 0.0000(5) 0.0033(4)
C4 0.0117(6) 0.0100(7) 0.0114(12) 0.0002(7) 0.0002(7) 0.0012(6)
C1 0.0088(7) 0.0111(7) 0.0126(12) 0.0000(7) -0.0019(6) -0.0007(7)
C2 0.0087(7) 0.0081(7) 0.0096(11) 0.0013(7) 0.0003(6) 0.0009(6)
H2 0.0216(17) 0.0230(18) 0.022(3) 0.0035(17) 0.0016(16) -0.0048(15)
C6 0.0111(7) 0.0150(8) 0.0098(12) -0.0028(7) 0.0004(6) 0.0017(7)
H6 0.0252(19) 0.042(3) 0.030(3) -0.008(2) 0.0021(19) 0.0156(18)
C5 0.0133(7) 0.0162(8) 0.0112(12) 0.0002(8) -0.0033(7) 0.0041(7)
H5 0.0270(19) 0.039(2) 0.029(3) 0.006(2) -0.0068(19) 0.0138(17)
C3 0.0155(8) 0.0099(8) 0.0133(12) -0.0007(8) -0.0034(7) 0.0019(7)
H3A 0.041(2) 0.0249(19) 0.027(3) 0.0066(19) -0.003(2) -0.0104(19)
H3B 0.027(2) 0.038(2) 0.033(3) -0.008(2) -0.009(2) 0.0193(17)
loop_
_atom_type_symbol
_atom_type_description
_atom_type_scat_dispersion_real
_atom_type_scat_dispersion_imag
_atom_type_scat_source
C C 0.0000 0.0000
'Neutron Data Booklet, ILL Grenoble, France (2003) ISBN 0-9704143-7-4'
H H 0.0000 0.0000
'Neutron Data Booklet, ILL Grenoble, France (2003) ISBN 0-9704143-7-4'
N N 0.0000 0.0000
'Neutron Data Booklet, ILL Grenoble, France (2003) ISBN 0-9704143-7-4'
O O 0.0000 0.0000
'Neutron Data Booklet, ILL Grenoble, France (2003) ISBN 0-9704143-7-4'
loop_
_geom_angle_atom_site_label_1
_geom_angle_atom_site_label_2
_geom_angle_atom_site_label_3
_geom_angle
_geom_angle_site_symmetry_1
_geom_angle_site_symmetry_3
_geom_angle_publ_flag
C4 N2 C5 105.12(15) . . ?
O1 C1 C2 116.74(17) . . ?
N1 C2 C3 110.21(14) . . ?
N2 C4 C3 120.62(17) . . ?
N2 C5 N3 111.81(15) . . ?
C2 N1 H1A 108.5(3) . . ?
C5 N3 H3 126.6(3) . . ?
C1 C2 H2 108.9(2) . . ?
C2 C3 H3B 107.3(3) . . ?
N3 C6 H6 122.8(4) . . ?
C5 N3 C6 107.55(17) . . ?
O2 C1 C2 116.34(18) . . ?
C1 C2 C3 110.50(13) . . ?
N2 C4 C6 109.69(17) . . ?
N3 C6 C4 105.82(17) . . ?
C2 N1 H1B 111.1(3) . . ?
C6 N3 H3 125.8(2) . . ?
C3 C2 H2 110.1(3) . . ?
C4 C3 H3A 110.6(3) . . ?
N2 C5 H5 125.1(3) . . ?
C4 C6 H6 131.4(4) . . ?
O1 C1 O2 126.9(2) . . ?
N1 C2 C1 109.59(15) . . ?
C2 C3 C4 112.15(13) . . ?
C3 C4 C6 129.69(16) . . ?
C2 N1 H1C 109.2(2) . . ?
N1 C2 H2 107.5(2) . . ?
C2 C3 H3A 108.8(3) . . ?
C4 C3 H3B 110.3(3) . . ?
N3 C5 H5 123.1(3) . . ?
H1A N1 H1B 107.1(4) . . ?
H3A C3 H3B 107.7(4) . . ?
H1A N1 H1C 110.6(4) . . ?
H1B N1 H1C 110.4(4) . . ?
loop_
_geom_bond_atom_site_label_1
_geom_bond_atom_site_label_2
_geom_bond_distance
_geom_bond_site_symmetry_2
_geom_bond_publ_flag
O1 C1 1.247(3) . ?
N2 C5 1.331(3) . ?
C2 C3 1.544(2) . ?
N1 H1A 1.046(6) . ?
C2 H2 1.100(4) . ?
C6 H6 1.071(5) . ?
O2 C1 1.257(3) . ?
N3 C5 1.349(2) . ?
C3 C4 1.502(3) . ?
N1 H1B 1.030(5) . ?
C3 H3A 1.093(5) . ?
N1 C2 1.4964(19) . ?
N3 C6 1.376(3) . ?
C4 C6 1.377(3) . ?
N1 H1C 1.037(4) . ?
C3 H3B 1.091(5) . ?
N2 C4 1.3865(19) . ?
C1 C2 1.544(3) . ?
N3 H3 1.059(4) . ?
C5 H5 1.088(5) . ?
loop_
_geom_torsion_atom_site_label_1
_geom_torsion_atom_site_label_2
_geom_torsion_atom_site_label_3
_geom_torsion_atom_site_label_4
_geom_torsion
_geom_torsion_site_symmetry_1
_geom_torsion_site_symmetry_2
_geom_torsion_site_symmetry_3
_geom_torsion_site_symmetry_4
_geom_torsion_publ_flag
C5 N2 C4 C3 -179.96(15) . . . . ?
C6 N3 C5 N2 0.7(2) . . . . ?
O1 C1 C2 C3 94.7(2) . . . . ?
N1 C2 C3 C4 -58.4(2) . . . . ?
C2 C3 C4 C6 -123.8(2) . . . . ?
H1A N1 C2 C1 163.2(3) . . . . ?
H1B N1 C2 C1 45.7(3) . . . . ?
H1C N1 C2 C1 -76.2(4) . . . . ?
C4 N2 C5 H5 178.8(4) . . . . ?
H3 N3 C5 H5 -0.7(5) . . . . ?
H3 N3 C6 H6 2.5(5) . . . . ?
C5 N2 C4 C6 0.15(19) . . . . ?
C5 N3 C6 C4 -0.6(2) . . . . ?
O2 C1 C2 N1 155.17(16) . . . . ?
C1 C2 C3 C4 -179.71(14) . . . . ?
N2 C4 C6 N3 0.3(2) . . . . ?
H1A N1 C2 C3 41.4(3) . . . . ?
H1B N1 C2 C3 -76.1(4) . . . . ?
H1C N1 C2 C3 162.0(4) . . . . ?
C6 N3 C5 H5 -178.6(4) . . . . ?
C5 N3 C6 H6 -179.6(4) . . . . ?
O1 C1 C2 H2 -144.2(3) . . . . ?
C4 N2 C5 N3 -0.53(19) . . . . ?
O1 C1 C2 N1 -26.9(2) . . . . ?
O2 C1 C2 C3 -83.2(2) . . . . ?
C2 C3 C4 N2 56.3(2) . . . . ?
C3 C4 C6 N3 -179.61(15) . . . . ?
H1A N1 C2 H2 -78.6(4) . . . . ?
H1B N1 C2 H2 163.9(4) . . . . ?
H1C N1 C2 H2 42.0(4) . . . . ?
H3 N3 C5 N2 178.6(3) . . . . ?
H3 N3 C6 C4 -178.5(3) . . . . ?
O2 C1 C2 H2 37.9(3) . . . . ?
N1 C2 C3 H3A 64.2(3) . . . . ?
C1 C2 C3 H3B 59.1(4) . . . . ?
H2 C2 C3 H3B -61.3(4) . . . . ?
H3B C3 C4 N2 175.8(3) . . . . ?
C3 C4 C6 H6 -0.7(5) . . . . ?
N1 C2 C3 H3B -179.7(3) . . . . ?
H2 C2 C3 C4 60.0(3) . . . . ?
H3A C3 C4 N2 -65.2(3) . . . . ?
H3B C3 C4 C6 -4.3(4) . . . . ?
C1 C2 C3 H3A -57.1(3) . . . . ?
H2 C2 C3 H3A -177.5(4) . . . . ?
H3A C3 C4 C6 114.6(3) . . . . ?
N2 C4 C6 H6 179.2(4) . . . . ?

_cod_database_fobs_code 2108880
