#------------------------------------------------------------------------------
#$Date: 2018-03-28 07:49:03 +0300 (Wed, 28 Mar 2018) $
#$Revision: 207152 $
#$URL: file:///home/coder/svn-repositories/cod/cif/2/10/82/2108232.cif $
#------------------------------------------------------------------------------
#
# This file is available in the Crystallography Open Database (COD),
# http://www.crystallography.net/. The original data for this entry
# were provided by IUCr Journals, http://journals.iucr.org/.
#
# The file may be used within the scientific community so long as
# proper attribution is given to the journal article from which the
# data were obtained.
#
data_2108232
loop_
_publ_author_name
'Siidra, Oleg'
'Nekrasova, Diana'
'Depmeier, Wulf'
'Chukanov, Nikita'
'Zaitsev, Anatoly'
'Turner, Rick'
_publ_section_title
;
 Hydrocerussite-related minerals and materials: structural principles,
 chemical variations and infrared spectroscopy
;
_journal_issue                   2
_journal_name_full               'Acta Crystallographica Section B'
_journal_page_first
;
;
_journal_paper_doi               10.1107/S2052520618000768
_journal_volume                  74
_journal_year                    2018
_chemical_formula_sum            'C0.67 H0.67 O2.67 Pb'
_chemical_formula_weight         258.54
_space_group_crystal_system      trigonal
_space_group_IT_number           166
_space_group_name_Hall           '-R 3 2"'
_space_group_name_H-M_alt        'R -3 m :H'
_symmetry_space_group_name_Hall  '-R 3 2"'
_symmetry_space_group_name_H-M   'R -3 m :H'
_audit_creation_method           SHELXL-2014/7
_cell_angle_alpha                90
_cell_angle_beta                 90
_cell_angle_gamma                120
_cell_formula_units_Z            3
_cell_length_a                   5.257(3)
_cell_length_b                   5.257(3)
_cell_length_c                   23.636(15)
_cell_measurement_reflns_used    688
_cell_measurement_temperature    296(2)
_cell_measurement_theta_max      27.963
_cell_measurement_theta_min      2.585
_cell_volume                     565.7(6)
_computing_structure_refinement  'SHELXL-2014/7 (Sheldrick, 2014)'
_diffrn_ambient_temperature      150(2)
_diffrn_measured_fraction_theta_full 1.000
_diffrn_measured_fraction_theta_max 1.000
_diffrn_measurement_device_type  'Bruker APEX 2'
_diffrn_radiation_type           MoK\a
_diffrn_radiation_wavelength     0.71073
_diffrn_reflns_av_R_equivalents  0.0945
_diffrn_reflns_av_unetI/netI     0.0521
_diffrn_reflns_Laue_measured_fraction_full 1.000
_diffrn_reflns_Laue_measured_fraction_max 1.000
_diffrn_reflns_limit_h_max       6
_diffrn_reflns_limit_h_min       -6
_diffrn_reflns_limit_k_max       6
_diffrn_reflns_limit_k_min       -6
_diffrn_reflns_limit_l_max       30
_diffrn_reflns_limit_l_min       -30
_diffrn_reflns_number            1742
_diffrn_reflns_point_group_measured_fraction_full 1.000
_diffrn_reflns_point_group_measured_fraction_max 1.000
_diffrn_reflns_theta_full        25.242
_diffrn_reflns_theta_max         27.963
_diffrn_reflns_theta_min         2.585
_exptl_absorpt_coefficient_mu    66.807
_exptl_crystal_density_diffrn    6.830
_exptl_crystal_description       plate
_exptl_crystal_F_000             972
_exptl_crystal_size_max          0.20
_exptl_crystal_size_mid          0.18
_exptl_crystal_size_min          0.05
_refine_diff_density_max         3.230
_refine_diff_density_min         -1.188
_refine_diff_density_rms         0.319
_refine_ls_extinction_coef       0.00031(18)
_refine_ls_extinction_expression Fc^*^=kFc[1+0.001xFc^2^\l^3^/sin(2\q)]^-1/4^
_refine_ls_extinction_method     'SHELXL-2014/7 (Sheldrick 2014'
_refine_ls_goodness_of_fit_ref   1.171
_refine_ls_hydrogen_treatment    undef
_refine_ls_matrix_type           full
_refine_ls_number_parameters     25
_refine_ls_number_reflns         203
_refine_ls_number_restraints     0
_refine_ls_restrained_S_all      1.171
_refine_ls_R_factor_all          0.0377
_refine_ls_R_factor_gt           0.0296
_refine_ls_shift/su_max          0.000
_refine_ls_shift/su_mean         0.000
_refine_ls_structure_factor_coef Fsqd
_refine_ls_weighting_details
'w=1/[\s^2^(Fo^2^)+6.2516P] where P=(Fo^2^+2Fc^2^)/3'
_refine_ls_weighting_scheme      calc
_refine_ls_wR_factor_gt          0.0624
_refine_ls_wR_factor_ref         0.0651
_reflns_Friedel_coverage         0.000
_reflns_number_gt                178
_reflns_number_total             203
_reflns_threshold_expression     'I > 2\s(I)'
_cod_data_source_file            ps5067sup1.cif
_cod_data_source_block           synthetic
_cod_original_cell_volume        565.7(8)
_cod_database_code               2108232
_shelx_shelxl_version_number     2014/7
_shelx_space_group_comment
;
The symmetry employed for this shelxl refinement is uniquely defined
by the following loop, which should always be used as a source of
symmetry information in preference to the above space-group names.
They are only intended as comments.
;
_shelx_res_file
;

    shelx.res created by SHELXL-2014/7


TITL shelxt_a.res in R-3m
REM Old TITL AVT2_3_R3m in R3m

REM SHELXT solution in R-3m
REM R1 0.291,  Rweak 0.062,  Alpha 0.048,  Orientation as input
REM Formula found by SHELXT:  C2 O7 Pb2

CELL  0.71073   5.2572   5.2572  23.6360   90.000   90.000  120.000
ZERR    9.000   0.0032   0.0032   0.0148    0.000    0.000    0.000
LATT  3
SYMM -Y, X-Y, Z
SYMM -X+Y, -X, Z
SYMM Y, X, -Z
SYMM X-Y, -Y, -Z
SYMM -X, -X+Y, -Z
SFAC O C PB H
UNIT 24 6 9  6
TEMP 23.000
acta
L.S. 20
BOND
FMAP 2
omit -4 56
PLAN 20
TWIN 0 1 0 1 0 0 0 0 1
WGHT    0.000000    6.251600
EXTI    0.000313
BASF  -0.01073
FVAR       0.05119   0.17346
MOLE   1
PB1   3    0.000000    0.000000    0.215703    10.16667    0.02494    0.02494 =
         0.03139    0.00000    0.00000    0.01247
PB2   3    0.915297   -0.915297    0.001910    10.08333    0.03366    0.03366 =
         0.02794    0.00151   -0.00151    0.02384
O1    1    0.808288   -0.808288   -0.097918    10.50000    0.03220    0.03220 =
         0.06300    0.00056   -0.00056    0.02561
OH    1    0.000000    0.000000    0.312399    10.16667    0.08983    0.08983 =
         0.02979    0.00000    0.00000    0.04492
C1    2    0.333333   -0.333333    0.233704    10.16667    0.01224    0.01224 =
         0.06766    0.00000    0.00000    0.00612

HKLF 4

REM  shelxt_a.res in R-3m
REM R1 =  0.0296 for     178 Fo > 4sig(Fo)  and  0.0377 for all     203 data
REM     25 parameters refined using      0 restraints

END

WGHT      0.0000      6.7656

REM Highest difference peak  3.230,  deepest hole -1.188,  1-sigma level  0.319
Q1    1   0.3333 -0.3333  0.2759  10.16667  0.05    3.23
Q2    1   1.0000 -1.0000  0.0437  10.16667  0.05    1.56
Q3    1   0.0000  0.0000  0.2470  10.16667  0.05    1.40
Q4    1   0.0000  0.0000  0.1740  10.16667  0.05    0.99
Q5    1   0.0000  0.0000  0.2851  10.16667  0.05    0.96
Q6    1   0.7928 -0.7928 -0.0026  10.50000  0.05    0.93
Q7    1   0.1120  0.2240  0.3403  10.50000  0.05    0.86
Q8    1   0.2229 -0.5542  0.2851  10.50000  0.05    0.82
Q9    1   0.1195  0.0598  0.2071  10.50000  0.05    0.80
Q10   1   0.0577 -0.0577  0.1675  10.50000  0.05    0.68
Q11   1   0.9221 -0.7916 -0.0509  11.00000  0.05    0.68
Q12   1   0.2677  0.1338  0.2871  10.50000  0.05    0.60
Q13   1   0.9231 -0.9231 -0.1229  10.50000  0.05    0.56
Q14   1   0.1597  0.0799  0.1800  10.50000  0.05    0.55
Q15   1   1.0745 -0.8511 -0.1000  10.50000  0.05    0.52
Q16   1   0.1163  0.2326  0.2696  10.50000  0.05    0.42
Q17   1   0.7492 -0.7492 -0.1464  10.50000  0.05    0.39
Q18   1  -0.3112 -0.1556  0.1870  10.50000  0.05    0.39
Q19   1   0.1198  0.2397  0.2341  10.50000  0.05    0.38
Q20   1  -0.1667 -0.3333  0.1667  10.25000  0.05    0.37
;
_shelx_res_checksum              44192
_shelx_hkl_file
;
  -2   1   0  551.49   61.66
  -2   1   0  537.97   54.25
   1  -2   0  584.58   53.53
   2  -1   0  582.55   53.61
  -1   2   0  510.34   61.19
  -1   2   0  575.82   53.85
   3   0   0  146.15   17.02
  -3   3   0  136.94   15.81
  -3   3   0  139.91   17.41
   3   0   0  144.73   13.66
   3  -3   0  138.18   13.84
  -3   0   0  137.57   14.77
  -4   2   0  145.47   19.85
  -4   2   0  151.01   17.38
   2  -4   0  163.25   15.36
   4  -2   0  162.59   15.51
  -2   4   0  146.67   18.73
   4  -5   0   63.99    6.64
  -5   1   0   66.37    9.62
   5  -1   0   63.22    6.44
  -4   5   0   53.04    8.77
  -4   5   0   61.34   10.67
  -5   4   0   52.13   10.00
  -1   5   0   73.97    9.21
   5  -4   0   57.08    6.47
  -6   3   0   59.99   11.59
   6  -3   0   82.16    8.26
  -3   6   0   74.76   12.09
  -6   6   0   22.12    8.03
   6  -6   0   28.20    3.94
  -7   2   0   25.50    8.96
   5  -7   0   32.38    4.33
  -5   7   0   39.87   10.72
  -7   5   0   15.56    9.22
  -2   7   0   35.91    9.33
   7  -5   0   41.11    4.99
  -1   0  -1   87.20   10.09
   1  -1  -1   77.76    8.09
  -1   0  -1   87.87    8.54
  -1   1   1   84.82    9.02
   1   0   1   85.58   10.14
   1   0   1   83.72    8.07
  -1   1   1   84.14    9.85
  -1   3  -1    3.44    2.31
   3  -2  -1    4.61    1.13
  -2  -1  -1    6.92    1.61
  -3   2   1    1.95    3.54
   2   1   1    5.95    2.64
   1  -3   1    4.80    0.82
  -3   2   1    6.29    3.51
  -2   2  -1   11.58    3.84
   2   0  -1   17.72    1.97
  -2   2  -1   13.11    4.38
   2   0  -1   24.09    3.89
   2   0  -1   17.81    2.26
   2  -2   1   15.86    2.06
  -2   0   1   20.74    3.02
  -2   5  -1    0.15    3.74
   5  -3  -1    0.32    1.33
   3   2   1   -0.53    3.03
   2  -5   1   -0.13    0.98
  -5   3   1   -7.16    4.48
  -3   1  -1    0.65    3.57
  -3   1  -1    5.90    3.26
   2  -3  -1    3.31    0.92
   3  -1   1    3.93    1.03
  -2   3   1    1.96    2.91
  -2   3   1    1.91    2.79
  -3   4  -1    2.02    3.72
   4  -1  -1    1.35    1.07
  -3   4  -1   -2.00    3.52
   3  -4   1    0.50    1.11
  -4   1   1    1.25    3.46
   7  -4  -1    7.19    2.40
  -3   7  -1   12.80    7.13
  -7   4   1   12.15    7.97
   4  -4  -1    2.68    1.37
  -4   0  -1    0.69    3.60
  -4   4   1    3.33    4.99
  -4   4   1    7.64    4.96
   3   1  -1    4.18    2.89
  -4   3  -1    0.74    4.48
   1  -4  -1    2.05    0.74
  -4   3  -1    4.98    4.51
  -3  -1   1    2.55    2.23
   4  -3   1    2.12    1.23
  -1   4   1    2.65    2.48
  -4   6  -1   -2.14    5.46
   6  -2  -1    2.97    1.51
  -6   2   1   -1.32    6.18
   4  -6   1    1.91    1.55
   6  -5  -1    2.93    1.81
  -1   6  -1    0.93    5.37
  -6   5   1   -0.98    6.30
   3  -5  -1   -0.19    1.09
  -5   2  -1    4.73    4.97
  -3   5   1    0.71    4.22
   5  -2   1    0.31    1.29
  -5   5  -1    7.61    6.63
  -5   5  -1    3.99    5.76
  -5   0   1   -1.45    4.70
   5  -5   1    0.13    1.44
   5  -6  -1    1.61    1.73
  -6   1  -1   -0.64    6.03
  -5   6   1    5.17    6.70
  -5   6   1    6.65    5.24
  -6   4  -1    3.88    6.64
   6  -4   1    3.30    1.71
  -2   6   1   -2.00    4.75
  -7   3  -1    3.49    7.48
   7  -3   1   13.75    2.55
  -4   7   1    8.22    7.14
   1   0  -2  108.14   10.00
   1   0  -2  104.60   11.79
  -1   1  -2  112.97   12.56
   1   0  -2   96.57   11.37
  -1   1  -2  104.24   11.14
   1  -1   2  101.87   10.04
  -1   0   2  103.58   11.90
  -2   0  -2  354.72   36.33
   2  -2  -2  373.51   35.86
  -2   2   2  384.34   36.82
   2   0   2  372.53   41.47
  -2   2   2  361.21   41.47
   2   0   2  389.00   35.80
  -2   3  -2  237.85   23.47
  -2   3  -2  199.26   26.44
   3  -1  -2  241.46   22.48
  -3   1   2  235.03   23.55
   2  -3   2  237.72   22.45
  -3   1   2  231.92   26.83
   4  -3  -2  154.56   15.86
  -1   4  -2  152.51   18.92
  -3  -1  -2  166.01   16.63
   1  -4   2  168.61   15.61
  -4   3   2  150.17   20.16
  -4   3   2  150.03   17.85
   3   1   2  174.25   19.08
   1  -3  -2  235.28   21.92
   2   1  -2  229.78   25.42
  -3   2  -2  216.53   26.64
  -3   2  -2  221.34   23.73
   2   1  -2  230.28   24.93
   3  -2   2  231.16   22.09
  -1   3   2  216.91   25.41
   5  -2  -2   75.05    7.48
  -3   5  -2   64.10   10.90
  -5   2   2   65.09   10.35
   3  -5   2   72.60    7.36
  -2   6  -2   26.24    7.32
   6  -4  -2   29.37    3.84
  -6   4   2   25.88    7.91
   3  -4  -2  166.10   15.58
  -4   1  -2  154.91   17.27
  -3   4   2  142.35   19.25
   4  -1   2  162.74   15.55
  -3   4   2  150.19   17.09
  -4   4  -2  159.37   19.20
  -4   4  -2  160.99   21.27
  -4   0   2  179.75   18.09
   4  -4   2  170.78   16.67
  -4   7  -2   13.29    7.39
   7  -3  -2    4.81    1.98
  -7   3   2   10.64    7.25
   5  -5  -2   54.65    5.78
  -5   0  -2   56.56    9.09
  -5   5   2   51.54   10.81
  -5   5   2   34.02    8.90
  -5   3  -2   66.77   11.43
   3   2  -2   97.54   10.01
   3   2  -2   75.78    8.83
   5  -3   2   74.88    8.09
  -2   5   2   76.73   10.92
  -5   6  -2   25.38    8.89
  -5   6  -2   22.68    6.48
  -6   1   2   21.29    7.45
   5  -6   2   31.78    3.90
   4  -6  -2   35.81    4.40
  -6   2  -2   32.41    8.51
  -4   6   2   39.39    9.09
   6  -2   2   36.01    4.29
  -6   5  -2   18.43    8.17
   6  -5   2   32.85    4.24
  -7   4  -2   15.25    8.28
  -3   7   2    7.64    6.73
   7  -4   2    7.30    2.36
   0   0  -3    2.44    1.03
   0   0  -3    2.50    1.01
   0   0   3    4.27    0.76
   0   0   3    3.34    1.13
   2  -1  -3   43.02    5.49
  -1   2  -3   58.41    5.78
  -1   2  -3   53.60    6.91
   2  -1  -3   50.49    4.86
  -2   1   3   53.21    6.79
   1  -2   3   45.78    4.78
  -2   1   3   50.98    6.11
   1  -2  -3   51.31    5.10
  -2   1  -3   58.50    7.23
   1   1  -3   56.85    6.19
   1   1  -3   42.07    6.06
  -2   1  -3   55.23    8.14
  -1   2   3   48.46    6.46
  -1  -1   3   50.13    5.13
   2  -1   3   53.29    5.22
  -1   2   3   59.02    6.05
  -2   4  -3   88.09   12.57
   4  -2  -3   98.59    9.65
  -4   2   3  105.41   13.69
  -4   2   3  111.91   12.43
   2  -4   3   93.11    9.48
   3  -3  -3   72.74    7.56
  -3   0  -3   70.23    8.96
   0   3  -3   71.02    9.29
   3   0   3   77.20    7.39
  -3   3   3   76.32   10.62
   3   0   3   85.88   10.54
  -3   3   3   74.93    9.81
   3   0  -3  129.84   15.57
   3   0  -3  160.99   16.70
   3   0  -3  136.42   13.63
  -3   3  -3  144.29   16.16
  -3   3  -3  125.22   17.55
  -3   0   3  161.59   14.72
   3  -3   3  146.06   13.82
  -3   6  -3    7.72    5.68
   6  -3  -3   10.68    2.14
  -6   3   3    2.53    6.17
   5  -4  -3   46.07    5.06
  -1   5  -3   39.73    7.74
  -5   4   3   41.41    8.57
  -5   4   3   45.63    9.65
  -4   2  -3   99.61   14.51
   2  -4  -3  103.34    9.91
   2   2  -3  113.83   11.70
   2   2  -3   97.99   11.19
  -4   2  -3  114.34   13.26
  -2  -2   3   96.73    9.97
  -2   4   3   95.09   12.69
   4  -2   3   95.73   10.09
   5  -1  -3   29.99    3.63
  -4   5  -3   28.49    7.61
  -4   5  -3   29.56    6.29
  -5   1   3   36.57    7.01
   4  -5   3   33.40    3.83
  -2   7  -3   -2.21    7.02
   7  -5  -3    3.29    2.07
  -7   5   3   -5.17    7.19
  -5   1  -3   45.35    8.22
   4  -5  -3   43.57    4.82
  -4   5   3   48.17    8.77
   5  -1   3   43.08    4.61
  -4   5   3   29.83    6.84
  -5   4  -3   41.60    8.83
   5  -4   3   40.22    4.80
  -1   5   3   38.98    6.50
  -5   7  -3    3.67    8.02
   5  -7   3    9.51    2.38
  -7   2   3   -0.91    7.28
   6  -6  -3   14.42    2.82
  -6   6   3    4.55    6.83
  -6   3  -3    8.16    6.62
   6  -3   3   11.09    2.29
  -3   6   3    6.24    5.15
  -6   6  -3    7.42    7.07
   6  -6   3   12.27    2.69
   5  -7  -3   -0.94    1.92
  -7   2  -3   20.94    8.45
  -5   7   3    0.69    7.83
  -7   5  -3   -2.43    7.52
   7  -5   3    5.56    2.34
  -2   7   3   -0.16    6.32
   0   1  -4  400.74   36.63
   0   1  -4  360.28   42.03
   1  -1  -4  371.61   36.66
  -1   0  -4  367.65   42.06
   1  -1  -4  372.74   41.63
  -1   0  -4  378.66   37.22
   1   0   4  410.48   36.68
  -1   1   4  387.08   37.04
   0  -1   4  390.96   36.62
   1   0   4  355.17   42.15
  -1   1   4  400.59   41.91
  -2  -1  -4   55.43    5.68
   3  -2  -4   47.26    4.96
  -1   3  -4   39.98    6.92
   2   1   4   57.16    6.73
  -3   2   4   49.19    6.88
  -3   2   4   51.74    7.54
   1  -3   4   44.32    4.77
   2   0  -4  271.09   29.06
   2   0  -4  248.77   28.54
  -2   2  -4  264.33   30.03
  -2   2  -4  245.53   26.56
   2   0  -4  269.73   25.09
   2  -2   4  251.52   25.17
  -2   0   4  278.49   25.58
  -2   5  -4   19.77    5.97
   5  -3  -4   20.61    3.26
   3   2   4   39.72    5.90
   2  -5   4   27.94    3.08
  -5   3   4   40.56    7.39
  -3   1  -4   58.08    8.43
   1   2  -4   41.37    6.03
  -3   1  -4   55.45    7.30
   2  -3  -4   46.23    4.84
   3  -1   4   49.88    4.95
  -2   3   4   46.25    6.78
  -2   3   4   47.32    5.50
  -2   3   4   46.61    6.36
  -3   4  -4   22.59    5.97
   4  -1  -4   25.07    2.94
  -3   4  -4   22.44    5.32
   3  -4   4   25.26    2.98
  -4   1   4   22.98    5.17
  -3   7  -4   10.50    7.93
   7  -4  -4   20.50    3.10
  -7   4   4   12.11    8.16
   0   4  -4   30.92    5.14
   4  -4  -4   25.71    3.46
  -4   0  -4   30.40    5.63
  -4   4   4   34.94    7.27
  -4   4   4   23.64    6.52
   1  -4  -4   21.76    2.67
  -4   3  -4   27.45    6.98
   3   1  -4   23.14    3.15
   3   1  -4   26.44    4.39
  -4   3  -4   22.58    6.72
  -1   4   4   18.87    4.04
  -3  -1   4   31.79    4.11
   4  -3   4   28.38    3.20
   6  -2  -4   30.45    3.68
  -4   6  -4   16.50    7.60
   4  -6   4   30.75    3.75
  -6   2   4   15.02    7.16
   6  -5  -4   11.61    2.37
  -1   6  -4    9.31    6.02
  -6   5   4   -3.06    6.53
  -5   2  -4   16.25    6.35
   3  -5  -4   28.05    3.34
  -3   5   4   26.14    6.37
   5  -2   4   28.10    3.47
  -5   5  -4    6.67    6.48
  -5   5  -4    5.99    6.06
   5  -5   4    9.71    2.12
  -5   0   4    9.16    5.19
   5  -6  -4   14.97    2.69
  -6   1  -4    3.37    6.44
  -5   6   4   16.24    5.84
  -5   6   4    9.58    7.24
  -6   4  -4   23.45    8.32
  -2   6   4   20.69    6.29
   6  -4   4   28.79    3.88
  -7   3  -4   21.00    8.13
  -4   7   4   15.50    7.86
   7  -3   4   19.04    3.08
   1   0  -5  602.73   58.10
  -1   1  -5  616.90   58.81
   1   0  -5  601.44   66.10
   0  -1  -5  613.58   58.40
  -1   1  -5  596.41   66.79
  -1   0   5  607.57   66.24
   1  -1   5  617.96   58.15
   0   1   5  578.49   66.03
   0   1   5  651.82   58.22
  -1   0   5  588.84   58.28
  -2   0  -5  296.56   29.99
   0   2  -5  274.05   33.63
   2  -2  -5  307.10   29.21
  -2   2   5  324.49   33.90
   2   0   5  274.37   33.95
   2   0   5  317.44   29.19
  -2   2   5  328.34   30.12
   0  -2   5  303.86   29.11
   3  -1  -5   87.77   10.15
   3  -1  -5   93.39    8.93
  -2   3  -5   88.45   12.14
  -2   3  -5  100.35   10.47
   2  -3   5   89.79    8.91
  -3   1   5   83.67   11.61
  -3   1   5   87.25   10.06
  -1   4  -5   64.20    9.43
   4  -3  -5   58.91    6.75
  -3  -1  -5   75.55    8.37
   1  -4   5   66.78    6.54
   3   1   5   79.92    9.61
  -4   3   5   59.37    9.27
  -4   3   5   63.57   10.18
  -3   2  -5  100.06   12.32
   1  -3  -5   99.02    9.34
   2   1  -5  117.55   11.29
  -3   2  -5  103.50   13.62
   2   1  -5   89.04   10.67
  -1   3   5   99.82   11.15
  -2  -1   5   95.52    9.63
  -1   3   5   89.42   10.55
   3  -2   5   89.42    9.51
   5  -2  -5   52.46    5.90
  -3   5  -5   55.40    9.51
  -5   2   5   67.96    9.23
   3  -5   5   57.04    5.86
   6  -4  -5   44.88    5.29
  -2   6  -5   53.97    9.69
  -6   4   5   38.62    9.12
  -4   1  -5   75.85    9.61
   3  -4  -5   67.91    6.74
   1   3  -5   61.77    8.33
  -3   4   5   59.35    8.57
   4  -1   5   65.33    6.69
  -3   4   5   61.63    9.74
   4   0  -5   45.86    5.83
  -4   4  -5   34.45    8.40
  -4   4  -5   42.98    9.28
   4  -4   5   51.59    5.30
  -4   0   5   58.46    7.29
   7  -3  -5   35.25    4.44
  -4   7  -5   29.55    9.74
  -7   3   5   23.57    8.94
  -5   0  -5   24.15    6.68
   5  -5  -5   28.24    3.68
  -5   5   5   27.64    8.10
  -5   5   5   17.97    6.93
  -5   3  -5   66.55   10.87
   3   2  -5   62.90    7.21
   5  -3   5   62.65    6.73
  -2   5   5   57.23    9.09
  -5   6  -5   25.97    8.96
  -5   6  -5   27.03    6.60
  -6   1   5   32.42    7.66
   5  -6   5   23.25    3.48
   4  -6  -5   45.55    5.35
  -6   2  -5   45.33    9.39
   6  -2   5   47.15    5.27
  -4   6   5   49.04    9.68
  -6   5  -5   11.77    7.99
   6  -5   5   27.05    3.87
  -1   6   5   32.58    6.53
  -7   4  -5   31.67    9.60
  -3   7   5   23.50    7.68
   7  -4   5   30.32    4.24
   0   0  -6   -2.30    1.71
   0   0  -6   -3.43    1.60
   0   0   6    0.08    1.11
   2  -1  -6    0.78    0.82
  -1   2  -6    2.56    3.14
  -1  -1  -6    0.71    1.95
   2  -1  -6    0.39    0.69
  -1   2  -6    2.52    2.40
  -2   1   6    0.33    2.03
  -2   1   6    5.70    2.26
   1   1   6    1.61    2.00
   1  -2   6    0.71    0.72
   1  -2  -6    1.94    0.86
  -2   1  -6    0.41    3.58
  -2   1  -6    4.15    3.66
   1   1  -6    1.09    1.73
  -1  -1   6    0.78    1.15
   2  -1   6    1.19    0.85
  -1   2   6    4.13    2.13
  -1   2   6    1.97    0.79
   4  -2  -6   42.55    4.71
  -2   4  -6   30.44    7.32
  -4   2   6   48.75    7.30
   2  -4   6   43.88    4.63
  -4   2   6   51.37    8.15
   2   2   6   49.44    6.41
  -3   0  -6   35.85    5.96
   3  -3  -6   35.59    4.04
   0   3  -6   32.07    5.59
  -3   3   6   43.08    6.72
   3   0   6   37.66    3.92
   3   0   6   40.22    6.51
   0  -3   6   36.51    3.76
  -3   3   6   40.79    6.30
   3   0  -6   26.81    3.59
  -3   3  -6   25.53    6.41
  -3   3  -6   31.82    7.01
   3   0  -6   27.52    2.99
   3   0  -6   40.63    5.07
  -3   0   6   26.35    4.33
   3  -3   6   25.37    3.26
   0   3   6   27.05    3.30
  -3   6  -6    0.82    5.87
   6  -3  -6    1.49    1.61
  -6   3   6   -4.30    5.49
  -1   5  -6   12.84    4.99
   5  -4  -6    7.17    1.89
  -5   4   6    7.79    5.56
   2   2  -6   49.84    5.68
  -4   2  -6   47.05    8.39
   2  -4  -6   46.72    4.81
   4  -2   6   43.27    4.98
  -2   4   6   41.29    6.76
  -2   4   6   49.21    5.46
  -2  -2   6   39.56    5.03
  -4   5  -6   14.91    5.36
  -4   5  -6   13.71    6.81
   5  -1  -6   22.39    2.55
   4  -5   6   16.28    2.66
  -5   1   6   17.64    5.64
   7  -5  -6    0.26    1.89
  -2   7  -6  -13.36    7.31
  -7   5   6   -0.48    7.75
   4  -5  -6    9.22    1.99
  -5   1  -6    9.93    5.75
  -4   5   6    1.44    4.52
  -4   5   6    9.07    5.45
   5  -1   6   10.24    1.73
   4   1  -6   20.50    3.08
  -5   4  -6    7.68    6.85
  -4  -1   6   23.00    4.73
  -1   5   6   23.05    2.91
   5  -4   6   19.70    3.10
  -1   5   6   16.62    4.43
  -5   7  -6   -7.39    7.45
   5  -7   6   -1.55    1.80
  -7   2   6   -7.02    6.76
   6  -6  -6    4.95    2.12
  -6   6   6   -6.73    6.49
   3   3  -6    0.52    1.15
  -6   3  -6    4.56    6.68
  -3   6   6   -2.46    4.60
   6  -3   6   -0.38    1.67
  -6   6  -6    0.31    6.89
   6  -6   6    3.29    1.98
  -7   2  -6   -0.76    7.46
   5  -7  -6    0.70    2.05
  -5   7   6    3.69    7.61
  -7   5  -6   -8.88    7.66
  -2   7   6    3.90    6.29
   7  -5   6   -0.77    2.09
  -1   0  -7   70.26    9.63
   1  -1  -7   73.08    8.52
  -1   0  -7   85.67    8.98
   0   1  -7   82.83    9.87
   0   1  -7   75.40    7.73
   1  -1  -7   77.89    7.59
   1   0   7   77.00    9.79
   0  -1   7   74.19    7.53
   1   0   7   78.13    7.69
  -1   1   7   74.29    8.11
  -2  -1  -7  211.82   21.76
   3  -2  -7  254.37   23.89
  -1   3  -7  195.33   24.99
   3  -2  -7  209.96   21.01
   1  -3   7  222.52   20.95
  -3   2   7  187.29   22.03
   2   1   7  199.86   24.67
  -3   2   7  214.10   24.95
  -2   2  -7  270.58   26.82
   2   0  -7  271.66   25.27
   2   0  -7  261.71   28.79
   0  -2  -7  242.28   25.67
  -2   2  -7  250.51   30.41
   0   2   7  270.20   28.73
  -2   0   7  249.35   29.28
   2  -2   7  272.51   25.38
   5  -3  -7   59.61    6.79
  -2   5  -7   55.28   10.19
  -5   3   7   58.18    9.76
   3   2   7   77.81    9.54
   2  -5   7   66.58    6.63
   2  -3  -7  229.91   21.48
  -3   1  -7  219.48   26.31
  -3   1  -7  212.25   23.22
   1   2  -7  177.06   24.92
  -2   3   7  218.91   24.39
  -1  -2   7  239.03   21.49
  -2   3   7  225.87   22.40
   3  -1   7  225.65   21.54
  -2   3   7  234.54   25.19
   4  -1  -7  158.62   14.89
  -3   4  -7  132.43   19.54
   4  -1  -7  148.26   16.98
  -3   4  -7  141.57   16.66
  -4   1   7  142.32   16.24
   3  -4   7  161.33   14.98
  -3   7  -7    4.03    8.00
   7  -4  -7    8.97    2.31
  -7   4   7   12.94    7.79
   4  -4  -7  138.21   13.54
   0   4  -7  135.71   16.49
  -4   0  -7  120.31   15.42
  -4   4   7  146.76   17.81
  -4   4   7  136.99   15.89
   1  -4  -7  177.12   17.36
  -4   3  -7  161.35   23.06
   3   1  -7  219.79   20.68
   3   1  -7  171.20   19.80
  -4   3  -7  159.73   20.69
   4  -3   7  170.91   17.61
  -1   4   7  175.81   20.30
  -1   4   7  183.44   19.70
   6  -2  -7   32.90    3.96
  -4   6  -7   32.49    8.91
  -6   2   7   23.82    7.39
   4  -6   7   33.05    4.07
  -1   6  -7   27.81    7.87
   6  -5  -7   36.91    4.52
  -6   5   7   20.17    8.13
  -5   2  -7   71.70   11.01
   3  -5  -7   73.20    7.24
   2   3  -7   75.38    8.36
   5  -2   7   62.27    7.30
  -3   5   7   62.28   10.40
  -5   5  -7   53.10   10.18
  -5   5  -7   62.27   11.90
   5  -5   7   57.46    6.53
  -5   0   7   75.97    9.58
  -6   1  -7   21.68    8.18
   5  -6  -7   33.15    4.27
  -5   6   7   41.64    9.85
  -5   6   7   26.00    6.72
  -6   4  -7   31.42    9.19
   4   2  -7   37.54    4.61
  -2   6   7   30.75    7.17
   6  -4   7   33.35    4.61
  -7   3  -7   23.24    8.83
  -4   7   7    4.08    6.86
   7  -3   7    7.69    2.35
   1   0  -8    0.60    1.42
  -1   1  -8    2.23    2.89
   0  -1  -8    2.03    2.35
  -1   1  -8   -1.39    2.95
   1   0  -8   -0.48    0.78
  -1   0   8   -0.75    1.39
   1  -1   8    2.50    0.89
   0   1   8    0.99    1.60
   0   1   8   -0.02    1.30
   0   2  -8   -1.17    2.55
  -2   0  -8   -2.34    3.03
   0   2  -8   -0.27    0.54
   2  -2  -8    1.06    0.88
   2  -2  -8    1.03    0.88
   2   0   8    0.83    1.11
   2   0   8   -1.90    3.08
  -2   2   8   -4.82    1.86
  -2   2   8   -2.32    2.28
   0  -2   8    0.60    0.70
  -2   3  -8   23.51    5.90
   3  -1  -8   26.23    2.77
  -1  -2  -8   24.38    3.58
   3  -1  -8   24.57    3.14
  -2   3  -8   29.38    4.94
   1   2   8   19.63    3.48
  -3   1   8   20.71    4.59
   2  -3   8   18.47    2.69
  -3   1   8   19.06    3.96
  -3  -1  -8   22.02    4.98
   4  -3  -8   21.89    2.97
  -1   4  -8   19.47    5.45
   3   1   8   26.17    5.27
  -4   3   8   21.76    5.48
   1  -4   8   22.94    2.69
  -4   3   8   22.70    6.14
   2   1  -8   21.92    3.39
   1  -3  -8   25.57    2.89
  -3   2  -8   22.07    6.15
  -3   2  -8   30.68    7.18
  -2  -1   8   17.17    3.21
  -1   3   8   25.15    3.14
   3  -2   8   26.29    3.03
  -3   5  -8   13.17    5.99
  -3   5  -8    6.44    3.09
   5  -2  -8   12.07    2.03
   3  -5   8   10.27    1.89
  -5   2   8    7.71    4.89
   6  -4  -8   -2.24    1.49
  -2   6  -8   -4.66    5.76
  -6   4   8    3.89    6.37
   1   3  -8   12.54    4.21
   3  -4  -8   21.85    2.75
  -4   1  -8   19.28    5.77
   4  -1   8   22.41    2.74
  -3   4   8   28.96    5.44
  -3   4   8   19.86    4.80
  -4   4  -8    7.62    6.93
   4   0  -8   14.92    2.57
  -4   4  -8   11.88    6.34
   4   0  -8   14.13    1.91
   4  -4   8   18.57    2.60
  -4   0   8   11.32    4.03
   0   4   8   17.98    2.46
  -4   7  -8   -5.10    7.48
   7  -3  -8    0.89    1.81
  -7   3   8   -1.36    6.51
   0   5  -8    7.09    4.41
  -5   0  -8    0.70    5.88
   5  -5  -8    6.30    1.87
  -5   5   8   -4.86    5.89
  -5   5   8   13.64    6.45
  -5   3  -8    9.49    6.58
   3   2  -8   16.38    2.44
  -2   5   8   12.16    4.34
   5  -3   8   12.60    2.52
  -5   6  -8   -4.36    7.13
  -5   6  -8    0.59    5.33
   5  -6   8    2.11    1.69
  -6   1   8    1.63    5.69
  -6   2  -8    1.95    6.46
   2   4  -8    1.96    1.81
   4  -6  -8   -0.91    1.63
   6  -2   8    0.07    1.44
  -4   6   8   -0.45    5.60
  -6   5  -8   -3.95    7.16
   6  -5   8    0.00    1.80
  -1   6   8    1.10    4.15
   4   3  -8    1.76    1.72
  -7   4  -8    0.81    7.71
   7  -4   8   -1.33    2.07
  -3   7   8   -4.94    5.70
   0   0  -9  866.99  101.63
   0   0  -9  923.73   89.56
   0   0   9 1000.00   89.33
   2  -1  -9  276.03   27.33
  -1   2  -9  313.72   32.37
   2  -1  -9  287.31   31.09
  -1  -1  -9  261.64   27.96
  -2   1   9  284.29   27.97
  -2   1   9  287.90   31.58
   1  -2   9  285.38   27.35
  -2   1  -9  282.36   34.61
   1  -2  -9  309.63   29.49
  -2   1  -9  294.92   30.79
   1   1  -9  305.90   29.28
   1   1  -9  288.78   33.89
  -1   2   9  301.14   29.85
   2  -1   9  310.43   29.44
  -1  -1   9  318.81   29.58
  -1   2   9  313.44   33.43
   4  -2  -9   78.96    8.35
  -2   4  -9   75.12    8.88
  -2   4  -9   72.10   11.93
  -4   2   9   78.45   10.49
   2  -4   9   89.37    8.31
   2   2   9   90.29   11.09
   3  -3  -9   75.70    7.34
   0   3  -9   79.75    9.90
  -3   0  -9   77.73    9.84
   3   0   9   63.56    7.32
   0  -3   9   70.60    7.15
   3   0   9   81.43   10.76
  -3   3   9   75.89   10.18
  -3   3   9   67.66    9.23
   0  -3  -9   82.14    9.38
  -3   3  -9   99.13   13.73
   3   0  -9   86.38    9.83
   3   0  -9   87.07    8.51
  -3   3  -9  114.53   12.58
  -3   0   9   83.90    9.61
   3  -3   9   83.77    8.74
   0   3   9   83.77    9.84
  -3   6  -9   39.51    9.71
   6  -3  -9   40.76    4.97
   3  -6   9   46.03    4.98
  -6   3   9   42.01    8.85
   5  -4  -9   42.54    4.86
  -1   5  -9   38.10    7.74
  -5   4   9   40.01    8.04
   2  -4  -9   84.84    8.53
  -4   2  -9   77.58   11.96
   2   2  -9  101.29   10.20
  -2   4   9   83.41   10.97
   4  -2   9   83.71    8.71
  -2  -2   9   73.75    8.82
  -4   5  -9   21.53    6.35
  -4   5  -9   30.19    8.23
   5  -1  -9   30.53    3.51
   4  -5   9   29.84    3.83
  -5   1   9   37.05    6.54
   4  -5  -9   44.67    5.02
   1   4  -9   48.76    7.11
  -5   1  -9   37.74    8.21
   5  -1   9   44.78    4.79
  -4   5   9   41.80    8.56
  -4   5   9   30.98    7.02
  -5   4  -9   21.99    8.56
   4   1  -9   32.89    4.37
   5  -4   9   32.66    4.19
  -4  -1   9   21.39    5.45
  -1   5   9   39.45    5.64
   6  -6  -9   20.23    3.41
   0   6  -9   16.94    6.02
  -6   6   9   22.63    8.11
   3   3  -9   54.94    6.18
  -6   3  -9   30.67    9.18
   6  -3   9   50.97    5.88
  -3   6   9   38.94    8.57
  -6   6  -9   20.48    8.24
   6  -6   9   18.25    3.16
   1  -1 -10  250.54   24.33
  -1   0 -10  270.00   25.28
  -1   0 -10  231.65   28.21
   1  -1 -10  274.39   27.56
   0   1 -10  268.75   28.53
   0   1 -10  207.67   24.42
   0  -1  10  274.14   24.36
   1   0  10  235.39   24.38
  -1   3 -10   49.17    5.62
   3  -2 -10   50.68    6.15
   3  -2 -10   45.72    5.36
  -2  -1 -10   59.31    7.41
  -1   3 -10   50.38    8.11
  -3   2  10   62.84    7.89
   1  -3  10   53.23    5.34
   2   1  10   58.84    8.14
  -3   2  10   52.77    7.18
   2   0 -10   57.44    6.91
   0  -2 -10   58.18    7.02
  -2   2 -10   66.86    9.79
   2   0 -10   56.18    5.83
  -2   2 -10   78.31    8.86
   2  -2  10   58.62    6.00
  -2   0  10   54.28    7.47
   0   2  10   56.83    6.94
  -2   0  10   58.01    6.54
  -2   5 -10    6.01    5.25
   5  -3 -10   10.40    2.07
   2  -5  10   10.78    1.90
  -5   3  10    5.13    4.89
   1   2 -10   52.35    7.43
  -3   1 -10   54.19    8.83
   2  -3 -10   50.24    5.38
  -3   1 -10   59.15    8.62
   3  -1  10   44.10    5.35
  -2   3  10   52.87    6.79
  -1  -2  10   53.01    5.59
  -2   3  10   56.18    6.13
  -2   3  10   46.82    6.95
  -3   4 -10   10.37    4.85
   4  -1 -10    6.76    1.52
   4  -1 -10    9.89    2.02
  -3   4 -10    3.84    5.65
   1   3  10    7.98    2.54
   3  -4  10    8.07    1.76
  -4   1  10    3.75    3.51
  -3   7 -10   -0.22    8.72
   7  -4 -10   17.63    2.97
  -7   4  10   20.56    8.14
  -4   0 -10    5.39    5.08
   4  -4 -10    8.87    1.95
   0   4 -10   13.47    4.34
  -4   4  10    5.71    4.74
  -4   4  10   13.07    5.32
  -4   3 -10    8.91    7.27
   1  -4 -10    9.48    1.83
   3   1 -10    8.41    2.05
  -4   3 -10   12.90    6.24
   4  -3  10   10.85    2.06
  -1   4  10    7.68    2.74
  -1   4  10   11.26    2.00
  -4   6 -10   16.06    7.63
   6  -2 -10   10.46    2.08
  -6   2  10   12.37    6.17
   4  -6  10    8.71    2.18
   6  -5 -10   10.25    2.41
  -1   6 -10    8.44    5.96
  -6   5  10   -3.67    6.45
  -5   2 -10   -1.54    5.72
   3  -5 -10    9.91    1.93
   2   3 -10   13.30    2.91
   5  -2  10    9.22    2.07
  -3   5  10    8.75    4.55
  -5   5 -10    2.96    6.71
   5   0 -10   11.21    2.55
  -5   0  10   13.45    5.03
   0   5  10    8.61    3.07
   5  -5  10   12.48    2.41
   1   5 -10   15.61    4.31
   5  -6 -10    5.80    2.26
  -6   1 -10    3.67    7.00
  -5   6  10    9.62    7.31
  -6   4 -10    4.72    7.64
   4   2 -10   14.03    2.56
  -2   6  10   14.30    5.15
   6  -4  10   12.49    2.84
  -7   3 -10   -0.34    7.52
  -4   7  10    4.06    6.76
   7  -3  10   18.51    2.87
  -1   1 -11   38.18    5.67
   0  -1 -11   36.33    5.05
  -1   1 -11   45.38    6.40
   1   0 -11   34.80    4.80
   1   0 -11   32.09    3.81
   0  -1 -11   37.19    4.49
   0   1  11   23.19    4.48
   0   1  11   43.39    4.42
   1  -1  11   38.27    3.85
  -1   0  11   24.26    4.11
   2  -2 -11  128.30   13.43
   0   2 -11  127.92   14.99
  -2   0 -11  110.96   13.56
   0   2 -11  129.99   11.82
   2  -2 -11  122.18   11.91
   2   0  11  135.74   15.51
   0  -2  11  123.00   11.85
   2   0  11   93.38   11.94
  -2   2  11  112.74   12.81
  -2   2  11  120.40   14.14
  -2   3 -11  105.51   13.51
   3  -1 -11   93.49   10.36
   3  -1 -11   95.46    9.07
  -1  -2 -11   90.22   10.25
  -2   3 -11   85.40   11.03
  -3   1  11   82.76   11.58
   2  -3  11   93.86    9.15
  -3   1  11   88.25   10.26
   1   2  11   77.13   10.86
   4  -3 -11   79.24    7.87
  -3  -1 -11   94.73   10.85
  -1   4 -11   87.58   11.42
  -4   3  11   59.70    9.91
   1  -4  11   73.70    7.71
  -4   3  11   65.74   10.97
  -3   2 -11  129.62   15.91
  -3   2 -11  109.88   13.83
   2   1 -11  103.16   12.29
   1  -3 -11  106.74   10.66
   2   1 -11  102.92   10.23
   3  -2  11  105.22   10.58
  -1   3  11  103.69   11.96
   5  -2 -11   35.54    4.29
  -3   5 -11   31.88    8.72
  -3   5 -11   36.50    5.37
  -5   2  11   28.91    6.80
   2   3  11   39.10    6.73
   3  -5  11   37.82    4.36
  -2   6 -11    7.33    6.80
   6  -4 -11   11.90    2.55
  -6   4  11   13.67    6.68
   3  -4 -11   75.89    7.64
  -4   1 -11   74.01   10.83
   1   3 -11   79.74   10.33
  -3   4  11   72.09    9.44
  -3   4  11   64.00   10.20
   4  -1  11   70.27    7.60
  -1  -3  11   79.34    7.79
  -4   4 -11   89.90   14.78
  -4   4 -11   76.76   12.70
   4   0 -11   89.20   10.32
   4   0 -11   88.53    8.80
  -4   0  11   95.42   10.97
   0   4  11   93.42   10.51
   4  -4  11   84.09    9.18
   0   5 -11   15.13    5.44
   5  -5 -11   19.90    3.07
  -5   0 -11   31.57    7.71
  -5   5  11   14.40    6.43
  -5   5  11   16.49    7.13
   3   2 -11   54.18    6.21
  -5   3 -11   38.17    9.65
   5  -3  11   46.78    5.76
  -2   5  11   41.67    7.37
  -5   6 -11    7.85    5.90
  -5   6 -11   19.12    8.83
  -6   1  11    6.75    5.95
   5  -6  11   11.81    2.45
  -6   2 -11   14.23    6.97
   2   4 -11   14.66    3.31
   4  -6 -11   12.59    2.58
  -4   6  11    9.99    6.27
   6  -2  11   14.07    2.51
  -6   5 -11   15.25    8.57
   5   1 -11   12.93    2.80
  -1   6  11   17.28    4.93
   6  -5  11   14.13    2.87
   0   0 -12   22.81    4.16
   0   0 -12   25.06    4.04
   0   0  12   18.61    3.05
  -1   2 -12   82.39   10.48
   2  -1 -12   92.66    9.36
   2  -1 -12   94.72   10.65
  -1  -1 -12   93.82   10.74
  -1   2 -12  118.50   12.77
   1  -2  12   95.79    9.35
   1   1  12   73.18   11.34
   1   1  12   97.72    9.54
  -2   1  12   93.94   11.34
  -2   1  12   98.34   10.31
  -2   1 -12  109.43   12.95
   1  -2 -12  103.20   10.83
  -2   1 -12  112.35   14.12
   1   1 -12  116.25   13.06
   1   1 -12  107.79   10.44
  -1  -1  12  117.98   10.85
  -1   2  12  102.45   12.18
   2  -1  12   92.94   10.57
  -1   2  12  107.50   11.25
  -2   4 -12   82.47    9.51
  -2   4 -12   79.72   12.76
   4  -2 -12   97.27   10.06
   4  -2 -12   89.21    8.81
  -4   2  12   65.61   10.53
   2   2  12   86.35   11.73
   2  -4  12   82.59    8.76
   3  -3 -12   91.59    9.72
  -3   0 -12   83.20   12.11
   0   3 -12  101.56   12.78
  -3   3  12   96.22   11.75
   3   0  12  103.97    9.83
  -3   3  12   89.71   12.46
   0  -3  12   98.36    9.63
   3   0 -12  167.09   16.48
   3   0 -12  177.11   18.96
  -3   3 -12  185.35   22.49
   0  -3 -12  197.02   17.53
  -3   3 -12  174.68   19.62
   0   3  12  153.45   18.98
   3  -3  12  158.77   16.70
  -3   0  12  173.66   17.58
   6  -3 -12   12.18    2.55
  -3   6 -12   16.97    8.17
   3  -6  12   16.94    2.71
  -6   3  12   14.85    6.42
  -1   5 -12   52.93    9.02
   5  -4 -12   47.19    5.51
  -5   4  12   44.03    8.69
   2   2 -12   90.28   11.75
  -4   2 -12   89.61   13.41
   2  -4 -12  107.79    9.84
  -2   4  12   86.82   12.08
   4  -2  12   94.33    9.91
  -2  -2  12   99.30   10.26
  -4   5 -12   47.86   10.58
   5  -1 -12   47.37    4.97
   5  -1 -12   45.98    6.05
  -4   5 -12   42.05    8.12
  -5   1  12   49.68    7.83
   4  -5  12   42.00    5.18
   1   4 -12   55.22    8.12
   4  -5 -12   48.10    5.49
  -5   1 -12   44.93    9.26
   5  -1  12   48.21    5.42
  -4   5  12   38.03    7.80
  -4   5  12   58.20    9.49
   4   1 -12   47.44    5.97
  -5   4 -12   44.48   10.48
   5  -4  12   41.02    5.53
  -4  -1  12   58.79    7.58
  -1   5  12   47.87    6.96
   0   6 -12    9.24    6.10
   6  -6 -12   13.46    2.93
  -6   6  12    7.88    8.06
  -6   3 -12   10.21    7.73
   3   3 -12   18.03    3.07
   6  -3  12   14.27    2.91
  -3   6  12   17.67    6.10
  -6   6 -12    8.88    8.10
   6  -6  12    8.72    2.43
  -1   0 -13  106.65   11.23
   1  -1 -13   91.46    9.72
   0   1 -13   66.19   11.86
   0   1 -13  105.09   10.10
  -1   0 -13   81.09   11.80
   1  -1 -13  109.03   10.91
   1   0  13  109.38    9.76
   0  -1  13   79.40    9.64
  -1   1  13   94.67   10.01
   3  -2 -13    9.58    1.98
   3  -2 -13    9.25    1.78
  -1   3 -13   14.45    2.55
  -1   3 -13    8.77    4.50
  -2  -1 -13    5.40    4.14
  -3   2  13   11.36    3.56
  -3   2  13    7.13    3.54
   2   1  13    7.46    4.50
   1  -3  13    7.48    1.65
   2   0 -13   47.21    4.97
  -2   2 -13   54.74    8.10
   2   0 -13   54.80    6.28
  -2   2 -13   64.27    9.17
   0  -2 -13   52.69    6.58
   2  -2  13   52.29    5.17
  -2   0  13   45.67    6.59
  -2   0  13   46.79    6.03
   0   2  13   30.88    5.98
   0   2  13   49.09    5.62
   5  -3 -13    4.02    1.63
  -2   5 -13   -4.90    5.04
   2  -5  13    1.99    1.54
  -5   3  13   -4.44    4.23
  -3   1 -13    7.22    5.17
   2  -3 -13    6.79    1.81
   1   2 -13    4.45    3.58
  -2   3  13    3.06    2.86
  -2   3  13    7.91    3.56
   3  -1  13    8.90    1.89
  -1  -2  13   11.49    2.21
  -3   4 -13    2.96    6.00
  -3   4 -13    4.73    4.89
   4  -1 -13    1.75    1.59
   4  -1 -13    1.69    1.28
   1   3  13    2.55    2.60
   3  -4  13    3.22    1.50
  -4   1  13    0.13    3.30
   0   4 -13    6.82    4.31
  -4   0 -13    7.42    5.91
   4  -4 -13    4.47    1.76
  -4   4  13    3.95    4.70
  -4   4  13   10.11    4.74
   3   1 -13   -0.94    1.64
   1  -4 -13    0.89    1.67
  -4   3 -13   -3.19    6.10
   4  -3  13   -1.27    1.46
  -3  -1  13   -1.23    2.34
   6  -2 -13    5.87    1.92
  -4   6 -13   -1.39    7.63
   4  -6  13    1.48    1.79
  -6   2  13   10.25    5.61
  -1   6 -13    8.34    6.40
   6  -5 -13    2.49    2.03
  -6   5  13   -5.82    6.18
   3  -5 -13    2.04    1.53
   2   3 -13    2.14    2.84
  -5   2 -13   -4.53    5.74
  -3   5  13    2.09    3.98
   5  -2  13    4.04    1.76
   5   0 -13   -1.22    1.85
  -5   5 -13    1.22    6.86
   5  -5  13    1.23    1.71
  -5   0  13   -2.84    4.23
   0   5  13    4.00    3.01
  -6   1 -13    2.26    7.37
   5  -6 -13    3.93    2.19
   1   5 -13    1.43    4.16
  -5   6  13   -4.03    6.31
  -6   4 -13   -1.21    7.84
   4   2 -13    9.02    2.28
  -2   6  13    6.56    4.71
   6  -4  13    5.51    2.53
   1   0 -14  353.61   37.26
   0  -1 -14  297.62   36.85
  -1   1 -14  250.36   33.26
   1   0 -14  340.01   32.42
   0  -1 -14  390.83   33.30
  -1   1 -14  411.02   38.28
   0   1  14  306.36   32.61
  -1   0  14  350.81   32.76
   1  -1  14  341.63   32.48
   2  -2 -14  165.58   18.30
  -2   0 -14  142.93   17.74
   2  -2 -14  169.72   16.26
   0   2 -14  157.01   19.88
   0   2 -14  165.41   16.22
   0  -2  14  153.67   16.23
  -2   2  14  161.77   17.15
   2   0  14  172.45   16.37
  -2   2  14  182.14   19.20
  -2   3 -14   91.07   11.93
  -1  -2 -14   74.65    9.03
   3  -1 -14   73.87    7.20
  -2   3 -14   51.89    8.97
   3  -1 -14   78.92    8.33
   2  -3  14   71.68    7.28
  -3   1  14   58.81    8.66
   1   2  14   51.20    8.88
  -1   4 -14   50.98    8.60
   4  -3 -14   46.38    5.36
  -3  -1 -14   52.86    8.79
  -4   3  14   44.81    8.20
   1  -4  14   51.09    5.27
  -4   3  14   42.76    7.77
   2   1 -14   71.08    9.64
   2   1 -14   76.30    7.63
  -3   2 -14   65.93   11.15
  -3   2 -14   99.67   13.32
   1  -3 -14   77.25    8.35
  -2  -1  14   74.37    8.51
   3  -2  14   79.47    8.00
  -3   5 -14   35.62    5.99
   5  -2 -14   43.03    4.89
  -3   5 -14   44.97   10.00
   3  -5  14   46.04    5.02
  -5   2  14   41.48    7.50
  -2   6 -14   22.14    8.22
   6  -4 -14   25.34    3.70
  -6   4  14   32.25    8.14
  -4   1 -14   48.82    9.37
   1   3 -14   60.81    8.58
   3  -4 -14   59.01    5.73
  -1  -3  14   39.96    5.95
  -3   4  14   56.26    7.93
  -3   4  14   44.86    7.96
   4  -1  14   53.19    5.75
  -4   4 -14   41.07    9.80
   4   0 -14   35.20    4.50
  -4   4 -14   38.22    8.62
   4   0 -14   26.82    3.39
  -4   0  14   30.74    5.70
   4  -4  14   27.23    3.96
   5  -5 -14   20.87    3.38
   0   5 -14   29.17    6.70
  -5   0 -14   20.44    7.51
  -5   5  14   11.22    6.99
  -5   3 -14   37.87    9.89
   3   2 -14   55.32    6.45
   5  -3  14   42.42    5.69
  -2   5  14   45.38    7.44
  -5   6 -14   12.02    6.76
   5  -6  14   17.25    3.06
  -6   1  14   30.67    7.33
   2   4 -14   28.89    5.38
  -6   2 -14   18.65    8.54
   4  -6 -14   33.32    4.25
   6  -2  14   33.10    4.21
  -4   6  14   35.58    8.17
   5   1 -14   24.65    3.85
  -6   5 -14   13.85    8.48
   6  -5  14   17.94    3.50
  -1   6  14   22.82    5.57
   0   0 -15   33.53    5.24
   0   0 -15   35.20    5.70
   0   0  15   30.06    4.34
  -1  -1 -15    5.31    3.87
  -1   2 -15    2.12    4.27
   2  -1 -15    9.74    2.08
  -1   2 -15   10.14    3.74
   2  -1 -15    9.53    1.86
   1   1  15    5.67    2.35
  -2   1  15    5.42    2.96
  -2   1  15    9.56    3.11
   1  -2  15    6.04    1.69
   1   1  15    5.75    3.12
  -2   1 -15    5.79    4.56
   1  -2 -15    8.79    2.61
  -2   1 -15    4.31    4.67
   1   1 -15    2.87    3.43
   1   1 -15   12.37    1.90
   2  -1  15    9.82    2.10
  -1  -1  15    7.70    2.34
  -1   2  15    6.04    2.92
   4  -2 -15    0.37    1.42
  -2   4 -15    4.31    3.01
   4  -2 -15    5.41    1.89
  -2   4 -15    4.23    5.86
  -4   2  15   -0.71    3.26
   2  -4  15    2.75    1.48
   3  -3 -15    0.34    1.39
  -3   0 -15    3.63    4.97
   0   3 -15   -3.38    3.72
  -3   3  15    1.89    3.73
  -3   3  15   -6.40    2.97
   3   0  15    3.68    1.84
   0  -3  15   -0.27    1.29
   3   0 -15    4.53    2.10
  -3   3 -15    2.52    6.38
   0  -3 -15    0.42    3.43
  -3   3 -15    3.47    5.70
   3   0 -15    1.83    1.20
   3  -3  15    6.02    1.78
  -3   6 -15   -1.60    7.43
   6  -3 -15    2.67    1.94
  -6   3  15   -4.74    5.31
   3  -6  15    1.55    1.86
   5  -4 -15   -0.13    1.75
  -1   5 -15   -2.62    5.07
  -5   4  15   -2.96    5.32
   2   2 -15    7.82    3.31
   2  -4 -15    3.23    1.84
  -4   2 -15    1.08    6.12
  -2  -2  15    5.11    2.73
   4  -2  15    2.86    1.82
  -2   4  15    1.43    3.19
   5  -1 -15    0.80    1.38
   5  -1 -15    0.48    1.96
  -4   5 -15    8.06    5.86
  -4   5 -15    3.12    7.62
  -5   1  15    5.71    4.55
   4  -5  15   -1.03    1.61
  -5   1 -15   -2.67    6.42
   4  -5 -15   -1.21    1.61
   1   4 -15    1.50    4.15
  -4   5  15   -8.10    4.88
   5  -1  15    0.96    1.92
  -4   5  15    1.01    4.89
  -5   4 -15   -5.49    6.71
   4   1 -15   -1.21    1.95
  -1   5  15    0.33    3.14
   5  -4  15    2.65    2.04
  -4  -1  15   -0.73    4.15
  -6   3 -15   -4.57    7.46
   3   3 -15    3.99    2.31
   6  -3  15   -0.56    1.99
  -3   6  15    2.75    4.82
   1  -1 -16   36.21    4.75
  -1   0 -16   20.97    5.96
   0   1 -16   38.14    6.65
  -1   0 -16   39.24    6.05
   1  -1 -16   27.05    4.40
   0   1 -16   34.22    4.92
   0  -1  16   29.76    4.28
   1   0  16   40.92    4.56
  -1   1  16   24.91    4.70
   3  -2 -16   83.62    9.00
  -1   3 -16   94.73   12.89
  -2  -1 -16  116.36   11.78
  -1   3 -16  105.35    9.66
  -3   2  16   72.61   11.43
   1  -3  16   85.01    9.00
  -3   2  16   80.98   10.70
  -2   2 -16   96.92   12.98
  -2   2 -16   85.81   11.45
   0  -2 -16  104.44   10.31
   2   0 -16   82.76    8.58
   2   0 -16   85.68   10.38
  -2   0  16   57.47    9.33
   2  -2  16   82.11    8.73
   0   2  16   99.85    9.41
   5  -3 -16   27.24    4.02
  -2   5 -16   26.29    8.37
   2  -5  16   36.56    4.19
  -5   3  16   37.34    7.31
   1   2 -16  120.89   13.54
   1   2 -16  106.55    9.90
  -3   1 -16  106.01   13.56
   2  -3 -16   98.07   10.38
  -2   3  16   84.05   11.53
  -1  -2  16   93.48   10.41
   3  -1  16   94.69   10.35
  -2   3  16  102.95   12.66
  -3   4 -16   51.57   10.32
   4  -1 -16   87.84    9.24
   4  -1 -16   73.43    7.81
  -3   4 -16   89.88   13.85
   3  -4  16   74.77    8.04
  -4   1  16   66.39    9.87
  -4   0 -16   53.37    9.90
   0   4 -16   55.00    9.26
   4  -4 -16   58.35    6.03
  -4   4  16   32.72    8.31
   0  -4  16   52.67    5.98
  -4   4  16   54.29    9.31
  -4   3 -16   79.76   13.21
   1  -4 -16   88.77    9.12
   3   1 -16   97.94   10.41
   3   1 -16   79.71    8.30
  -3  -1  16   61.23    9.62
   4  -3  16   90.63    8.96
  -4   6 -16   15.50    9.52
   6  -2 -16    9.60    2.46
  -6   2  16   13.24    6.31
   4  -6  16   14.49    2.69
   6  -5 -16   13.37    2.93
  -1   6 -16   26.12    7.70
  -6   5  16   10.76    7.92
   2   3 -16   38.80    6.29
  -5   2 -16   31.72    8.49
   3  -5 -16   33.57    4.15
  -3   5  16   25.31    6.43
   5  -2  16   30.24    4.27
  -5   5 -16   24.97    9.01
   5   0 -16   43.73    5.70
  -5   0  16   38.72    7.53
   5  -5  16   34.27    4.87
   5  -6 -16   14.18    3.03
   1   5 -16   17.61    5.61
  -6   1 -16   14.66    7.84
  -5   6  16    4.38    7.25
  -6   4 -16   11.46    8.92
   4   2 -16   17.08    3.28
   6  -4  16   11.85    3.17
  -2   6  16   14.98    5.31
  -1   1 -17   -0.92    3.77
   1   0 -17    4.74    2.19
   1   0 -17    8.21    3.32
  -1   1 -17    8.34    4.52
   0  -1 -17    3.94    3.60
   1  -1  17    3.72    2.08
  -1   0  17   12.49    3.00
   0   1  17   12.00    2.90
   2  -2 -17    9.74    2.45
   0   2 -17   13.46    4.87
  -2   0 -17   17.58    5.27
   0   2 -17    9.02    2.45
   2   0  17   16.94    2.86
   0  -2  17   12.87    2.60
  -2   2  17   14.08    3.99
   3  -1 -17   50.59    5.73
  -2   3 -17   44.89    8.90
  -2   3 -17   35.07    7.06
  -1  -2 -17   31.28    6.64
   3  -1 -17   40.14    4.62
   2  -3  17   37.66    4.82
  -3   1  17   35.41    6.32
  -1   4 -17   21.89    6.70
   4  -3 -17   25.99    3.45
  -3  -1 -17   36.10    7.66
  -4   3  17   21.83    5.98
   1  -4  17   22.85    3.31
   1  -3 -17   48.20    5.93
  -3   2 -17   39.18    8.91
   2   1 -17   46.90    4.83
   2   1 -17   56.50    7.24
  -2  -1  17   52.37    6.41
   3  -2  17   41.19    5.38
  -1   3  17   29.89    5.73
  -3   5 -17   23.23    8.44
   5  -2 -17   16.31    2.71
  -3   5 -17   16.33    4.33
   3  -5  17   16.99    2.93
  -5   2  17    9.11    5.28
   6  -4 -17   -0.12    1.96
  -2   6 -17    9.08    7.73
  -6   4  17    1.12    6.32
   3  -4 -17   23.90    3.58
  -4   1 -17   24.15    7.73
   1   3 -17   39.48    6.89
   4  -1  17   23.98    3.80
  -1  -3  17   32.20    4.20
  -3   4  17   18.99    5.69
  -3   4  17   22.96    5.86
  -4   4 -17   24.99    8.18
   4   0 -17   27.47    3.40
   4   0 -17   31.22    4.58
   4  -4  17   24.57    3.92
  -4   0  17   37.32    6.40
   0   5 -17    7.66    5.83
  -5   0 -17   10.26    8.46
   5  -5 -17    8.81    2.46
  -5   5  17    4.81    6.96
  -5   3 -17   17.68    8.15
   3   2 -17   21.96    3.99
   5  -3  17   17.02    3.30
  -2   5  17   14.11    4.83
  -3  -2  17   14.59    4.42
  -6   2 -17   -9.67    7.01
   2   4 -17   -0.01    3.65
   4  -6 -17    4.31    2.22
   6  -2  17    2.92    2.27
  -4   6  17   -1.62    5.60
   0   0 -18  225.46   23.97
   0   0 -18  273.38   27.36
   0   0  18  217.29   23.40
   2  -1 -18   83.11    8.08
  -1   2 -18   75.25   11.44
  -1  -1 -18   45.55    9.37
  -1   2 -18   91.07    9.86
   2  -1 -18   88.86    9.28
  -2   1  18   49.79    8.90
   1   1  18   81.02    8.51
   1  -2  18   70.09    8.04
  -2   1 -18   73.99   10.93
   1   1 -18  110.19   11.71
   1  -2 -18   88.20    9.10
   1   1 -18   78.45    8.40
   2  -1  18   67.97    8.61
  -1   2  18   70.90    9.48
  -1  -1  18   83.74    8.85
  -2   4 -18   14.33    3.84
  -2  -2 -18   24.86    6.10
   4  -2 -18   12.56    2.40
  -2   4 -18    7.41    6.78
  -4   2  18    7.16    4.58
   2  -4  18   14.08    2.48
  -3   0 -18   30.90    7.07
   3  -3 -18   20.14    3.17
   0   3 -18    4.55    4.94
   0   3 -18   22.16    2.66
   3   0  18   25.04    3.54
  -3   3  18   16.27    5.08
  -3   3  18   17.46    5.24
   0  -3  18   18.59    3.25
  -3   3 -18   21.86    8.39
   3   0 -18   15.13    3.58
   3   0 -18   16.69    2.57
  -3   3 -18   21.46    7.24
   0  -3 -18   28.33    5.09
   3  -3  18   20.64    3.16
  -3   6 -18   17.74    9.31
   6  -3 -18   16.59    2.86
   3  -6  18   13.70    2.94
  -6   3  18   10.78    6.70
   5  -4 -18   14.19    2.81
  -1   5 -18    4.49    6.69
  -5   4  18   21.21    6.87
  -4   2 -18    3.19    6.87
   2  -4 -18   17.19    3.33
   2   2 -18   34.09    5.62
  -2  -2  18   22.09    4.27
  -2   4  18   18.55    5.08
   4  -2  18   22.35    3.47
   5  -1 -18    7.29    1.84
  -4   5 -18   -0.73    5.69
   5  -1 -18    5.75    2.48
  -5   1  18    9.41    5.25
   4  -5  18    2.52    2.18
   4  -5 -18   15.99    2.82
  -5   1 -18   -0.26    7.09
   1   4 -18   24.21    6.20
  -4   5  18   13.34    6.40
  -4   5  18    3.34    5.72
  -5   4 -18   10.05    8.34
   4   1 -18   11.19    3.09
  -4  -1  18   10.89    5.17
   5  -4  18    9.83    2.87
  -1   5  18    6.35    3.93
  -6   3 -18    9.25    8.08
   3   3 -18   18.36    3.95
   6  -3  18   15.80    3.34
  -3   6  18   12.25    6.06
   0   1 -19  196.48   20.79
  -1   0 -19  134.23   18.04
   0   1 -19  198.79   17.42
   1  -1 -19  176.78   17.05
   1   0  19  184.04   16.96
  -1   1  19  120.01   17.02
   0  -1  19  163.07   16.80
  -1   3 -19   44.78    5.73
  -1   3 -19   43.06    8.64
   3  -2 -19   40.49    5.04
  -2  -1 -19   50.48    7.97
   1  -3  19   42.48    5.19
  -3   2  19   37.09    6.89
   0  -2 -19   55.76    7.69
   2   0 -19   53.28    7.45
  -2   2 -19   67.60   10.10
  -2   2 -19   23.20    7.68
   2   0 -19   47.04    5.80
   2  -2  19   53.44    6.01
   0   2  19   59.12    6.91
  -2   0  19   52.93    7.06
  -2   5 -19   10.62    7.22
   5  -3 -19   13.57    2.63
  -5   3  19   16.58    6.07
   2  -5  19   11.01    2.64
  -3   1 -19   41.87    8.55
   2  -3 -19   39.53    5.40
   1   2 -19   50.05    8.12
   1   2 -19   50.15    4.84
  -1  -2  19   50.24    5.80
   3  -1  19   31.32    5.32
  -2   3  19   36.76    6.71
   4  -1 -19   16.49    3.22
  -3   4 -19   18.88    6.12
  -3   4 -19   21.79    8.22
   4  -1 -19   11.92    2.33
   3  -4  19    9.97    2.55
  -4   1  19   14.33    5.19
   4  -4 -19   11.60    2.62
   0   4 -19    2.81    5.35
  -4   0 -19    9.35    7.11
  -4   4  19   17.37    6.17
   0  -4  19   13.31    2.94
   3   1 -19   10.19    1.84
   1  -4 -19   14.38    3.40
   3   1 -19   12.97    3.59
  -4   3 -19    3.04    7.22
  -3  -1  19   11.07    3.98
   4  -3  19   10.45    2.85
   2   3 -19   21.84    5.33
   3  -5 -19   18.16    3.09
  -5   2 -19   11.27    7.71
   5  -2  19   13.16    3.13
  -3   5  19   14.66    5.62
  -5   5 -19   14.31    8.30
   5   0 -19   17.27    3.59
   5  -5  19    8.73    2.88
  -5   0  19    5.44    5.62
  -1   1 -20    2.91    4.08
   1   0 -20    5.97    3.64
   1   0 -20    3.14    2.37
   0  -1 -20    1.87    3.77
  -1   1 -20   -0.56    4.49
  -1   0  20   -0.74    2.67
   0   1  20    2.45    3.09
   1  -1  20    4.32    2.19
   2  -2 -20    5.99    2.52
   0   2 -20    5.77    2.47
   0   2 -20    6.09    4.99
  -2   0 -20    1.47    5.15
   2   0  20   10.76    2.83
   0  -2  20    6.14    2.41
  -2   2  20    4.81    3.83
  -1  -2 -20    4.73    4.82
   3  -1 -20   21.81    3.49
   3  -1 -20   12.03    2.42
  -2   3 -20    1.61    4.71
  -2   3 -20   17.93    7.16
  -3   1  20   11.87    4.43
   2  -3  20   14.41    2.84
   4  -3 -20   11.51    2.48
  -3  -1 -20   12.25    6.72
  -1   4 -20    7.24    6.26
   1  -4  20   10.07    2.45
  -4   3  20    9.65    4.96
   2   1 -20   13.66    2.28
  -3   2 -20   11.17    6.37
   1  -3 -20   16.31    3.74
   2   1 -20   13.65    4.54
   3  -2  20    9.12    2.88
  -2  -1  20   17.86    3.99
  -1   3  20   19.07    4.31
   5  -2 -20    5.02    2.16
  -3   5 -20   16.49    4.24
  -3   5 -20    3.73    7.97
   3  -5  20    5.22    2.30
  -5   2  20   10.00    5.65
   3  -4 -20   15.58    2.88
  -4   1 -20    3.30    6.65
   1   3 -20   14.19    5.42
  -3   4  20   13.65    5.77
  -1  -3  20    8.64    2.84
   4  -1  20   14.30    2.87
  -3   4  20    8.27    4.97
  -4   4 -20   11.53    8.01
   4   0 -20   18.63    3.91
   4   0 -20   15.80    2.56
  -4   0  20   15.77    5.43
   4  -4  20   19.29    3.45
  -5   0 -20    7.51    8.91
   5  -5 -20    4.57    2.44
   0   5 -20   -2.58    5.82
  -5   5  20    5.26    7.51
  -5   3 -20    7.80    8.43
   3   2 -20    8.42    3.77
  -3  -2  20   10.27    4.28
   5  -3  20    9.76    2.92
  -2   5  20    8.54    4.29
   0   0 -21    9.90    4.09
   0   0  21   12.75    3.42
  -1   2 -21   27.10    7.94
  -1  -1 -21   48.49    7.64
  -1   2 -21   57.24    7.48
   2  -1 -21   39.58    5.39
   1  -2  21   36.52    5.52
   1   1  21   64.57    6.48
   1   1 -21   80.16    9.51
   1  -2 -21   63.73    7.07
   1   1 -21   40.52    5.87
  -2   1 -21   41.77    8.55
  -1   2  21   49.64    7.36
   2  -1  21   42.97    6.20
  -1  -1  21   57.08    6.92
  -2  -2 -21   34.99    8.18
  -2   4 -21   40.20    9.64
  -2   4 -21   55.80    6.52
   4  -2 -21   41.85    5.05
  -4   2  21   35.04    7.52
   2  -4  21   37.14    5.18
   0   3 -21   51.53    5.47
   0   3 -21   50.75    9.40
  -3   0 -21   48.14    8.96
   3  -3 -21   59.08    5.98
  -3   3  21   44.04    8.03
   3   0  21   60.05    6.38
  -3   3  21   41.44    8.11
   0  -3  21   29.65    5.77
   0  -3 -21  128.88   10.97
  -3   3 -21   49.07   11.49
   3   0 -21   79.18   10.23
   3   0 -21   75.04    8.14
   3  -3  21   74.20    8.72
  -1   5 -21   25.81    8.31
   5  -4 -21   24.76    3.89
  -5   4  21   14.87    7.38
  -4   2 -21   52.79    9.97
   2   2 -21   61.44    8.26
   2  -4 -21   41.01    5.65
  -2   4  21   25.70    6.96
   4  -2  21   39.87    5.64
  -2  -2  21   49.54    6.51
   5  -1 -21   22.75    3.43
  -4   5 -21   10.51    6.92
   4  -5  21   32.43    4.21
  -5   1  21   17.72    6.59
  -5   1 -21   14.98    8.28
   4  -5 -21   20.46    3.47
   1   4 -21   21.11    6.57
  -4   5  21    9.85    6.58
  -5   4 -21   15.62    8.97
   4   1 -21   26.49    4.81
  -1   5  21   13.74    5.44
   5  -4  21   27.55    4.24
  -4  -1  21   12.35    6.34
   0   1 -22    9.03    5.00
  -1   0 -22    5.68    4.54
   1  -1 -22    1.12    2.82
   0   1 -22    7.17    3.38
  -1   1  22    6.54    3.53
   1   0  22    5.74    2.88
   0  -1  22    3.31    2.45
   3  -2 -22    3.78    2.13
  -2  -1 -22   -0.37    5.52
  -1   3 -22    4.03    3.08
  -1   3 -22    1.23    5.55
  -3   2  22   -5.32    3.81
   1  -3  22   -3.25    1.98
   0  -2 -22   -2.77    3.64
   2   0 -22    1.90    2.07
  -2   2 -22    9.26    5.62
   2   0 -22    0.87    3.26
  -2   0  22   -0.53    3.31
   2  -2  22    0.13    2.17
   0   2  22   -2.34    3.54
  -2   5 -22   -3.35    7.12
   5  -3 -22    1.57    2.06
   2  -5  22    3.67    2.26
  -5   3  22   -1.09    5.89
  -3   1 -22   -4.54    5.72
   1   2 -22    3.67    4.64
   2  -3 -22    2.05    2.72
   1   2 -22    3.31    1.76
  -2   3  22    8.71    4.71
  -1  -2  22   -0.06    2.52
   3  -1  22   -0.12    2.41
  -3   4 -22    3.69    5.60
   4  -1 -22    2.26    1.96
   3  -4  22    8.26    2.63
  -4   1  22    5.96    4.75
   0   4 -22    2.87    5.81
  -4   0 -22    0.95    7.48
   4  -4 -22    0.08    2.17
  -4   4  22    0.16    5.95
   0  -4  22   -1.33    2.55
  -4   3 -22   -4.85    7.54
   3   1 -22    9.06    3.81
   1  -4 -22    9.73    3.69
   3   1 -22    4.79    1.74
   4  -3  22    6.48    2.89
  -3  -1  22   -1.78    3.58
   2   3 -22   -0.59    4.32
   3  -5 -22    2.34    2.53
  -5   2 -22   -8.26    6.85
   5  -2  22   -1.36    2.48
  -3   5  22    2.55    5.27
  -1   1 -23  125.06   15.18
   1   0 -23  132.69   13.98
   0  -1 -23  160.95   15.19
   1  -1  23  115.94   13.75
   0   1  23  128.14   14.31
  -1   0  23  149.51   14.50
  -2   0 -23   52.09    9.02
   0   2 -23   73.49   10.09
   2  -2 -23   49.87    6.67
   0   2 -23   53.38    6.63
   2   0  23   77.43    7.31
  -2   2  23   26.38    7.34
   0  -2  23   49.58    6.52
  -2   3 -23   36.96    6.98
   3  -1 -23   27.31    4.04
  -1  -2 -23   36.41    6.77
   2  -3  23   27.87    4.47
  -3   1  23   26.74    6.27
  -1   4 -23   14.49    7.13
  -3  -1 -23   22.47    7.77
   4  -3 -23   21.95    3.59
   1  -4  23   20.77    3.76
  -4   3  23   13.13    6.25
  -3   2 -23   21.67    8.12
   2   1 -23   30.74    3.91
   1  -3 -23   27.50    5.20
   2   1 -23   43.10    7.12
   3  -2  23   24.17    4.61
  -2  -1  23   31.63    5.50
  -1   3  23   31.64    5.89
  -3   5 -23   17.87    4.73
   5  -2 -23   13.48    2.87
   3  -5  23   16.82    3.38
  -5   2  23    9.32    6.27
   1   3 -23   33.97    7.40
  -4   1 -23   14.56    7.91
   3  -4 -23   25.23    4.11
  -1  -3  23   23.65    4.30
  -3   4  23   20.74    6.93
  -3   4  23    6.56    5.79
   4  -1  23   28.05    4.29
  -4   4 -23   -1.10    7.64
   4   0 -23   10.04    3.68
   4   0 -23    8.13    2.10
  -4   0  23   -4.23    4.93
   4  -4  23    5.12    2.87
   3   2 -23   20.75    4.96
  -5   3 -23   20.90    9.04
  -2   5  23    3.97    4.93
  -3  -2  23   16.45    5.30
   5  -3  23   12.01    3.63
   0   0 -24   39.30    6.82
   0   0  24   47.23    6.54
  -1  -1 -24   13.81    5.14
   2  -1 -24   10.48    3.17
  -1   2 -24   22.21    5.21
   1   1  24   23.92    4.34
  -2   1  24    7.75    4.80
   1  -2  24   12.78    3.31
   1  -2 -24   18.97    4.36
  -2   1 -24    6.02    6.08
   1   1 -24   19.99    3.49
   1   1 -24   27.37    6.14
   2  -1  24   14.33    3.50
  -1  -1  24   10.21    3.66
  -1   2  24   12.40    4.86
  -2  -2 -24    0.72    6.59
  -2   4 -24    0.08    3.46
  -2   4 -24    4.40    6.85
   4  -2 -24   -2.43    2.06
   2  -4  24    0.89    2.45
  -4   2  24   -0.71    5.29
   0   3 -24   -0.21    2.04
   3  -3 -24    4.60    2.68
  -3   0 -24   13.02    6.92
   0   3 -24    0.35    5.48
   0  -3  24    1.24    2.42
  -3   3  24    7.32    5.14
   3   0  24    6.01    3.10
   0  -3 -24   -0.35    4.48
   3   0 -24    1.71    1.91
  -3   3 -24   -1.11    6.55
   3  -3  24    2.04    2.78
   2   2 -24    9.39    5.27
  -4   2 -24   -6.37    6.97
   2  -4 -24    3.70    3.22
   4  -2  24   -1.06    2.71
  -2   4  24   -7.19    4.42
  -2  -2  24   -0.97    3.45
   1  -1 -25    4.49    3.28
  -1   0 -25    1.08    4.55
   0   1 -25    7.53    3.81
   0  -1  25    2.83    2.96
   1   0  25    8.64    3.50
  -1   3 -25   26.31    7.57
  -2  -1 -25    2.88    6.07
   3  -2 -25   13.05    3.35
  -1   3 -25   29.17    4.40
   1  -3  25    9.84    3.32
  -3   2  25    9.11    5.31
   0  -2 -25   25.05    5.49
   2   0 -25   14.60    3.43
  -2   2 -25   34.22    7.32
  -2   0  25   23.00    5.24
   2  -2  25   14.01    3.79
   0   2  25   18.26    5.06
   1   2 -25   13.13    3.10
   1   2 -25   32.66    6.97
  -3   1 -25   20.56    7.68
   2  -3 -25   25.09    4.44
  -1  -2  25   19.73    4.26
   3  -1  25   15.48    3.83
  -2   3  25   14.60    6.27
   4  -1 -25   20.27    3.40
  -3   4 -25   31.44    7.17
  -4   1  25   18.10    6.50
   3  -4  25   19.70    4.18
  -4   0 -25   14.73    8.23
   4  -4 -25   13.98    3.38
   0   4 -25   12.32    7.13
  -4   4  25   11.78    7.24
   0  -4  25    9.75    3.31
  -4   3 -25    9.16    9.05
   1  -4 -25   33.30    5.53
   3   1 -25   31.98    6.04
   4  -3  25   17.73    4.57
  -3  -1  25   27.17    5.94
   1   0 -26    6.89    3.35
   0  -1 -26   10.94    4.41
  -1   1 -26   11.22    5.09
   1  -1  26    6.68    3.26
  -1   0  26    3.95    3.77
   0   1  26    6.02    3.75
   0   2 -26   10.18    3.42
   2  -2 -26   12.93    3.76
  -2   0 -26    8.26    6.04
   2   0  26   12.63    3.83
   0  -2  26   12.49    3.48
  -2   2  26   13.37    5.38
   3  -1 -26   12.86    3.34
  -1  -2 -26   30.88    6.71
  -2   3 -26   28.88    6.54
  -3   1  26   36.04    7.06
   2  -3  26   16.45    4.12
  -1   4 -26    5.20    6.92
  -3  -1 -26    1.25    7.14
   4  -3 -26   10.73    3.04
   1  -4  26    3.47    3.01
  -4   3  26   -0.64    6.00
   2   1 -26   20.62    3.35
  -3   2 -26   14.61    7.94
   1  -3 -26   24.97    4.92
   3  -2  26   13.81    4.20
  -2  -1  26   28.55    5.39
  -4   1 -26    1.17    7.74
   1   3 -26   16.86    6.54
   3  -4 -26    9.42    3.59
   4  -1  26   14.61    3.74
  -1  -3  26   14.74    3.92
  -3   4  26    7.63    6.60
  -4   4 -26   29.60    9.36
   4   0 -26    9.72    2.80
  -4   0  26   17.86    6.66
   4  -4  26   18.41    4.32
   0   0 -27   28.16    5.78
   0   0  27   24.78    5.08
   2  -1 -27    4.81    3.19
  -1   2 -27   11.93    4.77
  -1  -1 -27   12.90    5.28
  -2   1  27    9.53    5.09
   1  -2  27    5.05    3.04
  -2   1 -27   10.59    6.06
   1   1 -27    9.45    3.31
   1  -2 -27    7.98    3.95
  -1   2  27    9.89    5.05
  -1  -1  27    6.57    3.70
   2  -1  27   12.25    3.66
  -2  -2 -27   -9.81    6.34
   4  -2 -27    1.53    2.56
  -2   4 -27    5.25    3.92
  -4   2  27    4.39    5.66
   2  -4  27   -0.31    3.02
   3  -3 -27   -1.09    3.04
   0   3 -27    1.21    6.34
  -3   0 -27   -1.78    6.45
   0   3 -27    2.96    2.52
  -3   3  27    1.94    5.51
   3   0  27    1.53    3.32
   0  -3  27   -2.11    2.44
   0  -3 -27    4.98    4.67
  -3   3 -27    3.19    7.12
   3   0 -27   -0.57    2.15
  -3   0  27   -1.69    4.74
   3  -3  27    3.20    3.30
   2  -4 -27   -1.26    3.63
  -4   2 -27    0.27    8.22
   2   2 -27    5.26    5.49
  -2   4  27    1.21    5.76
  -2  -2  27   -1.71    3.62
   4  -2  27   -0.24    3.33
  -1   0 -28   56.17    8.94
   1  -1 -28   56.85    7.74
   0   1 -28   50.19    7.78
   0  -1  28   63.25    8.10
   1   0  28   58.54    7.93
   3  -2 -28   17.39    3.92
  -2  -1 -28   17.52    6.90
  -1   3 -28   18.49    4.41
   1  -3  28   15.50    3.76
  -3   2  28   12.61    6.16
   2   0 -28   24.88    4.25
  -2   2 -28   34.86    7.66
   0  -2 -28   25.56    5.73
   0   2  28   16.59    5.66
  -2   0  28   18.78    5.42
   2  -2  28   14.73    4.19
   2  -3 -28   22.00    4.74
   1   2 -28   13.91    3.53
  -3   1 -28   16.01    7.91
   3  -1  28   20.53    4.49
  -2   3  28   26.25    6.80
  -1  -2  28   21.20    4.72
   0  -1 -29    4.70    4.39
   1   0 -29    7.30    3.80
  -1   1 -29    8.62    5.12
  -1   0  29    2.07    3.86
   1  -1  29    7.93    3.71
   2  -2 -29   -1.90    3.30
  -2   0 -29    0.33    5.30
   0   2 -29    3.59    3.46
   2   0  29    2.86    3.74
  -2   2  29   -8.69    4.49
   0  -2  29    2.22    3.40
   3  -1 -29   -3.69    2.43
  -1  -2 -29    5.81    5.25
  -2   3 -29   -3.78    5.24
  -3   1  29   -1.96    5.42
   2  -3  29    1.88    3.21
  -3   2 -29    3.77    7.40
   2   1 -29    1.33    2.43
   1  -3 -29    2.38    4.12
  -2  -1  29   -0.20    4.02
   3  -2  29    0.74    3.27
   0   0 -30    9.32    4.40
   0   0  30    3.98    4.05
  -1  -1 -30    7.76    5.51
   2  -1 -30   12.22    4.14
  -1   2 -30   14.75    5.36
   1  -2  30   14.18    4.16
  -2   1  30   11.62    5.79
   1  -2 -30   14.75    4.53
   1   1 -30    8.74    3.78
  -2   1 -30   22.37    6.84
  -1   2  30    4.22    5.24
   2  -1  30    4.46    3.88
  -1  -1  30   17.71    4.69
   1  -1 -31   -1.39    3.58
  -1   0 -31   -0.06    4.79
   0   1 -31    5.82    4.01
  -1   1  31    2.51    4.99
   0  -1  31    1.82    3.87
   1   0  31    8.62    4.35
  -2   2 -31    0.22    5.80
   2   0 -31    1.96    3.18
   0  -2 -31    4.01    4.58
   2  -2  31    3.48    3.66
   1   0 -32   22.75    5.06
   0  -1 -32   15.65    5.24
  -1   1 -32   24.38    6.43
  -1   0  32   23.21    5.66
   0   1  32   13.29    5.55
   1  -1  32   17.91    5.12
   0   0 -33   19.31    5.40
   0   0  33   21.20    5.62
   0   0   0    0.00    0.00
;
_shelx_hkl_checksum              85800
loop_
_space_group_symop_operation_xyz
'x, y, z'
'-y, x-y, z'
'-x+y, -x, z'
'y, x, -z'
'x-y, -y, -z'
'-x, -x+y, -z'
'x+2/3, y+1/3, z+1/3'
'-y+2/3, x-y+1/3, z+1/3'
'-x+y+2/3, -x+1/3, z+1/3'
'y+2/3, x+1/3, -z+1/3'
'x-y+2/3, -y+1/3, -z+1/3'
'-x+2/3, -x+y+1/3, -z+1/3'
'x+1/3, y+2/3, z+2/3'
'-y+1/3, x-y+2/3, z+2/3'
'-x+y+1/3, -x+2/3, z+2/3'
'y+1/3, x+2/3, -z+2/3'
'x-y+1/3, -y+2/3, -z+2/3'
'-x+1/3, -x+y+2/3, -z+2/3'
'-x, -y, -z'
'y, -x+y, -z'
'x-y, x, -z'
'-y, -x, z'
'-x+y, y, z'
'x, x-y, z'
'-x+2/3, -y+1/3, -z+1/3'
'y+2/3, -x+y+1/3, -z+1/3'
'x-y+2/3, x+1/3, -z+1/3'
'-y+2/3, -x+1/3, z+1/3'
'-x+y+2/3, y+1/3, z+1/3'
'x+2/3, x-y+1/3, z+1/3'
'-x+1/3, -y+2/3, -z+2/3'
'y+1/3, -x+y+2/3, -z+2/3'
'x-y+1/3, x+2/3, -z+2/3'
'-y+1/3, -x+2/3, z+2/3'
'-x+y+1/3, y+2/3, z+2/3'
'x+1/3, x-y+2/3, z+2/3'
loop_
_atom_site_label
_atom_site_type_symbol
_atom_site_fract_x
_atom_site_fract_y
_atom_site_fract_z
_atom_site_U_iso_or_equiv
_atom_site_adp_type
_atom_site_occupancy
_atom_site_site_symmetry_order
_atom_site_calc_flag
_atom_site_refinement_flags_posn
_atom_site_refinement_flags_adp
_atom_site_refinement_flags_occupancy
Pb1 Pb 0.0000 0.0000 0.21570(4) 0.0271(4) Uani 1 6 d S T P
Pb2 Pb 0.9153(3) -0.9153(3) 0.00191(16) 0.0286(9) Uani 0.1667 2 d S T P
O1 O 0.8083(10) -0.8083(10) -0.0979(4) 0.038(2) Uani 1 2 d S T P
OH O 0.0000 0.0000 0.3124(9) 0.070(7) Uani 1 6 d S T P
C1 C 0.3333 -0.3333 0.2337(12) 0.031(6) Uani 1 6 d S T P
loop_
_atom_site_aniso_label
_atom_site_aniso_U_11
_atom_site_aniso_U_22
_atom_site_aniso_U_33
_atom_site_aniso_U_23
_atom_site_aniso_U_13
_atom_site_aniso_U_12
Pb1 0.0249(4) 0.0249(4) 0.0314(6) 0.000 0.000 0.0125(2)
Pb2 0.0337(16) 0.0337(16) 0.0279(14) 0.0015(8) -0.0015(8) 0.0238(15)
O1 0.032(4) 0.032(4) 0.063(7) 0.001(2) -0.001(2) 0.026(5)
OH 0.090(11) 0.090(11) 0.030(12) 0.000 0.000 0.045(6)
C1 0.012(7) 0.012(7) 0.068(18) 0.000 0.000 0.006(4)
loop_
_atom_type_symbol
_atom_type_description
_atom_type_scat_dispersion_real
_atom_type_scat_dispersion_imag
_atom_type_scat_source
O O 0.0106 0.0060 'International Tables Vol C Tables 4.2.6.8 and 6.1.1.4'
C C 0.0033 0.0016 'International Tables Vol C Tables 4.2.6.8 and 6.1.1.4'
Pb Pb -3.3944 10.1111 'International Tables Vol C Tables 4.2.6.8 and 6.1.1.4'
H H 0.0000 0.0000 'International Tables Vol C Tables 4.2.6.8 and 6.1.1.4'
loop_
_geom_angle_atom_site_label_1
_geom_angle_atom_site_label_2
_geom_angle_atom_site_label_3
_geom_angle
_geom_angle_site_symmetry_1
_geom_angle_site_symmetry_3
OH Pb1 O1 80.0(2) . 7_465
OH Pb1 O1 80.0(2) . 7_355
O1 Pb1 O1 157.7(4) 7_465 7_355
OH Pb1 O1 80.0(2) . 9_665
O1 Pb1 O1 49.3(4) 7_465 9_665
O1 Pb1 O1 117.04(13) 7_355 9_665
OH Pb1 O1 80.0(2) . 8_435
O1 Pb1 O1 68.7(4) 7_465 8_435
O1 Pb1 O1 117.04(13) 7_355 8_435
O1 Pb1 O1 117.04(13) 9_665 8_435
OH Pb1 O1 80.0(2) . 8_335
O1 Pb1 O1 117.04(13) 7_465 8_335
O1 Pb1 O1 49.3(4) 7_355 8_335
O1 Pb1 O1 68.7(4) 9_665 8_335
O1 Pb1 O1 157.7(4) 8_435 8_335
OH Pb1 O1 80.0(2) . 9_655
O1 Pb1 O1 117.04(13) 7_465 9_655
O1 Pb1 O1 68.7(4) 7_355 9_655
O1 Pb1 O1 157.7(4) 9_665 9_655
O1 Pb1 O1 49.3(4) 8_435 9_655
O1 Pb1 O1 117.04(13) 8_335 9_655
OH Pb1 Pb2 39.61(6) . 27_345
O1 Pb1 Pb2 49.6(2) 7_465 27_345
O1 Pb1 Pb2 115.8(2) 7_355 27_345
O1 Pb1 Pb2 79.1(2) 9_665 27_345
O1 Pb1 Pb2 49.6(2) 8_435 27_345
O1 Pb1 Pb2 115.8(2) 8_335 27_345
O1 Pb1 Pb2 79.1(2) 9_655 27_345
OH Pb1 Pb2 39.61(6) . 25_545
O1 Pb1 Pb2 79.1(2) 7_465 25_545
O1 Pb1 Pb2 79.1(2) 7_355 25_545
O1 Pb1 Pb2 49.6(2) 9_665 25_545
O1 Pb1 Pb2 115.8(2) 8_435 25_545
O1 Pb1 Pb2 49.6(2) 8_335 25_545
O1 Pb1 Pb2 115.8(2) 9_655 25_545
Pb2 Pb1 Pb2 67.03(9) 27_345 25_545
OH Pb1 Pb2 39.61(6) . 26_565
O1 Pb1 Pb2 115.8(2) 7_465 26_565
O1 Pb1 Pb2 49.6(2) 7_355 26_565
O1 Pb1 Pb2 115.8(2) 9_665 26_565
O1 Pb1 Pb2 79.1(2) 8_435 26_565
O1 Pb1 Pb2 79.1(2) 8_335 26_565
O1 Pb1 Pb2 49.6(2) 9_655 26_565
Pb2 Pb1 Pb2 67.03(9) 27_345 26_565
Pb2 Pb1 Pb2 67.03(9) 25_545 26_565
Pb2 Pb2 Pb2 118.7(2) 21_435 20_765
Pb2 Pb2 Pb2 90.001(2) 21_435 3_855
Pb2 Pb2 Pb2 30.67(11) 20_765 3_855
Pb2 Pb2 Pb2 30.67(11) 21_435 2_525
Pb2 Pb2 Pb2 90.001(1) 20_765 2_525
Pb2 Pb2 Pb2 60.0 3_855 2_525
Pb2 Pb2 Pb2 59.83(3) 21_435 19_735
Pb2 Pb2 Pb2 59.83(3) 20_765 19_735
Pb2 Pb2 Pb2 30.17(3) 3_855 19_735
Pb2 Pb2 Pb2 30.17(3) 2_525 19_735
Pb2 Pb2 OH 120.64(9) 21_435 25_545
Pb2 Pb2 OH 120.64(9) 20_765 25_545
Pb2 Pb2 OH 148.15(16) 3_855 25_545
Pb2 Pb2 OH 148.15(16) 2_525 25_545
Pb2 Pb2 OH 172.1(6) 19_735 25_545
Pb2 Pb2 O1 94.7(5) 21_435 .
Pb2 Pb2 O1 94.7(5) 20_765 .
Pb2 Pb2 O1 109.30(19) 3_855 .
Pb2 Pb2 O1 109.30(19) 2_525 .
Pb2 Pb2 O1 109.1(4) 19_735 .
OH Pb2 O1 78.8(6) 25_545 .
Pb2 Pb2 O1 126.3(6) 21_435 20_765
Pb2 Pb2 O1 68.8(5) 20_765 20_765
Pb2 Pb2 O1 75.83(7) 3_855 20_765
Pb2 Pb2 O1 108.02(17) 2_525 20_765
Pb2 Pb2 O1 94.9(3) 19_735 20_765
OH Pb2 O1 78.5(4) 25_545 20_765
O1 Pb2 O1 139.0(3) . 20_765
Pb2 Pb2 O1 68.8(5) 21_435 21_435
Pb2 Pb2 O1 126.3(6) 20_765 21_435
Pb2 Pb2 O1 108.02(17) 3_855 21_435
Pb2 Pb2 O1 75.83(7) 2_525 21_435
Pb2 Pb2 O1 94.9(3) 19_735 21_435
OH Pb2 O1 78.5(4) 25_545 21_435
O1 Pb2 O1 139.0(3) . 21_435
O1 Pb2 O1 67.3(4) 20_765 21_435
Pb2 Pb2 Pb1 114.0(4) 21_435 25_545
Pb2 Pb2 Pb1 114.0(4) 20_765 25_545
Pb2 Pb2 Pb1 123.52(5) 3_855 25_545
Pb2 Pb2 Pb1 123.52(5) 2_525 25_545
Pb2 Pb2 Pb1 133.0(3) 19_735 25_545
OH Pb2 Pb1 39.1(5) 25_545 25_545
O1 Pb2 Pb1 117.9(2) . 25_545
O1 Pb2 Pb1 48.36(8) 20_765 25_545
O1 Pb2 Pb1 48.36(8) 21_435 25_545
C1 O1 Pb2 114.2(14) 13_544 .
C1 O1 Pb1 94.6(3) 13_544 13_534
Pb2 O1 Pb1 97.4(2) . 13_534
C1 O1 Pb1 94.6(3) 13_544 13_644
Pb2 O1 Pb1 97.4(2) . 13_644
Pb1 O1 Pb1 157.7(4) 13_534 13_644
C1 O1 Pb2 121.6(14) 13_544 20_765
Pb2 O1 Pb2 16.48(9) . 20_765
Pb1 O1 Pb2 110.0(3) 13_534 20_765
Pb1 O1 Pb2 82.07(16) 13_644 20_765
C1 O1 Pb2 121.6(14) 13_544 21_435
Pb2 O1 Pb2 16.48(9) . 21_435
Pb1 O1 Pb2 82.07(16) 13_534 21_435
Pb1 O1 Pb2 110.0(3) 13_644 21_435
Pb2 O1 Pb2 28.34(14) 20_765 21_435
Pb1 OH Pb2 101.2(5) . 27_345
Pb1 OH Pb2 101.2(5) . 26_565
Pb2 OH Pb2 116.3(3) 27_345 26_565
Pb1 OH Pb2 101.2(5) . 25_545
Pb2 OH Pb2 116.3(3) 27_345 25_545
Pb2 OH Pb2 116.3(3) 26_565 25_545
O1 C1 O1 119.90(16) 9_655 8_435
O1 C1 O1 119.90(16) 9_655 7_455
O1 C1 O1 119.90(16) 8_435 7_455
loop_
_geom_bond_atom_site_label_1
_geom_bond_atom_site_label_2
_geom_bond_distance
_geom_bond_site_symmetry_2
Pb1 OH 2.29(2) .
Pb1 O1 2.679(3) 7_465
Pb1 O1 2.679(3) 7_355
Pb1 O1 2.679(3) 9_665
Pb1 O1 2.679(3) 8_435
Pb1 O1 2.679(3) 8_335
Pb1 O1 2.679(3) 9_655
Pb1 Pb2 3.551(4) 27_345
Pb1 Pb2 3.551(4) 25_545
Pb1 Pb2 3.551(4) 26_565
Pb2 Pb2 0.777(3) 21_435
Pb2 Pb2 0.777(3) 20_765
Pb2 Pb2 1.336(4) 3_855
Pb2 Pb2 1.336(4) 2_525
Pb2 Pb2 1.545(5) 19_735
Pb2 OH 2.308(5) 25_545
Pb2 O1 2.553(11) .
Pb2 O1 2.729(10) 20_765
Pb2 O1 2.729(10) 21_435
Pb2 Pb1 3.551(4) 25_545
O1 C1 1.290(9) 13_544
O1 Pb1 2.679(3) 13_534
O1 Pb1 2.679(3) 13_644
O1 Pb2 2.729(10) 20_765
O1 Pb2 2.729(10) 21_435
OH Pb2 2.308(5) 27_345
OH Pb2 2.308(5) 26_565
OH Pb2 2.308(5) 25_545
C1 O1 1.290(9) 9_655
C1 O1 1.290(9) 8_435
C1 O1 1.290(9) 7_455

_cod_database_fobs_code 2108232
