#------------------------------------------------------------------------------
#$Date: 2022-05-12 04:39:41 +0300 (Thu, 12 May 2022) $
#$Revision: 275356 $
#$URL: file:///home/coder/svn-repositories/cod/cif/2/10/89/2108976.cif $
#------------------------------------------------------------------------------
#
# This file is available in the Crystallography Open Database (COD),
# http://www.crystallography.net/. The original data for this entry
# were provided by IUCr Journals, http://journals.iucr.org/.
#
# The file may be used within the scientific community so long as
# proper attribution is given to the journal article from which the
# data were obtained.
#
data_2108976
loop_
_publ_author_name
'Aree, Thammarat'
'McMonagle, Charles J.'
'Michalchuk, Adam A. L.'
'Chernyshov, Dmitry'
_publ_section_title
;
 Low-frequency lattice vibrations from atomic displacement parameters of
 \a-FOX-7, a high energy density material
;
_journal_coeditor_code           WU5002
_journal_issue                   3
_journal_name_full               'Acta Crystallographica Section B'
_journal_page_first
;
;
_journal_paper_doi               10.1107/S2052520622002700
_journal_volume                  78
_journal_year                    2022
_chemical_formula_moiety         'C2 H4 N4 O4'
_chemical_formula_sum            'C2 H4 N4 O4'
_chemical_formula_weight         148.079
_chemical_name_systematic        1,1-Diamino-2,2-dinitroethylene
_space_group_crystal_system      monoclinic
_space_group_IT_number           14
_space_group_name_Hall           '-P 2yn'
_space_group_name_H-M_alt        'P 1 21/n 1'
_atom_sites_solution_primary     notdet
_audit_creation_method
;
Olex2 1.3
(compiled 2020.11.12 svn.r5f609507 for OlexSys, GUI svn.r6408)
;
_cell_angle_alpha                90
_cell_angle_beta                 90.618(2)
_cell_angle_gamma                90
_cell_formula_units_Z            4
_cell_length_a                   6.94840(10)
_cell_length_b                   6.6942(2)
_cell_length_c                   11.3547(4)
_cell_measurement_reflns_used    670
_cell_measurement_temperature    360
_cell_measurement_theta_max      28.8250
_cell_measurement_theta_min      3.2960
_cell_volume                     528.12(3)
_computing_cell_refinement
;
CrysAlisPro 1.171.40.67a (Rigaku OD, 2019)
;
_computing_data_collection
;
CrysAlisPro 1.171.40.67a (Rigaku OD, 2019)
;
_computing_data_reduction
;
CrysAlisPro 1.171.40.67a (Rigaku OD, 2019)
;
_computing_molecular_graphics
;
Olex2 1.3 (Dolomanov <i>et al.</i>,  2009)
;
_computing_publication_material
;
Olex2 1.3 (Dolomanov <i>et al.</i>,  2009)
;
_computing_structure_refinement
;
olex2.refine 1.3 (Bourhis <i>et al.</i>,  2015)
;
_diffrn_ambient_temperature      360.0
_diffrn_detector                 'Hybrid Pixel Array Detector'
_diffrn_detector_area_resol_mean 5.8140
_diffrn_measured_fraction_theta_full 0.9065
_diffrn_measured_fraction_theta_max 0.6651
_diffrn_measurement_device       'one-circle diffractometer'
_diffrn_measurement_device_type  PILATUS@SNBL
_diffrn_measurement_method       '\w scans'
_diffrn_radiation_monochromator  'silicon 111'
_diffrn_radiation_probe          x-ray
_diffrn_radiation_type           synchrotron
_diffrn_radiation_wavelength     0.66418
_diffrn_reflns_av_R_equivalents  0.0500
_diffrn_reflns_av_unetI/netI     0.0685
_diffrn_reflns_limit_h_max       11
_diffrn_reflns_limit_h_min       -11
_diffrn_reflns_limit_k_max       10
_diffrn_reflns_limit_k_min       -10
_diffrn_reflns_limit_l_max       13
_diffrn_reflns_limit_l_min       -13
_diffrn_reflns_number            4982
_diffrn_reflns_theta_full        23.4849
_diffrn_reflns_theta_max         32.87
_diffrn_reflns_theta_min         3.20
_diffrn_source
;
European Synchrotron Radiation Facility (ESRF), BM01 - The Swiss-Norwegian
Beamlines
;
_exptl_absorpt_coefficient_mu    0.149
_exptl_absorpt_correction_T_max  1.00000
_exptl_absorpt_correction_T_min  0.38485
_exptl_absorpt_correction_type   multi-scan
_exptl_absorpt_process_details
;
CrysAlisPro 1.171.40.67a (Rigaku OD, 2019)
Empirical absorption correction using spherical harmonics,
implemented in SCALE3 ABSPACK scaling algorithm.
;
_exptl_crystal_colour            'clear yellow'
_exptl_crystal_density_diffrn    1.862
_exptl_crystal_description       block
_exptl_crystal_F_000             304.164
_exptl_crystal_size_max          0.2
_exptl_crystal_size_mid          0.1
_exptl_crystal_size_min          0.1
_refine_diff_density_max         0.6812
_refine_diff_density_min         -0.5005
_refine_ls_goodness_of_fit_ref   1.0073
_refine_ls_hydrogen_treatment    refall
_refine_ls_matrix_type           full
_refine_ls_number_constraints    0
_refine_ls_number_parameters     127
_refine_ls_number_reflns         1607
_refine_ls_number_restraints     93
_refine_ls_restrained_S_all      0.9771
_refine_ls_R_factor_all          0.1182
_refine_ls_R_factor_gt           0.0949
_refine_ls_shift/su_max          0.0001
_refine_ls_shift/su_mean         0.0000
_refine_ls_structure_factor_coef Fsqd
_refine_ls_weighting_details
'w=1/[\s^2^(Fo^2^)+(0.1986P)^2^] where P=(Fo^2^+2Fc^2^)/3'
_refine_ls_weighting_scheme      calc
_refine_ls_wR_factor_gt          0.2478
_refine_ls_wR_factor_ref         0.2870
_reflns_number_gt                1029
_reflns_number_total             1607
_reflns_threshold_expression     I>=2u(I)
_iucr_refine_instructions_details
;
TITL 080_a.res in P2(1)/n
REM Old TITL 080 in P2(1)/n
REM SHELXT solution in P2(1)/n: R1 0.095, Rweak 0.008, Alpha 0.021
REM <I/s> 0.719 for 71 systematic absences, Orientation as input
REM Formula found by SHELXT: C3 N2 O5
CELL 0.66418 6.9484 6.6942 11.3547 90 90.618 90
ZERR 4 0.0001 0.0002 0.0004 0 0.002 0
LATT 1
SYMM 0.5-X,0.5+Y,0.5-Z
SFAC C H N O
DISP C 0.0028 0.0014 9.9123
DISP H -0 0 0.6652
DISP N 0.0056 0.0029 16.5876
DISP O 0.0097 0.0054 27.0096
UNIT 8 16 16 16
RIGU O11 O12 O21 O22 N11 N12 N21 H21a H21b N22 H22a H22b C1 C2
L.S. 30
PLAN  5
TEMP 86.85
CONF
BOND
MORE -1
BOND $H
fmap 2
acta
LIST -6
OMIT -2 0 4
WGHT 0.198596 0
FVAR 6.861711
REM <olex2.extras>
REM <HklSrc "%.\\360.hkl">
REM </olex2.extras>
O12   4     0.58112  0.70394  0.58152  11.00000  0.03409  0.10379  0.05650 =
 0.01413 -0.00021  0.00211
O11   4     0.52412  0.56606  0.74855  11.00000  0.04003  0.07668  0.04823 =
 0.01064 -0.01340  0.00525
O22   4     0.19940  0.66916  0.83421  11.00000  0.04315  0.09858  0.03589 =
 -0.00387 -0.00592 -0.00504
O21   4    -0.01487  0.56652  0.71274  11.00000  0.03903  0.08695  0.04401 =
 0.00239 -0.00268 -0.01571
N12   3     0.14741  0.63270  0.73299  11.00000  0.03406  0.05531  0.03555 =
 0.00229 -0.00504 -0.00075
N11   3     0.46580  0.64835  0.65797  11.00000  0.03113  0.05780  0.03760 =
 -0.00048 -0.00537  0.00203
N22   3    -0.00044  0.75402  0.50999  11.00000  0.03693  0.06294  0.04102 =
 0.00328 -0.01006  0.00280
H22a  2    -0.05983  0.79549  0.43054  11.00000  0.04764  0.07786  0.04906 =
 0.01012 -0.01426  0.00195
H22b  2    -0.10645  0.72044  0.57783  11.00000  0.04287  0.09821  0.05244 =
 0.01855 -0.00532  0.00530
N21   3     0.29953  0.79855  0.44010  11.00000  0.04167  0.08323  0.04418 =
 0.01250 -0.00413  0.00139
H21a  2     0.23621  0.83970  0.36913  11.00000  0.04784  0.13562  0.05182 =
 0.03288 -0.00747 -0.00290
H21b  2     0.43077  0.79898  0.46150  11.00000  0.04238  0.08520  0.05699 =
 0.01602 -0.00599 -0.00024
C2    1     0.18808  0.74153  0.52674  11.00000  0.03373  0.04686  0.03313 =
 0.00142 -0.00500  0.00169
C1    1     0.27071  0.67260  0.63594  11.00000  0.03254  0.04993  0.03647 =
 0.00323 -0.00767 -0.00040
HKLF 4
END
Q4 1 0.3 0.814815 0.4375 11 0.05 0.66
Q5 1 0.533333 0.592593 0.75 11 0.05 0.65
Q3 1 0.466667 0.666667 0.666667 11 0.05 0.66
Q2 1 0 0.759259 0.520833 11 0.05 0.68
Q1 1 0.2 0.648148 0.833333 11 0.05 0.68
  REM The information below was added by Olex2.
  REM
  REM R1 = 0.0949 for 1029 Fo > 4sig(Fo) and 0.1182 for all 1607 data
  REM 127 parameters refined using 93 restraints
  REM Highest difference peak 0.6812, deepest hole -0.5005
  REM Mean Shift 0.0000, Max Shift 0.0001.
  REM +++ Tabular Listing of Refinement Information +++
  REM R1_all = 0.1182
  REM R1_gt = 0.0949
  REM wR_ref = 0.2870
  REM GOOF = 1.0073
  REM Shift_max = 0.0001
  REM Shift_mean = 0.0000
  REM Reflections_all = 1607
  REM Reflections_gt = 1029
  REM Parameters = 127
  REM Hole = -0.5005
  REM Peak = 0.6812
  REM Flack = n/a
;
_cod_data_source_file            wu5002sup1.cif
_cod_data_source_block           360
_cod_database_code               2108976
loop_
_space_group_symop_id
_space_group_symop_operation_xyz
1 x,y,z
2 -x+1/2,y+1/2,-z+1/2
3 -x,-y,-z
4 x-1/2,-y-1/2,z-1/2
loop_
_atom_site_type_symbol
_atom_site_label
_atom_site_fract_x
_atom_site_fract_y
_atom_site_fract_z
_atom_site_U_iso_or_equiv
_atom_site_adp_type
_atom_site_occupancy
O O12 0.5811(3) 0.7039(4) 0.5815(2) 0.0648(7) Uani 1.000000
O O11 0.5241(3) 0.5661(3) 0.74855(19) 0.0551(6) Uani 1.000000
O O22 0.1994(3) 0.6692(3) 0.83421(18) 0.0593(6) Uani 1.000000
O O21 -0.0149(2) 0.5665(3) 0.71274(18) 0.0567(6) Uani 1.000000
N N12 0.1474(3) 0.6327(3) 0.73299(18) 0.0417(6) Uani 1.000000
N N11 0.4658(3) 0.6483(3) 0.65797(19) 0.0422(6) Uani 1.000000
N N22 -0.0004(3) 0.7540(3) 0.5100(2) 0.0470(6) Uani 1.000000
H H22a -0.060(6) 0.795(6) 0.431(4) 0.058(9) Uani 1.000000
H H22b -0.106(7) 0.720(7) 0.578(4) 0.065(11) Uani 1.000000
N N21 0.2995(4) 0.7985(4) 0.4401(2) 0.0564(7) Uani 1.000000
H H21a 0.236(6) 0.840(7) 0.369(4) 0.078(13) Uani 1.000000
H H21b 0.431(6) 0.799(6) 0.462(4) 0.062(10) Uani 1.000000
C C2 0.1881(3) 0.7415(3) 0.5267(2) 0.0379(6) Uani 1.000000
C C1 0.2707(3) 0.6726(3) 0.6359(2) 0.0397(6) Uani 1.000000
loop_
_atom_site_aniso_label
_atom_site_aniso_U_11
_atom_site_aniso_U_22
_atom_site_aniso_U_33
_atom_site_aniso_U_12
_atom_site_aniso_U_13
_atom_site_aniso_U_23
O12 0.0341(10) 0.1038(17) 0.0565(15) 0.0021(9) -0.0002(9) 0.0141(11)
O11 0.0400(9) 0.0767(13) 0.0482(13) 0.0053(8) -0.0134(8) 0.0106(8)
O22 0.0432(10) 0.0986(16) 0.0359(12) -0.0050(9) -0.0059(8) -0.0039(9)
O21 0.0390(9) 0.0870(14) 0.0440(13) -0.0157(8) -0.0027(8) 0.0024(9)
N12 0.0341(9) 0.0553(10) 0.0355(12) -0.0007(7) -0.0050(7) 0.0023(7)
N11 0.0311(8) 0.0578(10) 0.0376(12) 0.0020(7) -0.0054(7) -0.0005(8)
N22 0.0369(10) 0.0629(12) 0.0410(14) 0.0028(8) -0.0101(9) 0.0033(9)
H22a 0.048(10) 0.08(2) 0.049(6) 0.002(6) -0.014(3) 0.010(5)
H22b 0.043(8) 0.10(3) 0.052(9) 0.005(5) -0.005(4) 0.019(7)
N21 0.0417(12) 0.0832(16) 0.0442(14) 0.0014(10) -0.0041(9) 0.0125(10)
H21a 0.048(10) 0.14(3) 0.052(7) -0.003(6) -0.007(3) 0.033(7)
H21b 0.042(4) 0.09(3) 0.057(12) 0.000(3) -0.006(2) 0.016(7)
C2 0.0337(10) 0.0469(10) 0.0331(13) 0.0017(7) -0.0050(8) 0.0014(8)
C1 0.0325(9) 0.0499(11) 0.0365(13) -0.0004(7) -0.0077(8) 0.0032(8)
loop_
_atom_type_symbol
_atom_type_scat_dispersion_source
_atom_type_scat_dispersion_real
_atom_type_scat_dispersion_imag
_atom_type_scat_source
H custom 0.00000 0.00000 'NoSpherA2: Chem.Sci. 2021, DOI:10.1039/D0SC05526C'
C custom 0.00280 0.00140 'NoSpherA2: Chem.Sci. 2021, DOI:10.1039/D0SC05526C'
O custom 0.00970 0.00540 'NoSpherA2: Chem.Sci. 2021, DOI:10.1039/D0SC05526C'
N custom 0.00560 0.00290 'NoSpherA2: Chem.Sci. 2021, DOI:10.1039/D0SC05526C'
loop_
_diffrn_refln_index_h
_diffrn_refln_index_k
_diffrn_refln_index_l
0 0 2
0 0 -2
0 0 -3
0 0 -4
0 0 4
0 0 5
0 0 -5
0 0 -6
0 0 7
0 0 -7
0 0 -8
0 0 8
0 0 11
0 0 -12
0 0 12
0 1 0
0 -1 0
0 1 1
0 -1 1
0 1 -1
0 -1 -1
0 1 -2
0 -1 2
0 1 2
0 -1 -2
0 1 3
0 -1 -3
0 1 -3
0 -1 3
0 1 -4
0 -1 -4
0 -1 4
0 1 4
0 1 -5
0 1 5
0 -1 5
0 -1 -6
0 1 6
0 -1 -7
0 1 7
0 -1 -8
0 1 8
0 -1 9
0 1 -9
0 1 -10
0 -1 10
0 1 11
0 -1 11
0 -1 12
0 1 12
0 1 -12
0 -1 -12
0 2 0
0 -2 0
0 -2 1
0 -2 -1
0 2 -1
0 2 1
0 -2 2
0 -2 -2
0 2 -2
0 2 2
0 -2 -3
0 2 3
0 -2 -4
0 2 4
0 2 -5
0 -2 5
0 2 -6
0 -2 -7
0 2 -7
0 2 7
0 -2 7
0 -2 -8
0 2 8
0 2 -8
0 2 -9
0 -2 9
0 -2 -9
0 2 9
0 2 10
0 -2 -10
0 -2 10
0 2 11
0 -2 -11
0 -2 11
0 2 -11
0 -2 12
0 2 12
0 2 -12
0 -2 -12
0 -3 0
0 3 0
0 3 1
0 -3 1
0 3 -1
0 -3 -1
0 3 -2
0 3 2
0 -3 -2
0 -3 2
0 -3 3
0 -3 -3
0 3 3
0 3 -3
0 3 -4
0 -3 -4
0 3 4
0 -3 4
0 -3 5
0 3 5
0 3 -5
0 -3 -5
0 -3 -6
0 3 6
0 3 -6
0 3 -7
0 -3 -7
0 3 7
0 -3 7
0 3 8
0 -3 8
0 -3 -8
0 3 -8
0 3 9
0 -3 9
0 3 -9
0 3 10
0 3 -10
0 -3 10
0 -3 -10
0 -3 -11
0 3 11
0 3 12
0 4 0
0 -4 0
0 -4 1
0 4 1
0 -4 -1
0 4 -1
0 -4 2
0 4 -2
0 -4 -2
0 4 2
0 -4 3
0 4 -3
0 -4 -3
0 4 3
0 -4 4
0 4 4
0 4 -4
0 -4 -4
0 -4 -5
0 -4 5
0 4 -5
0 4 6
0 -4 -6
0 -4 -7
0 4 7
0 -4 7
0 4 -7
0 4 -8
0 -4 8
0 4 8
0 -4 -8
0 4 -9
0 4 9
0 -4 -9
0 -4 9
0 -4 10
0 4 -10
0 -4 11
0 4 -11
0 -4 12
0 5 0
0 -5 0
0 5 1
0 -5 1
0 -5 -1
0 5 -1
0 5 2
0 -5 -2
0 5 -2
0 -5 2
0 5 -3
0 -5 3
0 5 3
0 -5 -3
0 -5 4
0 5 -4
0 5 4
0 -5 5
0 5 5
0 5 -5
0 -5 -5
0 5 -6
0 5 6
0 -5 -6
0 -5 7
0 5 7
0 5 -7
0 -5 -7
0 -5 8
0 5 -8
0 -5 -8
0 5 8
0 5 9
0 5 -9
0 -5 9
0 -5 -9
0 -5 10
0 5 10
0 -5 -10
0 5 -10
0 5 11
0 -6 0
0 6 0
0 -6 1
0 6 1
0 -6 -1
0 6 -1
0 6 2
0 -6 -2
0 -6 2
0 6 -2
0 -6 -3
0 -6 3
0 6 -3
0 6 3
0 -6 4
0 6 -4
0 -6 -4
0 6 5
0 -6 -5
0 6 6
0 6 -6
0 -6 -6
0 -6 -7
0 6 7
0 6 -7
0 -6 7
0 6 8
0 -6 -8
0 6 -8
0 -6 8
0 6 -9
0 -6 9
0 6 -10
0 -6 10
0 6 -11
0 -6 11
0 -7 0
0 7 0
0 7 -1
0 -7 -1
0 -7 1
0 7 1
0 -7 2
0 -7 -2
0 7 -2
0 7 2
0 -7 3
0 7 3
0 7 -3
0 -7 -4
0 -7 4
0 7 4
0 7 -4
0 -7 -5
0 -7 5
0 7 5
0 -7 6
0 7 -6
0 7 6
0 -7 -6
0 -7 -7
0 7 -7
0 -7 7
0 7 7
0 7 8
0 -7 -8
0 -7 9
0 7 -9
0 -7 -9
0 7 9
0 -7 10
0 7 -10
0 -8 0
0 8 0
0 8 1
0 8 -1
0 -8 1
0 -8 -1
0 -8 2
0 8 -2
0 8 2
0 -8 -2
0 8 -3
0 -8 3
0 -8 -3
0 8 4
0 -8 4
0 -8 -4
0 8 -4
0 -8 5
0 -8 -5
0 8 5
0 8 -5
0 8 -6
0 -8 6
0 -8 -6
0 8 6
0 -8 -7
0 8 -7
0 8 7
0 -8 7
0 -8 -8
0 8 8
0 8 -9
0 -8 9
0 -8 10
0 9 0
0 -9 0
0 9 -1
0 -9 -1
0 9 1
0 9 -2
0 -9 2
0 9 2
0 -9 3
0 9 -3
0 9 3
0 -9 -3
0 -9 4
0 9 -4
0 -9 -4
0 9 4
0 -9 -5
0 9 -5
0 9 5
0 -9 -6
0 9 6
0 9 -6
0 -9 6
0 -9 -7
0 9 7
0 -9 8
0 9 -8
0 -9 9
0 9 -9
0 -10 0
0 10 0
0 -10 1
0 -10 -1
0 10 -1
0 10 1
0 -10 2
0 10 -2
0 -10 -2
0 10 2
0 10 3
0 10 -3
0 -10 -3
0 -10 3
0 -10 -4
0 10 4
0 10 -5
0 -10 -5
0 10 5
0 -10 5
0 -10 6
0 10 -6
0 -10 7
0 10 -7
-1 0 9
1 0 -9
-1 0 8
1 0 -8
-1 0 1
1 0 -1
1 0 0
-1 0 0
1 0 1
-1 0 -1
-1 0 -2
1 0 2
1 0 3
-1 0 -3
1 0 4
-1 0 -4
-1 0 -7
1 0 7
1 0 8
-1 0 -8
-1 0 -9
1 0 9
-1 0 -10
1 0 10
-1 0 -11
1 0 11
-1 0 -12
1 0 12
1 0 13
-1 -1 12
-1 -1 11
1 1 -11
1 1 -10
-1 -1 10
1 -1 -9
-1 1 9
1 1 -9
-1 -1 9
1 1 -8
-1 -1 8
1 1 -7
-1 1 7
1 1 -6
-1 1 6
-1 -1 6
1 1 -5
-1 -1 5
-1 -1 4
1 1 -4
1 -1 -3
-1 -1 3
1 1 -3
-1 1 3
-1 -1 2
-1 1 2
1 -1 -2
1 1 -2
-1 1 1
-1 -1 1
1 1 -1
1 -1 -1
1 -1 0
-1 1 0
-1 -1 0
1 1 0
-1 1 -1
1 -1 1
1 1 1
-1 -1 -1
1 1 2
-1 1 -2
1 -1 2
-1 -1 -2
-1 -1 -3
1 1 3
1 -1 3
-1 1 -3
-1 -1 -4
1 1 4
1 -1 5
-1 1 -5
1 1 6
1 -1 6
-1 -1 -6
1 -1 7
1 1 7
-1 -1 -7
-1 1 -7
-1 1 -8
-1 -1 -8
1 1 8
-1 -1 -9
1 1 9
1 -1 9
-1 1 -10
1 -1 10
-1 -1 -11
-1 1 -11
1 -1 11
1 1 11
1 -1 12
-1 -1 -12
1 1 12
1 1 13
-1 -2 12
-1 2 11
-1 -2 11
1 2 -11
1 -2 -11
1 -2 -10
-1 -2 10
-1 2 10
1 2 -10
-1 2 9
-1 -2 9
1 -2 -9
1 2 -9
1 2 -8
-1 -2 8
-1 2 8
1 -2 -8
1 -2 -7
1 2 -7
-1 2 7
-1 -2 7
1 -2 -6
-1 2 6
1 -2 -5
-1 2 5
-1 2 4
1 -2 -3
-1 2 3
1 -2 -2
-1 -2 2
-1 2 2
1 2 -2
-1 2 1
1 -2 -1
1 -2 0
-1 2 0
-1 2 -2
1 -2 2
-1 2 -3
1 -2 3
-1 -2 -3
1 2 3
1 2 4
-1 2 -4
-1 -2 -4
1 -2 4
1 2 5
1 -2 5
-1 -2 -5
-1 2 -5
1 -2 6
1 2 6
-1 -2 -6
1 2 7
1 -2 7
-1 2 -7
-1 -2 -7
-1 -2 -8
1 2 8
-1 2 -8
1 -2 8
1 2 9
1 -2 9
-1 -2 -9
-1 2 -9
-1 -2 -10
1 -2 10
1 2 10
-1 2 -10
-1 -2 -11
1 2 11
1 -2 12
-1 2 -12
-1 -2 -12
1 2 12
1 -2 13
-1 -3 12
1 3 -11
-1 3 11
1 -3 -11
-1 -3 11
1 -3 -10
-1 3 10
1 3 -10
-1 -3 10
1 -3 -9
1 3 -9
-1 3 9
-1 -3 9
1 3 -8
-1 3 8
1 -3 -8
1 -3 -7
-1 -3 7
1 3 -7
-1 3 7
1 3 -6
-1 -3 6
1 -3 -6
-1 3 6
1 3 -5
-1 -3 5
-1 3 5
1 -3 -5
-1 3 4
1 -3 -4
1 3 -4
-1 -3 4
1 3 -3
-1 -3 3
1 -3 -3
-1 3 3
-1 -3 2
1 -3 -2
-1 3 2
-1 -3 1
1 -3 -1
-1 3 1
1 3 -1
-1 -3 0
1 -3 0
1 3 0
-1 3 0
1 3 1
-1 3 -1
-1 -3 -1
1 -3 1
1 3 2
1 -3 2
-1 -3 -2
-1 3 -2
1 3 3
1 -3 3
-1 3 -3
-1 -3 -3
1 -3 4
1 3 4
-1 -3 -4
-1 3 -4
-1 3 -5
1 3 5
-1 -3 -5
1 -3 5
1 -3 6
-1 -3 -6
-1 -3 -7
-1 3 -7
1 3 7
1 3 8
-1 -3 -8
1 3 9
1 -3 9
-1 -3 -9
-1 -3 -10
-1 3 -10
1 3 10
1 -3 10
-1 3 -11
1 -3 11
-1 -3 -12
1 3 12
-1 3 -12
1 -3 12
1 4 -11
-1 -4 11
-1 -4 10
1 -4 -10
1 4 -10
-1 4 10
1 4 -9
-1 4 9
-1 -4 9
1 -4 -9
-1 4 8
1 -4 -8
1 -4 -7
-1 4 7
1 4 -6
-1 -4 6
1 -4 -6
-1 4 6
-1 4 5
-1 -4 5
1 4 -5
1 -4 -5
1 4 -4
-1 4 4
-1 -4 4
1 -4 -4
1 4 -3
1 -4 -3
-1 4 3
-1 -4 3
-1 4 2
-1 -4 2
1 4 -2
1 -4 -2
-1 -4 1
1 4 -1
-1 4 1
1 -4 -1
-1 -4 0
-1 4 0
1 4 0
1 -4 0
-1 4 -1
1 4 1
1 -4 1
-1 -4 -1
-1 -4 -2
1 4 2
-1 4 -2
1 -4 2
-1 4 -3
1 4 3
1 -4 3
-1 -4 -3
1 4 4
-1 -4 -4
1 -4 5
-1 4 -5
1 4 5
1 -4 6
-1 4 -7
1 -4 7
1 -4 8
-1 -4 -8
1 4 8
-1 4 -8
-1 4 -9
1 4 9
-1 -4 -9
1 -4 9
-1 -4 -10
1 -4 10
-1 4 -10
1 4 10
1 -4 11
1 4 11
-1 -4 -11
-1 4 -11
-1 4 -12
1 -4 12
1 4 12
1 5 -11
-1 -5 11
1 -5 -10
-1 -5 10
1 5 -10
-1 5 10
-1 5 9
-1 -5 9
1 -5 -9
1 5 -9
1 5 -8
1 -5 -8
-1 5 8
-1 -5 8
-1 5 7
-1 -5 7
1 -5 -7
1 5 -7
1 -5 -6
-1 5 6
1 5 -6
-1 -5 6
1 5 -5
1 -5 -5
-1 5 5
-1 -5 4
1 -5 -4
-1 5 4
1 5 -4
1 -5 -3
1 5 -3
-1 -5 3
-1 5 3
1 5 -2
-1 5 2
1 -5 -2
-1 -5 2
1 5 -1
-1 -5 1
1 -5 -1
-1 5 1
1 5 0
-1 5 0
1 -5 0
-1 -5 0
-1 5 -1
1 5 1
1 -5 1
-1 -5 -1
1 5 2
-1 5 -2
-1 -5 -2
1 -5 2
1 5 3
-1 -5 -3
1 -5 3
-1 5 -3
1 5 4
-1 5 -4
-1 -5 -4
1 -5 4
-1 -5 -5
-1 5 -5
1 -5 5
1 5 5
1 5 6
-1 -5 -6
1 -5 6
1 -5 7
1 5 7
-1 -5 -7
-1 5 -7
1 -5 8
1 5 8
-1 -5 -8
-1 5 -8
-1 -5 -9
1 5 9
1 5 10
1 -5 10
-1 5 -10
-1 -5 -10
1 -5 11
-1 5 -11
1 5 11
-1 -5 -11
1 -5 12
-1 5 -12
-1 -6 10
1 6 -10
1 -6 -9
-1 6 9
1 6 -9
-1 -6 9
-1 6 8
1 -6 -8
1 6 -8
-1 -6 8
-1 6 7
-1 -6 7
1 6 -7
1 -6 -7
-1 6 6
1 -6 -6
1 -6 -5
-1 6 5
-1 -6 4
1 -6 -4
1 6 -4
-1 6 4
1 6 -3
-1 6 3
-1 -6 3
1 -6 -3
-1 6 2
-1 -6 2
1 -6 -2
1 6 -2
-1 -6 1
1 6 -1
1 -6 -1
-1 6 1
1 -6 0
1 6 0
-1 -6 0
-1 6 0
1 6 1
-1 -6 -1
-1 6 -1
1 -6 1
-1 -6 -2
1 6 2
1 -6 2
-1 6 -2
1 -6 3
1 6 3
-1 6 -3
-1 -6 -3
-1 -6 -4
1 6 4
1 6 5
1 -6 5
-1 6 -5
-1 -6 -5
-1 6 -6
1 -6 6
1 -6 7
-1 6 -7
-1 -6 -8
1 -6 8
-1 6 -8
1 6 8
-1 6 -9
-1 -6 -9
1 -6 9
1 6 9
1 6 10
1 -6 10
-1 6 -10
-1 -6 -10
1 7 -10
-1 -7 10
-1 7 9
1 -7 -8
-1 7 8
-1 7 7
1 -7 -7
1 7 -7
-1 -7 7
1 7 -6
1 -7 -6
-1 -7 6
-1 7 6
1 -7 -5
-1 7 5
-1 -7 5
1 7 -5
-1 7 4
1 -7 -4
-1 -7 4
1 7 -4
-1 7 3
-1 -7 3
1 -7 -3
1 7 -3
-1 7 2
-1 -7 2
1 7 -2
1 -7 -2
1 7 -1
-1 -7 1
-1 7 1
1 -7 -1
-1 -7 0
1 7 0
-1 7 0
1 -7 0
-1 7 -1
1 7 1
-1 -7 -1
1 -7 1
1 -7 2
-1 -7 -2
-1 7 -2
1 7 2
1 7 3
1 -7 3
-1 -7 -3
-1 7 -3
-1 7 -4
-1 -7 -4
1 -7 4
1 7 4
1 7 5
-1 7 -5
-1 -7 -5
1 -7 5
-1 -7 -6
1 7 6
1 -7 6
-1 7 -6
-1 -7 -7
1 7 7
-1 7 -8
-1 -7 -8
1 -7 8
1 7 8
-1 7 -9
1 -7 9
-1 7 -10
1 7 10
1 -7 10
-1 7 -11
1 -7 11
-1 -8 8
-1 8 8
1 8 -8
-1 8 7
1 -8 -7
1 8 -7
-1 -8 7
-1 -8 6
1 8 -6
1 -8 -6
-1 8 6
1 -8 -5
1 8 -5
-1 8 5
1 -8 -4
-1 8 4
-1 -8 4
1 8 -3
-1 8 3
1 -8 -3
-1 -8 3
1 8 -2
-1 -8 2
1 -8 -2
-1 8 2
-1 8 1
-1 -8 1
1 -8 -1
1 8 -1
-1 -8 0
1 8 0
1 -8 0
-1 8 0
-1 8 -1
-1 -8 -1
1 8 1
1 -8 1
-1 -8 -2
1 8 2
1 -8 2
-1 8 -2
1 -8 3
1 8 3
-1 8 -3
-1 -8 -3
-1 -8 -4
-1 8 -4
1 -8 4
1 8 4
1 -8 5
1 8 5
-1 -8 -5
-1 8 -5
1 8 6
-1 -8 -6
-1 8 -6
-1 -8 -7
1 8 7
-1 8 -8
1 -8 8
-1 -8 -8
1 8 8
1 -8 9
-1 8 -9
1 8 9
1 -8 10
-1 8 -10
-1 -9 8
1 9 -8
-1 9 6
1 -9 -6
-1 -9 6
1 9 -6
-1 9 5
1 -9 -5
-1 -9 5
1 9 -5
-1 9 4
1 9 -4
1 -9 -4
1 9 -3
-1 -9 3
-1 9 3
1 -9 -3
-1 9 2
1 -9 -2
1 9 -2
-1 -9 2
1 9 -1
-1 -9 1
-1 9 1
-1 -9 0
1 9 0
1 -9 0
-1 9 0
1 9 1
-1 -9 -1
1 -9 1
-1 9 -1
1 -9 2
-1 9 -2
-1 -9 -2
1 9 2
-1 9 -3
-1 -9 -3
1 -9 3
1 9 4
1 -9 4
-1 -9 -4
-1 9 -4
1 -9 5
-1 -9 -5
1 9 5
-1 -9 -6
1 9 6
1 9 7
-1 9 -7
1 -9 7
-1 -9 -7
1 -9 8
-1 9 -8
1 -9 9
-1 9 -9
1 10 -7
-1 -10 7
1 10 -6
-1 -10 6
-1 10 5
-1 -10 5
1 -10 -5
1 10 -5
1 -10 -4
-1 10 4
-1 10 3
-1 -10 3
1 -10 -3
1 10 -3
-1 -10 2
1 -10 -2
1 10 -2
-1 10 2
-1 -10 1
1 10 -1
1 -10 -1
1 10 0
-1 -10 0
-1 10 0
1 -10 0
1 10 1
-1 -10 -1
1 -10 1
-1 10 -1
1 -10 2
1 10 2
-1 10 -2
-1 -10 -3
1 10 3
-1 -10 -4
1 10 4
1 10 6
-1 -10 -6
-1 10 -6
1 -10 6
-2 0 4
2 0 -3
-2 0 3
2 0 -2
-2 0 2
2 0 -1
-2 0 1
-2 0 0
2 0 0
-2 0 -1
2 0 1
-2 0 -3
2 0 3
-2 0 -4
2 0 4
-2 0 -5
2 0 5
-2 0 -6
2 0 6
-2 0 -7
2 0 8
-2 0 -8
2 0 9
-2 0 -9
2 0 11
-2 0 -11
2 0 12
-2 0 -12
-2 0 -13
2 0 13
-2 -1 8
2 1 -8
2 1 -7
-2 -1 7
2 1 -6
-2 -1 6
2 1 -5
2 -1 -5
-2 -1 5
-2 -1 4
-2 1 4
2 -1 -4
2 1 -4
2 -1 -3
2 1 -3
-2 -1 3
-2 -1 2
-2 1 2
2 1 -2
2 -1 -2
2 1 -1
-2 1 1
-2 -1 1
-2 1 0
-2 -1 0
2 -1 0
2 1 0
2 -1 2
2 1 2
-2 -1 -2
-2 1 -2
2 -1 3
-2 -1 -3
-2 1 -3
2 1 3
2 1 4
-2 -1 -4
-2 1 -4
2 -1 4
2 -1 5
2 1 5
-2 -1 -5
-2 1 -5
-2 1 -6
2 -1 6
2 1 6
-2 -1 -6
-2 -1 -7
2 -1 7
-2 1 -7
2 -1 8
-2 -1 -8
2 1 8
-2 1 -8
-2 1 -9
2 -1 9
-2 -1 -9
2 1 9
-2 -1 -11
2 1 11
2 -1 11
2 -1 12
2 1 12
-2 -1 -12
2 1 13
-2 -1 -13
2 -1 13
-2 1 -13
2 2 -11
-2 -2 11
-2 -2 10
2 2 -10
-2 -2 9
2 2 -9
2 -2 -8
-2 2 8
2 -2 -7
-2 2 7
2 -2 -6
-2 2 6
2 -2 -5
-2 2 5
2 -2 -4
-2 2 3
2 -2 -3
2 2 -2
-2 -2 2
2 2 -1
-2 -2 1
2 2 0
2 -2 0
-2 -2 0
-2 -2 -1
2 -2 1
2 2 1
-2 2 -1
2 -2 2
-2 -2 -2
-2 2 -2
2 2 2
-2 2 -3
-2 -2 -3
2 2 3
2 -2 3
2 -2 4
-2 2 -4
-2 -2 -4
2 2 4
-2 -2 -5
2 2 5
-2 2 -5
2 -2 6
2 2 6
-2 -2 -6
-2 2 -6
2 2 7
-2 -2 -7
2 -2 7
-2 -2 -8
2 2 8
-2 2 -9
2 -2 9
2 2 10
-2 -2 -10
2 -2 10
-2 2 -10
2 -2 11
2 2 11
-2 -2 -11
-2 -2 -12
2 2 12
2 -2 12
-2 2 -12
2 2 13
2 -2 13
-2 2 -13
-2 -3 11
2 3 -11
2 -3 -10
-2 3 10
2 3 -10
-2 -3 10
-2 -3 9
2 -3 -9
2 3 -9
-2 3 9
2 3 -8
-2 -3 8
2 -3 -7
2 3 -7
-2 -3 7
-2 3 7
2 -3 -6
-2 -3 6
2 3 -6
-2 3 6
-2 3 5
2 -3 -5
2 3 -5
-2 -3 4
2 -3 -4
-2 3 4
2 3 -3
-2 -3 3
-2 3 3
2 3 -2
-2 -3 2
2 -3 -2
-2 3 2
2 3 -1
2 -3 -1
-2 3 1
-2 -3 1
-2 3 0
-2 -3 0
2 -3 0
2 3 0
-2 -3 -1
2 3 1
-2 3 -1
2 -3 1
-2 -3 -2
2 -3 2
-2 3 -2
2 3 2
-2 3 -3
-2 -3 -3
2 3 3
2 -3 3
-2 -3 -4
2 -3 4
2 3 4
-2 3 -4
2 3 5
-2 3 -5
2 -3 5
-2 -3 -5
2 3 6
-2 3 -7
2 -3 7
-2 3 -8
2 3 8
-2 -3 -8
2 -3 8
2 3 9
-2 -3 -9
-2 3 -9
-2 -3 -10
-2 3 -10
2 3 10
2 -3 10
-2 -3 -11
2 3 11
-2 3 -11
2 -3 11
-2 -3 -12
-2 3 -12
2 3 12
2 -3 12
2 -4 -10
-2 4 10
-2 4 9
2 -4 -9
-2 4 8
2 -4 -8
-2 -4 7
2 -4 -7
-2 4 7
2 4 -7
-2 4 6
2 4 -6
-2 -4 6
2 -4 -6
2 4 -5
-2 4 5
-2 -4 5
2 -4 -5
-2 -4 4
2 4 -4
2 -4 -4
-2 4 4
-2 4 3
2 -4 -3
2 4 -3
-2 -4 3
2 4 -2
2 -4 -2
-2 4 2
-2 -4 2
2 -4 -1
-2 4 1
-2 -4 1
2 4 -1
2 -4 0
2 4 0
-2 4 0
2 -4 1
-2 4 -1
2 -4 3
-2 4 -3
-2 -4 -4
2 4 4
-2 4 -4
-2 4 -5
-2 -4 -5
2 4 5
2 -4 5
2 4 6
-2 -4 -6
2 -4 6
-2 4 -6
-2 -4 -7
2 -4 7
2 4 7
-2 4 -7
2 4 8
2 -4 8
-2 4 -8
-2 -4 -8
-2 4 -9
-2 -4 -9
2 4 9
2 -4 9
-2 -4 -10
2 4 10
-2 -4 -11
-2 4 -11
2 4 11
2 -4 11
-2 4 -12
2 -4 12
2 -4 13
-2 -5 10
2 5 -10
2 5 -9
-2 -5 9
2 5 -8
-2 -5 8
-2 5 7
2 -5 -7
2 5 -7
-2 -5 7
-2 -5 6
-2 5 6
2 -5 -6
2 5 -6
-2 5 5
2 5 -5
-2 -5 5
2 -5 -5
2 5 -4
-2 -5 4
2 -5 -4
-2 5 4
2 -5 -3
2 5 -3
-2 -5 3
2 5 -2
-2 -5 2
-2 5 2
2 -5 -2
2 -5 -1
-2 5 1
-2 -5 1
2 5 -1
2 5 0
-2 -5 0
-2 5 0
2 -5 0
-2 5 -1
2 5 1
2 -5 1
-2 -5 -1
2 -5 2
2 5 2
-2 -5 -2
-2 5 -2
-2 -5 -3
2 -5 3
2 5 3
-2 5 -3
-2 -5 -4
2 -5 4
2 5 4
-2 5 -4
-2 5 -5
2 -5 5
-2 -5 -5
2 5 5
-2 -5 -6
2 -5 6
-2 5 -6
-2 -5 -7
2 5 7
-2 5 -8
2 -5 8
2 5 8
-2 -5 -8
-2 5 -9
2 -5 9
2 5 10
2 -5 10
-2 -5 -10
-2 5 -10
-2 -5 -11
2 5 11
2 -5 11
-2 5 -11
2 -5 12
-2 5 -12
2 6 -10
-2 -6 10
-2 6 9
2 6 -9
-2 -6 9
-2 6 8
2 -6 -8
-2 -6 8
2 6 -8
-2 6 7
2 6 -7
2 -6 -7
-2 -6 7
-2 6 6
2 -6 -6
-2 6 5
2 -6 -5
2 -6 -4
-2 6 4
-2 -6 3
2 -6 -3
-2 6 3
2 6 -3
-2 -6 2
2 6 -2
-2 6 2
2 -6 -1
2 6 -1
-2 -6 1
-2 6 1
2 6 0
-2 6 0
-2 -6 0
2 -6 0
2 -6 1
-2 6 -1
2 -6 3
-2 6 -3
-2 -6 -4
2 -6 4
-2 6 -4
2 6 4
2 6 5
-2 6 -5
2 -6 5
-2 6 -6
-2 -6 -6
2 -6 6
2 6 6
-2 6 -7
-2 -6 -7
2 6 7
-2 -6 -8
2 6 8
2 -6 8
-2 6 -8
-2 -6 -9
2 -6 9
2 6 9
-2 6 -9
-2 -6 -10
-2 6 -10
2 6 10
2 -6 10
2 6 11
-2 6 -11
2 -6 11
2 -6 12
2 -7 -8
-2 -7 8
-2 7 8
-2 7 7
2 -7 -7
-2 -7 7
2 7 -7
-2 7 6
2 7 -6
2 -7 -6
-2 -7 6
2 7 -5
-2 -7 5
2 -7 -5
-2 7 5
-2 7 4
2 -7 -4
2 7 -4
-2 -7 3
2 7 -3
2 -7 -3
-2 7 3
2 7 -2
-2 -7 2
2 -7 -2
2 7 -1
-2 -7 1
-2 7 1
2 -7 -1
2 -7 0
-2 7 0
2 7 0
-2 -7 0
2 -7 1
-2 7 -1
2 7 1
-2 -7 -1
2 -7 2
-2 7 -2
2 7 2
-2 -7 -2
2 -7 3
2 7 3
-2 7 -3
-2 -7 -3
2 7 4
2 -7 4
-2 7 -4
-2 -7 -4
-2 -7 -5
-2 -7 -6
-2 7 -6
2 7 6
2 -7 6
-2 7 -7
2 -7 7
-2 -7 -8
-2 7 -8
2 -7 8
2 7 8
2 7 9
-2 -7 -9
-2 7 -9
2 -7 9
-2 -7 -10
2 7 10
2 -7 11
-2 7 -11
-2 -8 8
2 8 -8
-2 8 7
2 8 -7
2 -8 -7
-2 -8 7
-2 8 6
2 -8 -6
-2 -8 6
2 8 -6
2 8 -5
-2 8 5
-2 -8 5
2 -8 -5
2 8 -4
-2 -8 4
2 -8 -4
-2 -8 3
2 -8 -3
-2 8 3
-2 8 2
2 8 -2
-2 -8 2
2 -8 -2
2 8 -1
-2 -8 1
-2 8 1
-2 -8 0
2 -8 0
2 8 0
-2 8 0
2 8 1
-2 8 -1
-2 -8 -1
2 -8 1
-2 8 -2
2 8 2
2 -8 2
-2 -8 -2
2 8 3
-2 8 -3
-2 -8 -3
2 -8 3
-2 8 -4
2 8 4
2 -8 4
2 8 5
2 -8 5
-2 -8 -5
-2 8 -5
-2 -8 -6
2 8 6
2 -8 7
-2 8 -7
-2 8 -8
2 -8 8
-2 -8 -8
-2 8 -9
-2 -8 -9
2 -8 9
2 8 9
-2 8 -10
2 -8 10
-2 -9 8
-2 9 6
2 9 -6
2 -9 -6
-2 -9 6
2 9 -5
-2 9 5
-2 -9 5
2 -9 -5
2 9 -4
-2 -9 4
-2 9 4
2 -9 -4
-2 -9 3
2 -9 -3
-2 9 3
2 9 -2
-2 -9 2
2 -9 -2
-2 9 2
-2 9 1
2 -9 -1
-2 -9 1
2 9 -1
-2 -9 0
2 -9 0
2 9 0
-2 9 0
2 9 1
-2 -9 -1
2 -9 1
-2 9 -1
2 9 2
-2 9 -2
-2 -9 -2
2 -9 2
-2 -9 -3
2 -9 3
2 9 3
-2 9 -3
-2 9 -4
2 9 4
-2 -9 -4
2 -9 4
-2 -9 -5
2 9 5
-2 9 -6
2 -9 6
-2 -9 -7
2 -9 7
-2 9 -7
2 9 7
-2 9 -8
-2 -9 -8
2 -9 8
2 9 8
2 -9 9
-2 9 -9
2 -9 10
2 10 -6
-2 -10 6
2 10 -5
-2 -10 5
2 10 -4
-2 10 4
-2 -10 4
2 -10 -4
-2 10 3
2 -10 -3
-2 10 2
2 -10 -2
-2 -10 1
2 -10 -1
-2 10 1
2 10 0
-2 -10 0
2 -10 0
-2 10 -1
2 -10 1
2 -10 3
-2 10 -3
-2 10 -4
-2 -10 -4
2 -10 4
2 10 4
-2 10 -5
2 -10 5
-2 -10 -5
2 10 5
-2 -10 -6
2 10 6
3 0 -5
-3 0 5
-3 0 4
3 0 -4
3 0 -3
-3 0 3
-3 0 2
3 0 -2
-3 0 0
3 0 0
-3 0 -1
3 0 1
-3 0 -2
3 0 2
-3 0 -3
3 0 3
3 0 4
-3 0 -4
-3 0 -5
3 0 5
3 0 6
-3 0 -6
-3 0 -8
3 0 8
-3 0 -9
3 0 9
-3 0 -10
3 0 10
-3 0 -11
3 0 11
-3 0 -12
3 0 12
-3 -1 7
3 1 -7
3 1 -6
3 -1 -6
-3 1 6
-3 -1 5
3 1 -5
3 -1 -5
-3 1 5
-3 -1 4
-3 1 4
3 1 -4
3 -1 -4
-3 1 3
3 -1 -3
-3 1 1
3 -1 -1
-3 -1 1
3 1 -1
-3 -1 0
-3 1 0
3 -1 0
3 1 0
3 1 1
-3 1 -1
3 -1 1
-3 -1 -1
3 -1 2
-3 -1 -2
-3 1 -2
3 1 2
3 1 3
-3 -1 -3
-3 1 -3
3 -1 3
-3 -1 -4
3 -1 4
3 1 4
-3 1 -4
-3 1 -5
3 -1 5
-3 -1 -5
3 1 5
-3 1 -6
3 -1 6
-3 -1 -6
3 1 6
3 -1 8
3 1 8
-3 1 -8
-3 -1 -8
3 -1 9
-3 -1 -9
3 1 9
-3 1 -9
3 -1 10
-3 -1 -10
3 1 10
-3 -1 -11
3 -1 11
-3 1 -12
-3 -1 -12
3 1 12
-3 -2 10
3 2 -10
-3 -2 9
3 2 -9
3 2 -8
3 -2 -7
-3 2 7
-3 -2 6
3 2 -6
-3 2 6
3 -2 -6
3 2 -5
-3 -2 5
-3 2 5
3 -2 -5
-3 -2 4
3 2 -4
-3 -2 3
3 -2 -3
-3 -2 2
3 2 -2
3 -2 -2
-3 -2 1
-3 2 1
3 2 -1
3 -2 -1
-3 -2 0
3 -2 0
3 2 0
-3 2 0
-3 -2 -1
3 -2 1
-3 2 -1
3 2 1
-3 2 -2
-3 -2 -2
3 -2 2
3 2 2
3 2 3
-3 -2 -3
3 -2 3
-3 2 -3
3 -2 4
-3 -2 -4
3 2 4
-3 2 -4
-3 -2 -5
3 2 5
-3 2 -5
3 -2 5
3 -2 6
-3 2 -6
-3 -2 -7
3 2 7
3 -2 7
-3 2 -8
-3 -2 -8
3 2 8
-3 -2 -9
3 2 9
-3 2 -9
3 -2 9
3 -2 10
-3 -2 -10
3 2 10
-3 2 -10
3 -2 11
3 2 11
-3 -2 -11
-3 2 -11
3 2 12
-3 -2 -12
3 -2 13
-3 -3 10
3 3 -10
-3 3 9
3 -3 -9
-3 -3 9
3 3 -9
3 3 -8
-3 -3 8
3 -3 -7
-3 -3 7
3 3 -7
3 3 -6
-3 -3 6
3 -3 -6
-3 3 6
3 3 -5
3 -3 -5
-3 3 5
-3 -3 5
-3 -3 4
-3 3 4
3 -3 -4
3 3 -4
-3 -3 3
-3 3 3
3 -3 -3
-3 -3 2
3 -3 -2
3 3 -2
-3 3 2
3 -3 -1
-3 -3 1
3 3 -1
-3 3 1
-3 3 0
3 3 0
-3 -3 0
3 -3 0
-3 -3 -1
3 3 1
3 -3 1
-3 3 -1
3 3 2
-3 -3 -2
3 -3 2
-3 3 -4
3 -3 4
-3 -3 -5
3 3 5
-3 3 -5
3 -3 5
-3 3 -6
3 3 6
-3 -3 -6
3 -3 6
-3 -3 -7
-3 3 -7
3 -3 7
3 3 8
-3 -3 -8
-3 3 -8
3 3 9
-3 -3 -9
-3 -3 -10
3 3 10
-3 3 -11
3 -3 11
-3 -3 -12
3 3 12
-3 3 -12
3 -3 12
3 3 13
-3 3 -13
3 -3 13
3 -4 -9
-3 4 9
-3 4 8
3 -4 -8
3 -4 -7
-3 4 7
-3 4 6
3 -4 -6
3 -4 -5
-3 4 5
3 -4 -4
-3 4 4
-3 4 3
3 -4 -3
3 -4 -2
-3 4 2
3 4 -1
-3 -4 1
3 4 0
-3 4 0
-3 -4 0
3 -4 0
-3 4 -1
-3 -4 -1
3 -4 1
3 4 1
3 4 2
-3 4 -2
-3 -4 -2
3 -4 2
-3 -4 -3
-3 4 -3
3 -4 3
3 4 3
3 -4 4
-3 -4 -4
3 4 4
-3 4 -4
-3 -4 -5
3 4 5
3 -4 5
-3 4 -5
-3 4 -6
3 -4 6
-3 -4 -6
3 4 6
3 4 7
-3 4 -7
-3 -4 -7
3 -4 7
3 4 8
-3 -4 -8
-3 4 -9
3 -4 9
-3 -4 -10
3 4 10
-3 4 -10
3 -4 10
-3 -4 -11
-3 4 -11
3 4 11
3 -4 11
-3 4 -12
-3 -4 -12
3 4 12
3 -4 12
-3 -5 10
3 5 -9
-3 -5 9
3 5 -8
-3 -5 8
3 5 -7
-3 -5 7
3 -5 -7
-3 5 7
3 5 -6
-3 -5 6
3 -5 -6
-3 5 6
3 5 -5
-3 -5 5
3 -5 -5
-3 5 5
3 -5 -4
-3 5 4
3 5 -4
-3 -5 4
-3 5 3
-3 -5 3
3 -5 -3
3 -5 -2
-3 -5 2
3 5 -2
-3 -5 1
3 -5 -1
3 5 -1
-3 5 1
3 5 0
-3 -5 0
3 -5 0
-3 5 0
3 5 1
-3 5 -1
-3 -5 -1
3 -5 1
3 -5 2
-3 5 -2
-3 -5 -2
3 -5 3
3 5 3
-3 -5 -3
-3 5 -3
-3 -5 -4
-3 5 -4
3 -5 4
3 5 4
-3 -5 -5
3 5 5
-3 5 -6
3 -5 6
3 -5 7
-3 -5 -7
3 5 7
-3 5 -7
-3 -5 -8
3 5 8
-3 5 -8
3 -5 8
-3 -5 -9
3 -5 9
-3 5 -9
-3 -5 -10
-3 5 -10
3 -5 10
3 5 10
-3 -5 -11
3 5 11
-3 5 -11
3 -5 11
3 -5 12
-3 5 -12
3 6 -9
-3 -6 9
3 6 -8
-3 6 8
-3 -6 8
3 -6 -8
3 6 -7
-3 -6 7
-3 6 7
3 -6 -7
3 6 -6
-3 -6 6
3 -6 -6
-3 6 6
-3 6 5
3 6 -5
-3 -6 5
3 -6 -5
3 6 -4
-3 -6 4
3 -6 -4
-3 6 4
-3 6 3
3 6 -3
-3 -6 3
3 -6 -3
3 -6 -2
3 6 -2
-3 6 2
-3 -6 2
3 6 -1
-3 -6 1
3 6 0
-3 -6 0
3 6 1
-3 -6 -1
-3 6 -1
3 -6 1
-3 -6 -2
3 -6 2
-3 6 -2
3 6 2
-3 -6 -3
3 -6 3
-3 6 -3
3 6 3
-3 -6 -4
3 6 4
3 -6 4
-3 6 -4
-3 6 -5
-3 -6 -5
3 -6 5
3 6 5
-3 6 -6
-3 -6 -6
3 -6 6
3 6 7
-3 -6 -7
3 -6 7
3 6 8
-3 -6 -8
-3 6 -9
3 -6 9
-3 -6 -10
3 6 10
3 -6 10
-3 6 -10
-3 -6 -11
3 6 11
3 -6 11
-3 6 -11
-3 6 -12
3 -6 12
-3 7 7
3 -7 -7
3 7 -6
-3 -7 6
3 -7 -6
-3 7 6
-3 -7 5
3 -7 -5
3 7 -5
-3 7 5
3 7 -4
-3 7 4
-3 -7 4
3 -7 -4
-3 7 3
3 7 -3
3 -7 -3
-3 7 2
3 7 -2
-3 -7 2
3 -7 -2
3 7 -1
-3 -7 1
3 -7 -1
3 7 0
3 -7 0
-3 7 0
-3 -7 0
3 7 1
-3 -7 -1
-3 7 -1
3 -7 1
3 7 2
-3 -7 -2
-3 7 -2
3 -7 2
-3 7 -4
3 -7 4
-3 7 -5
3 -7 5
3 7 5
-3 -7 -6
-3 7 -6
3 -7 6
3 7 6
-3 -7 -7
3 7 7
3 -7 7
-3 -7 -8
-3 7 -8
3 -7 8
3 7 8
-3 -7 -9
-3 7 -9
3 7 9
3 -7 9
-3 7 -10
3 -7 10
-3 7 -11
3 -7 11
3 8 -7
-3 -8 7
3 8 -6
-3 -8 6
-3 8 6
3 -8 -6
3 8 -5
-3 -8 5
3 -8 -5
-3 8 5
-3 8 4
3 8 -4
-3 -8 4
3 -8 -4
-3 8 3
3 8 -3
-3 -8 3
3 -8 -3
3 8 -2
-3 -8 2
3 -8 -2
-3 8 2
-3 8 1
3 8 -1
-3 -8 1
3 -8 -1
-3 8 0
3 8 0
-3 -8 0
-3 -8 -1
3 -8 1
-3 8 -1
3 8 1
3 8 2
-3 8 -2
-3 -8 -2
3 -8 2
3 8 3
3 -8 3
-3 8 -3
-3 -8 -3
-3 -8 -4
3 8 4
3 -8 5
-3 8 -5
-3 -8 -6
-3 8 -6
3 -8 6
3 8 6
-3 -8 -7
-3 8 -7
3 8 7
-3 -8 -8
3 8 8
-3 -8 -9
-3 8 -9
3 -8 9
3 8 9
3 -8 10
-3 8 -10
3 -8 11
-3 -9 7
-3 9 5
3 -9 -5
3 9 -4
-3 -9 4
3 -9 -4
-3 9 4
3 9 -3
-3 -9 3
3 -9 -3
-3 9 3
-3 -9 2
3 -9 -2
-3 9 2
3 9 -1
-3 -9 1
3 -9 -1
-3 9 1
3 9 0
-3 -9 0
3 -9 0
3 9 1
-3 -9 -1
3 -9 1
-3 9 -1
3 9 2
-3 9 -2
3 -9 2
-3 -9 -2
3 -9 4
-3 9 -4
-3 9 -5
3 -9 5
-3 -9 -5
3 9 5
-3 9 -6
3 -9 6
-3 -9 -6
3 9 6
-3 -9 -7
3 9 7
3 -9 8
-3 9 -8
3 10 -5
-3 -10 5
-3 -10 4
-3 -10 3
3 10 -3
3 10 -2
3 10 -1
-3 -10 1
3 10 0
-3 -10 0
3 10 1
-3 -10 -1
3 -10 1
3 10 2
-3 -10 -2
3 -10 2
-3 10 -2
-3 -10 -3
3 -10 3
-3 10 -3
3 10 3
-3 -10 -4
3 10 4
4 0 -7
-4 0 6
4 0 -6
-4 0 5
4 0 -5
-4 0 3
4 0 -3
-4 0 2
-4 0 1
4 0 -1
4 0 0
-4 0 0
4 0 1
-4 0 -1
-4 0 -2
4 0 2
-4 0 -3
4 0 3
-4 0 -5
4 0 5
4 0 6
-4 0 -6
-4 0 -7
4 0 7
4 0 8
-4 0 -8
-4 0 -9
4 0 9
4 0 10
-4 0 -10
-4 0 -11
4 0 11
-4 0 -12
4 0 12
-4 0 -13
4 0 13
-4 -1 8
4 1 -8
4 -1 -7
-4 -1 7
4 1 -7
-4 1 7
-4 1 6
4 -1 -6
-4 -1 5
4 1 -5
4 -1 -4
-4 -1 4
4 1 -4
-4 1 4
-4 1 3
-4 -1 3
4 1 -3
4 -1 -2
-4 1 2
-4 -1 2
-4 1 1
4 -1 -1
-4 -1 1
4 1 -1
4 -1 0
-4 1 0
-4 -1 0
4 1 0
-4 1 -1
-4 -1 -1
4 1 1
4 -1 1
-4 1 -2
4 -1 2
-4 -1 -2
4 1 2
-4 -1 -3
-4 1 -3
4 -1 3
4 1 3
-4 -1 -5
4 -1 5
4 1 5
-4 1 -5
-4 -1 -6
4 -1 6
4 1 6
-4 1 -6
-4 -1 -7
4 -1 7
4 1 7
-4 1 -8
-4 -1 -8
4 -1 8
-4 1 -9
-4 -1 -9
4 -1 9
4 1 9
-4 -1 -10
4 1 10
-4 -1 -11
4 -1 11
-4 1 -11
-4 -1 -12
4 -1 12
4 1 12
-4 1 -12
-4 -1 -13
4 -1 13
4 1 13
-4 1 -13
-4 -2 9
4 2 -9
-4 2 7
4 -2 -7
-4 -2 7
4 2 -7
-4 -2 6
4 2 -6
-4 2 5
-4 -2 5
4 2 -5
4 -2 -5
-4 2 4
-4 -2 4
4 2 -4
-4 -2 3
4 2 -3
-4 2 3
4 -2 -3
4 -2 -2
-4 2 2
-4 -2 2
4 -2 -1
-4 2 1
-4 -2 1
4 2 -1
4 -2 0
-4 -2 0
4 2 0
-4 2 0
4 -2 1
-4 -2 -1
4 2 1
-4 2 -1
4 -2 2
-4 2 -2
-4 -2 -4
4 2 4
-4 2 -4
4 -2 4
4 -2 5
-4 -2 -5
4 2 5
4 2 6
4 -2 6
-4 -2 -6
-4 2 -7
-4 -2 -7
4 -2 7
4 2 7
-4 -2 -8
-4 2 -8
4 -2 8
-4 -2 -9
4 2 9
4 -2 10
-4 2 -10
4 -2 11
-4 -2 -11
4 2 11
-4 2 -11
4 -2 12
-4 -2 -12
4 2 12
-4 2 -12
-4 -2 -13
4 -2 13
4 -3 -9
-4 3 9
-4 -3 8
4 3 -8
-4 -3 7
4 -3 -7
4 3 -7
-4 3 7
4 3 -6
-4 -3 6
-4 3 6
4 -3 -6
-4 -3 5
4 -3 -5
4 3 -5
-4 3 5
-4 -3 4
4 -3 -4
4 3 -4
-4 3 4
-4 -3 3
4 -3 -3
4 3 -3
-4 3 3
-4 -3 2
4 -3 -2
4 -3 -1
-4 3 1
-4 3 -1
-4 -3 -1
4 -3 1
4 3 1
4 -3 2
-4 3 -2
-4 -3 -2
4 -3 3
-4 3 -3
4 3 3
-4 -3 -3
4 -3 4
-4 3 -4
-4 -3 -4
4 3 4
-4 3 -5
-4 -3 -5
4 -3 5
4 3 5
4 -3 6
-4 -3 -6
4 3 6
-4 3 -6
4 -3 7
4 3 7
4 3 9
-4 -3 -9
-4 3 -9
4 -3 9
-4 -3 -10
4 3 10
-4 3 -10
4 -3 10
-4 -3 -11
4 3 11
4 -3 11
-4 -3 -12
4 3 12
-4 3 -13
4 -3 13
-4 -4 8
4 -4 -8
-4 4 8
4 4 -8
-4 -4 7
4 -4 -7
-4 4 7
4 4 -7
4 -4 -6
-4 4 6
-4 -4 6
4 4 -6
-4 4 5
-4 -4 5
4 -4 -5
4 4 -5
-4 -4 4
4 4 -4
-4 -4 3
4 4 -3
-4 -4 2
-4 4 2
4 -4 -2
-4 4 1
4 4 -1
-4 -4 0
-4 4 0
4 4 0
4 -4 0
-4 4 -1
-4 -4 -1
4 4 1
4 -4 1
-4 -4 -2
4 4 2
-4 4 -2
4 -4 2
-4 -4 -3
-4 4 -3
4 4 3
4 -4 3
4 -4 4
-4 -4 -4
4 4 4
-4 4 -4
-4 -4 -5
4 -4 5
4 4 5
-4 4 -5
-4 -4 -7
-4 4 -7
4 4 7
4 -4 7
-4 -4 -8
4 4 8
-4 4 -8
4 -4 8
-4 4 -9
-4 -4 -9
4 4 9
4 -4 9
-4 -4 -10
-4 4 -10
4 4 10
4 -4 10
-4 4 -11
-4 -4 -11
4 4 11
4 -4 11
-4 -4 -12
4 4 12
-4 4 -12
4 -4 12
-4 4 -13
4 -4 13
-4 -5 9
4 5 -8
-4 -5 8
-4 5 8
4 -5 -8
4 5 -7
-4 -5 7
4 -5 -7
-4 5 7
-4 5 6
4 5 -6
-4 -5 6
4 -5 -6
4 5 -5
-4 5 5
-4 -5 5
4 -5 -5
4 5 -4
-4 -5 4
-4 5 4
4 -5 -4
-4 5 3
-4 -5 3
4 5 -3
4 -5 -3
-4 -5 2
4 -5 -2
-4 5 2
-4 -5 1
4 -5 -1
4 5 -1
4 5 0
-4 -5 0
-4 5 0
4 -5 0
-4 -5 -1
-4 5 -1
4 -5 1
4 5 1
-4 -5 -3
-4 5 -3
4 5 3
4 -5 3
-4 5 -4
-4 -5 -4
4 5 4
4 -5 4
4 5 5
-4 5 -5
-4 -5 -5
4 -5 5
-4 -5 -6
-4 5 -6
4 5 6
4 -5 6
-4 -5 -7
-4 5 -7
4 -5 7
-4 5 -8
-4 -5 -8
4 5 8
4 -5 8
-4 5 -9
-4 -5 -9
4 5 9
4 -5 9
-4 -5 -10
4 5 10
-4 5 -10
4 -5 10
-4 -5 -11
4 5 11
-4 5 -11
4 -5 11
4 5 12
4 6 -8
-4 -6 8
4 6 -7
-4 -6 7
4 -6 -7
-4 6 7
4 6 -6
-4 6 6
-4 -6 6
4 -6 -6
4 6 -5
-4 -6 5
-4 -6 4
4 6 -4
4 6 -3
-4 -6 3
4 6 -2
-4 -6 2
-4 6 2
4 -6 -2
4 6 -1
-4 -6 1
-4 6 1
4 -6 -1
-4 -6 0
-4 6 0
4 6 0
-4 6 -1
-4 -6 -1
4 -6 1
4 6 1
-4 6 -2
-4 -6 -2
4 -6 2
4 6 2
-4 -6 -3
4 -6 3
4 6 3
-4 6 -3
4 -6 4
-4 6 -4
-4 -6 -4
4 6 4
4 -6 5
-4 -6 -5
-4 6 -5
4 6 5
4 -6 6
-4 6 -6
4 -6 7
-4 -6 -7
-4 6 -7
4 6 7
-4 -6 -8
-4 6 -8
4 6 8
-4 -6 -9
-4 6 -9
4 6 9
4 -6 9
-4 -6 -10
-4 6 -10
4 6 10
-4 6 -11
4 -6 11
-4 6 -12
4 -6 12
-4 -7 8
4 7 -7
-4 -7 7
4 7 -6
-4 -7 6
4 -7 -6
-4 7 6
4 -7 -5
-4 7 5
-4 7 4
4 -7 -4
-4 7 3
4 -7 -3
-4 7 2
4 -7 -2
-4 7 1
4 -7 -1
-4 -7 0
4 7 0
-4 -7 -1
4 7 1
-4 -7 -2
-4 7 -2
4 -7 2
4 7 2
-4 -7 -3
4 -7 3
-4 7 -3
4 7 3
-4 -7 -4
4 -7 4
-4 7 -4
4 7 4
4 -7 5
4 7 5
-4 7 -5
-4 -7 -6
4 -7 6
-4 7 -6
-4 -7 -7
4 7 7
-4 7 -7
-4 -7 -8
4 7 8
4 -7 8
-4 7 -8
-4 -7 -9
4 7 9
4 -7 9
-4 7 -9
-4 -7 -10
4 7 10
4 -7 11
-4 7 -11
-4 -8 7
4 -8 -5
-4 8 5
4 -8 -4
-4 8 4
4 -8 -3
-4 8 3
-4 8 2
4 -8 -2
4 -8 -1
-4 8 1
-4 8 0
4 -8 0
4 8 2
-4 -8 -2
-4 -8 -3
-4 8 -3
4 -8 3
4 8 3
-4 -8 -4
-4 8 -4
4 -8 4
4 8 4
-4 8 -5
4 -8 5
4 8 5
-4 -8 -6
-4 8 -6
4 -8 6
4 8 6
-4 8 -7
4 -8 7
-4 -8 -8
-4 8 -8
4 -8 8
4 8 8
-4 -8 -9
4 8 9
-4 8 -10
4 -8 10
4 9 -6
-4 -9 6
4 9 -5
-4 -9 5
4 9 -4
-4 9 4
4 9 -3
-4 -9 3
4 -9 -3
-4 9 3
4 9 -2
-4 -9 2
4 -9 -2
-4 9 2
-4 -9 1
4 -9 -1
-4 9 1
-4 -9 0
4 9 0
4 -9 1
-4 -9 -1
4 9 1
-4 9 -2
-4 -9 -2
4 -9 2
4 9 2
4 -9 3
-4 9 -3
-4 -9 -3
4 9 3
-4 9 -4
-4 -9 -4
4 -9 4
4 9 4
-4 -9 -5
-4 9 -6
4 -9 6
-4 -9 -7
4 -9 7
4 9 7
-4 -9 -8
4 -10 -2
-4 10 2
4 -10 -1
-4 10 1
4 -10 0
-4 10 0
4 -10 1
-4 10 -1
-5 0 8
5 0 -8
5 0 -7
-5 0 7
-5 0 6
5 0 -6
-5 0 5
5 0 -5
-5 0 4
5 0 -4
5 0 -3
-5 0 3
-5 0 2
5 0 -2
-5 0 1
-5 0 0
5 0 0
-5 0 -2
5 0 2
5 0 3
-5 0 -3
-5 0 -4
5 0 4
-5 0 -5
5 0 5
-5 0 -6
5 0 6
-5 0 -7
-5 0 -9
5 0 9
-5 0 -10
5 0 10
-5 0 -11
5 0 11
-5 0 -13
5 0 13
-5 -1 8
5 1 -8
-5 1 7
-5 -1 7
5 1 -7
5 -1 -7
-5 -1 6
5 1 -6
-5 1 6
5 -1 -6
-5 1 5
-5 -1 5
5 -1 -5
5 1 -5
-5 1 4
5 -1 -4
-5 -1 4
5 1 -4
-5 1 3
-5 -1 3
5 -1 -3
5 1 -3
-5 1 2
5 -1 -2
-5 -1 2
5 1 -2
-5 1 1
-5 -1 1
5 -1 -1
-5 1 0
5 -1 0
-5 1 -1
-5 -1 -1
5 -1 1
5 1 1
-5 1 -2
-5 -1 -2
5 -1 2
5 1 2
-5 1 -3
-5 -1 -3
5 1 3
5 -1 3
-5 1 -4
-5 -1 -4
5 -1 4
5 1 4
-5 1 -5
-5 -1 -5
5 -1 5
5 1 5
5 -1 6
-5 1 -6
-5 -1 -6
5 1 6
5 1 7
-5 -1 -7
-5 1 -7
5 -1 7
5 -1 8
5 1 8
5 1 9
-5 1 -9
-5 -1 -9
-5 1 -10
5 -1 10
5 1 10
-5 1 -11
-5 -1 -11
5 -1 11
5 1 11
-5 -1 -13
5 -1 13
5 1 13
-5 1 -13
-5 -2 8
5 2 -8
-5 2 8
-5 -2 7
5 2 -7
5 -2 -7
-5 2 7
-5 -2 6
5 -2 -6
5 2 -6
-5 2 6
-5 2 5
-5 -2 5
5 2 -5
5 -2 -5
-5 -2 4
-5 2 4
5 -2 -4
5 2 -4
-5 2 3
-5 -2 3
5 -2 -3
5 2 -3
-5 2 2
5 -2 -2
-5 2 0
-5 -2 0
5 -2 0
5 2 0
-5 2 -1
5 -2 1
-5 -2 -1
5 2 1
-5 2 -2
5 -2 2
-5 -2 -2
5 2 2
5 -2 3
-5 2 -3
-5 -2 -3
5 2 3
5 2 4
5 -2 4
-5 2 -4
-5 -2 -4
-5 2 -5
5 -2 5
-5 -2 -5
5 2 5
5 -2 6
-5 -2 -6
5 2 6
-5 2 -7
5 -2 7
-5 2 -8
5 -2 8
5 2 8
-5 -2 -8
5 -2 9
-5 -2 -9
5 2 9
-5 2 -9
5 -2 10
-5 -2 -10
5 2 10
-5 2 -10
-5 -2 -11
5 2 11
5 -2 12
-5 -2 -12
5 2 12
-5 2 -12
5 -2 13
-5 -2 -13
-5 2 -13
-5 -3 9
-5 -3 8
5 -3 -8
5 3 -8
-5 3 8
-5 -3 7
-5 3 7
5 3 -7
5 -3 -7
5 -3 -6
-5 3 6
-5 3 5
5 -3 -5
-5 -3 4
-5 3 4
5 3 -4
5 -3 -4
-5 -3 3
5 3 -3
-5 -3 2
5 -3 -2
5 3 -2
-5 -3 1
5 -3 -1
5 -3 0
-5 -3 0
-5 3 0
5 3 0
5 -3 1
-5 -3 -1
5 3 1
-5 3 -1
5 -3 2
-5 3 -2
-5 -3 -2
5 3 2
5 -3 3
-5 -3 -3
5 3 3
-5 3 -3
5 -3 4
-5 -3 -4
5 3 4
-5 3 -4
5 -3 6
-5 -3 -6
5 3 6
-5 3 -6
5 -3 7
-5 -3 -7
5 3 7
-5 3 -7
-5 3 -8
-5 -3 -8
5 3 9
-5 3 -9
-5 -3 -9
5 -3 9
-5 -3 -10
5 3 10
-5 -3 -11
5 3 11
-5 3 -11
5 -3 11
-5 -3 -12
5 3 12
-5 3 -12
5 -3 12
5 3 13
-5 -4 8
5 4 -8
-5 4 7
-5 -4 7
5 -4 -7
5 4 -7
5 4 -6
-5 -4 6
-5 -4 5
5 -4 -5
5 4 -5
-5 4 5
-5 4 4
5 4 -4
5 -4 -4
-5 -4 3
-5 4 3
5 4 -3
5 -4 -3
-5 -4 2
-5 4 2
5 4 -2
5 -4 -2
-5 -4 1
5 -4 -1
-5 4 1
-5 -4 0
-5 4 0
5 4 0
-5 -4 -1
5 -4 1
5 4 1
-5 4 -1
5 -4 2
-5 4 -2
-5 -4 -4
5 4 4
-5 -4 -5
5 4 5
5 -4 5
-5 -4 -6
5 4 6
5 -4 6
-5 -4 -7
5 -4 7
5 4 7
-5 -4 -8
5 4 8
5 -4 8
-5 4 -9
5 -4 9
-5 4 -10
-5 -4 -10
5 4 10
5 -4 10
-5 -4 -11
5 4 11
-5 4 -11
5 -4 11
-5 -4 -12
5 4 12
-5 4 -12
5 -4 12
-5 4 -13
5 -4 13
-5 -5 8
5 5 -8
-5 -5 7
5 5 -7
-5 5 7
-5 5 6
5 -5 -6
-5 5 5
5 -5 -5
5 -5 -4
-5 5 4
-5 5 3
5 -5 -3
-5 5 2
-5 -5 2
5 -5 -2
5 5 -2
-5 -5 1
-5 -5 0
5 5 0
5 -5 0
-5 5 -1
-5 -5 -1
5 5 1
5 -5 1
-5 -5 -2
-5 5 -2
5 5 2
5 -5 2
-5 -5 -3
-5 5 -3
5 5 3
5 -5 3
-5 -5 -4
5 5 4
-5 5 -4
5 -5 4
-5 -5 -5
5 5 5
-5 5 -5
5 -5 5
-5 -5 -6
5 5 6
5 5 7
5 -5 7
-5 5 -7
-5 -5 -8
5 5 8
-5 5 -8
5 -5 8
-5 -5 -9
5 5 9
-5 5 -9
5 -5 9
-5 -5 -10
5 5 10
-5 -5 -11
-5 5 -11
5 5 11
5 -5 11
-5 5 -12
-5 -5 -12
5 5 12
5 -5 12
5 -5 13
-5 -6 7
5 6 -7
-5 6 6
-5 -6 6
5 -6 -6
5 6 -6
-5 6 5
-5 -6 5
5 6 -5
5 -6 -5
-5 -6 4
-5 6 4
5 -6 -4
5 6 -4
-5 -6 3
-5 6 3
5 -6 -3
5 6 -3
-5 -6 2
5 -6 -2
-5 6 2
5 6 -2
-5 -6 1
5 -6 -1
5 6 -1
-5 6 1
-5 6 0
-5 -6 0
5 -6 0
5 6 0
-5 -6 -1
5 6 1
-5 6 -1
-5 6 -2
5 -6 2
-5 -6 -3
5 6 3
-5 -6 -4
-5 6 -4
5 6 4
5 -6 4
-5 -6 -5
-5 6 -5
5 6 5
5 -6 5
5 6 6
5 -6 6
-5 -6 -7
-5 6 -7
5 -6 7
5 -6 8
-5 -6 -9
5 6 9
5 -6 9
-5 -6 -10
5 6 10
-5 6 -10
5 -6 10
-5 6 -11
5 -6 11
-5 6 -12
5 -6 12
-5 -7 7
-5 -7 6
5 7 -6
-5 7 5
-5 -7 5
5 7 -5
-5 -7 4
5 7 -4
-5 -7 3
5 7 -3
-5 -7 2
-5 7 2
5 -7 -2
5 7 -2
-5 7 1
5 -7 -1
5 7 -1
-5 -7 0
-5 7 0
5 -7 0
-5 -7 -1
5 -7 1
5 7 1
-5 -7 -2
5 -7 2
5 7 2
-5 7 -2
-5 -7 -3
5 -7 3
5 7 3
-5 7 -3
-5 7 -5
-5 -7 -5
5 7 5
5 -7 5
-5 7 -6
5 7 6
5 -7 6
-5 7 -7
-5 -7 -7
5 7 7
5 -7 7
-5 -7 -8
5 7 8
-5 7 -9
-5 -7 -9
5 7 9
5 -7 9
-5 -7 -10
5 7 10
-5 7 -11
5 -7 11
-5 -8 6
-5 -8 5
5 8 -5
-5 -8 4
5 8 -4
-5 -8 3
5 8 -3
-5 -8 2
5 8 -2
-5 8 1
-5 -8 1
5 -8 -1
5 8 -1
-5 -8 0
-5 8 0
5 -8 0
5 8 0
-5 -8 -1
-5 8 -1
5 8 1
-5 -8 -2
-5 8 -2
5 8 2
-5 -8 -3
-5 8 -3
5 -8 3
5 8 3
-5 -8 -5
-5 8 -5
5 -8 5
5 8 5
-5 -8 -6
-5 8 -6
5 -8 6
-5 -8 -7
5 8 7
-5 8 -8
-5 -8 -9
5 8 9
-5 -9 4
5 9 -4
-5 -9 3
-5 9 3
5 9 -3
-5 9 2
-5 -9 2
5 -9 -2
5 9 -2
-5 9 1
-5 -9 1
5 9 -1
-5 9 0
-5 -9 0
5 -9 0
-5 9 -1
5 -9 1
-5 -9 -3
-5 9 -3
5 -9 3
5 9 3
5 9 4
-5 -9 -4
-5 9 -4
5 -9 4
-5 9 -5
5 -9 5
5 9 5
6 0 -7
-6 0 7
-6 0 6
6 0 -6
-6 0 5
6 0 -5
-6 0 4
6 0 -4
-6 0 2
6 0 -2
-6 0 1
6 0 -1
-6 0 0
-6 0 -1
6 0 1
-6 0 -2
6 0 2
-6 0 -3
6 0 3
-6 0 -4
6 0 4
-6 0 -6
-6 0 -7
6 0 7
-6 0 -8
6 0 8
-6 0 -9
-6 0 -10
6 0 10
-6 0 -11
6 0 11
-6 0 -12
6 0 12
-6 0 -13
6 0 13
-6 -1 8
6 1 -7
6 -1 -7
6 -1 -6
-6 -1 6
6 1 -6
-6 1 6
-6 1 5
-6 -1 5
6 -1 -5
6 1 -5
-6 1 4
6 -1 -4
-6 -1 3
6 1 -3
-6 1 2
-6 -1 2
6 -1 -2
6 1 -2
-6 1 1
-6 -1 1
6 -1 -1
6 1 -1
-6 1 0
6 -1 0
-6 1 -1
-6 -1 -1
6 -1 1
6 1 1
-6 1 -2
-6 -1 -2
6 -1 2
6 1 2
-6 1 -3
-6 -1 -3
6 -1 3
6 1 3
-6 1 -5
-6 -1 -5
6 -1 5
6 1 5
-6 1 -6
-6 -1 -6
6 -1 6
6 1 6
-6 1 -7
-6 -1 -7
6 -1 7
6 1 7
-6 1 -8
-6 -1 -8
6 -1 8
6 1 8
-6 -1 -9
-6 1 -10
-6 -1 -10
6 -1 10
-6 1 -11
-6 -1 -11
6 -1 11
6 1 11
-6 1 -12
-6 -1 -12
6 -1 12
6 1 12
-6 -1 -13
6 -1 13
6 1 13
-6 -2 8
-6 -2 7
6 2 -7
-6 2 7
6 -2 -7
-6 -2 6
6 -2 -6
6 2 -6
-6 2 6
6 -2 -5
-6 -2 4
6 2 -4
-6 2 3
-6 -2 3
6 -2 -3
6 2 -3
-6 2 2
-6 -2 2
6 -2 -2
6 2 -2
-6 2 1
-6 -2 1
6 -2 -1
6 2 -1
6 -2 0
-6 -2 0
-6 2 -1
6 -2 1
-6 -2 -1
6 2 1
-6 2 -2
-6 -2 -2
6 -2 2
6 2 2
-6 2 -3
-6 2 -4
6 -2 4
-6 -2 -4
6 2 4
-6 2 -5
6 -2 5
-6 -2 -5
6 2 5
-6 2 -6
6 -2 6
-6 -2 -6
6 2 6
-6 2 -7
6 -2 7
-6 -2 -7
6 2 7
-6 2 -8
6 -2 8
-6 -2 -8
6 2 8
-6 2 -9
6 -2 9
6 -2 10
-6 -2 -10
6 2 10
-6 2 -10
6 -2 11
-6 -2 -11
6 2 11
-6 2 -11
6 -2 13
-6 -2 -13
6 2 13
-6 2 -13
-6 -3 7
6 3 -7
-6 3 7
-6 -3 6
6 3 -6
-6 -3 5
-6 3 5
6 3 -5
6 -3 -5
-6 -3 4
-6 3 4
6 3 -4
6 -3 -4
-6 -3 3
6 3 -3
6 -3 -3
-6 -3 2
6 3 -2
-6 3 2
6 -3 -2
-6 3 1
-6 -3 1
6 -3 -1
6 3 -1
6 -3 0
-6 -3 0
-6 3 0
-6 3 -1
-6 -3 -2
6 3 2
6 -3 3
-6 -3 -3
6 3 3
-6 3 -3
6 -3 4
-6 -3 -4
6 3 4
-6 3 -4
6 -3 5
-6 -3 -5
6 3 5
-6 3 -5
6 -3 6
-6 -3 -6
6 3 6
-6 3 -6
6 -3 7
-6 -3 -7
6 3 7
-6 3 -7
6 -3 8
-6 3 -8
6 -3 9
-6 -3 -9
6 3 9
-6 3 -9
6 -3 10
-6 -3 -10
6 3 10
-6 3 -10
-6 -3 -12
6 3 12
-6 3 -12
6 -3 12
6 3 13
-6 -4 7
6 4 -7
-6 -4 6
6 4 -6
6 -4 -6
-6 4 6
-6 4 5
-6 -4 5
6 4 -5
6 -4 -5
-6 -4 4
6 4 -4
-6 4 4
6 -4 -4
-6 4 3
6 -4 -3
6 -4 -2
-6 4 2
-6 -4 1
6 4 -1
-6 -4 0
6 -4 0
-6 4 0
-6 -4 -1
6 4 1
6 -4 1
-6 -4 -2
6 4 2
6 -4 2
-6 -4 -3
6 4 3
-6 4 -3
6 -4 3
-6 -4 -4
6 4 4
-6 4 -4
6 -4 4
-6 -4 -5
6 4 5
-6 4 -5
6 -4 5
-6 -4 -7
6 4 7
-6 4 -7
6 -4 7
-6 -4 -8
6 4 8
-6 4 -8
6 -4 8
-6 -4 -9
6 4 9
6 -4 9
6 -4 10
-6 -4 -11
6 4 11
-6 4 -11
6 -4 11
-6 -4 -12
6 4 12
-6 4 -13
6 -4 13
-6 -5 7
-6 -5 6
-6 5 6
6 5 -6
-6 -5 5
6 5 -5
-6 -5 4
6 5 -4
-6 5 3
-6 -5 3
6 5 -3
6 -5 -3
-6 -5 2
6 5 -2
6 -5 -2
-6 -5 1
6 5 -1
6 -5 -1
-6 5 1
-6 -5 0
-6 5 0
6 -5 0
-6 -5 -1
6 5 1
6 -5 1
-6 -5 -2
6 5 2
6 -5 2
-6 5 -2
-6 -5 -4
-6 5 -4
6 5 4
6 -5 4
-6 -5 -5
-6 5 -5
6 5 5
6 -5 5
-6 -5 -6
-6 5 -6
6 5 6
6 -5 6
-6 -5 -7
-6 5 -7
6 5 7
6 -5 7
-6 5 -8
6 -5 8
-6 -5 -9
-6 5 -9
6 5 9
-6 5 -10
-6 -5 -10
6 5 10
6 -5 10
-6 5 -11
6 -5 11
6 5 12
-6 5 -12
6 -5 12
-6 6 5
-6 6 4
6 -6 -4
-6 -6 3
6 -6 -3
-6 6 3
6 6 -3
-6 6 2
-6 -6 2
6 -6 -2
6 6 -2
-6 -6 1
6 6 -1
-6 -6 0
-6 6 0
6 6 0
6 -6 0
-6 -6 -1
-6 6 -1
6 6 1
6 -6 1
-6 -6 -2
-6 6 -2
6 6 2
-6 -6 -3
6 6 3
-6 6 -3
6 -6 3
-6 -6 -4
6 6 4
6 -6 4
-6 6 -4
-6 6 -6
-6 -6 -6
6 6 6
6 -6 6
-6 6 -7
6 6 7
6 -6 7
-6 -6 -8
6 6 8
6 -6 8
-6 6 -8
-6 6 -9
6 6 10
-6 6 -10
6 -6 10
-6 6 -11
6 -6 11
-6 -7 5
6 7 -5
-6 -7 4
-6 7 4
6 7 -4
-6 7 3
6 -7 -3
-6 7 2
6 -7 -2
-6 7 1
6 -7 -1
6 -7 0
6 7 0
-6 7 0
-6 -7 -1
6 7 1
-6 -7 -2
6 7 2
6 -7 2
-6 7 -3
-6 -7 -3
6 7 3
6 -7 3
-6 7 -4
-6 -7 -4
6 7 4
6 -7 4
-6 7 -5
-6 -7 -5
6 7 5
6 -7 5
-6 -7 -6
-6 7 -6
6 7 6
6 -7 6
-6 -7 -7
-6 7 -7
6 -7 7
-6 -7 -8
6 7 8
-6 -7 -9
-6 7 -9
6 7 9
6 -7 9
-6 -7 -10
6 7 10
-6 8 3
-6 8 2
6 -8 -2
-6 -8 1
-6 8 1
6 -8 -1
6 8 -1
-6 -8 0
6 8 0
-6 -8 -1
6 8 1
-6 -8 -2
-6 8 -2
6 -8 2
6 8 2
-6 -8 -3
6 8 3
-6 8 -3
-6 -8 -4
6 8 4
6 -8 4
-6 8 -4
6 8 6
6 -8 6
-6 -8 -7
6 8 7
-6 -9 3
6 9 -3
-6 -9 2
-6 9 1
-6 -9 1
6 -9 -1
6 9 -1
-6 9 0
-6 -9 0
6 -9 0
6 9 0
-6 9 -1
6 -9 1
-7 0 5
7 0 -5
-7 0 4
7 0 -4
-7 0 3
7 0 -3
-7 0 2
7 0 -2
-7 0 1
-7 0 0
7 0 0
-7 0 -2
7 0 2
-7 0 -3
7 0 3
-7 0 -4
-7 0 -5
7 0 5
-7 0 -6
7 0 6
-7 0 -7
7 0 7
-7 0 -8
7 0 8
7 0 9
-7 0 -11
7 0 11
-7 0 -12
7 0 12
-7 0 -13
7 0 13
-7 -1 6
7 1 -6
7 -1 -5
-7 -1 5
7 1 -5
-7 1 5
-7 1 4
7 -1 -4
-7 -1 4
7 1 -4
-7 1 3
-7 -1 3
7 -1 -3
7 1 -3
-7 1 2
-7 -1 2
7 -1 -2
7 1 -2
-7 1 1
-7 -1 1
7 -1 -1
7 1 -1
-7 1 0
-7 -1 0
7 -1 0
7 1 0
-7 1 -2
-7 -1 -2
7 -1 2
7 1 2
-7 1 -3
-7 -1 -3
7 -1 3
7 1 3
-7 1 -4
-7 -1 -4
7 -1 4
7 1 4
-7 1 -5
-7 -1 -5
7 -1 5
7 1 5
-7 1 -6
-7 -1 -6
7 -1 6
7 1 6
-7 -1 -7
7 -1 7
7 1 7
-7 1 -8
-7 -1 -8
7 -1 8
7 1 8
-7 -1 -9
7 -1 9
-7 1 -11
-7 -1 -11
7 -1 11
7 1 11
-7 1 -12
-7 -1 -12
7 -1 12
7 1 12
-7 -1 -13
7 -1 13
7 1 13
-7 1 -13
-7 -2 6
7 2 -6
-7 2 6
-7 -2 5
7 2 -5
-7 2 5
7 -2 -5
7 -2 -4
-7 -2 4
7 2 -4
-7 2 4
7 -2 -3
-7 -2 3
7 2 -3
-7 2 3
7 -2 -2
-7 -2 2
7 2 -2
-7 2 2
-7 2 1
7 -2 -1
-7 -2 0
7 2 0
7 -2 1
-7 -2 -1
-7 2 -2
-7 -2 -2
7 -2 2
7 2 2
-7 2 -3
7 -2 3
-7 -2 -3
7 2 3
-7 2 -4
7 -2 4
7 2 4
-7 2 -5
7 -2 5
-7 -2 -5
7 2 5
-7 2 -7
7 -2 7
-7 -2 -7
7 2 7
-7 2 -8
7 -2 8
-7 -2 -8
7 2 8
-7 2 -9
7 -2 9
7 -2 10
-7 -2 -10
7 2 10
-7 2 -10
7 -2 11
-7 -2 -11
7 2 11
-7 2 -11
7 -2 12
-7 2 -12
7 -2 13
-7 2 -13
-7 -3 6
7 3 -6
-7 -3 5
7 3 -5
-7 3 5
7 -3 -5
-7 3 4
7 -3 -4
7 -3 -3
-7 -3 2
7 3 -2
7 -3 -1
-7 -3 1
7 3 -1
-7 3 1
7 -3 0
-7 -3 0
7 3 0
-7 3 0
7 -3 1
-7 -3 -1
-7 3 -1
-7 -3 -2
7 3 2
-7 3 -2
7 -3 3
-7 -3 -3
7 3 3
7 -3 4
-7 3 -4
7 -3 5
-7 -3 -5
7 3 5
-7 3 -5
7 -3 6
-7 -3 -6
7 3 6
7 -3 7
-7 -3 -7
7 3 7
-7 3 -7
7 -3 8
-7 -3 -8
7 3 8
-7 3 -8
7 -3 9
-7 -3 -9
7 3 9
-7 3 -9
7 -3 10
-7 -3 -10
7 3 10
-7 3 -10
7 3 12
7 -3 12
-7 3 -13
7 -3 13
-7 -4 6
-7 -4 5
-7 4 5
7 4 -5
-7 -4 4
7 4 -4
-7 -4 3
7 4 -3
-7 4 3
7 -4 -3
-7 -4 2
7 4 -2
7 -4 -2
-7 4 2
-7 -4 1
-7 4 1
7 4 -1
7 -4 -1
-7 4 0
-7 -4 0
7 4 0
7 -4 0
-7 -4 -1
7 -4 1
-7 4 -2
7 -4 2
-7 -4 -3
7 4 3
-7 4 -3
7 -4 3
-7 -4 -4
7 4 4
-7 4 -4
7 -4 4
-7 -4 -5
7 4 5
-7 4 -5
7 -4 5
-7 -4 -6
7 4 6
-7 4 -6
7 -4 6
7 4 8
-7 4 -8
7 -4 8
-7 -4 -9
7 4 9
7 -4 9
7 -4 10
-7 -4 -11
7 4 11
-7 4 -11
7 -4 11
-7 4 -12
7 -4 12
-7 -5 5
7 5 -5
-7 5 4
-7 -5 4
7 -5 -4
-7 5 3
7 -5 -3
7 -5 -2
-7 5 2
-7 -5 1
7 5 -1
-7 -5 0
-7 5 0
7 5 0
7 -5 0
-7 -5 -1
7 5 1
7 -5 1
-7 5 -1
-7 -5 -2
-7 5 -2
7 -5 2
-7 -5 -3
7 5 3
-7 5 -3
7 -5 3
-7 -5 -4
7 5 4
7 -5 4
-7 -5 -6
-7 5 -6
7 5 6
7 -5 6
-7 5 -7
-7 -5 -7
7 5 7
7 -5 7
7 5 8
-7 -5 -9
7 5 9
7 -5 9
-7 -5 -10
7 5 10
-7 -5 -11
7 5 11
7 -5 11
-7 -6 5
-7 -6 4
7 6 -4
-7 -6 3
7 6 -3
7 -6 -3
-7 6 3
-7 6 2
-7 -6 2
7 6 -2
7 -6 -2
-7 -6 1
-7 6 1
7 6 -1
7 -6 -1
-7 6 0
7 -6 0
-7 6 -1
7 -6 1
-7 -6 -2
7 6 2
-7 -6 -3
7 6 3
7 -6 3
-7 6 -4
-7 -6 -4
7 6 4
7 -6 4
-7 6 -5
-7 -6 -5
7 6 5
7 -6 5
-7 6 -6
7 -6 6
-7 -6 -7
-7 6 -7
7 6 7
7 -6 7
-7 -6 -8
7 6 8
-7 -6 -9
7 6 9
7 -6 9
7 6 10
-7 -7 4
7 7 -4
-7 -7 3
7 7 -3
-7 -7 2
-7 7 2
7 7 -2
-7 -7 1
7 7 -1
7 -7 -1
-7 7 1
-7 7 0
-7 -7 0
7 7 0
7 -7 0
-7 7 -1
7 -7 1
-7 -7 -2
7 7 2
-7 -7 -3
-7 7 -3
7 7 3
7 -7 3
-7 -7 -4
-7 7 -4
7 7 4
7 -7 4
-7 -7 -5
-7 7 -5
7 7 5
7 -7 5
-7 -7 -6
-7 7 -6
7 7 6
7 -7 6
-7 7 -7
7 7 7
7 -7 7
-7 8 1
7 -8 -1
-7 -8 0
-7 8 0
7 8 0
7 -8 0
-7 -8 -1
7 8 1
-7 -8 -2
7 -8 2
-7 8 -2
-7 -8 -3
7 8 3
7 -8 3
-7 8 -3
-8 0 5
-8 0 4
8 0 -4
-8 0 2
8 0 -2
-8 0 1
8 0 -1
-8 0 0
8 0 0
-8 0 -1
8 0 1
8 0 2
-8 0 -4
8 0 4
-8 0 -5
8 0 5
-8 0 -6
8 0 6
-8 0 -7
8 0 7
-8 0 -8
8 0 8
-8 0 -9
8 0 9
8 0 11
-8 0 -13
-8 -1 5
-8 1 5
-8 1 4
8 -1 -4
-8 -1 3
8 1 -3
-8 1 2
-8 -1 2
8 -1 -2
8 1 -2
-8 1 1
-8 -1 1
8 -1 -1
8 1 -1
-8 1 0
-8 -1 0
8 -1 0
8 1 0
-8 1 -1
-8 -1 -1
8 -1 1
8 1 1
-8 -1 -2
8 -1 2
8 1 2
-8 1 -4
-8 -1 -4
8 -1 4
8 1 4
-8 1 -5
-8 -1 -5
8 -1 5
8 1 5
-8 1 -6
-8 -1 -6
8 -1 6
8 1 6
-8 1 -8
-8 -1 -8
8 -1 8
8 1 8
-8 1 -9
-8 -1 -9
8 -1 9
8 1 9
-8 1 -11
-8 -1 -11
8 -1 11
8 1 11
-8 1 -12
-8 -1 -12
8 -1 12
8 1 12
-8 -2 4
8 2 -4
8 -2 -3
-8 -2 3
8 2 -3
-8 2 3
8 -2 -2
-8 -2 2
8 2 -2
-8 2 2
8 -2 -1
-8 -2 1
8 2 -1
-8 2 1
-8 2 0
8 -2 0
-8 -2 0
8 2 0
-8 2 -1
8 -2 1
-8 -2 -1
8 2 1
-8 2 -3
-8 -2 -3
8 2 3
-8 2 -4
8 -2 4
-8 -2 -4
8 2 4
-8 2 -5
8 -2 5
-8 -2 -5
8 2 5
-8 2 -6
8 -2 6
-8 -2 -6
8 2 6
-8 2 -7
8 -2 7
-8 -2 -7
8 2 7
-8 2 -8
8 -2 8
-8 -2 -8
8 2 8
8 -2 9
8 2 9
-8 -2 -10
8 2 10
-8 2 -10
8 -2 11
-8 -2 -11
8 2 11
-8 2 -11
8 -2 12
-8 -2 -12
-8 2 -12
-8 -3 5
-8 -3 4
8 3 -4
-8 3 4
8 -3 -4
-8 -3 3
8 3 -3
8 -3 -3
-8 -3 2
8 3 -2
-8 3 2
8 -3 -2
8 -3 -1
-8 -3 1
8 3 -1
-8 3 1
8 -3 0
-8 3 0
-8 -3 -1
8 3 1
8 -3 2
-8 -3 -2
8 3 2
-8 3 -2
8 -3 3
-8 -3 -3
-8 3 -3
8 -3 4
-8 -3 -4
8 3 4
-8 3 -4
8 -3 5
-8 3 -5
8 -3 6
-8 -3 -6
8 3 6
8 -3 7
-8 -3 -7
8 3 7
-8 3 -7
8 -3 8
-8 -3 -8
8 3 8
-8 3 -8
8 -3 9
-8 -3 -9
-8 3 -9
-8 -3 -10
8 3 10
-8 3 -10
8 -3 11
-8 -3 -11
8 3 11
-8 -4 3
8 4 -3
-8 4 3
8 -4 -3
-8 -4 2
8 4 -2
-8 -4 1
8 4 -1
-8 4 1
8 -4 -1
8 4 0
8 -4 0
-8 -4 -1
8 4 1
8 -4 1
-8 -4 -2
8 4 2
-8 4 -2
8 -4 2
8 -4 3
-8 -4 -4
8 4 4
8 -4 4
-8 -4 -5
8 4 5
-8 4 -5
8 -4 5
-8 -4 -6
8 4 6
-8 4 -6
8 -4 6
-8 -4 -8
8 4 8
-8 4 -8
8 -4 8
-8 -4 -9
8 4 9
-8 4 -9
8 -4 9
-8 -4 -10
8 4 10
8 -4 10
-8 -5 4
-8 -5 3
8 5 -3
-8 5 3
-8 -5 2
8 5 -2
8 -5 -2
-8 5 2
-8 -5 1
-8 5 1
8 5 -1
8 -5 -1
-8 5 0
8 -5 0
-8 -5 -1
8 5 1
-8 5 -2
8 5 2
8 -5 2
-8 -5 -3
8 5 3
8 -5 3
-8 5 -3
-8 -5 -4
-8 5 -4
8 5 4
-8 -5 -6
8 5 6
-8 5 -6
8 -5 6
-8 -5 -7
8 5 7
-8 5 -7
8 -5 7
-8 5 -8
8 5 8
8 -5 8
-8 -5 -9
8 5 9
-8 5 -9
8 -5 9
-8 -6 3
8 6 -3
-8 6 2
-8 -6 2
8 6 -2
-8 -6 1
-8 6 1
8 6 -1
8 -6 -1
-8 -6 0
8 6 0
-8 6 0
8 -6 0
-8 6 -1
8 -6 1
8 6 2
-8 6 -3
-8 -6 -3
8 6 3
8 -6 3
-8 -6 -4
8 6 4
8 -6 4
-8 6 -5
8 -6 5
-8 -6 -6
-8 6 -6
8 6 6
8 -6 6
-8 -6 -7
-8 6 -7
8 6 7
8 -6 7
-8 -7 2
8 7 -2
-8 -7 1
8 7 -1
-8 7 0
8 -7 0
-8 7 -1
8 -7 1
-8 -7 -2
8 7 2
-8 -7 -3
-8 7 -3
8 -7 3
-8 7 -4
8 -7 4
-9 0 3
9 0 -3
-9 0 2
9 0 -2
-9 0 0
9 0 0
-9 0 -1
9 0 1
-9 0 -2
9 0 2
-9 0 -3
9 0 3
-9 0 -5
9 0 5
-9 0 -6
9 0 6
-9 0 -8
9 0 8
-9 0 -9
9 0 9
-9 0 -10
-9 1 3
-9 -1 3
9 -1 -3
9 1 -3
-9 1 2
9 -1 -2
-9 -1 1
9 1 -1
-9 1 0
-9 -1 0
9 -1 0
9 1 0
-9 1 -1
-9 -1 -1
9 -1 1
9 1 1
-9 1 -2
-9 -1 -2
9 -1 2
9 1 2
-9 1 -3
9 -1 3
9 1 3
-9 1 -4
-9 -1 -4
9 1 4
-9 1 -5
-9 -1 -5
9 -1 5
-9 -1 -6
9 -1 6
9 1 6
-9 1 -8
-9 -1 -8
9 -1 8
9 1 8
-9 1 -10
-9 -1 -10
9 1 10
-9 2 3
-9 -2 2
9 2 -2
9 -2 -1
-9 -2 1
9 2 -1
-9 2 1
9 -2 0
-9 -2 0
9 2 0
-9 2 0
-9 2 -1
9 -2 1
-9 -2 -1
9 2 1
-9 2 -2
9 -2 2
-9 -2 -2
9 2 2
9 2 3
-9 2 -4
9 -2 4
-9 -2 -4
9 2 4
-9 2 -5
9 -2 5
-9 -2 -5
9 2 5
9 -2 7
-9 -2 -7
9 2 7
-9 2 -7
9 -2 8
-9 -2 -8
9 2 8
-9 2 -8
9 -2 9
-9 -2 -9
-9 2 -9
-9 -2 -10
9 2 10
-9 -3 3
-9 -3 2
9 3 -2
-9 3 2
9 -3 -2
-9 -3 1
9 3 -1
-9 3 1
9 -3 -1
9 -3 0
-9 -3 0
9 3 0
-9 3 0
9 -3 1
-9 3 -1
9 -3 2
-9 -3 -2
9 3 2
-9 3 -2
9 -3 3
9 3 3
-9 3 -3
9 -3 4
-9 -3 -4
9 3 4
9 -3 6
-9 -3 -6
9 3 6
-9 3 -6
9 -3 7
-9 -3 -7
9 3 7
-9 3 -7
9 -3 8
-9 -3 -8
9 -3 9
9 3 9
-9 3 -9
-9 -4 1
9 4 -1
-9 -4 0
9 4 0
9 -4 0
-9 4 0
-9 -4 -1
9 4 1
9 -4 1
-9 -4 -2
9 4 2
-9 4 -2
9 -4 2
-9 4 -3
9 -4 3
-9 -4 -4
9 4 4
-9 4 -4
9 -4 4
-9 -4 -5
9 4 5
-9 4 -5
-9 4 -6
9 -4 6
-9 -4 -7
9 4 7
-9 4 -7
9 -4 7
-9 -5 2
9 5 -2
-9 5 1
-9 5 0
9 -5 0
-9 -5 -1
9 5 1
-9 -5 -2
9 5 2
9 -5 2
-9 -5 -3
9 5 3
9 -5 3
-9 -5 -5
9 5 5
9 -5 5
-9 -5 -6
9 5 6
9 -5 6
-9 6 0
-9 -6 -1
9 6 1
-9 6 -2
-9 -6 -2
9 6 2
9 -6 2
-9 -6 -3
-9 6 -3
9 6 3
9 -6 3
-10 0 0
10 0 0
-10 0 -1
10 0 1
-10 0 -2
10 0 2
-10 0 -4
10 0 4
-10 0 -5
-10 0 -7
10 0 7
-10 -1 1
10 1 -1
-10 -1 0
10 -1 0
10 1 0
-10 1 -1
-10 -1 -1
10 -1 1
10 1 1
-10 1 -2
-10 -1 -2
10 -1 2
10 1 2
-10 1 -4
-10 -1 -4
10 -1 4
10 1 4
-10 -1 -5
10 -1 5
-10 -1 -6
10 1 6
-10 1 -7
-10 -1 -7
10 -1 7
10 1 7
-10 -2 1
10 2 -1
-10 2 1
-10 -2 0
10 2 0
-10 2 0
10 -2 1
-10 -2 -1
10 2 1
10 -2 3
-10 -2 -3
10 2 3
10 -2 4
-10 -2 -4
10 2 4
-10 2 -4
10 -2 6
-10 -2 -6
-10 2 -6
-10 -3 1
10 3 -1
-10 3 0
10 -3 0
-10 -3 -1
10 3 1
10 -3 2
-10 -3 -2
10 3 2
-10 3 -2
10 -3 3
-10 -3 -3
10 3 3
-10 3 -3
10 -3 5
-10 -3 -5
-10 3 -5
-10 -4 0
10 4 0
-10 -4 -1
10 4 1
10 -4 1
10 4 2
-10 -4 -3
10 4 3
-10 4 -3
10 -4 3
-10 -4 -4
10 4 4
-10 4 -4
10 -4 4
-10 -5 0
10 5 1
-11 0 -2
11 0 2
-11 0 -3
11 0 3
-11 1 -2
-11 -1 -2
11 -1 2
11 1 2
-11 1 -3
-11 -1 -3
11 -1 3
11 1 3
-11 -2 -1
11 -2 2
-11 -2 -2
11 2 2
-11 2 -2
loop_
_geom_angle_atom_site_label_1
_geom_angle_atom_site_label_2
_geom_angle_atom_site_label_3
_geom_angle_site_symmetry_1
_geom_angle_site_symmetry_3
_geom_angle
_geom_angle_publ_flag
O21 N12 O22 . . 120.5(2) ?
C1 N12 O22 . . 120.87(19) ?
C1 N12 O21 . . 118.6(2) ?
O11 N11 O12 . . 120.5(2) ?
C1 N11 O12 . . 118.4(2) ?
C1 N11 O11 . . 121.0(2) ?
N21 C2 N22 . . 117.6(2) ?
C1 C2 N22 . . 122.0(2) ?
C1 C2 N21 . . 120.4(2) ?
N11 C1 N12 . . 115.6(2) ?
C2 C1 N12 . . 119.24(19) ?
C2 C1 N11 . . 125.1(2) ?
loop_
_geom_bond_atom_site_label_1
_geom_bond_atom_site_label_2
_geom_bond_site_symmetry_2
_geom_bond_distance
_geom_bond_publ_flag
O12 N11 . 1.245(3) ?
O11 N11 . 1.231(3) ?
O22 N12 . 1.226(3) ?
O21 N12 . 1.231(2) ?
N12 C1 . 1.428(3) ?
N11 C1 . 1.385(3) ?
N22 C2 . 1.324(3) ?
N21 C2 . 1.315(4) ?
C2 C1 . 1.437(3) ?
loop_
_geom_torsion_atom_site_label_1
_geom_torsion_atom_site_label_2
_geom_torsion_atom_site_label_3
_geom_torsion_atom_site_label_4
_geom_torsion_site_symmetry_1
_geom_torsion_site_symmetry_2
_geom_torsion_site_symmetry_3
_geom_torsion_site_symmetry_4
_geom_torsion
_geom_torsion_publ_flag
O12 N11 C1 N12 . . . . -171.5(2) ?
O12 N11 C1 C2 . . . . 5.8(3) ?
O11 N11 C1 N12 . . . . 11.6(2) ?
O11 N11 C1 C2 . . . . -171.1(2) ?
O22 N12 C1 N11 . . . . 33.4(2) ?
O22 N12 C1 C2 . . . . -144.0(2) ?
O21 N12 C1 N11 . . . . -148.8(2) ?
O21 N12 C1 C2 . . . . 33.8(2) ?
N12 C1 C2 N22 . . . . -5.6(2) ?
N12 C1 C2 N21 . . . . 173.1(2) ?
N11 C1 C2 N22 . . . . 177.3(2) ?
N11 C1 C2 N21 . . . . -4.0(3) ?
