#------------------------------------------------------------------------------
#$Date: 2021-09-22 04:47:00 +0300 (Wed, 22 Sep 2021) $
#$Revision: 269240 $
#$URL: file:///home/coder/svn-repositories/cod/cif/2/10/88/2108881.cif $
#------------------------------------------------------------------------------
#
# This file is available in the Crystallography Open Database (COD),
# http://www.crystallography.net/. The original data for this entry
# were provided by IUCr Journals, http://journals.iucr.org/.
#
# The file may be used within the scientific community so long as
# proper attribution is given to the journal article from which the
# data were obtained.
#
data_2108881
loop_
_publ_author_name
'Novelli, Giulia'
'McMonagle, Charles J.'
'Kleemiss, Florian'
'Probert, Michael'
'Puschmann, Horst'
'Grabowsky, Simon'
'Maynard-Casely, Helen E.'
'McIntyre, Garry J.'
'Parsons, Simon'
_publ_section_title
;
 Accurate H-atom parameters for the two polymorphs of
 <small>L</small>-histidine at 5, 105 and 295K
;
_journal_issue                   5
_journal_name_full               'Acta Crystallographica Section B'
_journal_page_first
;
;
_journal_paper_doi               10.1107/S205252062100740X
_journal_volume                  77
_journal_year                    2021
_chemical_absolute_configuration syn
_chemical_formula_moiety         'C6 H9 N3 O2'
_chemical_formula_sum            'C6 H9 N3 O2'
_chemical_formula_weight         155.16
_chemical_name_common            L-histidine
_chemical_name_systematic        '2-Amino-3-(1H-imidazol-4-yl)propanoic acid'
_space_group_crystal_system      orthorhombic
_space_group_IT_number           19
_space_group_name_Hall           'P 2ac 2ab'
_space_group_name_H-M_alt        'P 21 21 21'
_atom_sites_solution_hydrogens   difmap
_audit_creation_date             2021-01-18
_audit_creation_method
;
Olex2 1.3
(compiled 2020.11.12 svn.r5f609507 for OlexSys, GUI svn.r6226)
;
_cell_angle_alpha                90
_cell_angle_beta                 90
_cell_angle_gamma                90
_cell_formula_units_Z            4
_cell_length_a                   5.1690(3)
_cell_length_b                   7.3430(5)
_cell_length_c                   18.8317(13)
_cell_measurement_reflns_used    4787
_cell_measurement_temperature    295
_cell_measurement_theta_max      32.28
_cell_measurement_theta_min      2.98
_cell_volume                     714.78(8)
_computing_cell_refinement       'LaueG (Piltz, 2011)'
_computing_data_collection       'MAATEL/ANSTO control program'
_computing_data_reduction
'argonne_boxes (Wilkinson et al., 1988) & LaueG (Piltz, 2011)'
_computing_molecular_graphics    'Olex2 1.3 (Dolomanov et al., 2009)'
_computing_publication_material  'Olex2 1.3 (Dolomanov et al., 2009)'
_computing_structure_refinement  'XL  (Sheldrick, 2008)'
_computing_structure_solution    'from X-ray model at 295 K'
_diffrn_ambient_temperature      295
_diffrn_measured_fraction_theta_full 0.901
_diffrn_measured_fraction_theta_max 0.901
_diffrn_measurement_details      '31 images, exposure time   0 minutes'
_diffrn_measurement_device       'Laue image-plate diffractometer'
_diffrn_measurement_device_type  KOALA
_diffrn_measurement_method       Laue
_diffrn_radiation_probe          neutron
_diffrn_radiation_type           neutron
_diffrn_radiation_wavelength     0.80
_diffrn_reflns_av_R_equivalents  0.2368
_diffrn_reflns_av_unetI/netI     0.2774
_diffrn_reflns_limit_h_max       7
_diffrn_reflns_limit_h_min       -7
_diffrn_reflns_limit_k_max       11
_diffrn_reflns_limit_k_min       -11
_diffrn_reflns_limit_l_max       26
_diffrn_reflns_limit_l_min       -26
_diffrn_reflns_number            32190
_diffrn_reflns_reduction_process 'LaueG (Piltz, 2011)'
_diffrn_reflns_resolution_max    1.54
_diffrn_reflns_theta_full        70.83
_diffrn_reflns_theta_max         70.92
_diffrn_source                   'nuclear reactor'
_diffrn_source_details           'thermal neutrons, supermirror guides'
_diffrn_source_type
'OPAL reactor, ANSTO, Lucas Heights, Australia'
_exptl_absorpt_coefficient_mu    0.0
_exptl_absorpt_correction_type   none
_exptl_crystal_colour            colourless
_exptl_crystal_density_diffrn    1.442
_exptl_crystal_description       needle
_exptl_crystal_F_000             184
_exptl_crystal_size_max          0.35
_exptl_crystal_size_mid          0.30
_exptl_crystal_size_min          0.15
_refine_diff_density_max         0.67
_refine_diff_density_min         -0.651
_refine_diff_density_rms         0.153
_refine_ls_abs_structure_details
;
Absolute structure known from synthesis
;
_refine_ls_extinction_method     none
_refine_ls_goodness_of_fit_ref   1.190
_refine_ls_hydrogen_treatment    refall
_refine_ls_matrix_type           full
_refine_ls_number_parameters     181
_refine_ls_number_reflns         1104
_refine_ls_number_restraints     0
_refine_ls_restrained_S_all      1.190
_refine_ls_R_factor_all          0.1019
_refine_ls_R_factor_gt           0.0543
_refine_ls_shift/su_max          0.000
_refine_ls_shift/su_mean         0.000
_refine_ls_structure_factor_coef Fsqd
_refine_ls_weighting_details
'w=1/[\s^2^(Fo^2^)+(0.0300P)^2^] where P=(Fo^2^+2Fc^2^)/3'
_refine_ls_weighting_scheme      calc
_refine_ls_wR_factor_gt          0.0704
_refine_ls_wR_factor_ref         0.0779
_reflns_Friedel_coverage         0.000
_reflns_Friedel_fraction_full    0.000
_reflns_Friedel_fraction_max     0.000
_reflns_number_gt                781
_reflns_number_total             1104
_reflns_threshold_expression     'I > 2\s(I)'
_cod_data_source_file            um5050sup1.cif
_cod_data_source_block           HOTN02
_cod_database_code               2108881
_shelx_shelxl_version_number     2017/1
_shelx_space_group_comment
;
The symmetry employed for this shelxl refinement is uniquely defined
by the following loop, which should always be used as a source of
symmetry information in preference to the above space-group names.
They are only intended as comments.
;
_olex2_refinement_description
;
;
_shelx_res_file
;
TITL cmm190030_5k_0m_a.res in P2(1)2(1)2(1)
    hotn02.res
    created by SHELXL-2017/1 at 09:39:26 on 18-Jan-2021
REM Old TITL CMM190030_5K_0m in P2(1)2(1)2(1)
REM SHELXT solution in P2(1)2(1)2(1): R1 0.098, Rweak 0.023, Alpha 0.001
REM <I/s> 1.903 for 15 systematic absences, Orientation as input
REM Flack x = -0.394 ( 0.361 ) from 533 Parsons' quotients
REM Formula found by SHELXT: C8 N O1
CELL 0.71073 5.169 7.343 18.8317 90 90 90
ZERR 4 0.0003 0.0005 0.0013 0 0 0
LATT -1
SYMM 0.5-X,-Y,0.5+Z
SYMM -X,0.5+Y,0.5-Z
SYMM 0.5+X,0.5-Y,-Z
NEUT
SFAC  C 0.000 0 0 0 0 0 0 0 6.646 0 0 0 0 12.011
SFAC  H 0.000 0 0 0 0 0 0 0 -3.739 0 0 0 0 1.008
SFAC  N 0.000 0 0 0 0 0 0 0 9.36 0 0 0 0 14.007
SFAC  O 0.000 0 0 0 0 0 0 0 5.803 0 0 0 0 15.999
UNIT 24 36 12 8

RIGU

L.S. 99
PLAN  1
TEMP -268.14
CONF
BOND
list 4
MORE -1
BOND $H
fmap 2 53
acta
OMIT 2 8 3
OMIT 2 0 1
OMIT 2 4 7
OMIT 0 3 20
OMIT 0 2 21
OMIT 0 7 17
OMIT 0 10 3
OMIT 0 6 19
OMIT 0 7 19
OMIT 0 8 15
OMIT 0 6 17
OMIT 0 4 19
OMIT 7 0 1
OMIT 1 0 21
OMIT 0 8 13
OMIT 0 9 8
OMIT 1 5 23
OMIT 2 2 23
OMIT 6 2 13
OMIT 2 5 22
OMIT 1 4 23
OMIT 0 5 19
OMIT 2 3 23
OMIT 2 0 23
OMIT 1 2 22
OMIT 2 1 22
OMIT 2 3 24
OMIT 0 5 16
OMIT 1 1 22
OMIT 1 1 17
OMIT 1 4 19
OMIT 1 2 20
OMIT 1 5 21
OMIT 7 2 0
OMIT 1 6 21
OMIT 1 1 20
OMIT 1 1 21
OMIT 2 1 21
OMIT 0 5 17
OMIT 1 9 12
OMIT 7 1 11
OMIT 3 3 23
OMIT 1 4 18
OMIT 2 3 21
OMIT 1 6 18
OMIT 5 4 14
OMIT 0 2 17
OMIT 1 3 22
OMIT 3 4 21
OMIT 5 6 2
OMIT 4 5 10
OMIT 3 0 19
OMIT 1 4 20
OMIT 0 9 4
OMIT 2 8 15
OMIT 1 2 19
OMIT 0 1 17
OMIT 0 9 10
OMIT 1 7 19
OMIT 2 4 21
OMIT 0 8 7
OMIT 0 10 1
OMIT 0 11 3
OMIT 2 2 3
OMIT 2 3 26
OMIT 3 0 25
OMIT 0 7 20
OMIT 2 5 24
OMIT 2 6 23
OMIT 0 10 11
OMIT 7 4 0
OMIT 6 7 4
OMIT 4 9 9
OMIT 3 1 25
OMIT 0 11 1
OMIT 0 11 2
OMIT 1 8 17
OMIT 0 11 6
OMIT 5 5 17
OMIT 5 5 16
OMIT 2 10 9
OMIT 1 7 22
OMIT 2 1 26
OMIT 1 7 20
OMIT 2 3 25
OMIT 2 4 25
OMIT 3 9 7
OMIT 2 8 17
OMIT 1 6 23
OMIT 2 9 15
OMIT 3 10 2
OMIT 4 0 23
OMIT 0 9 16
OMIT 7 4 6
OMIT 0 8 17
OMIT 7 5 0
OMIT 0 10 7
OMIT 2 6 21
OMIT 3 4 24
OMIT 4 9 8
OMIT 1 10 11
OMIT 1 11 5
OMIT 6 5 13
OMIT 0 7 1
OMIT 0 8 3
OMIT 2 2 1
REM <olex2.extras>
REM <HklSrc "%.\\HOTN02.hkl">
REM </olex2.extras>

WGHT    0.030000
FVAR       0.34635
O2    4    0.324098    0.509318    0.241969    11.00000    0.02301    0.04393 =
         0.04523    0.01501   -0.00636    0.00023
O1    4    0.725537    0.505589    0.198805    11.00000    0.03038    0.06287 =
         0.02657    0.00945   -0.00007   -0.00154
N1    3    0.912882    0.321292    0.310581    11.00000    0.02776    0.02783 =
         0.02665   -0.00190   -0.00123    0.00612
H1B   2    1.031038    0.384995    0.276239    11.00000    0.04356    0.05131 =
         0.04352    0.00053    0.00549    0.01079
H1C   2    0.869022    0.190942    0.292580    11.00000    0.05229    0.03686 =
         0.04586   -0.00643   -0.00612    0.00411
H1A   2    1.005764    0.315356    0.359288    11.00000    0.03267    0.05501 =
         0.03408    0.00054    0.00061    0.01322
N3    3    0.874777    0.499694    0.553580    11.00000    0.03827    0.03782 =
         0.02049   -0.00166   -0.00016   -0.00131
H3    2    0.852729    0.499353    0.608729    11.00000    0.05956    0.05506 =
         0.03028    0.00091   -0.00458   -0.00300
N2    3    1.032338    0.439805    0.446992    11.00000    0.03146    0.04178 =
         0.02699    0.00103   -0.00072    0.00774
C4    1    0.807698    0.539981    0.439419    11.00000    0.03282    0.02504 =
         0.02172   -0.00274   -0.00261    0.00095
C1    1    0.562608    0.482056    0.246112    11.00000    0.02349    0.02964 =
         0.02417    0.00266   -0.00135    0.00072
C2    1    0.664932    0.424039    0.319642    11.00000    0.02440    0.02424 =
         0.02016    0.00278    0.00199    0.00110
H2    2    0.524079    0.331328    0.344517    11.00000    0.03084    0.05270 =
         0.03861    0.00671    0.00547   -0.01052
C6    1    0.706522    0.576570    0.505362    11.00000    0.03295    0.03948 =
         0.02622   -0.00543    0.00224    0.00552
H6    2    0.534409    0.650252    0.521367    11.00000    0.04979    0.07516 =
         0.05076   -0.00692    0.00650    0.02575
C5    1    1.064858    0.418776    0.516270    11.00000    0.03427    0.04529 =
         0.02264    0.00018   -0.00410    0.00683
H5    2    1.220599    0.343059    0.541291    11.00000    0.05790    0.07706 =
         0.04690    0.00647   -0.01883    0.02159
C3    1    0.707854    0.590483    0.367256    11.00000    0.04517    0.02245 =
         0.02574   -0.00151   -0.00718    0.00727
H3A   2    0.839153    0.685347    0.340994    11.00000    0.09277    0.04733 =
         0.03828    0.00965   -0.00957   -0.02179
H3B   2    0.525301    0.660927    0.372655    11.00000    0.06856    0.06538 =
         0.05416   -0.01712   -0.00847    0.02766
HKLF 4




REM  cmm190030_5k_0m_a.res in P2(1)2(1)2(1)
REM R1 =  0.0543 for     781 Fo > 4sig(Fo)  and  0.1019 for all    1104 data
REM    181 parameters refined using      0 restraints

END

WGHT      0.0290      0.6676

REM Highest difference peak  0.674,  deepest hole -0.651,  1-sigma level  0.153
Q1    1   0.6873  0.3838  0.3609  11.00000  0.05    0.67
;
_shelx_res_checksum              2733
_shelx_hkl_file
;
   0   1   0    25.9     0.6
   0   1   1    12.0     0.4
   0   1   3     5.7     0.6
   0   1   4    82.6     1.7
   0   1   5   114.1     4.4
   0   1   6    28.0     1.4
   0   1   7     8.5     2.0
   0   1   8    14.5     1.9
   0   1   9   110.2     2.7
   0   1  10   379.6     4.0
   0   1  11   417.3     4.9
   0   1  12    31.2     3.4
   0   1  13   257.1     6.0
   0   1  14   653.9    12.0
   0   1  15    29.1    10.2
   0   1  16   113.4    17.4
   0   1  17   105.1    42.0
   0   1  18    31.0    73.9
   0   2   1    84.6     1.5
   0   2   3    35.9     1.3
   0   2   5     7.5     1.3
   0   2   7   380.5     4.2
   0   2   9   602.5     5.7
   0   2  11     1.5     2.8
   0   2  13    27.6     4.6
   0   2  15   763.5    18.4
   0   2  17   -17.9    23.5
   0   2  19    36.4    99.0
   0   2  21   493.5   218.5
   0   3   1     6.3     1.3
   0   3   2     9.7     1.2
   0   3   4    75.1     1.9
   0   3   5    59.3     2.3
   0   3   7    61.8     2.4
   0   3   8    68.5     2.7
   0   3  10     6.2     2.6
   0   3  11    37.7     3.2
   0   3  13   180.8     6.0
   0   3  14   147.1     8.0
   0   3  16   -15.1    21.4
   0   3  17   -19.7    30.6
   0   3  19   -24.0    60.6
   0   3  20   486.8   104.1
   0   4   1   124.8     2.5
   0   4   3    -1.8     2.9
   0   4   5    15.3     2.7
   0   4   7    -0.8     2.8
   0   4   9    24.5     3.6
   0   4  11   190.1     4.5
   0   4  13    69.9     6.9
   0   4  15    21.7    12.5
   0   4  17   154.9    29.0
   0   4  19    65.1    72.6
   0   5   1     5.6     3.4
   0   5   2   263.3     4.8
   0   5   3    -2.9     2.8
   0   5   4    -4.6     3.0
   0   5   6    42.2     3.5
   0   5   7     3.0     3.5
   0   5   8   172.3     4.3
   0   5   9    84.6     4.2
   0   5  11    42.2     5.1
   0   5  12   546.5     9.1
   0   5  13    12.7     7.5
   0   5  14   124.7     9.6
   0   5  16   141.2    24.6
   0   5  17    -6.0    29.2
   0   5  18     8.5    46.2
   0   5  19   133.7    94.5
   0   6   1   146.7     5.1
   0   6   5    -0.6     5.5
   0   6   7    25.3     5.4
   0   6  11    21.5     6.3
   0   6  13    25.8     8.5
   0   6  17    57.3    27.3
   0   6  19   182.1   119.8
   0   7   1    36.4     6.4
   0   7   2   289.3    10.9
   0   7   3   117.1     6.2
   0   7   4    21.1     6.0
   0   7   5    20.5     6.2
   0   7   6   136.2     7.0
   0   7   8    13.4     6.6
   0   7   9     8.2     6.5
   0   7  10    55.3     6.6
   0   7  11    32.3     7.5
   0   7  12   184.6     8.5
   0   7  13    36.1    11.0
   0   7  15    42.2    17.8
   0   7  16   112.6    29.5
   0   7  17   353.3    56.9
   0   7  18   -34.1    56.7
   0   7  19   231.3    81.5
   0   7  20   210.6   113.4
   0   8   1    24.2     7.2
   0   8   3    42.7     7.5
   0   8   5    19.2     7.1
   0   8   7    86.1     8.8
   0   8   9    82.6     8.4
   0   8  11    34.0     9.9
   0   8  13    48.6    13.5
   0   8  15    49.7    25.1
   0   8  17    78.5    39.4
   0   9   1    43.2     9.2
   0   9   2    71.6     9.5
   0   9   4    64.8    10.9
   0   9   5    63.6    10.7
   0   9   7    87.8    11.8
   0   9   8    68.0    15.2
   0   9  10   109.9    14.4
   0   9  11    36.5    14.5
   0   9  13    56.6    19.0
   0   9  14    92.3    22.6
   0   9  16   111.5    32.7
   0   9  17    86.7    54.2
   0  10   1    86.1    15.9
   0  10   3   165.6    30.6
   0  10   7   199.7    19.3
   0  10   9   106.1    20.3
   0  10  11    70.5    25.2
   0  10  13    24.4    27.8
   0  11   1    90.8    23.0
   0  11   2    79.3    25.1
   0  11   3   371.9    45.6
   0  11   4   158.5    25.6
   0  11   5    31.8    29.3
   0  11   6    87.8    37.0
   1   0   0    -0.4     0.6
   1   0   1   152.5     2.8
   1   0   2    83.0     1.7
   1   0   3   430.9     6.7
   1   0   4    59.8     1.4
   1   0   5   215.6    28.8
   1   0   6   264.3     7.4
   1   0   7    81.8     3.7
   1   0   8    12.4     3.2
   1   0   9   592.9    10.4
   1   0  10    -4.0     5.0
   1   0  11    -1.8     5.2
   1   0  12    34.8     5.3
   1   0  13   245.0     7.4
   1   0  14    -6.0     6.6
   1   0  15   192.5     9.7
   1   0  16   -13.6    12.2
   1   0  17   100.2    17.0
   1   0  18   566.5    29.0
   1   0  19   -58.8    35.2
   1   0  20    96.2    56.7
   1   0  21    50.9    93.1
   1   0  22   -75.9   166.8
   1   1   1   726.9    11.8
   1   1   2    45.6     0.6
   1   1   3   400.2     2.9
   1   1   4    18.0     0.6
   1   1   5   148.3     1.5
   1   1   6   220.0     1.6
   1   1   7   264.2     2.2
   1   1   8   615.9     3.8
   1   1   9   376.1     3.6
   1   1  10   185.5     3.0
   1   1  11   212.6     3.5
   1   1  12   137.1     3.6
   1   1  13   237.4     4.7
   1   1  14    96.2     4.7
   1   1  15    43.7     6.3
   1   1  16   667.0    14.5
   1   1  17    77.9    15.8
   1   1  18     7.9    23.1
   1   1  19    67.6    37.5
   1   1  20   -14.7    61.5
   1   1  21   -81.5   103.4
   1   1  22   193.4   189.4
   1   2   0   117.0     3.7
   1   2   1   321.4     2.8
   1   2   2   106.9     1.1
   1   2   3   554.3     4.8
   1   2   4    17.3     1.5
   1   2   5   154.7     2.5
   1   2   6   311.0     3.6
   1   2   7   205.4     2.8
   1   2   8   145.5     2.3
   1   2   9   160.7     2.4
   1   2  10    23.2     2.3
   1   2  11    72.9     2.9
   1   2  12    33.4     3.2
   1   2  13   374.4     5.0
   1   2  14    96.3     4.8
   1   2  15   276.3     7.1
   1   2  16    40.2     8.3
   1   2  17   218.6    11.2
   1   2  18    22.1    18.0
   1   2  19   105.9    31.9
   1   2  20    31.9    58.4
   1   2  21   -48.8    95.7
   1   2  22   180.4   170.4
   1   3   0    28.3     1.5
   1   3   1    13.4     0.9
   1   3   2    94.2     1.4
   1   3   3   426.8     4.1
   1   3   4   121.5     2.1
   1   3   5    80.0     2.3
   1   3   6    17.9     2.1
   1   3   7   155.3     2.5
   1   3   8   152.9     2.5
   1   3   9   154.0     2.8
   1   3  10   101.6     3.0
   1   3  11   562.3     5.1
   1   3  12   218.1     4.0
   1   3  13   627.5     5.9
   1   3  14   218.7     5.3
   1   3  15    16.9     6.2
   1   3  16    69.4     9.9
   1   3  17    88.5    12.9
   1   3  18   162.9    17.0
   1   3  19    92.3    22.3
   1   3  20    72.0    31.7
   1   3  21    47.6   139.4
   1   3  22  -742.2   325.1
   1   4   0     0.8     1.8
   1   4   1   653.4     4.0
   1   4   2   963.1     5.4
   1   4   3    69.6     1.7
   1   4   4    70.0     1.9
   1   4   5   104.3     2.3
   1   4   6    48.4     2.2
   1   4   7    42.0     2.3
   1   4   8   277.7     3.1
   1   4   9    20.5     2.7
   1   4  10    92.7     3.4
   1   4  11   216.9     4.2
   1   4  12    91.4     4.0
   1   4  13    22.1     3.9
   1   4  14   211.4     5.7
   1   4  15   391.0     7.9
   1   4  16    42.9     8.2
   1   4  17    22.3    14.0
   1   4  18    -1.9    18.6
   1   4  19    67.5    25.2
   1   4  20    77.8    39.8
   1   4  21    97.4    99.2
   1   4  22  -105.3   164.2
   1   4  23   105.4   302.8
   1   5   0    10.5     3.4
   1   5   1    16.6     2.5
   1   5   2     6.7     2.2
   1   5   3   237.1     3.1
   1   5   4   205.5     2.9
   1   5   5   135.4     2.8
   1   5   6    78.6     2.7
   1   5   7   203.8     3.3
   1   5   8   603.9     4.9
   1   5   9    50.9     3.4
   1   5  10    43.2     3.8
   1   5  11    23.4     4.2
   1   5  12   317.7     5.4
   1   5  13   239.0     5.5
   1   5  14    58.8     5.6
   1   5  15    20.9     7.3
   1   5  16    41.5    10.0
   1   5  17   101.7    15.2
   1   5  18    35.0    20.7
   1   5  19    33.2    27.2
   1   5  20    77.1    36.0
   1   5  21    35.4   103.3
   1   5  22    72.3   164.0
   1   5  23    46.0   273.8
   1   6   0    65.4     4.3
   1   6   1    30.5     3.0
   1   6   2   179.2     3.6
   1   6   3   163.3     3.6
   1   6   4    18.4     3.3
   1   6   5   439.4     4.9
   1   6   6    15.2     3.4
   1   6   7    58.4     3.4
   1   6   8   126.3     3.9
   1   6   9   107.1     4.0
   1   6  10    12.6     4.3
   1   6  11   241.1     5.5
   1   6  12    56.4     5.7
   1   6  13    82.6     5.9
   1   6  14    78.6     6.7
   1   6  15    33.1     8.6
   1   6  16    -1.1    11.0
   1   6  17    84.3    14.1
   1   6  18    -8.4    20.8
   1   6  19    60.3    32.0
   1   6  20    23.3    51.6
   1   6  21   -95.3   115.2
   1   6  22    12.3   167.5
   1   6  23  -486.9   248.6
   1   7   0    47.0     5.7
   1   7   1    20.4     4.0
   1   7   2    38.9     4.3
   1   7   3    59.9     4.2
   1   7   4    49.6     4.1
   1   7   5   113.5     4.3
   1   7   6   134.4     4.5
   1   7   7    41.0     4.6
   1   7   8    80.3     4.5
   1   7   9    42.8     4.6
   1   7  10    57.7     5.3
   1   7  11     1.8     5.9
   1   7  12    92.3     6.7
   1   7  13    35.8     7.5
   1   7  14     2.6     8.9
   1   7  15     5.5    10.7
   1   7  16    74.0    13.1
   1   7  17    44.8    16.8
   1   7  18    45.2    25.6
   1   7  19    92.0    33.3
   1   7  20    15.8    41.2
   1   7  21    19.1    85.8
   1   7  22  -129.3   243.9
   1   8   0    12.3     7.1
   1   8   1    70.9     5.3
   1   8   2    64.9     5.2
   1   8   3     2.8     5.0
   1   8   4    19.8     5.3
   1   8   5   184.2     5.4
   1   8   6    70.0     5.3
   1   8   7   129.1     5.6
   1   8   8    90.1     5.9
   1   8   9    87.7     6.6
   1   8  10    78.7     7.2
   1   8  11    50.0     8.2
   1   8  12    14.6     9.2
   1   8  13    33.3    10.7
   1   8  14   107.2    12.3
   1   8  15   129.1    14.4
   1   8  16     1.3    17.8
   1   8  17    93.0    21.6
   1   8  18    36.5    26.6
   1   8  19    56.3    38.8
   1   9   0    13.2    10.0
   1   9   1    29.9     7.4
   1   9   2     3.5     7.3
   1   9   3    11.7     7.1
   1   9   4     1.3     7.0
   1   9   5     7.8     7.0
   1   9   6    -4.0     7.3
   1   9   7   130.3     7.9
   1   9   8     3.5     8.4
   1   9   9    67.2     9.2
   1   9  10    30.3    10.6
   1   9  11    11.2    12.3
   1   9  12    -9.6    14.1
   1   9  13     2.2    15.6
   1   9  14    64.4    18.4
   1   9  15    12.3    21.4
   1   9  16     8.3    25.2
   1  10   0   129.6    16.1
   1  10   1    33.5    11.5
   1  10   2     2.9    11.4
   1  10   3    31.6    11.6
   1  10   4    28.5    11.1
   1  10   5    47.6    11.2
   1  10   6    41.5    11.3
   1  10   7    54.5    11.8
   1  10   8    15.5    12.7
   1  10   9    87.7    13.6
   1  10  10    14.3    16.0
   1  10  11    66.7    17.5
   1  10  12    23.6    20.9
   1  11   0    25.3    27.0
   1  11   1    21.1    19.4
   1  11   2    15.5    18.7
   1  11   3    27.1    18.8
   1  11   4    36.7    18.0
   1  11   5    72.7    50.9
   2   0   1    16.5     1.3
   2   0   3    16.8     2.3
   2   0   5    19.0     1.0
   2   0   7   575.6     7.0
   2   0   9   494.4    11.2
   2   0  11   156.4     7.2
   2   0  13    96.0     7.4
   2   0  15    84.1     7.7
   2   0  17     5.6    11.1
   2   0  19    19.2    23.6
   2   0  21    72.6    46.3
   2   0  23   156.3   113.6
   2   0  25  -410.8   304.3
   2   1   0    11.8     1.8
   2   1   1   319.5     4.1
   2   1   2   139.9     1.6
   2   1   3   313.3     3.8
   2   1   4    49.1     1.3
   2   1   5    41.4     1.0
   2   1   6   328.4     1.9
   2   1   7   152.1     2.0
   2   1   8    30.6     2.8
   2   1   9    15.2     4.0
   2   1  10    55.2     4.3
   2   1  11   209.4     5.3
   2   1  12    59.9     4.9
   2   1  13   249.7     5.6
   2   1  14    40.8     5.2
   2   1  15   436.1     7.1
   2   1  16   -11.4     6.0
   2   1  17    55.7     7.4
   2   1  18    94.2    10.4
   2   1  19    53.4    14.4
   2   1  20    13.1    23.9
   2   1  21   -78.9    33.5
   2   1  22   195.7    52.0
   2   1  23    20.7    78.4
   2   1  24   -78.5   128.3
   2   1  25   110.1   215.2
   2   1  26  -315.1   432.9
   2   2   1    18.2     1.5
   2   2   3   136.6     1.8
   2   2   5    59.2     1.2
   2   2   7   372.5     3.3
   2   2   9   252.3     3.7
   2   2  11   329.4     6.3
   2   2  13   393.1     6.1
   2   2  15   440.5     6.8
   2   2  17    41.4     6.5
   2   2  19   212.9    14.6
   2   2  21     7.7    35.6
   2   2  23    49.1    85.3
   2   2  25  -471.9   222.3
   2   3   0   196.9     3.8
   2   3   1  1024.4     5.4
   2   3   2    99.2     1.7
   2   3   3   339.7     3.0
   2   3   4    47.0     1.6
   2   3   5    28.0     1.7
   2   3   6    11.7     1.7
   2   3   7   395.6     3.5
   2   3   8   224.3     3.4
   2   3   9   122.4     3.5
   2   3  10   125.5     3.8
   2   3  11    99.4     4.0
   2   3  12   126.7     4.8
   2   3  13   109.7     4.6
   2   3  14   167.4     5.0
   2   3  15   373.5     6.0
   2   3  16    60.4     5.5
   2   3  17    52.7     6.7
   2   3  18    51.2    10.5
   2   3  19   139.9    15.2
   2   3  20    17.7    17.7
   2   3  21   -18.1    25.2
   2   3  22  -170.6    58.1
   2   3  23   139.8    88.3
   2   3  24   160.2   140.3
   2   3  25  -143.4   213.9
   2   3  26   398.9   687.3
   2   4   1   209.7     2.7
   2   4   3   261.4     2.8
   2   4   5    89.9     2.3
   2   4   7    31.6     2.7
   2   4   9   333.8     4.6
   2   4  11   321.7     5.2
   2   4  13   386.8     6.1
   2   4  15   102.7     5.0
   2   4  17   108.9     7.3
   2   4  19    77.0    13.1
   2   4  21    90.0    26.2
   2   4  23   -19.1    71.9
   2   4  25   -37.3   148.8
   2   5   0   399.6     5.4
   2   5   1   279.1     3.5
   2   5   2    59.7     2.4
   2   5   3   137.8     2.7
   2   5   4   202.2     3.2
   2   5   5   285.5     3.7
   2   5   6    21.6     2.9
   2   5   7     7.2     3.2
   2   5   8   172.0     3.9
   2   5   9   192.6     4.4
   2   5  10    64.6     4.2
   2   5  11   138.6     4.8
   2   5  12    71.0     4.8
   2   5  13    80.2     5.2
   2   5  14    64.0     5.3
   2   5  15    74.8     5.6
   2   5  16   124.5     6.6
   2   5  17    69.5     7.5
   2   5  18    15.8     9.7
   2   5  19   117.5    14.3
   2   5  20    38.5    19.7
   2   5  21    96.9    25.3
   2   5  22    49.6    41.5
   2   5  23  -167.1    85.8
   2   5  24   191.5   126.8
   2   6   1   463.8     4.3
   2   6   3     4.3     3.1
   2   6   5   511.8     5.2
   2   6   7    25.0     3.9
   2   6   9   109.7     5.1
   2   6  11    43.8     5.2
   2   6  13   103.4     6.3
   2   6  15   179.5     7.7
   2   6  17   101.3    10.0
   2   6  19    33.5    14.5
   2   6  21   186.3    28.0
   2   6  23   121.2    96.8
   2   7   0    10.5     5.8
   2   7   1    16.6     4.4
   2   7   2    14.0     4.3
   2   7   3    24.7     4.3
   2   7   4    95.0     4.4
   2   7   5   157.1     4.5
   2   7   6   162.8     4.7
   2   7   7   215.9     5.3
   2   7   8    51.2     5.4
   2   7   9    59.2     6.0
   2   7  10    79.3     6.3
   2   7  11     0.1     6.7
   2   7  12    41.4     7.5
   2   7  13    50.6     8.8
   2   7  14    12.1     9.9
   2   7  15    11.1    10.9
   2   7  16    16.3    12.6
   2   7  17    20.2    14.5
   2   7  18    51.8    15.7
   2   7  19    23.4    19.7
   2   7  20    35.2    24.6
   2   7  21    78.4    33.6
   2   8   1    87.2     5.2
   2   8   3   106.5     5.4
   2   8   5    90.1     5.9
   2   8   7    14.8     6.4
   2   8   9    39.7     7.3
   2   8  11    24.8     9.3
   2   8  13    43.8    11.8
   2   8  15    74.0    15.9
   2   8  17    -2.6    20.8
   2   9   0    34.1    10.0
   2   9   1    17.1     7.2
   2   9   2   -10.0     7.4
   2   9   3     2.8     7.8
   2   9   4    18.3     8.6
   2   9   5    12.1     9.0
   2   9   6    16.5     9.3
   2   9   7    41.8     9.8
   2   9   8    25.3    10.4
   2   9   9    38.0    11.6
   2   9  10    29.1    12.7
   2   9  11     9.1    13.8
   2   9  12    20.3    15.4
   2   9  13    37.1    17.4
   2   9  14   -33.8    19.2
   2   9  15    -3.1    21.7
   2  10   1    15.5    11.5
   2  10   3    15.9    12.4
   2  10   5    37.6    13.9
   2  10   7    29.4    15.8
   2  10   9    87.9    18.0
   2  10  11    46.3    23.5
   3   0   1   385.0     6.7
   3   0   2     6.9     1.9
   3   0   4   430.9     5.3
   3   0   5    40.3     2.8
   3   0   7   140.5     3.5
   3   0   8     9.4     5.9
   3   0  10    15.1     5.4
   3   0  11    94.8     6.5
   3   0  13    94.8     9.3
   3   0  14   108.4     8.4
   3   0  16   294.7    10.2
   3   0  17    15.7     8.0
   3   0  19     1.3    10.9
   3   0  20    11.8    13.6
   3   0  22    35.7    26.4
   3   0  23   -12.1    43.6
   3   0  25   328.5   110.2
   3   0  26   -74.7   161.1
   3   1   0   138.7     4.4
   3   1   1   287.1     3.3
   3   1   2   546.0     4.3
   3   1   3     9.3     1.6
   3   1   4    12.6     1.7
   3   1   5    21.3     2.0
   3   1   6   430.5     3.8
   3   1   7   541.3     4.9
   3   1   8     4.1     2.6
   3   1   9    24.4     4.0
   3   1  10   187.3     5.6
   3   1  11   181.5     5.9
   3   1  12    65.3     5.1
   3   1  13    28.6     4.9
   3   1  14   174.2     6.3
   3   1  15    42.9     6.0
   3   1  16    11.3     5.5
   3   1  17    99.9     5.8
   3   1  18    15.7     5.9
   3   1  19    25.3     7.3
   3   1  20    50.4     8.6
   3   1  21    19.8    14.6
   3   1  22    32.5    21.7
   3   1  23    67.2    27.8
   3   1  24    42.3    46.1
   3   1  25    66.5    64.5
   3   1  26   -50.2    97.0
   3   2   0     4.9     3.6
   3   2   1    87.1     2.2
   3   2   2   103.9     2.0
   3   2   3   243.6     2.6
   3   2   4   155.4     2.1
   3   2   5    95.3     2.1
   3   2   6    96.8     2.4
   3   2   7    75.5     2.8
   3   2   8   641.2     6.1
   3   2   9    34.8     4.2
   3   2  10   110.6     4.9
   3   2  11    55.7     4.9
   3   2  12   161.6     5.6
   3   2  13    53.8     5.2
   3   2  14   249.7     5.9
   3   2  15   284.5     6.3
   3   2  16   187.5     5.9
   3   2  17     1.5     5.3
   3   2  18    48.1     5.9
   3   2  19    64.3     7.0
   3   2  20    38.0     9.1
   3   2  21    70.1    12.5
   3   2  22    38.3    17.4
   3   2  23    84.2    23.6
   3   2  24    93.7    46.4
   3   2  25    17.5    81.3
   3   2  26  -113.5   141.2
   3   3   1   158.0     2.3
   3   3   2   156.1     2.2
   3   3   4    40.4     2.0
   3   3   5     0.3     2.2
   3   3   7    23.5     2.9
   3   3   8   438.9     5.2
   3   3  10   787.1     8.8
   3   3  11    55.5     4.6
   3   3  13     5.6     5.2
   3   3  14    35.0     5.2
   3   3  16    63.1     5.3
   3   3  17    38.5     5.7
   3   3  19     3.9     7.7
   3   3  20   -14.3     9.5
   3   3  22    52.0    18.4
   3   3  23   -19.9    26.4
   3   3  25  -107.6    51.9
   3   4   0   238.8     3.9
   3   4   1    31.7     2.0
   3   4   2    10.3     1.9
   3   4   3    61.6     2.2
   3   4   4   139.8     2.7
   3   4   5   359.5     4.3
   3   4   6   203.4     4.2
   3   4   7    81.2     3.8
   3   4   8   454.8     5.8
   3   4   9     4.9     4.0
   3   4  10    35.6     4.6
   3   4  11    29.4     4.8
   3   4  12    48.4     5.0
   3   4  13   101.4     5.2
   3   4  14     4.3     5.1
   3   4  15    13.7     5.3
   3   4  16    78.5     5.9
   3   4  17     5.8     6.4
   3   4  18    21.4     7.4
   3   4  19    16.4     8.7
   3   4  20    20.5    10.6
   3   4  21    -5.7    13.6
   3   4  22    47.3    16.7
   3   4  23    30.0    24.0
   3   4  24   149.2    35.3
   3   5   0   430.2     5.3
   3   5   1   258.1     3.2
   3   5   2   100.8     2.6
   3   5   3     9.1     2.7
   3   5   4   136.2     3.1
   3   5   5    84.7     3.4
   3   5   6   105.0     3.9
   3   5   7    71.0     4.1
   3   5   8    15.5     4.2
   3   5   9    58.8     4.6
   3   5  10    57.6     5.2
   3   5  11    12.6     5.0
   3   5  12    29.8     5.3
   3   5  13    25.8     5.4
   3   5  14    67.0     6.0
   3   5  15   147.7     6.8
   3   5  16   214.2     8.0
   3   5  17    90.1     8.6
   3   5  18    41.6     9.8
   3   5  19     3.4    10.8
   3   5  20    31.9    12.6
   3   5  21    71.4    15.3
   3   5  22    30.0    19.1
   3   5  23    52.7    27.8
   3   6   1     0.2     3.1
   3   6   2    99.1     3.5
   3   6   4   104.9     4.2
   3   6   5    44.5     4.1
   3   6   7     5.0     4.9
   3   6   8    92.7     5.4
   3   6  10    46.4     5.7
   3   6  11    32.7     6.0
   3   6  13     1.5     6.8
   3   6  14   109.5     7.7
   3   6  16    14.8     9.4
   3   6  17   -15.2    10.7
   3   6  19   -14.2    13.7
   3   6  20    80.3    17.3
   3   7   0   154.4     6.4
   3   7   1   134.0     4.5
   3   7   2    54.8     4.4
   3   7   3    28.6     4.5
   3   7   4    66.1     4.7
   3   7   5    43.5     5.0
   3   7   6    36.8     5.4
   3   7   7     5.3     6.0
   3   7   8    41.1     6.6
   3   7   9    68.4     7.1
   3   7  10    46.8     7.9
   3   7  11    -4.3     8.5
   3   7  12    30.6     9.3
   3   7  13     9.4    10.1
   3   7  14   -11.0    10.6
   3   7  15    52.4    11.6
   3   7  16    43.7    12.8
   3   7  17   121.2    14.8
   3   7  18    11.2    16.6
   3   7  19    15.1    19.1
   3   8   0    12.0     8.9
   3   8   1    27.8     6.3
   3   8   2    40.3     6.2
   3   8   3     9.3     6.1
   3   8   4    13.4     6.3
   3   8   5    35.4     6.7
   3   8   6    11.2     7.2
   3   8   7     6.4     7.9
   3   8   8     4.0     9.1
   3   8   9    17.8    10.3
   3   8  10    14.6    11.5
   3   8  11    38.6    13.0
   3   8  12    43.5    14.1
   3   8  13    21.7    15.6
   3   8  14    55.0    16.1
   3   8  15   -10.5    18.3
   3   8  16    -3.0    20.9
   3   8  17   -20.3    24.1
   3   9   1    18.7     9.5
   3   9   2    44.6     9.6
   3   9   4    32.0     9.7
   3   9   5    43.3    10.2
   3   9   7    -1.4    11.4
   3   9   8   -22.7    12.1
   3   9  10   115.5    16.8
   3   9  11    31.5    18.2
   3   9  13    -7.8    23.6
   3  10   0    -1.8    20.6
   3  10   1     7.8    15.1
   3  10   2    -0.2    15.6
   3  10   3    20.5    15.3
   3  10   4    -4.9    15.8
   3  10   5    19.8    16.7
   3  10   6    11.4    16.8
   3  10   7   -21.6    18.7
   4   0   1     9.2     2.8
   4   0   3   726.7     8.1
   4   0   5   159.3     4.7
   4   0   7   190.4     6.1
   4   0   9   197.7     7.5
   4   0  11   101.1     7.6
   4   0  13    12.9     7.2
   4   0  15    18.5     8.5
   4   0  17    14.2     8.8
   4   0  19   261.0    12.4
   4   0  21    92.6    15.8
   4   0  23   -13.8    21.7
   4   1   0     0.4     3.0
   4   1   1    28.9     2.1
   4   1   2   272.8     3.3
   4   1   3   121.8     3.0
   4   1   4   649.0     6.4
   4   1   5   890.7     7.8
   4   1   6    70.9     3.7
   4   1   7   268.7     5.7
   4   1   8   335.6     5.5
   4   1   9   146.4     4.6
   4   1  10    39.1     4.4
   4   1  11   464.0     7.1
   4   1  12   318.5     7.1
   4   1  13     0.2     6.0
   4   1  14    68.1     5.8
   4   1  15   132.3     5.9
   4   1  16   106.0     6.3
   4   1  17    15.2     6.8
   4   1  18    18.1     7.7
   4   1  19    18.1     9.0
   4   1  20    34.0    10.7
   4   1  21   226.5    13.3
   4   1  22    32.3    14.7
   4   1  23     3.7    17.9
   4   1  24   106.9    22.1
   4   2   1   285.2     3.0
   4   2   3    63.4     2.7
   4   2   5   151.6     3.9
   4   2   7    78.1     4.3
   4   2   9   197.1     5.6
   4   2  11    -3.0     4.8
   4   2  13    50.3     5.3
   4   2  15   110.6     5.7
   4   2  17    31.4     6.5
   4   2  19    56.5     8.8
   4   2  21    19.2    12.0
   4   2  23    50.1    17.3
   4   3   0   106.3     3.6
   4   3   1   482.8     4.1
   4   3   2   287.4     3.7
   4   3   3    26.5     2.9
   4   3   4    68.0     3.3
   4   3   5   149.3     4.0
   4   3   6    91.4     3.9
   4   3   7    32.6     3.8
   4   3   8   206.2     4.8
   4   3   9    98.0     4.7
   4   3  10    14.4     4.9
   4   3  11   194.3     6.0
   4   3  12   133.9     5.7
   4   3  13    13.1     5.1
   4   3  14    75.7     5.6
   4   3  15   180.1     6.4
   4   3  16    33.3     6.7
   4   3  17    26.8     7.6
   4   3  18    -3.0     8.6
   4   3  19    16.1    10.1
   4   3  20    30.6    11.9
   4   3  21    32.6    13.1
   4   3  22    37.3    15.5
   4   3  23    13.9    19.0
   4   4   1   110.8     2.9
   4   4   3    33.2     3.1
   4   4   5    14.6     3.8
   4   4   7    54.3     4.3
   4   4   9    18.9     4.5
   4   4  11     8.0     5.2
   4   4  13    50.3     5.7
   4   4  15   101.5     6.8
   4   4  17    -6.4     8.4
   4   4  19   -20.3    11.2
   4   4  21    43.7    15.9
   4   5   0    75.0     4.6
   4   5   1    82.7     3.4
   4   5   2    29.5     3.4
   4   5   3    18.1     3.7
   4   5   4   115.4     4.3
   4   5   5    93.1     4.8
   4   5   6    29.1     4.9
   4   5   7   128.6     5.2
   4   5   8    56.5     5.0
   4   5   9   183.7     5.6
   4   5  10    -0.2     5.4
   4   5  11    48.9     5.9
   4   5  12    24.5     6.1
   4   5  13    32.8     6.6
   4   5  14    33.7     7.3
   4   5  15     1.5     8.1
   4   5  16    91.2     9.3
   4   5  17    40.2    10.2
   4   5  18    26.7    11.6
   4   5  19     2.3    13.4
   4   5  20    69.5    15.7
   4   5  21     9.1    18.3
   4   6   1    11.0     4.1
   4   6   3     7.8     4.4
   4   6   5    32.3     5.0
   4   6   7    15.3     5.6
   4   6   9    21.5     6.4
   4   6  11    -0.4     7.8
   4   6  13   -10.9     9.2
   4   6  15    10.3    11.4
   4   6  17    10.6    14.1
   4   6  19     3.9    18.8
   4   7   0     9.2     8.0
   4   7   1    69.1     5.8
   4   7   2     6.0     5.9
   4   7   3    32.4     6.4
   4   7   4    12.5     6.7
   4   7   5     3.4     7.4
   4   7   6    61.1     7.8
   4   7   7    14.8     8.1
   4   7   8    30.1     8.6
   4   7   9    72.5     8.9
   4   7  10    16.6     9.4
   4   7  11     6.6    10.0
   4   7  12    22.3    10.7
   4   7  13   106.2    12.6
   4   7  14     8.7    13.3
   4   7  15    -8.4    14.6
   4   7  16    16.2    16.1
   4   7  17     6.8    19.4
   4   8   1    -4.3     8.3
   4   8   3    79.7     8.9
   4   8   5    40.1    10.5
   4   8   7    23.1    12.2
   4   8   9    -2.3    14.4
   4   8  11   102.0    15.6
   4   8  13    25.8    17.9
   4   9   0    19.6    17.2
   4   9   1    36.6    12.1
   4   9   2   113.6    12.5
   4   9   3    67.6    12.7
   4   9   4     2.1    14.1
   4   9   5    16.2    15.3
   4   9   6   -25.0    15.9
   4   9   7     8.2    18.9
   4   9   8    83.5    20.4
   4   9   9    50.3    23.1
   5   0   1   140.2     5.0
   5   0   2    53.6     5.1
   5   0   3   295.0     6.8
   5   0   4    10.0     4.8
   5   0   6     5.0     5.1
   5   0   7    24.9     5.6
   5   0   8     6.9     5.9
   5   0   9    57.3     6.6
   5   0  11    89.8     8.3
   5   0  12    -8.8     8.1
   5   0  13    38.1     8.1
   5   0  14    19.1     8.8
   5   0  16    93.4    10.7
   5   0  17   140.1    12.4
   5   0  18   -33.4    13.6
   5   0  19    76.4    15.4
   5   0  21   147.5    21.4
   5   0  22    14.7    24.4
   5   1   0    13.2     5.2
   5   1   1    30.4     3.5
   5   1   2   488.7     5.1
   5   1   3    23.1     3.6
   5   1   4    82.7     4.3
   5   1   5    45.2     4.4
   5   1   6    92.1     4.9
   5   1   7   134.6     5.0
   5   1   8   304.6     6.2
   5   1   9    36.4     4.7
   5   1  10    38.1     4.8
   5   1  11    39.5     5.0
   5   1  12    68.1     5.5
   5   1  13     9.4     5.8
   5   1  14    22.7     6.5
   5   1  15    10.5     7.2
   5   1  16     1.6     8.2
   5   1  17    17.3     9.3
   5   1  18   128.4    11.2
   5   1  19    16.7    12.4
   5   1  20    26.2    14.4
   5   1  21    41.7    16.9
   5   1  22    57.4    20.2
   5   2   0    27.0     4.7
   5   2   1    46.3     3.6
   5   2   2    83.8     3.6
   5   2   3   120.0     4.0
   5   2   4    48.3     4.0
   5   2   5    88.4     4.3
   5   2   6    57.3     4.3
   5   2   7    88.1     4.6
   5   2   8   138.9     5.1
   5   2   9    19.4     5.0
   5   2  10     4.1     5.2
   5   2  11    29.1     5.3
   5   2  12    15.6     5.5
   5   2  13    42.7     6.1
   5   2  14    19.2     6.7
   5   2  15    32.4     7.4
   5   2  16    14.6     8.3
   5   2  17     5.8     9.4
   5   2  18    18.0    10.6
   5   2  19    12.0    12.4
   5   2  20    18.1    14.5
   5   2  21    31.2    17.3
   5   3   0     6.5     5.0
   5   3   1    26.2     3.6
   5   3   2   170.3     4.0
   5   3   3   108.0     4.1
   5   3   4    27.1     4.0
   5   3   5    52.3     4.2
   5   3   6    29.9     4.3
   5   3   7   107.0     4.7
   5   3   8   213.4     5.4
   5   3   9    28.7     5.0
   5   3  10    31.4     5.3
   5   3  11    15.2     5.6
   5   3  12    55.7     6.1
   5   3  13    51.9     6.5
   5   3  14    16.6     7.1
   5   3  15   123.9     8.2
   5   3  16    -2.8     8.9
   5   3  17     6.9    10.0
   5   3  18    68.1    11.4
   5   3  19    17.1    12.5
   5   3  20    14.3    14.4
   5   3  21    30.4    40.7
   5   4   0   150.5     5.9
   5   4   1   113.0     4.1
   5   4   2    16.7     4.1
   5   4   3    32.9     4.3
   5   4   4    34.9     4.6
   5   4   5    59.5     4.7
   5   4   6    22.2     4.7
   5   4   7    12.2     5.0
   5   4   8    47.4     5.3
   5   4   9     2.6     5.7
   5   4  10    47.9     6.0
   5   4  11    18.8     6.5
   5   4  12    28.3     7.2
   5   4  13    42.0     7.9
   5   4  14    -2.4     8.6
   5   4  15    19.6     9.7
   5   4  16    43.7    10.9
   5   4  17    27.0    12.9
   5   4  18    15.1    14.6
   5   4  19    32.0    17.2
   5   5   1    17.6     4.9
   5   5   2    69.8     5.5
   5   5   3     5.9     5.6
   5   5   4    39.9     5.9
   5   5   6    16.6     6.4
   5   5   7    75.6     6.6
   5   5   8    -0.3     6.7
   5   5   9   118.6     7.3
   5   5  11    -6.2     7.7
   5   5  12    38.8     8.5
   5   5  13    61.6     9.2
   5   5  14    97.3    10.1
   5   5  16    92.7    13.8
   5   5  17    80.3    15.5
   5   5  18    38.6    17.4
   5   6   0     6.2     8.6
   5   6   1    19.8     6.3
   5   6   2    -1.8     6.6
   5   6   3    14.4     7.1
   5   6   4     5.0     7.5
   5   6   5     9.5     7.9
   5   6   6    33.3     9.0
   5   6   7     7.4     9.1
   5   6   8    57.2     9.4
   5   6   9    42.4    10.0
   5   6  10    86.6    10.7
   5   6  11    28.6    11.4
   5   6  12    19.5    12.4
   5   6  13    15.5    13.0
   5   6  14    71.8    14.1
   5   6  15    -3.6    15.3
   5   6  16    31.4    17.0
   5   7   0   148.5    12.5
   5   7   1    25.4     8.7
   5   7   2    87.8     9.0
   5   7   3    30.9     9.7
   5   7   4    22.2    10.1
   5   7   5    45.8    10.7
   5   7   6     3.4    10.9
   5   7   7    83.1    11.5
   5   7   8    -4.1    12.4
   5   7   9    61.1    13.1
   5   7  10    16.3    13.6
   5   7  11    40.4    16.4
   5   7  12     4.0    17.6
   5   7  13    -0.3    19.3
   5   8   0    27.3    20.1
   5   8   1    45.7    14.4
   5   8   2    40.3    14.4
   5   8   3   -24.8    15.2
   5   8   4    36.3    16.0
   5   8   5    48.3    16.5
   5   8   6    12.3    17.0
   5   8   7   -19.5    16.8
   5   8   8    17.5    17.6
   6   0   1    75.6    10.3
   6   0   5     4.6     7.1
   6   0   7    32.6     7.6
   6   0  11     1.8    10.0
   6   0  13    -7.4    12.0
   6   0  17    46.8    18.8
   6   1   0    -2.9    14.8
   6   1   1    32.3     7.2
   6   1   2    31.4     5.8
   6   1   3    44.3     5.7
   6   1   4    20.5     5.7
   6   1   5    34.5     5.8
   6   1   6    38.0     5.8
   6   1   7    26.7     6.0
   6   1   8    15.2     6.2
   6   1   9    12.2     6.8
   6   1  10     1.4     7.2
   6   1  11    22.8     7.6
   6   1  12     4.4     8.2
   6   1  13     4.1     9.3
   6   1  14     9.5    10.2
   6   1  15    50.7    11.8
   6   1  16    25.2    13.0
   6   1  17    -2.8    14.9
   6   1  18    19.5    17.2
   6   2   1   101.3     7.8
   6   2   3    74.1     5.5
   6   2   5    12.3     5.5
   6   2   7    20.9     5.9
   6   2   9     7.4     6.7
   6   2  11    34.5     8.0
   6   2  13    48.6     9.6
   6   2  15     4.4    11.4
   6   2  17   -13.3    15.7
   6   3   1     6.9     8.1
   6   3   2   133.8     7.1
   6   3   4    45.8     6.3
   6   3   5    36.0     6.5
   6   3   7    16.1     6.9
   6   3   8    60.0     7.8
   6   3  10    50.6     8.5
   6   3  11     3.0     8.9
   6   3  13    51.8    10.3
   6   3  14    29.1    11.1
   6   3  16    32.1    13.5
   6   3  17    -4.0    15.4
   6   4   1    71.6     7.8
   6   4   3    29.1     7.7
   6   4   5    48.2     7.9
   6   4   7   158.0     9.0
   6   4   9    61.1     9.8
   6   4  11    26.9    10.9
   6   4  13    46.6    12.9
   6   4  15    28.8    15.5
   6   5   0    32.6    13.7
   6   5   1     7.9     9.4
   6   5   2    34.4     9.7
   6   5   3   149.7    10.2
   6   5   4    26.6     9.9
   6   5   5    32.3    10.0
   6   5   6    62.2    10.3
   6   5   7     8.3    10.3
   6   5   8    33.8    10.7
   6   5   9    12.8    11.0
   6   5  10    86.8    11.6
   6   5  11    56.5    12.8
   6   5  12     8.9    14.3
   6   5  13    43.2    15.5
   6   6   1    89.0    12.3
   6   6   5    26.7    14.7
   6   6   7    92.3    15.6
   6   7   0    48.1    21.7
   6   7   1    48.2    15.7
   6   7   2    23.5    16.4
   6   7   3    62.5    17.6
   6   7   4    56.4    18.1
   6   7   5    -3.3    18.8
   7   0   1    39.7    26.0
   7   0   2    16.1    21.4
   7   0   3    43.1    15.0
   7   0   4     4.2    13.7
   7   0   5    -5.3    13.7
   7   0   6    16.9    13.6
   7   0   8     3.4    14.4
   7   0   9    42.6    15.3
   7   0  10   -10.3    16.2
   7   0  11   -11.6    17.8
   7   0  12   -13.6    19.2
   7   0  13    10.4    20.9
   7   1   0    37.4    61.2
   7   1   1    -6.8    20.1
   7   1   2    19.3    14.8
   7   1   3    41.1    11.0
   7   1   4    37.0    10.1
   7   1   5    19.9    10.4
   7   1   6    31.9    11.5
   7   1   7    33.6    11.6
   7   1   8    -2.3    11.8
   7   1   9    -3.0    12.2
   7   1  10    26.6    13.1
   7   1  11    -2.8    14.2
   7   1  12    47.9    15.7
   7   1  13    -6.4    17.0
   7   2   0    27.2    27.3
   7   2   1    65.5    18.7
   7   2   2    49.1    14.2
   7   2   3    56.5    11.7
   7   2   4    30.3    10.4
   7   2   5    -0.8    10.7
   7   2   6    69.4    10.9
   7   2   7    13.4    11.0
   7   2   8     8.8    11.7
   7   2   9    -2.8    12.5
   7   2  10    47.3    13.7
   7   2  11    36.2    14.7
   7   2  12   -31.7    17.1
   7   3   0   -23.0    33.8
   7   3   1    13.8    21.0
   7   3   2    -4.6    16.1
   7   3   3    46.5    12.7
   7   3   4    28.0    12.0
   7   3   5    42.2    12.2
   7   3   6    44.4    12.2
   7   3   7   -12.6    12.6
   7   3   8    24.5    13.1
   7   3   9    -1.0    13.5
   7   3  10    18.4    14.2
   7   3  11    39.0    14.9
   7   4   0    55.0    37.7
   7   4   1    57.2    20.1
   7   4   2    39.9    16.9
   7   4   3   146.3    15.9
   7   4   4    16.0    16.2
   7   4   5    16.7    16.6
   7   4   6    83.8    17.0
   7   4   7    38.6    17.1
   7   4   8    11.7    18.0
   7   5   0    32.6    37.0
   7   5   1     2.3    22.8
   7   5   2    55.7    20.5
   7   5   3    81.4    20.0
   7   5   4    -7.6    19.4
;
_shelx_hkl_checksum              72942
_olex2_submission_special_instructions 'No special instructions were received'
loop_
_space_group_symop_operation_xyz
'x, y, z'
'-x+1/2, -y, z+1/2'
'-x, y+1/2, -z+1/2'
'x+1/2, -y+1/2, -z'
loop_
_atom_site_label
_atom_site_type_symbol
_atom_site_fract_x
_atom_site_fract_y
_atom_site_fract_z
_atom_site_U_iso_or_equiv
_atom_site_adp_type
_atom_site_occupancy
_atom_site_site_symmetry_order
_atom_site_calc_flag
_atom_site_refinement_flags_posn
_atom_site_refinement_flags_adp
_atom_site_refinement_flags_occupancy
_atom_site_disorder_assembly
_atom_site_disorder_group
O2 O 0.3241(6) 0.5093(4) 0.24197(18) 0.0374(8) Uani 1 1 d . . . . .
O1 O 0.7255(6) 0.5056(5) 0.1988(2) 0.0399(8) Uani 1 1 d . . . . .
N1 N 0.9129(4) 0.3213(2) 0.31058(13) 0.0274(4) Uani 1 1 d . . . . .
H1B H 1.0310(11) 0.3850(8) 0.2762(4) 0.0461(14) Uani 1 1 d . . . . .
H1C H 0.8690(11) 0.1909(8) 0.2926(3) 0.0450(14) Uani 1 1 d . . . . .
H1A H 1.0058(9) 0.3154(8) 0.3593(3) 0.0406(13) Uani 1 1 d . . . . .
N3 N 0.8748(3) 0.4997(3) 0.55358(12) 0.0322(4) Uani 1 1 d . . . . .
H3 H 0.8527(11) 0.4994(8) 0.6087(4) 0.0483(14) Uani 1 1 d . . . . .
N2 N 1.0323(3) 0.4398(2) 0.44699(11) 0.0334(5) Uani 1 1 d . . . . .
C4 C 0.8077(5) 0.5400(3) 0.43942(14) 0.0265(5) Uani 1 1 d . . . . .
C1 C 0.5626(5) 0.4821(3) 0.24611(13) 0.0258(6) Uani 1 1 d . . . . .
C2 C 0.6649(4) 0.4240(3) 0.31964(13) 0.0229(5) Uani 1 1 d . . . . .
H2 H 0.5241(9) 0.3313(8) 0.3445(3) 0.0407(13) Uani 1 1 d . . . . .
C6 C 0.7065(5) 0.5766(4) 0.50536(15) 0.0329(7) Uani 1 1 d . . . . .
H6 H 0.5344(12) 0.6503(10) 0.5214(4) 0.0586(17) Uani 1 1 d . . . . .
C5 C 1.0649(5) 0.4188(4) 0.51627(16) 0.0341(6) Uani 1 1 d . . . . .
H5 H 1.2206(13) 0.3431(10) 0.5413(4) 0.0606(18) Uani 1 1 d . . . . .
C3 C 0.7079(6) 0.5905(3) 0.36726(15) 0.0311(6) Uani 1 1 d . . . . .
H3A H 0.8392(15) 0.6853(9) 0.3410(4) 0.0595(19) Uani 1 1 d . . . . .
H3B H 0.5253(13) 0.6609(9) 0.3727(4) 0.0627(19) Uani 1 1 d . . . . .
loop_
_atom_site_aniso_label
_atom_site_aniso_U_11
_atom_site_aniso_U_22
_atom_site_aniso_U_33
_atom_site_aniso_U_23
_atom_site_aniso_U_13
_atom_site_aniso_U_12
O2 0.0230(14) 0.0439(19) 0.045(2) 0.0150(16) -0.0064(12) 0.0002(13)
O1 0.0304(14) 0.063(2) 0.027(2) 0.0094(16) -0.0001(11) -0.0015(14)
N1 0.0278(9) 0.0278(9) 0.0266(14) -0.0019(9) -0.0012(9) 0.0061(7)
H1B 0.044(3) 0.051(3) 0.044(4) 0.001(3) 0.005(3) 0.011(3)
H1C 0.052(3) 0.037(3) 0.046(4) -0.006(3) -0.006(3) 0.004(2)
H1A 0.033(3) 0.055(3) 0.034(4) 0.001(3) 0.001(2) 0.013(2)
N3 0.0383(10) 0.0378(10) 0.0205(13) -0.0017(9) -0.0002(7) -0.0013(8)
H3 0.060(4) 0.055(3) 0.030(4) 0.001(3) -0.005(3) -0.003(3)
N2 0.0315(9) 0.0418(11) 0.0270(13) 0.0010(9) -0.0007(8) 0.0077(7)
C4 0.0328(11) 0.0250(12) 0.0217(16) -0.0027(11) -0.0026(10) 0.0009(9)
C1 0.0235(11) 0.0296(12) 0.0242(17) 0.0027(11) -0.0013(9) 0.0007(10)
C2 0.0244(11) 0.0242(11) 0.0202(15) 0.0028(9) 0.0020(9) 0.0011(9)
H2 0.031(2) 0.053(3) 0.039(4) 0.007(3) 0.005(2) -0.011(2)
C6 0.0330(13) 0.0395(15) 0.0262(18) -0.0054(12) 0.0022(11) 0.0055(12)
H6 0.050(3) 0.075(4) 0.051(4) -0.007(3) 0.007(3) 0.026(3)
C5 0.0343(13) 0.0453(16) 0.0226(17) 0.0002(13) -0.0041(12) 0.0068(13)
H5 0.058(4) 0.077(4) 0.047(5) 0.006(3) -0.019(3) 0.022(3)
C3 0.0452(15) 0.0224(12) 0.0257(18) -0.0015(11) -0.0072(12) 0.0073(11)
H3A 0.093(5) 0.047(3) 0.038(4) 0.010(3) -0.010(4) -0.022(4)
H3B 0.069(5) 0.065(4) 0.054(5) -0.017(3) -0.008(4) 0.028(3)
loop_
_atom_type_symbol
_atom_type_description
_atom_type_scat_dispersion_real
_atom_type_scat_dispersion_imag
_atom_type_scat_source
C C 0.0000 0.0000
'Neutron Data Booklet, ILL Grenoble, France (2003) ISBN 0-9704143-7-4'
H H 0.0000 0.0000
'Neutron Data Booklet, ILL Grenoble, France (2003) ISBN 0-9704143-7-4'
N N 0.0000 0.0000
'Neutron Data Booklet, ILL Grenoble, France (2003) ISBN 0-9704143-7-4'
O O 0.0000 0.0000
'Neutron Data Booklet, ILL Grenoble, France (2003) ISBN 0-9704143-7-4'
loop_
_geom_angle_atom_site_label_1
_geom_angle_atom_site_label_2
_geom_angle_atom_site_label_3
_geom_angle
_geom_angle_site_symmetry_1
_geom_angle_site_symmetry_3
_geom_angle_publ_flag
C4 N2 C5 105.7(2) . . ?
O1 C1 C2 116.8(3) . . ?
N1 C2 C3 110.15(19) . . ?
N2 C4 C3 120.9(2) . . ?
N2 C5 N3 111.7(2) . . ?
C2 N1 H1A 108.5(3) . . ?
C5 N3 H3 126.7(4) . . ?
C1 C2 H2 109.0(3) . . ?
C2 C3 H3B 108.1(4) . . ?
N3 C6 H6 122.6(5) . . ?
C5 N3 C6 107.3(2) . . ?
O2 C1 C2 116.0(2) . . ?
C1 C2 C3 110.76(19) . . ?
N2 C4 C6 109.3(2) . . ?
N3 C6 C4 106.0(2) . . ?
C2 N1 H1B 111.0(4) . . ?
C6 N3 H3 125.9(4) . . ?
C3 C2 H2 109.9(4) . . ?
C4 C3 H3A 110.8(5) . . ?
N2 C5 H5 125.6(5) . . ?
C4 C6 H6 131.4(5) . . ?
O1 C1 O2 127.1(3) . . ?
N1 C2 C1 109.3(2) . . ?
C2 C3 C4 112.51(19) . . ?
C3 C4 C6 129.8(2) . . ?
C2 N1 H1C 108.3(4) . . ?
N1 C2 H2 107.6(3) . . ?
C2 C3 H3A 109.5(4) . . ?
C4 C3 H3B 109.4(5) . . ?
N3 C5 H5 122.7(5) . . ?
H1A N1 H1B 108.0(5) . . ?
H3A C3 H3B 106.3(6) . . ?
H1A N1 H1C 110.5(5) . . ?
H1B N1 H1C 110.6(5) . . ?
loop_
_geom_bond_atom_site_label_1
_geom_bond_atom_site_label_2
_geom_bond_distance
_geom_bond_site_symmetry_2
_geom_bond_publ_flag
O1 C1 1.238(4) . ?
N2 C5 1.325(4) . ?
C2 C3 1.532(3) . ?
N1 H1A 1.037(6) . ?
C2 H2 1.101(6) . ?
C6 H6 1.084(7) . ?
O2 C1 1.251(4) . ?
N3 C5 1.346(3) . ?
C3 C4 1.500(4) . ?
N1 H1B 1.005(7) . ?
C3 H3A 1.091(8) . ?
N1 C2 1.497(3) . ?
N3 C6 1.379(3) . ?
C4 C6 1.374(4) . ?
N1 H1C 1.041(6) . ?
C3 H3B 1.081(7) . ?
N2 C4 1.382(3) . ?
C1 C2 1.542(3) . ?
N3 H3 1.044(8) . ?
C5 H5 1.086(8) . ?
loop_
_geom_torsion_atom_site_label_1
_geom_torsion_atom_site_label_2
_geom_torsion_atom_site_label_3
_geom_torsion_atom_site_label_4
_geom_torsion
_geom_torsion_site_symmetry_1
_geom_torsion_site_symmetry_2
_geom_torsion_site_symmetry_3
_geom_torsion_site_symmetry_4
_geom_torsion_publ_flag
C5 N2 C4 C3 -179.9(2) . . . . ?
C6 N3 C5 N2 0.6(3) . . . . ?
O1 C1 C2 C3 93.5(3) . . . . ?
N1 C2 C3 C4 -58.9(3) . . . . ?
C2 C3 C4 C6 -122.8(3) . . . . ?
H1A N1 C2 C1 164.0(4) . . . . ?
H1B N1 C2 C1 45.5(5) . . . . ?
H1C N1 C2 C1 -76.0(4) . . . . ?
C4 N2 C5 H5 178.2(5) . . . . ?
H3 N3 C5 H5 -0.5(7) . . . . ?
H3 N3 C6 H6 2.4(7) . . . . ?
C5 N2 C4 C6 -0.5(3) . . . . ?
C5 N3 C6 C4 -0.9(3) . . . . ?
O2 C1 C2 N1 155.5(2) . . . . ?
C1 C2 C3 C4 -180.0(2) . . . . ?
N2 C4 C6 N3 0.9(3) . . . . ?
H1A N1 C2 C3 42.1(4) . . . . ?
H1B N1 C2 C3 -76.4(5) . . . . ?
H1C N1 C2 C3 162.1(4) . . . . ?
C6 N3 C5 H5 -177.7(5) . . . . ?
C5 N3 C6 H6 179.7(5) . . . . ?
O1 C1 C2 H2 -145.4(4) . . . . ?
C4 N2 C5 N3 -0.1(3) . . . . ?
O1 C1 C2 N1 -28.0(3) . . . . ?
O2 C1 C2 C3 -83.0(3) . . . . ?
C2 C3 C4 N2 56.3(3) . . . . ?
C3 C4 C6 N3 -179.9(2) . . . . ?
H1A N1 C2 H2 -77.7(5) . . . . ?
H1B N1 C2 H2 163.8(6) . . . . ?
H1C N1 C2 H2 42.3(5) . . . . ?
H3 N3 C5 N2 177.9(4) . . . . ?
H3 N3 C6 C4 -178.2(5) . . . . ?
O2 C1 C2 H2 38.1(4) . . . . ?
N1 C2 C3 H3A 64.7(5) . . . . ?
C1 C2 C3 H3B 59.1(5) . . . . ?
H2 C2 C3 H3B -61.4(6) . . . . ?
H3B C3 C4 N2 176.5(4) . . . . ?
C3 C4 C6 H6 -0.6(7) . . . . ?
N1 C2 C3 H3B -179.9(5) . . . . ?
H2 C2 C3 C4 59.5(4) . . . . ?
H3A C3 C4 N2 -66.6(5) . . . . ?
H3B C3 C4 C6 -2.7(5) . . . . ?
C1 C2 C3 H3A -56.3(5) . . . . ?
H2 C2 C3 H3A -176.9(5) . . . . ?
H3A C3 C4 C6 114.2(5) . . . . ?
N2 C4 C6 H6 -179.8(6) . . . . ?

_cod_database_fobs_code 2108881
