#------------------------------------------------------------------------------
#$Date: 2019-05-18 08:14:21 +0300 (Sat, 18 May 2019) $
#$Revision: 215299 $
#$URL: file:///home/coder/svn-repositories/cod/cif/2/10/83/2108396.cif $
#------------------------------------------------------------------------------
#
# This file is available in the Crystallography Open Database (COD),
# http://www.crystallography.net/. The original data for this entry
# were provided by IUCr Journals, http://journals.iucr.org/.
#
# The file may be used within the scientific community so long as
# proper attribution is given to the journal article from which the
# data were obtained.
#
data_2108396
loop_
_publ_author_name
'Tcho\'n, Daniel'
'Makal, Anna'
_publ_section_title
;
 Structure and piezochromism of pyrene-1-carbaldehyde at high pressure
;
_journal_issue                   3
_journal_name_full               'Acta Crystallographica Section B'
_journal_page_first
;
;
_journal_paper_doi               10.1107/S2052520619003354
_journal_volume                  75
_journal_year                    2019
_chemical_formula_moiety         'C17 H10 O'
_chemical_formula_sum            'C17 H10 O'
_chemical_formula_weight         230.25
_space_group_crystal_system      triclinic
_space_group_IT_number           2
_space_group_name_Hall           '-P 1'
_space_group_name_H-M_alt        'P -1'
_symmetry_space_group_name_Hall  '-P 1'
_symmetry_space_group_name_H-M   'P -1'
_atom_sites_solution_hydrogens   geom
_audit_creation_date             2018-06-25
_audit_creation_method
;
Olex2 1.2
(compiled May 29 2018 13:30:08 for OlexSys, GUI svn.r5506)
;
_cell_angle_alpha                109.649(18)
_cell_angle_beta                 99.384(16)
_cell_angle_gamma                100.652(11)
_cell_formula_units_Z            2
_cell_length_a                   6.6950(8)
_cell_length_b                   8.1846(11)
_cell_length_c                   10.306(2)
_cell_measurement_reflns_used    1136
_cell_measurement_temperature    293(2)
_cell_measurement_theta_max      21.6970
_cell_measurement_theta_min      1.8700
_cell_volume                     506.97(16)
_computing_cell_refinement
'CrysAlisPro, Agilent Technologies, Version 1.171.37.34 (release 22-05-2014 CrysAlis171 .NET) (compiled May 22 2014,16:03:01)'
_computing_data_collection
'CrysAlisPro, Agilent Technologies, Version 1.171.37.34 (release 22-05-2014 CrysAlis171 .NET) (compiled May 22 2014,16:03:01)'
_computing_data_reduction
'CrysAlisPro, Agilent Technologies, Version 1.171.37.34 (release 22-05-2014 CrysAlis171 .NET) (compiled May 22 2014,16:03:01)'
_computing_molecular_graphics    'Olex2 (Dolomanov et al., 2009)'
_computing_publication_material  'Olex2 (Dolomanov et al., 2009)'
_computing_structure_refinement  'ShelXL (Sheldrick, 2015)'
_diffrn_ambient_temperature      293(2)
_diffrn_detector                 'CCD plate'
_diffrn_measured_fraction_theta_full 0.555
_diffrn_measured_fraction_theta_max 0.381
_diffrn_measurement_details
'#__ type_ start__ end____ width___ exp.time_ 1 omega -150.00 -94.00 0.2000 0.1970 omega____ theta____ kappa____ phi______ frames - -20.0000 70.0000 -24.2319 280 #__ type_ start__ end____ width___ exp.time_ 2 omega -150.00 -94.00 0.2000 0.1970 omega____ theta____ kappa____ phi______ frames - -20.0000 70.0000 155.7681 280 #__ type_ start__ end____ width___ exp.time_ 3 omega -105.00 -76.80 0.2000 0.1970 omega____ theta____ kappa____ phi______ frames - 20.0000 70.0000 155.7700 141 #__ type_ start__ end____ width___ exp.time_ 4 omega -105.00 -74.80 0.2000 0.1970 omega____ theta____ kappa____ phi______ frames - 20.0000 70.0000 -24.2300 151 #__ type_ start__ end____ width___ exp.time_ 5 omega -96.00 -30.00 0.2000 0.1970 omega____ theta____ kappa____ phi______ frames - 20.0000 -70.0000 24.2300 330 #__ type_ start__ end____ width___ exp.time_ 6 omega -103.40 -66.00 0.2000 0.1970 omega____ theta____ kappa____ phi______ frames - -20.0000 -70.0000 -155.7700 187 #__ type_ start__ end____ width___ exp.time_ 7 omega -103.40 -66.00 0.2000 0.1970 omega____ theta____ kappa____ phi______ frames - -20.0000 -70.0000 24.2300 187 #__ type_ start__ end____ width___ exp.time_ 8 omega -96.00 -30.00 0.2000 0.1970 omega____ theta____ kappa____ phi______ frames - 20.0000 -70.0000 -155.7700 330'
_diffrn_measurement_device       'abstract diffractometer'
_diffrn_measurement_device_type
'dectris-CrysAlisPro-abstract goniometer imported dectris images'
_diffrn_measurement_method       '\w scans'
_diffrn_orient_matrix_UB_11      -0.0124369000
_diffrn_orient_matrix_UB_12      -0.0253377000
_diffrn_orient_matrix_UB_13      -0.0514228000
_diffrn_orient_matrix_UB_21      0.0702916000
_diffrn_orient_matrix_UB_22      0.0327455000
_diffrn_orient_matrix_UB_23      0.0034380000
_diffrn_orient_matrix_UB_31      0.0264840000
_diffrn_orient_matrix_UB_32      -0.0504261000
_diffrn_orient_matrix_UB_33      0.0028339000
_diffrn_radiation_monochromator  synchrotron
_diffrn_radiation_probe          x-ray
_diffrn_radiation_type           synchrotron
_diffrn_radiation_wavelength     0.4859
_diffrn_reflns_av_R_equivalents  0.0929
_diffrn_reflns_av_unetI/netI     0.0187
_diffrn_reflns_Laue_measured_fraction_full 0.555
_diffrn_reflns_Laue_measured_fraction_max 0.381
_diffrn_reflns_limit_h_max       10
_diffrn_reflns_limit_h_min       -10
_diffrn_reflns_limit_k_max       12
_diffrn_reflns_limit_k_min       -12
_diffrn_reflns_limit_l_max       15
_diffrn_reflns_limit_l_min       -15
_diffrn_reflns_number            1830
_diffrn_reflns_point_group_measured_fraction_full 0.555
_diffrn_reflns_point_group_measured_fraction_max 0.381
_diffrn_reflns_theta_full        16.950
_diffrn_reflns_theta_max         22.708
_diffrn_reflns_theta_min         1.869
_diffrn_source                   synchrotron
_exptl_absorpt_coefficient_mu    0.048
_exptl_absorpt_correction_T_max  1.00000
_exptl_absorpt_correction_T_min  0.21550
_exptl_absorpt_correction_type   multi-scan
_exptl_absorpt_process_details
'CrysAlisPro, Agilent Technologies, Version 1.171.37.34 (release 22-05-2014 CrysAlis171 .NET) (compiled May 22 2014,16:03:01) Empirical absorption correction using spherical harmonics, implemented in SCALE3 ABSPACK scaling algorithm.'
_exptl_crystal_density_diffrn    1.508
_exptl_crystal_description
;
;
_exptl_crystal_F_000             240
_refine_diff_density_max         0.551
_refine_diff_density_min         -0.388
_refine_diff_density_rms         0.102
_refine_ls_extinction_method     none
_refine_ls_goodness_of_fit_ref   1.088
_refine_ls_hydrogen_treatment    constr
_refine_ls_matrix_type           full
_refine_ls_number_parameters     164
_refine_ls_number_reflns         1830
_refine_ls_number_restraints     0
_refine_ls_restrained_S_all      1.088
_refine_ls_R_factor_all          0.1330
_refine_ls_R_factor_gt           0.0947
_refine_ls_shift/su_max          0.000
_refine_ls_shift/su_mean         0.000
_refine_ls_structure_factor_coef Fsqd
_refine_ls_weighting_details
'w=1/[\s^2^(Fo^2^)+(0.1271P)^2^+0.3938P] where P=(Fo^2^+2Fc^2^)/3'
_refine_ls_weighting_scheme      calc
_refine_ls_wR_factor_gt          0.2525
_refine_ls_wR_factor_ref         0.2823
_reflns_Friedel_coverage         0.000
_reflns_number_gt                1190
_reflns_number_total             1830
_reflns_threshold_expression     'I > 2\s(I)'
_cod_data_source_file            xk5054sup1.cif
_cod_data_source_block           10kbar
_cod_original_cell_volume        506.95(16)
_cod_database_code               2108396
_shelx_shelxl_version_number     2016/6
_chemical_oxdiff_formula         'C17 H10 O1'
_shelx_space_group_comment
;
The symmetry employed for this shelxl refinement is uniquely defined
by the following loop, which should always be used as a source of
symmetry information in preference to the above space-group names.
They are only intended as comments.
;
_diffrn_oxdiff_twin_integration_method simultaneous
_olex2_refinement_description
;
1. Twinned data refinement
 Scales: 0.788(4)
 0.212(4)
2. Fixed Uiso
 At 1.2 times of:
  All C(H) groups
3.a Aromatic/amide H refined with riding coordinates:
 C4(H4), C11(H11), C13(H13), C3(H3), C14(H14), C10(H10), C6(H6), C17(H17),
 C8(H8), C7(H7)
;
_shelx_res_file
;
TITL 3d_twin1_hklf4_a.res in P-1
    3d_twin1_hklf4.res
    created by SHELXL-2016/6 at 18:39:41 on 25-Jun-2018
REM Old TITL 3d_twin1_hklf4 in P-1
REM SHELXT solution in P-1
REM R1 0.357, Rweak 0.005, Alpha 0.149, Orientation as input
REM Formula found by SHELXT: C17 O
CELL 0.4859 6.695 8.1846 10.3057 109.649 99.384 100.652
ZERR 2 0.0008 0.0011 0.0024 0.018 0.016 0.011
LATT 1
SFAC C H O
DISP C 0.001 0.001 6.068
DISP H -0 0 0.607
DISP O 0.004 0.003 13.336
UNIT 34 20 2

L.S. 10
PLAN  20
BOND $H
list 4
fmap 2
ACTA
OMIT 3 -6 2
OMIT 9 -4 -3
REM <olex2.extras>
REM <HklSrc "%./3d_twin1_hklf5.hkl">
REM </olex2.extras>

WGHT    0.127100    0.393800
BASF   0.21169
FVAR       8.78270
C2    1    0.711456    0.344745    0.447727    11.00000    0.01644    0.01777 =
         0.01637    0.00459    0.00203    0.00454
C12   1    0.799764    0.669910    0.496294    11.00000    0.02281    0.01810 =
         0.01613    0.00702    0.00405    0.00705
C15   1    0.756636    0.523504    0.544159    11.00000    0.01962    0.01610 =
         0.01433    0.00607    0.00434    0.00609
C5    1    0.721413    0.422541    0.740915    11.00000    0.02523    0.02331 =
         0.02894    0.01633    0.00689    0.00746
C9    1    0.805711    0.744567    0.785746    11.00000    0.02415    0.02169 =
         0.01262    0.00548    0.00437    0.00676
C4    1    0.679266    0.242541    0.640891    11.00000    0.02957    0.01604 =
         0.02217    0.00993    0.00775    0.00554
AFIX  43
H4    2    0.655284    0.148997    0.673094    11.00000   -1.20000
AFIX   0
C11   1    0.845681    0.849636    0.596201    11.00000    0.02859    0.01925 =
         0.03889    0.01853    0.01098    0.00888
AFIX  43
H11   2    0.874676    0.943681    0.565017    11.00000   -1.20000
AFIX   0
O1    3    0.593089   -0.014929    0.194262    11.00000    0.07236    0.02461 =
         0.05287    0.00484    0.03067    0.00489
C16   1    0.764533    0.566148    0.691381    11.00000    0.01898    0.01891 =
         0.02242    0.00951    0.00446    0.00474
C13   1    0.793221    0.630421    0.353089    11.00000    0.02987    0.02514 =
         0.02457    0.01422    0.00953    0.00951
AFIX  43
H13   2    0.819398    0.723898    0.320999    11.00000   -1.20000
AFIX   0
C3    1    0.672688    0.202110    0.501385    11.00000    0.02848    0.01923 =
         0.02722    0.01223    0.01211    0.00770
AFIX  43
H3    2    0.643312    0.082879    0.439925    11.00000   -1.20000
AFIX   0
C14   1    0.748568    0.454927    0.257368    11.00000    0.03201    0.03243 =
         0.01368    0.01250    0.01138    0.00956
AFIX  43
H14   2    0.748355    0.432819    0.162721    11.00000   -1.20000
AFIX   0
C1    1    0.703200    0.308487    0.301235    11.00000    0.02657    0.02337 =
         0.00614    0.00385    0.00952    0.01003
C10   1    0.848477    0.887679    0.733653    11.00000    0.03148    0.01645 =
         0.02048    0.00626    0.00513    0.00604
AFIX  43
H10   2    0.878044    1.006606    0.795782    11.00000   -1.20000
AFIX   0
C6    1    0.723477    0.463128    0.882327    11.00000    0.04850    0.03352 =
         0.01544    0.01856    0.00680    0.00916
AFIX  43
H6    2    0.699537    0.370743    0.915787    11.00000   -1.20000
AFIX   0
C17   1    0.649948    0.133717    0.189423    11.00000    0.03881    0.03495 =
         0.02479    0.01268    0.01797    0.01271
AFIX  43
H17   2    0.660150    0.133457    0.100434    11.00000   -1.20000
AFIX   0
C8    1    0.803477    0.781144    0.927751    11.00000    0.03846    0.02380 =
         0.02360    0.00357    0.00934    0.01044
AFIX  43
H8    2    0.830323    0.899307    0.990807    11.00000   -1.20000
AFIX   0
C7    1    0.760699    0.639613    0.975639    11.00000    0.05540    0.04079 =
         0.01748    0.01605    0.01351    0.01278
AFIX  43
H7    2    0.757314    0.664228    1.070054    11.00000   -1.20000
AFIX   0
HKLF 5




REM  3d_twin1_hklf4_a.res in P-1
REM R1 =  0.0947 for    1190 Fo > 4sig(Fo)  and  0.1330 for all    1830 data
REM    164 parameters refined using      0 restraints

END

WGHT      0.1271      0.3937

REM Highest difference peak  0.551,  deepest hole -0.388,  1-sigma level  0.102
Q1    1   0.7499  0.5457  0.4814  11.00000  0.05    0.55
Q2    1   0.6831  0.3226  0.2195  11.00000  0.05    0.44
Q3    1   0.7078  0.2850  0.1329  11.00000  0.05    0.44
Q4    1   0.6437  0.1842  0.3345  11.00000  0.05    0.43
Q5    1   0.7307  0.5031  0.4052  11.00000  0.05    0.39
Q6    1   0.8231  0.6491  0.5763  11.00000  0.05    0.39
Q7    1   0.8412  0.8321  0.4761  11.00000  0.05    0.38
Q8    1   0.7527  0.4269  0.3214  11.00000  0.05    0.38
Q9    1   0.6413  0.2374  0.4257  11.00000  0.05    0.38
Q10   1   0.8319  0.6833  0.3156  11.00000  0.05    0.37
Q11   1   0.7058  0.4635  0.6808  11.00000  0.05    0.37
Q12   1   0.8785  0.8472  0.7988  11.00000  0.05    0.36
Q13   1   0.8264  0.7241  0.4615  11.00000  0.05    0.36
Q14   1   0.7069  0.3056  0.4968  11.00000  0.05    0.36
Q15   1   0.7456  0.6629  0.9166  11.00000  0.05    0.35
Q16   1   0.7270  0.6927  0.4946  11.00000  0.05    0.34
Q17   1   0.6951  0.4131  0.5969  11.00000  0.05    0.34
Q18   1   0.7879  0.6482  0.3077  11.00000  0.05    0.34
Q19   1   0.6346  0.0912  0.2410  11.00000  0.05    0.34
Q20   1   0.7514  0.5158  0.7343  11.00000  0.05    0.34
;
_shelx_res_checksum              70789
_shelx_hkl_file
;
   0  -1   1 125889. 114.090   1
   0   1   0 80868.7 94.5796   1
   0  -2   2 23174.0 72.2144   1
   0  -2   1 68743.6 100.279   1
   0  -2   0 658.149 12.6646   1
   0   3  -3 3217.08 49.3973   1
   0   3  -2 27357.6 57.8954   1
   0  -3   1 1477.43 16.1056   1
   0  -3   0 72.3562 22.7405   1
   0  -4   4 109.250 24.3919   1
   0  -4   3 20155.9 60.9067   1
   0   4  -2 3743.62 16.4191   1
   0  -4   1 758.541 18.3227   1
   0  -4   0 16.1154 19.1909   1
   0  -5   5 3945.57 61.1870   1
   0  -5   4 1229.46 23.7931   1
   0   5  -3 3079.96 24.6625   1
   0  -5   2 51.4297 10.1858   1
   0  -5   1 21.0449 18.6977   1
   0  -5   0 528.146 29.5614   1
   0  -6   6 1646.40 78.5794   1
   0  -6   5 748.002 42.3036   1
   0  -6   4 1581.42 42.5882   1
   0  -6   3 28.8896 25.4997   1
   0   6  -2 43985.7 130.150   1
   0  -6   1 35425.1 145.597   1
   0  -6   0 1697.31 46.6876   1
   0  -7   6 4335.78 78.1211   1
   0  -7   5 1394.21 52.4856   1
   0  -7   4 842.315 45.5396   1
   0  -7   3 1719.82 41.0184   1
   0   7  -2 81172.6 194.847   1
   0  -7   1 544.658 43.6825   1
   0  -8   7 5741.04 108.128   1
   0   8  -4 1829.76 105.888   1
   0   8  -1-27.9831 54.0617   1
   0   9  -7 218.071 65.8364   1
   0   9  -6 52.2621 59.7925   1
   0   9  -5 1536.72 54.7642   1
   0  -9   4 368.010 47.3201   1
   0  -9   3 667.397 46.3600   1
   0   9  -2 69.2171 45.9906   1
   0  -9   1 356.311 65.7743   1
   0 -10   8 122.715 80.0016   1
   0 -10   7 71.0921 76.7855   1
   0 -10   6-31.7372 57.6113   1
   0 -10   5 6311.94 88.7443   1
   0 -10   4 6485.96 87.2131   1
   0  10  -3 86.2465 56.2879   1
   0  10  -2-4.11307 75.8223   1
   0 -11   8 306.622 144.484   1
   0  11  -7 128.164 69.6452   1
   0 -11   6 70.2673 66.0652   1
   0 -11   5 615.960 66.7946   1
   0  11  -4 1154.73 79.7399   1
  -9   0   5 1084.64 187.348  -2
   0 -11   4 1084.64 187.348   1
   0 -11   3 153.271 67.6360   1
   0 -11   2 92.5424 97.7571   1
   0  12  -8 303.634 158.141   1
   0 -12   7 222.332 102.969   1
   0  12  -6 88.0748 76.9344   1
   0  12  -5 294.682 80.0104   1
   0 -12   4 747.046 102.826   1
   1 -12   3 873.427 81.7437   1
  -1  12  -4 31.4959 74.6500   1
  -1  12  -5 183.546 69.7020   1
  -1  12  -6 33.1785 73.1001   1
   1 -12   7 267.827 78.1271   1
  -1  12  -8-16.9686 83.9323   1
  -1  11  -2 783.641 68.2239   1
   1 -11   3 393.442 63.4818   1
  -1  11  -4 77.0235 60.3741   1
  -1  11  -5 1296.78 67.5089   1
  -1  11  -6 544.589 67.1751   1
   1 -11   7 90.8064 67.2019   1
  -1  11  -8 182.297 94.0120   1
  -1  10  -2 197.436 53.2610   1
  -1  10  -3 28.5747 51.1192   1
   1 -10   4 259.832 50.5063   1
  -1  10  -5 7306.08 89.3010   1
  -1  10  -6 517.474 58.1715   1
   1 -10   7 103.214 73.6674   1
   1 -10   8 106.685 99.2358   1
   1  -9   1 441.649 58.0370   1
   1  -9   2-26.4322 41.6956   1
  -1   9  -3 353.940 42.7832   1
   1  -9   4 107.665 41.9970   1
  -1   9  -5 144.328 43.5269   1
   1  -9   6 115.439 56.7613   1
   1  -9   7 75.6205 63.5689   1
   1  -8   1 1211.90 104.049   1
   1  -8   2 61.4036 37.6500   1
  -1   8  -3 7.41792 33.3510   1
  -1   8  -4 2817.92 53.7931   1
   1  -8   5 1123.07 58.1973   1
  -1   8  -6 1111.57 82.4548   1
   1  -7   0 1664.20 93.0870   1
  -1   7  -1 11540.6 93.4191   1
   1  -7   2 35064.0 125.353   1
   1  -7   3 374.589 31.1653   1
  -1   7  -4 2136.48 51.3027   1
  -1   7  -5 220.507 40.5911   1
   1  -7   6 4613.27 79.2306   1
   1  -6   0 176.868 33.5418   1
   1  -6   1 43512.7 151.340   1
  -1   6  -2 39.0326 18.2745   1
  -1   6  -3 41.3495 17.5490   1
   1  -6   4 3054.77 51.1118   1
   1  -6   5 151.530 25.3398   1
   1  -5   0 7857.59 63.2240   1
   1  -5   1 2742.58 30.7242   1
  -1   5  -2 1255.95 14.9578   1
  -1   5  -3 1181.54 15.7846   1
   1  -5   4 15482.7 92.8117   1
   1  -4   0 29.9329 15.4463   1
   1  -4   1 152.191 11.4667   1
  -1   4  -2 2305.33 17.8071   1
   1  -4   3 87858.3 113.372   1
   1  -4   4 24150.0 162.808   1
   1  -3   0 632.878 13.9977   1
   1  -3   1 20.7664 6.32942   1
   1  -3   2 405.815 9.14100   1
   1  -3   3 56095.8 216.542   1
  -1   2   0 2364.97 16.2098   1
   1  -2   1 265.448 6.55634   1
  -1   2  -2 11674.2 98.9039   1
   1  -1   0 313.165 7.59504   1
   1  -1   1 47054.1 91.0945   1
  -1   0   0 4518.67 22.2721   1
   1   1  -1 22373.4 50.4529   1
   1   1   0 13022.0 49.7592   1
  -1  -2   2 1028.19 17.4861   1
  -1  -2   1 7863.76 39.9936   1
  -1  -2   0 4895.53 33.2581   1
   1   3   0 4842.74 51.7144   1
  -1  -4   4 33610.5 129.239   1
  -1  -4   3 33626.5 114.973   1
  -1  -4   2 5140.35 40.1874   1
  -1  -4   1 893.220 25.9822   1
  -1  -4   0 12995.6 76.8797   1
  -1  -5   5 21.9707 31.0398   1
   1   5  -4 179.985 27.3694   1
  -1  -5   3 9865.28 71.0580   1
   1   5  -2 2677.51 35.6048   1
   1   5  -1 6093.44 59.6874   1
   1   5   0-0.31260 27.5537   1
   1   6  -6 264.527 41.7195   1
   1   6  -5 1651.43 49.9062   1
  -1  -6   4 376.500 36.4882   1
   1   6  -3 3256.85 45.2970   1
   1   6  -2 21898.1 97.2649   1
   1   6  -1 59918.1 196.651   1
  -1  -7   7 144.177 162.525   1
  -1  -7   6 6286.67 88.0169   1
  -1  -7   5 3636.90 67.8442   1
  -1  -7   4 91.0561 34.0764   1
   1   7  -3 868.434 37.6762   1
  -1  -7   2 6563.65 65.5589   1
   1   7  -1 167.366 43.7764   1
  -1  -8   7 160.559 59.7810   1
   1   8  -6 130.637 54.1131   1
   1   8  -5 8.91552 57.2299   1
   1   8  -4 703.815 62.1290   1
   1   8  -3 1448.09 52.5398   1
  -1  -8   2 168.075 41.8678   1
   1   8  -1 699.723 58.1292   1
  -1  -9   8 81.5931 69.4584   1
   1   9  -7 177.576 71.3521   1
  -1  -9   6-1.03501 64.5266   1
   1   9  -5 4831.67 76.4580   1
   1   9  -4 738.014 50.8519   1
  -1  -9   3 130.887 48.7153   1
  -1  -9   2 8.24062 48.7112   1
   1  10  -8 257.419 87.5269   1
  -1 -10   7 158.717 79.6850   1
   1  10  -6 462.928 61.7324   1
   1  10  -5 4439.62 84.0551   1
  -1 -10   4 111.179 53.6968   1
  -1 -10   3 15.7777 56.1351   1
  -1 -10   2 19.0959 59.8743   1
  -1 -11   9 919.044 143.094   1
  -1 -11   8 186.569 81.9010   1
  -1 -11   7 279.989 76.9265   1
   1  11  -6 92.2939 69.5201   1
   1  11  -5 55.5582 69.1085   1
   1  11  -4 42.6223 68.8972   1
  -1 -11   3 106.309 70.2273   1
  -2  12  -3 46.8401 68.4102   1
   2 -12   4 472.120 73.0562   1
   2 -12   5 328.492 66.1957   1
  -2  12  -6 132.895 70.7977   1
   2 -12   7 101.800 75.3155   1
  -2  12  -8 269.514 80.7124   1
  -2  11  -2 20.7595 58.0010   1
   2 -11   3 206.068 59.4212   1
  -2  11  -4 554.719 60.5528   1
  -2  11  -5 3937.27 81.1628   1
   2 -11   6 81.4081 61.0044   1
   2 -11   7 41.9798 66.4349   1
   2 -11   8-47.0745 113.890   1
   2 -10   1 1668.07 91.2655   1
   2 -10   2 268.123 49.6979   1
  -2  10  -3 163.463 49.0296   1
   2 -10   4 3048.28 65.6498   1
  -2  10  -5 3148.56 67.9712   1
   2 -10   6 64.1622 51.7508   1
   2 -10   7 75.2322 73.3199   1
   2  -9   1 378.694 53.9178   1
   2  -9   2 1368.39 60.3031   1
   2  -9   3 2276.30 71.3224   1
   2  -9   4 409.120 55.3360   1
  -2   9  -5 69.0554 55.5158   1
  -2   9  -6 61.6325 55.6187   1
   2  -9   7 932.359 89.8982   1
  -2   8  -1 950.557 48.3559   1
   2  -8   2 9521.76 76.6921   1
   2  -8   3 2053.65 44.9297   1
  -2   8  -4 2794.60 51.7496   1
   2  -8   5 157.066 45.2772   1
   2  -8   6 3035.04 74.0595   1
   2  -7   0 16.9429 70.6896   1
   2  -7   1 15733.7 103.495   1
  -2   7  -2 73783.6 171.470   1
  -2   7  -3 1284.29 35.9928   1
  -2   7  -4 521.779 39.6268   1
   2  -7   5 97.8011 39.0268   1
   2  -7   6 1185.72 70.8978   1
   2  -6   0 1729.38 36.6941   1
  -2   6  -1 2402.75 30.1555   1
   2  -6   2 8648.54 40.5649   1
   2  -6   3 586.745 17.3106   1
   2  -6   4 374.282 21.5481   1
   2  -6   5-0.89920 28.1933   1
  -2   5   0 955.194 26.5466   1
   2  -5   1 277.969 15.4658   1
   2  -5   2 4419.91 26.4080   1
   2  -5   3 26.4432 13.6206   1
   2  -5   4 304.725 23.0987   1
   2  -4   0 440.195 45.6862   1
   2  -4   1 205.513 19.4021   1
  -2   4  -2 5851.62 47.9214   1
   2  -4   3 14895.6 70.4974   1
  -2   3   0 2385.46 24.9282   1
   2  -3   1 960.767 14.1200   1
   2  -3   2 2382.56 28.3910   1
   2  -3   3 498.366 27.7733   1
   2  -2  -1 3585.46 44.1221   1
   2  -2   0 15972.9 40.2005   1
   2  -2   1 2024.65 13.8610   1
   2  -2   2 418.024 25.2239   1
   2  -1  -1 16638.7 71.0724   1
  -2   1   0 908545. 493.583   1
  -2   1  -1 243809. 212.905   1
  -2   0   1 168178. 125.612   1
   2   0   0 669495. 369.165   1
  -2  -1   2 1525.13 19.5893   1
  -2  -1   1 27849.2 41.4526   1
  -2  -1   0 2231.88 14.9656   1
  -2  -2   3 353.686 37.7716   1
   2   2  -2 257.490 9.15750   1
  -2  -2   1 64.8942 7.15167   1
  -2  -2   0-7.14813 12.9601   1
   2   3  -4 2372.94 41.1126   1
  -2  -3   3 21432.7 67.8909   1
   2   3  -2 5966.42 19.7430   1
  -2  -3   1 624.139 13.1708   1
   2   3   0 862.811 25.4605   1
   2   4  -5 4278.25 61.1935   1
  -2  -4   4 44.0316 24.4486   1
  -2  -4   3 339.127 30.0761   1
   2   4  -2 2798.10 35.6032   1
  -2  -4   1 19.0902 21.3133   1
  -2  -4   0 2731.88 43.7032   1
  -2  -5   5 152.882 38.6491   1
   2   5  -4 187.873 29.7268   1
  -2  -5   3 11.6382 23.0655   1
   2   5  -2 3628.60 42.3281   1
  -2  -5   1 10353.9 82.7852   1
  -2  -5   0 2358.49 84.2644   1
   2   6  -6 1544.03 59.0828   1
  -2  -6   5 886.246 46.5834   1
  -2  -6   4 755.996 42.0994   1
   2   6  -3-0.18124 27.8249   1
   2   6  -2 82761.2 191.758   1
  -2  -6   1 21445.5 128.942   1
  -2  -7   6 5714.57 129.987   1
  -2  -7   5 98.6805 43.3026   1
  -2  -7   4 1939.26 48.1171   1
   2   7  -3 486.206 36.7882   1
   2   7  -2 6910.56 100.277   1
   2   8  -7 195.329 60.4306   1
   2   8  -6 57.4528 56.6445   1
   2   8  -5 123.471 43.6972   1
  -2  -8   4 125.796 41.4450   1
  -2  -8   3 3563.11 62.5330   1
  -2  -8   2 692.346 47.7852   1
  -2  -8   1 341.853 104.834   1
  -2  -9   8 331.682 77.9981   1
  -2  -9   7 145.137 70.9931   1
   2   9  -6-46.0433 53.0121   1
  -2  -9   5 2543.28 67.1108   1
  -2  -9   4 5935.68 80.6771   1
  -2  -9   3 508.321 53.5543   1
   2   9  -2 4.10945 51.9219   1
  -9   4   1 157.309 107.806  -2
  -2 -10   8 157.309 107.806   1
   2  10  -7 169.428 68.1472   1
   2  10  -6 16.3971 65.8845   1
  -2 -10   5 4365.36 89.9727   1
   2  10  -4 472.012 64.0154   1
  -2 -10   3 454.133 63.0822   1
  -2 -10   2 14.3376 85.2077   1
   2  11  -9 449.522 116.026   1
   2  11  -8 857.941 88.7641   1
   2  11  -7 77.6069 76.4266   1
   2  11  -6-35.9710 69.6944   1
   2  11  -5 480.207 74.0278   1
   2  11  -4 321.313 73.7459   1
   2  11  -3 250.670 75.8278   1
   3 -12   2 435.429 97.4512   1
   3 -12   3 144.799 64.0466   1
  -3  12  -4 42.0550 77.7894   1
  -3  12  -5 115.993 90.0709   1
  -3  11  -2-33.6657 52.6982   1
  -3  11  -3 34.2805 54.5063   1
  -3  11  -4 59.7049 52.4799   1
   3 -11   5 3203.91 73.8110   1
  -3  11  -6 1149.96 77.3214   1
   8  -3  -8-93.9450 149.579  -2
  -3  11  -7-93.9450 149.579   1
   3 -10   1 2970.84 94.1608   1
  -3  10  -2 167.983 46.5317   1
  -3  10  -3-5.29081 43.5588   1
   3 -10   4 538.043 47.1911   1
   3 -10   5 1954.23 60.1908   1
  -3  10  -6 124.333 53.0078   1
   3 -10   7-41.3170 88.2344   1
  -3   9  -1 182.211 66.3770   1
   3  -9   7 470.224 81.2030   1
   3  -8   0 122.748 85.8583   1
   3  -8   1 201.357 33.9691   1
  -3   8  -2 9259.77 71.3678   1
  -3   8  -3 293.760 33.1125   1
  -3   8  -4 62.0769 33.4947   1
  -3   8  -5 1179.60 55.2863   1
   3  -8   6 2811.37 95.5530   1
   3  -7   1 28209.1 85.3206   1
  -3   7  -2 11118.4 47.3946   1
  -3   7  -3 2716.39 27.9015   1
   3  -7   4 99.7583 19.9718   1
   3  -7   5 108.440 35.0318   1
   3  -7   6 312.430 39.0530   1
   3  -6   0 408.443 32.7584   1
   3  -6   1 808.597 21.1188   1
   3  -6   2 1748.22 58.8718   1
   3  -6   3 3141.36 29.3770   1
  -3   6  -4 16.1594 20.3650   1
   3  -6   5 10.0875 30.5230   1
   3  -5  -1 757.242 86.4591   1
   3  -5   0 3021.85 32.9427   1
  -3   5  -1 277.322 14.6582   1
   3  -5   2 199.231 13.5484   1
  -3   5  -3 8794.39 44.5105   1
   3  -5   4 17048.0 80.1484   1
  -3   4   1 73053.2 236.640   1
   3  -4   0 1646.40 25.5690   1
  -3   4  -1 409.669 12.2446   1
   3  -4   2 1427.32 18.2185   1
   3  -4   3 42363.3 132.798   1
   3  -4   4 8398.16 113.850   1
   3  -3  -1 4694.24 55.2579   1
  -3   3   0 819.960 19.7510   1
  -3   3  -1 2373.51 15.6993   1
   3  -3   2 166.993 17.6509   1
  -3   3  -3 1122.46 31.2998   1
   3  -2  -2 4052.46 60.0925   1
   3  -2  -1 4143.69 46.0876   1
   3  -2   0 1009.42 23.3388   1
   3  -2   1 8609.84 50.5604   1
   3  -2   2 23519.8 91.8761   1
   3  -1  -2 4021.08 103.204   1
   3  -1   1 15097.8 66.0377   1
   3   0  -2 25402.3 119.364   1
   3   0  -1 12003.3 34.1022   1
  -3   0   0 29.2061 12.5739   1
   3   0   1 3664.65 51.5779   1
   3   1  -3 212.364 20.8563   1
   3   1  -2 2385.81 19.4922   1
  -3  -1   1 1329.91 11.3664   1
  -3  -1   0-8.82379 11.1611   1
   3   2  -3 28623.7 152.131   1
  -3  -2   2 3027.16 22.3748   1
  -3  -2   1 58.4937 11.3492   1
   3   2   0 158.864 22.2655   1
   3   3  -4 5704.69 49.1962   1
   3   3  -3 62112.6 110.315   1
  -3  -3   2 258.929 9.93950   1
  -3  -3   1 338.965 16.2231   1
  -3  -3   0 935.576 50.5469   1
   3   4  -5 99.6494 34.3568   1
   3   4  -4 5674.41 60.2990   1
  -3  -4   3 1690.62 38.0458   1
   3   4  -2 274.688 22.6055   1
  -3  -4   1 1752.79 39.8462   1
  -3  -4   0 943.877 61.1967   1
   3   5  -6 597.210 45.1989   1
  -3  -5   5 1313.82 45.9796   1
  -3  -5   4 957.296 39.3667   1
   3   5  -3 106.644 30.6431   1
  -3  -5   2 475.497 28.4179   1
   3   5  -1 39446.1 159.344   1
  -3  -5   0 8.20157 62.3967   1
  -3  -6   7 2045.24 84.1032   1
  -3  -6   5 205.645 42.4688   1
  -3  -6   4 2077.89 46.1725   1
   3   6  -3 301.194 32.1955   1
  -3  -6   2 13646.9 86.7040   1
   3   6  -1 10658.4 117.319   1
   3   7  -7 769.821 65.1710   1
  -3  -7   6 759.466 86.0585   1
   3   7  -2-8.98144 56.9551   1
  -3  -7   1 281.878 94.5612   1
  -3  -8   8 145.046 88.5576   1
   3   8  -7 250.090 65.7977   1
   3   8  -6 180.343 52.0591   1
   3   8  -5 541.976 48.5397   1
   3   8  -4 348.750 48.1086   1
  -3  -8   3 63.1782 45.3929   1
   3   8  -2 39.7334 45.8784   1
  -3  -9   8-46.8449 78.8268   1
   3   9  -7 60.3410 59.4236   1
   3   9  -6 105.198 56.6535   1
  -3  -9   5 4731.52 80.3103   1
  -3  -9   4 340.088 52.4045   1
   3   9  -3 62.3128 53.1973   1
   3   9  -2 137.220 60.7947   1
  -3 -10   9 3966.59 185.298   1
   3  10  -8 180.269 77.4033   1
  -3 -10   7 155.146 72.0024   1
  -3 -10   6 91.1122 64.9378   1
  -3 -10   5 1570.48 74.4635   1
   3  10  -4-24.6348 65.1046   1
  -3 -10   3 149.088 99.3882   1
   3  11  -7 99.9702 122.491   1
   3  11  -6-43.8116 113.833   1
   3  11  -5 311.753 140.018   1
   4  -8   0 57.9843 66.9458   1
   4  -8   1 1245.15 58.6452   1
   4  -8   2 29798.7 120.410   1
   4  -8   3 3959.41 51.8842   1
   4  -8   4 186.007 31.2870   1
  -4   8  -5 418.022 37.4419   1
   4  -8   6 1583.00 78.9021   1
   4  -7   0 1194.45 55.4155   1
   4  -7   1 8530.94 85.2267   1
   4  -7   2 24869.8 105.986   1
  -4   7  -3 347.587 30.4836   1
  -4   7  -4 8.78372 29.7922   1
   4  -7   5-19.3409 35.6527   1
   4  -6  -1 425.946 76.4318   1
  -4   6   0 190.363 41.2937   1
   4  -6   1 37.3262 31.7573   1
  -4   6  -2 41.3333 25.1612   1
   4  -6   3 1767.85 39.0926   1
  -4   6  -4-33.2002 30.1879   1
   4  -6   5 171.026 62.8212   1
   4  -5  -1 894.689 51.0278   1
   4  -5   0 13.1678 31.3525   1
   4  -5   1 828.984 34.3862   1
  -4   5  -2 55.3464 23.4264   1
   4  -5   3 4519.57 53.7639   1
  -4   5  -4 86.1557 34.1743   1
   4  -4  -1 1672.46 34.0032   1
   4  -4   0 1378.79 26.5697   1
  -4   4  -1 329.860 23.2229   1
   4  -4   2 772.421 26.6437   1
   4  -4   3 1033.62 35.1731   1
   4  -4   4 237.865 50.9132   1
   4  -3  -2 11032.7 106.202   1
   4  -3  -1 1047.68 27.5626   1
  -4   3   0 972.813 18.9029   1
   4  -3   1 8579.21 54.0010   1
   4  -3   2 1463.18 33.6922   1
   4  -3   3 365.621 31.2809   1
   4  -2  -2 3152.23 56.5778   1
  -4   2   1 3458.17 45.8217   1
   4  -2   0 14454.3 76.7118   1
   4  -2   1 57122.7 149.105   1
   4  -2   2 1525.83 35.6530   1
   4  -1  -2 4035.00 51.4760   1
  -4   1   1 14160.4 76.3284   1
   4  -1   0 375954. 301.360   1
   4  -1   1 20455.6 92.1443   1
   4  -1   2 1882.70 39.4973   1
   4   0  -3 3951.80 64.4997   1
  -4   0   2 321.961 15.3500   1
   4   0  -1 1950.65 13.9879   1
  -4   0   0 10870.0 45.5987   1
  -4   0  -1 293.270 25.0889   1
   4   1  -3 121.523 18.3494   1
   4   1  -2 2715.72 23.1172   1
   4   1  -1 5363.85 23.0790   1
   4   1   0 528.709 19.5871   1
   4   1   1 115.405 32.9052   1
  -4  -2   4 101.142 33.2579   1
  -4  -2   3 1310.42 43.1625   1
  -4  -2   1-7.03445 16.2634   1
   4   2   0 106.984 23.1580   1
  -4  -3   5 327.490 44.7225   1
   4   3  -4 113.928 29.5685   1
   4   3  -3 1541.98 36.7708   1
  -4  -3   2 29.8927 21.0195   1
  -4  -3   1 125.679 26.2377   1
  -4  -3   0 203.584 45.9705   1
  -4  -4   6 113.839 47.8866   1
   4   4  -5 786.569 42.2974   1
  -4  -4   4 1321.68 41.4559   1
   4   4  -3 69.7728 24.8756   1
   4   4  -2 195.537 24.2982   1
  -4  -4   1 166.527 37.6949   1
  -4  -4   0 120.255 55.7373   1
  -4  -5   6 353.544 46.0661   1
  -4  -5   5 78.4108 39.0544   1
  -4  -5   4 1104.79 37.0074   1
   4   5  -3 126.189 28.5671   1
   4   5  -2 18462.9 93.0121   1
  -4  -5   1 26204.2 139.176   1
   4   6  -6 7375.49 95.1273   1
   4   6  -5 259.741 39.2485   1
   4   6  -4 472.184 37.5496   1
  -4  -6   3 606.862 36.1473   1
  -4  -6   2 28742.9 127.149   1
  -4  -6   1 442.769 83.6617   1
   4   7  -7 2218.25 122.571   1
  -4  -7   6 521.440 58.5119   1
   4   7  -5 140.967 42.6992   1
  -4  -7   4 197.273 41.8103   1
   4   7  -3 1205.53 49.1448   1
   4   7  -2 353.976 44.5875   1
  -4  -7   1 177.776 94.8560   1
  -4  -8   8 898.149 105.903   1
  -4  -8   7 427.849 71.3501   1
  -4  -8   6 57.5958 53.0526   1
  -8   2  -2 734.886 69.3763  -2
  -4  -8   5 734.886 69.3763   1
   4   8  -4 847.405 54.1979   1
   4   8  -3-2.73000 48.1115   1
   4   8  -2 24.6163 49.6514   1
   4   9  -8 392.582 90.7785   1
  -4  -9   7 171.969 62.6951   1
   4   9  -6 4.92278 59.6081   1
  -4  -9   5 3444.34 76.3550   1
   4   9  -4 4451.44 84.0907   1
   4   9  -3-15.4100 57.5272   1
   4   9  -2 29.9176 74.8561   1
  -4 -10   9 6603.03 224.745   1
   4  10  -8 287.033 80.2988   1
  -4 -10   7 104.935 71.6873   1
   4  10  -6 88.1427 67.8237   1
  -4 -10   5 80.0850 67.8395   1
   4  10  -4 339.345 71.4195   1
   4  10  -3 121.962 93.6261   1
  -5   9  -3 268.066 93.8853   1
  -5   9  -4 447.316 100.941   1
  -5   9  -5 50.3271 123.556   1
   5  -8   0 483.252 62.1524   1
   5  -8   1 3659.64 107.122   1
   5  -8   3 617.355 54.9539   1
  -5   8  -4 343.302 40.7062   1
  -5   8  -5 34.9273 48.9288   1
  -4  -2  10 381.301 96.8376  -2
   5  -7   0 381.301 96.8376   1
   5  -7   1 7780.93 88.4464   1
   5  -7   2 499.287 40.2512   1
  -5   7  -3-25.8990 50.2796   1
  -5   7  -5-162.951 57.6939   1
   5  -6  -1 31.5949 51.8768   1
  -5   6   0 1930.46 58.0762   1
  -5   6  -1 460.163 40.7121   1
   5  -6   2 47.8021 33.6404   1
  -5   6  -3 140.577 31.1964   1
   5  -6   4 3166.68 98.6117   1
   5  -5  -2 640.032 93.6873   1
   5  -5  -1 10644.9 103.411   1
   5  -5   0 1038.69 49.6188   1
   5  -5   1 231.872 32.6292   1
  -5   5  -2 308.605 31.5205   1
   5  -5   3 14243.0 87.7537   1
   5  -5   4 12173.5 107.920   1
   5  -4  -2 12563.2 157.147   1
   5  -4  -1 21765.4 130.589   1
   5  -4   0-11.2816 31.8392   1
  -5   4  -1 100.791 27.1270   1
   5  -4   2 241.581 28.6835   1
   5  -4   3 7034.30 96.7233   1
   5  -4   4 190.864 42.2153   1
   5  -3  -2 154.765 38.7756   1
   5  -3  -1 663.885 37.3260   1
   5  -3   0 14.6978 28.3166   1
  -5   3  -1 2.30663 24.3905   1
   5  -3   2 2394.26 45.7056   1
   5  -3   3 2175.99 53.5817   1
   5  -2  -3 1515.66 60.3256   1
   5  -2  -2 495.331 37.5915   1
   5  -2  -1 1200.38 37.8271   1
   5  -2   0 81.7703 23.4604   1
   5  -2   1 3493.99 42.7033   1
  -5   2  -2 1031.89 39.7008   1
   5  -1  -3 3231.55 66.1314   1
   5  -1  -2 717.101 36.2135   1
   1  -1   7 489.117 53.9917  -2
   5  -1  -1 489.117 53.9917   1
   5  -1   0 1560.79 31.3933   1
   5  -1   1 9440.69 72.5343   1
   5  -1   2 87.2561 31.9076   1
   5   0  -4 225.005 69.6705   1
   5   0  -3 38.3635 35.1905   1
   5   0  -2 2285.91 42.0587   1
   5   0  -1 251.852 21.7378   1
  -5   0   0 426.798 23.5684   1
  -5   0  -1 1849.36 43.3684   1
   5   1  -4 101.727 51.1290   1
   5   1  -3 2462.58 43.0519   1
  -5  -1   2 74.0931 19.5717   1
   5   1  -1 162.991 19.7816   1
  -5  -1   0 217.207 26.8856   1
   5   1   1 1688.34 60.1362   1
   5   2  -5-6.37303 57.5781   1
   5   2  -4 331.741 42.2164   1
   5   2  -3 20568.8 91.1710   1
   5   2  -2 3132.54 36.7071   1
   5   2  -1 212.028 26.9875   1
   5   2   0 301.656 41.5911   1
  -5  -4   6 22.3196 52.0271   1
  -5  -4   5 2.71346 53.2938   1
  -5  -5   7 160.216 65.4912   1
  -5  -5   6 726.825 69.4974   1
  -5  -5   5 1127.85 70.0079   1
  -5  -5   4 855.679 75.8545   1
  -5  -6   7 270.724 79.9131   1
  -5  -7   8 245.529 90.9903   1
  -5  -7   7-27.0988 64.4105   1
   5   7  -6 188.015 49.9298   1
   5   7  -5 19.4762 44.4666   1
  -5  -7   4-7.20551 77.9187   1
  -5  -7   3 181.450 123.370   1
  -5  -8   8 68.1165 104.898   1
   5   8  -7 108.137 59.2718   1
  -5  -8   6 67.6661 52.7993   1
  -5  -8   5 1417.85 59.2586   1
  -5  -8   4 418.885 96.9685   1
  -5  -8   3-67.2764 147.467   1
   5   9  -8 36.3906 70.7867   1
  -5  -9   7 42.9360 64.4704   1
   5   9  -6 137.928 60.8125   1
  -5  -9   5 1896.27 72.0465   1
  -5  -9   4 195.605 110.859   1
   5  10  -8-21.9278 139.381   1
   5  10  -7 208.835 88.9294   1
   5  10  -6 48.8296 77.7056   1
   5  10  -5 59.9951 96.6810   1
   6  -9   0 129.078 94.6993   1
  -6   9  -1 34.2641 51.3994   1
   6  -9   2 3478.18 69.6988   1
   6  -9   3 2198.66 62.8129   1
  -6   9  -4 639.212 52.7413   1
   6  -9   5 126.041 58.7449   1
   6  -9   6 619.371 81.7330   1
   6  -8  -1 443.813 102.481   1
   6  -8   0 43.5074 68.0396   1
   6  -8   1 4486.41 73.0225   1
   6  -8   2 24175.5 135.571   1
   6  -8   3 3527.61 65.6842   1
  -6   8  -4 32.8190 45.3444   1
  -6   8  -5-81.4680 50.2148   1
   6  -8   6 599.403 78.8996   1
   6  -7  -1-111.901 63.3490   1
   6  -7   0 477.178 57.4340   1
   6  -7   1 903.316 49.9656   1
   6  -7   2 2895.99 59.4919   1
  -6   7  -3 425.029 42.3596   1
  -6   7  -4 83.5106 49.4964   1
   6  -7   5-75.6254 48.7644   1
   6  -6  -1 122.806 57.0925   1
   6  -6   0 137.296 52.4558   1
  -6   6  -1 665.543 43.5563   1
  -6   6  -2 765.779 43.7916   1
  -6   6  -3 40.9698 39.4021   1
  -6   6  -4 11.8089 44.2300   1
   6  -6   5 385.370 79.4921   1
   6  -5  -2 61.2617 79.7857   1
   6  -5   3 1341.93 47.2378   1
  -6   5  -4 195.036 51.0237   1
  -6   4   2 3966.71 106.328   1
   6  -4  -1-30.9632 44.7339   1
   6  -4   0 542.024 37.1192   1
   6  -4   1 1351.58 41.4581   1
   6  -4   2 229.892 51.1706   1
   6  -3  -3 214.341 55.7697   1
   6  -3  -2 147.775 41.1918   1
   6  -3  -1-16.4907 37.6691   1
   6  -3   0 1228.83 39.3072   1
   6  -3   1 2106.62 43.7287   1
  -6   3  -2-16.4717 31.3508   1
   6  -2  -3 901.079 53.7572   1
   6  -2  -2 121.715 38.3493   1
   6  -2  -1 55.2244 32.0841   1
   6  -2   0 60677.3 163.441   1
   6  -2   1 33800.9 126.480   1
  -6   2  -2 1688.91 53.3813   1
   6  -1  -4 10731.7 177.877   1
   6  -1  -3 1412.23 49.0035   1
   6  -1  -2 14.8191 34.1052   1
   6  -1  -1 8328.15 63.4510   1
   6  -1   0 40793.8 130.093   1
  -6   1  -1 819.198 38.5522   1
   6  -1   2 55.1787 58.8860   1
   6   0  -4 188.285 55.6980   1
   6   0  -3 81.8136 34.4055   1
  -6   0   2 210.470 26.8403   1
   6   0  -1 1596.00 34.9399   1
   6   0   0 60.1584 26.1254   1
   6   0   1 260.068 52.0137   1
   6   1  -4 31.1293 36.6015   1
   6   1  -3 64.6284 28.9967   1
  -6  -1   2 407.433 26.2260   1
  -6  -1   1 115.538 24.4416   1
   6   1   0 5.28264 27.2186   1
   6   1   1 24.7897 49.2136   1
   7 -10   1 23.4693 96.2987   1
   7 -10   2 339.158 88.4297   1
   7 -10   3 163.928 61.1784   1
  -7  10  -4 235.175 63.6687   1
  -7  10  -5-33.0014 68.3617   1
   7 -10   6 200.810 92.5361   1
   7  -9   0-98.9022 86.5821   1
   7  -9   1 149.399 63.7221   1
   7  -9   2 4054.05 84.7754   1
  -7   9  -3 171.254 74.5967   1
   5   0 -13 253.451 175.616  -2
  -7   9  -3 253.451 175.616   1
  -7   9  -4 175.038 61.6124   1
  -7   9  -5 20.7912 64.8128   1
   7  -9   6 491.561 97.0478   1
   7  -8  -1 664.408 134.627   1
   7  -8   0 152.086 73.2991   1
   7  -8   1 5128.98 87.7635   1
   7  -8   2 4049.95 80.6421   1
   7  -8   3 645.032 58.9841   1
  -7   8  -4 47.0809 57.8176   1
   7  -8   5-77.6685 63.4581   1
   7  -7  -1 206.309 75.7683   1
   7  -7   0 334.958 64.4006   1
  -7   7  -1 71.8816 51.4627   1
  -7   7  -2 59.1024 49.3971   1
  -7   7  -3 310.929 53.5867   1
  -7   7  -4-31.2188 57.5910   1
   7  -7   5-96.3777 59.1554   1
   7  -6  -2-3.40900 75.2711   1
   7  -6  -1 626.903 70.3147   1
   7  -6   0-74.1939 56.2895   1
  -7   6  -1 278.396 49.0676   1
  -7   6  -2 41.6464 46.1382   1
   7  -6   3 1432.23 59.7964   1
   7  -6   4 5439.98 88.7078   1
   7  -5  -2 2043.31 82.4935   1
   7  -5  -1 11635.7 124.990   1
  -7   5   0 814.571 50.5020   1
  -7   5  -1 25.9868 43.9505   1
  -7   5  -2 394.344 45.9469   1
   7  -5   3 6737.43 88.4604   1
   7  -5   4 2237.86 79.2375   1
   7  -4  -3 475.133 71.0575   1
   7  -4  -2 2314.77 74.7672   1
   7  -4  -1 1262.42 60.1657   1
   7  -4   0 52.6520 41.2966   1
   7  -4   1 40.5638 40.5964   1
  -7   4  -2 106.919 42.2373   1
  -7   4  -3 24.9432 47.9712   1
  -7   3   3 351.749 201.077   1
   0  -3  11 441.445 106.355  -2
   7  -3  -3 441.445 106.355   1
   7  -3  -2 101.223 49.9154   1
  -7   3   1 386.835 40.6299   1
  -7   3   0 80.0627 38.6900   1
   7  -3   1 221.561 39.5066   1
  -7   3  -2 612.215 52.1603   1
   0  -1 -10 851.454 175.343  -2
  -7   3  -2 851.454 175.343   1
   7  -3   3 166.384 51.2709   1
   7  -2  -4-44.5611 80.4861   1
  -7   2  -1 4058.81 148.152   1
  -7   2  -2 71.1145 48.4924   1
   7  -1  -4-188.688 73.1147   1
   7  -1  -3 102.935 41.5406   1
   7  -1  -2 519.428 37.5330   1
  -7   1   1 238.387 33.4886   1
   7  -1   0 6.21879 47.3693   1
   7  -1   2 1223.29 79.1275   1
   7   0  -5-24.3897 69.1639   1
   7   0  -4 45.2146 48.2833   1
   7   0  -3 75.1908 36.8952   1
  -7   0   2 61.8784 30.3137   1
  -7   0   1 88.1083 30.0234   1
  -7   0   0-24.7353 32.6927   1
   7   0   1 241.577 60.4872   1
   8 -10   1 32.0809 172.015   1
   8 -10   2 323.189 126.673   1
   8  -9   0 37.6176 81.3399   1
   8  -9   1 901.402 79.6616   1
   8  -9   2 7688.15 118.174   1
   8  -9   3 3892.88 97.0666   1
  -8   9  -4-26.1761 74.5177   1
  -8   9  -5 152.133 108.531   1
   8  -8  -1-96.4469 95.4047   1
   8  -8   0 492.316 87.7346   1
   8  -8   1 2093.88 82.5769   1
   8  -8   2 7256.57 132.757   1
  -8   8  -3 427.620 70.4815   1
  -8   8  -4 36.6414 73.1709   1
   8  -8   5 33.7647 78.4616   1
   8  -7  -1 14.7247 80.0732   1
   8  -7   0 185.933 64.2774   1
  -8   7  -1 31.7504 62.8432   1
  -8   7  -2 188.703 61.2454   1
  -8   7  -3 192.913 181.450   1
   3  -1 -13 341.004 284.865  -2
  -8   7  -3 341.004 284.865   1
  -8   7  -4-13.8214 73.0984   1
   8  -6  -2 210.719 87.3680   1
  -8   6   1 451.596 72.8469   1
   8  -6   0 42.6274 58.7020   1
  -8   6  -1 146.312 58.2989   1
  -8   6  -2 125.025 57.2591   1
  -8   6  -3 402.671 67.9624   1
   8  -6   4-125.596 67.9041   1
   8  -5  -2 532.752 85.1479   1
   8  -5  -1 466.753 66.5853   1
  -8   5   0 654.831 64.0558   1
  -8   5  -1 41.6816 53.4848   1
  -8   5  -2 54.2501 54.6947   1
  -8   5  -3 188.314 62.4059   1
  -8   5  -4-43.4035 84.3512   1
   8  -4  -3 50.7818 75.5699   1
   8  -4  -2 756.790 69.6713   1
  -8   4   1 27.4322 51.5702   1
  -8   4   0 417.384 52.8942   1
  -8   4  -1 370.506 51.9758   1
  -8   4  -2-54.1391 54.1342   1
  -8   4  -3-83.1564 57.4668   1
   8  -3  -3 226.670 69.1114   1
   8  -3  -2 91.8898 54.9894   1
  -8   3   1 62.4077 46.8533   1
   8  -3   0 3324.88 80.9361   1
   8  -3   1 12104.2 124.433   1
  -8   3  -2-12.8598 55.3119   1
   8  -3   3 55.0143 72.4211   1
   8  -2  -4 5472.98 155.736   1
   8  -2  -2 139.173 46.7072   1
   8  -2  -1 2346.82 72.0448   1
   8  -2   0 28236.4 168.718   1
   8  -2   1 7188.74 101.510   1
  -8   2  -2-210.166 174.811   1
   1   1  11 681.098 159.233  -2
   8  -2   2 681.098 159.233   1
   8  -1  -4 1623.77 106.726   1
   8  -1  -3 253.673 44.5169   1
  -2   2 -11-18.3897 132.431  -2
  -8   1   2-18.3897 132.431   1
   8  -1  -1 308.049 41.2120   1
   8  -1   0 1607.48 63.9698   1
   8  -1   1-69.3652 45.4109   1
   8  -1   2-9.79842 61.4477   1
   8   0  -5 126.630 77.9719   1
   8   0  -4 7.18816 51.2218   1
   8   0  -3 3.45437 59.7067   1
   8   0  -2 34.5624 62.0887   1
   8   0  -1 198.704 66.3532   1
   9  -7  -1 27.0094 84.3307   1
   9  -7   0 231.107 77.8906   1
  -9   7  -1 51.3899 77.0291   1
  -9   7  -2-7.05812 111.417   1
   9  -6  -2 429.945 102.438   1
   9  -6  -1 2151.82 89.3716   1
   9  -6   0 539.199 77.4555   1
  -9   6  -1 246.636 73.2319   1
  -9   6  -2 77.4766 75.0013   1
   9  -6   3 2983.80 135.183   1
   9  -6   4 2799.78 136.148   1
   9  -5  -3 133.756 137.869   1
   9  -5  -2 1437.67 85.4259   1
   9  -5  -1 2781.30 88.7112   1
  -9   5   0 85.9552 67.3099   1
  -9   5  -1 25.7553 67.5311   1
  -9   5  -2 40.4968 69.9070   1
  -9   5  -3 323.889 78.5999   1
   0  -4  14 2707.24 256.903  -2
   9  -4  -3 2707.24 256.903   1
  -9   4   2 143.545 62.8531   1
   9  -4  -1-28.8407 60.0918   1
  -9   4   0 236.221 61.4179   1
  -9   4  -1 98.1492 61.4486   1
  -9   4  -2 238.413 71.4260   1
  -9   4  -3 218.179 73.2007   1
   9  -3  -4 406.482 112.190   1
   9  -3  -3 92.1386 76.8920   1
   9  -3  -2 135.421 58.8780   1
  -9   3   1 135.369 58.3596   1
  -9   3   0 229.466 56.9074   1
  -9   3  -1 283.136 61.2455   1
   9  -3   2 148.432 68.7527   1
   9  -2  -4-133.332 71.1611   1
   9  -2  -3 69.5059 56.5426   1
   9  -2  -2-11.6185 54.2608   1
  -9   2   1 146.166 52.2289   1
  -9   2   0 51.8884 53.0923   1
  -9   2  -1 1126.85 68.7724   1
  -9   2  -2-4.56459 75.8270   1
   9  -1  -5 270.245 100.452   1
   9  -1  -4 46.6960 54.6879   1
   9  -1  -3 116.248 50.0902   1
  -9   1   2-20.1123 48.3032   1
  -9   1   1 72.8227 47.7897   1
  -9   1   0 51.6936 53.5286   1
   9  -1   1 180.385 90.8921   1
  10  -4  -3-129.757 105.770   1
  10  -4  -2 183.404 75.9838   1
  10  -4  -1 104.628 75.2756   1
 -10   4   0 46.2347 94.7382   1
  10  -4   1 841.789 134.986   1
 -10   3   4 534.019 97.9983   1
  10  -3  -3 207.672 76.1135   1
  10  -3  -2 193.534 69.1350   1
 -10   3   1 202.003 69.9475   1
  10  -3   0 5864.53 109.804   1
  10  -2  -4 1509.00 83.6555   1
 -10   2   3 409.845 69.2689   1
 -10   2   2 99.4797 63.8887   1
 -10   2   1 719.241 69.1561   1
  10  -2   0 3754.63 93.3379   1
  10  -2   1 378.897 74.4048   1
   0   0   2 5145.04 42.9757   2
   0   0   3 1202.45 38.7972   2
   0   0   5 1501.64 71.7539   2
   0   0   6 99.8971 55.8599   2
   0   0   7 565.866 65.8372   2
   0   0  -8 43.5374 72.5933   2
   0   0   9 60.7393 81.4479   2
   0   0  10 1901.20 321.149   2
   0   0 -11 229.590 104.617   2
   0   0  12 100.261 115.077   2
   0   0 -13 290.993 121.852   2
   0   0 -14 36.0968 142.997   2
   0   1 -14 764.910 121.328   2
   0   1 -13 395.322 108.693   2
   0  -1  12 233.596 86.3668   2
   0  -1   9 4945.65 68.6134   2
   0  -1   8-5.69082 41.1721   2
   0  -1   7 86.2538 32.7944   2
   0  -1   6 23.2826 25.3102   2
   0  -1   5 48864.8 94.1975   2
   0  -1   4 4579.46 31.3423   2
   0  -1   3 6380.85 24.0417   2
   0  -1   2 83.9882 6.01922   2
   0  -1  -3 1637.95 197.171   2
   0  -1  -4-55.0177 125.796   2
   0  -1  -5-58.6171 144.355   2
   0   1   6 211.301 155.877   2
   0   1   7 3360.34 192.830   2
   0   1   8 2555.65 214.466   2
   0   1   9 315.698 265.342   2
   0  -1 -10-2.19532 248.518   2
   0  -1 -11 169.588 150.479   2
   0  -1 -12-273.005 164.973   2
   0  -1 -13 140.417 172.461   2
   0  -2  15 504.267 138.030   2
   0  -2  14 7668.14 254.619   2
   0  -2  13-117.518 88.2554   2
   0   2 -12-45.2094 76.4942   2
   0  -2  11-82.5467 61.0982   2
   0  -2  10 2221.85 69.1180   2
   0  -2   9 200.219 44.5907   2
   0  -2   8 48.2108 35.2604   2
   0  -2   7-1.34323 26.5064   2
   0  -2   6 78.1736 20.7573   2
   0  -2   5 61.1710 15.6121   2
   0  -3  15 1890.80 127.869   2
   0  -3  14 1399.23 106.216   2
   0  -3  13 853.647 88.1078   2
   0  -3  12 431.846 77.1696   2
   0   3 -11 338.992 74.0599   2
   0  -3  10 238.052 54.1786   2
   0  -3   9 868.625 44.6059   2
   0  -3   8 36.3440 32.5629   2
   0  -4  15-341.724 139.091   2
   0  -4  13 889.762 214.204   2
   0  -4  12 142.603 169.757   2
   1  -4  11 21.6786 128.934   2
   1  -4  13-117.349 96.4292   2
   1  -4  14-338.619 119.888   2
   1  -4  15-186.171 136.937   2
   1  -3   7-6.52387 28.6560   2
   1  -3   8 67.0178 33.7090   2
  -1   3  -9 237.429 41.6026   2
   1  -3  10 221.247 55.0668   2
   1  -3  11 87.9178 107.293   2
   1  -3  13 919.410 89.0459   2
   1  -3  14 225.482 180.925   2
   1  -3  15 1794.09 123.604   2
  -1   2   9 966.870 375.909   2
  -1   2   8 601.008 344.333   2
  -1   2   7 9975.11 405.121   2
  -1   2   6 34281.5 508.411   2
  -1   2  -4 77.6018 26.1832   2
   1  -2   5 813.418 20.2463   2
   1  -2   6-13.1509 25.7019   2
   1  -2   7 1474.60 36.1290   2
   1  -2   8 112.133 36.0068   2
   1  -2   9-5.93088 44.1003   2
  -1   2 -10 1466.93 62.3261   2
  -1   2 -11 1.35919 62.7904   2
  -1   2 -12-122.977 74.0221   2
   1  -2  13-141.960 95.4699   2
  -1   2 -14 150.592 107.361   2
   1  -2  15 671.061 142.285   2
   1  -1 -14 525.035 189.017   2
   1  -1 -13-63.3408 169.083   2
   1  -1 -12-57.9196 160.029   2
   1  -1 -11 1016.24 144.625   2
   1  -1 -10 101.419 131.333   2
  -1   1   9 3.23047 252.060   2
  -1   1   8 772.458 186.541   2
   1  -1  -7 83.5722 175.816   2
  -1   1   6 3478.35 151.420   2
   1  -1  -5 113.185 118.120   2
  -1   1   4 569.668 108.718   2
   1  -1  -3 2872.58 105.932   2
  -1   1   2-137.657 155.319   2
  -1   1  -1 12438.3 57.0720   2
   1  -1   2 20620.2 29.6639   2
   1  -1   3 9577.77 24.8201   2
  -1   1  -4 21.2435 9.13748   2
   1  -1   5 89.5660 6.05111   2
   1  -1   6 1823.14 35.7087   2
   1  -1   8 57.3384 43.9091   2
  -1   1  -9 63.4103 52.4687   2
  -1   1 -11 113.755 75.0163   2
  -1   1 -12 262.828 87.2183   2
  -1   1 -13 292.546 100.734   2
   1  -1  14 348.838 121.106   2
   1   0 -14 399.696 143.549   2
   1   0 -13 243.923 119.844   2
   1   0 -12 64.2089 107.871   2
   1   0 -11 230.334 92.0100   2
   1   0 -10 274.659 285.303   2
  -1   0   9 124.287 77.5401   2
   1   0  -8 440.416 67.9155   2
   1   0  -7 449.341 55.7282   2
  -1   0   6 586.795 18.2151   2
  -1   0   5 1603.11 20.9621   2
  -1   0   4 4404.92 20.3560   2
  -1   0   3 16906.6 28.9746   2
  -1   0   2 2470.27 11.0775   2
  -1   0   1 3709.41 18.9933   2
  -1   0   0 1432.97 9.80402   2
   1   0   1 6343.24 18.6976   2
   1   0   2 252.721 7.78743   2
  -1   0  -3 21.7206 12.4597   2
  -1   0  -4 1487.24 22.4360   2
   1   0   5 1644.42 22.5971   2
  -1   0  -6 1141.83 106.107   2
   1   0   7 1041.11 74.1898   2
   1   0   8 97.8915 79.1561   2
   1   0   9 228.027 89.3478   2
  -1   0 -10 294.882 103.108   2
   1   0  11 264.354 111.049   2
  -1   0 -12 84.7915 112.989   2
  -1   0 -13 202.149 121.721   2
  -1  -1  15-23.2024 377.108   2
   1   1 -14 779.516 277.304   2
   1   1 -13 127.606 98.0099   2
   1   1 -12 241.334 81.7050   2
   1   1 -11 370.008 71.2699   2
  -1  -1  10 1430.88 188.211   2
  -1  -1   9 286.927 52.1014   2
  -1  -1   8 1003.36 44.4025   2
  -1  -1   7 42.8790 31.1123   2
  -1  -1   6 8.58229 12.8659   2
  -1  -1   5 1853.82 17.1512   2
   1   1  -4 140.500 14.8454   2
  -1  -1   3 95.9691 8.17126   2
   1   1   4 1133.50 206.709   2
  -1  -1  -5 2846.63 184.499   2
  -1  -1  -6 1203.43 188.024   2
   1   1   7 7909.06 233.617   2
   1   1   8-136.276 219.137   2
  -1  -1 -10-1494.99 507.482   2
   1   1  12 53.8834 171.248   2
   1   1  13 273.675 180.233   2
   1   2 -15 2075.59 139.735   2
  -1  -2  14 270.224 106.633   2
   1   2 -13-39.2445 86.1983   2
  -1  -2  12-27.3467 77.9308   2
  -1  -2  11-45.4667 61.6144   2
  -1  -2  10 351.660 56.4859   2
  -1  -2   9 28.4705 42.5380   2
  -1  -2   8 502.855 39.2890   2
  -1  -2   7 1941.89 39.1324   2
  -1  -2   6 104.844 19.8205   2
  -1  -2   5 224.710 15.3166   2
  -1  -3  15 699.963 123.352   2
  -1  -3  14 382.969 100.986   2
  -1  -3  13 537.554 162.065   2
  -1  -3  12 620.634 71.8146   2
  -1  -3  11 167.451 56.4625   2
  -1  -3  10 92.1919 55.8078   2
  -1  -3   9 303.338 39.6621   2
  -1  -3   8 4865.09 53.8193   2
   2  -4  12 676.090 207.621   2
   2  -4  13 288.059 254.370   2
  -2   4 -15 727.289 355.383   2
   2  -3   6 721.922 40.1575   2
   2  -3   7-5.93958 32.6087   2
   2  -3   8-2.21164 37.6119   2
   2  -3   9 230.653 45.8827   2
   2  -3  10 510.418 55.7282   2
   2  -3  11 329.118 67.0782   2
   2  -3  12 469.179 74.6413   2
   2  -3  13 501.248 85.2299   2
  -2   3 -14 2691.53 108.032   2
  -2   2  12 477.572 228.096   2
  -2   2  11 1194.78 404.431   2
   2  -2 -10-13.4980 293.177   2
   2  -2  -9-1260.53 459.933   2
   2  -2  -7 4324.07 253.632   2
  -2   2   6 2749.86 248.493   2
  -2   2   5 90.5876 259.125   2
   2  -2   3 95.1500 13.0956   2
  -2   2  -4 238.268 16.8017   2
   2  -2   5 9967.47 36.6470   2
   2  -2   6 847.092 28.7959   2
   2  -2   7 376.881 32.5096   2
   2  -2   8-51.7170 39.1649   2
   2  -2   9 1837.00 60.1199   2
   2  -2  10 2796.18 66.4471   2
  -2   2 -12-131.063 76.7194   2
   2  -2  13 2.90841 90.0223   2
  -2   2 -14 1838.07 114.984   2
   2  -1 -13 71.8441 163.813   2
   2  -1 -12 67.3588 151.721   2
  -2   1  11 313.997 144.326   2
  -2   1  10 197.265 119.743   2
  -2   1   9 776.330 115.979   2
  -2   1   8 670.675 168.334   2
  -2   1   7 465.927 148.102   2
  -2   1   6 992.183 35.1261   2
   2  -1  -5 108.303 28.5733   2
   2  -1  -4 31.3277 14.8127   2
   2  -1  -3 518.834 16.1359   2
   2  -1  -2 979.586 16.6950   2
  -2   1   1 4838.95 29.7330   2
  -2   1   0 275495. 205.051   2
  -2   1  -1 80481.2 107.421   2
   2  -1   2 6907.12 18.1031   2
  -2   1  -3 264.275 9.52440   2
   2  -1   4 8886.19 28.5988   2
   2  -1   5 8960.16 26.9025   2
  -2   1  -6 9.55032 29.7966   2
  -2   1  -7 391.468 38.1662   2
   2  -1   8 71.5307 44.6191   2
  -2   1  -9 1014.43 56.4686   2
   2  -1  11 117.123 73.2210   2
  -2   1 -12 174.718 91.7561   2
  -2   1 -13 325.467 100.899   2
   2  -1  14-354.048 846.021   2
   2   0 -14 160.378 136.206   2
   2   0 -13 318.353 125.192   2
   2   0 -12 230.465 97.0776   2
   2   0 -11 93.1921 86.8825   2
   2   0 -10 630.415 260.158   2
   2   0  -9 3127.13 79.7831   2
   2   0  -8-19.8756 55.4876   2
   2   0  -7 766.339 52.0154   2
  -2   0   6 421.638 14.4251   2
  -2   0   5 20245.0 52.6603   2
  -2   0   4 25722.9 52.1674   2
  -2   0   3 4248.61 18.8586   2
  -2   0   2 2208.73 11.7578   2
  -2   0   1 46156.2 46.7927   2
  -2   0   0 200736. 153.785   2
  -2   0  -1 1451.47 16.5789   2
   2   0   2 1750.69 17.4102   2
  -2   0  -3 2.34775 10.8906   2
  -2   0  -4 10.4063 26.0150   2
  -2   0  -5 85.6189 29.3348   2
   2   0   6 56.1351 125.001   2
  -2   0  -7 175.114 70.4737   2
  -2   0  -8 414.336 78.7036   2
  -2   0  -9 364.004 87.1661   2
  -2   0 -10 108.257 102.466   2
   2   0  11 84.9996 99.8271   2
  -2   0 -12 120.468 110.948   2
  -2   0 -13 133.681 129.061   2
   2   1 -15-4.62385 140.382   2
   2   1 -14 4307.80 129.785   2
   2   1 -13 448.827 96.2788   2
   2   1 -12 233.621 81.7305   2
   2   1 -11 133.579 65.4596   2
  -2  -1  10 3371.26 209.078   2
  -2  -1   9 2733.33 58.1965   2
  -2  -1   8 295.585 38.6924   2
  -2  -1   7 279.415 15.8624   2
  -2  -1   6 891.252 17.8181   2
  -2  -1   5 8760.88 31.7331   2
  -2  -1   4 202.629 10.3348   2
  -2  -1   3 75.7466 8.68068   2
  -2  -1   2 317.620 15.1059   2
  -2  -1   1 6013.27 39.6490   2
   2   1   4 991.890 226.634   2
   2   1   5 133.499 222.360   2
   2   1   6 700.563 226.406   2
   2   1   8 214.524 250.358   2
   2   1  10 81.6908 146.288   2
   2   1  11 357.556 178.827   2
   2   1  12 322.946 166.328   2
  -2  -2  15 1311.77 132.603   2
  -2  -2  14 4833.40 124.805   2
  -2  -2  13 38.9980 88.6166   2
  -2  -2  12-63.6268 79.3416   2
  -2  -2  11-9.17565 63.3341   2
  -2  -2  10 563.498 58.4858   2
  -2  -2   9 263.581 49.0984   2
  -2  -2   8 103.644 57.8474   2
  -2  -2   7 27.7725 17.6502   2
  -2  -2   6 2189.79 30.4599   2
  -2  -3  15 377.492 129.582   2
  -2  -3  14 265.462 106.190   2
  -2  -3  13 478.042 89.5210   2
  -2  -3  12 97.2138 72.8451   2
  -2  -3  11 98.3368 59.8632   2
  -2  -3   9 110.481 43.8935   2
   3  -4   9 49.5631 98.1426   2
  -3   3  -5-2.43307 30.8002   2
   3  -3   6 71.4251 50.9490   2
   3  -3   7 1032.87 84.7578   2
   3  -3   8 84.7749 45.0243   2
   3  -3   9 68.3674 45.0136   2
   3  -2 -13 215.245 210.817   2
  -3   2  12 40.2038 197.979   2
   3  -2 -11 821.421 172.324   2
   3  -2 -10-325.290 267.415   2
   3  -2  -9-941.438 449.770   2
   3  -2  -8-266.398 224.236   2
   3  -2  -7 3908.21 229.856   2
  -3   2   6 711.053 48.4731   2
  -3   2   5 2115.39 57.2986   2
  -3   2   4 1691.21 55.2032   2
   3  -2  -3 163.185 24.2924   2
   3  -2  -2 948.910 26.3344   2
   3  -2  -1 1015.66 25.5283   2
  -3   2   0 297.650 20.4632   2
  -3   2  -1 2530.26 36.8132   2
  -3   2  -2 6570.80 51.1570   2
   3  -2   3 48.7545 16.2814   2
   3  -2   4 629.592 25.2800   2
   3  -2   5 74.6693 22.7660   2
   3  -2   6 454.786 29.3487   2
   3  -2   7-66.2268 38.6122   2
   3  -2   8 13.3256 38.4051   2
   3  -2   9-29.5037 103.697   2
   3  -1 -14-48.7055 152.292   2
   3  -1 -13 86.2131 163.155   2
   3  -1 -12 144.733 131.007   2
  -3   1  11 176.560 123.631   2
   3  -1 -10 152.423 110.002   2
   3  -1  -9 331.279 111.790   2
   3  -1  -8 117.910 84.5126   2
  -3   1   7 1920.35 138.879   2
  -3   1   6 220.865 22.9386   2
  -3   1   5 1174.74 27.7561   2
  -3   1   4 1854.92 31.6876   2
   3  -1  -3 328.854 18.4948   2
  -3   1   2 966.632 29.4265   2
  -3   1   1 223.720 21.3842   2
  -3   1   0 830.258 30.0046   2
  -3   1  -1 4844.30 55.7771   2
   3  -1   2 83.7818 10.7951   2
   3  -1   3 2577.57 22.1429   2
   3  -1   4 1333.49 24.9041   2
  -3   1  -5 823.035 28.3349   2
   3  -1   6 438.560 32.8362   2
  -3   1  -7 554.016 39.9015   2
  -3   1  -8 147.817 44.9322   2
   3   0 -14 340.834 128.610   2
   3   0 -13 268.574 114.324   2
   3   0 -12 390.219 93.2970   2
   3   0 -11 119.070 76.1242   2
   3   0 -10 119.216 251.371   2
  -3   0   9 277.877 60.9843   2
   3   0  -8 24.9783 49.8146   2
   3   0  -7 265.846 19.7318   2
   3   0  -6 112.613 15.6870   2
  -3   0   5 643.379 16.7630   2
  -3   0   4 9.97878 14.0352   2
  -3   0   3 1733.07 15.2205   2
  -3   0   2 6682.43 22.0105   2
  -3   0   1 3445.23 17.8701   2
  -3   0   0 13.1895 17.4744   2
  -3   0  -1 938.423 25.3486   2
   3   0   2 1969.21 28.2597   2
  -3   0  -3 144.168 21.1951   2
  -3   0  -4 111.728 20.5519   2
  -3   0  -5-93.4867 106.872   2
  -3   0  -6 694.537 64.4394   2
   3   0   7 371.590 68.1104   2
   3   0   8 97.3329 156.428   2
   3   1 -15 559.149 138.698   2
   3   1 -14 1014.28 121.424   2
   3   1 -13-56.2622 91.6387   2
   3   1 -12 5.95314 75.8549   2
  -3  -1  11 102.308 65.4870   2
  -3  -1   9 216.028 47.4786   2
  -3  -1   8 33.6823 38.2981   2
  -3  -1   7 1099.26 21.0901   2
  -3  -1   6-0.18342 15.0426   2
  -3  -1   5 335.728 14.5281   2
  -3  -1   4 514.097 16.0685   2
  -3  -1   3 53.1470 11.6177   2
  -3  -1   2 569.469 18.0516   2
  -3  -1   1 307.186 16.5681   2
  -3  -1   0-7.48099 14.6705   2
  -3  -1  -1 1124.47 37.0405   2
  -3  -1  -2 869.291 37.1865   2
  -3  -1  -3 187.073 34.1673   2
   3   1   4 57.1545 42.7032   2
   3   1   5 50.2987 212.491   2
   3   1   6 10317.5 277.247   2
   3   1   7 5454.30 256.263   2
  -3  -2  15 1955.38 130.513   2
  -3  -2  14 909.500 105.549   2
  -3  -2  13 769.185 86.4523   2
  -3  -2  12 483.999 71.9269   2
  -3  -2  11 175.012 113.181   2
  -3  -2  10 148.048 124.856   2
  -3  -2   9 410.467 45.5720   2
  -3  -2   8 88.3185 34.4361   2
  -3  -2   7 145.799 29.5878   2
  -3  -3  15 51.4414 121.680   2
  -3  -3  14 204.214 102.324   2
  -3  -3  13 173.759 84.7953   2
  -3  -3  12 532.035 85.8254   2
  -3  -3  11-8.02611 69.7438   2
  -4   3   0 234.009 40.6069   2
   4  -3   1 1900.54 44.9075   2
   4  -3   2 356.422 32.9433   2
   4  -3   3 116.018 30.1056   2
  -4   3  -4 34.0801 39.0479   2
  -4   3  -5 358.551 37.0298   2
  -4   2  12 76.3273 166.439   2
   4  -2 -11-32.5130 146.421   2
  -4   2  10 315.621 152.197   2
  -4   2   9-1775.46 458.669   2
  -4   2   8 1623.73 213.804   2
   4  -2  -7 1824.81 193.371   2
  -4   2   6-47.0364 45.4254   2
  -4   2   5 54.3685 32.6215   2
   4  -2  -4 217.884 28.0516   2
  -4   2   3 169.942 26.0260   2
  -4   2   2 916.624 32.5307   2
  -4   2   1 1047.10 29.6710   2
  -4   2   0 4196.73 44.4620   2
  -4   2  -1 17120.8 81.6420   2
  -4   2  -2 439.355 26.5200   2
  -4   2  -3 561.510 28.4087   2
  -4   2  -4 756.236 32.5624   2
  -4   2  -5 6389.19 53.6536   2
   4  -1 -14 306.147 141.420   2
   4  -1 -13-110.209 129.243   2
   4  -1 -12 106.713 114.209   2
   4  -1 -11 169.511 103.982   2
   4  -1 -10 155.209 90.1786   2
   4  -1  -9 162.807 82.6290   2
   4  -1  -8 42.3874 70.9414   2
   4  -1  -7 629.171 29.3029   2
  -4   1   6-10.0974 24.5311   2
  -4   1   5 399.417 23.7450   2
  -4   1   4 8504.30 54.8651   2
  -4   1   3 11.3077 17.4498   2
  -4   1   2 1021.21 15.4219   2
  -4   1   1 4189.30 40.4267   2
  -4   1   0 116199. 182.202   2
  -4   1  -1 6878.90 52.7661   2
  -4   1  -2 557.016 22.3385   2
   4  -1   3 284.424 21.2388   2
  -4   1  -4 446.063 24.0885   2
   4   0 -14 714.558 124.820   2
   4   0 -13 689.479 103.831   2
   4   0 -12 403.298 87.6372   2
  -4   0  11 208.808 80.2300   2
   4   0 -10 1366.06 267.008   2
   4   0  -9 3908.83 67.0368   2
  -4   0   8 132.958 44.2153   2
  -4   0   7 22.6184 159.006   2
   4   0  -6 89.0868 21.1690   2
  -4   0   5 13005.8 40.3272   2
  -4   0   4 1663.30 20.0505   2
  -4   0   3 1100.85 19.1661   2
  -4   0   2 86.5922 18.3976   2
  -4   0   1 725.048 25.4615   2
  -4   0   0 3532.80 41.0337   2
  -4   0  -1 115.286 22.4397   2
  -4   0  -2 222.981 23.9268   2
  -4   0  -3 445.911 29.6433   2
  -4   0  -4 78.1541 23.8491   2
  -4  -1  15 263.525 137.806   2
  -4  -1  14 5223.11 145.274   2
  -4  -1  13-43.9221 99.2955   2
   4   1 -12-54.9148 77.8672   2
  -4  -1  11-15.8980 65.6976   2
  -4  -1   9 510.517 48.8450   2
   4   1  -8-20.7755 24.3060   2
  -4  -1   7 49.9132 18.4423   2
  -4  -1   6 137.151 22.7160   2
  -4  -1   5 6.50998 21.4152   2
  -4  -1   4 159.958 23.9882   2
  -4  -1   3 46.0544 14.9875   2
  -4  -1   2 609.312 25.5850   2
  -4  -1   1 1370.17 29.8268   2
  -4  -1   0 111.342 22.2418   2
  -4  -1  -1 17.8070 22.0321   2
  -4  -1  -2 394.648 48.4717   2
  -4  -1  -3-29.7678 45.4561   2
  -4  -1  -4 48.6289 50.8573   2
  -4  -2  15 1254.71 129.611   2
  -4  -2  14 1704.06 122.137   2
  -4  -2  13 972.929 92.2146   2
  -4  -2  12 149.168 132.482   2
  -4  -2  11 315.681 63.2984   2
  -4  -2   9 993.576 49.7330   2
  -4  -2   8 4.16335 29.0232   2
  -4  -2   7 40.6976 31.8126   2
  -4  -2   6 142.312 27.3637   2
  -4  -2   5 5.19197 35.9634   2
   4   3 -15-337.271 153.305   2
  -4  -3  14-302.776 125.155   2
  -4  -3  13 1037.23 227.341   2
  -4  -3  12 452.776 171.414   2
  -4  -3  11 20.5889 143.224   2
  -5   4  -4 243.539 50.8860   2
  -5   4  -5 170.261 42.2593   2
  -5   3   7 3480.57 273.409   2
  -5   3   6 10738.4 134.797   2
  -5   3   5 454.782 59.0433   2
  -5   3   4 127.286 56.7042   2
   5  -3  -3 247.279 37.4158   2
   5  -3  -2 35.3653 34.6938   2
  -5   3   1 177.146 35.9990   2
   5  -3   0 80.8108 32.5907   2
   5  -3   1 49.5954 32.6002   2
  -5   3  -2 608.178 37.7539   2
   5  -3   3 560.943 37.6364   2
   5  -3   4 139.480 33.6193   2
  -5   3  -5 38.9598 33.9271   2
  -5   2  13 320.361 149.242   2
  -5   2  12 14.0706 140.468   2
  -5   2  11 386.247 128.920   2
   5  -2 -10-173.875 114.609   2
   5  -2  -9-2857.72 658.965   2
   5  -2  -8 29.9277 89.7494   2
   5  -2  -7 33.6823 40.1527   2
   5  -2  -6 415.893 37.2496   2
   5  -2  -5 81.8166 34.9013   2
   5  -2  -4 25.5768 32.4396   2
   5  -2  -3 424.957 34.0109   2
  -5   2   2 91.0334 32.0086   2
  -5   2   1 326.888 32.7409   2
   5  -2   0 22.5267 29.6997   2
  -5   2  -1 1005.03 37.7756   2
  -5   2  -2 327.146 33.7189   2
  -5   2  -3 527.092 36.5470   2
  -5   2  -4 1.27460 27.3732   2
   5  -1 -14 192.275 132.654   2
   5  -1 -13 275.710 112.476   2
   5  -1 -12 122.008 93.7176   2
   5  -1 -11 88.3664 81.4274   2
   5  -1 -10 30.7266 79.7356   2
  -5   1   9-6.86404 64.4739   2
   5  -1  -8 80.3037 53.5828   2
   5  -1  -7 13.3859 25.5059   2
   5  -1  -6 82.3492 28.0427   2
  -5   1   5 211.854 32.9336   2
   5  -1  -4 208.634 32.0815   2
  -5   1   3 987.913 36.2059   2
   5  -1  -2 243.722 30.3470   2
  -5   1   1 91.1799 24.9400   2
  -5   1   0 482.804 27.1303   2
  -5   1  -1 2634.91 36.8699   2
   5  -1   2 41.1404 31.1116   2
   5  -1   3 9.64667 27.6701   2
   5  -1   4 92.2618 27.2300   2
  -5   0  14 491.297 116.089   2
   5   0 -13 1479.80 487.233   2
  -5   0  12 186.331 81.2489   2
   5   0 -11 278.100 70.2270   2
   5   0 -10-227.826 449.017   2
  -5   0   9 114.325 48.5751   2
   5   0  -8 321.747 30.2480   2
  -5   0   7 45.0378 22.4320   2
   5   0  -6-5.35171 22.1906   2
  -5   0   5 570.220 30.0190   2
   5   0  -4 65.5677 26.6596   2
  -5   0   3-31.0339 27.8672   2
  -5   0   2 693.314 28.8154   2
  -5   0   1 105.028 25.5355   2
  -5   0   0 141.926 29.8419   2
  -5   0  -1 548.231 32.4754   2
  -5   0  -2 279.908 27.7949   2
   5   0   3 161.566 27.2602   2
   5   0   4-4.54982 26.8259   2
  -5  -1  14 932.768 107.632   2
  -5  -1  13 368.706 89.9139   2
  -5  -1  12 146.833 76.2071   2
  -5  -1  11 324.697 64.1442   2
  -5  -1   9 147.907 93.2091   2
   5   1  -8 191.780 25.3677   2
  -5  -1   7 118.736 23.1628   2
  -5  -1   6 159.843 37.9819   2
  -5  -1   5 2.02004 30.4010   2
  -5  -1   4 28.2142 30.2027   2
  -5  -1   3 654.396 33.8085   2
  -5  -1   2 5.12642 28.9968   2
  -5  -1   1 19.1528 29.0610   2
  -5  -1   0 40.9683 30.0771   2
  -5  -1  -1 413.225 32.8067   2
  -5  -1  -2 1298.36 67.1289   2
  -5  -1  -3-27.8030 56.2399   2
  -5  -2  15 368.740 131.307   2
  -5  -2  14 406.421 102.904   2
  -5  -2  13 267.377 89.0475   2
  -5  -2  12 233.806 75.7677   2
  -5  -2  11-15.6456 64.5023   2
  -5  -2   9 41.3915 114.157   2
  -5  -2   8 1359.74 60.0862   2
  -5  -2   6 32.9869 49.7270   2
  -5  -2   5-0.96235 46.3727   2
  -5  -3  15 94.9773 369.014   2
  -5  -3  14 27.1192 276.086   2
  -5  -3  13 1245.06 217.212   2
  -6   4  -1 786.292 58.9412   2
  -6   4  -2 134.139 54.3325   2
  -6   4  -3-13.7384 52.5891   2
  -6   4  -4 30.3797 51.2823   2
  -6   4  -5 23.7731 51.3488   2
  -6   3   6 908.201 80.2465   2
   6  -3  -5 18.0275 43.2945   2
  -6   3   4 21.6207 58.0892   2
   6  -3  -3 123.676 58.7959   2
  -6   3   2 46.6700 41.7180   2
  -6   3   1 42.7501 40.1545   2
  -6   3   0 392.998 42.6713   2
  -6   3  -1 598.516 44.5732   2
   6  -3   2 54.3951 41.3013   2
   6  -3   3 134.802 47.2139   2
   6  -3   4 73.4609 42.5846   2
  -6   2   7 61.8154 46.1158   2
   6  -2  -6 217.525 45.0939   2
   6  -2  -5 155.656 42.2208   2
  -6   2   4 438.863 42.3433   2
  -6   2   3 267.546 41.8843   2
   6  -2  -2 40.8547 38.7071   2
  -6   2   1-10.8170 37.7083   2
  -6   2   0 17903.7 102.326   2
  -6   2  -1 10062.5 81.7325   2
   6  -2   2 404.630 42.4082   2
   6  -2   3-10.8517 34.9380   2
   6  -2   4 331.504 34.5390   2
   6  -1  -8 22.6796 42.5453   2
   6  -1  -7 66.6039 37.7881   2
  -6   1   6 59.0369 35.0587   2
  -6   1   5 3472.71 49.6555   2
  -6   1   4 4460.65 51.9202   2
  -6   1   3 386.308 33.8701   2
   6  -1  -2 46.1812 31.0032   2
  -6   1   1 2453.64 42.7540   2
  -6   1   0 12370.0 72.2642   2
   6  -1   1 220.094 32.6215   2
   6  -1   2 22.6245 33.9621   2
  -6   1  -3 24.6263 33.0558   2
   6  -1   4 93.3626 44.1301   2
   6   0  -8 84.3923 37.2163   2
   6   0  -7 46.1838 34.8686   2
  -6   0   6 117.973 39.7969   2
  -6   0   5 1112.16 38.4130   2
   6   0  -4 113.829 33.6239   2
  -6   0   3 12.2242 32.1310   2
  -6   0   2 77.2509 31.7986   2
  -6   0   1 515.911 34.4659   2
  -6   0   0 58.3949 32.8103   2
  -6   0  -1 116.802 33.7723   2
  -6   0  -2-10.1464 33.0695   2
   6   0   3 76.6383 33.1846   2
   6   1  -8 34.5162 34.5207   2
   6   1  -7 12.1045 33.3743   2
  -6  -1   6 200.582 34.1524   2
  -6  -1   5 38.7912 39.9234   2
  -6  -1   4 24.7824 38.6103   2
  -6  -1   3-53.8734 36.2714   2
  -6  -1   2 83.4488 36.9819   2
  -6  -1   1 9.81012 36.6400   2
  -6  -1   0-15.6735 37.1925   2
  -6  -1  -1-4.11998 36.6854   2
  -6  -1  -2 279.797 68.7028   2
  -6  -1  -3 141.994 75.2813   2
  -7   4   3 113.568 75.5959   2
   7  -4  -2 374.109 59.9069   2
   7  -4  -1 198.047 53.2960   2
   7  -4   0-22.4839 51.1047   2
   7  -4   1-37.1205 50.5870   2
   7  -4   2-26.6655 50.6537   2
   7  -4   3-121.847 85.1667   2
   7  -4   4 25.1972 54.6236   2
   7  -3  -7 410.308 64.1369   2
   7  -3  -6 144.709 63.9750   2
  -7   3   5 171.006 53.3621   2
   7  -3  -4 129.773 52.1578   2
  -7   3   3 184.100 50.4048   2
   7  -3  -2 117.873 49.8593   2
  -7   3   1 247.773 50.8083   2
   7  -3   0 151.329 49.6215   2
   7  -3   1 165.148 50.9517   2
   7  -3   2 196.082 51.3339   2
  -7   3  -3 122.908 52.1776   2
   7  -3   4 87.1468 43.5616   2
   7  -2  -8 92.0649 64.5091   2
  -7   2   7 321.161 49.7523   2
   7  -2  -6 107.252 53.5603   2
   7  -2  -5 53.9409 50.4596   2
  -7   2   4 46.8168 50.5449   2
   7  -2  -3-4.87721 49.1632   2
   7  -2  -2 0.94662 48.6752   2
   7  -2  -1 45.5842 41.1646   2
  -7   2   0 122.321 53.0734   2
  -7   2  -1 913.979 56.9036   2
  -7   2  -2 71.5627 48.6343   2
  -7   2  -3-15.0386 48.1656   2
  -7   2  -4 131.919 72.2870   2
   7  -1  -8 37.3924 49.9052   2
   7  -1  -7 1.24876 46.7594   2
  -7   1   6 61.7511 42.8016   2
   7  -1  -5 224.277 44.0003   2
   7  -1  -4 48.9998 41.7104   2
  -7   1   3 56.8147 39.5875   2
   7  -1  -2 351.838 41.8772   2
   7  -1  -1 119.690 41.9863   2
   7  -1   0 28.9966 40.7565   2
   7  -1   1 150.922 41.7513   2
   7  -1   2 340.508 43.2444   2
   7  -1   3 92.8191 47.4777   2
   7   0  -8 40.9116 45.9081   2
   7   0  -7 166.196 43.8602   2
   7   0  -6 23.8416 41.9491   2
   7   0  -5 48.0879 41.8638   2
   7   0  -4 37.0259 40.5381   2
   7   0  -3 11.7339 40.3903   2
  -7   0   2 64.6243 40.7103   2
  -7   0   1 38.2196 40.4016   2
   7   0   0 5.60843 40.2896   2
   7   0   1 45.2038 41.1154   2
   7   0   2 283.038 44.0572   2
   7   0   3 120.772 43.1483   2
   7   1  -9 6.93778 57.8875   2
   7   1  -8-22.7541 42.4151   2
  -7  -1   7 219.250 52.3206   2
   7   1  -6 29.7688 41.2142   2
   7   1  -5 7.99123 40.2508   2
   7   1  -4-7.16297 39.7136   2
  -7  -1   3 1060.98 54.4747   2
  -7  -1   2 493.321 50.2330   2
  -7  -1   1-17.5957 46.4430   2
  -7  -1   0-7.27368 46.2675   2
  -7  -1  -1 318.552 93.2634   2
  -7  -1  -2 300.427 93.7073   2
  -7  -2   9 125.208 53.4171   2
  -7  -2   8 2545.93 98.4103   2
  -7  -2   7 2637.40 94.9982   2
  -7  -2   6 232.612 69.1061   2
  -8   4   5 330.966 98.3277   2
   8  -4  -4 75.3742 70.3412   2
   8  -4  -3-30.4888 63.1059   2
   8  -4  -2 101.399 62.2126   2
  -8   4   1 100.629 62.9612   2
   8  -4   0 155.667 62.6446   2
   8  -4   1 137.520 61.3400   2
   8  -4   2 103.636 65.6784   2
   8  -4   3-68.4923 63.9197   2
  -8   4  -4-67.7862 67.1099   2
   8  -3  -7-33.4278 71.0929   2
  -8   3   6 16.5028 65.6411   2
   8  -3  -5 57.5553 65.4315   2
   8  -3  -4 152.666 63.0122   2
  -8   3   3 196.643 69.2133   2
  -8   3   2 115.837 64.1248   2
   8  -3  -1 135.713 60.5429   2
   8  -3   0 819.259 66.4512   2
  -8   3  -1 2726.83 65.3946   2
   8  -3   2 130.145 53.1499   2
   8  -3   3 143.191 52.0473   2
  -8   2   8 90.8650 56.8880   2
   8  -2  -7 245.430 56.0749   2
   8  -2  -6 54.2364 52.4385   2
   8  -2  -5 115.574 53.2644   2
  -8   2   4 1606.45 61.0428   2
   8  -2  -3-1.63496 50.7107   2
  -8   2   2 80.2144 51.5173   2
  -8   2   1 726.363 53.6704   2
  -8   2   0 7465.71 81.8611   2
  -8   2  -1 1851.51 59.0982   2
  -8   2  -3 23.9700 52.8474   2
   8  -1  -8 164.198 61.6773   2
  -8   1   7 39.8484 54.5624   2
   8  -1  -6 59.2696 53.5366   2
  -8   1   5 1482.42 60.2152   2
  -8   1   4 611.243 56.1873   2
  -8   1   3 103.670 51.7427   2
   8  -1  -2 38.5491 50.7551   2
  -8   1   1 114.957 50.5827   2
   8  -1   0 529.124 52.8782   2
   8  -1   1 8.70842 50.3109   2
   8  -1   2 25.8527 51.3471   2
   8  -1   3 60.2966 52.6137   2
   8   0  -9 157.753 69.7031   2
   8   0  -8 55.7127 57.1181   2
   8   0  -7 26.1123 52.3646   2
   8   0  -6 68.1143 53.4898   2
   8   0  -5-2.43767 51.6344   2
   8   0  -4-59.5173 50.8145   2
   8   0  -3 5.71440 50.5827   2
   8   0  -2-11.3052 50.4972   2
   8   0  -1 160.095 50.2517   2
   8   0   0 68.1232 51.6912   2
   8   0   1-21.4520 50.0107   2
   8   0   2 46.1831 52.7071   2
   8   1  -9 123.580 54.5582   2
   8   1  -8 0.48054 57.8776   2
   8   1  -7 38.5241 52.2875   2
   8   1  -6 15.3651 50.5775   2
   8   1  -5 28.0608 53.2364   2
   8   1  -4-13.7986 50.0241   2
   8   1  -3 56.2211 50.7036   2
   8   1  -2 246.264 51.8796   2
   8   1  -1-58.0711 49.0439   2
   8   1   0 23.7497 70.5824   2
   8   1   1 5.04621 74.9416   2
   8   2  -9 38.8282 63.1342   2
  -9   4   6 1327.11 143.580   2
  -9   4   5-124.636 120.650   2
   9  -4  -4-106.716 79.3065   2
   9  -4  -3-56.6391 77.8627   2
   9  -4  -2-53.6953 76.7424   2
   9  -4   0 131.211 78.3069   2
   9  -4   1 119.992 79.5081   2
   9  -4   2 41.2050 81.5884   2
   9  -4   3 59.0986 61.9506   2
   9  -3  -8-50.1384 67.6989   2
   9  -3  -7 53.2091 68.8705   2
   9  -3  -6 113.885 68.1250   2
   9  -3  -5 120.990 69.3792   2
  -9   3   4 201.375 67.8893   2
   9  -3  -3 280.081 66.9396   2
   9  -3  -2 163.658 64.0328   2
   9  -3  -1 212.456 62.6949   2
   9  -3   0 165.153 60.4982   2
   9  -3   1 185.005 62.0392   2
  -9   3  -2 133.108 65.7368   2
   9  -3   3 129.582 66.1445   2
   9  -2  -8 234.453 72.8447   2
   9  -2  -7 95.6003 67.9271   2
   9  -2  -6 114.037 66.3199   2
   9  -2  -5 60.6454 63.9894   2
   9  -2  -4 6.61407 65.4000   2
   9  -2  -3-15.0917 64.4204   2
   9  -2  -2-45.4544 65.3746   2
   9  -2  -1 55.6408 65.9568   2
   9  -2   0 24.7900 63.7421   2
   9  -2   1 390.715 66.4606   2
   9  -2   2 69.9159 65.6735   2
  -9   2  -3 12.2836 119.246   2
   9  -1  -9 90.1547 147.455   2
   9  -1  -8 33.0748 67.9708   2
   9  -1  -7 51.4250 67.5795   2
  -9   1   6 53.2900 65.6758   2
  -9   1   5 72.5312 64.8018   2
   9  -1  -4 114.663 64.9913   2
  -9   1   3 142.975 64.3824   2
  -9   1   2 102.370 63.8590   2
   9  -1  -1 118.621 63.6969   2
   9  -1   0 106.593 63.9626   2
  -9   1  -1 156.267 67.4174   2
   9  -1   2 27.4748 62.7883   2
  -9   0   9 19.7115 64.8056   2
   9   0  -8 66.0290 67.1952   2
   9   0  -7 62.8927 65.8868   2
   9   0  -6 8.37343 63.8188   2
   9   0  -5-1.55835 73.5313   2
   9   0  -4-12.8852 62.7536   2
   9   0  -3 67.1426 62.8777   2
   9   0  -2 105.466 63.1157   2
   9   0  -1-25.7040 63.1465   2
   9   0   0-46.3145 65.6333   2
   9   0   1-0.62555 63.0565   2
   9   0   2 399.235 64.0100   2
   9   1  -9 49.6878 63.4815   2
   9   1  -8 248.769 65.6847   2
  -9  -1   7 949.625 70.5941   2
   9   1  -5 42.1395 66.0614   2
   9   1  -4 66.6933 63.6761   2
  -9  -1   3 979.072 68.4667   2
   9   1  -2 188.207 65.2967   2
   9   1  -1 15.4790 84.8987   2
  10  -4  -1 192.590 138.649   2
  10  -4   0 227.561 141.418   2
  10  -4   1 263.907 144.441   2
  10  -4   2-38.7057 145.279   2
  10  -4   3-236.649 147.500   2
  10  -3  -4 446.500 123.904   2
  10  -3  -3 343.331 94.6020   2
  10  -3  -2 484.663 131.827   2
  10  -3  -1 692.760 135.525   2
 -10   3   0 2606.26 151.206   2
 -10   3  -1 2118.73 151.607   2
 -10   3  -2 343.686 89.6134   2
  10  -2  -5 408.659 112.915   2
  10  -2  -4 412.069 115.830   2
  10  -2  -3-156.420 121.149   2
  10  -2  -2 43.4188 95.1133   2
  10  -2  -1 216.923 97.4233   2
  10  -2   0 927.358 132.324   2
  10  -2   1 136.643 101.517   2
  10  -2   2-26.1137 82.2000   2
  10  -1  -4 143.583 109.428   2
 -10   1   3-12.9568 109.890   2
  10  -1  -2 175.856 111.823   2
 -10   1   1 84.3455 114.949   2
 -10   1   0 27.3997 116.862   2
  10  -1   1 210.573 151.542   2
;
_shelx_hkl_checksum              98076
_olex2_submission_special_instructions 'No special instructions were received'
loop_
_space_group_symop_operation_xyz
'x, y, z'
'-x, -y, -z'
loop_
_atom_site_label
_atom_site_type_symbol
_atom_site_fract_x
_atom_site_fract_y
_atom_site_fract_z
_atom_site_U_iso_or_equiv
_atom_site_adp_type
_atom_site_occupancy
_atom_site_site_symmetry_order
_atom_site_calc_flag
_atom_site_refinement_flags_posn
C2 C 0.7115(5) 0.3447(5) 0.4477(6) 0.0176(10) Uani 1 1 d .
C12 C 0.7998(5) 0.6699(6) 0.4963(7) 0.0187(10) Uani 1 1 d .
C15 C 0.7566(5) 0.5235(5) 0.5442(6) 0.0164(10) Uani 1 1 d .
C5 C 0.7214(5) 0.4225(6) 0.7409(7) 0.0239(13) Uani 1 1 d .
C9 C 0.8057(6) 0.7446(6) 0.7857(6) 0.0197(10) Uani 1 1 d .
C4 C 0.6793(6) 0.2425(6) 0.6409(7) 0.0217(11) Uani 1 1 d .
H4 H 0.655284 0.148997 0.673094 0.026 Uiso 1 1 calc R
C11 C 0.8457(6) 0.8496(6) 0.5962(8) 0.0261(14) Uani 1 1 d .
H11 H 0.874676 0.943681 0.565017 0.031 Uiso 1 1 calc R
O1 O 0.5931(5) -0.0149(5) 0.1943(6) 0.0517(14) Uani 1 1 d .
C16 C 0.7645(5) 0.5661(6) 0.6914(7) 0.0197(12) Uani 1 1 d .
C13 C 0.7932(6) 0.6304(6) 0.3531(7) 0.0245(12) Uani 1 1 d .
H13 H 0.819398 0.723898 0.320999 0.029 Uiso 1 1 calc R
C3 C 0.6727(6) 0.2021(6) 0.5014(7) 0.0232(12) Uani 1 1 d .
H3 H 0.643312 0.082879 0.439925 0.028 Uiso 1 1 calc R
C14 C 0.7486(5) 0.4549(6) 0.2574(6) 0.0241(10) Uani 1 1 d .
H14 H 0.748355 0.432819 0.162721 0.029 Uiso 1 1 calc R
C1 C 0.7032(5) 0.3085(6) 0.3012(6) 0.0180(9) Uani 1 1 d .
C10 C 0.8485(6) 0.8877(6) 0.7337(7) 0.0232(12) Uani 1 1 d .
H10 H 0.878044 1.006606 0.795782 0.028 Uiso 1 1 calc R
C6 C 0.7235(7) 0.4631(7) 0.8823(7) 0.0303(12) Uani 1 1 d .
H6 H 0.699537 0.370743 0.915787 0.036 Uiso 1 1 calc R
C17 C 0.6499(6) 0.1337(6) 0.1894(7) 0.0307(13) Uani 1 1 d .
H17 H 0.660150 0.133457 0.100434 0.037 Uiso 1 1 calc R
C8 C 0.8035(6) 0.7811(7) 0.9278(7) 0.0295(13) Uani 1 1 d .
H8 H 0.830323 0.899307 0.990807 0.035 Uiso 1 1 calc R
C7 C 0.7607(7) 0.6396(7) 0.9756(7) 0.0359(13) Uani 1 1 d .
H7 H 0.757314 0.664228 1.070054 0.043 Uiso 1 1 calc R
loop_
_atom_site_aniso_label
_atom_site_aniso_U_11
_atom_site_aniso_U_22
_atom_site_aniso_U_33
_atom_site_aniso_U_23
_atom_site_aniso_U_13
_atom_site_aniso_U_12
C2 0.0164(14) 0.018(3) 0.016(3) 0.005(3) 0.002(2) 0.0045(15)
C12 0.0228(16) 0.018(3) 0.016(3) 0.007(3) 0.004(2) 0.0071(16)
C15 0.0196(15) 0.016(3) 0.014(3) 0.006(3) 0.004(2) 0.0061(16)
C5 0.0252(17) 0.023(3) 0.029(4) 0.016(4) 0.007(3) 0.0075(17)
C9 0.0242(16) 0.022(3) 0.013(3) 0.005(3) 0.004(2) 0.0068(17)
C4 0.0296(18) 0.016(2) 0.022(3) 0.010(3) 0.008(3) 0.0055(17)
C11 0.0286(18) 0.019(3) 0.039(4) 0.019(4) 0.011(3) 0.0089(17)
O1 0.072(2) 0.025(2) 0.053(4) 0.005(3) 0.031(3) 0.0049(17)
C16 0.0190(15) 0.019(3) 0.022(3) 0.010(4) 0.004(2) 0.0047(16)
C13 0.0299(18) 0.025(3) 0.025(3) 0.014(4) 0.010(3) 0.0095(18)
C3 0.0285(18) 0.019(3) 0.027(4) 0.012(4) 0.012(3) 0.0077(17)
C14 0.0320(18) 0.032(3) 0.014(3) 0.013(3) 0.011(2) 0.0096(18)
C1 0.0266(17) 0.023(3) 0.006(2) 0.004(3) 0.010(2) 0.0100(17)
C10 0.0315(18) 0.016(3) 0.020(3) 0.006(3) 0.005(3) 0.0060(17)
C6 0.049(2) 0.034(3) 0.015(3) 0.019(4) 0.007(3) 0.009(2)
C17 0.039(2) 0.035(3) 0.025(3) 0.013(4) 0.018(3) 0.013(2)
C8 0.038(2) 0.024(3) 0.024(4) 0.004(4) 0.009(3) 0.010(2)
C7 0.055(3) 0.041(3) 0.017(3) 0.016(4) 0.014(3) 0.013(2)
loop_
_atom_type_symbol
_atom_type_description
_atom_type_scat_dispersion_real
_atom_type_scat_dispersion_imag
_atom_type_scat_source
C C 0.0010 0.0010 'International Tables Vol C Tables 4.2.6.8 and 6.1.1.4'
H H 0.0000 0.0000 'International Tables Vol C Tables 4.2.6.8 and 6.1.1.4'
O O 0.0040 0.0030 'International Tables Vol C Tables 4.2.6.8 and 6.1.1.4'
loop_
_geom_angle_atom_site_label_1
_geom_angle_atom_site_label_2
_geom_angle_atom_site_label_3
_geom_angle
C15 C2 C3 118.3(5)
C15 C2 C1 119.7(4)
C1 C2 C3 122.0(5)
C11 C12 C15 119.2(5)
C13 C12 C15 118.6(5)
C13 C12 C11 122.1(4)
C2 C15 C12 120.3(5)
C2 C15 C16 121.7(4)
C16 C15 C12 118.0(4)
C4 C5 C16 118.2(5)
C6 C5 C4 122.8(4)
C6 C5 C16 119.0(5)
C16 C9 C10 119.2(5)
C8 C9 C16 119.6(4)
C8 C9 C10 121.2(5)
C5 C4 H4 118.5
C3 C4 C5 122.9(4)
C3 C4 H4 118.5
C12 C11 H11 118.9
C10 C11 C12 122.2(4)
C10 C11 H11 118.9
C15 C16 C5 118.8(5)
C9 C16 C15 121.1(4)
C9 C16 C5 120.1(5)
C12 C13 H13 119.3
C14 C13 C12 121.4(4)
C14 C13 H13 119.3
C2 C3 H3 120.0
C4 C3 C2 120.0(5)
C4 C3 H3 120.0
C13 C14 H14 119.5
C13 C14 C1 121.1(5)
C1 C14 H14 119.5
C2 C1 C17 126.1(4)
C14 C1 C2 118.8(4)
C14 C1 C17 115.1(5)
C9 C10 H10 119.9
C11 C10 C9 120.3(5)
C11 C10 H10 119.9
C5 C6 H6 119.4
C5 C6 C7 121.1(4)
C7 C6 H6 119.4
O1 C17 C1 129.5(6)
O1 C17 H17 115.3
C1 C17 H17 115.3
C9 C8 H8 120.0
C9 C8 C7 120.1(5)
C7 C8 H8 120.0
C6 C7 C8 120.2(5)
C6 C7 H7 119.9
C8 C7 H7 119.9
loop_
_geom_bond_atom_site_label_1
_geom_bond_atom_site_label_2
_geom_bond_distance
C2 C15 1.407(7)
C2 C3 1.451(5)
C2 C1 1.427(8)
C12 C15 1.442(5)
C12 C11 1.425(7)
C12 C13 1.392(9)
C15 C16 1.427(8)
C5 C4 1.429(7)
C5 C16 1.432(5)
C5 C6 1.379(9)
C9 C16 1.401(7)
C9 C10 1.446(5)
C9 C8 1.395(9)
C4 H4 0.9300
C4 C3 1.354(9)
C11 H11 0.9300
C11 C10 1.340(9)
O1 C17 1.226(5)
C13 H13 0.9300
C13 C14 1.385(7)
C3 H3 0.9300
C14 H14 0.9300
C14 C1 1.417(5)
C1 C17 1.439(7)
C10 H10 0.9300
C6 H6 0.9300
C6 C7 1.389(7)
C17 H17 0.9300
C8 H8 0.9300
C8 C7 1.405(6)
C7 H7 0.9300
loop_
_diffrn_oxdiff_twin_id
_diffrn_oxdiff_twin_ratio
_diffrn_oxdiff_twin_reflns_isolated
_diffrn_oxdiff_twin_reflns_overlapped
1 0.7601 3031 29
2 0.2399 2911 29
loop_
_twin_individual_id
_twin_individual_mass_fraction_refined
1 0.788(4)
2 0.212(4)

_cod_database_fobs_code 2108396
