#------------------------------------------------------------------------------
#$Date: 2018-09-27 04:58:13 +0300 (Thu, 27 Sep 2018) $
#$Revision: 211192 $
#$URL: file:///home/coder/svn-repositories/cod/cif/2/10/82/2108288.cif $
#------------------------------------------------------------------------------
#
# This file is available in the Crystallography Open Database (COD),
# http://www.crystallography.net/. The original data for this entry
# were provided by IUCr Journals, http://journals.iucr.org/.
#
# The file may be used within the scientific community so long as
# proper attribution is given to the journal article from which the
# data were obtained.
#
data_2108288
loop_
_publ_author_name
'Bujak, Maciej'
_publ_section_title
;
 Melting point, molecular symmetry and aggregation of tetrachlorobenzene
 isomers: the role of halogen bonding
;
_journal_coeditor_code           XK5047SUP1
_journal_issue                   5
_journal_name_full               'Acta Crystallographica Section B'
_journal_page_first              458
_journal_page_last               466
_journal_paper_doi               10.1107/S2052520618012295
_journal_volume                  74
_journal_year                    2018
_chemical_formula_moiety         'C6 H2 Cl4'
_chemical_formula_sum            'C6 H2 Cl4'
_chemical_formula_weight         215.88
_chemical_melting_point          320.7
_chemical_name_systematic
; 
 1,2,3,4-Tetrachlorobenzene 
;
_space_group_crystal_system      monoclinic
_space_group_IT_number           14
_space_group_name_Hall           '-P 2ybc'
_space_group_name_H-M_alt        'P 1 21/c 1'
_symmetry_space_group_name_Hall  '-P 2ybc'
_symmetry_space_group_name_H-M   'P 1 21/c 1'
_atom_sites_solution_hydrogens   difmap
_atom_sites_solution_primary     direct
_atom_sites_solution_secondary   difmap
_audit_creation_method           SHELXL-97
_cell_angle_alpha                90.00
_cell_angle_beta                 90.378(6)
_cell_angle_gamma                90.00
_cell_formula_units_Z            4
_cell_length_a                   3.8682(3)
_cell_length_b                   14.9766(9)
_cell_length_c                   13.4758(9)
_cell_measurement_reflns_used    2263
_cell_measurement_temperature    270.0(1)
_cell_measurement_theta_max      28.44
_cell_measurement_theta_min      3.30
_cell_volume                     780.67(9)
_computing_cell_refinement
'CrysAlisPro ver. 1.171.39.15e (Rigaku Oxford Diffraction, 2015)'
_computing_data_collection
'CrysAlis CCD ver. 1.171.33.57 (Oxford Diffraction Ltd., 2010)'
_computing_data_reduction
'CrysAlisPro ver. 1.171.39.15e (Rigaku Oxford Diffraction, 2015)'
_computing_molecular_graphics    'Mercury (C.F.Macrae at al., 2008)'
_computing_publication_material  'SHELXL-97 (G.M.Sheldrick, 2008, 2015)'
_computing_structure_refinement  'SHELXL-97 (G.M.Sheldrick, 2008, 2015)'
_computing_structure_solution    'SHELXS-97 (G.M.Sheldrick, 2008)'
_diffrn_ambient_temperature      270.(1)
_diffrn_measured_fraction_theta_full 0.988
_diffrn_measured_fraction_theta_max 0.988
_diffrn_measurement_device_type  Xcalibur
_diffrn_measurement_method       \w--scan
_diffrn_radiation_monochromator  graphite
_diffrn_radiation_source         'fine-focus sealed tube'
_diffrn_radiation_type           MoK\a
_diffrn_radiation_wavelength     0.71073
_diffrn_reflns_av_R_equivalents  0.0269
_diffrn_reflns_av_sigmaI/netI    0.0271
_diffrn_reflns_limit_h_max       4
_diffrn_reflns_limit_h_min       -4
_diffrn_reflns_limit_k_max       18
_diffrn_reflns_limit_k_min       -15
_diffrn_reflns_limit_l_max       16
_diffrn_reflns_limit_l_min       -16
_diffrn_reflns_number            5063
_diffrn_reflns_theta_full        26.00
_diffrn_reflns_theta_max         26.00
_diffrn_reflns_theta_min         3.02
_exptl_absorpt_coefficient_mu    1.426
_exptl_absorpt_correction_T_max  1.000
_exptl_absorpt_correction_T_min  0.906
_exptl_absorpt_correction_type   multi-scan
_exptl_absorpt_process_details
;
CrysAlisPro ver. 1.171.39.15e (Rigaku Oxford Diffraction, 2015)
Empirical absorption correction using spherical harmonics,
implemented in SCALE3 ABSPACK scaling algorithm.
;
_exptl_crystal_colour            colourless
_exptl_crystal_density_diffrn    1.837
_exptl_crystal_density_method    'not measured'
_exptl_crystal_description       tabular
_exptl_crystal_F_000             424
_exptl_crystal_size_max          0.46
_exptl_crystal_size_mid          0.35
_exptl_crystal_size_min          0.26
_refine_diff_density_max         0.575
_refine_diff_density_min         -0.418
_refine_diff_density_rms         0.088
_refine_ls_extinction_coef       0.019(3)
_refine_ls_extinction_expression Fc^*^=kFc[1+0.001xFc^2^\l^3^/sin(2\q)]^-1/4^
_refine_ls_extinction_method     SHELXL
_refine_ls_goodness_of_fit_ref   1.089
_refine_ls_hydrogen_treatment    constr
_refine_ls_matrix_type           full
_refine_ls_number_parameters     92
_refine_ls_number_reflns         1520
_refine_ls_number_restraints     0
_refine_ls_restrained_S_all      1.089
_refine_ls_R_factor_all          0.0761
_refine_ls_R_factor_gt           0.0651
_refine_ls_shift/su_max          0.000
_refine_ls_shift/su_mean         0.000
_refine_ls_structure_factor_coef Fsqd
_refine_ls_weighting_details
'calc w=1/[\s^2^(Fo^2^)+(0.0378P)^2^+3.6776P] where P=(Fo^2^+2Fc^2^)/3'
_refine_ls_weighting_scheme      calc
_refine_ls_wR_factor_gt          0.1556
_refine_ls_wR_factor_ref         0.1595
_reflns_number_gt                1252
_reflns_number_total             1520
_reflns_threshold_expression     >2sigma(I)
_cod_data_source_file            xk5047sup1.cif
_cod_data_source_block           1234TCB_270K
_cod_depositor_comments
;
The following automatic conversions were performed:

'_space_group_crystal_system' value 'Monoclinic' changed to
'monoclinic' according to
/home/data/users/saulius/crontab/automatic-downloads/rss-feeds/IUCr/lib/dictionaries/cif_core.dic
dictionary named 'cif_core.dic' version 2.4.2 from 2011-04-26.

Automatic conversion script
Id: cif_fix_values 4973 2017-02-22 13:04:09Z antanas 
;
_cod_database_code               2108288
loop_
_symmetry_equiv_pos_as_xyz
'x, y, z'
'-x, y+1/2, -z+1/2'
'-x, -y, -z'
'x, -y-1/2, z-1/2'
loop_
_atom_site_label
_atom_site_type_symbol
_atom_site_fract_x
_atom_site_fract_y
_atom_site_fract_z
_atom_site_U_iso_or_equiv
_atom_site_adp_type
_atom_site_occupancy
_atom_site_symmetry_multiplicity
_atom_site_calc_flag
_atom_site_refinement_flags
C1 C 0.1255(15) 0.2526(4) 0.1690(4) 0.0465(13) Uani 1 1 d .
Cl1 Cl -0.0467(5) 0.17466(11) 0.08858(14) 0.0678(6) Uani 1 1 d .
C2 C 0.1635(15) 0.3405(4) 0.1405(4) 0.0442(13) Uani 1 1 d .
Cl2 Cl 0.0361(5) 0.37454(12) 0.02399(11) 0.0652(5) Uani 1 1 d .
C3 C 0.3085(15) 0.4016(4) 0.2066(4) 0.0452(12) Uani 1 1 d .
Cl3 Cl 0.3591(5) 0.51143(11) 0.17090(15) 0.0717(6) Uani 1 1 d .
C4 C 0.4055(15) 0.3748(4) 0.3011(4) 0.0457(13) Uani 1 1 d .
Cl4 Cl 0.5782(5) 0.45067(13) 0.38398(13) 0.0686(6) Uani 1 1 d .
C5 C 0.3675(17) 0.2864(4) 0.3293(4) 0.0558(15) Uani 1 1 d .
H5 H 0.4347 0.2679 0.3924 0.067 Uiso 1 1 calc R
C6 C 0.2285(17) 0.2259(4) 0.2625(5) 0.0584(16) Uani 1 1 d .
H6 H 0.2042 0.1664 0.2809 0.070 Uiso 1 1 calc R
loop_
_atom_site_aniso_label
_atom_site_aniso_U_11
_atom_site_aniso_U_22
_atom_site_aniso_U_33
_atom_site_aniso_U_23
_atom_site_aniso_U_13
_atom_site_aniso_U_12
C1 0.044(3) 0.043(3) 0.053(3) -0.006(2) 0.010(2) 0.004(2)
Cl1 0.0696(11) 0.0536(9) 0.0803(12) -0.0189(8) -0.0022(9) -0.0056(8)
C2 0.045(3) 0.048(3) 0.040(3) -0.001(2) 0.004(2) 0.004(2)
Cl2 0.0831(12) 0.0678(11) 0.0448(8) 0.0051(7) -0.0101(8) 0.0067(9)
C3 0.044(3) 0.043(3) 0.049(3) -0.001(2) 0.001(2) 0.004(2)
Cl3 0.0909(13) 0.0417(9) 0.0825(12) 0.0090(8) -0.0106(10) -0.0050(8)
C4 0.044(3) 0.051(3) 0.042(3) -0.005(2) 0.002(2) 0.004(3)
Cl4 0.0689(11) 0.0777(12) 0.0591(10) -0.0215(8) -0.0092(8) 0.0033(9)
C5 0.061(4) 0.065(4) 0.041(3) 0.012(3) -0.001(3) 0.007(3)
C6 0.065(4) 0.042(3) 0.069(4) 0.017(3) 0.003(3) 0.001(3)
loop_
_atom_type_symbol
_atom_type_description
_atom_type_scat_dispersion_real
_atom_type_scat_dispersion_imag
_atom_type_scat_source
C C 0.0033 0.0016 'International Tables Vol C Tables 4.2.6.8 and 6.1.1.4'
H H 0.0000 0.0000 'International Tables Vol C Tables 4.2.6.8 and 6.1.1.4'
Cl Cl 0.1484 0.1585 'International Tables Vol C Tables 4.2.6.8 and 6.1.1.4'
loop_
_geom_angle_atom_site_label_1
_geom_angle_atom_site_label_2
_geom_angle_atom_site_label_3
_geom_angle
C6 C1 C2 120.1(5)
C6 C1 Cl1 119.1(5)
C2 C1 Cl1 120.8(5)
C1 C2 C3 119.5(5)
C1 C2 Cl2 120.4(4)
C3 C2 Cl2 120.1(4)
C4 C3 C2 120.2(5)
C4 C3 Cl3 120.2(4)
C2 C3 Cl3 119.6(4)
C3 C4 C5 120.1(5)
C3 C4 Cl4 120.4(5)
C5 C4 Cl4 119.5(4)
C6 C5 C4 119.2(5)
C6 C5 H5 120.4
C4 C5 H5 120.4
C1 C6 C5 120.9(5)
C1 C6 H6 119.6
C5 C6 H6 119.6
loop_
_geom_bond_atom_site_label_1
_geom_bond_atom_site_label_2
_geom_bond_distance
C1 C6 1.378(8)
C1 C2 1.380(8)
C1 Cl1 1.724(6)
C2 C3 1.393(8)
C2 Cl2 1.720(6)
C3 C4 1.384(8)
C3 Cl3 1.725(6)
C4 C5 1.387(8)
C4 Cl4 1.725(6)
C5 C6 1.384(9)
C5 H5 0.9300
C6 H6 0.9300
loop_
_geom_torsion_atom_site_label_1
_geom_torsion_atom_site_label_2
_geom_torsion_atom_site_label_3
_geom_torsion_atom_site_label_4
_geom_torsion
C6 C1 C2 C3 0.4(8)
Cl1 C1 C2 C3 -179.0(4)
C6 C1 C2 Cl2 180.0(5)
Cl1 C1 C2 Cl2 0.6(7)
C1 C2 C3 C4 -1.7(8)
Cl2 C2 C3 C4 178.8(4)
C1 C2 C3 Cl3 179.6(4)
Cl2 C2 C3 Cl3 0.0(7)
C2 C3 C4 C5 1.8(9)
Cl3 C3 C4 C5 -179.4(5)
C2 C3 C4 Cl4 -178.9(4)
Cl3 C3 C4 Cl4 -0.1(7)
C3 C4 C5 C6 -0.7(9)
Cl4 C4 C5 C6 179.9(5)
C2 C1 C6 C5 0.7(9)
Cl1 C1 C6 C5 -179.9(5)
C4 C5 C6 C1 -0.5(10)

_cod_database_fobs_code 2108288
