#------------------------------------------------------------------------------
#$Date: 2021-09-22 04:47:00 +0300 (Wed, 22 Sep 2021) $
#$Revision: 269240 $
#$URL: file:///home/coder/svn-repositories/cod/cif/2/10/88/2108877.cif $
#------------------------------------------------------------------------------
#
# This file is available in the Crystallography Open Database (COD),
# http://www.crystallography.net/. The original data for this entry
# were provided by IUCr Journals, http://journals.iucr.org/.
#
# The file may be used within the scientific community so long as
# proper attribution is given to the journal article from which the
# data were obtained.
#
data_2108877
loop_
_publ_author_name
'Novelli, Giulia'
'McMonagle, Charles J.'
'Kleemiss, Florian'
'Probert, Michael'
'Puschmann, Horst'
'Grabowsky, Simon'
'Maynard-Casely, Helen E.'
'McIntyre, Garry J.'
'Parsons, Simon'
_publ_section_title
;
 Accurate H-atom parameters for the two polymorphs of
 <small>L</small>-histidine at 5, 105 and 295K
;
_journal_issue                   5
_journal_name_full               'Acta Crystallographica Section B'
_journal_page_first
;
;
_journal_paper_doi               10.1107/S205252062100740X
_journal_volume                  77
_journal_year                    2021
_chemical_absolute_configuration syn
_chemical_formula_moiety         'C6 H9 N3 O2'
_chemical_formula_sum            'C6 H9 N3 O2'
_chemical_formula_weight         155.16
_chemical_name_common            L-histidine
_chemical_name_systematic        '2-Amino-3-(1H-imidazol-4-yl)propanoic acid'
_space_group_crystal_system      monoclinic
_space_group_IT_number           4
_space_group_name_Hall           'P 2yb'
_space_group_name_H-M_alt        'P 1 21 1'
_atom_sites_solution_hydrogens   difmap
_audit_creation_date             2021-01-18
_audit_creation_method
;
Olex2 1.3
(compiled 2020.11.12 svn.r5f609507 for OlexSys, GUI svn.r6226)
;
_cell_angle_alpha                90
_cell_angle_beta                 97.316(3)
_cell_angle_gamma                90
_cell_formula_units_Z            2
_cell_length_a                   5.1656(2)
_cell_length_b                   7.2761(3)
_cell_length_c                   9.4978(3)
_cell_measurement_reflns_used    2706
_cell_measurement_temperature    105
_cell_measurement_theta_max      30.42
_cell_measurement_theta_min      3.54
_cell_volume                     354.07(2)
_computing_cell_refinement       'LaueG (Piltz, 2011)'
_computing_data_collection       'MAATEL/ANSTO control program'
_computing_data_reduction
'argonne_boxes (Wilkinson et al., 1988) & LaueG (Piltz, 2011)'
_computing_molecular_graphics    'Olex2 1.3 (Dolomanov et al., 2009)'
_computing_publication_material  'Olex2 1.3 (Dolomanov et al., 2009)'
_computing_structure_refinement  'XL  (Sheldrick, 2008)'
_computing_structure_solution    'from X-ray model at 105 K'
_diffrn_ambient_temperature      105
_diffrn_measured_fraction_theta_full 0.781
_diffrn_measured_fraction_theta_max 0.781
_diffrn_measurement_details      '20 images, exposure time   0 minutes'
_diffrn_measurement_device       'Laue image-plate diffractometer'
_diffrn_measurement_device_type  KOALA
_diffrn_measurement_method       Laue
_diffrn_radiation_probe          neutron
_diffrn_radiation_type           neutron
_diffrn_radiation_wavelength     0.80
_diffrn_reflns_av_R_equivalents  0.1491
_diffrn_reflns_av_unetI/netI     0.1891
_diffrn_reflns_limit_h_max       8
_diffrn_reflns_limit_h_min       -8
_diffrn_reflns_limit_k_max       12
_diffrn_reflns_limit_k_min       -12
_diffrn_reflns_limit_l_max       14
_diffrn_reflns_limit_l_min       -14
_diffrn_reflns_number            12588
_diffrn_reflns_reduction_process 'LaueG (Piltz, 2011)'
_diffrn_reflns_resolution_max    1.67
_diffrn_reflns_theta_full        70.81
_diffrn_reflns_theta_max         70.91
_diffrn_source                   'nuclear reactor'
_diffrn_source_details           'thermal neutrons, supermirror guides'
_diffrn_source_type
'OPAL reactor, ANSTO, Lucas Heights, Australia'
_exptl_absorpt_coefficient_mu    0.0
_exptl_absorpt_correction_type   none
_exptl_crystal_colour            colourless
_exptl_crystal_density_diffrn    1.455
_exptl_crystal_description       plate
_exptl_crystal_F_000             92
_exptl_crystal_size_max          0.45
_exptl_crystal_size_mid          0.35
_exptl_crystal_size_min          0.30
_refine_diff_density_max         1.12
_refine_diff_density_min         -1.178
_refine_diff_density_rms         0.263
_refine_ls_abs_structure_details
;
Absolute structure known from synthesis
;
_refine_ls_extinction_method     none
_refine_ls_goodness_of_fit_ref   1.004
_refine_ls_hydrogen_treatment    refall
_refine_ls_matrix_type           full
_refine_ls_number_parameters     181
_refine_ls_number_reflns         1292
_refine_ls_number_restraints     1
_refine_ls_restrained_S_all      1.003
_refine_ls_R_factor_all          0.1021
_refine_ls_R_factor_gt           0.0501
_refine_ls_shift/su_max          0.000
_refine_ls_shift/su_mean         0.000
_refine_ls_structure_factor_coef Fsqd
_refine_ls_weighting_details
'w=1/[\s^2^(Fo^2^)+(0.0300P)^2^] where P=(Fo^2^+2Fc^2^)/3'
_refine_ls_weighting_scheme      calc
_refine_ls_wR_factor_gt          0.0623
_refine_ls_wR_factor_ref         0.0714
_reflns_Friedel_coverage         0.000
_reflns_Friedel_fraction_full    0.000
_reflns_Friedel_fraction_max     0.000
_reflns_number_gt                939
_reflns_number_total             1359
_reflns_threshold_expression     'I > 2\s(I)'
_cod_data_source_file            um5050sup1.cif
_cod_data_source_block           HMTN01
_cod_database_code               2108877
_shelx_shelxl_version_number     2017/1
_shelx_space_group_comment
;
The symmetry employed for this shelxl refinement is uniquely defined
by the following loop, which should always be used as a source of
symmetry information in preference to the above space-group names.
They are only intended as comments.
;
_olex2_refinement_description
;
;
_shelx_res_file
;
TITL hmtx19_a.res in P2(1)
    hmtn01.res
    created by SHELXL-2017/1 at 09:47:01 on 18-Jan-2021
REM Old TITL HMTX19 in P2(1)
REM SHELXT solution in P2(1)
REM R1 0.076, Rweak 0.027, Alpha 0.003, Orientation as input
REM Flack x = 0.342 ( 1.559 ) from Parsons' quotients
REM Formula found by SHELXT: C7 N2 O1
CELL 0.8 5.1656 7.2761 9.4978 90 97.316 90
ZERR 2 0.0002 0.0003 0.0003 0 0.003 0
LATT -1
SYMM -X,0.5+Y,-Z
NEUT
SFAC  C 0.000 0 0 0 0 0 0 0 6.646 0 0 0 0 12.011
SFAC  H 0.000 0 0 0 0 0 0 0 -3.739 0 0 0 0 1.008
SFAC  N 0.000 0 0 0 0 0 0 0 9.36 0 0 0 0 14.007
SFAC  O 0.000 0 0 0 0 0 0 0 5.803 0 0 0 0 15.999
UNIT 12 18 6 4

RIGU

L.S. 99 0 0
PLAN  1
TEMP -168.15
CONF
BOND $H
list 4
MORE -1
fmap 2 53
acta
OMIT 0 10 9
OMIT -5 2 13
OMIT -3 5 13
OMIT -1 1 11
OMIT 4 5 11
OMIT 0 12 1
OMIT -2 3 12
OMIT -2 5 14
OMIT -4 4 13
OMIT -3 1 10
OMIT 2 0 9
OMIT -5 5 12
OMIT 0 2 11
OMIT 4 1 8
OMIT -5 8 8
OMIT -1 5 13
OMIT 5 2 8
OMIT -2 11 6
OMIT -1 9 10
OMIT 0 5 12
OMIT 2 4 11
OMIT 3 10 1
OMIT -5 1 12
OMIT 1 2 11
OMIT 4 4 11
OMIT 3 3 11
OMIT 3 0 8
OMIT -3 1 12
OMIT 3 4 11
OMIT 5 1 8
OMIT 2 3 11
OMIT 2 1 9
OMIT -3 4 13
OMIT -4 1 11
OMIT 1 11 6
OMIT 0 6 13
OMIT -2 1 11
OMIT -1 4 13
OMIT -3 2 12
OMIT 0 11 6
OMIT 5 4 9
OMIT 5 7 7
OMIT 5 9 2
OMIT -1 7 12
OMIT 4 2 9
OMIT 1 4 11
OMIT 6 0 7
OMIT 5 6 8
OMIT -6 1 12
OMIT 1 11 1
OMIT -5 0 12
OMIT 1 0 9
OMIT -3 2 11
OMIT -4 3 13
OMIT 6 5 7
OMIT -2 5 13
OMIT 5 3 8
OMIT 2 10 7
OMIT 7 6 1
OMIT 4 10 3
OMIT 0 8 11
OMIT 4 9 6
OMIT -5 3 13
OMIT 3 5 10
OMIT 2 1 8
OMIT -4 9 3
OMIT -6 7 8
REM <olex2.extras>
REM <HklSrc "%.\\HMTN01.hkl">
REM </olex2.extras>

WGHT    0.030000
FVAR       0.52420
O2    4    0.314381    0.451721    1.014300    11.00000    0.01002    0.01874 =
         0.01321    0.00251    0.00218   -0.00024
O1    4    0.740112    0.445771    1.098783    11.00000    0.01387    0.02131 =
         0.00919    0.00364    0.00246   -0.00037
N1    3    0.873584    0.634974    0.873676    11.00000    0.01107    0.01078 =
         0.00741    0.00030    0.00120   -0.00140
H1A   2    0.943685    0.639876    0.774664    11.00000    0.02496    0.03303 =
         0.01242   -0.00058    0.00781   -0.00578
H1B   2    1.015147    0.566251    0.942882    11.00000    0.02315    0.02610 =
         0.02379    0.00599   -0.00516   -0.00071
H1C   2    0.847590    0.767606    0.912895    11.00000    0.02689    0.01807 =
         0.02511   -0.00782    0.00159   -0.00131
N3    3    0.720879    0.444537    0.387765    11.00000    0.01686    0.01516 =
         0.00753    0.00126    0.00299    0.00056
H3    2    0.691527    0.436275    0.275970    11.00000    0.03021    0.03234 =
         0.01053   -0.00324    0.00066   -0.00141
N2    3    0.921236    0.516260    0.601610    11.00000    0.01336    0.01648 =
         0.00970   -0.00045    0.00162   -0.00304
C1    1    0.552852    0.474432    1.004074    11.00000    0.00931    0.01012 =
         0.00719    0.00155    0.00215    0.00122
C4    1    0.698579    0.414857    0.616422    11.00000    0.01245    0.01125 =
         0.00908    0.00036    0.00253   -0.00051
C6    1    0.572746    0.369523    0.483943    11.00000    0.01315    0.01295 =
         0.01132   -0.00236    0.00088   -0.00169
H6    2    0.397157    0.291697    0.453734    11.00000    0.02733    0.03946 =
         0.02400   -0.00561   -0.00095   -0.01466
C2    1    0.618984    0.535407    0.857406    11.00000    0.01016    0.00980 =
         0.00667    0.00170    0.00055   -0.00015
H2    2    0.468812    0.631629    0.808710    11.00000    0.02334    0.02359 =
         0.02009    0.00556    0.00049    0.00636
C5    1    0.926090    0.531372    0.462501    11.00000    0.01542    0.01504 =
         0.00825    0.00205    0.00318   -0.00105
H5    2    1.071902    0.604131    0.412381    11.00000    0.03350    0.04518 =
         0.02073    0.00404    0.00887   -0.01336
C3    1    0.630357    0.366247    0.760438    11.00000    0.01692    0.01008 =
         0.00821   -0.00098    0.00261   -0.00263
H3A   2    0.773521    0.266825    0.813842    11.00000    0.04531    0.01859 =
         0.02330    0.00489    0.00765    0.01022
H3B   2    0.438993    0.299886    0.751959    11.00000    0.03460    0.03631 =
         0.02383   -0.00797    0.01104   -0.02277
HKLF 4




REM  hmtx19_a.res in P2(1)
REM R1 =  0.0501 for     939 Fo > 4sig(Fo)  and  0.1021 for all    1292 data
REM    181 parameters refined using      1 restraints

END

WGHT      0.0177      0.0000

REM Highest difference peak  1.117,  deepest hole -1.178,  1-sigma level  0.263
Q1    1   0.6432  0.5453  1.0448  11.00000  0.05    1.12
;
_shelx_res_checksum              94242
_shelx_hkl_file
;
   0   1   1   102.6     5.1
   0   1   2    48.0     3.3
   0   1   3    91.8     2.5
   0   1   4    51.4     2.9
   0   1   5   575.6     8.5
   0   1   6   134.3     4.9
   0   1   7   654.4    14.2
   0   1   8   607.2    23.9
   0   1   9   -32.2    47.2
   0   1  10   115.5   146.4
   0   2   1    88.8     3.7
   0   2   3   130.0     6.9
   0   2   5  1173.5    42.6
   0   2   7   671.9    12.1
   0   2   9    37.7    25.3
   0   2  11  -138.3   158.9
   0   3   1     0.4     3.2
   0   3   2    47.9     2.6
   0   3   4    73.8     4.9
   0   3   5   199.2    11.9
   0   3   7   118.8     8.7
   0   3   8   144.9    11.1
   0   3  10   163.7    42.4
   0   3  11    93.8    99.1
   0   4   1   110.5     3.1
   0   4   3   594.8     8.6
   0   4   5   876.5    17.3
   0   4   7   217.0    10.7
   0   4   9    22.9    13.7
   0   4  11   131.3    51.7
   0   5   1   236.0     5.2
   0   5   2    -5.6     5.4
   0   5   3   117.6     6.9
   0   5   4    82.2     6.4
   0   5   6   655.1    17.2
   0   5   7   199.4    11.2
   0   5   8   113.5    11.2
   0   5   9   129.5    14.1
   0   5  11    28.9    29.2
   0   5  12   -45.8    97.2
   0   5  13   240.8   205.9
   0   6   1   685.9    11.4
   0   6   5    43.8    12.3
   0   6   7   194.4    15.7
   0   6  11    75.9    31.6
   0   6  13   204.3    83.3
   0   7   1   319.0    11.1
   0   7   2    40.9    10.3
   0   7   3   126.1    11.3
   0   7   4     7.9    10.5
   0   7   5    92.9    12.2
   0   7   6   268.8    12.0
   0   7   8   274.5    18.0
   0   7   9    44.3    24.9
   0   7  10   182.3    29.6
   0   7  11   -31.8    42.0
   0   7  12    63.6    60.5
   0   8   1   195.1    11.5
   0   8   3   127.4    11.9
   0   8   5   181.0    13.4
   0   8   7   138.2    17.1
   0   8   9   105.4    29.6
   0   8  11   144.0    55.2
   0   9   1    96.5    16.8
   0   9   2    36.5    16.9
   0   9   4    25.0    17.3
   0   9   5   321.9    19.8
   0   9   7   228.9    24.2
   0   9   8   304.0    37.5
   0   9  10    74.8    55.2
   0  10   1    -4.4    30.0
   0  10   3    48.8    27.1
   0  10   7    88.1    34.5
   0  10   9   658.6    77.3
   0  11   1   -50.4    63.0
   0  11   2   399.6    48.4
   0  11   3    37.6    46.8
   0  11   4    74.1    48.1
   0  11   5    28.6    49.8
   0  11   6   419.5    54.7
   0  12   1   -60.2   127.0
   1   0 -10   152.2   148.3
   1   0  -9   342.6    49.5
   1   0  -8    86.8    20.1
   1   0  -7    24.6    12.1
   1   0  -6    97.7     5.6
   1   0  -5   166.2     5.4
   1   0  -4   104.8     3.8
   1   0  -3   543.3    32.8
   1   0  -2    19.7     1.3
   1   0   0    91.4     2.0
   1   0   2   167.3     5.8
   1   0   3     2.9     3.2
   1   0   4   321.4     8.2
   1   0   5     7.5     3.9
   1   0   6    83.1     8.2
   1   0   7   269.2    19.7
   1   0   8  1081.1    71.4
   1   0   9   183.6   156.8
   1   1 -11   284.8   237.2
   1   1 -10    34.8    73.7
   1   1  -9    23.5    27.0
   1   1  -8   213.0    13.3
   1   1  -7   375.3     8.9
   1   1  -6   666.5     7.5
   1   1  -5   238.7     4.7
   1   1  -4   737.2    11.5
   1   1  -3   453.8     5.9
   1   1  -2   253.9     7.6
   1   1   1   335.6     4.6
   1   1   2    18.2     1.2
   1   1   3     9.4     1.3
   1   1   4  1168.2     7.2
   1   1   5    57.2     3.3
   1   1   6   128.0     5.2
   1   1   7   225.1    10.4
   1   1   8  1026.8    63.3
   1   1   9   352.9    68.2
   1   2 -11   155.8    77.7
   1   2 -10    74.1    36.8
   1   2  -9    11.6    18.7
   1   2  -8   129.5    11.9
   1   2  -7    -0.9     6.9
   1   2  -6   103.4     5.8
   1   2  -5   302.2     4.1
   1   2  -4    70.5     3.1
   1   2  -3   147.3     3.4
   1   2  -2   393.4     9.5
   1   2  -1   188.9     5.9
   1   2   0   306.0     4.9
   1   2   1   628.1     8.4
   1   2   2    83.7     2.8
   1   2   3   772.8     5.1
   1   2   4    21.1     4.3
   1   2   5   130.4     8.2
   1   2   6   647.9    14.4
   1   2   7   245.9    10.2
   1   2   8   734.7    30.5
   1   2   9    64.4    41.1
   1   2  10   147.3   103.8
   1   2  11   552.7   301.4
   1   3 -11   -26.5    40.6
   1   3 -10   278.8    25.6
   1   3  -9   363.7    15.0
   1   3  -8   270.2     9.9
   1   3  -7  1520.4    24.7
   1   3  -6   500.3    12.8
   1   3  -5    79.5     4.7
   1   3  -4   341.9     5.1
   1   3  -3    57.3     3.8
   1   3  -2   405.2     6.9
   1   3  -1    34.2     3.3
   1   3   0    27.3     2.1
   1   3   1   416.5     6.8
   1   3   2   134.9     3.2
   1   3   3    77.0     2.7
   1   3   4   255.0    12.8
   1   3   5   572.9    13.5
   1   3   6   520.6    12.0
   1   3   7   134.6     8.8
   1   3   8    54.5    15.1
   1   3   9   304.3    36.1
   1   3  10   255.5    77.1
   1   3  11  -273.8   179.2
   1   4 -13   512.9   186.5
   1   4 -12    49.2    66.7
   1   4 -11   245.5    38.0
   1   4 -10    44.0    18.9
   1   4  -9   128.7    12.5
   1   4  -8   102.1    10.2
   1   4  -7   211.6    11.2
   1   4  -6   224.4     9.6
   1   4  -5    60.5     7.5
   1   4  -4   239.7     8.1
   1   4  -3   188.4     5.4
   1   4  -2   150.7     4.2
   1   4  -1  1926.4    16.2
   1   4   0   159.8     4.2
   1   4   1   640.3     8.7
   1   4   2   146.6     4.5
   1   4   3    10.7     4.6
   1   4   4   207.3    12.5
   1   4   5   383.7     9.9
   1   4   6   336.6    12.2
   1   4   7   724.2    15.0
   1   4   8    87.2    11.7
   1   4   9   145.2    20.2
   1   4  10    32.2    41.3
   1   4  11   303.5   146.0
   1   5 -14    49.4   269.8
   1   5 -13  -196.5   135.6
   1   5 -12   172.5    55.3
   1   5 -11    33.1    30.0
   1   5 -10    45.6    19.3
   1   5  -9   183.4    14.3
   1   5  -8   195.0    12.5
   1   5  -7   514.0    12.0
   1   5  -6   268.1    11.0
   1   5  -5    65.7     8.4
   1   5  -4   792.6    12.9
   1   5  -3    34.1     6.4
   1   5  -2   206.5     6.1
   1   5  -1    98.2     5.6
   1   5   0    17.3     4.9
   1   5   1   165.3     6.0
   1   5   2   525.6    10.6
   1   5   3   185.8     7.4
   1   5   4   919.0    14.6
   1   5   5    39.2     9.8
   1   5   6   550.0    15.0
   1   5   7    54.9    11.7
   1   5   8    38.8    12.5
   1   5   9    73.2    17.4
   1   5  10   390.5    23.9
   1   5  11   -47.9    54.2
   1   5  12    44.6    92.0
   1   6 -13   238.1    86.1
   1   6 -12   114.7    53.8
   1   6 -11    77.3    33.6
   1   6 -10    94.2    24.5
   1   6  -9   218.0    18.3
   1   6  -8    17.9    13.2
   1   6  -7   207.8    12.1
   1   6  -6   193.0     9.8
   1   6  -5   174.1     9.9
   1   6  -4   283.8    10.2
   1   6  -3   711.3    12.5
   1   6  -2   231.2     7.4
   1   6  -1    44.5     5.6
   1   6   0   149.2     5.5
   1   6   1   438.1     9.1
   1   6   2   298.6     9.5
   1   6   3   166.6     9.7
   1   6   4   179.8    10.7
   1   6   5   467.8    15.0
   1   6   6   245.3    12.8
   1   6   7   424.6    13.9
   1   6   8    17.7    15.8
   1   6   9   160.3    21.4
   1   6  10   290.5    30.8
   1   6  11   260.2    35.0
   1   6  12   147.3    51.1
   1   6  13  -289.7   196.2
   1   7 -13   158.6   109.4
   1   7 -12   152.1    68.6
   1   7 -11   301.9    47.0
   1   7 -10    51.7    32.5
   1   7  -9    70.7    22.3
   1   7  -8    27.6    18.2
   1   7  -7    74.6    13.1
   1   7  -6   149.6    11.5
   1   7  -5     9.7    10.0
   1   7  -4   274.4    10.5
   1   7  -3   542.4    11.5
   1   7  -2   119.9     8.3
   1   7  -1    54.5     7.3
   1   7   0    36.3     7.8
   1   7   1   230.6     9.1
   1   7   2    38.1     9.0
   1   7   3    69.7    12.9
   1   7   4   178.2    12.2
   1   7   5   103.9    11.9
   1   7   6    95.2    12.4
   1   7   7   167.4    15.8
   1   7   8    92.0    20.9
   1   7   9   261.1    27.6
   1   7  10   218.0    39.4
   1   7  11   104.3    46.7
   1   7  12    58.0    64.3
   1   8 -11    91.3    62.0
   1   8 -10   155.1    43.8
   1   8  -9    43.1    31.1
   1   8  -8   234.7    23.2
   1   8  -7   145.5    17.9
   1   8  -6    11.8    14.4
   1   8  -5    26.7    13.2
   1   8  -4   560.4    15.1
   1   8  -3   334.7    13.2
   1   8  -2    90.0    11.7
   1   8  -1   158.4    11.2
   1   8   0   265.7    14.0
   1   8   1   126.6    11.6
   1   8   2   286.4    13.0
   1   8   3   109.2    12.7
   1   8   4   409.4    15.0
   1   8   5   477.2    16.7
   1   8   6     9.7    16.8
   1   8   7   815.3    24.9
   1   8   8    67.2    26.3
   1   8   9     8.5    37.2
   1   8  10    85.8    49.9
   1   8  11    68.2    72.1
   1   9 -10   -49.8    66.2
   1   9  -9   116.5    49.2
   1   9  -8    -6.7    35.8
   1   9  -7   370.9    29.9
   1   9  -6    11.3    23.3
   1   9  -5    73.8    20.4
   1   9  -4   608.5    22.1
   1   9  -3     6.1    18.7
   1   9  -2     8.6    16.5
   1   9  -1    12.7    20.3
   1   9   0   115.1    23.9
   1   9   1    77.1    18.6
   1   9   2    62.4    18.5
   1   9   3   114.4    19.1
   1   9   4   300.5    20.7
   1   9   5   -25.7    21.8
   1   9   6   129.2    24.8
   1   9   7    -9.2    29.3
   1   9   8    22.1    38.1
   1   9   9   138.8    57.4
   1   9  10   114.9    77.1
   1  10  -9   176.1    75.1
   1  10  -8   276.3    55.8
   1  10  -7    29.8    45.4
   1  10  -6   -26.8    41.7
   1  10  -5     7.5    38.0
   1  10  -4    20.5    32.5
   1  10  -3   144.1    28.0
   1  10  -2   323.3    27.9
   1  10  -1    68.1    33.1
   1  10   0   457.9    44.9
   1  10   1    35.2    30.1
   1  10   2   177.2    30.4
   1  10   3   128.4    30.0
   1  10   4   127.0    32.1
   1  10   5   156.8    34.6
   1  10   6   217.0    40.3
   1  10   7    24.1    45.4
   1  10   8    61.3    67.7
   1  11  -6   104.3    70.1
   1  11  -5   102.5    53.7
   1  11  -4   275.0    52.9
   1  11  -3   245.4    47.1
   1  11  -2   -21.0    45.3
   1  11  -1    75.9    61.5
   1  11   0   159.5    82.3
   1  11   1   120.9    54.0
   1  11   2   -28.6    51.8
   1  11   3    69.5    52.2
   1  11   4   193.2    53.8
   1  11   5   324.3    58.2
   1  11   6   197.8    64.6
   1  12  -2   117.3    79.4
   1  12  -1    47.5   121.0
   1  12   0    -5.8   160.5
   1  12   1   -56.7    98.6
   2   0  -9    35.4    53.0
   2   0  -7    70.5    12.2
   2   0  -5   619.2    10.5
   2   0  -3   112.0     4.1
   2   0   1    59.0     4.0
   2   0   3   790.9    11.1
   2   0   5    10.3     5.6
   2   0   7   233.6    23.7
   2   0   9   -57.0   136.7
   2   1 -11   220.3   192.5
   2   1 -10    47.7    64.9
   2   1  -9    92.9    23.7
   2   1  -8   517.5    16.1
   2   1  -7   881.1    11.2
   2   1  -6   188.1     5.3
   2   1  -5    56.0     3.6
   2   1  -4    66.3     3.9
   2   1  -3   191.3     4.8
   2   1  -2   343.6     6.2
   2   1  -1    85.8     2.2
   2   1   0   426.3    13.5
   2   1   1   247.4     5.7
   2   1   2    45.2     2.0
   2   1   3   435.3     5.2
   2   1   4    58.8     3.1
   2   1   5   178.6     4.7
   2   1   6    90.1     9.6
   2   1   7   100.3    19.2
   2   1   8   121.3    39.2
   2   1   9   298.5    78.2
   2   2  -9   112.8    20.3
   2   2  -7   320.0     8.0
   2   2  -5     1.5     4.2
   2   2  -3    34.2     2.5
   2   2  -1    56.1     4.6
   2   2   1   297.5     8.9
   2   2   3   203.6     4.3
   2   2   5    62.6     5.3
   2   2   7  1109.1    25.4
   2   2   9   649.5    63.9
   2   3 -12    -7.0   185.6
   2   3 -11    75.8    49.7
   2   3 -10   166.0    29.1
   2   3  -9    27.3    13.3
   2   3  -8    43.7    10.2
   2   3  -7   132.6     8.8
   2   3  -6   492.9    10.0
   2   3  -5   163.2     6.1
   2   3  -4   700.4     7.3
   2   3  -3    67.2     3.3
   2   3  -2   323.0     5.4
   2   3  -1  1260.9    15.6
   2   3   0   435.7     6.5
   2   3   1   298.8     5.1
   2   3   2     7.2     2.9
   2   3   3    71.1     3.5
   2   3   4   640.8    11.0
   2   3   5    57.9     6.7
   2   3   6   211.2     8.8
   2   3   7   753.7    14.6
   2   3   8   298.5    20.0
   2   3   9    -5.8    55.5
   2   3  10    43.6   111.8
   2   3  11   374.1   269.3
   2   4 -13   555.7   433.6
   2   4 -11    37.9    36.6
   2   4  -9   250.0    12.9
   2   4  -7   126.8     9.6
   2   4  -5   973.7    12.0
   2   4  -3    92.6     4.0
   2   4  -1   243.6     5.0
   2   4   1     5.0     3.3
   2   4   3   143.0     5.3
   2   4   5    56.2     8.8
   2   4   7   289.7    12.5
   2   4   9    96.2    25.1
   2   4  11   -94.2   106.4
   2   5 -14  -121.7   197.0
   2   5 -13   245.2   100.8
   2   5 -12    66.5    37.6
   2   5 -11   479.2    27.8
   2   5 -10   167.6    20.2
   2   5  -9    43.1    14.6
   2   5  -8   342.3    12.8
   2   5  -7   212.5    11.3
   2   5  -6   236.1    10.5
   2   5  -5   539.5    12.2
   2   5  -4    18.2     5.8
   2   5  -3   746.1    10.7
   2   5  -2    61.4     4.5
   2   5  -1   616.8     7.8
   2   5   0   143.6     5.0
   2   5   1   458.8     7.7
   2   5   2    43.3     6.0
   2   5   3    55.2     6.9
   2   5   4    15.6     7.6
   2   5   5   198.4     9.9
   2   5   6     9.5     9.8
   2   5   7   292.3    14.4
   2   5   8    81.8    15.2
   2   5   9   226.9    22.7
   2   5  10   252.0    32.0
   2   5  11   -48.8    75.9
   2   5  12    47.0   212.6
   2   6 -13   533.3    72.6
   2   6 -11   117.3    32.9
   2   6  -9   500.6    19.9
   2   6  -7    77.3    10.8
   2   6  -5   119.3    10.6
   2   6  -3   654.0    12.9
   2   6  -1   480.6     7.9
   2   6   1   135.9     7.8
   2   6   3     8.0     9.0
   2   6   5   210.6    11.1
   2   6   7   161.5    15.8
   2   6   9   181.7    27.2
   2   6  11    18.8    64.6
   2   7 -12   168.0    69.2
   2   7 -11   378.4    46.1
   2   7 -10    26.7    32.2
   2   7  -9     6.6    23.4
   2   7  -8   136.5    18.6
   2   7  -7   250.0    15.0
   2   7  -6    59.3    11.5
   2   7  -5    50.9     9.8
   2   7  -4  1001.4    17.0
   2   7  -3   428.7    11.9
   2   7  -2    50.0     8.6
   2   7  -1    37.0     7.7
   2   7   0    15.5     8.3
   2   7   1   151.9    10.0
   2   7   2   126.5    10.4
   2   7   3    33.2    11.0
   2   7   4   371.5    13.7
   2   7   5    41.6    12.6
   2   7   6    20.1    15.5
   2   7   7    -7.0    20.2
   2   7   8    96.3    25.4
   2   7   9    17.8    33.6
   2   7  10   131.8    50.6
   2   7  11    70.4    73.7
   2   8 -11   152.2    66.8
   2   8  -9    53.0    30.3
   2   8  -7    64.8    18.7
   2   8  -5     9.4    16.5
   2   8  -3   277.4    13.5
   2   8  -1    16.7    12.1
   2   8   1    -3.2    14.2
   2   8   3    32.0    15.7
   2   8   5   193.4    19.4
   2   8   7     5.6    26.0
   2   8   9   270.8    46.5
   2   9 -10    22.0    61.2
   2   9  -9    24.0    43.0
   2   9  -8    99.0    33.1
   2   9  -7    15.7    26.6
   2   9  -6   -32.0    23.7
   2   9  -5    -6.5    25.0
   2   9  -4   199.1    22.2
   2   9  -3    61.3    21.2
   2   9  -2    17.7    18.7
   2   9  -1    28.9    22.2
   2   9   0   137.4    21.4
   2   9   1    70.6    21.0
   2   9   2    29.3    21.8
   2   9   3    51.2    21.8
   2   9   4   456.9    27.2
   2   9   5   -12.0    28.4
   2   9   6    80.6    29.6
   2   9   7    46.7    36.4
   2   9   8   166.6    48.0
   2   9   9   140.4    66.1
   2  10  -7   197.3    47.0
   2  10  -5   109.1    37.8
   2  10  -3    24.9    35.1
   2  10  -1    57.9    41.7
   2  10   1   100.2    35.9
   2  10   3   131.9    42.9
   2  10   5    68.7    39.2
   2  10   7   178.4    59.1
   2  11  -6   -60.2    77.4
   2  11  -5   -62.3    73.2
   2  11  -4   104.9    70.2
   2  11  -3    24.6    64.4
   2  11  -2   186.8    66.2
   2  11  -1    88.3   113.9
   2  11   0    40.0    76.3
   2  11   1    69.2    53.6
   2  11   2   -24.5    53.8
   2  11   3    75.7    62.8
   2  11   4    21.0    63.9
   2  11   5   119.7    67.3
   3   0 -10   136.4   141.3
   3   0  -8   505.9    22.5
   3   0  -7  1645.1    25.6
   3   0  -5    25.0     8.3
   3   0  -4    25.7     8.1
   3   0  -2   129.0     9.6
   3   0  -1   278.3     5.6
   3   0   1   603.7    10.6
   3   0   2   378.2    12.2
   3   0   4    58.8     5.5
   3   0   5  1459.3    35.5
   3   0   7   567.8    58.4
   3   0   8   462.6   258.4
   3   1 -12   687.2   227.4
   3   1 -10    -6.5    78.4
   3   1  -9    75.3    34.2
   3   1  -8    14.7    12.3
   3   1  -7   542.2    10.1
   3   1  -6   159.1     6.8
   3   1  -5    45.6     4.8
   3   1  -4  1323.3    14.1
   3   1  -3     1.7     3.5
   3   1  -2   344.6     6.0
   3   1  -1   192.4     3.6
   3   1   0   825.3     8.4
   3   1   1    40.8     3.2
   3   1   2    71.8     3.0
   3   1   3   477.6     6.4
   3   1   4   495.5     8.0
   3   1   5    15.4     6.9
   3   1   6    76.5    12.5
   3   1   7   365.8    34.8
   3   1   8   172.8    43.7
   3   2 -12   724.0   288.8
   3   2 -11   176.7    58.7
   3   2 -10    39.1    31.1
   3   2  -9   131.1    15.1
   3   2  -8   395.0    12.2
   3   2  -7   408.4    11.6
   3   2  -6    80.3     7.0
   3   2  -5   330.6     7.4
   3   2  -4   223.7     5.2
   3   2  -3   294.6     5.5
   3   2  -2    38.3     3.5
   3   2  -1    51.0     3.3
   3   2   0   348.8     6.1
   3   2   1   218.7     5.7
   3   2   2   102.5     3.6
   3   2   3   527.4    10.0
   3   2   4   161.3     5.9
   3   2   5   277.4     8.1
   3   2   6   421.6    12.8
   3   2   7   544.1    24.4
   3   2   8   421.9    63.3
   3   2   9    97.4   151.1
   3   3 -13   674.1   186.3
   3   3 -11    -7.8    39.1
   3   3 -10    18.0    20.0
   3   3  -8    51.0    10.8
   3   3  -7   293.8    10.4
   3   3  -5   856.2    10.9
   3   3  -4   529.7     8.6
   3   3  -2    14.5     3.3
   3   3  -1    -0.1     3.2
   3   3   1   134.6     4.6
   3   3   2   262.5     5.8
   3   3   4  1239.0    19.3
   3   3   5    11.3     8.2
   3   3   7   101.8    16.3
   3   3   8    21.2    23.4
   3   3  10    93.3   113.4
   3   3  11   535.3   264.4
   3   4 -14  -126.7   391.6
   3   4 -13   237.2   105.8
   3   4 -12   461.5    67.0
   3   4 -11   142.0    29.5
   3   4 -10    92.4    18.0
   3   4  -9   207.7    14.1
   3   4  -8   282.4    13.6
   3   4  -7    58.6    11.0
   3   4  -6   229.2    10.0
   3   4  -5   427.8     9.9
   3   4  -4   384.4     8.3
   3   4  -3   646.2     9.1
   3   4  -2   102.1     5.3
   3   4  -1   159.0     5.6
   3   4   0    84.7     5.6
   3   4   1     7.4     4.7
   3   4   2   550.5    10.4
   3   4   3   250.0     9.5
   3   4   4     5.5    11.2
   3   4   5   112.1    11.6
   3   4   6   127.3    11.7
   3   4   7   227.9    13.7
   3   4   8   181.0    19.0
   3   4   9   102.9    36.8
   3   4  10   137.3   104.0
   3   4  11   489.2   208.9
   3   5 -13   369.5    71.0
   3   5 -12    16.3    46.5
   3   5 -11   267.1    31.7
   3   5 -10   163.3    22.9
   3   5  -9   545.0    18.9
   3   5  -8    95.0    13.9
   3   5  -7    13.7    11.5
   3   5  -6    76.8     9.4
   3   5  -5   261.4    10.5
   3   5  -4    49.8     6.9
   3   5  -3   229.7     6.7
   3   5  -2    27.3     5.5
   3   5  -1   844.0     9.8
   3   5   0   600.0     9.0
   3   5   1   156.8     7.7
   3   5   2   325.5    10.9
   3   5   3    75.1    10.0
   3   5   4    67.3    11.5
   3   5   5   129.2    11.6
   3   5   6   324.5    13.8
   3   5   7   522.1    18.4
   3   5   8    94.6    23.1
   3   5   9   -20.0    34.7
   3   5  10    99.8    53.8
   3   5  11    48.3   111.7
   3   6 -13   107.4    89.1
   3   6 -11   593.9    41.7
   3   6 -10    33.3    27.9
   3   6  -8   459.9    17.3
   3   6  -7   159.3    12.6
   3   6  -5    87.7    10.2
   3   6  -4    27.1     8.8
   3   6  -2   213.3     7.6
   3   6  -1    24.5     6.9
   3   6   1    39.0     9.7
   3   6   2    25.7    10.4
   3   6   4   110.7    12.3
   3   6   5    75.6    12.9
   3   6   7   254.7    21.9
   3   6   8   341.0    29.9
   3   6  10   482.9    61.4
   3   6  11    87.0    74.2
   3   7 -12   -17.9    73.1
   3   7 -11    70.3    50.2
   3   7 -10   155.9    36.1
   3   7  -9   278.8    27.1
   3   7  -8   404.2    21.1
   3   7  -7    15.8    15.5
   3   7  -6   193.2    13.8
   3   7  -5    26.8    12.0
   3   7  -4   202.7    12.2
   3   7  -3   282.0    11.2
   3   7  -2    66.9     9.5
   3   7  -1   376.2     9.7
   3   7   0   656.6    12.9
   3   7   1    49.0    11.4
   3   7   2    75.6    11.9
   3   7   3   106.7    13.3
   3   7   4   246.2    15.2
   3   7   5   283.7    17.5
   3   7   6    50.7    21.1
   3   7   7   143.2    28.1
   3   7   8   228.0    48.0
   3   7   9     7.7    57.0
   3   7  10    73.7    84.7
   3   8 -11    17.4    68.3
   3   8 -10   109.7    48.3
   3   8  -9    25.5    36.5
   3   8  -8   253.9    28.1
   3   8  -7    74.7    21.8
   3   8  -6     8.2    18.8
   3   8  -5    91.4    17.8
   3   8  -4    32.1    17.0
   3   8  -3    20.1    16.0
   3   8  -2   119.3    14.1
   3   8  -1    45.2    12.9
   3   8   0    57.5    14.7
   3   8   1     6.6    17.4
   3   8   2   132.9    17.8
   3   8   3    36.8    21.1
   3   8   4   120.6    21.3
   3   8   5   141.6    24.5
   3   8   6    97.8    31.6
   3   8   7    52.0    40.5
   3   8   8   459.6    55.0
   3   8   9    91.3    77.5
   3   9  -8    94.9    40.0
   3   9  -7    54.4    33.5
   3   9  -5    34.0    27.5
   3   9  -4   272.5    27.6
   3   9  -2    37.6    22.0
   3   9  -1    94.3    24.3
   3   9   1   -29.9    27.2
   3   9   2    37.5    28.1
   3   9   4   286.2    35.7
   3   9   5   179.3    39.9
   3   9   7   146.9    60.0
   3   9   8    30.4    78.8
   3  10  -7    56.8    55.0
   3  10  -6   -46.8    49.0
   3  10  -5    -0.0    45.9
   3  10  -4    50.3    44.7
   3  10  -3   250.6    44.1
   3  10  -2   124.0    40.5
   3  10  -1    77.1    44.2
   3  10   0    42.1    37.5
   3  10   1   -41.3    46.6
   3  10   2    96.0    48.0
   3  10   3    73.5    54.1
   3  10   4    -8.3    57.2
   3  10   5   268.9    66.7
   3  10   6   132.7    74.8
   3  11  -4    41.3    80.2
   3  11  -3   155.4    79.9
   3  11  -2    -0.1    78.9
   3  11  -1    30.8    79.1
   3  11   0    48.9    79.9
   3  11   1    97.0    80.8
   3  11   2   -90.8    91.4
   3  11   3   496.8    96.6
   4   0 -11   816.8   176.0
   4   0  -9   -20.7    30.7
   4   0  -7    54.5     9.6
   4   0  -5    19.2     8.3
   4   0  -3   785.7    15.1
   4   0  -1    81.8     4.2
   4   0   1   121.2     6.9
   4   0   3    96.6     5.8
   4   0   5    36.9    13.5
   4   1 -11   268.6   109.5
   4   1 -10    51.2    51.4
   4   1  -9   246.0    19.5
   4   1  -8    68.2    10.0
   4   1  -7   733.3    11.6
   4   1  -6   598.8     9.1
   4   1  -5   410.5     7.5
   4   1  -4  1372.9    17.7
   4   1  -3   208.5     5.4
   4   1  -2   453.2     8.2
   4   1  -1    36.8     3.2
   4   1   0    54.7     3.4
   4   1   1  2129.8    14.8
   4   1   2   155.8     4.4
   4   1   3   289.7     5.9
   4   1   4   853.1    11.0
   4   1   5   186.0    10.0
   4   1   6   444.1    20.7
   4   1   7    86.0    34.9
   4   1   8  -141.9   158.9
   4   2 -13    71.5   291.2
   4   2 -11    96.7    44.7
   4   2  -9    47.7    13.4
   4   2  -7   429.3    11.9
   4   2  -5    48.2     5.9
   4   2  -3    19.6     4.8
   4   2  -1   308.2     5.5
   4   2   1    10.9     3.9
   4   2   3   107.4     8.0
   4   2   5    96.7     8.6
   4   2   7    23.4    22.8
   4   2   9   197.7   120.6
   4   3 -13   241.8   296.7
   4   3 -12   152.3    58.7
   4   3 -11   -54.3    36.7
   4   3 -10   128.3    20.1
   4   3  -9   303.4    15.8
   4   3  -8    86.8    11.8
   4   3  -7   579.7    13.5
   4   3  -6    89.2     9.9
   4   3  -5   151.7     7.4
   4   3  -4   246.5     6.2
   4   3  -3    60.5     4.9
   4   3  -2   568.0     7.9
   4   3  -1   707.3     9.1
   4   3   0   209.3     5.1
   4   3   1   361.5     6.0
   4   3   2    52.1     5.3
   4   3   3   491.4    10.7
   4   3   4   523.2    11.1
   4   3   5    10.9     9.8
   4   3   6   537.6    14.4
   4   3   7   106.4    18.2
   4   3   8   142.9    36.7
   4   3   9    40.9   115.4
   4   4 -13  -125.1    98.7
   4   4 -11   -58.3    41.3
   4   4  -9    -2.3    18.7
   4   4  -7    67.8    11.9
   4   4  -5   173.7     8.5
   4   4  -3    15.5     5.8
   4   4  -1   175.9     7.3
   4   4   1     6.9     5.6
   4   4   3    71.0     8.1
   4   4   5    24.6    11.4
   4   4   7    67.5    20.0
   4   4   9   701.3    55.8
   4   4  11   407.9   211.9
   4   5 -13    -1.5    70.3
   4   5 -12    97.4    49.2
   4   5 -11    78.4    38.2
   4   5 -10    56.0    33.9
   4   5  -9   424.0    26.2
   4   5  -8    20.9    19.2
   4   5  -7   210.3    14.6
   4   5  -6    38.8    11.4
   4   5  -5   217.7    11.0
   4   5  -4   251.1     8.4
   4   5  -3    65.6     6.3
   4   5  -2    21.8     6.4
   4   5  -1   168.3     6.9
   4   5   0   112.5     6.8
   4   5   1   349.0     9.5
   4   5   2   110.0     9.7
   4   5   3   509.5    13.6
   4   5   4   250.1    12.0
   4   5   5    15.2    13.8
   4   5   6    16.5    18.4
   4   5   7    45.7    24.9
   4   5   8   116.7    30.1
   4   5   9    33.2    41.2
   4   5  10    37.0    65.2
   4   5  11   221.7   214.0
   4   6 -11    71.0    42.1
   4   6  -9    43.1    26.2
   4   6  -7   122.0    18.6
   4   6  -5    29.0    12.2
   4   6  -3    31.4     8.5
   4   6  -1   154.4     8.0
   4   6   1    33.6    10.4
   4   6   3    15.1    12.5
   4   6   5    34.1    18.0
   4   6   7   229.2    28.3
   4   6   9    47.0    53.0
   4   7 -11    16.6    63.7
   4   7 -10     6.2    40.4
   4   7  -9   202.9    30.0
   4   7  -8    99.8    26.2
   4   7  -7    78.9    21.7
   4   7  -6   127.1    18.4
   4   7  -5   183.7    17.3
   4   7  -4    24.6    16.9
   4   7  -3    63.6    15.2
   4   7  -2   138.1    11.6
   4   7  -1    82.3    11.1
   4   7   0   203.5    13.2
   4   7   1    14.4    14.6
   4   7   2    50.7    15.9
   4   7   3   320.9    19.4
   4   7   4   130.8    20.4
   4   7   5   171.7    21.6
   4   7   6    52.6    27.4
   4   7   7   230.6    36.1
   4   7   8     1.9    53.5
   4   7   9   109.3    76.2
   4   8  -9   109.5    42.1
   4   8  -7   558.8    30.9
   4   8  -5    77.5    25.0
   4   8  -3   339.8    22.9
   4   8  -1    21.8    15.8
   4   8   1    11.0    21.5
   4   8   3    36.9    26.3
   4   8   5    69.8    30.5
   4   8   7   -58.9    54.1
   4   9  -8   250.6    51.5
   4   9  -7   167.4    44.3
   4   9  -6    24.9    39.5
   4   9  -5   152.4    37.7
   4   9  -4    49.2    32.6
   4   9  -3   104.8    29.5
   4   9  -2   582.1    27.9
   4   9  -1     1.9    30.7
   4   9   0   252.8    35.8
   4   9   1   135.8    32.2
   4   9   2    82.7    33.2
   4   9   3   149.7    35.6
   4   9   4    15.2    41.0
   4   9   5   314.1    50.3
   4   9   6   141.0    62.0
   4  10  -5    16.0    61.7
   4  10  -3    64.2    49.0
   4  10  -1    88.2    47.8
   4  10   1    -6.4    53.1
   4  10   3   191.0    64.5
   5   0 -12   220.0   277.7
   5   0 -11   347.2   150.4
   5   0  -9   135.1    26.8
   5   0  -8    -8.7    17.9
   5   0  -7    11.2    11.1
   5   0  -6   382.1    13.8
   5   0  -4   595.4    14.9
   5   0  -3   388.4    11.3
   5   0  -2   578.7    13.1
   5   0  -1    77.8     8.1
   5   0   1   392.3     9.4
   5   0   2    66.0     6.8
   5   0   3    26.2     7.2
   5   0   4   105.2    11.6
   5   0   6    63.0    60.9
   5   0   7    14.3    91.9
   5   1 -12   740.6   360.0
   5   1 -11   402.9    71.7
   5   1 -10   356.9    43.8
   5   1  -9   140.1    16.8
   5   1  -8   200.1    12.6
   5   1  -7   148.1     8.8
   5   1  -6    59.5     7.1
   5   1  -5   146.6     6.6
   5   1  -4    68.5     5.6
   5   1  -3   285.2     7.1
   5   1  -2   173.7     5.6
   5   1  -1    33.6     4.3
   5   1   0   421.7     6.9
   5   1   1    65.6     4.3
   5   1   2   799.7     9.6
   5   1   3    47.4     5.4
   5   1   4    14.3     7.2
   5   1   5   134.4    11.6
   5   1   6    37.7    23.5
   5   1   7    23.8    75.9
   5   1   8   381.3   198.3
   5   2 -13    34.8   223.4
   5   2 -12   -42.0    91.2
   5   2 -11   128.0    39.5
   5   2 -10   122.0    24.7
   5   2  -9    84.8    17.9
   5   2  -8    29.7    13.7
   5   2  -7    30.8     9.5
   5   2  -6   279.4     8.4
   5   2  -5   788.3    11.0
   5   2  -4    54.5     6.4
   5   2  -3   396.3     7.4
   5   2  -2   296.8     6.2
   5   2  -1    13.7     4.1
   5   2   0   154.9     5.1
   5   2   1   198.6     5.4
   5   2   2    60.1     5.2
   5   2   3   126.1     7.0
   5   2   4   124.9     9.2
   5   2   5   179.2    11.5
   5   2   6   100.3    18.3
   5   2   7     7.0    27.3
   5   2   8   -43.8   137.2
   5   3 -13   113.8   195.6
   5   3 -12    45.7    53.7
   5   3 -11    -5.8    36.3
   5   3 -10    92.8    30.1
   5   3  -9    41.7    21.4
   5   3  -8   240.9    16.9
   5   3  -7    86.3    12.4
   5   3  -6    53.3     8.9
   5   3  -5   227.4     8.3
   5   3  -4   133.4     7.1
   5   3  -3    27.2     6.0
   5   3  -2    22.7     6.3
   5   3  -1    87.2     5.8
   5   3   0   597.0     9.4
   5   3   1   202.3     6.0
   5   3   2   341.1     8.3
   5   3   3   193.1     8.9
   5   3   4     2.4    10.4
   5   3   5    29.7    14.3
   5   3   6   497.6    19.0
   5   3   7    80.4    23.7
   5   3   8   221.2    69.8
   5   3   9   441.5   128.9
   5   4 -12   378.3    61.6
   5   4 -11    84.4    43.2
   5   4 -10   123.8    30.8
   5   4  -9    92.8    22.7
   5   4  -8   316.7    20.7
   5   4  -7   176.3    16.0
   5   4  -6   106.7    11.9
   5   4  -5   117.1     9.0
   5   4  -4   215.7     7.9
   5   4  -3   183.6     7.3
   5   4  -2    41.7     6.3
   5   4  -1   540.2     8.5
   5   4   0   130.1     6.8
   5   4   1    28.8     7.3
   5   4   2    17.7     7.9
   5   4   3    20.8     9.7
   5   4   4   455.1    15.9
   5   4   5   104.2    15.9
   5   4   6    35.3    19.9
   5   4   7   580.3    29.0
   5   4   8   169.6    38.6
   5   4   9   109.8    65.9
   5   4  10   172.1   135.9
   5   5 -12   -26.5    92.8
   5   5 -11    13.7    56.7
   5   5  -9   155.6    27.5
   5   5  -8   154.3    21.7
   5   5  -7    41.3    16.0
   5   5  -6   305.7    16.3
   5   5  -4    22.5     9.0
   5   5  -3    49.1     8.2
   5   5  -2    58.6     7.8
   5   5  -1   124.0     8.2
   5   5   1    38.0     9.7
   5   5   2   142.9    11.9
   5   5   3   430.6    16.0
   5   5   4    38.8    15.8
   5   5   6   282.3    25.2
   5   5   7   173.7    31.7
   5   5   8    66.2    54.1
   5   5   9   142.3    79.9
   5   6 -11   -23.0    82.1
   5   6 -10    28.2    63.1
   5   6  -9   186.2    41.5
   5   6  -8   658.6    35.3
   5   6  -7   177.7    26.8
   5   6  -6   224.4    20.0
   5   6  -5    88.7    15.1
   5   6  -4    32.9    13.8
   5   6  -3    72.7    11.9
   5   6  -2    57.3    11.3
   5   6  -1    76.5    11.0
   5   6   0   262.3    13.0
   5   6   1    33.9    15.9
   5   6   2    85.8    15.1
   5   6   3   290.6    18.2
   5   6   4   114.2    19.2
   5   6   5    59.2    26.7
   5   6   6    12.4    34.3
   5   6   7   246.6    50.2
   5   6   8   156.0    68.3
   5   6   9    88.4    81.7
   5   7 -10   224.5    78.6
   5   7  -9    90.4    56.2
   5   7  -8   141.7    45.1
   5   7  -7    25.1    34.8
   5   7  -6   208.1    30.9
   5   7  -5    95.8    26.5
   5   7  -4    43.0    21.0
   5   7  -3   164.8    16.9
   5   7  -2   175.7    17.3
   5   7  -1   287.7    16.1
   5   7   0   114.7    18.4
   5   7   1   188.8    20.9
   5   7   2   227.5    20.4
   5   7   3   269.4    25.7
   5   7   4    27.7    29.2
   5   7   5    77.9    35.7
   5   7   6   416.2    49.1
   5   7   7   115.8    64.0
   5   8  -8   -45.2    62.4
   5   8  -7   130.0    52.5
   5   8  -6   255.4    47.8
   5   8  -5   -11.0    44.0
   5   8  -4   204.1    35.2
   5   8  -3   155.6    32.0
   5   8  -2    40.6    24.2
   5   8  -1   205.7    23.8
   5   8   0   113.3    26.6
   5   8   1   129.6    28.9
   5   8   2   116.3    34.1
   5   8   3    50.6    37.1
   5   8   4    59.7    44.6
   5   8   5   242.1    53.1
   5   8   6    86.3    66.2
   5   9  -6   134.8    61.3
   5   9  -5   -35.1    58.5
   5   9  -4   -23.7    65.4
   5   9  -3    34.8    45.7
   5   9  -2   234.0    40.4
   5   9  -1    29.4    38.6
   5   9   0    27.6    42.9
   5   9   1   354.1    50.7
   5   9   2   146.6    53.0
   5   9   3   116.1    58.1
   5   9   4   143.0    67.0
   6   0 -11   100.6   102.2
   6   0  -7   -12.2    17.0
   6   0  -5    74.1    11.8
   6   0  -1    25.9     8.3
   6   0   1    77.6     9.6
   6   0   5    29.6    32.6
   6   0   7   196.4   321.1
   6   1 -12   118.7   217.4
   6   1 -11   190.8    58.0
   6   1 -10   103.4    32.8
   6   1  -9   209.2    23.3
   6   1  -8    49.2    17.2
   6   1  -7    95.7    13.5
   6   1  -6    83.3    10.7
   6   1  -5   155.9     8.4
   6   1  -4    95.3     7.5
   6   1  -3   117.2     6.9
   6   1  -2    94.2     6.4
   6   1  -1     0.4     5.8
   6   1   0    66.6     6.1
   6   1   1   148.4     6.7
   6   1   2    33.8     7.0
   6   1   3    52.5     9.4
   6   1   4    86.8    14.2
   6   1   5    21.1    18.9
   6   1   6   107.7    49.8
   6   1   7    33.2    89.1
   6   1   8   616.1   159.1
   6   2 -11    33.7    50.0
   6   2  -9    66.1    22.3
   6   2  -7   100.5    13.9
   6   2  -5   181.4     9.9
   6   2  -3    95.0     8.0
   6   2  -1   419.0     8.3
   6   2   1    43.3     6.9
   6   2   3    29.6    11.3
   6   2   5    50.8    18.6
   6   2   7    56.4    49.7
   6   3 -11    97.5    60.4
   6   3 -10    -3.2    39.0
   6   3  -8   130.7    21.6
   6   3  -7   128.6    14.2
   6   3  -5    90.4    11.9
   6   3  -4   264.1    10.8
   6   3  -2    70.0     7.9
   6   3  -1    82.5     7.8
   6   3   1   298.9     9.3
   6   3   2   223.2    10.8
   6   3   4   181.7    17.1
   6   3   5   142.7    21.5
   6   3   7    84.9    51.9
   6   3   8  -106.4    75.4
   6   4 -11   162.5    72.4
   6   4  -9    23.1    39.7
   6   4  -7   154.4    19.8
   6   4  -5   571.2    14.1
   6   4  -3    49.0    10.1
   6   4  -1   117.7    10.1
   6   4   1    42.2     9.9
   6   4   3   290.0    16.3
   6   4   5    79.1    28.4
   6   4   7    44.2    47.6
   6   5 -10    43.5    63.0
   6   5  -9    61.0    47.6
   6   5  -8   487.4    37.9
   6   5  -7   192.3    28.6
   6   5  -6   -27.2    21.3
   6   5  -5    16.2    15.5
   6   5  -4   333.4    15.4
   6   5  -3     5.4    13.2
   6   5  -2    19.4    12.7
   6   5  -1   177.0    12.3
   6   5   0   732.9    16.1
   6   5   1   115.5    15.0
   6   5   2    96.3    17.4
   6   5   3   319.9    22.3
   6   5   4   389.6    30.0
   6   5   5   116.3    37.9
   6   5   6   171.4    41.3
   6   5   7   203.4    52.3
   6   6  -7    85.3    37.5
   6   6  -5   116.4    24.2
   6   6  -1   615.8    19.7
   6   6   1    60.6    23.3
   6   6   5    45.7    40.2
   6   7  -8   368.7    56.4
   6   7  -7   427.3    47.9
   6   7  -6   162.5    37.2
   6   7  -5    51.6    35.8
   6   7  -4   -23.5    29.5
   6   7  -3   142.3    27.6
   6   7  -2    78.7    26.5
   6   7  -1   139.8    26.3
   6   7   0    99.0    33.1
   6   7   1   265.4    38.5
   6   7   2    -8.9    41.9
   6   7   3     6.4    35.6
   6   7   4     7.1    43.4
   6   7   5   215.1    49.4
   6   8  -5   105.9    54.3
   6   8  -3    87.6    40.4
   6   8  -1    34.0    47.8
   6   8   1   134.7    45.6
   6   8   3    79.4    49.5
   7   0 -10    26.8    56.9
   7   0  -9   -44.9    44.5
   7   0  -8   146.1    32.9
   7   0  -6   303.9    25.1
   7   0  -5    97.6    19.2
   7   0  -4    11.6    15.4
   7   0  -3    86.0    14.8
   7   0  -2    13.7    13.8
   7   0  -1    14.0    14.0
   7   0   1    24.8    19.0
   7   0   2   257.0    22.9
   7   0   3   -14.9    24.5
   7   0   4   105.7    29.9
   7   0   5   -33.0    52.6
   7   0   6  -110.2   126.7
   7   1 -10   -74.1    52.2
   7   1  -9   137.9    38.3
   7   1  -8   -44.0    28.6
   7   1  -7   240.5    21.7
   7   1  -6   222.4    16.8
   7   1  -5    22.7    13.5
   7   1  -4   109.2    12.3
   7   1  -3   211.8    11.4
   7   1  -2    27.5    10.8
   7   1  -1    40.8    10.5
   7   1   0   193.5    12.1
   7   1   1   115.5    12.3
   7   1   2    54.3    13.2
   7   1   3    11.1    17.3
   7   1   4    86.5    23.8
   7   1   5     5.7    33.5
   7   1   6     4.5    65.3
   7   2 -10   151.2    49.9
   7   2  -9   120.6    36.7
   7   2  -8   -35.8    32.1
   7   2  -7   148.3    24.7
   7   2  -6    19.3    19.6
   7   2  -5    60.3    15.6
   7   2  -4    90.0    15.3
   7   2  -3   387.0    14.8
   7   2  -2   250.2    13.9
   7   2  -1    51.3    12.1
   7   2   0    15.8    12.5
   7   2   1   308.3    14.1
   7   2   2   143.1    15.3
   7   2   3    64.5    18.6
   7   2   4     7.9    29.8
   7   2   5    82.5    35.9
   7   2   6   125.4    49.1
   7   2   7   -10.9    65.4
   7   3 -10   101.2    59.7
   7   3  -9    12.1    40.3
   7   3  -8   258.1    33.3
   7   3  -7   179.2    26.2
   7   3  -6    43.2    23.1
   7   3  -5   246.8    24.4
   7   3  -4   130.5    21.2
   7   3  -3   151.7    16.4
   7   3  -2    60.9    15.0
   7   3  -1    74.4    13.7
   7   3   0    12.1    13.8
   7   3   1    89.3    16.2
   7   3   2     7.9    18.6
   7   3   3   155.6    25.1
   7   3   4   137.6    29.5
   7   3   5    55.9    40.0
   7   3   6    57.0    53.6
   7   4  -9    86.5    54.2
   7   4  -8   420.9    38.8
   7   4  -7    67.5    28.6
   7   4  -6    -3.2    26.4
   7   4  -5    72.3    22.4
   7   4  -4   181.4    19.6
   7   4  -3   163.9    19.0
   7   4  -2    41.3    17.9
   7   4  -1   210.3    18.1
   7   4   0   670.2    20.5
   7   4   1   147.3    19.7
   7   4   2   142.6    22.7
   7   4   3   183.9    29.1
   7   4   4   111.3    35.5
   7   4   5   173.0    45.8
   7   4   6    91.3    72.9
   7   5  -8   122.3    55.4
   7   5  -7   141.0    35.3
   7   5  -6   124.3    29.7
   7   5  -5   124.0    25.8
   7   5  -4   128.3    23.4
   7   5  -3    21.1    24.1
   7   5  -2   156.2    24.4
   7   5  -1   327.2    25.6
   7   5   0    -0.7    21.3
   7   5   1     7.6    26.0
   7   5   2    28.5    28.6
   7   5   3    93.8    34.8
   7   5   4    21.0    47.1
   7   5   5  -111.8   102.9
   7   6  -6    12.0    43.7
   7   6  -5   207.0    37.0
   7   6  -4   194.2    34.5
   7   6  -3    29.5    32.1
   7   6  -2    79.2    28.6
   7   6  -1   165.3    29.5
   7   6   0   334.5    30.9
   7   6   1   218.5    36.4
   7   6   2    33.3    44.6
   7   6   3    58.7    52.3
   7   7  -3    14.3    44.3
   7   7  -2    12.3    42.4
   7   7  -1    48.2    43.6
   8   0  -7    78.1    52.8
   8   0  -5   234.6    35.9
   8   0  -3   371.5    29.1
   8   0  -1    12.4    27.6
   8   0   1   292.6    41.7
   8   0   3    59.8    53.8
   8   1  -7   287.2    37.9
   8   1  -6   128.3    30.3
   8   1  -5    96.1    25.9
   8   1  -4    17.1    22.5
   8   1  -3    19.4    20.9
   8   1  -2   191.6    22.5
   8   1  -1    -2.7    22.2
   8   1   0    61.7    24.1
   8   1   1    52.4    25.3
   8   1   2    81.0    29.0
   8   1   3    71.1    37.2
   8   1   4   101.0    54.9
   8   2  -7   133.3    42.0
   8   2  -5   114.0    29.1
   8   2  -3   158.8    28.7
   8   2  -1    58.1    26.6
   8   2   1    57.2    26.8
   8   2   3   101.1    39.3
   8   3  -6   108.7    49.6
   8   3  -5    33.7    44.0
   8   3  -4    54.7    39.1
   8   3  -3    76.6    35.1
   8   3  -2   155.9    28.8
   8   3  -1   102.7    28.2
   8   3   0     9.1    29.3
   8   3   1   241.9    34.4
   8   3   2    80.8    36.8
   8   4  -3   242.6    36.7
   8   4  -1   176.4    34.8
   8   4   1    96.6    40.0
;
_shelx_hkl_checksum              89463
_olex2_submission_special_instructions 'No special instructions were received'
loop_
_space_group_symop_operation_xyz
'x, y, z'
'-x, y+1/2, -z'
loop_
_atom_site_label
_atom_site_type_symbol
_atom_site_fract_x
_atom_site_fract_y
_atom_site_fract_z
_atom_site_U_iso_or_equiv
_atom_site_adp_type
_atom_site_occupancy
_atom_site_site_symmetry_order
_atom_site_calc_flag
_atom_site_refinement_flags_posn
_atom_site_refinement_flags_adp
_atom_site_refinement_flags_occupancy
_atom_site_disorder_assembly
_atom_site_disorder_group
O2 O 0.3144(4) 0.4517(4) 1.0143(3) 0.0139(5) Uani 1 1 d . . . . .
O1 O 0.7401(4) 0.4458(4) 1.0988(3) 0.0147(5) Uani 1 1 d . . . . .
N1 N 0.8736(2) 0.63497(19) 0.87368(17) 0.0098(3) Uani 1 1 d . . . . .
H1A H 0.9437(8) 0.6399(7) 0.7747(5) 0.0230(9) Uani 1 1 d . . . . .
H1B H 1.0151(8) 0.5663(6) 0.9429(6) 0.0251(10) Uani 1 1 d . . . . .
H1C H 0.8476(8) 0.7676(6) 0.9129(5) 0.0235(10) Uani 1 1 d . . . . .
N3 N 0.7209(2) 0.4445(2) 0.38776(19) 0.0131(3) Uani 1 1 d . . . . .
H3 H 0.6915(8) 0.4363(7) 0.2760(6) 0.0245(10) Uani 1 1 d . . . . .
N2 N 0.9212(2) 0.5163(2) 0.60161(18) 0.0132(3) Uani 1 1 d . . . . .
C1 C 0.5529(3) 0.4744(2) 1.0041(2) 0.0088(4) Uani 1 1 d . . . . .
C4 C 0.6986(3) 0.4149(3) 0.6164(2) 0.0108(4) Uani 1 1 d . . . . .
C6 C 0.5727(3) 0.3695(3) 0.4839(2) 0.0125(4) Uani 1 1 d . . . . .
H6 H 0.3972(9) 0.2917(7) 0.4537(6) 0.0306(11) Uani 1 1 d . . . . .
C2 C 0.6190(3) 0.5354(3) 0.8574(2) 0.0089(4) Uani 1 1 d . . . . .
H2 H 0.4688(7) 0.6316(7) 0.8087(5) 0.0225(9) Uani 1 1 d . . . . .
C5 C 0.9261(3) 0.5314(3) 0.4625(2) 0.0128(4) Uani 1 1 d . . . . .
H5 H 1.0719(9) 0.6041(7) 0.4124(6) 0.0327(12) Uani 1 1 d . . . . .
C3 C 0.6304(4) 0.3662(3) 0.7604(2) 0.0116(4) Uani 1 1 d . . . . .
H3A H 0.7735(10) 0.2668(7) 0.8138(6) 0.0288(11) Uani 1 1 d . . . . .
H3B H 0.4390(10) 0.2999(7) 0.7520(6) 0.0309(12) Uani 1 1 d . . . . .
loop_
_atom_site_aniso_label
_atom_site_aniso_U_11
_atom_site_aniso_U_22
_atom_site_aniso_U_33
_atom_site_aniso_U_23
_atom_site_aniso_U_13
_atom_site_aniso_U_12
O2 0.0100(7) 0.0187(12) 0.0132(16) 0.0025(10) 0.0022(8) -0.0002(9)
O1 0.0139(8) 0.0213(11) 0.0092(14) 0.0036(10) 0.0025(8) -0.0004(9)
N1 0.0111(5) 0.0108(7) 0.0074(10) 0.0003(5) 0.0012(5) -0.0014(4)
H1A 0.0250(16) 0.033(2) 0.012(3) -0.001(2) 0.0078(17) -0.0058(17)
H1B 0.0232(17) 0.026(2) 0.024(3) 0.0060(18) -0.0052(18) -0.0007(15)
H1C 0.0269(18) 0.018(2) 0.025(3) -0.0078(17) 0.0016(18) -0.0013(15)
N3 0.0169(5) 0.0152(7) 0.0075(11) 0.0013(5) 0.0030(6) 0.0006(5)
H3 0.0302(17) 0.032(2) 0.011(3) -0.0032(19) 0.0007(17) -0.0014(19)
N2 0.0134(5) 0.0165(7) 0.0097(10) -0.0004(6) 0.0016(5) -0.0030(5)
C1 0.0093(6) 0.0101(9) 0.0072(13) 0.0015(6) 0.0022(7) 0.0012(6)
C4 0.0125(7) 0.0113(10) 0.0091(14) 0.0004(7) 0.0025(7) -0.0005(6)
C6 0.0132(7) 0.0130(9) 0.0113(14) -0.0024(8) 0.0009(7) -0.0017(7)
H6 0.0273(19) 0.039(3) 0.024(3) -0.006(2) -0.0010(19) -0.0147(18)
C2 0.0102(6) 0.0098(8) 0.0067(11) 0.0017(7) 0.0005(6) -0.0001(6)
H2 0.0233(15) 0.024(2) 0.020(3) 0.0056(18) 0.0005(17) 0.0064(16)
C5 0.0154(7) 0.0150(9) 0.0083(13) 0.0021(8) 0.0032(8) -0.0011(7)
H5 0.033(2) 0.045(3) 0.021(3) 0.004(2) 0.009(2) -0.013(2)
C3 0.0169(7) 0.0101(9) 0.0082(13) -0.0010(8) 0.0026(8) -0.0026(7)
H3A 0.045(2) 0.019(2) 0.023(3) 0.0049(18) 0.008(2) 0.0102(18)
H3B 0.035(2) 0.036(3) 0.024(3) -0.008(2) 0.011(2) -0.0228(19)
loop_
_atom_type_symbol
_atom_type_description
_atom_type_scat_dispersion_real
_atom_type_scat_dispersion_imag
_atom_type_scat_source
C C 0.0000 0.0000
'Neutron Data Booklet, ILL Grenoble, France (2003) ISBN 0-9704143-7-4'
H H 0.0000 0.0000
'Neutron Data Booklet, ILL Grenoble, France (2003) ISBN 0-9704143-7-4'
N N 0.0000 0.0000
'Neutron Data Booklet, ILL Grenoble, France (2003) ISBN 0-9704143-7-4'
O O 0.0000 0.0000
'Neutron Data Booklet, ILL Grenoble, France (2003) ISBN 0-9704143-7-4'
loop_
_geom_angle_atom_site_label_1
_geom_angle_atom_site_label_2
_geom_angle_atom_site_label_3
_geom_angle
_geom_angle_site_symmetry_1
_geom_angle_site_symmetry_3
_geom_angle_publ_flag
C4 N2 C5 105.39(15) . . ?
O1 C1 C2 117.24(17) . . ?
N1 C2 C3 110.43(14) . . ?
N2 C4 C3 120.82(17) . . ?
N2 C5 N3 111.69(15) . . ?
C2 N1 H1A 108.9(3) . . ?
C5 N3 H3 123.8(3) . . ?
C1 C2 H2 109.7(3) . . ?
C2 C3 H3B 107.0(3) . . ?
N3 C6 H6 123.5(3) . . ?
C5 N3 C6 107.55(16) . . ?
O2 C1 C2 116.04(19) . . ?
C1 C2 C3 109.85(16) . . ?
N2 C4 C6 109.57(16) . . ?
N3 C6 C4 105.81(15) . . ?
C2 N1 H1B 111.7(3) . . ?
C6 N3 H3 128.6(3) . . ?
C3 C2 H2 109.5(3) . . ?
C4 C3 H3A 110.6(3) . . ?
N2 C5 H5 125.6(3) . . ?
C4 C6 H6 130.7(3) . . ?
O1 C1 O2 126.7(2) . . ?
N1 C2 C1 109.87(14) . . ?
C2 C3 C4 112.81(17) . . ?
C3 C4 C6 129.59(17) . . ?
C2 N1 H1C 109.4(3) . . ?
N1 C2 H2 107.4(3) . . ?
C2 C3 H3A 108.7(3) . . ?
C4 C3 H3B 110.7(3) . . ?
N3 C5 H5 122.8(3) . . ?
H1A N1 H1B 106.6(4) . . ?
H3A C3 H3B 106.8(4) . . ?
H1A N1 H1C 111.1(4) . . ?
H1B N1 H1C 109.1(4) . . ?
loop_
_geom_bond_atom_site_label_1
_geom_bond_atom_site_label_2
_geom_bond_distance
_geom_bond_site_symmetry_2
_geom_bond_publ_flag
O1 C1 1.251(3) . ?
N2 C5 1.329(3) . ?
C2 C3 1.543(3) . ?
O2 C1 1.259(3) . ?
N3 C5 1.355(2) . ?
C3 C4 1.498(3) . ?
N1 C2 1.492(2) . ?
N3 C6 1.377(2) . ?
C4 C6 1.381(3) . ?
N2 C4 1.388(2) . ?
C1 C2 1.542(3) . ?
N1 H1A 1.050(5) . ?
C2 H2 1.102(5) . ?
C6 H6 1.076(5) . ?
N1 H1B 1.046(5) . ?
C3 H3A 1.110(6) . ?
N1 H1C 1.049(5) . ?
C3 H3B 1.094(6) . ?
N3 H3 1.055(6) . ?
C5 H5 1.079(5) . ?
loop_
_geom_torsion_atom_site_label_1
_geom_torsion_atom_site_label_2
_geom_torsion_atom_site_label_3
_geom_torsion_atom_site_label_4
_geom_torsion
_geom_torsion_site_symmetry_1
_geom_torsion_site_symmetry_2
_geom_torsion_site_symmetry_3
_geom_torsion_site_symmetry_4
_geom_torsion_publ_flag
C5 N2 C4 C3 178.71(18) . . . . ?
C6 N3 C5 N2 0.4(2) . . . . ?
O1 C1 C2 C3 93.9(2) . . . . ?
N1 C2 C3 C4 -57.6(2) . . . . ?
C2 C3 C4 C6 -128.1(2) . . . . ?
H1A N1 C2 C1 162.9(3) . . . . ?
H1B N1 C2 C1 45.4(4) . . . . ?
H1C N1 C2 C1 -75.5(3) . . . . ?
C4 N2 C5 H5 179.0(4) . . . . ?
H3 N3 C5 H5 2.6(5) . . . . ?
H3 N3 C6 H6 -1.4(6) . . . . ?
C5 N2 C4 C6 0.3(2) . . . . ?
C5 N3 C6 C4 -0.2(2) . . . . ?
O2 C1 C2 N1 154.83(19) . . . . ?
C1 C2 C3 C4 -178.98(14) . . . . ?
N2 C4 C6 N3 -0.1(2) . . . . ?
H1A N1 C2 C3 41.5(3) . . . . ?
H1B N1 C2 C3 -75.9(4) . . . . ?
H1C N1 C2 C3 163.2(3) . . . . ?
C6 N3 C5 H5 -179.0(4) . . . . ?
C5 N3 C6 H6 -179.7(4) . . . . ?
O1 C1 C2 H2 -145.7(3) . . . . ?
C4 N2 C5 N3 -0.5(2) . . . . ?
O1 C1 C2 N1 -27.8(3) . . . . ?
O2 C1 C2 C3 -83.5(2) . . . . ?
C2 C3 C4 N2 53.8(2) . . . . ?
C3 C4 C6 N3 -178.28(19) . . . . ?
H1A N1 C2 H2 -77.9(4) . . . . ?
H1B N1 C2 H2 164.7(4) . . . . ?
H1C N1 C2 H2 43.8(4) . . . . ?
H3 N3 C5 N2 -178.0(3) . . . . ?
H3 N3 C6 C4 178.1(4) . . . . ?
O2 C1 C2 H2 37.0(4) . . . . ?
N1 C2 C3 H3A 65.4(4) . . . . ?
C1 C2 C3 H3B 59.1(4) . . . . ?
H2 C2 C3 H3B -61.5(4) . . . . ?
H3B C3 C4 N2 173.7(3) . . . . ?
C3 C4 C6 H6 1.2(5) . . . . ?
N1 C2 C3 H3B -179.6(3) . . . . ?
H2 C2 C3 C4 60.5(3) . . . . ?
H3A C3 C4 N2 -68.1(4) . . . . ?
H3B C3 C4 C6 -8.2(4) . . . . ?
C1 C2 C3 H3A -56.0(3) . . . . ?
H2 C2 C3 H3A -176.5(4) . . . . ?
H3A C3 C4 C6 109.9(4) . . . . ?
N2 C4 C6 H6 179.4(4) . . . . ?

_cod_database_fobs_code 2108877
