#------------------------------------------------------------------------------
#$Date: 2022-06-09 04:56:52 +0300 (Thu, 09 Jun 2022) $
#$Revision: 275937 $
#$URL: file:///home/coder/svn-repositories/cod/cif/2/10/90/2109003.cif $
#------------------------------------------------------------------------------
#
# This file is available in the Crystallography Open Database (COD),
# http://www.crystallography.net/. The original data for this entry
# were provided by IUCr Journals, http://journals.iucr.org/.
#
# The file may be used within the scientific community so long as
# proper attribution is given to the journal article from which the
# data were obtained.
#
data_2109003
loop_
_publ_author_name
'Hoser, Anna Agnieszka'
'Rekis, Toms'
'Madsen, Anders \/Ostergaard'
_publ_section_title
;
 Dynamics and disorder: on the stability of pyrazinamide polymorphs
;
_journal_issue                   '3 Part 1'
_journal_name_full               'Acta Crystallographica Section B'
_journal_page_first              416
_journal_page_last               424
_journal_paper_doi               10.1107/S2052520622004577
_journal_volume                  78
_journal_year                    2022
_chemical_formula_sum            'C5 H5 N3 O'
_chemical_formula_weight         123.1
_chemical_name_common            Pyrazinamide
_space_group_IT_number           7
_space_group_name_Hall           'P -2yc'
_space_group_name_H-M_alt        'P 1 c 1'
_symmetry_cell_setting           monoclinic
_symmetry_Int_Tables_number      7
_symmetry_space_group_name_Hall  'P -2yc'
_symmetry_space_group_name_H-M   'P 1 c 1'
_cell_angle_alpha                90
_cell_angle_beta                 106.3770(10)
_cell_angle_gamma                90
_cell_formula_units_Z            2
_cell_length_a                   7.1818(7)
_cell_length_b                   3.6295(4)
_cell_length_c                   10.6533(11)
_cell_measurement_reflns_used    4051
_cell_measurement_temperature    10
_cell_measurement_theta_max      33.5
_cell_measurement_theta_min      5.6
_cell_volume                     266.43(5)
_diffrn_ambient_temperature      10
_diffrn_measured_fraction_theta_full 0.99
_diffrn_measured_fraction_theta_max 0.99
_diffrn_measurement_device_type  'Bruker APEX II CCD'
_diffrn_radiation_probe          x-ray
_diffrn_radiation_source         'X-ray tube'
_diffrn_radiation_type           'Mo K\a'
_diffrn_radiation_wavelength     0.71073
_diffrn_reflns_av_R_equivalents  0.0183
_diffrn_reflns_av_unetI/netI     0.0241
_diffrn_reflns_limit_h_max       11
_diffrn_reflns_limit_h_min       -11
_diffrn_reflns_limit_k_max       5
_diffrn_reflns_limit_k_min       -5
_diffrn_reflns_limit_l_max       16
_diffrn_reflns_limit_l_min       -16
_diffrn_reflns_number            4051
_diffrn_reflns_theta_full        33.5
_diffrn_reflns_theta_max         33.5
_diffrn_reflns_theta_min         5.6
_exptl_absorpt_coefficient_mu    0.114
_exptl_crystal_colour            colorless
_exptl_crystal_density_diffrn    1.5347
_exptl_crystal_description       prism
_exptl_crystal_F_000             128
_refine_diff_density_max         0.36
_refine_diff_density_min         -0.25
_refine_ls_abs_structure_details '  901 of Friedel pairs used in the refinement'
_refine_ls_extinction_method     none
_refine_ls_goodness_of_fit_gt    2.04
_refine_ls_goodness_of_fit_ref   1.98
_refine_ls_hydrogen_treatment    constr
_refine_ls_number_constraints    2
_refine_ls_number_parameters     87
_refine_ls_number_reflns         1941
_refine_ls_number_restraints     0
_refine_ls_R_factor_all          0.0400
_refine_ls_R_factor_gt           0.0370
_refine_ls_shift/su_max          0.0628
_refine_ls_shift/su_mean         0.0039
_refine_ls_structure_factor_coef F
_refine_ls_weighting_details     w=1/(\s^2^(F)+0.0001F^2^)
_refine_ls_weighting_scheme      sigma
_refine_ls_wR_factor_gt          0.0419
_refine_ls_wR_factor_ref         0.0423
_reflns_number_gt                1797
_reflns_number_total             1941
_reflns_threshold_expression     I>3\s(I)
_cod_data_source_file            so5076sup1.cif
_cod_data_source_block           gamma10K
_cod_depositor_comments
;
The following automatic conversions were performed:

data item '_diffrn_radiation_probe' value 'X-ray' was changed to
'x-ray' in accordance with the
/home/data/users/saulius/crontab/automatic-downloads/rss-feeds/IUCr/lib/dictionaries/cif_core.dic
dictionary named 'cif_core.dic' version 2.4.2 last updated on
2011-04-26.

Automatic conversion script
Id: cif_fix_values 7556 2019-12-06 15:28:31Z antanas 
;
_cod_original_formula_sum        'C5 H5 N3 O1'
_cod_database_code               2109003
loop_
_space_group_symop_id
_space_group_symop_operation_xyz
1 x,y,z
2 x,-y,z+1/2
loop_
_atom_site_label
_atom_site_type_symbol
_atom_site_fract_x
_atom_site_fract_y
_atom_site_fract_z
_atom_site_adp_type
_atom_site_U_iso_or_equiv
_atom_site_site_symmetry_multiplicity
_atom_site_occupancy
_atom_site_calc_flag
_atom_site_refinement_flags
_atom_site_disorder_assembly
_atom_site_disorder_group
O1a O 0.619126 -0.1368(3) 0.530832 Uani 0.0164(3) 2 0.8455(10) d . . .
N1a N 0.04605(18) 0.2202(3) 0.40898(15) Uani 0.0128(3) 2 0.8455(10) d . . .
N2a N 0.27593(15) 0.2869(3) 0.66896(13) Uani 0.0120(3) 2 0.8455(10) d . . .
N3a N 0.64937(14) 0.0493(3) 0.73905(13) Uani 0.0163(3) 2 0.8455(10) d . . .
C4a C 0.08998(18) 0.3954(4) 0.63175(14) Uani 0.0133(3) 2 0.8455(10) d . . .
C3a C 0.55256(14) 0.0063(3) 0.61342(14) Uani 0.0126(3) 2 0.8455(10) d . . .
C2a C -0.02349(18) 0.3608(4) 0.50272(15) Uani 0.0129(3) 2 0.8455(10) d . . .
C1a C 0.34579(16) 0.1450(4) 0.57524(15) Uani 0.0109(3) 2 0.8455(10) d . . .
C5a C 0.23294(19) 0.1129(4) 0.44641(15) Uani 0.0121(3) 2 0.8455(10) d . . .
H1n3a H 0.589844 0.132383 0.793958 Uiso 0.0196 2 0.8455(10) d . . .
H2n3a H 0.772124 -0.005689 0.766194 Uiso 0.0196 2 0.8455(10) d . . .
H1c4a H 0.033808 0.499441 0.69554 Uiso 0.016 2 0.8455(10) d . . .
H1c2a H -0.156264 0.440495 0.480252 Uiso 0.0155 2 0.8455(10) d . . .
H1c5a H 0.289624 0.011602 0.382451 Uiso 0.0145 2 0.8455(10) d . . .
O1b O -0.0083(3) 0.3036(13) 0.3879(3) Uani 0.0164(3) 2 0.1545(10) d . . .
N1b N 0.5614(4) -0.0688(15) 0.5182(3) Uani 0.0128(3) 2 0.1545(10) d . . .
N2b N 0.3659(2) 0.2342(11) 0.68783(17) Uani 0.0120(3) 2 0.1545(10) d . . .
N3b N -0.0068(4) 0.4664(15) 0.5939(4) Uani 0.0163(3) 2 0.1545(10) d . . .
C4b C 0.5511(3) 0.1231(12) 0.7308(3) Uani 0.0133(4) 2 0.1545(10) d . . .
C3b C 0.0730(2) 0.3262(12) 0.5057(3) Uani 0.0126(4) 2 0.1545(10) d . . .
C2b C 0.6475(3) -0.0260(14) 0.6461(4) Uani 0.0129(4) 2 0.1545(10) d . . .
C1b C 0.27952(17) 0.1925(10) 0.55958(16) Uani 0.0109(4) 2 0.1545(10) d . . .
C5b C 0.3753(4) 0.0414(13) 0.4754(2) Uani 0.0121(4) 2 0.1545(10) d . . .
H1n3b H 0.062862 0.494751 0.674589 Uiso 0.0196 2 0.1545(10) d . . .
H2n3b H -0.128571 0.529664 0.570856 Uiso 0.0196 2 0.1545(10) d . . .
H1c4b H 0.618712 0.147043 0.822016 Uiso 0.016 2 0.1545(10) d . . .
H1c2b H 0.78033 -0.100715 0.680798 Uiso 0.0155 2 0.1545(10) d . . .
H1c5b H 0.307145 0.014819 0.384379 Uiso 0.0145 2 0.1545(10) d . . .
loop_
_atom_site_aniso_label
_atom_site_aniso_type_symbol
_atom_site_aniso_U_11
_atom_site_aniso_U_22
_atom_site_aniso_U_33
_atom_site_aniso_U_12
_atom_site_aniso_U_13
_atom_site_aniso_U_23
O1a O 0.0114(4) 0.0171(5) 0.0209(5) 0.0021(3) 0.0052(3) -0.0011(4)
N1a N 0.0113(4) 0.0145(5) 0.0115(5) 0.0003(4) 0.0015(3) -0.0009(4)
N2a N 0.0115(4) 0.0129(5) 0.0116(5) -0.0001(4) 0.0032(3) 0.0012(4)
N3a N 0.0106(4) 0.0197(5) 0.0167(5) 0.0033(4) 0.0005(4) 0.0003(4)
C4a C 0.0124(5) 0.0145(5) 0.0143(5) 0.0000(4) 0.0058(4) -0.0006(5)
C3a C 0.0088(4) 0.0117(5) 0.0154(5) -0.0005(4) 0.0005(4) 0.0020(5)
C2a C 0.0098(4) 0.0147(6) 0.0144(5) 0.0007(4) 0.0038(4) -0.0010(5)
C1a C 0.0090(5) 0.0109(5) 0.0128(5) -0.0015(4) 0.0030(4) 0.0006(4)
C5a C 0.0105(4) 0.0141(6) 0.0113(5) -0.0001(4) 0.0025(4) -0.0009(5)
O1b O 0.0111(4) 0.0196(5) 0.0166(6) 0.0013(3) 0.0011(4) 0.0026(4)
N1b N 0.0117(4) 0.0147(6) 0.0127(6) 0.0013(4) 0.0046(4) -0.0002(4)
N2b N 0.0116(4) 0.0114(5) 0.0131(6) -0.0002(4) 0.0034(4) -0.0011(4)
N3b N 0.0112(4) 0.0196(6) 0.0183(7) 0.0046(4) 0.0042(4) 0.0007(4)
C4b C 0.0119(5) 0.0147(6) 0.0121(7) -0.0012(4) 0.0015(5) -0.0005(5)
C3b C 0.0093(4) 0.0112(6) 0.0181(7) 0.0009(4) 0.0053(5) 0.0016(4)
C2b C 0.0097(5) 0.0156(7) 0.0125(7) 0.0003(4) 0.0018(5) 0.0004(5)
C1b C 0.0090(5) 0.0106(6) 0.0133(6) -0.0014(4) 0.0033(5) 0.0001(4)
C5b C 0.0106(4) 0.0143(6) 0.0116(7) 0.0003(4) 0.0034(5) -0.0007(4)
loop_
_atom_type_symbol
_atom_type_scat_dispersion_real
_atom_type_scat_dispersion_imag
_atom_type_scat_source
C 0.0033 0.0016 'International Tables Vol C tables 4.2.6.8 and 6.1.1.1'
H 0.0000 0.0000 'International Tables Vol C tables 4.2.6.8 and 6.1.1.1'
N 0.0061 0.0033 'International Tables Vol C tables 4.2.6.8 and 6.1.1.1'
O 0.0106 0.0060 'International Tables Vol C tables 4.2.6.8 and 6.1.1.1'
loop_
_diffrn_standard_refln_index_h
_diffrn_standard_refln_index_k
_diffrn_standard_refln_index_l
? ? ?
loop_
_exptl_crystal_face_index_h
_exptl_crystal_face_index_k
_exptl_crystal_face_index_l
_exptl_crystal_face_perp_dist
? ? ? ?
loop_
_geom_angle_atom_site_label_1
_geom_angle_atom_site_label_2
_geom_angle_atom_site_label_3
_geom_angle_site_symmetry_1
_geom_angle_site_symmetry_2
_geom_angle_site_symmetry_3
_geom_angle
_geom_angle_publ_flag
C3a O1a N1b . . . 59.4(5) ?
C3a O1a C2b . . . 31.90(12) ?
N1b O1a C2b . . . 89.9(5) ?
C2a N1a C5a . . . 116.14(13) ?
C2a N1a O1b . . . 72.1(5) ?
C2a N1a C3b . . . 31.16(11) ?
C5a N1a O1b . . . 154.8(5) ?
C5a N1a C3b . . . 85.62(15) ?
O1b N1a C3b . . . 97.1(5) ?
C4a N2a C1a . . . 116.34(12) ?
C4a N2a N2b . . . 179.2(3) ?
C4a N2a C1b . . . 95.02(12) ?
C1a N2a N2b . . . 64.4(2) ?
C1a N2a C1b . . . 21.38(9) ?
N2b N2a C1b . . . 85.8(2) ?
C3a N3a H1n3a . . . 120 ?
C3a N3a H2n3a . . . 120 ?
C3a N3a C4b . . . 73.2(2) ?
C3a N3a C2b . . . 30.22(14) ?
H1n3a N3a H2n3a . . . 120 ?
H1n3a N3a C4b . . . 47.01 ?
H1n3a N3a C2b . . . 150.22 ?
H2n3a N3a C4b . . . 165.94 ?
H2n3a N3a C2b . . . 89.78 ?
C4b N3a C2b . . . 103.3(3) ?
N2a C4a C2a . . . 121.49(14) ?
N2a C4a H1c4a . . . 119.26 ?
N2a C4a N3b . . . 164.2(4) ?
N2a C4a C3b . . . 92.44(14) ?
N2a C4a H1n3b . . . 115.1 ?
C2a C4a H1c4a . . . 119.25 ?
C2a C4a N3b . . . 45.5(4) ?
C2a C4a C3b . . . 29.48(10) ?
C2a C4a H1n3b . . . 122.22 ?
H1c4a C4a N3b . . . 74.49 ?
H1c4a C4a C3b . . . 147.9 ?
H1c4a C4a H1n3b . . . 11.59 ?
N3b C4a C3b . . . 73.4(4) ?
N3b C4a H1n3b . . . 76.73 ?
C3b C4a H1n3b . . . 147.66 ?
O1a C3a N3a . . . 124.81(9) ?
O1a C3a C1a . . . 119.96(11) ?
O1a C3a N1b . . . 22.1(2) ?
O1a C3a C4b . . . 157.02(13) ?
O1a C3a C2b . . . 76.1(4) ?
N3a C3a C1a . . . 115.23(12) ?
N3a C3a N1b . . . 146.01(19) ?
N3a C3a C4b . . . 32.22(11) ?
N3a C3a C2b . . . 49.0(3) ?
C1a C3a N1b . . . 98.42(19) ?
C1a C3a C4b . . . 83.01(13) ?
C1a C3a C2b . . . 163.5(4) ?
N1b C3a C4b . . . 175.2(3) ?
N1b C3a C2b . . . 97.1(4) ?
C4b C3a C2b . . . 81.1(4) ?
N1a C2a C4a . . . 122.28(12) ?
N1a C2a H1c2a . . . 118.86 ?
N1a C2a O1b . . . 21.66(16) ?
N1a C2a N3b . . . 152.46(19) ?
N1a C2a C3b . . . 52.3(3) ?
C4a C2a H1c2a . . . 118.86 ?
C4a C2a O1b . . . 141.00(15) ?
C4a C2a N3b . . . 31.4(2) ?
C4a C2a C3b . . . 70.9(3) ?
H1c2a C2a O1b . . . 99.08 ?
H1c2a C2a N3b . . . 88.05 ?
H1c2a C2a C3b . . . 166.38 ?
O1b C2a N3b . . . 163.0(3) ?
O1b C2a C3b . . . 70.2(3) ?
N3b C2a C3b . . . 100.1(3) ?
N2a C1a C3a . . . 118.25(11) ?
N2a C1a C5a . . . 122.14(12) ?
N2a C1a N2b . . . 28.91(11) ?
N2a C1a C1b . . . 65.5(3) ?
N2a C1a C5b . . . 167.39(17) ?
C3a C1a C5a . . . 119.58(14) ?
C3a C1a N2b . . . 89.36(13) ?
C3a C1a C1b . . . 175.6(3) ?
C3a C1a C5b . . . 74.26(15) ?
C5a C1a N2b . . . 151.04(16) ?
C5a C1a C1b . . . 56.8(3) ?
C5a C1a C5b . . . 45.44(14) ?
N2b C1a C1b . . . 94.4(3) ?
N2b C1a C5b . . . 163.43(18) ?
C1b C1a C5b . . . 101.9(3) ?
N1a C5a C1a . . . 121.62(15) ?
N1a C5a H1c5a . . . 119.19 ?
N1a C5a C1b . . . 101.62(16) ?
N1a C5a C5b . . . 178.0(3) ?
N1a C5a H1c5b . . . 124.56 ?
C1a C5a H1c5a . . . 119.19 ?
C1a C5a C1b . . . 20.07(11) ?
C1a C5a C5b . . . 57.55(18) ?
C1a C5a H1c5b . . . 113.75 ?
H1c5a C5a C1b . . . 139.14 ?
H1c5a C5a C5b . . . 61.68 ?
H1c5a C5a H1c5b . . . 6.07 ?
C1b C5a C5b . . . 77.5(2) ?
C1b C5a H1c5b . . . 133.55 ?
C5b C5a H1c5b . . . 56.21 ?
N3a H1n3a C4b . . . 55.71 ?
N3a H1n3a H1c4b . . . 112.21 ?
C4b H1n3a H1c4b . . . 163.3 ?
C4a H1c4a H1n3b . . . 22.26 ?
C5a H1c5a C5b . . . 61.83 ?
C5a H1c5a H1c5b . . . 117.82 ?
C5b H1c5a H1c5b . . . 60.84 ?
N1a O1b C2a . . . 86.3(5) ?
N1a O1b C3b . . . 59.4(4) ?
C2a O1b C3b . . . 32.23(14) ?
O1a N1b C3a . . . 98.4(5) ?
O1a N1b C2b . . . 69.6(4) ?
O1a N1b C5b . . . 165.4(8) ?
C3a N1b C2b . . . 30.44(16) ?
C3a N1b C5b . . . 85.8(3) ?
C2b N1b C5b . . . 116.1(3) ?
N2a N2b C1a . . . 86.7(2) ?
N2a N2b C4b . . . 178.1(3) ?
N2a N2b C1b . . . 65.4(2) ?
C1a N2b C4b . . . 95.0(2) ?
C1a N2b C1b . . . 21.35(11) ?
C4b N2b C1b . . . 116.3(2) ?
C4a N3b C2a . . . 103.1(5) ?
C4a N3b C3b . . . 74.2(3) ?
C4a N3b H1n3b . . . 46.92 ?
C4a N3b H2n3b . . . 162.8 ?
C2a N3b C3b . . . 30.97(16) ?
C2a N3b H1n3b . . . 150.01 ?
C2a N3b H2n3b . . . 89.5 ?
C3b N3b H1n3b . . . 120 ?
C3b N3b H2n3b . . . 120 ?
H1n3b N3b H2n3b . . . 120 ?
N3a C4b C3a . . . 74.5(3) ?
N3a C4b H1n3a . . . 77.27 ?
N3a C4b N2b . . . 167.1(4) ?
N3a C4b C2b . . . 45.7(2) ?
N3a C4b H1c4b . . . 73.61 ?
C3a C4b H1n3a . . . 151.17 ?
C3a C4b N2b . . . 92.59(18) ?
C3a C4b C2b . . . 28.97(13) ?
C3a C4b H1c4b . . . 148.08 ?
H1n3a C4b N2b . . . 115.51 ?
H1n3a C4b C2b . . . 122.84 ?
H1n3a C4b H1c4b . . . 5.44 ?
N2b C4b C2b . . . 121.5(2) ?
N2b C4b H1c4b . . . 119.26 ?
C2b C4b H1c4b . . . 119.25 ?
N1a C3b C4a . . . 168.3(4) ?
N1a C3b C2a . . . 96.5(3) ?
N1a C3b O1b . . . 23.6(2) ?
N1a C3b N3b . . . 145.40(19) ?
N1a C3b C1b . . . 98.2(2) ?
C4a C3b C2a . . . 79.6(3) ?
C4a C3b O1b . . . 157.0(2) ?
C4a C3b N3b . . . 32.37(16) ?
C4a C3b C1b . . . 82.96(15) ?
C2a C3b O1b . . . 77.6(3) ?
C2a C3b N3b . . . 48.9(3) ?
C2a C3b C1b . . . 158.9(4) ?
O1b C3b N3b . . . 124.8(2) ?
O1b C3b C1b . . . 120.0(3) ?
N3b C3b C1b . . . 115.2(2) ?
O1a C2b N3a . . . 171.1(3) ?
O1a C2b C3a . . . 72.0(3) ?
O1a C2b N1b . . . 20.50(19) ?
O1a C2b C4b . . . 141.87(19) ?
O1a C2b H1c2b . . . 98.94 ?
N3a C2b C3a . . . 100.8(4) ?
N3a C2b N1b . . . 153.3(3) ?
N3a C2b C4b . . . 31.00(15) ?
N3a C2b H1c2b . . . 87.87 ?
C3a C2b N1b . . . 52.5(3) ?
C3a C2b C4b . . . 69.9(3) ?
C3a C2b H1c2b . . . 170.41 ?
N1b C2b C4b . . . 122.3(3) ?
N1b C2b H1c2b . . . 118.86 ?
C4b C2b H1c2b . . . 118.86 ?
N2a C1b C1a . . . 93.1(3) ?
N2a C1b C5a . . . 163.14(15) ?
N2a C1b N2b . . . 28.87(11) ?
N2a C1b C3b . . . 89.42(18) ?
N2a C1b C5b . . . 151.00(16) ?
C1a C1b C5a . . . 103.2(4) ?
C1a C1b N2b . . . 64.3(3) ?
C1a C1b C3b . . . 177.2(5) ?
C1a C1b C5b . . . 57.9(3) ?
C5a C1b N2b . . . 167.3(3) ?
C5a C1b C3b . . . 74.24(15) ?
C5a C1b C5b . . . 45.55(14) ?
N2b C1b C3b . . . 118.3(2) ?
N2b C1b C5b . . . 122.14(18) ?
C3b C1b C5b . . . 119.58(18) ?
C1a C5b C5a . . . 77.0(2) ?
C1a C5b H1c5a . . . 133.45 ?
C1a C5b N1b . . . 101.5(2) ?
C1a C5b C1b . . . 20.18(10) ?
C1a C5b H1c5b . . . 139.3 ?
C5a C5b H1c5a . . . 56.49 ?
C5a C5b N1b . . . 176.6(4) ?
C5a C5b C1b . . . 56.98(19) ?
C5a C5b H1c5b . . . 62.3 ?
H1c5a C5b N1b . . . 124.83 ?
H1c5a C5b C1b . . . 113.47 ?
H1c5a C5b H1c5b . . . 6.38 ?
N1b C5b C1b . . . 121.6(2) ?
N1b C5b H1c5b . . . 119.19 ?
C1b C5b H1c5b . . . 119.19 ?
C4a H1n3b H1c4a . . . 146.14 ?
C4a H1n3b N3b . . . 56.36 ?
H1c4a H1n3b N3b . . . 111.06 ?
H1n3a H1c4b C4b . . . 11.26 ?
C5a H1c5b H1c5a . . . 56.11 ?
C5a H1c5b C5b . . . 61.49 ?
H1c5a H1c5b C5b . . . 112.78 ?
loop_
_geom_bond_atom_site_label_1
_geom_bond_atom_site_label_2
_geom_bond_site_symmetry_1
_geom_bond_site_symmetry_2
_geom_bond_distance
_geom_bond_publ_flag
O1a C3a . . 1.2285(15) ?
O1a N1b . . 0.468(4) ?
O1a C2b . . 1.253(4) ?
N1a C2a . . 1.337(2) ?
N1a C5a . . 1.3455(18) ?
N1a O1b . . 0.495(4) ?
N1a C3b . . 1.065(3) ?
N2a C4a . . 1.3406(17) ?
N2a C1a . . 1.340(2) ?
N2a N2b . . 0.649(2) ?
N2a C1b . . 1.222(2) ?
N3a C3a . . 1.3320(18) ?
N3a H1n3a . . 0.87 ?
N3a H2n3a . . 0.87 ?
N3a C4b . . 0.737(3) ?
N3a C2b . . 1.023(4) ?
C4a C2a . . 1.3921(19) ?
C4a H1c4a . . 0.96 ?
C4a N3b . . 0.744(3) ?
C4a C3b . . 1.337(3) ?
C4a H1n3b . . 0.6529 ?
C3a C1a . . 1.5111(16) ?
C3a N1b . . 1.069(4) ?
C3a C4b . . 1.323(3) ?
C3a C2b . . 0.683(2) ?
C2a H1c2a . . 0.96 ?
C2a O1b . . 1.275(4) ?
C2a N3b . . 1.020(4) ?
C2a C3b . . 0.696(2) ?
C1a C5a . . 1.3880(19) ?
C1a N2b . . 1.211(3) ?
C1a C1b . . 0.489(2) ?
C1a C5b . . 1.202(3) ?
C5a H1c5a . . 0.96 ?
C5a C1b . . 1.192(2) ?
C5a C5b . . 1.015(3) ?
C5a H1c5b . . 1.0228 ?
H1n3a C4b . . 0.6525 ?
H1n3a H1c4b . . 0.3166 ?
H1c4a H1n3b . . 0.3463 ?
H1c5a C5b . . 1.0136 ?
H1c5a H1c5b . . 0.1222 ?
O1b C3b . . 1.229(4) ?
N1b C2b . . 1.337(5) ?
N1b C5b . . 1.346(4) ?
N2b C4b . . 1.341(3) ?
N2b C1b . . 1.340(2) ?
N3b C3b . . 1.332(5) ?
N3b H1n3b . . 0.87 ?
N3b H2n3b . . 0.87 ?
C4b C2b . . 1.392(5) ?
C4b H1c4b . . 0.96 ?
C3b C1b . . 1.511(3) ?
C2b H1c2b . . 0.96 ?
C1b C5b . . 1.388(4) ?
C5b H1c5b . . 0.96 ?
loop_
_geom_hbond_atom_site_label_D
_geom_hbond_atom_site_label_H
_geom_hbond_atom_site_label_A
_geom_hbond_site_symmetry_D
_geom_hbond_site_symmetry_H
_geom_hbond_site_symmetry_A
_geom_hbond_distance_DH
_geom_hbond_distance_HA
_geom_hbond_distance_DA
_geom_hbond_angle_DHA
_geom_hbond_publ_flag
N3a H1n3a O1a . . 2_555 0.87 2.47 3.1924(15) 140.53 ?
N3a H1n3a N1b . . 2_555 0.87 2.47 3.211(4) 144.07 ?
C4b H1n3a O1a . . 2_555 0.65 2.47 3.095(3) 160.31 ?
C4b H1n3a N1b . . 2_555 0.65 2.47 3.048(5) 150.07 ?
N3a H2n3a N1a . . 2_655 0.87 2.26 3.0728(16) 155.70 ?
N3a H2n3a O1b . . 2_655 0.87 2.05 2.829(3) 149.30 ?
C2b H2n3a N1a . . 2_655 1.34 2.26 3.466(3) 147.57 ?
C2b H2n3a O1b . . 2_655 1.34 2.05 3.189(4) 139.81 ?
C4a H1c4a N1a . . 2_565 0.96 2.47 3.361(2) 154.24 ?
C4a H1c4a O1b . . 2_565 0.96 2.27 3.198(4) 162.26 ?
N3b H1c4a N1a . . 2_565 1.05 2.47 3.462(4) 158.05 ?
N3b H1c4a O1b . . 2_565 1.05 2.27 3.244(6) 154.39 ?
C2a H1c2a O1a . . 1_465 0.96 2.40 3.2306(16) 145.25 ?
C5a H1c5a N2a . . 2_554 0.96 2.50 3.384(2) 153.81 ?
C5a H1c5a N2b . . 2_554 0.96 2.46 3.401(3) 168.01 ?
C5b H1c5a N2a . . 2_554 1.01 2.50 3.358(3) 142.52 ?
C5b H1c5a N2b . . 2_554 1.01 2.46 3.205(4) 130.15 ?
C2a H2n3b O1a . . 1_465 1.33 2.12 3.2306(16) 137.32 ?
N3b H2n3b O1a . . 1_465 0.87 2.12 2.954(4) 160.33 ?
N3a H1c4b O1a . . 2_555 1.03 2.22 3.1924(15) 155.55 ?
N3a H1c4b N1b . . 2_555 1.03 2.26 3.211(4) 152.57 ?
C4b H1c4b O1a . . 2_555 0.96 2.22 3.095(3) 150.29 ?
C4b H1c4b N1b . . 2_555 0.96 2.26 3.048(5) 138.85 ?
C2b H1c2b O1b . . 2_655 0.96 2.41 3.189(4) 137.60 ?
C5a H1c5b N2a . . 2_554 1.02 2.50 3.384(2) 144.98 ?
C5a H1c5b N2b . . 2_554 1.02 2.42 3.401(3) 159.57 ?
C5b H1c5b N2a . . 2_554 0.96 2.50 3.358(3) 149.44 ?
C5b H1c5b N2b . . 2_554 0.96 2.42 3.205(4) 138.28 ?
loop_
_geom_torsion_atom_site_label_1
_geom_torsion_atom_site_label_2
_geom_torsion_atom_site_label_3
_geom_torsion_atom_site_label_4
_geom_torsion_site_symmetry_1
_geom_torsion_site_symmetry_2
_geom_torsion_site_symmetry_3
_geom_torsion_site_symmetry_4
_geom_torsion
_geom_torsion_publ_flag
? ? ? ? ? ? ? ? ? ?
loop_
_refln_index_h
_refln_index_k
_refln_index_l
_refln_F_squared_calc
_refln_F_squared_meas
_refln_F_squared_sigma
_refln_observed_status
2 0 0 683.15 701.68 8.22 o
-2 0 0 683.20 707.05 11.23 o
3 0 0 1182.25 1288.09 12.52 o
-3 0 0 1182.21 1320.43 15.19 o
4 0 0 265.62 297.18 3.06 o
-4 0 0 265.85 306.68 3.83 o
5 0 0 85.18 92.12 1.52 o
-5 0 0 85.17 94.89 1.56 o
6 0 0 6.44 7.45 0.39 o
-6 0 0 6.48 7.33 0.39 o
7 0 0 36.29 32.00 0.88 o
-7 0 0 36.18 31.05 0.90 o
8 0 0 10.11 9.91 0.56 o
-8 0 0 10.17 10.39 0.56 o
9 0 0 13.44 12.58 0.66 o
-9 0 0 13.36 13.08 0.66 o
10 0 0 33.50 36.64 1.16 o
-10 0 0 33.45 36.26 1.16 o
0 1 0 701.64 644.51 7.65 o
1 1 0 1319.87 1221.97 11.91 o
-1 1 0 1320.42 1262.20 11.95 o
2 1 0 251.50 243.82 2.49 o
-2 1 0 251.24 242.22 3.01 o
3 1 0 235.53 250.28 2.24 o
-3 1 0 235.65 252.95 3.17 o
4 1 0 66.80 68.11 0.91 o
-4 1 0 66.86 67.23 1.15 o
5 1 0 26.08 25.99 0.45 o
-5 1 0 26.15 26.01 0.68 o
6 1 0 10.67 7.61 0.41 o
-6 1 0 10.65 8.06 0.34 o
7 1 0 25.12 20.35 0.72 o
-7 1 0 25.09 21.59 0.59 o
8 1 0 12.37 13.04 0.61 o
-8 1 0 12.34 12.88 0.43 o
9 1 0 11.07 11.27 0.63 o
-9 1 0 11.05 11.98 0.45 o
10 1 0 55.69 60.98 1.58 o
-10 1 0 55.63 63.87 1.13 o
0 2 0 0.03 0.52 0.09 o
1 2 0 215.77 222.98 2.36 o
-1 2 0 215.76 220.17 2.94 o
2 2 0 45.73 52.29 0.79 o
-2 2 0 45.74 52.56 0.73 o
3 2 0 33.17 38.34 0.66 o
-3 2 0 33.16 36.56 0.61 o
4 2 0 34.23 35.04 0.68 o
-4 2 0 34.27 35.20 0.81 o
5 2 0 13.06 12.40 0.41 o
-5 2 0 13.05 12.70 0.50 o
6 2 0 2.60 1.79 0.21 o
-6 2 0 2.59 2.36 0.30 o
7 2 0 16.33 17.57 0.70 o
-7 2 0 16.31 16.09 0.54 o
8 2 0 0.27 0.39 0.20 <
-8 2 0 0.27 0.30 0.18 <
9 2 0 40.83 47.62 1.33 o
-9 2 0 40.82 46.99 0.95 o
10 2 0 2.77 2.71 0.43 o
-10 2 0 2.76 2.44 0.45 o
0 3 0 2.14 2.85 0.29 o
1 3 0 5.93 5.71 0.29 o
-1 3 0 5.96 6.06 0.38 o
2 3 0 9.25 11.68 0.38 o
-2 3 0 9.22 11.81 0.48 o
3 3 0 4.06 4.93 0.32 o
-3 3 0 4.05 5.41 0.38 o
4 3 0 12.46 11.64 0.43 o
-4 3 0 12.45 12.52 0.52 o
5 3 0 8.57 7.95 0.41 o
-5 3 0 8.56 8.37 0.82 o
6 3 0 4.98 3.94 0.34 o
-6 3 0 5.00 4.55 0.68 o
7 3 0 52.97 51.27 1.07 o
-7 3 0 52.96 49.07 1.95 o
8 3 0 9.02 10.21 0.66 o
-8 3 0 9.03 8.51 0.68 o
9 3 0 18.00 18.77 0.86 o
-9 3 0 18.05 18.88 0.91 o
0 4 0 8.79 9.28 0.52 o
1 4 0 4.06 3.28 0.38 o
-1 4 0 4.05 4.30 0.39 o
2 4 0 1.22 0.97 0.25 o
-2 4 0 1.21 1.52 0.27 o
3 4 0 2.66 2.56 0.34 o
-3 4 0 2.64 3.42 0.56 o
4 4 0 10.07 10.80 0.48 o
-4 4 0 10.04 8.37 0.86 o
5 4 0 3.27 3.08 0.32 o
-5 4 0 3.28 3.82 0.63 o
6 4 0 6.77 5.89 0.43 o
-6 4 0 6.77 5.98 0.81 o
7 4 0 11.91 11.02 0.56 o
-7 4 0 11.87 13.33 1.11 o
0 5 0 0.58 0.47 0.25 <
1 5 0 4.83 4.84 0.50 o
-1 5 0 4.84 4.53 0.48 o
2 5 0 27.01 26.60 0.99 o
-2 5 0 26.99 26.82 1.40 o
3 5 0 11.52 10.34 0.73 o
-3 5 0 11.53 10.86 0.93 o
4 5 0 8.39 6.84 0.61 o
-4 5 0 8.39 7.63 0.91 o
-10 1 1 34.01 39.59 0.88 o
10 1 -1 33.99 37.19 1.18 o
-9 1 1 0.45 0.05 0.13 <
9 1 -1 0.44 0.52 0.25 <
-8 1 1 5.38 4.87 0.32 o
8 1 -1 5.40 5.05 0.36 o
-7 1 1 32.02 28.16 0.59 o
7 1 -1 31.97 27.88 0.64 o
-6 1 1 26.77 24.08 0.57 o
6 1 -1 26.81 23.47 0.56 o
-5 1 1 51.35 52.88 0.86 o
5 1 -1 51.31 54.91 0.84 o
-4 1 1 219.93 232.39 3.06 o
4 1 -1 220.07 230.22 2.45 o
-3 1 1 24.68 30.49 0.61 o
3 1 -1 24.61 29.92 0.41 o
-2 1 1 1.82 3.26 0.23 o
2 1 -1 1.82 2.38 0.13 o
-1 1 1 1747.98 1725.51 16.62 o
1 1 -1 1748.21 1751.42 20.83 o
0 1 1 827.07 816.94 9.64 o
0 1 -1 827.10 810.85 13.47 o
1 1 1 307.53 296.41 2.94 o
-1 1 -1 307.47 291.86 3.58 o
2 1 1 273.53 285.02 2.88 o
-2 1 -1 273.56 280.81 2.79 o
3 1 1 181.34 202.83 1.85 o
-3 1 -1 181.46 198.60 2.08 o
4 1 1 53.46 54.46 0.68 o
-4 1 -1 53.42 54.33 0.99 o
5 1 1 15.65 15.55 0.32 o
-5 1 -1 15.62 15.96 0.52 o
6 1 1 19.72 21.55 0.48 o
-6 1 -1 19.74 22.20 0.68 o
7 1 1 10.69 10.82 0.54 o
-7 1 -1 10.73 10.12 0.41 o
8 1 1 3.10 4.05 0.43 o
-8 1 -1 3.07 3.12 0.27 o
9 1 1 4.83 3.56 0.43 o
-9 1 -1 4.84 4.37 0.32 o
10 1 1 6.85 6.43 0.59 o
-10 1 -1 6.85 7.29 0.45 o
-10 2 1 32.36 34.66 0.82 o
10 2 -1 32.29 32.10 1.13 o
-9 2 1 23.25 25.47 0.68 o
9 2 -1 23.29 25.42 0.95 o
-8 2 1 2.37 1.79 0.27 o
8 2 -1 2.34 2.31 0.34 o
-7 2 1 5.18 5.02 0.36 o
7 2 -1 5.16 4.78 0.43 o
-6 2 1 16.00 14.30 0.59 o
6 2 -1 15.99 13.56 0.45 o
-5 2 1 33.64 33.88 0.86 o
5 2 -1 33.64 34.02 0.70 o
-4 2 1 7.49 8.01 0.39 o
4 2 -1 7.52 7.24 0.30 o
-3 2 1 20.90 21.78 0.45 o
3 2 -1 20.98 21.84 0.38 o
-2 2 1 218.66 236.18 2.49 o
2 2 -1 218.47 235.99 2.15 o
-1 2 1 352.08 359.90 3.60 o
1 2 -1 352.38 356.93 3.62 o
0 2 1 49.75 49.59 0.70 o
0 2 -1 49.73 50.84 0.91 o
1 2 1 24.74 23.93 0.47 o
-1 2 -1 24.69 23.02 0.54 o
2 2 1 111.64 119.38 1.45 o
-2 2 -1 111.76 116.37 1.36 o
3 2 1 26.39 24.38 0.52 o
-3 2 -1 26.42 23.61 0.47 o
4 2 1 28.86 29.52 0.63 o
-4 2 -1 28.89 28.63 0.72 o
5 2 1 1.54 0.73 0.16 o
-5 2 -1 1.54 0.73 0.20 o
6 2 1 152.21 144.88 1.93 o
-6 2 -1 152.18 145.56 2.33 o
7 2 1 10.62 9.78 0.54 o
-7 2 -1 10.67 9.94 0.54 o
8 2 1 6.15 5.41 0.50 o
-8 2 -1 6.15 5.27 0.50 o
9 2 1 55.25 58.40 1.52 o
-9 2 -1 55.19 59.69 1.27 o
-9 3 1 10.69 11.45 0.73 o
9 3 -1 10.68 11.45 0.72 o
-8 3 1 9.27 8.28 0.64 o
8 3 -1 9.28 8.47 0.63 o
-7 3 1 3.94 3.78 0.66 o
7 3 -1 3.93 3.58 0.34 o
-6 3 1 1.57 1.15 0.29 o
6 3 -1 1.56 1.24 0.21 o
-5 3 1 5.11 5.70 0.45 o
5 3 -1 5.13 5.14 0.34 o
-4 3 1 2.77 2.72 0.30 o
4 3 -1 2.78 2.53 0.25 o
-3 3 1 5.30 4.07 0.34 o
3 3 -1 5.30 5.25 0.32 o
-2 3 1 66.56 71.64 1.34 o
2 3 -1 66.60 73.50 1.09 o
-1 3 1 2.40 2.54 0.29 o
1 3 -1 2.39 1.61 0.21 o
0 3 1 8.52 9.41 0.34 o
0 3 -1 8.58 8.10 0.41 o
1 3 1 53.01 54.01 0.90 o
-1 3 -1 52.99 54.48 1.11 o
2 3 1 41.67 42.26 0.79 o
-2 3 -1 41.72 41.69 0.93 o
3 3 1 36.05 37.08 0.75 o
-3 3 -1 36.02 36.67 1.33 o
4 3 1 28.66 28.90 0.70 o
-4 3 -1 28.71 29.86 1.25 o
5 3 1 9.52 9.14 0.41 o
-5 3 -1 9.49 9.26 0.79 o
6 3 1 5.51 5.93 0.41 o
-6 3 -1 5.50 5.25 0.70 o
7 3 1 43.03 41.51 0.97 o
-7 3 -1 43.07 42.37 1.77 o
8 3 1 32.34 35.09 1.13 o
-8 3 -1 32.29 33.11 1.68 o
-7 4 1 3.50 2.63 0.64 o
7 4 -1 3.49 3.35 0.36 o
-6 4 1 6.33 5.70 0.81 o
6 4 -1 6.32 5.98 0.43 o
-5 4 1 17.91 15.64 1.06 o
5 4 -1 17.90 18.22 0.61 o
-4 4 1 7.18 5.16 0.68 o
4 4 -1 7.18 6.06 0.50 o
-3 4 1 23.30 25.62 1.27 o
3 4 -1 23.27 25.15 0.88 o
-2 4 1 2.03 1.83 0.29 o
2 4 -1 2.02 1.76 0.29 o
-1 4 1 3.48 3.46 0.38 o
1 4 -1 3.48 3.49 0.38 o
0 4 1 4.92 5.11 0.45 o
0 4 -1 4.91 5.18 0.45 o
1 4 1 2.87 3.33 0.38 o
-1 4 -1 2.86 2.44 0.32 o
2 4 1 8.51 8.90 0.57 o
-2 4 -1 8.51 9.15 0.52 o
3 4 1 3.71 3.65 0.41 o
-3 4 -1 3.72 3.58 0.56 o
4 4 1 3.40 2.72 0.30 o
-4 4 -1 3.39 2.40 0.48 o
5 4 1 2.72 2.38 0.30 o
-5 4 -1 2.72 2.45 0.54 o
6 4 1 2.04 1.77 0.29 o
-6 4 -1 2.04 1.92 0.56 o
7 4 1 2.18 1.31 0.29 o
-7 4 -1 2.18 1.11 0.54 <
-5 5 1 9.17 8.42 0.97 o
5 5 -1 9.19 8.28 0.91 o
-4 5 1 6.88 6.23 0.82 o
4 5 -1 6.90 5.50 0.54 o
-3 5 1 5.99 6.84 0.86 o
3 5 -1 5.95 5.37 0.52 o
-2 5 1 15.07 14.44 1.06 o
2 5 -1 15.07 15.98 0.77 o
-1 5 1 5.61 5.46 0.52 o
1 5 -1 5.62 4.98 0.50 o
0 5 1 1.56 1.72 0.34 o
0 5 -1 1.54 1.72 0.34 o
1 5 1 8.97 6.83 0.57 o
-1 5 -1 8.97 7.83 0.61 o
2 5 1 2.86 3.14 0.43 o
-2 5 -1 2.86 2.29 0.52 o
3 5 1 1.44 1.02 0.32 o
-3 5 -1 1.43 1.50 0.45 o
4 5 1 0.24 0.05 0.23 <
-4 5 -1 0.24 0.23 0.30 <
-11 0 2 157.95 175.42 4.59 o
-10 0 2 11.03 12.61 0.68 o
10 0 -2 11.09 10.89 0.70 o
-9 0 2 13.83 16.19 0.72 o
9 0 -2 13.89 15.12 0.70 o
-8 0 2 64.32 58.90 1.36 o
8 0 -2 64.26 59.26 1.34 o
-7 0 2 24.43 20.62 0.70 o
7 0 -2 24.53 20.66 0.70 o
-6 0 2 46.05 46.29 1.02 o
6 0 -2 45.96 47.98 1.02 o
-5 0 2 17.98 18.83 0.54 o
5 0 -2 18.04 19.15 0.54 o
-4 0 2 254.39 296.47 3.74 o
4 0 -2 254.05 292.85 2.99 o
-3 0 2 121.06 125.26 1.70 o
3 0 -2 121.18 126.93 1.70 o
-2 0 2 248.41 245.04 2.99 o
2 0 -2 247.77 249.71 3.01 o
1 0 2 159.32 144.32 2.56 o
2 0 2 58.09 59.64 0.90 o
3 0 2 109.73 104.01 1.20 o
4 0 2 55.18 49.53 0.73 o
-4 0 -2 55.13 52.10 1.42 o
5 0 2 223.92 205.91 2.90 o
-5 0 -2 224.06 210.60 2.94 o
6 0 2 8.26 9.58 0.45 o
-6 0 -2 8.22 9.42 0.45 o
7 0 2 12.73 12.09 0.56 o
-7 0 -2 12.80 12.56 0.57 o
8 0 2 53.12 55.03 1.33 o
-8 0 -2 53.18 54.44 1.34 o
9 0 2 12.76 12.93 0.68 o
-9 0 -2 12.77 13.60 0.68 o
10 0 2 10.02 12.02 1.20 o
-10 0 -2 10.07 10.18 0.72 o
-10 1 2 34.30 38.48 0.86 o
10 1 -2 34.36 37.08 1.18 o
-9 1 2 5.09 3.94 0.30 o
9 1 -2 5.06 5.07 0.48 o
-8 1 2 8.86 9.78 0.38 o
8 1 -2 8.89 9.03 0.43 o
-7 1 2 2.48 1.79 0.20 o
7 1 -2 2.49 2.28 0.23 o
-6 1 2 13.33 15.21 0.45 o
6 1 -2 13.31 14.90 0.43 o
-5 1 2 35.60 39.38 0.70 o
5 1 -2 35.54 38.53 0.57 o
-4 1 2 100.48 109.82 1.34 o
4 1 -2 100.41 109.15 1.31 o
-3 1 2 105.70 117.30 1.63 o
3 1 -2 105.58 111.59 1.31 o
-2 1 2 30.11 32.71 0.47 o
2 1 -2 30.10 33.12 0.47 o
-1 1 2 1296.53 1246.69 11.84 o
1 1 -2 1296.10 1228.85 20.66 o
0 1 2 3.61 5.21 0.16 o
0 1 -2 3.62 5.30 0.29 o
1 1 2 45.52 46.43 0.63 o
-1 1 -2 45.45 46.34 0.73 o
2 1 2 19.70 19.49 0.38 o
-2 1 -2 19.69 19.85 0.34 o
3 1 2 14.36 13.63 0.27 o
-3 1 -2 14.35 14.17 0.30 o
4 1 2 4.37 3.89 0.18 o
-4 1 -2 4.38 3.83 0.20 o
5 1 2 44.47 42.99 0.66 o
-5 1 -2 44.49 42.24 0.91 o
6 1 2 70.95 66.00 1.13 o
-6 1 -2 71.02 66.75 1.31 o
7 1 2 11.40 12.54 0.50 o
-7 1 -2 11.40 11.21 0.43 o
8 1 2 12.87 14.48 0.66 o
-8 1 -2 12.90 13.40 0.45 o
9 1 2 26.99 25.76 0.95 o
-9 1 -2 27.04 27.45 0.70 o
10 1 2 0.87 0.61 0.32 <
-10 1 -2 0.88 0.52 0.23 <
-10 2 2 6.40 6.61 0.43 o
10 2 -2 6.42 5.37 0.54 o
-9 2 2 2.42 2.20 0.27 o
9 2 -2 2.42 1.81 0.34 o
-8 2 2 6.76 7.13 0.45 o
8 2 -2 6.75 6.22 0.52 o
-7 2 2 13.59 12.67 0.48 o
7 2 -2 13.58 12.76 0.59 o
-6 2 2 8.75 8.99 0.38 o
6 2 -2 8.77 7.88 0.34 o
-5 2 2 36.92 39.09 0.95 o
5 2 -2 36.91 40.34 0.77 o
-4 2 2 32.87 31.91 0.79 o
4 2 -2 32.88 32.44 0.52 o
-3 2 2 5.05 5.55 0.25 o
3 2 -2 5.04 5.03 0.20 o
-2 2 2 420.32 441.25 4.44 o
2 2 -2 420.46 444.51 4.46 o
-1 2 2 74.24 77.27 0.99 o
1 2 -2 74.23 77.75 0.97 o
0 2 2 43.70 44.55 0.68 o
0 2 -2 43.71 44.34 0.82 o
1 2 2 111.63 107.77 1.33 o
-1 2 -2 111.67 107.50 1.59 o
2 2 2 151.00 157.95 1.85 o
-2 2 -2 151.03 157.33 1.74 o
3 2 2 61.32 62.34 0.97 o
-3 2 -2 61.25 61.64 0.86 o
4 2 2 2.32 2.04 0.21 o
-4 2 -2 2.31 2.11 0.23 o
5 2 2 0.86 0.79 0.14 o
-5 2 -2 0.85 0.50 0.18 <
6 2 2 48.16 47.29 0.93 o
-6 2 -2 48.12 47.35 1.67 o
7 2 2 13.13 11.95 0.59 o
-7 2 -2 13.12 11.77 0.90 o
8 2 2 12.90 11.98 0.64 o
-8 2 -2 12.90 12.11 0.66 o
9 2 2 16.68 17.81 0.81 o
-9 2 -2 16.69 17.31 0.68 o
-9 3 2 1.28 1.74 0.39 o
9 3 -2 1.26 1.50 0.34 o
-8 3 2 1.98 2.13 0.30 o
8 3 -2 1.97 2.01 0.36 o
-7 3 2 19.57 18.20 0.61 o
7 3 -2 19.54 19.69 0.63 o
-6 3 2 39.11 37.46 1.06 o
6 3 -2 39.11 37.42 0.84 o
-5 3 2 15.49 14.12 0.61 o
5 3 -2 15.52 14.67 0.48 o
-4 3 2 59.14 58.94 1.25 o
4 3 -2 59.12 62.61 1.06 o
-3 3 2 59.92 63.49 1.25 o
3 3 -2 59.93 63.60 1.02 o
-2 3 2 126.55 129.50 2.08 o
2 3 -2 126.72 130.54 1.65 o
-1 3 2 30.34 33.59 0.86 o
1 3 -2 30.30 34.88 0.84 o
0 3 2 40.89 43.32 0.75 o
0 3 -2 40.97 43.77 0.97 o
1 3 2 16.98 18.27 0.48 o
-1 3 -2 17.03 18.02 0.59 o
2 3 2 4.10 4.07 0.29 o
-2 3 -2 4.09 3.96 0.32 o
3 3 2 1.31 1.15 0.18 o
-3 3 -2 1.29 2.08 0.41 o
4 3 2 4.04 4.25 0.32 o
-4 3 -2 4.03 4.21 0.57 o
5 3 2 44.12 43.73 0.93 o
-5 3 -2 44.08 41.60 1.59 o
6 3 2 7.49 8.83 0.47 o
-6 3 -2 7.46 9.44 0.91 o
7 3 2 33.79 31.62 0.84 o
-7 3 -2 33.75 32.23 1.54 o
8 3 2 33.51 34.41 1.15 o
-8 3 -2 33.48 35.17 1.70 o
-7 4 2 9.17 8.15 0.99 o
7 4 -2 9.16 7.49 0.48 o
-6 4 2 16.04 16.09 1.13 o
6 4 -2 16.05 14.62 0.57 o
-5 4 2 14.06 15.16 1.04 o
5 4 -2 14.09 14.13 0.70 o
-4 4 2 7.55 5.89 0.73 o
4 4 -2 7.51 5.88 0.50 o
-3 4 2 139.57 139.97 3.58 o
3 4 -2 139.69 141.01 2.47 o
-2 4 2 4.14 3.85 0.39 o
2 4 -2 4.14 4.12 0.41 o
-1 4 2 6.81 7.24 0.52 o
1 4 -2 6.86 6.27 0.48 o
0 4 2 41.53 42.56 1.13 o
0 4 -2 41.56 41.02 1.07 o
1 4 2 18.64 19.56 0.75 o
-1 4 -2 18.69 18.34 0.70 o
2 4 2 9.63 9.98 0.56 o
-2 4 -2 9.62 10.43 0.54 o
3 4 2 3.68 3.15 0.30 o
-3 4 -2 3.71 3.17 0.52 o
4 4 2 28.15 29.47 0.79 o
-4 4 -2 28.07 27.93 1.31 o
5 4 2 3.32 2.81 0.32 o
-5 4 -2 3.35 3.17 0.57 o
6 4 2 5.00 3.98 0.38 o
-6 4 -2 4.97 3.69 0.68 o
7 4 2 32.15 32.46 0.91 o
-7 4 -2 32.08 36.01 1.68 o
-5 5 2 8.62 7.97 0.95 o
5 5 -2 8.62 7.33 0.84 o
-4 5 2 5.43 4.35 0.72 o
4 5 -2 5.42 4.66 0.50 o
-3 5 2 6.32 6.23 0.82 o
3 5 -2 6.32 5.73 0.54 o
-2 5 2 12.91 12.31 1.00 o
2 5 -2 12.95 12.47 0.68 o
-1 5 2 0.88 0.75 0.30 <
1 5 -2 0.88 0.50 0.25 <
0 5 2 1.78 1.59 0.34 o
0 5 -2 1.79 1.54 0.32 o
1 5 2 1.57 1.38 0.32 o
-1 5 -2 1.59 0.91 0.30 <
2 5 2 1.17 0.59 0.29 <
-2 5 -2 1.17 1.15 0.39 <
3 5 2 5.51 5.23 0.56 o
-3 5 -2 5.50 4.94 0.72 o
4 5 2 1.26 1.15 0.30 o
-4 5 -2 1.26 1.68 0.47 o
-10 1 3 9.27 9.76 0.48 o
10 1 -3 9.27 8.81 0.68 o
-9 1 3 12.26 11.77 0.45 o
9 1 -3 12.24 12.31 0.50 o
-8 1 3 23.39 23.16 0.57 o
8 1 -3 23.45 22.91 0.63 o
-7 1 3 12.32 12.25 0.38 o
7 1 -3 12.32 12.56 0.43 o
-6 1 3 4.81 4.28 0.29 o
6 1 -3 4.80 5.46 0.32 o
-5 1 3 32.92 33.82 0.64 o
5 1 -3 32.89 34.31 0.54 o
-4 1 3 28.21 29.99 0.56 o
4 1 -3 28.26 29.15 0.52 o
-3 1 3 49.41 51.95 0.59 o
3 1 -3 49.32 52.38 0.61 o
-2 1 3 52.51 54.59 0.59 o
2 1 -3 52.51 54.68 0.70 o
-1 1 3 148.33 140.02 1.50 o
1 1 -3 148.27 138.30 1.79 o
0 1 3 247.08 247.78 2.53 o
0 1 -3 246.97 248.30 4.42 o
1 1 3 41.04 38.19 0.56 o
-1 1 -3 41.07 37.23 0.64 o
2 1 3 274.23 271.23 2.81 o
-2 1 -3 274.12 264.87 2.69 o
3 1 3 31.82 31.62 0.38 o
-3 1 -3 31.81 30.58 0.50 o
4 1 3 69.51 60.50 0.63 o
-4 1 -3 69.60 60.57 0.84 o
5 1 3 149.67 146.24 1.40 o
-5 1 -3 149.51 148.24 2.20 o
6 1 3 35.31 34.27 0.77 o
-6 1 -3 35.36 35.86 0.90 o
7 1 3 0.74 0.81 0.21 o
-7 1 -3 0.74 0.56 0.14 o
8 1 3 13.78 14.65 0.68 o
-8 1 -3 13.73 15.05 0.48 o
9 1 3 11.79 12.24 0.68 o
-9 1 -3 11.81 12.76 0.57 o
-10 2 3 0.46 0.13 0.18 <
10 2 -3 0.45 0.29 0.25 <
-9 2 3 14.44 13.62 0.50 o
9 2 -3 14.47 13.63 0.68 o
-8 2 3 5.68 5.84 0.43 o
8 2 -3 5.67 5.70 0.50 o
-7 2 3 22.27 24.02 0.66 o
7 2 -3 22.29 22.77 0.77 o
-6 2 3 7.11 6.54 0.34 o
6 2 -3 7.12 7.27 0.32 o
-5 2 3 207.23 204.80 2.36 o
5 2 -3 207.12 204.15 2.02 o
-4 2 3 14.35 12.76 0.50 o
4 2 -3 14.44 13.29 0.32 o
-3 2 3 19.56 19.69 0.43 o
3 2 -3 19.57 19.54 0.36 o
-2 2 3 391.53 410.26 4.16 o
2 2 -3 391.16 407.02 4.14 o
-1 2 3 153.90 167.21 1.85 o
1 2 -3 154.15 161.59 1.79 o
0 2 3 98.75 95.16 1.20 o
0 2 -3 98.64 95.00 1.45 o
1 2 3 76.48 75.17 1.04 o
-1 2 -3 76.41 75.64 1.22 o
2 2 3 36.05 38.12 0.68 o
-2 2 -3 35.99 36.58 0.77 o
3 2 3 49.84 50.57 0.86 o
-3 2 -3 49.89 50.88 0.97 o
4 2 3 5.82 5.98 0.34 o
-4 2 -3 5.78 7.06 0.57 o
5 2 3 3.22 3.51 0.29 o
-5 2 -3 3.19 3.40 0.50 o
6 2 3 50.20 51.50 1.00 o
-6 2 -3 50.19 51.02 1.76 o
7 2 3 6.43 6.92 0.56 o
-7 2 -3 6.43 7.69 0.84 o
8 2 3 0.33 0.63 0.25 <
-8 2 -3 0.33 0.59 0.27 <
9 2 3 4.51 3.85 0.50 o
-9 2 -3 4.50 3.49 0.39 o
-9 3 3 8.51 6.88 0.50 o
9 3 -3 8.53 6.63 0.59 o
-8 3 3 8.10 8.35 0.52 o
8 3 -3 8.08 8.19 0.61 o
-7 3 3 16.09 16.45 0.57 o
7 3 -3 16.12 15.98 0.57 o
-6 3 3 11.40 10.57 0.47 o
6 3 -3 11.39 10.52 0.45 o
-5 3 3 5.18 4.53 0.41 o
5 3 -3 5.16 5.12 0.34 o
-4 3 3 97.36 92.55 1.72 o
4 3 -3 97.43 96.81 1.38 o
-3 3 3 83.08 86.89 2.35 o
3 3 -3 83.00 88.71 1.27 o
-2 3 3 140.19 145.32 2.29 o
2 3 -3 140.22 148.46 2.29 o
-1 3 3 20.99 19.15 0.64 o
1 3 -3 20.97 19.83 0.63 o
0 3 3 3.22 3.17 0.25 o
0 3 -3 3.22 3.14 0.29 o
1 3 3 96.90 102.36 1.42 o
-1 3 -3 96.88 102.67 1.72 o
2 3 3 0.98 0.99 0.16 o
-2 3 -3 0.98 0.82 0.18 o
3 3 3 19.39 20.14 0.57 o
-3 3 -3 19.37 20.58 0.97 o
4 3 3 0.38 0.32 0.14 <
-4 3 -3 0.39 0.13 0.29 <
5 3 3 9.97 10.16 0.45 o
-5 3 -3 9.95 9.91 0.82 o
6 3 3 1.75 1.40 0.25 o
-6 3 -3 1.75 1.09 0.45 <
7 3 3 0.54 0.39 0.21 <
-7 3 -3 0.55 0.59 0.43 <
8 3 3 6.12 7.02 0.63 o
-8 3 -3 6.11 6.14 0.86 o
-7 4 3 1.43 2.44 0.61 o
7 4 -3 1.43 1.52 0.29 o
-6 4 3 7.29 6.66 0.84 o
6 4 -3 7.29 5.46 0.50 o
-5 4 3 2.91 2.40 0.52 o
5 4 -3 2.91 2.63 0.38 o
-4 4 3 5.26 5.52 0.73 o
4 4 -3 5.26 5.84 0.50 o
-3 4 3 22.69 22.12 1.20 o
3 4 -3 22.69 22.38 0.81 o
-2 4 3 7.03 7.17 0.52 o
2 4 -3 7.03 7.95 0.50 o
-1 4 3 8.02 8.46 0.54 o
1 4 -3 8.02 8.38 0.54 o
0 4 3 7.83 8.28 0.54 o
0 4 -3 7.82 7.38 0.50 o
1 4 3 6.22 6.13 0.50 o
-1 4 -3 6.22 6.52 0.48 o
2 4 3 16.52 16.34 0.56 o
-2 4 -3 16.52 16.89 0.66 o
3 4 3 1.32 1.11 0.23 o
-3 4 -3 1.32 1.16 0.38 o
4 4 3 8.32 9.64 0.52 o
-4 4 -3 8.33 11.27 0.82 o
5 4 3 1.82 1.27 0.25 o
-5 4 -3 1.82 2.02 0.48 o
6 4 3 3.73 3.37 0.36 o
-6 4 -3 3.73 4.08 0.70 o
-5 5 3 0.07 0.27 0.32 <
-4 5 3 17.17 18.27 1.25 o
-3 5 3 23.28 24.69 1.43 o
3 5 -3 23.26 23.67 1.40 o
-2 5 3 1.60 1.95 0.54 o
2 5 -3 1.60 0.84 0.45 <
-1 5 3 9.77 8.28 0.64 o
1 5 -3 9.77 7.74 0.90 o
0 5 3 9.87 7.92 0.63 o
0 5 -3 9.89 8.81 0.93 o
1 5 3 2.53 1.72 0.36 o
-1 5 -3 2.53 2.28 0.57 o
2 5 3 4.46 3.44 0.47 o
3 5 3 6.16 5.70 0.57 o
-11 0 4 26.71 28.45 1.07 o
11 0 -4 26.71 29.54 1.47 o
-10 0 4 1.75 2.35 0.38 o
10 0 -4 1.74 1.81 0.50 o
-9 0 4 22.29 25.06 0.88 o
9 0 -4 22.31 24.94 0.90 o
-8 0 4 2.85 2.29 0.30 o
8 0 -4 2.87 2.08 0.34 o
-7 0 4 1.82 2.72 0.30 o
7 0 -4 1.80 2.45 0.32 o
-6 0 4 137.47 141.02 2.20 o
6 0 -4 137.64 144.34 2.20 o
-5 0 4 4.31 4.62 0.30 o
5 0 -4 4.29 4.78 0.39 o
-4 0 4 47.25 50.12 0.90 o
4 0 -4 47.37 49.86 0.70 o
-3 0 4 133.54 152.40 2.83 o
3 0 -4 133.61 154.19 2.01 o
-2 0 4 32.53 33.59 0.57 o
2 0 -4 32.60 35.26 0.61 o
-1 0 4 590.63 593.79 9.94 o
1 0 -4 590.72 589.98 9.94 o
0 0 4 71.98 64.94 0.95 o
1 0 4 832.42 786.48 7.54 o
2 0 4 76.87 72.36 0.90 o
3 0 4 79.25 75.31 0.99 o
4 0 4 366.16 339.73 4.39 o
-4 0 -4 365.85 345.84 6.41 o
5 0 4 244.94 219.40 2.49 o
-5 0 -4 245.24 224.70 4.57 o
6 0 4 41.53 41.13 1.00 o
-6 0 -4 41.44 43.19 1.04 o
7 0 4 30.47 32.10 0.91 o
-7 0 -4 30.48 32.00 0.93 o
8 0 4 57.05 54.62 1.34 o
-8 0 -4 57.15 54.26 1.36 o
9 0 4 0.64 0.84 0.54 <
-9 0 -4 0.64 0.86 0.27 o
-10 1 4 2.23 1.95 0.25 o
10 1 -4 2.24 2.26 0.39 o
-9 1 4 1.12 1.50 0.21 o
9 1 -4 1.12 1.31 0.23 o
-8 1 4 8.50 8.12 0.38 o
8 1 -4 8.52 8.08 0.41 o
-7 1 4 5.52 5.11 0.29 o
7 1 -4 5.53 4.69 0.32 o
-6 1 4 33.42 33.12 0.59 o
6 1 -4 33.41 32.59 0.66 o
-5 1 4 86.74 87.92 1.22 o
5 1 -4 86.86 89.25 1.02 o
-4 1 4 10.76 11.12 0.25 o
4 1 -4 10.74 10.95 0.21 o
-3 1 4 15.18 17.54 0.36 o
3 1 -4 15.24 15.96 0.30 o
-2 1 4 95.29 105.79 1.02 o
2 1 -4 95.43 106.34 1.49 o
-1 1 4 24.67 24.61 0.52 o
1 1 -4 24.64 23.49 0.48 o
0 1 4 59.00 58.37 0.75 o
0 1 -4 58.95 55.37 0.88 o
1 1 4 61.19 61.82 0.72 o
-1 1 -4 61.15 62.74 0.97 o
2 1 4 122.64 117.70 1.06 o
-2 1 -4 122.66 117.97 1.33 o
3 1 4 24.61 23.61 0.34 o
-3 1 -4 24.50 23.06 0.43 o
4 1 4 137.12 129.41 1.13 o
-4 1 -4 137.13 130.62 1.54 o
5 1 4 35.37 33.25 0.61 o
-5 1 -4 35.38 33.79 0.81 o
6 1 4 10.03 10.09 0.43 o
-6 1 -4 10.07 10.07 0.47 o
7 1 4 36.58 34.74 0.84 o
-7 1 -4 36.59 35.56 1.02 o
8 1 4 10.98 10.43 0.63 o
-8 1 -4 11.02 9.80 0.50 o
9 1 4 4.32 4.23 0.48 o
-9 1 -4 4.33 4.53 0.41 o
-10 2 4 7.36 6.72 0.43 o
10 2 -4 7.35 6.18 0.57 o
-9 2 4 10.09 11.81 0.47 o
9 2 -4 10.11 10.71 0.61 o
-8 2 4 30.48 29.33 0.68 o
8 2 -4 30.45 30.65 0.95 o
-7 2 4 5.00 4.23 0.34 o
7 2 -4 4.98 5.16 0.43 o
-6 2 4 11.60 10.98 0.43 o
6 2 -4 11.60 11.43 0.34 o
-5 2 4 46.44 43.73 0.81 o
5 2 -4 46.45 42.64 0.66 o
-4 2 4 47.70 45.50 1.00 o
4 2 -4 47.66 48.35 0.79 o
-3 2 4 26.60 26.89 0.45 o
3 2 -4 26.65 27.59 0.54 o
-2 2 4 20.21 20.33 0.45 o
2 2 -4 20.23 21.34 0.43 o
-1 2 4 37.96 40.06 0.66 o
1 2 -4 37.96 39.48 0.61 o
0 2 4 30.65 30.67 0.57 o
0 2 -4 30.63 30.45 0.66 o
1 2 4 11.66 12.70 0.36 o
-1 2 -4 11.67 12.50 0.41 o
2 2 4 9.73 10.01 0.36 o
-2 2 -4 9.70 11.39 0.41 o
3 2 4 29.70 28.38 0.63 o
-3 2 -4 29.70 29.00 0.70 o
4 2 4 21.28 20.19 0.56 o
-4 2 -4 21.24 20.73 0.91 o
5 2 4 19.02 18.81 0.56 o
-5 2 -4 19.05 18.88 0.95 o
6 2 4 6.26 5.93 0.39 o
-6 2 -4 6.26 4.64 0.61 o
7 2 4 20.18 21.10 0.82 o
-7 2 -4 20.18 20.15 1.15 o
8 2 4 1.65 2.26 0.38 o
-8 2 -4 1.65 1.59 0.52 o
-9 3 4 2.18 1.68 0.30 o
9 3 -4 2.16 1.22 0.32 o
-8 3 4 2.59 2.01 0.29 o
8 3 -4 2.55 2.24 0.36 o
-7 3 4 11.69 10.57 0.50 o
7 3 -4 11.67 10.91 0.47 o
-6 3 4 65.92 66.30 1.16 o
6 3 -4 65.87 68.38 1.18 o
-5 3 4 2.48 2.08 0.23 o
5 3 -4 2.48 2.36 0.25 o
-4 3 4 51.83 51.11 1.16 o
4 3 -4 51.80 51.59 0.91 o
-3 3 4 114.23 113.60 1.92 o
3 3 -4 114.21 116.62 1.54 o
-2 3 4 45.68 46.11 1.04 o
2 3 -4 45.76 46.06 1.02 o
-1 3 4 30.11 30.88 0.84 o
1 3 -4 30.09 33.27 0.82 o
0 3 4 16.07 16.32 0.47 o
0 3 -4 16.06 15.64 0.56 o
1 3 4 47.62 47.31 0.86 o
-1 3 -4 47.69 46.67 1.02 o
2 3 4 0.79 0.64 0.14 o
-2 3 -4 0.80 0.81 0.20 o
3 3 4 5.53 6.99 0.41 o
-3 3 -4 5.51 6.13 0.61 o
4 3 4 2.90 3.44 0.32 o
-4 3 -4 2.91 2.29 0.48 o
5 3 4 1.78 1.09 0.23 o
-5 3 -4 1.78 1.07 0.43 <
6 3 4 5.93 5.98 0.43 o
-6 3 -4 5.90 5.91 0.75 o
7 3 4 1.05 0.79 0.23 o
-7 3 -4 1.05 0.64 0.47 <
-7 4 4 33.84 29.58 1.58 o
7 4 -4 33.75 31.49 1.54 o
-6 4 4 5.22 5.77 0.50 o
6 4 -4 5.24 3.78 0.66 o
-5 4 4 11.03 12.67 0.97 o
5 4 -4 11.01 12.07 0.97 o
-4 4 4 54.36 53.10 2.01 o
4 4 -4 54.28 54.66 1.99 o
-3 4 4 112.93 107.18 3.05 o
3 4 -4 112.97 108.38 2.99 o
-2 4 4 6.16 5.52 0.48 o
2 4 -4 6.16 6.84 0.79 o
-1 4 4 0.59 1.11 0.25 o
1 4 -4 0.59 0.86 0.38 <
0 4 4 37.03 37.15 1.07 o
0 4 -4 37.07 35.56 1.47 o
1 4 4 9.74 9.46 0.59 o
-1 4 -4 9.75 8.92 0.84 o
2 4 4 19.51 19.62 0.63 o
-2 4 -4 19.56 20.05 1.06 o
3 4 4 0.04 -0.02 0.16 <
4 4 4 5.13 5.18 0.41 o
5 4 4 9.26 9.41 0.56 o
6 4 4 6.38 6.02 0.48 o
-4 5 4 35.03 31.33 1.67 o
4 5 -4 35.01 30.33 1.61 o
-3 5 4 5.54 4.73 0.77 o
3 5 -4 5.54 6.36 0.86 o
-2 5 4 8.88 10.35 1.07 o
2 5 -4 8.89 8.65 0.97 o
-1 5 4 8.90 9.49 0.70 o
1 5 -4 8.89 8.22 0.93 o
0 5 4 12.06 11.27 0.66 o
0 5 -4 12.07 11.07 0.93 o
1 5 4 3.39 3.55 0.47 o
-1 5 -4 3.38 2.29 0.57 o
2 5 4 44.39 40.42 1.29 o
3 5 4 23.06 22.25 0.97 o
-10 1 5 5.01 5.03 0.38 o
10 1 -5 5.03 5.36 0.43 o
-9 1 5 23.78 24.63 0.63 o
9 1 -5 23.75 23.59 0.70 o
-8 1 5 7.46 7.31 0.38 o
8 1 -5 7.43 7.88 0.43 o
-7 1 5 48.34 49.41 0.81 o
7 1 -5 48.44 50.02 0.91 o
-6 1 5 110.15 106.29 1.27 o
6 1 -5 110.07 110.59 1.25 o
-5 1 5 73.53 69.81 1.04 o
5 1 -5 73.56 71.34 1.02 o
-4 1 5 17.09 17.77 0.30 o
4 1 -5 17.12 17.47 0.29 o
-3 1 5 27.11 29.99 0.43 o
3 1 -5 27.07 31.31 0.45 o
-2 1 5 226.28 238.51 2.11 o
2 1 -5 226.35 236.71 3.05 o
-1 1 5 39.24 36.85 0.70 o
1 1 -5 39.22 37.67 0.70 o
0 1 5 125.46 123.06 1.25 o
0 1 -5 125.44 128.27 2.56 o
1 1 5 11.72 10.69 0.27 o
-1 1 -5 11.77 10.30 0.32 o
2 1 5 8.84 8.69 0.21 o
-2 1 -5 8.82 8.22 0.23 o
3 1 5 40.25 36.47 0.48 o
-3 1 -5 40.24 34.86 0.59 o
4 1 5 60.52 55.14 0.70 o
-4 1 -5 60.60 55.66 0.84 o
5 1 5 21.48 21.25 0.48 o
-5 1 -5 21.42 21.75 0.97 o
6 1 5 4.69 5.30 0.38 o
-6 1 -5 4.71 4.19 0.56 o
7 1 5 22.88 25.04 0.86 o
-7 1 -5 22.91 24.58 0.88 o
8 1 5 2.02 2.29 0.38 o
-8 1 -5 2.01 1.68 0.27 o
9 1 5 0.58 0.68 0.30 <
-9 1 -5 0.58 0.47 0.21 <
-10 2 5 3.05 2.29 0.29 o
10 2 -5 3.04 1.58 0.34 o
-9 2 5 2.16 2.36 0.27 o
9 2 -5 2.13 2.22 0.38 o
-8 2 5 19.94 19.54 0.56 o
8 2 -5 19.96 20.33 0.75 o
-7 2 5 4.98 4.71 0.36 o
7 2 -5 4.96 5.00 0.43 o
-6 2 5 5.18 4.69 0.32 o
6 2 -5 5.17 5.45 0.27 o
-5 2 5 95.03 93.01 1.33 o
5 2 -5 95.00 93.96 1.11 o
-4 2 5 6.47 6.25 0.30 o
4 2 -5 6.52 6.31 0.23 o
-3 2 5 6.00 6.06 0.23 o
3 2 -5 6.01 6.06 0.21 o
-2 2 5 17.98 21.12 0.59 o
2 2 -5 17.95 20.62 0.43 o
-1 2 5 11.37 11.70 0.34 o
1 2 -5 11.35 11.52 0.30 o
0 2 5 72.03 70.17 1.00 o
0 2 -5 72.14 69.35 1.16 o
1 2 5 2.44 2.31 0.20 o
-1 2 -5 2.42 2.85 0.23 o
2 2 5 1.81 2.19 0.21 o
-2 2 -5 1.78 1.68 0.21 o
3 2 5 115.76 110.00 1.52 o
-3 2 -5 115.81 109.71 1.76 o
4 2 5 27.64 25.38 0.63 o
-4 2 -5 27.67 26.03 1.04 o
5 2 5 21.02 20.55 0.61 o
-5 2 -5 21.03 20.78 1.02 o
6 2 5 9.25 10.14 0.45 o
-6 2 -5 9.24 11.72 0.84 o
7 2 5 2.94 3.58 0.43 o
-7 2 -5 2.96 2.87 0.57 o
8 2 5 3.29 3.51 0.45 o
-8 2 -5 3.31 2.83 0.63 o
-9 3 5 0.78 0.73 0.25 <
9 3 -5 0.79 1.11 0.50 <
-8 3 5 14.65 15.07 0.59 o
8 3 -5 14.62 16.19 1.04 o
-7 3 5 1.70 1.68 0.36 o
7 3 -5 1.71 1.04 0.29 o
-6 3 5 7.04 7.54 0.57 o
6 3 -5 7.01 6.41 0.50 o
-5 3 5 9.00 9.71 0.57 o
5 3 -5 8.99 9.08 0.48 o
-4 3 5 7.28 7.88 0.50 o
4 3 -5 7.29 6.18 0.41 o
-3 3 5 4.84 5.20 0.39 o
3 3 -5 4.83 5.09 0.36 o
-2 3 5 1.99 1.79 0.27 o
2 3 -5 1.99 1.02 0.30 o
-1 3 5 6.51 5.45 0.41 o
1 3 -5 6.52 5.52 0.59 o
0 3 5 0.80 1.00 0.18 o
0 3 -5 0.80 1.24 0.32 o
1 3 5 36.17 38.70 0.79 o
-1 3 -5 36.21 37.57 1.36 o
2 3 5 24.22 23.34 0.61 o
-2 3 -5 24.20 21.98 1.00 o
3 3 5 24.45 26.10 0.68 o
4 3 5 6.05 6.59 0.43 o
5 3 5 2.03 1.29 0.23 o
6 3 5 24.94 25.76 0.77 o
7 3 5 3.20 3.30 0.36 o
-7 4 5 7.68 6.49 0.57 o
7 4 -5 7.70 4.41 0.70 o
-6 4 5 3.83 3.73 0.64 o
6 4 -5 3.83 2.53 0.59 o
-5 4 5 2.56 3.56 0.63 o
5 4 -5 2.56 1.93 0.50 o
-4 4 5 23.55 24.20 1.31 o
4 4 -5 23.55 23.31 1.27 o
-3 4 5 28.01 26.35 1.34 o
3 4 -5 28.06 27.09 1.34 o
-2 4 5 19.15 19.87 0.77 o
2 4 -5 19.13 20.89 1.16 o
-1 4 5 5.55 6.31 0.52 o
1 4 -5 5.55 5.30 0.72 o
0 4 5 20.33 21.35 0.82 o
0 4 -5 20.36 21.07 1.16 o
1 4 5 35.50 37.39 0.86 o
-1 4 -5 35.46 37.14 1.54 o
2 4 5 19.38 21.60 0.66 o
-2 4 -5 19.38 21.44 1.15 o
3 4 5 4.06 3.71 0.34 o
4 4 5 3.11 3.22 0.34 o
5 4 5 10.52 9.67 0.57 o
-4 5 5 31.15 31.69 1.67 o
4 5 -5 31.20 28.02 1.58 o
-3 5 5 0.51 0.32 0.38 <
3 5 -5 0.51 0.21 0.43 <
-2 5 5 0.27 0.32 0.38 <
2 5 -5 0.27 0.11 0.39 <
-1 5 5 37.77 40.24 1.24 o
1 5 -5 37.78 41.47 1.83 o
0 5 5 0.15 0.64 0.27 <
0 5 -5 0.15 -0.29 0.36 <
1 5 5 0.79 0.50 0.29 <
2 5 5 42.49 46.51 1.40 o
-11 0 6 1.32 1.09 0.34 o
11 0 -6 1.33 0.81 0.48 <
-10 0 6 60.24 64.60 1.58 o
10 0 -6 60.16 64.55 2.22 o
-9 0 6 24.34 26.64 0.91 o
9 0 -6 24.37 25.01 1.25 o
-8 0 6 44.45 44.82 1.15 o
8 0 -6 44.54 46.47 1.65 o
-7 0 6 175.13 175.26 2.69 o
7 0 -6 174.93 177.50 3.82 o
-6 0 6 296.33 293.12 3.96 o
6 0 -6 296.64 298.12 5.61 o
-5 0 6 30.12 28.65 1.02 o
5 0 -6 30.11 31.89 0.70 o
-4 0 6 12.04 13.58 0.41 o
4 0 -6 12.01 13.76 0.41 o
-3 0 6 326.35 348.28 3.51 o
3 0 -6 326.55 354.60 4.35 o
-2 0 6 21.81 21.66 0.48 o
2 0 -6 21.76 21.75 0.52 o
-1 0 6 49.11 50.02 1.27 o
1 0 -6 49.00 48.82 1.27 o
0 0 6 16.08 18.47 0.70 o
1 0 6 58.32 55.36 0.77 o
2 0 6 7.41 8.15 0.27 o
3 0 6 22.96 21.43 0.57 o
4 0 6 36.47 32.37 0.63 o
-4 0 -6 36.41 33.14 1.15 o
5 0 6 6.45 7.29 0.39 o
-5 0 -6 6.44 6.88 0.57 o
6 0 6 5.59 6.16 0.47 o
-6 0 -6 5.58 5.73 0.45 o
7 0 6 8.95 8.83 0.56 o
-7 0 -6 8.95 9.71 0.54 o
8 0 6 0.08 -0.45 0.36 <
-8 0 -6 0.08 -0.16 0.27 <
-10 1 6 10.65 10.30 0.52 o
10 1 -6 10.62 10.43 0.56 o
-9 1 6 36.22 36.17 0.77 o
9 1 -6 36.24 37.58 0.90 o
-8 1 6 1.30 1.16 0.20 o
8 1 -6 1.28 1.43 0.23 o
-7 1 6 49.87 49.44 0.81 o
7 1 -6 49.89 51.61 0.95 o
-6 1 6 49.50 48.19 0.86 o
6 1 -6 49.52 50.18 0.73 o
-5 1 6 21.10 22.23 0.43 o
5 1 -6 21.20 20.87 0.41 o
-4 1 6 37.81 40.54 0.56 o
4 1 -6 37.82 40.68 0.50 o
-3 1 6 12.20 13.83 0.29 o
3 1 -6 12.22 13.49 0.36 o
-2 1 6 28.11 26.64 0.45 o
2 1 -6 28.09 26.44 0.61 o
-1 1 6 16.89 15.76 0.43 o
1 1 -6 16.95 15.75 0.45 o
0 1 6 129.98 125.69 1.52 o
0 1 -6 129.81 126.53 2.69 o
1 1 6 5.31 6.23 0.21 o
-1 1 -6 5.30 6.50 0.47 o
2 1 6 6.92 6.74 0.20 o
-2 1 -6 6.91 7.72 0.32 o
3 1 6 70.74 62.06 0.75 o
-3 1 -6 70.66 64.46 1.15 o
4 1 6 44.61 36.85 0.73 o
-4 1 -6 44.62 38.50 0.86 o
5 1 6 6.24 5.97 0.32 o
-5 1 -6 6.23 5.86 0.59 o
6 1 6 8.62 8.63 0.43 o
-6 1 -6 8.61 8.22 0.68 o
7 1 6 0.38 0.36 0.21 <
-7 1 -6 0.38 0.39 0.21 <
8 1 6 2.29 2.65 0.39 o
-8 1 -6 2.28 2.06 0.29 o
-10 2 6 1.36 1.16 0.30 o
10 2 -6 1.35 1.29 0.52 <
-9 2 6 7.58 6.95 0.48 o
9 2 -6 7.57 5.63 0.75 o
-8 2 6 6.43 5.95 0.43 o
8 2 -6 6.44 6.99 0.79 o
-7 2 6 18.43 16.91 0.56 o
7 2 -6 18.41 17.48 0.66 o
-6 2 6 12.20 10.55 0.43 o
6 2 -6 12.22 11.90 0.41 o
-5 2 6 7.95 8.03 0.36 o
5 2 -6 7.95 8.40 0.34 o
-4 2 6 25.49 24.99 0.72 o
4 2 -6 25.52 25.21 0.56 o
-3 2 6 41.72 39.68 0.72 o
3 2 -6 41.69 39.99 0.88 o
-2 2 6 17.84 18.56 0.57 o
2 2 -6 17.85 18.34 0.54 o
-1 2 6 12.21 12.65 0.48 o
1 2 -6 12.20 12.25 0.70 o
0 2 6 49.10 50.25 0.84 o
0 2 -6 49.09 47.67 1.47 o
1 2 6 32.29 33.02 0.66 o
-1 2 -6 32.24 32.08 1.15 o
2 2 6 31.64 32.57 0.68 o
-2 2 -6 31.66 32.66 1.16 o
3 2 6 29.44 26.69 0.64 o
-3 2 -6 29.45 28.86 1.07 o
4 2 6 7.28 6.90 0.41 o
5 2 6 1.12 1.34 0.21 o
6 2 6 26.42 25.19 0.72 o
7 2 6 12.35 12.06 0.66 o
8 2 6 2.41 3.14 0.45 o
-9 3 6 0.14 0.02 0.29 <
9 3 -6 0.14 0.25 0.41 <
-8 3 6 8.00 7.67 0.64 o
8 3 -6 8.01 6.38 0.79 o
-7 3 6 1.98 1.27 0.34 o
7 3 -6 1.98 1.61 0.30 o
-6 3 6 0.60 0.11 0.23 <
6 3 -6 0.59 0.57 0.23 <
-5 3 6 1.32 1.07 0.27 o
5 3 -6 1.32 1.00 0.23 o
-4 3 6 2.09 1.74 0.29 o
4 3 -6 2.07 1.20 0.36 o
-3 3 6 23.42 22.61 0.72 o
3 3 -6 23.38 23.36 1.13 o
-2 3 6 10.17 10.28 0.50 o
2 3 -6 10.17 9.41 0.72 o
-1 3 6 38.58 39.02 1.00 o
1 3 -6 38.62 39.38 1.45 o
0 3 6 47.00 47.96 0.90 o
0 3 -6 46.94 48.24 1.65 o
1 3 6 91.54 94.50 1.43 o
-1 3 -6 91.58 96.27 2.51 o
2 3 6 42.13 42.80 0.90 o
-2 3 -6 42.17 45.18 1.52 o
3 3 6 9.82 9.69 0.43 o
4 3 6 64.22 63.81 1.22 o
5 3 6 6.61 6.32 0.45 o
6 3 6 2.71 1.92 0.29 o
7 3 6 0.54 0.81 0.29 <
-7 4 6 7.42 7.67 0.61 o
7 4 -6 7.38 6.84 0.86 o
-6 4 6 8.10 7.79 0.91 o
6 4 -6 8.13 8.03 0.91 o
-5 4 6 2.25 2.40 0.54 o
5 4 -6 2.23 1.34 0.47 <
-4 4 6 5.99 5.46 0.73 o
4 4 -6 5.95 3.67 0.63 o
-3 4 6 4.24 3.62 0.63 o
3 4 -6 4.23 4.01 0.64 o
-2 4 6 40.96 42.12 1.15 o
2 4 -6 40.92 38.96 1.68 o
-1 4 6 0.83 0.88 0.27 o
1 4 -6 0.83 0.61 0.36 <
0 4 6 2.17 2.47 0.29 o
0 4 -6 2.19 2.15 0.50 o
1 4 6 112.89 119.10 1.81 o
-1 4 -6 112.85 122.79 3.21 o
2 4 6 54.86 57.85 1.16 o
3 4 6 10.62 11.84 0.54 o
4 4 6 2.85 2.53 0.34 o
5 4 6 24.85 24.01 0.81 o
-4 5 6 30.60 31.64 1.68 o
-3 5 6 1.69 0.90 0.48 <
3 5 -6 1.70 1.38 0.50 <
-2 5 6 7.08 6.83 0.88 o
2 5 -6 7.07 6.63 0.90 o
-1 5 6 5.90 6.22 0.59 o
1 5 -6 5.91 6.52 0.88 o
0 5 6 6.67 6.50 0.61 o
0 5 -6 6.66 6.38 0.84 o
1 5 6 1.02 1.22 0.38 o
-10 1 7 9.49 8.56 0.54 o
10 1 -7 9.53 8.35 0.66 o
-9 1 7 1.69 0.93 0.25 o
9 1 -7 1.68 1.04 0.29 o
-8 1 7 17.10 16.82 0.57 o
8 1 -7 17.06 17.72 0.72 o
-7 1 7 75.13 75.15 1.24 o
7 1 -7 75.24 75.81 1.50 o
-6 1 7 25.90 25.35 0.61 o
6 1 -7 25.82 25.40 0.59 o
-5 1 7 4.69 4.91 0.30 o
5 1 -7 4.69 3.94 0.27 o
-4 1 7 112.79 107.49 1.33 o
4 1 -7 112.84 107.49 1.18 o
-3 1 7 7.39 7.65 0.23 o
3 1 -7 7.37 8.53 0.30 o
-2 1 7 9.88 9.75 0.23 o
2 1 -7 9.87 9.30 0.38 o
-1 1 7 164.84 152.77 2.17 o
1 1 -7 164.84 152.77 2.15 o
0 1 7 5.94 6.11 0.21 o
0 1 -7 5.95 7.34 0.52 o
1 1 7 16.85 16.75 0.43 o
-1 1 -7 16.90 16.52 0.79 o
2 1 7 41.03 36.78 0.61 o
-2 1 -7 40.98 37.98 1.25 o
3 1 7 15.33 14.44 0.38 o
-3 1 -7 15.37 13.88 0.73 o
4 1 7 11.56 11.82 0.36 o
-4 1 -7 11.54 12.77 0.72 o
5 1 7 12.84 14.28 0.48 o
6 1 7 16.98 19.94 0.75 o
7 1 7 5.87 6.99 0.56 o
-7 1 -7 5.88 7.42 0.82 o
8 1 7 9.94 11.25 0.64 o
-8 1 -7 9.95 10.73 0.63 o
-10 2 7 0.00 -0.27 0.21 <
10 2 -7 0.00 0.14 0.38 <
-9 2 7 6.81 6.02 0.45 o
9 2 -7 6.82 5.21 0.75 o
-8 2 7 61.99 60.01 1.16 o
8 2 -7 62.00 60.82 1.40 o
-7 2 7 13.26 14.24 0.52 o
7 2 -7 13.28 13.92 0.59 o
-6 2 7 7.67 7.06 0.50 o
6 2 -7 7.68 8.17 0.38 o
-5 2 7 17.02 17.32 0.64 o
5 2 -7 16.99 17.52 0.50 o
-4 2 7 15.29 13.69 0.54 o
4 2 -7 15.31 14.12 0.43 o
-3 2 7 24.88 25.21 0.57 o
3 2 -7 24.90 24.61 0.68 o
-2 2 7 39.16 36.83 0.86 o
2 2 -7 39.21 37.96 0.84 o
-1 2 7 101.60 104.08 1.76 o
1 2 -7 101.41 107.67 2.58 o
0 2 7 214.18 216.82 2.53 o
0 2 -7 214.43 221.10 4.50 o
1 2 7 12.89 12.86 0.41 o
-1 2 -7 12.84 12.83 0.75 o
2 2 7 6.96 6.81 0.38 o
-2 2 -7 6.92 5.52 0.57 o
3 2 7 117.80 111.50 1.61 o
-3 2 -7 117.87 115.60 2.72 o
4 2 7 3.00 2.15 0.25 o
5 2 7 10.75 10.75 0.47 o
6 2 7 3.07 2.83 0.32 o
7 2 7 11.43 13.81 0.70 o
-9 3 7 4.94 4.42 0.56 o
9 3 -7 4.93 3.80 0.66 o
-8 3 7 6.74 5.71 0.56 o
8 3 -7 6.75 5.95 0.75 o
-7 3 7 5.80 6.25 0.56 o
7 3 -7 5.82 6.13 0.52 o
-6 3 7 2.37 2.69 0.38 o
6 3 -7 2.36 2.53 0.36 o
-5 3 7 28.50 26.71 0.88 o
5 3 -7 28.53 27.45 0.86 o
-4 3 7 8.87 8.51 0.72 o
4 3 -7 8.86 6.84 0.45 o
-3 3 7 74.33 71.01 1.45 o
3 3 -7 74.34 75.62 2.22 o
-2 3 7 0.90 0.72 0.21 o
2 3 -7 0.90 0.59 0.30 <
-1 3 7 7.68 7.95 0.50 o
1 3 -7 7.67 8.65 0.72 o
0 3 7 96.20 103.33 1.52 o
0 3 -7 96.16 98.94 2.67 o
1 3 7 40.38 45.23 0.93 o
-1 3 -7 40.43 45.25 1.61 o
2 3 7 56.93 59.06 1.11 o
-2 3 -7 56.88 56.74 1.85 o
3 3 7 4.36 4.19 0.36 o
4 3 7 5.57 5.43 0.41 o
5 3 7 8.49 8.65 0.54 o
6 3 7 2.12 1.99 0.30 o
-7 4 7 1.80 2.04 0.56 o
7 4 -7 1.80 1.07 0.50 <
-6 4 7 4.52 5.37 0.77 o
6 4 -7 4.51 4.37 0.70 o
-5 4 7 0.31 0.81 0.41 <
5 4 -7 0.31 -0.04 0.36 <
-4 4 7 5.61 4.55 0.68 o
4 4 -7 5.62 3.56 0.61 o
-3 4 7 1.32 0.99 0.41 <
3 4 -7 1.32 0.59 0.36 <
-2 4 7 2.81 2.72 0.39 o
2 4 -7 2.81 2.13 0.52 o
-1 4 7 6.75 7.43 0.59 o
1 4 -7 6.75 5.14 0.70 o
0 4 7 3.27 2.79 0.39 o
0 4 -7 3.28 2.17 0.52 o
1 4 7 7.40 8.92 0.50 o
-1 4 -7 7.40 7.52 0.82 o
2 4 7 11.29 11.14 0.52 o
3 4 7 6.40 5.61 0.45 o
4 4 7 6.94 6.31 0.48 o
-3 5 7 1.98 0.75 0.50 <
-2 5 7 7.69 8.28 0.99 o
2 5 -7 7.68 5.93 0.86 o
-1 5 7 5.21 3.46 0.48 o
1 5 -7 5.21 2.81 0.70 o
0 5 7 1.47 1.76 0.39 o
0 5 -7 1.47 1.77 0.56 o
-10 0 8 29.15 27.10 1.40 o
10 0 -8 29.10 26.28 1.42 o
-9 0 8 2.63 2.83 0.56 o
9 0 -8 2.59 2.36 0.52 o
-8 0 8 0.67 1.45 0.41 o
8 0 -8 0.66 0.50 0.32 <
-7 0 8 54.99 53.74 1.72 o
7 0 -8 54.90 54.93 1.77 o
-6 0 8 17.62 18.51 0.90 o
6 0 -8 17.65 17.93 0.90 o
-5 0 8 65.61 62.52 1.67 o
5 0 -8 65.64 62.18 1.16 o
-4 0 8 4.38 4.59 0.32 o
4 0 -8 4.36 4.34 0.32 o
-3 0 8 6.94 7.77 0.34 o
3 0 -8 6.96 7.63 0.36 o
-2 0 8 366.22 358.00 4.51 o
2 0 -8 366.30 366.67 4.62 o
-1 0 8 216.81 208.56 4.19 o
1 0 -8 216.88 212.14 4.19 o
0 0 8 52.63 48.73 1.45 o
0 0 -8 52.74 50.54 1.49 o
1 0 8 32.52 28.38 0.72 o
-1 0 -8 32.49 27.66 1.06 o
2 0 8 113.13 93.07 1.58 o
-2 0 -8 113.29 92.42 2.31 o
3 0 8 19.88 15.91 0.56 o
-3 0 -8 19.80 17.13 0.86 o
4 0 8 28.45 29.34 0.79 o
-4 0 -8 28.52 26.32 1.11 o
5 0 8 27.55 30.63 0.84 o
-5 0 -8 27.46 31.06 1.25 o
-10 1 8 3.41 3.05 0.36 o
10 1 -8 3.40 3.58 0.47 o
-9 1 8 7.14 7.51 0.48 o
9 1 -8 7.14 8.15 0.61 o
-8 1 8 37.09 37.67 0.88 o
8 1 -8 37.05 37.91 1.07 o
-7 1 8 34.29 34.86 0.79 o
7 1 -8 34.28 37.87 1.00 o
-6 1 8 1.44 1.31 0.18 o
6 1 -8 1.44 1.61 0.25 o
-5 1 8 9.13 7.38 0.57 o
5 1 -8 9.13 7.22 0.32 o
-4 1 8 7.86 6.93 0.23 o
4 1 -8 7.87 6.77 0.25 o
-3 1 8 15.83 16.89 0.41 o
3 1 -8 15.83 17.09 0.45 o
-2 1 8 7.92 8.85 0.36 o
2 1 -8 7.94 8.60 0.39 o
-1 1 8 186.50 182.33 2.13 o
1 1 -8 186.60 185.97 2.58 o
0 1 8 6.04 5.82 0.25 o
0 1 -8 6.05 5.43 0.56 o
1 1 8 37.72 34.58 0.57 o
-1 1 -8 37.75 35.02 1.25 o
2 1 8 18.57 16.97 0.48 o
-2 1 -8 18.62 16.16 0.84 o
3 1 8 6.05 4.05 0.25 o
-3 1 -8 6.07 4.37 0.52 o
4 1 8 1.17 1.04 0.16 o
-4 1 -8 1.19 1.11 0.32 o
5 1 8 4.52 6.14 0.39 o
6 1 8 7.99 9.71 0.54 o
7 1 8 2.35 3.01 0.41 o
-7 1 -8 2.37 3.08 0.56 o
-10 2 8 8.32 7.95 0.97 o
10 2 -8 8.32 8.58 0.97 o
-9 2 8 5.43 4.08 0.50 o
9 2 -8 5.44 3.87 0.64 o
-8 2 8 20.15 18.54 0.81 o
8 2 -8 20.17 17.47 0.73 o
-7 2 8 0.16 0.09 0.21 <
7 2 -8 0.17 0.38 0.21 <
-6 2 8 2.87 2.24 0.32 o
6 2 -8 2.86 1.77 0.21 o
-5 2 8 26.53 24.65 0.79 o
5 2 -8 26.57 25.47 0.63 o
-4 2 8 60.35 52.81 1.15 o
4 2 -8 60.31 52.94 0.91 o
-3 2 8 13.16 12.20 0.48 o
3 2 -8 13.12 11.50 0.48 o
-2 2 8 26.37 27.79 0.75 o
2 2 -8 26.35 28.18 0.73 o
-1 2 8 40.15 38.86 0.93 o
1 2 -8 40.17 39.72 1.42 o
0 2 8 100.04 102.61 1.45 o
0 2 -8 99.97 102.45 2.60 o
1 2 8 8.42 7.79 0.36 o
-1 2 -8 8.43 6.61 0.66 o
2 2 8 1.27 1.42 0.20 o
-2 2 -8 1.27 1.49 0.36 o
3 2 8 23.88 22.25 0.63 o
-3 2 -8 23.90 22.41 1.06 o
4 2 8 2.54 2.35 0.29 o
5 2 8 1.69 1.43 0.25 o
6 2 8 1.34 0.95 0.23 o
7 2 8 3.54 3.87 0.48 o
-8 3 8 9.76 10.95 0.75 o
8 3 -8 9.76 9.92 0.97 o
-7 3 8 25.06 26.98 0.99 o
7 3 -8 25.06 28.45 0.95 o
-6 3 8 0.52 0.57 0.23 <
6 3 -8 0.52 0.32 0.23 <
-5 3 8 0.04 0.34 0.20 <
5 3 -8 0.04 0.11 0.18 <
-4 3 8 1.79 2.22 0.48 o
4 3 -8 1.78 2.35 0.32 o
-3 3 8 14.91 13.19 0.59 o
3 3 -8 14.86 12.59 0.88 o
-2 3 8 18.89 19.22 0.72 o
2 3 -8 18.85 19.51 1.07 o
-1 3 8 16.06 18.43 0.72 o
1 3 -8 16.11 17.95 1.02 o
0 3 8 62.69 63.11 1.13 o
0 3 -8 62.58 64.92 2.06 o
1 3 8 17.95 19.53 0.61 o
-1 3 -8 17.96 18.52 1.02 o
2 3 8 35.97 36.60 0.86 o
-2 3 -8 36.00 36.46 1.45 o
3 3 8 6.53 6.27 0.43 o
4 3 8 9.28 9.39 0.52 o
5 3 8 15.12 15.19 0.63 o
-7 4 8 2.70 2.79 0.64 o
7 4 -8 2.68 2.24 0.57 o
-6 4 8 13.02 15.84 1.16 o
6 4 -8 13.06 15.98 1.16 o
-5 4 8 6.11 4.12 0.68 o
5 4 -8 6.08 5.00 0.77 o
-4 4 8 5.74 5.16 0.75 o
4 4 -8 5.74 4.93 0.73 o
-3 4 8 10.87 10.68 0.90 o
3 4 -8 10.83 7.99 0.90 o
-2 4 8 27.90 25.99 0.93 o
2 4 -8 27.90 26.28 1.40 o
-1 4 8 2.69 3.19 0.41 o
1 4 -8 2.65 1.77 0.52 o
0 4 8 0.40 0.16 0.23 <
0 4 -8 0.40 0.04 0.32 <
1 4 8 57.43 58.72 1.20 o
-1 4 -8 57.38 58.62 2.10 o
2 4 8 3.40 3.26 0.36 o
3 4 8 5.66 5.46 0.45 o
-10 1 9 0.72 0.95 0.30 o
10 1 -9 0.74 0.59 0.30 <
-9 1 9 10.05 10.71 0.64 o
9 1 -9 10.01 8.92 0.64 o
-8 1 9 3.73 3.05 0.38 o
8 1 -9 3.74 3.76 0.43 o
-7 1 9 5.14 4.60 0.41 o
7 1 -9 5.14 4.69 0.43 o
-6 1 9 26.93 26.26 0.77 o
6 1 -9 26.97 27.27 0.64 o
-5 1 9 39.92 31.39 0.81 o
5 1 -9 39.86 33.30 0.70 o
-4 1 9 22.62 19.40 0.61 o
4 1 -9 22.62 20.39 0.45 o
-3 1 9 80.60 83.66 1.47 o
3 1 -9 80.65 87.37 1.07 o
-2 1 9 150.18 151.43 3.30 o
2 1 -9 150.13 155.19 2.31 o
-1 1 9 192.62 189.66 2.79 o
1 1 -9 192.57 185.81 2.69 o
0 1 9 0.34 0.34 0.16 <
0 1 -9 0.34 0.36 0.21 <
1 1 9 17.62 16.50 0.50 o
-1 1 -9 17.65 15.53 0.86 o
2 1 9 62.73 52.88 0.97 o
-2 1 -9 62.67 52.44 1.70 o
3 1 9 11.35 9.96 0.41 o
-3 1 -9 11.37 8.96 0.70 o
4 1 9 6.49 6.99 0.41 o
-4 1 -9 6.48 5.41 0.63 o
5 1 9 8.48 10.35 0.56 o
6 1 9 1.26 2.79 0.56 o
7 1 9 0.20 -0.20 0.36 <
-9 2 9 4.31 3.73 0.50 o
9 2 -9 4.28 3.26 0.43 o
-8 2 9 69.23 70.76 1.65 o
8 2 -9 69.24 73.97 1.61 o
-7 2 9 0.40 1.27 0.30 o
7 2 -9 0.41 1.09 0.29 o
-6 2 9 7.72 7.13 0.52 o
6 2 -9 7.72 6.45 0.39 o
-5 2 9 4.06 4.34 0.39 o
5 2 -9 4.05 4.05 0.30 o
-4 2 9 42.09 35.35 0.93 o
4 2 -9 42.03 37.53 0.77 o
-3 2 9 7.58 7.67 0.41 o
3 2 -9 7.63 7.61 0.47 o
-2 2 9 6.96 6.66 0.39 o
2 2 -9 6.95 6.54 0.66 o
-1 2 9 55.27 53.47 1.16 o
1 2 -9 55.16 55.62 1.79 o
0 2 9 40.23 40.77 0.81 o
0 2 -9 40.30 40.34 1.50 o
1 2 9 6.41 6.34 0.39 o
-1 2 -9 6.36 5.16 0.61 o
2 2 9 1.52 1.04 0.20 o
-2 2 -9 1.51 1.15 0.36 o
3 2 9 1.87 1.68 0.25 o
-3 2 -9 1.86 0.79 0.34 <
4 2 9 19.15 21.01 0.64 o
5 2 9 10.64 11.97 0.52 o
6 2 9 0.81 0.45 0.23 <
-8 3 9 3.28 3.21 0.45 o
8 3 -9 3.29 2.49 0.57 o
-7 3 9 3.93 4.44 0.48 o
7 3 -9 3.95 4.05 0.47 o
-6 3 9 10.53 9.96 0.63 o
6 3 -9 10.51 9.33 0.93 o
-5 3 9 9.98 10.57 0.84 o
5 3 -9 9.98 8.06 0.54 o
-4 3 9 4.61 4.62 0.61 o
4 3 -9 4.59 3.69 0.39 o
-3 3 9 8.04 7.38 0.52 o
3 3 -9 8.05 7.72 0.82 o
-2 3 9 2.11 2.22 0.32 o
2 3 -9 2.08 1.81 0.43 o
-1 3 9 1.67 1.29 0.27 o
1 3 -9 1.67 1.45 0.43 o
0 3 9 3.99 4.37 0.43 o
0 3 -9 3.98 3.26 0.56 o
1 3 9 0.63 0.64 0.18 o
-1 3 -9 0.63 0.13 0.27 <
2 3 9 0.66 1.22 0.23 o
-2 3 -9 0.66 1.00 0.36 <
3 3 9 4.52 5.66 0.43 o
4 3 9 0.34 0.04 0.20 <
5 3 9 6.42 7.38 0.50 o
-6 4 9 5.41 3.78 0.68 o
6 4 -9 5.41 3.76 0.72 o
-5 4 9 4.68 4.57 0.72 o
5 4 -9 4.67 4.30 0.75 o
-4 4 9 7.04 6.14 0.81 o
4 4 -9 7.04 7.24 0.88 o
-3 4 9 0.76 0.43 0.39 <
3 4 -9 0.76 0.73 0.39 <
-2 4 9 2.00 1.95 0.34 o
2 4 -9 2.01 1.25 0.47 <
-1 4 9 2.73 2.65 0.41 o
1 4 -9 2.73 2.49 0.57 o
0 4 9 0.10 0.11 0.25 <
0 4 -9 0.10 0.02 0.32 <
1 4 9 15.88 15.07 0.61 o
-1 4 -9 15.89 15.01 1.07 o
2 4 9 3.63 3.67 0.38 o
3 4 9 7.79 8.89 0.68 o
-10 0 10 8.13 6.74 0.82 o
10 0 -10 8.09 7.04 0.88 o
-9 0 10 22.69 24.99 1.27 o
9 0 -10 22.77 24.94 1.31 o
-8 0 10 13.18 13.87 0.90 o
8 0 -10 13.14 14.48 0.95 o
-7 0 10 27.34 26.08 1.15 o
7 0 -10 27.37 25.51 1.18 o
6 0 -10 61.67 54.85 1.77 o
-5 0 10 113.48 106.02 2.45 o
5 0 -10 113.51 105.79 1.81 o
-4 0 10 66.94 66.68 1.24 o
4 0 -10 66.92 67.16 1.31 o
-3 0 10 32.93 32.46 0.79 o
3 0 -10 32.87 34.11 0.86 o
-2 0 10 644.74 657.12 11.63 o
2 0 -10 644.73 653.45 8.10 o
-1 0 10 5.12 4.98 0.57 o
1 0 -10 5.16 5.55 0.63 o
0 0 10 18.70 19.06 0.95 o
0 0 -10 18.72 18.90 0.97 o
1 0 10 127.93 116.48 2.88 o
-1 0 -10 127.93 114.19 2.90 o
2 0 10 17.13 12.43 0.54 o
-2 0 -10 17.18 11.81 0.82 o
3 0 10 4.48 4.55 0.41 o
-3 0 -10 4.52 2.88 0.52 o
4 0 10 3.75 4.32 0.41 o
-4 0 -10 3.71 3.51 0.56 o
-10 1 10 4.85 4.93 0.52 o
10 1 -10 4.87 3.80 0.47 o
-9 1 10 4.63 4.77 0.50 o
9 1 -10 4.64 5.41 0.54 o
-8 1 10 0.82 1.50 0.30 o
8 1 -10 0.82 1.81 0.32 o
-7 1 10 6.03 4.42 0.63 o
7 1 -10 6.01 4.94 0.47 o
-6 1 10 18.30 19.10 1.00 o
6 1 -10 18.27 17.83 0.54 o
-5 1 10 40.92 35.27 1.29 o
5 1 -10 40.87 34.36 0.75 o
-4 1 10 16.23 15.69 0.56 o
4 1 -10 16.29 15.73 0.41 o
-3 1 10 119.85 120.90 2.83 o
3 1 -10 119.71 123.93 1.43 o
-2 1 10 49.61 47.51 1.54 o
2 1 -10 49.63 47.81 1.06 o
-1 1 10 57.27 57.11 1.24 o
1 1 -10 57.35 56.77 1.18 o
0 1 10 22.72 20.76 0.72 o
0 1 -10 22.67 21.30 1.04 o
1 1 10 18.85 15.89 0.52 o
-1 1 -10 18.88 16.75 0.93 o
2 1 10 5.77 5.41 0.38 o
-2 1 -10 5.79 4.77 0.61 o
3 1 10 7.49 8.55 0.47 o
-3 1 -10 7.51 7.88 0.77 o
4 1 10 20.85 25.04 0.68 o
-4 1 -10 20.83 25.55 1.22 o
5 1 10 14.84 14.85 0.68 o
6 1 10 5.98 6.43 0.77 o
-9 2 10 1.41 1.68 0.48 o
9 2 -10 1.42 1.88 0.39 o
-8 2 10 0.96 1.25 0.45 <
8 2 -10 0.97 1.50 0.32 o
-7 2 10 8.47 9.48 0.93 o
7 2 -10 8.48 8.53 0.56 o
-6 2 10 7.62 6.99 0.75 o
6 2 -10 7.60 6.81 0.41 o
-5 2 10 3.90 3.89 0.57 o
5 2 -10 3.90 3.56 0.30 o
4 2 -10 10.84 11.23 0.43 o
-3 2 10 59.69 63.33 1.83 o
3 2 -10 59.67 59.14 1.95 o
-2 2 10 0.13 0.29 0.25 <
2 2 -10 0.13 0.18 0.23 <
-1 2 10 18.13 17.45 0.99 o
1 2 -10 18.14 18.77 1.02 o
0 2 10 19.59 19.11 1.04 o
0 2 -10 19.61 19.53 1.07 o
1 2 10 19.48 18.33 0.72 o
-1 2 -10 19.47 18.77 1.06 o
2 2 10 12.37 11.39 0.59 o
-2 2 -10 12.38 11.14 0.82 o
3 2 10 4.15 3.94 0.45 o
-3 2 -10 4.15 2.71 0.54 o
4 2 10 1.45 1.81 0.34 o
5 2 10 18.56 18.38 0.81 o
-8 3 10 2.72 2.06 0.38 o
8 3 -10 2.72 2.24 0.59 o
-7 3 10 0.71 1.18 0.27 o
7 3 -10 0.72 0.95 0.47 <
-6 3 10 5.44 5.32 0.70 o
6 3 -10 5.43 4.48 0.45 o
-5 3 10 5.29 5.30 0.68 o
5 3 -10 5.31 5.95 0.50 o
-4 3 10 11.15 10.07 0.82 o
4 3 -10 11.16 9.82 0.57 o
-3 3 10 9.79 9.26 0.56 o
3 3 -10 9.76 7.69 0.81 o
-2 3 10 2.37 2.76 0.36 o
2 3 -10 2.38 1.93 0.48 o
-1 3 10 1.12 0.81 0.25 o
1 3 -10 1.12 0.77 0.36 <
0 3 10 3.95 3.49 0.41 o
0 3 -10 3.92 1.92 0.47 o
1 3 10 0.55 0.70 0.21 o
-1 3 -10 0.54 0.56 0.36 <
2 3 10 3.88 5.21 0.41 o
-2 3 -10 3.88 4.37 0.66 o
3 3 10 9.96 10.86 0.57 o
4 3 10 3.21 3.71 0.39 o
-5 4 10 6.35 6.43 0.84 o
5 4 -10 6.37 5.41 0.81 o
-4 4 10 4.69 3.62 0.66 o
4 4 -10 4.69 3.73 0.68 o
-3 4 10 0.51 0.66 0.41 <
3 4 -10 0.51 0.11 0.32 <
-2 4 10 4.49 4.84 0.50 o
2 4 -10 4.49 4.26 0.72 o
-1 4 10 7.62 7.51 0.61 o
1 4 -10 7.62 6.32 0.82 o
0 4 10 6.42 6.22 0.59 o
0 4 -10 6.40 6.07 0.82 o
1 4 10 0.14 0.27 0.29 <
-1 4 -10 0.14 0.36 0.39 <
-9 1 11 14.82 16.12 1.09 o
9 1 -11 14.80 15.37 0.75 o
-8 1 11 6.37 8.51 0.90 o
8 1 -11 6.40 7.17 0.59 o
-7 1 11 11.15 9.82 0.79 o
7 1 -11 11.13 10.37 0.56 o
-6 1 11 21.14 21.32 1.07 o
6 1 -11 21.16 21.34 0.61 o
-5 1 11 1.80 1.56 0.36 o
5 1 -11 1.78 1.50 0.21 o
-4 1 11 2.12 2.26 0.29 o
4 1 -11 2.12 1.77 0.20 o
-3 1 11 83.42 89.63 2.35 o
3 1 -11 83.45 86.65 1.16 o
-2 1 11 21.17 19.49 1.00 o
2 1 -11 21.18 21.60 0.59 o
-1 1 11 5.68 7.33 0.52 o
1 1 -11 5.67 5.02 0.41 o
0 1 11 35.83 35.85 1.00 o
0 1 -11 35.83 35.20 1.45 o
1 1 11 17.92 17.23 0.70 o
-1 1 -11 17.96 16.28 0.99 o
2 1 11 3.32 3.30 0.32 o
-2 1 -11 3.33 3.06 0.54 o
3 1 11 13.79 15.53 0.56 o
-3 1 -11 13.75 15.62 0.99 o
4 1 11 15.36 14.71 0.56 o
-4 1 -11 15.38 15.44 1.00 o
5 1 11 1.85 2.04 0.36 o
-5 1 -11 1.85 1.67 0.50 o
-9 2 11 0.28 0.18 0.39 <
9 2 -11 0.28 0.38 0.30 <
-8 2 11 0.49 0.04 0.36 <
8 2 -11 0.48 0.27 0.27 <
-7 2 11 19.51 20.40 1.18 o
7 2 -11 19.49 20.92 0.81 o
-6 2 11 5.44 6.97 0.79 o
6 2 -11 5.46 5.88 0.41 o
5 2 -11 0.96 1.36 0.23 o
4 2 -11 52.63 53.17 1.02 o
-3 2 11 70.23 72.25 2.10 o
3 2 -11 70.34 72.70 2.26 o
-2 2 11 8.00 8.87 0.72 o
2 2 -11 7.96 8.15 0.84 o
-1 2 11 7.42 7.99 0.82 o
1 2 -11 7.40 5.55 0.68 o
0 2 11 12.18 11.97 0.88 o
0 2 -11 12.22 11.21 0.86 o
1 2 11 5.86 8.01 0.86 o
-1 2 -11 5.87 9.15 0.90 o
2 2 11 4.17 4.41 0.47 o
-2 2 -11 4.18 3.22 0.57 o
3 2 11 1.99 2.28 0.39 o
-3 2 -11 2.00 1.65 0.47 o
4 2 11 50.08 60.68 1.52 o
7 3 -11 0.80 0.54 0.45 <
6 3 -11 7.01 5.27 0.50 o
5 3 -11 14.39 12.15 0.66 o
4 3 -11 38.61 35.76 1.09 o
-3 3 11 0.82 1.56 0.45 o
3 3 -11 0.82 0.90 0.38 <
-2 3 11 3.04 3.46 0.59 o
2 3 -11 3.06 2.81 0.56 o
-1 3 11 26.59 28.27 1.36 o
1 3 -11 26.57 26.98 1.40 o
0 3 11 19.87 20.42 1.24 o
0 3 -11 19.89 20.39 1.22 o
1 3 11 12.29 13.76 1.04 o
-1 3 -11 12.27 14.26 1.04 o
2 3 11 12.11 12.88 0.70 o
-2 3 -11 12.14 10.28 1.02 o
3 3 11 3.69 4.30 0.50 o
-4 4 11 1.14 0.57 0.45 <
4 4 -11 1.14 1.04 0.50 <
-3 4 11 0.59 0.52 0.39 <
3 4 -11 0.59 0.43 0.41 <
-2 4 11 2.51 2.01 0.38 o
2 4 -11 2.50 1.61 0.50 o
-1 4 11 1.67 1.77 0.38 o
1 4 -11 1.66 1.81 0.59 o
0 4 11 1.53 1.27 0.38 o
0 4 -11 1.53 1.54 0.56 <
-9 0 12 1.21 3.42 0.61 o
9 0 -12 1.22 2.81 0.59 o
-8 0 12 5.17 4.80 0.66 o
8 0 -12 5.16 4.34 0.64 o
-7 0 12 1.71 1.36 0.43 o
7 0 -12 1.69 0.75 0.34 <
6 0 -12 26.28 25.64 1.22 o
5 0 -12 11.21 9.96 0.52 o
-4 0 12 10.69 9.51 0.70 o
4 0 -12 10.60 10.57 0.52 o
-3 0 12 14.90 12.47 0.81 o
3 0 -12 14.86 11.84 0.56 o
-2 0 12 12.67 12.77 0.84 o
2 0 -12 12.68 12.74 0.59 o
-1 0 12 18.76 22.41 1.13 o
1 0 -12 18.73 19.90 1.09 o
0 0 12 11.08 14.71 0.93 o
0 0 -12 11.09 13.01 0.90 o
1 0 12 5.41 5.28 0.70 o
-1 0 -12 5.41 5.03 0.66 o
2 0 12 13.26 12.43 0.91 o
-2 0 -12 13.24 13.51 0.95 o
3 0 12 102.87 118.20 3.17 o
-3 0 -12 102.93 114.72 3.21 o
4 0 12 11.79 11.00 0.91 o
-4 0 -12 11.76 11.79 1.09 o
-9 1 12 0.96 0.54 0.39 <
9 1 -12 0.95 0.18 0.27 <
-8 1 12 7.75 7.56 0.84 o
8 1 -12 7.74 4.69 0.48 o
-7 1 12 15.49 14.42 0.97 o
7 1 -12 15.47 15.16 0.70 o
-6 1 12 22.68 20.12 1.07 o
6 1 -12 22.65 21.71 0.64 o
-5 1 12 11.69 10.34 0.73 o
5 1 -12 11.67 11.36 0.47 o
-4 1 12 4.75 6.09 0.66 o
4 1 -12 4.75 5.20 0.32 o
-3 1 12 70.40 72.52 2.15 o
3 1 -12 70.35 72.64 1.07 o
-2 1 12 2.10 2.85 0.52 o
2 1 -12 2.11 2.44 0.27 o
-1 1 12 0.99 1.47 0.41 o
1 1 -12 0.98 0.99 0.20 o
0 1 12 1.75 2.04 0.32 o
0 1 -12 1.75 1.54 0.29 o
1 1 12 0.07 0.25 0.20 <
-1 1 -12 0.07 0.14 0.30 <
2 1 12 5.80 7.92 0.61 o
-2 1 -12 5.80 5.02 0.68 o
3 1 12 6.92 9.06 0.52 o
-3 1 -12 6.93 8.20 0.63 o
4 1 12 22.50 24.81 0.91 o
-4 1 -12 22.52 25.12 1.36 o
-8 2 12 4.24 2.92 0.63 o
8 2 -12 4.25 3.37 0.47 o
-7 2 12 2.53 2.02 0.50 o
7 2 -12 2.53 2.54 0.38 o
-6 2 12 21.70 23.47 1.20 o
6 2 -12 21.70 22.36 0.68 o
5 2 -12 0.95 0.95 0.21 o
4 2 -12 47.73 48.98 1.27 o
-3 2 12 3.82 2.76 0.52 o
3 2 -12 3.82 3.03 0.54 o
-2 2 12 4.43 6.41 0.75 o
2 2 -12 4.42 4.03 0.61 o
-1 2 12 18.68 18.88 1.11 o
1 2 -12 18.68 17.81 1.11 o
0 2 12 16.59 16.62 1.07 o
0 2 -12 16.59 15.96 1.06 o
1 2 12 8.06 7.99 0.90 o
-1 2 -12 8.05 9.21 0.95 o
2 2 12 5.47 5.64 0.56 o
-2 2 -12 5.45 4.41 0.68 o
3 2 12 0.74 0.47 0.30 <
-3 2 -12 0.74 0.61 0.41 <
4 2 12 18.79 18.34 1.15 o
6 3 -12 18.80 20.82 0.86 o
5 3 -12 18.12 19.49 0.84 o
4 3 -12 32.70 31.28 1.42 o
3 3 -12 7.10 5.93 0.77 o
-2 3 12 10.08 10.78 1.00 o
2 3 -12 10.12 9.08 0.95 o
-1 3 12 2.06 2.24 0.54 o
1 3 -12 2.07 0.93 0.41 <
0 3 12 0.57 0.50 0.41 <
0 3 -12 0.56 0.38 0.39 <
1 3 12 1.18 1.88 0.57 o
-1 3 -12 1.16 1.67 0.50 o
2 3 12 3.16 2.24 0.61 o
-2 3 -12 3.16 1.92 0.54 o
-8 1 13 5.71 4.25 0.68 o
8 1 -13 5.69 3.44 0.45 o
-7 1 13 11.40 11.48 0.88 o
7 1 -13 11.42 12.54 0.64 o
-6 1 13 2.52 1.56 0.39 o
6 1 -13 2.53 1.65 0.25 o
5 1 -13 0.57 0.07 0.16 <
-4 1 13 11.44 10.27 0.79 o
4 1 -13 11.45 11.70 0.41 o
-3 1 13 0.46 -0.05 0.27 <
3 1 -13 0.46 0.30 0.14 <
-2 1 13 23.72 24.45 1.25 o
2 1 -13 23.69 24.85 0.70 o
-1 1 13 5.81 5.89 0.75 o
1 1 -13 5.81 6.11 0.54 o
0 1 13 18.55 19.90 0.81 o
0 1 -13 18.54 20.23 0.82 o
1 1 13 4.75 5.00 0.52 o
-1 1 -13 4.75 4.30 0.47 o
2 1 13 20.16 20.23 0.86 o
-2 1 -13 20.18 20.71 0.88 o
3 1 13 40.76 46.15 1.33 o
-3 1 -13 40.72 44.75 1.33 o
-7 2 13 52.71 57.65 2.06 o
7 2 -13 52.68 54.55 1.99 o
6 2 -13 6.81 7.51 0.48 o
5 2 -13 2.58 2.62 0.38 o
4 2 -13 37.09 36.78 1.11 o
-3 2 13 14.96 17.31 1.04 o
3 2 -13 15.01 16.18 0.59 o
-2 2 13 6.22 6.14 0.77 o
2 2 -13 6.20 5.27 0.73 o
-1 2 13 6.57 6.84 0.82 o
1 2 -13 6.55 4.64 0.70 o
0 2 13 2.81 2.69 0.59 o
0 2 -13 2.79 2.04 0.52 o
1 2 13 13.93 14.49 1.06 o
-1 2 -13 13.95 13.24 1.04 o
2 2 13 3.61 4.48 0.75 o
-2 2 -13 3.59 4.01 0.70 o
5 3 -13 21.67 21.05 0.90 o
4 3 -13 20.82 19.74 0.86 o
3 3 -13 3.60 2.58 0.39 o
-2 3 13 1.27 1.00 0.43 <
2 3 -13 1.27 0.88 0.39 <
-1 3 13 9.43 9.39 1.00 o
1 3 -13 9.43 7.24 0.88 o
0 3 13 0.79 1.52 0.56 <
0 3 -13 0.79 0.48 0.47 <
8 0 -14 60.16 60.35 2.17 o
7 0 -14 11.30 9.19 0.95 o
6 0 -14 2.59 2.13 0.48 o
5 0 -14 21.42 22.18 0.82 o
4 0 -14 15.13 14.13 0.66 o
-3 0 14 37.40 39.63 1.61 o
3 0 -14 37.38 38.41 1.11 o
-2 0 14 3.44 4.16 0.66 o
2 0 -14 3.45 2.67 0.39 o
-1 0 14 40.14 47.42 1.86 o
1 0 -14 40.08 47.04 1.25 o
0 0 14 6.35 8.83 0.95 o
0 0 -14 6.39 7.36 0.86 o
1 0 14 10.57 11.68 0.97 o
-1 0 -14 10.56 10.07 1.02 o
2 0 14 43.78 52.15 2.06 o
-2 0 -14 43.72 52.15 2.10 o
3 0 14 47.20 54.93 2.11 o
-3 0 -14 47.29 55.36 2.19 o
-8 1 14 2.86 3.74 0.64 o
8 1 -14 2.86 3.01 0.43 o
-7 1 14 21.92 25.37 1.25 o
7 1 -14 21.97 24.65 1.33 o
6 1 -14 3.50 2.58 0.30 o
5 1 -14 2.02 1.90 0.27 o
-4 1 14 2.34 3.71 0.59 o
4 1 -14 2.36 2.85 0.27 o
-3 1 14 1.39 0.77 0.34 <
3 1 -14 1.39 1.15 0.20 o
-2 1 14 2.05 2.01 0.54 o
2 1 -14 2.04 2.79 0.39 o
-1 1 14 6.35 10.21 1.02 o
1 1 -14 6.34 7.49 0.61 o
0 1 14 13.48 18.20 1.16 o
0 1 -14 13.49 15.17 0.75 o
1 1 14 1.83 3.21 0.64 o
-1 1 -14 1.80 2.54 0.39 o
2 1 14 37.37 47.47 1.97 o
-2 1 -14 37.39 45.34 1.36 o
6 2 -14 6.29 6.41 0.59 o
5 2 -14 2.73 2.76 0.41 o
4 2 -14 0.14 0.32 0.23 <
-3 2 14 4.51 5.30 0.75 o
3 2 -14 4.52 4.34 0.39 o
-2 2 14 2.78 2.19 0.52 o
2 2 -14 2.77 2.83 0.41 o
-1 2 14 0.04 0.34 0.38 <
1 2 -14 0.04 0.02 0.30 <
0 2 14 0.73 0.56 0.41 <
0 2 -14 0.72 0.90 0.47 <
1 2 14 10.12 12.29 1.20 o
-1 2 -14 10.13 9.69 1.04 o
3 3 -14 1.26 0.97 0.45 <
6 1 -15 2.89 2.71 0.38 o
5 1 -15 8.73 7.42 0.48 o
-4 1 15 16.35 19.06 1.13 o
4 1 -15 16.35 18.13 0.56 o
-3 1 15 1.20 1.49 0.48 o
3 1 -15 1.20 0.75 0.23 o
-2 1 15 2.19 2.76 0.63 o
2 1 -15 2.18 2.38 0.32 o
-1 1 15 0.97 1.56 0.54 <
1 1 -15 0.99 1.00 0.32 o
0 1 15 0.85 0.41 0.38 <
0 1 -15 0.84 0.68 0.29 <
1 1 15 1.06 0.72 0.43 <
-1 1 -15 1.06 1.31 0.50 <
5 2 -15 1.08 0.39 0.29 <
4 2 -15 0.21 0.21 0.25 <
-3 2 15 3.56 3.76 0.68 o
3 2 -15 3.54 3.51 0.38 o
-2 2 15 21.08 23.90 1.38 o
2 2 -15 21.12 25.96 1.00 o
-1 2 15 2.60 3.24 0.70 o
1 2 -15 2.59 2.22 0.41 o
5 0 -16 14.04 16.43 0.79 o
4 0 -16 0.09 0.13 0.23 <
-3 0 16 2.51 3.10 0.63 o
3 0 -16 2.50 2.79 0.41 o
-2 0 16 3.10 3.08 0.64 o
2 0 -16 3.08 3.48 0.47 o
-1 0 16 6.63 9.01 1.04 o
1 0 -16 6.63 7.86 0.64 o
5 1 -16 0.17 0.32 0.21 <
-4 1 16 2.55 2.02 0.54 o
4 1 -16 2.54 2.13 0.32 o
-3 1 16 4.65 6.07 0.82 o
3 1 -16 4.66 4.73 0.43 o
-2 1 16 20.00 24.56 1.42 o
2 1 -16 19.97 23.56 0.79 o
loop_
_restr_angle_atom_site_label_1
_restr_angle_site_symmetry_1
_restr_angle_atom_site_label_2
_restr_angle_site_symmetry_2
_restr_angle_atom_site_label_3
_restr_angle_site_symmetry_3
_restr_angle_target
_restr_angle_target_weight_param
? ? ? ? ? ? ? ?
loop_
_restr_distance_atom_site_label_1
_restr_distance_site_symmetry_1
_restr_distance_atom_site_label_2
_restr_distance_site_symmetry_2
_restr_distance_target
_restr_distance_target_weight_param
? ? ? ? ? ?
loop_
_restr_equal_angle_atom_site_label_1
_restr_equal_angle_site_symmetry_1
_restr_equal_angle_atom_site_label_2
_restr_equal_angle_site_symmetry_2
_restr_equal_angle_atom_site_label_3
_restr_equal_angle_site_symmetry_3
_restr_equal_angle_class_class_id
_restr_equal_angle_class_target_weight_param
? ? ? ? ? ? ? ?
loop_
_restr_equal_distance_atom_site_label_1
_restr_equal_distance_site_symmetry_1
_restr_equal_distance_atom_site_label_2
_restr_equal_distance_site_symmetry_2
_restr_equal_distance_class_class_id
_restr_equal_distance_class_target_weight_param
? ? ? ? ? ?
loop_
_restr_equal_torsion_atom_site_label_1
_restr_equal_torsion_site_symmetry_1
_restr_equal_torsion_atom_site_label_2
_restr_equal_torsion_site_symmetry_2
_restr_equal_torsion_atom_site_label_3
_restr_equal_torsion_site_symmetry_3
_restr_equal_torsion_atom_site_label_4
_restr_equal_torsion_site_symmetry_4
_restr_equal_torsion_class_class_id
_restr_equal_torsion_class_target_weight_param
? ? ? ? ? ? ? ? ? ?
loop_
_restr_torsion_atom_site_label_1
_restr_torsion_site_symmetry_1
_restr_torsion_atom_site_label_2
_restr_torsion_site_symmetry_2
_restr_torsion_atom_site_label_3
_restr_torsion_site_symmetry_3
_restr_torsion_atom_site_label_4
_restr_torsion_site_symmetry_4
_restr_torsion_angle_target
_restr_torsion_weight_param
? ? ? ? ? ? ? ? ? ?
loop_
_twin_individual_id
_twin_individual_mass_fraction_refined
_twin_individual_twin_matrix_11
_twin_individual_twin_matrix_12
_twin_individual_twin_matrix_13
_twin_individual_twin_matrix_21
_twin_individual_twin_matrix_22
_twin_individual_twin_matrix_23
_twin_individual_twin_matrix_31
_twin_individual_twin_matrix_32
_twin_individual_twin_matrix_33
? ? ? ? ? ? ? ? ? ? ?
loop_
_twin_refln_datum_id
_twin_refln_individual_id
_twin_refln_index_h
_twin_refln_index_k
_twin_refln_index_l
_twin_refln_F_squared_calc
_twin_refln_F_squared_meas
_twin_refln_F_squared_sigma
_twin_refln_include_status
? ? ? ? ? ? ? ? ?
loop_
_jana_atom_site_adp_c_label
_jana_atom_site_adp_c_type_symbol
_jana_atom_site_adp_c_111
_jana_atom_site_adp_c_112
_jana_atom_site_adp_c_113
_jana_atom_site_adp_c_122
_jana_atom_site_adp_c_123
_jana_atom_site_adp_c_133
_jana_atom_site_adp_c_222
_jana_atom_site_adp_c_223
_jana_atom_site_adp_c_233
_jana_atom_site_adp_c_333
? ? ? ? ? ? ? ? ? ? ? ?
loop_
_jana_atom_site_adp_d_label
_jana_atom_site_adp_d_type_symbol
_jana_atom_site_adp_d_1111
_jana_atom_site_adp_d_1112
_jana_atom_site_adp_d_1113
_jana_atom_site_adp_d_1122
_jana_atom_site_adp_d_1123
_jana_atom_site_adp_d_1133
_jana_atom_site_adp_d_1222
_jana_atom_site_adp_d_1223
_jana_atom_site_adp_d_1233
_jana_atom_site_adp_d_1333
_jana_atom_site_adp_d_2222
_jana_atom_site_adp_d_2223
_jana_atom_site_adp_d_2233
_jana_atom_site_adp_d_2333
_jana_atom_site_adp_d_3333
? ? ? ? ? ? ? ? ? ? ? ? ? ? ? ? ?
loop_
_jana_atom_site_adp_e_label
_jana_atom_site_adp_e_type_symbol
_jana_atom_site_adp_e_11111
_jana_atom_site_adp_e_11112
_jana_atom_site_adp_e_11113
_jana_atom_site_adp_e_11122
_jana_atom_site_adp_e_11123
_jana_atom_site_adp_e_11133
_jana_atom_site_adp_e_11222
_jana_atom_site_adp_e_11223
_jana_atom_site_adp_e_11233
_jana_atom_site_adp_e_11333
_jana_atom_site_adp_e_12222
_jana_atom_site_adp_e_12223
_jana_atom_site_adp_e_12233
_jana_atom_site_adp_e_12333
_jana_atom_site_adp_e_13333
_jana_atom_site_adp_e_22222
_jana_atom_site_adp_e_22223
_jana_atom_site_adp_e_22233
_jana_atom_site_adp_e_22333
_jana_atom_site_adp_e_23333
_jana_atom_site_adp_e_33333
? ? ? ? ? ? ? ? ? ? ? ? ? ? ? ? ? ? ? ? ? ? ?
loop_
_jana_atom_site_adp_f_label
_jana_atom_site_adp_f_type_symbol
_jana_atom_site_adp_f_111111
_jana_atom_site_adp_f_111112
_jana_atom_site_adp_f_111113
_jana_atom_site_adp_f_111122
_jana_atom_site_adp_f_111123
_jana_atom_site_adp_f_111133
_jana_atom_site_adp_f_111222
_jana_atom_site_adp_f_111223
_jana_atom_site_adp_f_111233
_jana_atom_site_adp_f_111333
_jana_atom_site_adp_f_112222
_jana_atom_site_adp_f_112223
_jana_atom_site_adp_f_112233
_jana_atom_site_adp_f_112333
_jana_atom_site_adp_f_113333
_jana_atom_site_adp_f_122222
_jana_atom_site_adp_f_122223
_jana_atom_site_adp_f_122233
_jana_atom_site_adp_f_122333
_jana_atom_site_adp_f_123333
_jana_atom_site_adp_f_133333
_jana_atom_site_adp_f_222222
_jana_atom_site_adp_f_222223
_jana_atom_site_adp_f_222233
_jana_atom_site_adp_f_222333
_jana_atom_site_adp_f_223333
_jana_atom_site_adp_f_233333
_jana_atom_site_adp_f_333333
? ? ? ? ? ? ? ? ? ? ? ? ? ? ? ? ? ? ? ? ? ? ? ? ? ? ? ? ? ?
