#------------------------------------------------------------------------------
#$Date: 2022-06-09 04:56:52 +0300 (Thu, 09 Jun 2022) $
#$Revision: 275937 $
#$URL: file:///home/coder/svn-repositories/cod/cif/2/10/90/2109001.cif $
#------------------------------------------------------------------------------
#
# This file is available in the Crystallography Open Database (COD),
# http://www.crystallography.net/. The original data for this entry
# were provided by IUCr Journals, http://journals.iucr.org/.
#
# The file may be used within the scientific community so long as
# proper attribution is given to the journal article from which the
# data were obtained.
#
data_2109001
loop_
_publ_author_name
'Hoser, Anna Agnieszka'
'Rekis, Toms'
'Madsen, Anders \/Ostergaard'
_publ_section_title
;
 Dynamics and disorder: on the stability of pyrazinamide polymorphs
;
_journal_issue                   '3 Part 1'
_journal_name_full               'Acta Crystallographica Section B'
_journal_page_first              416
_journal_page_last               424
_journal_paper_doi               10.1107/S2052520622004577
_journal_volume                  78
_journal_year                    2022
_chemical_formula_sum            'C5 H5 N3 O'
_chemical_formula_weight         123.1
_chemical_name_common            Pyrazinamide
_space_group_IT_number           14
_space_group_name_Hall           '-P 2ybc'
_space_group_name_H-M_alt        'P 1 21/c 1'
_symmetry_cell_setting           monoclinic
_symmetry_Int_Tables_number      14
_symmetry_space_group_name_Hall  '-P 2ybc'
_symmetry_space_group_name_H-M   'P 1 21/c 1'
_cell_angle_alpha                90
_cell_angle_beta                 100.9820(10)
_cell_angle_gamma                90
_cell_formula_units_Z            4
_cell_length_a                   14.3433(9)
_cell_length_b                   3.6086(2)
_cell_length_c                   10.6023(7)
_cell_measurement_reflns_used    4273
_cell_measurement_temperature    10
_cell_measurement_theta_max      32.82
_cell_measurement_theta_min      2.89
_cell_volume                     538.72(6)
_diffrn_ambient_temperature      10
_diffrn_measured_fraction_theta_full 0.98
_diffrn_measured_fraction_theta_max 0.92
_diffrn_measurement_device_type  'Bruker APEX II CCD'
_diffrn_radiation_probe          x-ray
_diffrn_radiation_source         'X-ray tube'
_diffrn_radiation_type           'Mo K\a'
_diffrn_radiation_wavelength     0.71073
_diffrn_reflns_av_R_equivalents  0.0111
_diffrn_reflns_av_unetI/netI     0.0138
_diffrn_reflns_limit_h_max       20
_diffrn_reflns_limit_h_min       -20
_diffrn_reflns_limit_k_max       5
_diffrn_reflns_limit_k_min       -5
_diffrn_reflns_limit_l_max       15
_diffrn_reflns_limit_l_min       -14
_diffrn_reflns_number            4273
_diffrn_reflns_theta_full        28.1
_diffrn_reflns_theta_max         32.82
_diffrn_reflns_theta_min         2.89
_exptl_absorpt_coefficient_mu    0.113
_exptl_crystal_colour            colorless
_exptl_crystal_density_diffrn    1.518
_exptl_crystal_description       prism
_exptl_crystal_F_000             256
_refine_diff_density_max         0.53
_refine_diff_density_min         -0.24
_refine_ls_extinction_method     none
_refine_ls_goodness_of_fit_gt    2.86
_refine_ls_goodness_of_fit_ref   2.69
_refine_ls_hydrogen_treatment    constr
_refine_ls_number_constraints    0
_refine_ls_number_parameters     82
_refine_ls_number_reflns         1853
_refine_ls_number_restraints     0
_refine_ls_R_factor_all          0.0376
_refine_ls_R_factor_gt           0.0333
_refine_ls_shift/su_max          0.0064
_refine_ls_shift/su_mean         0.0009
_refine_ls_structure_factor_coef F
_refine_ls_weighting_details     w=1/(\s^2^(F)+0.0001F^2^)
_refine_ls_weighting_scheme      sigma
_refine_ls_wR_factor_gt          0.0462
_refine_ls_wR_factor_ref         0.0467
_reflns_number_gt                1620
_reflns_number_total             1853
_reflns_threshold_expression     I>3\s(I)
_cod_data_source_file            so5076sup1.cif
_cod_data_source_block           beta10K
_cod_depositor_comments
;
The following automatic conversions were performed:

data item '_diffrn_radiation_probe' value 'X-ray' was changed to
'x-ray' in accordance with the
/home/data/users/saulius/crontab/automatic-downloads/rss-feeds/IUCr/lib/dictionaries/cif_core.dic
dictionary named 'cif_core.dic' version 2.4.2 last updated on
2011-04-26.

Automatic conversion script
Id: cif_fix_values 7556 2019-12-06 15:28:31Z antanas 
;
_cod_original_sg_symbol_Hall     '-P 2ycb'
_cod_original_formula_sum        'C5 H5 N3 O1'
_cod_database_code               2109001
loop_
_space_group_symop_id
_space_group_symop_operation_xyz
1 x,y,z
2 -x,y+1/2,-z+1/2
3 -x,-y,-z
4 x,-y+1/2,z+1/2
loop_
_atom_site_label
_atom_site_type_symbol
_atom_site_fract_x
_atom_site_fract_y
_atom_site_fract_z
_atom_site_adp_type
_atom_site_U_iso_or_equiv
_atom_site_site_symmetry_multiplicity
_atom_site_occupancy
_atom_site_calc_flag
_atom_site_refinement_flags
_atom_site_disorder_assembly
_atom_site_disorder_group
O1 O 0.10075(4) 0.08701(16) 0.13098(6) Uani 0.01041(16) 4 1 d . . .
N2 N 0.26708(5) 0.52551(18) -0.03045(6) Uani 0.00861(18) 4 1 d . . .
N3 N 0.08402(4) 0.26789(19) -0.07798(6) Uani 0.01029(19) 4 1 d . . .
N1 N 0.37683(5) 0.47633(19) 0.21811(6) Uani 0.00941(18) 4 1 d . . .
C4 C 0.35771(5) 0.6392(2) -0.00375(8) Uani 0.0091(2) 4 1 d . . .
C2 C 0.41225(5) 0.6123(2) 0.11953(8) Uani 0.0092(2) 4 1 d . . .
C1 C 0.23193(5) 0.3857(2) 0.06768(7) Uani 0.0077(2) 4 1 d . . .
C5 C 0.28608(5) 0.3646(2) 0.19168(8) Uani 0.0089(2) 4 1 d . . .
C3 C 0.13194(4) 0.2360(2) 0.04208(7) Uani 0.0083(2) 4 1 d . . .
H1n3 H 0.111546 0.361273 -0.137119 Uiso 0.0123 4 1 d . . .
H2n3 H 0.025176 0.195362 -0.097296 Uiso 0.0123 4 1 d . . .
H1c4 H 0.385718 0.741879 -0.071325 Uiso 0.0109 4 1 d . . .
H1c2 H 0.477145 0.693636 0.134257 Uiso 0.011 4 1 d . . .
H1c5 H 0.257616 0.267626 0.259712 Uiso 0.0107 4 1 d . . .
loop_
_atom_site_aniso_label
_atom_site_aniso_type_symbol
_atom_site_aniso_U_11
_atom_site_aniso_U_22
_atom_site_aniso_U_33
_atom_site_aniso_U_12
_atom_site_aniso_U_13
_atom_site_aniso_U_23
O1 O 0.0098(3) 0.0125(3) 0.0091(3) -0.00132(19) 0.00228(19) 0.0012(2)
N2 N 0.0088(3) 0.0085(3) 0.0087(3) 0.0001(2) 0.0018(2) -0.0003(2)
N3 N 0.0079(3) 0.0140(3) 0.0086(3) -0.0019(2) 0.0005(2) 0.0010(2)
N1 N 0.0089(3) 0.0103(3) 0.0088(3) 0.0004(2) 0.0011(2) -0.0009(2)
C4 C 0.0094(3) 0.0093(3) 0.0089(4) -0.0003(2) 0.0026(2) 0.0000(3)
C2 C 0.0082(3) 0.0095(3) 0.0098(4) -0.0001(2) 0.0016(2) -0.0008(3)
C1 C 0.0081(3) 0.0072(3) 0.0079(3) 0.0006(2) 0.0015(2) -0.0004(3)
C5 C 0.0091(3) 0.0095(3) 0.0082(3) 0.0002(2) 0.0017(2) 0.0002(3)
C3 C 0.0082(3) 0.0075(3) 0.0091(4) 0.0006(2) 0.0014(2) -0.0007(3)
loop_
_atom_type_symbol
_atom_type_scat_dispersion_real
_atom_type_scat_dispersion_imag
_atom_type_scat_source
C 0.0033 0.0016 'International Tables Vol C tables 4.2.6.8 and 6.1.1.1'
H 0.0000 0.0000 'International Tables Vol C tables 4.2.6.8 and 6.1.1.1'
N 0.0061 0.0033 'International Tables Vol C tables 4.2.6.8 and 6.1.1.1'
O 0.0106 0.0060 'International Tables Vol C tables 4.2.6.8 and 6.1.1.1'
loop_
_diffrn_standard_refln_index_h
_diffrn_standard_refln_index_k
_diffrn_standard_refln_index_l
? ? ?
loop_
_exptl_crystal_face_index_h
_exptl_crystal_face_index_k
_exptl_crystal_face_index_l
_exptl_crystal_face_perp_dist
? ? ? ?
loop_
_geom_angle_atom_site_label_1
_geom_angle_atom_site_label_2
_geom_angle_atom_site_label_3
_geom_angle_site_symmetry_1
_geom_angle_site_symmetry_2
_geom_angle_site_symmetry_3
_geom_angle
_geom_angle_publ_flag
C4 N2 C1 . . . 116.41(6) ?
C3 N3 H1n3 . . . 120 ?
C3 N3 H2n3 . . . 120 ?
H1n3 N3 H2n3 . . . 120 ?
C2 N1 C5 . . . 116.40(6) ?
N2 C4 C2 . . . 121.69(8) ?
N2 C4 H1c4 . . . 119.15 ?
C2 C4 H1c4 . . . 119.15 ?
N1 C2 C4 . . . 121.95(7) ?
N1 C2 H1c2 . . . 119.02 ?
C4 C2 H1c2 . . . 119.02 ?
N2 C1 C5 . . . 121.90(7) ?
N2 C1 C3 . . . 118.77(6) ?
C5 C1 C3 . . . 119.30(7) ?
N1 C5 C1 . . . 121.63(8) ?
N1 C5 H1c5 . . . 119.19 ?
C1 C5 H1c5 . . . 119.19 ?
O1 C3 N3 . . . 124.67(6) ?
O1 C3 C1 . . . 119.14(6) ?
N3 C3 C1 . . . 116.18(7) ?
loop_
_geom_bond_atom_site_label_1
_geom_bond_atom_site_label_2
_geom_bond_site_symmetry_1
_geom_bond_site_symmetry_2
_geom_bond_distance
_geom_bond_publ_flag
O1 C3 . . 1.2402(10) ?
N2 C4 . . 1.3410(10) ?
N2 C1 . . 1.3383(11) ?
N3 C3 . . 1.3315(9) ?
N3 H1n3 . . 0.87 ?
N3 H2n3 . . 0.87 ?
N1 C2 . . 1.3392(11) ?
N1 C5 . . 1.3404(10) ?
C4 C2 . . 1.3928(11) ?
C4 H1c4 . . 0.96 ?
C2 H1c2 . . 0.96 ?
C1 C5 . . 1.3958(10) ?
C1 C3 . . 1.5081(9) ?
C5 H1c5 . . 0.96 ?
loop_
_geom_hbond_atom_site_label_D
_geom_hbond_atom_site_label_H
_geom_hbond_atom_site_label_A
_geom_hbond_site_symmetry_D
_geom_hbond_site_symmetry_H
_geom_hbond_site_symmetry_A
_geom_hbond_distance_DH
_geom_hbond_distance_HA
_geom_hbond_distance_DA
_geom_hbond_angle_DHA
_geom_hbond_publ_flag
N3 H1n3 O1 . . 4_554 0.87 2.44 3.1836(10) 143.62 ?
N3 H2n3 O1 . . 3_555 0.87 2.05 2.9004(9) 167.40 ?
C4 H1c4 N1 . . 4_564 0.96 2.43 3.3173(11) 152.80 ?
C5 H1c5 N2 . . 4_555 0.96 2.44 3.3228(11) 152.13 ?
loop_
_geom_torsion_atom_site_label_1
_geom_torsion_atom_site_label_2
_geom_torsion_atom_site_label_3
_geom_torsion_atom_site_label_4
_geom_torsion_site_symmetry_1
_geom_torsion_site_symmetry_2
_geom_torsion_site_symmetry_3
_geom_torsion_site_symmetry_4
_geom_torsion
_geom_torsion_publ_flag
? ? ? ? ? ? ? ? ? ?
loop_
_refln_index_h
_refln_index_k
_refln_index_l
_refln_F_squared_calc
_refln_F_squared_meas
_refln_F_squared_sigma
_refln_observed_status
2 0 0 1328.13 1272.63 15.42 o
3 0 0 612.65 571.33 3.89 o
4 0 0 2444.56 2344.22 15.56 o
5 0 0 1068.55 1014.27 6.60 o
6 0 0 4105.83 4292.18 28.34 o
7 0 0 41.31 47.73 0.63 o
8 0 0 1738.96 1861.19 12.30 o
9 0 0 13.81 23.27 0.49 o
10 0 0 141.32 141.44 1.46 o
11 0 0 421.67 423.70 3.33 o
12 0 0 1.84 2.15 0.28 o
13 0 0 6.17 8.13 0.69 o
14 0 0 84.49 56.20 1.60 o
1 1 0 1652.62 1570.18 8.96 o
2 1 0 4828.98 4669.68 25.84 o
3 1 0 76.53 67.32 0.56 o
4 1 0 833.33 806.21 5.28 o
5 1 0 158.63 165.62 1.39 o
6 1 0 643.44 700.33 4.72 o
7 1 0 409.06 418.77 3.68 o
8 1 0 156.67 154.16 1.46 o
9 1 0 43.34 46.82 0.56 o
10 1 0 0.32 0.76 0.14 o
11 1 0 62.88 57.38 0.76 o
12 1 0 10.23 4.93 0.35 o
13 1 0 3.43 2.08 0.28 o
14 1 0 153.50 129.15 1.67 o
15 1 0 5.46 4.31 0.42 o
16 1 0 32.31 29.59 1.04 o
17 1 0 0.60 1.39 0.42 o
0 2 0 22.06 33.55 0.69 o
1 2 0 423.00 424.54 2.71 o
2 2 0 208.95 199.24 1.46 o
3 2 0 185.36 210.29 1.53 o
4 2 0 60.86 69.33 0.63 o
5 2 0 139.35 151.31 1.25 o
6 2 0 58.83 63.77 0.76 o
7 2 0 0.27 0.42 0.14 o
8 2 0 115.61 118.24 1.18 o
9 2 0 89.87 94.90 1.53 o
10 2 0 1.21 0.69 0.21 o
11 2 0 87.24 69.47 0.97 o
12 2 0 8.11 5.84 0.49 o
13 2 0 26.45 21.19 0.69 o
14 2 0 100.20 106.99 1.60 o
15 2 0 22.09 19.03 0.76 o
16 2 0 1.97 1.32 0.35 o
17 2 0 16.21 20.70 0.76 o
18 2 0 112.76 113.17 2.22 o
19 2 0 220.94 225.22 2.71 o
1 3 0 0.13 0.42 0.14 o
2 3 0 1.66 2.08 0.21 o
3 3 0 99.82 109.28 1.18 o
4 3 0 3.65 4.65 0.28 o
5 3 0 9.02 12.57 0.42 o
6 3 0 7.10 8.06 0.56 o
7 3 0 3.27 2.15 0.35 o
8 3 0 88.58 87.05 1.25 o
9 3 0 0.24 0.35 0.21 <
10 3 0 0.10 0.42 0.28 <
11 3 0 112.73 102.61 1.46 o
12 3 0 0.57 0.63 0.21 <
13 3 0 3.51 3.96 0.35 o
14 3 0 202.49 190.91 2.01 o
15 3 0 62.00 55.99 1.04 o
16 3 0 124.56 116.09 1.88 o
17 3 0 141.79 150.26 2.22 o
18 3 0 11.75 11.05 0.97 o
0 4 0 16.37 17.99 0.76 o
1 4 0 62.46 62.52 0.97 o
2 4 0 19.08 19.17 0.56 o
3 4 0 16.65 18.69 0.83 o
4 4 0 24.34 26.19 0.97 o
5 4 0 30.92 32.51 1.04 o
6 4 0 4.82 4.72 0.63 o
7 4 0 2.84 2.29 0.56 o
8 4 0 26.01 23.55 1.04 o
9 4 0 47.66 41.40 1.81 o
10 4 0 17.52 16.26 1.18 o
11 4 0 23.86 21.88 1.39 o
12 4 0 9.35 8.96 0.76 o
13 4 0 11.53 9.10 0.83 o
1 5 0 6.74 6.32 0.69 o
2 5 0 4.54 4.24 0.69 o
3 5 0 382.45 383.27 6.53 o
4 5 0 0.03 -1.32 0.49 <
5 5 0 152.75 147.07 2.64 o
6 5 0 24.71 22.44 1.46 o
7 5 0 19.33 20.22 1.39 o
8 5 0 61.30 58.63 2.36 o
-16 1 1 18.47 13.82 0.56 o
-15 1 1 25.21 21.40 0.69 o
-14 1 1 146.07 122.96 1.60 o
-13 1 1 176.34 152.28 1.81 o
-12 1 1 54.18 45.64 0.90 o
-11 1 1 46.45 48.28 0.83 o
-10 1 1 345.61 351.73 2.99 o
-9 1 1 64.35 70.30 0.76 o
-8 1 1 769.13 810.52 4.31 o
-7 1 1 0.44 0.00 0.07 <
-6 1 1 37.89 35.78 0.49 o
-5 1 1 136.99 144.50 1.25 o
-4 1 1 60.67 68.43 0.69 o
-3 1 1 320.79 338.88 2.01 o
-2 1 1 6753.79 6927.13 43.63 o
-1 1 1 137.74 141.86 1.11 o
0 1 1 2347.29 2259.05 14.80 o
1 1 1 2528.26 2471.28 12.37 o
2 1 1 137.79 130.33 0.83 o
3 1 1 513.87 491.64 3.33 o
4 1 1 951.17 993.71 6.46 o
5 1 1 257.77 269.48 2.08 o
6 1 1 992.82 1054.36 6.95 o
7 1 1 19.62 20.56 0.49 o
8 1 1 24.00 24.18 0.56 o
9 1 1 306.91 315.95 2.64 o
10 1 1 29.46 28.62 0.63 o
11 1 1 8.72 8.27 0.42 o
12 1 1 128.78 151.59 1.46 o
13 1 1 36.44 37.10 0.83 o
14 1 1 20.78 16.74 0.63 o
15 1 1 5.04 5.35 0.63 o
16 1 1 0.00 0.07 0.28 <
17 1 1 0.00 0.69 0.35 <
18 1 1 33.99 33.21 1.18 o
-19 2 1 267.44 277.54 3.89 o
-18 2 1 0.02 0.28 0.28 <
-17 2 1 7.01 8.41 0.49 o
-16 2 1 0.02 0.42 0.28 <
-15 2 1 4.02 3.75 0.35 o
-14 2 1 6.26 5.77 0.42 o
-13 2 1 83.49 68.29 1.04 o
-12 2 1 8.72 9.03 0.42 o
-11 2 1 4.65 8.41 0.42 o
-10 2 1 91.84 90.66 1.11 o
-9 2 1 87.76 87.46 1.18 o
-8 2 1 6.04 6.18 0.35 o
-7 2 1 15.46 17.16 0.42 o
-6 2 1 32.27 32.10 0.49 o
-5 2 1 84.56 98.72 0.97 o
-4 2 1 507.34 533.74 3.27 o
-3 2 1 1313.78 1388.30 9.03 o
-2 2 1 820.68 881.58 5.14 o
-1 2 1 0.22 0.35 0.14 <
0 2 1 2.97 1.60 0.14 o
1 2 1 258.63 251.69 1.74 o
2 2 1 128.46 130.05 1.11 o
3 2 1 171.19 194.24 1.46 o
4 2 1 212.84 218.97 1.39 o
5 2 1 203.43 208.97 1.60 o
6 2 1 105.31 102.40 0.97 o
7 2 1 67.40 71.69 0.83 o
8 2 1 2.83 2.43 0.21 o
9 2 1 100.12 102.12 1.32 o
10 2 1 18.08 26.26 0.83 o
11 2 1 4.30 2.08 0.35 o
12 2 1 601.70 570.08 5.84 o
13 2 1 4.95 5.91 0.49 o
14 2 1 273.49 263.92 2.85 o
15 2 1 25.72 22.51 0.76 o
16 2 1 22.03 21.74 0.83 o
17 2 1 0.23 0.14 0.35 <
18 2 1 96.60 101.22 2.15 o
19 2 1 5.20 5.28 0.69 o
-18 3 1 3.92 4.31 0.56 o
-17 3 1 27.78 28.55 0.83 o
-16 3 1 74.04 72.74 1.25 o
-15 3 1 1.32 2.22 0.35 o
-14 3 1 0.03 0.00 0.28 <
-13 3 1 20.62 17.92 0.63 o
-12 3 1 8.84 9.45 0.49 o
-11 3 1 15.95 14.10 0.49 o
-10 3 1 22.27 23.27 0.69 o
-9 3 1 1.32 0.90 0.28 o
-8 3 1 11.71 10.70 0.56 o
-7 3 1 51.70 52.73 1.25 o
-6 3 1 71.34 70.03 1.11 o
-5 3 1 216.21 231.41 2.22 o
-4 3 1 32.11 33.48 0.63 o
-3 3 1 73.26 76.63 0.97 o
-2 3 1 11.03 11.67 0.42 o
-1 3 1 1.42 1.53 0.21 o
0 3 1 30.97 32.72 0.63 o
1 3 1 49.86 54.47 0.76 o
2 3 1 4.66 3.82 0.28 o
3 3 1 204.28 215.64 1.81 o
4 3 1 52.80 53.15 0.76 o
5 3 1 24.02 22.37 0.63 o
6 3 1 110.26 111.01 1.39 o
7 3 1 163.49 160.48 1.81 o
8 3 1 93.61 98.30 1.74 o
9 3 1 107.93 99.69 1.88 o
10 3 1 9.87 9.17 0.69 o
11 3 1 0.75 0.00 0.42 <
12 3 1 0.41 0.21 0.35 <
13 3 1 11.33 11.95 0.69 o
14 3 1 142.52 139.64 2.01 o
15 3 1 239.39 238.56 2.85 o
16 3 1 1.02 1.04 0.35 <
17 3 1 230.02 240.72 2.99 o
-14 4 1 0.00 -0.14 0.42 <
-13 4 1 102.90 110.18 3.20 o
-12 4 1 8.22 9.45 0.76 o
-11 4 1 0.03 0.21 0.35 <
-10 4 1 76.49 73.08 1.74 o
-9 4 1 102.76 101.98 2.85 o
-8 4 1 13.79 11.39 1.11 o
-7 4 1 66.73 65.86 2.22 o
-6 4 1 9.69 9.66 0.76 o
-5 4 1 117.23 119.84 2.08 o
-4 4 1 19.61 20.35 0.90 o
-3 4 1 10.65 12.23 0.56 o
-2 4 1 5.75 6.53 0.42 o
-1 4 1 0.01 0.49 0.28 <
0 4 1 0.06 0.00 0.21 <
1 4 1 35.33 35.71 0.76 o
2 4 1 18.85 20.56 0.69 o
3 4 1 0.06 0.07 0.28 <
4 4 1 19.87 18.20 0.83 o
5 4 1 4.56 4.31 0.56 o
6 4 1 49.69 47.93 1.32 o
7 4 1 2.02 2.29 0.49 o
8 4 1 2.63 1.95 0.56 o
9 4 1 12.13 10.91 0.83 o
10 4 1 0.21 0.28 0.49 <
11 4 1 0.03 0.42 0.49 <
12 4 1 50.42 46.82 2.01 o
13 4 1 2.82 2.29 0.49 o
-8 5 1 33.07 27.16 1.67 o
-7 5 1 4.35 4.86 0.97 o
-6 5 1 0.06 -0.21 0.49 <
-5 5 1 184.36 181.32 4.17 o
-4 5 1 4.39 4.24 0.83 o
-3 5 1 34.08 38.56 1.81 o
-2 5 1 9.81 10.91 1.18 o
-1 5 1 5.81 7.16 0.97 o
0 5 1 3.51 2.01 0.49 o
1 5 1 40.90 38.35 1.81 o
2 5 1 0.54 0.49 0.42 <
3 5 1 11.09 10.07 0.83 o
4 5 1 3.33 3.33 0.56 o
5 5 1 7.91 5.84 0.76 o
6 5 1 16.23 13.69 1.04 o
7 5 1 0.02 -0.56 0.56 <
-14 0 2 54.71 41.13 1.39 o
-13 0 2 48.96 41.27 1.32 o
-12 0 2 92.00 85.24 1.95 o
-11 0 2 188.02 194.52 2.15 o
-10 0 2 3.34 4.24 0.35 o
-9 0 2 130.98 151.03 1.67 o
-8 0 2 162.85 190.35 1.95 o
-7 0 2 867.48 912.71 7.29 o
-6 0 2 578.66 584.25 4.86 o
-5 0 2 310.04 316.92 2.71 o
-4 0 2 328.09 258.85 2.22 o
-3 0 2 17.40 24.73 0.42 o
-2 0 2 700.06 644.62 4.17 o
0 0 2 2377.16 2138.66 17.37 o
1 0 2 353.74 322.20 3.89 o
2 0 2 51.38 74.96 1.25 o
3 0 2 849.57 846.78 6.81 o
4 0 2 349.46 343.05 2.92 o
5 0 2 69.29 64.89 0.90 o
6 0 2 0.83 2.99 0.21 o
7 0 2 308.06 289.14 2.92 o
8 0 2 86.40 79.20 0.97 o
9 0 2 211.11 200.35 1.81 o
10 0 2 976.57 923.34 6.46 o
11 0 2 237.00 229.25 2.78 o
12 0 2 189.83 186.60 2.50 o
13 0 2 62.87 68.85 1.46 o
14 0 2 47.92 48.14 1.25 o
15 0 2 37.82 35.43 1.11 o
16 0 2 170.10 178.89 2.71 o
-17 1 2 2.35 0.97 0.56 <
-16 1 2 25.46 23.06 1.25 o
-15 1 2 9.90 5.97 0.49 o
-14 1 2 8.11 6.74 0.49 o
-13 1 2 31.12 41.06 0.83 o
-12 1 2 2.38 2.78 0.28 o
-11 1 2 2.08 2.57 0.28 o
-10 1 2 260.24 279.13 2.08 o
-9 1 2 78.06 86.07 0.90 o
-8 1 2 501.59 530.41 2.99 o
-7 1 2 122.38 127.06 1.04 o
-6 1 2 162.53 168.95 1.32 o
-5 1 2 173.87 176.80 1.32 o
-4 1 2 110.61 131.16 1.04 o
-3 1 2 325.96 305.25 1.95 o
-2 1 2 5283.75 5182.59 33.55 o
-1 1 2 101.57 119.28 0.97 o
0 1 2 58.41 76.35 0.76 o
1 1 2 0.00 0.69 0.14 o
2 1 2 199.22 200.84 1.32 o
3 1 2 72.98 69.82 0.76 o
4 1 2 15.70 13.82 0.35 o
5 1 2 14.10 12.37 0.35 o
6 1 2 2.76 3.13 0.21 o
7 1 2 4.74 5.84 0.35 o
8 1 2 49.50 46.41 0.76 o
9 1 2 7.15 6.53 0.35 o
10 1 2 87.94 85.66 1.18 o
11 1 2 11.85 9.86 0.49 o
12 1 2 627.20 594.11 4.03 o
13 1 2 4.14 4.03 0.35 o
14 1 2 0.31 -0.28 0.28 <
15 1 2 43.35 47.31 1.25 o
16 1 2 86.92 90.24 1.88 o
17 1 2 62.14 68.43 1.67 o
18 1 2 113.24 109.14 2.22 o
19 1 2 0.38 0.69 0.69 <
-20 2 2 2.41 3.33 0.83 o
-19 2 2 10.27 11.46 1.18 o
-18 2 2 9.00 7.29 0.56 o
-17 2 2 0.06 0.14 0.28 <
-16 2 2 72.70 79.47 1.25 o
-15 2 2 41.78 42.86 0.90 o
-14 2 2 65.38 66.28 1.04 o
-13 2 2 7.80 6.67 0.42 o
-12 2 2 104.81 101.50 1.25 o
-11 2 2 16.19 14.59 0.49 o
-10 2 2 86.23 94.13 1.11 o
-9 2 2 226.41 231.34 1.95 o
-8 2 2 374.48 376.39 2.71 o
-7 2 2 3.07 3.13 0.28 o
-6 2 2 13.63 12.85 0.35 o
-5 2 2 5.26 8.13 0.28 o
-4 2 2 1836.94 1913.02 15.01 o
-3 2 2 533.33 552.22 3.96 o
-2 2 2 110.49 122.06 1.25 o
-1 2 2 5.69 4.38 0.28 o
0 2 2 215.51 223.70 1.67 o
1 2 2 103.74 97.81 0.90 o
2 2 2 443.56 424.61 2.71 o
3 2 2 406.79 387.16 2.22 o
4 2 2 567.30 605.65 3.68 o
5 2 2 34.03 33.76 0.56 o
6 2 2 164.44 172.15 1.46 o
7 2 2 375.04 384.52 2.64 o
8 2 2 34.24 33.76 0.69 o
9 2 2 62.80 61.34 0.97 o
10 2 2 5.57 3.75 0.35 o
11 2 2 1.02 1.04 0.35 <
12 2 2 36.89 45.23 1.25 o
13 2 2 294.86 289.69 3.75 o
14 2 2 215.27 208.41 2.43 o
15 2 2 0.81 0.49 0.28 <
16 2 2 20.65 21.74 0.97 o
17 2 2 7.47 5.42 0.69 o
18 2 2 87.79 91.63 2.08 o
19 2 2 66.23 61.76 2.36 o
-18 3 2 11.62 10.49 0.69 o
-17 3 2 0.05 0.07 0.28 <
-16 3 2 0.06 -0.07 0.28 <
-15 3 2 62.17 66.14 1.32 o
-14 3 2 42.25 44.67 0.90 o
-13 3 2 0.17 0.14 0.21 <
-12 3 2 70.62 69.05 1.11 o
-11 3 2 309.70 301.43 2.57 o
-10 3 2 4.19 3.75 0.35 o
-9 3 2 86.39 82.32 1.11 o
-8 3 2 35.63 35.50 1.11 o
-7 3 2 370.30 372.64 5.77 o
-6 3 2 329.95 351.17 5.49 o
-5 3 2 537.34 567.78 5.35 o
-4 3 2 111.19 116.09 1.46 o
-3 3 2 114.92 118.38 1.25 o
-2 3 2 10.01 13.82 0.42 o
-1 3 2 726.80 762.65 4.79 o
0 3 2 246.14 248.15 2.01 o
1 3 2 0.83 0.42 0.21 <
2 3 2 20.65 25.01 0.56 o
3 3 2 90.25 94.06 1.04 o
4 3 2 37.97 38.35 0.83 o
5 3 2 80.26 78.64 1.18 o
6 3 2 19.39 18.83 0.63 o
7 3 2 46.08 43.63 0.90 o
8 3 2 0.75 0.63 0.35 <
9 3 2 4.31 5.63 0.56 o
10 3 2 175.91 167.49 2.57 o
11 3 2 128.66 124.00 2.22 o
12 3 2 14.89 15.42 1.18 o
13 3 2 165.22 160.55 2.71 o
14 3 2 0.33 0.42 0.35 <
15 3 2 213.53 199.31 2.57 o
16 3 2 107.65 114.49 1.95 o
-14 4 2 0.39 0.28 0.42 <
-13 4 2 182.28 178.33 2.99 o
-12 4 2 1.03 1.32 0.42 o
-11 4 2 6.97 7.09 0.69 o
-10 4 2 25.98 25.36 1.11 o
-9 4 2 40.97 41.34 1.32 o
-8 4 2 7.45 7.85 0.69 o
-7 4 2 643.26 629.96 9.17 o
-6 4 2 7.59 5.77 0.83 o
-5 4 2 817.39 802.53 10.91 o
-4 4 2 4.90 4.93 0.56 o
-3 4 2 47.02 51.83 1.32 o
-2 4 2 8.28 9.80 0.56 o
-1 4 2 4.24 3.75 0.35 o
0 4 2 5.51 5.63 0.42 o
1 4 2 468.59 486.57 4.17 o
2 4 2 2.35 2.01 0.35 o
3 4 2 21.72 21.88 0.69 o
4 4 2 74.66 75.51 1.32 o
5 4 2 9.90 9.80 0.76 o
6 4 2 48.98 52.73 1.46 o
7 4 2 50.46 47.73 1.32 o
8 4 2 23.67 25.70 1.04 o
9 4 2 226.74 218.21 3.27 o
10 4 2 13.08 9.38 0.83 o
11 4 2 0.61 0.97 0.56 <
12 4 2 5.29 5.63 0.97 o
13 4 2 3.77 4.03 0.63 o
-8 5 2 39.69 40.15 2.08 o
-7 5 2 1.00 1.32 0.49 <
-6 5 2 25.16 23.48 1.11 o
-5 5 2 73.71 74.26 1.88 o
-4 5 2 84.01 80.17 2.64 o
-3 5 2 55.35 56.48 2.22 o
-2 5 2 0.41 0.14 0.49 <
-1 5 2 15.79 16.12 0.90 o
0 5 2 1.06 0.83 0.49 <
1 5 2 2.18 2.01 0.76 <
2 5 2 24.73 20.98 1.46 o
3 5 2 11.97 10.35 0.83 o
4 5 2 2.84 1.95 0.56 o
5 5 2 14.05 11.25 0.90 o
6 5 2 12.20 10.14 0.83 o
7 5 2 32.34 29.11 1.67 o
-18 1 3 151.34 150.96 3.47 o
-17 1 3 7.17 6.53 0.83 o
-16 1 3 100.12 96.70 2.57 o
-15 1 3 13.56 11.46 0.63 o
-14 1 3 53.77 51.27 1.18 o
-13 1 3 25.80 23.90 0.63 o
-12 1 3 44.47 43.14 0.83 o
-11 1 3 4.46 3.61 0.28 o
-10 1 3 210.76 189.59 1.60 o
-9 1 3 51.05 56.06 0.76 o
-8 1 3 96.15 102.47 0.90 o
-7 1 3 28.00 27.93 0.49 o
-6 1 3 0.34 0.21 0.14 <
-5 1 3 76.54 79.75 0.76 o
-4 1 3 311.65 336.24 3.13 o
-3 1 3 263.26 274.96 1.74 o
-2 1 3 132.46 117.89 1.04 o
-1 1 3 0.00 0.14 0.07 <
0 1 3 205.55 224.53 1.67 o
1 1 3 1372.07 1353.64 8.75 o
2 1 3 102.09 98.51 0.90 o
3 1 3 71.82 71.28 0.76 o
4 1 3 658.11 654.21 3.96 o
5 1 3 662.57 653.58 3.96 o
6 1 3 229.10 231.06 1.74 o
7 1 3 364.69 351.66 2.43 o
8 1 3 59.51 50.44 0.69 o
9 1 3 189.39 181.46 1.60 o
10 1 3 626.13 608.35 4.03 o
11 1 3 403.09 400.36 3.47 o
12 1 3 378.06 369.45 3.33 o
13 1 3 131.78 128.24 1.67 o
14 1 3 0.50 1.18 0.28 o
15 1 3 38.95 43.07 1.25 o
16 1 3 10.77 14.24 0.83 o
17 1 3 12.32 10.77 0.83 o
18 1 3 103.17 109.42 2.22 o
19 1 3 79.47 83.09 2.01 o
-19 2 3 3.03 3.75 0.56 o
-18 2 3 56.92 52.03 1.46 o
-17 2 3 20.42 25.36 0.83 o
-16 2 3 26.72 31.96 0.90 o
-15 2 3 4.16 3.61 0.35 o
-14 2 3 3.66 4.45 0.35 o
-13 2 3 120.88 123.80 1.46 o
-12 2 3 33.25 32.65 0.69 o
-11 2 3 36.60 36.68 0.69 o
-10 2 3 753.10 754.10 4.86 o
-9 2 3 319.93 305.53 2.36 o
-8 2 3 115.91 111.85 1.18 o
-7 2 3 0.01 0.07 0.14 <
-6 2 3 71.21 69.40 0.83 o
-5 2 3 0.90 0.83 0.14 o
-4 2 3 992.99 1082.28 6.25 o
-3 2 3 290.53 325.05 2.57 o
-2 2 3 957.17 1052.27 7.09 o
-1 2 3 80.50 97.05 1.11 o
0 2 3 209.48 201.67 1.74 o
1 2 3 65.03 61.27 0.69 o
2 2 3 20.23 21.61 0.42 o
3 2 3 147.92 142.97 1.04 o
4 2 3 96.46 96.01 0.97 o
5 2 3 288.16 291.78 2.08 o
6 2 3 34.98 38.70 0.76 o
7 2 3 201.19 204.80 2.01 o
8 2 3 8.75 9.31 0.49 o
9 2 3 48.68 53.49 0.97 o
10 2 3 0.54 1.04 0.28 o
11 2 3 36.93 35.64 0.83 o
12 2 3 47.38 45.64 1.04 o
13 2 3 459.32 465.80 5.28 o
14 2 3 1.00 0.42 0.28 <
15 2 3 27.08 26.89 1.11 o
16 2 3 11.89 13.62 0.97 o
17 2 3 4.08 3.89 0.63 o
18 2 3 0.04 -0.42 0.42 <
-18 3 3 56.55 53.77 1.25 o
-17 3 3 1.30 1.53 0.35 o
-16 3 3 11.87 11.67 0.69 o
-15 3 3 155.95 170.27 2.22 o
-14 3 3 0.91 0.42 0.28 <
-13 3 3 69.32 68.57 1.32 o
-12 3 3 12.77 11.95 0.63 o
-11 3 3 4.80 4.65 0.42 o
-10 3 3 24.45 23.90 0.69 o
-9 3 3 158.58 155.06 2.43 o
-8 3 3 40.47 42.72 1.18 o
-7 3 3 649.48 667.27 6.53 o
-6 3 3 280.62 294.49 3.47 o
-5 3 3 157.68 158.18 2.29 o
-4 3 3 393.97 422.94 6.25 o
-3 3 3 3.93 3.61 0.28 o
-2 3 3 9.45 9.03 0.42 o
-1 3 3 21.61 27.65 0.63 o
0 3 3 8.67 8.13 0.42 o
1 3 3 94.04 103.10 1.32 o
2 3 3 272.63 278.72 2.57 o
3 3 3 25.54 26.12 0.69 o
4 3 3 48.25 51.69 0.97 o
5 3 3 47.39 47.80 0.90 o
6 3 3 0.39 0.49 0.21 <
7 3 3 102.28 107.61 1.53 o
8 3 3 2.07 1.39 0.28 o
9 3 3 0.74 0.56 0.35 <
10 3 3 19.81 17.72 0.83 o
11 3 3 1.61 1.88 0.42 o
12 3 3 0.12 -0.56 0.35 <
13 3 3 17.71 18.69 0.90 o
14 3 3 1.48 0.35 0.42 <
15 3 3 21.82 20.98 0.83 o
16 3 3 29.83 31.54 1.32 o
-14 4 3 7.69 7.43 0.76 o
-13 4 3 0.08 0.21 0.42 <
-12 4 3 0.02 0.14 0.42 <
-11 4 3 9.38 9.17 0.76 o
-10 4 3 73.35 65.30 2.29 o
-9 4 3 3.08 2.50 0.49 o
-8 4 3 9.34 8.27 0.76 o
-7 4 3 11.62 8.48 0.76 o
-6 4 3 2.79 3.68 0.49 o
-5 4 3 0.09 0.21 0.28 <
-4 4 3 29.42 27.93 0.83 o
-3 4 3 56.81 54.47 1.39 o
-2 4 3 66.31 67.66 1.53 o
-1 4 3 0.07 0.56 0.35 <
0 4 3 0.09 0.14 0.21 <
1 4 3 26.29 27.23 0.76 o
2 4 3 0.09 0.14 0.28 <
3 4 3 17.07 17.65 0.69 o
4 4 3 59.09 58.63 1.18 o
5 4 3 40.43 40.29 0.97 o
6 4 3 12.18 11.25 0.76 o
7 4 3 0.02 -0.21 0.35 <
8 4 3 24.60 26.68 1.11 o
9 4 3 9.35 8.89 0.76 o
10 4 3 0.33 0.35 0.42 <
11 4 3 0.68 -0.28 0.49 <
12 4 3 9.44 7.92 1.11 o
13 4 3 1.49 0.35 0.69 <
-7 5 3 197.13 174.37 2.99 o
-6 5 3 55.18 53.63 1.60 o
-5 5 3 8.07 7.02 0.76 o
-4 5 3 122.93 120.81 2.36 o
-3 5 3 2.27 1.67 0.69 <
-2 5 3 1.31 0.69 0.42 <
-1 5 3 139.02 145.47 3.68 o
0 5 3 3.18 3.75 0.63 o
1 5 3 20.84 17.23 0.97 o
2 5 3 32.39 30.71 1.74 o
3 5 3 6.12 6.25 1.04 o
4 5 3 11.38 9.73 0.83 o
5 5 3 16.79 16.12 0.97 o
6 5 3 5.82 7.36 1.04 o
7 5 3 0.62 0.28 0.63 <
-16 0 4 40.74 39.81 1.60 o
-15 0 4 0.00 -0.07 0.35 <
-14 0 4 36.25 38.56 1.46 o
-13 0 4 3.89 4.59 0.63 o
-12 0 4 1447.09 1386.64 16.46 o
-11 0 4 7.91 8.20 0.69 o
-10 0 4 87.62 85.80 1.95 o
-9 0 4 42.10 37.65 0.76 o
-8 0 4 188.40 194.93 3.13 o
-7 0 4 69.82 71.55 1.60 o
-6 0 4 946.51 1037.68 8.34 o
-5 0 4 13.91 13.62 0.35 o
-4 0 4 843.82 952.86 6.25 o
-3 0 4 227.17 239.19 1.81 o
-2 0 4 285.30 311.58 2.78 o
-1 0 4 2738.46 2808.70 23.20 o
0 0 4 0.77 2.36 0.28 o
1 0 4 17.72 19.45 0.69 o
2 0 4 2978.30 2805.30 31.89 o
3 0 4 1318.25 1341.69 15.21 o
4 0 4 1686.22 1715.23 19.24 o
5 0 4 444.74 427.73 3.82 o
6 0 4 411.70 395.01 3.61 o
7 0 4 80.55 73.36 1.11 o
8 0 4 579.89 521.24 3.96 o
9 0 4 792.83 767.51 7.02 o
10 0 4 3379.23 3259.43 26.19 o
11 0 4 201.69 193.48 2.57 o
12 0 4 0.98 1.39 0.35 o
13 0 4 0.99 0.56 0.35 <
14 0 4 227.03 221.61 3.13 o
15 0 4 143.01 146.72 2.43 o
16 0 4 412.16 416.27 4.86 o
17 0 4 51.64 54.40 1.53 o
-20 1 4 1.43 1.95 0.63 o
-18 1 4 7.95 11.12 1.11 o
-17 1 4 2.64 5.35 0.83 o
-16 1 4 27.74 30.98 1.53 o
-15 1 4 39.16 39.39 1.67 o
-14 1 4 43.00 43.63 1.11 o
-13 1 4 0.02 0.21 0.21 <
-12 1 4 42.78 37.38 0.69 o
-11 1 4 381.15 380.77 3.20 o
-10 1 4 516.44 516.93 3.40 o
-9 1 4 96.10 94.13 1.04 o
-8 1 4 15.38 17.51 0.42 o
-7 1 4 0.88 0.83 0.21 o
-6 1 4 212.73 226.27 1.95 o
-5 1 4 163.62 183.26 1.60 o
-4 1 4 487.80 534.58 3.20 o
-3 1 4 72.52 94.48 0.76 o
-2 1 4 0.00 -0.21 0.07 <
-1 1 4 5.95 5.84 0.21 o
0 1 4 21.44 19.10 0.35 o
1 1 4 130.35 122.75 1.11 o
2 1 4 419.10 415.57 2.57 o
3 1 4 405.80 397.02 2.50 o
4 1 4 309.95 292.47 2.01 o
5 1 4 234.00 246.62 1.81 o
6 1 4 25.33 30.08 0.56 o
7 1 4 55.43 54.67 0.76 o
8 1 4 1021.50 1005.31 6.11 o
9 1 4 79.71 77.04 0.97 o
10 1 4 20.37 19.73 0.56 o
11 1 4 212.94 202.72 1.67 o
12 1 4 271.82 269.06 2.78 o
13 1 4 15.83 15.98 0.63 o
14 1 4 129.18 132.97 1.88 o
15 1 4 1.27 0.83 0.28 o
16 1 4 118.50 129.49 2.36 o
17 1 4 54.22 51.62 1.53 o
18 1 4 24.55 22.93 1.11 o
19 1 4 7.35 8.75 1.11 o
-20 2 4 84.60 86.07 2.92 o
-19 2 4 7.23 6.46 0.69 o
-18 2 4 33.83 34.46 1.25 o
-17 2 4 136.41 148.88 2.57 o
-16 2 4 1.27 1.67 0.35 o
-15 2 4 117.15 126.99 1.81 o
-14 2 4 74.37 75.10 1.32 o
-13 2 4 149.13 149.22 1.88 o
-12 2 4 2.41 1.81 0.28 o
-11 2 4 11.41 10.70 0.42 o
-10 2 4 11.47 14.87 0.49 o
-9 2 4 898.53 892.77 5.56 o
-8 2 4 88.40 95.11 1.04 o
-7 2 4 10.76 9.17 0.35 o
-6 2 4 0.15 0.14 0.14 <
-5 2 4 199.16 203.76 1.88 o
-4 2 4 198.38 198.76 1.81 o
-3 2 4 230.11 243.29 2.08 o
-2 2 4 10.00 7.36 0.35 o
-1 2 4 342.79 383.55 2.92 o
0 2 4 32.83 29.25 0.56 o
1 2 4 4.53 4.24 0.28 o
2 2 4 128.35 131.79 1.18 o
3 2 4 27.05 28.41 0.63 o
4 2 4 2.87 2.78 0.28 o
5 2 4 24.47 27.79 0.63 o
6 2 4 60.77 59.95 0.97 o
7 2 4 102.02 98.02 1.32 o
8 2 4 156.73 159.16 1.81 o
9 2 4 18.05 18.13 0.63 o
10 2 4 0.48 0.28 0.21 <
11 2 4 178.20 181.60 2.08 o
12 2 4 2.39 2.29 0.35 o
13 2 4 16.27 12.44 0.76 o
14 2 4 61.91 67.39 1.67 o
15 2 4 40.55 43.49 1.39 o
16 2 4 26.50 30.43 1.18 o
17 2 4 22.07 23.76 1.11 o
-18 3 4 13.97 15.63 1.25 o
-17 3 4 25.46 23.06 0.90 o
-16 3 4 39.81 38.76 1.04 o
-15 3 4 55.13 59.68 1.25 o
-14 3 4 1.93 1.60 0.35 o
-13 3 4 23.29 24.52 0.83 o
-12 3 4 461.41 453.71 4.10 o
-11 3 4 36.34 38.97 0.97 o
-10 3 4 2.19 1.46 0.35 o
-9 3 4 161.54 159.57 2.43 o
-8 3 4 186.12 180.97 2.64 o
-7 3 4 321.79 321.23 3.75 o
-6 3 4 341.13 358.47 4.03 o
-5 3 4 10.45 11.12 0.69 o
-4 3 4 327.17 343.53 3.82 o
-3 3 4 0.76 0.49 0.28 <
-2 3 4 116.03 122.48 1.46 o
-1 3 4 132.93 137.07 1.39 o
0 3 4 0.46 0.42 0.14 o
1 3 4 9.94 11.32 0.42 o
2 3 4 186.78 194.66 2.08 o
3 3 4 0.87 0.63 0.21 <
4 3 4 5.93 4.93 0.35 o
5 3 4 28.36 30.84 0.76 o
6 3 4 0.97 0.90 0.28 o
7 3 4 58.62 59.19 1.11 o
8 3 4 27.11 26.75 0.76 o
9 3 4 14.10 14.45 0.63 o
10 3 4 5.15 5.14 0.56 o
11 3 4 0.16 0.14 0.35 <
12 3 4 12.77 12.57 0.90 o
13 3 4 52.48 56.76 1.60 o
14 3 4 4.75 5.00 0.63 o
15 3 4 1.29 1.39 0.56 <
-14 4 4 186.69 161.10 3.96 o
-13 4 4 115.58 108.44 2.29 o
-12 4 4 13.89 12.37 0.90 o
-11 4 4 0.62 0.63 0.42 <
-10 4 4 89.07 91.35 2.01 o
-9 4 4 4.24 2.36 0.49 o
-8 4 4 179.44 174.65 2.85 o
-7 4 4 292.01 286.08 3.75 o
-6 4 4 527.11 521.86 5.77 o
-5 4 4 50.65 49.46 1.11 o
-4 4 4 0.56 0.63 0.28 <
-3 4 4 16.86 16.53 0.69 o
-2 4 4 2.91 3.40 0.42 o
-1 4 4 21.96 22.72 0.90 o
0 4 4 110.46 110.46 2.01 o
1 4 4 15.06 14.31 0.63 o
2 4 4 6.20 5.21 0.49 o
3 4 4 15.02 13.76 0.63 o
4 4 4 15.41 14.52 0.63 o
5 4 4 88.26 88.37 1.46 o
6 4 4 4.14 4.31 0.49 o
7 4 4 1.58 1.11 0.42 <
8 4 4 12.17 10.35 0.76 o
9 4 4 5.52 4.79 0.63 o
10 4 4 3.82 2.78 0.56 o
11 4 4 107.13 104.07 2.22 o
12 4 4 1.77 -0.42 0.90 <
-6 5 4 11.67 9.86 0.83 o
-5 5 4 12.51 11.39 0.90 o
-4 5 4 14.26 10.77 1.25 o
-3 5 4 7.30 6.32 0.69 o
-2 5 4 0.58 0.56 0.49 <
-1 5 4 1.63 0.56 0.42 <
0 5 4 4.89 2.57 0.56 o
1 5 4 0.71 -0.14 0.42 <
2 5 4 82.26 83.09 2.71 o
3 5 4 2.67 1.81 0.83 <
4 5 4 3.95 3.13 0.97 o
6 5 4 55.27 63.22 2.36 o
-20 1 5 38.62 44.81 1.95 o
-19 1 5 49.99 58.91 1.53 o
-18 1 5 4.98 5.63 0.56 o
-17 1 5 93.17 95.80 1.88 o
-16 1 5 48.70 48.00 1.32 o
-15 1 5 131.14 130.67 1.74 o
-14 1 5 351.26 353.40 4.03 o
-13 1 5 3.77 3.61 0.28 o
-12 1 5 255.50 255.93 2.15 o
-11 1 5 1020.05 999.34 6.11 o
-10 1 5 31.16 28.48 0.56 o
-9 1 5 99.63 91.91 1.04 o
-8 1 5 33.87 38.97 0.63 o
-7 1 5 154.87 155.48 1.60 o
-6 1 5 93.33 118.17 1.25 o
-5 1 5 501.72 555.84 3.33 o
-4 1 5 101.21 118.10 0.97 o
-3 1 5 1157.36 1205.32 6.81 o
-2 1 5 2.36 2.78 0.21 o
-1 1 5 0.74 0.28 0.14 <
0 1 5 766.23 771.68 5.21 o
1 1 5 34.12 30.91 0.56 o
2 1 5 486.51 482.75 2.99 o
3 1 5 9.38 13.27 0.35 o
4 1 5 97.54 91.35 1.04 o
5 1 5 10.78 13.82 0.35 o
6 1 5 57.30 52.31 0.69 o
7 1 5 11.96 11.05 0.42 o
8 1 5 886.15 852.06 5.35 o
9 1 5 82.40 80.03 1.04 o
10 1 5 19.30 17.78 0.49 o
11 1 5 164.65 152.21 1.67 o
12 1 5 60.32 57.66 0.97 o
13 1 5 23.52 23.48 0.76 o
14 1 5 152.42 158.46 2.08 o
15 1 5 1.55 2.29 0.42 o
16 1 5 74.92 80.79 1.88 o
17 1 5 14.17 12.99 0.97 o
18 1 5 22.59 22.23 1.11 o
-20 2 5 9.02 9.93 1.32 o
-19 2 5 17.29 13.48 0.90 o
-18 2 5 8.69 7.78 0.76 o
-17 2 5 95.80 104.07 2.08 o
-16 2 5 19.85 19.24 0.69 o
-15 2 5 91.13 94.20 1.53 o
-14 2 5 4.95 4.79 0.42 o
-13 2 5 24.91 24.31 0.76 o
-12 2 5 24.11 24.38 0.69 o
-11 2 5 152.86 146.58 1.81 o
-10 2 5 24.33 24.31 0.69 o
-9 2 5 568.20 563.27 4.45 o
-8 2 5 37.52 42.10 0.83 o
-7 2 5 0.51 0.21 0.28 <
-6 2 5 3.83 2.71 0.35 o
-5 2 5 16.68 14.31 0.63 o
-4 2 5 15.47 16.26 0.63 o
-3 2 5 121.44 142.55 1.46 o
-2 2 5 5.34 6.39 0.35 o
-1 2 5 4.81 4.86 0.28 o
0 2 5 450.13 443.85 3.40 o
1 2 5 10.93 11.12 0.42 o
2 2 5 10.52 11.05 0.42 o
3 2 5 24.40 24.18 0.63 o
4 2 5 4.39 4.59 0.35 o
5 2 5 50.50 52.45 0.90 o
6 2 5 607.30 585.36 4.59 o
7 2 5 73.03 71.97 1.18 o
8 2 5 403.90 393.48 3.47 o
9 2 5 52.22 51.13 0.97 o
10 2 5 6.42 7.16 0.49 o
11 2 5 68.74 66.90 1.25 o
12 2 5 30.81 32.86 0.90 o
13 2 5 9.22 9.31 0.63 o
14 2 5 57.89 63.98 1.67 o
15 2 5 18.10 18.90 0.97 o
16 2 5 23.20 22.79 1.11 o
17 2 5 4.95 3.82 0.90 o
-17 3 5 10.82 9.45 0.63 o
-16 3 5 13.48 14.17 0.76 o
-15 3 5 20.35 21.67 0.83 o
-14 3 5 25.41 25.43 0.83 o
-13 3 5 1.08 0.90 0.28 o
-12 3 5 3.29 3.47 0.42 o
-11 3 5 0.06 -0.07 0.35 <
-10 3 5 0.18 0.14 0.35 <
-9 3 5 27.26 27.02 0.97 o
-8 3 5 29.38 30.57 1.04 o
-7 3 5 0.27 0.28 0.28 <
-6 3 5 55.41 61.69 1.39 o
-5 3 5 3.74 2.64 0.42 o
-4 3 5 3.79 3.33 0.42 o
-3 3 5 74.08 78.64 1.53 o
-2 3 5 2.96 4.79 0.49 o
-1 3 5 5.73 6.46 0.42 o
0 3 5 24.70 25.70 0.56 o
1 3 5 0.77 0.69 0.21 o
2 3 5 29.18 29.59 0.76 o
3 3 5 248.19 247.18 2.50 o
4 3 5 0.35 0.28 0.21 <
5 3 5 196.48 196.12 2.15 o
6 3 5 135.29 131.58 1.74 o
7 3 5 4.65 3.13 0.35 o
8 3 5 10.49 12.23 0.63 o
9 3 5 0.47 0.56 0.28 <
10 3 5 7.11 5.91 0.49 o
11 3 5 55.64 53.08 1.46 o
12 3 5 38.07 39.11 1.32 o
13 3 5 53.48 57.04 1.60 o
14 3 5 58.92 60.72 1.74 o
-13 4 5 4.40 4.59 0.63 o
-12 4 5 0.35 0.69 0.42 <
-11 4 5 3.10 2.36 0.49 o
-10 4 5 12.84 12.50 0.90 o
-9 4 5 4.37 3.40 0.56 o
-8 4 5 106.81 105.53 2.15 o
-7 4 5 20.41 19.38 0.76 o
-6 4 5 126.68 124.28 1.81 o
-5 4 5 0.18 -0.21 0.28 <
-4 4 5 22.06 22.93 0.76 o
-3 4 5 133.46 137.34 1.88 o
-2 4 5 3.39 4.10 0.56 o
-1 4 5 0.83 0.21 0.35 <
0 4 5 163.27 163.88 2.57 o
1 4 5 33.21 35.57 1.18 o
2 4 5 4.01 2.85 0.42 o
3 4 5 97.42 101.43 1.60 o
4 4 5 6.99 6.95 0.56 o
5 4 5 82.09 83.92 1.46 o
6 4 5 15.01 15.56 0.76 o
7 4 5 10.53 9.31 0.76 o
8 4 5 0.00 -0.28 0.35 <
9 4 5 0.65 -0.14 0.35 <
10 4 5 1.61 1.67 0.56 o
11 4 5 16.69 15.14 1.04 o
-7 5 5 48.36 49.95 2.29 o
-5 5 5 24.53 22.23 1.53 o
-4 5 5 2.23 2.43 0.56 o
-3 5 5 12.20 8.06 0.76 o
-2 5 5 126.46 124.56 3.47 o
-1 5 5 155.57 154.23 2.71 o
0 5 5 5.57 3.82 0.69 o
1 5 5 0.33 0.21 0.49 <
2 5 5 57.43 54.74 1.60 o
3 5 5 4.53 2.85 0.63 o
-18 0 6 169.14 169.09 3.75 o
-17 0 6 205.15 193.20 4.03 o
-16 0 6 1.07 0.83 0.49 <
-15 0 6 23.41 22.23 1.25 o
-14 0 6 238.35 230.57 4.31 o
-13 0 6 2029.94 2014.23 23.62 o
-12 0 6 774.81 755.98 10.00 o
-11 0 6 425.76 412.80 4.17 o
-10 0 6 8.35 8.96 0.56 o
-9 0 6 218.83 230.78 2.64 o
-8 0 6 98.39 92.19 1.04 o
-7 0 6 565.31 609.40 4.31 o
-6 0 6 756.90 831.43 5.63 o
-5 0 6 896.02 1013.51 6.67 o
-4 0 6 28.54 32.65 0.69 o
-3 0 6 6.03 5.91 0.35 o
-2 0 6 289.20 301.64 2.92 o
-1 0 6 140.00 147.70 2.43 o
0 0 6 31.37 34.94 1.04 o
1 0 6 144.88 159.43 2.71 o
2 0 6 7.90 7.71 0.63 o
3 0 6 401.55 418.84 5.77 o
4 0 6 25.20 32.03 1.18 o
5 0 6 83.66 83.02 2.01 o
6 0 6 40.95 35.50 0.83 o
7 0 6 4.90 2.64 0.56 o
8 0 6 2.51 2.29 0.56 o
9 0 6 433.92 400.29 4.38 o
10 0 6 42.20 39.74 1.11 o
11 0 6 0.04 0.14 0.28 <
12 0 6 31.78 37.58 1.18 o
13 0 6 35.95 35.15 1.18 o
14 0 6 26.85 28.34 1.04 o
15 0 6 60.87 59.61 1.60 o
16 0 6 4.35 5.49 0.69 o
17 0 6 9.03 8.06 0.76 o
18 0 6 42.27 48.91 1.53 o
-20 1 6 66.03 69.75 2.50 o
-19 1 6 110.25 120.11 2.29 o
-18 1 6 4.08 4.24 0.56 o
-17 1 6 162.50 163.12 2.57 o
-16 1 6 3.01 2.71 0.35 o
-15 1 6 165.33 160.76 2.01 o
-14 1 6 300.77 304.07 2.99 o
-13 1 6 0.94 2.08 0.28 o
-12 1 6 56.14 58.98 0.90 o
-11 1 6 444.41 438.08 3.68 o
-10 1 6 74.34 80.52 0.97 o
-9 1 6 4.52 6.11 0.35 o
-8 1 6 72.38 86.63 1.11 o
-7 1 6 89.42 97.88 0.97 o
-6 1 6 144.86 157.07 1.32 o
-5 1 6 78.11 87.19 0.83 o
-4 1 6 58.64 57.10 0.63 o
-3 1 6 59.32 47.59 0.69 o
-2 1 6 17.58 17.65 0.42 o
-1 1 6 4.98 5.56 0.28 o
0 1 6 393.66 382.09 2.92 o
1 1 6 419.59 424.40 3.27 o
2 1 6 187.34 195.35 1.81 o
3 1 6 50.74 54.26 0.83 o
4 1 6 42.68 41.96 0.76 o
5 1 6 8.18 7.71 0.35 o
6 1 6 85.48 70.72 0.90 o
7 1 6 320.05 300.53 2.29 o
8 1 6 442.99 406.75 2.99 o
9 1 6 57.78 51.48 0.83 o
10 1 6 0.01 -0.14 0.21 <
11 1 6 7.61 7.43 0.49 o
12 1 6 47.83 47.10 0.90 o
13 1 6 11.31 11.74 0.56 o
14 1 6 0.30 0.42 0.35 <
15 1 6 0.52 0.49 0.35 <
16 1 6 0.44 0.49 0.35 <
17 1 6 3.03 2.36 0.56 o
-19 2 6 0.53 1.04 0.49 <
-18 2 6 22.66 24.52 1.11 o
-17 2 6 17.65 18.34 0.90 o
-16 2 6 59.18 55.37 1.53 o
-15 2 6 0.08 0.42 0.28 <
-14 2 6 201.09 200.49 2.36 o
-13 2 6 0.14 0.35 0.21 <
-12 2 6 3.41 4.45 0.42 o
-11 2 6 62.29 62.94 1.11 o
-10 2 6 19.07 17.51 0.76 o
-9 2 6 7.57 8.54 0.49 o
-8 2 6 93.30 102.40 1.74 o
-7 2 6 23.71 20.84 0.76 o
-6 2 6 102.95 99.34 1.67 o
-5 2 6 237.28 235.65 2.78 o
-4 2 6 5.76 4.72 0.42 o
-3 2 6 8.26 11.05 0.42 o
-2 2 6 184.25 190.91 1.81 o
-1 2 6 1.05 0.56 0.21 <
0 2 6 66.32 67.60 0.97 o
1 2 6 381.18 365.21 2.92 o
2 2 6 277.50 260.79 2.92 o
3 2 6 34.36 32.93 0.90 o
4 2 6 19.33 15.98 0.56 o
5 2 6 34.58 36.47 0.83 o
6 2 6 764.22 757.65 5.77 o
7 2 6 39.17 39.53 0.90 o
8 2 6 4.54 4.93 0.42 o
9 2 6 5.38 4.79 0.42 o
10 2 6 89.05 86.56 1.39 o
11 2 6 15.03 14.80 0.63 o
12 2 6 163.61 163.12 2.64 o
13 2 6 1.39 1.04 0.42 <
14 2 6 134.87 147.42 2.71 o
15 2 6 29.94 32.51 1.25 o
16 2 6 0.14 0.00 0.42 <
-17 3 6 14.69 13.06 0.90 o
-16 3 6 74.00 70.93 1.46 o
-15 3 6 19.18 18.27 0.76 o
-14 3 6 15.89 15.14 0.69 o
-13 3 6 6.03 6.53 0.69 o
-12 3 6 4.20 4.38 0.56 o
-11 3 6 2.41 1.74 0.42 o
-10 3 6 11.04 13.48 0.76 o
-9 3 6 1.12 2.22 0.42 o
-8 3 6 17.54 16.67 0.83 o
-7 3 6 0.30 0.14 0.28 <
-6 3 6 2.70 3.75 0.49 o
-5 3 6 91.90 88.71 1.67 o
-4 3 6 23.15 24.80 0.90 o
-3 3 6 2.05 2.08 0.35 o
-2 3 6 237.29 229.25 2.85 o
-1 3 6 172.13 170.62 2.36 o
0 3 6 14.61 17.02 0.69 o
1 3 6 269.93 272.88 2.64 o
2 3 6 1.74 2.22 0.28 o
3 3 6 360.58 368.54 3.33 o
4 3 6 286.12 286.77 2.85 o
5 3 6 205.55 202.51 2.29 o
6 3 6 175.03 170.62 2.08 o
7 3 6 0.09 0.14 0.28 <
8 3 6 7.42 8.82 0.56 o
9 3 6 451.98 446.56 4.10 o
10 3 6 24.51 25.70 0.83 o
11 3 6 1.74 1.32 0.42 o
12 3 6 35.06 38.07 1.32 o
13 3 6 32.65 33.28 1.25 o
-13 4 6 1.65 1.39 0.69 <
-12 4 6 0.27 0.35 0.42 <
-11 4 6 62.95 66.55 1.74 o
-10 4 6 15.65 14.38 0.90 o
-9 4 6 10.98 10.98 0.83 o
-8 4 6 0.02 -0.42 0.35 <
-7 4 6 0.07 0.21 0.35 <
-6 4 6 0.44 0.14 0.35 <
-5 4 6 33.76 32.72 0.97 o
-4 4 6 21.95 23.27 0.83 o
-3 4 6 190.47 190.28 2.92 o
-2 4 6 13.91 13.69 0.90 o
-1 4 6 0.10 0.56 0.42 <
0 4 6 47.15 50.99 1.46 o
1 4 6 0.14 0.56 0.42 <
2 4 6 16.16 16.12 0.83 o
3 4 6 700.66 681.72 5.63 o
4 4 6 268.39 264.27 2.85 o
5 4 6 320.24 324.43 3.33 o
6 4 6 25.81 23.97 0.83 o
7 4 6 87.02 93.23 1.60 o
8 4 6 2.27 2.43 0.56 o
9 4 6 7.52 6.11 0.69 o
10 4 6 68.30 70.10 1.81 o
-5 5 6 33.48 29.11 1.74 o
-4 5 6 0.01 0.42 0.76 <
-3 5 6 0.60 -0.21 0.69 <
-2 5 6 4.42 4.17 0.69 o
-1 5 6 3.07 2.15 0.63 o
0 5 6 1.38 1.53 0.56 <
1 5 6 0.37 0.90 0.63 <
2 5 6 13.08 14.73 1.46 o
-20 1 7 19.03 19.87 1.04 o
-19 1 7 3.08 3.61 0.56 o
-18 1 7 19.11 22.65 1.04 o
-17 1 7 0.01 -0.35 0.21 <
-16 1 7 57.34 57.24 1.18 o
-15 1 7 130.54 133.87 1.81 o
-14 1 7 278.13 279.34 2.85 o
-13 1 7 200.07 194.03 2.22 o
-12 1 7 24.55 23.90 0.69 o
-11 1 7 9.17 10.14 0.42 o
-10 1 7 48.29 50.44 0.76 o
-9 1 7 80.07 76.07 0.90 o
-8 1 7 394.31 371.67 2.57 o
-7 1 7 185.89 181.87 1.53 o
-6 1 7 59.15 52.45 0.76 o
-5 1 7 0.53 1.81 0.28 o
-4 1 7 136.34 130.33 1.32 o
-3 1 7 19.68 19.52 0.49 o
-2 1 7 232.28 220.36 1.95 o
-1 1 7 164.71 150.34 1.53 o
0 1 7 281.72 257.74 2.29 o
1 1 7 1.21 2.99 0.28 o
2 1 7 62.27 62.11 1.18 o
3 1 7 1.35 1.53 0.28 o
4 1 7 0.48 0.49 0.21 <
5 1 7 57.90 56.55 1.25 o
6 1 7 148.81 132.69 1.60 o
7 1 7 7.61 10.42 0.49 o
8 1 7 3.06 3.20 0.35 o
9 1 7 5.46 5.56 0.56 o
10 1 7 83.54 85.73 1.74 o
11 1 7 73.48 71.97 1.60 o
12 1 7 42.88 47.03 1.11 o
13 1 7 63.13 70.51 1.39 o
14 1 7 15.36 16.12 0.76 o
15 1 7 92.73 99.83 2.15 o
16 1 7 15.52 16.53 1.04 o
-19 2 7 3.47 1.81 0.76 <
-18 2 7 8.98 8.48 0.76 o
-17 2 7 2.38 2.29 0.49 o
-16 2 7 452.85 453.51 5.21 o
-15 2 7 40.22 39.81 1.25 o
-14 2 7 101.35 104.62 1.60 o
-13 2 7 27.08 29.66 0.83 o
-12 2 7 56.72 59.54 1.11 o
-11 2 7 21.43 22.37 0.69 o
-10 2 7 38.07 40.57 0.90 o
-9 2 7 6.95 7.64 0.56 o
-8 2 7 105.57 118.86 1.95 o
-7 2 7 62.02 45.43 1.11 o
-6 2 7 60.83 55.16 1.25 o
-5 2 7 5.75 9.38 0.56 o
-4 2 7 28.06 28.34 0.83 o
-3 2 7 105.99 102.05 1.60 o
-2 2 7 73.22 78.02 1.04 o
-1 2 7 375.02 367.64 2.99 o
0 2 7 323.16 316.16 2.71 o
1 2 7 679.70 668.17 6.11 o
2 2 7 0.21 0.21 0.21 <
3 2 7 3.57 3.96 0.42 o
4 2 7 21.18 21.47 0.63 o
5 2 7 35.92 33.76 0.83 o
6 2 7 199.69 189.52 2.15 o
7 2 7 335.86 319.57 3.06 o
8 2 7 59.07 58.01 1.11 o
9 2 7 14.76 11.32 0.63 o
10 2 7 62.09 59.88 1.18 o
11 2 7 1.99 1.95 0.49 o
12 2 7 1.77 2.08 0.49 o
13 2 7 20.85 20.70 0.97 o
14 2 7 13.17 11.60 0.69 o
15 2 7 71.02 74.96 2.85 o
-16 3 7 78.88 73.08 1.88 o
-15 3 7 0.70 0.90 0.42 <
-14 3 7 0.63 1.04 0.42 <
-13 3 7 22.04 23.13 1.04 o
-12 3 7 0.05 0.28 0.35 <
-11 3 7 21.82 25.98 1.04 o
-10 3 7 163.03 170.27 2.71 o
-9 3 7 1.11 0.76 0.35 <
-8 3 7 122.50 117.27 2.08 o
-7 3 7 68.13 66.00 1.53 o
-6 3 7 3.45 4.10 0.49 o
-5 3 7 240.82 230.71 3.06 o
-4 3 7 57.03 56.41 1.32 o
-3 3 7 19.05 18.41 0.76 o
-2 3 7 13.69 13.96 0.69 o
-1 3 7 3.36 3.68 0.69 o
0 3 7 10.08 9.10 0.97 o
1 3 7 259.85 262.46 2.64 o
2 3 7 42.58 43.97 0.97 o
3 3 7 268.39 265.10 2.71 o
4 3 7 414.48 420.23 3.82 o
5 3 7 3.46 3.61 0.42 o
6 3 7 127.88 127.48 1.81 o
7 3 7 6.07 6.67 0.56 o
8 3 7 5.16 5.77 0.49 o
9 3 7 13.14 12.09 0.69 o
10 3 7 33.56 32.72 0.97 o
11 3 7 3.09 1.88 0.42 o
12 3 7 86.44 93.79 2.78 o
-12 4 7 4.89 6.18 0.76 o
-11 4 7 16.92 20.42 1.11 o
-10 4 7 4.59 2.36 0.56 o
-9 4 7 4.74 4.31 0.63 o
-8 4 7 10.38 8.96 0.76 o
-7 4 7 9.54 8.96 0.76 o
-6 4 7 20.60 19.24 0.97 o
-5 4 7 6.41 5.70 0.63 o
-4 4 7 5.21 5.07 0.63 o
-3 4 7 0.25 0.42 0.42 <
-2 4 7 0.15 -0.07 0.42 <
-1 4 7 35.36 33.97 1.18 o
0 4 7 33.14 33.48 1.18 o
1 4 7 3.41 3.89 0.63 o
2 4 7 4.68 3.27 0.56 o
3 4 7 18.70 16.46 0.90 o
4 4 7 1.31 1.46 0.49 <
5 4 7 3.95 4.31 0.49 o
6 4 7 14.44 15.14 0.76 o
7 4 7 79.87 79.54 1.53 o
8 4 7 10.98 10.84 0.69 o
9 4 7 0.01 0.42 0.63 <
-20 0 8 19.55 19.45 1.32 o
-19 0 8 129.40 134.36 2.43 o
-18 0 8 3.07 3.75 0.56 o
-17 0 8 37.81 38.21 1.25 o
-16 0 8 3.14 2.78 0.49 o
-15 0 8 1.27 0.28 0.35 <
-14 0 8 47.94 49.46 1.25 o
-13 0 8 181.46 186.67 2.64 o
-12 0 8 8.56 9.38 0.63 o
-11 0 8 30.97 31.96 0.97 o
-10 0 8 272.04 243.70 2.92 o
-9 0 8 10.44 6.53 0.42 o
-8 0 8 84.22 72.53 1.32 o
-7 0 8 6.32 7.36 0.35 o
-6 0 8 109.62 111.01 1.60 o
-5 0 8 0.67 0.28 0.21 <
-4 0 8 316.99 308.45 3.20 o
-3 0 8 372.56 375.84 3.75 o
-2 0 8 1979.33 1922.53 21.67 o
-1 0 8 365.68 339.78 4.93 o
0 0 8 3.34 2.85 0.49 o
1 0 8 4.17 2.43 0.49 o
2 0 8 160.77 152.98 2.99 o
3 0 8 121.02 113.31 2.57 o
4 0 8 479.01 408.83 6.11 o
5 0 8 96.98 77.04 2.15 o
6 0 8 123.84 94.69 2.43 o
7 0 8 71.93 62.66 2.01 o
8 0 8 143.40 139.08 3.27 o
9 0 8 145.02 147.49 2.36 o
10 0 8 53.32 56.13 1.46 o
11 0 8 37.51 40.99 1.25 o
12 0 8 103.27 116.64 2.15 o
13 0 8 253.39 267.60 3.68 o
14 0 8 53.81 53.63 1.53 o
15 0 8 31.52 32.10 1.25 o
16 0 8 17.74 18.20 0.97 o
-20 1 8 30.12 29.59 1.81 o
-19 1 8 39.67 39.04 1.32 o
-18 1 8 12.80 13.48 0.83 o
-17 1 8 1.92 2.15 0.35 o
-16 1 8 16.03 17.37 0.69 o
-15 1 8 321.83 328.39 3.20 o
-14 1 8 10.32 11.39 0.56 o
-13 1 8 85.47 88.02 1.39 o
-12 1 8 0.44 0.21 0.21 <
-11 1 8 8.64 10.70 0.49 o
-10 1 8 0.12 -0.07 0.14 <
-9 1 8 17.25 10.42 0.49 o
-8 1 8 16.42 11.46 0.56 o
-7 1 8 5.29 1.25 0.28 o
-6 1 8 16.03 15.63 0.63 o
-5 1 8 44.41 44.04 1.04 o
-4 1 8 66.18 67.53 0.97 o
-3 1 8 8.05 8.96 0.42 o
-2 1 8 5.74 5.35 0.35 o
-1 1 8 760.68 758.55 5.49 o
0 1 8 180.00 175.14 1.81 o
1 1 8 44.86 44.53 1.04 o
2 1 8 92.24 81.07 1.46 o
3 1 8 29.21 28.27 0.90 o
4 1 8 119.69 109.83 1.88 o
5 1 8 101.77 92.12 1.67 o
6 1 8 35.27 34.46 0.83 o
7 1 8 30.81 22.44 0.69 o
8 1 8 0.86 0.69 0.35 <
9 1 8 3.17 3.61 0.49 o
10 1 8 1.25 0.63 0.35 <
11 1 8 12.41 13.06 0.90 o
12 1 8 30.50 30.78 0.97 o
13 1 8 23.52 28.21 0.90 o
14 1 8 7.21 8.06 0.63 o
15 1 8 41.17 41.20 1.46 o
16 1 8 4.63 7.57 1.11 o
-18 2 8 4.45 4.17 0.63 o
-17 2 8 93.85 91.01 2.01 o
-16 2 8 169.05 162.15 2.71 o
-15 2 8 3.75 2.22 0.49 o
-14 2 8 1.77 1.53 0.42 o
-13 2 8 20.21 25.77 0.76 o
-12 2 8 0.74 0.90 0.28 o
-11 2 8 1.38 2.36 0.42 o
-10 2 8 246.16 246.62 3.20 o
-9 2 8 32.18 31.40 0.97 o
-8 2 8 15.64 14.66 0.69 o
-7 2 8 201.16 173.05 2.43 o
-6 2 8 39.19 35.57 0.97 o
-5 2 8 91.39 82.25 1.53 o
-4 2 8 179.20 170.55 2.29 o
-3 2 8 82.25 80.86 1.46 o
-2 2 8 13.30 11.88 0.56 o
-1 2 8 69.53 62.11 0.97 o
0 2 8 119.76 121.43 1.88 o
1 2 8 642.40 624.82 5.97 o
2 2 8 13.40 14.80 0.69 o
3 2 8 3.45 3.33 0.42 o
4 2 8 12.65 11.05 0.69 o
5 2 8 74.78 77.11 1.32 o
6 2 8 66.07 63.70 1.18 o
7 2 8 107.94 98.58 1.53 o
8 2 8 12.54 12.02 0.63 o
9 2 8 68.09 66.07 1.25 o
10 2 8 8.00 9.03 0.76 o
11 2 8 10.40 9.86 0.76 o
12 2 8 9.31 8.89 0.76 o
13 2 8 9.13 11.39 0.83 o
14 2 8 0.26 0.14 0.35 <
-15 3 8 19.24 16.95 1.04 o
-14 3 8 47.38 50.30 1.53 o
-13 3 8 139.71 160.82 2.78 o
-12 3 8 1.52 1.18 0.42 <
-11 3 8 0.38 -0.42 0.35 <
-10 3 8 15.07 14.94 0.90 o
-9 3 8 5.18 6.18 0.69 o
-8 3 8 36.09 36.12 1.18 o
-7 3 8 23.95 28.83 1.04 o
-6 3 8 64.89 59.95 1.46 o
-5 3 8 38.27 33.48 1.11 o
-4 3 8 1.44 1.32 0.35 o
-3 3 8 90.33 87.19 2.50 o
-2 3 8 378.03 367.78 6.04 o
-1 3 8 0.24 0.56 0.42 <
0 3 8 35.79 29.53 1.46 o
1 3 8 71.36 69.12 2.22 o
2 3 8 257.06 254.19 2.71 o
3 3 8 187.91 189.59 2.29 o
4 3 8 188.85 191.39 2.29 o
5 3 8 7.80 7.50 0.56 o
6 3 8 72.14 70.30 1.32 o
7 3 8 0.00 0.49 0.28 <
8 3 8 107.81 100.80 1.67 o
9 3 8 16.92 15.01 0.76 o
10 3 8 6.25 6.25 0.56 o
11 3 8 26.75 25.98 0.90 o
-11 4 8 28.64 29.73 1.25 o
-10 4 8 40.23 38.76 1.39 o
-9 4 8 32.13 32.03 1.25 o
-8 4 8 18.32 16.19 0.97 o
-7 4 8 25.65 24.18 1.11 o
-6 4 8 5.72 4.65 0.83 o
-5 4 8 2.63 1.67 0.63 <
-4 4 8 300.58 285.32 5.56 o
-3 4 8 17.89 17.23 0.90 o
-2 4 8 9.46 7.57 0.76 o
-1 4 8 0.01 -0.14 0.42 <
0 4 8 46.50 45.78 1.46 o
1 4 8 0.46 0.42 0.49 <
2 4 8 320.45 310.53 4.17 o
3 4 8 20.81 20.22 1.04 o
4 4 8 312.87 309.14 4.17 o
5 4 8 1.59 1.53 0.49 o
6 4 8 22.09 24.11 0.90 o
7 4 8 1.90 1.46 0.42 o
8 4 8 2.11 2.50 0.56 o
-19 1 9 0.28 0.21 0.42 <
-18 1 9 1.82 1.88 0.49 o
-17 1 9 51.87 56.41 1.53 o
-16 1 9 33.11 35.78 1.18 o
-15 1 9 0.41 0.42 0.35 <
-14 1 9 4.99 5.97 0.63 o
-13 1 9 0.35 1.11 0.35 o
-12 1 9 225.63 214.46 2.92 o
-11 1 9 6.40 6.60 0.56 o
-10 1 9 36.11 33.00 1.53 o
-9 1 9 178.14 144.57 2.15 o
-8 1 9 29.44 29.32 0.90 o
-7 1 9 112.44 92.40 1.60 o
-6 1 9 181.07 177.91 2.36 o
-5 1 9 32.77 28.00 0.83 o
-4 1 9 667.80 664.21 6.18 o
-3 1 9 290.48 282.19 2.57 o
-2 1 9 2.91 2.99 0.28 o
-1 1 9 1103.69 1057.69 7.43 o
0 1 9 39.80 39.39 0.97 o
1 1 9 23.18 22.93 0.83 o
2 1 9 67.02 60.30 1.32 o
3 1 9 4.65 5.35 0.49 o
4 1 9 23.00 18.41 0.83 o
5 1 9 272.27 236.55 3.13 o
6 1 9 12.66 12.44 0.56 o
7 1 9 156.90 139.50 2.36 o
8 1 9 9.67 7.78 0.69 o
9 1 9 10.36 9.59 0.76 o
10 1 9 46.27 49.81 1.46 o
11 1 9 34.57 38.07 1.32 o
12 1 9 18.54 19.66 0.83 o
13 1 9 3.49 5.28 0.56 o
14 1 9 20.38 22.16 0.90 o
15 1 9 1.23 1.11 0.83 <
-17 2 9 79.85 81.00 1.95 o
-16 2 9 12.06 14.03 0.90 o
-15 2 9 279.36 288.44 3.89 o
-14 2 9 1.10 0.42 0.35 <
-13 2 9 5.60 2.64 0.69 o
-12 2 9 20.55 21.19 0.90 o
-11 2 9 1.92 2.01 0.42 o
-10 2 9 26.47 22.30 0.90 o
-9 2 9 24.40 29.39 0.97 o
-8 2 9 51.83 45.29 1.18 o
-7 2 9 121.03 100.94 1.81 o
-6 2 9 168.06 156.59 2.29 o
-5 2 9 61.39 57.31 1.25 o
-4 2 9 0.12 0.07 0.28 <
-3 2 9 33.53 27.58 0.90 o
-2 2 9 1.16 0.83 0.28 o
-1 2 9 91.63 89.55 2.36 o
0 2 9 211.63 205.43 2.64 o
1 2 9 179.18 166.94 2.36 o
2 2 9 65.06 59.88 1.32 o
3 2 9 5.38 5.84 0.56 o
4 2 9 1.95 2.22 0.42 o
5 2 9 4.03 4.65 0.42 o
6 2 9 11.69 10.42 0.63 o
7 2 9 4.54 3.13 0.42 o
8 2 9 8.51 10.77 0.63 o
9 2 9 2.84 3.33 0.49 o
10 2 9 142.31 150.89 2.64 o
11 2 9 25.64 28.21 1.18 o
12 2 9 0.67 1.25 0.49 <
13 2 9 7.22 5.56 0.97 o
-14 3 9 0.23 0.83 0.42 <
-13 3 9 14.62 14.52 0.97 o
-12 3 9 37.41 44.32 1.39 o
-11 3 9 20.22 19.45 0.97 o
-10 3 9 54.05 51.62 1.46 o
-9 3 9 7.61 6.04 0.63 o
-8 3 9 0.01 -0.21 0.35 <
-7 3 9 0.11 0.28 0.35 <
-6 3 9 17.05 14.03 0.76 o
-5 3 9 2.17 2.01 0.42 o
-4 3 9 12.44 12.64 1.18 o
-3 3 9 6.33 7.22 0.90 o
-2 3 9 0.20 0.63 0.49 <
-1 3 9 3.03 3.68 0.69 o
0 3 9 0.01 0.28 0.49 <
1 3 9 0.82 0.63 0.49 <
2 3 9 6.13 5.84 0.63 o
3 3 9 3.60 3.47 0.42 o
4 3 9 4.35 4.38 0.42 o
5 3 9 15.33 17.78 0.69 o
6 3 9 0.94 0.42 0.28 <
7 3 9 37.30 39.95 1.11 o
8 3 9 9.62 10.56 0.69 o
9 3 9 2.61 2.71 0.42 o
10 3 9 2.51 2.08 0.42 o
11 3 9 9.90 10.77 1.25 o
-10 4 9 3.30 1.39 0.69 <
-9 4 9 60.66 62.66 1.74 o
-8 4 9 1.33 0.97 0.49 <
-7 4 9 25.35 27.51 1.67 o
-6 4 9 1.64 1.60 0.69 <
-5 4 9 6.91 8.41 1.11 o
-4 4 9 17.91 17.58 1.32 o
-3 4 9 1.97 1.81 0.49 o
-2 4 9 0.29 0.07 0.42 <
-1 4 9 10.94 12.16 0.90 o
0 4 9 4.59 5.63 0.69 o
1 4 9 5.85 5.42 0.69 o
2 4 9 95.50 91.84 2.08 o
3 4 9 1.57 2.22 0.56 o
4 4 9 56.14 59.81 1.67 o
5 4 9 3.04 3.20 0.90 o
-19 0 10 48.46 50.85 1.53 o
-18 0 10 82.34 88.64 1.95 o
-17 0 10 102.83 115.74 2.22 o
-16 0 10 7.52 8.61 0.69 o
-15 0 10 29.73 32.51 1.11 o
-14 0 10 218.33 214.53 2.99 o
-13 0 10 62.09 54.26 1.39 o
-12 0 10 11.42 9.38 0.69 o
-11 0 10 333.00 283.72 3.40 o
-10 0 10 0.19 -0.07 0.35 <
-9 0 10 604.48 545.55 8.13 o
-8 0 10 171.98 176.73 3.68 o
-7 0 10 265.68 265.66 4.72 o
-6 0 10 44.67 46.41 1.67 o
-5 0 10 31.93 32.16 1.18 o
-4 0 10 4.43 5.14 0.63 o
-3 0 10 3187.65 3068.80 34.18 o
-2 0 10 60.54 57.80 1.74 o
-1 0 10 134.19 127.90 2.71 o
0 0 10 11.01 10.49 0.90 o
1 0 10 197.26 180.90 3.54 o
2 0 10 39.64 40.22 1.60 o
3 0 10 452.61 401.19 6.32 o
4 0 10 19.28 17.65 1.11 o
5 0 10 217.98 170.48 3.68 o
6 0 10 2.44 3.89 0.69 o
7 0 10 24.12 22.65 1.39 o
8 0 10 3.85 1.39 0.63 <
9 0 10 13.19 14.87 1.18 o
10 0 10 10.72 10.70 1.18 o
11 0 10 11.34 17.65 1.32 o
12 0 10 2.40 1.04 0.63 <
13 0 10 48.75 48.56 2.15 o
-18 1 10 4.84 4.38 0.63 o
-17 1 10 26.45 29.32 1.18 o
-16 1 10 1.52 0.83 0.42 <
-15 1 10 0.06 0.21 0.35 <
-14 1 10 10.33 12.16 0.83 o
-13 1 10 1.35 1.53 0.35 o
-12 1 10 0.98 1.32 0.56 <
-11 1 10 77.06 75.45 2.43 o
-10 1 10 102.91 99.27 2.78 o
-9 1 10 143.78 124.56 3.06 o
-8 1 10 17.03 12.64 0.63 o
-7 1 10 147.18 134.01 2.01 o
-6 1 10 0.00 0.07 0.21 <
-5 1 10 485.36 479.83 4.86 o
-4 1 10 266.28 265.73 3.20 o
-3 1 10 31.78 32.79 0.97 o
-2 1 10 88.45 86.63 1.25 o
-1 1 10 329.84 314.56 3.54 o
0 1 10 34.04 38.76 1.04 o
1 1 10 44.33 40.43 1.11 o
2 1 10 13.55 12.02 0.69 o
3 1 10 78.14 66.48 1.46 o
4 1 10 54.61 45.29 1.25 o
5 1 10 15.19 13.06 0.76 o
6 1 10 12.45 11.32 0.76 o
7 1 10 2.39 3.89 0.56 o
8 1 10 39.66 41.13 1.32 o
9 1 10 32.18 40.36 1.32 o
10 1 10 35.72 39.60 1.32 o
11 1 10 136.08 141.51 2.64 o
12 1 10 5.21 3.89 0.49 o
13 1 10 9.83 10.28 0.69 o
-16 2 10 10.06 11.74 1.32 o
-15 2 10 11.53 17.30 1.60 o
-14 2 10 43.93 53.28 2.22 o
-13 2 10 0.27 0.35 0.56 <
-12 2 10 46.96 46.20 2.01 o
-11 2 10 3.03 3.20 0.49 o
-10 2 10 0.13 -0.35 0.28 <
-9 2 10 0.72 1.39 0.35 o
-8 2 10 14.56 11.05 0.76 o
-7 2 10 15.61 14.45 0.76 o
-6 2 10 137.72 147.90 2.29 o
-5 2 10 39.99 36.68 1.04 o
-4 2 10 140.97 129.91 2.08 o
-3 2 10 3.53 3.54 0.42 o
-2 2 10 58.47 59.47 2.01 o
-1 2 10 17.90 19.87 1.25 o
0 2 10 2.21 2.29 0.63 o
1 2 10 18.09 16.53 0.76 o
2 2 10 111.02 106.01 1.95 o
3 2 10 66.81 64.68 1.53 o
4 2 10 3.96 3.40 0.49 o
5 2 10 96.54 100.39 1.60 o
6 2 10 16.15 16.67 0.69 o
7 2 10 2.28 2.64 0.42 o
8 2 10 20.20 19.73 0.97 o
9 2 10 0.07 0.49 0.42 <
10 2 10 7.32 6.60 0.69 o
11 2 10 150.24 154.92 2.85 o
-13 3 10 1.12 0.90 0.42 <
-12 3 10 8.68 6.25 0.69 o
-11 3 10 52.04 55.37 1.53 o
-10 3 10 0.53 0.83 0.42 <
-9 3 10 20.64 25.43 1.04 o
-8 3 10 14.47 14.66 0.83 o
-7 3 10 8.19 8.34 0.69 o
-6 3 10 145.07 129.91 2.29 o
-5 3 10 1.67 1.18 0.56 <
-4 3 10 5.56 3.61 0.76 o
-3 3 10 34.20 35.92 1.67 o
-2 3 10 3.40 3.75 0.76 o
-1 3 10 1.27 1.60 0.63 <
0 3 10 24.51 20.91 1.32 o
1 3 10 0.10 -0.42 0.49 <
2 3 10 5.39 3.33 0.56 o
3 3 10 0.01 0.00 0.35 <
4 3 10 1.84 1.46 0.35 o
5 3 10 27.89 29.59 0.90 o
6 3 10 5.05 4.10 0.49 o
7 3 10 0.00 0.49 0.35 <
8 3 10 123.51 136.02 2.08 o
9 3 10 2.99 3.54 0.63 o
-9 4 10 61.74 67.87 2.57 o
-6 4 10 3.02 2.08 0.76 <
-5 4 10 0.16 -0.21 0.63 <
-4 4 10 29.80 28.21 1.67 o
-3 4 10 9.05 7.16 0.76 o
-2 4 10 34.97 36.12 1.39 o
-1 4 10 54.58 55.99 1.67 o
0 4 10 53.35 52.87 1.60 o
1 4 10 5.41 6.39 0.76 o
-17 1 11 86.46 98.02 2.15 o
-16 1 11 54.23 64.89 1.67 o
-15 1 11 23.03 25.84 1.04 o
-14 1 11 5.92 4.79 0.90 o
-13 1 11 39.63 39.32 1.88 o
-12 1 11 14.39 12.71 1.32 o
-11 1 11 86.39 72.18 2.43 o
-10 1 11 2.54 6.04 0.90 o
-9 1 11 1.65 3.47 0.69 o
-8 1 11 21.37 16.81 1.18 o
-7 1 11 1.97 2.36 0.42 o
-6 1 11 18.41 15.28 0.76 o
-5 1 11 312.22 307.48 3.61 o
-4 1 11 42.34 41.54 1.11 o
-3 1 11 91.86 87.19 1.67 o
-2 1 11 58.82 56.06 1.88 o
-1 1 11 8.91 9.38 0.69 o
0 1 11 6.34 5.97 0.56 o
1 1 11 129.29 128.52 2.15 o
2 1 11 74.55 72.94 1.60 o
3 1 11 145.76 139.36 2.29 o
4 1 11 0.43 1.11 0.35 o
5 1 11 15.64 18.48 0.90 o
6 1 11 1.80 0.42 0.35 <
7 1 11 19.02 19.10 0.90 o
8 1 11 72.05 74.61 1.81 o
9 1 11 166.97 170.34 2.92 o
10 1 11 19.39 19.73 1.04 o
11 1 11 1.04 0.42 0.49 <
12 1 11 8.74 8.20 1.18 o
-15 2 11 0.82 1.32 0.63 <
-14 2 11 37.16 34.53 1.88 o
-13 2 11 60.81 63.36 2.50 o
-12 2 11 70.56 75.72 2.64 o
-11 2 11 42.29 49.25 2.08 o
-10 2 11 8.58 9.59 0.76 o
-9 2 11 3.64 4.31 0.56 o
-8 2 11 32.44 27.72 0.97 o
-7 2 11 62.13 61.00 1.46 o
-6 2 11 408.46 399.18 4.52 o
-5 2 11 256.59 263.85 3.33 o
-4 2 11 6.97 7.71 0.63 o
-3 2 11 27.11 29.11 1.46 o
-2 2 11 96.93 101.91 2.78 o
-1 2 11 19.68 19.94 1.25 o
0 2 11 13.51 10.56 1.11 o
1 2 11 23.12 21.26 1.32 o
2 2 11 41.13 37.65 1.18 o
3 2 11 43.63 54.67 1.46 o
4 2 11 11.38 8.82 0.69 o
5 2 11 0.15 0.69 0.28 <
6 2 11 20.74 20.77 0.76 o
7 2 11 9.24 9.10 0.76 o
8 2 11 8.80 10.98 0.83 o
9 2 11 253.47 268.16 3.89 o
10 2 11 0.42 -0.07 0.42 <
-12 3 11 0.93 0.28 0.42 <
-11 3 11 56.46 60.86 1.67 o
-10 3 11 35.88 36.06 1.25 o
-9 3 11 114.18 117.82 2.29 o
-8 3 11 218.00 212.23 3.20 o
-7 3 11 7.57 8.75 0.76 o
-6 3 11 81.83 74.26 2.50 o
-5 3 11 12.16 11.12 1.18 o
-4 3 11 0.53 0.35 0.49 <
-3 3 11 26.39 29.59 1.60 o
-2 3 11 26.23 25.84 1.53 o
-1 3 11 0.46 0.76 0.63 <
0 3 11 167.82 157.35 3.82 o
1 3 11 29.27 30.78 1.67 o
2 3 11 28.85 25.98 1.11 o
3 3 11 69.49 69.33 1.74 o
4 3 11 54.05 54.60 1.60 o
5 3 11 63.28 71.49 1.81 o
6 3 11 51.99 57.87 1.32 o
7 3 11 0.92 1.32 0.49 <
-16 0 12 0.17 -0.28 0.63 <
-15 0 12 1.58 1.11 0.63 <
-14 0 12 2.97 1.88 0.76 <
-13 0 12 41.85 43.56 2.01 o
-12 0 12 26.28 23.90 1.53 o
-11 0 12 34.37 26.05 1.53 o
-10 0 12 87.11 71.83 2.43 o
-3 0 12 52.86 46.75 1.67 o
-2 0 12 1.23 2.43 0.56 o
-1 0 12 36.81 41.47 1.60 o
0 0 12 158.09 164.44 3.54 o
1 0 12 69.26 87.26 2.50 o
2 0 12 0.77 2.78 0.63 o
3 0 12 1.98 3.82 0.69 o
4 0 12 15.35 12.92 1.18 o
5 0 12 3.37 2.22 0.63 o
6 0 12 174.86 186.18 4.24 o
7 0 12 536.60 599.05 9.38 o
8 0 12 215.49 243.29 5.14 o
9 0 12 221.98 234.32 5.07 o
10 0 12 30.75 31.33 1.81 o
-15 1 12 2.22 2.64 0.83 o
-14 1 12 4.73 5.35 0.97 o
-13 1 12 151.98 150.54 3.89 o
-12 1 12 6.26 4.38 0.83 o
-11 1 12 182.54 181.46 4.17 o
-10 1 12 12.20 13.96 1.32 o
-9 1 12 34.42 36.82 1.74 o
-8 1 12 14.12 15.14 1.32 o
-7 1 12 9.12 12.78 1.18 o
-6 1 12 7.55 7.64 0.63 o
-5 1 12 407.40 404.81 4.52 o
-4 1 12 6.16 6.46 0.56 o
-3 1 12 27.02 26.89 1.39 o
-2 1 12 0.04 0.21 0.42 <
-1 1 12 14.51 12.85 1.18 o
0 1 12 0.74 0.76 0.35 <
1 1 12 12.17 16.33 0.83 o
2 1 12 4.36 3.96 0.49 o
3 1 12 9.62 16.12 0.83 o
4 1 12 0.42 1.04 0.35 <
5 1 12 24.60 26.95 1.11 o
6 1 12 35.01 40.43 1.32 o
7 1 12 5.03 5.35 0.63 o
8 1 12 8.02 8.75 0.76 o
9 1 12 236.97 253.01 3.75 o
-14 2 12 0.13 0.42 0.63 <
-13 2 12 4.33 1.11 0.63 <
-12 2 12 81.66 88.37 2.92 o
-11 2 12 213.48 234.46 5.00 o
-10 2 12 6.23 6.81 0.97 o
-9 2 12 9.95 8.06 0.69 o
-8 2 12 1.22 0.69 0.35 <
-7 2 12 244.68 241.76 3.33 o
-6 2 12 100.62 98.23 1.95 o
-5 2 12 1.11 0.07 0.28 <
-4 2 12 3.68 6.39 0.90 o
-3 2 12 52.13 54.88 2.01 o
-2 2 12 0.63 0.21 0.49 <
-1 2 12 48.10 46.13 1.95 o
0 2 12 99.89 94.69 2.78 o
1 2 12 84.78 83.09 2.71 o
2 2 12 3.55 4.72 0.83 o
3 2 12 40.94 45.29 1.32 o
4 2 12 25.86 25.84 1.11 o
5 2 12 16.24 19.10 0.97 o
6 2 12 83.26 82.74 1.95 o
7 2 12 1.34 2.64 0.56 o
8 2 12 0.04 0.00 0.42 <
-11 3 12 30.69 38.00 1.88 o
-10 3 12 154.10 179.03 2.99 o
-9 3 12 122.22 130.19 2.43 o
-8 3 12 186.10 178.19 4.10 o
-7 3 12 29.95 29.18 1.67 o
-6 3 12 67.70 69.19 2.50 o
-5 3 12 16.29 18.13 1.32 o
-4 3 12 180.12 195.21 4.38 o
-3 3 12 78.20 80.38 2.71 o
-2 3 12 0.12 -0.28 0.49 <
-1 3 12 3.49 3.68 0.83 o
0 3 12 24.46 21.19 1.53 o
1 3 12 4.86 7.02 1.04 o
2 3 12 20.27 20.15 1.04 o
3 3 12 6.76 6.25 0.69 o
4 3 12 35.79 37.10 1.88 o
5 3 12 4.99 5.84 1.04 o
-14 1 13 1.60 0.63 0.69 <
-13 1 13 159.29 175.97 4.31 o
-12 1 13 0.28 0.07 0.56 <
-11 1 13 6.87 6.60 1.04 o
-10 1 13 0.15 0.00 0.49 <
-9 1 13 1.03 1.74 0.63 <
-8 1 13 0.09 1.18 0.56 <
-7 1 13 130.80 140.05 3.47 o
-6 1 13 9.27 7.22 0.90 o
-5 1 13 4.03 6.95 0.90 o
-4 1 13 23.46 23.83 1.32 o
-3 1 13 17.20 18.48 1.25 o
-2 1 13 186.36 190.63 4.03 o
-1 1 13 17.26 20.84 1.32 o
0 1 13 0.01 0.07 0.42 <
1 1 13 79.12 87.19 1.88 o
2 1 13 57.05 62.38 1.60 o
3 1 13 27.81 26.95 1.11 o
4 1 13 108.57 106.29 2.15 o
5 1 13 22.51 24.11 1.04 o
6 1 13 121.49 131.99 2.57 o
7 1 13 247.54 270.87 3.96 o
8 1 13 74.42 78.92 2.78 o
-12 2 13 87.98 103.93 3.27 o
-11 2 13 69.43 77.67 2.71 o
-10 2 13 12.55 17.44 1.39 o
-9 2 13 23.32 21.61 1.46 o
-8 2 13 0.33 -0.28 0.35 <
-7 2 13 106.74 112.68 2.15 o
-6 2 13 20.23 21.61 1.39 o
-5 2 13 162.72 167.77 3.82 o
-4 2 13 1.36 1.67 0.63 <
-3 2 13 17.64 16.53 1.25 o
-2 2 13 1.45 1.53 0.63 <
-1 2 13 0.60 1.32 0.63 <
0 2 13 18.76 16.26 1.32 o
1 2 13 11.61 11.12 1.25 o
2 2 13 63.40 65.37 2.43 o
3 2 13 19.64 21.19 1.53 o
4 2 13 161.64 172.36 2.92 o
5 2 13 0.26 0.63 0.42 <
6 2 13 0.08 0.21 0.63 <
-8 3 13 59.81 58.29 2.36 o
-7 3 13 83.70 78.09 2.71 o
-6 3 13 0.58 0.14 0.63 <
-5 3 13 5.05 5.91 1.04 o
-4 3 13 6.90 7.50 1.11 o
-3 3 13 0.06 -0.35 0.56 <
-2 3 13 18.66 22.16 1.60 o
-1 0 14 221.54 246.83 4.79 o
0 0 14 60.62 62.38 2.22 o
1 0 14 221.57 241.83 4.86 o
2 0 14 43.84 43.28 1.95 o
3 0 14 76.39 87.39 2.78 o
4 0 14 10.04 9.45 1.11 o
5 0 14 74.74 80.79 2.78 o
6 0 14 103.37 106.85 3.33 o
-12 1 14 27.52 28.90 1.74 o
-11 1 14 0.67 0.97 0.63 <
-10 1 14 3.29 3.33 0.83 o
-9 1 14 54.96 52.45 2.22 o
-8 1 14 15.99 17.02 1.32 o
-4 1 14 0.04 0.21 0.49 <
-3 1 14 1.26 1.32 0.56 <
-2 1 14 1.35 0.00 0.49 <
-1 1 14 74.35 77.95 2.57 o
0 1 14 46.13 45.09 2.01 o
1 1 14 46.48 50.51 2.08 o
2 1 14 32.86 33.00 1.18 o
3 1 14 10.17 11.25 0.90 o
4 1 14 0.45 0.63 0.42 <
5 1 14 327.71 354.65 4.65 o
6 1 14 34.06 39.74 2.01 o
-10 2 14 0.40 0.35 0.56 <
-9 2 14 9.53 10.07 1.18 o
-8 2 14 27.71 29.87 1.67 o
-7 2 14 2.78 0.97 0.63 <
-6 2 14 41.58 50.71 2.08 o
-5 2 14 1.76 0.90 0.63 <
-4 2 14 53.39 57.59 2.22 o
-3 2 14 2.97 2.57 0.76 o
-2 2 14 6.58 8.06 1.11 o
-1 2 14 0.67 0.35 0.56 <
0 2 14 0.67 1.32 0.69 <
1 2 14 5.68 8.96 1.18 o
2 2 14 0.01 1.11 0.69 <
-3 1 15 20.96 21.95 1.46 o
-2 1 15 0.52 0.69 0.56 <
-1 1 15 28.47 31.19 1.74 o
0 1 15 0.04 -0.07 0.49 <
1 1 15 6.82 6.32 1.04 o
2 1 15 7.03 6.95 1.04 o
-5 2 15 5.36 3.40 0.83 o
-4 2 15 21.20 21.05 1.53 o
-3 2 15 141.78 155.96 3.96 o
loop_
_restr_angle_atom_site_label_1
_restr_angle_site_symmetry_1
_restr_angle_atom_site_label_2
_restr_angle_site_symmetry_2
_restr_angle_atom_site_label_3
_restr_angle_site_symmetry_3
_restr_angle_target
_restr_angle_target_weight_param
? ? ? ? ? ? ? ?
loop_
_restr_distance_atom_site_label_1
_restr_distance_site_symmetry_1
_restr_distance_atom_site_label_2
_restr_distance_site_symmetry_2
_restr_distance_target
_restr_distance_target_weight_param
? ? ? ? ? ?
loop_
_restr_equal_angle_atom_site_label_1
_restr_equal_angle_site_symmetry_1
_restr_equal_angle_atom_site_label_2
_restr_equal_angle_site_symmetry_2
_restr_equal_angle_atom_site_label_3
_restr_equal_angle_site_symmetry_3
_restr_equal_angle_class_class_id
_restr_equal_angle_class_target_weight_param
? ? ? ? ? ? ? ?
loop_
_restr_equal_distance_atom_site_label_1
_restr_equal_distance_site_symmetry_1
_restr_equal_distance_atom_site_label_2
_restr_equal_distance_site_symmetry_2
_restr_equal_distance_class_class_id
_restr_equal_distance_class_target_weight_param
? ? ? ? ? ?
loop_
_restr_equal_torsion_atom_site_label_1
_restr_equal_torsion_site_symmetry_1
_restr_equal_torsion_atom_site_label_2
_restr_equal_torsion_site_symmetry_2
_restr_equal_torsion_atom_site_label_3
_restr_equal_torsion_site_symmetry_3
_restr_equal_torsion_atom_site_label_4
_restr_equal_torsion_site_symmetry_4
_restr_equal_torsion_class_class_id
_restr_equal_torsion_class_target_weight_param
? ? ? ? ? ? ? ? ? ?
loop_
_restr_torsion_atom_site_label_1
_restr_torsion_site_symmetry_1
_restr_torsion_atom_site_label_2
_restr_torsion_site_symmetry_2
_restr_torsion_atom_site_label_3
_restr_torsion_site_symmetry_3
_restr_torsion_atom_site_label_4
_restr_torsion_site_symmetry_4
_restr_torsion_angle_target
_restr_torsion_weight_param
? ? ? ? ? ? ? ? ? ?
loop_
_twin_individual_id
_twin_individual_mass_fraction_refined
_twin_individual_twin_matrix_11
_twin_individual_twin_matrix_12
_twin_individual_twin_matrix_13
_twin_individual_twin_matrix_21
_twin_individual_twin_matrix_22
_twin_individual_twin_matrix_23
_twin_individual_twin_matrix_31
_twin_individual_twin_matrix_32
_twin_individual_twin_matrix_33
? ? ? ? ? ? ? ? ? ? ?
loop_
_twin_refln_datum_id
_twin_refln_individual_id
_twin_refln_index_h
_twin_refln_index_k
_twin_refln_index_l
_twin_refln_F_squared_calc
_twin_refln_F_squared_meas
_twin_refln_F_squared_sigma
_twin_refln_include_status
? ? ? ? ? ? ? ? ?
loop_
_jana_atom_site_adp_c_label
_jana_atom_site_adp_c_type_symbol
_jana_atom_site_adp_c_111
_jana_atom_site_adp_c_112
_jana_atom_site_adp_c_113
_jana_atom_site_adp_c_122
_jana_atom_site_adp_c_123
_jana_atom_site_adp_c_133
_jana_atom_site_adp_c_222
_jana_atom_site_adp_c_223
_jana_atom_site_adp_c_233
_jana_atom_site_adp_c_333
? ? ? ? ? ? ? ? ? ? ? ?
loop_
_jana_atom_site_adp_d_label
_jana_atom_site_adp_d_type_symbol
_jana_atom_site_adp_d_1111
_jana_atom_site_adp_d_1112
_jana_atom_site_adp_d_1113
_jana_atom_site_adp_d_1122
_jana_atom_site_adp_d_1123
_jana_atom_site_adp_d_1133
_jana_atom_site_adp_d_1222
_jana_atom_site_adp_d_1223
_jana_atom_site_adp_d_1233
_jana_atom_site_adp_d_1333
_jana_atom_site_adp_d_2222
_jana_atom_site_adp_d_2223
_jana_atom_site_adp_d_2233
_jana_atom_site_adp_d_2333
_jana_atom_site_adp_d_3333
? ? ? ? ? ? ? ? ? ? ? ? ? ? ? ? ?
loop_
_jana_atom_site_adp_e_label
_jana_atom_site_adp_e_type_symbol
_jana_atom_site_adp_e_11111
_jana_atom_site_adp_e_11112
_jana_atom_site_adp_e_11113
_jana_atom_site_adp_e_11122
_jana_atom_site_adp_e_11123
_jana_atom_site_adp_e_11133
_jana_atom_site_adp_e_11222
_jana_atom_site_adp_e_11223
_jana_atom_site_adp_e_11233
_jana_atom_site_adp_e_11333
_jana_atom_site_adp_e_12222
_jana_atom_site_adp_e_12223
_jana_atom_site_adp_e_12233
_jana_atom_site_adp_e_12333
_jana_atom_site_adp_e_13333
_jana_atom_site_adp_e_22222
_jana_atom_site_adp_e_22223
_jana_atom_site_adp_e_22233
_jana_atom_site_adp_e_22333
_jana_atom_site_adp_e_23333
_jana_atom_site_adp_e_33333
? ? ? ? ? ? ? ? ? ? ? ? ? ? ? ? ? ? ? ? ? ? ?
loop_
_jana_atom_site_adp_f_label
_jana_atom_site_adp_f_type_symbol
_jana_atom_site_adp_f_111111
_jana_atom_site_adp_f_111112
_jana_atom_site_adp_f_111113
_jana_atom_site_adp_f_111122
_jana_atom_site_adp_f_111123
_jana_atom_site_adp_f_111133
_jana_atom_site_adp_f_111222
_jana_atom_site_adp_f_111223
_jana_atom_site_adp_f_111233
_jana_atom_site_adp_f_111333
_jana_atom_site_adp_f_112222
_jana_atom_site_adp_f_112223
_jana_atom_site_adp_f_112233
_jana_atom_site_adp_f_112333
_jana_atom_site_adp_f_113333
_jana_atom_site_adp_f_122222
_jana_atom_site_adp_f_122223
_jana_atom_site_adp_f_122233
_jana_atom_site_adp_f_122333
_jana_atom_site_adp_f_123333
_jana_atom_site_adp_f_133333
_jana_atom_site_adp_f_222222
_jana_atom_site_adp_f_222223
_jana_atom_site_adp_f_222233
_jana_atom_site_adp_f_222333
_jana_atom_site_adp_f_223333
_jana_atom_site_adp_f_233333
_jana_atom_site_adp_f_333333
? ? ? ? ? ? ? ? ? ? ? ? ? ? ? ? ? ? ? ? ? ? ? ? ? ? ? ? ? ?
