#------------------------------------------------------------------------------
#$Date: 2022-06-09 04:56:52 +0300 (Thu, 09 Jun 2022) $
#$Revision: 275937 $
#$URL: file:///home/coder/svn-repositories/cod/cif/2/10/90/2109005.cif $
#------------------------------------------------------------------------------
#
# This file is available in the Crystallography Open Database (COD),
# http://www.crystallography.net/. The original data for this entry
# were provided by IUCr Journals, http://journals.iucr.org/.
#
# The file may be used within the scientific community so long as
# proper attribution is given to the journal article from which the
# data were obtained.
#
data_2109005
loop_
_publ_author_name
'Hoser, Anna Agnieszka'
'Rekis, Toms'
'Madsen, Anders \/Ostergaard'
_publ_section_title
;
 Dynamics and disorder: on the stability of pyrazinamide polymorphs
;
_journal_issue                   '3 Part 1'
_journal_name_full               'Acta Crystallographica Section B'
_journal_page_first              416
_journal_page_last               424
_journal_paper_doi               10.1107/S2052520622004577
_journal_volume                  78
_journal_year                    2022
_chemical_formula_sum            'C5 H5 N3 O'
_chemical_formula_weight         123.1
_chemical_name_common            Pyrazinamide
_space_group_IT_number           2
_space_group_name_Hall           '-P 1'
_space_group_name_H-M_alt        'P -1'
_symmetry_cell_setting           triclinic
_symmetry_Int_Tables_number      2
_symmetry_space_group_name_Hall  '-P 1'
_symmetry_space_group_name_H-M   'P -1'
_cell_angle_alpha                97.526(4)
_cell_angle_beta                 98.499(3)
_cell_angle_gamma                106.564(4)
_cell_formula_units_Z            2
_cell_length_a                   5.1026(6)
_cell_length_b                   5.7083(7)
_cell_length_c                   9.8487(12)
_cell_measurement_reflns_used    3482
_cell_measurement_temperature    10
_cell_measurement_theta_max      36.4
_cell_measurement_theta_min      3.79
_cell_volume                     267.37(6)
_diffrn_ambient_temperature      10
_diffrn_measured_fraction_theta_full 0.96
_diffrn_measured_fraction_theta_max 0.87
_diffrn_measurement_device       'four-circle diffractometer'
_diffrn_measurement_device_type  'Bruker CCD'
_diffrn_measurement_method       'Bruker CCD'
_diffrn_radiation_monochromator  graphite
_diffrn_radiation_probe          x-ray
_diffrn_radiation_source         'X-ray tube'
_diffrn_radiation_type           'Mo K\a'
_diffrn_radiation_wavelength     0.71073
_diffrn_reflns_av_R_equivalents  0.0258
_diffrn_reflns_av_unetI/netI     0.0486
_diffrn_reflns_limit_h_max       8
_diffrn_reflns_limit_h_min       -6
_diffrn_reflns_limit_k_max       9
_diffrn_reflns_limit_k_min       -7
_diffrn_reflns_limit_l_max       10
_diffrn_reflns_limit_l_min       -16
_diffrn_reflns_number            3482
_diffrn_reflns_theta_full        26.97
_diffrn_reflns_theta_max         36.4
_diffrn_reflns_theta_min         3.79
_exptl_absorpt_coefficient_mu    0.114
_exptl_crystal_colour            colorless
_exptl_crystal_density_diffrn    1.5293
_exptl_crystal_description       prism
_exptl_crystal_F_000             128
_refine_diff_density_max         0.75
_refine_diff_density_min         -0.45
_refine_ls_extinction_method     none
_refine_ls_goodness_of_fit_gt    2.20
_refine_ls_goodness_of_fit_ref   1.89
_refine_ls_hydrogen_treatment    constr
_refine_ls_number_constraints    0
_refine_ls_number_parameters     82
_refine_ls_number_reflns         2278
_refine_ls_number_restraints     0
_refine_ls_R_factor_all          0.0818
_refine_ls_R_factor_gt           0.0517
_refine_ls_shift/su_max          0.0094
_refine_ls_shift/su_mean         0.0006
_refine_ls_structure_factor_coef F
_refine_ls_weighting_details     w=1/(\s^2^(F)+0.0001F^2^)
_refine_ls_weighting_scheme      sigma
_refine_ls_wR_factor_gt          0.0575
_refine_ls_wR_factor_ref         0.0603
_reflns_number_gt                1557
_reflns_number_total             2278
_reflns_threshold_expression     I>3\s(I)
_cod_data_source_file            so5076sup1.cif
_cod_data_source_block           delta10K
_cod_depositor_comments
;
The following automatic conversions were performed:

data item '_diffrn_radiation_probe' value 'X-ray' was changed to
'x-ray' in accordance with the
/home/data/users/saulius/crontab/automatic-downloads/rss-feeds/IUCr/lib/dictionaries/cif_core.dic
dictionary named 'cif_core.dic' version 2.4.2 last updated on
2011-04-26.

Automatic conversion script
Id: cif_fix_values 7556 2019-12-06 15:28:31Z antanas 
;
_cod_original_formula_sum        'C5 H5 N3 O1'
_cod_database_code               2109005
loop_
_space_group_symop_id
_space_group_symop_operation_xyz
1 x,y,z
2 -x,-y,-z
loop_
_atom_site_label
_atom_site_type_symbol
_atom_site_fract_x
_atom_site_fract_y
_atom_site_fract_z
_atom_site_adp_type
_atom_site_U_iso_or_equiv
_atom_site_site_symmetry_multiplicity
_atom_site_occupancy
_atom_site_calc_flag
_atom_site_refinement_flags
_atom_site_disorder_assembly
_atom_site_disorder_group
O1 O 0.80279(16) 1.15416(17) 0.10137(8) Uani 0.0099(3) 2 1 d . . .
N1 N 0.24192(19) 1.0429(2) 0.37110(9) Uani 0.0090(3) 2 1 d . . .
N3 N 0.78450(19) 0.7462(2) 0.07150(9) Uani 0.0100(3) 2 1 d . . .
N2 N 0.4225(2) 0.6582(2) 0.24913(9) Uani 0.0087(3) 2 1 d . . .
C1 C 0.5108(2) 0.8887(2) 0.22346(11) Uani 0.0074(4) 2 1 d . . .
C3 C 0.7141(2) 0.9412(2) 0.12567(10) Uani 0.0077(4) 2 1 d . . .
C2 C 0.1525(2) 0.8119(2) 0.39533(11) Uani 0.0086(4) 2 1 d . . .
C4 C 0.2413(2) 0.6198(2) 0.33518(11) Uani 0.0094(4) 2 1 d . . .
C5 C 0.4228(2) 1.0807(2) 0.28350(11) Uani 0.0088(4) 2 1 d . . .
H1n3 H 0.719439 0.602946 0.095843 Uiso 0.0121 2 1 d . . .
H2n3 H 0.895435 0.76246 0.01184 Uiso 0.0121 2 1 d . . .
H1c2 H 0.021983 0.776118 0.456511 Uiso 0.0103 2 1 d . . .
H1c4 H 0.170531 0.456534 0.356113 Uiso 0.0113 2 1 d . . .
H1c5 H 0.492648 1.243534 0.261932 Uiso 0.0105 2 1 d . . .
loop_
_atom_site_aniso_label
_atom_site_aniso_type_symbol
_atom_site_aniso_U_11
_atom_site_aniso_U_22
_atom_site_aniso_U_33
_atom_site_aniso_U_12
_atom_site_aniso_U_13
_atom_site_aniso_U_23
O1 O 0.0112(4) 0.0098(5) 0.0112(4) 0.0033(4) 0.0055(3) 0.0065(3)
N1 N 0.0099(5) 0.0108(6) 0.0093(4) 0.0044(4) 0.0050(4) 0.0058(4)
N3 N 0.0114(5) 0.0111(6) 0.0110(4) 0.0042(4) 0.0076(4) 0.0062(4)
N2 N 0.0099(5) 0.0092(6) 0.0099(4) 0.0039(4) 0.0050(3) 0.0059(4)
C1 C 0.0075(5) 0.0088(6) 0.0074(4) 0.0025(5) 0.0029(4) 0.0046(4)
C3 C 0.0065(5) 0.0111(6) 0.0066(4) 0.0024(5) 0.0024(4) 0.0044(4)
C2 C 0.0086(5) 0.0106(7) 0.0089(4) 0.0032(5) 0.0045(4) 0.0060(4)
C4 C 0.0111(6) 0.0086(6) 0.0107(5) 0.0029(5) 0.0053(4) 0.0059(4)
C5 C 0.0103(5) 0.0083(6) 0.0096(5) 0.0028(5) 0.0044(4) 0.0057(4)
loop_
_atom_type_symbol
_atom_type_scat_dispersion_real
_atom_type_scat_dispersion_imag
_atom_type_scat_source
C 0.0033 0.0016 'International Tables Vol C tables 4.2.6.8 and 6.1.1.1'
H 0.0000 0.0000 'International Tables Vol C tables 4.2.6.8 and 6.1.1.1'
N 0.0061 0.0033 'International Tables Vol C tables 4.2.6.8 and 6.1.1.1'
O 0.0106 0.0060 'International Tables Vol C tables 4.2.6.8 and 6.1.1.1'
loop_
_diffrn_standard_refln_index_h
_diffrn_standard_refln_index_k
_diffrn_standard_refln_index_l
? ? ?
loop_
_exptl_crystal_face_index_h
_exptl_crystal_face_index_k
_exptl_crystal_face_index_l
_exptl_crystal_face_perp_dist
? ? ? ?
loop_
_geom_angle_atom_site_label_1
_geom_angle_atom_site_label_2
_geom_angle_atom_site_label_3
_geom_angle_site_symmetry_1
_geom_angle_site_symmetry_2
_geom_angle_site_symmetry_3
_geom_angle
_geom_angle_publ_flag
C2 N1 C5 . . . 115.88(12) ?
C3 N3 H1n3 . . . 120 ?
C3 N3 H2n3 . . . 120 ?
H1n3 N3 H2n3 . . . 120 ?
C1 N2 C4 . . . 116.24(12) ?
N2 C1 C3 . . . 118.28(12) ?
N2 C1 C5 . . . 122.38(11) ?
C3 C1 C5 . . . 119.33(11) ?
O1 C3 N3 . . . 124.87(10) ?
O1 C3 C1 . . . 119.75(12) ?
N3 C3 C1 . . . 115.37(11) ?
N1 C2 C4 . . . 122.56(11) ?
N1 C2 H1c2 . . . 118.72 ?
C4 C2 H1c2 . . . 118.72 ?
N2 C4 C2 . . . 121.46(12) ?
N2 C4 H1c4 . . . 119.27 ?
C2 C4 H1c4 . . . 119.27 ?
N1 C5 C1 . . . 121.47(12) ?
N1 C5 H1c5 . . . 119.26 ?
C1 C5 H1c5 . . . 119.27 ?
loop_
_geom_bond_atom_site_label_1
_geom_bond_atom_site_label_2
_geom_bond_site_symmetry_1
_geom_bond_site_symmetry_2
_geom_bond_distance
_geom_bond_publ_flag
O1 C3 . . 1.2387(16) ?
N1 C2 . . 1.3322(18) ?
N1 C5 . . 1.3465(16) ?
N3 C3 . . 1.3345(18) ?
N3 H1n3 . . 0.87 ?
N3 H2n3 . . 0.87 ?
N2 C1 . . 1.3346(18) ?
N2 C4 . . 1.3364(16) ?
C1 C3 . . 1.5124(16) ?
C1 C5 . . 1.393(2) ?
C2 C4 . . 1.397(2) ?
C2 H1c2 . . 0.96 ?
C4 H1c4 . . 0.96 ?
C5 H1c5 . . 0.96 ?
loop_
_geom_hbond_atom_site_label_D
_geom_hbond_atom_site_label_H
_geom_hbond_atom_site_label_A
_geom_hbond_site_symmetry_D
_geom_hbond_site_symmetry_H
_geom_hbond_site_symmetry_A
_geom_hbond_distance_DH
_geom_hbond_distance_HA
_geom_hbond_distance_DA
_geom_hbond_angle_DHA
_geom_hbond_publ_flag
N3 H2n3 O1 . . 2_775 0.87 2.02 2.8788(14) 170.41 ?
loop_
_geom_torsion_atom_site_label_1
_geom_torsion_atom_site_label_2
_geom_torsion_atom_site_label_3
_geom_torsion_atom_site_label_4
_geom_torsion_site_symmetry_1
_geom_torsion_site_symmetry_2
_geom_torsion_site_symmetry_3
_geom_torsion_site_symmetry_4
_geom_torsion
_geom_torsion_publ_flag
? ? ? ? ? ? ? ? ? ?
loop_
_refln_index_h
_refln_index_k
_refln_index_l
_refln_F_squared_calc
_refln_F_squared_meas
_refln_F_squared_sigma
_refln_observed_status
1 0 0 251.55 267.85 3.08 o
2 0 0 553.01 585.32 7.51 o
3 0 0 347.96 368.90 4.80 o
4 0 0 129.94 137.23 3.90 o
6 0 0 21.60 23.57 1.73 o
-6 1 0 0.67 -0.23 0.75 <
-5 1 0 3.33 3.15 0.75 o
-4 1 0 127.20 121.31 2.40 o
-3 1 0 112.23 107.43 1.73 o
-2 1 0 172.20 184.75 2.85 o
-1 1 0 170.89 169.73 3.15 o
0 1 0 1132.38 1204.65 31.60 o
1 1 0 0.26 1.20 0.15 o
2 1 0 1.95 1.43 0.23 o
3 1 0 2.48 2.93 0.30 o
4 1 0 0.02 0.15 0.23 <
5 1 0 23.73 27.10 1.50 o
-6 2 0 62.71 59.68 2.48 o
-5 2 0 37.10 34.98 0.83 o
-4 2 0 17.77 16.44 0.60 o
-3 2 0 169.93 170.11 3.30 o
-2 2 0 526.54 525.42 13.66 o
-1 2 0 0.76 1.35 0.23 o
0 2 0 30.16 31.45 1.35 o
1 2 0 179.14 200.59 5.63 o
2 2 0 218.65 223.11 6.23 o
3 2 0 17.67 16.44 1.13 o
4 2 0 15.10 14.71 1.05 o
5 2 0 196.04 239.85 6.91 o
-7 3 0 11.41 11.41 1.73 o
-6 3 0 296.49 294.95 8.48 o
-5 3 0 1.64 1.13 0.45 <
-4 3 0 39.74 39.26 1.20 o
-3 3 0 235.77 238.42 6.61 o
-2 3 0 80.99 82.43 1.95 o
0 3 0 1.23 3.38 0.75 o
1 3 0 80.39 83.63 2.93 o
2 3 0 19.00 19.52 1.35 o
3 3 0 11.28 9.08 1.28 o
4 3 0 2.20 2.10 0.98 <
5 3 0 0.51 0.00 1.05 <
-7 4 0 0.43 -0.30 1.35 <
-6 4 0 1.09 1.95 0.90 <
-5 4 0 1.58 1.20 0.75 <
-4 4 0 19.61 15.01 0.83 o
-3 4 0 11.73 8.93 0.83 o
-2 4 0 0.03 0.08 0.68 <
-1 4 0 558.64 508.45 14.04 o
1 4 0 40.88 34.68 2.03 o
2 4 0 48.85 38.14 2.18 o
3 4 0 68.89 58.33 2.70 o
-7 5 0 5.01 1.50 1.65 <
-6 5 0 8.10 7.66 1.13 o
-5 5 0 80.74 68.46 1.80 o
-4 5 0 109.27 94.96 2.63 o
-3 5 0 54.48 50.07 1.73 o
-2 5 0 62.51 52.02 2.70 o
-1 5 0 799.20 771.72 21.02 o
0 5 0 0.23 0.30 1.13 <
1 5 0 89.51 81.83 3.53 o
2 5 0 48.00 35.21 2.55 o
3 5 0 19.03 15.69 2.48 o
-7 6 0 0.59 2.25 1.73 <
-6 6 0 7.74 7.88 1.20 o
-5 6 0 18.56 15.84 1.20 o
-4 6 0 5.77 5.63 1.65 o
-3 6 0 37.44 35.36 2.63 o
-2 6 0 0.65 -0.30 1.28 <
-1 6 0 17.86 12.91 2.03 o
0 6 0 2.81 4.58 1.58 <
1 6 0 2.52 3.53 1.65 <
2 6 0 1.25 2.18 1.95 <
3 6 0 1.76 0.53 2.10 <
-5 7 0 9.43 11.56 1.65 o
-4 7 0 51.60 53.07 3.68 o
-3 7 0 67.47 66.14 3.90 o
-2 7 0 3.15 -0.15 1.73 <
-1 7 0 6.96 6.98 1.88 o
0 7 0 28.97 34.38 3.23 o
2 7 0 0.77 -0.45 2.40 <
-6 8 0 0.31 0.45 2.33 <
-5 8 0 6.77 5.86 1.95 o
-4 8 0 35.45 35.21 4.05 o
-3 8 0 5.95 7.21 2.55 <
-2 8 0 1.91 -0.68 2.33 <
-1 8 0 0.22 1.73 2.33 <
0 8 0 0.18 -2.10 2.48 <
1 8 0 0.05 -2.85 2.85 <
2 8 0 1.93 0.83 3.53 <
-4 9 0 2.67 4.95 3.30 <
-3 9 0 11.02 13.81 3.45 o
-2 9 0 143.77 168.46 7.58 o
-1 9 0 9.21 10.89 3.60 o
0 -9 1 1.94 -0.98 3.45 <
1 -9 1 2.95 2.93 3.08 <
2 -9 1 1.92 -0.98 3.15 <
3 -9 1 9.40 7.43 3.30 <
4 -9 1 1.31 -1.05 2.18 <
-2 -8 1 0.27 -1.50 3.15 <
-1 -8 1 1.30 0.53 2.85 <
0 -8 1 34.47 42.72 4.05 o
1 -8 1 2.22 1.20 2.18 <
2 -8 1 2.19 0.60 2.33 <
3 -8 1 2.64 3.38 2.55 <
4 -8 1 1.93 1.50 1.65 <
5 -8 1 7.15 6.16 1.95 o
6 -8 1 0.02 0.53 2.33 <
-3 -7 1 108.63 110.35 6.23 o
-2 -7 1 4.22 4.43 2.33 <
-1 -7 1 0.18 1.50 2.70 <
0 -7 1 38.87 40.39 3.30 o
1 -7 1 3.57 3.15 1.80 <
2 -7 1 52.09 47.82 3.38 o
3 -7 1 1.04 1.13 1.65 <
4 -7 1 12.19 14.79 1.65 o
5 -7 1 2.23 1.73 1.43 <
6 -7 1 4.72 4.58 1.80 <
-3 -6 1 0.00 0.60 1.95 <
-2 -6 1 13.94 10.81 2.18 o
-1 -6 1 20.20 14.71 2.48 o
0 -6 1 15.35 14.34 2.18 o
1 -6 1 1.45 1.43 1.20 <
2 -6 1 70.18 63.28 3.38 o
3 -6 1 3.58 2.25 1.58 <
4 -6 1 0.59 -1.43 0.90 <
5 -6 1 4.97 4.20 1.20 o
6 -6 1 3.48 3.00 1.28 <
-3 -5 1 1.58 1.65 1.43 <
-2 -5 1 69.76 50.82 2.78 o
-1 -5 1 57.38 50.15 2.70 o
0 -5 1 0.77 0.45 1.05 <
1 -5 1 40.90 35.58 2.33 o
2 -5 1 33.97 31.00 2.18 o
3 -5 1 8.63 10.06 1.58 o
4 -5 1 17.79 17.42 0.98 o
5 -5 1 4.16 2.78 0.68 o
6 -5 1 7.17 6.68 0.83 o
7 -5 1 14.94 14.34 2.63 o
-4 -4 1 0.25 1.65 1.20 <
-3 -4 1 0.17 1.13 1.05 <
-2 -4 1 4.71 3.98 1.13 o
-1 -4 1 0.26 0.30 0.90 <
1 -4 1 36.31 32.88 1.88 o
2 -4 1 78.32 70.34 2.78 o
3 -4 1 0.14 0.38 0.53 <
4 -4 1 1.65 1.13 0.45 <
5 -4 1 35.56 32.43 1.13 o
6 -4 1 7.91 6.76 1.20 o
-5 -3 1 65.82 73.49 3.00 o
-4 -3 1 306.00 321.23 8.93 o
-3 -3 1 0.02 -0.45 0.75 <
-2 -3 1 11.41 10.51 1.20 o
-1 -3 1 330.95 367.32 10.13 o
0 -3 1 18.27 21.09 1.28 o
1 -3 1 163.64 170.03 5.10 o
2 -3 1 0.31 -0.30 0.30 <
3 -3 1 10.95 10.28 0.53 o
4 -3 1 15.29 14.79 0.68 o
5 -3 1 8.25 7.51 0.60 o
6 -3 1 52.28 50.67 2.33 o
-5 -2 1 98.21 112.91 3.83 o
-4 -2 1 118.64 133.32 3.90 o
-3 -2 1 22.47 23.35 1.20 o
-2 -2 1 22.17 21.77 1.20 o
-1 -2 1 75.29 81.23 2.63 o
0 -2 1 48.66 51.05 1.88 o
1 -2 1 506.15 543.59 14.26 o
2 -2 1 9.85 10.43 0.38 o
3 -2 1 269.64 263.80 4.05 o
4 -2 1 10.18 8.48 0.38 o
5 -2 1 1.21 2.10 0.38 o
6 -2 1 212.57 209.30 6.16 o
-6 -1 1 10.95 13.51 1.73 o
-5 -1 1 0.64 0.30 0.60 <
-4 -1 1 0.78 0.75 0.30 <
-3 -1 1 42.03 45.64 0.90 o
-2 -1 1 54.24 53.45 0.98 o
-1 -1 1 97.16 81.00 1.73 o
0 -1 1 279.02 285.19 5.33 o
1 -1 1 608.23 607.17 6.98 o
2 -1 1 0.55 1.80 0.15 o
3 -1 1 3.64 3.08 0.23 o
4 -1 1 0.05 0.08 0.15 <
5 -1 1 2.32 2.25 0.38 o
6 -1 1 0.77 0.23 1.05 <
-6 0 1 1.61 0.53 0.83 <
-5 0 1 28.19 30.63 1.50 o
-4 0 1 12.26 12.46 0.68 o
-3 0 1 49.68 51.80 0.90 o
-2 0 1 292.85 300.73 4.50 o
-1 0 1 111.10 125.37 1.88 o
1 0 1 157.10 166.73 2.18 o
2 0 1 1.30 2.40 0.15 o
3 0 1 113.91 108.03 1.73 o
4 0 1 83.12 83.93 1.80 o
5 0 1 8.34 8.71 0.98 o
-6 1 1 0.93 1.28 0.83 <
-5 1 1 11.28 10.58 1.05 o
-4 1 1 12.65 11.94 0.53 o
-3 1 1 7.00 7.21 0.23 o
-2 1 1 6.77 5.71 0.30 o
-1 1 1 3.76 7.43 0.23 o
0 1 1 608.82 599.96 7.73 o
1 1 1 107.24 99.77 1.95 o
2 1 1 26.84 23.57 0.60 o
3 1 1 10.24 10.36 0.45 o
4 1 1 15.94 18.54 1.05 o
5 1 1 2.30 2.33 0.68 o
-7 2 1 7.84 7.36 1.43 o
-6 2 1 148.98 142.03 4.58 o
-5 2 1 294.34 284.52 7.96 o
-4 2 1 11.00 10.74 0.53 o
-3 2 1 42.23 37.16 1.43 o
-2 2 1 358.01 367.70 9.68 o
-1 2 1 0.01 0.08 0.15 <
1 2 1 24.90 21.85 1.13 o
2 2 1 130.10 118.91 3.60 o
3 2 1 6.97 7.43 0.98 o
4 2 1 14.57 18.69 1.35 o
5 2 1 148.47 173.34 5.41 o
-7 3 1 1.70 1.88 1.35 <
-6 3 1 13.56 15.09 1.58 o
-5 3 1 24.95 23.27 0.90 o
-4 3 1 0.89 0.38 0.30 <
-3 3 1 27.77 25.00 1.20 o
-2 3 1 2.44 1.95 0.38 o
-1 3 1 4.81 6.68 0.60 o
0 3 1 37.11 34.83 1.65 o
1 3 1 24.17 24.10 1.43 o
2 3 1 155.68 144.51 4.50 o
3 3 1 4.50 4.73 1.05 o
-7 4 1 14.26 12.54 1.65 o
-6 4 1 0.57 0.75 0.90 <
-5 4 1 13.47 11.79 0.83 o
-4 4 1 36.11 28.75 1.50 o
-3 4 1 8.49 7.66 0.90 o
-2 4 1 3.78 2.40 0.60 o
0 4 1 2.47 2.18 1.05 <
1 4 1 0.24 0.38 0.83 <
2 4 1 6.10 3.38 1.13 <
3 4 1 15.36 13.96 1.73 o
-7 5 1 0.00 0.15 1.58 <
-6 5 1 30.16 30.93 1.95 o
-5 5 1 2.54 1.80 0.68 <
-4 5 1 2.60 2.40 0.75 o
-3 5 1 19.15 18.32 1.13 o
-2 5 1 11.21 8.86 1.43 o
-1 5 1 140.74 132.42 4.80 o
0 5 1 81.08 73.94 3.30 o
1 5 1 4.51 4.13 1.43 <
2 5 1 34.32 27.78 2.40 o
3 5 1 71.94 62.16 3.38 o
-7 6 1 18.21 15.24 2.10 o
-6 6 1 24.36 25.60 1.80 o
-5 6 1 3.50 3.90 1.13 o
-4 6 1 6.82 6.31 1.05 o
-3 6 1 2.20 3.90 1.50 <
-2 6 1 2.50 4.50 1.58 <
-1 6 1 31.62 27.93 2.40 o
0 6 1 0.00 -1.58 1.28 <
1 6 1 3.54 2.78 1.65 <
2 6 1 9.81 9.61 2.18 o
3 6 1 2.68 0.90 2.48 <
-6 7 1 34.78 27.70 4.50 o
-5 7 1 7.20 6.98 2.48 <
-4 7 1 5.94 5.86 2.10 <
-3 7 1 1.84 2.25 1.80 <
-2 7 1 2.91 1.58 1.73 <
-1 7 1 45.61 38.74 3.23 o
0 7 1 0.16 1.65 1.80 <
1 7 1 52.00 56.60 4.35 o
2 7 1 0.28 -1.95 2.63 <
-6 8 1 1.08 0.30 2.33 <
-5 8 1 3.92 4.20 3.00 <
-4 8 1 8.70 5.10 2.63 <
-3 8 1 5.81 6.38 2.63 <
-2 8 1 7.32 8.18 2.55 o
-1 8 1 0.04 0.60 2.48 <
0 8 1 0.88 3.60 2.70 <
1 8 1 15.07 21.02 3.68 o
-4 9 1 0.00 -1.05 3.30 <
-3 9 1 3.56 0.98 3.30 <
-2 9 1 0.00 -0.98 3.08 <
-1 9 1 12.90 14.34 3.75 o
0 -9 2 15.03 13.66 3.75 o
1 -9 2 6.48 8.41 3.38 <
2 -9 2 16.17 16.29 3.38 o
3 -9 2 107.76 117.71 4.35 o
4 -9 2 4.79 3.60 2.18 <
-2 -8 2 0.08 -1.65 2.85 <
-1 -8 2 1.77 0.23 2.63 <
0 -8 2 1.61 0.38 2.55 <
1 -8 2 2.97 8.26 2.70 o
2 -8 2 0.19 -0.98 2.25 <
3 -8 2 9.28 6.46 1.65 o
4 -8 2 10.25 12.69 1.95 o
5 -8 2 48.66 53.68 3.15 o
6 -8 2 7.76 7.58 2.33 o
-3 -7 2 76.42 80.10 4.95 o
-2 -7 2 17.57 18.84 2.93 o
-1 -7 2 3.95 3.98 3.53 <
0 -7 2 35.27 36.71 3.23 o
1 -7 2 44.33 45.94 3.30 o
2 -7 2 1.83 1.73 1.80 <
3 -7 2 0.04 0.45 1.80 <
4 -7 2 58.49 61.41 2.63 o
5 -7 2 26.59 29.20 2.33 o
6 -7 2 3.74 1.73 1.58 <
-3 -6 2 17.74 20.19 2.93 o
-2 -6 2 2.24 3.60 1.73 <
-1 -6 2 1.32 -0.30 1.58 <
0 -6 2 0.34 -0.83 1.20 <
1 -6 2 0.16 0.23 1.28 <
2 -6 2 72.43 62.91 3.30 o
3 -6 2 9.43 8.41 1.88 o
4 -6 2 30.45 26.80 1.80 o
5 -6 2 15.72 16.44 1.58 o
6 -6 2 25.73 23.80 2.18 o
-4 -5 2 24.92 23.72 3.30 o
-3 -5 2 51.75 41.96 2.70 o
-2 -5 2 56.32 42.72 2.70 o
-1 -5 2 116.18 90.61 3.75 o
0 -5 2 122.47 112.15 4.28 o
1 -5 2 6.87 7.73 1.43 o
2 -5 2 978.09 965.41 25.90 o
3 -5 2 50.35 45.49 1.73 o
4 -5 2 52.01 50.82 1.88 o
5 -5 2 69.99 62.76 2.10 o
6 -5 2 47.16 48.35 2.33 o
-4 -4 2 0.20 -0.75 1.20 <
-3 -4 2 0.53 0.45 1.05 <
-2 -4 2 89.88 69.21 2.93 o
-1 -4 2 47.07 37.99 2.10 o
1 -4 2 59.75 55.55 2.55 o
2 -4 2 221.86 208.70 6.38 o
3 -4 2 0.30 -0.75 0.45 <
4 -4 2 0.05 0.30 0.45 <
5 -4 2 1.52 1.28 0.53 <
6 -4 2 0.42 -0.08 0.98 <
-6 -3 2 15.04 15.84 2.63 o
-5 -3 2 12.35 12.01 1.73 o
-3 -3 2 19.35 17.27 1.43 o
-2 -3 2 28.64 25.52 1.58 o
-1 -3 2 109.61 117.56 3.83 o
1 -3 2 0.00 0.45 0.53 <
2 -3 2 52.21 50.82 1.43 o
3 -3 2 83.36 91.59 1.73 o
4 -3 2 165.06 166.81 2.85 o
5 -3 2 19.51 19.97 1.20 o
6 -3 2 4.56 2.25 0.98 <
-6 -2 2 50.16 58.03 2.93 o
-5 -2 2 4.87 4.35 0.90 o
-4 -2 2 410.92 462.13 12.31 o
-3 -2 2 16.72 16.37 1.13 o
-2 -2 2 43.38 43.39 1.73 o
-1 -2 2 341.07 416.87 11.19 o
0 -2 2 199.63 241.88 6.68 o
1 -2 2 55.44 52.92 1.28 o
2 -2 2 6.60 6.61 0.30 o
3 -2 2 146.20 158.17 2.55 o
4 -2 2 26.62 25.75 0.83 o
5 -2 2 6.19 6.16 0.53 o
-6 -1 2 1.52 0.68 0.98 <
-5 -1 2 0.01 -0.23 0.60 <
-4 -1 2 1.53 2.40 0.38 o
-3 -1 2 3.89 3.68 0.53 o
-2 -1 2 66.80 77.10 2.33 o
-1 -1 2 69.91 71.92 1.20 o
0 -1 2 5.46 8.33 0.23 o
1 -1 2 2163.53 2234.77 25.67 o
2 -1 2 150.45 163.20 2.18 o
3 -1 2 100.68 103.90 2.10 o
4 -1 2 75.57 70.64 1.58 o
5 -1 2 85.93 79.87 1.80 o
-7 0 2 2.87 3.38 1.43 <
-6 0 2 5.45 7.66 1.05 o
-5 0 2 24.97 25.07 1.35 o
-4 0 2 72.53 76.35 2.48 o
-3 0 2 382.49 429.85 7.96 o
-2 0 2 933.25 1059.39 15.76 o
-1 0 2 753.65 877.05 10.21 o
0 0 2 413.12 460.18 5.33 o
1 0 2 7116.66 7460.65 109.68 o
2 0 2 33.37 35.06 0.75 o
3 0 2 183.56 181.60 3.45 o
4 0 2 86.74 85.20 1.80 o
5 0 2 32.87 30.40 0.98 o
-7 1 2 8.14 8.26 1.43 o
-6 1 2 1.60 1.95 0.83 <
-5 1 2 0.44 0.60 0.53 <
-4 1 2 10.71 10.13 0.75 o
-3 1 2 148.06 142.03 2.78 o
-2 1 2 71.29 72.22 1.50 o
-1 1 2 228.21 254.04 3.30 o
0 1 2 34.18 31.53 0.53 o
1 1 2 86.64 96.39 1.88 o
2 1 2 0.55 0.83 0.23 o
3 1 2 7.70 8.48 0.38 o
4 1 2 1.38 1.65 0.38 o
-7 2 2 30.75 32.81 2.48 o
-6 2 2 4.16 3.45 0.90 o
-5 2 2 288.28 271.61 7.66 o
-4 2 2 78.84 71.17 1.50 o
-3 2 2 64.71 58.33 1.95 o
-2 2 2 463.58 504.17 13.21 o
-1 2 2 785.68 772.25 19.89 o
0 2 2 38.57 37.16 1.28 o
1 2 2 0.00 -0.23 0.23 <
2 2 2 76.00 80.70 1.88 o
3 2 2 85.53 81.53 2.70 o
-7 3 2 36.92 37.46 2.70 o
-6 3 2 20.77 16.52 1.58 o
-5 3 2 370.91 366.27 6.98 o
-4 3 2 0.11 -0.30 0.45 <
-3 3 2 46.72 45.34 1.80 o
-2 3 2 170.82 171.01 4.88 o
-1 3 2 31.20 35.06 1.35 o
1 3 2 0.03 1.05 0.68 <
2 3 2 16.09 16.14 1.43 o
3 3 2 0.19 0.38 0.98 <
-8 4 2 3.66 -0.30 2.63 <
-7 4 2 8.57 8.11 1.50 o
-6 4 2 7.01 8.33 1.13 o
-5 4 2 2.68 3.00 0.53 o
-4 4 2 16.51 13.21 1.13 o
-3 4 2 65.92 48.20 1.95 o
-2 4 2 32.55 28.53 1.43 o
0 4 2 646.19 599.89 16.37 o
1 4 2 47.91 42.34 2.25 o
2 4 2 41.38 36.11 2.18 o
3 4 2 32.89 33.78 2.33 o
-8 5 2 15.12 15.24 2.55 o
-7 5 2 8.66 9.46 1.80 o
-6 5 2 0.56 -0.08 1.13 <
-5 5 2 5.14 5.41 0.98 o
-4 5 2 91.80 69.29 2.85 o
-3 5 2 114.02 99.09 3.53 o
-2 5 2 36.90 35.21 1.80 o
-1 5 2 46.02 36.63 2.33 o
0 5 2 378.18 346.83 10.21 o
1 5 2 0.29 -0.23 1.28 <
2 5 2 38.77 34.46 2.63 o
3 5 2 9.98 7.73 2.03 o
-7 6 2 3.88 1.95 1.80 <
-6 6 2 2.15 3.45 1.35 <
-5 6 2 19.14 18.84 1.65 o
-4 6 2 11.83 10.96 1.28 o
-3 6 2 0.01 -1.58 1.35 <
-2 6 2 42.81 42.26 2.85 o
-1 6 2 0.43 2.33 1.35 <
0 6 2 2.90 2.93 1.50 <
1 6 2 9.54 9.76 2.03 o
2 6 2 6.15 7.21 2.25 o
-7 7 2 1.90 1.28 2.03 <
-6 7 2 203.62 232.12 5.86 o
-5 7 2 20.80 21.40 3.98 o
-4 7 2 18.24 25.30 3.08 o
-3 7 2 64.99 71.62 4.13 o
-2 7 2 57.09 62.98 3.90 o
-1 7 2 11.32 11.79 2.25 o
1 7 2 10.83 9.08 2.55 o
2 7 2 6.01 9.01 3.08 <
-6 8 2 62.93 59.76 5.86 o
-5 8 2 0.17 0.53 2.85 <
-4 8 2 2.47 5.41 2.70 <
-3 8 2 15.01 15.99 3.08 o
-2 8 2 3.43 0.90 2.48 <
-1 8 2 1.59 -2.03 2.40 <
0 8 2 1.70 -0.15 2.63 <
1 8 2 0.00 -1.05 3.38 <
-4 9 2 17.82 13.74 3.75 o
-3 9 2 3.99 3.00 3.30 <
-2 9 2 15.34 16.82 3.75 o
-1 9 2 125.31 152.92 7.58 o
0 -9 3 3.80 1.28 2.25 <
1 -9 3 0.13 -2.10 3.00 <
2 -9 3 2.78 -4.05 1.95 <
3 -9 3 0.64 -3.68 3.30 <
4 -9 3 24.47 23.95 2.63 o
-2 -8 3 133.98 137.83 6.53 o
-1 -8 3 0.08 -1.28 2.55 <
0 -8 3 1.85 0.83 2.48 <
1 -8 3 50.94 55.18 4.28 o
2 -8 3 2.37 2.25 1.58 <
3 -8 3 11.28 12.09 1.88 o
4 -8 3 0.05 -1.35 1.58 <
5 -8 3 0.10 -0.90 1.88 <
6 -8 3 4.37 4.05 2.25 <
-3 -7 3 73.90 67.26 4.65 o
-2 -7 3 77.45 80.10 4.50 o
0 -7 3 0.00 -0.08 1.80 <
1 -7 3 12.52 19.29 2.70 o
2 -7 3 9.59 12.24 2.40 o
3 -7 3 30.42 28.15 2.03 o
4 -7 3 0.06 -0.15 1.20 <
5 -7 3 19.90 21.70 2.33 o
6 -7 3 0.36 2.10 1.73 <
-3 -6 3 0.02 0.83 1.88 <
-2 -6 3 1.91 2.85 1.65 <
-1 -6 3 31.70 22.00 2.48 o
0 -6 3 32.34 26.35 2.48 o
1 -6 3 17.86 19.67 2.33 o
2 -6 3 5.39 7.06 1.80 o
3 -6 3 70.68 66.59 2.40 o
4 -6 3 2.81 3.00 1.05 <
5 -6 3 0.00 -0.08 1.13 <
6 -6 3 0.90 4.58 1.28 o
-4 -5 3 2.22 2.25 1.65 <
-3 -5 3 13.82 16.44 2.25 o
-2 -5 3 4.42 1.95 1.20 <
-1 -5 3 36.58 23.50 2.03 o
0 -5 3 68.58 64.56 3.08 o
1 -5 3 15.91 11.41 1.73 o
2 -5 3 1.68 1.13 0.68 <
3 -5 3 1.96 0.90 0.68 <
4 -5 3 3.15 3.98 0.90 o
5 -5 3 10.18 12.39 1.20 o
6 -5 3 20.93 16.97 1.80 o
-4 -4 3 0.16 0.38 1.28 <
-3 -4 3 11.01 9.38 1.58 o
-2 -4 3 3.15 3.68 1.05 o
-1 -4 3 0.34 0.68 0.90 <
0 -4 3 8.73 12.76 1.50 o
1 -4 3 3.57 5.93 1.80 o
2 -4 3 48.12 47.29 1.58 o
3 -4 3 61.73 57.50 1.73 o
4 -4 3 1.87 2.85 0.68 o
5 -4 3 0.13 -0.15 0.75 <
6 -4 3 17.99 15.01 1.65 o
-5 -3 3 25.09 28.98 2.03 o
-4 -3 3 140.72 144.36 4.65 o
-3 -3 3 454.43 421.07 12.01 o
-2 -3 3 1.88 3.00 0.83 o
-1 -3 3 24.55 21.62 1.43 o
0 -3 3 311.93 383.08 10.58 o
1 -3 3 2.46 2.63 0.45 o
2 -3 3 208.17 212.37 4.35 o
3 -3 3 3.30 5.03 0.60 o
4 -3 3 38.62 36.03 1.28 o
5 -3 3 4.99 4.65 0.53 o
-6 -2 3 14.43 16.59 2.03 o
-5 -2 3 1.31 1.35 0.60 <
-4 -2 3 53.78 54.80 2.18 o
-3 -2 3 58.80 59.38 1.20 o
-2 -2 3 20.54 22.00 0.83 o
-1 -2 3 25.88 29.13 0.90 o
0 -2 3 0.92 0.98 0.30 o
1 -2 3 22.65 24.92 0.75 o
2 -2 3 91.00 85.96 1.50 o
3 -2 3 18.01 18.77 0.68 o
4 -2 3 107.84 104.50 2.18 o
5 -2 3 1.96 2.25 0.45 o
-6 -1 3 20.62 19.89 1.95 o
-5 -1 3 18.07 17.19 0.90 o
-4 -1 3 0.41 0.00 0.30 <
-3 -1 3 1.66 1.73 0.45 o
-2 -1 3 83.22 97.89 2.03 o
-1 -1 3 137.40 146.39 2.33 o
0 -1 3 29.97 22.00 0.45 o
1 -1 3 79.64 84.98 1.43 o
2 -1 3 96.74 88.06 1.20 o
3 -1 3 0.39 0.60 0.15 o
4 -1 3 7.64 6.01 0.45 o
5 -1 3 7.49 5.41 0.75 o
-7 0 3 0.03 1.35 1.35 <
-6 0 3 86.37 97.89 3.60 o
-5 0 3 0.07 0.60 0.53 <
-4 0 3 96.75 99.54 2.18 o
-3 0 3 11.51 14.11 0.53 o
-2 0 3 0.00 0.23 0.08 o
-1 0 3 311.51 345.55 5.18 o
0 0 3 191.91 192.18 2.25 o
1 0 3 441.32 452.52 6.76 o
2 0 3 215.96 228.36 4.28 o
3 0 3 5.16 3.45 0.45 o
4 0 3 33.46 31.75 0.83 o
5 0 3 78.53 69.21 2.48 o
-7 1 3 2.68 5.03 1.43 o
-6 1 3 0.18 0.68 0.83 <
-5 1 3 12.54 9.61 0.98 o
-4 1 3 55.97 52.10 1.95 o
-3 1 3 26.64 24.77 0.68 o
-2 1 3 12.93 15.61 0.38 o
-1 1 3 63.73 62.98 1.05 o
0 1 3 12.67 15.16 0.38 o
1 1 3 88.56 100.37 1.65 o
2 1 3 10.43 10.28 0.38 o
3 1 3 2.61 3.23 0.23 o
4 1 3 3.10 2.63 0.38 o
-7 2 3 13.51 12.99 1.65 o
-6 2 3 3.83 3.30 0.90 o
-5 2 3 181.77 167.41 5.03 o
-4 2 3 290.08 277.01 5.25 o
-3 2 3 25.75 23.95 1.13 o
-2 2 3 77.95 75.67 2.40 o
-1 2 3 111.69 106.90 2.18 o
0 2 3 3.85 3.60 0.30 o
1 2 3 291.81 280.61 7.66 o
2 2 3 3.71 2.63 0.45 o
3 2 3 108.50 97.37 3.08 o
-8 3 3 18.90 25.82 3.45 o
-7 3 3 7.25 8.78 1.50 o
-6 3 3 1.60 1.58 0.98 <
-5 3 3 0.87 1.58 0.45 o
-4 3 3 6.49 7.28 0.90 o
-3 3 3 4.58 4.95 0.68 o
-2 3 3 21.71 22.07 1.13 o
-1 3 3 18.40 18.47 0.98 o
2 3 3 14.44 12.69 1.35 o
3 3 3 49.22 47.22 2.33 o
-8 4 3 0.36 2.25 2.03 <
-7 4 3 30.03 34.61 4.05 o
-6 4 3 11.89 14.11 1.73 o
-5 4 3 2.66 4.05 0.83 o
-4 4 3 19.70 14.71 1.28 o
-3 4 3 15.41 10.43 0.98 o
-2 4 3 14.94 15.24 1.05 o
-1 4 3 15.53 12.84 1.05 o
1 4 3 10.68 8.26 1.35 o
2 4 3 0.16 -0.23 1.13 <
3 4 3 7.56 6.38 1.58 o
-8 5 3 0.13 -0.60 2.18 <
-7 5 3 24.68 29.35 2.70 o
-6 5 3 0.19 0.75 1.05 <
-5 5 3 33.97 30.55 2.03 o
-4 5 3 0.00 0.60 0.75 <
-3 5 3 24.40 22.30 1.50 o
-2 5 3 11.93 12.69 1.20 o
0 5 3 189.28 169.06 5.78 o
1 5 3 72.88 69.37 3.30 o
2 5 3 12.16 13.96 2.03 o
-7 6 3 0.13 -1.43 1.65 <
-6 6 3 41.96 43.69 2.55 o
-5 6 3 38.30 41.74 2.10 o
-4 6 3 1.30 1.05 0.90 <
-3 6 3 3.89 4.20 0.90 o
-2 6 3 2.26 3.00 1.43 <
-1 6 3 0.63 1.05 1.50 <
0 6 3 4.62 5.63 1.80 o
1 6 3 0.46 -2.85 1.65 <
2 6 3 0.26 1.43 2.10 <
-7 7 3 0.90 1.05 2.10 <
-6 7 3 25.80 33.48 2.70 o
-5 7 3 9.87 12.76 1.65 o
-4 7 3 4.52 5.41 2.85 <
-3 7 3 9.09 11.34 3.00 o
-2 7 3 1.55 3.98 2.48 <
0 7 3 21.67 18.02 2.85 o
1 7 3 0.54 -0.53 2.40 <
2 7 3 42.48 43.62 4.88 o
-6 8 3 10.68 13.66 3.90 o
-5 8 3 0.59 1.65 2.93 <
-4 8 3 10.69 17.79 3.30 o
-3 8 3 7.74 10.81 2.85 o
-2 8 3 5.57 7.21 2.70 <
-1 8 3 7.60 4.43 2.85 <
0 8 3 0.01 0.45 2.93 <
1 8 3 0.13 0.83 3.53 <
-3 9 3 0.28 -5.33 3.38 <
-2 9 3 4.96 3.38 3.53 <
0 -9 4 24.83 29.88 2.85 o
1 -9 4 12.54 12.54 2.25 o
2 -9 4 2.85 2.40 1.95 <
3 -9 4 17.89 16.37 2.40 o
4 -9 4 49.57 60.36 3.68 o
-2 -8 4 5.07 6.01 2.18 <
-1 -8 4 3.10 1.65 1.73 <
0 -8 4 2.65 0.98 1.65 <
1 -8 4 9.36 7.96 1.73 o
2 -8 4 13.41 18.47 2.10 o
3 -8 4 0.92 -0.15 1.50 <
4 -8 4 9.18 11.19 1.88 o
5 -8 4 14.16 16.44 2.25 o
6 -8 4 44.16 49.62 3.98 o
-3 -7 4 0.01 6.53 2.55 <
-2 -7 4 163.94 152.24 4.80 o
-1 -7 4 23.64 23.95 3.30 o
0 -7 4 7.24 7.06 2.10 o
1 -7 4 41.27 40.01 2.18 o
2 -7 4 39.23 41.89 2.25 o
3 -7 4 0.20 -0.23 1.20 <
4 -7 4 1.79 1.80 1.35 <
5 -7 4 39.33 35.88 2.55 o
6 -7 4 7.96 18.62 2.70 o
-4 -6 4 0.06 1.43 3.23 <
-3 -6 4 0.07 0.15 1.20 <
-2 -6 4 1.28 2.70 1.73 <
-1 -6 4 4.50 5.48 1.65 o
0 -6 4 20.79 14.04 2.18 o
1 -6 4 9.55 6.83 1.13 o
2 -6 4 3.43 2.10 0.98 <
3 -6 4 160.79 159.52 4.05 o
4 -6 4 24.99 21.40 1.73 o
5 -6 4 24.30 24.32 1.88 o
6 -6 4 20.01 20.87 2.33 o
-4 -5 4 1.11 2.48 1.80 <
-3 -5 4 32.35 28.30 1.65 o
-2 -5 4 61.42 51.12 2.85 o
-1 -5 4 104.48 81.38 3.53 o
0 -5 4 166.93 133.70 4.95 o
1 -5 4 93.00 89.26 2.55 o
2 -5 4 22.47 21.32 1.35 o
3 -5 4 730.99 769.17 14.71 o
4 -5 4 25.19 24.17 1.43 o
5 -5 4 33.23 36.78 1.80 o
6 -5 4 32.00 33.71 2.25 o
-6 -4 4 8.98 2.93 1.95 <
-4 -4 4 0.29 0.60 1.28 <
-3 -4 4 0.01 -0.45 0.68 <
-2 -4 4 0.76 0.83 0.90 <
-1 -4 4 91.20 66.81 2.85 o
0 -4 4 19.61 15.01 1.05 o
1 -4 4 36.89 37.69 1.43 o
2 -4 4 27.77 25.22 1.50 o
3 -4 4 36.74 36.93 1.35 o
4 -4 4 0.01 0.45 0.60 <
5 -4 4 9.14 9.76 1.28 o
6 -4 4 0.59 0.15 0.98 <
-6 -3 4 0.17 -1.05 1.43 <
-5 -3 4 49.79 51.57 2.03 o
-4 -3 4 16.41 16.97 1.58 o
-3 -3 4 241.01 241.58 4.88 o
-2 -3 4 59.91 52.62 2.03 o
-1 -3 4 58.78 60.96 1.65 o
0 -3 4 212.73 247.36 5.03 o
1 -3 4 257.07 305.16 6.08 o
2 -3 4 2.62 1.50 0.45 o
3 -3 4 7.21 6.53 0.98 o
4 -3 4 58.62 63.13 1.58 o
5 -3 4 80.63 79.72 2.78 o
-7 -2 4 25.81 27.93 3.23 o
-6 -2 4 25.61 28.60 2.25 o
-5 -2 4 60.24 63.81 1.88 o
-3 -2 4 580.15 637.95 11.86 o
-2 -2 4 12.96 12.99 0.68 o
-1 -2 4 51.43 56.45 1.43 o
0 -2 4 202.68 250.29 4.88 o
1 -2 4 51.97 61.86 1.43 o
2 -2 4 10.42 7.51 0.38 o
3 -2 4 2.65 1.88 0.23 o
5 -2 4 0.91 0.90 0.60 <
-7 -1 4 4.34 5.41 1.73 o
-6 -1 4 8.37 7.13 1.28 o
-5 -1 4 3.21 2.18 0.53 o
-4 -1 4 4.66 3.38 0.45 o
-3 -1 4 14.79 16.52 0.60 o
-2 -1 4 33.32 41.14 0.98 o
-1 -1 4 270.65 326.41 6.08 o
0 -1 4 148.06 162.75 3.15 o
1 -1 4 3.14 2.78 0.30 o
2 -1 4 1290.44 1407.87 20.79 o
3 -1 4 84.80 91.21 2.78 o
4 -1 4 59.39 58.71 2.03 o
5 -1 4 41.55 40.61 1.80 o
-7 0 4 2.85 1.13 1.88 <
-6 0 4 19.28 20.42 1.73 o
-5 0 4 11.49 8.26 1.05 o
-4 0 4 14.33 14.11 0.68 o
-3 0 4 68.49 72.14 1.65 o
-2 0 4 596.55 708.36 10.51 o
-1 0 4 908.09 1052.94 19.14 o
0 0 4 265.48 291.05 4.43 o
1 0 4 150.17 164.93 2.63 o
2 0 4 1349.82 1450.96 26.20 o
3 0 4 2.86 2.33 0.53 o
5 0 4 16.82 14.86 1.73 o
-8 1 4 3.10 5.18 2.33 <
-7 1 4 6.10 7.13 1.43 o
-6 1 4 4.61 4.35 0.98 o
-5 1 4 8.87 10.13 1.05 o
-4 1 4 3.92 4.80 0.68 o
-3 1 4 35.48 37.76 0.90 o
-2 1 4 105.51 99.17 2.03 o
-1 1 4 1.45 1.35 0.15 o
0 1 4 193.60 201.04 3.08 o
1 1 4 1.81 1.50 0.23 o
2 1 4 1.38 2.63 0.45 o
3 1 4 3.96 4.73 0.38 o
4 1 4 17.92 18.47 1.35 o
5 1 4 4.47 2.55 1.13 <
-8 2 4 4.78 6.76 2.10 o
-7 2 4 13.98 12.54 1.65 o
-6 2 4 70.18 69.14 2.93 o
-5 2 4 0.03 -0.08 0.53 <
-4 2 4 729.94 704.61 18.54 o
-3 2 4 103.51 84.15 3.23 o
-2 2 4 129.80 122.74 2.55 o
-1 2 4 444.67 470.09 8.71 o
0 2 4 399.01 414.76 7.73 o
1 2 4 43.50 36.33 1.50 o
2 2 4 8.13 8.03 0.98 o
3 2 4 31.07 29.88 1.20 o
4 2 4 24.88 24.25 1.80 o
-8 3 4 31.36 31.08 3.45 o
-6 3 4 37.65 37.84 2.25 o
-5 3 4 19.39 15.69 1.43 o
-4 3 4 299.80 280.16 7.96 o
-3 3 4 0.02 -0.08 0.38 <
-2 3 4 18.78 16.89 1.05 o
-1 3 4 48.72 48.57 1.80 o
0 3 4 4.83 5.93 0.68 o
1 3 4 3.94 3.00 0.68 o
2 3 4 1.96 1.80 0.60 o
3 3 4 3.83 3.23 1.28 <
-8 4 4 2.30 3.53 2.18 <
-7 4 4 0.19 0.83 1.43 <
-6 4 4 17.53 20.79 1.95 o
-5 4 4 15.60 16.82 1.50 o
-4 4 4 10.31 9.61 1.13 o
-3 4 4 43.87 31.98 1.65 o
-2 4 4 106.33 90.16 3.08 o
-1 4 4 29.94 29.13 1.43 o
1 4 4 466.69 430.45 12.16 o
2 4 4 21.64 19.97 2.03 o
3 4 4 33.28 29.80 3.23 o
-8 5 4 4.90 9.46 2.33 o
-7 5 4 31.18 32.88 2.85 o
-5 5 4 1.06 1.35 0.90 <
-4 5 4 2.36 2.93 0.75 o
-3 5 4 68.09 50.67 2.33 o
-2 5 4 72.24 66.59 2.70 o
0 5 4 19.84 15.16 1.95 o
1 5 4 110.26 109.38 4.50 o
2 5 4 0.26 -2.18 1.73 <
-7 6 4 0.04 -0.53 1.73 <
-6 6 4 3.66 3.68 1.65 <
-4 6 4 32.64 32.66 2.25 o
-3 6 4 8.56 8.41 1.20 o
-1 6 4 43.08 44.74 3.15 o
0 6 4 0.82 2.03 1.65 <
1 6 4 1.20 1.35 1.95 <
2 6 4 11.08 9.68 2.63 o
-7 7 4 22.56 28.00 3.68 o
-6 7 4 8.10 8.86 1.95 o
-5 7 4 260.17 307.79 7.06 o
-4 7 4 11.88 14.34 2.70 o
-3 7 4 23.04 26.27 3.30 o
-2 7 4 54.42 63.21 4.13 o
-1 7 4 34.56 40.61 3.68 o
0 7 4 13.67 20.27 3.00 o
1 7 4 9.70 11.34 3.08 o
-5 8 4 30.06 37.76 4.80 o
-4 8 4 0.23 2.85 2.85 <
-3 8 4 0.01 0.23 2.70 <
-2 8 4 2.52 3.83 2.70 <
-1 8 4 2.61 1.13 2.93 <
0 8 4 12.69 11.04 3.53 o
0 -9 5 0.00 -1.95 2.10 <
1 -9 5 0.68 1.35 1.95 <
2 -9 5 1.01 1.43 1.95 <
3 -9 5 0.79 1.58 1.95 <
4 -9 5 4.30 4.13 2.25 <
-2 -8 5 43.54 38.29 3.15 o
-1 -8 5 184.17 191.96 5.33 o
0 -8 5 0.08 0.08 1.58 <
1 -8 5 2.46 1.20 1.58 <
2 -8 5 47.72 52.10 2.85 o
3 -8 5 0.72 1.43 1.58 <
4 -8 5 23.08 21.24 2.18 o
5 -8 5 0.47 1.35 2.40 <
-3 -7 5 0.02 -0.90 2.40 <
-2 -7 5 53.59 48.05 2.70 o
-1 -7 5 27.31 29.05 2.18 o
0 -7 5 2.17 2.10 1.28 <
1 -7 5 0.71 0.45 1.13 <
2 -7 5 0.03 0.00 1.20 <
3 -7 5 11.92 12.01 1.50 o
4 -7 5 7.21 7.43 1.43 o
5 -7 5 2.27 4.13 1.80 <
6 -7 5 18.44 27.48 3.08 o
-4 -6 5 10.61 13.36 2.70 o
-3 -6 5 2.58 3.15 1.73 <
-2 -6 5 0.09 -0.23 1.05 <
-1 -6 5 2.76 3.38 1.05 o
0 -6 5 39.67 26.95 1.65 o
1 -6 5 37.43 31.38 1.80 o
2 -6 5 6.13 7.73 1.20 o
3 -6 5 5.79 5.33 1.13 o
4 -6 5 32.25 31.30 1.80 o
5 -6 5 1.48 2.85 1.13 <
6 -6 5 0.31 1.73 1.50 <
-4 -5 5 86.07 95.11 4.20 o
-3 -5 5 0.14 -0.08 0.83 <
-2 -5 5 44.22 41.14 1.80 o
-1 -5 5 5.66 3.38 0.83 o
0 -5 5 5.28 3.60 0.75 o
1 -5 5 48.59 47.37 1.80 o
2 -5 5 27.32 24.47 1.35 o
3 -5 5 12.29 13.29 1.20 o
4 -5 5 40.30 38.51 1.65 o
5 -5 5 0.25 0.08 0.98 <
6 -5 5 4.30 4.35 1.35 o
-6 -4 5 3.05 -2.63 1.80 <
-4 -4 5 0.61 1.88 1.35 <
-3 -4 5 1.25 1.05 0.68 <
-2 -4 5 59.22 59.23 1.80 o
-1 -4 5 8.16 8.11 0.83 o
0 -4 5 0.10 -0.75 0.53 <
1 -4 5 26.61 29.73 1.28 o
2 -4 5 5.72 6.83 0.75 o
3 -4 5 26.29 27.78 1.65 o
4 -4 5 25.87 23.42 1.13 o
5 -4 5 0.70 1.20 0.90 <
6 -4 5 0.02 -0.68 1.13 <
-6 -3 5 99.31 108.70 4.50 o
-5 -3 5 31.20 36.26 1.65 o
-4 -3 5 16.19 19.22 1.73 o
-3 -3 5 194.08 187.15 3.98 o
-2 -3 5 435.65 467.84 9.01 o
-1 -3 5 5.38 6.91 0.83 o
0 -3 5 28.63 28.15 1.05 o
1 -3 5 101.62 112.91 2.55 o
2 -3 5 0.72 1.50 0.38 o
3 -3 5 125.06 129.95 2.85 o
4 -3 5 1.41 0.68 0.45 <
5 -3 5 50.61 55.10 2.33 o
-7 -2 5 0.19 -0.60 1.80 <
-6 -2 5 39.64 38.74 2.70 o
-5 -2 5 15.56 15.39 1.20 o
-4 -2 5 0.36 0.15 0.75 <
-3 -2 5 6.84 5.56 0.53 o
-2 -2 5 7.54 7.96 0.53 o
-1 -2 5 4.16 4.80 0.45 o
0 -2 5 7.60 8.56 0.53 o
1 -2 5 12.85 17.12 0.68 o
2 -2 5 3.96 4.05 0.30 o
3 -2 5 2.00 1.28 0.23 o
4 -2 5 15.24 15.31 1.13 o
5 -2 5 38.06 37.84 1.80 o
-7 -1 5 2.27 3.90 1.73 <
-6 -1 5 2.70 2.63 1.13 <
-5 -1 5 63.96 60.36 1.80 o
-4 -1 5 21.59 16.29 1.13 o
-3 -1 5 4.13 3.75 0.30 o
-2 -1 5 7.56 8.26 0.45 o
-1 -1 5 52.02 62.46 1.43 o
0 -1 5 110.42 111.86 2.33 o
1 -1 5 4.13 4.35 0.38 o
2 -1 5 0.86 1.65 0.23 o
3 -1 5 0.07 0.53 0.60 <
4 -1 5 0.27 0.60 0.53 <
5 -1 5 5.37 4.43 0.90 o
-8 0 5 126.00 143.38 6.08 o
-7 0 5 4.57 4.13 1.58 <
-6 0 5 0.03 1.50 0.90 <
-5 0 5 81.18 79.35 2.93 o
-4 0 5 2.58 3.15 0.45 o
-3 0 5 164.23 167.03 2.63 o
-2 0 5 1.41 2.78 0.23 o
-1 0 5 58.70 64.19 1.13 o
0 0 5 108.53 106.30 1.73 o
1 0 5 64.13 59.61 1.05 o
2 0 5 305.41 306.66 8.26 o
3 0 5 140.76 137.23 2.78 o
4 0 5 8.61 7.21 0.90 o
5 0 5 11.20 10.36 1.50 o
-8 1 5 5.49 6.38 2.25 <
-7 1 5 19.59 19.82 2.93 o
-6 1 5 4.88 6.31 1.13 o
-5 1 5 3.76 3.30 0.75 o
-4 1 5 51.42 45.64 1.88 o
-3 1 5 141.72 127.09 3.60 o
-2 1 5 18.80 17.12 0.60 o
-1 1 5 2.67 3.30 0.30 o
0 1 5 49.62 47.89 1.13 o
1 1 5 6.48 6.31 0.38 o
3 1 5 0.36 0.60 0.45 <
4 1 5 0.43 0.23 0.75 <
5 1 5 1.39 0.23 1.13 <
-8 2 5 2.49 0.15 2.03 <
-7 2 5 80.59 77.02 3.83 o
-6 2 5 25.61 25.45 1.95 o
-5 2 5 0.02 0.00 0.60 <
-4 2 5 121.59 112.00 3.60 o
-3 2 5 145.12 134.98 4.05 o
-2 2 5 16.64 13.36 0.60 o
-1 2 5 58.05 54.43 1.35 o
0 2 5 0.86 0.60 0.23 <
1 2 5 4.18 5.78 0.75 o
2 2 5 77.17 82.50 2.93 o
3 2 5 0.09 -0.68 0.60 <
4 2 5 74.69 75.22 3.08 o
-8 3 5 1.98 1.88 1.95 <
-7 3 5 6.24 7.28 1.58 o
-6 3 5 4.28 4.50 1.13 o
-5 3 5 2.19 1.73 0.83 <
-4 3 5 23.75 20.79 1.35 o
-3 3 5 0.49 0.30 0.45 <
-2 3 5 19.28 18.77 1.13 o
-1 3 5 7.42 7.88 0.53 o
0 3 5 14.81 15.99 0.75 o
1 3 5 6.66 6.08 0.90 o
2 3 5 0.27 0.60 0.68 <
3 3 5 6.14 5.71 1.13 o
-8 4 5 0.17 -0.08 2.10 <
-7 4 5 0.11 1.73 1.50 <
-6 4 5 48.80 50.52 2.78 o
-5 4 5 5.62 5.71 0.98 o
-4 4 5 23.97 24.25 1.58 o
-3 4 5 19.10 15.54 1.20 o
-2 4 5 0.31 0.08 0.53 <
-1 4 5 11.20 12.54 1.13 o
2 4 5 40.57 39.49 2.70 o
-7 5 5 0.46 2.18 1.65 <
-6 5 5 10.80 13.29 2.03 o
-5 5 5 0.02 1.73 0.98 <
-4 5 5 19.28 18.02 1.65 o
-3 5 5 1.68 1.43 0.75 <
-2 5 5 41.27 39.64 2.03 o
1 5 5 149.48 149.24 5.56 o
2 5 5 41.29 41.44 3.53 o
-7 6 5 0.23 -1.05 1.88 <
-6 6 5 0.04 1.28 1.43 <
-5 6 5 57.00 61.26 3.30 o
-4 6 5 34.19 40.01 2.48 o
-3 6 5 0.01 -0.75 0.90 <
-1 6 5 0.46 1.80 1.58 <
0 6 5 0.02 -0.90 1.88 <
1 6 5 0.07 3.00 2.10 <
2 6 5 0.34 2.85 3.53 <
-6 7 5 2.50 1.65 1.88 <
-5 7 5 2.03 4.35 1.58 <
-4 7 5 0.03 1.88 1.35 <
-3 7 5 0.44 0.15 2.10 <
-2 7 5 9.45 12.99 2.85 o
-1 7 5 10.48 14.19 2.78 o
0 7 5 0.88 1.88 2.48 <
1 7 5 5.23 3.75 3.08 <
-5 8 5 12.94 16.37 3.83 o
-4 8 5 0.85 2.18 3.08 <
-3 8 5 11.27 16.82 3.30 o
-2 8 5 4.99 10.51 3.38 o
-1 8 5 2.21 4.58 3.15 <
0 8 5 3.05 -4.13 3.53 <
1 -9 6 22.92 31.30 3.08 o
2 -9 6 5.95 7.58 2.10 o
3 -9 6 1.60 2.03 2.18 <
-2 -8 6 10.58 10.51 2.18 o
-1 -8 6 44.44 51.12 3.08 o
0 -8 6 17.04 19.29 2.10 o
1 -8 6 5.14 7.58 1.65 o
2 -8 6 20.62 22.45 2.18 o
3 -8 6 28.88 31.38 2.63 o
4 -8 6 0.76 -1.20 1.80 <
5 -8 6 3.11 5.10 2.18 <
-3 -7 6 31.21 33.33 3.90 o
-2 -7 6 1.85 6.16 1.58 o
-1 -7 6 213.22 222.66 8.03 o
0 -7 6 20.77 19.22 2.03 o
1 -7 6 5.43 7.88 1.35 o
2 -7 6 30.59 32.58 2.33 o
3 -7 6 18.54 19.07 2.03 o
4 -7 6 0.33 -0.38 1.35 <
5 -7 6 1.32 6.31 1.80 o
6 -7 6 21.73 22.00 3.15 o
-4 -6 6 6.13 8.18 2.48 o
-3 -6 6 0.26 0.68 1.88 <
-2 -6 6 1.16 3.15 1.13 <
-1 -6 6 6.97 4.73 1.13 o
0 -6 6 10.56 10.36 1.20 o
1 -6 6 60.47 50.60 2.10 o
2 -6 6 21.45 21.17 1.58 o
3 -6 6 3.48 2.93 1.05 <
4 -6 6 223.03 231.14 5.25 o
6 -6 6 18.31 21.09 2.70 o
-4 -5 6 5.85 9.46 2.03 o
-3 -5 6 8.30 10.66 1.20 o
-2 -5 6 24.17 24.25 1.50 o
-1 -5 6 39.86 36.11 1.65 o
0 -5 6 123.69 99.02 2.78 o
1 -5 6 147.20 128.67 3.23 o
2 -5 6 42.59 43.62 1.73 o
3 -5 6 32.28 32.51 1.58 o
4 -5 6 383.14 395.85 7.96 o
5 -5 6 7.57 7.96 1.35 o
6 -5 6 13.70 12.61 1.88 o
-6 -4 6 0.24 -4.43 1.80 <
-5 -4 6 8.55 8.03 2.03 o
-4 -4 6 1.61 4.13 1.43 <
-3 -4 6 1.37 -0.08 0.75 <
-2 -4 6 2.94 2.70 0.68 o
-1 -4 6 5.05 6.16 0.75 o
0 -4 6 68.56 59.01 1.80 o
1 -4 6 0.77 0.15 0.53 <
2 -4 6 36.95 35.58 1.35 o
3 -4 6 7.99 9.01 0.90 o
4 -4 6 1.35 1.95 0.68 <
5 -4 6 0.59 1.13 0.98 <
6 -4 6 16.84 14.19 1.65 o
-6 -3 6 4.58 4.58 1.58 <
-5 -3 6 13.24 13.66 1.43 o
-4 -3 6 105.97 108.18 3.98 o
-3 -3 6 10.12 9.53 0.90 o
-2 -3 6 600.06 623.01 11.79 o
-1 -3 6 93.78 90.38 2.25 o
0 -3 6 69.49 68.54 2.78 o
1 -3 6 178.58 195.63 4.05 o
2 -3 6 159.93 181.82 3.83 o
3 -3 6 4.52 10.13 0.75 o
4 -3 6 0.43 0.38 0.45 <
5 -3 6 33.81 29.35 1.88 o
-7 -2 6 3.23 1.05 1.88 <
-6 -2 6 40.42 45.49 2.85 o
-5 -2 6 48.85 51.35 1.80 o
-4 -2 6 51.45 52.55 1.65 o
-3 -2 6 25.67 26.05 0.98 o
-2 -2 6 479.83 526.54 9.91 o
-1 -2 6 5.55 5.33 0.45 o
0 -2 6 15.83 17.12 0.75 o
1 -2 6 49.53 55.78 1.43 o
2 -2 6 4.59 5.18 0.45 o
3 -2 6 2.11 2.78 0.45 o
4 -2 6 0.21 -0.23 0.60 <
5 -2 6 12.52 11.56 1.43 o
-7 -1 6 0.01 1.43 1.65 <
-6 -1 6 3.82 2.78 1.20 <
-5 -1 6 1.42 0.68 0.60 <
-4 -1 6 10.69 7.21 0.75 o
-3 -1 6 17.04 13.89 0.53 o
-2 -1 6 55.79 61.86 1.43 o
-1 -1 6 79.93 94.06 2.10 o
0 -1 6 306.39 341.05 9.16 o
1 -1 6 84.71 88.88 1.95 o
2 -1 6 0.28 0.60 0.30 <
3 -1 6 656.96 677.43 17.79 o
4 -1 6 44.03 42.41 1.88 o
5 -1 6 35.36 33.18 1.95 o
-8 0 6 40.06 43.54 4.20 o
-7 0 6 1.73 2.33 1.50 <
-6 0 6 9.18 8.48 1.20 o
-5 0 6 49.19 41.89 1.50 o
-4 0 6 13.76 7.28 0.68 o
-3 0 6 1.35 3.08 0.38 o
-2 0 6 26.76 25.07 0.60 o
-1 0 6 359.07 383.98 5.86 o
0 0 6 329.30 331.44 5.10 o
1 0 6 47.47 46.77 0.90 o
2 0 6 46.77 49.40 1.80 o
3 0 6 255.85 282.79 7.88 o
4 0 6 0.10 -0.15 0.68 <
5 0 6 9.30 9.61 1.28 o
-8 1 6 8.07 9.16 2.33 o
-7 1 6 2.28 3.00 1.43 <
-6 1 6 1.07 0.38 0.90 <
-5 1 6 0.00 0.90 0.60 <
-4 1 6 17.00 16.29 1.13 o
-3 1 6 58.85 54.95 1.35 o
-2 1 6 72.54 67.79 1.58 o
-1 1 6 56.15 52.47 1.28 o
0 1 6 13.26 13.14 0.53 o
1 1 6 119.65 124.39 3.75 o
2 1 6 0.09 0.00 0.53 <
3 1 6 0.00 -0.38 0.68 <
4 1 6 7.46 6.53 1.13 o
5 1 6 14.82 12.69 1.65 o
-8 2 6 23.23 20.49 2.63 o
-7 2 6 23.40 23.20 2.40 o
-6 2 6 47.18 49.70 2.55 o
-5 2 6 104.93 99.77 3.53 o
-4 2 6 5.45 3.98 0.68 o
-3 2 6 1016.61 1004.37 18.47 o
-2 2 6 71.19 62.08 2.18 o
-1 2 6 111.26 106.53 3.23 o
0 2 6 204.64 211.47 4.20 o
1 2 6 132.43 129.35 4.05 o
2 2 6 22.51 22.82 1.43 o
3 2 6 11.10 12.09 1.50 o
4 2 6 10.29 7.81 1.43 o
-8 3 6 2.03 0.15 2.10 <
-7 3 6 31.94 28.60 2.70 o
-6 3 6 42.50 37.01 2.33 o
-5 3 6 30.50 28.00 1.88 o
-4 3 6 7.02 6.23 0.90 o
-3 3 6 135.54 131.30 4.13 o
-2 3 6 0.90 0.68 0.30 <
-1 3 6 0.17 0.08 0.45 <
0 3 6 5.36 5.03 0.53 o
1 3 6 0.72 1.20 0.75 <
2 3 6 28.53 26.65 1.73 o
3 3 6 5.97 4.95 1.28 o
-8 4 6 6.85 9.16 2.25 o
-7 4 6 2.84 3.08 1.58 <
-5 4 6 30.60 32.06 2.10 o
-4 4 6 13.34 13.21 1.35 o
-3 4 6 8.01 8.41 1.20 o
-2 4 6 58.92 47.52 2.10 o
-1 4 6 97.18 95.71 3.30 o
2 4 6 253.53 249.16 7.88 o
-7 5 6 8.52 10.89 2.03 o
-6 5 6 38.97 48.65 2.93 o
-5 5 6 4.97 10.06 1.50 o
-4 5 6 3.46 4.80 1.05 o
-3 5 6 1.44 1.50 0.83 <
-2 5 6 32.79 25.22 1.80 o
1 5 6 4.06 1.13 1.80 <
2 5 6 18.39 25.67 3.45 o
-7 6 6 1.04 -1.73 1.95 <
-6 6 6 2.56 5.33 1.65 o
-5 6 6 1.20 0.68 1.28 <
-4 6 6 85.05 101.42 5.18 o
-3 6 6 38.12 39.49 2.40 o
0 6 6 36.69 33.86 5.10 o
1 6 6 0.13 6.16 2.63 <
-6 7 6 21.13 27.40 3.00 o
-5 7 6 12.78 14.34 2.03 o
-4 7 6 226.66 280.46 8.93 o
-3 7 6 4.71 11.04 2.70 o
-2 7 6 18.32 23.65 3.68 o
-1 7 6 30.00 31.98 4.20 o
0 7 6 14.90 28.23 4.50 o
1 7 6 8.02 1.13 3.60 <
-4 8 6 9.20 10.21 3.60 <
-3 8 6 2.78 4.50 3.30 <
-2 8 6 1.38 3.38 3.38 <
-1 8 6 0.00 5.71 3.45 <
1 -9 7 0.52 1.35 2.10 <
2 -9 7 0.01 2.85 2.10 <
-1 -8 7 66.73 74.85 3.45 o
0 -8 7 168.29 179.49 5.10 o
1 -8 7 0.75 2.63 1.73 <
2 -8 7 2.17 2.63 1.65 <
3 -8 7 26.23 26.27 2.63 o
4 -8 7 0.12 1.73 1.80 <
5 -8 7 25.91 36.03 3.98 o
-3 -7 7 9.70 11.41 3.08 o
-2 -7 7 1.26 -2.48 1.58 <
-1 -7 7 20.38 22.90 2.18 o
0 -7 7 1.04 1.50 1.35 <
1 -7 7 0.01 0.98 1.58 <
2 -7 7 2.71 0.75 1.43 <
3 -7 7 5.30 6.91 1.50 o
4 -7 7 8.61 8.56 2.03 o
5 -7 7 0.08 3.08 1.80 <
-4 -6 7 2.67 9.76 2.63 o
-3 -6 7 34.95 39.11 3.60 o
-2 -6 7 4.67 5.56 1.58 o
-1 -6 7 0.66 1.28 0.98 <
0 -6 7 0.49 1.20 0.90 <
1 -6 7 27.23 21.77 1.65 o
2 -6 7 30.65 29.95 1.80 o
3 -6 7 0.03 0.08 0.98 <
4 -6 7 1.62 2.40 1.28 <
5 -6 7 3.03 4.65 1.43 o
6 -6 7 0.71 -2.93 1.73 <
-4 -5 7 0.13 3.90 2.03 <
-3 -5 7 80.69 84.00 2.55 o
-2 -5 7 0.91 -1.13 0.83 <
-1 -5 7 60.33 56.83 2.03 o
0 -5 7 2.78 1.88 0.75 <
1 -5 7 1.27 1.13 0.68 <
2 -5 7 20.24 19.52 1.35 o
3 -5 7 21.02 20.64 1.35 o
4 -5 7 41.55 43.32 1.80 o
5 -5 7 65.93 60.13 3.08 o
6 -5 7 0.14 0.90 1.50 <
-6 -4 7 2.20 0.90 1.95 <
-5 -4 7 18.76 14.04 1.58 o
-4 -4 7 19.03 18.39 2.18 o
-3 -4 7 9.54 10.74 1.13 o
-2 -4 7 12.94 11.56 1.05 o
-1 -4 7 130.24 134.83 3.23 o
0 -4 7 8.84 8.18 0.90 o
1 -4 7 0.22 0.23 0.53 <
2 -4 7 23.73 23.35 1.20 o
3 -4 7 4.01 4.50 0.75 o
4 -4 7 7.40 8.41 1.13 o
5 -4 7 6.51 6.08 1.28 o
6 -4 7 0.22 -3.00 1.58 <
-6 -3 7 0.01 0.53 1.58 <
-5 -3 7 114.35 111.93 3.60 o
-4 -3 7 49.63 52.85 2.70 o
-3 -3 7 1.80 3.08 0.60 o
-2 -3 7 151.01 150.74 4.95 o
-1 -3 7 212.48 223.11 4.65 o
0 -3 7 5.04 6.16 0.68 o
1 -3 7 16.74 17.94 0.90 o
2 -3 7 8.60 9.98 1.05 o
3 -3 7 4.94 4.13 0.60 o
4 -3 7 53.56 59.68 2.48 o
5 -3 7 0.01 -1.28 0.98 <
6 -3 7 44.79 40.24 3.60 o
-7 -2 7 0.95 -0.23 1.95 <
-6 -2 7 1.67 2.48 1.35 <
-5 -2 7 18.70 18.77 1.35 o
-4 -2 7 7.63 8.11 0.83 o
-3 -2 7 0.38 0.53 0.38 <
-2 -2 7 4.35 5.25 0.53 o
-1 -2 7 1.92 2.55 0.45 o
1 -2 7 0.08 -0.08 0.30 <
2 -2 7 18.60 21.09 0.68 o
3 -2 7 0.47 -0.45 0.38 <
4 -2 7 1.16 1.05 0.75 <
5 -2 7 10.25 8.93 1.28 o
-7 -1 7 184.97 199.46 6.98 o
-6 -1 7 0.71 1.13 1.13 <
-5 -1 7 1.69 2.33 0.68 o
-4 -1 7 115.90 100.14 2.48 o
-3 -1 7 14.50 8.56 0.45 o
-2 -1 7 36.34 34.38 0.83 o
-1 -1 7 13.50 14.71 0.60 o
0 -1 7 4.62 5.78 0.38 o
1 -1 7 44.35 42.26 0.90 o
2 -1 7 19.60 20.04 0.75 o
3 -1 7 9.34 10.21 0.98 o
4 -1 7 22.17 21.47 1.50 o
5 -1 7 0.57 -1.05 1.05 <
-7 0 7 108.53 118.91 4.88 o
-6 0 7 3.17 4.95 1.13 o
-5 0 7 0.08 0.00 0.60 <
-4 0 7 43.78 38.81 0.98 o
-3 0 7 2.99 3.53 0.38 o
-2 0 7 111.81 115.01 2.48 o
-1 0 7 2.28 1.35 0.23 o
0 0 7 78.01 76.50 1.73 o
1 0 7 19.28 18.32 0.53 o
2 0 7 13.44 12.09 0.90 o
3 0 7 178.46 183.25 5.48 o
4 0 7 79.92 76.27 3.00 o
5 0 7 6.90 6.98 1.43 o
-8 1 7 2.22 5.56 2.33 <
-7 1 7 2.93 3.68 1.58 <
-6 1 7 49.12 49.92 2.63 o
-5 1 7 8.75 11.41 1.28 o
-4 1 7 5.39 6.38 0.90 o
-3 1 7 92.75 85.81 1.95 o
-2 1 7 156.80 147.29 4.28 o
-1 1 7 4.05 3.60 0.53 o
0 1 7 0.00 0.00 0.23 <
1 1 7 11.80 11.11 0.60 o
2 1 7 0.96 0.30 0.60 <
3 1 7 0.07 0.60 0.75 <
4 1 7 0.02 -2.18 1.05 <
5 1 7 5.16 6.16 1.65 o
-8 2 7 1.04 -3.60 2.03 <
-7 2 7 2.64 3.83 1.50 <
-6 2 7 56.76 52.85 2.70 o
-5 2 7 37.18 37.46 2.03 o
-4 2 7 4.24 3.98 0.75 o
-3 2 7 24.18 21.17 0.90 o
-2 2 7 18.54 15.76 0.75 o
-1 2 7 1.61 0.75 0.30 <
0 2 7 24.00 23.95 0.90 o
1 2 7 13.06 12.46 1.20 o
2 2 7 3.52 4.05 0.98 o
3 2 7 15.94 18.47 1.73 o
4 2 7 2.28 0.98 1.35 <
-8 3 7 7.98 8.11 2.25 o
-7 3 7 4.80 6.68 1.73 o
-5 3 7 0.28 -0.83 0.83 <
-4 3 7 2.87 3.23 0.83 o
-3 3 7 34.83 30.85 1.65 o
-2 3 7 0.00 -0.30 0.38 <
-1 3 7 21.17 18.99 0.90 o
0 3 7 1.83 1.43 0.45 o
1 3 7 6.37 6.46 1.05 o
2 3 7 1.83 0.75 0.98 <
3 3 7 0.03 -1.20 1.20 <
-7 4 7 0.32 -0.45 1.58 <
-6 4 7 0.17 -1.35 1.13 <
-5 4 7 50.13 52.77 2.70 o
-4 4 7 0.85 2.55 0.83 o
-3 4 7 48.43 48.72 2.25 o
-2 4 7 10.90 10.06 1.20 o
-1 4 7 5.99 6.08 0.98 o
0 4 7 5.65 6.16 1.05 o
1 4 7 16.55 18.62 1.73 o
2 4 7 45.27 48.72 3.45 o
-7 5 7 0.06 0.83 1.80 <
-6 5 7 0.92 0.83 1.35 <
-5 5 7 1.35 0.45 1.05 <
-4 5 7 1.92 2.93 1.05 <
-3 5 7 3.58 2.55 0.98 <
-2 5 7 3.55 1.65 0.90 <
1 5 7 0.27 0.00 2.10 <
-7 6 7 29.31 33.78 3.53 o
-6 6 7 0.95 -0.38 1.58 <
-5 6 7 0.39 1.05 1.43 <
-4 6 7 45.44 52.10 3.08 o
0 6 7 0.38 1.13 2.40 <
1 6 7 0.71 7.13 2.93 <
-6 7 7 7.84 5.63 2.33 <
-5 7 7 3.25 4.88 1.80 <
-4 7 7 4.85 5.33 1.73 o
-2 7 7 0.85 4.35 2.93 <
-1 7 7 7.54 8.71 3.30 <
0 7 7 15.66 25.67 4.05 o
-3 8 7 1.27 -1.80 3.68 <
-1 -8 8 10.67 8.71 2.10 o
0 -8 8 127.72 142.93 4.58 o
1 -8 8 34.90 39.11 2.70 o
2 -8 8 8.29 9.83 1.88 o
3 -8 8 27.37 32.88 2.85 o
4 -8 8 35.70 42.26 3.08 o
-3 -7 8 22.53 25.52 4.20 o
-2 -7 8 20.64 22.67 2.25 o
-1 -7 8 6.46 8.71 1.65 o
0 -7 8 174.61 184.22 4.88 o
1 -7 8 12.81 16.89 1.80 o
2 -7 8 0.67 2.33 1.28 <
3 -7 8 13.60 16.82 1.88 o
4 -7 8 3.27 6.16 1.58 o
5 -7 8 2.44 2.70 1.95 <
-4 -6 8 1.32 3.53 2.48 <
-3 -6 8 2.03 5.18 2.10 <
-2 -6 8 0.04 0.15 1.20 <
-1 -6 8 6.02 5.56 1.28 o
0 -6 8 27.05 20.72 1.65 o
1 -6 8 20.24 19.29 1.65 o
2 -6 8 89.66 84.08 2.70 o
3 -6 8 22.89 24.17 2.10 o
4 -6 8 0.62 -0.68 1.20 <
5 -6 8 214.42 207.65 7.06 o
6 -6 8 26.61 18.62 2.48 o
-5 -5 8 3.52 4.88 1.88 <
-4 -5 8 4.39 3.98 1.95 <
-3 -5 8 19.35 23.72 1.65 o
-2 -5 8 17.67 20.72 1.58 o
-1 -5 8 9.13 9.68 1.13 o
0 -5 8 12.78 11.34 1.20 o
1 -5 8 100.38 89.18 2.63 o
2 -5 8 88.22 84.23 2.55 o
3 -5 8 14.23 14.56 1.43 o
4 -5 8 27.78 30.85 1.73 o
5 -5 8 144.50 133.85 4.88 o
6 -5 8 0.98 -0.38 1.80 <
-6 -4 8 9.10 8.41 2.18 o
-5 -4 8 0.15 -1.95 1.95 <
-4 -4 8 1.94 4.50 1.58 <
-3 -4 8 0.50 1.73 0.75 <
-2 -4 8 9.46 8.26 0.98 o
-1 -4 8 30.58 31.90 1.43 o
0 -4 8 19.54 19.14 1.13 o
1 -4 8 42.68 38.89 1.50 o
2 -4 8 3.05 2.78 0.68 o
3 -4 8 36.50 38.89 1.58 o
4 -4 8 1.21 0.38 1.05 <
5 -4 8 0.35 -0.38 1.20 <
6 -4 8 1.74 3.23 1.65 <
-6 -3 8 46.26 47.59 3.23 o
-5 -3 8 21.55 20.04 1.65 o
-4 -3 8 51.01 54.88 2.85 o
-3 -3 8 141.17 137.68 3.23 o
-2 -3 8 0.94 0.98 0.53 <
-1 -3 8 788.63 835.83 15.69 o
0 -3 8 82.07 85.20 2.18 o
1 -3 8 52.76 56.53 1.65 o
2 -3 8 102.14 112.23 2.70 o
3 -3 8 81.78 80.48 2.25 o
4 -3 8 4.31 4.65 1.05 o
5 -3 8 3.92 4.50 1.20 o
-7 -2 8 1.01 0.30 1.95 <
-6 -2 8 1.87 2.55 1.50 <
-5 -2 8 43.48 48.12 1.88 o
-4 -2 8 58.96 59.61 1.88 o
-3 -2 8 31.95 33.03 0.98 o
-2 -2 8 17.14 17.12 1.35 o
-1 -2 8 204.94 214.25 4.43 o
0 -2 8 2.63 2.85 0.45 o
1 -2 8 0.05 -0.15 0.38 <
2 -2 8 6.73 7.28 0.75 o
3 -2 8 0.00 -0.68 0.45 <
4 -2 8 21.16 19.82 1.65 o
5 -2 8 4.18 4.50 1.28 o
-7 -1 8 0.47 3.38 1.88 <
-6 -1 8 3.16 2.85 1.13 <
-5 -1 8 5.45 4.13 0.90 o
-4 -1 8 2.85 2.78 0.68 o
-3 -1 8 27.05 19.07 0.68 o
-2 -1 8 18.85 15.99 0.68 o
-1 -1 8 47.58 48.20 1.05 o
0 -1 8 87.75 93.61 1.73 o
1 -1 8 199.55 203.29 3.98 o
2 -1 8 33.96 36.33 1.20 o
3 -1 8 5.15 5.18 0.83 o
4 -1 8 334.15 333.16 9.46 o
5 -1 8 17.95 15.01 1.80 o
-7 0 8 101.25 106.15 4.65 o
-6 0 8 1.94 5.03 1.28 o
-5 0 8 16.20 12.99 1.20 o
-4 0 8 65.98 53.60 1.28 o
-3 0 8 9.91 5.93 0.53 o
-2 0 8 0.81 0.90 0.30 o
-1 0 8 5.23 4.20 0.38 o
0 0 8 121.30 116.36 2.03 o
1 0 8 80.04 76.87 1.73 o
2 0 8 10.38 9.23 0.98 o
3 0 8 14.76 13.51 1.35 o
4 0 8 42.83 42.94 2.40 o
5 0 8 0.00 -0.53 1.43 <
-7 1 8 0.37 0.98 1.50 <
-5 1 8 2.59 2.85 0.90 o
-4 1 8 9.04 7.51 0.75 o
-3 1 8 14.47 14.11 0.75 o
-2 1 8 184.17 175.59 3.60 o
-1 1 8 83.36 77.92 1.80 o
0 1 8 33.75 33.78 1.05 o
1 1 8 23.35 25.07 0.90 o
2 1 8 73.40 75.37 2.85 o
3 1 8 0.00 1.35 0.90 <
4 1 8 0.13 -1.28 1.20 <
5 1 8 6.42 5.63 1.95 <
-7 2 8 28.20 28.90 2.93 o
-6 2 8 49.52 49.32 2.78 o
-5 2 8 85.68 86.33 3.38 o
-4 2 8 98.50 92.56 3.30 o
-3 2 8 16.73 15.09 0.90 o
-2 2 8 797.06 798.52 14.86 o
-1 2 8 31.24 29.73 1.58 o
0 2 8 55.14 55.25 1.58 o
1 2 8 75.25 75.75 2.93 o
2 2 8 40.80 39.41 2.18 o
3 2 8 9.02 9.98 1.50 o
4 2 8 6.35 7.43 3.00 <
-7 3 8 3.73 0.15 1.65 <
-6 3 8 23.10 19.52 2.18 o
-5 3 8 31.25 30.10 2.10 o
-4 3 8 22.27 22.37 1.73 o
-3 3 8 0.11 0.38 0.45 <
-2 3 8 31.98 29.43 1.20 o
-1 3 8 4.78 4.13 0.53 o
0 3 8 6.29 6.53 1.05 o
1 3 8 0.04 -0.15 0.83 <
2 3 8 0.36 -0.45 1.05 <
3 3 8 44.84 37.46 3.83 o
-7 4 8 13.51 15.76 2.33 o
-6 4 8 5.54 4.65 1.50 o
-4 4 8 40.07 49.47 2.48 o
-3 4 8 4.10 3.23 0.90 o
-2 4 8 1.54 2.40 0.83 <
-1 4 8 50.42 47.22 1.65 o
0 4 8 60.57 63.73 2.93 o
1 4 8 5.69 5.93 1.35 o
2 4 8 12.61 10.74 3.60 <
-7 5 8 0.07 1.43 1.88 <
-6 5 8 8.25 10.06 1.80 o
-5 5 8 29.43 35.06 2.70 o
-4 5 8 1.74 3.68 1.95 <
-3 5 8 1.17 1.05 0.98 <
-2 5 8 2.19 2.33 0.98 <
1 5 8 3.61 4.20 2.48 <
-6 6 8 7.51 9.38 2.10 o
-5 6 8 9.05 12.09 2.03 o
-4 6 8 0.04 1.88 1.43 <
-3 6 8 139.17 178.29 6.16 o
0 6 8 12.72 18.39 3.45 o
1 6 8 24.86 31.83 5.18 o
-5 7 8 13.69 14.49 2.33 o
-4 7 8 10.70 11.71 2.10 o
-1 7 8 9.00 10.36 3.75 <
-1 -8 9 2.30 7.58 2.18 o
0 -8 9 65.70 63.73 3.38 o
1 -8 9 94.60 104.20 4.05 o
2 -8 9 1.29 3.15 1.88 <
3 -8 9 1.07 3.98 2.03 <
-2 -7 9 4.54 5.93 1.80 o
-1 -7 9 2.66 2.48 1.50 <
0 -7 9 1.94 2.55 1.50 <
1 -7 9 4.65 1.50 1.43 <
2 -7 9 1.29 1.35 1.43 <
3 -7 9 4.04 6.08 1.65 o
4 -7 9 9.13 8.33 2.25 o
5 -7 9 4.05 1.95 2.33 <
-4 -6 9 1.03 8.11 2.78 <
-3 -6 9 1.67 7.28 2.40 o
-2 -6 9 64.80 73.42 2.78 o
-1 -6 9 5.04 7.43 1.35 o
0 -6 9 8.75 9.31 1.65 o
1 -6 9 0.47 1.50 1.05 <
2 -6 9 8.26 9.01 1.58 o
3 -6 9 19.09 19.29 1.95 o
4 -6 9 5.47 5.86 1.73 o
5 -6 9 0.34 -3.45 1.88 <
-5 -5 9 123.97 121.24 3.90 o
-4 -5 9 2.02 3.45 2.03 <
-3 -5 9 0.87 3.23 1.73 <
-2 -5 9 43.17 49.25 2.10 o
-1 -5 9 3.36 4.43 0.98 o
0 -5 9 38.01 36.03 1.73 o
1 -5 9 0.11 0.00 0.83 <
2 -5 9 9.89 10.66 1.20 o
3 -5 9 5.08 6.61 1.13 o
4 -5 9 9.19 8.86 1.58 o
5 -5 9 52.99 54.95 3.08 o
6 -5 9 53.77 37.16 3.68 o
-5 -4 9 0.00 -0.23 2.03 <
-3 -4 9 28.24 30.33 1.58 o
-2 -4 9 15.00 14.49 1.20 o
-1 -4 9 32.49 30.18 1.50 o
0 -4 9 144.82 153.22 3.68 o
1 -4 9 5.15 4.80 0.83 o
2 -4 9 0.10 0.60 0.68 <
3 -4 9 11.44 12.16 1.13 o
4 -4 9 1.43 3.15 1.20 <
5 -4 9 0.36 0.38 1.43 <
6 -4 9 0.86 3.83 2.10 <
-6 -3 9 0.20 -0.38 1.80 <
-5 -3 9 0.36 -1.95 1.20 <
-4 -3 9 84.87 86.71 2.55 o
-3 -3 9 59.45 61.11 1.95 o
-2 -3 9 3.49 3.15 0.68 o
-1 -3 9 54.74 51.87 1.65 o
0 -3 9 38.18 38.21 1.35 o
1 -3 9 1.55 2.03 0.60 o
2 -3 9 5.74 5.63 0.75 o
3 -3 9 1.93 2.55 0.68 o
4 -3 9 7.19 5.86 1.28 o
5 -3 9 16.90 20.34 2.33 o
-6 -2 9 8.48 8.93 1.58 o
-5 -2 9 4.32 6.61 1.05 o
-4 -2 9 4.52 4.35 0.83 o
-3 -2 9 0.13 0.00 0.45 <
-2 -2 9 0.89 0.75 0.38 <
-1 -2 9 17.15 16.37 0.90 o
0 -2 9 7.45 8.56 0.75 o
1 -2 9 8.80 9.83 0.60 o
2 -2 9 0.48 0.45 0.53 <
3 -2 9 10.68 10.06 1.35 o
4 -2 9 0.12 0.83 0.98 <
5 -2 9 0.43 0.23 2.33 <
-7 -1 9 62.02 66.14 4.28 o
-6 -1 9 259.59 270.63 6.08 o
-5 -1 9 0.02 -0.68 0.83 <
-4 -1 9 1.41 2.33 0.68 o
-3 -1 9 119.97 101.35 2.48 o
-2 -1 9 4.17 2.85 0.38 o
-1 -1 9 68.51 66.14 1.35 o
0 -1 9 10.69 10.06 0.53 o
1 -1 9 2.34 2.70 0.38 o
2 -1 9 15.01 17.04 0.90 o
3 -1 9 21.89 22.45 1.65 o
4 -1 9 30.19 35.96 2.33 o
5 -1 9 45.47 36.18 2.85 o
-7 0 9 34.25 39.41 3.53 o
-6 0 9 62.58 65.54 3.30 o
-5 0 9 0.06 0.00 0.83 <
-4 0 9 0.03 -0.15 0.45 <
-3 0 9 8.49 7.81 0.83 o
-2 0 9 0.35 0.38 0.30 <
-1 0 9 24.97 24.10 0.98 o
0 0 9 6.58 6.23 0.53 o
1 0 9 49.52 49.17 1.35 o
2 0 9 2.60 3.38 0.83 o
3 0 9 1.87 1.35 0.98 <
4 0 9 97.13 96.47 3.83 o
5 0 9 34.74 30.03 3.00 o
-7 1 9 4.22 4.50 1.88 <
-6 1 9 2.39 5.93 1.43 o
-5 1 9 70.06 72.29 3.08 o
-4 1 9 13.88 14.41 0.98 o
-3 1 9 1.30 0.53 0.45 <
-2 1 9 80.94 75.90 1.88 o
-1 1 9 80.87 78.52 2.78 o
0 1 9 0.25 0.45 0.38 <
1 1 9 0.26 0.15 0.68 <
2 1 9 0.37 0.30 0.90 <
3 1 9 0.07 0.38 1.05 <
4 1 9 1.49 2.85 1.65 <
5 1 9 0.01 0.38 2.78 <
-7 2 9 7.30 10.43 2.03 o
-6 2 9 1.49 3.98 1.35 <
-5 2 9 20.01 22.15 1.80 o
-4 2 9 37.05 37.01 2.03 o
-3 2 9 12.16 12.09 0.90 o
-2 2 9 1.66 1.65 0.45 o
-1 2 9 2.11 1.88 0.45 o
0 2 9 1.04 0.98 0.45 <
1 2 9 8.68 9.31 1.20 o
2 2 9 24.99 22.00 1.95 o
4 2 9 1.91 -0.15 1.80 <
-7 3 9 26.13 28.98 3.08 o
-6 3 9 5.60 6.08 1.50 o
-5 3 9 0.75 0.30 1.05 <
-4 3 9 1.78 2.40 0.98 <
-3 3 9 2.60 2.70 0.68 o
-2 3 9 18.21 17.49 1.05 o
-1 3 9 0.04 -0.15 0.53 <
0 3 9 10.93 11.86 1.13 o
1 3 9 0.54 0.00 0.98 <
2 3 9 0.79 0.23 2.33 <
3 3 9 0.01 -1.95 1.58 <
-7 4 9 108.13 117.11 5.18 o
-6 4 9 1.37 -1.20 1.50 <
-5 4 9 0.48 -0.38 1.20 <
-4 4 9 29.57 32.66 2.25 o
-3 4 9 0.06 0.60 0.90 <
-2 4 9 46.98 47.67 2.33 o
-1 4 9 3.18 3.53 0.75 o
0 4 9 18.23 18.99 2.03 o
1 4 9 2.62 4.50 1.50 <
-6 5 9 4.27 9.31 1.95 o
-5 5 9 1.04 1.13 1.35 <
-4 5 9 0.22 0.00 1.20 <
-3 5 9 6.63 7.36 1.35 o
-2 5 9 0.05 -0.30 1.13 <
-6 6 9 23.37 26.73 3.38 o
-5 6 9 2.28 4.28 1.80 <
-4 6 9 2.82 0.30 1.58 <
-3 6 9 18.47 24.55 2.70 o
0 6 9 0.39 1.05 3.45 <
-4 7 9 2.42 5.56 2.10 <
0 -8 10 4.93 7.21 2.18 o
1 -8 10 205.49 214.10 5.86 o
2 -8 10 41.21 47.82 3.15 o
-2 -7 10 26.67 35.73 3.23 o
-1 -7 10 8.74 12.09 1.88 o
0 -7 10 8.41 9.83 1.80 o
1 -7 10 87.78 92.26 3.45 o
2 -7 10 6.32 10.06 1.80 o
3 -7 10 1.35 2.93 1.65 <
4 -7 10 2.75 7.21 2.33 o
-3 -6 10 1.60 3.98 2.48 <
-2 -6 10 0.12 4.05 1.50 <
-1 -6 10 3.30 9.08 1.43 o
0 -6 10 9.82 16.14 1.73 o
1 -6 10 30.44 27.25 2.03 o
2 -6 10 28.26 24.85 2.55 o
3 -6 10 86.80 85.88 4.20 o
4 -6 10 14.90 15.09 2.40 o
5 -6 10 0.27 -1.05 2.03 <
-4 -5 10 6.88 8.86 2.40 o
-3 -5 10 9.20 11.94 2.33 o
-2 -5 10 29.11 31.83 1.88 o
-1 -5 10 17.95 21.40 1.65 o
0 -5 10 1.63 2.03 0.98 <
1 -5 10 2.15 2.40 0.98 <
2 -5 10 63.03 61.18 2.25 o
3 -5 10 38.77 41.29 2.10 o
4 -5 10 4.41 2.33 1.50 <
5 -5 10 15.00 9.23 2.03 o
-5 -4 10 0.29 -1.13 1.43 <
-4 -4 10 0.07 -0.60 1.05 <
-3 -4 10 2.03 2.10 0.98 <
-2 -4 10 10.67 10.21 1.13 o
-1 -4 10 16.65 14.26 1.28 o
0 -4 10 97.43 99.47 2.70 o
1 -4 10 38.66 37.31 1.65 o
2 -4 10 26.88 26.05 1.50 o
3 -4 10 9.65 11.94 1.20 o
4 -4 10 34.54 30.25 2.63 o
5 -4 10 0.06 -0.53 1.65 <
-6 -3 10 24.04 25.60 3.15 o
-5 -3 10 57.17 51.95 2.40 o
-4 -3 10 45.45 45.64 1.95 o
-3 -3 10 92.58 94.51 2.10 o
-2 -3 10 116.13 108.93 2.85 o
-1 -3 10 1.97 2.48 0.68 o
0 -3 10 650.08 683.97 13.06 o
1 -3 10 49.68 51.50 1.80 o
2 -3 10 29.41 31.98 1.43 o
3 -3 10 49.93 52.10 1.80 o
4 -3 10 32.73 34.61 2.55 o
5 -3 10 2.75 2.70 1.73 <
-6 -2 10 5.53 1.43 1.50 <
-5 -2 10 1.57 -0.45 1.20 <
-4 -2 10 34.83 35.66 1.65 o
-3 -2 10 43.53 42.04 1.28 o
-2 -2 10 17.50 15.76 0.83 o
-1 -2 10 4.86 4.95 0.53 o
0 -2 10 46.36 44.67 1.13 o
1 -2 10 3.67 3.90 0.45 o
2 -2 10 10.61 10.51 0.98 o
3 -2 10 0.00 -0.15 0.83 <
5 -2 10 36.15 42.79 3.15 o
-7 -1 10 23.98 33.78 3.90 o
-6 -1 10 16.69 20.49 2.63 o
-5 -1 10 13.83 14.71 1.50 o
-4 -1 10 10.22 7.21 0.90 o
-3 -1 10 20.03 17.94 0.83 o
-2 -1 10 42.93 35.13 1.05 o
-1 -1 10 9.07 8.56 0.60 o
0 -1 10 16.41 16.37 0.68 o
1 -1 10 70.21 66.29 1.43 o
2 -1 10 108.73 107.88 3.83 o
3 -1 10 11.39 11.94 1.58 o
4 -1 10 8.00 6.98 1.65 o
5 -1 10 138.10 128.29 5.10 o
-7 0 10 0.33 -0.38 2.03 <
-6 0 10 139.69 149.16 5.56 o
-4 0 10 15.41 13.06 0.98 o
-3 0 10 49.29 42.72 1.20 o
-2 0 10 3.88 3.23 0.45 o
-1 0 10 0.52 1.58 0.38 o
0 0 10 2.29 2.70 0.45 o
1 0 10 38.13 36.63 1.88 o
2 0 10 16.13 14.64 1.50 o
3 0 10 4.34 4.28 1.28 o
4 0 10 2.46 2.33 1.50 <
5 0 10 3.31 -1.43 2.18 <
-7 1 10 5.31 6.23 2.03 o
-6 1 10 4.45 4.43 1.50 <
-5 1 10 2.51 1.80 1.50 <
-4 1 10 21.70 22.90 1.28 o
-3 1 10 27.27 24.25 1.20 o
-2 1 10 5.27 6.46 0.75 o
-1 1 10 276.95 276.93 5.56 o
0 1 10 68.70 64.49 1.73 o
1 1 10 23.60 25.60 1.80 o
2 1 10 21.59 26.50 2.03 o
3 1 10 44.76 46.17 3.15 o
4 1 10 0.05 0.53 1.73 <
-7 2 10 6.16 8.41 2.03 o
-6 2 10 22.72 26.05 2.70 o
-5 2 10 62.19 58.40 4.13 o
-4 2 10 97.30 98.79 2.63 o
-3 2 10 57.38 53.83 1.80 o
-2 2 10 18.85 17.57 1.05 o
-1 2 10 418.86 430.00 8.41 o
0 2 10 11.96 11.41 0.90 o
1 2 10 18.77 18.02 1.80 o
3 2 10 9.87 11.41 1.95 o
4 2 10 1.95 1.50 2.25 <
-7 3 10 3.70 2.63 2.03 <
-6 3 10 7.91 9.08 1.80 o
-5 3 10 13.37 14.04 2.03 o
-4 3 10 12.35 12.61 1.73 o
-3 3 10 18.22 18.32 1.28 o
-2 3 10 1.58 2.63 0.75 o
-1 3 10 3.56 3.90 0.75 o
0 3 10 9.92 9.23 1.43 o
1 3 10 13.97 12.16 1.80 o
2 3 10 1.63 1.35 1.58 <
3 3 10 0.57 0.45 2.03 <
-7 4 10 71.90 76.65 5.10 o
-6 4 10 16.28 20.12 2.40 o
-5 4 10 9.84 10.89 1.65 o
-4 4 10 31.73 36.86 2.78 o
-3 4 10 37.58 47.59 2.63 o
-2 4 10 0.06 0.60 0.75 <
-1 4 10 0.05 0.45 1.05 <
0 4 10 29.84 27.55 2.48 o
1 4 10 28.10 32.13 2.85 o
-6 5 10 0.05 2.93 1.80 <
-5 5 10 3.72 4.88 1.73 <
-4 5 10 12.32 14.94 1.95 o
-3 5 10 0.33 0.68 1.28 <
-2 5 10 0.70 0.75 1.35 <
-5 6 10 16.59 21.85 2.55 o
-4 6 10 11.90 10.51 2.03 o
-3 6 10 1.94 3.60 1.80 <
0 6 10 7.78 16.07 4.28 o
-1 -7 11 0.18 1.73 1.88 <
0 -7 11 1.49 2.10 1.80 <
1 -7 11 0.54 3.08 1.73 <
2 -7 11 11.48 15.91 2.03 o
3 -7 11 2.59 8.26 1.95 o
-3 -6 11 0.22 6.31 2.78 <
-2 -6 11 1.06 2.93 1.50 <
-1 -6 11 74.61 81.38 3.08 o
0 -6 11 2.68 9.23 2.48 o
1 -6 11 23.46 27.63 2.10 o
2 -6 11 2.36 4.35 1.43 o
3 -6 11 0.08 2.55 1.58 <
4 -6 11 9.63 6.76 2.25 <
-4 -5 11 68.89 63.66 3.00 o
-3 -5 11 0.14 2.25 2.18 <
-2 -5 11 2.65 3.68 1.20 o
-1 -5 11 9.29 12.76 1.43 o
0 -5 11 3.40 4.58 1.43 o
1 -5 11 9.35 9.31 1.50 o
2 -5 11 0.84 1.43 1.13 <
3 -5 11 14.42 13.14 1.50 o
4 -5 11 0.53 2.55 1.73 <
5 -5 11 1.97 0.68 2.18 <
-5 -4 11 2.83 1.95 1.50 <
-4 -4 11 0.39 2.10 1.35 <
-3 -4 11 67.52 59.01 2.48 o
-2 -4 11 33.36 31.68 2.25 o
-1 -4 11 6.92 7.28 1.05 o
0 -4 11 39.10 35.73 1.73 o
1 -4 11 91.54 94.74 2.78 o
2 -4 11 2.07 0.83 1.05 <
3 -4 11 0.03 -0.23 1.05 <
4 -4 11 2.39 1.43 1.58 <
5 -4 11 0.05 0.23 1.95 <
-5 -3 11 6.77 6.61 1.50 o
-4 -3 11 0.75 1.20 1.05 <
-3 -3 11 36.67 37.23 1.43 o
-2 -3 11 49.62 47.97 1.43 o
-1 -3 11 15.72 12.76 1.20 o
0 -3 11 4.21 4.58 0.90 o
1 -3 11 0.08 0.60 0.53 <
2 -3 11 0.00 -0.75 0.83 <
3 -3 11 1.51 0.00 1.28 <
4 -3 11 11.22 8.78 1.73 o
5 -3 11 5.56 6.38 2.10 o
-6 -2 11 0.04 1.88 1.65 <
-5 -2 11 34.65 37.46 2.10 o
-4 -2 11 5.89 9.31 1.58 o
-3 -2 11 0.18 0.60 0.60 <
-2 -2 11 4.28 3.30 0.60 o
-1 -2 11 1.44 0.90 0.45 <
0 -2 11 13.10 11.49 0.75 o
1 -2 11 4.75 5.93 0.83 o
2 -2 11 7.34 7.58 0.90 o
4 -2 11 1.76 2.03 1.43 <
5 -2 11 0.49 2.33 2.03 <
-6 -1 11 93.76 97.22 4.58 o
-5 -1 11 251.52 258.54 5.86 o
-4 -1 11 0.64 -0.90 0.83 <
-3 -1 11 1.15 2.03 0.60 o
-2 -1 11 71.54 66.14 1.58 o
-1 -1 11 0.10 0.00 0.45 <
0 -1 11 64.41 65.01 1.95 o
1 -1 11 4.48 3.68 0.75 o
2 -1 11 13.87 16.67 1.65 o
3 -1 11 5.36 6.31 1.65 o
4 -1 11 15.20 11.56 1.95 o
5 -1 11 41.53 42.64 3.83 o
-6 0 11 8.22 12.24 2.03 o
-5 0 11 21.67 26.35 2.48 o
-4 0 11 3.81 2.93 0.90 o
-3 0 11 0.09 0.45 0.53 <
-2 0 11 0.05 0.15 0.45 <
-1 0 11 0.65 1.13 0.45 <
0 0 11 0.26 0.83 0.53 <
1 0 11 6.42 6.08 1.13 o
2 0 11 26.64 24.62 2.10 o
3 0 11 0.27 0.30 1.35 <
4 0 11 0.06 3.75 1.88 <
-7 1 11 9.34 10.06 2.33 o
-6 1 11 1.33 -0.08 1.58 <
-5 1 11 3.26 5.03 1.35 o
-4 1 11 59.91 60.58 1.95 o
-3 1 11 16.75 16.37 1.20 o
-2 1 11 0.85 1.13 0.60 <
-1 1 11 37.70 36.78 1.43 o
0 1 11 17.49 16.07 1.13 o
1 1 11 0.01 0.98 1.05 <
2 1 11 0.30 2.33 1.35 <
3 1 11 1.82 2.33 1.58 <
4 1 11 0.99 0.75 2.03 <
-7 2 11 0.24 -2.55 2.03 <
-6 2 11 11.91 17.64 2.70 o
-5 2 11 0.21 2.03 1.35 <
-4 2 11 1.09 0.30 0.75 <
-3 2 11 24.15 23.80 1.35 o
-2 2 11 12.65 13.89 1.20 o
-1 2 11 24.83 24.40 1.35 o
0 2 11 16.13 14.86 1.80 o
1 2 11 4.61 4.58 1.58 <
2 2 11 3.58 5.63 1.58 o
3 2 11 20.59 22.15 2.93 o
-6 3 11 49.94 56.68 3.60 o
-5 3 11 3.58 3.83 1.43 <
-4 3 11 1.88 1.05 1.50 <
-3 3 11 6.45 7.28 0.98 o
-2 3 11 1.38 1.50 0.83 <
-1 3 11 3.29 2.33 0.83 <
0 3 11 0.29 -1.13 1.28 <
1 3 11 1.73 0.68 1.50 <
2 3 11 0.12 -0.98 1.80 <
3 3 11 0.20 0.75 2.33 <
-6 4 11 65.94 70.12 4.13 o
-5 4 11 0.93 0.53 1.58 <
-4 4 11 0.83 0.38 1.35 <
-2 4 11 0.57 0.60 0.90 <
-1 4 11 27.41 35.21 2.78 o
0 4 11 0.16 1.13 1.73 <
1 4 11 22.40 26.73 3.30 o
-5 5 11 11.89 12.54 2.18 o
-4 5 11 0.64 0.83 1.58 <
-3 5 11 1.08 0.68 1.58 <
-2 5 11 9.25 10.36 1.80 o
-4 6 11 3.38 1.05 2.18 <
-3 6 11 5.86 6.76 2.18 o
-1 -7 12 20.60 26.35 2.70 o
0 -7 12 2.79 9.31 2.03 o
1 -7 12 5.58 9.91 1.95 o
2 -7 12 24.09 30.18 2.93 o
-2 -6 12 3.28 5.33 1.88 <
-1 -6 12 4.87 7.36 1.65 o
0 -6 12 12.85 19.14 2.10 o
1 -6 12 8.06 11.86 1.73 o
2 -6 12 16.85 13.96 2.33 o
3 -6 12 28.49 23.27 3.23 o
-4 -5 12 103.33 96.92 3.68 o
-3 -5 12 7.35 8.86 2.63 o
-2 -5 12 8.71 6.08 1.50 o
-1 -5 12 24.41 19.22 2.55 o
0 -5 12 8.54 6.61 1.65 o
1 -5 12 0.50 0.83 1.20 <
2 -5 12 0.61 0.00 1.35 <
3 -5 12 33.27 32.36 3.15 o
4 -5 12 11.86 11.41 2.40 o
-4 -4 12 6.88 5.71 1.58 o
-3 -4 12 2.17 2.40 1.28 <
-2 -4 12 20.51 20.12 1.73 o
-1 -4 12 26.35 23.12 1.73 o
0 -4 12 13.95 12.91 1.43 o
1 -4 12 165.74 164.10 4.13 o
2 -4 12 47.03 44.29 2.10 o
3 -4 12 17.67 18.24 2.25 o
4 -4 12 11.93 11.11 2.03 o
-5 -3 12 16.74 22.22 2.48 o
-4 -3 12 44.92 40.54 2.33 o
-3 -3 12 58.46 59.61 1.80 o
-2 -3 12 103.88 99.54 2.70 o
-1 -3 12 61.85 58.78 1.65 o
0 -3 12 8.22 7.28 0.83 o
1 -3 12 388.12 397.20 8.11 o
2 -3 12 23.10 21.47 1.65 o
3 -3 12 10.79 10.96 1.73 o
4 -3 12 18.63 20.94 2.93 o
-6 -2 12 8.08 6.61 2.03 o
-5 -2 12 5.13 3.68 1.50 <
-4 -2 12 3.35 5.93 1.20 o
-3 -2 12 23.36 22.82 1.35 o
-2 -2 12 18.19 19.07 1.05 o
-1 -2 12 12.26 12.16 0.98 o
0 -2 12 0.18 -0.08 0.53 <
1 -2 12 4.09 4.35 0.98 o
2 -2 12 6.14 6.91 1.13 o
3 -2 12 20.45 22.52 2.33 o
4 -2 12 1.27 3.75 1.88 <
-6 -1 12 20.20 20.12 3.08 o
-5 -1 12 86.78 88.36 3.08 o
-4 -1 12 25.32 27.78 1.80 o
-3 -1 12 15.94 13.96 1.13 o
-2 -1 12 35.41 32.73 1.28 o
-1 -1 12 45.70 43.92 1.35 o
0 -1 12 1.84 2.18 0.60 o
1 -1 12 2.10 2.70 0.90 <
2 -1 12 43.95 40.76 2.55 o
3 -1 12 49.76 52.70 3.15 o
4 -1 12 2.36 2.25 2.03 <
-6 0 12 0.85 3.08 1.88 <
-5 0 12 116.93 121.16 4.80 o
-3 0 12 6.14 9.08 0.90 o
-2 0 12 20.52 21.40 1.05 o
-1 0 12 0.39 0.00 0.60 <
0 0 12 1.17 2.70 1.05 <
1 0 12 4.04 3.45 1.28 <
2 0 12 13.06 10.13 1.73 o
3 0 12 1.72 1.95 1.65 <
4 0 12 3.56 1.05 2.18 <
-6 1 12 12.61 15.01 2.25 o
-5 1 12 16.67 18.47 2.40 o
-4 1 12 12.73 12.39 1.58 o
-3 1 12 47.14 49.17 1.88 o
-2 1 12 33.45 32.36 1.50 o
-1 1 12 0.25 1.43 0.75 <
0 1 12 273.64 283.09 8.56 o
1 1 12 44.53 44.14 2.70 o
2 1 12 15.51 16.52 2.33 o
3 1 12 14.14 14.49 2.33 o
-6 2 12 0.67 0.98 1.80 <
-5 2 12 12.94 12.46 1.88 o
-4 2 12 51.57 49.85 2.18 o
-3 2 12 75.01 77.25 2.48 o
-2 2 12 22.28 22.82 1.43 o
-1 2 12 11.81 11.64 1.13 o
0 2 12 162.68 166.36 5.86 o
1 2 12 4.77 3.75 1.58 <
2 2 12 3.62 7.43 1.95 o
3 2 12 4.09 2.48 2.33 <
-6 3 12 0.06 2.55 1.95 <
-5 3 12 14.31 18.84 2.63 o
-4 3 12 7.84 8.86 1.65 o
-3 3 12 1.34 1.65 1.35 <
-2 3 12 17.68 21.09 1.73 o
-1 3 12 3.13 3.23 1.58 <
0 3 12 0.12 1.73 1.58 <
1 3 12 11.46 11.86 2.18 o
2 3 12 12.83 11.49 2.63 o
-5 4 12 13.50 17.94 2.25 o
-4 4 12 11.92 15.76 2.10 o
-3 4 12 31.57 38.44 3.00 o
-2 4 12 25.06 30.33 2.25 o
-1 4 12 0.69 3.38 1.88 <
0 4 12 0.85 1.13 2.03 <
1 4 12 12.18 9.83 2.48 o
-4 5 12 0.21 1.28 1.80 <
-3 5 12 1.96 -1.43 1.80 <
-2 -6 13 0.00 -1.58 3.23 <
-1 -6 13 0.47 0.83 1.80 <
0 -6 13 54.45 55.78 3.08 o
1 -6 13 0.30 2.48 1.73 <
2 -6 13 30.21 23.87 2.70 o
-3 -5 13 20.46 22.90 2.55 o
-2 -5 13 1.46 1.58 1.58 <
-1 -5 13 4.89 6.16 1.58 o
0 -5 13 0.00 -0.53 1.43 <
1 -5 13 1.28 2.70 1.50 <
2 -5 13 0.06 3.60 1.58 <
3 -5 13 2.83 -0.45 2.18 <
-4 -4 13 1.34 3.90 1.73 <
-3 -4 13 0.09 -2.70 1.43 <
-2 -4 13 58.59 52.32 1.95 o
-1 -4 13 31.20 28.23 1.73 o
0 -4 13 0.05 0.08 0.90 <
1 -4 13 26.27 23.35 1.95 o
2 -4 13 30.40 31.98 2.33 o
3 -4 13 0.80 -1.20 1.88 <
4 -4 13 0.01 3.90 2.18 <
-5 -3 13 0.17 1.50 1.80 <
-4 -3 13 14.14 13.44 1.80 o
-3 -3 13 0.47 0.98 1.28 <
-2 -3 13 6.49 7.58 1.20 o
-1 -3 13 28.35 24.77 1.43 o
0 -3 13 18.85 14.71 1.28 o
1 -3 13 3.59 4.20 1.20 o
2 -3 13 13.59 12.54 1.50 o
3 -3 13 0.77 4.65 1.80 <
4 -3 13 0.40 2.33 2.18 <
-5 -2 13 5.53 4.65 1.80 <
-4 -2 13 74.52 76.57 3.00 o
-3 -2 13 5.04 7.21 0.98 o
-2 -2 13 0.24 0.60 0.75 <
-1 -2 13 11.85 13.06 1.13 o
0 -2 13 1.45 2.25 1.65 <
1 -2 13 3.53 2.10 1.13 <
2 -2 13 1.14 2.55 1.50 <
3 -2 13 1.43 2.40 1.73 <
4 -2 13 0.32 5.18 2.33 <
-5 -1 13 87.88 95.26 3.45 o
-4 -1 13 162.21 160.73 4.28 o
-3 -1 13 0.52 -0.15 0.90 <
-2 -1 13 0.60 1.58 0.75 <
-1 -1 13 23.72 24.85 1.20 o
0 -1 13 0.64 0.23 1.50 <
1 -1 13 39.58 43.39 2.78 o
2 -1 13 0.62 1.95 1.50 <
3 -1 13 20.59 22.97 3.15 o
-6 0 13 1.02 0.83 2.18 <
-5 0 13 0.01 -1.20 1.65 <
-4 0 13 3.56 4.05 1.43 <
-3 0 13 14.22 15.09 1.50 o
-2 0 13 0.65 1.05 0.83 <
-1 0 13 2.61 2.93 0.83 o
0 0 13 3.03 1.95 1.35 <
1 0 13 2.05 0.60 1.43 <
2 0 13 4.45 4.05 1.65 <
3 0 13 12.46 13.81 2.48 o
-6 1 13 6.08 10.13 2.40 o
-5 1 13 0.57 1.05 1.73 <
-4 1 13 4.46 6.08 1.50 o
-3 1 13 29.00 28.90 1.73 o
-2 1 13 15.29 15.91 1.58 o
-1 1 13 7.40 10.66 1.73 o
0 1 13 6.70 7.73 1.50 o
1 1 13 0.00 1.50 1.50 <
2 1 13 0.09 0.53 1.88 <
3 1 13 0.24 0.00 2.33 <
-6 2 13 0.27 -2.48 2.10 <
-5 2 13 7.82 5.63 1.88 <
-4 2 13 0.13 -0.38 1.43 <
-2 2 13 9.98 9.38 1.20 o
-1 2 13 7.03 7.81 1.65 o
0 2 13 36.60 40.09 3.00 o
1 2 13 17.76 22.45 2.85 o
2 2 13 4.69 10.51 2.48 o
-5 3 13 59.03 65.99 4.13 o
-4 3 13 1.29 0.75 1.65 <
-3 3 13 1.54 3.15 1.28 <
-2 3 13 6.84 5.25 1.88 <
-1 3 13 0.28 0.60 1.80 <
0 3 13 0.03 1.13 1.95 <
1 3 13 0.37 -1.73 2.25 <
-4 4 13 0.01 2.48 1.88 <
-3 4 13 0.92 1.80 1.80 <
-1 4 13 0.45 2.33 2.10 <
0 4 13 9.93 15.01 2.78 o
-2 -5 14 5.46 4.50 1.50 <
-1 -5 14 2.87 2.63 1.35 <
0 -5 14 11.30 13.36 1.95 o
1 -5 14 1.02 1.50 1.65 <
2 -5 14 1.73 2.40 1.88 <
-3 -4 14 25.08 22.82 2.40 o
-2 -4 14 7.96 6.38 1.28 o
-1 -4 14 45.27 36.18 1.95 o
0 -4 14 31.14 28.75 2.25 o
1 -4 14 5.78 9.91 2.70 o
2 -4 14 182.50 167.11 4.65 o
3 -4 14 38.73 31.00 3.68 o
-4 -3 14 5.54 10.43 1.95 o
-3 -3 14 23.47 20.49 2.10 o
-2 -3 14 52.30 55.93 2.10 o
-1 -3 14 81.35 76.80 2.25 o
0 -3 14 22.73 22.75 2.03 o
1 -3 14 9.74 7.36 1.88 o
2 -3 14 170.04 167.78 6.16 o
3 -3 14 8.48 9.08 2.40 o
-4 -2 14 0.10 -2.03 1.58 <
-3 -2 14 8.75 9.46 1.58 o
-2 -2 14 15.30 16.67 1.88 o
-1 -2 14 3.05 3.75 0.98 o
0 -2 14 12.46 10.66 1.50 o
1 -2 14 0.44 0.98 1.35 <
2 -2 14 0.02 -0.53 1.65 <
3 -2 14 7.11 9.83 2.40 o
-5 -1 14 10.29 15.61 2.48 o
-4 -1 14 166.80 170.71 4.65 o
-3 -1 14 28.07 31.38 1.80 o
-2 -1 14 17.13 19.67 1.43 o
-1 -1 14 35.30 38.51 2.18 o
0 -1 14 33.60 40.01 2.93 o
1 -1 14 0.01 2.18 1.65 <
2 -1 14 0.00 -2.25 1.73 <
3 -1 14 20.69 16.67 2.85 o
-5 0 14 0.31 -1.50 1.95 <
-4 0 14 59.03 66.36 3.68 o
-3 0 14 1.27 0.68 1.35 <
-2 0 14 0.09 0.23 1.05 <
-1 0 14 3.52 5.86 1.58 o
0 0 14 0.14 -0.08 1.58 <
1 0 14 9.93 12.09 2.18 o
2 0 14 6.82 7.58 2.25 o
-5 1 14 14.61 22.75 3.45 o
-4 1 14 20.71 21.32 2.85 o
-3 1 14 23.30 27.03 2.03 o
-2 1 14 56.59 57.88 2.33 o
-1 1 14 23.77 27.63 2.70 o
0 1 14 0.81 0.23 1.58 <
1 1 14 192.15 196.91 7.06 o
2 1 14 22.26 21.85 3.00 o
-5 2 14 0.32 -3.00 2.03 <
-4 2 14 6.28 7.81 2.10 o
-3 2 14 30.61 29.50 2.25 o
-2 2 14 41.85 45.94 3.53 o
-1 2 14 6.73 7.58 1.95 o
0 2 14 4.04 7.88 2.10 o
1 2 14 44.66 51.50 4.13 o
-4 3 14 19.34 26.80 3.60 o
-3 3 14 5.65 7.06 1.65 o
-2 3 14 0.47 -1.20 1.95 <
-1 3 14 16.88 18.62 2.85 o
0 3 14 2.12 -1.73 2.40 <
0 -5 15 5.95 3.60 2.33 <
-2 -4 15 0.26 1.65 1.43 <
-1 -4 15 30.57 32.28 2.63 o
0 -4 15 23.50 28.15 2.63 o
1 -4 15 3.99 5.48 1.88 <
-3 -3 15 10.81 12.99 2.03 o
-2 -3 15 0.02 1.58 1.28 <
-1 -3 15 0.03 3.38 1.65 <
0 -3 15 10.56 15.09 1.88 o
1 -3 15 11.63 8.33 1.88 o
2 -3 15 14.54 15.31 2.55 o
-4 -2 15 19.21 19.89 2.25 o
-3 -2 15 95.12 90.53 3.45 o
-2 -2 15 3.06 5.33 1.28 o
-1 -2 15 0.62 -0.30 1.43 <
0 -2 15 12.44 13.44 1.80 o
1 -2 15 0.75 0.83 1.88 <
2 -2 15 0.01 4.13 2.33 <
-4 -1 15 49.75 58.93 3.98 o
-3 -1 15 64.63 69.06 2.78 o
-2 -1 15 0.00 0.68 1.20 <
-1 -1 15 0.16 -1.88 1.65 <
0 -1 15 2.68 1.58 1.88 <
1 -1 15 1.41 -1.80 1.95 <
2 -1 15 16.15 13.44 2.78 o
-4 0 15 3.35 3.60 2.10 <
-3 0 15 0.12 2.78 1.35 <
-2 0 15 18.82 22.45 3.08 o
-1 0 15 1.12 1.28 1.73 <
0 0 15 1.77 2.25 2.03 <
1 0 15 3.53 4.35 2.25 <
-4 1 15 6.77 3.53 2.18 <
-3 1 15 4.27 4.65 1.50 o
-2 1 15 5.78 6.16 2.03 o
-1 1 15 10.90 12.54 2.33 o
0 1 15 12.22 13.21 2.40 o
1 1 15 0.23 -5.03 2.33 <
-3 2 15 0.87 -0.68 2.48 <
-2 2 15 6.97 7.36 2.48 <
-1 2 15 2.24 4.13 2.33 <
-1 -3 16 35.48 30.18 3.00 o
0 -3 16 47.09 45.49 3.38 o
-2 -2 16 16.41 20.19 2.33 o
-1 -2 16 10.65 14.71 2.10 o
0 -2 16 0.05 7.28 2.33 o
-3 -1 16 185.56 174.76 6.76 o
-2 -1 16 21.50 23.27 2.85 o
-1 -1 16 11.89 12.84 2.63 o
0 -1 16 23.30 20.87 3.00 o
-2 0 16 2.27 4.13 2.48 <
-1 0 16 2.68 6.76 2.40 <
loop_
_restr_angle_atom_site_label_1
_restr_angle_site_symmetry_1
_restr_angle_atom_site_label_2
_restr_angle_site_symmetry_2
_restr_angle_atom_site_label_3
_restr_angle_site_symmetry_3
_restr_angle_target
_restr_angle_target_weight_param
? ? ? ? ? ? ? ?
loop_
_restr_distance_atom_site_label_1
_restr_distance_site_symmetry_1
_restr_distance_atom_site_label_2
_restr_distance_site_symmetry_2
_restr_distance_target
_restr_distance_target_weight_param
? ? ? ? ? ?
loop_
_restr_equal_angle_atom_site_label_1
_restr_equal_angle_site_symmetry_1
_restr_equal_angle_atom_site_label_2
_restr_equal_angle_site_symmetry_2
_restr_equal_angle_atom_site_label_3
_restr_equal_angle_site_symmetry_3
_restr_equal_angle_class_class_id
_restr_equal_angle_class_target_weight_param
? ? ? ? ? ? ? ?
loop_
_restr_equal_distance_atom_site_label_1
_restr_equal_distance_site_symmetry_1
_restr_equal_distance_atom_site_label_2
_restr_equal_distance_site_symmetry_2
_restr_equal_distance_class_class_id
_restr_equal_distance_class_target_weight_param
? ? ? ? ? ?
loop_
_restr_equal_torsion_atom_site_label_1
_restr_equal_torsion_site_symmetry_1
_restr_equal_torsion_atom_site_label_2
_restr_equal_torsion_site_symmetry_2
_restr_equal_torsion_atom_site_label_3
_restr_equal_torsion_site_symmetry_3
_restr_equal_torsion_atom_site_label_4
_restr_equal_torsion_site_symmetry_4
_restr_equal_torsion_class_class_id
_restr_equal_torsion_class_target_weight_param
? ? ? ? ? ? ? ? ? ?
loop_
_restr_torsion_atom_site_label_1
_restr_torsion_site_symmetry_1
_restr_torsion_atom_site_label_2
_restr_torsion_site_symmetry_2
_restr_torsion_atom_site_label_3
_restr_torsion_site_symmetry_3
_restr_torsion_atom_site_label_4
_restr_torsion_site_symmetry_4
_restr_torsion_angle_target
_restr_torsion_weight_param
? ? ? ? ? ? ? ? ? ?
loop_
_twin_individual_id
_twin_individual_mass_fraction_refined
_twin_individual_twin_matrix_11
_twin_individual_twin_matrix_12
_twin_individual_twin_matrix_13
_twin_individual_twin_matrix_21
_twin_individual_twin_matrix_22
_twin_individual_twin_matrix_23
_twin_individual_twin_matrix_31
_twin_individual_twin_matrix_32
_twin_individual_twin_matrix_33
? ? ? ? ? ? ? ? ? ? ?
loop_
_twin_refln_datum_id
_twin_refln_individual_id
_twin_refln_index_h
_twin_refln_index_k
_twin_refln_index_l
_twin_refln_F_squared_calc
_twin_refln_F_squared_meas
_twin_refln_F_squared_sigma
_twin_refln_include_status
? ? ? ? ? ? ? ? ?
loop_
_jana_atom_site_adp_c_label
_jana_atom_site_adp_c_type_symbol
_jana_atom_site_adp_c_111
_jana_atom_site_adp_c_112
_jana_atom_site_adp_c_113
_jana_atom_site_adp_c_122
_jana_atom_site_adp_c_123
_jana_atom_site_adp_c_133
_jana_atom_site_adp_c_222
_jana_atom_site_adp_c_223
_jana_atom_site_adp_c_233
_jana_atom_site_adp_c_333
? ? ? ? ? ? ? ? ? ? ? ?
loop_
_jana_atom_site_adp_d_label
_jana_atom_site_adp_d_type_symbol
_jana_atom_site_adp_d_1111
_jana_atom_site_adp_d_1112
_jana_atom_site_adp_d_1113
_jana_atom_site_adp_d_1122
_jana_atom_site_adp_d_1123
_jana_atom_site_adp_d_1133
_jana_atom_site_adp_d_1222
_jana_atom_site_adp_d_1223
_jana_atom_site_adp_d_1233
_jana_atom_site_adp_d_1333
_jana_atom_site_adp_d_2222
_jana_atom_site_adp_d_2223
_jana_atom_site_adp_d_2233
_jana_atom_site_adp_d_2333
_jana_atom_site_adp_d_3333
? ? ? ? ? ? ? ? ? ? ? ? ? ? ? ? ?
loop_
_jana_atom_site_adp_e_label
_jana_atom_site_adp_e_type_symbol
_jana_atom_site_adp_e_11111
_jana_atom_site_adp_e_11112
_jana_atom_site_adp_e_11113
_jana_atom_site_adp_e_11122
_jana_atom_site_adp_e_11123
_jana_atom_site_adp_e_11133
_jana_atom_site_adp_e_11222
_jana_atom_site_adp_e_11223
_jana_atom_site_adp_e_11233
_jana_atom_site_adp_e_11333
_jana_atom_site_adp_e_12222
_jana_atom_site_adp_e_12223
_jana_atom_site_adp_e_12233
_jana_atom_site_adp_e_12333
_jana_atom_site_adp_e_13333
_jana_atom_site_adp_e_22222
_jana_atom_site_adp_e_22223
_jana_atom_site_adp_e_22233
_jana_atom_site_adp_e_22333
_jana_atom_site_adp_e_23333
_jana_atom_site_adp_e_33333
? ? ? ? ? ? ? ? ? ? ? ? ? ? ? ? ? ? ? ? ? ? ?
loop_
_jana_atom_site_adp_f_label
_jana_atom_site_adp_f_type_symbol
_jana_atom_site_adp_f_111111
_jana_atom_site_adp_f_111112
_jana_atom_site_adp_f_111113
_jana_atom_site_adp_f_111122
_jana_atom_site_adp_f_111123
_jana_atom_site_adp_f_111133
_jana_atom_site_adp_f_111222
_jana_atom_site_adp_f_111223
_jana_atom_site_adp_f_111233
_jana_atom_site_adp_f_111333
_jana_atom_site_adp_f_112222
_jana_atom_site_adp_f_112223
_jana_atom_site_adp_f_112233
_jana_atom_site_adp_f_112333
_jana_atom_site_adp_f_113333
_jana_atom_site_adp_f_122222
_jana_atom_site_adp_f_122223
_jana_atom_site_adp_f_122233
_jana_atom_site_adp_f_122333
_jana_atom_site_adp_f_123333
_jana_atom_site_adp_f_133333
_jana_atom_site_adp_f_222222
_jana_atom_site_adp_f_222223
_jana_atom_site_adp_f_222233
_jana_atom_site_adp_f_222333
_jana_atom_site_adp_f_223333
_jana_atom_site_adp_f_233333
_jana_atom_site_adp_f_333333
? ? ? ? ? ? ? ? ? ? ? ? ? ? ? ? ? ? ? ? ? ? ? ? ? ? ? ? ? ?
