#------------------------------------------------------------------------------
#$Date: 2016-02-20 05:06:23 +0200 (Sat, 20 Feb 2016) $
#$Revision: 176774 $
#$URL: svn://www.crystallography.net/cod/cif/2/20/38/2203886.cif $
#------------------------------------------------------------------------------
#
# This file is available in the Crystallography Open Database (COD),
# http://www.crystallography.net/. The original data for this entry
# were provided by IUCr Journals, http://journals.iucr.org/.
#
# The file may be used within the scientific community so long as
# proper attribution is given to the journal article from which the
# data were obtained.
#
data_2203886
loop_
_publ_author_name
'Yu Liu'
'Duan-Jun Xu'
_publ_section_title
<i>catena</i>-Poly[[diaquabis(1<i>H</i>-benzimidazole-\k<i>N</i>^3^)nickel(II)]-\m-fumarato-\k^2^<i>O</i>:<i>O</i>']
_journal_issue                   7
_journal_name_full               'Acta Crystallographica Section E'
_journal_page_first              m1002
_journal_page_last               m1004
_journal_paper_doi               10.1107/S1600536804015144
_journal_volume                  60
_journal_year                    2004
_chemical_formula_iupac          '[Ni (C4 H2 O4) (C7 H6 N2)2 (H2 O)2]'
_chemical_formula_moiety         'C18 H18 N4 Ni O6'
_chemical_formula_sum            'C18 H18 N4 Ni O6'
_chemical_formula_weight         445.07
_chemical_name_systematic        ?
_space_group_IT_number           2
_symmetry_cell_setting           triclinic
_symmetry_space_group_name_Hall  '-P 1'
_symmetry_space_group_name_H-M   'P -1'
_atom_sites_solution_hydrogens   geom
_atom_sites_solution_primary     direct
_atom_sites_solution_secondary   difmap
_audit_creation_method           SHELXL-97
_cell_angle_alpha                98.471(7)
_cell_angle_beta                 112.685(4)
_cell_angle_gamma                103.098(4)
_cell_formula_units_Z            1
_cell_length_a                   7.0650(10)
_cell_length_b                   8.4842(10)
_cell_length_c                   8.6617(9)
_cell_measurement_reflns_used    2668
_cell_measurement_temperature    295(2)
_cell_measurement_theta_max      26.0
_cell_measurement_theta_min      3.0
_cell_volume                     450.37(10)
_computing_cell_refinement       PROCESS-AUTO
_computing_data_collection       'PROCESS-AUTO (Rigaku, 1998)'
_computing_data_reduction        'CrystalStructure (Rigaku/MSC, 2002)'
_computing_molecular_graphics    'ORTEP-3 for Windows (Farrugia, 1997)'
_computing_publication_material  'WinGX (Farrugia, 1999)'
_computing_structure_refinement  'SHELXL97 (Sheldrick, 1997)'
_computing_structure_solution    'SIR-92 (Altomare et al., 1993)'
_diffrn_ambient_temperature      295(2)
_diffrn_detector_area_resol_mean 10.00
_diffrn_measured_fraction_theta_full 0.99
_diffrn_measured_fraction_theta_max 0.99
_diffrn_measurement_device_type  'Rigaku R-AXIS RAPID'
_diffrn_measurement_method       \w
_diffrn_radiation_monochromator  graphite
_diffrn_radiation_source         'fine-focus sealed tube'
_diffrn_radiation_type           MoK\a
_diffrn_radiation_wavelength     0.71069
_diffrn_reflns_av_R_equivalents  0.038
_diffrn_reflns_av_sigmaI/netI    0.031
_diffrn_reflns_limit_h_max       7
_diffrn_reflns_limit_h_min       -8
_diffrn_reflns_limit_k_max       10
_diffrn_reflns_limit_k_min       -10
_diffrn_reflns_limit_l_max       10
_diffrn_reflns_limit_l_min       -10
_diffrn_reflns_number            3114
_diffrn_reflns_theta_full        25.2
_diffrn_reflns_theta_max         25.23
_diffrn_reflns_theta_min         2.55
_diffrn_standards_decay_%        0
_diffrn_standards_interval_count 0
_diffrn_standards_interval_time  0
_diffrn_standards_number         0
_exptl_absorpt_coefficient_mu    1.124
_exptl_absorpt_correction_T_max  0.89
_exptl_absorpt_correction_T_min  0.74
_exptl_absorpt_correction_type   multi-scan
_exptl_absorpt_process_details   '(ABSCOR; Higashi, 1995)'
_exptl_crystal_colour            green
_exptl_crystal_density_diffrn    1.641
_exptl_crystal_density_method    'not measured'
_exptl_crystal_description       prism
_exptl_crystal_F_000             230
_exptl_crystal_size_max          0.27
_exptl_crystal_size_mid          0.14
_exptl_crystal_size_min          0.10
_refine_diff_density_max         0.27
_refine_diff_density_min         -0.28
_refine_ls_extinction_method     none
_refine_ls_goodness_of_fit_ref   1.053
_refine_ls_hydrogen_treatment    mixed
_refine_ls_matrix_type           full
_refine_ls_number_parameters     139
_refine_ls_number_reflns         1616
_refine_ls_number_restraints     0
_refine_ls_restrained_S_all      1.053
_refine_ls_R_factor_all          0.038
_refine_ls_R_factor_gt           0.034
_refine_ls_shift/su_max          0.001
_refine_ls_shift/su_mean         0.000
_refine_ls_structure_factor_coef Fsqd
_refine_ls_weighting_details
'calc w = 1/[\s^2^(Fo^2^)+(0.0476P)^2^+0.3701P] where P = (Fo^2^+2Fc^2^)/3'
_refine_ls_weighting_scheme      calc
_refine_ls_wR_factor_gt          0.082
_refine_ls_wR_factor_ref         0.084
_reflns_number_gt                1511
_reflns_number_total             1616
_reflns_threshold_expression     I>2\s(I)
_cod_data_source_file            cv6335.cif
_cod_data_source_block           I
_cod_depositor_comments
;
The following automatic conversions were performed:
'_symmetry_cell_setting' value 'Triclinic' changed to 'triclinic'
according to '/home/saulius/struct/CIF-dictionaries/cif_core.dic'
dictionary named 'cif_core.dic' version 2.4.1 from 2010-06-29.

Automatic conversion script
Id: cif_fix_enum 1527 2010-12-29 10:47:43Z saulius 

The following automatic conversions were performed:

'_symmetry_cell_setting' value 'Triclinic' changed to 'triclinic'
according to /home/saulius/struct/CIF-dictionaries/cif_core.dic
dictionary named 'cif_core.dic' version 2.4.1 from 2010-06-29.

Automatic conversion script
Id: cif_fix_values 1715 2011-07-08 13:25:40Z adriana 
;
_cod_database_code               2203886
_cod_database_fobs_code          2203886
loop_
_symmetry_equiv_pos_as_xyz
'x, y, z'
'-x, -y, -z'
loop_
_atom_site_label
_atom_site_fract_x
_atom_site_fract_y
_atom_site_fract_z
_atom_site_U_iso_or_equiv
_atom_site_adp_type
_atom_site_calc_flag
_atom_site_refinement_flags
_atom_site_occupancy
_atom_site_type_symbol
Ni 0.5000 0.5000 0.5000 0.01881(15) Uani d S 1 Ni
O1 0.2747(3) 0.26834(19) 0.4323(2) 0.0241(4) Uani d . 1 O
O2 0.1056(3) 0.3179(2) 0.5970(2) 0.0270(4) Uani d . 1 O
O3 0.3007(3) 0.6170(2) 0.5673(2) 0.0287(4) Uani d . 1 O
N1 0.7654(4) 0.5579(3) 1.0396(3) 0.0305(5) Uani d . 1 N
H1 0.8118 0.6199 1.1427 0.037 Uiso calc R 1 H
N3 0.6318(3) 0.4840(2) 0.7531(2) 0.0248(4) Uani d . 1 N
C2 0.6916(4) 0.6049(3) 0.8925(3) 0.0290(5) Uani d . 1 C
H2 0.6834 0.7123 0.8889 0.035 Uiso calc R 1 H
C4 0.6353(4) 0.1839(3) 0.7276(3) 0.0316(6) Uani d . 1 C
H4 0.5788 0.1519 0.6074 0.038 Uiso calc R 1 H
C5 0.6882(5) 0.0718(4) 0.8249(4) 0.0404(7) Uani d . 1 C
H5 0.6671 -0.0376 0.7694 0.049 Uiso calc R 1 H
C6 0.7730(6) 0.1205(4) 1.0056(4) 0.0478(8) Uani d . 1 C
H6 0.8065 0.0423 1.0678 0.057 Uiso calc R 1 H
C7 0.8080(5) 0.2797(4) 1.0934(4) 0.0411(7) Uani d . 1 C
H7 0.8660 0.3115 1.2137 0.049 Uiso calc R 1 H
C8 0.7536(4) 0.3922(3) 0.9957(3) 0.0276(5) Uani d . 1 C
C9 0.6692(4) 0.3454(3) 0.8153(3) 0.0230(5) Uani d . 1 C
C11 0.1524(4) 0.2216(3) 0.5016(3) 0.0220(5) Uani d . 1 C
C12 0.0593(4) 0.0364(3) 0.4650(3) 0.0266(5) Uani d . 1 C
H12 0.0871 -0.0319 0.3874 0.032 Uiso calc R 1 H
H3A 0.205(7) 0.653(6) 0.500(6) 0.080 Uiso d . 1 H
H3B 0.216(7) 0.534(6) 0.581(6) 0.080 Uiso d . 1 H
loop_
_atom_site_aniso_label
_atom_site_aniso_U_11
_atom_site_aniso_U_22
_atom_site_aniso_U_33
_atom_site_aniso_U_12
_atom_site_aniso_U_13
_atom_site_aniso_U_23
Ni 0.0220(2) 0.0152(2) 0.0197(2) 0.00365(16) 0.01040(17) 0.00524(16)
O1 0.0284(9) 0.0193(8) 0.0249(8) 0.0023(7) 0.0148(7) 0.0057(6)
O2 0.0326(9) 0.0212(8) 0.0309(9) 0.0066(7) 0.0186(8) 0.0061(7)
O3 0.0313(9) 0.0258(9) 0.0344(10) 0.0098(7) 0.0185(8) 0.0102(8)
N1 0.0382(12) 0.0326(12) 0.0184(10) 0.0113(9) 0.0117(9) 0.0016(8)
N3 0.0298(11) 0.0200(10) 0.0235(10) 0.0054(8) 0.0115(9) 0.0058(8)
C2 0.0341(13) 0.0237(12) 0.0273(12) 0.0073(10) 0.0126(11) 0.0055(10)
C4 0.0413(15) 0.0279(13) 0.0276(13) 0.0133(11) 0.0155(12) 0.0078(11)
C5 0.0583(18) 0.0312(14) 0.0402(15) 0.0213(13) 0.0241(14) 0.0141(12)
C6 0.075(2) 0.0460(17) 0.0444(17) 0.0369(16) 0.0320(16) 0.0284(14)
C7 0.0569(18) 0.0530(18) 0.0246(13) 0.0306(15) 0.0189(13) 0.0175(13)
C8 0.0312(12) 0.0311(13) 0.0246(12) 0.0129(10) 0.0142(10) 0.0083(10)
C9 0.0245(12) 0.0251(12) 0.0228(11) 0.0085(9) 0.0120(9) 0.0100(9)
C11 0.0227(11) 0.0200(11) 0.0196(11) 0.0038(9) 0.0070(9) 0.0053(9)
C12 0.0311(13) 0.0201(12) 0.0311(13) 0.0045(10) 0.0185(11) 0.0053(10)
loop_
_atom_type_symbol
_atom_type_description
_atom_type_scat_dispersion_real
_atom_type_scat_dispersion_imag
_atom_type_scat_source
C C 0.0033 0.0000 'International Tables Vol C Tables 4.2.6.8 and 6.1.1.4'
H H 0.0000 0.0000 'International Tables Vol C Tables 4.2.6.8 and 6.1.1.4'
N N 0.0061 0.0000 'International Tables Vol C Tables 4.2.6.8 and 6.1.1.4'
O O 0.0106 0.0000 'International Tables Vol C Tables 4.2.6.8 and 6.1.1.4'
Ni Ni 0.3393 0.0000 'International Tables Vol C Tables 4.2.6.8 and 6.1.1.4'
loop_
_geom_angle_atom_site_label_1
_geom_angle_atom_site_label_2
_geom_angle_atom_site_label_3
_geom_angle_site_symmetry_1
_geom_angle
O1 Ni N3 . 89.40(7)
O1 Ni O3 . 90.36(7)
N3 Ni O3 . 86.66(8)
C11 O1 Ni . 127.73(15)
Ni O3 H3A . 126(3)
Ni O3 H3B . 101(3)
H3A O3 H3B . 99(4)
C2 N1 C8 . 107.4(2)
C2 N1 H1 . 126.3
C8 N1 H1 . 126.3
C2 N3 C9 . 104.98(19)
C2 N3 Ni . 126.05(17)
C9 N3 Ni . 128.93(16)
N3 C2 N1 . 113.2(2)
N3 C2 H2 . 123.4
N1 C2 H2 . 123.4
C5 C4 C9 . 117.7(2)
C5 C4 H4 . 121.1
C9 C4 H4 . 121.1
C4 C5 C6 . 120.9(3)
C4 C5 H5 . 119.6
C6 C5 H5 . 119.6
C7 C6 C5 . 121.8(3)
C7 C6 H6 . 119.1
C5 C6 H6 . 119.1
C6 C7 C8 . 117.3(3)
C6 C7 H7 . 121.3
C8 C7 H7 . 121.3
N1 C8 C7 . 132.8(2)
N1 C8 C9 . 105.8(2)
C7 C8 C9 . 121.4(2)
C4 C9 C8 . 120.8(2)
C4 C9 N3 . 130.6(2)
C8 C9 N3 . 108.6(2)
O1 C11 O2 . 125.2(2)
O1 C11 C12 . 115.3(2)
O2 C11 C12 . 119.4(2)
C12 C12 C11 2_556 124.3(3)
C12 C12 H12 2_556 117.8
C11 C12 H12 . 117.8
loop_
_geom_bond_atom_site_label_1
_geom_bond_atom_site_label_2
_geom_bond_site_symmetry_2
_geom_bond_distance
_geom_bond_publ_flag
Ni O1 . 2.0646(15) y
Ni O3 . 2.0984(18) y
Ni N3 . 2.0647(19) y
O1 C11 . 1.257(3) y
O2 C11 . 1.263(3) y
O3 H3A . 0.85(5) ?
O3 H3B . 0.87(5) ?
N1 C2 . 1.336(3) ?
N1 C8 . 1.376(3) ?
N1 H1 . 0.8600 ?
N3 C2 . 1.316(3) ?
N3 C9 . 1.401(3) ?
C2 H2 . 0.9300 ?
C4 C5 . 1.382(4) ?
C4 C9 . 1.384(4) ?
C4 H4 . 0.9300 ?
C5 C6 . 1.398(4) ?
C5 H5 . 0.9300 ?
C6 C7 . 1.366(4) ?
C6 H6 . 0.9300 ?
C7 C8 . 1.388(4) ?
C7 H7 . 0.9300 ?
C8 C9 . 1.395(3) ?
C11 C12 . 1.492(3) y
C12 C12 2_556 1.310(5) y
C12 H12 . 0.9300 ?
loop_
_geom_hbond_atom_site_label_D
_geom_hbond_atom_site_label_H
_geom_hbond_atom_site_label_A
_geom_hbond_site_symmetry_A
_geom_hbond_distance_DH
_geom_hbond_distance_HA
_geom_hbond_distance_DA
_geom_hbond_angle_DHA
_geom_hbond_publ_flag
N1 H1 O2 2_667 0.86 2.05 2.868(3) 159 y
O3 H3A O2 2_566 0.86(5) 2.11(5) 2.893(3) 151(5) y
O3 H3B O2 . 0.87(5) 1.87(5) 2.699(3) 159(5) y
