#------------------------------------------------------------------------------
#$Date: 2016-02-20 05:06:23 +0200 (Sat, 20 Feb 2016) $
#$Revision: 176774 $
#$URL: svn://www.crystallography.net/cod/cif/2/20/38/2203871.cif $
#------------------------------------------------------------------------------
#
# This file is available in the Crystallography Open Database (COD),
# http://www.crystallography.net/. The original data for this entry
# were provided by IUCr Journals, http://journals.iucr.org/.
#
# The file may be used within the scientific community so long as
# proper attribution is given to the journal article from which the
# data were obtained.
#
data_2203871
loop_
_publ_author_name
'Li, Zong-Xiao'
'Zhang, Xin-Li'
_publ_section_title
;
 Aqua[2-(pyridin-2-ylmethyliminomethyl)phenolato]zinc(II) nitrate
 monohydrate
;
_journal_issue                   7
_journal_name_full               'Acta Crystallographica Section E'
_journal_page_first              m1017
_journal_page_last               m1019
_journal_paper_doi               10.1107/S1600536804015405
_journal_volume                  60
_journal_year                    2004
_chemical_formula_iupac          '[Zn (C13 H11 N2 O) (H2 O)] (N O3), H2 O'
_chemical_formula_moiety         'C13 H13 N2 O2 Zn +, N O3 -, H2 O'
_chemical_formula_sum            'C13 H15 N3 O6 Zn'
_chemical_formula_weight         374.65
_chemical_name_systematic
;
Aqua[2-(pyridin-2-ylmethyliminomethyl)phenolato]zinc(II) nitrate
monohydrate
;
_space_group_IT_number           2
_symmetry_cell_setting           triclinic
_symmetry_space_group_name_Hall  '-P 1'
_symmetry_space_group_name_H-M   'P -1'
_atom_sites_solution_hydrogens   geom
_atom_sites_solution_primary     direct
_atom_sites_solution_secondary   difmap
_audit_creation_method           SHELXL-97
_cell_angle_alpha                71.2260(10)
_cell_angle_beta                 86.2290(10)
_cell_angle_gamma                86.9140(10)
_cell_formula_units_Z            2
_cell_length_a                   7.7746(7)
_cell_length_b                   8.9911(8)
_cell_length_c                   11.3884(10)
_cell_measurement_reflns_used    2203
_cell_measurement_temperature    298(2)
_cell_measurement_theta_max      26.714
_cell_measurement_theta_min      2.394
_cell_volume                     751.64(12)
_computing_cell_refinement       SAINT
_computing_data_collection       'SMART (Siemens, 1996)'
_computing_data_reduction        'SAINT (Siemens, 1996)'
_computing_molecular_graphics    'SHELXTL (Sheldrick, 1997b)'
_computing_publication_material  SHELXTL
_computing_structure_refinement  'SHELXL97 (Sheldrick, 1997a)'
_computing_structure_solution    'SHELXS97 (Sheldrick, 1997a)'
_diffrn_ambient_temperature      298(2)
_diffrn_measured_fraction_theta_full 0.971
_diffrn_measured_fraction_theta_max 0.971
_diffrn_measurement_device_type  'Siemens SMART CCD area-detector'
_diffrn_measurement_method       \w
_diffrn_radiation_monochromator  graphite
_diffrn_radiation_source         'fine-focus sealed tube'
_diffrn_radiation_type           MoK\a
_diffrn_radiation_wavelength     0.71073
_diffrn_reflns_av_R_equivalents  0.0204
_diffrn_reflns_av_sigmaI/netI    0.0341
_diffrn_reflns_limit_h_max       9
_diffrn_reflns_limit_h_min       -9
_diffrn_reflns_limit_k_max       11
_diffrn_reflns_limit_k_min       -11
_diffrn_reflns_limit_l_max       14
_diffrn_reflns_limit_l_min       -14
_diffrn_reflns_number            5888
_diffrn_reflns_theta_full        26.50
_diffrn_reflns_theta_max         26.50
_diffrn_reflns_theta_min         1.89
_diffrn_standards_decay_%        0
_diffrn_standards_interval_count 0
_diffrn_standards_interval_time  0
_diffrn_standards_number         0
_exptl_absorpt_coefficient_mu    1.669
_exptl_absorpt_correction_T_max  0.7879
_exptl_absorpt_correction_T_min  0.7103
_exptl_absorpt_correction_type   multi-scan
_exptl_absorpt_process_details   '(SADABS; Sheldrick, 1996)'
_exptl_crystal_colour            colorless
_exptl_crystal_density_diffrn    1.655
_exptl_crystal_density_method    'not measured'
_exptl_crystal_description       block
_exptl_crystal_F_000             384
_exptl_crystal_size_max          0.22
_exptl_crystal_size_mid          0.18
_exptl_crystal_size_min          0.15
_refine_diff_density_max         0.630
_refine_diff_density_min         -0.276
_refine_ls_extinction_method     none
_refine_ls_goodness_of_fit_ref   1.068
_refine_ls_hydrogen_treatment    mixed
_refine_ls_matrix_type           full
_refine_ls_number_parameters     224
_refine_ls_number_reflns         3024
_refine_ls_number_restraints     6
_refine_ls_restrained_S_all      1.068
_refine_ls_R_factor_all          0.0538
_refine_ls_R_factor_gt           0.0454
_refine_ls_shift/su_max          0.000
_refine_ls_shift/su_mean         0.000
_refine_ls_structure_factor_coef Fsqd
_refine_ls_weighting_details
'calc w = 1/[\s^2^(Fo^2^)+(0.0821P)^2^+0.0976P] where P = (Fo^2^+2Fc^2^)/3'
_refine_ls_weighting_scheme      calc
_refine_ls_wR_factor_gt          0.1253
_refine_ls_wR_factor_ref         0.1314
_reflns_number_gt                2534
_reflns_number_total             3024
_reflns_threshold_expression     I>2\s(I)
_cod_data_source_file            ci6388.cif
_cod_data_source_block           I
_cod_depositor_comments
;
The following automatic conversions were performed:
'_symmetry_cell_setting' value 'Triclinic' changed to 'triclinic'
according to '/home/saulius/struct/CIF-dictionaries/cif_core.dic'
dictionary named 'cif_core.dic' version 2.4.1 from 2010-06-29.

Automatic conversion script
Id: cif_fix_enum 1527 2010-12-29 10:47:43Z saulius 

The following automatic conversions were performed:

'_symmetry_cell_setting' value 'Triclinic' changed to 'triclinic'
according to /home/saulius/struct/CIF-dictionaries/cif_core.dic
dictionary named 'cif_core.dic' version 2.4.1 from 2010-06-29.

Automatic conversion script
Id: cif_fix_values 1715 2011-07-08 13:25:40Z adriana 
;
_cod_database_code               2203871
_cod_database_fobs_code          2203871
loop_
_symmetry_equiv_pos_as_xyz
'x, y, z'
'-x, -y, -z'
loop_
_atom_site_label
_atom_site_fract_x
_atom_site_fract_y
_atom_site_fract_z
_atom_site_U_iso_or_equiv
_atom_site_adp_type
_atom_site_calc_flag
_atom_site_refinement_flags
_atom_site_occupancy
_atom_site_type_symbol
Zn1 0.15592(5) 0.09041(4) 0.61746(3) 0.04512(18) Uani d . 1 Zn
O1 0.1184(3) 0.2357(3) 0.4584(2) 0.0519(6) Uani d . 1 O
O2 0.0123(3) 0.2283(3) 0.6918(2) 0.0487(6) Uani d D 1 O
O3 0.3997(3) 0.2559(3) 0.6579(3) 0.0695(8) Uani d . 1 O
O4 0.2516(3) 0.3667(3) 0.7765(3) 0.0664(7) Uani d . 1 O
O5 0.5157(4) 0.4244(4) 0.7242(3) 0.0786(9) Uani d . 1 O
O6 0.8003(4) 0.4474(3) 0.5533(3) 0.0620(7) Uani d D 1 O
N1 0.2647(3) -0.0673(3) 0.5535(3) 0.0417(6) Uani d . 1 N
N2 0.2089(4) -0.0680(3) 0.7799(3) 0.0449(6) Uani d . 1 N
N3 0.3901(4) 0.3481(3) 0.7197(3) 0.0521(7) Uani d . 1 N
C1 0.2444(4) 0.0794(4) 0.3357(3) 0.0456(7) Uani d . 1 C
C2 0.1584(4) 0.2163(4) 0.3488(3) 0.0439(7) Uani d . 1 C
C3 0.1144(5) 0.3358(4) 0.2411(4) 0.0578(9) Uani d . 1 C
H3 0.0567 0.4265 0.2473 0.069 Uiso calc R 1 H
C4 0.1551(5) 0.3216(5) 0.1245(4) 0.0609(10) Uani d . 1 C
H4 0.1226 0.4020 0.0540 0.073 Uiso calc R 1 H
C5 0.2431(5) 0.1898(5) 0.1118(4) 0.0658(10) Uani d . 1 C
H5 0.2724 0.1824 0.0333 0.079 Uiso calc R 1 H
C6 0.2866(5) 0.0703(5) 0.2159(3) 0.0566(9) Uani d . 1 C
H6 0.3452 -0.0189 0.2074 0.068 Uiso calc R 1 H
C7 0.2917(4) -0.0543(4) 0.4383(3) 0.0443(7) Uani d . 1 C
H7 0.3469 -0.1390 0.4199 0.053 Uiso calc R 1 H
C8 0.3160(5) -0.2165(4) 0.6462(3) 0.0495(8) Uani d . 1 C
H8A 0.4370 -0.2412 0.6318 0.059 Uiso calc R 1 H
H8B 0.2489 -0.3008 0.6391 0.059 Uiso calc R 1 H
C9 0.2862(4) -0.2022(4) 0.7737(3) 0.0440(7) Uani d . 1 C
C10 0.3356(5) -0.3208(4) 0.8797(4) 0.0553(9) Uani d . 1 C
H10 0.3883 -0.4135 0.8733 0.066 Uiso calc R 1 H
C11 0.3067(5) -0.3009(4) 0.9928(4) 0.0627(10) Uani d . 1 C
H11 0.3405 -0.3786 1.0645 0.075 Uiso calc R 1 H
C12 0.2263(6) -0.1631(5) 0.9988(4) 0.0648(10) Uani d . 1 C
H12 0.2044 -0.1473 1.0753 0.078 Uiso calc R 1 H
C13 0.1789(5) -0.0498(4) 0.8928(3) 0.0571(9) Uani d . 1 C
H13 0.1244 0.0426 0.8982 0.069 Uiso calc R 1 H
H2A 0.077(5) 0.288(4) 0.719(4) 0.085(15) Uiso d D 1 H
H6A 0.704(3) 0.438(4) 0.602(3) 0.052(10) Uiso d D 1 H
H2B -0.057(4) 0.293(3) 0.637(3) 0.053(10) Uiso d D 1 H
H6B 0.839(4) 0.544(2) 0.543(4) 0.080(14) Uiso d D 1 H
loop_
_atom_site_aniso_label
_atom_site_aniso_U_11
_atom_site_aniso_U_22
_atom_site_aniso_U_33
_atom_site_aniso_U_12
_atom_site_aniso_U_13
_atom_site_aniso_U_23
Zn1 0.0516(3) 0.0307(2) 0.0531(3) 0.00408(15) -0.00126(18) -0.01461(17)
O1 0.0697(15) 0.0320(11) 0.0526(14) 0.0107(10) -0.0066(12) -0.0129(10)
O2 0.0507(13) 0.0364(12) 0.0601(15) 0.0061(10) -0.0001(11) -0.0187(11)
O3 0.0579(15) 0.0597(16) 0.103(2) 0.0027(12) 0.0085(14) -0.0456(17)
O4 0.0665(17) 0.0697(18) 0.0746(19) -0.0039(13) 0.0081(14) -0.0411(15)
O5 0.0610(17) 0.094(2) 0.094(2) -0.0127(16) -0.0054(15) -0.0476(19)
O6 0.0653(17) 0.0414(14) 0.0780(19) 0.0085(12) 0.0012(14) -0.0197(13)
N1 0.0451(14) 0.0280(12) 0.0531(16) 0.0032(10) -0.0025(12) -0.0153(11)
N2 0.0524(15) 0.0325(13) 0.0508(16) 0.0004(11) -0.0029(12) -0.0149(11)
N3 0.0540(17) 0.0439(16) 0.0585(18) 0.0049(13) -0.0068(14) -0.0166(14)
C1 0.0471(17) 0.0385(16) 0.054(2) -0.0053(13) -0.0041(14) -0.0182(14)
C2 0.0429(16) 0.0357(16) 0.0534(19) -0.0044(13) -0.0040(14) -0.0141(14)
C3 0.065(2) 0.0375(18) 0.066(2) -0.0026(16) -0.0106(19) -0.0082(16)
C4 0.076(3) 0.052(2) 0.049(2) -0.0156(18) -0.0138(18) -0.0049(17)
C5 0.073(3) 0.075(3) 0.050(2) -0.021(2) 0.0010(19) -0.019(2)
C6 0.062(2) 0.055(2) 0.055(2) -0.0037(17) -0.0008(17) -0.0222(17)
C7 0.0450(16) 0.0363(15) 0.057(2) 0.0009(13) -0.0020(14) -0.0223(14)
C8 0.059(2) 0.0311(15) 0.058(2) 0.0088(14) -0.0048(16) -0.0151(14)
C9 0.0461(17) 0.0323(15) 0.0553(19) -0.0022(12) -0.0071(14) -0.0155(14)
C10 0.065(2) 0.0376(17) 0.064(2) 0.0050(15) -0.0157(18) -0.0151(16)
C11 0.078(3) 0.049(2) 0.059(2) -0.0047(18) -0.021(2) -0.0097(17)
C12 0.084(3) 0.060(2) 0.053(2) -0.009(2) -0.003(2) -0.0224(19)
C13 0.076(2) 0.0461(19) 0.052(2) 0.0018(17) -0.0021(18) -0.0202(16)
loop_
_atom_type_symbol
_atom_type_description
_atom_type_scat_dispersion_real
_atom_type_scat_dispersion_imag
_atom_type_scat_source
C C 0.0033 0.0016 'International Tables Vol C Tables 4.2.6.8 and 6.1.1.4'
H H 0.0000 0.0000 'International Tables Vol C Tables 4.2.6.8 and 6.1.1.4'
N N 0.0061 0.0033 'International Tables Vol C Tables 4.2.6.8 and 6.1.1.4'
O O 0.0106 0.0060 'International Tables Vol C Tables 4.2.6.8 and 6.1.1.4'
Zn Zn 0.2839 1.4301 'International Tables Vol C Tables 4.2.6.8 and 6.1.1.4'
loop_
_geom_angle_atom_site_label_1
_geom_angle_atom_site_label_2
_geom_angle_atom_site_label_3
_geom_angle
_geom_angle_publ_flag
O1 Zn1 N1 94.15(11) yes
O1 Zn1 O2 89.03(10) yes
N1 Zn1 O2 170.50(10) yes
O1 Zn1 N2 176.24(10) yes
N1 Zn1 N2 82.55(11) yes
O2 Zn1 N2 94.51(11) yes
C2 O1 Zn1 127.5(2) ?
Zn1 O2 H2A 111(3) ?
Zn1 O2 H2B 111(2) ?
H2A O2 H2B 107(2) ?
H6A O6 H6B 106(2) ?
C7 N1 C8 118.0(3) ?
C7 N1 Zn1 125.8(2) ?
C8 N1 Zn1 116.2(2) ?
C9 N2 C13 118.4(3) ?
C9 N2 Zn1 115.5(2) ?
C13 N2 Zn1 126.1(2) ?
O5 N3 O3 120.7(3) ?
O5 N3 O4 119.1(3) ?
O3 N3 O4 120.2(3) ?
C6 C1 C2 119.5(3) ?
C6 C1 C7 116.8(3) ?
C2 C1 C7 123.8(3) ?
O1 C2 C3 119.0(3) ?
O1 C2 C1 123.1(3) ?
C3 C2 C1 117.9(3) ?
C4 C3 C2 121.1(3) ?
C4 C3 H3 119.4 ?
C2 C3 H3 119.4 ?
C5 C4 C3 120.9(3) ?
C5 C4 H4 119.5 ?
C3 C4 H4 119.5 ?
C6 C5 C4 119.2(4) ?
C6 C5 H5 120.4 ?
C4 C5 H5 120.4 ?
C5 C6 C1 121.4(4) ?
C5 C6 H6 119.3 ?
C1 C6 H6 119.3 ?
N1 C7 C1 125.7(3) ?
N1 C7 H7 117.2 ?
C1 C7 H7 117.2 ?
N1 C8 C9 109.2(2) ?
N1 C8 H8A 109.8 ?
C9 C8 H8A 109.8 ?
N1 C8 H8B 109.8 ?
C9 C8 H8B 109.8 ?
H8A C8 H8B 108.3 ?
N2 C9 C10 121.6(3) ?
N2 C9 C8 116.2(3) ?
C10 C9 C8 122.3(3) ?
C11 C10 C9 119.7(3) ?
C11 C10 H10 120.1 ?
C9 C10 H10 120.1 ?
C10 C11 C12 118.5(4) ?
C10 C11 H11 120.7 ?
C12 C11 H11 120.7 ?
C13 C12 C11 120.0(4) ?
C13 C12 H12 120.0 ?
C11 C12 H12 120.0 ?
N2 C13 C12 121.8(3) ?
N2 C13 H13 119.1 ?
C12 C13 H13 119.1 ?
loop_
_geom_bond_atom_site_label_1
_geom_bond_atom_site_label_2
_geom_bond_distance
_geom_bond_publ_flag
Zn1 O1 1.892(2) yes
Zn1 N1 1.927(2) yes
Zn1 O2 1.975(2) yes
Zn1 N2 1.990(3) yes
O1 C2 1.329(4) ?
O2 H2A 0.896(10) ?
O2 H2B 0.892(10) ?
O3 N3 1.246(4) ?
O4 N3 1.251(4) ?
O5 N3 1.236(4) ?
O6 H6A 0.894(10) ?
O6 H6B 0.902(10) ?
N1 C7 1.283(4) ?
N1 C8 1.469(4) ?
N2 C9 1.339(4) ?
N2 C13 1.351(4) ?
C1 C6 1.409(5) ?
C1 C2 1.415(4) ?
C1 C7 1.432(5) ?
C2 C3 1.394(5) ?
C3 C4 1.389(5) ?
C3 H3 0.93 ?
C4 C5 1.379(6) ?
C4 H4 0.93 ?
C5 C6 1.367(5) ?
C5 H5 0.93 ?
C6 H6 0.93 ?
C7 H7 0.93 ?
C8 C9 1.500(5) ?
C8 H8A 0.97 ?
C8 H8B 0.97 ?
C9 C10 1.390(5) ?
C10 C11 1.359(5) ?
C10 H10 0.93 ?
C11 C12 1.377(5) ?
C11 H11 0.93 ?
C12 C13 1.364(5) ?
C12 H12 0.93 ?
C13 H13 0.93 ?
loop_
_geom_hbond_atom_site_label_D
_geom_hbond_atom_site_label_H
_geom_hbond_atom_site_label_A
_geom_hbond_site_symmetry_A
_geom_hbond_distance_DH
_geom_hbond_distance_HA
_geom_hbond_distance_DA
_geom_hbond_angle_DHA
O2 H2A O4 . 0.896(10) 1.810(14) 2.683(4) 164(4)
O2 H2A N3 . 0.896(10) 2.52(3) 3.252(4) 139(4)
O2 H2A O3 . 0.896(10) 2.58(4) 3.024(4) 111(3)
O6 H6A O5 . 0.894(10) 1.932(12) 2.819(4) 172(3)
O2 H2B O6 1_455 0.892(10) 1.787(14) 2.661(3) 166(3)
O6 H6B O1 2_666 0.902(10) 2.024(14) 2.911(3) 168(3)
