#------------------------------------------------------------------------------
#$Date: 2017-10-13 09:09:21 +0300 (Fri, 13 Oct 2017) $
#$Revision: 201973 $
#$URL: file:///home/coder/svn-repositories/cod/cif/2/20/55/2205547.cif $
#------------------------------------------------------------------------------
#
# This file is available in the Crystallography Open Database (COD),
# http://www.crystallography.net/. The original data for this entry
# were provided by IUCr Journals, http://journals.iucr.org/.
#
# The file may be used within the scientific community so long as
# proper attribution is given to the journal article from which the
# data were obtained.
#
data_2205547
loop_
_publ_author_name
'Thomas C. Lewis'
'Derek A. Tocher'
_publ_section_title
;
 Redetermination of adeninium dichloride: the question of
 centrosymmetry
;
_journal_issue                   4
_journal_name_full               'Acta Crystallographica Section E'
_journal_page_first              o1052
_journal_page_last               o1054
_journal_paper_doi               10.1107/S1600536805007993
_journal_volume                  61
_journal_year                    2005
_chemical_formula_iupac          'C5 H7 N5 2+, 2Cl -'
_chemical_formula_moiety         'C5 H7 N5 2+, 2Cl -'
_chemical_formula_sum            'C5 H7 Cl2 N5'
_chemical_formula_weight         208.06
_chemical_name_systematic
;
Adeninium(2+) dichloride
;
_space_group_IT_number           62
_symmetry_cell_setting           orthorhombic
_symmetry_space_group_name_Hall  '-P 2ac 2n'
_symmetry_space_group_name_H-M   'P n m a'
_atom_sites_solution_hydrogens   geom
_atom_sites_solution_primary     direct
_atom_sites_solution_secondary   difmap
_audit_creation_method           SHELXL-97
_cell_angle_alpha                90.00
_cell_angle_beta                 90.00
_cell_angle_gamma                90.00
_cell_formula_units_Z            4
_cell_length_a                   13.4405(11)
_cell_length_b                   6.4774(5)
_cell_length_c                   9.3684(7)
_cell_measurement_reflns_used    5209
_cell_measurement_temperature    150(2)
_cell_measurement_theta_max      28.07
_cell_measurement_theta_min      2.65
_cell_volume                     815.61(11)
_computing_cell_refinement       'SAINT (Bruker, 2000)'
_computing_data_collection       'SMART (Bruker, 2000)'
_computing_data_reduction        SAINT
_computing_molecular_graphics
'SHELXTL (Bruker, 2000) and MERCURY (Bruno, 2002)'
_computing_publication_material  SHELXL97
_computing_structure_refinement  'SHELXL97 (Sheldrick, 1997)'
_computing_structure_solution    'SHELXS97 (Sheldrick, 1990)'
_diffrn_ambient_temperature      150(2)
_diffrn_measured_fraction_theta_full 0.992
_diffrn_measured_fraction_theta_max 0.980
_diffrn_measurement_device_type  'Bruker SMART APEX'
_diffrn_measurement_method       '\w rotation scans with narrow frames'
_diffrn_radiation_monochromator  graphite
_diffrn_radiation_source         'fine-focus sealed tube'
_diffrn_radiation_type           MoK\a
_diffrn_radiation_wavelength     0.71073
_diffrn_reflns_av_R_equivalents  0.0164
_diffrn_reflns_av_sigmaI/netI    0.0119
_diffrn_reflns_limit_h_max       17
_diffrn_reflns_limit_h_min       -17
_diffrn_reflns_limit_k_max       8
_diffrn_reflns_limit_k_min       -8
_diffrn_reflns_limit_l_max       12
_diffrn_reflns_limit_l_min       -12
_diffrn_reflns_number            6736
_diffrn_reflns_theta_full        26.00
_diffrn_reflns_theta_max         28.28
_diffrn_reflns_theta_min         2.65
_diffrn_standards_decay_%        0
_diffrn_standards_interval_count 0
_diffrn_standards_interval_time  0
_diffrn_standards_number         0
_exptl_absorpt_coefficient_mu    0.743
_exptl_absorpt_correction_T_max  0.8417
_exptl_absorpt_correction_T_min  0.6092
_exptl_absorpt_correction_type   multi-scan
_exptl_absorpt_process_details   '(SADABS; Sheldrick, 1996)'
_exptl_crystal_colour            Colourless
_exptl_crystal_density_diffrn    1.694
_exptl_crystal_density_method    'not measured'
_exptl_crystal_description       Block
_exptl_crystal_F_000             424
_exptl_crystal_size_max          0.74
_exptl_crystal_size_mid          0.26
_exptl_crystal_size_min          0.24
_refine_diff_density_max         0.367
_refine_diff_density_min         -0.245
_refine_ls_extinction_method     none
_refine_ls_goodness_of_fit_ref   0.985
_refine_ls_hydrogen_treatment    refall
_refine_ls_matrix_type           full
_refine_ls_number_parameters     94
_refine_ls_number_reflns         1076
_refine_ls_number_restraints     0
_refine_ls_restrained_S_all      0.985
_refine_ls_R_factor_all          0.0243
_refine_ls_R_factor_gt           0.0241
_refine_ls_shift/su_max          0.000
_refine_ls_shift/su_mean         0.000
_refine_ls_structure_factor_coef Fsqd
_refine_ls_weighting_details
'calc w = 1/[\s^2^(Fo^2^)+(0.0337P)^2^+0.5379P] where P = (Fo^2^+2Fc^2^)/3'
_refine_ls_weighting_scheme      calc
_refine_ls_wR_factor_gt          0.0626
_refine_ls_wR_factor_ref         0.0627
_reflns_number_gt                1064
_reflns_number_total             1076
_reflns_threshold_expression     I>2\s(I)
_cod_data_source_file            lh6383.cif
_cod_data_source_block           I
_cod_database_code               2205547
_cod_database_fobs_code          2205547
loop_
_symmetry_equiv_pos_as_xyz
'x, y, z'
'-x+1/2, -y, z+1/2'
'-x, y+1/2, -z'
'x+1/2, -y+1/2, -z+1/2'
'-x, -y, -z'
'x-1/2, y, -z-1/2'
'x, -y-1/2, z'
'-x-1/2, y-1/2, z-1/2'
loop_
_atom_site_label
_atom_site_fract_x
_atom_site_fract_y
_atom_site_fract_z
_atom_site_U_iso_or_equiv
_atom_site_adp_type
_atom_site_calc_flag
_atom_site_refinement_flags
_atom_site_occupancy
_atom_site_type_symbol
Cl1 0.19853(3) 0.2500 0.44260(4) 0.02093(12) Uani d S 1 Cl
Cl2 0.06411(3) 0.2500 0.11040(4) 0.02752(14) Uani d S 1 Cl
N1 0.32438(10) 0.2500 0.71060(15) 0.0199(3) Uani d S 1 N
N2 0.47861(10) 0.2500 0.83213(15) 0.0216(3) Uani d S 1 N
N3 0.29232(10) 0.2500 1.09822(14) 0.0180(3) Uani d S 1 N
N4 0.45453(10) 0.2500 1.09002(15) 0.0187(3) Uani d S 1 N
N5 0.16825(10) 0.2500 0.81532(16) 0.0233(3) Uani d S 1 N
C1 0.42539(12) 0.2500 0.71522(18) 0.0225(3) Uani d S 1 C
C2 0.42189(11) 0.2500 0.95093(16) 0.0163(3) Uani d S 1 C
C3 0.31936(11) 0.2500 0.95674(17) 0.0164(3) Uani d S 1 C
C4 0.26529(12) 0.2500 0.82791(16) 0.0172(3) Uani d S 1 C
C5 0.37495(12) 0.2500 1.17584(17) 0.0199(3) Uani d S 1 C
H1 0.4584(17) 0.2500 0.631(2) 0.026(5) Uiso d S 1 H
H2 0.2946(18) 0.2500 0.620(3) 0.034(6) Uiso d S 1 H
H3 0.231(2) 0.2500 1.133(3) 0.042(7) Uiso d S 1 H
H4 0.5164(18) 0.2500 1.125(2) 0.026(6) Uiso d S 1 H
H5 0.3745(14) 0.2500 1.277(2) 0.018(5) Uiso d S 1 H
H6 0.1424(16) 0.2500 0.733(3) 0.022(5) Uiso d S 1 H
H7 0.1355(17) 0.2500 0.896(3) 0.033(6) Uiso d S 1 H
loop_
_atom_site_aniso_label
_atom_site_aniso_U_11
_atom_site_aniso_U_22
_atom_site_aniso_U_33
_atom_site_aniso_U_12
_atom_site_aniso_U_13
_atom_site_aniso_U_23
Cl1 0.0201(2) 0.0261(2) 0.0166(2) 0.000 -0.00298(13) 0.000
Cl2 0.0153(2) 0.0514(3) 0.0159(2) 0.000 0.00137(13) 0.000
N1 0.0170(6) 0.0298(7) 0.0129(6) 0.000 -0.0016(5) 0.000
N2 0.0144(6) 0.0323(8) 0.0179(7) 0.000 0.0012(5) 0.000
N3 0.0145(6) 0.0264(7) 0.0130(6) 0.000 0.0004(5) 0.000
N4 0.0140(6) 0.0261(7) 0.0159(6) 0.000 -0.0024(5) 0.000
N5 0.0145(6) 0.0406(9) 0.0150(7) 0.000 -0.0034(5) 0.000
C1 0.0175(8) 0.0351(9) 0.0150(7) 0.000 0.0024(6) 0.000
C2 0.0148(7) 0.0197(7) 0.0145(7) 0.000 -0.0015(5) 0.000
C3 0.0148(7) 0.0202(7) 0.0142(7) 0.000 0.0000(5) 0.000
C4 0.0160(7) 0.0211(7) 0.0146(7) 0.000 -0.0009(5) 0.000
C5 0.0174(7) 0.0261(8) 0.0161(7) 0.000 -0.0007(6) 0.000
loop_
_atom_type_symbol
_atom_type_description
_atom_type_scat_dispersion_real
_atom_type_scat_dispersion_imag
_atom_type_scat_source
C C 0.0033 0.0016 'International Tables Vol C Tables 4.2.6.8 and 6.1.1.4'
H H 0.0000 0.0000 'International Tables Vol C Tables 4.2.6.8 and 6.1.1.4'
N N 0.0061 0.0033 'International Tables Vol C Tables 4.2.6.8 and 6.1.1.4'
Cl Cl 0.1484 0.1585 'International Tables Vol C Tables 4.2.6.8 and 6.1.1.4'
loop_
_geom_angle_atom_site_label_1
_geom_angle_atom_site_label_2
_geom_angle_atom_site_label_3
_geom_angle
C4 N1 C1 124.03(15)
C4 N1 H2 118.9(15)
C1 N1 H2 117.1(15)
C1 N2 C2 112.44(13)
C5 N3 C3 107.88(14)
C5 N3 H3 125.3(17)
C3 N3 H3 126.9(17)
C5 N4 C2 108.32(13)
C5 N4 H4 121.5(14)
C2 N4 H4 130.2(14)
C4 N5 H6 119.3(14)
C4 N5 H7 114.9(15)
H6 N5 H7 126(2)
N2 C1 N1 124.98(16)
N2 C1 H1 117.5(14)
N1 C1 H1 117.5(14)
N2 C2 N4 126.98(14)
N2 C2 C3 126.67(14)
N4 C2 C3 106.35(14)
N3 C3 C2 107.60(14)
N3 C3 C4 133.61(15)
C2 C3 C4 118.80(14)
N5 C4 N1 120.68(15)
N5 C4 C3 126.22(15)
N1 C4 C3 113.09(13)
N3 C5 N4 109.86(14)
N3 C5 H5 122.9(11)
N4 C5 H5 127.3(11)
loop_
_geom_bond_atom_site_label_1
_geom_bond_atom_site_label_2
_geom_bond_distance
N1 C4 1.356(2)
N1 C1 1.358(2)
N1 H2 0.94(3)
N2 C1 1.308(2)
N2 C2 1.349(2)
N3 C5 1.327(2)
N3 C3 1.374(2)
N3 H3 0.89(3)
N4 C5 1.338(2)
N4 C2 1.375(2)
N4 H4 0.90(2)
N5 C4 1.310(2)
N5 H6 0.85(2)
N5 H7 0.88(3)
C1 H1 0.91(2)
C2 C3 1.379(2)
C3 C4 1.409(2)
C5 H5 0.95(2)
loop_
_geom_hbond_atom_site_label_D
_geom_hbond_atom_site_label_H
_geom_hbond_atom_site_label_A
_geom_hbond_site_symmetry_A
_geom_hbond_distance_DH
_geom_hbond_distance_HA
_geom_hbond_distance_DA
_geom_hbond_angle_DHA
N1 H2 Cl1 . 0.94(3) 2.11(3) 3.0274(14) 167(2)
N3 H3 Cl2 1_556 0.89(3) 2.25(3) 3.0693(14) 153(2)
N4 H4 Cl1 6_657 0.90(2) 2.53(2) 3.2936(15) 143.8(19)
N4 H4 Cl2 6_657 0.90(2) 2.56(2) 3.1695(14) 126.1(18)
N5 H6 N2 6_557 0.85(2) 2.28(2) 2.899(2) 129.6(19)
N5 H6 Cl1 . 0.85(2) 2.82(2) 3.5155(16) 140.3(18)
N5 H7 Cl2 1_556 0.88(3) 2.22(3) 3.0985(16) 175(2)
loop_
_geom_torsion_atom_site_label_1
_geom_torsion_atom_site_label_2
_geom_torsion_atom_site_label_3
_geom_torsion_atom_site_label_4
_geom_torsion
C2 N2 C1 N1 0.0
C4 N1 C1 N2 0.0
C1 N2 C2 N4 180.0
C1 N2 C2 C3 0.0
C5 N4 C2 N2 180.0
C5 N4 C2 C3 0.0
C5 N3 C3 C2 0.0
C5 N3 C3 C4 180.0
N2 C2 C3 N3 180.0
N4 C2 C3 N3 0.0
N2 C2 C3 C4 0.0
N4 C2 C3 C4 180.0
C1 N1 C4 N5 180.0
C1 N1 C4 C3 0.0
N3 C3 C4 N5 0.0
C2 C3 C4 N5 180.0
N3 C3 C4 N1 180.0
C2 C3 C4 N1 0.0
C3 N3 C5 N4 0.0
C2 N4 C5 N3 0.0
loop_
_cod_related_entry_id
_cod_related_entry_database
_cod_related_entry_code
1 ChemSpider 21129699
