#------------------------------------------------------------------------------
#$Date: 2017-10-13 09:09:21 +0300 (Fri, 13 Oct 2017) $
#$Revision: 201973 $
#$URL: file:///home/coder/svn-repositories/cod/cif/2/20/73/2207360.cif $
#------------------------------------------------------------------------------
#
# This file is available in the Crystallography Open Database (COD),
# http://www.crystallography.net/. The original data for this entry
# were provided by IUCr Journals, http://journals.iucr.org/.
#
# The file may be used within the scientific community so long as
# proper attribution is given to the journal article from which the
# data were obtained.
#
data_2207360
loop_
_publ_author_name
'da Silva, Luiz Everson'
'Joussef, Antonio Carlos'
'Foro, Sabine'
'Schmidt, Boris'
_publ_section_title
;
 4-Nitro-<i>N</i>-(8-quinolyl)benzenesulfonamide
;
_journal_coeditor_code           TK6271
_journal_issue                   11
_journal_name_full               'Acta Crystallographica Section E'
_journal_page_first              o3778
_journal_page_last               o3779
_journal_paper_doi               10.1107/S1600536805032691
_journal_volume                  61
_journal_year                    2005
_chemical_formula_iupac          'C15 H11 N3 O4 S'
_chemical_formula_moiety         'C15 H11 N3 O4 S'
_chemical_formula_sum            'C15 H11 N3 O4 S'
_chemical_formula_weight         329.33
_chemical_name_systematic
;
4-Nitro-N-(8-quinolyl)benzenesulfonamide
;
_space_group_IT_number           4
_symmetry_cell_setting           monoclinic
_symmetry_space_group_name_Hall  'P 2yb'
_symmetry_space_group_name_H-M   'P 1 21 1'
_atom_sites_solution_hydrogens   geom
_atom_sites_solution_primary     direct
_atom_sites_solution_secondary   difmap
_audit_creation_method           SHELXL-97
_cell_angle_alpha                90
_cell_angle_beta                 99.280(10)
_cell_angle_gamma                90
_cell_formula_units_Z            2
_cell_length_a                   5.0135(6)
_cell_length_b                   20.636(2)
_cell_length_c                   6.9660(10)
_cell_measurement_reflns_used    25
_cell_measurement_temperature    299(2)
_cell_measurement_theta_max      20.3
_cell_measurement_theta_min      4.3
_cell_volume                     711.26(15)
_computing_cell_refinement       'CAD-4/PC Software'
_computing_data_collection       'CAD-4/PC Software (Nonius, 1996)'
_computing_data_reduction        'REDU4 (Stoe & Cie, 1987)'
_computing_molecular_graphics    'PLATON (Spek, 2003)'
_computing_publication_material  SHELXL97
_computing_structure_refinement  'SHELXL97 (Sheldrick, 1997)'
_computing_structure_solution    'SHELXS97 (Sheldrick, 1997)'
_diffrn_ambient_temperature      299(2)
_diffrn_measured_fraction_theta_full 1.000
_diffrn_measured_fraction_theta_max 1.000
_diffrn_measurement_device_type  'Nonius CAD-4'
_diffrn_measurement_method       \w/2\q
_diffrn_radiation_monochromator  graphite
_diffrn_radiation_source         'fine-focus sealed tube'
_diffrn_radiation_type           CuK\a
_diffrn_radiation_wavelength     1.54180
_diffrn_reflns_av_R_equivalents  0.021
_diffrn_reflns_av_sigmaI/netI    0.018
_diffrn_reflns_limit_h_max       0
_diffrn_reflns_limit_h_min       -6
_diffrn_reflns_limit_k_max       11
_diffrn_reflns_limit_k_min       -24
_diffrn_reflns_limit_l_max       8
_diffrn_reflns_limit_l_min       -8
_diffrn_reflns_number            2347
_diffrn_reflns_theta_full        67.9
_diffrn_reflns_theta_max         67.9
_diffrn_reflns_theta_min         4.3
_diffrn_standards_decay_%        1.5
_diffrn_standards_interval_time  120
_diffrn_standards_number         3
_exptl_absorpt_coefficient_mu    2.267
_exptl_absorpt_correction_T_max  0.7915
_exptl_absorpt_correction_T_min  0.2816
_exptl_absorpt_correction_type   psi-scan
_exptl_absorpt_process_details   '(North et al., 1968)'
_exptl_crystal_colour            colourless
_exptl_crystal_density_diffrn    1.538
_exptl_crystal_density_method    'not measured'
_exptl_crystal_description       laminar
_exptl_crystal_F_000             340
_exptl_crystal_size_max          0.60
_exptl_crystal_size_mid          0.18
_exptl_crystal_size_min          0.10
_refine_diff_density_max         0.64
_refine_diff_density_min         -0.35
_refine_ls_abs_structure_details 'Flack (1983), 778 Friedel pairs'
_refine_ls_abs_structure_Flack   0.05(2)
_refine_ls_extinction_coef       0.024(3)
_refine_ls_extinction_expression Fc^*^=kFc[1+0.001xFc^2^\l^3^/sin(2\q)]^-1/4^
_refine_ls_extinction_method     SHELXL97
_refine_ls_goodness_of_fit_ref   1.14
_refine_ls_hydrogen_treatment    constr
_refine_ls_matrix_type           full
_refine_ls_number_parameters     209
_refine_ls_number_reflns         2109
_refine_ls_number_restraints     1
_refine_ls_restrained_S_all      1.14
_refine_ls_R_factor_all          0.055
_refine_ls_R_factor_gt           0.055
_refine_ls_shift/su_max          0.000
_refine_ls_shift/su_mean         0.000
_refine_ls_structure_factor_coef Fsqd
_refine_ls_weighting_details
'calc w = 1/[\s^2^(Fo^2^)+(0.1304P)^2^] where P = (Fo^2^+2Fc^2^)/3'
_refine_ls_weighting_scheme      calc
_refine_ls_wR_factor_gt          0.148
_refine_ls_wR_factor_ref         0.150
_reflns_number_gt                2081
_reflns_number_total             2109
_reflns_threshold_expression     I>2\s(I)
_cod_data_source_file            tk6271.cif
_cod_data_source_block           I
_cod_original_sg_symbol_H-M      'P 21'
_cod_database_code               2207360
_cod_database_fobs_code          2207360
loop_
_symmetry_equiv_pos_as_xyz
'x, y, z'
'-x, y+1/2, -z'
loop_
_atom_site_label
_atom_site_fract_x
_atom_site_fract_y
_atom_site_fract_z
_atom_site_U_iso_or_equiv
_atom_site_adp_type
_atom_site_calc_flag
_atom_site_refinement_flags
_atom_site_occupancy
_atom_site_type_symbol
C1 0.3033(6) 0.47779(18) 0.1567(5) 0.0335(7) Uani d . 1 C
C2 0.1150(7) 0.5163(2) 0.2246(5) 0.0445(9) Uani d . 1 C
H2 0.0552 0.5055 0.3401 0.053 Uiso calc R 1 H
C3 0.0121(8) 0.5716(2) 0.1217(6) 0.0510(10) Uani d . 1 C
H3 -0.1197 0.5961 0.1678 0.061 Uiso calc R 1 H
C4 0.1016(8) 0.5900(2) -0.0448(7) 0.0491(9) Uani d . 1 C
H4 0.0362 0.6277 -0.1088 0.059 Uiso calc R 1 H
C5 0.2947(7) 0.5514(2) -0.1198(5) 0.0431(8) Uani d . 1 C
C6 0.3954(8) 0.5673(2) -0.2909(6) 0.0514(10) Uani d . 1 C
H5 0.3393 0.6049 -0.3589 0.062 Uiso calc R 1 H
C7 0.5740(9) 0.5273(2) -0.3547(6) 0.0534(10) Uani d . 1 C
H7 0.6419 0.5372 -0.4679 0.064 Uiso calc R 1 H
C8 0.6576(8) 0.4709(2) -0.2506(5) 0.0463(9) Uani d . 1 C
H8 0.7784 0.4436 -0.2996 0.056 Uiso calc R 1 H
C9 0.3943(6) 0.49446(17) -0.0198(5) 0.0351(7) Uani d . 1 C
C10 0.2116(7) 0.31181(19) 0.1013(5) 0.0359(7) Uani d . 1 C
C11 0.0071(7) 0.32549(19) -0.0513(5) 0.0388(8) Uani d . 1 C
H11 -0.1172 0.3580 -0.0383 0.047 Uiso calc R 1 H
C12 -0.0134(8) 0.2910(2) -0.2229(5) 0.0428(8) Uani d . 1 C
H12 -0.1502 0.2998 -0.3265 0.051 Uiso calc R 1 H
C13 0.1745(8) 0.24313(19) -0.2366(5) 0.0402(8) Uani d . 1 C
C14 0.3839(8) 0.2287(2) -0.0854(6) 0.0486(9) Uani d . 1 C
H14 0.5078 0.1962 -0.0989 0.058 Uiso calc R 1 H
C15 0.4028(7) 0.2638(2) 0.0842(6) 0.0443(9) Uani d . 1 C
H15 0.5419 0.2555 0.1868 0.053 Uiso calc R 1 H
N1 0.4238(5) 0.42424(16) 0.2656(4) 0.0363(7) Uani d . 1 N
H1N 0.5944 0.4254 0.3089 0.044 Uiso calc R 1 H
N2 0.5751(6) 0.45395(16) -0.0870(4) 0.0394(7) Uani d . 1 N
N3 0.1571(8) 0.20655(19) -0.4186(5) 0.0538(9) Uani d . 1 N
O1 0.4238(5) 0.32587(15) 0.4625(3) 0.0449(7) Uani d . 1 O
O2 -0.0106(5) 0.38155(15) 0.3409(4) 0.0461(7) Uani d . 1 O
O3 -0.0368(8) 0.2168(2) -0.5470(5) 0.0761(11) Uani d . 1 O
O4 0.3307(10) 0.1676(2) -0.4337(6) 0.0867(13) Uani d . 1 O
S1 0.25229(12) 0.36028(4) 0.31245(9) 0.0337(3) Uani d . 1 S
loop_
_atom_site_aniso_label
_atom_site_aniso_U_11
_atom_site_aniso_U_22
_atom_site_aniso_U_33
_atom_site_aniso_U_12
_atom_site_aniso_U_13
_atom_site_aniso_U_23
C1 0.0243(14) 0.0341(17) 0.0403(15) 0.0005(14) -0.0003(11) -0.0043(14)
C2 0.0360(17) 0.049(2) 0.0479(18) 0.0045(16) 0.0057(14) -0.0097(17)
C3 0.0349(18) 0.043(2) 0.073(2) 0.0116(16) 0.0022(16) -0.0127(19)
C4 0.0395(19) 0.0335(19) 0.070(2) 0.0030(16) -0.0053(17) 0.0005(17)
C5 0.0337(17) 0.041(2) 0.0501(18) -0.0044(15) -0.0056(13) -0.0016(17)
C6 0.049(2) 0.047(2) 0.053(2) -0.0072(18) -0.0071(16) 0.0136(18)
C7 0.053(2) 0.062(3) 0.0448(18) -0.010(2) 0.0070(16) 0.0062(18)
C8 0.0422(19) 0.054(2) 0.0442(17) -0.0007(17) 0.0105(15) 0.0001(16)
C9 0.0282(16) 0.0371(19) 0.0386(15) -0.0031(13) 0.0007(12) -0.0026(13)
C10 0.0307(15) 0.0368(18) 0.0406(15) 0.0011(13) 0.0075(12) 0.0041(13)
C11 0.0307(16) 0.043(2) 0.0425(16) 0.0052(14) 0.0066(13) 0.0034(15)
C12 0.0405(17) 0.048(2) 0.0386(16) 0.0031(16) 0.0028(13) 0.0030(15)
C13 0.0396(18) 0.0373(19) 0.0461(16) -0.0034(15) 0.0136(14) 0.0004(15)
C14 0.040(2) 0.0396(19) 0.068(2) 0.0121(17) 0.0146(17) 0.0007(19)
C15 0.0293(17) 0.050(2) 0.053(2) 0.0061(15) 0.0040(15) 0.0029(17)
N1 0.0217(12) 0.0474(19) 0.0394(13) 0.0036(11) 0.0038(10) 0.0033(12)
N2 0.0368(14) 0.0429(17) 0.0387(13) 0.0032(13) 0.0062(11) 0.0007(12)
N3 0.069(2) 0.0397(17) 0.0567(18) -0.0064(17) 0.0237(17) -0.0041(16)
O1 0.0324(12) 0.0626(18) 0.0388(11) 0.0068(11) 0.0033(10) 0.0160(12)
O2 0.0271(12) 0.067(2) 0.0461(12) 0.0051(11) 0.0122(9) 0.0014(11)
O3 0.084(2) 0.078(3) 0.0618(18) -0.009(2) -0.0016(17) -0.0250(19)
O4 0.120(3) 0.069(3) 0.077(2) 0.029(3) 0.032(2) -0.014(2)
S1 0.0221(4) 0.0466(5) 0.0331(4) 0.0032(3) 0.0066(2) 0.0060(3)
loop_
_atom_type_symbol
_atom_type_description
_atom_type_scat_dispersion_real
_atom_type_scat_dispersion_imag
_atom_type_scat_source
C C 0.0181 0.0091 'International Tables Vol C Tables 4.2.6.8 and 6.1.1.4'
H H 0.0000 0.0000 'International Tables Vol C Tables 4.2.6.8 and 6.1.1.4'
N N 0.0311 0.0180 'International Tables Vol C Tables 4.2.6.8 and 6.1.1.4'
O O 0.0492 0.0322 'International Tables Vol C Tables 4.2.6.8 and 6.1.1.4'
S S 0.3331 0.5567 'International Tables Vol C Tables 4.2.6.8 and 6.1.1.4'
loop_
_geom_angle_atom_site_label_1
_geom_angle_atom_site_label_2
_geom_angle_atom_site_label_3
_geom_angle
C2 C1 N1 121.5(3)
C2 C1 C9 119.5(3)
N1 C1 C9 118.9(3)
C1 C2 C3 120.8(4)
C1 C2 H2 119.6
C3 C2 H2 119.6
C4 C3 C2 121.2(4)
C4 C3 H3 119.4
C2 C3 H3 119.4
C3 C4 C5 119.7(4)
C3 C4 H4 120.2
C5 C4 H4 120.2
C6 C5 C9 117.7(4)
C6 C5 C4 122.8(4)
C9 C5 C4 119.5(4)
C7 C6 C5 119.1(4)
C7 C6 H5 120.4
C5 C6 H5 120.4
C6 C7 C8 119.9(4)
C6 C7 H7 120.1
C8 C7 H7 120.1
N2 C8 C7 123.9(4)
N2 C8 H8 118.1
C7 C8 H8 118.1
N2 C9 C5 122.6(3)
N2 C9 C1 118.1(3)
C5 C9 C1 119.3(3)
C11 C10 C15 120.9(3)
C11 C10 S1 119.8(3)
C15 C10 S1 119.0(3)
C12 C11 C10 120.2(3)
C12 C11 H11 119.9
C10 C11 H11 119.9
C13 C12 C11 118.2(3)
C13 C12 H12 120.9
C11 C12 H12 120.9
C12 C13 C14 122.7(4)
C12 C13 N3 118.9(3)
C14 C13 N3 118.4(3)
C15 C14 C13 118.4(4)
C15 C14 H14 120.8
C13 C14 H14 120.8
C14 C15 C10 119.5(3)
C14 C15 H15 120.2
C10 C15 H15 120.2
C1 N1 S1 122.8(2)
C1 N1 H1N 118.6
S1 N1 H1N 118.6
C8 N2 C9 116.8(3)
O4 N3 O3 123.4(4)
O4 N3 C13 118.5(4)
O3 N3 C13 118.1(4)
O1 S1 O2 120.60(16)
O1 S1 N1 105.83(15)
O2 S1 N1 107.77(16)
O1 S1 C10 107.63(17)
O2 S1 C10 107.68(16)
N1 S1 C10 106.57(15)
loop_
_geom_bond_atom_site_label_1
_geom_bond_atom_site_label_2
_geom_bond_distance
C1 C2 1.375(5)
C1 N1 1.419(5)
C1 C9 1.421(5)
C2 C3 1.400(6)
C2 H2 0.9300
C3 C4 1.364(7)
C3 H3 0.9300
C4 C5 1.417(6)
C4 H4 0.9300
C5 C6 1.406(6)
C5 C9 1.415(5)
C6 C7 1.344(7)
C6 H5 0.9300
C7 C8 1.401(6)
C7 H7 0.9300
C8 N2 1.321(5)
C8 H8 0.9300
C9 N2 1.370(5)
C10 C11 1.382(5)
C10 C15 1.398(5)
C10 S1 1.763(4)
C11 C12 1.381(5)
C11 H11 0.9300
C12 C13 1.379(6)
C12 H12 0.9300
C13 C14 1.394(5)
C13 N3 1.466(5)
C14 C15 1.376(6)
C14 H14 0.9300
C15 H15 0.9300
N1 S1 1.636(3)
N1 H1N 0.8600
N3 O4 1.202(5)
N3 O3 1.229(5)
O1 S1 1.430(2)
O2 S1 1.433(3)
loop_
_geom_hbond_atom_site_label_D
_geom_hbond_atom_site_label_H
_geom_hbond_atom_site_label_A
_geom_hbond_site_symmetry_A
_geom_hbond_distance_DH
_geom_hbond_distance_HA
_geom_hbond_distance_DA
_geom_hbond_angle_DHA
N1 H1N O2 1_655 0.86 2.16 2.935(4) 150
C11 H11 N2 1_455 0.93 2.50 3.407(5) 1
C12 H12 O1 1_454 0.93 2.45 3.360(4) 166.3
loop_
_geom_torsion_atom_site_label_1
_geom_torsion_atom_site_label_2
_geom_torsion_atom_site_label_3
_geom_torsion_atom_site_label_4
_geom_torsion
N1 C1 C2 C3 175.5(3)
C9 C1 C2 C3 0.1(5)
C1 C2 C3 C4 -2.2(6)
C2 C3 C4 C5 2.4(6)
C3 C4 C5 C6 179.8(4)
C3 C4 C5 C9 -0.6(5)
C9 C5 C6 C7 1.9(5)
C4 C5 C6 C7 -178.5(4)
C5 C6 C7 C8 -0.2(6)
C6 C7 C8 N2 -1.3(6)
C6 C5 C9 N2 -2.4(5)
C4 C5 C9 N2 178.1(3)
C6 C5 C9 C1 178.2(3)
C4 C5 C9 C1 -1.4(5)
C2 C1 C9 N2 -177.8(3)
N1 C1 C9 N2 6.6(5)
C2 C1 C9 C5 1.7(5)
N1 C1 C9 C5 -173.9(3)
C15 C10 C11 C12 0.9(6)
S1 C10 C11 C12 175.0(3)
C10 C11 C12 C13 0.0(6)
C11 C12 C13 C14 -0.5(6)
C11 C12 C13 N3 -179.4(4)
C12 C13 C14 C15 0.1(6)
N3 C13 C14 C15 179.0(4)
C13 C14 C15 C10 0.8(6)
C11 C10 C15 C14 -1.3(6)
S1 C10 C15 C14 -175.4(3)
C2 C1 N1 S1 65.4(4)
C9 C1 N1 S1 -119.1(3)
C7 C8 N2 C9 0.9(6)
C5 C9 N2 C8 1.0(5)
C1 C9 N2 C8 -179.6(3)
C12 C13 N3 O4 175.6(4)
C14 C13 N3 O4 -3.3(6)
C12 C13 N3 O3 -5.3(6)
C14 C13 N3 O3 175.8(4)
C1 N1 S1 O1 -165.7(3)
C1 N1 S1 O2 -35.4(3)
C1 N1 S1 C10 79.9(3)
C11 C10 S1 O1 164.5(3)
C15 C10 S1 O1 -21.3(3)
C11 C10 S1 O2 33.1(3)
C15 C10 S1 O2 -152.7(3)
C11 C10 S1 N1 -82.3(3)
C15 C10 S1 N1 91.9(3)
loop_
_cod_related_entry_id
_cod_related_entry_database
_cod_related_entry_code
1 ChemSpider 3652481
