#------------------------------------------------------------------------------
#$Date: 2017-10-13 09:09:21 +0300 (Fri, 13 Oct 2017) $
#$Revision: 201973 $
#$URL: file:///home/coder/svn-repositories/cod/cif/2/20/82/2208202.cif $
#------------------------------------------------------------------------------
#
# This file is available in the Crystallography Open Database (COD),
# http://www.crystallography.net/. The original data for this entry
# were provided by IUCr Journals, http://journals.iucr.org/.
#
# The file may be used within the scientific community so long as
# proper attribution is given to the journal article from which the
# data were obtained.
#
data_2208202
loop_
_publ_author_name
'G\"ultekin, Zeynep'
'Adams, Harry'
'H\"okelek, Tuncer'
_publ_section_title
;(1<i>RS</i>,4<i>RS</i>)-1-Methoxyspiro[bicyclo[2.2.2]oct-5-ene-2,2'-[1',3']dithiolane].
 Corrigendum
;
_journal_coeditor_code           WN9163
_journal_issue                   2
_journal_name_full               'Acta Crystallographica Section E'
_journal_page_first              e6
_journal_page_last               e7
_journal_paper_doi               10.1107/S1600536806003072
_journal_volume                  62
_journal_year                    2006
_chemical_formula_iupac          'C11 H16 O S2'
_chemical_formula_moiety         'C11 H16 O S2'
_chemical_formula_sum            'C11 H16 O S2'
_chemical_formula_weight         228.36
_chemical_name_systematic
;
(1RS,4RS)-1-Methoxyspiro[bicyclo[2.2.2]oct-5-ene-2,2'-[1',3']dithiolane]
;
_space_group_IT_number           2
_symmetry_cell_setting           triclinic
_symmetry_space_group_name_Hall  '-P 1'
_symmetry_space_group_name_H-M   'P -1'
_atom_sites_solution_hydrogens   geom
_atom_sites_solution_primary     direct
_atom_sites_solution_secondary   difmap
_audit_creation_method           SHELXL-97
_cell_angle_alpha                99.23(4)
_cell_angle_beta                 103.00(5)
_cell_angle_gamma                102.69(3)
_cell_formula_units_Z            2
_cell_length_a                   6.748(4)
_cell_length_b                   7.870(4)
_cell_length_c                   11.474(7)
_cell_measurement_reflns_used    25
_cell_measurement_temperature    293(2)
_cell_measurement_theta_max      20
_cell_measurement_theta_min      12
_cell_volume                     564.9(6)
_computing_cell_refinement       XSCANS
_computing_data_collection       'XSCANS (Siemens, 1996)'
_computing_data_reduction        'SHELXTL (Bruker, 1997)'
_computing_molecular_graphics    'ORTEP-3 for windows (Farrugia, 1997)'
_computing_publication_material  'WinGX (Farrugia, 1999)'
_computing_structure_refinement  'SHELXL97 (Sheldrick, 1997)'
_computing_structure_solution    'SHELXS97 (Sheldrick, 1997)'
_diffrn_ambient_temperature      293(2)
_diffrn_measured_fraction_theta_full 1.000
_diffrn_measured_fraction_theta_max 1.000
_diffrn_measurement_device_type  'Siemens P4'
_diffrn_measurement_method       'non-profiled \w'
_diffrn_radiation_monochromator  graphite
_diffrn_radiation_source         'fine-focus sealed tube'
_diffrn_radiation_type           MoK\a
_diffrn_radiation_wavelength     0.71073
_diffrn_reflns_av_R_equivalents  0.0366
_diffrn_reflns_av_sigmaI/netI    0.0276
_diffrn_reflns_limit_h_max       8
_diffrn_reflns_limit_h_min       -1
_diffrn_reflns_limit_k_max       9
_diffrn_reflns_limit_k_min       -9
_diffrn_reflns_limit_l_max       13
_diffrn_reflns_limit_l_min       -13
_diffrn_reflns_number            2493
_diffrn_reflns_theta_full        25.00
_diffrn_reflns_theta_max         25.00
_diffrn_reflns_theta_min         2.72
_diffrn_standards_decay_%        1
_diffrn_standards_interval_count 100
_diffrn_standards_number         3
_exptl_absorpt_coefficient_mu    0.437
_exptl_absorpt_correction_type   none
_exptl_crystal_colour            colorless
_exptl_crystal_density_diffrn    1.342
_exptl_crystal_density_method    'not measured'
_exptl_crystal_description       block
_exptl_crystal_F_000             244
_exptl_crystal_size_max          0.55
_exptl_crystal_size_mid          0.34
_exptl_crystal_size_min          0.28
_refine_diff_density_max         0.299
_refine_diff_density_min         -0.224
_refine_ls_extinction_method     none
_refine_ls_goodness_of_fit_ref   1.021
_refine_ls_hydrogen_treatment    mixed
_refine_ls_matrix_type           full
_refine_ls_number_parameters     133
_refine_ls_number_reflns         1983
_refine_ls_number_restraints     6
_refine_ls_restrained_S_all      1.365
_refine_ls_R_factor_all          0.0787
_refine_ls_R_factor_gt           0.0584
_refine_ls_shift/su_max          0.000
_refine_ls_shift/su_mean         0.000
_refine_ls_structure_factor_coef Fsqd
_refine_ls_weighting_details
'calc w=1/[\s^2^(Fo^2^)+(0.0805P)^2^] where P = (Fo^2^+2Fc^2^)/3'
_refine_ls_weighting_scheme      calc
_refine_ls_wR_factor_gt          0.1302
_refine_ls_wR_factor_ref         0.1440
_reflns_number_gt                1040
_reflns_number_total             1983
_reflns_threshold_expression     I>2\s(I)
_cod_data_source_file            wn9163.cif
_cod_data_source_block           I
_cod_database_code               2208202
_cod_database_fobs_code          2208202
loop_
_symmetry_equiv_pos_as_xyz
'x, y, z'
'-x, -y, -z'
loop_
_atom_site_label
_atom_site_fract_x
_atom_site_fract_y
_atom_site_fract_z
_atom_site_U_iso_or_equiv
_atom_site_adp_type
_atom_site_calc_flag
_atom_site_refinement_flags
_atom_site_occupancy
_atom_site_type_symbol
S1 0.14528(18) 0.75241(15) 0.10473(10) 0.0530(4) Uani d . 1 S
S2 -0.0295(2) 1.01482(16) 0.22939(14) 0.0668(4) Uani d . 1 S
O1 0.2275(5) 0.8109(5) 0.3843(3) 0.0615(9) Uani d . 1 O
C1 0.0184(6) 0.7119(5) 0.3203(3) 0.0403(9) Uani d . 1 C
C2 -0.0367(6) 0.7759(5) 0.1983(3) 0.0389(9) Uani d . 1 C
C3 -0.0041(7) 0.5130(6) 0.2860(4) 0.0540(11) Uani d . 1 C
C4 -0.2285(8) 0.4089(7) 0.2191(5) 0.0670(14) Uani d . 1 C
C5 -0.3620(7) 0.5409(6) 0.1991(4) 0.0589(12) Uani d . 1 C
C6 -0.2629(7) 0.6603(6) 0.1225(4) 0.0571(12) Uani d . 1 C
C7 0.3242(9) 0.9721(7) 0.1652(6) 0.0780(16) Uani d . 1 C
C8 0.2042(9) 1.1024(7) 0.1882(6) 0.0796(15) Uani d . 1 C
C9 0.3010(8) 0.7912(8) 0.5062(4) 0.0679(14) Uani d . 1 C
C10 -0.1471(7) 0.7445(6) 0.3834(4) 0.0524(11) Uani d D 1 C
C11 -0.3444(8) 0.6569(8) 0.3204(5) 0.0657(14) Uani d D 1 C
H3A 0.0876 0.4917 0.2343 0.065 Uiso calc R 1 H
H3B 0.0409 0.4707 0.3599 0.065 Uiso calc R 1 H
H4A -0.2839 0.3288 0.2671 0.080 Uiso calc R 1 H
H4B -0.2326 0.3380 0.1408 0.080 Uiso calc R 1 H
H5 -0.5095 0.4782 0.1566 0.071 Uiso calc R 1 H
H6A -0.3509 0.7379 0.0987 0.069 Uiso calc R 1 H
H6B -0.2542 0.5865 0.0484 0.069 Uiso calc R 1 H
H7A 0.4240 0.9733 0.2410 0.094 Uiso calc R 1 H
H7B 0.4027 1.0033 0.1071 0.094 Uiso calc R 1 H
H8A 0.1669 1.1482 0.1150 0.096 Uiso calc R 1 H
H8B 0.2940 1.2020 0.2535 0.096 Uiso calc R 1 H
H9A 0.4438 0.8629 0.5409 0.102 Uiso calc R 1 H
H9B 0.2957 0.6681 0.5055 0.102 Uiso calc R 1 H
H9C 0.2132 0.8293 0.5546 0.102 Uiso calc R 1 H
H10 -0.127(8) 0.869(4) 0.416(5) 0.097(19) Uiso d D 1 H
H11 -0.438(8) 0.613(10) 0.371(5) 0.14(3) Uiso d D 1 H
loop_
_atom_site_aniso_label
_atom_site_aniso_U_11
_atom_site_aniso_U_22
_atom_site_aniso_U_33
_atom_site_aniso_U_12
_atom_site_aniso_U_13
_atom_site_aniso_U_23
S1 0.0519(7) 0.0612(7) 0.0462(6) 0.0142(5) 0.0169(5) 0.0086(5)
S2 0.074 0.0470(7) 0.0913(10) 0.0230(5) 0.0366(6) 0.0178(6)
O1 0.0422(18) 0.084(2) 0.0387(15) -0.0088(15) -0.0036(13) 0.0145(15)
C1 0.0234(18) 0.053(2) 0.0344(19) 0.0040(15) -0.0018(15) 0.0045(16)
C2 0.032(2) 0.0438(19) 0.0374(18) 0.0113(16) 0.0040(15) 0.0055(16)
C3 0.044(3) 0.066(3) 0.055(2) 0.023(2) 0.009(2) 0.020(2)
C4 0.072(3) 0.054(3) 0.060(3) 0.002(2) 0.012(2) -0.002(2)
C5 0.035(2) 0.070(3) 0.053(2) -0.0014(19) -0.0009(19) 0.001(2)
C6 0.038(2) 0.056(2) 0.056(3) 0.0066(19) -0.016(2) 0.003(2)
C7 0.061(3) 0.068(3) 0.095(4) -0.004(3) 0.029(3) 0.008(3)
C8 0.071 0.058(3) 0.094(4) 0.009(2) 0.000(3) 0.014(3)
C9 0.058(3) 0.093(4) 0.035(2) 0.000(3) -0.004(2) 0.015(2)
C10 0.044(2) 0.053(2) 0.054(2) 0.0088(19) 0.012(2) 0.002(2)
C11 0.045(3) 0.089(4) 0.068(3) 0.021(2) 0.022(2) 0.018(3)
loop_
_atom_type_symbol
_atom_type_description
_atom_type_scat_dispersion_real
_atom_type_scat_dispersion_imag
_atom_type_scat_source
C C 0.0033 0.0016 'International Tables Vol C Tables 4.2.6.8 and 6.1.1.4'
H H 0.0000 0.0000 'International Tables Vol C Tables 4.2.6.8 and 6.1.1.4'
O O 0.0106 0.0060 'International Tables Vol C Tables 4.2.6.8 and 6.1.1.4'
S S 0.1246 0.1234 'International Tables Vol C Tables 4.2.6.8 and 6.1.1.4'
loop_
_geom_angle_atom_site_label_1
_geom_angle_atom_site_label_2
_geom_angle_atom_site_label_3
_geom_angle
_geom_angle_publ_flag
C7 S1 C2 97.3(2) yes
C8 S2 C2 99.3(2) yes
C1 O1 C9 116.2(3) yes
O1 C1 C10 114.9(3) yes
O1 C1 C3 112.7(3) yes
C10 C1 C3 109.7(3) ?
O1 C1 C2 106.6(3) yes
C10 C1 C2 105.2(3) ?
C3 C1 C2 107.1(3) yes
C1 C2 C6 107.5(3) ?
C1 C2 S1 113.8(2) yes
C6 C2 S1 108.4(3) yes
C1 C2 S2 110.7(3) yes
C6 C2 S2 110.4(3) yes
S1 C2 S2 106.1(2) yes
C4 C3 C1 112.1(3) yes
C4 C3 H3A 109.2 ?
C1 C3 H3A 109.2 ?
C4 C3 H3B 109.2 ?
C1 C3 H3B 109.2 ?
H3A C3 H3B 107.9 ?
C3 C4 C5 108.6(4) ?
C3 C4 H4A 110.0 ?
C5 C4 H4A 110.0 ?
C3 C4 H4B 110.0 ?
C5 C4 H4B 110.0 ?
H4A C4 H4B 108.3 ?
C11 C5 C4 109.5(4) ?
C11 C5 C6 108.0(4) ?
C4 C5 C6 106.0(4) yes
C11 C5 H5 111.1 ?
C4 C5 H5 111.1 ?
C6 C5 H5 111.1 ?
C5 C6 C2 110.2(4) ?
C5 C6 H6A 109.6 ?
C2 C6 H6A 109.6 ?
C5 C6 H6B 109.6 ?
C2 C6 H6B 109.6 ?
H6A C6 H6B 108.1 ?
C8 C7 S1 109.5(4) yes
C8 C7 H7A 109.8 ?
S1 C7 H7A 109.8 ?
C8 C7 H7B 109.8 ?
S1 C7 H7B 109.8 ?
H7A C7 H7B 108.2 ?
C7 C8 S2 114.0(4) yes
C7 C8 H8A 108.8 ?
S2 C8 H8A 108.8 ?
C7 C8 H8B 108.8 ?
S2 C8 H8B 108.8 ?
H8A C8 H8B 107.7 ?
O1 C9 H9A 109.5 ?
O1 C9 H9B 109.5 ?
H9A C9 H9B 109.5 ?
O1 C9 H9C 109.5 ?
H9A C9 H9C 109.5 ?
H9B C9 H9C 109.5 ?
C11 C10 C1 114.7(4) yes
C11 C10 H10 114(3) ?
C1 C10 H10 112(4) ?
C10 C11 C5 114.0(4) yes
C10 C11 H11 115(4) ?
C5 C11 H11 119(4) ?
loop_
_geom_bond_atom_site_label_1
_geom_bond_atom_site_label_2
_geom_bond_distance
_geom_bond_publ_flag
S1 C7 1.802(5) yes
S1 C2 1.823(4) yes
S2 C8 1.774(7) yes
S2 C2 1.844(4) yes
O1 C1 1.416(4) yes
O1 C9 1.420(5) yes
C1 C10 1.506(6) yes
C1 C3 1.516(6) yes
C2 C1 1.558(5) yes
C2 C6 1.566(5) yes
C3 H3A 0.9700 ?
C3 H3B 0.9700 ?
C4 C3 1.511(7) yes
C4 C5 1.529(7) yes
C4 H4A 0.9700 ?
C4 H4B 0.9700 ?
C5 C6 1.536(8) yes
C5 H5 0.9800 ?
C6 H6A 0.9700 ?
C6 H6B 0.9700 ?
C7 C8 1.467(9) yes
C7 H7A 0.9700 ?
C7 H7B 0.9700 ?
C8 H8A 0.9700 ?
C8 H8B 0.9700 ?
C9 H9A 0.9600 ?
C9 H9B 0.9600 ?
C9 H9C 0.9600 ?
C10 H10 0.96(2) ?
C11 C10 1.332(7) yes
C11 C5 1.502(7) yes
C11 H11 0.99(2) ?
loop_
_geom_torsion_atom_site_label_1
_geom_torsion_atom_site_label_2
_geom_torsion_atom_site_label_3
_geom_torsion_atom_site_label_4
_geom_torsion
_geom_torsion_publ_flag
C7 S1 C2 C1 -91.9(3) ?
C7 S1 C2 C6 148.6(3) ?
C7 S1 C2 S2 30.0(3) yes
C2 S1 C7 C8 -37.9(5) yes
C2 S2 C8 C7 -9.2(5) yes
C8 S2 C2 C1 108.2(3) ?
C8 S2 C2 C6 -132.9(3) ?
C8 S2 C2 S1 -15.6(3) yes
C9 O1 C1 C10 55.7(5) ?
C9 O1 C1 C3 -70.9(5) yes
C9 O1 C1 C2 171.9(4) ?
O1 C1 C3 C4 179.3(4) ?
C10 C1 C3 C4 50.0(5) ?
C2 C1 C3 C4 -63.8(5) ?
O1 C1 C10 C11 177.3(4) ?
C3 C1 C10 C11 -54.6(5) ?
C2 C1 C10 C11 60.3(5) ?
C6 C2 C1 O1 176.8(3) ?
S1 C2 C1 O1 56.8(4) yes
S2 C2 C1 O1 -62.5(3) yes
C6 C2 C1 C10 -60.7(4) ?
S1 C2 C1 C10 179.3(3) ?
S2 C2 C1 C10 60.0(3) ?
C6 C2 C1 C3 56.0(4) ?
S1 C2 C1 C3 -64.0(4) ?
S2 C2 C1 C3 176.7(3) ?
C1 C2 C6 C5 6.6(4) ?
S1 C2 C6 C5 129.9(3) ?
S2 C2 C6 C5 -114.3(4) ?
C5 C4 C3 C1 3.8(6) ?
C3 C4 C5 C11 -56.4(5) ?
C3 C4 C5 C6 59.8(5) ?
C11 C5 C6 C2 51.3(5) ?
C4 C5 C6 C2 -65.9(4) ?
S1 C7 C8 S2 31.2(6) yes
C5 C11 C10 C1 0.7(7) ?
C10 C11 C5 C4 56.4(6) ?
C10 C11 C5 C6 -58.6(6) ?
loop_
_cod_related_entry_id
_cod_related_entry_database
_cod_related_entry_code
1 ChemSpider 21179723
