#------------------------------------------------------------------------------
#$Date: 2016-02-20 18:35:30 +0200 (Sat, 20 Feb 2016) $
#$Revision: 176787 $
#$URL: svn://www.crystallography.net/cod/cif/2/21/02/2210276.cif $
#------------------------------------------------------------------------------
#
# This file is available in the Crystallography Open Database (COD),
# http://www.crystallography.net/. The original data for this entry
# were provided by IUCr Journals, http://journals.iucr.org/.
#
# The file may be used within the scientific community so long as
# proper attribution is given to the journal article from which the
# data were obtained.
#
data_2210276
loop_
_publ_author_name
'Wu, Feng'
'Wan, Rong'
'Han, Feng'
'Wang, Jin-tang '
_publ_section_title
2-Phenyl-3-{5-[3-(trifluoromethyl)phenyl]-1,3,4-thiadiazol-2-yl}thiazolidin-4-one
_journal_coeditor_code           HG2096
_journal_issue                   9
_journal_name_full               'Acta Crystallographica Section E'
_journal_page_first              o4072
_journal_page_last               o4074
_journal_paper_doi               10.1107/S1600536806033149
_journal_volume                  62
_journal_year                    2006
_chemical_formula_iupac          'C18 H12 F3 N3 O S2'
_chemical_formula_moiety         'C18 H12 F3 N3 O S2'
_chemical_formula_sum            'C18 H12 F3 N3 O S2'
_chemical_formula_weight         407.43
_chemical_melting_point          .452E-305
_chemical_name_systematic
;
3-{5-[3-(Trifluoromethyl)phenyl]-1,3,4-thiadiazol-2-yl}-
2-phenylthiazolidin-4-one
;
_space_group_IT_number           2
_symmetry_cell_setting           triclinic
_symmetry_space_group_name_Hall  '-P 1'
_symmetry_space_group_name_H-M   'P -1'
_atom_sites_solution_hydrogens   geom
_atom_sites_solution_primary     direct
_atom_sites_solution_secondary   difmap
_audit_creation_method           SHELXL-97
_cell_angle_alpha                79.86(3)
_cell_angle_beta                 78.03(3)
_cell_angle_gamma                84.70(3)
_cell_formula_units_Z            2
_cell_length_a                   7.5370(15)
_cell_length_b                   10.538(2)
_cell_length_c                   11.380(2)
_cell_measurement_reflns_used    25
_cell_measurement_temperature    293(2)
_cell_measurement_theta_max      12
_cell_measurement_theta_min      10
_cell_volume                     868.9(3)
_computing_cell_refinement       'CAD-4 Software'
_computing_data_collection       'CAD-4 Software (Enraf--Nonius,1989)'
_computing_data_reduction        'XCAD4 (Harms & Wocadlo, 1995)'
_computing_molecular_graphics    'SHELXTL (Siemens, 1996)'
_computing_publication_material  SHELXL97
_computing_structure_refinement  'SHELXL97 (Sheldrick, 1997)'
_computing_structure_solution    'SHELXS97 (Sheldrick, 1997)'
_diffrn_ambient_temperature      293(2)
_diffrn_measured_fraction_theta_full 1.000
_diffrn_measured_fraction_theta_max 1.000
_diffrn_measurement_device_type  'Enraf--Nonius CAD-4'
_diffrn_measurement_method       \w/2\q
_diffrn_radiation_monochromator  graphite
_diffrn_radiation_source         'fine-focus sealed tube'
_diffrn_radiation_type           MoK\a
_diffrn_radiation_wavelength     0.71073
_diffrn_reflns_av_R_equivalents  0.0177
_diffrn_reflns_av_sigmaI/netI    0.0244
_diffrn_reflns_limit_h_max       9
_diffrn_reflns_limit_h_min       0
_diffrn_reflns_limit_k_max       12
_diffrn_reflns_limit_k_min       -12
_diffrn_reflns_limit_l_max       14
_diffrn_reflns_limit_l_min       -13
_diffrn_reflns_number            3679
_diffrn_reflns_theta_full        25.97
_diffrn_reflns_theta_max         25.97
_diffrn_reflns_theta_min         1.85
_diffrn_standards_decay_%        0
_diffrn_standards_interval_count 200
_diffrn_standards_number         3
_exptl_absorpt_coefficient_mu    0.351
_exptl_absorpt_correction_T_max  0.9021
_exptl_absorpt_correction_T_min  0.8724
_exptl_absorpt_correction_type   psi-scan
_exptl_absorpt_process_details   '(North <i>et al.</i>,  1968)'
_exptl_crystal_colour            colorless
_exptl_crystal_density_diffrn    1.557
_exptl_crystal_density_method    'not measured'
_exptl_crystal_description       block
_exptl_crystal_F_000             416
_exptl_crystal_size_max          0.40
_exptl_crystal_size_mid          0.40
_exptl_crystal_size_min          0.30
_refine_diff_density_max         0.333
_refine_diff_density_min         -0.315
_refine_ls_extinction_coef       0.0016(5)
_refine_ls_extinction_method     SHELXL97
_refine_ls_goodness_of_fit_ref   1.006
_refine_ls_hydrogen_treatment    constr
_refine_ls_matrix_type           full
_refine_ls_number_parameters     272
_refine_ls_number_reflns         3405
_refine_ls_number_restraints     36
_refine_ls_restrained_S_all      1.010
_refine_ls_R_factor_all          0.0507
_refine_ls_R_factor_gt           0.0396
_refine_ls_shift/su_max          0.000
_refine_ls_shift/su_mean         0.000
_refine_ls_structure_factor_coef Fsqd
_refine_ls_weighting_details
'calc w=1/[\s^2^(Fo^2^)+(0.1P)^2^] where P=(Fo^2^+2Fc^2^)/3'
_refine_ls_weighting_scheme      calc
_refine_ls_wR_factor_gt          0.1183
_refine_ls_wR_factor_ref         0.1309
_reflns_number_gt                2823
_reflns_number_total             3405
_reflns_threshold_expression     I>2\s(I)
_cod_data_source_file            hg2096.cif
_cod_data_source_block           I
_cod_depositor_comments
;
The following automatic conversions were performed:
'_symmetry_cell_setting' value 'Triclinic' changed to 'triclinic'
according to '/home/saulius/struct/CIF-dictionaries/cif_core.dic'
dictionary named 'cif_core.dic' version 2.4.1 from 2010-06-29.

Automatic conversion script
Id: cif_fix_enum 1527 2010-12-29 10:47:43Z saulius 

The following automatic conversions were performed:

'_symmetry_cell_setting' value 'Triclinic' changed to 'triclinic'
according to /home/saulius/struct/CIF-dictionaries/cif_core.dic
dictionary named 'cif_core.dic' version 2.4.1 from 2010-06-29.

Automatic conversion script
Id: cif_fix_values 1715 2011-07-08 13:25:40Z adriana 
;
_cod_database_code               2210276
_cod_database_fobs_code          2210276
loop_
_symmetry_equiv_pos_as_xyz
'x, y, z'
'-x, -y, -z'
loop_
_atom_site_type_symbol
_atom_site_label
_atom_site_fract_x
_atom_site_fract_y
_atom_site_fract_z
_atom_site_U_iso_or_equiv
_atom_site_adp_type
_atom_site_calc_flag
_atom_site_refinement_flags
_atom_site_occupancy
_atom_site_disorder_assembly
_atom_site_disorder_group
S S1 0.42686(8) 0.68681(7) 0.48054(6) 0.0549(2) Uani d . 1 . .
S S2 0.24768(6) 0.46681(5) 0.13863(4) 0.03953(17) Uani d . 1 . .
F F1 -0.422(2) -0.0008(12) 0.176(2) 0.095(4) Uani d PU 0.53(6) A 1
F F2 -0.539(3) 0.1814(19) 0.2305(18) 0.087(4) Uani d PU 0.53(6) A 1
F F3 -0.546(3) 0.144(3) 0.055(2) 0.105(5) Uani d PU 0.53(6) A 1
F F2' -0.517(3) 0.150(3) 0.2483(17) 0.081(4) Uani d PU 0.47(6) A 2
F F1' -0.420(2) 0.0073(13) 0.142(2) 0.077(3) Uani d PU 0.47(6) A 2
F F3' -0.564(2) 0.1659(19) 0.0680(19) 0.079(3) Uani d PU 0.47(6) A 2
O O 0.5429(2) 0.58159(18) 0.16410(15) 0.0591(5) Uani d . 1 . .
N N1 0.2961(2) 0.60499(16) 0.31335(14) 0.0377(4) Uani d . 1 . .
N N2 0.0151(2) 0.52331(17) 0.32498(15) 0.0417(4) Uani d . 1 . .
N N3 -0.0724(2) 0.44841(17) 0.26988(15) 0.0419(4) Uani d . 1 . .
C C1 0.0389(4) 0.9932(2) 0.3088(2) 0.0602(6) Uani d . 1 . .
H H1A 0.0779 1.0641 0.2510 0.072 Uiso calc R 1 . .
C C2 -0.1331(4) 0.9974(2) 0.3783(2) 0.0564(6) Uani d . 1 . .
H H2B -0.2100 1.0712 0.3686 0.068 Uiso calc R 1 . .
C C3 -0.1902(3) 0.8919(3) 0.4621(2) 0.0587(6) Uani d . 1 . .
H H3B -0.3064 0.8941 0.5097 0.070 Uiso calc R 1 . .
C C4 -0.0760(3) 0.7819(2) 0.4764(2) 0.0486(5) Uani d . 1 . .
H H4A -0.1166 0.7104 0.5328 0.058 Uiso calc R 1 . .
C C5 0.0983(3) 0.77758(18) 0.40725(17) 0.0365(4) Uani d . 1 . .
C C6 0.1547(3) 0.8848(2) 0.3240(2) 0.0497(5) Uani d . 1 . .
H H6A 0.2718 0.8841 0.2776 0.060 Uiso calc R 1 . .
C C7 0.2238(3) 0.65840(19) 0.42685(18) 0.0378(4) Uani d . 1 . .
H H7A 0.1563 0.5922 0.4864 0.045 Uiso calc R 1 . .
C C8 0.5735(3) 0.6818(2) 0.3341(2) 0.0530(6) Uani d . 1 . .
H H8A 0.6012 0.7687 0.2936 0.064 Uiso calc R 1 . .
H H8B 0.6866 0.6333 0.3442 0.064 Uiso calc R 1 . .
C C9 0.4763(3) 0.6180(2) 0.2594(2) 0.0435(5) Uani d . 1 . .
C C10 0.1825(3) 0.53877(17) 0.26751(17) 0.0342(4) Uani d . 1 . .
C C11 0.0295(2) 0.41173(18) 0.17300(17) 0.0351(4) Uani d . 1 . .
C C12 -0.0348(3) 0.32625(18) 0.10279(17) 0.0362(4) Uani d . 1 . .
C C13 -0.2046(3) 0.27643(19) 0.14750(18) 0.0387(4) Uani d . 1 . .
H H13A -0.2779 0.3009 0.2172 0.046 Uiso calc R 1 . .
C C14 -0.2636(3) 0.1900(2) 0.08725(19) 0.0416(5) Uani d . 1 A .
C C15 -0.1572(3) 0.1552(2) -0.0186(2) 0.0517(6) Uani d . 1 . .
H H15A -0.1976 0.0965 -0.0580 0.062 Uiso calc R 1 . .
C C16 0.0075(3) 0.2076(2) -0.0648(2) 0.0543(6) Uani d . 1 . .
H H16A 0.0774 0.1863 -0.1369 0.065 Uiso calc R 1 . .
C C17 0.0707(3) 0.2927(2) -0.00421(19) 0.0443(5) Uani d . 1 . .
H H17A 0.1834 0.3271 -0.0352 0.053 Uiso calc R 1 . .
C C18 -0.4411(3) 0.1295(2) 0.1371(2) 0.0547(6) Uani d . 1 . .
loop_
_atom_site_aniso_label
_atom_site_aniso_U_11
_atom_site_aniso_U_22
_atom_site_aniso_U_33
_atom_site_aniso_U_12
_atom_site_aniso_U_13
_atom_site_aniso_U_23
S1 0.0428(3) 0.0746(4) 0.0542(4) 0.0023(3) -0.0150(3) -0.0251(3)
S2 0.0317(3) 0.0458(3) 0.0405(3) -0.0058(2) 0.0027(2) -0.0152(2)
F1 0.070(4) 0.068(4) 0.131(9) -0.029(3) -0.014(4) 0.035(5)
F2 0.060(4) 0.083(5) 0.110(8) -0.027(3) 0.021(4) -0.028(4)
F3 0.064(7) 0.156(10) 0.112(6) -0.034(6) -0.042(5) -0.021(6)
F2' 0.066(6) 0.119(10) 0.059(4) -0.049(6) 0.016(3) -0.031(5)
F1' 0.076(4) 0.037(4) 0.109(8) -0.019(3) 0.001(4) -0.005(4)
F3' 0.044(3) 0.098(5) 0.093(6) -0.006(3) -0.025(4) 0.002(5)
O 0.0365(8) 0.0846(12) 0.0563(10) -0.0123(8) 0.0086(7) -0.0285(9)
N1 0.0317(8) 0.0413(9) 0.0392(9) -0.0064(7) 0.0013(7) -0.0119(7)
N2 0.0369(9) 0.0474(10) 0.0396(9) -0.0117(7) 0.0035(7) -0.0120(7)
N3 0.0357(9) 0.0484(10) 0.0415(9) -0.0112(7) 0.0009(7) -0.0126(7)
C1 0.0736(17) 0.0476(13) 0.0578(14) 0.0009(12) -0.0134(13) -0.0054(11)
C2 0.0632(15) 0.0514(13) 0.0613(14) 0.0133(11) -0.0249(12) -0.0207(11)
C3 0.0386(12) 0.0733(16) 0.0676(15) 0.0061(11) -0.0080(11) -0.0280(13)
C4 0.0392(11) 0.0516(13) 0.0531(13) -0.0068(9) -0.0006(9) -0.0112(10)
C5 0.0360(10) 0.0404(10) 0.0355(10) -0.0053(8) -0.0038(8) -0.0143(8)
C6 0.0495(12) 0.0470(12) 0.0492(12) -0.0044(10) -0.0009(10) -0.0080(10)
C7 0.0370(10) 0.0402(10) 0.0365(10) -0.0058(8) -0.0026(8) -0.0110(8)
C8 0.0337(11) 0.0645(14) 0.0633(14) -0.0070(10) -0.0053(10) -0.0200(12)
C9 0.0321(10) 0.0479(12) 0.0489(12) -0.0053(9) 0.0001(9) -0.0113(9)
C10 0.0323(9) 0.0331(9) 0.0352(10) -0.0030(7) -0.0008(7) -0.0063(8)
C11 0.0326(9) 0.0344(9) 0.0365(10) -0.0052(7) -0.0020(8) -0.0046(8)
C12 0.0371(10) 0.0347(10) 0.0357(10) -0.0028(8) -0.0065(8) -0.0031(8)
C13 0.0382(10) 0.0396(10) 0.0378(10) -0.0045(8) -0.0044(8) -0.0071(8)
C14 0.0390(11) 0.0405(11) 0.0457(11) -0.0056(8) -0.0095(9) -0.0051(9)
C15 0.0557(14) 0.0521(13) 0.0531(13) -0.0086(10) -0.0119(11) -0.0202(10)
C16 0.0547(14) 0.0634(15) 0.0465(12) -0.0063(11) -0.0006(10) -0.0233(11)
C17 0.0381(11) 0.0502(12) 0.0431(11) -0.0056(9) -0.0015(9) -0.0096(9)
C18 0.0473(13) 0.0567(15) 0.0624(15) -0.0141(11) -0.0112(11) -0.0096(12)
loop_
_atom_type_symbol
_atom_type_description
_atom_type_scat_dispersion_real
_atom_type_scat_dispersion_imag
_atom_type_scat_source
C C 0.0033 0.0016 'International Tables Vol C Tables 4.2.6.8 and 6.1.1.4'
H H 0.0000 0.0000 'International Tables Vol C Tables 4.2.6.8 and 6.1.1.4'
N N 0.0061 0.0033 'International Tables Vol C Tables 4.2.6.8 and 6.1.1.4'
O O 0.0106 0.0060 'International Tables Vol C Tables 4.2.6.8 and 6.1.1.4'
F F 0.0171 0.0103 'International Tables Vol C Tables 4.2.6.8 and 6.1.1.4'
S S 0.1246 0.1234 'International Tables Vol C Tables 4.2.6.8 and 6.1.1.4'
loop_
_geom_angle_atom_site_label_1
_geom_angle_atom_site_label_2
_geom_angle_atom_site_label_3
_geom_angle
_geom_angle_publ_flag
C8 S1 C7 93.43(10) yes
C10 S2 C11 85.90(9) yes
C9 N1 C10 122.03(17) yes
C9 N1 C7 119.02(17) yes
C10 N1 C7 118.90(15) yes
C10 N2 N3 111.35(16) yes
C11 N3 N2 113.12(16) yes
C2 C1 C6 120.7(2) ?
C2 C1 H1A 119.7 ?
C6 C1 H1A 119.7 ?
C3 C2 C1 119.3(2) ?
C3 C2 H2B 120.4 ?
C1 C2 H2B 120.4 ?
C2 C3 C4 120.4(2) ?
C2 C3 H3B 119.8 ?
C4 C3 H3B 119.8 ?
C3 C4 C5 120.5(2) ?
C3 C4 H4A 119.7 ?
C5 C4 H4A 119.7 ?
C6 C5 C4 118.5(2) ?
C6 C5 C7 121.53(18) ?
C4 C5 C7 119.95(18) ?
C5 C6 C1 120.6(2) ?
C5 C6 H6A 119.7 ?
C1 C6 H6A 119.7 ?
N1 C7 C5 112.51(16) yes
N1 C7 S1 104.07(13) yes
C5 C7 S1 113.96(13) yes
N1 C7 H7A 108.7 yes
C5 C7 H7A 108.7 ?
S1 C7 H7A 108.7 ?
C9 C8 S1 108.04(15) yes
C9 C8 H8A 110.1 ?
S1 C8 H8A 110.1 ?
C9 C8 H8B 110.1 ?
S1 C8 H8B 110.1 ?
H8A C8 H8B 108.4 ?
O C9 N1 122.7(2) yes
O C9 C8 126.02(19) yes
N1 C9 C8 111.29(18) yes
N2 C10 N1 119.94(17) yes
N2 C10 S2 115.44(15) yes
N1 C10 S2 124.57(14) yes
N3 C11 C12 122.10(17) yes
N3 C11 S2 114.17(15) yes
C12 C11 S2 123.67(14) yes
C13 C12 C17 119.75(19) ?
C13 C12 C11 118.24(18) ?
C17 C12 C11 122.00(18) ?
C14 C13 C12 119.37(19) ?
C14 C13 H13A 120.3 ?
C12 C13 H13A 120.3 ?
C13 C14 C15 120.8(2) ?
C13 C14 C18 120.4(2) ?
C15 C14 C18 118.8(2) ?
C16 C15 C14 119.8(2) ?
C16 C15 H15A 120.1 ?
C14 C15 H15A 120.1 ?
C15 C16 C17 120.3(2) ?
C15 C16 H16A 119.9 ?
C17 C16 H16A 119.9 ?
C16 C17 C12 120.0(2) ?
C16 C17 H17A 120.0 ?
C12 C17 H17A 120.0 ?
F1' C18 F2' 106.4(11) ?
F1' C18 F3' 104.5(13) ?
F2' C18 F3' 107.1(14) ?
F1' C18 F3 93.5(12) ?
F2' C18 F3 118.0(12) ?
F3' C18 F3 13(2) ?
F1' C18 F2 120.7(10) ?
F2' C18 F2 17.1(16) ?
F3' C18 F2 93.3(13) ?
F3 C18 F2 105.5(13) ?
F1' C18 F1 15.9(13) ?
F2' C18 F1 91.6(10) ?
F3' C18 F1 115.4(11) ?
F3 C18 F1 106.0(11) ?
F2 C18 F1 106.9(10) ?
F1' C18 C14 110.4(8) ?
F2' C18 C14 114.2(8) ?
F3' C18 C14 113.6(8) ?
F3 C18 C14 112.0(8) ?
F2 C18 C14 112.9(8) ?
F1 C18 C14 113.0(7) ?
loop_
_geom_bond_atom_site_label_1
_geom_bond_atom_site_label_2
_geom_bond_distance
_geom_bond_publ_flag
S1 C8 1.805(2) yes
S1 C7 1.828(2) yes
S2 C10 1.7295(19) yes
S2 C11 1.7385(19) yes
F1 C18 1.371(14) yes
F2 C18 1.334(16) yes
F3 C18 1.327(18) yes
F2' C18 1.323(15) yes
F1' C18 1.275(12) yes
F3' C18 1.326(17) yes
O C9 1.208(3) yes
N1 C9 1.378(2) yes
N1 C10 1.385(3) yes
N1 C7 1.480(2) yes
N2 C10 1.305(2) yes
N2 N3 1.376(2) yes
N3 C11 1.303(2) yes
C1 C2 1.373(4) ?
C1 C6 1.380(3) ?
C1 H1A 0.9300 ?
C2 C3 1.370(4) ?
C2 H2B 0.9300 ?
C3 C4 1.385(3) ?
C3 H3B 0.9300 ?
C4 C5 1.385(3) ?
C4 H4A 0.9300 ?
C5 C6 1.378(3) ?
C5 C7 1.514(3) ?
C6 H6A 0.9300 ?
C7 H7A 0.9800 ?
C8 C9 1.504(3) ?
C8 H8A 0.9700 ?
C8 H8B 0.9700 ?
C11 C12 1.476(3) ?
C12 C13 1.390(3) ?
C12 C17 1.392(3) ?
C13 C14 1.385(3) ?
C13 H13A 0.9300 ?
C14 C15 1.389(3) ?
C14 C18 1.494(3) ?
C15 C16 1.370(3) ?
C15 H15A 0.9300 ?
C16 C17 1.392(3) ?
C16 H16A 0.9300 ?
C17 H17A 0.9300 ?
loop_
_geom_hbond_atom_site_label_D
_geom_hbond_atom_site_label_H
_geom_hbond_atom_site_label_A
_geom_hbond_site_symmetry_A
_geom_hbond_distance_DH
_geom_hbond_distance_HA
_geom_hbond_distance_DA
_geom_hbond_angle_DHA
_geom_hbond_publ_flag
C8 H8B N2 1_655 0.97 2.62 3.573(3) 168 yes
C13 H13A N3 . 0.93 2.52 2.831(3) 100 yes
C17 H17A S2 . 0.93 2.81 3.192(2) 106 yes
loop_
_geom_torsion_atom_site_label_1
_geom_torsion_atom_site_label_2
_geom_torsion_atom_site_label_3
_geom_torsion_atom_site_label_4
_geom_torsion
C10 N2 N3 C11 -0.9(2)
C6 C1 C2 C3 -0.9(4)
C1 C2 C3 C4 -0.2(4)
C2 C3 C4 C5 0.8(4)
C3 C4 C5 C6 -0.2(3)
C3 C4 C5 C7 177.9(2)
C4 C5 C6 C1 -0.9(3)
C7 C5 C6 C1 -179.0(2)
C2 C1 C6 C5 1.5(4)
C9 N1 C7 C5 108.2(2)
C10 N1 C7 C5 -74.5(2)
C9 N1 C7 S1 -15.7(2)
C10 N1 C7 S1 161.67(14)
C6 C5 C7 N1 -56.8(2)
C4 C5 C7 N1 125.1(2)
C6 C5 C7 S1 61.3(2)
C4 C5 C7 S1 -116.75(19)
C8 S1 C7 N1 18.23(14)
C8 S1 C7 C5 -104.67(16)
C7 S1 C8 C9 -17.55(17)
C10 N1 C9 O 5.9(3)
C7 N1 C9 O -176.9(2)
C10 N1 C9 C8 -174.12(18)
C7 N1 C9 C8 3.1(3)
S1 C8 C9 O -168.5(2)
S1 C8 C9 N1 11.5(2)
N3 N2 C10 N1 -176.15(16)
N3 N2 C10 S2 1.5(2)
C9 N1 C10 N2 176.58(18)
C7 N1 C10 N2 -0.7(3)
C9 N1 C10 S2 -0.9(3)
C7 N1 C10 S2 -178.09(14)
C11 S2 C10 N2 -1.31(16)
C11 S2 C10 N1 176.22(18)
N2 N3 C11 C12 177.43(17)
N2 N3 C11 S2 -0.1(2)
C10 S2 C11 N3 0.78(15)
C10 S2 C11 C12 -176.74(17)
N3 C11 C12 C13 -4.8(3)
S2 C11 C12 C13 172.50(14)
N3 C11 C12 C17 176.54(19)
S2 C11 C12 C17 -6.1(3)
C17 C12 C13 C14 2.5(3)
C11 C12 C13 C14 -176.20(18)
C12 C13 C14 C15 -1.6(3)
C12 C13 C14 C18 176.66(19)
C13 C14 C15 C16 -0.5(3)
C18 C14 C15 C16 -178.8(2)
C14 C15 C16 C17 1.8(4)
C15 C16 C17 C12 -1.0(4)
C13 C12 C17 C16 -1.2(3)
C11 C12 C17 C16 177.4(2)
C13 C14 C18 F1' -129.6(13)
C15 C14 C18 F1' 48.7(13)
C13 C14 C18 F2' -9.7(17)
C15 C14 C18 F2' 168.6(16)
C13 C14 C18 F3' 113.5(12)
C15 C14 C18 F3' -68.2(12)
C13 C14 C18 F3 127.7(15)
C15 C14 C18 F3 -54.0(15)
C13 C14 C18 F2 8.9(12)
C15 C14 C18 F2 -172.8(12)
C13 C14 C18 F1 -112.6(12)
C15 C14 C18 F1 65.7(12)
