#------------------------------------------------------------------------------
#$Date: 2017-10-13 11:03:29 +0300 (Fri, 13 Oct 2017) $
#$Revision: 201974 $
#$URL: file:///home/coder/svn-repositories/cod/cif/2/21/06/2210611.cif $
#------------------------------------------------------------------------------
#
# This file is available in the Crystallography Open Database (COD),
# http://www.crystallography.net/. The original data for this entry
# were provided by IUCr Journals, http://journals.iucr.org/.
#
# The file may be used within the scientific community so long as
# proper attribution is given to the journal article from which the
# data were obtained.
#
data_2210611
loop_
_publ_author_name
'Xian-Mei Shang'
'Ji-Zhou Wu'
'Qing-Shan Li'
_publ_section_title
;
 2,4-Difluorobenzohydroxamic acid
;
_journal_coeditor_code           GD2010
_journal_issue                   10
_journal_name_full               'Acta Crystallographica Section E'
_journal_page_first              o4302
_journal_page_last               o4303
_journal_paper_doi               10.1107/S1600536806034957
_journal_volume                  62
_journal_year                    2006
_chemical_formula_iupac          'C7 H5 F2 N O2'
_chemical_formula_moiety         'C7 H5 F2 N O2'
_chemical_formula_sum            'C7 H5 F2 N O2'
_chemical_formula_weight         173.12
_chemical_name_systematic
;
2,4-Difluorobenzohydroxamic acid
;
_space_group_IT_number           14
_symmetry_cell_setting           monoclinic
_symmetry_space_group_name_Hall  '-P 2ybc'
_symmetry_space_group_name_H-M   'P 1 21/c 1'
_atom_sites_solution_hydrogens   geom
_atom_sites_solution_primary     direct
_atom_sites_solution_secondary   difmap
_audit_creation_method           SHELXL-97
_cell_angle_alpha                90.00
_cell_angle_beta                 111.795(3)
_cell_angle_gamma                90.00
_cell_formula_units_Z            4
_cell_length_a                   6.9266(10)
_cell_length_b                   15.358(2)
_cell_length_c                   7.0430(11)
_cell_measurement_reflns_used    1339
_cell_measurement_temperature    292(2)
_cell_measurement_theta_max      26.23
_cell_measurement_theta_min      2.65
_cell_volume                     695.67(17)
_computing_cell_refinement       SMART
_computing_data_collection       'SMART (Bruker, 2003)'
_computing_data_reduction        'SAINT (Bruker, 2003)'
_computing_molecular_graphics    'SHELXTL (Bruker, 1997)'
_computing_publication_material  SHELXTL
_computing_structure_refinement  'SHELXL97 (Sheldrick, 1997)'
_computing_structure_solution    'SHELXS97 (Sheldrick, 1997)'
_diffrn_ambient_temperature      292(2)
_diffrn_measured_fraction_theta_full 0.992
_diffrn_measured_fraction_theta_max 0.992
_diffrn_measurement_device_type  'Bruker SMART CCD area-detector'
_diffrn_measurement_method       '\f and \w'
_diffrn_radiation_monochromator  graphite
_diffrn_radiation_source         'fine-focus sealed tube'
_diffrn_radiation_type           'Mo K\a'
_diffrn_radiation_wavelength     0.71073
_diffrn_reflns_av_R_equivalents  0.0443
_diffrn_reflns_av_sigmaI/netI    0.0356
_diffrn_reflns_limit_h_max       7
_diffrn_reflns_limit_h_min       -8
_diffrn_reflns_limit_k_max       19
_diffrn_reflns_limit_k_min       -19
_diffrn_reflns_limit_l_max       8
_diffrn_reflns_limit_l_min       -9
_diffrn_reflns_number            4297
_diffrn_reflns_theta_full        27.42
_diffrn_reflns_theta_max         27.42
_diffrn_reflns_theta_min         2.65
_diffrn_standards_decay_%        0
_exptl_absorpt_coefficient_mu    0.156
_exptl_absorpt_correction_T_max  0.9695
_exptl_absorpt_correction_T_min  0.9547
_exptl_absorpt_correction_type   multi-scan
_exptl_absorpt_process_details   '(SADABS; Sheldrick, 1996)'
_exptl_crystal_colour            colourless
_exptl_crystal_density_diffrn    1.653
_exptl_crystal_density_method    'not measured'
_exptl_crystal_description       block
_exptl_crystal_F_000             352
_exptl_crystal_size_max          0.30
_exptl_crystal_size_mid          0.20
_exptl_crystal_size_min          0.15
_refine_diff_density_max         0.237
_refine_diff_density_min         -0.198
_refine_ls_extinction_method     none
_refine_ls_goodness_of_fit_ref   1.035
_refine_ls_hydrogen_treatment    constr
_refine_ls_matrix_type           full
_refine_ls_number_parameters     109
_refine_ls_number_reflns         1564
_refine_ls_number_restraints     0
_refine_ls_restrained_S_all      1.035
_refine_ls_R_factor_all          0.0633
_refine_ls_R_factor_gt           0.0458
_refine_ls_shift/su_max          0.000
_refine_ls_shift/su_mean         0.000
_refine_ls_structure_factor_coef Fsqd
_refine_ls_weighting_details
'calc w=1/[\s^2^(Fo^2^)+(0.0664P)^2^] where P=(Fo^2^+2Fc^2^)/3'
_refine_ls_weighting_scheme      calc
_refine_ls_wR_factor_gt          0.1180
_refine_ls_wR_factor_ref         0.1264
_reflns_number_gt                1091
_reflns_number_total             1564
_reflns_threshold_expression     I>2\s(I)
_cod_data_source_file            gd2010.cif
_cod_data_source_block           I
_cod_depositor_comments
;
The following automatic conversions were performed:
'_symmetry_cell_setting' value 'Monoclinic' changed to 'monoclinic'
according to '/home/saulius/struct/CIF-dictionaries/cif_core.dic'
dictionary named 'cif_core.dic' version 2.4.1 from 2010-06-29.

Automatic conversion script
Id: cif_fix_enum 1527 2010-12-29 10:47:43Z saulius 

The following automatic conversions were performed:

'_symmetry_cell_setting' value 'Monoclinic' changed to 'monoclinic'
according to /home/saulius/struct/CIF-dictionaries/cif_core.dic
dictionary named 'cif_core.dic' version 2.4.1 from 2010-06-29.

Automatic conversion script
Id: cif_fix_values 1715 2011-07-08 13:25:40Z adriana 
;
_cod_original_cell_volume        695.68(18)
_cod_original_sg_symbol_H-M      'P 21/c'
_cod_database_code               2210611
_cod_database_fobs_code          2210611
loop_
_symmetry_equiv_pos_as_xyz
'x, y, z'
'-x, y+1/2, -z+1/2'
'-x, -y, -z'
'x, -y-1/2, z-1/2'
loop_
_atom_site_type_symbol
_atom_site_label
_atom_site_fract_x
_atom_site_fract_y
_atom_site_fract_z
_atom_site_U_iso_or_equiv
_atom_site_adp_type
_atom_site_calc_flag
_atom_site_refinement_flags
_atom_site_occupancy
C C1 0.7887(2) 0.28126(10) 0.5190(2) 0.0408(4) Uani d . 1
C C2 0.5910(2) 0.24563(10) 0.4534(2) 0.0466(4) Uani d . 1
C C3 0.5514(3) 0.15762(11) 0.4337(3) 0.0554(5) Uani d . 1
H H3 0.4165 0.1359 0.3881 0.066 Uiso calc R 1
C C4 0.7200(3) 0.10372(10) 0.4844(3) 0.0551(5) Uani d . 1
C C5 0.9192(3) 0.13384(12) 0.5522(3) 0.0593(5) Uani d . 1
H H5 1.0308 0.0954 0.5874 0.071 Uiso calc R 1
C C6 0.9516(3) 0.22264(11) 0.5674(2) 0.0513(4) Uani d . 1
H H6 1.0870 0.2437 0.6116 0.062 Uiso calc R 1
C C7 0.8437(2) 0.37584(10) 0.5462(2) 0.0446(4) Uani d . 1
F F1 0.6865(2) 0.01699(6) 0.4639(2) 0.0845(4) Uani d . 1
F F2 0.42360(14) 0.29886(6) 0.40470(18) 0.0734(4) Uani d . 1
N N1 0.6894(2) 0.43291(8) 0.4884(2) 0.0532(4) Uani d . 1
O O1 1.02750(17) 0.39864(8) 0.61625(19) 0.0630(4) Uani d . 1
O O2 0.7298(2) 0.52064(7) 0.5350(2) 0.0687(4) Uani d . 1
H H1 0.5617 0.4178 0.4454 0.082 Uiso d R 1
H H2A 0.8208 0.5334 0.4828 0.103 Uiso d R 1
loop_
_atom_site_aniso_label
_atom_site_aniso_U_11
_atom_site_aniso_U_22
_atom_site_aniso_U_33
_atom_site_aniso_U_12
_atom_site_aniso_U_13
_atom_site_aniso_U_23
C1 0.0378(8) 0.0452(9) 0.0394(8) 0.0000(6) 0.0145(7) 0.0005(6)
C2 0.0380(9) 0.0437(9) 0.0557(10) 0.0031(7) 0.0146(7) -0.0010(7)
C3 0.0485(10) 0.0455(10) 0.0721(12) -0.0060(8) 0.0222(9) -0.0043(8)
C4 0.0672(12) 0.0384(9) 0.0656(11) 0.0031(8) 0.0316(9) 0.0025(8)
C5 0.0550(11) 0.0569(11) 0.0666(12) 0.0187(9) 0.0232(9) 0.0098(8)
C6 0.0389(9) 0.0551(11) 0.0577(11) 0.0042(7) 0.0152(8) 0.0028(7)
C7 0.0410(9) 0.0488(9) 0.0469(9) -0.0057(7) 0.0197(7) -0.0008(7)
F1 0.0966(10) 0.0402(6) 0.1274(10) 0.0024(6) 0.0542(8) 0.0012(6)
F2 0.0357(6) 0.0464(6) 0.1245(10) 0.0014(4) 0.0141(6) -0.0076(5)
N1 0.0434(8) 0.0377(8) 0.0784(10) -0.0059(6) 0.0226(7) -0.0045(6)
O1 0.0398(7) 0.0615(8) 0.0863(9) -0.0122(6) 0.0216(6) 0.0019(6)
O2 0.0650(9) 0.0392(7) 0.1169(12) -0.0108(6) 0.0514(8) -0.0105(6)
loop_
_atom_type_symbol
_atom_type_description
_atom_type_scat_dispersion_real
_atom_type_scat_dispersion_imag
_atom_type_scat_source
C C 0.0033 0.0016 'International Tables Vol C Tables 4.2.6.8 and 6.1.1.4'
H H 0.0000 0.0000 'International Tables Vol C Tables 4.2.6.8 and 6.1.1.4'
N N 0.0061 0.0033 'International Tables Vol C Tables 4.2.6.8 and 6.1.1.4'
O O 0.0106 0.0060 'International Tables Vol C Tables 4.2.6.8 and 6.1.1.4'
F F 0.0171 0.0103 'International Tables Vol C Tables 4.2.6.8 and 6.1.1.4'
loop_
_geom_angle_atom_site_label_1
_geom_angle_atom_site_label_2
_geom_angle_atom_site_label_3
_geom_angle
C6 C1 C2 116.10(15)
C6 C1 C7 117.07(14)
C2 C1 C7 126.82(14)
F2 C2 C3 116.61(14)
F2 C2 C1 119.56(14)
C3 C2 C1 123.83(15)
C4 C3 C2 116.76(16)
C4 C3 H3 121.6
C2 C3 H3 121.6
F1 C4 C5 118.90(16)
F1 C4 C3 118.29(16)
C5 C4 C3 122.81(16)
C4 C5 C6 118.49(15)
C4 C5 H5 120.8
C6 C5 H5 120.8
C5 C6 C1 122.01(16)
C5 C6 H6 119.0
C1 C6 H6 119.0
O1 C7 N1 122.05(14)
O1 C7 C1 120.19(14)
N1 C7 C1 117.74(13)
C7 N1 O2 120.01(13)
C7 N1 H1 122.8
O2 N1 H1 116.0
N1 O2 H2A 103.5
loop_
_geom_bond_atom_site_label_1
_geom_bond_atom_site_label_2
_geom_bond_distance
_geom_bond_publ_flag
C1 C6 1.383(2) ?
C1 C2 1.386(2) ?
C1 C7 1.496(2) ?
C2 F2 1.3544(18) ?
C2 C3 1.376(2) ?
C3 C4 1.366(2) ?
C3 H3 0.9300 ?
C4 F1 1.3505(18) ?
C4 C5 1.363(2) ?
C5 C6 1.380(2) ?
C5 H5 0.9300 ?
C6 H6 0.9300 ?
C7 O1 1.2331(17) yes
C7 N1 1.324(2) yes
N1 O2 1.3903(17) yes
N1 H1 0.8539 ?
O2 H2A 0.8619 ?
loop_
_geom_hbond_atom_site_label_D
_geom_hbond_atom_site_label_H
_geom_hbond_atom_site_label_A
_geom_hbond_site_symmetry_A
_geom_hbond_distance_DH
_geom_hbond_distance_HA
_geom_hbond_distance_DA
_geom_hbond_angle_DHA
_geom_hbond_publ_flag
N1 H1 F2 . 0.85 2.03 2.6776(17) 132 yes
O2 H2A O1 3_766 0.86 1.80 2.6129(19) 158 yes
N1 H1 O2 3_666 0.85 2.28 2.935(2) 134 yes
loop_
_geom_torsion_atom_site_label_1
_geom_torsion_atom_site_label_2
_geom_torsion_atom_site_label_3
_geom_torsion_atom_site_label_4
_geom_torsion
C6 C1 C2 F2 179.48(14)
C7 C1 C2 F2 0.7(2)
C6 C1 C2 C3 -0.6(2)
C7 C1 C2 C3 -179.30(15)
F2 C2 C3 C4 -179.47(14)
C1 C2 C3 C4 0.6(2)
C2 C3 C4 F1 -179.05(15)
C2 C3 C4 C5 0.2(2)
F1 C4 C5 C6 178.30(15)
C3 C4 C5 C6 -1.0(3)
C4 C5 C6 C1 1.0(3)
C2 C1 C6 C5 -0.2(2)
C7 C1 C6 C5 178.64(15)
C6 C1 C7 O1 -2.6(2)
C2 C1 C7 O1 176.13(15)
C6 C1 C7 N1 175.87(14)
C2 C1 C7 N1 -5.4(2)
O1 C7 N1 O2 -10.1(2)
C1 C7 N1 O2 171.44(13)
loop_
_cod_related_entry_id
_cod_related_entry_database
_cod_related_entry_code
1 ChemSpider 21127260
