#------------------------------------------------------------------------------
#$Date: 2017-10-13 11:03:29 +0300 (Fri, 13 Oct 2017) $
#$Revision: 201974 $
#$URL: file:///home/coder/svn-repositories/cod/cif/2/21/28/2212867.cif $
#------------------------------------------------------------------------------
#
# This file is available in the Crystallography Open Database (COD),
# http://www.crystallography.net/. The original data for this entry
# were provided by IUCr Journals, http://journals.iucr.org/.
#
# The file may be used within the scientific community so long as
# proper attribution is given to the journal article from which the
# data were obtained.
#
data_2212867
loop_
_publ_author_name
'Khawar Rauf, M.'
'Badshah, Amin'
'Bolte, Michael'
_publ_section_title
;
 3-(3-Methoxyphenyl)-1-(2-methylbenzoyl)thiourea
;
_journal_coeditor_code           FL2106
_journal_issue                   4
_journal_name_full               'Acta Crystallographica Section E'
_journal_page_first              o1676
_journal_page_last               o1678
_journal_paper_doi               10.1107/S1600536807010185
_journal_volume                  63
_journal_year                    2007
_chemical_formula_iupac          'C16 H16 N2 O2 S'
_chemical_formula_moiety         'C16 H16 N2 O2 S'
_chemical_formula_sum            'C16 H16 N2 O2 S'
_chemical_formula_weight         300.37
_chemical_name_systematic
;
3-(3-Methoxyphenyl)-1-(2-methylbenzoyl)thiourea
;
_space_group_IT_number           2
_symmetry_cell_setting           triclinic
_symmetry_space_group_name_Hall  '-P 1'
_symmetry_space_group_name_H-M   'P -1'
_atom_sites_solution_hydrogens   geom
_atom_sites_solution_primary     direct
_atom_sites_solution_secondary   difmap
_audit_creation_method           SHELXL97
_cell_angle_alpha                94.835(9)
_cell_angle_beta                 92.621(9)
_cell_angle_gamma                97.322(9)
_cell_formula_units_Z            2
_cell_length_a                   6.2912(7)
_cell_length_b                   10.3513(12)
_cell_length_c                   11.5578(13)
_cell_measurement_reflns_used    7832
_cell_measurement_temperature    173(2)
_cell_measurement_theta_max      25.9
_cell_measurement_theta_min      3.6
_cell_volume                     742.66(15)
_computing_cell_refinement       X-AREA
_computing_data_collection       'X-AREA (Stoe & Cie, 2001)'
_computing_data_reduction        X-AREA
_computing_molecular_graphics
'PLATON (Spek, 2003) and XP in SHELXTL-Plus (Sheldrick, 1991)'
_computing_publication_material  SHELXL97
_computing_structure_refinement  'SHELXL97 (Sheldrick, 1997)'
_computing_structure_solution    'SHELXS97 (Sheldrick, 1997)'
_diffrn_ambient_temperature      173(2)
_diffrn_measured_fraction_theta_full 0.997
_diffrn_measured_fraction_theta_max 0.995
_diffrn_measurement_device_type  'Stoe IPDSII two-circle'
_diffrn_measurement_method       \w
_diffrn_radiation_monochromator  graphite
_diffrn_radiation_source         'fine-focus sealed tube'
_diffrn_radiation_type           MoK\a
_diffrn_radiation_wavelength     0.71073
_diffrn_reflns_av_R_equivalents  0.0362
_diffrn_reflns_av_sigmaI/netI    0.0277
_diffrn_reflns_limit_h_max       6
_diffrn_reflns_limit_h_min       -7
_diffrn_reflns_limit_k_max       12
_diffrn_reflns_limit_k_min       -12
_diffrn_reflns_limit_l_max       13
_diffrn_reflns_limit_l_min       -14
_diffrn_reflns_number            8099
_diffrn_reflns_theta_full        25.00
_diffrn_reflns_theta_max         25.57
_diffrn_reflns_theta_min         3.54
_diffrn_standards_number         0
_exptl_absorpt_coefficient_mu    0.224
_exptl_absorpt_correction_T_max  0.9258
_exptl_absorpt_correction_T_min  0.9120
_exptl_absorpt_correction_type   multi-scan
_exptl_absorpt_process_details   '[MULABS (Spek, 2003; Blessing, 1995)]'
_exptl_crystal_colour            colourless
_exptl_crystal_density_diffrn    1.343
_exptl_crystal_density_method    'not measured'
_exptl_crystal_description       block
_exptl_crystal_F_000             316
_exptl_crystal_size_max          0.42
_exptl_crystal_size_mid          0.39
_exptl_crystal_size_min          0.35
_refine_diff_density_max         0.256
_refine_diff_density_min         -0.275
_refine_ls_extinction_coef       0.032(4)
_refine_ls_extinction_expression Fc^*^=kFc[1+0.001xFc^2^\l^3^/sin(2\q)]^-1/4^
_refine_ls_extinction_method     'SHELXL97 (Sheldrick, 1997)'
_refine_ls_goodness_of_fit_ref   1.041
_refine_ls_hydrogen_treatment    mixed
_refine_ls_matrix_type           full
_refine_ls_number_parameters     201
_refine_ls_number_reflns         2783
_refine_ls_number_restraints     0
_refine_ls_restrained_S_all      1.041
_refine_ls_R_factor_all          0.0386
_refine_ls_R_factor_gt           0.0343
_refine_ls_shift/su_max          0.001
_refine_ls_shift/su_mean         0.000
_refine_ls_structure_factor_coef Fsqd
_refine_ls_weighting_details
'calc w = 1/[\s^2^(Fo^2^)+(0.0466P)^2^+0.2444P] where P=(Fo^2^+2Fc^2^)/3'
_refine_ls_weighting_scheme      calc
_refine_ls_wR_factor_gt          0.0872
_refine_ls_wR_factor_ref         0.0896
_reflns_number_gt                2515
_reflns_number_total             2783
_reflns_threshold_expression     I>2\s(I)
_cod_data_source_file            fl2106.cif
_cod_data_source_block           I
_cod_depositor_comments
;
The following automatic conversions were performed:
'_symmetry_cell_setting' value 'Triclinic' changed to 'triclinic'
according to '/home/saulius/struct/CIF-dictionaries/cif_core.dic'
dictionary named 'cif_core.dic' version 2.4.1 from 2010-06-29.

Automatic conversion script
Id: cif_fix_enum 1527 2010-12-29 10:47:43Z saulius 

The following automatic conversions were performed:

'_symmetry_cell_setting' value 'Triclinic' changed to 'triclinic'
according to /home/saulius/struct/CIF-dictionaries/cif_core.dic
dictionary named 'cif_core.dic' version 2.4.1 from 2010-06-29.

Automatic conversion script
Id: cif_fix_values 1715 2011-07-08 13:25:40Z adriana 
;
_cod_database_code               2212867
_cod_database_fobs_code          2212867
loop_
_symmetry_equiv_pos_as_xyz
'x, y, z'
'-x, -y, -z'
loop_
_atom_site_type_symbol
_atom_site_label
_atom_site_fract_x
_atom_site_fract_y
_atom_site_fract_z
_atom_site_U_iso_or_equiv
_atom_site_adp_type
_atom_site_calc_flag
_atom_site_refinement_flags
_atom_site_occupancy
N N1 0.29018(18) 0.38389(11) 0.78139(10) 0.0216(3) Uani d . 1
H H1 0.357(3) 0.4293(17) 0.8428(16) 0.033(4) Uiso d . 1
C C1 0.3850(2) 0.40608(12) 0.68210(11) 0.0211(3) Uani d . 1
S S1 0.30086(7) 0.34230(4) 0.54723(3) 0.03518(15) Uani d . 1
N N2 0.57260(18) 0.49617(11) 0.69432(10) 0.0225(3) Uani d . 1
H H2 0.626(3) 0.5169(16) 0.6286(15) 0.030(4) Uiso d . 1
C C2 0.6596(2) 0.57529(12) 0.79242(11) 0.0211(3) Uani d . 1
O O2 0.58229(16) 0.56880(10) 0.88820(8) 0.0273(2) Uani d . 1
C C11 0.0860(2) 0.31383(12) 0.79998(11) 0.0203(3) Uani d . 1
C C12 -0.0209(2) 0.21339(13) 0.72206(12) 0.0239(3) Uani d . 1
H H12 0.0417 0.1862 0.6523 0.029 Uiso calc R 1
C C13 -0.2227(2) 0.15378(13) 0.74938(12) 0.0247(3) Uani d . 1
C C14 -0.3154(2) 0.19272(14) 0.85180(13) 0.0276(3) Uani d . 1
H H14 -0.4537 0.1528 0.8684 0.033 Uiso calc R 1
C C15 -0.2038(2) 0.29019(14) 0.92913(13) 0.0289(3) Uani d . 1
H H15 -0.2648 0.3159 0.9998 0.035 Uiso calc R 1
C C16 -0.0023(2) 0.35079(13) 0.90392(12) 0.0246(3) Uani d . 1
H H16 0.0743 0.4170 0.9575 0.030 Uiso calc R 1
O O17 -0.34092(17) 0.05380(10) 0.67932(10) 0.0351(3) Uani d . 1
C C17 -0.2465(3) 0.00683(16) 0.57624(14) 0.0360(4) Uani d . 1
H H17A -0.2213 0.0776 0.5253 0.054 Uiso calc R 1
H H17B -0.3439 -0.0659 0.5354 0.054 Uiso calc R 1
H H17C -0.1098 -0.0234 0.5974 0.054 Uiso calc R 1
C C21 0.8539(2) 0.66829(13) 0.77154(11) 0.0218(3) Uani d . 1
C C22 0.8874(2) 0.79541(13) 0.83018(12) 0.0251(3) Uani d . 1
C C23 1.0717(3) 0.87745(15) 0.80624(13) 0.0325(4) Uani d . 1
H H23 1.0972 0.9637 0.8437 0.039 Uiso calc R 1
C C24 1.2186(2) 0.83673(16) 0.72939(14) 0.0359(4) Uani d . 1
H H24 1.3422 0.8949 0.7154 0.043 Uiso calc R 1
C C25 1.1854(2) 0.71155(16) 0.67303(14) 0.0332(4) Uani d . 1
H H25 1.2858 0.6834 0.6206 0.040 Uiso calc R 1
C C26 1.0027(2) 0.62745(14) 0.69440(12) 0.0265(3) Uani d . 1
H H26 0.9790 0.5415 0.6562 0.032 Uiso calc R 1
C C27 0.7345(3) 0.84678(14) 0.91435(13) 0.0320(3) Uani d . 1
H H27A 0.7528 0.8098 0.9889 0.048 Uiso calc R 1
H H27B 0.5865 0.8216 0.8826 0.048 Uiso calc R 1
H H27C 0.7648 0.9423 0.9262 0.048 Uiso calc R 1
loop_
_atom_site_aniso_label
_atom_site_aniso_U_11
_atom_site_aniso_U_22
_atom_site_aniso_U_33
_atom_site_aniso_U_12
_atom_site_aniso_U_13
_atom_site_aniso_U_23
N1 0.0191(6) 0.0226(6) 0.0207(6) -0.0061(5) 0.0013(5) 0.0011(4)
C1 0.0198(7) 0.0178(6) 0.0243(7) -0.0034(5) 0.0032(5) 0.0019(5)
S1 0.0432(3) 0.0340(2) 0.0208(2) -0.02184(17) 0.00566(15) -0.00256(15)
N2 0.0205(6) 0.0230(6) 0.0215(6) -0.0068(5) 0.0050(5) 0.0009(5)
C2 0.0187(7) 0.0202(6) 0.0235(7) -0.0014(5) -0.0005(5) 0.0032(5)
O2 0.0264(5) 0.0311(5) 0.0215(5) -0.0083(4) 0.0031(4) 0.0019(4)
C11 0.0182(6) 0.0194(6) 0.0234(7) -0.0007(5) 0.0026(5) 0.0064(5)
C12 0.0227(7) 0.0233(7) 0.0243(7) -0.0037(5) 0.0065(5) 0.0009(5)
C13 0.0217(7) 0.0217(6) 0.0294(7) -0.0040(5) 0.0035(5) 0.0030(5)
C14 0.0204(7) 0.0266(7) 0.0359(8) -0.0015(6) 0.0100(6) 0.0060(6)
C15 0.0298(8) 0.0286(7) 0.0292(7) 0.0030(6) 0.0125(6) 0.0038(6)
C16 0.0261(7) 0.0229(6) 0.0237(7) -0.0017(5) 0.0034(5) 0.0014(5)
O17 0.0274(6) 0.0331(6) 0.0387(6) -0.0147(4) 0.0088(5) -0.0074(5)
C17 0.0340(8) 0.0359(8) 0.0327(8) -0.0090(7) 0.0021(6) -0.0073(7)
C21 0.0181(7) 0.0235(6) 0.0223(7) -0.0035(5) -0.0025(5) 0.0055(5)
C22 0.0262(7) 0.0240(7) 0.0234(7) -0.0035(6) -0.0053(5) 0.0057(5)
C23 0.0342(8) 0.0268(7) 0.0323(8) -0.0115(6) -0.0088(6) 0.0073(6)
C24 0.0235(8) 0.0426(9) 0.0384(9) -0.0147(6) -0.0057(6) 0.0176(7)
C25 0.0186(7) 0.0457(9) 0.0354(8) -0.0015(6) 0.0020(6) 0.0134(7)
C26 0.0201(7) 0.0298(7) 0.0289(7) -0.0010(6) -0.0004(5) 0.0063(6)
C27 0.0392(9) 0.0251(7) 0.0300(8) 0.0008(6) -0.0005(6) 0.0002(6)
loop_
_atom_type_symbol
_atom_type_description
_atom_type_scat_dispersion_real
_atom_type_scat_dispersion_imag
_atom_type_scat_source
C C 0.0033 0.0016 'International Tables Vol C Tables 4.2.6.8 and 6.1.1.4'
H H 0.0000 0.0000 'International Tables Vol C Tables 4.2.6.8 and 6.1.1.4'
N N 0.0061 0.0033 'International Tables Vol C Tables 4.2.6.8 and 6.1.1.4'
O O 0.0106 0.0060 'International Tables Vol C Tables 4.2.6.8 and 6.1.1.4'
S S 0.1246 0.1234 'International Tables Vol C Tables 4.2.6.8 and 6.1.1.4'
loop_
_geom_angle_atom_site_label_1
_geom_angle_atom_site_label_2
_geom_angle_atom_site_label_3
_geom_angle
C1 N1 C11 130.17(12)
C1 N1 H1 113.7(11)
C11 N1 H1 115.5(11)
N1 C1 N2 115.07(12)
N1 C1 S1 127.51(10)
N2 C1 S1 117.39(10)
C2 N2 C1 128.73(11)
C2 N2 H2 115.1(11)
C1 N2 H2 114.8(11)
O2 C2 N2 122.40(12)
O2 C2 C21 123.30(12)
N2 C2 C21 114.30(11)
C16 C11 C12 120.90(12)
C16 C11 N1 115.28(12)
C12 C11 N1 123.81(12)
C11 C12 C13 118.31(13)
C11 C12 H12 120.8
C13 C12 H12 120.8
O17 C13 C14 115.71(12)
O17 C13 C12 123.09(13)
C14 C13 C12 121.20(13)
C15 C14 C13 119.41(13)
C15 C14 H14 120.3
C13 C14 H14 120.3
C14 C15 C16 120.40(13)
C14 C15 H15 119.8
C16 C15 H15 119.8
C11 C16 C15 119.73(13)
C11 C16 H16 120.1
C15 C16 H16 120.1
C13 O17 C17 117.32(11)
O17 C17 H17A 109.5
O17 C17 H17B 109.5
H17A C17 H17B 109.5
O17 C17 H17C 109.5
H17A C17 H17C 109.5
H17B C17 H17C 109.5
C26 C21 C22 120.50(12)
C26 C21 C2 119.30(12)
C22 C21 C2 120.20(12)
C23 C22 C21 117.22(14)
C23 C22 C27 119.09(13)
C21 C22 C27 123.68(13)
C24 C23 C22 122.09(14)
C24 C23 H23 119.0
C22 C23 H23 119.0
C25 C24 C23 120.30(13)
C25 C24 H24 119.8
C23 C24 H24 119.8
C24 C25 C26 119.10(15)
C24 C25 H25 120.4
C26 C25 H25 120.4
C25 C26 C21 120.77(14)
C25 C26 H26 119.6
C21 C26 H26 119.6
C22 C27 H27A 109.5
C22 C27 H27B 109.5
H27A C27 H27B 109.5
C22 C27 H27C 109.5
H27A C27 H27C 109.5
H27B C27 H27C 109.5
loop_
_geom_bond_atom_site_label_1
_geom_bond_atom_site_label_2
_geom_bond_distance
_geom_bond_publ_flag
N1 C1 1.3409(17) y
N1 C11 1.4270(16) y
N1 H1 0.874(18) ?
C1 N2 1.4016(17) y
C1 S1 1.6757(14) y
N2 C2 1.3886(17) y
N2 H2 0.877(18) ?
C2 O2 1.2327(16) y
C2 C21 1.4987(17) ?
C11 C16 1.3913(19) ?
C11 C12 1.3974(19) ?
C12 C13 1.4007(19) ?
C12 H12 0.9500 ?
C13 O17 1.3738(17) ?
C13 C14 1.395(2) ?
C14 C15 1.386(2) ?
C14 H14 0.9500 ?
C15 C16 1.395(2) ?
C15 H15 0.9500 ?
C16 H16 0.9500 ?
O17 C17 1.4315(19) ?
C17 H17A 0.9800 ?
C17 H17B 0.9800 ?
C17 H17C 0.9800 ?
C21 C26 1.401(2) ?
C21 C22 1.4146(19) ?
C22 C23 1.400(2) ?
C22 C27 1.511(2) ?
C23 C24 1.390(2) ?
C23 H23 0.9500 ?
C24 C25 1.387(2) ?
C24 H24 0.9500 ?
C25 C26 1.395(2) ?
C25 H25 0.9500 ?
C26 H26 0.9500 ?
C27 H27A 0.9800 ?
C27 H27B 0.9800 ?
C27 H27C 0.9800 ?
loop_
_geom_hbond_atom_site_label_D
_geom_hbond_atom_site_label_H
_geom_hbond_atom_site_label_A
_geom_hbond_site_symmetry_A
_geom_hbond_distance_DH
_geom_hbond_distance_HA
_geom_hbond_distance_DA
_geom_hbond_angle_DHA
N1 H1 O2 . 0.874(18) 1.913(18) 2.6575(15) 142.0(16)
N2 H2 S1 2_666 0.877(18) 2.623(18) 3.4459(13) 156.7(14)
loop_
_geom_torsion_atom_site_label_1
_geom_torsion_atom_site_label_2
_geom_torsion_atom_site_label_3
_geom_torsion_atom_site_label_4
_geom_torsion
_geom_torsion_publ_flag
C11 N1 C1 N2 170.46(12) ?
C11 N1 C1 S1 -7.6(2) ?
N1 C1 N2 C2 -7.7(2) y
S1 C1 N2 C2 170.51(11) ?
C1 N2 C2 O2 4.7(2) y
C1 N2 C2 C21 -175.29(12) ?
C1 N1 C11 C16 -155.10(13) ?
C1 N1 C11 C12 25.8(2) ?
C16 C11 C12 C13 2.1(2) ?
N1 C11 C12 C13 -178.84(12) ?
C11 C12 C13 O17 -179.64(13) ?
C11 C12 C13 C14 -0.3(2) ?
O17 C13 C14 C15 178.00(13) ?
C12 C13 C14 C15 -1.4(2) ?
C13 C14 C15 C16 1.3(2) ?
C12 C11 C16 C15 -2.3(2) ?
N1 C11 C16 C15 178.59(12) ?
C14 C15 C16 C11 0.6(2) ?
C14 C13 O17 C17 -177.03(13) ?
C12 C13 O17 C17 2.4(2) ?
O2 C2 C21 C26 142.62(14) ?
N2 C2 C21 C26 -37.36(17) ?
O2 C2 C21 C22 -36.71(19) ?
N2 C2 C21 C22 143.30(13) ?
C26 C21 C22 C23 0.95(19) ?
C2 C21 C22 C23 -179.73(12) ?
C26 C21 C22 C27 179.86(13) ?
C2 C21 C22 C27 -0.8(2) ?
C21 C22 C23 C24 -0.7(2) ?
C27 C22 C23 C24 -179.70(13) ?
C22 C23 C24 C25 0.2(2) ?
C23 C24 C25 C26 0.1(2) ?
C24 C25 C26 C21 0.1(2) ?
C22 C21 C26 C25 -0.6(2) ?
C2 C21 C26 C25 -179.97(12) ?
loop_
_cod_related_entry_id
_cod_related_entry_database
_cod_related_entry_code
1 ChemSpider 722084
