#------------------------------------------------------------------------------
#$Date: 2016-02-20 18:35:30 +0200 (Sat, 20 Feb 2016) $
#$Revision: 176787 $
#$URL: svn://www.crystallography.net/cod/cif/2/21/32/2213249.cif $
#------------------------------------------------------------------------------
#
# This file is available in the Crystallography Open Database (COD),
# http://www.crystallography.net/. The original data for this entry
# were provided by IUCr Journals, http://journals.iucr.org/.
#
# The file may be used within the scientific community so long as
# proper attribution is given to the journal article from which the
# data were obtained.
#
data_2213249
loop_
_publ_author_name
'Mohd Mustaqim Rosli'
'P. S. Patil'
'Hoong-Kun Fun'
'Ibrahim Abdul Razak '
'S. M. Dharmaprakash'
_publ_section_title
;
 (2<i>E</i>)-3-[4-(Dimethylamino)phenyl]-1-(3-nitrophenyl)prop-2-en-1-one
;
_journal_coeditor_code           CI2370
_journal_issue                   5
_journal_name_full               'Acta Crystallographica Section E'
_journal_page_first              o2692
_journal_page_last               o2692
_journal_paper_doi               10.1107/S1600536807019745
_journal_volume                  63
_journal_year                    2007
_chemical_formula_iupac          'C17 H16 N2 O3'
_chemical_formula_moiety         'C17 H16 N2 O3'
_chemical_formula_sum            'C17 H16 N2 O3'
_chemical_formula_weight         296.32
_chemical_name_systematic
;
(2E)-3-[4-(dimethylamino)phenyl]-1-(3-nitrophenyl) prop-2-en-1-one
;
_space_group_IT_number           2
_symmetry_cell_setting           triclinic
_symmetry_space_group_name_Hall  '-P 1'
_symmetry_space_group_name_H-M   'P -1'
_atom_sites_solution_hydrogens   geom
_atom_sites_solution_primary     direct
_atom_sites_solution_secondary   difmap
_audit_creation_method           SHELXL-97
_cell_angle_alpha                93.989(2)
_cell_angle_beta                 96.973(2)
_cell_angle_gamma                107.844(2)
_cell_formula_units_Z            2
_cell_length_a                   6.4326(2)
_cell_length_b                   7.1724(2)
_cell_length_c                   16.5000(6)
_cell_measurement_reflns_used    2515
_cell_measurement_temperature    100.00(10)
_cell_measurement_theta_max      30.00
_cell_measurement_theta_min      3.00
_cell_volume                     714.68(4)
_computing_cell_refinement       APEX2
_computing_data_collection       'APEX2 (Bruker, 2005)'
_computing_data_reduction        'SAINT (Bruker, 2005)'
_computing_molecular_graphics    SHELXTL
_computing_publication_material
;
SHELXTL, PARST (Nardelli, 1995) and Platon (Spek, 2003)
;
_computing_structure_refinement  SHELXTL
_computing_structure_solution    'SHELXTL (Sheldrick, 1998)'
_diffrn_ambient_temperature      100.00(10)
_diffrn_detector_area_resol_mean 8.33
_diffrn_measured_fraction_theta_full 0.995
_diffrn_measured_fraction_theta_max 0.995
_diffrn_measurement_device_type
;
Bruker SMART APEX2 CCD area-detector
;
_diffrn_measurement_method       \w
_diffrn_radiation_monochromator  graphite
_diffrn_radiation_source         'fine-focus sealed tube'
_diffrn_radiation_type           MoK\a
_diffrn_radiation_wavelength     0.71073
_diffrn_reflns_av_R_equivalents  0.0467
_diffrn_reflns_av_sigmaI/netI    0.0510
_diffrn_reflns_limit_h_max       9
_diffrn_reflns_limit_h_min       -9
_diffrn_reflns_limit_k_max       10
_diffrn_reflns_limit_k_min       -10
_diffrn_reflns_limit_l_max       22
_diffrn_reflns_limit_l_min       -23
_diffrn_reflns_number            12950
_diffrn_reflns_theta_full        30.00
_diffrn_reflns_theta_max         30.00
_diffrn_reflns_theta_min         1.25
_diffrn_standards_number         0
_exptl_absorpt_coefficient_mu    0.096
_exptl_absorpt_correction_T_max  0.9958
_exptl_absorpt_correction_T_min  0.8222
_exptl_absorpt_correction_type   multi-scan
_exptl_absorpt_process_details   '(SADABS; Bruker, 2005)'
_exptl_crystal_colour            Red
_exptl_crystal_density_diffrn    1.377
_exptl_crystal_density_method    'not measured'
_exptl_crystal_description       Plate
_exptl_crystal_F_000             312
_exptl_crystal_size_max          0.58
_exptl_crystal_size_mid          0.25
_exptl_crystal_size_min          0.04
_refine_diff_density_max         0.308
_refine_diff_density_min         -0.329
_refine_ls_extinction_method     none
_refine_ls_goodness_of_fit_ref   1.067
_refine_ls_hydrogen_treatment    constr
_refine_ls_matrix_type           full
_refine_ls_number_parameters     201
_refine_ls_number_reflns         4139
_refine_ls_number_restraints     0
_refine_ls_restrained_S_all      1.067
_refine_ls_R_factor_all          0.0835
_refine_ls_R_factor_gt           0.0544
_refine_ls_shift/su_max          0.001
_refine_ls_shift/su_mean         0.000
_refine_ls_structure_factor_coef Fsqd
_refine_ls_weighting_details
'calc w=1/[\s^2^(Fo^2^)+(0.0746P)^2^+0.1229P] where P=(Fo^2^+2Fc^2^)/3'
_refine_ls_weighting_scheme      calc
_refine_ls_wR_factor_gt          0.1365
_refine_ls_wR_factor_ref         0.1616
_reflns_number_gt                2776
_reflns_number_total             4139
_reflns_threshold_expression     I>2\s(I)
_cod_data_source_file            ci2370.cif
_cod_data_source_block           I
_cod_depositor_comments
;
The following automatic conversions were performed:
'_symmetry_cell_setting' value 'Triclinic' changed to 'triclinic'
according to '/home/saulius/struct/CIF-dictionaries/cif_core.dic'
dictionary named 'cif_core.dic' version 2.4.1 from 2010-06-29.

Automatic conversion script
Id: cif_fix_enum 1527 2010-12-29 10:47:43Z saulius 

The following automatic conversions were performed:

'_symmetry_cell_setting' value 'Triclinic' changed to 'triclinic'
according to /home/saulius/struct/CIF-dictionaries/cif_core.dic
dictionary named 'cif_core.dic' version 2.4.1 from 2010-06-29.

Automatic conversion script
Id: cif_fix_values 1715 2011-07-08 13:25:40Z adriana 
;
_cod_database_code               2213249
_cod_database_fobs_code          2213249
loop_
_symmetry_equiv_pos_as_xyz
'x, y, z'
'-x, -y, -z'
loop_
_atom_site_type_symbol
_atom_site_label
_atom_site_fract_x
_atom_site_fract_y
_atom_site_fract_z
_atom_site_U_iso_or_equiv
_atom_site_adp_type
_atom_site_calc_flag
_atom_site_refinement_flags
_atom_site_occupancy
O O1 0.20474(19) 0.31302(18) 0.58398(7) 0.0307(3) Uani d . 1
O O2 0.4006(2) 0.58466(19) 0.86676(8) 0.0358(3) Uani d . 1
O O3 0.7425(2) 0.7068(2) 0.92259(7) 0.0403(3) Uani d . 1
N N1 0.3580(2) -0.16780(19) 0.12184(8) 0.0242(3) Uani d . 1
N N2 0.5992(2) 0.6233(2) 0.86426(8) 0.0268(3) Uani d . 1
C C1 0.5108(3) 0.4710(2) 0.72163(9) 0.0208(3) Uani d . 1
H H1A 0.3618 0.4382 0.7267 0.025 Uiso calc R 1
C C2 0.6705(3) 0.5694(2) 0.78695(9) 0.0214(3) Uani d . 1
C C3 0.8939(3) 0.6208(2) 0.78275(10) 0.0240(3) Uani d . 1
H H3A 0.9984 0.6875 0.8278 0.029 Uiso calc R 1
C C4 0.9570(3) 0.5698(2) 0.70954(10) 0.0241(3) Uani d . 1
H H4A 1.1064 0.6022 0.7051 0.029 Uiso calc R 1
C C5 0.8002(3) 0.4708(2) 0.64249(10) 0.0219(3) Uani d . 1
H H5A 0.8458 0.4373 0.5937 0.026 Uiso calc R 1
C C6 0.5761(2) 0.4212(2) 0.64736(9) 0.0193(3) Uani d . 1
C C7 0.3950(3) 0.3212(2) 0.57715(9) 0.0210(3) Uani d . 1
C C8 0.4516(3) 0.2383(2) 0.50196(9) 0.0214(3) Uani d . 1
H H8A 0.5986 0.2544 0.4973 0.026 Uiso calc R 1
C C9 0.2920(3) 0.1398(2) 0.44018(9) 0.0215(3) Uani d . 1
H H9A 0.1479 0.1214 0.4497 0.026 Uiso calc R 1
C C10 0.3166(3) 0.0582(2) 0.36015(9) 0.0199(3) Uani d . 1
C C11 0.5214(3) 0.0810(2) 0.33381(9) 0.0211(3) Uani d . 1
H H11A 0.6505 0.1461 0.3699 0.025 Uiso calc R 1
C C12 0.5359(3) 0.0091(2) 0.25577(9) 0.0214(3) Uani d . 1
H H12A 0.6743 0.0273 0.2401 0.026 Uiso calc R 1
C C13 0.3440(3) -0.0919(2) 0.19893(9) 0.0205(3) Uani d . 1
C C14 0.1394(3) -0.1144(2) 0.22557(9) 0.0228(3) Uani d . 1
H H14A 0.0099 -0.1794 0.1898 0.027 Uiso calc R 1
C C15 0.1271(3) -0.0417(2) 0.30389(9) 0.0222(3) Uani d . 1
H H15A -0.0110 -0.0596 0.3197 0.027 Uiso calc R 1
C C16 0.1605(3) -0.2440(3) 0.06120(10) 0.0302(4) Uani d . 1
H H16A 0.0543 -0.3489 0.0816 0.045 Uiso calc R 1
H H16B 0.1976 -0.2932 0.0112 0.045 Uiso calc R 1
H H16C 0.0988 -0.1404 0.0507 0.045 Uiso calc R 1
C C17 0.5695(3) -0.1231(3) 0.09321(11) 0.0336(4) Uani d . 1
H H17A 0.6665 -0.1716 0.1284 0.050 Uiso calc R 1
H H17B 0.6326 0.0170 0.0941 0.050 Uiso calc R 1
H H17C 0.5499 -0.1850 0.0381 0.050 Uiso calc R 1
loop_
_atom_site_aniso_label
_atom_site_aniso_U_11
_atom_site_aniso_U_22
_atom_site_aniso_U_33
_atom_site_aniso_U_12
_atom_site_aniso_U_13
_atom_site_aniso_U_23
O1 0.0225(6) 0.0426(7) 0.0256(6) 0.0097(5) 0.0054(5) -0.0044(5)
O2 0.0301(7) 0.0514(8) 0.0276(7) 0.0160(6) 0.0078(5) -0.0043(5)
O3 0.0400(8) 0.0535(8) 0.0233(7) 0.0158(6) -0.0023(6) -0.0142(6)
N1 0.0239(7) 0.0293(7) 0.0180(7) 0.0086(5) 0.0007(5) -0.0030(5)
N2 0.0304(8) 0.0307(7) 0.0209(7) 0.0136(6) 0.0032(6) -0.0023(5)
C1 0.0224(8) 0.0197(7) 0.0220(8) 0.0091(6) 0.0042(6) 0.0016(5)
C2 0.0273(8) 0.0209(7) 0.0188(7) 0.0115(6) 0.0056(6) 0.0005(5)
C3 0.0259(8) 0.0201(7) 0.0241(8) 0.0069(6) -0.0009(6) -0.0006(6)
C4 0.0198(8) 0.0220(7) 0.0305(9) 0.0068(6) 0.0047(6) 0.0018(6)
C5 0.0246(8) 0.0205(7) 0.0233(8) 0.0097(6) 0.0077(6) 0.0025(6)
C6 0.0231(8) 0.0161(6) 0.0199(7) 0.0076(6) 0.0044(6) 0.0026(5)
C7 0.0238(8) 0.0200(7) 0.0197(7) 0.0072(6) 0.0055(6) 0.0013(5)
C8 0.0228(8) 0.0221(7) 0.0206(8) 0.0087(6) 0.0049(6) 0.0006(5)
C9 0.0248(8) 0.0200(7) 0.0217(8) 0.0090(6) 0.0059(6) 0.0029(6)
C10 0.0249(8) 0.0167(6) 0.0186(7) 0.0076(6) 0.0027(6) 0.0015(5)
C11 0.0220(8) 0.0196(7) 0.0198(7) 0.0058(6) 0.0000(6) -0.0006(5)
C12 0.0209(7) 0.0221(7) 0.0212(8) 0.0071(6) 0.0035(6) 0.0004(6)
C13 0.0260(8) 0.0172(6) 0.0185(7) 0.0082(6) 0.0019(6) 0.0000(5)
C14 0.0228(8) 0.0211(7) 0.0221(8) 0.0060(6) -0.0016(6) -0.0009(6)
C15 0.0220(8) 0.0225(7) 0.0230(8) 0.0081(6) 0.0039(6) 0.0027(6)
C16 0.0315(9) 0.0332(9) 0.0209(8) 0.0065(7) -0.0012(7) -0.0037(6)
C17 0.0308(9) 0.0447(10) 0.0243(9) 0.0125(8) 0.0054(7) -0.0061(7)
loop_
_atom_type_symbol
_atom_type_description
_atom_type_scat_dispersion_real
_atom_type_scat_dispersion_imag
_atom_type_scat_source
C C 0.0033 0.0016 'International Tables Vol C Tables 4.2.6.8 and 6.1.1.4'
H H 0.0000 0.0000 'International Tables Vol C Tables 4.2.6.8 and 6.1.1.4'
N N 0.0061 0.0033 'International Tables Vol C Tables 4.2.6.8 and 6.1.1.4'
O O 0.0106 0.0060 'International Tables Vol C Tables 4.2.6.8 and 6.1.1.4'
loop_
_geom_angle_atom_site_label_1
_geom_angle_atom_site_label_2
_geom_angle_atom_site_label_3
_geom_angle
C13 N1 C17 120.03(13)
C13 N1 C16 119.75(13)
C17 N1 C16 117.94(13)
O3 N2 O2 123.47(14)
O3 N2 C2 117.85(14)
O2 N2 C2 118.67(13)
C2 C1 C6 118.98(14)
C2 C1 H1A 120.5
C6 C1 H1A 120.5
C1 C2 C3 122.83(14)
C1 C2 N2 118.35(14)
C3 C2 N2 118.82(14)
C4 C3 C2 117.84(15)
C4 C3 H3A 121.1
C2 C3 H3A 121.1
C3 C4 C5 120.78(15)
C3 C4 H4A 119.6
C5 C4 H4A 119.6
C4 C5 C6 120.80(14)
C4 C5 H5A 119.6
C6 C5 H5A 119.6
C5 C6 C1 118.76(14)
C5 C6 C7 124.49(13)
C1 C6 C7 116.73(13)
O1 C7 C8 122.01(14)
O1 C7 C6 118.94(13)
C8 C7 C6 119.04(13)
C9 C8 C7 120.16(14)
C9 C8 H8A 119.9
C7 C8 H8A 119.9
C8 C9 C10 127.92(15)
C8 C9 H9A 116.0
C10 C9 H9A 116.0
C15 C10 C11 117.16(13)
C15 C10 C9 119.05(14)
C11 C10 C9 123.73(14)
C12 C11 C10 121.55(14)
C12 C11 H11A 119.2
C10 C11 H11A 119.2
C11 C12 C13 121.21(14)
C11 C12 H12A 119.4
C13 C12 H12A 119.4
N1 C13 C14 121.62(14)
N1 C13 C12 121.33(14)
C14 C13 C12 117.04(13)
C15 C14 C13 121.22(14)
C15 C14 H14A 119.4
C13 C14 H14A 119.4
C14 C15 C10 121.82(14)
C14 C15 H15A 119.1
C10 C15 H15A 119.1
N1 C16 H16A 109.5
N1 C16 H16B 109.5
H16A C16 H16B 109.5
N1 C16 H16C 109.5
H16A C16 H16C 109.5
H16B C16 H16C 109.5
N1 C17 H17A 109.5
N1 C17 H17B 109.5
H17A C17 H17B 109.5
N1 C17 H17C 109.5
H17A C17 H17C 109.5
H17B C17 H17C 109.5
loop_
_geom_bond_atom_site_label_1
_geom_bond_atom_site_label_2
_geom_bond_distance
O1 C7 1.2268(18)
O2 N2 1.2282(18)
O3 N2 1.2253(18)
N1 C13 1.3726(19)
N1 C17 1.445(2)
N1 C16 1.450(2)
N2 C2 1.4728(19)
C1 C2 1.377(2)
C1 C6 1.401(2)
C1 H1A 0.93
C2 C3 1.382(2)
C3 C4 1.380(2)
C3 H3A 0.93
C4 C5 1.388(2)
C4 H4A 0.93
C5 C6 1.389(2)
C5 H5A 0.93
C6 C7 1.503(2)
C7 C8 1.471(2)
C8 C9 1.339(2)
C8 H8A 0.93
C9 C10 1.453(2)
C9 H9A 0.93
C10 C15 1.400(2)
C10 C11 1.403(2)
C11 C12 1.378(2)
C11 H11A 0.93
C12 C13 1.416(2)
C12 H12A 0.93
C13 C14 1.404(2)
C14 C15 1.380(2)
C14 H14A 0.93
C15 H15A 0.93
C16 H16A 0.96
C16 H16B 0.96
C16 H16C 0.96
C17 H17A 0.96
C17 H17B 0.96
C17 H17C 0.96
loop_
_geom_hbond_atom_site_label_D
_geom_hbond_atom_site_label_H
_geom_hbond_atom_site_label_A
_geom_hbond_site_symmetry_A
_geom_hbond_distance_DH
_geom_hbond_distance_HA
_geom_hbond_distance_DA
_geom_hbond_angle_DHA
_geom_hbond_publ_flag
C9 H9A O1 1_555 0.93 2.45 2.798(2) 102 y
C17 H17C O3 1_544 0.96 2.59 3.430(2) 146 y
loop_
_geom_torsion_atom_site_label_1
_geom_torsion_atom_site_label_2
_geom_torsion_atom_site_label_3
_geom_torsion_atom_site_label_4
_geom_torsion
C6 C1 C2 C3 -0.4(2)
C6 C1 C2 N2 179.16(12)
O3 N2 C2 C1 178.37(14)
O2 N2 C2 C1 -2.5(2)
O3 N2 C2 C3 -2.1(2)
O2 N2 C2 C3 177.06(14)
C1 C2 C3 C4 -0.1(2)
N2 C2 C3 C4 -179.64(13)
C2 C3 C4 C5 0.2(2)
C3 C4 C5 C6 0.2(2)
C4 C5 C6 C1 -0.7(2)
C4 C5 C6 C7 177.56(13)
C2 C1 C6 C5 0.7(2)
C2 C1 C6 C7 -177.63(12)
C5 C6 C7 O1 -168.19(14)
C1 C6 C7 O1 10.1(2)
C5 C6 C7 C8 11.0(2)
C1 C6 C7 C8 -170.71(12)
O1 C7 C8 C9 -4.2(2)
C6 C7 C8 C9 176.63(13)
C7 C8 C9 C10 176.15(14)
C8 C9 C10 C15 179.55(14)
C8 C9 C10 C11 -3.4(2)
C15 C10 C11 C12 0.3(2)
C9 C10 C11 C12 -176.72(14)
C10 C11 C12 C13 -0.3(2)
C17 N1 C13 C14 173.04(14)
C16 N1 C13 C14 10.5(2)
C17 N1 C13 C12 -8.3(2)
C16 N1 C13 C12 -170.82(13)
C11 C12 C13 N1 -178.40(13)
C11 C12 C13 C14 0.3(2)
N1 C13 C14 C15 178.41(13)
C12 C13 C14 C15 -0.3(2)
C13 C14 C15 C10 0.3(2)
C11 C10 C15 C14 -0.3(2)
C9 C10 C15 C14 176.88(13)
