#------------------------------------------------------------------------------
#$Date: 2017-10-13 11:03:29 +0300 (Fri, 13 Oct 2017) $
#$Revision: 201974 $
#$URL: file:///home/coder/svn-repositories/cod/cif/2/21/49/2214950.cif $
#------------------------------------------------------------------------------
#
# This file is available in the Crystallography Open Database (COD),
# http://www.crystallography.net/. The original data for this entry
# were provided by IUCr Journals, http://journals.iucr.org/.
#
# The file may be used within the scientific community so long as
# proper attribution is given to the journal article from which the
# data were obtained.
#
data_2214950
loop_
_publ_author_name
'Choi, Hong Dae'
'Seo, Pil Ja'
'Son, Byeng Wha'
'Lee, Uk'
_publ_section_title
;
 Ethyl 2-(5-chloro-3-methylsulfinyl-1-benzofuran-2-yl)acetate
;
_journal_coeditor_code           AT2372
_journal_issue                   9
_journal_name_full               'Acta Crystallographica Section E'
_journal_page_first              o3832
_journal_page_last               o3832
_journal_paper_doi               10.1107/S160053680704007X
_journal_volume                  63
_journal_year                    2007
_chemical_formula_iupac          'C13 H13 Cl O4 S'
_chemical_formula_moiety         'C13 H13 Cl O4 S'
_chemical_formula_sum            'C13 H13 Cl O4 S'
_chemical_formula_weight         300.74
_chemical_name_systematic
;
Ethyl 2-(5-chloro-3-methylsulfinyl-1-benzofuran-2-yl)acetate
;
_space_group_IT_number           2
_symmetry_cell_setting           triclinic
_symmetry_space_group_name_Hall  '-P 1'
_symmetry_space_group_name_H-M   'P -1'
_atom_sites_solution_hydrogens   geom
_atom_sites_solution_primary     direct
_atom_sites_solution_secondary   difmap
_cell_angle_alpha                72.8830(10)
_cell_angle_beta                 78.8370(10)
_cell_angle_gamma                65.2800(10)
_cell_formula_units_Z            2
_cell_length_a                   8.2750(4)
_cell_length_b                   9.3951(4)
_cell_length_c                   10.0755(5)
_cell_measurement_reflns_used    3909
_cell_measurement_temperature    173(2)
_cell_measurement_theta_max      28.27
_cell_measurement_theta_min      2.46
_cell_volume                     677.77(6)
_computing_cell_refinement       'SAINT (Bruker, 1997)'
_computing_data_collection       'SMART (Bruker, 1997)'
_computing_data_reduction        'SAINT (Bruker, 1997)'
_computing_molecular_graphics
'ORTEP-3 (Farrugia, 1997) and DIAMOND (Brandenburg, 1998)'
_computing_publication_material  'SHELXL97 (Sheldrick, 1997)'
_computing_structure_refinement  'SHELXL97 (Sheldrick, 1997)'
_computing_structure_solution    'SHELXS97 (Sheldrick, 1997)'
_diffrn_ambient_temperature      173(2)
_diffrn_detector_area_resol_mean 10.00
_diffrn_measured_fraction_theta_full 0.985
_diffrn_measured_fraction_theta_max 0.985
_diffrn_measurement_device_type  'Bruker SMART CCD'
_diffrn_measurement_method       '\f and \w'
_diffrn_radiation_monochromator  graphite
_diffrn_radiation_source         'fine-focus sealed tube'
_diffrn_radiation_type           MoK\a
_diffrn_radiation_wavelength     0.71073
_diffrn_reflns_av_R_equivalents  0.0143
_diffrn_reflns_av_sigmaI/netI    0.0206
_diffrn_reflns_limit_h_max       10
_diffrn_reflns_limit_h_min       -10
_diffrn_reflns_limit_k_max       11
_diffrn_reflns_limit_k_min       -11
_diffrn_reflns_limit_l_max       12
_diffrn_reflns_limit_l_min       -12
_diffrn_reflns_number            5881
_diffrn_reflns_theta_full        27.00
_diffrn_reflns_theta_max         27.00
_diffrn_reflns_theta_min         2.12
_diffrn_standards_number         0
_exptl_absorpt_coefficient_mu    0.442
_exptl_absorpt_correction_T_max  0.961
_exptl_absorpt_correction_T_min  0.840
_exptl_absorpt_correction_type   multi-scan
_exptl_absorpt_process_details   '(SADABS; Sheldrick, 1999)'
_exptl_crystal_colour            colourless
_exptl_crystal_density_diffrn    1.474
_exptl_crystal_density_method    'not measured'
_exptl_crystal_description       block
_exptl_crystal_F_000             312
_exptl_crystal_size_max          0.60
_exptl_crystal_size_mid          0.35
_exptl_crystal_size_min          0.10
_refine_diff_density_max         0.403
_refine_diff_density_min         -0.305
_refine_ls_extinction_method     none
_refine_ls_goodness_of_fit_ref   1.107
_refine_ls_hydrogen_treatment    constr
_refine_ls_matrix_type           full
_refine_ls_number_parameters     172
_refine_ls_number_reflns         2905
_refine_ls_number_restraints     0
_refine_ls_restrained_S_all      1.107
_refine_ls_R_factor_all          0.0381
_refine_ls_R_factor_gt           0.0327
_refine_ls_shift/su_max          0.000
_refine_ls_shift/su_mean         0.000
_refine_ls_structure_factor_coef Fsqd
_refine_ls_weighting_details
'calc w=1/[\s^2^(Fo^2^)+(0.0312P)^2^+0.3845P] where P=(Fo^2^+2Fc^2^)/3'
_refine_ls_weighting_scheme      calc
_refine_ls_wR_factor_gt          0.0781
_refine_ls_wR_factor_ref         0.0817
_reflns_number_gt                2576
_reflns_number_total             2905
_reflns_threshold_expression     I>2\s(I)
_cod_data_source_file            at2372.cif
_cod_data_source_block           I
_cod_database_code               2214950
_cod_database_fobs_code          2214950
loop_
_symmetry_equiv_pos_as_xyz
'x, y, z'
'-x, -y, -z'
loop_
_atom_site_type_symbol
_atom_site_label
_atom_site_fract_x
_atom_site_fract_y
_atom_site_fract_z
_atom_site_U_iso_or_equiv
_atom_site_adp_type
_atom_site_calc_flag
_atom_site_refinement_flags
_atom_site_occupancy
S S 0.22529(6) 0.61850(5) 0.03696(4) 0.02606(12) Uani d . 1
Cl Cl -0.19460(6) 0.21213(6) 0.39767(6) 0.03849(14) Uani d . 1
O O1 0.33984(14) 0.44917(13) 0.42870(11) 0.0215(2) Uani d . 1
O O2 0.23374(18) 0.48883(17) -0.02516(13) 0.0361(3) Uani d . 1
O O3 0.48845(16) 0.87627(14) 0.22936(14) 0.0318(3) Uani d . 1
O O4 0.23068(17) 0.88156(15) 0.18486(15) 0.0375(3) Uani d . 1
C C1 0.2349(2) 0.53387(18) 0.21755(16) 0.0201(3) Uani d . 1
C C2 0.1469(2) 0.43132(18) 0.30652(16) 0.0199(3) Uani d . 1
C C3 0.0171(2) 0.37954(19) 0.29186(17) 0.0234(3) Uani d . 1
H H3 -0.0354 0.4118 0.2065 0.028 Uiso calc R 1
C C4 -0.0307(2) 0.27864(19) 0.40868(19) 0.0254(3) Uani d . 1
C C5 0.0445(2) 0.2272(2) 0.53594(18) 0.0270(4) Uani d . 1
H H5 0.0082 0.1561 0.6122 0.032 Uiso calc R 1
C C6 0.1719(2) 0.2801(2) 0.55073(17) 0.0249(3) Uani d . 1
H H6 0.2242 0.2479 0.6362 0.030 Uiso calc R 1
C C7 0.2187(2) 0.38205(19) 0.43447(17) 0.0208(3) Uani d . 1
C C8 0.3477(2) 0.54032(18) 0.29495(16) 0.0201(3) Uani d . 1
C C9 0.4714(2) 0.62598(19) 0.26456(17) 0.0223(3) Uani d . 1
H H9A 0.5616 0.5891 0.1887 0.027 Uiso calc R 1
H H9B 0.5352 0.5962 0.3484 0.027 Uiso calc R 1
C C10 0.3791(2) 0.8074(2) 0.22247(17) 0.0238(3) Uani d . 1
C C11 0.4166(3) 1.0527(2) 0.1903(3) 0.0416(5) Uani d . 1
H H11A 0.3053 1.0965 0.2487 0.050 Uiso calc R 1
H H11B 0.3894 1.0926 0.0915 0.050 Uiso calc R 1
C C12 0.5542(3) 1.1047(3) 0.2121(3) 0.0541(6) Uani d . 1
H H12A 0.6640 1.0598 0.1545 0.065 Uiso calc R 1
H H12B 0.5788 1.0659 0.3105 0.065 Uiso calc R 1
H H12C 0.5104 1.2228 0.1857 0.065 Uiso calc R 1
C C13 -0.0024(3) 0.7596(2) 0.0363(2) 0.0350(4) Uani d . 1
H H13A -0.0303 0.8187 -0.0597 0.052 Uiso calc R 1
H H13B -0.0198 0.8359 0.0915 0.052 Uiso calc R 1
H H13C -0.0816 0.7013 0.0769 0.052 Uiso calc R 1
loop_
_atom_site_aniso_label
_atom_site_aniso_U_11
_atom_site_aniso_U_22
_atom_site_aniso_U_33
_atom_site_aniso_U_12
_atom_site_aniso_U_13
_atom_site_aniso_U_23
S 0.0269(2) 0.0329(2) 0.0187(2) -0.01322(18) -0.00490(15) -0.00219(16)
Cl 0.0323(2) 0.0335(2) 0.0589(3) -0.0209(2) -0.0081(2) -0.0091(2)
O1 0.0232(6) 0.0228(6) 0.0206(5) -0.0106(5) -0.0064(4) -0.0025(4)
O2 0.0374(7) 0.0467(8) 0.0282(7) -0.0142(6) -0.0042(5) -0.0167(6)
O3 0.0257(6) 0.0204(6) 0.0514(8) -0.0097(5) -0.0103(6) -0.0058(5)
O4 0.0286(7) 0.0264(7) 0.0557(9) -0.0105(5) -0.0184(6) 0.0022(6)
C1 0.0211(8) 0.0205(8) 0.0187(7) -0.0076(6) -0.0036(6) -0.0040(6)
C2 0.0201(7) 0.0172(7) 0.0220(8) -0.0053(6) -0.0032(6) -0.0061(6)
C3 0.0224(8) 0.0219(8) 0.0280(8) -0.0071(6) -0.0052(6) -0.0089(7)
C4 0.0212(8) 0.0205(8) 0.0388(9) -0.0097(6) -0.0022(7) -0.0108(7)
C5 0.0265(9) 0.0196(8) 0.0318(9) -0.0089(7) 0.0000(7) -0.0030(7)
C6 0.0266(8) 0.0224(8) 0.0233(8) -0.0083(7) -0.0047(6) -0.0020(6)
C7 0.0194(7) 0.0191(7) 0.0248(8) -0.0068(6) -0.0044(6) -0.0059(6)
C8 0.0204(8) 0.0181(7) 0.0200(7) -0.0053(6) -0.0035(6) -0.0039(6)
C9 0.0208(8) 0.0227(8) 0.0251(8) -0.0095(6) -0.0048(6) -0.0047(6)
C10 0.0242(8) 0.0250(8) 0.0241(8) -0.0120(7) -0.0033(6) -0.0039(6)
C11 0.0333(10) 0.0201(9) 0.0697(15) -0.0090(8) -0.0111(10) -0.0059(9)
C12 0.0393(12) 0.0249(10) 0.101(2) -0.0145(9) -0.0108(12) -0.0126(11)
C13 0.0330(10) 0.0308(10) 0.0361(10) -0.0059(8) -0.0155(8) -0.0023(8)
loop_
_atom_type_symbol
_atom_type_description
_atom_type_scat_dispersion_real
_atom_type_scat_dispersion_imag
_atom_type_scat_source
C C 0.0033 0.0016 'International Tables Vol C Tables 4.2.6.8 and 6.1.1.4'
H H 0.0000 0.0000 'International Tables Vol C Tables 4.2.6.8 and 6.1.1.4'
O O 0.0106 0.0060 'International Tables Vol C Tables 4.2.6.8 and 6.1.1.4'
S S 0.1246 0.1234 'International Tables Vol C Tables 4.2.6.8 and 6.1.1.4'
Cl Cl 0.1484 0.1585 'International Tables Vol C Tables 4.2.6.8 and 6.1.1.4'
loop_
_geom_angle_atom_site_label_1
_geom_angle_atom_site_label_2
_geom_angle_atom_site_label_3
_geom_angle
O2 S C1 105.84(8)
O2 S C13 106.39(9)
C1 S C13 99.06(8)
C8 O1 C7 106.40(10)
C10 O3 C11 116.00(10)
C8 C1 C2 107.40(10)
C8 C1 S 123.80(10)
C2 C1 S 128.40(10)
C7 C2 C3 119.70(10)
C7 C2 C1 104.50(10)
C3 C2 C1 135.80(10)
C4 C3 C2 116.3(2)
C4 C3 H3 121.8
C2 C3 H3 121.8
C3 C4 C5 123.7(2)
C3 C4 Cl 118.50(10)
C5 C4 Cl 117.90(10)
C6 C5 C4 120.0(2)
C6 C5 H5 120.0
C4 C5 H5 120.0
C7 C6 C5 116.5(2)
C7 C6 H6 121.8
C5 C6 H6 121.8
O1 C7 C6 125.30(10)
O1 C7 C2 110.80(10)
C6 C7 C2 123.9(2)
C1 C8 O1 110.90(10)
C1 C8 C9 133.3(2)
O1 C8 C9 115.80(10)
C8 C9 C10 113.60(10)
C8 C9 H9A 108.8
C10 C9 H9A 108.8
C8 C9 H9B 108.8
C10 C9 H9B 108.8
H9A C9 H9B 107.7
O4 C10 O3 124.0(2)
O4 C10 C9 126.0(2)
O3 C10 C9 110.00(10)
O3 C11 C12 107.5(2)
O3 C11 H11A 110.2
C12 C11 H11A 110.2
O3 C11 H11B 110.2
C12 C11 H11B 110.2
H11A C11 H11B 108.5
C11 C12 H12A 109.5
C11 C12 H12B 109.5
H12A C12 H12B 109.5
C11 C12 H12C 109.5
H12A C12 H12C 109.5
H12B C12 H12C 109.5
S C13 H13A 109.5
S C13 H13B 109.5
H13A C13 H13B 109.5
S C13 H13C 109.5
H13A C13 H13C 109.5
H13B C13 H13C 109.5
loop_
_geom_bond_atom_site_label_1
_geom_bond_atom_site_label_2
_geom_bond_distance
S O2 1.4970(10)
S C1 1.761(2)
S C13 1.794(2)
Cl C4 1.747(2)
O1 C8 1.374(2)
O1 C7 1.375(2)
O3 C10 1.335(2)
O3 C11 1.462(2)
O4 C10 1.203(2)
C1 C8 1.356(2)
C1 C2 1.445(2)
C2 C7 1.394(2)
C2 C3 1.397(2)
C3 C4 1.385(2)
C3 H3 0.9500
C4 C5 1.399(2)
C5 C6 1.386(2)
C5 H5 0.9500
C6 C7 1.384(2)
C6 H6 0.9500
C8 C9 1.488(2)
C9 C10 1.510(2)
C9 H9A 0.9900
C9 H9B 0.9900
C11 C12 1.486(3)
C11 H11A 0.9900
C11 H11B 0.9900
C12 H12A 0.9800
C12 H12B 0.9800
C12 H12C 0.9800
C13 H13A 0.9800
C13 H13B 0.9800
C13 H13C 0.9800
loop_
_geom_hbond_atom_site_label_D
_geom_hbond_atom_site_label_H
_geom_hbond_atom_site_label_A
_geom_hbond_site_symmetry_A
_geom_hbond_distance_DH
_geom_hbond_distance_HA
_geom_hbond_distance_DA
_geom_hbond_angle_DHA
C3 H3 O2 2_565 0.95 2.40 3.334(2) 166.3
C9 H9A O2 2_665 0.99 2.17 3.160(2) 177.7
loop_
_geom_torsion_atom_site_label_1
_geom_torsion_atom_site_label_2
_geom_torsion_atom_site_label_3
_geom_torsion_atom_site_label_4
_geom_torsion
O2 S C1 C8 130.55(14)
C13 S C1 C8 -119.43(15)
O2 S C1 C2 -41.17(16)
C13 S C1 C2 68.84(16)
C8 C1 C2 C7 -0.53(17)
S C1 C2 C7 172.27(12)
C8 C1 C2 C3 178.49(18)
S C1 C2 C3 -8.7(3)
C7 C2 C3 C4 -0.7(2)
C1 C2 C3 C4 -179.58(17)
C2 C3 C4 C5 -0.6(2)
C2 C3 C4 Cl 179.09(12)
C3 C4 C5 C6 1.3(3)
Cl C4 C5 C6 -178.40(13)
C4 C5 C6 C7 -0.6(2)
C8 O1 C7 C6 179.43(15)
C8 O1 C7 C2 -0.93(17)
C5 C6 C7 O1 178.95(15)
C5 C6 C7 C2 -0.6(2)
C3 C2 C7 O1 -178.31(13)
C1 C2 C7 O1 0.90(17)
C3 C2 C7 C6 1.3(2)
C1 C2 C7 C6 -179.46(15)
C2 C1 C8 O1 -0.02(18)
S C1 C8 O1 -173.23(11)
C2 C1 C8 C9 -178.93(16)
S C1 C8 C9 7.9(3)
C7 O1 C8 C1 0.58(17)
C7 O1 C8 C9 179.70(13)
C1 C8 C9 C10 60.8(2)
O1 C8 C9 C10 -118.03(15)
C11 O3 C10 O4 1.2(3)
C11 O3 C10 C9 179.60(16)
C8 C9 C10 O4 -16.3(3)
C8 C9 C10 O3 165.26(14)
C10 O3 C11 C12 177.06(18)
loop_
_cod_related_entry_id
_cod_related_entry_database
_cod_related_entry_code
1 ChemSpider 21123684
