#------------------------------------------------------------------------------
#$Date: 2017-10-13 11:03:29 +0300 (Fri, 13 Oct 2017) $
#$Revision: 201974 $
#$URL: file:///home/coder/svn-repositories/cod/cif/2/21/41/2214199.cif $
#------------------------------------------------------------------------------
#
# This file is available in the Crystallography Open Database (COD),
# http://www.crystallography.net/. The original data for this entry
# were provided by IUCr Journals, http://journals.iucr.org/.
#
# The file may be used within the scientific community so long as
# proper attribution is given to the journal article from which the
# data were obtained.
#
data_2214199
loop_
_publ_author_name
'Choi, Hong Dae'
'Seo, Pil Ja'
'Son, Byeng Wha'
'Lee, Uk'
_publ_section_title
;
 5-Ethyl-2-methyl-3-methylsulfinyl-1-benzofuran
;
_journal_coeditor_code           GK2078
_journal_issue                   7
_journal_name_full               'Acta Crystallographica Section E'
_journal_page_first              o3166
_journal_page_last               o3166
_journal_paper_doi               10.1107/S160053680702716X
_journal_volume                  63
_journal_year                    2007
_chemical_formula_iupac          'C12 H14 O2 S'
_chemical_formula_moiety         'C12 H14 O2 S'
_chemical_formula_sum            'C12 H14 O2 S'
_chemical_formula_weight         222.29
_chemical_name_systematic
;
5-Ethyl-2-methyl-3-methylsulfinyl-1-benzofuran
;
_space_group_IT_number           2
_symmetry_cell_setting           triclinic
_symmetry_space_group_name_Hall  '-P 1'
_symmetry_space_group_name_H-M   'P -1'
_atom_sites_solution_hydrogens   geom
_atom_sites_solution_primary     direct
_atom_sites_solution_secondary   difmap
_cell_angle_alpha                97.7400(10)
_cell_angle_beta                 108.7210(10)
_cell_angle_gamma                107.2890(10)
_cell_formula_units_Z            2
_cell_length_a                   8.0314(6)
_cell_length_b                   8.7673(7)
_cell_length_c                   8.9017(7)
_cell_measurement_reflns_used    2853
_cell_measurement_temperature    173(2)
_cell_measurement_theta_max      28.18
_cell_measurement_theta_min      2.50
_cell_volume                     548.17(7)
_computing_cell_refinement       'SAINT (Bruker, 1997)'
_computing_data_collection       'SMART (Bruker, 1997)'
_computing_data_reduction        SAINT
_computing_molecular_graphics
'ORTEP-3 (Farrugia, 1997) and DIAMOND (Brandenburg, 1998)'
_computing_publication_material  SHELXL97
_computing_structure_refinement  'SHELXL97 (Sheldrick, 1997)'
_computing_structure_solution    'SHELXS97 (Sheldrick, 1997)'
_diffrn_ambient_temperature      173(2)
_diffrn_detector_area_resol_mean 10.00
_diffrn_measured_fraction_theta_full 0.981
_diffrn_measured_fraction_theta_max 0.981
_diffrn_measurement_device_type  'Bruker SMART CCD'
_diffrn_measurement_method       '\f and \w'
_diffrn_radiation_monochromator  graphite
_diffrn_radiation_source         'fine-focus sealed tube'
_diffrn_radiation_type           MoK\a
_diffrn_radiation_wavelength     0.71073
_diffrn_reflns_av_R_equivalents  0.0341
_diffrn_reflns_av_sigmaI/netI    0.0228
_diffrn_reflns_limit_h_max       6
_diffrn_reflns_limit_h_min       -9
_diffrn_reflns_limit_k_max       10
_diffrn_reflns_limit_k_min       -10
_diffrn_reflns_limit_l_max       10
_diffrn_reflns_limit_l_min       -8
_diffrn_reflns_number            3074
_diffrn_reflns_theta_full        25.99
_diffrn_reflns_theta_max         25.99
_diffrn_reflns_theta_min         2.50
_diffrn_standards_number         0
_exptl_absorpt_coefficient_mu    0.271
_exptl_absorpt_correction_type   none
_exptl_crystal_colour            colorless
_exptl_crystal_density_diffrn    1.347
_exptl_crystal_density_method    'not measured'
_exptl_crystal_description       block
_exptl_crystal_F_000             236
_exptl_crystal_size_max          0.52
_exptl_crystal_size_mid          0.43
_exptl_crystal_size_min          0.25
_refine_diff_density_max         0.828
_refine_diff_density_min         -0.382
_refine_ls_extinction_method     none
_refine_ls_goodness_of_fit_ref   1.056
_refine_ls_hydrogen_treatment    constr
_refine_ls_matrix_type           full
_refine_ls_number_parameters     138
_refine_ls_number_reflns         2107
_refine_ls_number_restraints     0
_refine_ls_restrained_S_all      1.056
_refine_ls_R_factor_all          0.0423
_refine_ls_R_factor_gt           0.0409
_refine_ls_shift/su_max          0.000
_refine_ls_shift/su_mean         0.000
_refine_ls_structure_factor_coef Fsqd
_refine_ls_weighting_details
'calc w=1/[\s^2^(Fo^2^)+(0.0502P)^2^+0.4774P] where P=(Fo^2^+2Fc^2^)/3'
_refine_ls_weighting_scheme      calc
_refine_ls_wR_factor_gt          0.1061
_refine_ls_wR_factor_ref         0.1073
_reflns_number_gt                2009
_reflns_number_total             2107
_reflns_threshold_expression     I>2\s(I)
_cod_data_source_file            gk2078.cif
_cod_data_source_block           I
_cod_original_sg_symbol_Hall     -P_1
_cod_database_code               2214199
_cod_database_fobs_code          2214199
loop_
_symmetry_equiv_pos_as_xyz
'x, y, z'
'-x, -y, -z'
loop_
_atom_site_type_symbol
_atom_site_label
_atom_site_fract_x
_atom_site_fract_y
_atom_site_fract_z
_atom_site_U_iso_or_equiv
_atom_site_adp_type
_atom_site_calc_flag
_atom_site_refinement_flags
_atom_site_occupancy
S S 0.31899(6) 0.70982(6) 0.72234(5) 0.02583(17) Uani d . 1
O O1 0.38885(18) 0.59991(16) 1.14540(15) 0.0242(3) Uani d . 1
O O2 0.1366(2) 0.73454(19) 0.64848(18) 0.0352(4) Uani d . 1
C C1 0.3101(2) 0.6141(2) 0.8823(2) 0.0205(4) Uani d . 1
C C2 0.1751(2) 0.4623(2) 0.8850(2) 0.0207(4) Uani d . 1
C C3 0.0173(2) 0.3325(2) 0.7693(2) 0.0239(4) Uani d . 1
H H3 -0.0237 0.3312 0.6563 0.029 Uiso calc R 1
C C4 -0.0790(3) 0.2043(2) 0.8232(2) 0.0268(4) Uani d . 1
C C5 -0.0168(3) 0.2090(2) 0.9904(3) 0.0300(4) Uani d . 1
H H5 -0.0840 0.1211 1.0249 0.036 Uiso calc R 1
C C6 0.1394(3) 0.3372(2) 1.1079(2) 0.0290(4) Uani d . 1
H H6 0.1804 0.3395 1.2212 0.035 Uiso calc R 1
C C7 0.2314(3) 0.4610(2) 1.0499(2) 0.0229(4) Uani d . 1
C C8 0.4327(2) 0.6902(2) 1.0395(2) 0.0217(4) Uani d . 1
C C9 -0.2488(3) 0.0602(3) 0.7007(3) 0.0362(5) Uani d . 1
H H9A -0.3121 -0.0072 0.7612 0.043 Uiso calc R 1
H H9B -0.3392 0.1034 0.6329 0.043 Uiso calc R 1
C C10 -0.1996(3) -0.0496(3) 0.5889(3) 0.0372(5) Uani d . 1
H H10A -0.1121 -0.0949 0.6549 0.045 Uiso calc R 1
H H10B -0.1401 0.0154 0.5261 0.045 Uiso calc R 1
H H10C -0.3148 -0.1403 0.5132 0.045 Uiso calc R 1
C C11 0.5995(3) 0.8462(2) 1.1159(2) 0.0280(4) Uani d . 1
H H11A 0.6144 0.9046 1.0319 0.042 Uiso calc R 1
H H11B 0.7127 0.8208 1.1659 0.042 Uiso calc R 1
H H11C 0.5816 0.9160 1.2005 0.042 Uiso calc R 1
C C12 0.3148(3) 0.5425(3) 0.5772(2) 0.0316(4) Uani d . 1
H H12A 0.1921 0.4523 0.5380 0.047 Uiso calc R 1
H H12B 0.4148 0.5027 0.6306 0.047 Uiso calc R 1
H H12C 0.3351 0.5818 0.4842 0.047 Uiso calc R 1
loop_
_atom_site_aniso_label
_atom_site_aniso_U_11
_atom_site_aniso_U_22
_atom_site_aniso_U_33
_atom_site_aniso_U_12
_atom_site_aniso_U_13
_atom_site_aniso_U_23
S 0.0286(3) 0.0238(3) 0.0230(3) 0.00662(19) 0.00919(19) 0.00760(18)
O1 0.0256(7) 0.0238(7) 0.0184(6) 0.0071(5) 0.0049(5) 0.0038(5)
O2 0.0410(8) 0.0373(8) 0.0302(7) 0.0218(7) 0.0088(6) 0.0119(6)
C1 0.0197(8) 0.0210(8) 0.0207(8) 0.0071(7) 0.0075(7) 0.0054(7)
C2 0.0195(8) 0.0210(8) 0.0230(9) 0.0090(7) 0.0081(7) 0.0062(7)
C3 0.0198(8) 0.0252(9) 0.0240(9) 0.0072(7) 0.0064(7) 0.0044(7)
C4 0.0202(9) 0.0229(9) 0.0358(10) 0.0060(7) 0.0124(8) 0.0029(8)
C5 0.0331(10) 0.0240(9) 0.0391(11) 0.0087(8) 0.0221(9) 0.0103(8)
C6 0.0378(11) 0.0285(10) 0.0255(9) 0.0125(8) 0.0163(8) 0.0104(8)
C7 0.0227(9) 0.0212(9) 0.0238(9) 0.0081(7) 0.0084(7) 0.0036(7)
C8 0.0203(8) 0.0215(9) 0.0236(9) 0.0085(7) 0.0083(7) 0.0045(7)
C9 0.0252(10) 0.0297(10) 0.0444(12) 0.0011(8) 0.0127(9) 0.0018(9)
C10 0.0373(12) 0.0297(10) 0.0337(11) 0.0051(9) 0.0091(9) 0.0011(9)
C11 0.0232(9) 0.0232(9) 0.0287(10) 0.0048(8) 0.0045(8) 0.0007(7)
C12 0.0353(11) 0.0366(11) 0.0245(10) 0.0148(9) 0.0126(8) 0.0062(8)
loop_
_atom_type_symbol
_atom_type_description
_atom_type_scat_dispersion_real
_atom_type_scat_dispersion_imag
_atom_type_scat_source
C C 0.0033 0.0016 'International Tables Vol C Tables 4.2.6.8 and 6.1.1.4'
H H 0.0000 0.0000 'International Tables Vol C Tables 4.2.6.8 and 6.1.1.4'
O O 0.0106 0.0060 'International Tables Vol C Tables 4.2.6.8 and 6.1.1.4'
S S 0.1246 0.1234 'International Tables Vol C Tables 4.2.6.8 and 6.1.1.4'
loop_
_geom_angle_atom_site_label_1
_geom_angle_atom_site_label_2
_geom_angle_atom_site_label_3
_geom_angle
O2 S C1 108.54(9)
O2 S C12 106.41(9)
C1 S C12 99.54(9)
C8 O1 C7 106.28(13)
C8 C1 C2 107.40(16)
C8 C1 S 121.09(14)
C2 C1 S 131.20(14)
C7 C2 C3 119.36(17)
C7 C2 C1 104.43(16)
C3 C2 C1 136.21(17)
C2 C3 C4 118.64(17)
C2 C3 H3 120.7
C4 C3 H3 120.7
C3 C4 C5 119.79(17)
C3 C4 C9 120.04(18)
C5 C4 C9 120.17(18)
C6 C5 C4 122.62(17)
C6 C5 H5 118.7
C4 C5 H5 118.7
C7 C6 C5 115.92(18)
C7 C6 H6 122.0
C5 C6 H6 122.0
C6 C7 O1 125.44(17)
C6 C7 C2 123.67(18)
O1 C7 C2 110.88(15)
C1 C8 O1 111.02(16)
C1 C8 C11 133.31(17)
O1 C8 C11 115.67(15)
C10 C9 C4 113.45(17)
C10 C9 H9A 108.9
C4 C9 H9A 108.9
C10 C9 H9B 108.9
C4 C9 H9B 108.9
H9A C9 H9B 107.7
C9 C10 H10A 109.5
C9 C10 H10B 109.5
H10A C10 H10B 109.5
C9 C10 H10C 109.5
H10A C10 H10C 109.5
H10B C10 H10C 109.5
C8 C11 H11A 109.5
C8 C11 H11B 109.5
H11A C11 H11B 109.5
C8 C11 H11C 109.5
H11A C11 H11C 109.5
H11B C11 H11C 109.5
S C12 H12A 109.5
S C12 H12B 109.5
H12A C12 H12B 109.5
S C12 H12C 109.5
H12A C12 H12C 109.5
H12B C12 H12C 109.5
loop_
_geom_bond_atom_site_label_1
_geom_bond_atom_site_label_2
_geom_bond_distance
S O2 1.495(2)
S C1 1.758(2)
S C12 1.804(2)
O1 C8 1.374(2)
O1 C7 1.385(2)
C1 C8 1.359(3)
C1 C2 1.454(2)
C2 C7 1.393(3)
C2 C3 1.397(3)
C3 C4 1.400(3)
C3 H3 0.9500
C4 C5 1.400(3)
C4 C9 1.515(3)
C5 C6 1.391(3)
C5 H5 0.9500
C6 C7 1.383(3)
C6 H6 0.9500
C8 C11 1.484(3)
C9 C10 1.514(3)
C9 H9A 0.9900
C9 H9B 0.9900
C10 H10A 0.9800
C10 H10B 0.9800
C10 H10C 0.9800
C11 H11A 0.9800
C11 H11B 0.9800
C11 H11C 0.9800
C12 H12A 0.9800
C12 H12B 0.9800
C12 H12C 0.9800
loop_
_geom_hbond_atom_site_label_D
_geom_hbond_atom_site_label_H
_geom_hbond_atom_site_label_A
_geom_hbond_site_symmetry_A
_geom_hbond_distance_DH
_geom_hbond_distance_HA
_geom_hbond_distance_DA
_geom_hbond_angle_DHA
C11 H11B Cg 2_667 0.98 2.75 3.532(3) 137
loop_
_geom_torsion_atom_site_label_1
_geom_torsion_atom_site_label_2
_geom_torsion_atom_site_label_3
_geom_torsion_atom_site_label_4
_geom_torsion
O2 S C1 C8 -117.99(16)
C12 S C1 C8 130.99(16)
O2 S C1 C2 54.83(19)
C12 S C1 C2 -56.18(19)
C8 C1 C2 C7 -0.05(19)
S C1 C2 C7 -173.62(14)
C8 C1 C2 C3 179.4(2)
S C1 C2 C3 5.8(3)
C7 C2 C3 C4 -0.3(3)
C1 C2 C3 C4 -179.69(19)
C2 C3 C4 C5 0.4(3)
C2 C3 C4 C9 -179.01(17)
C3 C4 C5 C6 -0.2(3)
C9 C4 C5 C6 179.24(18)
C4 C5 C6 C7 -0.2(3)
C5 C6 C7 O1 179.69(17)
C5 C6 C7 C2 0.3(3)
C8 O1 C7 C6 -179.47(18)
C8 O1 C7 C2 0.01(19)
C3 C2 C7 C6 0.0(3)
C1 C2 C7 C6 179.51(17)
C3 C2 C7 O1 -179.53(15)
C1 C2 C7 O1 0.03(19)
C2 C1 C8 O1 0.1(2)
S C1 C8 O1 174.41(12)
C2 C1 C8 C11 179.73(19)
S C1 C8 C11 -5.9(3)
C7 O1 C8 C1 -0.04(19)
C7 O1 C8 C11 -179.78(15)
C3 C4 C9 C10 68.7(3)
C5 C4 C9 C10 -110.7(2)
loop_
_cod_related_entry_id
_cod_related_entry_database
_cod_related_entry_code
1 ChemSpider 21124199
