#------------------------------------------------------------------------------
#$Date: 2018-02-05 01:16:54 +0200 (Mon, 05 Feb 2018) $
#$Revision: 206172 $
#$URL: file:///home/coder/svn-repositories/cod/cif/2/21/41/2214174.cif $
#------------------------------------------------------------------------------
#
# This file is available in the Crystallography Open Database (COD),
# http://www.crystallography.net/. The original data for this entry
# were provided by IUCr Journals, http://journals.iucr.org/.
#
# The file may be used within the scientific community so long as
# proper attribution is given to the journal article from which the
# data were obtained.
#
data_2214174
loop_
_publ_author_name
'Shilova, Ekaterina A.'
'Bougdid, Lahoussine'
'P\`epe, G\'erard'
'Moustrou, Corinne'
_publ_section_title
;
 6-Bromo-2,2-diphenyl-2<i>H</i>-1-benzopyran
;
_journal_coeditor_code           DN3053
_journal_issue                   7
_journal_name_full               'Acta Crystallographica Section E'
_journal_page_first              o3340
_journal_page_last               o3340
_journal_paper_doi               10.1107/S1600536807030784
_journal_volume                  63
_journal_year                    2007
_chemical_formula_iupac          'C21 H15 Br O'
_chemical_formula_moiety         'C21 H15 Br O'
_chemical_formula_sum            'C21 H15 Br O'
_chemical_formula_weight         363.24
_chemical_melting_point          399.0(10)
_chemical_name_common            6-Bromo-2,2-diphenyl-2H-1-benzopyran
_chemical_name_systematic
;
6-Bromo-2,2-diphenyl-2<i>H</i>-1-benzopyran
;
_space_group_crystal_system      triclinic
_space_group_IT_number           2
_space_group_name_Hall           '-P 1'
_space_group_name_H-M_alt        'P -1'
_atom_sites_solution_hydrogens   geom
_atom_sites_solution_primary     direct
_atom_sites_solution_secondary   difmap
_audit_creation_method           SHELXL97
_cell_angle_alpha                72.461(3)
_cell_angle_beta                 79.150(3)
_cell_angle_gamma                75.594(3)
_cell_formula_units_Z            2
_cell_length_a                   8.9633(4)
_cell_length_b                   9.4284(4)
_cell_length_c                   10.5524(5)
_cell_measurement_reflns_used    17241
_cell_measurement_temperature    293(2)
_cell_measurement_theta_max      29.93
_cell_measurement_theta_min      2.32
_cell_volume                     817.37(7)
_computing_cell_refinement
'DENZO and SCALEPACK (Otwinowski & Minor, 1997)'
_computing_data_collection       'KappaCCD Reference Manual (Nonius, 1998)'
_computing_data_reduction        'DENZO and SCALEPACK'
_computing_molecular_graphics
;
ORTEPIII (Burnett & Johnson, 1996) and ORTEP-3 for Windows (Farrugia,
1997)
;
_computing_publication_material  'PLATON (Spek, 2003)'
_computing_structure_refinement  'SHELXL97 (Sheldrick, 1997)'
_computing_structure_solution    'SIR97 (Altomare <i>et al.</i>,  1999)'
_diffrn_ambient_temperature      293(2)
_diffrn_measured_fraction_theta_full 0.982
_diffrn_measured_fraction_theta_max 0.982
_diffrn_measurement_device_type  'Nonius KappaCCD area-detector'
_diffrn_measurement_method       \f
_diffrn_radiation_monochromator  graphite
_diffrn_radiation_source         'fine-focus sealed tube'
_diffrn_radiation_type           MoK\a
_diffrn_radiation_wavelength     0.71073
_diffrn_reflns_av_R_equivalents  0.0402
_diffrn_reflns_av_sigmaI/netI    0.0379
_diffrn_reflns_limit_h_max       12
_diffrn_reflns_limit_h_min       -9
_diffrn_reflns_limit_k_max       12
_diffrn_reflns_limit_k_min       -13
_diffrn_reflns_limit_l_max       14
_diffrn_reflns_limit_l_min       -14
_diffrn_reflns_number            17241
_diffrn_reflns_theta_full        29.93
_diffrn_reflns_theta_max         29.93
_diffrn_reflns_theta_min         2.31
_diffrn_standards_decay_%        0
_diffrn_standards_interval_count 0
_diffrn_standards_interval_time  0
_diffrn_standards_number         0
_exptl_absorpt_coefficient_mu    2.517
_exptl_absorpt_correction_T_max  0.63
_exptl_absorpt_correction_T_min  0.52
_exptl_absorpt_correction_type   multi-scan
_exptl_absorpt_process_details   '(Blessing & Langs, 1987)'
_exptl_crystal_colour            'light yellow'
_exptl_crystal_density_diffrn    1.476
_exptl_crystal_density_method    'not measured'
_exptl_crystal_description       prism
_exptl_crystal_F_000             368
_exptl_crystal_size_max          0.20
_exptl_crystal_size_mid          0.20
_exptl_crystal_size_min          0.15
_refine_diff_density_max         0.543
_refine_diff_density_min         -0.657
_refine_ls_extinction_method     none
_refine_ls_goodness_of_fit_ref   1.100
_refine_ls_hydrogen_treatment    constr
_refine_ls_matrix_type           full
_refine_ls_number_parameters     208
_refine_ls_number_reflns         4665
_refine_ls_number_restraints     0
_refine_ls_restrained_S_all      1.100
_refine_ls_R_factor_all          0.0684
_refine_ls_R_factor_gt           0.0438
_refine_ls_shift/su_max          0.000
_refine_ls_shift/su_mean         0.000
_refine_ls_structure_factor_coef Fsqd
_refine_ls_weighting_details
'calc w = 1/[\s^2^(Fo^2^)+(0.0375P)^2^+0.5037P] where P=(Fo^2^+2Fc^2^)/3'
_refine_ls_weighting_scheme      calc
_refine_ls_wR_factor_gt          0.0981
_refine_ls_wR_factor_ref         0.1149
_reflns_number_gt                3473
_reflns_number_total             4665
_reflns_threshold_expression     I>2\s(I)
_cod_data_source_file            dn3053.cif
_cod_data_source_block           I
_cod_database_code               2214174
_cod_database_fobs_code          2214174
loop_
_space_group_symop_id
_space_group_symop_operation_xyz
1 x,y,z
2 -x,-y,-z
loop_
_atom_site_type_symbol
_atom_site_label
_atom_site_fract_x
_atom_site_fract_y
_atom_site_fract_z
_atom_site_U_iso_or_equiv
_atom_site_adp_type
_atom_site_calc_flag
_atom_site_refinement_flags
_atom_site_occupancy
C C1 -0.2030(3) 0.5056(3) 0.7994(2) 0.0455(5) Uani d . 1
H H1 -0.1481 0.4083 0.8355 0.055 Uiso calc R 1
C C2 -0.3641(3) 0.5354(4) 0.8156(3) 0.0566(7) Uani d . 1
H H2 -0.4161 0.4580 0.8639 0.068 Uiso calc R 1
C C3 -0.4478(3) 0.6772(4) 0.7614(3) 0.0578(7) Uani d . 1
H H3 -0.5557 0.6966 0.7732 0.069 Uiso calc R 1
C C4 -0.3699(3) 0.7901(4) 0.6895(3) 0.0624(7) Uani d . 1
H H4 -0.4254 0.8861 0.6505 0.075 Uiso calc R 1
C C5 -0.2086(3) 0.7623(3) 0.6744(3) 0.0504(6) Uani d . 1
H H5 -0.1574 0.8403 0.6264 0.061 Uiso calc R 1
C C6 -0.1237(2) 0.6198(3) 0.7299(2) 0.0361(4) Uani d . 1
C C7 0.0536(2) 0.5925(3) 0.7133(2) 0.0347(4) Uani d . 1
C C8 0.1046(2) 0.7238(3) 0.7401(2) 0.0349(4) Uani d . 1
C C9 0.1586(3) 0.8380(3) 0.6386(2) 0.0481(6) Uani d . 1
H H9 0.1703 0.8344 0.5501 0.058 Uiso calc R 1
C C10 0.1955(4) 0.9587(3) 0.6686(3) 0.0610(7) Uani d . 1
H H10 0.2312 1.0356 0.5998 0.073 Uiso calc R 1
C C11 0.1795(4) 0.9647(3) 0.7991(3) 0.0604(7) Uani d . 1
H H11 0.2049 1.0450 0.8186 0.073 Uiso calc R 1
C C12 0.1260(4) 0.8525(3) 0.8999(3) 0.0569(7) Uani d . 1
H H12 0.1145 0.8569 0.9882 0.068 Uiso calc R 1
C C13 0.0888(3) 0.7321(3) 0.8714(2) 0.0444(5) Uani d . 1
H H13 0.0529 0.6561 0.9409 0.053 Uiso calc R 1
O O14 0.10089(18) 0.45443(18) 0.81754(15) 0.0392(3) Uani d . 1
C C15 0.2510(2) 0.3768(2) 0.8033(2) 0.0353(4) Uani d . 1
C C16 0.3325(3) 0.3782(3) 0.6767(2) 0.0378(5) Uani d . 1
C C17 0.2525(3) 0.4684(3) 0.5611(2) 0.0433(5) Uani d . 1
H H17 0.2933 0.4561 0.4764 0.052 Uiso calc R 1
C C18 0.1215(3) 0.5682(3) 0.5767(2) 0.0404(5) Uani d . 1
H H18 0.0706 0.6242 0.5026 0.049 Uiso calc R 1
C C19 0.3154(3) 0.2885(3) 0.9189(2) 0.0406(5) Uani d . 1
H H19 0.2586 0.2864 1.0026 0.049 Uiso calc R 1
C C20 0.4657(3) 0.2032(3) 0.9082(2) 0.0438(5) Uani d . 1
H H20 0.5105 0.1436 0.9847 0.053 Uiso calc R 1
C C21 0.5477(3) 0.2079(3) 0.7829(3) 0.0443(5) Uani d . 1
C C22 0.4828(3) 0.2917(3) 0.6675(2) 0.0449(5) Uani d . 1
H H22 0.5390 0.2904 0.5841 0.054 Uiso calc R 1
Br Br23 0.75853(3) 0.10283(4) 0.77031(3) 0.06376(13) Uani d . 1
loop_
_atom_site_aniso_label
_atom_site_aniso_U_11
_atom_site_aniso_U_22
_atom_site_aniso_U_33
_atom_site_aniso_U_12
_atom_site_aniso_U_13
_atom_site_aniso_U_23
C1 0.0412(12) 0.0520(14) 0.0471(13) -0.0164(10) -0.0043(10) -0.0143(11)
C2 0.0449(14) 0.0749(19) 0.0608(16) -0.0297(14) 0.0021(12) -0.0251(14)
C3 0.0302(12) 0.082(2) 0.0717(18) -0.0139(12) -0.0017(11) -0.0365(16)
C4 0.0355(13) 0.0635(17) 0.088(2) -0.0017(12) -0.0165(13) -0.0215(16)
C5 0.0341(12) 0.0518(14) 0.0621(16) -0.0093(10) -0.0091(10) -0.0081(12)
C6 0.0306(10) 0.0476(12) 0.0343(10) -0.0106(9) -0.0034(8) -0.0154(9)
C7 0.0314(10) 0.0431(11) 0.0278(9) -0.0074(8) -0.0027(7) -0.0076(8)
C8 0.0255(9) 0.0455(12) 0.0332(10) -0.0059(8) -0.0048(7) -0.0100(9)
C9 0.0506(14) 0.0567(15) 0.0373(12) -0.0187(12) -0.0073(10) -0.0054(11)
C10 0.0639(18) 0.0525(16) 0.0650(18) -0.0227(14) -0.0153(14) -0.0004(13)
C11 0.0584(17) 0.0527(15) 0.080(2) -0.0148(13) -0.0191(14) -0.0225(14)
C12 0.0592(17) 0.0668(17) 0.0536(15) -0.0121(14) -0.0115(12) -0.0271(14)
C13 0.0437(13) 0.0562(14) 0.0361(11) -0.0141(11) -0.0015(9) -0.0152(10)
O14 0.0324(8) 0.0455(8) 0.0334(7) -0.0038(6) -0.0009(6) -0.0067(6)
C15 0.0331(10) 0.0375(11) 0.0365(11) -0.0068(8) -0.0030(8) -0.0125(9)
C16 0.0358(11) 0.0452(12) 0.0350(11) -0.0078(9) -0.0027(8) -0.0159(9)
C17 0.0413(12) 0.0607(14) 0.0309(11) -0.0088(10) -0.0023(8) -0.0190(10)
C18 0.0381(11) 0.0554(13) 0.0285(10) -0.0089(10) -0.0063(8) -0.0114(9)
C19 0.0427(12) 0.0406(11) 0.0361(11) -0.0078(9) -0.0028(9) -0.0083(9)
C20 0.0439(13) 0.0404(12) 0.0458(13) -0.0034(10) -0.0108(10) -0.0108(10)
C21 0.0376(12) 0.0436(12) 0.0541(14) 0.0005(9) -0.0091(10) -0.0217(11)
C22 0.0395(12) 0.0549(14) 0.0433(12) -0.0039(10) -0.0024(9) -0.0237(11)
Br23 0.04440(17) 0.0739(2) 0.0716(2) 0.01358(13) -0.01355(13) -0.03444(16)
loop_
_atom_type_symbol
_atom_type_description
_atom_type_scat_dispersion_real
_atom_type_scat_dispersion_imag
_atom_type_scat_source
C C 0.0033 0.0016 'International Tables Vol C Tables 4.2.6.8 and 6.1.1.4'
H H 0.0000 0.0000 'International Tables Vol C Tables 4.2.6.8 and 6.1.1.4'
O O 0.0106 0.0060 'International Tables Vol C Tables 4.2.6.8 and 6.1.1.4'
Br Br -0.2901 2.4595 'International Tables Vol C Tables 4.2.6.8 and 6.1.1.4'
loop_
_geom_angle_atom_site_label_1
_geom_angle_atom_site_label_2
_geom_angle_atom_site_label_3
_geom_angle
C6 C1 C2 120.4(3)
C6 C1 H1 119.8
C2 C1 H1 119.8
C3 C2 C1 121.0(3)
C3 C2 H2 119.5
C1 C2 H2 119.5
C4 C3 C2 119.0(3)
C4 C3 H3 120.5
C2 C3 H3 120.5
C3 C4 C5 120.6(3)
C3 C4 H4 119.7
C5 C4 H4 119.7
C6 C5 C4 120.7(3)
C6 C5 H5 119.6
C4 C5 H5 119.6
C1 C6 C5 118.3(2)
C1 C6 C7 121.9(2)
C5 C6 C7 119.8(2)
O14 C7 C18 109.85(18)
O14 C7 C6 104.92(16)
C18 C7 C6 110.74(17)
O14 C7 C8 108.43(16)
C18 C7 C8 112.69(18)
C6 C7 C8 109.90(18)
C9 C8 C13 118.5(2)
C9 C8 C7 122.7(2)
C13 C8 C7 118.66(19)
C8 C9 C10 120.2(2)
C8 C9 H9 119.9
C10 C9 H9 119.9
C11 C10 C9 120.4(3)
C11 C10 H10 119.8
C9 C10 H10 119.8
C12 C11 C10 119.8(3)
C12 C11 H11 120.1
C10 C11 H11 120.1
C11 C12 C13 120.4(3)
C11 C12 H12 119.8
C13 C12 H12 119.8
C12 C13 C8 120.7(2)
C12 C13 H13 119.6
C8 C13 H13 119.6
C15 O14 C7 117.79(16)
O14 C15 C19 117.65(19)
O14 C15 C16 120.90(19)
C19 C15 C16 121.3(2)
C22 C16 C15 118.7(2)
C22 C16 C17 123.9(2)
C15 C16 C17 117.4(2)
C18 C17 C16 120.0(2)
C18 C17 H17 120.0
C16 C17 H17 120.0
C17 C18 C7 121.2(2)
C17 C18 H18 119.4
C7 C18 H18 119.4
C15 C19 C20 119.3(2)
C15 C19 H19 120.3
C20 C19 H19 120.3
C21 C20 C19 119.3(2)
C21 C20 H20 120.3
C19 C20 H20 120.3
C22 C21 C20 121.7(2)
C22 C21 Br23 119.49(18)
C20 C21 Br23 118.78(18)
C21 C22 C16 119.6(2)
C21 C22 H22 120.2
C16 C22 H22 120.2
loop_
_geom_bond_atom_site_label_1
_geom_bond_atom_site_label_2
_geom_bond_distance
C1 C6 1.382(3)
C1 C2 1.389(4)
C1 H1 0.9300
C2 C3 1.371(5)
C2 H2 0.9300
C3 C4 1.370(4)
C3 H3 0.9300
C4 C5 1.391(4)
C4 H4 0.9300
C5 C6 1.383(3)
C5 H5 0.9300
C6 C7 1.530(3)
C7 O14 1.456(3)
C7 C18 1.517(3)
C7 C8 1.537(3)
C8 C9 1.382(3)
C8 C13 1.390(3)
C9 C10 1.396(4)
C9 H9 0.9300
C10 C11 1.374(4)
C10 H10 0.9300
C11 C12 1.365(4)
C11 H11 0.9300
C12 C13 1.386(4)
C12 H12 0.9300
C13 H13 0.9300
O14 C15 1.367(3)
C15 C19 1.388(3)
C15 C16 1.395(3)
C16 C22 1.394(3)
C16 C17 1.458(3)
C17 C18 1.327(3)
C17 H17 0.9300
C18 H18 0.9300
C19 C20 1.390(3)
C19 H19 0.9300
C20 C21 1.381(4)
C20 H20 0.9300
C21 C22 1.379(4)
C21 Br23 1.903(2)
C22 H22 0.9300
loop_
_geom_torsion_atom_site_label_1
_geom_torsion_atom_site_label_2
_geom_torsion_atom_site_label_3
_geom_torsion_atom_site_label_4
_geom_torsion
O14 C7 C8 C9 142.9(2)
O14 C7 C6 C5 161.2(2)
loop_
_cod_related_entry_id
_cod_related_entry_database
_cod_related_entry_code
1 ChemSpider 21124215
