#------------------------------------------------------------------------------
#$Date: 2017-10-13 11:03:29 +0300 (Fri, 13 Oct 2017) $
#$Revision: 201974 $
#$URL: file:///home/coder/svn-repositories/cod/cif/2/21/41/2214153.cif $
#------------------------------------------------------------------------------
#
# This file is available in the Crystallography Open Database (COD),
# http://www.crystallography.net/. The original data for this entry
# were provided by IUCr Journals, http://journals.iucr.org/.
#
# The file may be used within the scientific community so long as
# proper attribution is given to the journal article from which the
# data were obtained.
#
data_2214153
loop_
_publ_author_name
'B. Thimme Gowda'
'Sabine Foro'
'Hartmut Fuess'
_publ_section_title
;
 <i>N</i>-(3,4-Dichlorophenyl)methanesulfonamide
;
_journal_coeditor_code           DN2184
_journal_issue                   7
_journal_name_full               'Acta Crystallographica Section E'
_journal_page_first              o3090
_journal_page_last               o3090
_journal_paper_doi               10.1107/S1600536807026438
_journal_volume                  63
_journal_year                    2007
_chemical_formula_iupac          'C7 H7 Cl2 N O2 S'
_chemical_formula_moiety         'C7 H7 Cl2 N O2 S'
_chemical_formula_sum            'C7 H7 Cl2 N O2 S'
_chemical_formula_weight         240.10
_chemical_name_common            Methanesulfon-3,4-dichloroanilide
_chemical_name_systematic
;
<i>N</i>-(3,4-Dichlorophenyl)methanesulfonamide
;
_space_group_IT_number           2
_symmetry_cell_setting           triclinic
_symmetry_space_group_name_Hall  '-P 1'
_symmetry_space_group_name_H-M   'P -1'
_atom_sites_solution_hydrogens   geom
_atom_sites_solution_primary     direct
_atom_sites_solution_secondary   difmap
_audit_creation_method           SHELXL97
_cell_angle_alpha                79.720(10)
_cell_angle_beta                 89.720(10)
_cell_angle_gamma                84.890(10)
_cell_formula_units_Z            2
_cell_length_a                   5.1920(10)
_cell_length_b                   8.4520(10)
_cell_length_c                   11.0310(10)
_cell_measurement_reflns_used    25
_cell_measurement_temperature    299(2)
_cell_measurement_theta_max      27.08
_cell_measurement_theta_min      5.34
_cell_volume                     474.38(12)
_computing_cell_refinement       'CAD-4-PC Software'
_computing_data_collection       'CAD-4-PC Software (Enraf--Nonius, 1996)'
_computing_data_reduction        'REDU4 (Stoe, 1987)'
_computing_molecular_graphics
;
ORTEPIII (Burnett & Johnson, 1996), ORTEP-3 for Windows (Farrugia,
1997) and
PLATON (Spek, 2003)
;
_computing_publication_material  SHELXL97
_computing_structure_refinement  'SHELXL97 (Sheldrick, 1997)'
_computing_structure_solution    'SHELXS97 (Sheldrick, 1997)'
_diffrn_ambient_temperature      299(2)
_diffrn_measured_fraction_theta_full 1.000
_diffrn_measured_fraction_theta_max 1.000
_diffrn_measurement_device_type  'Enraf--Nonius CAD-4'
_diffrn_measurement_method       \w/2\q
_diffrn_radiation_monochromator  graphite
_diffrn_radiation_source         'fine-focus sealed tube'
_diffrn_radiation_type           CuK\a
_diffrn_radiation_wavelength     1.54180
_diffrn_reflns_av_R_equivalents  0.0146
_diffrn_reflns_av_sigmaI/netI    0.0151
_diffrn_reflns_limit_h_max       1
_diffrn_reflns_limit_h_min       -6
_diffrn_reflns_limit_k_max       10
_diffrn_reflns_limit_k_min       -10
_diffrn_reflns_limit_l_max       13
_diffrn_reflns_limit_l_min       -13
_diffrn_reflns_number            1916
_diffrn_reflns_theta_full        66.92
_diffrn_reflns_theta_max         66.92
_diffrn_reflns_theta_min         4.07
_diffrn_standards_decay_%        1.0
_diffrn_standards_interval_time  120
_diffrn_standards_number         3
_exptl_absorpt_coefficient_mu    7.954
_exptl_absorpt_correction_T_max  0.4964
_exptl_absorpt_correction_T_min  0.3278
_exptl_absorpt_correction_type   psi-scan
_exptl_absorpt_process_details   '(North <i>et al.</i>,  1968)'
_exptl_crystal_colour            colourless
_exptl_crystal_density_diffrn    1.681
_exptl_crystal_density_method    'not measured'
_exptl_crystal_description       prism
_exptl_crystal_F_000             244
_exptl_crystal_size_max          0.40
_exptl_crystal_size_mid          0.15
_exptl_crystal_size_min          0.10
_refine_diff_density_max         0.265
_refine_diff_density_min         -0.329
_refine_ls_extinction_method     none
_refine_ls_goodness_of_fit_ref   1.075
_refine_ls_hydrogen_treatment    mixed
_refine_ls_matrix_type           full
_refine_ls_number_parameters     123
_refine_ls_number_reflns         1685
_refine_ls_number_restraints     1
_refine_ls_restrained_S_all      1.075
_refine_ls_R_factor_all          0.0377
_refine_ls_R_factor_gt           0.0337
_refine_ls_shift/su_max          0.000
_refine_ls_shift/su_mean         0.000
_refine_ls_structure_factor_coef Fsqd
_refine_ls_weighting_details
'calc w = 1/[\s^2^(Fo^2^)+(0.0543P)^2^+0.2324P] where P=(Fo^2^+2Fc^2^)/3'
_refine_ls_weighting_scheme      calc
_refine_ls_wR_factor_gt          0.0905
_refine_ls_wR_factor_ref         0.0941
_reflns_number_gt                1536
_reflns_number_total             1685
_reflns_threshold_expression     I>2\s(I)
_cod_data_source_file            dn2184.cif
_cod_data_source_block           I
_cod_database_code               2214153
_cod_database_fobs_code          2214153
loop_
_symmetry_equiv_pos_as_xyz
'x, y, z'
'-x, -y, -z'
loop_
_atom_site_type_symbol
_atom_site_label
_atom_site_fract_x
_atom_site_fract_y
_atom_site_fract_z
_atom_site_U_iso_or_equiv
_atom_site_adp_type
_atom_site_calc_flag
_atom_site_refinement_flags
_atom_site_occupancy
C C1 0.2536(6) 0.2368(3) 0.2322(3) 0.0596(7) Uani d . 1
H H1A 0.3692 0.2599 0.2931 0.089 Uiso calc R 1
H H1B 0.3441 0.2355 0.1562 0.089 Uiso calc R 1
H H1C 0.1904 0.1333 0.2601 0.089 Uiso calc R 1
C C6 0.2776(4) 0.6371(3) 0.2260(2) 0.0371(5) Uani d . 1
C C7 0.4409(5) 0.7364(3) 0.1567(2) 0.0388(5) Uani d . 1
H H7 0.4471 0.7416 0.0718 0.047 Uiso calc R 1
C C8 0.5949(4) 0.8279(3) 0.2121(2) 0.0378(5) Uani d . 1
C C9 0.5897(5) 0.8187(3) 0.3392(2) 0.0413(5) Uani d . 1
C C10 0.4287(5) 0.7178(3) 0.4082(2) 0.0465(6) Uani d . 1
H H10 0.4258 0.7106 0.4933 0.056 Uiso calc R 1
C C11 0.2715(5) 0.6270(3) 0.3533(2) 0.0443(5) Uani d . 1
H H11 0.1626 0.5598 0.4008 0.053 Uiso calc R 1
N N5 0.1139(4) 0.5562(2) 0.16041(18) 0.0456(5) Uani d D 1
O O3 -0.1591(4) 0.3621(2) 0.10627(16) 0.0565(5) Uani d . 1
O O4 -0.1291(4) 0.3894(2) 0.32363(17) 0.0547(5) Uani d . 1
S S2 -0.00703(11) 0.38570(6) 0.20856(5) 0.03832(18) Uani d . 1
Cl Cl12 0.79029(13) 0.95435(8) 0.12089(6) 0.0547(2) Uani d . 1
Cl Cl13 0.77694(14) 0.93584(9) 0.41041(7) 0.0603(2) Uani d . 1
H H5 0.105(6) 0.581(3) 0.0828(10) 0.054(8) Uiso d D 1
loop_
_atom_site_aniso_label
_atom_site_aniso_U_11
_atom_site_aniso_U_22
_atom_site_aniso_U_33
_atom_site_aniso_U_12
_atom_site_aniso_U_13
_atom_site_aniso_U_23
C1 0.0588(16) 0.0464(14) 0.0720(19) -0.0034(12) 0.0038(14) -0.0075(13)
C6 0.0464(12) 0.0306(10) 0.0340(11) -0.0072(9) -0.0007(9) -0.0028(8)
C7 0.0507(13) 0.0343(11) 0.0302(11) -0.0062(9) 0.0016(9) -0.0010(9)
C8 0.0433(12) 0.0302(10) 0.0390(11) -0.0074(9) 0.0024(9) -0.0018(9)
C9 0.0465(12) 0.0375(12) 0.0422(13) -0.0059(10) -0.0019(10) -0.0125(10)
C10 0.0589(15) 0.0512(14) 0.0311(11) -0.0096(11) 0.0036(10) -0.0094(10)
C11 0.0553(14) 0.0451(13) 0.0332(12) -0.0159(11) 0.0087(10) -0.0036(10)
N5 0.0635(13) 0.0435(11) 0.0301(10) -0.0233(9) -0.0029(9) 0.0020(8)
O3 0.0682(12) 0.0577(11) 0.0448(10) -0.0329(9) -0.0079(8) 0.0010(8)
O4 0.0618(11) 0.0587(11) 0.0464(10) -0.0213(9) 0.0191(8) -0.0095(8)
S2 0.0442(3) 0.0374(3) 0.0335(3) -0.0145(2) 0.0033(2) -0.0018(2)
Cl12 0.0603(4) 0.0482(4) 0.0546(4) -0.0244(3) 0.0056(3) 0.0028(3)
Cl13 0.0638(4) 0.0656(4) 0.0600(4) -0.0216(3) -0.0032(3) -0.0260(3)
loop_
_atom_type_symbol
_atom_type_description
_atom_type_scat_dispersion_real
_atom_type_scat_dispersion_imag
_atom_type_scat_source
C C 0.0181 0.0091 'International Tables Vol C Tables 4.2.6.8 and 6.1.1.4'
H H 0.0000 0.0000 'International Tables Vol C Tables 4.2.6.8 and 6.1.1.4'
N N 0.0311 0.0180 'International Tables Vol C Tables 4.2.6.8 and 6.1.1.4'
O O 0.0492 0.0322 'International Tables Vol C Tables 4.2.6.8 and 6.1.1.4'
S S 0.3331 0.5567 'International Tables Vol C Tables 4.2.6.8 and 6.1.1.4'
Cl Cl 0.3639 0.7018 'International Tables Vol C Tables 4.2.6.8 and 6.1.1.4'
loop_
_geom_angle_atom_site_label_1
_geom_angle_atom_site_label_2
_geom_angle_atom_site_label_3
_geom_angle
S2 C1 H1A 109.5
S2 C1 H1B 109.5
H1A C1 H1B 109.5
S2 C1 H1C 109.5
H1A C1 H1C 109.5
H1B C1 H1C 109.5
C7 C6 C11 119.8(2)
C7 C6 N5 116.56(19)
C11 C6 N5 123.6(2)
C8 C7 C6 120.5(2)
C8 C7 H7 119.7
C6 C7 H7 119.7
C7 C8 C9 120.1(2)
C7 C8 Cl12 118.80(17)
C9 C8 Cl12 121.13(18)
C10 C9 C8 119.2(2)
C10 C9 Cl13 119.97(18)
C8 C9 Cl13 120.81(18)
C9 C10 C11 121.1(2)
C9 C10 H10 119.4
C11 C10 H10 119.4
C10 C11 C6 119.3(2)
C10 C11 H11 120.4
C6 C11 H11 120.4
C6 N5 S2 127.66(16)
C6 N5 H5 119(2)
S2 N5 H5 111(2)
O4 S2 O3 118.85(12)
O4 S2 N5 109.71(11)
O3 S2 N5 104.15(10)
O4 S2 C1 107.99(14)
O3 S2 C1 108.85(14)
N5 S2 C1 106.67(13)
loop_
_geom_bond_atom_site_label_1
_geom_bond_atom_site_label_2
_geom_bond_distance
C1 S2 1.751(3)
C1 H1A 0.9600
C1 H1B 0.9600
C1 H1C 0.9600
C6 C7 1.378(3)
C6 C11 1.392(3)
C6 N5 1.414(3)
C7 C8 1.376(3)
C7 H7 0.9300
C8 C9 1.390(3)
C8 Cl12 1.728(2)
C9 C10 1.377(4)
C9 Cl13 1.732(2)
C10 C11 1.380(3)
C10 H10 0.9300
C11 H11 0.9300
N5 S2 1.624(2)
N5 H5 0.844(10)
O3 S2 1.4329(18)
O4 S2 1.4201(18)
loop_
_geom_hbond_atom_site_label_D
_geom_hbond_atom_site_label_H
_geom_hbond_atom_site_label_A
_geom_hbond_site_symmetry_A
_geom_hbond_distance_DH
_geom_hbond_distance_HA
_geom_hbond_distance_DA
_geom_hbond_angle_DHA
N5 H5 O3 2_565 0.844(10) 2.079(12) 2.913(3) 169(3)
C10 H10 O4 2_566 0.93 2.60 3.352(3) 138.4
loop_
_geom_torsion_atom_site_label_1
_geom_torsion_atom_site_label_2
_geom_torsion_atom_site_label_3
_geom_torsion_atom_site_label_4
_geom_torsion
C7 C6 N5 S2 152.95(19)
C11 C6 N5 S2 -30.3(4)
loop_
_cod_related_entry_id
_cod_related_entry_database
_cod_related_entry_code
1 ChemSpider 729599
