#------------------------------------------------------------------------------
#$Date: 2017-10-13 11:03:29 +0300 (Fri, 13 Oct 2017) $
#$Revision: 201974 $
#$URL: file:///home/coder/svn-repositories/cod/cif/2/21/51/2215109.cif $
#------------------------------------------------------------------------------
#
# This file is available in the Crystallography Open Database (COD),
# http://www.crystallography.net/. The original data for this entry
# were provided by IUCr Journals, http://journals.iucr.org/.
#
# The file may be used within the scientific community so long as
# proper attribution is given to the journal article from which the
# data were obtained.
#
data_2215109
loop_
_publ_author_name
'B. Thimme Gowda'
'Sabine Foro'
'Hartmut Fuess '
_publ_section_title
;
 <i>N</i>-(2,5-Dichlorophenyl)acetamide
;
_journal_coeditor_code           GW2016
_journal_issue                   9
_journal_name_full               'Acta Crystallographica Section E'
_journal_page_first              o3709
_journal_page_last               o3709
_journal_paper_doi               10.1107/S1600536807037178
_journal_volume                  63
_journal_year                    2007
_chemical_formula_iupac          'C8 H7 Cl2 N O'
_chemical_formula_moiety         'C8 H7 Cl2 N O'
_chemical_formula_sum            'C8 H7 Cl2 N O'
_chemical_formula_weight         204.05
_chemical_name_systematic
;
<i>N</i>-(2,5-Dichlorophenyl)acetamide
;
_space_group_IT_number           14
_symmetry_cell_setting           monoclinic
_symmetry_space_group_name_Hall  '-P 2yn'
_symmetry_space_group_name_H-M   'P 1 21/n 1'
_atom_sites_solution_hydrogens   geom
_atom_sites_solution_primary     direct
_atom_sites_solution_secondary   difmap
_audit_creation_method           SHELXL-97
_cell_angle_alpha                90.00
_cell_angle_beta                 90.531(6)
_cell_angle_gamma                90.00
_cell_formula_units_Z            4
_cell_length_a                   5.8557(4)
_cell_length_b                   4.7942(4)
_cell_length_c                   31.822(2)
_cell_measurement_reflns_used    25
_cell_measurement_temperature    299(2)
_cell_measurement_theta_max      25.28
_cell_measurement_theta_min      5.56
_cell_volume                     893.31(11)
_computing_cell_refinement
;
<i>CAD-4-PC</i>
;
_computing_data_collection
;
<i>CAD-4-PC</i> (Enraf--Nonius, 1996)
;
_computing_data_reduction        'REDU4 (Stoe & Cie, 1987)'
_computing_molecular_graphics    'PLATON (Spek, 2003)'
_computing_publication_material  SHELXL97
_computing_structure_refinement  'SHELXL97 (Sheldrick, 1997)'
_computing_structure_solution    'SHELXS97 (Sheldrick, 1997)'
_diffrn_ambient_temperature      299(2)
_diffrn_measured_fraction_theta_full 1.000
_diffrn_measured_fraction_theta_max 1.000
_diffrn_measurement_device_type  'Enraf--Nonius CAD-4'
_diffrn_measurement_method       \w/2\q
_diffrn_radiation_monochromator  graphite
_diffrn_radiation_source         'fine-focus sealed tube'
_diffrn_radiation_type           CuK\a
_diffrn_radiation_wavelength     1.54180
_diffrn_reflns_av_R_equivalents  0.2128
_diffrn_reflns_av_sigmaI/netI    0.1963
_diffrn_reflns_limit_h_max       6
_diffrn_reflns_limit_h_min       -6
_diffrn_reflns_limit_k_max       1
_diffrn_reflns_limit_k_min       -5
_diffrn_reflns_limit_l_max       37
_diffrn_reflns_limit_l_min       -37
_diffrn_reflns_number            3583
_diffrn_reflns_theta_full        66.93
_diffrn_reflns_theta_max         66.93
_diffrn_reflns_theta_min         2.78
_diffrn_standards_decay_%        1.0
_diffrn_standards_interval_time  120
_diffrn_standards_number         3
_exptl_absorpt_coefficient_mu    6.126
_exptl_absorpt_correction_T_max  0.832
_exptl_absorpt_correction_T_min  0.478
_exptl_absorpt_correction_type   psi-scan
_exptl_absorpt_process_details   '(North <i>et al.</i>,  1968)'
_exptl_crystal_colour            white
_exptl_crystal_density_diffrn    1.517
_exptl_crystal_density_method    'not measured'
_exptl_crystal_description       prism
_exptl_crystal_F_000             416
_exptl_crystal_size_max          0.15
_exptl_crystal_size_mid          0.10
_exptl_crystal_size_min          0.03
_refine_diff_density_max         0.285
_refine_diff_density_min         -0.481
_refine_ls_extinction_method     none
_refine_ls_goodness_of_fit_ref   1.052
_refine_ls_hydrogen_treatment    mixed
_refine_ls_matrix_type           full
_refine_ls_number_parameters     112
_refine_ls_number_reflns         1569
_refine_ls_number_restraints     1
_refine_ls_restrained_S_all      1.053
_refine_ls_R_factor_all          0.0925
_refine_ls_R_factor_gt           0.0546
_refine_ls_shift/su_max          0.000
_refine_ls_shift/su_mean         0.000
_refine_ls_structure_factor_coef Fsqd
_refine_ls_weighting_details     'calc w=1/[\s^2^(Fo^2^)]'
_refine_ls_weighting_scheme      calc
_refine_ls_wR_factor_gt          0.0948
_refine_ls_wR_factor_ref         0.1083
_reflns_number_gt                1017
_reflns_number_total             1569
_reflns_threshold_expression     I>2\s(I)
_cod_data_source_file            gw2016.cif
_cod_data_source_block           I
_cod_original_sg_symbol_H-M      'P 21/n'
_cod_database_code               2215109
_cod_database_fobs_code          2215109
loop_
_symmetry_equiv_pos_as_xyz
'x, y, z'
'-x+1/2, y+1/2, -z+1/2'
'-x, -y, -z'
'x-1/2, -y-1/2, z-1/2'
loop_
_atom_site_type_symbol
_atom_site_label
_atom_site_fract_x
_atom_site_fract_y
_atom_site_fract_z
_atom_site_U_iso_or_equiv
_atom_site_adp_type
_atom_site_calc_flag
_atom_site_refinement_flags
_atom_site_occupancy
C C1 0.2319(10) 0.7304(5) 0.01550(14) 0.058(2) Uani d . 1
H H1A 0.1171 0.5979 0.0234 0.069 Uiso calc R 1
H H1B 0.3502 0.6368 0.0003 0.069 Uiso calc R 1
H H1C 0.1643 0.8718 -0.0020 0.069 Uiso calc R 1
C C2 0.3318(8) 0.8623(5) 0.05414(13) 0.0379(12) Uani d . 1
C C5 0.5242(9) 0.7740(5) 0.12195(12) 0.0357(12) Uani d . 1
C C6 0.7266(8) 0.6682(5) 0.13610(12) 0.0395(12) Uani d . 1
C C7 0.8178(9) 0.7474(6) 0.17467(15) 0.0468(14) Uani d . 1
H H7 0.9556 0.6719 0.1840 0.056 Uiso calc R 1
C C8 0.7039(9) 0.9384(6) 0.19928(14) 0.0459(14) Uani d . 1
H H8 0.7638 0.9938 0.2251 0.055 Uiso calc R 1
C C9 0.5013(9) 1.0442(5) 0.18487(13) 0.0396(12) Uani d . 1
C C10 0.4075(9) 0.9656(5) 0.14680(13) 0.0386(12) Uani d . 1
H H10 0.2685 1.0392 0.1378 0.046 Uiso calc R 1
N N4 0.4305(7) 0.6906(4) 0.08251(10) 0.0371(10) Uani d D 1
H H4N 0.424(7) 0.522(3) 0.0752(12) 0.045 Uiso d D 1
O O3 0.3239(7) 1.1152(3) 0.05928(9) 0.0610(13) Uani d . 1
Cl Cl11 0.8771(2) 0.43003(17) 0.10588(4) 0.0553(4) Uani d . 1
Cl Cl12 0.3522(2) 1.28471(15) 0.21550(3) 0.0535(4) Uani d . 1
loop_
_atom_site_aniso_label
_atom_site_aniso_U_11
_atom_site_aniso_U_22
_atom_site_aniso_U_33
_atom_site_aniso_U_12
_atom_site_aniso_U_13
_atom_site_aniso_U_23
C1 0.090(5) 0.0300(13) 0.053(3) 0.0036(19) -0.022(3) -0.0087(15)
C2 0.043(4) 0.0297(12) 0.041(3) -0.0012(17) -0.001(2) 0.0017(15)
C5 0.038(3) 0.0292(12) 0.040(3) -0.0044(15) -0.007(2) 0.0057(14)
C6 0.036(3) 0.0314(13) 0.052(3) 0.0000(17) 0.001(2) 0.0075(15)
C7 0.041(4) 0.0488(16) 0.051(3) 0.002(2) -0.007(3) 0.0082(18)
C8 0.045(4) 0.0496(17) 0.043(3) -0.004(2) -0.011(2) 0.0026(18)
C9 0.048(4) 0.0286(13) 0.043(3) -0.0049(17) 0.000(2) 0.0020(14)
C10 0.042(3) 0.0298(12) 0.044(3) 0.0028(17) -0.001(2) 0.0013(15)
N4 0.043(3) 0.0235(10) 0.045(2) 0.0026(14) -0.0064(18) -0.0024(11)
O3 0.108(4) 0.0222(8) 0.052(2) 0.0035(14) -0.015(2) -0.0009(11)
Cl11 0.0448(10) 0.0533(5) 0.0679(9) 0.0153(5) 0.0043(6) -0.0026(5)
Cl12 0.0659(12) 0.0473(4) 0.0474(8) 0.0051(5) 0.0033(6) -0.0066(4)
loop_
_atom_type_symbol
_atom_type_description
_atom_type_scat_dispersion_real
_atom_type_scat_dispersion_imag
_atom_type_scat_source
C C 0.0181 0.0091 'International Tables Vol C Tables 4.2.6.8 and 6.1.1.4'
H H 0.0000 0.0000 'International Tables Vol C Tables 4.2.6.8 and 6.1.1.4'
N N 0.0311 0.0180 'International Tables Vol C Tables 4.2.6.8 and 6.1.1.4'
O O 0.0492 0.0322 'International Tables Vol C Tables 4.2.6.8 and 6.1.1.4'
Cl Cl 0.3639 0.7018 'International Tables Vol C Tables 4.2.6.8 and 6.1.1.4'
loop_
_geom_angle_atom_site_label_1
_geom_angle_atom_site_label_2
_geom_angle_atom_site_label_3
_geom_angle
C2 C1 H1A 109.5
C2 C1 H1B 109.5
H1A C1 H1B 109.5
C2 C1 H1C 109.5
H1A C1 H1C 109.5
H1B C1 H1C 109.5
O3 C2 N4 122.1(3)
O3 C2 C1 120.9(3)
N4 C2 C1 117.0(2)
C6 C5 C10 119.1(3)
C6 C5 N4 121.0(4)
C10 C5 N4 119.9(4)
C5 C6 C7 121.2(4)
C5 C6 Cl11 120.4(3)
C7 C6 Cl11 118.4(3)
C8 C7 C6 120.0(4)
C8 C7 H7 120.0
C6 C7 H7 120.0
C9 C8 C7 118.6(3)
C9 C8 H8 120.7
C7 C8 H8 120.7
C8 C9 C10 122.1(4)
C8 C9 Cl12 119.6(3)
C10 C9 Cl12 118.3(4)
C9 C10 C5 119.0(4)
C9 C10 H10 120.5
C5 C10 H10 120.5
C2 N4 C5 125.3(2)
C2 N4 H4N 113(2)
C5 N4 H4N 122(2)
loop_
_geom_bond_atom_site_label_1
_geom_bond_atom_site_label_2
_geom_bond_distance
C1 C2 1.497(4)
C1 H1A 0.9600
C1 H1B 0.9600
C1 H1C 0.9600
C2 O3 1.225(3)
C2 N4 1.348(4)
C5 C6 1.362(5)
C5 C10 1.395(6)
C5 N4 1.423(4)
C6 C7 1.387(5)
C6 Cl11 1.738(5)
C7 C8 1.381(7)
C7 H7 0.9300
C8 C9 1.366(6)
C8 H8 0.9300
C9 C10 1.378(5)
C9 Cl12 1.748(5)
C10 H10 0.9300
N4 H4N 0.841(10)
loop_
_geom_hbond_atom_site_label_D
_geom_hbond_atom_site_label_H
_geom_hbond_atom_site_label_A
_geom_hbond_site_symmetry_A
_geom_hbond_distance_DH
_geom_hbond_distance_HA
_geom_hbond_distance_DA
_geom_hbond_angle_DHA
N4 H4N O3 1_545 0.841(10) 2.099(14) 2.921(3) 166(4)
loop_
_geom_torsion_atom_site_label_1
_geom_torsion_atom_site_label_2
_geom_torsion_atom_site_label_3
_geom_torsion_atom_site_label_4
_geom_torsion
C10 C5 C6 C7 0.1(6)
N4 C5 C6 C7 -179.5(4)
C10 C5 C6 Cl11 -179.8(3)
N4 C5 C6 Cl11 0.6(6)
C5 C6 C7 C8 -0.5(7)
Cl11 C6 C7 C8 179.3(3)
C6 C7 C8 C9 0.4(7)
C7 C8 C9 C10 0.2(7)
C7 C8 C9 Cl12 179.6(3)
C8 C9 C10 C5 -0.7(7)
Cl12 C9 C10 C5 180.0(3)
C6 C5 C10 C9 0.5(6)
N4 C5 C10 C9 -179.9(4)
O3 C2 N4 C5 3.6(8)
C1 C2 N4 C5 -176.7(5)
C6 C5 N4 C2 -137.7(5)
C10 C5 N4 C2 42.7(7)
loop_
_cod_related_entry_id
_cod_related_entry_database
_cod_related_entry_code
1 ChemSpider 16543
