#------------------------------------------------------------------------------
#$Date: 2017-10-13 11:03:29 +0300 (Fri, 13 Oct 2017) $
#$Revision: 201974 $
#$URL: file:///home/coder/svn-repositories/cod/cif/2/21/57/2215747.cif $
#------------------------------------------------------------------------------
#
# This file is available in the Crystallography Open Database (COD),
# http://www.crystallography.net/. The original data for this entry
# were provided by IUCr Journals, http://journals.iucr.org/.
#
# The file may be used within the scientific community so long as
# proper attribution is given to the journal article from which the
# data were obtained.
#
data_2215747
loop_
_publ_author_name
'Sarojini, B. K.'
'Yathirajan, H. S.'
'Mustafa, K.'
'Sarfraz, H.'
'Bolte, Michael'
_publ_section_title
;
 (2<i>E</i>)-1-(2-Hydroxyphenyl)-3-[4-(methylsulfanyl)phenyl]prop-2-en-1-one
;
_journal_coeditor_code           AT2443
_journal_issue                   11
_journal_name_full               'Acta Crystallographica Section E'
_journal_page_first              o4448
_journal_page_last               o4448
_journal_paper_doi               10.1107/S1600536807052312
_journal_volume                  63
_journal_year                    2007
_chemical_formula_iupac          'C16 H14 O2 S'
_chemical_formula_moiety         'C16 H14 O2 S'
_chemical_formula_sum            'C16 H14 O2 S'
_chemical_formula_weight         270.33
_chemical_name_systematic
;
(2E)-1-(2-Hydroxyphenyl)-3-[4-(methylsulfanyl)phenyl]prop-2-en-1-one
;
_space_group_IT_number           2
_symmetry_cell_setting           triclinic
_symmetry_space_group_name_Hall  '-P 1'
_symmetry_space_group_name_H-M   'P -1'
_atom_sites_solution_hydrogens   geom
_atom_sites_solution_primary     direct
_atom_sites_solution_secondary   difmap
_audit_creation_method           SHELXL-97
_cell_angle_alpha                90.789(11)
_cell_angle_beta                 93.409(11)
_cell_angle_gamma                105.718(12)
_cell_formula_units_Z            2
_cell_length_a                   6.6516(9)
_cell_length_b                   7.0223(11)
_cell_length_c                   15.0248(17)
_cell_measurement_reflns_used    5613
_cell_measurement_temperature    173(2)
_cell_measurement_theta_max      26.1
_cell_measurement_theta_min      3.7
_cell_volume                     674.04(16)
_computing_cell_refinement       'X-AREA (Stoe & Cie, 2001)'
_computing_data_collection       'X-AREA (Stoe & Cie, 2001)'
_computing_data_reduction        'X-AREA (Stoe & Cie, 2001)'
_computing_molecular_graphics    'XP in SHELXTL-Plus (Sheldrick, 1991)'
_computing_publication_material  'SHELXL97 (Sheldrick, 1997)'
_computing_structure_refinement  'SHELXL97 (Sheldrick, 1997)'
_computing_structure_solution    'SHELXS97 (Sheldrick, 1990)'
_diffrn_ambient_temperature      173(2)
_diffrn_measured_fraction_theta_full 0.996
_diffrn_measured_fraction_theta_max 0.987
_diffrn_measurement_device_type  'Stoe IPDSII two-circle'
_diffrn_measurement_method       \w
_diffrn_radiation_monochromator  graphite
_diffrn_radiation_source         'fine-focus sealed tube'
_diffrn_radiation_type           MoK\a
_diffrn_radiation_wavelength     0.71073
_diffrn_reflns_av_R_equivalents  0.0768
_diffrn_reflns_av_sigmaI/netI    0.0219
_diffrn_reflns_limit_h_max       8
_diffrn_reflns_limit_h_min       -8
_diffrn_reflns_limit_k_max       8
_diffrn_reflns_limit_k_min       -8
_diffrn_reflns_limit_l_max       18
_diffrn_reflns_limit_l_min       -18
_diffrn_reflns_number            13663
_diffrn_reflns_theta_full        25.00
_diffrn_reflns_theta_max         26.64
_diffrn_reflns_theta_min         3.55
_diffrn_standards_number         0
_exptl_absorpt_coefficient_mu    0.234
_exptl_absorpt_correction_T_max  0.9824
_exptl_absorpt_correction_T_min  0.9383
_exptl_absorpt_correction_type   multi-scan
_exptl_absorpt_process_details   '(MULABS; Spek, 2003; Blessing, 1995)'
_exptl_crystal_colour            yellow
_exptl_crystal_density_diffrn    1.332
_exptl_crystal_density_method    'not measured'
_exptl_crystal_description       plate
_exptl_crystal_F_000             284
_exptl_crystal_size_max          0.37
_exptl_crystal_size_mid          0.31
_exptl_crystal_size_min          0.12
_refine_diff_density_max         0.586
_refine_diff_density_min         -0.429
_refine_ls_extinction_coef       0.056(11)
_refine_ls_extinction_expression Fc^*^=kFc[1+0.001xFc^2^\l^3^/sin(2\q)]^-1/4^
_refine_ls_extinction_method     'SHELXL97 (Sheldrick, 1997)'
_refine_ls_goodness_of_fit_ref   1.099
_refine_ls_hydrogen_treatment    mixed
_refine_ls_matrix_type           full
_refine_ls_number_parameters     179
_refine_ls_number_reflns         2807
_refine_ls_number_restraints     0
_refine_ls_restrained_S_all      1.099
_refine_ls_R_factor_all          0.0632
_refine_ls_R_factor_gt           0.0572
_refine_ls_shift/su_max          0.000
_refine_ls_shift/su_mean         0.000
_refine_ls_structure_factor_coef Fsqd
_refine_ls_weighting_details
'calc w=1/[\s^2^(Fo^2^)+(0.103P)^2^+0.6276P] where P=(Fo^2^+2Fc^2^)/3'
_refine_ls_weighting_scheme      calc
_refine_ls_wR_factor_gt          0.1795
_refine_ls_wR_factor_ref         0.1838
_reflns_number_gt                2451
_reflns_number_total             2807
_reflns_threshold_expression     I>2\s(I)
_cod_data_source_file            at2443.cif
_cod_data_source_block           I
_cod_original_cell_volume        673.98(16)
_cod_database_code               2215747
_cod_database_fobs_code          2215747
loop_
_symmetry_equiv_pos_as_xyz
'x, y, z'
'-x, -y, -z'
loop_
_atom_site_type_symbol
_atom_site_label
_atom_site_fract_x
_atom_site_fract_y
_atom_site_fract_z
_atom_site_U_iso_or_equiv
_atom_site_adp_type
_atom_site_calc_flag
_atom_site_refinement_flags
_atom_site_occupancy
S S1 0.96299(11) 0.85185(11) 0.24466(4) 0.0293(3) Uani d . 1
O O1 0.0262(3) 0.6428(3) 0.64803(13) 0.0311(5) Uani d . 1
O O2 -0.1191(3) 0.6145(3) 0.80106(15) 0.0341(5) Uani d . 1
H H2O -0.117(8) 0.615(8) 0.746(3) 0.072(15) Uiso d . 1
C C1 0.2112(4) 0.6915(4) 0.68040(17) 0.0219(5) Uani d . 1
C C2 0.3848(4) 0.7324(4) 0.62090(17) 0.0238(5) Uani d . 1
H H2 0.5252 0.7788 0.6452 0.029 Uiso calc R 1
C C3 0.3447(4) 0.7040(4) 0.53205(17) 0.0230(5) Uani d . 1
H H3 0.2015 0.6561 0.5117 0.028 Uiso calc R 1
C C11 0.2534(4) 0.7082(4) 0.77907(17) 0.0224(5) Uani d . 1
C C12 0.0818(4) 0.6681(4) 0.83462(18) 0.0256(6) Uani d . 1
C C13 0.1188(5) 0.6841(4) 0.92739(19) 0.0334(7) Uani d . 1
H H13 0.0040 0.6608 0.9643 0.040 Uiso calc R 1
C C14 0.3208(6) 0.7333(5) 0.96593(19) 0.0383(7) Uani d . 1
H H14 0.3438 0.7419 1.0290 0.046 Uiso calc R 1
C C15 0.4904(5) 0.7705(5) 0.91268(19) 0.0377(7) Uani d . 1
H H15 0.6291 0.8040 0.9393 0.045 Uiso calc R 1
C C16 0.4565(4) 0.7584(4) 0.82031(18) 0.0296(6) Uani d . 1
H H16 0.5731 0.7847 0.7844 0.036 Uiso calc R 1
C C21 0.4959(4) 0.7383(4) 0.46331(16) 0.0216(5) Uani d . 1
C C22 0.4208(4) 0.7199(4) 0.37357(17) 0.0247(5) Uani d . 1
H H22 0.2739 0.6841 0.3594 0.030 Uiso calc R 1
C C23 0.5558(4) 0.7527(4) 0.30451(16) 0.0249(5) Uani d . 1
H H23 0.5011 0.7397 0.2442 0.030 Uiso calc R 1
C C24 0.7725(4) 0.8047(4) 0.32437(16) 0.0218(5) Uani d . 1
C C25 0.8500(4) 0.8217(4) 0.41452(17) 0.0231(5) Uani d . 1
H H25 0.9967 0.8564 0.4287 0.028 Uiso calc R 1
C C26 0.7137(4) 0.7881(4) 0.48237(16) 0.0230(5) Uani d . 1
H H26 0.7681 0.7990 0.5427 0.028 Uiso calc R 1
C C27 0.8098(5) 0.8098(5) 0.13936(18) 0.0341(7) Uani d . 1
H H27A 0.7278 0.6708 0.1336 0.051 Uiso calc R 1
H H27B 0.9034 0.8406 0.0904 0.051 Uiso calc R 1
H H27C 0.7150 0.8951 0.1369 0.051 Uiso calc R 1
loop_
_atom_site_aniso_label
_atom_site_aniso_U_11
_atom_site_aniso_U_22
_atom_site_aniso_U_33
_atom_site_aniso_U_12
_atom_site_aniso_U_13
_atom_site_aniso_U_23
S1 0.0311(4) 0.0328(4) 0.0258(4) 0.0106(3) 0.0068(3) 0.0035(3)
O1 0.0208(9) 0.0398(12) 0.0308(10) 0.0057(9) -0.0011(7) 0.0014(9)
O2 0.0240(10) 0.0397(12) 0.0398(12) 0.0089(9) 0.0092(8) 0.0023(10)
C1 0.0224(12) 0.0179(12) 0.0263(12) 0.0073(10) 0.0011(9) 0.0008(10)
C2 0.0224(12) 0.0213(12) 0.0269(12) 0.0049(10) 0.0007(10) -0.0013(10)
C3 0.0236(12) 0.0192(12) 0.0263(12) 0.0059(10) 0.0013(9) 0.0020(10)
C11 0.0250(12) 0.0190(12) 0.0253(12) 0.0089(10) 0.0034(10) 0.0000(9)
C12 0.0286(13) 0.0189(12) 0.0313(13) 0.0087(10) 0.0077(10) 0.0005(10)
C13 0.0447(17) 0.0290(14) 0.0308(14) 0.0150(13) 0.0143(12) 0.0051(11)
C14 0.0540(19) 0.0390(17) 0.0257(13) 0.0191(15) 0.0024(13) 0.0009(12)
C15 0.0376(16) 0.0471(18) 0.0293(14) 0.0152(14) -0.0056(12) -0.0035(13)
C16 0.0274(13) 0.0353(15) 0.0280(13) 0.0122(12) 0.0015(10) -0.0026(11)
C21 0.0246(12) 0.0169(11) 0.0230(12) 0.0055(10) -0.0008(9) 0.0000(9)
C22 0.0219(12) 0.0255(13) 0.0255(12) 0.0055(10) -0.0052(9) -0.0012(10)
C23 0.0286(13) 0.0258(13) 0.0199(11) 0.0076(11) -0.0037(9) -0.0019(10)
C24 0.0265(12) 0.0184(12) 0.0210(11) 0.0068(10) 0.0014(9) 0.0001(9)
C25 0.0207(11) 0.0217(12) 0.0252(12) 0.0036(10) -0.0034(9) -0.0013(10)
C26 0.0259(13) 0.0220(12) 0.0200(11) 0.0055(10) -0.0033(9) -0.0013(9)
C27 0.0504(18) 0.0318(15) 0.0235(13) 0.0164(14) 0.0050(12) 0.0014(11)
loop_
_atom_type_symbol
_atom_type_description
_atom_type_scat_dispersion_real
_atom_type_scat_dispersion_imag
_atom_type_scat_source
C C 0.0033 0.0016 'International Tables Vol C Tables 4.2.6.8 and 6.1.1.4'
H H 0.0000 0.0000 'International Tables Vol C Tables 4.2.6.8 and 6.1.1.4'
O O 0.0106 0.0060 'International Tables Vol C Tables 4.2.6.8 and 6.1.1.4'
S S 0.1246 0.1234 'International Tables Vol C Tables 4.2.6.8 and 6.1.1.4'
loop_
_geom_angle_atom_site_label_1
_geom_angle_atom_site_label_2
_geom_angle_atom_site_label_3
_geom_angle
C24 S1 C27 103.57(13)
C12 O2 H2O 107(4)
O1 C1 C2 119.9(2)
O1 C1 C11 119.5(2)
C2 C1 C11 120.7(2)
C3 C2 C1 120.0(2)
C3 C2 H2 120.0
C1 C2 H2 120.0
C2 C3 C21 127.6(2)
C2 C3 H3 116.2
C21 C3 H3 116.2
C16 C11 C12 118.0(2)
C16 C11 C1 122.8(2)
C12 C11 C1 119.2(2)
O2 C12 C13 117.8(2)
O2 C12 C11 122.3(2)
C13 C12 C11 119.9(3)
C14 C13 C12 120.7(3)
C14 C13 H13 119.7
C12 C13 H13 119.7
C13 C14 C15 120.3(3)
C13 C14 H14 119.9
C15 C14 H14 119.9
C16 C15 C14 119.8(3)
C16 C15 H15 120.1
C14 C15 H15 120.1
C15 C16 C11 121.4(3)
C15 C16 H16 119.3
C11 C16 H16 119.3
C22 C21 C26 118.0(2)
C22 C21 C3 118.6(2)
C26 C21 C3 123.4(2)
C23 C22 C21 121.7(2)
C23 C22 H22 119.1
C21 C22 H22 119.1
C22 C23 C24 119.7(2)
C22 C23 H23 120.1
C24 C23 H23 120.1
C23 C24 C25 119.1(2)
C23 C24 S1 125.08(19)
C25 C24 S1 115.84(19)
C26 C25 C24 120.5(2)
C26 C25 H25 119.8
C24 C25 H25 119.8
C25 C26 C21 121.0(2)
C25 C26 H26 119.5
C21 C26 H26 119.5
S1 C27 H27A 109.5
S1 C27 H27B 109.5
H27A C27 H27B 109.5
S1 C27 H27C 109.5
H27A C27 H27C 109.5
H27B C27 H27C 109.5
loop_
_geom_bond_atom_site_label_1
_geom_bond_atom_site_label_2
_geom_bond_distance
S1 C24 1.765(3)
S1 C27 1.806(3)
O1 C1 1.250(3)
O2 C12 1.351(3)
O2 H2O 0.83(5)
C1 C2 1.472(3)
C1 C11 1.489(3)
C2 C3 1.347(4)
C2 H2 0.9500
C3 C21 1.461(3)
C3 H3 0.9500
C11 C16 1.403(4)
C11 C12 1.423(4)
C12 C13 1.399(4)
C13 C14 1.382(5)
C13 H13 0.9500
C14 C15 1.391(5)
C14 H14 0.9500
C15 C16 1.391(4)
C15 H15 0.9500
C16 H16 0.9500
C21 C22 1.402(3)
C21 C26 1.406(3)
C22 C23 1.394(4)
C22 H22 0.9500
C23 C24 1.400(4)
C23 H23 0.9500
C24 C25 1.412(3)
C25 C26 1.385(4)
C25 H25 0.9500
C26 H26 0.9500
C27 H27A 0.9800
C27 H27B 0.9800
C27 H27C 0.9800
loop_
_geom_hbond_atom_site_label_D
_geom_hbond_atom_site_label_H
_geom_hbond_atom_site_label_A
_geom_hbond_distance_DH
_geom_hbond_distance_HA
_geom_hbond_distance_DA
_geom_hbond_angle_DHA
O2 H2O O1 0.83(5) 1.78(5) 2.536(3) 150(5)
loop_
_geom_torsion_atom_site_label_1
_geom_torsion_atom_site_label_2
_geom_torsion_atom_site_label_3
_geom_torsion_atom_site_label_4
_geom_torsion
O1 C1 C2 C3 -4.6(4)
C11 C1 C2 C3 175.6(2)
C1 C2 C3 C21 179.4(2)
O1 C1 C11 C16 178.8(3)
C2 C1 C11 C16 -1.4(4)
O1 C1 C11 C12 0.1(4)
C2 C1 C11 C12 179.9(2)
C16 C11 C12 O2 -178.5(2)
C1 C11 C12 O2 0.2(4)
C16 C11 C12 C13 1.5(4)
C1 C11 C12 C13 -179.7(2)
O2 C12 C13 C14 178.3(3)
C11 C12 C13 C14 -1.8(4)
C12 C13 C14 C15 0.9(5)
C13 C14 C15 C16 0.2(5)
C14 C15 C16 C11 -0.3(5)
C12 C11 C16 C15 -0.5(4)
C1 C11 C16 C15 -179.2(3)
C2 C3 C21 C22 -173.2(3)
C2 C3 C21 C26 7.1(4)
C26 C21 C22 C23 -1.0(4)
C3 C21 C22 C23 179.2(2)
C21 C22 C23 C24 0.2(4)
C22 C23 C24 C25 0.5(4)
C22 C23 C24 S1 -179.7(2)
C27 S1 C24 C23 -1.5(3)
C27 S1 C24 C25 178.3(2)
C23 C24 C25 C26 -0.3(4)
S1 C24 C25 C26 179.9(2)
C24 C25 C26 C21 -0.5(4)
C22 C21 C26 C25 1.2(4)
C3 C21 C26 C25 -179.1(2)
loop_
_cod_related_entry_id
_cod_related_entry_database
_cod_related_entry_code
1 ChemSpider 30655347
