#------------------------------------------------------------------------------
#$Date: 2017-10-13 11:03:29 +0300 (Fri, 13 Oct 2017) $
#$Revision: 201974 $
#$URL: file:///home/coder/svn-repositories/cod/cif/2/21/69/2216940.cif $
#------------------------------------------------------------------------------
#
# This file is available in the Crystallography Open Database (COD),
# http://www.crystallography.net/. The original data for this entry
# were provided by IUCr Journals, http://journals.iucr.org/.
#
# The file may be used within the scientific community so long as
# proper attribution is given to the journal article from which the
# data were obtained.
#
data_2216940
loop_
_publ_author_name
'B. Thimme Gowda'
'Sabine Foro'
'Hartmut Fuess'
_publ_section_title
;
 2,2-Dichloro-<i>N</i>-(2,5-dichlorophenyl)acetamide
;
_journal_coeditor_code           BT2637
_journal_issue                   1
_journal_name_full               'Acta Crystallographica Section E'
_journal_page_first              o87
_journal_page_last               o87
_journal_paper_doi               10.1107/S1600536807062095
_journal_volume                  64
_journal_year                    2008
_chemical_formula_iupac          'C8 H5 Cl4 N O'
_chemical_formula_moiety         'C8 H5 Cl4 N O'
_chemical_formula_sum            'C8 H5 Cl4 N O'
_chemical_formula_weight         272.93
_chemical_name_systematic
;
2,2-Dichloro-<i>N</i>-(2,5-dichlorophenyl)acetamide
;
_space_group_IT_number           14
_symmetry_cell_setting           monoclinic
_symmetry_space_group_name_Hall  '-P 2ybc'
_symmetry_space_group_name_H-M   'P 1 21/c 1'
_atom_sites_solution_hydrogens   geom
_atom_sites_solution_primary     direct
_atom_sites_solution_secondary   difmap
_audit_creation_method           SHELXL-97
_cell_angle_alpha                90.00
_cell_angle_beta                 95.230(10)
_cell_angle_gamma                90.00
_cell_formula_units_Z            4
_cell_length_a                   4.6977(4)
_cell_length_b                   11.509(2)
_cell_length_c                   19.888(3)
_cell_measurement_reflns_used    25
_cell_measurement_temperature    299(2)
_cell_measurement_theta_max      20.19
_cell_measurement_theta_min      7.70
_cell_volume                     1070.8(3)
_computing_cell_refinement       'CAD-4-PC Version (Enraf--Nonius, 1996)'
_computing_data_collection       'CAD-4-PC Version (Enraf--Nonius, 1996)'
_computing_data_reduction        'REDU4 (Stoe & Cie, 1987)'
_computing_molecular_graphics    'PLATON (Spek, 2003)'
_computing_publication_material  'SHELXL97 (Sheldrick, 1997)'
_computing_structure_refinement  'SHELXL97 (Sheldrick, 1997)'
_computing_structure_solution    'SHELXS97 (Sheldrick, 1997)'
_diffrn_ambient_temperature      299(2)
_diffrn_measured_fraction_theta_full 1.000
_diffrn_measured_fraction_theta_max 1.000
_diffrn_measurement_device_type  'Enraf--Nonius CAD-4'
_diffrn_measurement_method       \w/2\q
_diffrn_radiation_monochromator  graphite
_diffrn_radiation_source         'fine-focus sealed tube'
_diffrn_radiation_type           CuK\a
_diffrn_radiation_wavelength     1.54180
_diffrn_reflns_av_R_equivalents  0.1157
_diffrn_reflns_av_sigmaI/netI    0.0966
_diffrn_reflns_limit_h_max       5
_diffrn_reflns_limit_h_min       0
_diffrn_reflns_limit_k_max       12
_diffrn_reflns_limit_k_min       -13
_diffrn_reflns_limit_l_max       23
_diffrn_reflns_limit_l_min       -23
_diffrn_reflns_number            4168
_diffrn_reflns_theta_full        66.97
_diffrn_reflns_theta_max         66.97
_diffrn_reflns_theta_min         4.44
_diffrn_standards_decay_%        2.0
_diffrn_standards_interval_time  120
_diffrn_standards_number         3
_exptl_absorpt_coefficient_mu    9.772
_exptl_absorpt_correction_T_max  0.5908
_exptl_absorpt_correction_T_min  0.3673
_exptl_absorpt_correction_type   psi-scan
_exptl_absorpt_process_details   '(North <i>et al.</i>,  1968'
_exptl_crystal_colour            colourless
_exptl_crystal_density_diffrn    1.693
_exptl_crystal_density_method    'not measured'
_exptl_crystal_description       needle
_exptl_crystal_F_000             544
_exptl_crystal_size_max          0.60
_exptl_crystal_size_mid          0.08
_exptl_crystal_size_min          0.05
_refine_diff_density_max         0.798
_refine_diff_density_min         -0.721
_refine_ls_extinction_coef       0.0038(10)
_refine_ls_extinction_expression Fc^*^=kFc[1+0.001xFc^2^\l^3^/sin(2\q)]^-1/4^
_refine_ls_extinction_method     SHELXL
_refine_ls_goodness_of_fit_ref   1.028
_refine_ls_hydrogen_treatment    mixed
_refine_ls_matrix_type           full
_refine_ls_number_parameters     131
_refine_ls_number_reflns         1917
_refine_ls_number_restraints     0
_refine_ls_restrained_S_all      1.028
_refine_ls_R_factor_all          0.0962
_refine_ls_R_factor_gt           0.0733
_refine_ls_shift/su_max          0.033
_refine_ls_shift/su_mean         0.005
_refine_ls_structure_factor_coef Fsqd
_refine_ls_weighting_details
'calc w=1/[\s^2^(Fo^2^)+(0.1440P)^2^+0.5180P] where P=(Fo^2^+2Fc^2^)/3'
_refine_ls_weighting_scheme      calc
_refine_ls_wR_factor_gt          0.1969
_refine_ls_wR_factor_ref         0.2172
_reflns_number_gt                1420
_reflns_number_total             1917
_reflns_threshold_expression     I>2\s(I)
_cod_data_source_file            bt2637.cif
_cod_data_source_block           I
_cod_original_sg_symbol_H-M      'P 21/c'
_cod_database_code               2216940
_cod_database_fobs_code          2216940
loop_
_symmetry_equiv_pos_as_xyz
'x, y, z'
'-x, y+1/2, -z+1/2'
'-x, -y, -z'
'x, -y-1/2, z-1/2'
loop_
_atom_site_type_symbol
_atom_site_label
_atom_site_fract_x
_atom_site_fract_y
_atom_site_fract_z
_atom_site_U_iso_or_equiv
_atom_site_adp_type
_atom_site_calc_flag
_atom_site_refinement_flags
_atom_site_occupancy
C C1 0.3994(8) 0.7062(3) 0.43590(17) 0.0324(8) Uani d . 1
C C2 0.2953(8) 0.8112(3) 0.45736(19) 0.0367(8) Uani d . 1
C C3 0.3981(10) 0.8573(3) 0.5194(2) 0.0439(10) Uani d . 1
H H3 0.3256 0.9273 0.5337 0.053 Uiso calc R 1
C C4 0.6063(10) 0.8001(4) 0.55998(19) 0.0440(9) Uani d . 1
H H4 0.6764 0.8313 0.6014 0.053 Uiso calc R 1
C C5 0.7093(9) 0.6956(4) 0.53810(19) 0.0389(9) Uani d . 1
C C6 0.6085(8) 0.6475(3) 0.47678(18) 0.0345(8) Uani d . 1
H H6 0.6797 0.5768 0.4630 0.041 Uiso calc R 1
C C7 0.4478(8) 0.6066(3) 0.33005(18) 0.0344(8) Uani d . 1
C C8 0.2734(8) 0.5542(4) 0.26817(19) 0.0411(9) Uani d . 1
H H8 0.0932 0.5238 0.2822 0.049 Uiso calc R 1
N N1 0.2888(7) 0.6573(3) 0.37354(16) 0.0379(7) Uani d . 1
H H1N 0.080(12) 0.653(4) 0.365(2) 0.045 Uiso d . 1
O O1 0.7058(6) 0.5995(4) 0.33605(15) 0.0578(10) Uani d . 1
Cl Cl1 0.0411(3) 0.88522(9) 0.40600(6) 0.0526(4) Uani d . 1
Cl Cl2 0.9670(3) 0.62104(10) 0.58918(5) 0.0529(4) Uani d . 1
Cl Cl3 0.4607(4) 0.4414(2) 0.23486(12) 0.1290(11) Uani d . 1
Cl Cl4 0.1977(5) 0.66320(18) 0.20858(7) 0.0964(8) Uani d . 1
loop_
_atom_site_aniso_label
_atom_site_aniso_U_11
_atom_site_aniso_U_22
_atom_site_aniso_U_33
_atom_site_aniso_U_12
_atom_site_aniso_U_13
_atom_site_aniso_U_23
C1 0.0219(16) 0.0374(17) 0.0371(17) -0.0020(15) -0.0014(13) -0.0001(14)
C2 0.0262(18) 0.0368(18) 0.047(2) 0.0029(15) 0.0014(15) 0.0014(15)
C3 0.043(2) 0.0387(19) 0.050(2) 0.0025(19) 0.0064(19) -0.0080(17)
C4 0.044(2) 0.049(2) 0.0380(19) -0.002(2) -0.0037(17) -0.0059(16)
C5 0.0312(19) 0.046(2) 0.0383(18) -0.0034(17) -0.0028(15) 0.0030(15)
C6 0.0234(18) 0.0380(17) 0.0415(19) 0.0014(16) 0.0002(15) -0.0038(15)
C7 0.0174(17) 0.0484(19) 0.0366(18) -0.0005(15) -0.0015(14) -0.0015(15)
C8 0.0202(17) 0.059(2) 0.0424(19) -0.0010(18) -0.0059(15) -0.0060(18)
N1 0.0157(14) 0.0525(17) 0.0442(17) 0.0034(15) -0.0044(12) -0.0095(14)
O1 0.0155(14) 0.104(3) 0.0529(18) 0.0009(16) -0.0025(12) -0.0211(16)
Cl1 0.0420(7) 0.0528(6) 0.0619(7) 0.0160(5) -0.0019(5) 0.0066(4)
Cl2 0.0484(7) 0.0613(7) 0.0456(6) 0.0052(5) -0.0138(5) 0.0056(4)
Cl3 0.0671(10) 0.1554(19) 0.1553(17) 0.0449(12) -0.0398(11) -0.1137(16)
Cl4 0.1098(15) 0.1129(13) 0.0588(9) -0.0326(12) -0.0344(9) 0.0310(8)
loop_
_atom_type_symbol
_atom_type_description
_atom_type_scat_dispersion_real
_atom_type_scat_dispersion_imag
_atom_type_scat_source
C C 0.0181 0.0091 'International Tables Vol C Tables 4.2.6.8 and 6.1.1.4'
H H 0.0000 0.0000 'International Tables Vol C Tables 4.2.6.8 and 6.1.1.4'
N N 0.0311 0.0180 'International Tables Vol C Tables 4.2.6.8 and 6.1.1.4'
O O 0.0492 0.0322 'International Tables Vol C Tables 4.2.6.8 and 6.1.1.4'
Cl Cl 0.3639 0.7018 'International Tables Vol C Tables 4.2.6.8 and 6.1.1.4'
loop_
_geom_angle_atom_site_label_1
_geom_angle_atom_site_label_2
_geom_angle_atom_site_label_3
_geom_angle
C2 C1 C6 119.6(3)
C2 C1 N1 120.3(3)
C6 C1 N1 120.1(3)
C1 C2 C3 120.2(4)
C1 C2 Cl1 119.6(3)
C3 C2 Cl1 120.2(3)
C4 C3 C2 120.6(4)
C4 C3 H3 119.7
C2 C3 H3 119.7
C3 C4 C5 118.8(4)
C3 C4 H4 120.6
C5 C4 H4 120.6
C4 C5 C6 121.7(4)
C4 C5 Cl2 119.5(3)
C6 C5 Cl2 118.9(3)
C5 C6 C1 119.2(3)
C5 C6 H6 120.4
C1 C6 H6 120.4
O1 C7 N1 125.7(4)
O1 C7 C8 120.5(4)
N1 C7 C8 113.8(3)
C7 C8 Cl3 110.3(3)
C7 C8 Cl4 108.9(3)
Cl3 C8 Cl4 111.0(2)
C7 C8 H8 108.9
Cl3 C8 H8 108.9
Cl4 C8 H8 108.9
C7 N1 C1 124.1(3)
C7 N1 H1N 119(3)
C1 N1 H1N 117(3)
loop_
_geom_bond_atom_site_label_1
_geom_bond_atom_site_label_2
_geom_bond_distance
C1 C2 1.386(5)
C1 C6 1.392(5)
C1 N1 1.417(5)
C2 C3 1.389(6)
C2 Cl1 1.724(4)
C3 C4 1.377(6)
C3 H3 0.9300
C4 C5 1.381(6)
C4 H4 0.9300
C5 C6 1.383(5)
C5 Cl2 1.735(4)
C6 H6 0.9300
C7 O1 1.209(5)
C7 N1 1.328(5)
C7 C8 1.538(5)
C8 Cl3 1.734(4)
C8 Cl4 1.740(4)
C8 H8 0.9800
N1 H1N 0.98(6)
loop_
_geom_hbond_atom_site_label_D
_geom_hbond_atom_site_label_H
_geom_hbond_atom_site_label_A
_geom_hbond_site_symmetry_A
_geom_hbond_distance_DH
_geom_hbond_distance_HA
_geom_hbond_distance_DA
_geom_hbond_angle_DHA
N1 H1N O1 1_455 0.98(6) 1.90(6) 2.851(4) 162(4)
loop_
_geom_torsion_atom_site_label_1
_geom_torsion_atom_site_label_2
_geom_torsion_atom_site_label_3
_geom_torsion_atom_site_label_4
_geom_torsion
C6 C1 C2 C3 -0.3(6)
N1 C1 C2 C3 178.1(4)
C6 C1 C2 Cl1 178.8(3)
N1 C1 C2 Cl1 -2.8(5)
C1 C2 C3 C4 0.7(6)
Cl1 C2 C3 C4 -178.3(3)
C2 C3 C4 C5 -0.6(7)
C3 C4 C5 C6 0.0(7)
C3 C4 C5 Cl2 -178.8(3)
C4 C5 C6 C1 0.4(6)
Cl2 C5 C6 C1 179.2(3)
C2 C1 C6 C5 -0.2(6)
N1 C1 C6 C5 -178.7(3)
O1 C7 C8 Cl3 25.6(5)
N1 C7 C8 Cl3 -154.3(3)
O1 C7 C8 Cl4 -96.5(4)
N1 C7 C8 Cl4 83.6(4)
O1 C7 N1 C1 -3.3(7)
C8 C7 N1 C1 176.5(3)
C2 C1 N1 C7 138.6(4)
C6 C1 N1 C7 -43.0(6)
loop_
_cod_related_entry_id
_cod_related_entry_database
_cod_related_entry_code
1 ChemSpider 3800849
