#------------------------------------------------------------------------------
#$Date: 2017-10-13 11:03:29 +0300 (Fri, 13 Oct 2017) $
#$Revision: 201974 $
#$URL: file:///home/coder/svn-repositories/cod/cif/2/21/64/2216493.cif $
#------------------------------------------------------------------------------
#
# This file is available in the Crystallography Open Database (COD),
# http://www.crystallography.net/. The original data for this entry
# were provided by IUCr Journals, http://journals.iucr.org/.
#
# The file may be used within the scientific community so long as
# proper attribution is given to the journal article from which the
# data were obtained.
#
data_2216493
loop_
_publ_author_name
'Kang, Si-shun'
'Zeng, Hai-su'
'Li, Hai-lin'
'Wang, Hai-bo'
'Wang, Pin-liang'
_publ_section_title
;
 4-Chlorobenzamidoxime
;
_journal_coeditor_code           HB2638
_journal_issue                   12
_journal_name_full               'Acta Crystallographica Section E'
_journal_page_first              o4698
_journal_page_last               o4698
_journal_paper_doi               10.1107/S1600536807057273
_journal_volume                  63
_journal_year                    2007
_chemical_formula_iupac          'C7 H7 Cl N2 O'
_chemical_formula_moiety         'C7 H7 Cl N2 O'
_chemical_formula_sum            'C7 H7 Cl N2 O'
_chemical_formula_weight         170.60
_chemical_name_systematic
;
4-Chlorobenzamidoxime
;
_space_group_IT_number           14
_symmetry_cell_setting           monoclinic
_symmetry_space_group_name_Hall  '-P 2ybc'
_symmetry_space_group_name_H-M   'P 1 21/c 1'
_atom_sites_solution_hydrogens   geom
_atom_sites_solution_primary     direct
_atom_sites_solution_secondary   difmap
_audit_creation_method           SHELXL-97
_cell_angle_alpha                90.00
_cell_angle_beta                 90.96(3)
_cell_angle_gamma                90.00
_cell_formula_units_Z            4
_cell_length_a                   7.9930(16)
_cell_length_b                   12.806(3)
_cell_length_c                   7.6740(15)
_cell_measurement_reflns_used    25
_cell_measurement_temperature    293(2)
_cell_measurement_theta_max      13
_cell_measurement_theta_min      10
_cell_volume                     785.4(3)
_computing_cell_refinement       'CAD-4 Software (Enraf--Nonius, 1989)'
_computing_data_collection       'CAD-4 Software (Enraf--Nonius, 1989)'
_computing_data_reduction        'XCAD4 (Harms & Wocadlo, 1995)'
_computing_molecular_graphics    'SHELXTL (Siemens, 1996)'
_computing_publication_material  SHELXS97
_computing_structure_refinement  'SHELXL97 (Sheldrick, 1997)'
_computing_structure_solution    'SHELXS97 (Sheldrick, 1997)'
_diffrn_ambient_temperature      293(2)
_diffrn_measured_fraction_theta_full 0.999
_diffrn_measured_fraction_theta_max 0.999
_diffrn_measurement_device_type  'Nonius CAD4'
_diffrn_measurement_method       \w/2\q
_diffrn_radiation_monochromator  graphite
_diffrn_radiation_source         'fine-focus sealed tube'
_diffrn_radiation_type           MoK\a
_diffrn_radiation_wavelength     0.71073
_diffrn_reflns_av_R_equivalents  0.0451
_diffrn_reflns_av_sigmaI/netI    0.0403
_diffrn_reflns_limit_h_max       9
_diffrn_reflns_limit_h_min       -9
_diffrn_reflns_limit_k_max       15
_diffrn_reflns_limit_k_min       0
_diffrn_reflns_limit_l_max       9
_diffrn_reflns_limit_l_min       0
_diffrn_reflns_number            1653
_diffrn_reflns_theta_full        25.97
_diffrn_reflns_theta_max         25.97
_diffrn_reflns_theta_min         2.55
_diffrn_standards_decay_%        0
_diffrn_standards_interval_count 200
_diffrn_standards_interval_time  2h
_diffrn_standards_number         3
_exptl_absorpt_coefficient_mu    0.425
_exptl_absorpt_correction_T_max  0.9587
_exptl_absorpt_correction_T_min  0.9198
_exptl_absorpt_correction_type   psi-scan
_exptl_absorpt_process_details   '(North <i>et al.</i>,  1968)'
_exptl_crystal_colour            Colourless
_exptl_crystal_density_diffrn    1.443
_exptl_crystal_density_method    'not measured'
_exptl_crystal_description       Block
_exptl_crystal_F_000             352
_exptl_crystal_size_max          0.20
_exptl_crystal_size_mid          0.20
_exptl_crystal_size_min          0.10
_refine_diff_density_max         0.390
_refine_diff_density_min         -0.270
_refine_ls_extinction_method     none
_refine_ls_goodness_of_fit_ref   1.092
_refine_ls_hydrogen_treatment    constr
_refine_ls_matrix_type           full
_refine_ls_number_parameters     100
_refine_ls_number_reflns         1544
_refine_ls_number_restraints     0
_refine_ls_restrained_S_all      1.092
_refine_ls_R_factor_all          0.0990
_refine_ls_R_factor_gt           0.0609
_refine_ls_shift/su_max          0.000
_refine_ls_shift/su_mean         0.000
_refine_ls_structure_factor_coef Fsqd
_refine_ls_weighting_details
'calc w=1/[\s^2^(Fo^2^)+(0.0834P)^2^+0.2545P] where P=(Fo^2^+2Fc^2^)/3'
_refine_ls_weighting_scheme      calc
_refine_ls_wR_factor_gt          0.1537
_refine_ls_wR_factor_ref         0.1790
_reflns_number_gt                978
_reflns_number_total             1544
_reflns_threshold_expression     I>2\s(I)
_cod_data_source_file            hb2638.cif
_cod_data_source_block           I
_cod_depositor_comments
;
The following automatic conversions were performed:
'_symmetry_cell_setting' value 'Monoclinic' changed to 'monoclinic'
according to '/home/saulius/struct/CIF-dictionaries/cif_core.dic'
dictionary named 'cif_core.dic' version 2.4.1 from 2010-06-29.

Automatic conversion script
Id: cif_fix_enum 1527 2010-12-29 10:47:43Z saulius 

The following automatic conversions were performed:

'_symmetry_cell_setting' value 'Monoclinic' changed to 'monoclinic'
according to /home/saulius/struct/CIF-dictionaries/cif_core.dic
dictionary named 'cif_core.dic' version 2.4.1 from 2010-06-29.

Automatic conversion script
Id: cif_fix_values 1715 2011-07-08 13:25:40Z adriana 
;
_cod_original_sg_symbol_H-M      'P 21/c'
_cod_database_code               2216493
loop_
_symmetry_equiv_pos_as_xyz
'x, y, z'
'-x, y+1/2, -z+1/2'
'-x, -y, -z'
'x, -y-1/2, z-1/2'
loop_
_atom_site_type_symbol
_atom_site_label
_atom_site_fract_x
_atom_site_fract_y
_atom_site_fract_z
_atom_site_U_iso_or_equiv
_atom_site_adp_type
_atom_site_calc_flag
_atom_site_refinement_flags
_atom_site_occupancy
Cl Cl 0.45717(14) 0.11469(9) 0.18287(15) 0.0774(5) Uani d . 1
O O1 1.1252(3) 0.09855(19) 0.9789(3) 0.0563(7) Uani d . 1
H H1C 1.1124 0.0652 1.0689 0.084 Uiso calc R 1
N N1 1.1427(3) 0.1907(2) 0.6852(4) 0.0517(8) Uani d . 1
H H1A 1.2254 0.1929 0.7582 0.062 Uiso calc R 1
H H1B 1.1478 0.2242 0.5883 0.062 Uiso calc R 1
N N2 0.9851(4) 0.0818(2) 0.8643(4) 0.0472(7) Uani d . 1
C C1 0.6165(5) 0.1198(3) 0.3401(5) 0.0533(10) Uani d . 1
C C2 0.7787(4) 0.1202(3) 0.2888(5) 0.0503(9) Uani d . 1
H H2B 0.8045 0.1171 0.1712 0.060 Uiso calc R 1
C C3 0.9031(5) 0.1252(3) 0.4131(4) 0.0490(9) Uani d . 1
H H3A 1.0139 0.1254 0.3779 0.059 Uiso calc R 1
C C4 0.8697(4) 0.1299(2) 0.5918(4) 0.0403(8) Uani d . 1
C C5 0.7012(4) 0.1283(3) 0.6391(5) 0.0507(9) Uani d . 1
H H5A 0.6740 0.1308 0.7563 0.061 Uiso calc R 1
C C6 0.5760(5) 0.1232(3) 0.5154(5) 0.0565(10) Uani d . 1
H H6A 0.4647 0.1219 0.5486 0.068 Uiso calc R 1
C C7 1.0036(4) 0.1342(3) 0.7230(4) 0.0436(8) Uani d . 1
loop_
_atom_site_aniso_label
_atom_site_aniso_U_11
_atom_site_aniso_U_22
_atom_site_aniso_U_33
_atom_site_aniso_U_12
_atom_site_aniso_U_13
_atom_site_aniso_U_23
Cl 0.0770(8) 0.0708(8) 0.0837(9) -0.0060(6) -0.0208(6) 0.0085(6)
O1 0.0697(17) 0.0537(16) 0.0454(14) -0.0116(13) 0.0017(12) 0.0051(11)
N1 0.0437(16) 0.063(2) 0.0482(16) -0.0116(14) 0.0011(12) 0.0066(14)
N2 0.0613(18) 0.0428(16) 0.0377(15) -0.0034(14) 0.0069(13) 0.0029(13)
C1 0.062(2) 0.0389(19) 0.059(2) 0.0016(17) -0.0042(18) 0.0020(17)
C2 0.060(2) 0.051(2) 0.0407(19) 0.0009(17) 0.0009(16) -0.0010(16)
C3 0.052(2) 0.047(2) 0.048(2) 0.0031(16) 0.0121(15) -0.0020(16)
C4 0.0494(18) 0.0310(17) 0.0407(18) 0.0001(14) 0.0049(14) 0.0033(13)
C5 0.053(2) 0.050(2) 0.050(2) -0.0008(17) 0.0153(16) -0.0027(17)
C6 0.052(2) 0.047(2) 0.072(3) -0.0026(17) 0.0166(18) -0.0060(19)
C7 0.0502(19) 0.0400(18) 0.0409(19) 0.0065(15) 0.0139(15) -0.0044(15)
loop_
_atom_type_symbol
_atom_type_description
_atom_type_scat_dispersion_real
_atom_type_scat_dispersion_imag
_atom_type_scat_source
C C 0.0033 0.0016 'International Tables Vol C Tables 4.2.6.8 and 6.1.1.4'
H H 0.0000 0.0000 'International Tables Vol C Tables 4.2.6.8 and 6.1.1.4'
N N 0.0061 0.0033 'International Tables Vol C Tables 4.2.6.8 and 6.1.1.4'
O O 0.0106 0.0060 'International Tables Vol C Tables 4.2.6.8 and 6.1.1.4'
Cl Cl 0.1484 0.1585 'International Tables Vol C Tables 4.2.6.8 and 6.1.1.4'
loop_
_geom_angle_atom_site_label_1
_geom_angle_atom_site_label_2
_geom_angle_atom_site_label_3
_geom_angle
N2 O1 H1C 109.5
C7 N1 H1A 120.0
C7 N1 H1B 120.0
H1A N1 H1B 120.0
C7 N2 O1 110.0(3)
C2 C1 C6 121.2(3)
C2 C1 Cl 119.3(3)
C6 C1 Cl 119.5(3)
C1 C2 C3 118.9(3)
C1 C2 H2B 120.6
C3 C2 H2B 120.6
C2 C3 C4 122.4(3)
C2 C3 H3A 118.8
C4 C3 H3A 118.8
C5 C4 C3 116.9(3)
C5 C4 C7 121.3(3)
C3 C4 C7 121.8(3)
C6 C5 C4 121.1(3)
C6 C5 H5A 119.5
C4 C5 H5A 119.5
C5 C6 C1 119.6(4)
C5 C6 H6A 120.2
C1 C6 H6A 120.2
N2 C7 N1 124.2(3)
N2 C7 C4 118.0(3)
N1 C7 C4 117.7(3)
loop_
_geom_bond_atom_site_label_1
_geom_bond_atom_site_label_2
_geom_bond_distance
Cl C1 1.741(4)
O1 N2 1.428(4)
O1 H1C 0.8200
N1 C7 1.362(4)
N1 H1A 0.8600
N1 H1B 0.8600
N2 C7 1.285(4)
C1 C2 1.361(5)
C1 C6 1.390(5)
C2 C3 1.368(5)
C2 H2B 0.9300
C3 C4 1.402(5)
C3 H3A 0.9300
C4 C5 1.401(5)
C4 C7 1.458(5)
C5 C6 1.369(5)
C5 H5A 0.9300
C6 H6A 0.9300
loop_
_geom_hbond_atom_site_label_D
_geom_hbond_atom_site_label_H
_geom_hbond_atom_site_label_A
_geom_hbond_site_symmetry_A
_geom_hbond_distance_DH
_geom_hbond_distance_HA
_geom_hbond_distance_DA
_geom_hbond_angle_DHA
O1 H1C N2 3_757 0.82 2.10 2.756(4) 136
N1 H1B O1 4_565 0.86 2.43 3.130(4) 140
N1 H1A O1 . 0.86 2.24 2.551(4) 101
loop_
_geom_torsion_atom_site_label_1
_geom_torsion_atom_site_label_2
_geom_torsion_atom_site_label_3
_geom_torsion_atom_site_label_4
_geom_torsion
C6 C1 C2 C3 -0.8(5)
Cl C1 C2 C3 179.4(3)
C1 C2 C3 C4 0.0(5)
C2 C3 C4 C5 0.6(5)
C2 C3 C4 C7 179.4(3)
C3 C4 C5 C6 -0.5(5)
C7 C4 C5 C6 -179.3(3)
C4 C5 C6 C1 -0.2(5)
C2 C1 C6 C5 0.9(5)
Cl C1 C6 C5 -179.3(3)
O1 N2 C7 N1 4.4(4)
O1 N2 C7 C4 -177.9(3)
C5 C4 C7 N2 38.0(5)
C3 C4 C7 N2 -140.7(3)
C5 C4 C7 N1 -144.2(3)
C3 C4 C7 N1 37.1(5)
loop_
_cod_related_entry_id
_cod_related_entry_database
_cod_related_entry_code
1 ChemSpider 195224
