#------------------------------------------------------------------------------
#$Date: 2017-10-13 11:03:29 +0300 (Fri, 13 Oct 2017) $
#$Revision: 201974 $
#$URL: file:///home/coder/svn-repositories/cod/cif/2/21/65/2216585.cif $
#------------------------------------------------------------------------------
#
# This file is available in the Crystallography Open Database (COD),
# http://www.crystallography.net/. The original data for this entry
# were provided by IUCr Journals, http://journals.iucr.org/.
#
# The file may be used within the scientific community so long as
# proper attribution is given to the journal article from which the
# data were obtained.
#
data_2216585
loop_
_publ_author_name
'Wang, Pin-liang'
'Zeng, Hai-shu'
'Li, Hai-ling'
'Kang, Si-shun'
'Wang, Hai-bo'
_publ_section_title
3-(3-Methoxyphenyl)-5-[(5-methyl-1,3,4-thiadiazol-2-yl)sulfanylmethyl]-1,2,4-oxadiazole
_journal_coeditor_code           IM2042
_journal_issue                   12
_journal_name_full               'Acta Crystallographica Section E'
_journal_page_first              o4776
_journal_page_last               o4776
_journal_paper_doi               10.1107/S160053680705934X
_journal_volume                  63
_journal_year                    2007
_chemical_formula_iupac          'C13 H12 N4 O2 S2'
_chemical_formula_moiety         'C13 H12 N4 O2 S2'
_chemical_formula_sum            'C13 H12 N4 O2 S2'
_chemical_formula_weight         320.39
_chemical_name_systematic
;
3-(3-Methoxyphenyl)-5-[(5-methyl-1,3,4-thiadiazol-2-yl)sulfanylmethyl]-
1,2,4-oxadiazole
;
_space_group_IT_number           2
_symmetry_cell_setting           triclinic
_symmetry_space_group_name_Hall  '-P 1'
_symmetry_space_group_name_H-M   'P -1'
_atom_sites_solution_hydrogens   geom
_atom_sites_solution_primary     direct
_atom_sites_solution_secondary   difmap
_audit_creation_method           SHELXL-97
_cell_angle_alpha                72.45(3)
_cell_angle_beta                 85.91(3)
_cell_angle_gamma                77.12(3)
_cell_formula_units_Z            2
_cell_length_a                   6.1390(10)
_cell_length_b                   9.890(2)
_cell_length_c                   12.658(3)
_cell_measurement_reflns_used    25
_cell_measurement_temperature    293(2)
_cell_measurement_theta_max      13
_cell_measurement_theta_min      9
_cell_volume                     714.3(3)
_computing_cell_refinement       'CAD4 Software (Enraf--Nonius, 1989)'
_computing_data_collection       'CAD4 Software (Enraf--Nonius, 1989)'
_computing_data_reduction        'XCAD4 (Harms & Wocadlo, 1995)'
_computing_molecular_graphics    'SHELXTL (Siemens, 1996)'
_computing_publication_material  'SHELXL97 (Sheldrick, 1997)'
_computing_structure_refinement  'SHELXL97 (Sheldrick, 1997)'
_computing_structure_solution    'SHELXS97 (Sheldrick, 1997)'
_diffrn_ambient_temperature      293(2)
_diffrn_measured_fraction_theta_full 1.000
_diffrn_measured_fraction_theta_max 1.000
_diffrn_measurement_device_type  'Nonius CAD-4'
_diffrn_measurement_method       \w/2\q
_diffrn_radiation_monochromator  graphite
_diffrn_radiation_source         'fine-focus sealed tube'
_diffrn_radiation_type           MoK\a
_diffrn_radiation_wavelength     0.71073
_diffrn_reflns_av_R_equivalents  0.0422
_diffrn_reflns_av_sigmaI/netI    0.0430
_diffrn_reflns_limit_h_max       7
_diffrn_reflns_limit_h_min       -7
_diffrn_reflns_limit_k_max       12
_diffrn_reflns_limit_k_min       -11
_diffrn_reflns_limit_l_max       15
_diffrn_reflns_limit_l_min       0
_diffrn_reflns_number            3078
_diffrn_reflns_theta_full        25.96
_diffrn_reflns_theta_max         25.96
_diffrn_reflns_theta_min         1.69
_diffrn_standards_decay_%        0
_diffrn_standards_interval_count 200
_diffrn_standards_interval_time  2h
_diffrn_standards_number         3
_exptl_absorpt_coefficient_mu    0.382
_exptl_absorpt_correction_T_max  0.9628
_exptl_absorpt_correction_T_min  0.8940
_exptl_absorpt_correction_type   psi-scan
_exptl_absorpt_process_details   '(North <i>et al.</i>,  1968)'
_exptl_crystal_colour            Colourless
_exptl_crystal_density_diffrn    1.490
_exptl_crystal_density_method    'not measured'
_exptl_crystal_description       Block
_exptl_crystal_F_000             332
_exptl_crystal_size_max          0.30
_exptl_crystal_size_mid          0.10
_exptl_crystal_size_min          0.10
_refine_diff_density_max         0.194
_refine_diff_density_min         -0.280
_refine_ls_extinction_method     none
_refine_ls_goodness_of_fit_ref   1.056
_refine_ls_hydrogen_treatment    constr
_refine_ls_matrix_type           full
_refine_ls_number_parameters     191
_refine_ls_number_reflns         2802
_refine_ls_number_restraints     0
_refine_ls_restrained_S_all      1.056
_refine_ls_R_factor_all          0.0683
_refine_ls_R_factor_gt           0.0464
_refine_ls_shift/su_max          0.002
_refine_ls_shift/su_mean         0.000
_refine_ls_structure_factor_coef Fsqd
_refine_ls_weighting_details
'calc w=1/[\s^2^(Fo^2^)+(0.0486P)^2^+0.4476P] where P=(Fo^2^+2Fc^2^)/3'
_refine_ls_weighting_scheme      calc
_refine_ls_wR_factor_gt          0.1081
_refine_ls_wR_factor_ref         0.1276
_reflns_number_gt                2063
_reflns_number_total             2802
_reflns_threshold_expression     >2sigma(I)
_cod_data_source_file            im2042.cif
_cod_data_source_block           I
_cod_depositor_comments
;
The following automatic conversions were performed:
'_symmetry_cell_setting' value 'Triclinic' changed to 'triclinic'
according to '/home/saulius/struct/CIF-dictionaries/cif_core.dic'
dictionary named 'cif_core.dic' version 2.4.1 from 2010-06-29.

Automatic conversion script
Id: cif_fix_enum 1527 2010-12-29 10:47:43Z saulius 

The following automatic conversions were performed:

'_symmetry_cell_setting' value 'Triclinic' changed to 'triclinic'
according to /home/saulius/struct/CIF-dictionaries/cif_core.dic
dictionary named 'cif_core.dic' version 2.4.1 from 2010-06-29.

Automatic conversion script
Id: cif_fix_values 1715 2011-07-08 13:25:40Z adriana 
;
_cod_original_sg_symbol_H-M      P-1
_cod_database_code               2216585
_cod_database_fobs_code          2216585
loop_
_symmetry_equiv_pos_as_xyz
'x, y, z'
'-x, -y, -z'
loop_
_atom_site_type_symbol
_atom_site_label
_atom_site_fract_x
_atom_site_fract_y
_atom_site_fract_z
_atom_site_U_iso_or_equiv
_atom_site_adp_type
_atom_site_calc_flag
_atom_site_refinement_flags
_atom_site_occupancy
S S1 0.10119(14) 0.96648(9) 0.81705(7) 0.0591(3) Uani d . 1
O O1 -0.0772(3) 0.5239(2) 0.82199(18) 0.0542(5) Uani d . 1
N N1 -0.1954(4) 0.8596(3) 0.9446(2) 0.0597(7) Uani d . 1
C C1 -0.3048(6) 1.1241(4) 0.8789(3) 0.0724(10) Uani d . 1
H H1B -0.4264 1.1101 0.9302 0.109 Uiso calc R 1
H H1C -0.3623 1.1662 0.8049 0.109 Uiso calc R 1
H H1D -0.2248 1.1878 0.8960 0.109 Uiso calc R 1
S S2 0.37028(13) 0.66652(9) 0.84080(7) 0.0526(2) Uani d . 1
O O2 0.3255(4) 0.1410(3) 0.4522(2) 0.0658(6) Uani d . 1
N N2 -0.0301(4) 0.7422(3) 0.9376(2) 0.0572(7) Uani d . 1
C C2 -0.1523(5) 0.9826(3) 0.8873(2) 0.0512(7) Uani d . 1
N N3 0.1928(4) 0.3948(2) 0.74697(19) 0.0436(6) Uani d . 1
C C3 0.1342(5) 0.7819(3) 0.8740(2) 0.0455(7) Uani d . 1
N N4 -0.1791(4) 0.4826(3) 0.7427(2) 0.0542(6) Uani d . 1
C C4 0.2916(5) 0.4923(3) 0.8934(2) 0.0451(7) Uani d . 1
H H4B 0.4258 0.4161 0.9054 0.054 Uiso calc R 1
H H4C 0.2177 0.4863 0.9646 0.054 Uiso calc R 1
C C5 0.1416(4) 0.4666(3) 0.8184(2) 0.0431(7) Uani d . 1
C C6 -0.0109(4) 0.4076(3) 0.7011(2) 0.0395(6) Uani d . 1
C C7 -0.0365(4) 0.3450(3) 0.6138(2) 0.0413(6) Uani d . 1
C C8 -0.2466(5) 0.3615(3) 0.5687(3) 0.0530(8) Uani d . 1
H H8A -0.3742 0.4107 0.5963 0.064 Uiso calc R 1
C C9 -0.2626(5) 0.3047(4) 0.4837(3) 0.0578(8) Uani d . 1
H H9A -0.4018 0.3172 0.4533 0.069 Uiso calc R 1
C C10 -0.0764(5) 0.2296(3) 0.4427(3) 0.0508(7) Uani d . 1
H H10A -0.0903 0.1914 0.3854 0.061 Uiso calc R 1
C C11 0.1300(5) 0.2115(3) 0.4868(2) 0.0463(7) Uani d . 1
C C12 0.1486(5) 0.2702(3) 0.5724(2) 0.0440(7) Uani d . 1
H H12A 0.2884 0.2584 0.6019 0.053 Uiso calc R 1
C C13 0.3205(6) 0.0859(4) 0.3617(3) 0.0632(9) Uani d . 1
H H13A 0.4692 0.0399 0.3462 0.095 Uiso calc R 1
H H13B 0.2624 0.1640 0.2977 0.095 Uiso calc R 1
H H13C 0.2266 0.0163 0.3798 0.095 Uiso calc R 1
loop_
_atom_site_aniso_label
_atom_site_aniso_U_11
_atom_site_aniso_U_22
_atom_site_aniso_U_33
_atom_site_aniso_U_12
_atom_site_aniso_U_13
_atom_site_aniso_U_23
S1 0.0622(5) 0.0439(4) 0.0664(5) -0.0132(4) 0.0141(4) -0.0110(4)
O1 0.0392(11) 0.0621(13) 0.0624(13) 0.0001(10) 0.0046(10) -0.0288(11)
N1 0.0627(17) 0.0475(15) 0.0632(17) -0.0066(13) 0.0197(14) -0.0159(13)
C1 0.079(2) 0.052(2) 0.073(2) 0.0034(18) 0.0129(19) -0.0144(18)
S2 0.0426(4) 0.0518(5) 0.0632(5) -0.0071(3) 0.0029(3) -0.0195(4)
O2 0.0509(13) 0.0825(16) 0.0708(15) 0.0001(12) -0.0045(11) -0.0421(13)
N2 0.0592(16) 0.0441(14) 0.0604(16) -0.0060(12) 0.0170(13) -0.0114(12)
C2 0.0551(18) 0.0469(17) 0.0480(17) -0.0052(14) 0.0051(14) -0.0137(14)
N3 0.0405(13) 0.0424(13) 0.0441(13) -0.0010(10) -0.0007(10) -0.0125(11)
C3 0.0503(17) 0.0431(15) 0.0437(16) -0.0086(13) -0.0007(13) -0.0143(13)
N4 0.0429(14) 0.0585(16) 0.0656(17) -0.0059(12) -0.0008(12) -0.0281(13)
C4 0.0441(16) 0.0431(15) 0.0453(16) 0.0005(12) -0.0021(13) -0.0153(13)
C5 0.0396(15) 0.0364(14) 0.0450(16) -0.0030(12) 0.0012(12) -0.0039(12)
C6 0.0341(14) 0.0359(14) 0.0427(15) -0.0057(11) 0.0032(11) -0.0049(12)
C7 0.0392(15) 0.0378(14) 0.0404(15) -0.0071(11) 0.0021(12) -0.0032(12)
C8 0.0361(15) 0.0587(19) 0.062(2) -0.0088(14) 0.0015(14) -0.0154(16)
C9 0.0414(17) 0.072(2) 0.062(2) -0.0154(15) -0.0060(15) -0.0185(17)
C10 0.0559(19) 0.0518(17) 0.0480(17) -0.0179(15) -0.0039(14) -0.0139(14)
C11 0.0437(16) 0.0451(16) 0.0478(16) -0.0082(13) -0.0006(13) -0.0110(13)
C12 0.0397(15) 0.0446(15) 0.0467(16) -0.0101(12) -0.0039(12) -0.0103(13)
C13 0.072(2) 0.067(2) 0.0543(19) -0.0092(18) 0.0069(17) -0.0286(17)
loop_
_atom_type_symbol
_atom_type_description
_atom_type_scat_dispersion_real
_atom_type_scat_dispersion_imag
_atom_type_scat_source
C C 0.0033 0.0016 'International Tables Vol C Tables 4.2.6.8 and 6.1.1.4'
H H 0.0000 0.0000 'International Tables Vol C Tables 4.2.6.8 and 6.1.1.4'
N N 0.0061 0.0033 'International Tables Vol C Tables 4.2.6.8 and 6.1.1.4'
O O 0.0106 0.0060 'International Tables Vol C Tables 4.2.6.8 and 6.1.1.4'
S S 0.1246 0.1234 'International Tables Vol C Tables 4.2.6.8 and 6.1.1.4'
loop_
_geom_angle_atom_site_label_1
_geom_angle_atom_site_label_2
_geom_angle_atom_site_label_3
_geom_angle
C3 S1 C2 87.03(15)
C5 O1 N4 106.0(2)
C2 N1 N2 113.3(3)
C2 C1 H1B 109.5
C2 C1 H1C 109.5
H1B C1 H1C 109.5
C2 C1 H1D 109.5
H1B C1 H1D 109.5
H1C C1 H1D 109.5
C3 S2 C4 101.41(14)
C11 O2 C13 118.5(2)
C3 N2 N1 112.0(2)
N1 C2 C1 123.9(3)
N1 C2 S1 113.4(2)
C1 C2 S1 122.7(2)
C5 N3 C6 103.2(2)
N2 C3 S1 114.2(2)
N2 C3 S2 126.1(2)
S1 C3 S2 119.65(17)
C6 N4 O1 103.5(2)
C5 C4 S2 113.3(2)
C5 C4 H4B 108.9
S2 C4 H4B 108.9
C5 C4 H4C 108.9
S2 C4 H4C 108.9
H4B C4 H4C 107.7
N3 C5 O1 113.5(3)
N3 C5 C4 128.4(2)
O1 C5 C4 118.0(3)
N4 C6 N3 113.8(2)
N4 C6 C7 122.9(2)
N3 C6 C7 123.3(2)
C12 C7 C8 118.9(3)
C12 C7 C6 119.6(3)
C8 C7 C6 121.4(3)
C9 C8 C7 119.6(3)
C9 C8 H8A 120.2
C7 C8 H8A 120.2
C8 C9 C10 121.3(3)
C8 C9 H9A 119.4
C10 C9 H9A 119.4
C11 C10 C9 119.7(3)
C11 C10 H10A 120.1
C9 C10 H10A 120.1
O2 C11 C10 124.9(3)
O2 C11 C12 115.6(3)
C10 C11 C12 119.5(3)
C7 C12 C11 121.0(3)
C7 C12 H12A 119.5
C11 C12 H12A 119.5
O2 C13 H13A 109.5
O2 C13 H13B 109.5
H13A C13 H13B 109.5
O2 C13 H13C 109.5
H13A C13 H13C 109.5
H13B C13 H13C 109.5
loop_
_geom_bond_atom_site_label_1
_geom_bond_atom_site_label_2
_geom_bond_distance
S1 C3 1.719(3)
S1 C2 1.737(3)
O1 C5 1.340(3)
O1 N4 1.420(3)
N1 C2 1.288(4)
N1 N2 1.382(3)
C1 C2 1.479(4)
C1 H1B 0.9600
C1 H1C 0.9600
C1 H1D 0.9600
S2 C3 1.745(3)
S2 C4 1.811(3)
O2 C11 1.362(3)
O2 C13 1.413(4)
N2 C3 1.299(4)
N3 C5 1.291(3)
N3 C6 1.381(3)
N4 C6 1.308(3)
C4 C5 1.480(4)
C4 H4B 0.9700
C4 H4C 0.9700
C6 C7 1.453(4)
C7 C12 1.373(4)
C7 C8 1.403(4)
C8 C9 1.374(4)
C8 H8A 0.9300
C9 C10 1.377(4)
C9 H9A 0.9300
C10 C11 1.374(4)
C10 H10A 0.9300
C11 C12 1.397(4)
C12 H12A 0.9300
C13 H13A 0.9600
C13 H13B 0.9600
C13 H13C 0.9600
loop_
_geom_torsion_atom_site_label_1
_geom_torsion_atom_site_label_2
_geom_torsion_atom_site_label_3
_geom_torsion_atom_site_label_4
_geom_torsion
C2 N1 N2 C3 -0.1(4)
N2 N1 C2 C1 178.5(3)
N2 N1 C2 S1 0.1(4)
C3 S1 C2 N1 -0.1(3)
C3 S1 C2 C1 -178.5(3)
N1 N2 C3 S1 0.0(3)
N1 N2 C3 S2 -178.1(2)
C2 S1 C3 N2 0.1(2)
C2 S1 C3 S2 178.2(2)
C4 S2 C3 N2 10.8(3)
C4 S2 C3 S1 -167.13(17)
C5 O1 N4 C6 -0.5(3)
C3 S2 C4 C5 79.9(2)
C6 N3 C5 O1 0.0(3)
C6 N3 C5 C4 -179.7(3)
N4 O1 C5 N3 0.3(3)
N4 O1 C5 C4 -179.9(2)
S2 C4 C5 N3 97.6(3)
S2 C4 C5 O1 -82.1(3)
O1 N4 C6 N3 0.6(3)
O1 N4 C6 C7 -178.8(2)
C5 N3 C6 N4 -0.4(3)
C5 N3 C6 C7 179.0(2)
N4 C6 C7 C12 178.6(3)
N3 C6 C7 C12 -0.8(4)
N4 C6 C7 C8 -0.1(4)
N3 C6 C7 C8 -179.5(3)
C12 C7 C8 C9 -0.9(4)
C6 C7 C8 C9 177.8(3)
C7 C8 C9 C10 1.0(5)
C8 C9 C10 C11 -0.4(5)
C13 O2 C11 C10 2.3(4)
C13 O2 C11 C12 -176.6(3)
C9 C10 C11 O2 -179.2(3)
C9 C10 C11 C12 -0.3(4)
C8 C7 C12 C11 0.2(4)
C6 C7 C12 C11 -178.5(2)
O2 C11 C12 C7 179.4(2)
C10 C11 C12 C7 0.4(4)
loop_
_cod_related_entry_id
_cod_related_entry_database
_cod_related_entry_code
1 ChemSpider 11049981
