#------------------------------------------------------------------------------
#$Date: 2017-10-13 11:03:29 +0300 (Fri, 13 Oct 2017) $
#$Revision: 201974 $
#$URL: file:///home/coder/svn-repositories/cod/cif/2/21/76/2217608.cif $
#------------------------------------------------------------------------------
#
# This file is available in the Crystallography Open Database (COD),
# http://www.crystallography.net/. The original data for this entry
# were provided by IUCr Journals, http://journals.iucr.org/.
#
# The file may be used within the scientific community so long as
# proper attribution is given to the journal article from which the
# data were obtained.
#
data_2217608
loop_
_publ_author_name
'B. Thimme Gowda'
'Sabine Foro'
'Hartmut Fuess'
_publ_section_title
;
 2-Chloro-<i>N</i>-(2,3-dichlorophenyl)acetamide
;
_journal_coeditor_code           OM2201
_journal_issue                   2
_journal_name_full               'Acta Crystallographica Section E'
_journal_page_first              o419
_journal_page_last               o419
_journal_paper_doi               10.1107/S1600536808000408
_journal_volume                  64
_journal_year                    2008
_chemical_formula_moiety         'C8 H6 Cl3 N O'
_chemical_formula_sum            'C8 H6 Cl3 N O'
_chemical_formula_weight         238.49
_chemical_name_systematic
;
2-Chloro-<i>N</i>-(2,3-dichlorophenyl)acetamide
;
_space_group_IT_number           14
_symmetry_cell_setting           monoclinic
_symmetry_space_group_name_Hall  '-P 2yn'
_symmetry_space_group_name_H-M   'P 1 21/n 1'
_atom_sites_solution_hydrogens   geom
_atom_sites_solution_primary     direct
_atom_sites_solution_secondary   difmap
_audit_creation_method           SHELXL-97
_cell_angle_alpha                90.00
_cell_angle_beta                 99.76(2)
_cell_angle_gamma                90.00
_cell_formula_units_Z            4
_cell_length_a                   11.704(3)
_cell_length_b                   4.7120(10)
_cell_length_c                   17.503(4)
_cell_measurement_reflns_used    25
_cell_measurement_temperature    299(2)
_cell_measurement_theta_max      23.91
_cell_measurement_theta_min      4.28
_cell_volume                     951.3(4)
_computing_cell_refinement       'CAD-4-PC (Enraf--Nonius, 1996)'
_computing_data_collection       'CAD-4-PC (Enraf--Nonius, 1996)'
_computing_data_reduction        'REDU4 (Stoe & Cie, 1987)'
_computing_molecular_graphics    'PLATON (Spek, 2003)'
_computing_publication_material  'SHELXL97 (Sheldrick, 2008)'
_computing_structure_refinement  'SHELXL97 (Sheldrick, 2008)'
_computing_structure_solution    'SHELXS97 (Sheldrick, 2008)'
_diffrn_ambient_temperature      299(2)
_diffrn_measured_fraction_theta_full 1.000
_diffrn_measured_fraction_theta_max 1.000
_diffrn_measurement_device_type  'Enraf--Nonius CAD-4'
_diffrn_measurement_method       \w/2\q
_diffrn_radiation_monochromator  graphite
_diffrn_radiation_source         'fine-focus sealed tube'
_diffrn_radiation_type           CuK\a
_diffrn_radiation_wavelength     1.54180
_diffrn_reflns_av_R_equivalents  0.0361
_diffrn_reflns_av_sigmaI/netI    0.0114
_diffrn_reflns_limit_h_max       1
_diffrn_reflns_limit_h_min       -13
_diffrn_reflns_limit_k_max       0
_diffrn_reflns_limit_k_min       -5
_diffrn_reflns_limit_l_max       20
_diffrn_reflns_limit_l_min       -20
_diffrn_reflns_number            1832
_diffrn_reflns_theta_full        66.85
_diffrn_reflns_theta_max         66.85
_diffrn_reflns_theta_min         4.23
_diffrn_standards_decay_%        2.0
_diffrn_standards_interval_time  120
_diffrn_standards_number         3
_exptl_absorpt_coefficient_mu    8.376
_exptl_absorpt_correction_T_max  0.0957
_exptl_absorpt_correction_T_min  0.0142
_exptl_absorpt_correction_type   psi-scan
_exptl_absorpt_process_details   '(North <i>et al.</i>,  1968)'
_exptl_crystal_colour            colourless
_exptl_crystal_density_diffrn    1.665
_exptl_crystal_density_method    'not measured'
_exptl_crystal_description       prism
_exptl_crystal_F_000             480
_exptl_crystal_size_max          0.50
_exptl_crystal_size_mid          0.35
_exptl_crystal_size_min          0.28
_refine_diff_density_max         0.873
_refine_diff_density_min         -1.042
_refine_ls_extinction_coef       0.018(3)
_refine_ls_extinction_expression Fc^*^=kFc[1+0.001xFc^2^\l^3^/sin(2\q)]^-1/4^
_refine_ls_extinction_method     SHELXL
_refine_ls_goodness_of_fit_ref   1.067
_refine_ls_hydrogen_treatment    mixed
_refine_ls_matrix_type           full
_refine_ls_number_parameters     122
_refine_ls_number_reflns         1692
_refine_ls_number_restraints     0
_refine_ls_restrained_S_all      1.067
_refine_ls_R_factor_all          0.0808
_refine_ls_R_factor_gt           0.0797
_refine_ls_shift/su_max          0.025
_refine_ls_shift/su_mean         0.006
_refine_ls_structure_factor_coef Fsqd
_refine_ls_weighting_details
'calc w=1/[\s^2^(Fo^2^)+(0.1810P)^2^+0.9328P] where P=(Fo^2^+2Fc^2^)/3'
_refine_ls_weighting_scheme      calc
_refine_ls_wR_factor_gt          0.2286
_refine_ls_wR_factor_ref         0.2305
_reflns_number_gt                1625
_reflns_number_total             1692
_reflns_threshold_expression     >2sigma(I)
_cod_data_source_file            om2201.cif
_cod_data_source_block           I
_cod_original_sg_symbol_H-M      'P 21/n'
_cod_database_code               2217608
_cod_database_fobs_code          2217608
loop_
_symmetry_equiv_pos_as_xyz
'x, y, z'
'-x+1/2, y+1/2, -z+1/2'
'-x, -y, -z'
'x-1/2, -y-1/2, z-1/2'
loop_
_atom_site_type_symbol
_atom_site_label
_atom_site_fract_x
_atom_site_fract_y
_atom_site_fract_z
_atom_site_U_iso_or_equiv
_atom_site_adp_type
_atom_site_calc_flag
_atom_site_refinement_flags
_atom_site_occupancy
C C1 0.4488(3) 0.5307(7) 0.36495(19) 0.0315(8) Uani d . 1
C C2 0.4556(3) 0.4122(7) 0.2935(2) 0.0316(8) Uani d . 1
C C3 0.5442(3) 0.4955(9) 0.2544(2) 0.0395(9) Uani d . 1
C C4 0.6240(4) 0.6936(10) 0.2854(3) 0.0502(11) Uani d . 1
H H4 0.6825 0.7486 0.2586 0.060 Uiso calc R 1
C C5 0.6172(4) 0.8099(9) 0.3558(3) 0.0502(11) Uani d . 1
H H5 0.6714 0.9453 0.3768 0.060 Uiso calc R 1
C C6 0.5313(3) 0.7298(9) 0.3964(2) 0.0416(9) Uani d . 1
H H6 0.5284 0.8089 0.4447 0.050 Uiso calc R 1
C C7 0.2947(4) 0.6252(8) 0.4390(2) 0.0376(9) Uani d . 1
C C8 0.1935(4) 0.4823(8) 0.4667(2) 0.0430(10) Uani d . 1
H H8A 0.2178 0.2983 0.4884 0.052 Uiso calc R 1
H H8B 0.1320 0.4519 0.4228 0.052 Uiso calc R 1
N N1 0.3582(3) 0.4477(7) 0.40382(17) 0.0347(8) Uani d . 1
H H1N 0.346(4) 0.271(11) 0.405(3) 0.042 Uiso d . 1
O O1 0.3132(3) 0.8774(6) 0.4466(2) 0.0556(9) Uani d . 1
Cl Cl1 0.35541(7) 0.16288(19) 0.25447(5) 0.0389(5) Uani d . 1
Cl Cl2 0.55325(12) 0.3482(3) 0.16544(7) 0.0653(6) Uani d . 1
Cl Cl3 0.14026(11) 0.6855(3) 0.53663(7) 0.0602(5) Uani d . 1
loop_
_atom_site_aniso_label
_atom_site_aniso_U_11
_atom_site_aniso_U_22
_atom_site_aniso_U_33
_atom_site_aniso_U_12
_atom_site_aniso_U_13
_atom_site_aniso_U_23
C1 0.0320(17) 0.0313(17) 0.0342(16) -0.0005(13) 0.0143(13) 0.0009(13)
C2 0.0245(16) 0.0345(17) 0.0383(18) -0.0019(13) 0.0126(13) 0.0041(14)
C3 0.0316(17) 0.050(2) 0.0428(19) 0.0012(16) 0.0234(14) 0.0043(16)
C4 0.034(2) 0.056(2) 0.067(3) -0.0074(17) 0.0248(19) 0.006(2)
C5 0.033(2) 0.049(2) 0.070(3) -0.0125(17) 0.0109(19) -0.0012(19)
C6 0.040(2) 0.045(2) 0.042(2) -0.0058(16) 0.0097(16) -0.0031(16)
C7 0.050(2) 0.0314(18) 0.0354(18) -0.0010(15) 0.0188(16) 0.0010(14)
C8 0.048(2) 0.040(2) 0.049(2) -0.0055(16) 0.0304(17) -0.0054(16)
N1 0.0431(16) 0.0293(15) 0.0376(16) -0.0022(12) 0.0236(13) -0.0005(12)
O1 0.074(2) 0.0305(15) 0.076(2) -0.0035(13) 0.0499(18) -0.0054(13)
Cl1 0.0360(7) 0.0433(7) 0.0411(7) -0.0057(3) 0.0170(4) -0.0078(3)
Cl2 0.0670(9) 0.0878(10) 0.0529(8) -0.0123(6) 0.0438(6) -0.0074(5)
Cl3 0.0646(9) 0.0640(9) 0.0639(8) -0.0105(5) 0.0454(6) -0.0179(5)
loop_
_atom_type_symbol
_atom_type_description
_atom_type_scat_dispersion_real
_atom_type_scat_dispersion_imag
_atom_type_scat_source
C C 0.0181 0.0091 'International Tables Vol C Tables 4.2.6.8 and 6.1.1.4'
H H 0.0000 0.0000 'International Tables Vol C Tables 4.2.6.8 and 6.1.1.4'
N N 0.0311 0.0180 'International Tables Vol C Tables 4.2.6.8 and 6.1.1.4'
O O 0.0492 0.0322 'International Tables Vol C Tables 4.2.6.8 and 6.1.1.4'
Cl Cl 0.3639 0.7018 'International Tables Vol C Tables 4.2.6.8 and 6.1.1.4'
loop_
_geom_angle_atom_site_label_1
_geom_angle_atom_site_label_2
_geom_angle_atom_site_label_3
_geom_angle
C2 C1 C6 119.2(3)
C2 C1 N1 119.2(3)
C6 C1 N1 121.7(3)
C1 C2 C3 119.5(3)
C1 C2 Cl1 119.7(3)
C3 C2 Cl1 120.8(3)
C4 C3 C2 120.9(4)
C4 C3 Cl2 119.4(3)
C2 C3 Cl2 119.7(3)
C5 C4 C3 119.5(4)
C5 C4 H4 120.2
C3 C4 H4 120.2
C4 C5 C6 121.0(4)
C4 C5 H5 119.5
C6 C5 H5 119.5
C5 C6 C1 119.9(4)
C5 C6 H6 120.0
C1 C6 H6 120.0
O1 C7 N1 124.2(4)
O1 C7 C8 122.5(4)
N1 C7 C8 113.3(3)
C7 C8 Cl3 111.8(3)
C7 C8 H8A 109.3
Cl3 C8 H8A 109.3
C7 C8 H8B 109.3
Cl3 C8 H8B 109.3
H8A C8 H8B 107.9
C7 N1 C1 124.9(3)
C7 N1 H1N 119(3)
C1 N1 H1N 116(3)
loop_
_geom_bond_atom_site_label_1
_geom_bond_atom_site_label_2
_geom_bond_distance
C1 C2 1.384(5)
C1 C6 1.391(5)
C1 N1 1.409(4)
C2 C3 1.392(5)
C2 Cl1 1.718(3)
C3 C4 1.366(6)
C3 Cl2 1.725(4)
C4 C5 1.363(7)
C4 H4 0.9300
C5 C6 1.379(6)
C5 H5 0.9300
C6 H6 0.9300
C7 O1 1.211(5)
C7 N1 1.337(5)
C7 C8 1.512(5)
C8 Cl3 1.750(4)
C8 H8A 0.9700
C8 H8B 0.9700
N1 H1N 0.85(5)
loop_
_geom_hbond_atom_site_label_D
_geom_hbond_atom_site_label_H
_geom_hbond_atom_site_label_A
_geom_hbond_site_symmetry_A
_geom_hbond_distance_DH
_geom_hbond_distance_HA
_geom_hbond_distance_DA
_geom_hbond_angle_DHA
N1 H1N O1 1_545 0.85(5) 2.05(5) 2.862(4) 161(4)
loop_
_geom_torsion_atom_site_label_1
_geom_torsion_atom_site_label_2
_geom_torsion_atom_site_label_3
_geom_torsion_atom_site_label_4
_geom_torsion
C6 C1 C2 C3 -0.3(5)
N1 C1 C2 C3 179.3(3)
C6 C1 C2 Cl1 179.3(3)
N1 C1 C2 Cl1 -1.1(5)
C1 C2 C3 C4 -0.4(6)
Cl1 C2 C3 C4 -180.0(3)
C1 C2 C3 Cl2 179.9(3)
Cl1 C2 C3 Cl2 0.3(5)
C2 C3 C4 C5 0.4(6)
Cl2 C3 C4 C5 -179.9(3)
C3 C4 C5 C6 0.2(7)
C4 C5 C6 C1 -1.0(7)
C2 C1 C6 C5 1.0(6)
N1 C1 C6 C5 -178.6(4)
O1 C7 C8 Cl3 -20.3(5)
N1 C7 C8 Cl3 161.7(3)
O1 C7 N1 C1 -5.7(6)
C8 C7 N1 C1 172.3(3)
C2 C1 N1 C7 -135.6(4)
C6 C1 N1 C7 44.0(5)
loop_
_cod_related_entry_id
_cod_related_entry_database
_cod_related_entry_code
1 ChemSpider 644045
