#------------------------------------------------------------------------------
#$Date: 2016-02-20 18:35:30 +0200 (Sat, 20 Feb 2016) $
#$Revision: 176787 $
#$URL: svn://www.crystallography.net/cod/cif/2/21/94/2219413.cif $
#------------------------------------------------------------------------------
#
# This file is available in the Crystallography Open Database (COD),
# http://www.crystallography.net/. The original data for this entry
# were provided by IUCr Journals, http://journals.iucr.org/.
#
# The file may be used within the scientific community so long as
# proper attribution is given to the journal article from which the
# data were obtained.
#
data_2219413
loop_
_publ_author_name
'Choi, Hong Dae'
'Seo, Pil Ja'
'Son, Byeng Wha'
'Lee, Uk'
_publ_section_title
;
 3-Methylsulfinyl-2-phenyl-1-benzofuran
;
_journal_coeditor_code           PK2109
_journal_issue                   9
_journal_name_full               'Acta Crystallographica Section E'
_journal_page_first              o1687
_journal_paper_doi               10.1107/S1600536808024276
_journal_volume                  64
_journal_year                    2008
_chemical_formula_iupac          'C15 H12 O2 S'
_chemical_formula_moiety         'C15 H12 O2 S'
_chemical_formula_sum            'C15 H12 O2 S'
_chemical_formula_weight         256.32
_chemical_name_systematic
;
3-Methylsulfinyl-2-phenyl-1-benzofuran
;
_space_group_IT_number           2
_symmetry_cell_setting           triclinic
_symmetry_space_group_name_Hall  '-P 1'
_symmetry_space_group_name_H-M   'P -1'
_atom_sites_solution_hydrogens   geom
_atom_sites_solution_primary     direct
_atom_sites_solution_secondary   difmap
_cell_angle_alpha                115.574(2)
_cell_angle_beta                 109.179(2)
_cell_angle_gamma                94.296(2)
_cell_formula_units_Z            2
_cell_length_a                   8.0185(8)
_cell_length_b                   9.4381(9)
_cell_length_c                   9.7749(9)
_cell_measurement_reflns_used    2383
_cell_measurement_temperature    173(2)
_cell_measurement_theta_max      28.18
_cell_measurement_theta_min      2.47
_cell_volume                     609.51(10)
_computing_cell_refinement       'SAINT (Bruker, 2001)'
_computing_data_collection       'SMART (Bruker, 2001)'
_computing_data_reduction        'SAINT (Bruker, 2001)'
_computing_molecular_graphics
'ORTEP-3 (Farrugia, 1997) and DIAMOND (Brandenburg, 1998)'
_computing_publication_material  'SHELXL97 (Sheldrick, 2008)'
_computing_structure_refinement  'SHELXL97 (Sheldrick, 2008)'
_computing_structure_solution    'SHELXS97 (Sheldrick, 2008)'
_diffrn_ambient_temperature      173(2)
_diffrn_detector_area_resol_mean 10.0
_diffrn_measured_fraction_theta_full 0.985
_diffrn_measured_fraction_theta_max 0.985
_diffrn_measurement_device_type  'Bruker SMART CCD'
_diffrn_measurement_method       '\f and \w'
_diffrn_radiation_monochromator  graphite
_diffrn_radiation_source         'fine-focus sealed tube'
_diffrn_radiation_type           MoK\a
_diffrn_radiation_wavelength     0.71073
_diffrn_reflns_av_R_equivalents  0.0301
_diffrn_reflns_av_sigmaI/netI    0.0292
_diffrn_reflns_limit_h_max       9
_diffrn_reflns_limit_h_min       -8
_diffrn_reflns_limit_k_max       11
_diffrn_reflns_limit_k_min       -11
_diffrn_reflns_limit_l_max       5
_diffrn_reflns_limit_l_min       -11
_diffrn_reflns_number            3185
_diffrn_reflns_theta_full        25.00
_diffrn_reflns_theta_max         25.00
_diffrn_reflns_theta_min         2.47
_diffrn_standards_number         0
_exptl_absorpt_coefficient_mu    0.255
_exptl_absorpt_correction_type   none
_exptl_crystal_colour            colorless
_exptl_crystal_density_diffrn    1.397
_exptl_crystal_density_method    'not measured'
_exptl_crystal_description       block
_exptl_crystal_F_000             268
_exptl_crystal_size_max          0.30
_exptl_crystal_size_mid          0.10
_exptl_crystal_size_min          0.10
_refine_diff_density_max         0.315
_refine_diff_density_min         -0.236
_refine_ls_extinction_method     none
_refine_ls_goodness_of_fit_ref   1.102
_refine_ls_hydrogen_treatment    constr
_refine_ls_matrix_type           full
_refine_ls_number_parameters     164
_refine_ls_number_reflns         2120
_refine_ls_number_restraints     0
_refine_ls_restrained_S_all      1.102
_refine_ls_R_factor_all          0.0429
_refine_ls_R_factor_gt           0.0367
_refine_ls_shift/su_max          0.000
_refine_ls_shift/su_mean         0.000
_refine_ls_structure_factor_coef Fsqd
_refine_ls_weighting_details
'calc w=1/[\s^2^(Fo^2^)+(0.0341P)^2^+0.3746P] where P=(Fo^2^+2Fc^2^)/3'
_refine_ls_weighting_scheme      calc
_refine_ls_wR_factor_gt          0.0866
_refine_ls_wR_factor_ref         0.0898
_reflns_number_gt                1878
_reflns_number_total             2120
_reflns_threshold_expression     I>2\s(I)
_cod_data_source_file            pk2109.cif
_cod_data_source_block           I
_cod_database_code               2219413
_cod_database_fobs_code          2219413
loop_
_symmetry_equiv_pos_as_xyz
'x, y, z'
'-x, -y, -z'
loop_
_atom_site_type_symbol
_atom_site_label
_atom_site_fract_x
_atom_site_fract_y
_atom_site_fract_z
_atom_site_U_iso_or_equiv
_atom_site_adp_type
_atom_site_calc_flag
_atom_site_refinement_flags
_atom_site_occupancy
S S 0.33893(6) 0.23694(6) 0.35764(6) 0.02368(16) Uani d . 1
O O1 -0.05250(18) -0.15771(15) 0.17293(16) 0.0238(3) Uani d . 1
O O2 0.4116(2) 0.33041(18) 0.54205(18) 0.0356(4) Uani d . 1
C C1 0.1412(3) 0.0880(2) 0.2927(2) 0.0210(4) Uani d . 1
C C2 0.0021(3) 0.1096(2) 0.3590(2) 0.0219(4) Uani d . 1
C C3 -0.0353(3) 0.2390(3) 0.4755(3) 0.0280(5) Uani d . 1
H H3 0.0420 0.3457 0.5336 0.034 Uiso calc R 1
C C4 -0.1883(3) 0.2063(3) 0.5031(3) 0.0321(5) Uani d . 1
H H4 -0.2170 0.2928 0.5807 0.039 Uiso calc R 1
C C5 -0.3018(3) 0.0500(3) 0.4202(3) 0.0326(5) Uani d . 1
H H5 -0.4060 0.0329 0.4425 0.039 Uiso calc R 1
C C6 -0.2666(3) -0.0807(3) 0.3064(3) 0.0291(5) Uani d . 1
H H6 -0.3429 -0.1877 0.2500 0.035 Uiso calc R 1
C C7 -0.1131(3) -0.0453(2) 0.2802(2) 0.0226(4) Uani d . 1
C C8 0.1044(2) -0.0725(2) 0.1847(2) 0.0212(4) Uani d . 1
C C9 0.1918(3) -0.1716(2) 0.0813(2) 0.0221(4) Uani d . 1
C C10 0.1916(3) -0.3292(2) 0.0565(3) 0.0299(5) Uani d . 1
H H10 0.1393 -0.3695 0.1110 0.036 Uiso calc R 1
C C11 0.2669(3) -0.4265(3) -0.0468(3) 0.0370(5) Uani d . 1
H H11 0.2666 -0.5331 -0.0624 0.044 Uiso calc R 1
C C12 0.3428(3) -0.3693(3) -0.1276(3) 0.0364(5) Uani d . 1
H H12 0.3931 -0.4370 -0.1995 0.044 Uiso calc R 1
C C13 0.3451(3) -0.2136(3) -0.1033(3) 0.0315(5) Uani d . 1
H H13 0.3986 -0.1738 -0.1575 0.038 Uiso calc R 1
C C14 0.2695(3) -0.1150(2) 0.0000(2) 0.0255(4) Uani d . 1
H H14 0.2707 -0.0083 0.0154 0.031 Uiso calc R 1
C C15 0.2300(3) 0.3619(3) 0.2805(3) 0.0352(5) Uani d . 1
H H15A 0.1334 0.3896 0.3203 0.053 Uiso calc R 1
H H15B 0.1768 0.3027 0.1592 0.053 Uiso calc R 1
H H15C 0.3203 0.4616 0.3200 0.053 Uiso calc R 1
loop_
_atom_site_aniso_label
_atom_site_aniso_U_11
_atom_site_aniso_U_22
_atom_site_aniso_U_33
_atom_site_aniso_U_12
_atom_site_aniso_U_13
_atom_site_aniso_U_23
S 0.0189(3) 0.0221(3) 0.0235(3) 0.00303(19) 0.0068(2) 0.0072(2)
O1 0.0233(7) 0.0214(7) 0.0253(7) 0.0042(5) 0.0117(6) 0.0089(6)
O2 0.0311(8) 0.0359(9) 0.0232(8) -0.0025(7) 0.0057(7) 0.0058(7)
C1 0.0201(10) 0.0212(10) 0.0202(10) 0.0065(8) 0.0080(8) 0.0088(8)
C2 0.0204(10) 0.0264(10) 0.0206(10) 0.0093(8) 0.0080(8) 0.0122(9)
C3 0.0305(11) 0.0281(11) 0.0246(11) 0.0125(9) 0.0107(9) 0.0116(9)
C4 0.0357(12) 0.0421(13) 0.0277(11) 0.0238(10) 0.0181(10) 0.0185(10)
C5 0.0303(12) 0.0506(14) 0.0401(13) 0.0229(10) 0.0236(10) 0.0324(12)
C6 0.0256(11) 0.0365(12) 0.0348(12) 0.0106(9) 0.0138(9) 0.0235(10)
C7 0.0234(10) 0.0275(10) 0.0213(10) 0.0105(8) 0.0112(8) 0.0132(9)
C8 0.0187(9) 0.0235(10) 0.0208(10) 0.0035(8) 0.0067(8) 0.0113(8)
C9 0.0198(9) 0.0214(10) 0.0181(10) 0.0034(8) 0.0056(8) 0.0055(8)
C10 0.0334(12) 0.0255(11) 0.0309(12) 0.0068(9) 0.0163(10) 0.0113(9)
C11 0.0423(13) 0.0239(11) 0.0400(14) 0.0113(10) 0.0199(11) 0.0085(10)
C12 0.0317(12) 0.0366(13) 0.0305(12) 0.0101(10) 0.0167(10) 0.0041(10)
C13 0.0254(11) 0.0409(12) 0.0227(11) 0.0036(9) 0.0114(9) 0.0104(9)
C14 0.0235(10) 0.0277(11) 0.0213(10) 0.0048(8) 0.0070(8) 0.0103(9)
C15 0.0292(11) 0.0263(11) 0.0451(14) 0.0039(9) 0.0081(10) 0.0186(11)
loop_
_atom_type_symbol
_atom_type_description
_atom_type_scat_dispersion_real
_atom_type_scat_dispersion_imag
_atom_type_scat_source
C C 0.0033 0.0016 'International Tables Vol C Tables 4.2.6.8 and 6.1.1.4'
H H 0.0000 0.0000 'International Tables Vol C Tables 4.2.6.8 and 6.1.1.4'
O O 0.0106 0.0060 'International Tables Vol C Tables 4.2.6.8 and 6.1.1.4'
S S 0.1246 0.1234 'International Tables Vol C Tables 4.2.6.8 and 6.1.1.4'
loop_
_geom_angle_atom_site_label_1
_geom_angle_atom_site_label_2
_geom_angle_atom_site_label_3
_geom_angle
O2 S C1 106.42(9)
O2 S C15 107.19(10)
C1 S C15 98.28(10)
C7 O1 C8 106.40(14)
C8 C1 C2 107.57(17)
C8 C1 S 125.35(15)
C2 C1 S 126.67(14)
C7 C2 C3 118.79(18)
C7 C2 C1 104.81(16)
C3 C2 C1 136.38(19)
C4 C3 C2 117.8(2)
C4 C3 H3 121.1
C2 C3 H3 121.1
C3 C4 C5 121.8(2)
C3 C4 H4 119.1
C5 C4 H4 119.1
C6 C5 C4 121.76(19)
C6 C5 H5 119.1
C4 C5 H5 119.1
C7 C6 C5 115.5(2)
C7 C6 H6 122.3
C5 C6 H6 122.3
C6 C7 O1 125.00(18)
C6 C7 C2 124.38(18)
O1 C7 C2 110.62(16)
C1 C8 O1 110.58(16)
C1 C8 C9 134.62(17)
O1 C8 C9 114.80(16)
C14 C9 C10 118.74(18)
C14 C9 C8 121.25(17)
C10 C9 C8 119.95(18)
C11 C10 C9 120.4(2)
C11 C10 H10 119.8
C9 C10 H10 119.8
C10 C11 C12 120.3(2)
C10 C11 H11 119.8
C12 C11 H11 119.8
C13 C12 C11 119.9(2)
C13 C12 H12 120.1
C11 C12 H12 120.1
C12 C13 C14 120.2(2)
C12 C13 H13 119.9
C14 C13 H13 119.9
C13 C14 C9 120.40(19)
C13 C14 H14 119.8
C9 C14 H14 119.8
S C15 H15A 109.5
S C15 H15B 109.5
H15A C15 H15B 109.5
S C15 H15C 109.5
H15A C15 H15C 109.5
H15B C15 H15C 109.5
loop_
_geom_bond_atom_site_label_1
_geom_bond_atom_site_label_2
_geom_bond_distance
S O2 1.492(2)
S C1 1.769(2)
S C15 1.792(2)
O1 C7 1.384(2)
O1 C8 1.384(2)
C1 C8 1.358(3)
C1 C2 1.449(3)
C2 C7 1.394(3)
C2 C3 1.398(3)
C3 C4 1.381(3)
C3 H3 0.9500
C4 C5 1.394(3)
C4 H4 0.9500
C5 C6 1.383(3)
C5 H5 0.9500
C6 C7 1.383(3)
C6 H6 0.9500
C8 C9 1.461(3)
C9 C14 1.396(3)
C9 C10 1.400(3)
C10 C11 1.382(3)
C10 H10 0.9500
C11 C12 1.386(3)
C11 H11 0.9500
C12 C13 1.382(3)
C12 H12 0.9500
C13 C14 1.389(3)
C13 H13 0.9500
C14 H14 0.9500
C15 H15A 0.9800
C15 H15B 0.9800
C15 H15C 0.9800
loop_
_geom_hbond_atom_site_label_D
_geom_hbond_atom_site_label_H
_geom_hbond_atom_site_label_A
_geom_hbond_site_symmetry_A
_geom_hbond_distance_DH
_geom_hbond_distance_HA
_geom_hbond_distance_DA
_geom_hbond_angle_DHA
C15 H15C O2 2_666 0.98 2.34 3.290(3) 163.6
loop_
_geom_torsion_atom_site_label_1
_geom_torsion_atom_site_label_2
_geom_torsion_atom_site_label_3
_geom_torsion_atom_site_label_4
_geom_torsion
O2 S C1 C8 -130.84(18)
C15 S C1 C8 118.42(19)
O2 S C1 C2 40.85(19)
C15 S C1 C2 -69.89(19)
C8 C1 C2 C7 -1.0(2)
S C1 C2 C7 -173.87(15)
C8 C1 C2 C3 177.6(2)
S C1 C2 C3 4.7(3)
C7 C2 C3 C4 -1.6(3)
C1 C2 C3 C4 179.9(2)
C2 C3 C4 C5 0.8(3)
C3 C4 C5 C6 0.3(3)
C4 C5 C6 C7 -0.4(3)
C5 C6 C7 O1 179.56(18)
C5 C6 C7 C2 -0.5(3)
C8 O1 C7 C6 -179.69(19)
C8 O1 C7 C2 0.3(2)
C3 C2 C7 C6 1.5(3)
C1 C2 C7 C6 -179.59(19)
C3 C2 C7 O1 -178.49(16)
C1 C2 C7 O1 0.4(2)
C2 C1 C8 O1 1.2(2)
S C1 C8 O1 174.25(13)
C2 C1 C8 C9 -178.8(2)
S C1 C8 C9 -5.8(3)
C7 O1 C8 C1 -1.0(2)
C7 O1 C8 C9 179.06(16)
C1 C8 C9 C14 -38.8(3)
O1 C8 C9 C14 141.18(18)
C1 C8 C9 C10 144.1(2)
O1 C8 C9 C10 -36.0(3)
C14 C9 C10 C11 0.0(3)
C8 C9 C10 C11 177.18(19)
C9 C10 C11 C12 -0.3(3)
C10 C11 C12 C13 0.7(4)
C11 C12 C13 C14 -0.9(3)
C12 C13 C14 C9 0.5(3)
C10 C9 C14 C13 -0.1(3)
C8 C9 C14 C13 -177.25(18)
