#------------------------------------------------------------------------------
#$Date: 2017-10-13 11:42:48 +0300 (Fri, 13 Oct 2017) $
#$Revision: 201978 $
#$URL: file:///home/coder/svn-repositories/cod/cif/2/22/29/2222969.cif $
#------------------------------------------------------------------------------
#
# This file is available in the Crystallography Open Database (COD),
# http://www.crystallography.net/. The original data for this entry
# were provided by IUCr Journals, http://journals.iucr.org/.
#
# The file may be used within the scientific community so long as
# proper attribution is given to the journal article from which the
# data were obtained.
#
data_2222969
loop_
_publ_author_name
'Lv, Lu-Ping'
'Yu, Tie-Ming'
'Yu, Wen-Bo'
'Li, Wei-Wei'
'Hu, Xian-Chao'
_publ_section_title
;
 <i>N</i>'-(2-Furylmethylene)acetohydrazide
;
_journal_coeditor_code           BG2291
_journal_issue                   9
_journal_name_full               'Acta Crystallographica Section E'
_journal_page_first              o2272
_journal_paper_doi               10.1107/S1600536809033571
_journal_volume                  65
_journal_year                    2009
_chemical_formula_iupac          'C7 H8 N2 O2'
_chemical_formula_moiety         'C7 H8 N2 O2'
_chemical_formula_sum            'C7 H8 N2 O2'
_chemical_formula_weight         152.15
_chemical_name_systematic
;
<i>N</i>'-(2-Furylmethylene)acetohydrazide
;
_space_group_IT_number           2
_symmetry_cell_setting           triclinic
_symmetry_space_group_name_Hall  '-P 1'
_symmetry_space_group_name_H-M   'P -1'
_atom_sites_solution_hydrogens   geom
_atom_sites_solution_primary     direct
_atom_sites_solution_secondary   difmap
_audit_creation_method           SHELXL-97
_cell_angle_alpha                112.069(15)
_cell_angle_beta                 98.135(16)
_cell_angle_gamma                101.945(11)
_cell_formula_units_Z            2
_cell_length_a                   4.4618(13)
_cell_length_b                   9.275(3)
_cell_length_c                   10.541(4)
_cell_measurement_reflns_used    1400
_cell_measurement_temperature    223(2)
_cell_measurement_theta_max      25.5
_cell_measurement_theta_min      2.2
_cell_volume                     383.8(2)
_computing_cell_refinement       'SAINT (Bruker, 2002)'
_computing_data_collection       'SMART (Bruker, 2002)'
_computing_data_reduction        'SAINT (Bruker, 2002)'
_computing_molecular_graphics    'SHELXTL (Sheldrick, 2008)'
_computing_publication_material  'SHELXTL (Sheldrick, 2008)'
_computing_structure_refinement  'SHELXL97 (Sheldrick, 2008)'
_computing_structure_solution    'SHELXS97 (Sheldrick, 2008)'
_diffrn_ambient_temperature      223(2)
_diffrn_measured_fraction_theta_full 0.973
_diffrn_measured_fraction_theta_max 0.973
_diffrn_measurement_device_type  'Bruker SMART CCD area-detector'
_diffrn_measurement_method       '\f and \w'
_diffrn_radiation_monochromator  graphite
_diffrn_radiation_source         'fine-focus sealed tube'
_diffrn_radiation_type           MoK\a
_diffrn_radiation_wavelength     0.71073
_diffrn_reflns_av_R_equivalents  0.0229
_diffrn_reflns_av_sigmaI/netI    0.0380
_diffrn_reflns_limit_h_max       5
_diffrn_reflns_limit_h_min       -5
_diffrn_reflns_limit_k_max       11
_diffrn_reflns_limit_k_min       -11
_diffrn_reflns_limit_l_max       12
_diffrn_reflns_limit_l_min       -12
_diffrn_reflns_number            2182
_diffrn_reflns_theta_full        25.50
_diffrn_reflns_theta_max         25.50
_diffrn_reflns_theta_min         2.15
_exptl_absorpt_coefficient_mu    0.099
_exptl_absorpt_correction_T_max  0.9822
_exptl_absorpt_correction_T_min  0.9784
_exptl_absorpt_correction_type   multi-scan
_exptl_absorpt_process_details   '(SADABS; Bruker, 2002)'
_exptl_crystal_colour            colourless
_exptl_crystal_density_diffrn    1.317
_exptl_crystal_density_method    'not measured'
_exptl_crystal_description       Block
_exptl_crystal_F_000             160
_exptl_crystal_size_max          0.19
_exptl_crystal_size_mid          0.17
_exptl_crystal_size_min          0.16
_refine_diff_density_max         0.185
_refine_diff_density_min         -0.182
_refine_ls_extinction_method     none
_refine_ls_goodness_of_fit_ref   0.954
_refine_ls_hydrogen_treatment    constr
_refine_ls_matrix_type           full
_refine_ls_number_parameters     101
_refine_ls_number_reflns         1400
_refine_ls_number_restraints     0
_refine_ls_restrained_S_all      0.954
_refine_ls_R_factor_all          0.0772
_refine_ls_R_factor_gt           0.0508
_refine_ls_shift/su_max          0.000
_refine_ls_shift/su_mean         0.000
_refine_ls_structure_factor_coef Fsqd
_refine_ls_weighting_details
'calc w=1/[\s^2^(Fo^2^)+(0.1191P)^2^] where P=(Fo^2^+2Fc^2^)/3'
_refine_ls_weighting_scheme      calc
_refine_ls_wR_factor_gt          0.1567
_refine_ls_wR_factor_ref         0.1744
_reflns_number_gt                918
_reflns_number_total             1400
_reflns_threshold_expression     I>2\s(I)
_cod_data_source_file            bg2291.cif
_cod_data_source_block           I
_cod_depositor_comments
;
The following automatic conversions were performed:
'_symmetry_cell_setting' value 'Triclinic' changed to 'triclinic'
according to '/home/saulius/struct/CIF-dictionaries/cif_core.dic'
dictionary named 'cif_core.dic' version 2.4.1 from 2010-06-29.

Automatic conversion script
Id: cif_fix_enum 1527 2010-12-29 10:47:43Z saulius 

The following automatic conversions were performed:

'_symmetry_cell_setting' value 'Triclinic' changed to 'triclinic'
according to /home/saulius/struct/CIF-dictionaries/cif_core.dic
dictionary named 'cif_core.dic' version 2.4.1 from 2010-06-29.

Automatic conversion script
Id: cif_fix_values 1715 2011-07-08 13:25:40Z adriana 
;
_cod_database_code               2222969
_cod_database_fobs_code          2222969
loop_
_symmetry_equiv_pos_as_xyz
'x, y, z'
'-x, -y, -z'
loop_
_atom_site_type_symbol
_atom_site_label
_atom_site_fract_x
_atom_site_fract_y
_atom_site_fract_z
_atom_site_U_iso_or_equiv
_atom_site_adp_type
_atom_site_calc_flag
_atom_site_refinement_flags
_atom_site_occupancy
_atom_site_disorder_assembly
_atom_site_disorder_group
O O1 0.5605(4) 0.02737(18) 0.15111(17) 0.0701(6) Uani d . 1 . .
O O2 -0.0574(4) 0.58652(17) 0.37154(16) 0.0608(5) Uani d . 1 . .
C C6 0.0623(5) 0.4844(2) 0.3031(2) 0.0495(6) Uani d . 1 . .
C C5 0.4180(5) 0.2017(2) 0.3531(2) 0.0505(6) Uani d . 1 . .
H H5 0.4064 0.2313 0.4465 0.061 Uiso calc R 1 . .
C C4 0.5534(5) 0.0730(3) 0.2899(2) 0.0518(6) Uani d . 1 . .
C C3 0.6756(6) -0.0219(3) 0.3396(3) 0.0699(7) Uani d . 1 . .
H H3 0.6993 -0.0158 0.4307 0.084 Uiso calc R 1 . .
C C2 0.7615(7) -0.1334(3) 0.2251(4) 0.0826(9) Uani d . 1 . .
H H2 0.8504 -0.2151 0.2268 0.099 Uiso calc R 1 . .
C C7 0.0863(7) 0.4567(3) 0.1567(3) 0.0774(8) Uani d . 1 . .
H H7A 0.0404 0.5436 0.1365 0.116 Uiso calc R 1 . .
H H7B -0.0622 0.3557 0.0911 0.116 Uiso calc R 1 . .
H H7C 0.2963 0.4531 0.1481 0.116 Uiso calc R 1 . .
C C1 0.6908(7) -0.0983(3) 0.1166(3) 0.0850(9) Uani d . 1 . .
H H1 0.7253 -0.1522 0.0282 0.102 Uiso calc R 1 . .
N N2 0.1808(4) 0.39408(19) 0.36019(18) 0.0499(5) Uani d . 1 . .
H H2A 0.1737 0.4099 0.4454 0.060 Uiso calc R 1 . .
N N1 0.3127(4) 0.27748(19) 0.28617(18) 0.0487(5) Uani d . 1 . .
loop_
_atom_site_aniso_label
_atom_site_aniso_U_11
_atom_site_aniso_U_22
_atom_site_aniso_U_33
_atom_site_aniso_U_12
_atom_site_aniso_U_13
_atom_site_aniso_U_23
O1 0.0859(12) 0.0630(10) 0.0655(11) 0.0438(9) 0.0226(9) 0.0178(8)
O2 0.0828(12) 0.0579(9) 0.0577(10) 0.0425(9) 0.0275(8) 0.0258(7)
C6 0.0587(13) 0.0462(11) 0.0482(12) 0.0236(10) 0.0167(10) 0.0186(9)
C5 0.0532(13) 0.0525(12) 0.0532(12) 0.0233(11) 0.0170(10) 0.0241(10)
C4 0.0512(13) 0.0504(12) 0.0594(13) 0.0210(10) 0.0180(10) 0.0240(10)
C3 0.0702(16) 0.0672(15) 0.094(2) 0.0355(13) 0.0237(14) 0.0469(14)
C2 0.0707(17) 0.0558(15) 0.130(3) 0.0367(13) 0.0245(17) 0.0383(17)
C7 0.117(2) 0.0843(17) 0.0598(15) 0.0623(17) 0.0354(15) 0.0384(13)
C1 0.091(2) 0.0633(16) 0.091(2) 0.0469(16) 0.0227(16) 0.0084(14)
N2 0.0627(12) 0.0505(10) 0.0475(10) 0.0313(9) 0.0216(9) 0.0214(8)
N1 0.0533(11) 0.0457(10) 0.0530(11) 0.0244(8) 0.0182(8) 0.0195(8)
loop_
_atom_type_symbol
_atom_type_description
_atom_type_scat_dispersion_real
_atom_type_scat_dispersion_imag
_atom_type_scat_source
C C 0.0033 0.0016 'International Tables Vol C Tables 4.2.6.8 and 6.1.1.4'
H H 0.0000 0.0000 'International Tables Vol C Tables 4.2.6.8 and 6.1.1.4'
N N 0.0061 0.0033 'International Tables Vol C Tables 4.2.6.8 and 6.1.1.4'
O O 0.0106 0.0060 'International Tables Vol C Tables 4.2.6.8 and 6.1.1.4'
loop_
_geom_angle_atom_site_label_1
_geom_angle_atom_site_label_2
_geom_angle_atom_site_label_3
_geom_angle_site_symmetry_1
_geom_angle_site_symmetry_3
_geom_angle
_geom_angle_publ_flag
C1 O1 C4 . . 106.4(2) ?
O2 C6 N2 . . 120.26(19) ?
O2 C6 C7 . . 122.07(19) ?
N2 C6 C7 . . 117.66(19) ?
N1 C5 C4 . . 122.5(2) ?
N1 C5 H5 . . 118.7 ?
C4 C5 H5 . . 118.7 ?
C3 C4 O1 . . 109.4(2) ?
C3 C4 C5 . . 132.4(2) ?
O1 C4 C5 . . 118.18(19) ?
C4 C3 C2 . . 106.5(2) ?
C4 C3 H3 . . 126.8 ?
C2 C3 H3 . . 126.8 ?
C1 C2 C3 . . 106.7(2) ?
C1 C2 H2 . . 126.6 ?
C3 C2 H2 . . 126.6 ?
C6 C7 H7A . . 109.5 ?
C6 C7 H7B . . 109.5 ?
H7A C7 H7B . . 109.5 ?
C6 C7 H7C . . 109.5 ?
H7A C7 H7C . . 109.5 ?
H7B C7 H7C . . 109.5 ?
C2 C1 O1 . . 111.0(2) ?
C2 C1 H1 . . 124.5 ?
O1 C1 H1 . . 124.5 ?
C6 N2 N1 . . 121.83(18) ?
C6 N2 H2A . . 119.1 ?
N1 N2 H2A . . 119.1 ?
C5 N1 N2 . . 115.38(18) ?
loop_
_geom_bond_atom_site_label_1
_geom_bond_atom_site_label_2
_geom_bond_site_symmetry_2
_geom_bond_distance
_geom_bond_publ_flag
O1 C1 . 1.361(3) ?
O1 C4 . 1.369(3) ?
O2 C6 . 1.228(2) ?
C6 N2 . 1.347(3) ?
C6 C7 . 1.490(3) ?
C5 N1 . 1.276(3) ?
C5 C4 . 1.431(3) ?
C5 H5 . 0.9300 ?
C4 C3 . 1.345(3) ?
C3 C2 . 1.425(4) ?
C3 H3 . 0.9300 ?
C2 C1 . 1.317(4) ?
C2 H2 . 0.9300 ?
C7 H7A . 0.9600 ?
C7 H7B . 0.9600 ?
C7 H7C . 0.9600 ?
C1 H1 . 0.9300 ?
N2 N1 . 1.373(2) ?
N2 H2A . 0.8600 ?
loop_
_geom_hbond_atom_site_label_D
_geom_hbond_atom_site_label_H
_geom_hbond_atom_site_label_A
_geom_hbond_site_symmetry_A
_geom_hbond_distance_DH
_geom_hbond_distance_HA
_geom_hbond_distance_DA
_geom_hbond_angle_DHA
_geom_hbond_publ_flag
N2 H2A O2 2_566 0.86 2.06 2.904(3) 167.3 yes
loop_
_geom_torsion_atom_site_label_1
_geom_torsion_atom_site_label_2
_geom_torsion_atom_site_label_3
_geom_torsion_atom_site_label_4
_geom_torsion_site_symmetry_1
_geom_torsion_site_symmetry_2
_geom_torsion_site_symmetry_3
_geom_torsion_site_symmetry_4
_geom_torsion
_geom_torsion_publ_flag
C1 O1 C4 C3 . . . . 0.0(3) ?
C1 O1 C4 C5 . . . . -178.3(2) ?
N1 C5 C4 C3 . . . . -179.8(2) ?
N1 C5 C4 O1 . . . . -1.9(3) ?
O1 C4 C3 C2 . . . . -0.4(3) ?
C5 C4 C3 C2 . . . . 177.6(2) ?
C4 C3 C2 C1 . . . . 0.7(3) ?
C3 C2 C1 O1 . . . . -0.8(3) ?
C4 O1 C1 C2 . . . . 0.5(3) ?
O2 C6 N2 N1 . . . . 179.19(17) ?
C7 C6 N2 N1 . . . . -1.6(3) ?
C4 C5 N1 N2 . . . . 177.93(17) ?
C6 N2 N1 C5 . . . . 179.50(19) ?
loop_
_cod_related_entry_id
_cod_related_entry_database
_cod_related_entry_code
1 ChemSpider 4787083
