#------------------------------------------------------------------------------
#$Date: 2017-10-13 11:42:48 +0300 (Fri, 13 Oct 2017) $
#$Revision: 201978 $
#$URL: file:///home/coder/svn-repositories/cod/cif/2/22/53/2225350.cif $
#------------------------------------------------------------------------------
#
# This file is available in the Crystallography Open Database (COD),
# http://www.crystallography.net/. The original data for this entry
# were provided by IUCr Journals, http://journals.iucr.org/.
#
# The file may be used within the scientific community so long as
# proper attribution is given to the journal article from which the
# data were obtained.
#
data_2225350
loop_
_publ_author_name
'Khan, Salman Tariq'
'Yu, Peng'
'Hua, Erbin'
'Ali, Syed Nawazish'
'Nisa, Mehrun'
_publ_section_title
;
 3-Methyl-1<i>H</i>-pyrrolo[2,1-<i>c</i>][1,4]oxazin-1-one
;
_journal_coeditor_code           PV2260
_journal_issue                   3
_journal_name_full               'Acta Crystallographica Section E'
_journal_page_first              o711
_journal_paper_doi               10.1107/S1600536810006951
_journal_volume                  66
_journal_year                    2010
_chemical_formula_iupac          'C8 H7 N O2'
_chemical_formula_moiety         'C8 H7 N O2'
_chemical_formula_sum            'C8 H7 N O2'
_chemical_formula_weight         149.15
_chemical_name_systematic
;
3-Methyl-1<i>H</i>-pyrrolo[2,1-<i>c</i>][1,4]oxazin-1-one
;
_space_group_IT_number           14
_symmetry_cell_setting           monoclinic
_symmetry_space_group_name_Hall  '-P 2ybc'
_symmetry_space_group_name_H-M   'P 1 21/c 1'
_atom_sites_solution_hydrogens   geom
_atom_sites_solution_primary     direct
_atom_sites_solution_secondary   difmap
_audit_creation_method           SHELXL-97
_cell_angle_alpha                90.00
_cell_angle_beta                 112.866(8)
_cell_angle_gamma                90.00
_cell_formula_units_Z            4
_cell_length_a                   6.915(4)
_cell_length_b                   15.502(8)
_cell_length_c                   7.024(4)
_cell_measurement_reflns_used    2364
_cell_measurement_temperature    113(2)
_cell_measurement_theta_max      27.9
_cell_measurement_theta_min      3.1
_cell_volume                     693.8(7)
_computing_cell_refinement       'CrystalClear (Rigaku, 2005)'
_computing_data_collection       'CrystalClear (Rigaku, 2005)'
_computing_data_reduction        'CrystalClear (Rigaku, 2005)'
_computing_molecular_graphics    'PLATON (Spek, 2009)'
_computing_publication_material  'CrystalClear (Rigaku, 2005)'
_computing_structure_refinement  'SHELXL97 (Sheldrick, 2008)'
_computing_structure_solution    'SHELXS97 (Sheldrick, 2008)'
_diffrn_ambient_temperature      113(2)
_diffrn_detector_area_resol_mean 14.63
_diffrn_measured_fraction_theta_full 0.998
_diffrn_measured_fraction_theta_max 0.998
_diffrn_measurement_device_type  'Rigaku Saturn CCD area-detector'
_diffrn_measurement_method       '\w and \f scans'
_diffrn_radiation_monochromator  multilayer
_diffrn_radiation_source         'rotating anode'
_diffrn_radiation_type           MoK\a
_diffrn_radiation_wavelength     0.71073
_diffrn_reflns_av_R_equivalents  0.0439
_diffrn_reflns_av_sigmaI/netI    0.0413
_diffrn_reflns_limit_h_max       8
_diffrn_reflns_limit_h_min       -8
_diffrn_reflns_limit_k_max       18
_diffrn_reflns_limit_k_min       -12
_diffrn_reflns_limit_l_max       8
_diffrn_reflns_limit_l_min       -8
_diffrn_reflns_number            4630
_diffrn_reflns_theta_full        25.01
_diffrn_reflns_theta_max         25.01
_diffrn_reflns_theta_min         3.41
_diffrn_standards_decay_%        0
_diffrn_standards_interval_count 0
_diffrn_standards_interval_time  0
_diffrn_standards_number         0
_exptl_absorpt_coefficient_mu    0.104
_exptl_absorpt_correction_T_max  0.9917
_exptl_absorpt_correction_T_min  0.9674
_exptl_absorpt_correction_type   multi-scan
_exptl_absorpt_process_details   '(CrystalClear; Rigaku, 2005)'
_exptl_crystal_colour            Colorless
_exptl_crystal_density_diffrn    1.428
_exptl_crystal_density_method    'not measured'
_exptl_crystal_description       Prism
_exptl_crystal_F_000             312
_exptl_crystal_size_max          0.32
_exptl_crystal_size_mid          0.28
_exptl_crystal_size_min          0.08
_refine_diff_density_max         0.228
_refine_diff_density_min         -0.188
_refine_ls_extinction_coef       0.025(6)
_refine_ls_extinction_expression Fc^*^=kFc[1+0.001xFc^2^\l^3^/sin(2\q)]^-1/4^
_refine_ls_extinction_method     'SHELXL97 (Sheldrick, 2008)'
_refine_ls_goodness_of_fit_ref   1.012
_refine_ls_hydrogen_treatment    constr
_refine_ls_matrix_type           full
_refine_ls_number_parameters     102
_refine_ls_number_reflns         1223
_refine_ls_number_restraints     0
_refine_ls_restrained_S_all      1.012
_refine_ls_R_factor_all          0.0411
_refine_ls_R_factor_gt           0.0347
_refine_ls_shift/su_max          0.002
_refine_ls_shift/su_mean         0.000
_refine_ls_structure_factor_coef Fsqd
_refine_ls_weighting_details
'calc w=1/[\s^2^(Fo^2^)+(0.0505P)^2^] where P=(Fo^2^+2Fc^2^)/3'
_refine_ls_weighting_scheme      calc
_refine_ls_wR_factor_gt          0.0887
_refine_ls_wR_factor_ref         0.0907
_reflns_number_gt                957
_reflns_number_total             1223
_reflns_threshold_expression     I>2\s(I)
_cod_data_source_file            pv2260.cif
_cod_data_source_block           I
_cod_depositor_comments
;
The following automatic conversions were performed:
'_symmetry_cell_setting' value 'Monoclinic' changed to 'monoclinic'
according to '/home/saulius/struct/CIF-dictionaries/cif_core.dic'
dictionary named 'cif_core.dic' version 2.4.1 from 2010-06-29.

Automatic conversion script
Id: cif_fix_enum 1527 2010-12-29 10:47:43Z saulius 

The following automatic conversions were performed:

'_symmetry_cell_setting' value 'Monoclinic' changed to 'monoclinic'
according to /home/saulius/struct/CIF-dictionaries/cif_core.dic
dictionary named 'cif_core.dic' version 2.4.1 from 2010-06-29.

Automatic conversion script
Id: cif_fix_values 1715 2011-07-08 13:25:40Z adriana 
;
_cod_original_cell_volume        693.8(6)
_cod_original_sg_symbol_H-M      'P 21/c'
_cod_database_code               2225350
_cod_database_fobs_code          2225350
loop_
_symmetry_equiv_pos_as_xyz
'x, y, z'
'-x, y+1/2, -z+1/2'
'-x, -y, -z'
'x, -y-1/2, z-1/2'
loop_
_atom_site_type_symbol
_atom_site_label
_atom_site_fract_x
_atom_site_fract_y
_atom_site_fract_z
_atom_site_U_iso_or_equiv
_atom_site_adp_type
_atom_site_calc_flag
_atom_site_refinement_flags
_atom_site_occupancy
_atom_site_disorder_assembly
_atom_site_disorder_group
O O1 0.45807(13) 0.61029(5) 0.34499(13) 0.0259(3) Uani d . 1 . .
O O2 0.78058(13) 0.65952(7) 0.42312(15) 0.0384(3) Uani d . 1 . .
N N1 0.29846(17) 0.77385(7) 0.30630(16) 0.0221(3) Uani d . 1 . .
C C1 0.2544(2) 0.85965(8) 0.2913(2) 0.0287(4) Uani d . 1 . .
H H1 0.1204 0.8847 0.2615 0.034 Uiso calc R 1 . .
C C2 0.4378(2) 0.90383(9) 0.32687(19) 0.0323(4) Uani d . 1 . .
H H2 0.4525 0.9647 0.3252 0.039 Uiso calc R 1 . .
C C3 0.5987(2) 0.84336(9) 0.3659(2) 0.0304(4) Uani d . 1 . .
H H3 0.7423 0.8555 0.3960 0.037 Uiso calc R 1 . .
C C4 0.5104(2) 0.76289(8) 0.35257(18) 0.0237(4) Uani d . 1 . .
C C5 0.5972(2) 0.67754(8) 0.3770(2) 0.0250(4) Uani d . 1 . .
C C6 0.24605(19) 0.62433(8) 0.30253(19) 0.0228(3) Uani d . 1 . .
C C7 0.1665(2) 0.70294(8) 0.28336(19) 0.0235(3) Uani d . 1 . .
H H7 0.0216 0.7111 0.2544 0.028 Uiso calc R 1 . .
C C8 0.1316(2) 0.54197(8) 0.2877(2) 0.0316(4) Uani d . 1 . .
H H8A -0.0147 0.5542 0.2654 0.047 Uiso calc R 1 . .
H H8B 0.1981 0.5093 0.4162 0.047 Uiso calc R 1 . .
H H8C 0.1357 0.5080 0.1716 0.047 Uiso calc R 1 . .
loop_
_atom_site_aniso_label
_atom_site_aniso_U_11
_atom_site_aniso_U_22
_atom_site_aniso_U_33
_atom_site_aniso_U_12
_atom_site_aniso_U_13
_atom_site_aniso_U_23
O1 0.0236(5) 0.0252(5) 0.0306(5) 0.0023(4) 0.0125(4) 0.0013(4)
O2 0.0227(6) 0.0449(7) 0.0502(7) 0.0045(4) 0.0170(5) 0.0071(5)
N1 0.0238(6) 0.0216(6) 0.0213(6) 0.0004(4) 0.0093(4) 0.0011(4)
C1 0.0359(8) 0.0227(7) 0.0276(7) 0.0059(6) 0.0123(6) 0.0015(6)
C2 0.0449(10) 0.0223(7) 0.0268(8) -0.0076(7) 0.0110(7) -0.0004(6)
C3 0.0296(8) 0.0338(8) 0.0265(7) -0.0083(6) 0.0093(6) 0.0009(6)
C4 0.0212(7) 0.0299(8) 0.0197(7) -0.0018(6) 0.0076(5) 0.0018(6)
C5 0.0225(8) 0.0307(8) 0.0235(7) -0.0006(6) 0.0108(6) 0.0024(6)
C6 0.0187(7) 0.0289(8) 0.0212(7) -0.0003(6) 0.0081(5) -0.0003(6)
C7 0.0197(7) 0.0258(7) 0.0254(7) -0.0008(6) 0.0091(5) 0.0006(6)
C8 0.0307(8) 0.0250(7) 0.0375(8) -0.0026(6) 0.0114(7) -0.0009(6)
loop_
_atom_type_symbol
_atom_type_description
_atom_type_scat_dispersion_real
_atom_type_scat_dispersion_imag
_atom_type_scat_source
C C 0.0033 0.0016 'International Tables Vol C Tables 4.2.6.8 and 6.1.1.4'
H H 0.0000 0.0000 'International Tables Vol C Tables 4.2.6.8 and 6.1.1.4'
N N 0.0061 0.0033 'International Tables Vol C Tables 4.2.6.8 and 6.1.1.4'
O O 0.0106 0.0060 'International Tables Vol C Tables 4.2.6.8 and 6.1.1.4'
loop_
_geom_angle_atom_site_label_1
_geom_angle_atom_site_label_2
_geom_angle_atom_site_label_3
_geom_angle_site_symmetry_1
_geom_angle_site_symmetry_3
_geom_angle
_geom_angle_publ_flag
C5 O1 C6 . . 121.78(10) ?
C1 N1 C4 . . 108.89(11) ?
C1 N1 C7 . . 130.07(12) ?
C4 N1 C7 . . 121.03(11) ?
N1 C1 C2 . . 108.03(13) ?
N1 C1 H1 . . 126.0 ?
C2 C1 H1 . . 126.0 ?
C1 C2 C3 . . 108.01(13) ?
C1 C2 H2 . . 126.0 ?
C3 C2 H2 . . 126.0 ?
C4 C3 C2 . . 107.21(13) ?
C4 C3 H3 . . 126.4 ?
C2 C3 H3 . . 126.4 ?
C3 C4 N1 . . 107.85(12) ?
C3 C4 C5 . . 132.32(14) ?
N1 C4 C5 . . 119.83(11) ?
O2 C5 O1 . . 117.45(12) ?
O2 C5 C4 . . 126.13(12) ?
O1 C5 C4 . . 116.42(12) ?
C7 C6 O1 . . 121.79(12) ?
C7 C6 C8 . . 126.58(13) ?
O1 C6 C8 . . 111.61(11) ?
C6 C7 N1 . . 119.06(13) ?
C6 C7 H7 . . 120.5 ?
N1 C7 H7 . . 120.5 ?
C6 C8 H8A . . 109.5 ?
C6 C8 H8B . . 109.5 ?
H8A C8 H8B . . 109.5 ?
C6 C8 H8C . . 109.5 ?
H8A C8 H8C . . 109.5 ?
H8B C8 H8C . . 109.5 ?
loop_
_geom_bond_atom_site_label_1
_geom_bond_atom_site_label_2
_geom_bond_site_symmetry_2
_geom_bond_distance
_geom_bond_publ_flag
O1 C5 . 1.3767(16) ?
O1 C6 . 1.3950(17) ?
O2 C5 . 1.2128(16) ?
N1 C1 . 1.3596(18) ?
N1 C4 . 1.3826(19) ?
N1 C7 . 1.3976(18) ?
C1 C2 . 1.376(2) ?
C1 H1 . 0.9500 ?
C2 C3 . 1.398(2) ?
C2 H2 . 0.9500 ?
C3 C4 . 1.3761(19) ?
C3 H3 . 0.9500 ?
C4 C5 . 1.4356(19) ?
C6 C7 . 1.3223(19) ?
C6 C8 . 1.4844(18) ?
C7 H7 . 0.9500 ?
C8 H8A . 0.9800 ?
C8 H8B . 0.9800 ?
C8 H8C . 0.9800 ?
loop_
_geom_hbond_atom_site_label_D
_geom_hbond_atom_site_label_H
_geom_hbond_atom_site_label_A
_geom_hbond_site_symmetry_A
_geom_hbond_distance_DH
_geom_hbond_distance_HA
_geom_hbond_distance_DA
_geom_hbond_angle_DHA
C7 H7 O2 1_455 0.95 2.52 3.252(3) 134
loop_
_geom_torsion_atom_site_label_1
_geom_torsion_atom_site_label_2
_geom_torsion_atom_site_label_3
_geom_torsion_atom_site_label_4
_geom_torsion_site_symmetry_1
_geom_torsion_site_symmetry_2
_geom_torsion_site_symmetry_3
_geom_torsion_site_symmetry_4
_geom_torsion
_geom_torsion_publ_flag
C4 N1 C1 C2 . . . . 0.31(14) ?
C7 N1 C1 C2 . . . . 179.99(12) ?
N1 C1 C2 C3 . . . . -0.36(16) ?
C1 C2 C3 C4 . . . . 0.26(16) ?
C2 C3 C4 N1 . . . . -0.07(15) ?
C2 C3 C4 C5 . . . . 179.84(13) ?
C1 N1 C4 C3 . . . . -0.15(14) ?
C7 N1 C4 C3 . . . . -179.86(11) ?
C1 N1 C4 C5 . . . . 179.92(12) ?
C7 N1 C4 C5 . . . . 0.22(18) ?
C6 O1 C5 O2 . . . . 176.42(11) ?
C6 O1 C5 C4 . . . . -3.46(18) ?
C3 C4 C5 O2 . . . . 2.3(3) ?
N1 C4 C5 O2 . . . . -177.76(12) ?
C3 C4 C5 O1 . . . . -177.79(13) ?
N1 C4 C5 O1 . . . . 2.12(18) ?
C5 O1 C6 C7 . . . . 2.52(18) ?
C5 O1 C6 C8 . . . . -176.31(11) ?
O1 C6 C7 N1 . . . . 0.00(19) ?
C8 C6 C7 N1 . . . . 178.64(12) ?
C1 N1 C7 C6 . . . . 179.04(12) ?
C4 N1 C7 C6 . . . . -1.32(18) ?
loop_
_cod_related_entry_id
_cod_related_entry_database
_cod_related_entry_code
1 ChemSpider 24744575
