#------------------------------------------------------------------------------
#$Date: 2017-10-13 12:31:46 +0300 (Fri, 13 Oct 2017) $
#$Revision: 201979 $
#$URL: file:///home/coder/svn-repositories/cod/cif/2/23/16/2231628.cif $
#------------------------------------------------------------------------------
#
# This file is available in the Crystallography Open Database (COD),
# http://www.crystallography.net/. The original data for this entry
# were provided by IUCr Journals, http://journals.iucr.org/.
#
# The file may be used within the scientific community so long as
# proper attribution is given to the journal article from which the
# data were obtained.
#
data_2231628
loop_
_publ_author_name
'Nirmala, P. G.'
'Foro, Sabine'
'Gowda, B. Thimme'
_publ_section_title
;
 <i>N</i>-(4-Chlorophenylsulfonyl)-2-methylpropanamide
;
_journal_coeditor_code           NC2243
_journal_issue                   9
_journal_name_full               'Acta Crystallographica Section E'
_journal_page_first              o2274
_journal_paper_doi               10.1107/S1600536811031394
_journal_volume                  67
_journal_year                    2011
_chemical_formula_iupac          'C10 H12 Cl N O3 S'
_chemical_formula_moiety         'C10 H12 Cl N O3 S'
_chemical_formula_sum            'C10 H12 Cl N O3 S'
_chemical_formula_weight         261.72
_chemical_name_systematic
;
<i>N</i>-(4-Chlorophenylsulfonyl)-2-methylpropanamide
;
_space_group_IT_number           2
_symmetry_cell_setting           triclinic
_symmetry_space_group_name_Hall  '-P 1'
_symmetry_space_group_name_H-M   'P -1'
_atom_sites_solution_hydrogens   geom
_atom_sites_solution_primary     direct
_atom_sites_solution_secondary   difmap
_audit_creation_method           SHELXL-97
_cell_angle_alpha                70.150(2)
_cell_angle_beta                 79.160(2)
_cell_angle_gamma                86.010(2)
_cell_formula_units_Z            2
_cell_length_a                   6.2070(10)
_cell_length_b                   10.395(3)
_cell_length_c                   10.497(3)
_cell_measurement_reflns_used    1240
_cell_measurement_temperature    293(2)
_cell_measurement_theta_max      27.83
_cell_measurement_theta_min      3.32
_cell_volume                     625.7(3)
_computing_cell_refinement
;
CrysAlis RED (Oxford Diffraction, 2009)
;
_computing_data_collection
;
CrysAlis CCD (Oxford Diffraction, 2009)
;
_computing_data_reduction
;
CrysAlis RED (Oxford Diffraction, 2009)
;
_computing_molecular_graphics    'PLATON (Spek, 2009)'
_computing_publication_material  'SHELXL97 (Sheldrick, 2008)'
_computing_structure_refinement  'SHELXL97 (Sheldrick, 2008)'
_computing_structure_solution    'SHELXS97 (Sheldrick, 2008)'
_diffrn_ambient_temperature      293(2)
_diffrn_measured_fraction_theta_full 0.969
_diffrn_measured_fraction_theta_max 0.969
_diffrn_measurement_device_type
;
Oxford Diffraction Xcalibur diffractometer
with a Sapphire CCD detector
;
_diffrn_measurement_method
;
Rotation method data acquisition using \w and \f
;
_diffrn_radiation_monochromator  graphite
_diffrn_radiation_source         'fine-focus sealed tube'
_diffrn_radiation_type           MoK\a
_diffrn_radiation_wavelength     0.71073
_diffrn_reflns_av_R_equivalents  0.0136
_diffrn_reflns_av_sigmaI/netI    0.0224
_diffrn_reflns_limit_h_max       7
_diffrn_reflns_limit_h_min       -7
_diffrn_reflns_limit_k_max       12
_diffrn_reflns_limit_k_min       -12
_diffrn_reflns_limit_l_max       13
_diffrn_reflns_limit_l_min       -13
_diffrn_reflns_number            3846
_diffrn_reflns_theta_full        26.37
_diffrn_reflns_theta_max         26.37
_diffrn_reflns_theta_min         3.34
_diffrn_standards_decay_%        0
_diffrn_standards_number         0
_exptl_absorpt_coefficient_mu    0.463
_exptl_absorpt_correction_T_max  0.9639
_exptl_absorpt_correction_T_min  0.8151
_exptl_absorpt_correction_type   multi-scan
_exptl_absorpt_process_details
;
CrysAlis RED (Oxford Diffraction, 2009)
;
_exptl_crystal_colour            colourless
_exptl_crystal_density_diffrn    1.389
_exptl_crystal_density_method    'not measured'
_exptl_crystal_description       plate
_exptl_crystal_F_000             272
_exptl_crystal_size_max          0.46
_exptl_crystal_size_mid          0.20
_exptl_crystal_size_min          0.08
_refine_diff_density_max         0.283
_refine_diff_density_min         -0.311
_refine_ls_extinction_method     none
_refine_ls_goodness_of_fit_ref   1.193
_refine_ls_hydrogen_treatment    mixed
_refine_ls_matrix_type           full
_refine_ls_number_parameters     148
_refine_ls_number_reflns         2476
_refine_ls_number_restraints     1
_refine_ls_restrained_S_all      1.193
_refine_ls_R_factor_all          0.0896
_refine_ls_R_factor_gt           0.0602
_refine_ls_shift/su_max          0.001
_refine_ls_shift/su_mean         0.000
_refine_ls_structure_factor_coef Fsqd
_refine_ls_weighting_details
'calc w=1/[\s^2^(Fo^2^)+(0.0233P)^2^+0.6320P] where P=(Fo^2^+2Fc^2^)/3'
_refine_ls_weighting_scheme      calc
_refine_ls_wR_factor_gt          0.1110
_refine_ls_wR_factor_ref         0.1262
_reflns_number_gt                1842
_reflns_number_total             2476
_reflns_threshold_expression     I>2sigma(I)
_cod_data_source_file            nc2243.cif
_cod_data_source_block           I
_cod_database_code               2231628
_cod_database_fobs_code          2231628
loop_
_symmetry_equiv_pos_as_xyz
'x, y, z'
'-x, -y, -z'
loop_
_atom_site_type_symbol
_atom_site_label
_atom_site_fract_x
_atom_site_fract_y
_atom_site_fract_z
_atom_site_U_iso_or_equiv
_atom_site_adp_type
_atom_site_calc_flag
_atom_site_refinement_flags
_atom_site_occupancy
_atom_site_symmetry_multiplicity
C C1 0.1905(5) 0.2375(3) 0.9043(3) 0.0475(7) Uani d . 1 1
C C2 -0.0001(6) 0.2717(4) 0.8506(4) 0.0610(9) Uani d . 1 1
H H2 -0.0818 0.3477 0.8593 0.073 Uiso calc R 1 1
C C3 -0.0683(6) 0.1930(4) 0.7844(4) 0.0670(10) Uani d . 1 1
H H3 -0.1957 0.2156 0.7468 0.080 Uiso calc R 1 1
C C4 0.0535(7) 0.0805(3) 0.7742(4) 0.0638(10) Uani d . 1 1
C C5 0.2423(7) 0.0456(4) 0.8278(4) 0.0709(11) Uani d . 1 1
H H5 0.3221 -0.0315 0.8207 0.085 Uiso calc R 1 1
C C6 0.3124(6) 0.1255(3) 0.8920(4) 0.0612(9) Uani d . 1 1
H H6 0.4421 0.1040 0.9271 0.073 Uiso calc R 1 1
C C7 0.4540(6) 0.5278(4) 0.7543(4) 0.0578(9) Uani d . 1 1
C C8 0.4194(7) 0.6715(4) 0.6608(4) 0.0716(11) Uani d . 1 1
H H8 0.3561 0.7263 0.7187 0.086 Uiso calc R 1 1
C C9 0.2542(9) 0.6652(6) 0.5756(5) 0.1190(19) Uani d . 1 1
H H9A 0.1202 0.6271 0.6350 0.143 Uiso calc R 1 1
H H9B 0.3103 0.6089 0.5208 0.143 Uiso calc R 1 1
H H9C 0.2265 0.7558 0.5165 0.143 Uiso calc R 1 1
C C10 0.6291(10) 0.7353(6) 0.5780(6) 0.151(3) Uani d . 1 1
H H10A 0.6959 0.6822 0.5219 0.182 Uiso calc R 1 1
H H10B 0.7258 0.7386 0.6383 0.182 Uiso calc R 1 1
H H10C 0.6015 0.8265 0.5202 0.182 Uiso calc R 1 1
N N1 0.3069(5) 0.4914(3) 0.8767(3) 0.0560(7) Uani d D 1 1
H H1N 0.200(4) 0.541(3) 0.892(4) 0.067 Uiso d D 1 1
O O1 0.0960(4) 0.3525(3) 1.0924(2) 0.0729(7) Uani d . 1 1
O O2 0.4794(4) 0.2850(3) 1.0314(3) 0.0714(7) Uani d . 1 1
O O3 0.5885(4) 0.4482(3) 0.7273(3) 0.0863(9) Uani d . 1 1
Cl Cl1 -0.0354(3) -0.01843(12) 0.69033(14) 0.1076(5) Uani d . 1 1
S S1 0.27563(15) 0.33738(9) 0.99054(9) 0.0559(3) Uani d . 1 1
loop_
_atom_site_aniso_label
_atom_site_aniso_U_11
_atom_site_aniso_U_22
_atom_site_aniso_U_33
_atom_site_aniso_U_12
_atom_site_aniso_U_13
_atom_site_aniso_U_23
C1 0.0524(18) 0.0386(16) 0.0429(17) 0.0085(14) -0.0084(14) -0.0043(13)
C2 0.055(2) 0.056(2) 0.074(2) 0.0148(16) -0.0162(18) -0.0244(18)
C3 0.063(2) 0.063(2) 0.072(2) 0.0024(18) -0.0210(19) -0.014(2)
C4 0.090(3) 0.0428(19) 0.053(2) -0.0118(18) -0.0140(19) -0.0066(16)
C5 0.095(3) 0.0419(19) 0.077(3) 0.0201(19) -0.026(2) -0.0180(18)
C6 0.068(2) 0.0471(19) 0.070(2) 0.0184(17) -0.0255(19) -0.0175(17)
C7 0.052(2) 0.059(2) 0.059(2) 0.0048(17) -0.0146(17) -0.0148(17)
C8 0.086(3) 0.062(2) 0.057(2) 0.007(2) -0.012(2) -0.0084(18)
C9 0.146(5) 0.114(4) 0.095(4) 0.039(4) -0.060(4) -0.020(3)
C10 0.123(5) 0.128(5) 0.133(5) -0.026(4) -0.001(4) 0.041(4)
N1 0.0637(19) 0.0447(16) 0.0567(17) 0.0105(13) -0.0102(15) -0.0155(13)
O1 0.0929(19) 0.0657(16) 0.0489(14) 0.0221(14) -0.0029(13) -0.0142(12)
O2 0.0769(17) 0.0681(16) 0.0755(17) 0.0171(13) -0.0381(14) -0.0221(13)
O3 0.0719(18) 0.087(2) 0.0815(19) 0.0296(15) -0.0026(15) -0.0156(16)
Cl1 0.1677(13) 0.0641(7) 0.1053(9) -0.0180(7) -0.0502(9) -0.0294(6)
S1 0.0676(6) 0.0489(5) 0.0494(5) 0.0139(4) -0.0159(4) -0.0140(4)
loop_
_atom_type_symbol
_atom_type_description
_atom_type_scat_dispersion_real
_atom_type_scat_dispersion_imag
_atom_type_scat_source
C C 0.0033 0.0016 'International Tables Vol C Tables 4.2.6.8 and 6.1.1.4'
H H 0.0000 0.0000 'International Tables Vol C Tables 4.2.6.8 and 6.1.1.4'
N N 0.0061 0.0033 'International Tables Vol C Tables 4.2.6.8 and 6.1.1.4'
O O 0.0106 0.0060 'International Tables Vol C Tables 4.2.6.8 and 6.1.1.4'
Cl Cl 0.1484 0.1585 'International Tables Vol C Tables 4.2.6.8 and 6.1.1.4'
S S 0.1246 0.1234 'International Tables Vol C Tables 4.2.6.8 and 6.1.1.4'
loop_
_geom_angle_atom_site_label_1
_geom_angle_atom_site_label_2
_geom_angle_atom_site_label_3
_geom_angle
C6 C1 C2 120.7(3)
C6 C1 S1 119.9(3)
C2 C1 S1 119.4(2)
C3 C2 C1 119.5(3)
C3 C2 H2 120.2
C1 C2 H2 120.2
C2 C3 C4 119.2(3)
C2 C3 H3 120.4
C4 C3 H3 120.4
C5 C4 C3 121.5(3)
C5 C4 Cl1 119.8(3)
C3 C4 Cl1 118.7(3)
C6 C5 C4 119.2(3)
C6 C5 H5 120.4
C4 C5 H5 120.4
C5 C6 C1 119.8(3)
C5 C6 H6 120.1
C1 C6 H6 120.1
O3 C7 N1 121.2(3)
O3 C7 C8 125.4(3)
N1 C7 C8 113.3(3)
C10 C8 C9 113.5(4)
C10 C8 C7 111.6(4)
C9 C8 C7 107.7(4)
C10 C8 H8 107.9
C9 C8 H8 107.9
C7 C8 H8 107.9
C8 C9 H9A 109.5
C8 C9 H9B 109.5
H9A C9 H9B 109.5
C8 C9 H9C 109.5
H9A C9 H9C 109.5
H9B C9 H9C 109.5
C8 C10 H10A 109.5
C8 C10 H10B 109.5
H10A C10 H10B 109.5
C8 C10 H10C 109.5
H10A C10 H10C 109.5
H10B C10 H10C 109.5
C7 N1 S1 125.8(2)
C7 N1 H1N 122(3)
S1 N1 H1N 110(3)
O2 S1 O1 119.07(16)
O2 S1 N1 110.56(16)
O1 S1 N1 103.75(15)
O2 S1 C1 108.79(15)
O1 S1 C1 108.78(17)
N1 S1 C1 104.95(15)
loop_
_geom_bond_atom_site_label_1
_geom_bond_atom_site_label_2
_geom_bond_distance
C1 C6 1.374(4)
C1 C2 1.378(4)
C1 S1 1.753(3)
C2 C3 1.370(5)
C2 H2 0.9300
C3 C4 1.372(5)
C3 H3 0.9300
C4 C5 1.368(5)
C4 Cl1 1.736(4)
C5 C6 1.368(5)
C5 H5 0.9300
C6 H6 0.9300
C7 O3 1.199(4)
C7 N1 1.380(4)
C7 C8 1.510(5)
C8 C10 1.481(6)
C8 C9 1.500(6)
C8 H8 0.9800
C9 H9A 0.9600
C9 H9B 0.9600
C9 H9C 0.9600
C10 H10A 0.9600
C10 H10B 0.9600
C10 H10C 0.9600
N1 S1 1.639(3)
N1 H1N 0.840(18)
O1 S1 1.433(2)
O2 S1 1.425(2)
loop_
_geom_hbond_atom_site_label_D
_geom_hbond_atom_site_label_H
_geom_hbond_atom_site_label_A
_geom_hbond_site_symmetry_A
_geom_hbond_distance_DH
_geom_hbond_distance_HA
_geom_hbond_distance_DA
_geom_hbond_angle_DHA
N1 H1N O1 2_567 0.840(18) 2.083(19) 2.912(4) 169(3)
loop_
_geom_torsion_atom_site_label_1
_geom_torsion_atom_site_label_2
_geom_torsion_atom_site_label_3
_geom_torsion_atom_site_label_4
_geom_torsion
C6 C1 C2 C3 0.0(5)
S1 C1 C2 C3 -179.3(3)
C1 C2 C3 C4 0.7(6)
C2 C3 C4 C5 -0.5(6)
C2 C3 C4 Cl1 179.9(3)
C3 C4 C5 C6 -0.6(6)
Cl1 C4 C5 C6 179.1(3)
C4 C5 C6 C1 1.4(6)
C2 C1 C6 C5 -1.1(5)
S1 C1 C6 C5 178.3(3)
O3 C7 C8 C10 -35.0(6)
N1 C7 C8 C10 147.5(4)
O3 C7 C8 C9 90.2(5)
N1 C7 C8 C9 -87.3(4)
O3 C7 N1 S1 -7.0(5)
C8 C7 N1 S1 170.6(3)
C7 N1 S1 O2 54.8(3)
C7 N1 S1 O1 -176.4(3)
C7 N1 S1 C1 -62.3(3)
C6 C1 S1 O2 2.9(3)
C2 C1 S1 O2 -177.8(3)
C6 C1 S1 O1 -128.3(3)
C2 C1 S1 O1 51.1(3)
C6 C1 S1 N1 121.2(3)
C2 C1 S1 N1 -59.4(3)
loop_
_cod_related_entry_id
_cod_related_entry_database
_cod_related_entry_code
1 ChemSpider 30656963
