#------------------------------------------------------------------------------
#$Date: 2017-10-13 12:31:46 +0300 (Fri, 13 Oct 2017) $
#$Revision: 201979 $
#$URL: file:///home/coder/svn-repositories/cod/cif/2/23/18/2231810.cif $
#------------------------------------------------------------------------------
#
# This file is available in the Crystallography Open Database (COD),
# http://www.crystallography.net/. The original data for this entry
# were provided by IUCr Journals, http://journals.iucr.org/.
#
# The file may be used within the scientific community so long as
# proper attribution is given to the journal article from which the
# data were obtained.
#
data_2231810
loop_
_publ_author_name
'Fun, Hoong-Kun'
'Shahani, Tara'
'Garudachari, B.'
'Isloor, Arun M.'
'Shivananda, Kammasandra N.'
_publ_section_title
;
 2-(4-Chlorophenyl)-2-oxoethyl 4-hydroxybenzoate
;
_journal_coeditor_code           BQ2305
_journal_issue                   10
_journal_name_full               'Acta Crystallographica Section E'
_journal_page_first              o2682
_journal_paper_doi               10.1107/S1600536811037500
_journal_volume                  67
_journal_year                    2011
_chemical_formula_iupac          'C15 H11 Cl O4'
_chemical_formula_moiety         'C15 H11 Cl O4'
_chemical_formula_sum            'C15 H11 Cl O4'
_chemical_formula_weight         290.69
_chemical_name_systematic
;
2-(4-Chlorophenyl)-2-oxoethyl 4-hydroxybenzoate
;
_space_group_IT_number           4
_symmetry_cell_setting           monoclinic
_symmetry_space_group_name_Hall  'P 2yb'
_symmetry_space_group_name_H-M   'P 1 21 1'
_atom_sites_solution_hydrogens   geom
_atom_sites_solution_primary     direct
_atom_sites_solution_secondary   difmap
_audit_creation_method           SHELXL-97
_cell_angle_alpha                90.00
_cell_angle_beta                 95.120(4)
_cell_angle_gamma                90.00
_cell_formula_units_Z            2
_cell_length_a                   5.5307(10)
_cell_length_b                   8.1324(15)
_cell_length_c                   14.857(2)
_cell_measurement_reflns_used    1832
_cell_measurement_temperature    296(2)
_cell_measurement_theta_max      24.12
_cell_measurement_theta_min      3.70
_cell_volume                     665.57(19)
_computing_cell_refinement       'SAINT (Bruker, 2009)'
_computing_data_collection       'APEX2 (Bruker, 2009)'
_computing_data_reduction        'SAINT (Bruker, 2009'
_computing_molecular_graphics    'SHELXTL (Sheldrick, 2008)'
_computing_publication_material
;
SHELXTL (Sheldrick, 2008) and PLATON (Spek, 2009)
;
_computing_structure_refinement  'SHELXTL (Sheldrick, 2008)'
_computing_structure_solution    'SHELXTL (Sheldrick, 2008)'
_diffrn_ambient_temperature      296(2)
_diffrn_measured_fraction_theta_full 0.995
_diffrn_measured_fraction_theta_max 0.995
_diffrn_measurement_device_type
;
Bruker APEXII DUO CCD area-detector
;
_diffrn_measurement_method       '\f and \w'
_diffrn_radiation_monochromator  graphite
_diffrn_radiation_source         'fine-focus sealed tube'
_diffrn_radiation_type           MoK\a
_diffrn_radiation_wavelength     0.71073
_diffrn_reflns_av_R_equivalents  0.0265
_diffrn_reflns_av_sigmaI/netI    0.0457
_diffrn_reflns_limit_h_max       7
_diffrn_reflns_limit_h_min       -5
_diffrn_reflns_limit_k_max       11
_diffrn_reflns_limit_k_min       -11
_diffrn_reflns_limit_l_max       20
_diffrn_reflns_limit_l_min       -20
_diffrn_reflns_number            6399
_diffrn_reflns_theta_full        30.00
_diffrn_reflns_theta_max         30.00
_diffrn_reflns_theta_min         2.75
_diffrn_standards_number         0
_exptl_absorpt_coefficient_mu    0.297
_exptl_absorpt_correction_T_max  0.9807
_exptl_absorpt_correction_T_min  0.8524
_exptl_absorpt_correction_type   multi-scan
_exptl_absorpt_process_details   '(<i>SADABS</i>; Bruker, 2009)'
_exptl_crystal_colour            colourless
_exptl_crystal_density_diffrn    1.450
_exptl_crystal_density_method    'not measured'
_exptl_crystal_description       plate
_exptl_crystal_F_000             300
_exptl_crystal_size_max          0.56
_exptl_crystal_size_mid          0.23
_exptl_crystal_size_min          0.07
_refine_diff_density_max         0.199
_refine_diff_density_min         -0.213
_refine_ls_abs_structure_details 'Flack (1983), 1511 Friedel pairs'
_refine_ls_abs_structure_Flack   -0.20(8)
_refine_ls_extinction_method     none
_refine_ls_goodness_of_fit_ref   1.021
_refine_ls_hydrogen_treatment    mixed
_refine_ls_matrix_type           full
_refine_ls_number_parameters     186
_refine_ls_number_reflns         3571
_refine_ls_number_restraints     1
_refine_ls_restrained_S_all      1.021
_refine_ls_R_factor_all          0.0713
_refine_ls_R_factor_gt           0.0443
_refine_ls_shift/su_max          0.001
_refine_ls_shift/su_mean         0.001
_refine_ls_structure_factor_coef Fsqd
_refine_ls_weighting_details
'calc w=1/[\s^2^(Fo^2^)+(0.0346P)^2^+0.0709P] where P=(Fo^2^+2Fc^2^)/3'
_refine_ls_weighting_scheme      calc
_refine_ls_wR_factor_gt          0.0929
_refine_ls_wR_factor_ref         0.1057
_reflns_number_gt                2457
_reflns_number_total             3571
_reflns_threshold_expression     I>2\s(I)
_cod_data_source_file            bq2305.cif
_cod_data_source_block           I
_cod_original_sg_symbol_H-M      'P 21'
_cod_database_code               2231810
_cod_database_fobs_code          2231810
loop_
_symmetry_equiv_pos_as_xyz
'x, y, z'
'-x, y+1/2, -z'
loop_
_atom_site_type_symbol
_atom_site_label
_atom_site_fract_x
_atom_site_fract_y
_atom_site_fract_z
_atom_site_U_iso_or_equiv
_atom_site_adp_type
_atom_site_calc_flag
_atom_site_refinement_flags
_atom_site_occupancy
_atom_site_symmetry_multiplicity
Cl Cl1 0.97678(16) 1.71550(10) 0.56971(5) 0.0916(3) Uani d . 1 1
O O1 0.4790(3) 0.9949(3) 0.66410(13) 0.0797(5) Uani d . 1 1
O O2 0.7288(3) 0.81404(19) 0.79114(12) 0.0616(4) Uani d . 1 1
O O3 0.4559(4) 0.95006(19) 0.86448(13) 0.0700(5) Uani d . 1 1
O O4 0.2024(3) 0.2039(2) 0.93940(13) 0.0633(4) Uani d . 1 1
C C1 0.6002(4) 1.3072(3) 0.60310(14) 0.0559(5) Uani d . 1 1
H H1A 0.4508 1.2636 0.5815 0.067 Uiso calc R 1 1
C C2 0.6676(5) 1.4603(4) 0.57413(16) 0.0634(6) Uani d . 1 1
H H2A 0.5650 1.5196 0.5331 0.076 Uiso calc R 1 1
C C3 0.8875(5) 1.5239(3) 0.60661(15) 0.0579(6) Uani d . 1 1
C C4 1.0422(4) 1.4387(3) 0.66746(16) 0.0587(6) Uani d . 1 1
H H4A 1.1905 1.4837 0.6893 0.070 Uiso calc R 1 1
C C5 0.9738(4) 1.2856(3) 0.69547(15) 0.0548(5) Uani d . 1 1
H H5A 1.0778 1.2268 0.7362 0.066 Uiso calc R 1 1
C C6 0.7520(4) 1.2176(3) 0.66383(12) 0.0466(4) Uani d . 1 1
C C7 0.6694(4) 1.0548(3) 0.69417(15) 0.0544(5) Uani d . 1 1
C C8 0.8296(4) 0.9684(3) 0.76653(18) 0.0609(6) Uani d . 1 1
H H8A 0.9879 0.9496 0.7451 0.073 Uiso calc R 1 1
H H8B 0.8517 1.0382 0.8195 0.073 Uiso calc R 1 1
C C9 0.5374(4) 0.8211(3) 0.84121(15) 0.0521(5) Uani d . 1 1
C C10 0.4532(4) 0.6572(3) 0.86395(13) 0.0458(5) Uani d . 1 1
C C11 0.2512(4) 0.6426(3) 0.91413(14) 0.0535(5) Uani d . 1 1
H H11A 0.1713 0.7367 0.9312 0.064 Uiso calc R 1 1
C C12 0.1709(4) 0.4916(3) 0.93820(14) 0.0565(6) Uani d . 1 1
H H12A 0.0353 0.4834 0.9707 0.068 Uiso calc R 1 1
C C13 0.2901(4) 0.3505(3) 0.91444(14) 0.0467(5) Uani d . 1 1
C C14 0.4930(4) 0.3639(3) 0.86646(15) 0.0520(5) Uani d . 1 1
H H14A 0.5763 0.2698 0.8516 0.062 Uiso calc R 1 1
C C15 0.5711(4) 0.5153(3) 0.84087(15) 0.0495(5) Uani d . 1 1
H H15A 0.7052 0.5229 0.8075 0.059 Uiso calc R 1 1
H H1O4 0.289(6) 0.135(5) 0.924(2) 0.083(11) Uiso d . 1 1
loop_
_atom_site_aniso_label
_atom_site_aniso_U_11
_atom_site_aniso_U_22
_atom_site_aniso_U_33
_atom_site_aniso_U_12
_atom_site_aniso_U_13
_atom_site_aniso_U_23
Cl1 0.1111(6) 0.0700(4) 0.0958(5) -0.0168(4) 0.0211(4) 0.0258(4)
O1 0.0787(12) 0.0704(12) 0.0853(11) -0.0250(11) -0.0197(9) 0.0065(11)
O2 0.0618(9) 0.0398(8) 0.0840(10) 0.0020(8) 0.0114(8) 0.0072(9)
O3 0.0857(12) 0.0393(9) 0.0855(12) 0.0051(9) 0.0107(10) -0.0103(9)
O4 0.0671(10) 0.0527(10) 0.0728(10) -0.0026(10) 0.0207(8) 0.0070(9)
C1 0.0540(12) 0.0605(15) 0.0527(11) 0.0018(12) 0.0012(9) 0.0002(12)
C2 0.0657(14) 0.0673(16) 0.0562(12) 0.0059(13) 0.0010(11) 0.0138(12)
C3 0.0674(14) 0.0545(13) 0.0546(11) -0.0056(12) 0.0208(10) 0.0081(11)
C4 0.0508(12) 0.0629(15) 0.0633(13) -0.0090(12) 0.0096(10) -0.0003(12)
C5 0.0509(11) 0.0545(13) 0.0587(12) -0.0006(11) 0.0032(9) 0.0043(11)
C6 0.0480(10) 0.0479(11) 0.0444(9) 0.0032(10) 0.0066(8) -0.0032(10)
C7 0.0560(12) 0.0485(12) 0.0582(12) -0.0018(11) 0.0018(10) -0.0061(11)
C8 0.0563(12) 0.0468(13) 0.0788(15) -0.0019(11) 0.0014(11) 0.0101(12)
C9 0.0566(12) 0.0415(12) 0.0567(12) 0.0036(11) -0.0031(10) -0.0033(11)
C10 0.0485(10) 0.0385(10) 0.0499(11) 0.0024(9) 0.0009(8) -0.0027(9)
C11 0.0536(12) 0.0481(12) 0.0595(12) 0.0093(10) 0.0085(10) -0.0084(11)
C12 0.0519(12) 0.0622(15) 0.0568(12) 0.0049(12) 0.0128(9) -0.0031(12)
C13 0.0510(11) 0.0441(11) 0.0451(10) -0.0010(10) 0.0052(9) 0.0012(9)
C14 0.0580(12) 0.0401(12) 0.0594(12) 0.0063(10) 0.0128(10) -0.0010(10)
C15 0.0489(11) 0.0435(11) 0.0569(11) 0.0025(11) 0.0101(9) -0.0013(11)
loop_
_atom_type_symbol
_atom_type_description
_atom_type_scat_dispersion_real
_atom_type_scat_dispersion_imag
_atom_type_scat_source
C C 0.0033 0.0016 'International Tables Vol C Tables 4.2.6.8 and 6.1.1.4'
H H 0.0000 0.0000 'International Tables Vol C Tables 4.2.6.8 and 6.1.1.4'
O O 0.0106 0.0060 'International Tables Vol C Tables 4.2.6.8 and 6.1.1.4'
Cl Cl 0.1484 0.1585 'International Tables Vol C Tables 4.2.6.8 and 6.1.1.4'
loop_
_geom_angle_atom_site_label_1
_geom_angle_atom_site_label_2
_geom_angle_atom_site_label_3
_geom_angle
C9 O2 C8 116.48(19)
C13 O4 H1O4 108(2)
C2 C1 C6 120.9(2)
C2 C1 H1A 119.5
C6 C1 H1A 119.5
C3 C2 C1 119.2(2)
C3 C2 H2A 120.4
C1 C2 H2A 120.4
C2 C3 C4 121.5(2)
C2 C3 Cl1 119.7(2)
C4 C3 Cl1 118.8(2)
C3 C4 C5 118.9(2)
C3 C4 H4A 120.5
C5 C4 H4A 120.5
C4 C5 C6 121.1(2)
C4 C5 H5A 119.5
C6 C5 H5A 119.5
C1 C6 C5 118.5(2)
C1 C6 C7 118.9(2)
C5 C6 C7 122.6(2)
O1 C7 C6 122.0(2)
O1 C7 C8 120.9(2)
C6 C7 C8 117.15(19)
O2 C8 C7 111.9(2)
O2 C8 H8A 109.2
C7 C8 H8A 109.2
O2 C8 H8B 109.2
C7 C8 H8B 109.2
H8A C8 H8B 107.9
O3 C9 O2 121.8(2)
O3 C9 C10 126.4(2)
O2 C9 C10 111.78(19)
C15 C10 C11 118.4(2)
C15 C10 C9 122.44(19)
C11 C10 C9 119.07(19)
C12 C11 C10 120.6(2)
C12 C11 H11A 119.7
C10 C11 H11A 119.7
C11 C12 C13 120.35(19)
C11 C12 H12A 119.8
C13 C12 H12A 119.8
O4 C13 C12 118.0(2)
O4 C13 C14 122.5(2)
C12 C13 C14 119.5(2)
C15 C14 C13 120.2(2)
C15 C14 H14A 119.9
C13 C14 H14A 119.9
C14 C15 C10 120.92(19)
C14 C15 H15A 119.5
C10 C15 H15A 119.5
loop_
_geom_bond_atom_site_label_1
_geom_bond_atom_site_label_2
_geom_bond_distance
Cl1 C3 1.738(3)
O1 C7 1.209(3)
O2 C9 1.349(3)
O2 C8 1.434(3)
O3 C9 1.204(3)
O4 C13 1.351(3)
O4 H1O4 0.79(3)
C1 C2 1.380(4)
C1 C6 1.383(3)
C1 H1A 0.9300
C2 C3 1.369(4)
C2 H2A 0.9300
C3 C4 1.375(4)
C4 C5 1.376(3)
C4 H4A 0.9300
C5 C6 1.389(3)
C5 H5A 0.9300
C6 C7 1.483(3)
C7 C8 1.505(3)
C8 H8A 0.9700
C8 H8B 0.9700
C9 C10 1.461(3)
C10 C15 1.384(3)
C10 C11 1.402(3)
C11 C12 1.364(4)
C11 H11A 0.9300
C12 C13 1.385(3)
C12 H12A 0.9300
C13 C14 1.386(3)
C14 C15 1.370(3)
C14 H14A 0.9300
C15 H15A 0.9300
loop_
_geom_hbond_atom_site_label_D
_geom_hbond_atom_site_label_H
_geom_hbond_atom_site_label_A
_geom_hbond_site_symmetry_A
_geom_hbond_distance_DH
_geom_hbond_distance_HA
_geom_hbond_distance_DA
_geom_hbond_angle_DHA
_geom_hbond_publ_flag
O4 H1O4 O3 1_545 0.78(4) 2.01(4) 2.783(3) 168(3) yes
loop_
_geom_torsion_atom_site_label_1
_geom_torsion_atom_site_label_2
_geom_torsion_atom_site_label_3
_geom_torsion_atom_site_label_4
_geom_torsion
C6 C1 C2 C3 -0.3(3)
C1 C2 C3 C4 -0.1(4)
C1 C2 C3 Cl1 179.18(18)
C2 C3 C4 C5 0.5(3)
Cl1 C3 C4 C5 -178.78(17)
C3 C4 C5 C6 -0.5(3)
C2 C1 C6 C5 0.3(3)
C2 C1 C6 C7 178.9(2)
C4 C5 C6 C1 0.1(3)
C4 C5 C6 C7 -178.4(2)
C1 C6 C7 O1 3.7(3)
C5 C6 C7 O1 -177.8(2)
C1 C6 C7 C8 -174.6(2)
C5 C6 C7 C8 4.0(3)
C9 O2 C8 C7 -73.7(3)
O1 C7 C8 O2 0.8(3)
C6 C7 C8 O2 179.02(18)
C8 O2 C9 O3 -0.4(3)
C8 O2 C9 C10 -178.72(19)
O3 C9 C10 C15 -174.2(2)
O2 C9 C10 C15 4.1(3)
O3 C9 C10 C11 3.2(3)
O2 C9 C10 C11 -178.51(18)
C15 C10 C11 C12 -1.1(3)
C9 C10 C11 C12 -178.6(2)
C10 C11 C12 C13 0.9(3)
C11 C12 C13 O4 -179.6(2)
C11 C12 C13 C14 0.4(3)
O4 C13 C14 C15 178.4(2)
C12 C13 C14 C15 -1.6(3)
C13 C14 C15 C10 1.4(3)
C11 C10 C15 C14 -0.1(3)
C9 C10 C15 C14 177.3(2)
loop_
_cod_related_entry_id
_cod_related_entry_database
_cod_related_entry_code
1 ChemSpider 1231381
