#------------------------------------------------------------------------------
#$Date: 2017-10-13 12:31:46 +0300 (Fri, 13 Oct 2017) $
#$Revision: 201979 $
#$URL: file:///home/coder/svn-repositories/cod/cif/2/23/25/2232503.cif $
#------------------------------------------------------------------------------
#
# This file is available in the Crystallography Open Database (COD),
# http://www.crystallography.net/. The original data for this entry
# were provided by IUCr Journals, http://journals.iucr.org/.
#
# The file may be used within the scientific community so long as
# proper attribution is given to the journal article from which the
# data were obtained.
#
data_2232503
loop_
_publ_author_name
'Fan, Zheng'
'Huang, Yan-Lan'
'Tong, Fang'
'Huang, Yi-Wei'
'Shan, Shang'
_publ_section_title
;
 Methyl (<i>E</i>)-3-(2-bromo-4,5-dimethoxybenzylidene)dithiocarbazate
;
_journal_coeditor_code           XU5332
_journal_issue                   11
_journal_name_full               'Acta Crystallographica Section E'
_journal_page_first              o2919
_journal_paper_doi               10.1107/S1600536811039304
_journal_volume                  67
_journal_year                    2011
_chemical_formula_iupac          'C11 H13 Br N2 O2 S2'
_chemical_formula_moiety         'C11 H13 Br N2 O2 S2'
_chemical_formula_sum            'C11 H13 Br N2 O2 S2'
_chemical_formula_weight         349.26
_chemical_name_systematic
;
Methyl (<i>E</i>)-3-(2-bromo-4,5-dimethoxybenzylidene)dithiocarbazate
;
_space_group_IT_number           2
_symmetry_cell_setting           triclinic
_symmetry_space_group_name_Hall  '-P 1'
_symmetry_space_group_name_H-M   'P -1'
_atom_sites_solution_hydrogens   geom
_atom_sites_solution_primary     direct
_atom_sites_solution_secondary   difmap
_audit_creation_method           SHELXL-97
_cell_angle_alpha                102.347(3)
_cell_angle_beta                 100.930(4)
_cell_angle_gamma                101.874(4)
_cell_formula_units_Z            2
_cell_length_a                   5.2460(12)
_cell_length_b                   11.781(5)
_cell_length_c                   12.400(5)
_cell_measurement_reflns_used    2553
_cell_measurement_temperature    293(2)
_cell_measurement_theta_max      25.2
_cell_measurement_theta_min      2.8
_cell_volume                     710.4(4)
_computing_cell_refinement       'PROCESS-AUTO (Rigaku, 1998)'
_computing_data_collection       'PROCESS-AUTO (Rigaku, 1998)'
_computing_data_reduction        'CrystalStructure (Rigaku/MSC, 2002)'
_computing_molecular_graphics    'ORTEP-3 for Windows (Farrugia, 1997)'
_computing_publication_material  'WinGX (Farrugia, 1999)'
_computing_structure_refinement  'SHELXL97 (Sheldrick, 2008)'
_computing_structure_solution    'SIR92 (Altomare <i>et al.</i>, 1993)'
_diffrn_ambient_temperature      294(2)
_diffrn_detector_area_resol_mean 10.0
_diffrn_measured_fraction_theta_full 0.999
_diffrn_measured_fraction_theta_max 0.999
_diffrn_measurement_device_type  'Rigaku R-AXIS RAPID IP'
_diffrn_measurement_method       \w
_diffrn_radiation_monochromator  graphite
_diffrn_radiation_source         'fine-focus sealed tube'
_diffrn_radiation_type           MoK\a
_diffrn_radiation_wavelength     0.71073
_diffrn_reflns_av_R_equivalents  0.0261
_diffrn_reflns_av_sigmaI/netI    0.0389
_diffrn_reflns_limit_h_max       6
_diffrn_reflns_limit_h_min       -5
_diffrn_reflns_limit_k_max       11
_diffrn_reflns_limit_k_min       -14
_diffrn_reflns_limit_l_max       14
_diffrn_reflns_limit_l_min       -14
_diffrn_reflns_number            5185
_diffrn_reflns_theta_full        25.20
_diffrn_reflns_theta_max         25.20
_diffrn_reflns_theta_min         2.83
_exptl_absorpt_coefficient_mu    3.182
_exptl_absorpt_correction_T_max  0.82
_exptl_absorpt_correction_T_min  0.73
_exptl_absorpt_correction_type   multi-scan
_exptl_absorpt_process_details   '(ABSCOR; Higashi, 1995)'
_exptl_crystal_colour            colorless
_exptl_crystal_density_diffrn    1.633
_exptl_crystal_density_method    'not measured'
_exptl_crystal_description       prism
_exptl_crystal_F_000             352
_exptl_crystal_size_max          0.42
_exptl_crystal_size_mid          0.28
_exptl_crystal_size_min          0.25
_refine_diff_density_max         0.320
_refine_diff_density_min         -0.353
_refine_ls_extinction_method     none
_refine_ls_goodness_of_fit_ref   1.022
_refine_ls_hydrogen_treatment    constr
_refine_ls_matrix_type           full
_refine_ls_number_parameters     166
_refine_ls_number_reflns         2553
_refine_ls_number_restraints     0
_refine_ls_restrained_S_all      1.022
_refine_ls_R_factor_all          0.0493
_refine_ls_R_factor_gt           0.0345
_refine_ls_shift/su_max          0.001
_refine_ls_shift/su_mean         0.000
_refine_ls_structure_factor_coef Fsqd
_refine_ls_weighting_details
'calc w=1/[\s^2^(Fo^2^)+(0.037P)^2^] where P=(Fo^2^+2Fc^2^)/3'
_refine_ls_weighting_scheme      calc
_refine_ls_wR_factor_gt          0.0735
_refine_ls_wR_factor_ref         0.0792
_reflns_number_gt                2051
_reflns_number_total             2553
_reflns_threshold_expression     I>2sigma(I)
_cod_data_source_file            xu5332.cif
_cod_data_source_block           I
_cod_database_code               2232503
_cod_database_fobs_code          2232503
loop_
_symmetry_equiv_pos_as_xyz
'x, y, z'
'-x, -y, -z'
loop_
_atom_site_type_symbol
_atom_site_label
_atom_site_fract_x
_atom_site_fract_y
_atom_site_fract_z
_atom_site_U_iso_or_equiv
_atom_site_adp_type
_atom_site_calc_flag
_atom_site_refinement_flags
_atom_site_occupancy
_atom_site_symmetry_multiplicity
Br Br 0.29930(7) 0.52287(3) 0.29304(3) 0.06212(15) Uani d . 1 1
S S1 1.14891(18) 0.35920(7) -0.09979(7) 0.0586(2) Uani d . 1 1
S S2 0.95417(16) 0.13601(7) -0.02534(7) 0.0499(2) Uani d . 1 1
N N1 0.7198(5) 0.2821(2) 0.11142(18) 0.0411(5) Uani d . 1 1
N N2 0.8444(5) 0.3398(2) 0.04224(18) 0.0438(6) Uani d . 1 1
H H2N 0.8360 0.4121 0.0428 0.053 Uiso calc R 1 1
O O1 0.3795(4) 0.0498(2) 0.38554(17) 0.0620(6) Uani d . 1 1
O O2 0.1403(4) 0.1803(2) 0.49916(17) 0.0676(6) Uani d . 1 1
C C1 0.3386(5) 0.3734(3) 0.3172(2) 0.0438(7) Uani d . 1 1
C C2 0.2229(5) 0.3338(3) 0.3994(2) 0.0487(7) Uani d . 1 1
H H2 0.1332 0.3810 0.4402 0.058 Uiso calc R 1 1
C C3 0.2405(6) 0.2269(3) 0.4200(2) 0.0480(7) Uani d . 1 1
C C4 0.3727(5) 0.1538(3) 0.3573(2) 0.0459(7) Uani d . 1 1
C C5 0.4848(5) 0.1938(3) 0.2762(2) 0.0424(7) Uani d . 1 1
H H5 0.5721 0.1457 0.2348 0.051 Uiso calc R 1 1
C C6 0.4722(5) 0.3035(2) 0.2539(2) 0.0399(6) Uani d . 1 1
C C7 0.6023(5) 0.3466(3) 0.1714(2) 0.0418(6) Uani d . 1 1
H H7 0.6001 0.4227 0.1621 0.050 Uiso calc R 1 1
C C8 0.9769(5) 0.2856(2) -0.0251(2) 0.0392(6) Uani d . 1 1
C C9 1.1501(7) 0.0933(3) -0.1230(3) 0.0603(9) Uani d . 1 1
H H9A 1.0899 0.1146 -0.1923 0.090 Uiso calc R 1 1
H H9B 1.1296 0.0081 -0.1393 0.090 Uiso calc R 1 1
H H9C 1.3358 0.1345 -0.0899 0.090 Uiso calc R 1 1
C C10 0.5363(7) -0.0214(3) 0.3356(3) 0.0635(9) Uani d . 1 1
H H10A 0.4618 -0.0497 0.2548 0.095 Uiso calc R 1 1
H H10B 0.5356 -0.0888 0.3675 0.095 Uiso calc R 1 1
H H10C 0.7174 0.0263 0.3506 0.095 Uiso calc R 1 1
C C11 0.0060(7) 0.2495(4) 0.5675(3) 0.0780(12) Uani d . 1 1
H H11A 0.1296 0.3245 0.6114 0.117 Uiso calc R 1 1
H H11B -0.0597 0.2057 0.6179 0.117 Uiso calc R 1 1
H H11C -0.1419 0.2648 0.5192 0.117 Uiso calc R 1 1
loop_
_atom_site_aniso_label
_atom_site_aniso_U_11
_atom_site_aniso_U_22
_atom_site_aniso_U_33
_atom_site_aniso_U_12
_atom_site_aniso_U_13
_atom_site_aniso_U_23
Br 0.0681(3) 0.0539(2) 0.0700(2) 0.02466(17) 0.02423(18) 0.01301(17)
S1 0.0871(6) 0.0518(5) 0.0646(5) 0.0304(4) 0.0508(5) 0.0325(4)
S2 0.0635(5) 0.0409(4) 0.0588(5) 0.0197(4) 0.0304(4) 0.0217(4)
N1 0.0497(14) 0.0445(14) 0.0364(12) 0.0116(11) 0.0202(11) 0.0177(11)
N2 0.0615(16) 0.0401(13) 0.0443(13) 0.0190(12) 0.0286(12) 0.0215(11)
O1 0.0794(16) 0.0694(15) 0.0599(13) 0.0274(12) 0.0413(12) 0.0352(12)
O2 0.0721(15) 0.0933(17) 0.0550(13) 0.0250(13) 0.0420(12) 0.0298(12)
C1 0.0391(16) 0.0493(17) 0.0406(15) 0.0114(13) 0.0083(13) 0.0083(13)
C2 0.0431(17) 0.070(2) 0.0359(15) 0.0200(15) 0.0177(13) 0.0067(15)
C3 0.0424(17) 0.070(2) 0.0361(15) 0.0117(15) 0.0180(13) 0.0177(15)
C4 0.0435(17) 0.0566(19) 0.0369(15) 0.0064(14) 0.0137(13) 0.0139(14)
C5 0.0459(17) 0.0515(18) 0.0346(14) 0.0148(14) 0.0190(13) 0.0112(13)
C6 0.0382(15) 0.0470(17) 0.0354(14) 0.0094(13) 0.0133(12) 0.0106(13)
C7 0.0481(17) 0.0421(16) 0.0391(15) 0.0117(13) 0.0159(13) 0.0142(13)
C8 0.0474(16) 0.0425(16) 0.0346(14) 0.0158(13) 0.0144(13) 0.0166(12)
C9 0.073(2) 0.0517(19) 0.073(2) 0.0287(17) 0.0390(18) 0.0213(17)
C10 0.083(2) 0.062(2) 0.064(2) 0.0289(19) 0.0369(19) 0.0264(17)
C11 0.067(2) 0.124(3) 0.0492(19) 0.024(2) 0.0377(18) 0.016(2)
loop_
_atom_type_symbol
_atom_type_description
_atom_type_scat_dispersion_real
_atom_type_scat_dispersion_imag
_atom_type_scat_source
C C 0.0033 0.0016 'International Tables Vol C Tables 4.2.6.8 and 6.1.1.4'
H H 0.0000 0.0000 'International Tables Vol C Tables 4.2.6.8 and 6.1.1.4'
N N 0.0061 0.0033 'International Tables Vol C Tables 4.2.6.8 and 6.1.1.4'
S S 0.1246 0.1234 'International Tables Vol C Tables 4.2.6.8 and 6.1.1.4'
Br Br -0.2901 2.4595 'International Tables Vol C Tables 4.2.6.8 and 6.1.1.4'
O O 0.0106 0.0060 'International Tables Vol C Tables 4.2.6.8 and 6.1.1.4'
loop_
_geom_angle_atom_site_label_1
_geom_angle_atom_site_label_2
_geom_angle_atom_site_label_3
_geom_angle
C8 S2 C9 101.93(13)
C7 N1 N2 113.4(2)
C8 N2 N1 121.0(2)
C8 N2 H2N 119.5
N1 N2 H2N 119.5
C4 O1 C10 118.1(2)
C3 O2 C11 117.8(3)
C2 C1 C6 120.9(3)
C2 C1 Br 117.3(2)
C6 C1 Br 121.8(2)
C3 C2 C1 120.3(3)
C3 C2 H2 119.8
C1 C2 H2 119.8
C2 C3 O2 125.5(3)
C2 C3 C4 120.3(2)
O2 C3 C4 114.2(3)
O1 C4 C5 126.1(3)
O1 C4 C3 115.1(2)
C5 C4 C3 118.7(3)
C4 C5 C6 122.3(3)
C4 C5 H5 118.9
C6 C5 H5 118.9
C5 C6 C1 117.5(2)
C5 C6 C7 121.5(2)
C1 C6 C7 121.0(3)
N1 C7 C6 121.3(3)
N1 C7 H7 119.3
C6 C7 H7 119.3
N2 C8 S1 120.9(2)
N2 C8 S2 114.23(19)
S1 C8 S2 124.83(16)
S2 C9 H9A 109.5
S2 C9 H9B 109.5
H9A C9 H9B 109.5
S2 C9 H9C 109.5
H9A C9 H9C 109.5
H9B C9 H9C 109.5
O1 C10 H10A 109.5
O1 C10 H10B 109.5
H10A C10 H10B 109.5
O1 C10 H10C 109.5
H10A C10 H10C 109.5
H10B C10 H10C 109.5
O2 C11 H11A 109.5
O2 C11 H11B 109.5
H11A C11 H11B 109.5
O2 C11 H11C 109.5
H11A C11 H11C 109.5
H11B C11 H11C 109.5
loop_
_geom_bond_atom_site_label_1
_geom_bond_atom_site_label_2
_geom_bond_distance
Br C1 1.893(3)
S1 C8 1.662(3)
S2 C8 1.741(3)
S2 C9 1.789(3)
N1 C7 1.280(3)
N1 N2 1.381(3)
N2 C8 1.328(3)
N2 H2N 0.8600
O1 C4 1.349(3)
O1 C10 1.421(4)
O2 C3 1.360(3)
O2 C11 1.431(4)
C1 C2 1.395(4)
C1 C6 1.398(4)
C2 C3 1.355(4)
C2 H2 0.9300
C3 C4 1.411(4)
C4 C5 1.376(4)
C5 C6 1.390(4)
C5 H5 0.9300
C6 C7 1.454(4)
C7 H7 0.9300
C9 H9A 0.9600
C9 H9B 0.9600
C9 H9C 0.9600
C10 H10A 0.9600
C10 H10B 0.9600
C10 H10C 0.9600
C11 H11A 0.9600
C11 H11B 0.9600
C11 H11C 0.9600
loop_
_geom_hbond_atom_site_label_D
_geom_hbond_atom_site_label_H
_geom_hbond_atom_site_label_A
_geom_hbond_site_symmetry_A
_geom_hbond_distance_DH
_geom_hbond_distance_HA
_geom_hbond_distance_DA
_geom_hbond_angle_DHA
N2 H2N S1 2_765 0.86 2.62 3.456(4) 166
loop_
_cod_related_entry_id
_cod_related_entry_database
_cod_related_entry_code
1 ChemSpider 30657169
