#------------------------------------------------------------------------------
#$Date: 2017-10-13 12:31:46 +0300 (Fri, 13 Oct 2017) $
#$Revision: 201979 $
#$URL: file:///home/coder/svn-repositories/cod/cif/2/23/32/2233273.cif $
#------------------------------------------------------------------------------
#
# This file is available in the Crystallography Open Database (COD),
# http://www.crystallography.net/. The original data for this entry
# were provided by IUCr Journals, http://journals.iucr.org/.
#
# The file may be used within the scientific community so long as
# proper attribution is given to the journal article from which the
# data were obtained.
#
data_2233273
loop_
_publ_author_name
'Yu, Jian Guang'
'Tang, Wei'
'Wang, De Cai'
'Xu, Hong'
_publ_section_title
;
 4-Chloro-1-methylindoline-2,3-dione
;
_journal_coeditor_code           PV2493
_journal_issue                   1
_journal_name_full               'Acta Crystallographica Section E'
_journal_page_first              o219
_journal_paper_doi               10.1107/S1600536811054171
_journal_volume                  68
_journal_year                    2012
_chemical_formula_iupac          'C9 H6 Cl N O2'
_chemical_formula_moiety         'C9 H6 Cl N O2'
_chemical_formula_sum            'C9 H6 Cl N O2'
_chemical_formula_weight         195.60
_chemical_name_systematic
;
4-Chloro-1-methylindoline-2,3-dione
;
_space_group_IT_number           14
_symmetry_cell_setting           monoclinic
_symmetry_space_group_name_Hall  '-P 2ybc'
_symmetry_space_group_name_H-M   'P 1 21/c 1'
_atom_sites_solution_hydrogens   geom
_atom_sites_solution_primary     direct
_atom_sites_solution_secondary   difmap
_audit_creation_method           SHELXL-97
_cell_angle_alpha                90.00
_cell_angle_beta                 90.27(3)
_cell_angle_gamma                90.00
_cell_formula_units_Z            4
_cell_length_a                   7.4890(15)
_cell_length_b                   14.825(3)
_cell_length_c                   7.3140(15)
_cell_measurement_reflns_used    25
_cell_measurement_temperature    293(2)
_cell_measurement_theta_max      12
_cell_measurement_theta_min      9
_cell_volume                     812.0(3)
_computing_cell_refinement       'CAD-4 EXPRESS (Enraf--Nonius, 1994)'
_computing_data_collection       'CAD-4 EXPRESS (Enraf--Nonius, 1994)'
_computing_data_reduction        'XCAD4 (Harms & Wocadlo, 1995)'
_computing_molecular_graphics    'SHELXTL (Sheldrick, 2008)'
_computing_publication_material  'PLATON (Spek, 2009)'
_computing_structure_refinement  'SHELXL97 (Sheldrick, 2008)'
_computing_structure_solution    'SHELXS97 (Sheldrick, 2008)'
_diffrn_ambient_temperature      293(2)
_diffrn_measured_fraction_theta_full 0.991
_diffrn_measured_fraction_theta_max 0.991
_diffrn_measurement_device_type  'Enraf--Nonius CAD-4'
_diffrn_measurement_method       '\w/2\q scans'
_diffrn_radiation_monochromator  graphite
_diffrn_radiation_source         'fine-focus sealed tube'
_diffrn_radiation_type           MoK\a
_diffrn_radiation_wavelength     0.71073
_diffrn_reflns_av_R_equivalents  0.0423
_diffrn_reflns_av_sigmaI/netI    0.0653
_diffrn_reflns_limit_h_max       9
_diffrn_reflns_limit_h_min       -9
_diffrn_reflns_limit_k_max       17
_diffrn_reflns_limit_k_min       0
_diffrn_reflns_limit_l_max       8
_diffrn_reflns_limit_l_min       0
_diffrn_reflns_number            1607
_diffrn_reflns_theta_full        25.50
_diffrn_reflns_theta_max         25.50
_diffrn_reflns_theta_min         2.72
_diffrn_standards_decay_%        1
_diffrn_standards_interval_count 200
_diffrn_standards_interval_time  2
_diffrn_standards_number         3
_exptl_absorpt_coefficient_mu    0.428
_exptl_absorpt_correction_T_max  0.9584
_exptl_absorpt_correction_T_min  0.9192
_exptl_absorpt_correction_type   psi-scan
_exptl_absorpt_process_details   '(North <i>et al.</i>, 1968)'
_exptl_crystal_colour            yellow
_exptl_crystal_density_diffrn    1.600
_exptl_crystal_density_method    'not measured'
_exptl_crystal_description       block
_exptl_crystal_F_000             400
_exptl_crystal_size_max          0.20
_exptl_crystal_size_mid          0.10
_exptl_crystal_size_min          0.10
_refine_diff_density_max         0.279
_refine_diff_density_min         -0.278
_refine_ls_extinction_coef       0.024(4)
_refine_ls_extinction_expression Fc^*^=kFc[1+0.001xFc^2^\l^3^/sin(2\q)]^-1/4^
_refine_ls_extinction_method     'SHELXL97 (Sheldrick, 2008)'
_refine_ls_goodness_of_fit_ref   1.004
_refine_ls_hydrogen_treatment    constr
_refine_ls_matrix_type           full
_refine_ls_number_parameters     119
_refine_ls_number_reflns         1485
_refine_ls_number_restraints     0
_refine_ls_restrained_S_all      1.004
_refine_ls_R_factor_all          0.1042
_refine_ls_R_factor_gt           0.0599
_refine_ls_shift/su_max          0.000
_refine_ls_shift/su_mean         0.000
_refine_ls_structure_factor_coef Fsqd
_refine_ls_weighting_details
'calc w=1/[\s^2^(Fo^2^)+(0.0750P)^2^] where P=(Fo^2^+2Fc^2^)/3'
_refine_ls_weighting_scheme      calc
_refine_ls_wR_factor_gt          0.1317
_refine_ls_wR_factor_ref         0.1545
_reflns_number_gt                965
_reflns_number_total             1485
_reflns_threshold_expression     I>2\s(I)
_cod_data_source_file            pv2493.cif
_cod_data_source_block           I
_cod_original_sg_symbol_H-M      'P 21/c'
_cod_database_code               2233273
_cod_database_fobs_code          2233273
loop_
_symmetry_equiv_pos_as_xyz
'x, y, z'
'-x, y+1/2, -z+1/2'
'-x, -y, -z'
'x, -y-1/2, z-1/2'
loop_
_atom_site_type_symbol
_atom_site_label
_atom_site_fract_x
_atom_site_fract_y
_atom_site_fract_z
_atom_site_U_iso_or_equiv
_atom_site_adp_type
_atom_site_calc_flag
_atom_site_refinement_flags
_atom_site_occupancy
_atom_site_symmetry_multiplicity
Cl Cl 0.19910(14) 0.55890(7) 0.16100(16) 0.0561(4) Uani d . 1 1
N N 0.3254(4) 0.88873(19) 0.2061(4) 0.0430(8) Uani d . 1 1
O O1 0.6058(4) 0.87503(19) 0.3282(5) 0.0676(10) Uani d . 1 1
C C1 0.1324(5) 0.6685(2) 0.1324(5) 0.0425(9) Uani d . 1 1
O O2 0.5204(4) 0.68317(18) 0.3142(4) 0.0606(9) Uani d . 1 1
C C2 -0.0323(5) 0.6886(3) 0.0589(5) 0.0490(11) Uani d . 1 1
H H2A -0.1085 0.6423 0.0230 0.059 Uiso calc R 1 1
C C3 -0.0848(5) 0.7773(3) 0.0381(6) 0.0540(12) Uani d . 1 1
H H3A -0.1982 0.7897 -0.0078 0.065 Uiso calc R 1 1
C C4 0.0265(5) 0.8479(3) 0.0835(6) 0.0484(10) Uani d . 1 1
H H4A -0.0097 0.9074 0.0677 0.058 Uiso calc R 1 1
C C5 0.1921(5) 0.8279(2) 0.1525(5) 0.0375(9) Uani d . 1 1
C C6 0.4690(5) 0.8435(3) 0.2721(6) 0.0470(10) Uani d . 1 1
C C7 0.4229(5) 0.7422(2) 0.2603(5) 0.0412(9) Uani d . 1 1
C C8 0.2447(4) 0.7390(2) 0.1784(5) 0.0370(9) Uani d . 1 1
C C9 0.3123(5) 0.9847(3) 0.1887(7) 0.0587(12) Uani d . 1 1
H H9A 0.4200 1.0121 0.2338 0.088 Uiso calc R 1 1
H H9B 0.2126 1.0060 0.2584 0.088 Uiso calc R 1 1
H H9C 0.2957 1.0003 0.0624 0.088 Uiso calc R 1 1
loop_
_atom_site_aniso_label
_atom_site_aniso_U_11
_atom_site_aniso_U_22
_atom_site_aniso_U_33
_atom_site_aniso_U_12
_atom_site_aniso_U_13
_atom_site_aniso_U_23
Cl 0.0597(7) 0.0389(6) 0.0696(8) -0.0050(5) -0.0120(5) -0.0014(5)
N 0.0351(18) 0.0338(17) 0.060(2) 0.0011(14) -0.0083(15) -0.0031(16)
O1 0.0420(17) 0.0512(18) 0.109(3) -0.0072(14) -0.0290(17) -0.0120(18)
C1 0.043(2) 0.042(2) 0.043(2) -0.0048(17) -0.0040(18) -0.0005(18)
O2 0.0446(17) 0.0455(17) 0.092(2) 0.0107(13) -0.0241(16) -0.0012(16)
C2 0.036(2) 0.063(3) 0.048(2) -0.016(2) -0.0084(19) -0.003(2)
C3 0.034(2) 0.077(3) 0.051(2) 0.000(2) -0.0105(19) 0.006(2)
C4 0.036(2) 0.056(2) 0.052(2) 0.0071(19) -0.0058(18) 0.006(2)
C5 0.033(2) 0.039(2) 0.041(2) 0.0036(16) -0.0057(16) -0.0009(17)
C6 0.033(2) 0.043(2) 0.065(3) 0.0051(18) -0.0069(19) -0.005(2)
C7 0.034(2) 0.037(2) 0.052(2) 0.0065(17) -0.0039(18) -0.0021(19)
C8 0.0305(19) 0.035(2) 0.045(2) 0.0036(15) -0.0068(17) -0.0031(17)
C9 0.057(3) 0.035(2) 0.083(3) 0.002(2) -0.006(2) 0.001(2)
loop_
_atom_type_symbol
_atom_type_description
_atom_type_scat_dispersion_real
_atom_type_scat_dispersion_imag
_atom_type_scat_source
C C 0.0033 0.0016 'International Tables Vol C Tables 4.2.6.8 and 6.1.1.4'
H H 0.0000 0.0000 'International Tables Vol C Tables 4.2.6.8 and 6.1.1.4'
N N 0.0061 0.0033 'International Tables Vol C Tables 4.2.6.8 and 6.1.1.4'
O O 0.0106 0.0060 'International Tables Vol C Tables 4.2.6.8 and 6.1.1.4'
Cl Cl 0.1484 0.1585 'International Tables Vol C Tables 4.2.6.8 and 6.1.1.4'
loop_
_geom_angle_atom_site_label_1
_geom_angle_atom_site_label_2
_geom_angle_atom_site_label_3
_geom_angle
C6 N C5 110.2(3)
C6 N C9 125.2(3)
C5 N C9 124.6(3)
C2 C1 C8 118.3(4)
C2 C1 Cl 120.9(3)
C8 C1 Cl 120.7(3)
C1 C2 C3 120.2(4)
C1 C2 H2A 119.9
C3 C2 H2A 119.9
C4 C3 C2 121.7(4)
C4 C3 H3A 119.2
C2 C3 H3A 119.2
C5 C4 C3 118.0(4)
C5 C4 H4A 121.0
C3 C4 H4A 121.0
C4 C5 C8 120.8(4)
C4 C5 N 127.4(4)
C8 C5 N 111.8(3)
O1 C6 N 127.3(4)
O1 C6 C7 126.1(4)
N C6 C7 106.6(3)
O2 C7 C8 131.4(4)
O2 C7 C6 123.6(3)
C8 C7 C6 104.9(3)
C1 C8 C5 120.8(3)
C1 C8 C7 132.7(3)
C5 C8 C7 106.5(3)
N C9 H9A 109.5
N C9 H9B 109.5
H9A C9 H9B 109.5
N C9 H9C 109.5
H9A C9 H9C 109.5
H9B C9 H9C 109.5
loop_
_geom_bond_atom_site_label_1
_geom_bond_atom_site_label_2
_geom_bond_distance
Cl C1 1.712(4)
N C6 1.354(5)
N C5 1.400(4)
N C9 1.431(5)
O1 C6 1.197(4)
C1 C2 1.376(5)
C1 C8 1.382(5)
O2 C7 1.204(4)
C2 C3 1.381(6)
C2 H2A 0.9300
C3 C4 1.378(6)
C3 H3A 0.9300
C4 C5 1.369(5)
C4 H4A 0.9300
C5 C8 1.389(5)
C6 C7 1.544(5)
C7 C8 1.461(5)
C9 H9A 0.9600
C9 H9B 0.9600
C9 H9C 0.9600
loop_
_geom_hbond_atom_site_label_D
_geom_hbond_atom_site_label_H
_geom_hbond_atom_site_label_A
_geom_hbond_site_symmetry_A
_geom_hbond_distance_DH
_geom_hbond_distance_HA
_geom_hbond_distance_DA
_geom_hbond_angle_DHA
C2 H2A O1 4_475 0.93 2.58 3.323(5) 137
C3 H3A O2 4_475 0.93 2.50 3.424(5) 170
C9 H9A O1 1_555 0.96 2.56 2.915(5) 102
C9 H9A O2 2_655 0.96 2.60 3.198(5) 121
loop_
_geom_torsion_atom_site_label_1
_geom_torsion_atom_site_label_2
_geom_torsion_atom_site_label_3
_geom_torsion_atom_site_label_4
_geom_torsion
C8 C1 C2 C3 -2.2(6)
Cl C1 C2 C3 179.5(3)
C1 C2 C3 C4 2.3(6)
C2 C3 C4 C5 -0.7(6)
C3 C4 C5 C8 -1.0(6)
C3 C4 C5 N 179.6(4)
C6 N C5 C4 178.3(4)
C9 N C5 C4 -3.1(6)
C6 N C5 C8 -1.1(5)
C9 N C5 C8 177.4(4)
C5 N C6 O1 179.5(4)
C9 N C6 O1 0.9(7)
C5 N C6 C7 -0.2(4)
C9 N C6 C7 -178.7(4)
O1 C6 C7 O2 3.0(7)
N C6 C7 O2 -177.4(4)
O1 C6 C7 C8 -178.4(4)
N C6 C7 C8 1.3(4)
C2 C1 C8 C5 0.6(6)
Cl C1 C8 C5 178.9(3)
C2 C1 C8 C7 178.7(4)
Cl C1 C8 C7 -3.0(6)
C4 C5 C8 C1 1.0(6)
N C5 C8 C1 -179.5(3)
C4 C5 C8 C7 -177.5(4)
N C5 C8 C7 1.9(4)
O2 C7 C8 C1 -1.7(8)
C6 C7 C8 C1 179.8(4)
O2 C7 C8 C5 176.6(4)
C6 C7 C8 C5 -1.9(4)
loop_
_cod_related_entry_id
_cod_related_entry_database
_cod_related_entry_code
1 ChemSpider 28679260
