#------------------------------------------------------------------------------
#$Date: 2017-10-13 12:31:46 +0300 (Fri, 13 Oct 2017) $
#$Revision: 201979 $
#$URL: file:///home/coder/svn-repositories/cod/cif/2/23/57/2235749.cif $
#------------------------------------------------------------------------------
#
# This file is available in the Crystallography Open Database (COD),
# http://www.crystallography.net/. The original data for this entry
# were provided by IUCr Journals, http://journals.iucr.org/.
#
# The file may be used within the scientific community so long as
# proper attribution is given to the journal article from which the
# data were obtained.
#
data_2235749
loop_
_publ_author_name
'Gowda, B. Thimme'
'Foro, Sabine'
'Kumar, Sharatha'
_publ_section_title
;
 3-Acetyl-1-(2,5-dimethylphenyl)thiourea
;
_journal_coeditor_code           BT5960
_journal_issue                   8
_journal_name_full               'Acta Crystallographica Section E'
_journal_page_first              o2338
_journal_paper_doi               10.1107/S1600536812029601
_journal_volume                  68
_journal_year                    2012
_chemical_formula_iupac          'C11 H14 N2 O S'
_chemical_formula_moiety         'C11 H14 N2 O S'
_chemical_formula_sum            'C11 H14 N2 O S'
_chemical_formula_weight         222.30
_chemical_name_systematic
;
3-Acetyl-1-(2,5-dimethylphenyl)thiourea
;
_space_group_IT_number           2
_symmetry_cell_setting           triclinic
_symmetry_space_group_name_Hall  '-P 1'
_symmetry_space_group_name_H-M   'P -1'
_atom_sites_solution_hydrogens   geom
_atom_sites_solution_primary     direct
_atom_sites_solution_secondary   difmap
_audit_creation_method           SHELXL-97
_cell_angle_alpha                105.711(5)
_cell_angle_beta                 100.020(5)
_cell_angle_gamma                93.037(4)
_cell_formula_units_Z            2
_cell_length_a                   5.0312(2)
_cell_length_b                   10.9329(6)
_cell_length_c                   11.0568(7)
_cell_measurement_reflns_used    2369
_cell_measurement_temperature    293(2)
_cell_measurement_theta_max      27.74
_cell_measurement_theta_min      3.12
_cell_volume                     573.31(6)
_computing_cell_refinement
;
CrysAlis CCD (Oxford Diffraction, 2009)
;
_computing_data_collection
;
CrysAlis CCD (Oxford Diffraction, 2009)
;
_computing_data_reduction
;
CrysAlis RED (Oxford Diffraction, 2009)
;
_computing_molecular_graphics    'PLATON (Spek, 2009)'
_computing_publication_material  'SHELXL97 (Sheldrick, 2008)'
_computing_structure_refinement  'SHELXL97 (Sheldrick, 2008)'
_computing_structure_solution    'SHELXS97 (Sheldrick, 2008)'
_diffrn_ambient_temperature      293(2)
_diffrn_measured_fraction_theta_full 0.997
_diffrn_measured_fraction_theta_max 0.997
_diffrn_measurement_device_type
;
Oxford Diffraction Xcalibur diffractometer
with a Sapphire CCD detector
;
_diffrn_measurement_method
;
Rotation method data acquisition using omega and phi
;
_diffrn_radiation_monochromator  graphite
_diffrn_radiation_source         'fine-focus sealed tube'
_diffrn_radiation_type           MoK\a
_diffrn_radiation_wavelength     0.71073
_diffrn_reflns_av_R_equivalents  0.0072
_diffrn_reflns_av_sigmaI/netI    0.0140
_diffrn_reflns_limit_h_max       6
_diffrn_reflns_limit_h_min       -5
_diffrn_reflns_limit_k_max       13
_diffrn_reflns_limit_k_min       -11
_diffrn_reflns_limit_l_max       13
_diffrn_reflns_limit_l_min       -13
_diffrn_reflns_number            3641
_diffrn_reflns_theta_full        26.37
_diffrn_reflns_theta_max         26.37
_diffrn_reflns_theta_min         3.12
_diffrn_standards_decay_%        0
_diffrn_standards_number         0
_exptl_absorpt_coefficient_mu    0.258
_exptl_absorpt_correction_T_max  0.9503
_exptl_absorpt_correction_T_min  0.8994
_exptl_absorpt_correction_type   multi-scan
_exptl_absorpt_process_details
;
(CrysAlis RED; Oxford Diffraction, 2009)
;
_exptl_crystal_colour            colourless
_exptl_crystal_density_diffrn    1.288
_exptl_crystal_density_method    'not measured'
_exptl_crystal_description       prism
_exptl_crystal_F_000             236
_exptl_crystal_size_max          0.42
_exptl_crystal_size_mid          0.38
_exptl_crystal_size_min          0.20
_refine_diff_density_max         0.231
_refine_diff_density_min         -0.199
_refine_ls_extinction_method     none
_refine_ls_goodness_of_fit_ref   1.047
_refine_ls_hydrogen_treatment    mixed
_refine_ls_matrix_type           full
_refine_ls_number_parameters     145
_refine_ls_number_reflns         2344
_refine_ls_number_restraints     2
_refine_ls_restrained_S_all      1.047
_refine_ls_R_factor_all          0.0416
_refine_ls_R_factor_gt           0.0361
_refine_ls_shift/su_max          0.001
_refine_ls_shift/su_mean         0.000
_refine_ls_structure_factor_coef Fsqd
_refine_ls_weighting_details
'calc w=1/[\s^2^(Fo^2^)+(0.0459P)^2^+0.2328P] where P=(Fo^2^+2Fc^2^)/3'
_refine_ls_weighting_scheme      calc
_refine_ls_wR_factor_gt          0.0966
_refine_ls_wR_factor_ref         0.1012
_reflns_number_gt                2068
_reflns_number_total             2344
_reflns_threshold_expression     >2\s(I)
_iucr_refine_instructions_details
;
TITL SAT10M IN P-1
CELL  0.71073  5.03120 10.93290 11.05680 105.71100 100.02000 93.03700
ZERR 2  0.00023  0.00064  0.00071  0.00530  0.00450  0.00420
LATT 1
SFAC C H N O S
UNIT 22 28 4 2 2
PLAN 30
FMAP 2
SHEL 12 0.8
SIZE 0.42 0.38 0.20
L.S. 14
MPLA 6 C1 C2 C3 C4 C5 C6
MPLA 7 N1 C7 S1 N2 C8 O1 C9
BOND $H
DFIX 0.86 0.02 N1 H1N N2 H2N
HTAB N1 O1
HTAB N2 S1_$1
EQIV $1 -X+1, -Y+2, -Z
CONF
ACTA
FVAR 10.75491
WGHT  0.04590   0.23280
C1    1 0.614490 0.736510 0.282885  11.000000 0.037340 0.037730 =
        0.036490 0.017130 -0.001870 0.000040
C2    1 0.649160 0.613079 0.216870  11.000000 0.037170 0.041010 =
        0.035020 0.014430 0.001670 0.003950
C3    1 0.523201 0.515084 0.252095  11.000000 0.053750 0.034600 =
        0.043110 0.013020 0.005600 0.004670
AFIX 43
H3    2 0.539996 0.430784 0.209597  11.000000 -1.200000
AFIX 0
C4    1 0.374691 0.539222 0.347854  11.000000 0.050700 0.043940 =
        0.047280 0.022880 0.007550 -0.000480
AFIX 43
H4    2 0.294628 0.471108 0.368833  11.000000 -1.200000
AFIX 0
C5    1 0.342158 0.662943 0.413567  11.000000 0.039910 0.052200 =
        0.035310 0.018930 0.003080 0.007190
C6    1 0.465900 0.761783 0.379626  11.000000 0.045690 0.037820 =
        0.037600 0.010490 0.000340 0.009090
AFIX 43
H6    2 0.448880 0.845994 0.422329  11.000000 -1.200000
AFIX 0
C7    1 0.658405 0.892867 0.164435  11.000000 0.036130 0.034450 =
        0.041370 0.014290 0.008130 0.002850
C8    1 1.044569 1.063632 0.243168  11.000000 0.041860 0.034360 =
        0.051440 0.007730 0.005080 -0.000270
C9    1 1.160943 1.176301 0.210149  11.000000 0.052340 0.044020 =
        0.069260 0.014420 0.005140 -0.012730
AFIX 137
H9A   2 1.019000 1.227588 0.191331  11.000000 -1.200000
H9B   2 1.242653 1.147259 0.136592  11.000000 -1.200000
H9C   2 1.295907 1.226407 0.281320  11.000000 -1.200000
AFIX 0
C10   1 0.813004 0.585273 0.113622  11.000000 0.048220 0.055180 =
        0.045810 0.016050 0.011200 0.007550
AFIX 137
H10A  2 0.991423 0.630156 0.146314  11.000000 -1.200000
H10B  2 0.726018 0.612738 0.042530  11.000000 -1.200000
H10C  2 0.826634 0.495094 0.085813  11.000000 -1.200000
AFIX 0
C11   1 0.178112 0.689050 0.517325  11.000000 0.054670 0.079470 =
        0.048930 0.024830 0.015740 0.016230
AFIX 137
H11A  2 0.231319 0.638726 0.574654  11.000000 -1.200000
H11B  2 -0.011163 0.667044 0.479661  11.000000 -1.200000
H11C  2 0.209326 0.778065 0.563977  11.000000 -1.200000
AFIX 0
N1    3 0.748954 0.843984 0.258574  11.000000 0.042930 0.039290 =
        0.046590 0.019130 -0.005440 -0.006460
H1N   2 0.895209 0.881738 0.309363  11.000000 -1.200000
N2    3 0.809852 1.001188 0.161007  11.000000 0.037580 0.035950 =
        0.047690 0.018300 0.002380 -0.001380
H2N   2 0.751163 1.032326 0.100219  11.000000 -1.200000
O1    4 1.148705 1.030556 0.335023  11.000000 0.060930 0.048880 =
        0.059830 0.016430 -0.014410 -0.009640
S1    5 0.378792 0.833304 0.053012  11.000000 0.040590 0.048230 =
        0.052640 0.026890 -0.004420 -0.008800
HKLF 4
REM  SAT10M IN P-1
REM R1 0.0361 FOR 2068 FO > 4SIG(FO)  AND  0.0416 FOR ALL 2344 DATA
REM    145 PARAMETERS REFINED USING      2 RESTRAINTS
REM HIGHEST DIFFERENCE PEAK  0.231, DEEPEST HOLE -0.199, 1-SIGMA LEVEL 0.038
;
_cod_data_source_file            bt5960.cif
_cod_data_source_block           I
_cod_database_code               2235749
_cod_database_fobs_code          2235749
loop_
_symmetry_equiv_pos_as_xyz
'x, y, z'
'-x, -y, -z'
loop_
_atom_site_type_symbol
_atom_site_label
_atom_site_fract_x
_atom_site_fract_y
_atom_site_fract_z
_atom_site_U_iso_or_equiv
_atom_site_adp_type
_atom_site_calc_flag
_atom_site_refinement_flags
_atom_site_occupancy
_atom_site_symmetry_multiplicity
C C1 0.6145(3) 0.73651(15) 0.28289(15) 0.0372(4) Uani d . 1 1
C C2 0.6492(3) 0.61308(15) 0.21687(15) 0.0377(4) Uani d . 1 1
C C3 0.5232(4) 0.51510(16) 0.25210(17) 0.0439(4) Uani d . 1 1
H H3 0.5400 0.4308 0.2096 0.053 Uiso calc R 1 1
C C4 0.3747(4) 0.53925(17) 0.34786(17) 0.0458(4) Uani d . 1 1
H H4 0.2947 0.4711 0.3688 0.055 Uiso calc R 1 1
C C5 0.3422(3) 0.66295(17) 0.41356(16) 0.0416(4) Uani d . 1 1
C C6 0.4659(3) 0.76177(16) 0.37962(16) 0.0412(4) Uani d . 1 1
H H6 0.4489 0.8460 0.4223 0.049 Uiso calc R 1 1
C C7 0.6584(3) 0.89287(15) 0.16443(16) 0.0366(3) Uani d . 1 1
C C8 1.0446(4) 1.06364(16) 0.24317(18) 0.0442(4) Uani d . 1 1
C C9 1.1609(4) 1.17630(19) 0.2102(2) 0.0571(5) Uani d . 1 1
H H9A 1.0190 1.2277 0.1915 0.069 Uiso calc R 1 1
H H9B 1.2423 1.1473 0.1365 0.069 Uiso calc R 1 1
H H9C 1.2962 1.2263 0.2813 0.069 Uiso calc R 1 1
C C10 0.8130(4) 0.58529(19) 0.11363(18) 0.0491(4) Uani d . 1 1
H H10A 0.9914 0.6302 0.1463 0.059 Uiso calc R 1 1
H H10B 0.7259 0.6127 0.0425 0.059 Uiso calc R 1 1
H H10C 0.8268 0.4951 0.0859 0.059 Uiso calc R 1 1
C C11 0.1781(4) 0.6891(2) 0.5173(2) 0.0587(5) Uani d . 1 1
H H11A 0.2316 0.6389 0.5748 0.070 Uiso calc R 1 1
H H11B -0.0111 0.6668 0.4797 0.070 Uiso calc R 1 1
H H11C 0.2089 0.7781 0.5638 0.070 Uiso calc R 1 1
N N1 0.7489(3) 0.84398(14) 0.25857(15) 0.0438(4) Uani d D 1 1
H H1N 0.895(3) 0.8817(18) 0.3093(18) 0.053 Uiso d D 1 1
N N2 0.8099(3) 1.00118(13) 0.16102(15) 0.0401(3) Uani d D 1 1
H H2N 0.751(4) 1.0323(18) 0.1002(17) 0.048 Uiso d D 1 1
O O1 1.1487(3) 1.03056(13) 0.33502(14) 0.0603(4) Uani d . 1 1
S S1 0.37879(9) 0.83331(4) 0.05301(4) 0.04690(16) Uani d . 1 1
loop_
_atom_site_aniso_label
_atom_site_aniso_U_11
_atom_site_aniso_U_22
_atom_site_aniso_U_33
_atom_site_aniso_U_12
_atom_site_aniso_U_13
_atom_site_aniso_U_23
C1 0.0373(8) 0.0377(8) 0.0365(8) 0.0001(6) -0.0019(6) 0.0171(7)
C2 0.0372(8) 0.0410(9) 0.0350(8) 0.0040(7) 0.0017(6) 0.0144(7)
C3 0.0538(10) 0.0346(8) 0.0432(9) 0.0047(7) 0.0056(8) 0.0130(7)
C4 0.0507(10) 0.0440(9) 0.0473(10) -0.0005(8) 0.0075(8) 0.0229(8)
C5 0.0399(9) 0.0522(10) 0.0353(8) 0.0072(7) 0.0031(7) 0.0189(7)
C6 0.0457(9) 0.0378(8) 0.0376(9) 0.0091(7) 0.0003(7) 0.0105(7)
C7 0.0362(8) 0.0345(8) 0.0414(9) 0.0029(6) 0.0082(7) 0.0143(7)
C8 0.0419(9) 0.0344(8) 0.0515(10) -0.0002(7) 0.0051(8) 0.0077(7)
C9 0.0523(11) 0.0441(10) 0.0693(13) -0.0127(8) 0.0051(9) 0.0144(9)
C10 0.0482(10) 0.0552(11) 0.0459(10) 0.0076(8) 0.0112(8) 0.0161(8)
C11 0.0547(11) 0.0795(14) 0.0489(11) 0.0162(10) 0.0157(9) 0.0248(10)
N1 0.0429(8) 0.0393(8) 0.0466(8) -0.0065(6) -0.0055(6) 0.0191(6)
N2 0.0376(7) 0.0360(7) 0.0477(8) -0.0014(6) 0.0024(6) 0.0183(6)
O1 0.0610(8) 0.0489(8) 0.0598(9) -0.0096(6) -0.0144(7) 0.0165(6)
S1 0.0406(2) 0.0483(3) 0.0527(3) -0.00880(18) -0.00441(19) 0.0269(2)
loop_
_atom_type_symbol
_atom_type_description
_atom_type_scat_dispersion_real
_atom_type_scat_dispersion_imag
_atom_type_scat_source
C C 0.0033 0.0016 'International Tables Vol C Tables 4.2.6.8 and 6.1.1.4'
H H 0.0000 0.0000 'International Tables Vol C Tables 4.2.6.8 and 6.1.1.4'
N N 0.0061 0.0033 'International Tables Vol C Tables 4.2.6.8 and 6.1.1.4'
O O 0.0106 0.0060 'International Tables Vol C Tables 4.2.6.8 and 6.1.1.4'
S S 0.1246 0.1234 'International Tables Vol C Tables 4.2.6.8 and 6.1.1.4'
loop_
_geom_angle_atom_site_label_1
_geom_angle_atom_site_label_2
_geom_angle_atom_site_label_3
_geom_angle
C6 C1 C2 122.16(15)
C6 C1 N1 117.34(15)
C2 C1 N1 120.37(15)
C1 C2 C3 116.24(15)
C1 C2 C10 122.39(15)
C3 C2 C10 121.37(16)
C4 C3 C2 122.01(16)
C4 C3 H3 119.0
C2 C3 H3 119.0
C3 C4 C5 121.29(16)
C3 C4 H4 119.4
C5 C4 H4 119.4
C4 C5 C6 117.50(16)
C4 C5 C11 121.20(17)
C6 C5 C11 121.31(17)
C1 C6 C5 120.80(15)
C1 C6 H6 119.6
C5 C6 H6 119.6
N1 C7 N2 116.17(15)
N1 C7 S1 124.34(12)
N2 C7 S1 119.49(12)
O1 C8 N2 122.97(16)
O1 C8 C9 122.62(17)
N2 C8 C9 114.41(16)
C8 C9 H9A 109.5
C8 C9 H9B 109.5
H9A C9 H9B 109.5
C8 C9 H9C 109.5
H9A C9 H9C 109.5
H9B C9 H9C 109.5
C2 C10 H10A 109.5
C2 C10 H10B 109.5
H10A C10 H10B 109.5
C2 C10 H10C 109.5
H10A C10 H10C 109.5
H10B C10 H10C 109.5
C5 C11 H11A 109.5
C5 C11 H11B 109.5
H11A C11 H11B 109.5
C5 C11 H11C 109.5
H11A C11 H11C 109.5
H11B C11 H11C 109.5
C7 N1 C1 124.80(14)
C7 N1 H1N 116.3(14)
C1 N1 H1N 118.9(14)
C8 N2 C7 128.05(15)
C8 N2 H2N 116.1(14)
C7 N2 H2N 115.9(14)
loop_
_geom_bond_atom_site_label_1
_geom_bond_atom_site_label_2
_geom_bond_distance
C1 C6 1.385(2)
C1 C2 1.386(2)
C1 N1 1.436(2)
C2 C3 1.393(2)
C2 C10 1.497(2)
C3 C4 1.376(3)
C3 H3 0.9300
C4 C5 1.384(3)
C4 H4 0.9300
C5 C6 1.388(2)
C5 C11 1.502(3)
C6 H6 0.9300
C7 N1 1.319(2)
C7 N2 1.387(2)
C7 S1 1.6692(17)
C8 O1 1.213(2)
C8 N2 1.375(2)
C8 C9 1.495(2)
C9 H9A 0.9600
C9 H9B 0.9600
C9 H9C 0.9600
C10 H10A 0.9600
C10 H10B 0.9600
C10 H10C 0.9600
C11 H11A 0.9600
C11 H11B 0.9600
C11 H11C 0.9600
N1 H1N 0.852(15)
N2 H2N 0.849(15)
loop_
_geom_hbond_atom_site_label_D
_geom_hbond_atom_site_label_H
_geom_hbond_atom_site_label_A
_geom_hbond_site_symmetry_A
_geom_hbond_distance_DH
_geom_hbond_distance_HA
_geom_hbond_distance_DA
_geom_hbond_angle_DHA
N1 H1N O1 . 0.852(15) 1.939(17) 2.6382(19) 138.5(19)
N2 H2N S1 2_675 0.849(15) 2.554(15) 3.3904(15) 168.9(18)
loop_
_geom_torsion_atom_site_label_1
_geom_torsion_atom_site_label_2
_geom_torsion_atom_site_label_3
_geom_torsion_atom_site_label_4
_geom_torsion
C6 C1 C2 C3 0.7(2)
N1 C1 C2 C3 176.46(14)
C6 C1 C2 C10 -179.04(16)
N1 C1 C2 C10 -3.3(2)
C1 C2 C3 C4 -0.6(3)
C10 C2 C3 C4 179.20(17)
C2 C3 C4 C5 0.4(3)
C3 C4 C5 C6 -0.3(3)
C3 C4 C5 C11 179.49(17)
C2 C1 C6 C5 -0.7(2)
N1 C1 C6 C5 -176.52(14)
C4 C5 C6 C1 0.4(2)
C11 C5 C6 C1 -179.34(16)
N2 C7 N1 C1 176.57(15)
S1 C7 N1 C1 -3.1(3)
C6 C1 N1 C7 -100.6(2)
C2 C1 N1 C7 83.4(2)
O1 C8 N2 C7 -1.7(3)
C9 C8 N2 C7 178.47(17)
N1 C7 N2 C8 0.6(3)
S1 C7 N2 C8 -179.70(14)
loop_
_cod_related_entry_id
_cod_related_entry_database
_cod_related_entry_code
1 ChemSpider 1031782
