#------------------------------------------------------------------------------
#$Date: 2016-11-09 04:05:35 +0200 (Wed, 09 Nov 2016) $
#$Revision: 188333 $
#$URL: file:///home/coder/svn-repositories/cod/cif/2/24/19/2241935.cif $
#------------------------------------------------------------------------------
#
# This file is available in the Crystallography Open Database (COD),
# http://www.crystallography.net/. The original data for this entry
# were provided by IUCr Journals, http://journals.iucr.org/.
#
# The file may be used within the scientific community so long as
# proper attribution is given to the journal article from which the
# data were obtained.
#
data_2241935
loop_
_publ_author_name
'Navarrete Guit\'errez, Ang\'elica'
'Aguirre Hern\'andez, Gerardo'
'Bern\`es, Sylvain'
_publ_section_title
;
 Crystal structures of <i>p</i>-substituted derivatives of
 2,6-dimethylbromobenzene with {\scriptstyle{1\/over2}} {\/leq} <i>Z</i>'
 {\/leq} 4
;
_journal_coeditor_code           IS5462
_journal_issue                   12
_journal_name_full               'Acta Crystallographica Section E'
_journal_page_first              1762
_journal_page_last               1767
_journal_paper_doi               10.1107/S2056989016017485
_journal_volume                  72
_journal_year                    2016
_chemical_formula_iupac          'C9 H8 Br N'
_chemical_formula_moiety         'C9 H8 Br N'
_chemical_formula_sum            'C9 H8 Br N'
_chemical_formula_weight         210.07
_chemical_melting_point          408
_chemical_name_common            4-Bromo-3,5-dimethylbenzonitrile
_space_group_crystal_system      monoclinic
_space_group_IT_number           11
_space_group_name_Hall           '-P 2yb'
_space_group_name_H-M_alt        'P 1 21/m 1'
_symmetry_space_group_name_Hall  '-P 2yb'
_symmetry_space_group_name_H-M   'P 1 21/m 1'
_atom_sites_solution_hydrogens   geom
_atom_sites_solution_primary     direct
_atom_sites_solution_secondary   difmap
_audit_creation_method           SHELXL-2014/7
_cell_angle_alpha                90
_cell_angle_beta                 93.763(3)
_cell_angle_gamma                90
_cell_formula_units_Z            2
_cell_length_a                   4.03820(10)
_cell_length_b                   8.9362(4)
_cell_length_c                   12.1015(4)
_cell_measurement_reflns_used    1415
_cell_measurement_temperature    296.0(10)
_cell_measurement_theta_max      71.1670
_cell_measurement_theta_min      3.6540
_cell_volume                     435.76(3)
_computing_cell_refinement
;
CrysAlis PRO (Rigaku OD, 2015)
;
_computing_data_collection
;
CrysAlis PRO (Rigaku OD, 2015)
;
_computing_data_reduction
;
CrysAlis PRO (Rigaku OD, 2015)
;
_computing_molecular_graphics
;
XP in SHELXTL (Sheldrick, 2008) and Mercury (Macrae <i>et al.</i>,
2008)
;
_computing_publication_material
;
<i>CifTab</i> (Sheldrick, 2008)
;
_computing_structure_refinement
;
SHELXL2014 (Sheldrick, 2015b)
;
_computing_structure_solution
;
<i>SHELXT</i> (Sheldrick, 2015a)
;
_diffrn_ambient_temperature      296.0(10)
_diffrn_detector_area_resol_mean 5.1980
_diffrn_measured_fraction_theta_full 1.000
_diffrn_measured_fraction_theta_max 0.983
_diffrn_measurement_device       'four-circle diffractometer'
_diffrn_measurement_device_type  'Rigaku OD SuperNova AtlasS2'
_diffrn_measurement_method       '\f and \w scans'
_diffrn_radiation_monochromator  mirror
_diffrn_radiation_type           'Cu K\a'
_diffrn_radiation_wavelength     1.54184
_diffrn_reflns_av_R_equivalents  0.0274
_diffrn_reflns_limit_h_max       4
_diffrn_reflns_limit_h_min       -3
_diffrn_reflns_limit_k_max       10
_diffrn_reflns_limit_k_min       -10
_diffrn_reflns_limit_l_max       13
_diffrn_reflns_limit_l_min       -14
_diffrn_reflns_number            2457
_diffrn_reflns_theta_full        67.684
_diffrn_reflns_theta_max         71.369
_diffrn_reflns_theta_min         3.660
_exptl_absorpt_coefficient_mu    5.869
_exptl_absorpt_correction_T_max  1.00000
_exptl_absorpt_correction_T_min  0.61513
_exptl_absorpt_correction_type   multi-scan
_exptl_absorpt_process_details
;
(CrysAlis PRO; Rigaku OD, 2015)
;
_exptl_crystal_colour            orange
_exptl_crystal_density_diffrn    1.601
_exptl_crystal_description       needle
_exptl_crystal_F_000             208
_exptl_crystal_size_max          0.21
_exptl_crystal_size_mid          0.15
_exptl_crystal_size_min          0.12
_refine_diff_density_max         0.508
_refine_diff_density_min         -0.455
_refine_ls_extinction_method     none
_refine_ls_goodness_of_fit_ref   1.084
_refine_ls_hydrogen_treatment    constr
_refine_ls_matrix_type           full
_refine_ls_number_constraints    0
_refine_ls_number_parameters     59
_refine_ls_number_reflns         883
_refine_ls_number_restraints     0
_refine_ls_restrained_S_all      1.084
_refine_ls_R_factor_all          0.0486
_refine_ls_R_factor_gt           0.0443
_refine_ls_shift/su_max          0.000
_refine_ls_shift/su_mean         0.000
_refine_ls_structure_factor_coef Fsqd
_refine_ls_weighting_details
'w=1/[\s^2^(Fo^2^)+(0.0947P)^2^+0.0077P] where P=(Fo^2^+2Fc^2^)/3'
_refine_ls_weighting_scheme      calc
_refine_ls_wR_factor_gt          0.1413
_refine_ls_wR_factor_ref         0.1471
_reflns_number_gt                771
_reflns_number_total             883
_reflns_threshold_expression     'I > 2\s(I)'
_cod_data_source_file            is5462sup1.cif
_cod_data_source_block           1
_cod_database_code               2241935
_shelx_hkl_file
;
   0 -10   0 176.459 104.894  15
   0 -10  -1 66.9883 80.3893  15
   0 -10  -2 230.189 108.373  15
   0 -10  -3 195.146 99.9551  15
   0 -10  -4-21.1000 39.1501  15
   0 -10  -5 260.742 97.5413  15
   0 -10  -6 24.9377 40.8534  15
   0  -9   0 115.868 95.7394  15
   0  -9  -1 172.618 131.382  15
   0  -9  -2 63.3848 96.5193  15
   0  -9  -3 492.181 188.348  15
   0  -9  -4 391.425 162.265  15
   0  -9  -5 292.141 133.818  15
   0  -9  -6 366.311 128.215  15
   0  -9  -7-16.0858 30.2100  15
   0  -8   0 14339.7 826.336  21
   0  -8   0 17099.7 1120.66  15
   0  -8  -1-5.97187 39.0381  21
   0  -8   1-131.220 189.926  15
   0  -8   1 9.05068 51.1010  21
   0  -8  -1-97.5698 106.862  15
   0  -8  -2 377.246 163.070  15
   0  -8  -3 1006.85 280.892  15
   0  -8  -4 151.808 151.710  15
   0  -8   4 38.5971 73.6695  19
   0  -8   5 194.569 104.239  19
   0  -8  -5 353.802 173.267  15
   0  -8   6 76.2746 81.3329  19
   0  -8  -6 144.679 108.508  15
   0  -8  -7 954.486 219.702  15
   0  -8   7 974.711 210.127  19
   0  -8   8 71.8300 68.9459  19
   0  -8  -8 8.19607 34.3815  15
   0  -8  -9 372.823 106.540  16
   0  -8   9 303.564 95.2504  19
   0  -8 -10 293.411 74.5793  16
   0  -7   0 63.1824 65.1334  21
   0  -7   1 15505.3 809.240  21
   0  -7  -1 16046.1 818.940  21
   0  -7  -2 1793.20 275.041  21
   0  -7   2 1721.95 279.513  21
   0  -7  -3 183.858 128.199  15
   0  -7   3 280.896 112.564  21
   0  -7   3 411.766 146.079  19
   0  -7   4 1519.64 269.036  21
   0  -7   4 1886.75 318.128  19
   0  -7  -4 2093.07 396.777  15
   0  -7  -5 1663.45 343.248  15
   0  -7   5 1906.86 325.803  19
   0  -7   5 1695.33 290.483  21
   0  -7  -6 8878.71 755.690  15
   0  -7   6 8742.03 686.620  19
   0  -7  -7 1665.92 308.639  15
   0  -7   7 1682.62 297.573  19
   0  -7   8 89.8346 92.0027  19
   0  -7   9 101.680 77.9045  19
   0  -7  10 75.2587 63.7982  19
   0  -7 -10 21.1665 20.3833  16
   0  -7 -11 267.704 78.6381  16
   0  -6   0 54643.1 1347.41  21
   0  -6  -1 2146.85 271.158  21
   0  -6   1 2147.38 277.966  21
   0  -6   2 7352.59 517.116  21
   0  -6   3 3260.74 351.079  21
   0  -6   4 1697.85 264.586  21
   0  -6   5 525.124 156.690  21
   0  -6   6 1977.22 304.806  21
   0  -6  -6 2358.30 385.359  15
   0  -6   6 2146.19 338.005  19
   0  -6   7 4401.39 489.844  19
   0  -6   7 4349.90 454.264  21
   0  -6   8 1278.66 268.746  19
   0  -6   9 3381.24 408.937  19
   0  -6  10 800.623 185.055  19
   0  -6 -10 623.018 154.836  16
   0  -6  11 2192.87 266.441  19
   0  -6 -11 1946.14 245.875  16
   0  -6 -12 55.7430 39.1634  16
   0  -5   0 36.5953 44.6795  21
   0  -5   1 484.107 124.469  21
   0  -5   2 10924.8 560.344  21
   0  -5   3 25558.2 888.568  21
   0  -5   4 25543.5 925.871  21
   0  -5   5 20813.8 874.662  21
   0  -5   6 11313.5 678.656  21
   0  -5   7 4836.62 463.141  21
   0  -5   8 5314.44 534.905  19
   0  -5   8 4655.54 465.998  21
   0  -5   9 44.0788 77.4551  19
   0  -5  10 202.644 109.595  19
   0  -5 -10 275.836 114.333  16
   0  -5 -11 40.5972 65.1069  16
   0  -5  11 28.9576 42.1852  19
   0  -5 -12 872.315 160.298  16
   0  -5 -13 726.507 118.104  16
   0  -4   0 110400. 1495.78   1
   0  -4   1 46977.7 972.634  21
   0  -4   1 46785.8 1030.92   1
   0  -4   2 113450. 1567.80  21
   0  -4   3 1233.43 176.707  21
   0  -4   4 42.1086 43.3802  21
   0  -4   5 4900.25 389.272  21
   0  -4   6 2553.07 298.157  21
   0  -4   7 4548.05 426.585  21
   0  -4   8 25852.9 1044.37  21
   0  -4   9 29412.3 1263.09  19
   0  -4   9 29501.7 1157.66  21
   0  -4  10 60.3986 90.5740  19
   0  -4 -10 2.96544 54.1928  16
   0  -4  11 5492.74 508.797  19
   0  -4 -11 5240.62 468.176  16
   0  -4 -12 2149.70 270.797  16
   0  -4 -13 837.260 143.835  16
   0  -3   0 245.486 71.0828   1
   0  -3   1 6854.93 316.118  21
   0  -3   1 6151.91 311.945   1
   0  -3  -1 7218.78 326.514   1
   0  -3   2 165463. 1847.47   1
   0  -3   3 67359.8 1104.76  21
   0  -3   3 63406.6 1285.61   1
   0  -3   4 28303.8 775.575  21
   0  -3   5 52340.1 1143.01  21
   0  -3   6 60881.8 1319.61  21
   0  -3   7 37420.0 1112.36  21
   0  -3   8 11577.0 662.956  21
   0  -3  -9 2155.83 304.829  16
   0  -3   9 1970.64 288.378  21
   0  -3  10 1566.41 296.330  19
   0  -3 -10 1717.10 280.939  16
   0  -3  10 1618.02 272.689  21
   0  -3 -11 80.2841 56.8711  16
   0  -3 -12 2520.92 305.976  16
   0  -3 -13 3685.11 323.153  16
   0  -3 -14 1943.25 188.421  16
   0  -2   0 293977. 1672.81   1
   0  -2   1 36785.1 664.640   1
   0  -2  -1 39880.0 616.893   1
   0  -2   2 297201. 1834.02  21
   0  -2   3 56001.5 877.868  21
   0  -2  -3 55680.9 890.244   2
   0  -2   5 124.425 55.0610  21
   0  -2   6 26955.5 809.024  21
   0  -2   7 24108.3 833.724  21
   0  -2   8 25510.9 935.482  21
   0  -2   9 40172.5 1263.21  21
   0  -2 -10 7671.24 572.706  16
   0  -2  10 7254.58 569.803  21
   0  -2 -10 7033.26 490.947   3
   0  -2 -11 17001.9 854.574  16
   0  -2 -12 2295.47 298.542  16
   0  -2 -13 1089.85 182.871  16
   0  -2 -14 43.1983 20.3622  16
   0  -1   0 10.9165 6.26075   1
   0  -1  -1 177392. 981.623   1
   0  -1  -2 65189.2 719.823   2
   0  -1   3 87990.1 948.897  21
   0  -1  -3 90602.0 996.622   2
   0  -1  -4 202379. 1689.95   2
   0  -1   4 210444. 1743.50   2
   0  -1   5 104138. 1322.50  21
   0  -1   6 141362. 1727.72  21
   0  -1   7 32435.8 916.591  21
   0  -1   8 3273.99 321.011  21
   0  -1   9 3651.23 369.546  21
   0  -1  -9 3357.28 314.437   3
   0  -1 -10 1008.80 205.333  16
   0  -1  10 1022.27 217.407  21
   0  -1 -10 841.521 170.555   3
   0  -1 -11 4442.69 435.425  16
   0  -1 -12 4142.99 400.477  16
   0  -1 -13 4181.42 364.467  16
   0  -1 -14 3406.23 275.751  16
   0   0   1 86910.8 529.897   2
   0   0   2 13056.2 290.589   2
   0   0   3 17710.1 426.196   2
   0   0   4 7573.42 297.394  21
   0   0   4 8576.02 356.219   2
   0   0   5 37487.5 757.541  21
   0   0   6 16794.9 571.704  21
   0   0   7 97007.9 1549.87  21
   0   0  -7 93414.5 1398.67   3
   0   0   8 32159.5 1002.62  21
   0   0  -8 29784.4 860.351   3
   0   0   9 40252.0 1234.66  21
   0   0  -9 41133.8 1123.54   3
   0   0  10 18745.7 908.621  21
   0   0 -10 18003.8 787.673   3
   0   0 -10 18214.6 854.956  16
   0   0 -11 15304.5 792.812  16
   0   0 -12 883.430 181.756  16
   0   0 -13 3596.29 335.447  16
   0   0 -14 109.737 50.1990  16
   0   1   0 13.2725 11.6270   1
   0   1   1 176241. 992.326   1
   0   1   2 67274.9 753.998   1
   0   1  -3 87471.0 888.311   3
   0   1   3 86052.1 897.533  21
   0   1   4 198020. 1583.07  21
   0   1  -4 200459. 1523.06   3
   0   1  -5 100557. 1219.08   3
   0   1   5 103888. 1299.57  21
   0   1   6 141527. 1727.74  21
   0   1  -6 138563. 1606.76   3
   0   1  -7 31350.3 833.160   3
   0   1   7 32476.1 924.213  21
   0   1  -8 3620.74 309.285   3
   0   1   8 3588.18 338.226  21
   0   1  -9 3453.38 325.907   3
   0   1   9 3514.85 364.584  21
   0   1 -10 947.845 180.987   3
   0   1 -10 918.420 189.064  16
   0   1  10 884.578 200.831  21
   0   1 -11 4680.68 434.367  16
   0   1 -12 3923.14 383.673  16
   0   1 -13 4201.71 360.615  16
   0   1 -14 3459.47 271.391  16
   0   2   0 298018. 1804.80   1
   0   2   1 38052.6 632.311   1
   0   2   2 296431. 1798.03  21
   0   2   2 299899. 1858.35   4
   0   2   2 297511. 1881.72   1
   0   2   3 55112.7 932.939   4
   0   2   3 53856.4 834.730  21
   0   2   4 6984.48 329.095  21
   0   2   5 64.3093 42.2112  21
   0   2  -5 129.594 48.2775   3
   0   2   6 26737.8 788.978  21
   0   2  -6 25963.4 723.823   3
   0   2   7 23732.1 831.355  21
   0   2   8 26219.3 959.700  21
   0   2   9 39756.8 1296.85  21
   0   2 -10 7303.15 539.738  16
   0   2  10 7983.95 626.563  21
   0   2 -11 16831.8 810.473  16
   0   2 -12 2399.78 294.758  16
   0   2 -13 1075.23 172.118  16
   0   2 -14-23.4277 36.6472  16
   0   3   0 33.4165 42.2154   1
   0   3   1 6846.61 335.639   1
   0   3   1 6584.29 333.343  21
   0   3   1 7233.91 321.669   4
   0   3   2 175110. 1793.10   1
   0   3   2 172610. 1688.47   4
   0   3   3 64934.4 1139.99   4
   0   3   3 66562.4 1109.51  21
   0   3   4 27025.5 751.540  21
   0   3   4 25407.1 800.181   4
   0   3   5 51501.4 1117.33  21
   0   3   6 59907.8 1314.94  21
   0   3   7 36624.8 1115.75  21
   0   3   8 11228.8 678.991  21
   0   3   9 2401.05 332.352  21
   0   3  10 2173.93 334.706  21
   0   3 -10 1784.62 266.221  16
   0   3 -11 131.570 59.9587  16
   0   3 -12 2372.37 283.060  16
   0   3 -13 3743.07 305.791  16
   0   4   0 115404. 1478.19   4
   0   4   1 46613.0 978.877   4
   0   4   1 44935.7 1036.01  21
   0   4   2 110850. 1590.41   4
   0   4   2 110951. 1647.74  21
   0   4   3 1550.83 202.488   4
   0   4   3 1282.64 184.575  21
   0   4   4 72.8172 62.8417  21
   0   4   4 44.2694 50.4317   4
   0   4   5 5016.31 401.002  21
   0   4   6 2563.56 306.524  21
   0   4   7 5354.33 475.120  21
   0   4   8 26796.3 1127.30  21
   0   4  -9 29926.0 1096.62  16
   0   4   9 31242.6 1279.18  21
   0   4 -10-10.1751 73.6815  16
   0   4 -11 5006.33 423.841  16
   0   4 -12 2205.82 253.243  16
   0   4 -13 753.901 124.238  16
   0   5   0 74.1650 45.4050   4
   0   5   1 477.424 120.867   4
   0   5   2 10214.7 585.855  21
   0   5   2 10744.1 567.858   4
   0   5   3 24466.4 893.119   4
   0   5   3 24431.0 924.852  21
   0   5   4 25290.4 976.188  21
   0   5   4 24596.4 965.378   4
   0   5   5 19521.2 889.565  21
   0   5   5 18697.6 906.610   4
   0   5   6 11040.3 710.678  21
   0   5   7 4427.08 471.295  21
   0   5  -8 5223.77 463.440  16
   0   5   8 5026.31 520.019  21
   0   5  -9-4.80147 49.5476  16
   0   5 -10 262.295 99.6071  16
   0   5 -11 103.712 47.7806  16
   0   5 -12 999.841 154.317  16
   0   6   0 54382.8 1372.02   4
   0   6  -1 2346.71 279.823   4
   0   6   1 2360.51 294.775   4
   0   6  -2 7755.89 509.915   4
   0   6   2 7406.06 533.236   4
   0   6   3 3070.92 373.986  21
   0   6   3 3028.34 356.030   4
   0   6   4 1346.85 254.936  21
   0   6   4 1342.05 250.493   4
   0   6   5 442.393 169.724  21
   0   6   5 428.523 155.468   4
   0   6   6 2102.97 340.795  21
   0   6   6 2421.82 362.189   5
   0   6  -6 2093.03 297.257  16
   0   6   7 4786.10 506.452   5
   0   6  -7 4317.13 428.253  16
   0   6   7 4646.76 514.409  21
   0   6  -8 1279.98 237.651  16
   0   6  -9 2937.85 333.557  16
   0   6 -10 829.782 163.793  16
   0   6 -11 2006.41 225.458  16
   0   7   0 84.3205 78.9311   4
   0   7  -1 16016.4 821.677   4
   0   7   1 15589.6 833.195   4
   0   7   2 1646.80 277.722   4
   0   7  -2 1668.26 264.049   4
   0   7  -3 364.420 123.413   4
   0   7   3 380.985 170.952   5
   0   7  -3 350.013 130.054  16
   0   7   3 298.674 123.469   4
   0   7  -4 1517.23 252.179   4
   0   7   4 2041.44 349.642   5
   0   7   4 1568.86 299.576   4
   0   7  -4 1700.94 280.407  16
   0   7  -5 1655.61 273.833  16
   0   7   5 1909.99 336.392   5
   0   7   6 7853.86 661.208   5
   0   7  -6 7622.64 579.047  16
   0   7  -7 1599.25 261.294  16
   0   7   7 1631.26 294.250   5
   0   7  -8 12.2936 43.8258  16
   0   7  -9 120.587 47.4962  16
   0   7 -10-68.5022 60.5222  16
   0   8   0 14919.8 861.467   4
   0   8  -1-7.28406 58.9423   4
   0   8   1 8.58810 67.7068   4
   0   8  -1-48.7524 53.0209  16
   0   8  -2 262.457 127.616  16
   0   8   2 326.994 131.759   5
   0   8   3 1178.96 278.423   5
   0   8  -3 790.063 195.035  16
   0   8  -4-27.9448 47.2007  16
   0   8   4 125.570 105.408   5
   0   8  -5 154.517 91.9446  16
   0   8   5 209.432 120.997   5
   0   8  -6 70.8316 69.4638  16
   0   8   6 48.3105 54.1364   5
   0   8  -7 925.862 184.304  16
   0   8   7 1070.96 215.297   5
   0   8  -8 16.5583 35.5956  16
   0   8  -9 399.729 91.7572  16
   0   9   0 81.9805 78.2946   5
   0   9   1 174.450 105.568   5
   0   9   2 26.8011 50.2784   5
   0   9   3 582.737 181.774   5
   0   9  -3 315.445 124.103  16
   0   9  -4 230.168 101.448  16
   0   9   4 458.636 155.741   5
   0   9  -5 142.721 75.7185  16
   0   9   5 180.099 99.4698   5
   0   9  -6 355.213 103.880  16
   0   9   6 450.592 132.014   5
   0   9   7 24.1593 31.1271   5
   0   9  -7-21.4699 39.9105  16
   0  10   0 329.871 113.989   5
   0  10  -1 114.734 72.6987   5
   0  10   1 34.8088 29.4401   5
   0  10   2 433.690 129.233   5
   0  10  -2 477.609 125.513   5
   0  10  -3 222.667 88.4521   5
   0  10   3 94.3354 49.8273   5
   0  10   4-35.9190 50.8862   5
   0  10   5 218.431 80.5665   5
   1 -10  -5 77.9984 46.2882  15
   1 -10  -4 108.480 70.8480  15
   1 -10  -3 146.643 80.6532  15
   1 -10  -2 98.1354 75.0142  15
  -1 -10   1-10.3750 33.8136  15
  -1 -10   0 443.853 133.695  15
  -1 -10  -1 50.5032 51.3454  15
  -1 -10  -2 93.6734 84.8614  15
  -1 -10  -3 225.609 94.2873  15
  -1 -10  -4 53.9383 43.1746  15
   1  -9  -7 260.924 103.420  15
   1  -9  -6 150.338 84.1425  15
   1  -9  -5 328.606 143.470  15
   1  -9  -4 103.505 78.5250  15
   1  -9  -3-32.4758 61.5432  15
  -1  -9   2 56.5266 60.4158  15
   1  -9  -2 62.8073 76.2172  15
   1  -9  -1 329.824 141.530  15
  -1  -9   1 499.008 172.886  15
  -1  -9   0 15.4309 58.1319  15
  -1  -9  -1 447.409 175.394  15
  -1  -9  -2 350.625 168.023  15
  -1  -9  -3 68.6833 54.1206  15
  -1  -9  -4 776.760 212.802  15
  -1  -9  -5 11.5391 54.8699  15
  -1  -9  -6 11.5166 33.6529  15
   1  -8  -9 216.585 74.0936  16
   1  -8  -9 250.454 85.9437  15
   1  -8  -8 171.068 87.0000  15
   1  -8  -7 284.814 130.409  15
   1  -8  -6 47.9924 100.926  15
   1  -8  -5 432.199 167.868  15
   1  -8  -4 356.831 171.499  15
   1  -8  -3 84.7038 72.5965  15
  -1  -8   2 9151.75 805.339  15
   1  -8  -2 9971.24 840.578  15
  -1  -8   1 1030.41 307.314  15
   1  -8  -1 936.167 264.891  15
  -1  -8   0 61.6780 130.273  15
  -1  -8  -1 591.493 230.115  15
  -1  -8  -2 163.172 148.538  15
  -1  -8  -3-124.892 146.649  15
   1  -8   3-10.5818 42.5307  19
   1  -8   4 8.30667 32.4356  19
  -1  -8  -4-36.0638 94.2477  15
   1  -8   5 1560.29 271.121  19
  -1  -8  -5 1563.13 310.544  15
   1  -8   6 272.845 126.279  19
  -1  -8  -6 248.524 106.009  15
   1  -8   7 326.580 116.529  19
   1  -8   8 876.253 169.425  19
  -1  -8  -9 511.027 100.967  16
   1  -8   9 754.566 138.186  19
   1  -7 -11 40.6227 34.7565  16
   1  -7 -10 76.2377 53.6664  16
   1  -7 -10 40.3444 58.7568   7
   1  -7  -9 96.5397 77.6069  16
   1  -7  -8 3587.02 428.798  15
   1  -7  -7 1674.88 316.651  15
  -1  -7   6 843.681 215.396  19
   1  -7  -6 353.040 143.699  15
  -1  -7   5 328.700 145.335  19
   1  -7  -5 124.658 121.253  15
  -1  -7   4 339.033 126.658  21
   1  -7  -4 337.363 144.373  15
   1  -7  -4 315.412 119.755  21
   1  -7  -3 4597.31 584.477  15
  -1  -7   3 4511.67 455.717  21
   1  -7  -3 4207.92 416.458  21
   1  -7  -2 3100.08 302.981  18
   1  -7  -2 3096.97 478.446  15
   1  -7  -2 3159.84 358.717  21
  -1  -7   2 3078.49 377.305  21
  -1  -7   1 19560.8 929.485  21
   1  -7  -1 19249.3 737.512  18
   1  -7  -1 18577.6 869.798  21
   1  -7  -1 20472.0 1193.35  15
  -1  -7   0 2565.54 331.878  21
   1  -7   0 2348.13 310.800  21
   1  -7   1 538.010 150.069  19
  -1  -7  -1 507.400 141.427  21
  -1  -7  -1 830.897 285.073  15
   1  -7   1 556.860 157.046  21
  -1  -7  -2 2063.53 419.646  15
   1  -7   2 1781.20 276.406  21
   1  -7   2 1827.62 292.110  19
  -1  -7  -2 1756.54 276.018  21
   1  -7   3 1196.48 247.070  19
  -1  -7  -3 1107.47 315.556  15
   1  -7   3 980.254 206.360  21
  -1  -7  -3 1077.22 217.272  21
  -1  -7  -4 7617.30 740.091  15
   1  -7   4 7634.61 585.635  21
   1  -7   4 7942.27 634.070  19
   1  -7   5 3991.52 455.863  19
  -1  -7  -5 3580.67 490.252  15
  -1  -7  -6 50.6545 62.3075  15
   1  -7   6 83.5158 72.4107  19
   1  -7   7 280.903 120.919  19
   1  -7   8 117.633 54.1609  19
  -1  -7  -9 220.034 77.4451  16
   1  -7   9 277.503 103.596  19
  -1  -7 -10 222.952 76.5542  16
   1  -7  10 295.787 94.3826  19
   1  -6 -12 301.819 104.028   7
   1  -6 -12 229.282 68.2118  16
   1  -6 -11 809.212 153.923  16
   1  -6 -10 366.272 113.866  16
   1  -6  -9 1005.29 209.336  16
   1  -6  -8 1262.77 271.398  15
   1  -6  -7 546.594 180.350  15
  -1  -6   6 685.783 181.071  21
   1  -6  -6 778.072 233.568  15
  -1  -6   5 3365.25 393.895  21
   1  -6  -5 3457.19 485.049  15
  -1  -6   4 4857.06 454.445  21
  -1  -6   3 2044.56 285.219  21
  -1  -6   2 30142.4 1087.99  21
   1  -6  -2 29253.0 1009.33  21
  -1  -6   1 5635.36 456.705  21
   1  -6  -1 5967.32 448.651  21
  -1  -6   0 3593.99 361.128  21
   1  -6   0 3870.91 364.061  21
  -1  -6  -1 1275.96 218.788  21
   1  -6   1 1494.40 232.585  21
   1  -6   2 1676.80 248.182  21
   1  -6   3 20.1406 62.0019  11
   1  -6   3 101.802 73.3145  21
   1  -6   4 1816.56 272.632  21
   1  -6   4 2285.95 355.450  11
   1  -6   5 6767.92 586.978  19
  -1  -6  -5 7095.91 686.464  15
   1  -6   5 7347.32 671.961  11
   1  -6   5 6423.86 526.953  21
   1  -6   6 3106.15 371.664  21
   1  -6   6 3997.52 523.587  11
   1  -6   6 3484.23 432.378  19
   1  -6   7 3814.16 453.295  19
   1  -6   8 1792.86 304.442  19
   1  -6   9 3210.86 391.502  19
  -1  -6 -10 202.072 77.9881  16
   1  -6  10 383.144 125.769  19
  -1  -6 -11 324.737 82.6072  16
   1  -6  11 575.751 131.062  19
   1  -5 -13 84.9700 54.5044   7
   1  -5 -13 92.0825 45.4068  16
   1  -5 -12 119.038 66.4731  16
   1  -5 -11 110.455 65.2989  16
   1  -5 -10 2691.94 339.275  16
   1  -5  -9 2819.77 358.038  16
  -1  -5   8 3846.81 424.916  21
  -1  -5   7 10021.7 670.172  21
   1  -5  -7 10311.0 774.298  15
  -1  -5   6 9041.43 618.949  21
  -1  -5   5 10010.5 628.918  21
  -1  -5   4 12492.4 667.315  21
  -1  -5   3 2010.05 260.882  21
  -1  -5   2 439.833 126.525  21
   1  -5  -1 3892.88 321.526  21
  -1  -5   1 3861.47 340.631  21
  -1  -5   0 2469.39 268.322  21
   1  -5   0 2449.73 256.900  21
   1  -5   1 36599.7 1066.06  11
   1  -5   1 34868.2 973.405  21
   1  -5   2 30571.1 1069.41  11
   1  -5   2 29314.3 915.792  21
   1  -5   3 19008.4 768.390  21
   1  -5   4 18001.5 781.797  21
   1  -5   5 3661.51 369.536  21
   1  -5   6 4090.06 405.876  21
   1  -5   7 685.334 197.889  19
   1  -5   7 876.139 195.099  21
   1  -5   8 3053.67 412.497  19
   1  -5   9 4.44779 51.8787  19
   1  -5  10 3572.28 419.440  19
  -1  -5 -10 3295.31 346.584  16
  -1  -5 -11 1665.07 215.678  16
   1  -5  11 1791.56 269.068  19
   1  -5  12 1371.45 198.836  19
   1  -4 -13 2141.88 227.600  16
   1  -4 -13 2157.66 296.963   7
   1  -4 -12 31.0706 42.9879  16
   1  -4 -11 6049.94 493.699  16
   1  -4 -10 12688.6 752.572  16
  -1  -4   9 2120.58 313.913  21
   1  -4  -9 2359.90 329.904  16
  -1  -4   8 363.724 127.351  21
  -1  -4   7 2162.73 293.101  21
  -1  -4   6 2017.66 268.866  21
  -1  -4   5 191.188 79.9531  21
  -1  -4   4 35306.1 1012.48  21
  -1  -4   3 56212.9 1198.31  21
  -1  -4   2 58265.6 1172.96  21
  -1  -4   1 25777.4 760.208  21
   1  -4   0 97561.2 1375.76  21
   1  -4   0 99197.4 1429.01  11
   1  -4   1 477.250 127.655  11
   1  -4   1 808.466 127.977  21
   1  -4   1 469.843 157.580  10
   1  -4   2 1463.54 182.623  21
   1  -4   3 1336.05 180.827  21
   1  -4   4 2815.71 278.505  21
   1  -4   5 8110.41 502.319  21
   1  -4   6 30862.8 1029.37  21
   1  -4   7 51462.4 1399.20  21
   1  -4   8 1559.42 257.940  21
   1  -4   8 1490.01 289.925  19
   1  -4   9 3307.45 437.250  19
  -1  -4  -9 3302.69 376.912  16
   1  -4  10 4373.01 489.115  19
  -1  -4 -10 4571.74 420.934  16
   1  -4  11 1664.88 279.131  19
   1  -4  12 50.3230 68.7923  19
   1  -4  13 156.238 65.7452  19
   1  -3 -14 484.413 94.6042  16
   1  -3 -13-11.6537 27.2031  16
   1  -3 -12 151.619 83.5916  16
   1  -3 -11 2222.83 305.528  16
   1  -3 -10 4714.86 456.226  16
  -1  -3   9 18106.1 887.225  21
   1  -3  -9 16888.7 862.535  16
  -1  -3   8 22686.7 938.465  21
  -1  -3   7 33821.5 1077.30  21
  -1  -3   6 14614.2 664.314  21
  -1  -3   5 18999.1 703.723  21
  -1  -3   4 93160.3 1455.08  21
   1  -3  -4 100136. 1554.60   9
  -1  -3   3 266.771 82.3288  21
  -1  -3   2 1098.95 143.625  21
   1  -3  -1 28134.7 621.461  11
  -1  -3   1 27756.3 672.738  21
   1  -3   0 67449.8 959.879  21
   1  -3   0 67862.2 1067.97  11
   1  -3   1 128321. 2209.06  10
   1  -3   1 134176. 1396.42  21
   1  -3   2 27969.6 960.317  10
   1  -3   2 29774.5 692.746  21
   1  -3   3 35021.0 811.045  21
   1  -3   4 87506.6 1382.16  21
   1  -3   5 37390.8 973.030  21
   1  -3   6 15242.7 669.375  21
   1  -3   7 547.493 147.164  21
   1  -3   8 16488.1 791.802  21
   1  -3   9 248.873 118.344  19
   1  -3   9 391.161 171.487  11
   1  -3   9 370.026 119.914  21
   1  -3  10 6224.40 605.902  19
   1  -3  11 7255.26 624.192  19
   1  -3  12 5506.02 489.927  19
   1  -3  13 4247.46 360.191  19
   1  -2 -14 971.757 144.168  16
   1  -2 -13 4987.37 394.264  16
   1  -2 -12 2676.36 321.794  16
   1  -2 -11 10994.2 689.370  16
  -1  -2  10 9448.79 652.172  21
   1  -2 -10 8959.34 632.198  16
  -1  -2   9 7474.63 549.837  21
  -1  -2   8 6149.27 465.595  21
  -1  -2   7 168.431 77.7268  21
  -1  -2   6 3278.85 285.066  21
  -1  -2   5 32710.9 825.003  21
  -1  -2   4 111807. 1401.64  21
  -1  -2   3 77845.7 1068.40  21
   1  -2  -2 172719. 1618.88   9
  -1  -2   2 171334. 1442.88  21
   1  -2  -1 41432.4 624.794  17
   1  -2  -1 41047.7 711.292   9
   1  -2   0 201759. 1635.27  11
  -1  -2   0 197927. 1937.40   1
   1  -2   0 200280. 1488.93  17
  -1  -2  -1 31270.1 729.006   1
   1  -2   1 30487.3 941.960  10
   1  -2   1 33370.6 755.473  11
   1  -2   1 31254.6 646.039  17
   1  -2   2 9025.77 498.034  10
   1  -2   2 9388.41 389.543  17
   1  -2   2 10399.8 346.657  21
   1  -2   3 4848.78 263.370  21
   1  -2   4 39965.9 827.271  21
   1  -2   5 43747.7 949.567  21
   1  -2   6 45894.7 1067.07  21
   1  -2   7 52250.7 1244.83  21
   1  -2   8 20651.9 849.496  21
   1  -2   9 19692.4 1086.39  19
   1  -2   9 21691.7 932.455  21
   1  -2  10 5094.81 558.274  19
   1  -2  11 1691.36 311.885  19
   1  -2  12 104.766 68.1919  19
   1  -2  13 290.167 102.623  19
   1  -1 -14 406.592 95.9226  16
   1  -1 -13 1750.12 238.151  16
   1  -1 -12 9.74902 43.5133  16
   1  -1 -11 743.515 175.367  16
   1  -1 -10 5050.64 466.607  16
  -1  -1  10 5079.59 480.952  21
  -1  -1   9 10155.7 631.216  21
  -1  -1   8 54318.5 1327.02  21
  -1  -1   7 66291.6 1327.90  21
  -1  -1   6 61054.4 1144.43  21
  -1  -1   5 46337.3 893.927  21
  -1  -1   4 37768.2 715.123  21
  -1  -1   3 15457.4 401.312  21
   1  -1  -2 53176.8 903.684   9
  -1  -1   1 311939. 2376.60   1
   1  -1  -1 316659. 2886.39  10
   1  -1   0 44290.3 1036.31  10
   1  -1   0 44967.0 689.218  11
   1  -1   0 43804.1 590.445  17
  -1  -1   0 45130.7 780.756   1
   1  -1   1 98674.2 1109.67  11
   1  -1   1 95694.7 1501.23  10
   1  -1   1 99977.3 965.864  17
   1  -1   1 95564.0 662.398   1
  -1  -1  -1 102831. 1103.91   1
   1  -1   2 221463. 1633.96  17
   1  -1   2 223883. 1301.39   1
   1  -1   3 91981.6 1061.26   1
   1  -1   3 91903.3 1183.19  17
   1  -1   3 93919.3 994.578  21
   1  -1   4 180776. 1557.52  14
   1  -1   4 179121. 1594.70  21
   1  -1   5 45047.6 838.846  14
   1  -1   5 46932.1 915.580  21
   1  -1   6 783.620 132.016  21
   1  -1   7 4512.35 351.575  21
   1  -1   8 5775.25 439.333  21
  -1  -1  -9 5526.88 438.465   3
   1  -1   9 5608.98 476.540  21
   1  -1  10 16084.4 1010.64  19
  -1  -1 -10 17070.3 817.657   3
   1  -1  10 17394.5 882.295  21
   1  -1  11 6262.34 617.501  19
   1  -1  12 8676.83 676.228  19
   1  -1  13 5747.95 471.762  19
   1   0 -14 711.827 128.088  16
   1   0 -13 3439.06 333.484  16
   1   0 -12 6640.04 516.224  16
   1   0 -11 14440.3 785.711  16
   1   0 -10 7458.85 559.782  16
  -1   0  10 7424.50 569.813  21
  -1   0   9 32407.3 1123.89  21
  -1   0   8 13015.5 653.089  21
  -1   0   7 17820.2 675.583  21
  -1   0   6 9628.54 437.606  21
  -1   0   5 40237.5 791.883  21
   1   0  -4 20981.9 583.609  22
  -1   0   4 23234.1 516.230  21
   1   0  -3 25049.3 768.061  10
   1   0  -3 20744.5 553.826  22
   1   0  -2 999999. 3700.58  22
   1   0  -2 996009. 3945.99   9
   1   0  -1 221434. 1678.81  22
  -1   0   0 1692.85 117.742   1
   1   0   1 272.570 53.2001  11
   1   0   1 256.379 52.1996   1
  -1   0  -1 293.477 47.7523   1
   1   0   1 246.782 45.7749  17
   1   0   2 11758.3 355.946  14
   1   0   2 11605.7 369.177  11
   1   0   2 10562.7 313.434  17
   1   0   2 11479.3 377.390   1
  -1   0  -3 8613.11 305.951   2
   1   0   3 8365.89 330.136  14
   1   0   3 8158.84 344.894  11
   1   0   3 8320.81 311.507  17
   1   0   3 8321.73 278.355  21
   1   0   3 8262.18 358.044   1
   1   0   4 4607.69 313.359   1
  -1   0  -4 4903.15 267.169   2
   1   0   4 4299.48 280.870  11
   1   0   4 4309.43 257.232  17
   1   0   4 5020.21 278.159  14
   1   0   4 4789.34 247.606  21
   1   0   5 144599. 1622.49  14
   1   0   5 142631. 1550.09  21
   1   0   6 87540.1 1357.32  14
   1   0   6 88966.7 1386.77  21
  -1   0  -7 44783.0 1084.88   3
   1   0   7 47262.2 1149.89  21
   1   0   8 41169.7 1176.29  21
  -1   0  -8 38867.7 1082.69   3
  -1   0  -9 26555.0 970.156   3
   1   0   9 25663.6 999.315  21
  -1   0 -10 1850.67 264.791   3
   1   0  10 1539.77 312.047  19
   1   0  10 1799.16 283.963  21
   1   0  11 4340.17 520.938  19
   1   0  12 44.5182 49.1963  19
   1   0  13 471.788 137.388  19
   1   1 -14 331.065 88.9244  16
   1   1 -13 1808.98 239.509  16
   1   1 -12 9.98736 32.6724  16
   1   1 -11 613.479 166.007  16
  -1   1  10 5362.07 497.408  21
   1   1 -10 4578.11 439.181  16
  -1   1   9 10818.8 659.315  21
  -1   1   8 56487.0 1370.71  21
  -1   1   7 66834.0 1326.26  21
  -1   1   6 61692.2 1138.75  21
  -1   1   5 46483.2 875.112  21
   1   1  -5 43481.1 989.654  22
   1   1  -4 35483.9 870.871  22
  -1   1   4 38205.6 687.984  21
   1   1  -3 14758.1 541.661  22
  -1   1   3 15894.6 426.594   2
   1   1  -2 50254.7 959.515  22
  -1   1   2 51509.4 622.318   2
  -1   1   1 309099. 1157.41   2
   1   1  -1 310941. 2282.37  22
   1   1  -1 312541. 1968.74   9
   1   1   0 45701.5 819.569  22
   1   1   0 45390.2 880.453   1
  -1   1  -1 95406.7 496.570   2
   1   1   1 101875. 1263.42   1
   1   1   2 225161. 1971.51   1
   1   1   2 220399. 1400.11  17
   1   1   3 92797.8 992.783  11
   1   1   3 92520.1 1016.27  21
   1   1   3 92707.7 964.867  17
   1   1   4 180082. 1522.96  11
   1   1   4 177693. 1485.77  17
   1   1   4 181771. 1595.33  21
  -1   1  -4 181508. 1644.35   3
  -1   1  -5 45977.2 915.479   3
   1   1   5 45742.7 907.163  21
  -1   1  -6 967.031 148.307   3
   1   1   6 878.098 143.438  21
   1   1   7 4698.17 365.821  21
  -1   1  -7 4939.45 366.460   3
   1   1   7 5111.09 385.796  14
   1   1   8 5916.56 453.768  21
  -1   1  -8 6044.01 435.733   3
  -1   1  -9 5482.18 442.954   3
   1   1   9 5568.47 479.352  21
  -1   1 -10 17222.7 809.643   3
   1   1  10 16315.7 1026.67  19
   1   1  10 18148.2 925.151  21
   1   1  11 6555.00 641.354  19
   1   1  12 8647.17 686.693  19
   1   1  13 5164.44 455.298  19
   1   2 -14 888.861 135.737  16
   1   2 -13 5194.34 394.335  16
   1   2 -12 2484.14 304.562  16
   1   2 -11 11096.8 673.523  16
   1   2 -10 9085.54 613.310  16
  -1   2  10 10276.0 716.233  21
  -1   2   9 8441.77 609.993  21
  -1   2   8 6478.71 488.557  21
  -1   2   7 233.478 86.9412  21
  -1   2   6 2954.34 269.672  21
  -1   2   5 32222.5 802.429  21
  -1   2   4 113543. 1369.96  21
  -1   2   3 79470.2 1041.70  21
  -1   2   2 171816. 1436.09  21
  -1   2   2 170254. 1191.09   1
   1   2  -1 43176.2 730.849   9
  -1   2   1 41595.4 422.744   1
   1   2  -1 42021.1 671.750   4
   1   2   0 200183. 1542.80   4
   1   2   0 203789. 2228.96   1
   1   2   1 31667.5 625.556  21
   1   2   1 32201.3 860.698   1
   1   2   1 32472.9 673.917   4
   1   2   2 9730.87 418.160   4
   1   2   2 10223.2 368.105  21
   1   2   2 9559.73 392.695  22
   1   2   3 5090.98 277.990  21
   1   2   3 4619.30 215.565  17
   1   2   4 40034.6 852.399  21
  -1   2  -4 41117.7 832.298   3
  -1   2  -5 46362.6 964.542   3
   1   2   5 45107.4 989.046  21
  -1   2  -6 46124.6 1057.82   3
   1   2   6 45952.7 1104.99  21
  -1   2  -7 51228.4 1205.06   3
   1   2   7 53780.2 1309.87  21
   1   2   8 19596.6 876.061  21
  -1   2  -8 19934.9 801.855   3
   1   2   9 22059.0 994.504  21
   1   2  10 4663.00 549.696  19
   1   2  11 1749.59 329.738  19
   1   2  12 116.530 67.3297  19
   1   2  13 239.881 104.754  19
   1   3 -14 464.570 90.2780  16
   1   3 -13 2.46630 24.4040  16
   1   3 -12 124.313 75.4291  16
   1   3 -11 2300.05 302.418  16
   1   3 -10 4524.90 433.053  16
  -1   3   9 19961.9 977.481  21
   1   3  -9 16861.1 827.370  16
  -1   3   8 25286.5 1034.86  21
  -1   3   7 36446.0 1147.53  21
  -1   3   6 15787.1 689.779  21
  -1   3   5 19467.1 711.950  21
   1   3  -4 102596. 1559.67   9
  -1   3   4 93646.8 1449.25  21
  -1   3   3 249.757 74.8715  21
  -1   3   2 1176.86 149.665  21
  -1   3   1 28234.7 603.988   4
   1   3  -1 27764.1 664.591   4
   1   3   0 68187.6 1085.80   4
   1   3   1 134722. 1590.81  21
   1   3   1 132895. 1595.80   4
   1   3   2 29275.0 809.875   4
   1   3   2 29763.2 762.670  21
   1   3   3 33936.7 960.292   4
   1   3   3 34914.1 866.801  21
   1   3   4 87488.8 1451.72  21
   1   3   5 36861.5 1010.55  21
   1   3   6 15730.2 711.409  21
   1   3   7 563.319 148.353  21
   1   3   8 16147.8 837.937  21
   1   3   9 259.723 116.264   5
   1   3   9 289.825 122.676  21
   1   3  10 6156.06 627.803  19
   1   3  11 6752.94 628.746  19
   1   3  12 4840.21 480.697  19
   1   3  13 3693.71 344.502  19
   1   4 -13 2289.09 225.661  16
   1   4 -12 26.8154 25.0377  16
   1   4 -11 5700.13 463.388  16
   1   4 -10 12873.1 721.808  16
   1   4  -9 2233.91 307.359  16
  -1   4   9 2719.90 385.462  21
   1   4  -8 483.240 134.565  16
  -1   4   8 489.092 171.285  21
  -1   4   7 2562.19 331.783  21
  -1   4   6 1982.80 276.758  21
  -1   4   5 143.734 83.8030  21
  -1   4   4 35774.4 1044.43  21
  -1   4   3 58006.6 1280.23  21
   1   4  -2 56776.7 1122.46   4
  -1   4   2 59447.1 1255.32  21
  -1   4   1 26737.9 711.476   4
   1   4  -1 25636.2 753.248   4
   1   4   0 93154.5 1497.80   4
   1   4   1 490.741 123.602   4
   1   4   2 1510.22 210.354   4
   1   4   2 1539.94 204.144  21
   1   4   3 1236.92 191.470  21
   1   4   3 1450.64 226.106   4
   1   4   4 2841.26 329.872   4
   1   4   4 2835.25 298.191  21
   1   4   5 8069.37 533.595  21
   1   4   6 31211.5 1123.33  21
   1   4   7 51715.4 1517.95  21
   1   4   8 1511.90 295.721   5
   1   4   8 1689.84 291.400  21
   1   4   9 3427.35 434.939   5
   1   4  10 4638.82 481.894   5
   1   4  11 1271.00 264.543  19
   1   4  12 10.7557 34.2520  19
   1   5 -13 118.125 44.2983  16
   1   5 -12 182.065 59.9468  16
   1   5 -11 166.195 75.9206  16
   1   5 -10 2665.81 318.603  16
   1   5  -9 3133.58 359.373  16
   1   5  -8 4133.61 420.307  16
  -1   5   8 4421.29 498.668  21
  -1   5   7 10776.7 749.467  21
   1   5  -7 10101.7 646.887  16
  -1   5   6 9690.61 678.395  21
  -1   5   5 10755.4 683.643  21
  -1   5   4 13015.7 724.799  21
   1   5  -3 4076.40 344.862   4
  -1   5   3 1933.58 277.739  21
   1   5  -2 558.146 127.122   4
  -1   5   1 4024.90 330.511   4
   1   5  -1 3782.47 337.861   4
   1   5   0 2451.75 277.236   4
  -1   5   0 2616.48 258.062   4
   1   5   1 33944.2 1060.27   4
   1   5   2 27515.8 993.530   4
   1   5   2 26824.1 986.050  21
   1   5   3 18768.3 878.533   4
   1   5   3 18257.6 832.292  21
   1   5   4 16606.2 881.439   4
   1   5   4 16824.8 830.354  21
   1   5   5 3207.98 378.947  21
   1   5   6 3793.39 428.805  21
   1   5   7 613.349 183.350  21
   1   5   7 562.345 199.630   5
   1   5   8 3613.34 453.726   5
   1   5   9 20.1701 38.1325   5
   1   5  10 3090.92 380.128   5
   1   5  11 1318.61 247.051  19
   1   5  12 982.704 171.601  19
   1   6 -12 253.820 69.4949  16
   1   6 -11 929.685 155.102  16
   1   6 -10 324.185 103.645  16
   1   6  -9 1125.88 210.285  16
   1   6  -8 1097.82 215.584  16
   1   6  -7 476.272 152.593  16
  -1   6   6 711.024 206.852  21
   1   6  -6 935.551 206.579  16
  -1   6   5 3137.55 412.936  21
   1   6  -5 3105.50 366.330  16
   1   6  -4 4601.66 418.096   4
   1   6  -3 1927.41 271.044   4
   1   6  -2 29372.5 1051.39   4
   1   6  -1 5429.45 456.777   4
   1   6   0 3902.53 391.023   4
  -1   6   0 3636.13 355.391   4
   1   6   1 1518.72 250.146   4
  -1   6  -1 1593.48 231.121   4
   1   6   2 1600.79 270.029   4
   1   6   3-10.5136 31.8716   4
   1   6   4 2150.84 346.719   4
   1   6   4 1816.00 299.634  21
   1   6   5 7419.45 660.792   5
   1   6   5 6567.04 588.013  21
   1   6   6 3417.99 458.453   5
   1   6   6 3152.27 416.117  21
   1   6   7 4014.64 482.796   5
   1   6   8 1909.39 326.925   5
   1   6   9 2882.18 375.915   5
   1   6  10 217.922 98.8762   5
   1   6  11 449.043 129.767  19
   1   7 -11 2.77861 18.9212  16
   1   7 -10 43.9038 26.5204  16
   1   7  -9 205.026 86.9190  16
   1   7  -8 3877.27 383.454  16
   1   7  -7 1704.49 267.756  16
   1   7  -6 439.858 144.898  16
   1   7  -5 177.708 87.0796  16
  -1   7   4 711.155 205.867   5
   1   7  -4 426.993 149.286  16
   1   7  -4 386.685 138.760   4
   1   7  -3 4076.44 434.559  16
   1   7  -3 4099.04 430.824   4
   1   7  -2 2998.69 374.280   4
   1   7  -2 3075.16 384.722  16
   1   7  -1 18361.5 936.905  16
   1   7  -1 19312.3 943.757   4
   1   7   0 1949.00 301.733  16
   1   7   0 2511.78 348.951   4
   1   7   1 403.229 141.860   4
  -1   7  -1 378.722 113.846   4
   1   7   1 323.583 152.629   5
   1   7   2 1617.96 294.612   4
   1   7   2 2174.87 357.057   5
  -1   7  -2 2048.06 287.769   4
   1   7   3 1342.45 284.803   5
   1   7   3 1197.13 264.129   4
  -1   7  -3 1002.20 204.807   4
   1   7   4 6072.14 609.168   4
   1   7   4 7818.39 688.829   5
   1   7   5 3459.26 463.465   5
   1   7   6 14.7954 55.8647   5
   1   7   7 125.684 76.8280   5
   1   7   8 50.0056 46.2192   5
   1   7   9 252.573 106.441   5
   1   7  10 235.175 93.0542  19
   1   7  10 217.134 72.1092   5
   1   8  -9 244.427 77.0476  16
   1   8  -8 141.427 78.9947  16
   1   8  -7 277.593 99.5858  16
   1   8  -6 68.7530 60.4569  16
   1   8  -5 504.560 154.808  16
  -1   8   4 430.770 158.328   5
   1   8  -4 283.167 119.594  16
  -1   8   3 171.256 95.7195   5
   1   8  -3 87.5319 80.4291  16
   1   8  -2 8178.65 629.448  16
   1   8  -1 1045.90 239.545   5
   1   8  -1 933.963 215.755  16
   1   8   0 767.642 208.450   5
   1   8   1 475.482 177.171   5
   1   8   2 40.2664 60.4116   5
   1   8   3 16.1805 64.5159   5
   1   8   4 71.3537 73.2360   5
   1   8   5 1463.34 282.654   5
   1   8   6 216.673 101.735   5
   1   8   7 235.599 102.730   5
   1   8   8 641.978 152.041   5
   1   8   9 649.038 126.476   5
   1   9  -8 150.042 53.6681  16
   1   9  -7 251.955 82.1006  16
   1   9  -6 70.8799 44.9732  16
  -1   9   5 269.184 102.514   5
   1   9  -5 291.881 99.1839  16
   1   9  -4-37.4894 36.6354  16
  -1   9   4 27.4695 30.3925   5
  -1   9   3 46.8294 39.0169   5
   1   9  -3 15.3482 56.9465  16
  -1   9   2 235.720 117.892   5
   1   9  -2 100.332 71.4832  16
   1   9  -1 615.002 155.962   5
   1   9   0 31.0715 55.9836   5
   1   9   1 478.430 216.007   5
   1   9   2 635.740 171.495   5
   1   9   3 306.495 117.415   5
   1   9   4 477.726 148.830   5
   1   9   5 85.5486 61.2966   5
   1   9   6-21.2847 53.1069   5
   1   9   7 84.4083 39.8049  13
   1   9   7 42.5377 39.3247   5
  -1  10   4 124.840 64.3740   5
  -1  10   3 117.454 50.7662   5
   1  10  -3 144.268 56.0416  20
  -1  10   2 91.2907 56.4301   5
   1  10  -2 152.018 62.5783  20
  -1  10   1 59.2427 56.9876   5
   1  10   0 376.534 106.716   5
  -1  10   0 434.117 128.544   5
   1  10   1 133.844 72.9248   5
  -1  10  -1 137.770 76.2008   5
   1  10   2 36.6339 35.5473   5
   1  10   3 225.029 81.6475   5
   1  10   4-22.7220 20.9561   5
   1  10   5 50.9439 32.5712  13
   1  10   5 111.584 60.4370   5
  -2 -10   0 85.5619 49.5056  15
  -2 -10  -1 30.2919 40.6049  15
   2  -9  -6 16.0962 40.8546  15
   2  -9  -5 52.2913 51.5167  15
   2  -9  -4 104.518 76.7631  15
  -2  -9   3 280.940 104.619  15
   2  -9  -3 331.208 116.771  15
  -2  -9   2 12.5992 56.2519  15
   2  -9  -2-4.04560 36.2474  15
  -2  -9   1 195.212 110.628  15
  -2  -9   0 315.755 138.855  15
  -2  -9  -1 127.702 81.9875  15
  -2  -9  -2 306.965 126.804  15
  -2  -9  -3-39.8895 69.9534  15
  -2  -9  -4 73.2003 63.8759  15
   2  -8  -8 48.7387 34.0870  15
   2  -8  -7 105.502 69.5823  15
   2  -8  -6 153.722 105.929  15
   2  -8  -5 21.7788 41.9926  15
   2  -8  -4 1464.14 295.982  15
   2  -8  -3 2229.57 372.419  15
  -2  -8   3 2283.91 384.434  15
  -2  -8   2 655.279 233.368  15
   2  -8  -2 89.8735 65.4615  15
  -2  -8   1 263.450 204.309  15
   2  -8  -1 64.9206 52.6274  18
  -2  -8   0 512.676 219.366  15
   2  -8   0 167.586 73.4680  18
  -2  -8  -1 147.089 163.547  15
   2  -8   1 44.0921 42.0702  18
  -2  -8  -2 66.3657 109.304  15
   2  -8   2 46.7998 40.9211  18
  -2  -8  -3 725.752 212.189  15
   2  -8   3 908.847 140.878  18
  -2  -8  -4 589.827 178.103  15
  -2  -8  -5-50.9459 106.322  15
   2  -8   6 793.147 148.695  19
   2  -8   7 508.254 112.934  19
   2  -7  -9 789.736 175.683   7
   2  -7  -9 701.939 152.927  15
   2  -7  -8 20.0498 50.4018  15
   2  -7  -7 94.3400 85.1001  15
   2  -7  -6 162.894 104.682  15
   2  -7  -5 370.131 181.874  15
   2  -7  -4 2985.11 462.126  15
   2  -7  -3 8373.15 498.916  18
   2  -7  -3 6629.31 684.931  15
   2  -7  -2 2859.37 295.597  18
   2  -7  -2 2386.57 407.547  15
   2  -7  -1 255.028 92.9730  18
   2  -7  -1 261.518 130.853  15
   2  -7   0 643.738 142.607  18
   2  -7   1 812.635 158.965  18
   2  -7   2 3483.88 324.851  18
   2  -7   3 3461.55 317.421  18
  -2  -7  -3 3000.91 490.261  15
  -2  -7  -4 361.655 176.595  15
   2  -7   4 91.9051 61.9444  18
  -2  -7  -5-41.3695 53.4772  15
   2  -7   5 26.1316 53.7790  19
   2  -7   6 220.552 103.601  19
   2  -7   7 168.229 78.0833  19
   2  -7   8 951.700 169.985  19
   2  -7   9 50.9977 37.1794  19
   2  -6 -11 119.754 61.9493   7
   2  -6 -10 340.303 124.773   7
   2  -6  -9 84.4160 46.0874   7
   2  -6  -9 143.120 84.0552  15
   2  -6  -8 298.560 151.789   7
   2  -6  -8 455.342 156.578  15
   2  -6  -7 990.038 271.338   7
   2  -6  -7 1022.10 256.812  15
   2  -6  -6 1409.34 324.082   7
   2  -6  -6 1311.55 304.788  15
   2  -6  -5 1093.12 282.290  15
   2  -6  -4 5570.94 410.389  18
   2  -6  -4 5307.31 817.429  10
   2  -6  -4 4603.74 587.507  15
   2  -6  -3 7029.94 460.489  18
   2  -6  -3 5968.40 852.126  10
   2  -6  -2 379.422 115.354  18
   2  -6  -2 227.242 191.390  10
   2  -6  -2 173.849 109.178  15
   2  -6  -1 658.053 142.956  18
   2  -6  -1 500.786 241.948  10
   2  -6   0 556.435 131.749  18
   2  -6   1 126.873 69.4385  18
   2  -6   2 797.868 163.359  18
   2  -6   3 5125.71 409.019  18
   2  -6   3 5861.11 557.043  11
   2  -6   4 3953.80 355.152  18
  -2  -6  -4 3486.61 518.180  15
   2  -6   5 2010.73 311.700  19
   2  -6   5 1871.35 241.299  18
   2  -6   6 3226.96 390.452  19
   2  -6   7 1757.74 287.341  19
   2  -6   8 765.596 176.420  19
   2  -6   9 186.989 85.5512  19
   2  -6  10-15.2743 41.6370  19
   2  -5 -12 311.540 103.267   7
   2  -5 -11 886.938 214.426   7
   2  -5 -10 866.099 244.889   7
   2  -5  -9 2593.76 359.475  15
   2  -5  -9 2315.69 427.118   7
   2  -5  -8 1524.47 361.280   7
   2  -5  -8 2079.71 350.018  15
   2  -5  -7 2546.80 405.361  15
   2  -5  -7 1993.72 415.465   7
   2  -5  -6 4148.79 534.352  15
   2  -5  -6 3547.09 548.862   7
   2  -5  -5 243.290 163.859   7
   2  -5  -5 243.568 181.617  10
   2  -5  -5 453.375 176.716  15
   2  -5  -4-2.45197 60.2579  10
   2  -5  -3 2797.61 576.802  10
   2  -5  -2 694.669 271.684  10
   2  -5  -1 16492.0 1254.21  10
   2  -5   0 12314.2 1031.71  10
   2  -5   1 8934.98 841.180  10
   2  -5   2 11227.2 715.336  11
   2  -5   3 2156.99 337.418  11
   2  -5   4 2041.10 266.392  18
   2  -5   4 1813.50 327.433  11
   2  -5   5 831.038 212.956  19
   2  -5   5 870.616 177.947  18
   2  -5   5 809.731 223.454  11
   2  -5   6 4684.64 494.837  19
   2  -5   6 4376.08 382.550  18
   2  -5   7 70.1659 72.6542  19
   2  -5   7 68.0713 65.9883  18
   2  -5   8 3742.57 427.920  19
   2  -5   9 2028.57 297.853  19
   2  -5  10 2112.31 275.471  19
   2  -5  11 1666.17 207.531  19
   2  -4 -12 3265.80 377.043   7
   2  -4 -11 418.765 164.700   7
   2  -4 -10 51.1631 101.721   7
   2  -4  -9 403.010 191.141   7
   2  -4  -8 1266.64 348.153   7
   2  -4  -8 1971.06 341.060  15
   2  -4  -7 725.858 297.756  10
   2  -4  -7 366.010 180.516   7
   2  -4  -7 655.574 210.286  15
   2  -4  -6 2660.31 550.898  10
   2  -4  -5 6991.01 873.188  10
   2  -4  -4 5106.13 732.476  10
   2  -4  -3 8325.93 899.061  10
   2  -4  -2 19873.2 1323.05  10
   2  -4  -1 1306.04 335.841  10
   2  -4   0 1946.86 382.127  10
   2  -4   1 717.735 220.748  10
   2  -4   2 1181.48 225.052  11
   2  -4   2 990.786 270.763  10
   2  -4   3 8565.79 636.022  11
   2  -4   4 14407.9 866.238  11
   2  -4   5 19645.9 1061.42  11
   2  -4   6 8302.97 657.384  19
   2  -4   6 7708.20 535.976  18
   2  -4   7 155.687 112.476  19
   2  -4   7 101.565 72.5936  18
   2  -4   8 5820.70 564.277  19
   2  -4   8 5144.57 418.156  18
   2  -4   9 1330.47 265.273  19
   2  -4  10 48.8048 40.6321  19
   2  -4  11 119.227 70.0959  19
   2  -4  12 2527.99 237.715  19
   2  -3 -13 651.743 147.661   7
   2  -3 -12 727.181 189.268   7
   2  -3 -12 626.230 128.230  16
   2  -3 -11 4967.81 407.497  16
   2  -3 -11 4196.00 529.587   7
   2  -3 -10 5021.08 632.507   7
   2  -3  -9 6317.69 751.790   7
   2  -3  -8 1477.01 359.031   7
   2  -3  -8 3866.10 460.483  15
   2  -3  -7 3685.47 619.563  10
   2  -3  -6 15766.1 1263.53  10
   2  -3  -6 17434.5 876.884   9
   2  -3  -5 160.941 153.378  10
   2  -3  -5 784.093 177.846   9
   2  -3  -4 45.5380 54.2474  10
   2  -3  -4 572.810 142.738   9
   2  -3  -3 10115.4 912.499  10
   2  -3  -3 14855.7 684.103   9
   2  -3  -2 9124.07 828.552  10
   2  -3  -2 10999.6 567.291   9
   2  -3  -1 82659.3 1337.67  17
   2  -3  -1 75397.7 2285.42  10
   2  -3   0 21164.8 714.189  17
   2  -3   0 20692.5 1162.89  10
   2  -3   1 17332.4 680.513  17
   2  -3   1 15663.3 988.716  10
   2  -3   2 46334.5 1307.19  11
   2  -3   3 16022.1 810.787  11
   2  -3   4 6012.26 524.956  11
   2  -3   5 182.765 106.337  11
   2  -3   6 5325.58 544.107  11
   2  -3   7 72.5251 51.2024  19
   2  -3   7 157.056 86.7144  18
   2  -3   7 37.1002 44.5785  11
   2  -3   8 6165.10 600.258  19
   2  -3   8 5695.13 468.858  18
   2  -3   9 7723.05 661.388  19
   2  -3   9 7488.78 520.924  18
   2  -3  10 9054.76 682.498  19
   2  -3  10 7496.42 471.623  18
   2  -3  11 4643.88 442.395  19
   2  -3  12 977.681 174.269  19
   2  -2 -13 1169.98 155.309  16
   2  -2 -12 2436.10 264.463  16
   2  -2 -12 2487.98 353.731   7
   2  -2 -11 1215.74 291.866   7
   2  -2 -11 977.638 189.604  16
   2  -2 -10 1039.99 282.057   7
   2  -2  -9 562.472 223.092   7
   2  -2  -9 146.149 108.323   9
   2  -2  -8 1712.85 317.048   9
   2  -2  -8 1582.42 376.719   7
   2  -2  -7 7615.20 636.144   9
   2  -2  -6 24895.0 1420.44  10
   2  -2  -6 19728.4 964.891   9
   2  -2  -5 44782.5 1851.70  10
   2  -2  -5 40676.3 1294.85   9
   2  -2  -4 45043.0 1782.40  10
   2  -2  -4 32924.6 1088.27   9
   2  -2  -3 40715.1 1658.44  10
   2  -2  -3 40300.3 1127.91   9
   2  -2  -2 31982.2 740.931  17
   2  -2  -2 31294.8 1398.84  10
   2  -2  -2 32197.6 965.016   9
   2  -2  -1 12780.3 482.327  17
   2  -2  -1 11793.0 831.996  10
   2  -2  -1 12565.5 592.432   9
   2  -2   0 570.835 114.675  17
   2  -2   0 2864.45 403.011  10
   2  -2   1 7808.65 663.124  10
   2  -2   1 8300.89 430.818  17
   2  -2   2 16995.0 728.122  11
   2  -2   2 17111.5 654.417  17
   2  -2   3 35337.2 1134.82  11
   2  -2   3 38977.9 1051.83  17
   2  -2   4 33197.1 1149.46  11
   2  -2   5 26047.0 1074.93  11
   2  -2   6 19730.7 981.789  11
   2  -2   7 9623.85 634.060  18
   2  -2   7 7491.10 627.612  11
   2  -2   8 8683.40 729.835  19
   2  -2   8 8495.85 602.494  18
   2  -2   9 710.204 206.719  19
   2  -2   9 820.126 186.276  18
   2  -2  10 266.888 131.944  19
   2  -2  10 146.603 86.0689  18
   2  -2  11 595.003 166.090  19
   2  -2  11 463.894 110.152  18
   2  -2  12 2872.57 319.125  19
   2  -1 -13 87.6993 52.8269  12
   2  -1 -13 84.1249 50.1785  16
   2  -1 -12 1839.51 241.254  16
   2  -1 -11 1627.56 245.603  16
   2  -1 -10 11284.7 673.095  16
   2  -1 -10 11388.1 914.981   7
   2  -1  -9 11043.4 847.081   9
   2  -1  -9 19619.6 1223.92   7
   2  -1  -8 5924.59 594.812   9
   2  -1  -7 7128.80 631.173   9
   2  -1  -6 5316.95 507.875   9
   2  -1  -5 569.639 190.109  10
   2  -1  -5 389.859 127.235   9
   2  -1  -4 17188.1 987.140  10
   2  -1  -4 15168.7 738.960   9
   2  -1  -3 97121.3 2273.75  10
   2  -1  -3 93413.6 1209.33  17
   2  -1  -3 93937.7 1734.18   9
   2  -1  -2 36057.6 1353.93  10
   2  -1  -2 34518.3 741.665  17
   2  -1  -2 34994.5 1008.35   9
   2  -1  -1 56206.1 1677.12  10
   2  -1  -1 57278.6 979.017  17
   2  -1  -1 56949.0 1255.31   9
   2  -1   0 76489.0 1964.70  10
   2  -1   0 77893.0 1165.50  17
   2  -1   1 57906.5 1038.22  17
   2  -1   2 81744.8 1328.02  17
   2  -1   3 34302.6 922.513  17
   2  -1   4 418.084 126.177  11
   2  -1   4 439.842 120.892  17
   2  -1   5 275.656 102.334  11
   2  -1   5 352.684 114.845  17
   2  -1   6 5704.14 487.294  11
  -2  -1  -7 7022.58 494.771   3
   2  -1   8 24947.9 1259.94  19
  -2  -1  -8 26744.0 1001.20   3
   2  -1   9 7246.81 678.561  19
   2  -1  10 12431.2 867.827  19
   2  -1  10 12295.4 708.644  18
   2  -1  11 6442.03 579.256  19
   2  -1  11 6257.17 458.148  18
   2  -1  12 2251.90 296.522  19
   2  -1  12 2063.05 218.759  18
   2  -1  13 657.932 128.233  19
   2   0 -13 2334.28 234.190  16
   2   0 -12 1349.63 208.414  16
   2   0 -11 3554.64 366.607  16
   2   0 -10 3408.49 368.500  16
   2   0  -9 1356.54 303.358   9
   2   0  -8 1186.35 265.753   9
   2   0  -7 4822.89 508.825   9
   2   0  -6 8202.69 630.094   9
   2   0  -5 11228.0 688.594   9
   2   0  -4 150675. 2603.24  10
   2   0  -4 134235. 2221.70   9
   2   0  -3 169439. 1673.19  17
   2   0  -3 165125. 2300.13   9
   2   0  -2 174.713 51.0676  17
   2   0  -2 155.890 94.2215  10
   2   0  -2 58.4850 44.0890   9
   2   0  -1 344.592 72.5938  17
   2   0  -1 1054.76 173.973   9
   2   0   0 5742.65 312.448  17
   2   0   1 1107.91 143.758  17
   2   0   2 1271.86 158.062  17
   2   0   3 95623.0 1428.47  17
   2   0   4 102640. 1607.50  17
   2   0   5 27903.2 896.607  17
  -2   0  -5 31342.2 884.036   3
  -2   0  -6 48608.5 1189.83   3
  -2   0  -7 18059.8 787.525   3
   2   0   8 3667.04 487.491  19
  -2   0  -8 4100.70 396.455   3
   2   0   9 1410.98 302.380  19
   2   0  10-2.26565 77.7344  19
   2   0  11 731.653 197.019  19
   2   0  11 948.918 190.000  18
   2   0  12 4073.13 413.039  19
   2   0  12 3656.04 312.308  18
   2   0  13 2227.19 243.797  19
   2   1 -13 67.3030 43.9632  16
   2   1 -12 1817.67 241.024  16
   2   1 -11 1933.55 266.204  16
   2   1 -10 11360.3 677.605  16
   2   1  -9 20739.7 905.970  16
   2   1  -9 14945.2 962.747   9
   2   1  -8 7881.36 678.330   9
   2   1  -7 8659.41 683.108   9
   2   1  -6 5521.72 513.747   9
   2   1  -5 846.288 189.928   9
   2   1  -4 16235.2 757.267  22
   2   1  -4 15715.6 748.917   9
   2   1  -3 95678.0 1738.75   9
   2   1  -3 97861.8 1811.05  22
   2   1  -2 35810.0 1015.34   9
   2   1  -2 34834.3 1051.64  22
   2   1  -1 58197.5 1322.86  22
   2   1  -1 57613.3 1269.05   9
   2   1   0 78407.3 1188.70  17
   2   1   1 59937.3 1049.29  17
   2   1   2 82726.8 1386.94  14
   2   1   2 84127.7 1269.72  17
   2   1   3 34867.6 958.933  14
   2   1   3 34776.6 848.921  17
   2   1   4 303.559 99.6740  14
   2   1   4 232.502 78.6062  17
   2   1   5 349.376 118.570  14
   2   1   6 6390.09 484.240  14
  -2   1  -6 6818.49 451.219   3
   2   1   7 6573.08 507.478  14
  -2   1  -7 6810.85 482.858   3
   2   1   8 25921.2 1026.41  14
   2   1   8 25567.1 1289.66  19
  -2   1  -8 27741.2 1015.73   3
   2   1   8 27359.5 1274.07   5
   2   1   9 6818.52 676.466  19
   2   1   9 7401.21 665.151   5
   2   1  10 12542.4 893.275  19
   2   1  11 6697.85 608.912  19
   2   1  12 2150.50 297.105  19
   2   1  12 1932.88 234.481  18
   2   1  13 648.586 132.546  19
   2   2 -13 1112.51 153.261  16
   2   2 -12 2588.31 277.398  16
   2   2 -11 1214.30 210.572  16
   2   2 -10 977.704 195.704  16
   2   2  -9 265.309 125.595   9
   2   2  -9 299.650 116.726  16
   2   2  -8 2129.97 359.215   9
   2   2  -7 9170.92 682.096   9
   2   2  -6 22163.1 1007.52   9
   2   2  -6 22193.9 984.014  22
   2   2  -5 42886.0 1314.95   9
   2   2  -5 41965.0 1349.55  22
   2   2  -4 36469.7 1235.32  22
   2   2  -4 36185.6 1128.66   9
   2   2  -3 41815.9 1292.63  22
   2   2  -3 42233.1 1146.33   9
   2   2  -2 33117.3 981.378   9
   2   2  -2 32468.4 1108.47  22
   2   2  -1 13493.6 613.045   9
   2   2  -1 12815.3 672.447  22
   2   2   0 3273.63 248.714  14
   2   2   0 551.529 136.836  22
   2   2   1 7609.82 413.499  14
   2   2   1 7991.02 397.712  17
   2   2   2 15988.8 644.827  14
   2   2   2 17295.3 592.647  17
   2   2   3 39269.7 909.245  17
   2   2   3 36707.5 1044.35  14
   2   2   4 35315.5 1102.56  14
   2   2   4 37985.7 914.802  17
   2   2   5 33497.8 1120.93  14
   2   2   6 27402.5 1051.70  14
   2   2   7 9710.02 647.533  14
   2   2   7 10353.3 780.068   5
   2   2   8 7748.70 587.137  14
   2   2   8 8588.61 753.928  19
   2   2   8 8170.61 705.450   5
   2   2   9 638.182 208.025  19
   2   2   9 696.459 198.851   5
   2   2  10 208.637 125.903  19
   2   2  10 278.692 134.085   5
   2   2  11 569.102 177.440  19
   2   2  12 2648.26 320.936  19
   2   3 -13 565.881 103.259  16
   2   3 -12 633.271 129.310  16
   2   3 -11 4835.50 401.135  16
   2   3 -10 5997.20 477.564  16
   2   3  -9 9441.04 619.155  16
   2   3  -8 4209.80 410.448  16
   2   3  -7 4074.00 443.791   9
   2   3  -6 17639.1 959.922  22
   2   3  -6 19507.8 909.666   9
   2   3  -5 21.6772 68.8338   9
   2   3  -5 28.5247 67.5218  22
   2   3  -4 75.9865 57.2413   9
   2   3  -4 112.707 100.716  22
   2   3  -3 14527.9 670.101   9
   2   3  -3 14031.2 825.427  22
   2   3  -2 10938.7 564.280   9
   2   3  -2 10264.6 686.796  22
   2   3  -1 78026.8 1840.89  22
   2   3   0 20855.0 660.523  14
   2   3   0 19982.5 899.375  22
   2   3   1 15767.8 631.317  14
   2   3   1 16518.9 778.801  22
   2   3   2 37098.4 1039.85  14
   2   3   2 46215.3 1007.49  17
   2   3   3 14755.9 702.627  14
   2   3   3 18175.1 633.536  17
   2   3   4 7329.35 528.830  14
   2   3   5 48.6882 61.4804  14
   2   3   6 18025.9 900.131  14
   2   3   7 173.904 88.1397  14
   2   3   7 68.6612 53.0199   5
   2   3   8 6123.07 615.613   5
   2   3   9 7484.38 693.631  19
   2   3   9 8130.94 690.641   5
   2   3  10 8371.34 712.480  19
   2   3  10 8751.96 670.113   5
   2   3  11 4213.22 454.545  19
   2   3  12 981.588 187.070  19
   2   4 -12 3994.79 298.880  16
   2   4 -11 671.235 144.083  16
   2   4 -10 23.2161 26.1603  16
   2   4  -9 496.991 136.540  16
   2   4  -8 2074.31 288.873  16
   2   4  -7 678.300 162.604  16
   2   4  -7 500.794 180.316  22
   2   4  -6 4694.59 534.248  22
   2   4  -5 26301.5 1263.14  22
   2   4  -4 12202.8 853.373  22
   2   4  -3 11470.5 813.863  22
   2   4  -2 18281.4 1007.60  22
   2   4  -1 972.981 231.137  22
   2   4   0 1731.53 291.873  22
   2   4   1 98.6270 61.8262  14
   2   4   1 75.8464 70.1805  22
   2   4   2 735.578 158.451  14
   2   4   2 1185.55 174.012  17
   2   4   3 4991.51 434.683  14
   2   4   4 8297.86 591.589  14
   2   4   5 17367.4 890.390  14
   2   4   6 5067.13 493.411  14
   2   4   6 8055.92 703.107   5
   2   4   7 123.952 104.100   5
   2   4   8 5862.94 597.679   5
   2   4   9 1041.34 248.503   5
   2   4  10 0.27455 64.8055  19
   2   4  10 68.9918 52.6053   5
   2   4  11 217.909 96.8903  19
   2   4  12 1818.47 222.351  19
   2   5 -12 370.213 79.1566  16
   2   5 -11 944.168 154.220  16
   2   5 -10 929.215 173.791  16
   2   5  -9 2626.17 309.978  16
   2   5  -8 2018.50 284.922  16
   2   5  -7 2352.75 312.964  16
   2   5  -6 4572.57 435.751  16
   2   5  -6 4138.00 525.260  22
   2   5  -5 422.170 168.576  22
   2   5  -4 35.6054 85.3979  22
   2   5  -3 2630.95 422.829  22
   2   5  -2 438.804 170.635  22
   2   5  -1 7411.80 678.752  22
   2   5   0 7007.69 637.936  22
   2   5   1 6311.26 579.020  22
   2   5   2 9341.51 673.049   4
   2   5   3 1006.68 207.782  14
   2   5   4 530.664 161.777  14
   2   5   4 1647.68 319.090   5
   2   5   5 337.296 123.966  14
   2   5   5 745.653 188.913  13
   2   5   5 1018.45 254.485   5
   2   5   6 4597.97 446.043  13
   2   5   6 4303.03 520.662   5
   2   5   7 118.335 94.1547   5
   2   5   8 3521.19 445.912   5
   2   5   9 1868.22 303.483   5
   2   5  10 1820.28 287.419  19
   2   5  10 1881.13 270.378   5
   2   5  11 1309.62 205.995  19
   2   6 -11 82.9915 41.4919  16
   2   6 -10 194.302 64.7766  16
   2   6  -9 85.8556 44.0720  16
   2   6  -8 350.803 115.049  16
   2   6  -7 1118.85 213.845  16
   2   6  -6 1375.51 241.105  16
   2   6  -5 1446.36 248.245  16
   2   6  -4 6338.39 521.534  16
   2   6  -4 4892.65 601.170  22
   2   6  -3 6656.33 535.863  16
   2   6  -3 3726.71 526.483  22
   2   6  -2 189.027 127.638  22
   2   6  -1 184.013 117.004  22
   2   6   0 469.549 136.746  20
   2   6   0 177.032 120.190  22
   2   6   1 208.515 94.7300  20
   2   6   2 461.706 174.954   5
   2   6   2 727.757 200.062   4
   2   6   3 4559.93 525.270   5
   2   6   4 3936.32 489.222   5
   2   6   5 1961.75 298.883  13
   2   6   5 1981.29 347.302   5
   2   6   6 2660.20 334.127  13
   2   6   6 2445.58 386.367   5
   2   6   7 1480.39 286.996   5
   2   6   8 682.492 187.042   5
   2   6   9 163.936 83.7673   5
   2   6  10 2.69948 32.0501  19
   2   6  10 1.60126 23.9921   5
   2   7  -9 1023.30 154.742  16
   2   7  -8 62.3655 42.8379  20
   2   7  -8 33.3465 45.4372  16
   2   7  -7 40.6399 24.1910  16
   2   7  -6 0.19395 26.9422  16
   2   7  -5 322.319 121.033  16
   2   7  -4 2978.75 359.902  16
   2   7  -3 7430.99 570.194  16
   2   7  -2 2459.02 331.417  16
   2   7  -1 497.198 134.621  20
   2   7  -1 271.739 105.835  13
   2   7  -1 310.562 116.946  16
   2   7   0 599.089 163.570  20
   2   7   1 846.221 182.672  20
   2   7   2 2892.17 405.615   5
   2   7   3 2877.37 404.403   5
   2   7   4 16.5076 36.3901  13
   2   7   4 220.118 117.906   5
   2   7   5 15.7562 31.6549  13
   2   7   5-24.4503 47.4698   5
   2   7   6 123.497 74.5475  13
   2   7   6 225.206 111.405   5
   2   7   7 134.684 70.0608  13
   2   7   7 157.447 84.4806   5
   2   7   8 840.423 176.087   5
   2   7   9 5.83232 29.2353  19
   2   7   9-31.2506 52.3323   5
   2   8  -8 0.53548 13.2876  20
   2   8  -8-15.1997 22.1385  16
   2   8  -7 153.331 58.3777  20
   2   8  -7 133.420 57.6400  16
   2   8  -6 179.855 74.2603  20
   2   8  -6 206.460 79.5916  16
   2   8  -5 7.81752 42.0449  20
   2   8  -5 21.9014 26.2573  16
   2   8  -4 1624.39 237.674  20
   2   8  -4 1554.98 240.095  16
   2   8  -3 2604.09 307.872  20
   2   8  -3 1814.60 263.821  16
   2   8  -2 581.498 155.781  20
   2   8  -2 194.023 93.5622  16
   2   8  -1 72.3338 57.4453  20
   2   8  -1 92.5583 67.7525  13
   2   8   0 90.6198 64.6682  20
   2   8   0 163.581 85.7890  13
   2   8   1 105.919 63.0945  13
   2   8   2 36.0987 51.1465  13
   2   8   2 51.0968 75.5604   5
   2   8   3 862.398 190.280  13
   2   8   3 835.767 200.890   5
   2   8   4 739.305 166.873  13
   2   8   4 493.906 150.536   5
   2   8   5 28.7015 36.6038  13
   2   8   5 135.699 75.5948   5
   2   8   6 719.209 133.506  13
   2   8   6 828.049 173.948   5
   2   8   7 540.158 96.8732  13
   2   8   7 463.862 121.045   5
   2   9  -6 50.0784 30.7260  20
   2   9  -5 94.8411 46.1108  20
   2   9  -4 168.879 62.6221  20
   2   9  -3 400.014 98.4940  20
   2   9  -2 27.4174 35.6666  20
  -2   9   2 231.111 112.163   5
   2   9  -1 190.448 67.1368  20
   2   9   0 304.535 83.4123  20
   2   9   0 316.682 91.7280  13
   2   9   1 95.7242 50.5199  13
   2   9   2 292.822 90.4169  13
   2   9   3 139.464 66.1387  13
   2   9   3 122.779 68.9838   5
   2   9   4 40.1099 31.2102  13
   2   9   4 127.592 59.1034   5
   2   9   5 75.0468 40.5723  13
   2   9   5 90.9077 58.0010   5
  -3  -8   4 66.8255 71.6768  15
  -3  -8   3 316.458 136.004  15
  -3  -8   2 220.355 129.131  15
  -3  -8   1 235.909 142.486  15
  -3  -8   0 166.547 109.380  15
   3  -8   0 14.4514 21.5182  18
  -3  -8  -1 492.830 152.974  15
   3  -8   1 247.924 68.4547  18
  -3  -8  -2 697.946 167.021  15
   3  -8   2 521.365 91.5171  18
  -3  -8  -3-9.32844 37.3727  15
   3  -8   3-3.87684 16.2976  18
   3  -7  -6 954.081 197.820  15
   3  -7  -5 975.397 210.275  15
   3  -7  -4 1796.77 298.447  15
   3  -7  -3 43.3919 59.3405  15
   3  -7  -2 121.706 59.0078  18
   3  -7  -1 376.775 100.404  18
   3  -7   0 742.704 139.556  18
   3  -7   1 1751.56 211.782  18
  -3  -7  -2 251.573 173.285  15
   3  -7   2-0.49927 20.2926  18
  -3  -7  -3 213.585 125.126  15
   3  -7   3 30.9663 38.6054  18
   3  -7   4 47.0861 40.9312  18
   3  -7   5 167.178 57.4805  18
   3  -6  -8 253.148 102.222   7
   3  -6  -7 361.371 128.117   7
   3  -6  -7 345.855 131.614  15
   3  -6  -6 548.215 173.557   7
   3  -6  -6 562.359 186.342  15
   3  -6  -5 2084.66 351.080  15
   3  -6  -4 16.9037 92.9139  15
   3  -6  -3 127.606 64.0839  18
   3  -6  -3 57.9878 88.6099  15
   3  -6  -2 22.0592 43.0344  18
   3  -6  -2-8.89161 60.3476  15
   3  -6  -1 20.0380 27.4927  18
   3  -6   0 275.849 95.7118  18
   3  -6   1 2158.64 260.844  18
   3  -6   2 2561.43 286.266  18
   3  -6   3 868.488 162.765  18
   3  -6   4 1888.20 232.322  18
   3  -6   5 410.998 101.450  18
   3  -6   6 705.192 124.219  18
   3  -6   7-5.30165 18.1789  18
   3  -5 -10 323.970 105.917   7
   3  -5  -9 189.103 92.3030   7
   3  -5  -8 483.781 169.195   7
   3  -5  -7 24.2250 52.5175   7
   3  -5  -7 13.0919 93.6008  15
   3  -5  -6-116.119 100.860   7
   3  -5  -6 95.7432 81.9833  15
   3  -5  -5 839.999 264.687   7
   3  -5  -5 646.506 224.537  15
   3  -5  -4 265.147 135.642   7
   3  -5  -4 600.322 128.851  18
   3  -5  -4 180.725 136.810  15
   3  -5  -3 4572.88 363.022  18
   3  -5  -3 805.538 231.074  15
   3  -5  -2 4311.46 366.022  18
   3  -5  -2 1541.09 322.686  15
   3  -5  -1 2683.24 295.419  18
   3  -5  -1 2694.81 396.974   8
   3  -5   0 2982.22 314.294  18
   3  -5   0 2487.01 397.639   8
   3  -5   1 1039.33 192.011  18
   3  -5   1 1003.06 287.474   8
   3  -5   2 445.145 125.890  18
   3  -5   3 282.863 106.952  18
   3  -5   4 2082.19 266.614  18
   3  -5   5 584.232 141.683  18
   3  -5   6 1200.41 190.596  18
   3  -5   7 1638.92 200.130  18
   3  -5   8 1412.15 161.806  18
   3  -4 -11 11.7747 37.0639   7
   3  -4 -10 381.010 142.257   7
   3  -4  -9 207.499 123.224   7
   3  -4  -8 245.012 140.342   7
   3  -4  -7 6591.25 644.455  15
   3  -4  -7 3610.58 547.332   7
   3  -4  -6 2469.73 417.587  15
   3  -4  -6 1752.68 381.364   7
   3  -4  -5 2977.70 455.297  15
   3  -4  -5 2069.13 421.960   7
   3  -4  -4 3087.28 410.862   8
   3  -4  -4 2313.62 407.902  15
   3  -4  -4 1755.23 380.392   7
   3  -4  -3 1544.03 358.401   7
   3  -4  -3 1636.64 219.007  18
   3  -4  -3 1936.22 334.911   8
   3  -4  -3 1049.93 277.628  15
   3  -4  -2 1598.59 360.797   7
   3  -4  -2 1909.68 243.370  18
   3  -4  -2 1411.79 399.873  10
   3  -4  -2 1534.09 288.042   8
   3  -4  -2 884.016 247.400  15
   3  -4  -1 391.988 114.016  18
   3  -4  -1 206.110 157.051  10
   3  -4  -1 614.620 193.807   8
   3  -4   0 423.465 119.971  18
   3  -4   0 515.280 202.413   8
   3  -4   1 4625.78 407.201  18
   3  -4   1 4880.69 565.335   8
   3  -4   1 4219.50 427.603  20
   3  -4   2 7328.55 519.815  18
   3  -4   2 6017.84 650.403   8
   3  -4   3 15178.4 765.295  18
   3  -4   4 8451.15 576.224  18
   3  -4   5 248.932 98.6714  18
   3  -4   6 2873.17 317.915  18
   3  -4   7 537.372 133.529  18
   3  -4   8-8.24660 19.6214  18
   3  -4   9 252.444 68.7485  18
   3  -3 -11 1288.46 225.761   7
   3  -3 -10 628.494 187.810   7
   3  -3  -9 157.884 117.273   7
   3  -3  -9 333.104 114.725  12
   3  -3  -8 910.060 272.339   7
   3  -3  -8 2060.05 307.217  12
   3  -3  -7 69.1013 68.2526   7
   3  -3  -7 213.567 103.976  12
   3  -3  -6 214.670 149.223   7
   3  -3  -6 642.000 187.907  12
   3  -3  -6 732.186 218.768  15
   3  -3  -5 3013.18 402.692  12
   3  -3  -5 2296.61 492.216  10
   3  -3  -5 3101.75 459.308  15
   3  -3  -4 3420.86 435.788  12
   3  -3  -4 2480.00 516.928  10
   3  -3  -4 3349.69 479.450  15
   3  -3  -4 2231.34 436.079   7
   3  -3  -3 14043.6 1231.59  10
   3  -3  -3 15585.8 1129.87   7
   3  -3  -2 7478.16 902.270  10
   3  -3  -2 10353.6 764.895   8
   3  -3  -2 9165.10 762.297  15
   3  -3  -2 8515.89 822.085   7
   3  -3  -1 5442.12 441.705  17
   3  -3   0 10536.4 635.579  17
   3  -3   0 10763.4 805.942   8
   3  -3   1 6055.74 464.482  18
   3  -3   1 6683.86 650.656   8
   3  -3   1 6202.98 502.165  20
   3  -3   2 2469.18 308.999  18
   3  -3   2 2589.30 436.227   8
   3  -3   2 2235.62 308.218  20
   3  -3   3 66.3493 95.9409  20
   3  -3   3 40.2350 63.9980  18
   3  -3   3 210.131 178.505   8
   3  -3   4 11079.0 678.200  18
   3  -3   4 10136.5 695.931  20
   3  -3   5 2102.45 296.986  18
   3  -3   5 1913.81 312.424  20
   3  -3   6 1749.47 269.299  18
   3  -3   7 5783.25 468.925  18
   3  -3   8 6730.25 469.576  18
   3  -3   9 2794.60 267.685  18
   3  -3  10 1385.47 158.600  18
   3  -2 -11 55.3615 40.0305   7
   3  -2 -11 65.6018 41.1742  12
   3  -2 -10 671.273 199.406   7
   3  -2 -10 761.670 168.340  12
   3  -2  -9 1267.31 311.030   7
   3  -2  -9 1254.32 242.725  12
   3  -2  -8 3108.36 398.521  12
   3  -2  -8 2480.50 452.337   7
   3  -2  -7 8751.17 692.473  12
   3  -2  -7 5086.48 659.329   7
   3  -2  -6 5219.58 539.732  12
   3  -2  -6 4700.87 529.642   9
   3  -2  -5 12826.3 839.616  12
   3  -2  -5 13820.2 1171.76  10
   3  -2  -5 11875.3 822.385   9
   3  -2  -4 2887.35 394.940  12
   3  -2  -4 2827.65 528.707  10
   3  -2  -4 2772.61 393.613   9
   3  -2  -4 2037.38 403.638   7
   3  -2  -3 3273.49 578.216  10
   3  -2  -2 84.7000 56.3335  17
   3  -2  -1 3372.06 341.116  17
   3  -2   0 5679.83 451.333  17
   3  -2   1 17944.2 820.458  17
   3  -2   2 19023.6 882.412  17
   3  -2   3 13766.3 739.959  18
   3  -2   3 14625.6 794.033  17
   3  -2   3 14186.9 978.473   8
   3  -2   3 14857.2 799.056  20
   3  -2   4 18209.4 880.556  18
   3  -2   4 17440.9 889.705  20
   3  -2   5 2521.59 334.927  18
   3  -2   5 2273.39 335.376  20
   3  -2   6 5863.96 509.938  18
   3  -2   6 5134.79 502.293  20
   3  -2   7 85.3513 37.9173  18
   3  -2   8 90.4381 70.6213  18
   3  -2   9 1177.00 212.492  19
   3  -2   9 1086.91 190.291  18
   3  -2  10 2799.31 286.923  19
   3  -2  10 2490.17 241.549  18
   3  -1 -12 1083.22 153.980  12
   3  -1 -11 3097.74 319.872  12
   3  -1 -10 1370.91 242.906  12
   3  -1 -10 1692.67 302.658   7
   3  -1  -9 1388.94 312.069   7
   3  -1  -9 1302.27 263.693  12
   3  -1  -8 577.316 219.541   7
   3  -1  -8 728.203 202.774  12
   3  -1  -7 65.3601 101.174   7
   3  -1  -7 183.430 119.711  12
   3  -1  -6 1473.26 354.265   7
   3  -1  -6 1352.65 285.935  12
   3  -1  -6 1080.41 267.878   9
   3  -1  -5 10675.9 770.509  12
   3  -1  -5 9187.99 735.657   9
   3  -1  -5 9586.05 884.392   7
   3  -1  -4 17270.7 987.441   9
   3  -1  -3 14021.9 634.399  17
   3  -1  -3 13845.4 864.677   9
   3  -1  -2 18132.2 735.837  17
   3  -1  -1 21112.2 809.970  17
   3  -1   0 19655.3 805.791  17
   3  -1   1 15606.6 752.077  17
   3  -1   2 623.351 156.650  17
   3  -1   3 905.759 198.871  17
   3  -1   4 2383.44 317.733  18
   3  -1   4 2751.62 353.138  17
   3  -1   4 2358.60 324.713  20
   3  -1   5 6293.82 535.280  18
   3  -1   5 5980.39 526.509  20
   3  -1   6 14183.2 816.573  18
   3  -1   6 13652.7 792.727  20
   3  -1   7 6476.54 538.219  18
   3  -1   7 5764.52 513.422  20
   3  -1   8 7780.51 575.975  18
   3  -1   9 4600.31 448.441  19
   3  -1   9 4520.07 396.842  18
   3  -1  10 2036.46 261.650  19
   3  -1  10 2291.95 249.109  18
   3  -1  11 203.989 59.4664  18
   3   0 -12 542.567 114.891  12
   3   0 -11 315.694 109.669  12
   3   0 -10 1216.37 236.380  12
   3   0  -9 1652.61 297.695  12
   3   0  -8 2266.86 362.680  12
   3   0  -8 3557.18 498.769   7
   3   0  -7 2535.65 390.654  12
   3   0  -7 3757.51 532.091   7
   3   0  -6 10702.1 791.322  12
   3   0  -6 8366.29 719.043   9
   3   0  -5 44108.8 1571.40  12
   3   0  -5 51755.5 1405.40   6
   3   0  -5 40359.5 1539.90   9
   3   0  -5 52175.1 1969.80   7
   3   0  -4 129.201 100.545   9
   3   0  -3 26.7178 25.2718  17
   3   0  -3 0.83139 65.9414   9
   3   0  -2 176.135 74.7104  17
   3   0  -1 1404.97 212.724  17
   3   0   0 1615.16 226.722  17
   3   0   1 31505.1 1024.90  17
   3   0   2 51335.1 1358.41  17
   3   0   3 14294.3 746.325  17
   3   0   4 17851.4 881.793  18
   3   0   4 20293.9 910.887  17
   3   0   4 19973.6 913.102  20
   3   0   5 5610.01 511.138  18
   3   0   5 6594.76 533.211  17
   3   0   5 6203.24 522.607  20
   3   0   6 3231.87 390.087  18
   3   0   6 3213.34 377.520  20
   3   0   7-63.3866 64.1258  20
   3   0   7 52.7174 28.4820  18
   3   0   8 0.28088 58.4170  19
   3   0   8 99.1205 61.5607  18
   3   0   9 1223.09 241.361  19
   3   0   9 1067.10 206.093  18
   3   0  10 3779.85 374.951  19
   3   0  10 3753.85 333.716  18
   3   0  11 2217.15 207.223  18
   3   1 -12 1057.12 162.001  12
   3   1 -11 2941.81 323.589  12
   3   1 -10 1046.88 224.474  12
   3   1  -9 1344.49 219.678   6
   3   1  -9 731.169 194.732  12
   3   1  -8 243.600 127.714  12
   3   1  -8 554.909 151.915   6
   3   1  -7 18.3495 55.2318  12
   3   1  -7-6.27030 42.8278   6
   3   1  -6 1095.63 224.923   6
   3   1  -6 891.665 224.854  12
   3   1  -6 1103.13 247.569   9
   3   1  -5 9882.38 740.605  12
   3   1  -5 9347.31 641.995   6
   3   1  -5 9864.33 756.056   9
   3   1  -4 19042.0 790.328  17
   3   1  -4 17422.9 989.866   9
   3   1  -3 14141.4 682.343  17
   3   1  -3 13233.9 840.775   9
   3   1  -2 18014.8 767.889  17
   3   1  -1 22446.0 858.418  17
   3   1   0 18531.4 791.797  17
   3   1   1 15362.4 729.275  17
   3   1   2 196.681 76.5169  17
   3   1   3 605.938 154.898  17
   3   1   4 2611.97 319.889  17
   3   1   4 2569.46 384.145   5
   3   1   4 2341.42 308.418  20
   3   1   5 5658.16 510.314  18
   3   1   5 7042.58 661.190   5
   3   1   5 6664.08 526.958  20
   3   1   6 11604.6 748.548  18
   3   1   6 14543.7 780.928  20
   3   1   7 5270.34 503.313  18
   3   1   8 7794.00 658.617  19
   3   1   8 6892.02 547.811  18
   3   1   9 3927.44 432.588  19
   3   1   9 3782.45 380.014  18
   3   1  10 2097.91 278.839  19
   3   1  10 2167.83 252.022  18
   3   1  11 199.039 63.9891  18
   3   2 -12 57.9435 46.2672  12
   3   2 -11 59.7858 53.7205  12
   3   2 -10 649.817 168.482  12
   3   2 -10 446.683 114.065   6
   3   2  -9 864.712 182.380   6
   3   2  -9 713.761 198.175  12
   3   2  -8 668.263 189.266  12
   3   2  -8 1433.94 252.634   6
   3   2  -7 3926.90 467.220  12
   3   2  -7 4158.21 435.550   6
   3   2  -6 3769.02 451.866  12
   3   2  -6 2597.52 344.927   6
   3   2  -5 12082.3 797.626  12
   3   2  -5 12493.3 665.110  17
   3   2  -5 12608.0 838.769   9
   3   2  -4 2478.68 336.399   6
   3   2  -4 2778.26 318.061  17
   3   2  -4 2982.23 401.964   9
   3   2  -3 4218.33 386.694  17
   3   2  -2 66.0323 55.9248  17
   3   2  -1 3178.40 335.260  17
   3   2   0 5278.00 429.096  17
   3   2   1 17843.2 796.470  17
   3   2   2 18524.0 819.300  17
   3   2   3 15261.9 737.707  17
   3   2   3 15551.3 791.870  20
   3   2   4 19305.1 857.472  17
   3   2   4 17990.6 1025.81   5
   3   2   4 19369.0 889.854  20
   3   2   5 2455.91 389.650   5
   3   2   5 2328.04 308.636  20
   3   2   6 6031.72 616.582   5
   3   2   6 5564.74 470.292  20
   3   2   7 132.245 88.4574   5
   3   2   8 26.2233 61.2660  19
   3   2   8 18.3829 30.8018  18
   3   2   9 914.655 202.711  19
   3   2   9 830.261 173.801  18
   3   2  10 2326.09 289.269  19
   3   2  10 2269.04 248.907  18
   3   3 -11 1147.14 171.522  12
   3   3 -11 1045.67 141.835   6
   3   3 -10 649.752 152.907  12
   3   3 -10 514.975 122.280   6
   3   3  -9 301.364 116.188  12
   3   3  -9 207.735 91.2679   6
   3   3  -8 1937.01 308.426  12
   3   3  -8 630.798 166.466   6
   3   3  -7 298.474 133.604  12
   3   3  -7 1.40203 57.9487   6
   3   3  -6 260.425 110.244   6
   3   3  -5 1715.68 286.537   6
   3   3  -4 2664.91 323.395  20
   3   3  -4 2311.84 327.186   6
   3   3  -3 17744.3 852.714  20
   3   3  -3 17068.2 862.210   6
   3   3  -3 16964.1 806.024  17
   3   3  -2 9714.90 632.555  20
   3   3  -2 9685.99 633.073   6
   3   3  -2 9529.30 602.037  17
   3   3  -1 4913.00 434.449  17
   3   3   0 10277.5 655.918  20
   3   3   0 11363.9 692.172  13
   3   3   0 10614.9 627.298  17
   3   3   1 6996.57 536.685  20
   3   3   1 7133.97 560.689  13
   3   3   1 6451.07 517.119   6
   3   3   1 6929.27 502.847  17
   3   3   2 2497.08 341.423  13
   3   3   2 2736.45 317.815  17
   3   3   2 2603.53 326.146  20
   3   3   3 13.8071 47.2027  20
   3   3   3 27.1963 87.4084  13
   3   3   3-57.0341 89.8129  17
   3   3   4 10122.0 775.880   5
   3   3   4 11277.0 677.806  20
   3   3   5 1851.83 341.689   5
   3   3   5 1983.79 280.722  20
   3   3   6 1611.69 319.700   5
   3   3   7 5222.10 544.256  19
   3   3   7 5224.08 548.293   5
   3   3   8 6229.45 562.408  19
   3   3   8 6890.34 601.185   5
   3   3   9 2249.18 308.316  19
   3   3   9 2049.29 249.509  18
   3   3  10 1298.41 199.637  19
   3   3  10 1029.08 151.441  18
   3   4 -11 68.8563 31.9719   6
   3   4 -10 440.059 103.939   6
   3   4  -9 100.197 52.5602   6
   3   4  -8 295.326 104.983   6
   3   4  -7 4404.83 433.864   6
   3   4  -6 1948.29 293.529   6
   3   4  -5 2734.21 329.092  20
   3   4  -5 2756.16 354.974   6
   3   4  -4 1868.05 282.538  20
   3   4  -4 2507.24 335.061   6
   3   4  -3 1241.14 239.964  20
   3   4  -3 1562.95 263.756   6
   3   4  -2 1404.37 251.307  20
   3   4  -2 1876.58 276.319  13
   3   4  -2 1700.01 267.508   6
   3   4  -2 1348.64 230.222  17
   3   4  -1 630.292 170.006  20
   3   4  -1 628.819 167.462  13
   3   4  -1 570.516 154.763   6
   3   4  -1 500.460 137.656  17
   3   4   0 394.350 141.189  20
   3   4   0 525.391 161.310  13
   3   4   0 441.126 141.492   6
   3   4   0 470.904 135.443  17
   3   4   1 4828.59 458.932  20
   3   4   1 4182.42 448.597  13
   3   4   1 5175.86 438.787  17
   3   4   2 5884.65 532.305  13
   3   4   2 7634.01 566.913  20
   3   4   3 13284.8 791.819  13
   3   4   3 15309.6 791.308  20
   3   4   4 8113.80 609.141  13
   3   4   4 8361.37 566.427  20
   3   4   5 393.204 133.285  13
   3   4   5 66.5764 39.2921   5
   3   4   6 2323.60 363.961   5
   3   4   7 482.332 158.404  19
   3   4   7 368.737 142.196   5
   3   4   8 40.9982 30.8940  19
   3   4   8-29.4631 38.8310   5
   3   4   9 161.069 77.1156  19
   3   4   9 206.016 76.1483  18
   3   5 -10 246.483 68.0366   6
   3   5  -9 178.112 66.6403   6
   3   5  -8 591.244 138.549   6
   3   5  -7 41.6692 55.4924   6
   3   5  -6 62.1806 41.6422  20
   3   5  -6 120.668 79.2075   6
   3   5  -5 438.939 124.875  20
   3   5  -5 835.260 182.156   6
   3   5  -4 495.819 150.613  20
   3   5  -4 663.516 167.272   6
   3   5  -3 1651.95 270.520  20
   3   5  -3 4162.87 402.289   6
   3   5  -2 4734.34 426.368  13
   3   5  -2 4349.41 407.592   6
   3   5  -1 2261.52 319.366  20
   3   5  -1 2838.99 347.566  13
   3   5   0 2535.36 334.376  20
   3   5   0 1883.43 293.243  13
   3   5   1 855.820 193.242  20
   3   5   1 549.879 165.264  13
   3   5   2 351.052 118.172  20
   3   5   2 148.269 84.0862  13
   3   5   3 172.717 88.1693  20
   3   5   3 114.402 79.6669  13
   3   5   4 1339.87 243.685  13
   3   5   4 1158.94 246.357   5
   3   5   4 1887.30 255.136  20
   3   5   5 692.685 166.979  13
   3   5   5 495.593 172.232   5
   3   5   6 1412.52 216.213  13
   3   5   6 1223.70 249.246   5
   3   5   7 1417.97 245.117  19
   3   5   7 1739.83 272.465   5
   3   5   8 1253.59 209.866  19
   3   5   8 1426.25 223.101   5
   3   6  -9 146.902 50.1195   6
   3   6  -8 293.204 81.2811   6
   3   6  -7 315.762 93.7881   6
   3   6  -6 412.068 109.836  20
   3   6  -6 584.728 133.481   6
   3   6  -5 1795.51 245.846  20
   3   6  -5 3110.48 307.660   6
   3   6  -4 40.5813 36.9747  20
   3   6  -4 9.49926 25.1743   6
   3   6  -3 67.0583 60.5710  20
   3   6  -2 42.0642 33.6460  20
   3   6  -1 114.218 88.5435  20
   3   6  -1 79.0930 71.4952  13
   3   6   0 186.386 85.9760  20
   3   6   0 126.710 81.7762  13
   3   6   1 1935.11 274.213  20
   3   6   1 1136.74 223.806  13
   3   6   2 752.098 184.348  13
   3   6   2 2401.49 294.216  20
   3   6   3 666.296 153.990  20
   3   6   3 266.739 114.066  13
   3   6   4 1199.80 216.276  13
   3   6   5 299.913 98.6778  13
   3   6   5 191.202 83.6325   5
   3   6   6 549.727 149.662   5
   3   6   7-110.142 63.3938  19
   3   6   7 59.2031 54.7762   5
   3   7  -6 867.433 133.366  20
   3   7  -5 969.975 159.027  20
   3   7  -4 1822.90 231.926  20
   3   7  -3 70.0718 56.7256  20
   3   7  -2 86.1862 52.5270  20
   3   7  -1 262.375 97.6863  20
   3   7  -1 278.661 93.5381  13
   3   7   0 762.485 155.785  20
   3   7   0 793.031 162.114  13
   3   7   1 1495.77 210.870  20
   3   7   1 1506.67 228.040  13
   3   7   2-22.9702 27.7380  20
   3   7   2 20.0182 46.0155  13
   3   7   3 64.0706 46.2723  13
   3   7   4 8.60714 22.1053  13
   3   7   5 124.340 52.9808  13
   3   7   5 88.7103 69.5404   5
   3   8  -5 1309.76 143.390  20
   3   8  -4 126.863 55.9816  20
   3   8  -3-10.5492 24.3664  20
   3   8  -2 64.0460 45.0015  20
   3   8  -1-16.7722 22.0986  20
   3   8   0-10.9678 30.6003  20
   3   8   0 38.7443 41.9444  13
   3   8   1 234.649 69.7793  20
   3   8   1 259.972 81.0159  13
   3   8   2 649.482 123.327  13
   3   8   3 25.1810 29.4494  13
   4  -6  -1 343.301 70.2265  18
   4  -6   0 906.608 117.239  18
   4  -6   1 241.731 61.9082  18
   4  -6   2 542.216 89.6842  18
   4  -5  -5 541.416 150.346   7
   4  -5  -4 1277.09 238.939   7
   4  -5  -3 414.432 135.597   8
   4  -5  -2 458.716 144.768   8
   4  -5  -1 317.932 75.6878  18
   4  -5   0-3.87732 22.6324  18
   4  -5   1 76.6452 44.6714  18
   4  -5   2 423.452 97.4804  18
   4  -5   3 961.005 134.545  18
   4  -5   4 224.662 63.9255  18
   4  -4  -7 343.240 131.905   7
   4  -4  -6 207.295 108.616   7
   4  -4  -6 208.704 85.6364   8
   4  -4  -5 350.251 140.369   7
   4  -4  -5 490.631 142.195   8
   4  -4  -4 482.288 176.655   7
   4  -4  -4 469.797 157.955   8
   4  -4  -3 469.420 159.734   8
   4  -4  -3 386.906 172.141   7
   4  -4  -2 142.549 121.432   8
   4  -4  -1 1050.35 244.488   8
   4  -4   0 1477.61 187.698  18
   4  -4   0 1617.38 311.696   8
   4  -4   1 3323.42 287.491  18
   4  -4   2 3761.91 307.782  18
   4  -4   3 91.1322 44.1736  18
   4  -4   4 379.184 92.4551  18
   4  -4   5 192.707 62.6084  18
   4  -4   6 1.45324 20.6573  18
   4  -3  -8 143.429 86.9632   7
   4  -3  -8 144.733 60.6784   8
   4  -3  -7 47.4931 74.7974   7
   4  -3  -7 237.543 81.0558   8
   4  -3  -6 256.466 134.228   7
   4  -3  -6 746.848 173.918   8
   4  -3  -5 956.135 266.122   7
   4  -3  -5 2389.14 341.892   8
   4  -3  -4 2761.15 390.508   8
   4  -3  -4 1747.36 366.566   7
   4  -3  -3 721.537 207.712   8
   4  -3  -3 338.230 174.572   7
   4  -3  -2 1383.21 291.545   8
   4  -3  -2 1135.67 307.668   7
   4  -3  -1 1733.48 335.693   8
   4  -3   0 365.978 158.475   8
   4  -3   1 2.54823 25.7171  18
   4  -3   1 35.0606 81.6883   8
   4  -3   2 2396.70 261.073  18
   4  -3   3 2585.81 270.300  18
   4  -3   4 186.823 80.7796  18
   4  -3   5 2430.20 244.756  18
   4  -3   6 2675.51 237.307  18
   4  -3   7 1253.38 139.568  18
   4  -2  -9 887.310 145.317   8
   4  -2  -8 616.695 177.763   7
   4  -2  -8 575.658 137.887   8
   4  -2  -7 983.301 244.627   7
   4  -2  -7 1803.37 275.457   8
   4  -2  -6 29.5933 74.1722   7
   4  -2  -6 317.621 116.546   8
   4  -2  -5 212.649 134.193   7
   4  -2  -5 411.397 156.563   8
   4  -2  -4 175.569 149.160   7
   4  -2  -4-22.1299 103.187   8
   4  -2  -3 508.908 169.652   8
   4  -2  -3 551.603 227.192   7
   4  -2  -2 1098.76 263.946   8
   4  -2  -2 907.919 299.967   7
   4  -2  -1 3965.85 507.710   8
   4  -2   0 5088.03 576.694   8
   4  -2   0 4774.05 430.168  20
   4  -2   1 3709.05 500.961   8
   4  -2   1 3899.99 401.072  20
   4  -2   2 4412.26 555.144   8
   4  -2   2 5217.96 469.595  20
   4  -2   3 439.361 141.540  20
   4  -2   3 280.610 91.2547  18
   4  -2   4 1099.26 181.165  18
   4  -2   4 1228.44 239.012  20
   4  -2   5 24.3134 34.8287  18
   4  -2   6 102.360 50.4364  18
   4  -2   7 673.022 111.639  18
   4  -1  -8 88.1419 63.2748   7
   4  -1  -7 526.963 175.615   7
   4  -1  -6 4878.19 568.908   7
   4  -1  -5 1669.23 362.192   7
   4  -1  -4 1869.62 329.434   8
   4  -1  -4 1792.65 387.800   7
   4  -1  -3 3096.66 430.204   8
   4  -1  -3 2659.04 478.523   7
   4  -1  -2 2608.50 402.711   8
   4  -1  -2 1919.27 415.365   7
   4  -1  -1 3295.56 463.941   8
   4  -1   0 55.5787 49.0079  20
   4  -1   0 160.937 121.968   8
   4  -1   1 941.797 200.104  20
   4  -1   1 780.991 234.884   8
   4  -1   2 590.426 165.668  20
   4  -1   2 610.028 212.073   8
   4  -1   3 3257.52 371.957  20
   4  -1   4 3011.95 300.064  18
   4  -1   4 4077.08 414.472  20
   4  -1   5 2737.54 280.749  18
   4  -1   5 3821.41 382.783  20
   4  -1   6 1707.30 210.374  18
   4  -1   7 1724.11 190.512  18
   4   0  -8 362.141 123.005  12
   4   0  -7 3324.60 384.293  12
   4   0  -7 8305.93 666.303   7
   4   0  -6 121.355 89.2563  12
   4   0  -6 278.966 135.885   7
   4   0  -5 311.870 182.593   7
   4   0  -4 113.822 119.989   7
   4   0  -3 84.6333 79.9704   8
   4   0  -3 356.990 213.156   7
   4   0  -2 555.771 181.861   8
   4   0  -1 4328.52 517.090   8
   4   0  -1 4622.35 421.964  20
   4   0   0 12540.9 877.650   8
   4   0   0 12998.7 730.049  20
   4   0   1 4128.68 504.169   8
   4   0   1 4703.11 444.634  20
   4   0   2 3187.25 441.806   8
   4   0   2 4086.46 422.038  20
   4   0   3 2106.47 302.997  20
   4   0   4 1065.11 221.148  20
   4   0   5 192.668 90.2923  20
   4   0   6 64.0543 62.1910  20
   4   0   6-8.02251 31.3586  18
   4   0   7 442.448 95.5516  18
   4   1  -8-6.33535 50.3983  12
   4   1  -7 21.5890 46.6241  12
   4   1  -7 431.259 112.079   6
   4   1  -6 2427.61 335.449  12
   4   1  -6 3308.59 332.862   6
   4   1  -5 987.355 204.502   6
   4   1  -4 2090.74 293.337   6
   4   1  -3 3409.11 428.035   8
   4   1  -2 2726.02 392.345   8
   4   1  -2 2731.24 318.592  20
   4   1  -1 3155.85 356.715  20
   4   1   0 29.5720 63.4401  20
   4   1   1 697.367 175.327  20
   4   1   2 605.603 167.242  20
   4   1   3 3215.72 370.550  20
   4   1   4 4235.76 408.818  20
   4   1   5 3724.34 367.957  20
   4   1   6 2214.95 261.635  20
   4   2  -8 405.614 95.2474   6
   4   2  -7 1534.38 231.899  12
   4   2  -7 901.445 161.111   6
   4   2  -6 117.701 73.5810   6
   4   2  -5 288.480 112.727   6
   4   2  -4 7.15151 36.3840   6
   4   2  -3 664.968 174.759   6
   4   2  -2 856.250 183.689  20
   4   2  -1 3274.17 362.637  20
   4   2   0 4569.11 434.595  20
   4   2   1 3784.34 395.365  20
   4   2   2 4896.33 448.874  20
   4   2   3 472.310 140.035  20
   4   2   4 1205.04 208.678  20
   4   2   5 11.8742 37.5385  20
   4   2   6-13.9810 48.6732  20
   4   3  -8 167.452 63.8124   6
   4   3  -7 105.074 62.4234   6
   4   3  -6 217.698 88.8467   6
   4   3  -5 865.470 179.721   6
   4   3  -4 1400.69 238.756   6
   4   3  -3 524.017 131.945  20
   4   3  -3 539.690 156.252   6
   4   3  -2 927.331 189.804  20
   4   3  -1 1280.67 225.784  20
   4   3   0 258.210 103.558  20
   4   3   1 106.715 88.1896  20
   4   3   2 2125.02 283.747  20
   4   3   3 2588.99 306.667  20
   4   3   4 191.142 79.9837  20
   4   3   5 2215.94 245.772  20
   4   3   6 2200.36 214.063  20
   4   4  -7 348.258 88.1159   6
   4   4  -6 150.891 65.5621   6
   4   4  -5 308.077 99.9927   6
   4   4  -4 214.427 80.1418  20
   4   4  -4 380.475 119.062   6
   4   4  -3 134.531 70.5727  20
   4   4  -3 310.520 113.749   6
   4   4  -2 50.4723 44.6760  20
   4   4  -1 535.827 140.226  20
   4   4   0 1275.37 212.530  20
   4   4   1 2748.01 313.298  20
   4   4   2 3431.84 337.394  20
   4   4   3 98.2792 47.4060  20
   4   4   4 397.583 96.7685  20
   4   4   5 171.112 65.9680  20
   4   5  -6 274.330 75.7257   6
   4   5  -5 533.574 113.006   6
   4   5  -4 590.263 114.008  20
   4   5  -3 181.469 68.4267  20
   4   5  -2 106.085 60.6466  20
   4   5  -1 175.629 71.7580  20
   4   5   0 95.0957 64.9257  20
   4   5   1 76.2395 51.9196  20
   4   5   2 388.415 101.657  20
   4   5   3 768.217 133.997  20
   4   6  -3 9.08334 25.4276  20
   4   6  -2 22.5367 26.9227  20
   4   6  -1 384.834 96.7028  20
   4   6   0 575.769 112.844  20
   4   6   1 186.758 61.5849  20
   4   6   2 363.413 82.1594  20
   0   0   0    0.00    0.00   0
TITL CIANO-0 in P2(1)
REM P2(1) (#4 in standard setting)
CELL 1.54184   4.038164   8.936243  12.101516  90.0000  93.7632  90.0000
ZERR    2.00   0.000149   0.000444   0.000404   0.0000   0.0030   0.0000
LATT -1
SYMM -x, y+1/2,-z
SFAC C H N O
UNIT 22.00 20.00 2.00 2.00
TREF
HKLF 4
END
;
_shelx_hkl_checksum              23409
_shelx_res_file
;
    ciano-0.res created by SHELXL-2014/7
TITL ciano-0 in P2(1)/m
CELL 1.54184   4.0382   8.9362  12.1015  90.000  93.763  90.000
ZERR    2.00   0.0001   0.0004   0.0004   0.000   0.003   0.000
LATT  1
SYMM -X, 0.5+Y, -Z
SFAC C H N BR
UNIT 18 16 2 2
ACTA
TEMP 23
L.S. 20
BOND $H
CONF
HTAB
FMAP 2
PLAN 20
WGHT    0.094700    0.007700
FVAR       8.76504
BR1   4    0.118104    0.750000    0.052852    10.50000    0.07491    0.13382 =
         0.05876    0.00000   -0.00528    0.00000
C2    1    0.350397    0.750000    0.194714    10.50000    0.05254    0.07226 =
         0.05179    0.00000    0.00564    0.00000
C3    1    0.427016    0.613349    0.243764    11.00000    0.06537    0.05790 =
         0.06225   -0.00700    0.00852   -0.00493
C4    1    0.600740    0.615760    0.346651    11.00000    0.07385    0.04986 =
         0.06132    0.00371    0.00868    0.00226
AFIX  43
H4A   2    0.661573    0.526126    0.381369    11.00000   -1.20000
AFIX   0
C5    1    0.684253    0.750000    0.398039    10.50000    0.06681    0.05842 =
         0.05257    0.00000    0.00622    0.00000
C6    1    0.870082    0.750000    0.504730    10.50000    0.07707    0.07533 =
         0.05586    0.00000   -0.00116    0.00000
N7    3    1.018080    0.750000    0.588021    10.50000    0.10387    0.10385 =
         0.06616    0.00000   -0.01155    0.00000
C8    1    0.344736    0.466209    0.189408    11.00000    0.10664    0.06792 =
         0.09241   -0.02609    0.00699   -0.01463
AFIX 137
H8A   2    0.414658    0.467139    0.115107    11.00000   -1.50000
H8B   2    0.109499    0.449870    0.187761    11.00000   -1.50000
H8C   2    0.457310    0.387308    0.230517    11.00000   -1.50000
AFIX   0
HKLF 4
REM  ciano-0 in P2(1)/m
REM R1 =  0.0443 for     771 Fo > 4sig(Fo)  and  0.0486 for all     883 data
REM     59 parameters refined using      0 restraints
END
WGHT      0.0949      0.0076
REM No hydrogen bonds found for HTAB generation
REM Highest difference peak  0.508,  deepest hole -0.455,  1-sigma level  0.086
Q1    1  -0.1124  0.7500  0.0291  10.50000  0.05    0.51
Q2    1   0.3654  0.7500  0.0736  10.50000  0.05    0.46
Q3    1   0.1191  0.6548  0.0945  11.00000  0.05    0.33
Q4    1   0.5663  0.6144  0.0803  11.00000  0.05    0.31
Q5    1   0.3055  0.3742 -0.0122  11.00000  0.05    0.28
Q6    1   0.4824  0.7500  0.2131  10.50000  0.05    0.26
Q7    1   0.3430  0.5435  0.0180  11.00000  0.05    0.24
Q8    1  -0.0129  0.7500  0.2072  10.50000  0.05    0.23
Q9    1  -0.1530  0.6038  0.1646  11.00000  0.05    0.23
Q10   1   0.3930  0.5238  0.0338  11.00000  0.05    0.23
Q11   1   0.4003  0.2500  0.0410  10.50000  0.05    0.23
Q12   1   0.5925  0.6046  0.2625  11.00000  0.05    0.23
Q13   1   0.7021  0.4491  0.1349  11.00000  0.05    0.22
Q14   1   0.4877  0.7500 -0.0221  10.50000  0.05    0.22
Q15   1   0.5623  0.3928  0.0655  11.00000  0.05    0.21
Q16   1  -0.1500  0.4971  0.0419  11.00000  0.05    0.21
Q17   1  -0.2396  0.7500  0.1187  10.50000  0.05    0.20
Q18   1   0.1622  0.7500  0.1564  10.50000  0.05    0.20
Q19   1   0.2705  0.7500 -0.1034  10.50000  0.05    0.19
Q20   1   0.6938  0.7500  0.1374  10.50000  0.05    0.18
;
_shelx_res_checksum              39612
loop_
_space_group_symop_operation_xyz
'x, y, z'
'-x, y+1/2, -z'
'-x, -y, -z'
'x, -y-1/2, z'
loop_
_atom_site_type_symbol
_atom_site_label
_atom_site_fract_x
_atom_site_fract_y
_atom_site_fract_z
_atom_site_U_iso_or_equiv
_atom_site_adp_type
_atom_site_calc_flag
_atom_site_occupancy
Br Br1 0.11810(14) 0.7500 0.05285(4) 0.0896(4) Uani d 1
C C2 0.3504(11) 0.7500 0.1947(4) 0.0588(10) Uani d 1
C C3 0.4270(8) 0.6133(4) 0.2438(3) 0.0616(8) Uani d 1
C C4 0.6007(9) 0.6158(3) 0.3467(3) 0.0615(7) Uani d 1
H H4A 0.6616 0.5261 0.3814 0.074 Uiso calc 1
C C5 0.6843(12) 0.7500 0.3980(4) 0.0592(10) Uani d 1
C C6 0.8701(14) 0.7500 0.5047(4) 0.0697(12) Uani d 1
N N7 1.0181(16) 0.7500 0.5880(5) 0.0920(15) Uani d 1
C C8 0.3447(12) 0.4662(5) 0.1894(4) 0.0890(12) Uani d 1
H H8A 0.4147 0.4671 0.1151 0.133 Uiso calc 1
H H8B 0.1095 0.4499 0.1878 0.133 Uiso calc 1
H H8C 0.4573 0.3873 0.2305 0.133 Uiso calc 1
loop_
_atom_site_aniso_label
_atom_site_aniso_U_11
_atom_site_aniso_U_22
_atom_site_aniso_U_33
_atom_site_aniso_U_12
_atom_site_aniso_U_13
_atom_site_aniso_U_23
Br1 0.0749(5) 0.1338(7) 0.0588(5) 0.000 -0.0053(3) 0.000
C2 0.053(2) 0.072(3) 0.052(2) 0.000 0.0056(17) 0.000
C3 0.0654(18) 0.0579(17) 0.0622(18) -0.0049(13) 0.0085(14) -0.0070(13)
C4 0.0739(19) 0.0499(15) 0.0613(17) 0.0023(13) 0.0087(14) 0.0037(12)
C5 0.067(3) 0.058(2) 0.053(2) 0.000 0.006(2) 0.000
C6 0.077(3) 0.075(3) 0.056(3) 0.000 -0.001(2) 0.000
N7 0.104(4) 0.104(4) 0.066(3) 0.000 -0.012(3) 0.000
C8 0.107(3) 0.068(2) 0.092(3) -0.015(2) 0.007(2) -0.026(2)
loop_
_atom_type_symbol
_atom_type_description
_atom_type_scat_dispersion_real
_atom_type_scat_dispersion_imag
_atom_type_scat_source
C C 0.0181 0.0091 'International Tables Vol C Tables 4.2.6.8 and 6.1.1.4'
H H 0.0000 0.0000 'International Tables Vol C Tables 4.2.6.8 and 6.1.1.4'
N N 0.0311 0.0180 'International Tables Vol C Tables 4.2.6.8 and 6.1.1.4'
Br Br -0.6763 1.2805 'International Tables Vol C Tables 4.2.6.8 and 6.1.1.4'
loop_
_geom_angle_atom_site_label_1
_geom_angle_atom_site_label_2
_geom_angle_atom_site_label_3
_geom_angle_site_symmetry_1
_geom_angle
C3 C2 C3 4_575 123.9(4)
C3 C2 Br1 . 118.1(2)
C2 C3 C4 . 117.2(3)
C2 C3 C8 . 123.3(3)
C4 C3 C8 . 119.5(3)
C5 C4 C3 . 120.7(3)
C5 C4 H4A . 119.6
C3 C4 H4A . 119.6
C4 C5 C4 4_575 120.3(4)
C4 C5 C6 . 119.8(2)
N7 C6 C5 . 179.5(6)
C3 C8 H8A . 109.5
C3 C8 H8B . 109.5
H8A C8 H8B . 109.5
C3 C8 H8C . 109.5
H8A C8 H8C . 109.5
H8B C8 H8C . 109.5
loop_
_geom_bond_atom_site_label_1
_geom_bond_atom_site_label_2
_geom_bond_distance
Br1 C2 1.902(5)
C2 C3 1.384(4)
C3 C4 1.389(5)
C3 C8 1.498(5)
C4 C5 1.383(4)
C4 H4A 0.9300
C5 C6 1.450(7)
C6 N7 1.138(7)
C8 H8A 0.9600
C8 H8B 0.9600
C8 H8C 0.9600
loop_
_geom_torsion_atom_site_label_1
_geom_torsion_atom_site_label_2
_geom_torsion_atom_site_label_3
_geom_torsion_atom_site_label_4
_geom_torsion_site_symmetry_1
_geom_torsion_site_symmetry_4
_geom_torsion
C3 C2 C3 C4 4_575 . -2.2(7)
Br1 C2 C3 C4 . . 179.1(3)
C3 C2 C3 C8 4_575 . -179.6(4)
Br1 C2 C3 C8 . . 1.8(5)
C2 C3 C4 C5 . . 1.6(5)
C8 C3 C4 C5 . . 179.1(4)
C3 C4 C5 C4 . 4_575 -1.1(7)
C3 C4 C5 C6 . . -179.1(4)

_cod_database_fobs_code 2241935
