#------------------------------------------------------------------------------
#$Date: 2015-08-22 06:55:39 +0300 (Sat, 22 Aug 2015) $
#$Revision: 153592 $
#$URL: svn://www.crystallography.net/cod/cif/2/24/10/2241032.cif $
#------------------------------------------------------------------------------
#
# This file is available in the Crystallography Open Database (COD),
# http://www.crystallography.net/. The original data for this entry
# were provided by IUCr Journals, http://journals.iucr.org/.
#
# The file may be used within the scientific community so long as
# proper attribution is given to the journal article from which the
# data were obtained.
#
data_2241032
loop_
_publ_author_name
'Sreenivasa, S.'
'Naveen, S.'
'Lokanath, N. K.'
'Supriya, G. M.'
'Lakshmikantha, H. N.'
'Suchetan, P. A.'
_publ_section_title
;
 Crystal structures of three <i>N</i>-aryl-2,2,2-tribromoacetamides
;
_journal_coeditor_code           HB7472
_journal_issue                   9
_journal_name_full               'Acta Crystallographica Section E'
_journal_page_first              1048
_journal_page_last               1053
_journal_paper_doi               10.1107/S2056989015015248
_journal_volume                  71
_journal_year                    2015
_chemical_formula_iupac          'C8 H5 Br3 F N O'
_chemical_formula_moiety         'C8 H5 Br3 F N O'
_chemical_formula_sum            'C8 H5 Br3 F N O'
_chemical_formula_weight         389.86
_chemical_melting_point          434
_chemical_name_systematic
;
2,2,2-Tribromo-<i>N</i>-(4-fluorophenyl)acetamide
;
_space_group_IT_number           14
_symmetry_cell_setting           monoclinic
_symmetry_space_group_name_Hall  '-P 2ybc'
_symmetry_space_group_name_H-M   'P 1 21/c 1'
_atom_sites_solution_hydrogens   geom
_atom_sites_solution_primary     direct
_atom_sites_solution_secondary   difmap
_audit_creation_method           SHELXL-97
_cell_angle_alpha                90.00
_cell_angle_beta                 100.4850(10)
_cell_angle_gamma                90.00
_cell_formula_units_Z            4
_cell_length_a                   16.9830(9)
_cell_length_b                   6.1095(3)
_cell_length_c                   10.1508(6)
_cell_measurement_reflns_used    133
_cell_measurement_temperature    100(2)
_cell_measurement_theta_max      64.26
_cell_measurement_theta_min      5.30
_cell_volume                     1035.64(10)
_computing_cell_refinement
;
APEX2 and SAINT-Plus (Bruker, 2009)
;
_computing_data_collection
;
APEX2 (Bruker, 2009)
;
_computing_data_reduction
;
SAINT-Plus and XPREP (Bruker, 2009)
;
_computing_molecular_graphics
;
Mercury (Macrae <i>et al.</i>,  2008)
;
_computing_publication_material
;
SHELXL97 (Sheldrick, 2008)
;
_computing_structure_refinement
;
SHELXL97 (Sheldrick, 2008)
;
_computing_structure_solution
;
SHELXS97 (Sheldrick, 2008)
;
_diffrn_ambient_temperature      100(2)
_diffrn_measured_fraction_theta_full 0.972
_diffrn_measured_fraction_theta_max 0.973
_diffrn_measurement_device_type  'Bruker APEXII'
_diffrn_measurement_method       'phi and \f scans'
_diffrn_radiation_monochromator  graphite
_diffrn_radiation_source         'fine-focus sealed tube'
_diffrn_radiation_type           CuK\a
_diffrn_radiation_wavelength     1.54178
_diffrn_reflns_av_R_equivalents  0.0538
_diffrn_reflns_av_sigmaI/netI    0.0453
_diffrn_reflns_limit_h_max       19
_diffrn_reflns_limit_h_min       -19
_diffrn_reflns_limit_k_max       7
_diffrn_reflns_limit_k_min       -4
_diffrn_reflns_limit_l_max       11
_diffrn_reflns_limit_l_min       -11
_diffrn_reflns_number            6934
_diffrn_reflns_theta_full        64.26
_diffrn_reflns_theta_max         64.26
_diffrn_reflns_theta_min         5.30
_diffrn_standards_decay_%        0.1
_diffrn_standards_interval_count 1
_diffrn_standards_interval_time  5
_diffrn_standards_number         1
_exptl_absorpt_coefficient_mu    14.328
_exptl_absorpt_correction_T_max  0.043
_exptl_absorpt_correction_T_min  0.029
_exptl_absorpt_correction_type   multi-scan
_exptl_absorpt_process_details
;
(SADABS; Bruker, 2009)
;
_exptl_crystal_colour            colourless
_exptl_crystal_density_diffrn    2.500
_exptl_crystal_density_method    'not measured'
_exptl_crystal_description       prism
_exptl_crystal_F_000             728
_exptl_crystal_size_max          0.31
_exptl_crystal_size_mid          0.26
_exptl_crystal_size_min          0.22
_refine_diff_density_max         1.479
_refine_diff_density_min         -1.014
_refine_ls_extinction_method     none
_refine_ls_goodness_of_fit_ref   1.187
_refine_ls_hydrogen_treatment    constr
_refine_ls_matrix_type           full
_refine_ls_number_parameters     127
_refine_ls_number_reflns         1674
_refine_ls_number_restraints     0
_refine_ls_restrained_S_all      1.187
_refine_ls_R_factor_all          0.0474
_refine_ls_R_factor_gt           0.0472
_refine_ls_shift/su_max          0.001
_refine_ls_shift/su_mean         0.000
_refine_ls_structure_factor_coef Fsqd
_refine_ls_weighting_details
'calc w=1/[\s^2^(Fo^2^)+(0.0755P)^2^+4.7440P] where P=(Fo^2^+2Fc^2^)/3'
_refine_ls_weighting_scheme      calc
_refine_ls_wR_factor_gt          0.1278
_refine_ls_wR_factor_ref         0.1282
_reflns_number_gt                1664
_reflns_number_total             1674
_reflns_threshold_expression     >2\s(I)
_iucr_refine_instructions_details
;
TITL tba3 in P2(1)/c
CELL  1.54178  16.9830   6.1095  10.1508   90.000  100.485   90.000
ZERR     4.00   0.0009   0.0003   0.0006    0.000    0.001    0.000
LATT   1
SYMM  - X, 1/2 + Y, 1/2 - Z
SFAC  C    H    N    O    F    BR
UNIT  32   20   4    4    4    12
MERG   2
OMIT    -2.00 150.00
OMIT    -2   2   1
OMIT     5   0   4
OMIT     5   1   1
OMIT     4   0   2
OMIT     6   0   2
OMIT    -8   0   2
OMIT     4   0   0
OMIT    -5   0   2
OMIT    -7   0   2
OMIT     3   2   5
OMIT     1   0   0
OMIT     6   1   2
OMIT     2   3   0
FMAP   2
PLAN   20
ACTA
BOND
BOND   $H
CONF
L.S.  10
TEMP    -173.00
WGHT      0.0755      4.7440
FVAR       0.11770
C1    1    0.815603    0.204173    0.764801    11.00000    0.00993    0.02199 =
         0.01185    0.00299    0.00516    0.00069
C2    1    0.835226    0.028673    0.691616    11.00000    0.01444    0.01115 =
         0.02222    0.00268    0.00903    0.00066
AFIX  43
H2    2    0.808390   -0.103708    0.693263    11.00000   -1.20000
AFIX   0
C3    1    0.895320    0.049419    0.615053    11.00000    0.02309    0.02142 =
         0.02566    0.00052    0.01625    0.00399
AFIX  43
H3    2    0.909449   -0.068447    0.566241    11.00000   -1.20000
AFIX   0
C4    1    0.933114    0.248246    0.613536    11.00000    0.01494    0.02782 =
         0.02656    0.00828    0.01431    0.00705
C5    1    0.914666    0.424867    0.683363    11.00000    0.01552    0.01668 =
         0.02885    0.00603    0.00766   -0.00326
AFIX  43
H5    2    0.941435    0.556989    0.680068    11.00000   -1.20000
AFIX   0
C6    1    0.854756    0.404084    0.760121    11.00000    0.01712    0.01876 =
         0.01792   -0.00491    0.00747   -0.00151
AFIX  43
H6    2    0.840931    0.523335    0.808114    11.00000   -1.20000
AFIX   0
C7    1    0.719515    0.019001    0.884423    11.00000    0.01012    0.01648 =
         0.01358    0.00128    0.00785    0.00030
C8    1    0.644532    0.061202    0.949702    11.00000    0.00938    0.00787 =
         0.01953    0.00126    0.00808    0.00287
N1    3    0.753578    0.197918    0.840105    11.00000    0.01360    0.01025 =
         0.02051    0.00301    0.01088    0.00107
AFIX  43
H1    2    0.735298    0.322439    0.860164    11.00000   -1.20000
AFIX   0
O1    4    0.740421   -0.169343    0.871906    11.00000    0.02196    0.00784 =
         0.02902   -0.00172    0.01511    0.00234
F1    5    0.992601    0.266834    0.540369    11.00000    0.02660    0.03225 =
         0.04548    0.00778    0.02955    0.00149
BR1   6    0.623453    0.364969    0.985922    11.00000    0.02181    0.00847 =
         0.02610    0.00025    0.01467    0.00343
BR2   6    0.658057   -0.101174    1.115328    11.00000    0.01840    0.01101 =
         0.01443    0.00162    0.00726    0.00083
BR3   6    0.553738   -0.056395    0.825759    11.00000    0.01178    0.02351 =
         0.01930   -0.00351    0.00268   -0.00002
HKLF 4  1.0  1.00  0.00  0.00  0.00  1.00  0.00  0.00  0.00  1.00
REM  tba3 in P2(1)/c
REM R1 =  0.0472 for   1664 Fo > 4sig(Fo)  and  0.0474 for all   1674 data
REM    127 parameters refined using      0 restraints
REM Highest difference peak  1.479,  deepest hole -1.014,  1-sigma level  0.242
END
;
_cod_data_source_file            hb7472sup1.cif
_cod_data_source_block           III
_cod_database_code               2241032
loop_
_symmetry_equiv_pos_as_xyz
'x, y, z'
'-x, y+1/2, -z+1/2'
'-x, -y, -z'
'x, -y-1/2, z-1/2'
loop_
_atom_site_type_symbol
_atom_site_label
_atom_site_fract_x
_atom_site_fract_y
_atom_site_fract_z
_atom_site_U_iso_or_equiv
_atom_site_adp_type
_atom_site_calc_flag
_atom_site_refinement_flags
_atom_site_occupancy
_atom_site_symmetry_multiplicity
C C1 0.8156(3) 0.2042(11) 0.7648(6) 0.0142(12) Uani d . 1 1
C C2 0.8352(4) 0.0287(10) 0.6916(6) 0.0152(12) Uani d . 1 1
H H2 0.8084 -0.1037 0.6933 0.018 Uiso calc R 1 1
C C3 0.8953(4) 0.0494(11) 0.6151(7) 0.0219(14) Uani d . 1 1
H H3 0.9094 -0.0684 0.5662 0.026 Uiso calc R 1 1
C C4 0.9331(4) 0.2482(12) 0.6135(6) 0.0218(14) Uani d . 1 1
C C5 0.9147(4) 0.4249(11) 0.6834(7) 0.0199(14) Uani d . 1 1
H H5 0.9414 0.5570 0.6801 0.024 Uiso calc R 1 1
C C6 0.8548(4) 0.4041(11) 0.7601(6) 0.0174(13) Uani d . 1 1
H H6 0.8409 0.5233 0.8081 0.021 Uiso calc R 1 1
C C7 0.7195(3) 0.0190(10) 0.8844(6) 0.0127(12) Uani d . 1 1
C C8 0.6445(3) 0.0612(9) 0.9497(6) 0.0116(12) Uani d . 1 1
N N1 0.7536(3) 0.1979(9) 0.8401(5) 0.0138(10) Uani d . 1 1
H H1 0.7353 0.3224 0.8602 0.017 Uiso calc R 1 1
O O1 0.7404(3) -0.1693(7) 0.8719(4) 0.0183(9) Uani d . 1 1
F F1 0.9926(2) 0.2668(7) 0.5404(4) 0.0319(10) Uani d . 1 1
Br Br1 0.62345(4) 0.36497(10) 0.98592(6) 0.0175(3) Uani d . 1 1
Br Br2 0.65806(4) -0.10117(10) 1.11533(6) 0.0141(3) Uani d . 1 1
Br Br3 0.55374(3) -0.05639(11) 0.82576(6) 0.0182(3) Uani d . 1 1
loop_
_atom_site_aniso_label
_atom_site_aniso_U_11
_atom_site_aniso_U_22
_atom_site_aniso_U_33
_atom_site_aniso_U_12
_atom_site_aniso_U_13
_atom_site_aniso_U_23
C1 0.010(3) 0.022(3) 0.012(3) 0.001(2) 0.005(2) 0.003(3)
C2 0.014(3) 0.011(3) 0.022(3) 0.001(2) 0.009(2) 0.003(3)
C3 0.023(3) 0.021(4) 0.026(3) 0.004(3) 0.016(3) 0.001(3)
C4 0.015(3) 0.028(4) 0.027(3) 0.007(3) 0.014(3) 0.008(3)
C5 0.016(3) 0.017(3) 0.029(4) -0.003(2) 0.008(3) 0.006(3)
C6 0.017(3) 0.019(3) 0.018(3) -0.002(2) 0.007(2) -0.005(2)
C7 0.010(3) 0.016(3) 0.014(3) 0.000(2) 0.008(2) 0.001(2)
C8 0.009(3) 0.008(3) 0.020(3) 0.003(2) 0.008(2) 0.001(2)
N1 0.014(2) 0.010(3) 0.021(3) 0.0011(19) 0.011(2) 0.003(2)
O1 0.022(2) 0.008(2) 0.029(2) 0.0023(17) 0.0151(18) -0.0017(18)
F1 0.027(2) 0.032(2) 0.045(2) 0.0015(17) 0.0296(18) 0.008(2)
Br1 0.0218(4) 0.0085(4) 0.0261(4) 0.0034(2) 0.0147(3) 0.0002(2)
Br2 0.0184(4) 0.0110(4) 0.0144(4) 0.0008(2) 0.0073(3) 0.0016(2)
Br3 0.0118(4) 0.0235(4) 0.0193(4) 0.0000(2) 0.0027(3) -0.0035(3)
loop_
_atom_type_symbol
_atom_type_description
_atom_type_scat_dispersion_real
_atom_type_scat_dispersion_imag
_atom_type_scat_source
C C 0.0181 0.0091 'International Tables Vol C Tables 4.2.6.8 and 6.1.1.4'
H H 0.0000 0.0000 'International Tables Vol C Tables 4.2.6.8 and 6.1.1.4'
N N 0.0311 0.0180 'International Tables Vol C Tables 4.2.6.8 and 6.1.1.4'
O O 0.0492 0.0322 'International Tables Vol C Tables 4.2.6.8 and 6.1.1.4'
F F 0.0727 0.0534 'International Tables Vol C Tables 4.2.6.8 and 6.1.1.4'
Br Br -0.6763 1.2805 'International Tables Vol C Tables 4.2.6.8 and 6.1.1.4'
loop_
_geom_angle_atom_site_label_1
_geom_angle_atom_site_label_2
_geom_angle_atom_site_label_3
_geom_angle
C2 C1 C6 119.9(5)
C2 C1 N1 123.3(6)
C6 C1 N1 116.7(5)
C1 C2 C3 120.1(6)
C1 C2 H2 119.9
C3 C2 H2 119.9
C4 C3 C2 118.4(6)
C4 C3 H3 120.8
C2 C3 H3 120.8
C5 C4 F1 118.8(6)
C5 C4 C3 122.9(6)
F1 C4 C3 118.3(6)
C4 C5 C6 118.7(6)
C4 C5 H5 120.7
C6 C5 H5 120.7
C5 C6 C1 119.9(6)
C5 C6 H6 120.0
C1 C6 H6 120.0
O1 C7 N1 125.4(5)
O1 C7 C8 118.5(5)
N1 C7 C8 116.1(5)
C7 C8 Br2 107.9(4)
C7 C8 Br1 115.6(4)
Br2 C8 Br1 108.9(3)
C7 C8 Br3 106.1(4)
Br2 C8 Br3 109.2(3)
Br1 C8 Br3 109.0(3)
C7 N1 C1 127.6(5)
C7 N1 H1 116.2
C1 N1 H1 116.2
loop_
_geom_bond_atom_site_label_1
_geom_bond_atom_site_label_2
_geom_bond_distance
C1 C2 1.379(9)
C1 C6 1.396(9)
C1 N1 1.410(7)
C2 C3 1.397(9)
C2 H2 0.9300
C3 C4 1.375(10)
C3 H3 0.9300
C4 C5 1.359(10)
C4 F1 1.363(7)
C5 C6 1.395(9)
C5 H5 0.9300
C6 H6 0.9300
C7 O1 1.218(8)
C7 N1 1.352(8)
C7 C8 1.560(7)
C8 Br2 1.929(6)
C8 Br1 1.938(6)
C8 Br3 1.942(6)
N1 H1 0.8600
loop_
_geom_hbond_atom_site_label_D
_geom_hbond_atom_site_label_H
_geom_hbond_atom_site_label_A
_geom_hbond_site_symmetry_A
_geom_hbond_distance_DH
_geom_hbond_distance_HA
_geom_hbond_distance_DA
_geom_hbond_angle_DHA
N1 H1 Br1 yes 0.86 2.49 3.051(5) 124
C2 H2 O1 yes 0.93 2.35 2.912(8) 118
C3 H3 F1 3_756 0.93 2.46 3.308(8) 151
loop_
_geom_torsion_atom_site_label_1
_geom_torsion_atom_site_label_2
_geom_torsion_atom_site_label_3
_geom_torsion_atom_site_label_4
_geom_torsion
C6 C1 C2 C3 1.3(9)
N1 C1 C2 C3 177.4(6)
C1 C2 C3 C4 -0.8(10)
C2 C3 C4 C5 0.1(10)
C2 C3 C4 F1 179.0(6)
F1 C4 C5 C6 -178.8(6)
C3 C4 C5 C6 0.0(10)
C4 C5 C6 C1 0.5(10)
C2 C1 C6 C5 -1.2(9)
N1 C1 C6 C5 -177.5(6)
O1 C7 C8 Br2 50.5(6)
N1 C7 C8 Br2 -132.8(4)
O1 C7 C8 Br1 172.6(4)
N1 C7 C8 Br1 -10.6(7)
O1 C7 C8 Br3 -66.5(6)
N1 C7 C8 Br3 110.3(5)
O1 C7 N1 C1 4.2(9)
C8 C7 N1 C1 -172.4(5)
C2 C1 N1 C7 19.8(9)
C6 C1 N1 C7 -164.0(6)

_cod_database_fobs_code 2241032
