#------------------------------------------------------------------------------
#$Date: 2015-10-29 11:47:23 +0200 (Thu, 29 Oct 2015) $
#$Revision: 169845 $
#$URL: svn://www.crystallography.net/cod/cif/2/24/12/2241253.cif $
#------------------------------------------------------------------------------
#
# This file is available in the Crystallography Open Database (COD),
# http://www.crystallography.net/. The original data for this entry
# were provided by IUCr Journals, http://journals.iucr.org/.
#
# The file may be used within the scientific community so long as
# proper attribution is given to the journal article from which the
# data were obtained.
#
data_2241253
loop_
_publ_author_name
'Smith, Graham'
'Lynch, Daniel E.'
_publ_section_title
;
 Crystal structures and hydrogen bonding in the morpholinium salts of four
 phenoxyacetic acid analogues
;
_journal_coeditor_code           SU5227
_journal_issue                   11
_journal_name_full               'Acta Crystallographica Section E'
_journal_page_first              1392
_journal_page_last               1396
_journal_paper_doi               10.1107/S2056989015019842
_journal_volume                  71
_journal_year                    2015
_chemical_formula_iupac          'C4 H10 N O +, C8 H6 F O3 -'
_chemical_formula_moiety         'C4 H10 N O +, C8 H6 F O3 -'
_chemical_formula_sum            'C12 H16 F N O4'
_chemical_formula_weight         257.26
_chemical_name_common            'morpholinium (4-fluorophenoxy)acetate'
_chemical_name_systematic
;
Tetrahydro-2<i>H</i>-1,4-oxazin-4-ium (4-fluorophenoxy)acetate
;
_space_group_IT_number           2
_symmetry_cell_setting           triclinic
_symmetry_space_group_name_Hall  '-P 1'
_symmetry_space_group_name_H-M   'P -1'
_atom_sites_solution_hydrogens   geom
_atom_sites_solution_primary     direct
_atom_sites_solution_secondary   difmap
_audit_creation_method           SHELXL-97
_cell_angle_alpha                88.388(8)
_cell_angle_beta                 82.792(8)
_cell_angle_gamma                80.325(8)
_cell_formula_units_Z            2
_cell_length_a                   5.7997(5)
_cell_length_b                   10.2605(10)
_cell_length_c                   10.4836(11)
_cell_measurement_reflns_used    1163
_cell_measurement_temperature    200.0(10)
_cell_measurement_theta_max      28.44
_cell_measurement_theta_min      4.03
_cell_volume                     610.11(10)
_computing_cell_refinement
;
CrysAlis PRO (Agilent, 2014)
;
_computing_data_collection
;
CrysAlis PRO (Agilent, 2014)
;
_computing_data_reduction
;
CrysAlis PRO (Agilent, 2014)
;
_computing_molecular_graphics
;
PLATON (Spek, 2009)
;
_computing_publication_material
;
PLATON (Spek, 2009)
;
_computing_structure_refinement
;
SHELXL97 (Sheldrick, 2008) within WinGX (Farrugia, 2012)
;
_computing_structure_solution
;
SHELXS97 (Sheldrick, 2008)
;
_diffrn_ambient_temperature      200(2)
_diffrn_detector_area_resol_mean 16.077
_diffrn_measured_fraction_theta_full 0.998
_diffrn_measured_fraction_theta_max 0.998
_diffrn_measurement_device_type  'Oxford Diffraction Gemini-S CCD-detector'
_diffrn_measurement_method       '\w scans'
_diffrn_radiation_monochromator  graphite
_diffrn_radiation_source         'fine-focus sealed tube'
_diffrn_radiation_type           MoK\a
_diffrn_radiation_wavelength     0.71073
_diffrn_reflns_av_R_equivalents  0.0334
_diffrn_reflns_av_sigmaI/netI    0.0552
_diffrn_reflns_limit_h_max       6
_diffrn_reflns_limit_h_min       -7
_diffrn_reflns_limit_k_max       12
_diffrn_reflns_limit_k_min       -10
_diffrn_reflns_limit_l_max       12
_diffrn_reflns_limit_l_min       -12
_diffrn_reflns_number            4984
_diffrn_reflns_theta_full        26.00
_diffrn_reflns_theta_max         26.00
_diffrn_reflns_theta_min         3.59
_diffrn_standards_number         0
_exptl_absorpt_coefficient_mu    0.114
_exptl_absorpt_correction_T_max  0.980
_exptl_absorpt_correction_T_min  0.488
_exptl_absorpt_correction_type   multi-scan
_exptl_absorpt_process_details
;
(CrysAlis PRO; Agilent, 2014)
;
_exptl_crystal_colour            colourless
_exptl_crystal_density_diffrn    1.400
_exptl_crystal_density_method    'not measured'
_exptl_crystal_description       plate
_exptl_crystal_F_000             272
_exptl_crystal_size_max          0.50
_exptl_crystal_size_mid          0.25
_exptl_crystal_size_min          0.05
_refine_diff_density_max         0.187
_refine_diff_density_min         -0.195
_refine_ls_extinction_method     none
_refine_ls_goodness_of_fit_ref   1.041
_refine_ls_hydrogen_treatment    mixed
_refine_ls_matrix_type           full
_refine_ls_number_parameters     169
_refine_ls_number_reflns         2394
_refine_ls_number_restraints     2
_refine_ls_restrained_S_all      1.044
_refine_ls_R_factor_all          0.0682
_refine_ls_R_factor_gt           0.0458
_refine_ls_shift/su_max          0.000
_refine_ls_shift/su_mean         0.000
_refine_ls_structure_factor_coef Fsqd
_refine_ls_weighting_details
'calc w=1/[\s^2^(Fo^2^)+(0.0460P)^2^+0.0267P] where P=(Fo^2^+2Fc^2^)/3'
_refine_ls_weighting_scheme      calc
_refine_ls_wR_factor_gt          0.0996
_refine_ls_wR_factor_ref         0.1164
_reflns_number_gt                1743
_reflns_number_total             2394
_reflns_threshold_expression     I>2\s(I)
_iucr_refine_instructions_details
;
TITL gs15gs23 MORPHPFPA
CELL  0.71073   5.7997  10.2605  10.4836   88.388   82.792   80.325
ZERR     2.00   0.0005   0.0010   0.0011    0.008    0.008    0.008
LATT   1
SFAC  C    H    N    O    F
UNIT  24   32   2    8    2
MERG   2
OMIT    -4.00  52.00
DFIX   0.90  0.02  N1B H11B N1B H12B
FMAP   2
PLAN   10
ACTA
BOND   $H
L.S.  10
TEMP   -73.00
WGHT    0.046000    0.026700
FVAR      10.87972
MOLE    1
O11A  4    0.331697    0.716513    0.447156    11.00000    0.02508    0.04088 =
         0.02651    0.00310    0.00096    0.00787
F4A   5    1.109051    0.508991    0.119376    11.00000    0.03763    0.06491 =
         0.04295   -0.01397    0.00669    0.01368
O14A  4   -0.249301    0.889100    0.484473    11.00000    0.02155    0.04970 =
         0.02995    0.00255   -0.00356    0.00412
O13A  4   -0.003889    0.825885    0.629581    11.00000    0.02296    0.05130 =
         0.02366    0.00149   -0.00118   -0.00421
C2A   1    0.535656    0.699790    0.227880    11.00000    0.02973    0.03035 =
         0.02699   -0.00236   -0.00451    0.00398
AFIX  43
H2A   2    0.411888    0.757793    0.194179    11.00000   -1.20000
AFIX   0
C12A  1    0.140784    0.807143    0.404288    11.00000    0.02374    0.02730 =
         0.02587    0.00050   -0.00215    0.00114
AFIX  23
H11A  2    0.076228    0.766336    0.335066    11.00000   -1.20000
H12A  2    0.198103    0.888067    0.369211    11.00000   -1.20000
AFIX   0
C13A  1   -0.051378    0.842866    0.516491    11.00000    0.02237    0.02610 =
         0.02659   -0.00029   -0.00230   -0.00526
C1A   1    0.516944    0.667782    0.357181    11.00000    0.02307    0.02559 =
         0.02587   -0.00315   -0.00033   -0.00026
C6A   1    0.694777    0.579079    0.405116    11.00000    0.02868    0.03441 =
         0.02753    0.00433   -0.00182   -0.00181
AFIX  43
H6A   2    0.680278    0.556108    0.493840    11.00000   -1.20000
AFIX   0
C5A   1    0.892512    0.524047    0.324705    11.00000    0.02526    0.03369 =
         0.03830   -0.00062   -0.00531    0.00397
AFIX  43
H5A   2    1.013523    0.462566    0.356832    11.00000   -1.20000
AFIX   0
C4A   1    0.909601    0.560206    0.198063    11.00000    0.02646    0.03420 =
         0.03462   -0.01222    0.00385    0.00254
C3A   1    0.737176    0.646546    0.146976    11.00000    0.03793    0.04054 =
         0.02436   -0.00427    0.00150    0.00246
AFIX  43
H3A   2    0.754625    0.669619    0.058304    11.00000   -1.20000
AFIX   0
MOLE    2
N1B   3    0.428232    0.852972    0.689204    11.00000    0.02216    0.04149 =
         0.02171    0.00079   -0.00144   -0.00320
O4B   4    0.330041    0.844155    0.962115    11.00000    0.06276    0.05207 =
         0.02266    0.00495   -0.00391   -0.01186
C6B   1    0.421394    0.969813    0.769808    11.00000    0.03370    0.03462 =
         0.02978    0.00342   -0.00566   -0.00340
AFIX  23
H61B  2    0.365022    1.051153    0.722036    11.00000   -1.20000
H62B  2    0.582237    0.974438    0.789687    11.00000   -1.20000
AFIX   0
C2B   1    0.489820    0.728988    0.763262    11.00000    0.03447    0.03359 =
         0.03844    0.00055   -0.00624   -0.00298
AFIX  23
H22B  2    0.654202    0.720366    0.783062    11.00000   -1.20000
H21B  2    0.477545    0.651845    0.711396    11.00000   -1.20000
AFIX   0
C5B   1    0.261420    0.961970    0.892149    11.00000    0.04878    0.04500 =
         0.03000   -0.00247    0.00145   -0.00151
AFIX  23
H51B  2    0.263482    1.039405    0.945987    11.00000   -1.20000
H52B  2    0.098210    0.965095    0.872164    11.00000   -1.20000
AFIX   0
C3B   1    0.324410    0.731857    0.886283    11.00000    0.04941    0.04333 =
         0.03394    0.00839   -0.00425   -0.01605
AFIX  23
H32B  2    0.161948    0.733615    0.865654    11.00000   -1.20000
H31B  2    0.368764    0.650316    0.936494    11.00000   -1.20000
AFIX   0
H11B  2    0.541192    0.860766    0.614344    11.00000   -1.20000
H12B  2    0.282541    0.854758    0.657987    11.00000   -1.20000
HKLF 4
REM  gs15gs23 in P-1
REM R1 =  0.0458 for   1743 Fo > 4sig(Fo)  and  0.0682 for all   2394 data
REM    169 parameters refined using      2 restraints
END
WGHT      0.0463      0.0259
REM Highest difference peak  0.187,  deepest hole -0.195,  1-sigma level  0.046
Q1    1  -0.1616  0.8388  0.6934  11.00000  0.05    0.19
Q2    1   0.4086  0.6967  0.6806  11.00000  0.05    0.18
Q3    1   0.5777  0.8453  0.9342  11.00000  0.05    0.17
Q4    1  -0.4580  0.8545  0.4782  11.00000  0.05    0.16
Q5    1  -0.2208  0.8641  0.5980  11.00000  0.05    0.15
Q6    1   1.0816  0.3815  0.0663  11.00000  0.05    0.15
Q7    1   0.6310  0.6382  0.1877  11.00000  0.05    0.15
Q8    1   0.4971  1.0793  0.9432  11.00000  0.05    0.15
Q9    1   0.0445  0.8279  0.4622  11.00000  0.05    0.15
Q10   1  -0.0923  0.7155  0.8385  11.00000  0.05    0.14
;
_cod_data_source_file            su5227sup1.cif
_cod_data_source_block           II
_cod_database_code               2241253
loop_
_symmetry_equiv_pos_as_xyz
'x, y, z'
'-x, -y, -z'
loop_
_atom_site_aniso_label
_atom_site_aniso_U_11
_atom_site_aniso_U_22
_atom_site_aniso_U_33
_atom_site_aniso_U_12
_atom_site_aniso_U_13
_atom_site_aniso_U_23
F4A 0.0376(7) 0.0649(8) 0.0429(8) 0.0137(6) 0.0067(6) -0.0140(6)
O11A 0.0251(6) 0.0409(8) 0.0265(8) 0.0079(5) 0.0010(5) 0.0031(6)
O13A 0.0230(6) 0.0513(8) 0.0237(8) -0.0042(6) -0.0012(6) 0.0015(6)
O14A 0.0216(7) 0.0497(8) 0.0300(8) 0.0041(6) -0.0036(6) 0.0026(6)
C1A 0.0231(9) 0.0256(9) 0.0259(11) -0.0003(7) -0.0003(8) -0.0031(8)
C2A 0.0297(10) 0.0304(10) 0.0270(11) 0.0040(8) -0.0045(8) -0.0024(8)
C3A 0.0379(11) 0.0405(11) 0.0244(11) 0.0025(9) 0.0015(9) -0.0043(9)
C4A 0.0265(10) 0.0342(10) 0.0346(13) 0.0025(8) 0.0039(8) -0.0122(9)
C5A 0.0253(9) 0.0337(10) 0.0383(13) 0.0040(8) -0.0053(9) -0.0006(9)
C6A 0.0287(10) 0.0344(10) 0.0275(11) -0.0018(8) -0.0018(8) 0.0043(9)
C12A 0.0237(9) 0.0273(9) 0.0259(11) 0.0011(7) -0.0022(8) 0.0005(8)
C13A 0.0224(9) 0.0261(9) 0.0266(11) -0.0053(7) -0.0023(8) -0.0003(8)
O4B 0.0628(10) 0.0521(9) 0.0227(8) -0.0119(7) -0.0039(7) 0.0049(7)
N1B 0.0222(8) 0.0415(9) 0.0217(9) -0.0032(7) -0.0014(7) 0.0008(7)
C2B 0.0345(10) 0.0336(11) 0.0384(13) -0.0030(8) -0.0062(9) 0.0006(9)
C3B 0.0494(13) 0.0433(12) 0.0339(13) -0.0160(10) -0.0043(10) 0.0084(10)
C5B 0.0488(12) 0.0450(13) 0.0300(13) -0.0015(10) 0.0015(10) -0.0025(10)
C6B 0.0337(10) 0.0346(11) 0.0298(12) -0.0034(8) -0.0057(9) 0.0034(9)
loop_
_atom_site_type_symbol
_atom_site_label
_atom_site_fract_x
_atom_site_fract_y
_atom_site_fract_z
_atom_site_U_iso_or_equiv
_atom_site_thermal_displace_type
_atom_site_calc_flag
_atom_site_refinement_flags
_atom_site_occupancy
F F4A 1.10905(19) 0.50899(12) 0.11938(12) 0.0518(4) Uani d . 1.000
O O11A 0.3317(2) 0.71651(12) 0.44716(12) 0.0328(4) Uani d . 1.000
O O13A -0.0039(2) 0.82589(13) 0.62958(12) 0.0331(4) Uani d . 1.000
O O14A -0.2493(2) 0.88910(13) 0.48447(12) 0.0350(4) Uani d . 1.000
C C1A 0.5169(3) 0.66778(16) 0.35718(18) 0.0255(6) Uani d . 1.000
C C2A 0.5357(3) 0.69979(18) 0.22788(18) 0.0300(6) Uani d . 1.000
C C3A 0.7372(3) 0.64655(19) 0.14698(19) 0.0357(6) Uani d . 1.000
C C4A 0.9096(3) 0.56021(18) 0.1981(2) 0.0331(6) Uani d . 1.000
C C5A 0.8925(3) 0.52405(18) 0.3247(2) 0.0333(6) Uani d . 1.000
C C6A 0.6948(3) 0.57908(18) 0.40512(19) 0.0308(6) Uani d . 1.000
C C12A 0.1408(3) 0.80714(17) 0.40429(17) 0.0263(6) Uani d . 1.000
C C13A -0.0514(3) 0.84287(16) 0.51649(18) 0.0249(6) Uani d . 1.000
O O4B 0.3300(2) 0.84416(14) 0.96211(13) 0.0458(5) Uani d . 1.000
N N1B 0.4282(3) 0.85297(15) 0.68920(15) 0.0288(5) Uani d D 1.000
C C2B 0.4898(3) 0.72899(19) 0.76326(19) 0.0357(7) Uani d . 1.000
C C3B 0.3244(4) 0.7319(2) 0.8863(2) 0.0415(7) Uani d . 1.000
C C5B 0.2614(4) 0.9620(2) 0.8921(2) 0.0425(7) Uani d . 1.000
C C6B 0.4214(3) 0.96981(18) 0.76981(19) 0.0329(6) Uani d . 1.000
H H2A 0.41190 0.75780 0.19420 0.0360 Uiso c R 1.000
H H3A 0.75460 0.66960 0.05830 0.0430 Uiso c R 1.000
H H5A 1.01350 0.46260 0.35680 0.0400 Uiso c R 1.000
H H6A 0.68030 0.55610 0.49380 0.0370 Uiso c R 1.000
H H11A 0.07620 0.76630 0.33510 0.0320 Uiso c R 1.000
H H12A 0.19810 0.88810 0.36920 0.0320 Uiso c R 1.000
H H11B 0.541(3) 0.861(2) 0.6143(17) 0.0500 Uiso d D 1.000
H H12B 0.283(3) 0.855(2) 0.6580(19) 0.0500 Uiso d D 1.000
H H21B 0.47750 0.65180 0.71140 0.0430 Uiso c R 1.000
H H22B 0.65420 0.72040 0.78310 0.0430 Uiso c R 1.000
H H31B 0.36880 0.65030 0.93650 0.0500 Uiso c R 1.000
H H32B 0.16190 0.73360 0.86570 0.0500 Uiso c R 1.000
H H51B 0.26350 1.03940 0.94600 0.0510 Uiso c R 1.000
H H52B 0.09820 0.96510 0.87220 0.0510 Uiso c R 1.000
H H61B 0.36500 1.05120 0.72200 0.0390 Uiso c R 1.000
H H62B 0.58220 0.97440 0.78970 0.0390 Uiso c R 1.000
loop_
_atom_type_symbol
_atom_type_description
_atom_type_scat_dispersion_real
_atom_type_scat_dispersion_imag
_atom_type_scat_source
C C 0.0033 0.0016 'International Tables Vol C Tables 4.2.6.8 and 6.1.1.4'
H H 0.0000 0.0000 'International Tables Vol C Tables 4.2.6.8 and 6.1.1.4'
N N 0.0061 0.0033 'International Tables Vol C Tables 4.2.6.8 and 6.1.1.4'
O O 0.0106 0.0060 'International Tables Vol C Tables 4.2.6.8 and 6.1.1.4'
F F 0.0171 0.0103 'International Tables Vol C Tables 4.2.6.8 and 6.1.1.4'
loop_
_geom_angle_atom_site_label_1
_geom_angle_atom_site_label_2
_geom_angle_atom_site_label_3
_geom_angle
_geom_angle_publ_flag
C1A O11A C12A 117.83(14) no
C3B O4B C5B 109.82(15) no
C2B N1B C6B 110.58(15) no
C6B N1B H11B 106.7(12) no
C2B N1B H12B 110.3(12) no
H11B N1B H12B 105.8(16) no
C2B N1B H11B 112.8(12) no
C6B N1B H12B 110.5(12) no
O11A C1A C6A 114.80(16) no
C2A C1A C6A 119.88(17) no
O11A C1A C2A 125.33(16) no
C1A C2A C3A 119.71(17) no
C2A C3A C4A 118.64(18) no
C3A C4A C5A 122.83(18) no
F4A C4A C5A 118.33(16) no
F4A C4A C3A 118.84(18) no
C4A C5A C6A 118.38(17) no
C1A C6A C5A 120.53(18) no
O11A C12A C13A 109.56(14) no
O13A C13A O14A 125.43(17) no
O14A C13A C12A 114.50(16) no
O13A C13A C12A 120.06(15) no
C3A C2A H2A 120.00 no
C1A C2A H2A 120.00 no
C4A C3A H3A 121.00 no
C2A C3A H3A 121.00 no
C4A C5A H5A 121.00 no
C6A C5A H5A 121.00 no
C5A C6A H6A 120.00 no
C1A C6A H6A 120.00 no
C13A C12A H11A 110.00 no
O11A C12A H11A 110.00 no
C13A C12A H12A 110.00 no
O11A C12A H12A 110.00 no
H11A C12A H12A 108.00 no
N1B C2B C3B 109.48(16) no
O4B C3B C2B 111.75(17) no
O4B C5B C6B 111.70(17) no
N1B C6B C5B 110.52(15) no
N1B C2B H21B 110.00 no
N1B C2B H22B 110.00 no
C3B C2B H21B 110.00 no
C3B C2B H22B 110.00 no
H21B C2B H22B 108.00 no
O4B C3B H31B 109.00 no
O4B C3B H32B 109.00 no
C2B C3B H31B 109.00 no
C2B C3B H32B 109.00 no
H31B C3B H32B 108.00 no
O4B C5B H51B 109.00 no
O4B C5B H52B 109.00 no
C6B C5B H51B 109.00 no
C6B C5B H52B 109.00 no
H51B C5B H52B 108.00 no
N1B C6B H61B 110.00 no
N1B C6B H62B 110.00 no
C5B C6B H61B 110.00 no
C5B C6B H62B 110.00 no
H61B C6B H62B 108.00 no
loop_
_geom_bond_atom_site_label_1
_geom_bond_atom_site_label_2
_geom_bond_distance
_geom_bond_publ_flag
F4A C4A 1.370(2) no
O11A C1A 1.373(2) no
O11A C12A 1.431(2) no
O13A C13A 1.251(2) no
O14A C13A 1.249(2) no
O4B C5B 1.422(2) no
O4B C3B 1.425(2) no
N1B C6B 1.478(2) no
N1B C2B 1.487(2) no
N1B H12B 0.938(18) no
N1B H11B 0.968(18) no
C1A C6A 1.391(3) no
C1A C2A 1.381(3) no
C2A C3A 1.395(3) no
C3A C4A 1.372(3) no
C4A C5A 1.364(3) no
C5A C6A 1.382(3) no
C12A C13A 1.523(3) no
C2A H2A 0.9500 no
C3A H3A 0.9500 no
C5A H5A 0.9500 no
C6A H6A 0.9500 no
C12A H11A 0.9900 no
C12A H12A 0.9900 no
C2B C3B 1.506(3) no
C5B C6B 1.494(3) no
C2B H21B 0.9900 no
C2B H22B 0.9900 no
C3B H31B 0.9900 no
C3B H32B 0.9900 no
C5B H51B 0.9900 no
C5B H52B 0.9900 no
C6B H61B 0.9900 no
C6B H62B 0.9900 no
loop_
_geom_hbond_atom_site_label_D
_geom_hbond_atom_site_label_H
_geom_hbond_atom_site_label_A
_geom_hbond_site_symmetry_A
_geom_hbond_distance_DH
_geom_hbond_distance_HA
_geom_hbond_distance_DA
_geom_hbond_angle_DHA
_geom_hbond_publ_flag
N1B H11B O14A 1_655 0.968(18) 1.759(18) 2.725(2) 174.7(16) yes
N1B H12B O13A . 0.938(18) 1.801(18) 2.718(2) 165.0(18) yes
C6B H61B O14A 2_576 0.99 2.38 3.188(2) 138 yes
loop_
_geom_torsion_atom_site_label_1
_geom_torsion_atom_site_label_2
_geom_torsion_atom_site_label_3
_geom_torsion_atom_site_label_4
_geom_torsion
_geom_torsion_publ_flag
C12A O11A C1A C2A 0.5(2) no
C12A O11A C1A C6A -179.26(15) no
C1A O11A C12A C13A 176.75(14) no
C3B O4B C5B C6B -59.8(2) no
C5B O4B C3B C2B 60.3(2) no
C6B N1B C2B C3B 53.5(2) no
C2B N1B C6B C5B -53.7(2) no
C6A C1A C2A C3A -2.3(3) no
O11A C1A C2A C3A 177.92(16) no
C2A C1A C6A C5A 1.0(3) no
O11A C1A C6A C5A -179.22(16) no
C1A C2A C3A C4A 1.8(3) no
C2A C3A C4A F4A -179.19(16) no
C2A C3A C4A C5A 0.0(3) no
C3A C4A C5A C6A -1.4(3) no
F4A C4A C5A C6A 177.88(16) no
C4A C5A C6A C1A 0.8(3) no
O11A C12A C13A O14A -160.39(14) no
O11A C12A C13A O13A 20.1(2) no
N1B C2B C3B O4B -57.4(2) no
O4B C5B C6B N1B 57.1(2) no

_cod_database_fobs_code 2241253
