#------------------------------------------------------------------------------
#$Date: 2015-09-26 05:22:16 +0300 (Sat, 26 Sep 2015) $
#$Revision: 158355 $
#$URL: svn://www.crystallography.net/cod/cif/2/24/10/2241099.cif $
#------------------------------------------------------------------------------
#
# This file is available in the Crystallography Open Database (COD),
# http://www.crystallography.net/. The original data for this entry
# were provided by IUCr Journals, http://journals.iucr.org/.
#
# The file may be used within the scientific community so long as
# proper attribution is given to the journal article from which the
# data were obtained.
#
data_2241099
loop_
_publ_author_name
'Romero, Nancy'
'Bern\`es, Sylvain'
'Roa, Luis F.'
'Ter\'an, Joel L.'
'Gnecco, Dino'
_publ_section_title
;
 Crystal structures of two chiral piperidine derivatives:
 1-[(1<i>R</i>)-2-hydroxy-1-phenylethyl]piperidin-4-one and
 8-[(1<i>S</i>)-1-phenylethyl]-1,4-dioxa-8-azaspiro[4.5]decan-7-thione
;
_journal_coeditor_code           XU5868
_journal_issue                   10
_journal_name_full               'Acta Crystallographica Section E'
_journal_page_first              1207
_journal_page_last               1211
_journal_paper_doi               10.1107/S2056989015017119
_journal_volume                  71
_journal_year                    2015
_chemical_formula_iupac          'C13 H17 N O2'
_chemical_formula_moiety         'C13 H17 N O2'
_chemical_formula_sum            'C13 H17 N O2'
_chemical_formula_weight         219.27
_chemical_name_systematic
;
1-[(1<i>R</i>)-2-Hydroxy-1-phenylethyl]piperidin-4-one
;
_space_group_crystal_system      monoclinic
_space_group_IT_number           4
_space_group_name_Hall           'P 2yb'
_space_group_name_H-M_alt        'P 1 21 1'
_symmetry_space_group_name_Hall  'P 2yb'
_symmetry_space_group_name_H-M   'P 1 21 1'
_atom_sites_solution_hydrogens   geom
_atom_sites_solution_primary     direct
_atom_sites_solution_secondary   difmap
_audit_creation_method           SHELXL-2014/7
_cell_angle_alpha                90
_cell_angle_beta                 114.348(9)
_cell_angle_gamma                90
_cell_formula_units_Z            2
_cell_length_a                   9.7590(11)
_cell_length_b                   6.8952(10)
_cell_length_c                   9.7980(14)
_cell_measurement_reflns_used    53
_cell_measurement_temperature    296.0(10)
_cell_measurement_theta_max      11.13
_cell_measurement_theta_min      3.73
_cell_volume                     600.67(15)
_computing_cell_refinement
;
XSCANS (Fait, 1996)
;
_computing_data_collection
;
XSCANS (Fait, 1996)
;
_computing_data_reduction
;
XSCANS (Fait, 1996)
;
_computing_molecular_graphics
;
SHELXTL (Sheldrick, 2008)
;
_computing_publication_material
;
SHELXL2014 (Sheldrick, 2015)
;
_computing_structure_refinement
;
SHELXL2014 (Sheldrick, 2015)
;
_computing_structure_solution
;
SHELXS97 (Sheldrick, 2008)
;
_diffrn_ambient_temperature      296.0(10)
_diffrn_measured_fraction_theta_full 1.000
_diffrn_measured_fraction_theta_max 1.000
_diffrn_measurement_device_type  'Bruker P4'
_diffrn_measurement_method       '2\q/\w scans'
_diffrn_radiation_monochromator  graphite
_diffrn_radiation_type           MoK\a
_diffrn_radiation_wavelength     0.71073
_diffrn_reflns_av_R_equivalents  0.0209
_diffrn_reflns_limit_h_max       4
_diffrn_reflns_limit_h_min       -11
_diffrn_reflns_limit_k_max       8
_diffrn_reflns_limit_k_min       -1
_diffrn_reflns_limit_l_max       11
_diffrn_reflns_limit_l_min       -10
_diffrn_reflns_number            2700
_diffrn_reflns_theta_full        24.996
_diffrn_reflns_theta_max         24.996
_diffrn_reflns_theta_min         2.282
_diffrn_standards_decay_%        0.5
_diffrn_standards_interval_count 97
_diffrn_standards_number         3
_exptl_absorpt_coefficient_mu    0.081
_exptl_absorpt_correction_type   none
_exptl_crystal_colour            Pale_yellow
_exptl_crystal_density_diffrn    1.212
_exptl_crystal_description       plate
_exptl_crystal_F_000             236
_exptl_crystal_size_max          0.60
_exptl_crystal_size_mid          0.17
_exptl_crystal_size_min          0.12
_refine_diff_density_max         0.105
_refine_diff_density_min         -0.114
_refine_ls_abs_structure_details 'Assigned from the synthesis'
_refine_ls_extinction_coef       0.040(6)
_refine_ls_extinction_expression Fc^*^=kFc[1+0.001xFc^2^\l^3^/sin(2\q)]^-1/4^
_refine_ls_extinction_method
;
SHELXL2014 (Sheldrick, 2015)
;
_refine_ls_goodness_of_fit_ref   1.041
_refine_ls_hydrogen_treatment    constr
_refine_ls_matrix_type           full
_refine_ls_number_constraints    0
_refine_ls_number_parameters     146
_refine_ls_number_reflns         1341
_refine_ls_number_restraints     1
_refine_ls_restrained_S_all      1.040
_refine_ls_R_factor_all          0.0534
_refine_ls_R_factor_gt           0.0355
_refine_ls_shift/su_max          0.000
_refine_ls_shift/su_mean         0.000
_refine_ls_structure_factor_coef Fsqd
_refine_ls_weighting_details
'w=1/[\s^2^(Fo^2^)+(0.0372P)^2^+0.0246P] where P=(Fo^2^+2Fc^2^)/3'
_refine_ls_weighting_scheme      calc
_refine_ls_wR_factor_gt          0.0756
_refine_ls_wR_factor_ref         0.0832
_reflns_number_gt                1050
_reflns_number_total             1341
_reflns_threshold_expression     'I > 2\s(I)'
_cod_data_source_file            xu5868sup1.cif
_cod_data_source_block           I
_cod_database_code               2241099
_shelx_hkl_file
;
 -11  -1   2    4.46    2.88
 -11  -1   3    3.33    2.49
 -11  -1   4    9.91    3.11
 -11  -1   5   -2.03    2.43
 -11  -1   6   11.74    3.53
 -11  -1   7    0.00    2.50
 -11   0   7    3.18    2.44
 -11   0   6    8.48    4.01
 -11   0   5    1.65    2.33
 -11   0   4    0.11    2.80
 -11   0   3    1.83    3.20
 -11   0   2    1.29    2.43
 -11   1   2    3.50    3.07
 -11   1   3    6.80    3.20
 -11   1   4    6.41    3.26
 -11   1   5    0.94    2.97
 -11   1   6   15.42    3.70
 -11   1   7    0.60    2.59
 -11   2   6   -3.40    2.43
 -11   2   5    3.79    4.42
 -11   2   4   14.22    3.72
 -11   2   3    0.35    2.90
 -10   4   5   15.96    3.74
 -10   4   4    9.66    4.30
 -10   4   3    4.86    2.85
 -10   3   1   15.12    3.46
 -10   3   2    0.27    2.93
 -10   3   3    2.67    2.63
 -10   3   4   10.88    4.06
 -10   3   5   12.26    3.08
 -10   3   6   -0.65    2.16
 -10   3   7    1.36    2.64
 -10   2   8    2.84    2.49
 -10   2   7    3.20    2.87
 -10   2   6    2.34    3.10
 -10   2   5    9.03    3.12
 -10   2   4   10.93    2.84
 -10   2   3   -0.81    2.29
 -10   2   2   16.40    3.48
 -10   2   1    1.49    3.20
 -10   2   0   -2.13    2.29
 -10   1  -1    3.78    2.49
 -10   1   0   10.86    4.10
 -10   1   1    7.33    2.75
 -10   1   2    1.06    2.65
 -10   1   3    5.84    3.54
 -10   1   4    1.21    2.63
 -10   1   5    3.02    4.38
 -10   1   6   14.51    3.81
 -10   1   7    2.13    2.54
 -10   1   8    8.44    3.04
 -10   1   9   13.71    4.34
 -10   0   9    3.28    2.63
 -10   0   8   -0.78    2.66
 -10   0   7   -0.51    2.48
 -10   0   6    3.35    2.60
 -10   0   5   -2.23    1.95
 -10   0   4   -1.35    2.37
 -10   0   3   33.52    3.75
 -10   0   2   43.64    4.76
 -10   0   1    3.62    2.66
 -10   0   0    0.67    2.96
 -10   0  -1    1.35    4.03
 -10  -1  -1    2.99    3.00
 -10  -1   0   11.72    3.51
 -10  -1   1   -2.02    2.75
 -10  -1   2    4.90    2.59
 -10  -1   3    6.18    2.80
 -10  -1   4    3.13    2.16
 -10  -1   5    1.80    3.77
 -10  -1   6   12.53    4.13
 -10  -1   7    2.03    2.48
 -10  -1   8    9.61    3.73
 -10  -1   9    8.38    3.43
  -9  -1  -1    6.27    2.95
  -9  -1   0    3.34    2.45
  -9  -1   1   19.16    3.52
  -9  -1   2   70.19    4.52
  -9  -1   3   39.39    4.03
  -9  -1   4   12.00    3.93
  -9  -1   5   53.09    4.15
  -9  -1   6   -1.30    2.14
  -9  -1   7    6.55    2.86
  -9  -1   8   15.87    3.39
  -9  -1   9   -0.79    2.46
  -9  -1  10    1.88    3.05
  -9   0  10   -1.13    2.65
  -9   0   9    4.20    2.96
  -9   0   8  113.66    6.96
  -9   0   7   38.34    4.21
  -9   0   6   31.85    3.87
  -9   0   5    6.44    2.36
  -9   0   4   39.32    4.11
  -9   0   3   82.75    5.40
  -9   0   2   -0.33    2.28
  -9   0   1   14.51    3.02
  -9   0   0    0.45    2.30
  -9   0  -1   62.30    5.07
  -9   1  -1   13.75    4.19
  -9   1   0    6.90    2.95
  -9   1   1   20.28    3.49
  -9   1   2   68.97    4.62
  -9   1   3   27.85    3.77
  -9   1   4   18.70    3.39
  -9   1   5   54.55    4.39
  -9   1   6   -2.08    2.85
  -9   1   7   16.08    4.02
  -9   1   8   16.98    3.41
  -9   1   9    0.43    3.73
  -9   1  10    1.03    2.71
  -9   2   9   15.36    4.09
  -9   2   8   42.46    4.67
  -9   2   7    9.68    3.02
  -9   2   6    8.34    2.67
  -9   2   5   59.46    5.40
  -9   2   4    8.31    4.46
  -9   2   3    3.37    2.71
  -9   2   2   38.45    4.81
  -9   2   1    0.39    2.64
  -9   2   0    4.61    3.74
  -9   2  -1   24.39    4.67
  -9   3  -1    0.86    2.92
  -9   3   0    0.15    2.61
  -9   3   1   15.77    4.14
  -9   3   2   33.36    3.81
  -9   3   3    0.13    2.59
  -9   3   4   18.32    4.05
  -9   3   5   10.00    4.23
  -9   3   6   10.34    3.52
  -9   3   7    1.43    3.45
  -9   3   8    3.27    3.18
  -9   3   9    1.56    4.49
  -9   4   7    0.30    2.53
  -9   4   6    0.33    3.52
  -9   4   5   -0.85    2.49
  -9   4   4   -0.78    2.65
  -9   4   3    2.50    3.21
  -9   4   2   17.36    3.37
  -9   4   1    0.17    2.89
  -9   4   0   -2.61    2.45
  -9   5   2    8.30    3.43
  -9   5   3   -2.57    2.71
  -9   5   4    6.29    3.19
  -9   5   5   12.60    3.76
  -9   2  -2    2.77    3.43
  -9   1  -2   27.75    4.35
  -9   0  -2    7.04    2.40
  -9  -1  -2   29.20    4.36
  -8   5   0    2.31    3.10
  -8   5   1    3.30    3.25
  -8   5   2   11.88    4.07
  -8   5   3   -1.15    3.08
  -8   5   4    2.76    3.17
  -8   5   5    5.35    5.21
  -8   5   6    4.40    3.25
  -8   5   7    0.73    2.90
  -8   4   8    6.25    3.16
  -8   4   7   17.70    3.38
  -8   4   6    8.96    3.14
  -8   4   5    4.18    3.14
  -8   4   4   11.94    3.32
  -8   4   3   25.49    3.64
  -8   4   2   -1.93    2.80
  -8   4   1   36.00    4.75
  -8   4   0    6.96    2.98
  -8   4  -1   15.04    5.07
  -8   3  -1   22.46    3.67
  -8   3   0   18.71    4.01
  -8   3   1   14.64    3.32
  -8   3   2   42.47    4.24
  -8   3   3   43.74    4.06
  -8   3   4   10.53    2.98
  -8   3   5   10.75    2.68
  -8   3   6    9.99    4.31
  -8   3   7   12.87    3.45
  -8   3   8   14.25    3.42
  -8   3   9   22.23    4.22
  -8   2  10    2.01    4.32
  -8   2   9    1.22    2.52
  -8   2   8    4.06    3.13
  -8   2   7   18.23    4.08
  -8   2   6    9.38    3.24
  -8   2   5   58.97    4.63
  -8   2   4  276.45    8.30
  -8   2   3   10.43    1.93
  -8   2   2   66.59    4.55
  -8   2   1   61.06    5.28
  -8   2   0   16.30    3.16
  -8   2  -1   42.41    4.46
  -8   1  -1   30.77    3.77
  -8   1   0    8.69    3.08
  -8   1   1    6.61    1.74
  -8   1   2   11.47    1.83
  -8   1   3  107.29    3.75
  -8   1   4  100.43    3.74
  -8   1   5   25.95    2.43
  -8   1   6   18.81    3.13
  -8   1   7   81.31    5.12
  -8   1   8   47.30    4.49
  -8   1   9   15.57    3.93
  -8   1  10   29.82    4.76
  -8   0  11    3.18    3.09
  -8   0  10    0.71    2.69
  -8   0   9   34.53    4.18
  -8   0   8   -0.59    2.89
  -8   0   7    0.97    3.63
  -8   0   6   30.93    2.42
  -8   0   5  121.99    3.84
  -8   0   4  341.09    9.73
  -8   0   3    2.85    1.74
  -8   0   2  190.32    8.19
  -8   0   1   51.96    2.78
  -8   0   0   34.49    3.95
  -8   0  -1   12.01    3.13
  -8  -1  -1   29.26    3.87
  -8  -1   0   11.55    3.20
  -8  -1   1    8.40    1.79
  -8  -1   2   12.66    1.90
  -8  -1   3  110.36    3.83
  -8  -1   4   96.05    3.67
  -8  -1   5   30.93    2.42
  -8  -1   6   17.34    3.31
  -8  -1   7   87.24    5.20
  -8  -1   8   59.30    4.75
  -8  -1   9   22.89    3.74
  -8  -1  10   26.21    5.00
  -8  -1  -4    8.10    3.67
  -8  -1  -3    7.91    3.44
  -8  -1  -2   54.30    4.54
  -8   0  -2   30.71    3.66
  -8   0  -3   22.98    4.22
  -8   0  -4    4.46    4.21
  -8   1  -4   30.26    5.35
  -8   1  -3    1.56    4.24
  -8   1  -2   55.48    4.97
  -8   2  -2   13.63    3.41
  -8   2  -3    9.07    3.83
  -8   3  -3   10.64    3.73
  -8   3  -2    3.69    3.15
  -8   4  -2   -1.59    3.43
  -7  -1  -1   11.38    1.81
  -7  -1   0   38.54    2.63
  -7  -1   1   52.82    2.77
  -7  -1   2   80.42    3.30
  -7  -1   3   35.37    2.55
  -7  -1   4  122.01    4.87
  -7  -1   5   53.29    2.80
  -7  -1   6   48.63    2.80
  -7  -1   7    7.94    1.88
  -7  -1   8   29.96    4.20
  -7  -1   9    9.44    3.07
  -7  -1  10    9.33    3.56
  -7  -1  11   -2.21    2.61
  -7   0  11    1.92    2.69
  -7   0  10   19.37    3.90
  -7   0   9   17.87    4.45
  -7   0   8   20.14    3.96
  -7   0   7  160.92    6.74
  -7   0   6   67.33    3.12
  -7   0   5   49.09    2.79
  -7   0   4   -0.64    1.34
  -7   0   3  137.64    4.71
  -7   0   2  198.77    8.98
  -7   0   1   11.50    1.89
  -7   0   0   37.38    2.59
  -7   0  -1   -0.44    1.55
  -7   1  -1   10.85    1.88
  -7   1   0   33.66    2.52
  -7   1   1   49.27    2.83
  -7   1   2   79.62    3.31
  -7   1   3   32.38    2.58
  -7   1   4  126.79    3.97
  -7   1   5   54.70    3.62
  -7   1   6   46.46    2.72
  -7   1   7    6.69    1.71
  -7   1   8   23.43    3.30
  -7   1   9    9.49    3.19
  -7   1  10    7.08    2.94
  -7   1  11    1.80    3.01
  -7   2  10   21.37    4.10
  -7   2   9   31.85    4.33
  -7   2   8   38.14    4.59
  -7   2   7   80.49    4.88
  -7   2   6   24.18    2.38
  -7   2   5   30.56    2.42
  -7   2   4  288.97    9.61
  -7   2   3  102.99    3.73
  -7   2   2    0.45    1.44
  -7   2   1   19.98    2.18
  -7   2   0   19.00    3.09
  -7   2  -1    6.07    3.04
  -7   3  -1   10.87    3.07
  -7   3   0  130.27    6.52
  -7   3   1   84.81    3.39
  -7   3   2   38.27    2.60
  -7   3   3    9.79    1.95
  -7   3   4   11.23    2.75
  -7   3   5   36.11    2.57
  -7   3   6    7.37    3.22
  -7   3   7    6.58    3.06
  -7   3   8   11.04    3.66
  -7   3   9    1.49    2.78
  -7   3  10   14.62    3.69
  -7   4   9   15.23    3.85
  -7   4   8   -0.73    3.38
  -7   4   7   29.22    4.21
  -7   4   6   24.89    3.69
  -7   4   5   11.53    3.01
  -7   4   4   23.04    3.70
  -7   4   3   25.78    3.80
  -7   4   2   50.95    5.04
  -7   4   1   65.35    5.72
  -7   4   0   23.78    3.71
  -7   4  -1   -1.92    2.52
  -7   5  -1   36.31    4.65
  -7   5   0    6.67    3.39
  -7   5   1   21.33    4.32
  -7   5   2    8.02    2.77
  -7   5   3   19.25    3.75
  -7   5   4   13.41    3.31
  -7   5   5    1.10    3.68
  -7   5   6   16.65    3.31
  -7   5   7    3.71    3.90
  -7   5   8    1.94    2.87
  -7   6   6   -0.24    2.84
  -7   6   5    5.06    3.15
  -7   6   4   20.77    4.12
  -7   6   3    6.44    4.64
  -7   6   2   23.93    4.03
  -7   6   1   12.93    5.19
  -7   6   0   18.37    4.05
  -7   5  -2   23.38    5.08
  -7   4  -2   -1.07    2.46
  -7   4  -3   -3.15    3.62
  -7   3  -4    4.08    3.76
  -7   3  -3    0.76    2.63
  -7   3  -2   22.23    3.34
  -7   2  -2    8.12    2.83
  -7   2  -3   11.63    3.11
  -7   2  -4    6.05    3.44
  -7   2  -5    2.28    3.50
  -7   1  -5   -2.09    2.96
  -7   1  -4    4.42    3.03
  -7   1  -3  102.24    6.33
  -7   1  -2   45.83    4.30
  -7   0  -2   22.29    3.62
  -7   0  -3   14.31    3.84
  -7   0  -4    0.78    3.43
  -7   0  -5    3.94    3.23
  -7  -1  -5    1.86    3.09
  -7  -1  -4   14.85    3.55
  -7  -1  -3   83.18    5.32
  -7  -1  -2   44.18    4.37
  -6   7   2    2.76    3.92
  -6   7   3   13.60    4.83
  -6   6   7    0.06    3.23
  -6   6   6   -3.07    2.99
  -6   6   5    6.31    3.07
  -6   6   4   10.79    4.65
  -6   6   3   -0.43    3.28
  -6   6   2   10.47    3.31
  -6   6   1    8.05    3.11
  -6   6   0    4.33    4.00
  -6   6  -1   18.21    4.89
  -6   5  -1   19.31    3.82
  -6   5   0   29.96    4.69
  -6   5   1  129.89    6.28
  -6   5   2    2.75    2.80
  -6   5   3    8.97    3.43
  -6   5   4   31.86    3.99
  -6   5   5    5.93    3.79
  -6   5   6   55.72    5.01
  -6   5   7    9.89    4.60
  -6   5   8   14.39    3.37
  -6   4   9    5.70    3.08
  -6   4   8    1.81    2.84
  -6   4   7    3.44    2.86
  -6   4   6   23.22    3.69
  -6   4   5   19.87    3.28
  -6   4   4   11.84    1.92
  -6   4   3    2.85    1.49
  -6   4   2    5.89    1.86
  -6   4   1   38.23    2.53
  -6   4   0  159.43    7.17
  -6   4  -1   -3.99    2.70
  -6   3  -1   11.56    2.07
  -6   3   0   88.64    3.70
  -6   3   1  252.15    9.70
  -6   3   2  163.53    7.84
  -6   3   3   39.16    2.62
  -6   3   4   16.06    2.17
  -6   3   5   52.32    2.96
  -6   3   6   98.11    3.60
  -6   3   7   28.80    3.95
  -6   3   8    5.41    2.90
  -6   3   9   39.61    5.01
  -6   3  10    4.79    4.01
  -6   2  11    2.41    2.88
  -6   2  10    6.02    3.28
  -6   2   9   50.57    4.72
  -6   2   8   47.30    4.45
  -6   2   7    9.11    2.06
  -6   2   6   32.88    2.37
  -6   2   5    0.44    1.61
  -6   2   4   42.47    2.59
  -6   2   3   91.42    3.70
  -6   2   2    5.41    1.59
  -6   2   1   10.81    1.97
  -6   2   0   41.28    2.53
  -6   2  -1  119.87    3.90
  -6   1  -1   10.84    2.00
  -6   1   0    7.56    1.79
  -6   1   1   49.83    2.69
  -6   1   2   46.85    2.76
  -6   1   3  432.25   14.14
  -6   1   4   58.54    2.92
  -6   1   5   37.89    2.50
  -6   1   6   -0.74    1.51
  -6   1   7   28.08    2.39
  -6   1   8   -0.39    2.34
  -6   1   9   11.83    3.33
  -6   1  10    4.64    3.58
  -6   1  11    1.47    2.69
  -6   0  11    6.57    2.99
  -6   0  10   15.63    3.33
  -6   0   9    7.24    2.67
  -6   0   8   11.24    1.80
  -6   0   7    9.41    1.76
  -6   0   6    4.67    1.75
  -6   0   5   49.46    2.68
  -6   0   4   74.27    3.11
  -6   0   3  269.28   11.43
  -6   0   2  154.03    5.47
  -6   0   1   12.49    2.30
  -6   0   0   12.55    1.88
  -6   0  -1   83.88    3.28
  -6  -1  -1    9.65    2.32
  -6  -1   0    8.04    2.01
  -6  -1   1   56.97    2.96
  -6  -1   2   42.14    2.54
  -6  -1   3  407.40   13.93
  -6  -1   4   59.23    2.87
  -6  -1   5   36.87    2.38
  -6  -1   6   -1.10    1.47
  -6  -1   7   24.39    2.27
  -6  -1   8   -1.08    3.01
  -6  -1   9    9.48    3.11
  -6  -1  10    5.48    3.54
  -6  -1  11    2.17    3.35
  -6  -1  -6    8.56    3.57
  -6  -1  -5   17.42    3.95
  -6  -1  -4   37.48    4.09
  -6  -1  -3   50.38    4.80
  -6  -1  -2   18.20    2.25
  -6   0  -2   33.34    2.53
  -6   0  -3   28.91    2.26
  -6   0  -4    1.97    3.19
  -6   0  -5   12.60    3.16
  -6   0  -6   -2.45    2.87
  -6   1  -6   10.47    4.44
  -6   1  -5   18.21    3.53
  -6   1  -4   37.94    4.24
  -6   1  -3   50.68    4.69
  -6   1  -2   25.88    2.50
  -6   2  -2  100.52    4.29
  -6   2  -3   32.37    3.66
  -6   2  -4   18.07    4.72
  -6   2  -5   22.26    3.70
  -6   2  -6    4.38    4.17
  -6   3  -5   -3.05    2.71
  -6   3  -4   -2.28    2.28
  -6   3  -3   13.55    3.30
  -6   3  -2   33.56    4.00
  -6   4  -2   13.52    3.00
  -6   4  -3    6.36    3.28
  -6   4  -4    6.59    2.99
  -6   5  -3    5.10    3.23
  -6   5  -2    2.12    4.21
  -6   6  -2   27.72    4.87
  -5  -1  -1   36.90    3.03
  -5  -1   0    5.96    1.65
  -5  -1   1  119.22    4.06
  -5  -1   2  198.97    7.99
  -5  -1   3  683.62   19.57
  -5  -1   4   27.44    1.92
  -5  -1   5   14.94    1.84
  -5  -1   6   58.17    3.04
  -5  -1   7   17.86    1.94
  -5  -1   8   48.19    2.68
  -5  -1   9   17.13    3.41
  -5  -1  10    3.75    3.20
  -5  -1  11    3.89    3.12
  -5   0  11    5.62    3.32
  -5   0  10   36.24    4.36
  -5   0   9    1.15    2.73
  -5   0   8   41.66    2.52
  -5   0   7   97.51    3.53
  -5   0   6    1.01    1.98
  -5   0   5   16.37    2.32
  -5   0   4  122.95    4.84
  -5   0   3   13.46    1.89
  -5   0   2  249.49    8.58
  -5   0   1   10.95    1.64
  -5   0   0  107.98    4.53
  -5   0  -1  161.04    5.76
  -5   1  -1   37.55    2.48
  -5   1   0    7.12    2.04
  -5   1   1  109.35    4.17
  -5   1   2  195.03    7.40
  -5   1   3  753.95   22.90
  -5   1   4   24.91    2.12
  -5   1   5   14.37    1.87
  -5   1   6   57.18    2.86
  -5   1   7   17.00    2.28
  -5   1   8   41.72    2.62
  -5   1   9   17.23    3.21
  -5   1  10    9.53    3.09
  -5   1  11    3.15    4.34
  -5   2  11    6.05    3.30
  -5   2  10    1.22    3.89
  -5   2   9   10.24    2.78
  -5   2   8   79.77    5.73
  -5   2   7   98.48    3.63
  -5   2   6   18.36    2.12
  -5   2   5   59.67    2.99
  -5   2   4  111.13    4.44
  -5   2   3  350.30   13.89
  -5   2   2  234.27   11.58
  -5   2   1  269.17   11.86
  -5   2   0   54.73    2.80
  -5   2  -1   30.20    2.48
  -5   3  -1  127.20    4.02
  -5   3   0  142.69    4.66
  -5   3   1   39.24    2.57
  -5   3   2  168.46    6.09
  -5   3   3  402.10   13.21
  -5   3   4   14.06    2.04
  -5   3   5    2.35    1.42
  -5   3   6   81.26    3.59
  -5   3   7   77.25    3.28
  -5   3   8   22.24    4.57
  -5   3   9   21.00    3.82
  -5   3  10    5.99    3.22
  -5   4  10   15.83    4.94
  -5   4   9    0.41    3.02
  -5   4   8    3.66    4.10
  -5   4   7   14.61    3.72
  -5   4   6  166.95    6.35
  -5   4   5   26.02    2.40
  -5   4   4    1.47    1.66
  -5   4   3   10.04    1.75
  -5   4   2   36.10    3.33
  -5   4   1   -1.40    2.20
  -5   4   0   84.62    3.90
  -5   4  -1   23.58    2.32
  -5   5  -1   60.08    5.27
  -5   5   0   65.19    4.86
  -5   5   1    7.66    3.04
  -5   5   2   70.83    5.23
  -5   5   3   13.53    3.05
  -5   5   4   45.30    3.97
  -5   5   5    4.82    3.45
  -5   5   6   22.25    3.60
  -5   5   7    1.19    3.53
  -5   5   8    0.96    3.38
  -5   5   9    2.85    2.94
  -5   6   7    8.26    5.01
  -5   6   6    5.65    2.75
  -5   6   5   -1.78    3.49
  -5   6   4   19.63    3.74
  -5   6   3   11.91    3.50
  -5   6   2    8.77    3.47
  -5   6   1   13.94    3.34
  -5   6   0   13.09    3.50
  -5   6  -1   48.25    4.86
  -5   7  -1    4.76    3.48
  -5   7   0   -0.16    3.21
  -5   7   1    7.93    4.43
  -5   7   2    8.47    3.44
  -5   7   3   18.80    4.28
  -5   7   4   10.78    3.53
  -5   7   5    4.69    3.09
  -5   6  -2   12.96    3.34
  -5   6  -3   11.33    3.34
  -5   5  -4    7.15    2.95
  -5   5  -3   10.79    3.36
  -5   5  -2   16.95    4.11
  -5   4  -2   98.88    5.39
  -5   4  -3   56.32    5.07
  -5   4  -4   17.23    4.22
  -5   4  -5   -0.63    2.82
  -5   3  -6   30.57    5.27
  -5   3  -5   10.51    2.91
  -5   3  -4   50.93    4.13
  -5   3  -3   17.81    3.41
  -5   3  -2   39.85    2.69
  -5   2  -2  149.36    5.55
  -5   2  -3  120.68    4.14
  -5   2  -4   35.17    3.79
  -5   2  -5   58.24    5.20
  -5   2  -6   18.06    3.78
  -5   2  -7   14.04    3.80
  -5   1  -7    5.41    3.12
  -5   1  -6   -3.13    2.94
  -5   1  -5   13.01    3.73
  -5   1  -4   58.28    2.91
  -5   1  -3   30.65    2.62
  -5   1  -2    7.83    2.04
  -5   0  -2   13.67    2.49
  -5   0  -3  114.24    3.97
  -5   0  -4   -0.87    1.49
  -5   0  -5  381.06    9.85
  -5   0  -6    4.24    2.84
  -5   0  -7    7.85    3.44
  -5  -1  -7    4.85    3.40
  -5  -1  -6   -0.59    2.48
  -5  -1  -5    5.81    2.87
  -5  -1  -4   68.33    3.40
  -5  -1  -3   33.35    2.53
  -5  -1  -2   12.57    2.23
  -4   7  -1    2.09    3.74
  -4   7   0    1.69    4.09
  -4   7   1    0.51    4.47
  -4   7   2    9.80    4.79
  -4   7   3    8.12    3.03
  -4   7   4    4.40    3.78
  -4   7   5    2.65    3.07
  -4   6   7   -3.42    2.65
  -4   6   6    5.32    3.21
  -4   6   5   10.38    2.73
  -4   6   4    1.43    3.10
  -4   6   3    9.12    3.20
  -4   6   2    6.32    3.11
  -4   6   1    8.10    3.16
  -4   6   0    2.96    2.87
  -4   6  -1   92.02    5.76
  -4   5  -1   84.42    5.67
  -4   5   0   62.72    3.19
  -4   5   1   60.00    3.08
  -4   5   2   22.37    2.33
  -4   5   3    4.89    1.71
  -4   5   4   81.95    3.38
  -4   5   5  125.78    5.99
  -4   5   6   33.60    4.35
  -4   5   7    9.10    3.17
  -4   5   8    0.89    3.31
  -4   5   9    1.29    3.51
  -4   4  10   12.12    4.58
  -4   4   9    4.81    2.92
  -4   4   8    2.74    2.75
  -4   4   7   -1.26    3.42
  -4   4   6   17.15    2.26
  -4   4   5   25.88    2.34
  -4   4   4   67.33    3.31
  -4   4   3   28.42    2.50
  -4   4   2  162.45    5.95
  -4   4   1   12.86    2.03
  -4   4   0  131.67    4.76
  -4   4  -1   79.00    3.35
  -4   3  -1  170.86    5.81
  -4   3   0  261.09   11.44
  -4   3   1  424.79   14.91
  -4   3   2  218.45    7.55
  -4   3   3    9.40    1.75
  -4   3   4   37.46    2.60
  -4   3   5  119.34    4.83
  -4   3   6  142.12    5.09
  -4   3   7  105.87    3.69
  -4   3   8   43.26    4.73
  -4   3   9    8.36    3.53
  -4   3  10   11.82    3.53
  -4   2  11    2.90    3.69
  -4   2  10   34.03    4.71
  -4   2   9    2.25    2.60
  -4   2   8   12.55    1.87
  -4   2   7  215.12    8.48
  -4   2   6    7.84    2.56
  -4   2   5   20.94    2.11
  -4   2   4  250.71    8.26
  -4   2   3  146.52    5.97
  -4   2   2  901.82   22.66
  -4   2   1  111.39    4.17
  -4   2   0  358.02   14.87
  -4   2  -1   69.71    2.97
  -4   1  -1  125.32    4.13
  -4   1   0  617.49   19.78
  -4   1   1  118.84    4.38
  -4   1   2  518.87   18.22
  -4   1   3  255.11    9.56
  -4   1   4  158.29    5.02
  -4   1   5  269.90   12.66
  -4   1   6    9.31    2.27
  -4   1   7   81.33    3.42
  -4   1   8   80.01    3.32
  -4   1   9   47.62    4.75
  -4   1  10   54.80    4.96
  -4   1  11    5.86    3.72
  -4   0  11   41.57    5.52
  -4   0  10    7.08    3.08
  -4   0   9   52.85    5.11
  -4   0   8   41.60    2.72
  -4   0   7   89.28    3.40
  -4   0   6   78.85    3.17
  -4   0   5    7.01    1.57
  -4   0   4 1877.26   32.27
  -4   0   3   16.52    1.72
  -4   0   2   54.79    2.26
  -4   0   1  726.57   20.49
  -4   0   0  695.18   20.53
  -4   0  -1   28.11    2.11
  -4  -1  -1  113.64    4.55
  -4  -1   0  591.05   19.00
  -4  -1   1  116.72    3.86
  -4  -1   2  474.45   17.28
  -4  -1   3  208.76    7.59
  -4  -1   4  168.24    6.31
  -4  -1   5  276.90   11.93
  -4  -1   6    9.46    2.27
  -4  -1   7   84.50    3.32
  -4  -1   8   74.64    3.12
  -4  -1   9   45.41    3.98
  -4  -1  10   46.99    4.53
  -4  -1  11    6.86    3.72
  -4  -1  -8    3.28    3.76
  -4  -1  -7   28.63    4.08
  -4  -1  -6  110.98    6.16
  -4  -1  -5   47.83    2.56
  -4  -1  -4  249.15    9.89
  -4  -1  -3   67.20    3.59
  -4  -1  -2   17.58    1.90
  -4   0  -2  100.26    3.66
  -4   0  -3    0.97    1.60
  -4   0  -4   12.94    2.57
  -4   0  -5    2.22    1.37
  -4   0  -6    9.72    3.01
  -4   0  -7   -0.39    2.35
  -4   0  -8    0.24    2.36
  -4   1  -8   -1.55    3.17
  -4   1  -7   29.41    4.43
  -4   1  -6  131.90    6.61
  -4   1  -5   42.72    2.54
  -4   1  -4  270.91    9.61
  -4   1  -3   72.01    3.17
  -4   1  -2   16.99    1.91
  -4   2  -2  104.15    4.34
  -4   2  -3   13.30    1.96
  -4   2  -4   38.64    2.60
  -4   2  -5   88.45    5.31
  -4   2  -6   26.65    3.74
  -4   2  -7   18.99    3.41
  -4   3  -7    6.47    3.89
  -4   3  -6    5.83    2.87
  -4   3  -5    5.65    3.39
  -4   3  -4   72.10    3.07
  -4   3  -3  145.57    4.57
  -4   3  -2   36.92    2.52
  -4   4  -2   39.71    2.73
  -4   4  -3  122.01    5.97
  -4   4  -4   15.40    3.48
  -4   4  -5   13.53    3.21
  -4   4  -6   14.40    3.52
  -4   5  -5    3.81    2.52
  -4   5  -4    4.89    3.28
  -4   5  -3    2.19    2.97
  -4   5  -2    7.27    2.68
  -4   6  -2   10.38    3.38
  -4   6  -3    3.28    3.23
  -4   6  -4    2.27    3.55
  -4   7  -2   -1.25    3.69
  -3  -1  -1   29.68    1.90
  -3  -1   0  670.89   19.91
  -3  -1   1 1332.38   27.49
  -3  -1   2 2178.15   34.96
  -3  -1   3  231.74    8.65
  -3  -1   4  140.93    5.34
  -3  -1   5  281.90   13.41
  -3  -1   6   78.14    3.43
  -3  -1   7   42.27    2.57
  -3  -1   8   26.17    2.53
  -3  -1   9   32.01    3.52
  -3  -1  10   18.07    3.52
  -3  -1  11   10.51    3.08
  -3   0  11   27.44    4.24
  -3   0  10   60.86    5.05
  -3   0   9  191.98    7.51
  -3   0   8    3.15    1.58
  -3   0   7   95.86    3.47
  -3   0   6   75.13    3.00
  -3   0   5   21.94    1.90
  -3   0   4   10.55    1.67
  -3   0   3  271.03    9.59
  -3   0   2    2.91    1.04
  -3   0   1  227.87    8.27
  -3   0   0    1.37    1.07
  -3   0  -1   70.87    3.01
  -3   1  -1   31.68    1.88
  -3   1   0  708.11   20.61
  -3   1   1 1454.06   28.87
  -3   1   2 2156.94   35.00
  -3   1   3  214.53    7.24
  -3   1   4  138.10    5.73
  -3   1   5  301.63   12.63
  -3   1   6   86.45    3.55
  -3   1   7   45.67    2.72
  -3   1   8   23.86    2.34
  -3   1   9   34.71    4.20
  -3   1  10   16.09    4.81
  -3   1  11    8.62    4.12
  -3   2  11    3.90    4.03
  -3   2  10    0.35    2.42
  -3   2   9   71.30    4.90
  -3   2   8   76.47    3.11
  -3   2   7  279.75    9.64
  -3   2   6   80.82    3.40
  -3   2   5   76.87    3.21
  -3   2   4   13.13    1.71
  -3   2   3  222.37    8.30
  -3   2   2   -0.32    1.43
  -3   2   1  238.34    8.92
  -3   2   0  559.66   17.86
  -3   2  -1  432.39   16.63
  -3   3  -1    8.19    1.55
  -3   3   0  126.04    5.03
  -3   3   1  742.28   20.59
  -3   3   2 1142.59   25.01
  -3   3   3    2.35    1.55
  -3   3   4   -0.63    1.76
  -3   3   5   14.48    1.83
  -3   3   6  122.07    4.77
  -3   3   7   35.95    2.62
  -3   3   8  101.59    6.02
  -3   3   9   13.71    3.12
  -3   3  10    3.48    2.62
  -3   4  10   -0.36    2.58
  -3   4   9    3.79    2.77
  -3   4   8   15.36    3.30
  -3   4   7   31.56    3.73
  -3   4   6  163.28    7.54
  -3   4   5   50.61    2.91
  -3   4   4   19.68    2.12
  -3   4   3   61.00    3.08
  -3   4   2   19.05    2.44
  -3   4   1  143.95    5.15
  -3   4   0   21.20    2.07
  -3   4  -1  105.63    4.03
  -3   5  -1   34.74    2.53
  -3   5   0   67.73    3.19
  -3   5   1   17.68    2.15
  -3   5   2   51.86    3.04
  -3   5   3  134.46    4.44
  -3   5   4   60.03    3.21
  -3   5   5   50.63    4.96
  -3   5   6    2.87    3.30
  -3   5   7   86.09    5.54
  -3   5   8    8.76    3.01
  -3   5   9    2.05    4.41
  -3   6   7    1.14    3.20
  -3   6   6    0.70    3.22
  -3   6   5   14.87    3.99
  -3   6   4   50.51    4.89
  -3   6   3   17.14    3.73
  -3   6   2   21.26    3.80
  -3   6   1   15.56    3.34
  -3   6   0   22.73    3.79
  -3   6  -1    2.40    3.48
  -3   7  -1   18.06    3.78
  -3   7   0   21.11    4.34
  -3   7   1   25.94    4.23
  -3   7   2   14.54    4.23
  -3   7   3   16.87    4.29
  -3   7   4   89.20    6.79
  -3   7   5    6.90    3.23
  -3   7   6   -1.61    3.41
  -3   7  -3    2.12    3.03
  -3   7  -2   14.38    4.07
  -3   6  -2   13.35    3.15
  -3   6  -3   -1.23    3.51
  -3   6  -4    7.57    3.26
  -3   6  -5    0.50    3.33
  -3   5  -6    3.26    3.44
  -3   5  -5   11.58    3.74
  -3   5  -4   -3.63    2.28
  -3   5  -3   81.28    5.22
  -3   5  -2  178.21    6.64
  -3   4  -2   18.19    2.40
  -3   4  -3  147.48    7.48
  -3   4  -4  100.87    5.21
  -3   4  -5   12.90    4.62
  -3   4  -6   10.32    3.23
  -3   4  -7   -1.38    3.29
  -3   3  -8    3.89    3.36
  -3   3  -7   13.55    3.55
  -3   3  -6   15.91    3.59
  -3   3  -5   54.53    2.82
  -3   3  -4  126.26    4.41
  -3   3  -3  221.31   10.42
  -3   3  -2    5.34    1.92
  -3   2  -2   37.97    2.25
  -3   2  -3  260.60    7.57
  -3   2  -4   74.74    3.30
  -3   2  -5   86.91    3.34
  -3   2  -6    1.64    3.25
  -3   2  -7    8.31    3.64
  -3   2  -8    2.84    3.91
  -3   1  -8   10.93    3.01
  -3   1  -7   14.82    3.88
  -3   1  -6   20.38    3.33
  -3   1  -5   22.75    3.12
  -3   1  -4   60.54    2.94
  -3   1  -3  115.83    4.30
  -3   1  -2  106.77    4.16
  -3   0  -2  264.39    8.93
  -3   0  -3   65.58    2.77
  -3   0  -4    5.25    1.68
  -3   0  -5    3.83    2.16
  -3   0  -6  192.69    6.75
  -3   0  -7   24.26    3.75
  -3   0  -8    0.14    2.61
  -3   0  -9   -0.40    2.69
  -3  -1  -8    0.62    2.94
  -3  -1  -7    5.87    2.97
  -3  -1  -6   23.26    3.32
  -3  -1  -5   18.17    1.98
  -3  -1  -4   63.71    3.17
  -3  -1  -3  116.13    4.41
  -3  -1  -2  110.86    4.81
  -2   8   2   10.62    4.53
  -2   8   1    6.14    2.98
  -2   8   0    0.96    3.51
  -2   7  -1    1.84    3.50
  -2   7   0    7.75    3.04
  -2   7   1   11.95    3.12
  -2   7   2    7.88    3.58
  -2   7   3   35.27    4.40
  -2   7   4   35.90    4.29
  -2   7   5   12.21    3.75
  -2   7   6    0.55    2.65
  -2   6   7   20.96    4.18
  -2   6   6   36.76    4.08
  -2   6   5   48.64    5.19
  -2   6   4   48.90    4.21
  -2   6   3   17.00    3.84
  -2   6   2   72.82    5.68
  -2   6   1   33.58    4.25
  -2   6   0   13.68    3.26
  -2   6  -1   38.48    4.58
  -2   5  -1    5.74    1.72
  -2   5   0  140.78    4.56
  -2   5   1   38.98    2.66
  -2   5   2   39.49    2.74
  -2   5   3  130.58    4.44
  -2   5   4  259.55    8.43
  -2   5   5   36.93    4.06
  -2   5   6   62.98    5.27
  -2   5   7   16.54    4.78
  -2   5   8    9.86    3.73
  -2   5   9    9.24    3.22
  -2   4   9    9.54    3.85
  -2   4   8   18.78    4.20
  -2   4   7   78.00    5.08
  -2   4   6  131.48    4.14
  -2   4   5  122.95    4.27
  -2   4   4   31.78    2.42
  -2   4   3   40.98    2.83
  -2   4   2   37.39    2.76
  -2   4   1   61.70    3.09
  -2   4   0   58.87    2.85
  -2   4  -1   83.33    3.30
  -2   3  -1  412.01   15.61
  -2   3   0  253.99    8.85
  -2   3   1  673.49   20.40
  -2   3   2   19.92    1.94
  -2   3   3  271.34    9.19
  -2   3   4   76.03    3.14
  -2   3   5  177.37    6.43
  -2   3   6   53.10    2.83
  -2   3   7  122.89    4.02
  -2   3   8   11.15    4.07
  -2   3   9   -0.50    3.01
  -2   3  10    4.80    3.99
  -2   2  10   -0.41    2.76
  -2   2   9   48.95    4.44
  -2   2   8    1.79    1.43
  -2   2   7   21.14    2.18
  -2   2   6   31.73    2.41
  -2   2   5   76.94    3.15
  -2   2   4  487.20   17.09
  -2   2   3   20.83    1.71
  -2   2   2 1127.95   26.16
  -2   2   1   95.47    3.41
  -2   2   0  772.57   21.74
  -2   2  -1   21.45    1.88
  -2   1  -1  425.82   15.86
  -2   1   0  175.74    6.28
  -2   1   1    5.84    1.00
  -2   1   2  416.36   15.33
  -2   1   3  331.52   13.88
  -2   1   4   81.85    2.85
  -2   1   5   -0.11    1.25
  -2   1   6   33.05    2.49
  -2   1   7   32.50    2.37
  -2   1   8   81.43    3.35
  -2   1   9   70.43    4.96
  -2   1  10   19.27    3.40
  -2   1  11   10.41    3.63
  -2   0  11    5.17    2.70
  -2   0  10   28.63    4.05
  -2   0   9    7.63    2.99
  -2   0   8   12.64    1.93
  -2   0   7   55.60    2.80
  -2   0   6   18.91    2.60
  -2   0   5  271.47   12.73
  -2   0   4    1.21    1.26
  -2   0   3 1521.79   29.00
  -2   0   2  589.89   16.19
  -2   0   1 9715.31   58.03
  -2   0   0  575.34   15.63
  -2   0  -1  385.64   14.69
  -2  -1  -1  408.88   15.55
  -2  -1   0  176.57    6.02
  -2  -1   1    4.70    0.98
  -2  -1   2  404.30   14.70
  -2  -1   3  343.07   14.54
  -2  -1   4   85.44    2.98
  -2  -1   5    4.57    1.96
  -2  -1   6   31.04    2.81
  -2  -1   7   32.12    2.36
  -2  -1   8   79.81    3.25
  -2  -1   9   68.32    5.38
  -2  -1  10   22.75    3.78
  -2  -1  11    9.72    3.46
  -2  -1  -9    0.29    3.47
  -2  -1  -8    4.46    2.49
  -2  -1  -7   15.79    2.85
  -2  -1  -6   66.81    3.08
  -2  -1  -5  192.44    6.21
  -2  -1  -4   64.48    2.76
  -2  -1  -3  164.38    5.99
  -2  -1  -2   94.38    3.64
  -2   0  -2   25.22    1.71
  -2   0  -3  558.16   18.00
  -2   0  -4   21.81    2.60
  -2   0  -5   15.82    2.05
  -2   0  -6    6.66    1.80
  -2   0  -7   -1.12    2.28
  -2   0  -8    3.09    3.68
  -2   0  -9    2.50    3.80
  -2   1  -9    0.63    3.21
  -2   1  -8    5.20    2.65
  -2   1  -7   15.57    3.14
  -2   1  -6   68.68    3.67
  -2   1  -5  202.43    9.63
  -2   1  -4   66.65    2.77
  -2   1  -3  182.57    7.03
  -2   1  -2   90.78    3.49
  -2   2  -2  534.82   18.21
  -2   2  -3    9.07    1.70
  -2   2  -4   65.40    2.98
  -2   2  -5   57.31    2.96
  -2   2  -6   54.48    2.98
  -2   2  -7   25.02    3.78
  -2   2  -8    4.66    3.32
  -2   2  -9    7.50    4.79
  -2   3  -8   -1.02    2.80
  -2   3  -7   88.10    5.58
  -2   3  -6   48.28    3.91
  -2   3  -5    3.81    1.63
  -2   3  -4   12.04    2.47
  -2   3  -3  168.21    5.88
  -2   3  -2  169.36    6.55
  -2   4  -2   17.89    2.02
  -2   4  -3   80.75    3.31
  -2   4  -4  146.21    4.61
  -2   4  -5    6.03    4.18
  -2   4  -6    1.16    3.91
  -2   4  -7    2.20    2.75
  -2   4  -8    9.92    3.40
  -2   5  -7   10.76    3.57
  -2   5  -6    9.52    3.30
  -2   5  -5   23.73    3.70
  -2   5  -4   21.00    3.37
  -2   5  -3   72.41    3.13
  -2   5  -2  248.22    8.36
  -2   6  -2  100.42    5.58
  -2   6  -3   -3.47    2.97
  -2   6  -4    4.82    2.85
  -2   6  -5    3.67    3.05
  -2   6  -6    5.50    2.86
  -2   7  -4   -0.16    2.88
  -2   7  -3   10.81    3.66
  -2   7  -2    8.23    4.47
  -1  -1  -1 7423.78   54.26
  -1  -1   0 1920.88   24.27
  -1  -1   1 2962.63   30.97
  -1  -1   2 6436.43   52.23
  -1  -1   3 1519.97   28.84
  -1  -1   4   37.40    2.10
  -1  -1   5  273.02   12.28
  -1  -1   6   19.40    1.95
  -1  -1   7   40.75    2.72
  -1  -1   8   21.40    2.07
  -1  -1   9    4.24    2.74
  -1  -1  10   -0.71    2.51
  -1   0  10   11.16    3.16
  -1   0   9   25.61    3.63
  -1   0   8   33.81    2.50
  -1   0   7  145.93    4.88
  -1   0   6  297.72   11.88
  -1   0   5   -0.28    1.35
  -1   0   4  456.33   16.45
  -1   0   3  647.51   18.37
  -1   0   2   45.05    1.72
  -1   0   1  123.85    3.95
  -1   0   0  116.43    5.31
  -1   0  -1  517.46   13.94
  -1   1  -1 7221.44   54.32
  -1   1   0 1916.62   24.53
  -1   1   1 3013.16   31.03
  -1   1   2 6366.24   51.77
  -1   1   3 1481.58   28.54
  -1   1   4   37.53    2.16
  -1   1   5  274.05    9.22
  -1   1   6   22.19    2.13
  -1   1   7   42.93    2.71
  -1   1   8   16.50    1.99
  -1   1   9    6.61    2.59
  -1   1  10    2.24    2.73
  -1   2  10    0.19    2.27
  -1   2   9   12.78    3.05
  -1   2   8   14.24    3.31
  -1   2   7   66.53    3.03
  -1   2   6   39.42    2.61
  -1   2   5    5.52    1.57
  -1   2   4 1214.03   25.71
  -1   2   3  525.80   18.46
  -1   2   2  259.40    9.20
  -1   2   1  378.52   15.51
  -1   2   0   50.21    1.98
  -1   2  -1  356.78   14.81
  -1   3  -1   99.36    4.06
  -1   3   0  218.60    7.97
  -1   3   1  170.63    6.61
  -1   3   2  271.83   12.97
  -1   3   3  271.39   12.97
  -1   3   4  646.44   18.06
  -1   3   5  146.99    5.60
  -1   3   6   95.04    3.60
  -1   3   7   97.47    3.58
  -1   3   8    2.08    3.73
  -1   3   9    1.03    2.73
  -1   3  10    3.60    4.08
  -1   4   9    5.29    3.14
  -1   4   8   14.79    3.34
  -1   4   7   13.16    3.31
  -1   4   6    4.51    1.65
  -1   4   5  310.23   10.31
  -1   4   4   44.31    2.70
  -1   4   3   65.44    2.96
  -1   4   2   64.06    2.97
  -1   4   1   20.80    2.71
  -1   4   0  270.90   11.94
  -1   4  -1   45.69    2.58
  -1   5  -1   54.03    3.54
  -1   5   0    4.02    1.81
  -1   5   1   11.01    1.76
  -1   5   2   35.92    2.58
  -1   5   3   75.77    3.27
  -1   5   4  113.35    3.86
  -1   5   5   16.87    4.06
  -1   5   6  214.09    7.52
  -1   5   7    3.66    2.76
  -1   5   8    4.48    2.90
  -1   6   7   15.50    4.10
  -1   6   6    5.95    2.72
  -1   6   5   -3.76    2.44
  -1   6   4   19.61    3.46
  -1   6   3   75.07    4.89
  -1   6   2   60.35    4.37
  -1   6   1   16.91    1.95
  -1   6   0   17.96    2.00
  -1   6  -1  104.30    5.24
  -1   7  -1    2.09    3.21
  -1   7   0   52.50    4.73
  -1   7   1   45.12    5.55
  -1   7   2    4.50    2.67
  -1   7   3   82.46    5.80
  -1   7   4    2.74    3.93
  -1   7   5    4.26    4.05
  -1   8   2   17.65    4.54
  -1   8   1   15.15    4.39
  -1   8   0   16.68    4.15
  -1   8  -1   15.46    4.13
  -1   7  -5   -2.92    3.01
  -1   7  -4    1.21    2.87
  -1   7  -3    8.49    3.17
  -1   7  -2    2.19    3.11
  -1   6  -2   18.71    3.47
  -1   6  -3    2.84    2.79
  -1   6  -4   15.49    4.40
  -1   6  -5    0.34    3.58
  -1   6  -6   -1.86    3.37
  -1   5  -7    0.81    3.15
  -1   5  -6    5.63    2.64
  -1   5  -5   31.79    3.75
  -1   5  -4   41.08    4.23
  -1   5  -3   37.15    2.59
  -1   5  -2    4.18    1.80
  -1   4  -2  267.17   11.15
  -1   4  -3   79.10    3.19
  -1   4  -4   67.28    3.12
  -1   4  -5    1.90    1.55
  -1   4  -6   23.06    4.08
  -1   4  -7   50.53    4.81
  -1   4  -8    5.82    3.15
  -1   3  -9   -2.05    2.39
  -1   3  -8    2.32    3.06
  -1   3  -7   59.23    4.82
  -1   3  -6   11.45    1.99
  -1   3  -5   22.40    2.31
  -1   3  -4  147.79    5.07
  -1   3  -3  258.75   11.73
  -1   3  -2  619.06   18.71
  -1   2  -2 1007.81   24.37
  -1   2  -3  862.98   21.88
  -1   2  -4  207.26    7.02
  -1   2  -5  184.39    6.13
  -1   2  -6   72.06    3.24
  -1   2  -7   95.20    5.59
  -1   2  -8   13.04    3.42
  -1   2  -9    8.11    2.85
  -1   1 -10    0.82    3.34
  -1   1  -9    8.24    3.45
  -1   1  -8   37.83    4.27
  -1   1  -7    7.49    1.62
  -1   1  -6   57.97    2.87
  -1   1  -5  116.39    5.17
  -1   1  -4  144.66    5.84
  -1   1  -3  208.35    7.50
  -1   1  -2 1540.07   28.70
  -1   0  -2  172.79    6.03
  -1   0  -3  925.61   23.29
  -1   0  -4    3.11    1.35
  -1   0  -5 1051.62   21.55
  -1   0  -6  376.52   11.84
  -1   0  -7    0.71    1.45
  -1   0  -8   11.33    3.13
  -1   0  -9    2.28    3.11
  -1   0 -10    7.55    3.19
  -1  -1 -10   10.86    3.68
  -1  -1  -9    4.96    3.03
  -1  -1  -8   36.86    4.16
  -1  -1  -7    6.34    1.71
  -1  -1  -6   59.60    3.59
  -1  -1  -5  132.18    5.37
  -1  -1  -4  142.98    5.25
  -1  -1  -3  196.02    6.72
  -1  -1  -2 1541.14   28.89
   0   8   2   10.57    3.15
   0   8   1   12.67    3.58
   0   8   0    8.90    3.13
   0   8  -1   10.21    3.68
   0   7  -1   30.90    4.22
   0   7   0   -1.00    2.20
   0   7   1   19.29    4.82
   0   7   2   20.69    3.82
   0   7   3    1.59    2.42
   0   7   4    1.87    4.19
   0   7   5    2.96    3.04
   0   6   7    3.44    3.15
   0   6   6    5.21    3.42
   0   6   5   23.53    3.97
   0   6   4   47.21    4.74
   0   6   3    3.35    2.59
   0   6   2   39.14    3.99
   0   6   1   24.61    2.26
   0   6   0   21.33    2.17
   0   6  -1   34.29    2.33
   0   5  -1   56.98    2.97
   0   5   0    1.16    1.31
   0   5   1   61.80    3.02
   0   5   2   43.63    2.68
   0   5   3  182.33    8.06
   0   5   4   65.58    3.06
   0   5   5  135.60    6.03
   0   5   6   31.32    3.72
   0   5   7   10.74    3.28
   0   5   8    3.54    3.18
   0   4   9   -3.39    2.39
   0   4   8    5.32    2.51
   0   4   7   25.19    3.80
   0   4   6   12.90    3.65
   0   4   5   56.34    2.91
   0   4   4  105.39    4.06
   0   4   3  234.26   10.33
   0   4   2    3.30    1.55
   0   4   1   25.11    2.36
   0   4   0   24.67    2.02
   0   4  -1   26.33    2.05
   0   3  -1   56.82    2.34
   0   3   0   -1.29    1.12
   0   3   1   55.73    2.36
   0   3   2  328.24   14.46
   0   3   3  215.56    7.42
   0   3   4   82.52    3.88
   0   3   5   73.12    3.29
   0   3   6   34.17    2.57
   0   3   7   24.05    4.28
   0   3   8   73.74    5.08
   0   3   9    4.46    4.70
   0   2  10    2.92    3.86
   0   2   9    5.06    2.44
   0   2   8   -0.64    2.90
   0   2   7   12.33    2.01
   0   2   6   67.34    3.07
   0   2   5  229.86    7.69
   0   2   4   22.71    2.26
   0   2   3 1983.08   33.22
   0   2   2 1618.02   30.44
   0   2   1 2695.35   37.42
   0   2   0 3181.89   40.29
   0   2  -1 2646.51   36.81
   0   1  -1  115.92    4.53
   0   1   0   -0.85    0.61
   0   1   1  127.12    4.65
   0   1   2  239.29    8.11
   0   1   3  183.09    6.91
   0   1   4  494.32   17.16
   0   1   5  383.17   13.83
   0   1   6  492.80   14.34
   0   1   7  117.71    4.00
   0   1   8   19.06    3.19
   0   1   9    5.28    2.82
   0   1  10    2.47    2.91
   0   0  10    5.28    3.05
   0   0   9    4.11    3.01
   0   0   8    0.67    3.20
   0   0   7    2.17    1.70
   0   0   6    0.77    1.45
   0   0   5   46.79    2.62
   0   0   4 1511.42   28.81
   0   0   3  540.37   17.43
   0   0   2  291.74   11.68
   0   0   1  917.73   13.11
   0   0  -1  932.69   13.15
   0  -1  -1  118.33    4.28
   0  -1   0    0.70    0.59
   0  -1   1  118.98    3.77
   0  -1   2  272.06   11.94
   0  -1   3  186.68    7.39
   0  -1   4  481.85   17.02
   0  -1   5  395.58   14.25
   0  -1   6  489.01   14.52
   0  -1   7  129.20    4.06
   0  -1   8   27.42    3.34
   0  -1   9    1.99    2.88
   0  -1  10    9.06    2.69
   0  -1 -10   10.05    4.43
   0  -1  -9    3.10    2.53
   0  -1  -8   27.18    3.37
   0  -1  -7  133.35    4.43
   0  -1  -6  493.85   14.23
   0  -1  -5  403.90   14.81
   0  -1  -4  503.65   17.24
   0  -1  -3  176.90    6.37
   0  -1  -2  269.93   11.66
   0   0  -2  299.01    8.07
   0   0  -3  513.83   17.28
   0   0  -4 1576.33   29.43
   0   0  -5   41.05    2.61
   0   0  -6    2.39    1.42
   0   0  -7    3.56    1.88
   0   0  -8    0.17    2.38
   0   0  -9    1.64    2.06
   0   0 -10   10.21    2.92
   0   1 -10    8.42    3.53
   0   1  -9    3.40    2.40
   0   1  -8   20.06    3.20
   0   1  -7  129.16    4.64
   0   1  -6  462.55   14.43
   0   1  -5  399.72   14.71
   0   1  -4  508.26   17.61
   0   1  -3  189.29    6.49
   0   1  -2  260.22   11.38
   0   2  -2 1678.42   30.83
   0   2  -3 2029.96   33.60
   0   2  -4   23.67    2.02
   0   2  -5  236.78   10.81
   0   2  -6   68.90    3.17
   0   2  -7    9.79    1.69
   0   2  -8    3.55    2.13
   0   2  -9    5.71    2.63
   0   2 -10    7.17    2.86
   0   3  -9   11.51    3.39
   0   3  -8   95.72    6.15
   0   3  -7   17.57    3.79
   0   3  -6   31.25    2.68
   0   3  -5   62.35    3.03
   0   3  -4   96.11    4.61
   0   3  -3  194.36    7.71
   0   3  -2  362.31   14.95
   0   4  -2    9.01    1.56
   0   4  -3  230.81    9.97
   0   4  -4  106.24    4.01
   0   4  -5   55.77    2.81
   0   4  -6   15.57    2.98
   0   4  -7   28.53    3.62
   0   4  -8    3.55    3.22
   0   4  -9   -0.81    2.67
   0   5  -8    1.39    3.94
   0   5  -7    7.81    3.12
   0   5  -6   24.70    3.77
   0   5  -5  133.67    5.92
   0   5  -4   60.05    3.05
   0   5  -3  200.32    8.43
   0   5  -2   42.63    2.60
   0   6  -2   44.88    4.25
   0   6  -3    2.72    2.79
   0   6  -4   43.08    4.89
   0   6  -5   22.93    3.92
   0   6  -6    5.30    3.56
   0   6  -7    6.18    3.19
   0   7  -5    7.01    3.50
   0   7  -4    5.71    2.98
   0   7  -3    4.34    2.66
   0   7  -2   21.61    3.39
   0   8  -2    4.68    3.96
   1  -1  -1 2968.33   30.88
   1  -1   0 1954.81   24.59
   1  -1   1 7227.03   54.37
   1  -1   2 1523.30   28.64
   1  -1   3  195.67    7.45
   1  -1   4  150.30    5.89
   1  -1   5  114.21    4.20
   1  -1   6   57.94    2.92
   1  -1   7   10.61    2.02
   1  -1   8   35.78    5.08
   1  -1   9    2.24    2.44
   1  -1  10    6.56    3.57
   1   0  10    6.47    3.42
   1   0   9    4.80    2.71
   1   0   8   12.98    3.18
   1   0   7    2.92    1.44
   1   0   6  390.64   11.99
   1   0   5  985.04   21.06
   1   0   4    4.94    1.41
   1   0   3  953.60   23.24
   1   0   2  176.40    6.44
   1   0   1  516.10   13.54
   1   0   0  121.22    5.22
   1   0  -1  128.01    4.30
   1   1  -1 3085.13   31.26
   1   1   0 1923.93   24.23
   1   1   1 7341.55   54.59
   1   1   2 1521.33   28.79
   1   1   3  205.53    7.49
   1   1   4  144.40    5.18
   1   1   5  122.81    4.87
   1   1   6   50.41    2.86
   1   1   7    9.88    1.98
   1   1   8   34.06    4.99
   1   1   9    0.26    3.29
   1   1  10   11.69    3.55
   1   2   9    6.08    2.84
   1   2   8   18.32    3.31
   1   2   7   82.51    4.72
   1   2   6   68.98    3.16
   1   2   5  186.34    6.27
   1   2   4  192.54    7.29
   1   2   3  862.58   22.36
   1   2   2 1004.50   24.64
   1   2   1  371.30   14.83
   1   2   0   55.33    2.14
   1   2  -1  407.44   15.24
   1   3  -1  169.23    6.73
   1   3   0  220.02    7.97
   1   3   1  110.86    4.50
   1   3   2  632.04   19.24
   1   3   3  286.95   12.66
   1   3   4  155.34    6.09
   1   3   5   27.38    2.37
   1   3   6   16.22    2.51
   1   3   7   55.26    4.16
   1   3   8   -1.57    2.52
   1   3   9    0.52    2.94
   1   4   8    4.68    2.82
   1   4   7   47.28    4.19
   1   4   6   29.24    3.41
   1   4   5    4.38    1.88
   1   4   4   67.96    3.16
   1   4   3   72.06    3.09
   1   4   2  286.29   11.52
   1   4   1   44.13    2.69
   1   4   0  280.77   11.92
   1   4  -1   23.25    1.98
   1   5  -1   15.89    1.86
   1   5   0    5.03    1.72
   1   5   1   47.66    2.74
   1   5   2    5.72    1.82
   1   5   3   37.28    2.59
   1   5   4   35.52    3.97
   1   5   5   26.54    3.58
   1   5   6    2.77    2.84
   1   5   7    1.62    3.09
   1   6   6    2.12    2.76
   1   6   5    3.20    4.08
   1   6   4   23.19    3.30
   1   6   3   -0.85    3.49
   1   6   2   19.25    3.37
   1   6   1  101.93    5.82
   1   6   0   20.44    2.28
   1   6  -1   15.65    1.91
   1   7  -1   67.53    5.11
   1   7   0   51.22    5.07
   1   7   1    2.59    2.63
   1   7   2    2.50    3.60
   1   7   3   15.32    4.66
   1   7   4    2.45    3.16
   1   7   5    1.21    2.63
   1   8   1   15.99    3.64
   1   8   0   17.84    3.90
   1   8  -1   16.96    4.30
   1   8  -2   22.97    4.45
   1   7  -5   15.57    3.57
   1   7  -4    0.83    3.73
   1   7  -3   84.61    6.78
   1   7  -2   -0.20    2.70
   1   6  -2   73.94    4.86
   1   6  -3   83.89    5.54
   1   6  -4   18.18    3.68
   1   6  -5    1.62    3.71
   1   6  -6    0.09    3.05
   1   6  -7   16.87    3.92
   1   5  -8   -2.37    2.69
   1   5  -7    1.25    2.98
   1   5  -6  221.82    7.62
   1   5  -5   16.51    3.88
   1   5  -4  122.65    3.90
   1   5  -3   77.52    3.33
   1   5  -2   36.92    2.69
   1   4  -2   68.27    2.91
   1   4  -3   66.05    2.98
   1   4  -4   45.90    2.69
   1   4  -5  322.23   10.16
   1   4  -6    3.87    1.69
   1   4  -7    8.66    3.48
   1   4  -8   11.36    4.83
   1   4  -9    2.81    3.34
   1   3 -10    3.65    3.84
   1   3  -9    3.67    2.45
   1   3  -8    5.58    4.44
   1   3  -7  100.40    3.57
   1   3  -6   97.82    3.82
   1   3  -5  157.43    5.55
   1   3  -4  666.48   17.73
   1   3  -3  252.93   11.96
   1   3  -2  291.76   13.51
   1   2  -2  267.90    9.63
   1   2  -3  586.83   18.99
   1   2  -4 1255.82   26.00
   1   2  -5    6.72    1.60
   1   2  -6   43.77    2.63
   1   2  -7   69.43    3.11
   1   2  -8   14.67    3.00
   1   2  -9    9.56    3.01
   1   2 -10   -0.67    2.60
   1   1 -10   -0.85    2.68
   1   1  -9    6.66    2.62
   1   1  -8   19.87    1.95
   1   1  -7   39.78    2.85
   1   1  -6   20.55    2.10
   1   1  -5  260.15   12.28
   1   1  -4   34.60    2.10
   1   1  -3 1468.03   28.54
   1   1  -2 6579.26   52.90
   1   0  -2   48.33    1.59
   1   0  -3  640.24   18.99
   1   0  -4  497.73   17.74
   1   0  -5    0.61    1.13
   1   0  -6  280.62   11.58
   1   0  -7  140.83    4.48
   1   0  -8   31.50    2.48
   1   0  -9   24.18    3.36
   1   0 -10    9.94    3.01
   1  -1 -10   -0.39    2.45
   1  -1  -9    2.61    2.40
   1  -1  -8   15.51    1.85
   1  -1  -7   42.22    2.64
   1  -1  -6   18.43    1.99
   1  -1  -5  265.42   12.24
   1  -1  -4   38.03    2.03
   1  -1  -3 1437.89   27.70
   1  -1  -2 6431.50   52.16
   2   8   0    4.87    3.23
   2   8  -1    0.82    3.12
   2   7  -1    2.55    3.07
   2   7   0   12.57    3.54
   2   7   1   -3.90    1.83
   2   7   2    6.98    3.11
   2   7   3    9.00    4.15
   2   7   4   -1.49    2.19
   2   6   6    4.33    2.93
   2   6   5    5.20    3.25
   2   6   4    7.20    2.86
   2   6   3    3.20    2.56
   2   6   2  107.18    5.87
   2   6   1   30.26    3.75
   2   6   0    9.12    2.58
   2   6  -1   40.48    4.10
   2   5  -1   41.97    2.51
   2   5   0  138.29    5.06
   2   5   1    5.42    1.58
   2   5   2  211.65    7.83
   2   5   3   78.50    3.15
   2   5   4   15.33    3.68
   2   5   5   10.56    4.12
   2   5   6   11.61    3.09
   2   5   7   11.73    5.24
   2   4   8    5.78    3.77
   2   4   7    3.43    2.62
   2   4   6    9.27    3.50
   2   4   5   14.93    3.18
   2   4   4  147.93    4.49
   2   4   3   88.52    3.56
   2   4   2   20.04    2.04
   2   4   1   76.79    3.13
   2   4   0   54.45    2.64
   2   4  -1   69.71    3.29
   2   3  -1  672.76   19.62
   2   3   0  258.52    8.52
   2   3   1  402.73   15.22
   2   3   2  170.80    6.79
   2   3   3  167.74    6.31
   2   3   4    6.28    1.82
   2   3   5    4.45    1.84
   2   3   6   41.17    3.68
   2   3   7   83.01    5.60
   2   3   8    3.17    2.86
   2   2   9   10.65    3.17
   2   2   8   -0.89    2.65
   2   2   7   25.75    4.16
   2   2   6   51.16    2.78
   2   2   5   56.11    3.08
   2   2   4   64.72    2.98
   2   2   3   26.14    2.03
   2   2   2  531.28   17.87
   2   2   1   23.25    1.77
   2   2   0  863.83   22.21
   2   2  -1  101.12    4.46
   2   1  -1    4.02    1.01
   2   1   0  172.32    6.30
   2   1   1  428.44   16.03
   2   1   2   86.56    4.00
   2   1   3  178.88    6.47
   2   1   4   61.29    2.77
   2   1   5  204.61    9.29
   2   1   6   66.84    3.30
   2   1   7   10.12    3.72
   2   1   8    0.63    2.92
   2   1   9    3.94    3.27
   2   0   9    9.97    3.27
   2   0   8    0.72    2.70
   2   0   7   -0.63    2.92
   2   0   6   12.08    1.83
   2   0   5   17.58    2.51
   2   0   4   26.23    2.05
   2   0   3  529.94   17.51
   2   0   2   25.76    1.72
   2   0   1  404.89   15.75
   2   0   0  599.79   16.12
   2   0  -1 9905.75   58.25
   2  -1  -1    5.03    0.92
   2  -1   0  184.63    6.38
   2  -1   1  433.19   15.52
   2  -1   2  104.16    4.44
   2  -1   3  167.44    6.91
   2  -1   4   62.79    2.86
   2  -1   5  195.15    6.10
   2  -1   6   62.52    2.96
   2  -1   7   10.10    2.85
   2  -1   8   -1.55    2.55
   2  -1   9    2.07    2.69
   2  -1 -10   18.32    3.70
   2  -1  -9   64.32    4.43
   2  -1  -8   78.73    3.20
   2  -1  -7   33.65    2.40
   2  -1  -6   36.55    2.25
   2  -1  -5   -1.47    2.20
   2  -1  -4   80.06    2.67
   2  -1  -3  350.70   14.34
   2  -1  -2  408.29   14.62
   2   0  -2  636.07   17.07
   2   0  -3 1567.41   29.32
   2   0  -4   -1.34    1.13
   2   0  -5  265.97   12.73
   2   0  -6   19.92    1.89
   2   0  -7   51.95    2.75
 -11  -1   2    4.09    4.42
 -11  -1   3    2.96    3.46
 -11  -1   4    8.63    4.44
 -11  -1   5    3.78    4.07
 -11  -1   6    4.99    4.11
 -11  -1   7   -0.67    2.77
 -11   1   2    8.20    3.38
 -11   1   3    3.91    2.77
 -11   1   4    8.12    2.97
 -11   1   5    1.85    3.28
 -11   1   6    9.47    3.47
 -11   1   7    2.64    3.05
 -10   4   5    9.38    3.40
 -10   4   4    2.75    3.40
 -10   4   3   11.44    3.67
 -10   2   8   -0.89    2.74
 -10   2   7    6.55    3.16
 -10   2   6    4.40    3.95
 -10   2   5   12.15    3.54
 -10   2   4    4.29    4.01
 -10   2   3    0.72    2.53
 -10   2   2   16.09    3.45
 -10   2   1    3.55    3.73
 -10   2   0   -1.60    2.26
 -10   0   9    1.36    2.98
 -10   0   8    1.67    3.15
 -10   0   7    0.68    2.63
 -10   0   6    1.18    2.20
 -10   0   5    2.07    2.25
 -10   0   4    2.82    2.59
 -10   0   3   43.38    4.60
 -10   0   2   44.25    4.63
 -10   0   1    6.68    2.92
 -10   0   0    1.21    2.76
 -10   0  -1   -0.08    2.29
  -9  -1  -1    4.88    2.78
  -9  -1   0    3.71    2.32
  -9  -1   1   22.62    3.40
  -9  -1   2   55.27    5.58
  -9  -1   3   28.20    4.15
  -9  -1   4   11.48    3.51
  -9  -1   5   54.83    4.43
  -9  -1   6   -0.40    2.53
  -9  -1   7   10.73    3.47
  -9  -1   8   11.72    3.40
  -9  -1   9    3.50    2.40
  -9  -1  10   -0.68    1.72
  -9   1  -1    3.95    3.48
  -9   1   0    3.75    2.79
  -9   1   1   17.12    3.73
  -9   1   2   62.12    4.39
  -9   1   3   27.39    4.18
  -9   1   4   22.16    3.44
  -9   1   5   55.68    5.12
  -9   1   6   -0.81    3.14
  -9   1   7   11.47    3.65
  -9   1   8   12.83    3.54
  -9   1   9    0.70    3.55
  -9   1  10    2.49    2.37
  -9   3  -1   -1.19    2.81
  -9   3   0    5.45    3.03
  -9   3   1   13.04    5.34
  -9   3   2   30.77    4.49
  -9   3   3    4.16    2.56
  -9   3   4   13.19    3.59
  -9   3   5    5.88    3.37
  -9   3   6    4.73    4.76
  -9   3   7    3.57    2.82
  -9   3   8    1.15    2.92
  -9   3   9    2.94    2.66
  -9   5   2    8.11    3.22
  -9   5   3    1.85    2.85
  -9   5   4    8.66    3.43
  -9   5   5    5.72    3.46
  -9   1  -2   33.30    4.47
  -9  -1  -2   34.65    4.10
  -8   4   8   -0.59    3.63
  -8   4   7   11.24    4.08
  -8   4   6   11.10    3.14
  -8   4   5    4.25    3.04
  -8   4   4   10.27    2.90
  -8   4   3   27.47    3.84
  -8   4   2    0.59    3.50
  -8   4   1   34.73    4.48
  -8   4   0   -0.37    2.89
  -8   4  -1    2.27    4.01
  -8   2  10    8.00    3.84
  -8   2   9   -2.12    2.47
  -8   2   8    6.44    3.46
  -8   2   7    8.34    4.77
  -8   2   6    8.69    3.05
  -8   2   5   47.51    5.53
  -8   2   4  251.43    7.60
  -8   2   3    9.41    1.85
  -8   2   2   51.86    4.14
  -8   2   1   55.41    4.50
  -8   2   0   20.31    3.76
  -8   2  -1   29.09    3.87
  -8   0  11    3.01    3.47
  -8   0  10    5.21    2.62
  -8   0   9   27.28    4.18
  -8   0   8    2.15    2.21
  -8   0   7    1.63    2.46
  -8   0   6   32.95    2.36
  -8   0   5  116.40    3.80
  -8   0   4  341.90    9.69
  -8   0   3    0.26    1.54
  -8   0   2  218.61    7.90
  -8   0   1   52.02    2.66
  -8   0   0   31.73    3.55
  -8   0  -1   10.73    2.88
  -8   0  -2   35.55    3.88
  -8   0  -3   21.66    3.68
  -8   0  -4   -0.20    3.26
  -8   2  -2   14.21    3.13
  -8   2  -3    2.85    2.88
  -8   4  -2    2.35    3.61
  -7  -1  -1    8.51    1.73
  -7  -1   0   34.84    2.75
  -7  -1   1   51.99    2.74
  -7  -1   2   82.52    3.31
  -7  -1   3   34.76    2.57
  -7  -1   4  130.26    4.25
  -7  -1   5   59.39    2.89
  -7  -1   6   45.94    2.65
  -7  -1   7    1.91    1.73
  -7  -1   8   21.57    3.21
  -7  -1   9   11.01    3.27
  -7  -1  10    4.38    3.25
  -7  -1  11    2.91    3.78
  -7   1  -1   11.34    1.80
  -7   1   0   33.60    2.61
  -7   1   1   45.99    2.78
  -7   1   2   81.90    3.39
  -7   1   3   35.04    2.46
  -7   1   4  117.87    3.87
  -7   1   5   44.80    3.79
  -7   1   6   43.10    2.69
  -7   1   7    7.07    1.67
  -7   1   8   27.62    3.76
  -7   1   9   11.41    3.25
  -7   1  10   10.28    3.64
  -7   1  11   -0.81    3.12
  -7   3  -1   10.97    3.00
  -7   3   0  110.94    5.52
  -7   3   1   88.31    3.34
  -7   3   2   40.60    2.64
  -7   3   3   12.25    1.97
  -7   3   4   10.28    1.90
  -7   3   5   39.57    2.50
  -7   3   6   11.72    3.16
  -7   3   7    4.71    3.18
  -7   3   8   20.30    3.55
  -7   3   9    2.05    4.09
  -7   3  10   16.89    5.36
  -7   5  -1   26.65    4.82
  -7   5   0    2.69    4.10
  -7   5   1   20.47    3.49
  -7   5   2    3.15    2.90
  -7   5   3   24.38    4.84
  -7   5   4    8.97    4.65
  -7   5   5    7.25    4.70
  -7   5   6   12.73    3.75
  -7   5   7   -1.73    3.01
  -7   5   8    1.12    3.18
  -7   5  -2   29.16    4.21
  -7   3  -4    2.65    3.13
  -7   3  -3    1.50    2.65
  -7   3  -2   23.20    3.61
  -7   1  -5    0.91    2.85
  -7   1  -4    9.01    3.28
  -7   1  -3   95.45    5.47
  -7   1  -2   43.94    3.92
  -7  -1  -5    2.03    3.05
  -7  -1  -4    7.68    3.29
  -7  -1  -3   99.83    5.35
  -7  -1  -2   42.54    4.39
  -6   6   7    1.78    2.99
  -6   6   6    7.89    3.33
  -6   6   5   -2.03    3.19
  -6   6   4   16.28    3.42
  -6   6   3    3.55    3.35
  -6   6   2   16.67    3.46
  -6   6   1    7.31    3.59
  -6   6   0   13.28    3.63
  -6   6  -1    8.07    3.12
  -6   4   9    4.96    3.63
  -6   4   8    4.28    2.86
  -6   4   7    9.99    2.87
  -6   4   6   21.49    4.30
  -6   4   5   22.83    4.00
  -6   4   4   11.86    1.83
  -6   4   3    1.93    1.49
  -6   4   2    6.92    1.83
  -6   4   1   40.80    2.84
  -6   4   0  169.71    6.49
  -6   4  -1   -2.56    2.86
  -6   2  11    1.00    3.79
  -6   2  10   -2.95    2.69
  -6   2   9   53.67    5.31
  -6   2   8   51.46    4.62
  -6   2   7    7.20    2.56
  -6   2   6   29.71    2.38
  -6   2   5    4.69    2.08
  -6   2   4   35.93    2.53
  -6   2   3   94.58    3.67
  -6   2   2    1.60    2.00
  -6   2   1    6.75    2.16
  -6   2   0   36.03    2.56
  -6   2  -1  118.98    4.18
  -6   0  11    3.26    3.80
  -6   0  10   14.51    3.39
  -6   0   9    3.29    2.43
  -6   0   8   14.26    1.95
  -6   0   7    5.25    1.74
  -6   0   6    2.61    1.61
  -6   0   5   44.60    2.62
  -6   0   4   74.12    3.25
  -6   0   3  274.11   12.19
  -6   0   2  157.52    5.72
  -6   0   1   10.28    1.97
  -6   0   0   13.22    2.49
  -6   0  -1   74.96    3.20
  -6   0  -2   31.15    3.31
  -6   0  -3   25.96    2.29
  -6   0  -4    1.39    2.67
  -6   0  -5   18.58    3.54
  -6   0  -6    3.19    2.95
  -6   2  -2   98.63    3.87
  -6   2  -3   26.87    4.18
  -6   2  -4   17.06    3.78
  -6   2  -5   23.24    4.04
  -6   2  -6    8.80    3.57
  -6   4  -2   11.96    3.20
  -6   4  -3    4.60    3.35
  -6   4  -4    3.87    4.39
  -6   6  -2   22.48    4.51
  -5  -1  -1   35.30    2.36
  -5  -1   0    5.54    1.57
  -5  -1   1  118.15    4.30
  -5  -1   2  193.87    7.02
  -5  -1   3  699.56   20.27
  -5  -1   4   24.44    2.15
  -5  -1   5   10.53    1.71
  -5  -1   6   59.52    2.75
  -5  -1   7   20.25    2.10
  -5  -1   8   51.30    2.70
  -5  -1   9   19.23    4.50
  -5  -1  10    4.04    3.44
  -5  -1  11   -0.47    3.36
  -5   1  -1   39.33    2.56
  -5   1   0    4.43    1.52
  -5   1   1  121.10    5.09
  -5   1   2  209.28    8.02
  -5   1   3  673.01   25.41
  -5   1   4   19.04    2.15
  -5   1   5   13.32    1.84
  -5   1   6   57.66    2.84
  -5   1   7   22.14    2.19
  -5   1   8   46.08    2.70
  -5   1   9   16.06    3.00
  -5   1  10   13.82    2.79
  -5   1  11    0.30    3.43
  -5   3  -1  120.42    4.12
  -5   3   0  146.47    5.32
  -5   3   1   39.88    2.51
  -5   3   2  173.60    6.40
  -5   3   3  435.63   13.63
  -5   3   4   20.45    2.09
  -5   3   5    0.07    1.43
  -5   3   6   76.68    3.33
  -5   3   7   72.02    3.20
  -5   3   8   19.90    3.45
  -5   3   9   29.18    3.95
  -5   3  10    3.21    2.80
  -5   5  -1   60.92    4.85
  -5   5   0   72.86    4.95
  -5   5   1    3.48    3.31
  -5   5   2   82.61    5.56
  -5   5   3    9.27    2.77
  -5   5   4   46.19    4.81
  -5   5   5    8.96    3.35
  -5   5   6   25.98    3.66
  -5   5   7    3.74    3.48
  -5   5   8    0.45    2.94
  -5   5   9    3.32    3.05
  -5   7  -1    3.49    4.03
  -5   7   0    1.03    2.83
  -5   7   1   19.21    3.45
  -5   7   2    6.69    3.52
  -5   7   3   23.06    5.45
  -5   7   4   14.74    5.44
  -5   7   5   -1.23    2.75
  -5   5  -4   14.22    3.28
  -5   5  -3   20.89    4.29
  -5   5  -2   18.76    3.91
  -5   3  -6   19.07    3.87
  -5   3  -5    6.61    3.25
  -5   3  -4   39.73    4.21
  -5   3  -3   14.01    2.92
  -5   3  -2   38.61    2.65
  -5   1  -7    8.85    3.33
  -5   1  -6   -1.03    2.46
  -5   1  -5    6.91    3.58
  -5   1  -4   62.06    2.92
  -5   1  -3   35.08    2.57
  -5   1  -2   12.68    1.82
  -5  -1  -7    6.63    3.07
  -5  -1  -6    0.79    2.99
  -5  -1  -5    6.83    2.82
  -5  -1  -4   63.89    2.97
  -5  -1  -3   35.26    2.80
  -5  -1  -2    7.57    1.74
  -4   6   7   -4.38    2.57
  -4   6   6    5.32    2.81
  -4   6   5    8.85    2.74
  -4   6   4    5.44    2.92
  -4   6   3   10.65    3.36
  -4   6   2   12.64    2.92
  -4   6   1    4.35    2.56
  -4   6   0    9.14    2.88
  -4   6  -1   94.77    6.27
  -4   4  10   10.05    4.91
  -4   4   9    4.90    3.17
  -4   4   8    6.01    2.86
  -4   4   7   -0.22    2.74
  -4   4   6   15.03    1.98
  -4   4   5   23.26    2.38
  -4   4   4   69.75    3.27
  -4   4   3   25.00    2.75
  -4   4   2  161.83    5.75
  -4   4   1    7.84    1.84
  -4   4   0  146.12    5.02
  -4   4  -1   79.21    3.39
  -4   2  11    4.32    3.78
  -4   2  10   32.22    4.64
  -4   2   9    3.13    2.91
  -4   2   8   12.14    2.22
  -4   2   7  220.17    9.29
  -4   2   6    6.50    1.84
  -4   2   5   22.05    2.30
  -4   2   4  266.40   11.75
  -4   2   3  148.15    5.20
  -4   2   2  933.91   22.82
  -4   2   1  107.21    4.20
  -4   2   0  376.34   14.73
  -4   2  -1   68.23    2.90
  -4   0  11   44.20    4.61
  -4   0  10    0.16    3.41
  -4   0   9   42.43    4.20
  -4   0   8   46.53    2.71
  -4   0   7   96.67    3.62
  -4   0   6   73.81    3.13
  -4   0   5    8.57    1.59
  -4   0   4 1896.65   32.62
  -4   0   3   14.12    1.67
  -4   0   2   50.88    2.25
  -4   0   1  741.47   20.23
  -4   0   0  712.08   19.44
  -4   0  -1   24.11    2.43
  -4   0  -2  112.76    4.08
  -4   0  -3    1.26    1.61
  -4   0  -4   10.90    2.11
  -4   0  -5    1.31    1.24
  -4   0  -6    3.74    2.54
  -4   0  -7    0.98    2.46
  -4   0  -8   -2.18    2.95
  -4   2  -2  106.35    4.48
  -4   2  -3   19.18    2.81
  -4   2  -4   43.53    2.69
  -4   2  -5   85.78    6.03
  -4   2  -6   20.56    4.41
  -4   2  -7    7.35    5.23
  -4   4  -2   39.80    2.66
  -4   4  -3  123.50    6.02
  -4   4  -4   14.96    3.45
  -4   4  -5    9.38    4.06
  -4   4  -6   14.13    3.65
  -4   6  -2   10.24    3.42
  -4   6  -3    0.86    3.78
  -4   6  -4    2.11    3.03
  -3  -1  -1   32.10    1.94
  -3  -1   0  677.08   19.75
  -3  -1   1 1433.23   27.82
  -3  -1   2 2181.21   34.94
  -3  -1   3  233.26    7.99
  -3  -1   4  156.25    6.26
  -3  -1   5  284.03   13.13
  -3  -1   6   87.28    3.54
  -3  -1   7   44.56    2.71
  -3  -1   8   26.33    2.26
  -3  -1   9   29.03    3.71
  -3  -1  10   12.97    3.22
  -3  -1  11    7.96    3.29
  -3   1  -1   29.90    1.97
  -3   1   0  688.63   20.12
  -3   1   1 1418.89   28.55
  -3   1   2 2284.12   36.11
  -3   1   3  234.89    8.45
  -3   1   4  159.67    6.15
  -3   1   5  288.27   13.11
  -3   1   6   84.20    3.88
  -3   1   7   43.26    3.34
  -3   1   8   25.67    2.23
  -3   1   9   31.33    3.60
  -3   1  10    7.84    3.94
  -3   1  11   13.37    3.91
  -3   3  -1    7.77    1.56
  -3   3   0  123.24    5.14
  -3   3   1  755.70   20.17
  -3   3   2 1171.13   24.93
  -3   3   3    6.05    1.58
  -3   3   4    1.14    1.52
  -3   3   5   19.37    2.14
  -3   3   6  110.57    3.83
  -3   3   7   39.64    2.71
  -3   3   8   95.11    5.90
  -3   3   9   15.17    3.29
  -3   3  10   10.06    3.14
  -3   5  -1   35.08    2.98
  -3   5   0   71.04    3.30
  -3   5   1   18.42    2.20
  -3   5   2   54.18    3.10
  -3   5   3  138.12    7.29
  -3   5   4   59.82    3.38
  -3   5   5   49.44    4.18
  -3   5   6    0.63    3.37
  -3   5   7   83.08    5.45
  -3   5   8    3.91    2.84
  -3   5   9    4.07    2.85
  -3   7  -1   14.73    4.26
  -3   7   0   26.81    4.03
  -3   7   1   26.57    3.91
  -3   7   2   18.45    4.13
  -3   7   3   15.77    3.92
  -3   7   4   71.33    5.66
  -3   7   5    7.11    3.42
  -3   7   6    3.87    3.45
  -3   7  -3    0.39    3.77
  -3   7  -2   12.21    3.84
  -3   5  -6    8.13    3.58
  -3   5  -5   18.05    4.50
  -3   5  -4    2.09    2.92
  -3   5  -3   93.99    5.09
  -3   5  -2  183.74    7.18
  -3   3  -8    3.45    3.05
  -3   3  -7    6.93    3.28
  -3   3  -6   22.70    3.43
  -3   3  -5   51.70    2.97
  -3   3  -4  121.63    4.08
  -3   3  -3  226.22   10.30
  -3   3  -2    6.47    1.71
  -3   1  -8    2.44    3.88
  -3   1  -7   10.13    3.23
  -3   1  -6   24.69    3.16
  -3   1  -5   18.50    2.10
  -3   1  -4   62.94    2.96
  -3   1  -3  124.97    4.23
  -3   1  -2  116.80    4.19
  -3  -1  -8    0.31    2.43
  -3  -1  -7   11.51    3.09
  -3  -1  -6   18.48    3.25
  -3  -1  -5   23.85    2.07
  -3  -1  -4   58.35    2.78
  -3  -1  -3  109.04    3.97
  -3  -1  -2  121.58    4.97
  -2   8   2    7.58    3.72
  -2   8   1    0.92    3.45
  -2   8   0    5.21    4.14
  -2   6   7   23.12    4.33
  -2   6   6   41.82    4.74
  -2   6   5   47.31    5.13
  -2   6   4   46.56    4.92
  -2   6   3   15.35    3.30
  -2   6   2   82.62    4.91
  -2   6   1   31.84    3.80
  -2   6   0    8.89    2.89
  -2   6  -1   33.21    3.91
  -2   4   9   15.06    4.02
  -2   4   8   13.84    3.60
  -2   4   7   68.41    5.52
  -2   4   6  133.71    4.43
  -2   4   5  130.38    4.71
  -2   4   4   29.82    2.39
  -2   4   3   37.84    2.58
  -2   4   2   39.53    2.44
  -2   4   1   67.66    3.05
  -2   4   0   58.47    2.80
  -2   4  -1   78.80    3.45
  -2   2  10    2.40    2.56
  -2   2   9   64.26    5.15
  -2   2   8    0.10    1.53
  -2   2   7   18.99    2.32
  -2   2   6   32.33    2.30
  -2   2   5   79.44    3.50
  -2   2   4  505.93   17.16
  -2   2   3   17.01    1.89
  -2   2   2 1174.07   26.07
  -2   2   1  106.84    4.11
  -2   2   0  831.18   22.11
  -2   2  -1   24.88    1.85
  -2   0  11    4.03    2.73
  -2   0  10   22.34    4.88
  -2   0   9    5.49    3.04
  -2   0   8    6.32    1.90
  -2   0   7   55.67    2.89
  -2   0   6   17.32    2.02
  -2   0   5  287.24   13.58
  -2   0   4    1.74    1.23
  -2   0   3 1568.63   29.40
  -2   0   2  616.53   17.12
  -2   0   1 9851.77   59.33
  -2   0   0  624.30   16.20
  -2   0  -1  448.58   16.14
  -2   0  -2   24.36    1.74
  -2   0  -3  576.15   18.22
  -2   0  -4   26.38    2.06
  -2   0  -5   16.00    2.04
  -2   0  -6    7.37    1.79
  -2   0  -7    3.68    2.28
  -2   0  -8   -0.16    2.70
  -2   0  -9    6.63    3.11
  -2   2  -2  526.05   17.80
  -2   2  -3    7.73    2.19
  -2   2  -4   64.58    2.95
  -2   2  -5   54.81    2.94
  -2   2  -6   56.60    2.88
  -2   2  -7   26.18    4.22
  -2   2  -8    0.73    3.02
  -2   2  -9    0.94    4.51
  -2   4  -2   21.10    2.75
  -2   4  -3   87.45    3.49
  -2   4  -4  142.83    4.45
  -2   4  -5   13.01    2.90
  -2   4  -6   11.96    3.17
  -2   4  -7    5.83    2.86
  -2   4  -8   14.26    5.05
  -2   6  -2  117.62    5.75
  -2   6  -3    8.05    3.11
  -2   6  -4    5.87    3.33
  -2   6  -5    2.08    3.79
  -2   6  -6    3.12    3.74
  -1  -1  -1 7340.43   54.57
  -1  -1   0 1940.29   25.08
  -1  -1   1 3091.39   31.84
  -1  -1   2 6601.92   53.10
  -1  -1   3 1488.43   29.15
  -1  -1   4   36.82    2.09
  -1  -1   5  278.65   12.67
  -1  -1   6   22.18    2.09
  -1  -1   7   38.29    2.60
  -1  -1   8   16.28    1.95
  -1  -1   9    3.05    2.69
  -1  -1  10    3.94    3.06
  -1   1  -1 7345.55   54.44
  -1   1   0 1956.22   24.85
  -1   1   1 3041.36   31.79
  -1   1   2 6498.83   53.22
  -1   1   3 1489.41   28.80
  -1   1   4   35.65    2.12
  -1   1   5  258.40   11.92
  -1   1   6   20.78    2.04
  -1   1   7   44.06    2.68
  -1   1   8   18.13    1.99
  -1   1   9    6.33    2.84
  -1   1  10   -0.38    3.06
  -1   3  -1  107.49    4.60
  -1   3   0  210.62    8.13
  -1   3   1  171.69    7.23
  -1   3   2  276.44   13.09
  -1   3   3  263.29    8.68
  -1   3   4  637.97   18.50
  -1   3   5  155.37    5.39
  -1   3   6   95.38    3.68
  -1   3   7   92.80    3.48
  -1   3   8    2.28    2.18
  -1   3   9    2.03    2.80
  -1   3  10    3.66    4.07
  -1   5  -1   50.24    2.92
  -1   5   0    7.37    2.17
  -1   5   1   13.44    2.30
  -1   5   2   31.94    2.43
  -1   5   3   73.62    3.28
  -1   5   4  114.20    4.04
  -1   5   5   14.07    3.08
  -1   5   6  217.26    8.10
  -1   5   7    4.99    3.01
  -1   5   8    0.68    2.63
  -1   7  -1    5.47    2.64
  -1   7   0   58.71    4.85
  -1   7   1   56.70    5.56
  -1   7   2    5.54    3.06
  -1   7   3   99.00    6.72
  -1   7   4    3.56    2.87
  -1   7   5   13.22    3.61
  -1   7  -5   -1.12    3.02
  -1   7  -4   -0.19    3.83
  -1   7  -3    2.94    3.09
  -1   7  -2    4.08    2.77
  -1   5  -7    0.66    3.09
  -1   5  -6    2.81    3.49
  -1   5  -5   30.69    3.93
  -1   5  -4   36.41    4.49
  -1   5  -3   35.13    2.60
  -1   5  -2    6.11    1.66
  -1   3  -9    6.50    3.03
  -1   3  -8   -1.77    3.01
  -1   3  -7   61.87    4.55
  -1   3  -6   15.29    2.00
  -1   3  -5   25.04    2.29
  -1   3  -4  148.49    4.93
  -1   3  -3  267.91   12.91
  -1   3  -2  593.40   18.53
  -1   1 -10   13.00    3.96
  -1   1  -9   -2.04    2.74
  -1   1  -8   37.60    3.84
  -1   1  -7    6.82    1.71
  -1   1  -6   63.23    3.03
  -1   1  -5  121.76    4.13
  -1   1  -4  155.11    6.39
  -1   1  -3  190.92    7.01
  -1   1  -2 1545.86   29.79
  -1  -1 -10    6.13    3.83
  -1  -1  -9    2.76    3.30
  -1  -1  -8   49.57    3.93
  -1  -1  -7    7.33    1.87
  -1  -1  -6   56.60    2.96
  -1  -1  -5  118.84    4.29
  -1  -1  -4  146.85    5.78
  -1  -1  -3  195.71    7.30
  -1  -1  -2 1506.37   28.85
   0   8   2   12.41    3.77
   0   8   1   14.18    3.83
   0   8   0    4.16    3.41
   0   8  -1    8.25    3.50
   0   6   7    1.95    3.33
   0   6   6   13.27    3.39
   0   6   5   23.54    3.86
   0   6   4   53.75    4.94
   0   6   3    6.76    4.34
   0   6   2   43.62    3.75
   0   6   1   25.59    2.23
   0   6   0   22.15    2.13
   0   6  -1   27.75    2.30
   0   4   9   -0.02    2.54
   0   4   8    8.35    2.95
   0   4   7   22.49    3.61
   0   4   6    7.17    2.79
   0   4   5   51.38    2.85
   0   4   4  107.69    3.90
   0   4   3  223.96   10.17
   0   4   2    7.72    1.78
   0   4   1   26.39    2.71
   0   4   0   19.25    2.04
   0   4  -1   27.38    2.12
   0   2  10    1.17    3.41
   0   2   9    4.07    3.08
   0   2   8    1.78    2.35
   0   2   7   10.37    1.88
   0   2   6   68.35    3.09
   0   2   5  224.61    7.18
   0   2   4   27.54    2.12
   0   2   3 1889.53   32.74
   0   2   2 1610.99   30.88
   0   2   1 2662.43   36.94
   0   2   0 3262.78   41.26
   0   2  -1 2668.53   37.72
   0   0  10    3.58    4.01
   0   0   9   -2.49    2.55
   0   0   8    5.47    2.30
   0   0   7    1.51    1.44
   0   0   6   -0.03    1.39
   0   0   5   44.78    2.66
   0   0   4 1468.22   29.32
   0   0   3  500.94   17.85
   0   0   2  297.15   11.64
   0   0   1  894.29   13.41
   0   0  -1  917.74   13.37
   0   0  -2  298.56   11.76
   0   0  -3  520.15   17.40
   0   0  -4 1518.76   29.32
   0   0  -5   45.95    3.01
   0   0  -6    1.13    1.54
   0   0  -7    2.23    1.61
   0   0  -8    0.58    2.46
   0   0  -9    3.91    2.56
   0   0 -10    9.11    2.88
   0   2  -2 1611.60   31.09
   0   2  -3 1915.89   33.39
   0   2  -4   22.30    1.86
   0   2  -5  230.41   10.65
   0   2  -6   70.18    3.19
   0   2  -7   13.09    1.90
   0   2  -8    0.91    2.41
   0   2  -9    0.68    4.57
   0   2 -10    5.77    4.39
   0   4  -2    6.28    1.48
   0   4  -3  223.49   10.59
   0   4  -4  116.54    4.37
   0   4  -5   48.36    2.78
   0   4  -6    8.53    2.86
   0   4  -7   28.97    3.56
   0   4  -8    0.70    2.59
   0   4  -9    4.27    3.47
   0   6  -2   36.87    4.71
   0   6  -3    7.59    3.05
   0   6  -4   51.74    5.30
   0   6  -5   25.91    3.79
   0   6  -6   11.06    3.25
   0   6  -7    7.11    3.25
   0   8  -2   15.64    5.60
   1  -1  -1 2970.10   31.36
   1  -1   0 1886.22   25.00
   1  -1   1 7414.71   55.00
   1  -1   2 1525.02   29.05
   1  -1   3  204.75    7.51
   1  -1   4  158.46    6.29
   1  -1   5  118.19    4.17
   1  -1   6   63.28    2.95
   1  -1   7    5.52    1.69
   1  -1   8   32.56    3.81
   1  -1   9    5.05    2.65
   1  -1  10   -0.17    3.97
   1   1  -1 3056.92   31.08
   1   1   0 1957.83   24.67
   1   1   1 7477.54   55.15
   1   1   2 1585.34   29.96
   1   1   3  190.79    6.89
   1   1   4  134.09    5.11
   1   1   5  113.63    4.47
   1   1   6   59.36    3.00
   1   1   7    6.84    1.70
   1   1   8   35.72    3.96
   1   1   9    4.67    3.01
   1   1  10    7.27    3.67
   1   3  -1  180.04    6.61
   1   3   0  209.01    7.53
   1   3   1  105.49    4.02
   1   3   2  633.07   19.28
   1   3   3  262.15   12.25
   1   3   4  144.51    4.66
   1   3   5   19.04    2.10
   1   3   6   13.12    1.99
   1   3   7   54.00    4.70
   1   3   8   -0.82    2.55
   1   3   9    2.35    2.77
   1   5  -1   13.12    1.83
   1   5   0    6.59    1.92
   1   5   1   50.73    3.45
   1   5   2    3.52    1.68
   1   5   3   36.94    2.47
   1   5   4   26.03    3.38
   1   5   5   30.18    4.14
   1   5   6    4.60    2.76
   1   5   7   -0.03    3.44
   1   7  -1   57.88    5.40
   1   7   0   50.28    4.41
   1   7   1   -2.08    2.52
   1   7   2    0.26    2.87
   1   7   3    3.31    3.07
   1   7   4   -0.63    2.80
   1   7   5    0.32    3.25
   1   7  -5   11.84    4.19
   1   7  -4    0.49    3.76
   1   7  -3   76.37    5.72
   1   7  -2    4.96    2.48
   1   5  -8   -0.11    2.75
   1   5  -7   12.08    4.56
   1   5  -6  226.48    7.84
   1   5  -5   16.01    3.30
   1   5  -4  126.55    4.10
   1   5  -3   78.45    3.28
   1   5  -2   33.55    2.44
   1   3 -10    4.51    4.76
   1   3  -9    0.10    2.92
   1   3  -8    1.21    3.03
   1   3  -7   94.24    3.46
   1   3  -6  101.57    3.64
   1   3  -5  172.01    5.72
   1   3  -4  629.21   18.10
   1   3  -3  294.97   13.11
   1   3  -2  282.20    8.97
   1   1 -10    0.69    2.71
   1   1  -9    4.28    3.21
   1   1  -8   18.30    2.00
   1   1  -7   46.55    2.73
   1   1  -6   20.44    2.41
   1   1  -5  264.58    9.17
   1   1  -4   36.70    2.11
   1   1  -3 1473.65   29.34
   1   1  -2 6686.45   54.34
   1  -1 -10    2.09    2.86
   1  -1  -9    0.93    2.83
   1  -1  -8   14.37    1.87
   1  -1  -7   41.16    2.73
   1  -1  -6   19.70    2.18
   1  -1  -5  276.73   12.76
   1  -1  -4   40.12    2.01
   1  -1  -3 1482.76   28.96
   1  -1  -2 6454.03   52.75
   2   8   0   -2.01    3.17
   2   8  -1    2.17    3.16
   2   6   6    4.98    2.74
   2   6   5    0.21    2.81
   2   6   4    9.09    3.08
   2   6   3    2.98    2.87
   2   6   2  101.85    5.32
   2   6   1   44.63    4.37
   2   6   0   12.82    3.03
   2   6  -1   33.72    3.86
   2   4   8    6.57    3.38
   2   4   7    1.94    3.46
   2   4   6   13.07    3.29
   2   4   5   14.55    2.93
   2   4   4  149.67    6.80
   2   4   3   91.04    3.49
   2   4   2   20.66    2.09
   2   4   1   85.30    3.22
   2   4   0   59.34    2.79
   2   4  -1   71.18    3.11
   2   2   9    8.34    3.67
   2   2   8    4.84    3.90
   2   2   7   33.17    3.52
   2   2   6   51.85    2.85
   2   2   5   52.20    2.78
   2   2   4   63.97    3.02
   2   2   3   24.64    2.29
   2   2   2  537.41   17.87
   2   2   1   20.47    1.81
   2   2   0  814.16   22.09
   2   2  -1  101.54    3.69
   2   0   9    7.38    3.27
   2   0   8    7.86    2.44
   2   0   7    3.49    2.56
   2   0   6    9.53    1.82
   2   0   5   16.10    1.99
   2   0   4   27.51    1.99
   2   0   3  527.40   17.58
   2   0   2   21.05    1.63
   2   0   1  422.83   15.60
   2   0   0  605.36   16.00
   2   0  -1 9997.81   58.77
   2   0  -2  628.60   17.68
   2   0  -3 1552.02   29.24
   2   0  -4   -0.05    1.08
   2   0  -5  282.11   13.64
   2   0  -6   20.64    2.12
   2   0  -7   49.84    2.75
   2   0  -8    7.07    1.73
   2   0  -9    5.74    3.40
   2   0 -10   36.59    4.15
   2   2  -2 1180.51   26.63
   2   2  -3   24.14    1.80
   2   2  -4  491.85   17.26
   2   2  -5   77.60    3.42
   2   2  -6   35.50    2.48
   2   2  -7   16.96    2.07
   2   2  -8    1.67    1.34
   2   2  -9   54.58    4.80
   2   2 -10   -1.26    2.20
   2   4  -2   43.60    2.53
   2   4  -3   44.92    2.60
   2   4  -4   33.42    2.55
   2   4  -5  126.70    4.23
   2   4  -6  124.68    4.12
   2   4  -7   68.30    4.83
   2   4  -8   22.94    3.66
   2   4  -9   11.40    3.22
   2   6  -2   87.35    5.56
   2   6  -3   26.18    3.63
   2   6  -4   47.70    4.74
   2   6  -5   50.47    4.94
   2   6  -6   35.28    4.28
   2   6  -7    8.82    5.08
   2   8  -2   25.57    5.53
   3  -1  -1 1432.25   27.78
   3  -1   0  663.40   20.14
   3  -1   1   26.64    1.86
   3  -1   2  113.72    4.68
   3  -1   3  113.06    4.73
   3  -1   4   58.70    2.94
   3  -1   5   15.92    2.11
   3  -1   6   10.84    3.53
   3  -1   7   11.68    4.48
   3  -1   8   -1.81    2.34
   3   1  -1 1488.30   28.78
   3   1   0  699.60   20.36
   3   1   1   27.49    1.94
   3   1   2  109.94    4.60
   3   1   3  120.53    5.07
   3   1   4   59.65    2.98
   3   1   5   14.91    2.04
   3   1   6   18.26    3.52
   3   1   7    9.52    3.65
   3   1   8    3.63    2.95
   3   3  -1  774.99   20.37
   3   3   0  137.05    4.82
   3   3   1    7.81    1.57
   3   3   2    3.67    1.48
   3   3   3  208.83    9.49
   3   3   4  123.13    4.26
   3   3   5   43.25    2.62
   3   3   6   17.42    3.66
   3   3   7   14.40    3.56
   3   3   8    2.69    4.80
   3   5  -1   18.16    2.11
   3   5   0   66.17    3.39
   3   5   1   35.25    2.47
   3   5   2  178.77    6.61
   3   5   3   81.54    5.76
   3   5   4   -4.10    2.21
   3   5   5    8.45    3.61
   3   5   6    7.92    2.98
   3   7  -1   22.12    4.20
   3   7   0   18.18    4.51
   3   7   1   18.12    3.79
   3   7   2   14.68    3.30
   3   7   3    1.50    2.70
   3   7  -6    7.72    3.67
   3   7  -5    3.13    2.89
   3   7  -4   77.41    5.72
   3   7  -3   18.01    4.63
   3   7  -2   22.38    3.58
   3   5  -9    4.14    2.99
   3   5  -8    0.42    4.98
   3   5  -7   76.58    5.28
   3   5  -6    0.02    3.58
   3   5  -5   49.26    4.17
   3   5  -4   59.10    3.13
   3   5  -3  148.77    7.48
   3   5  -2   51.50    2.91
   3   3 -10    9.03    3.09
   3   3  -9    4.96    3.25
   3   3  -8  107.83    5.60
   3   3  -7   40.01    2.73
   3   3  -6  123.50    3.94
   3   3  -5   12.27    2.12
   3   3  -4    3.07    1.49
   3   3  -3    3.45    1.41
   3   3  -2 1131.71   25.26
   3   1 -10   16.08    3.09
   3   1  -9   36.56    4.51
   3   1  -8   24.24    2.23
   3   1  -7   41.81    2.64
   3   1  -6   89.75    3.38
   3   1  -5  290.61   13.55
   3   1  -4  161.98    6.58
   3   1  -3  244.66    8.42
   3   1  -2 2205.11   36.49
   3  -1 -10   22.78    3.36
   3  -1  -9   29.40    3.79
   3  -1  -8   26.19    2.28
   3  -1  -7   48.68    2.72
   3  -1  -6   90.45    3.79
   3  -1  -5  304.91   13.28
   3  -1  -4  155.18    6.00
   3  -1  -3  221.51    8.49
   3  -1  -2 2166.99   35.51
   4   6   4   -1.22    2.61
   4   6   3   11.15    2.91
   4   6   2    7.08    4.34
   4   6   1   93.63    5.55
   4   6   0    7.18    2.82
   4   6  -1    5.69    4.47
   4   4   6   11.48    5.41
   4   4   5   13.00    3.19
   4   4   4   16.20    3.42
   4   4   3  133.78    5.68
   4   4   2   35.81    2.49
   4   4   1   84.89    3.42
   4   4   0  145.74    4.77
   4   4  -1   13.06    1.95
   4   2   7   11.12    4.05
   4   2   6   26.82    4.04
   4   2   5   84.89    4.79
   4   2   4   42.88    2.68
   4   2   3   20.59    2.72
   4   2   2  112.58    4.49
   4   2   1   68.74    2.98
   4   2   0  365.38   14.99
   4   2  -1  113.79    4.53
   4   0   8   -2.27    2.22
   4   0   7    3.45    2.91
   4   0   6    7.54    2.81
   4   0   5    0.95    1.56
   4   0   4   12.80    2.20
   4   0   3    5.06    1.69
   4   0   2  110.37    4.52
   4   0   1   25.47    2.00
   4   0   0  729.35   21.12
   4   0  -1  741.42   21.22
   4   0  -2   52.33    2.38
   4   0  -3   14.88    1.70
   4   0  -4 1922.06   33.71
   4   0  -5    8.57    1.65
   4   0  -6   78.42    3.41
   4   0  -7   85.28    3.52
   4   0  -8   47.04    2.78
   4   0  -9   56.38    4.29
   4   0 -10    3.46    2.88
   4   2  -2  942.07   23.37
   4   2  -3  156.80    6.12
   4   2  -4  252.11   12.02
   4   2  -5   19.72    2.18
   4   2  -6    5.92    1.96
   4   2  -7  209.79    8.64
   4   2  -8   10.94    1.93
   4   2  -9    3.76    3.74
   4   2 -10   30.62    4.38
   0   0   0    0.00    0.00
;
_shelx_hkl_checksum              31928
_shelx_res_file
;
    nr30.res created by SHELXL-2014/7
TITL nr30 in P2(1) LAST...
CELL 0.71073   9.7590   6.8952   9.7980  90.000 114.348  90.000
ZERR    2.00   0.0011   0.0010   0.0014   0.000   0.009   0.000
LATT -1
SYMM -X, 0.5+Y, -Z
SFAC C H N O
UNIT 26 34 2 4
TEMP 23
L.S. 10
ACTA
BOND $H
CONF
EQIV $1 x, y+1, z
EQIV $2 -x+2, y-1/2, -z+1
HTAB O2 N1
HTAB C2 O2_$1
HTAB C3 O1_$2
FMAP 2
PLAN 10
WGHT    0.037200    0.024600
EXTI    0.040344
FVAR       1.38629
N1    3    0.827553    0.321109    0.107842    11.00000    0.03606    0.04133 =
         0.05185    0.00021    0.01920    0.00124
O1    4    0.922533    0.742268    0.419689    11.00000    0.12954    0.11934 =
         0.10388   -0.06211    0.03648   -0.02189
O2    4    0.795211   -0.076726    0.076019    11.00000    0.09240    0.04124 =
         0.10268    0.01239    0.03744    0.00852
AFIX   3
H2    2    0.838885    0.005160    0.154298    11.00000   -1.50000
AFIX   0
C2    1    0.947954    0.461898    0.132394    11.00000    0.04448    0.04917 =
         0.05576    0.00270    0.01936   -0.00639
AFIX  23
H2B   2    0.906750    0.574995    0.069995    11.00000   -1.20000
H2C   2    1.022950    0.404732    0.103597    11.00000   -1.20000
AFIX   0
C3    1    1.022205    0.523728    0.296860    11.00000    0.05332    0.06753 =
         0.05655    0.00265    0.01138   -0.01378
AFIX  23
H3A   2    1.077292    0.414981    0.357500    11.00000   -1.20000
H3B   2    1.093354    0.627316    0.308236    11.00000   -1.20000
AFIX   0
C4    1    0.908377    0.591431    0.350621    11.00000    0.08014    0.07691 =
         0.04180   -0.00965    0.01145    0.00292
C5    1    0.774588    0.464559    0.310173    11.00000    0.05797    0.08029 =
         0.04811   -0.00247    0.02426    0.00644
AFIX  23
H5A   2    0.698292    0.531288    0.331782    11.00000   -1.20000
H5B   2    0.802505    0.347628    0.370502    11.00000   -1.20000
AFIX   0
C6    1    0.710247    0.410081    0.144752    11.00000    0.04417    0.05631 =
         0.04874   -0.00087    0.02100    0.00116
AFIX  23
H6A   2    0.627695    0.319642    0.122627    11.00000   -1.20000
H6B   2    0.671578    0.525162    0.084030    11.00000   -1.20000
AFIX   0
C7    1    0.770399    0.237083   -0.044731    11.00000    0.04795    0.04030 =
         0.05553   -0.00424    0.02700    0.00300
AFIX  13
H7A   2    0.859573    0.207440   -0.063076    11.00000   -1.20000
AFIX   0
C8    1    0.697843    0.042088   -0.041957    11.00000    0.06600    0.04033 =
         0.07954   -0.00609    0.02815   -0.00221
AFIX  23
H8A   2    0.605372    0.063398   -0.029580    11.00000   -1.20000
H8B   2    0.672620   -0.023674   -0.136786    11.00000   -1.20000
AFIX   0
C9    1    0.674111    0.369245   -0.171362    11.00000    0.05593    0.04045 =
         0.04348   -0.00680    0.02224   -0.00224
C10   1    0.739696    0.482002   -0.245495    11.00000    0.06766    0.05545 =
         0.05197   -0.00615    0.02875   -0.01064
AFIX  43
H10A  2    0.842795    0.473328   -0.217973    11.00000   -1.20000
AFIX   0
C11   1    0.654384    0.607853   -0.360219    11.00000    0.10379    0.06125 =
         0.05841    0.00153    0.03573   -0.01093
AFIX  43
H11A  2    0.700955    0.683699   -0.407236    11.00000   -1.20000
AFIX   0
C12   1    0.501303    0.620305   -0.404228    11.00000    0.10148    0.06520 =
         0.05480    0.00195    0.01773    0.00814
AFIX  43
H12A  2    0.443987    0.702775   -0.481948    11.00000   -1.20000
AFIX   0
C13   1    0.433767    0.510114   -0.332589    11.00000    0.06333    0.07061 =
         0.05935   -0.00043    0.01323    0.00939
AFIX  43
H13A  2    0.330350    0.518100   -0.361972    11.00000   -1.20000
AFIX   0
C14   1    0.518797    0.387194   -0.216855    11.00000    0.05459    0.05401 =
         0.05145   -0.00511    0.01946   -0.00382
AFIX  43
H14A  2    0.471623    0.315090   -0.168387    11.00000   -1.20000
AFIX   0
HKLF 4
REM  nr30 in P2(1) LAST...
REM R1 =  0.0355 for    1050 Fo > 4sig(Fo)  and  0.0534 for all    1341 data
REM    146 parameters refined using      1 restraints
END
WGHT      0.0367      0.0255
REM Highest difference peak  0.105,  deepest hole -0.114,  1-sigma level  0.025
Q1    1   0.6212 -0.2793 -0.1845  11.00000  0.05    0.11
Q2    1   0.9938  0.8466  0.5181  11.00000  0.05    0.10
Q3    1   0.9883  0.4764  0.3589  11.00000  0.05    0.09
Q4    1   0.9590  0.6274  0.5026  11.00000  0.05    0.09
Q5    1   0.9857  0.2412  0.3354  11.00000  0.05    0.09
Q6    1   0.5788  0.0617 -0.0978  11.00000  0.05    0.09
Q7    1   1.0052  0.4863  0.4729  11.00000  0.05    0.08
Q8    1   1.0629  0.6331  0.5821  11.00000  0.05    0.08
Q9    1   0.8559  0.2579  0.3234  11.00000  0.05    0.08
Q10   1   0.7624 -0.0334 -0.1766  11.00000  0.05    0.08
;
_shelx_res_checksum              67607
loop_
_space_group_symop_operation_xyz
'x, y, z'
'-x, y+1/2, -z'
loop_
_atom_site_type_symbol
_atom_site_label
_atom_site_fract_x
_atom_site_fract_y
_atom_site_fract_z
_atom_site_U_iso_or_equiv
_atom_site_adp_type
_atom_site_calc_flag
_atom_site_occupancy
N N1 0.8276(2) 0.3211(3) 0.1078(2) 0.0427(5) Uani d 1
O O1 0.9225(3) 0.7423(5) 0.4197(3) 0.1214(11) Uani d 1
O O2 0.7952(2) -0.0767(3) 0.0760(3) 0.0797(7) Uani d 1
H H2 0.8389 0.0052 0.1543 0.120 Uiso d 1
C C2 0.9480(3) 0.4619(4) 0.1324(3) 0.0502(7) Uani d 1
H H2B 0.9068 0.5750 0.0700 0.060 Uiso calc 1
H H2C 1.0229 0.4047 0.1036 0.060 Uiso calc 1
C C3 1.0222(3) 0.5237(5) 0.2969(3) 0.0629(9) Uani d 1
H H3A 1.0773 0.4150 0.3575 0.075 Uiso calc 1
H H3B 1.0934 0.6273 0.3082 0.075 Uiso calc 1
C C4 0.9084(4) 0.5914(6) 0.3506(3) 0.0708(10) Uani d 1
C C5 0.7746(3) 0.4646(5) 0.3102(3) 0.0613(9) Uani d 1
H H5A 0.6983 0.5313 0.3318 0.074 Uiso calc 1
H H5B 0.8025 0.3476 0.3705 0.074 Uiso calc 1
C C6 0.7102(3) 0.4101(4) 0.1448(2) 0.0491(7) Uani d 1
H H6A 0.6277 0.3196 0.1226 0.059 Uiso calc 1
H H6B 0.6716 0.5252 0.0840 0.059 Uiso calc 1
C C7 0.7704(3) 0.2371(4) -0.0447(3) 0.0461(7) Uani d 1
H H7A 0.8596 0.2074 -0.0631 0.055 Uiso calc 1
C C8 0.6978(3) 0.0421(4) -0.0420(3) 0.0626(8) Uani d 1
H H8A 0.6054 0.0634 -0.0296 0.075 Uiso calc 1
H H8B 0.6726 -0.0237 -0.1368 0.075 Uiso calc 1
C C9 0.6741(3) 0.3692(4) -0.1714(2) 0.0460(7) Uani d 1
C C10 0.7397(3) 0.4820(5) -0.2455(3) 0.0570(8) Uani d 1
H H10A 0.8428 0.4733 -0.2180 0.068 Uiso calc 1
C C11 0.6544(4) 0.6079(6) -0.3602(3) 0.0737(9) Uani d 1
H H11A 0.7010 0.6837 -0.4072 0.088 Uiso calc 1
C C12 0.5013(4) 0.6203(6) -0.4042(3) 0.0786(10) Uani d 1
H H12A 0.4440 0.7028 -0.4819 0.094 Uiso calc 1
C C13 0.4338(4) 0.5101(5) -0.3326(3) 0.0684(9) Uani d 1
H H13A 0.3304 0.5181 -0.3620 0.082 Uiso calc 1
C C14 0.5188(3) 0.3872(4) -0.2169(3) 0.0541(7) Uani d 1
H H14A 0.4716 0.3151 -0.1684 0.065 Uiso calc 1
loop_
_atom_site_aniso_label
_atom_site_aniso_U_11
_atom_site_aniso_U_22
_atom_site_aniso_U_33
_atom_site_aniso_U_12
_atom_site_aniso_U_13
_atom_site_aniso_U_23
N1 0.0361(11) 0.0413(12) 0.0519(12) 0.0012(11) 0.0192(9) 0.0002(11)
O1 0.130(2) 0.119(2) 0.104(2) -0.022(2) 0.0365(16) -0.062(2)
O2 0.0924(15) 0.0412(12) 0.1027(14) 0.0085(13) 0.0374(12) 0.0124(13)
C2 0.0445(14) 0.0492(17) 0.0558(14) -0.0064(15) 0.0194(11) 0.0027(14)
C3 0.0533(16) 0.068(2) 0.0566(15) -0.0138(18) 0.0114(13) 0.0026(17)
C4 0.080(2) 0.077(3) 0.0418(14) 0.003(2) 0.0114(15) -0.0097(18)
C5 0.0580(16) 0.080(2) 0.0481(14) 0.0064(19) 0.0243(13) -0.0025(17)
C6 0.0442(13) 0.0563(18) 0.0487(13) 0.0012(16) 0.0210(11) -0.0009(15)
C7 0.0480(14) 0.0403(14) 0.0555(15) 0.0030(14) 0.0270(12) -0.0042(14)
C8 0.0660(19) 0.0403(16) 0.0795(19) -0.0022(16) 0.0281(16) -0.0061(16)
C9 0.0559(15) 0.0404(17) 0.0435(13) -0.0022(15) 0.0222(12) -0.0068(14)
C10 0.0677(17) 0.0555(18) 0.0520(15) -0.0106(17) 0.0287(14) -0.0061(16)
C11 0.104(3) 0.061(2) 0.0584(17) -0.011(2) 0.0357(18) 0.0015(19)
C12 0.101(3) 0.065(2) 0.0548(17) 0.008(2) 0.0177(19) 0.0020(19)
C13 0.0633(18) 0.071(2) 0.0594(17) 0.0094(19) 0.0132(15) -0.0004(18)
C14 0.0546(15) 0.0540(19) 0.0515(14) -0.0038(16) 0.0195(13) -0.0051(15)
loop_
_atom_type_symbol
_atom_type_description
_atom_type_scat_dispersion_real
_atom_type_scat_dispersion_imag
_atom_type_scat_source
C C 0.0033 0.0016 'International Tables Vol C Tables 4.2.6.8 and 6.1.1.4'
H H 0.0000 0.0000 'International Tables Vol C Tables 4.2.6.8 and 6.1.1.4'
N N 0.0061 0.0033 'International Tables Vol C Tables 4.2.6.8 and 6.1.1.4'
O O 0.0106 0.0060 'International Tables Vol C Tables 4.2.6.8 and 6.1.1.4'
loop_
_diffrn_standard_refln_index_h
_diffrn_standard_refln_index_k
_diffrn_standard_refln_index_l
1 1 1
-2 0 1
-1 1 2
loop_
_geom_angle_atom_site_label_1
_geom_angle_atom_site_label_2
_geom_angle_atom_site_label_3
_geom_angle
C2 N1 C6 109.7(2)
C2 N1 C7 111.57(19)
C6 N1 C7 113.85(17)
C8 O2 H2 104.7
N1 C2 C3 110.9(2)
N1 C2 H2B 109.5
C3 C2 H2B 109.5
N1 C2 H2C 109.5
C3 C2 H2C 109.5
H2B C2 H2C 108.0
C4 C3 C2 111.2(2)
C4 C3 H3A 109.4
C2 C3 H3A 109.4
C4 C3 H3B 109.4
C2 C3 H3B 109.4
H3A C3 H3B 108.0
O1 C4 C5 122.6(3)
O1 C4 C3 122.3(4)
C5 C4 C3 115.1(3)
C4 C5 C6 111.1(2)
C4 C5 H5A 109.4
C6 C5 H5A 109.4
C4 C5 H5B 109.4
C6 C5 H5B 109.4
H5A C5 H5B 108.0
N1 C6 C5 110.09(19)
N1 C6 H6A 109.6
C5 C6 H6A 109.6
N1 C6 H6B 109.6
C5 C6 H6B 109.6
H6A C6 H6B 108.2
N1 C7 C9 116.1(2)
N1 C7 C8 108.1(2)
C9 C7 C8 114.2(2)
N1 C7 H7A 105.9
C9 C7 H7A 105.9
C8 C7 H7A 105.9
O2 C8 C7 111.4(2)
O2 C8 H8A 109.4
C7 C8 H8A 109.4
O2 C8 H8B 109.4
C7 C8 H8B 109.4
H8A C8 H8B 108.0
C10 C9 C14 117.2(2)
C10 C9 C7 120.1(2)
C14 C9 C7 122.7(2)
C9 C10 C11 121.4(3)
C9 C10 H10A 119.3
C11 C10 H10A 119.3
C12 C11 C10 120.2(3)
C12 C11 H11A 119.9
C10 C11 H11A 119.9
C13 C12 C11 119.5(3)
C13 C12 H12A 120.2
C11 C12 H12A 120.2
C12 C13 C14 120.4(3)
C12 C13 H13A 119.8
C14 C13 H13A 119.8
C13 C14 C9 121.4(3)
C13 C14 H14A 119.3
C9 C14 H14A 119.3
loop_
_geom_bond_atom_site_label_1
_geom_bond_atom_site_label_2
_geom_bond_distance
N1 C2 1.466(3)
N1 C6 1.469(3)
N1 C7 1.481(3)
O1 C4 1.217(4)
O2 C8 1.416(3)
O2 H2 0.9051
C2 C3 1.530(4)
C2 H2B 0.9700
C2 H2C 0.9700
C3 C4 1.487(5)
C3 H3A 0.9700
C3 H3B 0.9700
C4 C5 1.483(5)
C5 C6 1.524(3)
C5 H5A 0.9700
C5 H5B 0.9700
C6 H6A 0.9700
C6 H6B 0.9700
C7 C9 1.514(4)
C7 C8 1.525(4)
C7 H7A 0.9800
C8 H8A 0.9700
C8 H8B 0.9700
C9 C10 1.387(4)
C9 C14 1.398(3)
C10 C11 1.392(5)
C10 H10A 0.9300
C11 C12 1.376(4)
C11 H11A 0.9300
C12 C13 1.373(5)
C12 H12A 0.9300
C13 C14 1.385(4)
C13 H13A 0.9300
C14 H14A 0.9300
loop_
_geom_hbond_atom_site_label_D
_geom_hbond_atom_site_label_H
_geom_hbond_atom_site_label_A
_geom_hbond_site_symmetry_A
_geom_hbond_distance_DH
_geom_hbond_distance_HA
_geom_hbond_distance_DA
_geom_hbond_angle_DHA
_geom_hbond_publ_flag
O2 H2 N1 . 0.91 2.22 2.764(3) 118.2 no
C2 H2B O2 1_565 0.97 2.65 3.460(4) 141.5 no
C3 H3A O1 2_746 0.97 2.49 3.246(4) 135.0 y
loop_
_geom_torsion_atom_site_label_1
_geom_torsion_atom_site_label_2
_geom_torsion_atom_site_label_3
_geom_torsion_atom_site_label_4
_geom_torsion
C6 N1 C2 C3 61.7(3)
C7 N1 C2 C3 -171.2(2)
N1 C2 C3 C4 -52.6(4)
C2 C3 C4 O1 -131.9(3)
C2 C3 C4 C5 46.5(4)
O1 C4 C5 C6 130.5(3)
C3 C4 C5 C6 -47.9(4)
C2 N1 C6 C5 -62.8(3)
C7 N1 C6 C5 171.4(2)
C4 C5 C6 N1 55.1(4)
C2 N1 C7 C9 -73.2(3)
C6 N1 C7 C9 51.5(3)
C2 N1 C7 C8 157.0(2)
C6 N1 C7 C8 -78.3(3)
N1 C7 C8 O2 -50.9(3)
C9 C7 C8 O2 178.2(2)
N1 C7 C9 C10 91.9(3)
C8 C7 C9 C10 -141.3(2)
N1 C7 C9 C14 -86.8(3)
C8 C7 C9 C14 40.1(3)
C14 C9 C10 C11 0.1(4)
C7 C9 C10 C11 -178.6(3)
C9 C10 C11 C12 -1.1(5)
C10 C11 C12 C13 1.0(5)
C11 C12 C13 C14 0.0(5)
C12 C13 C14 C9 -1.0(5)
C10 C9 C14 C13 1.0(4)
C7 C9 C14 C13 179.6(3)

_cod_database_fobs_code 2241099
