#------------------------------------------------------------------------------
#$Date: 2018-04-30 19:24:07 +0300 (Mon, 30 Apr 2018) $
#$Revision: 207545 $
#$URL: file:///home/coder/svn-repositories/cod/cif/2/24/24/2242440.cif $
#------------------------------------------------------------------------------
#
# This file is available in the Crystallography Open Database (COD),
# http://www.crystallography.net/. The original data for this entry
# were provided by IUCr Journals, http://journals.iucr.org/.
#
# The file may be used within the scientific community so long as
# proper attribution is given to the journal article from which the
# data were obtained.
#
data_2242440
loop_
_publ_author_name
'Zakharov, Boris A.'
'Gal, Zoltan'
'Cruickshank, Dyanne'
'Boldyreva, Elena V.'
_publ_section_title
;
 Studying weak interactions in crystals at high pressures: when hardware
 matters
;
_journal_coeditor_code           SU5433
_journal_issue                   5
_journal_name_full               'Acta Crystallographica Section E'
_journal_page_first              613
_journal_page_last               619
_journal_paper_doi               10.1107/S205698901800470X
_journal_volume                  74
_journal_year                    2018
_chemical_formula_iupac          'C6 H2 Br4'
_chemical_formula_moiety         'C6 H2 Br4'
_chemical_formula_sum            'C6 H2 Br4'
_chemical_formula_weight         393.72
_chemical_name_common            1,2,4,5-tetrabromobenzene
_chemical_name_systematic        1,2,4,5-Tetrabromobenzene
_space_group_crystal_system      monoclinic
_space_group_IT_number           14
_space_group_name_Hall           '-P 2yn'
_space_group_name_H-M_alt        'P 1 21/n 1'
_symmetry_space_group_name_Hall  '-P 2yn'
_symmetry_space_group_name_H-M   'P 1 21/n 1'
_atom_sites_solution_hydrogens   geom
_audit_creation_method           SHELXL-2018/1
_cell_angle_alpha                90
_cell_angle_beta                 100.49(3)
_cell_angle_gamma                90
_cell_formula_units_Z            2
_cell_length_a                   3.9390(9)
_cell_length_b                   10.781(4)
_cell_length_c                   9.944(4)
_cell_measurement_reflns_used    748
_cell_measurement_temperature    293(2)
_cell_measurement_theta_max      22.8680
_cell_measurement_theta_min      2.1980
_cell_volume                     415.2(2)
_computing_cell_refinement
;
CrysAlis PRO (Rigaku OD, 2016)
;
_computing_data_collection
;
CrysAlis PRO (Rigaku OD, 2016)
;
_computing_data_reduction
;
CrysAlis PRO (Rigaku OD, 2016)
;
_computing_molecular_graphics
;
Mercury (Macrae <i>et al.</i>,  2008)
;
_computing_publication_material
;
SHELXL2018 (Sheldrick, 2015) and publCIF (Westrip, 2010)
;
_computing_structure_refinement
;
SHELXL2018 (Sheldrick, 2015)
;
_diffrn_ambient_temperature      293(2)
_diffrn_measured_fraction_theta_full 0.720
_diffrn_measured_fraction_theta_max 0.499
_diffrn_measurement_device_type  'XtaLAB Synergy, Dualflex, Pilatus 300K'
_diffrn_measurement_method       \w-scan
_diffrn_radiation_type           AgK\a
_diffrn_radiation_wavelength     0.56087
_diffrn_reflns_av_R_equivalents  0.0483
_diffrn_reflns_limit_h_max       6
_diffrn_reflns_limit_h_min       -5
_diffrn_reflns_limit_k_max       14
_diffrn_reflns_limit_k_min       -14
_diffrn_reflns_limit_l_max       12
_diffrn_reflns_limit_l_min       -11
_diffrn_reflns_number            2503
_diffrn_reflns_theta_full        19.665
_diffrn_reflns_theta_max         26.699
_diffrn_reflns_theta_min         2.219
_exptl_absorpt_coefficient_mu    10.330
_exptl_absorpt_correction_T_max  0.562
_exptl_absorpt_correction_T_min  0.486
_exptl_absorpt_correction_type   gaussian
_exptl_absorpt_process_details
;
[CrysAlis PRO (Rigaku OD, 2016) and <i>ABSORB</i> (Angel <i>et al.</i>,
2007)]
;
_exptl_crystal_colour            colourless
_exptl_crystal_density_diffrn    3.149
_exptl_crystal_description       block
_exptl_crystal_F_000             356
_exptl_crystal_size_max          0.18
_exptl_crystal_size_mid          0.07
_exptl_crystal_size_min          0.01
_refine_diff_density_max         1.548
_refine_diff_density_min         -1.478
_refine_ls_extinction_method     none
_refine_ls_goodness_of_fit_ref   1.019
_refine_ls_hydrogen_treatment    constr
_refine_ls_matrix_type           full
_refine_ls_number_parameters     46
_refine_ls_number_reflns         893
_refine_ls_number_restraints     0
_refine_ls_restrained_S_all      1.019
_refine_ls_R_factor_all          0.1114
_refine_ls_R_factor_gt           0.0470
_refine_ls_shift/su_max          0.014
_refine_ls_shift/su_mean         0.001
_refine_ls_structure_factor_coef Fsqd
_refine_ls_weighting_details
'w=1/[\s^2^(Fo^2^)+(0.1247P)^2^] where P=(Fo^2^+2Fc^2^)/3'
_refine_ls_weighting_scheme      calc
_refine_ls_wR_factor_gt          0.1329
_refine_ls_wR_factor_ref         0.2059
_reflns_number_gt                513
_reflns_number_total             893
_reflns_threshold_expression     'I > 2\s(I)'
_cod_data_source_file            su5433sup1.cif
_cod_data_source_block           Ag-Absorb7-raw_a
_cod_database_code               2242440
_shelx_space_group_comment
;
The symmetry employed for this shelxl refinement is uniquely defined
by the following loop, which should always be used as a source of
symmetry information in preference to the above space-group names.
They are only intended as comments.
;
_shelx_hkl_file
;
   0   1   1 20.2179 1.08255   8
   0  -1  -1 17.9088 1.09990   6
   0   1   1 20.7393 1.11771   2
   0   1   2 274.718 13.9302   3
   0   1   2 280.011 13.9243   8
   0  -1  -2 272.271 13.9458   3
   0  -2  -1 190.365 9.85841   4
   0  -2  -1 200.083 9.90014   5
   0   2   1 196.176 9.84288   4
   0   2   1 194.692 9.91625   2
   0  -2  -1 190.046 9.87340   6
   0  -2  -2 389.841 20.1431   2
   0   2   2 395.246 20.1343   2
   0  -2  -2 402.553 20.1336   6
   0   2   2 384.847 20.0804   8
   0  -2  -2 405.081 20.0712   8
   0   2   2 392.524 20.1454   5
   0  -2  -2 410.980 20.0328   7
   0  -2  -3 508.147 25.2889   2
   0   2   3 493.205 25.1944   3
   0   2   3 502.894 25.1977   8
   0  -2  -3 500.020 25.1582   7
   0  -2  -3 496.195 25.2040   3
   0  -2  -4 171.927 9.07905   2
   0   2   4 164.120 8.93131   8
   0  -2  -4 180.449 9.01431   3
   0   2   4 173.372 9.00628   3
   0  -2  -5 2.06752 1.57512   3
   0  -2  -5 4.46803 1.50809   2
   0   2   5 2.82503 1.01348   8
   0   3   1 155.993 7.86005   4
   0  -3  -1 151.446 7.92199   5
   0  -3  -1 149.817 7.88539   6
   0  -3  -2 912.093 45.9511   4
   0   3   2 904.881 46.0213   6
   0  -3  -2 914.991 46.0219   6
   0   3   2 920.923 46.0532   2
   0   3   2 921.924 45.8837   7
   0  -3  -2 935.646 46.0459   5
   0   3   2 900.284 46.0201   5
   0   3   3 6.05290 0.93666   3
   0  -3  -3 7.66435 1.15112   2
   0   3   3 6.92250 1.27163   5
   0  -3  -3 7.31665 0.92438   8
   0  -3  -3 7.94240 0.83823   7
   0   3   3 6.01394 1.13613   6
   0   3   3 5.88048 1.04839   2
   0   3   4 76.1927 4.56036   5
   0  -3  -4 73.1370 4.25421   8
   0   3   4 78.1926 4.27728   8
   0   3   4 73.9057 4.28375   3
   0  -3  -4 78.7643 4.44002   2
   0   3   4 78.5708 4.48824   6
   0  -3  -4 75.7218 4.15284   7
   0   3   5 227.455 12.4306   8
   0  -3  -5 244.826 12.6366   2
   0   3   5 233.962 12.5897   6
   0  -3  -5 250.862 12.4162   7
   0   3   5 243.033 12.5223   3
   0  -3  -6 98.4760 6.08155   2
   0  -3  -6 104.115 5.93775   3
   0  -3  -7-1.08862 2.51528   2
   0   4   1 1077.90 53.9917   4
   0  -4  -1 1072.83 54.0539   6
   0  -4  -2 31.3175 2.35005   5
   0  -4  -2 38.0351 2.26673   4
   0   4   2 40.4757 2.45176   2
   0   4   2 34.6084 2.20849   4
   0  -4  -2 34.8873 2.32260   6
   0   4   2 33.4811 2.23131   6
   0  -4  -3 34.2350 2.28523   8
   0  -4  -3 38.6901 2.51932   6
   0   4   3 36.4462 2.56390   2
   0  -4  -3 33.4522 2.56595   5
   0   4   3 34.5875 2.46714   5
   0  -4  -3 34.3470 2.24654   4
   0   4   3 31.4350 2.46215   6
   0   4   4 114.262 6.13466   2
   0   4   4 109.196 6.12311   5
   0  -4  -4 103.377 5.92759   8
   0   4   4 117.977 6.14058   6
   0   4   4 100.411 5.92497   3
   0  -4  -4 111.444 5.80811   7
   0  -4  -4 109.590 6.16155   2
   0  -4  -4 108.526 5.91955   4
   0   4   5-1.70480 1.66062   6
   0  -4  -5-0.63016 1.09040   7
   0  -4  -5 0.12619 1.38623   8
   0   4   5 1.18394 1.82893   5
   0  -4  -5 1.10713 1.70159   2
   0   4   6 45.3388 3.70545   5
   0  -4  -6 44.6417 2.96772   7
   0  -4  -6 45.0585 3.44618   2
   0   4   7 1.26297 2.35011   6
   0   4   7 0.17245 1.83781   8
   0   4   8 18.9556 3.26629   6
   0   5   2 6.75523 1.14893   4
   0  -5  -2 3.91398 1.38834   5
   0  -5  -2 6.14062 1.46685   6
   0   5   2 3.88698 1.40201   6
   0  -5  -3 76.3692 4.28919   4
   0   5   3 69.1295 4.37438   5
   0  -5  -3 75.9867 4.46875   5
   0  -5  -3 73.9550 4.21448   8
   0   5   3 64.5056 4.00624   7
   0   5   3 83.0099 4.48741   2
   0  -5  -3 74.7133 4.36254   6
   0   5   3 79.0012 4.33869   6
   0   5   4 160.843 8.78338   2
   0   5   4 158.143 8.48752   7
   0  -5  -4 152.313 8.54758   4
   0   5   4 170.246 8.83746   5
   0  -5  -4 162.305 8.59691   8
   0  -5  -4 170.275 8.80817   6
   0   5   4 159.858 8.77160   6
   0   5   5 621.069 31.5829   5
   0  -5  -5 620.038 31.3878   4
   0  -5  -5 637.085 31.6631   2
   0   5   5 613.377 31.5861   2
   0  -5  -5 603.790 31.3793   8
   0  -5  -6 147.032 8.31428   2
   0   5   6 136.920 7.94901   3
   0   5   6 159.064 8.36850   5
   0   5   6 141.261 8.18576   6
   0   5   7-0.74924 2.05338   8
   0   5   7 1.63500 2.93663   5
   0  -5  -7 0.48417 1.93856   7
   0   5   7 2.03088 2.51291   3
   0   5   7-1.17964 2.74409   6
   0   5   8 0.41406 2.97227   6
   0   5   8-1.94690 3.23926   5
   0   5   9 7.48544 4.18402   5
   0   5   9 5.62191 3.53839   6
   0   6   2 142.277 7.34786   6
   0   6   2 125.346 7.03007   4
   0  -6  -2 123.845 7.18813   5
   0  -6  -2 133.462 7.18188   6
   0   6   3 338.411 17.7011   2
   0  -6  -3 338.760 17.6830   5
   0  -6  -3 343.338 17.6390   6
   0   6   4 7.68141 1.37771   7
   0  -6  -4 12.1525 2.47444   5
   0   6   4 7.47678 2.21232   2
   0   6   4 8.26512 2.30090   5
   0  -6  -4 6.66432 1.68885   4
   0  -6  -4 7.03580 2.27452   6
   0  -6  -4 7.75319 1.73592   8
   0   6   5 25.1941 3.00881   2
   0   6   5 25.7458 2.86613   6
   0  -6  -5 27.3470 2.45690   4
   0   6   5 28.7391 3.02650   5
   0   6   6 4.26634 2.56937   2
   0   6   6 8.88048 2.85393   5
   0   6   6 7.22505 2.18702   3
   0   6   6 8.82841 2.83362   6
   0   6   7 79.6634 5.82361   5
   0  -6  -7 88.9773 5.14246   7
   0   6   7 86.2330 5.80449   6
   0   6   7 80.5027 5.48807   3
   0   6   8 54.3666 4.96621   5
   0   6   8 54.8957 4.72864   6
   0   6   8 60.5252 4.67683   3
   0   6   9 16.4399 3.91131   5
   0   6   9 8.68727 3.65816   6
   0   6  10 52.2191 5.28951   6
   0   6  10 51.9872 5.69624   5
   0  -7  -2 41.2933 3.25430   6
   0  -7  -2 33.3039 2.99395   5
   0   7   3 210.525 10.3914   7
   0  -7  -3 184.772 10.7339   5
   0   7   3 197.085 10.8765   2
   0  -7  -3 190.029 10.7211   6
   0  -7  -4-1.69828 2.21084   6
   0   7   4-0.77563 2.36677   2
   0   7   4-1.06485 1.42862   7
   0   7   4 1.00471 2.29573   6
   0  -7  -4 3.35874 2.39143   5
   0   7   5 0.67091 2.63046   6
   0   7   5 1.17324 2.49497   2
   0   7   5 1.61959 2.86136   5
   0   7   5-0.21598 1.82760   7
   0   7   6 0.12630 2.55806   6
   0   7   6-0.78106 2.63429   2
   0   7   6-1.76548 2.18352   3
   0  -7  -6 0.60255 2.20376   8
   0   7   6-2.94418 2.85597   5
   0   7   7 119.619 7.27003   3
   0   7   7 127.862 7.84436   5
   0   7   7 131.141 7.73041   6
   0  -7  -7 117.690 7.15693   8
   0   7   8 13.2433 3.56322   5
   0   7   8 7.92489 3.10125   3
   0   7   8 7.66724 3.45987   6
   0   7   9 23.4768 4.46897   5
   0   7   9 30.7758 4.23966   3
   0   7   9 22.3304 4.37237   6
   0   7  10 3.74111 4.22569   5
   0   7  10 0.20035 4.34058   6
   0   7  11 32.1112 5.60873   6
   0   8   3 334.146 16.0174   2
   0   8   3 316.948 15.8406   6
   0   8   4 3.06846 1.77414   7
   0   8   4 5.91188 3.04229   2
   0   8   4 4.50893 2.74993   6
   0  -8  -5 0.29843 2.22168   8
   0   8   5 1.58805 2.86372   6
   0   8   5 0.43773 1.91539   7
   0   8   5 4.92885 2.76927   2
   0   8   6-0.26915 3.05101   6
   0  -8  -6 0.76521 2.34893   8
   0   8   6-0.88528 2.34356   3
   0   8   6 3.30527 3.24938   2
   0   8   7 91.7914 6.25207   3
   0   8   7 97.5142 6.94343   5
   0   8   7 116.547 7.00962   6
   0   8   7 104.811 6.95030   2
   0   8   8 24.4184 4.13073   5
   0   8   8 25.3875 3.54313   3
   0   8   8 23.2497 4.07052   6
   0   8   9 1.17613 3.57531   3
   0   8   9 0.89095 3.69419   6
   0   8   9 0.18088 3.88663   5
   0   8  10 44.6618 5.47545   6
   0   8  11 3.15551 5.22550   6
   0   9   3 0.36334 3.59671   2
   0   9   3 1.70786 4.74039   6
   0   9   3 2.32248 2.38991   4
   0   9   4 150.002 9.72672   6
   0   9   4 158.008 9.76587   2
   0   9   4 179.076 9.23419   7
   0   9   5 140.132 7.33918   7
   0   9   5 116.455 7.94237   2
   0   9   5 119.476 7.91227   6
   0  -9  -5 123.946 7.45567   8
   0   9   6 61.1848 5.36983   6
   0   9   6 65.5497 4.67990   3
   0   9   6 68.5546 5.42937   2
   0   9   7-2.34688 2.86683   3
   0   9   7-1.01685 3.82445   2
   0   9   7 2.36821 3.59121   6
   0   9   8-0.12733 3.16358   3
   0   9   8 4.86071 4.19067   5
   0   9   8 1.02397 3.96026   6
   0  -9  -8 0.26415 2.89615   8
   0   9   9 9.32624 4.01235   6
   0   9   9 3.73176 3.44925   3
   0   9  10-1.66282 4.53196   6
   0   9  10 9.05271 4.38941   3
   0  10   3 0.96996 4.29493   2
   0  10   4 21.1046 4.08641   2
   0  10   4 32.6129 4.19927   7
   0  10   4 22.9123 3.09295   4
   0  10   4 33.5059 5.56217   6
   0  10   5 0.81024 2.93241   7
   0  10   5 1.15043 3.55757   2
   0  10   5 1.63199 3.85343   6
   0  10   6 55.0367 4.66697   6
   0  10   6 47.5381 4.60917   2
   0 -10  -7 0.41442 3.07632   8
   0  10   7 0.34157 3.98837   6
   0  10   7 1.63421 3.89078   2
   0  10   7 3.24257 2.99721   3
   0 -10  -8-0.84597 3.15496   8
   0  10   8 5.27647 4.02638   6
   0  10   8 1.89571 3.26535   3
   0  10   9 45.7243 5.40013   6
   0  10   9 40.2796 4.71074   3
   0  10  10 10.0715 4.36020   3
   0  11   4-7.19689 4.76617   2
   0  11   4-2.33330 7.01997   7
   0  11   4-0.56641 2.85829   4
   0  11   5 25.4973 4.40663   2
   0  11   5 35.7145 5.53085   6
   0 -11  -6 4.45383 2.90457   8
   0  11   6-1.65816 3.79243   2
   0  11   6 6.89857 4.46876   6
   0  11   7-3.45417 4.43592   6
   0 -11  -7-0.14280 3.23320   8
   0  11   7-2.35861 4.00334   2
   0  11   7 6.05785 3.36523   3
   0 -11  -8 31.1560 4.25670   8
   0  11   8 41.1628 5.25645   6
   0  11   8 30.3819 4.94960   2
   0  11   8 37.4117 4.57348   3
   0  11   9-5.61734 4.95199   6
   0 -11  -9-2.78147 3.85043   8
   0  11   9 0.48076 3.82870   3
   0  11  10-3.60879 4.44907   3
   0  11  11 3.30788 4.99883   3
   0 -12  -5-1.67689 2.89777   8
   0  12   5-0.68295 4.57985   2
   0  12   6 19.0897 4.75142   2
   0  12   6 37.7572 6.63055   6
   0 -12  -6 31.1844 3.62356   8
   0  12   7 1.94721 4.50822   2
   0 -12  -7 10.0667 3.48764   8
   0  12   7 5.95313 4.33120   3
   0  12   7 6.52188 5.00750   6
   0  12   8 5.09872 4.22007   3
   0 -12  -8 1.62601 3.60582   8
   0  12   9 5.92048 4.57846   3
   0 -12  -9 3.10527 3.94772   8
   0  12  10-0.98622 4.74414   3
   0 -13  -6 7.04435 3.16457   8
   0  13   6-2.16158 4.80315   2
   0  13   7 9.08223 5.65377   3
   0 -13  -7 0.30722 3.38676   8
   0 -13  -8 14.4309 4.12020   8
   0  13   8 21.6609 5.78284   3
   0  13   9-0.91856 5.24718   3
   0 -13  -9 0.18009 4.08549   8
   0  14   7 6.87218 8.59154   3
   0 -14  -7 5.78289 3.51940   8
   0 -14  -8 0.35781 3.98031   8
   0  14   8 2.50773 7.86558   3
  -1   0   3 653.593 32.9093   8
  -1   0   2-0.03050 0.50887   8
   1   0  -1 58.2866 2.97668   2
   1   0  -1 57.3739 3.03663   8
   1   0  -1 56.6489 2.98412   4
  -1   0   1 57.1971 3.03525   8
   1   0   0 0.18175 0.40627   3
   1   0   0-0.11112 0.43129   7
   1   0   1 1360.38 66.9257   7
  -1   0  -1 1326.38 66.8935   3
  -1   0  -1 1330.44 66.9271   1
   1   0   1 1354.86 66.9053   3
  -1   0  -1 1310.55 66.9095   7
  -1   0  -2-0.22997 0.68846   3
   1   0   2-0.04583 0.68285   1
  -1   0  -2-0.05053 0.92820   1
  -1   1   4 202.911 10.5544   8
   1  -1  -3 635.103 31.9214   2
   1  -1  -3 626.098 31.8985   8
  -1   1   3 638.664 31.9108   8
   1  -1  -2 13.1416 1.03700   8
  -1   1   2 14.5603 1.01553   6
   1  -1  -2 12.6361 0.98012   2
  -1   1   2 9.61250 0.98593   8
  -1   1   2 15.5995 1.07459   2
   1   1  -1 16.1497 1.01660   4
   1  -1  -1 13.7733 0.91431   6
  -1   1   1 12.6157 0.91805   2
   1  -1  -1 14.2333 0.87008   7
  -1   1   1 11.4915 1.03283   1
  -1   1   1 13.8553 0.91038   6
  -1   1   0 277.744 14.3262   7
  -1  -1   0 282.247 14.3592   4
  -1   1   0 285.145 14.3054   3
   1  -1   0 273.051 15.4043   6
  -1  -1   0 288.557 14.3236   5
   1  -1   0 269.288 14.3432   7
  -1   1   0 301.302 14.4470   1
   1   1   0 288.817 14.3208   5
   1   1   1 1096.76 16.5061   3
   1   1   1 1074.12 16.4910   5
  -1  -1  -1 1068.18 16.0388   2
  -1  -1  -2 180.391 8.91507   1
   1   1   2 170.354 8.99431   7
  -1  -1  -2 175.571 8.96197   3
   1   1   2 163.562 8.99106   3
  -1  -1  -3 35.2957 2.15975   1
   1   1   3 29.6534 2.22483   3
  -1   2   6 4.72609 1.58475   8
   1  -2  -5 19.2699 2.01582   2
  -1   2   5 19.4127 1.75181   8
   1  -2  -4 21.4567 1.35720   3
  -1   2   4 18.0690 1.83798   6
   1  -2  -4 19.1726 1.77355   2
  -1   2   4 14.3201 1.58547   8
  -1   2   3 11.4583 1.20092   6
  -1   2   3 10.1628 1.15858   8
  -1   2   3 8.36141 1.24315   2
  -1   2   3 8.64824 0.94520   1
  -1   2   3 9.46240 0.98544   5
   1  -2  -3 9.57152 1.18829   2
  -1   2   2 732.537 37.1584   1
   1  -2  -2 737.404 37.2222   2
  -1   2   2 716.460 37.1635   6
  -1   2   2 753.275 37.0519   5
   1  -2  -2 752.095 37.1835   8
   1  -2  -2 734.763 37.1723   6
   1  -2  -1 1113.94 56.4208   6
  -1   2   1 1129.62 56.2975   7
   1  -2  -1 1139.55 56.5037   1
  -1   2   1 1121.36 56.4302   6
  -1  -2   0 380.462 18.8988   6
  -1  -2   0 374.014 19.0280   5
  -1  -2   0 368.742 19.0596   4
   1   2   1 11.6643 1.09474   5
  -1  -2  -1 12.3396 0.88635   6
  -1  -2  -1 11.3619 1.14972   5
   1   2   1 12.8438 0.88587   6
   1   2   1 12.8144 0.88996   2
  -1  -2  -1 12.1542 1.09745   4
   1   2   1 14.4739 1.18867   7
  -1  -2  -2 11.0002 1.21504   7
   1   2   2 13.5656 1.25793   3
   1   2   2 11.5298 1.30631   5
   1   2   2 12.6072 0.99364   6
   1   2   2 9.09681 1.09393   7
  -1  -2  -2 12.8880 1.03775   2
   1   2   3 120.226 6.55103   3
  -1  -2  -3 119.408 6.47602   7
  -1  -2  -3 126.057 6.33688   1
   1   2   3 112.504 6.56440   7
  -1  -2  -4 7.91504 1.45523   7
  -1  -2  -4 8.93769 1.26514   1
   1   2   4 9.17581 1.76336   3
   1   2   5 24.2615 2.68240   3
  -1   3   7 370.017 19.2252   8
  -1   3   6 46.6968 3.34240   8
  -1   3   5 485.814 24.6436   6
  -1   3   5 475.998 24.5537   8
   1  -3  -5 481.345 24.6393   2
  -1   3   4 64.5810 4.02254   2
   1  -3  -4 64.6881 4.01913   2
  -1   3   4 71.7132 3.97760   8
  -1   3   4 63.7424 3.99638   6
   1  -3  -3 50.8127 2.68083   4
  -1   3   3 48.4439 2.86968   5
   1  -3  -3 53.2079 3.15807   2
  -1   3   3 50.1117 3.04368   6
  -1   3   3 46.7020 3.01847   2
   1  -3  -3 48.4741 3.01901   6
   1  -3  -2 97.0444 5.02553   5
  -1   3   2 95.1531 5.15649   6
   1  -3  -2 90.3480 5.08510   1
   1  -3  -2 97.6037 5.13548   6
  -1   3   2 95.0377 5.20066   2
  -1   3   1 17.5468 1.51244   6
   1  -3  -1 17.8905 1.39032   6
   1   3   0 234.805 12.0889   4
   1   3   1 24.9798 1.62336   6
   1   3   1 28.5473 1.77169   2
  -1  -3  -1 25.0531 1.87806   5
  -1  -3  -1 29.1162 1.71231   6
   1   3   1 26.3463 1.88049   4
   1   3   2 34.2735 2.16492   6
  -1  -3  -2 34.8012 1.89960   8
   1   3   2 36.5563 2.39833   5
   1   3   2 31.7207 2.27302   7
   1   3   3 708.047 36.0306   5
   1   3   3 710.175 35.9326   7
   1   3   3 715.916 35.8629   6
   1   3   3 712.313 35.6966   8
   1   3   3 709.764 35.9538   3
  -1  -3  -3 707.610 35.9563   7
   1   3   4 98.2516 5.31669   8
  -1  -3  -4 100.651 5.61937   7
   1   3   4 104.375 5.72621   3
   1   3   4 96.3194 5.56961   6
   1   3   4 88.7312 5.73818   5
  -1  -3  -4 105.464 5.32398   1
   1   3   5 192.554 10.3233   3
   1   3   5 188.689 9.97162   8
  -1  -3  -5 194.947 10.2639   7
   1   3   6 39.7274 2.91982   8
  -1  -3  -6 50.8927 3.89299   2
   1   3   6 47.5539 3.97329   3
  -1   4   9 3.13298 2.90941   6
  -1   4   8 105.741 6.75724   6
  -1   4   7 17.5702 2.90702   6
  -1   4   6 4.49604 1.88580   8
   1  -4  -6 2.41249 1.30979   7
  -1   4   5 13.6394 1.53472   3
  -1   4   5 15.4321 2.12734   6
  -1   4   5 13.8686 2.35867   2
   1  -4  -4 663.840 33.2809   4
   1  -4  -4 705.851 33.7700   2
  -1   4   4 678.364 33.6431   6
   1  -4  -4 647.336 33.1406   7
  -1   4   4 671.711 33.2733   3
  -1   4   4 662.415 33.6022   2
   1  -4  -3 20.8833 1.89752   6
   1  -4  -3 15.0066 1.42120   1
  -1   4   3 19.0740 1.76951   6
  -1   4   3 19.6713 1.92935   2
   1  -4  -3 22.1385 1.76025   5
  -1   4   2 73.7117 4.26296   2
   1  -4  -2 70.4527 4.04371   5
   1  -4  -2 76.5583 4.18789   6
  -1   4   2 71.1915 4.13776   6
   1   4   0 52.3176 3.34994   4
   1   4   1 1.94341 1.09254   4
   1   4   1 3.41647 1.29386   6
  -1  -4  -1 3.88136 1.38851   5
   1   4   2 502.923 25.2894   6
   1   4   2 493.730 25.3234   2
  -1  -4  -2 499.237 25.1332   8
  -1  -4  -2 504.042 25.4913   5
   1   4   2 512.515 25.3955   7
   1   4   2 484.943 25.4190   5
   1   4   3 74.3069 4.17102   6
   1   4   3 67.3858 4.37196   5
  -1  -4  -3 75.8029 4.26393   4
  -1  -4  -3 71.1905 3.86312   8
   1   4   3 70.2127 4.15197   2
   1   4   3 69.1001 4.14104   7
   1   4   4 57.5000 3.70847   7
   1   4   4 53.8034 3.79881   3
  -1  -4  -4 57.1665 3.68350   7
   1   4   4 61.2852 3.66757   6
  -1  -4  -5 17.3101 2.23369   2
   1   4   5 19.2185 2.27231   6
   1   4   5 14.0148 1.62149   8
   1   4   5 18.5053 2.47525   3
   1   4   6 345.916 17.9125   3
   1   4   6 335.371 18.0891   5
   1   4   6 332.597 17.5403   8
  -1  -4  -6 356.053 17.9106   2
   1   4   7 3.44284 2.88491   6
   1   4   7 4.14891 3.17788   3
   1   4   7 2.23124 1.96361   8
   1   4   8 6.65128 3.96909   6
  -1   5   9 43.8285 4.15986   6
  -1   5   9 34.4876 4.08945   5
  -1   5   8 131.898 6.73430   6
  -1   5   8 124.526 6.59265   5
   1  -5  -7 41.9433 2.69564   7
  -1   5   7 38.5870 3.74148   6
  -1   5   7 38.0824 3.61596   5
   1  -5  -7 38.3339 3.34648   8
   1  -5  -7 38.6610 2.85240   4
   1  -5  -6 16.2604 1.50056   7
   1  -5  -6 19.4675 1.83490   4
  -1   5   6 20.9133 2.93162   6
  -1   5   6 13.8942 2.01128   3
   1  -5  -6 21.8231 2.65396   8
  -1   5   5 73.7123 4.06978   3
  -1   5   5 64.2735 4.71052   2
  -1   5   4 116.470 6.71367   2
  -1   5   4 120.022 6.70443   6
   1  -5  -4 119.472 6.68621   6
  -1   5   2 249.025 12.8503   4
   1  -5  -2 265.212 13.1692   6
   1  -5  -2 255.373 13.0272   5
  -1   5   2 238.427 13.1229   6
  -1  -5  -2 116.374 6.14659   4
   1   5   2 108.582 6.08351   4
   1   5   2 116.623 6.07401   2
  -1  -5  -2 104.934 6.23244   5
  -1  -5  -1 208.927 11.3585   5
   1   5   1 220.732 11.2974   4
   1   5   2 99.8490 5.95249   6
   1   5   3 63.4197 3.75269   2
   1   5   3 57.3391 3.73705   6
  -1  -5  -3 69.3901 4.25239   5
  -1  -5  -3 59.6556 3.82589   4
  -1  -5  -3 58.1741 3.39768   8
   1   5   3 56.7442 3.71765   7
   1   5   4 5.03866 1.94464   3
  -1  -5  -4 6.70375 1.23321   8
   1   5   4 9.35568 2.07263   6
   1   5   4 7.78226 2.01544   2
   1   5   5 8.68339 2.40409   5
  -1  -5  -5 10.8022 2.09350   4
   1   5   5 11.4110 2.44047   3
  -1  -5  -5 10.7161 2.30255   2
   1   5   6 123.578 7.33427   6
  -1  -5  -6 121.027 7.39878   2
  -1  -5  -6 123.131 6.61661   1
  -1  -5  -6 137.417 7.30056   7
   1   5   6 126.425 7.64102   5
   1   5   6 127.322 7.42102   3
   1   5   7 20.8517 3.68975   5
   1   5   7 28.3650 3.66158   3
   1   5   7 26.3100 3.31409   6
   1   5   7 24.3096 2.63386   8
   1   5   8 1.22456 3.29284   6
   1   5   8 2.88765 2.44895   8
   1   5   8 7.73860 4.37970   5
   1   5   9 8.73248 5.52188   5
   1   5   9 1.97179 4.53349   6
  -1   6  10 47.8781 5.17685   6
  -1   6  10 49.9680 5.06814   5
   1  -6  -9 39.8849 3.38968   7
  -1   6   9 40.9867 4.36140   5
  -1   6   9 36.6800 4.38401   6
   1  -6  -9 42.2253 3.45518   4
  -1   6   8 21.8806 3.60826   6
   1  -6  -8 32.4668 2.48544   7
  -1   6   8 28.7707 3.63136   5
  -1   6   7 0.81342 2.13238   3
  -1   6   7 3.84774 2.97888   6
   1  -6  -7 3.38597 2.49700   8
  -1   6   7 5.90390 2.74734   5
   1  -6  -7 1.13164 1.72511   4
   1  -6  -6 15.2129 1.82971   4
  -1   6   6 12.0675 2.93671   6
  -1   6   6 10.0106 3.05794   2
  -1   6   6 9.70354 2.69123   5
  -1   6   6 12.6660 1.91703   3
   1  -6  -6 13.9210 2.67431   8
  -1   6   5 66.8347 4.90687   6
   1  -6  -5 66.5695 4.53550   8
  -1   6   5 70.4069 4.18089   3
   1  -6  -5 72.1018 4.23557   4
  -1   6   5 79.5926 4.82439   2
  -1   6   4 131.266 7.93887   2
   1  -6  -4 141.748 7.93317   6
   1  -6  -4 146.418 7.78623   5
  -1   6   3 178.987 9.26733   2
   1  -6  -3 149.065 9.09325   6
   1  -6  -3 163.074 8.97440   5
  -1   6   3 177.801 8.75778   4
  -1   6   3 165.918 8.46947   7
   1   6   1 89.4893 5.02147   4
  -1  -6  -1 76.4393 4.92457   5
   1   6   2 167.413 9.71309   4
   1   6   2 184.592 9.80645   2
  -1  -6  -2 177.803 9.88561   5
   1   6   2 198.488 9.85979   6
  -1  -6  -3 0.85260 1.89940   6
   1   6   3-0.07918 1.74583   6
  -1  -6  -3 0.41890 1.29219   8
  -1  -6  -3-1.56392 2.38786   5
   1   6   3-0.50690 1.95411   2
   1   6   4 6.34817 2.57731   5
   1   6   4 4.21740 2.23587   2
  -1  -6  -4 4.83071 2.17286   4
   1   6   5 41.5525 3.62096   3
   1   6   5 48.7054 3.78630   2
   1   6   5 41.1841 3.35190   7
   1   6   5 50.1125 4.10323   5
   1   6   6 11.9718 2.91866   3
   1   6   6 11.4409 2.78819   6
   1   6   6 7.16585 3.06803   5
   1   6   7 53.1665 4.32775   3
   1   6   7 56.0112 4.58720   6
   1   6   7 46.9196 4.89817   5
   1   6   8 54.0289 4.70206   6
   1   6   8 56.2736 5.35164   5
   1   6   9 28.9774 4.44346   3
   1   6   9 35.7264 4.93845   6
   1   6   9 30.9148 5.27729   5
   1   6  10 7.17464 6.19513   5
   1  -7 -11 2.23807 3.10083   7
  -1   7  11 1.24246 4.29970   6
  -1   7  11-2.56964 3.90011   5
  -1   7  10-0.75938 4.45526   6
  -1   7  10 3.33572 4.17571   5
   1  -7 -10 1.35832 2.30682   7
  -1   7   9-4.56032 3.51608   5
  -1   7   9-0.17481 3.64336   6
   1  -7  -8 9.66263 3.13942   8
  -1   7   8 19.3581 3.70418   6
  -1   7   8 12.3483 2.91471   3
  -1   7   8 14.8947 3.40597   5
   1  -7  -7 14.3802 2.26615   4
  -1   7   7 11.9509 3.15070   5
  -1   7   7 8.14387 3.25174   2
   1  -7  -7 13.0447 2.97952   8
  -1   7   7 8.64761 2.26959   3
  -1   7   7 11.3102 3.54716   6
  -1   7   6 416.675 20.7170   6
  -1   7   6 386.057 20.1335   3
   1  -7  -6 379.084 20.1757   4
   1  -7  -6 390.875 20.4955   8
  -1   7   6 403.813 20.7166   2
  -1   7   6 392.741 20.5006   5
   1  -7  -5 1.01348 1.29373   1
  -1   7   5-0.45866 2.44242   6
  -1   7   5 3.77377 2.71080   2
   1  -7  -5 0.20409 2.19634   8
   1  -7  -4 30.5630 2.93305   5
   1  -7  -4 29.8499 2.93185   8
  -1   7   4 28.6092 3.25981   6
  -1   7   4 35.0590 3.21469   2
  -1   7   3 13.3981 1.81103   4
  -1   7   3 8.29125 2.88353   2
   1  -7  -3 12.0840 2.50406   6
   1  -7  -3 9.84474 2.21398   5
  -1   7   3 12.6824 2.64521   6
  -1   7   3 12.0305 1.11420   7
   1   7   1 1.22303 2.03684   4
  -1  -7  -1 0.86849 1.77156   5
  -1  -7  -2 97.0742 5.41541   6
   1   7   2 89.0494 5.59849   2
   1   7   2 95.4259 5.48874   4
  -1  -7  -2 78.3065 5.54213   5
  -1  -7  -3 22.8858 2.78042   4
   1   7   3 29.2001 2.75257   2
  -1  -7  -3 24.5808 2.64177   6
   1   7   3 20.5058 2.61907   7
   1   7   4 447.232 22.2754   2
  -1  -7  -4 463.502 22.3571   6
   1   7   4 390.196 22.0921   7
   1   7   5 4.47789 2.10497   7
   1   7   5 5.46008 3.11434   5
   1   7   5 2.94468 2.44220   2
  -1  -7  -5 4.14033 1.82135   8
   1   7   5 3.13092 2.58963   3
   1   7   5 4.90233 2.49773   6
   1   7   6 0.14579 3.26454   5
   1   7   6 7.41364 2.74565   3
   1   7   6-1.10327 2.58866   7
   1   7   6 0.59655 2.63743   6
   1   7   7 1.47487 2.85766   6
  -1  -7  -7 4.49656 1.09057   1
   1   7   8 12.6997 3.55225   3
   1   7   8 17.2270 3.53055   6
   1   7   8 15.7605 4.25975   5
   1   7   9 1.85206 4.39880   5
   1   7   9-0.85659 3.79565   3
   1   7  10-3.92075 5.33162   5
  -1   8  12 10.1630 4.62945   5
  -1   8  11 2.83856 4.54675   6
  -1   8  11 6.10136 4.10632   5
  -1   8  10 28.2598 5.03929   6
  -1   8  10 32.3678 4.86489   5
   1  -8  -9 15.7263 3.71670   8
  -1   8   9 15.8530 4.25542   6
  -1   8   9 16.7137 3.99218   5
  -1   8   8 26.4743 3.90304   5
   1  -8  -8 22.8692 3.03199   4
  -1   8   8 19.3266 4.19657   6
   1  -8  -8 19.9328 3.67797   8
  -1   8   8 18.4374 3.31554   3
  -1   8   7 22.0057 3.76212   6
  -1   8   7 21.5335 2.83160   3
  -1   8   7 19.5459 4.02638   2
   1  -8  -7 19.9914 3.49294   8
   1  -8  -6-1.19710 2.56853   8
   1  -8  -6-0.66569 1.51970   1
  -1   8   6-0.13827 2.92698   6
  -1   8   6-0.14185 3.19898   2
  -1   8   6-0.38483 2.08527   3
  -1   8   5 79.4978 5.32278   2
  -1   8   5 62.3877 5.07395   6
   1  -8  -5 69.8653 4.93387   8
  -1   8   4 15.8605 1.58515   7
  -1   8   4 21.8865 3.21093   6
  -1   8   4 23.2989 3.32716   2
  -1   8   4 21.3916 2.20898   4
   1  -8  -4 22.3029 2.94817   5
  -1  -8  -2 84.9944 5.58796   6
   1   8   2 104.211 5.84304   4
   1   8   3 14.1145 2.62405   7
   1   8   3 10.3323 2.51455   2
   1   8   3 14.0556 2.38496   4
  -1  -8  -3 12.6592 2.65075   6
   1   8   3 18.5600 3.53028   6
   1   8   4 0.78313 2.25019   7
   1   8   4-0.58361 2.76611   6
   1   8   4-0.45379 2.41275   2
  -1  -8  -4 2.13534 1.76554   8
   1   8   5 71.2526 5.33930   6
   1   8   5 88.7794 5.78204   2
   1   8   5 82.3034 5.15962   7
   1   8   6 11.1892 3.24875   2
   1   8   6 7.92887 3.18495   6
   1   8   6 9.29125 3.78507   5
   1   8   6 12.3486 2.89487   7
   1   8   7 23.2278 4.24088   5
   1   8   7 24.8707 3.73447   6
   1   8   7 15.5174 3.54943   3
   1   8   8 63.8311 6.01447   5
   1   8   8 60.5375 5.21865   3
   1   8   9 1.02573 4.28540   5
   1   8   9 4.53688 4.01777   3
   1   8  10 4.43256 4.44999   3
   1   8  10 6.57647 5.58614   5
   1   8  11 20.1517 6.79321   6
  -1   9  11-6.01357 4.62262   5
  -1   9  10 8.63523 4.47340   6
  -1   9  10 3.72759 4.39756   5
  -1   9   9 71.2317 5.78343   3
   1  -9  -9 64.4347 5.74736   8
  -1   9   9 63.9387 6.32626   6
  -1   9   9 83.5621 6.28130   5
  -1   9   8 19.5933 4.48764   6
  -1   9   8 18.3625 3.19757   3
   1  -9  -8 18.5059 3.75863   8
  -1   9   8 16.7568 4.64796   2
  -1   9   7 36.9565 4.29183   6
  -1   9   7 23.4250 4.51458   2
   1  -9  -7 26.8464 3.68138   8
  -1   9   7 22.2455 3.14389   3
  -1   9   6 4.87504 2.22624   3
  -1   9   6 4.04128 3.46024   6
   1  -9  -6 3.59248 2.76832   8
  -1   9   6 8.89165 3.49382   2
  -1   9   5 2.42164 3.42153   6
   1  -9  -5 4.93996 2.70956   8
  -1   9   5 6.12585 3.46578   2
  -1   9   4 33.8277 3.05922   4
  -1   9   4 36.2899 4.49851   2
  -1   9   4 31.5425 4.02295   6
  -1   9   4 27.1970 2.19096   7
  -1   9   3 57.3963 8.23185   2
   1   9   3 17.6196 2.84421   7
   1   9   3 20.0122 2.98163   4
   1   9   3 17.0753 3.08699   2
   1   9   4 10.0151 2.88590   7
   1   9   4 9.34029 3.88361   6
   1   9   4 8.40946 2.94215   2
   1   9   5 9.69014 2.79405   7
   1   9   5 7.93748 3.30281   6
   1   9   5 3.63833 2.92337   2
   1   9   6 12.8888 3.58155   2
   1   9   6 12.2007 2.95491   7
   1   9   6 19.9695 3.68560   6
   1   9   6 15.3486 3.48121   3
  -1  -9  -6 11.8025 2.54721   8
   1   9   7 25.5850 4.64489   5
   1   9   7 30.9679 4.04385   6
   1   9   7 29.9176 4.00392   3
   1   9   8 7.99939 4.41716   5
   1   9   8 7.74987 3.74325   3
   1   9   9 2.51074 3.96246   3
   1   9   9 4.45009 4.61603   5
   1   9  10 17.8270 4.77179   3
   1   9  10 13.9676 4.91934   6
  -1  10   9 1.84747 3.74712   3
  -1  10   9-2.03794 4.24810   6
   1 -10  -8 34.3065 4.24692   8
  -1  10   8 23.5892 4.86006   6
  -1  10   8 29.5029 3.77613   3
  -1  10   8 27.3289 4.85236   2
   1 -10  -7 25.4089 3.63086   8
   1 -10  -7 15.4583 2.23732   1
  -1  10   7 25.7121 4.39904   6
  -1  10   7 22.7412 4.53981   2
  -1  10   7 20.7182 3.10111   3
  -1  10   6 0.17826 3.70926   2
  -1  10   6 4.38006 4.00096   6
   1 -10  -6 2.95367 3.19731   8
   1 -10  -5 36.5631 4.14005   8
  -1  10   5 36.5545 4.82118   6
  -1  10   5 22.4240 4.47296   2
   1  10   3 16.4345 3.39336   2
   1  10   4 1.29854 3.11828   2
  -1 -10  -4 1.12111 2.07755   8
   1  10   4 3.35139 3.47555   7
   1  10   5 35.5051 4.13606   7
   1  10   5 32.5372 4.00338   2
   1  10   5 27.4640 4.68703   6
  -1 -10  -5 29.9781 3.26358   8
   1  10   6 66.4997 5.25720   3
  -1 -10  -6 58.9258 4.64779   8
   1  10   6 62.3983 5.35022   7
   1  10   7-0.32532 3.54358   3
  -1 -10  -7 0.69331 2.82124   8
  -1 -10  -8 2.05126 0.93823   1
   1  10   8 5.55315 4.07243   3
   1  10   9 8.96595 4.25455   6
   1  10   9 1.42112 4.16071   3
   1  10  10 4.94855 4.88241   6
   1  10  10 6.20458 4.76794   3
   1 -11 -10 5.98898 4.38950   8
  -1  11  10 7.52161 4.94006   3
  -1  11   9 3.33074 3.66216   3
  -1  11   8 5.87152 4.84489   2
  -1  11   8 5.58536 4.78572   6
  -1  11   8 4.67228 3.32005   3
  -1  11   7 44.7867 4.38761   3
   1 -11  -7 42.0876 4.62678   8
  -1  11   7 45.2673 5.60614   2
  -1  11   7 50.4895 5.70101   6
   1 -11  -6 8.98304 4.57385   8
  -1  11   6 6.98465 4.70510   2
  -1  11   6 0.19724 4.99074   6
   1  11   4 8.82020 4.24270   7
  -1 -11  -4-0.50849 2.18272   8
   1  11   4 0.48519 3.45757   2
   1  11   5 44.1340 5.60997   7
  -1 -11  -5 18.8424 3.08942   8
  -1 -11  -6 2.12630 3.06829   8
   1  11   6 8.09207 4.92232   7
  -1 -11  -7 12.8313 3.44501   8
   1  11   7 15.6823 4.45116   3
   1  11   7 24.1118 6.10426   7
   1  11   8 0.38611 4.25980   6
   1  11   8 1.84829 4.12922   3
   1  11   9 4.03849 4.63227   6
   1  11   9-1.34759 4.58963   3
   1 -12  -9 1.11633 4.05523   8
  -1  12   9 7.20175 4.24173   3
  -1  12   8 3.26922 3.90891   3
  -1  12   7 13.4115 5.58338   6
  -1  12   7 19.4994 5.71937   2
  -1  12   7 13.9183 4.34887   3
  -1  12   6 1.08557 5.90393   6
   1 -12  -6-2.49896 4.01975   8
  -1  12   6 10.1511 6.41704   2
  -1  12   5 6.13421 9.04218   2
   1 -12  -5 8.87960 5.31367   8
  -1 -12  -4 0.76264 2.33606   8
  -1 -12  -5 8.38208 2.78889   8
  -1 -12  -6 1.92474 3.17082   8
   1  12   6 10.8412 9.81245   7
   1  12   7 5.65517 4.22472   2
   1  12   7 5.53323 4.55506   3
   1  12   7 12.4963 5.52508   6
  -1 -12  -7 1.68371 3.58787   8
   1  12   8-1.09681 5.02214   6
   1  12   8 2.07597 4.63121   3
  -1  13   8 16.8191 5.57750   3
  -1  13   7 5.38286 6.36995   3
  -1 -13  -5 0.77581 2.86501   8
   1  13   6-1.45428 4.16293   2
  -1 -13  -6 4.95438 3.56121   8
  -1 -13  -7 8.17025 4.27119   8
  -1 -13  -8-1.03023 4.63429   8
  -2   0   5-0.08080 1.40134   8
  -2   0   4 209.570 11.0010   8
   2   0  -3 1.26189 0.91998   4
  -2   0   3-0.37599 1.02274   8
   2   0  -3-1.18097 1.00062   2
   2   0  -2 923.079 46.4175   2
  -2   0   2 928.503 46.4154   6
  -2   0   2 926.925 46.5291   8
   2   0  -1 0.42769 1.13598   7
   2   0  -1-0.25179 0.84457   3
  -2   0   1-0.14379 0.52012   6
   2   0   0 42.0348 2.63572   3
   2   0   0 45.0966 2.43342   5
   2   0   0 36.1034 2.73201   7
  -2   0  -1-1.38722 1.30528   7
   2   0   1 0.56460 1.26646   3
  -2   0  -1 0.43160 1.58052   1
   2   0   1-0.57219 1.33668   7
   2   0   2 90.1682 5.10695   3
   2   0   2 88.5001 5.12353   7
  -2   0  -2 82.6033 4.87513   3
  -2   0  -2 88.4270 5.15700   1
  -2   0  -2 85.2693 5.00142   7
  -2   0  -3 0.79351 2.08669   7
  -2   0  -3 0.41878 1.51852   3
  -2   0  -3 0.63696 2.46033   1
  -2   1   6 157.335 8.63453   8
  -2   1   5 46.9052 3.29786   8
   2  -1  -5 51.4785 3.40361   2
   2  -1  -4 196.237 10.4448   2
  -2   1   4 196.464 10.5379   8
   2  -1  -4 208.212 10.5471   8
  -2   1   3 3.18869 1.18509   8
  -2  -1   3 3.90593 1.12403   8
   2  -1  -3 4.11751 1.28096   8
   2  -1  -3 2.08635 1.11273   2
   2   1  -2 5.82041 1.07241   4
  -2   1   2 5.86069 0.95035   6
   2  -1  -2 6.13191 0.76133   3
   2  -1  -2 4.31453 1.16610   8
  -2  -1   2 5.91241 1.00440   8
  -2   1   1 230.820 12.0069   4
   2  -1  -1 236.066 12.0057   6
   2  -1  -1 228.756 12.0315   3
  -2   1   1 244.694 12.0694   6
  -2  -1   1 234.744 12.0066   5
  -2   1   1 240.269 12.3408   1
  -2   1   1 237.497 12.0069   2
   2  -1  -1 242.705 12.1426   7
   2  -1   0 64.0173 3.34373   6
   2  -1   0 65.6860 3.69286   3
   2   1   0 62.2736 3.32341   8
  -2   1   0 61.6332 3.84340   1
   2   1   0 61.1403 3.46208   5
   2  -1   0 60.0018 3.68658   7
   2   1   0 64.4359 3.77902   7
   2   1   1 374.065 18.8951   3
  -2   1  -1 371.888 19.0632   1
   2   1   1 365.174 18.8013   5
   2   1   1 372.124 18.9358   7
  -2   1  -1 365.295 18.8954   7
   2   1   2 356.889 18.1621   3
  -2   1  -2 307.122 18.4110   1
   2   1   2 348.845 18.1714   7
  -2  -1  -2 336.528 18.1554   1
  -2   1  -2 399.536 18.3924   7
  -2  -1  -2 368.061 18.2039   7
   2   1   3 25.8509 2.64448   3
  -2  -1  -3 19.5345 2.27646   1
   2   1   4 34.7612 3.32649   3
  -2  -1  -4 46.1389 3.58214   1
  -2  -1  -4 31.8485 2.82737   3
   2  -2  -7 44.6684 3.98917   2
  -2   2   6 229.913 12.2445   8
   2  -2  -5 248.098 13.0478   2
  -2   2   5 242.322 13.0910   8
   2  -2  -5 256.528 13.0878   8
  -2   2   4 204.144 10.7450   5
   2  -2  -4 210.285 11.0622   8
   2  -2  -4 224.741 11.0708   2
   2  -2  -3 69.3642 4.00718   8
   2  -2  -3 71.4822 4.02200   2
  -2   2   3 62.1043 3.98527   1
   2  -2  -2 53.5658 3.29087   8
   2   2  -2 70.5407 3.62400   4
   2  -2  -2 54.7162 3.24113   6
  -2   2   2 52.2516 2.87030   4
  -2  -2   2 56.7748 3.15704   8
  -2   2   2 55.1245 3.51148   1
   2  -2  -2 57.1363 3.10372   7
   2   2  -1 41.4135 2.69947   4
   2  -2  -1 40.4330 2.55915   6
  -2   2   1 44.7572 2.60069   2
  -2   2   1 44.0225 2.94269   1
  -2  -2   1 41.7005 2.39178   8
  -2  -2   1 41.4897 2.57428   5
   2  -2  -1 45.1460 2.58024   7
  -2   2   0 80.7112 4.49594   3
   2  -2   0 100.418 4.64242   6
  -2   2   0 75.1187 5.04482   1
  -2  -2   0 79.1079 4.56796   5
  -2  -2   0 74.5049 4.60817   4
  -2  -2  -1 28.2797 2.17648   4
   2   2   1 23.3168 2.03438   5
   2   2   1 24.9986 2.22736   7
   2   2   2 45.2982 2.65011   6
  -2  -2  -2 47.0364 2.66323   2
   2   2   2 54.6554 3.27048   3
   2   2   2 45.0887 3.16643   5
   2   2   2 48.6744 3.26575   7
   2   2   3 48.0287 3.46528   7
  -2  -2  -3 48.8670 2.87710   2
   2   2   3 48.7489 3.56907   3
  -2  -2  -3 42.7540 3.28934   1
   2   2   3 50.3074 3.47922   5
   2   2   4 208.576 11.6140   3
  -2  -2  -4 194.684 11.3536   1
  -2  -2  -4 238.543 11.3484   2
   2   2   5 136.876 8.19682   3
  -2   3   8 34.9865 3.73423   6
  -2   3   7 62.3331 4.80515   6
   2  -3  -7 72.2155 3.98153   3
  -2   3   6 26.2981 2.47592   1
  -2   3   6 26.9771 2.40893   5
   2  -3  -6 30.5986 2.82006   8
  -2   3   5 3.65549 1.79439   1
  -2   3   5 6.46190 1.48573   5
   2  -3  -5 3.69523 1.82413   8
   2  -3  -5 3.75399 1.87164   2
   2  -3  -4 110.249 6.46854   2
   2  -3  -4 115.978 6.38432   8
  -2   3   4 112.988 5.98456   5
   2  -3  -3 29.5778 2.44131   6
  -2   3   3 32.1587 2.71382   1
   2  -3  -3 33.4168 2.56582   8
   2  -3  -2 97.8887 5.38231   6
  -2   3   2 123.289 5.88575   1
  -2  -3   1 46.6425 3.00012   5
   2   3  -1 49.2514 3.10336   4
   2  -3  -1 48.0851 2.89403   6
   2  -3  -1 46.2091 3.26643   1
  -2   3   1 43.9223 2.73706   7
  -2  -3   0 506.348 25.6435   4
  -2  -3   0 514.948 25.2669   6
   2   3   0 466.170 25.2640   2
  -2  -3   0 490.471 25.5423   5
   2   3   0 517.066 25.5874   4
  -2   3   0 569.679 25.5640   7
   2   3   1 8.27060 1.73592   7
  -2  -3  -1 4.22137 1.43390   4
   2   3   1 5.85093 1.62717   5
   2   3   2 59.4834 3.84815   3
   2   3   2 58.0728 3.76505   5
  -2  -3  -2 56.2376 3.80410   4
   2   3   2 57.4406 3.95224   7
   2   3   3 101.074 6.23039   7
  -2  -3  -3 107.252 5.77696   2
   2   3   3 113.025 6.20036   3
   2   3   3 103.271 6.18635   5
  -2  -3  -3 104.797 6.13415   4
  -2  -3  -4 14.2354 2.05458   1
   2   3   4 11.0956 1.05675   8
   2   3   4 8.46485 2.45397   3
  -2  -3  -4 14.4858 1.70356   2
   2   3   4 8.83135 2.56152   7
  -2  -3  -5 23.4234 2.55895   2
   2   3   5 25.7602 3.44281   5
   2   3   5 25.8732 2.03309   8
   2   3   5 24.7265 3.00823   3
   2   3   6 28.8967 3.92016   3
  -2  -3  -6 30.4224 3.55862   2
  -2   4   9 8.09809 2.93744   5
  -2   4   9 13.3789 3.35776   6
  -2   4   8 2.88727 2.57566   5
  -2   4   8 3.54067 2.76573   6
  -2   4   7 35.3593 3.56747   6
  -2   4   7 41.2387 3.15680   5
   2  -4  -7 39.8711 3.46509   8
   2  -4  -6 44.2047 2.58754   4
  -2   4   6 50.8098 3.80201   6
   2  -4  -6 44.1477 3.77009   2
  -2   4   6 50.9707 3.32768   5
   2  -4  -6 54.8571 3.71906   8
  -2   4   5 5.34540 2.14925   6
   2  -4  -5 3.76408 1.98434   8
  -2   4   5 4.25865 1.56467   5
   2  -4  -4 20.6919 2.29231   8
   2  -4  -3 446.819 23.0452   6
   2  -4  -3 452.942 23.0509   8
   2  -4  -2 3.19241 1.43308   6
   2  -4  -2 1.60744 1.46789   1
   2  -4  -1 222.642 12.2877   6
  -2   4   1 223.109 12.0273   7
  -2  -4   0 12.6334 1.22380   6
   2   4   0 16.3476 1.96159   4
  -2  -4  -1 147.836 8.27436   4
  -2  -4  -1 148.173 7.84203   6
   2   4   1 160.070 8.35335   7
   2   4   2 18.3008 2.49864   7
  -2  -4  -2 20.4623 2.43675   4
   2   4   2 21.3497 2.53008   5
  -2  -4  -3 7.65747 2.22085   4
   2   4   3 6.12400 2.09920   7
   2   4   3 6.80295 2.07909   3
  -2  -4  -4 75.2050 4.48263   2
   2   4   4 69.3772 4.78678   3
   2   4   4 70.7307 4.95944   5
   2   4   4 73.1142 4.87489   7
  -2  -4  -5 1.57166 1.99623   2
   2   4   5 3.91400 1.86979   6
  -2  -4  -5 4.62572 2.01718   1
   2   4   5 1.38879 2.62449   3
   2   4   5 2.53290 2.67828   5
  -2  -4  -6 4.88482 2.45763   1
   2   4   6 4.97078 3.15367   3
   2   4   6 4.48545 3.13374   5
   2   4   6 8.93138 1.65645   8
  -2  -4  -6 10.8462 2.67454   2
  -2   5  10 10.0245 3.60938   6
  -2   5  10 6.39289 3.22053   5
   2  -5  -9 14.4929 2.07094   4
  -2   5   9 12.5447 3.60604   6
  -2   5   9 10.9566 2.91846   5
   2  -5  -8 56.7178 3.42119   4
  -2   5   8 57.9068 4.75901   6
  -2   5   8 53.3513 4.17696   5
   2  -5  -7 215.664 11.0265   4
  -2   5   7 236.941 11.9968   6
  -2   5   7 221.100 11.5260   5
   2  -5  -7 206.778 10.8719   7
   2  -5  -7 222.538 11.7785   8
  -2   5   6 43.7995 3.86719   6
   2  -5  -6 45.3359 3.87400   8
  -2   5   6 44.4337 3.33067   5
  -2   5   5 2.23097 2.14898   6
  -2   5   5 0.42197 2.31026   2
   2  -5  -5 0.70060 2.01070   8
   2  -5  -4-0.09475 2.14682   6
   2  -5  -4 1.12390 2.01404   8
   2  -5  -2 21.7816 2.38158   6
   2   5  -1 0.23185 4.56005   4
   2  -5  -1 25.5157 3.30016   6
   2   5   0 48.4924 3.49356   4
  -2  -5   0 40.7258 2.62532   6
  -2  -5  -1 78.0135 4.98695   4
  -2  -5  -2 108.426 6.44441   4
   2   5   2 113.279 6.56715   7
  -2  -5  -2 108.804 6.04874   6
   2   5   3 212.365 11.7675   5
   2   5   3 221.377 11.7711   7
   2   5   4 29.0083 3.11811   7
   2   5   4 28.5699 2.59313   6
   2   5   4 26.7719 3.31073   3
   2   5   4 34.3285 3.60635   5
  -2  -5  -5 8.72393 2.48798   2
   2   5   5 11.3448 2.82969   3
   2   5   5 8.85377 3.10341   5
   2   5   5 9.46084 2.91621   7
  -2  -5  -6 11.7466 2.70801   2
   2   5   6 10.3222 3.21631   3
  -2  -5  -6 10.9808 2.21773   1
   2   5   6 10.2451 3.28002   5
   2   5   7 8.70634 3.87256   5
   2   5   7 10.8229 2.91804   6
   2   5   7 12.4619 3.88020   3
   2   5   8 3.88564 4.78293   5
   2   5   8 3.95868 3.29107   6
   2   5   8 13.4909 4.48121   3
   2   5   8 3.59108 2.48225   8
  -2   6  11 1.55387 4.16668   6
  -2   6  11 3.85623 3.57971   5
   2  -6 -10 2.64859 1.95864   7
  -2   6  10-2.08264 3.49123   5
   2  -6 -10 4.02371 2.26544   4
  -2   6  10 4.88554 3.91854   6
   2  -6  -9 39.1704 2.93591   4
  -2   6   9 49.1474 4.69961   6
  -2   6   9 37.6030 3.89887   5
   2  -6  -9 36.7456 2.45551   7
   2  -6  -8 1.02815 1.66648   4
  -2   6   8 1.98572 3.56039   6
  -2   6   8 2.30926 2.80076   5
   2  -6  -8 0.26722 2.91549   8
  -2   6   7-1.39658 3.22335   6
   2  -6  -7 4.94934 2.75620   8
  -2   6   7 1.26761 2.51167   5
  -2   6   6 46.3354 3.86961   6
   2  -6  -6 39.3263 3.69438   8
  -2   6   6 40.4954 3.83888   2
  -2   6   5 202.571 10.3426   2
  -2   6   5 198.412 10.2842   6
   2  -6  -5 212.909 10.3233   8
  -2   6   5 167.190 9.54215   3
  -2   6   4 128.116 7.56118   2
   2  -6  -4 134.746 7.58263   6
  -2   6   4 132.981 7.60181   6
   2  -6  -4 127.412 7.48100   8
  -2   6   3 22.6764 1.64076   4
   2  -6  -3 20.4849 2.59869   6
   2  -6  -3 21.0336 2.15514   5
   2  -6  -2 110.370 6.59934   6
  -2   6   2 103.550 5.46342   7
   2   6   0 19.7049 3.17475   4
   2   6   1 158.824 9.28552   4
  -2  -6  -1 172.593 8.96294   6
   2   6   2 6.14989 2.26891   7
  -2  -6  -2 5.06234 1.81477   6
  -2  -6  -2 6.38371 0.83659   8
   2   6   3 24.8102 3.04862   7
   2   6   3 25.6190 2.64069   6
   2   6   3 24.4149 2.51167   2
   2   6   4 53.8145 3.80270   6
   2   6   4 56.6926 4.54882   3
   2   6   4 54.5373 4.22208   7
   2   6   4 53.5779 4.51765   5
   2   6   5 63.0039 5.05568   3
   2   6   5 58.0578 5.09899   5
   2   6   6 33.7600 4.22641   5
   2   6   6 31.2358 3.48465   6
  -2  -6  -6 27.8190 2.87287   1
   2   6   6 35.8959 4.03352   3
  -2  -6  -7 4.13720 2.37516   1
   2   6   7 30.2192 4.62242   3
   2   6   7 8.94950 3.14802   6
   2   6   7 21.1925 4.19455   5
   2   6   8 15.9780 3.73573   6
   2   6   8 11.2864 4.57095   3
   2   6   8 6.68020 4.27672   5
   2   6   9 3.38824 5.44153   5
   2   6   9 4.17455 4.14861   6
   2   6   9-8.71284 4.74728   3
  -2   7  11 30.3097 5.04005   6
  -2   7  11 24.7856 4.25091   5
  -2   7  10 0.96114 4.17733   6
   2  -7 -10 8.68167 2.51302   4
  -2   7  10 4.38726 3.59721   5
  -2   7   9 85.9621 6.30326   5
  -2   7   9 85.9965 6.89070   6
   2  -7  -9 103.132 5.67727   4
   2  -7  -9 92.9219 6.55257   8
  -2   7   8-0.11955 2.98805   5
  -2   7   8 4.43910 3.42604   6
   2  -7  -8 2.56805 3.32036   8
  -2   7   7-4.64284 3.40209   2
  -2   7   7 1.30783 3.09004   6
   2  -7  -7 4.23918 3.10835   8
  -2   7   6 1.88590 1.86511   3
  -2   7   6 1.32799 3.02123   6
  -2   7   6 2.87132 2.91688   2
   2  -7  -6-1.22596 2.64268   8
  -2   7   5 35.3689 2.35526   3
  -2   7   5 35.0948 3.67097   6
  -2   7   5 30.6310 3.46376   2
   2  -7  -5 36.9506 3.33081   8
  -2   7   4 0.85254 2.65157   2
  -2   7   4 3.22612 2.70729   6
   2  -7  -4 1.02710 2.48286   8
   2  -7  -4-0.82713 2.16628   5
  -2   7   3 65.9494 3.91963   4
  -2   7   3 52.7644 4.98162   2
  -2   7   3 46.8801 5.29256   6
   2   7   0-0.23453 4.55667   4
   2   7   1 146.379 7.44675   4
  -2  -7  -1 103.961 6.55322   6
   2   7   2 1.92669 1.95288   2
   2   7   2-1.12539 2.52126   7
  -2  -7  -2 0.99684 2.04712   6
  -2  -7  -2 1.08535 1.17451   8
   2   7   3 1.89352 2.29037   7
  -2  -7  -3 3.07730 2.34516   6
   2   7   3 2.62358 2.05344   2
   2   7   4 2.70285 2.48779   2
   2   7   5 37.1072 3.50902   6
   2   7   5 38.2221 3.98115   3
   2   7   5 30.0392 4.47918   5
   2   7   6 7.24255 3.02093   6
   2   7   6 2.75913 3.65605   3
   2   7   6 11.6050 3.96462   5
   2   7   6 7.46198 3.33085   7
   2   7   7 2.72582 3.10239   6
   2   7   7 3.12240 3.74005   3
  -2  -7  -7 2.04465 2.15013   1
   2   7   7 3.38087 4.00123   5
   2   7   8 4.41407 3.59351   6
   2   7   8 2.50459 4.17494   3
   2   7   8 6.42437 4.59239   5
   2   7   9 50.8483 5.24739   6
   2   7   9 40.2497 6.29543   5
   2   7   9 48.7124 5.93969   3
   2   7  10 5.58469 5.40988   6
  -2   8  12 16.1365 4.68716   5
  -2   8  11 4.23695 4.21556   5
  -2   8  10 2.85929 4.32571   6
  -2   8  10 2.93352 3.84883   5
  -2   8   9 16.2298 4.32542   6
   2  -8  -9 14.5359 3.83027   8
  -2   8   8 9.93761 4.06029   6
   2  -8  -8 8.33599 3.47295   8
  -2   8   7 5.19323 3.50919   2
  -2   8   7 9.56277 3.71346   6
   2  -8  -7 10.3407 3.37842   8
  -2   8   6 4.45166 3.34548   6
   2  -8  -6-3.03501 2.69128   8
  -2   8   6 4.07704 1.83300   3
  -2   8   6 6.66565 3.18456   2
  -2   8   5 96.5404 6.70645   2
  -2   8   5 101.686 6.78045   6
   2  -8  -5 103.802 6.47441   8
  -2   8   4 55.0210 4.97287   2
  -2   8   4 54.5830 5.02962   6
   2  -8  -4 53.0921 4.18216   5
  -2   8   3 0.91469 4.80377   2
   2  -8  -3-0.50497 4.03408   5
   2   8   1 67.1066 4.87032   4
  -2  -8  -1 43.0382 3.57097   6
   2   8   2 21.9949 2.73372   2
  -2  -8  -2 22.4132 2.94818   6
   2   8   3 30.9908 3.14646   2
  -2  -8  -3 28.9501 3.31312   6
  -2  -8  -3 29.2158 2.30927   8
   2   8   4 6.68869 3.02115   7
   2   8   4-0.89736 2.56525   2
  -2  -8  -4-0.14401 1.42768   8
   2   8   4 4.32211 3.17840   6
   2   8   5 51.6742 4.39905   6
   2   8   5 57.5737 4.91650   3
   2   8   5 46.7794 4.55780   7
   2   8   6 25.8506 3.64477   6
   2   8   6 25.2807 4.30162   3
   2   8   6 23.2587 3.77507   7
   2   8   6 30.0256 4.54449   5
  -2  -8  -7-0.60281 2.24731   1
   2   8   7-1.87850 4.10693   5
   2   8   7 0.27778 3.29116   6
   2   8   7 0.17457 3.85973   3
   2   8   8 17.0351 4.01301   6
   2   8   8 21.9834 4.65833   3
  -2  -8  -8 11.3327 2.63530   1
   2   8   8 11.8245 4.61863   5
   2   8   9 2.82912 4.15407   6
   2   8  10 0.43428 4.99048   6
  -2   9  12 1.97633 4.67556   5
  -2   9  10 0.21010 4.39687   6
   2  -9 -10 1.69615 4.02882   8
  -2   9   9 5.31174 4.19771   6
   2  -9  -9 3.05811 3.85446   8
  -2   9   8 62.5231 5.49765   6
  -2   9   8 42.9984 5.36077   2
   2  -9  -8 47.7619 4.94049   8
  -2   9   7 51.8641 5.32498   6
  -2   9   7 61.4840 4.27585   3
   2  -9  -7 50.7714 4.68047   8
  -2   9   7 46.6363 5.16302   2
  -2   9   6 52.6751 5.16707   2
  -2   9   6 53.3246 5.16790   6
  -2   9   6 61.9400 3.90866   3
   2  -9  -6 52.6881 4.85234   8
  -2   9   5-0.17019 3.70008   2
  -2   9   5 3.38212 3.65170   6
   2  -9  -5 0.77516 3.02897   8
  -2   9   4 44.3337 3.53511   4
  -2   9   4 28.2147 5.31517   2
  -2   9   4 42.3706 6.14648   6
   2   9   2 102.154 6.48627   4
   2   9   2 84.6614 5.95475   2
   2   9   3 68.0028 4.90579   2
  -2  -9  -3 66.4144 4.14026   8
   2   9   3 60.4539 5.08394   7
   2   9   4 24.6322 3.68226   7
   2   9   4 26.7592 3.45713   2
   2   9   4 33.4432 5.07113   6
  -2  -9  -4 22.7088 2.50188   8
   2   9   5 3.45263 3.39511   7
   2   9   5 1.52808 3.29101   2
   2   9   5 6.76578 3.58459   6
   2   9   5 0.47908 3.46207   3
   2   9   6 16.5979 3.71096   6
   2   9   6 20.4194 4.11926   3
   2   9   6 15.0049 3.84709   7
   2   9   7 6.85322 3.62414   6
   2   9   7 10.5936 4.36764   3
  -2  -9  -8 1.40033 2.17415   1
   2   9   8-0.16572 3.98174   6
   2   9   8 4.10510 4.70732   5
   2   9   9-0.55868 4.48165   6
   2   9  10-3.21387 5.25144   6
  -2  10   9 2.09784 4.68152   6
   2 -10  -9 2.72670 3.89052   8
  -2  10   8 19.1276 4.63312   2
  -2  10   8 18.9473 4.79468   6
   2 -10  -8 13.2143 3.93757   8
  -2  10   7 4.09627 4.31070   6
  -2  10   7 7.37286 4.50775   2
  -2  10   7 9.42994 3.05278   3
   2 -10  -7 6.13170 3.56841   8
   2 -10  -6 2.97887 2.38592   1
  -2  10   6 18.6355 4.47868   6
  -2  10   6 17.7409 4.40373   2
   2 -10  -6 16.0884 4.00212   8
  -2  10   6 21.1344 2.61654   3
  -2  10   5 11.8278 4.91367   6
   2 -10  -5 3.77599 4.35986   8
  -2  10   5 9.28579 4.97425   2
  -2  10   4-3.04133 4.77463   4
  -2  10   4 1.53262 7.66905   2
   2  10   3 14.0083 3.33159   7
  -2 -10  -3 15.5125 2.43884   8
   2  10   3 16.7198 3.57245   2
   2  10   4 15.4896 3.51985   2
  -2 -10  -4 17.1737 2.69783   8
   2  10   4 13.3461 3.83204   7
   2  10   5 0.84283 3.66262   7
  -2 -10  -5 1.10530 2.32191   8
   2  10   5 4.20277 3.51352   2
   2  10   5 1.07062 5.04063   6
   2  10   6 0.16608 3.90847   6
   2  10   6 1.27594 3.85439   3
   2  10   6 5.99372 4.13552   7
   2  10   7 28.2398 4.86991   6
   2  10   7 30.9839 5.25431   7
   2  10   8 0.54241 4.41942   6
   2  10   9 2.76204 4.60284   6
   2  10  10 0.22137 5.01197   6
  -2  11   8 3.72349 4.88954   6
   2 -11  -8 3.60772 4.02356   8
  -2  11   7 14.0886 5.19272   6
  -2  11   7 11.7760 5.02676   2
   2 -11  -7 9.74328 4.00999   8
  -2  11   6-5.20392 5.20192   6
   2 -11  -6 12.6450 5.10340   8
  -2  11   6-0.77680 5.26200   2
  -2  11   6 2.18401 2.77381   3
   2 -11  -5-4.16422 6.98076   8
  -2  11   5 2.70164 7.78337   2
   2  11   3-1.44496 3.34745   7
   2  11   3 5.40405 3.84147   2
   2  11   4-2.11793 3.98536   7
   2  11   4 3.06856 4.01012   2
   2  11   5 0.38983 4.14197   7
   2  11   5-2.37130 4.24608   2
   2  11   6 13.1181 6.09001   6
   2  11   6 12.4702 5.32425   7
   2  11   7-1.03355 5.14721   6
   2  11   7-2.62096 6.03206   7
   2  11   8 10.7876 5.05899   6
   2  11   9 1.09546 5.08715   6
   2  12   5 6.81910 5.22354   7
   2  12   5 6.78221 5.00871   2
  -2 -12  -5-1.08947 4.52429   8
   2  12   6 4.35112 5.06640   2
   2  12   6 2.38492 6.43617   7
   2  12   7-2.27047 7.07602   6
   2  12   7 2.99940 8.21424   7
   2  12   8 5.87756 6.29127   6
   2  13   5-2.38842 5.51150   2
   3   0  -6 2.13975 2.43278   2
   3   0  -5 180.484 9.80510   2
   3   0  -5 188.382 9.55878   4
  -3   0   5 172.668 9.82362   6
  -3   0   5 189.359 10.0318   8
  -3   0   4-0.75501 1.49377   6
   3   0  -4-0.41078 1.43467   2
   3   0  -2-0.24086 1.84427   7
   3   0  -2-0.77537 1.39872   8
  -3   0   2-0.62952 0.92606   6
  -3   0   1 33.8294 2.53727   4
   3   0  -1 36.9053 2.48124   8
   3   0  -1 34.9482 2.94204   7
   3   0   0 1.44225 1.89650   7
  -3   0   0-1.22633 1.50426   4
   3   0   0 0.13312 1.28396   8
   3   0   0 1.67424 1.78286   3
   3   0   0 0.71875 1.15840   5
  -3   0   0-2.06763 2.69452   1
  -3   0  -1 6.51423 2.60302   1
   3   0   1 3.97550 2.12629   3
   3   0   1 6.40833 1.65493   5
   3   0   1 8.53370 2.42841   7
  -3   0  -2-1.97509 3.04616   1
   3   0   2 3.96049 2.50106   7
  -3   0  -3 203.596 11.6312   1
  -3   1   7 11.9890 2.71536   6
   3  -1  -7-1.84378 2.76271   2
   3  -1  -6-0.57114 0.95214   4
  -3   1   6 2.88095 2.19945   6
   3  -1  -5 61.8196 4.16585   2
  -3   1   5 64.5424 4.24887   6
  -3   1   5 68.3690 4.43152   8
   3   1  -4 46.4858 3.11875   4
  -3   1   4 45.8214 3.18496   6
   3  -1  -4 50.0745 3.39035   2
   3  -1  -4 42.3887 3.32206   8
   3   1  -4 48.8224 3.11622   2
   3   1  -3 35.0115 2.28518   2
  -3  -1   3 38.8839 2.31018   6
  -3   1   3 34.2197 2.42145   6
   3  -1  -3 34.9660 2.24361   3
   3  -1  -3 38.7179 2.78015   8
  -3  -1   3 31.5915 2.08100   5
  -3   1   2 31.1310 2.11918   4
  -3  -1   2 24.1661 1.64863   6
   3  -1  -2 31.4066 2.13660   3
  -3   1   2 36.4341 2.33263   6
  -3   1   2 32.8707 3.00552   1
   3  -1  -2 30.6377 2.46534   8
   3  -1  -2 31.2823 2.55748   7
  -3   1   1 176.330 9.04076   4
  -3  -1   1 166.014 9.18890   4
   3   1  -1 168.722 9.17511   3
  -3   1   1 174.390 9.69586   1
   3  -1  -1 182.549 9.14439   8
   3  -1  -1 167.583 9.27026   7
  -3   1   1 166.318 8.81431   2
   3   1  -1 187.720 9.49728   7
  -3  -1   0 66.6494 4.04678   4
   3  -1   0 57.7153 3.38437   6
  -3   1   0 61.7003 3.44286   2
   3   1   0 63.7471 4.06189   3
  -3   1   0 67.3699 4.72165   1
   3  -1   0 63.7251 3.53505   5
   3   1   0 69.1871 3.59869   8
   3  -1   0 70.2615 4.26016   7
   3   1   0 74.3037 4.38378   7
   3   1   1 23.8635 2.72545   7
  -3  -1  -1 20.3026 2.29541   4
   3  -1   1 19.1100 1.40607   6
  -3   1  -1 12.9751 3.03363   1
   3   1   1 19.4512 2.53074   3
   3   1   1 20.5414 1.46848   8
   3   1   1 24.3926 2.17275   5
  -3  -1  -1 17.9618 2.78522   1
   3   1   2 75.7674 5.18161   3
  -3   1  -2 97.1792 6.18373   1
  -3  -1  -2 72.4825 5.41471   1
   3   1   2 80.1328 5.25613   7
  -3  -1  -3-0.19224 1.15622   2
   3   1   3-0.12199 2.86064   3
  -3  -1  -3 1.72690 2.96659   1
  -3  -1  -4 3.56531 3.69040   1
  -3   2   8 10.7668 2.87455   6
  -3   2   7 0.90095 2.57869   6
  -3   2   6 28.9767 3.01616   6
  -3   2   5 29.9524 2.81783   6
   3  -2  -5 26.8335 2.92827   2
  -3   2   4 103.750 6.12388   6
  -3  -2   4 114.623 6.23996   8
   3  -2  -4 106.312 6.30319   8
   3  -2  -4 107.535 5.98321   7
  -3   2   3 194.199 10.3603   6
  -3   2   3 184.192 10.8153   1
  -3  -2   3 193.673 10.3939   8
   3  -2  -3 204.301 10.6189   8
  -3  -2   3 205.616 10.3145   5
   3   2  -3 197.130 10.1874   2
  -3   2   1 22.8483 1.89477   2
  -3  -2   1 27.3558 2.46595   4
   3  -2  -1 20.0104 1.86215   6
   3  -2  -1 23.7099 2.38561   7
  -3   2   1 24.1715 3.37074   1
   3  -2  -1 25.8404 2.23705   8
   3   2  -1 25.9627 2.79688   7
  -3   2   1 23.0870 1.83137   4
   3   2   0 27.8392 3.04604   7
  -3  -2   0 30.5786 2.72515   4
  -3   2   0 34.9799 3.73852   1
   3  -2   0 24.7347 1.96752   6
   3   2   0 29.9306 2.67424   3
  -3  -2  -1 71.3336 4.73674   4
   3   2   1 72.7799 4.77563   3
  -3   2  -1 72.9566 6.01086   1
  -3   2  -1 83.5351 4.79350   3
   3   2   1 72.7227 4.86501   7
  -3   2  -1 75.4308 4.96846   7
   3   2   2 30.0161 3.28877   3
  -3  -2  -2 30.1880 3.09974   1
   3   2   2 37.6671 3.23428   7
  -3  -2  -3 3.82341 1.10747   2
   3   2   3 3.80527 1.02439   6
  -3  -2  -3 6.56325 2.85339   1
   3   2   3 5.45772 2.90949   3
   3   2   3 4.97570 2.75604   7
   3   2   4 6.92269 1.69660   6
  -3  -2  -4 8.13634 2.98948   1
   3   2   4 3.53216 3.21006   3
  -3  -2  -4 5.38302 1.62057   2
   3   2   5 14.2635 2.20236   6
   3   2   5 17.2181 3.83125   3
  -3  -2  -5 3.42852 1.98982   2
  -3   3   9 84.8867 5.78744   6
  -3   3   9 70.9823 4.99029   5
  -3   3   8 12.5665 3.09226   6
  -3   3   8 9.62080 2.17600   5
  -3   3   7 27.0028 3.21013   6
  -3   3   7 24.2798 2.37073   5
   3  -3  -6 4.92025 2.68080   2
  -3   3   6 3.63171 2.45069   6
  -3   3   6 3.38791 2.57817   1
   3  -3  -6 7.10110 2.61815   8
  -3   3   6 4.13262 1.37804   5
  -3   3   5 45.6782 3.67509   6
  -3   3   5 39.6684 3.85165   1
   3  -3  -5 47.8616 2.94654   7
   3  -3  -4 9.94262 1.59790   7
  -3   3   4 4.81583 2.09629   6
   3   3  -3 56.8275 4.30745   4
  -3   3   3 41.0751 3.36900   6
  -3   3   3 47.1631 4.07995   1
   3  -3  -3 48.0844 3.58118   8
  -3  -3   3 50.2275 3.21158   8
   3  -3  -3 46.0180 3.10868   7
  -3   3   3 47.0076 3.31144   2
   3   3  -2 35.2117 3.04130   4
  -3   3   2 31.9250 2.06730   4
  -3   3   2 34.0571 2.69555   2
   3  -3  -2 33.5470 2.64162   6
  -3   3   2 35.3909 3.62254   1
   3  -3  -2 38.2196 2.98763   8
  -3  -3   2 32.7113 2.32653   8
  -3  -3   2 38.3905 2.67789   5
   3  -3  -2 36.5898 2.76796   7
   3  -3  -1 21.7533 2.08247   6
  -3   3   1 22.9264 2.21026   2
  -3  -3   1 22.4182 2.43535   5
  -3   3   1 24.7117 3.57868   1
   3   3   0 1.19153 2.51286   7
  -3   3   0 1.86356 2.09028   7
  -3  -3   0 2.04814 2.12017   4
   3  -3   0 2.32542 1.50133   6
  -3   3   0 3.26764 1.73285   3
  -3  -3  -1 110.966 5.76638   4
   3   3   1 113.136 5.77117   3
   3   3   1 126.105 6.12382   7
   3   3   2 16.7818 2.91410   7
   3   3   2 9.99559 2.80009   3
   3   3   3 19.3121 1.55060   6
   3   3   3 25.0051 3.33479   3
  -3  -3  -3 29.4675 3.21857   1
   3   3   3 27.4521 3.35637   7
  -3  -3  -4 12.3702 2.02531   2
   3   3   4 12.7317 1.79435   6
   3   3   4 12.5397 3.22947   3
   3   3   4 12.3191 3.54424   7
  -3  -3  -5 33.5222 2.84136   2
   3   3   5 31.4063 2.89528   6
  -3  -3  -5 34.3082 3.91594   1
   3   3   5 29.1685 4.35341   3
   3   3   6-0.74983 1.25669   8
   3   3   6-1.14555 2.49749   6
   3   3   6 0.18083 3.84235   3
  -3  -3  -6 0.27875 2.32613   2
  -3   4   9 16.2125 3.55250   6
  -3   4   9 8.99221 2.69715   5
  -3   4   8 17.8776 3.48224   6
  -3   4   8 17.4632 2.52499   5
  -3   4   7 5.29589 2.86471   6
   3  -4  -7 0.90509 3.00483   8
  -3   4   7 0.06284 1.89104   5
  -3   4   6 215.383 11.3501   6
  -3   4   6 242.354 11.7695   1
   3  -4  -6 215.056 11.3850   8
   3  -4  -6 192.597 10.4874   7
   3  -4  -5 3.74731 1.10944   7
  -3   4   5 3.81337 3.18802   1
  -3   4   5 2.57148 2.34898   6
   3  -4  -5 6.75807 2.56757   8
  -3   4   4 7.75405 2.33998   2
  -3   4   4 6.06592 2.39579   6
  -3   4   4 8.72467 3.61593   1
  -3   4   3 27.0245 2.59755   2
   3  -4  -3 22.4018 2.59777   6
  -3   4   3 25.2472 2.91155   6
  -3   4   2 4.57169 2.02292   2
   3   4  -2 2.52986 2.92501   4
   3  -4  -2 1.52252 1.83813   6
   3  -4  -2 1.30798 0.54038   5
  -3  -4   2 1.47362 1.33293   8
  -3  -4   2 2.96654 2.47470   5
   3   4  -1 1.18893 0.72853   2
   3  -4  -1 0.78630 1.80551   6
  -3  -4   1 2.38971 0.77313   6
  -3  -4   1 2.45515 0.87621   8
  -3  -4   1 2.26535 2.01213   5
  -3   4   1 2.57144 1.52154   3
  -3   4   0 26.4690 3.09081   7
   3   4   0 30.6317 3.42988   7
   3   4   1 21.5896 3.34376   7
   3   4   2 78.4895 5.46401   3
   3   4   2 94.8053 5.98854   7
   3   4   3 0.79631 2.81017   7
   3   4   3 4.62600 2.99028   3
   3   4   4 71.8951 4.31393   6
   3   4   4 88.4833 5.73041   3
   3   4   4 74.7093 5.62018   7
   3   4   5 6.20077 2.08216   6
   3   4   5 7.38581 3.57748   3
  -3  -4  -5 2.35428 2.73566   1
  -3  -4  -6-1.68622 3.42507   1
  -3  -4  -6 0.58270 2.49354   2
   3   4   6-3.26491 4.17149   3
   3   4   6 2.91050 3.93732   5
  -3  -4  -7 6.40605 2.78353   2
   3   4   7 10.5599 3.03493   6
   3   4   7 4.25107 4.75215   3
   3   4   7 9.91109 4.65377   5
  -3   5  10 29.8724 4.58522   6
  -3   5  10 22.1951 3.61643   5
  -3   5   9 11.4049 3.52111   6
  -3   5   9 7.60610 3.04011   5
   3  -5  -8 1.30754 0.64960   7
  -3   5   8 3.27586 3.17408   6
   3  -5  -8-0.88244 3.33924   8
  -3   5   8 1.03785 2.43946   5
  -3   5   7 0.82235 2.99007   6
   3  -5  -7-0.40607 3.10291   8
  -3   5   6 8.93649 2.95173   6
   3  -5  -6 11.6437 3.24546   8
  -3   5   5-0.11422 2.80146   2
  -3   5   5 0.86384 2.67213   6
   3  -5  -5-0.73214 2.81882   8
  -3   5   4 3.63857 2.61859   6
  -3   5   4 0.31144 2.36049   2
   3  -5  -4 4.84405 2.65248   8
   3  -5  -3 21.2366 2.72230   6
  -3   5   3 33.0368 4.13087   6
  -3   5   3 23.8039 2.99031   2
   3   5  -2 150.218 11.5775   4
   3  -5  -2 175.681 9.63303   6
  -3   5   2 197.113 9.83680   2
  -3   5   2 173.643 9.03908   3
   3  -5  -2 174.091 9.10039   5
   3   5  -1 58.7271 4.52303   4
   3  -5  -1 60.5753 4.01294   6
  -3  -5   1 52.4513 3.13440   6
  -3  -5   1 57.7094 4.19005   5
  -3  -5   1 46.1424 2.84246   8
   3   5   0 27.2509 1.82551   2
  -3  -5   0 23.2396 1.79954   6
  -3  -5   0 23.7357 3.05787   5
   3   5   1 10.2692 2.85715   7
   3   5   2 3.53883 2.91924   7
   3   5   3-1.49935 3.09480   7
   3   5   3 3.89447 2.89885   3
   3   5   4 7.08975 1.67966   6
   3   5   4 13.7649 3.39420   3
   3   5   4 6.87529 3.15301   5
   3   5   4 4.69828 3.34141   7
   3   5   5-0.21782 1.97736   6
   3   5   5 0.46453 3.53141   3
  -3  -5  -5-2.65935 2.97204   1
   3   5   5 0.15216 3.47250   5
   3   5   5-2.13290 3.72464   7
   3   5   6-1.34978 3.90763   3
  -3  -5  -6-0.47333 3.22958   1
   3   5   6-0.17377 4.10762   5
   3   5   7 11.9363 3.36422   6
   3   5   7 7.83194 4.53779   3
  -3  -5  -7 8.30549 4.20898   1
   3   5   7 14.5218 4.54970   5
   3   5   8 6.74685 3.73502   6
   3   5   8 13.0430 5.27979   5
  -3   6  11 1.67870 4.45033   6
  -3   6  11 3.02407 3.61477   5
  -3   6  10 16.9237 4.42117   6
  -3   6  10 10.5048 3.42242   5
  -3   6   9 4.66914 3.76906   6
  -3   6   8 0.93138 3.44395   6
   3  -6  -8-1.21914 3.41349   8
  -3   6   7 35.0617 3.99358   6
   3  -6  -7 32.4021 4.04858   8
  -3   6   6 18.7225 3.65505   2
  -3   6   6 23.6335 3.44843   6
   3  -6  -6 19.9624 3.51905   8
  -3   6   5 53.9445 4.30162   6
   3  -6  -5 42.8761 4.22176   8
  -3   6   5 52.1112 4.34288   2
  -3   6   4 67.0011 5.23252   2
  -3   6   4 81.8937 5.54447   6
   3  -6  -4 78.6633 5.20344   8
  -3   6   3 29.1796 3.46987   2
   3  -6  -3 28.7473 2.26437   5
  -3   6   2 23.3098 3.83885   2
   3  -6  -2 22.0423 3.17083   6
   3  -6  -2 32.5362 3.35157   5
   3   6  -1 0.21911 4.47566   4
  -3  -6   1-4.54493 3.82875   5
  -3  -6   0 86.0517 5.19823   6
   3   6   0 97.9906 5.28548   2
   3   6   1 6.99100 3.06212   7
   3   6   1 12.5009 1.85471   2
   3   6   2 5.12631 3.23906   7
   3   6   3 17.7801 3.78835   7
   3   6   3 22.4327 3.50650   3
   3   6   4 2.95735 3.59327   7
   3   6   4 2.69267 2.03612   6
   3   6   4-0.92551 3.41044   3
   3   6   4 5.33435 3.46642   5
  -3  -6  -5 25.4324 3.56661   1
   3   6   5 19.4137 3.95545   3
   3   6   5 24.4120 4.28273   5
   3   6   5 26.6306 4.35431   7
  -3  -6  -6 14.4282 3.50739   1
   3   6   6 17.6700 4.32405   3
   3   6   6 17.8953 4.50473   5
  -3  -6  -7 3.64328 3.50669   1
   3   6   7 2.37964 3.26670   6
   3   6   7 5.67482 4.59191   3
   3   6   7 2.42222 4.36887   5
   3   6   8 4.93193 4.14273   6
   3   6   8 4.94817 5.16094   5
  -3   7  11-1.71104 3.96585   5
  -3   7  10 1.56695 4.23395   6
  -3   7   9 7.79545 3.93310   6
   3  -7  -9-1.72015 3.72022   8
  -3   7   8 90.0730 6.46050   6
   3  -7  -8 81.3345 6.38520   8
  -3   7   7-5.65064 3.57809   6
   3  -7  -7-0.47043 3.44143   8
  -3   7   6 1.78816 3.18290   2
  -3   7   6 0.42417 3.45009   6
   3  -7  -6-1.73182 3.10774   8
  -3   7   5-1.54056 3.31061   6
  -3   7   5 0.13813 2.91958   2
   3  -7  -5 2.22995 2.83407   8
  -3   7   4 72.3081 5.74072   2
   3  -7  -4 75.8710 5.64376   8
  -3   7   3-0.73351 3.26871   2
   3  -7  -3 1.97839 2.03764   5
  -3   7   2-0.60670 4.11568   2
   3   7   1 3.65637 3.03103   7
  -3  -7  -1 0.14050 1.96981   6
   3   7   1-1.13729 2.08519   2
   3   7   2 81.4526 5.01569   2
   3   7   2 81.1369 5.80577   7
   3   7   3 0.91524 3.18747   7
   3   7   4 12.3392 3.74689   7
   3   7   4 11.4745 3.74261   3
   3   7   5-1.92119 3.69875   3
   3   7   5-2.51305 3.80724   7
  -3  -7  -6 14.7836 3.49934   1
   3   7   6 11.7843 2.97032   6
   3   7   6 15.9369 4.55717   3
   3   7   6 13.3361 4.41317   5
   3   7   7 3.26155 3.62235   6
  -3  -7  -7 0.24013 3.31469   1
   3   7   7 1.19799 4.74321   3
   3   7   7 1.64463 4.60236   5
   3   7   8-1.20851 4.17322   6
   3   7   8-4.05084 5.31690   5
  -3   8  10 10.8164 4.66712   6
  -3   8   9-2.46660 4.18596   6
   3  -8  -9-3.35259 3.80536   8
  -3   8   8 4.23514 4.20444   6
   3  -8  -8 5.82563 3.56975   8
  -3   8   7 32.5910 4.48753   2
  -3   8   7 30.3029 4.51114   6
   3  -8  -7 35.4427 4.30524   8
  -3   8   6 1.64865 3.42951   2
   3  -8  -6-3.89049 3.13408   8
  -3   8   5 27.3780 4.59122   6
  -3   8   5 23.7651 4.05794   2
   3  -8  -5 23.8984 3.82626   8
   3  -8  -4 28.0695 3.15101   5
   3  -8  -4 28.7497 4.16313   8
  -3   8   3 6.77788 4.33911   2
   3  -8  -3 2.99887 3.42036   5
   3   8   1-0.17487 3.59646   7
  -3  -8  -1-2.14309 2.65002   6
  -3  -8  -1 0.35050 0.50228   8
   3   8   1 0.68864 2.92406   2
   3   8   2 4.55620 3.59634   7
   3   8   2 2.79633 2.76796   2
   3   8   3 28.1313 3.95197   7
   3   8   4 2.92697 3.61018   7
   3   8   4-2.51624 3.70628   3
   3   8   5 4.97420 3.22853   6
   3   8   5 3.70016 4.14171   3
   3   8   6 16.7546 3.48228   6
   3   8   6 16.8578 4.87473   3
  -3  -8  -7 2.76321 3.32335   1
   3   8   7 0.14385 3.62045   6
   3   8   7-3.25835 4.83933   5
   3   8   8-1.64450 4.61135   6
  -3  -8  -8-4.10371 3.80727   1
   3   8   9 1.54470 5.00991   6
  -3   9   9 2.41785 4.56639   6
  -3   9   8-2.28357 4.53136   6
   3  -9  -8-0.36691 3.88685   8
  -3   9   7 5.23815 3.99705   2
  -3   9   7 3.34934 4.33487   6
   3  -9  -7-1.38274 3.47523   8
  -3   9   6 10.0921 4.59361   6
  -3   9   6 7.41253 4.12315   2
   3  -9  -6 9.62527 3.95084   8
   3  -9  -5 13.1234 4.10595   8
  -3   9   5 20.8155 6.18215   6
  -3   9   5 7.55338 4.07614   2
  -3   9   4-1.07609 4.61070   2
   3  -9  -4 0.87235 4.22197   8
   3  -9  -4 0.24664 3.17939   5
   3   9   1-0.17973 4.34557   2
  -3  -9  -1-0.55139 3.47690   6
   3   9   2-0.17171 3.83098   7
  -3  -9  -2 7.35874 3.23882   6
   3   9   2 7.17191 3.65868   2
   3   9   3 0.55669 3.56797   2
   3   9   4 5.27441 4.09886   3
   3   9   5 7.27595 4.22139   7
   3   9   5-0.58205 4.17188   3
   3   9   6-6.21798 4.16393   6
   3   9   6-2.01861 4.21650   7
   3   9   7 9.29816 4.19141   6
  -3  -9  -7 2.01315 3.55487   1
   3   9   8 9.11392 5.11490   6
   3   9   9 3.66276 5.58971   6
  -3  10   8 9.35068 4.68498   2
  -3  10   8 10.6079 4.99379   6
  -3  10   7 9.53374 4.41011   2
  -3  10   7 3.21771 5.01227   6
   3 -10  -7 5.53699 4.04309   8
  -3  10   6 48.3067 7.03743   6
  -3  10   6 35.6555 5.43521   2
   3 -10  -6 37.5578 5.46112   8
   3 -10  -5 3.56363 5.49039   8
  -3  10   5 5.76278 5.27337   2
   3  10   2 6.97661 5.28705   2
   3  10   3 7.59476 5.11332   2
   3  10   4 27.8978 4.62113   7
   3  10   5 3.53516 4.33980   7
   3  10   7 15.8168 5.92800   6
  -3 -10  -7 1.39420 3.54173   1
   3  10   8-3.95303 5.85054   6
   3  10   9-4.37579 6.50696   6
  -3  11   7 13.3784 6.49598   6
  -3  11   6 3.05578 5.66005   2
   3 -11  -5 14.0206 8.42199   8
  -3  11   5 6.62080 7.37176   2
   3  11   3-2.33946 3.95116   7
   3  11   3 12.4328 8.70735   2
   3  11   4 3.33531 4.18841   7
   3  11   4 4.53125 6.93617   2
   3  11   8 4.30637 9.35688   6
   3  12   4 1.98372 14.2081   2
   4   0  -7 2.18764 1.47645   4
  -4   0   7 2.09713 3.00840   6
   4   0  -7 1.31697 2.79379   2
   4   0  -6 9.54764 2.46021   2
  -4   0   6 9.70634 2.54807   6
  -4   0   5 2.95400 1.95249   6
  -4   0   4 76.1367 4.50119   6
   4   0  -4 75.1872 4.54635   3
   4   0  -4 81.5651 5.23512   7
   4   0  -3-0.89254 2.47365   7
   4   0  -3-0.26602 1.87293   3
   4   0  -2 12.0575 2.29364   3
  -4   0   2 12.4136 3.61534   1
  -4   0   1-0.14980 3.24705   1
  -4   0   1-3.33298 2.40863   4
   4   0  -1 0.97929 2.30348   3
   4   0  -1 0.55498 1.67528   8
  -4   0   0 46.5146 3.71549   4
   4   0   0 49.5779 4.06963   3
  -4   0   0 42.7693 4.89076   1
   4   0   0 44.0646 3.13765   8
   4   0   0 46.1971 4.13589   7
  -4   0  -1-2.21205 3.56307   1
   4   0   1 0.26955 1.56424   8
   4   0   1 0.73917 1.76303   5
   4   0   1 0.96391 3.30995   7
  -4   0  -2 5.30015 4.10542   1
   4   0   2 1.27692 1.63716   8
   4   0   2 0.68053 2.05066   5
  -4   0  -3 0.87164 0.78616   2
  -4   0  -3 4.45780 4.99971   1
  -4   1   8 1.18362 3.33984   6
  -4   1   8 1.92926 1.46844   5
   4  -1  -7 2.42611 2.92222   2
  -4   1   7 2.86543 2.86950   6
  -4  -1   6 43.2645 3.36773   6
   4   1  -6 15.6877 2.33073   4
  -4   1   6 38.3502 3.24712   6
   4  -1  -6 34.6159 2.04345   3
   4   1  -6 14.2494 2.75779   2
   4  -1  -5 21.7037 2.87681   7
   4   1  -5 21.4654 2.40925   2
  -4  -1   5 22.2479 2.31278   6
   4  -1  -5 17.0070 1.82534   3
  -4   1   5 20.2704 2.48057   6
   4  -1  -4 3.65907 2.47697   7
  -4   1   4 3.39985 3.36582   1
  -4  -1   4 1.37940 1.41430   6
   4  -1  -4 0.95950 1.69227   3
  -4   1   4 1.17050 2.01933   6
   4  -1  -3 63.9367 3.85521   3
  -4   1   3 37.5856 4.77020   1
   4   1  -3 51.8878 3.74487   3
   4  -1  -3 56.0285 4.11086   7
   4  -1  -2 1.21660 2.39710   7
   4   1  -2 3.54051 2.74014   7
  -4   1   2 7.04159 3.55360   1
   4   1  -2 2.82213 2.21838   3
   4  -1  -2-0.65614 2.07213   8
   4   1  -1 11.6817 3.06276   7
  -4   1   1 12.5598 2.32292   4
  -4  -1   1 15.3755 2.62510   4
   4   1  -1 13.3130 2.52877   3
   4  -1  -1 11.2430 2.15288   8
  -4   1   1 17.1426 3.78714   1
   4   1   0 35.7824 3.84701   7
  -4   1   0 34.7723 3.24224   4
  -4   1   0 44.4402 4.72299   1
   4   1   0 31.2238 3.43029   3
   4  -1   0 41.2832 2.95446   8
  -4  -1   0 36.0684 4.35563   1
  -4   1  -1 3.22018 4.33039   1
  -4  -1  -1 5.05050 3.65271   1
   4   1   1-1.05238 2.86625   3
   4  -1   1-0.90729 1.73445   8
   4  -1   1-0.46202 1.56050   5
   4   1   1 2.52783 3.16586   7
   4  -1   2-0.70074 0.50632   6
  -4  -1  -2-4.38011 3.74475   1
   4  -1   2 1.96608 2.27600   5
   4   1   2-0.70122 1.01076   8
   4   1   2 1.06556 3.33282   7
  -4  -1  -3-0.50664 3.92349   1
   4   1   3-0.09039 0.93683   8
   4   1   3 0.10615 2.63985   5
   4   1   4 4.97537 1.02730   6
  -4  -1  -4 12.1819 5.27531   1
   4   1   4 9.92083 4.08044   5
  -4   2   8 43.7912 4.74060   6
  -4   2   7 35.0428 3.92686   6
   4  -2  -6 7.59376 2.43362   7
  -4   2   6 6.87202 2.75451   6
  -4   2   6 5.71275 3.28783   1
   4  -2  -5 2.13937 2.19015   7
   4   2  -5 3.41692 1.98109   4
  -4  -2   5 6.61350 2.05579   6
  -4   2   5 6.26854 2.24228   6
  -4  -2   5 5.04594 2.28358   8
   4   2  -5 3.60581 1.71660   2
  -4   2   5 2.30660 3.38079   1
  -4  -2   5 1.27314 1.25486   5
   4  -2  -4 2.96197 2.16777   7
   4   2  -4 6.50842 1.55281   2
  -4  -2   4 6.34855 1.34464   6
  -4   2   4 4.13355 2.44152   6
   4  -2  -4 5.32674 2.51415   8
   4  -2  -3 0.81006 2.20253   7
   4  -2  -3 0.40317 2.43408   8
  -4   2   3-2.22375 3.64831   1
   4   2  -2 11.8105 3.05925   7
  -4   2   2 8.26538 1.92840   4
  -4   2   2 8.30029 3.87662   1
   4   2  -2 11.0977 2.53656   3
   4  -2  -2 9.08571 2.40704   7
   4   2  -1 0.79817 2.87552   7
  -4   2   1 1.11122 1.90078   4
  -4   2   1-1.16366 4.12548   1
   4   2  -1 2.34116 2.42990   3
   4  -2  -1 0.98791 2.01975   8
   4  -2  -1 0.22923 2.83207   7
   4   2   0-4.36188 3.17877   7
  -4   2   0-0.34675 2.14767   4
   4   2   0-3.68594 2.59669   3
  -4   2   0 3.03908 1.17676   2
   4  -2   0 1.59201 1.89372   8
   4  -2   0-0.26596 0.91965   5
  -4   2   0-2.87436 4.49652   1
   4   2   1 14.6064 3.58701   7
  -4  -2  -1 23.4367 3.89725   1
  -4   2  -1 11.4681 1.86008   2
   4  -2   1 8.33051 1.13857   6
   4  -2   1 13.0416 1.89680   5
  -4  -2  -2 46.0582 4.77989   1
   4   2   2 46.7807 4.64468   7
  -4  -2  -3 27.0175 4.41814   1
   4   2   3 23.5749 3.33202   5
   4   2   3 32.3481 4.55349   7
   4   2   4 2.15500 3.49530   5
   4   2   5-0.63164 4.76070   5
  -4   3   9 12.9989 4.32903   6
  -4   3   8-1.80627 3.71154   6
   4  -3  -7 0.36342 2.07247   7
  -4   3   7 4.18309 3.24205   6
   4  -3  -6-0.28105 1.97097   7
  -4   3   6-0.94627 2.73000   6
   4  -3  -6-1.35030 3.02868   8
  -4   3   6 3.30396 3.23937   1
   4  -3  -5 10.2411 2.12274   7
  -4   3   5 6.65615 2.47467   6
  -4   3   5 6.83949 3.74766   1
   4  -3  -5 5.02293 2.73555   8
   4   3  -4 21.7013 1.90616   2
  -4  -3   4 26.8577 2.14366   6
  -4   3   4 40.2931 3.80718   6
  -4  -3   4 32.2143 2.76088   8
  -4  -3   4 29.7901 2.45530   5
   4  -3  -4 36.2951 3.49079   8
   4  -3  -4 30.8040 2.85673   7
  -4   3   3-0.97040 3.72234   1
   4  -3  -3 3.29609 2.41279   8
   4  -3  -3 0.26195 2.16639   7
  -4   3   2 75.8117 4.43422   4
  -4   3   2 80.3687 6.53830   1
   4  -3  -2 62.1978 4.78637   8
  -4   3   2 75.6219 4.47262   2
   4   3  -2 80.2008 5.77084   7
   4   3  -1 0.14417 3.11822   7
  -4   3   1-0.57231 1.90570   4
  -4   3   1 1.68664 1.64779   2
   4  -3  -1-0.35332 2.08940   8
  -4   3   1 2.60475 4.71516   1
   4   3  -1 0.78706 2.72019   3
   4   3   0 2.56292 3.46106   7
  -4   3   0 1.73385 2.06853   2
   4  -3   0 1.78065 1.38681   6
   4  -3   0 0.89544 0.90325   5
   4   3   1 9.29375 3.50283   7
  -4  -3  -2 7.78150 3.81682   1
   4   3   2 4.41643 3.63980   7
  -4  -3  -3 2.18512 3.62751   1
   4   3   3 8.16635 3.54324   3
   4   3   3 1.32249 2.70330   5
   4   3   3 2.70454 3.66219   7
   4   3   4 6.82639 4.01409   3
   4   3   4 6.88539 3.58115   5
  -4  -3  -5-3.35184 4.63020   1
   4   3   5 9.56352 4.31235   3
   4   3   5 0.93526 4.42865   5
   4   3   6 8.07720 5.97102   5
  -4   4  10-0.40913 4.67119   6
  -4   4   9 16.1754 4.35553   6
   4  -4  -8 10.5892 1.90727   7
  -4   4   8 17.4555 4.07343   6
   4  -4  -7 2.88790 1.76294   7
  -4   4   7 5.80998 3.33346   6
   4  -4  -7 3.87101 3.66892   8
  -4   4   6 5.96237 3.95925   1
  -4   4   6-0.56902 3.03061   6
   4  -4  -6 1.41172 3.32279   8
   4  -4  -6 2.87386 1.82985   7
  -4   4   5 46.3248 5.58913   1
  -4   4   5 50.7649 4.22666   6
   4  -4  -5 47.1046 4.44521   8
   4  -4  -5 44.1044 3.32320   7
  -4   4   4-1.79394 4.70966   6
   4  -4  -4 1.49332 2.80313   8
  -4   4   4 3.44089 4.67557   1
  -4  -4   3 1.50588 0.67194   6
  -4   4   3 1.28089 2.27593   2
   4  -4  -3 3.29017 2.50794   8
  -4  -4   3 1.60752 2.18003   5
  -4   4   2 0.42826 1.43475   4
  -4   4   2-0.96870 2.14300   2
   4  -4  -2-0.83471 2.33080   8
   4   4  -1 40.1048 4.27084   7
  -4   4   1 39.6435 3.33472   2
   4  -4  -1 27.3445 2.58828   6
   4  -4  -1 30.4197 3.03131   8
   4   4   0 4.74997 3.48343   7
  -4   4   0 1.43149 3.26714   2
   4  -4   0 0.44155 1.67977   6
   4   4   1 5.48769 3.64607   7
   4   4   2 11.3843 3.98056   7
   4   4   2 7.09520 3.64525   3
   4   4   3 0.31544 3.67348   3
   4   4   3 0.17110 3.91456   7
  -4  -4  -4-2.22935 3.99487   1
   4   4   4-3.88977 3.83910   3
   4   4   4 3.35199 3.44090   5
   4   4   4 2.92492 4.45262   7
  -4  -4  -5 9.57647 4.30400   1
   4   4   5 10.2827 4.57495   3
   4   4   5 8.58815 4.37644   5
   4   4   6-9.59722 5.37166   3
  -4  -4  -6 1.47995 5.28806   1
   4   4   6-10.3247 5.44399   5
  -4   5  11-0.91971 4.99836   6
  -4   5  10 8.92414 4.88424   6
  -4   5   9 15.6210 4.53534   6
  -4   5   8 5.42246 3.85694   6
   4  -5  -8 1.50643 0.98839   7
  -4   5   7 3.35768 3.45083   6
   4  -5  -7 3.36994 3.60570   8
  -4   5   6 0.63060 3.14015   6
  -4   5   5 38.2607 4.27343   6
   4  -5  -5 26.4686 3.99074   8
  -4   5   4 13.0445 3.02465   2
   4  -5  -4 13.4272 3.12121   8
   4   5  -3 2.81218 3.73311   4
  -4   5   3-1.26439 2.73305   2
  -4  -5   3-0.05518 1.45058   8
   4  -5  -3 0.85316 2.59169   8
  -4  -5   3-1.18969 2.91126   5
  -4   5   2 5.08258 1.43919   4
   4  -5  -2 3.77090 2.07264   6
   4  -5  -2 5.52351 2.59391   8
  -4  -5   2 10.0842 2.84588   5
  -4   5   2 5.89929 2.74681   2
   4   5  -1 13.9889 4.34060   7
  -4   5   1 11.1810 3.37648   2
   4  -5  -1 11.2565 2.15767   6
   4   5   0 5.43200 3.95550   7
   4   5   1 17.7558 3.73373   7
   4   5   1 17.0092 3.83256   3
   4   5   2 2.65391 3.60422   7
   4   5   2 0.95915 3.72437   3
   4   5   3 11.5424 3.98371   3
   4   5   3 9.98303 4.25394   7
   4   5   4-2.14695 4.21982   3
  -4  -5  -4 3.42131 4.10798   1
   4   5   4 4.68161 4.45519   7
   4   5   5-4.29214 4.54885   3
  -4  -5  -5 2.65235 4.25408   1
   4   5   5 9.70240 4.30669   5
  -4  -5  -6 6.07603 4.79848   1
   4   5   6 0.89391 4.99199   5
   4   5   7-3.11016 6.47494   5
  -4   6  10 3.48576 5.04895   6
  -4   6   9 1.49074 4.19995   6
  -4   6   8 16.7310 4.21693   6
  -4   6   7 16.1133 3.90191   6
   4  -6  -7 21.4368 4.17766   8
  -4   6   6 11.0777 3.81356   6
   4  -6  -6 15.3738 3.83193   8
  -4   6   5 9.77097 3.27963   2
  -4   6   5 5.57216 4.69560   6
   4  -6  -5 5.85830 3.24132   8
  -4   6   4 4.15867 3.30728   2
   4  -6  -4 3.81924 3.07467   8
   4  -6  -3-1.07625 3.01979   8
  -4   6   3-0.53378 3.44587   2
  -4   6   2-0.15204 3.54621   2
   4   6  -2 0.68374 1.33566   2
  -4  -6   2 2.84579 1.51617   6
   4  -6  -2-0.90601 2.66259   8
   4   6  -1 15.6170 5.44664   7
   4   6   0 13.8093 4.22337   7
   4   6   1 7.80193 4.03157   7
   4   6   1 17.8056 3.95463   3
   4   6   2 9.97034 4.14037   7
   4   6   2 19.0244 4.08043   3
   4   6   3 9.50980 4.35863   7
   4   6   3 8.78711 4.02901   3
  -4  -6  -4 2.28673 4.25435   1
   4   6   4 4.14639 4.21789   3
   4   6   4 5.84715 4.47246   7
  -4  -6  -5 1.86226 4.19015   1
   4   6   5 1.00171 4.44233   3
  -4  -6  -6-4.90348 4.50152   1
   4   6   6-3.49817 5.02294   5
  -4  -6  -7 0.86250 5.64212   1
   4   6   7 4.30730 6.20417   5
  -4   7  10-2.13744 5.06282   6
  -4   7   9 7.78882 4.76459   6
  -4   7   8 1.42339 4.14722   6
  -4   7   7 0.33652 3.97009   6
  -4   7   6-1.05382 4.17451   6
   4  -7  -6 2.05886 3.65124   8
  -4   7   5 0.16128 3.88360   2
   4  -7  -5-0.64595 3.53805   8
  -4   7   4-1.27674 3.76354   2
   4  -7  -4 2.65249 3.31064   8
  -4   7   3 72.6158 6.06271   2
   4  -7  -3 60.5721 5.24423   8
   4   7   0-0.24398 5.01782   7
   4   7   1 6.41535 4.34784   7
   4   7   2 2.29222 4.07758   7
   4   7   2-4.39400 4.00601   3
   4   7   3 0.75613 4.14562   7
   4   7   3 3.46194 4.39862   3
   4   7   4-2.79024 4.56495   3
  -4  -7  -5-0.17157 4.27396   1
  -4  -7  -6 2.09134 4.41096   1
  -4  -7  -7 6.91522 5.07412   1
  -4   8   9 3.92434 4.86843   6
  -4   8   8 3.36712 4.62772   6
  -4   8   7 15.8532 5.07430   6
  -4   8   6 10.5671 4.65986   2
  -4   8   6 9.72623 5.93506   6
  -4   8   5-6.29884 4.57157   2
   4  -8  -5-0.89364 3.62241   8
   4  -8  -4 4.44021 3.77917   8
  -4   8   4 10.9268 4.52136   2
   4  -8  -3 3.96856 3.64571   8
  -4   8   3-0.44474 4.75823   2
   4   8   0 10.9228 7.44458   7
   4   8   1 0.23993 4.93457   7
   4   8   2 4.06610 4.13155   7
   4   8   2-1.29208 4.88927   3
   4   8   3 16.5115 4.83398   3
  -4  -8  -5 2.76508 4.33068   1
  -4  -8  -6-1.24018 4.59362   1
  -4  -8  -7-1.07891 4.73002   1
  -4   9   8 4.29362 5.27092   6
  -4   9   7-0.22509 5.13699   2
  -4   9   7 3.60225 6.13771   6
  -4   9   6 14.8446 5.22282   2
  -4   9   5 4.91783 4.86194   2
   4  -9  -4 2.56144 4.26200   8
  -4   9   4-6.71605 5.14301   2
  -4  -9  -6-4.66495 4.54101   1
  -4  10   7 6.43609 5.75599   2
  -4  10   6 5.51878 5.88500   2
  -4  10   5 0.27074 5.62150   2
  -4 -10  -6-1.44489 4.27769   1
   5   0  -6 2.15529 3.21154   7
   5   0  -5 8.51137 3.44311   7
  -5   0   5 11.2910 4.47144   1
   5   0  -4-0.86258 3.25986   7
  -5   0   4 5.03691 4.22685   1
   5   0  -3 2.12056 3.17762   7
   5   0  -3 3.34696 3.45691   3
  -5   0   3-5.09797 4.43359   1
   5   0  -2 0.59952 3.35399   7
  -5   0   2-5.93805 4.48236   1
  -5   0   1-5.01976 4.59093   1
   5   0  -1 3.36336 3.59398   7
  -5   0   0 1.68539 4.75771   1
   5   0   0 1.38602 4.00549   7
  -5   0  -1 18.8412 5.61835   1
  -5   0  -2 4.54346 6.39790   1
   5  -1  -7-1.33039 3.29841   7
   5  -1  -6 5.35248 3.30649   7
  -5   1   6 7.22450 4.31052   1
   5   1  -6-0.09889 2.68182   3
   5  -1  -5 13.6221 3.36911   7
   5   1  -5 3.30901 3.67507   7
   5   1  -5 5.55765 2.84061   3
   5  -1  -4 7.29838 3.17528   7
   5   1  -4 7.61894 3.68327   7
  -5   1   4 7.96528 4.58882   1
   5   1  -4 13.1455 2.93324   3
   5   1  -3 5.22880 3.74563   7
   5   1  -3 11.2594 3.02151   3
  -5  -1   3 13.2126 4.65955   1
   5  -1  -3 7.76006 3.26950   7
  -5   1   3 5.62410 4.54341   1
   5   1  -2 4.51871 3.60790   7
  -5  -1   2 10.8408 4.43804   1
   5   1  -2 2.32067 3.03914   3
  -5   1   2 5.85874 4.65438   1
   5  -1  -2 7.45490 3.36476   7
   5   1  -1-3.62867 3.80841   7
  -5   1   1-3.17662 5.13553   1
   5   1  -1 4.38396 3.54260   3
  -5  -1   1 2.42115 4.51989   1
   5  -1  -1 4.18777 2.51820   8
   5  -1  -1-0.78898 3.82240   7
  -5  -1   0 2.62453 4.73554   1
  -5   1   0-0.70415 5.52561   1
   5   1   0 2.42716 3.88430   3
   5  -1   0 2.49641 2.78489   8
  -5  -1  -1 1.47766 4.73519   1
  -5   1  -1 0.84133 6.68557   1
  -5  -1  -2 7.68792 5.61491   1
  -5  -1  -3 2.94734 6.32214   1
   5   1   3-1.23595 2.43628   5
   5  -2  -9 0.67804 3.29596   7
   5  -2  -8 0.12287 3.00149   7
   5  -2  -7 0.11594 2.96765   7
   5  -2  -6 4.00666 2.86689   7
  -5   2   6 2.88514 4.40730   1
   5  -2  -5 2.79725 2.84505   7
   5   2  -5 2.48223 4.00334   7
  -5   2   5 7.36644 4.49454   1
   5   2  -5 1.19954 2.79618   3
   5   2  -4 1.22473 3.74452   7
   5  -2  -4-4.62631 3.07762   7
   5   2  -3 0.86354 3.68099   7
  -5   2   3 6.75907 4.83415   1
   5   2  -3 7.73500 3.14593   3
   5  -2  -3 1.66654 2.95297   8
   5  -2  -3 4.71235 3.11278   7
   5   2  -2 12.0482 3.93541   7
  -5   2   2 9.94068 5.26005   1
   5   2  -2 7.91703 3.27810   3
   5  -2  -2 5.88997 2.94647   8
  -5  -2   1 3.85522 4.49590   1
   5   2  -1 6.90950 3.39888   3
   5  -2  -1 2.55815 2.98324   8
  -5   2   1 10.2139 6.17993   1
   5   2   0 4.42594 3.51575   3
  -5  -2   0 1.85771 4.91919   1
  -5   2   0-6.41218 7.35346   1
   5  -2   0 3.17929 2.87122   8
  -5  -2  -1 0.81949 4.90502   1
   5   2   1-0.65346 3.98506   3
   5   2   1 5.15040 4.11840   7
   5   2   2 0.74667 4.24589   3
  -5  -2  -2-2.34572 4.86315   1
   5   2   2-0.41927 4.61883   7
  -5  -2  -4 12.8170 6.55199   1
   5  -3  -8 3.47445 2.84327   7
   5  -3  -7 11.2778 2.79252   7
  -5   3   6-1.19174 4.39159   1
   5  -3  -6-0.40339 2.65013   7
  -5   3   5 8.02797 4.89234   1
   5  -3  -5-0.57051 3.39645   8
   5  -3  -5 9.95469 2.88084   7
   5   3  -4 5.71640 4.59580   7
   5  -3  -4 1.30688 3.05279   8
   5  -3  -4 4.98841 3.21955   7
   5   3  -3-0.13033 3.19988   3
   5  -3  -3 3.81085 3.08714   8
  -5   3   3 10.1268 5.75303   1
   5   3  -2 7.72089 3.41816   3
  -5   3   2 6.45262 6.62181   1
   5  -3  -2 0.12107 2.83050   8
   5   3  -1 9.73009 3.67192   3
   5  -3  -1 5.80352 2.87203   8
   5   3   0-1.49122 4.05576   7
   5   3   0 0.60539 3.56547   3
  -5  -3   0 6.42453 4.71451   1
   5  -3   0 2.11109 2.58756   8
   5   3   1 0.15994 3.77806   3
   5   3   1 5.21141 4.13072   7
  -5  -3  -2-2.28639 4.85625   1
   5   3   2 2.55289 4.31304   3
   5   3   2 0.21182 4.59133   7
   5   3   3 10.6099 4.97563   3
  -5  -3  -4-1.93975 5.81184   1
   5  -4  -7-0.36418 2.59224   7
   5  -4  -6-0.15847 3.68001   8
  -5   4   6 4.65265 5.31598   1
   5  -4  -5 1.15254 3.42094   8
  -5   4   5 8.10557 5.87916   1
  -5   4   4-15.0091 6.89357   1
   5  -4  -4-2.62537 3.27225   8
   5  -4  -3-2.45565 2.95187   8
   5   4  -2-2.17702 4.76633   7
   5  -4  -2-0.23746 2.79982   8
   5   4  -2-0.14736 3.65295   3
   5   4  -1-4.68132 4.44672   7
   5   4  -1 2.69622 3.72399   3
   5  -4  -1 1.58337 2.62769   8
   5   4   0 6.78912 4.42452   7
   5   4   0 10.2288 4.02834   3
   5   4   1-2.82216 4.43339   7
  -5  -4  -1-0.62727 4.80052   1
   5   4   1-2.62958 4.14026   3
   5   4   2-2.56142 4.44841   3
   5   4   3-1.45068 4.81323   3
  -5  -4  -3-3.40544 4.96182   1
  -5   5   8-2.00825 3.80933   6
   5  -5  -7-3.20256 4.10271   8
   5  -5  -6 0.32199 3.78948   8
   5  -5  -5 8.13527 3.64002   8
   5  -5  -4 11.6415 3.55282   8
   5   5  -3 3.77524 7.31911   7
   5  -5  -3 5.05774 3.12483   8
   5   5  -2-3.66229 5.69536   7
   5  -5  -2 0.86033 2.80280   8
   5   5  -1 8.54080 5.10723   7
   5   5  -1 6.69082 4.09176   3
   5   5   0 9.41934 4.42490   3
   5   5   1 3.19264 4.30806   3
   5   5   2 1.59326 4.71122   3
  -5   6   9-0.18802 4.48483   6
  -5   6   8 4.21056 4.28611   6
  -5   6   7 8.55736 5.64734   6
   5  -6  -6 3.24778 3.92939   8
   5  -6  -5-5.53258 3.65040   8
   5  -6  -4-2.94909 3.43964   8
   5  -6  -3-1.24651 3.39555   8
   5  -6  -2 4.23907 2.95872   8
   5   6  -1 7.35073 4.62311   3
   5   6   0 7.63582 4.69270   3
   5   6   1-2.05962 4.44285   3
  -5   7   9-1.47535 5.05175   6
  -5   7   8 4.13879 5.34956   6
   5  -7  -5-0.34060 3.62953   8
   5  -7  -4 1.26693 3.46778   8
   5  -7  -3-0.45360 3.17151   8
   5   7   0 1.85830 5.44472   3
  -5   8   8 0.93641 6.60752   6
   6   0  -7-0.91414 4.05089   7
   6   0  -6-4.76706 4.17708   7
   6   0  -5 1.43406 4.16261   7
   6   0  -4 1.84034 4.20880   7
   6   0  -3-4.98228 4.20450   7
   6   0  -2-1.42541 4.54008   7
   6  -1  -6-1.33701 3.85703   7
   6   1  -6-2.62705 4.19289   7
   6   1  -5 1.16885 4.32033   7
   6  -1  -5-4.70167 3.97545   7
   6   1  -4-2.91933 4.42963   7
   6  -1  -4 2.17626 3.83257   7
   6   1  -3-1.81765 4.53001   7
   6  -1  -3 0.55523 4.39884   7
   6  -2  -5-0.32585 3.95284   7
   6   2  -2 0.20578 4.67443   3
   6   2  -1 4.18092 4.99954   3
   6   3  -3 2.54972 4.21710   3
   6   3  -2 3.87506 4.35554   3
   6   3  -1 1.80677 4.78645   3
   6   3   0-4.15516 5.38280   3
   6   4  -2 1.13456 4.26735   3
   6   4  -1 2.73714 4.53853   3
   6   5  -2 0.37748 4.03148   3
  -1   8   3 96.5355 7.04804   6
   1  -8  -3 104.073 6.55113   5
  -1   8   3 96.2168 6.01479   4
   0  -1  -3 0.73057 0.59365   3
  -1   7   2 143.732 6.34644   6
   1  -7  -2 235.326 7.18034   6
   1   9   2 3.11014 2.34714   4
   2  12   4 9.91794 4.58071   2
  -2 -12  -4 3.34211 3.55959   8
  -1   5  10 23.1505 3.95882   5
  -1   5  10 16.8993 3.68202   6
   3   8   0-1.83771 6.77186   4
   3   8   0 1.15149 3.80008   2
   0  -8  -2 17.3191 2.91721   6
   0  -8  -2 15.4120 2.36046   5
  -1  10   4 150.015 8.83942   4
  -1  10   4 139.463 9.93735   6
  -1  10   4 156.935 10.9174   2
  -1   4   1 258.870 13.8467   6
   1  -4  -1 267.003 13.7442   6
   1 -11  -5 100.470 7.61878   8
  -1  11   5 112.099 9.04439   2
  -1  11   5 104.981 8.80242   6
   4   7  -1-0.07901 1.11722   2
   2  10   2-2.50540 3.73769   4
   2  10   2 1.77847 2.89242   2
   1  -5  -1 8.77119 3.18559   6
   3  -4 -10 1.65132 1.28079   4
  -3   4  10 3.56810 3.44002   6
  -3   4  10 5.46700 2.79698   5
   3   7   0 63.3307 5.96723   4
  -3  -7   0 59.4729 4.31773   6
   3   7   0 66.5244 4.67097   2
   0  -5  -1 297.625 15.4873   6
  -2  12   6 36.9262 8.92328   6
   2 -12  -6 64.8680 8.42489   8
  -2  12   6 64.2659 10.3008   2
   2   4   7 164.936 10.0897   3
   2   4   7 165.563 9.69392   6
   2   4   7 165.087 10.5343   5
   2   4   7 172.822 9.24030   8
  -2   5   3 120.741 6.27363   4
   2  -5  -3 136.722 7.00049   6
   2  -5  -3 129.444 6.85712   1
  -1   5   3 67.6877 4.14664   6
   1  -5  -3 70.9182 3.96784   5
  -1   5   3 68.9573 3.67013   4
   1  -5  -3 58.2352 4.11509   6
  -1   5   3 62.2422 4.17419   2
  -3   2   2 21.3991 2.80503   1
  -3   2   2 21.9695 1.57901   4
  -3  -2   2 16.0565 1.15943   6
  -3  -2   2 21.3314 1.86151   5
   3  -2  -2 23.2493 2.24750   8
  -3   2   2 21.8192 1.85641   2
  -1   6   2 213.175 11.9832   6
   1  -6  -2 238.393 11.9431   6
   1  -6  -2 213.209 11.6648   5
   0   0   0    0.00    0.00   0
;
_shelx_hkl_checksum              76388
_shelx_res_file
;
TITL
    Ag-Absorb7-raw.res
    created by SHELXL-2018/1 at 17:01:41 on 11-Mar-2018
CELL 0.56087   3.938975  10.780531   9.944418  90.0000 100.4864  90.0000
ZERR    2.00   0.000915   0.003738   0.004067   0.0000   0.0288   0.0000
LATT 1
SYMM -X+ 0.50000, Y+ 0.50000, -Z+ 0.50000
SFAC Br C H
UNIT 8 12 4
LIST 4
L.S. 50
FMAP 2
PLAN 20
CONF
BOND
BOND $H
ACTA
WGHT    0.124700
FVAR       0.21958
BR1   1    0.583021    0.791037    0.594192    11.00000    0.05817    0.02623 =
         0.03863   -0.00344    0.01103   -0.00317
BR2   1    0.346847    0.574877    0.801801    11.00000    0.04979    0.03804 =
         0.02804   -0.00258    0.01420    0.00093
C1    2    0.532520    0.621446    0.542587    11.00000    0.02347    0.03968 =
         0.03818   -0.00915   -0.00062   -0.00848
C2    2    0.441217    0.531423    0.629460    11.00000    0.02755    0.04139 =
         0.02060   -0.00846    0.01058    0.00056
C3    2    0.402183    0.413591    0.587903    11.00000    0.02347    0.00179 =
         0.07863    0.00136    0.01361   -0.00758
AFIX  43
H3    3    0.331794    0.354165    0.644830    11.00000   -1.20000
AFIX   0
HKLF 4
REM
REM R1 =  0.0470 for     513 Fo > 4sig(Fo)  and  0.1114 for all     893 data
REM     46 parameters refined using      0 restraints
END
WGHT      0.1247      0.0000
REM Highest difference peak  1.548,  deepest hole -1.478,  1-sigma level  0.466
Q1    1   0.8013  0.5149  0.6437  11.00000  0.05    1.55
Q2    1   0.2116  0.4801  0.9782  11.00000  0.05    1.52
Q3    1   0.7392  0.9255  0.5143  11.00000  0.05    1.30
Q4    1   0.3812  0.5704  0.6554  11.00000  0.05    1.27
Q5    1   0.0958  0.5416  0.6709  11.00000  0.05    1.22
Q6    1   0.6190  0.9932  0.5336  11.00000  0.05    1.20
Q7    1   0.1979  0.4592  0.6610  11.00000  0.05    1.17
Q8    1   0.4987  0.5638  1.0169  11.00000  0.05    1.12
Q9    1   0.7659  0.3896  0.6639  11.00000  0.05    1.11
Q10   1   0.4059  0.7930  0.5198  11.00000  0.05    1.10
Q11   1   0.2175  0.3604  0.6666  11.00000  0.05    1.09
Q12   1   0.2089  0.8286  0.5236  11.00000  0.05    1.05
Q13   1   0.4212  0.4232  0.6671  11.00000  0.05    1.04
Q14   1   0.4709  0.6241  0.7196  11.00000  0.05    1.04
Q15   1   0.5946  0.4835  0.6921  11.00000  0.05    1.03
Q16   1   0.8912  0.8356  0.4827  11.00000  0.05    1.01
Q17   1   0.6596  0.4654  0.6702  11.00000  0.05    0.99
Q18   1   0.3791  0.9236  0.4343  11.00000  0.05    0.97
Q19   1   0.6103  0.6204  0.6799  11.00000  0.05    0.97
Q20   1   0.2447  0.5935  0.7019  11.00000  0.05    0.97
;
_shelx_res_checksum              13389
loop_
_space_group_symop_operation_xyz
'x, y, z'
'-x+1/2, y+1/2, -z+1/2'
'-x, -y, -z'
'x-1/2, -y-1/2, z-1/2'
loop_
_atom_site_type_symbol
_atom_site_label
_atom_site_fract_x
_atom_site_fract_y
_atom_site_fract_z
_atom_site_U_iso_or_equiv
_atom_site_adp_type
_atom_site_calc_flag
_atom_site_occupancy
Br Br1 0.5830(3) 0.79104(12) 0.59419(15) 0.0407(5) Uani d 1
Br Br2 0.3468(3) 0.57488(12) 0.80180(13) 0.0377(5) Uani d 1
C C1 0.533(3) 0.6214(13) 0.5426(15) 0.035(3) Uani d 1
C C2 0.441(3) 0.5314(12) 0.6295(13) 0.029(3) Uani d 1
C C3 0.402(3) 0.4136(10) 0.5879(15) 0.034(3) Uani d 1
H H3 0.331794 0.354165 0.644830 0.041 Uiso calc 1
loop_
_atom_site_aniso_label
_atom_site_aniso_U_11
_atom_site_aniso_U_22
_atom_site_aniso_U_33
_atom_site_aniso_U_12
_atom_site_aniso_U_13
_atom_site_aniso_U_23
Br1 0.0582(8) 0.0262(10) 0.0386(12) -0.0032(5) 0.0110(6) -0.0034(4)
Br2 0.0498(7) 0.0380(11) 0.0280(11) 0.0009(5) 0.0142(6) -0.0026(4)
C1 0.023(5) 0.040(10) 0.038(10) -0.008(5) -0.001(5) -0.009(5)
C2 0.028(5) 0.041(10) 0.021(10) 0.001(5) 0.011(5) -0.008(4)
C3 0.023(5) 0.002(8) 0.079(12) -0.008(4) 0.014(5) 0.001(4)
loop_
_atom_type_symbol
_atom_type_description
_atom_type_scat_dispersion_real
_atom_type_scat_dispersion_imag
_atom_type_scat_source
Br Br 0.1811 1.6452 'International Tables Vol C Tables 4.2.6.8 and 6.1.1.4'
C C 0.0015 0.0009 'International Tables Vol C Tables 4.2.6.8 and 6.1.1.4'
H H 0.0000 0.0000 'International Tables Vol C Tables 4.2.6.8 and 6.1.1.4'
loop_
_geom_angle_atom_site_label_1
_geom_angle_atom_site_label_2
_geom_angle_atom_site_label_3
_geom_angle_site_symmetry_1
_geom_angle_site_symmetry_3
_geom_angle
C2 C1 C3 . 3_666 119.5(12)
C2 C1 Br1 . . 122.0(11)
C3 C1 Br1 3_666 . 118.4(10)
C3 C2 C1 . . 120.0(13)
C3 C2 Br2 . . 119.3(10)
C1 C2 Br2 . . 120.7(10)
C2 C3 C1 . 3_666 120.4(11)
C2 C3 H3 . . 119.8
C1 C3 H3 3_666 . 119.8
loop_
_geom_bond_atom_site_label_1
_geom_bond_atom_site_label_2
_geom_bond_site_symmetry_2
_geom_bond_distance
Br1 C1 . 1.900(14)
Br2 C2 . 1.878(12)
C1 C2 . 1.389(19)
C1 C3 3_666 1.419(19)
C2 C3 . 1.336(16)
C3 H3 . 0.9300
loop_
_geom_torsion_atom_site_label_1
_geom_torsion_atom_site_label_2
_geom_torsion_atom_site_label_3
_geom_torsion_atom_site_label_4
_geom_torsion_site_symmetry_1
_geom_torsion_site_symmetry_4
_geom_torsion
C3 C1 C2 C3 3_666 . -2.6(19)
Br1 C1 C2 C3 . . 178.7(8)
C3 C1 C2 Br2 3_666 . -179.1(9)
Br1 C1 C2 Br2 . . 2.2(14)
C1 C2 C3 C1 . 3_666 2.7(19)
Br2 C2 C3 C1 . 3_666 179.2(9)

_cod_database_fobs_code 2242440
