#------------------------------------------------------------------------------
#$Date: 2018-04-30 19:24:07 +0300 (Mon, 30 Apr 2018) $
#$Revision: 207545 $
#$URL: file:///home/coder/svn-repositories/cod/cif/2/24/24/2242447.cif $
#------------------------------------------------------------------------------
#
# This file is available in the Crystallography Open Database (COD),
# http://www.crystallography.net/. The original data for this entry
# were provided by IUCr Journals, http://journals.iucr.org/.
#
# The file may be used within the scientific community so long as
# proper attribution is given to the journal article from which the
# data were obtained.
#
data_2242447
loop_
_publ_author_name
'Zakharov, Boris A.'
'Gal, Zoltan'
'Cruickshank, Dyanne'
'Boldyreva, Elena V.'
_publ_section_title
;
 Studying weak interactions in crystals at high pressures: when hardware
 matters
;
_journal_issue                   5
_journal_name_full               'Acta Crystallographica Section E'
_journal_page_first              613
_journal_page_last               619
_journal_paper_doi               10.1107/S205698901800470X
_journal_volume                  74
_journal_year                    2018
_chemical_formula_moiety         'C6 H2 Br4'
_chemical_formula_sum            'C6 H2 Br4'
_chemical_formula_weight         393.72
_chemical_name_common            1,2,4,5-tetrabromobenzene
_chemical_name_systematic        1,2,4,5-tetrabromobenzene
_space_group_crystal_system      monoclinic
_space_group_IT_number           14
_space_group_name_Hall           '-P 2yn'
_space_group_name_H-M_alt        'P 1 21/n 1'
_symmetry_space_group_name_Hall  '-P 2yn'
_symmetry_space_group_name_H-M   'P 1 21/n 1'
_atom_sites_solution_hydrogens   geom
_audit_creation_method           SHELXL-2018/1
_cell_angle_alpha                90
_cell_angle_beta                 100.557(15)
_cell_angle_gamma                90
_cell_formula_units_Z            2
_cell_length_a                   3.9431(5)
_cell_length_b                   10.7566(18)
_cell_length_c                   9.964(2)
_cell_measurement_reflns_used    514
_cell_measurement_temperature    293(2)
_cell_measurement_theta_max      22.4150
_cell_measurement_theta_min      2.8040
_cell_volume                     415.46(12)
_computing_cell_refinement
;
CrysAlisPro (Rigaku OD, 2016)
;
_computing_data_collection
;
CrysAlisPro (Rigaku OD, 2016)
;
_computing_data_reduction
;
CrysAlisPro (Rigaku OD, 2016)
;
_computing_molecular_graphics
;
Mercury (Macrae <i>et al.</i>,  2008)
;
_computing_publication_material
;
SHELXL-2018/1 (Sheldrick, 2015) and publCIF (Westrip, 2010)
;
_computing_structure_refinement
;
SHELXL-2018/1 (Sheldrick, 2015)
;
_diffrn_ambient_temperature      293(2)
_diffrn_measured_fraction_theta_full 0.601
_diffrn_measured_fraction_theta_max 0.522
_diffrn_measurement_device_type  'Xcalibur, Ruby, Gemini R Ultra'
_diffrn_measurement_method       \w-scan
_diffrn_radiation_type           MoK\a
_diffrn_radiation_wavelength     0.71073
_diffrn_reflns_av_R_equivalents  0.1034
_diffrn_reflns_limit_h_max       5
_diffrn_reflns_limit_h_min       -5
_diffrn_reflns_limit_k_max       11
_diffrn_reflns_limit_k_min       -12
_diffrn_reflns_limit_l_max       10
_diffrn_reflns_limit_l_min       -10
_diffrn_reflns_number            2116
_diffrn_reflns_theta_full        25.242
_diffrn_reflns_theta_max         28.102
_diffrn_reflns_theta_min         2.812
_exptl_absorpt_coefficient_mu    19.289
_exptl_absorpt_correction_T_max  0.434
_exptl_absorpt_correction_T_min  0.361
_exptl_absorpt_correction_type   gaussian
_exptl_absorpt_process_details
;
(CrysAlisPro; Rigaku OD, 2016) and (<i>ABSORB</i>; Angel <i>et al.</i>,
2007)
;
_exptl_crystal_colour            colourless
_exptl_crystal_density_diffrn    3.147
_exptl_crystal_description       block
_exptl_crystal_F_000             356
_exptl_crystal_size_max          0.18
_exptl_crystal_size_mid          0.07
_exptl_crystal_size_min          0.01
_refine_diff_density_max         1.033
_refine_diff_density_min         -0.877
_refine_ls_extinction_method     none
_refine_ls_goodness_of_fit_ref   1.041
_refine_ls_hydrogen_treatment    constr
_refine_ls_matrix_type           full
_refine_ls_number_parameters     31
_refine_ls_number_reflns         531
_refine_ls_number_restraints     0
_refine_ls_restrained_S_all      1.041
_refine_ls_R_factor_all          0.1434
_refine_ls_R_factor_gt           0.0728
_refine_ls_shift/su_max          0.000
_refine_ls_shift/su_mean         0.000
_refine_ls_structure_factor_coef Fsqd
_refine_ls_weighting_details
'w=1/[\s^2^(Fo^2^)+(0.0807P)^2^] where P=(Fo^2^+2Fc^2^)/3'
_refine_ls_weighting_scheme      calc
_refine_ls_wR_factor_gt          0.1485
_refine_ls_wR_factor_ref         0.1773
_reflns_number_gt                313
_reflns_number_total             531
_reflns_threshold_expression     'I > 2\s(I)'
_cod_data_source_file            su5433sup1.cif
_cod_data_source_block           Mo-Absorb7-Ciso_h
_cod_original_cell_volume        415.47(13)
_cod_database_code               2242447
_shelx_space_group_comment
;
The symmetry employed for this shelxl refinement is uniquely defined
by the following loop, which should always be used as a source of
symmetry information in preference to the above space-group names.
They are only intended as comments.
;
_shelx_hkl_file
;
   0  -1   1 204.900 27.6322  11
   0   1  -1 191.324 31.0795   5
   0   1  -1 233.453 33.0423   2
   0  -1   1 206.943 29.9487  12
   0  -1   1 204.411 26.7526  10
   0   1  -1 215.286 30.0059  12
   0   1  -1 224.817 29.0297  10
   0   2  -1 1871.82 110.616  12
   0   2  -1 1866.49 99.0389  10
   0  -2   1 2007.46 74.9000   1
   0  -2   1 1966.98 87.0004   7
   0   2  -1 1854.51 101.328   3
   0   2  -1 2010.52 100.891   8
   0  -2   1 1855.31 98.6728  10
   0  -2   1 2039.67 90.4458   9
   0  -2   1 2098.39 109.463   3
   0   2  -2 4286.46 140.823   9
   0  -2   2 4088.40 165.465  10
   0   2  -2 3982.46 107.009   1
   0   2  -2 4231.23 134.396   7
   0  -2   2 4100.58 176.256  11
   0   2  -2 4161.95 184.710  12
   0  -2   2 3985.53 188.614   6
   0  -2   2 3950.69 142.149   9
   0  -2   3 4954.10 230.175  11
   0  -2   3 5022.29 227.035  10
   0  -2   3 5144.27 250.375   6
   0   2  -3 4744.63 245.566   4
   0   2  -3 5131.51 242.150  12
   0  -2   4 1809.67 172.645   6
   0   2  -4 1537.49 163.651   4
   0  -2   4 1852.57 178.216  10
   0   2  -4 1691.54 167.950  12
   0  -3   1 2061.79 159.840   2
   0   3  -1 2021.84 164.261  12
   0   3  -1 2641.02 198.328   3
   0  -3   2 8757.67 323.688   2
   0  -3   2 9046.02 224.993   7
   0   3  -2 9090.99 292.912   3
   0  -3   2 9293.92 278.169  10
   0  -3   2 9041.69 179.479   1
   0  -3   2 8894.44 223.957   9
   0   3  -2 9271.48 316.379  12
   0   3  -2 9053.02 280.645   8
   0  -3   3 54.9494 24.8895   6
   0   3  -3 82.6511 38.0652   4
   0  -3   3 67.3495 22.9459  10
   0   3  -3 49.7454 23.7674  12
   0   3  -3 57.6323 16.3698   1
   0  -3   3 66.5304 26.2275   9
   0  -3   3 51.8242 20.5612  11
   0   3  -4 1167.60 159.584   4
   0  -3   4 857.239 134.666   6
   0  -3   4 914.659 122.611  10
   0  -3   4 869.062 120.661  11
   0   3  -4 804.593 119.727  12
   0  -3   5 2459.19 214.429  11
   0  -3   5 2631.95 238.635   6
   0   3  -5 2486.90 222.348  12
   0  -3   5 2563.31 218.538  10
   0  -3   6 1042.85 155.948  11
   0   3  -6 871.077 159.082   4
   0   3  -6 986.900 172.382  12
   0  -3   6 370.282 102.426   6
   0   4  -2 348.515 60.9079   8
   0  -4   2 396.520 47.6024   1
   0  -4   2 319.433 49.0999   7
   0  -4   2 413.769 74.5629  10
   0  -4   2 392.880 77.7897   2
   0  -4   2 365.682 56.6932   9
   0   4  -2 310.263 61.0333   3
   0   4  -2 361.310 72.3728  12
   0   4  -3 256.323 67.8085  12
   0   4  -3 226.254 57.6786   3
   0  -4   3 230.963 42.5442   9
   0  -4   3 267.375 58.4591  10
   0   4  -3 215.399 55.3546   4
   0   4  -4 1099.17 137.226  12
   0   4  -4 763.169 60.9255   1
   0  -4   4 923.620 135.340   6
   0  -4   4 1075.25 133.129  11
   0  -4   4 1023.97 119.147  10
   0  -4   5-28.2764 29.9833  11
   0   4  -5-2.81748 11.4550   1
   0   4  -5 4.98426 25.6115   4
   0   4  -5 26.1256 37.8670  12
   0  -4   5-21.1038 30.8047  10
   0  -4   5-23.1693 47.1570   6
   0   4  -6 410.790 118.534   4
   0   4  -6 439.475 106.435  12
   0  -4   6 364.691 86.7364  10
   0  -4   6 374.442 105.403   6
   0  -4   6 458.193 100.316  11
   0   4  -7 2.09613 38.5462  12
   0  -4   7 41.8200 64.9626  10
   0  -4   7 82.6806 55.5508   6
   0   4  -7-17.2714 70.3466   4
   0  -4   7-16.5271 33.5583  11
   0  -5   3 730.185 81.1728   9
   0  -5   3 802.094 128.225   2
   0  -5   3 791.690 110.579  10
   0   5  -3 761.192 107.005   8
   0   5  -3 793.398 121.982  12
   0   5  -3 746.334 108.202   3
   0  -5   3 876.396 93.3484   7
   0  -5   4 1492.65 129.659   9
   0   5  -4 1268.84 167.300   4
   0  -5   4 1310.54 165.296   6
   0   5  -4 1441.08 155.951   3
   0  -5   4 1452.29 146.784  10
   0   5  -4 1487.46 172.977  12
   0  -5   5 5646.53 373.346   6
   0   5  -5 5791.25 363.048  12
   0  -5   5 6053.24 328.868  10
   0  -5   5 6468.82 371.729  11
   0   5  -5 5801.85 332.667   3
   0   5  -5 6240.98 396.235   4
   0  -5   6 1444.78 167.453  10
   0   5  -6 1504.65 197.213  12
   0   5  -6 1420.20 204.133   4
   0  -5   6 1424.37 202.478   6
   0  -5   6 1267.85 173.829  11
   0  -5   7 74.5373 77.1520   6
   0  -5   7 94.6508 107.742  11
   0  -5   7 109.366 89.9307  10
   0   5  -7 48.8918 65.4339   4
   0   5  -7 239.169 103.693  12
   0   5  -8 13.2920 51.6093  12
   0  -5   8 24.3154 45.8257  11
   0  -5   8 3.69634 53.2308  10
   0  -6   2 1956.72 249.128   2
   0   6  -2 2010.11 222.361   8
   0  -6   2 1342.29 254.105   7
   0  -6   2 2271.34 245.853   9
   0  -6   3 3767.70 317.861   5
   0  -6   3 3034.38 192.361   7
   0   6  -3 3740.40 267.864   8
   0  -6   3 2826.53 275.049   2
   0  -6   3 2343.62 520.466  10
   0   6  -3 5259.39 383.937   3
   0  -6   3 3361.58 204.361   9
   0   6  -3 4169.44 339.476  12
   0   6  -4 170.358 73.5436  12
   0  -6   4 151.413 63.3959  10
   0  -6   4 126.527 71.7273   5
   0  -6   4 122.818 44.4055   9
   0   6  -4 94.9058 39.0928   3
   0   6  -4 184.787 79.9102   4
   0  -6   5 312.089 77.5030  10
   0   6  -5 259.278 85.0774  12
   0  -6   5 194.914 67.1112   6
   0   6  -5 208.180 62.4693   3
   0   6  -5 321.384 94.3342   4
   0  -6   6 6.03396 42.5477  10
   0   6  -6 12.2491 49.1134   3
   0  -6   6 104.426 61.1411   6
   0   6  -6-16.8335 38.1027   4
   0   6  -6 68.0423 59.8020  12
   0   6  -7 741.897 171.951   4
   0  -6   7 884.729 159.142  10
   0   6  -7 686.313 138.344   3
   0  -6   7 936.479 166.230  11
   0   6  -7 855.887 171.696  12
   0  -6   7 738.430 163.687   6
   0  -6   8 516.368 143.785  11
   0   6  -8 392.037 137.548  12
   0   6  -8 707.624 160.857   3
   0  -6   8 441.431 119.644   6
   0   6  -8 369.842 139.755   4
   0   6  -9 74.7987 84.4222  12
   0  -6   9-11.0193 92.9966  11
   0  -7   2 477.057 162.089   5
   0   7  -2 45.4026 47.0675   8
   0  -7   2 503.340 159.205   2
   0   7  -3 2279.87 240.178   8
   0  -7   3 2276.17 195.739   7
   0  -7   3 2269.67 292.083   2
   0  -7   3 2557.92 214.274   9
   0  -7   3 2119.45 278.028   5
   0   7  -4-2.26198 30.3338   8
   0   7  -4 10.3288 45.2418   4
   0   7  -4 9.83527 35.9317   3
   0  -7   4 67.8185 40.2416   9
   0   7  -4 65.2472 69.9543  12
   0  -7   4-100.201 59.8774   5
   0  -7   4-31.2074 171.600  10
   0   7  -5 143.606 72.8132   4
   0  -7   5-30.6432 50.3184  10
   0   7  -5 29.1324 44.4431   3
   0   7  -5 69.3757 50.4395  12
   0  -7   5-35.2923 51.9886   6
   0   7  -6-30.8038 35.5570   3
   0   7  -6-37.2331 57.7709   4
   0   7  -6-4.90030 41.8410  12
   0  -7   6-36.7694 30.8605  10
   0  -7   6-103.344 78.1815   6
   0   7  -7 1064.92 191.036  12
   0   7  -7 1235.56 192.156   3
   0   7  -7 1202.29 219.378   4
   0  -7   7 1241.90 217.340   6
   0   7  -8 77.2072 69.7231   4
   0  -7   8 160.114 108.343   6
   0   7  -8 245.774 108.464  12
   0   7  -9 128.393 81.6828   4
   0   7  -9 165.458 82.5381  12
   0  -7   9 199.237 103.942   6
   0  -8   4 15.9579 77.6384   5
   0   8  -4 211.759 112.369   4
   0   8  -4 59.7562 91.8034   8
   0   8  -5 28.8472 55.3607   4
   0   8  -5-125.696 107.574   3
   0   8  -5-10.3384 47.6207  12
   0  -8   5-28.5709 51.5111   6
   0   8  -6 65.5157 46.5733   3
   0   8  -6 43.7606 64.3470   4
   0  -8   6 72.7769 68.0703   6
   0   8  -6-17.6007 42.5833  12
   0   8  -7 911.719 203.100   4
   0  -8   7 958.341 196.582   6
   0   8  -7 908.688 190.748  12
   0   8  -8 402.222 160.923   4
   0  -8   8 170.846 87.7557   6
   0   8  -8 327.734 123.251  12
   0  -8   9-12.9390 80.3975   6
   0   8  -9 96.7655 91.5214   4
   0  -9   4 1807.78 347.547   5
   0   9  -4 2747.98 362.770   8
   0   9  -5 1225.56 251.133   4
   0  -9   5 1667.88 304.585   5
   0  -9   5 1397.12 268.954   6
   0   9  -5 846.617 414.888  12
   0   9  -6 942.815 236.067  12
   0  -9   6 687.184 186.159   6
   0   9  -6 665.839 180.938   4
   0  -9   7 93.8943 80.6718   6
   0   9  -7 15.4311 72.1842   4
   0   9  -7 96.7346 109.604  12
   0  -9   8 114.738 95.1751   6
   0   9  -8-21.5143 78.3173   4
   0   9  -9 66.1771 89.3381   4
   0  -9   9-78.1063 51.3522   6
   0 -10   4-19.6121 94.5521   5
   0 -10   4 310.722 226.926   2
   0  10  -5-26.3105 80.5394   4
   0 -10   5-22.1013 89.5350   5
   0 -10   6 633.049 194.555   6
   0  10  -6 716.433 243.785   4
   0  10  -7 178.550 100.639   4
   0 -10   7 17.9829 79.0696   6
   0  10  -8-103.519 116.028   4
   0 -10   8 116.050 101.772   6
   0  11  -5 241.762 182.600   4
   0 -11   5 87.6475 87.4442   5
   0 -11   6-52.9394 100.387   6
   0  11  -6-39.1628 99.3326   4
   0 -11   7 53.7580 126.161   6
   0  11  -7-157.031 137.844   4
  -1   0   2-3.05074 17.9195   9
   1   0  -2 2.85882 9.39846   7
  -1   0   1 628.817 77.5411   9
  -1   0   1 663.401 50.5311   6
  -1   0   1 561.075 57.2333  11
   1   0  -1 663.353 50.9359   4
   1   0  -1 687.644 55.4074  12
  -1   0   1 627.265 64.7162   8
  -1   0   1 684.564 48.4540   4
   1   0  -1 510.195 57.3814  10
   1   0  -1 606.804 71.6626   7
  -1   0   1 668.295 56.1669  12
  -1   0   0-0.36224 7.36885   9
  -1   0   0 17.5773 15.5844  12
   1   0   0-9.69839 10.1609  11
   1   0   0-3.01784 16.0023  10
   1   0   0-9.67525 15.8266   1
   1   0   0 13.8686 12.1025   3
   1   0   1 13183.1 391.044  10
  -1   0  -1 12655.4 322.578   9
   1   0   1 12427.1 349.935   1
   1   0   2 21.2246 25.2545  10
  -1  -1   3 6071.69 271.107   6
  -1  -1   3 6142.60 310.605   9
   1   1  -3 6263.12 280.479   4
  -1  -1   3 6250.16 287.402  11
  -1  -1   2 126.412 42.2204   9
   1   1  -2 179.544 47.5537   1
  -1  -1   2 167.049 24.9483  10
  -1  -1   2 192.890 27.5567   8
   1   1  -2 160.646 37.7586   4
  -1  -1   2 139.749 31.8666   6
  -1  -1   2 168.479 42.3974  11
   1   1  -2 158.252 31.5663   7
   1  -1  -1 153.801 40.1450  10
   1   1  -1 149.326 26.8212   8
  -1  -1   1 143.892 28.0215   2
   1   1  -1 92.9712 26.1653   3
  -1   1   1 159.684 38.7259   9
  -1  -1   1 112.689 33.7648   9
  -1  -1   1 144.685 34.1869  11
   1   1  -1 124.722 24.3679  10
   1  -1  -1 136.838 34.2265   7
  -1   1   1 276.110 87.7455  12
  -1  -1   1 151.157 26.8523  10
   1  -1   0 3062.94 171.531  10
  -1   1   0 2919.02 171.752   8
  -1  -1   0 2799.81 167.610   9
   1   1   0 3182.83 178.808   3
  -1   1   0 3014.42 150.161   9
   1  -1   0 2995.48 117.787   5
   1  -1   0 3214.18 167.688   1
   1   1   0 3106.32 155.701  10
  -1   1   0 2824.94 155.666  12
  -1   1  -1 10716.8 269.238   9
  -1   1  -1 10982.7 347.954  12
   1  -1   1 10718.6 363.543  10
   1  -1   1 10901.0 203.839   4
   1  -1   1 10929.9 298.038   1
  -1   1  -2 1587.30 154.735  12
   1  -1   2 1803.81 165.505  10
   1  -1   3 337.851 88.6543  10
   1   2  -5 134.839 41.8535   4
  -1  -2   5 244.716 86.8753  11
  -1  -2   4 193.381 60.9375   6
  -1  -2   4 91.3431 39.1714  11
   1   2  -4 262.864 109.650   4
  -1  -2   4 162.337 49.5099   9
  -1  -2   3 65.0690 33.6348   6
   1   2  -3 98.5014 37.9319   1
   1   2  -3 71.8079 16.6823  12
  -1  -2   3 57.5496 23.8638   9
   1   2  -3 50.8994 16.6367   7
  -1  -2   3 98.9955 34.2190  11
   1   2  -3 89.6618 37.6632   4
   1   2  -2 8370.01 324.643   1
  -1  -2   2 7523.54 295.734  11
  -1  -2   2 7953.87 322.792   9
   1   2  -2 7535.28 283.493   4
  -1  -2   2 7974.26 194.422   7
  -1  -2   1 11565.2 379.426   9
  -1  -2   1 11783.9 326.927   2
   1  -2  -1 10761.2 867.261  10
   1   2  -1 12209.8 384.152   1
   1   2  -1 11392.0 231.262  10
  -1  -2   0 3972.80 230.806   9
   1  -2   0 3357.20 197.462  10
  -1   2   0 3546.76 196.722  12
  -1   2  -1 129.404 28.7652   2
  -1   2  -1 159.956 48.2326  12
   1  -2   1 90.2542 30.9632  10
   1  -2   1 167.479 29.5111   9
   1  -2   1 166.647 34.0961   1
   1  -2   1 148.264 41.6415   7
  -1   2  -1 128.738 26.3730   4
   1  -2   1 129.717 27.2576   6
  -1   2  -1 159.405 29.7898   9
   1  -2   1 151.396 36.4346   5
   1  -2   2 141.149 34.0393   6
  -1   2  -2 113.850 34.4314   4
  -1   2  -2 104.407 22.6737   9
   1  -2   2 175.815 54.9226  10
   1  -2   2 114.334 21.6296  11
  -1   2  -2 111.737 35.8424  12
  -1   2  -3 1122.16 148.084  12
   1  -2   3 1302.33 156.747  10
  -1   2  -4 88.6264 43.5292  12
   1  -2   4 96.7680 56.4242  10
   1   3  -6 543.461 120.524   4
  -1  -3   6 466.564 104.422  11
  -1  -3   6 528.319 121.292   6
   1   3  -6 594.845 106.462  12
   1   3  -5 4880.54 242.409  12
   1   3  -5 4922.21 293.608   1
   1   3  -5 4794.19 330.796   4
  -1  -3   5 4923.05 334.015  11
  -1  -3   5 4632.79 189.467  10
  -1  -3   5 5291.24 370.715   9
  -1  -3   4 429.316 38.9119  10
   1   3  -4 607.964 68.3345  12
  -1  -3   4 521.792 97.3342   6
  -1  -3   4 636.084 111.938   9
  -1  -3   4 369.729 40.2024   8
   1   3  -4 591.348 107.787   4
  -1  -3   4 651.273 107.958  11
   1   3  -4 633.796 98.9812   1
  -1  -3   3 501.078 88.5992  11
   1   3  -3 510.798 88.4433   4
   1   3  -3 496.037 86.8364   1
  -1  -3   3 495.681 90.5097   6
   1   3  -3 550.840 94.4446   3
  -1  -3   3 533.047 89.1667   9
   1   3  -3 500.669 54.3049  12
   1   3  -2 901.877 112.183   1
  -1  -3   2 1037.60 125.082   9
  -1  -3   2 1073.34 101.842   5
  -1  -3   2 1010.41 115.602   2
  -1  -3   2 995.404 65.3732   7
  -1  -3   2 1026.46 70.6111  12
   1   3  -1 229.716 57.8467   1
  -1  -3   1 235.208 59.0778   9
  -1  -3   1 249.242 62.3395   2
   1  -3   0 2530.58 204.989   7
  -1   3   0 2480.99 201.187  12
   1  -3   0 2656.03 204.477  10
   1  -3   1 248.960 55.9281   5
   1  -3   1 301.967 68.5724  10
  -1   3  -1 236.782 64.0809   8
   1  -3   1 266.493 36.2920   9
   1  -3   1 253.739 42.6894   1
   1  -3   1 247.124 61.2812   7
   1  -3   1 289.982 50.1104   2
  -1   3  -1 200.461 54.3201  12
   1  -3   2 350.218 46.0402   1
   1  -3   2 362.248 61.8322   6
   1  -3   2 327.525 69.2708   5
  -1   3  -2 363.154 62.4368   4
   1  -3   2 359.335 74.9173   7
   1  -3   2 352.526 83.9347  10
  -1   3  -2 345.272 79.3428  12
  -1   3  -2 394.014 88.8221   8
   1  -3   3 6978.66 308.896   6
   1  -3   3 7054.99 232.513  11
   1  -3   3 6829.32 365.717  10
  -1   3  -3 6873.38 372.312  12
  -1   3  -3 7115.34 317.651   4
   1  -3   4 1161.77 143.957   6
  -1   3  -4 977.111 136.972   4
  -1   3  -4 875.890 79.8241   1
   1  -3   4 1079.56 105.667  11
   1  -3   4 1029.85 154.880  10
  -1   3  -4 976.436 152.539  12
  -1   3  -5 2169.70 259.106  12
   1  -3   5 2121.03 258.790  10
   1  -3   5 1955.32 171.791  11
  -1   3  -6 373.999 135.498  12
   1   4  -8 501.053 115.314   1
   1   4  -8 775.615 148.023  12
  -1  -4   7 279.720 103.513   6
   1   4  -7 137.908 81.0145   4
   1   4  -7 202.854 52.2802  12
  -1  -4   7 92.2707 59.0101  11
   1   4  -7 355.085 95.5025   1
   1   4  -6 54.5912 57.7556   4
  -1  -4   6-7.43926 38.8963  11
   1   4  -6 9.24416 36.0150  12
  -1  -4   6 13.8095 36.7631   9
  -1  -4   6 9.69910 24.0888  10
   1   4  -6 56.0797 38.2823   1
  -1  -4   6 65.8729 46.2147   6
   1   4  -5 101.841 44.2019  12
  -1  -4   5 112.460 58.4971  11
  -1  -4   5 113.299 46.9398   6
   1   4  -5 167.211 57.8652   1
  -1  -4   5 106.612 27.1092  10
  -1  -4   5 145.148 60.6835   9
   1   4  -5 61.1831 47.0528   4
   1   4  -4 6668.56 328.406   1
   1   4  -4 6892.23 381.398   4
  -1  -4   4 6828.63 354.654   9
   1   4  -4 6348.09 360.639   3
   1   4  -4 6461.51 253.005  12
  -1  -4   4 6744.39 371.300  11
  -1  -4   3 305.474 70.6411   9
   1   4  -3 230.981 63.7058   3
   1   4  -3 231.304 60.9694   1
  -1  -4   3 271.764 62.3778   5
  -1  -4   2 692.665 94.8540   5
  -1  -4   2 691.673 107.464   9
   1   4  -2 551.555 87.6623   1
  -1  -4   2 605.517 92.9157   2
   1   4  -2 612.131 99.5013   3
   1  -4   2 4390.99 282.195  10
   1  -4   2 4365.85 154.102   1
  -1   4  -2 4272.49 287.170   8
   1  -4   2 4343.52 274.549   5
  -1   4  -2 4657.14 242.626   4
  -1   4  -2 4717.11 300.025  12
   1  -4   2 4542.40 274.518   7
   1  -4   3 760.662 125.862  10
  -1   4  -3 687.489 106.854   4
   1  -4   3 789.504 111.976   6
  -1   4  -3 906.507 90.2766   3
  -1   4  -3 743.561 133.107  12
   1  -4   4 647.866 87.4625  11
   1  -4   4 497.035 102.299  10
  -1   4  -4 562.923 66.9479   3
  -1   4  -4 566.005 119.715  12
  -1   4  -4 543.645 106.918   4
   1  -4   4 512.468 98.4500   6
   1  -4   5 155.465 69.0191   6
   1  -4   5 149.751 65.0920  10
  -1   4  -5 211.463 79.2996   4
   1  -4   5 160.438 49.8581  11
  -1   4  -5 168.780 76.1887  12
   1  -4   6 3708.31 271.041  11
   1  -4   6 3541.33 351.464  10
  -1   4  -6 3269.72 339.627  12
   1  -4   7-10.8333 38.3021  11
  -1   4  -7 25.5854 47.2168  12
  -1  -5   8 1439.46 233.438  11
   1   5  -8 1376.13 242.809   4
  -1  -5   8 1333.46 234.312   6
  -1  -5   7 533.091 138.704  11
  -1  -5   7 602.587 159.307   6
   1   5  -7 374.095 115.355   4
   1   5  -7 546.150 111.698   1
   1   5  -7 494.587 112.100  12
   1   5  -6 118.092 63.1210   3
  -1  -5   6 149.960 62.9943   6
   1   5  -6 151.081 57.9660  12
   1   5  -6 278.919 71.8546   1
   1   5  -6 195.702 81.7708   4
  -1  -5   6 147.307 73.2215  11
  -1  -5   6 148.647 64.6858   9
  -1  -5   5 681.579 137.110   6
   1   5  -5 720.215 99.1828  12
   1   5  -5 819.042 119.343   1
  -1  -5   5 813.014 132.388   9
   1   5  -5 605.384 123.004   4
  -1  -5   5 865.893 150.327  11
   1   5  -5 594.158 121.828   3
   1   5  -4 1047.89 153.273   3
   1   5  -4 1120.32 134.768   1
   1   5  -4 1052.77 159.529   4
   1   5  -4 1715.10 182.709  12
  -1  -5   4 1099.83 153.231   9
   1   5  -3 510.792 57.2171  10
  -1  -5   3 762.683 123.865   9
   1   5  -3 585.557 56.5879   8
  -1  -5   3 731.295 118.103   5
   1   5  -3 478.709 105.599   3
   1   5  -3 635.373 108.312   1
  -1  -5   2 2919.52 268.777   9
  -1  -5   2 3073.08 256.962   5
   1   5  -2 3083.12 281.516   3
   1  -5   1 2558.55 253.282   5
  -1   5  -1 2571.48 266.445  12
   1  -5   1 3062.54 303.486  10
   1  -5   1 2732.31 236.718   2
  -1   5  -1 2572.14 262.306   8
   1  -5   1 2833.84 267.355   7
   1  -5   2 853.320 65.1836   1
  -1   5  -2 1057.53 151.176   8
   1  -5   2 1037.89 149.218   5
   1  -5   2 1028.51 126.062   2
   1  -5   2 910.737 129.489   7
  -1   5  -2 1036.19 151.724  12
   1  -5   2 1013.62 142.573  10
   1  -5   3 574.331 102.406   6
   1  -5   3 699.071 125.527  10
   1  -5   3 591.615 118.016   5
  -1   5  -3 587.631 121.124   8
  -1   5  -3 621.340 109.852   4
  -1   5  -3 610.850 122.292  12
   1  -5   4 109.938 59.6314   6
  -1   5  -4 188.051 56.1616   3
   1  -5   4 134.077 68.9789  10
  -1   5  -4 94.6071 67.4121  12
   1  -5   5 143.274 72.5379   6
  -1   5  -5 91.6010 34.2510   3
   1  -5   5 28.8372 48.2775  10
  -1   5  -5 110.103 64.8778   4
  -1   5  -5 171.709 91.0557  12
  -1   5  -6 1235.51 217.095   4
  -1   5  -6 1296.36 219.643  12
   1  -5   6 1676.25 237.198   6
   1  -5   6 1569.97 186.619  11
   1  -5   6 1201.54 206.731  10
   1  -5   7 316.193 127.927  10
  -1   5  -7 398.364 124.611  12
  -1  -6   9 467.768 151.305  11
   1   6  -9 253.245 120.332   3
  -1  -6   9 401.394 149.381   6
   1   6  -9 377.891 138.358   4
  -1  -6   8 157.037 43.9621  11
  -1  -6   8 302.155 140.387   6
   1   6  -8 85.9290 47.5455   4
   1   6  -8 308.967 116.830   3
  -1  -6   7-2.29955 64.0095  11
  -1  -6   7 58.5966 61.7418   6
   1   6  -7 103.901 74.2185   3
   1   6  -7 70.4319 47.3710   4
  -1  -6   6 155.233 81.3169   6
   1   6  -6 108.372 60.7348   4
  -1  -6   6 201.882 70.9747   9
   1   6  -6 211.066 61.8179   1
   1   6  -6 116.066 43.8014   3
   1   6  -6 86.6248 36.9338  12
   1   6  -5 751.126 113.322   1
  -1  -6   5 625.179 126.400   9
  -1  -6   5 763.459 149.592   6
   1   6  -5 602.652 144.709   4
   1   6  -5 979.604 148.937  12
  -1  -6   4 1492.22 194.587   5
   1   6  -4 1377.27 192.089   3
  -1  -6   4 1432.06 181.239   9
   1   6  -4 1558.56 214.755   4
   1   6  -3 2152.02 143.857   8
  -1  -6   3 1850.54 211.599   9
  -1  -6   3 2038.63 246.604   2
   1   6  -3 1998.33 241.282   3
   1   6  -2 1645.72 335.943   3
  -1  -6   2 2733.06 335.517   2
   1  -6   1 1264.06 235.357   5
  -1   6  -1 1648.66 380.091  12
   1  -6   1 1118.04 203.862   2
  -1   6  -1 1704.40 322.086   8
  -1   6  -2 1793.16 230.318  12
   1  -6   2 1831.61 235.645  10
   1  -6   2 1223.81 97.5906   9
   1  -6   2 1765.45 199.756   2
   1  -6   2 1362.63 194.230   5
  -1   6  -2 1744.52 218.392   8
   1  -6   2 1621.78 192.361   7
   1  -6   3 49.9913 47.9231  10
   1  -6   3-12.5566 45.1280   5
  -1   6  -3-11.2795 46.1650   8
  -1   6  -3-17.0340 32.7599  12
   1  -6   4-10.6546 28.3767   6
   1  -6   4 5.65884 29.6518  10
  -1   6  -4-33.1918 51.0445  12
  -1   6  -4 49.3217 43.6704   4
   1  -6   5 414.029 109.138   6
  -1   6  -5 416.097 122.710  12
   1  -6   5 432.662 113.219  10
  -1   6  -5 431.268 113.900   4
   1  -6   6 160.348 66.6387   6
  -1   6  -6 57.0629 62.9571  12
   1  -6   6 154.175 80.9582  10
  -1   6  -6 159.149 82.0620   4
   1  -6   7 634.594 156.545   6
   1  -6   7 505.991 133.900  10
  -1   6  -7 455.743 144.230   4
  -1   6  -7 451.934 146.931  12
  -1   6  -8 724.310 196.646  12
   1  -6   8 688.620 193.463  10
   1   7 -10-164.420 157.719   4
   1   7 -10-33.3665 94.3630   3
  -1  -7   9 44.0440 79.9225   6
   1   7  -9 44.7458 49.1227   3
   1   7  -9 58.2500 107.838   4
  -1  -7   7 90.1493 43.4534   6
   1   7  -7 174.102 92.6558   4
   1   7  -7 52.1242 50.2091   3
  -1  -7   6 3741.94 365.076   6
  -1  -7   6 4226.33 337.773   9
   1   7  -6 3511.30 372.130   4
   1   7  -6 3182.48 327.207   3
   1   7  -5-24.8173 41.9557   3
  -1  -7   5-110.207 101.969   6
  -1  -7   5-96.8934 45.1952   9
   1   7  -5 16.6886 61.2655   4
   1   7  -4 394.634 122.588   3
  -1  -7   4 439.494 126.724   5
  -1  -7   4 473.451 114.264   9
  -1  -7   3 70.6864 68.9963   5
  -1  -7   3 152.439 74.9355   9
  -1  -7   3 126.971 66.6262   2
   1   7  -3 189.257 54.3108   8
   1   7  -3 242.863 130.155   3
  -1   7  -2 1526.83 313.027  12
  -1   7  -2 1373.82 239.170   8
   1  -7   2 1184.50 218.050   5
   1  -7   2 1134.22 193.414   2
  -1   7  -3 245.332 82.5439   4
   1  -7   3 370.827 108.172   5
  -1   7  -3 398.814 129.064  12
   1  -7   3 295.407 90.3691  10
  -1   7  -3 246.516 97.2477   8
   1  -7   4 4240.34 370.367   5
   1  -7   4 3938.36 337.519  10
  -1   7  -4 3910.96 324.142   4
  -1   7  -4 4010.13 366.363  12
   1  -7   4 3940.98 320.918   6
   1  -7   5 46.7211 70.4373  10
   1  -7   5 75.0029 58.1007   6
  -1   7  -5 120.033 78.2787   4
  -1   7  -5-34.7376 62.4225  12
   1  -7   6 43.1966 49.3208  10
  -1   7  -6 38.9928 40.8706   4
   1  -7   6-62.0906 44.4148   6
  -1   7  -6 6.96969 46.8612  12
  -1   7  -7 78.7497 79.1839   4
  -1   7  -7 120.657 68.1474  12
   1  -7   7 105.916 91.2967   6
   1  -7   7 57.8558 87.2233  10
  -1   7  -9 145.820 107.056  12
   1   8 -10 424.903 172.148   4
  -1  -8  10 83.2676 55.8603   6
   1   8  -9 363.675 147.903   3
   1   8  -9 44.5122 85.8922   4
  -1  -8   9 361.446 135.082   6
  -1  -8   8 330.847 145.919   6
   1   8  -8 340.421 140.068   3
   1   8  -8 310.808 124.741   4
  -1  -8   7 233.284 102.880   6
   1   8  -7 312.014 112.906   3
   1   8  -7-21.4337 42.7732   4
  -1  -8   6 20.5490 76.4807   6
   1   8  -6-31.3677 46.8408   3
   1   8  -6-19.6372 54.2041   4
  -1  -8   5 1120.87 198.568   9
   1   8  -5 798.872 180.052   3
   1   8  -5 630.430 184.930   4
  -1  -8   4 279.538 132.938   5
   1   8  -4 468.242 192.201   3
  -1  -8   4 141.139 62.8072   9
  -1  -8   4 140.561 103.800   2
  -1  -8   3 1349.32 277.878   5
  -1  -8   3 1289.12 285.771   9
  -1  -8   3 1160.25 274.454   2
  -1   8  -3 174.126 107.671  12
   1  -8   3 355.089 132.315   5
   1  -8   3 307.270 127.947   7
   1  -8   3 407.196 190.598  10
   1  -8   3 262.058 119.663   2
  -1   8  -3 147.504 77.0111   8
   1  -8   4 3.42001 33.0932   6
   1  -8   4-77.8031 57.7023   5
   1  -8   4-47.7466 46.1998  10
  -1   8  -4 1.24993 42.6137   4
  -1   8  -4 114.314 92.8138   8
   1  -8   5 729.411 155.515   6
  -1   8  -5 680.888 165.732  12
  -1   8  -5 681.104 155.015   4
   1  -8   5 839.483 184.832  10
   1  -8   6 253.662 99.2999  10
   1  -8   6 106.346 79.3218   6
  -1   8  -6 168.793 102.686  12
  -1   8  -6 128.732 94.2430   4
   1  -8   7 173.680 82.9331   6
   1  -8   7 237.304 109.468  10
  -1   8  -7 133.418 82.5273   4
  -1   8  -7 295.698 128.314  12
   1  -8   8 555.448 155.004   6
  -1   8  -8 441.319 142.557   4
  -1   8  -8 590.522 175.887  12
  -1   8  -9 146.514 124.624  12
  -1  -9   9 687.772 214.207   6
   1   9  -9 606.559 207.962   4
   1   9  -8 69.8917 60.3424   3
   1   9  -8 265.691 142.013   4
   1   9  -7 215.388 129.588   3
   1   9  -7 324.657 159.416   4
  -1  -9   7 254.727 130.359   6
   1   9  -6-18.1773 71.9754   3
   1   9  -6-49.9250 116.780   4
   1   9  -5 198.464 102.026   3
  -1  -9   5-66.6650 70.9652   5
   1   9  -5 118.354 95.4718   4
  -1  -9   4 516.090 199.474   5
  -1  -9   4 601.139 185.029   9
  -1  -9   4 816.273 269.627   2
  -1   9  -4 309.921 224.600  12
   1  -9   4 109.953 111.333   5
  -1   9  -4 150.245 137.273   8
  -1   9  -4 144.786 66.8418   4
  -1   9  -5-91.5291 113.343  12
   1  -9   5 36.3439 74.6344   6
  -1   9  -5 50.8160 53.0345   4
  -1   9  -6 126.879 113.085  12
   1  -9   6 283.297 128.468   6
   1  -9   6 202.274 113.588  10
  -1   9  -6 89.4976 89.3339   4
  -1   9  -7 295.574 108.279  12
  -1   9  -7 302.724 135.729   4
   1  -9   7 282.551 103.505   6
   1  -9   8 122.668 89.6081   6
  -1   9  -8-7.50365 78.5025  12
  -1   9  -8 92.7738 59.2858   4
  -1   9  -9 152.127 120.403  12
   1  -9   9-117.681 144.302   6
  -1 -10   8 314.511 166.364   6
   1  10  -8 476.091 194.296   4
  -1 -10   7 502.513 211.389   6
   1  10  -7 408.781 167.298   4
   1  10  -7 544.630 239.599   3
  -1 -10   6 126.926 137.649   6
   1  10  -6-124.453 85.3329   4
  -1 -10   5 444.874 149.151   5
   1  10  -5 575.980 191.078   4
  -1  10  -4 297.651 202.181   4
   1 -10   4 110.595 160.579   5
  -1  10  -4-159.165 92.0841   8
   1 -10   5 365.291 170.038   6
  -1  10  -5 401.223 225.402  12
  -1  10  -5 521.174 209.438   4
   1 -10   6 745.168 198.781   6
  -1  10  -6 444.841 132.379  12
  -1  10  -6 608.193 209.919   4
   1 -10   7 94.7448 81.8657   6
  -1  10  -7-19.3240 70.5413   4
  -1  10  -7-38.5896 99.8779  12
  -1  10  -8-60.2022 115.131  12
   1 -10   8-67.3671 60.0702   6
  -1  10  -8-27.1678 111.222   4
  -1 -11   7 817.986 290.691   6
   1  11  -7 873.975 287.611   4
   1  11  -6 230.260 226.772   4
  -1  11  -5 234.861 243.005   4
   1 -11   5 151.831 160.621   6
  -1  11  -6 319.731 409.926  12
   1 -11   6 33.7371 80.4198   6
  -1  11  -6-185.359 166.531   4
  -1  11  -7 160.314 282.463  12
   1 -11   7 296.772 193.090   6
  -1  11  -7 430.924 269.232   4
   1 -12   6 383.961 258.655   6
  -2   0   4 2400.56 232.784  11
   2   0  -4 2059.99 212.081   7
  -2   0   4 2091.54 254.254   9
  -2   0   3 18.5910 28.7306  11
  -2   0   3 38.6646 45.1816   9
   2   0  -3-29.5968 34.2097   7
  -2   0   3-21.0999 15.6014   8
  -2   0   2 9747.21 349.993  11
   2   0  -2 10316.1 394.650  10
   2   0  -2 9845.51 412.389   7
  -2   0   2 9594.79 445.691   9
  -2   0   2 9449.47 368.929   8
   2   0  -1-155.858 98.0697   1
   2   0  -1-37.0225 46.9697  10
  -2   0   1-41.5312 44.5210   9
   2   0  -1-80.9336 55.5342   3
  -2   0   1-82.8618 58.4857   8
  -2   0   1-117.657 53.0731  12
  -2   0   0 374.723 71.2635  12
   2   0   0 414.594 83.5233  10
   2   0   0 475.213 98.3808   1
  -2   0   0 443.342 90.3690   9
   2   0   0 356.601 67.4681   3
   2   0   1 2.78284 28.7320  10
  -2   0  -1-15.0129 28.3186   9
   2   0   1 25.1804 35.0998   1
  -2   0  -1-25.4397 27.8219  12
   2   0   2 1071.34 163.964  10
  -2   0  -2 1056.59 157.512   9
  -2   0  -2 849.897 135.886  12
  -2  -1   5 448.296 102.659  11
   2   1  -5 573.561 117.868   7
  -2  -1   5 570.698 149.494   9
  -2  -1   4 1951.21 200.951  11
   2   1  -4 2149.96 230.553   1
  -2  -1   4 2088.47 233.309   9
  -2  -1   4 2137.22 150.394   8
   2   1  -4 2108.58 177.845   7
   2   1  -4 1983.59 99.3885  12
  -2  -1   3 64.0742 43.3363  11
   2  -1  -3 47.7639 33.8889   7
   2   1  -3 20.0881 12.0341   5
   2   1  -3 35.8149 17.4784  12
   2   1  -3 40.4319 24.2794   4
  -2  -1   3 42.8484 23.8118   6
  -2  -1   3 30.7839 45.7137   9
   2   1  -3 24.6759 23.9547   7
   2   1  -3-12.0843 37.5428   1
  -2   1   3 54.6762 36.4217   9
  -2  -1   3 17.9870 18.9528   8
  -2  -1   2 488.908 146.115  12
  -2   1   2 65.0341 22.9111  11
   2   1  -2 88.4815 37.0292  10
   2  -1  -2 187.879 63.8986  10
  -2  -1   2 157.007 61.5785   9
  -2   1   2 87.0109 50.7337   9
   2  -1  -2 141.000 61.6708   1
   2   1  -2 85.4517 43.8801   3
   2   1  -2 106.029 31.1673   4
  -2   1   2 131.122 52.2933   8
   2  -1  -2 101.946 48.1333   7
  -2  -1   2 92.1972 30.3793  11
  -2  -1   2 75.3305 26.1885   6
   2   1  -1 2283.06 187.374   3
  -2   1   1 2691.03 148.258  11
   2   1  -1 2307.37 176.768  10
   2  -1  -1 2477.95 202.498  10
   2  -1  -1 2435.92 224.901   1
   2  -1  -1 2519.01 108.641   5
  -2   1   1 2381.79 208.598   9
   2   1  -1 2536.86 134.474   4
  -2   1   1 2325.88 209.830   8
   2  -1  -1 2377.34 221.606   7
  -2  -1   1 2478.93 145.572  12
  -2  -1   1 2523.79 219.451   9
  -2   1   1 2363.69 179.355  12
   2  -1   0 652.558 117.068   1
  -2  -1   0 655.471 110.392   9
   2  -1   0 742.296 118.327  10
   2   1   0 647.539 99.4723  10
   2  -1   0 668.042 76.7730   3
  -2   1   0 701.912 110.101   9
   2   1   0 1048.92 151.326   3
  -2   1   0 688.593 105.731  12
  -2  -1   0 682.496 64.4571   2
  -2   1   0 766.147 122.145   8
  -2  -1   0 669.526 87.7414  12
   2   1   0 705.704 121.713   1
   2   1   1 4119.23 304.839  10
   2  -1   1 3967.66 289.787  10
   2   1   1 4157.88 315.255   1
  -2  -1  -1 3834.77 284.231   9
  -2   1  -1 3982.45 245.874   9
  -2  -1  -1 3924.31 265.740  12
  -2   1  -1 3415.22 249.974  12
   2  -1   1 3703.79 259.738   1
   2  -1   2 3151.90 273.489  10
  -2   1  -2 3345.62 268.043  12
  -2   1  -2 3467.47 229.145   9
   2  -1   3 299.561 99.8351  10
  -2   1  -3 363.807 95.5388   9
  -2   1  -3 316.917 105.163  12
  -2  -2   6 2739.83 288.837  11
   2   2  -6 2510.91 300.812   1
  -2  -2   6 2646.57 356.158   9
   2   2  -6 2893.13 236.027   7
  -2  -2   5 2665.37 256.337  11
   2   2  -5 2513.85 262.092   1
   2   2  -5 2709.79 253.380   4
  -2  -2   5 2759.36 285.297   9
  -2  -2   5 2750.01 147.019   8
   2   2  -5 2722.42 183.596   7
  -2  -2   4 2219.01 215.006  11
   2   2  -4 2195.31 229.320   1
  -2  -2   4 2244.49 205.279   6
  -2  -2   4 1994.23 226.772   9
   2   2  -4 2355.71 212.420   4
  -2  -2   4 2319.26 125.251   8
   2   2  -4 2266.03 169.119   7
  -2  -2   3 646.663 111.199  11
  -2  -2   3 795.080 108.045   6
   2   2  -3 833.517 138.028   1
   2   2  -3 746.746 109.304   4
  -2  -2   3 742.860 135.031   9
  -2  -2   2 646.470 65.5320  12
   2  -2  -2 437.791 98.5807   7
   2  -2  -2 1158.91 317.930  10
   2   2  -2 513.546 102.260   3
   2   2  -2 654.940 93.1792   4
  -2  -2   2 642.102 123.604   9
   2   2  -2 669.532 126.817   1
   2   2  -2 523.782 73.4359  10
  -2   2   2 382.040 94.4197   9
  -2   2   2 616.735 123.986   8
  -2  -2   2 567.285 81.1785   6
  -2   2   1 390.394 52.2388  11
   2   2  -1 326.328 62.8263  10
   2   2  -1 336.975 80.9094   3
   2  -2  -1 361.688 51.1202   5
   2  -2  -1 432.312 88.8613   1
  -2   2   1 494.893 96.0570   9
  -2   2   1 384.557 88.5954  12
  -2  -2   1 368.083 58.3361   2
  -2   2   1 369.228 85.8327   8
  -2  -2   1 416.297 54.5466  12
  -2  -2   1 339.605 85.4423   9
   2  -2  -1 351.841 85.8012  10
   2  -2  -1 383.876 89.3014   7
   2  -2   0 667.456 69.8898   3
   2   2   0 749.820 115.599  10
   2  -2   0 780.615 127.821  10
   2  -2   0 717.781 86.2436   5
  -2  -2   0 591.203 112.576   9
   2   2   0 374.204 92.5499   3
   2  -2   0 675.148 111.627   1
  -2   2   0 613.015 98.1740   9
  -2   2   0 707.064 115.198  12
   2  -2   1 193.997 65.7972  10
   2  -2   1 228.131 63.5465   1
  -2   2  -1 294.612 69.1970   9
  -2   2  -1 218.189 76.4100  12
   2  -2   2 568.044 131.443  10
   2  -2   2 541.421 104.106   1
  -2   2  -2 554.400 85.0055   9
  -2   2  -2 561.339 115.766  12
   2  -2   3 399.241 110.303  10
  -2   2  -3 433.324 76.2523   9
  -2   2  -3 437.094 113.569  12
   2  -2   4 2103.35 275.180  10
  -2   2  -4 2500.93 213.087   9
  -2   2  -4 2111.93 262.105  12
  -2  -3   7 829.952 172.473  11
   2   3  -7 487.517 94.4843   4
   2   3  -7 734.770 170.825   1
  -2  -3   6 200.543 76.1777   6
  -2  -3   6 311.868 97.9464  11
   2   3  -6 192.948 61.9918   4
  -2  -3   6 344.267 127.215   9
   2   3  -6 213.990 70.3933   1
   2   3  -5 17.5686 37.2933   1
  -2  -3   5 31.0688 26.6977   6
  -2  -3   5 108.933 61.4724  11
  -2  -3   5-6.17279 43.4559   9
   2   3  -5-2.90109 32.8418   4
   2   3  -4 1217.45 174.164   1
   2   3  -4 985.380 143.759   4
  -2  -3   4 1038.64 168.246   9
   2   3  -4 1110.33 166.986   3
  -2  -3   4 1082.44 162.500  11
   2   3  -3 421.970 103.061   1
   2   3  -3 336.745 82.1347   3
  -2  -3   3 428.093 110.024   9
   2   3  -3 383.405 85.3723   4
  -2  -3   3 340.407 79.8477   6
  -2  -3   2 978.690 152.579   9
  -2  -3   2 1157.17 132.664   2
   2  -3  -2 399.085 116.196   7
   2   3  -2 1130.26 96.4373  10
   2   3  -2 1094.17 159.804   1
  -2   3   1 795.904 164.740  12
   2   3  -1 450.646 73.8999  10
   2  -3  -1 399.080 103.715  10
  -2  -3   1 312.817 75.0535   9
   2   3  -1 492.748 107.622   1
  -2  -3   1 459.177 87.3339   2
   2  -3   0 5099.77 304.803   1
   2  -3   0 4972.50 328.165  10
   2  -3   0 4889.88 247.271   5
  -2   3   0 5007.54 322.800  12
  -2  -3   0 5334.70 379.475   9
  -2   3   0 4394.70 326.886   9
  -2   3   0 4762.02 147.954   4
   2  -3   1 123.834 33.2774   6
   2  -3   1 1.18132 32.2486  10
  -2   3  -1 41.2745 16.9600   4
   2  -3   1 27.5651 14.9675   1
  -2   3  -1 48.7916 14.8895   9
  -2   3  -1-11.1854 28.8306   8
   2  -3   1 20.8917 26.9516   7
  -2   3  -1-0.59935 25.4974  12
  -2   3  -2 636.454 83.7830   9
  -2   3  -2 725.611 138.578  12
   2  -3   2 620.833 98.3305   1
   2  -3   2 750.963 146.307  10
  -2   3  -3 980.976 165.941  12
  -2   3  -3 1121.25 107.936   9
   2  -3   3 1093.47 189.283  10
   2  -3   4 41.5586 42.8217  10
  -2   3  -4 122.265 68.7259  12
   2  -3   5 208.061 85.5968  10
  -2   3  -5 190.359 77.6968  12
  -2  -4   8 912.675 249.972  11
   2   4  -8 364.566 134.576   1
  -2  -4   7 545.104 149.830   6
  -2  -4   7 529.468 122.515  11
   2   4  -7 564.219 146.454   1
   2   4  -7 413.470 134.881   4
  -2  -4   7 643.731 191.939   9
  -2  -4   6 471.034 126.393   6
  -2  -4   6 431.988 122.303  11
   2   4  -6 635.082 144.423   1
   2   4  -6 374.810 115.897   4
  -2  -4   6 529.789 136.039   9
  -2  -4   5-16.4105 42.2869  11
  -2  -4   5 63.3917 55.4471   6
  -2  -4   5-20.1691 27.3956   9
   2   4  -5 42.0634 45.1361   3
   2   4  -5 73.7214 50.7369   4
   2   4  -5 53.4986 58.8204   1
  -2  -4   4 250.340 75.8188   6
   2   4  -4 345.240 99.1331   1
   2   4  -4 394.979 106.588   3
  -2  -4   4 243.831 87.1107   9
   2   4  -4 292.989 94.5708   4
  -2  -4   3 4602.95 352.804   9
   2   4  -3 4404.93 295.667   4
   2   4  -3 4213.35 320.437   3
   2   4  -3 4282.17 327.409   1
   2   4  -2 15.8066 14.4949  10
   2   4  -2 46.1668 38.4850   3
  -2  -4   2 59.4198 21.7086   5
  -2  -4   2 27.6345 20.0627   9
   2   4  -2 3.09926 30.7007   1
  -2  -4   2 15.1179 39.7216   2
   2  -4  -1 4591.43 525.781  10
  -2  -4   1 2587.31 279.683   9
  -2   4   1 3492.70 408.786   8
  -2  -4   1 3662.20 359.967   2
   2  -4  -1 2816.78 330.864   7
   2   4  -1 2364.67 264.220   1
   2   4  -1 3779.57 411.999   3
   2  -4   0 114.394 64.0324  10
   2  -4   0 74.3583 51.3041   1
   2  -4   0 95.3844 42.1096   5
  -2   4   0 124.737 61.6155  12
  -2   4   0 106.856 62.7096   8
   2  -4   0 143.805 36.7090   2
   2  -4   0 78.2635 51.9288   7
   2  -4   1 1678.06 121.305   6
   2  -4   1 1592.54 154.492   1
   2  -4   1 1529.24 198.079  10
   2  -4   1 1640.12 170.594   5
  -2   4  -1 1686.92 120.986   4
  -2   4  -1 1498.65 209.501   8
   2  -4   1 1447.21 191.017   7
  -2   4  -1 1442.76 190.010  12
   2  -4   2 171.556 49.0847   6
   2  -4   2 278.410 99.4220  10
  -2   4  -2 268.651 55.0123   4
  -2   4  -2 206.581 93.6955   8
   2  -4   2 300.533 75.4999   1
  -2   4  -2 136.238 75.0791  12
   2  -4   3 74.3565 35.0480   6
   2  -4   3 119.510 73.6387  10
  -2   4  -3 131.751 60.8837  12
   2  -4   4 655.976 143.743  10
  -2   4  -4 821.572 161.262  12
   2  -4   5 90.2749 99.0576  10
  -2   4  -5-121.443 101.501  12
   2  -4   6 244.581 112.779  10
  -2   4  -6 322.114 155.957  12
  -2  -5   8 755.186 188.807   6
  -2  -5   8 641.766 169.314  11
   2   5  -8 564.566 175.367   4
   2   5  -8 898.119 193.546   1
  -2  -5   7 2060.41 279.573  11
   2   5  -7 2656.99 298.655   1
   2   5  -7 1961.53 275.930   4
  -2  -5   7 2433.23 320.917   9
   2   5  -7 2162.02 299.343   3
  -2  -5   7 2310.31 299.593   6
  -2  -5   6 402.844 118.768   6
   2   5  -6 367.348 113.570   1
   2   5  -6 507.058 142.307   3
  -2  -5   6 413.675 117.080   9
   2   5  -6 397.647 127.998   4
   2   5  -5-17.7626 54.4058   1
  -2  -5   5 9.21412 50.2124   6
   2   5  -5 1.08434 38.2347   3
  -2  -5   5 65.5681 54.9068   9
   2   5  -5 115.135 72.6622   4
   2   5  -4 5.79201 33.8590   4
  -2  -5   4-30.4109 22.8697   6
   2   5  -4-20.6105 26.1367   3
  -2  -5   4 96.0606 66.3336   9
   2   5  -4-12.5956 46.7204   1
  -2  -5   3 1706.84 229.721   9
  -2  -5   3 1632.06 197.197   2
  -2  -5   3 1502.69 144.478   5
   2   5  -3 1554.13 204.759   1
   2   5  -3 1731.49 218.750   3
   2   5  -2 184.517 48.7995  10
   2   5  -2 269.839 95.5735   1
   2   5  -2 261.618 97.0221   3
  -2  -5   2 229.824 72.6322   5
  -2  -5   2 152.200 66.8655   9
  -2   5  -1 828.553 161.147  12
   2  -5   1 835.564 114.017   1
   2  -5   1 721.316 142.114  10
  -2   5  -1 1014.29 111.869   4
   2  -5   1 692.819 142.856   7
  -2   5  -1 637.223 137.508   8
   2  -5   1 579.559 113.325   5
   2  -5   2 1139.38 123.055   6
   2  -5   2 1521.86 154.647   1
   2  -5   2 917.119 166.627  10
   2  -5   2 835.259 142.517   5
  -2   5  -2 1132.89 125.825   4
  -2   5  -2 836.397 166.118   8
   2  -5   2 1046.61 178.274   7
  -2   5  -2 1111.93 182.482  12
  -2   5  -3 2391.28 207.138   4
  -2   5  -3 2013.22 266.012  12
   2  -5   3 1943.55 251.542  10
   2  -5   3 2190.71 188.703   6
   2  -5   4 408.835 98.7273   6
   2  -5   4 470.315 145.039  10
  -2   5  -4 440.840 151.128  12
   2  -5   5 47.4405 62.3155  10
  -2   5  -5 190.594 99.6827  12
  -2   5  -6 208.094 78.9577  12
   2  -5   6 163.815 78.9182  10
   2  -5   7 262.659 124.672  10
  -2   5  -7 128.839 52.1634  12
  -2  -6   9 591.932 182.844   6
  -2  -6   9 514.814 193.029  11
   2   6  -9 344.737 116.039   4
   2   6  -9 381.160 120.793   3
  -2  -6   8 19.2084 57.9015   6
   2   6  -8 48.9977 74.2716   3
   2   6  -8-85.5340 67.4356   4
  -2  -6   8 108.345 105.522   9
   2   6  -7 2.37656 40.9656   1
  -2  -6   7 128.791 89.5032   6
   2   6  -7-34.7215 45.2599   3
  -2  -6   7-6.44069 51.8163   9
   2   6  -7 10.8977 38.7504   4
  -2  -6   6 401.172 106.695   6
   2   6  -6 491.819 142.673   3
  -2  -6   6 495.886 146.565   9
   2   6  -6 474.819 145.633   4
   2   6  -6 616.548 124.625   1
  -2  -6   5 2183.05 259.648   6
  -2  -6   5 2318.71 296.860   9
   2   6  -5 2188.44 270.476   4
   2   6  -5 2313.13 253.643   1
   2   6  -5 2078.88 265.238   3
  -2  -6   4 1507.98 232.770   9
   2   6  -4 1408.20 208.398   4
   2   6  -4 1432.98 204.331   1
   2   6  -4 1357.41 212.598   3
   2   6  -3 256.956 113.177   3
  -2  -6   3 330.985 115.264   9
  -2  -6   3 307.774 128.905   2
  -2   6   0 2.05658 386.477  12
   2  -6   0 152.160 173.464  10
   2  -6   0 147.309 296.883   5
  -2   6   0-10.6258 384.632   8
   2  -6   0-9.61710 132.918   7
   2  -6   1 2045.26 205.537   1
   2  -6   1 1966.49 268.637  10
   2  -6   1 1776.94 243.566   5
   2  -6   1 2238.28 215.135   2
  -2   6  -1 1898.54 293.795   8
   2  -6   1 1809.67 274.106   7
  -2   6  -1 1997.72 288.664  12
   2  -6   2 49.4895 33.4809   6
   2  -6   2 45.2379 45.7151  10
   2  -6   2 147.091 73.7752   5
  -2   6  -2 126.344 80.4618  12
  -2   6  -2 38.0316 73.3681   8
  -2   6  -2 45.2183 34.2722   4
   2  -6   2-23.8268 59.4653   7
   2  -6   3 243.921 81.7215   6
   2  -6   3 182.397 77.4018  10
  -2   6  -3 192.948 90.5048  12
   2  -6   4 561.509 109.770   6
   2  -6   4 641.416 167.097  10
  -2   6  -4 607.903 130.217   4
  -2   6  -4 621.856 165.501  12
   2  -6   5 500.721 134.828  10
  -2   6  -5 479.111 127.277  12
   2  -6   6 246.364 123.012  10
  -2   6  -6 495.802 162.164  12
   2  -6   7 206.177 155.504  10
  -2   6  -7 319.008 171.920  12
  -2  -7  10 19.7724 61.9656   6
   2   7 -10-132.925 84.1997   3
   2   7 -10 48.6850 124.972   4
  -2  -7   9 980.551 240.181   6
   2   7  -9 937.008 238.308   3
   2   7  -9 1012.54 248.624   4
  -2  -7   8 24.7776 45.1232   6
   2   7  -8-6.18217 81.6638   3
   2   7  -8 87.1176 60.8707   4
  -2  -7   8 21.2493 90.2060   9
  -2  -7   7 71.7938 39.5672   6
   2   7  -7 101.278 80.5713   3
  -2  -7   7 66.5406 61.3068   9
   2   7  -7 14.5144 81.3755   4
  -2  -7   6 48.8636 47.7164   6
   2   7  -6 47.3230 34.8896   1
  -2  -7   6-67.8814 82.6258   9
   2   7  -6-53.4669 62.5091   3
   2   7  -6-10.6291 52.9997   4
   2   7  -5 379.234 129.638   3
  -2  -7   5 232.986 104.631   6
   2   7  -5 299.467 103.891   1
  -2  -7   5 305.139 106.083   9
   2   7  -5 226.623 90.9501   4
   2   7  -4-33.4978 59.4153   3
  -2  -7   4-62.5305 40.5375   5
  -2  -7   4 14.6797 46.9787   9
   2   7  -4 25.9703 100.258   4
   2   7  -3 691.725 201.881   3
  -2  -7   3 814.902 179.915   5
  -2  -7   3 881.216 244.353   9
  -2  -7   3 1170.78 296.290   2
  -2   7  -2 70.6452 61.3459  12
   2  -7   2-29.6729 57.1377  10
   2  -7   2-32.9816 37.1903   5
  -2   7  -2 68.8346 65.9139   8
   2  -7   2 26.2484 83.5063   7
  -2   7  -3 160.081 97.8285  12
   2  -7   3 22.0451 58.6630   6
   2  -7   3-35.8310 48.3586   5
   2  -7   3 37.0939 78.2230  10
  -2   7  -3-34.5220 60.8256   8
  -2   7  -3 110.628 72.1529   4
   2  -7   4 26.7326 34.1708  10
  -2   7  -4 15.6994 75.1034  12
   2  -7   5 197.917 107.730  10
  -2   7  -5 409.294 144.076  12
   2  -7   6 40.3925 68.9138  10
  -2   7  -6 6.18561 54.1731  12
   2  -7   7 13.4170 77.2936  10
  -2   7  -7-55.3080 84.0575  12
   2  -7   8-87.6582 152.790  10
  -2   7  -8 32.6465 134.765  12
   2   8 -10 46.8395 66.7167   3
  -2  -8   9 258.455 114.911   6
   2   8  -9 123.264 60.9651   3
   2   8  -9 453.211 180.401   4
  -2  -8   8 61.0631 80.9128   6
   2   8  -8 106.026 121.808   3
   2   8  -8 173.915 115.932   4
  -2  -8   7 137.360 82.3731   6
   2   8  -7 123.301 60.7145   3
  -2  -8   7 181.376 139.926   9
   2   8  -7 192.866 81.6847   4
   2   8  -6 72.4075 101.549   3
  -2  -8   6-46.1995 78.6969   6
  -2  -8   6-17.3741 61.7871   9
   2   8  -6 142.175 124.170   4
   2   8  -5 1075.54 240.009   3
  -2  -8   5 971.553 211.657   6
  -2  -8   5 1031.14 227.171   9
   2   8  -5 1471.40 275.923   4
   2   8  -4 819.523 242.739   3
  -2  -8   4 1043.76 233.222   5
  -2  -8   4 746.927 224.491   9
  -2   8  -2 700.060 282.434  12
   2  -8   2 258.575 128.969   5
  -2   8  -2 180.564 113.550   4
  -2   8  -2 194.745 171.284   8
   2  -8   2 338.869 208.064   7
  -2   8  -3 256.461 108.958  12
   2  -8   3 223.468 104.104   5
   2  -8   3 333.551 149.523  10
  -2   8  -3 464.359 183.403   8
   2  -8   3 474.033 176.463   7
  -2   8  -4 87.6230 99.0647  12
   2  -8   4 24.7033 66.3520  10
  -2   8  -5 300.419 139.755  12
   2  -8   5 500.096 158.622  10
   2  -8   6 234.941 113.674  10
  -2   8  -6 411.396 168.284  12
   2  -8   7-145.427 114.395  10
  -2   8  -7 4.87421 118.242  12
   2  -8   8-45.1133 103.842  10
   2   9  -9-133.487 84.9405   3
  -2  -9   8 463.407 191.995   6
   2   9  -8 532.985 180.000   3
   2   9  -8 488.264 198.969   4
   2   9  -7 620.884 177.999   3
  -2  -9   7 609.345 175.684   6
   2   9  -7 392.089 142.518   4
   2   9  -6 668.412 211.338   3
  -2  -9   6 631.885 216.298   6
  -2  -9   6 718.907 226.911   9
   2   9  -6 720.196 214.129   4
   2   9  -5-69.2169 116.536   3
  -2  -9   5 77.8474 104.547   9
   2   9  -5 264.076 180.265   4
  -2   9  -3 1274.86 359.239  12
   2  -9   3 813.376 265.858   5
   2  -9   3 1500.53 536.974  10
  -2   9  -3 872.338 300.349   8
   2  -9   3 722.047 222.754   7
  -2   9  -4 506.433 207.725  12
   2  -9   4 165.036 104.688  10
   2  -9   5-62.7514 112.488  10
  -2   9  -5 11.2591 83.7690  12
  -2   9  -6 305.031 151.273  12
   2  -9   6 133.940 127.405  10
  -2   9  -7 178.035 153.510  12
   2  -9   7 241.334 167.705  10
   2  10  -8-13.3458 75.9231   3
   2  10  -7 34.4864 137.652   3
  -2 -10   7 157.271 129.391   6
   2  10  -7 102.309 104.249   4
   2  10  -6 158.143 149.647   3
  -2 -10   6 743.866 281.853   6
   2  10  -6 457.352 212.722   4
   2 -10   3 480.896 310.046   5
  -2  10  -4 741.411 392.026  12
  -2  10  -5 106.008 170.657  12
   2 -10   5-85.6876 120.905  10
  -2  10  -6-110.680 179.764  12
   2 -10   6 90.6240 84.6677  10
  -3   0   5 2287.46 283.214  11
   3   0  -5 2378.54 340.144   1
  -3   0   5 3018.48 401.775   9
   3   0  -5 2450.47 294.620   7
  -3   0   4 9.72739 24.5441  11
   3   0  -4-14.4946 46.7245   1
  -3   0   4-8.11756 45.8084   9
   3   0  -4-6.67741 60.1867   7
  -3   0   3 103.916 48.0545  11
  -3   0   3 0.62968 47.5070   9
   3   0  -3 58.5822 43.7540   3
   3   0  -3 24.3144 69.7862   1
   3   0  -3-7.00915 26.4994   7
  -3   0   2 51.9715 74.5741  12
   3   0  -2 69.0949 49.2841  10
  -3   0   2-29.6502 43.3539   9
   3   0  -2 88.0408 40.6484   1
   3   0  -1 361.956 116.156   1
   3   0  -1 264.701 75.7008  10
  -3   0   1 534.496 133.389   9
  -3   0   1 338.342 72.0360  12
   3   0   0 35.1588 53.2591  10
  -3   0   0 71.8804 48.6874   9
   3   0   0-15.1285 55.8089   1
  -3   0   0-44.2740 38.6467  12
   3   0   1 123.785 70.5327  10
   3   0   1 13.6796 39.4487   1
  -3   0  -1-6.71746 32.6545   9
  -3   0  -1 64.8126 61.1197  12
   3   0   2 15.7980 51.0550  10
  -3   0  -2-86.4432 74.3746   9
  -3   0  -2-93.6909 75.3374  12
   3   1  -6 35.3820 77.6299   1
  -3  -1   6 137.089 109.849  11
  -3  -1   6-93.6409 60.7118   9
   3   1  -6 74.2700 75.1260   7
  -3  -1   5 835.258 157.457  11
   3   1  -5 616.583 173.117   1
  -3  -1   5 922.804 206.420   9
   3  -1  -5 120.244 76.6558   1
   3   1  -5 728.440 149.123   7
  -3   1   4 582.582 128.953  11
  -3  -1   4 473.958 110.995  11
   3  -1  -4 608.138 150.193   1
   3   1  -4 599.297 158.525   1
  -3  -1   4 556.418 149.343   9
  -3   1   4 666.905 186.199   9
  -3  -1   4 553.605 100.854   8
  -3   1   4 577.736 134.224   8
   3   1  -4 504.695 111.543   7
   3  -1  -4 521.677 129.095   7
  -3   1   3 455.915 82.9954  11
   3   1  -3 688.162 202.625  10
   3  -1  -3 363.341 118.795   1
   3   1  -3 457.897 123.496   3
  -3  -1   3 476.098 140.784   9
  -3   1   3 457.166 128.461   9
  -3   1   3 352.345 97.3597   8
   3  -1  -3 286.904 88.5958   7
   3   1  -3 337.776 131.726   1
  -3  -1   2 579.976 102.571  12
   3   1  -2 354.639 99.0218  10
   3  -1  -2 272.521 92.8033  10
   3   1  -2 369.988 100.439   3
   3   1  -2 338.886 102.581   1
   3  -1  -2 368.429 114.316   1
  -3  -1   2 222.401 77.7255   9
  -3   1   2 300.735 105.469   9
  -3   1   2 329.580 89.9528   8
   3  -1  -2 196.924 81.8438   7
   3   1  -1 1816.06 239.985   1
   3  -1  -1 2003.83 248.803   1
   3   1  -1 1813.39 197.199  10
   3  -1  -1 1868.90 221.363  10
  -3  -1   1 1731.15 227.250   9
  -3   1   1 1894.70 234.927   9
  -3  -1   1 1977.99 167.778  12
  -3   1   1 1767.55 188.852  12
   3  -1  -1 2045.22 180.130   3
   3  -1   0 751.185 245.183   1
   3   1   0 679.823 121.810  10
   3  -1   0 636.994 128.839  10
  -3  -1   0 638.943 110.878  12
  -3  -1   0 763.713 149.395   9
  -3   1   0 743.751 143.891   9
   3   1   0 670.187 150.334   1
  -3   1   0 564.488 111.301  12
  -3  -1  -1 328.957 98.0108  12
   3   1   1 185.220 96.0643  10
   3   1   1 240.864 114.241   1
   3  -1   1 251.543 93.3432  10
  -3  -1  -1 141.296 76.3478   9
  -3   1  -1 312.160 97.6070   9
   3  -1   1 225.616 93.5502   1
  -3   1  -1 193.134 75.8642  12
   3  -1   2 665.631 161.368  10
  -3   1  -2 716.853 138.733   9
  -3   1  -2 695.554 147.719  12
   3  -1   3 41.8582 57.9761  10
  -3   1  -3-40.4226 36.6124   9
  -3   1  -3-52.1212 42.6288  12
  -3  -2   7-2.01802 55.3768  11
   3   2  -7 61.7797 89.9187   1
  -3  -2   7 62.2342 134.355   9
  -3  -2   6 313.429 115.749  11
   3   2  -6 291.119 135.888   1
  -3  -2   6 444.412 153.014   9
  -3  -2   5 147.879 85.7110  11
   3   2  -5 203.631 98.8627   1
  -3  -2   5 164.697 89.9323   9
   3   2  -4 1009.29 144.415   4
   3   2  -4 902.502 174.357   3
  -3  -2   4 857.445 171.269   9
   3   2  -4 846.344 178.656   1
  -3  -2   4 1078.62 146.693   6
   3   2  -3 1921.86 236.356   3
  -3   2   3 2245.56 203.447  11
   3  -2  -3 1813.92 247.521   1
  -3  -2   3 1805.41 252.953   9
   3   2  -3 2032.12 179.047   4
   3   2  -3 2079.09 276.190   1
  -3   2   3 1111.65 230.788   9
  -3   2   3 1983.70 248.639   8
   3  -2  -3 1920.36 251.223   7
  -3  -2   3 2143.86 179.886   6
   3   2  -2 140.607 30.3004   1
  -3   2   2 281.528 65.3792  11
  -3  -2   2 228.428 50.0119   6
   3  -2  -2 151.069 64.8951   1
   3   2  -2 204.706 73.1614  10
   3   2  -2 202.598 83.7461   3
   3  -2  -2 382.506 111.336  10
  -3  -2   2 271.531 115.869   9
  -3   2   2 199.317 79.3870   9
   3   2  -2 223.952 53.0311   4
  -3   2   2 220.989 73.2541   8
   3  -2  -2 177.863 67.3145   7
   3  -2  -1 342.472 118.467   1
   3   2  -1 167.695 34.2383   3
   3   2  -1 260.099 80.0582  10
   3  -2  -1 178.541 60.3557  10
   3  -2  -1 220.630 51.4200   3
  -3  -2   1 236.945 89.9920   9
  -3   2   1 251.672 75.3169  12
  -3   2   1 314.649 105.302   9
   3   2  -1 247.657 92.9986   1
  -3   2   1 362.351 121.376   8
   3  -2  -1 397.398 127.326   7
  -3  -2   1 213.980 55.5861  12
   3   2   0 361.704 102.422  10
   3  -2   0 273.916 73.2448  10
   3  -2   0 269.367 72.1192   1
   3   2   0 350.914 94.9936   1
  -3  -2   0 274.804 107.105   9
  -3   2   0 305.792 83.4000   9
  -3  -2   0 372.085 94.4696  12
  -3   2   0 229.176 82.2390  12
   3   2   1 603.657 214.159  10
   3  -2   1 778.756 169.687  10
  -3   2  -1 782.237 157.271  12
  -3  -2  -1 993.923 212.143   9
  -3   2  -1 845.426 146.265   9
   3  -2   1 680.872 134.039   1
   3  -2   2 342.965 124.227  10
   3  -2   2 385.557 130.204   1
  -3   2  -2 530.067 122.193   9
  -3   2  -2 529.794 141.964  12
   3  -2   3-1.02770 63.8906  10
  -3   2  -3 37.2169 50.3287  12
   3  -2   4 523.371 210.622  10
  -3   2  -4 207.003 136.010  12
  -3  -3   8 96.6124 80.6831  11
   3   3  -8-23.2350 72.6107   1
  -3  -3   7 175.042 64.9074  11
   3   3  -7 313.500 118.516   1
  -3  -3   7 307.258 119.301   9
  -3  -3   6 76.7535 60.0491   6
  -3  -3   6 43.7954 38.2397  11
   3   3  -6 81.6432 102.924   1
   3   3  -6 103.464 78.1921   4
   3   3  -6-19.7291 44.1706   3
  -3  -3   6-38.2320 58.0763   9
  -3  -3   5 633.149 132.759   6
   3   3  -5 555.843 153.743   3
   3   3  -5 508.156 120.524   4
  -3  -3   5 667.327 171.480   9
   3   3  -5 606.703 166.372   1
   3   3  -4 124.285 114.254   3
  -3  -3   4-3.53128 39.2938   9
   3   3  -4 91.0754 36.0624   4
   3   3  -3 554.567 149.191   1
  -3   3   3-7.25097 52.6940  11
  -3  -3   3 523.393 101.439   6
   3   3  -3 429.753 122.318   3
   3  -3  -3 231.499 90.7456   1
  -3  -3   3 524.160 124.428   9
   3   3  -3 502.766 98.9051   4
   3  -3  -3 475.613 144.102   7
   3   3  -2 254.361 92.9639   3
  -3  -3   2 395.282 88.6234   6
   3   3  -2 373.537 96.7831  10
   3  -3  -2 730.885 229.555  10
  -3  -3   2 323.222 109.603   9
   3   3  -2 396.062 115.616   1
  -3   3   2 443.362 122.453   8
   3   3  -2 329.208 72.5688   4
   3  -3  -2 465.433 130.265   7
   3  -3  -2 348.336 108.888   1
  -3   3   1 290.031 102.029  12
   3   3  -1 538.500 173.387   3
   3   3  -1 126.013 51.3128  10
   3  -3  -1 241.431 85.4077  10
   3   3  -1 297.847 110.003   1
  -3  -3   1 78.4867 62.0312   9
  -3   3   1 305.517 107.763   9
   3  -3  -1 242.860 84.4864   1
  -3  -3   1 277.592 57.6522   2
  -3   3   1 273.454 92.0127   8
   3  -3  -1 266.866 98.2266   7
  -3   3   0 17.7729 39.3965  12
   3   3   0-40.2251 55.4490  10
   3  -3   0 65.8821 73.5952  10
  -3  -3   0 18.7350 57.8552   9
   3  -3   0-35.9721 44.3214   1
  -3   3   0-2.19785 30.2152   9
  -3   3   0 11.6035 61.2237   8
  -3  -3   0 31.9209 36.6699  12
   3  -3   1 1164.45 177.988   1
   3  -3   1 1311.36 216.392  10
  -3   3  -1 1575.04 197.423   9
  -3   3  -1 1167.57 200.421  12
   3  -3   2-26.7435 51.9828  10
   3  -3   2 132.270 71.7519   1
  -3   3  -2 146.619 71.0651  12
   3  -3   3 407.865 141.269  10
  -3   3  -3 352.753 129.189  12
   3  -3   4 256.440 109.817  10
  -3   3  -4 59.7618 50.4378  12
   3  -3   5 267.428 119.734  10
  -3   3  -5 485.547 156.142  12
   3   4  -8 363.652 169.614   1
  -3  -4   8 233.031 129.153  11
   3   4  -8 136.373 61.5100   3
  -3  -4   8 173.797 130.488   9
  -3  -4   7 65.3165 65.4383   6
  -3  -4   7-116.949 85.0526  11
   3   4  -7-38.0389 72.6170   4
   3   4  -7-85.8523 53.0619   3
  -3  -4   7-70.8229 111.924   9
   3   4  -7 111.280 107.895   1
   3   4  -6 2442.69 319.781   3
   3   4  -6 2031.09 304.843   1
   3   4  -6 2241.57 278.056   4
  -3  -4   6 2166.18 319.239   9
  -3  -4   6 1953.08 251.908   6
  -3  -4   5 111.346 35.4815   6
   3   4  -5 101.835 70.7191   1
   3   4  -5 2.12803 40.7483   3
  -3  -4   5 200.419 132.119   9
   3   4  -5 27.1961 26.9981   4
  -3  -4   4 56.4887 52.2864   6
   3   4  -4 13.2116 56.2570   3
  -3  -4   4 122.026 80.6301   9
   3   4  -4 24.7953 46.3180   4
   3   4  -4 133.838 81.6772   1
  -3  -4   3 232.076 64.1764   6
   3   4  -3 210.440 84.6422   3
  -3  -4   3 271.720 116.972   9
   3   4  -3 331.993 107.011   1
   3   4  -3 306.290 86.0740   4
   3   4  -2 60.7824 59.6757   3
   3   4  -2 65.3708 64.6016   1
  -3  -4   2 133.957 90.1300   9
   3  -4  -2 52.9375 71.7757   1
  -3   4   2 97.0152 84.1328   8
   3  -4  -2 156.575 95.5657   7
  -3   4   1 228.081 168.961  12
   3   4  -1 65.8369 61.8157  10
   3   4  -1 95.0988 67.8454   1
   3  -4  -1 29.7036 75.1676   1
   3  -4  -1 119.031 125.165  10
  -3  -4   1 125.506 71.8677   9
  -3   4   1-28.3526 64.3774   8
   3  -4  -1-5.24036 62.9397   7
  -3   4   0 233.104 109.762  12
   3  -4   0 285.327 115.550  10
  -3   4   0 239.003 113.539   8
   3  -4   0 428.079 143.632   7
   3  -4   0 227.257 76.9346   1
   3  -4   1 201.409 63.8132   1
   3  -4   1 214.959 103.094  10
  -3   4  -1 97.9506 59.8363  12
   3  -4   2 773.379 173.125  10
   3  -4   2 1150.12 182.410   1
  -3   4  -2 609.367 148.327  12
   3  -4   3 163.095 107.022  10
  -3   4  -3 122.638 66.5146  12
   3  -4   4 923.836 215.946  10
  -3   4  -4 804.721 186.979  12
   3  -4   5 139.381 109.517  10
  -3   4  -5-89.2413 89.8259  12
  -3  -5   9 169.933 134.349  11
   3   5  -9 61.3651 49.7247   3
   3   5  -9 0.81433 103.145   1
  -3  -5   8 61.4868 57.2472   6
   3   5  -8 34.7452 65.2168   1
   3   5  -8 26.9465 51.8824   4
   3   5  -8 24.9602 75.6421   3
  -3  -5   8 197.198 156.008   9
  -3  -5   7 98.3881 62.0341   6
   3   5  -7 29.1043 74.4014   1
   3   5  -7 94.4937 110.885   3
   3   5  -7 74.1840 73.0073   4
  -3  -5   7-53.4214 68.0466   9
   3   5  -6 120.351 99.0284   1
  -3  -5   6 56.6368 51.0711   6
   3   5  -6 11.5540 36.5033   3
  -3  -5   6 54.9045 87.0815   9
   3   5  -6 84.8266 41.4395   4
  -3  -5   5 2.34918 42.9537   6
   3   5  -5-63.6675 34.7315   3
  -3  -5   5-60.5005 70.4714   9
   3   5  -5-13.0145 35.2704   4
   3   5  -5-71.7781 69.0224   1
  -3  -5   4 135.722 87.3192   6
   3   5  -4 75.3469 56.6765   3
  -3  -5   4-8.00071 58.1095   9
   3   5  -4 68.5736 88.9775   1
   3   5  -4 38.0073 49.1651   4
   3   5  -3 357.121 129.138   3
   3   5  -3 300.198 116.726   1
  -3  -5   3 235.501 70.8427   9
   3   5  -3 212.301 82.9635   4
  -3  -5   2 1791.97 274.922   9
  -3  -5   2 2110.34 232.680   2
   3   5  -2 2009.94 295.229   1
   3  -5  -1 1400.15 393.880  10
   3  -5  -1 781.487 163.137   5
  -3   5   1 797.095 230.622   8
   3  -5  -1 629.452 162.116   1
   3  -5  -1 685.392 210.760   7
  -3   5   0 135.946 74.1529  12
   3  -5   0 265.310 85.1912   5
   3  -5   0 345.991 132.281  10
   3  -5   0 205.498 71.4454   1
  -3   5   0 323.068 126.321   8
   3  -5   0 326.333 117.184   7
  -3   5  -1 40.6902 46.5221  12
   3  -5   1 102.900 52.4126   1
  -3   5  -1 78.1720 43.2268   8
   3  -5   2 119.075 58.4268  10
  -3   5  -2 90.0491 84.9520  12
   3  -5   3-108.839 103.213  10
  -3   5  -3 24.0068 60.0859  12
   3  -5   4 88.3611 84.0294  10
  -3   5  -4 16.8460 63.9571  12
   3  -5   5 14.5193 72.2818  10
  -3   5  -5-72.8037 83.5997  12
   3  -5   6 43.8879 101.929  10
  -3   5  -6 1.41113 83.2407  12
  -3  -6   9-88.3317 112.129   6
   3   6  -9 232.901 150.795   3
   3   6  -9 142.542 117.130   4
  -3  -6   9-187.768 181.714   9
   3   6  -8-101.686 70.9283   1
  -3  -6   8 125.930 97.7032   6
   3   6  -8-65.3824 112.678   3
   3   6  -8 105.269 67.8015   4
  -3  -6   8-70.9936 93.6579   9
  -3  -6   7 238.839 80.3858   6
   3   6  -7 439.750 162.154   3
   3   6  -7 198.896 93.1888   4
  -3  -6   7 208.039 77.9028   9
   3   6  -7 303.795 119.029   1
  -3  -6   6 191.198 104.937   6
   3   6  -6 257.359 109.452   3
  -3  -6   6 414.800 176.532   9
   3   6  -6 329.024 120.509   4
   3   6  -6 274.099 96.8542   1
  -3  -6   5 385.065 116.505   6
   3   6  -5 456.204 171.813   3
  -3  -6   5 479.611 183.418   9
   3   6  -5 252.095 106.068   1
   3   6  -5 526.516 128.330   4
   3   6  -4 845.755 209.589   3
  -3  -6   4 749.172 142.912   6
   3   6  -4 571.773 163.143   1
  -3  -6   4 749.352 185.787   9
   3   6  -4 917.489 179.730   4
   3   6  -3 310.188 153.334   3
  -3  -6   3 332.052 133.837   9
   3   6  -3 313.215 116.587   4
  -3   6   0 1125.62 366.568  12
   3  -6   0 1287.88 240.039   5
   3  -6   0 1488.72 358.568  10
  -3   6   0 1311.36 307.374   8
   3  -6   0 1183.19 326.105   7
   3  -6   0 2060.94 367.410   1
  -3   6  -1 96.4004 64.8055  12
   3  -6   1 103.863 69.6236  10
  -3   6  -1 99.6942 64.0636   8
   3  -6   1 154.392 87.7933   7
  -3   6  -2-73.9791 74.9471  12
   3  -6   2 36.4517 64.8293  10
   3  -6   3 257.289 129.248  10
  -3   6  -3 291.716 129.531  12
   3  -6   4 53.9075 60.1740  10
  -3   6  -4 104.949 89.6868  12
   3  -6   5 249.679 100.759  10
  -3   6  -5 417.522 155.247  12
   3  -6   6 85.3579 56.0898  10
  -3   6  -6 112.005 118.401  12
  -3  -7   9 135.700 106.698   6
   3   7  -9 9.55073 90.9137   4
  -3  -7   9 133.909 156.840   9
  -3  -7   8 785.258 201.923   6
   3   7  -8 902.979 236.473   3
   3   7  -8 473.399 176.470   4
  -3  -7   8 1013.36 276.921   9
  -3  -7   7-10.6472 88.8163   6
   3   7  -7-26.8134 67.4951   3
   3   7  -7-66.2656 38.5288   1
  -3  -7   7-62.0755 89.2227   9
   3   7  -7 52.7873 73.8005   4
  -3  -7   6-40.4888 56.3506   6
   3   7  -6-59.0556 94.1600   3
   3   7  -6 74.8724 71.6251   1
  -3  -7   6 191.632 124.155   9
   3   7  -6-34.3602 53.4898   4
   3   7  -5-152.609 124.448   3
  -3  -7   5-14.3935 57.2861   6
   3   7  -5 52.0945 58.6822   1
  -3  -7   5-78.6555 112.950   9
   3   7  -5 193.797 112.092   4
   3   7  -4 1257.50 300.331   3
  -3  -7   4 657.830 180.936   6
  -3  -7   4 1404.74 331.685   9
   3   7  -4 1024.24 209.868   4
  -3  -7   3-134.396 177.379   9
   3  -7   0-258.706 572.206   5
   3  -7   0 573.963 508.361   7
  -3   7  -1 259.859 181.694  12
   3  -7   1 131.364 108.411   5
   3  -7   1 107.929 131.300  10
  -3   7  -1 110.677 96.6379   8
   3  -7   1 86.4122 127.531   7
  -3   7  -2 1067.36 233.593  12
   3  -7   2 910.697 221.047  10
  -3   7  -2 1019.59 276.849   8
  -3   7  -3-6.48130 85.9407  12
   3  -7   3 7.23660 65.0675  10
  -3   7  -4 171.142 105.022  12
   3  -7   4 35.5732 90.8828  10
   3  -7   5 59.2293 83.7737  10
  -3   7  -5 11.9239 61.3331  12
   3  -7   6 137.410 122.452  10
  -3   7  -6 290.010 178.682  12
  -3  -8   8 36.7711 55.2704   6
   3   8  -8 134.412 64.5408   3
   3   8  -8 118.634 78.8624   4
  -3  -8   8 31.3766 82.5766   9
  -3  -8   7 476.852 162.328   6
   3   8  -7 280.220 153.502   3
  -3  -8   7 528.998 230.737   9
   3   8  -7 412.203 159.466   4
   3   8  -6 59.1878 52.9067   3
  -3  -8   6-95.5619 71.4644   6
  -3  -8   6 143.421 132.197   9
   3   8  -6-31.4000 64.0417   4
   3   8  -5 299.458 178.422   3
  -3  -8   5 698.870 238.814   6
  -3  -8   5 377.453 251.742   9
   3   8  -5 179.666 120.123   4
   3   8  -4 78.1098 165.258   3
  -3  -8   4 779.879 365.588   9
   3   8  -4 446.224 253.205   4
   3  -8   1 287.737 404.119   5
   3  -8   1-1257.11 1373.53  10
  -3   8  -1 703.698 4933.17   8
   3  -8   1 33.1982 897.112   7
  -3   8  -2-111.258 187.420  12
   3  -8   2 476.657 260.276  10
  -3   8  -2 341.630 299.137   8
  -3   8  -3 583.672 237.146  12
   3  -8   3 457.853 141.253  10
  -3   8  -4 43.0990 86.4397  12
   3  -8   4-42.0113 95.9752  10
  -3   8  -5 118.424 88.9792  12
   3  -8   5 45.7541 64.2862  10
  -3  -9   7 120.240 91.1725   6
  -3  -9   7-30.9913 118.261   9
   3   9  -7-171.537 137.468   4
   3   9  -6 11.1189 120.534   3
  -3  -9   6 128.886 87.9512   6
  -3  -9   6 56.1744 139.964   9
   3   9  -6 145.101 176.742   4
   3   9  -5-388.181 408.638   3
  -3  -9   5 89.6886 126.657   6
  -3  -9   5 537.317 400.250   9
   3   9  -5-152.148 232.133   4
  -3   9  -2-1088.48 1058.01   8
  -3   9  -3 212.875 148.101  12
   3  -9   3-24.6754 103.375  10
  -3   9  -4-139.011 190.515  12
   3  -9   4 52.3205 163.780  10
  -4   0   6-19.7760 128.160  11
   4   0  -6 127.671 146.585   1
   4   0  -5 13.8885 87.0141   1
   4   0  -5 56.5754 46.1977   3
  -4   0   5-10.4297 75.3003   9
   4   0  -4 594.038 154.334   3
  -4   0   4 404.023 121.532   9
   4   0  -4 692.862 200.932   1
   4   0  -3 71.7102 68.6530   3
   4   0  -3-26.6994 74.4514   1
  -4   0   3-106.677 107.920   9
   4   0  -2 1.26036 71.8445   1
   4   0  -2 198.855 100.329  10
  -4   0   2 193.982 81.1492   9
   4   0  -1 0.24401 32.9505  10
  -4   0   1 60.2164 58.0253   9
   4   0  -1 23.1554 72.8236   1
   4   0   0 402.962 137.356  10
   4   0   0 461.441 148.454   1
  -4   0   0 444.208 143.502   9
   4   0   1 92.0451 107.888  10
  -4   0  -1-15.1436 55.5492   9
   4   0   2-220.760 172.221  10
  -4   0  -2 217.152 148.193   9
  -4   0  -2 120.153 163.910  12
  -4  -1   7 68.9820 120.371  11
   4   1  -7 65.1667 106.760   1
  -4  -1   6 692.287 198.590  11
   4   1  -6 478.010 179.229   1
   4   1  -6 476.829 158.937   3
  -4  -1   6 228.557 76.6958   9
   4   1  -5 199.907 107.797   3
  -4  -1   5 317.450 134.548   9
   4   1  -5 181.822 125.088   1
   4  -1  -5 510.815 170.148   1
   4  -1  -5 458.163 192.799   7
   4  -1  -4 66.0165 87.5886   1
   4   1  -4-20.7980 53.4585   3
   4   1  -4 105.060 97.7044   1
   4  -1  -4 73.7541 79.1176   3
  -4  -1   4 94.3070 65.3241   9
  -4   1   4-7.70026 85.3874   9
   4   1  -3 591.833 170.820   1
   4   1  -3 494.285 123.883   3
  -4  -1   3 432.710 134.598   9
  -4   1   3 444.680 163.557   9
   4  -1  -3 436.887 140.550   1
   4   1  -2-133.027 75.9040   3
   4  -1  -2-40.2774 87.9355   1
   4  -1  -2-44.5498 93.0836  10
  -4  -1   2 101.359 70.3925   9
  -4   1   2 62.1199 102.655   9
   4   1  -2 80.0866 74.4554   1
   4   1  -1 215.137 100.975  10
   4  -1  -1 131.047 69.9528  10
  -4  -1   1 100.874 76.1597   9
   4   1  -1 93.0340 36.1448   1
  -4   1   1 140.000 91.5088   9
   4  -1  -1 117.775 81.7717   1
   4   1   0 316.679 96.4121  10
   4  -1   0 385.513 123.305  10
   4   1   0 346.243 135.956   1
  -4  -1   0 307.128 105.960   9
  -4   1   0 273.371 114.751   9
   4  -1   0 371.055 131.640   1
   4   1   1-102.971 58.5203  10
   4  -1   1 39.7660 72.9894  10
   4  -1   1 40.8785 82.9299   1
  -4  -1  -1 157.208 103.306   9
  -4   1  -1-149.654 93.1569   9
  -4   1  -1 79.6477 56.0603  12
   4  -1   2 98.1697 124.373  10
  -4   1  -2 143.494 102.128  12
   4   2  -7 469.082 183.817   3
  -4  -2   7 520.657 228.355   9
   4   2  -7 456.064 206.845   1
   4   2  -6 14.7549 89.3172   3
  -4  -2   6 106.439 97.8566   9
   4   2  -5 26.9526 43.7320   3
   4   2  -5-0.81579 72.4272   1
   4   2  -4-21.7574 59.3394   1
   4   2  -4 28.9553 59.1017   3
  -4  -2   4 327.599 137.097   9
   4  -2  -4 95.9209 132.341   1
  -4   2   4-26.3371 109.639   8
   4  -2  -4 43.6214 151.292   7
   4  -2  -3-114.021 89.9982   1
   4   2  -3 3.58631 32.0627   3
  -4  -2   3 101.385 82.0116   9
  -4   2   3 56.3844 91.3309   9
  -4   2   3 138.050 95.8173   8
   4   2  -3 55.3068 87.2629   1
   4   2  -2 97.5294 73.1884   3
   4  -2  -2 5.43553 102.269  10
  -4  -2   2 118.909 49.2160   9
   4  -2  -2-1.61906 61.6801   1
   4   2  -2 213.275 105.473   1
  -4   2   2 226.341 141.585   9
   4  -2  -1 31.4577 48.3288   1
   4  -2  -1-121.036 65.2187  10
   4   2  -1-71.8008 80.7354   1
  -4   2   1 15.1526 58.9558   9
  -4   2   0 1.92401 38.7595  12
   4   2   0-75.6971 82.1733  10
   4  -2   0-13.7433 59.9568  10
  -4  -2   0 0.21723 123.458   9
  -4   2   0 29.3424 46.0219   9
   4  -2   0-59.4908 84.1895   1
   4  -2   1 69.6872 63.9905  10
   4  -2   1 187.735 121.360   1
  -4   2  -1 103.152 75.7333  12
   4  -2   2 485.893 172.025  10
  -4   2  -2 371.331 140.485  12
   4  -2   3 97.2720 77.8412  10
  -4   2  -3 420.303 178.111  12
   4   3  -8-93.5504 91.8706   3
  -4  -3   8 127.780 146.197   9
   4   3  -8-140.537 168.055   1
   4   3  -7 5.07472 69.4925   3
   4   3  -7 215.693 176.375   1
  -4  -3   7 119.514 62.8315   9
   4   3  -6-8.41211 108.920   1
   4   3  -6 41.0834 68.1392   3
  -4  -3   6-227.103 113.659   9
   4   3  -5 156.621 124.492   1
   4   3  -5-27.1842 76.0830   3
  -4  -3   5 287.149 168.753   9
   4   3  -4 360.121 139.555   3
  -4  -3   4 501.147 152.994   9
   4   3  -4 420.648 161.602   1
   4   3  -3 86.8133 83.6468   3
   4  -3  -3-130.876 133.740   1
  -4  -3   3 32.2179 66.6131   9
   4   3  -3 2.43654 77.7824   1
  -4   3   3-29.1551 71.9986   8
   4  -3  -3 101.552 105.380   7
   4   3  -2 1592.28 341.718   3
   4  -3  -2 1734.20 420.097  10
   4   3  -2 618.650 162.620   1
  -4  -3   2 578.507 170.898   9
  -4   3   2 728.118 196.921   8
   4  -3  -2 631.600 180.082   1
  -4   3   1 275.768 238.913  12
   4   3  -1-202.980 121.975   1
   4  -3  -1-82.7836 119.685   1
   4  -3  -1 90.9317 101.121  10
  -4  -3   1-91.9345 107.418   9
  -4   3   1 72.0789 112.931   9
  -4   3   0 176.170 101.633  12
   4  -3   0 73.1366 105.605   1
   4  -3   1 63.3154 80.3544  10
   4  -3   1 130.510 77.8157   1
  -4   3  -1 42.3845 60.2006  12
   4  -3   2 0.92089 75.9669  10
  -4   3  -2-4.05121 56.7898  12
   4  -3   3 9.09103 61.5020  10
  -4   3  -3 16.2507 70.4224  12
   4  -3   4-189.159 188.243  10
  -4   3  -4-60.6236 97.7204  12
   4   4  -8 29.7816 99.9282   1
   4   4  -8 139.706 128.515   3
  -4  -4   8 166.489 176.314   9
   4   4  -7 57.9609 106.387   1
   4   4  -7-25.4451 84.7974   3
  -4  -4   7 117.299 148.695   9
   4   4  -6-28.4220 80.8605   1
   4   4  -6 266.145 114.616   3
  -4  -4   6 3.23814 107.682   9
   4   4  -5 473.842 174.593   3
  -4  -4   5 301.795 126.653   9
   4   4  -5 436.739 149.874   1
   4   4  -4-52.2611 87.8560   3
  -4  -4   4-43.5095 71.6423   9
   4   4  -4 7.10637 41.4280   1
   4  -4  -3 97.7963 100.468   1
   4   4  -3-51.6212 120.619   3
   4   4  -3 151.405 125.681   1
  -4  -4   3 16.9215 46.5790   9
  -4   4   3 171.171 141.288   8
   4  -4  -3 79.3073 101.595   7
   4  -4  -2-68.4690 73.1932   1
   4   4  -2 77.6617 101.580   1
  -4  -4   2-54.2709 44.2036   9
  -4   4   2-22.0930 95.9240   8
   4  -4  -2 68.5795 55.7536   7
  -4   4   1-159.010 692.538  12
   4  -4  -1 430.775 141.259  10
   4  -4  -1 589.919 167.801   1
   4  -4   0-109.965 89.0425   1
  -4   4   0 106.187 104.020  12
   4  -4   0 6.74035 97.7279  10
  -4   4  -1 12.0493 65.6493  12
   4  -4   1 58.3381 109.789  10
   4  -4   2-71.0211 91.1068  10
  -4   4  -2 131.537 97.4892  12
   4  -4   3-62.8640 60.6082  10
  -4   4  -3 77.1316 54.2769  12
   4  -4   4 369.807 191.550  10
  -4   4  -4-112.681 112.261  12
   4   5  -8 149.515 153.379   1
   4   5  -7-44.7503 95.4490   3
  -4  -5   7 151.232 145.439   9
   4   5  -7-46.5641 51.6852   1
   4   5  -6 189.125 98.1725   3
  -4  -5   6-11.0439 98.6153   9
   4   5  -6 31.3269 95.2102   1
   4   5  -5 444.887 164.864   3
  -4  -5   5 26.9342 75.4817   9
   4   5  -5 454.636 143.720   1
   4   5  -4 341.553 175.073   3
   4   5  -4 15.8723 84.7886   1
  -4  -5   4 325.150 152.780   9
   4   5  -3 63.1427 137.526   3
   4   5  -3 51.1582 65.4288   1
  -4  -5   3 193.771 122.734   9
   4  -5  -2-47.9873 113.814   1
  -4  -5   2 96.5073 62.2375   9
  -4   5   2-31.1615 137.518   8
   4  -5  -2-118.766 98.4670   7
   4  -5  -1 404.201 357.175  10
   4  -5  -1 298.817 250.720   1
  -4   5   1 148.899 99.5427   8
   4  -5  -1 187.667 154.342   7
  -4   5   0 272.614 203.430  12
   4  -5   0 81.7839 148.333  10
  -4   5  -1 271.224 103.207  12
   4  -5   1 376.087 167.911  10
  -4   5  -2-68.8545 126.715  12
   4  -5   2-27.4717 88.8122  10
   4  -5   3 248.819 141.236  10
  -4   5  -3 267.284 140.551  12
  -4   5  -4-65.9136 136.319  12
   4   6  -8 231.698 144.325   1
  -4  -6   7 298.751 145.438   9
   4   6  -7 173.394 80.6952   1
   4   6  -6 243.699 119.005   3
  -4  -6   6 135.422 87.6539   9
   4   6  -5-66.9240 43.6709   1
  -4  -6   5-104.693 102.480   9
   4   6  -4 245.090 176.092   3
   4   6  -4 99.0884 47.1372   1
  -4  -6   4 138.153 104.129   9
  -4  -6   3 97.9403 147.640   9
  -4   6   1 89.7504 199.540   8
   4  -6  -1 101.150 122.624   7
   4  -6   0 237.241 197.934  10
  -4   6  -1 140.176 174.071  12
   4  -6   1 42.0949 76.0363  10
  -4   6  -2 202.314 139.618  12
   4  -6   2-33.8013 76.1402  10
  -4   6  -3 112.497 113.310  12
   4   7  -7-34.2697 126.828   1
   4   7  -6-29.2265 96.6533   1
   4   7  -5 14.4778 129.474   3
  -4  -7   5-82.5616 187.071   9
  -4  -7   4-73.1489 185.100   9
  -4   7   0 1798.01 902.210   8
  -4   7  -1-88.2978 171.343  12
   4  -7   1-82.9427 130.212  10
  -4   7  -2 44.7128 77.7494  12
  -5   0   4-43.0521 129.027   9
  -5   0   3 77.5286 62.2158   9
   5   0  -3 24.4689 52.2205   1
   5   0  -2-32.5944 49.8797   1
  -5   0   2-136.259 114.890   9
   5   0  -1 217.179 168.826   1
  -5   0   1-146.254 111.119   9
  -5  -1   4 132.002 85.0980   9
  -5   1   4-22.1092 121.844   9
  -5  -1   3 20.6384 107.468   9
  -5   1   3 138.795 121.899   9
   5  -1  -3 146.524 122.087   1
   5   1  -2 100.433 115.420   1
  -5  -1   2 158.350 131.598   9
  -5   1   2-19.4048 65.8987   9
   5  -1  -2 83.8874 92.2939   1
   5   1  -1 0.79282 62.8794   1
   5  -1  -1 61.0662 109.975   1
  -5  -1   1 190.615 165.902   9
   5  -1   0-196.762 162.699   1
   5  -1   0-78.5419 114.809  10
   5  -1   1 287.200 105.944  10
   5  -2  -3 53.2441 144.840   1
  -5  -2   3 134.246 147.085   9
  -5  -2   2 16.6040 75.3465   9
   5  -2  -2 104.036 77.2179   1
   5  -2  -1 45.8508 127.956  10
  -5  -2   1 32.5638 155.898   9
   5  -2  -1 143.489 97.2065   1
   5  -2   0 178.294 120.525   1
   5  -2   0 67.4294 71.8548  10
   5  -2   1 310.397 199.508  10
   5  -3  -3-27.6242 157.743   1
   5  -3  -2-30.3839 142.977   1
   5  -3  -1 306.087 178.882  10
   5  -3  -1 16.5995 84.4550   1
   5  -3   0 119.506 89.6678  10
   0   0   0    0.00    0.00   0
   1   1  -4 2109.71 190.429   4
  -1  -1   4-19.8220 50.3045   9
  -1  -3   7-39.5340 36.2044  11
  -1   0   3-23.3662 45.9432   9
   1  -8   2 10.6147 109.451   5
  -1   8  -2 76.9934 165.371   8
   1  -8   2 320.590 165.824   2
   1  -8   2 153.166 150.738   7
   0  -1   3 593.727 85.9636   6
   0  -5   1 429.021 143.619   2
   1  -9   3-57.2119 139.918   5
   1  -9   3-164.530 63.6845   2
  -1   9  -3 16.6460 86.8321   8
   1  -7   8-55.0722 111.554   6
  -1   7  -8 229.248 113.668  12
   1  -7   8 144.542 101.531  10
   2  -7   1 2661.00 490.505   7
  -2   7  -1 2456.49 504.808  12
   2  -7   1 3397.15 599.449  10
   2  -7   1 2245.83 397.229   5
   2  -7   1 3021.22 373.926   2
  -2   7  -1 2647.77 505.886   8
   0  -5   2-8.80707 44.2474   2
   0   5  -2-19.3908 54.3423  12
   0  -5   2-20.6561 31.7752   7
   0   5  -2-99.8054 100.190   3
   0  -5   2 16.8356 24.9799   9
   0   5  -2 4.67390 21.3881   8
  -2  -6   2 1968.01 305.468   5
  -2  -6   2 1535.81 338.096   9
   2   6  -2 1883.41 366.963   3
  -2  -6   2 1939.53 367.076   2
   1  -4   0 938.375 223.257  10
   1  -4   0 1054.57 225.616   7
  -1   4   0 702.808 180.293  12
  -1   4  -1-7.92247 44.5221   8
   1  -4   1-20.8820 37.3793   5
   1  -4   1 15.0710 11.2476   3
   1  -4   1-31.6841 42.1840   2
   1  -4   1-0.64671 35.5535  10
   1  -4   1-8.80866 39.2847   7
  -1   4  -1-43.5320 53.5564  12
   1  -4   1 18.9638 14.0013   9
  -1  -4   1 3576.35 330.236   2
  -1  -4   1 2976.86 289.642   9
   0  -4   1 15957.9 586.091   2
  -2   5   0 666.950 198.222  12
   2  -5   0 707.813 179.268  10
   2  -5   0 623.645 153.018   5
  -2   5   0 626.666 170.887   8
   2  -5   0 970.550 152.309   2
   2  -5   0 727.010 178.030   7
  -2  -5   9-81.5051 49.9889  11
   0  -8   3 4558.31 346.252   9
   0   8  -3 4521.63 405.232   8
   0  -8   3 4121.82 453.887   2
   0  -8   3 4194.99 329.363   7
   0  -8   3 4448.05 482.733   5
   1   7  -8 1041.37 211.614   3
  -1  -7   8 679.152 217.446   6
   1   7  -8 540.199 194.187   4
;
_shelx_hkl_checksum              72168
_shelx_res_file
;
TITL
    Mo-Absorb7-Ciso.res
    created by SHELXL-2018/1 at 17:10:16 on 11-Mar-2018
CELL  0.71073  3.94306 10.75657  9.96430 90.00000 100.55700 90.00000
ZERR 2  0.00048  0.00176  0.00220  0.00000  0.01530  0.00000
LATT 1
SYMM -X+ 0.50000, Y+ 0.50000, -Z+ 0.50000
SFAC Br C H
UNIT 8 12 4
LIST 4
L.S. 50
FMAP 2
PLAN 20
CONF
BOND
BOND $H
ACTA
WGHT    0.080700
FVAR       0.71855
BR1   1    0.585592    0.791342    0.594259    11.00000    0.05647    0.02080 =
         0.04515   -0.00383    0.01288   -0.00308
BR2   1    0.348008    0.574576    0.801452    11.00000    0.05024    0.03134 =
         0.03422   -0.00287    0.01541    0.00144
C1    2    0.536070    0.621428    0.541364    11.00000    0.02569
C2    2    0.440230    0.535753    0.632849    11.00000    0.02628
C3    2    0.404587    0.413360    0.585738    11.00000    0.02179
AFIX  43
H3    3    0.338150    0.352764    0.642273    11.00000   -1.20000
AFIX   0
HKLF 4
REM
REM R1 =  0.0728 for     313 Fo > 4sig(Fo)  and  0.1434 for all     531 data
REM     31 parameters refined using      0 restraints
END
WGHT      0.0807      0.0000
REM Highest difference peak  1.033,  deepest hole -0.877,  1-sigma level  0.239
Q1    1   0.6187  0.6522  0.9562  11.00000  0.05    1.03
Q2    1   0.7820  0.7003  0.4930  11.00000  0.05    0.93
Q3    1   0.4468  0.6937  0.8514  11.00000  0.05    0.87
Q4    1   0.1844  0.8221  0.4998  11.00000  0.05    0.87
Q5    1   0.0000  0.5000  0.5000  10.50000  0.05    0.84
Q6    1  -0.0575  0.4548  0.7984  11.00000  0.05    0.81
Q7    1   0.3882  0.8930  0.5897  11.00000  0.05    0.76
Q8    1   0.6837  0.3155  0.6666  11.00000  0.05    0.75
Q9    1   0.5139  0.4524  0.6734  11.00000  0.05    0.74
Q10   1   0.5582  0.4322  0.9243  11.00000  0.05    0.72
Q11   1   0.8884  0.7637  0.6864  11.00000  0.05    0.69
Q12   1   0.4011  0.5103  1.0067  11.00000  0.05    0.68
Q13   1   0.7132  0.5532  0.8621  11.00000  0.05    0.67
Q14   1   0.5194  0.8186  0.4155  11.00000  0.05    0.66
Q15   1   0.7615  0.8448  0.5987  11.00000  0.05    0.62
Q16   1   0.5000  0.5000  0.5000  10.50000  0.05    0.62
Q17   1   0.6422  0.5726  0.5498  11.00000  0.05    0.61
Q18   1   0.2378  0.5652  0.8889  11.00000  0.05    0.58
Q19   1   0.3980  0.7413  0.6823  11.00000  0.05    0.57
Q20   1   0.5861  0.7628  0.7092  11.00000  0.05    0.57
;
_shelx_res_checksum              38753
loop_
_space_group_symop_operation_xyz
'x, y, z'
'-x+1/2, y+1/2, -z+1/2'
'-x, -y, -z'
'x-1/2, -y-1/2, z-1/2'
loop_
_atom_site_type_symbol
_atom_site_label
_atom_site_fract_x
_atom_site_fract_y
_atom_site_fract_z
_atom_site_U_iso_or_equiv
_atom_site_adp_type
_atom_site_calc_flag
_atom_site_occupancy
Br Br1 0.5856(4) 0.79134(18) 0.5943(2) 0.0404(8) Uani d 1
Br Br2 0.3480(4) 0.57458(18) 0.8015(2) 0.0376(8) Uani d 1
C C1 0.536(3) 0.6214(16) 0.5414(19) 0.026(4) Uiso d 1
C C2 0.440(4) 0.5358(17) 0.6328(19) 0.026(4) Uiso d 1
C C3 0.405(3) 0.4134(15) 0.5857(19) 0.022(4) Uiso d 1
H H3 0.338150 0.352764 0.642273 0.026 Uiso calc 1
loop_
_atom_site_aniso_label
_atom_site_aniso_U_11
_atom_site_aniso_U_22
_atom_site_aniso_U_33
_atom_site_aniso_U_12
_atom_site_aniso_U_13
_atom_site_aniso_U_23
Br1 0.0565(13) 0.021(2) 0.045(2) -0.0031(9) 0.0129(12) -0.0038(8)
Br2 0.0502(12) 0.031(2) 0.034(2) 0.0014(9) 0.0154(11) -0.0029(7)
loop_
_atom_type_symbol
_atom_type_description
_atom_type_scat_dispersion_real
_atom_type_scat_dispersion_imag
_atom_type_scat_source
Br Br -0.2901 2.4595 'International Tables Vol C Tables 4.2.6.8 and 6.1.1.4'
C C 0.0033 0.0016 'International Tables Vol C Tables 4.2.6.8 and 6.1.1.4'
H H 0.0000 0.0000 'International Tables Vol C Tables 4.2.6.8 and 6.1.1.4'
loop_
_geom_angle_atom_site_label_1
_geom_angle_atom_site_label_2
_geom_angle_atom_site_label_3
_geom_angle_site_symmetry_1
_geom_angle
C3 C1 C2 3_666 122.1(18)
C3 C1 Br1 3_666 119.2(12)
C2 C1 Br1 . 118.7(15)
C3 C2 C1 . 115.2(18)
C3 C2 Br2 . 119.9(12)
C1 C2 Br2 . 124.9(15)
C1 C3 C2 3_666 122.7(15)
C1 C3 H3 3_666 118.6
C2 C3 H3 . 118.6
loop_
_geom_bond_atom_site_label_1
_geom_bond_atom_site_label_2
_geom_bond_site_symmetry_2
_geom_bond_distance
Br1 C1 . 1.902(18)
Br2 C2 . 1.831(18)
C1 C3 3_666 1.38(2)
C1 C2 . 1.40(2)
C2 C3 . 1.40(2)
C3 H3 . 0.9300
loop_
_geom_torsion_atom_site_label_1
_geom_torsion_atom_site_label_2
_geom_torsion_atom_site_label_3
_geom_torsion_atom_site_label_4
_geom_torsion_site_symmetry_1
_geom_torsion_site_symmetry_4
_geom_torsion
C3 C1 C2 C3 3_666 . -1(2)
Br1 C1 C2 C3 . . 179.1(10)
C3 C1 C2 Br2 3_666 . -178.6(12)
Br1 C1 C2 Br2 . . 1.3(18)
C1 C2 C3 C1 . 3_666 1(2)
Br2 C2 C3 C1 . 3_666 178.8(12)

_cod_database_fobs_code 2242447
