#------------------------------------------------------------------------------
#$Date: 2019-04-05 12:48:19 +0300 (Fri, 05 Apr 2019) $
#$Revision: 214500 $
#$URL: file:///home/coder/svn-repositories/cod/cif/2/24/28/2242890.cif $
#------------------------------------------------------------------------------
#
# This file is available in the Crystallography Open Database (COD),
# http://www.crystallography.net/. The original data for this entry
# were provided by IUCr Journals, http://journals.iucr.org/.
#
# The file may be used within the scientific community so long as
# proper attribution is given to the journal article from which the
# data were obtained.
#
data_2242890
loop_
_publ_author_name
'Harlow, Richard L.'
'Oliver, Allen G.'
'Baker, Jonathan M.'
'Marshall, William J.'
'Sammes, Michael P.'
_publ_section_title
;
 Comparison of the C---H&#x00B7;&#x00B7;&#x00B7;O bonding in two
 crystalline phases of 1,4-dithiane 1,1,4,4-tetraoxide
;
_journal_coeditor_code           JJ2210
_journal_issue                   5
_journal_name_full               'Acta Crystallographica Section E'
_journal_page_first              576
_journal_page_last               579
_journal_paper_doi               10.1107/S2056989019004407
_journal_volume                  75
_journal_year                    2019
_chemical_formula_moiety         'C4 H8 O4 S2'
_chemical_formula_sum            'C4 H8 O4 S2'
_chemical_formula_weight         184.22
_chemical_name_systematic
;
1,4-Dithiane 1,1,4,4-tetraoxide
;
_space_group_crystal_system      monoclinic
_space_group_IT_number           12
_space_group_name_Hall           '-C 2y'
_space_group_name_H-M_alt        'C 1 2/m 1'
_symmetry_space_group_name_Hall  '-C 2y'
_symmetry_space_group_name_H-M   'C 1 2/m 1'
_atom_sites_solution_hydrogens   difmap
_atom_sites_solution_primary     dual
_atom_sites_solution_secondary   difmap
_audit_creation_method
;
Olex2 1.2
(compiled May 18 2018 14:05:52 for OlexSys, GUI svn.r5506)
;
_cell_angle_alpha                90
_cell_angle_beta                 105.894(10)
_cell_angle_gamma                90
_cell_formula_units_Z            2
_cell_length_a                   9.073(8)
_cell_length_b                   7.077(6)
_cell_length_c                   5.597(5)
_cell_measurement_reflns_used    999
_cell_measurement_temperature    233(2)
_cell_measurement_theta_max      27.71
_cell_measurement_theta_min      3.71
_cell_volume                     345.6(5)
_computing_cell_refinement
;
SAINT (Bruker, 2016)
;
_computing_data_collection
;
APEX3 (Bruker, 2016)
;
_computing_data_reduction
;
SAINT (Bruker, 2016)
;
_computing_molecular_graphics
;
<i>OLEX2</i> (Dolomanov <i>et al.</i>,  2009), Crystalmaker (Palmer,
2014)
;
_computing_publication_material
;
<i>OLEX2</i> (Dolomanov <i>et al.</i>,  2009) and publCIF (Westrip, 2010)
;
_computing_structure_refinement
;
ShelXL (Sheldrick, 2015)
;
_computing_structure_solution
;
<i>OLEX2</i> (Dolomanov <i>et al.</i>,  2009)
;
_diffrn_ambient_temperature      233.15
_diffrn_measured_fraction_theta_full 0.994
_diffrn_measured_fraction_theta_max 0.989
_diffrn_measurement_device_type  'APEXII CCD'
_diffrn_measurement_method       \q/2\q
_diffrn_radiation_type           MoK\a
_diffrn_radiation_wavelength     0.71073
_diffrn_reflns_av_unetI/netI     0.0120
_diffrn_reflns_limit_h_max       11
_diffrn_reflns_limit_h_min       -11
_diffrn_reflns_limit_k_max       9
_diffrn_reflns_limit_k_min       0
_diffrn_reflns_limit_l_max       7
_diffrn_reflns_limit_l_min       0
_diffrn_reflns_number            433
_diffrn_reflns_theta_full        25.242
_diffrn_reflns_theta_max         27.619
_diffrn_reflns_theta_min         3.707
_exptl_absorpt_coefficient_mu    0.720
_exptl_absorpt_correction_T_max  0.787
_exptl_absorpt_correction_T_min  0.747
_exptl_absorpt_correction_type   multi-scan
_exptl_absorpt_process_details
;
(SADABS; Krause <i>et al.</i>,  2015)
;
_exptl_crystal_colour            colorless
_exptl_crystal_density_diffrn    1.770
_exptl_crystal_description       'irregular block'
_exptl_crystal_F_000             192
_exptl_crystal_size_max          0.43
_exptl_crystal_size_mid          0.35
_exptl_crystal_size_min          0.35
_refine_diff_density_max         0.317
_refine_diff_density_min         -0.318
_refine_ls_extinction_method     none
_refine_ls_goodness_of_fit_ref   1.193
_refine_ls_hydrogen_treatment    refall
_refine_ls_matrix_type           full
_refine_ls_number_parameters     37
_refine_ls_number_reflns         433
_refine_ls_number_restraints     0
_refine_ls_restrained_S_all      1.193
_refine_ls_R_factor_all          0.0226
_refine_ls_R_factor_gt           0.0225
_refine_ls_shift/su_max          0.001
_refine_ls_shift/su_mean         0.000
_refine_ls_structure_factor_coef Fsqd
_refine_ls_weighting_details
'w=1/[\s^2^(Fo^2^)+(0.0297P)^2^+0.2882P] where P=(Fo^2^+2Fc^2^)/3'
_refine_ls_weighting_scheme      calc
_refine_ls_wR_factor_gt          0.0671
_refine_ls_wR_factor_ref         0.0672
_reflns_number_gt                428
_reflns_number_total             433
_reflns_threshold_expression     'I > 2\s(I)'
_cod_data_source_file            jj2210sup1.cif
_cod_data_source_block           14-disulphone-phase1
_cod_database_code               2242890
_shelx_space_group_comment
;
The symmetry employed for this shelxl refinement is uniquely defined
by the following loop, which should always be used as a source of
symmetry information in preference to the above space-group names.
They are only intended as comments.
;
_shelx_estimated_absorpt_t_min   0.747
_shelx_estimated_absorpt_t_max   0.787
_shelx_hkl_file
;
   2   0   0 1425.85 25.0993  -1
   2   0   0 1425.85 25.0993   2
   4   0   0 62.3772 1.74797  -1
   4   0   0 62.3772 1.74797   2
   6   0   0 1668.38 29.6117  -1
   6   0   0 1668.38 29.6117   2
   8   0   0 2.17429 0.61788  -1
   8   0   0 2.17429 0.61788   2
  10   0   0 660.912 13.6358  -1
  10   0   0 660.912 13.6358   2
   1   1   0 6031.86 50.0092  -1
   1   1   0 6031.86 50.0092   2
   3   1   0 3891.49 39.3139  -1
   3   1   0 3891.49 39.3139   2
   5   1   0 244.735 2.82138  -1
   5   1   0 244.735 2.82138   2
   7   1   0 1578.63 20.0323  -1
   7   1   0 1578.63 20.0323   2
   9   1   0 1056.76 14.2321  -1
   9   1   0 1056.76 14.2321   2
  11   1   0 2.74829 0.61603  -1
  11   1   0 2.74829 0.61603   2
   4   2   0 961.676 7.34741  -1
   4   2   0 961.676 7.34741   2
   6   2   0 893.175 7.85136  -1
   6   2   0 893.175 7.85136   2
   8   2   0 2.66185 0.34738  -1
   8   2   0 2.66185 0.34738   2
  10   2   0 271.338 3.76975  -1
  10   2   0 271.338 3.76975   2
   1   3   0 50.3278 0.66517  -1
   1   3   0 50.3278 0.66517   2
   3   3   0 6988.89 69.1548  -1
   3   3   0 6988.89 69.1548   2
   5   3   0 12.5132 0.32417  -1
   5   3   0 12.5132 0.32417   2
   7   3   0 1058.27 10.8869  -1
   7   3   0 1058.27 10.8869   2
   9   3   0 649.791 7.33946  -1
   9   3   0 649.791 7.33946   2
   0   4   0 9999.99 113.839  -1
   0   4   0 9999.99 113.839   2
   2   4   0 2003.54 14.6546  -1
   2   4   0 2003.54 14.6546   2
   4   4   0 152.130 1.71662  -1
   4   4   0 152.130 1.71662   2
   6   4   0 937.697 8.38645  -1
   6   4   0 937.697 8.38645   2
   8   4   0 0.01937 0.20883  -1
   8   4   0 0.01937 0.20883   2
  10   4   0 371.323 4.85908  -1
  10   4   0 371.323 4.85908   2
   1   5   0 2292.45 19.1003  -1
   1   5   0 2292.45 19.1003   2
   3   5   0 632.906 5.07097  -1
   3   5   0 632.906 5.07097   2
   5   5   0 282.356 2.94018  -1
   5   5   0 282.356 2.94018   2
   7   5   0 951.373 10.3881  -1
   7   5   0 951.373 10.3881   2
   9   5   0 619.330 7.18700  -1
   9   5   0 619.330 7.18700   2
   0   6   0 4388.09 49.4660  -1
   0   6   0 4388.09 49.4660   2
   2   6   0 551.888 4.58036  -1
   2   6   0 551.888 4.58036   2
   4   6   0 105.592 1.50030  -1
   4   6   0 105.592 1.50030   2
   6   6   0 647.454 9.07080  -1
   6   6   0 647.454 9.07080   2
   8   6   0 1.47294 0.53038  -1
   8   6   0 1.47294 0.53038   2
   1   7   0 59.8702 1.06337  -1
   1   7   0 59.8702 1.06337   2
   3   7   0 1550.36 13.5124  -1
   3   7   0 1550.36 13.5124   2
   5   7   0 1.31509 0.39110  -1
   5   7   0 1.31509 0.39110   2
   7   7   0 401.156 5.32941  -1
   7   7   0 401.156 5.32941   2
   0   8   0 630.176 12.8047  -1
   0   8   0 630.176 12.8047   2
   2   8   0 826.829 11.3590  -1
   2   8   0 826.829 11.3590   2
   4   8   0 362.065 4.81964  -1
   4   8   0 362.065 4.81964   2
   1   9   0 193.491 3.95525  -1
   1   9   0 193.491 3.95525   2
 -10   0   1 79.3294 3.07808   2
  -8   0   1 2251.06 39.9914   2
  -6   0   1 592.501 11.3882   2
  -4   0   1 288.279 3.76648   2
  -2   0   1 7013.50 121.304   2
   0   0   1 559.247 5.33848   2
   2   0   1 781.590 9.45584   2
   4   0   1 400.692 5.11830   2
   6   0   1 46.7834 1.73427   2
   8   0   1 819.306 15.8124   2
  10   0   1 18.4089 1.50931   2
 -11   1   1 180.946 3.85542   2
  -9   1   1 181.425 3.51616   2
  -7   1   1 588.516 8.17210   2
  -5   1   1 2012.86 19.9194   2
  -3   1   1 1110.29 8.31376   2
  -1   1   1 3685.34 27.6787   2
   1   1   1 4525.67 43.1137   2
   3   1   1 829.809 6.30403   2
   5   1   1 35.3175 0.61916   2
   7   1   1 -0.0503 0.16417   2
   9   1   1 508.754 6.01182   2
 -10   2   1 202.752 4.00673   2
  -8   2   1 1016.82 13.5948   2
  -6   2   1 1796.14 18.0294   2
  -4   2   1 615.423 4.84106   2
  -2   2   1 242.023 2.26654   2
   0   2   1 698.093 5.92065   2
   2   2   1 1569.17 14.9129   2
   4   2   1 500.307 4.02792   2
   6   2   1 258.515 2.70420   2
   8   2   1 216.613 3.04681   2
  10   2   1 73.8127 1.70375   2
 -11   3   1 199.878 3.20026   2
  -9   3   1 36.4795 1.05893   2
  -7   3   1 98.9270 1.38073   2
  -5   3   1 2786.52 18.6417   2
  -3   3   1 15.8262 0.39361   2
  -1   3   1 574.783 4.39593   2
   1   3   1 4234.12 31.2498   2
   3   3   1 136.565 1.50533   2
   5   3   1 113.833 1.26365   2
   7   3   1 40.7177 1.04577   2
   9   3   1 137.586 2.38445   2
 -10   4   1 83.9236 2.41488   2
  -8   4   1 1061.75 11.0834   2
  -6   4   1 476.555 3.67926   2
  -4   4   1 43.6324 0.65860   2
  -2   4   1 1079.36 8.10080   2
   0   4   1 1.91519 0.25302   2
   2   4   1 603.165 5.39675   2
   4   4   1 323.517 3.17917   2
   6   4   1 80.3361 1.27469   2
   8   4   1 392.933 4.88597   2
  -9   5   1 176.986 3.75422   2
  -7   5   1 492.223 5.88830   2
  -5   5   1 406.292 3.49723   2
  -3   5   1 505.378 4.15033   2
  -1   5   1 1371.54 10.2808   2
   1   5   1 712.860 6.17528   2
   3   5   1 148.574 1.80006   2
   5   5   1 76.1498 1.18803   2
   7   5   1 38.3164 1.08908   2
  -8   6   1 659.027 9.83389   2
  -6   6   1 194.011 2.51977   2
  -4   6   1 28.1088 0.74434   2
  -2   6   1 676.772 6.31140   2
   0   6   1 4.14295 0.26996   2
   2   6   1 356.260 3.50859   2
   4   6   1 186.192 2.61351   2
   6   6   1 51.2234 1.22445   2
   8   6   1 258.767 4.51663   2
  -7   7   1 30.6246 1.13496   2
  -5   7   1 750.644 7.14446   2
  -3   7   1 0.67730 0.20816   2
  -1   7   1 167.285 2.49002   2
   1   7   1 720.484 7.70774   2
   3   7   1 5.47015 0.52259   2
   5   7   1 122.499 2.13668   2
  -4   8   1 204.409 2.71400   2
  -2   8   1 70.1135 1.55353   2
   0   8   1 34.6660 1.06392   2
   2   8   1 277.977 3.70990   2
   4   8   1 115.438 2.68325   2
  -1   9   1 184.411 3.83496   2
   1   9   1 201.284 4.04108   2
 -10   0   2 1081.27 18.3475  -1
   8   0   2 1081.27 18.3475   2
 -10   0   2 563.629 11.9435   2
  -8   0   2 695.401 12.0954  -1
   6   0   2 695.401 12.0954   2
  -8   0   2 79.3510 2.75709   2
  -6   0   2 268.128 3.78905   2
  -4   0   2 3027.48 28.7344   2
  -2   0   2 3.43859 0.18097   2
   0   0   2 1509.24 17.1794   2
   2   0   2 330.559 4.15724   2
   4   0   2 86.3616 1.24676   2
  10   0   2 337.640 7.53186   2
 -11   1   2 144.535 3.36132   2
 -11   1   2 275.109 6.27716  -1
   9   1   2 275.109 6.27716   2
  -9   1   2 395.695 6.26642   2
  -9   1   2 1112.60 18.5595  -1
   7   1   2 1112.60 18.5595   2
  -7   1   2 919.099 9.67293   2
  -5   1   2 600.516 4.77796   2
  -3   1   2 19.5611 0.45616   2
  -1   1   2 87.5147 0.74983   2
   1   1   2 2153.96 17.4844   2
   3   1   2 987.893 7.54187   2
   5   1   2 12.7121 0.33728   2
 -10   2   2 94.9044 2.49663   2
 -10   2   2 129.175 2.73184  -1
   8   2   2 129.175 2.73184   2
  -8   2   2 130.739 3.40721  -1
   6   2   2 130.739 3.40721   2
  -8   2   2 95.5133 2.23292   2
  -6   2   2 1447.51 11.0430   2
  -6   2   2 2396.11 40.0688  -1
   4   2   2 2396.11 40.0688   2
  -4   2   2 648.651 5.13874   2
  -2   2   2 38.0423 0.53660   2
   0   2   2 173.923 1.78639   2
   2   2   2 212.049 2.38058   2
 -11   3   2 365.316 5.85940  -1
   9   3   2 365.316 5.85940   2
 -11   3   2 18.5403 1.26804   2
  -9   3   2 57.5135 1.80592   2
  -9   3   2 249.794 5.57341  -1
   7   3   2 249.794 5.57341   2
  -7   3   2 1442.25 10.9582   2
  -5   3   2 49.0278 0.70723   2
  -3   3   2 15.4745 0.42158   2
  -1   3   2 35.5360 0.64209   2
   1   3   2 716.433 7.16795   2
   3   3   2 1678.42 14.0310   2
   5   3   2 102.036 1.37459   2
 -10   4   2 380.358 7.90691  -1
   8   4   2 380.358 7.90691   2
  -8   4   2 1.00307 0.40488   2
  -6   4   2 447.595 3.93899   2
  -4   4   2 862.395 6.89713   2
  -2   4   2 3.14604 0.25464   2
   0   4   2 434.402 5.66618   2
   2   4   2 6.42366 0.35019   2
   4   4   2 260.353 2.71798   2
   6   4   2 238.014 3.17146   2
   8   4   2 389.390 9.35732  -1
 -10   4   2 389.390 9.35732   2
  -9   5   2 1075.32 20.9783  -1
   7   5   2 1075.32 20.9783   2
  -7   5   2 292.449 6.11920  -1
   5   5   2 292.449 6.11920   2
  -5   5   2 229.600 2.37253   2
  -3   5   2 180.475 2.16323   2
  -1   5   2 4.59721 0.34475   2
   1   5   2 738.356 7.65646   2
   3   5   2 297.341 3.10714   2
   5   5   2 282.467 6.88464  -1
  -7   5   2 282.467 6.88464   2
   7   5   2 1070.65 20.9869  -1
  -9   5   2 1070.65 20.9869   2
  -8   6   2 207.421 5.11867  -1
   6   6   2 207.421 5.11867   2
  -6   6   2 380.752 7.54427  -1
   4   6   2 380.752 7.54427   2
  -4   6   2 449.342 4.56328   2
  -2   6   2 11.2584 0.61977   2
   0   6   2 357.137 4.25787   2
   2   6   2 5.13733 0.46301   2
   4   6   2 384.975 8.83683  -1
  -6   6   2 384.975 8.83683   2
   6   6   2 193.542 4.00010  -1
  -8   6   2 193.542 4.00010   2
  -7   7   2 472.295 9.21553  -1
   5   7   2 472.295 9.21553   2
  -3   7   2 58.9248 1.21010   2
  -3   7   2 224.799 5.10616  -1
   1   7   2 224.799 5.10616   2
  -1   7   2 17.2287 0.73373   2
   3   7   2 511.797 11.1605  -1
  -5   7   2 511.797 11.1605   2
   3   7   2 546.423 6.23377   2
   5   7   2 499.069 7.95328  -1
  -7   7   2 499.069 7.95328   2
  -4   8   2 96.0741 1.92218   2
  -2   8   2 2.45271 0.42034   2
   0   8   2 136.137 2.36211   2
   2   8   2 57.1535 1.44630   2
 -10   0   3 10.1676 1.43377   2
  -8   0   3 55.6741 2.25418   2
  -6   0   3 109.127 1.98335   2
  -4   0   3 314.708 3.39539   2
  -2   0   3 950.080 9.19337   2
   0   0   3 2817.88 31.6885   2
   2   0   3 1426.94 13.7011   2
   4   0   3 1926.32 18.4853   2
   6   0   3 232.737 5.20880   2
   8   0   3 226.204 5.51378   2
 -11   1   3 125.105 3.04671   2
  -9   1   3 28.3082 1.21257   2
  -7   1   3 245.209 2.64922   2
  -5   1   3 1037.34 8.03258   2
  -3   1   3 92.7380 0.95528   2
  -1   1   3 1138.32 8.42146   2
   1   1   3 163.474 1.71903   2
   3   1   3 203.612 1.91479   2
   5   1   3 1402.62 10.5848   2
   7   1   3 110.147 2.33838   2
 -10   2   3 52.0917 1.79840   2
  -8   2   3 323.555 5.25283   2
  -6   2   3 7.76811 0.34415   2
  -4   2   3 428.238 3.60518   2
  -2   2   3 47.2323 0.65466   2
   0   2   3 119.504 1.33928   2
   2   2   3 4048.55 32.5535   2
   4   2   3 409.869 4.57323   2
   6   2   3 1.33495 0.32844   2
   8   2   3 422.791 6.15549   2
  -9   3   3 119.515 2.78493   2
  -7   3   3 312.588 3.34146   2
  -5   3   3 824.025 6.61975   2
  -3   3   3 1.99572 0.18964   2
  -1   3   3 223.203 2.07670   2
   1   3   3 913.695 7.71426   2
   3   3   3 763.950 9.49493   2
   5   3   3 461.555 6.46775   2
   7   3   3 229.503 4.02771   2
 -10   4   3 0.08667 0.40141   2
  -8   4   3 114.925 2.09063   2
  -6   4   3 35.6325 0.83428   2
  -4   4   3 270.063 2.59972   2
  -2   4   3 300.112 2.76912   2
   0   4   3 372.528 4.25379   2
   2   4   3 1296.71 12.8042   2
   4   4   3 726.995 7.65095   2
   6   4   3 62.6241 1.77009   2
  -9   5   3 1.39170 0.49941   2
  -7   5   3 87.4042 1.51300   2
  -5   5   3 488.467 4.36427   2
  -3   5   3 96.5371 1.30427   2
  -1   5   3 750.593 9.51737   2
   1   5   3 22.8201 0.76912   2
   3   5   3 0.66417 0.23955   2
   5   5   3 1037.06 13.0085   2
   7   5   3 17.6204 1.68416   2
  -8   6   3 84.7674 1.61238   2
  -6   6   3 21.4105 0.76550   2
  -4   6   3 133.886 1.72443   2
  -2   6   3 289.083 3.29041   2
   0   6   3 184.502 2.71253   2
   2   6   3 584.401 6.53374   2
   4   6   3 436.865 6.37562   2
  -7   7   3 117.492 2.00624   2
  -5   7   3 277.045 2.99674   2
  -3   7   3 2.12147 0.35201   2
  -1   7   3 96.8060 1.88714   2
   1   7   3 320.285 4.19344   2
   3   7   3 197.643 3.00600   2
  -4   8   3 126.387 2.09404   2
  -2   8   3 41.1915 1.27222   2
   0   8   3 0.03982 0.32038   2
 -10   0   4 182.744 5.35385   2
  -8   0   4 50.0978 2.21445   2
  -6   0   4 677.678 7.00210   2
  -4   0   4 1813.02 17.3720   2
  -2   0   4 449.475 4.69417   2
   0   0   4 374.194 4.95767   2
   2   0   4 283.241 4.05105   2
   4   0   4 510.605 6.75148   2
   6   0   4 395.357 8.03897   2
 -11   1   4 50.1239 1.85463   2
  -9   1   4 101.822 2.45930   2
  -7   1   4 98.4520 1.26229   2
  -5   1   4 187.835 1.66640   2
  -3   1   4 2165.21 14.5583   2
  -1   1   4 408.183 3.35957   2
   1   1   4 245.303 2.51655   2
   3   1   4 1189.39 10.0584   2
   5   1   4 121.144 1.93041   2
   7   1   4 85.7468 2.13241   2
 -10   2   4 174.458 3.66200   2
  -8   2   4 6.01332 0.54412   2
  -6   2   4 1245.26 10.7922   2
  -4   2   4 401.348 3.49024   2
  -2   2   4 13.8152 0.44890   2
   0   2   4 1346.57 11.1478   2
   2   2   4 16.0331 0.50144   2
   4   2   4 236.653 2.60775   2
   6   2   4 363.367 5.34669   2
  -9   3   4 58.0638 1.86703   2
  -7   3   4 233.138 2.42709   2
  -5   3   4 410.259 3.66854   2
  -3   3   4 815.381 7.35917   2
  -1   3   4 882.080 9.00848   2
   1   3   4 581.224 6.27243   2
   3   3   4 588.807 5.42365   2
   5   3   4 123.203 2.43854   2
   7   3   4 43.2600 1.49602   2
  -8   4   4 11.0931 0.62889   2
  -6   4   4 567.073 4.94620   2
  -4   4   4 635.934 6.03163   2
  -2   4   4 70.2266 1.21504   2
   0   4   4 466.429 5.28947   2
   2   4   4 104.107 1.80803   2
   4   4   4 282.569 3.65964   2
   6   4   4 259.303 6.19614   2
  -9   5   4 76.2373 2.88548   2
  -7   5   4 31.3436 0.90014   2
  -5   5   4 12.2174 0.61550   2
  -3   5   4 1332.02 11.7859   2
  -1   5   4 51.1741 1.24960   2
   1   5   4 25.2573 0.88257   2
   3   5   4 761.261 9.94261   2
   5   5   4 36.6498 1.39951   2
  -6   6   4 277.731 3.33817   2
  -4   6   4 411.608 4.44771   2
  -2   6   4 73.4890 1.61266   2
   0   6   4 251.703 3.51183   2
   2   6   4 67.6340 1.55407   2
   4   6   4 166.631 3.34767   2
  -5   7   4 107.436 1.88347   2
  -3   7   4 218.749 3.29815   2
  -1   7   4 283.056 3.95138   2
   1   7   4 202.085 3.14580   2
 -10   0   5 40.4774 2.26783   2
  -8   0   5 96.8913 3.24412   2
  -6   0   5 305.238 4.69736   2
  -4   0   5 927.367 9.32919   2
  -2   0   5 603.468 7.65410   2
   0   0   5 113.345 2.14819   2
   2   0   5 92.7965 1.95932   2
   4   0   5 143.386 2.71848   2
   6   0   5 205.484 5.25120   2
  -9   1   5 169.791 3.47276   2
  -7   1   5 32.2818 0.70272   2
  -5   1   5 892.035 7.97568   2
  -3   1   5 143.430 1.79244   2
  -1   1   5 83.6033 1.21354   2
   1   1   5 135.690 1.74672   2
   3   1   5 43.1708 0.92403   2
   5   1   5 332.963 5.00753   2
 -10   2   5 1.05207 0.51571   2
  -8   2   5 445.567 4.58483   2
  -6   2   5 0.98114 0.21886   2
  -4   2   5 145.409 1.88878   2
  -2   2   5 1179.14 10.3303   2
   0   2   5 52.1757 1.19100   2
   2   2   5 178.315 2.59100   2
   4   2   5 16.6887 0.71519   2
  -9   3   5 308.385 4.17218   2
  -7   3   5 197.231 2.47253   2
  -5   3   5 289.161 3.21185   2
  -3   3   5 324.556 3.99086   2
  -1   3   5 183.814 2.65036   2
   1   3   5 117.065 1.99571   2
   3   3   5 93.9819 1.79161   2
   5   3   5 119.185 3.77375   2
  -8   4   5 161.239 2.64812   2
  -6   4   5 69.3891 1.32544   2
  -4   4   5 339.120 3.71671   2
  -2   4   5 501.786 5.77780   2
   0   4   5 57.8440 1.36574   2
   2   4   5 119.315 2.09768   2
   4   4   5 53.7520 1.72109   2
  -7   5   5 0.05424 0.28895   2
  -5   5   5 685.352 6.72119   2
  -3   5   5 10.7189 0.63969   2
  -1   5   5 25.9961 0.96617   2
   1   5   5 112.267 2.10300   2
   3   5   5 10.3157 0.89484   2
  -4   6   5 215.202 3.31575   2
  -2   6   5 293.412 4.89943   2
   0   6   5 21.6609 1.15939   2
  -8   0   6 181.276 4.84271   2
  -6   0   6 154.607 4.35813   2
  -4   0   6 51.5302 2.28166   2
  -2   0   6 98.1468 3.29761   2
   0   0   6 84.6273 1.94826   2
   2   0   6 21.4347 1.00713   2
  -7   1   6 181.212 3.42312   2
  -5   1   6 15.4575 0.98445   2
  -3   1   6 317.229 3.96422   2
  -1   1   6 64.6938 1.41358   2
   1   1   6 62.0625 1.41322   2
   3   1   6 179.130 2.77432   2
  -8   2   6 13.0524 1.02991   2
  -6   2   6 21.0024 0.82577   2
  -4   2   6 97.2076 1.80757   2
  -2   2   6 42.9925 1.16314   2
   0   2   6 288.875 3.80280   2
   2   2   6 43.5041 1.21882   2
  -7   3   6 55.4945 1.20270   2
  -5   3   6 0.91055 0.30746   2
  -3   3   6 251.475 3.47437   2
  -1   3   6 116.888 2.10747   2
   1   3   6 178.306 2.79768   2
  -6   4   6 71.9627 1.43713   2
  -4   4   6 41.8521 1.06773   2
  -2   4   6 37.8286 1.17202   2
   0   4   6 131.137 2.36152   2
  -3   5   6 166.330 2.78797   2
  -1   5   6 21.7348 0.96634   2
  -6   0   7 35.6748 2.40767  -1
   0   0   7 35.6748 2.40767   2
  -4   0   7 383.312 8.97009  -1
  -2   0   7 383.312 8.97009   2
  -2   0   7 237.913 6.27352  -1
  -4   0   7 237.913 6.27352   2
   0   0   7 20.4580 1.70542  -1
  -6   0   7 20.4580 1.70542   2
  -5   1   7 400.166 6.52416  -1
  -1   1   7 400.166 6.52416   2
  -3   1   7 49.3225 1.80022  -1
  -3   1   7 49.3225 1.80022   2
  -1   1   7 264.929 4.83342  -1
  -5   1   7 264.929 4.83342   2
  -4   2   7 466.579 7.35021  -1
  -2   2   7 466.579 7.35021   2
  -2   2   7 158.105 4.92569  -1
  -4   2   7 158.105 4.92569   2
   0   0   0    0.00    0.00   0
;
_shelx_hkl_checksum              46586
_shelx_res_file
;
TITL 14-Disulphone-Phase 1
    14-disulphone-phase1.res
    created by SHELXL-2018/1 at 12:50:31 on 14-Nov-2018
REM Old TITL aa in C2
REM SHELXT solution in C2/m
REM R1 0.109, Rweak 0.008, Alpha 0.044, Orientation as input
REM Formula found by SHELXT: C2 O2 S
CELL 0.71073 9.0727 7.0765 5.5973 90 105.894 90
ZERR 2 0.0077 0.0061 0.0048 0 0.01 0
LATT 7
SYMM -X,+Y,-Z
SFAC C H O S
UNIT 8 16 8 4
L.S. 10
PLAN  10
SIZE 0.35 0.35 0.43
TEMP -40
BOND $H
HTAB
conf
list 4
fmap 2
acta
MERG 0
OMIT -4 2 7
REM <olex2.extras>
REM <HklSrc "%./14-Disulphone-Phase1.hkl">
REM </olex2.extras>
WGHT    0.029700    0.288200
BASF   0.51606
FVAR       1.50219
S1    4    0.653203    0.500000    0.248352    10.50000    0.01437    0.01795 =
         0.01730    0.00000    0.00095    0.00000
O1    3    0.695496    0.500000    0.516454    10.50000    0.02702    0.03187 =
         0.01831    0.00000   -0.00167    0.00000
O2    3    0.774665    0.500000    0.126643    10.50000    0.01662    0.02887 =
         0.03263    0.00000    0.00803    0.00000
C1    1    0.531982    0.302788    0.140775    11.00000    0.01931    0.01581 =
         0.02169    0.00264    0.00146   -0.00110
H1A   2    0.454498    0.305334    0.225404    11.00000    0.02408
H1B   2    0.590389    0.199620    0.191628    11.00000    0.02757
HKLF 5
REM  14-Disulphone-Phase 1
REM R1 =  0.0225 for     428 Fo > 4sig(Fo)  and  0.0226 for all     433 data
REM     37 parameters refined using      0 restraints
END
WGHT      0.0297      0.2882
REM Instructions for potential hydrogen bonds
EQIV $3 -x+1, -y+1, -z+1
HTAB C1 O1_$3
EQIV $4 -x+3/2, -y+1/2, -z+1
HTAB C1 O1_$4
REM Highest difference peak  0.317,  deepest hole -0.318,  1-sigma level  0.057
Q1    1   0.5939  0.6005  0.2018  11.00000  0.05    0.32
Q2    1   0.5000  0.3100  0.0000  10.50000  0.05    0.24
Q3    1   0.6479  0.5000  0.4100  10.50000  0.05    0.24
Q4    1   0.7227  0.5000  0.1814  10.50000  0.05    0.21
Q5    1   0.8034  0.5507  0.1443  11.00000  0.05    0.20
Q6    1   0.4022  0.2419  0.2576  11.00000  0.05    0.16
Q7    1   0.3469  0.1943  0.2357  11.00000  0.05    0.15
Q8    1   0.5005  0.5000  0.0701  10.50000  0.05    0.13
Q9    1   0.5831  0.4328  0.5362  11.00000  0.05    0.13
Q10   1   0.5000  0.5268  0.5000  10.50000  0.05    0.13
;
_shelx_res_checksum              6752
loop_
_space_group_symop_operation_xyz
'x, y, z'
'-x, y, -z'
'x+1/2, y+1/2, z'
'-x+1/2, y+1/2, -z'
'-x, -y, -z'
'x, -y, z'
'-x+1/2, -y+1/2, -z'
'x+1/2, -y+1/2, z'
loop_
_atom_site_type_symbol
_atom_site_label
_atom_site_fract_x
_atom_site_fract_y
_atom_site_fract_z
_atom_site_U_iso_or_equiv
_atom_site_adp_type
_atom_site_calc_flag
_atom_site_occupancy
S S1 0.65320(6) 0.500000 0.24835(9) 0.01721(19) Uani d 1
O O1 0.6955(2) 0.500000 0.5165(3) 0.0273(4) Uani d 1
O O2 0.77466(18) 0.500000 0.1266(3) 0.0258(4) Uani d 1
C C1 0.53198(17) 0.3028(2) 0.1408(3) 0.0198(3) Uani d 1
H H1A 0.454(2) 0.305(3) 0.225(4) 0.024(5) Uiso d 1
H H1B 0.590(2) 0.200(3) 0.192(4) 0.028(5) Uiso d 1
loop_
_atom_site_aniso_label
_atom_site_aniso_U_11
_atom_site_aniso_U_22
_atom_site_aniso_U_33
_atom_site_aniso_U_12
_atom_site_aniso_U_13
_atom_site_aniso_U_23
S1 0.0144(3) 0.0179(3) 0.0173(3) 0.000 0.0010(2) 0.000
O1 0.0270(8) 0.0319(10) 0.0183(8) 0.000 -0.0017(7) 0.000
O2 0.0166(8) 0.0289(9) 0.0326(9) 0.000 0.0080(7) 0.000
C1 0.0193(7) 0.0158(7) 0.0217(8) -0.0011(5) 0.0015(6) 0.0026(6)
loop_
_atom_type_symbol
_atom_type_description
_atom_type_scat_dispersion_real
_atom_type_scat_dispersion_imag
_atom_type_scat_source
C C 0.0033 0.0016 'International Tables Vol C Tables 4.2.6.8 and 6.1.1.4'
H H 0.0000 0.0000 'International Tables Vol C Tables 4.2.6.8 and 6.1.1.4'
O O 0.0106 0.0060 'International Tables Vol C Tables 4.2.6.8 and 6.1.1.4'
S S 0.1246 0.1234 'International Tables Vol C Tables 4.2.6.8 and 6.1.1.4'
loop_
_geom_angle_atom_site_label_1
_geom_angle_atom_site_label_2
_geom_angle_atom_site_label_3
_geom_angle_site_symmetry_1
_geom_angle_site_symmetry_3
_geom_angle
O1 S1 O2 . . 118.03(11)
O1 S1 C1 . 6_565 108.42(7)
O1 S1 C1 . . 108.42(7)
O2 S1 C1 . 6_565 108.74(8)
O2 S1 C1 . . 108.74(8)
C1 S1 C1 . 6_565 103.52(12)
S1 C1 H1A . . 106.9(12)
S1 C1 H1B . . 105.9(13)
C1 C1 S1 2_655 . 112.07(9)
C1 C1 H1A 2_655 . 113.1(11)
C1 C1 H1B 2_655 . 110.6(13)
H1A C1 H1B . . 108.0(17)
loop_
_geom_bond_atom_site_label_1
_geom_bond_atom_site_label_2
_geom_bond_site_symmetry_2
_geom_bond_distance
S1 O1 . 1.444(2)
S1 O2 . 1.4456(19)
S1 C1 . 1.7768(19)
S1 C1 6_565 1.7768(19)
C1 C1 2_655 1.523(3)
C1 H1A . 0.949(19)
C1 H1B . 0.90(2)
loop_
_geom_torsion_atom_site_label_1
_geom_torsion_atom_site_label_2
_geom_torsion_atom_site_label_3
_geom_torsion_atom_site_label_4
_geom_torsion_site_symmetry_1
_geom_torsion_site_symmetry_4
_geom_torsion
O1 S1 C1 C1 . 2_655 174.03(12)
O2 S1 C1 C1 . 2_655 -56.47(15)
C1 S1 C1 C1 6_565 2_655 59.03(17)
loop_
_twin_individual_id
_twin_individual_mass_fraction_refined
1 0.484(4)
2 0.516(4)

_cod_database_fobs_code 2242890
