#------------------------------------------------------------------------------
#$Date: 2018-04-30 19:24:07 +0300 (Mon, 30 Apr 2018) $
#$Revision: 207545 $
#$URL: file:///home/coder/svn-repositories/cod/cif/2/24/24/2242442.cif $
#------------------------------------------------------------------------------
#
# This file is available in the Crystallography Open Database (COD),
# http://www.crystallography.net/. The original data for this entry
# were provided by IUCr Journals, http://journals.iucr.org/.
#
# The file may be used within the scientific community so long as
# proper attribution is given to the journal article from which the
# data were obtained.
#
data_2242442
loop_
_publ_author_name
'Zakharov, Boris A.'
'Gal, Zoltan'
'Cruickshank, Dyanne'
'Boldyreva, Elena V.'
_publ_section_title
;
 Studying weak interactions in crystals at high pressures: when hardware
 matters
;
_journal_issue                   5
_journal_name_full               'Acta Crystallographica Section E'
_journal_page_first              613
_journal_page_last               619
_journal_paper_doi               10.1107/S205698901800470X
_journal_volume                  74
_journal_year                    2018
_chemical_formula_moiety         'C6 H2 Br4'
_chemical_formula_sum            'C6 H2 Br4'
_chemical_formula_weight         393.72
_chemical_name_common            1,2,4,5-tetrabromobenzene
_chemical_name_systematic        1,2,4,5-tetrabromobenzene
_space_group_crystal_system      monoclinic
_space_group_IT_number           14
_space_group_name_Hall           '-P 2yn'
_space_group_name_H-M_alt        'P 1 21/n 1'
_symmetry_space_group_name_Hall  '-P 2yn'
_symmetry_space_group_name_H-M   'P 1 21/n 1'
_atom_sites_solution_hydrogens   geom
_audit_creation_method           SHELXL-2018/1
_cell_angle_alpha                90
_cell_angle_beta                 100.49(3)
_cell_angle_gamma                90
_cell_formula_units_Z            2
_cell_length_a                   3.9390(9)
_cell_length_b                   10.781(4)
_cell_length_c                   9.944(4)
_cell_measurement_reflns_used    748
_cell_measurement_temperature    293(2)
_cell_measurement_theta_max      22.8680
_cell_measurement_theta_min      2.1980
_cell_volume                     415.2(2)
_computing_cell_refinement
;
CrysAlisPro (Rigaku OD, 2016)
;
_computing_data_collection
;
CrysAlisPro (Rigaku OD, 2016)
;
_computing_data_reduction
;
CrysAlisPro (Rigaku OD, 2016)
;
_computing_molecular_graphics
;
Mercury (Macrae <i>et al.</i>,  2008)
;
_computing_publication_material
;
SHELXL-2018/1 (Sheldrick, 2015) and publCIF (Westrip, 2010)
;
_computing_structure_refinement
;
SHELXL-2018/1 (Sheldrick, 2015)
;
_diffrn_ambient_temperature      293(2)
_diffrn_measured_fraction_theta_full 0.695
_diffrn_measured_fraction_theta_max 0.486
_diffrn_measurement_device_type  'XtaLAB Synergy, Dualflex, Pilatus 300K'
_diffrn_measurement_method       \w-scan
_diffrn_radiation_type           AgK\a
_diffrn_radiation_wavelength     0.56087
_diffrn_reflns_av_R_equivalents  0.0501
_diffrn_reflns_limit_h_max       6
_diffrn_reflns_limit_h_min       -5
_diffrn_reflns_limit_k_max       14
_diffrn_reflns_limit_k_min       -14
_diffrn_reflns_limit_l_max       12
_diffrn_reflns_limit_l_min       -11
_diffrn_reflns_number            2453
_diffrn_reflns_theta_full        19.665
_diffrn_reflns_theta_max         26.699
_diffrn_reflns_theta_min         2.219
_exptl_absorpt_coefficient_mu    10.330
_exptl_absorpt_correction_T_max  0.64530
_exptl_absorpt_correction_T_min  0.63827
_exptl_absorpt_correction_type   sphere
_exptl_absorpt_process_details
;
(CrysAlisPro; Rigaku OD, 2016)
;
_exptl_crystal_colour            colourless
_exptl_crystal_density_diffrn    3.149
_exptl_crystal_description       block
_exptl_crystal_F_000             356
_exptl_crystal_size_max          0.18
_exptl_crystal_size_mid          0.07
_exptl_crystal_size_min          0.01
_refine_diff_density_max         0.525
_refine_diff_density_min         -0.491
_refine_ls_extinction_method     none
_refine_ls_goodness_of_fit_ref   0.914
_refine_ls_hydrogen_treatment    constr
_refine_ls_matrix_type           full
_refine_ls_number_parameters     46
_refine_ls_number_reflns         870
_refine_ls_number_restraints     0
_refine_ls_restrained_S_all      0.914
_refine_ls_R_factor_all          0.0947
_refine_ls_R_factor_gt           0.0366
_refine_ls_shift/su_max          0.000
_refine_ls_shift/su_mean         0.000
_refine_ls_structure_factor_coef Fsqd
_refine_ls_weighting_details
'w=1/[\s^2^(Fo^2^)+(0.0230P)^2^] where P=(Fo^2^+2Fc^2^)/3'
_refine_ls_weighting_scheme      calc
_refine_ls_wR_factor_gt          0.0609
_refine_ls_wR_factor_ref         0.0712
_reflns_number_gt                494
_reflns_number_total             870
_reflns_threshold_expression     'I > 2\s(I)'
_cod_data_source_file            su5433sup1.cif
_cod_data_source_block           Ag-CAsphere_c
_cod_database_code               2242442
_shelx_space_group_comment
;
The symmetry employed for this shelxl refinement is uniquely defined
by the following loop, which should always be used as a source of
symmetry information in preference to the above space-group names.
They are only intended as comments.
;
_shelx_hkl_file
;
   0  -1  -1 14.9694 0.90524   6
   0   1   1 17.1120 0.91802   2
   0   1   1 16.9140 0.89003   8
   0  -1  -2 228.396 11.4245   3
   0   1   2 233.755 11.4040   8
   0   1   2 229.744 11.4097   3
   0   2   1 164.480 8.00898   4
   0  -2  -1 166.006 8.05653   5
   0  -2  -1 158.000 8.01986   4
   0  -2  -1 157.077 8.03173   6
   0   2   1 160.798 8.06891   2
   0  -2  -2 324.985 16.5568   2
   0   2   2 333.277 16.5676   5
   0  -2  -2 337.772 16.5514   6
   0  -2  -2 345.269 16.4618   7
   0   2   2 324.054 16.5052   8
   0  -2  -2 339.843 16.4956   8
   0   2   2 329.701 16.5494   2
   0   2   3 413.835 20.2190   8
   0   2   3 407.700 20.2182   3
   0  -2  -3 417.625 20.2984   2
   0  -2  -3 417.542 20.1902   7
   0  -2  -3 392.806 20.2068   3
   0   2   4 146.183 7.48844   3
   0  -2  -4 154.726 7.50841   3
   0  -2  -4 142.581 7.53919   2
   0   2   4 140.362 7.43044   8
   0  -2  -5 3.67926 1.26803   2
   0   2   5 2.54206 0.92982   8
   0  -2  -5 1.92019 1.49204   3
   0   3   1 129.417 6.37733   4
   0  -3  -1 123.218 6.39566   6
   0  -3  -1 125.641 6.43204   5
   0  -3  -2 765.153 37.8481   6
   0   3   2 767.003 37.8552   6
   0  -3  -2 766.084 37.7873   4
   0  -3  -2 787.198 37.8730   5
   0   3   2 766.881 37.8733   2
   0   3   2 774.470 37.7271   7
   0   3   2 760.697 37.8523   5
   0   3   3 4.90695 0.77352   3
   0  -3  -3 6.42679 0.98111   2
   0  -3  -3 6.12151 0.78452   8
   0   3   3 5.93119 1.10669   5
   0   3   3 5.12504 0.98268   6
   0  -3  -3 6.66878 0.71261   7
   0   3   3 4.86041 0.88130   2
   0   3   4 62.9201 3.76357   5
   0  -3  -4 64.5398 3.43122   7
   0  -3  -4 65.2068 3.66250   2
   0  -3  -4 60.6453 3.50271   8
   0   3   4 65.4162 3.52984   8
   0   3   4 61.4413 3.53047   3
   0   3   4 65.7668 3.71649   6
   0  -3  -5 202.438 10.3788   2
   0   3   5 194.139 10.3417   6
   0  -3  -5 212.288 10.2053   7
   0   3   5 203.751 10.2925   3
   0   3   5 191.017 10.2122   8
   0  -3  -6 80.2199 4.93934   2
   0  -3  -6 86.2145 4.83975   3
   0  -3  -7-0.88104 2.07760   2
   0   4   1 871.975 42.9357   4
   0  -4  -1 876.773 42.9958   6
   0  -4  -2 26.0420 1.95601   5
   0   4   2 33.1199 2.02763   2
   0  -4  -2 31.7815 1.88764   4
   0   4   2 29.2009 1.84365   4
   0   4   2 28.7046 1.87602   6
   0  -4  -2 28.9056 1.92915   6
   0  -4  -3 32.3201 2.11067   6
   0   4   3 29.3719 2.08353   5
   0  -4  -3 28.8129 1.91359   8
   0   4   3 26.9307 2.08893   6
   0  -4  -3 28.7598 1.87536   4
   0  -4  -3 27.3975 2.12742   5
   0   4   3 30.3120 2.14401   2
   0   4   4 84.2052 4.90026   3
   0   4   4 94.9425 5.07506   2
   0  -4  -4 90.7081 4.89271   4
   0   4   4 100.237 5.10663   6
   0  -4  -4 91.5766 5.10523   2
   0  -4  -4 86.4664 4.90039   8
   0   4   4 92.4930 5.08722   5
   0  -4  -4 94.2362 4.80209   7
   0   4   5 0.98905 1.55938   5
   0  -4  -5-0.53282 0.94097   7
   0   4   5-1.43506 1.42669   6
   0  -4  -5 0.10485 1.17560   8
   0  -4  -5 0.91674 1.43803   2
   0  -4  -6 38.4257 2.50919   7
   0  -4  -6 37.0626 2.86446   2
   0   4   6 36.7507 3.05528   5
   0   4   7 1.03886 1.97297   6
   0   4   7 0.14617 1.58989   8
   0   4   8 15.4256 2.70355   6
   0  -5  -2 5.01923 1.22307   6
   0  -5  -2 3.24221 1.17254   5
   0   5   2 5.68411 0.98441   4
   0   5   2 3.35902 1.23359   6
   0  -5  -3 63.6510 3.54693   4
   0   5   3 58.2525 3.63422   5
   0   5   3 53.9547 3.30093   7
   0  -5  -3 61.1470 3.47423   8
   0  -5  -3 63.2281 3.70174   5
   0   5   3 68.5522 3.70811   2
   0   5   3 68.1716 3.62965   6
   0  -5  -3 62.1106 3.60816   6
   0  -5  -4 141.447 7.26862   6
   0  -5  -4 126.627 7.04212   4
   0   5   4 136.493 7.27139   6
   0   5   4 132.766 6.99722   7
   0  -5  -4 136.635 7.09725   8
   0   5   4 143.975 7.31837   5
   0   5   4 134.129 7.25187   2
   0  -5  -5 505.723 25.6805   8
   0   5   5 522.236 25.8676   5
   0  -5  -5 516.244 25.6822   4
   0  -5  -5 529.204 25.9217   2
   0   5   5 512.147 25.8609   2
   0   5   6 112.580 6.48168   3
   0  -5  -6 121.473 6.80517   2
   0   5   6 133.065 6.87569   5
   0   5   6 117.742 6.70756   6
   0   5   7-0.97835 2.32279   6
   0  -5  -7 0.40765 1.66584   7
   0   5   7 1.69834 2.14479   3
   0   5   7-0.61784 1.72820   8
   0   5   7 1.34952 2.47388   5
   0   5   8 0.34134 2.50084   6
   0   5   8-1.57930 2.68184   5
   0   5   9 4.56075 2.92858   6
   0   5   9 5.94048 3.38841   5
   0   6   2 104.720 5.75892   4
   0  -6  -2 108.487 5.86277   6
   0   6   2 121.144 6.06777   6
   0  -6  -2 103.048 5.89440   5
   0  -6  -3 280.658 14.1504   6
   0   6   3 275.217 14.1979   2
   0  -6  -3 278.469 14.1953   5
   0  -6  -4 5.80322 1.91305   6
   0  -6  -4 9.82049 2.04033   5
   0   6   4 6.94093 1.96946   5
   0   6   4 6.53995 1.19147   7
   0  -6  -4 5.49220 1.41830   4
   0   6   4 6.16679 1.86060   2
   0  -6  -4 6.48429 1.47853   8
   0  -6  -5 22.4766 2.04228   4
   0   6   5 20.6542 2.50350   2
   0   6   5 21.8990 2.45455   6
   0   6   5 24.0906 2.56460   5
   0   6   6 7.43427 2.43680   5
   0   6   6 3.53667 2.17244   2
   0   6   6 6.03229 1.86162   3
   0   6   6 7.47996 2.44824   6
   0   6   7 71.6548 4.81251   6
   0  -6  -7 74.1091 4.23993   7
   0   6   7 66.4981 4.52611   3
   0   6   7 66.0677 4.82445   5
   0   6   8 45.1084 3.91933   6
   0   6   8 44.8847 4.13425   5
   0   6   8 50.9092 3.93501   3
   0   6   9 7.08851 3.04325   6
   0   6   9 13.5555 3.28775   5
   0   6  10 42.1677 4.31701   6
   0   6  10 42.0580 4.66222   5
   0  -7  -2 33.6124 2.68219   6
   0  -7  -2 27.8886 2.50930   5
   0   7   3 157.582 8.61915   2
   0  -7  -3 154.040 8.50766   6
   0   7   3 167.299 8.20572   7
   0  -7  -3 151.516 8.53540   5
   0   7   4 0.86903 2.02666   6
   0   7   4-0.63222 1.96898   2
   0  -7  -4-1.39728 1.85652   6
   0  -7  -4 2.73823 1.98984   5
   0   7   4-0.88718 1.21481   7
   0   7   5-0.17702 1.52885   7
   0   7   5 0.58020 2.32170   6
   0   7   5 0.97032 2.10600   2
   0   7   5 1.35150 2.43696   5
   0  -7  -6 0.50244 1.87550   8
   0   7   6-2.45560 2.43114   5
   0   7   6-1.46769 1.85264   3
   0   7   6 0.10758 2.22383   6
   0   7   6-0.64599 2.22367   2
   0  -7  -7 98.0341 5.89072   8
   0   7   7 106.116 6.48282   5
   0   7   7 110.038 6.41149   6
   0   7   7 98.7324 5.97321   3
   0   7   8 11.0118 3.02209   5
   0   7   8 6.38957 2.94077   6
   0   7   8 6.66728 2.66012   3
   0   7   9 18.3823 3.66412   6
   0   7   9 19.4119 3.76084   5
   0   7   9 26.3035 3.67665   3
   0   7  10 3.07211 3.54152   5
   0   7  10 0.16239 3.59073   6
   0   7  11 25.5369 4.53724   6
   0   8   3 266.813 12.9097   6
   0   8   3 266.577 12.9470   2
   0   8   3 215.741 12.4175   4
   0   8   4 3.91874 2.43815   6
   0   8   4 2.48909 1.46831   7
   0   8   4 4.77234 2.50627   2
   0   8   5 4.02526 2.30821   2
   0   8   5 0.35628 1.59113   7
   0  -8  -5 0.24917 1.89314   8
   0   8   5 1.37689 2.53405   6
   0   8   6-0.71128 1.92176   3
   0   8   6-0.23272 2.69245   6
   0  -8  -6 0.63568 1.99157   8
   0   8   6 2.70967 2.71880   2
   0   8   7 76.3435 5.17000   3
   0   8   7 80.6166 5.75377   5
   0   8   7 99.1633 5.89615   6
   0   8   7 86.8515 5.76628   2
   0   8   8 19.4996 3.46864   6
   0   8   8 20.9230 2.96820   3
   0   8   8 20.2512 3.48423   5
   0   8   9 0.15000 3.28971   5
   0   8   9 0.98905 3.06862   3
   0   8   9 0.73604 3.11484   6
   0   8  10 36.6589 4.55588   6
   0   8  11 2.56039 4.32729   6
   0   9   3 0.29208 2.95092   2
   0   9   3 1.92962 2.02646   4
   0   9   3 1.41708 4.01437   6
   0   9   4 127.852 7.93081   6
   0   9   4 141.320 7.34411   7
   0   9   4 126.561 7.81220   2
   0  -9  -5 102.520 6.11983   8
   0   9   5 94.3064 6.48946   2
   0   9   5 115.243 6.00928   7
   0   9   5 103.744 6.64030   6
   0   9   6 52.9859 4.54321   6
   0   9   6 55.9591 4.41530   2
   0   9   6 48.9842 3.60034   3
   0   9   7-0.84245 3.23387   2
   0   9   7 2.03776 3.15385   6
   0   9   7-1.93677 2.41467   3
   0   9   8-0.10451 2.65008   3
   0   9   8 0.86864 3.42876   6
   0  -9  -8 0.21997 2.46141   8
   0   9   8 4.00731 3.52616   5
   0   9   9 3.13452 2.95604   3
   0   9   9 7.80504 3.42642   6
   0   9  10-1.37203 3.81626   6
   0   9  10 7.70882 3.81437   3
   0  10   3 0.79909 3.61129   2
   0  10   4 25.6323 3.36295   7
   0  10   4 16.8789 3.32427   2
   0  10   4 27.7114 4.67890   6
   0  10   4 18.6173 2.54325   4
   0  10   5 1.40991 3.39766   6
   0  10   5 0.92447 2.91778   2
   0  10   5 0.66343 2.45056   7
   0  10   6 38.7980 3.80542   2
   0  10   6 47.8810 4.07704   6
   0  10   7 1.33774 3.25061   2
   0  10   7 2.61680 2.46869   3
   0 -10  -7 0.34460 2.61071   8
   0  10   7 0.29582 3.52535   6
   0 -10  -8-0.70808 2.69512   8
   0  10   8 4.50304 3.50698   6
   0  10   8 1.55733 2.73777   3
   0  10   9 38.6832 4.62075   6
   0  10   9 33.0511 3.92081   3
   0  10  10 8.43328 3.72428   3
   0  11   4-1.95112 5.99115   7
   0  11   4-5.83076 3.94104   2
   0  11   4-0.46586 2.39924   4
   0  11   5 20.4895 3.61095   2
   0  11   5 29.8667 4.71209   6
   0  11   6-1.34495 3.13936   2
   0  11   6 5.98411 3.95589   6
   0 -11  -6 3.72731 2.48044   8
   0  11   7-3.01537 3.95230   6
   0  11   7-1.91502 3.31751   2
   0 -11  -7-0.11846 2.73756   8
   0  11   7 4.71804 2.67507   3
   0  11   8 35.5755 4.59849   6
   0  11   8 25.0518 4.14808   2
   0 -11  -8 26.0697 3.60664   8
   0  11   8 30.2771 3.76877   3
   0 -11  -9-2.29481 3.24210   8
   0  11   9 0.38789 3.15272   3
   0  11   9-4.78103 4.30147   6
   0  11  10-2.99682 3.77057   3
   0  11  11 2.81167 4.33643   3
   0  12   5-0.55424 3.79337   2
   0 -12  -5-1.39501 2.46031   8
   0 -12  -6 26.1925 3.07998   8
   0  12   6 31.7739 5.68011   6
   0  12   6 15.4419 3.91577   2
   0  12   7 5.61798 4.40053   6
   0  12   7 4.51473 3.35279   3
   0  12   7 1.56894 3.70652   2
   0 -12  -7 8.35609 2.95285   8
   0  12   8 4.07850 3.44526   3
   0 -12  -8 1.35272 3.06139   8
   0  12   9 4.71523 3.72147   3
   0 -12  -9 2.55088 3.30935   8
   0  12  10-0.81038 3.97872   3
   0  13   6-1.76381 3.99986   2
   0 -13  -6 5.95559 2.72989   8
   0 -13  -7 0.25557 2.87560   8
   0  13   7 6.60978 4.19987   3
   0 -13  -8 11.9351 3.47072   8
   0  13   8 17.2136 4.68911   3
   0  13   9-0.73063 4.25975   3
   0 -13  -9 0.14715 3.40699   8
   0 -14  -7 4.82453 2.99558   8
   0  14   7 5.18753 6.61955   3
   0 -14  -8 0.29409 3.33898   8
   0  14   8 2.00852 6.42975   3
  -1   0   3 564.134 27.8031   8
  -1   0   2-0.02548 0.43381   8
   1   0  -1 47.8676 2.48358   8
   1   0  -1 47.9672 2.42775   2
   1   0  -1 47.6664 2.43878   4
  -1   0   1 47.4594 2.48076   8
   1   0   0 0.15279 0.34858   3
   1   0   0-0.09219 0.36521   7
   1   0   1 1136.85 54.9468   3
  -1   0  -1 1105.25 54.9335   3
  -1   0  -1 1119.35 54.9674   1
   1   0   1 1154.32 54.9700   7
  -1   0  -1 1096.59 54.9493   7
   1   0   2-0.03790 0.57636   1
  -1   0  -2-0.19110 0.58390   3
  -1   0  -2-0.04419 0.82855   1
  -1   1   4 174.627 8.91514   8
   1  -1  -3 515.087 25.6712   8
  -1   1   3 525.477 25.6820   8
   1  -1  -3 521.366 25.6900   2
  -1   1   2 7.93440 0.81733   8
   1  -1  -2 10.4026 0.81111   2
   1  -1  -2 11.1118 0.87430   8
  -1   1   2 13.0731 0.90213   2
  -1   1   2 11.9247 0.83863   6
  -1   1   1 11.6444 0.75901   6
  -1   1   1 9.57561 0.86238   1
  -1   1   1 10.5294 0.76330   2
   1  -1  -1 11.6727 0.76546   6
   1   1  -1 12.7945 0.82485   4
   1  -1  -1 11.8727 0.72121   7
   1   1   0 241.083 11.7193   5
   1  -1   0 229.350 12.6907   6
  -1  -1   0 234.650 11.7519   4
  -1   1   0 234.787 11.7022   3
   1  -1   0 229.119 11.7455   7
  -1   1   0 254.613 11.8374   1
  -1  -1   0 241.409 11.7224   5
  -1   1   0 232.158 11.7245   7
   1   1   1 894.126 12.3724   5
   1   1   1 889.002 12.3459   3
  -1  -1  -1 884.623 11.9319   2
  -1  -1  -2 152.983 7.23596   1
   1   1   2 137.139 7.29879   3
   1   1   2 145.404 7.31328   7
  -1  -1  -2 135.888 7.22948   3
  -1  -1  -3 30.5172 1.85523   1
   1   1   3 25.3575 1.90397   3
  -1   2   6 4.19548 1.43454   8
  -1   2   5 16.4738 1.49268   8
   1  -2  -5 15.8430 1.68231   2
   1  -2  -4 18.0733 1.13608   3
  -1   2   4 14.8000 1.52493   6
  -1   2   4 11.8437 1.32049   8
   1  -2  -4 15.7111 1.47113   2
  -1   2   3 7.04735 1.05968   2
  -1   2   3 9.45986 1.00501   6
  -1   2   3 7.63798 0.80759   5
  -1   2   3 8.35351 0.96549   8
  -1   2   3 7.14742 0.78828   1
   1  -2  -3 7.88395 0.99234   2
  -1   2   2 604.557 30.7754   6
   1  -2  -2 621.977 30.7849   6
   1  -2  -2 620.895 30.8267   2
  -1   2   2 625.665 30.7768   1
  -1   2   2 635.736 30.6755   5
   1  -2  -2 637.534 30.7958   8
  -1   2   1 948.129 46.2750   6
   1  -2  -1 951.941 46.3352   1
  -1   2   1 944.340 46.1525   7
   1  -2  -1 933.282 46.2629   6
  -1  -2   0 322.307 15.5913   6
  -1  -2   0 315.287 15.7061   5
  -1  -2   0 307.562 15.7289   4
   1   2   1 12.0246 0.99950   7
  -1  -2  -1 10.3220 0.74289   6
   1   2   1 10.7128 0.74580   2
  -1  -2  -1 10.2692 0.93227   4
  -1  -2  -1 9.38389 0.96213   5
   1   2   1 9.96579 0.93714   5
   1   2   1 10.9315 0.74925   6
   1   2   2 10.8435 0.85482   6
   1   2   2 9.82198 1.12470   5
   1   2   2 7.79817 0.94218   7
   1   2   2 10.9963 1.04062   3
  -1  -2  -2 10.8409 0.88050   2
  -1  -2  -2 9.19115 1.02887   7
   1   2   3 101.513 5.45570   3
  -1  -2  -3 107.285 5.26903   1
   1   2   3 96.2271 5.47993   7
  -1  -2  -3 99.3911 5.37755   7
  -1  -2  -4 7.71802 1.10745   1
  -1  -2  -4 6.53385 1.22429   7
   1   2   4 7.83147 1.53166   3
   1   2   5 20.9660 2.34608   3
  -1   3   7 327.126 16.6806   8
  -1   3   6 39.6580 2.83902   8
  -1   3   5 398.120 19.7987   6
   1  -3  -5 392.587 19.7897   2
  -1   3   5 391.760 19.7246   8
   1  -3  -4 53.2676 3.29126   2
  -1   3   4 58.6946 3.24901   8
  -1   3   4 54.2058 3.31608   2
  -1   3   4 52.6077 3.27410   6
  -1   3   3 38.9891 2.49862   2
   1  -3  -3 41.8997 2.19722   4
  -1   3   3 40.6812 2.37167   5
   1  -3  -3 40.9854 2.51011   6
   1  -3  -3 44.5351 2.62363   2
  -1   3   3 42.1107 2.52662   6
   1  -3  -2 82.0995 4.27191   6
   1  -3  -2 78.3278 4.24548   1
  -1   3   2 78.7902 4.31854   2
  -1   3   2 80.6833 4.29620   6
   1  -3  -2 81.5713 4.17407   5
   1  -3  -1 14.9336 1.16399   6
  -1   3   1 14.5955 1.26671   6
   1   3   0 189.878 9.58689   4
  -1  -3  -1 21.0617 1.58656   5
   1   3   1 22.3620 1.59651   4
  -1  -3  -1 24.4229 1.44059   6
   1   3   1 21.6728 1.37890   6
   1   3   1 24.0945 1.49643   2
   1   3   2 31.5241 2.04608   5
   1   3   2 28.8164 1.81521   6
   1   3   2 26.4225 1.90213   7
  -1  -3  -2 29.4926 1.58385   8
   1   3   3 609.991 29.9007   7
  -1  -3  -3 592.094 29.9005   7
   1   3   3 606.929 29.6795   8
   1   3   3 607.780 29.9905   5
   1   3   3 591.995 29.8956   3
   1   3   3 612.502 29.8336   6
   1   3   4 72.8330 4.72398   5
  -1  -3  -4 89.0168 4.38684   1
   1   3   4 82.6165 4.37805   8
   1   3   4 80.9000 4.60269   6
  -1  -3  -4 83.1485 4.62933   7
   1   3   4 87.6045 4.74094   3
  -1  -3  -5 161.875 8.38877   7
   1   3   5 161.927 8.45767   3
   1   3   5 155.831 8.12769   8
   1   3   6 40.6037 3.38902   3
   1   3   6 32.5496 2.39654   8
  -1  -3  -6 42.0487 3.24078   2
  -1   4   9 2.71613 2.57404   6
  -1   4   8 90.5750 5.75838   6
  -1   4   7 14.6992 2.47294   6
   1  -4  -6 2.23601 1.23789   7
  -1   4   6 3.66878 1.57119   8
  -1   4   5 12.6394 1.77261   6
  -1   4   5 11.5422 1.99562   2
  -1   4   5 11.3598 1.29224   3
   1  -4  -4 554.819 27.2381   4
   1  -4  -4 587.505 27.6673   2
  -1   4   4 568.624 27.5632   6
  -1   4   4 559.793 27.2301   3
   1  -4  -4 542.936 27.1140   7
  -1   4   4 551.245 27.5193   2
  -1   4   3 16.2147 1.51992   6
   1  -4  -3 17.6734 1.62638   6
   1  -4  -3 13.1213 1.23460   1
   1  -4  -3 18.5193 1.49403   5
  -1   4   3 16.3178 1.62854   2
  -1   4   2 60.9041 3.43695   6
  -1   4   2 60.8523 3.51446   2
   1  -4  -2 64.3485 3.46625   6
   1  -4  -2 58.0714 3.32437   5
   1   4   0 40.8063 2.59975   4
   1   4   1 1.65075 0.94640   4
   1   4   1 2.85169 1.10184   6
  -1  -4  -1 3.28601 1.19922   5
   1   4   2 413.369 20.9845   5
   1   4   2 423.608 20.9373   7
   1   4   2 427.294 20.8635   6
   1   4   2 416.124 20.8887   2
  -1  -4  -2 421.904 21.0324   5
  -1  -4  -2 420.542 20.7179   8
   1   4   3 58.2647 3.46423   7
   1   4   3 62.6431 3.49057   6
   1   4   3 58.1974 3.70013   5
  -1  -4  -3 64.3670 3.58100   4
  -1  -4  -3 60.3804 3.22072   8
   1   4   3 58.6990 3.46564   2
   1   4   4 45.0740 3.18338   3
   1   4   4 51.8617 3.08135   6
  -1  -4  -4 47.8834 3.08250   7
   1   4   4 49.0460 3.12815   7
   1   4   5 11.7440 1.37137   8
   1   4   5 16.1567 1.93795   6
  -1  -4  -5 14.3782 1.88463   2
   1   4   5 15.3331 2.08568   3
  -1  -4  -6 294.645 14.5792   2
   1   4   6 291.548 14.6092   3
   1   4   6 276.088 14.2572   8
   1   4   6 272.543 14.7032   5
   1   4   7 2.78914 2.38518   6
   1   4   7 3.52537 2.75555   3
   1   4   7 1.82275 1.63686   8
   1   4   8 5.30743 3.23157   6
  -1   5   9 28.9394 3.47586   5
  -1   5   9 37.5086 3.59240   6
  -1   5   8 110.559 5.80207   6
  -1   5   8 103.857 5.66953   5
   1  -5  -7 31.7598 2.79388   8
  -1   5   7 31.6549 3.10909   6
  -1   5   7 31.3794 3.01265   5
   1  -5  -7 35.9907 2.27337   7
   1  -5  -7 31.6250 2.35367   4
  -1   5   6 17.0805 2.43858   6
   1  -5  -6 16.0345 1.53139   4
   1  -5  -6 13.5849 1.25996   7
  -1   5   6 11.6002 1.69951   3
   1  -5  -6 18.2626 2.25539   8
  -1   5   5 60.5122 3.30254   3
  -1   5   5 52.7438 3.85370   2
  -1   5   4 96.0638 5.52693   2
  -1   5   4 101.627 5.55309   6
   1  -5  -4 100.103 5.52310   6
  -1   5   3 50.9951 3.42451   2
  -1   5   3 56.5975 2.99476   4
   1  -5  -3 59.0777 3.26556   5
  -1   5   3 57.7224 3.45345   6
   1  -5  -3 48.5736 3.39633   6
  -1   5   2 205.664 10.4083   4
   1  -5  -2 217.066 10.6782   6
   1   5   1 183.317 9.27431   4
  -1  -5  -1 176.071 9.34349   5
   1  -5  -2 207.139 10.5487   5
  -1   5   2 203.606 10.6814   6
   1   5   2 85.9297 4.97194   6
  -1  -5  -2 87.9749 5.19463   5
  -1  -5  -2 96.5554 5.10695   4
   1   5   2 97.8451 5.05613   2
   1   5   2 92.1391 5.07699   4
   1   5   3 46.6835 3.07201   7
   1   5   3 53.2316 3.12588   2
  -1  -5  -3 49.1343 2.81648   8
   1   5   3 48.6167 3.12426   6
  -1  -5  -3 56.6448 3.51314   5
  -1  -5  -3 49.9230 3.18641   4
   1   5   4 3.87685 1.52823   3
  -1  -5  -4 5.62923 1.05169   8
   1   5   4 6.52576 1.72177   2
   1   5   4 7.86334 1.77481   6
  -1  -5  -5 9.08101 1.79153   4
   1   5   5 7.35980 2.07482   5
  -1  -5  -5 8.92398 1.95367   2
   1   5   5 9.52525 2.07581   3
   1   5   6 102.550 6.06023   6
  -1  -5  -6 100.454 6.11660   2
   1   5   6 105.761 6.34382   5
  -1  -5  -6 104.529 5.44924   1
   1   5   6 104.318 6.11223   3
  -1  -5  -6 113.939 6.02958   7
   1   5   7 21.6833 2.77117   6
   1   5   7 23.8025 3.11494   3
   1   5   7 19.8937 2.18247   8
   1   5   7 17.1028 3.07563   5
   1   5   8 6.28687 3.63129   5
   1   5   8 2.34037 2.02544   8
   1   5   8 1.00071 2.74612   6
   1   5   9 7.09256 4.57706   5
   1   5   9 1.59685 3.74678   6
  -1   6  10 42.9420 4.39619   5
  -1   6  10 40.5669 4.44245   6
   1  -6  -9 34.7541 2.87338   4
  -1   6   9 30.6040 3.70004   6
   1  -6  -9 33.4462 2.85303   7
  -1   6   9 34.4375 3.70135   5
   1  -6  -8 26.7868 2.06183   7
  -1   6   8 23.6864 3.03115   5
  -1   6   8 17.9837 3.00735   6
  -1   6   7 4.81874 2.28850   5
   1  -6  -7 2.82145 2.12337   8
  -1   6   7 3.16819 2.50323   6
   1  -6  -7 0.92393 1.43731   4
  -1   6   7 0.68085 1.82136   3
   1  -6  -6 11.4912 2.24695   8
  -1   6   6 8.26519 2.57148   2
  -1   6   6 7.89630 2.23087   5
   1  -6  -6 12.5232 1.52883   4
  -1   6   6 9.95272 2.46657   6
  -1   6   6 10.3126 1.58688   3
  -1   6   5 65.5280 3.98510   2
  -1   6   5 56.2550 4.10076   6
   1  -6  -5 55.5910 3.75972   8
  -1   6   5 58.7857 3.44804   3
   1  -6  -5 59.5200 3.48352   4
   1  -6  -4 118.442 6.47957   6
  -1   6   4 107.093 6.44774   2
   1  -6  -4 120.469 6.32827   5
  -1   6   3 143.148 7.01605   4
   1  -6  -3 122.644 7.32557   6
  -1   6   3 143.638 7.44011   2
  -1   6   3 136.167 6.77725   7
   1  -6  -3 133.677 7.21753   5
  -1  -6  -1 63.5773 4.01982   5
   1   6   1 72.0512 4.05949   4
   1   6   2 154.228 8.10165   2
   1   6   2 165.969 8.14967   6
  -1  -6  -2 149.122 8.17669   5
   1   6   2 141.795 8.03505   4
  -1  -6  -3-1.29758 2.02206   5
  -1  -6  -3 0.71502 1.62576   6
   1   6   3-0.06702 1.50817   6
   1   6   3-0.42513 1.67269   2
  -1  -6  -3 0.35274 1.11055   8
   1   6   4 3.51422 1.90060   2
  -1  -6  -4 3.99885 1.83501   4
   1   6   4 5.43946 2.25258   5
   1   6   5 34.1307 3.00971   3
   1   6   5 34.8589 2.83078   7
   1   6   5 40.5796 3.17957   2
   1   6   5 42.8182 3.51604   5
   1   6   6 6.05314 2.64153   5
   1   6   6 9.91840 2.46564   3
   1   6   6 9.60960 2.38673   6
   1   6   7 43.6090 3.57577   3
   1   6   7 46.2832 3.81517   6
   1   6   7 38.9437 4.09422   5
   1   6   8 46.1364 4.42799   5
   1   6   8 44.1735 3.87014   6
   1   6   9 29.0829 4.09655   6
   1   6   9 25.0734 3.88869   3
   1   6   9 25.2884 4.39794   5
   1   6  10 5.82965 5.13691   5
  -1   7  11 1.04567 3.69334   6
  -1   7  11-2.21943 3.43806   5
   1  -7 -11 1.84432 2.60801   7
  -1   7  10-0.63511 3.80300   6
   1  -7 -10 1.11825 1.93822   7
  -1   7  10 2.84205 3.63106   5
  -1   7   9-3.80361 2.99297   5
  -1   7   9-0.14540 3.09279   6
  -1   7   8 12.1516 2.83349   5
  -1   7   8 15.9531 3.11226   6
  -1   7   8 10.4839 2.51764   3
   1  -7  -8 7.99927 2.64812   8
   1  -7  -7 11.8217 1.89632   4
  -1   7   7 7.09770 1.89637   3
  -1   7   7 6.68021 2.71900   2
  -1   7   7 9.27787 2.96673   6
  -1   7   7 9.70652 2.60913   5
   1  -7  -7 10.7998 2.51321   8
   1  -7  -6 315.225 16.3631   4
   1  -7  -6 321.915 16.6314   8
  -1   7   6 321.327 16.3265   3
  -1   7   6 320.848 16.6229   5
  -1   7   6 348.907 16.8573   6
  -1   7   6 328.064 16.7973   2
   1  -7  -5 0.91845 1.19650   1
  -1   7   5-0.39035 2.12153   6
  -1   7   5 3.06399 2.24638   2
   1  -7  -5 0.16892 1.85539   8
  -1   7   4 28.3093 2.63747   2
   1  -7  -4 24.3775 2.42325   8
  -1   7   4 24.5814 2.80983   6
   1  -7  -4 25.2056 2.44183   5
   1  -7  -3 7.96766 1.82358   5
  -1   7   3 10.7547 1.47858   4
  -1   7   3 9.74345 0.91039   7
  -1   7   3 6.55987 2.32662   2
  -1   7   3 10.8120 2.29174   6
   1  -7  -3 9.82670 2.07316   6
  -1   7   2 117.304 5.27512   6
   1  -7  -2 188.540 5.87674   6
  -1  -7  -1 0.71335 1.48505   5
   1   7   1 0.94045 1.59854   4
   1   7   2 79.7272 4.54836   4
   1   7   2 74.1782 4.63946   2
  -1  -7  -2 80.8311 4.47906   6
  -1  -7  -2 65.6996 4.60213   5
  -1  -7  -3 20.4644 2.21989   6
   1   7   3 24.4982 2.32982   2
  -1  -7  -3 18.7737 2.31057   4
   1   7   3 16.4984 2.14103   7
   1   7   4 374.243 18.0854   2
  -1  -7  -4 385.506 18.1487   6
   1   7   4 318.653 17.8918   7
   1   7   5 3.74511 1.79589   7
   1   7   5 2.46152 2.08279   2
   1   7   5 4.14433 2.15415   6
   1   7   5 2.38750 2.01593   3
   1   7   5 4.66673 2.71586   5
  -1  -7  -5 3.45572 1.55050   8
   1   7   6 0.12403 2.83452   5
   1   7   6 0.50153 2.26303   6
   1   7   6-0.93486 2.23868   7
   1   7   6 6.13708 2.31975   3
   1   7   7 1.22087 2.41407   6
  -1  -7  -7 3.84424 0.94973   1
   1   7   8 10.5218 2.99824   3
   1   7   8 14.2651 2.97836   6
   1   7   8 13.0935 3.60701   5
   1   7   9-0.72081 3.25988   3
   1   7   9 1.51509 3.67270   5
   1   7  10-3.17469 4.40591   5
  -1   8  12 8.93248 4.15082   5
  -1   8  11 2.38822 3.90399   6
  -1   8  11 5.27779 3.62467   5
  -1   8  10 27.2091 4.15505   5
  -1   8  10 23.4801 4.25952   6
   1  -8  -9 13.0176 3.13346   8
  -1   8   9 13.0182 3.56184   6
  -1   8   9 13.7629 3.34977   5
   1  -8  -8 18.8108 2.53317   4
  -1   8   8 16.0320 3.54231   6
  -1   8   8 15.2188 2.78106   3
   1  -8  -8 16.5841 3.11027   8
  -1   8   8 21.4479 3.22135   5
  -1   8   7 15.9871 3.35280   2
  -1   8   7 18.3746 3.19231   6
   1  -8  -7 16.4058 2.91504   8
  -1   8   7 17.5766 2.34761   3
  -1   8   6-0.31988 1.76909   3
  -1   8   6-0.11511 2.64949   2
   1  -8  -6-0.98472 2.15641   8
   1  -8  -6-0.53919 1.25629   1
  -1   8   6-0.11740 2.53649   6
  -1   8   5 53.5305 4.28561   6
   1  -8  -5 57.0976 4.05326   8
  -1   8   5 63.6127 4.32908   2
  -1   8   4 16.9684 1.76860   4
  -1   8   4 12.0086 1.21726   7
  -1   8   4 18.8758 2.79507   6
   1  -8  -4 18.0858 2.42019   5
  -1   8   4 18.4188 2.67213   2
   1   8   2 85.2913 4.77940   4
  -1  -8  -2 70.6113 4.58369   6
   1   8   3 11.3393 2.14919   7
   1   8   3 11.7625 2.02816   4
   1   8   3 15.0802 2.92462   6
   1   8   3 8.55850 2.11890   2
  -1  -8  -3 10.4759 2.23239   6
  -1  -8  -4 1.79990 1.51885   8
   1   8   4-0.37875 2.05527   2
   1   8   4 0.62464 1.83180   7
   1   8   4-0.49227 2.38129   6
   1   8   5 68.3133 4.27550   7
   1   8   5 60.0320 4.46171   6
   1   8   5 73.5651 4.80889   2
   1   8   6 9.34357 2.76644   2
   1   8   6 6.68733 2.73852   6
   1   8   6 10.3356 2.47010   7
   1   8   6 7.90111 3.28204   5
   1   8   7 19.6404 3.64758   5
   1   8   7 20.8266 3.18006   6
   1   8   7 12.7546 2.96998   3
   1   8   8 53.2118 5.04317   5
   1   8   8 49.2482 4.28378   3
   1   8   9 0.84820 3.61664   5
   1   8   9 3.79587 3.43068   3
   1   8  10 3.78638 3.87898   3
   1   8  10 5.38886 4.67166   5
   1   8  11 16.7312 5.75133   6
  -1   9  11-5.13455 4.02764   5
  -1   9  10 7.19199 3.80185   6
  -1   9  10 3.09795 3.72942   5
  -1   9   9 53.2142 5.29283   6
  -1   9   9 58.7078 4.79337   3
  -1   9   9 68.1189 5.17788   5
   1  -9  -9 53.3057 4.77415   8
  -1   9   8 13.6141 3.84922   2
  -1   9   8 16.4185 3.82830   6
  -1   9   8 14.8708 2.63646   3
   1  -9  -8 15.3052 3.16338   8
  -1   9   7 31.2483 3.68086   6
  -1   9   7 18.8643 3.70399   2
  -1   9   7 18.4277 2.63590   3
   1  -9  -7 21.9209 3.05457   8
  -1   9   6 3.46112 3.02301   6
  -1   9   6 3.70992 1.72925   3
   1  -9  -6 2.94738 2.31681   8
  -1   9   6 7.11818 2.85402   2
  -1   9   5 2.09280 3.01683   6
   1  -9  -5 3.98723 2.23178   8
  -1   9   5 4.82881 2.78835   2
  -1   9   4 26.6079 2.43185   4
  -1   9   4 28.2468 3.56137   2
  -1   9   4 26.5005 3.40302   6
  -1   9   4 21.2054 1.71669   7
  -1   9   3 45.6673 6.65163   2
   1   9   3 16.5702 2.50779   4
   1   9   3 14.0455 2.58152   2
   1   9   3 14.2617 2.34247   7
   1   9   4 6.96875 2.48458   2
   1   9   4 7.86758 2.31308   7
   1   9   4 7.61806 3.23067   6
   1   9   5 3.04553 2.49581   2
   1   9   5 6.66990 2.83097   6
   1   9   5 7.87184 2.31588   7
   1   9   6 10.7601 3.04534   2
   1   9   6 16.7937 3.15646   6
   1   9   6 12.0433 2.78812   3
  -1  -9  -6 9.74433 2.13910   8
   1   9   6 10.0201 2.47125   7
   1   9   7 25.9950 3.44314   6
   1   9   7 24.4617 3.33108   3
   1   9   7 21.6593 3.99155   5
   1   9   8 6.27562 3.09274   3
   1   9   8 6.69667 3.77234   5
   1   9   9 2.06319 3.32308   3
   1   9   9 3.68768 3.90387   5
   1   9  10 11.5602 4.15140   6
   1   9  10 14.8844 4.06121   3
  -1  10   9 1.49871 3.10245   3
  -1  10   9-1.71006 3.63816   6
  -1  10   8 22.0758 3.98946   2
  -1  10   8 19.9391 4.16583   6
  -1  10   8 23.6734 3.08130   3
   1 -10  -8 28.1375 3.53634   8
   1 -10  -7 20.7004 3.00740   8
   1 -10  -7 12.2409 1.79900   1
  -1  10   7 22.0214 3.82699   6
  -1  10   7 17.1199 2.59823   3
  -1  10   7 17.9539 3.65405   2
   1 -10  -6 2.40565 2.65758   8
  -1  10   6 3.79017 3.53319   6
  -1  10   6 0.14049 2.98339   2
  -1  10   5 31.1698 4.15225   6
  -1  10   5 17.5019 3.55586   2
   1 -10  -5 29.1415 3.34977   8
   1  10   3 13.4899 2.83604   2
  -1 -10  -4 0.93087 1.76037   8
   1  10   4 2.63064 2.78442   7
   1  10   4 1.07137 2.62572   2
  -1 -10  -5 24.8908 2.73178   8
   1  10   5 28.0053 3.32750   7
   1  10   5 22.3843 3.88324   6
   1  10   5 27.0605 3.36984   2
  -1 -10  -6 48.1166 3.75772   8
   1  10   6 50.2623 4.31774   7
   1  10   6 49.8974 4.04506   3
   1  10   7-0.26319 2.92597   3
  -1 -10  -7 0.56183 2.33338   8
  -1 -10  -8 1.68805 0.78757   1
   1  10   8 4.49932 3.36760   3
   1  10   9 7.48007 3.62178   6
   1  10   9 1.14350 3.41651   3
   1  10  10 4.12961 4.15786   6
   1  10  10 5.12906 4.02226   3
  -1  11  10 6.06910 4.06782   3
   1 -11 -10 4.95271 3.70382   8
  -1  11   9 2.65843 2.98300   3
  -1  11   8 4.69500 3.95376   2
  -1  11   8 4.76705 4.16785   6
  -1  11   8 3.77921 2.74031   3
  -1  11   7 36.4263 3.60458   3
  -1  11   7 43.7598 4.96863   6
  -1  11   7 35.5281 4.48712   2
   1 -11  -7 34.2218 3.80429   8
   1 -11  -6 7.27695 3.78130   8
  -1  11   6 0.16878 4.35776   6
  -1  11   6 5.44898 3.74656   2
   1  11   4 7.04889 3.46062   7
  -1 -11  -4-0.42028 1.84125   8
   1  11   4 0.39841 2.89773   2
  -1 -11  -5 15.5867 2.59107   8
   1  11   5 34.7124 4.50451   7
  -1 -11  -6 1.71496 2.52538   8
   1  11   6 6.42578 3.98922   7
  -1 -11  -7 10.3506 2.83042   8
   1  11   7 12.5627 3.63547   3
   1  11   7 20.0580 5.17701   7
   1  11   8 0.32534 3.66343   6
   1  11   8 1.48368 3.38303   3
   1  11   9 3.39220 3.97114   6
   1  11   9-1.06989 3.71896   3
   1 -12  -9 0.92494 3.42890   8
  -1  12   9 5.65879 3.40174   3
  -1  12   8 2.64677 3.22972   3
  -1  12   7 11.4731 4.86683   6
  -1  12   7 15.2761 4.57222   2
  -1  12   7 11.0561 3.52326   3
   1 -12  -6-2.02536 3.32516   8
  -1  12   6 0.91163 5.06018   6
  -1  12   6 7.91030 5.10371   2
  -1  12   5 4.91292 7.39073   2
   1 -12  -5 7.13503 4.35670   8
  -1 -12  -4 0.62892 1.96618   8
  -1 -12  -5 6.88532 2.33600   8
  -1 -12  -6 1.53169 2.57515   8
   1  12   6 8.70493 8.04138   7
  -1 -12  -7 1.33441 2.90170   8
   1  12   7 4.39265 3.69030   3
   1  12   7 10.1902 4.59780   6
   1  12   7 4.68103 3.56815   2
   1  12   8-0.91741 4.28735   6
   1  12   8 1.65250 3.76257   3
  -1  13   8 13.7413 4.64655   3
  -1  13   7 4.31161 5.20714   3
  -1 -13  -5 0.63074 2.37733   8
  -1 -13  -6 3.87156 2.84031   8
   1  13   6-1.18770 3.46989   2
  -1 -13  -7 6.28226 3.35070   8
  -1 -13  -8-0.78370 3.59802   8
  -2   0   5-0.06723 1.18999   8
  -2   0   4 176.354 9.09282   8
   2   0  -3 0.98928 0.73611   4
   2   0  -3-0.97058 0.83933   2
  -2   0   3-0.31906 0.88578   8
   2   0  -2 774.739 38.0419   2
  -2   0   2 777.430 38.0391   6
  -2   0   2 774.487 38.1392   8
   2   0  -1-0.19660 0.67305   3
  -2   0   1-0.12414 0.45832   6
   2   0  -1 0.35992 0.97570   7
   2   0   0 30.5189 2.28505   7
   2   0   0 35.1463 2.18995   3
   2   0   0 37.4540 2.00859   5
  -2   0  -1-1.14944 1.10384   7
  -2   0  -1 0.36977 1.38202   1
   2   0   1 0.47298 1.08284   3
   2   0   1-0.48935 1.16674   7
   2   0   2 77.1941 4.25193   3
  -2   0  -2 65.2616 3.96649   3
  -2   0  -2 77.5298 4.33212   1
   2   0   2 76.4763 4.27992   7
  -2   0  -2 70.5179 4.11581   7
  -2   0  -3 0.33898 1.25454   3
  -2   0  -3 0.62507 1.67765   7
  -2   0  -3 0.58106 2.29066   1
  -2   1   6 133.608 7.22641   8
   2  -1  -5 41.6851 2.78625   2
  -2   1   5 39.7071 2.75488   8
   2  -1  -4 162.086 8.55939   2
   2  -1  -4 175.881 8.67001   8
  -2   1   4 164.864 8.65525   8
   2  -1  -3 1.74508 0.94914   2
  -2   1   3 2.64498 1.00272   8
   2  -1  -3 3.55338 1.12706   8
  -2  -1   3 3.27650 0.96152   8
  -2  -1   2 5.03842 0.86948   8
   2  -1  -2 3.69437 1.01527   8
   2   1  -2 4.70152 0.88366   4
  -2   1   2 4.91157 0.80973   6
   2  -1  -2 5.10980 0.64410   3
  -2   1   1 194.188 9.85086   4
  -2   1   1 197.803 9.84689   2
   2  -1  -1 195.516 9.84373   6
   2  -1  -1 192.611 9.87333   3
  -2   1   1 205.237 9.90546   6
   2  -1  -1 204.828 9.97468   7
  -2  -1   1 196.825 9.84927   5
  -2   1   1 200.873 10.1445   1
   2   1   0 54.0631 3.17361   7
   2  -1   0 57.6503 3.14081   3
   2  -1   0 53.8948 2.79376   6
  -2   1   0 53.7431 3.27468   1
   2   1   0 52.8841 2.77870   8
   2   1   0 51.7694 2.90145   5
   2  -1   0 51.4936 3.11355   7
   2   1   1 314.031 15.6025   3
  -2   1  -1 328.995 15.8130   1
   2   1   1 302.957 15.5113   5
   2   1   1 314.724 15.6452   7
  -2   1  -1 304.122 15.5959   7
   2   1   2 295.433 14.9881   3
  -2   1  -2 273.810 15.3127   1
  -2  -1  -2 285.826 15.0073   1
   2   1   2 295.974 15.0208   7
  -2   1  -2 326.058 15.1684   7
  -2  -1  -2 304.093 15.0223   7
   2   1   3 21.9504 2.28245   3
  -2  -1  -3 17.0697 2.00631   1
   2   1   4 30.4084 2.89778   3
  -2  -1  -4 42.0234 3.23233   1
  -2  -1  -4 25.4013 2.30409   3
   2  -2  -7 36.1125 3.24935   2
  -2   2   6 194.895 10.2065   8
   2  -2  -5 203.534 10.6368   2
  -2   2   5 200.829 10.6854   8
   2  -2  -5 217.146 10.7071   8
   2  -2  -4 187.491 9.07324   2
   2  -2  -4 180.420 9.09381   8
  -2   2   4 168.402 8.77981   5
   2  -2  -3 59.1041 3.35212   8
   2  -2  -3 60.4425 3.35724   2
  -2   2   3 51.4285 3.30370   1
   2   2  -2 55.1808 2.89599   4
   2  -2  -2 45.3134 2.63433   6
  -2   2   2 46.6310 2.89696   1
   2  -2  -2 45.1188 2.69310   8
  -2   2   2 41.9318 2.30002   4
  -2  -2   2 46.5571 2.55371   8
   2  -2  -2 48.2246 2.52481   7
   2   2  -1 34.3639 2.25262   4
   2  -2  -1 33.9177 2.13949   6
  -2   2   1 37.7332 2.17972   2
  -2   2   1 37.9049 2.50748   1
  -2  -2   1 35.4789 1.99891   8
  -2  -2   1 34.8303 2.15329   5
   2  -2  -1 38.6773 2.17367   7
  -2  -2   0 61.4647 3.73812   4
   2  -2   0 81.3350 3.75207   6
  -2   2   0 64.2996 3.61780   3
  -2   2   0 68.1944 4.27168   1
  -2  -2   0 64.8643 3.69830   5
  -2  -2  -1 23.8939 1.84758   4
   2   2   1 19.5569 1.71499   5
   2   2   1 20.9650 1.88237   7
   2   2   2 36.7970 2.15532   6
   2   2   2 45.9527 2.72452   3
   2   2   2 37.3252 2.61317   5
  -2  -2  -2 39.1681 2.17895   2
   2   2   2 41.6114 2.74377   7
   2   2   3 40.2548 2.96193   3
  -2  -2  -3 36.1694 2.75521   1
   2   2   3 40.1280 2.83164   5
   2   2   3 40.8000 2.91827   7
  -2  -2  -3 40.7514 2.37514   2
   2   2   4 176.758 9.78492   3
  -2  -2  -4 169.478 9.58431   1
  -2  -2  -4 202.764 9.55228   2
  -2  -2  -5 2.24770 3.19668   2
   2   2   5 117.472 4.36766   3
  -2   3   8 30.8267 3.32799   6
  -2   3   7 52.5566 3.99236   6
   2  -3  -7 58.6996 3.22231   3
  -2   3   6 21.0673 2.00687   1
  -2   3   6 21.8013 1.96338   5
   2  -3  -6 25.7687 2.38142   8
  -2   3   5 5.30272 1.24344   5
  -2   3   5 3.00258 1.50351   1
   2  -3  -5 3.09413 1.57364   2
   2  -3  -5 3.14719 1.58401   8
   2  -3  -4 92.6001 5.38268   2
   2  -3  -4 98.0675 5.31658   8
  -2   3   4 95.1868 4.95597   5
   2  -3  -3 24.5303 2.04555   6
  -2   3   3 27.7876 2.34308   1
   2  -3  -3 28.3489 2.18337   8
  -2   3   2 110.971 5.10949   1
   2  -3  -2 81.8451 4.55224   6
  -2  -3   1 38.0658 2.44731   5
   2   3  -1 39.3181 2.50980   4
   2  -3  -1 40.1325 2.37716   6
   2  -3  -1 38.3203 2.69567   1
  -2   3   1 36.2691 2.23094   7
  -2  -3   0 418.466 21.1001   4
  -2  -3   0 433.451 20.7798   6
   2   3   0 391.860 20.7768   2
  -2  -3   0 412.208 21.0256   5
  -2   3   0 486.866 21.0591   7
   2   3   0 432.200 21.0612   4
   2   3   1 6.96522 1.49029   7
  -2  -3  -1 3.53773 1.22453   4
   2   3   1 4.93634 1.39914   5
   2   3   2 46.1675 3.07551   3
   2   3   2 48.5699 3.10711   5
  -2  -3  -2 47.5513 3.15729   4
   2   3   2 48.1266 3.27501   7
  -2  -3  -3 88.7578 4.74189   2
   2   3   3 94.9546 5.13132   3
   2   3   3 85.2185 5.09291   5
   2   3   3 85.8552 5.17511   7
  -2  -3  -3 87.8429 5.06933   4
  -2  -3  -4 11.9788 1.43255   2
   2   3   4 9.28384 0.89084   8
   2   3   4 6.97133 2.05952   3
  -2  -3  -4 11.9541 1.75449   1
   2   3   4 7.52518 2.22096   7
   2   3   5 20.8500 2.55983   3
   2   3   5 20.9417 1.66196   8
   2   3   5 20.6329 2.80794   5
  -2  -3  -5 19.6572 2.15990   2
   2   3   6 24.5612 3.39081   3
  -2  -3  -6 26.9482 3.18442   2
  -2   4   9 11.8790 3.03873   6
  -2   4   9 7.01503 2.59432   5
  -2   4   8 3.01239 2.40125   6
  -2   4   8 2.42915 2.21137   5
  -2   4   7 29.0557 2.96165   6
  -2   4   7 34.0971 2.62351   5
   2  -4  -7 33.3676 2.91194   8
   2  -4  -6 37.1306 2.12986   4
  -2   4   6 41.0887 3.12311   6
   2  -4  -6 36.0532 3.11576   2
  -2   4   6 41.7874 2.74901   5
   2  -4  -6 46.5004 3.14560   8
  -2   4   5 4.39692 1.80387   6
   2  -4  -5 3.16112 1.69991   8
  -2   4   5 3.56880 1.33712   5
   2  -4  -4 17.5673 1.96978   8
   2  -4  -3 375.079 18.9540   6
   2  -4  -3 379.821 18.9579   8
   2  -4  -2 1.35434 1.26192   1
   2  -4  -2 2.68096 1.22798   6
   2  -4  -1 182.620 9.79657   6
  -2   4   1 181.228 9.56171   7
   2   4   0 13.4101 1.63878   4
  -2  -4   0 10.6781 1.04084   6
  -2  -4  -1 121.822 6.81676   4
  -2  -4  -1 124.862 6.45777   6
   2   4   1 135.279 6.91994   7
   2   4   2 15.1923 2.10535   7
  -2  -4  -2 17.1769 2.07199   4
   2   4   2 17.9198 2.15231   5
  -2  -4  -3 6.46721 1.91207   4
   2   4   3 5.16867 1.80591   7
   2   4   3 5.58456 1.74081   3
  -2  -4  -4 61.9733 3.68718   2
   2   4   4 57.9924 3.97383   3
   2   4   4 58.4134 4.10068   5
   2   4   4 61.3804 4.05936   7
  -2  -4  -5 1.29908 1.68363   2
   2   4   5 3.18477 1.55252   6
  -2  -4  -5 3.88137 1.72696   1
   2   4   5 1.13797 2.19460   3
   2   4   5 2.08826 2.25338   5
  -2  -4  -6 4.40303 2.25583   1
   2   4   6 3.67812 2.62223   5
   2   4   6 4.17717 2.70346   3
  -2  -4  -6 9.04207 2.27438   2
   2   4   6 7.37154 1.39398   8
  -2   5  10 8.93843 3.28309   6
  -2   5  10 5.70524 2.93156   5
   2  -5  -9 11.8468 1.72411   4
  -2   5   9 10.6974 3.13221   6
  -2   5   9 9.38175 2.54226   5
   2  -5  -8 46.9931 2.80948   4
  -2   5   8 47.6314 3.94542   6
  -2   5   8 44.0770 3.45835   5
  -2   5   7 192.548 9.84870   6
   2  -5  -7 180.451 9.05224   4
  -2   5   7 182.251 9.47380   5
   2  -5  -7 174.281 8.91733   7
   2  -5  -7 186.904 9.72556   8
  -2   5   6 35.6844 3.18925   6
  -2   5   6 37.0088 2.77368   5
   2  -5  -6 37.9683 3.25616   8
  -2   5   5 1.85067 1.81938   6
  -2   5   5 0.34760 1.94233   2
   2  -5  -5 0.58882 1.72468   8
   2  -5  -4-0.07907 1.82834   6
   2  -5  -4 0.95013 1.73776   8
   2  -5  -2 18.0665 1.99889   6
   2   5  -1 0.17875 3.58454   4
   2  -5  -1 20.4166 2.68376   6
  -2  -5   0 34.2380 2.17713   6
   2   5   0 38.8438 2.85118   4
  -2  -5  -1 64.1357 4.07887   4
  -2  -5  -2 90.6878 4.95868   6
   2   5   2 94.4638 5.41580   7
  -2  -5  -2 89.4248 5.29072   4
   2   5   3 177.943 9.68836   5
   2   5   3 184.506 9.68293   7
   2   5   4 24.4213 2.64354   7
   2   5   4 23.0062 2.11806   6
   2   5   4 22.3412 2.79086   3
   2   5   4 28.6396 3.04435   5
  -2  -5  -5 7.24850 2.10698   2
   2   5   5 9.46653 2.40710   3
   2   5   5 7.33399 2.62161   5
   2   5   5 8.00099 2.51352   7
   2   5   6 8.40193 2.74354   5
  -2  -5  -6 9.40619 1.93135   1
  -2  -5  -6 9.66505 2.27152   2
   2   5   6 8.47187 2.69223   3
   2   5   7 8.87362 2.43905   6
   2   5   7 10.4431 3.31532   3
   2   5   7 7.19907 3.26558   5
   2   5   8 3.34457 2.83708   6
   2   5   8 11.4566 3.88334   3
   2   5   8 3.00253 2.11740   8
   2   5   8 3.28843 4.13074   5
  -2   6  11 1.38614 3.79341   6
  -2   6  11 3.45967 3.27760   5
   2  -6 -10 2.18693 1.65041   7
   2  -6 -10 3.25668 1.87137   4
  -2   6  10 4.20277 3.44021   6
  -2   6  10-1.79762 3.07531   5
   2  -6  -9 32.1999 2.42530   4
  -2   6   9 41.0363 3.97145   6
   2  -6  -9 30.3306 2.01806   7
  -2   6   9 31.5097 3.29128   5
   2  -6  -8 0.86006 1.42270   4
  -2   6   8 1.62350 2.97097   6
   2  -6  -8 0.22184 2.47021   8
  -2   6   8 1.89991 2.35178   5
  -2   6   7-1.12613 2.65270   6
   2  -6  -7 4.13965 2.35268   8
  -2   6   7 1.05077 2.12480   5
  -2   6   6 38.0640 3.21210   6
  -2   6   6 33.5031 3.20235   2
   2  -6  -6 32.7462 3.09268   8
  -2   6   5 168.374 8.63558   2
  -2   6   5 166.433 8.60152   6
   2  -6  -5 179.988 8.65021   8
  -2   6   5 143.594 7.96393   3
  -2   6   4 105.826 6.24755   2
   2  -6  -4 113.337 6.29724   6
  -2   6   4 113.238 6.33642   6
   2  -6  -4 106.844 6.20218   8
  -2   6   3 17.7611 1.30043   4
   2  -6  -3 16.9706 2.16981   6
   2  -6  -3 17.4203 1.78865   5
   2  -6  -2 88.9599 5.18807   6
  -2   6   2 80.4480 4.18517   7
   2   6   0 15.2228 2.49338   4
   2   6   1 129.288 7.53606   4
  -2  -6  -1 143.793 7.28565   6
  -2  -6  -2 5.31399 0.70693   8
  -2  -6  -2 4.23506 1.54754   6
   2   6   2 5.13968 1.93378   7
   2   6   3 21.0043 2.18841   6
   2   6   3 19.8446 2.06553   2
   2   6   3 20.4275 2.54171   7
   2   6   4 43.5610 3.09750   6
   2   6   4 45.9095 3.72224   3
   2   6   4 44.9328 3.78242   5
   2   6   4 45.5689 3.51538   7
   2   6   5 52.7862 4.25560   3
   2   6   5 48.3827 4.27791   5
   2   6   6 25.0467 2.84080   6
  -2  -6  -6 22.9712 2.38791   1
   2   6   6 29.6493 3.37658   3
   2   6   6 28.0376 3.55727   5
  -2  -6  -7 3.68477 2.15186   1
   2   6   7 24.8429 3.87919   3
   2   6   7 7.30324 2.62364   6
   2   6   7 17.4831 3.53238   5
   2   6   8 13.2258 3.15299   6
   2   6   8 9.41356 3.88813   3
   2   6   8 5.52701 3.60879   5
   2   6   9 2.87762 4.71680   5
   2   6   9 3.55829 3.60911   6
   2   6   9-7.47659 4.15772   3
  -2   7  11 26.5744 4.49735   6
  -2   7  11 21.7856 3.79743   5
   2  -7 -10 6.92463 2.04571   4
  -2   7  10 0.81385 3.60906   6
  -2   7  10 3.71240 3.10543   5
  -2   7   9 70.5450 5.67628   6
   2  -7  -9 85.2739 4.65216   4
   2  -7  -9 76.6639 5.40385   8
  -2   7   9 71.3865 5.20507   5
  -2   7   8 3.57793 2.81833   6
   2  -7  -8 2.14124 2.82549   8
  -2   7   8-0.09896 2.52421   5
  -2   7   7-3.84097 2.87257   2
   2  -7  -7 3.50890 2.62595   8
  -2   7   7 1.06749 2.57421   6
  -2   7   6 1.69196 1.70764   3
  -2   7   6 1.10465 2.56493   6
  -2   7   6 2.34749 2.43393   2
   2  -7  -6-1.02224 2.24898   8
  -2   7   5 25.2020 2.88121   2
  -2   7   5 28.9420 1.93225   3
  -2   7   5 29.7207 3.12760   6
   2  -7  -5 31.0585 2.81298   8
  -2   7   4 0.69689 2.21217   2
  -2   7   4 2.75979 2.36369   6
   2  -7  -4 0.84827 2.09283   8
   2  -7  -4-0.68485 1.83062   5
  -2   7   3 42.4305 4.01812   2
  -2   7   3 38.4289 4.33660   6
  -2   7   3 51.7089 3.09131   4
   2   7   0-0.17079 3.38672   4
   2   7   1 116.681 5.97517   4
  -2  -7  -1 85.0170 5.26692   6
   2   7   2-0.93872 2.14640   7
   2   7   2 1.57959 1.63405   2
  -2  -7  -2 0.82661 1.73252   6
  -2  -7  -2 0.89098 0.98401   8
   2   7   3 1.55496 1.91941   7
  -2  -7  -3 2.54767 1.98131   6
   2   7   3 2.14050 1.70968   2
   2   7   4 2.19199 2.05895   2
   2   7   5 29.9949 2.87669   6
   2   7   5 31.7400 3.34060   3
   2   7   5 25.1805 3.79690   5
   2   7   6 5.85522 2.49193   6
   2   7   6 2.30042 3.10966   3
   2   7   6 9.69042 3.37747   5
   2   7   6 6.23708 2.83985   7
   2   7   7 2.79659 3.37791   5
  -2  -7  -7 1.73117 1.85766   1
   2   7   7 2.21126 2.56859   6
   2   7   7 2.54506 3.11132   3
   2   7   8 3.59011 2.98271   6
   2   7   8 2.08819 3.55216   3
   2   7   8 5.32221 3.88262   5
   2   7   9 42.4811 4.43772   6
   2   7   9 40.7860 5.04175   3
   2   7   9 33.6260 5.33743   5
   2   7  10 4.90852 4.85244   6
  -2   8  12 14.4162 4.26870   5
  -2   8  11 3.63339 3.68924   5
  -2   8  10 2.36225 3.64735   6
  -2   8  10 2.45098 3.28185   5
  -2   8   9 13.2983 3.61291   6
   2  -8  -9 11.9603 3.21120   8
  -2   8   8 8.13051 3.38908   6
   2  -8  -8 6.90734 2.93488   8
  -2   8   7 4.27674 2.94785   2
  -2   8   7 7.90595 3.13170   6
   2  -8  -7 8.52746 2.84172   8
  -2   8   6 3.72612 2.85772   6
   2  -8  -6-2.53279 2.29195   8
  -2   8   6 3.25954 1.49560   3
  -2   8   6 5.48344 2.67360   2
  -2   8   5 78.4454 5.49659   2
  -2   8   5 86.7506 5.68791   6
   2  -8  -5 86.0593 5.34578   8
  -2   8   4 44.3725 4.06496   2
  -2   8   4 45.4636 4.20992   6
   2  -8  -4 43.7775 3.45455   5
  -2   8   3 0.73704 3.95064   2
   2  -8  -3-0.40426 3.29613   5
   2   8   1 51.5343 3.81651   4
  -2  -8  -1 34.8065 2.87601   6
   2   8   2 17.8365 2.24848   2
  -2  -8  -2 18.3045 2.44196   6
   2   8   3 25.1543 2.58694   2
  -2  -8  -3 23.8616 2.76034   6
  -2  -8  -3 23.8868 1.89461   8
   2   8   4 5.45899 2.51656   7
  -2  -8  -4-0.11801 1.19400   8
   2   8   4-0.71850 2.09631   2
   2   8   4 3.42646 2.57173   6
   2   8   5 41.9883 3.59968   6
   2   8   5 46.5771 4.02089   3
   2   8   5 38.3823 3.75853   7
   2   8   6 21.1689 3.65777   3
   2   8   6 19.1350 3.15498   7
   2   8   6 20.8690 2.99466   6
   2   8   6 25.1777 3.87141   5
  -2  -8  -7-0.49332 1.87707   1
   2   8   7 0.22557 2.72770   6
   2   8   7 0.14398 3.24903   3
   2   8   7-1.56141 3.48411   5
   2   8   8 13.9246 3.34994   6
   2   8   8 17.9950 3.89344   3
   2   8   8 9.79478 3.90526   5
  -2  -8  -8 10.3039 2.43134   1
   2   8   9 2.34686 3.51687   6
   2   8  10 0.37055 4.34597   6
  -2   9  12 1.72554 4.16636   5
  -2   9  10 0.17388 3.71394   6
   2  -9 -10 1.38820 3.36535   8
  -2   9   9 4.35945 3.51590   6
   2  -9  -9 2.52036 3.24183   8
  -2   9   8 51.4163 4.57273   6
  -2   9   8 35.2876 4.44954   2
   2  -9  -8 39.1807 4.09275   8
  -2   9   7 43.2925 4.47298   6
  -2   9   7 50.6697 3.53470   3
   2  -9  -7 41.6880 3.87066   8
  -2   9   7 37.8223 4.24087   2
  -2   9   6 42.7719 4.23360   2
  -2   9   6 45.0499 4.35721   6
  -2   9   6 49.4296 3.14806   3
   2  -9  -6 43.6217 4.02227   8
  -2   9   5-0.13646 3.02795   2
  -2   9   5 2.86185 3.15363   6
   2  -9  -5 0.63243 2.52216   8
  -2   9   4 35.0911 2.82337   4
  -2   9   4 22.5389 4.30647   2
  -2   9   4 34.5340 5.07913   6
   2   9   2 80.7229 5.13428   4
   2   9   2 67.3619 4.71065   2
   2   9   3 54.7218 3.96974   2
  -2  -9  -3 53.7916 3.33836   8
   2   9   3 49.7231 4.17335   7
   2   9   4 20.0841 3.04765   7
   2   9   4 21.4649 2.81845   2
   2   9   4 25.9511 4.01623   6
  -2  -9  -4 18.5097 2.05689   8
   2   9   5 2.81612 2.82603   7
   2   9   5 1.22689 2.69663   2
   2   9   5 5.34667 2.89103   6
   2   9   5 0.37768 2.78546   3
   2   9   6 12.1056 3.16275   7
   2   9   6 13.4736 3.06839   6
   2   9   6 17.0014 3.49129   3
   2   9   7 5.57439 3.00725   6
   2   9   7 8.78143 3.69338   3
  -2  -9  -8 1.17967 1.86922   1
   2   9   8-0.13530 3.31783   6
   2   9   8 3.40129 3.98069   5
   2   9   9-0.46101 3.77444   6
   2   9  10-2.71957 4.53527   6
   2 -10  -9 2.23701 3.25753   8
  -2  10   9 1.72757 3.93464   6
  -2  10   8 15.5706 3.84470   2
  -2  10   8 15.7535 4.06180   6
   2 -10  -8 10.7221 3.25584   8
  -2  10   7 3.45760 3.71154   6
  -2  10   7 5.88911 3.67409   2
  -2  10   7 7.20159 2.37981   3
   2 -10  -7 5.00655 2.97210   8
   2 -10  -6 2.40406 1.95909   1
  -2  10   6 15.7314 3.85200   6
  -2  10   6 14.1822 3.59041   2
   2 -10  -6 13.1301 3.32897   8
  -2  10   6 16.6568 2.10223   3
   2 -10  -5 3.02841 3.56764   8
  -2  10   5 9.68109 4.10328   6
  -2  10   5 7.38425 4.03641   2
  -2  10   4-2.46928 3.95649   4
  -2  10   4 1.25271 6.39771   2
  -2 -10  -3 12.2276 1.95658   8
   2  10   3 11.5689 2.79771   7
   2  10   3 13.2418 2.88333   2
   2  10   4 12.4248 2.87585   2
   2  10   4 10.8848 3.18237   7
  -2 -10  -4 13.6717 2.18580   8
   2  10   5 0.68321 3.03017   7
   2  10   5 3.35729 2.86457   2
   2  10   5 0.82124 3.94629   6
  -2 -10  -5 0.92228 1.97726   8
   2  10   6 1.05811 3.26212   3
   2  10   6 0.13114 3.14984   6
   2  10   6 4.74693 3.34278   7
   2  10   7 23.0013 4.03225   6
   2  10   7 25.0714 4.32659   7
   2  10   8 0.44191 3.67488   6
   2  10   9 2.27774 3.87394   6
   2  10  10 0.18563 4.28936   6
  -2  11   8 3.11578 4.17556   6
   2 -11  -8 2.90331 3.30457   8
  -2  11   7 11.8174 4.44159   6
  -2  11   7 9.33257 4.06485   2
   2 -11  -7 7.88645 3.31003   8
  -2  11   6 1.60882 2.08544   3
   2 -11  -6 10.1960 4.19971   8
  -2  11   6-4.27577 4.36209   6
  -2  11   6-0.61542 4.25468   2
   2 -11  -5-3.30788 5.65962   8
  -2  11   5 2.18100 6.41302   2
   2  11   3-1.19977 2.83676   7
   2  11   3 4.18578 3.03693   2
   2  11   4-1.73999 3.34173   7
   2  11   4 2.40809 3.21192   2
   2  11   5 0.31588 3.42540   7
   2  11   5-1.86210 3.40308   2
   2  11   6 10.0431 4.75723   6
   2  11   6 9.79459 4.26506   7
   2  11   7-0.81598 4.14744   6
   2  11   7-2.08932 4.90766   7
   2  11   8 8.78404 4.20244   6
   2  11   9 0.90499 4.28933   6
   2  12   5 5.57298 4.35666   7
   2  12   5 5.20036 3.91964   2
  -2 -12  -5-0.85482 3.62285   8
   2  12   6 3.40341 4.04446   2
   2  12   6 1.88266 5.18536   7
   2  12   7-1.74580 5.55312   6
   2  12   7 2.38244 6.65922   7
   2  12   8 4.62382 5.05094   6
   2  13   5-1.78167 4.19609   2
   3   0  -6 1.64364 1.90713   2
   3   0  -5 149.954 8.00599   2
   3   0  -5 154.205 7.77825   4
  -3   0   5 144.211 8.02839   6
  -3   0   5 160.435 8.23526   8
  -3   0   4-0.64007 1.29246   6
   3   0  -4-0.34541 1.23123   2
   3   0  -2-0.20128 1.57302   7
  -3   0   2-0.52633 0.79020   6
   3   0  -2-0.65153 1.19954   8
  -3   0   1 28.0723 2.10753   4
   3   0  -1 30.5994 2.05825   8
   3   0  -1 29.2347 2.46922   7
   3   0   0 1.23267 1.65434   7
  -3   0   0-1.02399 1.28197   4
   3   0   0 1.36050 1.47865   3
  -3   0   0-1.68752 2.24453   1
   3   0   0 0.10870 1.07001   8
   3   0   0 0.59162 0.97317   5
  -3   0  -1 5.49691 2.23965   1
   3   0   1 3.29399 1.79614   3
   3   0   1 5.09640 1.34264   5
   3   0   1 7.21342 2.09266   7
  -3   0  -2-1.73417 2.72972   1
   3   0   2 3.40241 2.19294   7
  -3   1   7 9.99906 2.30934   6
   3  -1  -7-1.44504 2.20895   2
   3  -1  -6-0.47427 0.80696   4
  -3   1   6 2.41055 1.87829   6
   3  -1  -5 52.0479 3.49346   2
  -3   1   5 54.5317 3.57211   6
  -3   1   5 57.5634 3.72708   8
   3   1  -4 37.3856 2.53916   4
  -3   1   4 38.4410 2.64724   6
   3  -1  -4 41.5751 2.81189   2
   3  -1  -4 35.8288 2.77918   8
   3   1  -4 40.2151 2.56469   2
   3   1  -3 29.1036 1.89640   2
  -3  -1   3 32.8975 1.93360   6
  -3   1   3 28.8031 2.02724   6
   3  -1  -3 28.7071 1.85076   3
  -3  -1   3 26.3362 1.72048   5
   3  -1  -3 32.7607 2.35018   8
  -3   1   2 24.9415 1.72328   4
  -3  -1   2 20.1829 1.35071   6
   3  -1  -2 25.8428 1.76420   3
  -3   1   2 29.4759 1.91049   6
  -3   1   2 26.6544 2.47407   1
   3  -1  -2 25.2410 2.04607   8
   3  -1  -2 26.0635 2.14156   7
  -3   1   1 147.595 7.34220   4
  -3  -1   1 136.767 7.45875   4
   3   1  -1 135.543 7.42222   3
  -3   1   1 143.636 7.89907   1
   3  -1  -1 148.395 7.40750   8
   3  -1  -1 143.150 7.57268   7
  -3   1   1 137.027 7.13201   2
   3   1  -1 156.962 7.74977   7
  -3  -1   0 55.5536 3.31041   4
   3  -1   0 45.8871 2.70240   6
  -3   1   0 50.7280 2.76577   2
   3   1   0 52.8057 3.31507   3
  -3   1   0 57.7662 3.96972   1
   3  -1   0 50.9590 2.82992   5
   3   1   0 57.2927 2.90722   8
   3  -1   0 59.4525 3.52440   7
   3   1   0 62.7853 3.63308   7
   3   1   1 20.4158 2.35329   7
   3   1   1 19.6365 1.77451   5
  -3  -1  -1 16.8271 1.92138   4
   3  -1   1 15.2906 1.13518   6
  -3   1  -1 11.5104 2.71322   1
   3   1   1 15.7514 2.08060   3
   3   1   1 16.8641 1.20373   8
  -3  -1  -1 14.6505 2.30653   1
   3   1   2 62.8544 4.33009   3
  -3  -1  -2 60.5859 4.54631   1
   3   1   2 67.8447 4.43423   7
  -3  -1  -3-0.16176 0.99296   2
   3   1   3-0.10201 2.44150   3
  -3  -1  -3 1.49827 2.62693   1
  -3  -1  -4 3.33652 3.52449   1
  -3   2   8 9.07035 2.46805   6
  -3   2   7 0.75672 2.21051   6
  -3   2   6 24.2851 2.55562   6
  -3   2   5 25.0905 2.38477   6
   3  -2  -5 22.5405 2.48550   2
  -3   2   4 87.1431 5.03562   6
  -3  -2   4 91.5808 5.07104   8
   3  -2  -4 89.3836 5.19718   8
   3  -2  -4 89.9710 4.90581   7
  -3   2   3 164.315 8.47838   6
  -3   2   3 152.065 8.85161   1
  -3  -2   3 164.509 8.51273   8
   3  -2  -3 167.906 8.67533   8
  -3  -2   3 168.618 8.41127   5
   3   2  -3 162.887 8.30643   2
  -3   2   1 18.7490 1.55982   2
  -3  -2   1 22.2785 2.03234   4
   3  -2  -1 15.8998 1.50169   6
  -3   2   1 20.7400 2.92215   1
   3  -2  -1 20.5588 1.80886   8
   3  -2  -1 20.1295 2.02989   7
   3   2  -1 21.5414 2.34585   7
  -3   2   1 19.1436 1.51551   4
   3   2   0 23.3661 2.57410   7
  -3  -2   0 25.1647 2.26071   4
  -3   2   0 31.9652 3.42260   1
   3  -2   0 19.9264 1.59534   6
   3   2   0 24.1701 2.18629   3
  -3  -2  -1 59.1772 3.87885   4
   3   2   1 60.8511 3.92561   3
  -3   2  -1 67.6042 5.36595   1
  -3   2  -1 61.3795 3.74763   3
   3   2   1 61.5729 4.02708   7
  -3   2  -1 62.5808 4.08152   7
   3   2   2 24.6119 2.73054   3
  -3  -2  -2 24.7497 2.57077   1
   3   2   2 32.0066 2.75894   7
  -3  -2  -3 3.11258 0.91866   2
   3   2   3 3.03521 0.83298   6
  -3  -2  -3 5.49070 2.43543   1
   3   2   3 4.50555 2.45071   3
   3   2   3 4.21996 2.38455   7
   3   2   4 5.58403 1.39557   6
  -3  -2  -4 7.09325 2.65738   1
   3   2   4 2.94814 2.73316   3
  -3  -2  -4 4.39174 1.34765   2
   3   2   5 12.0224 1.89254   6
   3   2   5 14.8388 3.36768   3
  -3  -2  -5 2.95440 1.74568   2
  -3   3   9 72.6277 4.96219   6
  -3   3   9 60.6297 4.24794   5
  -3   3   8 10.5781 2.65355   6
  -3   3   8 8.10552 1.86658   5
  -3   3   7 22.4617 2.71189   6
  -3   3   7 20.4654 2.01396   5
   3  -3  -6 4.13900 2.30093   2
  -3   3   6 3.03932 2.09255   6
  -3   3   6 2.81071 2.18252   1
   3  -3  -6 5.96285 2.24313   8
  -3   3   6 3.46088 1.17658   5
  -3   3   5 38.1112 3.07663   6
  -3   3   5 33.0755 3.22804   1
   3  -3  -5 39.7253 2.43747   7
   3  -3  -4 8.18187 1.33969   7
  -3   3   4 4.07975 1.80888   6
   3   3  -3 47.3628 3.61354   4
  -3   3   3 35.2184 2.84411   6
  -3   3   3 40.2953 3.47629   1
   3  -3  -3 39.4896 2.95966   8
  -3  -3   3 39.7127 2.59845   8
   3  -3  -3 38.8550 2.58896   7
  -3   3   3 38.5238 2.72716   2
   3   3  -2 27.9157 2.46127   4
  -3   3   2 26.6258 1.70156   4
  -3   3   2 27.9913 2.22988   2
   3  -3  -2 26.7001 2.14281   6
  -3   3   2 31.1701 3.18739   1
   3  -3  -2 30.8528 2.44763   8
  -3  -3   2 27.5785 1.93915   8
  -3  -3   2 31.5546 2.21492   5
   3  -3  -2 31.2460 2.34876   7
   3  -3  -1 17.4795 1.69624   6
  -3   3   1 18.5845 1.81364   2
  -3  -3   1 18.5312 2.03281   5
  -3   3   1 22.6294 3.30048   1
   3   3   0 0.99656 2.14469   7
  -3   3   0 1.50257 1.71992   7
  -3  -3   0 1.68907 1.78422   4
   3  -3   0 1.84145 1.21322   6
  -3   3   0 2.54921 1.37969   3
  -3  -3  -1 91.5426 4.77865   4
   3   3   1 91.2909 4.74311   3
   3   3   1 105.943 5.12662   7
   3   3   2 14.2793 2.52425   7
   3   3   2 8.38260 2.39184   3
   3   3   3 16.0266 1.28708   6
   3   3   3 20.5997 2.79389   3
  -3  -3  -3 24.2664 2.69486   1
   3   3   3 23.0339 2.85915   7
  -3  -3  -4 10.0867 1.67821   2
   3   3   4 10.1572 1.45661   6
   3   3   4 10.3277 2.70914   3
   3   3   4 10.4357 3.05678   7
  -3  -3  -5 27.2864 2.33410   2
   3   3   5 25.1313 2.35110   6
  -3  -3  -5 30.0383 3.44069   1
   3   3   5 24.3811 3.68391   3
   3   3   6-0.95864 2.13311   6
   3   3   6 0.15532 3.36844   3
   3   3   6-0.65993 1.12880   8
  -3  -3  -6 0.23212 1.97695   2
  -3   4   9 13.6489 3.04888   6
  -3   4   9 7.53576 2.30268   5
  -3   4   8 14.8527 2.94724   6
  -3   4   8 14.7823 2.16914   5
  -3   4   7 4.42019 2.44030   6
   3  -4  -7 0.75800 2.56837   8
  -3   4   7 0.05318 1.63349   5
  -3   4   6 178.975 9.22066   6
  -3   4   6 201.964 9.59878   1
   3  -4  -6 180.686 9.27374   8
   3  -4  -6 156.890 8.44404   7
   3  -4  -5 3.14618 0.94951   7
  -3   4   5 3.26692 2.78692   1
  -3   4   5 2.17040 2.02288   6
   3  -4  -5 5.57662 2.16212   8
  -3   4   4 6.34849 1.95467   2
  -3   4   4 5.16361 2.07908   6
  -3   4   4 7.73652 3.26973   1
  -3   4   3 22.2157 2.15557   2
   3  -4  -3 17.8702 2.10554   6
  -3   4   3 21.1585 2.46092   6
  -3   4   2 3.74328 1.69037   2
   3   4  -2 2.02551 2.39012   4
   3  -4  -2 1.23188 1.51778   6
  -3  -4   2 1.16401 1.07450   8
   3  -4  -2 1.05251 0.44339   5
  -3  -4   2 2.40645 2.04877   5
   3   4  -1 0.93882 0.58686   2
   3  -4  -1 0.63064 1.47779   6
  -3  -4   1 1.92957 0.63667   6
  -3  -4   1 2.02363 0.73651   8
  -3   4   1 2.08609 1.25955   3
  -3  -4   1 1.85708 1.68329   5
  -3   4   0 21.5143 2.54546   7
   3   4   0 25.3231 2.86927   7
   3   4   1 18.0576 2.84229   7
   3   4   2 64.2460 4.48128   3
   3   4   2 80.2942 5.01551   7
   3   4   3 0.67820 2.44253   7
   3   4   3 3.88179 2.56085   3
   3   4   4 59.1027 3.51695   6
   3   4   4 73.0238 4.74220   3
   3   4   4 62.7396 4.69492   7
   3   4   5 4.92431 1.68745   6
   3   4   5 6.14249 3.03580   3
  -3  -4  -5 2.00219 2.37300   1
  -3  -4  -6-1.51609 3.14304   1
  -3  -4  -6 0.46910 2.04882   2
   3   4   6-2.73939 3.57225   3
   3   4   6 2.36312 3.26277   5
  -3  -4  -7 5.28785 2.34362   2
   3   4   7 8.77531 2.57247   6
   3   4   7 3.65819 4.17177   3
   3   4   7 8.38007 4.01452   5
  -3   5  10 25.4551 3.97305   6
  -3   5  10 18.6544 3.08844   5
  -3   5   9 9.55432 3.00858   6
  -3   5   9 6.38650 2.60282   5
   3  -5  -8 1.06911 0.54191   7
  -3   5   8 2.72447 2.69421   6
   3  -5  -8-0.73752 2.84837   8
  -3   5   8 0.87872 2.10795   5
  -3   5   7 0.67936 2.52110   6
   3  -5  -7-0.34100 2.65940   8
  -3   5   6 7.52346 2.53291   6
   3  -5  -6 9.69185 2.75482   8
  -3   5   5-0.09444 2.36391   2
  -3   5   5 0.73293 2.31396   6
   3  -5  -5-0.60699 2.38519   8
  -3   5   4 3.11423 2.28707   6
  -3   5   4 0.25742 1.99113   2
   3  -5  -4 4.02754 2.25064   8
   3  -5  -3 17.1931 2.23399   6
  -3   5   3 27.4056 3.48038   6
  -3   5   3 19.4848 2.47984   2
   3   5  -2 137.351 9.91165   4
   3  -5  -2 141.002 7.68876   6
  -3   5   2 157.601 7.85349   2
  -3   5   2 140.137 7.19112   3
   3  -5  -2 141.703 7.24828   5
   3   5  -1 46.1691 3.59024   4
   3  -5  -1 46.8252 3.14313   6
  -3  -5   1 40.8081 2.44919   6
  -3  -5   1 46.6379 3.38071   5
  -3  -5   1 36.8938 2.22658   8
   3   5   0 21.5553 1.46034   2
  -3  -5   0 19.1436 1.47092   6
  -3  -5   0 19.3860 2.52799   5
   3   5   1 8.56689 2.42949   7
   3   5   2 2.99359 2.52003   7
   3   5   3-1.27457 2.68507   7
   3   5   3 3.25364 2.47179   3
   3   5   4 6.01419 1.45026   6
   3   5   4 11.5529 2.90594   3
   3   5   4 5.50519 2.57682   5
   3   5   4 3.92729 2.84923   7
   3   5   5-0.17866 1.65533   6
   3   5   5 0.38226 2.96588   3
  -3  -5  -5-2.20463 2.51466   1
   3   5   5 0.12184 2.83799   5
   3   5   5-1.79444 3.19822   7
   3   5   6-1.13528 3.35444   3
  -3  -5  -6-0.40350 2.80988   1
   3   5   6-0.14066 3.39367   5
   3   5   7 9.69491 2.78867   6
   3   5   7 6.57944 3.88881   3
  -3  -5  -7 7.55897 3.90304   1
   3   5   7 11.9422 3.81787   5
   3   5   8 5.69446 3.21571   6
   3   5   8 11.1510 4.60540   5
  -3   6  11 1.45946 3.94875   6
  -3   6  11 2.51432 3.06738   5
  -3   6  10 14.3130 3.81219   6
  -3   6  10 8.75688 2.90796   5
  -3   6   9 3.86085 3.18039   6
  -3   6   8 0.77498 2.92476   6
   3  -6  -8-1.02074 2.91697   8
  -3   6   7 29.3426 3.38713   6
   3  -6  -7 27.2022 3.44351   8
  -3   6   6 15.4796 3.07597   2
  -3   6   6 19.9270 2.95371   6
   3  -6  -6 16.6150 2.97904   8
  -3   6   5 45.9127 3.66440   6
   3  -6  -5 35.9213 3.55521   8
  -3   6   5 42.5643 3.59668   2
  -3   6   4 54.9571 4.30977   2
  -3   6   4 69.1754 4.65114   6
   3  -6  -4 65.1418 4.30533   8
  -3   6   3 23.6702 2.85057   2
   3  -6  -3 23.1902 1.83419   5
  -3   6   2 18.2697 3.05961   2
   3  -6  -2 17.4372 2.54263   6
   3  -6  -2 26.0320 2.71591   5
   3   6  -1 0.17729 3.69593   4
  -3  -6   1-3.59021 3.08678   5
  -3  -6   0 69.0598 4.08896   6
   3   6   0 76.8165 4.13721   2
   3   6   1 5.76376 2.57069   7
   3   6   1 9.79509 1.47995   2
   3   6   2 4.31633 2.78283   7
   3   6   3 15.0425 3.25621   7
   3   6   3 18.0333 2.87289   3
   3   6   4 2.49935 3.09930   7
   3   6   4 2.30124 1.77570   6
   3   6   4-0.78100 2.93714   3
   3   6   4 4.27864 2.83780   5
  -3  -6  -5 21.0658 3.00085   1
   3   6   5 16.2914 3.37105   3
   3   6   5 19.5591 3.49919   5
   3   6   5 22.2867 3.70474   7
  -3  -6  -6 12.0704 2.98635   1
   3   6   6 14.6218 3.64648   3
   3   6   6 14.4015 3.69807   5
  -3  -6  -7 3.18888 3.13203   1
   3   6   7 1.93177 2.70644   6
   3   6   7 4.77957 3.94700   3
   3   6   7 1.97768 3.64051   5
   3   6   8 4.05212 3.47350   6
   3   6   8 4.14879 4.41592   5
  -3   7  11-1.40919 3.33354   5
  -3   7  10 1.31289 3.62062   6
  -3   7   9 6.47543 3.33435   6
   3  -7  -9-1.43293 3.16280   8
  -3   7   8 75.1698 5.41523   6
   3  -7  -8 68.5380 5.37984   8
  -3   7   7-4.73926 3.06265   6
   3  -7  -7-0.39290 2.93335   8
  -3   7   6 1.48029 2.68924   2
  -3   7   6 0.36015 2.98984   6
   3  -7  -6-1.44956 2.65488   8
  -3   7   5-1.31849 2.89183   6
  -3   7   5 0.11389 2.45693   2
   3  -7  -5 1.86971 2.42525   8
  -3   7   4 58.5632 4.66938   2
  -3   7   4 84.4721 5.82837   6
   3  -7  -4 62.1886 4.61676   8
  -3   7   3-0.58090 2.64199   2
   3  -7  -3 1.58513 1.66622   5
  -3   7   2-0.47014 3.25511   2
   3   7   1 2.96759 2.51079   7
  -3  -7  -1 0.11400 1.63127   6
   3   7   1-0.88803 1.66175   2
   3   7   2 64.6866 3.99206   2
   3   7   2 67.4252 4.75694   7
   3   7   3 0.77183 2.74346   7
   3   7   4 10.5031 3.25086   7
   3   7   4 9.53351 3.17126   3
   3   7   5-1.61865 3.18043   3
   3   7   5-2.08258 3.22009   7
  -3  -7  -6 12.2002 2.94335   1
   3   7   6 9.90747 2.54168   6
   3   7   6 13.2438 3.86152   3
   3   7   6 10.7354 3.62470   5
   3   7   7 2.68880 3.04781   6
  -3  -7  -7 0.20299 2.85971   1
   3   7   7 0.99587 4.02426   3
   3   7   7 1.33631 3.81668   5
   3   7   8-0.99138 3.49396   6
   3   7   8-3.33521 4.46782   5
  -3   8  10 9.04393 3.98066   6
  -3   8   9-2.05477 3.55883   6
   3  -8  -9-2.80190 3.24570   8
  -3   8   8 3.54259 3.58894   6
   3  -8  -8 4.89919 3.06330   8
  -3   8   7 27.0527 3.78468   2
  -3   8   7 25.5988 3.86382   6
   3  -8  -7 29.5872 3.64735   8
  -3   8   6 1.34224 2.84966   2
   3  -8  -6-3.26612 2.68525   8
  -3   8   5 22.8972 3.90408   6
  -3   8   5 19.3132 3.35766   2
   3  -8  -5 19.8742 3.23151   8
   3  -8  -4 23.1371 3.39792   8
   3  -8  -4 22.0819 2.51267   5
  -3   8   3 5.28505 3.45289   2
   3  -8  -3 2.35483 2.74072   5
   3   8   1-0.13824 2.90169   7
  -3  -8  -1-1.70171 2.14765   6
  -3  -8  -1 0.29453 0.43077   8
   3   8   1 0.53490 2.31813   2
   3   8   2 3.74572 3.01706   7
   3   8   2 2.17568 2.19779   2
   3   8   3 23.6011 3.36646   7
   3   8   4 2.47591 3.11682   7
   3   8   4-2.02076 3.03788   3
   3   8   5 4.35529 2.88436   6
   3   8   5 3.12931 3.57475   3
   3   8   6 14.4437 3.05541   6
   3   8   6 14.2058 4.18928   3
  -3  -8  -7 2.32489 2.85384   1
   3   8   7 0.12131 3.11630   6
   3   8   7-2.63642 3.99640   5
   3   8   8-1.35918 3.88983   6
  -3  -8  -8-3.64986 3.45560   1
   3   8   9 1.28203 4.24375   6
  -3   9   9 2.01667 3.88718   6
  -3   9   8-1.91298 3.87426   6
   3  -9  -8-0.30600 3.30841   8
  -3   9   7 4.30719 3.35443   2
  -3   9   7 2.84020 3.75166   6
   3  -9  -7-1.15146 2.95357   8
  -3   9   6 8.48802 3.94111   6
  -3   9   6 6.04696 3.43186   2
   3  -9  -6 8.03004 3.36199   8
  -3   9   5 17.1273 5.18885   6
   3  -9  -5 10.7132 3.41724   8
  -3   9   5 6.05545 3.33272   2
  -3   9   4-0.85021 3.71801   2
   3  -9  -4 0.68711 3.39405   8
   3  -9  -4 0.19259 2.53378   5
   3   9   1-0.13654 3.36934   2
  -3  -9  -1-0.41451 2.66769   6
   3   9   2-0.13881 3.16025   7
  -3  -9  -2 5.86749 2.63518   6
   3   9   2 5.62943 2.93075   2
   3   9   3 0.44034 2.88045   2
   3   9   4 4.03285 3.19814   3
   3   9   5-0.48634 3.55758   3
   3   9   5 6.06479 3.59108   7
   3   9   6-5.41470 3.70004   6
   3   9   6-1.65797 3.53439   7
   3   9   7 7.95614 3.65954   6
  -3  -9  -7 1.66485 2.99989   1
   3   9   8 7.70978 4.41470   6
   3   9   9 3.06385 4.77196   6
  -3  10   8 7.67657 3.92422   2
  -3  10   8 8.95270 4.29918   6
  -3  10   7 7.69748 3.63380   2
  -3  10   7 2.68939 4.27487   6
   3 -10  -7 4.56976 3.40483   8
  -3  10   6 39.6821 5.87881   6
  -3  10   6 28.7652 4.45775   2
   3 -10  -6 30.9412 4.56256   8
   3 -10  -5 2.85106 4.48281   8
  -3  10   5 4.57668 4.27408   2
   3  10   2 5.41383 4.18664   2
   3  10   3 6.00396 4.12475   2
   3  10   4 23.3787 3.93778   7
   3  10   5 2.96034 3.70887   7
   3  10   7 13.9533 5.33631   6
  -3 -10  -7 1.14957 2.97962   1
   3  10   8-3.37678 5.10056   6
   3  10   9-3.72596 5.65467   6
  -3  11   7 10.8899 5.39441   6
  -3  11   6 2.44774 4.62720   2
   3 -11  -5 10.9958 6.74073   8
  -3  11   5 5.32769 6.05310   2
   3  11   3-1.90940 3.29135   7
   3  11   3 9.97959 7.13341   2
   3  11   4 2.79929 3.58751   7
   3  11   4 3.75565 5.86740   2
   3  11   8 4.02935 8.93538   6
   3  12   4 1.79830 13.1458   2
   4   0  -7 1.79905 1.23895   4
  -4   0   7 1.66121 2.43218   6
   4   0  -7 1.06448 2.30465   2
   4   0  -6 7.90883 2.07661   2
  -4   0   6 8.01445 2.14432   6
  -4   0   5 2.45169 1.65352   6
  -4   0   4 62.7227 3.67592   6
   4   0  -4 62.2788 3.72125   3
   4   0  -4 67.0965 4.30557   7
   4   0  -3-0.74010 2.09349   7
   4   0  -3-0.21813 1.56748   3
   4   0  -2 9.73246 1.88417   3
  -4   0   2 10.0282 2.97741   1
  -4   0   1-0.12091 2.67495   1
  -4   0   1-2.72983 2.01345   4
   4   0  -1 0.80615 1.93532   3
   4   0  -1 0.45092 1.38924   8
  -4   0   0 38.2352 3.06391   4
   4   0   0 41.1509 3.38896   3
  -4   0   0 35.0293 4.05112   1
   4   0   0 35.4399 2.54172   8
   4   0   0 38.8721 3.48025   7
  -4   0  -1-1.85564 3.05063   1
   4   0   1 0.21508 1.27388   8
   4   0   1 0.60001 1.46064   5
   4   0   1 0.81911 2.87074   7
  -4   0  -2 4.67167 3.69313   1
   4   0   2 1.03008 1.34783   8
   4   0   2 0.56281 1.73078   5
  -4   0  -3 0.66986 0.61652   2
  -4   0  -3 4.11157 4.70644   1
   4  -1  -7 2.01411 2.47579   2
  -4   1   7 2.35711 2.40897   6
  -4  -1   6 34.1881 2.71421   6
   4   1  -6 12.9962 1.93619   4
  -4   1   6 32.1885 2.75066   6
   4  -1  -6 28.2950 1.67570   3
   4   1  -6 11.6380 2.27786   2
   4  -1  -5 18.1366 2.43678   7
   4   1  -5 17.5197 1.99464   2
  -4  -1   5 18.3413 1.92973   6
   4  -1  -5 13.8295 1.50026   3
  -4   1   5 16.8191 2.08346   6
   4  -1  -4 3.05686 2.11189   7
  -4   1   4 2.82265 2.85197   1
  -4  -1   4 1.13267 1.18516   6
   4  -1  -4 0.80892 1.45592   3
  -4   1   4 0.96516 1.69932   6
   4  -1  -3 54.6484 3.24848   3
  -4   1   3 30.6142 3.93469   1
   4   1  -3 42.2084 3.07180   3
   4  -1  -3 47.1947 3.44866   7
   4  -1  -2 1.03326 2.07761   7
   4   1  -2 2.92423 2.30973   7
  -4   1   2 5.71229 2.94217   1
   4   1  -2 2.36741 1.89911   3
   4  -1  -2-0.52838 1.70298   8
   4   1  -1 9.85906 2.62951   7
  -4   1   1 10.2176 1.92262   4
  -4  -1   1 12.6830 2.20289   4
   4   1  -1 10.9418 2.11428   3
   4  -1  -1 8.89472 1.73617   8
  -4   1   1 14.2371 3.20454   1
   4   1   0 30.7014 3.30485   7
  -4   1   0 28.6109 2.68272   4
  -4   1   0 37.5893 4.03375   1
   4   1   0 25.4086 2.82012   3
   4  -1   0 33.0084 2.39387   8
  -4  -1   0 29.2138 3.58090   1
  -4   1  -1 2.87948 3.95210   1
  -4  -1  -1 4.12828 3.04731   1
   4   1   1-0.86869 2.41476   3
   4  -1   1-0.73645 1.43690   8
   4  -1   1-0.38085 1.31289   5
   4   1   1 2.13548 2.72965   7
   4  -1   2-0.61744 0.45526   6
  -4  -1  -2-3.70045 3.22895   1
   4  -1   2 1.66476 1.96693   5
   4   1   2-0.58905 0.86659   8
   4   1   2 0.90824 2.89936   7
  -4  -1  -3-0.44828 3.54319   1
   4   1   3-0.07410 0.78390   8
   4   1   3 0.08752 2.22140   5
   4   1   4 4.39491 0.92343   6
  -4  -1  -4 11.1752 4.93821   1
   4   1   4 8.31792 3.49187   5
  -4   2   8 35.7999 3.92096   6
  -4   2   7 29.5298 3.34986   6
   4  -2  -6 6.41514 2.09688   7
  -4   2   6 5.75583 2.35375   6
  -4   2   6 5.02061 2.94684   1
   4  -2  -5 1.78772 1.86740   7
   4   2  -5 2.83220 1.67549   4
  -4  -2   5 5.23860 1.66207   6
  -4   2   5 5.21384 1.90304   6
  -4  -2   5 4.03925 1.86566   8
   4   2  -5 2.96306 1.43929   2
  -4   2   5 1.96858 2.94440   1
  -4  -2   5 1.06533 1.07079   5
   4  -2  -4 2.48760 1.85619   7
   4   2  -4 5.21667 1.26941   2
  -4  -2   4 5.19781 1.12163   6
  -4   2   4 3.40876 2.05368   6
   4  -2  -4 4.29717 2.06934   8
   4  -2  -3 0.68401 1.89818   7
   4  -2  -3 0.32193 1.98373   8
  -4   2   3-1.86235 3.11842   1
   4   2  -2 9.54666 2.52162   7
  -4   2   2 6.68834 1.58898   4
  -4   2   2 6.95658 3.31262   1
   4   2  -2 8.67266 2.02283   3
   4  -2  -2 7.55338 2.03741   7
   4   2  -1 0.65864 2.42178   7
  -4   2   1 0.90402 1.57822   4
  -4   2   1-0.99359 3.59516   1
   4   2  -1 1.97454 2.09161   3
   4  -2  -1 0.79110 1.65073   8
   4  -2  -1 0.19342 2.43884   7
   4   2   0-3.68093 2.73786   7
  -4   2   0-0.28490 1.80097   4
   4   2   0-3.08544 2.21849   3
  -4   2   0 2.47285 0.97727   2
   4  -2   0 1.29442 1.57150   8
   4  -2   0-0.21450 0.75703   5
  -4   2   0-2.59034 4.13579   1
   4   2   1 12.5231 3.13554   7
  -4  -2  -1 19.1032 3.24213   1
  -4   2  -1 9.47849 1.56726   2
   4  -2   1 7.13090 0.98456   6
   4  -2   1 11.0436 1.63458   5
  -4  -2  -2 37.9636 3.99559   1
   4   2   2 39.7204 3.97040   7
  -4  -2  -3 22.9420 3.80775   1
   4   2   3 19.1875 2.75787   5
   4   2   3 27.6437 3.94884   7
   4   2   4 1.76912 2.92849   5
   4   2   5-0.31701 1.50426   6
   4   2   5-0.52165 4.01275   5
  -4   3   9 10.6013 3.60010   6
  -4   3   8-1.51706 3.18150   6
   4  -3  -7 0.30487 1.77432   7
  -4   3   7 3.53605 2.79703   6
   4  -3  -6-0.23314 1.66873   7
  -4   3   6-0.79709 2.34705   6
   4  -3  -6-1.09631 2.50971   8
  -4   3   6 2.90743 2.90941   1
   4  -3  -5 8.51299 1.79847   7
  -4   3   5 5.57081 2.11143   6
  -4   3   5 5.93532 3.31655   1
   4  -3  -5 4.05815 2.25503   8
   4   3  -4 17.8287 1.55638   2
  -4  -3   4 21.3480 1.72549   6
  -4   3   4 32.2628 3.10078   6
  -4  -3   4 26.0059 2.25573   8
  -4  -3   4 24.5699 2.03200   5
   4  -3  -4 28.9594 2.83276   8
   4  -3  -4 25.6190 2.39054   7
  -4   3   3-0.83375 3.26409   1
   4  -3  -3 2.60313 1.94489   8
   4  -3  -3 0.21857 1.84493   7
  -4   3   2 60.8389 3.54978   4
  -4   3   2 72.4710 5.76549   1
   4  -3  -2 49.8889 3.84356   8
  -4   3   2 61.5957 3.60029   2
   4   3  -2 63.5048 4.62607   7
   4   3  -1 0.11643 2.57017   7
  -4   3   1-0.46426 1.57780   4
  -4   3   1 1.38045 1.37646   2
   4  -3  -1-0.28631 1.72803   8
  -4   3   1 2.36532 4.37006   1
   4   3  -1 0.60781 2.14401   3
   4   3   0 2.12874 2.93400   7
  -4   3   0 1.41773 1.72626   2
   4  -3   0 1.50966 1.19990   6
   4  -3   0 0.75621 0.77838   5
   4   3   1 7.93767 3.05125   7
  -4  -3  -2 6.39214 3.19965   1
   4   3   2 3.76075 3.16224   7
  -4  -3  -3 1.81225 3.07025   1
   4   3   3 6.79293 3.00779   3
   4   3   3 1.06415 2.21992   5
   4   3   3 2.30689 3.18769   7
   4   3   4 5.71768 3.43008   3
   4   3   4 5.59200 2.96768   5
  -4  -3  -5-3.05234 4.30328   1
   4   3   5 8.17750 3.76344   3
   4   3   5 0.76732 3.70853   5
   4   3   6 6.65517 5.02036   5
  -4   4  10-0.33223 3.87146   6
  -4   4   9 13.4533 3.69211   6
   4  -4  -8 8.65562 1.58541   7
  -4   4   8 14.7816 3.51551   6
   4  -4  -7 2.39038 1.48869   7
  -4   4   7 4.93780 2.89095   6
   4  -4  -7 3.14767 3.04470   8
  -4   4   6 5.28336 3.58043   1
  -4   4   6-0.47942 2.60586   6
   4  -4  -6 1.14441 2.74911   8
   4  -4  -6 2.39508 1.55617   7
  -4   4   5 41.4829 5.01960   1
  -4   4   5 42.8193 3.58425   6
   4  -4  -5 37.7462 3.63470   8
   4  -4  -5 36.8386 2.77668   7
  -4   4   4-1.43188 3.83662   6
   4  -4  -4 1.18518 2.27055   8
  -4   4   4 3.14225 4.35773   1
  -4  -4   3 1.20903 0.55033   6
  -4   4   3 1.05176 1.90723   2
   4  -4  -3 2.64036 2.05407   8
  -4  -4   3 1.33215 1.84369   5
  -4   4   2 0.34312 1.17323   4
  -4   4   2-0.79457 1.79405   2
   4  -4  -2-0.67639 1.92768   8
   4   4  -1 31.9137 3.46611   7
  -4   4   1 32.2447 2.75139   2
   4  -4  -1 22.9207 2.16801   6
   4  -4  -1 25.0265 2.51884   8
   4   4   0 3.88629 2.90883   7
  -4   4   0 1.11204 2.59043   2
   4  -4   0 0.37679 1.46288   6
   4   4   1 4.63766 3.14414   7
   4   4   2 9.80178 3.49523   7
   4   4   2 5.92301 3.10430   3
   4   4   3 0.26021 3.09281   3
   4   4   3 0.14522 3.39098   7
  -4  -4  -4-1.87166 3.42309   1
   4   4   4-3.24537 3.26917   3
   4   4   4 2.69349 2.82198   5
   4   4   4 2.49935 3.88327   7
  -4  -4  -5 8.21684 3.76614   1
   4   4   5 8.66333 3.93192   3
   4   4   5 6.95041 3.61444   5
   4   4   6-8.27218 4.72520   3
  -4  -4  -6 1.33846 4.88002   1
   4   4   6-8.46401 4.55547   5
  -4   5  11-0.74074 4.10876   6
  -4   5  10 7.34076 4.09914   6
  -4   5   9 13.2149 3.91117   6
  -4   5   8 4.62932 3.36061   6
   4  -5  -8 1.26200 0.84482   7
  -4   5   7 2.85446 2.99374   6
   4  -5  -7 2.74065 2.99274   8
  -4   5   6 0.53332 2.71051   6
  -4   5   5 31.7772 3.59076   6
   4  -5  -5 21.1628 3.24190   8
  -4   5   4 10.7090 2.52830   2
   4  -5  -4 10.7959 2.55778   8
   4   5  -3 2.62548 3.55718   4
  -4   5   3-1.03472 2.28275   2
  -4  -5   3-0.04512 1.21064   8
   4  -5  -3 0.69207 2.14570   8
  -4  -5   3-1.05085 2.62455   5
  -4   5   2 4.00372 1.15610   4
   4  -5  -2 3.10520 1.74000   6
   4  -5  -2 4.48996 2.15077   8
  -4  -5   2 8.26253 2.37856   5
  -4   5   2 4.75187 2.25719   2
   4   5  -1 10.9755 3.47521   7
  -4   5   1 8.64810 2.66583   2
   4  -5  -1 9.37842 1.82609   6
   4   5   0 4.35565 3.23652   7
   4   5   1 14.7002 3.14504   7
   4   5   1 13.5661 3.11599   3
   4   5   2 2.27068 3.14724   7
   4   5   2 0.79510 3.15099   3
   4   5   3 9.59711 3.37890   3
   4   5   3 8.53286 3.70781   7
   4   5   4-1.76762 3.54584   3
  -4  -5  -4 2.84820 3.49029   1
   4   5   4 4.00219 3.88707   7
   4   5   5-3.62264 3.91846   3
  -4  -5  -5 2.26151 3.70196   1
   4   5   5 7.78958 3.52909   5
  -4  -5  -6 5.33135 4.29664   1
   4   5   6 0.72517 4.13304   5
   4   5   7-2.55372 5.42605   5
  -4   6  10 2.92867 4.32933   6
  -4   6   9 1.27300 3.66043   6
  -4   6   8 14.3164 3.67689   6
  -4   6   7 13.7855 3.39624   6
   4  -6  -7 17.5888 3.49544   8
  -4   6   6 9.43267 3.30814   6
   4  -6  -6 12.4235 3.15924   8
  -4   6   5 8.00195 2.73959   2
  -4   6   5 4.54284 3.90611   6
   4  -6  -5 4.72579 2.66746   8
  -4   6   4 3.34463 2.71442   2
   4  -6  -4 3.10115 2.54760   8
   4  -6  -3-0.86876 2.48789   8
  -4   6   3-0.42703 2.81358   2
  -4   6   2-0.11775 2.80302   2
   4   6  -2 0.62391 1.24369   2
  -4  -6   2 2.41620 1.31379   6
   4  -6  -2-0.73104 2.19273   8
   4   6  -1 12.2085 4.34207   7
   4   6   0 10.9136 3.40291   7
   4   6   1 6.37855 3.35817   7
   4   6   1 13.3309 3.02306   3
   4   6   2 8.40364 3.55551   7
   4   6   2 15.2841 3.34452   3
   4   6   3 8.20628 3.83608   7
   4   6   3 7.24155 3.38787   3
  -4  -6  -4 1.89695 3.60168   1
   4   6   4 3.41972 3.55017   3
   4   6   4 4.96974 3.87928   7
  -4  -6  -5 1.55625 3.57380   1
   4   6   5 0.82545 3.73617   3
  -4  -6  -6-4.21787 3.95133   1
   4   6   6-2.80794 4.11495   5
  -4  -6  -7 0.77564 5.17846   1
   4   6   7 3.50216 5.14860   5
  -4   7  10-1.81864 4.39649   6
  -4   7   9 6.68623 4.17336   6
  -4   7   8 1.22709 3.64898   6
  -4   7   7 0.29046 3.49745   6
  -4   7   6-0.87902 3.55391   6
   4  -7  -6 1.67050 3.02364   8
  -4   7   5 0.12975 3.18883   2
   4  -7  -5-0.52452 2.93223   8
  -4   7   4-1.01831 3.06364   2
   4  -7  -4 2.14081 2.72710   8
  -4   7   3 55.9395 4.73754   2
   4  -7  -3 48.2204 4.17521   8
   4   7   0-0.18986 3.98533   7
   4   7   1 5.12892 3.54691   7
   4   7   2 1.91547 3.47769   7
   4   7   2-3.37528 3.14082   3
   4   7   3 0.64901 3.63162   7
   4   7   3 2.80667 3.63964   3
   4   7   4-2.29270 3.82820   3
  -4  -7  -5-0.14254 3.62398   1
  -4  -7  -6 1.78707 3.84688   1
  -4  -7  -7 6.16453 4.61573   1
  -4   8   9 3.38020 4.27961   6
  -4   8   8 2.91503 4.08880   6
  -4   8   7 13.4794 4.39911   6
  -4   8   6 8.50849 3.82797   2
  -4   8   6 8.01722 4.99114   6
  -4   8   5-4.94663 3.66418   2
   4  -8  -5-0.72281 2.99018   8
   4  -8  -4 3.52458 3.06047   8
  -4   8   4 8.38391 3.54037   2
   4  -8  -3 3.07155 2.87966   8
  -4   8   3-0.32783 3.57975   2
   4   8   0 8.24332 5.73300   7
   4   8   1 0.18714 3.92823   7
   4   8   2 3.30915 3.43156   7
   4   8   2-0.95796 3.69963   3
   4   8   3 13.1047 3.91107   3
  -4  -8  -5 2.28862 3.65824   1
  -4  -8  -6-1.03712 3.92073   1
  -4  -8  -7-0.92242 4.12737   1
  -4   9   8 3.69994 4.63550   6
  -4   9   7-0.17962 4.18387   2
  -4   9   7 3.00598 5.22735   6
  -4   9   6 11.5997 4.16193   2
  -4   9   5 3.77405 3.80773   2
   4  -9  -4 1.97343 3.35135   8
  -4   9   4-4.96428 3.88001   2
  -4  -9  -6-3.88866 3.86302   1
  -4  10   7 5.04177 4.60143   2
  -4  10   6 4.16448 4.53204   2
  -4  10   5 0.20094 4.25836   2
  -4 -10  -6-1.18973 3.59490   1
   5   0  -6 1.79349 2.72744   7
   5   0  -5 7.11998 2.93737   7
  -5   0   5 9.44456 3.81561   1
   5   0  -4-0.73234 2.82472   7
  -5   0   4 4.18465 3.58409   1
   5   0  -3 1.82121 2.78530   7
   5   0  -3 2.79437 2.94568   3
  -5   0   3-4.22078 3.74643   1
   5   0  -2 0.51302 2.92924   7
  -5   0   2-4.88067 3.76021   1
  -5   0   1-4.19502 3.91580   1
   5   0  -1 2.84080 3.09821   7
  -5   0   0 1.40509 4.04824   1
   5   0   0 1.18092 3.48313   7
  -5   0  -1 16.2782 4.94856   1
  -5   0  -2 4.06911 5.84784   1
   5  -1  -7-1.11600 2.82392   7
   5  -1  -6 4.52482 2.85217   7
  -5   1   6 6.24777 3.80404   1
   5   1  -6-0.07643 2.11514   3
   5  -1  -5 11.6350 2.93389   7
   5   1  -5 2.71105 3.07145   7
   5   1  -5 4.44704 2.31867   3
   5  -1  -4 6.27323 2.78134   7
   5   1  -4 6.24588 3.08048   7
  -5   1   4 6.67495 3.92287   1
   5   1  -4 10.6154 2.41686   3
   5   1  -3 4.36350 3.18845   7
   5   1  -3 9.05204 2.47894   3
  -5  -1   3 10.9945 3.95597   1
  -5   1   3 4.73088 3.89891   1
   5  -1  -3 6.62114 2.84408   7
   5   1  -2 3.83888 3.12722   7
   5   1  -2 1.90053 2.53971   3
  -5  -1   2 8.99179 3.75646   1
  -5   1   2 4.88331 3.95889   1
   5  -1  -2 6.29223 2.89751   7
  -5   1   1-2.68819 4.43555   1
   5   1  -1 3.65231 3.01225   3
  -5  -1   1 2.00293 3.81628   1
   5  -1  -1 3.39049 2.08087   8
   5  -1  -1-0.66792 3.30265   7
   5   1  -1-3.09278 3.31291   7
  -5  -1   0 2.20570 4.06185   1
  -5   1   0-0.61345 4.91308   1
   5   1   0 2.04552 3.34096   3
   5  -1   0 2.03213 2.31368   8
  -5  -1  -1 1.24563 4.07396   1
  -5   1  -1 0.75129 6.09322   1
  -5  -1  -2 6.71466 5.00430   1
  -5  -1  -3 2.65724 5.81744   1
   5   1   3-1.15319 2.32002   5
   5  -2  -9 0.54144 2.68621   7
   5  -2  -8 0.10149 2.53047   7
   5  -2  -7 0.09727 2.54121   7
   5  -2  -6 3.39460 2.47881   7
  -5   2   6 2.57614 4.01597   1
   5  -2  -5 2.38414 2.47428   7
   5   2  -5 2.04849 3.37163   7
  -5   2   5 6.48982 4.04085   1
   5   2  -5 0.91369 2.17376   3
   5   2  -4 0.98533 3.07460   7
   5  -2  -4-3.88451 2.63715   7
   5   2  -3 0.69709 3.03242   7
  -5   2   3 5.73767 4.18766   1
   5   2  -3 6.51002 2.70146   3
   5  -2  -3 1.32115 2.38899   8
   5  -2  -3 3.95296 2.66418   7
   5   2  -2 9.93261 3.30965   7
  -5   2   2 8.56091 4.62102   1
   5   2  -2 6.61615 2.79341   3
   5  -2  -2 4.72622 2.41210   8
  -5  -2   1 3.21419 3.82497   1
   5   2  -1 5.72465 2.87329   3
   5  -2  -1 2.05928 2.45051   8
  -5   2   1 8.95683 5.53024   1
   5   2   0 3.73700 3.02959   3
  -5  -2   0 1.55067 4.19078   1
  -5   2   0-5.61286 6.56946   1
   5  -2   0 2.64007 2.43335   8
  -5  -2  -1 0.69481 4.24448   1
   5   2   1-0.55186 3.43480   3
   5   2   1 4.37002 3.56640   7
   5   2   2 0.64160 3.72368   3
  -5  -2  -2-1.99408 4.21941   1
   5   2   2-0.35971 4.04443   7
  -5  -2  -4 11.6445 6.04714   1
   5   2   4-0.77540 3.18484   5
   5  -3  -8 2.85342 2.38287   7
   5  -3  -7 9.43260 2.37984   7
  -5   3   6-1.09400 4.11453   1
   5  -3  -6-0.33729 2.26158   7
  -5   3   5 7.23195 4.49595   1
   5  -3  -5-0.44928 2.72944   8
   5  -3  -5 8.26414 2.43913   7
   5   3  -4 4.68726 3.84581   7
   5  -3  -4 1.03558 2.46873   8
   5  -3  -4 4.16040 2.73992   7
   5   3  -3-0.10910 2.73335   3
   5  -3  -3 3.05719 2.52755   8
  -5   3   3 9.08785 5.26890   1
   5   3  -2 6.56328 2.96496   3
  -5   3   2 5.75252 6.02462   1
   5  -3  -2 0.09822 2.34314   8
   5   3  -1 8.25146 3.17731   3
   5  -3  -1 4.89669 2.47225   8
   5   3   0-1.25599 3.48642   7
   5   3   0 0.50562 3.03926   3
  -5  -3   0 5.37707 4.02724   1
   5  -3   0 1.90548 2.38351   8
   5   3   1 0.13492 3.25257   3
   5   3   1 4.37261 3.53725   7
  -5  -3  -2-1.94578 4.21806   1
   5   3   2 2.17597 3.75208   3
   5   3   2 0.18066 3.99676   7
   5   3   3 9.11952 4.36291   3
  -5  -3  -4-1.73738 5.31284   1
   5  -4  -7-0.30497 2.21559   7
   5  -4  -6-0.12460 2.95298   8
  -5   4   6 4.46255 5.20375   1
   5  -4  -5 0.91384 2.76801   8
  -5   4   5 7.66495 5.67356   1
  -5   4   4-13.7851 6.46052   1
   5  -4  -4-2.11107 2.68443   8
   5  -4  -3-1.99852 2.45176   8
   5   4  -2-1.71278 3.82731   7
   5  -4  -2-0.20069 2.41506   8
   5   4  -2-0.11997 3.03520   3
   5   4  -1-3.74376 3.62948   7
   5   4  -1 2.26563 3.19380   3
   5  -4  -1 1.42048 2.40595   8
   5   4   0 5.59644 3.72130   7
   5   4   0 8.59307 3.45195   3
   5   4   1-2.36877 3.79779   7
  -5  -4  -1-0.52314 4.08608   1
   5   4   1-2.17366 3.49293   3
   5   4   2-2.14954 3.80998   3
   5   4   3-1.23221 4.17261   3
  -5  -4  -3-2.91243 4.33091   1
  -5   5   8-1.68359 3.25930   6
   5  -5  -7-2.52562 3.30204   8
   5  -5  -6 0.25579 3.07245   8
   5  -5  -5 6.54457 2.98717   8
   5  -5  -4 9.47339 2.94755   8
   5   5  -3 3.49326 6.91132   7
   5  -5  -3 4.24352 2.67546   8
   5   5  -2-2.93524 4.65886   7
   5  -5  -2 0.75908 2.52399   8
   5   5  -1 6.71372 4.09705   7
   5   5  -1 5.43620 3.39166   3
   5   5   0 7.74764 3.71296   3
   5   5   1 2.62940 3.62103   3
   5   5   2 1.29605 3.91141   3
  -5   6   9-0.15637 3.80667   6
  -5   6   8 3.52720 3.66420   6
  -5   6   7 7.06184 4.75541   6
   5  -6  -6 2.61795 3.23250   8
   5  -6  -5-4.48933 3.02247   8
   5  -6  -4-2.43813 2.90213   8
   5  -6  -3-1.07382 2.98543   8
   5  -6  -2 3.83496 2.73132   8
   5   6  -1 5.56241 3.56962   3
   5   6   0 6.14322 3.85224   3
   5   6   1-1.66144 3.65778   3
  -5   7   9-1.23962 4.33211   6
  -5   7   8 3.40383 4.49008   6
   5  -7  -5-0.27762 3.01942   8
   5  -7  -4 1.06056 2.96274   8
   5  -7  -3-0.39613 2.82681   8
   5   7   0 1.46101 4.36894   3
  -5   8   8 0.77353 5.57079   6
   6   0  -7-0.75411 3.41067   7
   6   0  -6-4.03478 3.60788   7
   6   0  -5 1.23803 3.66767   7
   6   0  -4 1.58665 3.70342   7
   6   0  -3-4.25503 3.66434   7
   6   0  -2-1.22654 3.98720   7
   6  -1  -6-1.14387 3.36783   7
   6   1  -6-2.19103 3.56907   7
   6   1  -5 0.98770 3.72598   7
   6  -1  -5-4.00667 3.45757   7
   6   1  -4-2.49978 3.87128   7
   6  -1  -4 1.85685 3.33751   7
   6  -1  -3 0.47615 3.85011   7
   6   1  -3-1.55142 3.94626   7
   6  -2  -5-0.27450 3.39869   7
   6   2  -2 0.16392 3.80025   3
   6   2  -1 3.50712 4.28003   3
   6   3  -3 1.98411 3.34918   3
   6   3  -2 3.13754 3.59903   3
   6   3  -1 1.50895 4.07986   3
   6   3   0-3.54670 4.68907   3
   6   4  -2 0.91924 3.52878   3
   6   4  -1 2.26245 3.82868   3
   6   5  -2 0.31145 3.39494   3
   0   0   0    0.00    0.00   0
   0  -1  -3 0.69154 0.57344   3
   1   9   2 2.47929 1.90931   4
  -2 -12  -4 2.44936 2.66190   8
   2  12   4 7.57580 3.57009   2
  -1   5  10 19.2684 3.35854   5
  -1   5  10 14.5665 3.22676   6
   0  -8  -2 13.0049 2.02137   5
   0  -8  -2 14.2855 2.45073   6
   3   8   0-1.43415 5.39378   4
   3   8   0 0.84266 2.83829   2
  -1   4   1 208.620 11.0306   6
   1  -4  -1 218.034 10.9570   6
   4   7  -1-0.07016 1.01259   2
   3  -4 -10 1.27256 1.00700   4
  -3   4  10 3.08175 3.03191   6
  -3   4  10 4.70893 2.45823   5
   1  -5  -1 7.14022 2.64470   6
  -2  12   6 30.1042 7.38953   6
   2 -12  -6 51.8455 6.84915   8
  -2  12   6 51.4981 8.40405   2
   2  10   2-1.90908 2.90681   4
   2  10   2 1.38363 2.29669   2
  -1  10   4 114.964 8.03684   6
  -1  10   4 119.085 6.98559   4
  -1  10   4 121.988 8.60281   2
  -3  -7   0 46.1387 3.34024   6
   3   7   0 50.9818 3.60071   2
   3   7   0 49.5537 4.69819   4
   0  -5  -1 244.253 12.4753   6
   2   4   7 143.878 7.61711   8
   2   4   7 139.744 8.40721   3
   2   4   7 139.008 8.03186   6
   2   4   7 137.568 8.74924   5
  -1  11   5 87.1498 7.26193   6
  -1  11   5 87.2782 7.15034   2
   1 -11  -5 79.8777 6.07913   8
  -3   2   2 18.0984 2.40700   1
  -3   2   2 17.7943 1.29948   4
  -3  -2   2 13.5279 0.96429   6
  -3  -2   2 17.8694 1.57363   5
   3  -2  -2 18.9828 1.86626   8
  -3   2   2 17.8809 1.54324   2
  -4   1   8 0.93165 2.68300   6
  -4   1   8 1.51575 1.17733   5
  -3   0  -3 188.324 10.6329   1
  -2   5   3 99.7348 5.09306   4
   2  -5  -3 114.787 5.74955   6
   2  -5  -3 108.771 5.62230   1
   1  -6  -2 173.518 9.34689   5
   1  -6  -2 193.295 9.58058   6
  -1   6   2 175.363 9.63816   6
   1  -8  -3 83.7472 5.26467   5
  -1   8   3 78.2916 4.82819   4
  -1   8   3 79.2011 5.73424   6
;
_shelx_hkl_checksum              86318
_shelx_res_file
;
TITL
    Ag-CAsphere.res
    created by SHELXL-2018/1 at 17:03:19 on 11-Mar-2018
CELL 0.56087   3.938975  10.780531   9.944418  90.0000 100.4864  90.0000
ZERR    2.00   0.000915   0.003738   0.004067   0.0000   0.0288   0.0000
LATT 1
SYMM -X+ 0.50000, Y+ 0.50000, -Z+ 0.50000
SFAC Br C H
UNIT 8 12 4
LIST 4
L.S. 50
FMAP 2
PLAN 20
CONF
BOND
BOND $H
ACTA
WGHT    0.023000
FVAR       0.20356
BR1   1    0.583464    0.790995    0.594295    11.00000    0.05869    0.02667 =
         0.03917   -0.00341    0.01157   -0.00366
BR2   1    0.347019    0.574649    0.801948    11.00000    0.05063    0.03824 =
         0.02863   -0.00258    0.01401    0.00139
C1    2    0.532892    0.622153    0.541320    11.00000    0.02570    0.02209 =
         0.04482   -0.00351    0.00138    0.00261
C2    2    0.438398    0.532769    0.629076    11.00000    0.02757    0.03694 =
         0.02239   -0.00238    0.00940    0.00399
C3    2    0.400124    0.411322    0.585494    11.00000    0.03270    0.02017 =
         0.04119    0.00538    0.01352   -0.00407
AFIX  43
H3    3    0.328780    0.351531    0.641771    11.00000   -1.20000
AFIX   0
HKLF 4
REM
REM R1 =  0.0366 for     494 Fo > 4sig(Fo)  and  0.0947 for all     870 data
REM     46 parameters refined using      0 restraints
END
WGHT      0.0230      0.0000
REM Highest difference peak  0.525,  deepest hole -0.491,  1-sigma level  0.139
Q1    1   0.3573  0.9241  0.4213  11.00000  0.05    0.53
Q2    1   0.2081  0.4834  0.9640  11.00000  0.05    0.49
Q3    1   0.8095  0.5200  0.6418  11.00000  0.05    0.47
Q4    1   0.1688  0.3809  0.5730  11.00000  0.05    0.44
Q5    1   0.5818  0.7156  0.8370  11.00000  0.05    0.44
Q6    1   0.1356  0.6322  0.8385  11.00000  0.05    0.43
Q7    1   0.3334  0.5674  0.6657  11.00000  0.05    0.42
Q8    1   0.5357  0.6395  0.9599  11.00000  0.05    0.42
Q9    1   0.0531  0.2421  0.5959  11.00000  0.05    0.42
Q10   1   0.3896  0.5173  0.8986  11.00000  0.05    0.41
Q11   1   0.3874  0.6619  0.5282  11.00000  0.05    0.40
Q12   1   0.1672  0.3008  0.5029  11.00000  0.05    0.40
Q13   1   0.3231  0.4563  0.7972  11.00000  0.05    0.39
Q14   1   0.7230  0.8198  0.5218  11.00000  0.05    0.39
Q15   1   0.1715  0.8408  0.4962  11.00000  0.05    0.39
Q16   1   0.6435  0.9168  0.6154  11.00000  0.05    0.38
Q17   1   0.1178  0.5548  0.5217  11.00000  0.05    0.38
Q18   1   0.2413  0.3038  0.7234  11.00000  0.05    0.38
Q19   1   0.6834  0.5767  0.8344  11.00000  0.05    0.38
Q20   1   0.3639  0.2853  0.6578  11.00000  0.05    0.37
;
_shelx_res_checksum              36655
loop_
_space_group_symop_operation_xyz
'x, y, z'
'-x+1/2, y+1/2, -z+1/2'
'-x, -y, -z'
'x-1/2, -y-1/2, z-1/2'
loop_
_atom_site_type_symbol
_atom_site_label
_atom_site_fract_x
_atom_site_fract_y
_atom_site_fract_z
_atom_site_U_iso_or_equiv
_atom_site_adp_type
_atom_site_calc_flag
_atom_site_occupancy
Br Br1 0.58346(14) 0.79099(6) 0.59430(7) 0.0412(2) Uani d 1
Br Br2 0.34702(14) 0.57465(6) 0.80195(7) 0.0383(2) Uani d 1
C C1 0.5329(12) 0.6222(5) 0.5413(7) 0.0315(14) Uani d 1
C C2 0.4384(12) 0.5328(5) 0.6291(6) 0.0284(14) Uani d 1
C C3 0.4001(12) 0.4113(5) 0.5855(7) 0.0305(14) Uani d 1
H H3 0.328780 0.351531 0.641771 0.037 Uiso calc 1
loop_
_atom_site_aniso_label
_atom_site_aniso_U_11
_atom_site_aniso_U_22
_atom_site_aniso_U_33
_atom_site_aniso_U_12
_atom_site_aniso_U_13
_atom_site_aniso_U_23
Br1 0.0587(4) 0.0267(5) 0.0392(6) -0.0037(3) 0.0116(3) -0.0034(2)
Br2 0.0506(3) 0.0382(5) 0.0286(5) 0.0014(3) 0.0140(3) -0.0026(2)
C1 0.026(2) 0.022(5) 0.045(6) 0.003(2) 0.001(3) -0.004(2)
C2 0.028(3) 0.037(5) 0.022(6) 0.004(3) 0.009(3) -0.002(2)
C3 0.033(3) 0.020(5) 0.041(6) -0.004(3) 0.014(3) 0.005(2)
loop_
_atom_type_symbol
_atom_type_description
_atom_type_scat_dispersion_real
_atom_type_scat_dispersion_imag
_atom_type_scat_source
Br Br 0.1811 1.6452 'International Tables Vol C Tables 4.2.6.8 and 6.1.1.4'
C C 0.0015 0.0009 'International Tables Vol C Tables 4.2.6.8 and 6.1.1.4'
H H 0.0000 0.0000 'International Tables Vol C Tables 4.2.6.8 and 6.1.1.4'
loop_
_geom_angle_atom_site_label_1
_geom_angle_atom_site_label_2
_geom_angle_atom_site_label_3
_geom_angle_site_symmetry_1
_geom_angle_site_symmetry_3
_geom_angle
C3 C1 C2 3_666 . 120.5(6)
C3 C1 Br1 3_666 . 118.5(4)
C2 C1 Br1 . . 121.1(5)
C3 C2 C1 . . 119.0(6)
C3 C2 Br2 . . 119.3(4)
C1 C2 Br2 . . 121.7(5)
C2 C3 C1 . 3_666 120.4(5)
C2 C3 H3 . . 119.8
C1 C3 H3 3_666 . 119.8
loop_
_geom_bond_atom_site_label_1
_geom_bond_atom_site_label_2
_geom_bond_site_symmetry_2
_geom_bond_distance
Br1 C1 . 1.895(6)
Br2 C2 . 1.875(6)
C1 C3 3_666 1.382(8)
C1 C2 . 1.395(7)
C2 C3 . 1.379(7)
C3 H3 . 0.9300
loop_
_geom_torsion_atom_site_label_1
_geom_torsion_atom_site_label_2
_geom_torsion_atom_site_label_3
_geom_torsion_atom_site_label_4
_geom_torsion_site_symmetry_1
_geom_torsion_site_symmetry_4
_geom_torsion
C3 C1 C2 C3 3_666 . -2.4(9)
Br1 C1 C2 C3 . . 179.1(4)
C3 C1 C2 Br2 3_666 . 179.8(4)
Br1 C1 C2 Br2 . . 1.4(6)
C1 C2 C3 C1 . 3_666 2.4(9)
Br2 C2 C3 C1 . 3_666 -179.7(4)

_cod_database_fobs_code 2242442
