#------------------------------------------------------------------------------
#$Date: 2018-08-25 05:17:25 +0300 (Sat, 25 Aug 2018) $
#$Revision: 210130 $
#$URL: file:///home/coder/svn-repositories/cod/cif/2/24/26/2242600.cif $
#------------------------------------------------------------------------------
#
# This file is available in the Crystallography Open Database (COD),
# http://www.crystallography.net/. The original data for this entry
# were provided by IUCr Journals, http://journals.iucr.org/.
#
# The file may be used within the scientific community so long as
# proper attribution is given to the journal article from which the
# data were obtained.
#
data_2242600
loop_
_publ_author_name
'F\'abry, Jan'
_publ_section_title
;
 A resonance-assisted intramolecular hydrogen bond in compounds containing
 2-hydroxy-3,5-dinitrobenzoic acid and its various deprotonated forms:
 redetermination of several related structures
;
_journal_coeditor_code           SU5452
_journal_issue                   9
_journal_name_full               'Acta Crystallographica Section E'
_journal_page_first              1344
_journal_page_last               1357
_journal_paper_doi               10.1107/S2056989018011544
_journal_volume                  74
_journal_year                    2018
_chemical_formula_iupac          'C5 H9 N2 +, C7 H3 N2 O7 -'
_chemical_formula_moiety         'C5 H9 N2 +, C7 H3 N2 O7 -'
_chemical_formula_sum            'C12 H12 N4 O7'
_chemical_formula_weight         324.26
_chemical_name_systematic
;
3,5-Dimethylpyrazolium 3,5-dinitrosalicylate
;
_space_group_IT_number           4
_symmetry_cell_setting           monoclinic
_symmetry_space_group_name_Hall  'P 2yb'
_symmetry_space_group_name_H-M   'P 1 21 1'
_atom_sites_solution_hydrogens   difmap
_atom_sites_solution_primary     direct
_atom_sites_solution_secondary   difmap
_audit_creation_method           SHELXL-97
_cell_angle_alpha                90.00
_cell_angle_beta                 91.9040(10)
_cell_angle_gamma                90.00
_cell_formula_units_Z            2
_cell_length_a                   8.1183(7)
_cell_length_b                   6.0636(5)
_cell_length_c                   14.1453(11)
_cell_measurement_reflns_used    1025
_cell_measurement_temperature    293(2)
_cell_measurement_theta_max      22.584
_cell_measurement_theta_min      2.506
_cell_volume                     695.93(10)
_computing_cell_refinement
;
SAINT (Bruker, 2002)
;
_computing_data_collection
;
SMART (Bruker, 2002)
;
_computing_data_reduction
;
SAINT (Bruker, 2002)
;
_computing_structure_refinement
;
JANA2006 (Petricek, 2014)
;
_computing_structure_solution
;
SHELXS-97 (Sheldrick, 2008)
;
_diffrn_ambient_temperature      293(2)
_diffrn_measured_fraction_theta_full 0.996
_diffrn_measured_fraction_theta_max 0.996
_diffrn_measurement_device_type  'Bruker SMART CCD'
_diffrn_measurement_method       \w
_diffrn_radiation_monochromator  graphite
_diffrn_radiation_source         'fine-focus sealed tube'
_diffrn_radiation_type           MoK\a
_diffrn_radiation_wavelength     0.71073
_diffrn_reflns_av_R_equivalents  0.0397
_diffrn_reflns_av_sigmaI/netI    0.0575
_diffrn_reflns_limit_h_max       9
_diffrn_reflns_limit_h_min       -9
_diffrn_reflns_limit_k_max       7
_diffrn_reflns_limit_k_min       -7
_diffrn_reflns_limit_l_max       12
_diffrn_reflns_limit_l_min       -16
_diffrn_reflns_number            3523
_diffrn_reflns_theta_full        25.02
_diffrn_reflns_theta_max         25.02
_diffrn_reflns_theta_min         2.51
_diffrn_standards_decay_%        0
_exptl_absorpt_coefficient_mu    0.130
_exptl_absorpt_correction_T_max  0.986
_exptl_absorpt_correction_T_min  0.959
_exptl_absorpt_correction_type   multi-scan
_exptl_absorpt_process_details
;
(SADABS; Bruker, 2002)
;
_exptl_crystal_colour            colorless
_exptl_crystal_density_diffrn    1.547
_exptl_crystal_density_method    'not measured'
_exptl_crystal_description       block
_exptl_crystal_F_000             336
_exptl_crystal_size_max          0.40
_exptl_crystal_size_mid          0.27
_exptl_crystal_size_min          0.11
_refine_diff_density_max         0.11
_refine_diff_density_min         -0.10
_refine_ls_abs_structure_details
'  955 of Friedel pairs used in the refinement'
_refine_ls_abs_structure_Flack   0.5
_refine_ls_extinction_coef       31E2(4)
_refine_ls_extinction_method
;
B-C type 1 Lorentzian isotropic (Becker & Coppens, 1974)
;
_refine_ls_goodness_of_fit_ref   1.16
_refine_ls_hydrogen_treatment    mixed
_refine_ls_matrix_type           full
_refine_ls_number_constraints    37
_refine_ls_number_parameters     212
_refine_ls_number_reflns         2301
_refine_ls_number_restraints     0
_refine_ls_R_factor_all          0.0664
_refine_ls_R_factor_gt           0.0413
_refine_ls_shift/su_max          0.0331
_refine_ls_shift/su_mean         0.0055
_refine_ls_structure_factor_coef Fsqd
_refine_ls_weighting_details     w=1/(\s^2^(I)+0.0004I^2^)
_refine_ls_weighting_scheme      sigma
_refine_ls_wR_factor_gt          0.0803
_refine_ls_wR_factor_ref         0.0883
_reflns_number_gt                1444
_reflns_number_total             2301
_reflns_threshold_expression     I>3\s(I)
_iucr_refine_instructions_details
;
#m40
   38    0    0    1
 1.018938 0.000000 0.000000 0.000000 0.000000 0.500000      100000
 0.000000 0.000000                                          00
 0.000000 0.000000 0.000000 0.000000 0.000000 0.000000      000000
 0.314756 0.000000 0.000000 0.000000 0.000000 0.000000      100000
N1        3  2     1.000000 0.226164 0.716408 0.233830
 0.050161 0.048746 0.039923 0.000614-0.002707-0.003401      0111111111
H1_puv    2  1     0.000000 0.286737 0.851363 0.224758
 0.055950 0.000000 0.000000 0.000000 0.000000 0.000000      0000000000
N2        3  2     1.000000 0.220285 0.619630 0.319838
 0.049724 0.051070 0.042236-0.004550-0.004686-0.006616      0111111111
H2_puv    2  1     0.000000 0.258692 0.707216 0.373414
 0.057105 0.000000 0.000000 0.000000 0.000000 0.000000      0000000000
C6        1  2     1.000000 0.351936 0.722591 0.552491
 0.039311 0.046995 0.037420-0.001587 0.005314-0.002741      0111111111
N3        3  2     1.000000 0.217886 1.315772 0.770496
 0.049960 0.043049 0.059920-0.000254 0.004775-0.003143      0111111111
N4        3  2     1.000000 0.555193 0.711988 0.891318
 0.065353 0.045735 0.038721 0.001467-0.003666 0.004159      0111111111
O1        4  2     1.000000 0.541708 0.528471 0.702394
 0.056390 0.041369 0.040657 0.009100-0.002709-0.007174      0111111111
O2        4  2     1.000000 0.426608 0.535702 0.538112
 0.070400 0.062559 0.041408 0.020466-0.003597-0.015556      0111111111
H2a_puv   2  1     0.000000 0.510017 0.483201 0.620308
 0.152309 0.000000 0.000000 0.000000 0.000000 0.000000      0000000000
O3        4  2     1.000000 0.265656 0.810019 0.490064
 0.058118 0.059962 0.033297 0.004976-0.008307 0.001321      0111111111
O4        4  2     1.000000 0.141498 1.401307 0.704190
 0.070293 0.052139 0.072053 0.018499-0.014073 0.003104      0111111111
O5        4  2     1.000000 0.227024 1.396824 0.850254
 0.091747 0.059315 0.061679 0.007152 0.004761-0.018666      0111111111
O6        4  2     1.000000 0.526324 0.783893 0.969604
 0.148045 0.074561 0.032639 0.034754-0.006915-0.003186      0111111111
O7        4  2     1.000000 0.654933 0.566401 0.879796
 0.092289 0.071849 0.050962 0.030819-0.008324 0.009009      0111111111
C1        1  2     1.000000 0.130000 0.643063 0.068534
 0.085703 0.095702 0.046554-0.013666-0.009424-0.007386      0111111111
H1a       2  1     1.000000 0.132119 0.800298 0.060733
 0.114366 0.000000 0.000000 0.000000 0.000000 0.000000      0000000000
H1b       2  1     1.000000 0.027525 0.586015 0.043068
 0.114366 0.000000 0.000000 0.000000 0.000000 0.000000      0000000000
H1c       2  1     1.000000 0.219699 0.578396 0.035744
 0.114366 0.000000 0.000000 0.000000 0.000000 0.000000      0000000000
C2        1  2     1.000000 0.146587 0.587780 0.171336
 0.042542 0.054414 0.043416 0.005228-0.004633-0.009222      0111111111
C3        1  2     1.000000 0.089165 0.405790 0.218743
 0.048740 0.056853 0.059603-0.004438-0.007520-0.022282      0111111111
H3        2  1     1.000000 0.029651 0.288588 0.192446
 0.066326 0.000000 0.000000 0.000000 0.000000 0.000000      0000000000
C4        1  2     1.000000 0.137339 0.431298 0.313286
 0.038755 0.044172 0.061597 0.002738 0.003739-0.002862      0111111111
C5        1  2     1.000000 0.109282 0.289633 0.396558
 0.066352 0.059662 0.074283 0.000185-0.002313 0.012397      0111111111
H5a       2  1     1.000000 0.025142 0.183251 0.380914
 0.100303 0.000000 0.000000 0.000000 0.000000 0.000000      0000000000
H5b       2  1     1.000000 0.209640 0.214551 0.414477
 0.100303 0.000000 0.000000 0.000000 0.000000 0.000000      0000000000
H5c       2  1     1.000000 0.074882 0.379302 0.448238
 0.100303 0.000000 0.000000 0.000000 0.000000 0.000000      0000000000
C12       1  2     1.000000 0.469081 0.710185 0.719629
 0.035135 0.040630 0.036018-0.007914 0.002481 0.001009      0111111111
C7        1  2     1.000000 0.373577 0.823273 0.647733
 0.034160 0.038550 0.031581-0.005213 0.000447 0.003114      0111111111
C8        1  2     1.000000 0.297194 1.018142 0.664095
 0.041092 0.037737 0.034859-0.003155-0.003556 0.003948      0111111111
H8        2  1     1.000000 0.239805 1.089516 0.615013
 0.045604 0.000000 0.000000 0.000000 0.000000 0.000000      0000000000
C9        1  2     1.000000 0.304393 1.110850 0.753406
 0.040799 0.031992 0.041573-0.004453 0.002014-0.001528      0111111111
C10       1  2     1.000000 0.390199 1.009056 0.827447
 0.049032 0.039263 0.032503-0.003792 0.002003-0.001690      0111111111
H10       2  1     1.000000 0.393751 1.071121 0.887603
 0.048302 0.000000 0.000000 0.000000 0.000000 0.000000      0000000000
C11       1  2     1.000000 0.470390 0.813295 0.809962
 0.041903 0.040597 0.031210-0.003753-0.002463 0.004905      0111111111
H2a       2  1     0.000000 0.507422 0.484844 0.619539
 0.145283 0.000000 0.000000 0.000000 0.000000 0.000000      0000100000
H1        2  1     0.000000 0.310817 0.836552 0.221883
 0.129805 0.000000 0.000000 0.000000 0.000000 0.000000      0000100000
H2        2  1     0.000000 0.261357 0.712241 0.377077
 0.062926 0.000000 0.000000 0.000000 0.000000 0.000000      0000100000
----------------------------   s.u. block   ----------------------------
 0.002467 0.000000 0.000000 0.000000 0.000000 0.000000
 0.000000 0.000000
 0.000000 0.000000 0.000000 0.000000 0.000000 0.000000
 0.040601 0.000000 0.000000 0.000000 0.000000 0.000000
N1                 0.000000 0.000382 0.000518 0.000207
 0.001838 0.002033 0.001751 0.001503 0.001360 0.001487
H1_puv             0.000000 0.000000 0.000000 0.000000
 0.000000 0.000000 0.000000 0.000000 0.000000 0.000000
N2                 0.000000 0.000347 0.000541 0.000218
 0.001902 0.002174 0.001796 0.001716 0.001434 0.001718
H2_puv             0.000000 0.000000 0.000000 0.000000
 0.000000 0.000000 0.000000 0.000000 0.000000 0.000000
C6                 0.000000 0.000404 0.000594 0.000232
 0.001913 0.002419 0.002046 0.001814 0.001638 0.001782
N3                 0.000000 0.000342 0.000516 0.000224
 0.001854 0.002066 0.002093 0.001697 0.001570 0.001849
N4                 0.000000 0.000394 0.000508 0.000210
 0.002124 0.002158 0.001904 0.001686 0.001576 0.001555
O1                 0.000000 0.000263 0.000403 0.000162
 0.001546 0.001502 0.001364 0.001307 0.001096 0.001161
O2                 0.000000 0.000298 0.000422 0.000154
 0.001711 0.001814 0.001448 0.001530 0.001197 0.001388
H2a_puv            0.000000 0.000000 0.000000 0.000000
 0.000000 0.000000 0.000000 0.000000 0.000000 0.000000
O3                 0.000000 0.000261 0.000409 0.000143
 0.001429 0.001660 0.001259 0.001389 0.001094 0.001227
O4                 0.000000 0.000303 0.000424 0.000181
 0.001744 0.001740 0.001764 0.001495 0.001410 0.001495
O5                 0.000000 0.000325 0.000440 0.000180
 0.002121 0.001874 0.001729 0.001648 0.001442 0.001536
O6                 0.000000 0.000387 0.000500 0.000165
 0.002663 0.002034 0.001555 0.002131 0.001536 0.001510
O7                 0.000000 0.000355 0.000483 0.000169
 0.002095 0.002296 0.001616 0.001898 0.001416 0.001553
C1                 0.000000 0.000480 0.000776 0.000239
 0.003385 0.003789 0.002326 0.002771 0.002185 0.002476
H1a                0.000000-0.100000-0.100000-0.100000
 0.000000 0.000000 0.000000 0.000000 0.000000 0.000000
H1b                0.000000-0.100000-0.100000-0.100000
 0.000000 0.000000 0.000000 0.000000 0.000000 0.000000
H1c                0.000000-0.100000-0.100000-0.100000
 0.000000 0.000000 0.000000 0.000000 0.000000 0.000000
C2                 0.000000 0.000405 0.000629 0.000230
 0.002098 0.002714 0.001944 0.002003 0.001707 0.001987
C3                 0.000000 0.000406 0.000663 0.000250
 0.002287 0.002767 0.002400 0.002171 0.001830 0.002273
H3                 0.000000-0.100000-0.100000-0.100000
 0.000000 0.000000 0.000000 0.000000 0.000000 0.000000
C4                 0.000000 0.000407 0.000616 0.000249
 0.002033 0.002338 0.002500 0.001869 0.001736 0.002064
C5                 0.000000 0.000457 0.000691 0.000259
 0.002743 0.002845 0.002738 0.002367 0.002054 0.002454
H5a                0.000000-0.100000-0.100000-0.100000
 0.000000 0.000000 0.000000 0.000000 0.000000 0.000000
H5b                0.000000-0.100000-0.100000-0.100000
 0.000000 0.000000 0.000000 0.000000 0.000000 0.000000
H5c                0.000000-0.100000-0.100000-0.100000
 0.000000 0.000000 0.000000 0.000000 0.000000 0.000000
C12                0.000000 0.000388 0.000556 0.000219
 0.001898 0.002361 0.001961 0.001759 0.001502 0.001705
C7                 0.000000 0.000339 0.000566 0.000200
 0.001712 0.002063 0.001698 0.001737 0.001348 0.001649
C8                 0.000000 0.000364 0.000571 0.000204
 0.002028 0.002079 0.001926 0.001765 0.001472 0.001679
H8                 0.000000-0.100000-0.100000-0.100000
 0.000000 0.000000 0.000000 0.000000 0.000000 0.000000
C9                 0.000000 0.000397 0.000573 0.000209
 0.001951 0.002007 0.001884 0.001703 0.001503 0.001689
C10                0.000000 0.000369 0.000577 0.000212
 0.002163 0.002224 0.001881 0.001830 0.001592 0.001687
H10                0.000000-0.100000-0.100000-0.100000
 0.000000 0.000000 0.000000 0.000000 0.000000 0.000000
C11                0.000000 0.000357 0.000570 0.000211
 0.001888 0.002115 0.001735 0.001877 0.001357 0.001693
H2a                0.000000 0.005471 0.009009 0.003418
 0.018755 0.000000 0.000000 0.000000 0.000000 0.000000
H1                 0.000000 0.005577 0.008813 0.003055
 0.018995 0.000000 0.000000 0.000000 0.000000 0.000000
H2                 0.000000 0.004140 0.005899 0.002426
 0.011604 0.000000 0.000000 0.000000 0.000000 0.000000
--------------------------   Saved points   ----------------------------
    0
--------------------------   Fourier maxima   --------------------------
    1    1    1
max1      1  1     1.000000 0.088990 0.040166 0.213261      000  0  0  0
     0.11     0.06
max2      1  1     1.000000 0.186566 0.008897 0.324515      000  0  0  0
     0.09     0.06
max3      1  1     1.000000 0.497073 0.226959 0.566040      000  0  0  0
     0.10     0.05
max4      1  1     1.000000 0.201164 0.142300 0.301464      000  0  0  0
     0.07     0.05
max5      1  1     1.000000 0.427859 0.011239 0.831342      000  0  0  0
     0.08     0.05
max6      1  1     1.000000 0.588018 0.304880 0.362007      000  0  0  0
     0.08     0.05
max7      1  1     1.000000 0.215906 0.030666 0.164660      000  0  0  0
     0.08     0.05
max8      1  1     1.000000 0.755645 0.103989 0.254449      000  0  0  0
     0.07     0.05
max9      1  1     1.000000 0.493065 0.037799 0.968961      000  0  0  0
     0.08     0.05
max10     1  1     1.000000 0.453003 0.036831 0.304545      000  0  0  0
     0.10     0.05
--------------------------   Fourier minima   --------------------------
    1    1    1
min1      1  1     1.000000 0.704261 0.112712 0.833050      000  0  0  0
     0.08     0.06
min2      1  1     1.000000 0.536821 0.307216 0.124665      000  0  0  0
     0.10     0.05
min3      1  1     1.000000 0.980812 0.066089 0.855156      000  0  0  0
     0.10     0.05
min4      1  1     1.000000 0.355171 0.294347 0.497269      000  0  0  0
     0.08     0.05
min5      1  1     1.000000 0.699007 0.105613 0.391794      000  0  0  0
     0.09     0.05
min6      1  1     1.000000 0.670924 0.117788 0.896520      000  0  0  0
     0.08     0.05
min7      1  1     1.000000 0.207378 0.137912 0.726257      000  0  0  0
     0.08     0.05
min8      1  1     1.000000 0.753331 0.263495 0.871988      000  0  0  0
     0.08     0.05
min9      1  1     1.000000 0.028417 0.092968 0.990540      000  0  0  0
     0.07     0.05
min10     1  1     1.000000 0.754548-0.005952 0.873498      000  0  0  0
     0.08     0.05
------------------------------------------------------------------------
#m50
Version Jana2006
title
cell 8.1183 6.0636 14.1453 90 91.904 90
esdcell 0.0007 0.0005 0.0011 0 0.001 0
spgroup P21 4 22
lattice P
symmetry x y z
symmetry -x y+1/2 -z
unitsnumb 2
chemform C12 H12 N4 O7
formtab -62
atom C atradius 0.77 color 128073041
atom H atradius 0.46 color 255204204
atom N atradius 0.74 color 176185230
atom O atradius 0.74 color 254003000
twin 2
    -1.0000     0.0000     0.0000
     0.0000    -1.0000     0.0000
     0.0000     0.0000    -1.0000
roundmethod 1
end
*******************************************************************************
contour
  plane Plane#1
  pntplane 1 C6
  pntplane 1 O2
  pntplane 1 O1
  dltplane 0.1
  scpplane 5 5 0
  shfplane 1.5 1 0
  drawatom C6 Gray 2
  drawatom O2 Red 2
  drawatom O1 Red 2
  drawatom H2a Default 2
  endplane
  plane Plane#2
    pntplane 1 N1
    pntplane 1 C2
    pntplane 1 N2
    dltplane 0.1
    scpplane 5 5 0
    shfplane 2.8 2 0
    drawatom C2 Gray 2
    drawatom N1 Blue 2
    drawatom N2 Blue 2
  endplane
end contour
dist
  angles 1 lsttype 1 dmax 1.7
  selfirst N1 H1 N2 H2 C6 N3 N4 O1 O2 O3 O4 O5 O6 O7 C1 H1a H1b H1c C2 C3
  selfirst H3 C4 C5 H5a H5b H5c C12 C7 C8 H8 C9 C10 H10 C11 H2a
  selsecnd N1 H1 N2 H2 C6 N3 N4 O1 O2 O3 O4 O5 O6 O7 C1 H1a H1b H1c C2 C3
  selsecnd H3 C4 C5 H5a H5b H5c C12 C7 C8 H8 C9 C10 H10 C11 H2a
  plane C7 C8 C9 C10 C11 C12
  plane O6 N4 O7
  plane O4 N3 O5
end dist
fourier
  maptype 6
end fourier
refine
  cycles 1000 fsquare 1 autkeys 0 skipbad 1 badref 30
  iext 1 itypex 1 idistr 2 radius 0.01
  keep hydro triang C3 2 1 C2 C4 0.93 H3
  keep ADP riding C3 1.2 H3
  keep hydro triang C8 2 1 C7 C9 0.93 H8
  keep ADP riding C8 1.2 H8
  keep hydro triang C10 2 1 C11 C9 0.93 H10
  keep ADP riding C10 1.2 H10
  keep hydro tetrahed C1 1 3 C2 0.96 H1b H1a H1c
  keep ADP riding C1 1.5 H1b H1a H1c
  keep hydro tetrahed C5 1 3 C4 0.96 H5a H5b H5c
  keep ADP riding C5 1.5 H5a H5b H5c
end refine
  distfix 0.82 0.0001 O2 H2a;
  keep hydro triang N1 2 1 C2 N2 0.86 H1
  keep hydro triang N2 2 1 C4 N1 0.86 H2
  keep ADP riding N1 1.2 H1
  keep ADP riding N2 1.2 H2
;
_cod_data_source_file            su5452sup1.cif
_cod_data_source_block           SEDKET
_cod_original_sg_symbol_H-M      'P 21'
_cod_database_code               2242600
loop_
_symmetry_equiv_pos_as_xyz
'x, y, z'
'-x, y+1/2, -z'
loop_
_atom_site_type_symbol
_atom_site_label
_atom_site_fract_x
_atom_site_fract_y
_atom_site_fract_z
_atom_site_U_iso_or_equiv
_atom_site_adp_type
_atom_site_calc_flag
_atom_site_occupancy
N N1 0.2262(4) 0.7164(5) 0.2338(2) 0.0464(11) Uani d 1
N N2 0.2203(3) 0.6196(5) 0.3198(2) 0.0478(11) Uani d 1
C C6 0.3519(4) 0.7226(6) 0.5525(2) 0.0412(12) Uani d 1
N N3 0.2179(3) 1.3158(5) 0.7705(2) 0.0509(12) Uani d 1
N N4 0.5552(4) 0.7120(5) 0.8913(2) 0.0501(12) Uani d 1
O O1 0.5417(3) 0.5285(4) 0.70239(16) 0.0462(9) Uani d 1
O O2 0.4266(3) 0.5357(4) 0.53811(15) 0.0582(10) Uani d 1
O O3 0.2657(3) 0.8100(4) 0.49006(14) 0.0507(8) Uani d 1
O O4 0.1415(3) 1.4013(4) 0.70419(18) 0.0652(10) Uani d 1
O O5 0.2270(3) 1.3968(4) 0.85025(18) 0.0709(11) Uani d 1
O O6 0.5263(4) 0.7839(5) 0.96960(17) 0.0853(12) Uani d 1
O O7 0.6549(4) 0.5664(5) 0.87980(17) 0.0719(12) Uani d 1
C C1 0.1300(5) 0.6431(8) 0.0685(2) 0.0762(19) Uani d 1
H H1a 0.132119 0.800298 0.060733 0.1144 Uiso d 1
H H1b 0.027525 0.586015 0.043068 0.1144 Uiso d 1
H H1c 0.219699 0.578396 0.035744 0.1144 Uiso d 1
C C2 0.1466(4) 0.5878(6) 0.1713(2) 0.0469(13) Uani d 1
C C3 0.0892(4) 0.4058(7) 0.2187(3) 0.0553(14) Uani d 1
H H3 0.029651 0.288588 0.192446 0.0663 Uiso d 1
C C4 0.1373(4) 0.4313(6) 0.3133(2) 0.0481(13) Uani d 1
C C5 0.1093(5) 0.2896(7) 0.3966(3) 0.0669(16) Uani d 1
H H5a 0.025142 0.183251 0.380914 0.1003 Uiso d 1
H H5b 0.20964 0.214551 0.414477 0.1003 Uiso d 1
H H5c 0.074882 0.379302 0.448238 0.1003 Uiso d 1
C C12 0.4691(4) 0.7102(6) 0.7196(2) 0.0372(12) Uani d 1
C C7 0.3736(3) 0.8233(6) 0.6477(2) 0.0348(11) Uani d 1
C C8 0.2972(4) 1.0181(6) 0.6641(2) 0.0380(12) Uani d 1
H H8 0.239805 1.089516 0.615013 0.0456 Uiso d 1
C C9 0.3044(4) 1.1108(6) 0.7534(2) 0.0381(11) Uani d 1
C C10 0.3902(4) 1.0091(6) 0.8274(2) 0.0403(12) Uani d 1
H H10 0.393751 1.071121 0.887603 0.0483 Uiso d 1
C C11 0.4704(4) 0.8133(6) 0.8100(2) 0.0380(11) Uani d 1
H H2a 0.507(5) 0.485(9) 0.620(3) 0.145(19) Uiso d 1
H H1 0.289(6) 0.878(9) 0.225(3) 0.130(19) Uiso d 1
H H2 0.258(4) 0.707(6) 0.373(2) 0.063(12) Uiso d 1
loop_
_atom_site_aniso_label
_atom_site_aniso_U_11
_atom_site_aniso_U_22
_atom_site_aniso_U_33
_atom_site_aniso_U_12
_atom_site_aniso_U_13
_atom_site_aniso_U_23
_atom_site_aniso_type_symbol
N1 0.0502(18) 0.049(2) 0.0399(18) 0.0006(15) -0.0027(14) -0.0034(15) N
N2 0.0497(19) 0.051(2) 0.0422(18) -0.0046(17) -0.0047(14) -0.0066(17) N
C6 0.0393(19) 0.047(2) 0.037(2) -0.0016(18) 0.0053(16) -0.0027(18) C
N3 0.0500(19) 0.043(2) 0.060(2) -0.0003(17) 0.0048(16) -0.0031(18) N
N4 0.065(2) 0.046(2) 0.0387(19) 0.0015(17) -0.0037(16) 0.0042(16) N
O1 0.0564(15) 0.0414(15) 0.0407(14) 0.0091(13) -0.0027(11) -0.0072(12) O
O2 0.0704(17) 0.0626(18) 0.0414(14) 0.0205(15) -0.0036(12) -0.0156(14) O
O3 0.0581(14) 0.0600(17) 0.0333(13) 0.0050(14) -0.0083(11) 0.0013(12) O
O4 0.0703(17) 0.0521(17) 0.0721(18) 0.0185(15) -0.0141(14) 0.0031(15) O
O5 0.092(2) 0.0593(19) 0.0617(17) 0.0072(16) 0.0048(14) -0.0187(15) O
O6 0.148(3) 0.075(2) 0.0326(16) 0.035(2) -0.0069(15) -0.0032(15) O
O7 0.092(2) 0.072(2) 0.0510(16) 0.0308(19) -0.0083(14) 0.0090(16) O
C1 0.086(3) 0.096(4) 0.047(2) -0.014(3) -0.009(2) -0.007(2) C
C2 0.043(2) 0.054(3) 0.0434(19) 0.005(2) -0.0046(17) -0.009(2) C
C3 0.049(2) 0.057(3) 0.060(2) -0.004(2) -0.0075(18) -0.022(2) C
C4 0.039(2) 0.044(2) 0.062(2) 0.0027(19) 0.0037(17) -0.003(2) C
C5 0.066(3) 0.060(3) 0.074(3) 0.000(2) -0.002(2) 0.012(2) C
C12 0.0351(19) 0.041(2) 0.036(2) -0.0079(18) 0.0025(15) 0.0010(17) C
C7 0.0342(17) 0.039(2) 0.0316(17) -0.0052(17) 0.0004(13) 0.0031(16) C
C8 0.041(2) 0.038(2) 0.0349(19) -0.0032(18) -0.0036(15) 0.0039(17) C
C9 0.041(2) 0.032(2) 0.0416(19) -0.0045(17) 0.0020(15) -0.0015(17) C
C10 0.049(2) 0.039(2) 0.0325(19) -0.0038(18) 0.0020(16) -0.0017(17) C
C11 0.0419(19) 0.041(2) 0.0312(17) -0.0038(19) -0.0025(14) 0.0049(17) C
loop_
_atom_type_symbol
_atom_type_scat_dispersion_real
_atom_type_scat_dispersion_imag
_atom_type_scat_source
C 0.0033 0.0016 'International Tables Vol C tables 4.2.6.8 and 6.1.1.1'
H 0.0000 0.0000 'International Tables Vol C tables 4.2.6.8 and 6.1.1.1'
N 0.0061 0.0033 'International Tables Vol C tables 4.2.6.8 and 6.1.1.1'
O 0.0106 0.0060 'International Tables Vol C tables 4.2.6.8 and 6.1.1.1'
loop_
_geom_angle_atom_site_label_1
_geom_angle_atom_site_label_2
_geom_angle_atom_site_label_3
_geom_angle
N2 N1 C2 108.2(3)
N2 N1 H1 121(2)
C2 N1 H1 131(2)
N1 N2 C4 110.1(3)
N1 N2 H2 117(2)
C4 N2 H2 132(2)
O2 C6 O3 121.3(3)
O2 C6 C7 117.2(3)
O3 C6 C7 121.5(3)
O4 N3 O5 123.2(3)
O4 N3 C9 118.1(3)
O5 N3 C9 118.7(3)
O6 N4 O7 122.1(3)
O6 N4 C11 117.8(3)
O7 N4 C11 120.1(3)
C12 O1 H2a 106(2)
C6 O2 H2a 106(2)
H1a C1 H1b 109.47
H1a C1 H1c 109.47
H1a C1 C2 109.47
H1b C1 H1c 109.47
H1b C1 C2 109.47
H1c C1 C2 109.47
N1 C2 C1 122.8(3)
N1 C2 C3 108.1(3)
C1 C2 C3 129.1(3)
C2 C3 H3 126.58
C2 C3 C4 106.8(3)
H3 C3 C4 126.58
N2 C4 C3 106.8(3)
N2 C4 C5 122.3(3)
C3 C4 C5 130.9(3)
C4 C5 H5a 109.47
C4 C5 H5b 109.47
C4 C5 H5c 109.47
H5a C5 H5b 109.47
H5a C5 H5c 109.47
H5b C5 H5c 109.47
O1 C12 C7 121.3(3)
O1 C12 C11 124.1(3)
C7 C12 C11 114.5(3)
C6 C7 C12 119.5(3)
C6 C7 C8 118.1(3)
C12 C7 C8 122.3(3)
C7 C8 H8 119.87
C7 C8 C9 120.3(3)
H8 C8 C9 119.87
N3 C9 C8 119.6(3)
N3 C9 C10 119.3(3)
C8 C9 C10 121.0(3)
C9 C10 H10 120.77
C9 C10 C11 118.5(3)
H10 C10 C11 120.77
N4 C11 C12 120.9(3)
N4 C11 C10 115.7(3)
C12 C11 C10 123.3(3)
O1 H2a O2 149(5)
loop_
_geom_bond_atom_site_label_1
_geom_bond_atom_site_label_2
_geom_bond_distance
N1 N2 1.353(4)
N1 C2 1.330(5)
N1 H1 1.11(5)
N2 C4 1.327(5)
N2 H2 0.96(3)
C6 O2 1.304(4)
C6 O3 1.229(4)
C6 C7 1.484(4)
N3 O4 1.223(4)
N3 O5 1.231(4)
N3 C9 1.452(5)
N4 O6 1.220(4)
N4 O7 1.213(4)
N4 C11 1.457(4)
O1 C12 1.277(4)
O1 H2a 1.22(5)
O2 H2a 1.34(5)
C1 H1a 0.96
C1 H1b 0.96
C1 H1c 0.96
C1 C2 1.494(5)
H1a H1b 1.5677
H1a H1c 1.5677
H1b H1c 1.5677
C2 C3 1.380(5)
C3 H3 0.93
C3 C4 1.389(5)
C4 C5 1.482(5)
C5 H5a 0.96
C5 H5b 0.96
C5 H5c 0.96
H5a H5b 1.5677
H5a H5c 1.5677
H5b H5c 1.5677
C12 C7 1.433(4)
C12 C11 1.422(4)
C7 C8 1.358(5)
C8 H8 0.93
C8 C9 1.382(4)
C9 C10 1.384(4)
C10 H10 0.93
C10 C11 1.380(5)
loop_
_geom_hbond_atom_site_label_D
_geom_hbond_atom_site_label_H
_geom_hbond_atom_site_label_A
_geom_hbond_site_symmetry_A
_geom_hbond_distance_DH
_geom_hbond_distance_HA
_geom_hbond_distance_DA
_geom_hbond_angle_DHA
C1 H1a O7 2_656 0.96 2.49 3.176(5) 128
C5 H5a O4 2_536 0.96 2.47 3.395(5) 162
C10 H10 O6 2_657 0.93 2.47 3.369(4) 164
O1 H2a O2 . 1.22(5) 1.34(5) 2.476(3) 149(5)
O2 H2a O1 . 1.34(5) 1.22(5) 2.476(3) 149(5)
N1 H1 O1 2_656 1.11(5) 1.92(5) 2.799(4) 133(3)
N1 H1 O7 2_656 1.11(5) 1.94(5) 2.850(4) 137(3)
N2 H2 O3 . 0.96(3) 1.77(3) 2.685(4) 158(3)
loop_
_refln_index_h
_refln_index_k
_refln_index_l
_refln_observed_status
_refln_F_squared_meas
_refln_F_squared_calc
1 0 0 o 2879.75 2837.24
2 0 0 o 481.01 490.00
3 0 0 o 1637.90 1509.59
4 0 0 < 0.00 0.79
5 0 0 o 23.12 23.30
6 0 0 o 12.81 14.32
7 0 0 < -0.87 0.26
8 0 0 o 20.42 18.24
9 0 0 < 12.43 17.18
1 1 0 o 379.32 397.74
1 -1 0 o 362.43 397.74
2 1 0 o 5466.29 5491.84
2 -1 0 o 5625.30 5491.79
3 1 0 o 186.81 195.11
3 -1 0 o 186.81 195.11
4 1 0 o 401.76 377.19
4 -1 0 o 410.65 377.19
5 1 0 o 10.11 8.80
5 -1 0 o 10.79 8.80
6 1 0 o 24.18 24.27
6 -1 0 o 23.60 24.27
7 1 0 o 28.99 28.33
7 -1 0 o 35.93 28.33
8 1 0 < 1.83 5.54
8 -1 0 < 4.82 5.54
9 1 0 o 32.66 38.80
9 -1 0 o 32.37 38.80
0 2 0 o 114.11 127.27
1 2 0 o 450.40 441.62
1 -2 0 o 409.57 441.62
2 2 0 < 0.96 0.60
2 -2 0 < 0.29 0.60
3 2 0 o 185.70 202.90
3 -2 0 o 174.02 202.90
4 2 0 o 304.72 289.38
4 -2 0 o 302.30 289.38
5 2 0 < 3.08 4.20
5 -2 0 < 3.18 4.20
6 2 0 o 20.13 23.29
6 -2 0 o 16.95 23.29
7 2 0 o 72.93 71.63
7 -2 0 o 60.89 71.63
8 2 0 o 26.88 30.83
8 -2 0 o 31.98 30.83
9 -2 0 o 12.91 9.38
1 3 0 o 1074.17 981.88
1 -3 0 o 1048.46 981.88
2 3 0 o 154.83 135.61
2 -3 0 o 138.24 135.61
3 3 0 o 17.92 13.18
3 -3 0 o 13.87 13.18
4 3 0 o 100.60 94.05
4 -3 0 o 103.50 94.05
5 3 0 o 10.40 10.53
5 -3 0 o 9.34 10.53
6 3 0 o 13.97 10.07
6 -3 0 < 7.42 10.07
7 3 0 < -0.19 0.78
7 -3 0 < 2.12 0.78
8 -3 0 o 24.56 25.61
0 4 0 o 284.55 265.60
1 4 0 o 685.82 663.00
1 -4 0 o 707.38 663.00
2 4 0 o 245.11 217.70
2 -4 0 o 235.37 217.69
3 4 0 o 31.40 32.30
3 -4 0 o 30.44 32.30
4 4 0 < 10.11 10.59
4 -4 0 o 7.42 10.59
5 -4 0 < 1.54 3.27
6 -4 0 < 0.48 3.56
7 -4 0 < 0.00 0.23
8 -4 0 < -1.06 0.13
1 5 0 o 59.93 64.56
1 -5 0 o 68.21 64.56
2 5 0 o 12.71 13.95
2 -5 0 o 18.40 13.95
3 -5 0 o 21.29 26.30
4 -5 0 o 15.03 15.22
5 -5 0 < 1.54 2.38
6 -5 0 o 11.75 7.74
0 6 0 < 9.63 12.72
0 -6 0 o 20.32 12.72
1 6 0 o 51.93 66.48
1 -6 0 o 64.74 66.48
2 -6 0 o 18.40 21.65
3 -6 0 < 7.22 6.42
4 -6 0 < 5.20 5.74
5 -6 0 < 5.97 5.79
1 -7 0 o 26.39 17.78
2 -7 0 < -1.06 1.06
-9 0 1 < 1.64 0.66
-8 0 1 o 18.78 10.58
-7 0 1 o 22.16 22.52
-6 0 1 < 6.74 2.76
-5 0 1 o 9.54 15.72
-4 0 1 < 3.18 1.61
-3 0 1 < 3.66 2.63
-2 0 1 o 3459.24 3388.14
-1 0 1 o 40.69 39.51
1 0 1 < 1.64 0.44
2 0 1 o 392.37 393.13
3 0 1 o 676.43 713.51
4 0 1 o 11.94 10.40
5 0 1 < 1.16 1.34
6 0 1 o 54.14 50.57
7 0 1 < 1.93 0.77
8 0 1 < 1.83 0.48
9 0 1 < 0.39 0.04
-9 1 1 < 10.98 10.79
-9 -1 1 o 12.14 10.79
-8 1 1 < 5.49 6.99
-8 -1 1 < 2.50 6.99
-7 1 1 < 0.58 3.35
-7 -1 1 < 3.95 3.35
-6 1 1 < 1.73 1.45
-6 -1 1 < 1.35 1.45
-5 1 1 o 443.45 422.05
-5 -1 1 o 449.53 422.05
-4 1 1 o 285.29 285.82
-4 -1 1 o 289.25 285.82
-3 1 1 o 928.40 950.11
-3 -1 1 o 980.28 950.12
-2 1 1 o 11063.30 11267.70
-2 -1 1 o 11442.10 11267.80
-1 1 1 o 3893.06 3959.99
-1 -1 1 o 3858.89 3960.01
0 1 1 o 273.09 299.91
0 -1 1 o 270.85 299.90
1 1 1 o 574.58 571.64
1 -1 1 o 511.25 571.65
2 1 1 o 362.06 384.60
2 -1 1 o 357.89 384.59
3 1 1 o 64.19 66.32
3 -1 1 o 57.25 66.32
4 1 1 o 187.21 195.71
4 -1 1 o 190.59 195.71
5 1 1 o 7.22 5.91
5 -1 1 o 6.45 5.91
6 1 1 o 61.18 62.39
6 -1 1 o 67.06 62.39
7 1 1 < 5.78 5.38
7 -1 1 < 4.14 5.38
8 1 1 < 8.57 5.72
8 -1 1 < 5.10 5.72
9 1 1 < 1.54 3.39
9 -1 1 < 1.83 3.39
-9 2 1 < 8.38 15.28
-9 -2 1 o 13.39 15.28
-8 2 1 < -1.54 0.28
-8 -2 1 < 2.12 0.28
-7 2 1 < 10.50 10.04
-7 -2 1 < 7.61 10.04
-6 2 1 o 67.74 81.10
-6 -2 1 o 90.09 81.10
-5 2 1 < 7.42 13.90
-5 -2 1 o 14.55 13.90
-4 2 1 o 1263.37 1167.26
-4 -2 1 o 1222.14 1167.25
-3 2 1 o 934.69 890.88
-3 -2 1 o 793.13 890.87
-2 2 1 o 643.02 630.59
-2 -2 1 o 577.92 630.59
-1 2 1 o 1753.04 1764.85
-1 -2 1 o 1629.53 1764.87
0 2 1 o 107.82 108.62
1 2 1 o 856.12 876.61
1 -2 1 o 869.54 876.62
2 2 1 o 653.23 642.17
2 -2 1 o 623.39 642.17
3 2 1 o 219.59 227.88
3 -2 1 o 212.64 227.88
4 2 1 o 64.37 64.47
4 -2 1 o 60.22 64.47
5 2 1 o 33.14 34.87
5 -2 1 o 32.08 34.87
6 2 1 o 26.39 32.69
6 -2 1 o 29.86 32.69
7 2 1 o 104.16 102.23
7 -2 1 o 97.32 102.23
8 2 1 o 105.60 113.07
8 -2 1 o 121.31 113.07
9 -2 1 o 53.47 55.58
-8 -3 1 < 2.22 7.71
-7 3 1 < 5.49 8.13
-7 -3 1 < 5.78 8.13
-6 3 1 o 58.19 57.74
-6 -3 1 o 60.89 57.74
-5 3 1 < 0.77 2.15
-5 -3 1 < 0.19 2.15
-4 3 1 o 16.47 18.62
-4 -3 1 o 18.21 18.62
-3 3 1 o 79.79 77.45
-3 -3 1 o 70.63 77.45
-2 3 1 o 207.63 189.34
-2 -3 1 o 178.99 189.34
-1 3 1 o 273.10 262.26
-1 -3 1 o 259.59 262.26
0 3 1 o 343.22 353.72
1 3 1 o 18.40 17.97
1 -3 1 o 16.47 17.97
2 3 1 o 11.08 11.67
2 -3 1 o 10.98 11.67
3 3 1 o 11.46 16.89
3 -3 1 o 9.05 16.89
4 3 1 < 4.33 4.83
4 -3 1 < 1.35 4.83
5 3 1 o 20.42 12.78
5 -3 1 o 11.08 12.78
6 3 1 < 5.49 11.26
6 -3 1 o 9.25 11.26
7 -3 1 o 51.35 52.90
8 -3 1 o 16.95 12.65
-8 -4 1 < 0.87 1.41
-7 -4 1 < 1.35 0.03
-6 4 1 < 8.77 16.44
-6 -4 1 o 16.57 16.44
-5 4 1 o 13.10 17.07
-5 -4 1 o 16.18 17.07
-4 4 1 < 8.67 11.40
-4 -4 1 o 9.92 11.40
-3 4 1 o 26.97 23.08
-3 -4 1 o 24.56 23.08
-2 4 1 o 37.96 37.57
-2 -4 1 o 32.47 37.57
-1 4 1 o 17.44 18.06
-1 -4 1 o 28.03 18.06
0 4 1 o 42.10 47.19
1 4 1 o 31.50 42.35
1 -4 1 o 41.33 42.35
2 4 1 o 9.63 10.06
2 -4 1 o 8.96 10.06
3 4 1 < 5.10 4.67
3 -4 1 < 5.78 4.67
4 -4 1 o 28.99 26.87
5 -4 1 < 3.66 6.22
6 -4 1 o 78.81 77.25
7 -4 1 o 26.10 20.87
-6 -5 1 < -0.67 0.20
-5 -5 1 < 0.96 1.87
-4 -5 1 o 16.76 21.83
-3 5 1 o 130.67 123.34
-3 -5 1 o 115.64 123.34
-2 5 1 o 29.77 34.26
-2 -5 1 o 30.54 34.26
-1 5 1 < 0.00 0.97
-1 -5 1 < -0.10 0.97
0 5 1 o 42.48 45.77
0 -5 1 o 49.04 45.77
1 5 1 < 3.37 4.21
1 -5 1 < 2.60 4.21
2 5 1 < 6.55 11.42
2 -5 1 o 17.72 11.42
3 -5 1 < 4.05 4.64
4 -5 1 < -0.39 0.43
5 -5 1 < 3.27 9.02
6 -5 1 < 1.54 1.22
-5 -6 1 o 10.11 12.19
-4 -6 1 < 3.27 0.98
-3 -6 1 o 8.77 11.79
-2 -6 1 o 43.73 42.95
-1 6 1 o 14.64 16.62
-1 -6 1 < 10.50 16.62
0 6 1 < 6.55 5.93
0 -6 1 < 10.11 5.93
1 6 1 o 33.04 35.49
1 -6 1 o 32.66 35.49
2 -6 1 < -0.96 1.01
3 -6 1 < 2.02 0.68
4 -6 1 < 2.60 1.66
5 -6 1 < 2.41 1.42
-2 -7 1 < 7.61 3.78
0 -7 1 o 35.54 27.48
1 7 1 < 9.82 9.15
1 -7 1 < 16.47 9.15
2 -7 1 < 3.08 1.08
-9 0 2 < 1.93 2.11
-8 0 2 < 10.60 5.51
-7 0 2 o 52.31 44.80
-6 0 2 o 38.83 50.94
-5 0 2 o 148.95 161.61
-4 0 2 o 20.33 15.73
-3 0 2 o 2080.59 2108.51
-2 0 2 o 26.59 23.57
-1 0 2 < -0.10 0.38
0 0 2 o 3822.77 3702.78
1 0 2 o 844.49 835.26
2 0 2 o 1924.53 1971.60
3 0 2 o 5.11 5.79
4 0 2 o 203.04 197.85
5 0 2 o 208.48 204.43
6 0 2 < 3.08 1.48
7 0 2 < 0.58 0.05
8 0 2 < 2.99 4.40
9 0 2 < 5.20 7.37
-9 1 2 < 6.45 3.03
-9 -1 2 < 0.67 3.03
-8 1 2 < 3.66 1.70
-8 -1 2 < -0.48 1.70
-7 1 2 < 3.66 2.52
-7 -1 2 < 1.64 2.52
-6 1 2 o 18.30 13.39
-6 -1 2 o 16.18 13.39
-5 1 2 o 118.75 124.95
-5 -1 2 o 123.37 124.95
-4 1 2 o 748.92 754.13
-4 -1 2 o 823.66 754.13
-3 1 2 o 1130.47 1055.40
-3 -1 2 o 1107.33 1055.40
-2 1 2 o 6360.25 6539.35
-2 -1 2 o 6711.53 6539.37
-1 1 2 o 15.99 15.86
-1 -1 2 o 15.41 15.86
0 1 2 o 220.35 239.80
0 -1 2 o 226.44 239.80
1 1 2 o 2315.75 2115.04
1 -1 2 o 1906.27 2115.02
2 1 2 o 116.42 121.00
2 -1 2 o 123.46 121.00
3 1 2 o 23.41 25.98
3 -1 2 o 25.63 25.98
4 1 2 o 69.38 67.12
4 -1 2 o 71.98 67.12
5 1 2 o 50.10 55.44
5 -1 2 o 49.43 55.44
6 1 2 o 20.04 22.07
6 -1 2 o 17.53 22.07
7 1 2 o 99.92 97.39
7 -1 2 o 91.73 97.39
8 1 2 o 62.43 57.16
8 -1 2 o 55.30 57.16
9 -1 2 < 11.17 15.88
-9 2 2 < 2.60 7.44
-9 -2 2 < 5.39 7.44
-8 2 2 < 3.47 2.43
-8 -2 2 < 2.70 2.43
-7 2 2 < 8.86 12.05
-7 -2 2 o 11.75 12.05
-6 2 2 o 62.53 67.18
-6 -2 2 o 67.35 67.18
-5 2 2 o 46.24 50.63
-5 -2 2 o 44.12 50.63
-4 2 2 o 509.76 515.74
-4 -2 2 o 493.91 515.74
-3 2 2 o 238.97 222.82
-3 -2 2 o 228.64 222.82
-2 2 2 o 316.61 286.95
-2 -2 2 o 298.17 286.95
-1 2 2 o 956.94 1036.02
-1 -2 2 o 868.97 1036.03
0 2 2 o 443.93 452.61
0 -2 2 o 432.03 452.61
1 2 2 o 7.22 6.71
1 -2 2 o 8.77 6.71
2 2 2 o 206.65 190.14
2 -2 2 o 190.83 190.14
3 2 2 o 107.86 106.14
3 -2 2 o 105.74 106.14
4 2 2 o 161.97 166.87
4 -2 2 o 160.72 166.87
5 2 2 o 169.08 165.80
5 -2 2 o 156.74 165.80
6 2 2 o 36.80 38.15
6 -2 2 o 31.89 38.15
7 2 2 o 24.27 32.20
7 -2 2 o 25.53 32.20
8 -2 2 o 11.56 9.40
9 -2 2 o 16.76 17.37
-8 3 2 < 5.59 3.94
-8 -3 2 < 1.93 3.94
-7 3 2 < 6.36 6.53
-7 -3 2 < 6.36 6.53
-6 3 2 o 78.43 90.73
-6 -3 2 o 81.71 90.73
-5 3 2 < 5.78 8.25
-5 -3 2 < 9.25 8.25
-4 3 2 o 126.75 135.82
-4 -3 2 o 137.25 135.82
-3 3 2 o 583.69 516.48
-3 -3 2 o 563.02 516.48
-2 3 2 o 48.85 38.08
-2 -3 2 o 36.99 38.08
-1 3 2 o 1039.62 950.66
-1 -3 2 o 893.40 950.66
0 3 2 o 89.82 81.81
0 -3 2 o 78.16 81.80
1 3 2 o 155.94 177.04
1 -3 2 o 183.13 177.04
2 3 2 o 143.83 131.57
2 -3 2 o 141.32 131.57
3 3 2 o 68.51 67.87
3 -3 2 o 65.81 67.87
4 3 2 o 97.13 95.65
4 -3 2 o 96.46 95.65
5 -3 2 o 353.37 358.26
6 -3 2 o 95.97 98.93
7 -3 2 o 63.20 64.21
8 -3 2 < 1.83 1.63
-7 -4 2 < 0.10 2.29
-6 4 2 < 4.91 3.79
-6 -4 2 < 5.20 3.79
-5 4 2 o 67.54 71.40
-5 -4 2 o 67.63 71.40
-4 4 2 o 49.90 49.86
-4 -4 2 o 40.37 49.86
-3 4 2 o 108.89 106.03
-3 -4 2 o 97.71 106.03
-2 4 2 o 84.60 81.57
-2 -4 2 o 71.40 81.57
-1 4 2 o 76.61 83.75
-1 -4 2 o 79.30 83.75
0 4 2 o 128.29 126.72
0 -4 2 o 130.02 126.72
1 4 2 < 1.06 0.94
1 -4 2 < 0.67 0.94
2 4 2 o 6.84 5.99
2 -4 2 o 5.97 5.99
3 -4 2 o 52.99 56.33
4 -4 2 o 14.54 10.98
5 -4 2 o 58.19 59.10
6 -4 2 o 36.60 31.24
7 -4 2 o 10.21 13.33
-6 -5 2 < 0.77 0.65
-5 -5 2 o 33.91 33.42
-4 5 2 o 49.13 49.61
-4 -5 2 o 41.13 49.61
-3 5 2 o 158.84 183.62
-3 -5 2 o 145.74 183.62
-2 5 2 o 33.91 32.46
-2 -5 2 o 29.09 32.46
-1 5 2 o 39.40 39.88
-1 -5 2 o 44.60 39.88
0 5 2 < 3.37 6.28
0 -5 2 < 4.05 6.28
1 5 2 o 18.49 16.10
1 -5 2 o 18.49 16.10
2 5 2 < 3.56 3.18
2 -5 2 < 2.60 3.18
3 -5 2 o 99.15 101.67
4 -5 2 o 12.43 11.67
5 -5 2 < 1.06 3.34
6 -5 2 < 3.85 1.87
-5 -6 2 < 9.73 6.21
-4 -6 2 < 5.10 3.37
-3 -6 2 o 21.09 21.75
-2 6 2 < 4.14 13.52
-2 -6 2 < 11.46 13.52
-1 6 2 o 34.58 39.65
-1 -6 2 o 44.12 39.65
0 6 2 < 8.38 4.37
0 -6 2 < 7.90 4.37
1 6 2 o 42.00 38.79
1 -6 2 o 50.09 38.79
2 6 2 < 4.72 9.46
2 -6 2 < 14.64 9.46
3 -6 2 < 8.48 3.90
4 -6 2 o 13.39 14.58
5 -6 2 < 3.27 2.90
-2 -7 2 < 2.60 1.69
0 7 2 < 2.89 1.77
0 -7 2 < 11.27 1.77
1 7 2 < 6.45 8.52
1 -7 2 < 17.82 8.52
2 -7 2 < 11.17 4.85
-9 0 3 < 1.06 0.01
-8 0 3 < 0.48 0.51
-7 0 3 o 37.18 42.20
-6 0 3 o 9.54 9.02
-5 0 3 o 138.98 112.66
-4 0 3 < 0.87 0.32
-3 0 3 o 135.29 124.90
-2 0 3 o 554.40 569.75
-1 0 3 o 613.44 667.28
0 0 3 o 153.75 147.62
1 0 3 o 62.48 64.19
2 0 3 o 56.19 52.59
3 0 3 o 453.16 486.89
4 0 3 o 15.60 14.36
5 0 3 o 19.94 18.72
6 0 3 o 345.22 316.60
7 0 3 < 4.43 7.46
8 0 3 < 0.19 0.21
9 0 3 < -0.39 0.01
-9 1 3 < 7.99 5.75
-9 -1 3 < 5.10 5.75
-8 1 3 < 8.28 10.08
-8 -1 3 < 11.27 10.08
-7 1 3 o 21.77 23.60
-7 -1 3 o 24.08 23.60
-6 1 3 o 90.67 92.79
-6 -1 3 o 106.57 92.79
-5 1 3 o 125.38 110.11
-5 -1 3 o 128.76 110.11
-4 1 3 o 13.87 9.22
-4 -1 3 o 12.23 9.22
-3 1 3 o 225.69 215.06
-3 -1 3 o 257.15 215.06
-2 1 3 o 418.03 439.78
-2 -1 3 o 456.54 439.79
-1 1 3 o 230.43 235.17
-1 -1 3 o 234.29 235.17
0 1 3 o 1736.80 1824.34
0 -1 3 o 1698.76 1824.34
1 1 3 o 168.07 175.93
1 -1 3 o 175.02 175.93
2 1 3 o 253.79 256.86
2 -1 3 o 251.67 256.86
3 1 3 o 251.33 256.46
3 -1 3 o 249.69 256.46
4 1 3 o 7.71 8.29
4 -1 3 o 8.09 8.29
5 1 3 o 76.13 86.13
5 -1 3 o 73.72 86.13
6 1 3 o 135.50 134.99
6 -1 3 o 139.26 134.99
7 1 3 o 8.96 7.51
7 -1 3 o 8.57 7.51
8 1 3 o 11.94 10.56
8 -1 3 < 9.63 10.56
9 -1 3 o 33.62 26.36
-9 2 3 < 1.93 1.84
-9 -2 3 < -0.48 1.84
-8 2 3 < 2.22 0.97
-8 -2 3 < -1.16 0.97
-7 2 3 < 10.60 11.26
-7 -2 3 o 11.46 11.26
-6 2 3 o 247.71 255.45
-6 -2 3 o 277.70 255.45
-5 2 3 o 395.07 379.92
-5 -2 3 o 432.99 379.92
-4 2 3 o 1973.31 1939.18
-4 -2 3 o 2060.88 1939.18
-3 2 3 o 363.48 337.02
-3 -2 3 o 361.94 337.02
-2 2 3 o 661.05 649.46
-2 -2 3 o 660.56 649.45
-1 2 3 o 19.17 22.89
-1 -2 3 o 20.23 22.89
0 2 3 o 23.41 22.40
0 -2 3 o 22.35 22.40
1 2 3 o 119.66 115.50
1 -2 3 o 113.87 115.50
2 2 3 o 168.87 163.40
2 -2 3 o 188.64 163.40
3 2 3 o 200.79 184.96
3 -2 3 o 194.04 184.96
4 2 3 o 173.46 181.95
4 -2 3 o 174.81 181.95
5 2 3 o 47.98 49.42
5 -2 3 o 52.51 49.42
6 2 3 o 79.87 82.85
6 -2 3 o 76.02 82.85
7 -2 3 o 63.39 59.88
8 -2 3 o 17.24 17.57
9 -2 3 < 9.34 8.82
-8 3 3 o 43.83 46.30
-8 -3 3 o 44.70 46.30
-7 3 3 o 16.76 25.41
-7 -3 3 o 21.87 25.41
-6 3 3 o 292.55 283.69
-6 -3 3 o 305.47 283.69
-5 3 3 o 101.27 97.67
-5 -3 3 o 97.61 97.67
-4 3 3 o 63.88 60.75
-4 -3 3 o 63.30 60.75
-3 3 3 o 39.50 41.27
-3 -3 3 o 40.75 41.27
-2 3 3 o 68.12 66.29
-2 -3 3 o 66.97 66.29
-1 3 3 < 6.07 11.27
-1 -3 3 o 7.13 11.27
0 3 3 o 96.47 82.17
0 -3 3 o 79.70 82.17
1 3 3 o 210.94 210.51
1 -3 3 o 206.70 210.51
2 3 3 o 10.88 10.75
2 -3 3 o 15.22 10.75
3 3 3 o 369.94 368.21
3 -3 3 o 392.72 368.21
4 -3 3 o 150.19 171.46
5 -3 3 o 209.79 228.91
6 -3 3 o 165.78 181.35
7 -3 3 o 53.85 52.33
8 -3 3 < 11.46 10.42
-7 4 3 o 24.76 26.12
-7 -4 3 o 26.59 26.12
-6 4 3 < 11.46 10.49
-6 -4 3 < 7.80 10.49
-5 4 3 o 29.57 18.82
-5 -4 3 o 11.17 18.82
-4 4 3 o 49.23 54.72
-4 -4 3 o 50.00 54.72
-3 4 3 < 2.60 2.57
-3 -4 3 < 3.66 2.57
-2 4 3 o 57.32 52.00
-2 -4 3 o 55.40 52.00
-1 4 3 o 89.61 80.97
-1 -4 3 o 74.39 80.97
0 4 3 o 34.97 33.69
0 -4 3 o 37.28 33.69
1 4 3 o 138.51 150.88
1 -4 3 o 160.59 150.88
2 4 3 < -1.44 0.76
2 -4 3 < 1.44 0.76
3 4 3 o 131.85 144.24
3 -4 3 o 136.09 144.24
4 -4 3 o 96.64 87.21
5 -4 3 o 108.69 111.88
6 -4 3 o 35.45 38.79
7 -4 3 o 11.46 12.22
-6 -5 3 o 9.34 5.95
-5 5 3 o 58.09 66.43
-5 -5 3 o 65.99 66.43
-4 5 3 < 12.23 17.83
-4 -5 3 o 10.50 17.83
-3 5 3 < 3.76 4.54
-3 -5 3 < 2.31 4.54
-2 5 3 < 0.19 0.66
-2 -5 3 < -1.25 0.66
-1 5 3 o 46.34 45.68
-1 -5 3 o 43.25 45.68
0 5 3 o 25.53 25.04
0 -5 3 o 24.56 25.04
1 5 3 o 14.74 16.16
1 -5 3 o 12.81 16.17
2 5 3 < -0.96 2.17
2 -5 3 < 4.24 2.17
3 5 3 < 4.43 6.32
3 -5 3 < 9.25 6.32
4 -5 3 o 26.01 22.25
5 -5 3 < 0.58 0.17
6 -5 3 < 2.02 1.80
-5 -6 3 o 17.72 18.22
-4 -6 3 < 5.39 5.25
-3 6 3 < 5.01 5.14
-3 -6 3 < 8.19 5.14
-2 6 3 < 0.10 2.23
-2 -6 3 < 2.31 2.23
-1 6 3 o 20.71 24.17
-1 -6 3 o 28.51 24.17
0 6 3 < 9.25 3.88
0 -6 3 < 3.08 3.88
1 6 3 < 14.55 21.54
2 6 3 < 14.45 16.83
2 -6 3 o 22.06 16.83
3 -6 3 o 18.11 16.29
4 -6 3 o 21.48 14.95
5 -6 3 o 17.34 14.49
-1 7 3 < 2.89 0.03
-1 -7 3 < 2.41 0.03
0 7 3 < -0.58 3.25
1 7 3 < 7.99 7.43
1 -7 3 < 14.06 7.43
-9 0 4 < 10.21 11.59
-8 0 4 o 47.59 42.93
-7 0 4 < 3.08 3.94
-6 0 4 < 0.00 0.05
-5 0 4 o 12.71 14.50
-4 0 4 < 0.96 7.22
-3 0 4 o 11.85 13.47
-2 0 4 o 770.97 726.39
-1 0 4 o 249.77 250.68
0 0 4 o 253.79 221.60
1 0 4 o 526.27 508.86
2 0 4 o 660.17 635.73
3 0 4 o 637.48 624.18
4 0 4 o 2056.02 1836.63
5 0 4 o 240.05 247.78
6 0 4 o 46.34 42.82
7 0 4 < 2.79 3.08
8 0 4 o 11.94 8.48
9 0 4 < 1.35 0.16
-9 1 4 < 3.08 2.29
-9 -1 4 < 1.54 2.29
-8 1 4 < 5.10 4.08
-8 -1 4 < 4.91 4.08
-7 1 4 < 2.89 4.51
-7 -1 4 < 3.76 4.51
-6 1 4 o 86.52 60.28
-6 -1 4 o 75.73 60.28
-5 1 4 o 214.57 230.48
-5 -1 4 o 230.09 230.48
-4 1 4 o 79.60 87.91
-4 -1 4 o 83.84 87.91
-3 1 4 o 165.11 166.26
-3 -1 4 o 185.26 166.26
-2 1 4 o 105.97 115.11
-2 -1 4 o 113.58 115.11
-1 1 4 o 43.56 43.65
-1 -1 4 o 47.51 43.65
0 1 4 o 9.54 8.56
0 -1 4 o 7.80 8.56
1 1 4 o 1399.96 1281.91
1 -1 4 o 1418.89 1281.90
2 1 4 o 1251.11 1255.76
2 -1 4 o 1203.47 1255.75
3 1 4 o 535.85 543.08
3 -1 4 o 563.71 543.09
4 1 4 o 185.35 199.94
4 -1 4 o 186.89 199.94
5 1 4 o 39.31 37.38
5 -1 4 o 38.05 37.38
6 1 4 o 6.26 6.78
6 -1 4 < 4.62 6.78
7 1 4 < 2.99 2.51
7 -1 4 < 1.06 2.51
8 1 4 < 3.76 6.02
8 -1 4 < 3.47 6.02
9 1 4 < 7.32 9.86
9 -1 4 < 11.17 9.86
-9 2 4 < 3.66 3.44
-9 -2 4 < 3.76 3.44
-8 2 4 < 4.43 2.62
-8 -2 4 < 1.83 2.62
-7 2 4 o 11.17 12.40
-7 -2 4 < 10.21 12.40
-6 2 4 < 6.84 9.29
-6 -2 4 < 2.79 9.29
-5 2 4 o 27.26 29.45
-5 -2 4 o 31.21 29.45
-4 2 4 o 412.26 428.66
-4 -2 4 o 467.88 428.66
-3 2 4 o 142.10 134.38
-3 -2 4 o 148.75 134.38
-2 2 4 o 163.46 160.69
-2 -2 4 o 168.28 160.69
-1 2 4 o 89.84 93.10
-1 -2 4 o 94.56 93.10
0 2 4 o 386.64 381.70
0 -2 4 o 347.41 381.70
1 2 4 o 289.83 247.83
1 -2 4 o 244.28 247.83
2 2 4 o 640.67 625.53
2 -2 4 o 695.73 625.53
3 2 4 o 103.42 113.64
3 -2 4 o 105.93 113.63
4 2 4 o 8.96 6.53
4 -2 4 o 8.77 6.53
5 2 4 o 51.16 46.29
5 -2 4 o 45.28 46.29
6 2 4 < 10.02 6.01
6 -2 4 < 4.43 6.01
7 2 4 o 50.29 45.09
7 -2 4 o 47.68 45.09
8 2 4 < 4.33 6.29
8 -2 4 < 4.62 6.29
-8 3 4 o 35.06 46.00
-8 -3 4 o 40.56 46.00
-7 3 4 o 26.78 32.34
-7 -3 4 o 33.62 32.34
-6 3 4 o 96.93 100.06
-6 -3 4 o 88.07 100.06
-5 3 4 o 18.88 27.21
-5 -3 4 o 28.71 27.21
-4 3 4 o 55.79 76.64
-4 -3 4 o 69.86 76.64
-3 3 4 o 14.06 16.38
-3 -3 4 o 17.15 16.38
-2 3 4 o 139.19 133.26
-2 -3 4 o 129.94 133.26
-1 3 4 o 16.38 18.08
-1 -3 4 o 14.55 18.08
0 3 4 o 50.49 60.32
0 -3 4 o 54.44 60.32
1 3 4 o 95.69 76.91
1 -3 4 o 77.09 76.91
2 3 4 o 71.11 61.71
2 -3 4 o 66.87 61.71
3 3 4 o 115.65 111.25
3 -3 4 o 111.99 111.25
4 3 4 o 129.04 122.86
4 -3 4 o 123.36 122.86
5 3 4 o 72.84 77.56
5 -3 4 o 71.20 77.56
6 -3 4 < 6.45 4.76
7 -3 4 < 2.99 6.89
8 -3 4 < 6.45 5.99
-7 4 4 o 43.73 46.21
-7 -4 4 o 50.09 46.21
-6 4 4 < 13.10 16.43
-6 -4 4 o 15.80 16.43
-5 4 4 o 68.98 84.28
-5 -4 4 o 75.05 84.28
-4 4 4 < 6.07 8.01
-4 -4 4 o 7.03 8.01
-3 4 4 o 41.91 46.49
-3 -4 4 o 47.40 46.49
-2 4 4 o 60.60 53.86
-2 -4 4 o 61.85 53.86
-1 4 4 o 56.65 44.54
-1 -4 4 o 41.43 44.54
0 4 4 < 6.26 5.39
0 -4 4 o 6.07 5.39
1 4 4 < 8.19 13.10
1 -4 4 < 7.13 13.10
2 4 4 o 28.32 35.88
2 -4 4 o 33.14 35.88
3 4 4 o 314.07 335.94
3 -4 4 o 331.05 335.94
4 -4 4 o 320.91 285.35
5 -4 4 o 93.56 102.49
6 -4 4 < 4.05 4.62
7 -4 4 < 4.62 4.01
-6 5 4 < -0.39 1.31
-6 -5 4 < 1.73 1.31
-5 5 4 < 6.84 7.56
-5 -5 4 o 9.54 7.56
-4 5 4 < 2.41 0.82
-4 -5 4 < -1.54 0.82
-3 5 4 o 59.44 61.06
-3 -5 4 o 61.46 61.06
-2 5 4 < 3.76 3.95
-2 -5 4 < 2.79 3.95
-1 5 4 o 39.01 38.77
-1 -5 4 o 38.63 38.77
0 5 4 o 23.70 18.36
0 -5 4 o 15.03 18.36
1 5 4 o 156.03 143.14
1 -5 4 o 133.09 143.14
2 5 4 o 117.95 130.96
2 -5 4 o 161.51 130.96
3 5 4 o 73.99 78.94
3 -5 4 o 72.93 78.94
4 -5 4 o 118.12 95.65
5 -5 4 < 2.50 0.33
6 -5 4 o 12.71 7.90
-4 6 4 < 6.16 4.36
-4 -6 4 < 7.99 4.36
-3 6 4 < 0.77 2.50
-3 -6 4 < 0.19 2.50
-2 6 4 < -3.85 1.18
-2 -6 4 < 0.87 1.18
-1 6 4 < 1.93 1.28
-1 -6 4 < 3.56 1.28
0 6 4 < 2.22 1.85
0 -6 4 < 3.37 1.85
1 6 4 < 12.62 12.45
1 -6 4 o 18.49 12.45
2 6 4 o 70.13 56.91
2 -6 4 o 87.57 56.91
3 6 4 o 58.67 54.97
3 -6 4 o 82.08 54.97
4 -6 4 o 40.84 34.18
0 7 4 < 6.26 3.63
-9 0 5 < 0.00 1.53
-8 0 5 < 4.91 4.66
-7 0 5 o 204.43 178.56
-6 0 5 < 0.10 4.61
-5 0 5 o 68.80 70.71
-4 0 5 < 2.02 2.38
-3 0 5 o 5.20 3.69
-2 0 5 o 142.54 142.02
-1 0 5 o 473.32 482.20
0 0 5 o 792.74 779.97
1 0 5 o 179.71 201.55
2 0 5 < 0.00 0.48
3 0 5 o 119.82 108.05
4 0 5 o 10.21 11.42
5 0 5 o 12.14 11.97
6 0 5 o 26.39 23.52
7 0 5 < 2.22 1.96
8 0 5 < 2.31 0.02
9 0 5 < 1.25 0.15
-9 1 5 < 7.71 8.56
-9 -1 5 < 6.84 8.56
-8 1 5 < -2.89 0.60
-8 -1 5 < 2.41 0.60
-7 1 5 o 35.55 30.12
-7 -1 5 o 47.10 30.12
-6 1 5 < 11.65 9.48
-6 -1 5 o 12.43 9.48
-5 1 5 o 139.29 160.73
-5 -1 5 o 175.44 160.73
-4 1 5 o 19.46 15.77
-4 -1 5 o 20.32 15.77
-3 1 5 o 19.17 24.62
-3 -1 5 o 23.99 24.62
-2 1 5 o 75.66 79.89
-2 -1 5 o 76.04 79.89
-1 1 5 o 399.40 382.11
-1 -1 5 o 363.06 382.11
0 1 5 o 179.56 178.18
0 -1 5 o 158.33 178.18
1 1 5 o 227.38 219.98
1 -1 5 o 228.25 219.98
2 1 5 o 803.79 709.97
2 -1 5 o 745.48 709.98
3 1 5 o 199.27 207.15
3 -1 5 o 224.54 207.15
4 1 5 o 166.41 172.87
4 -1 5 o 170.46 172.87
5 1 5 o 14.35 16.12
5 -1 5 o 15.70 16.12
6 1 5 < 10.21 16.66
6 -1 5 o 14.26 16.66
7 1 5 o 28.90 23.60
7 -1 5 o 24.37 23.60
8 1 5 o 18.88 17.18
8 -1 5 o 18.40 17.18
9 1 5 < 1.44 1.26
9 -1 5 < -0.87 1.26
-8 2 5 o 21.09 16.98
-8 -2 5 o 18.88 16.98
-7 2 5 < 13.68 18.30
-7 -2 5 o 19.17 18.30
-6 2 5 o 12.81 16.38
-6 -2 5 o 12.62 16.38
-5 2 5 < 10.21 4.59
-5 -2 5 < 7.80 4.59
-4 2 5 o 73.13 65.62
-4 -2 5 o 68.70 65.62
-3 2 5 o 7.90 9.89
-3 -2 5 o 11.94 9.89
-2 2 5 o 22.06 24.05
-2 -2 5 o 24.57 24.05
-1 2 5 o 8.67 7.07
-1 -2 5 o 10.21 7.07
0 2 5 o 578.17 535.31
0 -2 5 o 513.76 535.32
1 2 5 o 1357.38 1242.55
1 -2 5 o 1287.60 1242.56
2 2 5 o 697.53 616.37
2 -2 5 o 674.52 616.37
3 2 5 o 131.19 134.29
3 -2 5 o 118.95 134.29
4 2 5 o 49.13 40.17
4 -2 5 o 38.34 40.17
5 2 5 < 6.07 5.56
5 -2 5 < 4.14 5.56
6 2 5 < 15.41 16.35
6 -2 5 o 15.22 16.35
7 2 5 o 63.77 52.64
7 -2 5 o 53.85 52.64
8 2 5 < 4.62 2.59
8 -2 5 < 0.77 2.59
-8 3 5 o 26.78 33.41
-8 -3 5 o 33.81 33.41
-7 3 5 o 89.32 98.74
-7 -3 5 o 122.75 98.74
-6 3 5 o 195.37 179.28
-6 -3 5 o 193.15 179.28
-5 3 5 < 2.60 3.37
-5 -3 5 < 1.35 3.37
-4 3 5 o 34.10 26.36
-4 -3 5 o 37.18 26.36
-3 3 5 o 22.25 22.45
-3 -3 5 o 18.21 22.45
-2 3 5 o 14.74 9.78
-2 -3 5 o 10.69 9.78
-1 3 5 o 275.33 272.67
-1 -3 5 o 271.19 272.67
0 3 5 o 92.71 86.40
0 -3 5 o 88.95 86.40
1 3 5 < 3.76 7.43
1 -3 5 o 4.82 7.43
2 3 5 o 133.40 133.78
2 -3 5 o 123.47 133.78
3 3 5 o 131.27 128.85
3 -3 5 o 137.44 128.85
4 3 5 < 12.23 20.34
4 -3 5 o 18.69 20.34
5 3 5 o 187.18 169.99
5 -3 5 o 165.49 169.99
6 3 5 < 4.24 2.19
6 -3 5 < 2.12 2.19
7 -3 5 < 0.48 3.92
8 -3 5 < 6.16 2.74
-7 4 5 < 0.29 2.41
-7 -4 5 < 5.01 2.41
-6 4 5 < 6.26 8.92
-6 -4 5 < 0.29 8.92
-5 4 5 < 12.81 13.94
-5 -4 5 o 12.14 13.94
-4 4 5 < 1.54 1.54
-4 -4 5 < 1.93 1.54
-3 4 5 o 60.99 70.95
-3 -4 5 o 71.39 70.95
-2 4 5 o 37.96 40.06
-2 -4 5 o 35.74 40.06
-1 4 5 o 95.20 86.05
-1 -4 5 o 84.89 86.05
0 4 5 o 24.47 24.47
0 -4 5 o 33.52 24.48
1 4 5 o 36.70 36.72
1 -4 5 o 31.02 36.72
2 4 5 o 212.94 185.55
2 -4 5 o 199.54 185.55
3 4 5 o 342.71 273.63
3 -4 5 o 319.76 273.63
4 -4 5 o 44.51 38.39
5 -4 5 < 3.76 3.01
6 -4 5 o 29.67 28.88
7 -4 5 < 3.18 5.91
-6 5 5 < 6.65 1.73
-6 -5 5 < 3.27 1.73
-5 5 5 < 1.54 2.67
-5 -5 5 < 1.06 2.67
-4 5 5 < 8.67 12.87
-4 -5 5 o 9.82 12.87
-3 5 5 < 8.77 8.66
-3 -5 5 o 10.02 8.66
-2 5 5 < 3.95 2.19
-2 -5 5 < 2.60 2.19
-1 5 5 < 2.79 3.17
-1 -5 5 < 6.84 3.17
0 5 5 o 137.71 136.70
0 -5 5 o 145.42 136.70
1 5 5 o 274.08 237.28
1 -5 5 o 217.49 237.28
2 5 5 o 40.36 39.75
2 -5 5 o 39.88 39.75
3 5 5 o 101.65 92.73
3 -5 5 o 114.37 92.73
4 -5 5 < 2.50 2.72
5 -5 5 < 10.98 8.79
6 -5 5 < 5.59 2.58
-4 6 5 < -0.96 0.82
-4 -6 5 < 0.29 0.82
-3 6 5 < 8.28 11.07
-3 -6 5 o 10.50 11.07
-2 6 5 < 13.77 16.86
-2 -6 5 o 15.22 16.86
-1 6 5 o 83.43 80.67
-1 -6 5 o 87.58 80.67
0 6 5 o 38.72 32.37
0 -6 5 o 29.86 32.37
1 6 5 o 17.34 26.84
1 -6 5 o 26.68 26.84
2 6 5 o 113.31 108.02
3 6 5 o 75.82 77.33
3 -6 5 o 84.88 77.33
4 -6 5 < 12.91 15.35
-9 0 6 o 33.42 21.60
-8 0 6 < 11.75 11.44
-7 0 6 < -0.29 1.19
-6 0 6 < 2.02 1.87
-5 0 6 < 0.77 1.30
-4 0 6 o 8.28 7.35
-3 0 6 o 33.72 33.76
-2 0 6 o 149.56 148.93
-1 0 6 o 39.31 39.18
0 0 6 o 414.32 409.01
1 0 6 o 237.78 225.82
2 0 6 o 793.80 724.64
3 0 6 o 142.96 128.93
4 0 6 o 5.97 9.42
5 0 6 o 30.83 32.15
6 0 6 < 3.56 2.25
7 0 6 o 39.88 40.16
8 0 6 < 8.77 11.48
-9 1 6 < 4.72 9.10
-9 -1 6 < 10.88 9.10
-8 1 6 < 6.26 6.33
-8 -1 6 < 6.26 6.33
-7 1 6 < 2.70 1.18
-7 -1 6 < 0.39 1.18
-6 1 6 < 11.75 9.93
-6 -1 6 < 10.60 9.93
-5 1 6 < -1.73 0.50
-5 -1 6 < 4.91 0.50
-4 1 6 < 1.35 1.20
-4 -1 6 < -1.73 1.20
-3 1 6 o 18.88 22.63
-3 -1 6 o 23.79 22.63
-2 1 6 < 2.31 1.26
-2 -1 6 < 0.19 1.26
-1 1 6 o 920.21 908.17
-1 -1 6 o 837.37 908.17
0 1 6 o 2329.90 2154.41
0 -1 6 o 2132.51 2154.43
1 1 6 o 369.82 316.32
1 -1 6 o 322.99 316.32
2 1 6 o 586.27 508.60
2 -1 6 o 527.89 508.60
3 1 6 o 97.43 95.67
3 -1 6 o 99.75 95.67
4 1 6 o 86.44 87.89
4 -1 6 o 87.69 87.89
5 1 6 o 67.25 71.12
5 -1 6 o 79.68 71.12
6 1 6 < -0.67 1.55
6 -1 6 < 1.73 1.55
7 1 6 < 6.84 9.76
7 -1 6 o 9.82 9.76
8 1 6 < 7.42 3.21
8 -1 6 < 2.41 3.21
-8 2 6 < 6.26 9.72
-8 -2 6 < 14.16 9.72
-7 2 6 < 1.93 2.96
-7 -2 6 < -1.25 2.96
-6 2 6 < 0.58 0.67
-6 -2 6 < 0.58 0.67
-5 2 6 o 36.70 38.00
-5 -2 6 o 44.99 38.00
-4 2 6 o 56.94 56.27
-4 -2 6 o 54.43 56.27
-3 2 6 o 64.85 65.94
-3 -2 6 o 66.10 65.94
-2 2 6 o 7.42 7.93
-2 -2 6 o 7.13 7.93
-1 2 6 o 11.08 13.38
-1 -2 6 o 14.55 13.38
0 2 6 o 680.63 607.20
0 -2 6 o 602.09 607.20
1 2 6 o 266.65 241.47
1 -2 6 o 262.89 241.47
2 2 6 o 142.27 123.29
2 -2 6 o 122.32 123.29
3 2 6 o 14.64 16.17
3 -2 6 o 18.30 16.17
4 2 6 < -0.67 0.16
4 -2 6 < 0.00 0.16
5 -2 6 o 7.71 10.50
6 2 6 < 8.28 9.58
6 -2 6 o 9.63 9.58
7 2 6 < 16.47 12.24
7 -2 6 o 11.27 12.24
8 2 6 < 12.62 15.05
8 -2 6 < 10.60 15.05
-8 3 6 < 10.98 1.52
-8 -3 6 < 0.00 1.52
-7 3 6 < 8.09 8.92
-7 -3 6 o 10.02 8.92
-6 3 6 < 2.50 7.89
-6 -3 6 < 7.51 7.89
-5 3 6 o 15.60 19.32
-5 -3 6 o 18.98 19.32
-4 3 6 < 11.46 10.11
-4 -3 6 o 10.02 10.11
-3 3 6 < 9.05 13.23
-3 -3 6 o 11.75 13.23
-2 3 6 o 130.41 130.22
-2 -3 6 o 129.73 130.22
-1 3 6 o 84.61 85.33
-1 -3 6 o 90.10 85.33
0 3 6 o 62.14 53.96
0 -3 6 o 50.49 53.96
1 3 6 o 67.74 66.55
1 -3 6 o 62.92 66.55
2 3 6 o 54.63 52.38
2 -3 6 o 50.00 52.38
3 3 6 < 4.72 5.50
3 -3 6 < 5.97 5.50
4 3 6 < 1.64 0.89
4 -3 6 < -0.29 0.89
5 3 6 o 37.47 43.40
5 -3 6 o 38.73 43.40
6 3 6 < 12.33 11.98
6 -3 6 o 14.93 11.98
7 3 6 o 29.48 22.30
7 -3 6 o 23.12 22.30
-7 4 6 < 6.26 6.84
-7 -4 6 < 7.51 6.84
-6 4 6 < 10.40 14.14
-6 -4 6 o 15.70 14.14
-5 4 6 o 22.44 25.13
-5 -4 6 o 28.51 25.13
-4 4 6 < 1.35 0.86
-4 -4 6 < 2.31 0.86
-3 4 6 o 15.60 25.49
-3 -4 6 o 21.38 25.49
-2 4 6 o 34.01 36.10
-2 -4 6 o 28.71 36.10
-1 4 6 o 321.27 300.51
-1 -4 6 o 315.77 300.51
0 4 6 o 99.35 96.81
0 -4 6 o 89.61 96.81
1 4 6 < 10.60 12.66
1 -4 6 o 9.82 12.66
2 -4 6 o 30.54 34.59
3 4 6 o 83.25 87.81
3 -4 6 o 99.82 87.81
4 4 6 o 18.30 21.29
4 -4 6 o 24.08 21.29
5 -4 6 o 10.79 19.19
6 -4 6 < 7.22 5.35
7 -4 6 < 12.14 5.31
-6 5 6 < 2.22 0.05
-6 -5 6 < 1.54 0.05
-5 5 6 < 5.01 4.91
-5 -5 6 < 5.01 4.91
-4 5 6 < -0.96 2.46
-4 -5 6 < 2.60 2.46
-3 5 6 o 39.21 33.57
-3 -5 6 o 36.60 33.57
-2 5 6 o 23.89 24.19
-2 -5 6 o 23.70 24.19
-1 5 6 < 14.26 14.94
-1 -5 6 o 14.83 14.94
0 5 6 o 131.54 140.81
0 -5 6 o 154.19 140.81
1 5 6 o 836.97 761.48
1 -5 6 o 755.83 761.48
2 5 6 o 79.77 76.52
2 -5 6 o 80.16 76.52
3 5 6 < 12.43 9.54
3 -5 6 < 5.97 9.54
4 5 6 < 7.71 9.95
4 -5 6 o 22.06 9.95
5 -5 6 < -0.58 0.23
-4 6 6 < 5.01 3.96
-4 -6 6 < 7.03 3.96
-3 6 6 < 15.22 15.69
-3 -6 6 o 16.76 15.69
-2 6 6 < -1.44 0.13
-2 -6 6 < 1.83 0.13
-1 6 6 o 86.32 78.01
-1 -6 6 o 78.23 78.01
0 6 6 < 3.66 7.49
0 -6 6 < 4.62 7.49
1 6 6 < 9.54 10.23
1 -6 6 o 14.83 10.23
2 6 6 < 7.71 5.60
3 6 6 o 39.59 52.35
3 -6 6 o 59.82 52.35
4 -6 6 < 4.14 2.90
-8 0 7 < 7.51 1.15
-7 0 7 < 4.62 9.01
-6 0 7 o 20.03 11.05
-5 0 7 < 0.77 0.72
-4 0 7 o 20.23 20.36
-3 0 7 o 669.45 632.66
-2 0 7 o 1363.56 1259.27
-1 0 7 o 321.27 349.65
0 0 7 < 4.14 8.14
1 0 7 o 51.36 48.91
2 0 7 o 36.80 34.94
3 0 7 o 40.08 37.23
4 0 7 o 12.23 15.48
5 0 7 < 0.00 0.58
6 0 7 o 71.58 75.07
7 0 7 < 3.76 0.13
8 0 7 < 8.67 7.90
-8 1 7 < 2.02 4.39
-8 -1 7 < 4.62 4.39
-7 1 7 < 0.87 0.79
-7 -1 7 < 2.12 0.79
-6 1 7 o 32.27 26.43
-6 -1 7 o 25.62 26.43
-5 1 7 o 13.00 12.15
-5 -1 7 o 11.75 12.15
-4 1 7 o 60.89 64.42
-4 -1 7 o 67.44 64.42
-3 1 7 o 73.43 79.30
-3 -1 7 o 73.52 79.30
-2 1 7 o 69.38 70.85
-2 -1 7 o 74.58 70.85
-1 1 7 o 886.23 833.48
-1 -1 7 o 849.13 833.48
0 1 7 o 134.77 119.41
0 -1 7 o 126.96 119.41
1 1 7 o 122.42 114.25
1 -1 7 o 110.66 114.25
2 1 7 o 31.89 39.15
2 -1 7 o 36.90 39.15
3 1 7 o 62.05 64.89
3 -1 7 o 63.98 64.90
4 1 7 o 24.18 26.17
4 -1 7 o 29.09 26.17
5 1 7 < 4.14 3.14
5 -1 7 < 2.41 3.14
6 1 7 < 7.99 7.17
6 -1 7 o 7.13 7.17
7 1 7 o 44.99 46.91
7 -1 7 o 39.59 46.91
8 1 7 o 35.35 34.14
8 -1 7 o 32.46 34.14
-8 2 7 < 4.05 1.17
-8 -2 7 < 1.83 1.17
-7 2 7 < 11.08 6.39
-7 -2 7 < 10.11 6.39
-6 2 7 o 35.35 34.18
-6 -2 7 o 43.16 34.18
-5 -2 7 o 18.59 15.76
-4 2 7 < 1.64 2.56
-4 -2 7 < 4.14 2.56
-3 2 7 o 19.46 15.36
-3 -2 7 o 16.47 15.36
-2 2 7 o 171.91 178.25
-2 -2 7 o 169.21 178.25
-1 2 7 o 80.66 81.41
-1 -2 7 o 73.62 81.41
0 2 7 o 282.31 279.13
0 -2 7 o 237.25 279.13
1 2 7 o 207.81 195.99
1 -2 7 o 208.19 195.99
2 2 7 o 341.80 287.85
2 -2 7 o 299.64 287.85
3 2 7 o 116.51 103.72
3 -2 7 o 100.22 103.72
4 2 7 o 18.88 19.04
4 -2 7 o 20.42 19.04
5 2 7 o 24.76 26.53
5 -2 7 o 26.88 26.53
6 2 7 < -0.19 0.22
6 -2 7 < 1.93 0.22
7 2 7 o 26.68 19.57
7 -2 7 o 15.12 19.57
8 2 7 o 35.16 32.18
8 -2 7 o 38.15 32.18
-7 3 7 o 18.01 10.60
-7 -3 7 < 12.33 10.60
-6 3 7 < 2.50 3.07
-6 -3 7 < 3.27 3.07
-5 3 7 < 2.02 5.53
-5 -3 7 < 5.78 5.53
-4 3 7 o 65.99 63.53
-4 -3 7 o 57.61 63.53
-3 3 7 o 213.96 232.89
-3 -3 7 o 224.66 232.89
-2 3 7 o 434.24 427.82
-2 -3 7 o 436.55 427.82
-1 3 7 o 216.87 223.78
-1 -3 7 o 203.75 223.78
0 3 7 o 51.06 56.15
0 -3 7 o 41.43 56.15
1 3 7 o 25.82 25.35
1 -3 7 o 26.39 25.35
2 3 7 o 47.69 45.55
2 -3 7 o 39.50 45.54
3 3 7 o 32.56 36.47
3 -3 7 o 26.68 36.47
4 3 7 o 46.05 43.88
4 -3 7 o 43.25 43.88
5 3 7 o 63.78 57.83
5 -3 7 o 61.46 57.83
6 3 7 < 16.37 16.63
6 -3 7 o 17.24 16.63
7 3 7 o 64.35 53.30
7 -3 7 o 68.78 53.30
-7 4 7 < 3.27 0.97
-7 -4 7 < -2.50 0.97
-6 4 7 < 0.58 0.70
-6 -4 7 < 0.87 0.70
-5 4 7 < 3.08 3.03
-5 -4 7 < 4.91 3.03
-4 4 7 o 26.78 24.77
-4 -4 7 o 25.43 24.77
-3 4 7 o 25.24 22.59
-3 -4 7 o 27.07 22.59
-2 4 7 o 184.20 176.49
-2 -4 7 o 181.98 176.49
-1 4 7 o 359.27 316.95
-1 -4 7 o 279.99 316.95
0 4 7 o 71.10 66.96
0 -4 7 o 56.27 66.96
1 4 7 o 29.86 20.08
1 -4 7 o 19.75 20.08
2 4 7 o 18.69 21.26
2 -4 7 o 18.59 21.26
3 4 7 o 38.63 35.68
3 -4 7 o 29.09 35.68
4 4 7 < 5.88 9.06
4 -4 7 < 6.26 9.06
5 -4 7 o 21.87 15.16
6 -4 7 < 9.73 8.34
-5 5 7 < 6.65 2.08
-5 -5 7 < 2.12 2.08
-4 5 7 < 8.86 6.96
-4 -5 7 < 5.68 6.96
-3 5 7 < 6.55 7.80
-3 -5 7 < 7.51 7.80
-2 5 7 o 68.59 68.46
-2 -5 7 o 70.71 68.46
-1 5 7 o 28.80 32.07
-1 -5 7 o 37.76 32.07
0 5 7 < 12.23 10.30
0 -5 7 < 8.96 10.30
1 5 7 o 38.82 42.62
1 -5 7 o 44.31 42.62
2 5 7 < 3.37 5.72
2 -5 7 < 3.66 5.72
3 5 7 o 17.15 25.91
3 -5 7 o 30.25 25.91
4 5 7 o 34.58 31.45
4 -5 7 o 31.21 31.45
5 -5 7 < 7.42 2.62
-3 6 7 < 8.67 7.16
-3 -6 7 < 6.93 7.16
-2 6 7 o 37.76 29.09
-2 -6 7 o 27.74 29.09
-1 6 7 o 118.80 102.39
-1 -6 7 o 98.85 102.39
0 6 7 o 50.86 43.18
0 -6 7 o 42.96 43.18
1 6 7 < 16.28 11.08
1 -6 7 < 8.86 11.08
2 6 7 < 11.85 6.77
2 -6 7 < 11.94 6.77
3 6 7 < 10.69 6.21
3 -6 7 o 22.35 6.21
-8 0 8 < 2.89 0.04
-7 0 8 < 0.77 0.01
-6 0 8 o 29.09 30.79
-5 0 8 o 17.72 20.23
-4 0 8 o 100.22 101.12
-3 0 8 o 483.61 513.31
-2 0 8 o 687.18 691.70
-1 0 8 o 34.68 34.74
0 0 8 o 51.64 39.13
1 0 8 < 1.06 0.03
2 0 8 o 7.42 6.87
3 0 8 o 64.27 64.82
4 0 8 o 84.70 96.30
5 0 8 < 8.86 13.00
6 0 8 < 13.68 8.73
7 0 8 < 16.28 22.88
8 0 8 < 16.09 13.25
-8 1 8 < 14.83 12.26
-8 -1 8 o 19.55 12.26
-7 1 8 o 23.41 20.28
-7 -1 8 o 26.39 20.28
-6 1 8 < 5.97 8.29
-6 -1 8 < 6.26 8.29
-5 1 8 < 10.21 5.39
-5 -1 8 o 6.65 5.39
-4 1 8 o 166.77 179.07
-4 -1 8 o 189.71 179.07
-3 1 8 o 182.88 175.66
-3 -1 8 o 182.40 175.66
-2 1 8 o 112.57 108.56
-2 -1 8 o 94.16 108.56
-1 1 8 o 169.97 154.70
-1 -1 8 o 147.60 154.70
0 1 8 o 72.95 74.41
0 -1 8 o 81.43 74.41
1 1 8 o 459.02 440.36
1 -1 8 o 450.91 440.36
2 1 8 o 22.83 22.03
2 -1 8 o 18.69 22.03
3 1 8 < 6.84 6.59
3 -1 8 < 8.96 6.59
4 1 8 o 142.07 149.22
4 -1 8 o 164.91 149.22
5 1 8 o 194.23 188.01
5 -1 8 o 204.06 188.00
6 1 8 < 10.98 6.79
6 -1 8 < 6.94 6.79
7 1 8 < 11.27 13.45
7 -1 8 < 14.54 13.45
8 1 8 < 17.53 13.49
8 -1 8 < 14.74 13.49
-8 2 8 < 1.35 0.57
-8 -2 8 < 3.95 0.57
-7 2 8 < 2.79 5.41
-7 -2 8 < 5.10 5.41
-6 2 8 < 0.58 6.21
-6 -2 8 < 5.88 6.21
-5 2 8 o 66.76 55.83
-5 -2 8 o 59.73 55.83
-4 2 8 o 25.82 38.12
-4 -2 8 o 34.39 38.12
-3 2 8 o 46.44 49.44
-3 -2 8 o 55.49 49.44
-2 2 8 o 148.64 151.49
-2 -2 8 o 146.90 151.49
-1 2 8 o 5.39 4.12
-1 -2 8 < 3.66 4.12
0 2 8 o 263.23 258.68
0 -2 8 o 247.51 258.68
1 2 8 o 52.70 56.32
1 -2 8 o 55.78 56.32
2 2 8 o 64.55 62.86
2 -2 8 o 68.70 62.86
3 2 8 o 75.16 79.35
3 -2 8 o 71.30 79.35
4 2 8 o 20.52 23.02
4 -2 8 o 15.99 23.02
5 2 8 o 116.69 104.63
5 -2 8 o 98.19 104.63
6 2 8 o 205.20 194.96
6 -2 8 o 202.50 194.96
7 2 8 o 75.14 57.60
7 -2 8 o 58.09 57.60
-7 3 8 < 2.60 2.52
-7 -3 8 < 0.87 2.52
-6 3 8 < 0.58 0.66
-6 -3 8 < 2.02 0.66
-5 3 8 o 35.83 27.15
-5 -3 8 o 27.74 27.15
-4 3 8 o 78.71 71.65
-4 -3 8 o 71.58 71.65
-3 3 8 o 303.38 282.42
-3 -3 8 o 286.70 282.42
-2 3 8 o 43.93 46.89
-2 -3 8 o 45.09 46.89
-1 3 8 o 101.09 105.27
-1 -3 8 o 87.98 105.27
0 3 8 o 252.34 233.84
0 -3 8 o 213.00 233.84
1 3 8 o 49.42 42.39
1 -3 8 o 38.92 42.39
2 3 8 < 2.99 5.89
2 -3 8 < 8.96 5.89
3 3 8 < 0.19 1.61
3 -3 8 < 0.29 1.61
4 3 8 o 11.65 13.69
4 -3 8 o 15.89 13.69
5 3 8 o 29.19 22.05
5 -3 8 o 24.47 22.05
6 3 8 o 25.62 20.39
6 -3 8 o 20.90 20.39
7 3 8 < 11.08 9.23
7 -3 8 < 6.36 9.23
-6 4 8 < 0.48 7.15
-6 -4 8 < 6.93 7.15
-5 4 8 < 10.69 12.36
-5 -4 8 o 9.44 12.36
-4 4 8 o 113.41 117.53
-4 -4 8 o 109.75 117.53
-3 4 8 o 135.30 144.78
-3 -4 8 o 131.74 144.78
-2 4 8 o 61.37 57.33
-2 -4 8 o 55.39 57.33
-1 4 8 o 315.71 291.82
-1 -4 8 o 258.05 291.82
0 4 8 < 13.10 14.38
0 -4 8 < 10.31 14.38
1 4 8 o 20.23 27.03
1 -4 8 o 21.00 27.03
2 4 8 o 65.80 61.19
2 -4 8 o 61.37 61.19
3 4 8 o 48.65 48.32
3 -4 8 o 53.56 48.32
4 4 8 < -0.77 5.58
4 -4 8 < 4.05 5.58
5 4 8 o 27.07 16.95
5 -4 8 o 21.29 16.95
6 4 8 < 12.81 11.37
6 -4 8 o 15.41 11.37
-5 5 8 < 3.27 5.34
-5 -5 8 < 2.70 5.34
-4 5 8 < -0.77 1.84
-4 -5 8 < -0.67 1.84
-3 5 8 < 1.64 1.21
-3 -5 8 < -1.54 1.21
-2 5 8 o 32.27 26.76
-2 -5 8 o 41.71 26.76
-1 5 8 < 6.84 8.83
-1 -5 8 < 5.59 8.83
0 5 8 o 27.65 20.06
0 -5 8 o 24.47 20.06
1 5 8 o 71.87 64.62
1 -5 8 o 59.44 64.62
2 5 8 < 4.53 7.87
2 -5 8 < 10.50 7.87
3 5 8 < 1.06 4.43
3 -5 8 < 4.05 4.43
4 5 8 < 15.51 20.13
4 -5 8 o 26.49 20.13
5 -5 8 < 12.62 12.52
-2 6 8 < 7.80 5.12
-2 -6 8 < 5.78 5.12
-1 6 8 o 52.40 44.88
-1 -6 8 o 43.64 44.88
0 6 8 < 0.48 0.54
0 -6 8 < -1.73 0.54
1 6 8 < 11.46 7.89
1 -6 8 < 9.25 7.89
2 6 8 < 4.62 8.56
2 -6 8 < 11.17 8.56
-8 0 9 < 8.86 7.32
-7 0 9 o 14.83 14.75
-6 0 9 < 0.67 0.43
-5 0 9 o 18.98 27.37
-4 0 9 < 1.54 1.04
-3 0 9 o 64.94 64.65
-2 0 9 o 60.89 61.46
-1 0 9 o 253.58 251.32
0 0 9 o 30.44 31.28
1 0 9 o 9.25 12.53
2 0 9 o 45.38 48.81
3 0 9 o 229.68 232.50
4 0 9 < 5.59 9.28
5 0 9 o 14.64 12.05
6 0 9 < 0.29 1.21
7 0 9 o 35.64 35.19
-8 1 9 < 7.13 0.10
-8 -1 9 < 4.14 0.10
-7 1 9 o 21.96 19.73
-7 -1 9 o 21.48 19.73
-6 1 9 o 72.55 70.45
-6 -1 9 o 87.48 70.45
-5 1 9 o 87.68 81.31
-5 -1 9 o 98.08 81.31
-4 1 9 o 77.85 71.69
-4 -1 9 o 59.64 71.69
-3 1 9 < 0.58 1.54
-3 -1 9 < 0.96 1.54
-2 1 9 o 81.71 78.16
-2 -1 9 o 70.92 78.16
-1 1 9 o 30.34 29.28
-1 -1 9 o 27.07 29.28
0 1 9 o 50.87 48.95
0 -1 9 o 52.41 48.95
1 1 9 o 30.92 27.54
1 -1 9 o 33.43 27.54
2 1 9 o 46.73 49.22
2 -1 9 o 47.11 49.22
3 1 9 o 15.51 19.51
3 -1 9 o 13.10 19.51
4 1 9 o 99.54 100.11
4 -1 9 o 100.69 100.11
5 1 9 o 54.34 60.94
5 -1 9 o 58.77 60.94
6 1 9 o 71.87 65.80
6 -1 9 o 64.35 65.80
7 1 9 < 9.15 8.22
7 -1 9 < 11.94 8.22
-7 2 9 < 15.51 10.67
-7 -2 9 < 9.25 10.67
-6 2 9 o 43.74 52.20
-6 -2 9 o 49.03 52.20
-5 2 9 o 239.45 220.08
-5 -2 9 o 238.49 220.08
-4 2 9 o 88.55 94.41
-4 -2 9 o 92.40 94.41
-3 2 9 < 3.95 2.07
-3 -2 9 < 2.22 2.07
-2 2 9 o 33.14 30.18
-2 -2 9 o 30.73 30.18
-1 2 9 o 78.14 78.97
-1 -2 9 o 74.96 78.97
0 2 9 o 34.29 32.92
0 -2 9 o 35.55 32.92
1 2 9 o 44.03 48.27
1 -2 9 o 46.44 48.27
2 2 9 o 51.54 52.82
2 -2 9 o 56.65 52.82
3 2 9 o 49.13 51.02
3 -2 9 o 58.77 51.02
4 2 9 o 11.94 17.28
4 -2 9 o 18.49 17.28
5 2 9 o 17.82 13.38
5 -2 9 o 19.65 13.38
6 2 9 o 99.62 82.65
6 -2 9 o 81.03 82.65
7 2 9 o 39.98 29.92
7 -2 9 o 31.50 29.92
-7 3 9 < 1.64 0.55
-7 -3 9 < 1.93 0.55
-6 3 9 < 11.85 6.65
-6 -3 9 < 8.48 6.65
-5 3 9 o 98.37 92.02
-5 -3 9 o 105.98 92.02
-4 3 9 o 178.69 176.97
-4 -3 9 o 188.62 176.97
-3 3 9 o 332.03 308.42
-3 -3 9 o 329.33 308.42
-2 3 9 o 14.26 17.04
-1 3 9 o 37.86 36.71
-1 -3 9 o 25.14 36.71
0 3 9 < 0.58 0.92
0 -3 9 < -0.39 0.92
1 3 9 o 29.48 30.99
1 -3 9 o 26.59 30.99
2 3 9 o 13.10 14.36
2 -3 9 o 14.45 14.36
3 3 9 o 68.02 59.08
3 -3 9 o 52.79 59.08
4 3 9 o 35.16 40.97
4 -3 9 o 41.33 40.97
5 3 9 o 21.48 33.02
5 -3 9 o 39.11 33.02
6 3 9 < 9.25 2.79
6 -3 9 < 5.59 2.79
-6 4 9 < 10.02 9.24
-6 -4 9 o 10.02 9.24
-5 4 9 < 4.05 2.33
-5 -4 9 < -0.29 2.33
-4 4 9 < 11.94 11.11
-4 -4 9 o 12.23 11.11
-3 4 9 < 15.89 16.38
-3 -4 9 o 14.45 16.38
-2 4 9 < 10.31 6.59
-2 -4 9 < 6.94 6.59
-1 4 9 o 25.43 30.23
-1 -4 9 o 25.53 30.23
0 4 9 < 2.70 3.37
0 -4 9 < 5.10 3.37
1 4 9 o 17.24 16.62
1 -4 9 o 18.01 16.62
2 4 9 o 16.37 15.81
2 -4 9 o 14.74 15.81
3 4 9 o 23.89 28.72
3 -4 9 o 24.56 28.72
4 4 9 < -0.96 2.41
4 -4 9 < 10.50 2.41
5 4 9 < 1.93 0.48
5 -4 9 < 1.06 0.48
-4 5 9 < 8.48 4.53
-4 -5 9 < 4.72 4.53
-3 5 9 < -1.54 0.32
-3 -5 9 < 0.77 0.32
-2 5 9 < 4.33 1.69
-2 -5 9 < 1.44 1.69
-1 5 9 o 20.61 22.24
-1 -5 9 o 18.01 22.24
0 5 9 < 0.58 1.05
0 -5 9 < 0.39 1.05
1 5 9 o 19.94 17.23
1 -5 9 o 20.90 17.23
2 5 9 < 8.96 1.48
2 -5 9 < 3.76 1.48
3 5 9 o 23.60 18.87
3 -5 9 o 24.27 18.87
4 5 9 < 6.45 4.45
4 -5 9 < 11.08 4.45
-1 6 9 < 9.05 5.60
-1 -6 9 < 4.53 5.60
0 6 9 < 2.22 6.29
0 -6 9 < 4.82 6.29
1 6 9 < 3.08 5.21
1 -6 9 < 3.27 5.21
-7 0 10 < 16.28 9.55
-6 0 10 < -1.93 0.20
-5 0 10 < 1.25 0.77
-4 0 10 o 31.79 21.50
-3 0 10 < 0.87 1.64
-2 0 10 o 6.55 2.92
-1 0 10 o 52.60 48.32
0 0 10 < -0.39 1.53
1 0 10 o 13.87 14.07
2 0 10 o 394.84 378.92
3 0 10 o 547.31 495.13
4 0 10 o 111.49 119.85
5 0 10 o 99.34 106.29
6 0 10 < 8.09 12.64
7 0 10 < 8.67 6.08
-7 1 10 o 32.08 32.46
-7 -1 10 o 36.41 32.46
-6 1 10 < 6.65 4.41
-6 -1 10 < 2.22 4.41
-5 1 10 o 21.77 19.44
-5 -1 10 o 18.59 19.44
-4 1 10 o 37.86 41.45
-4 -1 10 o 35.16 41.46
-3 1 10 o 57.91 75.22
-3 -1 10 o 70.53 75.22
-2 1 10 o 54.05 48.64
-2 -1 10 o 45.86 48.64
-1 1 10 < 5.88 6.95
-1 -1 10 o 7.61 6.95
0 1 10 o 14.06 13.93
0 -1 10 < 8.57 13.93
1 1 10 o 9.82 7.93
1 -1 10 o 16.28 7.93
2 1 10 o 42.29 45.29
2 -1 10 o 45.47 45.29
3 1 10 o 185.16 165.90
3 -1 10 o 167.62 165.90
4 1 10 o 215.17 224.46
4 -1 10 o 216.04 224.47
5 1 10 o 231.25 219.12
5 -1 10 o 202.23 219.12
6 1 10 < 12.81 15.77
6 -1 10 o 18.78 15.77
7 1 10 < 6.45 4.28
7 -1 10 < 8.76 4.28
-7 2 10 o 74.85 63.84
-7 -2 10 o 65.41 63.84
-6 2 10 o 61.65 53.61
-6 -2 10 o 62.91 53.61
-5 2 10 o 119.39 114.92
-5 -2 10 o 140.59 114.92
-4 2 10 < 6.65 5.78
-4 -2 10 < 5.10 5.78
-3 2 10 o 40.27 44.54
-3 -2 10 o 42.58 44.54
-2 2 10 o 20.42 20.42
-2 -2 10 o 19.84 20.42
-1 2 10 o 19.36 23.29
-1 -2 10 o 22.73 23.29
0 2 10 o 11.94 15.04
0 -2 10 < 6.74 15.04
1 2 10 o 67.73 69.78
1 -2 10 o 60.60 69.78
2 2 10 o 74.28 73.67
2 -2 10 o 85.75 73.67
3 2 10 o 78.14 79.50
3 -2 10 o 65.71 79.50
4 2 10 o 49.61 57.06
4 -2 10 o 58.48 57.05
5 2 10 o 27.74 32.87
5 -2 10 o 34.29 32.87
6 2 10 o 47.10 35.45
6 -2 10 o 36.51 35.45
7 2 10 < 10.11 14.68
7 -2 10 < 5.49 14.68
-6 3 10 o 27.93 20.68
-6 -3 10 o 22.15 20.68
-5 3 10 < 2.60 7.08
-5 -3 10 < 6.94 7.08
-4 3 10 < 2.89 2.44
-4 -3 10 < 2.79 2.44
-3 3 10 o 58.19 57.31
-3 -3 10 o 50.87 57.31
-2 3 10 o 31.11 27.32
-2 -3 10 o 22.25 27.32
-1 3 10 o 73.32 66.38
-1 -3 10 o 60.60 66.38
0 3 10 o 21.29 20.64
0 -3 10 o 20.61 20.64
1 3 10 o 36.70 30.02
1 -3 10 o 38.92 30.02
2 3 10 < 2.31 6.53
2 -3 10 < -0.29 6.53
3 3 10 o 42.19 46.96
3 -3 10 o 52.60 46.96
4 3 10 o 66.96 65.15
4 -3 10 o 65.22 65.15
5 3 10 < 5.01 2.45
5 -3 10 < 4.05 2.45
6 3 10 < -0.87 1.65
6 -3 10 < 1.44 1.65
-5 4 10 < 3.08 5.58
-5 -4 10 < 10.98 5.58
-4 4 10 o 23.41 17.96
-4 -4 10 o 19.55 17.96
-3 4 10 < 4.53 12.95
-3 -4 10 < 14.06 12.95
-2 4 10 o 51.64 51.86
-2 -4 10 o 37.28 51.86
-1 4 10 o 23.50 19.06
-1 -4 10 o 14.45 19.06
0 4 10 < 2.70 1.34
0 -4 10 < 2.12 1.34
1 4 10 o 18.11 17.13
1 -4 10 o 17.82 17.13
2 4 10 o 26.20 29.35
2 -4 10 o 31.60 29.35
3 4 10 o 33.23 30.78
3 -4 10 o 43.15 30.78
4 4 10 o 36.22 37.04
4 -4 10 o 41.04 37.04
5 4 10 < 2.02 0.10
5 -4 10 < 0.39 0.10
-4 5 10 < 4.91 2.61
-4 -5 10 < 4.33 2.61
-3 5 10 < 8.86 4.89
-3 -5 10 < 5.20 4.89
-2 5 10 < -2.70 2.59
-2 -5 10 < 4.05 2.59
-1 5 10 < 13.77 11.43
-1 -5 10 < 10.50 11.43
0 5 10 < 2.31 3.08
0 -5 10 < 3.37 3.08
1 5 10 o 24.08 21.22
1 -5 10 o 21.19 21.22
2 5 10 < 3.47 1.21
2 -5 10 < 3.08 1.21
3 5 10 < 0.29 1.35
3 -5 10 < 5.20 1.35
-7 0 11 < -1.25 0.36
-6 0 11 < 8.28 9.76
-5 0 11 o 18.20 10.06
-4 0 11 o 9.25 10.84
-3 0 11 o 11.94 12.30
-2 0 11 < 3.08 3.30
-1 0 11 < 3.27 0.32
0 0 11 o 39.98 37.71
1 0 11 o 551.94 560.04
2 0 11 o 943.64 955.66
3 0 11 < 3.95 5.62
4 0 11 o 178.79 181.47
5 0 11 < 6.16 2.30
6 0 11 o 18.69 19.21
7 0 11 < 1.25 1.74
-7 1 11 o 46.43 37.15
-7 -1 11 o 54.91 37.15
-6 1 11 < 0.39 5.61
-6 -1 11 < 4.33 5.61
-5 1 11 o 32.27 32.96
-5 -1 11 o 34.20 32.96
-4 1 11 < 5.78 4.87
-4 -1 11 < 7.51 4.87
-3 1 11 < 9.25 6.33
-3 -1 11 < 3.27 6.33
-2 1 11 o 24.56 31.77
-2 -1 11 o 29.38 31.77
-1 1 11 o 99.35 106.27
-1 -1 11 o 98.19 106.27
0 1 11 o 443.53 431.22
0 -1 11 o 424.71 431.22
1 1 11 o 98.67 100.42
1 -1 11 o 97.81 100.42
2 1 11 o 87.10 90.93
2 -1 11 o 87.39 90.93
3 1 11 o 282.71 277.23
3 -1 11 o 269.21 277.23
4 1 11 o 31.50 35.73
4 -1 11 o 28.32 35.73
5 1 11 < 4.14 1.68
5 -1 11 < 2.50 1.68
6 1 11 o 31.98 35.80
6 -1 11 o 21.96 35.80
-7 2 11 o 29.76 23.61
-7 -2 11 o 31.31 23.61
-6 2 11 o 36.41 41.28
-6 -2 11 o 47.49 41.28
-5 2 11 o 31.21 32.03
-5 -2 11 o 34.97 32.03
-4 2 11 < 7.80 7.57
-4 -2 11 o 7.71 7.57
-3 2 11 o 23.31 19.84
-3 -2 11 < 10.98 19.84
-2 2 11 o 44.22 48.36
-2 -2 11 o 50.48 48.36
-1 2 11 o 15.51 13.95
-1 -2 11 o 14.93 13.95
0 2 11 o 28.13 30.63
0 -2 11 o 32.56 30.63
1 2 11 o 25.53 27.82
1 -2 11 o 28.90 27.82
2 2 11 o 28.22 30.92
2 -2 11 o 27.94 30.92
3 2 11 o 10.40 11.74
3 -2 11 < 10.88 11.74
4 2 11 o 21.67 18.76
4 -2 11 o 22.83 18.76
5 2 11 < 5.97 7.76
5 -2 11 o 11.46 7.76
6 2 11 < 10.69 8.96
6 -2 11 < 10.40 8.96
-6 3 11 < 7.32 6.01
-6 -3 11 < 7.90 6.01
-5 3 11 < 2.50 5.99
-5 -3 11 < 7.13 5.99
-4 3 11 < 8.77 10.49
-4 -3 11 o 15.60 10.49
-3 3 11 o 24.76 19.25
-3 -3 11 o 22.44 19.25
-2 3 11 o 15.51 19.47
-2 -3 11 o 17.43 19.47
-1 3 11 < 11.85 12.65
-1 -3 11 o 12.91 12.65
0 3 11 o 24.37 27.14
0 -3 11 o 22.35 27.14
1 3 11 o 85.37 95.49
1 -3 11 o 97.80 95.49
2 3 11 o 75.82 83.44
2 -3 11 o 88.54 83.44
3 3 11 o 19.94 23.96
3 -3 11 o 17.43 23.96
4 3 11 o 23.50 26.07
4 -3 11 o 27.84 26.07
5 3 11 < 3.47 3.00
5 -3 11 < 4.53 3.00
-5 4 11 < 0.96 1.14
-5 -4 11 < 0.87 1.14
-4 4 11 < 15.12 9.96
-4 -4 11 < 8.77 9.96
-3 4 11 o 30.92 22.40
-3 -4 11 o 23.98 22.40
-2 4 11 < -0.58 0.38
-2 -4 11 < 1.93 0.38
-1 4 11 o 15.99 18.27
-1 -4 11 < 14.35 18.27
0 4 11 o 21.96 28.75
0 -4 11 o 28.03 28.75
1 4 11 o 14.74 18.96
1 -4 11 o 18.98 18.96
2 4 11 o 16.47 18.40
2 -4 11 o 16.09 18.40
3 4 11 o 11.27 12.51
3 -4 11 < 9.73 12.51
4 4 11 o 24.76 21.21
4 -4 11 o 26.68 21.21
-3 5 11 < -2.60 0.74
-3 -5 11 < 0.00 0.74
-2 5 11 < -1.06 2.58
-2 -5 11 < 0.00 2.58
-1 5 11 < 8.38 8.18
-1 -5 11 < 4.05 8.18
0 5 11 o 30.73 27.96
0 -5 11 o 27.55 27.96
1 5 11 o 25.24 21.34
1 -5 11 o 26.30 21.34
2 5 11 < 2.02 3.51
2 -5 11 < 4.53 3.51
-7 0 12 < 12.71 10.37
-6 0 12 < -2.89 0.06
-5 0 12 < 0.00 2.01
-4 0 12 < 1.25 0.02
-3 0 12 < 0.29 1.18
-2 0 12 o 220.85 211.77
-1 0 12 < 2.02 2.24
0 0 12 o 13.58 13.37
1 0 12 o 275.40 285.88
2 0 12 o 197.32 204.56
3 0 12 o 47.88 50.41
4 0 12 < 10.69 9.11
5 0 12 < 2.41 0.07
6 0 12 < 6.55 2.77
-6 1 12 < 8.48 2.53
-6 -1 12 < 4.43 2.53
-5 1 12 o 18.40 13.64
-5 -1 12 o 30.73 13.64
-4 1 12 o 40.65 38.35
-4 -1 12 o 43.93 38.35
-3 1 12 o 16.28 18.22
-3 -1 12 o 14.93 18.22
-2 1 12 o 9.92 12.28
-2 -1 12 o 10.11 12.28
-1 1 12 o 37.57 38.43
-1 -1 12 o 43.54 38.43
0 1 12 o 407.02 397.23
0 -1 12 o 473.98 397.23
1 1 12 o 256.47 259.61
1 -1 12 o 226.97 259.61
2 1 12 o 66.57 60.81
2 -1 12 o 52.22 60.81
3 1 12 < 9.73 11.07
3 -1 12 < 10.31 11.07
4 1 12 o 76.78 60.10
4 -1 12 o 67.34 60.10
5 1 12 < 0.58 1.88
5 -1 12 < 0.77 1.88
6 1 12 < 3.76 1.19
6 -1 12 < 1.54 1.19
-6 2 12 < 7.71 11.16
-6 -2 12 < 10.98 11.16
-5 2 12 < 8.67 13.41
-5 -2 12 o 13.48 13.41
-4 2 12 < 2.60 2.68
-4 -2 12 < 5.59 2.68
-3 2 12 < 16.57 10.17
-3 -2 12 o 11.75 10.17
-2 2 12 o 22.54 28.08
-2 -2 12 o 32.65 28.08
-1 2 12 o 23.60 17.78
-1 -2 12 o 15.89 17.78
0 2 12 < 3.85 5.20
0 -2 12 < 0.29 5.20
1 2 12 o 73.70 71.33
1 -2 12 o 78.81 71.33
2 2 12 < -1.73 2.06
2 -2 12 < 0.10 2.06
3 2 12 o 75.72 67.88
3 -2 12 o 69.08 67.88
4 2 12 o 26.68 32.35
4 -2 12 o 27.55 32.35
5 2 12 < -3.95 0.54
5 -2 12 < 2.31 0.54
-5 3 12 < 0.48 6.60
-5 -3 12 < 7.03 6.60
-4 3 12 < 5.88 4.34
-4 -3 12 < 8.48 4.34
-3 3 12 o 35.64 35.70
-3 -3 12 o 36.32 35.70
-2 3 12 < 3.08 5.70
-2 -3 12 < 6.07 5.70
-1 3 12 o 51.54 47.27
-1 -3 12 o 41.13 47.27
0 3 12 o 47.78 52.02
0 -3 12 o 43.74 52.02
1 3 12 o 11.46 13.09
1 -3 12 < 12.14 13.09
2 3 12 o 61.94 56.56
2 -3 12 o 76.30 56.56
3 3 12 < 2.70 3.48
3 -3 12 < 0.48 3.48
4 3 12 < 1.25 0.72
4 -3 12 < 0.58 0.72
5 3 12 < 15.99 14.32
5 -3 12 < 17.63 14.32
-4 4 12 < 2.89 2.06
-4 -4 12 < 1.73 2.06
-3 4 12 < 12.91 10.65
-3 -4 12 < 10.79 10.65
-2 4 12 < -1.73 0.50
-2 -4 12 < -1.06 0.50
-1 4 12 < 5.97 11.77
-1 -4 12 < 10.40 11.77
0 4 12 < 15.60 17.99
0 -4 12 o 18.98 17.99
1 4 12 o 20.13 25.22
1 -4 12 o 27.45 25.22
2 4 12 o 41.71 39.98
2 -4 12 o 40.94 39.98
3 4 12 < 2.31 2.56
3 -4 12 < 0.67 2.56
-1 5 12 < 2.60 4.86
-1 -5 12 < 2.31 4.86
0 5 12 o 29.47 13.54
0 -5 12 o 22.35 13.54
-6 0 13 < 6.55 1.47
-5 0 13 < 8.09 9.62
-4 0 13 o 35.16 31.12
-3 0 13 o 36.80 37.54
-2 0 13 < 6.84 6.09
-1 0 13 o 177.55 191.99
0 0 13 < 8.28 5.22
1 0 13 o 26.59 30.59
2 0 13 o 93.75 93.68
3 0 13 o 16.86 12.83
4 0 13 < 5.10 4.37
5 0 13 < 12.33 14.21
-6 1 13 < 3.95 1.17
-6 -1 13 < 3.27 1.17
-5 1 13 < -3.08 0.42
-5 -1 13 < 4.43 0.42
-4 1 13 < 1.25 0.67
-4 -1 13 < 1.93 0.67
-3 1 13 < 14.64 16.72
-3 -1 13 o 14.93 16.72
-2 1 13 o 15.89 16.41
-2 -1 13 < 10.31 16.41
-1 1 13 o 172.52 175.61
-1 -1 13 o 151.90 175.61
0 1 13 o 120.94 127.53
0 -1 13 o 125.46 127.53
1 1 13 o 38.24 39.17
1 -1 13 o 38.34 39.17
2 1 13 o 32.85 40.81
2 -1 13 o 43.64 40.81
3 1 13 o 29.96 20.66
3 -1 13 o 27.74 20.66
4 1 13 < 4.72 1.96
4 -1 13 < 1.54 1.96
5 1 13 < -2.89 1.08
5 -1 13 < 6.26 1.08
-5 2 13 < 12.62 6.41
-5 -2 13 < 9.73 6.41
-4 2 13 < 4.62 3.30
-4 -2 13 < 4.62 3.30
-3 2 13 o 69.84 55.39
-3 -2 13 o 54.81 55.39
-2 2 13 o 215.16 242.74
-2 -2 13 o 249.67 242.74
-1 2 13 o 238.89 252.26
-1 -2 13 o 228.48 252.26
0 2 13 o 47.01 44.24
0 -2 13 o 34.39 44.24
1 2 13 < 0.77 1.90
1 -2 13 < 5.39 1.90
2 2 13 < -0.29 1.92
2 -2 13 < 3.08 1.92
3 2 13 < 4.53 5.62
3 -2 13 < 4.05 5.62
4 2 13 o 17.15 16.84
4 -2 13 < 11.75 16.84
5 2 13 < 0.87 3.47
5 -2 13 < 1.35 3.47
-4 3 13 o 21.48 13.37
-4 -3 13 o 19.26 13.37
-3 3 13 < 3.08 3.05
-3 -3 13 < 5.10 3.05
-2 3 13 < 5.49 5.80
-2 -3 13 < 8.38 5.80
-1 3 13 < 2.50 6.19
-1 -3 13 < 8.28 6.19
0 3 13 o 15.41 13.92
0 -3 13 o 17.72 13.92
1 3 13 o 45.18 50.37
1 -3 13 o 41.90 50.37
2 3 13 < 7.32 5.79
2 -3 13 < 8.67 5.79
3 3 13 < 7.80 7.60
3 -3 13 < 0.39 7.60
4 3 13 < 1.35 1.92
4 -3 13 < 2.12 1.92
-3 4 13 o 22.15 8.61
-3 -4 13 < 7.42 8.61
-2 4 13 o 36.80 32.71
-2 -4 13 o 29.28 32.71
-1 4 13 < 7.03 5.77
-1 -4 13 < 2.60 5.77
0 4 13 < 17.34 20.76
0 -4 13 o 18.59 20.76
1 4 13 < 3.08 0.08
1 -4 13 < -2.02 0.08
2 4 13 < 3.56 1.54
2 -4 13 < 0.87 1.54
-5 0 14 < 5.97 4.94
-4 0 14 < 1.64 3.58
-3 0 14 < 11.08 6.57
-2 0 14 < -1.73 0.06
-1 0 14 < 6.26 8.82
0 0 14 o 30.54 36.70
1 0 14 o 72.25 59.49
2 0 14 o 14.54 11.45
3 0 14 < -0.48 0.95
4 0 14 < 17.43 9.98
5 0 14 < 16.66 19.81
-5 1 14 < 4.43 3.26
-5 -1 14 < 7.80 3.26
-4 1 14 o 25.33 28.53
-4 -1 14 o 34.68 28.53
-3 1 14 o 41.81 46.74
-3 -1 14 o 43.45 46.74
-2 1 14 < 10.50 10.98
-2 -1 14 < 9.44 10.98
-1 1 14 < 4.05 7.49
-1 -1 14 < 10.60 7.49
0 1 14 < 9.63 10.41
0 -1 14 < 6.36 10.41
1 1 14 < 8.67 11.63
1 -1 14 < 9.82 11.63
2 1 14 o 20.90 23.87
2 -1 14 o 17.82 23.87
3 1 14 < 4.91 2.05
3 -1 14 < 0.67 2.05
4 1 14 < 2.79 5.33
4 -1 14 < 7.42 5.33
-4 2 14 o 29.09 26.53
-4 -2 14 o 15.22 26.53
-3 2 14 o 53.27 44.86
-3 -2 14 o 43.83 44.86
-2 2 14 o 76.01 76.53
-2 -2 14 o 90.08 76.53
-1 2 14 < 6.94 7.55
-1 -2 14 < 16.37 7.55
0 2 14 o 51.44 51.77
0 -2 14 o 59.25 51.77
1 2 14 < 1.35 3.54
1 -2 14 < 7.42 3.54
2 2 14 < 11.56 14.51
2 -2 14 < 12.33 14.51
3 2 14 < 3.95 3.16
3 -2 14 < 3.08 3.16
4 2 14 < 4.82 3.62
4 -2 14 < 5.01 3.62
-3 3 14 o 29.28 25.10
-3 -3 14 o 22.83 25.10
-2 3 14 < 6.74 5.15
-2 -3 14 < 3.56 5.15
-1 3 14 < -3.27 4.62
-1 -3 14 < 2.89 4.62
0 3 14 < -2.22 4.17
0 -3 14 < 2.79 4.17
1 3 14 < 8.09 8.16
1 -3 14 < 14.74 8.16
2 3 14 < 8.09 9.67
2 -3 14 < 10.88 9.67
3 3 14 < 4.53 2.56
3 -3 14 < 4.62 2.56
0 4 14 < 15.12 11.10
0 -4 14 < 7.03 11.10
-4 0 15 < 8.67 6.56
-2 0 15 < 1.93 2.93
-1 0 15 < -1.06 0.58
0 0 15 o 34.87 40.23
1 0 15 o 18.40 15.38
2 0 15 < 3.66 6.10
3 0 15 < 0.77 7.02
4 0 15 o 32.75 16.71
-4 1 15 < 9.05 8.44
-3 1 15 < 9.15 10.53
-3 -1 15 < 8.67 10.53
-2 1 15 o 30.44 28.49
-2 -1 15 o 35.35 28.49
-1 1 15 < 0.10 0.34
-1 -1 15 < 1.54 0.34
0 1 15 o 11.85 10.14
0 -1 15 < 11.85 10.14
1 1 15 < 2.89 1.99
1 -1 15 < 0.29 1.99
2 1 15 < 8.09 4.85
2 -1 15 < 5.88 4.85
3 1 15 o 60.88 55.56
3 -1 15 o 58.86 55.56
-3 2 15 o 21.38 19.19
-3 -2 15 o 18.40 19.19
-2 2 15 o 17.34 19.64
-2 -2 15 < 15.03 19.64
-1 2 15 < 9.63 7.21
-1 -2 15 < 13.29 7.21
0 2 15 < 11.75 13.15
0 -2 15 o 21.77 13.15
1 2 15 < 0.10 0.49
1 -2 15 < 0.87 0.49
2 2 15 < 1.64 3.67
2 -2 15 < 3.37 3.67
3 2 15 < -0.48 2.88
3 -2 15 < 1.44 2.88
-2 3 15 < 2.79 0.92
-2 -3 15 < -0.10 0.92
-1 3 15 < 10.21 4.62
-1 -3 15 < 4.24 4.62
0 3 15 < 4.24 5.96
0 -3 15 < 3.76 5.96
1 3 15 < 3.08 2.46
1 -3 15 < 10.50 2.46
-1 0 16 < -3.85 0.51
0 0 16 < -2.89 0.41
1 0 16 o 24.37 25.56
2 0 16 o 34.87 40.54
-2 -1 16 < 14.83 6.69
-1 -1 16 o 19.26 11.25
0 1 16 < 5.39 6.09
0 -1 16 < 7.42 6.09
1 1 16 < -0.58 0.71
1 -1 16 < 1.44 0.71
2 1 16 o 28.99 24.26
2 -1 16 o 24.37 24.26
-1 2 16 < -2.70 0.11
-1 -2 16 < -1.44 0.11
0 -2 16 o 15.89 9.35
1 2 16 < 6.84 9.72
1 -2 16 < 10.50 9.72
