#------------------------------------------------------------------------------
#$Date: 2017-07-25 12:40:49 +0300 (Tue, 25 Jul 2017) $
#$Revision: 199163 $
#$URL: file:///home/coder/svn-repositories/cod/cif/2/24/21/2242193.cif $
#------------------------------------------------------------------------------
#
# This file is available in the Crystallography Open Database (COD),
# http://www.crystallography.net/. The original data for this entry
# were provided by IUCr Journals, http://journals.iucr.org/.
#
# The file may be used within the scientific community so long as
# proper attribution is given to the journal article from which the
# data were obtained.
#
data_2242193
loop_
_publ_author_name
'Mitchell, Lauren A.'
'Imler, Gregory H.'
'Parrish, Damon A.'
'Deschamps, Jeffrey R.'
'Leonard, Philip W.'
'Chavez, David E.'
_publ_section_title
;
 Crystal structures of the three closely related compounds:
 bis[(1<i>H</i>-tetrazol-5-yl)methyl]nitramide, triaminoguanidinium
 5-({[(1<i>H</i>-tetrazol-5-yl)methyl](nitro)amino}methyl)tetrazol-1-ide,
 and diammonium bis[(tetrazol-1-id-5-yl)methyl]nitramide monohydrate
;
_journal_coeditor_code           LH5843
_journal_issue                   7
_journal_name_full               'Acta Crystallographica Section E'
_journal_page_first              1056
_journal_page_last               1061
_journal_paper_doi               10.1107/S2056989017008817
_journal_volume                  73
_journal_year                    2017
_chemical_formula_iupac          'C4 H6 N10 O2'
_chemical_formula_moiety         'C4 H6 N10 O2'
_chemical_formula_sum            'C4 H6 N10 O2'
_chemical_formula_weight         226.19
_chemical_name_systematic
;
Bis[(1<i>H</i>-tetrazol-5-yl)methyl]nitramide
;
_space_group_crystal_system      monoclinic
_space_group_IT_number           4
_space_group_name_Hall           'P 2yb'
_space_group_name_H-M_alt        'P 1 21 1'
_symmetry_space_group_name_Hall  'P 2yb'
_symmetry_space_group_name_H-M   'P 1 21 1'
_atom_sites_solution_hydrogens   mixed
_audit_creation_method           SHELXL-2014/7
_cell_angle_alpha                90
_cell_angle_beta                 101.805(4)
_cell_angle_gamma                90
_cell_formula_units_Z            2
_cell_length_a                   6.3640(17)
_cell_length_b                   9.627(3)
_cell_length_c                   6.8627(18)
_cell_measurement_reflns_used    2717
_cell_measurement_temperature    173(2)
_cell_measurement_theta_max      26.166
_cell_measurement_theta_min      3.033
_cell_volume                     411.6(2)
_computing_cell_refinement
;
APEX2 (Bruker, 2008)
;
_computing_data_collection
;
APEX2 (Bruker, 2008)
;
_computing_data_reduction
;
SAINT (Bruker, 2008) and XPREP (Bruker, 2008)
;
_computing_molecular_graphics
;
SHELXTL (Sheldrick, 2008)
;
_computing_publication_material
;
publCIF (Westrip, 2010)
;
_computing_structure_refinement
;
SHELXL2014 (Sheldrick, 2015) within WinGX (Farrugia, 2012)
;
_computing_structure_solution
;
SHELXTL (Sheldrick, 2008)
;
_diffrn_ambient_temperature      173(2)
_diffrn_measured_fraction_theta_full 0.997
_diffrn_measured_fraction_theta_max 0.997
_diffrn_measurement_device_type  'Bruker SMART APEXII CCD'
_diffrn_measurement_method       '\w scans'
_diffrn_radiation_monochromator  graphite
_diffrn_radiation_source         'fine focus sealed tube'
_diffrn_radiation_type           MoK\a
_diffrn_radiation_wavelength     0.71073
_diffrn_reflns_av_R_equivalents  0.0379
_diffrn_reflns_limit_h_max       7
_diffrn_reflns_limit_h_min       -7
_diffrn_reflns_limit_k_max       12
_diffrn_reflns_limit_k_min       0
_diffrn_reflns_limit_l_max       8
_diffrn_reflns_limit_l_min       0
_diffrn_reflns_number            889
_diffrn_reflns_theta_full        25.242
_diffrn_reflns_theta_max         26.358
_diffrn_reflns_theta_min         3.032
_exptl_absorpt_coefficient_mu    0.151
_exptl_absorpt_correction_T_max  0.7454
_exptl_absorpt_correction_T_min  0.6147
_exptl_absorpt_correction_type   multi-scan
_exptl_absorpt_process_details
;
(TWINABS; Bruker, 2008)
;
_exptl_crystal_colour            colorless
_exptl_crystal_density_diffrn    1.825
_exptl_crystal_description       'thin plate'
_exptl_crystal_F_000             232
_exptl_crystal_size_max          0.360
_exptl_crystal_size_mid          0.320
_exptl_crystal_size_min          0.010
_refine_diff_density_max         0.251
_refine_diff_density_min         -0.319
_refine_ls_extinction_method     none
_refine_ls_goodness_of_fit_ref   1.144
_refine_ls_hydrogen_treatment    mixed
_refine_ls_matrix_type           full
_refine_ls_number_parameters     151
_refine_ls_number_reflns         889
_refine_ls_number_restraints     2
_refine_ls_restrained_S_all      1.143
_refine_ls_R_factor_all          0.0420
_refine_ls_R_factor_gt           0.0362
_refine_ls_shift/su_max          0.000
_refine_ls_shift/su_mean         0.000
_refine_ls_structure_factor_coef Fsqd
_refine_ls_weighting_details
'w=1/[\s^2^(Fo^2^)+(0.0513P)^2^+0.4169P] where P=(Fo^2^+2Fc^2^)/3'
_refine_ls_weighting_scheme      calc
_refine_ls_wR_factor_gt          0.0965
_refine_ls_wR_factor_ref         0.1022
_reflns_number_gt                835
_reflns_number_total             889
_reflns_threshold_expression     'I > 2\s(I)'
_cod_data_source_file            lh5843sup1.cif
_cod_data_source_block           I
_cod_original_cell_volume        411.57(19)
_cod_database_code               2242193
_shelx_space_group_comment
;
The symmetry employed for this shelxl refinement is uniquely defined
by the following loop, which should always be used as a source of
symmetry information in preference to the above space-group names.
They are only intended as comments.
;
_shelx_estimated_absorpt_t_min   0.948
_shelx_estimated_absorpt_t_max   0.998
_shelx_hkl_file
;
   1   0   0   23.33    0.23
   2   0   0 1000.00    8.72
   3   0   0    3.09    0.12
   4   0   0  311.50    2.81
   5   0   0    9.10    0.37
   6   0   0   33.53    0.53
   7   0   0    1.57    0.27
   1   1   0   89.27    0.62
   2   1   0   19.70    0.20
   3   1   0   55.13    0.40
   4   1   0   42.52    0.34
   5   1   0   15.81    0.21
   6   1   0   12.35    0.22
   7   1   0    2.87    0.23
   1   2   0  222.21    1.72
   2   2   0  137.04    0.98
   3   2   0   40.30    0.31
   4   2   0    7.17    0.12
   5   2   0   16.63    0.24
   6   2   0   10.90    0.19
   7   2   0    6.12    0.30
   1   3   0   10.60    0.18
   2   3   0    1.23    0.15
   3   3   0   21.98    0.20
   4   3   0    8.91    0.14
   5   3   0   24.16    0.32
   6   3   0    2.21    0.15
   7   3   0    2.28    0.30
   1   4   0  119.08    1.25
   2   4   0   33.25    0.49
   3   4   0   20.87    0.26
   4   4   0   13.41    0.19
   5   4   0   11.36    0.27
   6   4   0    5.64    0.21
   7   4   0    6.03    0.34
   0   5   0    0.04    0.15
   1   5   0   26.42    0.70
   2   5   0    1.11    0.16
   3   5   0    8.89    0.18
   4   5   0   13.81    0.23
   5   5   0    9.13    0.30
   6   5   0    3.66    0.20
   7   5   0    7.94    0.55
   0   6   0   19.98    1.10
   1   6   0    9.28    0.30
   2   6   0   67.98    0.87
   3   6   0   14.62    0.24
   4   6   0    2.13    0.13
   5   6   0   12.29    0.33
   6   6   0    0.01    0.15
   0   7   0    0.01    0.19
   1   7   0    8.12    0.29
   2   7   0    5.22    0.26
   3   7   0    0.62    0.09
   4   7   0   12.52    0.31
   5   7   0    2.67    0.28
   6   7   0    3.87    0.26
   0   8   0   10.36    0.79
   1   8   0   24.54    0.55
   2   8   0    9.64    0.47
   3   8   0   41.33    0.53
   4   8   0    9.91    0.47
   5   8   0    0.45    0.26
   0   9   0    0.08    0.15
   1   9   0    3.30    0.20
   2   9   0   20.12    0.50
   3   9   0    3.24    0.25
   4   9   0    3.51    0.37
   5   9   0    1.19    0.31
   0  10   0   36.11    1.19
   1  10   0    4.44    0.30
   2  10   0   63.47    0.96
   3  10   0    9.95    0.38
   4  10   0   27.55    0.76
   0  11   0    0.00    0.30
   1  11   0    3.63    0.30
   2  11   0    0.19    0.37
   3  11   0    4.21    0.30
   0  12   0    3.14    0.65
  -7   0   1   17.25    0.86
  -6   0   1   76.41    0.84
  -5   0   1    0.16    0.11
  -4   0   1  119.63    1.15
  -3   0   1   19.49    0.26
  -2   0   1  922.70    8.77
  -1   0   1    4.15    0.13
   0   0   1    8.65    0.16
   1   0   1    5.04    0.17
   2   0   1   52.98    0.86
   3   0   1    8.29    0.16
   4   0   1    0.17    0.08
   5   0   1    6.73    0.25
   6   0   1    1.69    0.17
   7   0   1    1.78    0.29
  -7   1   1    2.56    0.24
  -6   1   1    7.03    0.17
  -5   1   1   17.81    0.22
  -4   1   1   30.03    0.26
  -3   1   1   27.48    0.23
  -2   1   1  104.43    0.83
  -1   1   1  151.78    1.32
   0   1   1   60.93    0.61
   1   1   1  118.07    1.12
   2   1   1  113.90    0.99
   3   1   1    6.71    0.12
   4   1   1    8.50    0.14
   5   1   1    3.56    0.18
   6   1   1    6.13    0.17
   7   1   1    1.84    0.22
  -7   2   1    7.04    0.29
  -6   2   1   37.21    0.41
  -5   2   1   20.15    0.24
  -4   2   1   72.59    0.53
  -3   2   1   79.22    0.58
  -2   2   1   39.74    0.41
  -1   2   1  243.91    2.10
   0   2   1  116.19    1.63
   1   2   1    8.60    0.17
   2   2   1    0.37    0.16
   3   2   1   26.17    0.27
   4   2   1   13.28    0.18
   5   2   1    3.37    0.16
   6   2   1    7.01    0.21
   7   2   1    4.06    0.31
  -7   3   1   10.04    0.33
  -6   3   1    6.62    0.19
  -5   3   1    3.69    0.13
  -4   3   1    0.59    0.07
  -3   3   1    3.33    0.09
  -2   3   1   33.14    0.30
  -1   3   1   14.61    0.20
   0   3   1    8.12    0.20
   1   3   1    6.87    0.11
   2   3   1   76.68    1.16
   3   3   1    3.23    0.12
   4   3   1    1.86    0.11
   5   3   1    5.89    0.19
   6   3   1    3.50    0.18
   7   3   1    6.87    0.37
  -7   4   1    3.31    0.33
  -6   4   1    7.57    0.23
  -5   4   1    0.13    0.14
  -4   4   1    7.01    0.14
  -3   4   1   29.04    0.26
  -2   4   1    4.22    0.28
  -1   4   1   28.62    0.37
   0   4   1   60.61    0.98
   1   4   1    5.20    0.13
   2   4   1   23.55    0.44
   3   4   1   28.15    0.35
   4   4   1    9.98    0.19
   5   4   1    2.71    0.37
   6   4   1    6.01    0.21
   7   4   1    0.95    0.30
  -7   5   1    6.51    0.34
  -6   5   1    5.90    0.27
  -5   5   1    8.40    0.28
  -4   5   1   14.82    0.23
  -3   5   1   31.02    0.31
  -2   5   1    4.12    0.18
  -1   5   1   96.25    0.91
   0   5   1    9.44    0.40
   1   5   1   29.43    0.42
   2   5   1   22.02    0.56
   3   5   1   36.40    0.47
   4   5   1    1.46    0.11
   5   5   1   26.33    0.58
   6   5   1    2.42    0.17
  -6   6   1    7.52    0.29
  -5   6   1    1.58    0.26
  -4   6   1   75.56    0.95
  -3   6   1   34.54    0.42
  -2   6   1   25.58    0.76
  -1   6   1   19.12    0.31
   0   6   1   69.62    1.88
   1   6   1    4.45    0.18
   2   6   1    6.29    0.27
   3   6   1    4.58    0.19
   4   6   1    3.02    0.17
   5   6   1    4.23    0.21
   6   6   1    3.48    0.21
  -6   7   1    7.70    0.30
  -5   7   1    4.76    0.38
  -4   7   1    0.71    0.23
  -3   7   1    7.23    0.18
  -2   7   1    3.75    0.27
  -1   7   1   21.58    0.36
   0   7   1   10.96    0.49
   1   7   1   17.15    0.43
   2   7   1    4.32    0.29
   3   7   1    8.98    0.24
   4   7   1   19.87    0.36
   5   7   1    0.34    0.18
   6   7   1    1.94    0.22
  -5   8   1   19.88    0.83
  -4   8   1   19.40    0.62
  -3   8   1   18.05    0.45
  -2   8   1   30.01    0.70
  -1   8   1   17.21    0.30
   0   8   1   34.39    0.68
   1   8   1   18.14    0.47
   2   8   1   41.17    0.63
   3   8   1   18.73    0.35
   4   8   1   15.06    0.30
   5   8   1    0.75    0.26
  -5   9   1   13.00    0.57
  -4   9   1    1.99    0.30
  -3   9   1    0.79    0.17
  -2   9   1   10.22    0.58
  -1   9   1    2.94    0.18
   0   9   1   25.98    0.92
   1   9   1    2.02    0.22
   2   9   1   13.24    0.40
   3   9   1    0.23    0.15
   4   9   1    7.09    0.32
  -4  10   1   13.29    0.55
  -3  10   1    2.73    0.25
  -2  10   1    9.43    0.98
  -1  10   1    4.94    0.32
   0  10   1   19.34    0.79
   1  10   1   10.26    0.34
   2  10   1    3.32    0.46
   3  10   1    3.91    0.29
   4  10   1    2.31    0.26
  -3  11   1    1.12    0.21
  -2  11   1    3.83    0.42
  -1  11   1    6.88    0.37
   0  11   1    2.17    0.33
   1  11   1    0.49    0.19
   2  11   1    2.23    0.31
  -7   0   2   22.86    1.09
  -6   0   2   33.07    0.55
  -5   0   2   31.72    0.44
  -4   0   2  136.76    1.45
  -3   0   2    1.74    0.10
  -2   0   2    0.27    0.65
  -1   0   2    0.09    0.05
   0   0   2  103.90    1.61
   1   0   2    4.46    0.15
   2   0   2    6.96    0.35
   3   0   2    3.54    0.21
   4   0   2    1.78    0.14
   5   0   2   12.38    0.36
   6   0   2   19.43    0.40
   7   0   2    1.59    0.37
  -7   1   2    0.55    0.25
  -6   1   2    2.18    0.12
  -5   1   2   10.58    0.18
  -4   1   2    8.21    0.15
  -3   1   2    0.47    0.08
  -2   1   2   39.08    1.07
  -1   1   2  131.10    1.07
   0   1   2   81.90    0.89
   1   1   2    0.60    0.07
   2   1   2    2.00    0.40
   3   1   2    2.91    0.10
   4   1   2    5.78    0.14
   5   1   2    5.93    0.18
   6   1   2    4.06    0.19
   7   1   2    5.38    0.32
  -7   2   2    3.42    0.29
  -6   2   2    5.36    0.17
  -5   2   2    6.62    0.19
  -4   2   2   10.82    0.18
  -3   2   2    3.62    0.12
  -2   2   2    1.96    0.15
  -1   2   2  186.64    1.64
   0   2   2   27.77    0.33
   1   2   2    8.16    0.17
   2   2   2   14.34    0.33
   3   2   2   21.86    0.25
   4   2   2   11.45    0.18
   5   2   2    4.95    0.21
   6   2   2    1.00    0.13
   7   2   2    1.24    0.22
  -7   3   2    2.78    0.29
  -6   3   2    3.22    0.14
  -5   3   2   14.16    0.25
  -4   3   2    3.20    0.12
  -3   3   2   10.31    0.20
  -2   3   2   51.71    1.19
  -1   3   2   73.55    0.58
   0   3   2   17.72    0.25
   1   3   2  118.26    1.15
   2   3   2   40.72    1.08
   3   3   2   30.44    0.37
   4   3   2    1.21    0.11
   5   3   2   52.71    0.69
   6   3   2    2.70    0.17
  -7   4   2    4.19    0.40
  -6   4   2    9.37    0.24
  -5   4   2   13.55    0.27
  -4   4   2    3.05    0.14
  -3   4   2   13.58    0.23
  -2   4   2   12.34    0.44
  -1   4   2   33.04    0.33
   0   4   2   12.30    0.28
   1   4   2   34.67    0.33
   2   4   2   11.29    0.39
   3   4   2    2.64    0.15
   4   4   2    4.57    0.18
   5   4   2    0.16    0.14
   6   4   2   10.99    0.27
  -7   5   2    0.00    0.37
  -6   5   2    3.17    0.27
  -5   5   2   14.56    0.32
  -4   5   2    5.80    0.20
  -3   5   2   14.59    0.25
  -2   5   2   23.52    0.54
  -1   5   2    8.82    0.18
   0   5   2    6.65    0.25
   1   5   2   38.13    0.39
   2   5   2   10.91    0.32
   3   5   2   33.77    0.47
   4   5   2    5.08    0.19
   5   5   2    6.82    0.25
   6   5   2    0.78    0.14
  -6   6   2    8.80    0.37
  -5   6   2    8.64    0.37
  -4   6   2    5.94    0.21
  -3   6   2    3.19    0.17
  -2   6   2    0.66    0.23
  -1   6   2    5.94    0.16
   0   6   2   20.17    0.52
   1   6   2    0.70    0.08
   2   6   2   16.34    0.32
   3   6   2    6.94    0.23
   4   6   2    4.54    0.19
   5   6   2    1.36    0.17
   6   6   2    3.27    0.23
  -6   7   2    5.12    0.34
  -5   7   2    3.34    0.32
  -4   7   2    7.25    0.32
  -3   7   2    1.24    0.13
  -2   7   2    4.91    0.28
  -1   7   2   11.94    0.27
   0   7   2    3.06    0.30
   1   7   2   42.31    0.45
   2   7   2   18.83    0.47
   3   7   2   38.93    0.54
   4   7   2   10.36    0.29
   5   7   2   40.12    0.58
  -5   8   2    1.00    0.27
  -4   8   2   12.42    0.49
  -3   8   2    1.31    0.14
  -2   8   2   22.35    0.86
  -1   8   2    2.59    0.16
   0   8   2   20.87    0.78
   1   8   2   35.24    0.42
   2   8   2    4.63    0.42
   3   8   2    8.61    0.26
   4   8   2    3.40    0.21
   5   8   2    2.08    0.24
  -5   9   2    4.99    0.39
  -4   9   2    4.81    0.38
  -3   9   2    2.96    0.24
  -2   9   2   11.23    0.45
  -1   9   2    2.55    0.25
   0   9   2    0.00    0.25
   1   9   2    0.89    0.13
   2   9   2   17.67    0.62
   3   9   2   24.19    0.44
   4   9   2    2.24    0.20
  -4  10   2   14.19    0.62
  -3  10   2   11.34    0.39
  -2  10   2   19.92    0.67
  -1  10   2   12.83    0.46
   0  10   2    2.07    0.34
   1  10   2    6.07    0.28
   2  10   2    4.02    0.49
   3  10   2    5.62    0.31
  -2  11   2    0.00    0.41
  -1  11   2    2.31    0.28
   0  11   2    0.67    0.31
   1  11   2   10.90    0.35
   2  11   2    1.72    0.41
  -7   0   3    0.20    0.32
  -6   0   3    5.04    0.30
  -5   0   3    4.61    0.32
  -4   0   3    1.32    0.16
  -3   0   3    0.17    0.11
  -2   0   3    7.12    0.14
  -1   0   3    1.59    0.09
   0   0   3   12.81    0.28
   1   0   3    0.55    0.08
   2   0   3   20.54    0.72
   3   0   3   34.25    0.65
   4   0   3   54.47    0.95
   5   0   3    1.03    0.24
   6   0   3    3.20    0.31
  -7   1   3    2.74    0.25
  -6   1   3    4.88    0.20
  -5   1   3   10.82    0.27
  -4   1   3    3.21    0.14
  -3   1   3   18.36    0.27
  -2   1   3   41.12    0.43
  -1   1   3  100.37    0.67
   0   1   3   47.46    0.55
   1   1   3   86.03    0.62
   2   1   3    8.37    0.33
   3   1   3    8.66    0.22
   4   1   3   35.70    0.44
   5   1   3   17.30    0.34
   6   1   3    0.03    0.12
  -7   2   3    1.93    0.31
  -6   2   3    0.24    0.12
  -5   2   3    2.71    0.19
  -4   2   3    2.63    0.14
  -3   2   3   39.86    0.46
  -2   2   3    8.44    0.29
  -1   2   3   58.14    0.40
   0   2   3   57.37    0.65
   1   2   3    3.62    0.12
   2   2   3   11.57    0.40
   3   2   3   49.55    0.60
   4   2   3    7.62    0.23
   5   2   3    8.72    0.28
   6   2   3    1.24    0.15
  -7   3   3    2.65    0.29
  -6   3   3   19.32    0.34
  -5   3   3    6.00    0.23
  -4   3   3    0.19    0.09
  -3   3   3   19.12    0.29
  -2   3   3   86.68    1.31
  -1   3   3   42.01    0.37
   0   3   3    4.41    0.10
   1   3   3   12.80    0.20
   2   3   3   12.11    0.61
   3   3   3   15.13    0.30
   4   3   3    0.17    0.10
   5   3   3    0.80    0.19
   6   3   3    0.33    0.13
  -7   4   3    1.39    0.31
  -6   4   3    0.96    0.13
  -5   4   3   14.16    0.31
  -4   4   3   13.72    0.28
  -3   4   3    8.15    0.20
  -2   4   3   21.32    0.39
  -1   4   3   10.81    0.16
   0   4   3   11.35    0.22
   1   4   3   20.39    0.26
   2   4   3   33.16    0.49
   3   4   3    3.05    0.17
   4   4   3   11.78    0.25
   5   4   3    0.14    0.23
   6   4   3    6.08    0.24
  -7   5   3    9.56    0.56
  -6   5   3    0.65    0.14
  -5   5   3   46.88    0.67
  -4   5   3    5.31    0.20
  -3   5   3   67.81    0.72
  -2   5   3    8.35    0.29
  -1   5   3   99.42    0.86
   0   5   3    6.04    0.17
   1   5   3   72.96    0.70
   2   5   3    8.29    0.27
   3   5   3   11.31    0.28
   4   5   3   12.56    0.27
   5   5   3   10.94    0.44
  -6   6   3    3.41    0.29
  -5   6   3    0.27    0.19
  -4   6   3    2.74    0.17
  -3   6   3    1.53    0.12
  -2   6   3    7.41    0.32
  -1   6   3   10.18    0.21
   0   6   3   48.25    0.76
   1   6   3    6.22    0.17
   2   6   3   21.08    0.58
   3   6   3   21.12    0.38
   4   6   3   10.44    0.26
   5   6   3    9.04    0.29
  -6   7   3    6.02    0.36
  -5   7   3    3.32    0.36
  -4   7   3    7.66    0.37
  -3   7   3   21.40    0.39
  -2   7   3    6.11    0.35
  -1   7   3   47.70    0.56
   0   7   3    2.43    0.16
   1   7   3   16.40    0.27
   2   7   3   23.78    0.67
   3   7   3   12.60    0.36
   4   7   3    0.44    0.14
   5   7   3    1.08    0.27
  -5   8   3    1.03    0.37
  -4   8   3    6.11    0.37
  -3   8   3    1.85    0.16
  -2   8   3   16.82    0.38
  -1   8   3    0.55    0.18
   0   8   3    6.13    0.31
   1   8   3   34.49    0.48
   2   8   3   20.33    0.50
   3   8   3    4.82    0.28
   4   8   3    2.96    0.22
  -4   9   3    4.25    0.33
  -3   9   3   31.30    0.47
  -2   9   3    0.23    0.54
  -1   9   3   22.62    0.60
   0   9   3    0.49    0.14
   1   9   3   45.07    0.58
   2   9   3   17.24    0.50
   3   9   3   11.38    0.33
  -3  10   3    0.46    0.22
  -2  10   3    2.38    0.45
  -1  10   3    1.53    0.25
   0  10   3    6.19    0.30
   1  10   3    0.98    0.18
   2  10   3    1.14    0.51
  -2  11   3    1.84    0.43
  -1  11   3    4.39    0.36
   0  11   3    1.09    0.24
   1  11   3    2.77    0.36
  -7   0   4    2.39    0.37
  -6   0   4    0.84    0.20
  -5   0   4    4.61    0.46
  -4   0   4    1.60    0.18
  -3   0   4   36.65    0.38
  -2   0   4   27.73    0.52
  -1   0   4   20.43    0.28
   0   0   4   20.06    0.41
   1   0   4    0.21    0.08
   2   0   4   33.80    0.71
   3   0   4   28.46    0.61
   4   0   4    0.52    0.19
   5   0   4    0.19    0.29
   6   0   4    0.34    0.24
  -7   1   4    1.54    0.24
  -6   1   4    3.48    0.19
  -5   1   4    0.71    0.20
  -4   1   4    8.36    0.21
  -3   1   4    2.02    0.12
  -2   1   4   16.89    0.24
  -1   1   4   16.15    0.17
   0   1   4    3.10    0.11
   1   1   4   12.86    0.16
   2   1   4   22.16    0.58
   3   1   4    1.85    0.15
   4   1   4   16.43    0.34
   5   1   4   12.80    0.32
   6   1   4    8.85    0.31
  -7   2   4    5.09    0.29
  -6   2   4    3.16    0.19
  -5   2   4    5.95    0.29
  -4   2   4   16.01    0.28
  -3   2   4   44.47    0.52
  -2   2   4   23.85    0.31
  -1   2   4    8.84    0.13
   0   2   4    6.55    0.15
   1   2   4   61.40    0.49
   2   2   4    0.18    0.36
   3   2   4   11.24    0.27
   4   2   4    2.54    0.18
   5   2   4   12.36    0.35
  -7   3   4    9.45    0.36
  -6   3   4   11.73    0.28
  -5   3   4   19.95    0.55
  -4   3   4    0.56    0.13
  -3   3   4   37.90    0.47
  -2   3   4   55.14    0.64
  -1   3   4   28.83    0.25
   0   3   4    4.48    0.12
   1   3   4   31.09    0.39
   2   3   4    1.99    0.25
   3   3   4    5.77    0.22
   4   3   4    2.75    0.19
   5   3   4    1.90    0.33
  -7   4   4    3.42    0.31
  -6   4   4    5.34    0.22
  -5   4   4    3.67    0.23
  -4   4   4    1.44    0.15
  -3   4   4   10.51    0.23
  -2   4   4    2.74    0.35
  -1   4   4    4.61    0.11
   0   4   4   17.15    0.31
   1   4   4    2.90    0.12
   2   4   4    5.78    0.38
   3   4   4   12.79    0.30
   4   4   4   18.35    0.37
   5   4   4    2.39    0.28
  -6   5   4    0.93    0.15
  -5   5   4    6.82    0.30
  -4   5   4    4.08    0.21
  -3   5   4   11.41    0.25
  -2   5   4    0.43    0.21
  -1   5   4    7.44    0.14
   0   5   4    6.20    0.18
   1   5   4   33.87    0.46
   2   5   4    0.10    0.28
   3   5   4    6.09    0.24
   4   5   4    7.41    0.23
   5   5   4    2.27    0.27
  -6   6   4    3.30    0.20
  -5   6   4    3.74    0.25
  -4   6   4   11.82    0.29
  -3   6   4    3.03    0.15
  -2   6   4   17.36    0.48
  -1   6   4    6.94    0.16
   0   6   4   45.67    0.74
   1   6   4    5.75    0.24
   2   6   4   10.66    0.35
   3   6   4    5.70    0.24
   4   6   4   14.26    0.31
  -5   7   4   10.48    0.65
  -4   7   4   20.53    0.39
  -3   7   4   25.40    0.40
  -2   7   4   24.50    0.57
  -1   7   4   28.36    0.50
   0   7   4   42.19    0.71
   1   7   4   20.43    0.43
   2   7   4    7.43    0.44
   3   7   4    4.54    0.28
   4   7   4    6.13    0.24
  -5   8   4    6.72    0.45
  -4   8   4   10.40    0.36
  -3   8   4    2.25    0.16
  -2   8   4    0.55    0.42
  -1   8   4   20.95    0.57
   0   8   4   12.85    0.33
   1   8   4    8.61    0.31
   2   8   4    4.91    0.36
   3   8   4   19.25    0.47
  -4   9   4    4.55    0.43
  -3   9   4    0.75    0.18
  -2   9   4    0.00    0.52
  -1   9   4    7.22    0.38
   0   9   4    4.62    0.33
   1   9   4    2.01    0.21
   2   9   4    2.09    0.36
  -3  10   4    6.41    0.42
  -2  10   4    1.59    0.45
  -1  10   4    3.05    0.21
   0  10   4    2.87    0.30
   1  10   4    7.17    0.44
  -7   0   5    0.00    0.36
  -6   0   5    0.01    0.18
  -5   0   5    0.00    0.35
  -4   0   5   11.39    0.37
  -3   0   5   15.96    0.26
  -2   0   5    2.42    0.41
  -1   0   5   43.04    0.51
   0   0   5    0.47    0.15
   1   0   5    1.72    0.13
   2   0   5    6.36    0.47
   3   0   5   31.71    0.69
   4   0   5    0.00    0.18
   5   0   5    0.02    0.31
  -7   1   5   10.57    0.37
  -6   1   5   14.97    0.33
  -5   1   5   10.88    0.42
  -4   1   5    9.94    0.28
  -3   1   5   27.53    0.29
  -2   1   5   34.43    0.42
  -1   1   5    1.02    0.08
   0   1   5   44.70    0.56
   1   1   5    4.68    0.12
   2   1   5    8.83    0.37
   3   1   5   32.44    0.49
   4   1   5    8.06    0.27
   5   1   5    8.40    0.36
  -7   2   5    1.57    0.25
  -6   2   5    3.90    0.21
  -5   2   5    9.21    0.33
  -4   2   5    8.89    0.26
  -3   2   5   11.12    0.17
  -2   2   5   29.68    0.32
  -1   2   5   30.68    0.28
   0   2   5   57.73    0.69
   1   2   5    9.11    0.16
   2   2   5   51.71    0.76
   3   2   5   23.49    0.42
   4   2   5   20.15    0.40
   5   2   5    0.24    0.24
  -6   3   5    2.68    0.19
  -5   3   5    7.71    0.31
  -4   3   5    5.91    0.22
  -3   3   5    7.29    0.15
  -2   3   5    5.57    0.18
  -1   3   5   49.23    0.42
   0   3   5    1.22    0.10
   1   3   5   28.49    0.43
   2   3   5    5.29    0.29
   3   3   5   21.93    0.40
   4   3   5    5.58    0.25
   5   3   5   15.97    0.49
  -6   4   5    1.00    0.16
  -5   4   5    5.97    0.29
  -4   4   5    1.88    0.18
  -3   4   5   12.35    0.24
  -2   4   5   21.53    0.30
  -1   4   5    3.82    0.12
   0   4   5    8.78    0.26
   1   4   5    1.43    0.14
   2   4   5   29.92    0.59
   3   4   5    2.95    0.20
   4   4   5   10.65    0.32
  -6   5   5    0.23    0.15
  -5   5   5   22.25    0.48
  -4   5   5    6.17    0.22
  -3   5   5   25.74    0.37
  -2   5   5   11.97    0.22
  -1   5   5   29.32    0.34
   0   5   5    5.82    0.22
   1   5   5   14.86    0.36
   2   5   5   10.25    0.41
   3   5   5    4.17    0.23
   4   5   5    4.45    0.25
  -5   6   5    1.30    0.31
  -4   6   5    2.09    0.17
  -3   6   5    8.81    0.23
  -2   6   5    4.53    0.25
  -1   6   5    3.85    0.16
   0   6   5   14.10    0.47
   1   6   5    6.00    0.26
   2   6   5    1.68    0.34
   3   6   5    0.02    0.17
   4   6   5    1.61    0.20
  -5   7   5   13.47    0.38
  -4   7   5    6.80    0.23
  -3   7   5   18.15    0.35
  -2   7   5   12.01    0.38
  -1   7   5    5.81    0.19
   0   7   5    3.79    0.41
   1   7   5   11.33    0.34
   2   7   5    6.91    0.37
   3   7   5    4.77    0.30
  -4   8   5    2.26    0.32
  -3   8   5    5.86    0.29
  -2   8   5    0.00    0.32
  -1   8   5    5.93    0.23
   0   8   5    1.86    0.36
   1   8   5    6.59    0.30
   2   8   5    0.00    0.37
  -3   9   5    7.37    0.33
  -2   9   5    1.81    0.32
  -1   9   5    0.12    0.15
   0   9   5    0.06    0.27
   1   9   5    1.76    0.31
  -6   0   6    4.26    0.33
  -5   0   6    1.15    0.40
  -4   0   6   42.12    0.82
  -3   0   6    0.07    0.13
  -2   0   6   10.59    0.34
  -1   0   6    5.74    0.20
   0   0   6   10.91    0.34
   1   0   6    1.45    0.14
   2   0   6    3.18    0.39
   3   0   6   13.20    0.45
   4   0   6    5.31    0.37
  -6   1   6    8.30    0.27
  -5   1   6    3.96    0.36
  -4   1   6   14.37    0.32
  -3   1   6   18.02    0.30
  -2   1   6   12.88    0.30
  -1   1   6   24.11    0.26
   0   1   6    0.40    0.11
   1   1   6   29.65    0.33
   2   1   6    9.81    0.35
   3   1   6    2.74    0.20
   4   1   6    2.59    0.21
  -6   2   6    6.05    0.25
  -5   2   6    0.59    0.23
  -4   2   6    3.66    0.20
  -3   2   6    1.04    0.11
  -2   2   6   12.44    0.51
  -1   2   6    2.02    0.11
   0   2   6    8.20    0.20
   1   2   6   20.13    0.37
   2   2   6    7.74    0.40
   3   2   6    1.57    0.18
   4   2   6    0.60    0.17
  -6   3   6    4.46    0.24
  -5   3   6   22.65    0.43
  -4   3   6    0.58    0.16
  -3   3   6   54.47    0.54
  -2   3   6    3.95    0.22
  -1   3   6   28.65    0.34
   0   3   6    3.65    0.18
   1   3   6   20.58    0.38
   2   3   6   10.67    0.35
   3   3   6    7.39    0.27
   4   3   6    6.28    0.28
  -6   4   6    2.03    0.20
  -5   4   6    0.74    0.25
  -4   4   6   20.76    0.31
  -3   4   6   14.34    0.22
  -2   4   6   14.73    0.43
  -1   4   6   29.86    0.41
   0   4   6   24.43    0.56
   1   4   6    6.52    0.28
   2   4   6    4.03    0.50
   3   4   6   11.73    0.33
  -5   5   6    0.24    0.26
  -4   5   6    7.49    0.19
  -3   5   6    3.13    0.14
  -2   5   6    4.25    0.26
  -1   5   6   15.29    0.29
   0   5   6    3.27    0.29
   1   5   6    5.57    0.28
   2   5   6    0.38    0.32
   3   5   6    6.13    0.32
  -5   6   6    9.02    0.26
  -4   6   6    2.44    0.23
  -3   6   6    6.51    0.19
  -2   6   6    3.63    0.28
  -1   6   6   24.31    0.42
   0   6   6    7.64    0.52
   1   6   6   10.70    0.35
   2   6   6    0.47    0.35
  -4   7   6    8.18    0.34
  -3   7   6    1.01    0.14
  -2   7   6    0.00    0.25
  -1   7   6    5.19    0.29
   0   7   6    3.83    0.43
   1   7   6    0.49    0.25
   2   7   6    2.58    0.26
  -3   8   6    1.81    0.17
  -2   8   6    7.73    0.29
  -1   8   6    2.88    0.32
   0   8   6    3.13    0.44
  -5   0   7    0.70    0.43
  -4   0   7    0.21    0.26
  -3   0   7    0.21    0.18
  -2   0   7    0.00    0.36
  -1   0   7    0.92    0.15
   0   0   7    1.92    0.22
   1   0   7    4.86    0.33
   2   0   7    0.59    0.40
   3   0   7    1.06    0.25
  -5   1   7   11.61    0.43
  -4   1   7    0.66    0.20
  -3   1   7    4.23    0.21
  -2   1   7    4.80    0.27
  -1   1   7    5.22    0.16
   0   1   7    3.58    0.16
   1   1   7    3.24    0.20
   2   1   7    9.11    0.39
   3   1   7    2.11    0.21
  -5   2   7   14.42    0.41
  -4   2   7    8.66    0.34
  -3   2   7   14.36    0.29
  -2   2   7   13.38    0.33
  -1   2   7   21.51    0.31
   0   2   7    0.39    0.16
   1   2   7    1.11    0.19
   2   2   7    8.78    0.36
  -5   3   7   12.81    0.49
  -4   3   7    0.50    0.17
  -3   3   7    9.07    0.24
  -2   3   7    0.84    0.25
  -1   3   7    0.91    0.14
   0   3   7    4.36    0.23
   1   3   7   10.21    0.35
   2   3   7    8.19    0.48
  -5   4   7    3.27    0.23
  -4   4   7    2.39    0.24
  -3   4   7    5.69    0.19
  -2   4   7   22.83    0.44
  -1   4   7    0.31    0.13
   0   4   7    1.57    0.27
   1   4   7    5.38    0.30
   2   4   7    2.20    0.41
  -4   5   7    5.29    0.29
  -3   5   7    3.17    0.19
  -2   5   7    4.48    0.26
  -1   5   7    4.32    0.27
   0   5   7    0.66    0.25
   1   5   7    0.61    0.26
  -3   6   7    4.98    0.23
  -2   6   7    3.32    0.30
  -1   6   7    0.19    0.17
   0   6   7    3.07    0.46
  -4   0   8    0.41    0.30
  -3   0   8    6.52    0.36
  -2   0   8    2.15    0.41
  -1   0   8    9.86    0.40
   0   0   8    0.55    0.29
   1   0   8    6.78    0.38
  -4   1   8    9.83    0.34
  -3   1   8    1.45    0.17
  -2   1   8    7.30    0.37
  -1   1   8    0.98    0.14
   0   1   8    5.74    0.30
   1   1   8    3.35    0.29
  -4   2   8    0.86    0.26
  -3   2   8    4.36    0.23
  -2   2   8    1.59    0.31
  -1   2   8    1.14    0.19
   0   2   8    3.87    0.29
  -3   3   8    9.48    0.28
  -2   3   8    8.40    0.43
  -1   3   8    0.14    0.15
   0   3   8    0.98    0.29
  -2   4   8    8.50    0.34
  -1   4   8    2.37    0.22
   0   0   0    0.00    0.00
;
_shelx_hkl_checksum              60056
_shelx_res_file
;
    shelx.res created by SHELXL-2014/7
TITL twin in P2(1)
CELL  0.71073   6.3640   9.6272   6.8627   90.000  101.805   90.000
ZERR     2.00   0.0017   0.0026   0.0018    0.000    0.004    0.000
LATT  -1
SYMM  - X, 1/2 + Y, - Z
SFAC  C    H    N    O
UNIT  8 12 20 4
MERG   2
EQIV $1 -x, y+1/2, -z
EQIV $2 -x, y-1/2, -z+1
EQIV $3 -x+1, y-1/2, -z+2
EQIV $4 -x+1, y+1/2, -z+2
HTAB N4 N2_$1
HTAB N4 O15
HTAB C6 O15_$2
HTAB C8 N11_$3
HTAB N10 N13_$4
HTAB N10 O16
FMAP   2
PLAN   20
DFIX 0.87 0.01 N10 H10
SIZE     0.010   0.320   0.360
ACTA
BOND   $H
CONF
LIST   4
WPDB  -2
L.S.   8
TEMP  -100.00
WGHT    0.051300    0.416900
FVAR       0.34491
N1    3    0.017403    0.354959    0.247285    11.00000    0.01484    0.01015 =
         0.01393   -0.00149    0.00111   -0.00154
N2    3   -0.001260    0.343868    0.046714    11.00000    0.01411    0.00930 =
         0.01645    0.00102    0.00287    0.00037
N3    3    0.000046    0.465880   -0.035632    11.00000    0.01409    0.00818 =
         0.01437   -0.00402    0.00174   -0.00169
N4    3    0.020819    0.558088    0.113913    11.00000    0.01391    0.00742 =
         0.01345   -0.00193    0.00206   -0.00213
H4    2    0.028327    0.640209    0.098709    11.00000   -1.20000
C5    1    0.031675    0.490070    0.285063    11.00000    0.01042    0.00711 =
         0.01387    0.00041    0.00028   -0.00232
C6    1    0.046563    0.553299    0.487991    11.00000    0.01390    0.01126 =
         0.01218    0.00041    0.00204   -0.00437
AFIX  23
H6A   2   -0.054186    0.632622    0.476908    11.00000   -1.20000
H6B   2    0.000934    0.483438    0.576752    11.00000   -1.20000
AFIX   0
N7    3    0.262014    0.601664    0.578251    11.00000    0.01519    0.00611 =
         0.01422   -0.00082    0.00028   -0.00450
C8    1    0.425087    0.513879    0.698567    11.00000    0.02230    0.00616 =
         0.00930    0.00041    0.00134    0.00413
AFIX  23
H8A   2    0.557272    0.517824    0.643751    11.00000   -1.20000
H8B   2    0.373840    0.416538    0.688938    11.00000   -1.20000
AFIX   0
C9    1    0.478780    0.555865    0.914834    11.00000    0.00907    0.01148 =
         0.01301   -0.00359    0.00155    0.00080
N10   3    0.518449    0.684787    0.985722    11.00000    0.01711    0.00595 =
         0.01308    0.00136    0.00493    0.00112
H10   2    0.510421    0.763786    0.923903    11.00000   -1.20000
N11   3    0.566494    0.679160    1.185976    11.00000    0.01550    0.01008 =
         0.01215    0.00015    0.00132    0.00200
N12   3    0.557353    0.548865    1.234108    11.00000    0.01358    0.01122 =
         0.01307    0.00030    0.00191   -0.00030
N13   3    0.502308    0.470089    1.066630    11.00000    0.01314    0.00795 =
         0.01118   -0.00054    0.00073   -0.00100
N14   3    0.327319    0.722641    0.512230    11.00000    0.01468    0.00781 =
         0.01149   -0.00026    0.00372   -0.00163
O15   4    0.203384    0.784440    0.379350    11.00000    0.01822    0.00987 =
         0.01358    0.00295    0.00125    0.00310
O16   4    0.508554    0.763638    0.591856    11.00000    0.01650    0.01480 =
         0.01443   -0.00069    0.00211   -0.00524
HKLF 4
REM  twin in P2(1)
REM R1 =  0.0362 for     835 Fo > 4sig(Fo)  and  0.0420 for all     889 data
REM    151 parameters refined using      2 restraints
END
WGHT      0.0514      0.4215
REM Highest difference peak  0.251,  deepest hole -0.319,  1-sigma level  0.070
Q1    1   0.4275  0.5410  0.8053  11.00000  0.05    0.25
Q2    1   0.1027  0.2733  0.2932  11.00000  0.05    0.25
Q3    1  -0.2440  0.6586  0.4821  11.00000  0.05    0.24
Q4    1   0.1545  0.6207 -0.0026  11.00000  0.05    0.24
Q5    1   0.6469  0.5379  0.4592  11.00000  0.05    0.23
Q6    1  -0.2147  0.4933  0.5229  11.00000  0.05    0.23
Q7    1   0.4287  0.6332  1.3131  11.00000  0.05    0.22
Q8    1   0.6717  0.7818  0.5247  11.00000  0.05    0.22
Q9    1  -0.0302  0.6550  0.2766  11.00000  0.05    0.22
Q10   1   0.7273  0.6291  0.9914  11.00000  0.05    0.21
Q11   1   0.5754  0.4611  0.9414  11.00000  0.05    0.21
Q12   1   0.2353  0.3611  0.8088  11.00000  0.05    0.21
Q13   1   0.7092  0.7607  0.5423  11.00000  0.05    0.21
Q14   1   0.2043  0.6984  0.2013  11.00000  0.05    0.20
Q15   1   0.0461  0.5392  0.3744  11.00000  0.05    0.20
Q16   1   0.3522  0.7654  0.2424  11.00000  0.05    0.20
Q17   1   0.1861  0.5426  0.1334  11.00000  0.05    0.20
Q18   1   0.2107  0.6444  0.7075  11.00000  0.05    0.20
Q19   1  -0.1983  0.4865 -0.1726  11.00000  0.05    0.20
Q20   1   0.0142  0.3552  0.1436  11.00000  0.05    0.20
;
_shelx_res_checksum              4562
loop_
_space_group_symop_operation_xyz
'x, y, z'
'-x, y+1/2, -z'
loop_
_atom_site_type_symbol
_atom_site_label
_atom_site_fract_x
_atom_site_fract_y
_atom_site_fract_z
_atom_site_U_iso_or_equiv
_atom_site_adp_type
_atom_site_calc_flag
_atom_site_occupancy
N N1 0.0174(5) 0.3550(3) 0.2473(5) 0.0132(7) Uani d 1
N N2 -0.0013(5) 0.3439(4) 0.0467(5) 0.0133(7) Uani d 1
N N3 0.0000(5) 0.4659(4) -0.0356(5) 0.0124(7) Uani d 1
N N4 0.0208(5) 0.5581(4) 0.1139(5) 0.0117(7) Uani d 1
H H4 0.028(7) 0.640(7) 0.099(6) 0.014 Uiso d 1
C C5 0.0317(6) 0.4901(4) 0.2851(5) 0.0108(7) Uani d 1
C C6 0.0466(6) 0.5533(4) 0.4880(5) 0.0125(7) Uani d 1
H H6A -0.0542 0.6326 0.4769 0.015 Uiso calc 1
H H6B 0.0009 0.4834 0.5768 0.015 Uiso calc 1
N N7 0.2620(5) 0.6017(3) 0.5783(5) 0.0122(7) Uani d 1
C C8 0.4251(6) 0.5139(4) 0.6986(5) 0.0129(8) Uani d 1
H H8A 0.5573 0.5178 0.6438 0.015 Uiso calc 1
H H8B 0.3738 0.4165 0.6889 0.015 Uiso calc 1
C C9 0.4788(5) 0.5559(5) 0.9148(5) 0.0113(7) Uani d 1
N N10 0.5184(5) 0.6848(3) 0.9857(5) 0.0118(7) Uani d 1
H H10 0.510(7) 0.764(3) 0.924(6) 0.014 Uiso d 1
N N11 0.5665(5) 0.6792(3) 1.1860(5) 0.0128(7) Uani d 1
N N12 0.5574(5) 0.5489(4) 1.2341(4) 0.0127(7) Uani d 1
N N13 0.5023(5) 0.4701(4) 1.0666(4) 0.0110(7) Uani d 1
N N14 0.3273(5) 0.7226(3) 0.5122(4) 0.0112(7) Uani d 1
O O15 0.2034(4) 0.7844(3) 0.3794(4) 0.0142(6) Uani d 1
O O16 0.5086(4) 0.7636(3) 0.5919(4) 0.0154(6) Uani d 1
loop_
_atom_site_aniso_label
_atom_site_aniso_U_11
_atom_site_aniso_U_22
_atom_site_aniso_U_33
_atom_site_aniso_U_12
_atom_site_aniso_U_13
_atom_site_aniso_U_23
N1 0.0148(14) 0.0102(17) 0.0139(15) -0.0015(13) 0.0011(12) -0.0015(13)
N2 0.0141(15) 0.0093(18) 0.0164(17) 0.0004(13) 0.0029(12) 0.0010(13)
N3 0.0141(14) 0.0082(17) 0.0144(16) -0.0017(13) 0.0017(12) -0.0040(13)
N4 0.0139(15) 0.0074(16) 0.0135(15) -0.0021(13) 0.0021(11) -0.0019(14)
C5 0.0104(16) 0.0071(18) 0.0139(17) -0.0023(14) 0.0003(13) 0.0004(15)
C6 0.0139(18) 0.0113(18) 0.0122(16) -0.0044(16) 0.0020(13) 0.0004(16)
N7 0.0152(16) 0.0061(15) 0.0142(15) -0.0045(13) 0.0003(12) -0.0008(13)
C8 0.022(2) 0.0062(18) 0.0093(16) 0.0041(14) 0.0013(14) 0.0004(13)
C9 0.0091(16) 0.0115(18) 0.0130(17) 0.0008(15) 0.0015(13) -0.0036(16)
N10 0.0171(16) 0.0060(17) 0.0131(15) 0.0011(13) 0.0049(12) 0.0014(13)
N11 0.0155(16) 0.0101(17) 0.0122(14) 0.0020(13) 0.0013(11) 0.0001(13)
N12 0.0136(15) 0.0112(15) 0.0131(15) -0.0003(14) 0.0019(11) 0.0003(15)
N13 0.0131(15) 0.0079(18) 0.0112(15) -0.0010(13) 0.0007(11) -0.0005(13)
N14 0.0147(15) 0.0078(15) 0.0115(14) -0.0016(12) 0.0037(12) -0.0003(12)
O15 0.0182(13) 0.0099(13) 0.0136(12) 0.0031(12) 0.0012(10) 0.0029(11)
O16 0.0165(13) 0.0148(14) 0.0144(12) -0.0052(10) 0.0021(10) -0.0007(11)
loop_
_atom_type_symbol
_atom_type_description
_atom_type_scat_dispersion_real
_atom_type_scat_dispersion_imag
_atom_type_scat_source
C C 0.0033 0.0016 'International Tables Vol C Tables 4.2.6.8 and 6.1.1.4'
H H 0.0000 0.0000 'International Tables Vol C Tables 4.2.6.8 and 6.1.1.4'
N N 0.0061 0.0033 'International Tables Vol C Tables 4.2.6.8 and 6.1.1.4'
O O 0.0106 0.0060 'International Tables Vol C Tables 4.2.6.8 and 6.1.1.4'
loop_
_geom_angle_atom_site_label_1
_geom_angle_atom_site_label_2
_geom_angle_atom_site_label_3
_geom_angle
C5 N1 N2 105.2(3)
N3 N2 N1 111.1(3)
N2 N3 N4 105.8(3)
C5 N4 N3 109.1(4)
C5 N4 H4 127(3)
N3 N4 H4 124(3)
N1 C5 N4 108.7(4)
N1 C5 C6 124.5(3)
N4 C5 C6 126.7(3)
N7 C6 C5 113.4(3)
N7 C6 H6A 108.9
C5 C6 H6A 108.9
N7 C6 H6B 108.9
C5 C6 H6B 108.9
H6A C6 H6B 107.7
N14 N7 C8 117.4(3)
N14 N7 C6 117.4(3)
C8 N7 C6 123.6(3)
N7 C8 C9 113.2(3)
N7 C8 H8A 108.9
C9 C8 H8A 108.9
N7 C8 H8B 108.9
C9 C8 H8B 108.9
H8A C8 H8B 107.8
N13 C9 N10 108.2(3)
N13 C9 C8 125.3(4)
N10 C9 C8 126.5(4)
C9 N10 N11 108.7(3)
C9 N10 H10 130(3)
N11 N10 H10 121(3)
N12 N11 N10 106.6(3)
N11 N12 N13 109.9(3)
C9 N13 N12 106.7(3)
O15 N14 O16 124.9(3)
O15 N14 N7 118.2(3)
O16 N14 N7 116.9(3)
loop_
_geom_bond_atom_site_label_1
_geom_bond_atom_site_label_2
_geom_bond_distance
N1 C5 1.326(5)
N1 N2 1.361(4)
N2 N3 1.304(5)
N3 N4 1.343(5)
N4 C5 1.334(5)
N4 H4 0.80(6)
C5 C6 1.505(5)
C6 N7 1.460(5)
C6 H6A 0.9900
C6 H6B 0.9900
N7 N14 1.346(4)
N7 C8 1.457(5)
C8 C9 1.508(5)
C8 H8A 0.9900
C8 H8B 0.9900
C9 N13 1.314(5)
C9 N10 1.338(5)
N10 N11 1.347(4)
N10 H10 0.867(11)
N11 N12 1.301(5)
N12 N13 1.362(5)
N14 O15 1.230(4)
N14 O16 1.236(4)
loop_
_geom_hbond_atom_site_label_D
_geom_hbond_atom_site_label_H
_geom_hbond_atom_site_label_A
_geom_hbond_site_symmetry_A
_geom_hbond_distance_DH
_geom_hbond_distance_HA
_geom_hbond_distance_DA
_geom_hbond_angle_DHA
N4 H4 N2 2 0.80(6) 2.19(6) 2.957(5) 160(4)
N4 H4 O15 . 0.80(6) 2.45(5) 2.924(5) 119(4)
C6 H6B O15 2_546 0.99 2.37 3.264(5) 149.9
C8 H8B N11 2_647 0.99 2.44 3.316(5) 146.8
N10 H10 N13 2_657 0.867(11) 1.99(3) 2.770(5) 149(4)
N10 H10 O16 . 0.867(11) 2.28(4) 2.796(4) 118(4)
loop_
_geom_torsion_atom_site_label_1
_geom_torsion_atom_site_label_2
_geom_torsion_atom_site_label_3
_geom_torsion_atom_site_label_4
_geom_torsion
C5 N1 N2 N3 -0.4(4)
N1 N2 N3 N4 0.3(4)
N2 N3 N4 C5 0.0(4)
N2 N1 C5 N4 0.3(4)
N2 N1 C5 C6 177.6(3)
N3 N4 C5 N1 -0.2(4)
N3 N4 C5 C6 -177.4(3)
N1 C5 C6 N7 104.7(4)
N4 C5 C6 N7 -78.6(5)
C5 C6 N7 N14 77.3(4)
C5 C6 N7 C8 -87.9(4)
N14 N7 C8 C9 82.6(4)
C6 N7 C8 C9 -112.2(4)
N7 C8 C9 N13 135.9(4)
N7 C8 C9 N10 -46.8(5)
N13 C9 N10 N11 -0.4(4)
C8 C9 N10 N11 -178.1(3)
C9 N10 N11 N12 0.5(4)
N10 N11 N12 N13 -0.4(4)
N10 C9 N13 N12 0.1(4)
C8 C9 N13 N12 177.8(3)
N11 N12 N13 C9 0.2(4)
C8 N7 N14 O15 165.5(3)
C6 N7 N14 O15 -0.6(5)
C8 N7 N14 O16 -15.0(4)
C6 N7 N14 O16 178.9(3)

_cod_database_fobs_code 2242193
