#------------------------------------------------------------------------------
#$Date: 2018-09-26 05:29:00 +0300 (Wed, 26 Sep 2018) $
#$Revision: 211172 $
#$URL: file:///home/coder/svn-repositories/cod/cif/2/24/26/2242650.cif $
#------------------------------------------------------------------------------
#
# This file is available in the Crystallography Open Database (COD),
# http://www.crystallography.net/. The original data for this entry
# were provided by IUCr Journals, http://journals.iucr.org/.
#
# The file may be used within the scientific community so long as
# proper attribution is given to the journal article from which the
# data were obtained.
#
data_2242650
loop_
_publ_author_name
'Gomes, Ligia R.'
'de Souza, Marcus V. N.'
'Da Costa, Cristiane F.'
'Wardell, James'
'Low, John Nicolson'
_publ_section_title
;
 Different classical hydrogen-bonding patterns in three salicylaldoxime
 derivatives, 2-HO-4-<i>X</i>C~6~H~3~C=NOH (<i>X</i> = Me, OH and MeO)
;
_journal_coeditor_code           QM2128
_journal_issue                   10
_journal_name_full               'Acta Crystallographica Section E'
_journal_page_first              1480
_journal_page_last               1485
_journal_paper_doi               10.1107/S2056989018013361
_journal_volume                  74
_journal_year                    2018
_chemical_formula_iupac          'C7 H7 N O3'
_chemical_formula_moiety         'C7 H7 N O3'
_chemical_formula_sum            'C7 H7 N O3'
_chemical_formula_weight         153.14
_chemical_name_systematic
;
2,4-Dihydroxybenzaldehyde oxime
;
_space_group_crystal_system      monoclinic
_space_group_IT_number           14
_space_group_name_Hall           '-P 2ybc'
_space_group_name_H-M_alt        'P 1 21/c 1'
_symmetry_space_group_name_Hall  '-P 2ybc'
_symmetry_space_group_name_H-M   'P 1 21/c 1'
_atom_sites_solution_hydrogens   mixed
_audit_creation_method           <i>SHELXL2017/1</i>
_cell_angle_alpha                90
_cell_angle_beta                 92.501(2)
_cell_angle_gamma                90
_cell_formula_units_Z            4
_cell_length_a                   3.72410(10)
_cell_length_b                   8.6902(2)
_cell_length_c                   20.7570(5)
_cell_measurement_reflns_used    13388
_cell_measurement_temperature    100(2)
_cell_measurement_theta_max      32.1060
_cell_measurement_theta_min      1.9420
_cell_volume                     671.12(3)
_computing_cell_refinement
;
CrysAlisPro (Rigaku OD, 2017)
;
_computing_data_collection
;
CrysAlisPro (Rigaku OD, 2017)
;
_computing_data_reduction
;
CrysAlisPro (Rigaku OD, 2017)
;
_computing_molecular_graphics
;
Mercury (Macrae <i>et al.</i>,  2006)
;
_computing_publication_material
;
Oscail (McArdle <i>et al.</i>,  2004),
<i>SHELXL2017/1</i> (Sheldrick, 2015b),
PLATON (Spek, 2009)
;
_computing_structure_refinement
;
Oscail (McArdle <i>et al.</i>,  2004),
<i>ShelXle</i> (H\"ubschle <i>et al.</i>,  2011),
<i>SHELXL2017/1</i> (Sheldrick, 2015b)
;
_computing_structure_solution
;
Oscail (McArdle <i>et al.</i>,  2004),
SHELXT (Sheldrick, 2015a)
;
_diffrn_ambient_temperature      100(2)
_diffrn_detector                 'hybrid pixel detector'
_diffrn_detector_area_resol_mean 10
_diffrn_measured_fraction_theta_full 1.000
_diffrn_measured_fraction_theta_max 1.000
_diffrn_measurement_device       'four-circle diffractometer'
_diffrn_measurement_device_type
;
Rigaku FRE+ AFC12 with HyPix 6000 detector
;
_diffrn_measurement_method       'profile data from \w-scans'
_diffrn_measurement_specimen_support 'MiTeGen MicroLoop'
_diffrn_radiation_monochromator  'Confocal mirrors, VHF Varimax'
_diffrn_radiation_probe          x-ray
_diffrn_radiation_type           'Mo K\a'
_diffrn_radiation_wavelength     0.71075
_diffrn_reflns_av_R_equivalents  0.0391
_diffrn_reflns_av_unetI/netI     0.0112
_diffrn_reflns_limit_h_max       4
_diffrn_reflns_limit_h_min       -4
_diffrn_reflns_limit_k_max       11
_diffrn_reflns_limit_k_min       -11
_diffrn_reflns_limit_l_max       26
_diffrn_reflns_limit_l_min       -26
_diffrn_reflns_number            29482
_diffrn_reflns_theta_full        25.242
_diffrn_reflns_theta_max         27.480
_diffrn_reflns_theta_min         1.964
_diffrn_source                   'Rotating Anode'
_diffrn_source_current           55.0
_diffrn_source_power             2.475
_diffrn_source_voltage           45.0
_exptl_absorpt_coefficient_mu    0.120
_exptl_absorpt_correction_T_max  1.00000
_exptl_absorpt_correction_T_min  0.65414
_exptl_absorpt_correction_type   multi-scan
_exptl_absorpt_process_details
;
(CrysAlisPro ; Rigaku OD, 2017)
;
_exptl_crystal_colour            colourless
_exptl_crystal_density_diffrn    1.516
_exptl_crystal_description       block
_exptl_crystal_F_000             320
_exptl_crystal_size_max          0.200
_exptl_crystal_size_mid          0.100
_exptl_crystal_size_min          0.050
_refine_diff_density_max         0.381
_refine_diff_density_min         -0.209
_refine_ls_extinction_method     none
_refine_ls_goodness_of_fit_ref   0.861
_refine_ls_hydrogen_treatment    mixed
_refine_ls_matrix_type           full
_refine_ls_number_parameters     113
_refine_ls_number_reflns         1537
_refine_ls_number_restraints     0
_refine_ls_restrained_S_all      0.861
_refine_ls_R_factor_all          0.0409
_refine_ls_R_factor_gt           0.0397
_refine_ls_shift/su_max          0.000
_refine_ls_shift/su_mean         0.000
_refine_ls_structure_factor_coef Fsqd
_refine_ls_weighting_details
'w=1/[\s^2^(Fo^2^)+(0.0229P)^2^+1.3357P] where P=(Fo^2^+2Fc^2^)/3'
_refine_ls_weighting_scheme      calc
_refine_ls_wR_factor_gt          0.0915
_refine_ls_wR_factor_ref         0.0923
_reflns_number_gt                1482
_reflns_number_total             1537
_reflns_threshold_expression     'I > 2\s(I)'
_cod_data_source_file            qm2128sup1.cif
_cod_data_source_block           2
_cod_database_code               2242650
_shelx_space_group_comment
;
The symmetry employed for this shelxl refinement is uniquely defined
by the following loop, which should always be used as a source of
symmetry information in preference to the above space-group names.
They are only intended as comments.
;
_shelx_estimated_absorpt_t_min   0.976
_shelx_estimated_absorpt_t_max   0.994
_shelx_hkl_file
;
   1   0   0   45816     535   1
   2   0   0   18414     229   1
   3   0   0   17730     233   1
  -4   0   2   14753     274  -2
   4   0   0   14753     274   1
   1   1   0  710138    5565   1
  -2  -1   1   30064     230  -2
   2   1   0   30064     230   1
   3   1   0     213      18   1
  -4  -1   2   14186     161  -2
   4   1   0   14186     161   1
   0  -2   0   30274     369  -2
   0   2   0   30274     369   1
   1   2   0   12256     138   1
  -2  -2   1    4325      52  -2
   2   2   0    4325      52   1
   3   2   0   29706     266   1
  -4  -2   2    3036      67  -2
   4   2   0    3036      67   1
   1   3   0   15775     150   1
  -2  -3   1   13136     135  -2
   2   3   0   13136     135   1
   3   3   0    1181      35   1
  -4  -3   2    2249      61  -2
   4   3   0    2249      61   1
   0  -4   0  115233    1857  -2
   0   4   0  115233    1857   1
   1   4   0    4290      55   1
  -2  -4   1     502      31  -2
   2   4   0     502      31   1
   3   4   0    3279      60   1
  -4  -4   2    1948      58  -2
   4   4   0    1948      58   1
   1   5   0   50593     480   1
  -2  -5   1   17657     173  -2
   2   5   0   17657     173   1
   3   5   0     173      22   1
  -4  -5   2    8105     145  -2
   4   5   0    8105     145   1
   0  -6   0   32934     439  -2
   0   6   0   32934     439   1
   1   6   0   27223     264   1
  -2  -6   1     342      21  -2
   2   6   0     342      21   1
   3   6   0    1942     147   1
  -4  -6   2      26      42  -2
   4   6   0      26      42   1
   1   7   0   51828     543   1
  -2  -7   1    1112      31  -2
   2   7   0    1112      31   1
   3   7   0    1280      51   1
   0  -8   0  361901    3742  -2
   0   8   0  361901    3742   1
   1   8   0    7571     115   1
  -2  -8   1   11878     146  -2
   2   8   0   11878     146   1
   3   8   0    4037     109   1
   1   9   0   54760     584   1
  -2  -9   1   42452     401  -2
   2   9   0   42452     401   1
   0 -10   0    1739      63  -2
   0  10   0    1739      63   1
   1  10   0     111      35   1
  -2 -10   1    1245      58  -2
   2  10   0    1245      58   1
   1  11   0    1865      65   1
   4  -1  -1   13868     151  -2
  -4   1   1   13868     151   1
  -3   1   1     378      20   1
   2  -1   0    5289      59  -2
  -2   1   1    5289      59   1
  -1   1   1  564139    4529   1
   0  -1   1    1105      15  -2
   0   1   1    1105      15   1
   1   1   1   17974     152   1
  -2  -1   2   19884     157  -2
   2   1   1   19884     157   1
   3   1   1    7104      72   1
  -4  -1   3    2259      50  -2
   4   1   1    2259      50   1
   4  -2  -1     237      24  -2
  -4   2   1     237      24   1
  -3   2   1   67339     509   1
   2  -2   0   16604     139  -2
  -2   2   1   16604     139   1
  -1   2   1    4940      63   1
   0  -2   1   57103     592  -2
   0   2   1   57103     592   1
   1   2   1     172      13   1
  -2  -2   2   54423     430  -2
   2   2   1   54423     430   1
   3   2   1     527      21   1
  -4  -2   3      97      17  -2
   4   2   1      97      17   1
   4  -3  -1   11166     139  -2
  -4   3   1   11166     139   1
  -3   3   1    1035      34   1
   2  -3   0   26530     226  -2
  -2   3   1   26530     226   1
  -1   3   1   65926     557   1
   0  -3   1   13358     147  -2
   0   3   1   13358     147   1
   1   3   1   13968     159   1
  -2  -3   2   24480     260  -2
   2   3   1   24480     260   1
   3   3   1   61419     566   1
  -4  -3   3     -12      27  -2
   4   3   1     -12      27   1
   4  -4  -1     -24      36  -2
  -4   4   1     -24      36   1
  -3   4   1    3442      62   1
   2  -4   0   11351     116  -2
  -2   4   1   11351     116   1
  -1   4   1    3106      46   1
   0  -4   1    9554     111  -2
   0   4   1    9554     111   1
   1   4   1    6575     102   1
  -2  -4   2    1587      77  -2
   2   4   1    1587      77   1
   3   4   1     188      26   1
  -4  -4   3    1449      50  -2
   4   4   1    1449      50   1
   4  -5  -1   12686     186  -2
  -4   5   1   12686     186   1
  -3   5   1    4582      72   1
   2  -5   0    3906      58  -2
  -2   5   1    3906      58   1
  -1   5   1   16870     156   1
   0  -5   1    9526      94  -2
   0   5   1    9526      94   1
   1   5   1     224      16   1
  -2  -5   2     220      19  -2
   2   5   1     220      19   1
   3   5   1   12004     130   1
  -4  -5   3     604      50  -2
   4   5   1     604      50   1
   4  -6  -1       7      46  -2
  -4   6   1       7      46   1
  -3   6   1   51300     731   1
   2  -6   0     894      30  -2
  -2   6   1     894      30   1
  -1   6   1    1343      32   1
   0  -6   1    3900      54  -2
   0   6   1    3900      54   1
   1   6   1   16617     142   1
  -2  -6   2   10369     117  -2
   2   6   1   10369     117   1
   3   6   1    1243      47   1
  -4  -6   3    1109      60  -2
   4   6   1    1109      60   1
  -3   7   1     878      42   1
   2  -7   0    5603     101  -2
  -2   7   1    5603     101   1
  -1   7   1   19167     198   1
   0  -7   1    1712      39  -2
   0   7   1    1712      39   1
   1   7   1    3243      72   1
  -2  -7   2     821      28  -2
   2   7   1     821      28   1
   3   7   1     347      38   1
  -3   8   1     141      39   1
   2  -8   0    2421      56  -2
  -2   8   1    2421      56   1
  -1   8   1    2970      63   1
   0  -8   1   14172     236  -2
   0   8   1   14172     236   1
   1   8   1   60584     599   1
  -2  -8   2     181      23  -2
   2   8   1     181      23   1
   3   8   1     218      50   1
   2  -9   0    2488     157  -2
  -2   9   1    2488     157   1
  -1   9   1   35106     415   1
   0  -9   1      47      24  -2
   0   9   1      47      24   1
   1   9   1    1366      79   1
  -2  -9   2   21310     272  -2
   2   9   1   21310     272   1
   2 -10   0     293      42  -2
  -2  10   1     293      42   1
  -1  10   1    1524      55   1
   0 -10   1     147      28  -2
   0  10   1     147      28   1
   1  10   1    3011      75   1
  -2 -10   2    4623     232  -2
   2  10   1    4623     232   1
  -1  11   1   10925     170   1
   0 -11   1     584      44  -2
   0  11   1     584      44   1
   1  11   1     442      55   1
   4   0   0    8253     160  -2
  -4   0   2    8253     160   1
  -3   0   2    6731     112   1
  -2   0   2     258      21   1
  -1   0   2     582      24   1
   0   0   2   26360     235  -2
   0   0   2   26360     235   1
   1   0   2  468176    5066   1
   2   0   2    8618     138   1
   3   0   2    1824      54   1
  -4   0   4     130      36  -2
   4   0   2     130      36   1
   4  -1   0    4638      69  -2
  -4   1   2    4638      69   1
  -3   1   2   11753     109   1
   2  -1   1     644      47  -2
  -2   1   2     644      47   1
  -1   1   2   94407     819   1
   0  -1   2  117884     841  -2
   0   1   2  117884     841   1
   1   1   2  402758    3139   1
  -2  -1   3    9151     171  -2
   2   1   2    9151     171   1
   3   1   2     445      49   1
  -4  -1   4   13352     224  -2
   4   1   2   13352     224   1
   4  -2   0    2307      45  -2
  -4   2   2    2307      45   1
  -3   2   2    1519      34   1
   2  -2   1  144640    1119  -2
  -2   2   2  144640    1119   1
  -1   2   2    6023      78   1
   0  -2   2   20111     176  -2
   0   2   2   20111     176   1
   1   2   2    1449      30   1
  -2  -2   3  218592    1681  -2
   2   2   2  218592    1681   1
   3   2   2    6932     135   1
  -4  -2   4     277      23  -2
   4   2   2     277      23   1
   4  -3   0    4430      92  -2
  -4   3   2    4430      92   1
  -3   3   2    3339     149   1
   2  -3   1   10832     114  -2
  -2   3   2   10832     114   1
  -1   3   2     586      22   1
   0  -3   2   37898     365  -2
   0   3   2   37898     365   1
   1   3   2   14804     180   1
  -2  -3   3    3841     144  -2
   2   3   2    3841     144   1
   3   3   2   27099     262   1
  -4  -3   4    1257      39  -2
   4   3   2    1257      39   1
   4  -4   0    3129      76  -2
  -4   4   2    3129      76   1
  -3   4   2     398      25   1
   2  -4   1   35416     338  -2
  -2   4   2   35416     338   1
  -1   4   2  132067    1308   1
   0  -4   2    9519      89  -2
   0   4   2    9519      89   1
   1   4   2    8799      89   1
  -2  -4   3    9293     116  -2
   2   4   2    9293     116   1
   3   4   2      15      23   1
  -4  -4   4    2917      65  -2
   4   4   2    2917      65   1
   4  -5   0    5791     122  -2
  -4   5   2    5791     122   1
  -3   5   2    2694      56   1
   2  -5   1    1935      43  -2
  -2   5   2    1935      43   1
  -1   5   2    6118      91   1
   0  -5   2   33072     279  -2
   0   5   2   33072     279   1
   1   5   2    5927      71   1
  -2  -5   3     750      49  -2
   2   5   2     750      49   1
   3   5   2   29860     370   1
  -4  -5   4    5545     114  -2
   4   5   2    5545     114   1
   4  -6   0     598      58  -2
  -4   6   2     598      58   1
  -3   6   2    3682      75   1
   2  -6   1    1177      43  -2
  -2   6   2    1177      43   1
  -1   6   2   14404     145   1
   0  -6   2     338      19  -2
   0   6   2     338      19   1
   1   6   2   10643     106   1
  -2  -6   3   68939     777  -2
   2   6   2   68939     777   1
   3   6   2     978     120   1
  -4  -6   4    3174      88  -2
   4   6   2    3174      88   1
  -3   7   2    3434      94   1
   2  -7   1    1094      33  -2
  -2   7   2    1094      33   1
  -1   7   2     602      30   1
   0  -7   2  145929    1129  -2
   0   7   2  145929    1129   1
   1   7   2   27074     240   1
  -2  -7   3    1396      76  -2
   2   7   2    1396      76   1
   3   7   2     300      36   1
  -3   8   2     137      38   1
   2  -8   1      -2      22  -2
  -2   8   2      -2      22   1
  -1   8   2    5145      89   1
   0  -8   2     598      31  -2
   0   8   2     598      31   1
   1   8   2   34118     318   1
  -2  -8   3      22      21  -2
   2   8   2      22      21   1
   3   8   2     650      59   1
   2  -9   1    2982      82  -2
  -2   9   2    2982      82   1
  -1   9   2   10322     126   1
   0  -9   2    4713      69  -2
   0   9   2    4713      69   1
   1   9   2   15909     176   1
  -2  -9   3    2194      61  -2
   2   9   2    2194      61   1
   2 -10   1   51139     763  -2
  -2  10   2   51139     763   1
  -1  10   2     354      36   1
   0 -10   2    3940      66  -2
   0  10   2    3940      66   1
   1  10   2     572      53   1
  -2 -10   3   29524     427  -2
   2  10   2   29524     427   1
  -1  11   2    2290      74   1
   0 -11   2    2859      73  -2
   0  11   2    2859      73   1
   1  11   2     939      65   1
   4  -1   1    1023      35  -2
  -4   1   3    1023      35   1
  -3   1   3   17903     154   1
   2  -1   2   90748     710  -2
  -2   1   3   90748     710   1
  -1   1   3   17789     164   1
   0  -1   3   45687     332  -2
   0   1   3   45687     332   1
   1   1   3 1252818   10380   1
  -2  -1   4   16195     188  -2
   2   1   3   16195     188   1
   3   1   3    2722      42   1
  -4  -1   5    1735      45  -2
   4   1   3    1735      45   1
   4  -2   1      -7      23  -2
  -4   2   3      -7      23   1
  -3   2   3   50641     397   1
   2  -2   2   10436     349  -2
  -2   2   3   10436     349   1
  -1   2   3   13989     139   1
   0  -2   3  141708    1114  -2
   0   2   3  141708    1114   1
   1   2   3    3458      49   1
  -2  -2   4  279406    1948  -2
   2   2   3  279406    1948   1
   3   2   3   21574     190   1
  -4  -2   5      37      23  -2
   4   2   3      37      23   1
   4  -3   1    2520      51  -2
  -4   3   3    2520      51   1
  -3   3   3    5372      73   1
   2  -3   2   68956     555  -2
  -2   3   3   68956     555   1
  -1   3   3     174      19   1
   0  -3   3   10136     110  -2
   0   3   3   10136     110   1
   1   3   3   59579     747   1
  -2  -3   4    2093      74  -2
   2   3   3    2093      74   1
   3   3   3    3904      59   1
  -4  -3   5   16333     275  -2
   4   3   3   16333     275   1
   4  -4   1    2237      67  -2
  -4   4   3    2237      67   1
  -3   4   3     760      30   1
   2  -4   2     368      26  -2
  -2   4   3     368      26   1
  -1   4   3    1818      35   1
   0  -4   3   37140     437  -2
   0   4   3   37140     437   1
   1   4   3     122      17   1
  -2  -4   4    2903      45  -2
   2   4   3    2903      45   1
   3   4   3    4144      65   1
  -4  -4   5     680      94  -2
   4   4   3     680      94   1
   4  -5   1    2786      87  -2
  -4   5   3    2786      87   1
  -3   5   3    3082      69   1
   2  -5   2   24778     222  -2
  -2   5   3   24778     222   1
  -1   5   3    2558      41   1
   0  -5   3     167      15  -2
   0   5   3     167      15   1
   1   5   3     669      22   1
  -2  -5   4   18784     275  -2
   2   5   3   18784     275   1
   3   5   3    3323      66   1
  -4  -5   5     704      48  -2
   4   5   3     704      48   1
   4  -6   1     160      60  -2
  -4   6   3     160      60   1
  -3   6   3   33425     400   1
   2  -6   2    3068     143  -2
  -2   6   3    3068     143   1
  -1   6   3     258      23   1
   0  -6   3   36992     404  -2
   0   6   3   36992     404   1
   1   6   3     526      22   1
  -2  -6   4  100970    1116  -2
   2   6   3  100970    1116   1
   3   6   3     613      29   1
  -4  -6   5     589      50  -2
   4   6   3     589      50   1
  -3   7   3    1541      45   1
   2  -7   2   30534     371  -2
  -2   7   3   30534     371   1
  -1   7   3    6063     133   1
   0  -7   3    3139      50  -2
   0   7   3    3139      50   1
   1   7   3  220729    1949   1
  -2  -7   4     451      32  -2
   2   7   3     451      32   1
   3   7   3    1906      80   1
  -3   8   3     308      42   1
   2  -8   2     562      30  -2
  -2   8   3     562      30   1
  -1   8   3   26000     280   1
   0  -8   3   33065     285  -2
   0   8   3   33065     285   1
   1   8   3    1607      58   1
  -2  -8   4     243      23  -2
   2   8   3     243      23   1
   3   8   3    1082      65   1
   2  -9   2     586      37  -2
  -2   9   3     586      37   1
  -1   9   3    3162      97   1
   0  -9   3     142      24  -2
   0   9   3     142      24   1
   1   9   3   21046     243   1
  -2  -9   4    7509     112  -2
   2   9   3    7509     112   1
   2 -10   2    2508     204  -2
  -2  10   3    2508     204   1
  -1  10   3   10957     196   1
   0 -10   3    6230     100  -2
   0  10   3    6230     100   1
   1  10   3     279      47   1
  -2 -10   4   11014     209  -2
   2  10   3   11014     209   1
   0 -11   3     539      53  -2
   0  11   3     539      53   1
   4   0   2    2000      62  -2
  -4   0   4    2000      62   1
  -3   0   4    2114      66   1
  -2   0   4    6940     107   1
  -1   0   4  102829    1350   1
   0   0   4  700050    5954  -2
   0   0   4  700050    5954   1
   1   0   4  211778    2406   1
   2   0   4   17436     202   1
   3   0   4    1254      46   1
  -4   0   6     687      47  -2
   4   0   4     687      47   1
   4  -1   2     314      21  -2
  -4   1   4     314      21   1
  -3   1   4     680      24   1
   2  -1   3   87783     689  -2
  -2   1   4   87783     689   1
  -1   1   4   29714     272   1
   0  -1   4   11241      91  -2
   0   1   4   11241      91   1
   1   1   4   16233     161   1
  -2  -1   5  145956    1144  -2
   2   1   4  145956    1144   1
   3   1   4     422      24   1
  -4  -1   6    1181      39  -2
   4   1   4    1181      39   1
   4  -2   2    1927      46  -2
  -4   2   4    1927      46   1
  -3   2   4   13714     124   1
   2  -2   3   11892     388  -2
  -2   2   4   11892     388   1
  -1   2   4    2736      40   1
   0  -2   4   29020     236  -2
   0   2   4   29020     236   1
   1   2   4   20258     324   1
  -2  -2   5    4859     223  -2
   2   2   4    4859     223   1
   3   2   4   59289     558   1
  -4  -2   6     890      34  -2
   4   2   4     890      34   1
   4  -3   2    2493      52  -2
  -4   3   4    2493      52   1
  -3   3   4     371      27   1
   2  -3   3   34844     288  -2
  -2   3   4   34844     288   1
  -1   3   4   57939     523   1
   0  -3   4     276      17  -2
   0   3   4     276      17   1
   1   3   4    6244     122   1
  -2  -3   5     185      16  -2
   2   3   4     185      16   1
   3   3   4   14183     167   1
  -4  -3   6    1839      56  -2
   4   3   4    1839      56   1
   4  -4   2    2485      66  -2
  -4   4   4    2485      66   1
  -3   4   4    9737     103   1
   2  -4   3      89      22  -2
  -2   4   4      89      22   1
  -1   4   4  103429     859   1
   0  -4   4  202679    2013  -2
   0   4   4  202679    2013   1
   1   4   4    1290      36   1
  -2  -4   5    3230      46  -2
   2   4   4    3230      46   1
   3   4   4      57      18   1
  -4  -4   6   76945    1353  -2
   4   4   4   76945    1353   1
   4  -5   2    4029     106  -2
  -4   5   4    4029     106   1
  -3   5   4     138      29   1
   2  -5   3   86074     682  -2
  -2   5   4   86074     682   1
  -1   5   4     728      25   1
   0  -5   4     589      17  -2
   0   5   4     589      17   1
   1   5   4   28296     330   1
  -2  -5   5    6708      75  -2
   2   5   4    6708      75   1
   3   5   4   11566     169   1
  -4  -5   6     317      46  -2
   4   5   4     317      46   1
   4  -6   2      55      58  -2
  -4   6   4      55      58   1
  -3   6   4     436      36   1
   2  -6   3    8099     197  -2
  -2   6   4    8099     197   1
  -1   6   4    2886      50   1
   0  -6   4   12010     127  -2
   0   6   4   12010     127   1
   1   6   4   28776     288   1
  -2  -6   5    9593     180  -2
   2   6   4    9593     180   1
   3   6   4    4550     120   1
  -3   7   4     176      31   1
   2  -7   3    9618     128  -2
  -2   7   4    9618     128   1
  -1   7   4   13633     152   1
   0  -7   4    4611      62  -2
   0   7   4    4611      62   1
   1   7   4   40191     442   1
  -2  -7   5    4607      71  -2
   2   7   4    4607      71   1
   3   7   4     269      37   1
  -3   8   4     674      50   1
   2  -8   3      63      24  -2
  -2   8   4      63      24   1
  -1   8   4    5993      94   1
   0  -8   4   36891     396  -2
   0   8   4   36891     396   1
   1   8   4   19053     213   1
  -2  -8   5      92      22  -2
   2   8   4      92      22   1
   3   8   4     389      57   1
   2  -9   3    2177      56  -2
  -2   9   4    2177      56   1
  -1   9   4   17906     181   1
   0  -9   4    3287      61  -2
   0   9   4    3287      61   1
   1   9   4    2185      66   1
  -2  -9   5   42527     537  -2
   2   9   4   42527     537   1
   2 -10   3    3941      99  -2
  -2  10   4    3941      99   1
  -1  10   4    1202      37   1
   0 -10   4      76      34  -2
   0  10   4      76      34   1
   1  10   4     499      47   1
  -2 -10   5    1292      62  -2
   2  10   4    1292      62   1
   0 -11   4     304      45  -2
   0  11   4     304      45   1
   4  -1   3     743      30  -2
  -4   1   5     743      30   1
  -3   1   5   11044     138   1
   2  -1   4   13354     194  -2
  -2   1   5   13354     194   1
  -1   1   5   12766     118   1
   0  -1   5   98802     780  -2
   0   1   5   98802     780   1
   1   1   5    7335      77   1
  -2  -1   6   40012     321  -2
   2   1   5   40012     321   1
   3   1   5     473      25   1
  -4  -1   7      91      28  -2
   4   1   5      91      28   1
   4  -2   3    1216      43  -2
  -4   2   5    1216      43   1
  -3   2   5   18416     162   1
   2  -2   4  105977     856  -2
  -2   2   5  105977     856   1
  -1   2   5    5177      64   1
   0  -2   5   54586     430  -2
   0   2   5   54586     430   1
   1   2   5   97836     899   1
  -2  -2   6   67563     475  -2
   2   2   5   67563     475   1
   3   2   5    3797      58   1
  -4  -2   7     168      26  -2
   4   2   5     168      26   1
   4  -3   3   25900     230  -2
  -4   3   5   25900     230   1
  -3   3   5     778      37   1
   2  -3   4     521      25  -2
  -2   3   5     521      25   1
  -1   3   5  287831    2394   1
   0  -3   5   48567     436  -2
   0   3   5   48567     436   1
   1   3   5   10714     127   1
  -2  -3   6    2982      43  -2
   2   3   5    2982      43   1
   3   3   5   56969     912   1
  -4  -3   7    1013     145  -2
   4   3   5    1013     145   1
   4  -4   3      26      32  -2
  -4   4   5      26      32   1
  -3   4   5     132      25   1
   2  -4   4    1916      45  -2
  -2   4   5    1916      45   1
  -1   4   5     108      14   1
   0  -4   5   14972     142  -2
   0   4   5   14972     142   1
   1   4   5      12      16   1
  -2  -4   6    1613      57  -2
   2   4   5    1613      57   1
   3   4   5     258      24   1
  -4  -4   7    2215      72  -2
   4   4   5    2215      72   1
   4  -5   3    4439     125  -2
  -4   5   5    4439     125   1
  -3   5   5    7860     100   1
   2  -5   4    4849      72  -2
  -2   5   5    4849      72   1
  -1   5   5   77002     598   1
   0  -5   5    2969      43  -2
   0   5   5    2969      43   1
   1   5   5     160      18   1
  -2  -5   6     925      68  -2
   2   5   5     925      68   1
   3   5   5   66101     739   1
  -4  -5   7     361      37  -2
   4   5   5     361      37   1
   4  -6   3     478      73  -2
  -4   6   5     478      73   1
  -3   6   5   12764     163   1
   2  -6   4   66227     619  -2
  -2   6   5   66227     619   1
  -1   6   5    2123      43   1
   0  -6   5    9444     101  -2
   0   6   5    9444     101   1
   1   6   5     236      24   1
  -2  -6   6   22475     270  -2
   2   6   5   22475     270   1
   3   6   5     490      30   1
  -3   7   5    3414      65   1
   2  -7   4    4391      75  -2
  -2   7   5    4391      75   1
  -1   7   5   14750     141   1
   0  -7   5    1031      33  -2
   0   7   5    1031      33   1
   1   7   5     101      25   1
  -2  -7   6    4202      57  -2
   2   7   5    4202      57   1
   3   7   5    3313      77   1
  -3   8   5     104      41   1
   2  -8   4    2489      51  -2
  -2   8   5    2489      51   1
  -1   8   5    1700      44   1
   0  -8   5   19421     195  -2
   0   8   5   19421     195   1
   1   8   5    9516     114   1
  -2  -8   6     489      24  -2
   2   8   5     489      24   1
   3   8   5     313      53   1
   2  -9   4    2115     106  -2
  -2   9   5    2115     106   1
  -1   9   5    4248      74   1
   0  -9   5    3187      64  -2
   0   9   5    3187      64   1
   1   9   5    3712      67   1
  -2  -9   6    8912     124  -2
   2   9   5    8912     124   1
   2 -10   4    4591     107  -2
  -2  10   5    4591     107   1
  -1  10   5     253      26   1
   0 -10   5    1842      61  -2
   0  10   5    1842      61   1
   1  10   5    8622     145   1
  -2 -10   6    1343      62  -2
   2  10   5    1343      62   1
   0 -11   5     339      47  -2
   0  11   5     339      47   1
   4   0   4     337      40  -2
  -4   0   6     337      40   1
  -3   0   6    3501      77   1
  -2   0   6      33      22   1
  -1   0   6  692026    7443   1
   0   0   6   84356     783  -2
   0   0   6   84356     783   1
   1   0   6   50116     794   1
   2   0   6  126289    1226   1
   3   0   6    2110      74   1
  -4   0   8     361      37  -2
   4   0   6     361      37   1
   4  -1   4    3852      61  -2
  -4   1   6    3852      61   1
  -3   1   6     370      24   1
   2  -1   5   47041     395  -2
  -2   1   6   47041     395   1
  -1   1   6     954      24   1
   0  -1   6   61380     421  -2
   0   1   6   61380     421   1
   1   1   6   13861     137   1
  -2  -1   7    1470      49  -2
   2   1   6    1470      49   1
   3   1   6    4252      66   1
  -4  -1   8     702      67  -2
   4   1   6     702      67   1
   4  -2   4   15785     201  -2
  -4   2   6   15785     201   1
  -3   2   6    4982      63   1
   2  -2   5    7727     143  -2
  -2   2   6    7727     143   1
  -1   2   6    6619      70   1
   0  -2   6   30243     247  -2
   0   2   6   30243     247   1
   1   2   6    2598      40   1
  -2  -2   7   64028     502  -2
   2   2   6   64028     502   1
   3   2   6    7192      84   1
  -4  -2   8     600      32  -2
   4   2   6     600      32   1
   4  -3   4     357      32  -2
  -4   3   6     357      32   1
  -3   3   6   14563     229   1
   2  -3   5    2417      44  -2
  -2   3   6    2417      44   1
  -1   3   6    3655      54   1
   0  -3   6  175732    1537  -2
   0   3   6  175732    1537   1
   1   3   6   65060     685   1
  -2  -3   7    2710     146  -2
   2   3   6    2710     146   1
   3   3   6   33173     336   1
  -4  -3   8   40626     605  -2
   4   3   6   40626     605   1
   4  -4   4    1425     105  -2
  -4   4   6    1425     105   1
  -3   4   6     998      33   1
   2  -4   5   15301     153  -2
  -2   4   6   15301     153   1
  -1   4   6  135363    1035   1
   0  -4   6   15522     156  -2
   0   4   6   15522     156   1
   1   4   6    3688      50   1
  -2  -4   7   20670     189  -2
   2   4   6   20670     189   1
   3   4   6    7551      87   1
  -4  -4   8    8014     132  -2
   4   4   6    8014     132   1
   4  -5   4     856      77  -2
  -4   5   6     856      77   1
  -3   5   6   20344     240   1
   2  -5   5   22640     215  -2
  -2   5   6   22640     215   1
  -1   5   6     144      18   1
   0  -5   6   17281     152  -2
   0   5   6   17281     152   1
   1   5   6   67585     570   1
  -2  -5   7    1376      33  -2
   2   5   6    1376      33   1
   3   5   6   64426     884   1
  -4  -5   8    8246     181  -2
   4   5   6    8246     181   1
  -3   6   6    3736      68   1
   2  -6   5    2226      64  -2
  -2   6   6    2226      64   1
  -1   6   6   10496     108   1
   0  -6   6      80      20  -2
   0   6   6      80      20   1
   1   6   6    1163      35   1
  -2  -6   7  154245    1433  -2
   2   6   6  154245    1433   1
   3   6   6    1562      42   1
  -3   7   6     935      41   1
   2  -7   5    2992      63  -2
  -2   7   6    2992      63   1
  -1   7   6      51      19   1
   0  -7   6     488      29  -2
   0   7   6     488      29   1
   1   7   6    4536      67   1
  -2  -7   7     761      28  -2
   2   7   6     761      28   1
   3   7   6     610      47   1
  -3   8   6      51      40   1
   2  -8   5    1045      37  -2
  -2   8   6    1045      37   1
  -1   8   6   40488     365   1
   0  -8   6   11876     135  -2
   0   8   6   11876     135   1
   1   8   6    2042      60   1
  -2  -8   7   12651     191  -2
   2   8   6   12651     191   1
   3   8   6     155      45   1
   2  -9   5    9719     143  -2
  -2   9   6    9719     143   1
  -1   9   6     217      27   1
   0  -9   6    8954     119  -2
   0   9   6    8954     119   1
   1   9   6    8990     114   1
  -2  -9   7    1495      53  -2
   2   9   6    1495      53   1
   2 -10   5    1618      58  -2
  -2  10   6    1618      58   1
  -1  10   6     284      26   1
   0 -10   6    7108     121  -2
   0  10   6    7108     121   1
   1  10   6     952      56   1
   0 -11   6   29881     373  -2
   0  11   6   29881     373   1
   4  -1   5    3408      68  -2
  -4   1   7    3408      68   1
  -3   1   7     170      23   1
   2  -1   6   24115     217  -2
  -2   1   7   24115     217   1
  -1   1   7   40562     323   1
   0  -1   7   41754     305  -2
   0   1   7   41754     305   1
   1   1   7   11406      96   1
  -2  -1   8    2266      51  -2
   2   1   7    2266      51   1
   3   1   7    4050      64   1
  -4  -1   9    1123     100  -2
   4   1   7    1123     100   1
   4  -2   5   12218     182  -2
  -4   2   7   12218     182   1
  -3   2   7     596      28   1
   2  -2   6    2706     115  -2
  -2   2   7    2706     115   1
  -1   2   7   83242     624   1
   0  -2   7   34143     278  -2
   0   2   7   34143     278   1
   1   2   7      32      14   1
  -2  -2   8    8590      90  -2
   2   2   7    8590      90   1
   3   2   7   42447     526   1
  -4  -2   9     201      31  -2
   4   2   7     201      31   1
   4  -3   5    1066      41  -2
  -4   3   7    1066      41   1
  -3   3   7    1221      68   1
   2  -3   6   48812     433  -2
  -2   3   7   48812     433   1
  -1   3   7    8592      94   1
   0  -3   7   82468     616  -2
   0   3   7   82468     616   1
   1   3   7   44637     459   1
  -2  -3   8     324      16  -2
   2   3   7     324      16   1
   3   3   7     665      33   1
  -4  -3   9   24755     338  -2
   4   3   7   24755     338   1
   4  -4   5    1043      51  -2
  -4   4   7    1043      51   1
  -3   4   7    2145      47   1
   2  -4   6     683      38  -2
  -2   4   7     683      38   1
  -1   4   7   48379     406   1
   0  -4   7    5035      63  -2
   0   4   7    5035      63   1
   1   4   7     305      17   1
  -2  -4   8    1143      29  -2
   2   4   7    1143      29   1
   3   4   7    3062      83   1
  -4  -4   9    1708     257  -2
   4   4   7    1708     257   1
   4  -5   5      55      54  -2
  -4   5   7      55      54   1
  -3   5   7    2517     125   1
   2  -5   6     841      30  -2
  -2   5   7     841      30   1
  -1   5   7    4289      58   1
   0  -5   7    9257      94  -2
   0   5   7    9257      94   1
   1   5   7   55877     517   1
  -2  -5   8     618      23  -2
   2   5   7     618      23   1
   3   5   7    1093      43   1
  -4  -5   9   14247     274  -2
   4   5   7   14247     274   1
  -3   6   7     210      34   1
   2  -6   6    7641     293  -2
  -2   6   7    7641     293   1
  -1   6   7   21910     190   1
   0  -6   7    1005      28  -2
   0   6   7    1005      28   1
   1   6   7     512      29   1
  -2  -6   8     295      25  -2
   2   6   7     295      25   1
   3   6   7    6772      98   1
  -3   7   7     146      32   1
   2  -7   6      30      22  -2
  -2   7   7      30      22   1
  -1   7   7    7720      95   1
   0  -7   7   13232     141  -2
   0   7   7   13232     141   1
   1   7   7   21320     196   1
  -2  -7   8    1345      32  -2
   2   7   7    1345      32   1
   3   7   7    4054      82   1
  -3   8   7     260      41   1
   2  -8   6    1023      43  -2
  -2   8   7    1023      43   1
  -1   8   7    9312     151   1
   0  -8   7   35614     347  -2
   0   8   7   35614     347   1
   1   8   7    1706      45   1
  -2  -8   8    8718     101  -2
   2   8   7    8718     101   1
   3   8   7    1495      65   1
   2  -9   6   10115     131  -2
  -2   9   7   10115     131   1
  -1   9   7     353      28   1
   0  -9   7      22      30  -2
   0   9   7      22      30   1
   1   9   7    2301      56   1
  -2  -9   8     332      37  -2
   2   9   7     332      37   1
  -1  10   7      28      33   1
   0 -10   7      68      39  -2
   0  10   7      68      39   1
   1  10   7     568      54   1
   4   0   6     600      43  -2
  -4   0   8     600      43   1
  -3   0   8    5234      93   1
  -2   0   8   24002     306   1
  -1   0   8   23998     290   1
   0   0   8  405483    3834  -2
   0   0   8  405483    3834   1
   1   0   8   15102     165   1
   2   0   8   10348     131   1
   3   0   8      30      33   1
  -4   0  10    3483     115  -2
   4   0   8    3483     115   1
   4  -1   6   36715     433  -2
  -4   1   8   36715     433   1
  -3   1   8    8511      94   1
   2  -1   7   23287     234  -2
  -2   1   8   23287     234   1
  -1   1   8   99750     744   1
   0  -1   8   43274     325  -2
   0   1   8   43274     325   1
   1   1   8   47918     322   1
  -2  -1   9   47566     468  -2
   2   1   8   47566     468   1
   3   1   8     406      26   1
  -4  -1  10     273      37  -2
   4   1   8     273      37   1
   4  -2   6     197      29  -2
  -4   2   8     197      29   1
  -3   2   8   82767     709   1
   2  -2   7    3484      54  -2
  -2   2   8    3484      54   1
  -1   2   8    1811      31   1
   0  -2   8   18385     154  -2
   0   2   8   18385     154   1
   1   2   8     271      16   1
  -2  -2   9    3561      52  -2
   2   2   8    3561      52   1
   3   2   8   18129     169   1
  -4  -2  10     221      44  -2
   4   2   8     221      44   1
   4  -3   6     656      41  -2
  -4   3   8     656      41   1
  -3   3   8      73      25   1
   2  -3   7     720      29  -2
  -2   3   8     720      29   1
  -1   3   8   18679     164   1
   0  -3   8   22956     189  -2
   0   3   8   22956     189   1
   1   3   8   28571     301   1
  -2  -3   9    1656      33  -2
   2   3   8    1656      33   1
   3   3   8    3133      70   1
  -4  -3  10     902      76  -2
   4   3   8     902      76   1
   4  -4   6    4895     130  -2
  -4   4   8    4895     130   1
  -3   4   8   18843     183   1
   2  -4   7     888      30  -2
  -2   4   8     888      30   1
  -1   4   8     296      22   1
   0  -4   8  334428    2490  -2
   0   4   8  334428    2490   1
   1   4   8   16655     171   1
  -2  -4   9    1512      32  -2
   2   4   8    1512      32   1
   3   4   8     739      26   1
  -4  -4  10   61521    1478  -2
   4   4   8   61521    1478   1
   4  -5   6      90      53  -2
  -4   5   8      90      53   1
  -3   5   8     129      32   1
   2  -5   7    3779      60  -2
  -2   5   8    3779      60   1
  -1   5   8   24924     222   1
   0  -5   8   12136     113  -2
   0   5   8   12136     113   1
   1   5   8   34788     390   1
  -2  -5   9    1327      32  -2
   2   5   8    1327      32   1
   3   5   8   17436     246   1
  -4  -5  10     895      74  -2
   4   5   8     895      74   1
  -3   6   8    1747      49   1
   2  -6   7     911      31  -2
  -2   6   8     911      31   1
  -1   6   8    9672     101   1
   0  -6   8     786      27  -2
   0   6   8     786      27   1
   1   6   8    2867      53   1
  -2  -6   9     474      34  -2
   2   6   8     474      34   1
   3   6   8   13063     203   1
  -3   7   8     703      39   1
   2  -7   7     678      30  -2
  -2   7   8     678      30   1
  -1   7   8   47873     385   1
   0  -7   8    4012      68  -2
   0   7   8    4012      68   1
   1   7   8     211      30   1
  -2  -7   9    1890      37  -2
   2   7   8    1890      37   1
   3   7   8    3796      91   1
  -3   8   8    1184      56   1
   2  -8   7   13248     212  -2
  -2   8   8   13248     212   1
  -1   8   8    1396      35   1
   0  -8   8   28280     358  -2
   0   8   8   28280     358   1
   1   8   8     120      27   1
  -2  -8   9    4880      68  -2
   2   8   8    4880      68   1
   3   8   8      45      41   1
   2  -9   7    6465     104  -2
  -2   9   8    6465     104   1
  -1   9   8    4334      75   1
   0  -9   8     834      41  -2
   0   9   8     834      41   1
   1   9   8   15427     167   1
  -2  -9   9    9791     144  -2
   2   9   8    9791     144   1
  -1  10   8      91      35   1
   0 -10   8    1690      55  -2
   0  10   8    1690      55   1
   1  10   8    2374      81   1
   4  -1   7   40971     480  -2
  -4   1   9   40971     480   1
  -3   1   9     868      31   1
   2  -1   8   11643     130  -2
  -2   1   9   11643     130   1
  -1   1   9   26459     207   1
   0  -1   9  201437    1512  -2
   0   1   9  201437    1512   1
   1   1   9   33585     269   1
  -2  -1  10     475      22  -2
   2   1   9     475      22   1
   3   1   9   36030     435   1
  -4  -1  11     381      44  -2
   4   1   9     381      44   1
   4  -2   7    7347     128  -2
  -4   2   9    7347     128   1
  -3   2   9   16919     168   1
   2  -2   8    6706      82  -2
  -2   2   9    6706      82   1
  -1   2   9    8331      82   1
   0  -2   9    1302      26  -2
   0   2   9    1302      26   1
   1   2   9  103536    1120   1
  -2  -2  10   87483     771  -2
   2   2   9   87483     771   1
   3   2   9    1712      43   1
  -4  -2  11    1831      65  -2
   4   2   9    1831      65   1
   4  -3   7    2255      58  -2
  -4   3   9    2255      58   1
  -3   3   9   13227     156   1
   2  -3   8     244      24  -2
  -2   3   9     244      24   1
  -1   3   9   29858     249   1
   0  -3   9   22172     185  -2
   0   3   9   22172     185   1
   1   3   9     102      13   1
  -2  -3  10    3197     136  -2
   2   3   9    3197     136   1
   3   3   9    3795      68   1
  -4  -3  11     256      59  -2
   4   3   9     256      59   1
   4  -4   7     139      39  -2
  -4   4   9     139      39   1
  -3   4   9     972      38   1
   2  -4   8    4110      63  -2
  -2   4   9    4110      63   1
  -1   4   9   18220     179   1
   0  -4   9     306      21  -2
   0   4   9     306      21   1
   1   4   9    2079      36   1
  -2  -4  10     529      24  -2
   2   4   9     529      24   1
   3   4   9     168      21   1
  -4  -4  11    6085     259  -2
   4   4   9    6085     259   1
   4  -5   7     165      53  -2
  -4   5   9     165      53   1
  -3   5   9   14621     168   1
   2  -5   8    2392      49  -2
  -2   5   9    2392      49   1
  -1   5   9    8587      96   1
   0  -5   9    6160      72  -2
   0   5   9    6160      72   1
   1   5   9    1395      39   1
  -2  -5  10    7655     136  -2
   2   5   9    7655     136   1
   3   5   9    5854     137   1
  -3   6   9    7395     101   1
   2  -6   8    9821     120  -2
  -2   6   9    9821     120   1
  -1   6   9    1377      35   1
   0  -6   9    1750      38  -2
   0   6   9    1750      38   1
   1   6   9   10002     116   1
  -2  -6  10   16442     184  -2
   2   6   9   16442     184   1
   3   6   9     134      21   1
  -3   7   9     122      33   1
   2  -7   8    5430      76  -2
  -2   7   9    5430      76   1
  -1   7   9    5369      67   1
   0  -7   9   41511     387  -2
   0   7   9   41511     387   1
   1   7   9    4084      68   1
  -2  -7  10    2323      50  -2
   2   7   9    2323      50   1
   3   7   9   30301     548   1
  -3   8   9     691      56   1
   2  -8   8     869      32  -2
  -2   8   9     869      32   1
  -1   8   9    6018      79   1
   0  -8   9     145      33  -2
   0   8   9     145      33   1
   1   8   9    1052      39   1
  -2  -8  10      -4      27  -2
   2   8   9      -4      27   1
   2  -9   8     424      43  -2
  -2   9   9     424      43   1
  -1   9   9     230      39   1
   0  -9   9    5032      83  -2
   0   9   9    5032      83   1
   1   9   9   19865     207   1
  -2  -9  10    4864     113  -2
   2   9   9    4864     113   1
  -1  10   9    1320      58   1
   0 -10   9    1206      51  -2
   0  10   9    1206      51   1
   1  10   9   23692     315   1
   4   0   8    1571      64  -2
  -4   0  10    1571      64   1
  -3   0  10     263      33   1
  -2   0  10    5286      94   1
  -1   0  10   62262     744   1
   0   0  10  146938    1535  -2
   0   0  10  146938    1535   1
   1   0  10   32992     349   1
   2   0  10    8089     119   1
   3   0  10    6262     173   1
  -4   0  12    2612     155  -2
   4   0  10    2612     155   1
   4  -1   8    3240      63  -2
  -4   1  10    3240      63   1
  -3   1  10    1291      59   1
   2  -1   9    7206      78  -2
  -2   1  10    7206      78   1
  -1   1  10     525      29   1
   0  -1  10   14780     123  -2
   0   1  10   14780     123   1
   1   1  10   88762     671   1
  -2  -1  11      52      13  -2
   2   1  10      52      13   1
   3   1  10    7740     123   1
  -4  -1  12     594      57  -2
   4   1  10     594      57   1
   4  -2   8   12817     160  -2
  -4   2  10   12817     160   1
  -3   2  10   11363     119   1
   2  -2   9    9049     171  -2
  -2   2  10    9049     171   1
  -1   2  10   15717     134   1
   0  -2  10     104      14  -2
   0   2  10     104      14   1
   1   2  10    2162      33   1
  -2  -2  11    5511      85  -2
   2   2  10    5511      85   1
   3   2  10    5665     297   1
  -4  -2  12      28      44  -2
   4   2  10      28      44   1
   4  -3   8    1042      50  -2
  -4   3  10    1042      50   1
  -3   3  10   11278     120   1
   2  -3   9   44417     384  -2
  -2   3  10   44417     384   1
  -1   3  10     538      23   1
   0  -3  10    4919      58  -2
   0   3  10    4919      58   1
   1   3  10   42329     370   1
  -2  -3  11   11798     527  -2
   2   3  10   11798     527   1
   3   3  10     964      34   1
  -4  -3  12    7625     178  -2
   4   3  10    7625     178   1
   4  -4   8    1063      66  -2
  -4   4  10    1063      66   1
  -3   4  10     672      36   1
   2  -4   9    8672     103  -2
  -2   4  10    8672     103   1
  -1   4  10  150159    1205   1
   0  -4  10    5330      59  -2
   0   4  10    5330      59   1
   1   4  10   22953     236   1
  -2  -4  11      28      16  -2
   2   4  10      28      16   1
   3   4  10     694      27   1
  -4  -4  12      67      60  -2
   4   4  10      67      60   1
   4  -5   8    1889      81  -2
  -4   5  10    1889      81   1
  -3   5  10   38053     360   1
   2  -5   9    3702      56  -2
  -2   5  10    3702      56   1
  -1   5  10      12      21   1
   0  -5  10   76668     591  -2
   0   5  10   76668     591   1
   1   5  10    9746     117   1
  -2  -5  11    3456     179  -2
   2   5  10    3456     179   1
   3   5  10     238      26   1
  -3   6  10    2008      57   1
   2  -6   9    2341      53  -2
  -2   6  10    2341      53   1
  -1   6  10      88      21   1
   0  -6  10     -15      22  -2
   0   6  10     -15      22   1
   1   6  10    6072      95   1
  -2  -6  11   12509     163  -2
   2   6  10   12509     163   1
   3   6  10    7117     188   1
  -3   7  10    1313      97   1
   2  -7   9     230      26  -2
  -2   7  10     230      26   1
  -1   7  10    1983      40   1
   0  -7  10    8686     116  -2
   0   7  10    8686     116   1
   1   7  10    1436      41   1
  -2  -7  11     195      28  -2
   2   7  10     195      28   1
   3   7  10     107      31   1
   2  -8   9     470      30  -2
  -2   8  10     470      30   1
  -1   8  10    7929     101   1
   0  -8  10   16252     197  -2
   0   8  10   16252     197   1
   1   8  10    1027      40   1
  -2  -8  11    1299      43  -2
   2   8  10    1299      43   1
   2  -9   9    4135      85  -2
  -2   9  10    4135      85   1
  -1   9  10      83      27   1
   0  -9  10    7912     115  -2
   0   9  10    7912     115   1
   1   9  10   12682     167   1
  -2  -9  11     832      53  -2
   2   9  10     832      53   1
  -1  10  10    1821      66   1
   0 -10  10     157      37  -2
   0  10  10     157      37   1
   1  10  10    7949     149   1
   4  -1   9    5055      95  -2
  -4   1  11    5055      95   1
  -3   1  11     350      27   1
   2  -1  10       9      19  -2
  -2   1  11       9      19   1
  -1   1  11    1924      38   1
   0  -1  11    6483      67  -2
   0   1  11    6483      67   1
   1   1  11   65068     448   1
  -2  -1  12    2689      36  -2
   2   1  11    2689      36   1
   3   1  11    1814      49   1
  -4  -1  13    1717      75  -2
   4   1  11    1717      75   1
   4  -2   9      98      29  -2
  -4   2  11      98      29   1
  -3   2  11   74365     810   1
   2  -2  10   23881     212  -2
  -2   2  11   23881     212   1
  -1   2  11   17499     155   1
   0  -2  11    9202      90  -2
   0   2  11    9202      90   1
   1   2  11   28655     220   1
  -2  -2  12   54029     478  -2
   2   2  11   54029     478   1
   3   2  11    2525     226   1
  -4  -2  13       5      56  -2
   4   2  11       5      56   1
   4  -3   9     899      49  -2
  -4   3  11     899      49   1
  -3   3  11    8849     103   1
   2  -3  10  185216    1526  -2
  -2   3  11  185216    1526   1
  -1   3  11    2488      51   1
   0  -3  11     245      17  -2
   0   3  11     245      17   1
   1   3  11   69731     570   1
  -2  -3  12   22958     254  -2
   2   3  11   22958     254   1
   3   3  11    1439      38   1
  -4  -3  13    2730     105  -2
   4   3  11    2730     105   1
   4  -4   9     148      41  -2
  -4   4  11     148      41   1
  -3   4  11     228      22   1
   2  -4  10      85      25  -2
  -2   4  11      85      25   1
  -1   4  11    8441      99   1
   0  -4  11   12268     110  -2
   0   4  11   12268     110   1
   1   4  11    2943      41   1
  -2  -4  12    4250     203  -2
   2   4  11    4250     203   1
   3   4  11      59      20   1
  -3   5  11     257      35   1
   2  -5  10   56849     467  -2
  -2   5  11   56849     467   1
  -1   5  11     740      30   1
   0  -5  11    3906      58  -2
   0   5  11    3906      58   1
   1   5  11   15784     153   1
  -2  -5  12   26245     312  -2
   2   5  11   26245     312   1
   3   5  11    1232      49   1
  -3   6  11   29137     294   1
   2  -6  10    7031     100  -2
  -2   6  11    7031     100   1
  -1   6  11    4352      62   1
   0  -6  11   18654     175  -2
   0   6  11   18654     175   1
   1   6  11    6393      93   1
  -2  -6  12   12013     143  -2
   2   6  11   12013     143   1
   3   6  11    2220     161   1
  -3   7  11    2128      60   1
   2  -7  10    3120      67  -2
  -2   7  11    3120      67   1
  -1   7  11    3020      50   1
   0  -7  11    5049      73  -2
   0   7  11    5049      73   1
   1   7  11   17193     192   1
  -2  -7  12    1222      38  -2
   2   7  11    1222      38   1
   3   7  11    2813      62   1
   2  -8  10    1420      47  -2
  -2   8  11    1420      47   1
  -1   8  11    7317      95   1
   0  -8  11     381      37  -2
   0   8  11     381      37   1
   1   8  11      77      28   1
  -2  -8  12    3018      62  -2
   2   8  11    3018      62   1
   2  -9  10    3243      75  -2
  -2   9  11    3243      75   1
  -1   9  11     930      42   1
   0  -9  11       2      36  -2
   0   9  11       2      36   1
   1   9  11    5119      98   1
  -2  -9  12   11463     204  -2
   2   9  11   11463     204   1
  -1  10  11    2785      83   1
   0 -10  11     879      49  -2
   0  10  11     879      49   1
   4   0  10      66      46  -2
  -4   0  12      66      46   1
  -3   0  12    9326     148   1
  -2   0  12      77      32   1
  -1   0  12   29773     435   1
   0   0  12  111749    1089  -2
   0   0  12  111749    1089   1
   1   0  12   27838     274   1
   2   0  12    2140      45   1
   3   0  12     300      36   1
  -4   0  14   48427     848  -2
   4   0  12   48427     848   1
   4  -1  10   14428     175  -2
  -4   1  12   14428     175   1
  -3   1  12     571      30   1
   2  -1  11    8660     109  -2
  -2   1  12    8660     109   1
  -1   1  12   16131     153   1
   0  -1  12    2215      35  -2
   0   1  12    2215      35   1
   1   1  12    2586      35   1
  -2  -1  13     466      18  -2
   2   1  12     466      18   1
   3   1  12   14856     195   1
  -4  -1  14    1330      70  -2
   4   1  12    1330      70   1
   4  -2  10     453      36  -2
  -4   2  12     453      36   1
  -3   2  12   49626     500   1
   2  -2  11   10377     125  -2
  -2   2  12   10377     125   1
  -1   2  12     705      26   1
   0  -2  12    3674      47  -2
   0   2  12    3674      47   1
   1   2  12   25535     267   1
  -2  -2  13    5997      73  -2
   2   2  12    5997      73   1
   3   2  12     336      32   1
  -4  -2  14     -12      52  -2
   4   2  12     -12      52   1
   4  -3  10     293      47  -2
  -4   3  12     293      47   1
  -3   3  12    5547      78   1
   2  -3  11   17246     185  -2
  -2   3  12   17246     185   1
  -1   3  12   58118     466   1
   0  -3  12    8543      86  -2
   0   3  12    8543      86   1
   1   3  12    1794      33   1
  -2  -3  13    3376      64  -2
   2   3  12    3376      64   1
   3   3  12   14593     155   1
  -4  -3  14     505      72  -2
   4   3  12     505      72   1
   4  -4  10     -41      41  -2
  -4   4  12     -41      41   1
  -3   4  12     783      35   1
   2  -4  11   70591     581  -2
  -2   4  12   70591     581   1
  -1   4  12     933      30   1
   0  -4  12     113      17  -2
   0   4  12     113      17   1
   1   4  12      52      15   1
  -2  -4  13    1278      67  -2
   2   4  12    1278      67   1
   3   4  12     914      30   1
  -3   5  12   13675     144   1
   2  -5  11   21156     199  -2
  -2   5  12   21156     199   1
  -1   5  12      98      23   1
   0  -5  12   21110     191  -2
   0   5  12   21110     191   1
   1   5  12     620      25   1
  -2  -5  13    2636      42  -2
   2   5  12    2636      42   1
   3   5  12    3039      65   1
  -3   6  12   32882     405   1
   2  -6  11    1847      51  -2
  -2   6  12    1847      51   1
  -1   6  12    5401      97   1
   0  -6  12     737      31  -2
   0   6  12     737      31   1
   1   6  12   68591     747   1
  -2  -6  13    1759      35  -2
   2   6  12    1759      35   1
   3   6  12    4682     108   1
  -3   7  12    1469      63   1
   2  -7  11     304      30  -2
  -2   7  12     304      30   1
  -1   7  12    2523      46   1
   0  -7  12    5160      74  -2
   0   7  12    5160      74   1
   1   7  12    1220      40   1
  -2  -7  13     119      27  -2
   2   7  12     119      27   1
   3   7  12    4954     122   1
   2  -8  11    1015      48  -2
  -2   8  12    1015      48   1
  -1   8  12    3308      74   1
   0  -8  12   10237     126  -2
   0   8  12   10237     126   1
   1   8  12    1734      48   1
  -2  -8  13    5233     103  -2
   2   8  12    5233     103   1
   2  -9  11     808      58  -2
  -2   9  12     808      58   1
  -1   9  12     575      40   1
   0  -9  12      21      36  -2
   0   9  12      21      36   1
   1   9  12    1088      48   1
   0 -10  12    1928      66  -2
   0  10  12    1928      66   1
   4  -1  11   17440     242  -2
  -4   1  13   17440     242   1
  -3   1  13     498      31   1
   2  -1  12     357      25  -2
  -2   1  13     357      25   1
  -1   1  13    9542     108   1
   0  -1  13    9384      91  -2
   0   1  13    9384      91   1
   1   1  13    8233      78   1
  -2  -1  14    3951      48  -2
   2   1  13    3951      48   1
   3   1  13   12099     131   1
  -4  -1  15     592      61  -2
   4   1  13     592      61   1
   4  -2  11     111      34  -2
  -4   2  13     111      34   1
  -3   2  13    8167      95   1
   2  -2  12    1109      36  -2
  -2   2  13    1109      36   1
  -1   2  13     783      28   1
   0  -2  13     130      16  -2
   0   2  13     130      16   1
   1   2  13   34896     269   1
  -2  -2  14   60577     465  -2
   2   2  13   60577     465   1
   3   2  13    3784      60   1
  -4  -2  15     525      74  -2
   4   2  13     525      74   1
   4  -3  11    1116      61  -2
  -4   3  13    1116      61   1
  -3   3  13    1757      46   1
   2  -3  12    4248      68  -2
  -2   3  13    4248      68   1
  -1   3  13     273      23   1
   0  -3  13   91110     678  -2
   0   3  13   91110     678   1
   1   3  13     120      17   1
  -2  -3  14   13577     229  -2
   2   3  13   13577     229   1
   3   3  13    9032     119   1
  -3   4  13     344      31   1
   2  -4  12   19388     186  -2
  -2   4  13   19388     186   1
  -1   4  13    4527      62   1
   0  -4  13     195      19  -2
   0   4  13     195      19   1
   1   4  13    5192      82   1
  -2  -4  14     985      46  -2
   2   4  13     985      46   1
   3   4  13     434      25   1
  -3   5  13   15670     161   1
   2  -5  12    2705      54  -2
  -2   5  13    2705      54   1
  -1   5  13     973      33   1
   0  -5  13   78471     625  -2
   0   5  13   78471     625   1
   1   5  13    1287      31   1
  -2  -5  14    3568     160  -2
   2   5  13    3568     160   1
   3   5  13    5642     105   1
  -3   6  13    3440      76   1
   2  -6  12     736      31  -2
  -2   6  13     736      31   1
  -1   6  13      75      24   1
   0  -6  13      33      25  -2
   0   6  13      33      25   1
   1   6  13   13598     135   1
  -2  -6  14    6087      82  -2
   2   6  13    6087      82   1
   3   6  13     874      51   1
  -3   7  13    2150      72   1
   2  -7  12     -22      28  -2
  -2   7  13     -22      28   1
  -1   7  13    2227      45   1
   0  -7  13    2984      56  -2
   0   7  13    2984      56   1
   1   7  13    2932      57   1
  -2  -7  14    6586      96  -2
   2   7  13    6586      96   1
   2  -8  12     945      49  -2
  -2   8  13     945      49   1
  -1   8  13    1745      45   1
   0  -8  13     816      40  -2
   0   8  13     816      40   1
   1   8  13   12194     152   1
  -2  -8  14     367      36  -2
   2   8  13     367      36   1
  -1   9  13     767      45   1
   0  -9  13     994      51  -2
   0   9  13     994      51   1
   1   9  13    1236      51   1
   4   0  12     664      65  -2
  -4   0  14     664      65   1
  -3   0  14     355      41   1
  -2   0  14   13419     263   1
  -1   0  14   14827     230   1
   0   0  14     968      34  -2
   0   0  14     968      34   1
   1   0  14    1406      38   1
   2   0  14   11572     136   1
   3   0  14     219      36   1
  -4   0  16     366      74  -2
   4   0  14     366      74   1
   4  -1  12     187      36  -2
  -4   1  14     187      36   1
  -3   1  14   10076     148   1
   2  -1  13    6185      78  -2
  -2   1  14    6185      78   1
  -1   1  14   12240     136   1
   0  -1  14    9749      94  -2
   0   1  14    9749      94   1
   1   1  14    6494      68   1
  -2  -1  15     604      38  -2
   2   1  14     604      38   1
   3   1  14    7321      91   1
   4  -2  12    1374      52  -2
  -4   2  14    1374      52   1
  -3   2  14    3228      58   1
   2  -2  13    8843     165  -2
  -2   2  14    8843     165   1
  -1   2  14   12577     121   1
   0  -2  14   14889     131  -2
   0   2  14   14889     131   1
   1   2  14     169      19   1
  -2  -2  15    4088      58  -2
   2   2  14    4088      58   1
   3   2  14     682      26   1
   4  -3  12     837      42  -2
  -4   3  14     837      42   1
  -3   3  14     921      38   1
   2  -3  13   65364     649  -2
  -2   3  14   65364     649   1
  -1   3  14   37636     309   1
   0  -3  14   34836     279  -2
   0   3  14   34836     279   1
   1   3  14    7694      80   1
  -2  -3  15    2207     100  -2
   2   3  14    2207     100   1
   3   3  14    6445      88   1
  -3   4  14    6790      93   1
   2  -4  13   14670     151  -2
  -2   4  14   14670     151   1
  -1   4  14  403660    2900   1
   0  -4  14   77719     563  -2
   0   4  14   77719     563   1
   1   4  14    1453     177   1
  -2  -4  15   10301     106  -2
   2   4  14   10301     106   1
   3   4  14   20293     216   1
  -3   5  14    4910      81   1
   2  -5  13   58421     480  -2
  -2   5  14   58421     480   1
  -1   5  14   30349     261   1
   0  -5  14   37882     318  -2
   0   5  14   37882     318   1
   1   5  14   44288     406   1
  -2  -5  15   12881     124  -2
   2   5  14   12881     124   1
   3   5  14    5982     120   1
  -3   6  14    6224     133   1
   2  -6  13    1082      36  -2
  -2   6  14    1082      36   1
  -1   6  14      58      23   1
   0  -6  14    2917      54  -2
   0   6  14    2917      54   1
   1   6  14    3162      51   1
  -2  -6  15   22692     287  -2
   2   6  14   22692     287   1
   3   6  14    1029      62   1
   2  -7  13     464      37  -2
  -2   7  14     464      37   1
  -1   7  14     179      24   1
   0  -7  14     188      29  -2
   0   7  14     188      29   1
   1   7  14      79      27   1
  -2  -7  15    3263      83  -2
   2   7  14    3263      83   1
   2  -8  13    1312      58  -2
  -2   8  14    1312      58   1
  -1   8  14      -9      28   1
   0  -8  14    1723      51  -2
   0   8  14    1723      51   1
   1   8  14     -15      30   1
  -2  -8  15    2103      59  -2
   2   8  14    2103      59   1
  -1   9  14    3124      77   1
   0  -9  14    6297     110  -2
   0   9  14    6297     110   1
   1   9  14    1499      54   1
   4  -1  13    3518      76  -2
  -4   1  15    3518      76   1
  -3   1  15     788      37   1
   2  -1  14   10434     111  -2
  -2   1  15   10434     111   1
  -1   1  15      76      24   1
   0  -1  15    4677      60  -2
   0   1  15    4677      60   1
   1   1  15    8917      86   1
  -2  -1  16   23777     187  -2
   2   1  15   23777     187   1
   3   1  15     281      30   1
   4  -2  13   18026     223  -2
  -4   2  15   18026     223   1
  -3   2  15     317      31   1
   2  -2  14     395      30  -2
  -2   2  15     395      30   1
  -1   2  15   11981     116   1
   0  -2  15    5080      61  -2
   0   2  15    5080      61   1
   1   2  15   12111     116   1
  -2  -2  16    2385      45  -2
   2   2  15    2385      45   1
   3   2  15    1584      46   1
  -3   3  15    2468      58   1
   2  -3  14   26509     277  -2
  -2   3  15   26509     277   1
  -1   3  15    2333      44   1
   0  -3  15    2838      46  -2
   0   3  15    2838      46   1
   1   3  15     220      21   1
  -2  -3  16    1606      39  -2
   2   3  15    1606      39   1
   3   3  15    2947      56   1
  -3   4  15     647      51   1
   2  -4  14    3493      64  -2
  -2   4  15    3493      64   1
  -1   4  15    3116      54   1
   0  -4  15   14939     132  -2
   0   4  15   14939     132   1
   1   4  15     486      24   1
  -2  -4  16     280      26  -2
   2   4  15     280      26   1
   3   4  15    1063      41   1
  -3   5  15     190      34   1
   2  -5  14   32920     299  -2
  -2   5  15   32920     299   1
  -1   5  15     380      29   1
   0  -5  15    1331      36  -2
   0   5  15    1331      36   1
   1   5  15   11972     111   1
  -2  -5  16    6595      80  -2
   2   5  15    6595      80   1
   3   5  15    1411      57   1
  -3   6  15     167      36   1
   2  -6  14     925      57  -2
  -2   6  15     925      57   1
  -1   6  15    5437      76   1
   0  -6  15     812      35  -2
   0   6  15     812      35   1
   1   6  15    5721      70   1
  -2  -6  16     888      33  -2
   2   6  15     888      33   1
   2  -7  14   15358     294  -2
  -2   7  15   15358     294   1
  -1   7  15     231      26   1
   0  -7  15    5573      77  -2
   0   7  15    5573      77   1
   1   7  15    9917     134   1
  -2  -7  16   22924     258  -2
   2   7  15   22924     258   1
   2  -8  14     737      52  -2
  -2   8  15     737      52   1
  -1   8  15    1724      52   1
   0  -8  15      61      33  -2
   0   8  15      61      33   1
   1   8  15      81      32   1
  -1   9  15    1035      47   1
   0  -9  15    1343      59  -2
   0   9  15    1343      59   1
   1   9  15     334      44   1
   4   0  14     511      65  -2
  -4   0  16     511      65   1
  -3   0  16   11563     250   1
  -2   0  16   14307     222   1
  -1   0  16     301      35   1
   0   0  16    8614     121  -2
   0   0  16    8614     121   1
   1   0  16     455      28   1
   2   0  16    3517      67   1
   3   0  16    6162     115   1
  -3   1  16     600      36   1
   2  -1  15    5520     101  -2
  -2   1  16    5520     101   1
  -1   1  16    5848      79   1
   0  -1  16     689      25  -2
   0   1  16     689      25   1
   1   1  16    2044      36   1
  -2  -1  17   31603     240  -2
   2   1  16   31603     240   1
   3   1  16     290      34   1
  -3   2  16    7176      96   1
   2  -2  15    5422      77  -2
  -2   2  16    5422      77   1
  -1   2  16    3451      99   1
   0  -2  16      86      20  -2
   0   2  16      86      20   1
   1   2  16   71359     527   1
  -2  -2  17    7823      90  -2
   2   2  16    7823      90   1
   3   2  16     977      42   1
  -3   3  16     135      32   1
   2  -3  15    1235      43  -2
  -2   3  16    1235      43   1
  -1   3  16   39989     316   1
   0  -3  16   53891     418  -2
   0   3  16   53891     418   1
   1   3  16     894      29   1
  -2  -3  17    1121      35  -2
   2   3  16    1121      35   1
   3   3  16    9123     153   1
  -3   4  16     537      42   1
   2  -4  15    4504      75  -2
  -2   4  16    4504      75   1
  -1   4  16   14167     139   1
   0  -4  16   20875     174  -2
   0   4  16   20875     174   1
   1   4  16    3208      50   1
  -2  -4  17     261      27  -2
   2   4  16     261      27   1
   3   4  16    3115      67   1
  -3   5  16    7054     110   1
   2  -5  15    4865      81  -2
  -2   5  16    4865      81   1
  -1   5  16     442      30   1
   0  -5  16   33603     267  -2
   0   5  16   33603     267   1
   1   5  16      42      20   1
  -2  -5  17     374      20  -2
   2   5  16     374      20   1
   3   5  16    5663     154   1
  -3   6  16   27603     336   1
   2  -6  15    1844      46  -2
  -2   6  16    1844      46   1
  -1   6  16    2590      74   1
   0  -6  16    3540      62  -2
   0   6  16    3540      62   1
   1   6  16   39474     302   1
  -2  -6  17   10491     118  -2
   2   6  16   10491     118   1
   2  -7  15    1040     102  -2
  -2   7  16    1040     102   1
  -1   7  16    1096      37   1
   0  -7  16     530      33  -2
   0   7  16     530      33   1
   1   7  16      38      24   1
  -2  -7  17    2265      62  -2
   2   7  16    2265      62   1
  -1   8  16     281      41   1
   0  -8  16    2181      60  -2
   0   8  16    2181      60   1
   1   8  16     130      31   1
   0  -9  16    1919      76  -2
   0   9  16    1919      76   1
  -3   1  17    8906     130   1
   2  -1  16    1363      58  -2
  -2   1  17    1363      58   1
  -1   1  17    5762      76   1
   0  -1  17    1215      30  -2
   0   1  17    1215      30   1
   1   1  17   18305     152   1
  -2  -1  18     713      29  -2
   2   1  17     713      29   1
   3   1  17    9518     126   1
  -3   2  17    2486      60   1
   2  -2  16    4013      70  -2
  -2   2  17    4013      70   1
  -1   2  17    9054     111   1
   0  -2  17   37731     291  -2
   0   2  17   37731     291   1
   1   2  17   44465     344   1
  -2  -2  18   13389     132  -2
   2   2  17   13389     132   1
   3   2  17     326      31   1
  -3   3  17   14971     216   1
   2  -3  16    1838      49  -2
  -2   3  17    1838      49   1
  -1   3  17   28961     241   1
   0  -3  17  146552    1054  -2
   0   3  17  146552    1054   1
   1   3  17   18719     161   1
  -2  -3  18     185      25  -2
   2   3  17     185      25   1
   3   3  17     204      37   1
  -3   4  17      99      37   1
   2  -4  16    4062      70  -2
  -2   4  17    4062      70   1
  -1   4  17    6782      78   1
   0  -4  17    1961      41  -2
   0   4  17    1961      41   1
   1   4  17     108      23   1
  -2  -4  18     553      31  -2
   2   4  17     553      31   1
   3   4  17    1627      55   1
  -3   5  17    3355      87   1
   2  -5  16     268      34  -2
  -2   5  17     268      34   1
  -1   5  17    6630      86   1
   0  -5  17   56892     413  -2
   0   5  17   56892     413   1
   1   5  17   25082     203   1
  -2  -5  18     638      30  -2
   2   5  17     638      30   1
   2  -6  16     569      38  -2
  -2   6  17     569      38   1
  -1   6  17    4589      72   1
   0  -6  17   13725     136  -2
   0   6  17   13725     136   1
   1   6  17   12479     119   1
  -2  -6  18   26678     271  -2
   2   6  17   26678     271   1
   2  -7  16     613      38  -2
  -2   7  17     613      38   1
  -1   7  17    4403      77   1
   0  -7  17    1612      47  -2
   0   7  17    1612      47   1
   1   7  17    4359      64   1
  -2  -7  18     948      68  -2
   2   7  17     948      68   1
  -1   8  17    6182     110   1
   0  -8  17    3033      79  -2
   0   8  17    3033      79   1
   1   8  17    2638      62   1
  -3   0  18    9363     205   1
  -2   0  18    6455     156   1
  -1   0  18   27550     350   1
   0   0  18     515      35  -2
   0   0  18     515      35   1
   1   0  18    4526      75   1
   2   0  18    3851      93   1
   3   0  18   73897     982   1
  -3   1  18   13310     180   1
   2  -1  17    7001      93  -2
  -2   1  18    7001      93   1
  -1   1  18    2253      48   1
   0  -1  18    5444      67  -2
   0   1  18    5444      67   1
   1   1  18    1967      38   1
  -2  -1  19   16435     148  -2
   2   1  18   16435     148   1
   3   1  18     649      45   1
  -3   2  18      69      35   1
   2  -2  17     557      37  -2
  -2   2  18     557      37   1
  -1   2  18    4900      75   1
   0  -2  18   16011     144  -2
   0   2  18   16011     144   1
   1   2  18     607      28   1
  -2  -2  19   12944     133  -2
   2   2  18   12944     133   1
   3   2  18     849     113   1
  -3   3  18    6373     134   1
   2  -3  17    3603      68  -2
  -2   3  18    3603      68   1
  -1   3  18    4561      66   1
   0  -3  18     957      33  -2
   0   3  18     957      33   1
   1   3  18   14812     136   1
  -2  -3  19     350      28  -2
   2   3  18     350      28   1
   3   3  18     704      46   1
  -3   4  18    3882      93   1
   2  -4  17    4894      75  -2
  -2   4  18    4894      75   1
  -1   4  18   24106     198   1
   0  -4  18   27903     225  -2
   0   4  18   27903     225   1
   1   4  18   10109     102   1
  -2  -4  19     115      27  -2
   2   4  18     115      27   1
   3   4  18    1673      68   1
  -3   5  18    5171     119   1
   2  -5  17    1289      50  -2
  -2   5  18    1289      50   1
  -1   5  18    1438      44   1
   0  -5  18    5699      71  -2
   0   5  18    5699      71   1
   1   5  18   33218     274   1
  -2  -5  19    3033      54  -2
   2   5  18    3033      54   1
   2  -6  17    3488      88  -2
  -2   6  18    3488      88   1
  -1   6  18    3151      59   1
   0  -6  18     124      28  -2
   0   6  18     124      28   1
   1   6  18    5350      68   1
  -2  -6  19   27415     310  -2
   2   6  18   27415     310   1
   2  -7  17   18748     235  -2
  -2   7  18   18748     235   1
  -1   7  18    1000      40   1
   0  -7  18      63      33  -2
   0   7  18      63      33   1
   1   7  18     251      29   1
  -1   8  18   22711     251   1
   0  -8  18     335      45  -2
   0   8  18     335      45   1
  -3   1  19    1040      51   1
   2  -1  18   20966     222  -2
  -2   1  19   20966     222   1
  -1   1  19     815      34   1
   0  -1  19     135      22  -2
   0   1  19     135      22   1
   1   1  19    2407      44   1
  -2  -1  20   37748     297  -2
   2   1  19   37748     297   1
   3   1  19    1273      56   1
  -3   2  19   23352     268   1
   2  -2  18   10267     127  -2
  -2   2  19   10267     127   1
  -1   2  19    6614      89   1
   0  -2  19    1770      38  -2
   0   2  19    1770      38   1
   1   2  19   26410     221   1
  -2  -2  20      93      26  -2
   2   2  19      93      26   1
   3   2  19    2040      64   1
  -3   3  19    9303     163   1
   2  -3  18    1305      46  -2
  -2   3  19    1305      46   1
  -1   3  19     825      34   1
   0  -3  19      48      23  -2
   0   3  19      48      23   1
   1   3  19    5485      69   1
  -2  -3  20    2179      50  -2
   2   3  19    2179      50   1
   3   3  19     339      42   1
  -3   4  19    1049      56   1
   2  -4  18    1985      51  -2
  -2   4  19    1985      51   1
  -1   4  19    1974      43   1
   0  -4  19    3792      57  -2
   0   4  19    3792      57   1
   1   4  19      47      23   1
  -2  -4  20    2646     165  -2
   2   4  19    2646     165   1
   2  -5  18     852      47  -2
  -2   5  19     852      47   1
  -1   5  19    4462      65   1
   0  -5  19    1611      40  -2
   0   5  19    1611      40   1
   1   5  19    9233      96   1
  -2  -5  20      24      31  -2
   2   5  19      24      31   1
   2  -6  18    4612     145  -2
  -2   6  19    4612     145   1
  -1   6  19    4288      85   1
   0  -6  19    8759     105  -2
   0   6  19    8759     105   1
   1   6  19    5150      71   1
  -2  -6  20     129      26  -2
   2   6  19     129      26   1
  -1   7  19      51      37   1
   0  -7  19     212      37  -2
   0   7  19     212      37   1
   1   7  19    3703      86   1
  -3   0  20    6866     179   1
  -2   0  20   27945     453   1
  -1   0  20   10716     192   1
   0   0  20    8183     121  -2
   0   0  20    8183     121   1
   1   0  20    2824      67   1
   2   0  20   23172     264   1
   3   0  20     927      82   1
  -3   1  20    1990      66   1
   2  -1  19    4105     100  -2
  -2   1  20    4105     100   1
  -1   1  20    2897      58   1
   0  -1  20   12519     118  -2
   0   1  20   12519     118   1
   1   1  20   14848     136   1
  -2  -1  21   14680     139  -2
   2   1  20   14680     139   1
   3   1  20   24645     310   1
  -3   2  20     156      43   1
   2  -2  19    1709      50  -2
  -2   2  20    1709      50   1
  -1   2  20    1634      74   1
   0  -2  20    2863      48  -2
   0   2  20    2863      48   1
   1   2  20   47893     366   1
  -2  -2  21    9163     107  -2
   2   2  20    9163     107   1
  -3   3  20    5644     143   1
   2  -3  19    2065      55  -2
  -2   3  20    2065      55   1
  -1   3  20      50      26   1
   0  -3  20    2309      46  -2
   0   3  20    2309      46   1
   1   3  20       3      23   1
  -2  -3  21    1412      45  -2
   2   3  20    1412      45   1
   2  -4  19   40581     405  -2
  -2   4  20   40581     405   1
  -1   4  20   10038     105   1
   0  -4  20   20314     181  -2
   0   4  20   20314     181   1
   1   4  20   12911     125   1
  -2  -4  21     848      41  -2
   2   4  20     848      41   1
   2  -5  19    1658      59  -2
  -2   5  20    1658      59   1
  -1   5  20    1549      46   1
   0  -5  20    1762      42  -2
   0   5  20    1762      42   1
   1   5  20    3353      54   1
  -2  -5  21      83      34  -2
   2   5  20      83      34   1
   2  -6  19     750      45  -2
  -2   6  20     750      45   1
  -1   6  20    6069      96   1
   0  -6  20     375      37  -2
   0   6  20     375      37   1
   1   6  20    2330      52   1
  -1   7  20   10882     146   1
   0  -7  20    5411      97  -2
   0   7  20    5411      97   1
   1   7  20     632      37   1
  -3   1  21    2629     135   1
   2  -1  20     499      37  -2
  -2   1  21     499      37   1
  -1   1  21    3720      65   1
   0  -1  21   18505     167  -2
   0   1  21   18505     167   1
   1   1  21     130      26   1
  -2  -1  22    2957      56  -2
   2   1  21    2957      56   1
  -3   2  21     800      57   1
   2  -2  20    7024     102  -2
  -2   2  21    7024     102   1
  -1   2  21    1709      47   1
   0  -2  21    1268      36  -2
   0   2  21    1268      36   1
   1   2  21    2077      45   1
  -2  -2  22   10611     122  -2
   2   2  21   10611     122   1
   2  -3  20     247      42  -2
  -2   3  21     247      42   1
  -1   3  21    5214      78   1
   0  -3  21    2980      53  -2
   0   3  21    2980      53   1
   1   3  21     168      25   1
  -2  -3  22    6547      96  -2
   2   3  21    6547      96   1
   2  -4  20    1938      63  -2
  -2   4  21    1938      63   1
  -1   4  21    4996      71   1
   0  -4  21     453      30  -2
   0   4  21     453      30   1
   1   4  21    3132      55   1
  -2  -4  22     842      66  -2
   2   4  21     842      66   1
   2  -5  20     747      48  -2
  -2   5  21     747      48   1
  -1   5  21      15      30   1
   0  -5  21     163      28  -2
   0   5  21     163      28   1
   1   5  21     184      30   1
  -1   6  21    1102      49   1
   0  -6  21    1450      52  -2
   0   6  21    1450      52   1
   1   6  21    3864     100   1
   0  -7  21    6571     116  -2
   0   7  21    6571     116   1
  -2   0  22    2867      93   1
  -1   0  22   41845     520   1
   0   0  22   15237     266  -2
   0   0  22   15237     266   1
   1   0  22     523      46   1
   2   0  22    3458      99   1
   2  -1  21    2913      70  -2
  -2   1  22    2913      70   1
  -1   1  22   17190     215   1
   0  -1  22    4888      67  -2
   0   1  22    4888      67   1
   1   1  22     119      26   1
  -2  -1  23    8095     116  -2
   2   1  22    8095     116   1
   2  -2  21    1226      55  -2
  -2   2  22    1226      55   1
  -1   2  22     989      40   1
   0  -2  22     174      25  -2
   0   2  22     174      25   1
   1   2  22     239      27   1
  -2  -2  23    6025      93  -2
   2   2  22    6025      93   1
   2  -3  21   19542     259  -2
  -2   3  22   19542     259   1
  -1   3  22   16651     169   1
   0  -3  22     919      34  -2
   0   3  22     919      34   1
   1   3  22    4067      64   1
  -2  -3  23    2902      72  -2
   2   3  22    2902      72   1
   2  -4  21   17224     217  -2
  -2   4  22   17224     217   1
  -1   4  22   16426     188   1
   0  -4  22     224      30  -2
   0   4  22     224      30   1
   1   4  22    6189      89   1
  -2  -4  23     509      46  -2
   2   4  22     509      46   1
  -1   5  22   13490     159   1
   0  -5  22    9300     122  -2
   0   5  22    9300     122   1
   1   5  22    8496     115   1
  -1   6  22    1338      52   1
   0  -6  22     184      37  -2
   0   6  22     184      37   1
   2  -1  22    4078      96  -2
  -2   1  23    4078      96   1
  -1   1  23      47      29   1
   0  -1  23    2457      51  -2
   0   1  23    2457      51   1
   1   1  23     142      29   1
  -2  -1  24     763      43  -2
   2   1  23     763      43   1
   2  -2  22     200      42  -2
  -2   2  23     200      42   1
  -1   2  23    3782      73   1
   0  -2  23    4262      63  -2
   0   2  23    4262      63   1
   1   2  23   14797     159   1
  -2  -2  24    4731      88  -2
   2   2  23    4731      88   1
   2  -3  22    7237     131  -2
  -2   3  23    7237     131   1
  -1   3  23   16539     202   1
   0  -3  23    7202      94  -2
   0   3  23    7202      94   1
   1   3  23    8403     108   1
   2  -4  22     996      58  -2
  -2   4  23     996      58   1
  -1   4  23     125      35   1
   0  -4  23     156      33  -2
   0   4  23     156      33   1
   1   4  23      45      33   1
  -1   5  23    5775     104   1
   0  -5  23   21068     220  -2
   0   5  23   21068     220   1
   1   5  23     899      50   1
  -2   0  24   33779     633   1
  -1   0  24     677      59   1
   0   0  24    8690     208  -2
   0   0  24    8690     208   1
   1   0  24    1397      71   1
   2   0  24    2265     121   1
   2  -1  23    5592     129  -2
  -2   1  24    5592     129   1
  -1   1  24    5110      91   1
   0  -1  24    1457      46  -2
   0   1  24    1457      46   1
   1   1  24      57      32   1
   2  -2  23    1028      57  -2
  -2   2  24    1028      57   1
  -1   2  24    1095      49   1
   0  -2  24      65      30  -2
   0   2  24      65      30   1
   1   2  24    2551      60   1
  -1   3  24      59      38   1
   0  -3  24    3869      77  -2
   0   3  24    3869      77   1
   1   3  24     243      34   1
  -1   4  24    9340     142   1
   0  -4  24    4573      88  -2
   0   4  24    4573      88   1
   1   4  24     122      38   1
   0  -5  24    5368     109  -2
   0   5  24    5368     109   1
  -1   1  25     497      52   1
   0  -1  25    5810      96  -2
   0   1  25    5810      96   1
   1   1  25   20966     232   1
  -1   2  25     712      52   1
   0  -2  25   22858     297  -2
   0   2  25   22858     297   1
   1   2  25    3862      77   1
  -1   3  25    8512     153   1
   0  -3  25    7198     122  -2
   0   3  25    7198     122   1
   1   3  25    1438      58   1
   0  -4  25     110      40  -2
   0   4  25     110      40   1
  -1   0  26     527      71   1
   0   0  26    1017      69  -2
   0   0  26    1017      69   1
   1   0  26     -30      73   1
  -1   1  26    5689     116   1
   0  -1  26    2102      63  -2
   0   1  26    2102      63   1
  -1   2  26     995      63   1
   0  -2  26   20262     261  -2
   0   2  26   20262     261   1
;
_shelx_hkl_checksum              65906
_shelx_res_file
;
    608t.res created by SHELXL-2014/7
TITL 608_a.res in P2(1)/c
REM Old TITL 2017ncs0608a in P2(1)/c
REM SHELXT solution in P2(1)/c
REM R1 0.109,  Rweak 0.189,  Alpha 0.022,  Orientation as input
REM Formula found by SHELXT:  C7 N O3
CELL  0.71075   3.7241   8.6902  20.7570   90.000   92.501   90.000
ZERR    4.000   0.0001   0.0002   0.0005    0.000    0.002    0.000
LATT  1
SYMM -X, 1/2+Y, 1/2-Z
SFAC  C   H   N   O
UNIT 28 28 4 12
temp -173
size 0.2 0.1 0.05
L.S. 10
BOND $H
conf
acta
htab
HTAB O2 N12
EQIV $1 -x+2, y+1/2, -z+1/2
HTAB O4 O2_$1
EQIV $2 x-1, y-1, z
HTAB O13 O4_$2
LIST 4
FMAP 2
PLAN 20
WGHT    0.022900    1.335700
BASF   0.03593
FVAR      10.10019
O2    4    0.660405    0.133140    0.289832    11.00000    0.02729    0.01058 =
         0.01500   -0.00364    0.00471   -0.00414
H2    2    0.567873    0.055507    0.313042    11.00000    0.04467
O4    4    1.046888    0.649103    0.327039    11.00000    0.02492    0.00956 =
         0.01612    0.00025    0.00507   -0.00518
H4    2    1.131543    0.638702    0.289277    11.00000    0.03054
O13   4    0.253603   -0.136863    0.419522    11.00000    0.03347    0.01103 =
         0.01940    0.00192    0.00247   -0.00951
H13   2    0.207713   -0.199590    0.387976    11.00000    0.04318
N12   3    0.398361   -0.013464    0.385731    11.00000    0.01889    0.01032 =
         0.01912    0.00298    0.00095   -0.00287
C1    1    0.605189    0.244183    0.395239    11.00000    0.01273    0.00963 =
         0.01515    0.00027    0.00049    0.00026
C2    1    0.706135    0.254853    0.330979    11.00000    0.01419    0.01013 =
         0.01429   -0.00231   -0.00034    0.00077
C3    1    0.852990    0.388890    0.307203    11.00000    0.01492    0.01231 =
         0.01265    0.00002    0.00204    0.00032
AFIX  43
H3    2    0.919256    0.394600    0.263587    11.00000   -1.20000
AFIX   0
C4    1    0.901988    0.514538    0.347861    11.00000    0.01345    0.00874 =
         0.01759    0.00200    0.00094   -0.00054
C5    1    0.804735    0.507727    0.411914    11.00000    0.01801    0.01062 =
         0.01577   -0.00272    0.00153   -0.00105
AFIX  43
H5    2    0.837937    0.594314    0.439472    11.00000   -1.20000
AFIX   0
C6    1    0.659639    0.373323    0.434601    11.00000    0.01578    0.01324 =
         0.01355   -0.00104    0.00212   -0.00052
AFIX  43
H6    2    0.594696    0.368318    0.478306    11.00000   -1.20000
AFIX   0
C11   1    0.447383    0.105527    0.421340    11.00000    0.01583    0.01171 =
         0.01559    0.00186    0.00025   -0.00029
AFIX  43
H11   2    0.380531    0.103369    0.464979    11.00000   -1.20000
AFIX   0
HKLF 5
REM  608_a.res in P2(1)/c
REM R1 =  0.0397 for    1483 Fo > 4sig(Fo)  and  0.0409 for all    1537 data
REM    113 parameters refined using      0 restraints
END
WGHT      0.0399      0.5764
REM Instructions for potential hydrogen bonds
HTAB O2 N12
HTAB O4 O2_$1
HTAB O13 O4_$2
REM Highest difference peak  0.381,  deepest hole -0.209,  1-sigma level  0.050
Q1    1   0.8204  0.5104  0.3792  11.00000  0.05    0.38
Q2    1   0.6307  0.2537  0.3619  11.00000  0.05    0.35
Q3    1   0.5414  0.1743  0.4069  11.00000  0.05    0.29
Q4    1   0.4595 -0.0174  0.3486  11.00000  0.05    0.28
Q5    1   0.9179  0.4394  0.3315  11.00000  0.05    0.27
Q6    1   0.5958  0.3109  0.4084  11.00000  0.05    0.24
Q7    1   0.7978  0.1210  0.2560  11.00000  0.05    0.22
Q8    1   0.7257  0.4393  0.4184  11.00000  0.05    0.22
Q9    1   0.7931  0.3238  0.3196  11.00000  0.05    0.21
Q10   1   0.2249 -0.1137  0.4618  11.00000  0.05    0.15
Q11   1   0.6701  0.1949  0.3122  11.00000  0.05    0.15
Q12   1   0.3290  0.0688  0.4003  11.00000  0.05    0.14
Q13   1   0.3435 -0.1596  0.4657  11.00000  0.05    0.13
Q14   1   0.4809  0.3827  0.4701  11.00000  0.05    0.13
Q15   1   0.9415  0.1224  0.3015  11.00000  0.05    0.12
Q16   1   0.9531  0.5716  0.3366  11.00000  0.05    0.12
Q17   1   0.4729  0.0957  0.4573  11.00000  0.05    0.12
Q18   1  -0.0473 -0.1375  0.4258  11.00000  0.05    0.12
Q19   1   0.5223  0.0383  0.4092  11.00000  0.05    0.12
Q20   1   0.4601  0.1368  0.2594  11.00000  0.05    0.12
;
_shelx_res_checksum              48692
loop_
_space_group_symop_operation_xyz
'x, y, z'
'-x, y+1/2, -z+1/2'
'-x, -y, -z'
'x, -y-1/2, z-1/2'
loop_
_atom_site_type_symbol
_atom_site_label
_atom_site_fract_x
_atom_site_fract_y
_atom_site_fract_z
_atom_site_U_iso_or_equiv
_atom_site_adp_type
_atom_site_calc_flag
_atom_site_occupancy
O O2 0.6604(3) 0.13314(13) 0.28983(5) 0.0175(3) Uani d 1
H H2 0.568(7) 0.056(3) 0.3130(12) 0.045(7) Uiso d 1
O O4 1.0469(3) 0.64910(12) 0.32704(5) 0.0167(3) Uani d 1
H H4 1.132(6) 0.639(3) 0.2893(11) 0.031(6) Uiso d 1
O O13 0.2536(3) -0.13686(13) 0.41952(6) 0.0213(3) Uani d 1
H H13 0.208(7) -0.200(3) 0.3880(12) 0.043(7) Uiso d 1
N N12 0.3984(4) -0.01346(15) 0.38573(6) 0.0161(3) Uani d 1
C C1 0.6052(4) 0.24418(16) 0.39524(7) 0.0125(3) Uani d 1
C C2 0.7061(4) 0.25485(16) 0.33098(7) 0.0129(3) Uani d 1
C C3 0.8530(4) 0.38889(17) 0.30720(7) 0.0133(3) Uani d 1
H H3 0.9193 0.3946 0.2636 0.016 Uiso calc 1
C C4 0.9020(4) 0.51454(17) 0.34786(7) 0.0133(3) Uani d 1
C C5 0.8047(4) 0.50773(17) 0.41191(7) 0.0148(3) Uani d 1
H H5 0.8379 0.5943 0.4395 0.018 Uiso calc 1
C C6 0.6596(4) 0.37332(17) 0.43460(7) 0.0141(3) Uani d 1
H H6 0.5947 0.3683 0.4783 0.017 Uiso calc 1
C C11 0.4474(4) 0.10553(17) 0.42134(7) 0.0144(3) Uani d 1
H H11 0.3805 0.1034 0.4650 0.017 Uiso calc 1
loop_
_atom_site_aniso_label
_atom_site_aniso_U_11
_atom_site_aniso_U_22
_atom_site_aniso_U_33
_atom_site_aniso_U_12
_atom_site_aniso_U_13
_atom_site_aniso_U_23
O2 0.0273(6) 0.0106(5) 0.0150(5) -0.0041(5) 0.0047(4) -0.0036(4)
O4 0.0249(6) 0.0096(5) 0.0161(5) -0.0052(4) 0.0051(4) 0.0002(4)
O13 0.0335(7) 0.0110(5) 0.0194(6) -0.0095(5) 0.0025(5) 0.0019(4)
N12 0.0189(6) 0.0103(6) 0.0191(6) -0.0029(5) 0.0010(5) 0.0030(5)
C1 0.0127(7) 0.0096(6) 0.0151(7) 0.0003(5) 0.0005(5) 0.0003(5)
C2 0.0142(7) 0.0101(6) 0.0143(7) 0.0008(5) -0.0003(5) -0.0023(5)
C3 0.0149(7) 0.0123(7) 0.0126(6) 0.0003(6) 0.0020(5) 0.0000(5)
C4 0.0135(7) 0.0087(6) 0.0176(7) -0.0005(5) 0.0009(5) 0.0020(5)
C5 0.0180(7) 0.0106(7) 0.0158(7) -0.0010(6) 0.0015(6) -0.0027(5)
C6 0.0158(7) 0.0132(7) 0.0135(7) -0.0005(6) 0.0021(5) -0.0010(5)
C11 0.0158(7) 0.0117(7) 0.0156(7) -0.0003(6) 0.0003(5) 0.0019(5)
loop_
_atom_type_symbol
_atom_type_description
_atom_type_scat_dispersion_real
_atom_type_scat_dispersion_imag
_atom_type_scat_source
C C 0.0033 0.0016 'International Tables Vol C Tables 4.2.6.8 and 6.1.1.4'
H H 0.0000 0.0000 'International Tables Vol C Tables 4.2.6.8 and 6.1.1.4'
N N 0.0061 0.0033 'International Tables Vol C Tables 4.2.6.8 and 6.1.1.4'
O O 0.0106 0.0060 'International Tables Vol C Tables 4.2.6.8 and 6.1.1.4'
loop_
_geom_angle_atom_site_label_1
_geom_angle_atom_site_label_2
_geom_angle_atom_site_label_3
_geom_angle
C2 O2 H2 106.5(16)
C4 O4 H4 111.3(15)
N12 O13 H13 99.9(16)
C11 N12 O13 112.18(13)
C6 C1 C2 117.65(13)
C6 C1 C11 119.85(13)
C2 C1 C11 122.50(13)
O2 C2 C3 117.93(13)
O2 C2 C1 120.77(13)
C3 C2 C1 121.30(13)
C2 C3 C4 119.22(13)
C2 C3 H3 120.4
C4 C3 H3 120.4
O4 C4 C3 121.64(13)
O4 C4 C5 117.43(13)
C3 C4 C5 120.93(14)
C6 C5 C4 118.93(14)
C6 C5 H5 120.5
C4 C5 H5 120.5
C5 C6 C1 121.98(14)
C5 C6 H6 119.0
C1 C6 H6 119.0
N12 C11 C1 120.25(14)
N12 C11 H11 119.9
C1 C11 H11 119.9
loop_
_geom_bond_atom_site_label_1
_geom_bond_atom_site_label_2
_geom_bond_distance
O2 C2 1.3655(17)
O2 H2 0.91(3)
O4 C4 1.3660(17)
O4 H4 0.86(2)
O13 N12 1.4020(16)
O13 H13 0.86(3)
N12 C11 1.280(2)
C1 C6 1.398(2)
C1 C2 1.405(2)
C1 C11 1.456(2)
C2 C3 1.387(2)
C3 C4 1.387(2)
C3 H3 0.9500
C4 C5 1.394(2)
C5 C6 1.378(2)
C5 H5 0.9500
C6 H6 0.9500
C11 H11 0.9500
loop_
_geom_hbond_atom_site_label_D
_geom_hbond_atom_site_label_H
_geom_hbond_atom_site_label_A
_geom_hbond_site_symmetry_A
_geom_hbond_distance_DH
_geom_hbond_distance_HA
_geom_hbond_distance_DA
_geom_hbond_angle_DHA
O2 H2 N12 . 0.91(3) 1.77(3) 2.5899(17) 150(2)
O4 H4 O2 2_755 0.86(2) 1.85(2) 2.7062(16) 174(2)
O13 H13 O4 1_445 0.86(3) 1.90(3) 2.7583(16) 171(2)
loop_
_geom_torsion_atom_site_label_1
_geom_torsion_atom_site_label_2
_geom_torsion_atom_site_label_3
_geom_torsion_atom_site_label_4
_geom_torsion
C6 C1 C2 O2 -179.97(14)
C11 C1 C2 O2 -0.2(2)
C6 C1 C2 C3 -0.3(2)
C11 C1 C2 C3 179.41(14)
O2 C2 C3 C4 179.88(13)
C1 C2 C3 C4 0.2(2)
C2 C3 C4 O4 179.71(14)
C2 C3 C4 C5 -0.2(2)
O4 C4 C5 C6 -179.63(14)
C3 C4 C5 C6 0.3(2)
C4 C5 C6 C1 -0.4(2)
C2 C1 C6 C5 0.4(2)
C11 C1 C6 C5 -179.33(14)
O13 N12 C11 C1 178.31(12)
C6 C1 C11 N12 -179.63(14)
C2 C1 C11 N12 0.6(2)

_cod_database_fobs_code 2242650
