#------------------------------------------------------------------------------
#$Date: 2018-09-26 20:45:16 +0300 (Wed, 26 Sep 2018) $
#$Revision: 211179 $
#$URL: file:///home/coder/svn-repositories/cod/cif/2/24/26/2242606.cif $
#------------------------------------------------------------------------------
#
# This file is available in the Crystallography Open Database (COD),
# http://www.crystallography.net/. The original data for this entry
# were provided by IUCr Journals, http://journals.iucr.org/.
#
# The file may be used within the scientific community so long as
# proper attribution is given to the journal article from which the
# data were obtained.
#
data_2242606
loop_
_publ_author_name
'F\'abry, Jan'
_publ_section_title
;
 A resonance-assisted intramolecular hydrogen bond in compounds containing
 2-hydroxy-3,5-dinitrobenzoic acid and its various deprotonated forms:
 redetermination of several related structures
;
_journal_coeditor_code           SU5452
_journal_issue                   9
_journal_name_full               'Acta Crystallographica Section E'
_journal_page_first              1344
_journal_page_last               1357
_journal_paper_doi               10.1107/S2056989018011544
_journal_volume                  74
_journal_year                    2018
_chemical_formula_iupac          'C6 H12 N3 +, C7 H3 N2 O7 -'
_chemical_formula_moiety         'C6 H12 N3 +, C7 H3 N2 O7 -'
_chemical_formula_sum            'C13 H15 N5 O7'
_chemical_formula_weight         353.30
_chemical_name_systematic
;
3-(1<i>H</i>-Imidazol-1-yl)propanaminium 2-carboxy-4,6-dinitrophenolate
;
_space_group_crystal_system      triclinic
_space_group_IT_number           2
_space_group_name_Hall           '-P 1'
_space_group_name_H-M_alt        'P -1'
_symmetry_space_group_name_Hall  '-P 1'
_symmetry_space_group_name_H-M   'P -1'
_atom_sites_solution_hydrogens   difmap
_atom_sites_solution_primary     direct
_cell_angle_alpha                93.075(6)
_cell_angle_beta                 95.863(5)
_cell_angle_gamma                104.944(6)
_cell_formula_units_Z            2
_cell_length_a                   7.0109(4)
_cell_length_b                   10.6617(8)
_cell_length_c                   10.7454(7)
_cell_measurement_reflns_used    2218
_cell_measurement_temperature    173(2)
_cell_measurement_theta_max      72.3278
_cell_measurement_theta_min      4.1468
_cell_volume                     769.30(9)
_computing_cell_refinement
;
CrysAlis PRO (Agilent, 2012)
;
_computing_data_collection
;
CrysAlis PRO (Agilent, 2012)
;
_computing_data_reduction
;
CrysAlis RED (Agilent, 2012)
;
_computing_structure_refinement
;
JANA2006 (Petricek et al., 2014)
;
_computing_structure_solution
;
SUPERFLIP (Palatinus & Chapuis, 2007)
;
_diffrn_ambient_temperature      173(2)
_diffrn_detector_area_resol_mean 16.0416
_diffrn_measured_fraction_theta_full 0.996
_diffrn_measured_fraction_theta_max 0.967
_diffrn_measurement_device_type  'Agilent Xcalibur (Eos, Gemini)'
_diffrn_measurement_method       '\w scans'
_diffrn_radiation_monochromator  graphite
_diffrn_radiation_type           CuK\a
_diffrn_radiation_wavelength     1.54184
_diffrn_reflns_av_R_equivalents  0.0264
_diffrn_reflns_limit_h_max       5
_diffrn_reflns_limit_h_min       -8
_diffrn_reflns_limit_k_max       13
_diffrn_reflns_limit_k_min       -12
_diffrn_reflns_limit_l_max       13
_diffrn_reflns_limit_l_min       -13
_diffrn_reflns_number            4664
_diffrn_reflns_theta_full        67.684
_diffrn_reflns_theta_max         72.478
_diffrn_reflns_theta_min         4.150
_exptl_absorpt_coefficient_mu    1.085
_exptl_absorpt_correction_T_max  1.00000
_exptl_absorpt_correction_T_min  0.92490
_exptl_absorpt_correction_type   multi-scan
_exptl_absorpt_process_details
;
(CrysAlis PRO and CrysAlis RED; Agilent, 2012)
;
_exptl_crystal_colour            yellow
_exptl_crystal_density_diffrn    1.525
_exptl_crystal_density_method    'not measured'
_exptl_crystal_description       irregular
_exptl_crystal_F_000             368
_exptl_crystal_size_max          0.22
_exptl_crystal_size_mid          0.14
_exptl_crystal_size_min          0.12
_refine_diff_density_max         0.21
_refine_diff_density_min         -0.18
_refine_ls_extinction_coef       74E1(13)
_refine_ls_extinction_method
;
B-C type 1 Lorentzian isotropic (Becker & Coppens, 1974)
;
_refine_ls_goodness_of_fit_ref   1.64
_refine_ls_hydrogen_treatment    mixed
_refine_ls_matrix_type           full
_refine_ls_number_constraints    46
_refine_ls_number_parameters     229
_refine_ls_number_reflns         2953
_refine_ls_number_restraints     0
_refine_ls_R_factor_all          0.0478
_refine_ls_R_factor_gt           0.0406
_refine_ls_shift/su_max          0.0132
_refine_ls_shift/su_mean         0.0005
_refine_ls_structure_factor_coef Fsqd
_refine_ls_weighting_details     w=1/(\s^2^(I)+0.0004I^2^)
_refine_ls_weighting_scheme      sigma
_refine_ls_wR_factor_gt          0.0951
_refine_ls_wR_factor_ref         0.1001
_reflns_number_gt                2426
_reflns_number_total             2953
_reflns_threshold_expression     I>3\s(I)
_iucr_refine_instructions_details
;
#m40
   44    0    0    1
 1.007431 0.000000 0.000000 0.000000 0.000000 0.000000      100000
 0.000000 0.000000                                          00
 0.000000 0.000000 0.000000 0.000000 0.000000 0.000000      000000
 0.074110 0.000000 0.000000 0.000000 0.000000 0.000000      100000
O1b       4  2     1.000000-0.191611 0.675391 0.526840
 0.026845 0.030669 0.027679 0.000964 0.009849-0.004969      0111111111
O2b       4  2     1.000000-0.382922 0.471660 0.408379
 0.024687 0.031308 0.032665-0.002413 0.008753-0.006032      0111111111
H2b_puv   2  1     0.000000-0.331606 0.554258 0.469992
 0.047215 0.000000 0.000000 0.000000 0.000000 0.000000      0000000000
O3b       4  2     1.000000-0.255106 0.377124 0.261580
 0.028322 0.028456 0.031686 0.000239 0.004731-0.008234      0111111111
O4b       4  2     1.000000 0.412583 0.586394 0.168527
 0.037145 0.032484 0.041296 0.008530 0.016675-0.004167      0111111111
O5b       4  2     1.000000 0.597755 0.756218 0.282389
 0.023120 0.037976 0.050593 0.001013 0.011082 0.001443      0111111111
O6b       4  2     1.000000 0.344566 0.937193 0.626581
 0.035178 0.040755 0.055236-0.000935-0.005181-0.019652      0111111111
O7b       4  2     1.000000 0.028222 0.916552 0.614767
 0.039828 0.033257 0.047042 0.003412 0.016192-0.012050      0111111111
N1b       3  2     1.000000 0.171996 0.884689 0.581177
 0.032621 0.024063 0.030108 0.001159 0.005994-0.002337      0111111111
N2b       3  2     1.000000 0.439552 0.673469 0.253630
 0.026010 0.025907 0.034314 0.007372 0.009185 0.006287      0111111111
C1b       1  2     1.000000-0.045521 0.680226 0.462685
 0.023408 0.023641 0.020113 0.005417 0.003367 0.002654      0111111111
C2b       1  2     1.000000-0.057196 0.578732 0.365965
 0.021844 0.021519 0.020672 0.003641 0.001942 0.002860      0111111111
C3b       1  2     1.000000 0.098691 0.579325 0.298103
 0.026484 0.021996 0.020833 0.007708 0.004309 0.001677      0111111111
H3b       2  1     1.000000 0.086172 0.512562 0.233219
 0.027318 0.000000 0.000000 0.000000 0.000000 0.000000      0000000000
C4b       1  2     1.000000 0.273831 0.677087 0.324224
 0.022017 0.025392 0.025952 0.007992 0.006370 0.005728      0111111111
C5b       1  2     1.000000 0.296688 0.776636 0.416302
 0.021978 0.022029 0.026880 0.001494 0.002272 0.005026      0111111111
H5b       2  1     1.000000 0.418494 0.842618 0.433677
 0.029247 0.000000 0.000000 0.000000 0.000000 0.000000      0000000000
C6b       1  2     1.000000 0.139183 0.778498 0.482668
 0.027580 0.021002 0.022965 0.004472 0.001836-0.000071      0111111111
C7b       1  2     1.000000-0.240503 0.467666 0.339859
 0.024726 0.026118 0.021583 0.005122 0.002106 0.000677      0111111111
N1a       3  2     1.000000-0.223456 0.051270-0.173014
 0.029240 0.025220 0.034887 0.004985 0.001115-0.000711      0111111111
N2a       3  2     1.000000-0.014563 0.225793-0.069668
 0.024737 0.023363 0.022896 0.005361 0.003379 0.000215      0111111111
N3a       3  2     1.000000 0.346654 0.205311 0.281597
 0.026849 0.022932 0.024458 0.004146 0.002119-0.002551      0111111111
H3aa_puv  2  1     0.000000 0.323572 0.112438 0.255987
 0.038142 0.000000 0.000000 0.000000 0.000000 0.000000      0000000000
H3ab_puv  2  1     0.000000 0.489112 0.252218 0.285224
 0.038142 0.000000 0.000000 0.000000 0.000000 0.000000      0000000000
H3ac_puv  2  1     0.000000 0.309182 0.215337 0.359750
 0.038142 0.000000 0.000000 0.000000 0.000000 0.000000      0000000000
C1a       1  2     1.000000-0.039500 0.125905-0.157494
 0.028642 0.025968 0.027751 0.008651 0.005068-0.001842      0111111111
H1a       2  1     1.000000 0.063240 0.111094-0.202772
 0.032668 0.000000 0.000000 0.000000 0.000000 0.000000      0000000000
C2a       1  2     1.000000-0.321124 0.106646-0.089872
 0.026880 0.031606 0.035170 0.004713 0.007261 0.005999      0111111111
H2a       2  1     1.000000-0.457442 0.074320-0.079116
 0.037694 0.000000 0.000000 0.000000 0.000000 0.000000      0000000000
C3a       1  2     1.000000-0.195448 0.213562-0.025720
 0.030097 0.031073 0.028856 0.009469 0.009185 0.001605      0111111111
H3a       2  1     1.000000-0.225845 0.269084 0.037060
 0.035262 0.000000 0.000000 0.000000 0.000000 0.000000      0000000000
C4a       1  2     1.000000 0.171920 0.324660-0.028320
 0.027694 0.024775 0.024808 0.000931 0.005206 0.000020      0111111111
H4aa      2  1     1.000000 0.242014 0.351332-0.101965
 0.032173 0.000000 0.000000 0.000000 0.000000 0.000000      0000000000
H4ab      2  1     1.000000 0.142708 0.403798 0.008481
 0.032173 0.000000 0.000000 0.000000 0.000000 0.000000      0000000000
C5a       1  2     1.000000 0.307563 0.277586 0.066681
 0.023701 0.029475 0.026043 0.002989 0.005543-0.002071      0111111111
H5aa      2  1     1.000000 0.324487 0.193134 0.033664
 0.032572 0.000000 0.000000 0.000000 0.000000 0.000000      0000000000
H5ab      2  1     1.000000 0.440667 0.340434 0.079114
 0.032572 0.000000 0.000000 0.000000 0.000000 0.000000      0000000000
C6a       1  2     1.000000 0.225305 0.262064 0.190853
 0.030068 0.030582 0.026052 0.012548 0.005349 0.001612      0111111111
H6aa      2  1     1.000000 0.218227 0.347891 0.227027
 0.033538 0.000000 0.000000 0.000000 0.000000 0.000000      0000000000
H6ab      2  1     1.000000 0.087120 0.206021 0.177260
 0.033538 0.000000 0.000000 0.000000 0.000000 0.000000      0000000000
H2b       2  1     1.000000-0.339134 0.554144 0.461480
 0.075174 0.000000 0.000000 0.000000 0.000000 0.000000      0000100000
H3aa      2  1     1.000000 0.329781 0.119532 0.260701
 0.045483 0.000000 0.000000 0.000000 0.000000 0.000000      0000100000
H3ab      2  1     1.000000 0.475827 0.248704 0.284554
 0.045483 0.000000 0.000000 0.000000 0.000000 0.000000      0000000000
H3ac      2  1     1.000000 0.313145 0.212090 0.359189
 0.045483 0.000000 0.000000 0.000000 0.000000 0.000000      0000000000
----------------------------   s.u. block   ----------------------------
 0.002134 0.000000 0.000000 0.000000 0.000000 0.000000
 0.000000 0.000000
 0.000000 0.000000 0.000000 0.000000 0.000000 0.000000
 0.012892 0.000000 0.000000 0.000000 0.000000 0.000000
O1b                0.000000 0.000166 0.000118 0.000112
 0.000607 0.000659 0.000637 0.000507 0.000499 0.000510
O2b                0.000000 0.000168 0.000119 0.000117
 0.000595 0.000674 0.000665 0.000504 0.000507 0.000539
H2b_puv            0.000000 0.000000 0.000000 0.000000
 0.000000 0.000000 0.000000 0.000000 0.000000 0.000000
O3b                0.000000 0.000170 0.000117 0.000117
 0.000611 0.000660 0.000668 0.000507 0.000506 0.000526
O4b                0.000000 0.000189 0.000126 0.000128
 0.000698 0.000711 0.000776 0.000569 0.000595 0.000587
O5b                0.000000 0.000176 0.000129 0.000136
 0.000612 0.000762 0.000861 0.000553 0.000574 0.000636
O6b                0.000000 0.000195 0.000139 0.000146
 0.000749 0.000839 0.000959 0.000631 0.000661 0.000707
O7b                0.000000 0.000194 0.000127 0.000134
 0.000734 0.000743 0.000849 0.000587 0.000638 0.000627
N1b                0.000000 0.000214 0.000140 0.000141
 0.000784 0.000751 0.000790 0.000620 0.000634 0.000611
N2b                0.000000 0.000206 0.000138 0.000143
 0.000723 0.000749 0.000812 0.000606 0.000618 0.000626
C1b                0.000000 0.000231 0.000158 0.000147
 0.000772 0.000824 0.000766 0.000645 0.000624 0.000637
C2b                0.000000 0.000226 0.000153 0.000146
 0.000757 0.000810 0.000764 0.000632 0.000611 0.000628
C3b                0.000000 0.000227 0.000157 0.000148
 0.000801 0.000801 0.000776 0.000652 0.000641 0.000625
H3b                0.000000-0.100000-0.100000-0.100000
 0.000000 0.000000 0.000000 0.000000 0.000000 0.000000
C4b                0.000000 0.000227 0.000158 0.000153
 0.000774 0.000846 0.000832 0.000658 0.000663 0.000668
C5b                0.000000 0.000235 0.000157 0.000154
 0.000770 0.000815 0.000841 0.000642 0.000653 0.000665
H5b                0.000000-0.100000-0.100000-0.100000
 0.000000 0.000000 0.000000 0.000000 0.000000 0.000000
C6b                0.000000 0.000239 0.000158 0.000153
 0.000827 0.000808 0.000803 0.000663 0.000658 0.000645
C7b                0.000000 0.000238 0.000164 0.000153
 0.000789 0.000848 0.000777 0.000673 0.000631 0.000645
N1a                0.000000 0.000209 0.000140 0.000142
 0.000752 0.000763 0.000835 0.000615 0.000634 0.000633
N2a                0.000000 0.000196 0.000133 0.000127
 0.000682 0.000704 0.000685 0.000564 0.000544 0.000550
N3a                0.000000 0.000199 0.000133 0.000130
 0.000698 0.000715 0.000710 0.000572 0.000570 0.000559
H3aa_puv           0.000000 0.000000 0.000000 0.000000
 0.000000 0.000000 0.000000 0.000000 0.000000 0.000000
H3ab_puv           0.000000 0.000000 0.000000 0.000000
 0.000000 0.000000 0.000000 0.000000 0.000000 0.000000
H3ac_puv           0.000000 0.000000 0.000000 0.000000
 0.000000 0.000000 0.000000 0.000000 0.000000 0.000000
C1a                0.000000 0.000243 0.000161 0.000159
 0.000852 0.000879 0.000876 0.000712 0.000697 0.000689
H1a                0.000000-0.100000-0.100000-0.100000
 0.000000 0.000000 0.000000 0.000000 0.000000 0.000000
C2a                0.000000 0.000253 0.000173 0.000170
 0.000872 0.000954 0.000985 0.000734 0.000740 0.000771
H2a                0.000000-0.100000-0.100000-0.100000
 0.000000 0.000000 0.000000 0.000000 0.000000 0.000000
C3a                0.000000 0.000250 0.000172 0.000166
 0.000870 0.000941 0.000896 0.000731 0.000718 0.000730
H3a                0.000000-0.100000-0.100000-0.100000
 0.000000 0.000000 0.000000 0.000000 0.000000 0.000000
C4a                0.000000 0.000236 0.000167 0.000154
 0.000825 0.000839 0.000840 0.000677 0.000678 0.000671
H4aa               0.000000-0.100000-0.100000-0.100000
 0.000000 0.000000 0.000000 0.000000 0.000000 0.000000
H4ab               0.000000-0.100000-0.100000-0.100000
 0.000000 0.000000 0.000000 0.000000 0.000000 0.000000
C5a                0.000000 0.000236 0.000163 0.000155
 0.000794 0.000894 0.000856 0.000684 0.000665 0.000688
H5aa               0.000000-0.100000-0.100000-0.100000
 0.000000 0.000000 0.000000 0.000000 0.000000 0.000000
H5ab               0.000000-0.100000-0.100000-0.100000
 0.000000 0.000000 0.000000 0.000000 0.000000 0.000000
C6a                0.000000 0.000245 0.000162 0.000154
 0.000867 0.000926 0.000871 0.000735 0.000699 0.000710
H6aa               0.000000-0.100000-0.100000-0.100000
 0.000000 0.000000 0.000000 0.000000 0.000000 0.000000
H6ab               0.000000-0.100000-0.100000-0.100000
 0.000000 0.000000 0.000000 0.000000 0.000000 0.000000
H2b                0.000000 0.000000 0.000000 0.000000
 0.008625 0.000000 0.000000 0.000000 0.000000 0.000000
H3aa               0.000000 0.000000 0.000000 0.000000
 0.003606 0.000000 0.000000 0.000000 0.000000 0.000000
H3ab               0.000000 0.000000 0.000000 0.000000
 0.003606 0.000000 0.000000 0.000000 0.000000 0.000000
H3ac               0.000000 0.000000 0.000000 0.000000
 0.003606 0.000000 0.000000 0.000000 0.000000 0.000000
--------------------------   Saved points   ----------------------------
    0
--------------------------   Fourier maxima   --------------------------
    1    1    1
max1      1  1     1.000000 0.347715 0.703374 0.718449      000  0  0  0
     0.18     0.15
max2      1  1     1.000000 0.495728 0.001542 0.500000      000  0  0  0
     0.15     0.15
max3      1  1     1.000000 0.228228 0.356226 0.481452      000  0  0  0
     0.14     0.13
max4      1  1     1.000000 0.203765 0.333846 0.480395      000  0  0  0
     0.14     0.13
max5      1  1     1.000000 0.277964 0.642240 0.682904      000  0  0  0
     0.16     0.13
max6      1  1     1.000000 0.241591 0.707518 0.674878      000  0  0  0
     0.16     0.13
max7      1  1     1.000000 0.243513 0.369810 0.476075      000  0  0  0
     0.14     0.13
max8      1  1     1.000000 0.188170 0.806375 0.432932      000  0  0  0
     0.18     0.12
max9      1  1     1.000000 0.199729 0.774402 0.746024      000  0  0  0
     0.12     0.11
max10     1  1     1.000000 0.283410 0.228427 0.785716      000  0  0  0
     0.13     0.11
--------------------------   Fourier minima   --------------------------
    1    1    1
min1      1  1     1.000000 0.313051 0.784458 0.971337      000  0  0  0
     0.18     0.16
min2      1  1     1.000000 0.380842 0.524154 0.738647      000  0  0  0
     0.17     0.14
min3      1  1     1.000000 0.096213 0.691669 0.411105      000  0  0  0
     0.17     0.13
min4      1  1     1.000000 0.019287 0.273324 0.007064      000  0  0  0
     0.17     0.12
min5      1  1     1.000000 0.286032 0.464952 0.693974      000  0  0  0
     0.15     0.12
min6      1  1     1.000000 0.475836 0.657432 0.365323      000  0  0  0
     0.17     0.12
min7      1  1     1.000000 0.305346 0.427648 0.119873      000  0  0  0
     0.14     0.12
min8      1  1     1.000000 0.238534 0.810031 0.557971      000  0  0  0
     0.14     0.11
min9      1  1     1.000000 0.096119 0.718214 0.333382      000  0  0  0
     0.15     0.11
min10     1  1     1.000000 0.199375 0.377822 0.651650      000  0  0  0
     0.15     0.11
------------------------------------------------------------------------
#m50
Version Jana2006
title
cell 7.0109 10.6617 10.7454 93.075 95.863 104.944
esdcell 0.0004 0.0008 0.0007 0.006 0.005 0.006
spgroup P-1 2 1
lattice P
symmetry x y z
symmetry -x -y -z
unitsnumb 2
chemform C13 H15 N5 O7
formtab -62
atom C atradius 0.77 color 128073041
atom H atradius 0.46 color 255204204
atom N atradius 0.74 color 176185230
atom O atradius 0.74 color 254003000
roundmethod 1
end
*******************************************************************************
contour
  plane Plane#1
    pntplane 1 C7b
    pntplane 1 O2b
    pntplane 1 O7b
    dltplane 0.1
    scpplane 5 5 0
    shfplane 1.5 1.5 0
    drawatom C7b Gray 2
    drawatom O2b Red 2
    drawatom O1b Red 2
  endplane
  plane Plane#2
    pntplane 1 N3a
    pntplane 1 C6a
    pntplane 1 H3aa_puv
    dltplane 0.1
    scpplane 5 5 0
    shfplane 1.5 2.5 0
    drawatom C6a Gray 2
    drawatom N3a Blue 2
    drawatom H3aa_puv SnowGray 2
  endplane
  plane Plane#3
    pntplane 1 N3a
    pntplane 1 C6a
    pntplane 1 H3ab_puv
    dltplane 0.1
    scpplane 5 5 0
    shfplane 1.5 2.5 0
    drawatom C6a Gray 2
    drawatom N3a Blue 2
    drawatom H3ab_puv SnowGray 2
  endplane
  plane Plane#4
    pntplane 1 N3a
    pntplane 1 C6a
    pntplane 1 H3ac_puv
    dltplane 0.1
    scpplane 5 5 0
    shfplane 1.5 2.5 0
    drawatom C6a Gray 2
    drawatom N3a Blue 2
    drawatom H3ac_puv SnowGray 2
  endplane
end contour
dist
  angles 1 lsttype 1 dmax 1.7 hamax 2.6
  plane C1b C2b C3b C4b C5b C6b
  plane O6b N1b O7b
  plane O4b N2b O5b
end dist
fourier
  maptype 6
end fourier
refine
  fsquare 1 autkeys 0 skipbad 1 badref 30
  iext 1 itypex 1 idistr 2 radius 0.01
  restric H3aa 12 H3ab
  restric H3aa 12 H3ac
  keep hydro triang C3b 2 1 C2b C4b 0.95 H3b
  keep ADP riding C3b 1.2 H3b
  keep hydro triang C5b 2 1 C6b C4b 0.95 H5b
  keep ADP riding C5b 1.2 H5b
  keep hydro triang C1a 2 1 N1a N2a 0.95 H1a
  keep ADP riding C1a 1.2 H1a
  keep hydro triang C2a 2 1 C3a N1a 0.95 H2a
  keep ADP riding C2a 1.2 H2a
  keep hydro triang C3a 2 1 C2a N2a 0.95 H3a
  keep ADP riding C3a 1.2 H3a
  keep hydro tetrahed C4a 2 2 N2a C5a 0.99 H4ab H4aa
  keep ADP riding C4a 1.2 H4ab H4aa
  keep hydro tetrahed C5a 2 2 C6a C4a 0.99 H5aa H5ab
  keep ADP riding C5a 1.2 H5aa H5ab
  keep hydro tetrahed C6a 2 2 N3a C5a 0.99 H6aa H6ab
  keep ADP riding C6a 1.2 H6aa H6ab
end refine
  keep hydro tetrahed N3a 1 3 C6a 0.91 H3ac H3aa H3ab
  distfix 0.84 0.0001 O2b H2b;
  keep ADP riding O2b 1.5 H2b
  keep ADP riding N3a 1.5 H3ac H3aa H3ab
;
_cod_data_source_file            su5452sup1.cif
_cod_data_source_block           TIYZIM
_cod_database_code               2242606
_shelx_space_group_comment
;
The symmetry employed for this shelxl refinement is uniquely defined
by the following loop, which should always be used as a source of
symmetry information in preference to the above space-group names.
They are only intended as comments.
;
loop_
_space_group_symop_operation_xyz
'x, y, z'
'-x, -y, -z'
loop_
_atom_site_type_symbol
_atom_site_label
_atom_site_fract_x
_atom_site_fract_y
_atom_site_fract_z
_atom_site_U_iso_or_equiv
_atom_site_adp_type
_atom_site_calc_flag
_atom_site_occupancy
O O1b -0.19161(17) 0.67539(12) 0.52684(11) 0.0294(4) Uani d 1
O O2b -0.38292(17) 0.47166(12) 0.40838(12) 0.0313(4) Uani d 1
O O3b -0.25511(17) 0.37712(12) 0.26158(12) 0.0312(4) Uani d 1
O O4b 0.41258(19) 0.58639(13) 0.16853(13) 0.0365(5) Uani d 1
O O5b 0.59776(18) 0.75622(13) 0.28239(14) 0.0382(5) Uani d 1
O O6b 0.3446(2) 0.93719(14) 0.62658(15) 0.0474(5) Uani d 1
O O7b 0.02822(19) 0.91655(13) 0.61477(13) 0.0410(5) Uani d 1
N N1b 0.1720(2) 0.88469(14) 0.58118(14) 0.0301(5) Uani d 1
N N2b 0.4396(2) 0.67347(14) 0.25363(14) 0.0281(5) Uani d 1
C C1b -0.0455(2) 0.68023(16) 0.46268(15) 0.0225(5) Uani d 1
C C2b -0.0572(2) 0.57873(15) 0.36597(15) 0.0217(5) Uani d 1
C C3b 0.0987(2) 0.57933(16) 0.29810(15) 0.0228(5) Uani d 1
H H3b 0.086172 0.512562 0.233219 0.0273 Uiso d 1
C C4b 0.2738(2) 0.67709(16) 0.32422(15) 0.0238(5) Uani d 1
C C5b 0.2967(2) 0.77664(16) 0.41630(15) 0.0244(5) Uani d 1
H H5b 0.418494 0.842618 0.433677 0.0292 Uiso d 1
C C6b 0.1392(2) 0.77850(16) 0.48267(15) 0.0244(5) Uani d 1
C C7b -0.2405(2) 0.46767(16) 0.33986(15) 0.0245(5) Uani d 1
N N1a -0.2235(2) 0.05127(14) -0.17301(14) 0.0305(5) Uani d 1
N N2a -0.0146(2) 0.22579(13) -0.06967(13) 0.0239(4) Uani d 1
N N3a 0.3467(2) 0.20531(13) 0.28160(13) 0.0254(4) Uani d 1
C C1a -0.0395(2) 0.12591(16) -0.15749(16) 0.0272(6) Uani d 1
H H1a 0.06324 0.111094 -0.202772 0.0327 Uiso d 1
C C2a -0.3211(3) 0.10665(17) -0.08987(17) 0.0314(6) Uani d 1
H H2a -0.457443 0.07432 -0.079116 0.0377 Uiso d 1
C C3a -0.1954(3) 0.21356(17) -0.02572(17) 0.0294(6) Uani d 1
H H3a -0.225845 0.269084 0.03706 0.0353 Uiso d 1
C C4a 0.1719(2) 0.32466(17) -0.02832(15) 0.0268(5) Uani d 1
H H4aa 0.242014 0.351332 -0.101965 0.0322 Uiso d 1
H H4ab 0.142708 0.403798 0.008481 0.0322 Uiso d 1
C C5a 0.3076(2) 0.27759(16) 0.06668(16) 0.0271(5) Uani d 1
H H5aa 0.324487 0.193134 0.033664 0.0326 Uiso d 1
H H5ab 0.440667 0.340434 0.079114 0.0326 Uiso d 1
C C6a 0.2253(2) 0.26206(16) 0.19085(15) 0.0279(6) Uani d 1
H H6aa 0.218227 0.347891 0.227027 0.0335 Uiso d 1
H H6ab 0.08712 0.206021 0.17726 0.0335 Uiso d 1
H H2b -0.339134 0.554144 0.46148 0.075(9) Uiso d 1
H H3aa 0.329781 0.119532 0.260701 0.045(4) Uiso d 1
H H3ab 0.475827 0.248704 0.284554 0.045(4) Uiso d 1
H H3ac 0.313145 0.21209 0.359189 0.045(4) Uiso d 1
loop_
_atom_site_aniso_label
_atom_site_aniso_U_11
_atom_site_aniso_U_22
_atom_site_aniso_U_33
_atom_site_aniso_U_12
_atom_site_aniso_U_13
_atom_site_aniso_U_23
_atom_site_aniso_type_symbol
O1b 0.0268(6) 0.0307(7) 0.0277(6) 0.0010(5) 0.0098(5) -0.0050(5) O
O2b 0.0247(6) 0.0313(7) 0.0327(7) -0.0024(5) 0.0088(5) -0.0060(5) O
O3b 0.0283(6) 0.0285(7) 0.0317(7) 0.0002(5) 0.0047(5) -0.0082(5) O
O4b 0.0371(7) 0.0325(7) 0.0413(8) 0.0085(6) 0.0167(6) -0.0042(6) O
O5b 0.0231(6) 0.0380(8) 0.0506(9) 0.0010(6) 0.0111(6) 0.0014(6) O
O6b 0.0352(7) 0.0408(8) 0.0552(10) -0.0009(6) -0.0052(7) -0.0197(7) O
O7b 0.0398(7) 0.0333(7) 0.0470(8) 0.0034(6) 0.0162(6) -0.0121(6) O
N1b 0.0326(8) 0.0241(8) 0.0301(8) 0.0012(6) 0.0060(6) -0.0023(6) N
N2b 0.0260(7) 0.0259(7) 0.0343(8) 0.0074(6) 0.0092(6) 0.0063(6) N
C1b 0.0234(8) 0.0236(8) 0.0201(8) 0.0054(6) 0.0034(6) 0.0027(6) C
C2b 0.0218(8) 0.0215(8) 0.0207(8) 0.0036(6) 0.0019(6) 0.0029(6) C
C3b 0.0265(8) 0.0220(8) 0.0208(8) 0.0077(7) 0.0043(6) 0.0017(6) C
C4b 0.0220(8) 0.0254(8) 0.0260(8) 0.0080(7) 0.0064(7) 0.0057(7) C
C5b 0.0220(8) 0.0220(8) 0.0269(8) 0.0015(6) 0.0023(7) 0.0050(7) C
C6b 0.0276(8) 0.0210(8) 0.0230(8) 0.0045(7) 0.0018(7) -0.0001(6) C
C7b 0.0247(8) 0.0261(8) 0.0216(8) 0.0051(7) 0.0021(6) 0.0007(6) C
N1a 0.0292(8) 0.0252(8) 0.0349(8) 0.0050(6) 0.0011(6) -0.0007(6) N
N2a 0.0247(7) 0.0234(7) 0.0229(7) 0.0054(6) 0.0034(5) 0.0002(6) N
N3a 0.0268(7) 0.0229(7) 0.0245(7) 0.0041(6) 0.0021(6) -0.0026(6) N
C1a 0.0286(9) 0.0260(9) 0.0278(9) 0.0087(7) 0.0051(7) -0.0018(7) C
C2a 0.0269(9) 0.0316(10) 0.0352(10) 0.0047(7) 0.0073(7) 0.0060(8) C
C3a 0.0301(9) 0.0311(9) 0.0289(9) 0.0095(7) 0.0092(7) 0.0016(7) C
C4a 0.0277(8) 0.0248(8) 0.0248(8) 0.0009(7) 0.0052(7) 0.0000(7) C
C5a 0.0237(8) 0.0295(9) 0.0260(9) 0.0030(7) 0.0055(7) -0.0021(7) C
C6a 0.0301(9) 0.0306(9) 0.0261(9) 0.0125(7) 0.0053(7) 0.0016(7) C
loop_
_atom_type_symbol
_atom_type_scat_dispersion_real
_atom_type_scat_dispersion_imag
_atom_type_scat_source
C 0.0181 0.0091 'International Tables Vol C tables 4.2.6.8 and 6.1.1.1'
H 0.0000 0.0000 'International Tables Vol C tables 4.2.6.8 and 6.1.1.1'
N 0.0311 0.0180 'International Tables Vol C tables 4.2.6.8 and 6.1.1.1'
O 0.0492 0.0322 'International Tables Vol C tables 4.2.6.8 and 6.1.1.1'
loop_
_geom_angle_atom_site_label_1
_geom_angle_atom_site_label_2
_geom_angle_atom_site_label_3
_geom_angle
C1b O1b H2b 99.82(10)
C7b O2b H2b 106.90(11)
O6b N1b O7b 123.30(15)
O6b N1b C6b 117.72(16)
O7b N1b C6b 118.97(13)
O4b N2b O5b 123.59(16)
O4b N2b C4b 117.89(12)
O5b N2b C4b 118.52(14)
O1b C1b C2b 120.19(13)
O1b C1b C6b 124.76(15)
C2b C1b C6b 115.00(15)
C1b C2b C3b 121.54(13)
C1b C2b C7b 119.88(15)
C3b C2b C7b 118.56(14)
C2b C3b H3b 120.01
C2b C3b C4b 119.99(15)
H3b C3b C4b 120.01
N2b C4b C3b 119.03(14)
N2b C4b C5b 119.24(13)
C3b C4b C5b 121.73(16)
C4b C5b H5b 120.69
C4b C5b C6b 118.62(13)
H5b C5b C6b 120.69
N1b C6b C1b 120.26(15)
N1b C6b C5b 116.59(13)
C1b C6b C5b 123.09(15)
O2b C7b O3b 121.86(14)
O2b C7b C2b 115.78(14)
O3b C7b C2b 122.33(16)
C1a N1a C2a 105.01(14)
C1a N2a C3a 106.69(13)
C1a N2a C4a 125.73(15)
C3a N2a C4a 127.56(14)
C6a N3a H3aa 111.33(12)
C6a N3a H3ab 109.46(13)
C6a N3a H3ac 111.76(15)
H3aa N3a H3ab 110.21(16)
H3aa N3a H3ac 106.71(14)
H3ab N3a H3ac 107.27(13)
N1a C1a N2a 111.91(16)
N1a C1a H1a 124.04
N2a C1a H1a 124.04
N1a C2a H2a 124.86
N1a C2a C3a 110.28(15)
H2a C2a C3a 124.86
N2a C3a C2a 106.10(16)
N2a C3a H3a 126.95
C2a C3a H3a 126.95
N2a C4a H4aa 109.47
N2a C4a H4ab 109.47
N2a C4a C5a 112.62(14)
H4aa C4a H4ab 106.12
H4aa C4a C5a 109.47
H4ab C4a C5a 109.47
C4a C5a H5aa 109.47
C4a C5a H5ab 109.47
C4a C5a C6a 111.50(15)
H5aa C5a H5ab 107.36
H5aa C5a C6a 109.47
H5ab C5a C6a 109.47
N3a C6a C5a 112.35(15)
N3a C6a H6aa 109.47
N3a C6a H6ab 109.47
C5a C6a H6aa 109.47
C5a C6a H6ab 109.47
H6aa C6a H6ab 106.43
O1b H2b O2b 156.29(9)
loop_
_geom_bond_atom_site_label_1
_geom_bond_atom_site_label_2
_geom_bond_distance
O1b C1b 1.284(2)
O2b C7b 1.308(2)
O2b H2b 0.9820(12)
O3b C7b 1.222(2)
O4b N2b 1.232(2)
O5b N2b 1.2248(17)
O6b N1b 1.2313(18)
O7b N1b 1.225(2)
N1b C6b 1.464(2)
N2b C4b 1.458(2)
C1b C2b 1.440(2)
C1b C6b 1.428(2)
C2b C3b 1.373(2)
C2b C7b 1.496(2)
C3b H3b 0.95
C3b C4b 1.382(2)
C4b C5b 1.378(2)
C5b H5b 0.95
C5b C6b 1.378(2)
N1a C1a 1.318(2)
N1a C2a 1.376(3)
N2a C1a 1.348(2)
N2a C3a 1.375(2)
N2a C4a 1.4622(19)
N3a C6a 1.483(2)
N3a H3aa 0.9042(14)
N3a H3ab 0.9009(13)
N3a H3ac 0.8932(14)
C1a H1a 0.95
C2a H2a 0.95
C2a C3a 1.351(2)
C3a H3a 0.95
C4a H4aa 0.99
C4a H4ab 0.99
C4a C5a 1.517(2)
C5a H5aa 0.99
C5a H5ab 0.99
C5a C6a 1.507(2)
C6a H6aa 0.99
C6a H6ab 0.99
loop_
_geom_hbond_atom_site_label_D
_geom_hbond_atom_site_label_H
_geom_hbond_atom_site_label_A
_geom_hbond_site_symmetry_A
_geom_hbond_distance_DH
_geom_hbond_distance_HA
_geom_hbond_distance_DA
_geom_hbond_angle_DHA
C4a H4aa O4b 2_665 0.99 2.53 3.359(2) 141
O2b H2b O1b . 0.9820(12) 1.5161(11) 2.4473(16) 156.29(9)
O2b H2b C1b . 0.9820(12) 2.1471(15) 2.7833(18) 121.00(8)
N3a H3aa N1a 2_555 0.9042(14) 1.9318(14) 2.797(2) 159.60(10)
N3a H3ab O2b 1_655 0.9009(13) 2.5650(12) 3.1297(17) 121.35(10)
N3a H3ab O3b 1_655 0.9009(13) 2.0721(11) 2.9537(17) 165.79(10)
N3a H3ac O1b 2_566 0.8932(14) 2.0610(13) 2.815(2) 141.47(11)
N3a H3ac O7b 2_566 0.8932(14) 2.4844(13) 2.9712(19) 114.74(8)
loop_
_refln_index_h
_refln_index_k
_refln_index_l
_refln_observed_status
_refln_F_squared_meas
_refln_F_squared_calc
1 0 0 o 336.11 320.36
2 0 0 o 1562.63 1421.57
3 0 0 o 726.19 710.50
4 0 0 o 22.07 15.89
6 0 0 < 0.89 0.66
7 0 0 < -0.39 0.01
8 0 0 o 26.51 21.79
-8 1 0 o 45.53 38.41
-7 1 0 < 0.00 0.05
-6 1 0 o 858.02 877.59
-5 1 0 o 136.07 136.99
-4 1 0 o 2.66 1.50
-3 1 0 o 318.20 319.98
-1 1 0 o 4.24 2.33
0 1 0 o 553.12 541.14
1 1 0 o 1091.00 1034.82
2 1 0 o 31.84 36.27
3 1 0 o 101.86 112.29
4 1 0 o 39.42 36.25
5 1 0 o 35.87 47.18
6 1 0 o 70.38 67.30
7 1 0 < 2.76 5.82
8 1 0 o 3.84 1.88
-8 2 0 o 9.56 8.12
-7 2 0 o 943.63 930.73
-6 2 0 o 567.66 557.70
-5 2 0 o 24.64 29.14
-4 2 0 o 171.40 162.91
-3 2 0 o 64.27 70.21
-2 2 0 o 951.63 947.78
-1 2 0 o 1039.91 995.67
0 2 0 o 2612.33 2659.52
1 2 0 o 501.21 507.24
2 2 0 o 2995.98 2730.68
3 2 0 o 13.60 11.58
4 2 0 < 0.30 0.03
5 2 0 o 72.94 73.99
6 2 0 o 18.13 24.66
7 2 0 o 123.63 110.03
-8 3 0 o 6.21 4.32
-7 3 0 o 54.70 51.40
-6 3 0 o 254.18 266.45
-5 3 0 o 4.04 2.88
-4 3 0 o 380.41 377.31
-3 3 0 o 884.08 952.99
-2 3 0 o 351.63 371.09
-1 3 0 o 5350.22 5148.25
0 3 0 o 91.21 65.31
1 3 0 o 3835.86 3640.52
2 3 0 o 2181.82 1846.59
3 3 0 o 60.12 53.81
4 3 0 o 127.58 132.69
5 3 0 < 2.17 1.03
6 3 0 o 16.85 24.91
7 3 0 o 7.09 3.64
-8 4 0 o 104.10 97.24
-7 4 0 o 11.23 9.96
-6 4 0 o 7.98 7.11
-5 4 0 o 8.08 6.53
-4 4 0 o 539.02 544.27
-3 4 0 o 46.22 49.55
-2 4 0 o 260.85 278.80
-1 4 0 o 61.81 64.98
0 4 0 o 1.77 0.51
1 4 0 o 730.65 662.46
2 4 0 o 616.87 696.47
3 4 0 o 34.89 39.85
4 4 0 o 40.31 45.51
5 4 0 o 33.41 37.84
6 4 0 < 2.27 1.70
7 4 0 < 2.46 1.79
-8 5 0 o 62.19 58.70
-7 5 0 < 1.28 0.98
-6 5 0 o 171.12 187.03
-5 5 0 o 9.36 11.54
-4 5 0 o 37.74 34.76
-3 5 0 < 0.49 0.34
-2 5 0 o 65.26 78.71
-1 5 0 o 438.29 454.29
0 5 0 o 190.69 188.65
1 5 0 o 112.10 106.48
2 5 0 o 172.56 150.28
3 5 0 < -0.79 0.03
4 5 0 o 34.99 41.44
5 5 0 o 102.34 121.97
6 5 0 < -0.49 0.10
-8 6 0 o 3.84 3.38
-7 6 0 o 2.96 3.08
-6 6 0 o 9.75 8.97
-5 6 0 o 20.40 21.88
-4 6 0 o 22.67 30.54
-3 6 0 < 0.79 1.56
-2 6 0 o 528.17 496.38
-1 6 0 o 281.21 257.97
0 6 0 o 662.88 649.66
1 6 0 o 19.31 20.08
2 6 0 o 4.43 4.17
3 6 0 o 604.47 610.55
4 6 0 < 3.05 9.29
5 6 0 o 20.50 26.00
6 6 0 o 2.76 2.21
-8 7 0 < 0.59 0.06
-7 7 0 o 131.53 134.16
-6 7 0 o 44.55 45.95
-5 7 0 o 171.21 176.23
-4 7 0 < 2.56 3.60
-3 7 0 o 27.59 28.42
-2 7 0 o 964.02 981.75
-1 7 0 o 24.83 24.70
0 7 0 o 459.04 456.75
1 7 0 o 2.96 2.59
2 7 0 o 70.28 69.99
3 7 0 o 23.95 25.19
4 7 0 o 29.76 34.97
5 7 0 < -0.20 0.00
-7 8 0 o 74.22 68.12
-6 8 0 o 7.00 7.82
-5 8 0 o 20.00 19.41
-4 8 0 o 98.39 98.79
-3 8 0 o 16.65 16.88
-2 8 0 < 0.49 2.42
-1 8 0 o 99.86 92.48
0 8 0 o 93.65 97.24
1 8 0 o 143.38 153.23
2 8 0 < 1.68 1.89
3 8 0 o 10.25 11.78
4 8 0 o 14.39 13.39
-7 9 0 o 2.46 2.88
-6 9 0 < 0.59 0.73
-5 9 0 o 12.91 15.64
-4 9 0 o 54.21 62.04
-3 9 0 o 11.23 8.51
-2 9 0 < -0.30 0.00
-1 9 0 o 37.55 36.89
0 9 0 o 477.70 468.41
1 9 0 o 131.84 144.19
2 9 0 o 51.64 49.08
3 9 0 o 37.65 34.36
4 9 0 < 0.99 0.94
-7 10 0 < -0.39 0.11
-6 10 0 o 303.42 275.32
-5 10 0 o 18.03 16.80
-4 10 0 o 12.32 13.79
-3 10 0 o 4.53 6.33
-2 10 0 o 3.84 5.66
-1 10 0 < 4.93 4.88
0 10 0 o 16.85 16.06
1 10 0 o 15.96 17.37
2 10 0 o 4.34 3.95
3 10 0 o 7.88 5.05
-6 11 0 o 28.68 26.10
-5 11 0 o 38.83 39.59
-4 11 0 o 41.00 44.72
-3 11 0 o 44.55 45.17
-2 11 0 o 93.75 94.06
-1 11 0 o 187.09 187.48
0 11 0 o 328.99 292.72
1 11 0 o 5.42 4.26
2 11 0 o 3.25 2.75
-5 12 0 o 20.30 19.62
-4 12 0 < -0.10 0.30
-3 12 0 o 25.82 24.80
-2 12 0 o 21.78 19.59
-1 12 0 o 68.60 68.91
0 12 0 < 0.10 0.41
1 12 0 o 34.49 33.95
2 -13 1 o 4.83 5.51
-1 -12 1 < 0.30 0.15
0 -12 1 < 3.45 2.52
1 -12 1 o 106.56 90.38
2 -12 1 < 0.30 0.59
3 -12 1 o 5.42 4.15
4 -12 1 o 5.42 6.14
5 -12 1 o 4.83 5.08
-2 -11 1 o 44.74 39.15
-1 -11 1 o 153.22 136.48
0 -11 1 o 175.33 158.60
1 -11 1 o 17.84 18.84
2 -11 1 o 53.91 43.33
3 -11 1 < 1.18 3.31
4 -11 1 o 74.42 72.66
5 -11 1 < 0.30 1.20
6 -11 1 o 47.31 45.62
-3 -10 1 o 15.37 14.65
-2 -10 1 o 181.06 172.06
-1 -10 1 < 0.30 0.22
0 -10 1 o 603.36 595.19
1 -10 1 o 201.91 201.25
2 -10 1 o 121.57 126.24
3 -10 1 o 231.23 221.06
4 -10 1 o 249.23 256.57
5 -10 1 o 7.78 9.31
6 -10 1 o 1.97 1.89
-4 -9 1 o 88.32 76.33
-3 -9 1 < 0.69 0.20
-2 -9 1 o 2.66 2.67
-1 -9 1 < 1.38 4.01
0 -9 1 < 1.28 0.02
1 -9 1 < 1.38 0.36
2 -9 1 o 51.05 50.95
3 -9 1 o 4.73 5.30
4 -9 1 o 33.61 38.64
5 -9 1 < 3.55 4.83
6 -9 1 o 8.18 9.23
7 -9 1 o 18.23 17.21
-5 -8 1 o 37.15 37.17
-4 -8 1 o 129.76 149.24
-3 -8 1 o 189.18 196.03
-2 -8 1 o 48.29 53.18
-1 -8 1 o 5.12 5.34
0 -8 1 < 2.76 2.42
1 -8 1 o 113.38 116.02
2 -8 1 o 9.56 12.45
3 -8 1 o 35.48 33.73
4 -8 1 o 5.81 9.01
5 -8 1 o 19.91 20.10
6 -8 1 < 0.69 0.08
7 -8 1 < 0.39 0.38
-5 -7 1 < 0.69 0.80
-4 -7 1 o 242.19 232.87
-3 -7 1 o 202.31 202.21
-2 -7 1 o 195.99 206.08
-1 -7 1 o 57.86 62.28
0 -7 1 o 96.91 100.73
1 -7 1 o 297.66 321.97
2 -7 1 o 64.26 67.48
3 -7 1 o 414.05 430.49
4 -7 1 o 258.52 272.47
5 -7 1 o 60.62 58.30
6 -7 1 < 2.66 2.93
7 -7 1 o 5.91 6.95
8 -7 1 o 3.45 2.23
-6 -6 1 o 68.11 56.47
-5 -6 1 o 48.29 54.14
-4 -6 1 o 156.12 174.69
-3 -6 1 o 83.59 88.63
-2 -6 1 o 3.25 4.35
-1 -6 1 o 115.06 122.49
0 -6 1 o 17.64 12.46
1 -6 1 < 0.00 1.35
2 -6 1 o 297.65 302.07
3 -6 1 o 74.61 71.62
4 -6 1 o 4.24 3.86
5 -6 1 o 327.37 313.08
6 -6 1 < 1.48 2.45
7 -6 1 < 0.20 0.96
8 -6 1 o 14.39 15.83
-6 -5 1 o 40.90 42.30
-5 -5 1 o 36.37 41.14
-4 -5 1 o 6.50 5.52
-3 -5 1 o 142.49 150.65
-2 -5 1 o 101.64 108.26
-1 -5 1 o 11.33 7.88
0 -5 1 o 213.14 231.42
1 -5 1 o 98.10 97.68
2 -5 1 o 21.09 22.58
3 -5 1 o 52.24 52.86
4 -5 1 o 406.21 363.60
5 -5 1 o 607.07 537.06
6 -5 1 < 0.49 0.02
7 -5 1 o 3.05 3.37
8 -5 1 o 5.62 5.57
-7 -4 1 o 3.35 2.62
-6 -4 1 o 7.88 12.33
-5 -4 1 o 27.69 27.33
-4 -4 1 o 36.27 43.79
-3 -4 1 o 491.36 541.88
-2 -4 1 o 1464.15 1402.33
-1 -4 1 o 2117.00 2020.58
0 -4 1 o 18.72 13.02
1 -4 1 o 1142.86 1099.76
2 -4 1 o 69.30 76.57
3 -4 1 o 763.57 754.07
4 -4 1 o 14.98 11.67
5 -4 1 o 11.23 12.98
6 -4 1 o 44.35 48.48
7 -4 1 < 0.79 0.75
8 -4 1 < -0.30 0.07
-7 -3 1 o 26.21 28.73
-6 -3 1 o 112.29 104.50
-5 -3 1 o 137.25 127.17
-4 -3 1 o 246.60 221.39
-3 -3 1 o 26.90 18.56
-2 -3 1 o 445.14 429.29
-1 -3 1 o 266.88 276.69
0 -3 1 o 5.91 5.95
1 -3 1 o 1442.47 1336.74
2 -3 1 o 10.05 11.35
3 -3 1 o 77.78 70.84
4 -3 1 o 6.21 7.68
5 -3 1 o 20.10 22.42
6 -3 1 o 210.29 194.15
7 -3 1 o 195.88 189.35
8 -3 1 o 39.42 38.54
-7 -2 1 o 10.94 10.10
-6 -2 1 o 44.45 51.38
-5 -2 1 o 72.25 78.78
-4 -2 1 o 716.24 650.28
-3 -2 1 o 111.02 113.49
-2 -2 1 o 369.42 378.51
-1 -2 1 o 2063.02 2022.85
0 -2 1 o 11.73 6.73
1 -2 1 o 401.91 375.08
2 -2 1 o 522.63 506.02
3 -2 1 o 91.39 90.45
4 -2 1 o 105.58 104.56
5 -2 1 o 66.92 62.82
6 -2 1 o 5.91 9.13
7 -2 1 o 204.56 195.35
8 -2 1 o 24.14 20.28
-8 -1 1 < 1.38 0.97
-7 -1 1 o 135.28 140.17
-6 -1 1 o 472.60 477.08
-5 -1 1 o 148.50 145.57
-4 -1 1 o 83.89 82.11
-3 -1 1 o 129.29 135.33
-2 -1 1 o 945.72 1020.01
1 -1 1 o 105.53 103.71
2 -1 1 o 2251.96 2019.27
3 -1 1 o 344.19 344.17
4 -1 1 o 102.32 85.24
5 -1 1 o 339.20 317.57
6 -1 1 o 364.51 369.87
7 -1 1 o 239.90 220.70
8 -1 1 o 52.83 44.13
-8 0 1 o 56.47 50.03
-7 0 1 o 51.35 52.38
-6 0 1 o 49.77 44.88
-5 0 1 o 12.02 7.72
-4 0 1 o 140.89 120.99
-3 0 1 o 37.74 26.07
-2 0 1 o 34.89 39.73
-1 0 1 o 265.66 292.79
0 0 1 o 1562.26 1491.04
1 0 1 o 1174.96 1154.56
2 0 1 o 9.76 12.57
3 0 1 o 22.37 27.72
4 0 1 o 149.11 168.07
5 0 1 < 4.34 5.22
6 0 1 o 109.83 109.80
7 0 1 o 4.34 5.83
8 0 1 o 5.62 5.83
-8 1 1 o 4.24 3.69
-7 1 1 o 7.09 6.32
-6 1 1 o 508.08 525.59
-5 1 1 o 7.09 4.84
-4 1 1 o 102.92 97.10
-3 1 1 o 751.97 762.93
-2 1 1 o 774.30 858.48
-1 1 1 o 1053.91 1097.82
0 1 1 o 1397.37 1380.08
1 1 1 o 948.40 949.88
2 1 1 o 785.97 800.30
3 1 1 o 1202.27 1045.98
4 1 1 o 27.40 38.07
5 1 1 o 52.43 41.85
6 1 1 o 39.32 39.85
7 1 1 o 57.06 52.86
-8 2 1 o 58.25 44.72
-7 2 1 < 0.59 0.20
-6 2 1 < -0.30 0.16
-5 2 1 o 59.43 58.61
-4 2 1 < 0.59 0.31
-3 2 1 o 39.13 40.66
-2 2 1 o 115.47 75.75
-1 2 1 o 1055.25 1102.74
0 2 1 o 2024.68 2103.11
1 2 1 o 689.51 877.51
2 2 1 o 2130.83 2147.50
3 2 1 o 1338.19 1292.17
4 2 1 o 595.61 582.48
5 2 1 o 28.09 31.10
6 2 1 o 47.80 55.24
7 2 1 o 10.54 8.47
-8 3 1 o 1.97 1.69
-7 3 1 o 66.04 66.11
-6 3 1 o 20.69 20.06
-5 3 1 o 11.33 13.09
-4 3 1 o 2031.93 1774.10
-3 3 1 o 131.44 115.74
-2 3 1 o 12.71 12.13
-1 3 1 o 46.13 44.43
0 3 1 o 21.29 25.67
1 3 1 o 210.08 235.37
2 3 1 o 60.03 70.02
3 3 1 o 279.90 249.66
4 3 1 o 66.43 63.45
5 3 1 o 78.37 96.21
6 3 1 o 98.19 110.43
7 3 1 < 0.49 0.25
-8 4 1 o 2.66 2.43
-7 4 1 o 35.08 36.43
-6 4 1 o 5.03 4.54
-5 4 1 o 62.88 49.81
-4 4 1 o 1038.24 1058.81
-3 4 1 o 1247.55 1183.37
-2 4 1 o 29.37 29.26
-1 4 1 o 184.13 187.88
0 4 1 o 3.74 0.80
1 4 1 o 7.39 5.39
2 4 1 o 491.56 540.40
3 4 1 o 46.81 46.97
4 4 1 o 26.61 36.88
5 4 1 o 13.11 19.21
6 4 1 < 0.99 2.05
7 4 1 o 73.93 62.77
-8 5 1 < -0.10 0.08
-7 5 1 < 0.79 0.88
-6 5 1 < 0.79 0.58
-5 5 1 o 58.84 57.20
-4 5 1 o 149.29 145.72
-3 5 1 o 27.10 29.41
-2 5 1 < 6.40 3.25
-1 5 1 o 779.79 760.29
0 5 1 o 224.96 224.54
1 5 1 o 8.18 7.43
2 5 1 o 154.91 151.49
3 5 1 o 309.10 378.77
4 5 1 o 37.15 28.75
5 5 1 o 613.67 645.41
6 5 1 o 56.87 51.11
-8 6 1 o 49.08 48.38
-7 6 1 o 57.66 58.44
-6 6 1 o 22.86 21.77
-5 6 1 o 25.82 29.52
-4 6 1 o 95.03 89.89
-3 6 1 < 1.48 1.58
-2 6 1 o 16.75 17.85
-1 6 1 < 0.30 0.04
0 6 1 o 76.29 70.25
1 6 1 o 185.99 164.58
2 6 1 o 26.31 28.87
3 6 1 o 284.13 305.34
4 6 1 o 104.42 136.32
5 6 1 < 0.59 0.01
6 6 1 o 14.68 14.42
-8 7 1 o 6.60 7.19
-7 7 1 o 5.03 5.93
-6 7 1 < 1.58 2.04
-5 7 1 o 28.58 26.65
-4 7 1 o 149.20 157.49
-3 7 1 o 68.60 70.41
-2 7 1 o 1107.11 1123.56
-1 7 1 < 0.10 1.10
0 7 1 o 65.54 62.90
1 7 1 o 40.31 35.54
2 7 1 o 21.97 15.73
3 7 1 o 58.64 59.72
4 7 1 o 10.44 12.11
5 7 1 o 44.94 40.19
-8 8 1 o 14.39 12.09
-7 8 1 o 12.91 15.01
-6 8 1 o 13.01 14.80
-5 8 1 < 0.59 0.69
-4 8 1 o 136.37 139.38
-3 8 1 o 91.48 92.79
-2 8 1 o 217.01 217.40
-1 8 1 o 36.27 39.80
0 8 1 o 247.47 271.42
1 8 1 o 391.91 448.13
2 8 1 o 5.52 5.59
3 8 1 o 135.58 146.02
4 8 1 o 77.67 78.56
-7 9 1 < 0.00 0.00
-6 9 1 o 134.29 127.67
-5 9 1 o 47.60 55.00
-4 9 1 < 0.59 0.84
-3 9 1 o 182.77 191.56
-2 9 1 o 10.54 11.54
-1 9 1 o 112.10 114.13
0 9 1 o 243.86 219.00
1 9 1 o 108.44 103.59
2 9 1 o 347.92 325.92
3 9 1 o 37.15 44.70
-7 10 1 o 4.83 5.73
-6 10 1 o 447.14 426.73
-5 10 1 o 140.90 143.88
-4 10 1 o 3.35 0.57
-3 10 1 o 122.85 125.15
-2 10 1 o 35.97 34.48
-1 10 1 o 35.97 35.26
0 10 1 o 573.74 578.34
1 10 1 o 7.98 7.23
2 10 1 o 11.53 7.53
3 10 1 o 59.23 46.40
-6 11 1 o 45.93 36.64
-5 11 1 o 249.29 229.71
-4 11 1 < 1.28 1.72
-3 11 1 < 1.58 2.20
-2 11 1 < 0.79 2.41
-1 11 1 o 6.31 7.70
0 11 1 o 43.76 40.91
1 11 1 o 46.52 44.68
2 11 1 o 10.05 11.90
-5 12 1 o 16.95 16.19
-4 12 1 o 267.96 239.10
-3 12 1 o 29.17 29.63
-2 12 1 < 2.86 1.84
-1 12 1 o 26.11 21.75
0 12 1 o 44.74 44.91
2 -13 2 o 44.45 43.29
-1 -12 2 o 4.93 4.05
0 -12 2 o 3.65 1.57
1 -12 2 o 21.48 19.52
2 -12 2 < -0.30 0.03
3 -12 2 < 0.39 0.01
4 -12 2 o 22.37 24.02
-2 -11 2 o 14.49 16.83
-1 -11 2 < -0.10 0.02
0 -11 2 o 144.64 131.65
1 -11 2 o 416.13 382.78
2 -11 2 o 23.26 23.08
3 -11 2 o 41.88 43.40
4 -11 2 o 6.90 7.34
5 -11 2 o 8.97 8.66
6 -11 2 o 15.77 13.17
-3 -10 2 < 2.66 2.59
-2 -10 2 o 6.90 7.24
-1 -10 2 < -0.30 0.20
0 -10 2 o 87.83 88.17
1 -10 2 o 8.18 8.28
2 -10 2 o 11.23 12.16
3 -10 2 o 18.23 17.34
4 -10 2 o 4.34 4.91
5 -10 2 o 9.07 10.30
6 -10 2 o 7.29 8.17
-4 -9 2 o 10.74 10.21
-3 -9 2 o 32.32 30.01
-2 -9 2 o 8.28 8.85
-1 -9 2 < 2.36 3.19
0 -9 2 o 80.83 83.71
1 -9 2 o 96.31 94.78
2 -9 2 o 204.67 198.72
3 -9 2 o 578.09 568.46
4 -9 2 o 40.01 38.06
5 -9 2 o 46.32 49.65
6 -9 2 o 19.22 18.37
7 -9 2 o 0.89 0.95
-5 -8 2 < 0.20 1.29
-4 -8 2 o 64.66 76.18
-3 -8 2 < 0.89 1.32
-2 -8 2 o 69.59 73.48
-1 -8 2 < -1.08 0.47
0 -8 2 o 117.22 118.02
1 -8 2 o 60.72 72.81
2 -8 2 < 0.20 1.02
3 -8 2 o 242.71 253.00
4 -8 2 o 17.84 24.57
5 -8 2 o 63.97 67.95
6 -8 2 o 39.62 34.62
7 -8 2 o 4.24 2.10
-5 -7 2 o 35.77 29.86
-4 -7 2 o 199.37 226.26
-3 -7 2 o 51.74 51.64
-2 -7 2 o 7.98 8.91
-1 -7 2 o 278.22 256.85
0 -7 2 o 53.71 53.08
1 -7 2 o 91.98 115.88
2 -7 2 o 134.21 160.78
3 -7 2 o 135.48 137.84
4 -7 2 o 47.80 55.81
5 -7 2 o 10.54 9.07
6 -7 2 o 83.59 79.07
7 -7 2 o 39.12 39.68
8 -7 2 o 16.55 13.37
-6 -6 2 o 54.31 50.48
-5 -6 2 o 4.93 5.59
-4 -6 2 o 38.93 44.87
-3 -6 2 o 14.58 15.75
-2 -6 2 o 21.58 23.49
-1 -6 2 o 55.20 75.10
0 -6 2 o 174.96 177.36
1 -6 2 o 235.41 251.62
2 -6 2 o 44.74 49.80
3 -6 2 o 244.49 262.99
4 -6 2 o 220.66 220.62
5 -6 2 o 269.68 277.33
6 -6 2 < 0.69 0.89
7 -6 2 o 35.67 37.23
8 -6 2 < 0.10 0.24
-6 -5 2 o 11.43 7.24
-5 -5 2 < 1.58 0.64
-4 -5 2 o 137.46 150.04
-3 -5 2 o 44.55 49.28
-2 -5 2 o 32.13 33.95
-1 -5 2 o 254.58 258.87
0 -5 2 o 772.00 781.83
1 -5 2 o 51.45 50.21
2 -5 2 < 24.34 5.56
3 -5 2 o 417.57 395.58
4 -5 2 o 548.36 578.52
5 -5 2 o 330.64 322.47
6 -5 2 o 8.97 13.89
7 -5 2 o 53.02 53.27
8 -5 2 o 133.90 115.66
-7 -4 2 o 61.01 49.02
-6 -4 2 o 60.32 57.87
-5 -4 2 < 0.69 0.96
-4 -4 2 o 42.57 42.65
-3 -4 2 o 6.60 8.39
-2 -4 2 o 43.86 43.10
-1 -4 2 o 1532.76 1545.64
0 -4 2 < 1.97 2.39
1 -4 2 o 369.66 383.28
2 -4 2 o 49.77 47.10
3 -4 2 o 215.93 202.90
4 -4 2 o 86.25 85.82
5 -4 2 o 13.60 16.60
6 -4 2 o 21.68 24.73
7 -4 2 o 776.22 686.73
8 -4 2 o 132.13 127.23
-7 -3 2 < 0.30 0.16
-6 -3 2 < 0.89 0.58
-5 -3 2 o 92.67 99.23
-4 -3 2 o 37.84 40.83
-3 -3 2 o 205.20 230.56
-2 -3 2 o 304.90 278.66
-1 -3 2 o 82.73 98.33
0 -3 2 o 5244.98 5249.08
1 -3 2 o 7588.51 7702.17
2 -3 2 o 1244.26 1129.72
3 -3 2 o 68.60 66.83
4 -3 2 o 381.03 352.32
5 -3 2 < 2.07 3.02
6 -3 2 o 180.39 183.07
7 -3 2 o 276.45 256.32
8 -3 2 < -0.69 0.00
-7 -2 2 o 18.43 15.26
-6 -2 2 o 140.51 141.83
-5 -2 2 o 50.66 53.23
-4 -2 2 o 423.31 420.69
-3 -2 2 o 24.44 22.36
-2 -2 2 o 44.16 49.48
-1 -2 2 o 281.44 282.00
0 -2 2 o 4413.19 5893.38
2 -2 2 o 284.16 325.08
3 -2 2 o 73.15 85.68
4 -2 2 o 144.25 132.61
5 -2 2 o 22.57 23.89
6 -2 2 o 177.93 181.92
7 -2 2 < 0.59 0.00
-8 -1 2 o 9.36 8.13
-7 -1 2 o 179.58 166.35
-6 -1 2 o 173.66 160.83
-5 -1 2 o 1264.98 1290.07
-4 -1 2 o 146.73 150.94
-3 -1 2 o 46.03 49.01
-2 -1 2 o 14.88 13.66
-1 -1 2 o 7.09 7.21
0 -1 2 o 9.26 6.65
1 -1 2 o 820.16 858.70
2 -1 2 o 411.23 396.22
3 -1 2 o 3.35 3.49
4 -1 2 o 5.42 3.82
5 -1 2 o 13.40 4.15
6 -1 2 o 328.62 340.08
7 -1 2 < 0.89 1.76
-8 0 2 o 20.10 19.82
-7 0 2 o 29.66 37.66
-6 0 2 o 1974.04 2055.19
-5 0 2 o 197.93 179.59
-4 0 2 < -0.20 1.09
-3 0 2 o 112.71 115.96
-2 0 2 o 504.80 451.00
-1 0 2 o 11111.40 10969.70
0 0 2 o 42.20 42.66
1 0 2 o 158.06 150.07
2 0 2 o 125.35 105.99
3 0 2 o 1123.03 961.68
4 0 2 o 78.75 66.26
5 0 2 o 22.47 30.84
6 0 2 o 7.98 8.56
7 0 2 o 3.65 3.19
-8 1 2 < 2.17 1.96
-7 1 2 o 208.91 199.54
-6 1 2 o 3.25 3.51
-5 1 2 o 323.32 324.23
-4 1 2 o 124.43 124.73
-3 1 2 o 429.73 380.32
-2 1 2 o 1728.50 1651.36
-1 1 2 o 570.30 501.51
0 1 2 o 1455.39 1365.82
1 1 2 o 36.96 24.33
2 1 2 o 241.04 283.03
3 1 2 o 265.29 226.17
4 1 2 o 3.15 2.55
5 1 2 < 1.97 0.80
6 1 2 o 40.11 41.22
7 1 2 o 56.87 58.98
-8 2 2 o 4.83 5.82
-7 2 2 o 87.83 93.78
-6 2 2 o 43.56 46.76
-5 2 2 o 77.67 65.17
-4 2 2 o 95.42 89.99
-3 2 2 o 1073.09 1003.58
-2 2 2 o 1.68 2.21
-1 2 2 o 1146.80 1142.63
0 2 2 o 887.63 919.51
1 2 2 o 127.36 131.49
2 2 2 o 1356.64 1306.17
3 2 2 o 1094.05 863.31
4 2 2 o 100.35 91.30
5 2 2 < 2.46 3.15
6 2 2 o 13.20 17.72
7 2 2 < 0.69 0.16
-8 3 2 o 80.63 76.82
-7 3 2 o 147.71 148.80
-6 3 2 o 44.35 49.11
-5 3 2 o 207.73 211.98
-4 3 2 o 56.87 64.02
-3 3 2 o 392.74 399.24
-2 3 2 o 488.92 541.22
-1 3 2 o 377.74 392.84
0 3 2 o 3590.67 3564.74
1 3 2 o 541.31 470.98
2 3 2 o 88.42 65.83
3 3 2 o 91.69 117.40
4 3 2 o 18.23 27.27
5 3 2 o 4.34 8.05
6 3 2 o 54.41 60.44
7 3 2 < 3.25 3.25
-8 4 2 o 11.43 12.04
-7 4 2 o 2.27 1.98
-6 4 2 o 138.64 146.51
-5 4 2 o 142.28 137.19
-4 4 2 o 119.68 101.32
-3 4 2 o 7.98 5.09
-2 4 2 o 13.01 14.61
-1 4 2 o 3931.35 3725.60
0 4 2 o 501.96 466.21
1 4 2 o 57.36 43.23
2 4 2 o 11.23 12.30
3 4 2 o 89.11 91.04
4 4 2 o 229.87 236.36
5 4 2 o 44.94 52.15
6 4 2 o 5.32 7.17
-8 5 2 o 21.38 16.50
-7 5 2 o 11.04 12.56
-6 5 2 o 59.14 55.07
-5 5 2 o 48.00 51.76
-4 5 2 o 38.43 37.75
-3 5 2 < 0.69 0.25
-2 5 2 o 256.57 260.53
-1 5 2 o 2046.93 2020.15
0 5 2 o 57.56 55.99
1 5 2 o 784.98 748.16
2 5 2 o 6.21 5.19
3 5 2 o 69.19 63.25
4 5 2 o 66.93 76.28
5 5 2 o 5.71 7.82
6 5 2 < 3.15 3.22
-8 6 2 o 21.48 26.91
-7 6 2 o 436.68 432.67
-6 6 2 o 106.97 113.04
-5 6 2 o 71.76 80.91
-4 6 2 o 20.30 20.28
-3 6 2 o 229.53 214.69
-2 6 2 < -0.30 0.66
-1 6 2 o 560.57 540.02
0 6 2 o 113.87 115.74
1 6 2 o 501.73 543.08
2 6 2 o 10.05 8.16
3 6 2 o 30.85 39.42
4 6 2 < 5.03 4.83
5 6 2 o 21.68 24.15
6 6 2 o 2.46 2.60
-8 7 2 o 82.71 81.72
-7 7 2 < 0.49 0.21
-6 7 2 o 34.49 33.13
-5 7 2 o 24.14 25.95
-4 7 2 o 121.18 140.69
-3 7 2 < -0.10 0.24
-2 7 2 o 207.72 198.66
-1 7 2 o 4.83 2.73
0 7 2 o 8.47 6.28
1 7 2 o 958.72 996.79
2 7 2 o 420.56 408.44
3 7 2 < 1.68 1.83
4 7 2 o 23.85 17.17
5 7 2 o 3.15 4.25
-7 8 2 o 51.64 47.62
-6 8 2 o 36.96 39.96
-5 8 2 o 334.48 360.02
-4 8 2 o 24.93 24.35
-3 8 2 o 4.14 3.40
-2 8 2 o 4.93 3.21
-1 8 2 < 0.79 0.24
0 8 2 o 441.23 427.08
1 8 2 o 574.31 563.25
2 8 2 < 1.38 2.20
3 8 2 o 17.54 17.09
4 8 2 o 21.19 19.22
-7 9 2 < 1.18 2.12
-6 9 2 o 22.47 22.34
-5 9 2 o 6.70 8.53
-4 9 2 o 111.51 119.74
-3 9 2 o 94.84 98.32
-2 9 2 o 12.22 16.56
-1 9 2 o 24.54 28.72
0 9 2 o 203.99 205.52
1 9 2 o 646.99 632.53
2 9 2 o 165.56 152.62
3 9 2 o 30.84 30.00
4 9 2 o 2.96 1.79
-7 10 2 o 36.86 32.29
-6 10 2 o 38.83 39.71
-5 10 2 o 180.38 184.72
-4 10 2 < -0.20 0.03
-3 10 2 < 1.58 2.54
-2 10 2 < -0.20 0.23
-1 10 2 < 5.42 4.08
0 10 2 < 0.30 0.01
1 10 2 o 40.90 41.48
2 10 2 o 31.34 31.83
3 10 2 o 259.12 221.42
-6 11 2 o 172.91 160.23
-5 11 2 < 0.99 0.84
-4 11 2 < 0.79 0.77
-3 11 2 o 24.73 28.53
-2 11 2 < 1.08 0.41
-1 11 2 o 38.14 40.56
0 11 2 o 16.95 14.77
1 11 2 o 32.13 29.93
-5 12 2 o 53.22 48.55
-4 12 2 o 55.69 49.29
-3 12 2 o 89.51 82.93
-2 12 2 o 62.98 66.96
-1 12 2 o 23.45 20.54
0 12 2 o 34.39 32.38
-1 -12 3 o 54.61 49.31
0 -12 3 o 10.84 13.12
1 -12 3 o 245.43 219.41
2 -12 3 o 28.58 26.10
3 -12 3 < 0.49 0.12
4 -12 3 o 90.40 89.37
-2 -11 3 o 2.36 2.20
-1 -11 3 o 23.75 19.93
0 -11 3 < 3.15 3.41
1 -11 3 o 7.98 10.32
2 -11 3 o 9.46 10.59
3 -11 3 o 22.76 23.58
4 -11 3 o 15.47 12.78
5 -11 3 < 0.49 1.64
-3 -10 3 o 382.90 369.73
-2 -10 3 o 42.08 42.98
-1 -10 3 o 6.31 8.86
0 -10 3 o 21.88 23.79
1 -10 3 < 1.68 1.10
2 -10 3 o 62.88 58.38
3 -10 3 o 32.32 34.57
4 -10 3 o 3.25 1.78
5 -10 3 o 2.86 2.33
6 -10 3 < 0.89 1.30
-4 -9 3 o 3.74 4.99
-3 -9 3 o 8.18 8.71
-2 -9 3 o 83.69 82.23
-1 -9 3 o 54.99 46.75
0 -9 3 o 25.03 24.49
1 -9 3 o 59.34 65.45
2 -9 3 < -0.49 0.00
3 -9 3 o 20.20 23.66
4 -9 3 o 4.24 3.45
5 -9 3 o 63.08 69.61
6 -9 3 o 20.50 19.46
7 -9 3 o 4.53 5.11
-5 -8 3 o 38.04 32.05
-4 -8 3 o 83.79 88.72
-3 -8 3 o 80.24 85.41
-2 -8 3 o 104.12 126.17
-1 -8 3 < 3.55 2.45
0 -8 3 o 8.38 6.57
1 -8 3 o 21.97 20.05
2 -8 3 < 0.00 0.06
3 -8 3 o 56.67 47.89
4 -8 3 o 61.11 64.31
5 -8 3 < 3.05 2.50
6 -8 3 o 116.34 118.72
7 -8 3 o 9.36 7.13
-5 -7 3 o 66.13 60.24
-4 -7 3 o 30.06 29.43
-3 -7 3 o 24.54 20.56
-2 -7 3 o 375.93 364.53
-1 -7 3 o 6.21 6.94
0 -7 3 < 1.87 1.90
1 -7 3 o 27.10 29.19
2 -7 3 o 88.42 87.93
3 -7 3 o 167.74 159.28
4 -7 3 o 4.04 3.55
5 -7 3 o 76.39 73.99
6 -7 3 o 50.76 48.07
7 -7 3 < 0.30 0.12
-6 -6 3 < 0.30 0.16
-5 -6 3 o 7.49 8.64
-4 -6 3 o 24.14 24.99
-3 -6 3 o 47.01 48.49
-2 -6 3 o 117.43 128.05
-1 -6 3 o 684.79 761.08
0 -6 3 o 897.45 893.15
1 -6 3 o 22.07 15.49
2 -6 3 o 394.88 369.89
3 -6 3 o 96.31 87.67
4 -6 3 o 30.16 36.45
5 -6 3 < 2.36 1.29
6 -6 3 o 78.66 75.78
7 -6 3 o 9.26 13.08
-6 -5 3 o 3.05 2.76
-5 -5 3 o 28.87 32.58
-4 -5 3 o 65.84 68.56
-3 -5 3 o 92.86 94.99
-2 -5 3 o 21.09 14.11
-1 -5 3 o 217.19 192.64
0 -5 3 o 203.42 211.87
1 -5 3 < 2.46 3.92
2 -5 3 o 77.97 75.31
3 -5 3 o 191.92 180.12
4 -5 3 < 2.07 0.15
5 -5 3 o 10.64 12.53
6 -5 3 o 46.32 42.57
7 -5 3 o 138.43 131.20
8 -5 3 o 12.71 14.15
-7 -4 3 o 136.17 116.09
-6 -4 3 o 24.64 21.53
-5 -4 3 o 69.98 71.14
-4 -4 3 o 68.21 82.24
-3 -4 3 o 966.78 1143.90
-2 -4 3 o 10.74 10.35
-1 -4 3 o 15.67 2.30
0 -4 3 o 1481.42 1536.88
1 -4 3 o 551.36 531.87
2 -4 3 o 104.40 91.29
3 -4 3 o 31.24 35.08
4 -4 3 < 1.18 1.27
5 -4 3 o 66.53 63.19
6 -4 3 o 46.91 42.53
7 -4 3 o 50.06 45.65
8 -4 3 o 244.23 225.58
-7 -3 3 o 2.76 2.73
-6 -3 3 o 45.23 39.91
-5 -3 3 o 383.00 388.25
-4 -3 3 o 5.42 5.36
-3 -3 3 o 34.49 34.02
-2 -3 3 o 13.80 16.65
-1 -3 3 o 738.14 715.35
0 -3 3 o 159.63 158.06
1 -3 3 o 350.89 295.27
2 -3 3 o 811.70 747.06
3 -3 3 o 33.61 37.24
4 -3 3 o 205.35 202.67
5 -3 3 o 234.40 239.54
6 -3 3 o 208.23 200.82
7 -3 3 o 225.77 200.01
-7 -2 3 o 5.03 3.81
-6 -2 3 o 28.48 27.47
-5 -2 3 o 6.01 5.01
-4 -2 3 < 3.05 3.66
-3 -2 3 < 0.79 1.67
-2 -2 3 o 5.03 8.87
-1 -2 3 o 29.37 39.83
0 -2 3 o 2.17 2.02
1 -2 3 o 10563.90 9258.00
2 -2 3 < 0.20 0.04
3 -2 3 o 177.31 151.15
4 -2 3 o 312.25 311.12
5 -2 3 o 11.53 11.79
6 -2 3 < -0.30 0.87
7 -2 3 o 65.15 64.12
-8 -1 3 o 84.97 65.63
-7 -1 3 o 7.69 6.83
-6 -1 3 o 27.49 29.01
-5 -1 3 o 442.83 438.83
-4 -1 3 o 412.05 415.55
-3 -1 3 o 64.26 53.56
-2 -1 3 o 902.69 914.77
-1 -1 3 o 1218.79 1198.55
0 -1 3 o 658.06 570.39
1 -1 3 o 2636.85 2610.21
2 -1 3 o 216.34 223.06
3 -1 3 < 1.77 0.58
4 -1 3 o 564.60 518.53
5 -1 3 < 2.36 3.47
6 -1 3 < 0.49 0.39
7 -1 3 o 31.83 27.57
-8 0 3 o 32.23 32.98
-7 0 3 < 1.38 0.25
-6 0 3 o 67.72 73.27
-5 0 3 o 29.86 37.69
-4 0 3 < 3.05 4.04
-3 0 3 o 67.12 60.69
-2 0 3 o 240.50 244.05
-1 0 3 o 111.42 148.77
0 0 3 o 378.03 396.41
1 0 3 o 24.34 21.57
2 0 3 < 1.87 0.04
3 0 3 o 2111.52 1814.30
4 0 3 o 36.56 38.39
5 0 3 o 101.74 112.38
6 0 3 o 97.80 107.96
7 0 3 < 0.00 0.49
-8 1 3 o 15.47 16.67
-7 1 3 o 10.94 10.74
-6 1 3 o 49.18 53.10
-5 1 3 o 46.72 50.53
-4 1 3 o 32.72 24.11
-3 1 3 o 4912.66 4278.89
-2 1 3 o 554.65 545.87
-1 1 3 o 100.90 96.11
0 1 3 o 5.91 4.83
1 1 3 o 81.04 69.83
2 1 3 o 514.76 503.24
3 1 3 o 205.36 198.67
4 1 3 o 3.65 2.44
5 1 3 o 26.41 33.81
6 1 3 o 158.79 178.62
7 1 3 o 2.86 2.86
-8 2 3 o 65.74 67.12
-7 2 3 o 7.29 9.77
-6 2 3 o 11.82 12.50
-5 2 3 < 0.59 0.71
-4 2 3 o 166.15 139.97
-3 2 3 o 835.82 782.01
-2 2 3 o 1115.83 1090.36
-1 2 3 o 212.72 197.68
0 2 3 o 0.59 0.02
1 2 3 o 65.84 50.70
2 2 3 o 132.24 136.90
3 2 3 o 381.90 393.64
4 2 3 o 15.47 16.74
5 2 3 o 178.73 200.05
6 2 3 < 4.63 5.80
7 2 3 < -0.30 0.06
-8 3 3 o 6.31 7.92
-7 3 3 o 48.69 52.99
-6 3 3 o 16.36 17.84
-5 3 3 o 197.54 180.26
-4 3 3 o 229.84 219.98
-3 3 3 o 102.53 100.82
-2 3 3 o 11.33 14.31
-1 3 3 o 252.11 241.47
0 3 3 o 1051.95 1092.50
1 3 3 o 744.49 748.36
2 3 3 o 33.51 36.00
3 3 3 o 93.65 102.65
4 3 3 o 41.59 40.29
5 3 3 o 262.41 290.84
6 3 3 o 182.96 204.02
7 3 3 o 86.46 71.22
-8 4 3 o 3.45 4.28
-7 4 3 < 0.49 0.30
-6 4 3 o 138.44 142.53
-5 4 3 o 26.70 21.14
-4 4 3 o 425.45 402.16
-3 4 3 o 34.49 30.55
-2 4 3 o 1033.33 916.76
-1 4 3 o 593.85 493.11
0 4 3 o 320.12 295.20
1 4 3 < 2.86 1.86
2 4 3 o 130.74 136.92
3 4 3 < 3.74 5.57
4 4 3 o 6.80 7.40
5 4 3 o 22.27 27.79
6 4 3 < 1.68 1.06
-8 5 3 o 10.94 8.50
-7 5 3 o 81.91 79.33
-6 5 3 o 64.56 73.03
-5 5 3 o 114.16 108.77
-4 5 3 o 23.16 19.33
-3 5 3 o 100.27 115.15
-2 5 3 o 76.48 54.88
-1 5 3 o 1736.80 1536.03
0 5 3 o 50.47 63.76
1 5 3 o 20.40 17.65
2 5 3 o 7.59 7.13
3 5 3 o 105.97 97.20
4 5 3 o 282.94 293.65
5 5 3 o 36.86 36.67
6 5 3 o 7.09 5.00
-8 6 3 < 2.07 1.47
-7 6 3 < 2.27 3.28
-6 6 3 < 1.77 2.04
-5 6 3 o 25.52 23.88
-4 6 3 o 3.25 1.52
-3 6 3 o 218.30 228.12
-2 6 3 o 52.92 46.45
-1 6 3 o 82.60 74.14
0 6 3 o 411.30 390.82
1 6 3 o 169.94 195.69
2 6 3 o 900.41 905.46
3 6 3 < 2.36 0.81
4 6 3 o 31.63 31.23
5 6 3 < 2.17 2.61
-8 7 3 o 71.77 71.51
-7 7 3 o 5.22 4.85
-6 7 3 < 2.36 1.59
-5 7 3 o 314.40 342.67
-4 7 3 o 25.03 27.93
-3 7 3 o 303.14 291.84
-2 7 3 o 3.84 3.62
-1 7 3 o 35.08 37.34
0 7 3 o 332.84 346.40
1 7 3 o 506.00 533.90
2 7 3 o 72.85 79.89
3 7 3 o 93.35 90.77
4 7 3 o 20.99 25.64
5 7 3 o 6.11 7.43
-7 8 3 < -0.20 0.45
-6 8 3 o 8.67 7.95
-5 8 3 o 926.70 952.32
-4 8 3 o 29.56 33.61
-3 8 3 o 56.38 52.71
-2 8 3 o 18.53 18.81
-1 8 3 o 93.55 91.90
0 8 3 o 64.95 67.01
1 8 3 o 415.64 453.30
2 8 3 o 172.20 178.33
3 8 3 o 112.49 109.11
4 8 3 o 47.60 38.82
-7 9 3 o 25.72 23.84
-6 9 3 o 7.59 8.18
-5 9 3 < 3.05 1.81
-4 9 3 o 424.18 434.34
-3 9 3 o 8.08 10.54
-2 9 3 o 1.87 1.60
-1 9 3 < -0.59 0.44
0 9 3 < 0.59 0.39
1 9 3 o 28.68 29.90
2 9 3 o 42.28 35.94
3 9 3 o 28.48 24.58
-6 10 3 o 111.70 107.28
-5 10 3 < 1.28 1.31
-4 10 3 o 16.95 15.62
-3 10 3 o 134.20 147.19
-2 10 3 o 13.99 8.21
-1 10 3 o 169.72 167.01
0 10 3 o 87.34 86.35
1 10 3 o 6.11 5.86
2 10 3 o 8.28 6.25
-6 11 3 o 31.54 28.34
-5 11 3 < 0.10 0.66
-4 11 3 o 61.80 59.13
-3 11 3 o 53.42 51.72
-2 11 3 < 0.10 0.00
-1 11 3 < 1.68 1.46
0 11 3 o 94.54 96.26
1 11 3 o 8.18 9.00
-4 12 3 o 9.46 8.31
-3 12 3 < 1.18 0.22
-2 12 3 o 5.32 5.89
-1 12 3 o 2.86 2.98
0 12 3 < -0.49 0.50
0 -12 4 < 0.49 0.50
1 -12 4 o 13.89 13.96
2 -12 4 < 0.79 0.14
3 -12 4 < 0.30 1.84
4 -12 4 o 63.68 59.00
-2 -11 4 o 9.26 10.38
-1 -11 4 o 10.44 12.01
0 -11 4 < -0.59 0.21
1 -11 4 o 9.36 8.61
2 -11 4 < -0.30 0.00
3 -11 4 o 75.21 86.36
4 -11 4 o 94.44 98.00
5 -11 4 < 0.30 0.44
-3 -10 4 o 38.83 40.88
-2 -10 4 o 10.54 6.67
-1 -10 4 o 8.57 7.18
0 -10 4 o 29.17 25.32
1 -10 4 o 110.02 107.32
2 -10 4 o 6.01 3.21
3 -10 4 < 0.39 0.01
4 -10 4 < 1.08 1.57
5 -10 4 < -0.10 0.06
6 -10 4 o 13.50 7.45
-4 -9 4 < 0.59 0.03
-3 -9 4 o 196.07 188.03
-2 -9 4 < 2.46 2.94
-1 -9 4 o 100.76 107.42
0 -9 4 o 39.62 38.75
1 -9 4 < 0.39 0.77
2 -9 4 o 4.73 5.79
3 -9 4 o 18.82 21.14
4 -9 4 < 2.07 2.11
5 -9 4 o 3.55 2.56
6 -9 4 < 2.86 3.78
-5 -8 4 o 3.65 1.76
-4 -8 4 o 6.90 6.26
-3 -8 4 o 8.38 9.17
-2 -8 4 < 0.00 0.11
-1 -8 4 < 1.08 1.19
0 -8 4 o 89.70 86.50
1 -8 4 o 131.03 125.79
2 -8 4 o 5.22 5.34
3 -8 4 o 113.97 109.88
4 -8 4 < 2.07 1.85
5 -8 4 o 118.81 120.36
6 -8 4 o 24.04 28.35
7 -8 4 o 3.65 2.87
-5 -7 4 < 0.10 0.00
-4 -7 4 o 32.72 34.27
-3 -7 4 o 77.28 79.31
-2 -7 4 < -0.30 0.44
-1 -7 4 < -0.10 0.07
0 -7 4 o 7.19 6.56
1 -7 4 o 77.67 81.58
2 -7 4 o 15.08 16.03
3 -7 4 o 12.51 10.07
4 -7 4 o 11.82 12.64
5 -7 4 o 7.00 6.09
6 -7 4 o 165.76 152.94
7 -7 4 o 23.95 18.31
-6 -6 4 o 76.40 72.62
-5 -6 4 o 100.25 93.98
-4 -6 4 o 58.05 56.82
-3 -6 4 < 4.63 4.86
-2 -6 4 o 129.85 128.20
-1 -6 4 o 129.75 132.58
0 -6 4 o 835.96 928.77
1 -6 4 o 339.93 337.89
2 -6 4 o 43.36 47.40
3 -6 4 < 3.74 3.86
4 -6 4 o 5.52 6.70
5 -6 4 o 64.46 62.72
6 -6 4 < 0.10 0.11
7 -6 4 o 7.19 8.10
-6 -5 4 o 123.73 114.43
-5 -5 4 o 105.19 111.49
-4 -5 4 < 0.00 0.90
-3 -5 4 o 28.58 32.37
-2 -5 4 o 27.99 28.08
-1 -5 4 o 328.69 340.43
0 -5 4 o 291.77 266.01
1 -5 4 o 130.74 125.30
2 -5 4 o 5341.91 5121.42
3 -5 4 o 6.50 5.97
4 -5 4 o 9.26 12.99
5 -5 4 o 2.86 2.62
6 -5 4 < 1.87 0.35
7 -5 4 o 12.91 12.07
-7 -4 4 o 69.59 63.02
-6 -4 4 < -0.20 0.93
-5 -4 4 o 11.82 12.41
-4 -4 4 o 56.77 64.73
-3 -4 4 o 182.18 205.44
-2 -4 4 o 29.17 31.78
-1 -4 4 o 16.36 17.01
0 -4 4 < 3.15 4.14
1 -4 4 o 2107.05 2025.02
2 -4 4 o 4066.78 3524.49
3 -4 4 o 20.40 20.74
4 -4 4 o 23.45 21.40
5 -4 4 < 1.28 2.06
6 -4 4 o 26.90 25.57
7 -4 4 < 3.15 2.75
-7 -3 4 o 24.14 25.45
-6 -3 4 o 425.45 399.48
-5 -3 4 o 1635.64 1602.44
-4 -3 4 o 969.38 1048.56
-3 -3 4 o 127.20 148.14
-2 -3 4 < 0.39 0.87
-1 -3 4 o 396.75 421.96
0 -3 4 o 989.16 1067.38
1 -3 4 o 663.80 634.02
2 -3 4 o 35.68 35.26
3 -3 4 o 108.83 98.07
4 -3 4 o 5.71 5.63
5 -3 4 o 59.93 61.11
6 -3 4 o 7.59 5.51
7 -3 4 o 31.04 23.25
-7 -2 4 o 44.25 44.36
-6 -2 4 o 4.24 4.16
-5 -2 4 o 1017.27 1038.66
-4 -2 4 o 252.76 250.11
-3 -2 4 < 1.48 0.99
-2 -2 4 o 23.75 26.86
-1 -2 4 < 0.89 0.01
0 -2 4 o 3283.78 3009.08
1 -2 4 o 653.07 675.81
2 -2 4 o 332.09 308.72
3 -2 4 o 21.38 28.73
4 -2 4 o 886.27 870.09
5 -2 4 < -0.30 0.88
6 -2 4 < 2.07 4.22
7 -2 4 o 57.56 51.24
-7 -1 4 o 3.25 2.93
-6 -1 4 o 253.30 268.24
-5 -1 4 o 78.96 86.22
-4 -1 4 o 538.93 526.46
-3 -1 4 o 15.37 13.25
-2 -1 4 o 375.52 368.17
-1 -1 4 o 1630.40 1608.06
0 -1 4 o 1731.36 1689.17
1 -1 4 o 213.95 208.69
2 -1 4 o 11.53 9.70
3 -1 4 o 423.32 408.85
4 -1 4 o 24.14 15.60
5 -1 4 o 195.60 206.75
6 -1 4 < 3.74 4.64
7 -1 4 < 0.89 0.13
-8 0 4 o 3.55 2.20
-7 0 4 o 94.93 92.50
-6 0 4 o 44.05 46.37
-5 0 4 o 45.14 48.55
-4 0 4 o 351.03 366.00
-3 0 4 o 605.75 540.37
-2 0 4 o 599.78 485.47
-1 0 4 o 153.10 146.13
0 0 4 o 3.55 2.85
1 0 4 o 6.40 3.11
2 0 4 o 39.03 37.74
3 0 4 o 1785.25 1541.75
4 0 4 o 522.32 519.95
5 0 4 o 122.76 130.16
6 0 4 < 4.14 4.12
7 0 4 o 12.61 8.61
-8 1 4 o 78.96 72.68
-7 1 4 o 57.46 57.66
-6 1 4 o 14.29 17.60
-5 1 4 o 55.49 59.29
-4 1 4 o 64.96 81.59
-3 1 4 o 404.78 345.95
-2 1 4 o 120.59 101.99
-1 1 4 o 690.49 686.06
0 1 4 o 158.66 177.88
1 1 4 o 370.79 352.62
2 1 4 o 151.45 119.37
3 1 4 o 232.10 214.03
4 1 4 o 3.74 1.82
5 1 4 o 315.76 326.54
6 1 4 o 127.09 132.87
7 1 4 o 73.04 68.91
-8 2 4 < -0.39 0.62
-7 2 4 o 40.31 38.70
-6 2 4 < 0.00 0.26
-5 2 4 o 85.18 101.50
-4 2 4 o 401.20 373.58
-3 2 4 o 484.72 376.71
-2 2 4 o 2.96 1.79
-1 2 4 o 203.69 220.81
0 2 4 o 3537.70 3420.02
1 2 4 o 240.34 209.96
2 2 4 o 277.05 251.04
3 2 4 o 78.26 77.48
4 2 4 o 4.63 4.08
5 2 4 o 63.67 68.40
6 2 4 < 0.99 2.55
-8 3 4 o 8.08 8.65
-7 3 4 o 33.80 35.49
-6 3 4 o 3.65 2.64
-5 3 4 o 52.14 64.98
-4 3 4 o 38.83 44.56
-3 3 4 o 45.53 42.57
-2 3 4 o 53.91 48.48
-1 3 4 o 4.04 2.37
0 3 4 o 406.31 338.80
1 3 4 o 35.38 41.79
2 3 4 < 1.77 1.07
3 3 4 o 13.80 13.53
4 3 4 o 165.09 165.55
5 3 4 o 113.48 124.84
6 3 4 o 63.38 63.43
-8 4 4 < 1.18 0.73
-7 4 4 o 250.43 281.25
-6 4 4 o 332.42 369.95
-5 4 4 o 6.70 7.81
-4 4 4 < 1.28 2.96
-3 4 4 o 3.25 3.57
-2 4 4 o 372.25 333.06
-1 4 4 < 1.08 1.84
0 4 4 o 159.18 167.51
1 4 4 o 123.44 124.87
2 4 4 o 158.68 179.62
3 4 4 o 30.35 36.37
4 4 4 o 157.20 169.40
5 4 4 o 6.70 8.93
6 4 4 < 1.97 3.79
-8 5 4 o 8.67 0.84
-7 5 4 o 111.51 119.67
-6 5 4 o 46.91 52.46
-5 5 4 o 58.55 62.65
-4 5 4 o 77.47 70.38
-3 5 4 o 299.88 288.96
-2 5 4 o 3.65 2.11
-1 5 4 o 84.38 85.45
0 5 4 o 203.29 203.81
1 5 4 o 18.03 19.78
2 5 4 o 381.08 427.72
3 5 4 o 224.13 223.95
4 5 4 < 0.20 0.09
5 5 4 < 1.38 3.66
6 5 4 o 22.47 21.67
-7 6 4 o 25.23 27.13
-6 6 4 o 19.41 18.93
-5 6 4 o 81.92 84.70
-4 6 4 o 234.29 230.05
-3 6 4 o 376.95 393.69
-2 6 4 o 27.69 25.82
-1 6 4 o 73.04 71.28
0 6 4 o 85.17 91.54
1 6 4 o 377.28 407.15
2 6 4 o 1392.29 1307.16
3 6 4 < 2.46 2.34
4 6 4 o 15.18 17.92
5 6 4 < 0.00 0.57
-7 7 4 < 0.59 0.01
-6 7 4 o 4.34 6.26
-5 7 4 o 97.50 103.50
-4 7 4 < 5.32 5.94
-3 7 4 o 120.87 109.96
-2 7 4 o 190.36 194.89
-1 7 4 o 45.34 54.99
0 7 4 o 76.20 78.89
1 7 4 o 397.05 402.79
2 7 4 o 54.40 54.78
3 7 4 o 284.18 274.32
4 7 4 o 8.87 11.37
-7 8 4 o 5.71 7.42
-6 8 4 o 233.69 227.35
-5 8 4 o 393.49 400.78
-4 8 4 o 255.65 253.29
-3 8 4 < 1.97 1.65
-2 8 4 < 2.76 1.06
-1 8 4 o 66.63 67.65
0 8 4 o 89.41 85.77
1 8 4 o 33.80 43.56
2 8 4 o 48.78 48.50
3 8 4 o 42.38 39.60
4 8 4 o 234.15 160.16
-6 9 4 o 74.02 72.07
-5 9 4 o 330.92 322.90
-4 9 4 o 288.75 292.86
-3 9 4 < -0.79 0.00
-2 9 4 o 25.03 32.15
-1 9 4 o 53.03 60.19
0 9 4 o 57.95 54.88
1 9 4 o 164.07 137.27
2 9 4 < 1.58 2.31
3 9 4 o 14.98 9.83
-6 10 4 o 66.14 58.10
-5 10 4 < 3.45 3.14
-4 10 4 o 4.73 7.32
-3 10 4 o 265.60 260.91
-2 10 4 o 96.51 94.65
-1 10 4 o 210.50 215.36
0 10 4 o 51.35 55.82
1 10 4 o 37.25 36.34
2 10 4 o 113.87 103.97
-5 11 4 o 14.29 16.46
-4 11 4 o 2.56 3.06
-3 11 4 o 63.18 67.31
-2 11 4 o 28.68 30.59
-1 11 4 o 3.35 3.32
0 11 4 o 88.81 68.27
1 11 4 o 34.10 28.40
-3 12 4 o 78.56 66.13
-2 12 4 o 9.16 9.49
-1 12 4 o 28.58 24.60
0 -12 5 o 26.71 24.82
1 -12 5 o 47.90 43.91
2 -12 5 < 3.25 3.84
3 -12 5 o 6.90 4.44
-2 -11 5 o 47.80 40.15
-1 -11 5 o 35.18 30.63
0 -11 5 o 18.72 17.16
1 -11 5 o 8.28 7.47
2 -11 5 o 14.58 15.78
3 -11 5 < 4.14 2.49
4 -11 5 o 22.07 24.49
5 -11 5 < 2.17 0.69
-3 -10 5 o 75.51 73.73
-2 -10 5 o 5.81 5.52
-1 -10 5 o 17.93 20.55
0 -10 5 o 31.63 26.78
1 -10 5 < 0.49 0.04
2 -10 5 o 21.09 25.99
3 -10 5 o 21.19 21.10
4 -10 5 o 21.38 22.99
5 -10 5 o 4.73 4.88
-4 -9 5 o 5.62 5.05
-3 -9 5 < 0.10 0.02
-2 -9 5 < 0.99 0.35
-1 -9 5 o 86.94 73.30
0 -9 5 o 74.42 62.59
1 -9 5 o 7.98 3.91
2 -9 5 < 2.07 3.77
3 -9 5 o 37.35 38.86
4 -9 5 o 24.34 28.27
5 -9 5 o 10.35 9.94
6 -9 5 o 37.15 36.67
-4 -8 5 o 27.69 26.28
-3 -8 5 o 44.64 40.37
-2 -8 5 < 0.10 0.71
-1 -8 5 < 3.35 5.94
0 -8 5 o 317.39 299.38
1 -8 5 o 226.43 245.27
2 -8 5 o 5.81 4.46
3 -8 5 o 22.47 27.56
4 -8 5 o 12.51 17.67
5 -8 5 < 1.08 2.05
6 -8 5 o 29.86 20.99
-5 -7 5 o 13.99 16.55
-4 -7 5 < 4.24 5.30
-3 -7 5 o 29.86 24.04
-2 -7 5 < 2.46 0.13
-1 -7 5 < 1.97 4.08
0 -7 5 o 42.48 49.17
1 -7 5 o 5.12 5.68
2 -7 5 o 14.88 11.53
3 -7 5 o 23.16 26.35
4 -7 5 o 43.56 49.90
5 -7 5 o 6.01 5.75
6 -7 5 < 1.58 0.64
7 -7 5 o 10.44 11.41
-6 -6 5 o 61.11 48.91
-5 -6 5 < 3.74 0.90
-4 -6 5 o 288.56 295.92
-3 -6 5 o 77.18 73.81
-2 -6 5 o 209.99 198.18
-1 -6 5 o 13.40 18.62
0 -6 5 o 91.00 118.78
1 -6 5 o 287.72 275.20
2 -6 5 o 178.99 173.60
3 -6 5 o 11.23 7.10
4 -6 5 o 42.87 43.53
5 -6 5 o 29.56 25.50
6 -6 5 o 34.69 27.71
7 -6 5 o 9.75 7.77
-6 -5 5 < 2.56 3.84
-5 -5 5 o 110.42 107.81
-4 -5 5 o 59.04 61.34
-3 -5 5 < 7.29 3.95
-2 -5 5 o 35.97 33.03
-1 -5 5 o 38.93 33.89
0 -5 5 o 364.02 342.80
1 -5 5 o 579.49 537.85
2 -5 5 o 72.54 60.52
3 -5 5 o 33.90 35.45
4 -5 5 o 30.45 33.19
5 -5 5 o 6.80 4.12
6 -5 5 o 66.92 62.88
7 -5 5 o 10.15 13.19
-6 -4 5 < 0.69 0.53
-5 -4 5 < 0.49 0.66
-4 -4 5 o 392.21 400.25
-3 -4 5 o 128.87 139.40
-2 -4 5 o 99.67 108.61
-1 -4 5 o 177.33 182.21
0 -4 5 o 33.21 35.19
1 -4 5 o 170.60 151.18
2 -4 5 o 3732.12 3786.10
3 -4 5 o 18.53 20.84
4 -4 5 o 30.06 33.58
5 -4 5 o 125.01 115.60
6 -4 5 o 25.92 24.37
7 -4 5 o 22.27 20.70
-7 -3 5 o 23.85 19.60
-6 -3 5 < 2.27 2.37
-5 -3 5 o 22.76 24.35
-4 -3 5 o 215.74 219.86
-3 -3 5 o 44.84 48.50
-2 -3 5 o 83.20 86.72
-1 -3 5 o 4.24 5.23
0 -3 5 o 250.02 235.75
1 -3 5 o 670.46 558.42
2 -3 5 o 69.19 58.56
3 -3 5 o 206.07 232.39
4 -3 5 o 254.26 259.35
5 -3 5 o 119.80 131.26
6 -3 5 o 34.00 31.40
7 -3 5 o 4.73 5.54
-7 -2 5 o 10.94 11.57
-6 -2 5 o 67.42 61.26
-5 -2 5 o 330.49 339.40
-4 -2 5 < 1.58 2.86
-3 -2 5 o 14.68 13.39
-2 -2 5 o 1490.18 1432.19
-1 -2 5 o 18.33 18.39
0 -2 5 o 291.47 278.20
1 -2 5 o 87.34 83.40
2 -2 5 o 26.71 25.58
3 -2 5 o 55.19 59.31
4 -2 5 o 320.86 322.34
5 -2 5 o 5.62 6.64
6 -2 5 < 0.00 0.05
7 -2 5 o 11.82 10.84
-7 -1 5 < 1.38 1.99
-6 -1 5 o 12.12 9.92
-5 -1 5 o 243.01 255.57
-4 -1 5 o 206.07 225.97
-3 -1 5 o 33.02 45.47
-2 -1 5 o 3651.27 3859.89
-1 -1 5 o 858.18 902.15
0 -1 5 o 108.36 104.32
1 -1 5 < 1.38 0.81
2 -1 5 o 86.55 77.64
3 -1 5 o 115.36 134.98
4 -1 5 o 67.42 76.67
5 -1 5 o 9.95 11.21
6 -1 5 o 35.97 30.68
7 -1 5 o 44.64 41.77
-8 0 5 o 98.48 70.77
-7 0 5 o 21.19 24.22
-6 0 5 o 9.46 8.27
-5 0 5 o 40.11 41.09
-4 0 5 o 65.45 78.32
-3 0 5 < 1.68 3.41
-2 0 5 o 9.36 8.54
-1 0 5 o 90.80 88.07
0 0 5 o 26.61 31.54
1 0 5 < 0.30 0.02
2 0 5 o 14.29 10.85
3 0 5 o 27.40 26.94
4 0 5 o 20.00 20.08
5 0 5 o 209.05 235.70
6 0 5 o 14.19 16.43
7 0 5 o 94.94 97.78
-8 1 5 < -0.59 0.09
-7 1 5 o 17.64 14.52
-6 1 5 o 47.11 52.13
-5 1 5 o 6.01 5.54
-4 1 5 o 410.06 366.13
-3 1 5 o 85.56 82.34
-2 1 5 o 108.06 104.04
-1 1 5 o 388.53 330.40
0 1 5 o 244.18 271.59
1 1 5 o 812.70 798.27
2 1 5 o 91.78 92.21
3 1 5 o 12.02 9.89
4 1 5 < 0.59 0.12
5 1 5 o 24.44 28.39
6 1 5 o 63.28 70.82
7 1 5 o 34.10 35.56
-8 2 5 o 40.31 33.57
-7 2 5 < 1.48 0.69
-6 2 5 < -0.10 0.09
-5 2 5 o 109.63 113.56
-4 2 5 o 25.62 25.63
-3 2 5 o 886.17 820.70
-2 2 5 o 30.75 27.10
-1 2 5 o 1361.21 1298.67
0 2 5 o 2150.49 2046.74
1 2 5 o 74.91 63.39
2 2 5 o 40.01 43.87
3 2 5 o 243.23 201.40
4 2 5 o 66.24 71.13
5 2 5 o 5.71 7.64
6 2 5 < 0.59 0.86
-8 3 5 < 2.17 2.01
-7 3 5 < 0.20 0.05
-6 3 5 o 5.22 4.25
-5 3 5 o 423.49 441.75
-4 3 5 o 10.44 11.66
-3 3 5 o 417.57 408.39
-2 3 5 o 291.37 257.34
-1 3 5 o 403.64 375.04
0 3 5 o 1207.39 1073.92
1 3 5 o 13.79 3.88
2 3 5 o 54.60 49.62
3 3 5 o 7.39 6.74
4 3 5 o 67.82 76.51
5 3 5 o 28.68 30.30
6 3 5 o 157.59 156.95
-8 4 5 o 10.05 4.70
-7 4 5 o 44.25 49.13
-6 4 5 o 77.88 86.42
-5 4 5 o 26.61 31.37
-4 4 5 o 47.90 47.27
-3 4 5 o 3.15 1.55
-2 4 5 o 89.70 85.61
-1 4 5 < 0.49 1.34
0 4 5 o 4.43 5.99
1 4 5 o 601.22 575.49
2 4 5 o 238.67 263.50
3 4 5 o 278.01 299.60
4 4 5 o 22.57 21.70
5 4 5 o 4.83 8.05
6 4 5 < 0.39 0.14
-7 5 5 o 82.21 90.34
-6 5 5 o 13.80 13.42
-5 5 5 o 15.96 15.54
-4 5 5 o 289.35 301.03
-3 5 5 o 11.23 9.41
-2 5 5 o 395.96 372.34
-1 5 5 o 197.66 199.92
0 5 5 < 4.34 6.72
1 5 5 o 47.80 56.39
2 5 5 o 1605.19 1512.37
3 5 5 < 0.10 0.01
4 5 5 o 44.35 45.65
5 5 5 o 8.18 6.81
-7 6 5 < 1.08 2.39
-6 6 5 o 67.52 65.71
-5 6 5 o 16.95 16.03
-4 6 5 o 1673.16 1622.31
-3 6 5 o 99.77 108.50
-2 6 5 o 124.92 131.85
-1 6 5 < 4.53 11.21
0 6 5 o 12.71 14.12
1 6 5 o 29.07 33.07
2 6 5 o 67.81 65.14
3 6 5 o 7.00 6.46
4 6 5 o 15.17 11.70
-7 7 5 < 0.99 0.71
-6 7 5 o 176.92 170.86
-5 7 5 o 62.98 65.36
-4 7 5 < 0.30 0.07
-3 7 5 o 106.18 103.41
-2 7 5 o 49.87 56.40
-1 7 5 o 120.48 111.53
0 7 5 o 34.00 32.95
1 7 5 o 68.90 68.50
2 7 5 < 1.48 2.53
3 7 5 < 0.59 0.19
4 7 5 o 7.39 5.40
-7 8 5 o 40.41 42.80
-6 8 5 o 27.99 25.96
-5 8 5 o 49.38 52.36
-4 8 5 o 2.96 3.35
-3 8 5 o 44.84 48.33
-2 8 5 o 7.29 11.35
-1 8 5 o 3.35 5.66
0 8 5 o 273.83 277.81
1 8 5 < 1.97 1.94
2 8 5 o 15.27 19.62
3 8 5 o 50.85 45.00
-6 9 5 < 1.58 1.11
-5 9 5 o 30.94 27.48
-4 9 5 o 83.40 90.45
-3 9 5 o 146.63 155.07
-2 9 5 < 3.35 1.57
-1 9 5 < 1.97 0.71
0 9 5 o 51.05 49.70
1 9 5 o 37.06 43.08
2 9 5 o 8.67 6.41
3 9 5 o 15.18 16.32
-6 10 5 < -0.59 0.03
-5 10 5 < 0.89 1.38
-4 10 5 o 65.64 65.17
-3 10 5 o 4.83 6.90
-2 10 5 o 30.16 33.57
-1 10 5 < 4.14 3.32
0 10 5 < 2.17 1.52
1 10 5 < 1.18 1.73
-5 11 5 o 28.48 28.05
-4 11 5 o 25.82 25.66
-3 11 5 o 14.78 15.88
-2 11 5 < 0.00 0.26
-1 11 5 o 28.09 30.27
0 11 5 < 1.77 2.87
2 -12 6 o 2.76 3.04
-1 -11 6 o 6.40 5.06
0 -11 6 o 96.90 86.37
1 -11 6 o 6.11 7.87
2 -11 6 < 0.69 0.20
3 -11 6 < -0.49 0.02
4 -11 6 o 22.57 19.41
-2 -10 6 o 72.74 70.91
-1 -10 6 o 28.38 27.75
0 -10 6 o 63.37 60.99
1 -10 6 o 3.45 3.96
2 -10 6 o 47.31 51.75
3 -10 6 < 3.25 2.06
4 -10 6 o 18.92 19.52
5 -10 6 o 26.11 21.82
-3 -9 6 < 0.69 1.93
-2 -9 6 o 10.35 11.74
-1 -9 6 o 88.51 69.17
0 -9 6 < -0.10 0.33
1 -9 6 o 77.97 75.66
2 -9 6 o 55.00 57.39
3 -9 6 o 37.35 40.06
4 -9 6 o 17.34 14.84
5 -9 6 o 3.74 3.76
-4 -8 6 o 11.13 7.26
-3 -8 6 o 13.11 11.98
-2 -8 6 o 13.20 12.57
-1 -8 6 o 180.19 176.79
0 -8 6 o 92.07 91.59
1 -8 6 o 258.42 263.14
2 -8 6 o 163.82 179.24
3 -8 6 o 47.41 52.96
4 -8 6 < 5.22 8.00
5 -8 6 o 7.88 7.05
6 -8 6 o 6.90 10.15
-5 -7 6 o 27.40 23.17
-4 -7 6 o 140.80 144.36
-3 -7 6 o 9.56 8.62
-2 -7 6 o 89.51 86.79
-1 -7 6 o 67.72 74.68
0 -7 6 o 13.11 9.70
1 -7 6 o 103.02 103.56
2 -7 6 o 258.71 262.79
3 -7 6 o 1095.71 1154.85
4 -7 6 < 2.27 2.19
5 -7 6 < 1.08 0.92
6 -7 6 o 10.05 4.25
-5 -6 6 o 92.56 85.89
-4 -6 6 o 15.67 14.16
-3 -6 6 o 190.75 186.38
-2 -6 6 o 6.21 4.24
-1 -6 6 o 20.10 22.23
0 -6 6 o 53.81 60.54
1 -6 6 o 74.91 67.25
2 -6 6 o 165.96 154.38
3 -6 6 o 197.68 214.33
4 -6 6 < 1.18 1.60
5 -6 6 < 1.18 1.77
6 -6 6 o 8.57 6.86
-6 -5 6 o 4.34 5.74
-5 -5 6 o 25.13 23.61
-4 -5 6 o 1346.37 1305.21
-3 -5 6 o 264.34 260.76
-2 -5 6 < 2.36 0.43
-1 -5 6 < 9.46 7.36
0 -5 6 o 346.83 333.20
1 -5 6 o 767.35 703.54
2 -5 6 o 19.71 16.36
3 -5 6 o 2.76 3.68
4 -5 6 < -0.39 0.27
5 -5 6 o 9.66 8.23
6 -5 6 < 3.45 2.18
-6 -4 6 o 18.13 17.53
-5 -4 6 < 5.91 5.70
-4 -4 6 o 455.23 447.72
-3 -4 6 < 0.89 0.12
-2 -4 6 o 86.65 86.26
-1 -4 6 o 57.56 60.22
0 -4 6 o 132.31 117.11
1 -4 6 < 10.15 1.47
2 -4 6 o 44.15 50.08
3 -4 6 o 60.52 64.81
4 -4 6 o 3.65 3.08
5 -4 6 o 31.63 35.59
6 -4 6 < 3.15 4.01
7 -4 6 o 25.62 21.87
-6 -3 6 o 235.76 228.23
-5 -3 6 o 238.87 253.28
-4 -3 6 o 3.94 3.70
-3 -3 6 o 170.22 176.66
-2 -3 6 o 72.25 71.27
0 -3 6 o 142.00 151.76
1 -3 6 o 126.10 127.16
2 -3 6 o 4.73 3.80
3 -3 6 o 34.89 37.40
4 -3 6 o 173.39 182.04
5 -3 6 o 108.74 103.87
6 -3 6 o 53.71 49.92
7 -3 6 < -0.30 0.67
-7 -2 6 o 22.37 20.98
-6 -2 6 < 0.39 0.00
-5 -2 6 < 0.89 0.38
-4 -2 6 < 0.69 0.75
-3 -2 6 < 0.69 0.69
-2 -2 6 o 192.24 203.06
-1 -2 6 o 76.19 68.58
0 -2 6 o 274.78 246.49
1 -2 6 o 30.65 25.87
2 -2 6 o 56.77 61.45
3 -2 6 o 209.02 216.07
4 -2 6 o 313.26 315.55
5 -2 6 o 40.20 16.05
6 -2 6 < 0.39 1.12
7 -2 6 o 2.76 3.06
-7 -1 6 o 47.40 47.61
-6 -1 6 o 134.49 137.24
-5 -1 6 o 28.58 31.34
-4 -1 6 o 34.00 36.25
-3 -1 6 o 210.99 220.36
-2 -1 6 o 265.17 229.67
-1 -1 6 o 128.57 124.67
0 -1 6 < 3.15 1.85
1 -1 6 o 7.29 7.23
2 -1 6 < 0.30 0.16
3 -1 6 o 30.45 29.11
4 -1 6 < 3.65 6.66
5 -1 6 < 0.89 1.54
6 -1 6 o 51.35 50.74
7 -1 6 o 41.89 38.43
-7 0 6 o 126.79 121.92
-6 0 6 o 67.52 65.29
-5 0 6 o 178.42 184.54
-4 0 6 o 8.67 12.11
-3 0 6 o 1030.56 962.74
-2 0 6 o 251.43 210.55
-1 0 6 o 48.88 40.84
0 0 6 o 37.65 44.55
1 0 6 o 838.20 706.90
2 0 6 < 1.77 2.60
3 0 6 o 66.23 61.20
4 0 6 o 87.14 83.67
5 0 6 o 11.53 14.70
6 0 6 o 30.16 32.94
-7 1 6 o 20.79 22.34
-6 1 6 o 19.41 25.47
-5 1 6 o 69.30 77.85
-4 1 6 o 86.84 77.96
-3 1 6 o 154.92 157.70
-2 1 6 o 56.67 53.00
-1 1 6 o 24.83 23.36
0 1 6 o 141.99 138.91
1 1 6 o 41.39 34.33
2 1 6 o 322.45 336.30
3 1 6 o 12.61 12.83
4 1 6 o 95.13 100.10
5 1 6 < 2.17 1.92
6 1 6 o 6.21 4.42
-8 2 6 o 3.45 0.98
-7 2 6 o 20.69 18.56
-6 2 6 o 361.72 412.38
-5 2 6 o 373.46 405.58
-4 2 6 o 10.74 8.50
-3 2 6 o 3.65 3.12
-2 2 6 o 2.27 4.86
-1 2 6 o 375.43 406.39
0 2 6 o 3.05 4.93
1 2 6 < 1.38 0.79
2 2 6 o 18.52 13.32
3 2 6 o 176.34 173.59
4 2 6 o 64.17 71.06
5 2 6 o 21.78 20.77
6 2 6 o 14.19 18.12
-8 3 6 < 4.14 0.06
-7 3 6 < 0.59 0.45
-6 3 6 o 37.55 35.49
-5 3 6 < 1.38 3.31
-4 3 6 o 109.04 115.23
-3 3 6 < 0.99 0.00
-2 3 6 o 335.15 311.17
-1 3 6 o 5.81 5.66
0 3 6 o 5.12 3.90
1 3 6 o 44.55 47.14
2 3 6 o 18.33 16.80
3 3 6 o 63.87 65.75
4 3 6 o 120.38 115.71
5 3 6 o 39.52 41.69
-7 4 6 o 41.19 32.92
-6 4 6 o 8.57 8.09
-5 4 6 o 5.81 4.45
-4 4 6 o 192.23 193.24
-3 4 6 o 569.06 590.57
-2 4 6 o 346.57 356.40
-1 4 6 o 124.04 140.84
0 4 6 o 136.84 116.04
1 4 6 o 37.45 34.61
2 4 6 o 673.22 622.64
3 4 6 o 1352.51 1318.92
4 4 6 o 64.95 66.19
5 4 6 < 0.20 0.00
-7 5 6 o 32.13 28.28
-6 5 6 o 61.50 58.96
-5 5 6 < 2.27 0.29
-4 5 6 o 26.02 23.95
-3 5 6 o 17.34 19.23
-2 5 6 o 172.88 177.13
-1 5 6 o 83.89 87.23
0 5 6 o 88.62 90.64
1 5 6 o 14.58 15.92
2 5 6 o 286.66 273.23
3 5 6 < 0.79 0.77
4 5 6 o 51.34 39.06
-7 6 6 < 0.79 0.33
-6 6 6 < 6.31 8.03
-5 6 6 o 158.68 168.07
-4 6 6 o 1903.76 1931.41
-3 6 6 o 195.21 206.68
-2 6 6 o 35.97 37.72
-1 6 6 < -0.39 0.00
0 6 6 o 118.80 107.88
1 6 6 o 205.09 219.95
2 6 6 o 95.03 92.15
3 6 6 o 34.39 36.04
4 6 6 o 128.06 102.54
-7 7 6 o 31.04 27.28
-6 7 6 < 0.69 0.00
-5 7 6 < 4.73 4.46
-4 7 6 o 16.26 14.34
-3 7 6 o 476.04 472.69
-2 7 6 o 84.48 88.12
-1 7 6 < 4.24 10.66
0 7 6 o 173.39 185.96
1 7 6 o 10.94 13.17
2 7 6 o 157.99 172.53
3 7 6 o 71.56 76.57
4 7 6 o 5.52 4.99
-7 8 6 o 18.33 14.50
-6 8 6 o 2.76 2.17
-5 8 6 o 9.26 8.64
-4 8 6 o 4.53 4.61
-3 8 6 < -0.89 0.25
-2 8 6 o 554.23 590.73
-1 8 6 o 40.21 44.00
0 8 6 o 159.66 166.93
1 8 6 o 26.80 27.32
2 8 6 o 86.85 89.84
3 8 6 o 54.80 45.84
-6 9 6 < 0.39 0.10
-5 9 6 o 125.90 114.19
-4 9 6 o 5.52 5.10
-3 9 6 o 26.41 25.97
-2 9 6 o 45.63 56.51
-1 9 6 o 28.48 26.45
0 9 6 o 9.26 13.20
1 9 6 o 105.18 90.89
2 9 6 o 70.28 67.56
-5 10 6 o 35.28 31.08
-4 10 6 o 6.70 8.69
-3 10 6 o 16.65 17.38
-2 10 6 o 34.19 23.93
-1 10 6 o 8.18 9.75
0 10 6 o 8.08 9.61
1 10 6 < 0.69 0.23
-3 11 6 < 0.69 1.30
-2 11 6 < 1.28 2.07
-1 11 6 o 13.11 13.58
0 -11 7 o 31.34 27.96
1 -11 7 o 40.41 39.62
2 -11 7 o 29.96 33.21
3 -11 7 < 0.39 0.15
-2 -10 7 o 27.89 25.92
-1 -10 7 o 27.10 25.62
0 -10 7 o 5.91 4.92
1 -10 7 o 25.82 27.77
2 -10 7 o 23.16 31.08
3 -10 7 < 1.68 3.91
4 -10 7 < -0.20 0.42
-3 -9 7 o 3.35 3.11
-2 -9 7 < 2.36 2.77
-1 -9 7 o 14.58 14.35
0 -9 7 o 59.53 57.04
1 -9 7 o 3.25 4.17
2 -9 7 o 35.68 44.60
3 -9 7 o 9.26 9.82
4 -9 7 < 1.18 0.15
5 -9 7 o 24.05 24.95
-4 -8 7 o 4.04 3.50
-3 -8 7 o 39.22 36.84
-2 -8 7 o 17.64 16.51
-1 -8 7 o 121.76 117.24
0 -8 7 o 22.37 21.48
1 -8 7 o 4.43 3.31
2 -8 7 < 0.69 0.54
3 -8 7 o 32.92 36.85
4 -8 7 o 8.97 8.13
5 -8 7 < 0.00 0.24
-4 -7 7 < -0.69 0.06
-3 -7 7 < 0.20 0.44
-2 -7 7 o 11.43 13.41
-1 -7 7 < 1.48 0.01
0 -7 7 o 7.09 7.00
1 -7 7 o 151.09 169.86
2 -7 7 o 368.18 381.91
3 -7 7 o 239.99 283.77
4 -7 7 < 1.97 2.68
5 -7 7 o 16.75 17.89
6 -7 7 < 0.69 1.34
-5 -6 7 o 7.00 6.37
-4 -6 7 < 1.08 0.48
-3 -6 7 o 64.26 64.30
-2 -6 7 o 80.73 80.59
-1 -6 7 o 12.71 9.93
0 -6 7 o 29.37 32.38
1 -6 7 o 198.66 203.95
2 -6 7 o 274.27 304.26
3 -6 7 o 858.48 864.36
4 -6 7 o 6.80 4.67
5 -6 7 o 6.11 3.48
6 -6 7 o 146.42 122.49
-6 -5 7 o 50.07 46.82
-5 -5 7 o 60.81 61.47
-4 -5 7 o 65.84 62.89
-3 -5 7 o 114.07 110.68
-2 -5 7 o 158.38 164.93
-1 -5 7 < 1.08 2.50
0 -5 7 o 53.90 31.07
1 -5 7 o 53.32 52.58
2 -5 7 o 321.28 330.05
3 -5 7 o 18.13 19.51
4 -5 7 o 15.27 23.79
5 -5 7 o 115.25 114.42
6 -5 7 < -0.49 0.04
-6 -4 7 < 2.86 2.97
-5 -4 7 o 10.64 14.12
-4 -4 7 o 582.19 556.45
-3 -4 7 o 44.94 44.38
-2 -4 7 < 0.00 0.68
-1 -4 7 o 676.22 596.52
0 -4 7 o 46.22 43.88
1 -4 7 o 548.86 542.16
2 -4 7 o 33.01 29.87
3 -4 7 < 0.99 1.14
4 -4 7 o 21.38 32.15
5 -4 7 o 63.08 59.10
6 -4 7 < 1.68 2.00
-6 -3 7 o 19.41 24.47
-5 -3 7 o 11.82 8.67
-4 -3 7 o 6.50 6.30
-3 -3 7 o 83.39 82.85
-2 -3 7 o 50.26 51.32
-1 -3 7 o 323.08 356.92
0 -3 7 o 782.81 713.02
1 -3 7 o 5.62 4.25
2 -3 7 < 2.07 0.04
3 -3 7 o 27.59 32.00
4 -3 7 < 6.31 3.38
5 -3 7 o 56.97 55.85
6 -3 7 < 2.76 2.13
-6 -2 7 < 0.49 0.25
-5 -2 7 o 27.20 27.83
-4 -2 7 o 16.36 14.28
-3 -2 7 o 94.93 90.62
-2 -2 7 o 7.69 7.19
-1 -2 7 o 54.11 65.40
0 -2 7 o 27.89 13.67
1 -2 7 o 166.04 136.01
2 -2 7 < 0.99 0.97
3 -2 7 o 18.13 17.88
4 -2 7 < 6.40 8.28
5 -2 7 o 43.36 34.21
6 -2 7 o 14.78 13.93
-7 -1 7 o 23.45 23.54
-6 -1 7 o 3.25 2.01
-5 -1 7 o 62.89 70.73
-4 -1 7 o 33.80 37.83
-3 -1 7 o 399.45 387.43
-2 -1 7 o 150.58 162.86
-1 -1 7 < 1.38 1.11
0 -1 7 o 268.05 245.41
1 -1 7 o 70.28 67.74
2 -1 7 o 413.01 358.32
3 -1 7 o 8.18 9.10
4 -1 7 o 57.17 58.04
6 -1 7 o 7.59 8.99
-7 0 7 o 33.60 28.13
-6 0 7 o 14.19 16.91
-5 0 7 o 75.01 73.62
-4 0 7 o 326.13 339.24
-3 0 7 o 60.72 67.08
-2 0 7 o 20.00 18.81
-1 0 7 o 192.42 190.84
0 0 7 o 35.38 35.41
1 0 7 o 1357.08 1290.70
2 0 7 o 32.32 28.87
3 0 7 < 1.58 1.70
4 0 7 o 20.20 21.58
5 0 7 < 1.28 1.61
6 0 7 o 68.01 75.56
-7 1 7 o 13.70 12.57
-6 1 7 o 37.65 43.88
-5 1 7 < -0.89 0.00
-4 1 7 o 53.02 53.37
-3 1 7 o 14.29 16.36
-2 1 7 < 0.30 0.15
-1 1 7 o 111.99 111.01
0 1 7 o 139.40 113.43
1 1 7 o 636.18 567.70
2 1 7 o 6.01 6.99
3 1 7 o 63.77 62.92
4 1 7 o 54.11 49.44
5 1 7 o 36.27 40.00
6 1 7 o 14.98 15.71
-7 2 7 < 3.15 2.02
-6 2 7 o 100.36 103.53
-5 2 7 o 86.16 101.46
-4 2 7 o 268.98 269.89
-3 2 7 o 138.04 133.41
-2 2 7 o 160.14 154.36
-1 2 7 o 662.97 658.25
0 2 7 < 1.58 2.40
1 2 7 o 52.23 51.68
2 2 7 o 395.17 407.79
3 2 7 o 507.80 492.30
4 2 7 o 45.04 43.54
5 2 7 o 38.34 38.82
-7 3 7 < 12.22 5.01
-6 3 7 o 292.13 315.58
-5 3 7 o 27.89 31.78
-4 3 7 o 303.47 299.39
-3 3 7 o 1321.12 1301.28
-2 3 7 o 32.82 28.99
-1 3 7 o 39.32 45.81
0 3 7 o 135.18 135.79
1 3 7 < 0.99 1.36
2 3 7 o 84.97 85.92
3 3 7 o 562.76 727.20
4 3 7 < 0.30 1.94
5 3 7 o 7.29 7.75
-7 4 7 o 18.82 14.40
-6 4 7 < 1.08 2.28
-5 4 7 o 94.15 99.67
-4 4 7 o 14.19 15.34
-3 4 7 o 680.99 645.08
-2 4 7 o 8.47 9.29
-1 4 7 o 7.88 6.79
0 4 7 o 23.16 20.01
1 4 7 < -0.20 0.04
2 4 7 o 8.18 6.61
3 4 7 o 5.52 6.72
4 4 7 < 0.89 0.32
-7 5 7 o 13.01 11.38
-6 5 7 < 2.27 1.10
-5 5 7 o 13.11 14.71
-4 5 7 o 313.46 311.90
-3 5 7 o 142.78 135.06
-2 5 7 o 26.41 24.32
-1 5 7 o 62.99 74.96
0 5 7 o 133.31 132.39
1 5 7 o 337.78 333.91
2 5 7 o 70.67 61.03
3 5 7 < 0.89 0.18
4 5 7 o 3.74 2.77
-7 6 7 o 3.05 1.42
-6 6 7 o 18.92 18.40
-5 6 7 o 158.85 143.28
-4 6 7 o 178.72 192.54
-3 6 7 < 2.56 2.86
-2 6 7 o 173.87 173.87
-1 6 7 < 4.34 4.00
0 6 7 o 110.33 120.23
1 6 7 o 11.23 9.62
2 6 7 o 8.77 6.78
3 6 7 < 3.05 1.92
4 6 7 o 3.74 3.06
-7 7 7 < 0.20 0.01
-6 7 7 < 1.87 1.54
-5 7 7 o 15.08 16.76
-4 7 7 < 0.99 1.13
-3 7 7 o 5.91 5.80
-2 7 7 o 38.93 43.12
-1 7 7 o 33.51 50.11
0 7 7 < 0.39 1.14
1 7 7 o 15.47 15.51
2 7 7 < 1.58 2.37
3 7 7 o 11.63 6.97
-6 8 7 o 33.51 32.76
-5 8 7 o 4.34 2.31
-4 8 7 o 48.29 41.05
-3 8 7 < 5.62 5.76
-2 8 7 < 1.77 0.08
-1 8 7 o 153.44 156.27
0 8 7 < 2.46 4.42
1 8 7 < 0.89 2.04
2 8 7 o 5.62 5.66
-5 9 7 o 11.73 13.58
-4 9 7 o 83.49 83.37
-3 9 7 o 22.37 19.53
-2 9 7 o 22.07 24.89
-1 9 7 o 136.26 133.61
0 9 7 < 0.30 0.79
1 9 7 < 2.86 0.95
-4 10 7 o 12.42 12.77
-3 10 7 o 15.08 18.20
-2 10 7 o 47.01 46.81
-1 10 7 < 2.17 4.07
0 10 7 o 19.12 16.29
-1 -10 8 o 7.69 7.49
0 -10 8 o 4.04 2.96
1 -10 8 o 97.70 102.50
2 -10 8 o 4.83 5.00
3 -10 8 o 32.62 33.14
-2 -9 8 o 8.28 7.05
-1 -9 8 o 16.75 14.09
0 -9 8 o 4.34 5.83
1 -9 8 o 21.38 25.52
2 -9 8 < -0.30 0.81
3 -9 8 o 123.05 134.44
4 -9 8 o 138.46 151.45
-3 -8 8 o 273.22 254.73
-2 -8 8 o 68.50 61.85
-1 -8 8 < 2.36 4.30
0 -8 8 o 56.47 50.07
1 -8 8 o 12.81 13.41
2 -8 8 o 49.08 46.15
3 -8 8 o 22.86 31.93
4 -8 8 o 20.69 21.26
5 -8 8 < 0.99 0.18
-4 -7 8 < 0.69 0.54
-3 -7 8 o 807.89 775.30
-2 -7 8 o 221.85 217.71
-1 -7 8 o 63.87 62.60
0 -7 8 o 69.68 59.51
1 -7 8 o 13.11 17.38
2 -7 8 o 101.93 101.22
3 -7 8 o 25.52 30.49
4 -7 8 < 0.00 0.50
5 -7 8 o 3.45 2.05
-5 -6 8 < 0.49 0.21
-4 -6 8 o 10.64 10.08
-3 -6 8 o 5.62 6.03
-2 -6 8 < 0.00 0.02
-1 -6 8 o 5.32 7.12
0 -6 8 o 15.57 14.31
1 -6 8 < 1.77 3.12
2 -6 8 < 0.99 1.49
3 -6 8 o 27.99 30.52
4 -6 8 < 0.30 0.06
5 -6 8 o 9.95 9.32
-5 -5 8 o 194.09 173.02
-4 -5 8 o 17.74 16.29
-3 -5 8 o 54.11 56.87
-2 -5 8 o 45.34 48.51
-1 -5 8 o 421.51 430.40
0 -5 8 o 7.69 5.32
1 -5 8 o 92.07 95.48
2 -5 8 o 6.21 7.16
3 -5 8 < 1.18 3.18
4 -5 8 < 0.99 0.38
5 -5 8 o 156.47 132.77
6 -5 8 o 22.76 26.74
-6 -4 8 o 34.99 36.38
-5 -4 8 o 8.97 7.91
-4 -4 8 o 3.35 3.86
-3 -4 8 o 27.79 33.59
-2 -4 8 o 15.57 21.22
-1 -4 8 o 93.15 86.71
0 -4 8 o 113.57 104.67
1 -4 8 o 73.93 80.87
2 -4 8 o 47.21 51.28
3 -4 8 < 2.66 2.26
4 -4 8 o 53.72 62.16
5 -4 8 o 47.70 48.43
6 -4 8 o 5.03 4.57
-6 -3 8 o 8.97 8.20
-5 -3 8 o 20.30 20.03
-4 -3 8 o 36.66 36.56
-3 -3 8 o 50.76 58.49
-2 -3 8 o 145.34 141.72
-1 -3 8 o 615.85 592.51
0 -3 8 o 60.62 69.11
1 -3 8 o 106.18 113.50
2 -3 8 o 50.56 49.62
3 -3 8 o 34.99 36.54
4 -3 8 o 33.01 32.32
5 -3 8 o 16.65 20.65
6 -3 8 o 5.12 7.90
-6 -2 8 o 106.96 101.33
-5 -2 8 o 7.09 6.61
-4 -2 8 o 14.98 15.10
-3 -2 8 o 105.88 109.39
-2 -2 8 o 63.87 53.76
-1 -2 8 o 39.32 36.29
0 -2 8 o 255.11 235.51
1 -2 8 o 6.90 4.39
2 -2 8 o 206.83 196.25
3 -2 8 o 6.01 3.46
4 -2 8 < -0.30 0.65
5 -2 8 < 2.27 2.04
6 -2 8 o 50.17 42.62
-7 -1 8 < 0.99 0.37
-6 -1 8 o 38.73 36.24
-5 -1 8 o 107.37 122.17
-4 -1 8 o 65.94 70.92
-3 -1 8 o 133.40 124.75
-2 -1 8 o 9.46 6.22
-1 -1 8 o 45.63 60.94
0 -1 8 o 10.54 10.58
1 -1 8 o 16.65 17.58
2 -1 8 o 150.67 149.13
3 -1 8 o 281.35 285.62
4 -1 8 < -0.20 0.03
5 -1 8 o 19.91 21.21
6 -1 8 o 3.35 2.93
-7 0 8 < 0.89 1.12
-6 0 8 o 6.11 6.39
-5 0 8 o 110.04 127.24
-4 0 8 o 46.13 56.60
-3 0 8 < -0.20 0.16
-2 0 8 o 39.22 41.94
-1 0 8 o 35.77 36.48
0 0 8 o 24.24 28.42
1 0 8 o 13.40 13.95
2 0 8 o 28.97 30.80
3 0 8 o 16.26 13.53
4 0 8 o 174.26 170.24
5 0 8 o 61.40 63.61
-7 1 8 < -0.20 0.01
-6 1 8 o 6.40 7.06
-5 1 8 o 11.23 8.40
-4 1 8 o 36.07 38.80
-3 1 8 o 55.00 56.73
-2 1 8 < -0.79 0.35
-1 1 8 o 49.08 43.16
0 1 8 o 13.89 16.06
1 1 8 o 17.34 17.71
2 1 8 < 1.48 0.83
3 1 8 < -0.30 0.18
4 1 8 o 12.61 10.12
5 1 8 o 19.91 20.30
-7 2 8 o 26.31 23.76
-6 2 8 o 58.84 57.21
-5 2 8 < 0.69 0.04
-4 2 8 o 7.78 3.75
-3 2 8 o 124.73 134.40
-2 2 8 o 95.82 86.82
-1 2 8 o 151.86 151.99
0 2 8 < -0.39 0.04
1 2 8 < 1.38 0.70
2 2 8 < 3.35 2.87
3 2 8 o 625.58 647.79
4 2 8 o 462.38 447.60
5 2 8 o 55.39 50.24
-7 3 8 o 18.53 18.46
-6 3 8 o 13.99 15.39
-5 3 8 < -0.10 0.00
-4 3 8 o 19.81 17.66
-3 3 8 o 148.02 158.40
-2 3 8 o 94.54 93.14
-1 3 8 o 3.45 4.63
0 3 8 < 2.27 0.75
1 3 8 o 15.96 15.39
2 3 8 o 12.22 14.46
3 3 8 o 122.85 125.43
4 3 8 < 4.04 3.18
-7 4 8 < 2.07 2.51
-6 4 8 o 9.66 10.12
-5 4 8 o 28.28 21.77
-4 4 8 o 593.11 598.43
-3 4 8 o 1863.13 1723.86
-2 4 8 o 63.77 62.27
-1 4 8 < 0.10 0.38
0 4 8 o 61.11 61.00
1 4 8 o 36.46 35.19
2 4 8 o 54.41 56.34
3 4 8 o 139.71 133.26
4 4 8 o 19.81 23.34
-6 5 8 o 41.10 39.92
-5 5 8 o 72.74 74.59
-4 5 8 < 1.38 1.42
-3 5 8 o 6.31 7.58
-2 5 8 o 482.02 493.16
-1 5 8 o 64.07 62.55
0 5 8 o 12.71 17.73
1 5 8 o 132.63 144.48
2 5 8 o 153.24 150.03
3 5 8 o 20.50 14.57
-6 6 8 o 2.36 2.04
-5 6 8 o 101.04 98.80
-4 6 8 o 5.91 7.21
-3 6 8 o 31.44 32.03
-2 6 8 o 53.32 56.14
-1 6 8 o 242.85 277.82
0 6 8 o 7.88 5.19
1 6 8 < 0.99 1.09
2 6 8 < 1.18 0.71
3 6 8 o 35.97 29.41
-6 7 8 o 82.01 72.39
-5 7 8 o 92.95 83.97
-4 7 8 o 113.47 104.75
-3 7 8 o 135.57 128.38
-2 7 8 < 0.99 1.16
-1 7 8 o 121.07 116.97
0 7 8 o 30.55 32.30
1 7 8 o 11.73 14.62
2 7 8 o 95.13 86.07
-5 8 8 o 6.01 5.95
-4 8 8 o 75.11 64.67
-3 8 8 o 118.61 123.69
-2 8 8 o 83.00 87.58
-1 8 8 o 72.44 59.98
0 8 8 o 3.65 3.11
1 8 8 o 19.61 18.52
-5 9 8 o 9.66 6.88
-4 9 8 o 118.90 109.71
-3 9 8 o 6.21 5.35
-2 9 8 o 11.53 10.35
-1 9 8 o 14.68 16.96
0 9 8 < -0.30 0.01
-2 10 8 o 16.75 13.93
-2 -9 9 o 3.15 2.60
-1 -9 9 o 6.70 6.33
0 -9 9 o 3.84 4.32
1 -9 9 o 13.40 12.17
2 -9 9 o 48.39 52.75
3 -9 9 < 0.00 0.15
-2 -8 9 o 76.69 70.74
-1 -8 9 o 17.84 18.83
0 -8 9 < 3.05 1.63
1 -8 9 < 0.20 0.76
2 -8 9 o 23.65 31.54
3 -8 9 o 245.11 278.10
4 -8 9 o 193.27 204.52
-3 -7 9 o 131.03 118.06
-2 -7 9 o 80.43 76.28
-1 -7 9 o 14.09 14.65
0 -7 9 < 0.00 0.38
1 -7 9 o 16.65 14.72
2 -7 9 o 10.25 8.26
3 -7 9 o 5.72 9.03
4 -7 9 < 1.38 1.30
5 -7 9 o 4.04 1.58
-4 -6 9 o 58.15 58.05
-3 -6 9 o 331.29 310.67
-2 -6 9 o 4.43 4.96
-1 -6 9 o 5.32 6.60
0 -6 9 o 437.89 430.31
1 -6 9 o 7.98 9.04
2 -6 9 o 34.59 39.50
3 -6 9 < 1.68 2.40
4 -6 9 < 1.48 1.99
5 -6 9 o 3.35 2.90
-5 -5 9 < 0.10 0.33
-4 -5 9 o 7.59 6.13
-3 -5 9 o 16.06 18.95
-2 -5 9 o 58.94 58.21
-1 -5 9 < 1.38 1.82
0 -5 9 o 59.82 48.55
1 -5 9 o 8.47 7.12
2 -5 9 o 79.06 82.23
3 -5 9 o 20.69 21.85
4 -5 9 < 0.20 0.00
5 -5 9 < 0.89 0.53
-5 -4 9 < 0.39 1.60
-4 -4 9 o 10.74 9.18
-3 -4 9 o 10.94 9.12
-2 -4 9 o 41.39 38.74
-1 -4 9 o 3.05 3.50
0 -4 9 o 7.09 8.61
1 -4 9 o 13.60 17.87
2 -4 9 < 2.17 3.56
3 -4 9 o 37.84 43.60
4 -4 9 < 0.39 0.74
5 -4 9 o 27.59 23.51
-5 -3 9 o 9.46 10.96
-4 -3 9 o 17.15 17.48
-3 -3 9 o 10.74 8.71
-2 -3 9 < 1.68 2.10
-1 -3 9 o 203.61 217.29
0 -3 9 o 81.03 78.87
1 -3 9 o 236.11 257.52
2 -3 9 o 25.92 30.15
3 -3 9 o 16.85 12.94
4 -3 9 < 4.43 4.42
5 -3 9 o 8.87 7.46
-6 -2 9 o 7.39 5.58
-5 -2 9 o 23.95 20.94
-4 -2 9 < 1.48 0.04
-3 -2 9 o 134.70 145.82
-2 -2 9 o 21.88 23.34
-1 -2 9 o 32.72 33.16
0 -2 9 o 32.72 29.25
1 -2 9 o 33.31 40.93
2 -2 9 o 255.52 236.00
3 -2 9 o 88.82 91.70
4 -2 9 o 12.32 9.48
5 -2 9 < 0.99 0.91
-6 -1 9 o 42.38 39.78
-5 -1 9 o 29.37 27.48
-4 -1 9 < -0.79 0.33
-3 -1 9 < 0.89 0.65
-2 -1 9 o 5.52 5.57
-1 -1 9 o 23.16 22.33
0 -1 9 o 81.32 79.90
1 -1 9 o 215.82 202.06
2 -1 9 o 22.47 18.41
3 -1 9 o 85.95 78.20
4 -1 9 o 16.36 19.99
5 -1 9 o 33.21 32.99
-6 0 9 < 3.15 5.24
-5 0 9 o 257.81 263.52
-4 0 9 o 186.15 221.74
-3 0 9 o 10.25 8.83
-2 0 9 o 39.32 31.12
-1 0 9 o 40.60 44.64
0 0 9 o 578.61 552.56
1 0 9 o 79.65 82.69
2 0 9 o 42.38 42.55
3 0 9 o 139.62 141.18
4 0 9 o 327.97 329.19
5 0 9 o 5.22 6.37
-6 1 9 < -0.10 0.56
-5 1 9 o 158.58 179.90
-4 1 9 o 103.12 109.22
-3 1 9 o 58.64 59.00
-2 1 9 o 700.94 728.59
-1 1 9 o 29.66 32.61
0 1 9 < 2.66 1.76
1 1 9 o 3.25 3.08
2 1 9 o 173.98 180.93
3 1 9 o 151.27 154.50
4 1 9 o 82.21 76.68
-6 2 9 o 17.05 14.53
-5 2 9 o 23.06 24.56
-4 2 9 o 122.45 117.75
-3 2 9 o 249.41 243.39
-2 2 9 o 105.89 122.97
-1 2 9 o 8.08 7.71
0 2 9 o 7.19 6.34
1 2 9 o 7.98 9.86
2 2 9 o 51.35 51.95
3 2 9 o 5.42 3.13
4 2 9 o 36.95 31.11
-6 3 9 o 16.36 17.46
-5 3 9 o 42.77 53.66
-4 3 9 o 11.53 16.23
-3 3 9 o 218.79 209.01
-2 3 9 o 7.78 11.84
-1 3 9 o 66.93 69.01
0 3 9 o 18.33 18.55
1 3 9 < 0.10 0.16
2 3 9 o 518.23 490.82
3 3 9 o 17.64 21.06
4 3 9 o 3.25 3.59
-6 4 9 < 0.89 0.04
-5 4 9 o 12.22 11.09
-4 4 9 o 150.66 133.64
-3 4 9 < 0.20 1.63
-2 4 9 o 34.99 43.80
-1 4 9 o 50.86 55.49
0 4 9 o 17.74 14.42
1 4 9 o 5.32 5.05
2 4 9 o 35.08 36.73
3 4 9 o 21.58 21.90
-6 5 9 < 0.49 0.72
-5 5 9 o 22.86 20.75
-4 5 9 o 7.09 5.96
-3 5 9 o 35.67 32.09
-2 5 9 o 6.60 10.29
-1 5 9 < -0.49 0.10
0 5 9 o 48.30 64.70
1 5 9 < 1.38 1.13
2 5 9 o 7.19 5.64
3 5 9 < -0.49 0.01
-6 6 9 o 20.99 21.42
-5 6 9 o 60.03 64.93
-4 6 9 < 1.58 0.07
-3 6 9 o 47.11 52.28
-2 6 9 < 1.18 2.11
-1 6 9 o 219.79 233.74
0 6 9 o 12.32 16.44
1 6 9 o 71.96 80.81
2 6 9 o 5.42 5.51
-5 7 9 o 6.90 5.47
-4 7 9 o 3.74 1.40
-3 7 9 o 62.98 54.74
-2 7 9 < 2.46 1.64
-1 7 9 o 23.75 27.12
0 7 9 o 43.07 44.99
1 7 9 < 0.39 0.06
-5 8 9 o 23.75 17.50
-4 8 9 o 33.31 24.79
-3 8 9 o 127.19 121.01
-2 8 9 o 4.34 2.12
-1 8 9 o 12.02 9.63
0 8 9 < 1.38 1.11
-2 9 9 o 43.76 35.69
0 -8 10 o 20.89 19.34
1 -8 10 o 4.34 4.69
2 -8 10 o 2.76 2.84
3 -8 10 o 2.96 3.42
-1 -7 10 o 8.28 10.24
0 -7 10 o 52.33 48.00
1 -7 10 o 7.19 8.54
2 -7 10 o 18.43 20.28
3 -7 10 o 27.30 36.42
4 -7 10 o 17.24 12.80
-3 -6 10 o 10.94 11.54
-2 -6 10 o 17.34 15.71
-1 -6 10 o 4.14 4.75
0 -6 10 o 134.88 128.51
1 -6 10 o 9.66 7.71
3 -6 10 o 7.49 4.74
4 -6 10 < 0.79 0.31
-4 -5 10 o 3.94 3.71
-3 -5 10 o 35.67 35.17
-2 -5 10 o 4.24 5.85
-1 -5 10 o 95.72 91.44
0 -5 10 o 70.77 76.42
1 -5 10 o 7.49 11.22
2 -5 10 < 4.14 4.19
3 -5 10 o 15.96 14.84
4 -5 10 < 1.18 0.44
-5 -4 10 o 5.42 6.32
-4 -4 10 o 9.16 11.67
-3 -4 10 < 0.20 0.69
-2 -4 10 < 1.97 0.80
-1 -4 10 o 28.28 34.32
0 -4 10 o 10.44 12.70
1 -4 10 o 10.94 12.41
2 -4 10 < 1.38 2.98
3 -4 10 o 2.96 4.33
4 -4 10 o 8.28 6.83
-5 -3 10 < 0.20 0.10
-4 -3 10 o 141.69 142.35
-3 -3 10 o 21.19 20.46
-2 -3 10 o 154.03 151.65
-1 -3 10 o 8.97 9.70
0 -3 10 o 3.55 3.95
1 -3 10 < 0.20 0.95
2 -3 10 o 39.03 38.89
3 -3 10 o 70.57 70.97
4 -3 10 o 7.39 7.52
-5 -2 10 o 11.82 13.11
-4 -2 10 < 1.48 1.19
-3 -2 10 o 58.55 67.35
-2 -2 10 o 19.22 22.12
-1 -2 10 o 32.32 34.27
0 -2 10 o 13.50 14.88
1 -2 10 < 2.17 1.72
2 -2 10 o 3.74 4.59
3 -2 10 o 2.86 2.98
4 -2 10 o 10.44 8.64
-6 -1 10 o 23.16 20.28
-5 -1 10 o 13.60 11.81
-4 -1 10 o 7.88 8.24
-3 -1 10 o 28.87 30.70
-2 -1 10 o 148.22 158.13
-1 -1 10 o 15.27 13.55
0 -1 10 < 2.07 0.40
1 -1 10 o 19.12 21.07
2 -1 10 o 151.66 146.94
3 -1 10 o 4.63 5.25
4 -1 10 < 1.28 0.45
-6 0 10 o 2.46 2.22
-5 0 10 o 43.56 39.96
-4 0 10 < 2.86 2.47
-3 0 10 < 1.87 0.08
-2 0 10 o 34.39 34.42
-1 0 10 o 117.92 126.62
0 0 10 < 0.89 0.62
1 0 10 o 35.28 38.71
2 0 10 < -0.10 0.00
3 0 10 < 2.86 2.18
4 0 10 o 242.30 228.58
-6 1 10 o 65.35 53.33
-5 1 10 < -0.20 0.19
-4 1 10 < 1.87 1.83
-3 1 10 < 2.17 2.15
-2 1 10 o 735.51 838.30
-1 1 10 o 14.78 13.90
0 1 10 o 77.09 83.04
1 1 10 o 19.91 19.00
2 1 10 o 74.12 71.16
3 1 10 < 0.59 0.43
4 1 10 o 153.65 151.51
-6 2 10 o 3.65 3.63
-5 2 10 o 32.91 30.94
-4 2 10 o 10.05 8.22
-3 2 10 o 393.30 362.53
-2 2 10 o 715.23 743.53
-1 2 10 o 28.87 24.33
0 2 10 o 6.70 6.47
1 2 10 < 0.20 0.01
2 2 10 o 55.59 51.53
3 2 10 < 1.68 0.78
4 2 10 o 134.51 116.40
-6 3 10 o 9.75 7.88
-5 3 10 o 13.40 13.75
-4 3 10 o 172.77 162.60
-3 3 10 < 0.00 0.02
-2 3 10 o 16.55 19.75
-1 3 10 o 42.58 47.58
0 3 10 o 243.48 239.85
1 3 10 o 28.48 30.02
2 3 10 o 154.90 142.93
3 3 10 o 9.95 9.27
-6 4 10 o 67.22 49.66
-5 4 10 o 7.09 7.30
-4 4 10 o 79.54 75.94
-3 4 10 o 75.40 70.13
-2 4 10 < 1.58 1.31
-1 4 10 < 2.36 1.11
0 4 10 o 228.27 230.49
1 4 10 o 3.74 4.94
2 4 10 < 0.59 0.00
3 4 10 o 14.88 13.15
-5 5 10 o 129.85 117.92
-4 5 10 o 123.14 118.84
-3 5 10 o 99.96 92.39
-2 5 10 o 65.94 66.63
-1 5 10 o 37.55 36.90
0 5 10 o 19.81 20.35
1 5 10 o 26.41 26.13
2 5 10 o 2.46 3.10
-5 6 10 < 0.89 0.16
-4 6 10 < 0.59 0.08
-3 6 10 o 24.93 20.12
-2 6 10 o 58.35 67.52
-1 6 10 o 12.91 15.16
0 6 10 < 1.77 2.09
1 6 10 o 33.80 36.84
-3 7 10 o 37.45 37.97
-2 7 10 < 0.10 0.14
-1 7 10 o 9.26 7.31
0 7 10 o 9.07 6.85
-2 8 10 < 1.38 3.61
0 -7 11 o 3.45 4.16
1 -7 11 < 0.59 0.30
2 -7 11 o 28.58 21.97
-2 -6 11 < 1.18 0.81
-1 -6 11 o 4.43 4.26
0 -6 11 o 9.56 8.24
1 -6 11 < 0.79 0.03
2 -6 11 o 5.12 3.95
3 -6 11 o 26.61 25.26
-3 -5 11 o 9.46 9.53
-2 -5 11 o 14.29 17.80
-1 -5 11 o 5.22 4.60
0 -5 11 < 0.99 0.77
1 -5 11 o 3.05 2.95
2 -5 11 o 9.16 9.16
3 -5 11 < 0.89 0.53
-4 -4 11 < 0.79 1.98
-3 -4 11 o 36.96 36.43
-2 -4 11 o 10.25 8.69
-1 -4 11 o 62.98 59.87
0 -4 11 o 8.08 7.61
1 -4 11 o 4.43 4.47
2 -4 11 o 10.94 8.73
3 -4 11 o 144.55 131.20
-4 -3 11 < 0.89 0.46
-3 -3 11 o 26.71 30.85
-2 -3 11 < 2.46 5.34
-1 -3 11 < 1.08 1.45
0 -3 11 o 21.78 24.98
1 -3 11 o 5.81 4.94
2 -3 11 o 51.84 49.56
3 -3 11 o 8.87 8.37
-4 -2 11 o 294.78 294.58
-3 -2 11 o 77.47 73.05
-2 -2 11 o 15.77 13.68
-1 -2 11 o 92.57 95.58
0 -2 11 o 22.57 21.19
1 -2 11 o 42.77 45.47
2 -2 11 < 0.89 0.20
3 -2 11 o 13.60 13.06
-5 -1 11 < 0.69 2.32
-4 -1 11 o 8.67 10.88
-3 -1 11 o 117.91 119.32
-2 -1 11 o 11.04 10.44
-1 -1 11 o 281.71 275.20
0 -1 11 < 3.15 4.50
1 -1 11 o 10.44 12.69
2 -1 11 o 25.82 21.35
3 -1 11 o 40.01 35.33
-5 0 11 o 8.77 12.22
-4 0 11 o 19.90 17.35
-3 0 11 o 24.04 21.76
-2 0 11 o 157.86 142.56
-1 0 11 o 11.63 9.80
0 0 11 o 48.49 55.26
1 0 11 o 7.19 6.97
2 0 11 o 31.83 29.02
3 0 11 o 101.44 96.34
-5 1 11 o 64.07 61.13
-4 1 11 o 114.16 106.70
-3 1 11 < 3.45 2.06
-2 1 11 o 107.66 120.38
-1 1 11 < 0.49 0.01
0 1 11 < 0.10 0.00
1 1 11 o 28.48 30.63
2 1 11 o 35.38 36.41
3 1 11 o 33.31 35.35
-5 2 11 < 0.30 0.02
-4 2 11 < 2.27 4.29
-3 2 11 o 104.00 97.28
-2 2 11 o 75.01 72.35
-1 2 11 o 31.54 33.41
0 2 11 o 34.99 42.01
1 2 11 o 7.19 8.96
2 2 11 o 6.11 5.01
3 2 11 o 31.83 28.87
-5 3 11 < 2.17 1.31
-4 3 11 o 35.87 32.46
-3 3 11 < -0.30 0.42
-2 3 11 o 17.15 17.22
-1 3 11 o 86.35 88.48
0 3 11 o 15.27 16.10
1 3 11 o 205.96 217.33
2 3 11 o 42.58 42.17
-5 4 11 o 57.17 50.41
-4 4 11 o 34.59 33.58
-3 4 11 o 2.96 4.58
-2 4 11 o 55.69 57.82
-1 4 11 o 34.39 31.52
0 4 11 o 64.26 68.35
1 4 11 o 12.42 12.54
-4 5 11 < 0.49 0.61
-3 5 11 o 4.43 3.91
-2 5 11 < 2.17 0.87
-1 5 11 o 17.24 17.63
0 5 11 o 18.13 18.79
1 5 11 o 53.72 58.71
-2 6 11 o 17.64 15.08
-1 6 11 < 1.68 0.98
0 6 11 o 62.49 54.75
0 -6 12 o 13.80 14.02
1 -6 12 < 2.07 2.85
-2 -5 12 o 12.22 10.51
-1 -5 12 o 32.03 31.78
0 -5 12 o 8.08 9.06
1 -5 12 < -0.10 0.67
-2 -4 12 o 102.92 93.80
-1 -4 12 o 19.61 22.27
0 -4 12 o 36.96 32.99
1 -4 12 o 3.05 4.77
2 -4 12 o 21.88 18.41
-3 -3 12 < 2.27 1.87
-2 -3 12 < 1.38 2.37
-1 -3 12 o 133.30 119.70
0 -3 12 o 42.18 39.32
1 -3 12 o 13.80 15.22
2 -3 12 o 32.32 31.22
-3 -2 12 o 12.42 11.69
-2 -2 12 < 0.39 0.06
-1 -2 12 < 1.28 1.36
0 -2 12 o 17.64 17.64
1 -2 12 < 0.69 1.52
2 -2 12 < 1.08 2.14
-4 -1 12 o 12.61 10.54
-3 -1 12 < 1.77 1.68
-2 -1 12 o 12.71 13.27
-1 -1 12 o 755.53 687.20
0 -1 12 o 2.66 3.92
1 -1 12 o 17.54 16.58
2 -1 12 o 4.24 4.50
-4 0 12 o 5.22 7.62
-3 0 12 < 0.89 1.54
-2 0 12 o 137.06 142.95
-1 0 12 o 125.21 124.95
0 0 12 o 29.27 31.56
1 0 12 < 0.30 0.54
2 0 12 < 0.89 0.26
-4 1 12 < 1.38 2.10
-3 1 12 o 136.46 128.12
-2 1 12 o 14.39 17.07
-1 1 12 < 0.79 0.10
0 1 12 < 0.59 1.87
1 1 12 o 86.25 78.56
2 1 12 o 6.70 8.87
-4 2 12 < -0.20 0.48
-3 2 12 o 4.43 3.46
-2 2 12 o 80.92 72.26
-1 2 12 < 0.10 0.16
0 2 12 < 1.87 0.45
1 2 12 o 37.75 37.97
-4 3 12 o 62.10 54.87
-3 3 12 o 57.46 60.10
-2 3 12 o 17.93 17.67
-1 3 12 o 83.20 87.41
0 3 12 o 3.45 2.46
-2 4 12 o 26.81 29.03
-1 4 12 o 56.48 57.72
0 4 12 o 17.84 21.79
-1 -3 13 o 20.50 21.65
0 -3 13 o 62.79 64.82
-1 -2 13 o 39.72 43.57
0 -2 13 o 9.46 8.95
-2 -1 13 o 7.49 8.62
-1 -1 13 o 25.23 21.29
0 -1 13 o 15.67 14.83
-2 0 13 o 126.03 124.62
-1 0 13 o 95.63 92.51
0 0 13 < 0.30 0.11
-2 1 13 o 18.82 17.02
-1 1 13 < 1.97 2.07
-1 2 13 o 8.57 8.41
