#------------------------------------------------------------------------------
#$Date: 2018-04-30 19:24:07 +0300 (Mon, 30 Apr 2018) $
#$Revision: 207545 $
#$URL: file:///home/coder/svn-repositories/cod/cif/2/24/24/2242445.cif $
#------------------------------------------------------------------------------
#
# This file is available in the Crystallography Open Database (COD),
# http://www.crystallography.net/. The original data for this entry
# were provided by IUCr Journals, http://journals.iucr.org/.
#
# The file may be used within the scientific community so long as
# proper attribution is given to the journal article from which the
# data were obtained.
#
data_2242445
loop_
_publ_author_name
'Zakharov, Boris A.'
'Gal, Zoltan'
'Cruickshank, Dyanne'
'Boldyreva, Elena V.'
_publ_section_title
;
 Studying weak interactions in crystals at high pressures: when hardware
 matters
;
_journal_issue                   5
_journal_name_full               'Acta Crystallographica Section E'
_journal_page_first              613
_journal_page_last               619
_journal_paper_doi               10.1107/S205698901800470X
_journal_volume                  74
_journal_year                    2018
_chemical_formula_moiety         'C6 H2 Br4'
_chemical_formula_sum            'C6 H2 Br4'
_chemical_formula_weight         393.72
_chemical_name_common            1,2,4,5-tetrabromobenzene
_chemical_name_systematic        1,2,4,5-tetrabromobenzene
_space_group_crystal_system      monoclinic
_space_group_IT_number           14
_space_group_name_Hall           '-P 2yn'
_space_group_name_H-M_alt        'P 1 21/n 1'
_symmetry_space_group_name_Hall  '-P 2yn'
_symmetry_space_group_name_H-M   'P 1 21/n 1'
_atom_sites_solution_hydrogens   geom
_audit_creation_method           SHELXL-2018/1
_cell_angle_alpha                90
_cell_angle_beta                 100.557(15)
_cell_angle_gamma                90
_cell_formula_units_Z            2
_cell_length_a                   3.9431(5)
_cell_length_b                   10.7566(18)
_cell_length_c                   9.964(2)
_cell_measurement_reflns_used    514
_cell_measurement_temperature    293(2)
_cell_measurement_theta_max      22.4150
_cell_measurement_theta_min      2.8040
_cell_volume                     415.46(12)
_computing_cell_refinement
;
CrysAlisPro (Rigaku OD, 2016)
;
_computing_data_collection
;
CrysAlisPro (Rigaku OD, 2016)
;
_computing_data_reduction
;
CrysAlisPro (Rigaku OD, 2016)
;
_computing_molecular_graphics
;
Mercury (Macrae <i>et al.</i>,  2008)
;
_computing_publication_material
;
SHELXL-2018/1 (Sheldrick, 2015) and publCIF (Westrip, 2010)
;
_computing_structure_refinement
;
SHELXL-2018/1 (Sheldrick, 2015)
;
_diffrn_ambient_temperature      293(2)
_diffrn_measured_fraction_theta_full 0.601
_diffrn_measured_fraction_theta_max 0.522
_diffrn_measurement_device_type  'Xcalibur, Ruby, Gemini R Ultra'
_diffrn_measurement_method       \w-scan
_diffrn_radiation_type           MoK\a
_diffrn_radiation_wavelength     0.71073
_diffrn_reflns_av_R_equivalents  0.1024
_diffrn_reflns_limit_h_max       5
_diffrn_reflns_limit_h_min       -5
_diffrn_reflns_limit_k_max       11
_diffrn_reflns_limit_k_min       -12
_diffrn_reflns_limit_l_max       10
_diffrn_reflns_limit_l_min       -10
_diffrn_reflns_number            2125
_diffrn_reflns_theta_full        25.242
_diffrn_reflns_theta_max         28.102
_diffrn_reflns_theta_min         2.812
_exptl_absorpt_coefficient_mu    19.289
_exptl_absorpt_correction_T_max  0.64445
_exptl_absorpt_correction_T_min  0.63827
_exptl_absorpt_correction_type   sphere
_exptl_absorpt_process_details
;
(CrysAlisPro; Rigaku OD, 2016)
;
_exptl_crystal_colour            colourless
_exptl_crystal_density_diffrn    3.147
_exptl_crystal_description       block
_exptl_crystal_F_000             356
_exptl_crystal_size_max          0.18
_exptl_crystal_size_mid          0.07
_exptl_crystal_size_min          0.01
_exptl_crystal_size_rad          0.0292
_refine_diff_density_max         0.934
_refine_diff_density_min         -0.826
_refine_ls_extinction_method     none
_refine_ls_goodness_of_fit_ref   1.046
_refine_ls_hydrogen_treatment    constr
_refine_ls_matrix_type           full
_refine_ls_number_parameters     46
_refine_ls_number_reflns         531
_refine_ls_number_restraints     0
_refine_ls_restrained_S_all      1.046
_refine_ls_R_factor_all          0.1325
_refine_ls_R_factor_gt           0.0691
_refine_ls_shift/su_max          0.523
_refine_ls_shift/su_mean         0.017
_refine_ls_structure_factor_coef Fsqd
_refine_ls_weighting_details
'w=1/[\s^2^(Fo^2^)+(0.0698P)^2^] where P=(Fo^2^+2Fc^2^)/3'
_refine_ls_weighting_scheme      calc
_refine_ls_wR_factor_gt          0.1307
_refine_ls_wR_factor_ref         0.1569
_reflns_number_gt                319
_reflns_number_total             531
_reflns_threshold_expression     'I > 2\s(I)'
_cod_data_source_file            su5433sup1.cif
_cod_data_source_block           Mo-CAsphere_f
_cod_original_cell_volume        415.47(13)
_cod_database_code               2242445
_shelx_space_group_comment
;
The symmetry employed for this shelxl refinement is uniquely defined
by the following loop, which should always be used as a source of
symmetry information in preference to the above space-group names.
They are only intended as comments.
;
_shelx_hkl_file
;
   0   1  -1 162.989 20.7040   2
   0   1  -1 146.108 18.2780  12
   0  -1   1 140.122 16.4610  10
   0   1  -1 132.084 19.2616   5
   0  -1   1 142.143 17.2073  11
   0  -1   1 135.924 17.6565  12
   0   1  -1 153.892 17.8316  10
   0   2  -1 1259.52 66.7147  12
   0   2  -1 1417.91 63.7683   8
   0  -2   1 1454.84 68.0145   3
   0  -2   1 1454.75 57.8118   9
   0   2  -1 1256.69 61.5375   3
   0  -2   1 1372.34 54.3956   7
   0  -2   1 1321.84 63.0060  10
   0   2  -1 1303.48 61.9869  10
   0  -2   1 1360.99 45.5043   1
   0  -2   2 2834.44 120.217   6
   0   2  -2 2962.39 87.2158   9
   0   2  -2 2852.96 113.478  12
   0  -2   2 2743.95 88.4779   9
   0  -2   2 2892.40 104.910  10
   0   2  -2 2757.61 66.4004   1
   0  -2   2 2860.57 110.203  11
   0   2  -2 2956.83 84.1638   7
   0  -2   3 3475.36 144.739  11
   0  -2   3 3628.16 158.262   6
   0   2  -3 3247.95 150.668   4
   0  -2   3 3382.91 137.065  10
   0   2  -3 3694.17 156.252  12
   0  -2   4 1038.89 89.7188  10
   0  -2   4 1081.35 92.5938   6
   0   2  -4 1006.83 96.1995   4
   0   2  -4 950.013 84.7313  12
   0  -3   1 1387.07 96.4288   2
   0   3  -1 1268.33 92.4193  12
   0   3  -1 1843.32 124.095   3
   0   3  -2 6091.43 175.868   3
   0  -3   2 6322.02 140.893   7
   0  -3   2 6166.21 139.123   9
   0  -3   2 6254.19 111.237   1
   0  -3   2 6171.10 204.393   2
   0   3  -2 6259.97 173.895   8
   0  -3   2 6267.56 168.093  10
   0   3  -2 6341.85 193.931  12
   0  -3   3 48.4779 15.4930  10
   0  -3   3 39.0568 16.8241   6
   0   3  -3 56.5183 23.9207   4
   0  -3   3 36.1807 14.0583  11
   0   3  -3 33.8564 15.5003  12
   0   3  -3 39.6766 10.4075   1
   0  -3   3 47.8290 17.3171   9
   0   3  -4 806.028 99.3027   4
   0  -3   4 622.018 88.4442   6
   0   3  -4 599.234 81.0760  12
   0  -3   4 665.929 80.7371  10
   0  -3   4 648.413 81.5321  11
   0  -3   5 1606.26 122.966  10
   0  -3   5 1661.37 130.120  11
   0   3  -5 1681.51 135.007  12
   0  -3   5 1698.74 138.249   6
   0  -3   6 170.256 42.6951   6
   0   3  -6 479.267 78.8107   4
   0   3  -6 399.789 63.0779  12
   0  -3   6 481.266 64.9924  11
   0   4  -2 216.523 38.4855   3
   0   4  -2 254.733 46.1531  12
   0  -4   2 274.356 49.0790   2
   0  -4   2 306.723 49.8678  10
   0  -4   2 219.946 30.4866   7
   0  -4   2 281.043 30.4205   1
   0   4  -2 243.909 38.5094   8
   0  -4   2 259.597 36.3103   9
   0  -4   4 744.919 83.1286  11
   0  -4   4 650.956 85.9241   6
   0   4  -4 742.181 83.4570  12
   0  -4   4 730.551 76.5284  10
   0   4  -4 597.836 42.8848   1
   0  -4   5-16.4108 23.4246  10
   0   4  -5-2.15107 9.31946   1
   0   4  -5 3.45910 19.0064   4
   0   4  -5 19.4895 27.6677  12
   0  -4   5-16.8652 32.5650   6
   0  -4   5-21.6090 23.1801  11
   0  -4   6 256.285 55.7586  10
   0  -4   6 243.440 62.4806   6
   0   4  -6 276.020 72.3639   4
   0   4  -6 314.833 69.5851  12
   0  -4   6 328.356 65.6692  11
   0   4  -7-9.60737 36.4862   4
   0   4  -7 1.00300 20.1889  12
   0  -4   7 19.5606 29.1711  10
   0  -4   7-8.19261 18.5717  11
   0  -4   7 39.0383 24.8801   6
   0  -5   3 548.988 79.1925   2
   0   5  -3 566.311 78.5509  12
   0   5  -3 493.250 62.5951   8
   0  -5   3 492.477 49.3230   9
   0  -5   3 599.678 57.4626   7
   0   5  -3 522.606 68.2617   3
   0  -5   3 580.811 73.1008  10
   0  -5   4 882.805 100.247   6
   0   5  -4 833.887 98.9501   4
   0  -5   4 1091.61 85.2186   9
   0   5  -4 989.608 103.566  12
   0   5  -4 994.190 96.7566   3
   0  -5   4 985.979 89.6145  10
   0  -5   5 4467.00 230.323  11
   0  -5   5 4198.76 204.652  10
   0   5  -5 4234.61 217.834   3
   0  -5   5 3950.39 234.365   6
   0   5  -5 3890.99 218.921  12
   0   5  -5 4179.44 238.038   4
   0  -5   6 1090.58 113.941  10
   0  -5   6 956.792 118.378  11
   0   5  -6 1100.82 130.124  12
   0  -5   6 1012.45 129.725   6
   0   5  -6 984.718 127.562   4
   0  -5   7 76.0784 58.4415  10
   0   5  -7 32.0931 42.4700   4
   0  -5   7 46.0074 45.9151   6
   0   5  -7 165.144 66.8940  12
   0  -5   7 65.2336 69.1925  11
   0  -5   8 1.75045 25.9853  10
   0   5  -8 6.38744 26.3384  12
   0  -5   8 11.3259 23.9064  11
   0  -6   2 916.645 156.654   7
   0  -6   2 1299.47 148.891   2
   0   6  -2 1102.20 109.661   8
   0  -6   2 1392.24 135.499   9
   0  -6   3 2643.68 200.238   5
   0   6  -3 3773.22 247.098   3
   0   6  -3 2477.12 159.215   8
   0  -6   3 2345.08 127.939   9
   0  -6   3 2113.67 120.253   7
   0  -6   3 1056.94 211.443  10
   0  -6   3 1979.65 173.038   2
   0   6  -3 2754.49 201.335  12
   0   6  -4 68.7254 27.5412   3
   0  -6   4 86.9174 29.2533   9
   0   6  -4 121.474 48.8222  12
   0  -6   4 84.0400 44.8563   5
   0   6  -4 119.730 47.8918   4
   0  -6   4 113.572 43.9305  10
   0   6  -5 150.674 42.0819   3
   0  -6   5 130.349 42.3130   6
   0   6  -5 208.778 56.2168   4
   0   6  -5 173.752 52.6374  12
   0  -6   5 216.140 49.0430  10
   0  -6   6 4.07558 28.4699  10
   0   6  -6 46.0887 39.5639  12
   0  -6   6 72.5160 40.9093   6
   0   6  -6 9.03179 35.2825   3
   0   6  -6-11.3716 27.3332   4
   0   6  -7 485.995 89.0631   3
   0   6  -7 604.788 110.220  12
   0   6  -7 507.152 106.718   4
   0  -6   7 502.501 101.298   6
   0  -6   7 662.292 106.767  11
   0  -6   7 596.122 97.1308  10
   0  -6   8 308.542 79.1038  11
   0   6  -8 249.879 81.0714  12
   0   6  -8 390.242 80.7366   3
   0  -6   8 247.512 62.2661   6
   0   6  -8 231.707 80.6708   4
   0   6  -9 33.1020 36.7584  12
   0  -6   9-4.22019 34.8556  11
   0  -7   2 263.188 76.2379   2
   0  -7   2 240.434 74.8887   5
   0  -7   3 1833.11 138.046   9
   0  -7   3 1482.64 175.144   5
   0  -7   3 1573.75 121.608   7
   0   7  -3 1471.46 139.485   8
   0  -7   3 1587.42 183.883   2
   0   7  -4 6.55404 29.1531   4
   0   7  -4 7.47884 29.4109   3
   0   7  -4 44.7963 46.0151  12
   0   7  -4-1.46393 21.6708   8
   0  -7   4-68.5484 40.0603   5
   0  -7   4-16.9742 88.4727  10
   0  -7   4 48.2175 27.2064   9
   0  -7   5-23.3677 33.9822   6
   0   7  -5 22.2761 33.5033   3
   0  -7   5-23.6304 37.6149  10
   0   7  -5 49.4796 35.5575  12
   0   7  -5 91.6544 43.9808   4
   0   7  -6-24.3901 37.1158   4
   0   7  -6-23.0777 27.8835   3
   0  -7   6-26.3361 23.7914  10
   0   7  -6-3.36198 30.2546  12
   0  -7   6-69.7829 49.8759   6
   0   7  -7 740.095 120.609  12
   0  -7   7 850.809 134.621   6
   0   7  -7 869.768 122.356   3
   0   7  -7 820.000 135.405   4
   0   7  -8 168.691 69.9383  12
   0   7  -8 51.6842 46.3155   4
   0  -7   8 100.528 63.4039   6
   0   7  -9 74.3361 45.8949   4
   0  -7   9 97.1098 47.5726   6
   0   7  -9 96.4627 47.7533  12
   0  -8   3 2773.66 270.582   5
   0  -8   3 2591.69 256.692   2
   0  -8   3 2596.15 183.088   7
   0  -8   3 3003.97 205.006   9
   0   8  -3 2522.82 203.219   8
   0  -8   4 11.1014 54.2361   5
   0   8  -4 168.400 90.4312  12
   0   8  -4 40.0634 58.9967   8
   0   8  -4 129.415 64.6454   4
   0  -8   5-19.1793 35.8032   6
   0   8  -5-6.92041 34.7542  12
   0   8  -5 18.0605 35.3368   4
   0   8  -5-104.758 84.0668   3
   0   8  -6 52.2011 38.4357   3
   0   8  -6 28.1142 41.1044   4
   0   8  -6-12.6133 33.5599  12
   0  -8   6 48.8990 44.9862   6
   0   8  -7 655.700 124.936  12
   0   8  -7 610.736 123.365   4
   0  -8   7 658.897 122.603   6
   0   8  -8 237.975 83.6151  12
   0  -8   8 113.891 56.5330   6
   0   8  -8 275.469 101.164   4
   0  -8   9-7.28092 44.7707   6
   0   8  -9 61.9361 56.6174   4
   0   9  -4 1861.08 221.701   8
   0  -9   4 1168.50 203.133   5
   0   9  -5 247.559 111.082  12
   0   9  -5 726.557 135.115   4
   0  -9   5 1127.38 186.415   5
   0  -9   5 935.538 162.973   6
   0   9  -6 413.403 102.662   4
   0   9  -6 579.009 132.200  12
   0  -9   6 465.542 114.992   6
   0  -9   7 65.2038 54.9805   6
   0   9  -7 69.5344 75.2287  12
   0   9  -7 10.1392 48.0093   4
   0  -9   8 79.1768 63.0766   6
   0   9  -8-14.8262 53.8676   4
   0  -9   9-48.2231 36.0414   6
   0   9  -9 44.4896 59.1262   4
   0 -10   4-9.72417 50.0828   5
   0 -10   4 152.411 103.033   2
   0  10  -5-13.5570 44.2559   4
   0 -10   5-13.8129 58.9710   5
   0  10  -6 408.948 126.853   4
   0 -10   6 421.285 119.070   6
   0  10  -7 111.106 61.4568   4
   0 -10   7 12.5925 56.1971   6
   0  10  -8-69.3459 74.4708   4
   0 -10   8 82.8670 70.8296   6
   0  11  -6-18.5033 50.3406   4
   0 -11   6-31.4924 62.5934   6
   0 -11   7 36.2723 83.4519   6
   0  11  -7-86.0324 73.7046   4
   1   0  -2 2.15250 7.14161   7
  -1   0   2-2.14018 12.0580   9
   1   0  -1 496.125 34.1878   4
  -1   0   1 448.436 41.5463   8
   1   0  -1 344.190 34.7718  10
  -1   0   1 471.096 29.9270   4
  -1   0   1 487.249 36.7583  12
   1   0  -1 459.399 33.2289  12
  -1   0   1 383.629 35.1508  11
   1   0  -1 416.324 44.1366   7
  -1   0   1 432.611 29.5622   6
  -1   0   1 435.207 48.2180   9
  -1   0   0-0.24726 5.54303   9
   1   0   0-6.94559 6.88842  11
   1   0   0-2.15723 10.8322  10
   1   0   0-6.69804 10.3869   1
  -1   0   0 11.5854 9.58895  12
   1   0   0 9.43580 7.70358   3
   1   0   1 8887.06 236.198  10
   1   0   1 8679.69 218.985   1
  -1   0  -1 8693.11 198.532   9
   1   0   2 15.9447 17.9183  10
   1   1  -3 4418.72 177.346   4
  -1  -1   3 4112.22 164.554   6
  -1  -1   3 4307.29 195.198   9
  -1  -1   3 4171.67 171.928  11
  -1  -1   2 116.465 26.5439  11
   1   1  -2 122.240 29.2774   1
  -1  -1   2 113.989 15.3766  10
  -1  -1   2 89.3738 27.1500   9
  -1  -1   2 132.961 17.1356   8
   1   1  -2 106.588 22.6641   4
   1   1  -2 108.817 19.6109   7
  -1  -1   2 95.7231 19.7917   6
  -1  -1   1 99.7027 17.5979   2
  -1   1   1 111.067 24.3899   9
   1  -1  -1 119.412 28.2062  10
  -1  -1   1 106.632 17.1305  10
   1   1  -1 90.5345 16.0393  10
   1  -1  -1 93.9857 21.3137   7
  -1  -1   1 77.9811 21.2934   9
   1   1  -1 67.6016 17.3398   3
  -1  -1   1 100.939 21.5955  11
  -1   1   1 115.336 33.1361  12
   1   1  -1 110.229 17.9079   8
   1  -1   0 2193.57 110.116  10
   1   1   0 2284.75 115.038   3
  -1   1   0 2107.87 111.176   8
  -1  -1   0 1994.94 107.044   9
   1  -1   0 2237.79 104.643   1
   1   1   0 2175.52 97.7390  10
  -1   1   0 1957.16 96.6729  12
   1  -1   0 2106.00 74.2258   5
  -1   1   0 2024.67 90.4059   9
   1  -1   1 7511.41 183.521   1
   1  -1   1 7408.65 124.129   4
   1  -1   1 7428.29 225.758  10
  -1   1  -1 7413.64 166.888   9
  -1   1  -1 7422.86 210.723  12
  -1   1  -2 1119.54 97.9261  12
   1  -1   2 1170.94 96.4001  10
   1  -1   3 217.681 51.6944  10
  -1  -2   5 148.969 48.2251  11
   1   2  -5 85.5503 25.1514   4
  -1  -2   4 131.962 38.3796   6
  -1  -2   4 61.8473 26.0652  11
   1   2  -4 181.211 68.4153   4
  -1  -2   4 111.051 32.0705   9
  -1  -2   3 40.3764 16.1499   9
   1   2  -3 48.3288 10.3824  12
   1   2  -3 66.8828 23.6855   1
   1   2  -3 60.6347 23.4053   4
   1   2  -3 35.0669 10.4977   7
  -1  -2   3 44.5526 21.2298   6
  -1  -2   3 69.0625 22.1390  11
   1   2  -2 5735.13 199.341   1
   1   2  -2 5315.79 179.220   4
  -1  -2   2 5433.63 118.707   7
  -1  -2   2 5295.45 186.541  11
  -1  -2   2 5572.43 202.659   9
   1   2  -1 8055.94 146.532  10
   1   2  -1 8295.11 233.846   1
  -1  -2   1 8025.29 235.921   9
   1  -2  -1 7611.76 549.812  10
  -1  -2   1 8123.55 201.944   2
   1   2   0 1688.36 201.923   3
   1  -2   0 2337.25 123.226  10
  -1   2   0 2533.36 125.952  12
  -1  -2   0 2661.22 138.575   9
   1  -2   1 107.082 23.4475   5
  -1   2  -1 85.7264 15.9347   4
   1  -2   1 88.1756 16.8408   6
  -1   2  -1 82.9612 16.7425   2
   1  -2   1 65.0925 20.6843  10
  -1   2  -1 109.188 18.4585   9
   1  -2   1 114.086 21.1455   1
   1  -2   1 116.610 18.5772   9
   1  -2   1 104.255 26.6237   7
  -1   2  -1 109.617 30.0252  12
  -1   2  -2 77.3565 23.1177  12
  -1   2  -2 73.9366 14.6177   9
   1  -2   2 96.8974 21.2712   6
  -1   2  -2 80.8072 22.2198   4
   1  -2   2 121.159 34.4877  10
   1  -2   2 77.3559 13.3368  11
   1  -2   3 843.008 91.3358  10
  -1   2  -3 808.275 96.1155  12
  -1   2  -4 49.6988 23.7510  12
   1  -2   4 57.1261 31.4156  10
  -1  -3   6 313.872 65.3426   6
   1   3  -6 357.939 72.0668   4
  -1  -3   6 287.357 58.8783  11
   1   3  -6 360.038 58.4370  12
   1   3  -5 3355.97 179.548   1
   1   3  -5 3373.24 208.759   4
  -1  -3   5 3417.88 208.041  11
   1   3  -5 3417.63 152.262  12
  -1  -3   5 3451.26 216.884   9
  -1  -3   5 3247.67 119.108  10
  -1  -3   4 364.146 61.4354   6
  -1  -3   4 456.492 68.4259  11
  -1  -3   4 307.249 25.0654  10
   1   3  -4 431.088 60.7699   1
  -1  -3   4 437.078 69.3965   9
   1   3  -4 407.447 41.3863  12
  -1  -3   4 267.972 26.2219   8
   1   3  -4 406.954 66.9475   4
  -1  -3   3 366.032 55.3074   9
  -1  -3   3 338.010 55.6813   6
   1   3  -3 367.191 35.9085  12
   1   3  -3 352.183 55.0559   4
   1   3  -3 384.995 59.5606   3
   1   3  -3 332.642 52.5947   1
  -1  -3   3 345.715 55.2618  11
  -1  -3   2 746.168 63.5862   5
  -1  -3   2 677.021 39.9002   7
  -1  -3   2 705.342 72.5268   2
   1   3  -2 611.113 68.3021   1
  -1  -3   2 724.588 78.4707   9
  -1  -3   2 693.289 42.8173  12
   1   3  -1 163.125 37.0991   1
  -1  -3   1 163.509 37.2286   9
  -1  -3   1 171.239 38.8266   2
   1  -3   0 1786.18 129.739   7
  -1   3   0 1707.70 124.209  12
   1  -3   0 1938.71 133.862  10
  -1   3  -1 143.691 35.4665  12
   1  -3   1 171.363 34.8921   5
   1  -3   1 212.154 43.5403  10
   1  -3   1 167.739 37.6031   7
   1  -3   1 174.745 21.4405   9
   1  -3   1 166.823 25.3605   1
  -1   3  -1 175.820 43.0739   8
   1  -3   1 202.733 31.6607   2
   1  -3   2 257.207 30.4800   1
   1  -3   2 225.692 43.3052   5
  -1   3  -2 239.034 37.1465   4
  -1   3  -2 267.013 54.4633   8
   1  -3   2 244.815 46.1573   7
  -1   3  -2 231.038 48.2028  12
   1  -3   2 243.064 37.5214   6
   1  -3   2 247.120 53.2584  10
   1  -3   3 4777.08 229.385  10
  -1   3  -3 4857.75 235.963  12
   1  -3   3 4709.35 139.161  11
  -1   3  -3 4992.65 199.801   4
   1  -3   3 4883.23 193.778   6
  -1   3  -4 624.698 78.7556   4
   1  -3   4 654.120 72.8875   6
   1  -3   4 773.788 68.2332  11
  -1   3  -4 724.955 102.137  12
   1  -3   4 695.468 94.2900  10
  -1   3  -4 663.133 54.3431   1
   1  -3   5 1155.79 91.3718  11
  -1   3  -5 1268.86 136.330  12
   1  -3   5 1250.74 137.265  10
  -1   3  -6 125.984 41.9793  12
   1   4  -7 140.057 34.6039  12
  -1  -4   7 56.2024 35.3694  11
   1   4  -7 92.2131 50.6475   4
   1   4  -7 248.343 61.2405   1
  -1  -4   7 168.685 57.4270   6
  -1  -4   6-5.25965 28.3288  11
   1   4  -6 38.9540 39.1023   4
  -1  -4   6 8.44910 23.0326   9
   1   4  -6 6.39915 24.6375  12
  -1  -4   6 6.89874 16.9834  10
   1   4  -6 40.2296 26.8783   1
  -1  -4   6 46.5109 31.9766   6
  -1  -4   5 80.0800 31.7275   6
  -1  -4   5 74.7635 17.4934  10
  -1  -4   5 80.2064 39.2391  11
   1   4  -5 118.912 38.0309   1
  -1  -4   5 99.4254 38.3589   9
   1   4  -5 67.6787 27.4392  12
   1   4  -5 42.2284 31.0155   4
   1   4  -4 4591.76 202.768   1
  -1  -4   4 4589.51 226.583  11
   1   4  -4 4329.81 220.562   3
  -1  -4   4 4592.59 213.865   9
   1   4  -4 4600.49 228.264   4
   1   4  -4 4566.72 160.333  12
  -1  -4   3 182.672 38.2769   5
   1   4  -3 157.573 39.7945   3
  -1  -4   3 209.651 44.1833   9
   1   4  -3 162.631 39.0890   1
  -1  -4   2 495.712 69.7410   9
  -1  -4   2 496.465 61.4950   5
   1   4  -2 404.560 58.2911   1
   1   4  -2 421.429 62.0796   3
  -1  -4   2 438.726 61.1847   2
  -1  -4   1 1641.62 143.317   9
  -1  -4   1 2086.88 172.906   2
   1  -4   0 591.421 126.941  10
  -1   4   0 285.563 66.2032  12
   1  -4   0 638.061 123.124   7
   1  -4   2 2959.99 167.822   5
   1  -4   2 3033.79 174.905  10
  -1   4  -2 3265.76 152.591   4
   1  -4   2 2974.26 94.1183   1
  -1   4  -2 2955.63 178.208   8
  -1   4  -2 3269.38 186.555  12
   1  -4   2 3077.76 166.811   7
   1  -4   3 525.585 78.5089  10
  -1   4  -3 475.324 42.5895   3
  -1   4  -3 494.893 80.0273  12
  -1   4  -3 453.232 63.5335   4
   1  -4   3 525.338 67.1916   6
   1  -4   4 421.420 51.5136  11
   1  -4   4 359.572 67.2445  10
  -1   4  -4 425.970 45.7888   3
   1  -4   4 353.111 61.5041   6
  -1   4  -4 374.759 66.7268   4
  -1   4  -4 409.200 78.5770  12
  -1   4  -5 125.951 53.1448  12
   1  -4   5 107.810 44.2854  10
   1  -4   5 89.9808 37.0961   6
  -1   4  -5 135.946 46.8521   4
   1  -4   5 109.222 31.8753  11
   1  -4   6 2292.17 150.531  11
   1  -4   6 2165.56 193.170  10
  -1   4  -6 1910.38 178.396  12
   1  -4   7-21.0394 32.9527  10
  -1   4  -7 8.66900 18.2078  12
   1  -4   7-4.35324 16.7510  11
  -1  -5   8 769.434 122.140   6
  -1  -5   8 822.489 120.770  11
   1   5  -8 894.296 142.503   4
   1   5  -7 386.728 72.3999   1
  -1  -5   7 419.844 101.182   6
  -1  -5   7 375.906 90.0639  11
   1   5  -7 262.388 75.1038   4
   1   5  -7 342.050 71.3190  12
   1   5  -6 102.211 36.7581  12
  -1  -5   6 106.527 42.7758   6
   1   5  -6 209.234 49.7527   1
  -1  -5   6 106.552 50.2322  11
   1   5  -6 86.3503 43.8924   3
  -1  -5   6 102.698 42.2212   9
   1   5  -6 133.444 51.9095   4
  -1  -5   5 592.244 93.1670  11
  -1  -5   5 461.089 84.1338   6
  -1  -5   5 559.370 82.2995   9
   1   5  -5 518.895 64.7260  12
   1   5  -5 610.229 80.4062   1
   1   5  -5 393.752 72.7450   4
   1   5  -5 407.728 75.9795   3
  -1  -5   4 730.257 91.6927   9
   1   5  -4 840.756 91.0381   1
   1   5  -4 677.796 92.5988   4
   1   5  -4 1077.89 103.427  12
   1   5  -4 701.973 92.5622   3
   1   5  -3 324.208 64.7241   3
   1   5  -3 496.526 76.2746   1
  -1  -5   3 519.625 75.7556   5
   1   5  -3 348.981 35.2142  10
  -1  -5   3 546.634 80.1377   9
   1   5  -3 399.087 34.7448   8
  -1  -5   2 2002.77 165.539   9
  -1  -5   2 2216.14 166.387   5
   1   5  -2 2053.42 168.267   3
   1  -5   1 1823.75 141.915   2
   1  -5   1 2142.51 190.651  10
   1  -5   1 1760.28 156.515   5
   1  -5   1 2005.51 169.847   7
  -1   5  -1 1744.99 162.421  12
  -1   5  -1 1834.19 167.999   8
  -1   5  -2 770.390 101.637  12
   1  -5   2 716.792 90.7965  10
   1  -5   2 727.975 94.2422   5
   1  -5   2 729.651 80.5772   2
   1  -5   2 593.653 40.7430   1
  -1   5  -2 776.259 99.9215   8
   1  -5   2 637.344 81.5730   7
   1  -5   3 391.926 70.8202   5
  -1   5  -3 428.253 68.3678   4
   1  -5   3 380.218 61.3107   6
  -1   5  -3 377.488 70.4722   8
  -1   5  -3 412.628 74.9273  12
   1  -5   3 473.811 76.9253  10
  -1   5  -4 106.170 29.2230   3
  -1   5  -4 64.0539 43.3737  12
   1  -5   4 92.8345 44.7621  10
   1  -5   4 73.3993 37.4454   6
   1  -5   5 96.0301 45.2874   6
  -1   5  -5 69.7614 24.8959   3
  -1   5  -5 127.089 62.5886  12
  -1   5  -5 75.2190 41.8292   4
   1  -5   5 21.5471 35.7832  10
   1  -5   6 892.396 138.997  10
  -1   5  -6 766.671 121.686   4
   1  -5   6 984.639 105.813  11
  -1   5  -6 941.324 144.501  12
   1  -5   6 916.049 116.853   6
  -1   5  -7 215.068 62.7790  12
   1  -5   7 189.135 70.7284  10
   1   6  -9 227.541 76.7870   4
  -1  -6   9 208.982 71.2652   6
  -1  -6   9 228.678 68.5168  11
   1   6  -9 132.335 58.6284   3
  -1  -6   8 104.312 33.9688  11
  -1  -6   8 198.193 84.6414   6
   1   6  -8 58.0227 34.9943   4
   1   6  -8 213.853 74.9268   3
  -1  -6   7 41.1647 42.9544   6
   1   6  -7 77.5873 52.6014   3
   1   6  -7 47.4547 33.6402   4
  -1  -6   7-1.68310 46.4810  11
  -1  -6   6 105.878 52.3868   6
  -1  -6   6 147.826 48.7962   9
   1   6  -6 83.0319 32.2905   3
   1   6  -6 148.880 40.7373   1
   1   6  -6 69.2905 38.0241   4
   1   6  -6 64.2383 28.2515  12
   1   6  -5 564.608 77.0783   1
  -1  -6   5 427.624 78.3801   9
  -1  -6   5 507.746 90.2337   6
   1   6  -5 375.368 81.8300   4
   1   6  -5 667.412 92.0161  12
   1   6  -4 994.152 123.353   4
  -1  -6   4 1023.59 120.273   5
  -1  -6   4 974.816 111.210   9
   1   6  -4 921.163 115.748   3
  -1  -6   3 1538.36 167.389   2
   1   6  -3 1335.58 144.975   3
  -1  -6   3 1398.19 143.810   9
   1   6  -3 1551.32 93.1970   8
  -1  -6   2 1890.53 195.635   9
   1   6  -2 986.896 181.580   3
  -1  -6   2 1809.19 199.689   2
   1  -6   1 755.796 127.086   5
  -1   6  -1 535.540 111.590  12
   1  -6   1 593.871 97.8384   2
  -1   6  -1 709.126 121.032   8
   1  -6   2 838.603 60.0668   9
  -1   6  -2 1319.93 152.585  12
   1  -6   2 1304.43 151.033  10
   1  -6   2 978.500 125.653   5
   1  -6   2 1302.69 132.592   2
  -1   6  -2 1281.31 144.348   8
   1  -6   2 1187.43 126.619   7
   1  -6   3-8.55806 30.5198   5
   1  -6   3 35.0213 32.4592  10
  -1   6  -3-12.2648 25.3609  12
  -1   6  -3-7.39094 30.3700   8
   1  -6   4-7.06530 20.4064   6
   1  -6   4 3.84978 22.3451  10
  -1   6  -4 34.2057 29.7861   4
  -1   6  -4-22.5370 34.4513  12
  -1   6  -5 293.057 79.3715  12
   1  -6   5 278.829 67.2175   6
  -1   6  -5 299.396 72.1539   4
   1  -6   5 307.484 73.7526  10
   1  -6   6 102.277 40.8852   6
  -1   6  -6 42.6162 46.7081  12
  -1   6  -6 109.331 53.1003   4
   1  -6   6 115.271 57.1674  10
   1  -6   7 313.889 70.5245   6
  -1   6  -7 305.633 91.6928  12
   1  -6   7 350.803 85.5777  10
  -1   6  -7 268.777 77.7207   4
  -1   6  -8 335.867 83.5627  12
   1  -6   8 350.110 89.8592  10
   1   7 -10-87.7436 77.3175   4
   1   7 -10-12.0051 34.4972   3
   1   7  -9 25.3819 31.3137   3
   1   7  -9 36.8912 64.6892   4
  -1  -7   9 26.2317 46.9937   6
  -1  -7   8 464.580 134.837   6
   1   7  -8 354.468 115.946   4
  -1  -7   7 62.0689 33.3880   6
   1   7  -7 111.007 56.2733   4
   1   7  -7 38.9240 38.6268   3
  -1  -7   6 3170.13 227.562   9
  -1  -7   6 2512.86 220.384   6
   1   7  -6 2155.08 205.261   4
   1   7  -6 2271.08 209.904   3
  -1  -7   5-65.9747 31.5591   9
   1   7  -5-16.9680 30.4875   3
  -1  -7   5-75.1807 64.9094   6
   1   7  -5 10.3571 38.1971   4
  -1  -7   4 338.593 74.7992   9
   1   7  -4 264.023 75.1063   3
  -1  -7   4 318.752 84.0014   5
   1   7  -3 153.002 76.2819   3
  -1  -7   3 52.7032 49.8527   5
  -1  -7   3 113.403 53.0670   9
  -1  -7   3 95.2583 49.5574   2
   1   7  -3 129.756 35.4926   8
  -1   7  -2 802.261 148.767  12
   1  -7   2 821.919 136.873   5
   1  -7   2 1089.76 235.461  10
  -1   7  -2 862.587 135.621   8
   1  -7   2 806.548 124.434   2
  -1   7  -3 289.514 85.8679  12
   1  -7   3 261.091 70.3128   5
   1  -7   3 210.664 60.4472  10
  -1   7  -3 161.797 59.4212   8
  -1   7  -3 175.513 54.8815   4
  -1   7  -4 2844.57 233.569  12
   1  -7   4 2811.77 220.697   5
  -1   7  -4 2808.08 209.062   4
   1  -7   4 2700.90 197.550   6
   1  -7   4 2780.46 214.066  10
  -1   7  -5-24.3423 43.3969  12
   1  -7   5 32.6793 46.8857  10
  -1   7  -5 85.9285 52.5090   4
   1  -7   5 51.0236 38.2221   6
  -1   7  -6 28.3840 32.4226   4
  -1   7  -6 5.13720 37.7882  12
   1  -7   6-41.9654 32.0977   6
   1  -7   6 30.9954 36.8199  10
  -1   7  -7 88.6182 50.2833  12
   1  -7   7 40.6152 57.9737  10
   1  -7   7 62.8742 51.1546   6
  -1   7  -7 53.8291 51.7842   4
  -1   7  -8 135.500 64.2109  12
   1  -7   8 82.6289 55.4310  10
   1  -7   8-23.9756 45.0315   6
  -1   7  -9 53.5803 38.8025  12
  -1  -8  10 42.7040 32.5024   6
   1   8 -10 243.056 90.7901   4
  -1  -8   9 230.641 80.5514   6
   1   8  -9 216.744 81.4402   3
   1   8  -9 28.1786 54.1269   4
  -1  -8   8 228.461 93.4216   6
   1   8  -8 247.154 93.7644   3
   1   8  -8 197.867 74.7264   4
  -1  -8   7 160.626 67.1166   6
   1   8  -7 233.252 78.1355   3
   1   8  -7-13.1899 30.7606   4
   1   8  -6-22.5245 35.7728   3
  -1  -8   6 14.0641 51.6619   6
   1   8  -6-11.9635 34.9883   4
   1   8  -5 552.013 113.165   3
  -1  -8   5 752.344 120.767   9
   1   8  -5 405.018 108.400   4
   1   8  -4 304.588 114.957   3
  -1  -8   4 207.355 91.6745   5
  -1  -8   4 102.327 45.8554   9
  -1  -8   4 104.423 74.1954   2
  -1  -8   3 851.463 158.834   5
  -1  -8   3 773.844 155.470   9
  -1  -8   3 736.473 158.116   2
   1  -8   3 191.548 82.1468   2
   1  -8   3 213.741 82.1721   7
   1  -8   3 248.769 86.7420   5
   1  -8   3 185.002 86.1610  10
  -1   8  -3 88.0921 46.3616   8
  -1   8  -3 97.7652 60.1014  12
   1  -8   4 2.43759 27.0873   6
   1  -8   4-52.9532 40.9201   5
   1  -8   4-33.8240 36.3902  10
  -1   8  -4 68.6313 53.4476   8
  -1   8  -4 0.87848 31.8454   4
   1  -8   5 510.502 99.0734   6
   1  -8   5 605.571 121.038  10
  -1   8  -5 490.453 109.211  12
  -1   8  -5 492.950 102.213   4
   1  -8   6 74.9330 53.2718   6
   1  -8   6 181.730 66.2871  10
  -1   8  -6 125.697 72.1300  12
  -1   8  -6 96.0946 66.0853   4
   1  -8   7 115.692 53.1608   6
   1  -8   7 164.370 71.0945  10
  -1   8  -7 99.3581 59.5964   4
  -1   8  -7 224.456 91.2857  12
   1  -8   8 297.985 76.2573   6
  -1   8  -8 289.748 86.4166   4
  -1   8  -8 402.931 110.557  12
  -1   8  -9 70.6600 57.9231  12
   1   9  -9 382.436 120.570   4
  -1  -9   9 464.150 132.244   6
   1   9  -8 50.4367 45.2567   3
   1   9  -8 165.912 83.1038   4
   1   9  -7 163.004 91.1964   3
  -1  -9   7 179.077 86.3139   6
   1   9  -7 198.419 90.8507   4
   1   9  -6-13.3947 54.2639   3
   1   9  -6-31.1386 69.5633   4
  -1  -9   5-47.0988 52.8214   5
   1   9  -5 80.2546 64.6128   4
   1   9  -5 138.904 72.7146   3
  -1  -9   4 388.255 109.438   9
  -1  -9   4 345.495 123.332   5
  -1  -9   4 544.105 163.780   2
   1  -9   4 74.0396 72.5868   5
  -1   9  -4 88.4967 42.5676   4
  -1   9  -4 82.1734 71.5888   8
  -1   9  -4 160.657 108.125  12
  -1   9  -5-61.6928 73.1780  12
  -1   9  -5 34.6882 38.5092   4
   1  -9   5 26.1367 52.5756   6
  -1   9  -6 93.8605 79.7285  12
   1  -9   6 145.258 77.8920  10
   1  -9   6 206.857 87.0061   6
  -1   9  -6 65.8814 63.5533   4
  -1   9  -7 231.458 81.0372  12
  -1   9  -7 233.405 97.0137   4
   1  -9   7 202.227 70.0929   6
   1  -9   8 75.7804 54.0059   6
  -1   9  -8 67.5663 46.4301   4
  -1   9  -8-5.60308 60.2947  12
  -1   9  -9 88.8557 68.5677  12
   1  -9   9-53.3210 60.3657   6
  -1 -10   8 228.701 113.125   6
   1  10  -8 298.867 113.085   4
  -1 -10   7 358.166 138.614   6
   1  10  -7 253.611 97.4176   4
   1  10  -7 432.089 174.986   3
   1  10  -6-80.3067 58.3844   4
  -1 -10   6 87.8740 91.2287   6
  -1 -10   5 281.952 91.5748   5
   1  10  -5 419.819 131.119   4
   1 -10   4 65.5007 91.2150   5
  -1  10  -4-68.6942 43.6257   8
  -1  10  -4 125.551 80.0056   4
   1 -10   5 261.049 113.143   6
  -1  10  -5 168.291 90.3791  12
  -1  10  -5 291.946 108.049   4
  -1  10  -6 278.668 81.4068  12
  -1  10  -6 399.793 126.559   4
   1 -10   6 558.280 136.572   6
   1 -10   7 71.8522 62.9163   6
  -1  10  -7-28.7033 75.5933  12
  -1  10  -7-14.1280 54.9187   4
  -1  10  -8-46.1624 87.5869  12
   1 -10   8-46.1240 46.8571   6
  -1  10  -8-19.9873 80.0157   4
  -1 -11   7 553.279 180.161   6
   1  11  -7 543.843 164.828   4
   1  11  -6 149.958 138.702   4
   1 -11   5 95.8543 100.538   6
  -1  11  -5 80.9312 80.0441   4
  -1  11  -6 72.9871 89.3736  12
   1 -11   6 24.7080 68.1368   6
  -1  11  -6-88.9707 78.1676   4
  -1  11  -7 81.1134 135.823  12
   1 -11   7 232.621 143.169   6
  -1  11  -7 255.930 147.704   4
   1 -12   6 227.184 152.393   6
  -2   0   4 1673.77 145.823  11
  -2   0   4 1440.87 157.485   9
   2   0  -4 1366.28 126.339   7
  -2   0   3 13.4051 20.3442  11
  -2   0   3 28.0944 31.3759   9
   2   0  -3-20.7305 22.8294   7
  -2   0   3-14.9523 12.1931   8
  -2   0   2 6663.38 277.479   9
   2   0  -2 6749.27 253.406   7
  -2   0   2 6826.40 219.722  11
   2   0  -2 6977.15 239.262  10
  -2   0   2 6725.56 235.383   8
  -2   0   1-79.1202 32.9106  12
   2   0  -1-105.224 60.4597   1
   2   0  -1-25.0049 29.8787  10
  -2   0   1-27.5225 28.5634   9
   2   0  -1-54.4372 34.4053   3
  -2   0   1-55.3229 36.2503   8
  -2   0   0 257.027 44.4237  12
   2   0   0 334.151 62.7174   1
   2   0   0 245.200 42.1057   3
  -2   0   0 310.320 57.4075   9
   2   0   0 312.832 57.3527  10
   2   0   1 1.98692 20.6555  10
   2   0   1 17.5511 23.4391   1
  -2   0  -1-18.7214 20.3471  12
  -2   0  -1-10.8320 20.1194   9
   2   0   2 677.131 93.4635  10
  -2   0  -2 535.153 71.8988   9
  -2   0  -2 567.000 81.8136  12
  -2  -1   5 314.429 65.7943  11
   2   1  -5 355.791 66.1993   7
  -2  -1   5 391.525 93.1125   9
  -2  -1   4 1417.60 131.204  11
   2   1  -4 1494.79 144.017   1
  -2  -1   4 1547.88 155.393   9
  -2  -1   4 1462.25 92.4066   8
   2   1  -4 1493.22 113.089   7
   2   1  -4 1406.59 63.2533  12
   2   1  -3 17.0512 16.5356   7
  -2  -1   3 28.3704 15.5351   6
   2   1  -3 14.0497 8.56139   5
   2   1  -3 22.6546 10.3130  12
   2   1  -3 26.9429 15.9569   4
  -2  -1   3 21.8642 31.3594   9
   2   1  -3-8.25649 24.9008   1
  -2   1   3 36.2422 24.5727   9
  -2  -1   3 12.9760 13.8922   8
   2  -1  -3 33.5313 22.9010   7
  -2  -1   3 45.6660 29.0296  11
  -2  -1   2 152.674 41.8809  12
  -2  -1   2 56.5707 18.5349   6
   2   1  -2 57.1887 22.3153  10
  -2  -1   2 104.860 38.0425   9
   2  -1  -2 95.9259 38.6576   1
   2   1  -2 58.4113 28.1034   3
  -2   1   2 61.3783 33.3500   9
   2   1  -2 69.5026 19.0780   4
   2  -1  -2 126.154 39.8323  10
  -2   1   2 96.3288 35.3474   8
  -2   1   2 45.9094 15.8695  11
   2  -1  -2 70.3860 30.9030   7
  -2  -1   2 62.2437 19.9085  11
   2   1  -1 1555.27 114.596   3
  -2   1   1 1882.97 93.1330  11
   2  -1  -1 1606.41 133.215   1
   2  -1  -1 1674.10 122.857  10
   2  -1  -1 1710.29 66.1998   5
  -2   1   1 1621.68 127.593   9
   2   1  -1 1761.18 83.8013   4
  -2   1   1 1618.85 131.192   8
   2   1  -1 1684.72 115.944  10
   2  -1  -1 1589.39 133.028   7
  -2  -1   1 1659.59 87.5090  12
  -2   1   1 1695.60 115.542  12
  -2  -1   1 1723.50 134.651   9
   2  -1   0 437.663 70.8738   1
   2   1   0 479.889 66.5813  10
   2  -1   0 530.078 76.3679  10
  -2  -1   0 471.405 71.6942   9
  -2   1   0 466.711 66.1423   9
  -2  -1   0 472.012 55.8108  12
  -2   1   0 452.299 62.7494  12
  -2  -1   0 454.529 38.6754   2
  -2   1   0 512.791 73.8279   8
   2  -1   0 451.410 46.7673   3
   2   1   0 728.416 94.6535   3
   2   1   0 505.115 78.5159   1
   2   1   1 2867.81 195.021   1
   2   1   1 2519.81 167.336  10
   2  -1   1 2908.04 190.596  10
   2  -1   1 2572.73 161.843   1
  -2  -1  -1 2343.17 155.821   9
  -2   1  -1 2868.23 158.877   9
  -2  -1  -1 2462.70 149.614  12
  -2   1  -1 2412.54 158.502  12
   2  -1   2 2172.13 169.210  10
  -2   1  -2 2532.17 182.082  12
  -2   1  -2 2577.06 152.823   9
  -2   1  -3 212.867 64.4118  12
  -2   1  -3 167.742 40.2403   9
   2  -1   3 193.147 59.0425  10
  -2  -2   6 1898.59 179.935  11
  -2  -2   6 1691.48 204.625   9
   2   2  -6 1844.83 198.675   1
   2   2  -6 1916.82 140.492   7
  -2  -2   5 1914.73 165.528  11
   2   2  -5 1756.79 164.628   1
   2   2  -5 1673.16 140.532   4
  -2  -2   5 2026.12 188.299   9
  -2  -2   5 1926.87 92.4664   8
   2   2  -5 1937.37 117.316   7
   2   2  -4 1485.44 139.438   1
  -2  -2   4 1584.68 137.953  11
  -2  -2   4 1441.48 147.395   9
   2   2  -4 1577.21 127.733   4
  -2  -2   4 1581.68 76.6696   8
   2   2  -4 1521.70 101.977   7
  -2  -2   4 1565.86 128.589   6
  -2  -2   3 440.003 68.4046  11
   2   2  -3 554.258 82.9177   1
  -2  -2   3 501.495 82.4287   9
   2   2  -3 493.195 65.0882   4
  -2  -2   3 551.060 67.4930   6
  -2  -2   2 381.423 49.3140   6
  -2  -2   2 491.948 44.8387  12
   2  -2  -2 312.611 63.7315   7
   2  -2  -2 563.990 139.867  10
   2   2  -2 353.905 63.7544   3
   2   2  -2 460.918 59.1913   4
   2   2  -2 337.267 42.7878  10
  -2  -2   2 431.249 75.1669   9
   2   2  -2 461.319 78.9727   1
  -2   2   2 234.587 52.9396   9
  -2   2   2 405.416 73.5896   8
   2  -2  -1 259.300 54.7572   7
  -2   2   1 268.733 32.5855  11
   2   2  -1 250.866 43.9380  10
   2   2  -1 232.653 50.6185   3
   2  -2  -1 247.017 54.7001  10
   2  -2  -1 245.744 31.5806   5
   2  -2  -1 289.304 53.9833   1
  -2   2   1 347.222 61.0303   9
  -2   2   1 270.542 56.6404  12
  -2  -2   1 259.909 37.3630   2
  -2   2   1 278.699 58.8591   8
  -2  -2   1 240.672 55.0849   9
  -2  -2   1 284.307 33.7279  12
   2   2   0 261.988 61.9440   3
   2   2   0 470.736 65.5437  10
   2  -2   0 452.330 42.6814   3
   2  -2   0 543.269 80.3573  10
   2  -2   0 474.364 51.4519   5
  -2  -2   0 406.270 69.9247   9
  -2   2   0 434.597 62.9060   9
   2  -2   0 441.655 65.9406   1
  -2   2   0 482.016 70.9554  12
   2  -2   1 136.162 42.7663  10
   2  -2   1 153.116 39.0908   1
  -2   2  -1 204.078 43.6578   9
  -2   2  -1 143.968 46.1792  12
   2  -2   2 399.914 83.7354  10
   2  -2   2 391.374 67.9501   1
  -2   2  -2 404.757 56.1384   9
  -2   2  -2 406.416 75.9575  12
   2  -2   3 269.949 68.0664  10
  -2   2  -3 339.290 54.2373   9
  -2   2  -3 332.953 78.7144  12
   2  -2   4 1358.17 159.886  10
  -2   2  -4 1442.33 110.452   9
  -2   2  -4 1357.60 151.694  12
   2   3  -7 567.310 119.921   1
  -2  -3   7 554.500 105.138  11
   2   3  -7 257.677 46.6837   4
  -2  -3   6 116.792 41.3498   6
  -2  -3   6 218.815 63.5989  11
   2   3  -6 124.101 38.2054   4
  -2  -3   6 240.279 81.3146   9
   2   3  -6 149.923 46.6471   1
  -2  -3   5 21.0348 19.9394   6
  -2  -3   5 77.2153 41.2672  11
  -2  -3   5-4.43000 31.2501   9
   2   3  -5-1.99287 23.5244   4
   2   3  -5 11.7307 25.8485   1
  -2  -3   4 738.483 100.025  11
   2   3  -4 669.143 88.0386   4
  -2  -3   4 711.967 104.124   9
   2   3  -4 751.594 101.860   3
   2   3  -4 796.588 102.757   1
   2   3  -3 282.608 62.7332   1
   2   3  -3 230.669 51.4558   3
  -2  -3   3 285.297 66.6371   9
  -2  -3   3 225.685 48.1310   6
   2   3  -3 266.490 53.8618   4
   2   3  -2 762.190 100.199   1
   2  -3  -2 292.921 77.3171   7
   2   3  -2 793.983 60.9703  10
  -2  -3   2 680.495 95.6424   9
  -2  -3   2 803.701 82.8892   2
  -2   3   1 409.785 76.8945  12
   2   3  -1 320.898 47.6833  10
   2  -3  -1 283.064 66.9740  10
  -2  -3   1 219.741 48.2192   9
   2   3  -1 343.166 67.8877   1
  -2  -3   1 303.247 52.2132   2
   2  -3   0 3413.59 182.981   1
   2  -3   0 3551.84 210.261  10
   2  -3   0 3355.66 152.198   5
  -2   3   0 3637.20 210.293  12
  -2  -3   0 3328.42 212.357   9
  -2   3   0 2966.94 197.953   9
  -2   3   0 3270.84 91.0937   4
   2  -3   1 85.0862 20.9253   6
   2  -3   1 0.81115 22.7611  10
  -2   3  -1 28.4797 11.4434   4
   2  -3   1 18.1182 11.6868   1
  -2   3  -1 36.9443 13.0337   9
  -2   3  -1-7.56084 20.7293   8
   2  -3   1 13.5867 18.1405   7
  -2   3  -1-0.39636 18.2805  12
   2  -3   2 508.124 89.6167  10
  -2   3  -2 488.554 58.1325   9
  -2   3  -2 485.252 83.9165  12
   2  -3   2 447.934 64.1246   1
  -2   3  -3 719.176 110.147  12
   2  -3   3 746.584 116.696  10
  -2   3  -3 825.594 71.6412   9
  -2   3  -4 90.1192 48.4220  12
   2  -3   4 27.5891 29.7246  10
   2  -3   5 129.470 51.4490  10
  -2   3  -5 111.883 44.5297  12
  -2  -4   7 314.774 78.8773   6
   2   4  -7 395.829 93.6638   1
   2   4  -7 272.966 81.4895   4
  -2  -4   7 416.338 112.822   9
  -2  -4   7 358.846 77.0166  11
  -2  -4   6 314.520 77.0062   6
  -2  -4   6 299.447 77.7701  11
   2   4  -6 427.631 88.4156   1
   2   4  -6 263.346 74.6032   4
  -2  -4   6 372.867 87.2054   9
  -2  -4   5-11.1267 29.0933  11
  -2  -4   5 42.8224 35.6775   6
  -2  -4   5-13.8841 22.0422   9
   2   4  -5 27.8889 29.7365   3
   2   4  -5 50.7316 34.0250   4
   2   4  -5 35.2934 37.2970   1
  -2  -4   4 165.397 46.3191   6
   2   4  -4 263.864 65.0844   3
  -2  -4   4 162.809 53.9866   9
   2   4  -4 199.566 58.8440   4
   2   4  -4 229.479 60.4462   1
   2   4  -3 2950.37 201.358   3
  -2  -4   3 3170.47 218.060   9
   2   4  -3 3085.77 185.835   4
   2   4  -3 2925.39 200.686   1
   2   4  -2 11.8431 11.2695  10
   2   4  -2 32.8740 26.7829   3
  -2  -4   2 41.4402 15.0359   5
  -2  -4   2 19.4496 16.6391   9
   2   4  -2 2.12957 21.6095   1
  -2  -4   2 10.6477 26.7792   2
   2  -4  -1 2761.59 284.016  10
  -2  -4   1 1668.99 162.090   9
  -2   4   1 1767.27 185.843   8
  -2  -4   1 1720.13 151.925   2
   2  -4  -1 1954.74 206.267   7
   2   4  -1 1622.88 162.867   1
   2   4  -1 2490.63 243.699   3
  -2   4   0 89.8535 41.8200  12
   2  -4   0 84.8115 44.1663  10
   2  -4   0 51.3424 33.0237   1
   2  -4   0 68.5507 28.8252   5
  -2   4   0 83.6640 45.9619   8
   2  -4   0 105.614 25.0906   2
   2  -4   0 54.8051 34.3574   7
   2  -4   1 1075.45 93.8289   1
   2  -4   1 1072.59 125.058  10
   2  -4   1 1102.03 103.115   5
  -2   4  -1 1136.30 73.2389   4
  -2   4  -1 1100.54 138.404   8
   2  -4   1 966.653 114.808   7
  -2   4  -1 1018.57 120.805  12
   2  -4   1 1120.81 72.8425   6
   2  -4   2 123.159 32.6456   6
   2  -4   2 185.375 61.0528  10
  -2   4  -2 89.1919 46.4478  12
  -2   4  -2 189.332 35.6634   4
  -2   4  -2 138.883 58.3808   8
   2  -4   2 211.982 48.7017   1
   2  -4   3 36.5783 16.6036   6
   2  -4   3 79.4558 46.2446  10
  -2   4  -3 90.0215 40.2641  12
   2  -4   4 442.134 88.2690  10
  -2   4  -4 604.578 107.831  12
   2  -4   5 58.6990 60.4988  10
  -2   4  -5-83.7112 65.7113  12
   2  -4   6 141.559 61.8676  10
  -2   4  -6 162.947 73.0652  12
  -2  -5   8 419.243 95.2676   6
  -2  -5   8 408.989 99.0065  11
   2   5  -8 369.142 104.633   4
   2   5  -8 596.890 116.766   1
  -2  -5   7 1389.15 170.080  11
   2   5  -7 1858.75 188.115   1
   2   5  -7 1370.05 173.746   4
  -2  -5   7 1671.51 198.448   9
  -2  -5   7 1525.26 178.070   6
   2   5  -7 1482.82 184.985   3
  -2  -5   6 273.976 74.3557   6
   2   5  -6 259.537 74.2045   1
   2   5  -6 335.601 86.2453   3
  -2  -5   6 287.107 75.0504   9
   2   5  -6 274.027 81.0622   4
   2   5  -5-12.5633 37.4417   1
  -2  -5   5 6.12428 32.8254   6
   2   5  -5 0.70978 26.4633   3
  -2  -5   5 44.3082 36.9125   9
   2   5  -5 76.9267 45.6963   4
  -2  -5   4-20.4412 18.1434   6
   2   5  -4-13.9891 20.4986   3
  -2  -5   4 65.8785 43.5241   9
   2   5  -4-8.84286 32.0990   1
   2   5  -4 3.92053 23.9946   4
  -2  -5   3 1208.83 146.525   9
  -2  -5   3 1028.39 89.0516   5
  -2  -5   3 1139.62 124.019   2
   2   5  -3 1074.67 127.418   1
   2   5  -3 1231.71 140.034   3
   2   5  -2 184.065 63.1953   3
   2   5  -2 139.180 33.8228  10
   2   5  -2 186.913 60.9181   1
  -2  -5   2 144.634 42.4209   5
  -2  -5   2 98.9802 41.6878   9
  -2   5  -1 616.777 108.550  12
   2  -5   1 591.717 72.9745   1
   2  -5   1 529.975 94.6516  10
   2  -5   1 417.526 74.1748   5
  -2   5  -1 753.824 74.9786   4
   2  -5   1 488.842 91.1511   7
  -2   5  -1 498.951 97.8433   8
   2  -5   2 1043.35 95.4730   1
   2  -5   2 625.329 102.742  10
   2  -5   2 549.357 84.7974   5
  -2   5  -2 767.631 76.8355   4
  -2   5  -2 593.400 106.646   8
   2  -5   2 695.703 106.806   7
  -2   5  -2 763.543 113.236  12
   2  -5   2 775.131 75.4821   6
   2  -5   3 1279.60 149.295  10
  -2   5  -3 1650.83 128.515   4
  -2   5  -3 1340.43 159.528  12
   2  -5   3 1556.41 120.578   6
   2  -5   4 222.487 49.2252   6
  -2   5  -4 310.475 98.0362  12
   2  -5   4 313.473 89.0146  10
   2  -5   5 31.8467 42.4117  10
  -2   5  -5 137.847 68.1447  12
  -2   5  -6 128.950 49.3471  12
   2  -5   6 102.221 49.3058  10
   2  -5   7 133.253 60.7622  10
  -2   5  -7 53.4370 26.4464  12
  -2  -6   9 304.632 85.9068   6
  -2  -6   9 296.977 102.144  11
   2   6  -9 212.506 67.2745   4
   2   6  -9 257.087 76.8040   3
  -2  -6   8 12.2232 38.2709   6
   2   6  -8 33.9897 51.1446   3
   2   6  -8-58.1889 46.3501   4
  -2  -6   8 71.7831 66.1377   9
   2   6  -7 1.77132 33.0964   1
  -2  -6   7 87.8634 58.0141   6
   2   6  -7-23.4327 34.2425   3
  -2  -6   7-4.55746 39.0663   9
   2   6  -7 7.41142 31.3048   4
  -2  -6   6 271.308 66.8617   6
   2   6  -6 324.727 86.2188   3
  -2  -6   6 342.665 92.5237   9
   2   6  -6 312.176 87.4660   4
   2   6  -6 473.706 87.4674   1
  -2  -6   5 1466.48 157.134   6
  -2  -6   5 1594.06 184.021   9
   2   6  -5 1431.67 159.369   4
   2   6  -5 1730.06 170.780   1
   2   6  -5 1381.67 158.856   3
  -2  -6   4 1079.01 150.230   9
   2   6  -4 949.919 126.857   4
   2   6  -4 1030.20 132.324   1
   2   6  -4 934.712 132.011   3
   2   6  -3 181.748 73.6323   3
  -2  -6   3 227.463 73.3481   9
  -2  -6   3 208.970 80.1049   2
   2   6  -2 1244.33 218.791   3
  -2  -6   2 846.800 118.877   5
  -2  -6   2 704.429 140.139   9
  -2  -6   2 839.871 143.773   2
  -2   6   0 0.28538 50.5234  12
   2  -6   0 66.4683 74.9243  10
   2  -6   0 62.0433 120.696   5
  -2   6   0-1.75512 62.4700   8
   2  -6   0-4.15711 63.7098   7
   2  -6   1 1460.22 132.107   1
   2  -6   1 1454.77 179.112  10
   2  -6   1 1325.79 163.849   5
   2  -6   1 1664.29 144.014   2
  -2   6  -1 1372.03 191.442   8
   2  -6   1 1310.31 178.740   7
  -2   6  -1 1384.05 180.309  12
  -2   6  -2 91.8947 55.3157  12
   2  -6   2 34.1381 23.2037   6
   2  -6   2 32.3794 33.4482  10
   2  -6   2 103.198 48.6503   5
  -2   6  -2 28.2151 52.1744   8
  -2   6  -2 31.9567 24.2745   4
   2  -6   2-16.7453 40.3814   7
   2  -6   3 171.652 53.3934   6
   2  -6   3 123.636 50.9644  10
  -2   6  -3 132.507 59.7009  12
   2  -6   4 393.403 70.1770   6
   2  -6   4 432.733 102.715  10
  -2   6  -4 413.945 80.4909   4
  -2   6  -4 432.796 105.082  12
   2  -6   5 346.009 86.0039  10
  -2   6  -5 349.305 86.3397  12
   2  -6   6 164.292 76.7298  10
  -2   6  -6 342.488 103.132  12
   2  -6   7 117.075 82.2869  10
  -2   6  -7 167.800 84.2252  12
  -2  -7  10 9.05793 29.7693   6
   2   7 -10-75.1256 48.4253   3
   2   7 -10 27.0563 65.0423   4
  -2  -7   9 583.261 129.551   6
   2   7  -9 625.850 144.620   3
   2   7  -9 652.780 145.520   4
  -2  -7   8 16.8703 35.6508   6
   2   7  -8-4.32928 56.6327   3
   2   7  -8 58.4820 43.3757   4
  -2  -7   8 15.1753 63.9619   9
  -2  -7   7 49.6667 31.3964   6
   2   7  -7 69.5609 53.3196   3
  -2  -7   7 47.8077 44.6927   9
   2   7  -7 9.52701 51.7890   4
   2   7  -6-35.7575 41.8422   3
  -2  -7   6 33.3342 35.1379   6
   2   7  -6 35.4450 29.1483   1
  -2  -7   6-47.2831 56.2712   9
   2   7  -6-6.84380 36.0495   4
   2   7  -5 231.774 74.2784   1
   2   7  -5 255.263 80.0927   3
  -2  -7   5 159.502 66.6707   6
  -2  -7   5 217.679 71.2822   9
   2   7  -5 149.264 56.7881   4
  -2  -7   4-39.8542 27.5065   5
   2   7  -4-22.9166 40.7380   3
  -2  -7   4 10.6984 37.9659   9
   2   7  -4 18.2136 66.2270   4
   2   7  -3 466.668 125.707   3
  -2  -7   3 445.444 90.5092   5
  -2  -7   3 495.445 126.149   9
  -2  -7   3 669.413 153.998   2
  -2   7  -2 49.5870 44.6984  12
   2  -7   2-21.4600 43.1310  10
   2  -7   2-24.3206 32.1671   5
  -2   7  -2 48.3527 47.2821   8
   2  -7   2 19.2820 58.5238   7
  -2   7  -3 114.440 66.2780  12
   2  -7   3 15.4128 39.3863   6
   2  -7   3-24.6375 34.6912   5
   2  -7   3 26.3380 53.3678  10
  -2   7  -3-23.7929 42.9501   8
  -2   7  -3 75.8637 46.4876   4
   2  -7   4 18.7468 29.1707  10
  -2   7  -4 11.1931 52.9228  12
   2  -7   5 141.080 71.8661  10
  -2   7  -5 304.119 98.9811  12
   2  -7   6 28.6684 49.8711  10
  -2   7  -6 4.57313 45.4292  12
   2  -7   7 8.47589 49.7207  10
  -2   7  -7-34.5200 53.6021  12
   2  -7   8-40.9634 68.3421  10
  -2   7  -8 13.7153 55.1379  12
   2   8 -10 26.6878 41.7252   3
  -2  -8   9 169.576 72.0320   6
   2   8  -9 85.0240 45.7165   3
   2   8  -9 294.915 108.114   4
  -2  -8   8 43.1004 56.5325   6
   2   8  -8 76.4465 82.2170   3
   2   8  -8 114.390 72.1390   4
  -2  -8   7 96.8447 56.9548   6
   2   8  -7 86.9917 44.9144   3
  -2  -8   7 130.879 94.3901   9
   2   8  -7 124.734 52.5785   4
   2   8  -6 49.1932 64.9271   3
  -2  -8   6-32.0276 53.3521   6
  -2  -8   6-12.2744 46.7918   9
   2   8  -6 92.5994 75.5102   4
   2   8  -5 718.391 145.185   3
  -2  -8   5 662.299 131.212   6
  -2  -8   5 753.562 151.199   9
   2   8  -5 1016.24 172.419   4
   2   8  -4 531.755 143.818   3
  -2  -8   4 555.381 113.155   5
  -2  -8   4 505.023 138.947   9
  -2   8  -2 348.239 129.051  12
   2  -8   2 245.667 139.082   7
   2  -8   2 187.623 90.9371   5
  -2   8  -2 100.836 84.2951   8
  -2   8  -2 80.6205 50.2957   4
  -2   8  -3 174.364 71.4514  12
   2  -8   3 159.599 70.9985   5
   2  -8   3 236.165 98.4887  10
  -2   8  -3 296.659 107.991   8
   2  -8   3 331.127 112.866   7
  -2   8  -4 63.4621 68.7259  12
   2  -8   4 18.0581 48.8740  10
   2  -8   5 374.203 108.952  10
  -2   8  -5 228.714 99.6574  12
   2  -8   6 176.828 80.5769  10
  -2   8  -6 321.839 121.660  12
   2  -8   7-100.016 75.0169  10
  -2   8  -7 3.46519 81.0839  12
   2  -8   8-23.8495 54.7441  10
   2   9  -9-95.4327 61.0512   3
  -2  -9   8 339.844 129.267   6
   2   9  -8 398.715 123.526   3
   2   9  -8 323.962 121.474   4
   2   9  -7 449.887 118.072   3
  -2  -9   7 437.254 115.971   6
   2   9  -7 260.004 88.7902   4
   2   9  -6 455.081 131.626   3
  -2  -9   6 434.465 136.269   6
  -2  -9   6 487.678 141.858   9
   2   9  -6 498.055 135.935   4
   2   9  -5-43.8038 73.7899   3
   2   9  -5 209.354 134.160   4
  -2  -9   5 53.3675 71.4023   9
  -2   9  -3 600.218 154.668  12
   2  -9   3 568.779 171.046   5
   2  -9   3 756.906 246.074  10
  -2   9  -3 427.988 134.808   8
   2  -9   3 481.218 136.596   7
  -2   9  -4 333.263 126.521  12
   2  -9   4 116.707 75.3778  10
   2  -9   5-48.3825 83.3572  10
  -2   9  -5 8.47583 63.9986  12
  -2   9  -6 248.597 115.565  12
   2  -9   6 106.085 94.9361  10
  -2   9  -7 140.003 113.099  12
   2  -9   7 176.983 113.717  10
   2  10  -8-10.3956 63.3441   3
   2  10  -7 25.7643 99.5568   3
  -2 -10   7 111.184 89.0486   6
   2  10  -7 74.3101 77.2851   4
  -2 -10   6 465.519 161.947   6
   2  10  -6 105.059 99.8809   3
   2  10  -6 376.139 164.843   4
   2 -10   3 249.433 162.262   5
  -2  10  -4 293.720 143.281  12
  -2  10  -5 67.2121 104.414  12
   2 -10   5-59.3305 91.0638  10
  -2  10  -6-86.3608 131.587  12
   2 -10   6 71.2256 73.2524  10
  -3   0   5 1534.19 171.316  11
   3   0  -5 1548.60 199.696   1
  -3   0   5 2068.10 247.898   9
   3   0  -5 1621.82 175.573   7
  -3   0   4 6.89658 20.7842  11
   3   0  -4-9.98846 33.6774   1
  -3   0   4-5.78901 34.2483   9
   3   0  -4-4.68920 40.2849   7
  -3   0   3 72.3516 32.1888  11
   3   0  -3 143.807 121.055  10
  -3   0   3 0.43615 33.4486   9
   3   0  -3 40.0648 29.4155   3
   3   0  -3 16.2443 44.6595   1
   3   0  -3-4.78308 20.9244   7
  -3   0   2 35.0259 49.0532  12
   3   0  -2 47.1785 32.4146  10
  -3   0   2-19.9447 30.2604   9
   3   0  -2 56.0629 27.9216   1
   3   0  -1 236.874 69.6556   1
   3   0  -1 185.255 49.2240  10
  -3   0   1 367.389 83.4840   9
  -3   0   1 234.744 45.8769  12
  -3   0   0-30.2308 26.1337  12
   3   0   0 26.6635 39.0753  10
  -3   0   0 52.3163 34.9606   9
   3   0   0-10.4763 37.0847   1
   3   0   1 90.3848 48.8529  10
   3   0   1 9.34382 27.7067   1
  -3   0  -1-4.83835 25.5408   9
  -3   0  -1 44.2825 39.6675  12
  -3   0  -2-49.4553 40.9446   9
   3   0   2 9.68974 33.9501  10
  -3   0  -2-56.5906 43.8358  12
   3   1  -6 24.1117 53.4203   1
  -3  -1   6 97.6091 73.4238  11
  -3  -1   6-64.8313 44.6813   9
   3   1  -6 51.8602 49.9001   7
  -3  -1   5 609.138 104.454  11
   3   1  -5 427.258 109.543   1
  -3  -1   5 672.050 136.605   9
   3  -1  -5 62.2299 42.8476   1
   3   1  -5 514.601 95.6575   7
  -3   1   4 373.477 75.3760  11
  -3  -1   4 334.765 71.5608  11
   3  -1  -4 403.299 91.1188   1
   3   1  -4 406.910 97.7922   1
  -3  -1   4 391.407 95.7100   9
  -3   1   4 438.231 111.356   9
  -3  -1   4 382.367 63.4349   8
  -3   1   4 368.693 77.8473   8
   3   1  -4 342.878 68.9517   7
   3  -1  -4 355.161 80.1311   7
  -3   1   3 321.671 53.6701  11
   3   1  -3 482.759 129.769  10
   3  -1  -3 250.310 74.9780   1
   3   1  -3 299.632 73.5266   3
  -3  -1   3 318.845 86.1198   9
  -3   1   3 320.141 82.3488   9
  -3   1   3 249.299 63.2742   8
   3  -1  -3 200.374 57.3746   7
   3   1  -3 219.716 78.3779   1
  -3  -1   2 475.919 77.0206  12
  -3   1   2 330.851 109.939  12
   3   1  -2 239.572 60.9569  10
   3  -1  -2 186.516 58.5649  10
   3   1  -2 240.738 59.5832   3
   3   1  -2 221.248 61.8784   1
   3  -1  -2 240.045 68.2633   1
  -3  -1   2 148.752 49.2244   9
  -3   1   2 210.378 67.8535   9
  -3   1   2 225.851 56.8291   8
   3  -1  -2 131.381 50.9450   7
   3   1  -1 1257.58 149.583   1
   3  -1  -1 1270.50 142.128   1
   3   1  -1 1320.78 129.289  10
   3  -1  -1 1293.12 137.831  10
  -3  -1   1 1214.05 143.535   9
  -3   1   1 1315.08 146.914   9
  -3  -1   1 1338.59 102.136  12
  -3   1   1 1287.27 123.821  12
   3  -1  -1 1412.46 111.833   3
   3  -1   0 502.023 147.811   1
   3   1   0 527.814 86.0376  10
   3  -1   0 459.570 84.9225  10
  -3  -1   0 535.728 95.0297   9
  -3   1   0 531.687 93.8792   9
   3   1   0 475.237 96.5372   1
  -3  -1   0 435.919 68.6115  12
  -3   1   0 379.975 68.6999  12
   3   1   1 119.014 57.6003  10
   3   1   1 168.997 73.4050   1
   3  -1   1 186.166 64.1017  10
  -3  -1  -1 81.4126 41.8303   9
  -3   1  -1 234.864 67.5123   9
   3  -1   1 154.253 58.9284   1
  -3  -1  -1 187.794 51.5931  12
  -3   1  -1 134.852 49.5874  12
   3  -1   2 462.823 102.587  10
  -3   1  -2 542.530 95.4535   9
  -3   1  -2 490.725 94.9416  12
   3  -1   3 26.7421 38.7666  10
  -3   1  -3-26.2099 25.7087   9
  -3   1  -3-33.8305 30.2123  12
  -3  -2   7-1.49841 45.6264  11
   3   2  -7 46.7367 67.1962   1
  -3  -2   7 40.9674 82.8115   9
  -3  -2   6 231.559 79.1109  11
   3   2  -6 204.673 88.2026   1
  -3  -2   6 322.651 102.020   9
  -3  -2   5 106.647 58.0500  11
   3   2  -5 138.498 62.9700   1
  -3  -2   5 117.797 61.2039   9
   3   2  -4 605.968 78.3310   4
   3   2  -4 604.912 105.743   3
  -3  -2   4 581.321 105.713   9
  -3  -2   4 622.399 76.2811   6
   3   2  -4 556.661 106.580   1
   3  -2  -4-10.2544 54.2548   7
   3   2  -3 1243.54 137.669   3
   3   2  -3 1371.35 163.995   1
  -3   2   3 1428.92 116.503  11
   3  -2  -3 1261.78 155.172   1
  -3  -2   3 1197.48 151.288   9
   3   2  -3 1341.30 106.301   4
  -3   2   3 704.922 132.307   9
  -3   2   3 1313.28 148.199   8
   3  -2  -3 1363.22 160.527   7
  -3  -2   3 1620.52 122.224   6
   3   2  -2 96.5192 24.9528   1
  -3   2   2 202.221 43.1879  11
  -3  -2   2 175.481 35.6209   6
   3  -2  -2 103.460 42.7383   1
   3   2  -2 138.566 45.8546  10
   3   2  -2 133.546 50.9033   3
   3  -2  -2 252.272 68.4361  10
  -3  -2   2 186.042 72.8199   9
  -3   2   2 142.131 53.5611   9
   3   2  -2 146.955 32.2094   4
  -3   2   2 155.332 48.4444   8
   3  -2  -2 122.649 44.2623   7
  -3   2   1 181.588 50.9070  12
   3  -2  -1 221.033 69.9888   1
   3   2  -1 111.432 24.4852   3
   3   2  -1 200.546 56.8193  10
   3  -2  -1 125.783 40.9418  10
   3  -2  -1 152.647 33.2699   3
  -3  -2   1 165.924 58.2767   9
  -3   2   1 233.083 71.5972   9
   3   2  -1 177.776 61.6527   1
  -3   2   1 243.583 74.7540   8
   3  -2  -1 256.857 75.2483   7
  -3  -2   1 146.061 35.0376  12
   3   2   0 266.743 69.3693  10
   3  -2   0 193.011 49.0786  10
   3  -2   0 175.438 44.4672   1
   3   2   0 249.835 62.5883   1
  -3  -2   0 220.321 51.1320  12
  -3  -2   0 173.787 62.4606   9
  -3   2   0 227.473 57.6897   9
  -3   2   0 157.076 52.4257  12
   3   2   1 272.820 88.5035  10
   3  -2   1 555.280 109.786  10
  -3  -2  -1 424.282 82.1545   9
  -3   2  -1 626.472 98.2229   9
   3  -2   1 466.010 83.2081   1
  -3   2  -1 535.750 97.6644  12
   3  -2   2 242.713 81.2615  10
   3  -2   2 271.839 83.9359   1
  -3   2  -2 391.544 82.5727   9
  -3   2  -2 382.824 93.9501  12
   3  -2   3-0.70139 43.7659  10
  -3   2  -3 27.1443 37.8699  12
   3  -2   4 356.155 131.075  10
  -3   2  -4 136.908 83.5342  12
  -3  -3   8 72.9623 61.6103  11
   3   3  -8-20.0590 63.8897   1
  -3  -3   7 128.578 49.0311  11
   3   3  -7 226.474 80.4247   1
  -3  -3   7 213.538 78.1170   9
  -3  -3   6 38.8811 28.7164   6
  -3  -3   6 31.7597 31.3783  11
   3   3  -6 55.2778 65.6491   1
   3   3  -6 59.0570 41.4809   4
   3   3  -6-13.8208 33.3493   3
  -3  -3   6-27.4550 43.0719   9
  -3  -3   5 429.038 81.5203   6
   3   3  -5 378.272 95.2592   3
   3   3  -5 337.788 72.9298   4
  -3  -3   5 462.183 108.232   9
   3   3  -5 396.987 99.1780   1
   3   3  -4 81.6446 69.9627   3
  -3  -3   4-2.35521 31.9203   9
   3   3  -4 63.0601 26.5980   4
   3   3  -3 374.570 91.6971   1
  -3  -3   3 378.770 66.5475   6
   3   3  -3 281.674 73.1870   3
   3  -3  -3 157.441 57.8437   1
  -3  -3   3 352.840 76.9061   9
   3   3  -3 344.631 61.7532   4
   3  -3  -3 347.143 95.9083   7
   3   3  -2 169.614 57.1905   3
  -3  -3   2 266.174 54.2261   6
   3   3  -2 256.513 60.7263  10
   3  -3  -2 389.378 112.694  10
  -3  -3   2 225.400 70.3006   9
   3   3  -2 280.082 74.8657   1
  -3   3   2 304.436 76.9870   8
   3   3  -2 234.844 47.4796   4
   3  -3  -2 336.140 85.8274   7
   3  -3  -2 249.936 71.8973   1
  -3   3   1 181.509 60.0857  12
   3   3  -1 341.557 100.422   3
   3   3  -1 100.952 39.2190  10
   3  -3  -1 174.213 57.8375  10
   3   3  -1 213.268 72.2288   1
  -3  -3   1 53.2327 40.7584   9
  -3   3   1 227.945 74.1633   9
   3  -3  -1 164.763 53.5258   1
  -3  -3   1 183.866 35.3237   2
  -3   3   1 192.454 60.4223   8
   3  -3  -1 180.737 61.6040   7
  -3   3   0 12.6155 29.4641  12
   3   3   0-25.1845 34.9607  10
   3  -3   0 46.7906 49.6997  10
  -3  -3   0 10.5948 32.8999   9
   3  -3   0-23.7678 29.7107   1
  -3   3   0-1.75559 27.0898   9
  -3   3   0 7.81006 40.7071   8
  -3  -3   0 10.3960 13.7898  12
   3  -3   1 797.318 110.141   1
   3  -3   1 910.217 136.102  10
  -3   3  -1 1238.94 140.145   9
  -3   3  -1 800.679 124.432  12
   3  -3   2-18.3568 36.8039  10
   3  -3   2 93.0304 47.4481   1
  -3   3  -2 103.815 48.3556  12
   3  -3   3 276.500 88.1423  10
  -3   3  -3 262.833 88.7020  12
   3  -3   4 171.959 69.8302  10
  -3   3  -4 43.5439 40.2935  12
   3  -3   5 185.953 78.5406  10
  -3   3  -5 300.911 89.5153  12
   3   4  -8 274.286 117.702   1
  -3  -4   8 166.351 86.8024  11
   3   4  -8 103.932 50.4667   3
  -3  -4   8 110.265 78.5018   9
  -3  -4   7 33.9644 32.7086   6
  -3  -4   7-83.5903 58.8148  11
   3   4  -7-23.3223 42.7228   4
   3   4  -7-59.8986 39.1381   3
  -3  -4   7-50.0094 74.7367   9
   3   4  -7 75.7692 69.4317   1
   3   4  -6 1651.67 194.706   3
   3   4  -6 1333.16 180.517   1
   3   4  -6 1568.90 175.191   4
  -3  -4   6 1525.83 202.839   9
  -3  -4   6 1299.85 151.065   6
  -3  -4   5 80.8124 27.5507   6
   3   4  -5 66.2894 45.3564   1
   3   4  -5 1.41039 29.9687   3
  -3  -4   5 136.244 83.0743   9
   3   4  -5 19.5942 23.5526   4
  -3  -4   4 39.7889 35.2774   6
   3   4  -4 8.78082 37.3585   3
  -3  -4   4 82.0016 52.1200   9
   3   4  -4 17.6118 32.4961   4
   3   4  -4 89.0279 51.5119   1
  -3  -4   3 156.533 40.5320   6
   3   4  -3 142.338 54.1129   3
  -3  -4   3 186.537 74.1909   9
   3   4  -3 228.196 68.2921   1
   3   4  -3 221.547 57.2896   4
  -3   4   1 83.0023 60.1851  12
   3   4  -1 53.7124 48.4464  10
   3   4  -1 68.4395 47.9493   1
   3  -4  -1 21.0597 51.5995   1
   3  -4  -1 84.4633 83.9993  10
  -3  -4   1 80.8439 46.0142   9
  -3   4   1-19.8381 45.3710   8
   3  -4  -1-3.73311 45.5426   7
  -3   4   0 162.543 71.5666  12
   3  -4   0 208.918 78.6465  10
  -3   4   0 169.835 75.1462   8
   3  -4   0 285.074 87.7988   7
   3  -4   0 155.774 50.1598   1
   3  -4   1 140.871 42.4126   1
   3  -4   1 149.378 66.6807  10
  -3   4  -1 68.6259 41.6179  12
   3  -4   2 519.356 105.984  10
   3  -4   2 823.390 117.946   1
  -3   4  -2 427.715 95.2511  12
   3  -4   3 107.489 66.2172  10
  -3   4  -3 90.1265 48.7299  12
   3  -4   4 603.419 128.203  10
  -3   4  -4 601.686 127.432  12
   3  -4   5 89.6905 67.5522  10
  -3   4  -5-60.5852 60.0118  12
  -3  -5   9 115.634 86.5172  11
   3   5  -9 49.2232 46.7951   3
   3   5  -9 0.59269 72.2298   1
  -3  -5   8 30.6821 28.8560   6
   3   5  -8 24.3040 48.4064   1
   3   5  -8 16.7758 34.3916   4
   3   5  -8 17.6716 53.9781   3
  -3  -5   8 132.544 98.2904   9
  -3  -5   7 62.5913 39.1159   6
   3   5  -7 19.7209 50.2011   1
   3   5  -7 63.4179 69.7096   3
   3   5  -7 52.9902 50.8253   4
  -3  -5   7-37.9977 49.4822   9
   3   5  -6 81.0406 62.9728   1
  -3  -5   6 39.8864 36.2368   6
   3   5  -6 7.64779 29.1208   3
  -3  -5   6 38.6521 59.8552   9
   3   5  -6 62.6672 33.0219   4
  -3  -5   5 1.64580 31.2687   6
   3   5  -5-42.2903 27.2445   3
  -3  -5   5-41.6341 48.4714   9
   3   5  -5-9.43489 28.1699   4
   3   5  -5-48.3850 46.0276   1
  -3  -5   4 92.1776 54.7038   6
   3   5  -4 51.0629 39.0939   3
  -3  -5   4-5.46518 40.6720   9
   3   5  -4 46.5024 56.8120   1
   3   5  -4 27.4320 35.0585   4
   3   5  -3 246.166 81.9489   3
   3   5  -3 203.971 73.0742   1
  -3  -5   3 159.788 47.1918   9
   3   5  -3 157.093 56.7281   4
  -3  -5   2 1155.01 159.936   9
  -3  -5   2 1362.80 135.298   2
   3   5  -2 1401.35 185.325   1
   3   5  -2 2079.19 289.150   3
   3  -5  -1 811.565 207.787  10
   3  -5  -1 547.630 104.500   5
  -3   5   1 448.826 118.464   8
   3  -5  -1 449.675 105.916   1
   3  -5  -1 490.814 137.357   7
  -3   5   0 81.0123 46.1112  12
   3  -5   0 187.960 55.9330   5
   3  -5   0 257.438 91.3256  10
   3  -5   0 143.616 48.4332   1
  -3   5   0 227.223 82.5599   8
   3  -5   0 227.574 76.0983   7
  -3   5  -1 28.8316 36.5043  12
   3  -5   1 205.644 81.2853  10
   3  -5   1 73.7238 37.6507   1
  -3   5  -1 56.4294 35.6604   8
   3  -5   2 80.2708 40.7910  10
  -3   5  -2 63.9573 58.0421  12
   3  -5   3-71.1794 63.9418  10
  -3   5  -3 17.5398 45.2726  12
   3  -5   4 56.9485 52.9249  10
  -3   5  -4 12.6128 49.3682  12
   3  -5   5 9.02666 46.7993  10
  -3   5  -5-52.0253 60.3666  12
   3  -5   6 25.9790 60.3645  10
  -3   5  -6 0.81998 50.4323  12
  -3  -6   9-41.0005 48.5002   6
   3   6  -9 169.402 102.375   3
   3   6  -9 85.3912 65.4190   4
  -3  -6   9-114.342 103.151   9
   3   6  -8-70.3106 49.9429   1
  -3  -6   8 76.2094 56.0106   6
   3   6  -8-44.4477 72.6379   3
   3   6  -8 74.0088 47.9306   4
  -3  -6   8-50.0337 66.2211   9
  -3  -6   7 164.945 53.3164   6
   3   6  -7 290.092 98.3261   3
   3   6  -7 147.401 65.8521   4
  -3  -6   7 151.284 57.9842   9
   3   6  -7 217.533 79.8786   1
  -3  -6   6 134.492 68.4955   6
   3   6  -6 168.900 67.1228   3
  -3  -6   6 297.083 115.819   9
   3   6  -6 240.214 81.0952   4
   3   6  -6 196.635 65.7121   1
  -3  -6   5 263.364 73.1200   6
   3   6  -5 305.807 105.001   3
  -3  -6   5 334.875 117.213   9
   3   6  -5 176.858 69.3453   1
   3   6  -5 376.597 84.1153   4
   3   6  -4 581.567 130.968   3
  -3  -6   4 498.753 86.6134   6
   3   6  -4 390.686 101.854   1
  -3  -6   4 500.148 113.682   9
   3   6  -4 660.930 117.346   4
   3   6  -3 214.740 98.6946   3
  -3  -6   3 203.089 76.6342   9
   3   6  -3 230.978 79.2926   4
  -3   6   0 350.016 105.666  12
   3  -6   0 897.666 151.706   5
   3  -6   0 1034.39 226.281  10
  -3   6   0 720.983 153.937   8
   3  -6   0 799.537 199.832   7
   3  -6   0 1355.27 218.450   1
  -3   6  -1 63.1457 46.5441  12
   3  -6   1 75.6568 52.1724  10
  -3   6  -1 69.9068 48.3745   8
   3  -6   1 106.504 59.3867   7
  -3   6  -2-53.0453 53.4582  12
   3  -6   2 25.2807 45.6158  10
   3  -6   3 171.363 79.8423  10
  -3   6  -3 214.861 88.7541  12
   3  -6   4 35.0326 41.6833  10
  -3   6  -4 79.2482 66.6313  12
   3  -6   5 157.258 61.3932  10
  -3   6  -5 310.101 107.000  12
   3  -6   6 49.9852 39.6904  10
  -3   6  -6 71.0962 73.3984  12
  -3  -7   9 75.7669 56.7474   6
   3   7  -9 6.37753 59.5202   4
  -3  -7   9 89.0859 99.8253   9
  -3  -7   8 522.317 122.218   6
   3   7  -8 606.083 144.406   3
   3   7  -8 342.032 116.933   4
  -3  -7   8 750.371 186.858   9
  -3  -7   7-7.47225 59.4216   6
   3   7  -7-17.6289 45.6576   3
   3   7  -7-49.6545 34.4367   1
  -3  -7   7-46.7117 67.2918   9
   3   7  -7 38.2283 52.4900   4
  -3  -7   6-27.8669 39.9009   6
   3   7  -6-39.0760 60.1440   3
   3   7  -6 56.0095 53.4083   1
  -3  -7   6 141.089 87.1118   9
   3   7  -6-24.2331 39.6354   4
   3   7  -5-102.650 77.9758   3
  -3  -7   5-9.45885 38.2802   6
   3   7  -5 38.3165 44.4137   1
  -3  -7   5-53.9365 74.3476   9
   3   7  -5 134.635 72.3720   4
   3   7  -4 863.592 186.709   3
  -3  -7   4 401.117 100.517   6
  -3  -7   4 831.530 177.983   9
   3   7  -4 717.213 133.519   4
  -3  -7   3-56.8461 73.2076   9
  -3   7  -1 118.367 80.1820  12
   3  -7   1 87.5522 69.7678   5
   3  -7   1 74.3741 88.4337  10
  -3   7  -1 58.6974 55.7809   8
   3  -7   1 56.9640 83.3369   7
  -3   7  -2 716.965 143.352  12
   3  -7   2 642.049 142.131  10
  -3   7  -2 709.343 175.054   8
  -3   7  -3-4.77534 63.4881  12
   3  -7   3 4.99319 47.3807  10
   3  -7   4 24.1220 59.8924  10
  -3   7  -4 132.048 77.7626  12
   3  -7   5 39.0544 55.3436  10
  -3   7  -5 9.21841 52.4926  12
   3  -7   6 84.1581 72.1632  10
  -3   7  -6 202.092 116.065  12
  -3  -8   8 25.4131 41.9314   6
   3   8  -8 90.8012 46.9785   3
   3   8  -8 85.0280 56.8607   4
  -3  -8   8 24.1661 69.2542   9
  -3  -8   7 328.573 102.793   6
   3   8  -7 184.979 93.9344   3
  -3  -8   7 411.081 164.705   9
   3   8  -7 289.307 103.295   4
   3   8  -6 38.9990 40.0776   3
  -3  -8   6-61.9175 46.5110   6
  -3  -8   6 105.330 93.8465   9
   3   8  -6-21.3004 45.9333   4
   3   8  -5 197.789 109.353   3
  -3  -8   5 404.034 125.566   6
  -3  -8   5 233.062 143.452   9
   3   8  -5 118.936 76.1073   4
   3   8  -4 51.4194 107.346   3
  -3  -8   4 299.800 131.158   9
   3   8  -4 288.236 152.681   4
   3  -8   1 90.3471 134.421   5
   3  -8   1-374.781 373.011  10
  -3   8  -1 18.2151 122.684   8
   3  -8   1 6.50808 193.201   7
  -3   8  -2-54.6982 89.3585  12
   3  -8   2 312.293 157.597  10
  -3   8  -2 173.683 141.183   8
  -3   8  -3 397.180 148.026  12
   3  -8   3 320.376 93.7693  10
  -3   8  -4 33.0118 67.8597  12
   3  -8   4-29.9588 67.7167  10
  -3   8  -5 95.0601 72.8076  12
   3  -8   5 32.3677 49.9039  10
  -3  -9   7 76.0435 58.6374   6
  -3  -9   7-23.5461 91.4231   9
   3   9  -7-115.472 88.5805   4
   3   9  -6 7.11638 76.5129   3
  -3  -9   6 69.8389 51.1805   6
  -3  -9   6 37.6962 94.4732   9
   3   9  -6 92.7503 107.380   4
   3   9  -5-235.057 226.482   3
  -3  -9   5 33.8269 52.0050   6
  -3  -9   5 231.199 160.621   9
   3   9  -5-90.3969 136.427   4
  -3   9  -2-60.2670 70.5384   8
  -3   9  -3 102.640 75.4427  12
   3  -9   3-15.4667 74.8061  10
  -3   9  -4-95.5517 123.969  12
   3  -9   4 37.9183 113.495  10
  -4   0   6-9.41789 58.7166  11
   4   0  -6 71.8703 81.9854   1
   4   0  -5 9.02256 56.6970   1
   4   0  -5 38.4741 34.6996   3
  -4   0   5-6.87647 52.7853   9
   4   0  -4 413.876 98.0387   3
  -4   0   4 284.679 80.6321   9
   4   0  -4 464.632 122.837   1
   4   0  -3 49.4060 45.5154   3
   4   0  -3-17.6827 48.9833   1
  -4   0   3-77.7326 74.3025   9
   4   0  -2 0.82230 46.7575   1
   4   0  -2 146.268 69.0945  10
  -4   0   2 145.004 59.0165   9
   4   0  -1 0.18015 28.2768  10
  -4   0   1 45.4365 45.2587   9
   4   0  -1 15.3487 47.1862   1
   4   0   0 299.671 93.8229  10
   4   0   0 305.833 89.9972   1
  -4   0   0 323.013 95.9941   9
   4   0   1 60.3721 67.1750  10
  -4   0  -1-9.74434 38.3234   9
   4   0   2-104.916 78.2725  10
  -4   0  -2 109.535 69.9416   9
  -4   0  -2 43.0958 55.3368  12
  -4  -1   7 31.4222 57.2668  11
   4   1  -7 38.2960 70.3053   1
  -4  -1   6 396.483 104.289  11
   4   1  -6 307.369 107.838   1
   4   1  -6 305.493 94.5904   3
  -4  -1   6 150.096 55.7439   9
   4   1  -5 136.475 69.0691   3
  -4  -1   5 220.816 88.0786   9
   4   1  -5 121.786 79.2270   1
   4  -1  -5 311.966 97.4354   1
   4  -1  -5 266.612 103.380   7
   4  -1  -4 44.5679 58.4491   1
   4   1  -4-14.1563 37.0378   3
   4   1  -4 70.6718 62.9317   1
   4  -1  -4 52.8120 54.0128   3
  -4  -1   4 66.8698 47.9719   9
  -4   1   4-5.11916 57.5537   9
   4   1  -3 391.215 103.415   1
   4   1  -3 334.387 76.8599   3
  -4  -1   3 311.015 89.6362   9
  -4   1   3 322.252 108.943   9
   4  -1  -3 293.857 87.8143   1
   4   1  -2-94.1340 51.5129   3
   4  -1  -2-26.3519 55.4374   1
   4  -1  -2-32.6394 65.2886  10
  -4  -1   2 73.2116 50.5943   9
  -4   1   2 47.1587 73.5341   9
   4   1  -2 52.9391 48.4540   1
   4   1  -1 158.702 69.2483  10
   4  -1  -1 97.7359 50.8100  10
  -4  -1   1 69.8807 52.0978   9
   4   1  -1 62.2713 29.4783   1
  -4   1   1 109.243 67.7573   9
   4  -1  -1 77.6346 51.7469   1
   4   1   0 236.055 67.6022  10
   4  -1   0 286.666 84.7091  10
   4   1   0 233.119 84.1837   1
  -4  -1   0 186.366 61.0834   9
  -4   1   0 212.315 82.8377   9
   4  -1   0 250.034 81.5780   1
   4   1   1-61.9957 40.1264  10
   4  -1   1 27.5723 50.2128  10
   4  -1   1 27.8041 53.8941   1
  -4  -1  -1 69.6378 44.8981   9
  -4   1  -1-111.555 66.1515   9
  -4   1  -1 49.6267 35.6459  12
   4  -1   2 56.9909 69.8842  10
  -4   1  -2 70.7029 48.9784  12
   4   2  -7 292.648 106.759   3
  -4  -2   7 335.320 135.236   9
   4   2  -7 310.382 130.792   1
   4   2  -6 9.85995 58.6086   3
  -4  -2   6 73.4945 67.3077   9
   4   2  -5 18.3212 33.6451   3
   4   2  -5-0.55542 50.5299   1
   4   2  -4-14.6696 42.4383   1
   4   2  -4 19.2679 39.8618   3
  -4  -2   4 230.992 89.7049   9
   4  -2  -4 64.9900 84.2565   1
  -4   2   4-13.9392 55.7979   8
   4  -2  -4 27.5219 88.7316   7
   4  -2  -3-79.4656 60.9403   1
   4   2  -3 2.37852 25.7716   3
  -4  -2   3 71.4815 56.2738   9
  -4   2   3 38.6438 61.9058   9
  -4   2   3 86.0158 57.0974   8
   4   2  -3 37.1054 56.5373   1
   4   2  -2 66.6884 49.5717   3
   4  -2  -2 3.82198 70.9657  10
  -4  -2   2 81.5704 37.7413   9
   4  -2  -2-1.09284 43.2930   1
   4   2  -2 143.990 67.0603   1
  -4   2   2 171.113 99.1742   9
   4  -2  -1 21.1147 35.5029   1
   4  -2  -1-91.5988 49.5020  10
   4   2  -1-48.8049 53.2330   1
  -4   2   1 11.9283 47.9601   9
  -4   2   0 1.40116 30.9502  12
   4   2   0-58.1470 61.2453  10
   4  -2   0-10.3165 45.5827  10
  -4  -2   0 0.10201 55.2842   9
  -4   2   0 22.7190 39.1990   9
   4  -2   0-41.1680 55.3973   1
   4  -2   1 49.6760 46.3920  10
   4  -2   1 130.175 77.6686   1
  -4   2  -1 69.5881 49.4299  12
   4  -2   2 310.176 101.539  10
  -4   2  -2 219.309 77.0720  12
   4  -2   3 55.4681 47.8913  10
  -4   2  -3 206.129 81.2125  12
   4   3  -8-61.1468 64.2490   3
  -4  -3   8 77.8547 85.4028   9
   4   3  -8-110.548 125.524   1
   4   3  -7 3.36876 49.4951   3
   4   3  -7 151.582 115.023   1
  -4  -3   7 81.4729 50.5588   9
   4   3  -6-5.73960 70.9737   1
   4   3  -6 27.9608 47.4799   3
  -4  -3   6-159.394 77.0535   9
   4   3  -5 106.557 79.9247   1
   4   3  -5-18.3712 50.9311   3
  -4  -3   5 201.311 109.287   9
   4   3  -4 237.804 84.8413   3
  -4  -3   4 349.713 98.7242   9
   4   3  -4 285.298 100.643   1
   4   3  -3 56.6223 52.5170   3
   4  -3  -3-94.1184 89.7548   1
  -4  -3   3 22.2421 46.8671   9
   4   3  -3 1.65675 52.0820   1
  -4   3   3-16.2118 40.8236   8
   4  -3  -3 69.5765 68.7888   7
   4   3  -2 1028.90 199.616   3
   4  -3  -2 1025.04 225.719  10
   4   3  -2 429.445 103.335   1
  -4  -3   2 376.172 101.687   9
  -4   3   2 458.880 113.122   8
   4  -3  -2 439.289 114.671   1
  -4   3   1 133.989 106.941  12
   4   3  -1-143.812 80.5746   1
   4  -3  -1-56.5449 76.6735   1
   4  -3  -1 68.9208 73.3609  10
  -4  -3   1-50.6025 56.6601   9
  -4   3   1 53.5022 79.7158   9
  -4   3   0 127.203 69.1115  12
   4  -3   0 51.8040 69.8608   1
   4  -3   1 46.0651 58.0229  10
   4  -3   1 94.8009 54.4003   1
  -4   3  -1 30.3868 44.0257  12
   4  -3   2 0.62316 51.8398  10
  -4   3  -2-2.70901 40.4456  12
   4  -3   3 5.70565 42.6529  10
  -4   3  -3 9.73191 44.2101  12
   4  -3   4-115.803 107.571  10
  -4   3  -4-32.0062 52.3246  12
   4   4  -8 22.7057 76.7343   1
   4   4  -8 95.3614 84.8732   3
  -4  -4   8 110.336 110.357   9
   4   4  -7 40.5897 72.6693   1
   4   4  -7-17.3726 57.6539   3
  -4  -4   7 82.9126 99.4318   9
   4   4  -6-19.2972 55.0335   1
   4   4  -6 182.221 73.8928   3
  -4  -4   6 2.29899 74.2352   9
   4   4  -5 318.686 107.530   3
  -4  -4   5 211.963 83.7386   9
   4   4  -5 295.909 93.9379   1
   4   4  -4-34.1288 56.1324   3
  -4  -4   4-30.2229 51.0189   9
   4   4  -4 4.80937 33.9965   1
   4  -4  -3 72.6221 72.1040   1
   4   4  -3-32.5086 72.6315   3
   4   4  -3 104.212 80.9073   1
  -4  -4   3 11.3971 36.8259   9
  -4   4   3 81.2000 62.4574   8
   4  -4  -3 56.9334 69.5236   7
   4  -4  -2-48.5848 54.7680   1
   4   4  -2 54.4946 67.8022   1
  -4  -4   2-33.7679 32.4205   9
  -4   4   2-12.7365 54.0450   8
   4  -4  -2 48.9090 43.1999   7
  -4   4   1-27.5180 109.198  12
   4  -4  -1 315.173 99.2930  10
   4  -4  -1 405.942 107.112   1
   4  -4   0-79.2649 62.5950   1
  -4   4   0 70.0886 66.8018  12
   4  -4   0 5.19740 73.5172  10
  -4   4  -1 8.87772 49.2012  12
   4  -4   1 43.2200 77.0606  10
   4  -4   2-49.5327 61.8217  10
  -4   4  -2 95.0068 67.2204  12
   4  -4   3-41.2540 43.5374  10
  -4   4  -3 53.0698 42.0152  12
   4  -4   4 235.372 112.561  10
  -4   4  -4-71.1326 69.0756  12
   4   5  -8 110.413 106.254   1
   4   5  -7-30.8756 64.5614   3
  -4  -5   7 109.700 99.6083   9
   4   5  -7-32.3963 41.5942   1
   4   5  -6 129.487 65.1103   3
  -4  -5   6-7.91644 69.2955   9
   4   5  -6 21.3208 63.3379   1
   4   5  -5 297.676 101.839   3
  -4  -5   5 18.7155 54.8564   9
   4   5  -5 305.112 89.7229   1
   4   5  -4 219.808 104.166   3
   4   5  -4 10.5878 55.8790   1
  -4  -5   4 220.002 95.9820   9
   4   5  -3 37.0991 80.1656   3
   4   5  -3 35.0348 46.4435   1
  -4  -5   3 125.603 75.0479   9
   4  -5  -2-32.2180 79.3789   1
  -4  -5   2 57.7404 41.2690   9
  -4   5   2-14.5939 61.1446   8
   4  -5  -2-87.4346 72.0751   7
   4  -5  -1 236.927 194.365  10
   4  -5  -1 189.045 147.683   1
  -4   5   1 86.3907 57.0186   8
   4  -5  -1 132.404 101.211   7
  -4   5   0 132.730 93.2006  12
   4  -5   0 62.1059 106.620  10
  -4   5  -1 192.966 71.1063  12
   4  -5   1 282.551 116.442  10
  -4   5  -2-52.1412 90.1427  12
   4  -5   2-19.5854 62.0004  10
   4  -5   3 168.164 89.2302  10
  -4   5  -3 200.817 98.6260  12
  -4   5  -4-47.1904 92.4226  12
   4   6  -8 168.646 98.6959   1
  -4  -6   7 221.291 102.379   9
   4   6  -7 120.577 57.0694   1
   4   6  -6 165.990 76.9406   3
   4   6  -6-112.544 95.2375   1
  -4  -6   6 95.8816 63.4071   9
   4   6  -5-44.5048 35.4698   1
  -4  -6   5-69.7350 67.9165   9
   4   6  -4 152.845 104.499   3
   4   6  -4 66.7482 37.7206   1
  -4  -6   4 85.9608 64.1686   9
  -4  -6   3 57.2074 81.9074   9
  -4   6   1 36.8926 77.7387   8
   4  -6  -1 67.7372 85.0409   7
   4  -6   0 160.503 129.392  10
  -4   6  -1 82.6340 97.8048  12
   4  -6   1 31.1470 61.3179  10
  -4   6  -2 151.256 98.4822  12
   4  -6   2-24.4433 57.9617  10
  -4   6  -3 89.2322 86.3550  12
   4   7  -7-24.1258 85.3625   1
   4   7  -6-20.3437 66.4079   1
   4   7  -5 9.38594 83.3666   3
  -4  -7   5-47.7087 102.444   9
  -4  -7   4-35.8374 88.1275   9
  -4   7   0 526.443 239.173   8
  -4   7  -1-26.8037 56.0557  12
   4  -7   1-54.7785 92.4502  10
  -4   7  -2 28.7165 58.8463  12
  -5   0   4-32.7511 95.1290   9
  -5   0   3 61.3126 55.7206   9
   5   0  -3 17.1048 42.6702   1
   5   0  -2-22.2738 39.8977   1
  -5   0   2-105.463 85.7956   9
   5   0  -1 145.459 104.487   1
  -5   0   1-104.314 76.9305   9
  -5  -1   4 99.7851 66.4149   9
  -5   1   4-15.9653 86.1847   9
  -5  -1   3 15.2388 77.4915   9
  -5   1   3 109.697 94.1134   9
   5  -1  -3 104.033 82.7203   1
   5   1  -2 67.4696 74.2259   1
  -5  -1   2 107.067 84.6239   9
  -5   1   2-15.7270 59.2837   9
   5  -1  -2 58.6905 63.6062   1
   5   1  -1 0.52490 45.7240   1
   5  -1  -1 42.5771 73.3624   1
  -5  -1   1 106.979 87.6970   9
   5  -1   0-139.327 107.047   1
   5  -1   0-60.6564 85.4139  10
   5  -1   1 177.567 66.1298  10
   5  -2  -3 38.7465 99.6721   1
  -5  -2   3 89.7066 92.6175   9
  -5  -2   2 9.23925 46.4883   9
   5  -2  -2 75.0345 58.2483   1
   5  -2  -1 37.8045 101.952  10
  -5  -2   1 12.9045 61.4285   9
   5  -2  -1 102.799 68.8308   1
   5  -2   0 129.984 84.2927   1
   5  -2   0 52.8304 60.1095  10
   5  -2   1 204.260 121.379  10
   5  -3  -3-20.3271 110.888   1
   5  -3  -2-21.9767 100.002   1
   5  -3  -1 248.422 137.759  10
   5  -3  -1 12.0345 65.3364   1
   5  -3   0 95.3055 72.7436  10
   0   0   0    0.00    0.00   0
   1   1  -4 1238.00 100.215   4
  -1  -1   4-11.8222 27.9503   9
  -1   0   3-14.3642 25.9133   9
  -1  -3   7-19.3445 18.7807  11
   0  -1   3 272.622 35.4366   6
   0  -5   1 198.072 60.1254   2
  -2  -4   8 567.350 140.994  11
   2   4  -8 272.547 92.5603   1
   1   7  -8 744.250 137.000   3
   1  -9   3-35.1757 83.5927   5
   1  -9   3-108.684 50.2032   2
  -1   9  -3 7.54257 41.4904   8
  -2  -5   9-45.4715 31.5513  11
   3  -7   0-79.4425 173.197   5
  -3   7   0-109.141 95.5558   8
   3  -7   0 177.476 163.165   7
   0 -11   5 42.1244 49.0834   5
   0  11  -5 92.8223 67.7119   4
  -2   7  -1 1053.94 196.157  12
   2  -7   1 2012.61 320.621  10
   2  -7   1 1574.82 252.457   5
   2  -7   1 2141.17 239.621   2
  -2   7  -1 1151.14 199.499   8
   2  -7   1 1701.30 283.499   7
   1  -8   2 6.05528 61.4441   5
  -1   8  -2 29.9258 60.5178   8
   1  -8   2 185.457 88.6321   2
   1  -8   2 95.5343 89.5590   7
   2  -9   2-205.402 242.975   5
   2  -9   2-379.065 261.099   7
   0   5  -2-10.5441 28.8536  12
   0   5  -2 3.16599 15.5407   8
   0  -5   2 12.7167 19.1443   9
   0  -5   2-15.3966 22.6219   7
   0   5  -2-69.5497 63.8090   3
   0  -5   2-6.22828 30.2208   2
  -2   5   0 378.939 102.675  12
   2  -5   0 505.297 112.147   7
   2  -5   0 512.006 117.806  10
   2  -5   0 435.342 97.4127   5
  -2   5   0 410.335 102.141   8
   2  -5   0 672.133 95.6014   2
   1  -4   1 9.70329 8.38425   3
   1  -4   1-14.5503 24.8038   5
   1  -4   1 13.9626 9.71219   9
   1  -4   1-0.46310 24.5039  10
  -1   4  -1-32.6911 37.4421  12
   1  -4   1-22.3162 27.6790   2
  -1   4  -1-6.22984 32.9612   8
   1  -4   1-6.16110 25.7721   7
   0  -4   1 9962.20 327.868   2
   3   4  -2 40.6052 41.1231   3
   3   4  -2 46.3758 44.9471   1
  -3  -4   2 92.4841 58.9860   9
   3  -4  -2 38.8020 51.1371   1
  -3   4   2 54.3212 46.2687   8
   3  -4  -2 116.278 66.8489   7
   1   4  -8 336.070 70.4086   1
   1   4  -8 399.939 69.2313  12
   0  -4   3 180.952 36.9099  10
   0   4  -3 144.621 35.3491   4
   0  -4   3 151.840 26.2142   9
   0   4  -3 151.601 36.3628   3
   0   4  -3 172.842 42.9905  12
;
_shelx_hkl_checksum              88243
_shelx_res_file
;
TITL
    Mo-CAsphere.res
    created by SHELXL-2018/1 at 17:06:11 on 11-Mar-2018
CELL  0.71073  3.94306 10.75657  9.96430 90.00000 100.55700 90.00000
ZERR 2  0.00048  0.00176  0.00220  0.00000  0.01530  0.00000
LATT 1
SYMM -X+ 0.50000, Y+ 0.50000, -Z+ 0.50000
SFAC Br C H
UNIT 8 12 4
LIST 4
L.S. 50
FMAP 2
PLAN 20
CONF
BOND
BOND $H
ACTA
WGHT    0.069800
FVAR       0.59947
BR1   1    0.585317    0.791218    0.594174    11.00000    0.05804    0.01850 =
         0.04909   -0.00395    0.01478   -0.00360
BR2   1    0.348241    0.574583    0.801563    11.00000    0.05051    0.03007 =
         0.03879   -0.00322    0.01698    0.00129
C1    2    0.536691    0.619988    0.542585    11.00000    0.02001    0.01102 =
         0.03660   -0.00667   -0.00253   -0.00594
C2    2    0.436367    0.534892    0.629501    11.00000    0.03315   -0.00029 =
         0.06103   -0.00027    0.02194    0.00422
C3    2    0.405742    0.412484    0.586982    11.00000    0.03091    0.00962 =
         0.02867    0.01679    0.00758    0.00048
AFIX  43
H3    3    0.346632    0.351591    0.644834    11.00000   -1.20000
AFIX   0
HKLF 4
REM
REM R1 =  0.0691 for     319 Fo > 4sig(Fo)  and  0.1325 for all     531 data
REM     46 parameters refined using      0 restraints
END
WGHT      0.0698      0.0000
REM Highest difference peak  0.934,  deepest hole -0.826,  1-sigma level  0.225
Q1    1   0.2162  0.2957  0.5168  11.00000  0.05    0.93
Q2    1   0.5472  0.4314  0.9177  11.00000  0.05    0.85
Q3    1   0.2055  0.8225  0.5047  11.00000  0.05    0.84
Q4    1   0.6374  0.6565  0.9662  11.00000  0.05    0.84
Q5    1   0.2454  0.5594  0.8924  11.00000  0.05    0.83
Q6    1   0.6815  0.5526  0.8636  11.00000  0.05    0.74
Q7    1   0.5136  0.4567  0.6746  11.00000  0.05    0.72
Q8    1   0.5702  0.9560  0.6978  11.00000  0.05    0.64
Q9    1   0.5043  0.7812  0.4620  11.00000  0.05    0.62
Q10   1   0.2890  0.3569  0.6110  11.00000  0.05    0.62
Q11   1   0.7565  0.8467  0.6042  11.00000  0.05    0.61
Q12   1   0.0628  0.5850  0.7531  11.00000  0.05    0.60
Q13   1   0.8491  0.7756  0.6827  11.00000  0.05    0.59
Q14   1   0.4436  0.7237  0.7548  11.00000  0.05    0.59
Q15   1   0.4100  0.6854  0.8255  11.00000  0.05    0.58
Q16   1   0.7010  0.3112  0.6659  11.00000  0.05    0.58
Q17   1   0.3795  0.5064  1.0070  11.00000  0.05    0.56
Q18   1   0.2402  0.4951  0.5618  11.00000  0.05    0.55
Q19   1   0.7418  0.5923  0.7965  11.00000  0.05    0.53
Q20   1   0.2191  0.3915  0.7962  11.00000  0.05    0.53
;
_shelx_res_checksum              95675
loop_
_space_group_symop_operation_xyz
'x, y, z'
'-x+1/2, y+1/2, -z+1/2'
'-x, -y, -z'
'x-1/2, -y-1/2, z-1/2'
loop_
_atom_site_type_symbol
_atom_site_label
_atom_site_fract_x
_atom_site_fract_y
_atom_site_fract_z
_atom_site_U_iso_or_equiv
_atom_site_adp_type
_atom_site_calc_flag
_atom_site_occupancy
Br Br1 0.5853(4) 0.79122(17) 0.5942(2) 0.0412(7) Uani d 1
Br Br2 0.3482(4) 0.57458(17) 0.8016(2) 0.0387(7) Uani d 1
C C1 0.537(3) 0.6200(15) 0.5426(19) 0.024(4) Uani d 1
C C2 0.436(4) 0.5349(16) 0.630(2) 0.030(5) Uani d 1
C C3 0.406(3) 0.4125(14) 0.5870(17) 0.023(4) Uani d 1
H H3 0.346632 0.351591 0.644834 0.027 Uiso calc 1
loop_
_atom_site_aniso_label
_atom_site_aniso_U_11
_atom_site_aniso_U_22
_atom_site_aniso_U_33
_atom_site_aniso_U_12
_atom_site_aniso_U_13
_atom_site_aniso_U_23
Br1 0.0580(12) 0.0185(19) 0.049(2) -0.0036(8) 0.0148(11) -0.0039(7)
Br2 0.0505(11) 0.0301(18) 0.039(2) 0.0013(8) 0.0170(10) -0.0032(7)
C1 0.020(7) 0.011(17) 0.04(2) -0.006(7) -0.003(8) -0.007(7)
C2 0.033(8) 0.000(17) 0.06(2) 0.004(7) 0.022(10) 0.000(7)
C3 0.031(8) 0.010(15) 0.029(17) 0.000(7) 0.008(8) 0.017(6)
loop_
_atom_type_symbol
_atom_type_description
_atom_type_scat_dispersion_real
_atom_type_scat_dispersion_imag
_atom_type_scat_source
Br Br -0.2901 2.4595 'International Tables Vol C Tables 4.2.6.8 and 6.1.1.4'
C C 0.0033 0.0016 'International Tables Vol C Tables 4.2.6.8 and 6.1.1.4'
H H 0.0000 0.0000 'International Tables Vol C Tables 4.2.6.8 and 6.1.1.4'
loop_
_geom_angle_atom_site_label_1
_geom_angle_atom_site_label_2
_geom_angle_atom_site_label_3
_geom_angle_site_symmetry_1
_geom_angle_site_symmetry_3
_geom_angle
C2 C1 C3 . 3_666 122.2(17)
C2 C1 Br1 . . 120.1(16)
C3 C1 Br1 3_666 . 117.7(12)
C1 C2 C3 . . 117.6(18)
C1 C2 Br2 . . 123.7(15)
C3 C2 Br2 . . 118.7(12)
C2 C3 C1 . 3_666 120.2(13)
C2 C3 H3 . . 119.9
C1 C3 H3 3_666 . 119.9
loop_
_geom_bond_atom_site_label_1
_geom_bond_atom_site_label_2
_geom_bond_site_symmetry_2
_geom_bond_distance
Br1 C1 . 1.912(17)
Br2 C2 . 1.860(18)
C1 C2 . 1.37(2)
C1 C3 3_666 1.40(2)
C2 C3 . 1.38(2)
C3 H3 . 0.9300
loop_
_geom_torsion_atom_site_label_1
_geom_torsion_atom_site_label_2
_geom_torsion_atom_site_label_3
_geom_torsion_atom_site_label_4
_geom_torsion_site_symmetry_1
_geom_torsion_site_symmetry_4
_geom_torsion
C3 C1 C2 C3 3_666 . 3(2)
Br1 C1 C2 C3 . . -179.9(10)
C3 C1 C2 Br2 3_666 . -178.7(11)
Br1 C1 C2 Br2 . . -1.2(18)
C1 C2 C3 C1 . 3_666 -2(2)
Br2 C2 C3 C1 . 3_666 178.7(11)

_cod_database_fobs_code 2242445
