#------------------------------------------------------------------------------
#$Date: 2017-07-25 12:49:51 +0300 (Tue, 25 Jul 2017) $
#$Revision: 199196 $
#$URL: file:///home/coder/svn-repositories/cod/cif/2/24/22/2242232.cif $
#------------------------------------------------------------------------------
#
# This file is available in the Crystallography Open Database (COD),
# http://www.crystallography.net/. The original data for this entry
# were provided by IUCr Journals, http://journals.iucr.org/.
#
# The file may be used within the scientific community so long as
# proper attribution is given to the journal article from which the
# data were obtained.
#
data_2242232
loop_
_publ_author_name
'Eya'ane Meva, Francois'
'Prior, Timothy John'
'Evans, David John'
'Mang, Emmanuel Roland'
_publ_section_title
;
 Crystal structures of <i>N</i>'-aminopyridine-2-carboximidamide and
 <i>N</i>'-{[1-(pyridin-2-yl)ethylidene]amino}pyridine-2-carboximidamide
;
_journal_coeditor_code           NK2236
_journal_issue                   7
_journal_name_full               'Acta Crystallographica Section E'
_journal_page_first              1021
_journal_page_last               1025
_journal_paper_doi               10.1107/S2056989017008416
_journal_volume                  73
_journal_year                    2017
_chemical_formula_iupac          'C6 H8 N4'
_chemical_formula_moiety         'C6 H8 N4'
_chemical_formula_sum            'C6 H8 N4'
_chemical_formula_weight         136.16
_chemical_name_systematic
;
<i>N</i>'-Aminopyridine-2-carboximidamide
;
_space_group_crystal_system      monoclinic
_space_group_IT_number           4
_space_group_name_Hall           'P 2yb'
_space_group_name_H-M_alt        'P 1 21 1'
_symmetry_space_group_name_Hall  'P 2yb'
_symmetry_space_group_name_H-M   'P 1 21 1'
_atom_sites_solution_hydrogens   mixed
_audit_creation_method           SHELXL-2014/7
_cell_angle_alpha                90
_cell_angle_beta                 91.631(19)
_cell_angle_gamma                90
_cell_formula_units_Z            2
_cell_length_a                   5.6955(14)
_cell_length_b                   3.8408(5)
_cell_length_c                   14.592(4)
_cell_measurement_reflns_used    2199
_cell_measurement_temperature    150(2)
_cell_measurement_theta_max      28.55
_cell_measurement_theta_min      5.5
_cell_volume                     319.07(12)
_computing_cell_refinement
;
X-AREA (Stoe & Cie, 2005)
;
_computing_data_collection
;
X-AREA (Stoe & Cie, 2005)
;
_computing_data_reduction
;
scaled and merged with SORTAV (Blessing, 1987, 1989)
;
_computing_publication_material
;
SHELXL2014 (Sheldrick, 2015b)
;
_computing_structure_refinement
;
SHELXL2014 (Sheldrick, 2015b)
;
_computing_structure_solution
;
SHELXT (Sheldrick, 2015a)
;
_diffrn_ambient_temperature      150(2)
_diffrn_detector_area_resol_mean 6.67
_diffrn_measured_fraction_theta_full 0.970
_diffrn_measured_fraction_theta_max 0.973
_diffrn_measurement_device_type  'Stoe IPDS2'
_diffrn_measurement_method       \w-scan
_diffrn_radiation_type           MoK\a
_diffrn_radiation_wavelength     0.71073
_diffrn_reflns_av_R_equivalents  0.0792
_diffrn_reflns_limit_h_max       6
_diffrn_reflns_limit_h_min       -7
_diffrn_reflns_limit_k_max       5
_diffrn_reflns_limit_k_min       -4
_diffrn_reflns_limit_l_max       19
_diffrn_reflns_limit_l_min       -20
_diffrn_reflns_number            2271
_diffrn_reflns_theta_full        25.242
_diffrn_reflns_theta_max         29.268
_diffrn_reflns_theta_min         2.793
_exptl_absorpt_coefficient_mu    0.096
_exptl_absorpt_correction_T_max  0.963
_exptl_absorpt_correction_T_min  0.909
_exptl_absorpt_correction_type   multi-scan
_exptl_absorpt_process_details
;
(SORTAV; Blessing, 1995)
;
_exptl_crystal_colour            colourless
_exptl_crystal_density_diffrn    1.417
_exptl_crystal_description       block
_exptl_crystal_F_000             144
_exptl_crystal_size_max          0.480
_exptl_crystal_size_mid          0.210
_exptl_crystal_size_min          0.200
_refine_diff_density_max         0.299
_refine_diff_density_min         -0.368
_refine_ls_extinction_method     none
_refine_ls_goodness_of_fit_ref   0.874
_refine_ls_hydrogen_treatment    mixed
_refine_ls_matrix_type           full
_refine_ls_number_parameters     109
_refine_ls_number_reflns         1407
_refine_ls_number_restraints     12
_refine_ls_restrained_S_all      0.870
_refine_ls_R_factor_all          0.1019
_refine_ls_R_factor_gt           0.0720
_refine_ls_shift/su_max          0.000
_refine_ls_shift/su_mean         0.000
_refine_ls_structure_factor_coef Fsqd
_refine_ls_weighting_details
'w=1/[\s^2^(Fo^2^)+(0.1122P)^2^] where P=(Fo^2^+2Fc^2^)/3'
_refine_ls_weighting_scheme      calc
_refine_ls_wR_factor_gt          0.1784
_refine_ls_wR_factor_ref         0.1928
_reflns_number_gt                806
_reflns_number_total             1407
_reflns_threshold_expression     'I > 2\s(I)'
_cod_data_source_file            nk2236sup1.cif
_cod_data_source_block           1
_cod_original_cell_volume        319.08(12)
_cod_database_code               2242232
_shelx_space_group_comment
;
The symmetry employed for this shelxl refinement is uniquely defined
by the following loop, which should always be used as a source of
symmetry information in preference to the above space-group names.
They are only intended as comments.
;
_shelx_estimated_absorpt_t_min   0.956
_shelx_estimated_absorpt_t_max   0.981
_shelx_hkl_file
;
  -7  -1   1 5.44964 13.4551   1
  -7  -1   1 5.28714 10.0598   1
  -7  -1   2 8.80199 9.98236   1
  -7  -1   2 5.20405 10.9654   1
  -7  -1   3 6.47845 12.8883   1
  -7  -1   4 11.5552 14.7479   1
  -7  -1   5 27.7224  11.005   1
  -7  -1   6 2.58417 11.4755   1
  -7  -1   7 1.64371 12.9592   1
  -7  -1   8 13.3205 11.5134   1
  -7   0   1-0.35156 9.06124   1
  -7   0   2 1.67192 8.90652   1
  -7   0   3 28.3007 7.27722   1
  -7   0   4 3.78101 9.15403   1
  -7   0   5 3.56749 9.55426   1
  -7   0   6 2.39485 8.08566   1
  -7   0   7 0.46273 11.4932   1
  -7   0   8 3.49466 9.44414   1
  -7   0   9-3.56481 10.3172   1
  -7   1   0 21.6728 10.3206   1
  -7   1   1 5.98119  8.9263   1
  -7   1   2 8.16914 9.89222   1
  -7   1   3 9.30811 8.36667   1
  -7   1   4 11.7685 8.22031   1
  -7   1   5 42.4906 9.42126   1
  -7   1   6 0.07105 9.13031   1
  -7   1   7 12.4075 10.3723   1
  -7   1   8 12.8871 10.1122   1
  -7   2   0 0.78734 9.58601   1
  -7   2   1 9.56649 7.63259   1
  -7   2   2 9.73243 9.86862   1
  -7   2   3 66.0455  11.845   1
  -7   2   4 19.5166 8.77794   1
  -6  -2   7  5.3516 13.9962   1
  -6  -2   8 5.51875 12.3943   1
  -6  -2   9 8.74262 11.5251   1
  -6  -2  10 3.20006 9.76023   1
  -6  -1   1 29.7342 10.0251   1
  -6  -1   1 20.6228 9.55609   1
  -6  -1   2 35.9997 9.63324   1
  -6  -1   3 27.0827 9.63408   1
  -6  -1   4  18.945 10.3597   1
  -6  -1   5 20.6062 8.41409   1
  -6  -1   6 17.4886 8.24477   1
  -6  -1   7 6.70016 8.22383   1
  -6  -1   8 6.19025 10.9352   1
  -6  -1   9 0.89329 9.07056   1
   6   1 -10 8.96366  7.8113   1
  -6  -1  10 25.2534 10.5648   1
  -6  -1  11 1.77675 9.48401   1
   6   1 -11 4.38617 8.55196   1
   6   1 -12-2.09524 9.53894   1
  -6  -1  12-0.56871  9.6166   1
  -6   0   1 5.03151 7.27809   1
  -6   0   2 31.6257 7.61976   1
  -6   0   3 1.92442 9.28495   1
  -6   0   4  193.90 14.3105   1
  -6   0   5 11.7111  6.7009   1
  -6   0   6 1.83748 6.94484   1
  -6   0   7 46.4099 7.69821   1
  -6   0   8-1.77875 7.08221   1
  -6   0   9 3.20054  9.2736   1
  -6   0  10 30.6922 11.1352   1
  -6   0  11 6.88855  8.9969   1
   6   0 -11 4.80938 8.56106   1
  -6   0  12-1.43655  8.7394   1
   6   0 -12 0.96615 7.40745   1
   6   0 -13 3.28245 8.59112   1
  -6   1   0 2.67544 6.88419   1
  -6   1   1 37.0525 9.64696   1
  -6   1   2 34.6946 7.21263   1
  -6   1   3 33.6525 8.76427   1
  -6   1   4 23.4175  6.5673   1
  -6   1   5 32.4262 7.23157   1
  -6   1   6 22.5303 6.49816   1
  -6   1   7 5.87558 7.62584   1
  -6   1   8 8.84594 7.73895   1
  -6   1   9 3.29184 8.54579   1
  -6   1  10   29.01 7.43557   1
  -6   1  11 11.0023 9.88453   1
  -6   1  12 1.75747 9.82824   1
  -6   2   0 131.527 12.6781   1
  -6   2   1 5.04146 6.76189   1
  -6   2   2 25.9031 9.65132   1
  -6   2   3-0.42558 6.37369   1
  -6   2   4 9.40202 9.11857   1
  -6   2   5 1.00485  7.6135   1
  -6   2   6 5.31796 7.73278   1
  -6   2   7 4.37547 7.19663   1
  -6   2   8 2.26569 8.81496   1
  -6   2   9 15.8784  8.8667   1
  -6   2  10 1.06357  10.911   1
  -6   3   0 25.6383  9.6066   1
  -6   3   1 15.1919 8.23768   1
  -6   3   2 44.2934 11.1938   1
  -6   3   3 15.7792 8.82532   1
  -6   3   4  14.467 10.5554   1
  -6   3   5 2.00801  8.6088   1
   5   3 -10 0.44725 15.5367   1
  -5  -2   6  0.9165 10.2269   1
  -5  -2   7 7.16402 8.16197   1
  -5  -2   8 7.93826 12.9733   1
   5   2  -8 4.82645 8.79974   1
   5   2  -9 5.91622 8.26314   1
  -5  -2   9 7.38182 7.46642   1
  -5  -2  10   23.66 9.74387   1
   5   2 -10 22.4291 9.23669   1
   5   2 -11 13.7317 8.11148   1
  -5  -2  11  23.306 9.96386   1
  -5  -2  12  24.845 10.4993   1
   5   2 -12 26.5336 9.48802   1
  -5  -2  13 5.26397 12.9728   1
   5   2 -13 7.11771 9.20154   1
  -5  -1   1  7.3695 8.29501   1
  -5  -1   2 40.7311 7.60648   1
  -5  -1   3 192.899 21.0798   1
  -5  -1   4 8.02015  8.6785   1
  -5  -1   5  11.828 6.26786   1
  -5  -1   6 1.93869 6.84192   1
   5   1  -7 5.05323  8.5436   1
  -5  -1   7 2.69762 7.44082   1
  -5  -1   8-2.28684 8.10947   1
   5   1  -8-1.06366 7.04061   1
  -5  -1   9 99.1805 18.0628   1
   5   1  -9 110.675 11.2567   1
  -5  -1  10 186.643 14.5066   1
   5   1 -10  228.12 18.9582   1
  -5  -1  11  33.629 7.43071   1
   5   1 -11 14.5713 5.86773   1
   5   1 -12 2.80728 7.75141   1
  -5  -1  12 8.28532 8.28046   1
   5   1 -13 1.01427 7.38269   1
  -5  -1  13 2.82899 8.65561   1
   5   1 -14 8.57644 10.5484   1
  -5  -1  14  12.596 10.5294   1
   5   1 -15 10.0868 10.7481   1
  -5  -1  15 5.70776 7.47518   1
  -5   0   1 18.2083 6.66607   1
  -5   0   2 58.9395 9.68015   1
  -5   0   3 136.421 12.6868   1
  -5   0   4-4.56283 4.95755   1
  -5   0   5 58.9674 8.85103   1
  -5   0   6 -1.0248 5.86685   1
   5   0  -7 24.2484 5.84521   1
  -5   0   7 33.1989 8.67068   1
   5   0  -8 177.691 13.9246   1
  -5   0   8 181.073 25.3943   1
   5   0  -9  6.7912 6.14071   1
  -5   0   9 3.15239 7.87974   1
  -5   0  10 100.145 16.3417   1
   5   0 -10 98.5616 9.67456   1
  -5   0  11 3.41738 7.58325   1
   5   0 -11  0.4629 9.99587   1
  -5   0  12 25.0157 7.65153   1
   5   0 -12 23.6552 7.31914   1
  -5   0  13-3.15212 7.69223   1
   5   0 -13 0.27289 8.47063   1
   5   0 -14 4.22199 8.59203   1
  -5   0  14-0.50414 8.06623   1
  -5   0  15 21.8931 10.6734   1
   5   0 -15 6.43062 9.99527   1
  -5   1   0 31.2932  5.8321   1
  -5   1   1 4.59247 4.47937   1
  -5   1   2 42.7189 8.03957   1
  -5   1   3 127.716 22.5432   1
  -5   1   4 12.9943 7.10955   1
  -5   1   5 19.6293 6.28386   1
  -5   1   6 2.29232 7.91519   1
  -5   1   7 2.00813 7.06344   1
  -5   1   8 3.80839 6.14499   1
  -5   1   9 106.833 9.20875   1
   5  -1  -9 142.098 15.5289   1
   5  -1 -10  220.84 16.8509   1
  -5   1  10 181.946 11.7515   1
  -5   1  11 40.5823 8.87806   1
   5  -1 -11 42.0298 7.97668   1
   5  -1 -12 9.93075 7.00353   1
  -5   1  12 -2.3685 7.86852   1
  -5   1  13-1.37896 10.4466   1
   5  -1 -13-1.49405 7.39445   1
  -5   1  14 13.7453 8.37172   1
   5  -1 -14 14.8485 8.18912   1
   5  -1 -15 6.13303 7.59814   1
  -5   1  15 12.9294  8.6586   1
  -5   2   0 14.8372 5.56714   1
  -5   2   1 109.342 10.8174   1
  -5   2   2 10.3437 6.04128   1
  -5   2   3 18.0723  6.3124   1
  -5   2   4-0.71267 5.94991   1
  -5   2   5 119.453 13.0498   1
  -5   2   6 1.47081 6.87642   1
  -5   2   7 11.7156 7.36768   1
  -5   2   8 16.1902 7.38795   1
  -5   2   9 6.60235 7.33482   1
  -5   2  10 22.6287 8.43567   1
  -5   2  11 19.6455 9.01129   1
  -5   2  12 23.8593 8.39067   1
   5  -2 -12 25.6201 7.00209   1
   5  -2 -13 9.03862 9.43333   1
  -5   2  13 9.73526  9.6665   1
  -5   3   0 26.9292 7.90973   1
  -5   3   1 10.1361 7.91424   1
  -5   3   2 24.1781 7.32357   1
  -5   3   3 20.9702 9.48104   1
  -5   3   4 37.4876 7.56616   1
  -5   3   5 23.4239 9.39299   1
  -5   3   6 16.6321 8.49232   1
  -5   3   7 18.6568 11.1313   1
  -5   3   8 3.04103 7.39647   1
  -5   3   9 3.45713 10.2148   1
  -5   3  10-3.75119 9.48867   1
  -5   4   0 5.30537 7.84438   1
  -5   4   1 13.5428 10.0638   1
  -5   4   2 8.59995 7.80013   1
   4   3  -7 6.75062  11.995   1
   4   3  -8 6.01047 13.4992   1
   4   3  -9 2.38069 9.43702   1
   4   3 -10-0.33418 11.8119   1
   4   3 -11 14.4907 9.92622   1
   4   3 -12 4.21233 12.2922   1
   4   3 -13-1.65081 13.7671   1
   4   2  -5 43.1377  9.8121   1
  -4  -2   5 75.7567 11.0442   1
   4   2  -6   16.75  9.5809   1
  -4  -2   6 14.1098 6.69009   1
   4   2  -7  76.549  11.978   1
  -4  -2   7 57.8633 9.33995   1
   4   2  -8 10.6843 7.03107   1
  -4  -2   8  18.595 16.9115   1
   4   2  -9 37.5163 8.98738   1
  -4  -2   9 38.4418 30.6803   1
  -4  -2  10  14.308 7.09236   1
   4   2 -10  13.316 7.77824   1
  -4  -2  11 7.05958 6.10265   1
   4   2 -11 5.90726  7.8251   1
  -4  -2  12 10.6232 12.7762   1
   4   2 -12 4.17213 9.44663   1
  -4  -2  13  27.189 23.2148   1
   4   2 -13 17.4523   10.40   1
  -4  -2  14 24.8558 8.67761   1
   4   2 -14 21.6597 8.28277   1
  -4  -2  15 4.18373 7.64365   1
   4   2 -15 2.71257 8.54274   1
  -4  -1   1 14.2768 7.69119   1
  -4  -1   2 58.3941 8.01356   1
  -4  -1   3 263.986 31.5024   1
  -4  -1   4 84.3865  14.511   1
  -4  -1   5 28.3488 6.18501   1
   4   1  -5 35.2279 7.89964   1
  -4  -1   6 64.6502 7.78373   1
   4   1  -6 73.2946 8.60012   1
  -4  -1   7 286.598 32.0862   1
   4   1  -7 284.324 36.8932   1
  -4  -1   8 190.451 30.6741   1
   4   1  -8 188.505 34.5835   1
  -4  -1   9 13.7883 7.22933   1
   4   1  -9 16.4025 6.70252   1
   4   1 -10 107.265  8.8486   1
  -4  -1  10 71.8743 7.86475   1
   4   1 -11 120.234 12.3778   1
  -4  -1  11 114.638 12.6028   1
  -4  -1  12 9.37916   6.201   1
   4   1 -12 10.0635 7.07532   1
   4   1 -13 9.93812 7.11513   1
  -4  -1  13 9.99372  6.6288   1
  -4  -1  14 10.6542 5.91588   1
   4   1 -14 5.19249 7.70575   1
  -4  -1  15 12.0968 7.43958   1
   4   1 -15-5.21213 7.15466   1
   4   1 -16   12.42 7.82051   1
  -4  -1  16 17.5806 8.37074   1
   4   1 -17 1.93995 8.62673   1
  -4  -1  17 2.35193 6.66208   1
  -4   0   1 193.722 25.9847   1
  -4   0   2 80.2132 7.69881   1
  -4   0   3 16.7754 4.85572   1
  -4   0   4 1.89804 6.56791   1
   4   0  -5 26.0764 4.74154   1
  -4   0   5 42.3033 7.68469   1
  -4   0   6  32.595 5.10221   1
   4   0  -6 33.8063 6.10741   1
   4   0  -7 4.14283 4.89313   1
  -4   0   7 2.61675 5.24488   1
  -4   0   8  222.47 26.2589   1
   4   0  -8 217.087 30.9069   1
  -4   0   9 1093.65 143.032   1
   4   0  -9 1064.92  135.35   1
   4   0 -10 55.5191 8.75111   1
  -4   0  10 39.5744 6.62923   1
   4   0 -11 8.57248 5.09742   1
  -4   0  11 20.8676 5.64634   1
   4   0 -12 20.3034 8.71226   1
  -4   0  12  28.817 6.87849   1
   4   0 -13 0.96769 7.04913   1
  -4   0  13 2.52365 7.32713   1
  -4   0  14 8.72571 7.99304   1
   4   0 -14 4.46318 6.64179   1
   4   0 -15-1.34223 6.55622   1
  -4   0  15-1.88922 8.38557   1
  -4   0  16 18.6346 9.63346   1
   4   0 -16  10.132 6.94881   1
   4   0 -17-0.84726 7.61583   1
  -4   0  17 4.12358 8.50773   1
  -4   1   0 66.7681 8.61883   1
  -4   1   1 19.1886 7.19925   1
  -4   1   2 43.6623 6.19288   1
  -4   1   3 302.837 28.2483   1
  -4   1   4 80.8799 9.87572   1
  -4   1   5 44.0257 6.54796   1
  -4   1   6 95.2513 8.09825   1
   4  -1  -6 96.9495 10.5608   1
  -4   1   7  327.03 20.5313   1
   4  -1  -7 298.467 21.5478   1
   4  -1  -8 214.403 21.3711   1
  -4   1   8 200.541 12.1499   1
  -4   1   9 11.6103 6.67518   1
   4  -1  -9 18.2826 5.06986   1
  -4   1  10 74.7906 7.88297   1
   4  -1 -10 99.6557 11.5499   1
   4  -1 -11 160.558 10.8363   1
  -4   1  11 153.527 18.9938   1
  -4   1  12 2.71023 6.96969   1
   4  -1 -12  3.9127 6.75352   1
   4  -1 -13 6.93823 5.52957   1
  -4   1  13 14.1828 6.02662   1
   4  -1 -14 6.22101 5.91409   1
  -4   1  14 8.10295 6.85482   1
  -4   1  15 6.96948 6.88201   1
   4  -1 -15 3.26816 7.63351   1
  -4   1  16 12.3835 7.53293   1
   4  -1 -16 10.0998 7.98481   1
   4  -1 -17 2.38173 8.26465   1
  -4   2   0 26.0051 6.23438   1
  -4   2   1 424.486 49.2077   1
  -4   2   2 67.5154 11.0171   1
  -4   2   3 58.9411 9.46894   1
  -4   2   4  130.75 23.0442   1
  -4   2   5 75.8779  9.4024   1
  -4   2   6 28.1268   6.478   1
  -4   2   7 70.0537 12.5556   1
  -4   2   8 12.4403 6.49811   1
   4  -2  -8 18.0861 5.16258   1
  -4   2   9 23.6675 6.85452   1
   4  -2  -9 56.3737 8.92227   1
   4  -2 -10 25.1689 6.25106   1
  -4   2  10 21.4927 7.98641   1
  -4   2  11 14.5409 8.10264   1
   4  -2 -11  5.0809 6.56714   1
   4  -2 -12 13.8625 7.40983   1
  -4   2  12 3.55341 8.10223   1
  -4   2  13 17.3289 8.85678   1
   4  -2 -13 16.3547 9.41041   1
  -4   2  14 40.8794  10.017   1
   4  -2 -14 15.4303 7.49345   1
  -4   2  15-5.99324 12.3068   1
   4  -2 -15 2.40228 7.89811   1
  -4   3   0 79.3187  9.8139   1
  -4   3   1 5.41274 6.24476   1
  -4   3   2 19.4888 5.52676   1
  -4   3   3 19.1559 8.10855   1
  -4   3   4 1.32048 5.70365   1
  -4   3   5 34.8508 8.32656   1
  -4   3   6 8.16564 7.15028   1
  -4   3   7 18.4212 7.06915   1
  -4   3   8 9.60768 6.61358   1
  -4   3   9 4.03337 8.45295   1
  -4   3  10 5.42561 7.79197   1
  -4   3  11 15.8228 9.48137   1
  -4   3  12-6.46485 7.75078   1
  -4   3  13 4.96452 10.4624   1
   4  -3 -13 3.27813 7.51276   1
  -4   4   0 53.3097 9.25908   1
  -4   4   1 5.71987 7.88393   1
  -4   4   2 22.1752 10.2074   1
  -4   4   3  10.243 7.53957   1
  -4   4   4 19.5974 9.77036   1
  -4   4   5 26.2332 7.89074   1
  -4   4   6 4.91618 8.59719   1
  -4   4   7-1.10169 8.38147   1
  -4   4   8 7.46384 7.96517   1
   3   4  -5 49.8316 22.2728   1
   3   4  -6 29.6305 16.5934   1
   3   4  -6 32.2948 13.7839   1
   3   4  -7   3.743 13.7059   1
   3   4  -8  2.6769 10.9814   1
   3   4  -9-1.22373 10.7839   1
   3   4 -10 2.25204 11.5442   1
   3   3  -4  131.13 17.8918   1
   3   3  -4 136.003 16.5053   1
   3   3  -5 134.597  17.529   1
   3   3  -6 76.8059 10.4281   1
   3   3  -7 0.92071 9.82964   1
   3   3  -8 13.7248 10.0891   1
   3   3  -9 13.8535 7.15641   1
   3   3 -10 13.8351 7.16159   1
   3   3 -11 8.70831 10.5794   1
   3   3 -12 38.0701 9.76589   1
   3   3 -13 8.26519 8.96135   1
   3   3 -14 3.14243 8.91409   1
   3   2  -4 16.4865 7.19408   1
  -3  -2   5 25.3796  6.7265   1
   3   2  -5 18.7965 6.47419   1
  -3  -2   6 366.047 21.8004   1
   3   2  -6  334.34 21.5342   1
   3   2  -7 445.058 32.9303   1
  -3  -2   7  466.12 35.0483   1
  -3  -2   8 44.5127 19.3355   1
   3   2  -8 44.9959 7.19521   1
   3   2  -9 96.0336 16.7455   1
  -3  -2   9 79.8996 9.88678   1
  -3  -2  10 38.9936 7.36017   1
   3   2 -10 39.6748 7.86014   1
  -3  -2  11 14.4699 6.75813   1
   3   2 -11 5.41662 6.35504   1
  -3  -2  12  8.5975 7.27873   1
   3   2 -12-0.59567 6.55304   1
   3   2 -13 2.89871 6.78011   1
  -3  -2  13 8.02944  6.2898   1
  -3  -2  14 13.9363 6.81309   1
   3   2 -14 14.2386 7.20552   1
   3   2 -15 0.27509  8.7258   1
  -3  -2  15 3.19261 7.58995   1
   3   2 -16 6.42118  9.5767   1
  -3  -2  16 3.84919  8.5612   1
   3   2 -17 1.22282  12.267   1
  -3  -1   1 150.351  13.316   1
  -3  -1   2 18.0362  7.1621   1
  -3  -1   3 266.537 15.6239   1
   3   1  -3 191.758 14.2966   1
  -3  -1   4 203.317 15.4975   1
   3   1  -4 174.063 20.7293   1
   3   1  -5 91.4786 7.37585   1
  -3  -1   5 131.079 15.8161   1
  -3  -1   6 57.9185 11.2572   1
   3   1  -6 38.7255 8.18604   1
   3   1  -7 283.733 20.0849   1
  -3  -1   7 272.227 17.5662   1
   3   1  -8 683.651 34.7658   1
  -3  -1   8 684.845 39.5222   1
  -3  -1   9 111.424 7.97306   1
   3   1  -9 158.929 11.6338   1
   3   1 -10 48.0646 6.64273   1
  -3  -1  10 30.5099 5.06408   1
  -3  -1  11 49.0049 6.99273   1
   3   1 -11 42.8654 6.23788   1
  -3  -1  12 30.7263 8.20277   1
   3   1 -12  19.236 6.88022   1
   3   1 -13  11.194 7.08749   1
  -3  -1  13 18.0428 7.43617   1
   3   1 -14 0.71793 5.55227   1
  -3  -1  14-2.54951 6.33936   1
   3   1 -15 19.3021 7.04315   1
  -3  -1  15 15.8314 5.73686   1
  -3  -1  16-0.30941 6.29165   1
   3   1 -16 4.57571  6.4991   1
  -3  -1  17 2.36881 6.65655   1
   3   1 -17-1.31102 6.83333   1
  -3  -1  18 1.81768 7.41801   1
   3   1 -18 0.32513 7.70462   1
  -3   0   1 2.70415 4.78201   1
  -3   0   2 2077.39 347.285   1
  -3   0   3 4.16144 5.90986   1
   3   0  -3 0.36936 4.04313   1
  -3   0   4 344.183 19.8833   1
   3   0  -4 336.329 26.7872   1
   3   0  -5 117.756 11.3689   1
  -3   0   5 109.418 8.67635   1
  -3   0   6 139.185 9.57616   1
   3   0  -6  122.30 17.4726   1
   3   0  -7 1.87406  4.4684   1
  -3   0   7-2.52042 4.95459   1
   3   0  -8 270.857 23.9926   1
  -3   0   8 263.937 24.4408   1
  -3   0   9 30.7322 5.79153   1
   3   0  -9 34.7487  6.1876   1
   3   0 -10 123.397  13.383   1
  -3   0  10 125.956 15.8469   1
   3   0 -11 38.3339 8.53978   1
  -3   0  11  41.014 6.14484   1
   3   0 -12 5.78756 5.66146   1
  -3   0  12-0.09448 6.10595   1
   3   0 -13 0.24789 5.87044   1
  -3   0  13-0.26991 6.40429   1
   3   0 -14 12.9328  7.0755   1
  -3   0  14 24.5428 6.82861   1
   3   0 -15 2.84518 8.36888   1
  -3   0  15  15.312 7.71591   1
   3   0 -16  0.6431  7.2209   1
  -3   0  16 1.99172 5.49263   1
   3   0 -17 5.41535 7.82828   1
  -3   0  17 1.11718 7.47266   1
   3   0 -18 3.01135 8.50677   1
  -3   0  18 11.6604 9.31948   1
  -3   1   0 749.026 76.9316   1
  -3   1   1 152.816 13.3597   1
  -3   1   2 11.6382 4.28544   1
  -3   1   3 271.771 49.6546   1
  -3   1   4  260.28 23.4948   1
   3  -1  -4 269.032 25.0214   1
  -3   1   5 138.992 11.5797   1
   3  -1  -5 135.385 13.7678   1
  -3   1   6 47.2061 5.50962   1
   3  -1  -6 56.9455 6.08929   1
   3  -1  -7 271.901 15.5717   1
  -3   1   7 301.723 20.3668   1
   3  -1  -8 603.256 55.7366   1
  -3   1   8 613.653 55.7272   1
   3  -1  -9 144.174 13.1508   1
  -3   1   9 128.829 8.24681   1
  -3   1  10 56.2309 7.13669   1
   3  -1 -10 72.6601 11.6749   1
   3  -1 -11 48.2546 9.92384   1
  -3   1  11 57.8213 8.43436   1
  -3   1  12 27.6363 8.69629   1
   3  -1 -12 18.9928 5.84673   1
  -3   1  13 13.2192 6.26029   1
   3  -1 -13 23.3817  7.0635   1
  -3   1  14 3.08452 5.72693   1
   3  -1 -14 0.73574 6.16086   1
  -3   1  15 17.8083 6.32869   1
   3  -1 -15 15.3331 6.25259   1
  -3   1  16 7.66717 7.48347   1
   3  -1 -16 0.40266 6.54082   1
  -3   1  17  -2.749 9.01856   1
   3  -1 -17-0.56974 7.10227   1
  -3   1  18-1.25896  10.656   1
   3  -1 -18 3.37912  7.8229   1
  -3   2   0  18.466 4.84567   1
  -3   2   1 2.82097 5.60869   1
  -3   2   2 13.3565 5.25395   1
  -3   2   3 62.4168 7.62084   1
  -3   2   4 28.7749 5.61102   1
  -3   2   5  31.154 6.37949   1
  -3   2   6 379.748 29.0056   1
   3  -2  -6 370.302 23.3102   1
   3  -2  -7  472.07 30.8824   1
  -3   2   7 427.194 22.8331   1
   3  -2  -8 55.4197 7.55072   1
  -3   2   8 49.8187 6.75455   1
  -3   2   9 102.209 8.13033   1
   3  -2  -9 124.964 11.1121   1
   3  -2 -10 34.5343 5.83239   1
  -3   2  10 53.6189 7.52731   1
  -3   2  11  22.236 6.21047   1
   3  -2 -11 15.8053 6.35112   1
   3  -2 -12 6.75333 6.36481   1
  -3   2  12 10.0359 7.23664   1
  -3   2  13 5.30536 7.69638   1
   3  -2 -13 10.4804  6.7476   1
  -3   2  14 8.74232 10.7209   1
   3  -2 -14  9.0964 5.88028   1
  -3   2  15  0.7883 7.94882   1
   3  -2 -15-0.10949 5.76647   1
   3  -2 -16 15.0568 9.03376   1
  -3   2  16-2.43398 8.46041   1
   3  -2 -17-1.23268 6.81264   1
  -3   3   0 99.2238 12.9997   1
  -3   3   1 49.9333 8.13142   1
  -3   3   2 42.9489 7.36586   1
  -3   3   3  106.57 14.4472   1
  -3   3   4 223.078 38.7193   1
  -3   3   5 178.208 17.5138   1
  -3   3   6 85.5479 16.0597   1
  -3   3   7 8.16741 7.66572   1
  -3   3   8 12.0841 6.68933   1
  -3   3   9 21.3855 8.32456   1
   3  -3 -10 14.5972 5.43386   1
  -3   3  10 16.7031 7.46391   1
  -3   3  11 15.5943 7.11529   1
   3  -3 -11 16.3118 8.20757   1
   3  -3 -12  34.729 6.76839   1
  -3   3  12  21.866 7.94962   1
  -3   3  13 11.3867 8.65661   1
   3  -3 -13 26.1719 7.85492   1
   3  -3 -14 5.52644 8.08594   1
  -3   3  14 3.36638 9.71198   1
  -3   4   0 14.6229 7.21139   1
  -3   4   1 0.12427 6.57732   1
  -3   4   2 5.82291 8.47197   1
  -3   4   3 27.5005 7.40652   1
  -3   4   4 134.213 15.9089   1
  -3   4   5 68.0358 9.18233   1
  -3   4   6 41.5091 9.58512   1
  -3   4   7 -2.6692 8.57497   1
  -3   4   8 1.55126 8.14749   1
  -3   4   9-2.46002 8.41658   1
  -3   4  10 7.28581 8.08178   1
   2   5  -1 1.74583 14.5677   1
   2   5  -1 1.82235 13.2923   1
   2   5  -2 3.13827 14.5284   1
   2   5  -2 6.55457 12.3114   1
   2   5  -3 3.04296 14.2889   1
   2   5  -3 2.06704  12.811   1
   2   4  -1 16.0612 10.5739   1
   2   4  -1 14.0639 8.89653   1
   2   4  -2 3.20925 9.62165   1
   2   4  -2  4.2129 6.64256   1
   2   4  -3 34.5168 8.79361   1
   2   4  -3 36.9525 8.13854   1
   2   4  -4 247.301 18.8994   1
   2   4  -4 289.342 21.7996   1
   2   4  -5 106.042 11.2343   1
   2   4  -5 143.664 18.4091   1
   2   4  -6 30.8459 9.85943   1
   2   4  -7 6.08062 10.9385   1
   2   4  -8 7.39851 9.89022   1
   2   4  -9 0.50874 7.90956   1
   2   4 -10 7.51456 8.46559   1
   2   4 -11 10.9705 10.2209   1
   2   4 -12 10.4777 10.9094   1
   2   3  -1 23.8527 8.59695   1
   2   3  -1  19.685  7.6607   1
   2   3  -2 153.005   18.16   1
   2   3  -2 170.002 13.7656   1
   2   3  -3 492.448 101.206   1
   2   3  -4 241.777 16.1209   1
   2   3  -5 527.897 33.9051   1
   2   3  -6 249.926 40.2496   1
   2   3  -7 60.6524 10.1404   1
   2   3  -8 25.9171 6.63697   1
   2   3  -9 13.6702 7.09948   1
   2   3 -10 14.5314 6.31071   1
   2   3 -11  4.9237 6.48943   1
   2   3 -12 1.93349 5.77438   1
   2   3 -13-1.42376 8.29324   1
   2   3 -14 2.35459 9.94914   1
   2   3 -15 3.87677 7.70639   1
   2   2  -1 346.659 25.8014   1
   2   2  -1 354.955 35.6007   1
   2   2  -2 789.294 48.7429   1
   2   2  -3 983.463 68.1548   1
   2   2  -4 107.496 10.5478   1
   2   2  -5 130.114 9.69995   1
   2   2  -6 339.195 21.9759   1
  -2  -2   6 328.486 30.2692   1
  -2  -2   7 302.081 17.8241   1
   2   2  -7 237.924 13.8791   1
  -2  -2   8 147.919 10.3481   1
   2   2  -8 125.497 9.00383   1
   2   2  -9 48.3905 10.6785   1
  -2  -2   9  35.285 8.33915   1
   2   2 -10 159.433 12.1394   1
  -2  -2  10 156.833 12.9657   1
   2   2 -11 37.7022 8.05439   1
  -2  -2  11 39.9671 7.23349   1
   2   2 -12 5.64798 5.35589   1
  -2  -2  12 11.7186 5.82646   1
  -2  -2  13 0.12503 5.85567   1
   2   2 -13  1.9454 7.49192   1
  -2  -2  14 9.72961 7.60299   1
   2   2 -14 9.11945  6.6526   1
  -2  -2  15 7.92387 6.46049   1
   2   2 -15 6.01584 9.16908   1
   2   2 -16 15.1911 7.46832   1
  -2  -2  16 12.3373 8.05955   1
  -2  -2  17 3.70318 6.83089   1
   2   2 -17 3.43892 10.5379   1
  -2  -1   1 1082.33 78.0639   1
   2   1  -2  742.93 63.9503   1
  -2  -1   2 789.872 73.9272   1
   2   1  -3 62.9683 9.18471   1
  -2  -1   3 52.4448 8.44565   1
  -2  -1   4 46.5767 7.18337   1
   2   1  -4 48.2131  9.3806   1
   2   1  -5 15.6993 5.31414   1
  -2  -1   5 13.4869 4.49531   1
   2   1  -6 64.0618 7.57569   1
  -2  -1   6 45.1295 6.24462   1
  -2  -1   7 410.817 20.1382   1
   2   1  -7 464.112 23.2276   1
   2   1  -8 237.309 14.1239   1
  -2  -1   8 249.537 21.8319   1
   2   1  -9 118.492 8.35642   1
  -2  -1   9 97.0381 7.25021   1
  -2  -1  10 33.6957 7.90927   1
   2   1 -10 16.7529 5.14824   1
  -2  -1  11  4.3564 4.78714   1
   2   1 -11 4.33594 4.39916   1
  -2  -1  12 11.2641 5.18902   1
   2   1 -12  10.945 6.20457   1
   2   1 -13 48.5848 6.48609   1
  -2  -1  13 30.9968 4.77898   1
   2   1 -14  16.902 5.89466   1
  -2  -1  14 14.4829 5.42079   1
  -2  -1  15 8.92149 6.60447   1
   2   1 -15 5.23764 5.60266   1
  -2  -1  16 1.64934 5.73353   1
   2   1 -16 2.13527 7.07424   1
  -2  -1  17 7.08838 8.69302   1
   2   1 -17 7.73396 7.54344   1
   2   1 -18  0.4223 8.26823   1
  -2  -1  18 1.80619 6.08356   1
   2   1 -19-0.47479 9.52891   1
  -2  -1  19 9.08351 8.81638   1
  -2   0   1 818.204 115.564   1
  -2   0   2 245.299 21.7231   1
   2   0  -2 231.333 16.8541   1
   2   0  -3 115.317 10.8598   1
  -2   0   3 111.333 8.55285   1
  -2   0   4 483.575 25.2759   1
   2   0  -4 493.606 26.0173   1
   2   0  -5 26.4302 4.96386   1
  -2   0   5 31.5341  5.6229   1
   2   0  -6 167.085 12.3367   1
  -2   0   6 150.458 11.2951   1
  -2   0   7 244.698 16.5736   1
   2   0  -7 267.357 14.6966   1
  -2   0   8 407.783 20.8818   1
   2   0  -8 394.022 29.6896   1
  -2   0   9 64.2848 7.15028   1
   2   0  -9 54.8033 5.80281   1
   2   0 -10 327.432 22.4321   1
  -2   0  10  335.19 17.0298   1
   2   0 -11 239.485 15.3285   1
  -2   0  11 236.837 18.5497   1
  -2   0  12 -0.0348 5.74222   1
   2   0 -12 1.13601 5.29032   1
  -2   0  13 15.7051 7.48314   1
   2   0 -13 13.1869 5.89132   1
   2   0 -14 60.3468 8.29082   1
  -2   0  14 44.6349  7.2017   1
   2   0 -15 29.9407 7.67574   1
  -2   0  15 22.9284 6.35346   1
   2   0 -16  3.7355 6.76727   1
  -2   0  16 2.48203 7.21559   1
   2   0 -17 -1.4684 7.11826   1
  -2   0  17 4.43594 6.02392   1
  -2   0  18-2.57289 7.52459   1
   2   0 -18 1.56815 6.68728   1
   2   0 -19 5.44387  9.3079   1
  -2   0  19-3.36904 6.03546   1
  -2   1   1 868.188 86.9546   1
  -2   1   2 632.098 89.7387   1
  -2   1   3 65.8718 8.39464   1
   2  -1  -3 58.5154 6.11512   1
  -2   1   4 38.8138 5.66278   1
   2  -1  -4 45.1861 5.41899   1
   2  -1  -5 23.5861 5.14829   1
  -2   1   5 12.6409 5.55195   1
   2  -1  -6 62.8442 8.64979   1
  -2   1   6 44.0558 5.86981   1
   2  -1  -7 512.539  44.257   1
  -2   1   7  517.01  47.048   1
   2  -1  -8 209.949 15.9239   1
  -2   1   8 210.486 11.3447   1
  -2   1   9 137.347 11.9029   1
   2  -1  -9 135.692 13.1947   1
   2  -1 -10 24.3018 5.85826   1
  -2   1  10 20.6353 6.85657   1
  -2   1  11 0.54755 4.52223   1
   2  -1 -11 2.24173 4.58749   1
   2  -1 -12 8.55123 4.93688   1
  -2   1  12 7.68529 5.15428   1
   2  -1 -13  60.105 11.7318   1
  -2   1  13 46.0372 6.93693   1
   2  -1 -14 25.5083 6.09225   1
  -2   1  14 18.7353 6.95764   1
  -2   1  15 5.65259 6.65903   1
   2  -1 -15  6.7887 6.60833   1
   2  -1 -16 0.78542 7.00273   1
  -2   1  16 5.76008 8.01456   1
   2  -1 -17 6.62334 6.88745   1
  -2   1  17 6.44348 7.40536   1
   2  -1 -18-4.73317 7.50324   1
  -2   1  18 3.61927 7.72505   1
   2  -1 -19 5.16933 8.24715   1
  -2   1  19 4.46765 8.73329   1
  -2   2   0 240.744 25.8196   1
  -2   2   1 397.348 42.2108   1
  -2   2   2 1026.04 81.8913   1
  -2   2   3 1292.78 147.771   1
  -2   2   4 106.091  9.2937   1
   2  -2  -5 121.196 12.4153   1
  -2   2   5 139.574 15.0232   1
  -2   2   6 389.185 43.1742   1
   2  -2  -6 388.772 37.1567   1
   2  -2  -7 255.658 16.6652   1
  -2   2   7 207.447 12.9456   1
   2  -2  -8 145.203 15.2275   1
  -2   2   8 142.367 11.6682   1
   2  -2  -9 35.5011 6.53926   1
  -2   2   9 25.6585 5.26247   1
  -2   2  10 140.885  9.8598   1
   2  -2 -10  137.93 13.6722   1
   2  -2 -11 33.4269 6.18103   1
  -2   2  11 35.5338 7.51096   1
  -2   2  12 12.2146 7.68434   1
   2  -2 -12 15.3787 6.81798   1
  -2   2  13 0.30341 5.40456   1
   2  -2 -13 8.19415 7.53805   1
  -2   2  14 13.9996 6.24825   1
   2  -2 -14 11.6148 6.01448   1
  -2   2  15 4.44574  7.3077   1
   2  -2 -15 4.17803 6.63772   1
  -2   2  16 13.5356 9.58198   1
   2  -2 -16  11.887  6.7911   1
  -2   2  17 5.94712 8.33279   1
   2  -2 -17 0.41932   9.959   1
   2  -2 -18 13.7826 8.12293   1
  -2   3   0  35.883 6.82782   1
  -2   3   1 33.2019 8.01404   1
  -2   3   2 173.459 17.0088   1
  -2   3   3 565.029 78.5233   1
  -2   3   4 294.772 24.1891   1
  -2   3   5 564.906 48.3063   1
  -2   3   6 288.773 22.2162   1
  -2   3   7 55.9576 7.48002   1
   2  -3  -8 19.4478 5.52046   1
  -2   3   8 13.1166 6.38718   1
  -2   3   9 3.04652 6.41327   1
   2  -3  -9 5.70814 5.34476   1
   2  -3 -10 19.2518 5.97738   1
  -2   3  10 15.3057 6.52775   1
   2  -3 -11 8.55686 6.30777   1
  -2   3  11  1.3917 6.53821   1
  -2   3  12 1.65716 7.24969   1
   2  -3 -12 3.95255  7.1336   1
  -2   3  13 4.05399 6.98521   1
   2  -3 -13 4.94669 7.91823   1
  -2   3  14-0.77073 6.82261   1
   2  -3 -14-3.15084 7.16076   1
  -2   3  15 3.42841 8.54531   1
   2  -3 -15 6.41118  10.216   1
  -2   4   0 13.6355 7.58668   1
  -2   4   1 10.4293  6.2056   1
  -2   4   2 11.7651 9.30874   1
  -2   4   3 42.3595 9.77112   1
  -2   4   4 304.019 29.2646   1
  -2   4   5 134.975 24.4834   1
  -2   4   6 39.6217 10.1876   1
  -2   4   7 8.41472 7.36339   1
  -2   4   8 4.95706  8.0414   1
  -2   4   9 2.82347 6.96981   1
  -2   4  10 4.66887 8.61717   1
  -2   4  11 9.09704 7.93349   1
  -2   4  12 3.22868 9.39672   1
  -2   5   0 8.21662 10.0531   1
  -2   5   1 11.1549 10.0546   1
  -2   5   2 12.2938 8.78436   1
  -2   5   3 9.05291 10.2211   1
   1   5  -1-1.16309 9.68303   1
   1   5  -1 1.37546 8.59734   1
   1   5  -2 73.1074 16.3306   1
   1   5  -2 74.3403 10.8328   1
   1   5  -3 51.3278 13.8323   1
   1   5  -3 30.7945 8.36908   1
   1   5  -4 51.2716 11.7142   1
   1   5  -4 69.6768 12.1237   1
   1   5  -5 3.79689 15.7171   1
   1   5  -5-0.17943 8.06679   1
   1   5  -6  5.6071 10.8213   1
   1   4  -1 15.6879 7.10997   1
   1   4  -1 15.9028  7.5727   1
   1   4  -2 7.65464 5.17313   1
   1   4  -2 8.64281 8.02575   1
   1   4  -3 78.3841 11.3791   1
   1   4  -3 75.7809 9.94741   1
   1   4  -4  118.50 10.5224   1
   1   4  -4 119.163 14.1651   1
   1   4  -5 114.457 25.7497   1
   1   4  -6 35.0529 6.19212   1
   1   4  -7-0.72898 6.20157   1
   1   4  -8 1.77802  8.6741   1
   1   4  -9 7.49419 6.31815   1
   1   4 -10 16.8721 8.77601   1
   1   4 -11 4.97762 9.79872   1
   1   4 -12 5.95587 11.5973   1
   1   3  -1  68.196 7.66985   1
   1   3  -1 74.7311 8.37326   1
   1   3  -2 14.7341  6.7807   1
   1   3  -2 6.32761 5.45436   1
   1   3  -3 311.655 127.285   1
   1   3  -4 331.158 22.3279   1
   1   3  -5  121.15 10.2292   1
   1   3  -6 77.3669 7.47198   1
   1   3  -7 0.89966 6.18591   1
   1   3  -8 89.0285 7.37433   1
   1   3  -9 36.8081 6.49386   1
   1   3 -10 2.83784 6.83891   1
   1   3 -11 10.8743 6.60368   1
   1   3 -12   8.535 6.58927   1
   1   3 -13 3.81213 6.94371   1
   1   3 -14 5.18568  7.5695   1
   1   3 -15 13.4178 8.60971   1
   1   3 -16 18.0077 8.84964   1
   1   2  -2 1208.89 209.365   1
   1   2  -3 1525.52 427.184   1
   1   2  -4 243.721 15.5561   1
   1   2  -5 69.3652 7.37255   1
   1   2  -6 54.0138  12.151   1
  -1  -2   7 26.2811 5.10526   1
   1   2  -7 23.0886 5.68554   1
   1   2  -8 27.2197 5.83552   1
  -1  -2   8 21.8202 6.11517   1
  -1  -2   9 17.0772 5.80386   1
   1   2  -9 21.4168 5.20136   1
  -1  -2  10 17.3068 9.75967   1
   1   2 -10 19.9993 5.17701   1
   1   2 -11 16.2984 5.62915   1
  -1  -2  11 23.7307 6.92215   1
  -1  -2  12  34.455 6.52211   1
   1   2 -12 33.0897 6.14209   1
  -1  -2  13 4.79956 3.85317   1
   1   2 -13 8.22097 5.45399   1
   1   2 -14 83.5993 8.79186   1
  -1  -2  14  54.304 8.90541   1
   1   2 -15 56.9431 12.6951   1
  -1  -2  15 83.5776 8.96198   1
  -1  -2  16 22.1872  9.2497   1
   1   2 -16 3.31687 7.69768   1
  -1  -2  17-1.34228  6.5013   1
   1   2 -17 1.99418 9.90124   1
  -1  -2  18 1.55344 8.07758   1
   1   2 -18 0.51052 9.83921   1
   1   1  -1 9897.30 556.592   1
   1   1  -2 4788.69 220.123   1
  -1  -1   2 4538.00 238.108   1
   1   1  -3 20.9186 6.52917   1
  -1  -1   3 13.8908  5.2801   1
   1   1  -4 63.3598 11.3085   1
  -1  -1   4 57.6373 5.83712   1
   1   1  -5 1125.43  64.881   1
  -1  -1   5 1180.15  65.121   1
   1   1  -6 505.631 30.3707   1
  -1  -1   6 517.505 29.8551   1
   1   1  -7 160.626 13.5684   1
  -1  -1   7 166.072 10.8758   1
   1   1  -8 146.447 9.84004   1
  -1  -1   8 156.102 10.3629   1
   1   1  -9 645.752 39.4735   1
  -1  -1   9 639.596 36.3689   1
   1   1 -10 69.3022 6.20746   1
  -1  -1  10 68.4984 6.28777   1
   1   1 -11 3.85479 6.46996   1
  -1  -1  11 6.27854 5.19902   1
   1   1 -12 10.4008  5.8405   1
  -1  -1  12 1.91346 4.48361   1
   1   1 -13 195.903 18.5398   1
  -1  -1  13  195.71 13.6043   1
   1   1 -14   14.40 4.61605   1
  -1  -1  14 22.0817 5.06373   1
   1   1 -15 38.8907 8.01737   1
  -1  -1  15 28.9552 5.27881   1
  -1  -1  16 0.21561 5.39027   1
   1   1 -16 4.45716 6.35943   1
   1   1 -17 4.99102 7.42822   1
  -1  -1  17 5.78331 5.60006   1
  -1  -1  18 4.11688 6.89425   1
   1   1 -18 1.61508 6.71223   1
   1   1 -19 6.61222 7.98467   1
  -1  -1  19-1.17879 7.76268   1
  -1   0   1 1920.77 163.613   1
   1   0  -1 1916.76 138.687   1
   1   0  -2 5.66992 4.38888   1
  -1   0   2 9.95182 6.24674   1
  -1   0   3 2424.48 119.091   1
   1   0  -3 2508.93 135.767   1
  -1   0   4 529.484 28.9948   1
   1   0  -4 537.302 27.8103   1
  -1   0   5 284.471 16.6943   1
   1   0  -5 330.394 21.3546   1
  -1   0   6 691.672 40.7812   1
   1   0  -6  701.46 47.1398   1
  -1   0   7 3070.91 140.039   1
   1   0  -7 3052.32 148.663   1
  -1   0   8 118.745 10.3635   1
   1   0  -8 110.079 6.98746   1
  -1   0   9 39.3822 6.54707   1
   1   0  -9 31.7254 4.39684   1
   1   0 -10 31.7317  6.5622   1
  -1   0  10 24.2426 6.01545   1
  -1   0  11 23.4467 4.77454   1
   1   0 -11 34.9201 5.83955   1
  -1   0  12-1.28831 4.54756   1
   1   0 -12 1.97364 4.82478   1
   1   0 -13 6.58853 5.16689   1
  -1   0  13 6.72381 5.99607   1
  -1   0  14 8.90876  7.0341   1
   1   0 -14 12.4191 4.99201   1
  -1   0  15 23.1206 8.45591   1
   1   0 -15 28.8662 6.88525   1
  -1   0  16 1.55146 5.90855   1
   1   0 -16-1.77997 5.57341   1
  -1   0  17 13.6528 5.13595   1
   1   0 -17 0.23544 7.83662   1
  -1   0  18-5.34847 6.35773   1
   1   0 -18-3.19338 7.56139   1
   1   0 -19 39.4612 10.1126   1
  -1   0  19 31.2617 8.15948   1
  -1   1   110972.90 1081.42   1
  -1   1   2 4122.47  346.07   1
   1  -1  -2 4109.98 370.298   1
  -1   1   3 18.7818  5.4416   1
   1  -1  -3  15.153 4.21121   1
  -1   1   4 54.4981 9.62252   1
   1  -1  -4 62.4317 10.1402   1
  -1   1   5 1055.03 54.9186   1
   1  -1  -5 1034.38 52.9582   1
   1  -1  -6 516.435 41.9059   1
  -1   1   6 494.601 41.2341   1
  -1   1   7 166.428 16.9626   1
   1  -1  -7 171.608 13.6468   1
  -1   1   8 137.369 8.81708   1
   1  -1  -8 144.712 10.8981   1
  -1   1   9 734.276 100.707   1
   1  -1  -9 734.592 104.907   1
  -1   1  10 69.4243 6.53391   1
   1  -1 -10 83.2117 7.09734   1
  -1   1  11 8.69882 5.18146   1
   1  -1 -11-1.17825 4.40406   1
  -1   1  12 3.89833 5.69844   1
   1  -1 -12 7.23868   5.702   1
  -1   1  13 153.044 13.0346   1
   1  -1 -13 153.227 11.0407   1
   1  -1 -14 23.7524 5.54839   1
  -1   1  14 22.4681 6.58498   1
   1  -1 -15  38.695  6.0685   1
  -1   1  15 34.6245 6.67905   1
  -1   1  16-4.24363 6.99585   1
   1  -1 -16   1.683  6.9569   1
  -1   1  17 5.06218 7.05724   1
   1  -1 -17 15.0752 8.02685   1
   1  -1 -18  5.9571 9.74676   1
  -1   1  18 1.40563 8.68052   1
   1  -1 -19-8.34708  11.456   1
  -1   1  19-4.67717 10.8826   1
  -1   2   0 324.982 25.4216   1
  -1   2   1 897.362 68.1966   1
  -1   2   2 1533.80 128.766   1
  -1   2   3 1927.14 168.437   1
  -1   2   4 229.525 20.2891   1
   1  -2  -4 200.058 13.8688   1
   1  -2  -5 74.6662 7.41774   1
  -1   2   5  83.399 11.2269   1
  -1   2   6 56.4111 7.23121   1
   1  -2  -6 50.7899 7.00053   1
   1  -2  -7 26.7046 5.52947   1
  -1   2   7 19.3393 5.23277   1
  -1   2   8 18.0644 5.03383   1
   1  -2  -8 15.7552 4.67653   1
   1  -2  -9  22.674 6.95904   1
  -1   2   9 21.1198 6.43054   1
  -1   2  10 12.8908 5.08693   1
   1  -2 -10 19.9494 6.39809   1
  -1   2  11 25.2613 7.82356   1
   1  -2 -11 21.2915 6.48721   1
  -1   2  12 16.2617 6.12237   1
   1  -2 -12 19.7104 5.27602   1
   1  -2 -13  5.6181  5.7513   1
  -1   2  13 5.52195 5.92052   1
  -1   2  14 72.6545 7.56041   1
   1  -2 -14 80.7091  7.7065   1
   1  -2 -15 83.3802 11.2854   1
  -1   2  15 68.4733 8.36037   1
   1  -2 -16 21.0306 8.96517   1
  -1   2  16 19.4697 7.80682   1
   1  -2 -17 2.99306 7.32143   1
  -1   2  17 -3.0252 9.51666   1
   1  -2 -18 4.33496 7.98017   1
  -1   2  18-0.79909 8.28695   1
  -1   3   0 20.3041 5.38872   1
  -1   3   1 90.0877 11.0205   1
  -1   3   2 3.41348 4.78966   1
  -1   3   3 294.565 27.2896   1
  -1   3   4 331.013 29.6628   1
  -1   3   5 117.163 10.7871   1
  -1   3   6 102.245 8.53502   1
  -1   3   7 6.34906 5.75588   1
   1  -3  -7-2.24065 5.66544   1
   1  -3  -8 82.6199 8.04142   1
  -1   3   8 61.3084 11.6647   1
   1  -3  -9 45.5416 7.57534   1
  -1   3   9 38.9847 6.74111   1
  -1   3  10 11.6331 8.33093   1
   1  -3 -10 3.70165 6.90976   1
   1  -3 -11 7.89352 8.42966   1
  -1   3  11 5.10746 7.08568   1
  -1   3  12 5.32678 6.35528   1
   1  -3 -12 13.9521 7.54775   1
  -1   3  13 4.86847 7.11873   1
   1  -3 -13 7.16741 7.06674   1
   1  -3 -14 2.95471 5.95053   1
  -1   3  14-1.30565 7.73232   1
   1  -3 -15-0.25784  7.1486   1
  -1   3  15 16.1897 9.41812   1
   1  -3 -16 8.22505 7.24244   1
  -1   3  16  9.0099  11.768   1
  -1   4   0 14.5097 6.13543   1
  -1   4   1  13.375 6.91449   1
  -1   4   2 12.7236 7.47475   1
  -1   4   3 97.6995 12.8825   1
  -1   4   4 97.9777 12.0895   1
  -1   4   5 159.019  20.574   1
  -1   4   6 41.4792 7.85479   1
  -1   4   7 0.73584 7.22266   1
  -1   4   8-0.03995 7.64093   1
  -1   4   9 4.71579 8.61579   1
  -1   4  10 22.9621 9.36711   1
  -1   4  11 9.05742 10.4688   1
  -1   4  12-4.59436 8.58215   1
  -1   5   0 5.14751 7.27506   1
  -1   5   1 1.86017 7.63789   1
  -1   5   2 82.4869 13.5454   1
  -1   5   3 51.6713 11.3844   1
  -1   5   4 102.899 16.3531   1
  -1   5   5  3.9856 9.38574   1
   0   5  -1 3.81263 9.25031   1
   0   5  -1 3.27366  11.481   1
   0   5  -2 11.8646 10.3043   1
   0   5  -2 9.96763  9.4003   1
   0   5  -3 79.4205 10.3068   1
   0   5  -3 92.6934 18.6474   1
   0   5  -4 8.44856 13.6151   1
   0   5  -4 8.11322 6.82332   1
   0   5  -5 12.8015 8.42839   1
   0   5  -5 7.39138 10.9473   1
   0   5  -6-2.60691 8.69377   1
   0   5  -6 4.78762 9.84168   1
   0   4  -1 38.7257 8.38078   1
   0   4  -2 11.1577 7.21624   1
   0   4  -2 9.82786 6.28995   1
   0   4  -3  66.847  11.042   1
   0   4  -3 77.1997 8.77514   1
   0   4  -4  87.999 8.75945   1
   0   4  -5 15.3462 6.09036   1
   0   4  -6 24.1242 8.84966   1
   0   4  -7 40.9262 8.82738   1
   0   4  -8 4.20779 5.78279   1
   0   4  -9 24.9513 7.17003   1
   0   4 -10-3.81219 8.74167   1
   0   4 -11 8.15208 7.75788   1
   0   4 -12 5.67612 8.67235   1
   0   3  -1 52.3356 6.94773   1
   0   3  -3 75.4468 13.4982   1
   0   3  -4 53.9352 8.80699   1
   0   3  -5 27.2676  4.7716   1
   0   3  -6 9.73072 9.46014   1
   0   3  -7 85.1623 9.02999   1
   0   3  -8 29.7225 6.51899   1
   0   3  -9 57.0758 7.37088   1
   0   3 -10  65.369 6.49904   1
   0   3 -11 6.24433 5.76524   1
   0   3 -12  8.0352   6.357   1
   0   3 -13-0.84561 8.70867   1
   0   3 -14 5.17936 7.48847   1
   0   3 -15 3.67697 7.77049   1
   0   3 -16 6.17829 8.14726   1
   0   2  -3 19.1963  5.5778   1
   0   2  -4 294.345 25.1257   1
   0   2  -5 961.102 61.4382   1
   0   2  -6 204.021 11.3896   1
   0   2  -7 226.884 27.1653   1
   0   2  -8 251.241 18.5717   1
   0   2  -9 29.2814  5.8511   1
   0   2 -10  -1.346  3.7757   1
   0  -2  10 4.71082 4.40187   1
   0   2 -11 23.0367 5.39133   1
   0  -2  11 22.3137 5.65152   1
   0  -2  12 83.7767 14.8099   1
   0   2 -12 100.588 8.60807   1
   0  -2  13 5.06341 5.93533   1
   0   2 -13 4.42313 5.72401   1
   0   2 -14 80.1431 9.28883   1
   0  -2  14 83.3039 9.98889   1
   0  -2  15 49.9433 8.27042   1
   0   2 -15 48.9457 7.40485   1
   0   2 -16 16.1389 7.58476   1
   0  -2  16 47.8355 8.59978   1
   0  -2  17 1.13495 7.57563   1
   0   2 -17 5.06956 7.40812   1
   0  -2  18  5.2496 8.18896   1
   0   2 -18-3.46621 6.97427   1
   0   1  -2 8456.58 801.105   1
   0   1  -3 147.504 60.3098   1
   0  -1   4 213.653 14.6812   1
   0   1  -4 230.723 15.3013   1
   0  -1   5  668.49 52.1659   1
   0   1  -5 690.864 53.3699   1
   0  -1   6 403.175 28.6098   1
   0   1  -6 416.401 24.0175   1
   0  -1   7 356.112  36.379   1
   0   1  -7 346.802 32.4328   1
   0   1  -8 17.7266 4.42245   1
   0  -1   8 11.9385 4.67522   1
   0   1  -9 39.9942 5.38498   1
   0  -1   9  34.443 5.52219   1
   0   1 -10 53.7046 6.27603   1
   0  -1  10  52.014  5.5235   1
   0   1 -11 15.2912 5.84552   1
   0  -1  11 8.02975 4.61929   1
   0   1 -12 115.612 9.46145   1
   0  -1  12 98.3793 7.70946   1
   0   1 -13 101.998 13.4052   1
   0  -1  13 94.3857  9.9864   1
   0   1 -14 236.829 13.2812   1
   0  -1  14 251.459 22.6891   1
   0   1 -15 52.9405 6.83421   1
   0  -1  15 52.7963 7.52109   1
   0   1 -16 4.80108 7.46173   1
   0  -1  16 5.51901 6.89968   1
   0   1 -17 12.3553 7.59097   1
   0  -1  17 5.38473 5.92761   1
   0  -1  18  19.299 6.72769   1
   0   1 -18 20.0624  8.6643   1
   0   1 -19 5.10705 7.87138   1
   0  -1  19 7.59455  7.6299   1
   0   0  -2 1006.72 48.3804   1
   0   0   2 1052.94 61.8356   1
   0   0  -3  910.85 54.0052   1
   0   0   3 905.257 54.8197   1
   0   0  -4  336.57 26.7309   1
   0   0   4  334.47 23.8102   1
   0   0  -5 232.088 14.5074   1
   0   0   5 216.381 12.9089   1
   0   0  -6 31.1039 4.64469   1
   0   0   6 24.4433 5.40699   1
   0   0  -7 703.016 34.8019   1
   0   0   7 738.808 43.6721   1
   0   0  -8 279.835 16.1949   1
   0   0   8 242.256 12.6129   1
   0   0  -9 11.3782 6.16958   1
   0   0   9 19.1211  5.6996   1
   0   0 -10  0.0756 5.07779   1
   0   0  10-2.29756 4.58794   1
   0   0 -11  23.744 5.80191   1
   0   0  11 25.7926 6.73955   1
   0   0  12 680.464 40.0656   1
   0   0 -12 691.739 36.8188   1
   0   0  13 226.911 17.9802   1
   0   0 -13 246.301 17.5181   1
   0   0 -14-0.82304 5.48354   1
   0   0  14 3.17457 3.88095   1
   0   0 -15 12.1808 5.85181   1
   0   0  15 6.64154 5.64482   1
   0   0 -16 3.30589 5.43053   1
   0   0  16 5.75766  5.8163   1
   0   0  17-0.42864 7.49544   1
   0   0 -17 7.31515 6.02606   1
   0   0  18 5.27432 6.91695   1
   0   0 -18 9.19142  7.2799   1
   0   0  19 5.45034 6.11668   1
   0   0 -19 0.15878 7.08173   1
   0   0 -20 30.4092 9.66818   1
   0   1   1 2859.42 158.039   1
   0  -1  -1 2904.07 181.434   1
   0   1   2 5889.68 472.934   1
   0  -1  -2 5997.11  475.97   1
   0   1   3 131.921 9.77717   1
   0  -1  -3 132.733 9.04582   1
   0   1   4 184.262 13.6713   1
   0  -1  -4 209.734 15.7891   1
   0  -1  -5 789.665  49.489   1
   0   1   5 791.994  57.989   1
   0   1   6 484.246 30.7506   1
   0  -1  -6 478.843 32.1531   1
   0  -1  -7 423.448 27.7143   1
   0   1   7 451.057 23.1245   1
   0   1   8 7.63989 4.79293   1
   0  -1  -8 19.2847 4.68153   1
   0   1   9 41.1321 7.28931   1
   0  -1  -9 44.1914 6.25554   1
   0   1  10 53.3222  7.0506   1
   0  -1 -10 52.6179 5.64411   1
   0   1  11 13.3147  5.4952   1
   0  -1 -11 9.64808 5.01554   1
   0   1  12 93.1707 8.46318   1
   0  -1 -12 102.399  7.6873   1
   0   1  13 93.3881 10.4044   1
   0  -1 -13 100.484 9.23531   1
   0  -1 -14 235.573 18.0343   1
   0   1  14 224.247 14.6673   1
   0   1  15 43.9851 11.2561   1
   0  -1 -15 65.2473 7.37221   1
   0  -1 -16 3.75227 7.91053   1
   0   1  16 9.88849 7.99529   1
   0  -1 -17 10.4874 7.41088   1
   0   1  17 5.64535 6.70175   1
   0  -1 -18 22.2134  9.4804   1
   0   1  18 18.0046 6.67292   1
   0  -1 -19 4.56756 8.58872   1
   0   1  19 0.73936 7.17768   1
   0   2   0 606.273 62.8134   1
   0   2   1 175.895  18.733   1
   0   2   2 349.333 63.6149   1
   0   2   3 15.2455  5.5167   1
   0  -2  -3  9.5028 5.07929   1
   0  -2  -4 438.975 30.0747   1
   0   2   4 431.527 23.1437   1
   0   2   5 869.158 45.8288   1
   0  -2  -5 908.437 49.2262   1
   0  -2  -6 176.333 15.6508   1
   0   2   6  196.48 17.5249   1
   0   2   7  274.19 27.0821   1
   0  -2  -7 265.528 23.7149   1
   0   2   8 209.254 12.4388   1
   0  -2  -8 207.741 15.9178   1
   0  -2  -9 22.1243 6.26919   1
   0   2   9 29.7453 8.11432   1
   0  -2 -10  3.6602 5.42189   1
   0   2  10 3.05838 4.88276   1
   0  -2 -11  10.253 4.93852   1
   0   2  11 17.3667 5.67464   1
   0  -2 -12 63.1864 8.37529   1
   0   2  12 83.7853 9.44417   1
   0  -2 -13-0.98446 6.15841   1
   0   2  13 4.81488 7.03919   1
   0  -2 -14 80.9049 15.2286   1
   0   2  14 85.3443 8.65478   1
   0  -2 -15 37.2532  9.2421   1
   0   2  15  21.744 7.00829   1
   0  -2 -16 22.9733 7.02842   1
   0   2  16   39.88 7.98518   1
   0  -2 -17 1.64005 8.97433   1
   0   2  17 1.73977 7.76823   1
   0  -2 -18 4.00431 7.84823   1
   0   2  18 3.17023 9.64293   1
   0   3   0 3.79568 4.34074   1
   0   3   1 52.7572 7.29001   1
   0   3   2 141.408 14.2985   1
   0   3   3  92.315 10.7354   1
   0   3   4  53.414 6.51507   1
   0   3   5 25.0976 6.65949   1
   0  -3  -6 7.61544 5.16365   1
   0   3   6 6.09086 5.66592   1
   0  -3  -7 54.5618 6.56677   1
   0   3   7 73.3655 9.05669   1
   0   3   8 25.2952 7.11461   1
   0  -3  -8  26.125 7.19055   1
   0   3   9 40.2704 5.75354   1
   0  -3  -9 36.8034 6.72682   1
   0   3  10 82.0971 9.12313   1
   0  -3 -10 58.8635 8.68737   1
   0  -3 -11 3.43163 4.92075   1
   0   3  11 2.43569  6.3431   1
   0  -3 -12 9.28331 7.06398   1
   0   3  12  7.3865 5.98985   1
   0  -3 -13 0.07196 8.81522   1
   0   3  13-0.22307 6.28475   1
   0  -3 -14-2.95874 7.54163   1
   0   3  14-1.02396  7.4403   1
   0  -3 -15 4.92127 7.49361   1
   0   3  15 1.05101  8.3293   1
   0  -3 -16 1.13058  9.3515   1
   0   3  16 5.32421 10.0837   1
   0   4   0  21.521 7.55257   1
   0   4   1  45.775 9.57496   1
   0   4   2 8.05301 7.65534   1
   0   4   3 54.8765  11.488   1
   0   4   4 99.7787 16.2236   1
   0   4   5 18.0775 9.44754   1
   0   4   6 17.7964 7.18923   1
   0   4   7 26.6354 8.67291   1
   0   4   8 1.78564 7.56208   1
   0   4   9 26.5704 9.28159   1
   0   4  10 0.12551  7.5514   1
   0   4  11 7.62709 8.19263   1
   0   4  12-3.07062 9.35712   1
   0  -4 -12 3.32387  7.3079   1
   0   4  13 9.51463 10.8993   1
   0  -4 -13 0.50908 8.39496   1
   0   5   0-2.33693  8.2691   1
   0   5   0-3.00858 9.32074   1
   0   5   1-1.47746 9.45855   1
   0   5   2 15.6902 11.9979   1
   0   5   3 102.505   13.13   1
   0   5   4 10.4438 10.6724   1
   0   5   5  27.389 10.8862   1
   0   5   6-0.33309 9.22999   1
  -1   5  -1-1.51311 9.51341   1
  -1   5  -2 5.32596 7.08059   1
  -1   5  -2  14.741 8.74365   1
  -1   5  -3 5.57007 8.39277   1
  -1   5  -3  5.5666 13.4273   1
  -1   5  -4 7.72981 9.09001   1
  -1   5  -4 9.35772 7.99851   1
  -1   5  -5 0.34907 9.42504   1
  -1   5  -5 2.80833 8.41038   1
  -1   4  -1 23.6364  6.5334   1
  -1   4  -2 109.804 12.5472   1
  -1   4  -3 37.4724 7.72025   1
  -1   4  -3 26.1398 5.57247   1
  -1   4  -4 23.4888 6.27502   1
  -1   4  -5 1.86373 3.85106   1
  -1   4  -6 50.7102 7.65982   1
  -1   4  -7-1.89564  6.1659   1
  -1   4  -8 37.9111 7.11264   1
  -1   4  -9 11.4592 7.54044   1
  -1   4 -10 21.1786 6.98068   1
  -1   4 -11 2.51172 7.38463   1
  -1   4 -12 8.48438 7.97435   1
  -1   3  -1 197.257 21.4548   1
  -1   3  -4 303.829 22.9669   1
  -1   3  -5 120.605 61.4881   1
  -1   3  -6 29.8777 7.04717   1
  -1   3  -7  28.466 5.25102   1
  -1   3  -8 30.2118 6.20412   1
  -1   3  -9 41.9093 10.6256   1
  -1   3 -10 10.5688 5.07345   1
  -1   3 -11 21.3498 5.91471   1
  -1   3 -12 4.84556 7.01876   1
  -1   3 -13-0.66442  5.9799   1
  -1   3 -14 7.79903 7.56075   1
  -1   3 -15 0.65262 9.36267   1
  -1   3 -16 6.45538 9.99139   1
  -1   2  -4 652.659 110.473   1
  -1   2  -5 46.7282 7.59802   1
  -1   2  -6 100.833 9.05794   1
  -1   2  -7 81.0918 23.1269   1
  -1   2  -8 129.036  10.303   1
  -1   2  -9 134.349 16.6692   1
  -1   2 -10 83.2717  7.3448   1
  -1   2 -11  47.386 7.21285   1
  -1   2 -12 3.18726   5.359   1
  -1   2 -13 5.33553 5.63474   1
  -1   2 -14  14.516 6.49378   1
  -1   2 -15  18.667 8.02075   1
  -1   2 -16  17.884 8.71111   1
  -1   2 -17 2.27196 7.96873   1
  -1   2 -18 19.8085 7.83347   1
  -1   1  -3 559.937 45.9958   1
  -1   1  -4 704.702 43.8902   1
  -1   1  -5 146.459 13.8464   1
   1  -1   6 920.546 47.3662   1
  -1   1  -6  937.81 45.1245   1
   1  -1   7 261.718 24.1458   1
  -1   1  -7 258.826 30.6023   1
   1  -1   8  11.414 7.04796   1
  -1   1  -8  22.066 4.49861   1
   1  -1   9 19.0473 5.38862   1
  -1   1  -9 19.9466 6.23503   1
  -1   1 -10 61.0622  7.4398   1
   1  -1  10 44.8798 7.26802   1
  -1   1 -11 755.128  43.234   1
   1  -1  11 748.478 40.7986   1
   1  -1  12 231.395 13.7665   1
  -1   1 -12 240.031 18.9578   1
   1  -1  13 71.1559 6.84685   1
  -1   1 -13 68.8043  7.4755   1
   1  -1  14 93.0183 7.82674   1
  -1   1 -14  119.10 9.20919   1
   1  -1  15 4.91536 4.08974   1
  -1   1 -15 17.0449 6.10962   1
  -1   1 -16 0.88558 6.15924   1
   1  -1  16 4.45966 6.28585   1
   1  -1  17-0.20807 7.91825   1
  -1   1 -17-1.05043 7.50031   1
   1  -1  18 16.0551 9.31134   1
  -1   1 -18 23.8628 10.7993   1
   1  -1  19 7.55602 8.22594   1
  -1   1 -19 16.0453 9.51408   1
   1   0   2 147.709 10.3137   1
  -1   0  -2 159.541 13.0574   1
   1   0   3 5.01729 4.56042   1
  -1   0  -3 3.77677 3.91607   1
  -1   0  -4 464.239 32.5148   1
   1   0   4 483.755 28.7296   1
  -1   0  -5  629.28  29.823   1
   1   0   5 598.251 35.7301   1
   1   0   6 726.011 33.2447   1
  -1   0  -6 782.028  42.458   1
  -1   0  -7 33.6403 5.23128   1
   1   0   7  24.484 5.74396   1
  -1   0  -8-2.39734  4.3803   1
   1   0   8 2.71004 5.24803   1
  -1   0  -9 328.572 16.5879   1
   1   0   9 328.702 20.6125   1
  -1   0 -10 11.0618 4.43335   1
   1   0  10 10.5375 5.39164   1
  -1   0 -11  223.50 14.0164   1
   1   0  11 215.227 10.9413   1
  -1   0 -12 188.647 12.6778   1
   1   0  12 210.485 11.1429   1
  -1   0 -13 627.563 48.1072   1
   1   0  13 609.779 48.1298   1
  -1   0 -14 45.8018 7.02487   1
   1   0  14 44.6046 6.27616   1
  -1   0 -15 6.20928 6.62946   1
   1   0  15 1.89431 4.70516   1
  -1   0 -16 4.59826 5.78049   1
   1   0  16 4.30824 8.50792   1
  -1   0 -17 1.76576 7.37184   1
   1   0  17 2.84035 7.05536   1
  -1   0 -18 3.10794 7.19053   1
   1   0  18 4.29575 7.36049   1
  -1   0 -19 1.46034 8.14863   1
   1   0  19 0.08486 8.41138   1
   1   1   0 1461.18 206.561   1
  -1  -1  -1 114.667 12.9343   1
   1   1   1 124.391 10.4539   1
   1   1   2 366.462  22.357   1
  -1  -1  -2 329.695 25.0473   1
   1   1   3 513.152 36.0002   1
  -1  -1  -3 541.046 29.4727   1
   1   1   4 621.268 36.4895   1
  -1  -1  -4 587.314 37.1168   1
   1   1   5 122.764 10.9767   1
  -1  -1  -5 161.849 10.9161   1
  -1  -1  -6 858.595 47.0429   1
   1   1   6 866.452 52.1019   1
  -1  -1  -7 270.416 16.1164   1
   1   1   7 287.119 20.6581   1
  -1  -1  -8 21.5796 4.68883   1
   1   1   8 23.3535 5.91247   1
   1   1   9 11.6926 4.73387   1
  -1  -1  -9 19.8817 5.41457   1
  -1  -1 -10 61.1792 5.96565   1
   1   1  10  72.621 15.8166   1
   1   1  11 514.195 29.2338   1
  -1  -1 -11 499.001 24.5281   1
   1   1  12 282.725 31.3067   1
  -1  -1 -12 287.697 16.2918   1
   1   1  13 62.2984 6.88958   1
  -1  -1 -13 53.5864 7.46572   1
   1   1  14 58.7198 6.26177   1
  -1  -1 -14 62.1953 8.38722   1
  -1  -1 -15 4.98689 6.09725   1
   1   1  15 2.00093 5.06928   1
   1   1  16 4.95832 6.20152   1
  -1  -1 -16 2.73838 5.87603   1
  -1  -1 -17 -1.0005 6.26991   1
   1   1  17 1.72697 6.10964   1
  -1  -1 -18 12.5555 7.94491   1
   1   1  18 17.1416 9.37217   1
  -1  -1 -19 5.84045  9.3384   1
   1   1  19 10.4626 6.36515   1
   1   2   0 539.024 56.2335   1
   1   2   1 172.237 14.2629   1
   1   2   2 158.499 11.5561   1
   1   2   3 157.416 10.4607   1
  -1  -2  -3 107.861 9.08769   1
   1   2   4 505.224  28.664   1
  -1  -2  -4 488.878 36.0489   1
   1   2   5 64.4714 6.71971   1
  -1  -2  -5 78.5367 10.8538   1
   1   2   6 73.0592 7.76402   1
  -1  -2  -6 85.4531 15.4653   1
  -1  -2  -7 94.1076 10.3672   1
   1   2   7 81.1823 11.2404   1
  -1  -2  -8 63.9047  8.0426   1
   1   2   8 74.6707 6.58178   1
  -1  -2  -9 107.579 9.65908   1
   1   2   9 123.668 9.09962   1
  -1  -2 -10 66.7261 7.71228   1
   1   2  10 76.5513 7.97017   1
  -1  -2 -11 30.5131 6.74088   1
   1   2  11 36.0953 6.90987   1
  -1  -2 -12 2.47834 5.61702   1
   1   2  12 1.87325 5.48592   1
  -1  -2 -13  3.1471 7.44779   1
   1   2  13 6.30898 6.79719   1
  -1  -2 -14 8.29392 9.39799   1
   1   2  14 6.98088 6.45885   1
  -1  -2 -15  14.697  7.8186   1
   1   2  15 23.3292 7.89208   1
  -1  -2 -16 9.49773 7.46081   1
   1   2  16 15.9145 7.20571   1
  -1  -2 -17 1.48345 8.42134   1
   1   2  17 5.98621 6.70872   1
  -1  -2 -18 4.85075 8.75903   1
   1   2  18 5.15197 6.60825   1
   1   3   0 10.1764 5.89706   1
   1   3   1 182.968 15.3563   1
   1   3   2 140.687 13.5172   1
   1   3   3 290.626 18.2291   1
   1   3   4 210.159 13.3441   1
   1   3   5 120.677 10.3627   1
   1   3   6  25.808 6.98075   1
  -1  -3  -6 24.3187 7.37169   1
   1   3   7  25.247 7.13491   1
  -1  -3  -7 28.5275 6.98153   1
   1   3   8 22.9179 6.74942   1
  -1  -3  -8 24.0793 6.00292   1
   1   3   9   34.54 7.05736   1
  -1  -3  -9  32.676 6.47964   1
  -1  -3 -10 5.75244 5.78195   1
   1   3  10  8.0012 6.40281   1
  -1  -3 -11 11.7869 5.53223   1
   1   3  11 20.2948 7.73483   1
  -1  -3 -12-1.80831 8.50634   1
   1   3  12-2.82677 7.70097   1
  -1  -3 -13 2.58623 8.94666   1
   1   3  13 3.44616 8.48902   1
   1   3  14 7.12521 8.21375   1
  -1  -3 -14 10.0566 9.79222   1
   1   3  15 0.29709 8.02135   1
  -1  -3 -15 4.10581 10.3877   1
  -1  -3 -16 6.24174  12.782   1
   1   4   0 10.4463 7.40944   1
   1   4   1 18.4702 7.40919   1
   1   4   2 131.623 21.0473   1
   1   4   3 28.9154 9.34474   1
   1   4   4 12.6432 7.44215   1
   1   4   5 2.60817 7.46027   1
   1   4   6 28.2558 8.90089   1
   1   4   7  0.4486 6.40367   1
   1   4   8 34.8632  12.768   1
   1   4   9 0.77908 8.31074   1
   1   4  10 12.1728 8.80069   1
  -1  -4 -11 5.41201 7.08855   1
   1   4  11 9.11072 11.5753   1
   1   4  12-0.83976 10.2761   1
  -1  -4 -12 3.85705  9.5696   1
   1   5   0  7.6778 9.59947   1
   1   5   0 10.8422 13.8072   1
   1   5   1 4.30423 9.36753   1
   1   5   1 4.39953 12.0893   1
   1   5   2 10.6897 12.7795   1
   1   5   3 3.97154 10.0924   1
   1   5   4 7.07388 12.3973   1
   1   5   5 2.18854 10.7376   1
  -2   5  -1 30.5089 8.32546   1
  -2   5  -2 3.69557 5.90332   1
  -2   5  -2 6.78024 10.5038   1
  -2   5  -3 13.6396 9.73634   1
  -2   5  -3 19.1334 14.4474   1
  -2   4  -1 3.28442 6.39151   1
  -2   4  -2 81.1004 10.7635   1
  -2   4  -3 101.155 14.6485   1
  -2   4  -4 12.3077 6.31133   1
  -2   4  -5 7.42831 6.23271   1
  -2   4  -6  5.2504 6.87317   1
  -2   4  -7 23.6456 7.20116   1
  -2   4  -8 178.925 19.7824   1
  -2   4  -9  72.852 9.39083   1
  -2   4 -10 3.41882 8.72844   1
  -2   4 -11 0.13776  7.7247   1
  -2   3  -1 57.2247 8.61987   1
  -2   3  -5 65.5936  12.715   1
  -2   3  -6 82.0329 9.14712   1
  -2   3  -7 288.746 52.9129   1
  -2   3  -8  13.465 4.80319   1
  -2   3  -9 116.273 33.4328   1
  -2   3 -10 81.8215 9.46263   1
  -2   3 -11 11.2368 6.17835   1
  -2   3 -12 16.4468 5.87058   1
  -2   3 -13 1.81684 8.42389   1
  -2   3 -14 26.4091 9.59214   1
  -2   3 -15 17.4265 7.93745   1
  -2   2  -5 56.5571 7.66174   1
  -2   2  -6 13.9944 3.60086   1
  -2   2  -7 129.425 11.8351   1
  -2   2  -8 12.2508 11.5895   1
  -2   2  -9 247.721 15.6429   1
  -2   2 -10  455.78  30.741   1
  -2   2 -11 53.5882 6.10352   1
  -2   2 -12 63.7993 9.99456   1
  -2   2 -13 60.0136 6.66131   1
  -2   2 -14 5.11562 5.73944   1
  -2   2 -15 1.03975 7.51652   1
  -2   2 -16 9.02995 8.44814   1
  -2   2 -17 15.9839 8.20534   1
  -2   1  -4 1363.61 228.105   1
  -2   1  -5  154.22 11.1969   1
  -2   1  -6 198.917 21.4335   1
  -2   1  -7 101.301 7.96214   1
  -2   1  -8 194.932 12.6661   1
  -2   1  -9 9.68701 3.35715   1
   2  -1  10 13.5035 4.56419   1
  -2   1 -10 28.9548  6.5981   1
  -2   1 -11 306.707 15.8527   1
   2  -1  11 296.073 21.9114   1
   2  -1  12 100.106  8.4061   1
  -2   1 -12 106.657 11.4734   1
   2  -1  13 61.9106 6.91043   1
  -2   1 -13 68.0069 7.97823   1
   2  -1  14-0.47374 6.19027   1
  -2   1 -14 4.32332 6.05689   1
   2  -1  15 3.63083 6.55902   1
  -2   1 -15 4.41155 6.35608   1
   2  -1  16 10.4681 7.26213   1
  -2   1 -16 5.68053 6.18291   1
  -2   1 -17 8.60839 6.76514   1
   2  -1  17 11.5732 7.92734   1
   2  -1  18-0.52793  7.0601   1
  -2   1 -18 1.07045 7.47362   1
  -2   0  -3 136.266 11.8823   1
  -2   0  -4 299.166 225.664   1
   2   0   5 1983.07 100.929   1
  -2   0  -5 1942.68 108.256   1
   2   0   6 614.288 39.2219   1
  -2   0  -6 632.962 37.9275   1
   2   0   7  165.57 10.5814   1
  -2   0  -7 158.964 14.5205   1
   2   0   8 42.5024 5.25805   1
  -2   0  -8 32.1453 4.67432   1
   2   0   9  8.0744 3.56218   1
  -2   0  -9 14.2596 5.48731   1
   2   0  10 77.9608 14.2001   1
  -2   0 -10 79.2866 7.88043   1
   2   0  11 0.83376 6.04505   1
  -2   0 -11  2.2097 4.99228   1
   2   0  12 218.631  17.234   1
  -2   0 -12 231.831 13.0089   1
   2   0  13 45.2479 6.68057   1
  -2   0 -13 48.0231 6.83082   1
   2   0  14 1.75334 5.33481   1
  -2   0 -14-1.00725 5.45894   1
   2   0  15 19.8546 7.48193   1
  -2   0 -15 8.59389 6.73208   1
   2   0  16 0.25534 6.09043   1
  -2   0 -16-0.32942 8.65095   1
   2   0  17 21.8579 6.98322   1
  -2   0 -17 34.2652  8.6078   1
   2   0  18-0.98952 4.92969   1
  -2   0 -18-4.32278 7.16481   1
  -2   0 -19 7.79534 8.62013   1
   2   0  19 3.78205 6.22081   1
  -2  -1  -1   23.57 12.2004   1
  -2  -1  -2 133.298 11.5835   1
   2   1   3 30.3273 6.71436   1
  -2  -1  -3 28.5519 6.09212   1
  -2  -1  -4 1030.03 51.2878   1
   2   1   4 1015.85 59.4563   1
  -2  -1  -5 132.896 9.62983   1
   2   1   5 144.892  10.626   1
  -2  -1  -6 184.277  15.192   1
   2   1   6 205.751 11.0933   1
  -2  -1  -7 106.636 16.6609   1
   2   1   7 95.3887 8.93339   1
  -2  -1  -8 186.875 13.8064   1
   2   1   8 174.206 12.2567   1
  -2  -1  -9  4.7047 4.44993   1
   2   1   9 8.89512 5.39489   1
  -2  -1 -10 12.4726 5.42044   1
   2   1  10 21.4347 5.67941   1
  -2  -1 -11  240.95 17.4059   1
   2   1  11 252.206 12.6562   1
  -2  -1 -12 89.0387 11.8434   1
   2   1  12 82.7179  6.9183   1
  -2  -1 -13 39.5027 7.80733   1
   2   1  13 38.6458 6.00416   1
  -2  -1 -14-3.11414 7.80918   1
   2   1  14-1.08572 6.79353   1
   2   1  15 4.31972 5.63999   1
  -2  -1 -15  3.6406 6.14137   1
   2   1  16 12.1002 13.4903   1
  -2  -1 -16  5.8254 9.06765   1
   2   1  17 9.75214 6.82661   1
  -2  -1 -17 3.27668 7.17148   1
   2   1  18-0.39458  6.6995   1
  -2  -1 -18 1.58143 7.95719   1
   2   2   1 261.222 25.6253   1
   2   2   2 327.994 23.7404   1
  -2  -2  -3 130.245 15.4292   1
   2   2   3 160.134  13.721   1
  -2  -2  -4 3.33317 5.19814   1
   2   2   4 3.26228 5.68974   1
   2   2   5 41.7999 6.93802   1
  -2  -2  -5   31.96 7.74323   1
  -2  -2  -6 10.6857 5.45133   1
   2   2   6 10.0883 6.38059   1
  -2  -2  -7  121.75 11.7152   1
   2   2   7 114.786 8.79365   1
  -2  -2  -8 10.1764 5.63716   1
   2   2   8 12.4196 5.89478   1
  -2  -2  -9  227.60 14.3088   1
   2   2   9 192.274 12.6471   1
  -2  -2 -10 294.874  19.871   1
   2   2  10 321.624 23.1509   1
  -2  -2 -11 49.7135 7.09316   1
   2   2  11 47.7028 7.35229   1
  -2  -2 -12 33.6284 6.72873   1
   2   2  12 24.5253 4.80718   1
  -2  -2 -13 44.4476 7.43494   1
   2   2  13 33.5971  8.2813   1
  -2  -2 -14  3.7343 6.74474   1
   2   2  14 6.14378 5.79425   1
  -2  -2 -15-1.00668 6.29939   1
   2   2  15 12.6844 8.67656   1
  -2  -2 -16 1.30234 7.18309   1
   2   2  16 4.18709 6.86441   1
  -2  -2 -17 1.46857 9.04846   1
   2   2  17 2.38426 8.51841   1
   2   3   0 34.3281  10.348   1
   2   3   0 36.7924 17.0839   1
   2   3   1 47.5565   11.66   1
   2   3   1 37.3078 8.01433   1
   2   3   2  45.638 10.3654   1
   2   3   3  7.9248 10.4232   1
   2   3   4 11.5404 6.93744   1
   2   3   5  32.337 7.14769   1
   2   3   6 61.5928 8.95021   1
  -2  -3  -6 47.7347 6.92974   1
   2   3   7 211.022 18.5598   1
  -2  -3  -7 208.351 21.6055   1
  -2  -3  -8 6.33506 10.3884   1
   2   3   8  9.9482 8.74216   1
   2   3   9 89.8877  9.0114   1
  -2  -3  -9 84.6545 9.46848   1
  -2  -3 -10 47.6263 8.17157   1
   2   3  10 36.4628 7.01078   1
  -2  -3 -11 8.86727 7.55759   1
   2   3  11 2.40965 6.70021   1
  -2  -3 -12 16.9737  10.858   1
   2   3  12 9.05521 7.79193   1
  -2  -3 -13 5.99613 10.2716   1
   2   3  13 2.89473 9.06546   1
  -2  -3 -14 13.9448 11.1461   1
   2   3  14 9.31754 6.81938   1
  -2  -3 -15 5.57872 8.75197   1
   2   3  15 5.28242 6.78678   1
   2   4   0 12.6969 11.8647   1
   2   4   0 11.2758 8.78949   1
   2   4   1  3.8266 6.74161   1
   2   4   1   5.109 10.4605   1
   2   4   2 67.9799 13.4956   1
   2   4   2 84.7855 17.0437   1
   2   4   3  64.682 12.8971   1
   2   4   4 2.23011 9.89381   1
   2   4   5 1.11589 9.75727   1
   2   4   6 3.35732 8.50119   1
   2   4   7 8.87917 9.11414   1
   2   4   8 115.728 14.9707   1
   2   4   9 39.7786 13.1476   1
   2   4  10-0.63289 9.70458   1
   2   4  11-1.47115 10.1768   1
   2   5   0 2.59751 10.3034   1
   2   5   0 0.34467 17.1571   1
   2   5   1 20.4314 15.5099   1
   2   5   1 21.6202 11.8229   1
   2   5   2  0.4896 19.0105   1
   2   5   2 2.11285 11.2252   1
   2   5   3 7.42584 10.3232   1
   2   5   3 4.85163 13.4985   1
  -3   4  -1  51.762   8.629   1
  -3   4  -2 14.4247 7.08361   1
  -3   4  -3 21.7166 6.69623   1
  -3   4  -4 1.26776 4.92099   1
  -3   4  -4 5.73299 5.89007   1
  -3   4  -5 9.09016 6.97187   1
  -3   4  -6 26.0727 8.85959   1
  -3   4  -7 98.9741 12.3688   1
  -3   4  -8 8.29229 8.97487   1
  -3   4  -9 63.0157 9.43419   1
  -3   4 -10  5.3234 7.88714   1
  -3   3  -1 75.8011 8.98541   1
  -3   3  -2 12.6986 4.80469   1
  -3   3  -5 24.6921 6.08218   1
  -3   3  -6 87.7071 10.5781   1
  -3   3  -7 153.711 15.6252   1
  -3   3  -8 386.836 39.6189   1
  -3   3  -9 112.724 13.9362   1
  -3   3 -10 51.3219 7.77819   1
  -3   3 -11 0.70216 6.38284   1
  -3   3 -12 6.35856 6.27293   1
  -3   3 -13 0.12831 6.43283   1
  -3   3 -14 3.29333  7.1171   1
  -3   2  -5 478.658 40.8192   1
  -3   2  -6 359.836 183.571   1
  -3   2  -7 43.1372 5.68455   1
  -3   2  -8 13.9239 4.90275   1
  -3   2  -9  1.7961 4.13914   1
  -3   2 -10 107.381 10.3444   1
  -3   2 -11 62.8481 7.17082   1
  -3   2 -12 10.2766 5.34261   1
  -3   2 -13 4.90541 5.48626   1
  -3   2 -14 2.25944 6.33185   1
  -3   2 -15 7.49487 7.78694   1
  -3   2 -16 1.83899 10.3341   1
  -3   1  -4 888.183 78.6241   1
  -3   1  -5 79.4456 7.69288   1
  -3   1  -6 186.505 33.2305   1
  -3   1  -7 86.1848 9.25897   1
  -3   1  -8 23.5522 4.28876   1
  -3   1  -9 43.1805 6.14417   1
  -3   1 -10 21.7028 4.12635   1
  -3   1 -11 23.9749  6.9403   1
  -3   1 -12 115.658 24.5667   1
  -3   1 -13 39.6779  7.6314   1
  -3   1 -14 9.78161   7.081   1
  -3   1 -15 0.53001 7.57477   1
  -3   1 -16 9.84913 7.56165   1
  -3   1 -17 4.72581 9.35126   1
  -3   0   0 8.50003 4.74946   1
  -3   0  -3 94.3763 10.1938   1
  -3   0  -4 6.45187 4.45516   1
  -3   0  -5 102.957 29.2335   1
  -3   0  -6 220.913 47.9393   1
  -3   0  -7 2.24788  3.2623   1
  -3   0  -8 108.317 13.6652   1
  -3   0  -9 52.7345 5.54057   1
   3   0  10 56.8507  6.2271   1
  -3   0 -10 53.0471 5.66038   1
   3   0  11 38.3879 6.77086   1
  -3   0 -11 42.8877 6.01374   1
   3   0  12 3.33885   5.713   1
  -3   0 -12 1.28433 6.18258   1
   3   0  13 3.64763  6.9446   1
  -3   0 -13 1.67915 6.32273   1
   3   0  14 1.39973 6.19238   1
  -3   0 -14 1.39536 5.32405   1
   3   0  15  76.606 14.3373   1
  -3   0 -15 58.3152 7.25522   1
   3   0  16 -1.1452 8.32313   1
  -3   0 -16  -6.265 6.62595   1
  -3   0 -17 5.18635 10.6964   1
   3   0  17 1.88403  8.0363   1
  -3   0 -18 26.3772 10.2059   1
   3   0  18 20.0194  8.8656   1
  -3  -1   0 838.864 79.6432   1
  -3  -1   0 855.321 61.1467   1
  -3  -1  -1 499.793 52.8517   1
  -3  -1  -1 487.189 25.2779   1
  -3  -1  -2 50.7153 9.53808   1
  -3  -1  -3 17.3745 5.35728   1
  -3  -1  -4 859.037 52.7548   1
  -3  -1  -5 61.5445 7.61273   1
   3   1   6 152.735 12.5041   1
  -3  -1  -6 133.493  15.644   1
   3   1   7 82.4323  9.4484   1
  -3  -1  -7 65.2513 7.44999   1
   3   1   8 25.3392 13.7636   1
  -3  -1  -8 22.8424 5.40339   1
   3   1   9 27.7769 5.68007   1
  -3  -1  -9 20.8135 5.68314   1
   3   1  10 28.2969 6.29549   1
  -3  -1 -10 23.6816 6.29251   1
  -3  -1 -11 19.9224 9.01126   1
   3   1  11 16.5532 4.45348   1
   3   1  12 73.9832 7.86374   1
  -3  -1 -12 65.8823 10.9628   1
   3   1  13  45.104 5.82807   1
  -3  -1 -13 61.1438 8.81156   1
   3   1  14  5.5159 4.75683   1
  -3  -1 -14  2.0031 5.07867   1
   3   1  15 7.12455 7.73268   1
  -3  -1 -15 1.91839 7.80288   1
  -3  -1 -16 4.87881 9.68351   1
   3   1  16 9.93036 7.18587   1
   3   1  17 7.19634 6.14117   1
  -3  -1 -17 1.56033 8.19216   1
  -3  -2  -4 13.6753 9.86393   1
  -3  -2  -5 300.248  27.102   1
   3   2   5 349.848 24.5201   1
   3   2   6 336.017 27.3457   1
  -3  -2  -6 287.524 21.1841   1
  -3  -2  -7 30.9928 7.03114   1
   3   2   7 44.2083 7.10552   1
  -3  -2  -8 13.9513 6.82682   1
   3   2   8 11.5253 5.47834   1
  -3  -2  -9-2.87787 7.61953   1
   3   2   9 5.71351 6.36617   1
  -3  -2 -10 124.063 11.1242   1
   3   2  10  119.89 12.6219   1
  -3  -2 -11 43.1922 8.18467   1
   3   2  11 49.6537 8.31952   1
  -3  -2 -12 13.2353   6.842   1
   3   2  12 11.0272 7.52311   1
  -3  -2 -13 8.10244 8.62049   1
   3   2  13 5.51231 6.48611   1
  -3  -2 -14 5.78608  8.7334   1
   3   2  14 6.58077 8.21585   1
  -3  -2 -15 2.58242 10.8006   1
   3   2  15 4.23505  9.4088   1
  -3  -2 -16 1.39516 10.0008   1
   3   2  16 3.26355 9.77595   1
   3   3   5  18.569 9.22268   1
   3   3   6 64.4575 9.83405   1
  -3  -3  -7 112.611 15.5035   1
   3   3   7 110.974 32.0123   1
  -3  -3  -8 297.513 22.5587   1
   3   3   8 354.057 24.8708   1
  -3  -3  -9  62.361 10.5947   1
   3   3   9  62.272 8.44046   1
  -3  -3 -10 21.8133 7.62132   1
   3   3  10 25.3617 6.96439   1
  -3  -3 -11-0.34949 10.2976   1
   3   3  11 3.20235 8.57191   1
  -3  -3 -12 9.85057 11.3964   1
   3   3  12 8.11208 8.39687   1
  -3  -3 -13  2.3377 10.0511   1
   3   3  13-0.94271   7.187   1
  -3  -3 -14-1.80166 11.0544   1
   3   3  14 1.04604 7.74303   1
   3   4   7 89.1378 70.0811   1
   3   4   8 0.70805  12.627   1
   3   4   9 16.5776   10.03   1
   3   4  10 1.83461 12.0978   1
  -4   4  -1 21.2245 10.6697   1
  -4   4  -2 21.2939 9.34156   1
  -4   4  -3-2.88637 7.62548   1
  -4   4  -4 1.59747 5.08288   1
  -4   4  -4 7.62975 7.52009   1
  -4   4  -5-3.11488 7.89681   1
  -4   4  -5 5.34348 6.87235   1
  -4   4  -6  0.2975 6.55523   1
  -4   4  -7 52.5731 10.0025   1
  -4   3  -1  121.28 16.1526   1
  -4   3  -2 88.0448 13.2589   1
  -4   3  -3 6.60527 5.30425   1
  -4   3  -5 1.10252 4.84571   1
  -4   3  -6 27.9666 6.80524   1
  -4   3  -7 14.8719 4.78663   1
  -4   3  -8-6.59099 7.13201   1
  -4   3  -9 27.0403 6.64266   1
  -4   3 -10 4.71184  5.6962   1
  -4   3 -11-4.17093 6.50816   1
  -4   3 -12 5.07727 8.65439   1
  -4   2  -1 1.33154 4.71621   1
  -4   2  -5 138.855 12.9502   1
  -4   2  -6  403.40 37.3649   1
  -4   2  -7 141.507 13.2096   1
  -4   2  -8 13.7712 5.04962   1
  -4   2  -9 9.09571 5.27134   1
  -4   2 -10 16.5864 5.04099   1
  -4   2 -11 12.3549  7.4892   1
  -4   2 -12  10.648  5.5284   1
  -4   2 -13 1.65962 7.05694   1
  -4   2 -14 6.32421 9.29522   1
  -4   2 -15  5.1893 8.30939   1
  -4   1  -1 17.5743 5.30313   1
  -4   1  -4 206.079 46.2008   1
  -4   1  -5 535.486 43.5342   1
  -4   1  -6 161.591 15.2907   1
  -4   1  -7 65.9118 27.5048   1
  -4   1  -8 42.0963 12.6218   1
  -4   1  -9 46.0567 6.86207   1
  -4   1 -10 31.8569 6.27626   1
  -4   1 -11  6.7011 6.23454   1
  -4   1 -12 2.68302 5.08045   1
  -4   1 -13 16.5114 6.59876   1
  -4   1 -14 7.30877 6.06156   1
  -4   1 -15-3.77957  8.1501   1
  -4   1 -16 11.3286 9.75809   1
  -4   0   0 28.0006 5.86153   1
  -4   0  -1 10.1445 7.00444   1
  -4   0  -3 566.806 55.7335   1
  -4   0  -4 899.614 75.8454   1
  -4   0  -5   20.77 5.61578   1
  -4   0  -6 58.0702 6.15997   1
  -4   0  -7 1.95718 4.01041   1
  -4   0  -8 9.48381 4.30746   1
  -4   0  -9 68.3846 6.33165   1
  -4   0 -10 2.80253 4.27677   1
  -4   0 -11 156.043 10.8387   1
  -4   0 -12 38.9865   6.823   1
  -4   0 -13 0.26113 6.47378   1
  -4   0 -14 2.27656 7.69322   1
  -4   0 -15-2.25467 8.25488   1
  -4   0 -16 8.53391 7.43834   1
  -4  -1   0 55.0695  7.4068   1
  -4  -1   0 44.7361 7.89546   1
  -4  -1  -1 13.6258 7.20442   1
  -4  -1  -1 16.8618 6.16022   1
  -4  -1  -2 1.15385 6.88052   1
  -4  -1  -2 5.15134  6.9942   1
  -4  -1  -3 226.407 15.8752   1
  -4  -1  -4 253.524 52.5325   1
  -4  -1  -5 453.654 26.5204   1
  -4  -1  -6 208.818 14.7336   1
  -4  -1  -7 42.1773  7.4125   1
  -4  -1  -8 44.2623  8.5127   1
  -4  -1  -9 31.0536 6.56386   1
  -4  -1 -10 27.2472   5.626   1
  -4  -1 -11 5.90997 7.01903   1
  -4  -1 -12 4.81185 7.62348   1
  -4  -1 -13 7.72122 9.52402   1
  -4  -1 -14 11.5411 9.97937   1
  -4  -1 -15 2.41206 7.12617   1
  -4  -1 -16 5.59567 10.2433   1
  -4  -2  -5 88.6771 15.0615   1
  -4  -2  -6 226.506 18.0017   1
  -4  -2  -7 84.7081   12.44   1
  -4  -2  -8  8.5478 10.0184   1
  -4  -2  -9 6.77248 7.81506   1
  -4  -2 -10 7.10359 7.83889   1
   4   2  11 20.0261 7.53851   1
  -4  -2 -11 16.1443 8.53698   1
   4   2  12  14.341 9.05345   1
  -4  -2 -12 8.57222 9.36223   1
   4   2  13-0.66318 9.02205   1
  -4  -2 -13 0.79662 8.96489   1
   4   2  14 6.23566  9.5993   1
  -4  -2 -14 5.48818 12.0228   1
   4   2  15 4.46296 10.3375   1
  -4  -2 -15  5.6072 10.9332   1
  -4  -3  -9 14.0546 13.6387   1
  -4  -3 -10 4.86021 12.0882   1
  -4  -3 -11 0.08578   11.42   1
   4   3  12 7.45004 11.8123   1
  -4  -3 -12 5.73615 13.5674   1
  -5   4  -1 16.6214 9.26813   1
  -5   3  -1 2.42748 6.94899   1
  -5   3  -2 29.1601 7.82064   1
  -5   3  -3-1.62584 6.81225   1
  -5   3  -4 -0.6185 7.67915   1
  -5   3  -5 46.5068 10.6692   1
  -5   3  -6-1.51881 6.85583   1
  -5   3  -7 14.3425 5.32714   1
  -5   3  -8 11.4198 7.81472   1
  -5   3  -9 24.0482  7.1564   1
  -5   2  -1 80.3208 10.9369   1
  -5   2  -2 44.6397 8.72349   1
  -5   2  -3-0.26923 5.08764   1
  -5   2  -5 6.42153  5.9686   1
  -5   2  -6 30.3524 16.2532   1
  -5   2  -7 18.8787 5.29839   1
  -5   2  -8 31.1323 14.4049   1
  -5   2  -9 35.9284 6.78424   1
  -5   2 -10 1.40018 5.26395   1
  -5   2 -11 12.7759   7.705   1
  -5   2 -12 10.3641 7.35579   1
  -5   1  -1 76.5926 9.75518   1
  -5   1  -2 628.724 65.2726   1
  -5   1  -4 217.305 15.8148   1
  -5   1  -5 241.717 122.952   1
  -5   1  -6 5.21602 3.85947   1
  -5   1  -7-0.78431 5.28446   1
  -5   1  -8 3.60523 5.32175   1
  -5   1  -9 20.7515 7.76608   1
  -5   1 -10 93.0403  9.0168   1
  -5   1 -11  1.3814 5.64742   1
  -5   1 -12-4.27216 8.44683   1
  -5   1 -13 4.54635  8.7815   1
  -5   1 -14 0.63541 8.40946   1
  -5   0   0 83.2319  10.441   1
  -5   0  -1 18.4804 5.04974   1
  -5   0  -2 109.084 10.5943   1
  -5   0  -3 869.149 62.5067   1
  -5   0  -4 472.831 40.0971   1
  -5   0  -5 361.175 33.4921   1
  -5   0  -6 5.71571 4.82681   1
  -5   0  -7 9.27624 6.05131   1
  -5   0  -8 2.81134 4.06633   1
  -5   0  -9 3.44373 7.30744   1
  -5   0 -10  2.8345 8.00624   1
  -5   0 -11 3.99817 6.25895   1
  -5   0 -12-1.01432 8.30495   1
  -5   0 -13 2.20972 8.11151   1
  -5   0 -14-1.24571 8.19864   1
  -5  -1   0 38.0615 7.69104   1
  -5  -1   0 37.1472 9.55213   1
  -5  -1  -1 61.6954 13.2248   1
  -5  -1  -1 71.0552 8.69603   1
  -5  -1  -2 384.305 33.2587   1
  -5  -1  -2 419.919 34.8485   1
  -5  -1  -3 156.737 17.8423   1
  -5  -1  -3 157.719 28.7459   1
  -5  -1  -4 116.263 10.0736   1
  -5  -1  -5 156.575 12.8565   1
  -5  -1  -6 1.49831 7.03453   1
  -5  -1  -7 1.63498 8.00902   1
  -5  -1  -8 4.03079 7.03655   1
  -5  -1  -9 13.6321 9.18182   1
  -5  -1 -10 50.2669  9.3891   1
  -5  -1 -11 2.43312 7.50935   1
  -5  -1 -12-1.77267  8.5896   1
  -5  -1 -13 0.22375 10.5782   1
  -5  -1 -14 5.01236 9.69138   1
  -5  -2  -6 13.3726 13.4036   1
  -5  -2  -7 13.3967 11.9174   1
  -5  -2  -8 12.5004 12.3697   1
  -5  -2  -9 14.4639 10.5196   1
  -5  -2 -10 1.08974 10.2439   1
  -5  -2 -11 6.50559 10.7605   1
  -5  -2 -12 8.75871 11.1477   1
  -5  -2 -13-0.27237 10.9744   1
  -6   3  -1 39.8546 9.48626   1
  -6   3  -2 1.93503 10.8997   1
  -6   3  -3 28.4815 10.8701   1
  -6   3  -4 7.43404 7.01084   1
  -6   3  -4 10.5404 8.25718   1
  -6   3  -5  6.6136 7.98639   1
  -6   3  -5 3.24198 8.45471   1
  -6   2  -1 264.211 31.4216   1
  -6   2  -2 66.9111 10.8494   1
  -6   2  -3 40.6314 7.94991   1
  -6   2  -4 71.1283  8.4959   1
  -6   2  -4 53.4471 9.76646   1
  -6   2  -5 6.49066 6.59969   1
  -6   2  -6-2.99833 4.93509   1
  -6   2  -7 4.79842 7.01375   1
  -6   2  -8 27.6857 7.17255   1
  -6   2  -9 2.71349 10.2903   1
  -6   1  -1 28.7648 9.25146   1
  -6   1  -2 193.022  21.376   1
  -6   1  -3 79.3914 17.9191   1
  -6   1  -3  78.486   8.812   1
  -6   1  -4 44.6427 8.06131   1
  -6   1  -4 30.6023 6.99351   1
  -6   1  -5 2.69425 4.04789   1
  -6   1  -6 14.6568 6.40042   1
  -6   1  -7 6.15602 6.54947   1
  -6   1  -8 10.4077 6.83746   1
  -6   1  -9 7.99093 8.11212   1
  -6   1 -10 17.7024 7.09999   1
  -6   1 -11 0.93803 6.97963   1
  -6   0   0-0.17281 6.49961   1
  -6   0  -1 33.1197 6.20093   1
  -6   0  -2 0.69945 7.07712   1
  -6   0  -2-4.70138 9.82184   1
  -6   0  -3 111.778 17.1155   1
  -6   0  -3 83.4681 10.9633   1
  -6   0  -4 68.8216 10.7885   1
  -6   0  -4 102.969 10.0839   1
  -6   0  -5-4.81947 9.90038   1
  -6   0  -6 2.25322 6.15815   1
  -6   0  -7 0.88622 6.29145   1
  -6   0  -8 46.6291 7.56216   1
  -6   0  -9 7.19696 7.01001   1
  -6   0 -10 2.97273 7.50512   1
  -6   0 -11 2.44172  7.3842   1
  -6   0 -12 0.34018 10.2936   1
  -6  -1   0-0.46024 6.09459   1
  -6  -1   0  2.9187 8.36477   1
  -6  -1  -1 16.8185  9.8277   1
  -6  -1  -1 15.2096 8.57864   1
  -6  -1  -2 137.363 30.9916   1
  -6  -1  -2 139.925  14.319   1
  -6  -1  -3 54.7632 11.7105   1
  -6  -1  -3 53.2175 7.85882   1
  -6  -1  -4 43.5167 13.3275   1
  -6  -1  -4 32.5336 10.3674   1
  -6  -1  -5  0.6034  8.6767   1
  -6  -1  -5 0.23512 6.73755   1
  -6  -1  -6 5.59289  8.7377   1
  -6  -1  -7 2.84005 8.85722   1
  -6  -1  -8 9.23315 9.10282   1
  -6  -1  -9-1.71935 11.8275   1
  -6  -1 -10  20.978 10.0912   1
  -6  -1 -11  1.6981  9.2704   1
  -6  -2  -8 16.1064  15.418   1
  -6  -2  -8 15.8761  18.805   1
  -6  -2  -9 2.97051 13.3826   1
  -7   2  -1 33.5122 10.2473   1
  -7   2  -2 53.1137 10.2735   1
  -7   2  -3   3.457 7.24829   1
  -7   2  -3-0.55308  12.138   1
  -7   2  -4 7.42885 8.76587   1
  -7   2  -4 12.4459 10.9611   1
  -7   1  -1 21.1613 6.95952   1
  -7   1  -2 5.66857 7.26074   1
  -7   1  -2 1.63911 9.20917   1
  -7   1  -3 66.6955 11.0887   1
  -7   1  -3 63.1691 12.7341   1
  -7   1  -4 44.0794 8.82047   1
  -7   1  -4 26.4893 8.89298   1
  -7   1  -5 5.65424 7.89762   1
  -7   1  -5 5.22389 7.96841   1
  -7   1  -6 6.63915 9.82331   1
  -7   1  -6 2.45034 6.68547   1
  -7   1  -7 23.7013 10.1365   1
  -7   0   0 22.3737 10.9473   1
  -7   0  -1 10.9915 8.29012   1
  -7   0  -1 8.42434 8.81695   1
  -7   0  -2 26.3507 9.92261   1
  -7   0  -2 14.1775 8.74994   1
  -7   0  -3-1.74196 7.65093   1
  -7   0  -3 4.30143 7.88237   1
  -7   0  -4 3.63379 12.5489   1
  -7   0  -4 4.06954 8.01575   1
  -7   0  -5 4.48082 6.61855   1
  -7   0  -5 4.59805 9.90767   1
  -7   0  -6 19.4081 9.03626   1
  -7   0  -6 24.2452 10.4442   1
  -7   0  -7 3.68891 8.19869   1
  -7   0  -7  0.0072 6.52458   1
  -7   0  -8 0.80554 8.10415   1
  -7  -1   0 2.78776 12.4546   1
  -7  -1   0 5.18241 9.97053   1
  -7  -1  -1 9.55603 11.7663   1
  -7  -1  -1 9.04132 9.63332   1
  -7  -1  -2-0.05269 14.4629   1
  -7  -1  -2 1.13415 8.05848   1
  -7  -1  -3 29.6416 13.6208   1
  -7  -1  -3 20.8603 9.92958   1
  -7  -1  -4 10.9614 11.0597   1
  -7  -1  -4 15.9112  11.608   1
  -7  -1  -5 2.63426 10.4741   1
  -7  -1  -5 1.88585 13.2919   1
  -7  -1  -6 0.10362 12.6761   1
  -7  -1  -6  2.9893 11.6566   1
  -7  -1  -7 10.5168 11.6866   1
  -7  -1  -7 16.1049 12.6274   1
   0   0   0    0.00    0.00   1
;
_shelx_hkl_checksum              96683
_shelx_res_file
;
    shelx.res created by SHELXL-2014/7
TITL aze-intermed
CELL  0.71073   5.6955   3.8408  14.5921   90.000   91.631   90.000
ZERR     2.00   0.0014   0.0005   0.0035    0.000    0.019    0.000
LATT  -1
SYMM  - X, 1/2 + Y, - Z
SFAC  C    H    N
UNIT  12 16 8
MERG   2
dfix 21 c1 h1  c2 h2 c3 h3 c4 h4
dfix 31 n2 h2a n2 h2b n4 h4a n4 h4b
dfix 31.6 h2a h2b h4a h4b
dfix -2.02 h2b h4b
FMAP   2
PLAN    5
SIZE     0.200   0.210   0.480
ACTA
BOND   $H
LIST   6
L.S.  10
TEMP  -123.00
WGHT    0.112200
FVAR       2.04058   0.98406   0.95445
C1    1    0.377609    0.389216    0.892847    11.00000    0.04598    0.04123 =
         0.04989   -0.00031    0.00077    0.00240
AFIX  44
H1    2    0.493955    0.406372    0.942697    11.00000   -1.20000
AFIX   0
C2    1    0.167984    0.233069    0.910876    11.00000    0.04954    0.03641 =
         0.05337    0.00203    0.00405    0.00553
AFIX  44
H2    2    0.135783    0.142751    0.973102    11.00000   -1.20000
AFIX   0
C3    1    0.000674    0.204015    0.839599    11.00000    0.04174    0.03685 =
         0.06038    0.00375    0.00599    0.00260
AFIX  44
H3    2   -0.152066    0.092480    0.849616    11.00000   -1.20000
AFIX   0
C4    1    0.054540    0.335685    0.754512    11.00000    0.03539    0.03494 =
         0.05649   -0.00118    0.00168   -0.00096
AFIX  44
H4    2   -0.059769    0.317581    0.702721    11.00000   -1.20000
AFIX   0
C5    1    0.271054    0.493704    0.742593    11.00000    0.03476    0.03099 =
         0.05134   -0.00322   -0.00213    0.00719
C6    1    0.336952    0.647865    0.653895    11.00000    0.02987    0.02919 =
         0.05170   -0.00100    0.00071    0.00056
N1    3    0.433731    0.520596    0.810886    11.00000    0.04132    0.03746 =
         0.05181    0.00014    0.00051    0.00032
N2    3    0.552545    0.797397    0.651660    11.00000    0.03892    0.04100 =
         0.05279    0.00068    0.00041   -0.00515
N3    3    0.184362    0.625200    0.586229    11.00000    0.03459    0.03347 =
         0.04862   -0.00036    0.00141    0.00185
N4    3    0.258502    0.771308    0.502155    11.00000    0.04133    0.03843 =
         0.04691    0.00385    0.00061   -0.00078
H4A   2    0.124674    0.839886    0.465807    11.00000   -1.50000
H2A   2    0.636967    0.830112    0.708015    11.00000   -1.50000
H2B   2    0.613656    0.954348    0.608254    11.00000   -1.50000
H4B   2    0.352940    0.970457    0.512468    11.00000   -1.55000
HKLF 4
REM  aze-intermed
REM R1 =  0.0720 for     806 Fo > 4sig(Fo)  and  0.1019 for all    1407 data
REM    109 parameters refined using     12 restraints
END
WGHT      0.1122      0.0000
REM Highest difference peak  0.299,  deepest hole -0.368,  1-sigma level  0.088
Q1    1  -0.1770 -0.2812  0.8161  11.00000  0.05    0.30
Q2    1   0.7250  0.6226  0.8778  11.00000  0.05    0.30
Q3    1   0.1325 -0.0659  0.9436  11.00000  0.05    0.28
Q4    1   0.1650  1.0585  0.6057  11.00000  0.05    0.27
Q5    1   0.1521  1.0219  0.5468  11.00000  0.05    0.27
;
_shelx_res_checksum              81058
loop_
_space_group_symop_operation_xyz
'x, y, z'
'-x, y+1/2, -z'
loop_
_atom_site_type_symbol
_atom_site_label
_atom_site_fract_x
_atom_site_fract_y
_atom_site_fract_z
_atom_site_U_iso_or_equiv
_atom_site_adp_type
_atom_site_calc_flag
_atom_site_occupancy
C C1 0.3776(8) 0.3892(13) 0.8928(3) 0.0457(11) Uani d 1
H H1 0.494(4) 0.4064(14) 0.9427(17) 0.055 Uiso calc 1
C C2 0.1680(8) 0.2331(13) 0.9109(3) 0.0464(11) Uani d 1
H H2 0.1358(13) 0.143(3) 0.973(2) 0.056 Uiso calc 1
C C3 0.0007(9) 0.2040(13) 0.8396(3) 0.0462(11) Uani d 1
H H3 -0.152(5) 0.092(4) 0.8496(4) 0.055 Uiso calc 1
C C4 0.0545(8) 0.3357(12) 0.7545(3) 0.0423(11) Uani d 1
H H4 -0.060(4) 0.3176(14) 0.7027(17) 0.051 Uiso calc 1
C C5 0.2711(7) 0.4937(12) 0.7426(3) 0.0391(9) Uani d 1
C C6 0.3370(7) 0.6479(12) 0.6539(3) 0.0369(9) Uani d 1
N N1 0.4337(6) 0.5206(10) 0.8109(2) 0.0435(10) Uani d 1
N N2 0.5525(7) 0.7974(11) 0.6517(2) 0.0443(10) Uani d 1
N N3 0.1844(6) 0.6252(9) 0.5862(2) 0.0389(9) Uani d 1
N N4 0.2585(6) 0.7713(12) 0.5022(2) 0.0422(9) Uani d 1
H H4A 0.125(7) 0.840(13) 0.466(3) 0.063 Uiso d 1
H H2A 0.637(8) 0.830(16) 0.708(2) 0.063 Uiso d 1
H H2B 0.614(7) 0.954(13) 0.608(2) 0.063 Uiso d 1
H H4B 0.353(7) 0.970(12) 0.512(3) 0.065 Uiso d 1
loop_
_atom_site_aniso_label
_atom_site_aniso_U_11
_atom_site_aniso_U_22
_atom_site_aniso_U_33
_atom_site_aniso_U_12
_atom_site_aniso_U_13
_atom_site_aniso_U_23
C1 0.046(3) 0.041(3) 0.050(2) 0.002(2) 0.0008(18) 0.000(2)
C2 0.050(3) 0.036(3) 0.053(2) 0.006(2) 0.0041(19) 0.0020(19)
C3 0.042(2) 0.037(3) 0.060(2) 0.003(2) 0.0060(18) 0.0037(18)
C4 0.035(2) 0.035(3) 0.056(2) -0.001(2) 0.0017(18) -0.0012(19)
C5 0.035(2) 0.031(2) 0.051(2) 0.007(2) -0.0021(16) -0.0032(17)
C6 0.030(2) 0.029(2) 0.052(2) 0.0006(19) 0.0007(16) -0.0010(17)
N1 0.041(2) 0.037(2) 0.0518(19) 0.0003(19) 0.0005(14) 0.0001(16)
N2 0.039(2) 0.041(2) 0.0528(19) -0.0051(19) 0.0004(15) 0.0007(17)
N3 0.0346(18) 0.033(2) 0.0486(18) 0.0019(17) 0.0014(14) -0.0004(16)
N4 0.041(2) 0.038(2) 0.0469(17) -0.0008(19) 0.0006(14) 0.0039(16)
loop_
_atom_type_symbol
_atom_type_description
_atom_type_scat_dispersion_real
_atom_type_scat_dispersion_imag
_atom_type_scat_source
C C 0.0033 0.0016 'International Tables Vol C Tables 4.2.6.8 and 6.1.1.4'
H H 0.0000 0.0000 'International Tables Vol C Tables 4.2.6.8 and 6.1.1.4'
N N 0.0061 0.0033 'International Tables Vol C Tables 4.2.6.8 and 6.1.1.4'
loop_
_geom_angle_atom_site_label_1
_geom_angle_atom_site_label_2
_geom_angle_atom_site_label_3
_geom_angle
N1 C1 C2 124.5(4)
N1 C1 H1 117.8
C2 C1 H1 117.8
C1 C2 C3 118.2(4)
C1 C2 H2 120.9
C3 C2 H2 120.9
C4 C3 C2 118.4(4)
C4 C3 H3 120.8
C2 C3 H3 120.8
C3 C4 C5 119.5(4)
C3 C4 H4 120.3
C5 C4 H4 120.3
N1 C5 C4 122.4(4)
N1 C5 C6 115.5(4)
C4 C5 C6 122.1(4)
N3 C6 N2 126.6(4)
N3 C6 C5 117.2(4)
N2 C6 C5 116.2(3)
C1 N1 C5 117.0(4)
C6 N2 H2A 118(3)
C6 N2 H2B 129(2)
H2A N2 H2B 108(3)
C6 N3 N4 114.8(4)
N3 N4 H4A 110(3)
N3 N4 H4B 111(3)
H4A N4 H4B 108(3)
loop_
_geom_bond_atom_site_label_1
_geom_bond_atom_site_label_2
_geom_bond_distance
C1 N1 1.345(6)
C1 C2 1.368(7)
C1 H1 0.97(3)
C2 C3 1.395(7)
C2 H2 0.99(3)
C3 C4 1.383(6)
C3 H3 0.98(3)
C4 C5 1.390(6)
C4 H4 0.99(3)
C5 N1 1.345(5)
C5 C6 1.481(5)
C6 N3 1.300(5)
C6 N2 1.357(6)
N2 H2A 0.95(3)
N2 H2B 0.95(3)
N3 N4 1.424(5)
N4 H4A 0.95(3)
N4 H4B 0.94(3)
loop_
_geom_hbond_atom_site_label_D
_geom_hbond_atom_site_label_H
_geom_hbond_atom_site_label_A
_geom_hbond_site_symmetry_A
_geom_hbond_distance_DH
_geom_hbond_distance_HA
_geom_hbond_distance_DA
_geom_hbond_angle_DHA
N2 H2B N4 2_656 0.95(3) 2.16(3) 3.106(5) 174(4)
N4 H4B N4 2_656 0.94(3) 2.51(3) 3.357(6) 149(4)
N4 H4A N3 2_556 0.95(3) 2.19(4) 3.113(5) 162(4)

_cod_database_fobs_code 2242232
