#------------------------------------------------------------------------------
#$Date: 2017-07-25 12:56:51 +0300 (Tue, 25 Jul 2017) $
#$Revision: 199218 $
#$URL: file:///home/coder/svn-repositories/cod/cif/2/24/22/2242261.cif $
#------------------------------------------------------------------------------
#
# This file is available in the Crystallography Open Database (COD),
# http://www.crystallography.net/. The original data for this entry
# were provided by IUCr Journals, http://journals.iucr.org/.
#
# The file may be used within the scientific community so long as
# proper attribution is given to the journal article from which the
# data were obtained.
#
data_2242261
loop_
_publ_author_name
'Frampton, Christopher S.'
'Murray, James I.'
'Spivey, Alan C.'
_publ_section_title
;
 Crystal structure of 1-methylimidazole 3-oxide monohydrate
;
_journal_coeditor_code           HB7643
_journal_issue                   3
_journal_name_full               'Acta Crystallographica Section E'
_journal_page_first              372
_journal_page_last               374
_journal_paper_doi               10.1107/S2056989017002079
_journal_volume                  73
_journal_year                    2017
_chemical_formula_iupac          'C4 H6 N2 O, H2 O'
_chemical_formula_moiety         'C4 H6 N2 O, H2 O'
_chemical_formula_sum            'C4 H8 N2 O2'
_chemical_formula_weight         116.12
_chemical_name_common
;
Murray <i>N</i>-oxide catalyst
;
_chemical_name_systematic
;
1-Methylimidazole 3-<i>N</i>-oxide monohydrate
;
_space_group_crystal_system      monoclinic
_space_group_IT_number           4
_space_group_name_Hall           'P 2yb'
_space_group_name_H-M_alt        'P 1 21 1'
_symmetry_space_group_name_Hall  'P 2yb'
_symmetry_space_group_name_H-M   'P 1 21 1'
_atom_sites_solution_hydrogens   mixed
_atom_sites_solution_primary     direct
_audit_creation_method           SHELXL-2014/6
_cell_angle_alpha                90
_cell_angle_beta                 112.402(9)
_cell_angle_gamma                90
_cell_formula_units_Z            4
_cell_length_a                   7.5941(6)
_cell_length_b                   10.0703(6)
_cell_length_c                   7.8286(6)
_cell_measurement_reflns_used    1007
_cell_measurement_temperature    100.0(10)
_cell_measurement_theta_max      74.77
_cell_measurement_theta_min      6.29
_cell_volume                     553.51(8)
_computing_cell_refinement
;
CrysAlis PRO (Rigaku OD, 2015)
;
_computing_data_collection
;
CrysAlis PRO (Rigaku OD, 2015)
;
_computing_data_reduction
;
CrysAlis PRO (Rigaku OD, 2015)
;
_computing_molecular_graphics
;
SHELXTL (Sheldrick, 2008) and <i>Mercury</i> (Macrae <i>et al</i>.,
2008)
;
_computing_publication_material
;
SHELXTL (Sheldrick, 2008), <i>Mercury</i> (Macrae <i>et al</i>.,
2008)
and publCIF (Westrip, 2010)
;
_computing_structure_refinement
;
SHELXL2014 (Sheldrick, 2015b)
;
_computing_structure_solution
;
SHELXD2014 (Sheldrick et al., 2001)
;
_diffrn_ambient_temperature      100.0(10)
_diffrn_detector_area_resol_mean 5.2921
_diffrn_measured_fraction_theta_full 0.998
_diffrn_measured_fraction_theta_max 0.995
_diffrn_measurement_device_type  'Rigaku SuperNova, Dualflex, AtlasS2'
_diffrn_measurement_method       '\w scans'
_diffrn_radiation_type           CuK\a
_diffrn_radiation_wavelength     1.54184
_diffrn_reflns_av_R_equivalents  0.0229
_diffrn_reflns_limit_h_max       8
_diffrn_reflns_limit_h_min       -9
_diffrn_reflns_limit_k_max       5
_diffrn_reflns_limit_k_min       -12
_diffrn_reflns_limit_l_max       7
_diffrn_reflns_limit_l_min       -9
_diffrn_reflns_number            2067
_diffrn_reflns_theta_full        67.679
_diffrn_reflns_theta_max         74.338
_diffrn_reflns_theta_min         6.114
_exptl_absorpt_coefficient_mu    0.953
_exptl_absorpt_correction_T_max  1.00000
_exptl_absorpt_correction_T_min  0.41933
_exptl_absorpt_correction_type   multi-scan
_exptl_absorpt_process_details
;
(CrysAlis PRO; Rigaku OD, 2015)
;
_exptl_crystal_colour            Colourless
_exptl_crystal_density_diffrn    1.393
_exptl_crystal_description       Lath
_exptl_crystal_F_000             248
_exptl_crystal_size_max          0.450
_exptl_crystal_size_mid          0.100
_exptl_crystal_size_min          0.050
_refine_diff_density_max         0.206
_refine_diff_density_min         -0.229
_refine_ls_abs_structure_details none
_refine_ls_extinction_method     none
_refine_ls_goodness_of_fit_ref   1.013
_refine_ls_hydrogen_treatment    mixed
_refine_ls_matrix_type           full
_refine_ls_number_parameters     163
_refine_ls_number_reflns         1386
_refine_ls_number_restraints     1
_refine_ls_restrained_S_all      1.013
_refine_ls_R_factor_all          0.0461
_refine_ls_R_factor_gt           0.0415
_refine_ls_shift/su_max          0.000
_refine_ls_shift/su_mean         0.000
_refine_ls_structure_factor_coef Fsqd
_refine_ls_weighting_details
'w=1/[\s^2^(Fo^2^)+(0.0750P)^2^] where P=(Fo^2^+2Fc^2^)/3'
_refine_ls_weighting_scheme      calc
_refine_ls_wR_factor_gt          0.1143
_refine_ls_wR_factor_ref         0.1192
_reflns_number_gt                1241
_reflns_number_total             1386
_reflns_threshold_expression     'I > 2\s(I)'
_cod_data_source_file            hb7643sup1.cif
_cod_data_source_block           I
_cod_database_code               2242261
_shelx_space_group_comment
;
The symmetry employed for this shelxl refinement is uniquely defined
by the following loop, which should always be used as a source of
symmetry information in preference to the above space-group names.
They are only intended as comments.
;
_shelx_estimated_absorpt_t_min   0.674
_shelx_estimated_absorpt_t_max   0.954
_shelx_hkl_file
;
   0 -12   0    8.17    0.28
   0 -12   1    0.30    0.07
   0 -12   2    0.30    0.07
   0 -11   0   -0.05    0.06
   0 -11   1    0.17    0.06
   0 -11  -1    0.48    0.07
   0 -11   2   -0.01    0.06
   0 -11  -2    0.18    0.05
   0 -11   3    2.41    0.20
   0 -11  -3    2.45    0.16
   0 -11   4    0.19    0.04
   0 -11  -4    0.23    0.04
   0 -10   0    1.82    0.16
   0 -10   0    1.65    0.22
   0 -10   1    1.36    0.22
   0 -10  -1    1.44    0.14
   0 -10  -2    0.87    0.10
   0 -10   2    0.81    0.17
   0 -10  -2    0.56    0.10
   0 -10   3    1.19    0.18
   0 -10  -3    1.19    0.15
   0 -10  -4    1.50    0.15
   0 -10   4    1.47    0.17
   0 -10  -5    1.26    0.11
   0  -9   0    0.12    0.09
   0  -9  -1    2.59    0.30
   0  -9  -1    2.29    0.19
   0  -9   1    2.80    0.32
   0  -9  -2   19.27    0.82
   0  -9   2   19.24    0.84
   0  -9  -2   19.64    0.68
   0  -9  -2   21.19    0.53
   0  -9   3    1.69    0.24
   0  -9  -3    1.41    0.18
   0  -9   4    0.63    0.15
   0  -9  -4    0.34    0.09
   0  -9  -5    0.05    0.03
   0  -9  -5    0.05    0.04
   0  -9  -6    0.67    0.08
   0  -9  -6    0.83    0.08
   0  -8   0   13.93    0.66
   0  -8  -1    0.77    0.17
   0  -8  -2    2.97    0.33
   0  -8  -3    0.49    0.15
   0  -8   3    0.42    0.12
   0  -8   4   15.54    0.74
   0  -8  -4   14.33    0.56
   0  -8  -5    1.28    0.16
   0  -8  -6    0.05    0.02
   0  -8  -6    0.14    0.06
   0  -8  -7    0.07    0.02
   0  -7   0    0.00    0.06
   0  -7  -1   18.58    0.78
   0  -7   1   18.18    0.69
   0  -7  -1   19.40    0.66
   0  -7  -2    2.27    0.22
   0  -7  -2    2.17    0.28
   0  -7  -3   11.15    0.63
   0  -7  -4    6.12    0.52
   0  -7  -5    1.38    0.18
   0  -7  -6    0.54    0.10
   0  -7  -7    0.82    0.08
   0  -7  -7    1.19    0.11
   0  -6   0    4.50    0.33
   0  -6   0    4.87    0.30
   0  -6  -1    2.81    0.23
   0  -6  -1    3.00    0.30
   0  -6   1    3.00    0.26
   0  -6  -2   -0.03    0.07
   0  -6  -2    0.00    0.03
   0  -6  -3    8.44    0.52
   0  -6  -4    0.37    0.13
   0  -6  -5   11.20    0.61
   0  -6  -5   11.12    0.71
   0  -6  -6    0.09    0.03
   0  -6  -7    4.19    0.24
   0  -5   0    0.01    0.03
   0  -5   0    0.04    0.04
   0  -5   1    5.17    0.30
   0  -5  -1    5.18    0.35
   0  -5  -1    4.15    0.26
   0  -5  -2    7.36    0.42
   0  -5  -2    6.86    0.34
   0  -5  -3    9.17    0.50
   0  -5  -4   10.69    0.62
   0  -5  -4   10.52    0.49
   0  -5  -5    0.09    0.08
   0  -5  -5    0.12    0.07
   0  -5  -6    6.14    0.41
   0  -5  -7    0.63    0.10
   0  -5  -8    0.25    0.05
   0  -4   0   15.26    0.44
   0  -4   0   15.30    0.47
   0  -4  -1    1.97    0.16
   0  -4   1    2.00    0.17
   0  -4   1    2.12    0.16
   0  -4  -2   40.13    0.75
   0  -4  -2   40.73    0.83
   0  -4  -2   40.24    0.66
   0  -4  -3   -0.02    0.03
   0  -4  -3   -0.01    0.05
   0  -4  -4   44.06    0.97
   0  -4  -4   42.36    0.99
   0  -4  -5    0.80    0.14
   0  -4  -6    1.87    0.24
   0  -4  -6    1.92    0.23
   0  -4  -7    0.24    0.07
   0  -4  -7    0.35    0.09
   0  -4  -8    1.63    0.13
   0  -4  -8    1.84    0.17
   0  -3  -1   24.15    0.53
   0  -3   1   24.30    0.49
   0  -3   1   24.60    0.47
   0  -3  -2   19.71    0.52
   0  -3  -2   20.03    0.44
   0  -3  -3   22.99    0.57
   0  -3  -3   21.55    0.60
   0  -3  -4    0.87    0.13
   0  -3  -4    0.94    0.14
   0  -3  -5    1.63    0.20
   0  -3  -6    0.55    0.13
   0  -3  -7    2.52    0.27
   0  -3  -8    2.91    0.24
   0  -2   1   76.33    1.16
   0  -2   1   75.69    1.06
   0  -2   2    4.41    0.25
   0  -2  -2    4.72    0.21
   0  -2  -3    1.09    0.12
   0  -2  -4    0.19    0.06
   0  -2  -5   26.18    0.75
   0  -2  -6    1.55    0.21
   0  -2  -7    5.01    0.40
   0  -2  -8    0.57    0.12
   0  -2  -9    1.96    0.15
   0  -1   1   39.95    0.73
   0  -1   2   11.85    0.51
   0  -1  -3    9.93    0.29
   0  -1   3   10.92    0.37
   0  -1   4    1.20    0.16
   0  -1  -5    3.18    0.26
   0  -1  -6    3.46    0.30
   0  -1  -7    8.30    0.52
   0  -1  -8    2.93    0.27
   0  -1  -9    0.97    0.11
   0   0   1    0.01    0.02
   0   0  -1    0.01    0.02
   0   0  -2   56.33    0.86
   0   0   2   56.73    0.95
   0   0   3    1.54    0.12
   0   0   4    0.21    0.06
   0   0   5    2.31    0.25
   0   0  -6    0.66    0.14
   0   0  -7    0.57    0.16
   0   0  -8    4.57    0.33
   0   0  -9    0.08    0.04
   0   1   0    0.00    0.02
   0   1  -2   11.68    0.47
   0   1  -3   10.31    0.54
   0   1   4    1.22    0.13
   0   1  -6    3.62    0.32
   0   1  -7    7.96    0.51
   0   1  -8    2.90    0.26
   0   2   0    0.76    0.12
   0   2   0    0.68    0.09
   0   2  -1   75.10    1.16
   0   2  -2    4.53    0.34
   0   2  -6    1.75    0.22
   0   2  -7    5.27    0.41
   0   2  -8    0.57    0.12
   0   3   0   -0.04    0.05
   0   3   0   -0.02    0.04
   0   3   1   24.34    0.38
   0   3  -1   23.41    0.73
   0   3   2   21.91    0.92
   0   4   0   15.61    0.55
  -1 -12   3    0.19    0.04
  -1 -12   2    2.19    0.15
  -1 -12   1    1.99    0.10
  -1 -12   1    2.07    0.15
   1 -12   0    0.60    0.08
  -1 -12   0    1.10    0.10
   1 -12   1    0.03    0.03
   1 -12   2    3.78    0.19
   1 -11  -4    0.46    0.06
  -1 -11   4    0.53    0.08
  -1 -11   3    0.09    0.05
   1 -11  -3    0.10    0.04
  -1 -11   2    0.17    0.07
  -1 -11   2    0.11    0.05
   1 -11  -2    0.22    0.05
  -1 -11   1    0.29    0.07
  -1 -11   1    0.32    0.09
  -1 -11   0    0.17    0.05
   1 -11   0    0.07    0.06
  -1 -11   0    0.26    0.08
   1 -11   1    0.48    0.12
  -1 -11  -1    0.69    0.08
   1 -11   2    0.15    0.05
   1 -11   3    3.05    0.21
  -1 -11  -3    3.00    0.16
   1 -10  -5    4.28    0.21
  -1 -10   4    0.04    0.04
   1 -10  -4    0.11    0.05
   1 -10  -3    0.71    0.12
  -1 -10   3    0.48    0.11
   1 -10  -2    0.36    0.09
  -1 -10   2    0.30    0.09
  -1 -10   2    0.27    0.08
  -1 -10   1   11.33    0.48
  -1 -10   1   12.23    0.60
   1 -10   0    0.72    0.17
  -1 -10   0    0.65    0.11
  -1 -10   0    0.47    0.10
   1 -10   1    0.98    0.19
  -1 -10  -1    1.09    0.12
   1 -10   2    0.13    0.07
  -1 -10  -2    0.30    0.08
  -1 -10  -2    0.15    0.05
   1 -10   3    3.99    0.32
  -1 -10  -3    3.80    0.25
   1 -10   4    0.08    0.03
  -1 -10  -4    0.21    0.06
  -1 -10  -5    0.07    0.02
   1  -9  -6    0.96    0.10
   1  -9  -6    0.99    0.10
   1  -9  -5    0.12    0.04
   1  -9  -5    0.17    0.05
   1  -9  -4    8.28    0.43
  -1  -9   4    8.86    0.50
   1  -9  -3    5.21    0.36
  -1  -9   3    4.42    0.38
   1  -9  -2   14.60    0.42
  -1  -9   2   12.34    0.66
   1  -9  -2   11.39    0.62
   1  -9  -2   14.11    0.58
  -1  -9   1    0.05    0.08
   1  -9  -1    0.12    0.06
  -1  -9   1    0.07    0.05
   1  -9  -1    0.19    0.08
  -1  -9   0   11.91    0.56
   1  -9   0   12.23    0.67
  -1  -9   0   12.38    0.51
   1  -9   1    3.39    0.38
  -1  -9  -1    3.40    0.34
  -1  -9  -1    2.90    0.22
   1  -9   2   12.29    0.67
  -1  -9  -2   13.89    0.43
   1  -9   3    0.20    0.09
   1  -9   4    1.43    0.20
  -1  -9  -5    0.03    0.02
  -1  -9  -5    0.05    0.03
   1  -8  -7    0.01    0.01
   1  -8  -7    0.02    0.02
   1  -8  -6    6.78    0.32
   1  -8  -6    7.90    0.35
   1  -8  -5    0.85    0.14
   1  -8  -5    1.08    0.16
  -1  -8   4    3.05    0.32
   1  -8  -4    2.88    0.26
   1  -8  -4    2.42    0.34
   1  -8  -3    1.13    0.23
   1  -8  -2    2.15    0.28
   1  -8  -1    1.92    0.25
  -1  -8   0    6.62    0.48
   1  -8   0    5.89    0.42
  -1  -8   0    7.01    0.46
  -1  -8  -1    0.43    0.14
  -1  -8  -1    0.36    0.11
  -1  -8  -2    7.58    0.45
  -1  -8  -2    6.52    0.47
   1  -8   3    1.03    0.19
  -1  -8  -3    1.22    0.22
   1  -8   4   12.45    0.65
  -1  -8  -4   10.51    0.46
  -1  -8  -5   -0.01    0.04
  -1  -8  -6    2.19    0.15
   1  -7  -7    0.10    0.03
   1  -7  -7    0.11    0.04
   1  -7  -6    0.47    0.10
   1  -7  -5    5.38    0.36
   1  -7  -4    1.15    0.24
   1  -7  -3   10.50    0.62
   1  -7  -2    4.81    0.40
  -1  -7   1    0.97    0.17
   1  -7  -1    0.89    0.16
  -1  -7   1    0.93    0.18
  -1  -7   0    5.34    0.39
   1  -7   0    4.85    0.35
  -1  -7   0    5.47    0.41
  -1  -7  -1    5.57    0.40
  -1  -7  -1    5.64    0.43
  -1  -7  -2    4.33    0.34
  -1  -7  -2    3.95    0.37
  -1  -7  -3    7.80    0.52
  -1  -7  -4    0.77    0.19
  -1  -7  -4    1.11    0.21
  -1  -7  -5    0.17    0.08
  -1  -7  -6    0.35    0.10
  -1  -7  -7    0.88    0.08
   1  -6  -8    0.38    0.05
   1  -6  -7    0.86    0.12
   1  -6  -6    0.82    0.14
   1  -6  -5    4.05    0.46
   1  -6  -4    0.78    0.18
   1  -6  -3    3.47    0.34
   1  -6  -2    0.34    0.10
  -1  -6   1   68.92    1.22
   1  -6  -1   69.18    1.32
  -1  -6   1   69.58    1.23
  -1  -6   0    0.46    0.11
   1  -6   0    0.37    0.10
  -1  -6   0    0.42    0.11
  -1  -6  -1   11.25    0.55
  -1  -6  -1   11.68    0.59
  -1  -6  -2    0.64    0.14
  -1  -6  -2    0.78    0.14
  -1  -6  -3   15.37    0.70
  -1  -6  -4    0.02    0.06
  -1  -6  -5    0.14    0.07
  -1  -6  -6    0.54    0.12
  -1  -6  -7    0.17    0.05
   1  -5  -8    2.87    0.18
   1  -5  -7    6.48    0.35
   1  -5  -6    1.22    0.17
   1  -5  -5    3.11    0.33
   1  -5  -4   12.54    0.64
   1  -5  -3    3.66    0.30
   1  -5  -2    6.53    0.39
  -1  -5   2    6.63    0.33
   1  -5  -2    5.92    0.35
  -1  -5   1    1.10    0.15
  -1  -5   1    1.03    0.14
   1  -5  -1    0.96    0.15
  -1  -5   0   10.18    0.47
   1  -5   0    9.56    0.42
  -1  -5   0    9.83    0.45
  -1  -5  -1    3.95    0.32
  -1  -5  -1    4.49    0.33
   1  -5   1    4.67    0.29
  -1  -5  -2   13.93    0.59
  -1  -5  -2   14.09    0.60
  -1  -5  -2   13.84    0.49
  -1  -5  -3    3.42    0.31
  -1  -5  -3    3.45    0.27
  -1  -5  -4    0.53    0.13
  -1  -5  -4    0.65    0.14
  -1  -5  -5    8.59    0.52
  -1  -5  -5    8.44    0.51
  -1  -5  -6    2.53    0.26
  -1  -5  -7    0.03    0.02
   1  -4  -8    7.86    0.31
   1  -4  -8    7.84    0.40
   1  -4  -7    0.41    0.11
   1  -4  -7    0.38    0.09
   1  -4  -6    2.39    0.26
   1  -4  -5    1.21    0.18
   1  -4  -5    1.14    0.19
   1  -4  -4    1.93    0.23
   1  -4  -4    1.98    0.20
   1  -4  -3    0.80    0.10
   1  -4  -3    0.66    0.13
   1  -4  -2   51.77    0.91
  -1  -4   2   52.32    0.84
  -1  -4   1    0.35    0.11
   1  -4  -1    0.23    0.07
   1  -4  -1    0.35    0.08
  -1  -4   1    0.28    0.08
  -1  -4   0   53.26    0.74
  -1  -4   0   53.03    0.92
   1  -4   1    1.36    0.14
  -1  -4  -1    1.21    0.16
  -1  -4  -1    1.23    0.13
  -1  -4  -2    2.25    0.18
  -1  -4  -2    2.12    0.22
  -1  -4  -3    2.23    0.24
  -1  -4  -3    2.27    0.21
  -1  -4  -4    7.36    0.43
  -1  -4  -4    6.83    0.46
  -1  -4  -5    0.24    0.09
  -1  -4  -6   19.14    0.71
  -1  -4  -6   17.86    0.70
  -1  -4  -7    0.20    0.07
  -1  -4  -8    1.58    0.12
   1  -3  -9    3.53    0.21
   1  -3  -8    0.29    0.09
   1  -3  -7    0.98    0.18
   1  -3  -7    0.97    0.14
   1  -3  -6    4.04    0.33
   1  -3  -5    0.07    0.03
   1  -3  -5    0.10    0.07
   1  -3  -4    3.18    0.29
   1  -3  -3   24.29    0.63
  -1  -3   2    6.86    0.48
   1  -3  -2    6.66    0.28
  -1  -3   2    6.28    0.25
  -1  -3   2    6.35    0.21
  -1  -3   1    4.28    0.21
  -1  -3   1    4.57    0.33
  -1  -3   1    4.28    0.36
  -1  -3   1    4.20    0.23
   1  -3  -1    4.72    0.23
  -1  -3   0   16.12    0.66
  -1  -3   0   16.32    0.48
  -1  -3   0   16.15    0.42
  -1  -3  -1   21.66    0.56
  -1  -3  -1   20.13    0.47
  -1  -3  -2   16.99    0.48
  -1  -3  -3    0.00    0.03
  -1  -3  -4    5.00    0.33
  -1  -3  -5    1.14    0.18
  -1  -3  -6    1.77    0.22
  -1  -3  -7    4.27    0.32
  -1  -3  -8    0.33    0.07
   1  -2  -9    1.70    0.17
   1  -2  -8    0.17    0.09
   1  -2  -7    1.16    0.20
   1  -2  -7    1.50    0.21
   1  -2  -6    0.91    0.15
   1  -2  -5   11.79    0.50
   1  -2  -4    0.30    0.08
  -1  -2   4    0.24    0.07
   1  -2  -3   33.18    0.63
  -1  -2   2    3.17    0.29
   1  -2  -2    2.95    0.16
  -1  -2   1  138.02    1.51
  -1  -2   0    0.56    0.08
  -1  -2   0    0.39    0.09
  -1  -2  -2    0.08    0.04
  -1  -2  -2    0.14    0.04
  -1  -2  -3    5.18    0.29
  -1  -2  -4    0.39    0.09
  -1  -2  -5    0.41    0.10
  -1  -2  -6    0.12    0.07
  -1  -2  -6    0.03    0.05
  -1  -2  -7    3.06    0.29
  -1  -2  -8    1.69    0.17
   1  -1  -9    0.96    0.13
   1  -1  -8    5.87    0.42
   1  -1  -7    2.07    0.27
   1  -1  -7    2.00    0.25
   1  -1  -5    3.02    0.23
  -1  -1   5    3.00    0.27
  -1  -1   4    2.70    0.21
   1  -1  -4    2.60    0.17
  -1  -1   3    5.25    0.41
   1  -1  -3    5.57    0.21
  -1  -1   3    5.11    0.22
   1  -1  -2   72.56    0.73
  -1  -1   2   73.02    1.18
   1  -1  -1    3.99    0.15
  -1  -1  -1    2.83    0.11
  -1  -1  -2   28.13    0.60
  -1  -1  -2   28.18    0.56
  -1  -1  -3    2.71    0.20
  -1  -1  -4    9.64    0.43
  -1  -1  -5    3.53    0.30
  -1  -1  -6   10.35    0.53
  -1  -1  -6    9.66    0.58
  -1  -1  -7    2.01    0.25
  -1  -1  -8    1.73    0.18
   1   0  -9    0.12    0.06
   1   0  -8    1.02    0.18
   1   0  -7    0.98    0.18
   1   0  -7    0.93    0.17
  -1   0   6   10.32    0.56
  -1   0   5    0.05    0.06
  -1   0   4   62.31    0.87
  -1   0   3    0.25    0.09
  -1   0   2    2.69    0.21
   1   0  -1    0.04    0.02
  -1   0   0   30.91    0.42
  -1   0  -1    0.00    0.01
  -1   0  -2   99.13    0.97
  -1   0  -2  101.08    1.45
  -1   0  -3    0.37    0.08
  -1   0  -4   23.43    0.66
  -1   0  -5    0.00    0.05
  -1   0  -6    5.67    0.41
  -1   0  -7    0.19    0.10
  -1   0  -8   -0.03    0.04
   1   1  -9    0.86    0.12
   1   1  -8    6.49    0.43
   1   1  -7    2.09    0.27
   1   1  -7    2.10    0.25
  -1   1   6    0.94    0.17
  -1   1   5    3.01    0.23
  -1   1   3    4.92    0.32
  -1   1   1    3.84    0.15
   1   1   0   43.90    0.45
  -1   1  -1    1.63    0.08
  -1   1  -2   28.94    0.48
  -1   1  -2   28.85    0.89
  -1   1  -3    2.94    0.19
  -1   1  -4   10.41    0.44
  -1   1  -5    3.99    0.32
  -1   1  -6   10.85    0.61
  -1   1  -6   11.49    0.57
  -1   1  -7    1.94    0.24
  -1   1  -8    1.93    0.19
   1   2  -8    0.19    0.07
   1   2  -7    1.45    0.22
  -1   2   6    0.94    0.15
  -1   2   5   11.98    0.44
  -1   2   1  137.01    1.01
  -1   2  -1  101.92    1.63
  -1   2  -1  102.56    1.09
  -1   2  -3    5.87    0.26
  -1   2  -4    0.39    0.09
  -1   2  -7    3.22    0.30
  -1   2  -8    1.50    0.14
  -1   3  -1   21.22    0.66
  -1   3  -1   20.28    0.81
  -1   4   1    0.25    0.08
  -1   4   0   52.49    1.23
  -1   4  -1    1.35    0.20
  -2 -12   2    4.33    0.14
  -2 -12   1    0.31    0.04
   2 -12   0    0.10    0.03
   2 -12   1    0.78    0.09
  -2 -11   4    0.97    0.10
  -2 -11   4    0.63    0.07
  -2 -11   3    0.79    0.11
  -2 -11   3    0.53    0.08
  -2 -11   2    0.52    0.10
  -2 -11   2    0.29    0.07
  -2 -11   1    0.17    0.05
  -2 -11   1    0.43    0.09
  -2 -11   0    0.19    0.05
   2 -11   0    0.11    0.06
   2 -11   1    4.27    0.33
  -2 -11  -1    4.77    0.20
   2 -11   2    0.49    0.10
   2 -11   3    2.93    0.18
   2 -10  -6    1.39    0.08
  -2 -10   5    0.56    0.08
   2 -10  -5    0.86    0.10
   2 -10  -4    2.27    0.19
  -2 -10   4    2.16    0.20
  -2 -10   3    0.89    0.14
   2 -10  -3    1.15    0.15
  -2 -10   3    0.77    0.13
   2 -10  -2    1.86    0.19
  -2 -10   2    1.61    0.20
  -2 -10   2    1.33    0.17
  -2 -10   1    3.05    0.26
  -2 -10   1    2.42    0.22
  -2 -10   0    0.19    0.08
   2 -10   0    0.19    0.11
  -2 -10   0    0.16    0.06
   2 -10   1    3.00    0.34
  -2 -10  -1    2.93    0.19
   2 -10   2    1.12    0.18
   2 -10   3    0.97    0.14
  -2 -10  -3    0.78    0.10
  -2 -10  -4    0.19    0.04
   2 -10   4    0.05    0.03
   2  -9  -6    0.18    0.05
   2  -9  -6    0.15    0.04
   2  -9  -5    0.68    0.11
   2  -9  -5    0.57    0.10
   2  -9  -4   16.77    0.60
  -2  -9   4   16.58    0.65
   2  -9  -4   17.40    0.58
   2  -9  -3    1.42    0.18
  -2  -9   3    1.25    0.20
  -2  -9   2    0.55    0.13
   2  -9  -2    1.05    0.16
  -2  -9   1    3.18    0.28
  -2  -9   1    2.68    0.25
  -2  -9   0   12.69    0.52
   2  -9   0   13.26    0.73
  -2  -9   0   14.41    0.66
  -2  -9   0   12.84    0.52
   2  -9   1    4.10    0.42
  -2  -9  -1    3.77    0.24
   2  -9   2    0.38    0.14
  -2  -9  -2    0.27    0.07
   2  -9   3    0.40    0.12
   2  -9   4    1.18    0.16
  -2  -9  -5    0.73    0.08
   2  -8  -7    0.81    0.07
   2  -8  -7    1.02    0.10
   2  -8  -6   11.53    0.41
   2  -8  -6   12.39    0.46
   2  -8  -5    0.05    0.03
   2  -8  -5    0.17    0.07
   2  -8  -4    2.53    0.25
  -2  -8   4    2.44    0.27
   2  -8  -4    1.93    0.29
   2  -8  -4    2.61    0.25
   2  -8  -3    0.75    0.17
   2  -8  -2   10.31    0.58
  -2  -8   1    0.34    0.13
  -2  -8   0    4.83    0.40
  -2  -8   0    5.31    0.44
  -2  -8  -1    1.69    0.23
  -2  -8  -1    1.28    0.21
  -2  -8  -2   15.52    0.48
   2  -8   2   13.03    0.72
  -2  -8  -2   13.44    0.63
  -2  -8  -2   13.98    0.67
  -2  -8  -2   15.03    0.66
  -2  -8  -3    1.13    0.18
   2  -8   3    1.08    0.19
   2  -8   4    0.72    0.15
  -2  -8  -4    0.60    0.10
  -2  -8  -5    0.18    0.05
  -2  -8  -6    0.75    0.06
   2  -7  -8    1.12    0.08
   2  -7  -7    1.04    0.12
   2  -7  -6    4.88    0.30
   2  -7  -6    5.78    0.35
   2  -7  -5    5.71    0.36
   2  -7  -5    5.67    0.52
   2  -7  -5    6.36    0.40
   2  -7  -4    0.46    0.14
   2  -7  -3    8.68    0.55
   2  -7  -2    0.52    0.14
  -2  -7   2    0.64    0.14
   2  -7  -1   15.63    0.65
  -2  -7   1   15.54    0.70
  -2  -7   0    1.42    0.23
  -2  -7   0    1.63    0.22
  -2  -7  -1   15.79    0.73
  -2  -7  -1   17.40    0.75
  -2  -7  -2    1.70    0.24
  -2  -7  -2    1.63    0.24
  -2  -7  -3    5.00    0.40
   2  -7   3    4.53    0.42
   2  -7   4    0.08    0.06
  -2  -7  -4    0.13    0.06
  -2  -7  -5    0.78    0.14
  -2  -7  -6    0.04    0.02
   2  -6  -8    0.03    0.03
   2  -6  -7    7.99    0.37
   2  -6  -6    0.17    0.07
   2  -6  -6    0.06    0.03
   2  -6  -5    4.16    0.43
   2  -6  -5    3.26    0.41
   2  -6  -4    0.68    0.17
   2  -6  -4    0.61    0.16
   2  -6  -3    1.90    0.24
   2  -6  -3    1.45    0.22
  -2  -6   2    2.29    0.24
   2  -6  -2    1.86    0.23
   2  -6  -1   15.28    0.61
  -2  -6   1   15.52    0.68
  -2  -6   1   15.58    0.60
  -2  -6   0    1.40    0.20
  -2  -6   0    1.40    0.22
  -2  -6  -1    3.85    0.36
  -2  -6  -1    4.02    0.34
  -2  -6  -2    0.73    0.14
  -2  -6  -2    0.81    0.16
  -2  -6  -2    0.79    0.16
  -2  -6  -3   12.56    0.59
  -2  -6  -4    0.30    0.10
  -2  -6  -4    0.20    0.10
  -2  -6  -5    7.99    0.49
  -2  -6  -6    0.36    0.09
  -2  -6  -7    0.68    0.06
   2  -5  -8    2.19    0.21
   2  -5  -8    2.15    0.17
   2  -5  -7    0.17    0.06
   2  -5  -6    5.07    0.44
   2  -5  -6    4.86    0.34
   2  -5  -5    8.76    0.59
   2  -5  -4    5.69    0.46
   2  -5  -3    2.57    0.26
  -2  -5   3    2.47    0.22
   2  -5  -2    4.80    0.32
  -2  -5   2    4.73    0.33
   2  -5  -2    4.27    0.31
  -2  -5   1    4.12    0.28
   2  -5  -1    4.39    0.30
  -2  -5   1    4.56    0.35
  -2  -5   1    3.99    0.25
  -2  -5   0    6.93    0.38
  -2  -5   0    6.75    0.35
  -2  -5  -1    5.76    0.37
  -2  -5  -1    6.24    0.37
  -2  -5  -2    5.67    0.39
  -2  -5  -2    5.45    0.36
  -2  -5  -3    1.45    0.20
  -2  -5  -4   14.70    0.68
  -2  -5  -5    1.14    0.21
  -2  -5  -6    0.26    0.08
  -2  -5  -7    0.22    0.05
   2  -4  -9    0.14    0.04
   2  -4  -8    2.09    0.23
   2  -4  -8    2.42    0.19
   2  -4  -7    0.70    0.16
   2  -4  -7    1.10    0.16
   2  -4  -6   17.63    0.78
   2  -4  -6   18.29    0.71
   2  -4  -5   -0.04    0.07
   2  -4  -4    5.68    0.41
  -2  -4   3    0.77    0.10
   2  -4  -3    0.76    0.14
  -2  -4   3    0.60    0.11
  -2  -4   2   12.73    0.49
  -2  -4   2   13.28    0.43
   2  -4  -2   12.30    0.45
  -2  -4   1    2.02    0.17
  -2  -4   1    2.13    0.18
   2  -4  -1    2.10    0.18
   2  -4  -1    2.40    0.20
  -2  -4   0   50.08    0.90
  -2  -4   0   51.57    0.90
  -2  -4  -1    0.02    0.04
  -2  -4  -1    0.08    0.06
  -2  -4  -2   80.87    1.33
  -2  -4  -2   79.28    1.28
  -2  -4  -3    0.24    0.08
  -2  -4  -4    0.78    0.16
  -2  -4  -5    0.64    0.14
  -2  -4  -5    0.68    0.14
  -2  -4  -5    0.51    0.15
  -2  -4  -6    1.35    0.20
  -2  -4  -6    1.73    0.20
  -2  -4  -7    0.67    0.10
  -2  -4  -7    0.60    0.09
  -2  -4  -7    0.75    0.10
   2  -3  -9    0.90    0.12
   2  -3  -8   -0.04    0.08
   2  -3  -7    1.56    0.23
   2  -3  -7    1.81    0.23
   2  -3  -6    0.51    0.14
   2  -3  -5   14.09    0.62
   2  -3  -4   10.11    0.51
   2  -3  -3    0.67    0.12
  -2  -3   3    0.68    0.09
  -2  -3   2    2.44    0.17
   2  -3  -2    2.49    0.17
   2  -3  -1   14.21    0.40
  -2  -3   1   13.30    0.59
  -2  -3   1   12.50    0.39
  -2  -3   1   13.12    0.39
  -2  -3   0    2.15    0.17
  -2  -3   0    2.30    0.21
  -2  -3   0    2.30    0.17
  -2  -3  -1   28.62    0.63
  -2  -3  -1   28.75    0.68
  -2  -3  -1   29.63    0.68
  -2  -3  -2    0.81    0.13
  -2  -3  -2    0.92    0.13
  -2  -3  -3    2.52    0.24
  -2  -3  -4    0.78    0.16
  -2  -3  -5    7.48    0.46
  -2  -3  -6    2.72    0.27
  -2  -3  -7    0.78    0.12
   2  -2  -9    1.41    0.17
   2  -2  -8    2.25    0.28
   2  -2  -7    9.28    0.59
   2  -2  -7    9.31    0.53
   2  -2  -6    0.35    0.10
  -2  -2   5    1.35    0.19
   2  -2  -5    1.48    0.18
  -2  -2   4    5.28    0.32
   2  -2  -4    5.09    0.29
  -2  -2   3   50.77    0.76
  -2  -2   3   51.08    0.83
   2  -2  -3   49.17    0.86
  -2  -2   2    0.37    0.06
  -2  -2   2    0.39    0.07
   2  -2  -2    0.38    0.06
  -2  -2   2    0.48    0.12
  -2  -2   1   45.37    0.72
  -2  -2   1   45.36    0.70
  -2  -2   0    0.89    0.11
  -2  -2   0    0.74    0.14
  -2  -2   0    0.86    0.10
  -2  -2  -1    8.24    0.31
  -2  -2  -1    7.93    0.46
  -2  -2  -1    8.24    0.32
  -2  -2  -2    0.05    0.05
  -2  -2  -2    0.07    0.06
  -2  -2  -3   35.96    0.85
  -2  -2  -4    0.32    0.10
  -2  -2  -5    9.41    0.51
  -2  -2  -6    0.03    0.04
  -2  -2  -7    3.79    0.29
  -2  -2  -8    0.37    0.06
   2  -1  -9    5.34    0.35
   2  -1  -8    2.37    0.29
   2  -1  -7    0.28    0.10
   2  -1  -6    0.36    0.10
  -2  -1   6    0.46    0.12
   2  -1  -5    0.77    0.11
  -2  -1   5    0.71    0.13
  -2  -1   4   13.90    0.45
   2  -1  -3   30.39    0.66
  -2  -1   3   30.59    0.55
   2  -1  -2   24.14    0.54
  -2  -1   2   23.84    0.47
  -2  -1   0   12.88    0.36
  -2  -1  -1   24.98    0.48
  -2  -1  -1   24.48    0.70
  -2  -1  -1   25.47    0.53
  -2  -1  -2    4.38    0.25
  -2  -1  -3   14.88    0.52
  -2  -1  -4    5.38    0.35
  -2  -1  -5    7.43    0.46
  -2  -1  -6    4.72    0.41
  -2  -1  -7    1.29    0.19
  -2  -1  -8    0.26    0.06
   2   0  -9    0.51    0.12
   2   0  -8    0.72    0.16
   2   0  -7    2.35    0.30
  -2   0   7    2.30    0.29
   2   0  -6    2.47    0.21
  -2   0   6    2.68    0.27
  -2   0   5    0.73    0.13
  -2   0   4    5.96    0.26
   2   0  -3    0.05    0.04
  -2   0   2  999.83    2.94
   2   0  -2 1000.00    3.63
  -2   0   1    0.20    0.06
  -2   0   0   61.58    0.81
  -2   0  -1    0.08    0.04
  -2   0  -2    2.30    0.28
  -2   0  -2    2.41    0.17
  -2   0  -3    0.81    0.12
  -2   0  -4    0.47    0.11
  -2   0  -5    0.11    0.06
  -2   0  -6   12.68    0.67
  -2   0  -7   -0.02    0.05
  -2   0  -8    0.05    0.04
   2   1  -9    5.18    0.34
   2   1  -8    2.34    0.28
   2   1  -7    0.17    0.09
  -2   1   7    0.25    0.10
  -2   1   6    0.42    0.11
  -2   1   5    0.80    0.12
  -2   1   1   51.27    0.77
   2   1  -1   49.86    0.74
  -2   1  -2    4.39    0.22
  -2   1  -3   14.55    0.47
  -2   1  -4    5.59    0.34
  -2   1  -6    4.64    0.40
  -2   1  -7    1.29    0.18
   2   2  -8    1.97    0.25
   2   2  -7    8.96    0.55
  -2   2   7    8.52    0.53
  -2   2   6    0.44    0.11
  -2   2   2    0.46    0.09
  -2   2   1   45.94    0.78
   2   2  -1   45.94    0.79
   2   2   0    1.06    0.11
  -2   2  -6    0.12    0.07
  -2   2  -7    3.57    0.26
  -2   3   7    1.63    0.23
  -2   3   6    0.66    0.13
  -2   3   2    2.47    0.19
  -2   3   1   13.54    0.47
   2   3   0    2.24    0.16
  -3 -12   1    0.09    0.03
  -3 -11   4    0.61    0.08
  -3 -11   3    2.09    0.15
  -3 -11   3    1.12    0.12
  -3 -11   2    0.58    0.08
  -3 -11   1    1.82    0.13
   3 -11   0    0.67    0.11
  -3 -11   0    0.71    0.08
   3 -11   1    1.28    0.15
   3 -11   2    0.46    0.07
  -3 -10   4    1.18    0.13
   3 -10  -4    1.04    0.12
  -3 -10   3    9.11    0.39
  -3 -10   3    7.17    0.40
  -3 -10   2    1.79    0.18
  -3 -10   2    1.34    0.16
  -3 -10   1    1.06    0.14
  -3 -10   1    0.64    0.11
   3 -10   0    0.38    0.10
  -3 -10   0    0.51    0.09
   3 -10   1    4.24    0.36
  -3 -10  -1    4.52    0.21
   3 -10   2    0.10    0.06
   3 -10   3    0.67    0.10
   3  -9  -6    4.13    0.18
   3  -9  -6    4.22    0.22
   3  -9  -5    3.95    0.26
   3  -9  -5    4.10    0.24
  -3  -9   4    8.33    0.41
   3  -9  -4    8.06    0.40
   3  -9  -4    8.53    0.40
   3  -9  -3    0.51    0.11
  -3  -9   3    0.39    0.10
   3  -9  -2    9.35    0.43
  -3  -9   2    7.36    0.41
  -3  -9   1    1.82    0.20
  -3  -9   1    1.35    0.18
   3  -9   0   11.47    0.69
  -3  -9   0   12.85    0.47
  -3  -9   0   11.17    0.46
   3  -9   1   -0.22    0.12
  -3  -9  -1    0.02    0.04
   3  -9   2    1.80    0.24
   3  -9   3    0.11    0.05
   3  -9   4    1.89    0.16
   3  -8  -7    0.91    0.10
   3  -8  -6    2.39    0.17
   3  -8  -6    2.16    0.19
   3  -8  -5    2.04    0.20
   3  -8  -5    2.25    0.23
   3  -8  -4    1.26    0.18
  -3  -8   4    1.35    0.19
   3  -8  -4    1.20    0.16
  -3  -8   3    1.48    0.21
   3  -8  -3    1.78    0.20
  -3  -8   2    9.54    0.53
  -3  -8   1    0.12    0.08
  -3  -8   0   16.09    0.56
   3  -8   0   15.30    0.86
  -3  -8   0   14.65    0.70
  -3  -8   0   15.22    0.58
   3  -8   1    1.72    0.29
  -3  -8  -1    1.44    0.23
  -3  -8  -1    1.52    0.16
   3  -8   2    7.50    0.55
  -3  -8  -2   10.59    0.37
   3  -8   3   -0.07    0.08
  -3  -8  -3    0.13    0.10
   3  -8   4    2.52    0.24
  -3  -8  -4    1.98    0.15
  -3  -8  -5    0.23    0.04
   3  -7  -8    0.13    0.03
   3  -7  -7    2.02    0.17
   3  -7  -6    0.80    0.11
   3  -7  -6    0.81    0.13
   3  -7  -5    8.14    0.41
   3  -7  -5    8.47    0.45
   3  -7  -4    1.58    0.24
  -3  -7   3    2.36    0.26
  -3  -7   2    1.67    0.23
  -3  -7   1    0.32    0.12
  -3  -7   0    5.63    0.41
  -3  -7   0    5.14    0.43
  -3  -7  -1    7.01    0.51
  -3  -7  -1    7.75    0.48
  -3  -7  -2    2.00    0.26
  -3  -7  -2    1.56    0.24
   3  -7   2    1.63    0.27
  -3  -7  -2    2.23    0.18
   3  -7   3    0.55    0.15
  -3  -7  -3    0.79    0.19
   3  -7   4   -0.05    0.05
  -3  -7  -4    0.07    0.09
  -3  -7  -5    1.49    0.16
   3  -6  -8    1.97    0.14
   3  -6  -7    0.93    0.13
   3  -6  -6    0.56    0.12
   3  -6  -5    2.95    0.37
   3  -6  -5    1.72    0.27
   3  -6  -4    0.57    0.15
   3  -6  -4    0.51    0.14
   3  -6  -3   19.13    0.77
  -3  -6   3   21.02    0.74
   3  -6  -3   18.94    0.75
  -3  -6   2    0.40    0.13
  -3  -6   1    4.67    0.42
  -3  -6   0    0.07    0.06
  -3  -6   0    0.04    0.07
  -3  -6  -1   23.53    0.82
  -3  -6  -2    0.74    0.16
   3  -6   3    0.83    0.20
  -3  -6  -3    0.77    0.16
  -3  -6  -3    0.93    0.20
  -3  -6  -4    0.19    0.07
  -3  -6  -5    1.51    0.19
  -3  -6  -6    0.02    0.02
   3  -5  -8    1.46    0.18
   3  -5  -8    1.57    0.15
   3  -5  -7    1.37    0.18
   3  -5  -6    7.78    0.53
   3  -5  -6    8.07    0.44
   3  -5  -5    2.85    0.35
   3  -5  -4    2.48    0.30
  -3  -5   3    1.34    0.17
   3  -5  -3    1.31    0.19
  -3  -5   3    1.16    0.19
  -3  -5   2    5.87    0.33
  -3  -5   2    5.48    0.39
   3  -5  -2    5.15    0.33
  -3  -5   1    7.58    0.39
  -3  -5   0   14.90    0.54
  -3  -5   0   14.88    0.61
  -3  -5  -1    0.83    0.16
  -3  -5  -2    3.13    0.31
  -3  -5  -3    6.74    0.47
  -3  -5  -4    0.94    0.19
  -3  -5  -5    0.13    0.06
  -3  -5  -6    2.09    0.18
   3  -4  -9    0.41    0.07
   3  -4  -8   -0.02    0.04
   3  -4  -8    0.04    0.03
   3  -4  -7    0.25    0.10
   3  -4  -7    0.36    0.10
   3  -4  -6    0.13    0.09
   3  -4  -5    0.53    0.15
   3  -4  -4   27.80    0.91
  -3  -4   3    0.40    0.09
   3  -4  -3    0.35    0.10
  -3  -4   3    0.36    0.11
   3  -4  -2   19.62    0.60
  -3  -4   2   19.31    0.59
  -3  -4   1    0.86    0.13
  -3  -4   0    8.08    0.42
  -3  -4   0    8.03    0.36
  -3  -4  -1    2.33    0.25
  -3  -4  -2    4.27    0.35
  -3  -4  -3    0.22    0.11
  -3  -4  -4   26.43    0.92
  -3  -4  -5    0.06    0.07
  -3  -4  -5    0.01    0.06
  -3  -4  -6    3.57    0.24
  -3  -4  -6    3.20    0.25
   3  -3  -9    1.49    0.18
   3  -3  -8    2.21    0.27
   3  -3  -7    0.37    0.13
   3  -3  -7    0.46    0.13
   3  -3  -6   -0.06    0.05
   3  -3  -5    7.90    0.46
   3  -3  -4    0.03    0.05
  -3  -3   3    7.43    0.36
   3  -3  -3    7.86    0.38
   3  -3  -2    0.72    0.10
  -3  -3   2    0.84    0.12
  -3  -3   1    0.39    0.08
  -3  -3   1    0.39    0.10
  -3  -3   0   19.44    0.62
  -3  -3   0   18.96    0.60
  -3  -3  -1    3.50    0.28
  -3  -3  -1    3.47    0.28
  -3  -3  -2    2.81    0.26
  -3  -3  -2    2.88    0.28
  -3  -3  -3    1.79    0.23
  -3  -3  -4    7.47    0.48
  -3  -3  -5    4.56    0.37
  -3  -3  -6    0.13    0.07
  -3  -3  -7    2.35    0.15
   3  -2  -9    0.86    0.14
   3  -2  -8    0.85    0.20
   3  -2  -7    6.62    0.52
   3  -2  -7    5.82    0.42
   3  -2  -6    0.02    0.05
   3  -2  -5    3.60    0.26
  -3  -2   5    3.33    0.30
   3  -2  -4    4.31    0.26
  -3  -2   4    4.25    0.30
  -3  -2   3   39.36    0.77
  -3  -2   3   39.46    0.80
   3  -2  -3   39.34    0.67
   3  -2  -2    2.69    0.15
  -3  -2   2    2.60    0.20
  -3  -2   2    2.33    0.18
  -3  -2   1   38.13    0.73
  -3  -2   0    1.44    0.15
  -3  -2   0    1.34    0.15
  -3  -2  -1    1.60    0.18
  -3  -2  -1    1.49    0.17
  -3  -2  -2    0.79    0.13
  -3  -2  -2    0.81    0.15
  -3  -2  -3    1.41    0.19
  -3  -2  -4    0.21    0.10
  -3  -2  -5    3.75    0.36
  -3  -2  -6    0.33    0.11
  -3  -2  -6    0.30    0.11
  -3  -2  -7    1.51    0.15
   3  -1  -9    1.98    0.23
   3  -1  -8   -0.04    0.08
   3  -1  -7    0.77    0.14
   3  -1  -7    1.10    0.23
  -3  -1   6    0.58    0.13
   3  -1  -6    0.60    0.12
   3  -1  -5    1.79    0.17
  -3  -1   5    1.88    0.20
  -3  -1   4   40.15    0.79
  -3  -1   3    7.31    0.32
  -3  -1   3    7.34    0.29
  -3  -1   2   20.77    0.46
  -3  -1   2   21.10    0.51
  -3  -1   1    2.73    0.19
  -3  -1   0   20.97    0.55
  -3  -1  -1    5.16    0.30
  -3  -1  -2   20.82    0.63
  -3  -1  -3    8.45    0.40
  -3  -1  -3    7.98    0.43
  -3  -1  -4   10.97    0.56
  -3  -1  -5    2.87    0.33
  -3  -1  -5    2.77    0.30
  -3  -1  -6    1.12    0.19
  -3  -1  -7    0.02    0.04
   3   0  -9    1.32    0.19
   3   0  -8    2.12    0.30
   3   0  -7    0.05    0.05
   3   0  -7    0.19    0.11
  -3   0   7    0.03    0.08
   3   0  -6   12.23    0.46
  -3   0   6   14.03    0.61
  -3   0   5    0.53    0.11
  -3   0   4    2.42    0.18
  -3   0   3    0.31    0.08
  -3   0   2   36.59    0.63
  -3   0   1    0.58    0.08
  -3   0   0   20.73    0.51
  -3   0  -1    0.17    0.06
  -3   0  -2   10.65    0.43
  -3   0  -3    0.14    0.07
  -3   0  -4    8.51    0.47
  -3   0  -5    0.23    0.10
  -3   0  -6    0.88    0.18
  -3   0  -7    0.02    0.03
   3   1  -9    1.91    0.22
   3   1  -8    0.06    0.08
   3   1  -7    0.81    0.18
  -3   1   7    1.01    0.19
  -3   1   6    0.80    0.15
  -3   1   2   20.45    0.45
  -3   1   1    2.64    0.16
  -3   1   0   20.67    0.47
  -3   1  -1    5.39    0.27
  -3   1  -2   21.90    0.59
  -3   1  -5    3.02    0.34
  -3   1  -6    1.24    0.20
  -3   1  -7    0.04    0.04
   3   2  -8    0.93    0.18
  -3   2   7    5.91    0.42
  -3   2   6    0.08    0.07
  -3   2   2    2.61    0.16
  -3   2  -5    3.69    0.36
  -3   2  -6    0.33    0.10
  -3   2  -7    1.22    0.11
  -3   3   7    0.36    0.10
  -4 -11   4    0.30    0.05
  -4 -11   3    0.50    0.07
  -4 -11   2    0.59    0.07
   4 -11  -1    2.26    0.11
  -4 -11   1    2.59    0.13
   4 -11   0    0.22    0.05
  -4 -10   5    0.41    0.08
  -4 -10   4    0.71    0.12
  -4 -10   3    2.69    0.23
  -4 -10   2    0.40    0.08
  -4 -10   1    5.17    0.25
   4 -10   0    0.55    0.11
   4 -10   0    0.59    0.07
  -4 -10   0    0.59    0.07
   4 -10   1    0.08    0.04
   4 -10   2    0.02    0.03
   4  -9  -6    5.15    0.23
   4  -9  -5    0.49    0.09
   4  -9  -4    0.83    0.13
  -4  -9   3    2.89    0.24
  -4  -9   2    8.99    0.40
  -4  -9   2    5.79    0.37
   4  -9  -1    3.15    0.30
  -4  -9   1    3.52    0.27
   4  -9   0    0.41    0.13
  -4  -9   0    0.44    0.08
   4  -9   1    0.69    0.16
   4  -9   1    0.77    0.09
  -4  -9  -1    0.85    0.09
   4  -9   2    1.06    0.16
   4  -9   3    0.62    0.10
   4  -8  -7    0.07    0.04
   4  -8  -6    2.94    0.22
   4  -8  -5    1.38    0.15
   4  -8  -5    1.24    0.16
   4  -8  -4   10.00    0.42
  -4  -8   4   10.39    0.45
   4  -8  -4    9.66    0.47
  -4  -8   3    0.16    0.08
   4  -8  -3   -0.02    0.04
  -4  -8   2    1.95    0.22
   4  -8  -1    1.68    0.25
  -4  -8   1    1.87    0.21
   4  -8   0   13.80    0.78
  -4  -8   0   11.89    0.45
   4  -8   1    0.48    0.08
   4  -8   1    0.43    0.14
  -4  -8  -1    0.53    0.08
   4  -8   2    1.69    0.24
   4  -8   3    0.23    0.08
   4  -7  -8    2.64    0.13
   4  -7  -7    2.98    0.20
   4  -7  -6    0.21    0.06
   4  -7  -5    6.20    0.32
   4  -7  -5    5.99    0.37
  -4  -7   4    1.58    0.18
   4  -7  -4    1.46    0.17
   4  -7  -4    1.70    0.21
  -4  -7   3    5.80    0.42
  -4  -7   3    6.92    0.40
  -4  -7   2    1.14    0.21
  -4  -7   1    7.02    0.53
   4  -7   0    0.33    0.15
  -4  -7   0    0.19    0.11
   4  -7   1    7.15    0.32
   4  -7   1    6.32    0.55
  -4  -7  -1    6.44    0.52
   4  -7   2    0.22    0.06
   4  -7   2    0.26    0.12
   4  -7   3    0.57    0.14
  -4  -7  -3    0.49    0.13
   4  -7   4    0.24    0.08
  -4  -7  -4    0.20    0.07
   4  -6  -8    0.13    0.04
   4  -6  -7    0.24    0.07
   4  -6  -6    1.69    0.19
   4  -6  -5    1.57    0.26
   4  -6  -5    1.36    0.18
   4  -6  -4    0.68    0.16
   4  -6  -3   11.24    0.58
  -4  -6   3   10.54    0.58
  -4  -6   2    1.46    0.19
  -4  -6   2    1.21    0.21
  -4  -6   1    0.89    0.17
  -4  -6   0    1.60    0.23
  -4  -6  -1   10.34    0.57
   4  -6   2    0.07    0.05
   4  -6   2   -0.09    0.07
  -4  -6  -2   -0.03    0.04
  -4  -6  -2    0.10    0.09
   4  -6   3    6.81    0.51
  -4  -6  -3    7.35    0.49
   4  -6   4    0.31    0.10
  -4  -6  -4    0.23    0.08
  -4  -6  -5    1.65    0.16
   4  -5  -8    1.08    0.15
   4  -5  -8    1.47    0.14
   4  -5  -7    5.02    0.32
   4  -5  -6    2.15    0.28
   4  -5  -6    2.05    0.22
   4  -5  -5    2.59    0.32
  -4  -5   4    3.49    0.30
   4  -5  -4    3.81    0.36
  -4  -5   3    1.09    0.17
   4  -5  -3    1.15    0.18
  -4  -5   3    1.13    0.20
  -4  -5   2    4.42    0.33
  -4  -5   1    2.24    0.25
  -4  -5   0    0.92    0.18
  -4  -5  -1    1.69    0.24
  -4  -5  -2   22.79    0.89
   4  -5   3    0.77    0.12
  -4  -5  -4    0.40    0.12
  -4  -5  -5    0.31    0.09
   4  -4  -9    0.46    0.08
   4  -4  -8    5.57    0.40
   4  -4  -7    0.02    0.06
   4  -4  -7    0.04    0.04
   4  -4  -6    0.07    0.10
   4  -4  -6    0.27    0.14
   4  -4  -6    0.07    0.06
   4  -4  -5    0.18    0.10
  -4  -4   4   10.11    0.50
   4  -4  -4   10.45    0.54
   4  -4  -3    1.10    0.17
  -4  -4   3    0.95    0.15
  -4  -4   2   10.21    0.48
  -4  -4   1    0.27    0.09
  -4  -4   0   52.29    1.20
  -4  -4  -1    0.11    0.08
  -4  -4  -2    1.51    0.23
   4  -4   3    0.41    0.09
  -4  -4  -3    0.29    0.12
  -4  -4  -4    0.62    0.13
  -4  -4  -5    0.24    0.08
  -4  -4  -5    0.14    0.06
  -4  -4  -6   -0.02    0.03
   4  -3  -9    0.80    0.13
   4  -3  -8    0.23    0.11
   4  -3  -7    8.49    0.60
   4  -3  -6    1.48    0.22
   4  -3  -5    0.93    0.17
   4  -3  -4    0.60    0.12
  -4  -3   4    0.37    0.10
  -4  -3   3    0.69    0.13
   4  -3  -3    0.67    0.12
  -4  -3   2    2.03    0.21
  -4  -3   1   10.88    0.51
  -4  -3   1   11.11    0.49
  -4  -3   0    4.90    0.38
  -4  -3   0    4.52    0.33
  -4  -3  -1    6.29    0.46
  -4  -3  -1    5.79    0.40
  -4  -3  -2    0.49    0.13
  -4  -3  -2    0.58    0.15
  -4  -3  -3   15.50    0.73
  -4  -3  -4    2.28    0.26
  -4  -3  -5    1.13    0.17
  -4  -3  -6    1.87    0.15
  -4  -3  -6    1.86    0.16
   4  -2  -9    1.66    0.21
   4  -2  -8    0.41    0.14
   4  -2  -7    0.01    0.08
   4  -2  -7    0.02    0.06
   4  -2  -6    3.76    0.31
   4  -2  -5   14.51    0.54
  -4  -2   5   13.19    0.63
   4  -2  -4    0.38    0.08
  -4  -2   4    0.35    0.09
  -4  -2   4    0.28    0.09
  -4  -2   3   15.24    0.54
   4  -2  -3   14.96    0.44
  -4  -2   2    2.72    0.23
  -4  -2   2    2.24    0.22
  -4  -2   1   15.37    0.56
  -4  -2   1   16.14    0.55
  -4  -2   0    0.43    0.10
  -4  -2   0    0.57    0.12
  -4  -2  -1   10.23    0.54
  -4  -2  -1    9.48    0.49
  -4  -2  -2    0.38    0.11
  -4  -2  -2    0.52    0.14
  -4  -2  -3    6.12    0.44
  -4  -2  -4   -0.01    0.05
  -4  -2  -5    3.51    0.32
  -4  -2  -6    0.33    0.08
   4  -1  -9    0.22    0.07
   4  -1  -8    1.13    0.22
   4  -1  -7    0.70    0.15
   4  -1  -7    0.86    0.22
   4  -1  -6    5.93    0.35
  -4  -1   6    5.73    0.42
   4  -1  -5   15.57    0.50
  -4  -1   5   13.82    0.56
  -4  -1   4   12.69    0.49
  -4  -1   4   12.01    0.47
  -4  -1   3   30.49    0.72
  -4  -1   2   13.82    0.48
  -4  -1   2   13.03    0.44
  -4  -1   1    6.08    0.30
  -4  -1   1    6.35    0.33
  -4  -1   0    7.44    0.38
  -4  -1  -1   17.96    0.65
  -4  -1  -2    9.36    0.46
  -4  -1  -2    9.41    0.50
  -4  -1  -3    6.86    0.43
  -4  -1  -3    6.01    0.42
  -4  -1  -4    4.46    0.40
  -4  -1  -4    4.40    0.38
  -4  -1  -5    0.59    0.16
  -4  -1  -6    0.16    0.06
   4   0  -9    2.13    0.24
   4   0  -8    2.73    0.35
   4   0  -7    0.71    0.13
   4   0  -7    0.93    0.21
  -4   0   7    0.77    0.17
  -4   0   6    0.15    0.08
  -4   0   5    0.11    0.06
  -4   0   4  147.47    1.41
  -4   0   3    0.00    0.03
  -4   0   2    5.22    0.27
  -4   0   1    0.18    0.06
  -4   0   0    0.62    0.11
  -4   0  -1    0.35    0.10
  -4   0  -2    2.54    0.25
  -4   0  -3    0.35    0.10
  -4   0  -3    0.43    0.12
  -4   0  -4   28.73    1.04
  -4   0  -5    0.08    0.10
   4   1  -9    0.12    0.07
   4   1  -8    1.02    0.21
   4   1  -7    0.72    0.13
   4   1  -7    0.82    0.20
  -4   1   7    0.55    0.16
  -4   1   6    6.54    0.41
  -4   1   5   15.18    0.53
  -4   1   3   31.08    0.66
  -4   1   2   13.67    0.42
  -4   1   1    6.25    0.29
  -4   1   0    7.51    0.34
  -4   1  -4    4.83    0.42
  -4   1  -5    0.72    0.17
   4   2  -8    0.18    0.08
   4   2  -7    0.08    0.06
  -4   2   7    0.05    0.05
  -4   2   6    3.99    0.32
  -4   2  -4   -0.06    0.05
  -4   2  -5    3.79    0.33
  -5 -10   4    1.37    0.12
  -5 -10   3    1.34    0.12
  -5 -10   2    0.55    0.07
   5 -10  -1    2.75    0.14
  -5 -10   1    2.93    0.13
   5 -10   0    0.10    0.03
   5 -10   0    0.15    0.05
   5 -10   1    1.13    0.11
   5  -9  -6    2.58    0.14
   5  -9  -5    0.07    0.04
   5  -9  -4    2.98    0.21
  -5  -9   3    0.98    0.14
  -5  -9   2    4.16    0.25
   5  -9  -1    0.02    0.04
  -5  -9   1    0.18    0.05
   5  -9   0    1.12    0.10
   5  -9   0    1.02    0.16
   5  -9   1    0.36    0.06
   5  -9   1    0.38    0.09
   5  -9   2    3.04    0.21
   5  -8  -7    1.60    0.11
   5  -8  -6    0.15    0.06
   5  -8  -5    1.03    0.14
   5  -8  -4    8.30    0.41
   5  -8  -3    0.12    0.06
  -5  -8   2   13.60    0.52
   5  -8  -1    1.47    0.22
   5  -8   0    2.98    0.32
   5  -8   0    3.11    0.19
   5  -8   1    0.08    0.03
   5  -8   1    0.07    0.06
   5  -8   2    0.72    0.14
   5  -8   2    0.46    0.07
   5  -8   3    0.30    0.07
   5  -7  -7    2.54    0.18
   5  -7  -6    0.91    0.13
   5  -7  -5    1.17    0.17
   5  -7  -4    1.15    0.17
   5  -7  -3    0.61    0.13
   5  -7  -2    3.63    0.29
   5  -7  -1    4.09    0.40
   5  -7   0    0.91    0.12
   5  -7   0    0.74    0.19
   5  -7   1    2.41    0.18
   5  -7   1    2.36    0.30
   5  -7   2    0.12    0.09
   5  -7   2    0.11    0.04
   5  -7   3    0.84    0.14
  -5  -7  -3    0.93    0.13
   5  -6  -8    0.35    0.06
   5  -6  -7    1.95    0.18
   5  -6  -6    1.24    0.17
   5  -6  -5    6.45    0.39
   5  -6  -4    0.23    0.09
  -5  -6   3    1.09    0.17
   5  -6  -3    1.29    0.19
  -5  -6   2    0.25    0.10
  -5  -6   2    0.31    0.13
  -5  -6   1   10.83    0.60
   5  -6   0    3.38    0.22
  -5  -6   0    3.52    0.34
   5  -6   1    0.79    0.12
  -5  -6  -2    0.31    0.14
   5  -6   2    0.19    0.05
   5  -6   2    0.25    0.10
   5  -6   3    3.54    0.32
   5  -6   3    3.04    0.20
  -5  -6  -3    3.64    0.31
  -5  -6  -4    0.72    0.11
   5  -5  -8    3.70    0.21
   5  -5  -7    0.69    0.12
   5  -5  -6    1.30    0.17
   5  -5  -5    1.26    0.22
   5  -5  -5    1.43    0.19
  -5  -5   4    4.23    0.34
   5  -5  -4    4.09    0.37
  -5  -5   3    6.23    0.41
  -5  -5   2    9.13    0.52
  -5  -5   1    0.39    0.12
  -5  -5   0    1.48    0.23
  -5  -5  -1    4.71    0.35
   5  -5   1    4.61    0.27
  -5  -5  -1    5.24    0.43
   5  -5   2    0.90    0.13
  -5  -5  -3    0.01    0.07
   5  -5   3    0.08    0.04
   5  -5   3    0.06    0.06
  -5  -5  -4    2.39    0.21
   5  -4  -9    0.06    0.03
   5  -4  -8    0.11    0.07
   5  -4  -7    0.19    0.10
   5  -4  -7    0.35    0.09
   5  -4  -6    5.31    0.47
   5  -4  -6    5.66    0.36
   5  -4  -5    0.19    0.11
  -5  -4   4    5.02    0.37
   5  -4  -4    5.52    0.41
  -5  -4   3    0.29    0.10
  -5  -4   2    7.25    0.45
  -5  -4   1    1.03    0.18
  -5  -4   0    1.40    0.22
  -5  -4  -1    0.06    0.05
  -5  -4  -2   18.06    0.79
   5  -4   2   16.17    0.55
   5  -4   3    0.00    0.03
  -5  -4  -3    0.08    0.04
  -5  -4  -4    2.68    0.22
  -5  -4  -4    2.61    0.25
  -5  -4  -5    0.17    0.06
   5  -3  -9    0.82    0.13
   5  -3  -8    0.20    0.08
   5  -3  -7    1.77    0.27
   5  -3  -6    0.40    0.12
   5  -3  -6    0.39    0.11
   5  -3  -6    0.49    0.11
   5  -3  -5    1.98    0.24
   5  -3  -4    0.61    0.13
  -5  -3   4    0.63    0.14
  -5  -3   3    0.25    0.10
  -5  -3   2    7.43    0.43
  -5  -3   1    3.92    0.32
  -5  -3   1    3.78    0.36
  -5  -3   0    0.65    0.15
  -5  -3   0    0.66    0.18
  -5  -3  -1    2.01    0.31
  -5  -3  -1    1.67    0.23
  -5  -3  -2    9.40    0.51
  -5  -3  -2   10.50    0.64
  -5  -3  -2   10.13    0.58
   5  -3   2   10.87    0.49
  -5  -3  -3    6.26    0.41
   5  -3   3    5.92    0.36
  -5  -3  -4    0.35    0.09
  -5  -3  -5    3.36    0.23
   5  -2  -9    2.34    0.23
   5  -2  -8   -0.01    0.07
   5  -2  -7    0.40    0.14
   5  -2  -6    3.26    0.31
   5  -2  -5    6.90    0.41
  -5  -2   4    2.06    0.23
   5  -2  -4    2.23    0.21
  -5  -2   3    5.72    0.36
  -5  -2   2    0.70    0.13
  -5  -2   2    0.76    0.16
  -5  -2   1    2.79    0.27
  -5  -2   1    2.86    0.29
  -5  -2   0    0.79    0.15
  -5  -2   0    1.09    0.20
  -5  -2  -1    2.17    0.30
  -5  -2  -1    1.82    0.24
  -5  -2  -2    0.17    0.09
  -5  -2  -2    0.18    0.10
  -5  -2  -3    4.69    0.37
  -5  -2  -4    0.21    0.09
  -5  -2  -5    0.38    0.08
   5  -1  -9    0.47    0.12
   5  -1  -8    0.82    0.19
   5  -1  -7    1.06    0.22
   5  -1  -6   19.28    0.65
  -5  -1   6   16.72    0.70
   5  -1  -5    1.94    0.20
  -5  -1   4    9.82    0.46
   5  -1  -4   10.19    0.40
  -5  -1   3    0.81    0.14
  -5  -1   2    2.67    0.24
  -5  -1   2    2.91    0.26
  -5  -1   1    7.56    0.42
  -5  -1   1    7.52    0.40
  -5  -1   0   13.21    0.58
  -5  -1   0   12.94    0.58
  -5  -1  -1   11.20    0.58
  -5  -1  -1   10.59    0.55
  -5  -1  -2    6.89    0.48
  -5  -1  -2    6.46    0.44
  -5  -1  -3    1.43    0.22
  -5  -1  -4    0.12    0.08
  -5  -1  -5    0.23    0.08
   5   0  -9    0.05    0.06
   5   0  -8    1.09    0.22
   5   0  -7    0.13    0.11
   5   0  -6    2.69    0.23
  -5   0   6    2.23    0.25
  -5   0   5    0.21    0.07
  -5   0   4    9.40    0.43
  -5   0   3    1.48    0.17
  -5   0   2    1.54    0.18
  -5   0   1    0.50    0.10
  -5   0   0    0.73    0.13
  -5   0  -1    0.04    0.05
  -5   0  -2    3.32    0.30
  -5   0  -3   -0.04    0.07
  -5   0  -4    1.02    0.19
  -5   0  -5    0.09    0.05
   5   1  -9    0.52    0.11
   5   1  -8    0.82    0.19
   5   1  -7    1.38    0.25
  -5   1   6   18.31    0.71
  -5   1   5    1.81    0.19
  -5   1   3    0.98    0.14
  -5   1   2    3.21    0.24
  -5   1  -3    1.56    0.24
  -5   1  -4    0.23    0.11
  -5   1  -5    0.21    0.08
   5   2  -8   -0.02    0.06
   5   2  -7    0.55    0.16
  -5   2   6    3.38    0.29
  -5   2  -3    5.05    0.40
  -5   2  -4    0.20    0.08
  -5   2  -5    0.33    0.07
  -5   3   6    0.44    0.11
  -5   3  -3    6.39    0.40
  -5   3  -4    0.31    0.09
   6  -9  -4    2.93    0.12
   6  -9  -4    2.64    0.16
  -6  -9   4    2.60    0.14
   6  -9  -3    1.84    0.11
   6  -9  -2    0.48    0.06
   6  -9  -1    0.86    0.08
   6  -9   0    0.87    0.11
   6  -9   0    0.98    0.08
   6  -8  -6    3.97    0.20
   6  -8  -5    0.15    0.05
   6  -8  -4    0.90    0.12
  -6  -8   4    0.73    0.10
   6  -8  -3    1.53    0.16
   6  -8  -2    8.70    0.30
   6  -8  -1    0.04    0.03
   6  -8  -1    0.00    0.04
   6  -8   0    0.81    0.09
   6  -8   0    0.81    0.14
   6  -8   1    0.11    0.04
   6  -8   1    0.20    0.07
   6  -7  -7    2.49    0.15
   6  -7  -6    2.02    0.17
   6  -7  -5    3.20    0.24
   6  -7  -4    1.33    0.17
   6  -7  -3    3.48    0.28
   6  -7  -2    0.89    0.14
   6  -7  -1    4.26    0.24
   6  -7  -1    3.44    0.33
   6  -7   0    0.38    0.08
   6  -7   0    0.42    0.13
   6  -7   1    0.32    0.07
   6  -7   1    0.36    0.11
   6  -7   2    0.30    0.09
   6  -6  -7    0.82    0.10
   6  -6  -6    0.27    0.08
   6  -6  -5    3.52    0.27
   6  -6  -4    1.08    0.17
   6  -6  -3    0.68    0.14
   6  -6  -2    1.17    0.18
   6  -6  -1    6.96    0.32
   6  -6  -1    5.88    0.39
   6  -6   0    0.26    0.06
   6  -6   1    3.40    0.34
   6  -6   1    2.84    0.20
   6  -6   2    0.18    0.05
   6  -6   2    0.23    0.10
   6  -6   3    0.32    0.07
   6  -5  -8    0.80    0.08
   6  -5  -7    2.12    0.19
   6  -5  -6    0.62    0.12
   6  -5  -5    0.38    0.10
   6  -5  -4    1.64    0.22
  -6  -5   3    1.42    0.21
   6  -5  -3    1.36    0.20
  -6  -5   2    1.56    0.22
   6  -5  -2    1.54    0.21
   6  -5  -1    0.49    0.09
  -6  -5   1    0.35    0.10
   6  -5  -1    0.47    0.12
   6  -5   0   17.02    0.51
  -6  -5   0   17.03    0.68
   6  -5   0   16.46    0.69
   6  -5   1    0.37    0.09
  -6  -5  -2    0.52    0.13
   6  -5   2    0.43    0.08
   6  -5   2    0.54    0.14
   6  -5   3    0.61    0.13
  -6  -5  -3    0.74    0.11
   6  -4  -8    0.02    0.04
   6  -4  -7    0.12    0.07
   6  -4  -7    0.14    0.06
   6  -4  -6    4.43    0.40
   6  -4  -6    4.92    0.32
   6  -4  -5    0.66    0.16
   6  -4  -5    0.57    0.12
  -6  -4   4    1.16    0.18
   6  -4  -4    1.24    0.22
   6  -4  -4    1.40    0.19
  -6  -4   3    0.26    0.09
  -6  -4   2   17.17    0.72
   6  -4  -1    0.62    0.09
  -6  -4   1    0.58    0.14
  -6  -4   1    0.58    0.14
   6  -4  -1    0.50    0.13
   6  -4   0    0.17    0.06
  -6  -4   0    0.21    0.10
  -6  -4   0    0.26    0.11
   6  -4   0    0.20    0.08
   6  -4   1    0.13    0.07
  -6  -4  -1    0.10    0.05
   6  -4   2    0.60    0.10
  -6  -4  -3    0.24    0.09
   6  -4   3    0.11    0.07
  -6  -4  -4    0.18    0.05
   6  -3  -9    3.46    0.20
   6  -3  -8    0.34    0.09
   6  -3  -7    0.94    0.18
   6  -3  -6    0.06    0.07
   6  -3  -6    0.10    0.06
   6  -3  -5    0.16    0.09
   6  -3  -5    0.11    0.05
  -6  -3   4    2.50    0.27
  -6  -3   3    1.52    0.21
  -6  -3   2    4.06    0.34
  -6  -3   1    3.20    0.32
   6  -3   0    1.87    0.18
  -6  -3   0    2.10    0.27
  -6  -3   0    1.71    0.22
   6  -3   0    1.54    0.24
  -6  -3   0    2.12    0.31
  -6  -3  -1    8.72    0.51
   6  -3   1    9.46    0.43
  -6  -3  -2    2.65    0.26
   6  -3   2    2.51    0.22
  -6  -3  -3    1.43    0.17
  -6  -3  -4    1.76    0.14
  -6  -3  -4    1.60    0.15
   6  -2  -9    0.24    0.08
   6  -2  -8    2.87    0.30
   6  -2  -7    2.85    0.33
   6  -2  -6    0.38    0.12
   6  -2  -5    3.61    0.32
  -6  -2   4    2.96    0.29
  -6  -2   3    6.88    0.43
  -6  -2   2    0.67    0.15
  -6  -2   2    0.59    0.15
  -6  -2   1    0.89    0.17
  -6  -2   1    0.88    0.18
  -6  -2   0    1.30    0.20
  -6  -2   0    1.44    0.25
   6  -2   1    0.95    0.15
  -6  -2  -1    0.99    0.18
  -6  -2  -1    0.88    0.17
  -6  -2  -1    1.06    0.22
  -6  -2  -2    0.10    0.07
  -6  -2  -3    1.43    0.19
  -6  -2  -4   -0.01    0.03
   6  -1  -9    0.34    0.09
   6  -1  -8    1.69    0.24
   6  -1  -7    5.25    0.45
   6  -1  -6    3.83    0.41
   6  -1  -6    4.34    0.33
   6  -1  -5   19.68    0.67
  -6  -1   4    5.17    0.36
  -6  -1   3    0.44    0.11
  -6  -1   2    3.71    0.31
  -6  -1   2    3.64    0.33
  -6  -1   1    5.06    0.39
  -6  -1   1    5.61    0.41
  -6  -1   0   10.55    0.56
  -6  -1   0   11.21    0.63
  -6  -1  -1    6.83    0.51
  -6  -1  -1    5.32    0.40
   6  -1   1    6.04    0.37
  -6  -1  -1    5.84    0.41
  -6  -1  -2    1.91    0.24
  -6  -1  -3    0.24    0.10
  -6  -1  -4    0.06    0.04
   6   0  -9    0.78    0.12
   6   0  -8    0.05    0.05
   6   0  -7    0.06    0.11
   6   0  -6   27.09    0.75
   6   0  -6   25.83    1.02
   6   0  -5    0.12    0.06
  -6   0   4    0.05    0.05
  -6   0   3    0.29    0.08
  -6   0   2    1.03    0.15
  -6   0   2    1.11    0.18
  -6   0   1    1.89    0.23
  -6   0   0    0.97    0.19
  -6   0  -1    0.61    0.14
  -6   0  -1    0.73    0.17
  -6   0  -2   27.72    0.87
  -6   0  -3    0.02    0.05
  -6   0  -4    2.21    0.21
   6   1  -9    0.28    0.07
   6   1  -8    1.32    0.20
   6   1  -7    5.19    0.44
   6   1  -6    3.66    0.37
  -6   1  -3    0.28    0.10
  -6   1  -4    0.01    0.03
   6   2  -8    2.43    0.23
   6   2  -7    3.02    0.33
   6   2  -6    0.31    0.14
  -6   2  -3    1.44    0.18
  -6   2  -4    0.00    0.03
  -6   3  -3    1.30    0.14
   7  -8  -5    0.11    0.03
   7  -8  -4    5.93    0.24
   7  -8  -3    1.04    0.08
   7  -8  -3    0.96    0.10
   7  -8  -2    0.99    0.08
   7  -8  -1    0.03    0.02
   7  -7  -6    1.01    0.10
   7  -7  -5    0.17    0.05
   7  -7  -4    1.28    0.09
   7  -7  -4    1.39    0.15
   7  -7  -3    1.96    0.12
   7  -7  -3    1.88    0.18
   7  -7  -2    0.25    0.05
   7  -7  -2    0.22    0.07
   7  -7  -1    3.17    0.17
   7  -7  -1    2.40    0.23
   7  -7   0    0.02    0.03
   7  -7   0    0.00    0.04
   7  -6  -7    1.32    0.10
   7  -6  -6    0.25    0.06
   7  -6  -5    0.57    0.10
   7  -6  -4    0.86    0.14
   7  -6  -3    2.21    0.14
   7  -6  -3    2.19    0.22
   7  -6  -2    4.46    0.22
   7  -6  -2    4.30    0.31
   7  -6  -1    0.02    0.03
   7  -6  -1    0.07    0.05
   7  -6   0    0.19    0.06
   7  -6   0    0.21    0.08
   7  -6   1    2.15    0.23
   7  -6   1    1.90    0.13
   7  -5  -7    1.06    0.11
   7  -5  -6    3.01    0.22
   7  -5  -5    2.39    0.22
   7  -5  -4    5.65    0.37
   7  -5  -3    0.49    0.08
   7  -5  -3    0.45    0.12
   7  -5  -2    0.00    0.03
   7  -5  -2    0.10    0.06
   7  -5  -1    3.44    0.21
  -7  -5   1    3.46    0.29
   7  -5  -1    3.03    0.28
   7  -5   0    0.77    0.11
   7  -5   1    0.45    0.08
   7  -5   1    0.43    0.12
   7  -5   2    1.12    0.14
   7  -4  -8    0.57    0.08
   7  -4  -7    0.19    0.07
   7  -4  -7    0.15    0.05
   7  -4  -6    0.51    0.12
   7  -4  -6    0.57    0.11
   7  -4  -5    0.15    0.09
   7  -4  -5    0.08    0.05
   7  -4  -4    2.06    0.27
   7  -4  -4    2.20    0.24
   7  -4  -3    0.52    0.13
   7  -4  -2    1.26    0.12
  -7  -4   2    1.48    0.22
   7  -4  -2    1.31    0.21
   7  -4  -1    0.20    0.06
  -7  -4   1    0.25    0.08
   7  -4  -1    0.19    0.09
  -7  -4   0    8.03    0.44
   7  -4   0    7.48    0.33
   7  -4   1    0.02    0.03
   7  -4   2    0.52    0.12
   7  -3  -8    0.32    0.08
   7  -3  -7    0.08    0.07
   7  -3  -6    0.83    0.17
   7  -3  -6    0.96    0.14
   7  -3  -5    0.25    0.13
   7  -3  -5    0.06    0.05
   7  -3  -4    3.59    0.38
   7  -3  -4    3.46    0.29
   7  -3  -3    1.40    0.24
  -7  -3   3    1.46    0.21
   7  -3  -3    1.28    0.19
  -7  -3   2    0.34    0.11
   7  -3  -2    0.44    0.12
  -7  -3   1    1.27    0.20
   7  -3  -1    1.04    0.19
   7  -3  -1    1.21    0.13
  -7  -3   0    6.68    0.42
   7  -3   0    5.90    0.29
  -7  -3  -1    5.52    0.34
   7  -3   1    5.38    0.28
  -7  -3  -2    0.47    0.09
   7  -2  -8    1.94    0.20
   7  -2  -7    2.07    0.25
   7  -2  -6    1.27    0.22
   7  -2  -5    0.97    0.20
   7  -2  -5    0.92    0.15
   7  -2  -4    0.50    0.17
  -7  -2   4    0.50    0.12
   7  -2  -4    0.51    0.12
  -7  -2   3    3.39    0.31
   7  -2  -3    3.77    0.41
  -7  -2   3    2.95    0.30
   7  -2  -3    2.86    0.29
  -7  -2   2    0.37    0.10
  -7  -2   2    0.35    0.12
   7  -2  -2    0.33    0.11
   7  -2  -1    0.54    0.09
  -7  -2   1    0.62    0.14
   7  -2  -1    0.62    0.15
   7  -2   0    0.03    0.04
  -7  -2   0    0.03    0.05
  -7  -2  -1    3.68    0.29
  -7  -2  -2    1.00    0.14
  -7  -2  -3    0.11    0.04
   7  -1  -8    6.61    0.38
   7  -1  -7    0.20    0.10
   7  -1  -6    3.32    0.35
   7  -1  -5    0.05    0.11
  -7  -1   5    0.18    0.12
   7  -1  -4    0.44    0.16
  -7  -1   4    0.19    0.09
  -7  -1   4    0.28    0.10
   7  -1  -4    0.26    0.09
  -7  -1   3    4.15    0.33
   7  -1  -3    3.85    0.42
  -7  -1   3    3.30    0.31
   7  -1  -3    3.59    0.31
  -7  -1   2    2.62    0.27
  -7  -1   2    2.38    0.27
   7  -1  -2    2.52    0.29
  -7  -1   1    5.30    0.40
  -7  -1   0    3.06    0.29
   7  -1   0    2.61    0.21
  -7  -1  -1    0.51    0.12
  -7  -1  -2    0.10    0.07
  -7  -1  -3    0.31    0.07
   7   0  -8    3.47    0.27
   7   0  -7    0.22    0.11
   7   0  -6    0.56    0.14
   7   0  -5    0.71    0.17
   7   0  -4    0.31    0.13
   7   0  -3    0.46    0.17
  -7   0   3    0.41    0.12
   7   0  -3    0.72    0.15
  -7   0   2   -0.03    0.05
   7   0  -2   -0.05    0.06
  -7   0   1    0.15    0.09
  -7   0   0    0.41    0.11
  -7   0  -1    0.29    0.09
  -7   0  -2    0.07    0.06
  -7   0  -3    0.02    0.03
   7   1  -8    6.08    0.34
   7   1  -7    0.14    0.10
   7   1  -6    2.87    0.32
   7   1  -5    0.12    0.11
   7   1  -4    0.16    0.09
   7   1  -3    3.72    0.40
  -7   1   3    3.40    0.32
  -7   1   2    2.13    0.26
  -7   1   1    5.17    0.39
  -7   1   0    2.89    0.28
  -7   1  -1    0.36    0.09
  -7   1  -2    0.02    0.04
  -7   1  -3    0.30    0.07
   7   2  -7    1.66    0.21
   7   2  -6    1.36    0.22
   7   2  -5    0.90    0.18
   7   2  -4    0.39    0.12
  -7   2   2    0.20    0.10
  -7   2   1    0.67    0.15
  -7   2   0    0.81    0.13
  -7   2  -2    0.69    0.11
  -7   2  -3    0.07    0.03
  -7   3   2    0.32    0.11
  -7   3  -2    0.36    0.07
  -7   4   2    1.24    0.18
   8  -6  -5    0.32    0.06
   8  -6  -4    1.08    0.12
   8  -6  -3    2.04    0.17
   8  -6  -2    0.41    0.05
   8  -6  -1    1.01    0.08
   8  -5  -6    0.09    0.03
   8  -5  -5    0.77    0.11
   8  -5  -4    1.12    0.14
   8  -5  -3    0.26    0.08
   8  -5  -2    7.14    0.23
   8  -5  -1    0.03    0.02
   8  -5  -1    0.01    0.04
   8  -5   0    0.60    0.11
   8  -4  -6    0.34    0.07
   8  -4  -5    0.21    0.06
   8  -4  -4    5.05    0.32
  -8  -4   3    0.55    0.10
   8  -4  -3    0.61    0.13
  -8  -4   2    0.23    0.07
   8  -4  -1    0.09    0.02
  -8  -4   1    0.12    0.06
   8  -4   1    0.24    0.06
   8  -3  -7    0.11    0.04
   8  -3  -6    1.77    0.20
   8  -3  -6    1.69    0.15
   8  -3  -5    0.24    0.09
   8  -3  -5    0.43    0.10
   8  -3  -4    1.73    0.19
  -8  -3   3    1.72    0.20
   8  -3  -3    1.96    0.22
  -8  -3   2    1.55    0.18
  -8  -3   1    2.85    0.23
   8  -3  -1    2.28    0.15
  -8  -3   0    1.73    0.15
  -8  -3   0    1.91    0.17
   8  -2  -7    0.63    0.10
   8  -2  -6    2.10    0.23
   8  -2  -5    1.06    0.19
   8  -2  -5    0.83    0.13
  -8  -2   4    0.32    0.10
   8  -2  -4    0.21    0.07
  -8  -2   3    0.18    0.09
   8  -2  -3    0.15    0.06
  -8  -2   2    1.22    0.17
  -8  -2   1    0.07    0.05
  -8  -2   0    0.29    0.08
  -8  -2  -1    0.62    0.09
   8  -1  -8    1.09    0.12
   8  -1  -7    7.68    0.39
   8  -1  -6    0.64    0.14
   8  -1  -5    0.07    0.06
  -8  -1   5    0.23    0.10
  -8  -1   4    0.62    0.13
   8  -1  -4    0.69    0.13
  -8  -1   3    0.71    0.14
   8  -1  -3    0.81    0.15
  -8  -1   2    4.81    0.34
  -8  -1   1    3.68    0.28
  -8  -1   0    1.71    0.18
  -8  -1  -1    0.17    0.06
   8   0  -8    5.34    0.25
   8   0  -7    0.03    0.04
   8   0  -6    0.23    0.08
  -8   0   6    0.30    0.09
   8   0  -5    1.88    0.25
  -8   0   5    0.38    0.10
  -8   0   4    2.27    0.24
  -8   0   3    2.17    0.24
  -8   0   2   -0.05    0.05
  -8   0   1    0.13    0.08
  -8   0   0   11.11    0.44
  -8   0  -1    0.02    0.03
   8   1  -7    7.48    0.37
  -8   1   7    7.72    0.34
   8   1  -6    0.55    0.13
  -8   1   6    0.93    0.15
   8   1  -5    0.16    0.10
  -8   1   5    0.27    0.10
  -8   1   4    0.80    0.15
  -8   1   3    0.74    0.14
  -8   1   2    5.61    0.38
  -8   1   1    3.70    0.29
  -8   1   0    1.55    0.16
  -8   1  -1    0.07    0.04
  -8   2   7    0.58    0.10
   8   2  -6    1.90    0.21
  -8   2   5    0.87    0.15
  -8   2   4    0.35    0.13
  -8   2   3    0.10    0.08
  -8   2   2    1.35    0.19
  -8   2   1   -0.05    0.04
  -8   2  -1    0.61    0.08
  -8   3   7    0.14    0.05
  -8   3   4    2.04    0.23
  -8   3   3    2.18    0.24
  -8   3   2    1.73    0.19
  -8   4   7    0.20    0.05
  -8   4   5    0.23    0.09
  -8   4   4    5.06    0.34
  -8   4   3    0.69    0.13
  -8   5   6    0.12    0.05
  -8   5   5    0.76    0.11
  -8   5   4    1.01    0.13
  -9  -3   3    0.43    0.07
  -9  -3   2    3.01    0.16
  -9  -2   4    0.03    0.03
  -9  -2   3    0.73    0.10
  -9  -2   2    0.08    0.03
  -9  -1   5    1.16    0.12
  -9  -1   4    0.29    0.07
  -9  -1   3    2.06    0.17
  -9  -1   2    1.80    0.15
  -9  -1   1    0.27    0.06
  -9   0   6    0.43    0.07
  -9   0   5    0.23    0.06
  -9   0   4    0.04    0.04
  -9   0   3    0.24    0.07
  -9   0   2    0.18    0.06
  -9   0   1    0.59    0.08
  -9   1   6    0.10    0.03
  -9   1   5    1.19    0.13
  -9   1   4    0.32    0.08
  -9   1   3    2.38    0.20
  -9   1   2    1.95    0.17
  -9   1   1    0.29    0.06
  -9   2   6    0.23    0.05
  -9   2   5    2.29    0.17
  -9   2   4    0.07    0.05
  -9   2   3    0.93    0.12
  -9   2   2    0.09    0.04
  -9   3   5    0.05    0.04
  -9   3   4    0.43    0.08
  -9   3   3    0.46    0.08
   0   0   0    0.00    0.00
;
_shelx_hkl_checksum              91036
_shelx_res_file
;
TITL b16037ar in P2(1)
CELL 1.54178   7.59407  10.07031   7.82857  90.0000 112.4016  90.0000
ZERR    4.00   0.00060   0.00055   0.00059   0.0000   0.0093   0.0000
LATT -1
SYMM -X,0.5+Y,-Z
SFAC C H N O
UNIT 16 32 8 8
SHEL 200.00 0.80
TEMP -173
SIZE 0.45 0.10 0.05
L.S. 12
BOND $H
CONF
ACTA
EQIV $1 -x+1, y+1/2, -z+2
HTAB O2A O1B
HTAB O2A N1B
HTAB O2A O1A
HTAB O2B O1B
HTAB O2B N1B
HTAB O2B O1A_$1
HTAB O2B N1A_$1
FMAP 2
PLAN  9
WGHT    0.075000
FVAR       0.20698
O1A   4    0.519338    0.213286    0.536049    11.00000    0.02263    0.01889 =
         0.02022    0.00485    0.00394    0.00335
N1A   3    0.384223    0.275747    0.393445    11.00000    0.02120    0.01478 =
         0.01713    0.00145    0.00749    0.00055
N2A   3    0.205748    0.426902    0.216062    11.00000    0.02361    0.01084 =
         0.02289    0.00081    0.00948    0.00067
C1A   1    0.355263    0.404635    0.374726    11.00000    0.02097    0.01686 =
         0.01958   -0.00011    0.00714   -0.00292
AFIX  43
H1A   2    0.427606    0.470681    0.458903    11.00000   -1.20000
AFIX   0
C2A   1    0.251724    0.210705    0.243894    11.00000    0.02277    0.01025 =
         0.02233   -0.00068    0.00844   -0.00127
AFIX  43
H2A   2    0.241270    0.117580    0.223059    11.00000   -1.20000
AFIX   0
C3A   1    0.139243    0.306586    0.132452    11.00000    0.02268    0.01013 =
         0.02193   -0.00246    0.00772   -0.00116
AFIX  43
H3A   2    0.034777    0.293093    0.018686    11.00000   -1.20000
AFIX   0
C4A   1    0.120038    0.556333    0.148444    11.00000    0.02905    0.01068 =
         0.02998    0.00265    0.01169    0.00129
AFIX 137
H4AA  2    0.018396    0.573909    0.193633    11.00000   -1.50000
H4AB  2    0.066746    0.556176    0.013044    11.00000   -1.50000
H4AC  2    0.217555    0.625618    0.193359    11.00000   -1.50000
AFIX   0
O2A   4    0.741242    0.386767    0.808089    11.00000    0.02484    0.01771 =
         0.02632   -0.00228    0.00713   -0.00098
H2AA  2    0.675406    0.409884    0.898067    11.00000    0.06314
H2AB  2    0.669102    0.335330    0.728786    11.00000    0.03930
O1B   4    0.536005    0.451336    1.020019    11.00000    0.02555    0.01921 =
         0.01853   -0.00095    0.00323    0.00386
N1B   3    0.389515    0.512616    0.887257    11.00000    0.02434    0.01374 =
         0.01874   -0.00167    0.00855    0.00148
N2B   3    0.207978    0.663153    0.711456    11.00000    0.02286    0.01100 =
         0.02204   -0.00014    0.00975    0.00054
C1B   1    0.373316    0.642957    0.856041    11.00000    0.02302    0.01807 =
         0.02095   -0.00204    0.00967   -0.00255
AFIX  43
H1B   2    0.461697    0.709200    0.923096    11.00000   -1.20000
AFIX   0
C2B   1    0.233598    0.447793    0.761954    11.00000    0.02626    0.01107 =
         0.02237   -0.00120    0.00873   -0.00154
AFIX  43
H2B   2    0.210489    0.354846    0.754447    11.00000   -1.20000
AFIX   0
C3B   1    0.119075    0.543498    0.650887    11.00000    0.02174    0.01389 =
         0.02101   -0.00315    0.00631   -0.00238
AFIX  43
H3B   2    0.000711    0.529963    0.550968    11.00000   -1.20000
AFIX   0
C4B   1    0.143075    0.791511    0.621693    11.00000    0.02799    0.01075 =
         0.02793    0.00252    0.01066    0.00152
AFIX 137
H4BA  2    0.184244    0.862360    0.714381    11.00000   -1.50000
H4BB  2    0.003775    0.791553    0.562246    11.00000   -1.50000
H4BC  2    0.197763    0.806536    0.528369    11.00000   -1.50000
AFIX   0
O2B   4    0.727183    0.626750    1.298727    11.00000    0.02652    0.02005 =
         0.02505   -0.00526    0.00859   -0.00132
H2BA  2    0.662891    0.584555    1.204968    11.00000    0.02262
H2BB  2    0.638258    0.647522    1.351242    11.00000    0.05738
HKLF 4
REM  b16037ar in P2(1)
REM R1 =  0.0415 for    1241 Fo > 4sig(Fo)  and  0.0461 for all    1386 data
REM    163 parameters refined using      1 restraints
END
WGHT      0.0682      0.0000
REM Highest difference peak  0.206,  deepest hole -0.229,  1-sigma level  0.054
Q1    1   0.1703  0.5814  0.0379  11.00000  0.05    0.21
Q2    1   0.3852  0.5864  0.8759  11.00000  0.05    0.19
Q3    1   0.6338  0.2375  0.6217  11.00000  0.05    0.19
Q4    1   0.5935  0.5188  1.0180  11.00000  0.05    0.19
Q5    1   0.6748  0.4585  1.1083  11.00000  0.05    0.18
Q6    1   0.1349  0.0394  0.2598  11.00000  0.05    0.18
Q7    1   0.9075  0.4516  0.8013  11.00000  0.05    0.18
Q8    1   0.6093  0.6284  1.4805  11.00000  0.05    0.18
Q9    1   0.8386  0.6263  1.3805  11.00000  0.05    0.17
;
_shelx_res_checksum              92943
_shelxl_version_number           2014/6
loop_
_space_group_symop_operation_xyz
'x, y, z'
'-x, y+1/2, -z'
loop_
_atom_site_type_symbol
_atom_site_label
_atom_site_fract_x
_atom_site_fract_y
_atom_site_fract_z
_atom_site_U_iso_or_equiv
_atom_site_adp_type
_atom_site_calc_flag
_atom_site_occupancy
O O1A 0.5193(3) 0.2133(2) 0.5360(3) 0.0218(5) Uani d 1
N N1A 0.3842(3) 0.2757(3) 0.3934(3) 0.0176(6) Uani d 1
N N2A 0.2057(4) 0.4269(3) 0.2161(4) 0.0189(6) Uani d 1
C C1A 0.3553(4) 0.4046(3) 0.3747(4) 0.0193(6) Uani d 1
H H1A 0.4276 0.4707 0.4589 0.023 Uiso calc 1
C C2A 0.2517(4) 0.2107(3) 0.2439(4) 0.0185(6) Uani d 1
H H2A 0.2413 0.1176 0.2231 0.022 Uiso calc 1
C C3A 0.1392(4) 0.3066(3) 0.1325(4) 0.0185(6) Uani d 1
H H3A 0.0348 0.2931 0.0187 0.022 Uiso calc 1
C C4A 0.1200(4) 0.5563(3) 0.1484(5) 0.0231(7) Uani d 1
H H4AA 0.0184 0.5739 0.1936 0.035 Uiso calc 1
H H4AB 0.0667 0.5562 0.0130 0.035 Uiso calc 1
H H4AC 0.2176 0.6256 0.1934 0.035 Uiso calc 1
O O2A 0.7412(3) 0.3868(2) 0.8081(3) 0.0237(5) Uani d 1
H H2AA 0.675(7) 0.410(6) 0.898(7) 0.063(16) Uiso d 1
H H2AB 0.669(6) 0.335(5) 0.729(6) 0.039(13) Uiso d 1
O O1B 0.5360(3) 0.4513(2) 1.0200(3) 0.0226(5) Uani d 1
N N1B 0.3895(4) 0.5126(3) 0.8873(3) 0.0188(6) Uani d 1
N N2B 0.2080(4) 0.6632(3) 0.7115(4) 0.0183(6) Uani d 1
C C1B 0.3733(4) 0.6430(3) 0.8560(4) 0.0203(7) Uani d 1
H H1B 0.4617 0.7092 0.9231 0.024 Uiso calc 1
C C2B 0.2336(4) 0.4478(3) 0.7620(4) 0.0201(6) Uani d 1
H H2B 0.2105 0.3548 0.7544 0.024 Uiso calc 1
C C3B 0.1191(4) 0.5435(3) 0.6509(4) 0.0194(6) Uani d 1
H H3B 0.0007 0.5300 0.5510 0.023 Uiso calc 1
C C4B 0.1431(4) 0.7915(3) 0.6217(5) 0.0222(7) Uani d 1
H H4BA 0.1842 0.8624 0.7144 0.033 Uiso calc 1
H H4BB 0.0038 0.7916 0.5622 0.033 Uiso calc 1
H H4BC 0.1978 0.8065 0.5284 0.033 Uiso calc 1
O O2B 0.7272(3) 0.6268(2) 1.2987(3) 0.0242(6) Uani d 1
H H2BA 0.663(6) 0.585(5) 1.205(5) 0.023(10) Uiso d 1
H H2BB 0.638(7) 0.648(6) 1.351(7) 0.057(15) Uiso d 1
loop_
_atom_site_aniso_label
_atom_site_aniso_U_11
_atom_site_aniso_U_22
_atom_site_aniso_U_33
_atom_site_aniso_U_12
_atom_site_aniso_U_13
_atom_site_aniso_U_23
O1A 0.0226(10) 0.0189(12) 0.0202(12) 0.0033(9) 0.0039(10) 0.0048(10)
N1A 0.0212(12) 0.0148(13) 0.0171(12) 0.0005(9) 0.0075(10) 0.0015(10)
N2A 0.0236(12) 0.0108(14) 0.0229(13) 0.0007(10) 0.0095(11) 0.0008(10)
C1A 0.0210(13) 0.0169(16) 0.0196(15) -0.0029(12) 0.0071(12) -0.0001(11)
C2A 0.0228(14) 0.0103(15) 0.0223(15) -0.0013(12) 0.0084(13) -0.0007(12)
C3A 0.0227(14) 0.0101(14) 0.0219(15) -0.0012(11) 0.0077(12) -0.0025(12)
C4A 0.0290(15) 0.0107(15) 0.0300(16) 0.0013(12) 0.0117(14) 0.0027(13)
O2A 0.0248(11) 0.0177(13) 0.0263(12) -0.0010(9) 0.0071(10) -0.0023(10)
O1B 0.0256(11) 0.0192(11) 0.0185(10) 0.0039(9) 0.0032(9) -0.0010(9)
N1B 0.0243(13) 0.0137(14) 0.0187(13) 0.0015(10) 0.0086(11) -0.0017(9)
N2B 0.0229(12) 0.0110(13) 0.0220(12) 0.0005(10) 0.0097(10) -0.0001(10)
C1B 0.0230(15) 0.0181(16) 0.0209(14) -0.0025(12) 0.0097(13) -0.0020(12)
C2B 0.0263(15) 0.0111(14) 0.0224(14) -0.0015(12) 0.0087(12) -0.0012(11)
C3B 0.0217(13) 0.0139(15) 0.0210(13) -0.0024(12) 0.0063(12) -0.0032(12)
C4B 0.0280(15) 0.0108(15) 0.0279(16) 0.0015(13) 0.0107(14) 0.0025(12)
O2B 0.0265(12) 0.0200(14) 0.0251(11) -0.0013(10) 0.0086(10) -0.0053(10)
loop_
_atom_type_symbol
_atom_type_description
_atom_type_scat_dispersion_real
_atom_type_scat_dispersion_imag
_atom_type_scat_source
C C 0.0181 0.0091 'International Tables Vol C Tables 4.2.6.8 and 6.1.1.4'
H H 0.0000 0.0000 'International Tables Vol C Tables 4.2.6.8 and 6.1.1.4'
N N 0.0311 0.0180 'International Tables Vol C Tables 4.2.6.8 and 6.1.1.4'
O O 0.0492 0.0322 'International Tables Vol C Tables 4.2.6.8 and 6.1.1.4'
loop_
_geom_angle_atom_site_label_1
_geom_angle_atom_site_label_2
_geom_angle_atom_site_label_3
_geom_angle
C1A N1A O1A 126.5(3)
C1A N1A C2A 109.6(3)
O1A N1A C2A 123.9(3)
C1A N2A C3A 108.6(3)
C1A N2A C4A 125.8(3)
C3A N2A C4A 125.4(3)
N1A C1A N2A 108.3(3)
N1A C1A H1A 125.8
N2A C1A H1A 125.8
C3A C2A N1A 106.4(3)
C3A C2A H2A 126.8
N1A C2A H2A 126.8
C2A C3A N2A 107.0(3)
C2A C3A H3A 126.5
N2A C3A H3A 126.5
N2A C4A H4AA 109.5
N2A C4A H4AB 109.5
H4AA C4A H4AB 109.5
N2A C4A H4AC 109.5
H4AA C4A H4AC 109.5
H4AB C4A H4AC 109.5
H2AA O2A H2AB 107(4)
C1B N1B O1B 125.7(3)
C1B N1B C2B 110.0(3)
O1B N1B C2B 124.3(3)
C1B N2B C3B 109.6(3)
C1B N2B C4B 124.9(3)
C3B N2B C4B 125.3(3)
N1B C1B N2B 107.1(3)
N1B C1B H1B 126.4
N2B C1B H1B 126.4
C3B C2B N1B 106.5(3)
C3B C2B H2B 126.7
N1B C2B H2B 126.7
C2B C3B N2B 106.8(3)
C2B C3B H3B 126.6
N2B C3B H3B 126.6
N2B C4B H4BA 109.5
N2B C4B H4BB 109.5
H4BA C4B H4BB 109.5
N2B C4B H4BC 109.5
H4BA C4B H4BC 109.5
H4BB C4B H4BC 109.5
H2BA O2B H2BB 103(4)
loop_
_geom_bond_atom_site_label_1
_geom_bond_atom_site_label_2
_geom_bond_distance
O1A N1A 1.350(3)
N1A C1A 1.315(4)
N1A C2A 1.384(4)
N2A C1A 1.344(4)
N2A C3A 1.378(4)
N2A C4A 1.463(4)
C1A H1A 0.9500
C2A C3A 1.362(4)
C2A H2A 0.9500
C3A H3A 0.9500
C4A H4AA 0.9800
C4A H4AB 0.9800
C4A H4AC 0.9800
O2A H2AA 1.03(6)
O2A H2AB 0.83(5)
O1B N1B 1.348(3)
N1B C1B 1.332(4)
N1B C2B 1.380(4)
N2B C1B 1.348(4)
N2B C3B 1.374(4)
N2B C4B 1.464(4)
C1B H1B 0.9500
C2B C3B 1.366(4)
C2B H2B 0.9500
C3B H3B 0.9500
C4B H4BA 0.9800
C4B H4BB 0.9800
C4B H4BC 0.9800
O2B H2BA 0.83(4)
O2B H2BB 0.94(5)
loop_
_geom_hbond_atom_site_label_D
_geom_hbond_atom_site_label_H
_geom_hbond_atom_site_label_A
_geom_hbond_site_symmetry_A
_geom_hbond_distance_DH
_geom_hbond_distance_HA
_geom_hbond_distance_DA
_geom_hbond_angle_DHA
O2A H2AA O1B . 1.03(6) 1.73(6) 2.752(3) 172(4)
O2A H2AB O1A . 0.83(5) 1.94(5) 2.773(3) 175(4)
O2B H2BA O1B . 0.83(4) 1.94(4) 2.752(3) 167(4)
O2B H2BB O1A 2_657 0.94(5) 1.86(5) 2.790(3) 171(5)
C1A H1A O1A 2_656 0.95 2.47 3.248(4) 139
C4A H4AC O1A 2_656 0.98 2.46 3.308(4) 145
C4B H4BC O1A 2_656 0.98 2.56 3.336(4) 136
C1B H1B O1B 2_657 0.95 2.48 3.248(4) 138
C2B H2B O2B 2_647 0.95 2.41 3.298(4) 155
C4B H4BA O1B 2_657 0.98 2.50 3.345(4) 144
loop_
_geom_torsion_atom_site_label_1
_geom_torsion_atom_site_label_2
_geom_torsion_atom_site_label_3
_geom_torsion_atom_site_label_4
_geom_torsion
O1A N1A C1A N2A -178.9(2)
C2A N1A C1A N2A 0.2(3)
C3A N2A C1A N1A -0.1(3)
C4A N2A C1A N1A 176.4(3)
C1A N1A C2A C3A -0.2(3)
O1A N1A C2A C3A 179.0(2)
N1A C2A C3A N2A 0.1(3)
C1A N2A C3A C2A 0.0(3)
C4A N2A C3A C2A -176.6(3)
O1B N1B C1B N2B 179.6(2)
C2B N1B C1B N2B 0.0(4)
C3B N2B C1B N1B 0.0(3)
C4B N2B C1B N1B -174.4(3)
C1B N1B C2B C3B 0.0(4)
O1B N1B C2B C3B -179.6(2)
N1B C2B C3B N2B 0.0(3)
C1B N2B C3B C2B 0.0(3)
C4B N2B C3B C2B 174.4(3)

_cod_database_fobs_code 2242261
