#------------------------------------------------------------------------------
#$Date: 2020-12-12 07:50:48 +0200 (Sat, 12 Dec 2020) $
#$Revision: 259830 $
#$URL: file:///home/coder/svn-repositories/cod/cif/2/24/37/2243702.cif $
#------------------------------------------------------------------------------
#
# This file is available in the Crystallography Open Database (COD),
# http://www.crystallography.net/. The original data for this entry
# were provided by IUCr Journals, http://journals.iucr.org/.
#
# The file may be used within the scientific community so long as
# proper attribution is given to the journal article from which the
# data were obtained.
#
data_2243702
loop_
_publ_author_name
'Archana, Sreeramapura D.'
'Kavitha, Channappa N.'
'Yathirajan, Hemmige S.'
'Foro, Sabine'
'Glidewell, Christopher'
_publ_section_title
;
 Two 3-amino-1<i>H</i>-pyrazol-2-ium salts containing organic anions, and
 an orthorhombic polymorph of 3-amino-1<i>H</i>-pyrazol-2-ium nitrate
;
_journal_coeditor_code           DX2033
_journal_issue                   1
_journal_name_full               'Acta Crystallographica Section E'
_journal_page_first              34
_journal_page_last               41
_journal_paper_doi               10.1107/S2056989020015959
_journal_volume                  77
_journal_year                    2021
_chemical_absolute_configuration unk
_chemical_formula_iupac          'C3 H6 N3 +, N O3 -'
_chemical_formula_moiety         'C3 H6 N3 +, N O3 -'
_chemical_formula_sum            'C3 H6 N4 O3'
_chemical_formula_weight         146.12
_chemical_name_systematic
;
3-Amino-1<i>H</i>-pyrazol-2-ium nitrate
;
_space_group_crystal_system      orthorhombic
_space_group_IT_number           33
_space_group_name_Hall           'P 2c -2n'
_space_group_name_H-M_alt        'P n a 21'
_atom_sites_solution_hydrogens   mixed
_atom_sites_solution_primary     difmap
_audit_creation_method           SHELXL-2014
_cell_angle_alpha                90
_cell_angle_beta                 90
_cell_angle_gamma                90
_cell_formula_units_Z            4
_cell_length_a                   7.2700(10)
_cell_length_b                   9.907(2)
_cell_length_c                   8.551(2)
_cell_measurement_reflns_used    942
_cell_measurement_temperature    296(2)
_cell_measurement_theta_max      27.812
_cell_measurement_theta_min      3.147
_cell_volume                     615.9(2)
_computing_cell_refinement
;
CrysAlis RED (Oxford Diffraction, 2009)
;
_computing_data_collection
;
CrysAlis CCD (Oxford Diffraction, 2009)
;
_computing_data_reduction
;
CrysAlis RED (Oxford Diffraction, 2009)
;
_computing_molecular_graphics
;
PLATON (Spek, 2020)
;
_computing_publication_material
;
SHELXL-2014 (Sheldrick, 2015b) and PLATON (Spek, 2020)
;
_computing_structure_refinement
;
SHELXL-2014 (Sheldrick, 2015b)
;
_computing_structure_solution
;
SHELXT (Sheldrick, 2015a)
;
_diffrn_ambient_temperature      296(2)
_diffrn_measured_fraction_theta_full 1.000
_diffrn_measured_fraction_theta_max 0.939
_diffrn_measurement_device_type
;
Oxford Diffraction Xcalibur with Sapphire CCD
;
_diffrn_measurement_method       '\w scans'
_diffrn_radiation_monochromator  graphite
_diffrn_radiation_type           MoK\a
_diffrn_radiation_wavelength     0.71073
_diffrn_reflns_av_R_equivalents  0.0197
_diffrn_reflns_av_unetI/netI     0.0155
_diffrn_reflns_limit_h_max       9
_diffrn_reflns_limit_h_min       -5
_diffrn_reflns_limit_k_max       12
_diffrn_reflns_limit_k_min       -12
_diffrn_reflns_limit_l_max       4
_diffrn_reflns_limit_l_min       -11
_diffrn_reflns_number            2221
_diffrn_reflns_theta_full        25.242
_diffrn_reflns_theta_max         27.812
_diffrn_reflns_theta_min         3.147
_diffrn_source                   'Enhance (Mo) X-ray Source'
_diffrn_standards_decay_%        0
_diffrn_standards_interval_count 0
_diffrn_standards_interval_time  0
_diffrn_standards_number         0
_exptl_absorpt_coefficient_mu    0.139
_exptl_absorpt_correction_T_max  0.973
_exptl_absorpt_correction_T_min  0.911
_exptl_absorpt_correction_type   multi-scan
_exptl_absorpt_process_details
;
(CrysAlis RED; Oxford Diffraction, 2009)
;
_exptl_crystal_colour            yellow
_exptl_crystal_density_diffrn    1.576
_exptl_crystal_description       needle
_exptl_crystal_F_000             304
_exptl_crystal_size_max          0.500
_exptl_crystal_size_mid          0.240
_exptl_crystal_size_min          0.200
_refine_diff_density_max         0.152
_refine_diff_density_min         -0.154
_refine_ls_extinction_method     none
_refine_ls_goodness_of_fit_ref   1.111
_refine_ls_hydrogen_treatment    mixed
_refine_ls_matrix_type           full
_refine_ls_number_parameters     103
_refine_ls_number_reflns         942
_refine_ls_number_restraints     1
_refine_ls_restrained_S_all      1.110
_refine_ls_R_factor_all          0.0449
_refine_ls_R_factor_gt           0.0359
_refine_ls_shift/su_max          0.000
_refine_ls_shift/su_mean         0.000
_refine_ls_structure_factor_coef Fsqd
_refine_ls_weighting_details
'w=1/[\s^2^(Fo^2^)+(0.0550P)^2^+0.0228P] where P=(Fo^2^+2Fc^2^)/3'
_refine_ls_weighting_scheme      calc
_refine_ls_wR_factor_gt          0.0863
_refine_ls_wR_factor_ref         0.0921
_reflns_number_gt                806
_reflns_number_total             942
_reflns_threshold_expression     'I > 2\s(I)'
_cod_data_source_file            dx2033sup1.cif
_cod_data_source_block           III
_cod_database_code               2243702
_shelx_space_group_comment
;
The symmetry employed for this shelxl refinement is uniquely defined
by the following loop, which should always be used as a source of
symmetry information in preference to the above space-group names.
They are only intended as comments.
;
_shelx_estimated_absorpt_t_min   0.934
_shelx_estimated_absorpt_t_max   0.973
_shelx_hkl_file
;
   0  -2   0 56216.8 121.649   0
   0  -3   0 50.7749 14.3843   0
   0  -4   0 15615.0 92.9458   0
   0  -5   0-6.30976 18.4449   0
   0  -6   0 53160.5 217.473   0
   0   6   0 53746.3 164.064   2
   0   7   0 19.9249 15.9157   1
   0  -7   0 20.6174 22.7092   0
   0  -8   0 3431.35 69.2770   0
   0   8   0 3575.54 57.0091   1
   0  -9   0-9.75975 27.3305   0
   0 -10   0 621.418 43.6744   0
   0 -11   0 17.8325 35.1084   0
   0 -12   0-6.42169 32.0280   0
   0   1  -1 8616.77 43.8502   2
   0  -2   1 4.10056 9.83572   0
   0   2  -1 0.22520 11.2990   2
   0  -2  -1 4.52769 12.1037   0
   0  -3   1 24871.7 102.934   0
   0  -3  -1 25179.7 103.878   0
   0   3  -1 24932.8 99.9830   2
   0  -4   1-6.26782 17.2781   0
   0   4  -1 6.70808 12.3859   2
   0  -4  -1-4.63713 16.7883   0
   0   4   1-0.66923 10.4100   1
   0  -5   1 194.341 21.9846   0
   0   5  -1 202.530 16.7072   2
   0  -5  -1 163.817 19.5008   0
   0   5   1 190.625 15.0429   1
   0  -6   1 5.72355 20.6290   0
   0   6  -1-7.62428 13.2233   2
   0   6   1 3.69085 14.1184   1
   0  -6  -1-2.66147 20.0310   0
   0   7  -1 3385.92 52.5816   2
   0  -7   1 3264.07 63.7838   0
   0  -7  -1 3195.46 62.6154   0
   0   7   1 3341.79 51.8190   1
   0  -8  -1 8.29003 25.7415   0
   0  -8   1 6.91232 25.9865   0
   0  -9   1 3809.28 79.2459   0
   0  -9  -1 3774.58 76.3148   0
   0 -10  -1-22.6515 32.0862   0
   0 -10   1 14.2608 30.8952   0
   0 -11  -1 1227.10 56.3183   0
   0 -11   1 1283.73 59.1597   0
   0 -12   1 9.48147 33.0459   0
   0 -12  -1-38.0639 34.5449   0
   0   0  -2 73453.6 580.447   2
   0   1  -2 20.4569 12.6711   2
   0  -1  -2 9.19612 9.66792   0
   0  -1  -2 31.3810 11.4672   2
   0  -2  -2 6827.08 35.5487   2
   0  -2   2 6718.78 37.8874   0
   0   2  -2 6782.77 55.6875   2
   0  -2  -2 6560.12 48.1974   0
   0   3   2-3.83568 7.85727   1
   0  -3  -2 14.2829 13.3749   0
   0   3  -2 6.45658 14.4089   2
   0  -3   2 5.73627 10.5503   0
   0   4   2 1594.78 25.1159   1
   0  -4   2 1712.95 33.6363   0
   0   4  -2 1395.51 33.5791   2
   0  -4  -2 1565.63 35.9014   0
   0  -5   2-0.85062 16.0086   0
   0  -5  -2 3.53129 19.5704   0
   0   5  -2-0.30741 14.9653   2
   0   5   2 32.0780 12.4300   1
   0   6  -2 14755.6 110.547   2
   0  -6  -2 15778.3 119.697   0
   0   6   2 15312.6 87.9669   1
   0  -6   2 15349.6 118.962   0
   0  -7  -2-6.31467 24.4344   0
   0   7  -2 4.58058 17.0900   2
   0  -7   2-2.71191 22.0312   0
   0  -8   2 4985.52 83.5354   0
   0  -8  -2 4875.63 85.0147   0
   0  -9   2-19.0174 27.6048   0
   0  -9  -2-18.1697 29.4804   0
   0 -10  -2 1098.42 51.3758   0
   0 -10   2 1017.10 48.3070   0
   0 -11   2 9.74199 28.8147   0
   0 -11  -2 7.72992 28.5865   0
   0 -12   2 24.1809 26.8370   0
   0 -12  -2 200.061 39.6997   0
   0   0  -3 6.36335 12.2518   2
   0   1  -3 34635.7 133.887   2
   0  -1  -3 35759.0 95.9766   0
   0  -1  -3 35317.5 115.134   2
   0   2  -3 7.61475 16.0189   2
   0  -2  -3 3.23123 11.3783   0
   0  -2  -3-2.26808 9.52063   2
   0   3  -3 31075.3 146.854   2
   0  -3  -3 30621.8 129.108   0
   0  -3  -3 31114.7 91.2514   2
   0  -4  -3-14.6285 15.8552   0
   0  -4   3-3.42632 11.7905   0
   0   4  -3 6.76489 17.8664   2
   0  -5   3 3864.72 50.2786   0
   0   5  -3 3950.76 60.7062   2
   0  -5  -3 3669.13 56.5761   0
   0  -6   3 9.76268 16.4398   0
   0  -6  -3-11.1700 22.4104   0
   0   6  -3-11.1424 18.2864   2
   0  -7   3 950.845 36.5842   0
   0  -7  -3 1064.18 43.1725   0
   0   7  -3 1001.93 38.7879   2
   0   8  -3 3.19995 21.9110   2
   0  -8   3-9.24685 22.2720   0
   0  -8  -3-53.5384 29.5097   0
   0  -9   3 3368.27 69.6163   0
   0  -9  -3 3900.71 81.0899   0
   0 -10  -3 27.1418 32.9723   0
   0 -11  -3 172.866 38.5750   0
   0   0  -4 2776.29 25.4876   0
   0   0  -4 2997.29 44.3301   2
   0  -1  -4 13.0773 12.9162   2
   0   1  -4 2.01993 17.6345   2
   0  -1  -4-3.07344 9.09630   0
   0   2  -4 21108.4 128.869   2
   0  -2  -4 20513.3 100.615   0
   0  -2  -4 20583.8 99.7648   2
   0  -3  -4-4.69843 10.5648   2
   0  -3  -4-3.48015 14.6035   0
   0   3  -4 3.60802 20.6379   2
   0   4  -4 461.443 30.0115   2
   0  -4  -4 490.842 26.1219   0
   0  -5  -4 10.5214 20.5278   0
   0   5  -4-0.79083 22.1905   2
   0   6  -4 1777.20 50.7363   2
   0  -6  -4 1617.37 46.2965   0
   0   7  -4 25.7304 27.0635   2
   0  -7  -4 14.9075 30.1539   0
   0  -8  -4 6905.77 103.033   0
   0   8  -4 7288.10 106.378   2
   0   9  -4-1.38038 22.7155   2
   0  -9  -4-26.4361 33.3998   0
   0 -10  -4 24.0333 32.4759   0
   0 -11  -4 4.28255 35.3465   0
   0   0  -5-1.38796 16.7320   2
   0   1  -5 157.821 21.8924   2
   0  -1  -5 145.902 17.8086   2
   0  -1  -5 176.492 12.7844   0
   0   2  -5-14.2156 21.3643   2
   0  -2  -5 3.79277 12.5480   0
   0  -2  -5-1.52945 15.5355   2
   0   3  -5 14945.1 127.840   2
   0  -3  -5 14986.3 100.190   0
   0  -3  -5 14936.5 92.4519   2
   0   4  -5 1.66557 25.8749   2
   0  -4  -5 9.03215 19.5477   0
   0   5  -5 985.260 43.2563   2
   0  -5  -5 877.621 36.3322   0
   0   6  -5-14.7023 26.7836   2
   0  -6  -5 0.79587 24.6700   0
   0   7  -5 3658.23 80.6735   2
   0  -7  -5 3786.29 78.5859   0
   0  -8  -5 20.0117 32.3755   0
   0   8  -5-33.4666 30.0029   2
   0  -9  -5 5072.93 100.448   0
   0   9  -5 5259.11 101.324   2
   0 -10  -5-0.87579 33.4456   0
   0 -11  -5 252.494 44.3733   0
   0   0  -6 10349.7 96.5052   2
   0  -1  -6 24.6500 18.0231   2
   0   1  -6 4.37622 21.5226   2
   0   2  -6 1292.07 44.7399   2
   0  -2  -6 1460.70 37.5561   2
   0   3  -6-10.9549 26.6763   2
   0   4  -6 797.686 43.3934   2
   0  -5  -6 15.7787 20.7532   0
   0   5  -6-10.3919 27.8284   2
   0  -6  -6 1716.59 54.7797   0
   0   6  -6 1858.14 60.7322   2
   0  -7  -6-24.6517 29.6613   0
   0   7  -6-19.0978 29.7704   2
   0  -8  -6 225.527 38.2313   0
   0   8  -6 234.085 38.2572   2
   0   9  -6 110.926 29.9913   2
   0  -9  -6-11.9024 33.1901   0
   0  10  -6 63.4918 33.1684   2
   0 -10  -6 72.1826 39.5670   0
   0   0  -7 5.55730 21.9177   2
   0  -1  -7 4337.73 68.8065   2
   0   1  -7 4154.91 73.5515   2
   0   2  -7-19.0504 26.6600   2
   0  -2  -7-9.62634 20.3545   2
   0   3  -7 879.514 45.7675   2
   0   4  -7-8.05634 31.3484   2
   0   5  -7 556.378 42.5579   2
   0   6  -7-19.6972 32.3636   2
   0   7  -7 466.372 42.3947   2
   0   8  -7-1.65548 32.0507   2
   0   9  -7 473.637 44.5211   2
   0  10  -7-20.6580 37.3093   2
   0   0  -8 9475.82 112.183   2
   0  -1  -8 1.01452 22.7925   2
   0   1  -8-13.7736 27.2389   2
   0   2  -8 3349.24 75.7029   2
   0   3  -8-4.92718 30.6424   2
   0   4  -8 437.461 41.4609   2
   0   5  -8-20.3356 22.8063   2
   0   6  -8 2837.22 81.4185   2
   0   7  -8 46.1206 28.1227   2
   0   8  -8 16.2883 33.0640   2
   0   0  -9 35.8252 26.7147   2
   0   1  -9 1939.52 61.3928   2
   0   2  -9-0.10663 28.6471   2
   0   3  -9 835.700 52.1259   2
   0   4  -9 6.20063 32.3244   2
   0   5  -9 186.442 34.6934   2
   0   6  -9-45.8679 31.4970   2
   0   0 -10 1162.47 50.6592   2
   0   1 -10 7.86669 29.9702   2
   0   2 -10 139.703 32.6702   2
   0   3 -10-36.0234 28.8420   2
   0   4 -10 99.0502 35.4844   2
   0   1 -11 136.329 30.1821   2
   1   0   0 7.62792 7.47629   0
   1  -1   0 7630.82 37.9228   0
   1   1   0 7256.96 42.7318   1
   1  -2   0 52346.1 121.424   0
   1   2   0 52006.8 132.853   1
  -1  -3   0 45.5297 13.9458   0
   1   3   0 48.5084 14.2066   1
   1   3   0 56.5823 7.83931   2
   1  -3   0 63.8768 13.4076   0
   1   4   0 46184.9 108.436   2
   1   4   0 45921.5 157.228   1
   1  -4   0 46186.9 151.256   0
  -1  -4   0 46049.1 175.480   0
   1  -5   0 8944.55 78.0500   0
  -1  -5   0 8819.58 89.2530   0
   1   5   0 9304.92 78.9716   1
   1   5   0 8916.83 55.0944   2
  -1  -6   0 38.5447 24.5431   0
   1  -6   0 31.6574 19.1602   0
   1   6   0 43.8946 19.7509   1
   1  -7   0 166.470 22.3414   0
  -1  -7   0 129.073 29.8651   0
   1   7   0 126.089 21.7554   1
   1   8   0 3.28182 21.3654   1
   1  -8   0 4.81737 23.8963   0
  -1  -8   0 19.3518 29.8243   0
   1   9   0 277.060 28.7669   1
   1  -9   0 299.307 33.8498   0
  -1  -9   0 276.388 39.2509   0
  -1 -10   0 1269.87 57.1633   0
   1 -10   0 1747.33 58.8618   0
  -1 -11   0 390.964 46.1288   0
   1 -11   0 589.222 44.0532   0
   1 -12   0 346.133 42.3606   0
  -1 -12   0 227.078 40.6724   0
   1   0  -1 28.2762 11.2676   2
   1   0  -1 20.1586 8.61110   0
   1   1  -1 2455.57 26.7161   2
   1  -1  -1 2530.37 27.2194   2
   1  -1  -1 2258.42 24.6351   0
   1   2  -1 59883.3 528.287   2
   1   2   1 61826.9 564.363   1
  -1  -2  -1 60283.1 138.460   0
  -1  -3  -1 4741.99 50.8985   0
   1   3  -1 4848.64 41.7336   2
  -1  -3   1 4803.92 48.1798   0
   1  -3   1 4459.19 42.9353   0
   1  -3  -1 4762.45 47.2478   0
   1   3   1 5019.61 47.1594   1
  -1  -4   1 27912.0 130.985   0
   1   4   1 28531.2 119.003   1
   1   4  -1 28217.3 108.350   2
   1  -4  -1 28670.3 123.801   0
   1  -4   1 29449.8 119.982   0
  -1  -4  -1 28331.1 138.554   0
   1   5   1 1471.72 32.9141   1
   1   5  -1 1371.93 28.8421   2
  -1  -5   1 1228.27 36.4915   0
   1  -5   1 1519.02 34.4865   0
  -1  -5  -1 1434.43 41.0289   0
   1  -5  -1 1347.53 34.0527   0
   1  -6  -1 599.511 29.2021   0
   1  -6   1 598.325 27.5533   0
   1   6   1 548.614 26.4280   1
  -1  -6  -1 541.168 33.8038   0
   1   6  -1 506.574 21.8588   2
  -1  -6   1 589.247 31.6682   0
   1  -7   1 253.487 25.5439   0
   1   7   1 261.685 23.8058   1
  -1  -7  -1 278.324 31.2976   0
  -1  -7   1 250.661 30.1442   0
   1  -7  -1 288.826 26.0988   0
   1   7  -1 216.242 24.8287   1
   1   8  -1 496.144 31.1176   1
   1  -8   1 545.940 33.7713   0
  -1  -8  -1 488.954 37.8956   0
  -1  -8   1 480.279 38.0788   0
   1  -8  -1 542.128 34.5130   0
   1   8   1 504.346 29.7049   1
  -1  -9  -1 7.77361 32.2435   0
   1  -9  -1 13.7969 24.9770   0
  -1  -9   1 22.2033 34.0576   0
   1  -9   1 2.77401 25.0570   0
   1   9  -1-2.02380 24.0845   1
   1 -10   1 1959.33 60.0199   0
   1  10  -1 1863.99 54.4706   1
   1 -10  -1 1927.87 61.9830   0
  -1 -10   1 1585.50 63.8432   0
  -1 -10  -1 1516.02 59.8126   0
  -1 -11  -1 183.839 37.9204   0
   1 -11   1 159.358 34.0395   0
   1 -11  -1 167.786 34.0072   0
  -1 -11   1 95.9216 36.3077   0
   1 -12  -1 208.477 37.2222   0
   1 -12   1 290.955 41.6803   0
  -1 -12  -1 136.007 37.2309   0
  -1 -12   1 207.513 40.1141   0
   1   0  -2 16.3699 9.27168   0
   1   0  -2-14.6024 17.1321   2
   1  -1  -2 13139.9 62.6032   0
   1   1  -2 13508.1 72.5704   2
   1  -1  -2 13470.9 66.0859   2
  -1  -1  -2 13224.2 56.8986   0
  -1  -2  -2 18448.7 81.8637   0
   1  -2  -2 18111.9 83.6408   0
   1  -2  -2 18901.5 79.3755   2
   1   2  -2 18441.2 89.1605   2
   1  -2   2 18583.5 61.8402   0
  -1  -3  -2 5662.94 56.6201   0
   1   3   2 5532.94 48.4990   1
   1   3  -2 5362.86 52.6795   2
   1  -3   2 5466.06 44.0839   0
   1  -3  -2 5963.28 55.1138   0
   1   4   2 1262.28 28.7701   1
   1   4  -2 1189.33 29.5496   2
   1  -4   2 1172.41 28.2090   0
   1  -4  -2 1300.93 33.7261   0
  -1  -4  -2 1176.90 33.2474   0
  -1  -5   2 1403.62 36.9758   0
   1  -5  -2 1475.21 36.1474   0
  -1  -5  -2 1203.88 38.1783   0
   1  -5   2 1362.24 34.0730   0
   1   5  -2 1280.06 33.5157   2
   1   5   2 1294.76 30.8147   1
   1  -6   2 1183.07 33.7445   0
   1  -6  -2 1142.98 39.9436   0
   1   6  -2 1177.58 33.6567   2
   1   6   2 1156.92 31.2785   1
  -1  -6  -2 1220.95 43.3792   0
  -1  -6   2 919.309 37.6687   0
  -1  -7   2 1777.02 51.5796   0
   1  -7   2 1863.40 46.3378   0
   1  -7  -2 1761.98 47.5378   0
   1   7   2 1729.99 39.7790   1
  -1  -7  -2 1725.13 52.9412   0
   1   7  -2 1636.47 40.2884   2
  -1  -8  -2 449.014 38.1811   0
   1  -8  -2 378.198 33.5905   0
  -1   8  -2 500.938 34.7933   2
   1  -8   2 491.854 32.7160   0
  -1  -8   2 498.568 38.1111   0
   1  -9   2 1941.23 55.4909   0
   1  -9  -2 1769.69 54.0909   0
   1   9  -2 1851.93 54.9289   1
  -1  -9  -2 1830.87 61.6526   0
  -1  -9   2 1828.82 60.9087   0
  -1 -10  -2 332.238 42.7225   0
   1  10  -2 359.909 35.7247   1
   1 -10   2 369.571 38.2962   0
  -1 -10   2 468.787 42.6109   0
   1 -10  -2 386.584 36.1468   0
   1 -11   2 293.275 35.4741   0
  -1 -11   2 208.660 38.6431   0
   1  11  -2 310.375 33.7096   1
   1 -11  -2 278.922 38.7137   0
  -1 -11  -2 225.317 39.2156   0
  -1 -12  -2 52.9326 35.0608   0
   1 -12  -2 56.9752 30.4242   0
   1 -12   2 22.1189 27.1957   0
  -1 -12   2 106.654 35.2605   0
   1   0  -3-2.52240 13.2043   2
  -1   0  -3 2.53239 13.3379   2
   1   0  -3 5.31864 8.57885   0
   1  -1  -3 7856.56 60.1758   2
  -1  -1  -3 7700.06 44.2576   0
  -1  -1  -3 7774.26 54.8478   2
   1   1  -3 7516.25 44.0631   0
   1   1  -3 7771.20 65.0717   2
   1  -1  -3 7599.35 51.8781   0
  -1  -2  -3 5959.12 48.9010   0
   1  -2  -3 6012.10 53.8329   0
   1   2  -3 5750.50 58.3906   2
  -1  -2  -3 5979.30 43.0760   2
   1  -2  -3 5952.02 50.5074   2
   1  -3  -3 684.596 20.3019   2
  -1  -3  -3 712.383 23.4920   0
  -1  -3  -3 494.097 11.2595   2
   1   3  -3 668.628 26.0104   2
   1  -3   3 667.268 16.2339   0
   1  -3  -3 654.363 24.7912   0
  -1  -4  -3 8223.41 77.6365   0
   1  -4  -3 8131.14 76.1139   0
   1   4  -3 8477.26 79.7762   2
   1  -4   3 8027.32 60.9705   0
   1  -5   3 1472.50 32.9723   0
  -1  -5  -3 1386.75 39.9215   0
   1   5  -3 1448.35 38.5802   2
   1  -5  -3 1443.66 38.1788   0
  -1   6  -3 3842.52 65.5187   2
   1   6   3 3836.99 53.1750   1
   1  -6  -3 4177.68 69.1410   0
   1  -6   3 3862.12 55.5708   0
  -1  -6  -3 3731.58 68.3137   0
   1   6  -3 3915.83 62.7390   2
   1  -7   3 8417.82 87.0447   0
   1   7  -3 8311.35 94.8617   2
   1  -7  -3 8441.34 103.274   0
  -1  -7   3 8571.00 96.7891   0
  -1  -7  -3 8224.70 102.510   0
  -1   7  -3 8162.99 99.7141   2
  -1   8  -3 792.052 43.1590   2
   1  -8  -3 888.024 42.6035   0
   1  -8   3 807.262 36.3177   0
  -1  -8  -3 816.982 46.3473   0
  -1  -8   3 877.611 42.7342   0
  -1  -9  -3 361.951 42.1874   0
   1  -9  -3 239.517 35.9228   0
  -1  -9   3 342.060 36.8223   0
   1 -10  -3 1624.35 62.1446   0
  -1 -10  -3 1678.11 64.2274   0
  -1 -10   3 1739.69 61.5037   0
   1 -11  -3 50.3143 33.3426   0
   1  11  -3 47.4922 27.2948   1
  -1 -11  -3 101.809 37.1159   0
   1  12  -3 66.8287 28.1869   1
   1   0  -4 3.92752 15.6547   2
  -1   0  -4-6.67296 14.8009   2
   1   0  -4 0.12625 9.43175   0
   1  -1  -4 10468.1 79.3889   2
  -1  -1  -4 10449.6 53.6987   0
   1  -1  -4 10408.2 66.1074   0
   1   1  -4 10393.2 56.5494   0
  -1   1  -4 10129.4 87.0626   2
   1   1  -4 10265.8 83.8720   2
  -1  -1  -4 10168.4 74.2109   2
  -1  -2  -4 3351.79 38.4250   0
   1  -2  -4 3688.28 46.9397   0
  -1   2  -4 3486.37 55.3317   2
   1   2  -4 3286.44 51.5701   2
   1  -2  -4 3381.03 44.5935   2
  -1  -2  -4 3413.38 41.3469   2
   1   2  -4 3465.57 33.9567   0
   1  -3  -4 4284.19 57.1198   0
   1  -3  -4 4146.82 48.2153   2
   1   3  -4 4007.16 59.1738   2
  -1  -3  -4 4094.48 50.1142   0
  -1  -3  -4 4098.75 39.9832   2
  -1   3  -4 4136.41 62.9557   2
  -1  -4  -4 11326.0 92.0636   0
  -1   4  -4 11209.8 104.843   2
   1  -4  -4 11413.4 96.4564   0
   1  -4  -4 10955.5 74.5795   2
   1   4  -4 11326.6 102.097   2
   1  -5  -4 3231.66 56.7157   0
  -1  -5  -4 3244.02 57.7241   0
  -1   5  -4 3237.94 62.2834   2
   1   5  -4 3302.28 60.8110   2
   1  -6  -4 1769.85 49.9588   0
  -1   6  -4 1589.78 48.4497   2
   1   6  -4 1636.62 48.3254   2
  -1  -6  -4 1567.23 47.6864   0
   1  -7  -4 7953.43 100.414   0
   1   7  -4 8348.27 102.286   2
  -1  -7  -4 8473.50 110.054   0
  -1   7  -4 8374.37 106.952   2
   1  -8  -4 1319.39 54.2822   0
   1   8  -4 1342.64 48.0834   2
  -1  -8  -4 1236.63 52.5147   0
  -1   8  -4 1308.87 51.9826   2
  -1  -9  -4 129.892 38.7274   0
  -1   9  -4 99.2243 28.2520   2
   1  -9  -4 62.1035 32.9289   0
  -1 -10  -4 874.485 54.5706   0
   1 -10  -4 729.915 47.1053   0
  -1 -11  -4 41.2207 36.2395   0
   1 -11  -4-4.79114 32.9571   0
  -1   0  -5 1.71555 17.3166   2
   1   0  -5 7.04832 17.1767   2
   1   0  -5-6.57063 9.88875   0
   1  -1  -5 3323.65 52.4319   2
   1   1  -5 3316.92 54.8227   2
  -1   1  -5 3222.26 56.1327   2
   1  -1  -5 3477.56 43.4072   0
  -1  -1  -5 3274.50 49.6223   2
  -1  -2  -5 1731.72 29.5273   0
   1  -2  -5 1903.58 39.6591   2
   1  -2  -5 1856.57 38.1449   0
   1   2  -5 1763.76 43.4043   2
  -1   2  -5 1774.06 46.4124   2
  -1  -2  -5 1838.15 35.6952   2
  -1   3  -5 1106.29 40.9643   2
   1  -3  -5 1198.26 35.1763   0
   1  -3  -5 1103.57 30.5617   2
  -1  -3  -5 1076.57 28.3301   0
   1   3  -5 1039.05 37.2106   2
   1  -4  -5 7516.10 85.4032   0
   1   4  -5 8366.26 96.7399   2
  -1  -4  -5 8176.30 79.5799   0
  -1   4  -5 8386.41 99.6931   2
  -1  -5  -5 1174.65 39.1018   0
  -1   5  -5 1163.04 44.9188   2
   1  -5  -5 1158.29 41.0652   0
   1   5  -5 1132.74 43.2452   2
  -1   6  -5 1004.93 44.0576   2
   1   6  -5 905.264 43.0075   2
  -1  -6  -5 963.145 41.8771   0
   1  -6  -5 946.380 43.7237   0
   1  -7  -5 4255.24 79.5104   0
  -1  -7  -5 4521.94 83.4864   0
   1   7  -5 4207.17 81.4374   2
  -1   7  -5 4157.22 83.1224   2
  -1   8  -5 219.338 35.0586   2
  -1  -8  -5 144.681 37.8924   0
   1   8  -5 207.819 29.8612   2
   1  -8  -5 180.393 35.4625   0
  -1  -9  -5 362.746 43.8554   0
  -1   9  -5 346.669 36.3806   2
   1  -9  -5 367.991 43.0923   0
   1   9  -5 345.143 35.2542   2
  -1  10  -5 417.826 42.4910   2
  -1 -10  -5 400.136 50.6318   0
   1 -10  -5 466.749 46.7214   0
   1 -11  -5 155.013 41.5929   0
  -1 -11  -5 73.5993 40.0343   0
   1   0  -6 2.50891 20.4998   2
  -1   0  -6 21.3372 20.3078   2
  -1  -1  -6 634.003 29.4917   2
  -1   1  -6 763.977 36.1960   2
   1   1  -6 633.315 32.1598   2
   1  -1  -6 688.349 30.9878   2
  -1  -2  -6 1261.17 33.9099   2
   1   2  -6 1365.91 44.0451   2
  -1   2  -6 1374.21 46.6521   2
   1  -2  -6 1382.68 38.2116   2
  -1   3  -6 694.822 37.5678   2
   1  -3  -6 732.148 29.5073   2
   1   3  -6 633.001 37.0363   2
  -1   4  -6 416.148 35.3245   2
   1   4  -6 386.102 32.0250   2
   1  -4  -6 377.875 27.4731   0
  -1   5  -6 876.842 44.2238   2
   1  -5  -6 813.151 40.3035   0
   1   5  -6 732.430 41.3988   2
   1  -6  -6 718.404 40.2197   0
  -1  -6  -6 677.507 38.3471   0
   1   6  -6 758.287 43.9546   2
  -1   6  -6 674.128 42.6243   2
  -1   7  -6 2493.00 69.9176   2
   1   7  -6 2500.89 65.9155   2
   1  -7  -6 2292.38 65.7147   0
  -1  -7  -6 2498.42 69.5654   0
  -1   8  -6 212.786 34.4042   2
   1   8  -6 170.448 32.5620   2
  -1  -8  -6 223.533 39.5346   0
   1  -8  -6 146.083 35.1988   0
   1   9  -6 19.4758 28.9908   2
   1  -9  -6-21.9900 32.3616   0
  -1   9  -6-15.2214 31.4291   2
  -1  -9  -6 40.6428 35.0127   0
  -1  10  -6 59.0485 35.9510   2
   1 -10  -6-46.4106 37.7690   0
  -1 -10  -6 19.8504 42.1963   0
  -1   0  -7 9.88280 25.0043   2
   1   0  -7 4.62257 22.6811   2
   1   1  -7 268.507 29.2183   2
  -1   1  -7 278.406 31.2331   2
   1  -1  -7 317.443 28.8649   2
  -1  -1  -7 276.077 27.0243   2
   1   2  -7 1973.18 55.6218   2
  -1   2  -7 2100.98 60.0818   2
   1  -2  -7 2039.16 50.4474   2
   1   3  -7 330.893 34.3255   2
  -1   3  -7 337.669 34.9459   2
  -1   4  -7 2072.79 65.0673   2
   1   4  -7 2120.30 59.8721   2
   1   5  -7 64.0594 30.9015   2
  -1   5  -7 23.3975 27.6962   2
  -1   6  -7 99.5854 33.3491   2
   1   6  -7 86.4754 34.2609   2
  -1   7  -7 101.193 33.2903   2
   1   7  -7 130.444 32.6614   2
  -1   8  -7 153.936 39.8510   2
   1   8  -7 176.311 35.7991   2
  -1   9  -7 50.1405 32.2375   2
   1   9  -7-1.44378 30.8574   2
   1  10  -7-1.99263 36.3243   2
   1 -10  -7 66.6855 37.6158   0
   1   0  -8 3.16208 28.4181   2
  -1   0  -8 14.7955 24.7081   2
   1   1  -8 864.259 42.9850   2
  -1   1  -8 844.656 46.0683   2
  -1  -1  -8 863.929 38.8452   2
   1  -1  -8 885.286 40.2424   2
   1   2  -8 1192.58 50.0677   2
   1  -2  -8 1304.77 46.2736   2
  -1   2  -8 1364.74 57.0090   2
   1   3  -8 235.198 35.5422   2
  -1   3  -8 240.065 37.2421   2
  -1   4  -8 896.699 49.9459   2
   1   4  -8 916.530 48.6477   2
   1   5  -8 120.594 34.1846   2
  -1   5  -8 53.8101 32.8194   2
   1   6  -8 73.6860 35.2284   2
  -1   6  -8 59.2497 31.3294   2
  -1   7  -8 43.5993 28.4613   2
   1   7  -8 79.3571 29.9028   2
   1   8  -8 52.7358 32.8929   2
  -1   8  -8-58.3168 31.7588   2
   1   0  -9-13.8806 27.4911   2
  -1   0  -9-30.3246 26.6325   2
   1  -1  -9 109.928 26.9749   2
  -1   1  -9 86.1193 30.9560   2
   1   1  -9 88.9411 30.6411   2
  -1   2  -9 919.766 51.4176   2
   1   2  -9 820.144 46.3473   2
   1   3  -9 72.7608 35.9794   2
  -1   3  -9 40.7316 31.8406   2
   1   4  -9 445.797 42.6113   2
  -1   4  -9 339.878 40.9598   2
   1   5  -9 104.727 35.0047   2
  -1   5  -9 42.3766 32.6624   2
   1   6  -9-48.9109 28.9864   2
  -1   6  -9-37.5052 31.3750   2
   1   0 -10 7.70145 27.7655   2
   1   1 -10 60.4131 31.8827   2
  -1   1 -10 21.2789 31.1537   2
   1   2 -10 113.791 31.2856   2
  -1   2 -10 216.193 39.1203   2
   1   3 -10 2.51435 30.6718   2
  -1   3 -10-14.4271 32.4495   2
  -1   4 -10 91.5248 32.8595   2
   1   4 -10 101.820 30.3052   2
   1   1 -11 56.1748 30.5945   2
   2   0   0 17821.2 78.3410   0
   2  -1   0 5736.67 46.6647   0
   2   1   0 5397.88 50.2984   1
   2   2   0 569.240 23.3987   1
   2  -2   0 633.963 20.7542   0
   2   2   0 566.700 16.7215   2
   2  -3   0 15746.2 87.3762   0
   2   3   0 15409.3 95.2412   1
   2   3   0 15455.0 70.4678   2
   2   4   0 1186.59 22.2235   2
   2  -4   0 1305.24 32.4401   0
   2   4   0 1258.09 34.3704   1
  -2  -5   0-0.50847 22.4009   0
   2  -5   0 0.40116 18.9735   0
   2   5   0 21.8306 19.5007   1
   2   5   0 32.4324 9.04906   2
  -2  -6   0 24.6688 24.8383   0
   2  -6   0 19.8775 18.9344   0
   2   6   0 22.8502 22.0619   1
  -2  -7   0 2032.07 59.3554   0
   2  -7   0 1978.19 48.3292   0
   2   7   0 1934.38 49.3045   1
   2   8   0 390.595 32.4345   1
   2  -8   0 475.366 33.7110   0
  -2  -8   0 408.500 39.7534   0
  -2  -9   0 3093.91 81.6999   0
   2   9   0 2832.59 65.1411   1
   2  -9   0 3216.97 69.3512   0
   2  10   0 256.855 30.8770   1
   2 -10   0 290.195 34.0488   0
  -2 -10   0 290.524 46.2188   0
   2 -11   0 849.790 48.6660   0
  -2 -11   0 774.027 55.2856   0
   2 -12   0 83.3128 35.8255   0
  -2 -12   0 39.3018 41.5865   0
   2   0  -1 357838. 1315.67   1
   2   0  -1 362469. 1556.64   2
   2   0   1 359436. 1357.85   0
   2  -1   1 50917.1 130.725   0
   2   1  -1 51505.2 143.457   2
   2   1  -1 51441.2 142.281   1
   2  -1  -1 51819.4 139.896   0
   2  -2  -1 12064.6 73.9106   0
   2   2  -1 11218.4 68.1587   2
   2   2  -1 11532.0 76.5637   1
   2   2   1 11303.4 77.5831   1
   2  -2   1 10910.7 65.5076   0
   2  -3  -1 1476.19 31.1936   0
   2   3   1 1512.57 33.9968   1
   2   3  -1 1521.44 34.2964   1
   2   3  -1 1457.44 27.3006   2
   2  -3   1 1473.34 29.6533   0
   2   4  -1 2941.86 38.5891   2
   2  -4  -1 3301.67 47.9715   0
   2  -4   1 2816.68 43.2722   0
   2   4   1 3122.62 48.1789   1
   2   4  -1 2972.43 48.9855   1
  -2  -4  -1 2974.61 48.9094   0
  -2  -5  -1 2253.62 49.9862   0
   2  -5   1 2211.72 42.7104   0
   2   5   1 2038.33 43.0078   1
   2   5  -1 1931.81 45.1439   1
   2   5  -1 2019.42 33.9735   2
   2  -5  -1 2154.53 43.8559   0
   2  -6  -1 19873.1 130.433   0
   2   6   1 19366.4 128.398   1
   2  -6   1 19026.9 132.189   0
   2   6  -1 19233.6 133.561   1
   2   6  -1 18618.8 104.134   2
   2  -7  -1 868.961 35.9969   0
   2   7   1 807.999 35.7296   1
   2  -7   1 916.147 37.0096   0
   2   7  -1 781.202 36.2182   1
  -2  -7  -1 882.648 46.6822   0
  -2  -7   1 913.301 45.8483   0
   2  -8   1 554.609 31.6273   0
   2  -8  -1 628.869 35.7945   0
   2   8  -1 501.362 33.9819   1
   2   8   1 519.829 34.8747   1
  -2  -8  -1 505.643 44.0009   0
  -2  -8   1 629.609 44.6494   0
  -2  -9  -1 837.264 51.7980   0
   2   9  -1 900.679 43.7814   1
   2  -9  -1 960.866 43.6291   0
   2  -9   1 1111.68 45.7981   0
   2   9   1 890.304 42.5038   1
  -2  -9   1 1000.09 54.5051   0
  -2 -10  -1 538.522 47.6406   0
   2  10  -1 617.727 41.6963   1
   2 -10  -1 646.448 41.6151   0
   2 -10   1 650.996 40.9606   0
  -2 -10   1 619.110 52.1762   0
   2 -11  -1 61.2980 30.8870   0
   2 -11   1 54.9591 30.0161   0
  -2 -11   1 26.1488 36.2930   0
  -2 -11  -1 38.2754 36.6091   0
   2  11  -1 54.1971 27.5974   1
   2 -12  -1 4.77574 36.0975   0
   2 -12   1-12.4703 31.4060   0
  -2 -12  -1 47.3855 37.0511   0
   2   0  -2 11370.4 74.3089   2
   2   0  -2 11836.1 61.1038   1
   2   0  -2 11659.5 68.9296   0
   2   1  -2 7950.09 57.9914   0
   2   1  -2 7718.25 62.9790   2
   2  -1  -2 7941.74 63.7572   2
   2  -1  -2 8166.33 41.0843   1
   2  -1   2 8167.25 48.6709   0
   2   1  -2 8080.35 59.1628   1
   2  -1  -2 7512.56 59.0762   0
   2  -2  -2 21502.7 107.931   0
   2   2  -2 20033.5 102.046   1
   2   2  -2 19733.3 101.229   2
   2  -2   2 19800.8 84.3531   0
   2  -3  -2 1263.96 31.0623   0
   2  -3   2 1091.69 24.2969   0
   2   3  -2 1088.62 28.5763   2
   2   4  -2 3206.04 46.0282   2
   2  -4   2 3003.47 41.9789   0
   2   4   2 3152.78 48.6480   1
   2  -4  -2 3362.49 51.3489   0
  -2  -4  -2 3041.54 50.7007   0
   2   5   2 663.848 28.4303   1
   2  -5   2 661.233 26.6015   0
   2  -5  -2 736.155 29.6314   0
   2   5  -2 796.557 32.7248   1
  -2  -5  -2 725.585 34.9438   0
   2   5  -2 709.309 25.5293   2
   2  -6  -2 1116.31 38.2990   0
   2  -6   2 1007.38 36.3157   0
   2   6   2 1013.47 34.9788   1
   2   6  -2 951.149 37.3587   1
   2   6  -2 1040.08 30.4351   2
  -2  -6  -2 1118.85 44.3033   0
   2  -7   2 598.340 33.3911   0
   2   7  -2 444.468 32.0369   1
  -2  -7  -2 464.616 38.4493   0
   2   7   2 453.398 29.5548   1
   2  -7  -2 525.766 31.6174   0
   2  -8   2 665.523 35.1044   0
   2  -8  -2 586.398 37.7107   0
   2   8   2 599.736 34.6776   1
  -2  -8  -2 491.271 41.6732   0
   2   8  -2 607.838 38.5718   1
   2  -9  -2 2430.54 62.1902   0
   2   9  -2 2197.29 63.2360   1
   2  -9   2 2433.89 60.1326   0
  -2  -9  -2 2321.37 72.7970   0
   2 -10   2 128.285 32.2435   0
  -2 -10  -2 107.338 40.9465   0
   2  10  -2 151.873 30.2088   1
   2 -10  -2 88.6415 31.5463   0
   2 -11  -2 117.583 31.5268   0
  -2 -11  -2 138.597 42.2933   0
   2 -11   2 117.285 23.7606   0
   2  11  -2 61.9488 27.9052   1
   2  12  -2 204.137 33.0264   1
   2   0  -3 1397.76 32.1195   2
   2   0  -3 1445.40 28.8117   0
   2  -1   3 2252.96 23.8455   0
   2   1  -3 2184.49 32.7438   0
   2  -1  -3 2207.47 38.2978   2
   2   1  -3 2407.51 41.4942   2
   2  -1  -3 2228.95 35.6822   0
   2  -2  -3 9089.96 75.1391   0
   2  -2   3 9508.45 51.1230   0
   2   2  -3 9445.41 79.5193   2
   2  -2  -3 9266.04 73.4087   2
   2   3  -3 2075.69 41.1741   2
   2  -3  -3 1932.44 38.8919   0
  -2  -3  -3 1848.52 39.3566   0
   2  -3   3 2014.98 28.4848   0
   2  -4  -3 161.453 20.2787   0
  -2  -4  -3 104.549 21.2606   0
   2  -4   3 166.376 14.6652   0
   2   4  -3 162.218 20.3689   2
   2  -5  -3 3811.45 61.4391   0
   2  -5   3 3752.47 48.9416   0
   2   5  -3 3897.95 57.9052   2
  -2  -5  -3 4196.93 67.3096   0
  -2  -6  -3 921.788 39.4598   0
   2   6  -3 830.176 32.7173   2
   2   6   3 861.849 33.1172   1
   2  -6   3 789.844 29.3416   0
   2  -6  -3 916.733 37.1953   0
  -2  -7  -3 101.570 30.4615   0
   2   7  -3 113.830 24.0461   2
   2  -7  -3 155.255 27.4484   0
   2   7   3 176.391 25.0994   1
   2  -7   3 157.445 22.0980   0
  -2  -8  -3 4979.24 90.5388   0
   2  -8  -3 4613.21 86.4648   0
   2   8  -3 4833.43 83.3942   1
  -2  -9  -3 72.9395 33.9689   0
   2  -9  -3 54.8174 28.8711   0
   2   9  -3 62.7043 28.2181   1
  -2   9  -3 90.7189 26.6639   2
  -2 -10  -3 91.6334 38.1988   0
   2  10  -3 131.997 32.1392   1
   2 -10  -3 114.628 30.7736   0
   2 -11  -3 127.117 33.3918   0
   2  11  -3 37.2484 30.9189   1
  -2 -11  -3 28.8937 41.3832   0
   2  12  -3-71.9201 30.4348   1
   2   0  -4 4069.38 56.4790   2
   2   0  -4 4187.82 48.2852   0
   2  -1  -4 3166.84 49.3850   2
   2   1  -4 3259.76 41.4648   0
   2   1  -4 3218.13 52.3350   2
   2  -1  -4 3264.98 45.7073   0
   2  -2  -4 1640.81 36.1611   2
   2   2  -4 1573.21 30.1084   0
  -2  -2  -4 1659.32 31.1294   2
   2   2  -4 1709.63 41.2670   2
   2  -2  -4 1631.26 35.7438   0
   2  -3  -4 11815.6 94.7264   0
   2   3  -4 11697.2 97.9730   2
  -2  -3  -4 11528.1 92.8466   0
   2  -3  -4 11556.0 87.4150   2
   2   4  -4 183.270 22.7304   2
   2  -4  -4 162.592 22.5257   0
  -2  -4  -4 134.115 22.1935   0
  -2  -5  -4 674.677 33.1269   0
   2  -5  -4 643.456 32.6553   0
   2   5  -4 618.039 31.2902   2
   2   6  -4 2108.95 51.2694   2
   2  -6  -4 2055.29 51.7751   0
  -2  -6  -4 2045.18 53.2205   0
   2  -7  -4 1214.23 45.7247   0
  -2  -7  -4 1210.86 49.3844   0
   2   7  -4 1387.66 45.7112   2
  -2   8  -4 795.106 45.7392   2
   2  -8  -4 801.776 44.4008   0
  -2  -8  -4 701.827 44.3760   0
   2   8  -4 801.743 39.6111   2
  -2   9  -4 3318.00 80.9183   2
   2  -9  -4 3157.95 74.0486   0
  -2  -9  -4 3316.15 84.6425   0
  -2 -10  -4 21.1486 36.3774   0
   2  10  -4 36.8647 28.9417   1
   2 -10  -4 80.1829 30.5388   0
   2 -11  -4 91.2692 31.6651   0
  -2 -11  -4 81.4600 44.4338   0
   2  11  -4 44.9125 31.3312   1
   2   0  -5 3550.04 45.9117   0
  -2   0  -5 3588.23 57.3748   2
   2   0  -5 3648.77 59.3848   2
   2  -1  -5 989.304 29.2287   0
  -2   1  -5 934.354 35.3397   2
   2  -1  -5 978.547 33.5497   2
  -2  -1  -5 941.691 30.4232   2
   2   1  -5 980.826 35.2880   2
   2   1  -5 941.629 24.7200   0
  -2   2  -5 4378.08 70.2094   2
   2  -2  -5 4584.89 59.1439   0
  -2  -2  -5 4452.45 54.5949   2
   2  -2  -5 4402.47 61.6382   2
   2   2  -5 4396.63 48.0118   0
   2   2  -5 4447.01 67.2436   2
   2  -3  -5 606.138 26.7222   2
   2  -3  -5 592.367 30.5717   0
  -2   3  -5 544.792 34.1358   2
   2   3  -5 588.141 32.1710   2
  -2  -3  -5 403.343 25.7133   0
   2  -4  -5 187.705 23.4353   0
  -2  -4  -5 89.4370 19.8982   0
   2   4  -5 186.351 25.9804   2
  -2   4  -5 236.510 30.4173   2
   2  -4  -5 176.463 19.9631   2
  -2   5  -5 644.293 38.3239   2
   2  -5  -5 699.832 36.3473   0
  -2  -5  -5 557.919 32.3790   0
   2   5  -5 599.475 34.6894   2
   2  -6  -5 500.565 35.0864   0
  -2  -6  -5 398.971 31.9308   0
  -2   6  -5 453.727 37.7151   2
   2   6  -5 520.309 35.5250   2
  -2   7  -5 462.587 39.1354   2
   2  -7  -5 453.886 37.3506   0
  -2  -7  -5 463.214 38.3559   0
   2   7  -5 482.293 35.5414   2
  -2   8  -5 1213.28 52.9192   2
  -2  -8  -5 1086.64 52.8152   0
   2  -8  -5 1153.54 50.7120   0
   2   8  -5 1126.80 47.3177   2
   2  -9  -5 146.909 34.8907   0
  -2  -9  -5 169.113 35.2027   0
  -2   9  -5 197.837 32.7045   2
  -2  10  -5 130.713 32.0957   2
  -2 -10  -5 24.0620 36.2134   0
   2 -10  -5 95.8073 34.3025   0
  -2   0  -6 2305.52 51.6498   2
   2   0  -6 2378.58 53.0859   2
  -2  -1  -6 1211.22 38.1494   2
   2  -1  -6 1146.57 38.8306   2
  -2   1  -6 1178.32 41.8193   2
   2   1  -6 1132.74 40.4366   2
  -2   2  -6 499.001 34.0004   2
   2  -2  -6 497.609 30.1509   2
   2   2  -6 428.405 30.4717   2
  -2   3  -6 1711.53 52.1443   2
   2  -3  -6 1812.77 45.5541   2
   2  -3  -6 1620.69 42.2762   0
   2   3  -6 1782.47 49.8401   2
   2   4  -6 274.436 30.7902   2
  -2   4  -6 279.024 33.7280   2
   2  -4  -6 249.958 26.6333   0
   2  -5  -6 444.469 31.9384   0
  -2   5  -6 468.482 37.5158   2
   2   5  -6 493.982 36.0465   2
   2   6  -6 66.2284 26.5498   2
  -2   6  -6 106.981 30.5673   2
   2  -6  -6 69.4323 30.5863   0
  -2   7  -6 990.402 51.2933   2
   2  -7  -6 1033.14 48.7092   0
   2   7  -6 976.239 48.7735   2
  -2   8  -6 291.477 37.7036   2
  -2  -8  -6 288.184 41.0173   0
   2   8  -6 265.582 32.9211   2
   2  -8  -6 215.524 34.9957   0
  -2  -9  -6 1263.66 64.4534   0
   2  -9  -6 1136.24 54.9598   0
   2   9  -6 1278.32 53.9800   2
  -2   9  -6 1290.89 57.5561   2
   2 -10  -6 76.6483 33.8008   0
  -2 -10  -6 58.8581 40.6296   0
  -2  10  -6 109.445 34.7763   2
  -2   0  -7 8984.63 107.533   2
   2   0  -7 8813.64 104.314   2
  -2   1  -7 1382.50 49.6995   2
   2  -1  -7 1477.71 47.1812   2
   2   1  -7 1375.99 48.2770   2
  -2  -1  -7 1429.64 44.7543   2
  -2   2  -7 770.253 41.7100   2
   2  -2  -7 906.406 40.5851   2
   2   2  -7 864.388 41.9741   2
  -2   3  -7 358.020 34.4960   2
   2  -3  -7 385.995 30.4391   2
   2   3  -7 323.981 33.0501   2
  -2   4  -7 528.007 38.6427   2
   2   4  -7 566.628 37.7849   2
  -2   5  -7 443.219 39.8214   2
   2   5  -7 431.538 37.0968   2
  -2   6  -7 1947.17 65.5330   2
   2   6  -7 1918.36 61.9169   2
   2   7  -7 66.7346 28.2469   2
  -2   7  -7 13.3760 30.1816   2
   2   8  -7 16.8055 25.8625   2
  -2   8  -7 54.8327 32.4753   2
   2  -8  -7-28.6775 31.5545   0
   2   9  -7 176.886 32.5008   2
  -2   9  -7 28.2474 30.7661   2
   2  -9  -7 121.249 35.8959   0
  -2   0  -8 207.946 30.3446   2
   2   0  -8 221.087 32.4074   2
   2   1  -8 2360.71 63.0959   2
   2  -1  -8 2423.92 62.1960   2
  -2   1  -8 2421.04 67.6059   2
   2   2  -8 117.418 27.8656   2
  -2   2  -8 177.192 34.8994   2
   2  -2  -8 137.728 27.9768   2
  -2   3  -8 908.305 49.4752   2
   2   3  -8 790.255 44.0976   2
   2   4  -8 104.397 24.0531   2
  -2   4  -8 12.6126 32.3976   2
   2   5  -8 24.7219 30.1583   2
  -2   5  -8 43.5385 31.7754   2
  -2   6  -8 225.106 39.5016   2
   2   6  -8 256.749 38.0352   2
   2   7  -8 60.3212 31.4210   2
  -2   7  -8 70.4585 33.3064   2
   2   8  -8 21.0950 31.5361   2
   2   0  -9 2498.58 67.9599   2
   2  -1  -9 86.7744 27.9167   2
  -2   1  -9 84.8048 30.4540   2
   2   1  -9 82.9922 31.0107   2
   2   2  -9 759.418 45.6827   2
  -2   2  -9 747.891 46.8400   2
  -2   3  -9 412.262 41.2172   2
   2   3  -9 547.692 43.3986   2
  -2   4  -9 94.8802 34.3221   2
   2   4  -9 149.963 32.1309   2
   2   5  -9 84.8774 33.9285   2
  -2   5  -9 95.4145 33.8394   2
  -2   6  -9 293.241 43.1091   2
   2   6  -9 425.558 44.3102   2
   2   0 -10 318.342 35.3965   2
   2  -1 -10 18.4086 28.8530   2
   2   1 -10 57.6454 31.1834   2
  -2   1 -10 20.9940 31.3030   2
   2   2 -10 287.193 35.9425   2
  -2   2 -10 443.243 40.8937   2
   2   3 -10-0.75648 34.7056   2
  -2   3 -10 6.67207 32.6432   2
  -2   4 -10 27.7642 37.2051   2
   3   0   0 6.74130 14.1980   0
   3   1   0 334.463 22.4852   1
   3  -1   0 344.836 20.0080   0
   3   2   0 32340.5 149.670   1
   3  -2   0 32138.3 137.921   0
   3  -3   0 3125.84 50.1480   0
   3   3   0 3027.53 51.5164   1
   3   3   0 3047.62 39.8686   2
   3   4   0 6002.99 72.8939   1
   3  -4   0 5613.58 67.9460   0
   3   4   0 5704.39 52.3338   2
   3  -5   0 926.869 35.4306   0
   3   5   0 937.223 37.2449   1
   3  -6   0 161.511 24.4732   0
   3   6   0 145.452 28.4111   1
   3  -7   0 869.757 39.5723   0
   3   7   0 756.843 38.9506   1
   3  -8   0 42.2952 27.7325   0
   3   8   0 49.4573 28.8481   1
   3  -9   0 308.015 36.9834   0
   3   9   0 343.332 36.1655   1
   3  10   0 1132.14 50.9740   1
   3 -10   0 1264.22 53.8751   0
   3  11   0-26.3653 32.0800   1
   3 -11   0 6.68583 31.4902   0
   3 -12   0 73.6708 33.5662   0
   3   0  -1-7.66948 15.2133   0
   3   0   1-8.02696 14.0029   0
   3   0  -1 4.50630 15.0858   1
   3   1  -1 7085.08 64.0308   1
   3   1  -1 7167.61 65.8451   0
   3   1  -1 7073.60 65.9287   2
   3  -1   1 6930.18 60.7345   0
   3  -1  -1 6795.10 63.9760   0
   3   2   1 6104.22 67.6907   1
   3   2  -1 6251.33 65.5861   1
   3   2  -1 6056.16 60.9205   2
   3  -2   1 6204.46 60.7209   0
   3  -2  -1 5923.79 63.0134   0
   3   3  -1 1295.85 31.3243   2
   3  -3   1 1283.22 34.0283   0
   3  -3  -1 1292.38 35.9428   0
   3   3  -1 1333.73 36.8603   1
   3   3   1 1407.13 40.1038   1
   3  -4   1 5476.30 66.1646   0
   3   4  -1 5780.29 73.0918   1
   3  -4  -1 5349.17 67.4832   0
   3   4  -1 5529.14 58.6813   2
   3   4   1 5556.08 71.4632   1
   3  -5  -1 2227.17 50.2792   0
   3  -5   1 2310.91 48.8428   0
   3   5   1 2296.54 51.6925   1
   3   5  -1 2166.49 38.7675   2
   3   5  -1 2279.64 52.8529   1
   3  -6  -1 377.001 28.5662   0
   3  -6   1 363.159 28.1322   0
   3   6   1 371.563 31.5238   1
   3   6  -1 349.988 31.4038   1
   3  -7  -1 247.101 29.6676   0
   3  -7   1 269.000 29.2071   0
   3   7   1 300.153 32.9544   1
   3   7  -1 275.896 31.3487   1
   3   8   1 689.956 40.4933   1
   3  -8  -1 732.005 40.1588   0
   3  -8   1 694.984 39.0906   0
   3   8  -1 741.016 41.8046   1
   3   9   1 1206.16 51.0462   1
   3  -9  -1 1240.49 51.3904   0
   3  -9   1 1272.50 52.5381   0
   3   9  -1 1233.34 51.1566   1
   3 -10   1 13.7725 26.7950   0
   3  10   1-6.68621 30.3810   1
   3  10  -1 28.3843 30.3458   1
   3 -10  -1 14.3580 30.5543   0
   3 -11   1 211.406 34.0386   0
   3  11  -1 249.423 35.1514   1
   3 -11  -1 262.243 37.4219   0
   3 -12   1 186.614 31.9007   0
   3  12  -1 226.650 33.7850   1
   3   0   2 11.9696 12.2755   0
   3   0  -2 3.81185 16.8541   2
   3   0  -2-2.61034 16.5591   0
   3   0  -2 1.30011 12.4569   1
   3  -1  -2 11519.9 90.7676   2
   3  -1  -2 11367.5 63.6009   1
   3   1  -2 11689.2 79.9746   1
   3   1  -2 11512.3 87.0866   2
   3   1  -2 11485.2 83.2006   0
   3  -1   2 11232.8 74.7462   0
   3  -1  -2 11128.7 82.9782   0
   3   2  -2 728.888 28.0174   1
   3   2  -2 695.907 27.7270   2
   3  -2  -2 658.856 27.0149   0
   3  -2   2 670.046 23.5414   0
   3  -3   2 2628.36 43.1158   0
   3   3  -2 2530.06 48.0374   1
   3  -3  -2 2453.81 48.3548   0
   3   3  -2 2549.45 44.3282   2
   3  -4   2 2895.02 47.6955   0
   3   4  -2 2859.98 47.2108   2
   3   4   2 2956.97 54.1721   1
   3   4  -2 2937.35 54.2984   1
   3  -4  -2 2683.17 50.7973   0
   3  -5  -2 2161.57 51.2184   0
   3  -5   2 2132.65 44.8667   0
   3   5   2 2160.51 50.3103   1
   3   5  -2 2164.95 42.7063   2
   3   5  -2 2197.16 51.4287   1
   3  -6  -2 2672.73 56.4701   0
   3  -6   2 2731.85 54.4198   0
   3   6   2 2763.27 57.2743   1
   3   6  -2 2857.77 60.6580   1
   3   6  -2 2919.48 50.3300   2
   3  -7  -2 3560.27 68.2462   0
   3   7   2 3440.55 65.4858   1
   3  -7   2 3294.74 62.6042   0
   3   7  -2 3436.29 70.5866   1
   3   8   2 1316.71 47.7699   1
   3  -8  -2 1345.04 47.8617   0
   3  -8   2 1429.80 48.4398   0
   3   8  -2 1311.88 51.3399   1
   3   9   2 613.652 39.3368   1
   3  -9  -2 551.534 38.5238   0
   3   9  -2 593.117 42.6043   1
   3  -9   2 538.828 37.6701   0
   3 -10  -2 477.152 38.9599   0
   3  10  -2 468.304 41.2314   1
   3 -10   2 344.374 31.2764   0
   3  11  -2 82.0359 32.4047   1
   3 -11  -2 61.2618 31.6744   0
   3   0   3 4.70074 11.1774   0
   3   0  -3 3.75367 18.8351   2
   3   0  -3-4.67010 15.4172   0
   3   0  -3 3.78158 13.0641   1
   3   1  -3 663.635 24.6425   0
   3  -1  -3 653.783 17.4758   1
   3   1  -3 718.138 25.0128   1
   3  -1  -3 609.800 26.7508   2
   3   1  -3 713.182 29.6512   2
   3  -1   3 715.797 20.6907   0
   3  -1  -3 712.131 27.5329   0
   3  -2   3 9978.49 68.3910   0
   3  -2  -3 10265.2 89.1311   0
   3   2  -3 10152.2 83.5261   0
   3   2  -3 10265.8 84.9667   1
   3  -2  -3 9823.75 87.7495   2
   3   2  -3 10205.4 90.1511   2
   3  -3   3 5284.74 53.5471   0
   3  -3  -3 5193.71 67.9181   0
   3   3  -3 5371.69 67.5005   2
   3   3  -3 5349.37 67.5892   1
   3  -4  -3 2626.60 52.2104   0
   3  -4   3 2826.39 44.8758   0
   3   4  -3 2763.79 54.7338   1
   3   4  -3 2817.15 51.4104   2
   3  -5  -3 2650.32 56.1921   0
   3  -5   3 2682.21 45.9748   0
   3   5  -3 2668.26 57.1634   1
   3   5  -3 2858.82 53.1043   2
   3   6  -3 737.911 32.9906   2
   3   6  -3 704.780 38.3031   1
   3  -6  -3 665.099 35.0524   0
   3  -7  -3 850.881 40.0979   0
   3   7   3 767.677 36.7678   1
   3   7  -3 842.178 42.4117   1
   3   8   3 674.244 38.6651   1
   3  -8  -3 665.603 39.5750   0
   3   8  -3 731.974 43.2884   1
   3  -9  -3 549.951 41.6254   0
   3   9  -3 691.516 43.7060   1
  -3  -9  -3 608.791 52.3979   0
   3 -10  -3 417.741 40.4287   0
   3  10  -3 434.101 39.6013   1
   3  11  -3 63.2388 32.2835   1
   3 -11  -3 47.0653 30.6053   0
   3   0   4-4.52372 9.70834   0
   3   0  -4-7.76416 19.8651   2
   3   0  -4-2.48926 16.8439   0
   3   0  -4 31.2317 12.1042   1
   3  -1  -4 1240.64 36.5531   0
   3   1  -4 1157.49 31.1067   1
   3  -1  -4 1125.44 35.5596   2
   3   1  -4 1208.27 38.6349   2
   3   1  -4 1202.85 31.7674   0
   3  -2  -4 1171.92 37.2695   0
   3   2  -4 1207.38 32.3978   0
   3   2  -4 1142.87 37.9767   2
   3  -2  -4 1077.77 33.9995   2
   3  -3  -4 12.3602 19.1869   2
   3  -3  -4 37.5235 20.5986   0
   3   3  -4 26.5675 17.3659   0
   3   3  -4 21.6574 20.1144   2
   3  -4  -4 4568.30 70.6494   0
   3   4  -4 4539.55 68.7924   2
   3  -5  -4 75.7396 24.9055   0
   3   5  -4 94.2604 23.1926   2
   3   5  -4 86.8470 26.1721   1
   3  -6  -4 1769.27 51.3737   0
   3   6  -4 1877.80 54.8960   1
   3   6  -4 1843.22 49.0400   2
   3  -7  -4 2361.94 61.5886   0
   3   7  -4 2590.97 65.6919   1
   3   7  -4 2594.31 58.5945   2
   3  -8  -4 88.2583 28.7351   0
  -3  -8  -4 136.957 38.4949   0
   3   8  -4 53.8641 29.6002   1
   3  -9  -4 264.403 35.4540   0
   3   9  -4 274.345 35.5143   1
  -3  -9  -4 327.084 44.4987   0
  -3  10  -4 736.638 45.7271   2
   3 -10  -4 740.034 47.1091   0
   3  10  -4 669.427 42.9395   1
  -3 -10  -4 638.678 56.5039   0
   3   0  -5-6.10315 20.7523   2
   3   0  -5 7.00462 17.5035   0
   3  -1  -5 1201.36 37.5320   0
   3  -1  -5 1291.65 40.7860   2
   3   1  -5 1261.03 41.7266   2
   3   1  -5 1255.98 34.4554   0
   3  -2  -5 1742.55 44.9748   0
   3  -2  -5 1592.94 42.8887   2
   3   2  -5 1631.83 37.9774   0
   3   2  -5 1629.84 46.1861   2
   3  -3  -5 231.451 23.0303   2
   3  -3  -5 208.844 26.5011   0
   3   3  -5 216.853 20.0306   0
   3   3  -5 217.430 27.4009   2
   3  -4  -5 442.873 31.5591   0
   3   4  -5 424.036 30.8234   2
   3  -5  -5 1290.05 47.0682   0
   3   5  -5 1331.28 45.0935   2
   3  -6  -5 859.669 43.0530   0
   3   6  -5 935.206 41.1926   2
   3  -7  -5 2388.80 64.3673   0
   3   7  -5 2747.68 65.0901   2
   3  -8  -5 658.984 42.6622   0
   3   8  -5 650.205 43.1135   1
  -3   8  -5 684.231 43.9093   2
   3   8  -5 615.738 37.8289   2
  -3   9  -5 69.8205 29.3471   2
   3  -9  -5 2.21794 31.4580   0
   3   9  -5 118.310 33.3958   1
  -3  10  -5 1.33212 28.8051   2
   3 -10  -5 15.4468 33.4219   0
   3  10  -5 9.39983 30.7247   1
  -3   0  -6 14.5805 21.7450   2
   3   0  -6 5.41052 23.9090   2
  -3  -1  -6 322.639 27.1417   2
  -3   1  -6 272.185 28.8019   2
   3  -1  -6 272.005 24.2818   0
   3  -1  -6 271.871 29.8117   2
   3   1  -6 242.223 31.1565   2
   3  -2  -6 2190.61 53.2999   2
   3  -2  -6 2098.79 47.4644   0
   3   2  -6 2146.09 55.5376   2
   3  -3  -6 1300.52 43.6493   0
   3  -3  -6 1347.95 43.3677   2
   3   3  -6 1465.63 48.5141   2
   3  -4  -6 578.592 35.7003   0
   3   4  -6 494.085 33.3790   2
   3  -4  -6 557.460 30.9341   2
  -3   5  -6 1266.98 57.2369   2
   3  -5  -6 1080.47 44.1050   0
   3   5  -6 1144.73 45.9244   2
   3   6  -6 111.066 30.0589   2
  -3   6  -6 167.358 36.5791   2
   3  -6  -6 98.2800 30.3477   0
   3   7  -6 100.662 27.8122   2
  -3   7  -6 120.722 36.4969   2
   3  -7  -6 125.115 29.8344   0
   3   8  -6 171.237 31.3091   2
  -3   8  -6 188.731 35.2605   2
   3  -8  -6 134.247 32.0394   0
  -3   9  -6 333.544 36.1844   2
   3   9  -6 255.759 38.0420   1
   3  -9  -6 328.657 39.3438   0
   3   0  -7-25.9311 27.0613   2
  -3   0  -7 0.23750 24.9029   2
   3   1  -7 139.405 30.3736   2
  -3   1  -7 177.088 30.8400   2
   3  -1  -7 174.169 30.7421   2
  -3   2  -7 1405.30 51.7172   2
   3   2  -7 1362.51 50.5082   2
   3  -2  -7 1303.62 48.7751   2
   3  -3  -7 174.925 27.0419   2
   3   3  -7 150.122 28.9396   2
  -3   3  -7 122.995 31.8109   2
  -3   4  -7 169.006 36.0886   2
   3   4  -7 225.555 32.4462   2
  -3   5  -7 402.156 44.6668   2
   3   5  -7 448.029 36.6108   2
  -3   6  -7 253.424 39.6187   2
   3  -6  -7 209.601 29.7964   0
   3   6  -7 271.034 34.4647   2
  -3   7  -7 513.593 46.6005   2
   3  -7  -7 396.328 37.3153   0
   3   7  -7 476.252 39.6159   2
  -3   8  -7 90.0384 33.2623   2
   3   8  -7 54.5581 27.5119   2
   3  -8  -7 42.2328 34.6118   0
   3   9  -7 71.6814 29.6000   2
   3  -9  -7 120.961 41.0807   0
   3   0  -8 2.96058 28.0828   2
  -3   0  -8-39.6518 25.9421   2
   3   1  -8 66.9777 27.9060   2
  -3   1  -8 5.81503 28.3421   2
   3  -1  -8 89.9631 30.2875   2
  -3   2  -8 711.298 43.7023   2
   3  -2  -8 794.197 43.9816   2
   3   2  -8 701.687 43.6749   2
   3  -3  -8 60.1700 25.8560   2
   3   3  -8-18.4307 28.6670   2
  -3   3  -8 50.5597 29.5763   2
  -3   4  -8 845.346 52.0925   2
   3   4  -8 787.790 45.5574   2
   3   5  -8 13.0019 31.2636   2
  -3   5  -8 13.0983 32.3761   2
   3   6  -8 9.45979 27.0199   2
  -3   6  -8 33.9014 36.9999   2
   3   7  -8 105.244 36.4427   2
  -3   7  -8 83.5300 34.6127   2
   3   0  -9 1.25210 27.5598   2
   3  -1  -9 294.069 37.6494   2
   3   1  -9 287.532 35.1959   2
  -3   1  -9 356.850 39.7992   2
   3  -2  -9 178.119 34.0776   2
  -3   2  -9 179.735 36.7861   2
   3   2  -9 152.082 34.5841   2
   3   3  -9 111.721 34.0363   2
  -3   3  -9 81.5546 30.8343   2
   3   4  -9 90.4826 32.1621   2
  -3   4  -9 13.7695 34.2737   2
   3   5  -9 59.0658 27.0667   2
  -3   5  -9 20.7885 33.4739   2
   3   0 -10 29.5418 28.7976   2
   3  -1 -10 148.666 28.8812   2
   3   1 -10 147.180 27.9294   2
  -3   2 -10-18.3657 33.9444   2
   3   2 -10 8.86387 31.2518   2
  -3   3 -10 1.85248 35.9994   2
   4   0   0 22340.1 126.262   0
   4   1   0 250.316 24.9696   0
   4  -1   0 260.890 23.5935   0
   4  -2   0 147.822 23.3926   0
   4   2   0 176.421 24.6350   1
   4  -3   0 802.843 34.4205   0
   4   3   0 826.401 36.9576   1
   4   4   0 113.034 28.1186   1
   4  -4   0 132.864 27.9196   0
   4  -5   0 12.3948 24.9895   0
   4   5   0 19.7055 27.5989   1
   4  -6   0 5340.01 85.4609   0
   4   6   0 5646.74 88.2860   1
   4  -7   0 551.318 37.7576   0
   4   7   0 537.647 40.9532   1
   4  -8   0 269.688 36.6440   0
   4   8   0 288.084 38.0493   1
   4  -9   0 88.2605 33.3517   0
   4   9   0 34.8094 33.0821   1
   4  10   0 293.597 40.4426   1
   4 -10   0 253.679 38.1713   0
   4 -11   0 34.5474 31.3558   0
   4  11   0 9.25104 28.8207   1
   4   0  -1 8202.24 73.0372   1
   4   0   1 8149.69 76.3123   0
   4   0  -1 7998.12 79.2998   0
   4   1   1 768.566 30.5098   0
   4   1  -1 737.951 30.7456   0
   4   1  -1 764.464 31.1795   1
   4  -1   1 692.112 28.9680   0
   4  -1  -1 724.282 30.4503   0
   4   2  -1 6687.24 76.1002   1
   4  -2   1 6390.58 71.4503   0
   4  -2  -1 6375.26 76.0581   0
   4  -3   1 617.229 31.6180   0
   4  -3  -1 607.370 31.8335   0
   4   3   1 635.946 35.0952   1
   4   3  -1 665.475 33.7618   1
   4   3  -1 596.727 27.5177   2
   4  -4  -1 1130.24 41.5273   0
   4  -4   1 1224.78 39.8593   0
   4   4   1 1302.53 45.0725   1
   4   4  -1 1168.33 42.7252   1
   4   4  -1 1175.40 33.2014   2
   4   5  -1 462.609 24.5197   2
   4  -5  -1 461.396 33.6964   0
   4  -5   1 527.280 33.6459   0
   4   5   1 528.059 37.4546   1
   4   5  -1 496.356 36.5257   1
   4  -6  -1 252.971 31.8525   0
   4  -6   1 260.485 31.3263   0
   4   6   1 261.968 34.0883   1
   4   6  -1 235.054 33.9746   1
   4  -7  -1 303.417 32.2349   0
   4  -7   1 333.404 32.7250   0
   4   7   1 328.191 36.3672   1
   4   7  -1 294.044 35.6857   1
   4  -8  -1 19.5507 30.3545   0
   4  -8   1 29.0881 30.1417   0
   4   8   1 7.03294 33.5422   1
   4   8  -1 26.6811 29.5792   1
   4  -9  -1 1133.58 51.6630   0
   4   9   1 1058.17 52.8481   1
   4  -9   1 978.021 47.8166   0
   4   9  -1 1074.68 52.8423   1
   4  10   1 201.185 38.3660   1
   4 -10  -1 253.218 37.9257   0
   4  10  -1 280.637 38.4339   1
   4 -10   1 219.924 36.4190   0
   4  11   1-16.8018 33.7485   1
   4  11  -1-14.2597 31.6688   1
   4 -11  -1 7.64682 33.0674   0
   4 -11   1-8.00578 27.8003   0
   4   0   2 24888.9 129.233   0
   4   0  -2 25045.4 121.271   1
   4   0  -2 25124.8 139.797   0
   4   1  -2 17030.6 108.788   1
   4   1  -2 16343.8 115.592   0
   4  -1   2 16921.4 107.340   0
   4  -1  -2 16438.0 117.834   0
   4   1  -2 17417.2 120.869   2
   4   2  -2 5982.38 70.9756   1
   4   2  -2 6004.90 74.8610   0
   4   2  -2 5909.84 72.1380   2
   4  -2   2 6030.88 68.4933   0
   4  -2  -2 5960.63 75.7153   0
   4  -3   2 1201.24 35.8018   0
   4  -3  -2 1244.63 43.4409   0
   4   3  -2 1180.07 36.8522   2
   4   3  -2 1285.12 40.7545   1
   4   4  -2 142.870 21.8723   2
   4  -4   2 173.858 22.5418   0
   4   4  -2 157.458 26.7401   1
   4  -4  -2 167.313 28.3154   0
   4  -5  -2 4035.97 71.4298   0
   4  -5   2 4223.38 68.2366   0
   4   5   2 4330.29 73.7435   1
   4   5  -2 4209.71 63.7258   2
   4   5  -2 4155.58 73.1247   1
   4  -6  -2 1527.62 52.4662   0
   4  -6   2 1603.44 48.9487   0
   4   6   2 1628.84 52.3719   1
   4   6  -2 1625.18 53.2035   1
   4  -7  -2 125.425 30.1597   0
   4  -7   2 145.610 28.5483   0
   4   7   2 131.695 32.8142   1
   4   7  -2 110.362 32.5026   1
   4  -8  -2 565.365 41.7118   0
   4   8   2 660.140 43.0407   1
   4  -8   2 570.092 36.6536   0
   4   8  -2 682.541 43.5129   1
   4   9   2 507.065 41.9970   1
   4  -9  -2 472.658 40.5329   0
   4   9  -2 534.759 43.4234   1
   4  10   2-6.25598 33.4358   1
   4 -10  -2 38.6681 31.5480   0
   4  10  -2 38.9615 33.3481   1
   4  11  -2 205.407 34.3028   1
   4   0  -3 2804.79 42.1063   1
   4   0  -3 2817.08 54.2448   2
   4   0   3 2912.15 45.3671   0
   4   0  -3 2899.12 53.1274   0
   4  -1  -3 43.8912 22.1860   2
   4   1  -3 35.1211 21.2964   2
   4   1  -3 21.5679 20.0059   0
   4  -1   3 45.4656 15.6930   0
   4  -1  -3 19.2791 21.3150   0
   4  -1  -3 21.0498 11.4627   1
   4   1  -3 36.2819 17.6474   1
   4  -2  -3 3442.66 60.8073   0
   4   2  -3 3414.61 57.8407   0
   4   2  -3 3655.00 57.4192   1
   4   2  -3 3444.33 59.6843   2
   4  -2   3 3592.84 51.2679   0
   4  -3   3 648.608 27.7711   0
   4  -3  -3 628.126 35.8284   0
   4   3  -3 638.602 31.8545   0
   4   3  -3 613.825 31.9870   1
   4   3  -3 606.695 32.5039   2
   4  -4  -3 1077.28 41.5437   0
   4  -4   3 1119.42 33.8417   0
   4   4  -3 1104.97 42.5219   1
   4   4  -3 1103.16 38.4272   2
   4   5  -3 399.027 28.6676   2
   4  -5  -3 356.621 33.4729   0
   4   5  -3 450.752 35.5584   1
   4  -6  -3 588.107 38.7806   0
   4   6  -3 652.927 41.8830   1
   4   6  -3 683.592 34.2534   2
   4  -7  -3 725.679 42.3302   0
   4   7  -3 849.115 47.1994   1
   4  -8  -3 1137.54 50.8095   0
   4   8  -3 1200.26 53.8569   1
   4  -9  -3 1025.53 50.0748   0
   4   9  -3 1397.10 59.5264   1
   4 -10  -3 33.4795 29.2277   0
   4  10  -3 34.5770 31.3607   1
   4   0  -4 1817.08 35.5529   1
   4   0  -4 2029.28 49.3560   2
   4   0  -4 2182.69 47.8073   0
   4   1  -4 805.563 30.3971   1
   4  -1  -4 734.299 33.6716   2
   4   1  -4 770.706 35.6148   2
   4   1  -4 769.429 32.6568   0
   4  -1  -4 820.073 35.7474   0
   4  -2  -4 1700.51 48.0166   0
   4  -2  -4 1559.99 44.9864   2
   4   2  -4 1592.47 41.5426   1
   4   2  -4 1616.54 46.8008   2
   4   2  -4 1506.50 40.9325   0
   4   3  -4 45.0056 21.3312   0
   4   3  -4 43.4986 23.0588   2
   4   3  -4 56.3511 22.6558   1
   4  -3  -4 48.1791 27.0719   0
   4   4  -4 94.1554 24.7796   2
   4   4  -4 90.3170 25.5534   1
   4  -4  -4 78.6620 29.9119   0
   4  -5  -4 422.081 36.6639   0
   4   5  -4 477.326 36.2627   1
   4   5  -4 493.279 32.8899   2
   4  -6  -4 277.233 35.1090   0
   4   6  -4 235.499 35.0257   1
   4   6  -4 293.972 28.9816   2
   4  -7  -4 373.096 36.5300   0
   4   7  -4 344.926 37.3534   1
   4   7  -4 399.554 32.0701   2
   4  -8  -4 523.754 42.0890   0
   4   8  -4 584.777 43.4854   1
   4  -9  -4 57.8996 32.3908   0
   4   9  -4 44.5181 35.7549   1
   4 -10  -4-3.25001 34.0196   0
   4  10  -4 30.1129 30.7680   1
   4   0  -5 683.159 35.7024   2
   4   0  -5 707.803 34.0469   0
   4  -1  -5 1576.36 46.9485   0
   4  -1  -5 1352.28 44.0979   2
   4   1  -5 1268.91 35.5733   1
   4   1  -5 1397.02 48.1653   2
   4   1  -5 1492.92 43.7914   0
   4  -2  -5 14.6017 22.1227   2
   4   2  -5-0.94905 25.7619   2
   4   2  -5 10.6869 19.7130   0
   4  -2  -5 31.5518 25.3212   0
   4   2  -5 5.76793 20.7447   1
   4  -3  -5 764.259 40.7689   0
   4  -3  -5 676.585 35.4303   2
   4   3  -5 688.462 35.2633   1
   4   3  -5 780.834 34.7779   0
   4   3  -5 751.182 38.6797   2
   4  -4  -5 348.128 34.7065   0
   4   4  -5 345.740 29.6438   0
   4   4  -5 338.161 32.0535   1
   4   4  -5 320.330 31.6920   2
   4   5  -5 161.439 27.1678   2
   4  -5  -5 211.219 33.8600   0
   4   5  -5 268.358 28.4834   0
   4   5  -5 215.685 32.5058   1
   4  -6  -5 1080.24 51.8572   0
   4   6  -5 1082.00 50.0047   1
   4   6  -5 1168.97 45.7561   2
   4   7  -5 117.234 26.9549   2
   4  -7  -5 38.4516 33.2684   0
   4   7  -5 63.2672 31.9185   1
   4  -8  -5 121.915 36.1979   0
   4   8  -5 54.5329 33.1473   1
   4  -9  -5 404.738 42.5733   0
   4   9  -5 341.196 42.1941   1
  -4  10  -5-66.6655 25.6327   2
   4   0  -6 4647.05 82.3569   2
   4   0  -6 4684.42 72.7788   0
   4  -1  -6 1489.58 47.7516   0
   4  -1  -6 1556.63 50.9276   2
   4   1  -6 1389.70 50.8657   2
   4  -2  -6 37.1366 24.4829   2
   4   2  -6 32.4526 24.4709   2
   4  -2  -6 51.9029 28.8696   0
   4  -3  -6 869.689 42.7210   0
   4   3  -6 809.594 39.1255   1
   4  -3  -6 737.299 38.7618   2
   4   3  -6 901.162 43.6763   2
   4  -4  -6 85.1721 33.2358   0
   4   4  -6 107.440 29.1548   2
   4   4  -6 103.865 28.2220   1
   4  -5  -6 975.525 50.1892   0
   4   5  -6 969.049 48.3537   1
   4   5  -6 911.303 43.5758   2
   4   6  -6 467.639 37.4043   2
   4  -6  -6 546.713 41.6594   0
   4   6  -6 541.553 41.9109   1
   4   7  -6 95.6240 27.5765   2
   4  -7  -6 101.911 35.0500   0
   4   7  -6 112.912 35.9831   1
  -4   8  -6 280.532 41.1763   2
   4  -8  -6 257.353 36.6713   0
   4   8  -6 308.009 42.0788   1
   4   8  -6 282.145 35.4828   2
   4  -9  -6-84.5394 34.0542   0
  -4   0  -7 1074.85 43.7138   2
   4   0  -7 1145.80 50.6123   2
  -4   1  -7 545.577 37.9295   2
   4   1  -7 508.196 37.7907   2
   4  -1  -7 538.374 38.4957   2
  -4   2  -7 557.448 41.0113   2
   4  -2  -7 556.278 38.6171   2
   4   2  -7 537.211 38.4738   2
  -4   3  -7 572.296 46.7663   2
   4  -3  -7 453.591 36.3211   2
   4   3  -7 501.335 38.7708   2
   4   4  -7 42.9075 25.8120   2
  -4   4  -7 33.2926 38.9648   2
   4   4  -7 9.85324 28.2965   1
   4  -4  -7 74.9568 27.8939   2
   4   5  -7 45.2793 27.2948   2
   4  -5  -7 44.5316 27.6025   0
   4   5  -7-3.84793 31.0803   1
   4   6  -7 71.0923 29.2731   2
  -4   6  -7 125.451 44.1139   2
   4  -6  -7 39.6856 30.5805   0
   4   6  -7 86.6109 35.1703   1
   4   7  -7 135.407 30.3720   2
  -4   7  -7 174.043 43.4143   2
   4  -7  -7 227.028 36.3021   0
   4   7  -7 148.487 38.7748   1
   4   8  -7 170.058 30.4983   2
   4  -8  -7 299.803 41.9202   0
   4   0  -8 1535.42 58.3883   2
   4  -1  -8 95.6365 29.6866   2
   4   1  -8 128.753 34.3042   2
  -4   1  -8 138.202 29.7767   2
   4  -2  -8 65.0699 29.6166   2
   4   2  -8 72.8995 28.8188   2
  -4   2  -8 131.838 31.2960   2
   4  -3  -8 148.772 30.7278   2
   4   3  -8 116.397 32.2831   2
  -4   3  -8 111.278 31.3000   2
   4   4  -8 68.8981 28.7863   2
  -4   4  -8 66.0050 36.7006   2
   4   5  -8 87.1690 28.5233   2
  -4   5  -8-1.30600 36.8253   2
   4   5  -8 27.9888 28.4977   1
   4   6  -8 126.313 32.3128   2
  -4   6  -8 234.730 51.0698   2
   4   6  -8 95.3610 34.9844   1
   4   0  -9 349.699 39.7135   2
   4  -1  -9 189.929 33.4451   2
   4   1  -9 72.6560 34.6477   2
   4   2  -9 266.706 35.4737   2
  -4   2  -9 210.344 33.7015   2
   4  -2  -9 319.236 36.3390   2
  -4   3  -9 46.5181 30.3312   2
  -4   4  -9 52.7900 35.0060   2
   4  -1 -10 190.255 35.8284   2
   5   0   0-2.80335 20.8586   0
   5   1   0 127.059 25.5784   0
   5  -1   0 133.047 21.7234   0
   5   2   0 202.292 28.5150   1
   5  -2   0 185.921 25.6905   0
   5   2   0 177.559 26.6888   0
   5  -3   0 837.534 38.5270   0
   5   3   0 878.814 41.6959   1
   5  -4   0 7.43361 27.0589   0
   5   4   0 30.8795 30.8960   1
   5   5   0 171.015 35.7391   1
   5  -5   0 115.778 29.9755   0
   5  -6   0 134.285 33.1851   0
   5   6   0 139.700 35.4297   1
   5  -7   0 540.625 45.6135   0
   5   7   0 629.483 45.0838   1
   5  -8   0 1053.47 54.1080   0
   5   8   0 1145.37 56.4728   1
   5  -9   0 137.658 38.7884   0
   5   9   0 97.5906 40.6071   1
   5  10   0 468.567 46.6578   1
   5 -10   0 353.295 43.2886   0
   5   0   1-7.59794 21.4282   0
   5   0  -1 5.71885 23.6833   0
   5   1  -1 3041.07 55.4118   1
   5   1   1 3086.24 57.7584   0
   5   1  -1 3155.56 59.7188   0
   5  -1   1 3093.87 57.5019   0
   5  -1  -1 3032.90 59.4841   0
   5   2  -1 847.089 36.8852   1
   5   2  -1 856.629 36.9608   0
   5  -2   1 877.363 35.6439   0
   5  -2  -1 834.097 38.9471   0
   5   3  -1 256.545 31.9459   1
   5  -3   1 193.235 26.7844   0
   5  -3  -1 206.174 30.6249   0
   5  -4   1 2188.13 56.5880   0
   5  -4  -1 2092.95 59.0297   0
   5   4   1 1997.46 57.7848   1
   5   4  -1 1971.50 56.7351   1
   5   5   1 63.8183 33.6834   1
   5   5  -1 66.1723 33.5033   1
   5  -5  -1 97.4523 30.8218   0
   5  -5   1 48.1647 26.6931   0
   5  -6  -1 542.367 42.1293   0
   5  -6   1 518.356 39.8387   0
   5   6   1 528.261 42.5491   1
   5   6  -1 528.405 42.2789   1
   5  -7  -1 1980.06 66.5101   0
   5  -7   1 2125.64 64.1832   0
   5   7   1 2000.65 64.9747   1
   5   7  -1 1974.03 63.8828   1
   5  -8  -1 220.337 38.2298   0
   5  -8   1 256.123 38.7828   0
   5   8   1 244.846 40.5668   1
   5   8  -1 164.546 37.3275   1
   5  -9  -1 644.872 49.0863   0
   5  -9   1 542.407 45.2360   0
   5   9   1 710.091 49.4980   1
   5   9  -1 639.477 46.9321   1
   5 -10  -1 63.6816 37.6421   0
   5 -10   1 47.0266 29.6424   0
   5  10   1 84.9635 34.9198   1
   5  10  -1 31.1274 34.7651   1
   5 -11   1 95.4503 30.4531   0
   5   0   2-3.19987 19.1954   0
   5   0  -2 11.4905 22.9995   0
   5   0  -2-3.18344 17.8962   1
   5   1   2 569.597 30.6139   0
   5   1  -2 516.457 27.6556   1
   5   1  -2 522.463 32.0871   0
   5  -1   2 560.500 30.2405   0
   5  -1  -2 525.269 33.4254   0
   5   2  -2 3019.93 60.9439   2
   5   2  -2 2858.82 57.1219   1
   5   2  -2 2901.89 59.8297   0
   5  -2   2 2908.56 54.9830   0
   5  -2  -2 2930.84 63.1513   0
   5  -3   2 1473.99 43.9973   0
   5  -3  -2 1471.59 48.9482   0
   5   3  -2 1579.12 48.7244   1
   5   3  -2 1565.08 45.8416   2
   5   3  -2 1507.94 46.4860   0
   5  -4  -2 1835.50 56.9416   0
   5  -4   2 1841.98 52.1374   0
   5   4  -2 1703.77 51.8257   1
   5   4  -2 1766.77 47.8102   2
   5  -5  -2 1080.69 47.2753   0
   5  -5   2 968.904 40.6972   0
   5   5  -2 1075.31 47.4174   1
   5   5  -2 1058.12 38.4995   2
   5  -6  -2 490.192 40.3840   0
   5  -6   2 505.563 37.6883   0
   5   6  -2 538.902 41.9108   1
   5  -7  -2 142.145 35.6713   0
   5  -7   2 157.876 29.5607   0
   5   7   2 102.111 33.5764   1
   5   7  -2 194.974 35.7602   1
   5  -8  -2 466.248 44.0868   0
   5   8   2 515.011 44.0726   1
   5   8  -2 477.167 42.9877   1
   5  -9  -2 450.407 47.5504   0
   5   9   2 396.117 42.3654   1
   5   9  -2 476.834 45.3858   1
   5 -10  -2 3.03846 38.1930   0
   5  10   2-27.4017 32.3520   1
   5  10  -2-21.2685 33.5352   1
   5   0   3-12.6420 18.1007   0
   5   0  -3-50.5155 24.2226   0
   5   0  -3 1.66640 17.2367   1
   5   1  -3 1749.31 42.9157   1
   5   1  -3 1827.63 49.9160   2
   5   1   3 1782.91 43.9406   0
   5   1  -3 1778.12 48.3319   0
   5  -1   3 1806.54 42.2940   0
   5  -1  -3 1714.26 48.4395   0
   5   2  -3-2.71658 24.1692   2
   5   2  -3 42.9634 22.5790   0
   5  -2   3-8.82859 19.6976   0
   5  -2  -3 1.03299 24.6509   0
   5   2  -3-5.77792 21.8723   1
   5  -3   3 523.045 30.8781   0
   5  -3  -3 542.025 38.1312   0
   5   3  -3 556.685 34.3727   1
   5   3  -3 482.741 31.4927   2
   5   3  -3 491.119 33.6676   0
   5  -4  -3 417.711 36.8940   0
   5   4  -3 401.270 34.7621   1
   5   4  -3 389.086 30.2217   2
   5  -5  -3 451.673 38.0333   0
   5   5  -3 550.340 38.2728   1
   5   5  -3 475.209 32.6637   2
   5  -6  -3 1105.76 52.3644   0
   5   6  -3 1145.40 50.1617   1
   5  -7  -3 1105.05 54.1704   0
   5   7  -3 1082.94 52.0579   1
   5  -8  -3 400.032 41.7516   0
   5   8  -3 374.601 42.1328   1
   5  -9  -3 34.5063 36.3160   0
   5   9  -3 111.317 35.0115   1
   5   0  -4-8.03977 24.7239   2
   5   0  -4-13.1489 23.8222   0
   5   1  -4 528.194 27.9031   1
   5   1  -4 551.934 35.0778   2
   5   1  -4 625.649 34.1273   0
   5  -1  -4 653.102 36.8671   0
   5  -2  -4 659.681 38.0419   0
   5   2  -4 578.483 31.3451   1
   5   2  -4 613.020 36.5341   2
   5   2  -4 610.914 35.1664   0
   5   3  -4 170.972 27.2603   1
   5  -3  -4 240.372 34.8726   0
   5   3  -4 203.751 29.5540   2
   5   3  -4 238.763 29.0980   0
   5  -4  -4 771.431 44.2013   0
   5   4  -4 748.633 39.6513   1
   5   4  -4 668.448 36.8301   0
   5   4  -4 726.356 38.4630   2
   5  -5  -4 222.263 33.0088   0
   5   5  -4 197.760 33.1624   1
   5   5  -4 233.565 30.1682   2
   5   6  -4 34.2045 25.4383   2
   5  -6  -4 61.6731 35.5833   0
   5   6  -4 88.9219 33.5636   1
   5  -7  -4 51.2497 34.1099   0
   5   7  -4 77.6076 32.8331   1
   5  -8  -4 175.830 37.4694   0
   5   8  -4 161.294 35.3188   1
   5  -9  -4-4.61626 35.1273   0
   5   9  -4 12.0975 37.9637   1
   5   0  -5 2.91491 26.4412   2
   5   0  -5 21.3051 24.0444   0
   5  -1  -5 269.979 31.4323   2
   5   1  -5 295.420 31.8431   2
   5   1  -5 292.373 29.9568   0
   5  -1  -5 276.864 32.8931   0
   5  -2  -5 264.896 37.2094   0
   5   2  -5 233.066 30.6795   2
   5   2  -5 231.694 28.9673   0
   5  -3  -5 567.210 43.7450   0
   5   3  -5 477.769 34.6011   1
   5   3  -5 524.151 37.5694   2
   5   3  -5 473.084 35.9835   0
   5  -4  -5 436.151 41.1143   0
   5   4  -5 388.380 35.8625   1
   5   4  -5 394.077 35.9656   2
   5   4  -5 419.674 34.0103   0
   5  -5  -5 433.122 42.1924   0
   5   5  -5 348.295 39.1144   1
   5   5  -5 397.379 36.8519   0
   5   5  -5 378.207 34.9992   2
   5   6  -5 17.8789 25.2642   2
   5  -6  -5 25.6292 37.0194   0
   5   6  -5 44.5897 29.1798   0
   5   6  -5 14.1639 33.7509   1
   5   7  -5 87.4249 27.3372   2
   5  -7  -5 120.541 38.7783   0
   5   7  -5 61.3851 39.8925   1
   5  -8  -5 57.0190 39.0927   0
   5   8  -5 5.12541 36.3738   1
   5   0  -6-2.68481 28.3449   2
   5   0  -6 186.350 17.4469   0
   5  -1  -6 44.2568 27.9936   2
   5   1  -6 60.2493 30.4983   2
   5   1  -6 40.3264 23.7965   0
   5  -1  -6 34.2087 29.7217   0
   5  -2  -6 1051.21 51.7953   0
   5  -2  -6 910.715 46.3611   2
   5   2  -6 1015.86 48.3838   2
   5   3  -6 15.9319 28.3996   2
   5  -3  -6 6.71515 32.5827   0
   5  -4  -6 101.526 36.7981   0
   5   4  -6 90.0363 30.5086   2
   5   4  -6 29.3166 27.5554   1
   5  -5  -6 607.894 48.4324   0
   5   5  -6 579.944 42.8278   1
   5   5  -6 552.410 39.5422   2
   5  -6  -6 317.816 44.9798   0
   5   6  -6 338.637 39.6725   1
   5   6  -6 287.289 35.8998   2
   5  -7  -6 438.176 47.3952   0
   5   7  -6 476.161 47.7032   1
   5   7  -6 455.396 38.0163   2
   5  -8  -6 220.560 43.8586   0
   5   0  -7-21.5454 27.6940   2
   5  -1  -7 116.811 30.8628   2
   5   1  -7 63.7431 28.3435   2
   5  -2  -7 662.291 42.0880   2
   5   2  -7 654.890 42.8382   2
   5  -3  -7 414.520 37.5914   2
   5   3  -7 371.704 37.4468   2
   5  -4  -7-40.8512 31.0801   0
   5   4  -7 11.9324 29.9293   2
   5  -5  -7 325.673 41.6755   0
   5   5  -7 283.082 35.1312   1
   5   5  -7 334.900 36.2246   2
   5   6  -7 56.5403 27.6508   2
   5  -6  -7 107.381 38.5540   0
   5   6  -7-2.66978 35.6779   1
   5   7  -7-13.0600 29.2229   2
   5  -7  -7 47.3638 41.7681   0
   5   7  -7 46.6106 31.4436   1
   5   0  -8 62.3925 29.2480   2
   5  -1  -8 23.0009 30.8744   2
   5   1  -8 74.7175 28.9594   2
   5  -2  -8 121.708 30.4877   2
   5   2  -8 111.272 32.1789   2
  -5   2  -8 174.193 27.8857   2
   5  -3  -8 10.6136 29.3166   2
   5   3  -8 59.6052 28.5025   2
  -5   3  -8 20.4669 27.1260   2
   5   4  -8 63.2438 26.3037   2
  -5   4  -8 18.5076 39.2998   2
   5   6  -8 149.660 34.4185   1
   5   0  -9 48.5043 32.1011   2
   5  -1  -9 129.368 35.4624   2
   5  -2  -9-6.82284 30.4577   2
  -5   2  -9-23.9992 26.9302   2
   5  -3  -9-21.8934 32.9803   2
  -5   3  -9 70.9804 28.9999   2
   6   0   0 71.7961 26.8802   0
   6   1   0 1509.16 49.1084   0
   6  -1   0 1522.46 50.6966   0
   6   2   0 32.5010 26.3814   0
   6  -2   0 0.07914 27.5227   0
   6  -3   0 594.136 38.9667   0
   6   3   0 541.996 37.4376   0
   6   4   0 14.6865 33.3895   1
   6  -4   0 15.3507 30.2151   0
   6   5   0 303.931 42.0376   1
   6  -5   0 263.947 37.0918   0
   6  -6   0-7.24344 32.7974   0
   6   6   0 1.47895 35.9260   1
   6  -7   0-13.6898 36.3758   0
   6   7   0 19.3082 37.8124   1
   6  -8   0 71.2442 37.2277   0
   6   8   0 56.7001 35.4820   1
   6  -9   0 102.965 40.8228   0
   6   9   0 170.360 41.1742   1
   6   0   1 490.479 34.1899   0
   6   0  -1 490.544 36.9612   0
   6   1   1 702.238 38.0164   0
   6   1  -1 671.808 36.9721   0
   6  -1   1 738.049 38.9682   0
   6  -1  -1 734.962 41.1992   0
   6   2  -1 217.849 30.8669   1
   6   2   1 259.796 28.5700   0
   6   2  -1 247.637 29.6276   0
   6  -2   1 287.769 30.4203   0
   6  -2  -1 252.448 34.3101   0
   6   3  -1 163.926 29.3246   0
   6  -3   1 167.453 30.3422   0
   6   3  -1 158.715 33.6291   1
   6  -3  -1 186.782 35.0789   0
   6   4  -1 25.6628 32.7455   1
   6  -4   1 48.8350 30.0434   0
   6  -4  -1 37.4531 29.8880   0
   6  -5  -1 683.235 45.5754   0
   6  -5   1 672.936 44.9879   0
   6   5  -1 711.310 45.2165   1
   6  -6  -1 440.283 45.2304   0
   6  -6   1 424.628 41.3312   0
   6   6   1 390.228 41.7734   1
   6   6  -1 432.866 44.7579   1
   6  -7  -1 59.8738 39.5396   0
   6  -7   1 72.8248 35.4765   0
   6   7   1 142.444 39.0021   1
   6   7  -1 150.997 38.1879   1
   6  -8  -1 205.667 43.3756   0
   6  -8   1 241.619 40.5092   0
   6   8   1 181.088 40.4831   1
   6   8  -1 236.301 38.8960   1
   6  -9  -1-10.4882 40.3097   0
   6  -9   1-14.7945 31.0475   0
   6   9   1-28.4692 38.3449   1
   6   9  -1 72.4190 36.5087   1
   6   0   2 1033.63 40.9886   0
   6   0  -2 1102.01 46.6920   0
   6   1  -2 251.671 28.0720   1
   6   1   2 306.743 29.7095   0
   6   1  -2 289.193 34.2331   0
   6  -1   2 302.782 30.7144   0
   6  -1  -2 281.646 34.4700   0
   6   2  -2 623.252 36.8690   1
   6   2   2 616.704 36.2839   0
   6   2  -2 635.657 39.3063   0
   6  -2   2 620.721 36.2904   0
   6  -2  -2 677.915 41.4084   0
   6  -3   2 410.691 34.5208   0
   6  -3  -2 413.408 38.4320   0
   6   3  -2 446.494 36.6058   1
   6   3  -2 400.183 34.3339   0
   6  -4   2 494.100 38.0135   0
   6  -4  -2 478.913 44.4867   0
   6   4  -2 476.326 40.4363   1
   6   4  -2 337.659 33.6712   0
   6   5  -2 153.226 35.3778   1
   6  -5  -2 140.242 37.8080   0
   6  -5   2 195.150 32.1076   0
   6  -6  -2 466.339 47.2157   0
   6  -6   2 487.772 39.6177   0
   6   6  -2 497.062 43.9247   1
   6  -7  -2 393.114 48.4941   0
   6   7  -2 324.872 43.2324   1
   6  -8  -2 131.009 39.9438   0
   6   8  -2 142.758 38.9722   1
   6  -9  -2 440.419 52.0414   0
   6   9  -2 386.579 44.7864   1
   6   0   3 4556.88 73.6720   0
   6   0  -3 4644.38 84.8925   0
   6   1  -3 1878.28 48.1218   1
   6   1   3 1903.28 51.0043   0
   6   1  -3 1911.89 58.2064   0
   6  -1   3 1878.24 51.1937   0
   6  -1  -3 1731.86 54.9399   0
   6   2  -3 1086.12 43.7243   1
   6   2   3 1013.71 41.3953   0
   6   2  -3 1047.13 45.7930   0
   6  -2  -3 1120.22 49.4497   0
   6   3  -3 300.911 32.9883   1
   6  -3  -3 216.033 33.6826   0
   6   3  -3 265.492 31.5869   2
   6   3  -3 270.709 33.2137   0
   6   4  -3 63.0653 25.3762   0
   6   4  -3 57.3217 24.7729   2
   6   4  -3 47.6079 28.9709   1
   6  -4  -3 88.6239 37.8092   0
   6  -5  -3 680.420 47.1408   0
   6   5  -3 727.999 45.7244   1
   6   5  -3 655.747 40.7729   0
   6   5  -3 598.621 36.5250   2
   6  -6  -3 48.3578 37.7303   0
   6   6  -3 70.4307 35.2015   1
   6  -7  -3 32.0944 37.1901   0
   6   7  -3 80.4531 38.7858   1
   6  -8  -3 274.993 47.1726   0
   6   8  -3 179.660 42.4593   1
   6   0  -4 1194.83 48.0448   0
   6   1  -4 19.4261 27.6546   0
   6  -1  -4 52.7232 29.8069   0
   6   1  -4 5.29844 27.1574   2
   6  -2  -4 489.523 39.3857   0
   6   2  -4 496.288 32.0621   1
   6   2  -4 502.977 38.0742   2
   6   2  -4 498.438 38.3186   0
   6   3  -4 124.737 27.7880   2
   6   3  -4 142.193 30.1297   0
   6   3  -4 129.035 29.0460   1
   6  -3  -4 89.7463 34.3437   0
   6   4  -4 299.177 34.6563   1
   6   4  -4 262.172 32.0077   2
   6   4  -4 317.015 33.0591   0
   6  -4  -4 260.896 40.6877   0
   6   5  -4 141.252 38.1193   0
   6   5  -4 185.853 28.6868   2
   6   5  -4 241.434 36.9046   1
   6  -5  -4 221.979 41.7702   0
   6  -6  -4 468.626 48.3454   0
   6   6  -4 470.984 43.2173   1
   6   6  -4 399.046 37.9380   0
   6  -7  -4 69.7758 40.6732   0
   6   7  -4 81.2686 37.9862   1
   6  -8  -4 197.441 45.1560   0
   6   8  -4 208.510 43.7192   1
   6   0  -5 1069.29 48.4415   2
   6   0  -5 1190.70 49.9804   0
   6   1  -5 1088.67 49.3923   2
   6   1  -5 1261.49 50.7393   0
   6  -1  -5 1163.83 52.4842   0
   6   2  -5 75.0281 27.5131   2
   6   2  -5 65.1529 30.8434   0
   6  -2  -5 101.689 34.2309   0
   6  -3  -5 387.333 44.2607   0
   6   3  -5 304.691 33.3030   2
   6   3  -5 281.768 36.0458   0
   6   4  -5 53.9399 28.6247   2
   6   4  -5-5.01770 29.8767   0
   6   4  -5 37.2373 28.5056   1
   6  -4  -5 21.1705 36.2510   0
   6  -5  -5 227.052 42.3248   0
   6   5  -5 200.475 33.3879   0
   6   5  -5 126.572 30.5670   2
   6   5  -5 199.204 36.7049   1
   6  -6  -5 431.569 49.1618   0
   6   6  -5 433.835 41.0358   1
   6   6  -5 376.197 37.0419   0
   6   6  -5 295.966 36.1534   2
   6  -7  -5 95.2351 40.0077   0
   6   7  -5 56.4979 37.7053   1
   6   0  -6 171.847 28.2700   2
   6   0  -6 200.250 35.7977   0
   6  -1  -6 351.472 37.7851   0
   6  -1  -6 337.671 38.7700   2
   6   1  -6 331.466 38.9119   2
   6   1  -6 352.780 36.1144   0
   6   2  -6 143.480 32.0837   2
   6   2  -6 230.798 34.5280   0
   6  -2  -6 238.818 39.1900   0
   6  -3  -6 388.930 45.2634   0
   6   3  -6 305.376 36.0794   2
   6   4  -6 93.5854 31.3449   2
   6  -4  -6 86.4493 40.6572   0
   6  -5  -6 91.7363 35.6921   0
   6   5  -6 145.337 30.2171   2
   6   5  -6 115.109 31.5609   1
   6   6  -6 60.6001 29.0524   2
   6  -6  -6-9.62580 42.8967   0
   6   6  -6 75.8442 37.2121   1
   6   0  -7 451.259 41.6473   2
   6  -1  -7 66.9685 31.8818   2
   6   1  -7 89.0719 33.4270   2
   6   2  -7 43.2330 26.1051   2
   6   3  -7-66.6258 28.2591   2
   6  -3  -7 17.5381 33.8493   0
   6  -4  -7-42.6571 37.7645   0
   6   4  -7 69.2157 29.1235   2
   6   5  -7-2.07827 37.8437   2
   6  -5  -7 31.7927 38.6595   0
   6   6  -7 32.4705 32.1900   1
   6   0  -8 130.185 31.6538   2
   6  -1  -8 41.6713 29.4309   2
   6  -2  -8 30.4537 31.8162   2
   7   0   0-26.3753 29.5196   0
   7   1   0 58.9739 31.2610   0
   7  -1   0 43.4960 29.3789   0
   7   2   0 42.0142 28.3968   0
   7  -2   0 83.4669 32.8297   0
   7  -3   0 560.182 42.9391   0
   7   3   0 548.293 40.1182   0
   7   4   0 47.5078 27.4907   0
   7  -4   0 0.99811 32.5759   0
   7  -5   0 412.712 46.6087   0
   7   5   0 357.348 44.7391   1
   7  -6   0 353.292 46.0466   0
   7   6   0 350.550 46.7528   1
   7  -7   0 688.366 56.2648   0
   7   7   0 538.878 53.6761   1
   7  -8   0 141.887 42.0389   0
   7   0   1 10.9299 27.5616   0
   7   0  -1 5.36411 28.8736   0
   7   1   1 102.195 29.4097   0
   7   1  -1 89.5719 31.7219   0
   7  -1   1 90.5591 31.1498   0
   7  -1  -1 134.388 31.3409   0
   7   2   1 255.268 33.0097   0
   7   2  -1 288.655 33.7459   0
   7  -2   1 306.173 34.3589   0
   7  -2  -1 329.441 40.5970   0
   7  -3   1 477.357 38.3921   0
   7  -3  -1 530.323 45.4510   0
   7   3   1 485.379 37.8412   0
   7   3  -1 490.077 39.7292   0
   7   4  -1 211.685 34.4214   0
   7   4  -1 228.608 37.6860   1
   7  -4   1 242.823 39.4173   0
   7  -4  -1 241.414 41.4858   0
   7   4   1 197.806 34.6622   0
   7   5  -1 76.5220 36.6122   1
   7   5  -1 94.0736 31.7706   0
   7  -5  -1 74.8881 37.5561   0
   7  -5   1 125.577 37.6095   0
   7  -6  -1 407.664 47.3517   0
   7  -6   1 363.908 43.1566   0
   7   6  -1 337.909 44.8208   1
   7  -7  -1 54.4949 44.7506   0
   7  -7   1 84.1990 37.6310   0
   7   7  -1 69.3356 37.9617   1
   7  -8  -1 593.429 56.6306   0
   7  -8   1 401.532 40.0508   0
   7   0   2 21.5368 26.7439   0
   7   0  -2-15.4419 27.6125   0
   7   1   2 601.262 38.8874   0
   7   1  -2 582.617 42.0565   0
   7  -1   2 568.897 39.1446   0
   7  -1  -2 657.781 43.2538   0
   7   2   2 39.4253 30.3254   0
   7   2  -2 63.6952 29.8224   0
   7   2  -2 26.8915 26.5988   1
   7  -2   2 48.8339 30.2422   0
   7  -2  -2 86.1318 34.8329   0
   7   3   2 29.7668 25.7891   0
   7   3  -2 48.0881 29.9516   0
   7   3  -2 56.8809 31.3390   1
   7  -3   2 73.9563 31.3875   0
   7  -3  -2 76.8768 34.0245   0
   7  -4   2 505.773 44.2776   0
   7  -4  -2 501.321 45.8630   0
   7   4  -2 451.990 42.1497   1
   7   4  -2 426.441 38.9776   0
   7   5  -2-25.4159 29.0317   0
   7   5  -2 59.3818 35.8258   1
   7  -5  -2 59.3266 36.7677   0
   7  -6  -2 287.093 46.1942   0
   7   6  -2 178.486 40.6632   1
   7  -7  -2 625.257 58.1779   0
   7   7  -2 544.587 49.4801   1
   7   0   3 4.40223 26.3556   0
   7   0  -3-11.0557 32.5944   0
   7   1   3 298.827 33.1554   0
   7   1  -3 300.336 39.7602   0
   7  -1  -3 274.827 37.9569   0
   7   2   3 165.889 29.8488   0
   7   2  -3 154.110 33.2821   0
   7  -2  -3 141.833 35.3266   0
   7   2  -3 160.324 30.6984   1
   7   3   3-3.87493 23.3174   0
   7   3  -3 22.0359 30.6407   0
   7   3  -3 63.5892 29.5650   1
   7  -3  -3-3.89938 35.6036   0
   7   4  -3 187.867 34.0707   0
   7   4  -3 205.474 36.5002   1
   7  -4  -3 146.598 40.7421   0
   7   5  -3 92.4351 29.2527   0
   7   5  -3 230.314 38.9976   1
   7  -5  -3 273.549 44.1747   0
   7   6  -3 30.3826 28.9228   0
   7  -6  -3 91.7332 42.8485   0
   7   6  -3 96.4474 37.6800   1
   7  -7  -3 34.9855 41.8483   0
   7   7  -3-12.2672 35.9922   1
   7   0  -4 18.1807 32.0523   0
   7   1  -4 140.173 34.8367   0
   7  -1  -4 215.795 37.1307   0
   7   2  -4 60.0544 31.9646   0
   7  -2  -4 47.0920 34.2972   0
   7   3  -4-8.33948 29.3994   0
   7  -3  -4 33.6893 38.5940   0
   7   4  -4 55.8402 30.0223   0
   7   4  -4 121.780 32.3193   1
   7   4  -4 103.417 30.5519   2
   7  -4  -4 133.715 41.1150   0
   7   5  -4 48.3853 27.5098   2
   7   5  -4 139.501 31.8082   0
   7   5  -4 129.134 34.1666   1
   7  -5  -4 141.506 39.5857   0
   7   6  -4 202.513 35.5282   0
   7  -6  -4 143.880 41.4818   0
   7   6  -4 20.4472 37.7037   1
   7   7  -4 0.24256 29.3830   0
   7   0  -5 10.5622 29.9911   0
   7   1  -5 332.236 38.3037   0
   7  -1  -5 362.375 42.6294   0
   7   2  -5 65.1025 31.3469   0
   7  -2  -5-16.8993 35.1864   0
   7   2  -5 18.8981 28.3447   2
   7   3  -5 37.1940 29.4502   2
   7   3  -5 68.2948 33.8174   0
   7  -3  -5 81.2805 38.2146   0
   7   4  -5 108.242 31.4077   2
   7   4  -5 71.9175 30.8590   0
   7  -4  -5 65.2693 37.3760   0
   7  -5  -5 88.0767 40.7091   0
   7   5  -5 30.3552 27.3398   2
   7   5  -5 19.6271 31.3704   0
   7   5  -5 89.7825 33.5387   1
   7   6  -5 7.57236 29.3482   0
   7   6  -5-56.2165 32.2462   1
   7   0  -6 10.9912 33.9124   0
   7   1  -6 110.974 34.8391   0
   7  -1  -6 114.445 37.6927   0
   7   1  -6 102.886 30.5209   2
   7   2  -6 90.6704 31.5853   2
   7   2  -6 69.7536 34.2290   0
   7  -2  -6 142.249 35.7031   0
   7   3  -6 21.2593 29.0180   2
   7   3  -6 121.089 35.8752   0
   7  -3  -6 44.9772 45.0067   0
   7   4  -6-24.8015 28.9868   2
   7  -4  -6-4.67385 37.5239   0
   7  -2  -7 116.808 42.2480   0
   7  -3  -7 10.2731 35.9090   0
   8   0   0 73.5229 34.7198   0
   8   1   0 62.7228 32.3433   0
   8  -1   0 76.8651 35.0176   0
   8   2   0 15.0377 31.8934   0
   8  -2   0 22.7570 34.1151   0
   8   3   0 24.1026 29.1553   0
   8  -3   0 6.39204 34.8995   0
   8   4   0 36.7400 30.0742   0
   8  -4   0 108.945 40.9982   0
   8   5   0 101.936 31.1420   0
   8  -5   0 138.936 43.0796   0
   8  -6   0-11.9982 40.9711   0
   8   0   1 82.0001 34.2893   0
   8   0  -1 104.623 35.4317   0
   8   1   1 135.671 32.7809   0
   8   1  -1 135.621 36.2580   0
   8  -1   1 181.499 35.2442   0
   8  -1  -1 136.639 35.2708   0
   8   2   1 21.1500 28.8811   0
   8   2  -1 31.4781 33.0724   0
   8  -2   1 68.9303 33.5893   0
   8  -2  -1 23.5337 36.7310   0
   8   3   1-11.5479 29.9926   0
   8   3  -1-5.97938 30.9711   0
   8  -3   1-2.12148 33.1011   0
   8  -3  -1 49.8840 36.6385   0
   8   4   1 8.12292 29.3187   0
   8   4  -1 31.5901 30.8500   0
   8  -4   1 48.7068 35.8302   0
   8  -4  -1 39.7018 39.3543   0
   8   5   1 19.9262 31.1949   0
   8   5  -1 47.1007 31.8717   0
   8  -5  -1 43.4490 39.9491   0
   8  -5   1 77.9632 38.4541   0
   8  -6   1 147.646 39.0873   0
   8   6  -1 217.504 45.8051   1
   8  -6  -1 243.189 44.9034   0
   8  -7   1 65.6249 37.4061   0
   8   0   2 181.934 36.8555   0
   8   0  -2 147.503 35.7251   0
   8   1   2 141.634 33.0561   0
   8   1  -2 178.961 41.0446   0
   8  -1   2 143.891 32.2233   0
   8  -1  -2 152.389 37.7110   0
   8   2   2 38.9023 30.8259   0
   8   2  -2 107.663 34.7455   0
   8  -2   2 80.1791 33.3607   0
   8  -2  -2 82.5258 34.0019   0
   8   3   2 25.9954 29.8065   0
   8   3  -2 42.5860 32.0151   0
   8  -3   2 85.1618 34.3214   0
   8  -3  -2 59.6674 38.3410   0
   8   4   2 37.5273 29.2402   0
   8   4  -2 26.6914 29.5680   0
   8   4  -2-4.52225 31.3036   1
   8  -4  -2 45.0058 36.4667   0
   8   5  -2 129.899 32.9965   0
   8   5  -2 172.508 39.9379   1
   8  -5  -2 143.840 47.5619   0
   8   5   2 165.996 32.0814   0
   8   0  -3 659.525 49.2055   0
   8   1  -3 46.1976 35.9942   0
   8  -1  -3 105.052 37.7681   0
   8   2   3 34.0010 30.2499   0
   8   2  -3 110.855 37.3973   0
   8  -2  -3 140.395 42.3409   0
   8   3   3 27.6819 27.1940   0
   8   3  -3 7.95882 31.1874   0
   8  -3  -3 87.2833 41.9741   0
   8   4   3 137.546 33.5765   0
   8   4  -3 111.725 34.3288   0
   8   4  -3 103.191 34.9394   1
   8  -4  -3 148.980 47.2889   0
   8   5  -3 129.620 41.2951   1
   8   5   3 57.2834 27.8640   0
   8   0  -4 513.876 45.9851   0
   8   1  -4 933.940 54.4877   0
   8  -1  -4 1050.23 60.0414   0
   8   2  -4 76.6824 37.6509   0
   8  -2  -4 70.9903 42.0552   0
   8   3  -4 141.643 37.2251   0
   8  -3  -4 215.512 44.3621   0
   8   4  -4 14.0027 33.8352   0
   8   5  -4 56.0022 37.9177   1
   8   0  -5 410.537 47.2790   0
   8   1  -5-20.7131 38.8665   0
   8  -1  -5 44.7021 39.0709   0
   8   2  -5 309.628 40.7976   0
   8  -2  -5 142.952 43.7264   0
   8   3  -5 45.7820 37.7051   0
   9   0   0-63.2061 36.5699   0
   9   1   0 69.1377 37.9942   0
   9  -1   0 70.9554 34.9237   0
   9   2   0 76.3120 37.4466   0
   9  -2   0 133.634 40.6612   0
   9  -3   0 139.361 44.2578   0
   9   0   1-3.85449 34.5628   0
   9   0  -1 72.1302 38.5786   0
   9   1   1 18.4861 34.8584   0
   9   1  -1 5.60820 36.8045   0
   9  -1   1 26.8284 31.3522   0
   9  -1  -1-24.3067 37.3714   0
   9   2   1 2.77695 34.4098   0
   9  -2   1 10.5075 37.8869   0
   9  -2  -1-24.1333 39.0381   0
   9  -3   1 55.1282 33.0053   0
   9   0   2-23.1259 28.2205   0
   9   1   2-7.83485 28.9997   0
   9  -1   2 49.5651 27.8503   0
   9   2   2 27.9448 29.9489   0
   0   0   0    0.00    0.00   0
;
_shelx_hkl_checksum              89282
_shelx_res_file
;
TITL h2cg
CELL  0.71073  7.2700  9.907  8.551 90.00000 90.00000 90.00000
ZERR  4        0.0010  0.002  0.002  0.00000  0.00000  0.00000
LATT -1
SYMM -X, -Y, Z+ 0.50000
SYMM -X+ 0.50000, Y+ 0.50000, Z+ 0.50000
SYMM X+ 0.50000, -Y+ 0.50000, Z
SFAC C H N O
UNIT 12 24 16 12
PLAN 30
FMAP 2
OMIT -2 180.0
SIZE 0.50 0.24 0.20
TEMP 23.0
L.S. 20
ACTA
BOND $H
CONF
HTAB
WGHT    0.055000    0.022800
FVAR       4.63595
MOLE 1
N11   3    0.461811    0.181192    0.619841    11.00000    0.06193    0.04574 =
         0.04475   -0.00229   -0.00352   -0.00682
H11   2    0.503126    0.195220    0.721418    11.00000   -1.20000
N12   3    0.420335    0.276628    0.512648    11.00000    0.05000    0.03147 =
         0.05014   -0.00921    0.00288   -0.00484
H12   2    0.430575    0.351966    0.527999    11.00000   -1.20000
C13   1    0.350329    0.218510    0.384876    11.00000    0.03754    0.03575 =
         0.04574   -0.00722    0.00454   -0.00101
C14   1    0.345346    0.080031    0.412896    11.00000    0.04802    0.03214 =
         0.05339   -0.00910    0.00097   -0.00534
AFIX  43
H14   2    0.302454    0.013462    0.345440    11.00000   -1.20000
AFIX   0
C15   1    0.416162    0.061644    0.559455    11.00000    0.05754    0.03619 =
         0.06286    0.00078    0.00438   -0.00522
AFIX  43
H15   2    0.430291   -0.021175    0.609228    11.00000   -1.20000
AFIX   0
N131  3    0.296811    0.290378    0.260412    11.00000    0.06940    0.04735 =
         0.05624   -0.00105   -0.01236   -0.00595
H131  2    0.348642    0.370184    0.245842    11.00000   -1.20000
H132  2    0.263912    0.248634    0.183053    11.00000   -1.20000
MOLE 2
N21   3    0.392772    0.629674    0.417062    11.00000    0.06013    0.03242 =
         0.04273    0.00048   -0.00022    0.00198
O21   4    0.353573    0.565873    0.537557    11.00000    0.10672    0.03979 =
         0.04573    0.00430    0.01503    0.00274
O22   4    0.448020    0.570376    0.298148    11.00000    0.08181    0.03796 =
         0.04822   -0.00671    0.01043   -0.00025
O23   4    0.378356    0.755754    0.416469    11.00000    0.11879    0.02738 =
         0.06353   -0.00017    0.01484    0.00890
HKLF 4
REM  h2cg
REM R1 =  0.0359 for     806 Fo > 4sig(Fo)  and  0.0449 for all     942 data
REM    103 parameters refined using      1 restraints
END
WGHT      0.0550      0.0228
REM Instructions for potential hydrogen bonds
EQIV $1 -x+1, -y+1, z+1/2
HTAB N11 N21_$1
HTAB N11 O22_$1
HTAB N11 O23_$1
HTAB N12 O21
HTAB N12 O22_$1
HTAB N131 O22
EQIV $2 -x+1/2, y-1/2, z-1/2
HTAB N131 O21_$2
HTAB N131 O23_$2
REM Highest difference peak  0.152,  deepest hole -0.154,  1-sigma level  0.043
Q1    1   0.4955  0.7474  0.4215  11.00000  0.05    0.15
Q2    1   0.3420  0.5998  0.2941  11.00000  0.05    0.15
Q3    1   0.4618  0.2347  0.4152  11.00000  0.05    0.15
Q4    1   0.5855  0.2432  0.7850  11.00000  0.05    0.14
Q5    1   0.4737  0.5673  0.3939  11.00000  0.05    0.14
Q6    1   0.3759  0.5713  0.1694  11.00000  0.05    0.14
Q7    1   0.2676  0.5720  0.6208  11.00000  0.05    0.13
Q8    1   0.5010  0.5755  0.5257  11.00000  0.05    0.13
Q9    1   0.3167  0.2021  0.6306  11.00000  0.05    0.12
Q10   1   0.4768  0.0768  0.4227  11.00000  0.05    0.12
Q11   1   0.5127  0.4248  0.1675  11.00000  0.05    0.12
Q12   1   0.2807  0.2684  0.4975  11.00000  0.05    0.12
Q13   1   0.3644  0.5869  0.6781  11.00000  0.05    0.11
Q14   1   0.4095  0.7609  0.5617  11.00000  0.05    0.11
Q15   1   0.5094  0.7434  0.5848  11.00000  0.05    0.11
Q16   1   0.4353  0.2846  0.2978  11.00000  0.05    0.11
Q17   1   0.3453  0.2806  0.1551  11.00000  0.05    0.11
Q18   1   0.1519  0.2795  0.2932  11.00000  0.05    0.11
Q19   1   0.2704  0.5678  0.4764  11.00000  0.05    0.10
Q20   1   0.3334  0.2427  0.1721  11.00000  0.05    0.10
Q21   1   0.3871  0.6015  0.5438  11.00000  0.05    0.10
Q22   1   0.4624  0.2819  0.2220  11.00000  0.05    0.10
Q23   1   0.5314  0.5022  0.4783  11.00000  0.05    0.10
Q24   1   0.1936  0.2283  0.3715  11.00000  0.05    0.10
Q25   1   0.2181  0.1595  0.1827  11.00000  0.05    0.10
Q26   1   0.4770  0.2091  0.8380  11.00000  0.05    0.10
Q27   1   0.2936  0.7671  0.5188  11.00000  0.05    0.10
Q28   1   0.5459  0.2599  0.4755  11.00000  0.05    0.10
Q29   1   0.2161  0.7496  0.4224  11.00000  0.05    0.10
Q30   1   0.5532  0.6154  0.4222  11.00000  0.05    0.09
;
_shelx_res_checksum              9959
_shelxl_version_number           2.014
loop_
_space_group_symop_operation_xyz
'x, y, z'
'-x, -y, z+1/2'
'-x+1/2, y+1/2, z+1/2'
'x+1/2, -y+1/2, z'
loop_
_atom_site_type_symbol
_atom_site_label
_atom_site_fract_x
_atom_site_fract_y
_atom_site_fract_z
_atom_site_U_iso_or_equiv
_atom_site_adp_type
_atom_site_calc_flag
_atom_site_occupancy
_atom_site_disorder_assembly
_atom_site_disorder_group
N N11 0.4618(4) 0.1812(2) 0.6198(4) 0.0508(6) Uani d 1 . .
H H11 0.503(5) 0.195(3) 0.721(6) 0.061 Uiso d 1 . .
N N12 0.4203(3) 0.2766(2) 0.5126(3) 0.0439(6) Uani d 1 . .
H H12 0.431(4) 0.352(4) 0.528(4) 0.053 Uiso d 1 . .
C C13 0.3503(3) 0.2185(3) 0.3849(3) 0.0397(6) Uani d 1 . .
C C14 0.3453(4) 0.0800(2) 0.4129(4) 0.0445(7) Uani d 1 . .
H H14 0.3025 0.0135 0.3454 0.053 Uiso calc 1 . .
C C15 0.4162(4) 0.0616(3) 0.5595(5) 0.0522(8) Uani d 1 . .
H H15 0.4303 -0.0212 0.6092 0.063 Uiso calc 1 . .
N N131 0.2968(4) 0.2904(3) 0.2604(4) 0.0577(7) Uani d 1 . .
H H131 0.349(5) 0.370(5) 0.246(5) 0.069 Uiso d 1 . .
H H132 0.264(5) 0.249(4) 0.183(6) 0.069 Uiso d 1 . .
N N21 0.3928(3) 0.6297(2) 0.4171(3) 0.0451(6) Uani d 1 . .
O O21 0.3536(3) 0.56587(19) 0.5376(3) 0.0641(7) Uani d 1 . .
O O22 0.4480(3) 0.57038(18) 0.2981(3) 0.0560(6) Uani d 1 . .
O O23 0.3784(4) 0.75575(19) 0.4165(3) 0.0699(7) Uani d 1 . .
loop_
_atom_site_aniso_label
_atom_site_aniso_U_11
_atom_site_aniso_U_22
_atom_site_aniso_U_33
_atom_site_aniso_U_12
_atom_site_aniso_U_13
_atom_site_aniso_U_23
N11 0.0619(14) 0.0457(13) 0.0448(15) -0.0068(10) -0.0035(13) -0.0023(12)
N12 0.0500(13) 0.0315(10) 0.0501(15) -0.0048(9) 0.0029(13) -0.0092(12)
C13 0.0375(11) 0.0358(12) 0.0457(18) -0.0010(10) 0.0045(11) -0.0072(13)
C14 0.0480(13) 0.0321(13) 0.0534(18) -0.0053(11) 0.0010(15) -0.0091(12)
C15 0.0575(16) 0.0362(13) 0.063(2) -0.0052(12) 0.0044(16) 0.0008(14)
N131 0.0694(16) 0.0474(15) 0.0562(18) -0.0059(12) -0.0124(14) -0.0010(13)
N21 0.0601(13) 0.0324(11) 0.0427(13) 0.0020(9) -0.0002(12) 0.0005(12)
O21 0.1067(18) 0.0398(10) 0.0457(13) 0.0027(10) 0.0150(14) 0.0043(10)
O22 0.0818(14) 0.0380(10) 0.0482(13) -0.0002(9) 0.0104(12) -0.0067(10)
O23 0.1188(18) 0.0274(9) 0.0635(16) 0.0089(10) 0.0148(15) -0.0002(11)
loop_
_atom_type_symbol
_atom_type_description
_atom_type_scat_dispersion_real
_atom_type_scat_dispersion_imag
_atom_type_scat_source
C C 0.0033 0.0016 'International Tables Vol C Tables 4.2.6.8 and 6.1.1.4'
H H 0.0000 0.0000 'International Tables Vol C Tables 4.2.6.8 and 6.1.1.4'
N N 0.0061 0.0033 'International Tables Vol C Tables 4.2.6.8 and 6.1.1.4'
O O 0.0106 0.0060 'International Tables Vol C Tables 4.2.6.8 and 6.1.1.4'
loop_
_geom_angle_atom_site_label_1
_geom_angle_atom_site_label_2
_geom_angle_atom_site_label_3
_geom_angle_site_symmetry_1
_geom_angle_site_symmetry_3
_geom_angle
_geom_angle_publ_flag
C15 N11 N12 . . 107.7(3) ?
C15 N11 H11 . . 125(2) ?
N12 N11 H11 . . 127(2) ?
C13 N12 N11 . . 109.8(2) ?
C13 N12 H12 . . 127(3) ?
N11 N12 H12 . . 123(3) ?
N12 C13 N131 . . 122.1(2) ?
N12 C13 C14 . . 107.1(3) ?
N131 C13 C14 . . 130.8(3) ?
C15 C14 C13 . . 106.2(3) ?
C15 C14 H14 . . 126.9 ?
C13 C14 H14 . . 126.9 ?
N11 C15 C14 . . 109.3(3) ?
N11 C15 H15 . . 125.4 ?
C14 C15 H15 . . 125.4 ?
C13 N131 H131 . . 118(3) ?
C13 N131 H132 . . 117(3) ?
H131 N131 H132 . . 118(4) ?
O22 N21 O21 . . 120.9(2) ?
O22 N21 O23 . . 119.7(3) ?
O21 N21 O23 . . 119.4(3) ?
loop_
_geom_bond_atom_site_label_1
_geom_bond_atom_site_label_2
_geom_bond_site_symmetry_2
_geom_bond_distance
_geom_bond_publ_flag
N11 C15 . 1.334(4) ?
N11 N12 . 1.351(4) ?
N11 H11 . 0.93(5) ?
N12 C13 . 1.336(4) ?
N12 H12 . 0.76(4) ?
C13 N131 . 1.338(4) ?
C13 C14 . 1.393(4) ?
C14 C15 . 1.367(5) ?
C14 H14 . 0.9300 ?
C15 H15 . 0.9300 ?
N131 H131 . 0.88(4) ?
N131 H132 . 0.82(5) ?
N21 O22 . 1.241(4) ?
N21 O21 . 1.242(3) ?
N21 O23 . 1.253(3) ?
loop_
_geom_hbond_atom_site_label_D
_geom_hbond_atom_site_label_H
_geom_hbond_atom_site_label_A
_geom_hbond_site_symmetry_A
_geom_hbond_distance_DH
_geom_hbond_distance_HA
_geom_hbond_distance_DA
_geom_hbond_angle_DHA
_geom_hbond_publ_flag
N11 H11 O22 2_665 0.93(5) 2.44(3) 2.968(3) 116(3) no
N11 H11 O23 2_665 0.93(5) 1.94(5) 2.860(4) 170(3) no
N12 H12 O21 . 0.76(4) 2.19(4) 2.914(3) 158(3) no
N12 H12 O22 2_665 0.76(4) 2.59(3) 3.029(3) 119(3) no
N131 H131 O22 . 0.88(5) 2.16(5) 3.001(4) 159(4) no
N131 H132 O21 3_544 0.81(5) 2.36(4) 3.126(4) 157(4) no
N131 H132 O23 3_544 0.81(5) 2.50(5) 3.223(4) 148(4) no
loop_
_geom_torsion_atom_site_label_1
_geom_torsion_atom_site_label_2
_geom_torsion_atom_site_label_3
_geom_torsion_atom_site_label_4
_geom_torsion_site_symmetry_1
_geom_torsion_site_symmetry_2
_geom_torsion_site_symmetry_3
_geom_torsion_site_symmetry_4
_geom_torsion
_geom_torsion_publ_flag
C15 N11 N12 C13 . . . . -0.5(3) ?
N11 N12 C13 N131 . . . . 179.8(3) ?
N11 N12 C13 C14 . . . . 0.6(3) ?
N12 C13 C14 C15 . . . . -0.6(3) ?
N131 C13 C14 C15 . . . . -179.6(3) ?
N12 N11 C15 C14 . . . . 0.1(3) ?
C13 C14 C15 N11 . . . . 0.3(3) ?

_cod_database_fobs_code 2243702
