#------------------------------------------------------------------------------
#$Date: 2020-08-29 08:06:38 +0300 (Sat, 29 Aug 2020) $
#$Revision: 255741 $
#$URL: file:///home/coder/svn-repositories/cod/cif/2/24/35/2243559.cif $
#------------------------------------------------------------------------------
#
# This file is available in the Crystallography Open Database (COD),
# http://www.crystallography.net/. The original data for this entry
# were provided by IUCr Journals, http://journals.iucr.org/.
#
# The file may be used within the scientific community so long as
# proper attribution is given to the journal article from which the
# data were obtained.
#
data_2243559
loop_
_publ_author_name
'F\'abry, Jan'
'Samolov\'a, Erika'
_publ_section_title
;
 Layered alkali propanoates <i>M</i>^+^(C~2~H~5~COO)^{-^}; <i>M</i>^+^ =
 Na^+^, K^+^, Rb^+^, Cs^+^
;
_journal_coeditor_code           WM5573
_journal_issue                   9
_journal_name_full               'Acta Crystallographica Section E'
_journal_page_first              1508
_journal_page_last               1513
_journal_paper_doi               10.1107/S2056989020011469
_journal_volume                  76
_journal_year                    2020
_chemical_formula_iupac          '[Rb (C3 H5 O2)]'
_chemical_formula_moiety         'Rb, C3 H5 O2'
_chemical_formula_sum            'C3 H5 O2 Rb'
_chemical_formula_weight         158.5
_chemical_name_common            'Rubidium propionate'
_chemical_name_systematic
;
Poly[(\m~5~-propanoato)rubidium(I)]
;
_space_group_IT_number           2
_space_group_name_Hall           '-P 1'
_space_group_name_H-M_alt        'P -1'
_symmetry_cell_setting           triclinic
_symmetry_space_group_name_Hall  '-P 1'
_symmetry_space_group_name_H-M   'P -1'
_atom_sites_solution_primary     'charge flipping'
_cell_angle_alpha                80.038(10)
_cell_angle_beta                 81.465(10)
_cell_angle_gamma                88.987(10)
_cell_formula_units_Z            2
_cell_length_a                   4.1538(13)
_cell_length_b                   6.0008(16)
_cell_length_c                   11.182(3)
_cell_measurement_reflns_used    2269
_cell_measurement_temperature    240
_cell_measurement_theta_max      28.97
_cell_measurement_theta_min      4.194
_cell_volume                     271.47(13)
_computing_cell_refinement
;
SAINT (Bruker, 2017)
;
_computing_data_collection
;
APEX3 (Bruker, 2017)
;
_computing_data_reduction
;
SAINT (Bruker, 2017)
;
_computing_molecular_graphics
;
DIAMOND (Brandenburg, 2005)
;
_computing_publication_material
;
<i>JANA</i>2006 (Pet\<r\'i\<cek <i>et al.</i>, 2014)
;
_computing_structure_refinement
;
<i>JANA</i>2006 (Pet\<r\'i\<cek <i>et al.</i>, 2014)
;
_computing_structure_solution
;
<i>SUPERFLIP</i> (Palatinus & Chapuis, 2007)
;
_diffrn_ambient_temperature      240(2)
_diffrn_detector                 CCD
_diffrn_measured_fraction_theta_full 0.98
_diffrn_measured_fraction_theta_max 0.98
_diffrn_measurement_device       'Bruker D8 VENTURE Kappa Duo'
_diffrn_measurement_device_type  'Bruker D8 VENTURE Kappa Duo PHOTON 100 CMOS'
_diffrn_measurement_method       '\f and \w scans'
_diffrn_radiation_monochromator  'Quazar Mo multilayer optic'
_diffrn_radiation_probe          x-ray
_diffrn_radiation_source         'X-ray tube'
_diffrn_radiation_type           'Mo K\a'
_diffrn_radiation_wavelength     0.71073
_diffrn_reflns_av_R_equivalents  0.0688
_diffrn_reflns_av_unetI/netI     0.0813
_diffrn_reflns_limit_h_max       5
_diffrn_reflns_limit_h_min       -5
_diffrn_reflns_limit_k_max       8
_diffrn_reflns_limit_k_min       -7
_diffrn_reflns_limit_l_max       15
_diffrn_reflns_limit_l_min       -15
_diffrn_reflns_number            5050
_diffrn_reflns_theta_full        30.09
_diffrn_reflns_theta_max         30.14
_diffrn_reflns_theta_min         3.45
_diffrn_source                   'I\mS  micro-focus sealed tube'
_diffrn_standards_number         0
_exptl_absorpt_coefficient_mu    8.99
_exptl_absorpt_correction_T_max  0.7620
_exptl_absorpt_correction_T_min  0.1600
_exptl_absorpt_correction_type   multi-scan
_exptl_absorpt_process_details
;
(<i>SADABS</i>; Bruker, 2017)
;
_exptl_crystal_colour            colourless
_exptl_crystal_density_diffrn    1.9394
_exptl_crystal_description       plate
_exptl_crystal_F_000             152
_exptl_crystal_size_max          0.321
_exptl_crystal_size_mid          0.284
_exptl_crystal_size_min          0.032
_refine_diff_density_max         0.88
_refine_diff_density_min         -0.84
_refine_ls_extinction_method     none
_refine_ls_goodness_of_fit_gt    1.61
_refine_ls_goodness_of_fit_ref   1.36
_refine_ls_hydrogen_treatment    constr
_refine_ls_number_constraints    20
_refine_ls_number_parameters     55
_refine_ls_number_reflns         1568
_refine_ls_number_restraints     0
_refine_ls_R_factor_all          0.0878
_refine_ls_R_factor_gt           0.0467
_refine_ls_shift/su_max          0.0038
_refine_ls_shift/su_mean         0.0008
_refine_ls_structure_factor_coef Fsqd
_refine_ls_weighting_details     w=1/(\s^2^(I)+0.0004I^2^)
_refine_ls_weighting_scheme      sigma
_refine_ls_wR_factor_gt          0.0871
_refine_ls_wR_factor_ref         0.0950
_reflns_number_gt                963
_reflns_number_total             1568
_reflns_threshold_expression     I>3\s(I)
_iucr_refine_instructions_details
;
#m40
   11    0    0    1
 3.291216 0.000000 0.000000 0.000000 0.000000 0.000000      100000
 0.000000 0.000000                                          00
 0.000000 0.000000 0.000000 0.000000 0.000000 0.000000      000000
 0.000000 0.000000 0.000000 0.000000 0.000000 0.000000      000000
Rb1       1  2     1.000000 0.731654 0.716783 0.604114
 0.033372 0.019746 0.047083 0.000585-0.008678-0.006196      0111111111
O1        3  2     1.000000 0.784469 0.614330 0.350192
 0.047660 0.019173 0.048078-0.000491-0.013138-0.003885      0111111111
O2        3  2     1.000000 0.799784 0.982948 0.353424
 0.047312 0.021835 0.055875-0.001937-0.009117-0.010568      0111111111
C1        2  2     1.000000 0.772049 0.816699 0.301552
 0.021549 0.026683 0.036165-0.002687-0.003056-0.002762      0111111111
C2        2  2     1.000000 0.705427 0.872643 0.169429
 0.071430 0.061710 0.057480-0.001558-0.024399-0.001391      0111111111
C3        2  2     1.000000 0.688928 0.674004 0.105202
 0.133536 0.079487 0.049169-0.013124-0.030688-0.021833      0111111111
H1c2      4  1     1.000000 0.867601 0.979995 0.122034
 0.075663 0.000000 0.000000 0.000000 0.000000 0.000000      0000000000
H2c2      4  1     1.000000 0.505805 0.958462 0.166536
 0.075663 0.000000 0.000000 0.000000 0.000000 0.000000      0000000000
H1c3      4  1     1.000000 0.669326 0.727128 0.020563
 0.126253 0.000000 0.000000 0.000000 0.000000 0.000000      0000000000
H2c3      4  1     1.000000 0.883574 0.586403 0.110310
 0.126253 0.000000 0.000000 0.000000 0.000000 0.000000      0000000000
H3c3      4  1     1.000000 0.503336 0.581496 0.143673
 0.126253 0.000000 0.000000 0.000000 0.000000 0.000000      0000000000
----------------------------   s.u. block   ----------------------------
 0.008102 0.000000 0.000000 0.000000 0.000000 0.000000
 0.000000 0.000000
 0.000000 0.000000 0.000000 0.000000 0.000000 0.000000
 0.000000 0.000000 0.000000 0.000000 0.000000 0.000000
Rb1                0.000000 0.000122 0.000087 0.000049
 0.000286 0.000250 0.000335 0.000183 0.000203 0.000192
O1                 0.000000 0.000845 0.000586 0.000318
 0.002230 0.001943 0.002276 0.001706 0.001747 0.001597
O2                 0.000000 0.000862 0.000610 0.000336
 0.002253 0.002011 0.002424 0.001765 0.001850 0.001688
C1                 0.000000 0.001091 0.000871 0.000435
 0.002424 0.002855 0.002922 0.002143 0.002079 0.002249
C2                 0.000000 0.001613 0.001252 0.000550
 0.004796 0.005081 0.004272 0.004075 0.003545 0.003549
C3                 0.000000 0.002123 0.001379 0.000580
 0.007803 0.006294 0.004223 0.005667 0.004639 0.004033
H1c2               0.000000-0.100000-0.100000-0.100000
 0.000000 0.000000 0.000000 0.000000 0.000000 0.000000
H2c2               0.000000-0.100000-0.100000-0.100000
 0.000000 0.000000 0.000000 0.000000 0.000000 0.000000
H1c3               0.000000-0.100000-0.100000-0.100000
 0.000000 0.000000 0.000000 0.000000 0.000000 0.000000
H2c3               0.000000-0.100000-0.100000-0.100000
 0.000000 0.000000 0.000000 0.000000 0.000000 0.000000
H3c3               0.000000-0.100000-0.100000-0.100000
 0.000000 0.000000 0.000000 0.000000 0.000000 0.000000
--------------------------   Saved points   ----------------------------
    0
--------------------------   Fourier maxima   --------------------------
    1    1    1
max1      1  1     1.000000 0.475605 0.279174 0.398468      000  0  0  0
     0.88     0.45
max2      1  1     1.000000 0.501673 0.338295 0.338443      000  0  0  0
     0.84     0.44
max3      1  1     1.000000 0.277436 0.253979 0.386066      000  0  0  0
     0.79     0.38
max4      1  1     1.000000 0.139608 0.153278 0.450257      000  0  0  0
     0.76     0.34
max5      1  1     1.000000 0.334060 0.467717 0.608900      000  0  0  0
     0.65     0.33
max6      1  1     1.000000 0.305151 0.101653 0.596730      000  0  0  0
     0.72     0.32
max7      1  1     1.000000 0.028086 0.252498 0.424914      000  0  0  0
     0.71     0.29
max8      1  1     1.000000 0.389069 0.411331 0.328303      000  0  0  0
     0.62     0.26
max9      1  1     1.000000 0.108861 0.386595 0.586947      000  0  0  0
     0.45     0.25
max10     1  1     1.000000 0.268684 0.366225 0.599928      000  0  0  0
     0.37     0.25
--------------------------   Fourier minima   --------------------------
    1    1    1
min1      1  1     1.000000 0.346468 0.152622 0.396501      000  0  0  0
     0.75     0.38
min2      1  1     1.000000 0.498056 0.177921 0.434003      000  0  0  0
     0.70     0.34
min3      1  1     1.000000 0.128174 0.381009 0.371544      000  0  0  0
     0.76     0.33
min4      1  1     1.000000 0.071815 0.448013 0.487969      000  0  0  0
     0.67     0.31
min5      1  1     1.000000 0.197692 0.549060 0.453303      000  0  0  0
     0.51     0.28
min6      1  1     1.000000 0.338919 0.463561 0.389953      000  0  0  0
     0.85     0.27
min7      1  1     1.000000 0.443482 0.064677 0.425893      000  0  0  0
     0.49     0.27
min8      1  1     1.000000 0.218255 0.082146 0.427734      000  0  0  0
     0.72     0.26
min9      1  1     1.000000 0.452283 0.062490 0.478582      000  0  0  0
     0.45     0.24
min10     1  1     1.000000 0.263183 0.671797 0.492409      000  0  0  0
     0.41     0.24
------------------------------------------------------------------------
#m50
Version Jana2006
title
cell 4.1538 6.0008 11.1823 80.038 81.465 88.987
esdcell 0.0013 0.0016 0.003 0.01 0.01 0.01
spgroup P-1 2 1
lattice P
symmetry x y z
symmetry -x -y -z
unitsnumb 2
chemform Rb C3 O2 H5
formtab -62
atom Rb atradius 2.5 color 255000153
atom C atradius 0.77 color 128073041
atom O atradius 0.74 color 254003000
atom H atradius 0.46 color 255204204
roundmethod 1
end
*******************************************************************************
contour
end contour
dist
  angles 1 lsttype 1 dmin 1.7 dmax 3.4
  bondval Rb O 2.26 0.37
end dist
fourier
  maptype 6
end fourier
refine
  fsquare 1
  keep hydro tetrahed C2 2 2 C1 C3 0.97 H1c2 H2c2
  keep ADP riding C2 1.2 H1c2 H2c2
  keep hydro tetrahed C3 1 3 C2 0.96 H1c3 H2c3 H3c3
  keep ADP riding C3 1.5 H1c3 H2c3 H3c3
end refine
;
_cod_data_source_file            wm5573sup1.cif
_cod_data_source_block           III
_cod_original_cell_volume        271.48(13)
_cod_original_formula_sum        'C3 H5 O2 Rb1'
_cod_database_code               2243559
loop_
_space_group_symop_id
_space_group_symop_operation_xyz
1 x,y,z
2 -x,-y,-z
loop_
_atom_site_type_symbol
_atom_site_label
_atom_site_fract_x
_atom_site_fract_y
_atom_site_fract_z
_atom_site_U_iso_or_equiv
_atom_site_adp_type
_atom_site_calc_flag
_atom_site_refinement_flags
_atom_site_occupancy
_atom_site_site_symmetry_multiplicity
_atom_site_disorder_assembly
_atom_site_disorder_group
Rb Rb1 0.73165(12) 0.71678(9) 0.60411(5) 0.03307(18) Uani d . 1 2 . .
O O1 0.7845(8) 0.6143(6) 0.3502(3) 0.0379(13) Uani d . 1 2 . .
O O2 0.7998(9) 0.9829(6) 0.3534(3) 0.0410(14) Uani d . 1 2 . .
C C1 0.7720(11) 0.8167(9) 0.3016(4) 0.0285(17) Uani d . 1 2 . .
C C2 0.7054(16) 0.8726(13) 0.1694(6) 0.063(3) Uani d . 1 2 . .
C C3 0.689(2) 0.6740(14) 0.1052(6) 0.084(4) Uani d . 1 2 . .
H H1c2 0.867601 0.979995 0.122034 0.0757 Uiso d . 1 2 . .
H H2c2 0.505805 0.958462 0.166536 0.0757 Uiso d . 1 2 . .
H H1c3 0.669326 0.727128 0.020563 0.1263 Uiso d . 1 2 . .
H H2c3 0.883574 0.586403 0.11031 0.1263 Uiso d . 1 2 . .
H H3c3 0.503336 0.581496 0.143673 0.1263 Uiso d . 1 2 . .
loop_
_atom_site_aniso_label
_atom_site_aniso_U_11
_atom_site_aniso_U_22
_atom_site_aniso_U_33
_atom_site_aniso_U_12
_atom_site_aniso_U_13
_atom_site_aniso_U_23
_atom_site_aniso_type_symbol
Rb1 0.0334(3) 0.0197(3) 0.0471(3) 0.00058(18) -0.0087(2) -0.00620(19) Rb
O1 0.048(2) 0.0192(19) 0.048(2) -0.0005(17) -0.0131(17) -0.0039(16) O
O2 0.047(2) 0.022(2) 0.056(2) -0.0019(18) -0.0091(19) -0.0106(17) O
C1 0.022(2) 0.027(3) 0.036(3) -0.003(2) -0.003(2) -0.003(2) C
C2 0.071(5) 0.062(5) 0.057(4) -0.002(4) -0.024(4) -0.001(4) C
C3 0.134(8) 0.079(6) 0.049(4) -0.013(6) -0.031(5) -0.022(4) C
loop_
_atom_type_symbol
_atom_type_scat_dispersion_real
_atom_type_scat_dispersion_imag
_atom_type_scat_source
C 0.0033 0.0016 'International Tables Vol C tables 4.2.6.8 and 6.1.1.1'
H 0.0000 0.0000 'International Tables Vol C tables 4.2.6.8 and 6.1.1.1'
O 0.0106 0.0060 'International Tables Vol C tables 4.2.6.8 and 6.1.1.1'
Rb -0.9393 2.9676 'International Tables Vol C tables 4.2.6.8 and 6.1.1.1'
loop_
_diffrn_standard_refln_index_h
_diffrn_standard_refln_index_k
_diffrn_standard_refln_index_l
? ? ?
loop_
_exptl_crystal_face_index_h
_exptl_crystal_face_index_k
_exptl_crystal_face_index_l
_exptl_crystal_face_perp_dist
? ? ? ?
loop_
_geom_angle_atom_site_label_1
_geom_angle_atom_site_label_2
_geom_angle_atom_site_label_3
_geom_angle_site_symmetry_1
_geom_angle_site_symmetry_2
_geom_angle_site_symmetry_3
_geom_angle
_geom_angle_publ_flag
O1 C1 O2 . . . 125.5(5) ?
O1 C1 C2 . . . 118.7(5) ?
O2 C1 C2 . . . 115.7(5) ?
C1 C2 C3 . . . 115.7(6) ?
C1 C2 H1c2 . . . 109.47 ?
C1 C2 H2c2 . . . 109.47 ?
C3 C2 H1c2 . . . 109.47 ?
C3 C2 H2c2 . . . 109.47 ?
H1c2 C2 H2c2 . . . 102.39 ?
C2 C3 H1c3 . . . 109.47 ?
C2 C3 H2c3 . . . 109.47 ?
C2 C3 H3c3 . . . 109.47 ?
H1c3 C3 H2c3 . . . 109.47 ?
H1c3 C3 H3c3 . . . 109.47 ?
H2c3 C3 H3c3 . . . 109.47 ?
O1 Rb1 O1 . . 2_666 82.25(10) ?
O1 Rb1 O1 . . 2_766 88.15(10) ?
O1 Rb1 O2 . . . 43.93(10) ?
O1 Rb1 O2 . . 2_676 109.85(11) ?
O1 Rb1 O2 . . 2_776 116.72(10) ?
O1 Rb1 O1 2_666 . 2_766 93.20(10) ?
O1 Rb1 O2 2_666 . . 112.60(11) ?
O1 Rb1 O2 2_666 . 2_676 82.45(10) ?
O1 Rb1 O2 2_666 . 2_776 160.59(10) ?
O1 Rb1 O2 2_766 . . 116.19(10) ?
O1 Rb1 O2 2_766 . 2_676 160.58(10) ?
O1 Rb1 O2 2_766 . 2_776 83.87(11) ?
O2 Rb1 O2 . . 2_676 82.76(10) ?
O2 Rb1 O2 . . 2_776 85.67(11) ?
O2 Rb1 O2 2_676 . 2_776 93.94(11) ?
Rb1 O1 Rb1 . . 2_666 97.75(10) ?
Rb1 O1 Rb1 . . 2_766 91.85(10) ?
Rb1 O1 O2 . . . 67.30(14) ?
Rb1 O1 Rb1 2_666 . 2_766 93.20(10) ?
loop_
_geom_bond_atom_site_label_1
_geom_bond_atom_site_label_2
_geom_bond_site_symmetry_1
_geom_bond_site_symmetry_2
_geom_bond_distance
_geom_bond_publ_flag
Rb1 O1 . . 2.984(4) ?
Rb1 O1 . 2_666 2.877(4) ?
Rb1 O1 . 2_766 2.839(4) ?
Rb1 O2 . . 2.953(4) ?
Rb1 O2 . 2_676 2.862(4) ?
Rb1 O2 . 2_776 2.820(4) ?
Rb1 C1 . . 3.312(5) ?
O1 C1 . . 1.245(6) ?
O2 C1 . . 1.253(7) ?
C1 C2 . . 1.523(8) ?
C2 C3 . . 1.502(11) ?
C2 H1c2 . . 0.97 ?
C2 H2c2 . . 0.97 ?
C3 H1c3 . . 0.96 ?
C3 H2c3 . . 0.96 ?
C3 H3c3 . . 0.96 ?
loop_
_geom_torsion_atom_site_label_1
_geom_torsion_atom_site_label_2
_geom_torsion_atom_site_label_3
_geom_torsion_atom_site_label_4
_geom_torsion_site_symmetry_1
_geom_torsion_site_symmetry_2
_geom_torsion_site_symmetry_3
_geom_torsion_site_symmetry_4
_geom_torsion
_geom_torsion_publ_flag
O1 C1 C2 C3 . . . . -5.1(8) no
O2 C1 C2 C3 . . . . 177.0(5) no
loop_
_refln_index_h
_refln_index_k
_refln_index_l
_refln_observed_status
_refln_F_squared_meas
_refln_F_squared_calc
_refln_F_squared_sigma
1 0 0 o 35.69 35.35 2.12
2 0 0 o 4623.28 4654.98 93.96
3 0 0 o 39.44 31.21 7.07
4 0 0 o 479.42 502.94 16.66
5 0 0 < 27.20 19.03 15.47
-5 1 0 o 182.17 173.95 33.20
-4 1 0 < 16.80 18.10 11.65
-3 1 0 o 1424.48 1433.10 39.71
-2 1 0 o 26.24 21.92 4.67
-1 1 0 o 9230.90 8056.80 423.88
0 1 0 < 13.99 11.93 4.87
1 1 0 o 6668.91 6911.08 150.73
2 1 0 o 170.77 202.45 7.67
3 1 0 o 899.59 928.68 21.40
4 1 0 o 126.12 104.19 10.99
5 1 0 o 115.76 88.73 20.33
-5 2 0 < 4.85 7.03 29.96
-4 2 0 o 357.83 349.81 23.15
-3 2 0 < -18.83 2.05 13.57
-2 2 0 o 1235.37 1344.22 58.80
-1 2 0 o 228.84 181.51 19.11
0 2 0 o 2477.11 2165.41 121.76
1 2 0 o 1016.18 1025.24 24.19
2 2 0 o 962.09 1013.86 24.12
3 2 0 o 489.52 487.37 15.20
4 2 0 o 208.22 168.82 16.46
5 2 0 o 98.98 85.94 24.81
-5 3 0 < 119.17 101.02 55.01
-4 3 0 < -14.83 2.03 17.20
-2 3 0 o 309.88 203.50 28.34
-1 3 0 o 785.73 749.25 42.47
0 3 0 o 1519.64 1415.22 58.08
1 3 0 o 615.95 630.66 16.05
2 3 0 o 929.20 975.61 24.07
3 3 0 o 215.68 206.87 13.16
4 3 0 o 223.58 223.89 21.77
5 3 0 < 21.69 17.07 23.22
-4 4 0 o 262.34 194.36 30.28
-3 4 0 o 97.99 95.93 21.90
-2 4 0 o 474.93 531.35 40.16
-1 4 0 o 510.83 567.61 31.20
0 4 0 o 481.12 490.79 18.22
1 4 0 o 708.27 733.88 18.58
2 4 0 o 138.15 117.96 9.27
3 4 0 o 274.82 296.40 16.74
4 4 0 < 6.25 5.82 18.61
5 4 0 < 61.72 57.67 23.61
-4 5 0 < 50.77 29.36 40.99
-3 5 0 o 285.01 270.58 27.42
-2 5 0 o 198.10 185.15 20.34
0 5 0 o 372.01 361.66 16.95
1 5 0 o 49.76 40.60 10.72
2 5 0 o 295.67 294.02 15.07
3 5 0 < -11.05 3.48 13.05
4 5 0 o 99.51 105.08 23.47
-4 6 0 < 44.50 70.83 38.59
-3 6 0 o 111.70 85.80 23.82
-2 6 0 o 129.74 114.41 16.28
0 6 0 o 40.16 19.36 10.53
1 6 0 o 379.11 359.59 22.31
2 6 0 < -15.42 9.39 26.40
3 6 0 o 178.50 181.63 17.81
4 6 0 < 17.36 16.85 29.17
-3 7 0 < -2.49 23.35 17.31
-2 7 0 o 157.85 224.36 23.17
-1 7 0 < 28.16 11.52 27.60
0 7 0 o 527.23 403.70 26.98
1 7 0 < -12.00 0.41 19.39
2 7 0 o 277.85 253.82 35.27
3 7 0 < -46.52 8.98 38.31
-1 8 0 o 231.97 269.94 35.82
0 8 0 < 31.85 0.14 20.03
1 8 0 o 223.76 227.18 29.26
-1 -8 1 < 66.83 62.07 26.22
0 -8 1 o 66.37 45.32 21.69
1 -8 1 o 104.50 135.83 33.97
-2 -7 1 o 138.19 119.19 28.71
-1 -7 1 o 107.73 91.86 24.10
0 -7 1 o 278.13 274.49 31.02
1 -7 1 < 49.84 51.15 29.54
2 -7 1 o 198.93 228.49 32.50
3 -7 1 < -1.71 8.59 17.85
-3 -6 1 o 135.33 170.09 19.42
-1 -6 1 o 407.27 433.87 32.87
0 -6 1 o 178.06 148.12 15.69
1 -6 1 o 423.60 395.26 41.36
2 -6 1 < 11.45 25.09 15.57
3 -6 1 o 142.71 159.60 20.35
4 -6 1 < 11.17 0.10 38.50
-4 -5 1 o 128.31 135.73 24.70
-3 -5 1 o 181.48 147.69 15.80
-2 -5 1 o 520.37 526.41 19.52
-1 -5 1 o 200.36 163.70 14.75
0 -5 1 o 754.07 688.85 39.70
1 -5 1 o 72.18 19.97 21.23
2 -5 1 o 306.55 373.71 25.71
3 -5 1 < 3.79 7.60 19.02
4 -5 1 < 101.36 97.21 45.24
-4 -4 1 < 38.87 50.00 19.00
-3 -4 1 o 423.08 447.30 22.34
-2 -4 1 o 44.36 36.89 8.36
-1 -4 1 o 1240.33 1293.35 30.20
0 -4 1 < 5.95 7.34 6.63
1 -4 1 o 1205.23 1231.84 42.75
2 -4 1 < 34.53 66.18 30.00
3 -4 1 o 469.48 404.42 37.20
4 -4 1 < 50.95 46.80 27.17
5 -4 1 o 159.60 47.86 32.87
-5 -3 1 < 22.06 9.08 27.70
-4 -3 1 o 257.73 259.74 22.77
-3 -3 1 < -17.96 0.04 8.30
-2 -3 1 o 1392.71 1441.85 34.12
-1 -3 1 o 116.29 107.93 6.42
0 -3 1 o 3466.25 3200.74 111.29
1 -3 1 o 274.90 215.35 23.17
2 -3 1 o 1676.33 1444.01 84.18
3 -3 1 o 126.10 133.31 19.85
4 -3 1 o 218.68 188.13 16.07
5 -3 1 < 61.29 46.04 58.15
-5 -2 1 o 111.23 103.51 23.87
-4 -2 1 < -11.03 0.63 15.01
-3 -2 1 o 714.14 743.43 18.90
-2 -2 1 o 108.93 98.03 7.03
-1 -2 1 o 2576.04 2527.24 59.07
0 -2 1 o 305.18 346.95 11.33
1 -2 1 o 2654.34 2268.06 122.77
2 -2 1 o 339.92 336.37 17.66
3 -2 1 o 419.22 420.17 20.76
4 -2 1 o 228.12 197.87 14.28
5 -2 1 < 30.83 22.87 30.67
-5 -1 1 < 13.52 0.10 19.22
-4 -1 1 o 243.49 225.51 16.50
-3 -1 1 o 68.77 60.55 7.35
-2 -1 1 o 494.78 550.08 14.56
-1 -1 1 o 493.88 534.45 11.44
0 -1 1 o 221.43 235.52 5.79
1 -1 1 o 1616.10 1197.43 52.87
2 -1 1 o 260.96 285.51 9.24
3 -1 1 o 902.17 858.78 26.99
4 -1 1 o 39.51 41.68 11.65
5 -1 1 o 125.31 192.22 23.02
-5 0 1 o 56.47 63.08 17.80
-4 0 1 o 64.86 51.26 10.59
-3 0 1 o 155.32 157.38 9.14
-2 0 1 o 833.38 849.02 18.50
-1 0 1 o 88.09 63.11 5.73
1 0 1 o 22.31 13.21 2.02
2 0 1 o 2755.99 2860.93 51.62
3 0 1 o 47.11 37.22 6.20
4 0 1 o 675.74 633.05 19.65
5 0 1 < 0.78 1.21 17.30
-5 1 1 < 27.83 36.76 29.10
-4 1 1 o 97.52 113.61 24.49
-3 1 1 o 579.81 549.75 16.79
-2 1 1 o 132.49 140.46 6.60
-1 1 1 o 3470.57 3268.20 91.06
0 1 1 o 14.22 6.89 1.68
1 1 1 o 3746.95 3787.03 76.05
2 1 1 o 21.62 23.25 4.35
3 1 1 o 1218.98 1198.05 27.33
4 1 1 < -2.88 0.72 9.38
5 1 1 o 221.76 193.22 21.33
-5 2 1 < 61.20 60.01 48.00
-4 2 1 o 251.96 233.14 20.21
-3 2 1 o 290.04 263.37 21.63
-2 2 1 o 1186.26 1205.30 64.89
-1 2 1 o 503.46 414.36 29.63
0 2 1 o 2490.40 2242.88 80.25
1 2 1 o 43.64 34.97 4.03
2 2 1 o 1286.88 1227.96 31.16
3 2 1 o 47.12 39.60 7.18
4 2 1 o 342.44 351.21 22.51
5 2 1 < 23.22 26.38 22.26
-5 3 1 o 91.02 80.24 28.36
-4 3 1 o 132.22 98.83 18.61
-3 3 1 o 465.82 490.27 21.91
-2 3 1 o 232.89 195.72 25.57
-1 3 1 o 1245.34 1156.52 61.20
0 3 1 o 78.28 55.10 15.36
1 3 1 o 1401.57 1401.74 32.98
2 3 1 o 113.62 98.38 7.85
3 3 1 o 572.39 602.68 17.13
4 3 1 o 92.86 83.81 18.64
5 3 1 o 128.43 103.00 24.85
-5 4 1 < 43.20 13.42 54.09
-4 4 1 o 254.63 223.01 28.55
-3 4 1 < 4.71 25.17 26.86
-2 4 1 o 836.92 917.28 36.86
-1 4 1 < 27.14 3.52 11.54
0 4 1 o 1757.10 1694.87 57.38
1 4 1 o 38.65 28.90 6.24
2 4 1 o 1029.26 1041.73 26.85
3 4 1 o 85.06 78.61 11.60
4 4 1 o 194.54 198.77 22.54
5 4 1 < 54.65 26.78 32.13
-4 5 1 < -13.85 0.41 37.85
-3 5 1 o 454.25 493.16 47.17
-2 5 1 < -3.83 1.97 13.15
-1 5 1 o 1408.91 1280.67 69.60
0 5 1 < 4.02 12.35 7.21
1 5 1 o 1053.71 1089.09 37.92
2 5 1 o 33.14 36.40 9.93
3 5 1 o 281.05 262.90 18.32
4 5 1 < 26.22 33.72 21.63
-4 6 1 < 53.81 153.87 38.31
-2 6 1 o 451.90 497.92 26.58
0 6 1 o 664.72 588.37 27.00
1 6 1 o 106.99 78.05 13.19
2 6 1 o 208.99 208.99 23.73
3 6 1 o 50.21 71.60 13.86
4 6 1 < 33.10 20.38 22.54
-3 7 1 < 11.54 117.47 25.11
-2 7 1 o 50.63 64.19 15.83
0 7 1 o 210.74 192.68 25.11
1 7 1 o 125.82 115.85 20.77
2 7 1 o 171.32 186.37 25.11
3 7 1 < 6.19 21.95 20.27
-1 8 1 o 146.21 178.98 31.94
0 8 1 o 89.35 51.99 20.40
1 8 1 o 262.99 241.32 34.90
0 -8 2 o 105.05 119.41 27.70
-2 -7 2 < 4.43 1.84 26.40
0 -7 2 < 32.77 38.89 19.76
1 -7 2 o 195.97 202.87 34.34
2 -7 2 < 79.48 82.77 32.03
-3 -6 2 < 22.11 27.78 21.66
-2 -6 2 o 278.87 273.94 34.62
-1 -6 2 o 175.80 151.92 16.88
0 -6 2 o 534.14 514.61 25.06
1 -6 2 o 269.82 255.19 39.51
2 -6 2 o 263.83 293.51 23.72
3 -6 2 o 96.74 152.88 21.09
-4 -5 2 < 31.85 37.80 35.08
-3 -5 2 o 229.30 217.88 30.19
-2 -5 2 o 252.51 224.72 13.70
-1 -5 2 o 610.94 649.96 27.16
0 -5 2 o 433.76 496.53 28.80
1 -5 2 o 532.53 590.13 40.34
2 -5 2 o 351.60 402.10 30.09
3 -5 2 o 148.02 135.94 24.67
4 -5 2 o 126.97 139.82 27.74
-4 -4 2 o 103.48 109.96 19.89
-3 -4 2 o 175.94 173.88 19.72
-2 -4 2 o 327.05 339.96 14.72
-1 -4 2 o 646.58 657.08 18.20
0 -4 2 o 375.42 399.23 16.65
1 -4 2 o 1051.13 1010.90 55.38
2 -4 2 < 69.51 118.17 32.40
3 -4 2 o 668.78 510.13 48.64
4 -4 2 < 23.03 9.33 13.23
-5 -3 2 < 23.08 44.28 24.74
-4 -3 2 o 91.32 104.88 19.21
-3 -3 2 o 154.85 127.28 11.04
-2 -3 2 o 668.73 741.66 19.34
-1 -3 2 o 71.72 76.24 7.49
0 -3 2 o 2407.79 2213.89 77.97
1 -3 2 < 28.16 7.79 25.02
2 -3 2 o 1909.87 1713.49 96.56
3 -3 2 < 12.65 0.13 18.19
4 -3 2 o 394.53 393.84 19.50
5 -3 2 < 12.92 0.82 27.88
-5 -2 2 < 58.86 60.57 23.34
-4 -2 2 o 71.47 78.04 18.52
-3 -2 2 o 518.49 572.94 15.64
-2 -2 2 o 108.67 105.61 6.81
-1 -2 2 o 2816.60 3097.81 64.49
0 -2 2 < 8.31 4.30 4.63
1 -2 2 o 4721.51 3831.52 216.01
2 -2 2 o 33.51 30.66 11.16
3 -2 2 o 979.40 983.20 35.93
4 -2 2 < 27.25 22.01 10.60
5 -2 2 o 108.33 115.51 21.87
-5 -1 2 < 42.12 50.60 22.89
-4 -1 2 o 293.51 294.76 18.09
-3 -1 2 o 213.77 196.85 10.67
-2 -1 2 o 1609.71 1663.66 38.63
-1 -1 2 o 342.98 361.70 8.95
0 -1 2 o 4791.48 4625.02 88.39
1 -1 2 o 39.47 29.07 6.15
2 -1 2 o 1356.04 1352.22 32.26
3 -1 2 o 178.89 162.75 12.66
4 -1 2 o 227.89 214.27 14.53
5 -1 2 < 91.48 61.86 31.94
-5 0 2 o 124.62 105.13 19.09
-4 0 2 o 103.25 97.14 11.08
-3 0 2 o 628.60 616.33 16.41
-2 0 2 o 248.16 255.62 8.56
-1 0 2 o 1819.54 1987.53 34.28
0 0 2 o 11.72 5.09 2.05
1 0 2 o 1520.38 1706.73 31.28
2 0 2 o 564.31 602.08 12.39
3 0 2 o 321.06 319.70 10.56
4 0 2 o 327.59 281.30 14.83
5 0 2 < 35.79 40.22 13.76
-5 1 2 < -3.23 12.55 27.21
-4 1 2 o 228.92 245.32 16.35
-3 1 2 < 7.74 7.71 7.64
-2 1 2 o 1009.71 1046.67 23.90
-1 1 2 o 84.09 74.05 4.28
0 1 2 o 2408.10 2299.69 38.72
1 1 2 o 998.85 1028.06 19.21
2 1 2 o 718.71 771.76 15.20
3 1 2 o 612.13 582.35 16.20
4 1 2 o 132.40 108.42 10.78
5 1 2 o 153.32 138.40 36.56
-5 2 2 o 93.28 90.35 28.30
-4 2 2 < -5.03 13.99 20.49
-3 2 2 o 601.42 632.80 23.68
-2 2 2 o 224.16 238.32 12.48
-1 2 2 o 2631.91 2226.25 122.13
0 2 2 o 1154.88 1044.41 26.96
1 2 2 o 1500.22 1508.12 28.54
2 2 2 o 628.84 636.36 15.41
3 2 2 o 201.62 222.55 10.55
4 2 2 o 299.66 231.10 17.45
5 2 2 < 15.32 6.68 22.24
-5 3 2 < 14.08 12.73 29.81
-4 3 2 o 236.12 226.35 19.81
-3 3 2 o 200.52 187.78 14.81
-2 3 2 o 996.93 972.35 55.94
-1 3 2 o 824.59 842.99 43.48
0 3 2 o 1166.49 1025.90 27.86
1 3 2 o 869.28 910.60 21.40
2 3 2 o 165.92 187.51 7.85
3 3 2 o 399.57 416.48 14.41
4 3 2 < 7.48 3.82 17.11
5 3 2 o 121.57 111.60 23.74
-5 4 2 < 17.82 46.27 49.66
-4 4 2 o 141.66 83.59 17.59
-3 4 2 o 228.01 208.88 41.27
-2 4 2 o 597.15 612.80 40.16
-1 4 2 o 372.28 270.21 27.51
0 4 2 o 1734.25 1565.75 56.85
1 4 2 o 44.36 45.89 6.03
2 4 2 o 1062.54 1065.60 24.71
3 4 2 < 11.24 0.35 9.14
4 4 2 o 288.65 303.83 25.36
-4 5 2 < 42.74 33.20 39.51
-3 5 2 o 336.55 313.24 44.13
-2 5 2 o 59.35 48.20 18.28
0 5 2 < 9.60 11.50 7.04
1 5 2 o 1678.69 1673.20 56.89
2 5 2 < -10.09 0.04 9.13
3 5 2 o 611.58 620.10 25.28
4 5 2 < 2.72 1.60 20.30
-4 6 2 < 61.57 105.35 37.85
-3 6 2 < 11.54 15.18 23.91
-2 6 2 o 459.10 569.38 27.16
-1 6 2 < 19.02 6.53 19.57
0 6 2 o 1215.43 1081.50 42.43
1 6 2 < 19.57 0.45 10.82
2 6 2 o 623.08 648.20 40.44
3 6 2 < -12.77 7.03 13.04
4 6 2 o 150.33 144.10 27.20
-3 7 2 < 50.95 150.60 23.63
-2 7 2 < 0.14 2.85 15.24
0 7 2 o 41.22 7.10 10.57
1 7 2 o 360.65 340.07 30.28
2 7 2 < 36.00 36.10 20.31
3 7 2 o 126.70 131.55 21.19
0 8 2 o 287.59 140.84 21.28
1 8 2 o 87.97 64.83 21.42
-2 -7 3 < 56.49 45.02 29.08
-1 -7 3 o 166.25 164.98 27.51
0 -7 3 < 20.68 24.99 23.35
1 -7 3 o 151.85 198.89 35.27
2 -7 3 < 15.51 1.02 35.27
-3 -6 3 < 6.60 13.20 21.99
-2 -6 3 o 189.14 162.09 30.10
-1 -6 3 < 31.07 0.85 15.72
0 -6 3 o 382.11 379.10 22.49
1 -6 3 < 57.87 32.90 31.76
2 -6 3 o 252.09 311.27 27.74
3 -6 3 < 27.51 35.96 20.92
-4 -5 3 < 16.80 3.87 25.07
-3 -5 3 o 151.75 138.56 21.42
-2 -5 3 < 4.89 8.76 12.56
-1 -5 3 o 523.62 539.31 25.96
0 -5 3 o 150.00 126.49 12.60
1 -5 3 o 653.55 679.97 45.42
2 -5 3 o 120.00 164.30 32.77
4 -5 3 < 79.43 72.25 28.75
-4 -4 3 o 81.69 97.34 20.33
-3 -4 3 < 1.80 0.42 21.10
-2 -4 3 o 475.85 489.27 18.52
-1 -4 3 o 73.61 71.48 9.23
0 -4 3 o 823.21 804.18 42.37
1 -4 3 o 326.86 272.78 32.13
2 -4 3 o 425.08 435.64 43.85
3 -4 3 o 312.10 249.26 45.33
4 -4 3 o 109.85 88.43 16.17
5 -4 3 < 76.71 80.00 46.89
-5 -3 3 < 29.96 49.13 29.90
-4 -3 3 < 3.05 0.04 18.73
-3 -3 3 o 322.24 289.44 16.07
-2 -3 3 o 24.28 20.21 7.83
-1 -3 3 o 506.87 530.36 15.10
0 -3 3 o 258.05 285.68 13.47
1 -3 3 o 349.11 355.35 29.54
2 -3 3 o 639.05 572.11 49.66
3 -3 3 o 160.80 131.70 16.46
4 -3 3 o 314.04 301.21 18.78
5 -3 3 < 16.80 17.20 27.42
-5 -2 3 < -8.72 2.82 29.90
-4 -2 3 o 189.74 148.54 17.76
-3 -2 3 o 74.52 64.47 13.37
-2 -2 3 o 362.83 382.68 12.38
-1 -2 3 o 401.27 459.74 11.03
0 -2 3 o 398.90 422.39 11.04
1 -2 3 o 1300.69 1114.49 35.97
2 -2 3 o 256.15 256.97 15.42
3 -2 3 o 613.24 687.08 23.36
4 -2 3 o 51.12 50.27 11.42
5 -2 3 o 222.69 167.24 24.16
-5 -1 3 o 75.86 69.19 20.10
-4 -1 3 o 119.47 114.11 13.87
-3 -1 3 o 391.62 390.32 13.91
-2 -1 3 o 761.92 845.30 18.34
-1 -1 3 o 937.40 979.85 18.67
0 -1 3 o 1486.01 1582.01 28.13
1 -1 3 o 997.75 988.27 21.53
2 -1 3 o 980.58 989.87 24.58
3 -1 3 o 190.62 161.19 11.59
4 -1 3 o 334.27 310.20 18.05
5 -1 3 < 55.16 5.08 22.84
-5 0 3 < 38.04 70.07 29.98
-4 0 3 o 249.60 225.90 17.37
-3 0 3 o 598.67 614.03 17.85
-2 0 3 o 977.64 1066.18 24.89
-1 0 3 o 1770.07 1966.33 33.53
0 0 3 o 1612.87 1459.04 26.41
1 0 3 o 1019.34 1083.70 19.61
2 0 3 o 382.65 353.75 9.64
3 0 3 o 506.44 514.93 14.67
4 0 3 < 10.08 1.68 8.28
5 0 3 o 97.39 102.69 20.38
-5 1 3 < 64.57 70.89 28.60
-4 1 3 o 254.43 243.48 15.65
-3 1 3 o 298.25 311.85 15.30
-2 1 3 o 1264.35 1280.46 27.65
-1 1 3 o 592.24 595.09 12.73
0 1 3 o 2340.59 2490.50 40.48
1 1 3 o 166.79 158.61 4.93
2 1 3 o 1404.21 1425.33 27.43
3 1 3 < 6.26 5.50 6.13
4 1 3 o 315.77 324.39 15.07
5 1 3 < 35.91 15.33 33.05
-5 2 3 < 62.27 70.01 27.66
-4 2 3 < 32.59 52.51 20.95
-3 2 3 o 590.13 603.02 23.28
-2 2 3 o 33.21 27.37 7.69
-1 2 3 o 2814.20 2691.99 64.81
0 2 3 o 10.44 10.62 2.90
1 2 3 o 4020.14 3904.26 74.72
2 2 3 o 27.46 38.67 4.92
3 2 3 o 1024.87 1028.37 24.20
4 2 3 o 60.26 46.10 12.32
5 2 3 o 108.42 105.83 22.99
-5 3 3 < 43.11 8.85 29.73
-4 3 3 o 210.84 209.62 24.37
-3 3 3 < 19.20 1.79 11.03
-2 3 3 o 1221.57 1244.12 43.82
-1 3 3 < 27.46 12.14 10.65
0 3 3 o 3564.07 3061.67 81.53
1 3 3 o 52.76 35.96 4.78
2 3 3 o 1633.72 1650.73 35.14
3 3 3 o 118.62 100.89 8.89
4 3 3 o 222.24 229.97 22.49
5 3 3 < 58.66 45.51 23.25
-4 4 3 < 15.51 1.29 21.90
-3 4 3 o 302.41 342.68 43.11
-2 4 3 < 34.25 8.58 17.54
-1 4 3 o 1019.74 866.51 55.75
0 4 3 o 108.68 96.95 7.71
1 4 3 o 817.40 825.77 20.71
2 4 3 o 259.87 253.05 11.46
3 4 3 o 250.25 231.01 13.48
4 4 3 o 176.12 162.29 21.32
-4 5 3 < 48.09 80.42 37.76
-2 5 3 o 211.48 198.98 30.19
-1 5 3 o 180.46 161.04 28.43
0 5 3 o 212.55 212.71 12.52
1 5 3 o 494.18 507.68 21.55
2 5 3 o 129.79 118.06 10.33
3 5 3 o 383.27 395.73 20.79
4 5 3 < 5.45 20.43 19.86
-3 6 3 < 64.34 76.18 25.20
-2 6 3 o 103.48 134.02 20.86
-1 6 3 o 136.35 116.96 23.36
0 6 3 o 472.48 470.24 20.70
1 6 3 o 103.99 82.05 12.19
2 6 3 o 495.61 489.45 26.34
3 6 3 < 26.31 18.37 17.82
4 6 3 o 221.27 172.03 37.76
-3 7 3 < 0.55 63.06 23.82
-2 7 3 o 74.08 93.20 15.77
0 7 3 o 107.68 84.80 11.94
1 7 3 o 319.49 313.04 28.43
2 7 3 < 3.42 14.31 20.49
3 7 3 o 136.35 163.22 19.63
0 8 3 o 209.82 159.19 25.94
1 8 3 < 20.49 7.16 19.11
-2 -7 4 o 142.24 111.23 33.05
-1 -7 4 < 39.79 48.78 25.20
0 -7 4 o 181.62 171.22 26.07
1 -7 4 o 79.43 98.62 20.80
2 -7 4 < 99.14 92.50 39.05
-3 -6 4 < 77.45 96.56 39.70
-2 -6 4 < 19.94 24.88 26.59
-1 -6 4 o 169.48 162.25 26.13
0 -6 4 o 107.54 98.35 20.90
1 -6 4 o 99.69 91.95 17.41
2 -6 4 o 107.22 153.55 22.38
3 -6 4 < 29.73 15.42 24.02
-3 -5 4 < 16.43 26.10 22.26
-2 -5 4 o 164.49 125.67 16.99
-1 -5 4 o 138.74 131.60 17.53
0 -5 4 o 98.36 83.95 12.27
1 -5 4 o 249.70 296.82 23.01
2 -5 4 < -13.02 12.86 33.33
3 -5 4 o 157.75 211.12 41.91
4 -5 4 < 24.65 0.05 29.73
-4 -4 4 < 18.68 39.21 21.21
-3 -4 4 o 143.31 101.81 21.23
-2 -4 4 o 286.32 258.45 16.77
-1 -4 4 o 169.17 143.17 12.54
0 -4 4 o 622.85 598.15 25.47
1 -4 4 o 55.63 48.97 9.46
2 -4 4 o 391.11 453.11 52.15
3 -4 4 < -6.46 0.09 32.50
4 -4 4 o 111.26 125.68 13.66
-4 -3 4 < 50.80 62.92 19.87
-3 -3 4 o 292.78 283.80 23.22
-2 -3 4 o 198.39 193.41 11.94
-1 -3 4 o 953.74 954.78 28.75
0 -3 4 o 187.78 168.39 12.30
1 -3 4 o 895.79 849.72 23.19
2 -3 4 < 0.34 0.34 11.05
3 -3 4 o 284.08 270.97 24.46
4 -3 4 < 17.88 35.71 12.29
5 -3 4 o 70.52 42.01 19.62
-5 -2 4 < 13.20 20.08 24.69
-4 -2 4 o 150.28 141.22 20.34
-3 -2 4 o 104.62 72.01 10.35
-2 -2 4 o 761.07 813.37 19.42
-1 -2 4 o 65.58 70.56 5.48
0 -2 4 o 1662.97 1608.46 31.97
1 -2 4 o 53.72 46.44 10.54
2 -2 4 o 729.33 819.83 25.03
3 -2 4 o 199.72 192.43 16.25
4 -2 4 o 181.71 162.08 13.23
5 -2 4 < 77.45 78.17 28.80
-5 -1 4 < 17.01 42.79 25.01
-4 -1 4 < 23.45 2.34 16.03
-3 -1 4 o 431.63 404.62 19.06
-2 -1 4 o 27.33 28.45 6.41
-1 -1 4 o 1887.59 2085.30 36.06
0 -1 4 o 595.35 577.65 12.91
1 -1 4 o 3000.30 3105.68 52.05
2 -1 4 o 737.22 766.40 16.74
3 -1 4 o 734.50 750.63 21.68
4 -1 4 o 266.40 256.46 20.42
5 -1 4 o 108.51 79.84 29.75
-5 0 4 < 4.06 1.84 23.50
-4 0 4 o 216.34 167.71 19.94
-3 0 4 o 100.49 99.07 9.48
-2 0 4 o 1192.26 1240.30 26.56
-1 0 4 o 908.67 981.89 18.36
0 0 4 o 5480.14 5051.59 87.93
1 0 4 o 1681.28 1764.44 31.91
2 0 4 o 2114.24 2092.69 49.30
3 0 4 o 582.21 584.94 16.10
4 0 4 o 257.32 255.62 14.57
5 0 4 o 117.93 134.42 20.15
-5 1 4 < 92.63 61.22 31.55
-4 1 4 o 59.29 47.19 14.89
-3 1 4 o 478.01 469.00 16.75
-2 1 4 o 456.17 484.40 14.00
-1 1 4 o 1808.51 1803.85 34.70
0 1 4 o 1850.18 1828.94 35.03
1 1 4 o 1612.35 1684.20 33.57
2 1 4 o 1325.47 1257.27 29.37
3 1 4 o 292.60 293.84 11.13
4 1 4 o 340.76 374.49 16.51
5 1 4 < -1.85 24.26 23.73
-5 2 4 < 55.38 14.15 37.20
-4 2 4 o 157.91 141.57 19.05
-3 2 4 o 194.82 172.21 18.13
-2 2 4 o 364.71 379.56 17.32
-1 2 4 o 1186.72 1215.63 29.26
0 2 4 o 133.60 155.99 6.39
1 2 4 o 2361.54 2395.95 38.58
2 2 4 o 52.12 46.48 4.91
3 2 4 o 982.98 1000.31 23.57
4 2 4 < 10.36 10.60 12.38
5 2 4 o 196.71 189.05 23.77
-5 3 4 < 52.34 41.51 29.55
-4 3 4 o 115.02 78.49 17.86
-3 3 4 o 159.97 133.51 13.34
-2 3 4 o 636.16 655.37 22.37
-1 3 4 o 139.78 75.18 9.60
0 3 4 o 2803.15 2480.28 58.00
1 3 4 < 4.15 2.85 4.95
2 3 4 o 1645.71 1684.83 32.30
3 3 4 < -8.80 0.08 7.38
4 3 4 o 338.91 398.22 26.97
5 3 4 < -1.48 0.27 21.32
-4 4 4 < 61.11 68.27 22.65
-3 4 4 o 292.86 301.67 19.15
-2 4 4 o 212.22 144.72 31.67
-1 4 4 o 1357.91 1179.14 51.09
0 4 4 o 61.31 58.00 6.32
1 4 4 o 1379.19 1324.00 27.66
2 4 4 < -1.85 0.65 5.97
3 4 4 o 426.14 447.02 14.92
4 4 4 < 32.87 10.06 29.63
-4 5 4 o 96.05 99.52 23.50
-3 5 4 o 88.34 92.86 27.14
-2 5 4 o 401.18 420.68 36.74
-1 5 4 o 178.62 93.19 29.73
0 5 4 o 660.96 598.64 24.72
1 5 4 < -1.50 0.24 8.37
2 5 4 o 309.76 322.11 13.65
3 5 4 o 45.94 42.81 12.44
4 5 4 o 85.97 78.86 17.27
-3 6 4 < 74.68 141.62 25.20
-2 6 4 < 24.00 18.75 20.31
-1 6 4 o 371.17 319.89 41.08
0 6 4 < 7.25 5.21 8.78
1 6 4 o 280.22 281.30 17.21
2 6 4 o 89.96 70.25 11.72
3 6 4 o 123.97 108.49 19.92
4 6 4 o 110.59 56.31 25.55
-2 7 4 o 139.02 186.14 16.80
-1 7 4 < 15.14 21.40 27.88
0 7 4 o 292.25 290.91 19.04
1 7 4 o 76.43 69.43 18.46
2 7 4 o 183.32 159.99 25.66
3 7 4 o 71.40 58.19 19.61
0 8 4 o 57.51 56.38 18.09
1 8 4 o 172.62 142.29 23.45
-1 -7 5 < -28.57 0.19 28.40
0 -7 5 o 152.72 151.19 29.89
1 -7 5 < -2.08 9.15 22.76
2 -7 5 < 118.53 119.82 46.70
-2 -6 5 < 4.43 0.27 28.53
-1 -6 5 o 289.67 285.33 35.08
0 -6 5 < 27.38 4.33 15.43
1 -6 5 o 258.56 267.73 18.83
2 -6 5 < 2.68 24.50 35.82
3 -6 5 < 74.21 94.48 34.34
-3 -5 5 < -32.50 0.01 23.04
-2 -5 5 o 365.73 315.38 24.16
-1 -5 5 < 36.79 8.70 14.96
0 -5 5 o 453.88 453.06 27.03
1 -5 5 o 65.68 58.06 15.78
2 -5 5 o 436.90 231.38 37.39
3 -5 5 < 24.28 81.43 34.80
4 -5 5 < 73.48 47.84 35.63
-4 -4 5 < -11.54 3.03 28.39
-3 -4 5 o 220.90 202.58 24.26
-2 -4 5 o 75.20 50.46 14.14
-1 -4 5 o 543.93 529.16 19.37
0 -4 5 o 224.55 223.92 15.49
1 -4 5 o 517.67 527.72 19.34
2 -4 5 o 243.07 267.38 17.74
3 -4 5 o 188.03 185.93 22.82
4 -4 5 o 113.54 113.04 20.57
-4 -3 5 o 79.04 100.78 22.17
-3 -3 5 o 81.42 93.30 16.73
-2 -3 5 o 424.69 404.68 18.30
-1 -3 5 o 453.30 482.00 16.17
0 -3 5 o 801.29 814.58 19.28
1 -3 5 o 656.96 658.63 20.03
2 -3 5 o 477.84 488.31 30.77
3 -3 5 o 286.92 289.19 17.30
4 -3 5 o 60.50 72.77 19.50
5 -3 5 o 69.55 61.54 20.22
-4 -2 5 o 63.60 53.63 18.33
-3 -2 5 o 250.60 228.91 14.92
-2 -2 5 o 407.41 408.80 14.96
-1 -2 5 o 512.02 510.40 13.62
0 -2 5 o 894.72 857.04 18.72
1 -2 5 o 390.95 451.30 15.65
2 -2 5 o 560.80 555.53 23.04
3 -2 5 o 104.03 76.15 10.63
4 -2 5 o 213.57 183.95 17.43
5 -2 5 < 3.55 0.58 19.89
-5 -1 5 < 2.98 14.24 25.95
-4 -1 5 o 133.94 94.47 19.42
-3 -1 5 o 197.34 165.88 13.70
-2 -1 5 o 162.22 152.74 10.02
-1 -1 5 o 635.31 673.20 13.66
0 -1 5 < 11.22 5.68 4.75
1 -1 5 o 931.55 895.25 17.96
2 -1 5 < 5.17 9.49 6.83
3 -1 5 o 566.06 552.69 15.29
4 -1 5 < 27.23 16.22 12.44
5 -1 5 o 129.98 112.07 22.85
-5 0 5 < 36.93 29.12 31.67
-4 0 5 o 83.38 62.57 16.44
-3 0 5 o 61.71 42.11 11.23
-2 0 5 o 464.78 454.61 14.50
-1 0 5 o 56.30 39.48 6.00
0 0 5 o 1484.54 1392.13 25.05
1 0 5 o 410.87 402.90 10.29
2 0 5 o 1315.20 1376.20 26.01
3 0 5 o 158.84 157.87 9.46
4 0 5 o 384.12 361.56 16.63
5 0 5 < 40.49 47.03 16.27
-5 1 5 < 14.86 26.97 40.80
-4 1 5 < 33.81 18.79 16.16
-3 1 5 o 276.43 291.61 14.94
-2 1 5 < -1.74 0.53 6.79
-1 1 5 o 1304.36 1254.41 28.92
0 1 5 o 127.37 116.75 6.49
1 1 5 o 1844.19 1822.18 30.52
2 1 5 o 226.88 246.53 7.78
3 1 5 o 665.56 653.50 16.55
4 1 5 o 157.46 152.00 12.01
5 1 5 o 92.96 86.70 21.06
-5 2 5 < -1.80 6.02 30.64
-4 2 5 < 102.65 132.40 37.20
-3 2 5 < 26.25 10.64 12.58
-2 2 5 o 593.26 631.64 22.40
-1 2 5 < 14.22 3.60 5.76
0 2 5 o 1037.67 1019.81 18.24
1 2 5 o 59.25 59.91 4.47
2 2 5 o 590.90 580.92 13.04
3 2 5 o 293.33 291.67 11.13
4 2 5 o 154.52 127.06 17.05
5 2 5 o 129.24 128.63 22.37
-4 3 5 < 22.11 0.52 22.68
-3 3 5 o 278.68 252.07 20.37
-2 3 5 < 15.60 4.21 10.46
-1 3 5 o 548.96 502.37 17.75
0 3 5 o 77.33 76.98 5.86
1 3 5 o 473.14 469.05 11.44
2 3 5 o 409.84 408.93 11.89
3 3 5 o 223.89 184.41 14.78
4 3 5 o 267.93 276.89 23.14
5 3 5 < 33.37 26.35 21.08
-4 4 5 o 88.48 93.52 23.88
-3 4 5 o 52.22 45.40 13.24
-2 4 5 o 362.96 347.62 24.50
-1 4 5 o 307.71 262.11 15.60
0 4 5 o 660.87 591.49 23.71
1 4 5 o 502.87 512.65 15.57
2 4 5 o 356.22 373.73 12.16
3 4 5 o 342.28 363.77 16.21
4 4 5 < 41.17 64.67 29.08
5 4 5 < 110.59 94.94 49.01
-4 5 5 < 24.97 40.38 23.99
-3 5 5 o 111.70 184.24 17.81
-2 5 5 o 235.94 249.40 36.28
-1 5 5 o 517.42 505.75 20.54
0 5 5 o 550.77 499.93 17.27
1 5 5 o 453.88 473.87 18.81
2 5 5 o 346.08 365.62 13.55
3 5 5 o 93.58 102.00 11.43
4 5 5 o 134.62 122.74 16.74
-3 6 5 o 92.22 107.93 27.70
-2 6 5 o 162.74 193.06 24.93
-1 6 5 o 319.72 326.90 27.05
0 6 5 o 241.00 230.18 12.93
1 6 5 o 362.87 386.02 23.05
2 6 5 < 41.04 60.25 14.15
3 6 5 o 177.66 188.24 17.49
4 6 5 < 13.80 1.25 21.02
-2 7 5 o 90.46 157.40 25.02
-1 7 5 < 45.70 39.05 18.15
0 7 5 o 382.81 352.64 28.99
1 7 5 < 7.11 7.83 16.43
2 7 5 o 327.32 299.62 34.34
3 7 5 < 11.36 0.42 26.40
-1 8 5 o 150.55 207.54 26.40
0 8 5 < -3.69 0.05 15.69
1 8 5 o 320.78 281.35 33.05
0 -7 6 < 33.97 45.73 25.44
1 -7 6 < -5.82 33.18 28.98
-2 -6 6 < 40.25 30.21 31.57
-1 -6 6 o 108.83 126.12 26.77
0 -6 6 < 24.05 44.19 21.71
1 -6 6 o 140.80 199.99 16.72
2 -6 6 < 34.16 18.19 22.12
3 -6 6 < 71.08 111.18 36.56
-3 -5 6 < -6.09 14.64 40.07
-2 -5 6 o 170.28 164.13 19.63
-1 -5 6 < 15.83 27.19 22.81
0 -5 6 o 366.53 375.90 23.76
1 -5 6 < 6.07 11.75 13.36
2 -5 6 o 239.21 292.15 19.30
3 -5 6 < -22.06 0.21 34.71
4 -5 6 < 57.38 89.90 22.38
-3 -4 6 o 109.62 107.71 24.37
-2 -4 6 < 19.23 4.66 15.45
-1 -4 6 o 466.42 405.97 18.14
0 -4 6 < 0.30 5.78 11.73
1 -4 6 o 554.45 568.49 22.05
2 -4 6 < 37.85 50.62 13.88
3 -4 6 o 259.70 278.91 21.32
4 -4 6 < 31.30 39.15 22.31
-4 -3 6 < 35.45 52.61 23.11
-3 -3 6 < 15.67 0.21 17.63
-2 -3 6 o 370.37 321.02 22.61
-1 -3 6 o 72.59 60.53 9.60
0 -3 6 o 936.40 851.09 26.35
1 -3 6 o 263.14 286.91 17.43
2 -3 6 o 780.49 738.40 24.95
3 -3 6 o 199.02 215.43 17.85
4 -3 6 o 179.05 202.15 16.22
5 -3 6 < 56.17 51.08 21.57
-4 -2 6 < 10.82 0.56 18.92
-3 -2 6 o 253.29 231.87 21.47
-2 -2 6 o 47.82 38.08 10.46
-1 -2 6 o 943.70 959.12 19.66
0 -2 6 o 353.89 318.75 11.96
1 -2 6 o 1427.61 1333.88 35.90
2 -2 6 o 475.25 448.06 18.84
3 -2 6 o 460.74 468.06 20.25
4 -2 6 o 163.13 168.07 15.02
5 -2 6 < 53.68 60.44 20.98
-4 -1 6 o 126.56 143.31 22.76
-3 -1 6 < 28.43 7.79 12.79
-2 -1 6 o 652.03 662.70 18.96
-1 -1 6 o 80.16 67.77 7.62
0 -1 6 o 1361.44 1354.88 33.90
1 -1 6 o 332.97 328.81 11.38
2 -1 6 o 541.29 559.85 13.16
3 -1 6 o 282.95 318.01 13.76
4 -1 6 o 101.70 81.05 13.80
5 -1 6 o 121.67 94.56 23.24
-5 0 6 o 159.60 61.26 50.30
-4 0 6 < 33.72 3.88 20.97
-3 0 6 o 363.35 323.35 17.35
-2 0 6 o 44.67 36.86 8.11
-1 0 6 o 633.33 679.92 16.04
0 0 6 o 189.77 193.12 10.04
1 0 6 o 410.77 419.97 18.13
2 0 6 o 457.62 489.61 12.12
3 0 6 o 75.18 53.11 7.48
4 0 6 o 258.15 239.56 14.78
5 0 6 < -6.42 3.30 13.76
-5 1 6 < 2.77 4.73 50.77
-4 1 6 o 154.18 121.72 17.71
-3 1 6 o 74.84 72.69 11.15
-2 1 6 o 363.33 364.35 14.24
-1 1 6 o 449.81 461.99 13.10
0 1 6 o 355.11 349.64 11.34
1 1 6 o 976.02 906.93 22.69
2 1 6 o 81.60 70.81 6.08
3 1 6 o 453.28 458.98 14.01
4 1 6 < 0.30 2.87 15.20
5 1 6 o 92.08 94.04 20.03
-4 2 6 < 66.37 64.01 24.41
-3 2 6 o 203.02 183.11 17.00
-2 2 6 o 531.62 509.14 17.88
-1 2 6 o 458.37 421.79 14.10
0 2 6 o 1467.10 1399.28 31.43
1 2 6 o 164.22 168.37 8.81
2 2 6 o 693.84 704.94 14.94
3 2 6 < 7.63 5.47 6.95
4 2 6 o 161.40 157.57 18.33
5 2 6 < 8.72 4.99 19.54
-4 3 6 < 63.79 59.91 24.67
-3 3 6 o 243.61 239.85 24.59
-2 3 6 o 253.48 185.38 16.99
-1 3 6 o 981.82 924.60 27.58
0 3 6 o 133.40 123.55 7.40
1 3 6 o 938.04 934.40 18.76
2 3 6 < 3.46 0.93 5.98
3 3 6 o 290.99 283.32 12.82
4 3 6 < 23.03 31.45 16.55
5 3 6 < 41.68 47.75 21.83
-4 4 6 < 47.13 63.23 26.35
-3 4 6 < 14.89 24.51 13.99
-2 4 6 o 405.30 387.94 20.68
-1 4 6 o 35.38 0.80 9.72
0 4 6 o 1040.83 856.78 29.86
1 4 6 o 78.94 78.35 7.71
2 4 6 o 570.10 584.08 16.93
3 4 6 o 107.82 120.02 11.46
4 4 6 o 143.21 150.80 19.87
5 4 6 < 44.68 46.74 23.94
-4 5 6 < -33.05 0.32 32.87
-3 5 6 o 82.47 133.45 15.29
-2 5 6 o 46.98 19.42 12.40
-1 5 6 o 532.19 538.52 22.22
0 5 6 o 204.71 171.47 12.59
1 5 6 o 738.80 731.95 21.93
2 5 6 o 219.25 213.19 11.82
3 5 6 o 288.90 314.90 18.00
4 5 6 o 71.68 88.97 19.94
-3 6 6 < 21.83 13.58 18.28
-2 6 6 o 129.33 222.55 28.62
-1 6 6 o 98.84 104.99 17.77
0 6 6 o 429.51 430.38 17.84
1 6 6 o 219.99 196.48 15.98
2 6 6 o 264.97 275.40 17.02
3 6 6 o 94.87 126.78 18.20
4 6 6 < 59.50 62.16 21.56
-2 7 6 < 17.82 34.77 25.48
-1 7 6 o 115.23 137.01 13.75
0 7 6 o 133.92 126.42 13.84
2 7 6 o 160.34 157.90 24.56
-1 8 6 < 65.08 71.93 26.03
1 8 6 o 135.79 152.05 22.80
-1 -6 7 < 21.05 16.79 24.60
0 -6 7 o 109.80 114.89 25.00
1 -6 7 < 59.68 66.35 23.98
2 -6 7 < 55.11 83.80 22.47
-2 -5 7 < 29.85 19.68 21.91
-1 -5 7 o 113.73 113.13 24.17
0 -5 7 o 113.82 114.07 20.33
1 -5 7 o 85.11 123.01 17.18
2 -5 7 o 122.45 149.96 21.69
3 -5 7 < 25.20 45.54 37.67
-3 -4 7 < -2.08 10.28 24.90
-2 -4 7 o 123.05 94.52 18.20
-1 -4 7 o 115.42 78.55 14.30
0 -4 7 o 126.74 108.41 18.84
1 -4 7 o 156.24 171.46 14.13
2 -4 7 o 63.00 37.98 13.76
3 -4 7 < 114.37 143.63 41.36
4 -4 7 < -2.31 1.72 24.82
-4 -3 7 < -17.75 5.27 25.80
-3 -3 7 o 64.59 57.56 19.61
-2 -3 7 o 73.37 51.23 14.30
-1 -3 7 o 70.84 53.47 10.89
0 -3 7 o 175.88 152.68 10.01
1 -3 7 < 15.77 4.01 11.77
2 -3 7 o 252.68 222.12 15.98
3 -3 7 o 53.18 4.34 15.76
4 -3 7 o 141.01 131.26 24.48
-4 -2 7 < 38.50 21.53 20.31
-3 -2 7 o 75.72 63.72 18.73
-2 -2 7 o 42.49 24.59 10.15
-1 -2 7 o 271.01 278.85 12.60
0 -2 7 < 7.53 3.09 7.69
1 -2 7 o 476.75 442.03 18.21
2 -2 7 < 16.52 27.24 10.77
3 -2 7 o 300.28 302.11 16.59
4 -2 7 < 23.63 24.36 19.90
5 -2 7 o 106.85 81.77 23.16
-4 -1 7 < 53.24 63.84 19.57
-3 -1 7 < 36.22 14.12 17.82
-2 -1 7 o 467.20 450.92 18.21
-1 -1 7 < -6.77 3.60 6.96
0 -1 7 o 977.75 970.21 21.83
1 -1 7 < 14.45 7.23 6.61
2 -1 7 o 663.32 644.39 16.88
3 -1 7 < 32.25 31.06 11.62
4 -1 7 o 250.11 183.28 30.37
5 -1 7 < 26.73 24.83 21.90
-4 0 7 < 21.11 4.84 23.98
-3 0 7 o 346.59 320.16 24.74
-2 0 7 < -2.92 11.55 8.33
-1 0 7 o 1055.42 1110.78 21.71
0 0 7 < 4.18 1.72 5.82
1 0 7 o 1035.56 1079.07 20.41
2 0 7 o 28.80 25.25 5.95
3 0 7 o 390.94 386.46 13.95
4 0 7 o 59.95 65.27 15.17
5 0 7 o 62.86 59.70 16.88
-4 1 7 o 95.42 119.46 23.10
-3 1 7 < 13.06 0.01 13.68
-2 1 7 o 634.25 582.87 21.18
-1 1 7 < 4.99 12.82 6.97
0 1 7 o 1166.55 1165.16 22.43
1 1 7 o 105.84 101.00 5.74
2 1 7 o 798.61 796.72 16.85
3 1 7 o 183.56 174.83 12.16
4 1 7 o 221.27 184.51 21.38
5 1 7 o 81.14 68.67 17.70
-4 2 7 < 24.46 4.31 27.83
-3 2 7 o 238.38 223.36 15.14
-2 2 7 o 94.88 90.96 10.94
-1 2 7 o 741.79 742.99 23.13
0 2 7 o 337.17 323.21 9.56
1 2 7 o 1168.44 1179.27 22.28
2 2 7 o 383.87 379.28 12.44
3 2 7 o 462.30 468.44 15.28
4 2 7 o 180.09 159.02 17.26
5 2 7 < 34.67 55.85 19.12
-4 3 7 < 54.74 81.68 27.10
-3 3 7 o 64.84 63.90 16.16
-2 3 7 o 420.28 358.33 22.05
-1 3 7 o 349.29 327.79 13.76
0 3 7 o 757.25 775.58 16.67
1 3 7 o 447.42 436.90 12.64
2 3 7 o 556.08 549.88 14.15
3 3 7 o 253.33 258.25 14.00
4 3 7 o 70.34 86.69 17.07
5 3 7 o 76.06 59.86 24.19
-4 4 7 < -0.09 16.91 32.96
-3 4 7 o 128.04 130.81 20.95
-2 4 7 o 134.50 124.85 13.85
-1 4 7 o 330.42 258.45 19.68
0 4 7 o 339.68 315.51 14.88
1 4 7 o 205.39 184.98 9.75
2 4 7 o 315.95 333.81 14.60
3 4 7 < 24.81 29.94 11.22
4 4 7 o 126.05 138.94 19.27
5 4 7 < 23.17 0.06 25.11
-3 5 7 < 27.39 37.92 15.46
-2 5 7 o 74.31 62.39 13.86
-1 5 7 o 181.60 182.63 14.89
0 5 7 < 18.19 21.15 12.38
1 5 7 o 393.79 381.32 16.63
2 5 7 < -0.65 0.91 10.66
3 5 7 o 276.65 265.82 24.71
4 5 7 < -0.55 7.51 18.81
-3 6 7 < 0.18 17.73 18.18
-2 6 7 o 58.94 105.66 15.79
-1 6 7 < -5.42 6.77 12.53
0 6 7 o 373.27 306.15 23.93
1 6 7 < -6.23 2.59 14.84
2 6 7 o 272.10 311.95 17.31
3 6 7 < -6.33 17.63 24.37
-2 7 7 < 27.97 7.61 28.80
-1 7 7 o 137.11 164.32 14.25
0 7 7 < 3.44 0.48 14.72
1 7 7 o 195.79 201.92 26.22
2 7 7 < 19.02 10.47 20.03
3 7 7 o 123.97 86.64 31.67
1 8 7 < 5.35 8.45 18.46
-1 -6 8 < 4.29 6.53 26.84
0 -6 8 < 48.46 77.90 29.63
1 -6 8 < 56.77 0.04 31.76
2 -6 8 < 50.12 78.82 45.05
-2 -5 8 < -9.20 5.04 20.17
-1 -5 8 o 119.17 107.90 24.90
0 -5 8 < 8.03 0.37 22.50
1 -5 8 o 105.00 149.52 25.86
2 -5 8 < -11.33 15.23 21.76
3 -5 8 < 36.00 83.08 38.77
-3 -4 8 < 12.28 2.93 33.63
-2 -4 8 o 141.51 156.90 21.94
-1 -4 8 < 37.78 0.08 14.64
0 -4 8 o 347.02 313.40 24.33
1 -4 8 < 26.22 13.25 16.14
2 -4 8 o 207.62 207.80 16.16
3 -4 8 < -24.28 29.25 23.50
4 -4 8 < 13.06 45.43 27.47
-3 -3 8 o 117.48 134.93 20.23
-2 -3 8 < -9.28 1.05 14.90
-1 -3 8 o 463.78 420.60 18.79
0 -3 8 < 22.56 4.01 10.95
1 -3 8 o 426.31 407.98 21.84
2 -3 8 o 52.57 39.33 13.76
3 -3 8 o 98.03 105.27 18.36
4 -3 8 < 20.63 40.35 26.92
-4 -2 8 < 52.40 59.42 26.93
-3 -2 8 < 9.99 0.31 17.57
-2 -2 8 o 336.28 258.09 32.31
-1 -2 8 < 5.72 12.29 9.21
0 -2 8 o 448.34 454.47 16.43
1 -2 8 o 122.09 98.69 10.41
2 -2 8 o 239.70 207.99 15.60
3 -2 8 o 136.44 134.34 17.72
4 -2 8 < 22.02 23.73 24.56
5 -2 8 < 52.98 47.95 24.63
-4 -1 8 < -4.83 2.53 26.60
-3 -1 8 o 83.94 87.22 16.50
-2 -1 8 o 85.16 65.52 11.51
-1 -1 8 o 216.99 249.65 12.19
0 -1 8 o 360.48 339.27 13.90
1 -1 8 o 291.58 293.32 13.07
2 -1 8 o 453.86 440.79 14.68
3 -1 8 o 72.64 70.75 8.93
4 -1 8 o 181.34 163.69 23.25
5 -1 8 < -6.00 2.68 22.48
-4 0 8 < 39.84 25.70 27.03
-3 0 8 o 101.36 76.61 20.29
-2 0 8 o 98.35 101.24 10.96
-1 0 8 o 420.19 528.77 16.59
0 0 8 o 222.62 200.96 10.76
1 0 8 o 878.54 907.42 20.00
2 0 8 o 88.51 84.86 7.87
3 0 8 o 440.44 400.92 14.48
4 0 8 < 7.96 3.66 12.14
5 0 8 o 90.90 82.77 17.56
-4 1 8 < 24.05 33.46 31.72
-3 1 8 o 68.09 39.03 19.51
-2 1 8 o 346.01 299.17 17.11
-1 1 8 o 48.10 58.88 7.93
0 1 8 o 902.47 907.71 22.29
1 1 8 < 4.49 2.18 6.11
2 1 8 o 698.96 696.86 16.14
3 1 8 < 5.91 12.70 7.79
4 1 8 o 213.56 208.00 15.97
5 1 8 < 6.40 12.00 16.76
-4 2 8 < 11.31 11.18 30.37
-3 2 8 o 127.94 105.28 37.85
-2 2 8 < 26.31 7.77 13.31
-1 2 8 o 493.04 504.38 17.88
0 2 8 o 65.63 52.94 6.14
1 2 8 o 898.22 887.25 18.99
2 2 8 o 222.47 193.76 9.86
3 2 8 o 449.64 447.73 15.66
4 2 8 o 64.86 83.32 14.99
5 2 8 o 96.32 99.46 22.85
-4 3 8 < 31.94 39.90 35.63
-3 3 8 < 11.45 0.67 38.50
-2 3 8 o 336.53 267.06 30.63
-1 3 8 < 29.73 41.58 10.90
0 3 8 o 836.85 785.74 20.09
1 3 8 o 294.47 267.82 11.84
2 3 8 o 679.44 670.18 18.01
3 3 8 o 173.48 185.88 14.05
4 3 8 o 201.79 200.01 21.44
5 3 8 < 40.99 46.32 21.10
-4 4 8 < -10.80 0.08 29.20
-3 4 8 < 118.80 139.25 39.79
-2 4 8 < 11.96 5.67 21.83
-1 4 8 o 569.50 487.81 25.39
0 4 8 o 72.12 74.31 8.40
1 4 8 o 581.40 558.40 19.12
2 4 8 o 157.74 140.77 10.15
3 4 8 o 197.73 212.16 16.49
4 4 8 o 58.71 74.93 17.81
-3 5 8 < -6.00 0.59 33.51
-2 5 8 o 182.68 219.03 16.22
-1 5 8 < 29.24 14.31 15.63
0 5 8 o 344.11 290.51 21.41
1 5 8 o 67.09 68.99 10.71
2 5 8 o 140.09 127.31 16.64
3 5 8 o 66.14 87.43 16.20
4 5 8 < 24.42 25.21 22.73
-2 6 8 < 2.63 14.20 16.99
-1 6 8 o 127.81 137.31 15.66
0 6 8 o 104.13 73.64 17.80
1 6 8 < 53.20 84.31 22.61
2 6 8 < 33.48 110.27 19.95
3 6 8 < 12.00 22.35 19.10
-2 7 8 < 24.10 62.67 31.39
-1 7 8 < 43.20 81.67 15.42
0 7 8 < 58.89 78.10 22.97
1 7 8 o 82.06 130.01 18.37
2 7 8 < -62.95 34.79 39.49
-1 -5 9 < 28.80 35.79 27.52
0 -5 9 < 61.21 45.00 25.87
1 -5 9 < 61.16 67.72 27.32
2 -5 9 < 27.26 17.42 20.68
3 -5 9 < 35.27 58.43 45.88
-2 -4 9 < 64.80 63.37 22.11
-1 -4 9 o 63.03 24.10 19.11
0 -4 9 o 160.96 168.74 24.12
1 -4 9 < 13.85 17.24 21.47
2 -4 9 o 146.83 171.43 20.13
3 -4 9 < 8.12 4.10 40.80
-3 -3 9 o 67.96 70.23 21.32
-2 -3 9 < 10.32 8.76 17.22
-1 -3 9 o 316.98 284.97 18.80
0 -3 9 < -1.20 7.29 13.68
1 -3 9 o 362.26 386.21 26.46
2 -3 9 < -3.09 3.64 14.96
3 -3 9 o 193.99 190.65 28.69
4 -3 9 < 23.82 0.21 29.22
-3 -2 9 < 7.04 6.07 21.81
-2 -2 9 o 254.48 235.98 19.38
-1 -2 9 < -18.79 1.92 11.91
0 -2 9 o 503.74 477.39 18.91
1 -2 9 < 14.01 1.03 10.76
2 -2 9 o 345.02 337.28 21.67
3 -2 9 < -3.88 7.84 23.65
4 -2 9 o 85.25 98.12 27.16
-4 -1 9 < 17.91 4.44 28.44
-3 -1 9 o 102.37 104.57 20.27
-2 -1 9 < 17.22 0.85 21.48
-1 -1 9 o 294.49 315.08 16.80
0 -1 9 o 36.29 27.65 7.90
1 -1 9 o 345.16 374.71 15.60
2 -1 9 o 89.23 87.06 11.14
3 -1 9 o 197.24 198.89 12.68
4 -1 9 o 79.95 57.32 23.85
5 -1 9 < 53.64 36.17 27.88
-4 0 9 < 15.00 38.09 33.95
-3 0 9 < -2.43 0.14 21.90
-2 0 9 o 169.70 158.75 14.76
-1 0 9 < 25.63 35.04 10.93
0 0 9 o 348.46 319.27 12.92
1 0 9 o 176.80 186.94 9.89
2 0 9 o 315.96 304.42 13.68
3 0 9 o 180.06 170.23 12.37
4 0 9 o 110.93 88.06 16.32
5 0 9 < 66.55 52.06 22.66
-4 1 9 < -21.83 0.04 33.47
-3 1 9 o 105.21 89.76 17.61
-2 1 9 < 32.06 16.13 13.74
-1 1 9 o 161.29 239.85 14.51
0 1 9 o 95.86 92.10 8.56
1 1 9 o 267.05 302.64 11.66
2 1 9 o 176.77 163.23 9.84
3 1 9 o 143.43 117.37 13.41
4 1 9 o 109.30 107.32 16.28
5 1 9 < 13.06 8.64 21.51
-4 2 9 < 39.51 41.57 39.51
-3 2 9 < 38.92 5.59 19.97
-2 2 9 o 158.91 144.94 15.60
-1 2 9 < 32.15 32.80 10.85
0 2 9 o 166.98 166.87 10.07
1 2 9 o 72.68 69.61 7.45
2 2 9 o 75.69 64.75 12.20
3 2 9 o 145.02 131.41 18.38
4 2 9 < 3.67 2.43 15.17
5 2 9 < 53.17 60.20 22.71
-4 3 9 < -8.91 3.56 32.13
-3 3 9 < 59.31 53.93 25.17
-2 3 9 o 37.67 35.04 11.74
-1 3 9 o 80.03 71.65 11.31
0 3 9 o 100.67 102.79 8.27
1 3 9 o 22.81 21.16 7.56
2 3 9 o 203.04 187.75 12.16
3 3 9 < 1.48 0.34 13.35
4 3 9 o 113.59 124.63 18.21
-3 4 9 < 36.74 41.30 24.34
-2 4 9 < 29.50 28.79 19.72
-1 4 9 o 228.25 196.68 28.44
0 4 9 < 5.68 21.70 9.79
1 4 9 o 339.51 345.87 14.41
2 4 9 < 6.94 1.64 11.16
3 4 9 o 192.60 223.43 19.72
4 4 9 < -3.14 3.74 17.01
-3 5 9 < 27.60 9.68 26.59
-2 5 9 o 123.51 162.03 20.53
-1 5 9 < 24.99 19.29 14.29
0 5 9 o 399.33 374.10 19.72
1 5 9 < -17.94 10.26 10.86
2 5 9 o 268.06 300.12 16.52
3 5 9 < 1.75 1.42 15.68
4 5 9 o 69.92 85.96 20.50
-2 6 9 < 3.05 4.09 35.08
-1 6 9 o 144.51 206.36 17.96
0 6 9 < 10.43 1.03 17.60
1 6 9 o 228.89 261.14 26.18
2 6 9 < 6.65 6.61 13.91
3 6 9 o 121.71 122.08 18.83
-1 7 9 < -0.65 6.04 15.71
0 7 9 o 143.87 157.86 17.92
1 7 9 < 18.74 31.56 18.09
2 7 9 o 99.33 140.69 22.62
-1 -5 10 < -21.60 0.94 56.40
0 -5 10 o 112.80 83.63 37.57
1 -5 10 < 1.85 9.10 30.83
2 -5 10 < 17.86 60.78 24.86
-2 -4 10 < 3.00 1.90 29.84
-1 -4 10 < 76.29 61.19 29.16
0 -4 10 < 6.12 28.25 20.88
1 -4 10 < 65.42 78.83 24.95
2 -4 10 o 93.56 68.70 24.93
3 -4 10 < 34.85 31.62 28.37
-2 -3 10 < 41.98 27.90 18.40
-1 -3 10 < 39.29 45.03 18.92
0 -3 10 o 54.99 65.27 15.96
1 -3 10 o 153.87 161.70 15.97
2 -3 10 < 38.19 52.46 25.51
3 -3 10 o 136.21 150.57 28.34
4 -3 10 < 14.49 12.18 28.90
-3 -2 10 < 19.32 15.64 25.82
-1 -2 10 < 48.61 51.87 18.68
0 -2 10 o 221.35 186.01 13.87
1 -2 10 o 65.23 63.22 12.09
2 -2 10 o 261.85 253.85 22.25
3 -2 10 < -0.18 19.11 26.14
4 -2 10 o 97.06 114.38 30.58
-3 -1 10 < 22.22 31.85 23.09
-2 -1 10 < 25.80 43.86 18.47
-1 -1 10 o 161.72 137.30 18.46
0 -1 10 o 60.68 54.91 11.70
1 -1 10 o 245.37 250.31 12.18
2 -1 10 < -10.28 8.55 10.23
3 -1 10 o 159.63 172.20 17.14
4 -1 10 < -21.94 0.21 18.57
-3 0 10 < 48.27 25.31 25.18
-2 0 10 o 105.51 101.91 18.81
-1 0 10 o 34.69 32.91 9.78
0 0 10 o 259.66 256.41 14.40
1 0 10 < 1.50 0.25 10.20
2 0 10 o 256.13 253.46 12.80
3 0 10 < 11.75 13.97 15.73
4 0 10 o 111.84 101.45 19.77
5 0 10 < 33.97 7.39 25.76
-3 1 10 < 63.41 75.92 23.60
-2 1 10 < 13.96 14.88 16.44
-1 1 10 o 280.47 313.82 16.69
0 1 10 < -9.08 0.02 9.03
1 1 10 o 443.93 466.68 18.37
2 1 10 < 22.77 26.42 9.31
3 1 10 o 227.47 208.58 15.94
4 1 10 < 30.47 19.94 16.46
5 1 10 < 47.03 39.46 23.90
-3 2 10 < 4.89 4.95 29.13
-2 2 10 o 252.09 248.00 23.23
-1 2 10 < -10.78 2.01 11.12
0 2 10 o 616.18 594.87 17.06
1 2 10 < 12.61 9.58 8.17
2 2 10 o 394.38 360.66 15.10
3 2 10 < 15.54 23.99 14.56
4 2 10 o 70.00 70.18 16.81
-3 3 10 < 65.68 104.63 28.61
-2 3 10 < -5.11 0.78 17.08
-1 3 10 o 297.81 346.90 17.65
0 3 10 < 4.34 6.08 7.81
1 3 10 o 375.11 354.47 14.01
2 3 10 o 47.71 38.77 11.44
3 3 10 o 100.04 98.51 15.80
4 3 10 < 21.65 33.00 17.05
-3 4 10 < 16.99 0.40 32.22
-2 4 10 o 104.82 110.45 23.16
-1 4 10 < 27.60 24.04 17.03
0 4 10 o 214.99 182.51 11.66
1 4 10 o 101.85 103.01 12.02
2 4 10 o 94.22 100.86 12.08
3 4 10 o 79.20 93.94 16.64
4 4 10 < 18.79 20.91 18.27
-2 5 10 < 25.76 32.04 22.09
-1 5 10 < 54.55 71.73 29.08
0 5 10 o 93.88 152.46 20.59
1 5 10 o 68.69 71.19 12.05
2 5 10 o 136.37 170.36 14.00
3 5 10 < 26.45 28.03 16.30
4 5 10 < 52.24 66.20 23.45
-2 6 10 < 12.09 26.71 21.37
-1 6 10 o 61.38 90.64 17.18
0 6 10 < 28.85 33.56 16.26
1 6 10 o 132.28 154.46 18.82
2 6 10 < 27.29 12.05 12.95
3 6 10 < 60.41 88.95 20.73
-1 7 10 < -52.24 8.87 19.29
0 7 10 o 68.32 79.10 17.60
1 7 10 < 7.94 0.36 19.11
-1 -4 11 < 40.40 39.17 26.72
0 -4 11 < -30.67 2.89 25.94
1 -4 11 < -4.18 52.70 23.98
2 -4 11 < -6.05 0.10 27.10
-2 -3 11 < 47.69 27.95 24.60
-1 -3 11 < 44.18 2.29 21.31
0 -3 11 o 48.87 48.77 16.06
1 -3 11 < 4.51 4.23 14.90
2 -3 11 < 28.62 38.25 36.56
3 -3 11 < 15.14 16.64 27.18
-2 -2 11 < -0.37 0.65 20.79
-1 -2 11 o 100.06 61.57 22.38
0 -2 11 < -4.57 9.69 13.40
1 -2 11 o 72.87 72.38 14.50
2 -2 11 < 31.91 39.74 15.31
3 -2 11 < 7.99 36.74 28.79
4 -2 11 < 57.41 33.46 34.90
-3 -1 11 < 13.41 0.07 26.14
-2 -1 11 o 77.38 65.20 17.92
-1 -1 11 < 3.88 9.85 18.90
0 -1 11 o 125.80 135.84 17.52
1 -1 11 < 44.07 39.08 15.13
2 -1 11 o 99.56 95.46 14.30
3 -1 11 o 48.02 52.19 15.53
4 -1 11 < 17.77 19.61 29.29
-3 0 11 < 27.82 37.24 28.73
-2 0 11 < 16.80 10.93 17.12
-1 0 11 o 129.01 119.93 14.18
0 0 11 o 66.37 35.42 11.26
1 0 11 o 124.43 133.51 11.73
2 0 11 o 63.88 61.48 15.00
3 0 11 < 41.32 45.08 17.61
4 0 11 o 59.26 55.74 19.61
-3 1 11 < 16.68 12.13 26.29
-2 1 11 < 45.36 47.04 22.06
-1 1 11 o 67.27 62.15 14.06
0 1 11 o 57.40 75.16 9.55
1 1 11 o 126.87 118.14 10.55
2 1 11 o 57.29 54.80 17.22
3 1 11 o 129.30 124.59 17.97
4 1 11 < 7.51 9.10 17.81
-3 2 11 < 7.66 12.10 33.43
-2 2 11 o 79.24 79.50 20.75
-1 2 11 < 21.11 25.28 14.60
0 2 11 o 210.54 227.45 14.33
1 2 11 < 20.44 35.92 12.37
2 2 11 o 220.99 255.89 27.93
3 2 11 < 27.14 17.33 16.28
4 2 11 o 118.62 115.06 18.71
-3 3 11 < 31.48 48.46 39.42
-2 3 11 < -1.69 11.78 18.63
-1 3 11 o 141.85 205.82 16.53
0 3 11 < 13.22 18.07 10.91
1 3 11 o 319.41 313.65 21.58
2 3 11 < 2.58 11.65 14.45
3 3 11 o 188.62 186.80 18.44
4 3 11 < 11.48 0.38 18.09
-3 4 11 < -0.55 6.61 29.46
-2 4 11 < 56.22 88.90 25.37
-1 4 11 < 12.65 7.39 12.27
0 4 11 o 186.48 198.15 12.18
1 4 11 < -13.00 0.51 10.71
2 4 11 o 214.16 191.21 21.33
3 4 11 < 18.05 5.19 16.43
4 4 11 < 35.03 68.74 27.56
-2 5 11 < 13.89 1.61 23.53
-1 5 11 o 70.85 85.90 17.68
0 5 11 < -2.49 2.29 15.53
1 5 11 o 108.28 139.64 14.19
2 5 11 < 40.94 24.71 16.13
3 5 11 o 86.63 90.24 18.35
-1 6 11 < -9.74 2.97 16.89
0 6 11 o 65.44 89.76 17.00
1 6 11 < 21.28 21.94 18.08
2 6 11 o 93.97 85.72 17.04
0 -4 12 < 26.77 38.26 25.57
1 -4 12 < 26.40 29.78 30.15
-1 -3 12 < 27.38 46.96 26.41
0 -3 12 < 31.45 33.09 19.91
1 -3 12 o 56.63 50.38 15.58
2 -3 12 < 44.41 39.32 39.51
3 -3 12 < 9.23 13.30 27.10
-2 -2 12 < 18.77 26.40 21.01
-1 -2 12 < 47.17 39.90 16.90
0 -2 12 < 20.34 38.07 18.15
1 -2 12 o 86.35 69.09 15.08
2 -2 12 < 12.80 13.66 16.67
3 -2 12 < 16.71 46.40 29.86
-2 -1 12 < 40.64 41.40 18.07
-1 -1 12 < 14.12 11.16 14.72
0 -1 12 o 180.83 125.39 22.65
1 -1 12 < -9.65 2.95 19.61
2 -1 12 o 93.65 123.17 14.70
3 -1 12 < -6.55 0.13 20.37
4 -1 12 < 85.85 38.82 54.18
-3 0 12 < 2.77 25.45 57.51
-2 0 12 < -3.99 2.79 17.25
-1 0 12 o 126.90 129.85 15.09
0 0 12 < 7.78 0.05 16.26
1 0 12 o 211.15 210.07 29.56
2 0 12 < 25.99 7.53 24.54
3 0 12 o 84.03 90.00 20.34
4 0 12 < 30.42 7.66 29.94
-3 1 12 < 4.57 1.40 33.20
-2 1 12 o 87.67 61.36 22.10
-1 1 12 < 0.77 0.45 14.80
0 1 12 o 131.36 163.96 17.80
1 1 12 < 32.31 28.80 12.59
2 1 12 o 105.66 117.68 18.69
3 1 12 < 31.11 45.95 18.65
4 1 12 < 11.42 26.99 28.64
-3 2 12 < 24.37 17.08 37.27
-2 2 12 < -5.59 0.92 25.84
-1 2 12 o 59.35 63.60 14.69
0 2 12 < 34.13 42.92 12.81
1 2 12 o 109.78 85.71 14.16
2 2 12 o 104.47 121.37 18.67
3 2 12 < 27.42 36.33 17.95
4 2 12 < 42.65 70.21 23.36
-2 3 12 < 41.05 24.30 17.68
-1 3 12 < 35.82 37.17 13.03
0 3 12 o 49.25 51.28 10.20
1 3 12 o 125.22 138.80 13.59
2 3 12 < 38.52 35.95 17.66
3 3 12 o 113.66 120.14 19.31
4 3 12 < 34.85 10.23 26.47
-2 4 12 < 6.00 20.78 31.24
-1 4 12 o 39.19 36.97 13.04
0 4 12 o 80.47 83.66 11.90
1 4 12 < 10.77 28.73 14.94
2 4 12 o 92.12 102.36 18.02
3 4 12 < 2.12 6.67 17.47
-1 5 12 < 24.60 40.15 17.97
0 5 12 < 11.82 18.48 12.24
1 5 12 < 38.82 69.10 15.38
2 5 12 < 8.26 1.49 17.49
3 5 12 < 37.67 49.79 19.10
-1 6 12 < -30.93 8.01 21.42
0 6 12 o 51.87 59.94 16.85
1 6 12 < 26.45 0.45 19.12
2 6 12 o 70.38 61.07 21.41
0 -3 13 < 10.71 13.00 26.37
1 -3 13 < 38.50 50.23 24.42
2 -3 13 < 56.58 18.23 42.28
-1 -2 13 < 18.81 13.60 19.37
0 -2 13 o 60.55 53.78 20.09
1 -2 13 < 41.91 32.13 19.62
2 -2 13 < -4.48 45.78 23.03
3 -2 13 < -5.59 30.67 40.37
-2 -1 13 < 7.94 8.61 20.41
-1 -1 13 < 33.00 28.70 16.28
0 -1 13 < 37.02 35.36 15.44
1 -1 13 < 27.42 35.13 20.35
2 -1 13 < 40.90 58.34 19.05
3 -1 13 < 50.74 20.22 23.80
-2 0 13 < 16.80 13.45 20.99
-1 0 13 < 32.42 31.23 15.27
0 0 13 < 20.17 18.91 16.89
1 0 13 o 76.06 68.76 21.33
2 0 13 < 0.92 18.22 18.55
3 0 13 o 71.38 66.10 21.65
-2 1 13 < 55.26 22.39 24.70
-1 1 13 < 5.29 16.36 16.01
0 1 13 < 33.01 54.04 15.97
1 1 13 < -0.69 15.18 14.96
2 1 13 o 64.61 60.16 19.83
3 1 13 < -20.86 4.74 19.92
4 1 13 < 57.97 32.10 27.79
-2 2 13 < 10.76 14.78 26.48
-1 2 13 < 35.91 34.31 15.09
0 2 13 < -0.22 12.46 12.28
1 2 13 < 34.43 41.15 14.51
2 2 13 < -15.85 1.46 19.26
3 2 13 < 20.65 31.28 19.80
-2 3 13 < 29.26 20.20 23.06
-1 3 13 < 1.02 5.64 15.32
0 3 13 < 33.42 40.07 13.43
1 3 13 < -4.22 0.04 14.47
2 3 13 < 9.67 42.23 19.44
3 3 13 < 11.29 6.90 20.09
-1 4 13 < 28.59 41.71 14.72
0 4 13 < -3.17 0.44 13.87
1 4 13 o 61.01 69.20 15.56
2 4 13 < -2.91 7.19 18.53
3 4 13 < 38.08 39.97 21.39
-1 5 13 < -24.46 1.38 21.14
0 5 13 o 60.13 64.86 14.41
1 5 13 < 13.17 5.68 15.56
2 5 13 < 65.35 55.82 29.45
0 -2 14 < 34.92 23.20 22.39
1 -2 14 < 5.17 0.98 27.10
2 -2 14 < 28.11 29.37 24.48
-1 -1 14 < 36.71 20.61 21.94
0 -1 14 < 12.14 1.05 16.73
1 -1 14 < 18.00 33.90 21.57
2 -1 14 < 18.21 10.96 19.89
-1 0 14 < 8.49 0.98 17.20
0 0 14 < 40.90 36.72 17.42
1 0 14 < 20.43 17.45 17.38
2 0 14 < 6.90 29.32 19.62
3 0 14 < -3.07 30.39 27.00
-1 1 14 < 28.55 35.82 17.28
0 1 14 < 16.21 19.10 18.38
1 1 14 o 51.81 53.63 15.67
2 1 14 < 34.83 43.79 20.63
3 1 14 < 4.71 23.35 27.42
-1 2 14 < 19.76 16.49 14.33
0 2 14 o 56.59 61.96 15.11
1 2 14 o 64.96 40.41 16.66
2 2 14 < 48.96 42.12 21.64
3 2 14 < 31.69 30.77 34.19
-1 3 14 < 44.31 35.24 25.81
0 3 14 < 11.76 32.94 13.19
1 3 14 < 34.80 32.94 16.35
2 3 14 < 1.14 36.62 21.08
3 3 14 < 11.05 8.93 34.79
-1 4 14 < 20.01 25.45 17.60
0 4 14 < 4.82 10.82 14.90
1 4 14 < 41.69 50.00 16.11
2 4 14 < -17.45 2.54 23.76
0 5 14 < 45.33 48.41 20.57
1 5 14 < 35.57 0.16 19.98
1 -1 15 < 21.97 8.37 22.80
0 0 15 < 52.67 9.68 25.29
1 0 15 < 19.53 4.91 22.86
2 0 15 < 11.49 9.89 22.02
0 1 15 < -10.52 0.32 21.53
1 1 15 < 8.83 17.99 23.24
2 1 15 < -0.21 0.10 22.82
0 2 15 < 4.52 27.81 25.80
1 2 15 < 12.76 3.15 19.35
2 2 15 < 49.70 35.76 33.91
0 3 15 < 8.35 4.48 15.65
1 3 15 < 42.37 42.31 19.87
2 3 15 < 11.01 8.23 23.67
1 4 15 < 76.52 9.05 28.99
loop_
_restr_angle_atom_site_label_1
_restr_angle_site_symmetry_1
_restr_angle_atom_site_label_2
_restr_angle_site_symmetry_2
_restr_angle_atom_site_label_3
_restr_angle_site_symmetry_3
_restr_angle_target
_restr_angle_target_weight_param
? ? ? ? ? ? ? ?
loop_
_restr_distance_atom_site_label_1
_restr_distance_site_symmetry_1
_restr_distance_atom_site_label_2
_restr_distance_site_symmetry_2
_restr_distance_target
_restr_distance_target_weight_param
? ? ? ? ? ?
loop_
_restr_equal_angle_atom_site_label_1
_restr_equal_angle_site_symmetry_1
_restr_equal_angle_atom_site_label_2
_restr_equal_angle_site_symmetry_2
_restr_equal_angle_atom_site_label_3
_restr_equal_angle_site_symmetry_3
_restr_equal_angle_class_class_id
_restr_equal_angle_class_target_weight_param
? ? ? ? ? ? ? ?
loop_
_restr_equal_distance_atom_site_label_1
_restr_equal_distance_site_symmetry_1
_restr_equal_distance_atom_site_label_2
_restr_equal_distance_site_symmetry_2
_restr_equal_distance_class_class_id
_restr_equal_distance_class_target_weight_param
? ? ? ? ? ?
loop_
_restr_equal_torsion_atom_site_label_1
_restr_equal_torsion_site_symmetry_1
_restr_equal_torsion_atom_site_label_2
_restr_equal_torsion_site_symmetry_2
_restr_equal_torsion_atom_site_label_3
_restr_equal_torsion_site_symmetry_3
_restr_equal_torsion_atom_site_label_4
_restr_equal_torsion_site_symmetry_4
_restr_equal_torsion_class_class_id
_restr_equal_torsion_class_target_weight_param
? ? ? ? ? ? ? ? ? ?
loop_
_restr_torsion_atom_site_label_1
_restr_torsion_site_symmetry_1
_restr_torsion_atom_site_label_2
_restr_torsion_site_symmetry_2
_restr_torsion_atom_site_label_3
_restr_torsion_site_symmetry_3
_restr_torsion_atom_site_label_4
_restr_torsion_site_symmetry_4
_restr_torsion_angle_target
_restr_torsion_weight_param
? ? ? ? ? ? ? ? ? ?
loop_
_twin_individual_id
_twin_individual_mass_fraction_refined
_twin_individual_twin_matrix_11
_twin_individual_twin_matrix_12
_twin_individual_twin_matrix_13
_twin_individual_twin_matrix_21
_twin_individual_twin_matrix_22
_twin_individual_twin_matrix_23
_twin_individual_twin_matrix_31
_twin_individual_twin_matrix_32
_twin_individual_twin_matrix_33
? ? ? ? ? ? ? ? ? ? ?
loop_
_twin_refln_datum_id
_twin_refln_individual_id
_twin_refln_index_h
_twin_refln_index_k
_twin_refln_index_l
_twin_refln_F_squared_calc
_twin_refln_F_squared_meas
_twin_refln_F_squared_sigma
_twin_refln_include_status
? ? ? ? ? ? ? ? ?

_cod_database_fobs_code 2243559
