#------------------------------------------------------------------------------
#$Date: 2020-08-29 08:06:38 +0300 (Sat, 29 Aug 2020) $
#$Revision: 255741 $
#$URL: file:///home/coder/svn-repositories/cod/cif/2/24/35/2243557.cif $
#------------------------------------------------------------------------------
#
# This file is available in the Crystallography Open Database (COD),
# http://www.crystallography.net/. The original data for this entry
# were provided by IUCr Journals, http://journals.iucr.org/.
#
# The file may be used within the scientific community so long as
# proper attribution is given to the journal article from which the
# data were obtained.
#
data_2243557
loop_
_publ_author_name
'F\'abry, Jan'
'Samolov\'a, Erika'
_publ_section_title
;
 Layered alkali propanoates <i>M</i>^+^(C~2~H~5~COO)^{-^}; <i>M</i>^+^ =
 Na^+^, K^+^, Rb^+^, Cs^+^
;
_journal_coeditor_code           WM5573
_journal_issue                   9
_journal_name_full               'Acta Crystallographica Section E'
_journal_page_first              1508
_journal_page_last               1513
_journal_paper_doi               10.1107/S2056989020011469
_journal_volume                  76
_journal_year                    2020
_chemical_formula_iupac          '[Na (C3 H5 O2)]'
_chemical_formula_moiety         'Na, C3 H5 O2'
_chemical_formula_sum            'C3 H5 Na O2'
_chemical_formula_weight         96.1
_chemical_name_common            'Sodium propionate'
_chemical_name_systematic
;
Poly[(\m~5~-propanoato)sodium(I)]
;
_space_group_IT_number           14
_space_group_name_Hall           '-P 2yab'
_space_group_name_H-M_alt        'P 1 21/a 1'
_symmetry_cell_setting           monoclinic
_symmetry_space_group_name_Hall  '-P 2yab'
_symmetry_space_group_name_H-M   'P 1 21/a 1'
_atom_sites_solution_primary     'charge flipping'
_cell_angle_alpha                90
_cell_angle_beta                 111.225(5)
_cell_angle_gamma                90
_cell_formula_units_Z            4
_cell_length_a                   7.1048(4)
_cell_length_b                   5.3003(3)
_cell_length_c                   11.9035(7)
_cell_measurement_reflns_used    3181
_cell_measurement_temperature    240(2)
_cell_measurement_theta_max      72.60
_cell_measurement_theta_min      7.985
_cell_volume                     417.85(4)
_computing_cell_refinement
;
SAINT (Bruker, 2017)
;
_computing_data_collection
;
APEX3 (Bruker, 2017)
;
_computing_data_reduction
;
SAINT (Bruker, 2017)
;
_computing_molecular_graphics
;
DIAMOND (Brandenburg, 2005)
;
_computing_publication_material
;
<i>JANA</i>2006 (Pet\<r\'i\<cek <i>et al.</i>, 2014)
;
_computing_structure_refinement
;
<i>JANA</i>2006 (Pet\<r\'i\<cek <i>et al.</i>, 2014)
;
_computing_structure_solution
;
<i>SUPERFLIP</i> (Palatinus & Chapuis, 2007)
;
_diffrn_ambient_temperature      240(2)
_diffrn_detector                 'PHOTON 100 CMOS'
_diffrn_measured_fraction_theta_full 0.99
_diffrn_measured_fraction_theta_max 0.99
_diffrn_measurement_device_type  'Bruker D8 VENTURE Kappa Duo PHOTON 100 CMOS'
_diffrn_measurement_method       '\f and \w scans'
_diffrn_radiation_monochromator  'Helios Cu  multilayer optic'
_diffrn_radiation_probe          x-ray
_diffrn_radiation_type           'Cu K\a'
_diffrn_radiation_wavelength     1.54178
_diffrn_reflns_av_R_equivalents  0.038
_diffrn_reflns_av_unetI/netI     0.0213
_diffrn_reflns_limit_h_max       8
_diffrn_reflns_limit_h_min       -8
_diffrn_reflns_limit_k_max       6
_diffrn_reflns_limit_k_min       -6
_diffrn_reflns_limit_l_max       14
_diffrn_reflns_limit_l_min       -14
_diffrn_reflns_number            5731
_diffrn_reflns_theta_full        72.63
_diffrn_reflns_theta_max         72.63
_diffrn_reflns_theta_min         7.99
_diffrn_source                   'I\mS  micro-focus sealed tube'
_diffrn_standards_number         0
_exptl_absorpt_coefficient_mu    1.935
_exptl_absorpt_correction_T_max  0.9340
_exptl_absorpt_correction_T_min  0.4840
_exptl_absorpt_correction_type   multi-scan
_exptl_absorpt_process_details
;
(<i>SADABS</i>; Bruker, 2017)
;
_exptl_crystal_colour            colourless
_exptl_crystal_density_diffrn    1.527
_exptl_crystal_description       plate
_exptl_crystal_F_000             200
_exptl_crystal_size_max          0.439
_exptl_crystal_size_mid          0.165
_exptl_crystal_size_min          0.036
_refine_diff_density_max         0.48
_refine_diff_density_min         -0.25
_refine_ls_extinction_coef       0
_refine_ls_extinction_method     none
_refine_ls_goodness_of_fit_gt    4.13
_refine_ls_goodness_of_fit_ref   3.60
_refine_ls_hydrogen_treatment    constr
_refine_ls_number_constraints    56
_refine_ls_number_parameters     59
_refine_ls_number_reflns         812
_refine_ls_number_restraints     1
_refine_ls_R_factor_all          0.0594
_refine_ls_R_factor_gt           0.0504
_refine_ls_shift/su_max          0.0067
_refine_ls_shift/su_mean         0.0006
_refine_ls_structure_factor_coef Fsqd
_refine_ls_weighting_details     w=1/(\s^2^(I)+0.0004I^2^)
_refine_ls_weighting_scheme      sigma
_refine_ls_wR_factor_gt          0.1341
_refine_ls_wR_factor_ref         0.1364
_reflns_number_gt                610
_reflns_number_total             812
_reflns_threshold_expression     I>3\s(I)
_iucr_refine_instructions_details
;
#m40
   18    0    1    1
 3.641151 0.000000 0.000000 0.000000 0.000000 0.000000      100000
 0.000000 0.000000                                          00
 0.000000 0.000000 0.000000 0.000000 0.000000 0.000000      000000
 0.000000 0.000000 0.000000 0.000000 0.000000 0.000000      000000
Na1       1  2     1.000000 0.588886 0.750574 0.422209
 0.011382 0.010289 0.004714 0.000078 0.003808 0.000024      0111111111
O1        3  2     1.000000 0.692930 0.540920 0.624749
 0.014524 0.010681 0.005461-0.000622 0.004687-0.001281      0111111111
O2        3  2     1.000000 0.693283 0.959841 0.625669
 0.015332 0.011288 0.005790 0.000475 0.004934 0.001511      0111111111
C1        2  2     1.000000 0.700642 0.749474 0.676236
 0.008145 0.010565 0.004204-0.000140 0.002992 0.000132      0111111111
C2        2  2     1.000000 0.717630 0.751847 0.807905
 0.011015 0.018394 0.004603-0.000175 0.003792-0.000547      0111111111
C2d       2  2     0.000000 0.717630 0.751847 0.807905
 0.011015 0.018394 0.004603-0.000175 0.003792-0.000547      0000000000
C3        2  2     0.808101 0.731293 0.497845 0.867025
 0.018618 0.021786 0.006944-0.000362 0.006001 0.003043      1111111111
C3a       2  2     0.191899 0.732225 1.005704 0.867267
 0.018618 0.021786 0.006944 0.000362 0.006001-0.003043      0111000000
H1c2      4  1     0.808101 0.832208 0.854412 0.854817
 2.388455 0.000000 0.000000 0.000000 0.000000 0.000000      0000000000
H2c2      4  1     0.808101 0.605413 0.845792 0.815159
 2.388455 0.000000 0.000000 0.000000 0.000000 0.000000      0000000000
H1c2d     4  1     0.191899 0.606148 0.657665 0.815979
 2.388455 0.000000 0.000000 0.000000 0.000000 0.000000      0000000000
H2c2d     4  1     0.191899 0.830804 0.647765 0.855331
 2.388455 0.000000 0.000000 0.000000 0.000000 0.000000      0000000000
H1c3      4  1     0.808101 0.838530 0.401966 0.856705
 4.336531 0.000000 0.000000 0.000000 0.000000 0.000000      0000000000
H2c3      4  1     0.808101 0.758140 0.520257 0.951449
 4.336531 0.000000 0.000000 0.000000 0.000000 0.000000      0000000000
H3c3      4  1     0.808101 0.605919 0.409385 0.830610
 4.336531 0.000000 0.000000 0.000000 0.000000 0.000000      0000000000
H1c3a     4  1     0.191899 0.856406 1.085929 0.872783
 4.336531 0.000000 0.000000 0.000000 0.000000 0.000000      0000000000
H2c3a     4  1     0.191899 0.620431 1.108883 0.820205
 4.336531 0.000000 0.000000 0.000000 0.000000 0.000000      0000000000
H3c3a     4  1     0.191899 0.729143 0.984142 0.946657
 4.336531 0.000000 0.000000 0.000000 0.000000 0.000000      0000000000
----------------------------   s.u. block   ----------------------------
 0.023560 0.000000 0.000000 0.000000 0.000000 0.000000
 0.000000 0.000000
 0.000000 0.000000 0.000000 0.000000 0.000000 0.000000
 0.000000 0.000000 0.000000 0.000000 0.000000 0.000000
Na1                0.000000 0.000112 0.000147 0.000064
 0.000222 0.000360 0.000083 0.000207 0.000088 0.000107
O1                 0.000000 0.000219 0.000293 0.000112
 0.000382 0.000724 0.000132 0.000353 0.000178 0.000191
O2                 0.000000 0.000224 0.000301 0.000114
 0.000388 0.000731 0.000135 0.000363 0.000182 0.000195
C1                 0.000000 0.000272 0.000408 0.000160
 0.000376 0.000617 0.000145 0.000534 0.000178 0.000277
C2                 0.000000 0.000304 0.000442 0.000182
 0.000423 0.000775 0.000150 0.000599 0.000197 0.000303
C2d                0.000000 0.000304 0.000442 0.000182
 0.000423 0.000775 0.000150 0.000599 0.000197 0.000303
C3                 0.003590 0.000479 0.000624 0.000259
 0.000696 0.001004 0.000223 0.000859 0.000320 0.000420
C3a                0.003590 0.002050 0.001352 0.001067
 0.000696 0.001004 0.000223 0.000859 0.000320 0.000420
H1c2               0.003590-0.100000-0.100000-0.100000
 0.000000 0.000000 0.000000 0.000000 0.000000 0.000000
H2c2               0.003590-0.100000-0.100000-0.100000
 0.000000 0.000000 0.000000 0.000000 0.000000 0.000000
H1c2d              0.003590-0.100000-0.100000-0.100000
 0.000000 0.000000 0.000000 0.000000 0.000000 0.000000
H2c2d              0.003590-0.100000-0.100000-0.100000
 0.000000 0.000000 0.000000 0.000000 0.000000 0.000000
H1c3               0.003590-0.100000-0.100000-0.100000
 0.000000 0.000000 0.000000 0.000000 0.000000 0.000000
H2c3               0.003590-0.100000-0.100000-0.100000
 0.000000 0.000000 0.000000 0.000000 0.000000 0.000000
H3c3               0.003590-0.100000-0.100000-0.100000
 0.000000 0.000000 0.000000 0.000000 0.000000 0.000000
H1c3a              0.003590-0.100000-0.100000-0.100000
 0.000000 0.000000 0.000000 0.000000 0.000000 0.000000
H2c3a              0.003590-0.100000-0.100000-0.100000
 0.000000 0.000000 0.000000 0.000000 0.000000 0.000000
H3c3a              0.003590-0.100000-0.100000-0.100000
 0.000000 0.000000 0.000000 0.000000 0.000000 0.000000
--------------------------   Saved points   ----------------------------
    0
------------------------------------------------------------------------
--------------------------   Fourier maxima   --------------------------
    1    1    1
max1      1  1     1.000000 0.784493 0.054300 0.385187      000  0  0  0
     0.45     0.38
max2      1  1     1.000000 0.257690 0.082660 0.383889      000  0  0  0
     0.33     0.26
max3      1  1     1.000000 0.104589 0.246509 0.178845      000  0  0  0
     0.29     0.19
max4      1  1     1.000000 0.210092 0.240889 0.578918      000  0  0  0
     0.49     0.18
max5      1  1     1.000000 0.474128 0.237851 0.586022      000  0  0  0
     0.24     0.15
max6      1  1     1.000000 0.336145 0.058483 0.136401      000  0  0  0
     0.31     0.15
max7      1  1     1.000000 0.059775 0.035363 0.123710      000  0  0  0
     0.28     0.15
max8      1  1     1.000000 0.378291 0.252935 0.193778      000  0  0  0
     0.30     0.15
max9      1  1     1.000000 0.020040 0.031863 0.377163      000  0  0  0
     0.32     0.14
max10     1  1     1.000000 0.227071 0.096819 0.145856      000  0  0  0
     0.24     0.13
--------------------------   Fourier minima   --------------------------
    1    1    1
min1      1  1     1.000000 0.710276 0.045156 0.475218      000  0  0  0
     0.25     0.18
min2      1  1     1.000000 0.558702 0.040230 0.496509      000  0  0  0
     0.22     0.18
min3      1  1     1.000000 0.452540 0.198564 0.730922      000  0  0  0
     0.19     0.16
min4      1  1     1.000000 0.044314 0.126815 0.299765      000  0  0  0
     0.22     0.15
min5      1  1     1.000000 0.929115 0.196075 0.705764      000  0  0  0
     0.19     0.15
min6      1  1     1.000000 0.037670 0.248238 0.529650      000  0  0  0
     0.23     0.14
min7      1  1     1.000000 0.339927 0.215309 0.767920      000  0  0  0
     0.15     0.14
min8      1  1     1.000000 0.308088 0.028015 0.810162      000  0  0  0
     0.20     0.14
min9      1  1     1.000000 0.239377 0.091376 0.763980      000  0  0  0
     0.17     0.14
min10     1  1     1.000000 0.193894 0.135139 0.448453      000  0  0  0
     0.19     0.13
------------------------------------------------------------------------
#m50
Version Jana2006
title cu_jf_naprop2_fabry_0ma_a.res in p2(1)/c
cell 7.1048 5.3003 11.9035 90 111.2251 90
esdcell 0.0004 0.0003 0.0007 0 0.0049 0
spgroup P21/a 14 22
lattice P
symmetry x y z
symmetry -x+1/2 y+1/2 -z
symmetry -x -y -z
symmetry x+1/2 -y+1/2 z
unitsnumb 4
chemform Na C3 O2 H5
formtab -62
atom Na atradius 1.91 color 249220060
atom C atradius 0.77 color 128073041
atom O atradius 0.74 color 254003000
atom H atradius 0.46 color 255204204
roundmethod 1
end
*******************************************************************************
contour
end contour
dist
  angles 1 lsttype 1 dmax 1.7
  selfirst Na1 C1 C2
  selsecnd Na1 C1 C2
  torsion O1 C1 C2 C3
  torsion O2 C1 C2 C3
  bondval Na O 1.8 0.37
end dist
fourier
  maptype 6
end fourier
refine
  cycles 9999 fsquare 1 skipbad 1 badref 15
  restric C3 4 C3a
  restric C2 1 C2d
  equation : ai[H1C2] = ai[C3]
  equation : ai[H2C2] = ai[C3]
  equation : ai[H1C2d] = 1.0 - ai[C3]
  equation : ai[H2C2d] = 1.0 - ai[C3]
  equation : ai[H1C3] = ai[C3]
  equation : ai[H2C3] = ai[C3]
  equation : ai[H3C3] = ai[C3]
  equation : ai[H1C3a] = 1.0 - ai[C3]
  equation : ai[H2C3a] = 1.0 - ai[C3]
  equation : ai[H3C3a] = 1.0 - ai[C3]
  equation : beta11[C3a] = beta11[C3]
  equation : beta22[C3a] = beta22[C3]
  equation : beta33[C3a] = beta33[C3]
  equation : beta12[C3a] = -beta12[C3]
  equation : beta13[C3a] = beta13[C3]
  equation : beta23[C3a] = -beta23[C3]
  distfix = 0.001 C2 C3; C2 C3a;
  keep hydro tetrahed C2 2 2 C3 C1 0.97 H1c2 H2c2
  keep ADP riding C2 1.2 H1c2 H2c2
  keep hydro tetrahed C2d 2 2 C3a C1 0.97 H1c2d H2c2d
  keep ADP riding C2d 1.2 H1c2d H2c2d
  keep hydro tetrahed C3 1 3 C2 0.96 H1c3 H2c3 H3c3
  keep ADP riding C3 1.5 H1c3 H2c3 H3c3
  keep hydro tetrahed C3a 1 3 C2d 0.96 H1c3a H2c3a H3c3a
  keep ADP riding C3a 1.5 H1c3a H2c3a H3c3a
end refine
;
_cod_data_source_file            wm5573sup1.cif
_cod_data_source_block           I
_cod_original_formula_sum        'C3 H5 Na1 O2'
_cod_database_code               2243557
loop_
_space_group_symop_id
_space_group_symop_operation_xyz
1 x,y,z
2 -x+1/2,y+1/2,-z
3 -x,-y,-z
4 x+1/2,-y+1/2,z
loop_
_atom_site_type_symbol
_atom_site_label
_atom_site_fract_x
_atom_site_fract_y
_atom_site_fract_z
_atom_site_U_iso_or_equiv
_atom_site_adp_type
_atom_site_calc_flag
_atom_site_refinement_flags
_atom_site_occupancy
_atom_site_site_symmetry_multiplicity
_atom_site_disorder_assembly
_atom_site_disorder_group
Na Na1 0.58889(11) 0.75057(15) 0.42221(6) 0.0219(3) Uani d . 1 4 . .
O O1 0.6929(2) 0.5409(3) 0.62475(11) 0.0257(6) Uani d . 1 4 . .
O O2 0.6933(2) 0.9598(3) 0.62567(11) 0.0272(6) Uani d . 1 4 . .
C C1 0.7006(3) 0.7495(4) 0.67624(16) 0.0189(6) Uani d . 1 4 . .
C C2 0.7176(3) 0.7518(4) 0.80791(18) 0.0252(7) Uani d . 1 4 . .
C C3 0.7313(5) 0.4978(6) 0.8670(3) 0.0366(10) Uani d . 0.808(4) 4 . .
C C3a 0.732(2) 1.0057(14) 0.8673(11) 0.0366(10) Uani d . 0.192(4) 4 . .
H H1c2 0.832208 0.854412 0.854817 0.0303 Uiso d . 0.808(4) 4 . .
H H2c2 0.605413 0.845792 0.815159 0.0303 Uiso d . 0.808(4) 4 . .
H H1c2d 0.606148 0.657665 0.815979 0.0303 Uiso d . 0.192(4) 4 . .
H H2c2d 0.830804 0.647765 0.855331 0.0303 Uiso d . 0.192(4) 4 . .
H H1c3 0.83853 0.401966 0.856705 0.0549 Uiso d . 0.808(4) 4 . .
H H2c3 0.75814 0.520257 0.951449 0.0549 Uiso d . 0.808(4) 4 . .
H H3c3 0.605919 0.409385 0.83061 0.0549 Uiso d . 0.808(4) 4 . .
H H1c3a 0.856406 1.085929 0.872783 0.0549 Uiso d . 0.192(4) 4 . .
H H2c3a 0.620431 1.108883 0.820205 0.0549 Uiso d . 0.192(4) 4 . .
H H3c3a 0.729143 0.984142 0.946657 0.0549 Uiso d . 0.192(4) 4 . .
loop_
_atom_site_aniso_label
_atom_site_aniso_U_11
_atom_site_aniso_U_22
_atom_site_aniso_U_33
_atom_site_aniso_U_12
_atom_site_aniso_U_13
_atom_site_aniso_U_23
_atom_site_aniso_type_symbol
Na1 0.0253(5) 0.0146(5) 0.0294(5) 0.0001(4) 0.0142(3) 0.0001(3) Na
O1 0.0323(8) 0.0152(10) 0.0341(8) -0.0011(6) 0.0174(7) -0.0038(6) O
O2 0.0341(9) 0.0161(10) 0.0361(8) 0.0008(6) 0.0184(7) 0.0045(6) O
C1 0.0181(8) 0.0150(9) 0.0262(9) -0.0002(9) 0.0111(7) 0.0004(8) C
C2 0.0245(9) 0.0262(11) 0.0287(9) -0.0003(11) 0.0141(7) -0.0016(9) C
C3 0.0414(15) 0.0310(14) 0.0433(14) -0.0006(15) 0.0223(12) 0.0091(13) C
C3a 0.0414(15) 0.0310(14) 0.0433(14) 0.0006(15) 0.0223(12) -0.0091(13) C
loop_
_atom_type_symbol
_atom_type_scat_dispersion_real
_atom_type_scat_dispersion_imag
_atom_type_scat_source
C 0.0181 0.0091 'International Tables Vol C tables 4.2.6.8 and 6.1.1.1'
H 0.0000 0.0000 'International Tables Vol C tables 4.2.6.8 and 6.1.1.1'
Na 0.1353 0.1239 'International Tables Vol C tables 4.2.6.8 and 6.1.1.1'
O 0.0492 0.0322 'International Tables Vol C tables 4.2.6.8 and 6.1.1.1'
loop_
_diffrn_standard_refln_index_h
_diffrn_standard_refln_index_k
_diffrn_standard_refln_index_l
? ? ?
loop_
_exptl_crystal_face_index_h
_exptl_crystal_face_index_k
_exptl_crystal_face_index_l
_exptl_crystal_face_perp_dist
? ? ? ?
loop_
_geom_angle_atom_site_label_1
_geom_angle_atom_site_label_2
_geom_angle_atom_site_label_3
_geom_angle_site_symmetry_1
_geom_angle_site_symmetry_2
_geom_angle_site_symmetry_3
_geom_angle
_geom_angle_publ_flag
O1 C1 O2 . . . 124.01(18) ?
O1 C1 C2 . . . 118.77(19) ?
O2 C1 C2 . . . 117.21(19) ?
C1 C2 C3 . . . 116.1(2) ?
C1 C2 C3a . . . 117.1(5) ?
C1 C2 H1c2 . . . 109.47 ?
C1 C2 H2c2 . . . 109.47 ?
C1 C2 H1c2d . . . 109.47 ?
C1 C2 H2c2d . . . 109.47 ?
C3 C2 C3a . . . 126.7(5) ?
C3 C2 H1c2 . . . 109.47 ?
C3 C2 H2c2 . . . 109.47 ?
C3a C2 H1c2d . . . 109.47 ?
C3a C2 H2c2d . . . 109.47 ?
H1c2 C2 H2c2 . . . 101.92 ?
H1c2d C2 H2c2d . . . 100.62 ?
C2 C3 H1c3 . . . 109.47 ?
C2 C3 H2c3 . . . 109.47 ?
C2 C3 H3c3 . . . 109.47 ?
H1c3 C3 H2c3 . . . 109.47 ?
H1c3 C3 H3c3 . . . 109.47 ?
H2c3 C3 H3c3 . . . 109.47 ?
C2 C3a H1c3a . . . 109.47 ?
C2 C3a H2c3a . . . 109.47 ?
C2 C3a H3c3a . . . 109.47 ?
H1c3a C3a H2c3a . . . 109.47 ?
H1c3a C3a H3c3a . . . 109.47 ?
H2c3a C3a H3c3a . . . 109.47 ?
O1 Na1 O1 . . 2_656 121.28(5) ?
O1 Na1 O1 . . 3_666 82.59(5) ?
O1 Na1 O2 . . . 52.39(5) ?
O1 Na1 O2 . . 2_646 87.29(5) ?
O1 Na1 O2 . . 3_676 115.92(6) ?
O1 Na1 O1 2_656 . 3_666 155.01(5) ?
O1 Na1 O2 2_656 . . 87.20(6) ?
O1 Na1 O2 2_656 . 2_646 80.15(6) ?
O1 Na1 O2 2_656 . 3_676 95.08(6) ?
O1 Na1 O2 3_666 . . 115.64(6) ?
O1 Na1 O2 3_666 . 2_646 94.93(6) ?
O1 Na1 O2 3_666 . 3_676 78.81(6) ?
O2 Na1 O2 . . 2_646 121.43(5) ?
O2 Na1 O2 . . 3_676 82.98(5) ?
O2 Na1 O2 2_646 . 3_676 154.50(5) ?
Na1 O1 Na1 . . 2_646 92.91(6) ?
Na1 O1 Na1 . . 3_666 97.41(5) ?
Na1 O1 Na1 2_646 . 3_666 94.99(6) ?
Na1 O2 Na1 . . 2_656 92.59(6) ?
Na1 O2 Na1 . . 3_676 97.02(5) ?
loop_
_geom_bond_atom_site_label_1
_geom_bond_atom_site_label_2
_geom_bond_site_symmetry_1
_geom_bond_site_symmetry_2
_geom_bond_distance
_geom_bond_publ_flag
O1 C1 . . 1.255(3) ?
O2 C1 . . 1.259(3) ?
C1 C2 . . 1.528(3) ?
C2 C3 . . 1.506(4) ?
C2 C3a . . 1.506(9) ?
C2 H1c2 . . 0.97 ?
C2 H2c2 . . 0.97 ?
C2 H1c2d . . 0.97 ?
C2 H2c2d . . 0.97 ?
C3 H1c3 . . 0.96 ?
C3 H2c3 . . 0.96 ?
C3 H3c3 . . 0.96 ?
C3a H1c3a . . 0.96 ?
C3a H2c3a . . 0.96 ?
C3a H3c3a . . 0.96 ?
Na1 O1 . . 2.5107(15) ?
Na1 O1 . 2_656 2.3898(18) ?
Na1 O1 . 3_666 2.4286(17) ?
Na1 O2 . . 2.5190(15) ?
Na1 O2 . 2_646 2.3944(19) ?
Na1 O2 . 3_676 2.4233(17) ?
loop_
_geom_torsion_atom_site_label_1
_geom_torsion_atom_site_label_2
_geom_torsion_atom_site_label_3
_geom_torsion_atom_site_label_4
_geom_torsion_site_symmetry_1
_geom_torsion_site_symmetry_2
_geom_torsion_site_symmetry_3
_geom_torsion_site_symmetry_4
_geom_torsion
_geom_torsion_publ_flag
O1 C1 C2 C3 . . . . 2.1(3) no
O2 C1 C2 C3 . . . . -178.6(2) no
loop_
_refln_index_h
_refln_index_k
_refln_index_l
_refln_observed_status
_refln_F_squared_meas
_refln_F_squared_calc
_refln_F_squared_sigma
2 0 0 o 5335.08 4874.46 141.05
6 0 0 o 68.43 82.38 1.52
8 0 0 o 81.88 88.24 1.90
1 1 0 o 5.96 1.76 0.43
2 1 0 o 2884.89 2702.57 64.86
3 1 0 o 7.50 3.52 0.46
5 1 0 o 4.99 2.90 0.34
6 1 0 o 86.32 83.56 1.39
7 1 0 o 1.49 1.31 0.28
8 1 0 o 125.67 144.92 2.85
0 2 0 o 26.66 40.09 0.99
1 2 0 o 12.46 10.78 0.44
2 2 0 o 806.76 823.87 12.06
3 2 0 o 2.90 1.58 0.26
4 2 0 o 179.72 186.50 2.04
5 2 0 < 0.56 0.09 0.35
6 2 0 o 212.92 192.37 2.68
7 2 0 < 0.53 0.04 0.35
1 3 0 o 3.07 1.23 0.22
2 3 0 o 273.19 289.57 3.34
3 3 0 o 2.01 1.53 0.29
4 3 0 o 252.25 220.40 3.30
5 3 0 o 1.55 0.95 0.39
6 3 0 < 0.05 0.16 0.32
7 3 0 o 1.38 1.16 0.44
0 4 0 o 2591.39 2419.01 47.04
1 4 0 < 0.38 0.34 0.26
2 4 0 o 204.73 226.92 2.75
3 4 0 < -0.15 0.00 0.27
4 4 0 o 9.70 2.66 0.48
5 4 0 < -0.36 0.01 0.38
6 4 0 o 65.31 58.24 2.13
1 5 0 < 0.76 0.01 0.32
2 5 0 o 622.18 629.65 10.34
3 5 0 < 0.47 0.23 0.28
4 5 0 o 68.18 72.30 1.64
5 5 0 < 0.38 0.68 0.38
0 6 0 o 255.63 214.85 6.88
1 6 0 o 0.82 0.01 0.21
2 6 0 < 0.11 1.07 0.23
3 6 0 < -0.15 0.00 0.30
-8 0 1 o 132.61 167.25 3.12
-6 0 1 o 264.37 281.68 4.59
-4 0 1 o 3325.18 3441.56 84.95
-2 0 1 o 828.97 813.46 25.47
2 0 1 o 704.97 536.22 18.58
4 0 1 o 675.78 542.10 11.20
6 0 1 o 397.96 421.18 6.74
-8 1 1 o 11.28 9.78 0.46
-7 1 1 < 0.53 0.00 0.26
-6 1 1 o 52.63 52.57 0.96
-5 1 1 o 1.27 1.39 0.22
-3 1 1 o 15.95 11.69 0.63
-2 1 1 o 5584.59 5196.99 104.13
-1 1 1 o 71.47 68.40 1.66
0 1 1 o 1066.65 870.26 21.18
1 1 1 o 71.99 86.29 1.52
2 1 1 o 3.39 2.71 0.56
3 1 1 o 28.57 21.75 0.87
4 1 1 o 480.93 475.80 5.72
5 1 1 o 8.48 5.58 0.40
6 1 1 o 41.58 42.40 1.09
7 1 1 o 2.16 1.61 0.32
-7 2 1 < 0.50 0.00 0.32
-6 2 1 o 179.21 184.85 2.32
-5 2 1 o 0.84 0.84 0.27
-4 2 1 o 173.42 164.49 2.15
-3 2 1 o 1.46 1.12 0.23
-2 2 1 o 1.09 0.53 0.23
-1 2 1 o 8.94 5.08 0.59
0 2 1 o 195.04 202.08 5.34
1 2 1 o 1.24 1.13 0.23
2 2 1 o 1313.50 1280.66 19.58
3 2 1 < 0.05 0.06 0.17
4 2 1 o 27.60 28.89 0.55
5 2 1 < -0.17 0.01 0.28
6 2 1 o 206.68 220.14 2.60
-7 3 1 < 0.58 0.00 0.41
-6 3 1 o 58.47 53.93 1.22
-5 3 1 < 0.55 0.26 0.35
-3 3 1 o 5.31 3.66 0.31
-2 3 1 o 337.77 374.35 4.54
-1 3 1 o 19.57 19.46 0.56
0 3 1 o 88.79 86.97 1.83
1 3 1 o 23.40 21.64 0.67
2 3 1 o 6.09 7.86 0.35
3 3 1 o 9.76 8.56 0.35
4 3 1 o 674.59 652.68 11.30
5 3 1 o 4.77 3.83 0.48
6 3 1 o 8.18 8.43 0.48
7 3 1 < 1.00 1.13 0.35
-6 4 1 o 58.17 58.41 1.35
-5 4 1 < -0.13 0.12 0.32
-4 4 1 o 830.87 836.65 11.65
-3 4 1 < 0.46 0.25 0.27
-2 4 1 o 56.55 64.08 1.03
-1 4 1 < 0.31 0.00 0.32
0 4 1 o 543.77 524.31 6.73
1 4 1 < 0.11 0.00 0.29
2 4 1 o 2.35 1.86 0.33
3 4 1 < -0.28 0.01 0.29
4 4 1 o 96.12 79.89 1.58
5 4 1 < 0.06 0.02 0.30
6 4 1 o 166.56 172.47 4.53
-5 5 1 < -0.08 0.30 0.38
-4 5 1 o 70.59 68.77 1.39
-3 5 1 o 1.73 0.58 0.39
-2 5 1 o 1208.06 1199.52 18.10
-1 5 1 o 1.92 1.34 0.33
0 5 1 o 146.66 134.32 2.14
1 5 1 o 5.14 3.33 0.35
2 5 1 o 1.34 0.45 0.31
3 5 1 o 3.05 2.74 0.32
4 5 1 o 44.95 36.94 1.52
5 5 1 < 1.13 1.26 0.38
-3 6 1 o 0.79 0.10 0.23
-2 6 1 o 0.78 0.03 0.26
-1 6 1 < 0.66 0.00 0.24
0 6 1 o 142.28 139.29 2.79
1 6 1 < -0.17 0.01 0.29
2 6 1 o 9.69 8.71 0.38
-8 0 2 o 60.56 58.22 2.87
-6 0 2 o 43.00 34.93 1.03
-4 0 2 o 3841.75 3695.12 138.85
-2 0 2 o 1394.07 1228.62 40.72
0 0 2 o 126.61 121.00 2.14
2 0 2 o 341.64 353.90 13.12
4 0 2 o 536.85 550.36 8.22
6 0 2 o 214.24 221.63 3.45
-8 1 2 o 8.98 5.56 0.37
-7 1 2 o 3.17 2.54 0.49
-6 1 2 o 597.93 603.62 6.72
-5 1 2 o 12.51 10.82 0.34
-4 1 2 o 71.19 66.53 1.70
-3 1 2 o 53.19 46.07 1.26
-2 1 2 o 929.99 814.51 23.96
-1 1 2 o 126.84 148.99 3.41
0 1 2 o 307.96 242.98 5.75
1 1 2 o 80.76 98.76 1.61
2 1 2 o 130.42 128.23 3.24
3 1 2 o 23.42 20.99 0.79
4 1 2 o 611.64 615.55 6.59
5 1 2 o 4.19 4.46 0.31
6 1 2 o 28.38 26.30 0.70
7 1 2 o 1.00 0.87 0.28
-8 2 2 o 58.00 49.50 3.24
-7 2 2 < -0.13 0.04 0.26
-6 2 2 o 116.51 108.06 1.70
-5 2 2 < 0.40 0.22 0.26
-4 2 2 o 140.84 138.12 2.00
-3 2 2 < 0.20 0.13 0.20
-2 2 2 o 341.46 318.19 5.69
-1 2 2 o 2.15 1.74 0.31
0 2 2 o 1.62 0.15 0.48
1 2 2 o 5.24 4.74 0.29
2 2 2 o 2480.08 2465.00 34.01
3 2 2 < 0.32 0.18 0.20
4 2 2 o 85.58 86.70 1.24
5 2 2 < 0.11 0.06 0.26
6 2 2 o 13.55 8.42 0.52
7 2 2 < 0.08 0.04 0.31
-7 3 2 o 1.79 1.73 0.50
-6 3 2 o 192.25 199.92 3.18
-5 3 2 o 5.86 5.26 0.51
-4 3 2 o 79.48 68.02 1.42
-3 3 2 o 16.54 14.53 0.45
-2 3 2 < 0.45 1.78 0.23
-1 3 2 o 47.59 43.08 1.09
0 3 2 o 1875.26 1684.68 39.23
1 3 2 o 30.41 29.85 0.70
2 3 2 o 74.51 87.31 1.21
3 3 2 o 6.02 6.82 0.52
4 3 2 o 320.64 301.43 5.15
5 3 2 o 1.79 2.04 0.35
6 3 2 < 0.20 0.07 0.33
-6 4 2 o 1.48 0.05 0.38
-5 4 2 < 0.42 0.01 0.42
-4 4 2 o 632.94 617.82 8.95
-3 4 2 < 0.58 0.00 0.30
-2 4 2 o 28.73 26.77 0.72
-1 4 2 < 0.24 0.11 0.28
0 4 2 o 5.91 5.26 0.35
1 4 2 < 0.32 0.01 0.23
2 4 2 o 270.89 287.12 3.73
3 4 2 < -0.06 0.00 0.29
4 4 2 o 35.84 35.37 0.74
5 4 2 < 0.32 0.04 0.30
-5 5 2 < 0.45 1.18 0.39
-4 5 2 o 10.09 7.48 0.57
-3 5 2 o 7.35 4.50 0.53
-2 5 2 o 389.33 403.98 5.60
-1 5 2 o 5.97 4.82 0.41
0 5 2 o 20.44 21.22 0.56
2 5 2 o 116.68 121.34 2.04
3 5 2 o 4.09 3.27 0.34
4 5 2 o 168.16 167.53 3.77
-3 6 2 < -0.15 0.00 0.30
-2 6 2 < 0.47 0.20 0.27
-1 6 2 < 0.59 0.00 0.25
0 6 2 o 1.79 1.87 0.25
1 6 2 < 0.42 0.25 0.20
2 6 2 o 119.12 116.81 3.20
-8 0 3 o 270.17 284.17 5.88
-6 0 3 o 8.81 7.16 0.60
-4 0 3 o 1786.97 1354.96 45.75
-2 0 3 o 9.20 1.64 0.91
0 0 3 o 181.37 138.58 3.08
2 0 3 o 663.68 613.08 25.12
4 0 3 o 587.38 598.11 9.75
6 0 3 o 186.62 190.62 3.32
-8 1 3 o 7.99 6.13 0.31
-7 1 3 o 5.60 3.71 0.35
-6 1 3 o 403.09 415.47 4.80
-5 1 3 o 16.53 12.51 0.38
-4 1 3 o 10.08 5.80 0.44
-3 1 3 o 38.78 38.85 2.07
-2 1 3 o 49.32 58.26 1.27
-1 1 3 o 105.70 77.61 3.14
0 1 3 o 1424.62 1238.78 36.60
1 1 3 o 22.39 25.69 0.49
2 1 3 o 210.43 199.83 4.18
3 1 3 o 2.75 2.12 0.29
4 1 3 o 227.70 235.46 2.48
5 1 3 < 0.19 0.03 0.26
6 1 3 o 61.29 60.02 1.10
7 1 3 < 0.32 0.06 0.27
-8 2 3 o 74.45 80.33 1.37
-7 2 3 < 0.05 0.02 0.29
-6 2 3 o 39.29 38.29 0.75
-5 2 3 < 0.76 0.05 0.29
-3 2 3 < -0.12 0.04 0.19
-2 2 3 o 2927.30 2730.81 76.99
-1 2 3 o 21.27 19.01 0.94
0 2 3 o 347.98 290.94 9.21
1 2 3 o 3.59 3.99 0.27
2 2 3 o 854.50 841.85 9.93
3 2 3 o 0.81 0.95 0.24
4 2 3 o 8.78 4.52 0.41
5 2 3 < -0.39 0.07 0.38
6 2 3 o 36.34 38.62 0.83
-7 3 3 o 4.55 2.50 0.59
-6 3 3 o 30.91 28.90 0.94
-5 3 3 o 8.69 5.76 0.49
-4 3 3 o 149.90 153.14 2.21
-3 3 3 o 16.22 15.91 0.43
-2 3 3 o 13.86 19.15 0.82
-1 3 3 o 18.48 14.24 0.65
0 3 3 o 2065.96 1812.66 28.34
1 3 3 o 4.55 3.07 0.37
2 3 3 o 110.94 97.84 1.70
3 3 3 o 1.66 0.91 0.33
5 3 3 < -0.11 0.00 0.32
6 3 3 o 53.76 51.19 1.21
-6 4 3 o 12.25 10.85 0.58
-5 4 3 < 0.20 0.08 0.35
-4 4 3 o 205.16 147.99 4.19
-3 4 3 < -0.35 0.01 0.33
-2 4 3 o 79.17 78.73 1.21
-1 4 3 < 0.04 0.04 0.24
0 4 3 o 20.43 18.43 0.52
1 4 3 < 0.41 0.05 0.22
2 4 3 o 169.14 178.08 2.29
3 4 3 < -0.16 0.00 0.37
4 4 3 o 131.17 145.13 2.91
5 4 3 < -0.21 0.05 0.28
-5 5 3 o 3.90 2.52 0.56
-4 5 3 o 17.56 14.63 0.64
-3 5 3 o 3.79 2.92 0.48
-2 5 3 o 13.34 15.96 0.48
-1 5 3 o 4.39 3.48 0.32
0 5 3 o 48.12 41.57 0.83
1 5 3 o 5.18 2.11 0.29
2 5 3 o 185.32 201.66 2.95
3 5 3 < 1.06 0.22 0.80
4 5 3 o 143.24 147.67 3.19
-3 6 3 < 0.53 0.42 0.45
-2 6 3 o 53.58 50.14 1.04
-1 6 3 o 0.75 0.43 0.22
0 6 3 o 2.99 3.33 0.25
1 6 3 < -0.21 0.02 0.23
2 6 3 o 103.03 119.01 4.00
-8 0 4 o 196.54 198.49 3.90
-6 0 4 o 3.39 5.10 0.51
-4 0 4 o 697.17 370.57 31.43
-2 0 4 o 337.65 279.04 12.60
0 0 4 o 7509.93 5829.20 199.85
2 0 4 o 2239.73 2280.57 40.63
4 0 4 o 57.17 58.12 1.36
6 0 4 o 3.08 1.46 0.54
-8 1 4 o 2.10 0.81 0.28
-7 1 4 o 2.37 2.09 0.34
-6 1 4 o 173.58 176.66 2.30
-5 1 4 o 4.65 3.53 0.28
-4 1 4 o 224.60 227.31 3.88
-3 1 4 < 3.33 4.79 1.55
-2 1 4 o 16.59 17.63 0.83
-1 1 4 o 2.94 0.10 0.30
0 1 4 o 714.11 755.71 15.14
1 1 4 o 2.95 3.64 0.25
2 1 4 o 515.89 552.68 5.78
3 1 4 o 2.68 2.98 0.27
4 1 4 o 104.21 99.62 1.38
5 1 4 o 1.73 1.90 0.35
6 1 4 o 13.76 12.73 0.45
-8 2 4 o 8.12 9.77 0.54
-7 2 4 < 0.23 0.08 0.26
-6 2 4 o 98.07 90.72 1.45
-5 2 4 < 0.81 0.38 0.32
-3 2 4 < 0.17 0.28 0.20
-2 2 4 o 3624.04 3348.88 79.91
-1 2 4 o 4.64 3.76 0.39
0 2 4 o 884.73 667.75 16.28
1 2 4 < 0.08 0.26 0.18
2 2 4 o 20.02 19.74 0.37
3 2 4 < -0.04 0.03 0.19
4 2 4 o 279.16 249.17 3.29
5 2 4 < -0.49 0.00 0.26
6 2 4 o 11.62 10.40 0.44
-7 3 4 o 2.41 1.21 0.47
-6 3 4 o 1.66 0.70 0.40
-5 3 4 o 2.31 1.02 0.50
-4 3 4 o 842.93 836.22 11.84
-3 3 4 o 1.58 0.16 0.30
-2 3 4 o 148.60 161.27 2.00
-1 3 4 o 1.07 0.92 0.30
0 3 4 o 430.14 397.17 5.11
1 3 4 o 1.78 2.34 0.26
2 3 4 o 27.24 34.43 0.57
3 3 4 < 0.73 1.51 0.29
5 3 4 o 0.91 0.87 0.29
6 3 4 o 45.78 50.05 1.41
-6 4 4 o 12.02 15.74 0.58
-5 4 4 < 0.48 0.02 0.35
-3 4 4 < 0.05 0.00 0.29
-2 4 4 o 52.19 41.06 1.05
-1 4 4 < -0.24 0.01 0.26
0 4 4 o 426.88 431.18 4.49
1 4 4 < -0.14 0.00 0.23
2 4 4 o 362.54 409.32 4.84
3 4 4 < 0.19 0.06 0.35
4 4 4 o 21.69 18.28 0.70
5 4 4 < 0.28 0.14 0.23
-5 5 4 < 0.96 0.77 0.51
-4 5 4 o 9.43 1.97 0.56
-3 5 4 o 1.38 0.51 0.36
-2 5 4 o 65.45 77.87 1.07
-1 5 4 < 0.75 0.00 0.26
0 5 4 o 172.74 171.99 3.09
1 5 4 < 0.25 0.14 0.22
2 5 4 o 185.84 206.83 2.52
3 5 4 < 0.23 0.30 0.27
-3 6 4 < 1.11 0.00 0.50
-2 6 4 o 143.24 151.77 2.78
-1 6 4 < 0.36 0.15 0.21
1 6 4 < 0.00 0.02 0.26
-8 0 5 o 275.55 313.78 6.01
-6 0 5 o 40.10 49.60 0.98
-4 0 5 o 599.68 617.73 12.88
-2 0 5 o 1262.96 1261.96 46.08
0 0 5 o 2602.40 2174.96 76.72
2 0 5 o 995.12 1008.11 13.82
4 0 5 o 6.21 4.38 0.51
6 0 5 o 110.49 117.50 3.47
-8 1 5 o 12.81 11.48 0.38
-7 1 5 < 0.86 0.11 0.32
-6 1 5 o 60.45 58.60 1.09
-5 1 5 o 3.04 2.16 0.26
-4 1 5 o 216.27 234.13 2.53
-3 1 5 o 11.63 7.03 0.40
-2 1 5 o 890.15 850.47 16.25
-1 1 5 o 15.66 20.46 0.41
0 1 5 o 1084.56 1118.49 16.09
1 1 5 o 12.86 16.71 0.35
2 1 5 o 188.26 199.04 2.38
3 1 5 o 5.09 5.47 0.29
4 1 5 o 9.94 7.41 0.42
5 1 5 o 1.80 1.63 0.41
6 1 5 o 10.79 9.87 0.35
-8 2 5 o 1.90 1.64 0.28
-7 2 5 < 0.79 0.06 0.29
-6 2 5 o 618.55 646.66 7.69
-5 2 5 < 0.72 0.94 0.29
-4 2 5 o 190.59 212.57 2.21
-3 2 5 < 0.29 0.14 0.24
-2 2 5 o 372.30 421.15 5.66
-1 2 5 < 0.23 0.49 0.21
0 2 5 o 78.80 58.01 1.34
1 2 5 o 0.73 0.34 0.21
2 2 5 o 34.10 35.49 0.52
3 2 5 < 0.28 0.39 0.25
4 2 5 o 188.75 178.42 2.87
5 2 5 < 0.08 0.01 0.31
6 2 5 o 45.06 46.71 1.06
-7 3 5 < 0.98 0.36 0.38
-6 3 5 o 22.01 15.51 0.81
-5 3 5 < 0.90 0.82 0.37
-4 3 5 o 631.19 601.53 8.36
-3 3 5 o 4.82 4.25 0.32
-2 3 5 o 3.70 1.00 0.27
-1 3 5 o 9.19 12.20 0.32
0 3 5 o 96.15 104.44 1.29
1 3 5 o 5.48 5.36 0.29
2 3 5 o 93.10 101.93 1.49
3 3 5 o 1.99 1.90 0.32
4 3 5 o 67.96 68.06 1.16
5 3 5 o 0.87 1.04 0.26
-6 4 5 < 0.51 0.83 0.35
-5 4 5 < 0.29 0.01 0.34
-4 4 5 o 91.03 103.20 1.48
-3 4 5 < -0.44 0.00 0.29
-2 4 5 o 349.83 388.10 4.24
-1 4 5 < 0.05 0.10 0.23
0 4 5 o 241.11 233.54 2.72
1 4 5 < 0.20 0.18 0.26
2 4 5 o 116.32 130.78 1.83
3 4 5 < 0.17 0.00 0.38
4 4 5 < 0.78 0.04 0.31
-5 5 5 < 1.00 0.47 0.48
-4 5 5 o 9.22 2.14 0.48
-3 5 5 o 1.56 1.53 0.29
-2 5 5 o 331.00 354.95 4.42
-1 5 5 o 2.14 1.46 0.33
0 5 5 o 368.40 347.22 5.21
1 5 5 o 3.30 2.86 0.27
2 5 5 o 28.22 28.63 0.67
3 5 5 o 1.76 2.58 0.31
-2 6 5 o 48.38 51.38 1.73
-1 6 5 < 0.68 0.06 0.38
-8 0 6 o 26.15 11.78 0.97
-6 0 6 o 13.33 9.51 0.71
-4 0 6 o 1522.25 1567.58 56.41
-2 0 6 o 3213.85 3158.01 67.10
0 0 6 o 14.07 18.31 0.61
2 0 6 o 2.56 1.32 0.29
4 0 6 o 4.36 2.90 0.45
6 0 6 o 89.20 97.32 2.10
-8 1 6 o 7.46 5.61 0.34
-7 1 6 o 5.46 3.75 0.44
-6 1 6 o 60.04 54.34 0.95
-5 1 6 o 8.26 7.59 0.32
-4 1 6 o 588.29 613.09 7.31
-3 1 6 o 17.27 15.58 0.48
-2 1 6 o 576.86 550.81 7.47
-1 1 6 o 20.59 25.09 0.48
0 1 6 o 301.77 272.00 4.60
1 1 6 o 9.01 10.98 0.26
2 1 6 o 40.85 40.44 0.57
3 1 6 o 3.52 3.25 0.36
4 1 6 o 201.65 203.56 2.72
5 1 6 o 1.36 1.01 0.29
6 1 6 o 43.72 46.93 1.01
-8 2 6 o 3.66 4.34 0.38
-7 2 6 < 0.30 0.01 0.32
-6 2 6 o 380.61 387.47 5.17
-5 2 6 < 0.35 0.02 0.29
-4 2 6 o 6.03 3.38 0.31
-3 2 6 < 0.48 0.29 0.27
-2 2 6 o 84.69 100.49 1.16
-1 2 6 o 3.97 4.94 0.29
0 2 6 o 157.48 139.98 2.12
1 2 6 < 0.27 0.42 0.18
2 2 6 o 279.55 294.27 3.57
3 2 6 < 0.21 0.07 0.23
4 2 6 o 243.69 239.57 3.42
5 2 6 < -0.36 0.00 0.32
-7 3 6 o 2.73 1.52 0.41
-6 3 6 o 2.93 1.40 0.47
-5 3 6 o 4.55 3.84 0.45
-4 3 6 o 511.62 474.15 7.27
-3 3 6 o 8.28 7.83 0.36
-2 3 6 o 0.89 1.03 0.23
-1 3 6 o 7.56 7.30 0.30
0 3 6 o 67.69 50.59 0.91
1 3 6 o 3.20 4.90 0.29
2 3 6 o 167.72 187.21 2.15
3 3 6 o 2.29 2.39 0.42
4 3 6 o 126.20 124.66 2.66
-6 4 6 o 32.92 31.27 0.86
-5 4 6 < 0.34 0.01 0.38
-4 4 6 o 258.48 257.83 4.53
-3 4 6 < -0.14 0.00 0.29
-2 4 6 o 413.75 467.59 4.94
-1 4 6 < 0.37 0.25 0.24
0 4 6 o 31.77 22.28 0.58
1 4 6 < 0.22 0.68 0.29
2 4 6 o 31.93 37.84 0.68
3 4 6 < 0.63 0.20 0.29
4 4 6 o 22.08 24.69 0.63
-5 5 6 o 2.09 2.06 0.45
-4 5 6 o 110.34 116.89 2.02
-3 5 6 o 5.34 4.12 0.41
-2 5 6 o 256.79 252.29 3.71
-1 5 6 o 7.57 5.25 0.34
0 5 6 o 206.82 198.77 3.26
1 5 6 o 2.89 2.76 0.24
2 5 6 o 3.04 3.62 0.39
-8 0 7 o 149.58 126.49 3.45
-6 0 7 o 347.74 374.54 5.92
-4 0 7 o 537.13 561.12 8.89
-2 0 7 o 381.45 412.57 8.23
0 0 7 o 32.90 36.01 0.74
2 0 7 o 241.36 263.17 4.67
4 0 7 o 12.82 12.12 0.55
-8 1 7 o 60.97 61.73 0.95
-7 1 7 o 5.05 3.27 0.38
-6 1 7 o 168.07 174.06 2.24
-5 1 7 o 7.44 6.77 0.34
-4 1 7 o 567.52 588.22 6.12
-3 1 7 o 8.21 10.83 0.35
-2 1 7 o 54.73 61.12 0.75
-1 1 7 o 5.42 6.50 0.29
0 1 7 o 240.22 228.29 2.47
1 1 7 o 1.49 0.84 0.19
2 1 7 o 179.26 191.56 1.92
3 1 7 < 0.32 0.00 0.24
4 1 7 o 81.20 75.19 1.13
5 1 7 < 0.16 0.09 0.26
-8 2 7 o 11.24 5.12 0.59
-7 2 7 < 0.39 0.03 0.33
-6 2 7 o 356.65 382.72 6.89
-5 2 7 < 0.21 0.12 0.31
-4 2 7 o 9.59 5.67 0.37
-3 2 7 < 0.46 0.13 0.24
-2 2 7 o 169.90 182.36 2.37
-1 2 7 o 1.42 2.34 0.26
0 2 7 o 471.78 446.43 4.74
1 2 7 < 0.25 0.03 0.25
2 2 7 o 338.21 349.18 3.92
3 2 7 < -0.05 0.09 0.34
4 2 7 o 265.99 255.96 3.43
5 2 7 < 0.02 0.02 0.24
-7 3 7 o 3.00 1.87 0.35
-6 3 7 < 0.96 0.15 0.34
-5 3 7 o 4.03 3.37 0.42
-4 3 7 o 115.91 103.25 1.64
-3 3 7 o 4.00 4.93 0.42
-2 3 7 o 17.78 18.55 0.46
-1 3 7 o 2.15 1.99 0.29
0 3 7 o 643.10 511.10 7.66
1 3 7 < 0.63 0.40 0.25
2 3 7 o 490.03 486.03 5.82
3 3 7 < 0.37 0.11 0.32
4 3 7 o 2.18 2.64 0.27
-6 4 7 o 209.42 217.99 3.66
-5 4 7 < -0.12 0.37 0.32
-4 4 7 o 50.70 45.69 0.96
-3 4 7 < 0.43 0.65 0.32
-2 4 7 o 25.99 28.95 0.57
-1 4 7 < 0.19 0.19 0.27
0 4 7 o 45.81 41.87 0.80
1 4 7 < -0.22 0.05 0.26
2 4 7 o 95.42 101.91 1.80
3 4 7 < 0.43 0.01 0.28
-5 5 7 o 3.37 2.93 0.37
-4 5 7 o 227.69 244.90 3.54
-3 5 7 o 3.19 2.09 0.29
-2 5 7 o 18.55 18.04 0.46
-1 5 7 o 1.63 0.97 0.25
0 5 7 o 4.53 3.87 0.33
1 5 7 < -0.30 0.36 0.17
2 5 7 o 2.98 4.01 0.41
-8 0 8 o 95.69 83.26 2.32
-6 0 8 o 251.88 259.38 4.86
-4 0 8 o 247.36 231.57 4.25
-2 0 8 o 4.77 4.55 0.35
0 0 8 o 1.92 1.77 0.30
2 0 8 o 378.50 366.20 5.94
4 0 8 o 1.18 1.22 0.33
-8 1 8 o 187.92 196.27 3.23
-7 1 8 o 4.40 1.01 0.41
-6 1 8 o 24.71 24.13 0.63
-5 1 8 < 0.69 0.45 0.25
-3 1 8 o 0.89 0.00 0.20
-2 1 8 o 285.47 309.04 3.45
-1 1 8 o 2.61 2.94 0.23
0 1 8 o 311.91 278.57 2.88
1 1 8 o 4.07 4.79 0.34
2 1 8 o 87.35 90.35 1.10
3 1 8 o 1.49 2.27 0.26
4 1 8 o 10.41 8.68 0.33
5 1 8 o 0.89 0.85 0.28
-8 2 8 o 3.88 1.34 0.41
-7 2 8 < -0.06 0.00 0.33
-6 2 8 o 63.28 65.87 1.18
-5 2 8 < 0.05 0.10 0.31
-4 2 8 < 0.75 0.36 0.37
-3 2 8 < -0.11 0.01 0.30
-2 2 8 o 1154.93 1207.32 12.23
-1 2 8 < 0.83 0.22 0.28
0 2 8 o 1710.59 1548.66 16.11
1 2 8 < 0.21 0.02 0.23
2 2 8 o 17.23 17.49 1.09
3 2 8 < 0.20 0.07 0.29
4 2 8 o 13.61 12.51 0.56
-7 3 8 < 0.78 0.71 0.29
-6 3 8 o 28.81 31.63 0.77
-5 3 8 < 0.41 0.61 0.34
-4 3 8 o 183.89 191.46 2.65
-3 3 8 < 0.53 0.27 0.35
-2 3 8 o 495.26 511.03 5.88
-1 3 8 o 1.34 1.82 0.27
0 3 8 o 202.52 161.33 2.53
1 3 8 o 1.37 1.06 0.23
2 3 8 o 174.71 180.95 2.93
3 3 8 < 0.70 0.96 0.28
4 3 8 o 8.22 9.17 0.41
-6 4 8 o 71.81 63.39 1.56
-5 4 8 < 0.88 0.01 0.48
-4 4 8 o 59.98 55.59 1.06
-3 4 8 < -0.09 0.01 0.35
-2 4 8 o 22.28 22.34 0.46
-1 4 8 < 0.21 0.01 0.21
0 4 8 o 49.46 40.90 0.84
1 4 8 < 0.23 0.02 0.23
2 4 8 o 70.82 78.24 1.82
-4 5 8 o 52.06 37.96 1.50
-3 5 8 < 0.32 0.01 0.20
-2 5 8 o 8.58 7.06 0.31
-1 5 8 < -0.10 0.31 0.23
0 5 8 o 77.79 78.06 1.37
1 5 8 < 0.38 0.95 0.30
-8 0 9 o 73.01 73.23 1.83
-6 0 9 o 63.80 66.73 1.52
-4 0 9 o 52.68 59.57 1.34
-2 0 9 o 132.27 143.71 1.80
0 0 9 o 4.62 2.58 0.43
2 0 9 o 220.32 202.50 5.11
4 0 9 o 8.39 8.90 0.46
-8 1 9 o 24.83 25.62 0.70
-7 1 9 o 1.87 0.90 0.38
-6 1 9 o 63.58 64.89 1.01
-5 1 9 o 3.95 3.46 0.34
-4 1 9 o 128.07 125.31 1.90
-3 1 9 o 7.41 7.68 0.34
-2 1 9 o 304.70 330.26 2.94
-1 1 9 o 8.43 9.13 0.38
0 1 9 o 66.50 66.29 1.38
1 1 9 o 3.61 4.22 0.29
2 1 9 o 20.59 23.32 0.46
3 1 9 o 1.78 1.37 0.33
4 1 9 o 39.21 37.00 0.75
-7 2 9 < -0.17 0.03 0.31
-6 2 9 o 345.72 349.55 4.99
-5 2 9 < -0.29 0.05 0.35
-4 2 9 o 820.25 874.82 9.13
-3 2 9 < 0.35 0.14 0.26
-2 2 9 o 69.17 74.01 1.08
-1 2 9 < 0.41 0.35 0.23
0 2 9 o 234.76 206.72 2.56
1 2 9 < 0.00 0.00 0.58
2 2 9 o 11.19 10.83 0.41
3 2 9 < 0.26 0.05 0.26
4 2 9 o 120.32 122.17 2.77
-7 3 9 o 1.03 0.48 0.26
-6 3 9 o 18.74 21.20 0.62
-5 3 9 o 1.61 1.80 0.38
-4 3 9 o 313.55 325.23 3.61
-3 3 9 o 3.26 3.37 0.38
-2 3 9 o 658.22 658.73 7.37
-1 3 9 o 3.39 3.62 0.37
0 3 9 < 0.43 0.15 0.25
1 3 9 o 2.19 2.25 0.31
2 3 9 o 14.60 14.12 0.56
3 3 9 < 0.69 0.81 0.28
-6 4 9 o 4.65 1.61 0.44
-5 4 9 < 0.32 0.00 0.29
-4 4 9 o 53.02 51.51 1.15
-3 4 9 < 0.31 0.00 0.23
-2 4 9 o 93.35 94.34 1.23
-1 4 9 < 0.10 0.04 0.20
0 4 9 o 18.56 15.04 0.44
1 4 9 < 0.05 0.01 0.38
2 4 9 o 33.68 36.74 1.09
-3 5 9 o 1.18 2.20 0.25
-2 5 9 o 16.26 15.45 0.40
-1 5 9 o 1.38 1.81 0.31
-8 0 10 o 76.40 69.67 4.15
-6 0 10 < 2.15 0.00 0.83
-4 0 10 o 1.21 2.74 0.33
-2 0 10 o 404.38 408.35 5.42
0 0 10 o 15.40 16.77 0.54
2 0 10 o 140.29 146.52 2.54
-8 1 10 o 23.47 16.10 0.73
-7 1 10 o 3.71 3.22 0.50
-6 1 10 o 213.72 224.54 2.79
-5 1 10 o 4.14 4.44 0.37
-4 1 10 o 37.32 34.92 0.94
-3 1 10 o 5.54 5.49 0.32
-2 1 10 o 0.87 0.46 0.26
-1 1 10 o 4.04 4.48 0.30
0 1 10 o 175.54 151.87 2.02
1 1 10 o 1.61 1.79 0.29
2 1 10 o 42.77 44.10 0.81
3 1 10 < 0.51 0.57 0.29
-7 2 10 < 0.17 0.00 0.29
-6 2 10 o 192.26 192.32 2.93
-5 2 10 < 0.29 0.11 0.31
-4 2 10 o 609.37 648.32 9.38
-3 2 10 < 0.16 0.10 0.29
-2 2 10 o 7.26 6.52 0.35
-1 2 10 < 0.23 0.45 0.24
0 2 10 o 69.50 62.57 1.06
1 2 10 < 0.09 0.01 0.26
2 2 10 o 26.73 25.40 0.58
3 2 10 < 0.66 0.01 0.30
-6 3 10 o 242.57 252.91 3.50
-5 3 10 o 2.36 2.33 0.37
-4 3 10 o 48.97 47.27 0.76
-3 3 10 o 3.60 3.08 0.28
-2 3 10 o 87.77 89.92 1.15
-1 3 10 o 2.14 1.82 0.33
0 3 10 < 0.32 0.50 0.24
1 3 10 o 1.36 1.43 0.35
2 3 10 o 81.20 88.19 1.38
-5 4 10 < 0.45 0.15 0.27
-4 4 10 o 31.23 31.03 0.64
-3 4 10 < 0.05 0.17 0.23
-2 4 10 o 67.82 70.47 1.01
-1 4 10 o 0.83 0.33 0.24
0 4 10 o 7.75 5.75 0.33
1 4 10 o 0.87 0.52 0.25
-6 0 11 o 21.35 17.37 0.76
-4 0 11 o 20.71 27.02 0.68
-2 0 11 o 401.50 416.76 6.89
0 0 11 o 11.75 9.49 0.61
2 0 11 o 29.87 26.45 1.05
-7 1 11 o 2.61 1.37 0.38
-6 1 11 o 40.46 41.77 0.76
-5 1 11 o 2.39 2.29 0.35
-4 1 11 o 105.50 99.58 1.40
-3 1 11 o 1.90 2.60 0.37
-2 1 11 o 26.32 27.90 0.54
-1 1 11 < 0.63 0.80 0.28
0 1 11 o 136.09 115.21 1.73
1 1 11 < 0.40 0.08 0.27
2 1 11 o 18.28 19.03 0.44
-7 2 11 < 0.85 0.00 0.51
-6 2 11 o 14.04 12.78 0.46
-5 2 11 < 0.75 0.00 0.26
-4 2 11 o 45.88 36.38 0.91
-3 2 11 < 0.18 0.02 0.28
-2 2 11 o 19.57 16.03 0.51
-1 2 11 < 0.26 0.01 0.26
0 2 11 o 88.78 87.14 1.18
1 2 11 < 0.11 0.01 0.23
2 2 11 o 3.73 4.09 0.26
-6 3 11 o 140.13 151.43 1.95
-5 3 11 o 1.42 1.89 0.32
-4 3 11 o 17.00 9.95 0.45
-3 3 11 o 1.16 1.34 0.23
-2 3 11 o 5.82 6.35 0.29
-1 3 11 < 1.17 0.93 0.46
0 3 11 o 5.95 5.27 0.41
1 3 11 < 0.57 0.29 0.23
-4 4 11 < 0.25 0.02 0.29
-3 4 11 < 0.14 0.51 0.20
-2 4 11 o 72.10 83.05 1.46
-1 4 11 < 0.11 0.15 0.35
-6 0 12 o 100.04 103.17 2.17
-4 0 12 o 45.67 46.87 1.11
-2 0 12 o 265.27 273.29 4.23
0 0 12 < 0.92 0.67 0.50
2 0 12 o 21.19 19.81 0.94
-7 1 12 < 0.94 0.23 0.57
-6 1 12 o 1.04 0.57 0.29
-5 1 12 < 0.28 0.01 0.31
-4 1 12 o 144.43 148.32 1.98
-3 1 12 < 0.35 0.30 0.26
-2 1 12 o 19.80 23.33 0.48
-1 1 12 o 1.32 1.20 0.28
0 1 12 o 6.80 6.18 0.43
1 1 12 o 1.48 1.17 0.28
2 1 12 o 24.89 36.25 1.51
-6 2 12 o 32.63 33.71 0.66
-5 2 12 < 0.01 0.00 0.27
-3 2 12 < 0.51 0.03 0.27
-2 2 12 o 10.73 6.43 0.43
-1 2 12 < 0.02 0.08 0.26
0 2 12 o 322.08 261.92 3.83
1 2 12 < 0.35 0.00 0.39
-5 3 12 < 0.45 0.17 0.26
-4 3 12 o 1.85 1.64 0.26
-3 3 12 < 0.38 0.08 0.21
-2 3 12 o 80.12 83.48 1.05
-1 3 12 < 0.84 0.62 0.30
0 3 12 o 4.92 4.34 0.45
-6 0 13 o 222.41 228.11 6.00
-4 0 13 < 0.84 0.12 0.48
-2 0 13 o 6.71 6.70 0.64
0 0 13 o 26.43 20.72 0.75
-6 1 13 o 2.78 1.29 0.33
-5 1 13 o 2.40 2.23 0.36
-4 1 13 o 21.01 25.69 0.72
-3 1 13 o 3.12 3.06 0.35
-2 1 13 o 99.58 88.20 1.71
-1 1 13 o 2.53 2.01 0.28
0 1 13 o 4.63 2.59 0.33
-5 2 13 < 0.59 0.00 0.29
-4 2 13 o 151.09 154.81 2.24
-3 2 13 < -0.11 0.05 0.29
-2 2 13 o 11.03 10.89 0.47
-1 2 13 < 0.56 0.01 0.26
0 2 13 o 148.91 118.76 2.90
-3 3 13 < 0.91 1.99 0.30
-4 0 14 o 15.60 14.90 0.54
-2 0 14 o 1.83 1.24 0.45
-5 1 14 o 1.00 1.41 0.26
-4 1 14 o 23.19 21.24 0.80
-3 1 14 o 0.83 0.99 0.26
-2 1 14 o 36.62 35.01 0.63
-1 1 14 < 0.25 0.42 0.23
-3 2 14 < -0.08 0.03 0.30
loop_
_restr_angle_atom_site_label_1
_restr_angle_site_symmetry_1
_restr_angle_atom_site_label_2
_restr_angle_site_symmetry_2
_restr_angle_atom_site_label_3
_restr_angle_site_symmetry_3
_restr_angle_target
_restr_angle_target_weight_param
? ? ? ? ? ? ? ?
loop_
_restr_distance_atom_site_label_1
_restr_distance_site_symmetry_1
_restr_distance_atom_site_label_2
_restr_distance_site_symmetry_2
_restr_distance_target
_restr_distance_target_weight_param
? ? ? ? ? ?
loop_
_restr_equal_angle_atom_site_label_1
_restr_equal_angle_site_symmetry_1
_restr_equal_angle_atom_site_label_2
_restr_equal_angle_site_symmetry_2
_restr_equal_angle_atom_site_label_3
_restr_equal_angle_site_symmetry_3
_restr_equal_angle_class_class_id
_restr_equal_angle_class_target_weight_param
? ? ? ? ? ? ? ?
loop_
_restr_equal_distance_atom_site_label_1
_restr_equal_distance_site_symmetry_1
_restr_equal_distance_atom_site_label_2
_restr_equal_distance_site_symmetry_2
_restr_equal_distance_class_class_id
_restr_equal_distance_class_target_weight_param
C2 . C3 . 1 0.001
C2 . C3a . 1 0.001
loop_
_restr_equal_torsion_atom_site_label_1
_restr_equal_torsion_site_symmetry_1
_restr_equal_torsion_atom_site_label_2
_restr_equal_torsion_site_symmetry_2
_restr_equal_torsion_atom_site_label_3
_restr_equal_torsion_site_symmetry_3
_restr_equal_torsion_atom_site_label_4
_restr_equal_torsion_site_symmetry_4
_restr_equal_torsion_class_class_id
_restr_equal_torsion_class_target_weight_param
? ? ? ? ? ? ? ? ? ?
loop_
_restr_torsion_atom_site_label_1
_restr_torsion_site_symmetry_1
_restr_torsion_atom_site_label_2
_restr_torsion_site_symmetry_2
_restr_torsion_atom_site_label_3
_restr_torsion_site_symmetry_3
_restr_torsion_atom_site_label_4
_restr_torsion_site_symmetry_4
_restr_torsion_angle_target
_restr_torsion_weight_param
? ? ? ? ? ? ? ? ? ?
loop_
_twin_individual_id
_twin_individual_mass_fraction_refined
_twin_individual_twin_matrix_11
_twin_individual_twin_matrix_12
_twin_individual_twin_matrix_13
_twin_individual_twin_matrix_21
_twin_individual_twin_matrix_22
_twin_individual_twin_matrix_23
_twin_individual_twin_matrix_31
_twin_individual_twin_matrix_32
_twin_individual_twin_matrix_33
? ? ? ? ? ? ? ? ? ? ?
loop_
_jana_atom_site_adp_c_label
_jana_atom_site_adp_c_type_symbol
_jana_atom_site_adp_c_111
_jana_atom_site_adp_c_112
_jana_atom_site_adp_c_113
_jana_atom_site_adp_c_122
_jana_atom_site_adp_c_123
_jana_atom_site_adp_c_133
_jana_atom_site_adp_c_222
_jana_atom_site_adp_c_223
_jana_atom_site_adp_c_233
_jana_atom_site_adp_c_333
? ? ? ? ? ? ? ? ? ? ? ?
loop_
_jana_atom_site_adp_d_label
_jana_atom_site_adp_d_type_symbol
_jana_atom_site_adp_d_1111
_jana_atom_site_adp_d_1112
_jana_atom_site_adp_d_1113
_jana_atom_site_adp_d_1122
_jana_atom_site_adp_d_1123
_jana_atom_site_adp_d_1133
_jana_atom_site_adp_d_1222
_jana_atom_site_adp_d_1223
_jana_atom_site_adp_d_1233
_jana_atom_site_adp_d_1333
_jana_atom_site_adp_d_2222
_jana_atom_site_adp_d_2223
_jana_atom_site_adp_d_2233
_jana_atom_site_adp_d_2333
_jana_atom_site_adp_d_3333
? ? ? ? ? ? ? ? ? ? ? ? ? ? ? ? ?
loop_
_jana_atom_site_adp_e_label
_jana_atom_site_adp_e_type_symbol
_jana_atom_site_adp_e_11111
_jana_atom_site_adp_e_11112
_jana_atom_site_adp_e_11113
_jana_atom_site_adp_e_11122
_jana_atom_site_adp_e_11123
_jana_atom_site_adp_e_11133
_jana_atom_site_adp_e_11222
_jana_atom_site_adp_e_11223
_jana_atom_site_adp_e_11233
_jana_atom_site_adp_e_11333
_jana_atom_site_adp_e_12222
_jana_atom_site_adp_e_12223
_jana_atom_site_adp_e_12233
_jana_atom_site_adp_e_12333
_jana_atom_site_adp_e_13333
_jana_atom_site_adp_e_22222
_jana_atom_site_adp_e_22223
_jana_atom_site_adp_e_22233
_jana_atom_site_adp_e_22333
_jana_atom_site_adp_e_23333
_jana_atom_site_adp_e_33333
? ? ? ? ? ? ? ? ? ? ? ? ? ? ? ? ? ? ? ? ? ? ?
loop_
_jana_atom_site_adp_f_label
_jana_atom_site_adp_f_type_symbol
_jana_atom_site_adp_f_111111
_jana_atom_site_adp_f_111112
_jana_atom_site_adp_f_111113
_jana_atom_site_adp_f_111122
_jana_atom_site_adp_f_111123
_jana_atom_site_adp_f_111133
_jana_atom_site_adp_f_111222
_jana_atom_site_adp_f_111223
_jana_atom_site_adp_f_111233
_jana_atom_site_adp_f_111333
_jana_atom_site_adp_f_112222
_jana_atom_site_adp_f_112223
_jana_atom_site_adp_f_112233
_jana_atom_site_adp_f_112333
_jana_atom_site_adp_f_113333
_jana_atom_site_adp_f_122222
_jana_atom_site_adp_f_122223
_jana_atom_site_adp_f_122233
_jana_atom_site_adp_f_122333
_jana_atom_site_adp_f_123333
_jana_atom_site_adp_f_133333
_jana_atom_site_adp_f_222222
_jana_atom_site_adp_f_222223
_jana_atom_site_adp_f_222233
_jana_atom_site_adp_f_222333
_jana_atom_site_adp_f_223333
_jana_atom_site_adp_f_233333
_jana_atom_site_adp_f_333333
? ? ? ? ? ? ? ? ? ? ? ? ? ? ? ? ? ? ? ? ? ? ? ? ? ? ? ? ? ?

_cod_database_fobs_code 2243557
