#------------------------------------------------------------------------------
#$Date: 2020-08-29 08:06:38 +0300 (Sat, 29 Aug 2020) $
#$Revision: 255741 $
#$URL: file:///home/coder/svn-repositories/cod/cif/2/24/35/2243560.cif $
#------------------------------------------------------------------------------
#
# This file is available in the Crystallography Open Database (COD),
# http://www.crystallography.net/. The original data for this entry
# were provided by IUCr Journals, http://journals.iucr.org/.
#
# The file may be used within the scientific community so long as
# proper attribution is given to the journal article from which the
# data were obtained.
#
data_2243560
loop_
_publ_author_name
'F\'abry, Jan'
'Samolov\'a, Erika'
_publ_section_title
;
 Layered alkali propanoates <i>M</i>^+^(C~2~H~5~COO)^{-^}; <i>M</i>^+^ =
 Na^+^, K^+^, Rb^+^, Cs^+^
;
_journal_coeditor_code           WM5573
_journal_issue                   9
_journal_name_full               'Acta Crystallographica Section E'
_journal_page_first              1508
_journal_page_last               1513
_journal_paper_doi               10.1107/S2056989020011469
_journal_volume                  76
_journal_year                    2020
_chemical_formula_iupac          '[Cs (C3 H5 O2)]'
_chemical_formula_moiety         'Cs, C3 H5 O2'
_chemical_formula_sum            'C3 H5 Cs O2'
_chemical_formula_weight         206
_chemical_name_common            'Caesium propionate'
_chemical_name_systematic
;
Poly[(\m~5~-propanoato)caesium(I)]
;
_space_group_IT_number           19
_space_group_name_Hall           'P 2ac 2ab'
_space_group_name_H-M_alt        'P 21 21 21'
_symmetry_cell_setting           orthorhombic
_symmetry_space_group_name_Hall  'P 2ac 2ab'
_symmetry_space_group_name_H-M   'P 21 21 21'
_atom_sites_solution_primary     'charge flipping'
_cell_angle_alpha                90
_cell_angle_beta                 90
_cell_angle_gamma                90
_cell_formula_units_Z            4
_cell_length_a                   4.42420(10)
_cell_length_b                   6.2866(2)
_cell_length_c                   21.4422(8)
_cell_measurement_reflns_used    5792
_cell_measurement_temperature    240(2)
_cell_measurement_theta_max      29.985
_cell_measurement_theta_min      3.377
_cell_volume                     596.38(3)
_computing_cell_refinement
;
SAINT (Bruker, 2017)
;
_computing_data_collection
;
APEX3 (Bruker, 2017)
;
_computing_data_reduction
;
SAINT (Bruker, 2017)
;
_computing_molecular_graphics
;
DIAMOND (Brandenburg, 2005)
;
_computing_publication_material
;
<i>JANA</i>2006 (Pet\<r\'i\<cek <i>et al.</i>, 2014)
;
_computing_structure_refinement
;
<i>JANA</i>2006 (Pet\<r\'i\<cek <i>et al.</i>, 2014)
;
_computing_structure_solution
;
<i>SUPERFLIP</i> (Palatinus & Chapuis, 2007)
;
_diffrn_ambient_temperature      240(2)
_diffrn_detector                 CCD
_diffrn_measured_fraction_theta_full 0.98
_diffrn_measured_fraction_theta_max 0.98
_diffrn_measurement_device_type  'Bruker D8 VENTURE Kappa Duo PHOTON 100 CMOS'
_diffrn_measurement_method       '\f and \w scans'
_diffrn_radiation_monochromator  'Quazar Mo multilayer optic'
_diffrn_radiation_probe          x-ray
_diffrn_radiation_source         'X-ray tube'
_diffrn_radiation_type           'Mo K\a'
_diffrn_radiation_wavelength     0.71073
_diffrn_reflns_av_R_equivalents  0.0257
_diffrn_reflns_av_unetI/netI     0.0258
_diffrn_reflns_limit_h_max       5
_diffrn_reflns_limit_h_min       -6
_diffrn_reflns_limit_k_max       7
_diffrn_reflns_limit_k_min       -8
_diffrn_reflns_limit_l_max       25
_diffrn_reflns_limit_l_min       -29
_diffrn_reflns_number            5255
_diffrn_reflns_theta_full        29.99
_diffrn_reflns_theta_max         29.99
_diffrn_reflns_theta_min         1.9
_diffrn_source                   'I\mS  micro-focus sealed tube'
_diffrn_standards_number         0
_exptl_absorpt_coefficient_mu    6.092
_exptl_absorpt_correction_T_max  0.8480
_exptl_absorpt_correction_T_min  0.2180
_exptl_absorpt_correction_type   multi-scan
_exptl_absorpt_process_details
;
(<i>SADABS</i>; Bruker, 2017)
;
_exptl_crystal_colour            colourless
_exptl_crystal_density_diffrn    2.2941
_exptl_crystal_description       plate
_exptl_crystal_F_000             376
_exptl_crystal_size_max          0.359
_exptl_crystal_size_mid          0.309
_exptl_crystal_size_min          0.028
_refine_diff_density_max         0.64
_refine_diff_density_min         -0.65
_refine_ls_abs_structure_details
'  652 of Friedel pairs used in the refinement'
_refine_ls_abs_structure_Flack   0.10(9)
_refine_ls_extinction_method     none
_refine_ls_goodness_of_fit_gt    1.65
_refine_ls_goodness_of_fit_ref   1.63
_refine_ls_hydrogen_treatment    constr
_refine_ls_number_constraints    35
_refine_ls_number_parameters     56
_refine_ls_number_reflns         1687
_refine_ls_number_restraints     0
_refine_ls_R_factor_all          0.0296
_refine_ls_R_factor_gt           0.0271
_refine_ls_shift/su_max          0.0344
_refine_ls_shift/su_mean         0.0020
_refine_ls_structure_factor_coef Fsqd
_refine_ls_weighting_details     w=1/(\s^2^(I)+0.0004I^2^)
_refine_ls_weighting_scheme      sigma
_refine_ls_wR_factor_gt          0.0675
_refine_ls_wR_factor_ref         0.0685
_reflns_number_gt                1583
_reflns_number_total             1687
_reflns_threshold_expression     I>3\s(I)
_cod_data_source_file            wm5573sup1.cif
_cod_data_source_block           IV
_cod_original_formula_sum        'C3 H5 Cs1 O2'
_cod_database_code               2243560
loop_
_space_group_symop_id
_space_group_symop_operation_xyz
1 x,y,z
2 -x+1/2,-y,z+1/2
3 -x,y+1/2,-z+1/2
4 x+1/2,-y+1/2,-z
loop_
_atom_site_type_symbol
_atom_site_label
_atom_site_fract_x
_atom_site_fract_y
_atom_site_fract_z
_atom_site_U_iso_or_equiv
_atom_site_adp_type
_atom_site_calc_flag
_atom_site_refinement_flags
_atom_site_occupancy
_atom_site_site_symmetry_multiplicity
_atom_site_disorder_assembly
_atom_site_disorder_group
Cs Cs1 0.73026(5) 0.64992(4) 0.191271(13) 0.04419(9) Uani d . 1 4 . .
O O1 0.7580(11) 0.4754(5) 0.32881(17) 0.0553(11) Uani d . 1 4 . .
O O2 0.7650(9) 0.8283(5) 0.32818(19) 0.0571(11) Uani d . 1 4 . .
C C1 0.7947(8) 0.6530(7) 0.3549(2) 0.0406(11) Uani d . 1 4 . .
C C2 0.891(2) 0.6550(12) 0.4209(3) 0.095(3) Uani d . 1 4 . .
H H1c2 0.793721 0.771881 0.442428 0.1141 Uiso d . 1 4 . .
H H2c2 1.0977 0.706457 0.423612 0.1141 Uiso d . 1 4 . .
C C3 0.861(3) 0.4595(15) 0.4580(3) 0.099(3) Uani d . 1 4 . .
H H1c3 0.943319 0.482452 0.498866 0.1485 Uiso d . 0.5 4 . .
H H2c3 0.650616 0.422829 0.461552 0.1485 Uiso d . 0.5 4 . .
H H3c3 0.967549 0.345746 0.437925 0.1485 Uiso d . 0.5 4 . .
H H1c3d 0.833861 0.340146 0.430661 0.1485 Uiso d . 0.5 4 . .
H H2c3d 1.039365 0.439114 0.482675 0.1485 Uiso d . 0.5 4 . .
H H3c3d 0.688258 0.471768 0.485008 0.1485 Uiso d . 0.5 4 . .
loop_
_atom_site_aniso_label
_atom_site_aniso_U_11
_atom_site_aniso_U_22
_atom_site_aniso_U_33
_atom_site_aniso_U_12
_atom_site_aniso_U_13
_atom_site_aniso_U_23
_atom_site_aniso_type_symbol
Cs1 0.04135(14) 0.02910(13) 0.06212(18) 0.00031(11) -0.00274(13) 0.00140(11) Cs
O1 0.065(2) 0.0295(15) 0.0712(19) -0.0046(16) -0.007(2) -0.0016(13) O
O2 0.061(2) 0.0317(15) 0.079(2) 0.0006(18) -0.0072(18) 0.0051(14) O
C1 0.0336(18) 0.0278(16) 0.060(2) 0.0039(19) -0.0030(16) 0.0009(18) C
C2 0.147(7) 0.059(4) 0.079(5) -0.009(5) -0.030(5) 0.001(4) C
C3 0.147(8) 0.089(5) 0.061(4) 0.013(6) -0.008(5) 0.019(4) C
loop_
_atom_type_symbol
_atom_type_scat_dispersion_real
_atom_type_scat_dispersion_imag
_atom_type_scat_source
C 0.0033 0.0016 'International Tables Vol C tables 4.2.6.8 and 6.1.1.1'
H 0.0000 0.0000 'International Tables Vol C tables 4.2.6.8 and 6.1.1.1'
Cs -0.3680 2.1192 'International Tables Vol C tables 4.2.6.8 and 6.1.1.1'
O 0.0106 0.0060 'International Tables Vol C tables 4.2.6.8 and 6.1.1.1'
loop_
_diffrn_standard_refln_index_h
_diffrn_standard_refln_index_k
_diffrn_standard_refln_index_l
? ? ?
loop_
_exptl_crystal_face_index_h
_exptl_crystal_face_index_k
_exptl_crystal_face_index_l
_exptl_crystal_face_perp_dist
? ? ? ?
loop_
_geom_angle_atom_site_label_1
_geom_angle_atom_site_label_2
_geom_angle_atom_site_label_3
_geom_angle_site_symmetry_1
_geom_angle_site_symmetry_2
_geom_angle_site_symmetry_3
_geom_angle
_geom_angle_publ_flag
O1 Cs1 O1 . . 3_655 113.53(11) ?
O1 Cs1 O1 . . 3_755 109.49(11) ?
O1 Cs1 O2 . . . 41.28(8) ?
O1 Cs1 O2 . . 3_645 85.64(11) ?
O1 Cs1 O2 . . 3_745 82.42(11) ?
O1 Cs1 O1 3_655 . 3_755 93.22(11) ?
O1 Cs1 O2 3_655 . . 85.76(9) ?
O1 Cs1 O2 3_655 . 3_645 85.08(10) ?
O1 Cs1 O2 3_655 . 3_745 163.83(10) ?
O1 Cs1 O2 3_755 . . 81.83(9) ?
O1 Cs1 O2 3_755 . 3_645 164.00(10) ?
O1 Cs1 O2 3_755 . 3_745 83.26(10) ?
O2 Cs1 O2 . . 3_645 113.84(10) ?
O2 Cs1 O2 . . 3_745 109.21(10) ?
O2 Cs1 O2 3_645 . 3_745 93.95(9) ?
Cs1 O1 Cs1 . . 3_645 94.31(11) ?
Cs1 O1 Cs1 . . 3_745 97.42(11) ?
Cs1 O1 Cs1 3_645 . 3_745 93.22(9) ?
Cs1 O2 Cs1 . . 3_655 94.28(11) ?
Cs1 O2 Cs1 . . 3_755 98.33(11) ?
Cs1 O2 Cs1 3_655 . 3_755 93.95(9) ?
O1 C1 O2 . . . 124.3(4) ?
O1 C1 C2 . . . 118.0(5) ?
O2 C1 C2 . . . 117.6(5) ?
C1 C2 H1c2 . . . 109.47 ?
C1 C2 H2c2 . . . 109.47 ?
C1 C2 C3 . . . 119.0(6) ?
H1c2 C2 H2c2 . . . 97.9 ?
H1c2 C2 C3 . . . 109.47 ?
H2c2 C2 C3 . . . 109.47 ?
C2 C3 H1c3 . . . 109.47 ?
C2 C3 H2c3 . . . 109.47 ?
C2 C3 H3c3 . . . 109.47 ?
C2 C3 H1c3d . . . 109.47 ?
C2 C3 H2c3d . . . 109.47 ?
C2 C3 H3c3d . . . 109.47 ?
H1c3 C3 H2c3 . . . 109.47 ?
H1c3 C3 H3c3 . . . 109.47 ?
H2c3 C3 H3c3 . . . 109.47 ?
H1c3d C3 H2c3d . . . 109.47 ?
H1c3d C3 H3c3d . . . 109.47 ?
H2c3d C3 H3c3d . . . 109.47 ?
loop_
_geom_bond_atom_site_label_1
_geom_bond_atom_site_label_2
_geom_bond_site_symmetry_1
_geom_bond_site_symmetry_2
_geom_bond_distance
_geom_bond_publ_flag
Cs1 O1 . . 3.149(4) ?
Cs1 O1 . 3_655 3.006(4) ?
Cs1 O1 . 3_755 3.082(4) ?
Cs1 O2 . . 3.146(4) ?
Cs1 O2 . 3_645 3.010(4) ?
Cs1 O2 . 3_745 3.041(4) ?
O1 C1 . . 1.260(5) ?
O2 C1 . . 1.249(5) ?
C1 C2 . . 1.477(9) ?
C2 H1c2 . . 0.97 ?
C2 H2c2 . . 0.97 ?
C2 C3 . . 1.471(11) ?
H1c2 H2c2 . . 1.4631 ?
C3 H1c3 . . 0.96 ?
C3 H2c3 . . 0.96 ?
C3 H3c3 . . 0.96 ?
C3 H1c3d . . 0.96 ?
C3 H2c3d . . 0.96 ?
C3 H3c3d . . 0.96 ?
loop_
_geom_torsion_atom_site_label_1
_geom_torsion_atom_site_label_2
_geom_torsion_atom_site_label_3
_geom_torsion_atom_site_label_4
_geom_torsion_site_symmetry_1
_geom_torsion_site_symmetry_2
_geom_torsion_site_symmetry_3
_geom_torsion_site_symmetry_4
_geom_torsion
_geom_torsion_publ_flag
O1 C1 C2 C3 . . . . -16.7(10) ?
O2 C1 C2 C3 . . . . 165.7(7) ?
loop_
_refln_index_h
_refln_index_k
_refln_index_l
_refln_observed_status
_refln_F_squared_meas
_refln_F_squared_calc
_refln_F_squared_sigma
2 0 0 o 34805.10 31973.40 1250.84
4 0 0 o 3907.37 4006.31 100.48
1 1 0 o 24083.50 21295.60 487.49
2 1 0 o 278.68 293.19 6.00
3 1 0 o 3138.33 3169.38 46.24
4 1 0 o 400.24 389.25 13.00
5 1 0 o 348.86 343.49 11.00
6 1 0 o 100.60 90.11 12.32
0 2 0 o 2022.53 1974.20 50.72
1 2 0 o 179.97 168.69 5.00
2 2 0 o 1153.69 1173.87 21.71
3 2 0 o 773.16 817.47 19.35
4 2 0 o 225.23 227.93 9.66
5 2 0 o 309.87 315.02 16.33
6 2 0 o 77.28 16.50 11.66
1 3 0 o 11756.10 11348.50 336.38
2 3 0 o 75.96 95.05 5.00
3 3 0 o 3705.08 3704.63 65.99
4 3 0 o 71.28 63.23 7.33
5 3 0 o 478.54 488.36 18.66
0 4 0 o 9213.28 9155.27 317.61
1 4 0 < 1.33 4.78 2.66
2 4 0 o 4781.85 4869.89 98.03
3 4 0 o 100.61 118.95 5.33
4 4 0 o 962.01 986.20 20.67
5 4 0 o 86.61 63.92 9.33
1 5 0 < 12.32 3.01 4.33
2 5 0 o 93.61 118.48 6.66
3 5 0 o 13.99 0.02 4.00
4 5 0 o 202.55 198.46 8.00
0 6 0 o 5059.21 5159.26 127.43
1 6 0 < 4.33 7.07 3.00
2 6 0 o 2586.06 2736.69 58.14
3 6 0 o 66.29 57.17 6.00
4 6 0 o 570.21 553.97 22.33
1 7 0 o 2521.40 2629.36 55.45
2 7 0 < 9.33 4.10 3.66
3 7 0 o 885.13 914.21 30.67
0 8 0 o 157.23 132.02 15.32
1 8 0 o 18.99 12.58 5.66
2 8 0 o 133.91 80.86 9.33
1 0 1 o 14.32 10.39 1.33
2 0 1 o 930.43 897.62 18.37
3 0 1 o 605.59 623.91 14.01
4 0 1 o 203.90 192.45 8.66
5 0 1 o 286.21 298.42 10.00
0 1 1 o 718.64 697.53 15.08
1 1 1 o 31916.90 27295.80 558.41
-1 1 1 o 31213.60 27044.40 1110.81
2 1 1 o 1105.30 1034.50 15.70
-2 1 1 o 1074.61 1026.02 16.70
3 1 1 o 5609.62 5568.02 80.76
-3 1 1 o 5420.62 5533.83 94.22
4 1 1 o 399.92 408.70 10.33
-4 1 1 o 382.25 409.25 12.33
5 1 1 o 620.26 595.77 20.66
-5 1 1 o 587.27 592.76 15.00
6 1 1 o 107.59 65.91 12.99
-6 1 1 o 90.27 65.27 11.99
0 2 1 o 22881.80 21376.30 402.90
1 2 1 o 3579.49 3323.15 62.33
-1 2 1 o 3498.01 3341.72 60.98
2 2 1 o 9894.02 9659.91 195.57
-2 2 1 o 9880.83 9645.18 194.56
3 2 1 o 1004.28 986.18 18.02
-3 2 1 o 1012.93 997.76 24.02
4 2 1 o 1814.95 1823.24 40.40
-4 2 1 o 1783.54 1832.21 39.73
5 2 1 o 115.26 126.83 15.99
-5 2 1 o 140.91 129.31 11.99
6 2 1 o 183.88 141.61 16.99
-6 2 1 o 185.88 143.18 17.32
0 3 1 o 673.72 654.44 16.02
1 3 1 o 1127.26 1077.37 25.38
-1 3 1 o 1136.52 1101.90 22.04
2 3 1 o 638.37 664.17 16.34
-2 3 1 o 648.35 679.31 14.34
3 3 1 o 437.31 460.14 11.00
-3 3 1 o 451.97 469.12 11.00
4 3 1 o 442.24 452.79 14.33
-4 3 1 o 442.57 454.70 14.33
5 3 1 o 108.26 93.89 9.33
-5 3 1 o 111.93 96.12 7.66
0 4 1 o 4429.21 4438.65 90.08
1 4 1 o 382.64 364.99 11.33
-1 4 1 o 364.98 365.82 11.00
2 4 1 o 2246.67 2310.96 48.48
-2 4 1 o 2239.06 2292.70 48.48
3 4 1 o 414.59 448.32 11.00
-3 4 1 o 419.60 441.03 11.00
4 4 1 o 482.56 489.60 12.33
-4 4 1 o 488.23 483.09 15.33
5 4 1 o 145.91 140.39 10.33
-5 4 1 o 158.90 138.01 8.66
0 5 1 o 333.92 335.41 11.00
1 5 1 o 8746.54 8858.99 175.55
-1 5 1 o 8736.49 8873.84 175.21
2 5 1 o 356.90 365.05 12.33
-2 5 1 o 349.24 366.18 12.33
3 5 1 o 2705.41 2724.69 51.80
-3 5 1 o 2737.14 2728.46 52.46
4 5 1 o 103.60 100.58 7.99
-4 5 1 o 113.26 100.65 7.00
5 5 1 o 378.17 339.70 20.32
-5 5 1 o 387.83 339.75 20.99
0 6 1 o 2109.94 2131.46 40.42
1 6 1 o 85.94 103.01 5.33
-1 6 1 o 91.94 102.34 6.66
2 6 1 o 1157.45 1207.84 29.35
-2 6 1 o 1174.44 1220.85 30.02
3 6 1 o 129.92 133.54 7.33
-3 6 1 o 144.91 134.20 7.66
4 6 1 o 287.19 268.11 14.66
-4 6 1 o 277.86 270.88 14.66
0 7 1 o 28.31 23.66 4.33
1 7 1 o 250.88 248.26 10.66
-1 7 1 o 244.21 244.89 10.33
2 7 1 o 97.27 83.93 7.33
-2 7 1 o 98.27 84.08 7.33
3 7 1 o 142.57 106.34 10.66
-3 7 1 o 138.24 104.93 10.33
0 8 1 o 1096.33 1051.24 35.34
1 8 1 o 188.22 167.25 11.66
-1 8 1 o 183.89 167.70 11.33
2 8 1 o 647.91 634.91 23.33
-2 8 1 o 638.57 636.05 23.00
0 0 2 o 15133.50 22203.10 548.87
1 0 2 o 2286.86 2242.49 46.21
2 0 2 o 14884.50 13971.10 290.36
3 0 2 o 2156.36 2047.99 40.12
4 0 2 o 2006.86 2067.19 44.76
5 0 2 o 298.54 310.34 10.33
6 0 2 o 122.59 136.78 16.32
0 1 2 o 1096.66 1077.05 19.48
1 1 2 o 5907.88 5586.70 200.78
2 1 2 o 2134.86 2056.84 29.14
-2 1 2 o 2069.73 2030.59 32.49
3 1 2 o 2321.52 2309.42 37.80
-3 1 2 o 2300.98 2335.38 41.81
4 1 2 o 638.73 633.79 16.00
-4 1 2 o 622.39 633.09 14.00
5 1 2 o 372.20 361.95 13.99
-5 1 2 o 341.21 367.93 10.66
6 1 2 o 80.94 92.61 12.32
-6 1 2 o 123.92 93.02 13.32
0 2 2 o 1932.47 1843.48 39.60
1 2 2 o 1479.88 1471.22 31.13
-1 2 2 o 1451.75 1471.87 30.46
2 2 2 o 1215.02 1175.54 19.04
-2 2 2 o 1195.41 1149.63 22.04
3 2 2 o 824.53 829.71 15.68
-3 2 2 o 797.85 826.80 19.68
4 2 2 o 441.59 463.45 14.33
-4 2 2 o 419.26 456.07 13.33
5 2 2 o 210.89 235.77 19.99
-5 2 2 o 244.21 234.06 14.66
6 2 2 o 147.23 94.39 15.32
-6 2 2 o 117.25 92.98 13.99
0 3 2 o 11031.10 10338.40 209.27
1 3 2 o 6499.77 6289.46 129.56
-1 3 2 o 6286.22 6294.89 108.92
2 3 2 o 5958.48 5861.30 103.09
-2 3 2 o 5823.03 5839.20 82.88
3 3 2 o 2074.31 2088.72 38.43
-3 3 2 o 2095.71 2086.73 38.76
4 3 2 o 1014.52 1052.60 31.68
-4 3 2 o 990.84 1047.84 25.01
5 3 2 o 274.54 282.65 13.33
-5 3 2 o 274.20 280.17 11.33
0 4 2 o 4654.76 4516.35 81.68
1 4 2 o 3343.80 3198.45 60.32
-1 4 2 o 3239.18 3165.55 58.31
2 4 2 o 2640.84 2650.57 56.20
-2 4 2 o 2648.32 2690.10 56.53
3 4 2 o 1194.03 1217.15 22.02
-3 4 2 o 1184.03 1212.46 24.02
4 4 2 o 557.95 584.46 16.00
-4 4 2 o 575.94 593.37 17.33
5 4 2 o 197.22 184.19 11.99
-5 4 2 o 211.21 184.91 9.99
0 5 2 < 2.33 6.24 3.33
1 5 2 o 132.26 135.65 6.00
-1 5 2 o 131.26 135.36 7.33
2 5 2 o 161.92 184.74 8.33
-2 5 2 o 163.58 186.74 8.33
3 5 2 o 267.88 279.18 10.00
-3 5 2 o 277.21 280.11 8.33
4 5 2 o 142.24 137.27 7.99
-4 5 2 o 131.58 137.09 6.33
5 5 2 o 146.57 112.73 11.66
-5 5 2 o 149.90 112.70 8.99
0 6 2 o 2110.60 2133.83 46.76
1 6 2 o 600.69 616.91 17.67
-1 6 2 o 615.01 631.12 18.00
2 6 2 o 1327.12 1375.87 32.69
-2 6 2 o 1323.47 1366.01 32.69
3 6 2 o 330.53 325.94 11.33
-3 6 2 o 327.53 331.80 12.66
4 6 2 o 347.18 322.46 16.66
-4 6 2 o 324.85 320.21 11.66
0 7 2 o 847.16 856.29 20.00
1 7 2 o 1223.09 1248.13 30.02
-1 7 2 o 1237.42 1253.58 30.35
2 7 2 o 570.91 575.11 17.00
-2 7 2 o 576.91 576.28 22.33
3 7 2 o 483.53 479.71 20.66
-3 7 2 o 461.87 484.84 19.66
0 8 2 o 98.26 69.59 8.33
1 8 2 o 91.27 77.61 8.66
-1 8 2 o 93.93 77.56 8.66
2 8 2 o 117.58 74.41 8.66
-2 8 2 o 118.92 76.46 8.66
1 0 3 o 1206.90 1202.75 24.80
2 0 3 o 1106.76 1150.33 21.05
3 0 3 o 362.32 393.55 11.33
4 0 3 o 906.82 947.48 23.35
5 0 3 o 116.26 111.00 7.00
0 1 3 o 10698.30 10471.10 221.45
1 1 3 o 3010.65 2921.03 51.97
-1 1 3 o 3100.49 2954.76 47.57
2 1 3 o 6054.87 6022.09 104.28
-2 1 3 o 6125.40 6163.26 121.15
3 1 3 o 1322.44 1306.25 23.37
-3 1 3 o 1305.10 1298.89 20.03
4 1 3 o 1258.20 1256.92 27.03
-4 1 3 o 1239.15 1268.90 22.02
5 1 3 o 273.53 256.26 14.99
-5 1 3 o 231.55 252.55 9.00
6 1 3 o 134.91 123.75 9.99
-6 1 3 o 133.91 125.03 13.66
0 2 3 o 3442.14 3277.80 84.34
1 2 3 o 21132.00 18766.00 430.47
-1 2 3 o 20639.80 18750.00 335.85
2 2 3 o 2314.20 2321.34 34.16
-2 2 3 o 2374.22 2359.44 42.19
3 2 3 o 5146.19 5183.23 105.50
-3 2 3 o 5175.78 5181.01 90.71
4 2 3 o 436.60 463.55 14.66
-4 2 3 o 449.26 470.23 14.00
5 2 3 o 634.93 615.94 35.66
-5 2 3 o 628.60 614.69 24.33
6 2 3 o 104.26 45.89 14.99
-6 2 3 o 63.62 46.75 13.99
0 3 3 o 1667.93 1609.99 30.78
1 3 3 o 585.03 563.05 12.01
-1 3 3 o 594.69 569.10 13.01
2 3 3 o 1248.57 1202.03 22.03
-2 3 3 o 1199.20 1189.09 21.37
3 3 3 o 671.50 669.04 15.67
-3 3 3 o 667.83 673.78 14.67
4 3 3 o 323.54 316.08 14.99
-4 3 3 o 306.55 314.88 11.66
5 3 3 o 239.21 257.55 12.66
-5 3 3 o 231.88 259.41 10.33
0 4 3 o 450.04 424.59 11.00
1 4 3 o 3316.54 3159.60 67.68
-1 4 3 o 3305.66 3180.71 68.69
2 4 3 o 759.33 764.57 19.68
-2 4 3 o 726.01 747.23 16.34
3 4 3 o 1048.35 1059.23 22.68
-3 4 3 o 1026.66 1066.01 21.35
4 4 3 o 364.87 377.27 12.33
-4 4 3 o 352.55 372.88 12.66
5 4 3 o 174.90 175.08 11.66
-5 4 3 o 204.54 176.34 9.99
0 5 3 o 4366.81 4210.66 78.12
1 5 3 o 1102.97 1091.65 22.69
-1 5 3 o 1093.30 1087.18 23.02
2 5 3 o 2507.53 2497.83 54.81
-2 5 3 o 2455.77 2488.93 53.81
3 5 3 o 463.58 481.78 13.33
-3 5 3 o 467.24 481.10 12.33
4 5 3 o 572.58 590.04 17.33
-4 5 3 o 572.58 588.73 14.33
5 5 3 o 89.27 60.62 9.66
-5 5 3 o 116.58 60.60 7.99
0 6 3 o 237.23 242.43 9.66
1 6 3 o 836.54 821.02 19.00
-1 6 3 o 777.54 804.15 21.34
2 6 3 o 295.21 308.01 9.33
-2 6 3 o 314.54 314.46 12.33
3 6 3 o 328.19 329.80 12.66
-3 6 3 o 332.53 320.71 12.66
4 6 3 o 168.23 168.97 11.33
-4 6 3 o 178.56 172.50 8.66
0 7 3 o 151.24 147.40 7.33
1 7 3 o 86.61 71.93 7.33
-1 7 3 o 81.94 70.50 8.33
2 7 3 o 136.58 129.27 7.66
-2 7 3 o 145.91 133.27 10.66
3 7 3 o 140.58 132.34 10.66
-3 7 3 o 143.91 130.90 10.33
0 8 3 o 213.55 200.66 12.33
1 8 3 o 1031.61 1031.07 33.34
-1 8 3 o 1050.28 1031.27 33.68
2 8 3 o 185.55 142.28 10.99
-2 8 3 o 179.89 142.82 10.99
0 0 4 o 250.87 214.37 7.67
1 0 4 o 21697.20 20310.60 449.13
2 0 4 o 52.30 28.61 3.66
3 0 4 o 4589.66 4639.42 65.17
4 0 4 < 10.33 0.11 5.66
5 0 4 o 681.98 676.91 19.67
6 0 4 < 1.33 0.39 7.66
0 1 4 o 14571.70 13944.10 299.14
1 1 4 o 172.33 164.78 4.33
-1 1 4 o 188.32 177.02 4.33
2 1 4 o 4306.54 4202.09 66.65
-2 1 4 o 4183.36 4127.03 64.99
3 1 4 o 797.57 805.50 15.34
-3 1 4 o 807.87 824.65 13.34
4 1 4 o 840.88 785.85 23.67
-4 1 4 o 764.55 766.70 16.34
5 1 4 o 306.20 318.03 21.99
-5 1 4 o 307.20 321.16 10.00
6 1 4 o 61.29 74.38 10.33
-6 1 4 o 101.26 71.40 12.99
0 2 4 o 29.31 27.34 2.00
1 2 4 o 2372.65 2274.77 41.94
-1 2 4 o 2528.88 2320.25 51.99
2 2 4 o 626.41 630.68 12.34
-2 2 4 o 634.75 632.22 11.67
3 2 4 o 698.31 718.32 15.67
-3 2 4 o 697.96 731.07 15.34
4 2 4 o 622.02 625.86 19.67
-4 2 4 o 627.69 628.10 20.33
5 2 4 o 99.93 91.74 15.99
-5 2 4 o 148.23 94.99 11.99
6 2 4 o 209.54 144.64 26.32
-6 2 4 o 160.23 145.35 23.98
0 3 4 o 25366.80 23582.50 455.60
1 3 4 o 156.93 152.75 5.00
-1 3 4 o 146.27 149.57 5.33
2 3 4 o 11346.90 11035.30 174.44
-2 3 4 o 11143.60 11058.60 221.35
3 3 4 o 139.92 142.14 6.33
-3 3 4 o 129.59 145.15 5.00
4 3 4 o 1959.82 1969.87 45.41
-4 3 4 o 1897.37 1973.72 52.75
5 3 4 o 45.30 35.67 12.99
-5 3 4 o 44.63 36.60 6.00
0 4 4 < 3.33 3.28 2.33
1 4 4 o 7257.96 7095.63 144.75
-1 4 4 o 7238.70 7077.45 126.20
2 4 4 o 104.60 105.59 4.33
-2 4 4 o 108.60 106.74 4.66
3 4 4 o 2212.46 2239.22 42.43
-3 4 4 o 2178.78 2223.94 40.76
4 4 4 o 148.58 141.51 7.66
-4 4 4 o 140.25 143.08 8.33
5 4 4 o 297.19 300.54 14.99
-5 4 4 o 316.18 295.86 12.33
0 5 4 < -1.00 0.01 2.66
1 5 4 o 73.95 72.85 5.00
-1 5 4 o 80.95 71.82 5.66
2 5 4 o 26.98 21.66 4.00
-2 5 4 o 31.64 21.85 4.66
3 5 4 o 375.89 401.14 11.66
-3 5 4 o 378.22 399.63 10.66
4 5 4 o 30.98 16.88 6.00
-4 5 4 o 30.64 17.02 5.33
5 5 4 o 210.21 190.56 14.32
-5 5 4 o 245.52 190.92 11.66
0 6 4 < -2.33 2.13 3.33
1 6 4 o 1858.86 1835.72 36.39
-1 6 4 o 1818.79 1841.23 41.73
2 6 4 o 67.95 63.41 5.66
-2 6 4 o 67.95 55.65 7.00
3 6 4 o 632.30 659.18 19.00
-3 6 4 o 656.29 665.34 16.00
4 6 4 o 92.94 79.07 10.99
-4 6 4 o 110.59 75.58 10.33
0 7 4 o 2275.75 2170.69 46.74
1 7 4 < 3.00 5.11 3.66
-1 7 4 o 15.32 6.42 5.00
2 7 4 o 1305.70 1257.60 32.35
-2 7 4 o 1224.68 1247.44 38.02
3 7 4 o 26.65 13.69 6.33
-3 7 4 o 34.97 14.99 6.33
0 8 4 < 7.66 0.28 4.33
1 8 4 o 136.91 129.30 10.33
-1 8 4 o 141.58 126.97 10.66
2 8 4 o 64.95 42.87 7.33
-2 8 4 o 72.28 43.03 14.32
1 0 5 o 263.06 237.19 7.34
2 0 5 o 907.40 880.62 17.69
3 0 5 o 19.32 14.35 3.33
4 0 5 o 767.22 789.10 17.34
5 0 5 < 11.66 2.07 5.00
6 0 5 o 144.91 165.41 21.32
0 1 5 o 20592.40 19805.70 364.73
1 1 5 o 3046.83 3056.24 60.97
-1 1 5 o 3153.60 3012.73 63.34
2 1 5 o 7726.88 7654.73 189.70
-2 1 5 o 7737.26 7591.61 118.80
3 1 5 o 1013.55 961.07 17.68
-3 1 5 o 976.57 936.23 15.68
4 1 5 o 1424.53 1376.67 29.70
-4 1 5 o 1396.14 1389.92 24.36
5 1 5 o 177.23 185.48 12.99
-5 1 5 o 178.90 182.17 9.33
6 1 5 o 162.23 110.44 15.32
-6 1 5 o 125.92 113.07 13.32
0 2 5 o 1273.71 1222.31 23.41
1 2 5 o 21851.40 21326.20 395.05
-1 2 5 o 22841.10 21261.00 476.51
2 2 5 o 722.88 688.46 15.35
-2 2 5 o 738.55 695.87 15.01
3 2 5 o 5134.90 5198.81 90.35
-3 2 5 o 5038.81 5168.49 88.68
4 2 5 o 201.23 186.06 14.66
-4 2 5 o 186.23 184.98 9.66
5 2 5 o 602.26 608.62 35.00
-5 2 5 o 651.25 603.23 25.33
0 3 5 o 2218.76 2129.24 46.21
1 3 5 o 152.61 152.15 5.00
-1 3 5 o 161.60 165.21 6.66
2 3 5 o 1005.03 979.68 18.35
-2 3 5 o 1004.39 966.67 20.35
3 3 5 o 472.63 475.51 12.33
-3 3 5 o 466.63 473.60 12.00
4 3 5 o 205.55 183.07 14.33
-4 3 5 o 195.89 176.47 9.66
5 3 5 o 221.21 216.12 21.65
-5 3 5 o 135.26 215.46 9.33
0 4 5 o 151.59 149.29 5.66
1 4 5 o 3545.50 3469.08 63.01
-1 4 5 o 3619.79 3483.59 65.02
2 4 5 o 362.25 360.09 8.66
-2 4 5 o 357.93 352.69 8.33
3 4 5 o 1054.35 1062.98 23.01
-3 4 5 o 1049.98 1079.94 19.68
4 4 5 o 277.20 271.52 10.66
-4 4 5 o 264.54 269.69 10.99
5 4 5 o 145.91 139.58 11.33
-5 4 5 o 186.55 144.53 9.66
0 5 5 o 6152.30 5925.76 108.22
1 5 5 o 954.94 949.58 20.01
-1 5 5 o 951.93 949.94 21.01
2 5 5 o 3229.94 3282.77 58.88
-2 5 5 o 3261.35 3288.09 60.55
3 5 5 o 363.54 362.14 11.66
-3 5 5 o 360.54 362.83 10.66
4 5 5 o 719.99 731.47 21.33
-4 5 5 o 705.66 730.75 26.33
5 5 5 o 61.62 39.29 9.33
-5 5 5 o 99.26 39.46 7.99
0 6 5 o 217.23 222.58 8.33
1 6 5 o 994.48 1007.59 30.01
-1 6 5 o 1009.82 1005.66 22.68
2 6 5 o 231.22 244.00 8.33
-2 6 5 o 248.88 254.29 10.99
3 6 5 o 372.19 366.08 13.99
-3 6 5 o 385.52 356.82 11.33
4 6 5 o 159.90 136.08 11.33
-4 6 5 o 200.87 140.65 20.32
0 7 5 o 240.54 236.20 17.99
1 7 5 o 54.63 41.54 6.33
-1 7 5 o 39.64 39.27 6.66
2 7 5 o 150.90 133.24 8.33
-2 7 5 o 154.57 134.97 10.99
3 7 5 o 100.60 103.17 9.66
-3 7 5 o 119.25 101.93 9.66
0 8 5 o 85.94 58.39 8.33
1 8 5 o 1125.76 1151.74 35.68
-1 8 5 o 1157.78 1150.92 53.69
2 8 5 o 68.62 43.73 7.99
-2 8 5 o 68.95 43.85 14.32
0 0 6 o 20809.00 20547.50 522.71
1 0 6 o 12172.40 12690.10 265.17
2 0 6 o 10886.90 10311.50 373.74
3 0 6 o 4225.02 4199.71 74.82
4 0 6 o 1412.91 1421.44 33.37
5 0 6 o 462.55 465.74 13.00
6 0 6 o 89.61 91.82 16.66
0 1 6 o 4075.81 4107.09 99.29
1 1 6 o 4181.85 4249.65 102.42
-1 1 6 o 4255.82 4288.64 84.83
2 1 6 o 3211.32 3088.87 65.09
-2 1 6 o 3142.31 3078.10 49.66
3 1 6 o 1458.92 1450.37 24.71
-3 1 6 o 1477.18 1481.82 25.04
4 1 6 o 640.35 631.26 16.33
-4 1 6 o 590.03 614.73 11.00
5 1 6 o 237.88 242.40 11.33
-5 1 6 o 237.88 248.07 10.99
6 1 6 o 98.93 58.10 12.66
-6 1 6 o 85.27 56.25 11.99
0 2 6 o 190.64 192.87 6.00
1 2 6 o 1908.42 1882.47 34.49
-1 2 6 o 1917.59 1863.61 28.13
2 2 6 o 560.19 531.82 14.00
-2 2 6 o 558.20 526.73 14.34
3 2 6 o 539.72 545.26 13.00
-3 2 6 o 545.39 546.42 13.00
4 2 6 o 313.89 336.94 16.66
-4 2 6 o 318.56 334.94 9.66
5 2 6 o 129.58 113.89 16.66
-5 2 6 o 136.58 115.35 16.66
0 3 6 o 12124.90 11809.80 234.23
1 3 6 o 1908.50 1920.40 34.79
-1 3 6 o 1890.20 1902.24 40.47
2 3 6 o 5764.94 5696.93 100.28
-2 3 6 o 5548.28 5693.31 96.58
3 3 6 o 1066.69 985.36 20.01
-3 3 6 o 1021.67 981.72 21.35
4 3 6 o 989.77 1024.69 21.68
-4 3 6 o 974.43 1027.14 31.68
5 3 6 o 155.24 143.89 18.32
-5 3 6 o 134.92 144.33 9.99
0 4 6 o 1985.91 2012.53 43.46
1 4 6 o 4440.01 4326.31 89.95
-1 4 6 o 4482.81 4342.52 79.88
2 4 6 o 1554.03 1496.22 24.70
-2 4 6 o 1553.03 1494.44 25.04
3 4 6 o 1320.30 1364.47 24.69
-3 4 6 o 1309.30 1358.14 23.69
4 4 6 o 357.20 356.68 12.33
-4 4 6 o 356.87 361.61 16.99
5 4 6 o 160.57 178.64 11.33
-5 4 6 o 212.54 175.72 10.33
0 5 6 < 2.66 0.02 3.00
1 5 6 o 79.95 73.46 5.33
-1 5 6 o 75.95 71.81 6.00
2 5 6 o 70.62 59.61 5.66
-2 5 6 o 71.28 60.35 5.66
3 5 6 o 204.22 193.00 9.66
-3 5 6 o 195.89 191.98 7.00
4 5 6 o 52.30 39.05 6.33
-4 5 6 o 70.95 39.23 9.33
0 6 6 o 1493.56 1438.00 30.70
1 6 6 o 1510.98 1513.41 35.04
-1 6 6 o 1471.27 1512.99 35.04
2 6 6 o 947.63 952.84 21.34
-2 6 6 o 899.63 945.98 21.34
3 6 6 o 559.57 557.05 22.66
-3 6 6 o 555.23 563.83 16.00
4 6 6 o 236.54 224.21 13.99
-4 6 6 o 287.84 219.07 14.99
0 7 6 o 1395.72 1386.10 57.71
1 7 6 o 748.69 739.49 25.67
-1 7 6 o 729.69 744.09 27.33
2 7 6 o 793.75 839.78 22.67
-2 7 6 o 791.41 838.05 27.34
3 7 6 o 300.19 295.85 16.33
-3 7 6 o 297.52 299.65 10.99
0 8 6 o 69.28 42.44 7.66
1 8 6 o 101.26 75.50 9.33
-1 8 6 o 92.27 76.04 13.32
2 8 6 o 73.28 46.90 8.66
-2 8 6 o 79.61 48.13 14.99
1 0 7 o 65.96 63.43 3.66
2 0 7 o 312.34 329.88 9.00
3 0 7 o 372.28 372.21 10.00
4 0 7 o 139.92 131.78 6.66
5 0 7 o 202.55 194.87 8.99
6 0 7 < 24.32 29.57 12.66
0 1 7 o 4957.50 4988.77 120.45
-1 1 7 o 8568.35 11425.60 206.96
2 1 7 o 3023.14 2984.36 61.71
-2 1 7 o 3033.46 3031.92 48.29
3 1 7 o 3245.81 3237.46 58.27
-3 1 7 o 3206.76 3217.42 57.26
4 1 7 o 555.33 585.69 14.33
-4 1 7 o 559.32 594.09 10.67
5 1 7 o 380.86 378.58 12.00
-5 1 7 o 384.86 371.26 12.00
6 1 7 o 99.60 59.00 12.66
-6 1 7 o 83.27 59.06 11.66
0 2 7 o 7632.92 7434.15 261.40
1 2 7 o 4190.12 4174.65 84.19
-1 2 7 o 4353.44 4222.19 61.96
2 2 7 o 5252.60 5028.97 105.66
-2 2 7 o 5292.21 5036.03 129.88
3 2 7 o 1364.49 1349.00 27.04
-3 2 7 o 1335.11 1351.81 30.71
4 2 7 o 1063.27 1069.52 27.68
-4 2 7 o 1061.59 1075.99 22.35
5 2 7 o 154.57 147.71 17.66
-5 2 7 o 165.90 147.27 12.33
0 3 7 o 387.04 383.53 12.67
1 3 7 o 525.47 511.58 11.67
-1 3 7 o 500.16 489.39 13.34
2 3 7 o 659.26 652.14 14.67
-2 3 7 o 663.91 661.52 14.34
3 3 7 o 324.23 325.02 10.00
-3 3 7 o 340.23 328.20 11.66
4 3 7 o 307.55 320.45 10.00
-4 3 7 o 310.88 321.26 10.00
5 3 7 o 84.94 70.75 16.66
-5 3 7 o 100.26 72.75 13.99
0 4 7 o 2202.73 2207.34 47.15
1 4 7 o 977.51 960.01 19.68
-1 4 7 o 998.88 950.80 30.36
2 4 7 o 1303.52 1291.87 25.70
-2 4 7 o 1306.86 1290.46 21.69
3 4 7 o 499.61 509.37 11.00
-3 4 7 o 505.27 515.10 11.67
4 4 7 o 293.53 294.27 10.99
-4 4 7 o 292.54 287.98 11.66
5 4 7 o 133.91 111.23 18.32
-5 4 7 o 118.92 111.71 9.99
0 5 7 o 2071.33 2055.33 39.76
1 5 7 o 5021.08 4983.37 88.89
-1 5 7 o 5098.23 4983.13 91.24
2 5 7 o 1315.60 1340.04 27.36
-2 5 7 o 1300.25 1340.32 24.36
3 5 7 o 1636.80 1630.11 38.71
-3 5 7 o 1608.10 1631.75 29.03
4 5 7 o 240.21 261.69 10.33
-4 5 7 o 254.21 262.90 12.66
0 6 7 o 1315.77 1292.78 27.69
1 6 7 o 385.88 381.28 11.33
-1 6 7 o 383.55 378.21 12.00
2 6 7 o 747.40 751.21 17.67
-2 6 7 o 764.73 759.48 15.33
3 6 7 o 192.56 200.84 12.33
-3 6 7 o 180.57 194.81 8.66
4 6 7 o 189.22 164.60 12.33
-4 6 7 o 226.53 170.95 12.99
0 7 7 o 91.27 74.17 11.99
1 7 7 o 120.59 113.48 9.66
-1 7 7 o 128.58 113.91 15.32
2 7 7 o 113.92 99.07 9.33
-2 7 7 o 110.26 99.73 15.32
3 7 7 o 74.28 68.26 15.99
-3 7 7 o 90.60 66.03 7.00
0 8 7 o 515.53 512.81 28.33
1 8 7 o 271.20 263.31 13.99
-1 8 7 o 253.87 262.34 20.66
2 8 7 o 344.52 344.33 15.99
-2 8 7 o 336.85 345.07 15.33
0 0 8 o 37290.40 34041.40 927.25
1 0 8 o 4015.59 3798.97 80.54
2 0 8 o 12668.30 13171.70 256.82
3 0 8 o 547.12 593.21 13.00
4 0 8 o 2105.79 2129.49 29.39
5 0 8 o 31.98 34.69 4.66
6 0 8 o 128.92 173.12 19.65
0 1 8 o 1207.17 1182.11 22.40
1 1 8 o 6318.64 7016.89 155.28
-1 1 8 o 6807.39 6984.15 165.84
2 1 8 o 732.56 742.70 17.35
-2 1 8 o 697.92 711.27 13.01
3 1 8 o 1691.59 1646.14 28.39
-3 1 8 o 1667.14 1667.18 28.39
4 1 8 o 373.90 396.07 10.00
-4 1 8 o 386.56 390.49 8.33
5 1 8 o 209.22 204.72 9.00
-5 1 8 o 244.86 211.55 9.00
0 2 8 o 1253.18 1210.37 27.07
1 2 8 o 215.60 211.31 6.00
-1 2 8 o 198.29 194.58 5.33
2 2 8 o 685.74 687.34 19.34
-2 2 8 o 697.40 698.95 14.68
3 2 8 o 691.87 703.42 15.67
-3 2 8 o 678.20 701.56 18.01
4 2 8 o 156.24 151.11 9.99
-4 2 8 o 148.58 146.98 7.00
5 2 8 o 274.87 281.76 22.66
-5 2 8 o 304.52 280.21 15.99
0 3 8 < -0.67 4.10 2.00
1 3 8 o 6452.97 6464.54 111.69
-1 3 8 o 6720.63 6500.20 104.26
2 3 8 o 146.26 153.99 5.66
-2 3 8 o 137.93 142.79 5.66
3 3 8 o 2257.28 2242.15 43.10
-3 3 8 o 2236.21 2247.25 42.43
4 3 8 o 71.95 69.50 6.00
-4 3 8 o 73.95 66.15 6.00
5 3 8 o 394.49 324.30 28.65
-5 3 8 o 361.84 323.19 18.33
0 4 8 o 4775.32 4798.53 97.06
1 4 8 o 138.26 143.90 5.66
-1 4 8 o 148.92 142.19 7.33
2 4 8 o 2687.45 2668.44 49.15
-2 4 8 o 2667.66 2681.84 44.81
3 4 8 o 181.24 191.47 6.66
-3 4 8 o 183.57 188.90 8.00
4 4 8 o 565.92 568.12 16.66
-4 4 8 o 589.58 575.82 18.33
5 4 8 o 86.94 66.99 17.65
-5 4 8 o 93.27 67.45 9.66
0 5 8 < 6.33 6.71 3.33
1 5 8 o 10.66 2.24 3.33
-1 5 8 < 5.33 2.26 3.66
2 5 8 o 152.58 148.34 6.00
-2 5 8 o 154.24 150.11 6.00
3 5 8 < 6.00 2.12 3.33
-3 5 8 o 10.33 2.14 3.33
4 5 8 o 197.22 194.87 9.33
-4 5 8 o 207.21 194.91 10.33
0 6 8 o 2450.31 2406.03 68.48
1 6 8 o 213.90 224.98 8.00
-1 6 8 o 207.23 232.30 10.99
2 6 8 o 1360.04 1376.48 25.35
-2 6 8 o 1384.74 1367.28 25.35
3 6 8 o 112.26 119.99 9.66
-3 6 8 o 128.92 127.10 7.33
4 6 8 o 319.52 309.97 17.66
-4 6 8 o 358.17 305.49 18.32
0 7 8 o 88.94 79.69 8.99
1 7 8 o 1391.68 1409.96 40.70
-1 7 8 o 1390.35 1407.73 43.37
2 7 8 o 70.62 61.64 8.66
-2 7 8 o 76.28 60.89 8.66
3 7 8 o 311.59 517.22 15.33
-3 7 8 o 362.90 519.92 17.66
0 8 8 o 103.26 81.44 13.32
1 8 8 < 24.65 14.09 10.33
-1 8 8 < 21.98 14.32 8.99
2 8 8 o 55.96 52.46 7.99
-2 8 8 o 56.96 52.46 13.32
1 0 9 o 171.29 172.27 6.66
2 0 9 o 132.26 111.88 5.33
3 0 9 o 790.41 805.86 15.34
4 0 9 o 51.96 25.02 3.66
5 0 9 o 299.54 334.93 10.33
0 1 9 o 22.98 20.17 3.33
-1 1 9 o 8933.08 9472.46 216.51
2 1 9 o 299.96 278.59 13.66
-2 1 9 o 318.93 304.76 8.33
3 1 9 o 2555.81 2556.37 41.80
-3 1 9 o 2360.62 2534.60 39.13
4 1 9 o 235.22 234.81 7.00
-4 1 9 o 239.88 243.01 6.66
5 1 9 o 335.19 334.87 13.66
-5 1 9 o 355.52 333.13 11.33
0 2 9 o 12595.50 12235.60 244.09
1 2 9 o 921.31 925.55 18.03
-1 2 9 o 934.27 946.51 18.69
2 2 9 o 5727.65 5630.26 139.67
-2 2 9 o 5426.27 5616.20 84.48
3 2 9 o 307.89 281.73 11.66
-3 2 9 o 299.23 287.18 10.66
4 2 9 o 1185.71 1140.39 24.68
-4 2 9 o 1129.01 1144.50 24.01
5 2 9 o 90.94 60.73 16.65
-5 2 9 o 65.29 61.23 13.99
0 3 9 o 231.59 219.68 6.66
1 3 9 o 809.95 800.81 16.68
-1 3 9 o 799.62 796.32 15.01
2 3 9 o 409.63 399.63 10.33
-2 3 9 o 430.28 411.98 11.00
3 3 9 o 245.88 222.80 9.00
-3 3 9 o 239.89 222.87 10.33
4 3 9 o 420.89 435.51 15.00
-4 3 9 o 417.89 436.84 12.33
0 4 9 o 2147.07 2142.06 45.80
1 4 9 o 98.94 84.45 6.00
-1 4 9 o 93.94 83.24 6.33
2 4 9 o 1169.74 1194.33 23.69
-2 4 9 o 1222.47 1187.58 25.02
3 4 9 o 300.21 289.56 8.66
-3 4 9 o 289.21 288.22 10.00
4 4 9 o 269.87 278.51 10.66
-4 4 9 o 290.86 274.77 10.33
-5 4 9 o 150.24 129.30 14.99
0 5 9 < 6.00 1.71 3.33
1 5 9 o 3861.55 3870.03 80.02
-1 5 9 o 3971.36 3871.12 72.66
2 5 9 o 11.99 10.52 3.33
-2 5 9 o 15.99 9.51 3.00
3 5 9 o 1307.58 1316.08 27.69
-3 5 9 o 1298.58 1314.39 27.02
4 5 9 o 25.65 9.24 6.00
-4 5 9 < 14.32 8.98 6.00
0 6 9 o 940.02 950.22 21.67
1 6 9 o 37.64 27.12 5.00
-1 6 9 o 27.31 22.08 4.33
2 6 9 o 545.58 547.99 13.33
-2 6 9 o 545.58 554.35 13.00
3 6 9 o 137.58 113.03 11.33
-3 6 9 o 109.93 107.52 7.99
4 6 9 o 173.55 125.96 12.66
-4 6 9 o 197.87 128.63 12.99
0 7 9 < 0.67 1.45 5.00
1 7 9 o 142.58 135.12 9.99
-1 7 9 o 152.57 134.82 11.99
2 7 9 o 78.28 66.48 8.99
-2 7 9 o 60.96 67.12 7.00
3 7 9 o 40.30 48.47 6.33
-3 7 9 o 41.97 47.89 8.33
0 8 9 o 702.28 699.57 35.33
1 8 9 o 70.62 51.34 8.99
-1 8 9 o 73.28 50.57 13.99
0 0 10 o 7630.20 7298.68 263.20
1 0 10 o 1349.07 1375.52 29.75
2 0 10 o 4374.74 4447.96 76.62
3 0 10 o 726.90 706.61 14.34
4 0 10 o 931.74 979.16 16.01
5 0 10 o 124.92 110.63 7.00
0 1 10 o 993.39 1044.81 19.37
1 1 10 o 2252.78 2211.98 36.17
-1 1 10 o 2285.21 2267.11 41.19
2 1 10 o 1059.79 951.99 28.36
-2 1 10 o 950.37 939.39 19.35
3 1 10 o 895.92 926.91 17.01
-3 1 10 o 879.89 936.81 16.68
4 1 10 o 385.57 441.57 9.66
-4 1 10 o 405.91 432.58 10.00
5 1 10 o 159.23 137.81 8.33
-5 1 10 o 139.58 137.65 7.00
0 2 10 o 1157.47 1114.75 18.03
1 2 10 o 378.02 389.92 9.33
-1 2 10 o 359.36 384.31 9.33
2 2 10 o 550.77 537.62 14.34
-2 2 10 o 512.76 534.38 10.67
3 2 10 o 612.72 599.84 17.67
-3 2 10 o 592.05 595.06 12.33
4 2 10 o 146.58 130.74 7.00
-4 2 10 o 146.58 133.79 7.00
5 2 10 o 211.55 215.42 20.66
-5 2 10 o 243.53 215.38 15.32
0 3 10 o 3518.94 3464.92 62.37
1 3 10 o 5245.28 5317.93 91.48
-1 3 10 o 5256.80 5311.28 81.73
2 3 10 o 2384.79 2314.43 43.79
-2 3 10 o 2293.29 2295.04 49.48
3 3 10 o 1580.50 1617.74 31.71
-3 3 10 o 1568.81 1620.52 36.38
4 3 10 o 502.21 469.84 18.00
-4 3 10 o 452.22 466.76 13.00
5 3 10 o 236.87 226.17 22.65
-5 3 10 o 249.20 227.65 14.66
0 4 10 o 2836.74 2895.06 51.20
1 4 10 o 1213.64 1200.11 24.03
-1 4 10 o 1213.33 1191.44 22.02
2 4 10 o 1528.77 1544.93 30.04
-2 4 10 o 1560.80 1547.23 30.71
3 4 10 o 589.64 601.29 15.33
-3 4 10 o 572.97 597.03 17.67
4 4 10 o 333.53 339.39 12.33
-4 4 10 o 341.53 336.70 11.33
-5 4 10 o 163.89 110.69 9.66
0 5 10 < 2.33 1.78 4.00
1 5 10 o 29.98 24.06 4.33
-1 5 10 o 33.97 23.38 5.33
2 5 10 o 169.91 181.84 7.00
-2 5 10 o 188.90 182.38 7.00
3 5 10 o 62.62 47.08 5.33
-3 5 10 o 53.29 46.90 5.66
4 5 10 o 165.57 170.18 9.33
-4 5 10 o 181.23 170.52 8.66
0 6 10 o 1031.12 1023.11 23.01
1 6 10 o 212.89 218.49 8.33
-1 6 10 o 223.22 225.04 9.00
2 6 10 o 619.94 616.79 17.33
-2 6 10 o 624.28 611.99 19.00
3 6 10 o 136.91 142.77 8.99
-3 6 10 o 137.25 148.53 7.99
4 6 10 o 187.88 156.02 13.33
-4 6 10 o 227.19 154.95 14.32
0 7 10 o 336.86 347.34 15.99
1 7 10 o 760.02 758.78 26.00
-1 7 10 o 774.68 761.77 30.00
2 7 10 o 242.87 241.29 13.66
-2 7 10 o 222.22 240.51 10.99
3 7 10 o 232.55 281.38 13.33
-3 7 10 o 205.90 281.98 13.33
0 8 10 o 59.96 48.99 11.99
1 8 10 o 67.62 41.86 9.66
-1 8 10 o 82.61 42.06 24.32
1 0 11 o 219.93 196.75 9.00
2 0 11 o 202.25 196.80 6.33
3 0 11 o 329.92 348.72 8.33
4 0 11 o 178.24 184.37 5.66
5 0 11 o 116.93 126.95 5.33
0 1 11 o 4032.00 4159.24 71.00
1 1 11 o 1597.08 1644.50 24.41
-1 1 11 o 1626.79 1653.03 30.42
2 1 11 o 2926.30 2876.80 52.91
-2 1 11 o 3017.94 2892.22 54.24
3 1 11 o 659.50 693.42 13.67
-3 1 11 o 675.83 700.79 13.67
4 1 11 o 618.33 630.09 13.33
-4 1 11 o 613.32 633.63 13.67
5 1 11 o 108.93 112.21 7.00
-5 1 11 o 124.92 113.46 6.66
0 2 11 o 3505.97 3470.44 61.75
1 2 11 o 6139.25 6497.05 123.16
-1 2 11 o 6444.43 6468.18 112.04
2 2 11 o 2097.68 2123.66 55.83
-2 2 11 o 2052.15 2137.73 44.13
3 2 11 o 2201.81 2247.14 49.11
-3 2 11 o 2182.45 2240.81 36.42
4 2 11 o 409.21 415.93 12.00
-4 2 11 o 372.89 411.50 13.33
5 2 11 o 277.20 268.06 23.32
-5 2 11 o 276.20 267.31 13.33
0 3 11 o 537.14 554.14 12.34
1 3 11 o 331.94 329.35 8.67
-1 3 11 o 320.60 332.43 7.67
2 3 11 o 621.08 597.21 14.00
-2 3 11 o 610.09 592.41 17.00
3 3 11 o 199.56 193.14 8.00
-3 3 11 o 174.24 185.84 9.33
4 3 11 o 216.55 217.61 12.33
-4 3 11 o 212.89 218.74 8.66
5 3 11 o 76.61 54.83 16.32
-5 3 11 o 73.28 52.79 14.99
0 4 11 o 651.49 645.32 14.67
1 4 11 o 1362.10 1371.63 26.70
-1 4 11 o 1358.40 1381.17 24.36
2 4 11 o 479.29 502.04 12.33
-2 4 11 o 498.62 499.64 14.33
3 4 11 o 539.93 538.79 15.33
-3 4 11 o 531.59 542.21 14.66
4 4 11 o 137.25 145.30 7.66
-4 4 11 o 151.24 148.91 7.66
-5 4 11 o 81.28 98.40 15.99
0 5 11 o 2077.56 2117.26 45.76
1 5 11 o 758.82 754.58 19.34
-1 5 11 o 762.16 750.62 20.67
2 5 11 o 1260.69 1322.65 30.02
-2 5 11 o 1284.37 1324.57 24.69
3 5 11 o 306.20 308.66 9.33
-3 5 11 o 261.89 306.43 10.33
4 5 11 o 304.86 296.04 15.99
-4 5 11 o 301.52 295.97 12.66
0 6 11 o 176.57 169.19 7.66
1 6 11 o 441.88 436.10 12.33
-1 6 11 o 428.22 431.14 13.00
2 6 11 o 130.59 135.73 7.33
-2 6 11 o 136.25 138.34 7.00
3 6 11 o 191.89 203.82 8.33
-3 6 11 o 183.56 199.36 10.33
0 7 11 o 65.29 62.57 8.66
1 7 11 o 61.96 49.90 8.33
-1 7 11 o 57.29 49.31 8.99
2 7 11 o 77.61 73.40 7.66
-2 7 11 o 80.94 73.88 8.99
3 7 11 o 56.63 42.20 7.33
-3 7 11 o 51.96 43.18 10.33
0 8 11 o 257.20 259.96 18.99
1 8 11 o 444.86 467.73 23.66
-1 8 11 o 463.19 466.76 29.66
0 0 12 o 182.90 97.44 9.00
1 0 12 o 8232.17 8980.24 164.69
2 0 12 o 112.94 118.64 6.33
3 0 12 o 2691.14 2733.55 44.47
4 0 12 o 24.98 26.79 3.00
5 0 12 o 282.21 342.87 17.33
0 1 12 o 3337.46 3684.73 59.78
1 1 12 o 214.60 222.90 6.33
-1 1 12 o 220.60 221.91 7.33
2 1 12 o 2056.28 2034.08 38.10
-2 1 12 o 2043.02 2009.64 38.11
3 1 12 o 214.57 217.61 7.33
-3 1 12 o 211.90 219.38 7.00
4 1 12 o 413.88 406.44 9.00
-4 1 12 o 405.88 405.65 10.33
5 1 12 o 87.61 84.66 6.66
-5 1 12 o 96.93 85.07 6.00
0 2 12 o 52.96 41.37 4.00
1 2 12 o 937.25 903.49 21.69
-1 2 12 o 953.57 917.86 20.02
2 2 12 o 214.58 224.62 10.66
-2 2 12 o 206.25 236.41 7.66
3 2 12 o 291.89 299.39 13.33
-3 2 12 o 287.89 297.40 8.33
4 2 12 o 161.57 166.58 7.33
-4 2 12 o 171.23 172.88 9.33
5 2 12 o 61.62 45.17 13.66
-5 2 12 o 49.63 44.33 7.33
0 3 12 o 7509.10 7451.51 106.29
1 3 12 o 823.84 826.13 17.34
-1 3 12 o 824.17 831.14 17.34
2 3 12 o 4011.78 4007.06 71.36
-2 3 12 o 3968.46 4020.99 82.75
3 3 12 o 293.90 331.87 14.00
-3 3 12 o 309.89 341.44 12.00
4 3 12 o 768.71 765.49 26.33
-4 3 12 o 725.71 763.78 18.00
5 3 12 < 33.64 35.00 11.99
-5 3 12 o 29.31 37.00 5.00
0 4 12 o 195.24 195.07 7.00
1 4 12 o 3020.82 3029.81 55.53
-1 4 12 o 2969.97 3030.83 48.84
2 4 12 o 198.23 202.65 7.33
-2 4 12 o 202.23 194.42 11.33
3 4 12 o 942.04 1001.88 19.34
-3 4 12 o 905.68 1006.61 24.68
4 4 12 o 65.29 64.57 6.66
-4 4 12 o 72.62 61.17 6.66
0 5 12 < 1.33 0.21 4.00
1 5 12 o 32.64 26.83 4.00
-1 5 12 o 29.64 26.43 4.33
2 5 12 o 39.30 25.24 4.66
-2 5 12 o 30.98 25.01 4.66
3 5 12 o 96.94 100.15 5.66
-3 5 12 o 95.27 99.32 7.33
4 5 12 o 28.65 19.62 6.99
-4 5 12 o 23.98 19.68 6.66
0 6 12 o 26.98 27.59 4.66
1 6 12 o 997.06 1042.41 25.68
-1 6 12 o 1013.40 1042.85 26.68
2 6 12 o 56.29 48.23 6.00
-2 6 12 o 46.63 45.18 5.66
3 6 12 o 373.52 388.42 12.00
-3 6 12 o 360.53 388.45 16.99
0 7 12 o 974.28 1024.35 43.68
1 7 12 o 68.28 54.36 8.66
-1 7 12 o 47.63 53.82 7.99
2 7 12 o 587.91 632.86 18.66
-2 7 12 o 609.91 629.63 19.33
0 8 12 < 8.99 2.36 7.99
1 0 13 < 4.00 0.15 4.00
2 0 13 o 257.26 285.05 12.00
3 0 13 o 13.32 0.02 3.33
4 0 13 o 247.88 259.71 7.00
5 0 13 < 9.33 0.03 3.33
0 1 13 o 5685.11 7170.43 141.31
1 1 13 o 115.27 114.81 5.00
-1 1 13 o 103.61 111.83 5.33
2 1 13 o 3184.51 3373.65 57.27
-2 1 13 o 3332.66 3358.59 60.29
3 1 13 o 142.25 141.89 5.66
-3 1 13 o 146.25 140.50 6.00
4 1 13 o 658.63 635.73 12.33
-4 1 13 o 616.31 630.84 17.67
5 1 13 o 62.29 52.45 5.33
-5 1 13 o 58.96 51.35 6.66
0 2 13 < 6.99 7.96 2.66
1 2 13 o 6734.63 6514.83 134.78
-1 2 13 o 6566.57 6509.85 114.23
2 2 13 < 11.99 10.53 4.66
-2 2 13 < 6.99 6.33 3.66
3 2 13 o 1821.01 1854.44 50.75
-3 2 13 o 1813.31 1860.00 41.40
4 2 13 o 20.32 17.92 4.00
-4 2 13 o 29.64 15.63 5.66
5 2 13 o 244.54 236.18 12.33
-5 2 13 o 251.87 237.85 12.99
0 3 13 o 715.95 700.50 13.01
1 3 13 o 13.99 12.27 3.00
-1 3 13 o 16.65 10.34 3.66
2 3 13 o 334.23 326.64 9.66
-2 3 13 o 336.23 333.91 9.66
3 3 13 o 143.25 150.23 10.99
-3 3 13 o 129.59 144.69 8.66
4 3 13 o 80.61 63.25 8.66
-4 3 13 o 94.93 67.58 7.00
5 3 13 o 94.27 81.88 6.33
-5 3 13 o 110.26 80.75 9.99
0 4 13 < 2.00 2.53 2.66
1 4 13 o 1297.34 1300.64 26.03
-1 4 13 o 1325.04 1300.57 26.69
2 4 13 o 52.63 50.13 4.66
-2 4 13 o 60.29 54.46 6.66
3 4 13 o 434.22 447.47 12.00
-3 4 13 o 393.23 442.48 14.66
4 4 13 o 78.28 81.10 9.33
-4 4 13 o 80.94 82.48 7.99
0 5 13 o 2983.25 3007.66 63.86
1 5 13 o 59.62 47.68 5.66
-1 5 13 o 54.96 47.44 5.00
2 5 13 o 1613.60 1718.19 32.37
-2 5 13 o 1715.38 1719.67 34.37
3 5 13 o 33.31 19.37 6.00
-3 5 13 o 29.64 19.44 5.33
4 5 13 o 369.85 376.66 14.99
-4 5 13 o 391.84 378.22 17.33
0 6 13 o 26.65 24.32 5.33
1 6 13 o 501.90 525.17 19.00
-1 6 13 o 503.90 523.93 13.66
2 6 13 o 42.64 40.90 5.66
-2 6 13 o 47.63 43.78 6.00
3 6 13 o 188.23 195.34 10.66
-3 6 13 o 199.88 196.67 10.66
0 7 13 o 129.25 115.21 10.99
1 7 13 o 16.65 7.91 5.33
-1 7 13 o 17.65 8.44 4.66
2 7 13 o 73.28 60.97 9.99
-2 7 13 o 83.61 60.05 10.66
0 0 14 o 2025.35 2041.27 53.18
1 0 14 o 6463.76 6351.29 158.75
2 0 14 o 1085.47 1127.72 22.69
3 0 14 o 1931.86 1944.88 37.07
4 0 14 o 248.54 227.66 8.00
5 0 14 o 225.21 234.61 8.33
0 1 14 o 1775.05 2162.70 48.50
1 1 14 o 515.77 512.90 11.34
-1 1 14 o 490.08 525.92 13.67
2 1 14 o 1272.82 1214.84 29.37
-2 1 14 o 1263.77 1232.16 28.70
3 1 14 o 306.55 307.74 8.00
-3 1 14 o 312.89 309.57 10.33
4 1 14 o 276.87 259.32 7.66
-4 1 14 o 271.87 263.15 8.33
5 1 14 o 94.94 95.83 7.00
-5 1 14 o 92.94 96.32 7.66
0 2 14 < 3.33 1.39 3.33
1 2 14 o 443.97 437.01 11.33
-1 2 14 o 421.99 420.72 11.33
2 2 14 o 146.92 146.46 7.66
-2 2 14 o 140.59 151.24 7.00
3 2 14 o 212.55 190.22 11.99
-3 2 14 o 177.91 178.99 7.00
4 2 14 o 161.24 176.24 10.33
-4 2 14 o 172.90 177.28 7.00
5 2 14 o 88.27 43.15 12.99
-5 2 14 o 61.62 40.97 11.33
0 3 14 o 3106.64 3082.38 56.23
1 3 14 o 146.59 152.42 7.33
-1 3 14 o 139.26 152.36 6.66
2 3 14 o 1642.28 1611.94 37.39
-2 3 14 o 1547.53 1593.46 30.71
3 3 14 o 147.58 148.51 10.33
-3 3 14 o 157.57 151.58 11.99
4 3 14 o 354.52 350.74 16.33
-4 3 14 o 336.20 346.46 16.33
5 3 14 o 58.29 36.03 8.33
-5 3 14 o 48.30 36.77 8.99
0 4 14 o 187.24 202.70 6.00
1 4 14 o 1471.18 1507.03 29.04
-1 4 14 o 1475.50 1514.03 25.70
2 4 14 o 218.22 219.39 7.66
-2 4 14 o 214.89 215.25 9.99
3 4 14 o 505.56 501.21 16.00
-3 4 14 o 433.57 508.85 15.66
4 4 14 o 103.60 90.58 9.66
-4 4 14 o 88.61 89.38 8.33
0 5 14 < 3.33 1.86 5.33
1 5 14 o 29.31 22.41 4.00
-1 5 14 o 25.98 22.39 4.66
2 5 14 o 22.65 14.42 3.66
-2 5 14 o 25.31 14.69 5.66
3 5 14 o 97.27 91.28 12.99
-3 5 14 o 106.26 91.49 9.66
4 5 14 o 24.65 14.22 5.00
0 6 14 o 168.90 170.26 11.33
1 6 14 o 747.74 804.09 27.34
-1 6 14 o 783.08 805.38 22.00
2 6 14 o 114.93 130.79 10.33
-2 6 14 o 141.58 129.96 9.66
3 6 14 o 249.54 276.68 18.32
-3 6 14 o 299.52 277.17 15.66
0 7 14 o 599.58 624.63 23.33
1 7 14 o 119.25 101.99 9.66
-1 7 14 o 110.59 102.75 8.66
2 7 14 o 315.87 356.46 14.99
-2 7 14 o 366.18 360.76 17.99
1 0 15 o 60.62 45.92 6.66
2 0 15 o 124.93 118.82 7.33
3 0 15 o 121.26 116.50 6.66
4 0 15 o 111.60 126.54 6.33
5 0 15 o 68.95 58.24 6.66
0 1 15 o 1705.30 1722.57 37.42
1 1 15 o 1476.25 1479.14 23.71
-1 1 15 o 1513.32 1475.73 34.39
2 1 15 o 1041.81 1035.07 19.68
-2 1 15 o 1067.16 1034.59 31.02
3 1 15 o 661.38 661.36 13.00
-3 1 15 o 668.05 661.92 16.33
4 1 15 o 235.55 241.94 7.33
-4 1 15 o 243.88 240.54 8.00
5 1 15 o 121.92 111.48 10.33
-5 1 15 o 125.58 112.21 8.66
0 2 15 o 1434.95 1418.00 28.38
1 2 15 o 1131.50 1105.67 23.02
-1 2 15 o 1102.42 1129.14 22.69
2 2 15 o 1190.99 1151.76 28.69
-2 2 15 o 1163.00 1135.74 28.69
3 2 15 o 481.56 440.73 17.33
-3 2 15 o 437.57 449.44 11.00
4 2 15 o 285.87 291.23 13.99
-4 2 15 o 294.20 288.79 10.66
5 2 15 o 73.28 61.33 7.99
-5 2 15 o 74.28 62.61 13.66
0 3 15 o 88.27 71.15 6.00
1 3 15 o 166.24 166.99 6.33
-1 3 15 o 154.25 156.88 7.33
2 3 15 o 169.58 171.28 8.33
-2 3 15 o 179.24 183.11 8.00
3 3 15 o 204.55 198.61 12.33
-3 3 15 o 155.92 193.40 9.66
4 3 15 o 89.61 91.49 9.66
-4 3 15 o 94.94 94.57 9.99
0 4 15 o 347.24 369.06 8.33
1 4 15 o 389.22 385.05 11.66
-1 4 15 o 363.23 375.30 10.33
2 4 15 o 285.22 292.27 9.66
-2 4 15 o 292.88 299.33 11.99
3 4 15 o 174.90 178.25 8.99
-3 4 15 o 165.24 173.36 9.99
4 4 15 o 115.92 104.08 10.33
-4 4 15 o 111.59 105.71 8.66
0 5 15 o 990.10 1023.33 17.67
1 5 15 o 778.48 822.96 17.67
-1 5 15 o 819.82 824.36 19.00
2 5 15 o 585.26 585.95 17.33
-2 5 15 o 590.92 588.20 18.33
3 5 15 o 317.53 323.86 20.32
-3 5 15 o 329.86 323.00 13.99
4 5 15 o 119.92 123.93 8.33
-4 5 15 o 231.18 124.76 16.32
0 6 15 o 225.55 244.22 12.99
1 6 15 o 192.23 192.34 11.33
-1 6 15 o 195.22 194.38 9.99
2 6 15 o 171.56 169.85 11.33
-2 6 15 o 176.56 169.23 12.33
3 6 15 o 105.26 81.60 12.99
-3 6 15 o 104.93 82.35 11.66
0 7 15 o 31.98 26.65 6.99
1 7 15 o 30.64 21.98 6.00
-1 7 15 o 34.31 22.77 8.66
2 7 15 o 43.30 37.35 7.66
-2 7 15 o 43.30 35.54 10.33
0 0 16 o 3640.39 3557.10 92.83
1 0 16 o 983.11 947.92 24.69
2 0 16 o 2106.54 2239.51 40.43
3 0 16 o 229.90 263.98 9.33
4 0 16 o 441.89 486.29 11.00
5 0 16 o 25.65 26.56 4.33
0 1 16 o 288.58 273.74 9.33
1 1 16 o 1079.31 1066.12 18.68
-1 1 16 o 1053.66 1045.23 26.02
2 1 16 o 226.90 222.50 7.66
-2 1 16 o 203.24 221.63 8.33
3 1 16 o 463.90 453.30 12.33
-3 1 16 o 457.90 445.87 13.00
4 1 16 o 102.27 104.65 5.33
-4 1 16 o 122.59 104.67 6.66
5 1 16 o 108.59 75.84 8.66
-5 1 16 o 81.94 74.44 7.99
0 2 16 o 365.60 368.96 11.00
1 2 16 o 61.62 59.68 5.33
-1 2 16 o 48.63 51.71 5.00
2 2 16 o 292.89 287.27 11.33
-2 2 16 o 300.89 298.93 10.66
3 2 16 o 142.91 151.49 8.33
-3 2 16 o 136.25 148.75 7.33
4 2 16 o 86.94 91.02 6.66
-4 2 16 o 83.94 93.96 6.66
5 2 16 o 94.27 67.99 8.33
-5 2 16 o 71.62 67.32 8.66
0 3 16 o 42.97 29.46 4.66
1 3 16 o 2028.60 2072.59 39.08
-1 3 16 o 2091.35 2087.95 40.08
2 3 16 o 79.95 73.98 5.00
-2 3 16 o 72.95 68.54 6.00
3 3 16 o 694.71 735.10 19.33
-3 3 16 o 708.71 741.50 25.67
4 3 16 o 30.98 29.85 6.99
-4 3 16 o 59.29 27.74 13.32
0 4 16 o 1225.00 1240.90 25.35
1 4 16 o 78.95 76.43 5.00
-1 4 16 o 91.94 80.87 6.66
2 4 16 o 755.08 753.72 21.00
-2 4 16 o 727.74 748.39 20.67
3 4 16 o 75.28 65.58 9.99
-3 4 16 o 81.28 68.05 8.33
4 4 16 o 178.23 179.53 12.66
-4 4 16 o 207.54 176.32 13.99
0 5 16 < 1.00 1.39 2.33
1 5 16 o 17.65 8.71 3.66
-1 5 16 o 17.99 9.00 4.66
2 5 16 o 63.95 51.38 6.66
-2 5 16 o 55.96 51.22 6.66
3 5 16 o 33.31 22.52 8.66
-3 5 16 o 39.97 22.42 7.33
0 6 16 o 455.54 459.46 15.00
1 6 16 o 117.59 103.79 10.33
-1 6 16 o 116.26 103.64 12.66
2 6 16 o 306.86 305.91 14.33
-2 6 16 o 295.53 305.71 13.33
3 6 16 o 51.30 55.44 10.66
-3 6 16 o 107.59 56.34 12.66
0 7 16 o 57.29 40.63 10.66
1 7 16 o 352.86 373.50 16.33
-1 7 16 o 388.18 370.27 25.99
1 0 17 o 58.63 51.14 6.66
2 0 17 o 19.98 11.57 4.33
3 0 17 o 150.25 163.04 11.33
4 0 17 o 11.66 5.50 3.66
5 0 17 o 93.93 72.55 6.00
0 1 17 < -1.67 0.44 3.33
1 1 17 o 2108.16 2117.89 35.75
-1 1 17 o 2023.24 2131.24 39.09
2 1 17 o 57.29 55.29 5.00
-2 1 17 o 57.96 56.11 7.00
3 1 17 o 695.35 665.32 15.33
-3 1 17 o 672.01 671.53 17.00
4 1 17 o 44.63 42.54 4.00
-4 1 17 o 55.96 42.84 5.66
5 1 17 o 122.58 93.31 8.99
-5 1 17 o 91.94 94.91 8.99
0 2 17 o 3082.90 3502.53 57.59
1 2 17 o 37.97 42.43 4.66
-1 2 17 o 41.30 45.14 5.00
2 2 17 o 1792.20 1831.25 41.40
-2 2 17 o 1852.98 1827.93 43.07
3 2 17 o 21.65 15.38 5.00
-3 2 17 o 22.98 17.49 4.33
4 2 17 o 373.19 374.85 13.33
-4 2 17 o 358.53 372.94 12.66
0 3 17 o 19.32 13.90 4.33
1 3 17 o 287.88 284.83 10.00
-1 3 17 o 285.55 279.59 9.66
2 3 17 o 61.96 54.59 7.00
-2 3 17 o 62.29 57.99 6.00
3 3 17 o 108.26 90.81 11.66
-3 3 17 o 106.93 86.97 9.66
4 3 17 o 87.27 79.67 9.66
-4 3 17 o 84.61 81.24 10.33
0 4 17 o 622.65 605.99 15.33
1 4 17 o 15.32 11.88 4.00
-1 4 17 < 7.33 9.80 4.00
2 4 17 o 361.54 375.54 14.00
-2 4 17 o 388.86 379.07 14.00
3 4 17 o 59.96 54.25 9.99
-3 4 17 o 65.29 52.52 9.66
4 4 17 o 93.94 88.62 9.99
-4 4 17 o 104.60 90.41 16.32
0 5 17 < 1.67 0.07 3.00
1 5 17 o 925.60 965.04 21.34
-1 5 17 o 932.94 960.96 25.34
2 5 17 < 5.33 0.44 3.66
-2 5 17 < 3.00 0.46 4.33
3 5 17 o 329.86 363.40 21.32
-3 5 17 o 366.18 361.01 15.66
0 6 17 o 252.87 230.51 12.99
1 6 17 < 5.00 4.61 4.33
-1 6 17 < 2.00 4.38 4.00
2 6 17 o 149.24 151.13 8.66
-2 6 17 o 161.23 148.09 9.99
0 7 17 < 9.66 0.26 11.66
1 7 17 o 78.28 46.73 11.33
-1 7 17 o 51.63 47.87 12.66
0 0 18 o 2220.07 2321.51 59.50
1 0 18 o 282.24 291.58 11.33
2 0 18 o 1226.72 1237.72 28.69
3 0 18 o 103.93 100.26 6.00
4 0 18 o 261.87 267.60 8.66
0 1 18 o 171.58 181.65 7.66
1 1 18 o 752.88 732.33 17.34
-1 1 18 o 716.53 735.38 17.67
2 1 18 o 116.26 119.21 7.33
-2 1 18 o 121.26 122.88 8.66
3 1 18 o 241.55 239.83 8.00
-3 1 18 o 234.55 240.17 9.66
4 1 18 o 83.61 74.73 7.99
-4 1 18 o 90.94 75.07 6.00
0 2 18 o 267.24 297.66 12.33
1 2 18 o 26.31 23.77 4.66
-1 2 18 o 18.99 22.31 5.33
2 2 18 o 168.57 154.00 9.66
-2 2 18 o 175.57 154.82 8.66
3 2 18 o 96.27 88.57 9.33
-3 2 18 o 98.93 85.68 6.33
4 2 18 o 52.96 31.27 5.66
-4 2 18 o 46.30 32.91 7.66
0 3 18 o 260.89 271.92 9.66
1 3 18 o 1867.27 1859.90 38.06
-1 3 18 o 1910.35 1856.52 38.06
2 3 18 o 210.22 204.55 9.33
-2 3 18 o 199.56 200.87 8.66
3 3 18 o 653.25 595.55 32.00
-3 3 18 o 571.59 596.22 19.00
4 3 18 o 61.96 56.76 8.66
-4 3 18 o 67.29 55.57 9.33
0 4 18 o 976.69 951.95 21.67
1 4 18 o 121.26 134.93 7.33
-1 4 18 o 125.59 137.17 7.33
2 4 18 o 522.90 531.41 14.33
-2 4 18 o 532.90 526.04 17.66
3 4 18 o 90.94 77.89 10.99
-3 4 18 o 104.26 80.51 9.33
4 4 18 o 138.91 118.44 11.99
-4 4 18 o 117.92 116.69 24.65
0 5 18 < 3.00 0.63 3.00
1 5 18 < 8.33 0.31 3.33
-1 5 18 < 4.00 0.38 5.00
2 5 18 o 38.64 28.66 5.66
-2 5 18 o 45.30 29.02 7.33
3 5 18 < 7.33 1.23 4.00
-3 5 18 < 13.66 1.17 6.99
0 6 18 o 349.52 350.15 16.66
1 6 18 o 37.31 31.14 6.99
-1 6 18 o 36.97 31.08 7.66
2 6 18 o 203.88 193.19 9.99
-2 6 18 o 227.87 194.00 16.66
0 7 18 o 47.30 46.08 10.66
1 0 19 < 9.66 7.92 4.33
2 0 19 o 47.97 36.76 7.99
3 0 19 o 72.28 61.05 6.66
4 0 19 o 33.64 27.65 4.00
0 1 19 o 517.63 501.22 13.67
1 1 19 o 630.41 665.01 16.34
-1 1 19 o 648.42 662.73 20.34
2 1 19 o 384.22 383.51 11.33
-2 1 19 o 380.56 375.30 14.66
3 1 19 o 249.88 242.60 9.33
-3 1 19 o 225.22 242.01 9.33
4 1 19 o 97.27 106.33 7.33
-4 1 19 o 118.92 104.53 7.99
1 2 19 o 570.01 611.49 18.00
-1 2 19 o 556.68 606.67 17.00
2 2 19 o 717.06 709.20 27.34
-2 2 19 o 720.06 710.76 18.33
3 2 19 o 273.54 273.50 18.32
-3 2 19 o 280.20 273.64 9.33
4 2 19 o 167.23 148.38 10.33
-4 2 19 o 160.57 147.50 15.66
0 3 19 o 64.62 60.13 6.66
1 3 19 o 96.60 86.98 7.99
-1 3 19 o 95.94 87.90 7.00
2 3 19 o 85.94 78.34 7.00
-2 3 19 o 92.94 79.66 7.66
3 3 19 o 60.29 47.79 10.66
-3 3 19 o 56.63 46.28 6.00
4 3 19 o 34.31 36.13 5.33
-4 3 19 o 41.97 37.44 8.33
0 4 19 o 345.53 317.67 11.33
1 4 19 o 142.25 144.67 8.00
-1 4 19 o 142.25 144.66 8.00
2 4 19 o 189.22 175.53 10.33
-2 4 19 o 188.89 175.88 10.66
3 4 19 o 85.61 77.31 11.33
-3 4 19 o 102.93 76.35 11.33
0 5 19 o 299.54 317.83 11.99
1 5 19 o 369.85 354.62 13.99
-1 5 19 o 333.87 355.66 13.99
2 5 19 o 208.55 211.15 9.00
-2 5 19 o 217.88 212.93 11.33
3 5 19 o 119.25 119.80 8.33
-3 5 19 o 147.24 120.35 16.32
0 6 19 o 94.93 80.44 10.33
1 6 19 o 72.28 73.81 7.00
-1 6 19 o 100.60 74.79 11.66
2 6 19 o 54.29 48.34 6.00
0 0 20 o 268.21 243.28 11.33
1 0 20 o 1175.86 1149.66 25.02
2 0 20 o 156.57 147.52 8.00
3 0 20 o 489.22 483.15 13.33
4 0 20 o 36.31 29.50 4.33
0 1 20 o 371.56 357.91 11.66
1 1 20 o 113.60 109.20 6.33
-1 1 20 o 123.92 111.12 7.66
2 1 20 o 310.20 294.06 11.33
-2 1 20 o 273.89 292.02 11.66
3 1 20 o 68.95 66.99 5.33
-3 1 20 o 65.29 67.77 7.00
4 1 20 o 77.95 76.29 6.66
-4 1 20 o 94.93 77.56 6.66
0 2 20 o 39.64 38.28 5.66
1 2 20 o 97.94 97.81 8.33
-1 2 20 o 93.27 98.97 7.33
2 2 20 o 86.94 69.13 11.99
-2 2 20 o 80.61 70.17 7.33
3 2 20 o 41.30 43.26 9.66
-3 2 20 o 60.62 42.76 6.99
4 2 20 o 47.63 43.30 6.33
-4 2 20 o 43.97 43.91 7.99
0 3 20 o 634.04 690.54 20.00
1 3 20 o 336.20 318.75 11.33
-1 3 20 o 317.21 320.23 12.66
2 3 20 o 447.54 427.51 16.00
-2 3 20 o 463.53 429.76 16.33
3 3 20 o 147.24 118.87 14.32
-3 3 20 o 146.24 120.77 16.99
4 3 20 o 100.27 100.24 7.33
-4 3 20 o 94.27 99.54 16.99
0 4 20 o 150.24 135.39 8.00
1 4 20 o 400.19 376.75 14.99
-1 4 20 o 370.87 378.60 12.33
2 4 20 o 117.59 98.90 9.99
-2 4 20 o 114.92 99.53 9.66
3 4 20 o 157.90 142.45 14.99
-3 4 20 o 141.58 144.08 14.32
0 5 20 < 2.66 0.63 4.00
1 5 20 o 17.32 10.10 5.33
-1 5 20 < 7.66 9.71 6.66
2 5 20 < 13.66 8.09 4.66
-2 5 20 o 26.31 7.97 7.33
3 5 20 o 30.98 24.69 8.99
0 6 20 o 42.64 38.61 8.33
1 6 20 o 156.57 163.76 9.33
-1 6 20 o 156.57 163.50 16.99
1 0 21 o 26.98 9.84 5.33
2 0 21 o 53.30 62.97 6.33
3 0 21 o 16.32 8.32 3.66
4 0 21 o 59.29 59.60 5.66
0 1 21 o 877.26 842.83 20.34
1 1 21 o 21.65 16.18 6.33
-1 1 21 o 17.99 15.16 5.33
2 1 21 o 488.23 480.18 13.66
-2 1 21 o 492.56 485.61 15.00
3 1 21 o 26.65 28.64 4.00
-3 1 21 o 31.31 28.53 6.00
4 1 21 o 113.92 107.00 6.66
-4 1 21 o 120.92 106.75 7.33
0 2 21 o 24.65 17.55 5.66
1 2 21 o 691.07 734.50 20.00
-1 2 21 o 656.40 737.27 17.67
2 2 21 o 25.31 17.06 6.33
-2 2 21 o 23.98 16.06 5.33
3 2 21 o 134.60 250.86 13.99
-3 2 21 o 256.87 252.52 11.33
4 2 21 < 8.66 5.79 4.33
-4 2 21 < 4.66 5.61 5.66
0 3 21 o 78.95 82.57 7.66
1 3 21 o 14.99 10.87 4.66
-1 3 21 < 9.99 10.10 4.33
2 3 21 o 44.97 41.20 10.99
-2 3 21 o 53.63 42.19 6.33
3 3 21 o 44.30 44.92 9.99
-3 3 21 o 51.96 44.14 8.33
0 4 21 < 14.32 3.87 5.00
1 4 21 o 209.87 159.60 13.99
-1 4 21 o 180.56 159.44 8.66
2 4 21 o 25.65 20.70 6.00
-2 4 21 o 24.32 21.10 7.99
3 4 21 o 113.25 67.87 13.66
-3 4 21 o 89.94 66.95 15.66
0 5 21 o 472.85 444.89 15.99
1 5 21 < 10.33 0.91 5.33
-1 5 21 < -4.00 0.93 5.00
2 5 21 o 285.53 285.21 14.99
-2 5 21 o 315.51 284.02 26.65
0 6 21 < 7.66 0.39 7.33
1 6 21 o 76.28 92.66 14.99
1 0 22 o 990.07 989.48 24.68
2 0 22 o 54.29 51.73 6.33
3 0 22 o 310.86 310.01 10.00
4 0 22 o 23.98 14.86 4.33
0 1 22 o 367.88 363.33 12.00
1 1 22 o 47.97 40.26 7.66
-1 1 22 o 35.31 41.62 6.00
2 1 22 o 186.56 184.81 8.00
-2 1 22 o 203.22 184.83 10.66
3 1 22 o 48.96 45.77 5.33
-3 1 22 o 41.97 45.33 8.66
4 1 22 o 49.63 39.65 6.33
-4 1 22 o 50.30 39.27 5.66
0 2 22 < 0.00 0.87 4.00
1 2 22 o 42.97 42.00 6.00
-1 2 22 o 51.96 41.25 6.33
2 2 22 < 19.65 35.80 7.66
-2 2 22 o 37.64 35.81 6.33
3 2 22 < 10.66 18.84 4.66
-3 2 22 o 33.64 18.24 6.66
4 2 22 o 51.30 44.39 6.33
0 3 22 o 368.54 387.77 14.99
1 3 22 o 32.31 30.37 6.66
-1 3 22 o 23.65 30.43 5.00
2 3 22 o 158.92 231.34 16.32
-2 3 22 o 215.89 228.24 10.99
3 3 22 o 35.31 22.05 9.33
-3 3 22 < 28.31 22.27 9.99
0 4 22 < 20.65 25.14 7.33
1 4 22 o 255.19 214.77 12.66
-1 4 22 o 220.88 212.50 11.33
2 4 22 o 19.65 25.18 5.33
-2 4 22 < 18.99 25.16 6.99
3 4 22 o 132.24 80.92 14.66
-3 4 22 o 77.95 80.37 14.99
0 5 22 < 11.32 0.64 6.66
1 5 22 < 10.66 4.45 5.66
-1 5 22 < 12.32 4.56 6.33
2 5 22 < 8.33 0.21 4.66
1 0 23 < 9.33 2.54 4.00
2 0 23 o 18.65 15.22 3.66
3 0 23 < 8.33 4.33 3.66
4 0 23 o 32.31 26.92 5.00
0 1 23 o 325.53 306.09 11.66
1 1 23 o 138.25 147.77 10.66
-1 1 23 o 138.92 144.87 8.33
2 1 23 o 179.90 175.90 9.99
-2 1 23 o 189.56 175.43 9.99
3 1 23 o 82.61 75.43 7.66
-3 1 23 o 106.59 74.87 8.33
0 2 23 o 197.90 221.18 9.33
1 2 23 o 230.21 232.70 11.99
-1 2 23 o 266.20 232.57 12.33
2 2 23 o 167.57 161.94 15.99
-2 2 23 o 136.25 160.35 10.33
3 2 23 o 85.94 89.89 7.66
-3 2 23 o 76.28 89.40 9.99
0 3 23 < 20.65 13.02 8.33
1 3 23 o 34.31 29.66 6.99
-1 3 23 o 27.31 29.27 6.33
2 3 23 < 15.32 12.47 8.33
-2 3 23 o 24.65 12.72 5.66
3 3 23 o 46.97 38.45 11.66
-3 3 23 o 43.97 38.24 11.99
0 4 23 o 35.31 41.57 9.66
1 4 23 o 80.94 77.99 11.99
-1 4 23 o 101.26 78.17 8.66
2 4 23 o 43.97 38.27 9.66
-2 4 23 o 34.64 38.54 7.99
0 5 23 o 275.84 205.51 16.32
1 5 23 o 101.93 79.77 8.99
0 0 24 o 237.89 283.39 23.99
1 0 24 o 176.23 165.94 7.00
2 0 24 o 208.89 225.46 8.33
3 0 24 o 73.28 59.56 6.33
0 1 24 o 70.95 53.46 7.66
1 1 24 o 113.92 99.05 11.99
-1 1 24 o 112.26 98.06 8.66
2 1 24 o 33.31 36.54 5.33
-2 1 24 o 50.30 35.90 6.66
3 1 24 o 69.28 57.82 7.33
-3 1 24 o 73.95 58.00 7.66
0 2 24 o 63.29 51.07 7.99
1 2 24 < 16.32 13.81 5.66
-1 2 24 o 22.65 13.82 6.00
2 2 24 o 51.30 38.11 10.66
-2 2 24 o 72.28 38.22 13.66
3 2 24 o 29.31 10.41 8.99
-3 2 24 < 13.99 10.88 7.66
0 3 24 o 64.62 73.57 8.66
1 3 24 o 272.87 289.36 14.66
-1 3 24 o 384.82 290.25 27.65
2 3 24 o 36.97 46.00 10.33
-2 3 24 o 42.30 46.61 8.66
-3 3 24 o 106.26 109.28 18.65
0 4 24 o 126.59 161.93 12.66
1 4 24 o 36.97 39.48 7.33
-1 4 24 o 36.64 40.14 8.33
2 4 24 o 99.93 103.09 9.66
0 5 24 o 32.97 0.09 9.33
1 5 24 < 3.00 1.44 9.33
1 0 25 < 4.66 5.29 3.33
2 0 25 o 15.65 4.25 4.00
3 0 25 < 10.66 13.52 4.00
0 1 25 o 19.32 14.12 4.33
1 1 25 o 237.54 218.28 16.99
-1 1 25 o 225.54 220.89 11.99
2 1 25 < 13.99 13.79 5.00
-2 1 25 o 20.98 14.34 6.33
3 1 25 o 109.26 79.66 8.33
-3 1 25 o 97.93 79.67 9.66
0 2 25 o 379.52 368.75 16.66
1 2 25 o 33.97 12.77 6.66
-1 2 25 o 29.98 12.52 6.33
2 2 25 o 256.86 217.98 19.99
-2 2 25 o 269.52 219.71 12.66
3 2 25 < 5.00 5.37 5.66
-3 2 25 < 21.32 5.10 7.99
0 3 25 < 13.99 0.83 6.00
1 3 25 o 38.64 32.74 7.33
-1 3 25 o 41.97 32.97 8.99
2 3 25 < 11.99 5.76 7.99
-2 3 25 < 19.32 5.54 9.66
0 4 25 o 65.29 69.19 9.66
1 4 25 < 7.33 4.50 6.00
2 4 25 o 49.63 47.98 14.99
0 0 26 o 292.52 269.27 18.66
1 0 26 < 2.00 6.20 3.66
2 0 26 o 141.24 140.77 8.99
3 0 26 < 9.99 2.21 3.66
0 1 26 < 5.00 3.87 3.66
1 1 26 o 90.60 85.40 11.99
-1 1 26 o 77.95 85.86 14.66
2 1 26 < 6.33 7.09 5.33
-2 1 26 < 10.33 6.85 5.00
3 1 26 o 38.30 25.05 6.00
-3 1 26 o 36.31 26.02 7.99
0 2 26 o 32.98 21.59 6.66
1 2 26 < 3.66 1.85 4.00
-1 2 26 < 4.66 2.13 5.33
2 2 26 o 31.64 15.92 9.33
-2 2 26 o 19.32 15.40 6.33
0 3 26 < 4.00 0.86 5.33
1 3 26 o 204.55 183.00 12.99
-1 3 26 o 201.55 182.20 13.99
2 3 26 < 4.33 1.34 7.66
1 0 27 < 1.00 1.31 3.66
2 0 27 < 8.33 3.27 4.00
0 1 27 < 13.32 25.55 4.66
1 1 27 o 66.29 71.13 7.66
-1 1 27 o 76.28 69.80 8.33
2 1 27 < 13.99 20.08 4.66
-2 1 27 o 21.98 19.82 6.33
0 2 27 o 140.91 112.48 10.66
1 2 27 o 43.63 24.33 10.66
-1 2 27 o 22.65 23.86 6.66
2 2 27 o 59.96 65.83 11.33
0 0 28 o 44.63 33.52 8.99
1 0 28 o 73.62 80.24 7.33
2 0 28 o 27.98 21.28 7.99
0 1 28 o 22.65 23.42 6.99
1 1 28 < 9.99 9.97 4.33
-1 1 28 < 10.99 10.34 4.33
-1 1 29 < 4.33 3.14 8.99
0 2 29 < 6.33 3.39 6.66
loop_
_iucr_refine_instructions_details
;
#m40
   15    0    0    1
 0.544053 0.000000 0.000000 0.000000 0.000000 0.104013      100001
 0.000000 0.000000                                          00
 0.000000 0.000000 0.000000 0.000000 0.000000 0.000000      000000
 0.000000 0.000000 0.000000 0.000000 0.000000 0.000000      000000
Cs1       1  2     1.000000 0.730262 0.649921 0.191271
 0.041348 0.029097 0.062120 0.000307-0.002739 0.001402      0111111111
O1        3  2     1.000000 0.757973 0.475360 0.328808
 0.065095 0.029520 0.071188-0.004603-0.007361-0.001572      0111111111
O2        3  2     1.000000 0.764976 0.828314 0.328178
 0.060606 0.031702 0.078875 0.000611-0.007206 0.005081      0111111111
C1        2  2     1.000000 0.794733 0.653016 0.354928
 0.033605 0.027803 0.060396 0.003885-0.003026 0.000869      0111111111
C2        2  2     1.000000 0.891449 0.654965 0.420867
 0.146636 0.059321 0.079227-0.009353-0.029708 0.001272      0111111111
H1c2      4  1     1.000000 0.793721 0.771881 0.442428
 0.114074 0.000000 0.000000 0.000000 0.000000 0.000000      0000000000
H2c2      4  1     1.000000 1.097700 0.706457 0.423612
 0.114074 0.000000 0.000000 0.000000 0.000000 0.000000      0000000000
C3        2  2     1.000000 0.860551 0.459531 0.458029
 0.147482 0.088911 0.060611 0.012747-0.008024 0.019195      0111111111
C3d       2  2     0.000000 0.860551 0.459531 0.458029
 0.147482 0.088911 0.060611 0.012747-0.008024 0.019195      0000000000
H1c3      4  1     0.500000 0.943319 0.482452 0.498866
 0.148502 0.000000 0.000000 0.000000 0.000000 0.000000      0000000000
H2c3      4  1     0.500000 0.650616 0.422829 0.461552
 0.148502 0.000000 0.000000 0.000000 0.000000 0.000000      0000000000
H3c3      4  1     0.500000 0.967549 0.345746 0.437925
 0.148502 0.000000 0.000000 0.000000 0.000000 0.000000      0000000000
H1c3d     4  1     0.500000 0.833861 0.340146 0.430661
 0.148502 0.000000 0.000000 0.000000 0.000000 0.000000      0000000000
H2c3d     4  1     0.500000 1.039365 0.439114 0.482675
 0.148502 0.000000 0.000000 0.000000 0.000000 0.000000      0000000000
H3c3d     4  1     0.500000 0.688258 0.471768 0.485008
 0.148502 0.000000 0.000000 0.000000 0.000000 0.000000      0000000000
----------------------------   s.u. block   ----------------------------
 0.001058 0.000000 0.000000 0.000000 0.000000 0.092952
 0.000000 0.000000
 0.000000 0.000000 0.000000 0.000000 0.000000 0.000000
 0.000000 0.000000 0.000000 0.000000 0.000000 0.000000
Cs1                0.000000 0.000054 0.000043 0.000013
 0.000140 0.000131 0.000177 0.000110 0.000130 0.000108
O1                 0.000000 0.001110 0.000494 0.000168
 0.002152 0.001463 0.001884 0.001634 0.001951 0.001345
O2                 0.000000 0.000872 0.000486 0.000192
 0.002159 0.001519 0.002141 0.001815 0.001793 0.001358
C1                 0.000000 0.000840 0.000658 0.000207
 0.001763 0.001640 0.002361 0.001855 0.001558 0.001750
C2                 0.000000 0.002136 0.001201 0.000339
 0.006861 0.003782 0.004512 0.004681 0.004829 0.003870
H1c2               0.000000-0.100000-0.100000-0.100000
 0.000000 0.000000 0.000000 0.000000 0.000000 0.000000
H2c2               0.000000-0.100000-0.100000-0.100000
 0.000000 0.000000 0.000000 0.000000 0.000000 0.000000
C3                 0.000000 0.002515 0.001465 0.000311
 0.008191 0.004891 0.003819 0.006029 0.004719 0.004170
C3d                0.000000 0.002515 0.001465 0.000311
 0.008191 0.004891 0.003819 0.006029 0.004719 0.004170
H1c3               0.000000-0.100000-0.100000-0.100000
 0.000000 0.000000 0.000000 0.000000 0.000000 0.000000
H2c3               0.000000-0.100000-0.100000-0.100000
 0.000000 0.000000 0.000000 0.000000 0.000000 0.000000
H3c3               0.000000-0.100000-0.100000-0.100000
 0.000000 0.000000 0.000000 0.000000 0.000000 0.000000
H1c3d              0.000000-0.100000-0.100000-0.100000
 0.000000 0.000000 0.000000 0.000000 0.000000 0.000000
H2c3d              0.000000-0.100000-0.100000-0.100000
 0.000000 0.000000 0.000000 0.000000 0.000000 0.000000
H3c3d              0.000000-0.100000-0.100000-0.100000
 0.000000 0.000000 0.000000 0.000000 0.000000 0.000000
--------------------------   Saved points   ----------------------------
    0
--------------------------   Fourier maxima   --------------------------
    1    1    1
max1      1  1     1.000000 0.241904 0.226593 0.264950      000  0  0  0
     0.50     0.33
max2      1  1     1.000000 0.214130 0.791366 0.893045      000  0  0  0
     0.42     0.29
max3      1  1     1.000000 0.217567 0.694503 0.615601      000  0  0  0
     0.38     0.29
max4      1  1     1.000000 0.257450 0.158172 0.349951      000  0  0  0
     0.61     0.24
max5      1  1     1.000000 0.228129 0.235815 0.808881      000  0  0  0
     0.64     0.24
max6      1  1     1.000000 0.257309 0.168045 0.105437      000  0  0  0
     0.41     0.24
max7      1  1     1.000000 0.250157 0.291142 0.370336      000  0  0  0
     0.37     0.21
max8      1  1     1.000000 0.241482 0.779938 0.176668      000  0  0  0
     0.41     0.21
max9      1  1     1.000000 0.145325 0.182989 0.388335      000  0  0  0
     0.34     0.21
max10     1  1     1.000000 0.246347 0.385102 0.124431      000  0  0  0
     0.40     0.20
max11     1  1     1.000000 0.241949 0.395676 0.258114      000  0  0  0
     0.41     0.19
max12     1  1     1.000000 0.159601 0.117106 0.277066      000  0  0  0
     0.37     0.19
max13     1  1     1.000000 0.090192 0.791909 0.765071      000  0  0  0
     0.37     0.19
max14     1  1     1.000000 0.224449 0.053086 0.381884      000  0  0  0
     0.35     0.19
max15     1  1     1.000000 0.238334 0.177378 0.967737      000  0  0  0
     0.27     0.18
max16     1  1     1.000000 0.219134 0.729723 0.739424      000  0  0  0
     0.30     0.18
max17     1  1     1.000000 0.197821 0.624359 0.299863      000  0  0  0
     0.40     0.18
max18     1  1     1.000000 0.185418 0.116352 0.698216      000  0  0  0
     0.30     0.17
max19     1  1     1.000000 0.238928 0.742655 0.462484      000  0  0  0
     0.26     0.17
max20     1  1     1.000000 0.211386 0.363140 0.828466      000  0  0  0
     0.34     0.17
max21     1  1     1.000000 0.225704 0.263332 0.517548      000  0  0  0
     0.37     0.17
max22     1  1     1.000000 0.099331 0.711728 0.316395      000  0  0  0
     0.40     0.17
max23     1  1     1.000000 0.221617 0.840909 0.040712      000  0  0  0
     0.40     0.16
max24     1  1     1.000000 0.210429 0.347725 0.403013      000  0  0  0
     0.33     0.16
max25     1  1     1.000000 0.103676 0.279210 0.114372      000  0  0  0
     0.32     0.16
max26     1  1     1.000000 0.140134 0.713897 0.065370      000  0  0  0
     0.29     0.15
max27     1  1     1.000000 0.081467 0.207119 0.255037      000  0  0  0
     0.31     0.15
max28     1  1     1.000000 0.077282 0.327118 0.954878      000  0  0  0
     0.30     0.15
max29     1  1     1.000000 0.194382 0.661086 0.037263      000  0  0  0
     0.24     0.15
max30     1  1     1.000000 0.208801 0.619960 0.458828      000  0  0  0
     0.28     0.14
max31     1  1     1.000000 0.252542 0.601178 0.039966      000  0  0  0
     0.26     0.14
max32     1  1     1.000000 0.107805 0.271526 0.556432      000  0  0  0
     0.29     0.14
max33     1  1     1.000000 0.147533 0.886167 0.195096      000  0  0  0
     0.32     0.13
max34     1  1     1.000000 0.184715 0.639588 0.164988      000  0  0  0
     0.31     0.13
max35     1  1     1.000000 0.107153 0.431987 0.803541      000  0  0  0
     0.38     0.13
max36     1  1     1.000000 0.083525 0.078807 0.252881      000  0  0  0
     0.30     0.13
max37     1  1     1.000000 0.084869 0.157397 0.686581      000  0  0  0
     0.26     0.13
max38     1  1     1.000000 0.061057 0.852066 0.792682      000  0  0  0
     0.39     0.13
max39     1  1     1.000000 0.073749 0.149910 0.562531      000  0  0  0
     0.29     0.12
max40     1  1     1.000000 0.217755 0.983234 0.628748      000  0  0  0
     0.32     0.12
max41     1  1     1.000000 0.070517 0.814085 0.467229      000  0  0  0
     0.21     0.12
max42     1  1     1.000000 0.111475 0.304332 0.662315      000  0  0  0
     0.31     0.12
max43     1  1     1.000000 0.178677 0.399033 0.962743      000  0  0  0
     0.26     0.12
max44     1  1     1.000000 0.144059 0.930745 0.602169      000  0  0  0
     0.25     0.12
max45     1  1     1.000000 0.039223 0.030723 0.695325      000  0  0  0
     0.26     0.11
max46     1  1     1.000000 0.135964 0.877963 0.158564      000  0  0  0
     0.26     0.11
max47     1  1     1.000000 0.204581-0.003826 0.758033      000  0  0  0
     0.28     0.11
max48     1  1     1.000000 0.098385 0.705595 0.910407      000  0  0  0
     0.27     0.11
max49     1  1     1.000000 0.214459 0.380455 0.216139      000  0  0  0
     0.29     0.11
max50     1  1     1.000000 0.110567 0.668486 0.033744      000  0  0  0
     0.23     0.11
--------------------------   Fourier minima   --------------------------
    1    1    1
min1      1  1     1.000000 0.245729 0.287920 0.304879      000  0  0  0
     0.53     0.32
min2      1  1     1.000000 0.188938 0.300535 0.305962      000  0  0  0
     0.53     0.31
min3      1  1     1.000000 0.153222 0.254785 0.463077      000  0  0  0
     0.41     0.29
min4      1  1     1.000000 0.194331 0.639384 0.108447      000  0  0  0
     0.42     0.27
min5      1  1     1.000000 0.220532 0.691623 0.958082      000  0  0  0
     0.36     0.27
------------------------------------------------------------------------
#m50
Version Jana2006
title
cell 4.4242 6.2866 21.4422 90 90 90
esdcell 0.0001 0.0002 0.0008 0 0 0
spgroup P212121 19 3
lattice P
symmetry x y z
symmetry -x+1/2 -y z+1/2
symmetry -x y+1/2 -z+1/2
symmetry x+1/2 -y+1/2 -z
unitsnumb 4
chemform Cs C3 O2 H5
formtab -62
atom Cs atradius 2.72 color 14254185
atom C atradius 0.77 color 128073041
atom O atradius 0.74 color 254003000
atom H atradius 0.46 color 255204204
twin 2
    -1.0000     0.0000     0.0000
     0.0000    -1.0000     0.0000
     0.0000     0.0000    -1.0000
roundmethod 1
end
*******************************************************************************
contour
end contour
dist
  angles 1 lsttype 1 dmax 1.7 hamax 3.5
  selfirst O1 O2 C1 C2 H1c2 H2c2 C3 C3d H1c3 H2c3 H3c3 H1c3d H2c3d H3c3d
  selsecnd O1 O2 C1 C2 H1c2 H2c2 C3 H1c3 H2c3 H3c3 H1c3d H2c3d H3c3d
  torsion O1 C1 C2 C3
  torsion O2 C1 C2 C3
  bondval Cs O 2.42 0.37
  bondval O Cs 2.42 0.37
end dist
fourier
  maptype 6 positive 50 negative 5
end fourier
refine
  cycles 1000 fsquare 1 skipbad 1 badref 15 damp 0.25
  restric C3 11 C3d
  equation : ai[H1c3d] = 1.0 - ai[H1c3]
  equation : ai[H2c3d] = 1.0 - ai[H2c3]
  equation : ai[H3c3d] = 1.0 - ai[H3c3]
  keep hydro tetrahed C2 2 2 C1 C3 0.97 H1c2 H2c2
  keep ADP riding C2 1.2 H1c2 H2c2
  keep hydro tetrahed C3 1 3 C2 0.96 H1c3 H2c3 H3c3
  keep ADP riding C3 1.5 H1c3 H2c3 H3c3
  keep hydro tetrahed C3d 1 3 C2 0.96 H1c3d H2c3d H3c3d
  keep ADP riding C3d 1.5 H1c3d H2c3d H3c3d
end refine
*******************************************************************************
;
loop_
_restr_angle_atom_site_label_1
_restr_angle_site_symmetry_1
_restr_angle_atom_site_label_2
_restr_angle_site_symmetry_2
_restr_angle_atom_site_label_3
_restr_angle_site_symmetry_3
_restr_angle_target
_restr_angle_target_weight_param
? ? ? ? ? ? ? ?
loop_
_restr_distance_atom_site_label_1
_restr_distance_site_symmetry_1
_restr_distance_atom_site_label_2
_restr_distance_site_symmetry_2
_restr_distance_target
_restr_distance_target_weight_param
? ? ? ? ? ?
loop_
_restr_equal_angle_atom_site_label_1
_restr_equal_angle_site_symmetry_1
_restr_equal_angle_atom_site_label_2
_restr_equal_angle_site_symmetry_2
_restr_equal_angle_atom_site_label_3
_restr_equal_angle_site_symmetry_3
_restr_equal_angle_class_class_id
_restr_equal_angle_class_target_weight_param
? ? ? ? ? ? ? ?
loop_
_restr_equal_distance_atom_site_label_1
_restr_equal_distance_site_symmetry_1
_restr_equal_distance_atom_site_label_2
_restr_equal_distance_site_symmetry_2
_restr_equal_distance_class_class_id
_restr_equal_distance_class_target_weight_param
? ? ? ? ? ?
loop_
_restr_equal_torsion_atom_site_label_1
_restr_equal_torsion_site_symmetry_1
_restr_equal_torsion_atom_site_label_2
_restr_equal_torsion_site_symmetry_2
_restr_equal_torsion_atom_site_label_3
_restr_equal_torsion_site_symmetry_3
_restr_equal_torsion_atom_site_label_4
_restr_equal_torsion_site_symmetry_4
_restr_equal_torsion_class_class_id
_restr_equal_torsion_class_target_weight_param
? ? ? ? ? ? ? ? ? ?
loop_
_restr_torsion_atom_site_label_1
_restr_torsion_site_symmetry_1
_restr_torsion_atom_site_label_2
_restr_torsion_site_symmetry_2
_restr_torsion_atom_site_label_3
_restr_torsion_site_symmetry_3
_restr_torsion_atom_site_label_4
_restr_torsion_site_symmetry_4
_restr_torsion_angle_target
_restr_torsion_weight_param
? ? ? ? ? ? ? ? ? ?
loop_
_twin_individual_id
_twin_individual_mass_fraction_refined
_twin_individual_twin_matrix_11
_twin_individual_twin_matrix_12
_twin_individual_twin_matrix_13
_twin_individual_twin_matrix_21
_twin_individual_twin_matrix_22
_twin_individual_twin_matrix_23
_twin_individual_twin_matrix_31
_twin_individual_twin_matrix_32
_twin_individual_twin_matrix_33
1 0.10(10) 1 0 0 0 1 0 0 0 1
2 0.90(10) -1 0 0 0 -1 0 0 0 -1
loop_
_twin_refln_datum_id
_twin_refln_individual_id
_twin_refln_index_h
_twin_refln_index_k
_twin_refln_index_l
_twin_refln_F_squared_calc
_twin_refln_F_squared_meas
_twin_refln_F_squared_sigma
_twin_refln_include_status
? ? ? ? ? ? ? ? ?

_cod_database_fobs_code 2243560
