#------------------------------------------------------------------------------
#$Date: 2019-04-02 05:42:27 +0300 (Tue, 02 Apr 2019) $
#$Revision: 214447 $
#$URL: file:///home/coder/svn-repositories/cod/cif/2/30/06/2300648.cif $
#------------------------------------------------------------------------------
#
# This file is available in the Crystallography Open Database (COD),
# http://www.crystallography.net/. The original data for this entry
# were provided by IUCr Journals, http://journals.iucr.org/.
#
# The file may be used within the scientific community so long as
# proper attribution is given to the journal article from which the
# data were obtained.
#
data_2300648
loop_
_publ_author_name
'McMonagle, Charles James'
'Probert, Michael Richard'
_publ_section_title
;
 Reducing the background of ultra-low-temperature X-ray diffraction data
 through new methods and advanced materials
;
_journal_issue                   2
_journal_name_full               'Journal of Applied Crystallography'
_journal_page_first              445
_journal_page_last               450
_journal_paper_doi               10.1107/S1600576719003078
_journal_volume                  52
_journal_year                    2019
_chemical_absolute_configuration rm
_chemical_formula_moiety         'C6 H8 O6'
_chemical_formula_sum            'C6 H8 O6'
_chemical_formula_weight         176.12
_space_group_crystal_system      monoclinic
_space_group_IT_number           4
_space_group_name_Hall           'P 2yb'
_space_group_name_H-M_alt        'P 1 21 1'
_symmetry_space_group_name_Hall  'P 2yb'
_symmetry_space_group_name_H-M   'P 1 21 1'
_atom_sites_solution_hydrogens   geom
_atom_sites_solution_primary     dual
_audit_creation_date             2019-01-17
_audit_creation_method
;
Olex2 1.2
(compiled 2018.05.29 svn.r3508 for OlexSys, GUI svn.r5506)
;
_cell_angle_alpha                90
_cell_angle_beta                 99.368(15)
_cell_angle_gamma                90
_cell_formula_units_Z            4
_cell_length_a                   6.4259(12)
_cell_length_b                   6.3637(12)
_cell_length_c                   17.168(4)
_cell_measurement_reflns_used    611
_cell_measurement_temperature    292(2)
_cell_measurement_theta_max      15.810
_cell_measurement_theta_min      2.405
_cell_volume                     692.7(2)
_computing_cell_refinement       'SAINT V8.38A (?, 2016)'
_computing_data_reduction        'SAINT V8.38A (?, 2016)'
_computing_molecular_graphics    'Olex2 (Dolomanov et al., 2009)'
_computing_publication_material  'Olex2 (Dolomanov et al., 2009)'
_computing_structure_refinement  'ShelXL (Sheldrick, 2015)'
_computing_structure_solution    'ShelXT (Sheldrick, 2015)'
_diffrn_ambient_temperature      292.36
_diffrn_detector                 'CCD area detector'
_diffrn_detector_type            'Bruker APEXII area detector'
_diffrn_measured_fraction_theta_full 0.971
_diffrn_measured_fraction_theta_max 0.973
_diffrn_measurement_device       'XIPHOS four-circle diffractometer'
_diffrn_measurement_device_type  'Bruker APEX-II CCD'
_diffrn_measurement_method       '\f scans'
_diffrn_radiation_collimation    focused
_diffrn_radiation_monochromator  'multilayer optics'
_diffrn_radiation_probe          x-ray
_diffrn_radiation_type           MoK\a
_diffrn_radiation_wavelength     0.71073
_diffrn_reflns_av_R_equivalents  0.0788
_diffrn_reflns_av_unetI/netI     0.0737
_diffrn_reflns_Laue_measured_fraction_full 0.971
_diffrn_reflns_Laue_measured_fraction_max 0.973
_diffrn_reflns_limit_h_max       4
_diffrn_reflns_limit_h_min       -4
_diffrn_reflns_limit_k_max       4
_diffrn_reflns_limit_k_min       -4
_diffrn_reflns_limit_l_max       13
_diffrn_reflns_limit_l_min       -13
_diffrn_reflns_number            2026
_diffrn_reflns_point_group_measured_fraction_full 0.969
_diffrn_reflns_point_group_measured_fraction_max 0.972
_diffrn_reflns_theta_full        15.886
_diffrn_reflns_theta_max         15.886
_diffrn_reflns_theta_min         1.202
_diffrn_source                   'rotating anode'
_diffrn_source_target            Mo
_diffrn_source_type              'Bruker TXS with Helios Optics'
_diffrn_standards_number         0
_exptl_absorpt_coefficient_mu    0.155
_exptl_absorpt_correction_T_max  0.7440
_exptl_absorpt_correction_T_min  0.6093
_exptl_absorpt_correction_type   multi-scan
_exptl_absorpt_process_details
'SADABS-2016/2 (Bruker,2016/2) was used for absorption correction.'
_exptl_crystal_colour            'clear colourless'
_exptl_crystal_colour_lustre     clear
_exptl_crystal_colour_primary    colourless
_exptl_crystal_density_diffrn    1.689
_exptl_crystal_description       block
_exptl_crystal_F_000             368
_exptl_crystal_preparation       'As supplied'
_exptl_crystal_size_max          0.035
_exptl_crystal_size_mid          0.035
_exptl_crystal_size_min          0.01
_refine_diff_density_max         0.223
_refine_diff_density_min         -0.221
_refine_diff_density_rms         0.065
_refine_ls_abs_structure_details
;
 Flack x determined using 140 quotients [(I+)-(I-)]/[(I+)+(I-)]
 (Parsons, Flack and Wagner, Acta Cryst. B69 (2013) 249-259).
;
_refine_ls_abs_structure_Flack   3.4(10)
_refine_ls_extinction_method     none
_refine_ls_goodness_of_fit_ref   1.031
_refine_ls_hydrogen_treatment    constr
_refine_ls_matrix_type           full
_refine_ls_number_parameters     105
_refine_ls_number_reflns         627
_refine_ls_number_restraints     1
_refine_ls_restrained_S_all      1.030
_refine_ls_R_factor_all          0.0953
_refine_ls_R_factor_gt           0.0623
_refine_ls_shift/su_max          0.000
_refine_ls_shift/su_mean         0.000
_refine_ls_structure_factor_coef Fsqd
_refine_ls_weighting_details
'w=1/[\s^2^(Fo^2^)+(0.0937P)^2^+1.2526P] where P=(Fo^2^+2Fc^2^)/3'
_refine_ls_weighting_scheme      calc
_refine_ls_wR_factor_gt          0.1491
_refine_ls_wR_factor_ref         0.1692
_reflns_Friedel_coverage         0.732
_reflns_Friedel_fraction_full    0.967
_reflns_Friedel_fraction_max     0.971
_reflns_number_gt                444
_reflns_number_total             627
_reflns_threshold_expression     'I > 2\s(I)'
_cod_data_source_file            kc5091sup1.cif
_cod_data_source_block           Collection_3_vitamin_C
_cod_database_code               2300648
_shelx_shelxl_version_number     2018/3
_shelx_space_group_comment
;
The symmetry employed for this shelxl refinement is uniquely defined
by the following loop, which should always be used as a source of
symmetry information in preference to the above space-group names.
They are only intended as comments.
;
_olex2_refinement_description
;
1. Fixed Uiso
 At 1.2 times of:
  All C(H) groups, All C(H,H) groups
 At 1.5 times of:
  All O(H) groups
2.a Ternary CH refined with riding coordinates:
 C2(H2A), C3(H3A), C8(H8A), C9(H9A)
2.b Secondary CH2 refined with riding coordinates:
 C1(H1A,H1B), C7(H7A,H7B)
2.c Idealised tetrahedral OH refined as rotating group:
 O1(H1), O2(H2), O3(H3), O4(H4), O7(H7), O8(H8), O9(H9), O10(H10)
;
_shelx_res_file
;
TITL CMM180068_BeBe_0m in P2(1)
    cmm180068_bebe_0m.res
    created by SHELXL-2018/3 at 19:48:40 on 17-Jan-2019
CELL 0.71073 6.4259 6.3637 17.1683 90 99.3678 90
ZERR 4 0.0012 0.0012 0.0039 0 0.0145 0
LATT -1
SYMM -X,0.5+Y,-Z
SFAC C H O
UNIT 24 32 24

L.S. 20
PLAN  50
TEMP 19.21
BOND $H
list 4
fmap 2 53
acta
OMIT 2 -4 -6
OMIT -1 1 5
OMIT 1 1 4
OMIT 1 1 4
OMIT -1 -1 -4
OMIT -1 -1 -4
OMIT 1 0 5
OMIT 1 -1 -5
OMIT -1 -1 5
OMIT 1 -1 4
OMIT 0 -2 -7
REM <olex2.extras>
REM <HklSrc "%.\\CMM180068_BeBe_0m.hkl">
REM </olex2.extras>

WGHT    0.093700    1.252600
FVAR       0.19455
O1    3    0.912314    0.297171    0.816500    11.00000    0.02704
AFIX 147
H1    2    0.898837    0.304626    0.863101    11.00000   -1.50000
AFIX   0
O2    3    0.847417    0.695082    0.668408    11.00000    0.03371
AFIX 147
H2    2    0.720860    0.690886    0.650977    11.00000   -1.50000
AFIX   0
O3    3    1.200407    0.349681    0.589391    11.00000    0.03263
AFIX 147
H3    2    1.253314    0.320119    0.550430    11.00000   -1.50000
AFIX   0
O4    3    0.881985    0.356424    0.430026    11.00000    0.02508
AFIX 147
H4    2    0.869152    0.242648    0.407330    11.00000   -1.50000
AFIX   0
O5    3    0.464681    0.343347    0.486799    11.00000    0.01994
O6    3    0.657401    0.330661    0.607523    11.00000    0.03522
C1    1    0.820549    0.474784    0.776039    11.00000    0.00769
AFIX  23
H1A   2    0.850966    0.599022    0.808638    11.00000   -1.20000
H1B   2    0.668698    0.457722    0.764066    11.00000   -1.20000
AFIX   0
C2    1    0.913799    0.500322    0.697644    11.00000    0.01531
AFIX  13
H2A   2    1.067014    0.510843    0.713433    11.00000   -1.20000
AFIX   0
C3    1    0.877794    0.321338    0.643803    11.00000    0.00814
AFIX  13
H3A   2    0.909164    0.188748    0.672336    11.00000   -1.20000
AFIX   0
C4    1    0.977086    0.326620    0.571149    11.00000    0.01990
C5    1    0.842409    0.332616    0.506132    11.00000    0.01250
C6    1    0.641827    0.328343    0.528391    11.00000    0.01982
O7    3    1.442769    0.801758    0.683658    11.00000    0.03686
AFIX 147
H7    2    1.403779    0.707947    0.710690    11.00000   -1.50000
AFIX   0
O8    3    1.331982    1.199096    0.828263    11.00000    0.02335
AFIX 147
H8    2    1.336002    1.288762    0.794238    11.00000   -1.50000
AFIX   0
O9    3    1.061563    0.819223    0.907070    11.00000    0.02750
AFIX 147
H9    2    1.008958    0.909598    0.931823    11.00000   -1.50000
AFIX   0
O10   3    1.360909    0.851293    1.064582    11.00000    0.02669
AFIX 147
H10   2    1.463058    0.897184    1.094656    11.00000   -1.50000
AFIX   0
O11   3    1.789885    0.852966    1.012485    11.00000    0.01974
O12   3    1.599444    0.832208    0.888879    11.00000    0.02574
C7    1    1.472294    0.982432    0.726930    11.00000    0.02730
AFIX  23
H7A   2    1.447577    1.102542    0.691857    11.00000   -1.20000
H7B   2    1.617172    0.988879    0.753754    11.00000   -1.20000
AFIX   0
C8    1    1.313225    0.994102    0.792124    11.00000    0.03381
AFIX  13
H8A   2    1.167591    0.970918    0.766165    11.00000   -1.20000
AFIX   0
C9    1    1.380198    0.817289    0.854387    11.00000    0.01750
AFIX  13
H9A   2    1.351272    0.679044    0.829855    11.00000   -1.20000
AFIX   0
C10   1    1.274847    0.836210    0.922237    11.00000    0.02171
C11   1    1.411475    0.832710    0.988643    11.00000    0.02135
C12   1    1.618071    0.848178    0.969758    11.00000    0.01021
HKLF 4




REM  CMM180068_BeBe_0m in P2(1)
REM wR2 = 0.1692, GooF = S = 1.031, Restrained GooF = 1.030 for all data
REM R1 = 0.0623 for 444 Fo > 4sig(Fo) and 0.0953 for all 627 data
REM 105 parameters refined using 1 restraints

END

WGHT      0.0890      0.7722

REM Highest difference peak  0.223,  deepest hole -0.221,  1-sigma level  0.065
Q1    1   1.0675  0.8807  0.7885  11.00000  0.05    0.22
Q2    1   1.8250  0.9713  1.0160  11.00000  0.05    0.22
Q3    1   0.9454  0.4865  0.3951  11.00000  0.05    0.21
Q4    1   1.3304  0.4990  0.6788  11.00000  0.05    0.21
Q5    1   1.7974  0.7171  1.0037  11.00000  0.05    0.21
Q6    1   1.0593  0.9672  0.9031  11.00000  0.05    0.20
Q7    1   0.4755  0.2165  0.4829  11.00000  0.05    0.20
Q8    1   0.4692  0.4753  0.4747  11.00000  0.05    0.20
Q9    1   1.5455  0.9150  0.6217  11.00000  0.05    0.19
Q10   1   1.2093  0.6021  1.0549  11.00000  0.05    0.19
Q11   1   0.8409  0.6140  0.7867  11.00000  0.05    0.19
Q12   1   1.6832  1.1018  0.7177  11.00000  0.05    0.18
Q13   1   1.0921  0.1000  0.6642  11.00000  0.05    0.18
Q14   1   1.0249  0.6733  0.8991  11.00000  0.05    0.18
Q15   1   1.5997  0.9746  0.8628  11.00000  0.05    0.17
Q16   1   0.6357  0.1777  0.5999  11.00000  0.05    0.17
Q17   1   1.2726  0.5318  0.8961  11.00000  0.05    0.17
Q18   1   1.0213  0.4266  0.8396  11.00000  0.05    0.17
Q19   1   0.6966  0.5428  0.7261  11.00000  0.05    0.16
Q20   1   0.9349  0.1216  0.7452  11.00000  0.05    0.16
Q21   1   1.2912  0.9955  1.0542  11.00000  0.05    0.15
Q22   1   1.2453  1.3392  0.7242  11.00000  0.05    0.15
Q23   1   1.5056  1.3874  0.7993  11.00000  0.05    0.15
Q24   1   0.8548  0.1460  0.7251  11.00000  0.05    0.14
Q25   1   0.9008  0.1227  0.8132  11.00000  0.05    0.14
Q26   1   1.4173  1.1413  0.7043  11.00000  0.05    0.14
Q27   1   1.5653  0.6565  0.7753  11.00000  0.05    0.13
Q28   1   1.0897  0.2130  0.5614  11.00000  0.05    0.13
Q29   1   1.6250  1.0695  0.7652  11.00000  0.05    0.13
Q30   1   1.0345  0.4715  0.5532  11.00000  0.05    0.13
Q31   1   1.0926  0.6263  0.8221  11.00000  0.05    0.13
Q32   1   0.6652  0.4843  0.6018  11.00000  0.05    0.13
Q33   1   0.7739  0.5674  0.5135  11.00000  0.05    0.13
Q34   1   1.3923  0.3138  0.5442  11.00000  0.05    0.12
Q35   1   0.7170  0.5044  0.6181  11.00000  0.05    0.12
Q36   1   1.2148  1.2497  0.8979  11.00000  0.05    0.12
Q37   1   1.1381  0.2406  0.5726  11.00000  0.05    0.12
Q38   1   1.1756  1.2514  0.8832  11.00000  0.05    0.12
Q39   1   0.8806  0.3445  0.9379  11.00000  0.05    0.12
Q40   1   0.9321  0.1530  0.6214  11.00000  0.05    0.12
Q41   1   1.3011  0.9816  0.9753  11.00000  0.05    0.12
Q42   1   1.1222  0.2755  0.8617  11.00000  0.05    0.11
Q43   1   1.3949  0.6033  0.8062  11.00000  0.05    0.11
Q44   1   1.5144  0.6994  0.6361  11.00000  0.05    0.11
Q45   1   1.1113  0.3919  0.4812  11.00000  0.05    0.11
Q46   1   1.5430  0.7276  0.8946  11.00000  0.05    0.10
Q47   1   0.7700  0.5300  0.6384  11.00000  0.05    0.10
Q48   1   1.1592  1.1423  0.8369  11.00000  0.05    0.10
Q49   1   1.2480  0.5233  0.7527  11.00000  0.05    0.10
Q50   1   0.7847  0.1655  0.5152  11.00000  0.05    0.09
;
_shelx_res_checksum              30715
_shelx_hkl_file
;
   1   0   0   14.48    0.58
  -1   0   0   14.51    0.63
  -1   0   0   14.27    0.72
   1   0   0   13.64    0.68
   2   0   0    1.41    0.60
  -2   0   0    0.40    0.75
   2   0   0    0.19    0.66
  -3   0   0   -1.44    1.17
  -3   0   0    0.03    1.28
   3   0   0   -0.59    1.33
   3   0   0    2.75    0.96
  -4   0   0   62.41    3.76
   4   0   0   63.48    3.86
  -4   0   0   65.29    3.55
   4   0   0   60.88    2.90
   0  -1   0   -0.10    0.27
   0  -1   0    0.04    0.15
   0   1   0   -0.09    0.24
   0   1   0   -0.10    0.19
   1  -1   0  114.54    3.28
   1  -1   0  117.16    3.53
  -1   1   0  121.60    3.57
  -1   1   0  113.70    3.35
  -2  -1   0    9.09    1.27
   2   1   0    7.95    0.66
   3  -1   0   90.27    4.07
  -3  -1   0   85.68    3.03
  -3  -1   0   87.68    2.94
   3  -1   0   87.24    3.41
   3   1   0   84.29    3.02
  -3   1   0   86.74    4.25
   3   1   0   88.83    2.61
  -3   1   0   86.65    3.77
   4  -1   0   36.14    5.00
   4  -1   0   39.87    2.80
  -4  -1   0   35.33    2.62
  -4  -1   0   41.80    2.75
  -4   1   0   47.42    4.12
  -4   1   0   40.07    3.41
   4   1   0   40.68    2.07
   4   1   0   33.03    2.58
   0  -2   0  962.94   25.16
   0  -2   0 1000.00   25.70
   0   2   0  971.02   24.80
   0   2   0  953.88   24.37
  -1  -2   0   13.14    0.87
  -1  -2   0   16.00    1.47
   1   2   0   14.53    1.09
   1   2   0   15.17    1.58
  -1   2   0   11.36    1.86
   2  -2   0    3.86    1.53
   2  -2   0    3.62    1.17
  -2   2   0    4.55    2.06
  -2   2   0    5.43    1.53
   3  -2   0    0.91    1.22
   3  -2   0    1.22    1.81
  -3   2   0    1.27    2.11
  -3   2   0    0.47    1.55
   4  -2   0   25.87    2.75
  -4   2   0   16.29    3.12
  -4   2   0   27.26    3.58
   0  -3   0   -0.47    1.15
   0  -3   0   -1.48    0.92
   0   3   0   -2.05    1.24
   0   3   0    1.87    1.19
  -1  -3   0   22.29    2.06
  -1  -3   0   21.43    1.33
   1  -3   0   20.51    2.32
   1  -3   0   20.36    2.78
  -1   3   0   21.67    2.92
   1   3   0   22.97    1.67
   1   3   0   18.17    1.73
  -1   3   0   22.51    2.56
   2  -3   0    0.94    1.89
   2  -3   0    0.69    1.46
  -2   3   0    0.60    1.72
  -2   3   0   -0.22    2.07
   3  -3   0   27.69    3.27
   3  -3   0   22.67    3.26
  -3   3   0   23.58    3.27
  -3   3   0   21.79    2.88
   0  -4   0  129.16    5.44
   0  -4   0  142.07    4.51
   0   4   0  130.52    5.06
   0   4   0  135.09    5.41
   1  -4   0    0.82    2.65
   1  -4   0    1.60    1.37
  -1  -4   0    3.57    1.53
   1   4   0    2.14    1.26
   1   4   0    3.45    1.58
  -1   4   0    4.26    1.97
  -1   4   0    4.18    2.44
   2  -4   0    3.03    3.17
   2  -4   0    6.68    1.80
  -2   4   0    6.07    2.35
  -2   4   0    1.04    2.82
   4   0  -1   -0.46    0.99
  -4   0   1    0.78    1.63
  -4   0   1    0.92    1.77
   4   0  -1   -0.88    1.78
   3   0  -1   96.62    3.67
  -3   0   1   98.14    3.93
   3   0  -1   95.21    3.17
  -3   0   1  101.11    3.51
   2   0  -1   22.85    1.50
   2   0  -1   21.29    1.19
  -2   0   1   22.34    1.62
  -2   0   1   23.03    1.54
  -1   0   1   25.38    0.89
   1   0  -1   24.88    0.83
   1   0  -1   23.26    0.95
  -1   0   1   24.46    0.97
   0   0  -1    0.01    0.03
   0   0   1    0.02    0.04
   0   0  -1    0.01    0.04
   0   0   1   -0.03    0.04
   0   0   1    0.01    0.03
   1   0   1   39.19    1.31
  -1   0  -1   41.52    1.47
  -1   0  -1   41.63    1.43
   1   0   1   43.66    1.43
   2   0   1   99.48    3.41
  -2   0  -1   95.49    3.12
   2   0   1   94.01    2.94
  -2   0  -1   96.46    3.40
  -3   0  -1   19.76    2.22
   3   0   1   18.98    1.71
  -3   0  -1   16.05    2.36
   3   0   1   17.67    2.53
  -4   0  -1   -1.04    1.72
  -4   0  -1   -0.02    1.50
   4   0   1   -0.14    1.12
   4   0   1   -0.14    1.76
  -4  -1   1    1.79    1.36
   4  -1  -1    1.02    1.26
  -4  -1   1    4.47    1.43
   4   1  -1    2.45    0.96
  -4   1   1    2.50    2.76
  -4   1   1    3.76    1.84
   4   1  -1    1.24    1.38
  -3  -1   1   10.25    1.10
  -3  -1   1    8.66    1.49
   3  -1  -1   10.92    2.04
   3  -1  -1    9.98    1.44
   3   1  -1   11.00    1.10
  -3   1   1    8.61    2.07
  -3   1   1    9.30    1.76
   3   1  -1   10.03    1.69
  -2  -1   1   14.00    0.92
   2   1  -1   13.04    0.79
  -1  -1   1  111.82    2.88
  -1  -1   1  116.23    2.87
   1  -1  -1  119.32    3.52
   1  -1  -1  114.81    3.20
  -1  -1   1  113.83    2.86
   1   1  -1  116.52    2.87
   1   1  -1  116.41    2.96
   1   1  -1  115.76    2.92
  -1   1   1  113.65    3.30
  -1   1   1  113.76    3.54
   0  -1   1    0.03    0.31
   0  -1   1    0.17    0.21
   0  -1  -1    0.21    0.19
   0   1  -1   -0.06    0.25
   0   1  -1    0.35    0.33
   0   1   1    0.17    0.20
   0   1   1    0.28    0.27
   1  -1   1   41.45    1.61
  -1  -1  -1   42.40    1.41
  -1  -1  -1   41.67    1.21
   1  -1   1   42.54    1.94
  -1   1  -1   41.48    1.87
  -1   1  -1   42.84    1.73
   1   1   1   40.95    1.23
   1   1   1   41.10    1.20
  -2  -1  -1   31.41    1.68
   2  -1   1   31.42    2.54
  -2   1  -1   27.17    2.72
   2   1   1   34.62    1.35
   2   1   1   30.71    1.53
   3  -1   1   12.33    2.11
   3  -1   1   10.24    2.28
  -3  -1  -1   12.02    1.37
   3   1   1   11.73    1.19
   3   1   1   11.28    1.58
  -3   1  -1    9.76    2.14
  -4  -1  -1    0.14    1.28
  -4  -1  -1    0.69    1.57
   4  -1   1    0.60    1.52
   4  -1   1    0.22    2.00
   4   1   1    0.05    1.25
   4   1   1   -1.51    0.89
  -4   1  -1    0.19    2.16
   4  -2  -1    2.31    1.38
  -4   2   1   -1.45    2.37
  -4   2   1    2.96    2.20
   3  -2  -1   32.77    3.32
   3  -2  -1   29.37    2.40
  -3   2   1   27.48    3.46
  -3   2   1   28.24    2.92
   2  -2  -1   26.04    3.45
   2  -2  -1   21.12    1.90
  -2   2   1   21.41    2.14
  -2   2   1   17.99    2.46
   0  -2  -1   -0.51    0.77
   0  -2   1    1.49    0.59
   0  -2  -1   -0.39    0.60
   0  -2   1    0.02    0.88
   0   2   1    0.20    0.80
   0   2  -1   -0.13    0.93
   0   2  -1   -0.10    0.59
   0   2   1    0.01    0.56
   1  -2   1   11.84    1.99
  -1  -2  -1    6.81    0.84
  -1   2  -1    5.39    1.15
  -1   2  -1    8.04    1.49
   2  -2   1    8.49    1.81
   2  -2   1    4.51    1.25
  -2   2  -1    6.60    1.80
  -2   2  -1    8.64    1.82
   3  -2   1    7.29    2.21
   3  -2   1    6.46    1.62
  -3   2  -1    7.01    1.90
  -3   2  -1    5.96    2.51
   4  -2   1    4.33    1.93
   4  -2   1    5.49    2.44
  -4   2  -1    4.85    2.83
  -4   2  -1    3.52    2.51
   3  -3  -1    2.39    1.78
   3  -3  -1    1.76    1.83
  -3   3   1    1.36    2.52
  -3   3   1    1.51    2.01
   2  -3  -1    3.03    1.96
   2  -3  -1    3.56    1.31
  -2   3   1    1.15    2.04
  -2   3   1    4.84    1.78
  -1  -3   1   11.76    1.30
  -1  -3   1   10.62    1.66
   1  -3  -1   12.11    1.58
   1  -3  -1   13.27    2.22
   1   3  -1   15.99    1.60
  -1   3   1   11.39    1.77
   1   3  -1   12.52    1.66
  -1   3   1   13.82    2.27
   0  -3   1    0.12    1.45
   0  -3  -1   -0.19    0.92
   0  -3   1   -0.22    0.92
   0  -3  -1    0.03    1.42
   0   3  -1    2.27    1.41
   0   3   1   -1.10    1.20
   0   3  -1   -0.07    1.11
   0   3   1   -1.62    1.13
  -1  -3  -1    2.27    1.10
   1  -3   1    0.64    1.91
  -1  -3  -1    1.95    0.84
   1  -3   1    1.31    1.13
   1   3   1    1.82    0.85
  -1   3  -1    2.19    1.50
  -1   3  -1    2.03    1.89
  -2  -3  -1   12.11    0.98
   2  -3   1    8.29    2.55
  -2  -3  -1    8.55    1.28
   2  -3   1   10.54    1.73
  -2   3  -1    9.43    1.97
   2   3   1   14.24    1.26
  -2   3  -1    9.19    2.59
   3  -3   1    1.53    2.63
   3  -3   1    2.79    1.41
  -3   3  -1    4.12    1.80
  -3   3  -1    2.57    2.47
   2  -4  -1   17.74    2.57
   2  -4  -1   21.81    3.27
  -2   4   1   11.56    3.34
  -2   4   1   18.46    2.66
   1  -4  -1    2.53    1.35
   1  -4  -1    4.25    2.27
  -1  -4   1    0.84    1.16
  -1  -4   1    2.11    1.43
   1   4  -1    2.94    1.62
   1   4  -1    1.19    1.31
  -1   4   1    2.82    1.78
  -1   4   1    3.03    2.56
   0  -4  -1   -0.17    1.54
   0  -4   1    0.83    1.46
   0  -4   1   -0.17    1.73
   0  -4  -1   -1.79    1.23
   0   4   1    1.45    1.52
   0   4  -1   -2.91    1.48
   0   4   1   -1.10    1.92
   0   4  -1    0.60    1.78
   1  -4   1    3.25    1.45
   1  -4   1    8.28    2.34
  -1  -4  -1    2.62    1.31
  -1   4  -1    2.51    1.94
   1   4   1    1.51    1.20
  -1   4  -1   -0.78    2.33
   2  -4   1   12.47    2.14
   2  -4   1   12.90    3.25
  -2   4  -1   10.80    3.28
   4   0  -2   24.20    2.02
   4   0  -2   28.89    3.46
  -4   0   2   30.20    3.01
  -4   0   2   23.94    2.58
   3   0  -2    4.32    1.34
   3   0  -2    3.57    1.00
  -3   0   2    4.31    1.37
  -3   0   2    7.58    1.42
   2   0  -2    1.48    0.58
   2   0  -2    2.90    0.77
   1   0  -2   42.49    1.31
  -1   0   2   39.02    1.33
   1   0   2    2.85    0.46
  -1   0  -2    2.78    0.60
  -1   0  -2    3.06    0.63
   1   0   2    2.68    0.45
  -3   0  -2    0.93    1.28
   3   0   2    1.31    1.25
  -3   0  -2    4.56    1.98
   3   0   2    2.51    1.49
  -4   0  -2   34.77    3.77
  -4   0  -2   31.94    3.01
   4   0   2   29.72    2.38
   4  -1  -2   24.16    4.28
   4  -1  -2   14.56    2.01
  -4  -1   2   13.89    2.26
  -4   1   2   18.35    2.96
  -4   1   2    7.30    2.89
   4   1  -2   15.57    1.41
   4   1  -2   13.11    2.24
  -3  -1   2   26.80    1.80
   3  -1  -2   29.54    3.21
   3  -1  -2   32.02    2.10
   3   1  -2   28.13    1.96
   3   1  -2   28.65    1.66
  -3   1   2   25.45    3.16
  -3   1   2   26.37    2.75
   2  -1  -2   14.70    1.46
   2   1  -2   12.72    1.21
  -1  -1   2   17.79    0.83
  -1  -1   2   17.81    0.84
   1  -1  -2   16.49    1.37
   1  -1  -2   17.79    0.97
  -1   1   2   18.07    1.12
   1   1  -2   17.24    1.04
   1   1  -2   18.00    0.77
  -1   1   2   19.12    1.34
   0  -1   2   62.99    2.06
   0  -1   2   60.72    1.94
   0  -1  -2   62.21    1.84
   0   1  -2   62.95    2.03
   0   1  -2   62.59    2.05
   0   1   2   60.18    1.86
  -1  -1  -2   35.41    1.32
   1  -1   2   37.22    1.91
   1  -1   2   36.08    1.56
  -1  -1  -2   35.86    1.64
   1   1   2   34.32    1.48
  -1   1  -2   34.84    1.89
  -1   1  -2   36.02    1.83
   1   1   2   36.07    1.31
  -2  -1  -2   -0.65    0.91
   2  -1   2   -0.55    1.18
   2  -1   2    0.60    0.88
  -2  -1  -2   -0.99    0.83
  -2   1  -2    0.88    1.54
   2   1   2    1.08    0.51
   2   1   2    1.65    0.67
  -2   1  -2    1.07    1.19
  -3  -1  -2   19.63    2.16
  -3  -1  -2   15.14    2.22
   3  -1   2   16.76    2.62
   3  -1   2   15.12    2.48
  -3   1  -2   14.40    2.09
   3   1   2   17.47    1.89
   3   1   2   16.67    1.59
  -4  -1  -2   13.92    2.20
   4  -1   2   14.67    2.44
   4  -1   2   13.49    2.09
  -4   1  -2   14.29    2.67
  -4   1  -2   12.73    2.31
   4   1   2   15.61    1.75
   4   1   2   16.78    2.59
   4  -2  -2   16.45    2.35
   4  -2  -2   13.46    3.21
  -4   2   2   21.88    2.92
  -4   2   2   27.78    4.51
   3  -2  -2    1.24    1.11
   3  -2  -2    4.16    2.18
  -3   2   2    1.54    1.95
  -3   2   2    3.09    1.85
  -2  -2   2    1.24    0.36
   2  -2  -2    0.95    0.99
   2  -2  -2    0.88    1.51
  -2  -2   2    1.49    0.30
   2   2  -2    1.37    0.47
  -2   2   2   -2.16    1.90
  -2   2   2    2.14    1.24
   1  -2  -2   15.91    2.20
   1  -2  -2   12.11    1.82
   1   2  -2   11.19    1.36
  -1   2   2   12.25    1.52
  -1   2   2   15.60    1.82
   0  -2   2  324.31    8.73
   0  -2  -2  317.49    8.22
   0  -2  -2  327.71    8.71
   0  -2   2  308.09    8.34
   0   2   2  314.20    8.29
   0   2  -2  319.92    8.63
   0   2  -2  330.73    8.91
   1  -2   2   27.78    2.75
   1  -2   2   23.21    2.00
  -1  -2  -2   27.12    1.33
  -1   2  -2   28.27    2.40
  -1   2  -2   22.56    2.17
   1   2   2   25.72    1.23
   1   2   2   23.28    1.53
   2  -2   2   -1.99    1.62
  -2  -2  -2    1.04    1.02
  -2  -2  -2    0.27    0.56
   2  -2   2    4.17    1.41
   2   2   2    1.83    0.49
  -2   2  -2    3.30    2.33
  -2   2  -2    4.70    1.88
   3  -2   2    5.52    2.63
   3  -2   2    2.93    1.53
  -3  -2  -2    3.13    1.14
  -3   2  -2   -0.59    2.59
   3   2   2    0.90    0.76
  -3   2  -2    2.98    1.90
   4  -2   2    0.93    2.45
   4  -2   2    1.55    1.65
  -4   2  -2   -0.25    2.69
  -4   2  -2    3.21    2.27
   3  -3  -2    9.10    2.49
  -3   3   2    7.21    2.13
  -3   3   2    8.46    2.84
   2  -3  -2    2.34    2.23
  -2  -3   2    2.93    0.76
   2  -3  -2    2.24    1.15
  -2  -3   2    3.36    0.52
  -2   3   2    3.39    2.09
  -2   3   2    3.18    1.91
   2   3  -2    1.34    0.98
  -1  -3   2    2.55    0.78
   1  -3  -2    0.13    1.23
   1  -3  -2    2.27    1.85
  -1  -3   2    2.56    1.33
  -1   3   2    4.98    2.10
   1   3  -2   -0.18    1.70
   1   3  -2    2.92    1.47
  -1   3   2    2.36    1.48
   0  -3  -2   50.94    3.30
   0  -3   2   50.91    3.10
   0  -3  -2   54.06    2.28
   0  -3   2   52.59    2.38
   0   3  -2   52.41    3.81
   0   3   2   53.96    2.72
   0   3  -2   56.72    3.19
  -1  -3  -2    5.69    0.95
  -1   3  -2    1.49    1.95
   1   3   2    5.93    1.28
   2  -3   2   13.17    2.96
  -2  -3  -2    6.76    0.90
   2  -3   2    5.64    1.69
  -2  -3  -2    5.98    1.10
  -2   3  -2    5.95    1.92
   2   3   2    3.01    1.05
   2   3   2    3.78    0.98
  -2   3  -2    1.76    2.73
   3  -3   2    3.75    2.38
   3  -3   2    2.74    1.65
  -3   3  -2    1.81    2.43
  -3   3  -2    3.49    2.05
   2  -4  -2    8.55    3.01
   2  -4  -2    2.44    1.56
  -2   4   2    2.87    2.13
  -2   4   2   -4.28    2.92
   1  -4  -2    1.10    1.39
  -1  -4   2    0.56    1.29
   1  -4  -2    0.61    2.22
  -1  -4   2   -0.55    0.97
   1   4  -2    1.98    1.75
  -1   4   2    4.09    2.21
   1   4  -2   -0.21    1.66
  -1   4   2   -0.22    1.79
   0  -4  -2  124.48    4.31
   0  -4   2  128.06    4.32
   0  -4  -2  113.76    5.39
   0  -4   2  123.08    5.22
   0   4  -2  124.12    5.25
   0   4   2  124.69    4.78
   0   4   2  129.68    5.25
   0   4  -2  118.27    4.86
   1  -4   2    9.70    2.36
   1  -4   2    8.52    2.05
  -1  -4  -2    6.78    1.89
  -1   4  -2   10.28    2.49
   1   4   2   12.26    1.48
  -1   4  -2    9.21    2.50
   2  -4   2    3.30    2.66
   2  -4   2    1.83    1.92
  -2   4  -2    0.23    2.77
  -2   4  -2    5.46    2.42
  -4   0   3   -1.04    1.55
   4   0  -3   -0.12    1.67
   4   0  -3    0.14    1.23
   3   0  -3    0.88    0.99
  -3   0   3    1.26    1.03
   3   0  -3    0.37    1.33
  -2   0   3  257.92    6.98
   2   0  -3  266.56    6.90
  -1   0   3    0.98    0.71
  -1   0   3    0.25    0.37
   1   0  -3    0.03    0.33
   1   0  -3    0.39    0.64
   0   0  -3   -0.04    0.36
   0   0   3    0.16    0.50
   0   0  -3   -0.05    0.47
   0   0   3    0.15    0.31
  -1   0  -3    2.82    0.80
   1   0   3    2.87    0.69
   1   0   3    2.52    0.67
  -1   0  -3    2.34    0.70
   2   0   3  158.10    4.80
  -2   0  -3  145.31    4.98
   2   0   3  153.10    4.52
  -2   0  -3  160.99    5.06
  -3   0  -3   30.37    3.92
  -3   0  -3   41.19    3.73
   3   0   3   40.43    3.01
  -4   0  -3   -0.35    2.00
   4   0   3   -3.06    1.59
   4   0   3   -0.72    1.69
   4  -1  -3    4.95    1.41
   4  -1  -3    3.42    2.74
   4   1  -3    4.82    1.66
  -4   1   3    9.40    2.82
   4   1  -3    5.16    1.49
  -4   1   3    4.95    1.96
  -3  -1   3    3.92    0.86
  -3  -1   3    2.27    1.70
   3  -1  -3    4.91    1.32
   3  -1  -3    0.15    1.62
  -3   1   3    4.19    1.71
   3   1  -3    5.26    1.19
   3   1  -3    4.24    0.96
  -3   1   3    2.20    1.40
  -2  -1   3   31.14    2.30
   2  -1  -3   36.12    1.98
   2  -1  -3   32.40    2.31
  -2   1   3   40.19    2.36
  -1  -1   3    4.01    0.65
   1  -1  -3    3.95    0.63
  -1  -1   3    3.73    0.58
   1   1  -3    4.09    0.84
   1   1  -3    3.58    0.55
  -1   1   3    3.36    0.64
   0  -1  -3   -0.46    0.72
   0  -1  -3    0.56    0.46
   0  -1   3    0.69    0.56
   0  -1   3    0.49    0.53
   0   1   3    0.65    0.41
   0   1   3    0.57    0.50
   0   1  -3    0.24    0.56
   0   1  -3    0.33    0.55
  -1  -1  -3   60.14    2.22
   1  -1   3   61.83    2.49
   1  -1   3   70.59    2.88
  -1  -1  -3   60.65    2.79
  -1   1  -3   65.30    2.94
  -1   1  -3   64.91    2.96
   1   1   3   63.42    2.18
   1   1   3   70.21    2.62
   2  -1   3  121.86    4.50
   2  -1   3  118.02    4.09
  -2  -1  -3  119.19    4.09
  -2  -1  -3  116.95    3.80
   2   1   3  116.82    3.75
   2   1   3  120.07    3.57
  -2   1  -3  123.45    4.58
  -2   1  -3  119.94    4.81
  -3  -1  -3   19.10    2.50
   3  -1   3   16.60    2.27
   3  -1   3   15.73    2.00
  -3   1  -3   18.29    2.55
   3   1   3   21.78    2.41
  -3   1  -3   14.92    2.17
   3   1   3   16.15    1.84
   4  -1   3    0.58    1.56
  -4  -1  -3    0.33    1.69
  -4  -1  -3   -2.11    1.70
   4  -1   3    1.05    2.23
  -4   1  -3    0.86    2.02
   4   1   3    1.94    1.51
   4   1   3   -2.08    1.42
  -4   1  -3   -5.15    2.74
   4  -2  -3    0.31    1.47
   4  -2  -3    2.10    3.07
  -4   2   3   -1.98    2.76
  -4   2   3   -0.33    2.14
  -3  -2   3   24.00    1.28
   3  -2  -3   21.53    2.26
  -3  -2   3   25.41    1.58
   3  -2  -3   19.84    2.77
   3   2  -3   26.35    1.46
  -3   2   3   22.58    3.52
  -3   2   3   23.46    3.02
   3   2  -3   25.29    1.73
  -2  -2   3  140.13    3.83
   2  -2  -3  139.44    5.23
  -2  -2   3  145.41    3.98
   2  -2  -3  149.13    4.64
  -2   2   3  147.56    4.87
   2   2  -3  137.25    4.11
  -2   2   3  141.92    5.35
   2   2  -3  144.99    3.96
   1  -2  -3   12.54    1.66
  -1  -2   3   14.89    1.75
   1  -2  -3   11.57    1.47
   1   2  -3   13.11    1.59
   1   2  -3   12.42    1.39
  -1   2   3   12.85    1.78
   1  -2   3    3.87    1.42
   1  -2   3    2.88    1.05
  -1  -2  -3    5.11    0.90
   1   2   3    3.72    0.70
   1   2   3    4.65    1.11
  -1   2  -3    5.32    1.56
  -2  -2  -3   20.26    1.51
   2  -2   3   20.37    2.28
  -2  -2  -3   21.36    2.27
   2  -2   3   20.72    3.23
  -2   2  -3   16.66    2.45
   2   2   3   19.25    1.24
   2   2   3   20.19    1.38
  -3  -2  -3   10.04    1.61
  -3  -2  -3   11.29    1.40
   3  -2   3    6.31    1.74
   3  -2   3    5.52    2.10
   3   2   3    8.72    1.37
   3   2   3    8.77    1.42
  -3   2  -3    9.06    2.61
  -3   2  -3    9.60    2.25
   4  -2   3    3.96    2.65
   4  -2   3   -1.73    1.83
  -4   2  -3   -3.68    2.08
  -4   2  -3   -0.30    2.59
   3  -3  -3    0.09    1.43
   3  -3  -3   -0.67    2.41
  -3   3   3   -0.62    2.04
  -3   3   3    1.41    2.24
   2  -3  -3    5.01    1.43
   2  -3  -3    1.49    2.09
  -2  -3   3    5.39    1.06
  -2   3   3    3.34    1.57
  -2   3   3    5.02    2.44
   2   3  -3    3.62    1.23
  -1  -3   3    6.26    1.44
  -1  -3   3    8.64    1.38
   1  -3  -3   15.67    3.02
   1  -3  -3    7.25    1.36
  -1   3   3   12.62    1.91
   1   3  -3    7.71    1.62
  -1   3   3    2.06    2.54
   0  -3   3    0.11    1.22
   0  -3  -3   -0.59    1.38
   0  -3  -3    0.73    1.07
   0   3  -3   -0.06    1.39
   0   3   3   -0.74    1.20
   1  -3   3   -1.99    1.45
  -1  -3  -3    2.90    1.41
   1  -3   3    3.03    1.87
  -1  -3  -3    0.99    1.20
   1   3   3   -0.14    0.90
  -1   3  -3    4.43    2.33
   1   3   3   -0.40    1.11
   2  -3   3   29.99    3.07
  -2  -3  -3   23.73    1.84
   2  -3   3   24.42    3.89
  -2   3  -3   26.44    4.35
  -2   3  -3   30.22    3.71
   2   3   3   21.79    1.62
   2   3   3   24.23    2.24
   3  -3   3    3.25    2.56
   3  -3   3    1.38    1.89
  -3   3  -3    0.78    2.19
  -3   3  -3    0.57    3.22
   2  -4  -3   42.91    5.18
   2  -4  -3   31.51    3.06
  -2   4   3   29.27    4.14
  -2   4   3   34.39    4.45
   1  -4  -3    2.02    1.70
   1  -4  -3    3.02    2.12
  -1  -4   3    4.52    1.18
  -1  -4   3    0.01    1.82
  -1   4   3    2.89    2.43
  -1   4   3    5.41    2.23
   0  -4  -3    1.20    1.31
   0  -4   3    2.47    1.32
   0  -4  -3   -4.70    2.30
   0  -4   3   -3.56    2.05
   0   4  -3    1.33    1.77
   0   4  -3    5.79    2.73
   0   4   3   -0.62    1.53
  -1  -4  -3    5.01    1.91
   1  -4   3    2.65    1.53
  -1  -4  -3    6.33    1.45
   1  -4   3    4.61    2.14
  -1   4  -3    3.32    1.96
   1   4   3    5.36    1.51
  -1   4  -3    4.86    2.61
   2  -4   3    2.69    1.87
   2  -4   3    0.86    2.31
  -2   4  -3    0.94    2.33
  -2   4  -3    4.17    2.76
  -4   0   4   11.57    1.91
   4   0  -4    9.32    2.09
   4   0  -4   10.78    1.70
   3   0  -4   27.70    2.31
  -3   0   4   29.75    2.22
   3   0  -4   32.38    3.13
   1   0  -4    1.16    0.96
  -1   0   4    1.07    0.90
   1   0  -4    0.73    0.64
  -1   0   4    0.56    0.48
   0   0  -4    0.10    0.83
   0   0   4   -0.25    0.79
   0   0   4   -0.06    0.51
   0   0  -4    0.09    0.62
   1   0   4   84.87    3.18
   1   0   4   90.86    3.20
  -1   0  -4   86.18    3.49
  -1   0  -4   94.27    3.14
  -2   0  -4    0.82    1.60
   2   0   4    0.40    1.24
   2   0   4    0.17    0.75
  -2   0  -4    0.00    1.24
   3   0   4   14.95    1.90
   3   0   4   17.57    2.56
  -3   0  -4   17.19    2.55
  -3   0  -4   13.93    2.14
  -4   0  -4    5.43    2.09
  -4   0  -4    1.90    2.18
   4   0   4    4.38    1.71
   4   0   4    2.62    1.63
  -4  -1   4    1.87    1.32
   4  -1  -4    1.88    2.13
  -4  -1   4    3.30    2.03
   4  -1  -4    4.05    1.54
   4   1  -4    1.31    1.59
  -4   1   4    1.74    1.83
   4   1  -4    4.05    1.39
  -3  -1   4    3.95    1.02
   3  -1  -4    0.19    2.46
   3  -1  -4    1.68    1.18
  -3  -1   4    1.90    1.40
   3   1  -4    3.03    1.11
  -3   1   4    2.02    1.39
   2  -1  -4    2.60    1.03
  -2  -1   4    0.39    0.92
  -2  -1   4    2.91    0.83
  -2   1   4   -0.05    0.90
   2   1  -4    1.12    0.89
   2   1  -4    1.59    0.75
  -1  -1   4    3.56    1.05
   1  -1  -4    2.20    1.05
   1   1  -4    2.07    0.79
   1   1  -4   -0.98    1.06
   0  -1   4  150.21    4.40
   0  -1   4  151.57    4.37
   0  -1  -4  147.07    4.82
   0  -1  -4  144.18    4.15
   0   1  -4  143.49    4.51
   0   1  -4  142.85    4.30
   0   1   4  149.07    4.66
   0   1   4  133.32    4.09
   1  -1   4   38.98    2.75
   1  -1   4   38.18    3.05
   1   1   4   45.14    2.53
  -2  -1  -4    2.66    1.16
  -2  -1  -4    4.28    1.39
   2  -1   4    0.62    1.62
   2  -1   4    2.90    1.37
  -2   1  -4    5.36    2.14
  -2   1  -4    2.00    2.20
   2   1   4    3.17    0.86
  -3  -1  -4   10.17    1.81
   3  -1   4    5.87    1.83
  -3  -1  -4    7.05    1.86
   3  -1   4    9.38    2.06
   3   1   4    7.73    1.27
   3   1   4    7.13    1.59
  -3   1  -4    7.14    2.54
  -3   1  -4    7.57    2.30
   4  -1   4   10.68    2.47
  -4  -1  -4   12.17    1.96
  -4  -1  -4   16.22    2.44
   4  -1   4   12.03    2.04
  -4   1  -4   14.68    3.02
   4   1   4   16.37    2.14
  -4   1  -4   15.45    2.80
   4   1   4   13.40    1.87
   4  -2  -4    3.48    1.77
   4  -2  -4    4.82    2.34
  -4   2   4    6.51    2.38
  -4   2   4   -1.29    2.62
  -3  -2   4   13.47    1.34
   3  -2  -4   12.58    2.16
   3   2  -4   14.34    1.41
  -3   2   4   15.70    2.37
  -3   2   4   13.63    2.99
   2  -2  -4   -2.71    1.74
  -2  -2   4    1.85    0.97
   2  -2  -4    1.08    1.02
   2   2  -4    1.87    0.91
  -2   2   4    1.47    1.31
  -1  -2   4   10.21    1.28
   1  -2  -4    9.67    1.52
  -1  -2   4    9.79    1.24
   1   2  -4    8.99    1.59
  -1   2   4   10.16    1.60
   1   2  -4    9.77    1.47
   0  -2  -4   58.95    2.58
   0  -2   4   54.64    2.81
   0  -2   4   56.36    2.56
   0   2   4   58.03    2.44
   0   2  -4   59.45    2.87
   0   2   4   58.58    2.84
   0   2  -4   58.56    2.73
   1  -2   4    7.81    2.05
  -1  -2  -4    5.04    0.96
   1  -2   4    3.78    1.16
  -1  -2  -4    5.21    1.71
  -1   2  -4    8.19    2.13
  -1   2  -4    6.60    2.04
   1   2   4    4.69    0.90
   1   2   4    5.43    1.22
  -2  -2  -4    0.46    0.98
  -2  -2  -4    0.07    1.38
   2  -2   4    8.99    2.43
   2  -2   4    1.06    1.34
  -2   2  -4   -0.22    1.84
   2   2   4    0.25    0.78
   2   2   4    2.27    0.90
  -2   2  -4    5.53    2.47
   3  -2   4   11.56    2.67
  -3  -2  -4    9.73    1.62
  -3  -2  -4    6.93    1.86
   3  -2   4   11.36    2.25
   3   2   4    8.84    1.29
  -3   2  -4   12.39    3.16
   3   2   4    6.81    1.31
   3  -3  -4    2.91    2.41
   3  -3  -4    6.58    1.64
  -3   3   4    3.04    2.67
  -3   3   4    5.36    1.92
  -2  -3   4    1.37    0.88
   2  -3  -4    1.57    1.41
   2  -3  -4    0.13    2.28
   2   3  -4    2.53    1.48
   2   3  -4    3.51    1.49
  -2   3   4    0.35    1.73
  -1  -3   4   13.75    1.80
   1  -3  -4   10.40    1.91
  -1  -3   4    8.31    1.69
   1  -3  -4    8.72    2.08
   1   3  -4    8.47    2.22
   1   3  -4   11.58    2.13
  -1   3   4    5.52    1.73
   0  -3   4   35.41    3.62
   0  -3  -4   29.51    2.31
   0  -3   4   34.30    2.50
   0   3   4   31.45    2.37
   0   3  -4   33.87    3.74
   1  -3   4   29.64    3.24
  -1  -3  -4   27.12    2.02
   1  -3   4   29.18    2.89
   1   3   4   29.84    2.65
  -1   3  -4   27.63    3.85
  -1   3  -4   27.35    3.10
   2  -3   4    0.87    2.64
  -2  -3  -4    5.84    1.19
   2  -3   4    5.65    1.94
  -2   3  -4    7.81    2.08
   2   3   4    6.27    1.02
   3  -3   4    9.94    2.82
   3  -3   4    8.99    2.06
  -3   3  -4    9.46    3.07
  -3   3  -4    8.01    2.76
   2  -4  -4   -2.60    2.37
   2  -4  -4    1.68    1.63
  -2   4   4    0.57    2.06
  -1  -4   4   13.62    2.22
  -1  -4   4    9.49    1.96
   1  -4  -4    9.68    1.88
   1  -4  -4    7.12    2.39
   1   4  -4    9.55    2.38
  -1   4   4    9.53    2.04
   1   4  -4    8.28    2.46
   0  -4   4    2.46    2.14
   0  -4  -4    0.71    2.01
   0  -4  -4    2.93    1.79
   0  -4   4    0.06    1.74
   0   4  -4   -5.43    2.74
   0   4   4    2.90    1.97
   0   4  -4    1.86    2.37
   1  -4   4    2.36    1.64
  -1  -4  -4    3.58    1.68
  -1  -4  -4    1.55    1.65
   1  -4   4    1.98    2.29
  -1   4  -4   -0.51    3.14
  -1   4  -4    1.15    2.07
   1   4   4    2.07    1.87
   2  -4   4    2.76    2.39
   2  -4   4    0.23    1.57
  -2   4  -4    6.11    2.63
  -2   4  -4    2.00    2.54
   4   0  -5    0.96    2.33
  -4   0   5    1.34    1.33
   4   0  -5   -0.61    1.42
   3   0  -5    7.72    1.78
  -3   0   5    7.41    1.44
  -2   0   5  418.98   11.16
  -2   0   5  386.97   10.52
   2   0  -5  416.34   10.61
  -1   0   5   17.27    1.74
   1   0  -5   13.28    2.10
   0   0   5   -0.15    0.75
   0   0  -5    0.29    0.86
   0   0  -5    1.76    1.47
   0   0   5    5.64    1.42
  -1   0  -5   66.43    2.94
   1   0   5   54.34    3.01
  -2   0  -5    8.00    1.87
   2   0   5    8.57    1.66
  -2   0  -5    6.10    1.87
   2   0   5    7.19    1.62
  -3   0  -5   -0.30    2.00
   3   0   5    2.20    1.38
  -3   0  -5    2.73    1.98
   3   0   5    2.96    1.86
   4   0   5    1.98    1.61
  -4   0  -5    4.38    2.63
   4   0   5    1.63    1.82
  -4   0  -5    1.47    2.19
  -4  -1   5    1.58    1.20
   4  -1  -5    0.79    1.78
  -4  -1   5    3.46    2.98
   4  -1  -5    1.89    2.14
   4   1  -5    2.61    1.88
   4   1  -5    2.76    1.71
  -3  -1   5   14.95    2.51
   3  -1  -5   16.61    2.47
  -3  -1   5   13.18    1.71
   3  -1  -5   17.36    2.20
  -3   1   5   13.40    2.11
   3   1  -5   13.43    2.27
   2  -1  -5    1.55    1.12
  -2  -1   5    1.20    0.80
  -2  -1   5    3.25    1.53
   2   1  -5    1.73    1.03
   2   1  -5    1.57    1.09
  -2   1   5    1.91    1.16
  -1  -1   5   38.43    2.92
  -1   1   5   39.03    2.46
  -1  -1  -5   28.05    2.70
  -1  -1  -5   25.36    2.38
   1  -1   5   27.24    2.56
   1  -1   5   25.27    2.07
  -1   1  -5   21.49    2.73
   1   1   5   25.82    2.12
  -1   1  -5   27.03    2.69
   1   1   5   26.42    1.94
  -2  -1  -5   18.44    2.93
  -2  -1  -5   21.26    2.08
   2  -1   5   22.32    2.39
  -2   1  -5   27.97    3.43
   2   1   5   16.20    1.77
   2   1   5   21.22    2.05
  -3  -1  -5   14.74    2.21
  -3  -1  -5   17.25    2.79
   3  -1   5   13.34    2.23
   3  -1   5   14.73    2.13
  -3   1  -5   20.06    2.87
  -3   1  -5   16.63    2.74
   3   1   5   14.42    1.95
   3   1   5   14.93    2.08
  -4  -1  -5    1.71    2.40
   4  -1   5    1.26    2.12
   4  -1   5    4.58    1.99
   4   1   5   -1.16    2.05
  -4   1  -5   -1.41    2.44
   4  -2  -5    1.27    1.74
   4  -2  -5   -0.01    2.17
  -4   2   5   -0.17    1.99
   3  -2  -5    2.84    2.27
   3  -2  -5    1.30    1.33
  -3  -2   5    3.88    1.23
  -3  -2   5    2.91    0.91
  -3   2   5    3.11    1.71
   3   2  -5    3.73    1.25
   2  -2  -5   93.14    3.78
   2  -2  -5  100.66    4.72
  -2  -2   5   93.32    3.39
  -2  -2   5   91.76    3.32
  -2   2   5   93.59    3.88
   2   2  -5   89.36    3.24
   2   2  -5   93.06    3.71
  -1  -2   5   13.98    2.21
   1  -2  -5   12.23    1.90
  -1  -2   5   11.64    2.03
  -1   2   5   15.32    2.22
   1   2  -5   14.47    2.17
   0  -2   5    3.27    1.53
   0  -2  -5    0.15    1.08
   0   2   5    0.46    1.17
   0   2   5   -0.21    0.92
   0   2  -5   -1.48    1.19
   0   2  -5    1.69    1.64
   1  -2   5   45.76    2.83
   1  -2   5   38.55    3.05
  -1  -2  -5   35.56    3.42
  -1  -2  -5   40.30    2.38
  -1   2  -5   33.40    3.60
   1   2   5   38.79    2.54
   1   2   5   42.74    2.35
   2  -2   5   34.12    2.87
  -2  -2  -5   27.63    2.45
  -2  -2  -5   28.25    3.05
   2  -2   5   28.41    3.62
   2   2   5   34.66    2.45
  -2   2  -5   32.36    4.10
   2   2   5   27.77    2.35
  -2   2  -5   33.06    3.47
   3  -2   5    4.74    2.02
  -3  -2  -5   10.54    2.63
   3  -2   5    5.54    2.26
  -3  -2  -5    3.51    1.63
  -3   2  -5    6.80    2.88
   3   2   5    5.08    1.20
   3   2   5    5.11    1.32
  -3   2  -5    4.52    2.71
   3  -3  -5   -0.32    1.54
  -3   3   5    1.14    2.00
   2  -3  -5    4.04    1.63
  -2  -3   5    6.31    1.37
  -2  -3   5    6.75    1.18
   2  -3  -5    6.56    2.50
   2   3  -5    6.02    1.47
  -2   3   5    2.19    1.93
   2   3  -5    9.74    2.07
  -1  -3   5    1.16    1.16
   1  -3  -5    3.95    2.16
   1  -3  -5    5.53    1.72
  -1  -3   5    3.08    1.79
   1   3  -5    3.96    1.83
  -1   3   5    3.25    1.51
   1   3  -5    4.08    1.80
   0   3  -5    1.49    2.01
   0   3   5   10.09    1.70
   0   3  -5    1.47    2.00
   1  -3   5   41.94    3.02
  -1  -3  -5   45.04    2.50
   1  -3   5   39.92    4.29
  -1   3  -5   40.14    4.44
   1   3   5   42.46    3.67
  -1   3  -5   42.59    4.18
   1   3   5   44.39    2.38
   2  -3   5    6.06    2.22
  -2  -3  -5    9.94    1.48
   2  -3   5    4.05    2.28
  -2   3  -5    8.16    2.87
   2   3   5    9.43    2.00
  -2   3  -5    7.61    2.72
   2   3   5   10.56    1.78
   3  -3   5   35.28    5.03
   3  -3   5   49.35    3.82
  -3   3  -5   40.12    5.43
  -3   3  -5   45.98    4.44
   2  -4  -5   12.34    2.96
   2  -4  -5   10.90    2.00
  -2   4   5   13.37    2.58
   1  -4  -5    4.95    1.80
   1  -4  -5   -1.28    2.60
  -1  -4   5    4.14    1.74
  -1  -4   5    7.86    2.03
   1   4  -5    4.08    2.13
  -1   4   5    4.31    1.77
   1   4  -5    4.47    2.14
   0  -4  -5    5.31    1.86
   0  -4   5    1.62    1.69
   0   4  -5    4.06    2.34
   0   4  -5    4.33    2.73
   0   4   5    0.99    1.45
  -1  -4  -5   10.95    2.08
  -1  -4  -5   11.02    1.91
   1  -4   5   10.41    2.75
   1  -4   5   11.57    2.22
  -1   4  -5   12.06    3.00
   1   4   5   11.51    1.59
  -1   4  -5   15.24    3.26
   1   4   5   11.87    2.29
   4   0  -6    7.69    2.16
   4   0  -6    6.08    2.13
  -4   0   6    5.39    2.52
   2   0  -6    2.90    1.45
  -2   0   6    2.98    1.16
  -2   0   6    2.61    1.72
   2   0  -6    0.53    1.19
  -1   0   6    5.08    1.17
   1   0  -6    5.68    1.60
   1   0  -6    4.64    1.21
   1   0   6   22.52    1.88
   1   0   6   24.86    2.46
  -1   0  -6   24.28    3.46
  -1   0  -6   21.95    2.10
  -2   0  -6    1.57    1.74
  -2   0  -6   -4.48    2.48
   2   0   6    3.71    1.69
   2   0   6    1.33    1.64
  -3   0  -6   25.51    3.46
   3   0   6   29.09    3.20
  -3   0  -6   31.10    3.90
   3   0   6   29.31    2.72
  -4  -1   6   -0.37    2.28
   4  -1  -6   -0.63    1.70
   4  -1  -6   -0.71    2.34
  -4  -1   6    3.64    1.65
  -4   1   6    0.56    1.60
  -3  -1   6   18.88    2.55
   3  -1  -6   16.46    2.48
  -3  -1   6   14.46    1.89
  -3   1   6   17.18    2.59
  -2  -1   6    0.96    1.02
  -2  -1   6    5.20    1.93
   2  -1  -6    3.03    1.51
  -2   1   6    2.03    2.28
  -2   1   6    0.12    1.42
   2   1  -6    0.00    1.46
   2   1  -6    1.89    1.34
   1  -1  -6    8.69    1.39
   1  -1  -6    8.11    1.71
  -1  -1   6   10.70    1.48
  -1  -1   6    6.84    1.35
   1   1  -6    7.59    1.23
  -1   1   6    7.49    1.28
   1   1  -6    9.43    1.63
  -1   1   6    7.32    1.53
   0  -1   6   75.83    3.20
   0  -1   6   72.50    3.30
   0  -1  -6   76.09    3.27
   0  -1  -6   79.13    3.89
   0   1  -6   75.18    3.57
   0   1   6   78.98    3.12
   0   1   6   76.30    3.54
   0   1  -6   73.58    3.36
  -1  -1  -6   30.54    3.78
  -1  -1  -6   36.35    2.56
   1  -1   6   30.91    2.71
   1  -1   6   37.06    3.25
   1   1   6   31.27    2.58
  -1   1  -6   23.77    3.68
  -1   1  -6   28.27    3.26
   1   1   6   27.73    2.25
   2  -1   6   -0.89    1.59
  -2  -1  -6    0.80    1.31
  -2  -1  -6    6.76    2.29
  -2   1  -6   -3.92    2.28
   2   1   6    0.19    1.26
   2   1   6   -2.43    1.46
  -2   1  -6    1.66    2.14
  -3  -1  -6    3.30    1.90
   3  -1   6    4.95    2.24
  -3  -1  -6    9.22    2.28
   3  -1   6   11.46    2.53
  -3   1  -6    8.28    2.98
   3   1   6    4.27    1.60
   3   1   6    5.16    1.54
   4  -2  -6    6.53    2.75
   4  -2  -6    7.01    1.94
  -4   2   6    5.62    2.25
  -3  -2   6    1.34    0.97
   3  -2  -6    3.62    2.88
   3  -2  -6    1.22    1.38
   3   2  -6    1.38    1.60
  -3   2   6    0.04    1.55
   3   2  -6    0.33    1.45
  -2  -2   6    5.71    1.22
   2  -2  -6    6.62    1.95
  -2   2   6    1.46    1.86
   2   2  -6    6.72    1.35
   2   2  -6    6.78    2.42
  -1  -2   6    7.57    1.53
  -1  -2   6    7.65    1.47
   1  -2  -6    6.06    1.40
  -1   2   6    6.13    2.18
  -1   2   6    4.98    1.28
   1   2  -6    6.16    1.39
   0  -2   6   47.29    3.23
   0  -2  -6   48.74    4.17
   0  -2  -6   47.10    2.70
   0  -2   6   43.28    3.12
   0   2   6   48.59    3.07
   0   2   6   44.68    2.65
   0   2  -6   49.11    3.33
   0   2  -6   49.66    4.21
   1  -2   6   32.33    3.05
  -1  -2  -6   25.68    4.40
  -1  -2  -6   28.54    2.65
   1  -2   6   28.87    3.54
   1   2   6   26.96    3.15
   1   2   6   33.58    2.50
  -1   2  -6   32.64    3.29
  -1   2  -6   34.73    4.33
   2  -2   6    7.51    2.43
  -2  -2  -6    1.81    1.90
   2  -2   6    3.22    1.62
  -2  -2  -6    3.91    1.37
   2   2   6    3.51    1.36
   2   2   6    2.26    1.14
  -2   2  -6    3.38    3.05
  -2   2  -6    4.16    2.43
   3  -2   6   36.85    3.35
  -3  -2  -6   32.18    2.80
   3  -2   6   31.10    4.78
  -3  -2  -6   30.90    3.88
   3   2   6   32.15    2.46
   3   2   6   34.08    2.57
  -3   2  -6   28.93    4.32
  -3   2  -6   26.00    3.59
   3  -3  -6    0.31    1.78
   3  -3  -6    2.52    2.66
  -3   3   6   -1.42    1.89
  -2  -3   6    1.44    1.57
  -2  -3   6    3.00    1.56
   2  -3  -6   -0.46    2.12
   2  -3  -6    1.20    1.61
   2   3  -6    1.69    1.59
   2   3  -6    3.14    2.03
  -2   3   6    0.84    1.65
  -1  -3   6    4.05    1.70
  -1  -3   6    2.52    1.31
   1  -3  -6    5.05    1.70
   1   3  -6    3.14    1.98
   1   3  -6    3.78    1.73
  -1   3   6    3.85    1.57
   0  -3  -6   29.81    2.25
   0  -3   6   23.67    3.11
   0  -3   6   29.20    2.41
   0   3   6   28.48    2.69
   0   3   6   32.28    3.85
   0   3  -6   31.45    3.85
   0   3  -6   24.57    4.01
  -1  -3  -6    3.06    1.42
   1  -3   6    2.52    2.20
   1  -3   6    4.39    1.72
   1   3   6    2.83    2.18
  -1   3  -6    2.00    2.63
   1   3   6    2.59    1.24
  -1   3  -6    2.00    2.79
  -2  -3  -6    3.01    1.79
   2  -3   6    1.47    1.67
  -2  -3  -6    0.97    1.68
   2  -3   6   -1.02    2.42
  -2   3  -6    0.70    2.74
   2   3   6    0.01    1.47
  -2   3  -6   -0.34    2.54
   2  -4  -6   11.86    3.42
   1  -4  -6    0.68    2.27
  -1  -4   6    3.67    1.41
   1  -4  -6    3.03    2.00
  -1  -4   6    0.97    1.77
  -1   4   6    1.29    1.77
   1   4  -6    0.89    2.12
   1   4  -6   -0.30    2.16
   0  -4  -6    0.72    1.56
   0  -4   6    1.06    1.62
   0  -4   6    1.49    1.94
   0  -4  -6    3.21    2.30
   0   4  -6    0.09    2.38
   0   4   6    2.04    1.60
   0   4  -6    1.83    2.32
   0   4   6    3.06    2.58
  -1  -4  -6    8.65    1.70
   1  -4   6    9.40    2.23
   1  -4   6   10.44    2.92
   1   4   6   10.52    1.99
  -1   4  -6   10.46    2.91
  -1   4  -6   12.38    3.38
   1   4   6   11.28    2.58
  -4   0   7    0.08    2.98
  -4   0   7    1.09    1.49
   4   0  -7    2.83    1.69
  -3   0   7    1.39    1.32
  -3   0   7    2.99    2.16
   3   0  -7    2.43    1.55
  -2   0   7  131.68    4.53
   2   0  -7  129.01    5.83
  -2   0   7  124.73    6.05
   2   0  -7  135.27    4.71
   1   0  -7    0.44    1.26
   1   0  -7    0.69    1.52
  -1   0   7    0.08    1.32
  -1   0   7   -0.31    1.06
   0   0  -7   -1.69    1.78
   0   0   7    0.05    1.20
   0   0   7   -0.72    1.04
   0   0  -7    1.03    1.35
   1   0   7    0.03    1.22
  -1   0  -7   -0.91    2.15
  -1   0  -7   -0.09    1.31
   1   0   7    2.04    1.51
  -2   0  -7   31.90    4.05
   2   0   7   32.97    3.20
  -2   0  -7   31.82    3.37
   2   0   7   30.12    2.83
  -3   0  -7    2.04    2.45
  -3   0  -7    0.36    1.86
   3   0   7    4.06    2.03
   3   0   7   -0.26    1.62
  -4  -1   7    2.12    2.41
   4  -1  -7    1.25    2.09
   4  -1  -7    0.74    2.50
  -4  -1   7    1.21    1.58
   4   1  -7    1.01    1.54
  -4   1   7    1.12    1.99
  -3  -1   7   12.75    2.31
   3  -1  -7   13.66    1.90
  -3  -1   7   13.56    1.62
  -3   1   7   16.25    2.79
   3   1  -7   14.88    2.41
   3   1  -7   13.77    2.27
  -3   1   7    8.86    2.87
   2  -1  -7    7.01    1.66
  -2  -1   7    7.33    2.20
  -2  -1   7   12.19    1.88
  -2   1   7   12.98    3.24
   2   1  -7    8.08    1.63
   2   1  -7    3.28    2.16
  -2   1   7    5.81    1.52
   1  -1  -7  120.69    5.88
   1  -1  -7  110.10    4.18
  -1  -1   7  107.51    4.59
  -1  -1   7  120.55    4.49
   1   1  -7  119.56    5.15
  -1   1   7  111.54    4.50
  -1   1   7  111.90    5.04
   1   1  -7  116.75    4.34
   0  -1  -7    2.95    1.62
   0  -1  -7    3.24    2.50
   0  -1   7    0.56    1.32
   0   1   7    4.29    1.88
   0   1   7    3.08    1.53
   0   1  -7    3.59    1.58
   0   1  -7    0.00    1.98
  -1  -1  -7    4.07    1.42
   1  -1   7    4.56    1.78
   1  -1   7    4.50    2.16
  -1  -1  -7    6.64    2.54
  -1   1  -7    2.00    2.62
   1   1   7    2.18    1.56
  -1   1  -7    1.80    2.05
   1   1   7    3.98    1.39
  -2  -1  -7    3.41    2.10
  -2  -1  -7    3.56    1.49
   2  -1   7    2.69    1.70
   2  -1   7    0.66    1.69
  -2   1  -7    3.55    2.18
   2   1   7    2.88    1.42
   2   1   7    2.76    1.55
  -2   1  -7    2.90    2.08
  -3  -1  -7   23.63    3.10
  -3  -1  -7   18.39    3.22
   3  -1   7   22.18    3.95
   3  -1   7   29.73    3.12
  -3   1  -7   25.41    4.29
   3   1   7   21.57    3.20
   3   1   7   23.30    2.95
  -3   1  -7   28.12    4.72
   4  -2  -7    5.28    2.85
   4  -2  -7    5.49    2.25
  -4   2   7    5.36    1.87
  -3  -2   7    2.03    1.62
   3  -2  -7    1.35    2.37
   3  -2  -7    0.97    2.30
  -3  -2   7    1.79    1.12
  -3   2   7    7.57    2.40
   3   2  -7   -0.38    1.58
   3   2  -7    5.87    2.33
  -2  -2   7    5.50    1.56
   2  -2  -7    6.46    1.66
   2   2  -7    6.44    1.61
  -2   2   7    5.16    1.62
   2   2  -7    4.98    2.19
  -1  -2   7    6.45    1.95
  -1  -2   7    4.38    1.59
   1  -2  -7    5.02    1.67
  -1   2   7    5.80    1.50
   1   2  -7    6.66    2.27
  -1   2   7   -1.58    2.49
   1   2  -7    5.02    1.46
   0  -2  -7   -1.11    1.42
   0  -2  -7   -1.86    2.41
   0  -2   7   -2.67    1.82
   0  -2   7   -0.83    1.82
   0   2  -7    0.08    2.16
   0   2  -7   -2.78    1.84
   0   2   7    4.35    2.70
   0   2   7    0.67    1.33
   1  -2   7    2.39    1.76
  -1  -2  -7    2.32    2.26
   1  -2   7    2.77    1.68
  -1   2  -7    3.57    2.35
   1   2   7    3.39    1.43
  -1   2  -7    4.07    2.05
   1   2   7    2.58    2.34
   2  -2   7   25.36    4.16
  -2  -2  -7   28.48    3.87
  -2  -2  -7   32.33    2.81
   2  -2   7   31.38    2.92
  -2   2  -7   33.71    5.41
  -2   2  -7   26.68    4.19
   2   2   7   30.86    2.75
   2   2   7   32.07    2.72
   3  -2   7    2.12    1.85
  -3  -2  -7    0.64    2.49
   3  -2   7    3.42    2.53
  -3   2  -7    2.31    2.45
   3   2   7    3.55    1.72
   3   2   7    7.24    1.90
  -3   2  -7    3.78    2.80
   3  -3  -7    9.22    2.42
   3  -3  -7    2.78    2.32
  -3   3   7    2.96    1.96
   2  -3  -7    3.83    2.03
   2  -3  -7    4.48    2.44
  -2  -3   7   -0.32    1.54
  -2  -3   7    2.83    1.67
  -2   3   7    2.59    1.84
   2   3  -7   -2.54    2.03
   2   3  -7    1.09    2.70
  -1  -3   7   42.52    3.42
  -1  -3   7   41.25    3.25
   1  -3  -7   40.78    3.01
   1   3  -7   42.76    3.98
  -1   3   7   45.25    5.08
  -1   3   7   40.77    3.23
   1   3  -7   41.02    3.39
   0  -3  -7    3.09    1.73
   0  -3   7    0.82    1.54
   0  -3   7    0.55    1.88
   0   3  -7    0.82    2.35
   0   3   7    2.58    1.59
   0   3  -7    0.79    1.95
   0   3   7    0.06    2.20
   1  -3   7    6.65    2.19
   1  -3   7   -0.10    1.81
  -1  -3  -7    4.36    1.52
  -1   3  -7    3.50    2.73
   1   3   7    4.24    1.43
   1   3   7    2.34    2.54
  -1   3  -7    5.64    2.66
  -2  -3  -7   11.57    2.48
  -2  -3  -7   12.27    2.04
   2  -3   7    9.86    2.64
   2  -3   7    7.76    1.96
  -2   3  -7    9.30    3.12
   2   3   7    9.27    2.00
   2   3   7   10.31    1.49
  -2   3  -7    8.18    2.72
  -1  -4   7    2.55    1.81
  -1  -4   7    1.86    2.17
   1  -4  -7    4.23    2.12
   1  -4  -7    9.69    3.00
   1   4  -7   -3.39    2.77
   1   4  -7    8.29    2.75
  -1   4   7    4.43    2.06
   0  -4   7    1.93    1.62
   0  -4  -7   -0.39    1.75
   0  -4   7    0.69    2.20
   0   4  -7   -2.46    2.43
   0   4   7    1.29    1.68
   0   4   7   -4.27    2.60
   4   0  -8   54.35    3.49
  -4   0   8   56.02    4.84
  -4   0   8   58.96    3.93
  -3   0   8   13.95    2.00
  -3   0   8   13.18    2.74
   3   0  -8   13.88    2.13
  -2   0   8    2.81    1.57
   2   0  -8    5.16    2.79
   2   0  -8    4.04    1.74
  -2   0   8    5.60    2.69
   1   0  -8  113.77    5.55
  -1   0   8  113.93    5.34
   1   0  -8  118.08    4.39
  -1   0   8  115.44    4.45
   0   0  -8   12.94    2.95
   0   0  -8   15.87    2.28
   0   0   8   14.03    2.61
   0   0   8   11.02    1.77
  -1   0  -8    1.50    1.70
   1   0   8   -1.41    1.65
  -1   0  -8    3.39    2.61
   1   0   8   -0.37    1.65
   2   0   8   -3.73    2.06
  -2   0  -8   -1.07    2.24
  -2   0  -8    0.66    2.37
   2   0   8    1.14    2.23
   3   0   8    3.21    2.06
  -3   0  -8    4.16    2.25
   3   0   8    2.48    1.85
  -3   0  -8    5.23    2.65
  -4  -1   8   12.72    1.99
   4  -1  -8    7.07    2.66
   4  -1  -8   16.43    2.46
   4   1  -8   12.46    2.09
  -4   1   8   11.07    3.33
  -4   1   8   12.11    2.26
  -3  -1   8   21.98    2.60
  -3  -1   8   15.26    2.69
   3  -1  -8   11.95    1.95
  -3   1   8   14.71    2.17
  -3   1   8   14.65    3.41
   3   1  -8   15.25    2.57
   3   1  -8   17.49    2.87
  -2  -1   8    2.07    1.75
  -2  -1   8    1.40    2.25
   2  -1  -8   -1.37    1.61
   2   1  -8    3.56    2.22
  -2   1   8    0.24    2.28
  -2   1   8    1.14    1.80
   1  -1  -8   29.90    2.87
  -1  -1   8   30.31    3.03
   1  -1  -8   32.26    4.86
   1   1  -8   31.55    4.99
  -1   1   8   19.40    3.07
  -1   1   8   43.52    5.16
   1   1  -8   26.68    2.95
   0  -1   8   28.06    3.32
   0  -1   8   37.69    3.57
   0  -1  -8   36.08    5.16
   0  -1  -8   26.05    3.14
   0   1  -8   23.73    3.54
   0   1  -8   33.40    3.42
   0   1   8   28.99    2.86
   1  -1   8    1.89    1.93
  -1  -1  -8    2.32    2.50
   1  -1   8    3.11    2.07
  -1   1  -8    1.35    2.05
  -1   1  -8    0.61    2.61
   1   1   8   -0.26    1.76
  -2  -1  -8    1.14    2.50
   2  -1   8   -1.02    2.00
   2  -1   8   -1.69    2.03
  -2  -1  -8    0.86    1.53
   2   1   8    2.30    1.54
  -2   1  -8   -2.32    2.07
   2   1   8    0.84    1.61
  -2   1  -8    0.45    2.56
   3  -1   8    4.36    2.31
  -3  -1  -8    6.68    2.44
   3  -1   8    4.80    2.15
  -3  -1  -8    5.35    2.41
   3   1   8    7.07    1.97
   3   1   8    6.69    1.84
  -3   1  -8    5.07    2.81
  -3   1  -8    4.18    2.78
  -3  -2   8    5.52    2.00
   3  -2  -8    3.04    1.92
  -3  -2   8    3.12    1.49
   3   2  -8    5.80    2.51
  -3   2   8    2.96    1.74
  -2  -2   8    0.33    1.39
  -2  -2   8    3.85    1.71
   2  -2  -8    1.31    1.97
   2   2  -8    5.89    1.63
  -2   2   8    2.67    2.71
   2   2  -8    3.94    2.50
  -2   2   8    3.30    1.74
   1  -2  -8   26.66    2.77
  -1  -2   8   27.44    2.90
  -1  -2   8   27.04    2.79
   1   2  -8   26.05    3.91
  -1   2   8   29.38    3.95
  -1   2   8   29.46    2.89
   1   2  -8   26.28    2.65
   0  -2  -8    6.17    1.74
   0  -2  -8    4.72    2.36
   0  -2   8    6.58    1.87
   0  -2   8    6.66    2.02
   0   2  -8    6.92    2.80
   0   2   8    7.83    2.45
   0   2   8    7.04    1.70
   0   2  -8    5.52    1.95
   1  -2   8    5.29    2.45
  -1  -2  -8    2.10    2.69
  -1  -2  -8    4.99    1.82
   1  -2   8    6.60    2.18
  -1   2  -8    7.80    2.59
  -1   2  -8    3.42    2.33
   1   2   8    2.39    2.99
   1   2   8    4.45    1.52
  -2  -2  -8    1.33    1.80
   2  -2   8    2.23    2.33
  -2  -2  -8    1.50    2.48
   2  -2   8    1.75    1.72
  -2   2  -8   -0.48    2.15
  -2   2  -8    2.67    2.75
   2   2   8    1.08    1.70
   2   2   8    5.40    1.71
  -2  -3   8    1.05    1.66
   2  -3  -8    1.64    1.99
  -2   3   8    3.96    2.09
   2   3  -8   -0.32    1.79
   2   3  -8    0.04    2.44
  -1  -3   8   15.65    2.71
  -1  -3   8   13.39    2.64
   1   3  -8   12.05    2.60
  -1   3   8   11.79    2.46
   1   3  -8   10.27    2.82
  -1   3   8    8.62    2.73
   0  -3   8    1.20    1.90
   0  -3   8    2.88    1.96
   0  -3  -8    2.68    1.91
   0   3  -8    0.73    2.28
   0   3  -8    0.94    2.01
   0   3   8    2.50    2.44
   0   3   8    3.63    1.81
   1  -3   8    2.02    2.62
   1  -3   8    3.69    1.92
  -1  -3  -8    2.79    2.43
  -1   3  -8    2.33    3.05
   1   3   8    6.64    2.62
  -1   3  -8   10.47    3.18
  -2  -3  -8   -1.38    1.72
  -4   0   9    0.33    1.90
  -4   0   9    7.00    3.21
   4   0  -9   -0.44    1.87
   3   0  -9    7.98    2.46
  -3   0   9    1.54    3.71
  -3   0   9    6.69    1.84
  -2   0   9    0.12    2.36
   2   0  -9   -0.70    2.65
  -2   0   9    0.66    1.52
   2   0  -9    1.48    1.64
   1   0  -9   71.58    5.57
   1   0  -9   65.87    4.49
  -1   0   9   71.09    4.14
  -1   0   9   62.35    5.38
   0   0  -9    1.04    2.80
   0   0   9    4.57    2.24
   0   0   9   -3.79    2.13
   1   0   9   -0.15    1.85
  -1   0  -9    4.56    3.03
   1   0   9    0.46    1.76
  -1   0  -9    3.65    2.00
  -2   0  -9    2.32    2.60
  -2   0  -9    1.65    2.35
   2   0   9    0.44    2.27
  -3   0  -9    5.02    2.98
   3   0   9    6.68    2.20
  -3   0  -9    9.99    3.36
   3   0   9    6.80    3.24
   3  -1  -9    6.98    2.12
  -3  -1   9    3.68    2.67
  -3  -1   9    4.24    1.86
  -3   1   9    6.08    2.85
   3   1  -9    5.49    2.26
  -3   1   9    4.43    2.05
   3   1  -9    5.75    2.41
  -2  -1   9   25.12    2.47
   2  -1  -9   29.53    4.86
  -2  -1   9   25.25    4.03
   2  -1  -9   23.96    3.07
   2   1  -9   22.74    3.54
  -2   1   9   25.62    3.76
  -2   1   9   27.06    2.94
   2   1  -9   25.55    3.22
  -1  -1   9   42.27    3.48
  -1  -1   9   28.87    3.34
   1  -1  -9   34.67    3.18
   1  -1  -9   30.42    5.01
   1   1  -9   32.23    4.70
  -1   1   9   31.14    4.29
   1   1  -9   35.34    3.24
  -1   1   9   38.48    2.90
   0  -1  -9    0.98    2.22
   0  -1   9    1.28    1.71
   0  -1   9    1.12    1.57
   0  -1  -9    2.59    1.81
   0   1  -9    0.59    1.62
   0   1  -9   -0.34    2.17
   0   1   9    0.05    1.42
   0   1   9    1.74    2.65
  -1  -1  -9    0.70    3.01
   1  -1   9    1.54    2.35
   1  -1   9    3.34    2.31
  -1  -1  -9   -1.27    1.66
   1   1   9    3.62    2.12
   1   1   9   -0.07    1.71
  -1   1  -9   -2.18    2.81
   2  -1   9   -0.24    1.93
  -2  -1  -9    4.10    2.68
  -2  -1  -9    0.84    1.74
   2  -1   9    1.57    2.32
   2   1   9    0.60    1.83
   2   1   9    1.84    1.72
  -2   1  -9    0.96    2.83
  -2   1  -9    1.10    2.46
  -3  -2   9    2.70    1.30
  -3  -2   9    6.41    2.10
   3  -2  -9    3.56    2.11
  -3   2   9    0.98    2.83
   3   2  -9    2.00    1.51
  -3   2   9   -0.76    2.01
   3   2  -9    1.57    2.40
  -2  -2   9   22.98    2.52
  -2  -2   9   19.73    3.41
   2  -2  -9   20.71    3.11
   2   2  -9   16.45    3.53
  -2   2   9   21.37    3.58
  -2   2   9   16.94    2.57
   2   2  -9   17.67    2.30
   1  -2  -9   13.08    3.13
   1  -2  -9   15.83    2.34
  -1  -2   9   14.07    2.41
  -1  -2   9   13.87    2.45
  -1   2   9   11.50    2.18
   1   2  -9   18.14    2.89
  -1   2   9   10.74    2.71
   1   2  -9   17.14    3.41
   0  -2  -9    2.25    2.80
   0  -2   9   -0.10    1.90
   0  -2   9    0.49    1.92
   0  -2  -9   -2.21    1.98
   0   2   9   -0.57    2.01
   0   2   9   -1.82    2.39
   0   2  -9   -0.45    1.91
   0   2  -9    4.60    2.71
  -1  -2  -9    1.49    2.83
  -1  -2  -9   -1.67    2.09
   1  -2   9    6.33    2.49
   1  -2   9    3.49    2.61
  -1   2  -9    3.52    2.88
   1   2   9   -0.64    2.95
   1   2   9    3.67    1.78
  -1   2  -9    3.14    2.54
   2  -2   9    5.01    2.59
  -2  -2  -9    4.56    2.64
  -2  -2  -9    4.67    1.94
   2  -2   9    1.48    1.89
  -2   2  -9    1.84    2.26
   2   2   9    3.49    1.66
   2   2   9    3.20    1.92
  -2   2  -9    1.02    3.03
  -2  -3   9   12.26    2.29
   2  -3  -9   13.16    2.53
  -2  -3   9   17.01    2.28
  -2   3   9   13.97    3.56
   2   3  -9   19.98    3.45
   2   3  -9   10.22    2.25
  -2   3   9   15.47    2.73
  -1  -3   9   30.54    3.95
   1  -3  -9   24.86    3.18
  -1  -3   9   29.95    3.59
  -1   3   9   17.46    3.44
   1   3  -9   28.20    3.62
   1   3  -9   27.13    3.74
  -1   3   9   28.41    3.42
   0  -3  -9    3.86    2.06
  -1  -3  -9    2.01    1.80
  -1  -3  -9    5.56    3.10
   1  -3   9    2.71    1.94
   1  -3   9    1.35    2.21
   1   3   9    3.85    1.68
   1   3   9    3.39    3.34
  -1   3  -9    2.69    2.78
  -1   3  -9    1.37    2.77
  -3   0  10   11.89    3.38
  -3   0  10   10.27    1.92
   3   0 -10    8.85    2.27
   3   0 -10   12.95    3.41
  -2   0  10    4.12    2.86
   2   0 -10   -0.05    1.78
  -2   0  10   -0.50    1.62
   2   0 -10   -0.78    2.91
   1   0 -10    4.93    2.05
  -1   0  10    9.76    2.88
   1   0 -10    4.42    3.46
  -1   0  10    4.59    1.83
   0   0 -10   45.47    6.02
   0   0 -10   41.38    3.69
   0   0  10   39.51    3.57
   0   0  10   51.43    4.19
  -1   0 -10    0.81    1.97
  -1   0 -10    5.94    3.61
   1   0  10    2.01    1.84
   1   0  10    3.90    2.09
   2   0  10    2.15    2.21
  -2   0 -10    4.70    2.72
  -2   0 -10   -0.20    2.77
   2   0  10   -4.22    2.38
   3  -1 -10   20.00    2.86
  -3  -1  10   15.62    2.32
  -3  -1  10   19.66    3.40
  -3   1  10   19.23    4.00
  -3   1  10   18.48    2.65
   3   1 -10   18.90    3.23
   3   1 -10   24.43    3.62
  -2  -1  10    0.57    1.43
  -2  -1  10    1.64    2.87
   2  -1 -10    0.94    2.08
   2  -1 -10    2.30    2.91
  -2   1  10   -2.29    3.74
   2   1 -10    5.32    2.97
   2   1 -10   -0.51    2.20
  -2   1  10   -0.62    1.73
   1  -1 -10    9.96    3.49
  -1  -1  10   12.47    2.70
   1  -1 -10    7.76    2.48
  -1  -1  10    8.84    2.34
  -1   1  10    9.60    2.91
   1   1 -10   13.76    3.61
  -1   1  10    9.91    2.28
   0  -1  10   28.93    3.54
   0  -1  10   32.54    4.10
   0  -1 -10   32.56    4.54
   0   1 -10   30.27    3.48
   0   1  10   31.86    3.13
   0   1 -10   31.21    5.41
   0   1  10   31.14    4.96
   1  -1  10    9.01    2.73
  -1  -1 -10    3.95    2.38
  -1  -1 -10    1.12    2.89
   1  -1  10    3.42    2.65
  -1   1 -10    4.26    3.08
  -1   1 -10    7.13    2.62
   1   1  10    0.31    2.21
   1   1  10    6.85    2.47
  -2  -1 -10   -0.18    1.92
  -2  -1 -10    4.65    3.26
   2  -1  10    0.32    2.28
   2  -1  10    1.54    2.44
  -2   1 -10    5.01    2.80
   2   1  10    0.06    2.05
   2   1  10    0.49    1.91
  -2   1 -10   -1.39    2.95
  -3  -2  10   18.41    2.72
   3  -2 -10   18.39    2.99
  -3  -2  10   18.89    2.27
  -3   2  10   21.03    3.69
  -3   2  10   18.81    4.20
   3   2 -10   18.54    3.48
   3   2 -10   13.08    2.34
  -2  -2  10    0.62    2.10
  -2  -2  10   -0.80    1.73
   2  -2 -10    0.50    1.69
  -2   2  10    0.63    1.83
   2   2 -10   -0.19    1.88
  -2   2  10    3.70    2.69
   2   2 -10   -3.07    3.19
   1  -2 -10   21.90    3.39
  -1  -2  10   25.35    3.82
   1  -2 -10   20.42    3.34
  -1  -2  10   21.04    3.56
  -1   2  10   27.51    3.97
  -1   2  10   24.35    3.56
   1   2 -10   27.26    3.35
   1   2 -10   26.23    3.65
   0  -2 -10   24.35    3.48
   0  -2 -10   16.89    3.67
   0  -2  10   15.69    2.44
   0  -2  10   15.04    2.58
   0   2  10   16.92    2.57
   0   2 -10   16.78    3.47
   0   2  10   21.93    3.60
   0   2 -10   15.66    2.61
  -1  -2 -10   11.10    3.07
   1  -2  10   10.28    2.69
  -1  -2 -10   14.19    2.80
  -1   2 -10    6.40    3.04
   1   2  10    9.74    3.21
  -1  -3  10   25.09    4.04
   1  -3 -10   21.72    2.77
  -1  -3  10   24.08    2.83
  -1   3  10   24.73    3.51
  -1   3  10   17.15    3.58
   1   3 -10   18.76    2.99
   0  -3 -10   11.45    2.33
   0  -3  10   10.08    2.54
   0  -3  10    7.45    2.49
   0   3 -10    6.37    3.80
   0   3  10   16.80    3.57
   0   3  10    6.71    2.07
   0   3 -10    9.50    3.10
   3   0 -11   23.16    3.38
  -3   0  11   27.26    3.81
   3   0 -11   19.70    3.31
  -3   0  11   26.22    3.16
  -2   0  11    1.52    1.85
   2   0 -11    0.76    1.98
   2   0 -11   -0.41    3.41
  -2   0  11    1.38    3.10
   1   0 -11   12.07    3.59
   1   0 -11   21.55    3.30
  -1   0  11   12.48    2.16
   0   0  11    0.21    2.37
   0   0 -11    4.37    2.66
   0   0  11   -1.77    2.56
   0   0 -11   -2.21    3.38
  -1   0 -11   -0.68    2.18
   1   0  11    1.70    2.36
  -1   0 -11    7.38    3.61
   1   0  11    0.58    1.74
   2   0  11    7.38    2.46
  -2   0 -11    4.26    2.79
   2   0  11    8.25    3.04
  -2   0 -11    1.53    3.93
  -3  -1  11   12.36    3.57
  -3  -1  11   12.66    2.15
   3  -1 -11   16.62    2.81
  -3   1  11   14.50    2.53
   3   1 -11   11.16    2.57
  -3   1  11   11.91    3.80
   2  -1 -11   38.19    5.85
  -2  -1  11   39.86    3.23
   2  -1 -11   41.22    3.80
  -2  -1  11   46.41    4.93
  -2   1  11   44.25    3.68
   2   1 -11   41.61    4.24
  -2   1  11   51.83    5.55
  -1  -1  11   12.83    2.74
   1  -1 -11   12.74    3.97
  -1  -1  11   10.86    2.34
  -1   1  11   15.47    3.49
   1   1 -11    9.43    3.46
  -1   1  11   17.90    2.78
   0  -1 -11    0.70    3.16
   0  -1  11    2.40    1.97
   0  -1  11    3.86    2.49
   0  -1 -11    2.50    2.15
   0   1  11    1.16    2.82
   0   1  11    3.77    1.95
   0   1 -11   -0.86    2.15
   0   1 -11   -1.21    3.16
   1  -1  11   10.65    3.01
  -1  -1 -11    9.13    3.50
  -1  -1 -11    3.81    2.57
   1  -1  11    6.39    2.69
   1   1  11    8.41    2.80
   1   1  11    7.04    2.38
  -1   1 -11   10.93    3.21
  -1   1 -11    5.12    3.28
  -2  -2  11   17.24    2.41
   2  -2 -11   23.88    3.58
  -2  -2  11   18.51    2.89
  -2   2  11   17.68    3.86
  -2   2  11   20.56    3.61
   2   2 -11   13.98    2.58
   2   2 -11   31.59    5.59
   1  -2 -11   34.01    5.91
  -1  -2  11   35.96    4.09
   1  -2 -11   26.89    4.04
  -1  -2  11   25.06    2.96
   1   2 -11   31.03    4.49
  -1   2  11   28.51    3.81
   1   2 -11   29.10    3.69
  -1   2  11   23.17    3.59
   0  -2  11    2.48    2.84
   0  -2 -11    1.11    2.20
   0  -2  11   -0.20    2.32
   0  -2 -11    4.97    3.53
   0   2  11    4.30    2.28
   0   2 -11    4.38    2.66
   0   2 -11   -1.06    3.07
   0   2  11   -2.09    3.23
   1  -2  11    3.62    2.92
   1  -2  11    1.21    2.36
  -1  -2 -11   -2.21    3.04
  -1  -2 -11    2.58    2.24
  -1   2 -11    7.71    3.65
  -1   2 -11    0.05    2.44
   1   2  11    2.08    1.83
  -2   0  12    0.81    1.93
   2   0 -12    3.47    2.37
  -2   0  12   -1.90    3.16
   2   0 -12   -0.49    3.39
   1   0 -12    0.79    3.99
  -1   0  12    0.16    3.29
   1   0 -12    2.20    2.56
  -1   0  12    0.71    1.95
   0   0 -12   23.12    4.58
   0   0  12   22.27    3.00
   0   0 -12   26.68    4.05
   0   0  12   32.94    4.63
   1   0  12   19.32    3.18
   1   0  12   15.12    2.57
  -1   0 -12   21.03    3.31
  -1   0 -12   15.55    3.94
   2  -1 -12    1.49    2.17
  -2  -1  12    1.04    2.59
  -2  -1  12    2.99    1.81
   2  -1 -12    3.68    3.35
  -2   1  12    5.41    3.22
  -2   1  12    5.15    2.25
   2   1 -12    6.89    2.75
   2   1 -12    1.29    2.71
   1  -1 -12   10.46    2.93
  -1  -1  12    6.05    2.51
   1  -1 -12    1.69    3.59
  -1  -1  12    2.00    2.84
  -1   1  12   -0.49    2.33
   1   1 -12    4.42    3.59
  -1   1  12    8.13    3.53
   0  -1  12    7.57    2.34
   0  -1 -12    6.30    2.58
   0  -1 -12    7.08    3.01
   0  -1  12    6.97    2.72
   0   1  12    6.21    3.35
   0   1  12    5.73    2.10
   0   1 -12    8.17    3.60
   0   1 -12    6.80    2.56
   1  -1  12    0.14    2.87
   1  -1  12    2.00    2.07
  -1  -1 -12   -1.42    2.34
  -1   1 -12    0.16    2.54
   1   1  12   -0.27    2.57
   1   1  12    1.92    2.20
   1  -2 -12    2.75    2.22
  -1  -2  12    4.06    2.71
  -1  -2  12    5.47    2.50
   1   2 -12    4.72    2.45
   1   2 -12    8.03    4.19
   1   0 -13    7.54    2.58
  -1   0  13    7.62    2.48
  -1   0  13    6.94    3.50
   1   0 -13   10.12    4.05
   0   0  13   -1.40    2.84
   0   0  13    2.08    2.32
   0   0 -13    0.06    2.31
   0   0   0    0.00    0.00
;
_shelx_hkl_checksum              18055
_olex2_submission_special_instructions 'No special instructions were received'
loop_
_space_group_symop_operation_xyz
'x, y, z'
'-x, y+1/2, -z'
loop_
_atom_site_label
_atom_site_type_symbol
_atom_site_fract_x
_atom_site_fract_y
_atom_site_fract_z
_atom_site_U_iso_or_equiv
_atom_site_adp_type
_atom_site_occupancy
_atom_site_site_symmetry_order
_atom_site_calc_flag
_atom_site_refinement_flags_posn
O1 O 0.912(3) 0.297(3) 0.8165(10) 0.027(6) Uiso 1 1 d .
H1 H 0.898837 0.304626 0.863101 0.041 Uiso 1 1 calc GR
O2 O 0.847(3) 0.695(3) 0.6684(12) 0.034(6) Uiso 1 1 d .
H2 H 0.720860 0.690886 0.650977 0.051 Uiso 1 1 calc GR
O3 O 1.200(2) 0.350(3) 0.5894(9) 0.033(5) Uiso 1 1 d .
H3 H 1.253314 0.320119 0.550430 0.049 Uiso 1 1 calc GR
O4 O 0.882(3) 0.356(3) 0.4300(8) 0.025(5) Uiso 1 1 d .
H4 H 0.869152 0.242648 0.407330 0.038 Uiso 1 1 calc GR
O5 O 0.465(2) 0.343(3) 0.4868(9) 0.020(5) Uiso 1 1 d .
O6 O 0.657(2) 0.331(3) 0.6075(10) 0.035(5) Uiso 1 1 d .
C1 C 0.821(3) 0.475(4) 0.7760(13) 0.008(7) Uiso 1 1 d .
H1A H 0.850966 0.599022 0.808638 0.009 Uiso 1 1 calc R
H1B H 0.668698 0.457722 0.764066 0.009 Uiso 1 1 calc R
C2 C 0.914(4) 0.500(4) 0.6976(14) 0.015(8) Uiso 1 1 d .
H2A H 1.067014 0.510843 0.713433 0.018 Uiso 1 1 calc R
C3 C 0.878(3) 0.321(5) 0.6438(13) 0.008(7) Uiso 1 1 d .
H3A H 0.909164 0.188748 0.672336 0.010 Uiso 1 1 calc R
C4 C 0.977(4) 0.327(5) 0.5711(14) 0.020(7) Uiso 1 1 d .
C5 C 0.842(4) 0.333(5) 0.5061(14) 0.012(7) Uiso 1 1 d .
C6 C 0.642(4) 0.328(5) 0.5284(14) 0.020(8) Uiso 1 1 d .
O7 O 1.443(3) 0.802(3) 0.6837(10) 0.037(6) Uiso 1 1 d .
H7 H 1.403779 0.707947 0.710690 0.055 Uiso 1 1 calc GR
O8 O 1.332(3) 1.199(3) 0.8283(10) 0.023(6) Uiso 1 1 d .
H8 H 1.336002 1.288762 0.794238 0.035 Uiso 1 1 calc GR
O9 O 1.062(2) 0.819(3) 0.9071(10) 0.028(5) Uiso 1 1 d .
H9 H 1.008958 0.909598 0.931823 0.041 Uiso 1 1 calc GR
O10 O 1.361(2) 0.851(4) 1.0646(9) 0.027(5) Uiso 1 1 d .
H10 H 1.463058 0.897184 1.094656 0.040 Uiso 1 1 calc GR
O11 O 1.790(2) 0.853(3) 1.0125(9) 0.020(5) Uiso 1 1 d .
O12 O 1.599(2) 0.832(3) 0.8889(9) 0.026(5) Uiso 1 1 d .
C7 C 1.472(4) 0.982(4) 0.7269(15) 0.027(9) Uiso 1 1 d .
H7A H 1.447577 1.102542 0.691857 0.033 Uiso 1 1 calc R
H7B H 1.617172 0.988879 0.753754 0.033 Uiso 1 1 calc R
C8 C 1.313(4) 0.994(4) 0.7921(16) 0.034(9) Uiso 1 1 d .
H8A H 1.167591 0.970918 0.766165 0.041 Uiso 1 1 calc R
C9 C 1.380(3) 0.817(5) 0.8544(13) 0.017(8) Uiso 1 1 d .
H9A H 1.351272 0.679044 0.829855 0.021 Uiso 1 1 calc R
C10 C 1.275(4) 0.836(5) 0.9222(14) 0.022(8) Uiso 1 1 d .
C11 C 1.411(4) 0.833(5) 0.9886(15) 0.021(7) Uiso 1 1 d .
C12 C 1.618(4) 0.848(5) 0.9698(14) 0.010(7) Uiso 1 1 d .
loop_
_atom_type_symbol
_atom_type_description
_atom_type_scat_dispersion_real
_atom_type_scat_dispersion_imag
_atom_type_scat_source
C C 0.0033 0.0016 'International Tables Vol C Tables 4.2.6.8 and 6.1.1.4'
H H 0.0000 0.0000 'International Tables Vol C Tables 4.2.6.8 and 6.1.1.4'
O O 0.0106 0.0060 'International Tables Vol C Tables 4.2.6.8 and 6.1.1.4'
loop_
_geom_angle_atom_site_label_1
_geom_angle_atom_site_label_2
_geom_angle_atom_site_label_3
_geom_angle
C1 O1 H1 109.5
C2 O2 H2 109.5
C4 O3 H3 109.5
C5 O4 H4 109.5
C6 O6 C3 109.8(17)
O1 C1 H1A 110.0
O1 C1 H1B 110.0
O1 C1 C2 108.6(18)
H1A C1 H1B 108.3
C2 C1 H1A 110.0
C2 C1 H1B 110.0
O2 C2 C1 105(2)
O2 C2 H2A 106.1
O2 C2 C3 118(2)
C1 C2 H2A 106.1
C3 C2 C1 115(2)
C3 C2 H2A 106.1
O6 C3 H3A 110.9
O6 C3 C4 99.2(18)
C2 C3 O6 106(2)
C2 C3 H3A 110.9
C2 C3 C4 118(2)
C4 C3 H3A 110.9
O3 C4 C3 112(2)
C5 C4 O3 134(2)
C5 C4 C3 114(2)
O4 C5 C6 125(2)
C4 C5 O4 128(2)
C4 C5 C6 106(2)
O5 C6 O6 119(2)
O5 C6 C5 130(2)
O6 C6 C5 111(2)
C7 O7 H7 109.5
C8 O8 H8 109.5
C10 O9 H9 109.5
C11 O10 H10 109.5
C12 O12 C9 109.8(17)
O7 C7 H7A 109.4
O7 C7 H7B 109.4
O7 C7 C8 111(2)
H7A C7 H7B 108.0
C8 C7 H7A 109.4
C8 C7 H7B 109.4
O8 C8 C7 109(2)
O8 C8 H8A 109.8
O8 C8 C9 111(2)
C7 C8 H8A 109.8
C9 C8 C7 107.6(19)
C9 C8 H8A 109.8
O12 C9 C8 112(2)
O12 C9 H9A 109.9
O12 C9 C10 103(2)
C8 C9 H9A 109.9
C10 C9 C8 112(2)
C10 C9 H9A 109.9
O9 C10 C9 115(2)
C11 C10 O9 132(2)
C11 C10 C9 111(2)
O10 C11 C12 125(2)
C10 C11 O10 125(2)
C10 C11 C12 108(2)
O11 C12 O12 122(2)
O11 C12 C11 131(2)
O12 C12 C11 107.1(18)
loop_
_geom_bond_atom_site_label_1
_geom_bond_atom_site_label_2
_geom_bond_distance
O1 H1 0.8200
O1 C1 1.41(2)
O2 H2 0.8200
O2 C2 1.38(3)
O3 H3 0.8200
O3 C4 1.43(2)
O4 H4 0.8200
O4 C5 1.38(2)
O5 C6 1.25(2)
O6 C3 1.45(2)
O6 C6 1.35(3)
C1 H1A 0.9700
C1 H1B 0.9700
C1 C2 1.57(3)
C2 H2A 0.9800
C2 C3 1.46(3)
C3 H3A 0.9800
C3 C4 1.49(3)
C4 C5 1.30(2)
C5 C6 1.40(3)
O7 H7 0.8200
O7 C7 1.37(3)
O8 H8 0.8200
O8 C8 1.44(3)
O9 H9 0.8200
O9 C10 1.36(2)
O10 H10 0.8200
O10 C11 1.40(3)
O11 C12 1.22(2)
O12 C9 1.44(2)
O12 C12 1.38(2)
C7 H7A 0.9700
C7 H7B 0.9700
C7 C8 1.64(3)
C8 H8A 0.9800
C8 C9 1.56(3)
C9 H9A 0.9800
C9 C10 1.44(3)
C10 C11 1.32(3)
C11 C12 1.42(3)

_cod_database_fobs_code 2300648
