#------------------------------------------------------------------------------
#$Date: 2019-12-26 20:21:04 +0200 (Thu, 26 Dec 2019) $
#$Revision: 246043 $
#$URL: file:///home/coder/svn-repositories/cod/cif/2/30/06/2300650.cif $
#------------------------------------------------------------------------------
#
# This file is available in the Crystallography Open Database (COD),
# http://www.crystallography.net/. The original data for this entry
# were provided by IUCr Journals, http://journals.iucr.org/.
#
# The file may be used within the scientific community so long as
# proper attribution is given to the journal article from which the
# data were obtained.
#
data_2300650
loop_
_publ_author_name
'Likhacheva, Anna Y.'
'Rashchenko, Sergey V.'
'Litasov, Konstantin D.'
_publ_section_title
;
 High-pressure structural properties of naphthalene up to 6&#x2005;GPa
;
_journal_coeditor_code           kk5159
_journal_issue                   3
_journal_name_full               'Journal of Applied Crystallography'
_journal_page_first              984
_journal_paper_doi               10.1107/S1600576714005937
_journal_volume                  47
_journal_year                    2014
_chemical_formula_sum            'C5 H4'
_chemical_formula_weight         64.09
_space_group_IT_number           14
_space_group_name_Hall           '-P 2yab'
_space_group_name_H-M_alt        'P 1 21/a 1'
_symmetry_cell_setting           monoclinic
_symmetry_space_group_name_H-M   'P 1 21/a 1'
_audit_creation_date             2013-04-17T17:15
_audit_creation_method           'from EXP file using GSAS2CIF'
_audit_update_record
' 2013-04-17T17:15  Initial CIF as created by GSAS2CIF'
_cell_angle_alpha                90.0
_cell_angle_beta                 123.484(5)
_cell_angle_gamma                90.0
_cell_formula_units_Z            4
_cell_length_a                   8.0840(6)
_cell_length_b                   5.9051(4)
_cell_length_c                   8.5731(13)
_cell_volume                     341.33(7)
_computing_structure_refinement  GSAS
_diffrn_radiation_polarisn_ratio 0.95
_diffrn_radiation_probe          x-ray
_diffrn_radiation_wavelength     0.3685
_exptl_absorpt_correction_T_max  1.00000
_exptl_absorpt_correction_T_min  1.00000
_exptl_absorpt_process_details
;   GSAS Absorption/surface roughness correction: function number 0
 No correction is applied.
;
_pd_calc_method                  'Rietveld Refinement'
_pd_instr_location               ' ?'
_pd_meas_2theta_range_inc        0.0141
_pd_meas_2theta_range_max        31.0128
_pd_meas_2theta_range_min        0.021
_pd_meas_number_of_points        2199
_pd_phase_name                   naphthalene
_pd_prep_pressure                0.41
_pd_proc_2theta_range_inc        0.0141
_pd_proc_2theta_range_max        31.0128
_pd_proc_2theta_range_min        0.021
_pd_proc_info_datetime           2013-04-17T17:15:46
_pd_proc_info_excluded_regions   ' ?'
_pd_proc_ls_background_function
;   GSAS Background function number 1 with 35 terms.
 Shifted Chebyshev function of 1st kind
      1:    5003.80     2:   -803.927     3:    182.123     4:   -489.149    
      5:    289.960     6:   -69.0022     7:   -29.9783     8:    54.3881    
      9:   -26.5437    10:    13.0080    11:   -44.1707    12:    15.6436    
     13:    3.13327    14:   0.773181    15:   0.502545    16:    7.25797    
     17:    9.92558    18:   -1.31081    19:   -7.50858    20:   -4.39242    
     21:   -1.93618    22:   -7.85204    23:    4.72621    24:   0.304959    
     25:    5.57488    26:   -1.16356    27:  -0.744112    28:    6.98011    
     29:   -3.29055    30:   -6.77622    31:    3.37967    32:   -5.61653    
     33:   -3.52521    34:   -18.1967    35:  -0.174369    
;
_pd_proc_ls_peak_cutoff          0.01000
_pd_proc_ls_pref_orient_corr
;   March-Dollase
 AXIS  1 Ratio=     1.330 Frac     0.622  h= 0.000  k= 0.000  l= 1.000
 AXIS  2 Ratio=     1.637 Frac     0.378  h= 1.000  k= 0.000  l= 0.000
 Prefered orientation correction range: Min=   0.43237, Max=   1.74548
;
_pd_proc_ls_profile_function
;
 CW Profile function number 2 with  18 terms
 Profile coefficients for Simpson's rule integration of pseudovoigt function
 C.J. Howard (1982). J. Appl. Cryst.,15,615-620.
 P. Thompson, D.E. Cox & J.B. Hastings (1987). J. Appl. Cryst.,20,79-83.
 #1(GU)   =  630.397 #2(GV)   =  -35.436 #3(GW)   =    4.846
 #4(LX)   =    0.213 #5(LY)   =   21.295 #6(trns) =    0.000
 #7(asym) =   0.2879 #8(shft) =   0.0000 #9(GP)   =    0.000
 #10(stec)=     0.00 #11(ptec)=     0.00 #12(sfec)=     0.00
 #13(L11) =    0.000 #14(L22) =    0.000 #15(L33) =    0.000
 #16(L12) =    0.000 #17(L13) =    0.000 #18(L23) =    0.000
 Peak tails are ignored  where the intensity is below 0.0100 times the peak
   Aniso. broadening axis   0.0   0.0   1.0
;
_pd_proc_ls_prof_R_factor        0.0052
_pd_proc_ls_prof_wR_expected     0.0141
_pd_proc_ls_prof_wR_factor       0.0078
_pd_proc_number_of_points        2199
_pd_spec_mounting                ' ?'
_refine_ls_goodness_of_fit_all   0.56
_refine_ls_matrix_type           full
_refine_ls_number_parameters     31
_refine_ls_number_restraints     10
_refine_ls_R_Fsqd_factor         0.17799
_refine_ls_shift/su_max          4.45
_refine_ls_shift/su_mean         0.97
_reflns_d_resolution_high        1.115
_reflns_d_resolution_low         7.150
_reflns_limit_h_max              7
_reflns_limit_h_min              0
_reflns_limit_k_max              5
_reflns_limit_k_min              0
_reflns_limit_l_max              6
_reflns_limit_l_min              -7
_reflns_number_total             257
_cod_data_source_file            kk5159sup2.cif
_cod_data_source_block           REF1_publ_041
_cod_depositor_comments
;
The following automatic conversions were performed:

data item '_geom_angle_publ_flag' value 'N' was changed to 'n' in
accordance with the
/home/saulius/struct/COD-crude-data/automatic-downloads/DataCite-retrospective/IUCr/depositions/lib/dictionaries/cif_core.dic
dictionary named 'cif_core.dic' version 2.4.2 last updated on
2011-04-26 (15 times).

data item '_geom_bond_publ_flag' value 'N' was changed to 'n' in
accordance with the
/home/saulius/struct/COD-crude-data/automatic-downloads/DataCite-retrospective/IUCr/depositions/lib/dictionaries/cif_core.dic
dictionary named 'cif_core.dic' version 2.4.2 last updated on
2011-04-26 (35 times).

Automatic conversion script
Id: cif_fix_values 7556 2019-12-06 15:28:31Z antanas 
;
_cod_original_cell_volume        341.34(5)
_cod_database_code               2300650
_gsas_exptl_extinct_corr_t_min   1.00000
_gsas_exptl_extinct_corr_t_max   1.00000
loop_
_symmetry_equiv_pos_site_id
_symmetry_equiv_pos_as_xyz
1 +x,+y,+z
2 -x+1/2,+y+1/2,-z
-1 -x,-y,-z
-2 +x+1/2,-y+1/2,+z
loop_
_atom_site_type_symbol
_atom_site_label
_atom_site_fract_x
_atom_site_fract_y
_atom_site_fract_z
_atom_site_occupancy
_atom_site_thermal_displace_type
_atom_site_U_iso_or_equiv
_atom_site_symmetry_multiplicity
C C1 0.0877(7) 0.0189(7) 0.3318(5) 1.0 Uiso 0.056 4
C C2 0.1154(7) 0.1652(7) 0.2226(5) 1.0 Uiso 0.045 4
C C3 0.0479(7) 0.1045(4) 0.0355(4) 1.0 Uiso 0.033 4
C C4 0.0749(7) 0.2523(7) -0.0802(5) 1.0 Uiso 0.033 4
C C5 -0.0100(8) -0.1919(7) 0.2587(5) 1.0 Uiso 0.045 4
H H1 0.1348(28) 0.0637(33) 0.4537(8) 1.0 Uiso 0.067 4
H H2 0.1779(24) 0.3027(11) 0.2766(31) 1.0 Uiso 0.05 4
H H4 0.1364(22) 0.3915(11) -0.0307(34) 1.0 Uiso 0.04 4
H H5 -0.0297(13) -0.2899(16) 0.3324(9) 1.0 Uiso 0.05 4
loop_
_atom_type_symbol
_atom_type_number_in_cell
_atom_type_scat_dispersion_real
_atom_type_scat_dispersion_imag
_atom_type_scat_Cromer_Mann_a1
_atom_type_scat_Cromer_Mann_a2
_atom_type_scat_Cromer_Mann_a3
_atom_type_scat_Cromer_Mann_a4
_atom_type_scat_Cromer_Mann_b1
_atom_type_scat_Cromer_Mann_b2
_atom_type_scat_Cromer_Mann_b3
_atom_type_scat_Cromer_Mann_b4
_atom_type_scat_Cromer_Mann_c
_atom_type_scat_source
C 20.0 0.000 0.000 2.31000 20.8439 1.02000 10.2075 1.58860 0.56870 0.86500
51.6512 0.21560 International_Tables_Vol_C
H 16.0 0.000 0.000 0.49300 10.5109 0.32291 26.1257 0.14019 3.14236 0.04081
57.7997 0.00304 International_Tables_Vol_C
loop_
_geom_angle_atom_site_label_1
_geom_angle_atom_site_label_2
_geom_angle_atom_site_label_3
_geom_angle
_geom_angle_site_symmetry_1
_geom_angle_site_symmetry_3
_geom_angle_publ_flag
C2 C1 C5 120.6(4) 1_555 1_555 n
C2 C1 H1 117.7(14) 1_555 1_555 n
C5 C1 H1 121.8(15) 1_555 1_555 n
C1 C2 C3 120.0(4) 1_555 1_555 n
C1 C2 H2 117.0(18) 1_555 1_555 n
C3 C2 H2 122.9(18) 1_555 1_555 n
C2 C3 C3 119.1(4) 1_555 -1_555 n
C2 C3 C4 121.22(25) 1_555 1_555 n
C3 C3 C4 119.7(4) -1_555 1_555 n
C3 C4 C5 120.6(4) 1_555 -1_555 n
C3 C4 H4 118.1(20) 1_555 1_555 n
C5 C4 H4 121.3(20) -1_555 1_555 n
C1 C5 C4 120.0(4) 1_555 -1_555 n
C1 C5 H5 120.4(7) 1_555 1_555 n
C4 C5 H5 119.6(7) -1_555 1_555 n
loop_
_geom_bond_atom_site_label_1
_geom_bond_atom_site_label_2
_geom_bond_distance
_geom_bond_site_symmetry_2
_geom_bond_publ_flag
C1 C2 1.379(4) 1_555 n
C1 C5 1.421(4) 1_555 n
C1 H1 0.932(6) 1_555 n
C1 H2 1.986(18) 1_555 n
C1 H5 2.057(8) 1_555 n
C2 C1 1.379(4) 1_555 n
C2 C3 1.426(4) 1_555 n
C2 H1 1.992(15) 1_555 n
C2 H2 0.933(6) 1_555 n
C3 C2 1.426(4) 1_555 n
C3 C3 1.405(4) -1_555 n
C3 C4 1.426(4) 1_555 n
C3 H2 2.086(18) 1_555 n
C3 H4 2.038(19) 1_555 n
C4 C3 1.426(4) 1_555 n
C4 C5 1.363(4) -1_555 n
C4 H4 0.933(5) 1_555 n
C4 H5 1.996(8) -1_555 n
C5 C1 1.421(4) 1_555 n
C5 C4 1.363(4) -1_555 n
C5 H1 2.070(15) 1_555 n
C5 H4 2.013(20) -1_555 n
C5 H5 0.933(6) 1_555 n
H1 C1 0.932(6) 1_555 n
H1 C2 1.992(15) 1_555 n
H1 C5 2.070(15) 1_555 n
H2 C1 1.986(18) 1_555 n
H2 C2 0.933(6) 1_555 n
H2 C3 2.086(18) 1_555 n
H4 C3 2.038(19) 1_555 n
H4 C4 0.933(5) 1_555 n
H4 C5 2.013(20) -1_555 n
H5 C1 2.057(8) 1_555 n
H5 C4 1.996(8) -1_555 n
H5 C5 0.933(6) 1_555 n
loop_
_pd_meas_counts_total
_pd_proc_ls_weight
_pd_proc_intensity_bkg_calc
_pd_calc_intensity_total
0.0 . . .
0.0 . . .
0.0 . . .
0.0 . . .
0.0 . . .
0.0 . . .
0.0 . . .
0.0 . . .
0.0 . . .
0.0 . . .
0.0 . . .
0.0 . . .
0.0 . . .
0.0 . . .
0.0 . . .
0.0 . . .
0.0 . . .
0.0 . . .
0.0 . . .
0.0 . . .
0.0 . . .
0.0 . . .
0.0 . . .
0.0 . . .
0.0 . . .
0.0 . . .
0.0 . . .
0.0 . . .
0.0 . . .
0.0 . . .
0.0 . . .
0.0 . . .
0.0 . . .
0.0 . . .
0.0 . . .
0.0 . . .
0.0 . . .
0.0 . . .
0.0 . . .
0.0 . . .
0.0 . . .
0.0 . . .
0.0 . . .
0.0 . . .
0.0 . . .
0.0 . . .
0.0 . . .
0.0 . . .
0.0 . . .
0.0 . . .
0.0 . . .
0.0 . . .
0.0 . . .
0.0 . . .
0.0 . . .
0.0 . . .
0.0 . . .
0.0 . . .
0.0 . . .
0.0 . . .
0.0 . . .
0.0 . . .
0.0 . . .
0.0 . . .
0.0 . . .
0.0 . . .
0.0 . . .
1330.0 . . .
1330.0 . . .
1380.0 . . .
1330.0 . . .
1440.0 . . .
1510.0 . . .
1620.0 . . .
1510.0 . . .
1410.0 . . .
1270.0 . . .
1160.0 . . .
1180.0 . . .
1270.0 . . .
1290.0 . . .
1250.0 . . .
1270.0 . . .
1320.0 . . .
1330.0 . . .
1290.0 . . .
1290.0 . . .
1300.0 . . .
1310.0 . . .
1250.0 . . .
1250.0 . . .
1270.0 . . .
1290.0 . . .
1260.0 . . .
1250.0 . . .
1230.0 . . .
1210.0 . . .
1230.0 . . .
1250.0 . . .
1260.0 . . .
1250.0 . . .
1230.0 . . .
1220.0 . . .
1200.0 . . .
1220.0 . . .
1310.0 . . .
1420.0 . . .
1520.0 . . .
1610.0 . . .
1780.0 . . .
1960.0 . . .
2090.0 . . .
2240.0 . . .
2350.0 . . .
2470.0 . . .
2600.0 . . .
2730.0 . . .
2860.0 . . .
3010.0 . . .
3150.0 . . .
3250.0 . . .
3320.0 . . .
3320.0 . . .
3300.0 . . .
3310.0 . . .
3350.0 . . .
3430.0 . . .
3550.0 . . .
3640.0 . . .
3670.0 . . .
3730.0 . . .
3780.0 . . .
3810.0 . . .
3890.0 . . .
3990.0 . . .
4100.0 . . .
4120.0 . . .
4120.0 . . .
4130.0 . . .
4100.0 . . .
4120.0 . . .
4170.0 . . .
4250.0 . . .
4330.0 . . .
4450.0 . . .
4580.0 . . .
4710.0 . . .
4750.0 . . .
4810.0 . . .
4910.0 . . .
4990.0 . . .
5050.0 . . .
5190.0 . . .
5330.0 . . .
5400.0 . . .
5500.0 . . .
5540.0 . . .
5590.0 . . .
5640.0 . . .
5660.0 . . .
5750.0 . . .
5870.0 . . .
5910.0 . . .
5990.0 . . .
6050.0 . . .
6090.0 . . .
6180.0 . . .
6210.0 . . .
6200.0 . . .
6220.0 . . .
6270.0 . . .
6310.0 . . .
6370.0 . . .
6420.0 . . .
6470.0 . . .
6470.0 . . .
6480.0 . . .
6520.0 . . .
6500.0 . . .
6540.0 . . .
6590.0 . . .
6600.0 . . .
6610.0 . . .
6620.0 . . .
6610.0 . . .
6620.0 . . .
6610.0 . . .
6600.0 . . .
6590.0 . . .
6580.0 . . .
6630.0 . . .
6680.0 0.0001497 6694.28125 6694.28125
6700.0 0.0001493 6653.05273 6653.05273
6660.0 0.0001502 6631.35742 6631.35742
6650.0 0.0001504 6622.51855 6622.51855
6660.0 0.0001502 6621.50830 6621.50830
6650.0 0.0001504 6624.64063 6635.19971
6690.0 0.0001495 6629.28564 6642.18750
6680.0 0.0001497 6633.65332 6649.91113
6620.0 0.0001511 6636.58643 6658.73438
6620.0 0.0001511 6637.42334 6674.12939
6680.0 0.0001497 6635.86133 6714.99121
6770.0 0.0001477 6631.86084 6822.74609
6920.0 0.0001445 6625.55713 7055.79199
7310.0 0.0001368 6617.19678 7450.60400
8020.0 0.0001247 6607.09473 7961.21191
8640.0 0.0001157 6595.59229 8410.45117
8670.0 0.0001153 6583.03320 8549.21387
8180.0 0.0001222 6569.72998 8238.73242
7520.0 0.0001330 6555.97168 7618.89697
7060.0 0.0001416 6541.99951 7051.07715
6800.0 0.0001471 6528.01172 6721.48242
6680.0 0.0001497 6514.16357 6584.55420
6610.0 0.0001513 6500.55713 6534.17041
6530.0 0.0001531 6487.25781 6509.49609
6490.0 0.0001541 6474.29443 6491.22900
6480.0 0.0001543 6461.66309 6475.16357
6450.0 0.0001550 6449.32813 6460.35498
6400.0 0.0001562 6437.23682 6437.23682
6420.0 0.0001558 6425.32275 6425.32275
6410.0 0.0001560 6413.50098 6413.50098
6370.0 0.0001570 6401.68750 6401.68750
6360.0 0.0001572 6389.79102 6389.79102
6370.0 0.0001570 6377.72266 6377.72266
6350.0 0.0001575 6365.40137 6365.40137
6360.0 0.0001572 6352.74805 6352.74805
6330.0 0.0001580 6339.69531 6339.69531
6310.0 0.0001585 6326.18457 6326.18457
6280.0 0.0001592 6312.17041 6312.17041
6260.0 0.0001597 6297.61816 6297.61816
6260.0 0.0001597 6282.50830 6282.50830
6270.0 0.0001595 6266.82910 6266.82910
6220.0 0.0001608 6250.58594 6250.58594
6230.0 0.0001605 6233.79004 6233.79004
6240.0 0.0001603 6216.46484 6216.46484
6230.0 0.0001605 6198.64600 6198.64600
6230.0 0.0001605 6180.37451 6180.37451
6220.0 0.0001608 6161.69727 6161.69727
6160.0 0.0001623 6142.66992 6142.66992
6100.0 0.0001639 6123.35059 6123.35059
6070.0 0.0001647 6103.80322 6103.80322
6060.0 0.0001650 6084.08789 6084.08789
6000.0 0.0001667 6064.27148 6064.27148
6010.0 0.0001664 6044.41846 6044.41846
6010.0 0.0001664 6024.59277 6024.59277
6000.0 0.0001667 6004.85303 6004.85303
6000.0 0.0001667 5985.25781 5985.25781
6040.0 0.0001656 5965.86475 5965.86475
6030.0 0.0001658 5946.71631 5946.71631
5970.0 0.0001675 5927.86523 5927.86523
5910.0 0.0001692 5909.34668 5909.34668
5880.0 0.0001701 5891.19629 5891.19629
5880.0 0.0001701 5873.44238 5873.44238
5870.0 0.0001704 5856.10498 5856.10498
5850.0 0.0001709 5839.20703 5839.20703
5830.0 0.0001715 5822.75293 5822.75293
5800.0 0.0001724 5806.75244 5806.75244
5770.0 0.0001733 5791.20313 5791.20313
5750.0 0.0001739 5776.10205 5776.10205
5740.0 0.0001742 5761.43799 5761.43799
5770.0 0.0001733 5747.19678 5747.19678
5760.0 0.0001736 5733.36377 5733.36377
5730.0 0.0001745 5719.91260 5719.91260
5690.0 0.0001757 5706.81982 5706.81982
5680.0 0.0001761 5694.05908 5694.05908
5680.0 0.0001761 5681.60156 5681.60156
5670.0 0.0001764 5669.41504 5669.41504
5680.0 0.0001761 5657.46582 5657.46582
5640.0 0.0001773 5645.72510 5645.72510
5570.0 0.0001795 5634.15527 5634.15527
5590.0 0.0001789 5622.72461 5622.72461
5630.0 0.0001776 5611.39795 5611.39795
5620.0 0.0001779 5600.14697 5600.14697
5620.0 0.0001779 5588.93799 5588.93799
5580.0 0.0001792 5577.74268 5577.74268
5550.0 0.0001802 5566.53418 5566.53418
5530.0 0.0001808 5555.28516 5555.28516
5550.0 0.0001802 5543.97314 5543.97314
5570.0 0.0001795 5532.57520 5532.57520
5580.0 0.0001792 5521.07666 5521.07666
5540.0 0.0001805 5509.46045 5509.46045
5530.0 0.0001808 5497.71191 5497.71191
5470.0 0.0001828 5485.82227 5485.82227
5410.0 0.0001848 5473.78076 5473.78076
5370.0 0.0001862 5461.58594 5461.58594
5360.0 0.0001866 5449.23633 5449.23633
5390.0 0.0001855 5436.73096 5436.73096
5420.0 0.0001845 5424.07227 5424.07227
5390.0 0.0001855 5411.26563 5411.26563
5400.0 0.0001852 5398.31982 5398.31982
5400.0 0.0001852 5385.24658 5385.24658
5380.0 0.0001859 5372.05469 5372.05469
5370.0 0.0001862 5358.76074 5358.76074
5320.0 0.0001880 5345.37598 5345.37598
5330.0 0.0001876 5331.92383 5331.92383
5320.0 0.0001880 5318.41797 5318.41797
5300.0 0.0001887 5304.87695 5304.87695
5280.0 0.0001894 5291.32568 5291.32568
5280.0 0.0001894 5277.78369 5277.78369
5290.0 0.0001890 5264.26514 5264.26514
5310.0 0.0001883 5250.80127 5250.80127
5290.0 0.0001890 5237.41211 5237.41211
5250.0 0.0001905 5224.11523 5224.11523
5230.0 0.0001912 5210.93359 5210.93359
5190.0 0.0001927 5197.89160 5197.89160
5180.0 0.0001931 5185.00293 5185.00293
5200.0 0.0001923 5172.29590 5172.29590
5190.0 0.0001927 5159.78320 5159.78320
5180.0 0.0001931 5147.48389 5147.48389
5180.0 0.0001931 5135.41992 5135.41992
5130.0 0.0001949 5123.59814 5123.59814
5120.0 0.0001953 5112.04150 5112.04150
5100.0 0.0001961 5100.75586 5111.39063
5070.0 0.0001972 5089.75830 5102.46729
5080.0 0.0001969 5079.05811 5094.51172
5090.0 0.0001965 5068.66211 5087.89404
5120.0 0.0001953 5058.58057 5084.43311
5130.0 0.0001949 5048.81592 5086.13428
5140.0 0.0001946 5039.37646 5106.28809
5190.0 0.0001927 5030.26074 5178.23828
5320.0 0.0001880 5021.47412 5363.01465
5700.0 0.0001754 5013.01563 5726.10840
6340.0 0.0001577 5004.88184 6251.42285
6870.0 0.0001456 4997.07178 6749.77002
6850.0 0.0001460 4989.58203 6923.59619
6430.0 0.0001555 4982.40674 6543.98828
5930.0 0.0001686 4975.53857 5968.20459
5560.0 0.0001799 4968.97119 5530.92578
5340.0 0.0001873 4962.69580 5303.11719
5250.0 0.0001905 4956.70264 5242.44043
5310.0 0.0001883 4950.98340 5364.17920
5630.0 0.0001776 4945.52490 5802.67139
6560.0 0.0001524 4940.31543 6764.73633
8370.0 0.0001195 4935.34619 8305.09082
10300.0 0.0000971 4930.59961 9972.11816
10700.0 0.0000935 4926.06445 10772.52344
9530.0 0.0001049 4921.73145 9899.53320
7820.0 0.0001279 4917.58301 8020.52246
6460.0 0.0001548 4913.60547 6390.40723
5660.0 0.0001767 4909.78857 5495.76221
5250.0 0.0001905 4906.11230 5145.24268
5080.0 0.0001969 4902.57129 5030.58008
5000.0 0.0002000 4899.14648 4987.39795
4960.0 0.0002016 4895.82617 4963.50000
4930.0 0.0002028 4892.59961 4946.60400
4900.0 0.0002041 4889.45313 4933.56445
4870.0 0.0002053 4886.37305 4886.37305
4890.0 0.0002045 4883.35010 4883.35010
4910.0 0.0002037 4880.37207 4880.37207
4900.0 0.0002041 4877.43262 4877.43262
4890.0 0.0002045 4874.51758 4874.51758
4860.0 0.0002058 4871.62109 4871.62109
4860.0 0.0002058 4868.73291 4868.73291
4850.0 0.0002062 4865.84229 4865.84229
4840.0 0.0002066 4862.94971 4862.94971
4830.0 0.0002070 4860.04590 4860.04590
4860.0 0.0002058 4857.12305 4857.12305
4860.0 0.0002058 4854.17773 4854.17773
4850.0 0.0002062 4851.20605 4851.20605
4860.0 0.0002058 4848.20605 4867.44092
4860.0 0.0002058 4845.17383 4868.32275
4860.0 0.0002058 4842.10742 4870.50146
4850.0 0.0002062 4839.00635 4874.81396
4850.0 0.0002062 4835.86719 4883.76025
4880.0 0.0002049 4832.69336 4906.64648
4940.0 0.0002024 4829.48047 4973.69824
5120.0 0.0001953 4826.23779 5157.22021
5570.0 0.0001795 4822.96094 5569.62891
6370.0 0.0001570 4819.65088 6274.25635
7290.0 0.0001372 4816.31396 7099.40527
7680.0 0.0001302 4812.95166 7593.68896
7290.0 0.0001372 4809.56689 7313.30029
6500.0 0.0001538 4806.16309 6461.08887
5760.0 0.0001736 4802.74365 5639.83350
5290.0 0.0001890 4799.31445 5147.89014
5030.0 0.0001988 4795.87891 4938.25000
4900.0 0.0002041 4792.44287 4865.24805
4850.0 0.0002062 4789.00879 4837.51025
4780.0 0.0002092 4785.58350 4822.31348
4770.0 0.0002096 4782.16943 4811.33301
4750.0 0.0002105 4778.77148 4802.51318
4760.0 0.0002101 4775.39941 4775.39941
4780.0 0.0002092 4772.05566 4772.05566
4770.0 0.0002096 4768.74121 4768.74121
4750.0 0.0002105 4765.46436 4765.46436
4730.0 0.0002114 4762.22852 4762.22852
4710.0 0.0002123 4759.03857 4759.03857
4700.0 0.0002128 4755.89844 4755.89844
4690.0 0.0002132 4752.81396 4752.81396
4690.0 0.0002132 4749.78516 4749.78516
4710.0 0.0002123 4746.81885 4746.81885
4730.0 0.0002114 4743.91748 4743.91748
4730.0 0.0002114 4741.08301 4741.08301
4750.0 0.0002105 4738.31934 4738.31934
4750.0 0.0002105 4735.62549 4735.62549
4710.0 0.0002123 4733.01270 4733.01270
4720.0 0.0002119 4730.47217 4734.16797
4730.0 0.0002114 4728.01318 4732.44824
4740.0 0.0002110 4725.63281 4731.05225
4730.0 0.0002114 4723.33301 4730.12549
4710.0 0.0002123 4721.11670 4730.06299
4730.0 0.0002114 4718.98047 4732.27783
4730.0 0.0002114 4716.92773 4741.52637
4750.0 0.0002105 4714.95752 4769.89404
4810.0 0.0002079 4713.06738 4837.65332
4940.0 0.0002024 4711.26270 4959.00342
5120.0 0.0001953 4709.53467 5109.54492
5220.0 0.0001916 4707.88672 5208.35986
5190.0 0.0001927 4706.31885 5173.25586
5050.0 0.0001980 4704.82373 5027.21729
4910.0 0.0002037 4703.40674 4875.96924
4820.0 0.0002075 4702.06055 4780.39893
4790.0 0.0002088 4700.78613 4740.27441
4780.0 0.0002092 4699.58154 4734.94434
4810.0 0.0002079 4698.44287 4752.32764
4840.0 0.0002066 4697.36963 4786.74463
4860.0 0.0002058 4696.35645 4824.00049
4830.0 0.0002070 4695.40332 4839.05322
4770.0 0.0002096 4694.50977 4811.45020
4730.0 0.0002114 4693.66748 4769.59326
4710.0 0.0002123 4692.87891 4732.03613
4690.0 0.0002132 4692.13770 4710.82471
4690.0 0.0002132 4691.44531 4702.26563
4720.0 0.0002119 4690.79590 4700.07422
4730.0 0.0002114 4690.18896 4701.65039
4730.0 0.0002114 4689.62061 4709.39648
4750.0 0.0002105 4689.09424 4731.24170
4770.0 0.0002096 4688.59766 4778.02393
4810.0 0.0002079 4688.13574 4850.20654
4870.0 0.0002053 4687.70410 4924.82715
4880.0 0.0002049 4687.30273 4953.11719
4820.0 0.0002075 4686.92871 4918.35889
4740.0 0.0002110 4686.57910 4837.44287
4700.0 0.0002128 4686.25439 4770.38428
4720.0 0.0002119 4685.95264 4735.06494
4730.0 0.0002114 4685.67236 4724.79297
4760.0 0.0002101 4685.41357 4730.89941
4840.0 0.0002066 4685.17188 4779.81885
4980.0 0.0002008 4684.95166 4863.23145
5260.0 0.0001901 4684.74756 5054.66260
5650.0 0.0001770 4684.56396 5397.78906
6010.0 0.0001664 4684.39648 5831.76855
6110.0 0.0001637 4684.24365 6153.35693
5920.0 0.0001689 4684.11084 6141.95166
5660.0 0.0001767 4683.99609 5888.49414
5590.0 0.0001789 4683.89697 5777.98584
5940.0 0.0001684 4683.81689 6090.11133
6700.0 0.0001493 4683.75342 6766.86230
7380.0 0.0001355 4683.70801 7378.16650
7340.0 0.0001362 4683.68359 7386.09766
6670.0 0.0001499 4683.67773 6711.89063
5900.0 0.0001695 4683.69580 5867.04395
5350.0 0.0001869 4683.73193 5264.39697
5060.0 0.0001976 4683.79297 4973.93604
4940.0 0.0002024 4683.87695 4866.75928
4880.0 0.0002049 4683.98584 4839.17090
4810.0 0.0002079 4684.12012 4812.36279
4760.0 0.0002101 4684.28027 4776.08691
4750.0 0.0002105 4684.47119 4743.60693
4740.0 0.0002110 4684.68848 4722.52197
4750.0 0.0002105 4684.93506 4690.51758
4730.0 0.0002114 4685.21387 4688.10156
4710.0 0.0002123 4685.52441 4687.42383
4720.0 0.0002119 4685.86816 4687.29785
4730.0 0.0002114 4686.24463 4687.37939
4700.0 0.0002128 4686.65576 4687.58057
4690.0 0.0002132 4687.10254 4687.10254
4690.0 0.0002132 4687.58594 4687.58594
4690.0 0.0002132 4688.10547 4688.21094
4700.0 0.0002128 4688.66211 4688.78760
4680.0 0.0002137 4689.25879 4689.41064
4680.0 0.0002137 4689.89111 4690.07910
4700.0 0.0002128 4690.56299 4690.80371
4740.0 0.0002110 4691.27295 4691.60791
4750.0 0.0002105 4692.02246 4692.57764
4750.0 0.0002105 4692.80957 4693.94531
4730.0 0.0002114 4693.63428 4696.16797
4730.0 0.0002114 4694.49805 4699.90527
4730.0 0.0002114 4695.40039 4704.63916
4710.0 0.0002123 4696.33740 4708.96240
4670.0 0.0002141 4697.31494 4710.58447
4680.0 0.0002137 4698.32520 4708.89795
4690.0 0.0002132 4699.36865 4706.19922
4660.0 0.0002146 4700.44922 4704.84863
4670.0 0.0002141 4701.56250 4705.96631
4670.0 0.0002141 4702.70801 4709.87158
4690.0 0.0002132 4703.88232 4716.09033
4690.0 0.0002132 4705.08643 4723.74756
4680.0 0.0002137 4706.32031 4727.16553
4680.0 0.0002137 4707.58008 4725.47852
4700.0 0.0002128 4708.86182 4721.14404
4720.0 0.0002119 4710.17139 4717.50928
4720.0 0.0002119 4711.49854 4721.44482
4700.0 0.0002128 4712.84570 4722.46875
4700.0 0.0002128 4714.21338 4724.56445
4720.0 0.0002119 4715.59717 4727.26758
4730.0 0.0002114 4716.99365 4730.46582
4720.0 0.0002119 4718.40479 4734.26709
4710.0 0.0002123 4719.82520 4738.99463
4710.0 0.0002123 4721.25391 4745.45410
4700.0 0.0002128 4722.68994 4757.02051
4720.0 0.0002119 4724.13379 4781.09766
4760.0 0.0002101 4725.57910 4831.14697
4830.0 0.0002070 4727.02637 4920.10498
4960.0 0.0002016 4728.47412 5045.05029
5080.0 0.0001969 4729.92139 5182.29932
5250.0 0.0001905 4731.36279 5320.07324
5570.0 0.0001795 4732.80176 5509.19287
6020.0 0.0001661 4734.23486 5805.16748
6360.0 0.0001572 4735.65918 6112.04736
6300.0 0.0001587 4737.07959 6194.39795
5920.0 0.0001689 4738.48584 5927.72705
5480.0 0.0001825 4739.88086 5497.34473
5170.0 0.0001934 4741.26611 5135.07373
4970.0 0.0002012 4742.63818 4923.16846
4860.0 0.0002058 4743.99707 4829.13281
4810.0 0.0002079 4745.34229 4794.05957
4790.0 0.0002088 4746.67188 4777.72266
4790.0 0.0002088 4747.98633 4771.78955
4810.0 0.0002079 4749.28760 4768.36719
4820.0 0.0002075 4750.57471 4766.23438
4790.0 0.0002088 4751.84424 4751.84473
4770.0 0.0002096 4753.10059 4753.10156
4770.0 0.0002096 4754.34326 4754.34424
4750.0 0.0002105 4755.56934 4755.57080
4760.0 0.0002101 4756.78223 4756.78418
4780.0 0.0002092 4757.98193 4757.98486
4780.0 0.0002092 4759.17139 4759.29150
4780.0 0.0002092 4760.34912 4760.49072
4750.0 0.0002105 4761.51514 4763.11084
4730.0 0.0002114 4762.67529 4764.47510
4740.0 0.0002110 4763.82568 4765.86035
4740.0 0.0002110 4764.96973 4767.27148
4760.0 0.0002101 4766.11182 4768.72754
4780.0 0.0002092 4767.24707 4771.03906
4780.0 0.0002092 4768.38037 4772.75977
4780.0 0.0002092 4769.51709 4774.64697
4770.0 0.0002096 4770.65381 4776.75684
4790.0 0.0002088 4771.79492 4779.20801
4800.0 0.0002083 4772.93994 4782.26465
4800.0 0.0002083 4774.09326 4786.71484
4800.0 0.0002083 4775.25586 4794.83203
4790.0 0.0002088 4776.43359 4812.24951
4830.0 0.0002070 4777.61914 4849.45361
4900.0 0.0002041 4778.82422 4918.47510
5000.0 0.0002000 4780.04688 5019.81982
5090.0 0.0001965 4781.28906 5125.87305
5130.0 0.0001949 4782.55225 5183.99902
5100.0 0.0001961 4783.84082 5158.55420
5060.0 0.0001976 4785.15332 5086.64209
5050.0 0.0001980 4786.49463 5034.65820
5070.0 0.0001972 4787.86621 5022.69287
5050.0 0.0001980 4789.26904 5019.72998
4990.0 0.0002004 4790.70361 4987.18945
4910.0 0.0002037 4792.17480 4928.53320
4870.0 0.0002053 4793.68262 4872.54004
4840.0 0.0002066 4795.22559 4835.67773
4830.0 0.0002070 4796.80859 4817.61426
4810.0 0.0002079 4798.43359 4810.80420
4790.0 0.0002088 4800.10010 4808.87305
4790.0 0.0002088 4801.80908 4808.71484
4790.0 0.0002088 4803.56348 4809.24951
4820.0 0.0002075 4805.35938 4810.14551
4810.0 0.0002079 4807.20264 4811.29248
4800.0 0.0002083 4809.09131 4812.52002
4820.0 0.0002075 4811.02490 4812.55518
4830.0 0.0002070 4813.00586 4814.32910
4830.0 0.0002070 4815.03516 4816.21094
4830.0 0.0002070 4817.10840 4818.14844
4840.0 0.0002066 4819.22852 4820.15674
4840.0 0.0002066 4821.39404 4821.55713
4840.0 0.0002066 4823.60547 4823.78857
4840.0 0.0002066 4825.86279 4826.06885
4850.0 0.0002062 4828.16016 4828.39453
4840.0 0.0002066 4830.50391 4830.77246
4840.0 0.0002066 4832.88721 4833.97998
4860.0 0.0002058 4835.31201 4836.54688
4850.0 0.0002062 4837.77637 4839.18604
4860.0 0.0002058 4840.27686 4841.91016
4840.0 0.0002066 4842.81348 4844.75928
4810.0 0.0002079 4845.38525 4847.82568
4810.0 0.0002079 4847.98730 4851.28076
4840.0 0.0002066 4850.62061 4855.36768
4860.0 0.0002058 4853.28125 4860.30811
4860.0 0.0002058 4855.96777 4866.29736
4900.0 0.0002041 4858.67920 4873.68555
4920.0 0.0002033 4861.41064 4883.20459
4930.0 0.0002028 4864.15771 4895.38379
4950.0 0.0002020 4866.92285 4909.01270
4970.0 0.0002012 4869.70215 4922.40381
4990.0 0.0002004 4872.48926 4939.12891
5000.0 0.0002000 4875.28369 4969.23340
5030.0 0.0001988 4878.08545 5016.20313
5050.0 0.0001980 4880.88770 5064.55518
5030.0 0.0001988 4883.68750 5083.63330
4990.0 0.0002004 4886.48535 5056.55078
4960.0 0.0002016 4889.27588 5004.84912
4950.0 0.0002020 4892.05811 4957.16016
4930.0 0.0002028 4894.82764 4927.28223
4920.0 0.0002033 4897.58203 4913.75244
4920.0 0.0002033 4900.31738 4909.72217
4920.0 0.0002033 4903.03174 4909.75684
4910.0 0.0002037 4905.72510 4911.24512
4930.0 0.0002028 4908.39111 4913.25146
4920.0 0.0002033 4911.02979 4915.55566
4920.0 0.0002033 4913.63721 4918.06348
4930.0 0.0002028 4916.21387 4920.78760
4910.0 0.0002037 4918.75342 4923.66895
4910.0 0.0002037 4921.25732 4927.42676
4910.0 0.0002037 4923.72070 4933.63623
4910.0 0.0002037 4926.14355 4944.10791
4920.0 0.0002033 4928.52588 4965.53125
4960.0 0.0002016 4930.86182 4996.06201
5000.0 0.0002000 4933.15332 5035.02637
5020.0 0.0001992 4935.39746 5066.49463
5010.0 0.0001996 4937.59473 5071.10889
4980.0 0.0002008 4939.74268 5047.03271
4950.0 0.0002020 4941.84277 5013.21143
4940.0 0.0002024 4943.89355 4986.33691
4920.0 0.0002033 4945.89160 4971.79443
4910.0 0.0002037 4947.84375 4967.41211
4910.0 0.0002037 4949.74219 4969.65918
4950.0 0.0002020 4951.59033 4977.66357
5000.0 0.0002000 4953.38867 4994.39600
5050.0 0.0001980 4955.13965 5026.35986
5110.0 0.0001957 4956.84131 5081.96973
5220.0 0.0001916 4958.49512 5167.39160
5330.0 0.0001876 4960.10303 5278.61670
5430.0 0.0001842 4961.66699 5395.21191
5530.0 0.0001808 4963.18506 5479.21582
5560.0 0.0001799 4964.65967 5480.41992
5480.0 0.0001825 4966.09766 5388.36230
5330.0 0.0001876 4967.49707 5258.89111
5200.0 0.0001923 4968.85645 5144.92627
5130.0 0.0001949 4970.18604 5067.83496
5070.0 0.0001972 4971.48047 5024.31299
5020.0 0.0001992 4972.74658 5002.74902
4990.0 0.0002004 4973.98828 4992.85400
4980.0 0.0002008 4975.20215 4988.70215
4980.0 0.0002008 4976.39746 4986.86963
4990.0 0.0002004 4977.57568 4986.15771
5000.0 0.0002000 4978.73828 4986.00293
4990.0 0.0002004 4979.88867 4986.18018
5000.0 0.0002000 4981.02979 4986.58936
5000.0 0.0002000 4982.16797 4987.22412
4980.0 0.0002008 4983.30078 4988.00146
4980.0 0.0002008 4984.43750 4989.32227
5000.0 0.0002000 4985.57910 4991.32520
5010.0 0.0001996 4986.72705 4991.95801
5000.0 0.0002000 4987.88965 4995.35156
5010.0 0.0001996 4989.06592 4998.50244
5010.0 0.0001996 4990.26074 5000.76660
4990.0 0.0002004 4991.47607 5003.40576
4980.0 0.0002008 4992.71875 5008.52783
5020.0 0.0001992 4993.98926 5017.67725
5030.0 0.0001988 4995.29102 5030.00879
5020.0 0.0001992 4996.62744 5040.45996
5030.0 0.0001988 4998.00049 5043.81104
5000.0 0.0002000 4999.41797 5040.41211
4990.0 0.0002004 5000.87598 5037.38330
5020.0 0.0001992 5002.38574 5041.55811
5060.0 0.0001976 5003.93896 5054.07813
5060.0 0.0001976 5005.54883 5069.15039
5060.0 0.0001976 5007.21045 5076.44092
5060.0 0.0001976 5008.92773 5069.79248
5040.0 0.0001984 5010.70313 5054.60645
5040.0 0.0001984 5012.53906 5040.01807
5060.0 0.0001976 5014.43701 5031.14600
5060.0 0.0001976 5016.39893 5029.14697
5060.0 0.0001976 5018.42432 5033.63281
5060.0 0.0001976 5020.51514 5044.35693
5040.0 0.0001984 5022.67480 5060.16162
5070.0 0.0001972 5024.90088 5077.17725
5100.0 0.0001961 5027.19434 5088.61084
5110.0 0.0001957 5029.55811 5089.65674
5100.0 0.0001961 5031.98779 5083.11865
5110.0 0.0001957 5034.48682 5074.84033
5120.0 0.0001953 5037.05225 5066.73145
5100.0 0.0001961 5039.68506 5059.65674
5100.0 0.0001961 5042.38574 5054.78027
5090.0 0.0001965 5045.14990 5052.39941
5080.0 0.0001969 5047.97998 5051.90869
5080.0 0.0001969 5050.86963 5053.30029
5090.0 0.0001965 5053.82129 5055.53613
5080.0 0.0001969 5056.83008 5058.18115
5070.0 0.0001972 5059.89990 5061.03564
5080.0 0.0001969 5063.01904 5064.01074
5070.0 0.0001972 5066.19189 5067.08398
5060.0 0.0001976 5069.41260 5070.23975
5060.0 0.0001976 5072.67969 5073.47412
5060.0 0.0001976 5075.99072 5076.79248
5080.0 0.0001969 5079.34033 5079.94287
5080.0 0.0001969 5082.72314 5083.60791
5060.0 0.0001976 5086.13965 5087.68848
5050.0 0.0001980 5089.58643 5092.56348
5060.0 0.0001976 5093.05518 5098.25391
5080.0 0.0001969 5096.54395 5104.78320
5090.0 0.0001965 5100.05225 5111.06201
5090.0 0.0001965 5103.56689 5115.54004
5100.0 0.0001961 5107.09180 5117.50586
5100.0 0.0001961 5110.61768 5118.05225
5090.0 0.0001965 5114.14160 5118.68945
5080.0 0.0001969 5117.66016 5120.18652
5070.0 0.0001972 5121.16699 5122.59131
5070.0 0.0001972 5124.65771 5125.61230
5080.0 0.0001969 5128.12402 5128.97168
5100.0 0.0001961 5131.56641 5132.58252
5080.0 0.0001969 5134.97852 5136.55615
5090.0 0.0001965 5138.35303 5141.15332
5120.0 0.0001953 5141.68799 5146.59180
5130.0 0.0001949 5144.97803 5152.69629
5140.0 0.0001946 5148.21680 5158.59082
5120.0 0.0001953 5151.40186 5162.85059
5130.0 0.0001949 5154.52588 5164.67188
5140.0 0.0001946 5157.58740 5164.95557
5130.0 0.0001949 5160.57861 5165.12842
5120.0 0.0001953 5163.49609 5167.05176
5130.0 0.0001949 5166.33643 5168.83447
5130.0 0.0001949 5169.09619 5171.17139
5130.0 0.0001949 5171.77197 5173.77393
5150.0 0.0001942 5174.35791 5176.45703
5150.0 0.0001942 5176.85010 5179.46289
5160.0 0.0001938 5179.24463 5182.17236
5160.0 0.0001938 5181.54297 5184.88281
5170.0 0.0001934 5183.73730 5188.11426
5170.0 0.0001934 5185.82617 5191.03369
5180.0 0.0001931 5187.80469 5194.07373
5180.0 0.0001931 5189.67432 5197.57031
5200.0 0.0001923 5191.42871 5202.30322
5220.0 0.0001916 5193.06934 5210.25293
5260.0 0.0001901 5194.59277 5225.29004
5300.0 0.0001887 5195.99805 5253.00049
5380.0 0.0001859 5197.28320 5297.00342
5460.0 0.0001832 5198.44580 5353.37305
5510.0 0.0001815 5199.48877 5405.96777
5530.0 0.0001808 5200.40674 5430.50879
5550.0 0.0001802 5201.20410 5416.33350
5530.0 0.0001808 5201.87695 5381.79590
5510.0 0.0001815 5202.42725 5350.27246
5510.0 0.0001815 5202.85498 5331.49121
5470.0 0.0001828 5203.16211 5324.78467
5450.0 0.0001835 5203.34814 5326.74707
5430.0 0.0001842 5203.41260 5329.74609
5390.0 0.0001855 5203.36182 5322.48535
5340.0 0.0001873 5203.19141 5300.62109
5290.0 0.0001890 5202.90869 5271.87500
5260.0 0.0001901 5202.51172 5245.87891
5220.0 0.0001916 5202.00732 5227.42090
5200.0 0.0001923 5201.39307 5216.59814
5200.0 0.0001923 5200.67188 5211.21924
5200.0 0.0001923 5199.85107 5209.68359
5200.0 0.0001923 5198.93164 5209.18701
5170.0 0.0001934 5197.91553 5209.96973
5150.0 0.0001942 5196.80811 5208.39648
5160.0 0.0001938 5195.61133 5206.97705
5170.0 0.0001934 5194.33105 5204.65820
5170.0 0.0001934 5192.96973 5202.65430
5180.0 0.0001931 5191.53223 5200.88037
5180.0 0.0001931 5190.02051 5200.25684
5170.0 0.0001934 5188.44336 5199.92090
5150.0 0.0001942 5186.80518 5199.28564
5140.0 0.0001946 5185.10352 5198.07471
5140.0 0.0001946 5183.34863 5199.07861
5160.0 0.0001938 5181.54590 5204.02441
5190.0 0.0001927 5179.69727 5216.70801
5180.0 0.0001931 5177.80859 5240.93799
5220.0 0.0001916 5175.88379 5278.09912
5290.0 0.0001890 5173.92969 5323.25586
5370.0 0.0001862 5171.94971 5362.91895
5390.0 0.0001855 5169.95117 5381.79102
5400.0 0.0001852 5167.93311 5373.35107
5370.0 0.0001862 5165.90186 5340.95508
5320.0 0.0001880 5163.86719 5300.41406
5280.0 0.0001894 5161.82715 5266.44824
5260.0 0.0001901 5159.79395 5243.33496
5240.0 0.0001908 5157.76367 5226.45313
5220.0 0.0001916 5155.74219 5213.31299
5190.0 0.0001927 5153.73926 5204.16748
5170.0 0.0001934 5151.75342 5200.67871
5170.0 0.0001934 5149.79248 5201.99463
5160.0 0.0001938 5147.85596 5203.96191
5160.0 0.0001938 5145.95117 5202.37939
5170.0 0.0001934 5144.08008 5198.46436
5160.0 0.0001938 5142.24609 5199.08105
5170.0 0.0001934 5140.45068 5211.40039
5190.0 0.0001927 5138.70117 5238.88428
5240.0 0.0001908 5136.99365 5277.37695
5300.0 0.0001887 5135.33594 5316.53076
5300.0 0.0001887 5133.72705 5338.94873
5300.0 0.0001887 5132.17139 5337.73828
5290.0 0.0001890 5130.67090 5319.87549
5290.0 0.0001890 5129.22559 5302.07910
5270.0 0.0001898 5127.83740 5292.93555
5270.0 0.0001898 5126.50781 5290.68945
5310.0 0.0001883 5125.23584 5289.01855
5320.0 0.0001880 5124.02588 5277.53271
5290.0 0.0001890 5122.87451 5250.98828
5280.0 0.0001894 5121.78613 5216.06689
5240.0 0.0001908 5120.75635 5183.09570
5150.0 0.0001942 5119.78613 5158.09668
5130.0 0.0001949 5118.87695 5142.51025
5130.0 0.0001949 5118.02734 5134.18994
5130.0 0.0001949 5117.23486 5130.72070
5140.0 0.0001946 5116.49756 5130.58691
5160.0 0.0001938 5115.81885 5132.97900
5150.0 0.0001942 5115.19482 5136.60010
5160.0 0.0001938 5114.62158 5140.44287
5170.0 0.0001934 5114.09668 5140.91895
5170.0 0.0001934 5113.62305 5138.66260
5170.0 0.0001934 5113.19385 5134.70361
5160.0 0.0001938 5112.80664 5131.43359
5130.0 0.0001949 5112.46094 5130.97998
5120.0 0.0001953 5112.15479 5132.51465
5110.0 0.0001957 5111.88037 5135.05225
5110.0 0.0001957 5111.63916 5134.85156
5090.0 0.0001965 5111.42773 5133.04883
5100.0 0.0001961 5111.23877 5130.85986
5110.0 0.0001957 5111.07227 5129.08838
5110.0 0.0001957 5110.92529 5127.35498
5110.0 0.0001957 5110.79297 5125.68604
5110.0 0.0001957 5110.66895 5123.19336
5110.0 0.0001957 5110.55420 5121.13525
5110.0 0.0001957 5110.44385 5120.06689
5120.0 0.0001953 5110.33203 5120.19873
5140.0 0.0001946 5110.21533 5122.03125
5160.0 0.0001938 5110.09229 5126.68506
5160.0 0.0001938 5109.95850 5137.27832
5160.0 0.0001938 5109.80566 5157.97168
5180.0 0.0001931 5109.63721 5193.33057
5240.0 0.0001908 5109.44482 5242.23730
5310.0 0.0001883 5109.22607 5296.49219
5350.0 0.0001869 5108.97803 5337.58008
5370.0 0.0001862 5108.69629 5345.69678
5360.0 0.0001866 5108.37988 5320.95020
5330.0 0.0001876 5108.01904 5284.66699
5290.0 0.0001890 5107.62158 5255.86475
5290.0 0.0001890 5107.17334 5239.31836
5270.0 0.0001898 5106.68066 5227.66309
5260.0 0.0001901 5106.13379 5211.29834
5240.0 0.0001908 5105.53467 5189.37793
5210.0 0.0001919 5104.87891 5167.48633
5180.0 0.0001931 5104.16504 5150.86328
5160.0 0.0001938 5103.39063 5142.87305
5170.0 0.0001934 5102.55469 5144.62842
5190.0 0.0001927 5101.65430 5154.77002
5160.0 0.0001938 5100.68896 5169.63965
5160.0 0.0001938 5099.65723 5181.58057
5160.0 0.0001938 5098.55957 5183.53320
5180.0 0.0001931 5097.39355 5173.85889
5170.0 0.0001934 5096.15869 5157.96533
5120.0 0.0001953 5094.85449 5140.08838
5090.0 0.0001965 5093.48193 5125.95898
5100.0 0.0001961 5092.03906 5115.24268
5100.0 0.0001961 5090.52979 5108.20313
5100.0 0.0001961 5088.95361 5104.28076
5070.0 0.0001972 5087.31006 5102.45654
5060.0 0.0001976 5085.59766 5100.97021
5090.0 0.0001965 5083.82373 5100.31299
5110.0 0.0001957 5081.98486 5100.05908
5130.0 0.0001949 5080.08447 5102.01758
5120.0 0.0001953 5078.12402 5107.80176
5120.0 0.0001953 5076.10596 5117.25488
5120.0 0.0001953 5074.03271 5127.75391
5130.0 0.0001949 5071.90576 5134.33545
5120.0 0.0001953 5069.72900 5132.56494
5120.0 0.0001953 5067.50537 5122.89014
5120.0 0.0001953 5065.23633 5111.34131
5080.0 0.0001969 5062.92383 5101.01660
5060.0 0.0001976 5060.57520 5092.48535
5030.0 0.0001988 5058.19141 5084.58545
5040.0 0.0001984 5055.77539 5077.25293
5060.0 0.0001976 5053.33447 5071.34863
5080.0 0.0001969 5050.86475 5067.69287
5080.0 0.0001969 5048.37891 5066.18799
5040.0 0.0001984 5045.87402 5065.60498
5010.0 0.0001996 5043.35986 5063.88184
5010.0 0.0001996 5040.83545 5059.70068
5030.0 0.0001988 5038.30615 5053.49365
5030.0 0.0001988 5035.77734 5046.85693
5060.0 0.0001976 5033.25098 5041.03174
5050.0 0.0001980 5030.73438 5036.53711
5040.0 0.0001984 5028.22949 5033.29395
5050.0 0.0001980 5025.74072 5030.63574
5040.0 0.0001984 5023.27197 5028.69824
5040.0 0.0001984 5020.82715 5026.79688
5010.0 0.0001996 5018.41113 5024.84375
5030.0 0.0001988 5016.02686 5022.86035
5030.0 0.0001988 5013.67920 5020.56152
5020.0 0.0001992 5011.37012 5017.93457
5020.0 0.0001992 5009.10254 5014.77002
5010.0 0.0001996 5006.88574 5011.33252
5010.0 0.0001996 5004.71484 5007.98340
4980.0 0.0002008 5002.59717 5004.99756
4970.0 0.0002012 5000.53711 5002.49854
4980.0 0.0002008 4998.53369 5000.42627
4980.0 0.0002008 4996.59131 4999.16797
5000.0 0.0002000 4994.71680 4998.81543
5010.0 0.0001996 4992.90430 4999.53418
5010.0 0.0001996 4991.16113 5001.30859
4990.0 0.0002004 4989.48877 5003.56592
4990.0 0.0002004 4987.88770 5005.07178
4990.0 0.0002004 4986.35889 5004.35986
4990.0 0.0002004 4984.90771 5000.83936
5000.0 0.0002000 4983.53076 4995.76123
5010.0 0.0001996 4982.22949 4990.62256
5020.0 0.0001992 4981.00439 4986.34131
5010.0 0.0001996 4979.85742 4983.61572
5000.0 0.0002000 4978.78906 4981.60205
4980.0 0.0002008 4977.79688 4980.27441
4980.0 0.0002008 4976.88086 4979.42139
5000.0 0.0002000 4976.04150 4978.87061
5000.0 0.0002000 4975.28076 4978.63721
4990.0 0.0002004 4974.59082 4978.68848
4980.0 0.0002008 4973.97461 4978.92432
4990.0 0.0002004 4973.42969 4979.37158
4970.0 0.0002012 4972.95508 4979.71191
4970.0 0.0002012 4972.55029 4980.39551
4980.0 0.0002008 4972.20850 4981.83447
5000.0 0.0002000 4971.92969 4984.39502
5000.0 0.0002000 4971.71387 4988.23535
5000.0 0.0002000 4971.55713 4993.97949
5000.0 0.0002000 4971.45313 5001.82910
5030.0 0.0001988 4971.40381 5011.37939
5040.0 0.0001984 4971.40381 5020.99219
5040.0 0.0001984 4971.44922 5025.96338
5030.0 0.0001988 4971.53564 5024.25439
5000.0 0.0002000 4971.66016 5016.96973
4990.0 0.0002004 4971.82275 5008.06396
4990.0 0.0002004 4972.01611 5000.78906
5000.0 0.0002000 4972.23730 4996.89453
5010.0 0.0001996 4972.47852 4996.48633
5000.0 0.0002000 4972.74316 4998.35449
5010.0 0.0001996 4973.02100 4999.93604
4990.0 0.0002004 4973.31152 4999.53613
4960.0 0.0002016 4973.61084 4997.66797
4960.0 0.0002016 4973.91162 4995.99854
4980.0 0.0002008 4974.21094 4997.13916
4980.0 0.0002008 4974.50586 5002.85498
5000.0 0.0002000 4974.79053 5013.58838
5030.0 0.0001988 4975.06592 5028.08545
5050.0 0.0001980 4975.32422 5042.67627
5070.0 0.0001972 4975.55859 5052.08691
5060.0 0.0001976 4975.77246 5052.65771
5060.0 0.0001976 4975.95557 5045.35938
5050.0 0.0001980 4976.10938 5034.67676
5050.0 0.0001980 4976.22607 5024.26758
5070.0 0.0001972 4976.30762 5016.51270
5070.0 0.0001972 4976.34619 5013.14795
5060.0 0.0001976 4976.34326 5013.61182
5050.0 0.0001980 4976.29102 5015.91211
5050.0 0.0001980 4976.19141 5017.95264
5020.0 0.0001992 4976.03955 5018.39014
5000.0 0.0002000 4975.83496 5016.66406
4980.0 0.0002008 4975.57373 5011.87305
4990.0 0.0002004 4975.25439 5004.91992
5000.0 0.0002000 4974.87549 4997.95117
5000.0 0.0002000 4974.43799 4992.83887
4990.0 0.0002004 4973.93799 4990.75635
4980.0 0.0002008 4973.37695 4992.29590
4970.0 0.0002012 4972.75195 4997.44434
4960.0 0.0002016 4972.06250 5004.89697
5000.0 0.0002000 4971.30908 5013.72461
5030.0 0.0001988 4970.49316 5020.55811
5050.0 0.0001980 4969.61572 5022.58594
5040.0 0.0001984 4968.67432 5017.87695
5010.0 0.0001996 4967.66992 5007.76904
4980.0 0.0002008 4966.60400 4995.82324
4970.0 0.0002012 4965.47900 4984.93164
4970.0 0.0002012 4964.29688 4976.32471
4960.0 0.0002016 4963.05664 4970.81396
4980.0 0.0002008 4961.76270 4966.95117
4970.0 0.0002012 4960.41309 4964.16211
4960.0 0.0002016 4959.01660 4962.38379
4940.0 0.0002024 4957.56738 4961.12305
4940.0 0.0002024 4956.07471 4960.34766
4960.0 0.0002016 4954.53906 4960.12061
4960.0 0.0002016 4952.96094 4960.45557
4950.0 0.0002020 4951.34863 4961.22705
4930.0 0.0002028 4949.69971 4962.12744
4940.0 0.0002024 4948.02148 4962.62256
4950.0 0.0002020 4946.31543 4962.60645
4960.0 0.0002016 4944.58301 4962.23242
4960.0 0.0002016 4942.83203 4962.02344
4950.0 0.0002020 4941.06396 4963.76953
4960.0 0.0002016 4939.28125 4967.52100
4970.0 0.0002012 4937.48633 4972.63428
4980.0 0.0002008 4935.68799 4977.05078
4990.0 0.0002004 4933.88721 4977.72705
4990.0 0.0002004 4932.08447 4972.78662
4970.0 0.0002012 4930.28564 4963.49951
4960.0 0.0002016 4928.49756 4952.82520
4940.0 0.0002024 4926.71777 4943.13086
4920.0 0.0002033 4924.95508 4935.59131
4910.0 0.0002037 4923.20703 4930.34521
4910.0 0.0002037 4921.48340 4926.93018
4900.0 0.0002041 4919.78223 4924.55615
4900.0 0.0002041 4918.10742 4922.72461
4920.0 0.0002033 4916.46338 4920.76855
4910.0 0.0002037 4914.85107 4918.55713
4920.0 0.0002033 4913.27393 4916.27051
4930.0 0.0002028 4911.73145 4914.08887
4910.0 0.0002037 4910.22900 4912.07031
4910.0 0.0002037 4908.76807 4910.28467
4910.0 0.0002037 4907.34863 4908.70703
4890.0 0.0002045 4905.97412 4907.32617
4880.0 0.0002049 4904.64258 4905.91846
4890.0 0.0002045 4903.36084 4904.92285
4920.0 0.0002033 4902.12207 4904.50146
4920.0 0.0002033 4900.93164 4904.62939
4890.0 0.0002045 4899.78613 4905.56689
4910.0 0.0002037 4898.69092 4907.34619
4930.0 0.0002028 4897.64258 4909.82471
4930.0 0.0002028 4896.63916 4912.53711
4930.0 0.0002028 4895.68213 4914.74805
4950.0 0.0002020 4894.76855 4915.60254
4960.0 0.0002016 4893.90186 4914.33838
4950.0 0.0002020 4893.07520 4910.99072
4920.0 0.0002033 4892.28613 4906.54248
4930.0 0.0002028 4891.53857 4902.14209
4910.0 0.0002037 4890.82373 4898.46240
4910.0 0.0002037 4890.14551 4895.70605
4900.0 0.0002041 4889.49512 4893.77100
4900.0 0.0002041 4888.87598 4892.44141
4900.0 0.0002041 4888.27734 4891.46484
4890.0 0.0002045 4887.70313 4890.63330
4890.0 0.0002045 4887.14600 4889.83398
4890.0 0.0002045 4886.60352 4889.09912
4880.0 0.0002049 4886.07275 4888.56299
4870.0 0.0002053 4885.54834 4888.39941
4870.0 0.0002053 4885.02734 4888.82373
4870.0 0.0002053 4884.50586 4890.08203
4880.0 0.0002049 4883.97754 4892.21484
4890.0 0.0002045 4883.44238 4895.23486
4870.0 0.0002053 4882.89355 4898.48291
4870.0 0.0002053 4882.32715 4901.40332
4900.0 0.0002041 4881.74023 4902.76855
4920.0 0.0002033 4881.12451 4901.98389
4930.0 0.0002028 4880.47998 4899.12695
4920.0 0.0002033 4879.80127 4895.00244
4900.0 0.0002041 4879.08447 4890.70068
4880.0 0.0002049 4878.32764 4886.98584
4890.0 0.0002045 4877.52148 4884.08838
4880.0 0.0002049 4876.66699 4881.86963
4890.0 0.0002045 4875.76025 4880.04541
4880.0 0.0002049 4874.79443 4878.34961
4870.0 0.0002053 4873.77051 4876.78467
4860.0 0.0002058 4872.68262 4875.22510
4850.0 0.0002062 4871.53076 4873.78955
4870.0 0.0002053 4870.31006 4872.42334
4890.0 0.0002045 4869.01807 4871.06738
4890.0 0.0002045 4867.65039 4869.80029
4890.0 0.0002045 4866.21045 4868.62158
4880.0 0.0002049 4864.69141 4867.63428
4870.0 0.0002053 4863.09863 4866.95752
4860.0 0.0002058 4861.42529 4866.61426
4860.0 0.0002058 4859.67041 4866.66455
4870.0 0.0002053 4857.83984 4866.99170
4870.0 0.0002053 4855.92529 4867.42285
4850.0 0.0002062 4853.93359 4867.60986
4830.0 0.0002070 4851.86230 4867.30371
4860.0 0.0002058 4849.71094 4866.40137
4870.0 0.0002053 4847.48438 4864.65576
4870.0 0.0002053 4845.18066 4861.78613
4850.0 0.0002062 4842.80518 4857.75488
4860.0 0.0002058 4840.35742 4853.26660
4860.0 0.0002058 4837.84131 4849.06543
4870.0 0.0002053 4835.25781 4845.65088
4860.0 0.0002058 4832.61133 4843.32031
4840.0 0.0002066 4829.90771 4842.45947
4840.0 0.0002066 4827.14404 4842.74463
4830.0 0.0002070 4824.32910 4844.30713
4840.0 0.0002066 4821.46875 4846.59619
4840.0 0.0002066 4818.56250 4848.59863
4830.0 0.0002070 4815.61670 4849.14551
4830.0 0.0002070 4812.63867 4847.58203
4820.0 0.0002075 4809.62891 4843.86133
4820.0 0.0002075 4806.59521 4838.51904
4830.0 0.0002070 4803.54443 4832.44727
4820.0 0.0002075 4800.47754 4826.45801
4830.0 0.0002070 4797.40479 4821.01318
4830.0 0.0002070 4794.32910 4816.11035
4800.0 0.0002083 4791.25684 4811.49365
4800.0 0.0002083 4788.19238 4806.60547
4800.0 0.0002083 4785.14258 4801.42725
4810.0 0.0002079 4782.11133 4796.13086
4800.0 0.0002083 4779.10645 4790.92871
4780.0 0.0002092 4776.13330 4786.12500
4770.0 0.0002096 4773.19580 4781.99365
4780.0 0.0002092 4770.29932 4778.92725
4780.0 0.0002092 4767.44775 4777.34619
4770.0 0.0002096 4764.64893 4777.86914
4780.0 0.0002092 4761.90674 4780.88525
4790.0 0.0002088 4759.22217 4786.17920
4820.0 0.0002075 4756.60303 4792.94189
4810.0 0.0002079 4754.05029 4799.34424
4800.0 0.0002083 4751.57324 4802.72754
4780.0 0.0002092 4749.16846 4800.86377
4750.0 0.0002105 4746.84131 4793.85889
4750.0 0.0002105 4744.59668 4783.82568
4750.0 0.0002105 4742.43408 4773.09570
4760.0 0.0002101 4740.35498 4763.62305
4780.0 0.0002092 4738.35986 4756.27734
4780.0 0.0002092 4736.45313 4751.38379
4780.0 0.0002092 4734.63281 4748.77148
4760.0 0.0002101 4732.90137 4747.96875
4760.0 0.0002101 4731.25439 4748.74170
4760.0 0.0002101 4729.69629 4750.31104
4750.0 0.0002105 4728.22168 4751.72412
4740.0 0.0002110 4726.82861 4751.87549
4740.0 0.0002110 4725.51807 4749.80322
4750.0 0.0002105 4724.28662 4745.81396
4740.0 0.0002110 4723.12988 4741.10547
4730.0 0.0002114 4722.04395 4736.95410
4720.0 0.0002119 4721.02734 4734.27881
4730.0 0.0002114 4720.07422 4733.43457
4750.0 0.0002105 4719.17920 4734.23291
4770.0 0.0002096 4718.33984 4736.04590
4760.0 0.0002101 4717.54834 4737.73779
4750.0 0.0002105 4716.80127 4738.12402
4750.0 0.0002105 4716.08887 4736.51855
4750.0 0.0002105 4715.40674 4733.19922
4730.0 0.0002114 4714.75195 4729.11035
4730.0 0.0002114 4714.11084 4725.12402
4730.0 0.0002114 4713.48242 4721.69189
4740.0 0.0002110 4712.85596 4719.51416
4730.0 0.0002114 4712.22754 4718.61719
4740.0 0.0002110 4711.58643 4719.11084
4740.0 0.0002110 4710.92432 4721.20703
4740.0 0.0002110 4710.23779 4725.06055
4730.0 0.0002114 4709.51611 4730.56494
4730.0 0.0002114 4708.75195 4737.09375
4730.0 0.0002114 4707.94287 4743.32617
4730.0 0.0002114 4707.07715 4747.33936
4730.0 0.0002114 4706.14404 4747.39502
4720.0 0.0002119 4705.14502 4743.16895
4720.0 0.0002119 4704.06836 4735.90918
4720.0 0.0002119 4702.90723 4727.85986
4720.0 0.0002119 4701.65723 4720.52100
4730.0 0.0002114 4700.31396 4714.80811
4740.0 0.0002110 4698.86914 4710.96143
4730.0 0.0002114 4697.31641 4708.72656
4710.0 0.0002123 4695.65576 4707.66406
4690.0 0.0002132 4693.87842 4707.33154
4690.0 0.0002132 4691.98438 4707.28662
4690.0 0.0002132 4689.97021 4707.18262
4700.0 0.0002128 4687.83057 4706.57861
4700.0 0.0002128 4685.56543 4705.30029
4700.0 0.0002128 4683.17139 4702.96484
4690.0 0.0002132 4680.64893 4699.34180
4670.0 0.0002141 4677.99756 4694.60303
4670.0 0.0002141 4675.21680 4689.22852
4660.0 0.0002146 4672.30566 4683.66797
4650.0 0.0002151 4669.26904 4678.30322
4640.0 0.0002155 4666.10840 4673.37354
4630.0 0.0002160 4662.82227 4669.00684
4620.0 0.0002165 4659.41650 4665.16699
4610.0 0.0002169 4655.89648 4661.70605
4640.0 0.0002155 4652.26074 4658.40967
4650.0 0.0002151 4648.51807 4655.08984
4660.0 0.0002146 4644.67529 4651.61816
4660.0 0.0002146 4640.73438 4647.80859
4670.0 0.0002141 4636.70264 4644.00342
4680.0 0.0002137 4632.58398 4640.09180
4670.0 0.0002141 4628.39014 4636.20313
4680.0 0.0002137 4624.12549 4632.34424
4680.0 0.0002137 4619.79688 4628.50537
4650.0 0.0002151 4615.41260 4624.72266
4640.0 0.0002155 4610.97949 4620.87598
4640.0 0.0002155 4606.50928 4616.84082
4630.0 0.0002160 4602.00635 4612.42334
4630.0 0.0002160 4597.47607 4607.41797
4630.0 0.0002160 4592.93555 4601.83398
4600.0 0.0002174 4588.38330 4596.00537
4580.0 0.0002183 4583.83398 4590.23242
4570.0 0.0002188 4579.29395 4584.78711
4580.0 0.0002183 4574.77148 4579.62158
4580.0 0.0002183 4570.26709 4574.79395
4580.0 0.0002183 4565.79980 4570.24609
4560.0 0.0002193 4561.36621 4565.89209
4550.0 0.0002198 4556.97754 4561.71826
4570.0 0.0002188 4552.63623 4557.73584
4570.0 0.0002188 4548.35303 4554.12549
4560.0 0.0002193 4544.12646 4551.13574
4550.0 0.0002198 4539.96387 4548.98975
4540.0 0.0002203 4535.87158 4547.77441
4530.0 0.0002208 4531.84912 4547.33594
4540.0 0.0002203 4527.89697 4547.24707
4520.0 0.0002212 4524.02490 4546.75732
4510.0 0.0002217 4520.22314 4544.85303
4520.0 0.0002212 4516.49854 4541.03076
4530.0 0.0002208 4512.84961 4535.65674
4530.0 0.0002208 4509.27539 4529.58203
4520.0 0.0002212 4505.77100 4523.54980
4520.0 0.0002212 4502.33643 4517.81934
4500.0 0.0002222 4498.96875 4512.56250
4490.0 0.0002227 4495.66211 4508.00488
4490.0 0.0002227 4492.41357 4504.43896
4510.0 0.0002217 4489.21680 4502.00146
4500.0 0.0002222 4486.06641 4500.66846
4490.0 0.0002227 4482.95508 4500.03662
4490.0 0.0002227 4479.87598 4499.37402
4490.0 0.0002227 4476.82324 4497.84766
4500.0 0.0002222 4473.79395 4494.45801
4490.0 0.0002227 4470.76904 4489.28369
4470.0 0.0002237 4467.74854 4483.03955
4470.0 0.0002237 4464.72119 4476.58545
4490.0 0.0002227 4461.68359 4470.57959
4490.0 0.0002227 4458.62061 4465.34131
4480.0 0.0002232 4455.52734 4461.04443
4470.0 0.0002237 4452.40039 4457.59375
4460.0 0.0002242 4449.22412 4454.87207
4450.0 0.0002247 4445.99756 4452.69189
4460.0 0.0002242 4442.71094 4450.80029
4460.0 0.0002242 4439.35791 4448.87744
4460.0 0.0002242 4435.93506 4446.52686
4450.0 0.0002247 4432.43848 4443.41797
4440.0 0.0002252 4428.86035 4439.68311
4440.0 0.0002252 4425.20215 4435.51709
4430.0 0.0002257 4421.46094 4431.18164
4420.0 0.0002262 4417.63037 4426.85596
4410.0 0.0002268 4413.71875 4422.69580
4410.0 0.0002268 4409.72314 4419.04639
4420.0 0.0002262 4405.64648 4416.16016
4430.0 0.0002257 4401.49219 4414.24463
4430.0 0.0002257 4397.26758 4413.40381
4430.0 0.0002257 4392.97559 4413.42871
4420.0 0.0002262 4388.62891 4413.92920
4410.0 0.0002268 4384.23047 4414.18945
4400.0 0.0002273 4379.79346 4412.86719
4390.0 0.0002278 4375.33057 4409.32373
4380.0 0.0002283 4370.85010 4403.50439
4390.0 0.0002278 4366.37207 4396.23535
4390.0 0.0002278 4361.90771 4388.35742
4380.0 0.0002283 4357.46924 4380.46582
4360.0 0.0002294 4353.08252 4372.99854
4350.0 0.0002299 4348.75684 4365.98926
4360.0 0.0002294 4344.50879 4359.69775
4360.0 0.0002294 4340.36475 4354.30713
4360.0 0.0002294 4336.33691 4349.93799
4350.0 0.0002299 4332.45020 4346.38965
4330.0 0.0002309 4328.71484 4343.50439
4350.0 0.0002299 4325.15576 4340.64990
4360.0 0.0002294 4321.79150 4337.35254
4350.0 0.0002299 4318.63574 4333.47754
4330.0 0.0002309 4315.70801 4329.22998
4340.0 0.0002304 4313.02637 4325.12451
4340.0 0.0002304 4310.60059 4321.71484
4330.0 0.0002309 4308.44629 4319.47949
4330.0 0.0002309 4306.57520 4318.68066
4320.0 0.0002315 4304.99854 4319.43994
4320.0 0.0002315 4303.71875 4321.67773
4310.0 0.0002320 4302.74951 4325.15674
4320.0 0.0002315 4302.08740 4329.49609
4310.0 0.0002320 4301.73438 4334.30518
4330.0 0.0002309 4301.69141 4339.18066
4340.0 0.0002304 4301.95020 4343.61768
4330.0 0.0002309 4302.50586 4347.89111
4320.0 0.0002315 4303.34570 4352.12354
4330.0 0.0002309 4304.45410 4356.38672
4350.0 0.0002299 4305.82031 4360.25342
4350.0 0.0002299 4307.41699 4363.12158
4360.0 0.0002294 4309.22900 4364.81348
4350.0 0.0002299 4311.22510 4365.22168
4360.0 0.0002294 4313.37793 4364.98535
4370.0 0.0002288 4315.65723 4364.68945
4370.0 0.0002288 4318.02881 4364.46094
4370.0 0.0002288 4320.45752 4363.93652
4370.0 0.0002288 4322.90576 4362.60498
4380.0 0.0002283 4325.33252 4360.24023
4370.0 0.0002288 4327.69775 4357.12549
4370.0 0.0002288 4329.96143 4353.75635
4360.0 0.0002294 4332.07861 4350.83398
4370.0 0.0002288 4334.01074 4348.55225
4360.0 0.0002294 4335.71240 4347.05078
4360.0 0.0002294 4337.14600 4346.30615
4360.0 0.0002294 4338.27197 4346.16113
4350.0 0.0002299 4339.04834 4346.34814
4360.0 0.0002294 4339.44678 4346.59180
4350.0 0.0002299 4339.43018 4346.71680
4350.0 0.0002299 4338.97217 4346.29248
4360.0 0.0002294 4338.05225 4345.46289
4350.0 0.0002299 4336.64600 4344.31592
4360.0 0.0002294 4334.74316 4342.93701
4350.0 0.0002299 4332.33252 4341.73535
4350.0 0.0002299 4329.41260 4340.61426
4350.0 0.0002299 4325.98828 4339.39258
4330.0 0.0002309 4322.06836 4337.86084
4330.0 0.0002309 4317.66797 4335.44580
4310.0 0.0002320 4312.81787 4331.87988
4310.0 0.0002320 4307.54248 4326.63477
4310.0 0.0002320 4301.88086 4320.07617
4300.0 0.0002326 4295.87891 4312.52783
4290.0 0.0002331 4289.58594 4304.72119
4270.0 0.0002342 4283.06592 4296.70898
4270.0 0.0002342 4276.36816 4288.97949
4270.0 0.0002342 4269.56934 4281.79346
4260.0 0.0002347 4262.73535 4275.02246
4250.0 0.0002353 4255.93994 4268.49707
4240.0 0.0002358 4249.25928 4262.14746
4230.0 0.0002364 4242.76563 4256.05908
4230.0 0.0002364 4236.53223 4250.43457
4250.0 0.0002353 4230.63818 4245.53809
4250.0 0.0002353 4225.14209 4241.32129
4250.0 0.0002353 4220.11084 4237.62549
4250.0 0.0002353 4215.60010 4234.00244
4250.0 0.0002353 4211.65625 4229.98926
4250.0 0.0002353 4208.31250 4225.43311
4240.0 0.0002358 4205.59717 4220.86670
4240.0 0.0002358 4203.51807 4216.66113
4230.0 0.0002364 4202.07080 4213.39551
4220.0 0.0002370 4201.23584 4211.34082
4230.0 0.0002364 4200.97900 4210.71289
4220.0 0.0002370 4201.24561 4211.54785
4210.0 0.0002375 4201.96387 4213.76709
4220.0 0.0002370 4203.04688 4217.14844
4230.0 0.0002364 4204.39209 4221.43652
4240.0 0.0002358 4205.88184 4226.48438
4240.0 0.0002358 4207.38086 4231.70557
4230.0 0.0002364 4208.75293 4236.25879
4230.0 0.0002364 4209.84766 4239.20215
4230.0 0.0002364 4210.51123 4239.67188
4230.0 0.0002364 4210.60059 4237.73926
4220.0 0.0002370 4209.96777 4234.19385
4210.0 0.0002375 4208.49170 4229.60986
4210.0 0.0002375 4206.05713 4224.61230
4200.0 0.0002381 4202.58740 4219.46387
4200.0 0.0002381 4198.03418 4214.21289
4210.0 0.0002375 4192.39453 4208.73096
4210.0 0.0002375 4185.71289 4202.96777
4210.0 0.0002375 4178.08594 4196.96875
4200.0 0.0002381 4169.67383 4190.93994
4180.0 0.0002392 4160.70166 4185.24707
4170.0 0.0002398 4151.45654 4179.91992
4190.0 0.0002387 4142.28418 4175.05566
4160.0 0.0002404 4133.58936 4170.01758
4150.0 0.0002410 4125.80713 4164.41357
4160.0 0.0002404 4119.39893 4158.20361
4160.0 0.0002404 4114.81055 4151.90381
4160.0 0.0002404 4112.42627 4146.43311
4160.0 0.0002404 4112.52539 4142.78027
4160.0 0.0002404 4115.19531 4141.68945
4160.0 0.0002404 4120.24316 4143.50098
4150.0 0.0002410 4127.07422 4148.12939
4140.0 0.0002415 4134.54297 4154.68750
4160.0 0.0002404 4140.77344 4161.21533
4150.0 0.0002410 4142.92773 4164.62793
4140.0 0.0002415 4136.95313 4160.42725
4130.0 0.0002421 4117.23047 4142.39111
4130.0 0.0002421 4076.22192 4102.98877
4130.0 . . .
4120.0 . . .
4100.0 . . .
4110.0 . . .
4110.0 . . .
4120.0 . . .
4130.0 . . .
4130.0 . . .
4140.0 . . .
4140.0 . . .
4140.0 . . .
4140.0 . . .
4130.0 . . .
4120.0 . . .
4120.0 . . .
4120.0 . . .
4120.0 . . .
4120.0 . . .
4120.0 . . .
4120.0 . . .
4130.0 . . .
4120.0 . . .
4100.0 . . .
4090.0 . . .
4100.0 . . .
4110.0 . . .
4110.0 . . .
4110.0 . . .
4110.0 . . .
4100.0 . . .
4100.0 . . .
4090.0 . . .
4080.0 . . .
4060.0 . . .
4060.0 . . .
4060.0 . . .
4070.0 . . .
4080.0 . . .
4070.0 . . .
4060.0 . . .
4050.0 . . .
4040.0 . . .
4040.0 . . .
4050.0 . . .
4050.0 . . .
4040.0 . . .
4040.0 . . .
4050.0 . . .
4050.0 . . .
4060.0 . . .
4060.0 . . .
4050.0 . . .
4050.0 . . .
4050.0 . . .
4040.0 . . .
4050.0 . . .
4040.0 . . .
4050.0 . . .
4040.0 . . .
4020.0 . . .
4020.0 . . .
4010.0 . . .
4000.0 . . .
4010.0 . . .
4020.0 . . .
4010.0 . . .
4010.0 . . .
4010.0 . . .
4010.0 . . .
4000.0 . . .
3990.0 . . .
3990.0 . . .
3990.0 . . .
3980.0 . . .
3970.0 . . .
3950.0 . . .
3970.0 . . .
3980.0 . . .
3970.0 . . .
3960.0 . . .
3940.0 . . .
3940.0 . . .
3960.0 . . .
3970.0 . . .
3940.0 . . .
3960.0 . . .
3950.0 . . .
3920.0 . . .
3930.0 . . .
3940.0 . . .
3930.0 . . .
3930.0 . . .
3950.0 . . .
3960.0 . . .
3970.0 . . .
3960.0 . . .
3960.0 . . .
3940.0 . . .
3910.0 . . .
3900.0 . . .
3910.0 . . .
3920.0 . . .
3930.0 . . .
3920.0 . . .
3900.0 . . .
3890.0 . . .
3870.0 . . .
3860.0 . . .
3860.0 . . .
3880.0 . . .
3880.0 . . .
3880.0 . . .
3890.0 . . .
3890.0 . . .
3880.0 . . .
3860.0 . . .
3850.0 . . .
3850.0 . . .
3870.0 . . .
3870.0 . . .
3850.0 . . .
3850.0 . . .
3850.0 . . .
3830.0 . . .
3840.0 . . .
3850.0 . . .
3840.0 . . .
3840.0 . . .
3830.0 . . .
3830.0 . . .
3820.0 . . .
3810.0 . . .
3800.0 . . .
3800.0 . . .
3800.0 . . .
3810.0 . . .
3810.0 . . .
3810.0 . . .
3810.0 . . .
3790.0 . . .
3780.0 . . .
3780.0 . . .
3770.0 . . .
3770.0 . . .
3780.0 . . .
3770.0 . . .
3760.0 . . .
3750.0 . . .
3750.0 . . .
3770.0 . . .
3770.0 . . .
3760.0 . . .
3750.0 . . .
3740.0 . . .
3740.0 . . .
3730.0 . . .
3740.0 . . .
3750.0 . . .
3740.0 . . .
3720.0 . . .
3720.0 . . .
3720.0 . . .
3740.0 . . .
3750.0 . . .
3740.0 . . .
3730.0 . . .
3730.0 . . .
3730.0 . . .
3730.0 . . .
3710.0 . . .
3710.0 . . .
3710.0 . . .
3700.0 . . .
3700.0 . . .
3700.0 . . .
3710.0 . . .
3710.0 . . .
3710.0 . . .
3710.0 . . .
3700.0 . . .
3700.0 . . .
3700.0 . . .
3700.0 . . .
3700.0 . . .
3680.0 . . .
3680.0 . . .
3670.0 . . .
3660.0 . . .
3670.0 . . .
3660.0 . . .
3650.0 . . .
3660.0 . . .
3670.0 . . .
3680.0 . . .
3670.0 . . .
3660.0 . . .
3640.0 . . .
3640.0 . . .
3630.0 . . .
3640.0 . . .
3640.0 . . .
3640.0 . . .
3640.0 . . .
3640.0 . . .
3640.0 . . .
3640.0 . . .
3640.0 . . .
3630.0 . . .
3610.0 . . .
3610.0 . . .
3590.0 . . .
3580.0 . . .
3600.0 . . .
3600.0 . . .
3600.0 . . .
3590.0 . . .
3580.0 . . .
3580.0 . . .
3590.0 . . .
3580.0 . . .
3580.0 . . .
3570.0 . . .
3560.0 . . .
3570.0 . . .
3570.0 . . .
3570.0 . . .
3570.0 . . .
3570.0 . . .
3570.0 . . .
3550.0 . . .
3550.0 . . .
3550.0 . . .
3550.0 . . .
3540.0 . . .
3530.0 . . .
3530.0 . . .
3540.0 . . .
3540.0 . . .
3520.0 . . .
3520.0 . . .
3530.0 . . .
3510.0 . . .
3500.0 . . .
3490.0 . . .
3500.0 . . .
3510.0 . . .
3510.0 . . .
3520.0 . . .
3520.0 . . .
3510.0 . . .
3510.0 . . .
3500.0 . . .
3510.0 . . .
3520.0 . . .
3520.0 . . .
3500.0 . . .
3520.0 . . .
3530.0 . . .
3530.0 . . .
3510.0 . . .
3480.0 . . .
3480.0 . . .
3490.0 . . .
3500.0 . . .
3500.0 . . .
3490.0 . . .
3490.0 . . .
3490.0 . . .
3500.0 . . .
3490.0 . . .
3490.0 . . .
3500.0 . . .
3490.0 . . .
3500.0 . . .
3510.0 . . .
3530.0 . . .
3530.0 . . .
3530.0 . . .
3520.0 . . .
3530.0 . . .
3530.0 . . .
3530.0 . . .
3510.0 . . .
3510.0 . . .
3500.0 . . .
3500.0 . . .
3500.0 . . .
3500.0 . . .
3480.0 . . .
3480.0 . . .
3470.0 . . .
3470.0 . . .
3460.0 . . .
3470.0 . . .
3460.0 . . .
3460.0 . . .
3450.0 . . .
3440.0 . . .
3440.0 . . .
3450.0 . . .
3440.0 . . .
3420.0 . . .
3420.0 . . .
3410.0 . . .
3400.0 . . .
3400.0 . . .
3410.0 . . .
3410.0 . . .
3400.0 . . .
3390.0 . . .
3400.0 . . .
3400.0 . . .
3380.0 . . .
3380.0 . . .
3380.0 . . .
3380.0 . . .
3380.0 . . .
3370.0 . . .
3370.0 . . .
3340.0 . . .
3340.0 . . .
3350.0 . . .
3350.0 . . .
3350.0 . . .
3340.0 . . .
3340.0 . . .
3340.0 . . .
3330.0 . . .
3320.0 . . .
3310.0 . . .
3320.0 . . .
3320.0 . . .
3320.0 . . .
3320.0 . . .
3320.0 . . .
3310.0 . . .
3290.0 . . .
3280.0 . . .
3280.0 . . .
3270.0 . . .
3280.0 . . .
3270.0 . . .
3270.0 . . .
3270.0 . . .
3280.0 . . .
3260.0 . . .
3250.0 . . .
3260.0 . . .
3240.0 . . .
3250.0 . . .
3250.0 . . .
3260.0 . . .
3270.0 . . .
3280.0 . . .
3270.0 . . .
3280.0 . . .
3270.0 . . .
3280.0 . . .
3290.0 . . .
3280.0 . . .
3280.0 . . .
3280.0 . . .
3280.0 . . .
3270.0 . . .
3280.0 . . .
3290.0 . . .
3290.0 . . .
3290.0 . . .
3300.0 . . .
3300.0 . . .
3300.0 . . .
3290.0 . . .
3270.0 . . .
3270.0 . . .
3270.0 . . .
3280.0 . . .
3270.0 . . .
3260.0 . . .
3260.0 . . .
3260.0 . . .
3260.0 . . .
3260.0 . . .
3250.0 . . .
3240.0 . . .
3240.0 . . .
3250.0 . . .
3260.0 . . .
3250.0 . . .
3230.0 . . .
3220.0 . . .
3210.0 . . .
3210.0 . . .
3210.0 . . .
3210.0 . . .
3190.0 . . .
3180.0 . . .
3180.0 . . .
3180.0 . . .
3180.0 . . .
3180.0 . . .
3180.0 . . .
3180.0 . . .
3180.0 . . .
3180.0 . . .
3180.0 . . .
3190.0 . . .
3190.0 . . .
3180.0 . . .
3190.0 . . .
3180.0 . . .
3180.0 . . .
3160.0 . . .
3160.0 . . .
3180.0 . . .
3180.0 . . .
3190.0 . . .
3180.0 . . .
3180.0 . . .
3190.0 . . .
3190.0 . . .
3210.0 . . .
3230.0 . . .
3240.0 . . .
3220.0 . . .
3200.0 . . .
3190.0 . . .
3190.0 . . .
3180.0 . . .
3190.0 . . .
3200.0 . . .
3190.0 . . .
3190.0 . . .
3190.0 . . .
3190.0 . . .
3190.0 . . .
3180.0 . . .
3170.0 . . .
3170.0 . . .
3170.0 . . .
3160.0 . . .
3140.0 . . .
3140.0 . . .
3130.0 . . .
3130.0 . . .
3120.0 . . .
3110.0 . . .
3100.0 . . .
3090.0 . . .
3080.0 . . .
3070.0 . . .
3080.0 . . .
3070.0 . . .
3070.0 . . .
3060.0 . . .
3040.0 . . .
3010.0 . . .
2990.0 . . .
2970.0 . . .
2950.0 . . .
2930.0 . . .
2900.0 . . .
2870.0 . . .
2840.0 . . .
2820.0 . . .
2810.0 . . .
2790.0 . . .
2760.0 . . .
2740.0 . . .
2710.0 . . .
2690.0 . . .
2670.0 . . .
2650.0 . . .
2630.0 . . .
2630.0 . . .
2620.0 . . .
2590.0 . . .
2590.0 . . .
2590.0 . . .
2390.0 . . .
2000.0 . . .
1740.0 . . .
1550.0 . . .
1380.0 . . .
1200.0 . . .
1010.0 . . .
841.0 . . .
673.0 . . .
444.0 . . .
79.0 . . .
0.0 . . .
0.0 . . .
0.0 . . .
0.0 . . .
0.0 . . .
0.0 . . .
0.0 . . .
0.0 . . .
0.0 . . .
0.0 . . .
0.0 . . .
0.0 . . .
0.0 . . .
0.0 . . .
0.0 . . .
0.0 . . .
0.0 . . .
0.0 . . .
0.0 . . .
0.0 . . .
0.0 . . .
0.0 . . .
0.0 . . .
0.0 . . .
0.0 . . .
0.0 . . .
0.0 . . .
0.0 . . .
0.0 . . .
0.0 . . .
0.0 . . .
0.0 . . .
0.0 . . .
0.0 . . .
0.0 . . .
0.0 . . .
0.0 . . .
0.0 . . .
0.0 . . .
0.0 . . .
0.0 . . .
0.0 . . .
0.0 . . .
0.0 . . .
0.0 . . .
0.0 . . .
0.0 . . .
0.0 . . .
0.0 . . .
0.0 . . .
0.0 . . .
0.0 . . .
0.0 . . .
0.0 . . .
0.0 . . .
0.0 . . .
0.0 . . .
0.0 . . .
0.0 . . .
0.0 . . .
0.0 . . .
0.0 . . .
0.0 . . .
0.0 . . .
0.0 . . .
0.0 . . .
0.0 . . .
0.0 . . .
0.0 . . .
0.0 . . .
0.0 . . .
0.0 . . .
0.0 . . .
0.0 . . .
0.0 . . .
0.0 . . .
0.0 . . .
0.0 . . .
0.0 . . .
0.0 . . .
0.0 . . .
0.0 . . .
0.0 . . .
0.0 . . .
0.0 . . .
0.0 . . .
0.0 . . .
0.0 . . .
0.0 . . .
0.0 . . .
0.0 . . .
0.0 . . .
0.0 . . .
0.0 . . .
0.0 . . .
0.0 . . .
0.0 . . .
0.0 . . .
0.0 . . .
0.0 . . .
0.0 . . .
0.0 . . .
0.0 . . .
0.0 . . .
0.0 . . .
0.0 . . .
0.0 . . .
0.0 . . .
0.0 . . .
0.0 . . .
0.0 . . .
0.0 . . .
0.0 . . .
0.0 . . .
0.0 . . .
0.0 . . .
0.0 . . .
0.0 . . .
0.0 . . .
0.0 . . .
0.0 . . .
0.0 . . .
0.0 . . .
0.0 . . .
0.0 . . .
0.0 . . .
0.0 . . .
0.0 . . .
0.0 . . .
0.0 . . .
0.0 . . .
0.0 . . .
0.0 . . .
0.0 . . .
0.0 . . .
0.0 . . .
0.0 . . .
0.0 . . .
0.0 . . .
0.0 . . .
0.0 . . .
0.0 . . .
0.0 . . .
0.0 . . .
0.0 . . .
0.0 . . .
0.0 . . .
0.0 . . .
0.0 . . .
0.0 . . .
0.0 . . .
0.0 . . .
0.0 . . .
0.0 . . .
0.0 . . .
0.0 . . .
0.0 . . .
0.0 . . .
0.0 . . .
0.0 . . .
0.0 . . .
0.0 . . .
0.0 . . .
0.0 . . .
0.0 . . .
0.0 . . .
0.0 . . .
0.0 . . .
0.0 . . .
0.0 . . .
0.0 . . .
0.0 . . .
0.0 . . .
0.0 . . .
0.0 . . .
0.0 . . .
0.0 . . .
0.0 . . .
0.0 . . .
0.0 . . .
0.0 . . .
0.0 . . .
0.0 . . .
0.0 . . .
0.0 . . .
0.0 . . .
0.0 . . .
0.0 . . .
0.0 . . .
0.0 . . .
0.0 . . .
0.0 . . .
0.0 . . .
0.0 . . .
0.0 . . .
0.0 . . .
0.0 . . .
0.0 . . .
0.0 . . .
0.0 . . .
0.0 . . .
0.0 . . .
0.0 . . .
0.0 . . .
0.0 . . .
0.0 . . .
0.0 . . .
0.0 . . .
0.0 . . .
0.0 . . .
0.0 . . .
0.0 . . .
0.0 . . .
0.0 . . .
0.0 . . .
0.0 . . .
0.0 . . .
0.0 . . .
0.0 . . .
0.0 . . .
0.0 . . .
0.0 . . .
0.0 . . .
0.0 . . .
0.0 . . .
0.0 . . .
0.0 . . .
0.0 . . .
0.0 . . .
0.0 . . .
0.0 . . .
0.0 . . .
0.0 . . .
0.0 . . .
0.0 . . .
0.0 . . .
0.0 . . .
0.0 . . .
0.0 . . .
0.0 . . .
0.0 . . .
0.0 . . .
0.0 . . .
0.0 . . .
0.0 . . .
0.0 . . .
0.0 . . .
0.0 . . .
0.0 . . .
0.0 . . .
0.0 . . .
0.0 . . .
0.0 . . .
0.0 . . .
0.0 . . .
0.0 . . .
0.0 . . .
0.0 . . .
0.0 . . .
0.0 . . .
0.0 . . .
0.0 . . .
0.0 . . .
0.0 . . .
0.0 . . .
0.0 . . .
0.0 . . .
0.0 . . .
0.0 . . .
0.0 . . .
0.0 . . .
0.0 . . .
0.0 . . .
0.0 . . .
0.0 . . .
0.0 . . .
0.0 . . .
0.0 . . .
0.0 . . .
0.0 . . .
0.0 . . .
0.0 . . .
0.0 . . .
0.0 . . .
0.0 . . .
0.0 . . .
0.0 . . .
0.0 . . .
0.0 . . .
0.0 . . .
0.0 . . .
0.0 . . .
0.0 . . .
0.0 . . .
0.0 . . .
0.0 . . .
0.0 . . .
0.0 . . .
0.0 . . .
0.0 . . .
0.0 . . .
0.0 . . .
0.0 . . .
0.0 . . .
0.0 . . .
0.0 . . .
0.0 . . .
0.0 . . .
0.0 . . .
0.0 . . .
0.0 . . .
0.0 . . .
0.0 . . .
0.0 . . .
0.0 . . .
0.0 . . .
0.0 . . .
0.0 . . .
0.0 . . .
0.0 . . .
0.0 . . .
0.0 . . .
0.0 . . .
0.0 . . .
0.0 . . .
0.0 . . .
0.0 . . .
0.0 . . .
0.0 . . .
0.0 . . .
0.0 . . .
0.0 . . .
0.0 . . .
0.0 . . .
0.0 . . .
0.0 . . .
0.0 . . .
0.0 . . .
0.0 . . .
0.0 . . .
0.0 . . .
0.0 . . .
0.0 . . .
0.0 . . .
0.0 . . .
0.0 . . .
0.0 . . .
0.0 . . .
0.0 . . .
0.0 . . .
0.0 . . .
0.0 . . .
0.0 . . .
0.0 . . .
0.0 . . .
0.0 . . .
0.0 . . .
0.0 . . .
0.0 . . .
0.0 . . .
0.0 . . .
loop_
_refln_index_h
_refln_index_k
_refln_index_l
_refln_observed_status
_refln_F_squared_meas
_refln_F_squared_calc
_refln_phase_calc
_refln_d_spacing
_gsas_i100_meas
0 0 1 o 915.100 901.223 0.00 7.15030 37.10
1 1 -1 o 391.601 390.674 0.00 4.59578 32.43
0 1 1 o 37.578 37.238 0.00 4.55315 2.21
1 1 0 o 1809.310 1828.963 0.00 4.44223 100.00
2 0 -1 o 2007.299 1940.379 0.00 4.02342 50.36
2 0 -2 o 475.822 457.734 180.00 3.65944 9.26
0 0 2 o 261.156 242.660 180.00 3.57515 2.65
1 1 -2 o 79.069 107.396 180.00 3.46824 3.49
2 0 0 o 2391.013 2328.447 0.00 3.37114 26.26
2 1 -1 o 1355.984 1368.032 180.00 3.32500 49.14
1 1 1 o 140.155 86.426 180.00 3.27695 2.62
2 1 -2 o 21.531 7.544 0.00 3.11058 0.69
0 1 2 o 0.000 18.917 0.00 3.05832 0.00
0 2 0 o 230.155 288.383 180.00 2.95258 5.17
2 1 0 o 1499.483 1397.066 180.00 2.92766 28.61
2 0 -3 o 25.117 0.082 0.00 2.80947 0.32
1 2 -1 o 17.614 16.511 0.00 2.73816 0.61
0 2 1 o 201.539 232.929 180.00 2.72906 6.07
1 2 0 o 150.768 139.196 180.00 2.70461 4.16
2 0 1 o 31.385 20.192 180.00 2.55380 0.15
2 1 -3 o 61.781 29.735 0.00 2.53698 1.38
1 1 -3 o 200.406 211.537 0.00 2.51544 3.69
3 1 -2 o 0.000 0.044 180.00 2.44291 0.00
1 2 -2 o 34.233 106.444 0.00 2.43133 0.85
1 1 2 o 3.700 4.393 180.00 2.39258 0.03
0 0 3 o 477.936 435.694 0.00 2.38343 2.16
2 2 -1 o 15.010 13.508 0.00 2.38039 0.31
3 1 -1 o 676.970 584.714 0.00 2.37320 10.82
1 2 1 o 61.301 46.253 180.00 2.36257 0.89
2 1 1 o 0.011 0.010 180.00 2.34399 0.00
2 2 -2 o 10.461 7.073 0.00 2.29789 0.22
0 2 2 o 32.446 59.436 0.00 2.27658 0.48
3 1 -3 o 79.879 87.396 0.00 2.25478 1.26
2 2 0 o 129.518 82.527 180.00 2.22112 1.79
0 1 3 o 123.112 44.006 0.00 2.21019 1.08
2 0 -4 o 0.000 33.043 0.00 2.14260 0.00
3 1 0 o 0.000 26.752 0.00 2.10045 0.00
2 2 -3 o 432.330 290.623 0.00 2.03531 7.00
1 2 -3 o 159.210 86.404 0.00 2.02414 2.21
2 1 -4 o 221.093 144.257 180.00 2.01412 3.09
4 0 -2 o 54.881 39.854 180.00 2.01171 0.34
4 0 -3 o 0.000 2.157 0.00 1.98678 0.00
3 2 -2 o 0.000 10.664 0.00 1.98577 0.00
2 0 2 o 0.000 47.989 0.00 1.96957 0.00
1 2 2 o 0.000 3.059 180.00 1.95845 0.00
3 2 -1 o 141.255 208.156 180.00 1.94778 1.67
3 1 -4 o 204.085 222.934 0.00 1.94278 2.49
2 2 1 o 113.903 118.456 180.00 1.93153 0.89
1 1 -4 o 45.916 102.796 0.00 1.91718 0.41
4 1 -2 o 3.308 5.020 180.00 1.90424 0.04
1 3 -1 o 56.597 75.305 180.00 1.90084 1.00
0 3 1 o 146.900 180.449 180.00 1.89779 2.42
4 0 -1 o 4.031 4.219 0.00 1.88991 0.02
1 3 0 o 76.442 79.212 180.00 1.88951 1.18
4 1 -3 o 213.631 182.863 0.00 1.88306 2.44
3 2 -3 o 73.179 59.412 0.00 1.88069 0.91
2 1 2 o 5.119 4.296 0.00 1.86838 0.03
0 2 3 o 128.073 68.756 0.00 1.85458 1.00
1 1 3 o 27.950 88.719 0.00 1.83998 0.14
4 0 -4 o 0.000 47.818 0.00 1.82972 0.00
4 1 -1 o 734.162 645.004 180.00 1.79997 6.13
1 3 -2 o 0.630 0.459 0.00 1.78870 0.01
3 2 0 o 293.042 212.630 180.00 1.78830 2.26
0 0 4 o 267.418 191.797 0.00 1.78758 0.68
3 1 1 o 45.145 30.731 180.00 1.78206 0.24
2 3 -1 o 136.092 142.066 0.00 1.76813 1.73
1 3 1 o 17.304 29.248 180.00 1.76079 0.18
4 1 -4 o 9.156 24.487 0.00 1.74774 0.08
2 2 -4 o 101.329 115.677 0.00 1.73412 1.12
2 3 -2 o 9.734 11.466 0.00 1.73352 0.13
0 3 2 o 11.071 43.205 180.00 1.72431 0.12
0 1 4 o 4.907 89.416 0.00 1.71090 0.02
2 3 0 o 0.962 0.442 180.00 1.69983 0.01
2 0 -5 o 36.669 17.447 180.00 1.69495 0.16
3 2 -4 o 6.626 7.029 180.00 1.68796 0.07
4 0 0 o 4.593 24.446 180.00 1.68557 0.01
1 2 -4 o 0.000 0.369 180.00 1.67108 0.00
4 2 -2 o 53.933 49.342 0.00 1.66250 0.49
4 2 -3 o 6.439 1.470 0.00 1.64835 0.06
3 1 -5 o 3.195 1.370 0.00 1.63888 0.03
2 2 2 o 31.002 13.996 0.00 1.63848 0.15
2 1 -5 o 28.362 20.937 180.00 1.62917 0.23
4 1 0 o 246.600 216.730 180.00 1.62083 1.31
1 2 3 o 29.792 28.127 180.00 1.61922 0.14
4 0 -5 o 25.060 26.315 180.00 1.61548 0.10
2 3 -3 o 0.044 0.047 0.00 1.61209 0.00
1 3 -3 o 37.202 55.021 0.00 1.60652 0.37
4 2 -1 o 253.122 232.577 0.00 1.59175 1.78
3 3 -2 o 74.542 51.866 180.00 1.58714 0.72
3 2 1 o 4.025 2.462 0.00 1.57933 0.02
2 0 3 o 494.144 316.285 0.00 1.57846 0.79
1 3 2 o 107.872 107.860 0.00 1.57308 0.70
3 3 -1 o 0.907 1.183 180.00 1.56754 0.01
5 1 -3 o 1.568 2.318 0.00 1.55921 0.01
2 3 1 o 22.872 33.404 180.00 1.55903 0.15
4 1 -5 o 4.070 5.599 180.00 1.55822 0.03
4 2 -4 o 123.599 146.639 0.00 1.55529 0.99
1 1 -5 o 0.000 3.097 0.00 1.53355 0.00
3 3 -3 o 0.000 6.841 180.00 1.53193 0.00
0 2 4 o 2.335 27.719 180.00 1.52916 0.01
5 1 -2 o 2.291 15.538 0.00 1.52858 0.02
2 1 3 o 11.693 22.334 180.00 1.52492 0.04
5 1 -4 o 79.096 95.778 0.00 1.51829 0.58
0 3 3 o 52.875 67.204 180.00 1.51772 0.35
3 1 2 o 0.000 22.790 0.00 1.50375 0.00
1 1 4 o 8.971 6.249 0.00 1.48221 0.03
3 3 0 o 34.406 19.467 180.00 1.48074 0.21
3 2 -5 o 122.829 53.413 180.00 1.47709 0.98
0 4 0 o 20.902 8.789 0.00 1.47629 0.12
2 2 -5 o 10.026 3.997 0.00 1.46996 0.07
4 0 1 o 0.690 0.278 180.00 1.46950 0.00
4 2 0 o 8.909 7.571 180.00 1.46383 0.04
2 3 -4 o 8.588 27.465 0.00 1.44954 0.07
1 4 -1 o 24.718 26.427 0.00 1.44714 0.26
0 4 1 o 14.236 11.996 180.00 1.44579 0.14
1 4 0 o 0.211 0.157 0.00 1.44212 0.00
5 1 -1 o 8.911 12.549 0.00 1.43777 0.04
0 0 5 o 16.485 8.029 180.00 1.43006 0.03
4 1 1 o 2.280 0.615 0.00 1.42601 0.01
3 3 -4 o 3.089 1.349 0.00 1.42226 0.02
5 1 -5 o 2.050 1.245 0.00 1.42078 0.01
5 2 -3 o 0.080 0.089 0.00 1.41796 0.00
4 2 -5 o 23.685 29.402 0.00 1.41722 0.16
1 3 -4 o 56.521 54.483 180.00 1.41212 0.36
4 3 -2 o 1.981 1.298 180.00 1.40693 0.01
4 0 -6 o 29.301 20.703 0.00 1.40473 0.09
1 2 -5 o 0.300 0.396 0.00 1.39858 0.00
4 3 -3 o 44.605 59.879 180.00 1.39832 0.32
1 4 -2 o 19.064 27.459 180.00 1.39578 0.18
5 2 -2 o 28.136 39.367 180.00 1.39480 0.17
2 3 2 o 17.055 21.008 180.00 1.39228 0.07
2 2 3 o 24.570 29.797 180.00 1.39202 0.08
2 0 -6 o 0.904 0.992 0.00 1.39015 0.00
0 1 5 o 2.944 3.209 0.00 1.38988 0.01
3 1 -6 o 21.476 22.210 0.00 1.38836 0.14
5 2 -4 o 5.444 5.472 180.00 1.38697 0.03
2 4 -1 o 21.783 21.601 180.00 1.38594 0.18
1 4 1 o 10.632 10.807 180.00 1.38239 0.08
1 3 3 o 3.650 3.965 0.00 1.38040 0.02
3 2 2 o 0.017 0.018 0.00 1.37586 0.00
2 4 -2 o 135.909 151.018 180.00 1.36908 1.18
4 1 -6 o 26.114 28.693 0.00 1.36660 0.16
0 4 2 o 6.207 5.566 180.00 1.36453 0.05
4 3 -1 o 3.884 2.966 0.00 1.36327 0.02
1 2 4 o 49.217 29.153 180.00 1.35931 0.15
3 3 1 o 0.072 0.053 180.00 1.35544 0.00
2 1 -6 o 139.616 125.589 0.00 1.35316 0.71
2 4 0 o 2.584 2.451 0.00 1.35230 0.02
6 0 -4 o 264.985 152.438 0.00 1.34165 0.77
6 0 -3 o 25.794 14.655 0.00 1.34114 0.07
4 3 -4 o 27.464 15.227 180.00 1.34015 0.18
5 2 -1 o 167.976 174.737 180.00 1.32479 0.76
0 3 4 o 97.153 106.081 180.00 1.32332 0.41
4 2 1 o 8.447 7.051 180.00 1.31557 0.03
5 1 0 o 19.565 18.440 180.00 1.31461 0.07
5 2 -5 o 17.954 31.726 180.00 1.31146 0.10
6 1 -4 o 1.953 15.790 0.00 1.30830 0.01
2 0 4 o 8.213 51.626 0.00 1.30850 0.01
6 1 -3 o 0.672 21.703 0.00 1.30784 0.00
2 4 -3 o 0.000 20.208 180.00 1.30685 0.00
1 4 -3 o 0.000 12.469 180.00 1.30388 0.00
6 0 -5 o 0.000 11.547 0.00 1.29722 0.00
6 0 -2 o 0.000 15.909 180.00 1.29586 0.00
5 1 -6 o 0.150 0.888 180.00 1.29521 0.00
3 4 -2 o 22.402 12.352 180.00 1.29345 0.15
3 3 -5 o 58.688 14.510 180.00 1.28914 0.38
0 2 5 o 25.256 6.447 0.00 1.28704 0.08
3 2 -6 o 18.266 5.046 0.00 1.28583 0.11
1 4 2 o 2.798 0.774 180.00 1.28581 0.01
2 3 -5 o 15.664 4.925 0.00 1.28440 0.09
3 4 -1 o 84.346 31.896 0.00 1.28278 0.52
3 1 3 o 11.148 4.847 0.00 1.28174 0.03
4 3 0 o 0.002 0.001 0.00 1.28030 0.00
2 4 1 o 0.167 0.125 0.00 1.27810 0.00
2 1 4 o 0.997 0.780 180.00 1.27752 0.00
4 0 2 o 31.647 25.478 0.00 1.27690 0.04
1 1 -6 o 25.151 18.408 0.00 1.27260 0.08
4 2 -6 o 2.182 1.860 180.00 1.26849 0.01
6 1 -5 o 3.079 3.336 0.00 1.26701 0.02
6 1 -2 o 0.368 0.509 180.00 1.26574 0.00
3 4 -3 o 51.276 99.091 180.00 1.26304 0.35
2 2 -6 o 26.224 45.481 0.00 1.25772 0.12
0 4 3 o 1.153 1.906 0.00 1.25504 0.01
5 3 -3 o 100.574 98.662 180.00 1.24927 0.55
4 3 -5 o 6.320 5.787 180.00 1.24876 0.04
4 1 2 o 29.818 24.593 180.00 1.24805 0.07
1 1 5 o 0.036 0.022 0.00 1.23645 0.00
1 3 -5 o 95.537 60.058 180.00 1.23595 0.41
3 4 0 o 0.116 0.091 180.00 1.23389 0.00
5 3 -2 o 0.015 0.012 180.00 1.23335 0.00
2 3 3 o 37.547 36.929 180.00 1.23142 0.11
5 3 -4 o 0.505 0.451 180.00 1.22792 0.00
5 2 0 o 22.504 18.994 180.00 1.22659 0.07
4 0 -7 o 274.538 288.045 0.00 1.22216 0.70
6 2 -4 o 2.534 2.806 180.00 1.22146 0.01
6 2 -3 o 22.336 25.362 180.00 1.22108 0.11
3 3 2 o 24.183 28.713 0.00 1.22019 0.07
6 0 -6 o 0.001 0.001 0.00 1.21981 0.00
6 0 -1 o 78.415 94.513 180.00 1.21792 0.13
2 4 -4 o 25.352 27.737 180.00 1.21566 0.16
5 2 -6 o 12.027 9.032 180.00 1.21078 0.06
1 3 4 o 192.250 125.128 180.00 1.20860 0.55
3 2 3 o 57.293 60.071 180.00 1.19976 0.13
3 4 -4 o 8.647 9.416 0.00 1.19943 0.05
4 1 -7 o 76.043 100.693 0.00 1.19680 0.38
2 2 4 o 66.965 89.965 180.00 1.19629 0.14
6 1 -6 o 0.000 0.000 0.00 1.19459 0.00
1 4 -4 o 35.543 45.910 0.00 1.19333 0.18
6 1 -1 o 29.087 36.682 180.00 1.19281 0.10
1 2 -6 o 54.578 66.888 0.00 1.19225 0.17
0 0 6 o 28.391 33.774 180.00 1.19172 0.03
3 1 -7 o 51.928 60.955 0.00 1.19149 0.23
4 4 -2 o 111.263 120.300 180.00 1.19019 0.58
6 2 -5 o 15.418 13.897 0.00 1.18765 0.07
6 2 -2 o 96.158 80.165 0.00 1.18660 0.39
4 4 -3 o 134.552 98.978 180.00 1.18497 0.74
5 1 1 o 1.690 1.207 0.00 1.18458 0.00
5 3 -1 o 36.939 25.488 0.00 1.18414 0.14
2 4 2 o 37.114 20.910 0.00 1.18129 0.14
4 3 1 o 0.440 0.218 180.00 1.17755 0.00
5 3 -5 o 40.539 20.338 0.00 1.17459 0.19
1 4 3 o 6.534 3.306 180.00 1.17401 0.02
2 0 -7 o 17.403 8.861 0.00 1.17367 0.03
4 2 2 o 4.197 2.264 0.00 1.17200 0.01
0 1 6 o 37.522 32.334 180.00 1.16817 0.08
1 5 -1 o 8.176 12.418 180.00 1.16595 0.06
5 1 -7 o 42.567 70.107 0.00 1.16569 0.19
0 5 1 o 5.325 10.183 0.00 1.16524 0.04
4 4 -1 o 1.945 8.210 180.00 1.16341 0.01
1 5 0 o 1.363 6.067 0.00 1.16332 0.01
1 2 5 o 2.438 21.475 180.00 1.16237 0.01
3 4 1 o 0.000 32.590 180.00 1.15853 0.00
0 3 5 o 7.526 46.912 180.00 1.15696 0.02
3 3 -6 o 2.489 7.532 180.00 1.15608 0.01
2 1 -7 o 254.686 155.388 0.00 1.15115 0.85
4 4 -4 o 8.133 4.224 180.00 1.14894 0.04
4 3 -6 o 37.364 24.977 180.00 1.14342 0.18
1 5 -2 o 97.088 112.092 180.00 1.13858 0.62
0 4 4 o 40.076 48.151 180.00 1.13829 0.15
2 3 -6 o 3.185 5.083 180.00 1.13552 0.01
7 1 -4 o 6.487 9.308 0.00 1.13326 0.03
2 5 -1 o 1.363 1.948 180.00 1.13322 0.01
1 5 1 o 36.939 41.891 180.00 1.13128 0.20
4 2 -7 o 3.205 3.189 180.00 1.12925 0.01
6 2 -6 o 6.210 5.982 180.00 1.12739 0.02
6 0 -7 o 218.820 205.393 0.00 1.12580 0.41
6 2 -1 o 71.606 67.368 0.00 1.12589 0.22
3 2 -7 o 59.671 54.394 0.00 1.12478 0.25
2 5 -2 o 56.890 50.477 180.00 1.12395 0.35
6 0 0 o 33.731 29.735 180.00 1.12371 0.04
7 1 -5 o 9.534 8.218 0.00 1.12192 0.04
0 5 2 o 48.396 42.088 0.00 1.12143 0.27
5 2 1 o 2.696 2.709 0.00 1.11897 0.01
7 1 -3 o 0.028 0.033 180.00 1.11667 0.00
3 4 -5 o 46.326 54.377 0.00 1.11631 0.24
4 0 3 o 7.456 8.769 0.00 1.11617 0.01
2 5 0 o 1.847 2.121 180.00 1.11461 0.01
