#------------------------------------------------------------------------------
#$Date: 2019-12-26 20:21:29 +0200 (Thu, 26 Dec 2019) $
#$Revision: 246045 $
#$URL: file:///home/coder/svn-repositories/cod/cif/2/30/06/2300652.cif $
#------------------------------------------------------------------------------
#
# This file is available in the Crystallography Open Database (COD),
# http://www.crystallography.net/. The original data for this entry
# were provided by IUCr Journals, http://journals.iucr.org/.
#
# The file may be used within the scientific community so long as
# proper attribution is given to the journal article from which the
# data were obtained.
#
data_2300652
loop_
_publ_author_name
'Likhacheva, Anna Y.'
'Rashchenko, Sergey V.'
'Litasov, Konstantin D.'
_publ_section_title
;
 High-pressure structural properties of naphthalene up to 6&#x2005;GPa
;
_journal_coeditor_code           kk5159
_journal_issue                   3
_journal_name_full               'Journal of Applied Crystallography'
_journal_page_first              984
_journal_paper_doi               10.1107/S1600576714005937
_journal_volume                  47
_journal_year                    2014
_chemical_formula_sum            'C5 H4'
_chemical_formula_weight         64.09
_space_group_IT_number           14
_space_group_name_Hall           '-P 2yab'
_space_group_name_H-M_alt        'P 1 21/a 1'
_symmetry_cell_setting           monoclinic
_symmetry_space_group_name_H-M   'P 1 21/a 1'
_audit_creation_date             2013-04-17T15:53
_audit_creation_method           'from EXP file using GSAS2CIF'
_audit_update_record
' 2013-04-17T15:53  Initial CIF as created by GSAS2CIF'
_cell_angle_alpha                90.0
_cell_angle_beta                 125.494(11)
_cell_angle_gamma                90.0
_cell_formula_units_Z            4
_cell_length_a                   7.4494(13)
_cell_length_b                   5.6208(8)
_cell_length_c                   8.2917(26)
_cell_volume                     282.67(12)
_computing_structure_refinement  GSAS
_diffrn_radiation_polarisn_ratio 0.95
_diffrn_radiation_probe          x-ray
_diffrn_radiation_wavelength     0.3685
_exptl_absorpt_correction_T_max  1.00000
_exptl_absorpt_correction_T_min  1.00000
_exptl_absorpt_process_details
;   GSAS Absorption/surface roughness correction: function number 0
 No correction is applied.
;
_pd_calc_method                  'Rietveld Refinement'
_pd_instr_location               ' ?'
_pd_meas_2theta_range_inc        0.0141
_pd_meas_2theta_range_max        32.6202
_pd_meas_2theta_range_min        0.021
_pd_meas_number_of_points        2313
_pd_phase_name                   naphthalene
_pd_prep_pressure                4.85
_pd_proc_2theta_range_inc        0.0141
_pd_proc_2theta_range_max        32.6202
_pd_proc_2theta_range_min        0.021
_pd_proc_info_datetime           2013-04-17T15:53:23
_pd_proc_info_excluded_regions   ' ?'
_pd_proc_ls_background_function
;   GSAS Background function number 1 with 34 terms.
 Shifted Chebyshev function of 1st kind
      1:    4374.45     2:   -688.039     3:    72.9127     4:   -384.206    
      5:    283.151     6:   -103.986     7:    8.86457     8:    11.4963    
      9:   -18.3127    10:   -7.09524    11:   0.797146    12:    26.5080    
     13:   -2.82961    14:   -20.0280    15:    5.83090    16:   0.604308    
     17:    1.32805    18:   -6.80070    19:    1.99399    20:    12.2537    
     21:    4.73455    22:   -6.75058    23:    7.79261    24:   -7.17910    
     25:    3.39135    26:    3.43804    27:  -0.749753    28:    2.32578    
     29:  -0.952917    30:  -0.767987    31:   -6.80608    32:   -5.18600    
     33:    2.84484    34:    3.84208    
;
_pd_proc_ls_peak_cutoff          0.01000
_pd_proc_ls_pref_orient_corr
;   March-Dollase
 AXIS  1 Ratio=     1.478 Frac     0.584  h= 0.000  k= 0.000  l= 1.000
 AXIS  2 Ratio=     1.574 Frac     0.416  h= 1.000  k= 0.000  l= 0.000
 Prefered orientation correction range: Min=   0.36401, Max=   1.87008
;
_pd_proc_ls_profile_function
;
 CW Profile function number 2 with  18 terms
 Profile coefficients for Simpson's rule integration of pseudovoigt function
 C.J. Howard (1982). J. Appl. Cryst.,15,615-620.
 P. Thompson, D.E. Cox & J.B. Hastings (1987). J. Appl. Cryst.,20,79-83.
 #1(GU)   = 3149.470 #2(GV)   =  -11.791 #3(GW)   =    4.691
 #4(LX)   =    0.251 #5(LY)   =   49.683 #6(trns) =    0.000
 #7(asym) =   0.2767 #8(shft) =   0.0000 #9(GP)   =    0.000
 #10(stec)=     0.00 #11(ptec)=     0.00 #12(sfec)=     0.00
 #13(L11) =    0.000 #14(L22) =    0.000 #15(L33) =    0.000
 #16(L12) =    0.000 #17(L13) =    0.000 #18(L23) =    0.000
 Peak tails are ignored  where the intensity is below 0.0100 times the peak
   Aniso. broadening axis   0.0   0.0   1.0
;
_pd_proc_ls_prof_R_factor        0.0054
_pd_proc_ls_prof_wR_expected     0.0151
_pd_proc_ls_prof_wR_factor       0.0074
_pd_proc_number_of_points        2313
_pd_spec_mounting                ' ?'
_refine_ls_goodness_of_fit_all   0.50
_refine_ls_matrix_type           full
_refine_ls_number_parameters     31
_refine_ls_number_restraints     10
_refine_ls_R_Fsqd_factor         0.14248
_refine_ls_shift/su_max          3.02
_refine_ls_shift/su_mean         0.87
_reflns_d_resolution_high        1.045
_reflns_d_resolution_low         6.751
_reflns_limit_h_max              7
_reflns_limit_h_min              0
_reflns_limit_k_max              5
_reflns_limit_k_min              0
_reflns_limit_l_max              6
_reflns_limit_l_min              -8
_reflns_number_total             256
_cod_data_source_file            kk5159sup9.cif
_cod_data_source_block           REF1_publ_485
_cod_depositor_comments
;
The following automatic conversions were performed:

data item '_geom_angle_publ_flag' value 'N' was changed to 'n' in
accordance with the
/home/saulius/struct/COD-crude-data/automatic-downloads/DataCite-retrospective/IUCr/depositions/lib/dictionaries/cif_core.dic
dictionary named 'cif_core.dic' version 2.4.2 last updated on
2011-04-26 (15 times).

data item '_geom_bond_publ_flag' value 'N' was changed to 'n' in
accordance with the
/home/saulius/struct/COD-crude-data/automatic-downloads/DataCite-retrospective/IUCr/depositions/lib/dictionaries/cif_core.dic
dictionary named 'cif_core.dic' version 2.4.2 last updated on
2011-04-26 (35 times).

Automatic conversion script
Id: cif_fix_values 7556 2019-12-06 15:28:31Z antanas 
;
_cod_original_cell_volume        282.67(9)
_cod_database_code               2300652
_gsas_exptl_extinct_corr_t_min   1.00000
_gsas_exptl_extinct_corr_t_max   1.00000
loop_
_symmetry_equiv_pos_site_id
_symmetry_equiv_pos_as_xyz
1 +x,+y,+z
2 -x+1/2,+y+1/2,-z
-1 -x,-y,-z
-2 +x+1/2,-y+1/2,+z
loop_
_atom_site_type_symbol
_atom_site_label
_atom_site_fract_x
_atom_site_fract_y
_atom_site_fract_z
_atom_site_occupancy
_atom_site_thermal_displace_type
_atom_site_U_iso_or_equiv
_atom_site_symmetry_multiplicity
C C1 0.0845(8) 0.0201(7) 0.3370(5) 1.0 Uiso 0.034 4
C C2 0.1168(8) 0.1705(7) 0.2280(4) 1.0 Uiso 0.03 4
C C3 0.0503(7) 0.1092(4) 0.0368(4) 1.0 Uiso 0.021 4
C C4 0.0792(8) 0.2624(7) -0.0799(5) 1.0 Uiso 0.021 4
C C5 -0.0139(8) -0.1991(7) 0.2625(5) 1.0 Uiso 0.03 4
H H1 0.1267(21) 0.060(4) 0.4616(7) 1.0 Uiso 0.035 4
H H2 0.1811(25) 0.3154(10) 0.278(4) 1.0 Uiso 0.03 4
H H4 0.1442(22) 0.4079(10) -0.035(5) 1.0 Uiso 0.025 4
H H5 -0.0314(13) -0.3022(15) 0.3379(8) 1.0 Uiso 0.03 4
loop_
_atom_type_symbol
_atom_type_number_in_cell
_atom_type_scat_dispersion_real
_atom_type_scat_dispersion_imag
_atom_type_scat_Cromer_Mann_a1
_atom_type_scat_Cromer_Mann_a2
_atom_type_scat_Cromer_Mann_a3
_atom_type_scat_Cromer_Mann_a4
_atom_type_scat_Cromer_Mann_b1
_atom_type_scat_Cromer_Mann_b2
_atom_type_scat_Cromer_Mann_b3
_atom_type_scat_Cromer_Mann_b4
_atom_type_scat_Cromer_Mann_c
_atom_type_scat_source
C 20.0 0.000 0.000 2.31000 20.8439 1.02000 10.2075 1.58860 0.56870 0.86500
51.6512 0.21560 International_Tables_Vol_C
H 16.0 0.000 0.000 0.49300 10.5109 0.32291 26.1257 0.14019 3.14236 0.04081
57.7997 0.00304 International_Tables_Vol_C
loop_
_geom_angle_atom_site_label_1
_geom_angle_atom_site_label_2
_geom_angle_atom_site_label_3
_geom_angle
_geom_angle_site_symmetry_1
_geom_angle_site_symmetry_3
_geom_angle_publ_flag
C2 C1 C5 120.7(4) 1_555 1_555 n
C2 C1 H1 121.5(14) 1_555 1_555 n
C5 C1 H1 117.8(14) 1_555 1_555 n
C1 C2 C3 121.16(34) 1_555 1_555 n
C1 C2 H2 120.4(22) 1_555 1_555 n
C3 C2 H2 118.4(22) 1_555 1_555 n
C2 C3 C3 117.6(4) 1_555 -1_555 n
C2 C3 C4 122.32(24) 1_555 1_555 n
C3 C3 C4 120.1(4) -1_555 1_555 n
C3 C4 C5 121.0(4) 1_555 -1_555 n
C3 C4 H4 121.9(26) 1_555 1_555 n
C5 C4 H4 117.0(26) -1_555 1_555 n
C1 C5 C4 119.4(4) 1_555 -1_555 n
C1 C5 H5 120.5(6) 1_555 1_555 n
C4 C5 H5 120.1(6) -1_555 1_555 n
loop_
_geom_bond_atom_site_label_1
_geom_bond_atom_site_label_2
_geom_bond_distance
_geom_bond_site_symmetry_2
_geom_bond_publ_flag
C1 C2 1.357(4) 1_555 n
C1 C5 1.383(4) 1_555 n
C1 H1 0.915(5) 1_555 n
C1 H2 1.982(20) 1_555 n
C1 H5 2.009(7) 1_555 n
C2 C1 1.357(4) 1_555 n
C2 C3 1.402(4) 1_555 n
C2 H1 1.995(13) 1_555 n
C2 H2 0.913(5) 1_555 n
C3 C2 1.402(4) 1_555 n
C3 C3 1.3824(34) -1_555 n
C3 C4 1.402(4) 1_555 n
C3 H2 2.004(22) 1_555 n
C3 H4 2.038(24) 1_555 n
C4 C3 1.402(4) 1_555 n
C4 C5 1.342(4) -1_555 n
C4 H4 0.912(5) 1_555 n
C4 H5 1.967(7) -1_555 n
C5 C1 1.383(4) 1_555 n
C5 C4 1.342(4) -1_555 n
C5 H1 1.982(15) 1_555 n
C5 H4 1.935(26) -1_555 n
C5 H5 0.916(6) 1_555 n
H1 C1 0.915(5) 1_555 n
H1 C2 1.995(13) 1_555 n
H1 C5 1.982(15) 1_555 n
H2 C1 1.982(20) 1_555 n
H2 C2 0.913(5) 1_555 n
H2 C3 2.004(22) 1_555 n
H4 C3 2.038(24) 1_555 n
H4 C4 0.912(5) 1_555 n
H4 C5 1.935(26) -1_555 n
H5 C1 2.009(7) 1_555 n
H5 C4 1.967(7) -1_555 n
H5 C5 0.916(6) 1_555 n
loop_
_pd_meas_counts_total
_pd_proc_ls_weight
_pd_proc_intensity_bkg_calc
_pd_calc_intensity_total
0.0 . . .
0.0 . . .
0.0 . . .
0.0 . . .
0.0 . . .
0.0 . . .
0.0 . . .
0.0 . . .
0.0 . . .
0.0 . . .
0.0 . . .
0.0 . . .
0.0 . . .
0.0 . . .
0.0 . . .
0.0 . . .
0.0 . . .
0.0 . . .
0.0 . . .
0.0 . . .
0.0 . . .
0.0 . . .
0.0 . . .
0.0 . . .
0.0 . . .
0.0 . . .
0.0 . . .
0.0 . . .
0.0 . . .
0.0 . . .
0.0 . . .
0.0 . . .
0.0 . . .
0.0 . . .
0.0 . . .
0.0 . . .
0.0 . . .
0.0 . . .
0.0 . . .
0.0 . . .
0.0 . . .
0.0 . . .
0.0 . . .
0.0 . . .
0.0 . . .
0.0 . . .
0.0 . . .
0.0 . . .
0.0 . . .
0.0 . . .
0.0 . . .
0.0 . . .
0.0 . . .
0.0 . . .
0.0 . . .
0.0 . . .
0.0 . . .
0.0 . . .
0.0 . . .
0.0 . . .
0.0 . . .
0.0 . . .
0.0 . . .
0.0 . . .
0.0 . . .
1370.0 . . .
1360.0 . . .
1250.0 . . .
1210.0 . . .
1240.0 . . .
1390.0 . . .
1500.0 . . .
1370.0 . . .
1180.0 . . .
1150.0 . . .
1190.0 . . .
1240.0 . . .
1300.0 . . .
1330.0 . . .
1220.0 . . .
1200.0 . . .
1210.0 . . .
1230.0 . . .
1260.0 . . .
1230.0 . . .
1230.0 . . .
1250.0 . . .
1250.0 . . .
1230.0 . . .
1210.0 . . .
1220.0 . . .
1240.0 . . .
1210.0 . . .
1190.0 . . .
1190.0 . . .
1210.0 . . .
1200.0 . . .
1170.0 . . .
1190.0 . . .
1210.0 . . .
1220.0 . . .
1210.0 . . .
1240.0 . . .
1310.0 . . .
1370.0 . . .
1450.0 . . .
1560.0 . . .
1660.0 . . .
1780.0 . . .
1910.0 . . .
2030.0 . . .
2160.0 . . .
2320.0 . . .
2420.0 . . .
2500.0 . . .
2600.0 . . .
2730.0 . . .
2880.0 . . .
3050.0 . . .
3140.0 . . .
3110.0 . . .
3130.0 . . .
3190.0 . . .
3270.0 . . .
3270.0 . . .
3250.0 . . .
3300.0 . . .
3340.0 . . .
3390.0 . . .
3430.0 . . .
3490.0 . . .
3540.0 . . .
3570.0 . . .
3600.0 . . .
3640.0 . . .
3730.0 . . .
3810.0 . . .
3910.0 . . .
3980.0 . . .
4000.0 . . .
3950.0 . . .
3940.0 . . .
3980.0 . . .
4020.0 . . .
4070.0 . . .
4130.0 . . .
4190.0 . . .
4290.0 . . .
4340.0 . . .
4410.0 . . .
4520.0 . . .
4630.0 . . .
4690.0 . . .
4780.0 . . .
4850.0 . . .
4920.0 . . .
4970.0 . . .
5000.0 . . .
5080.0 . . .
5130.0 . . .
5160.0 . . .
5180.0 . . .
5230.0 . . .
5280.0 . . .
5370.0 . . .
5480.0 . . .
5530.0 . . .
5580.0 . . .
5630.0 . . .
5660.0 . . .
5630.0 . . .
5600.0 . . .
5590.0 . . .
5630.0 . . .
5670.0 . . .
5670.0 . . .
5730.0 . . .
5760.0 . . .
5820.0 . . .
5880.0 . . .
5890.0 . . .
5900.0 . . .
5920.0 . . .
5890.0 . . .
5900.0 . . .
5910.0 . . .
5910.0 . . .
5910.0 . . .
5890.0 . . .
5900.0 . . .
5950.0 . . .
5950.0 . . .
5950.0 . . .
5930.0 . . .
5950.0 . . .
5940.0 . . .
5910.0 . . .
5920.0 . . .
5940.0 . . .
5930.0 . . .
5930.0 . . .
5950.0 . . .
5970.0 . . .
5970.0 . . .
5970.0 . . .
5920.0 . . .
5920.0 . . .
5910.0 0.0001692 5908.01172 5918.52393
5890.0 0.0001698 5880.10840 5892.58594
5890.0 0.0001698 5853.71240 5868.86768
5880.0 0.0001701 5828.94873 5848.22217
5860.0 0.0001706 5805.85498 5832.71094
5850.0 0.0001709 5784.41064 5827.21436
5840.0 0.0001712 5764.54492 5841.14746
5880.0 0.0001701 5746.15186 5888.74463
6010.0 0.0001664 5729.10449 5986.36816
6160.0 0.0001623 5713.25928 6144.43115
6360.0 0.0001572 5698.46240 6351.56055
6570.0 0.0001522 5684.56494 6565.94092
6680.0 0.0001497 5671.41553 6706.78467
6570.0 0.0001522 5658.86621 6671.06006
6350.0 0.0001575 5646.78613 6453.85254
6110.0 0.0001637 5635.04590 6168.19775
5900.0 0.0001695 5623.52979 5923.12451
5780.0 0.0001730 5612.13916 5762.04541
5710.0 0.0001751 5600.78223 5674.05518
5670.0 0.0001764 5589.38281 5629.30811
5640.0 0.0001773 5577.87256 5603.95801
5620.0 0.0001779 5566.20166 5585.76514
5590.0 0.0001789 5554.32422 5570.01904
5560.0 0.0001799 5542.21045 5555.19189
5530.0 0.0001808 5529.83008 5540.76074
5520.0 0.0001812 5517.17627 5526.50488
5500.0 0.0001818 5504.23633 5512.28955
5500.0 0.0001818 5491.01367 5498.03418
5520.0 0.0001812 5477.51123 5483.68506
5510.0 0.0001815 5463.74170 5469.21240
5490.0 0.0001821 5449.71533 5454.59619
5470.0 0.0001828 5435.45752 5435.45752
5420.0 0.0001845 5420.98193 5420.98193
5390.0 0.0001855 5406.31836 5406.31836
5400.0 0.0001852 5391.49219 5391.49219
5370.0 0.0001862 5376.52539 5376.52539
5320.0 0.0001880 5361.44775 5361.44775
5310.0 0.0001883 5346.28906 5346.28906
5280.0 0.0001894 5331.07324 5331.07324
5290.0 0.0001890 5315.82861 5315.82861
5270.0 0.0001898 5300.58105 5300.58105
5250.0 0.0001905 5285.35596 5285.35596
5270.0 0.0001898 5270.17529 5270.17529
5250.0 0.0001905 5255.06641 5255.06641
5220.0 0.0001916 5240.04639 5240.04639
5190.0 0.0001927 5225.13525 5225.13525
5210.0 0.0001919 5210.35400 5210.35400
5210.0 0.0001919 5195.71631 5195.71631
5200.0 0.0001923 5181.23828 5181.23828
5180.0 0.0001931 5166.92969 5166.92969
5130.0 0.0001949 5152.80469 5152.80469
5140.0 0.0001946 5138.87354 5138.87354
5140.0 0.0001946 5125.14111 5125.14111
5110.0 0.0001957 5111.61475 5111.61475
5110.0 0.0001957 5098.29883 5098.29883
5140.0 0.0001946 5085.19727 5085.19727
5130.0 0.0001949 5072.31250 5072.31250
5110.0 0.0001957 5059.64355 5059.64355
5060.0 0.0001976 5047.18945 5047.18945
5020.0 0.0001992 5034.94775 5034.94775
5000.0 0.0002000 5022.91846 5022.91846
5000.0 0.0002000 5011.09277 5011.09277
4970.0 0.0002012 4999.46680 4999.46680
4970.0 0.0002012 4988.03857 4988.03857
4950.0 0.0002020 4976.79688 4976.79688
4970.0 0.0002012 4965.73730 4965.73730
4970.0 0.0002012 4954.85303 4954.85303
4960.0 0.0002016 4944.13086 4944.13086
4960.0 0.0002016 4933.56738 4933.56738
4950.0 0.0002020 4923.15186 4923.15186
4920.0 0.0002033 4912.87354 4912.87354
4870.0 0.0002053 4902.72510 4902.72510
4880.0 0.0002049 4892.69824 4892.69824
4910.0 0.0002037 4882.77686 4882.77686
4920.0 0.0002033 4872.95996 4872.95996
4890.0 0.0002045 4863.23584 4863.23584
4870.0 0.0002053 4853.58984 4853.58984
4870.0 0.0002053 4844.02051 4844.02051
4830.0 0.0002070 4834.51465 4834.51465
4820.0 0.0002075 4825.06396 4825.06396
4810.0 0.0002079 4815.66211 4815.66211
4770.0 0.0002096 4806.30127 4806.30127
4730.0 0.0002114 4796.97412 4796.97412
4720.0 0.0002119 4787.67139 4787.67139
4720.0 0.0002119 4778.38965 4778.38965
4740.0 0.0002110 4769.12256 4769.12256
4750.0 0.0002105 4759.86084 4759.86084
4740.0 0.0002110 4750.60400 4750.60400
4760.0 0.0002101 4741.34814 4741.34814
4760.0 0.0002101 4732.08740 4732.08740
4770.0 0.0002096 4722.82227 4722.82227
4780.0 0.0002092 4713.54590 4713.54590
4740.0 0.0002110 4704.25537 4704.25537
4710.0 0.0002123 4694.95313 4694.95313
4690.0 0.0002132 4685.63916 4685.63916
4690.0 0.0002132 4676.31055 4676.31055
4670.0 0.0002141 4666.96680 4666.96680
4640.0 0.0002155 4657.61084 4657.61084
4600.0 0.0002174 4648.24414 4648.24414
4600.0 0.0002174 4638.86914 4638.86914
4590.0 0.0002179 4629.48633 4629.48633
4610.0 0.0002169 4620.09961 4620.09961
4600.0 0.0002174 4610.71338 4610.71338
4590.0 0.0002179 4601.33203 4601.33203
4600.0 0.0002174 4591.95898 4591.95898
4590.0 0.0002179 4582.59766 4582.59766
4560.0 0.0002193 4573.25342 4573.25342
4550.0 0.0002198 4563.93555 4563.93555
4560.0 0.0002193 4554.64648 4554.64648
4540.0 0.0002203 4545.39111 4545.39111
4540.0 0.0002203 4536.17822 4536.17822
4560.0 0.0002193 4527.01123 4527.01123
4540.0 0.0002203 4517.90088 4517.90088
4510.0 0.0002217 4508.85156 4508.85156
4480.0 0.0002232 4499.87256 4499.87256
4450.0 0.0002247 4490.96777 4496.61572
4470.0 0.0002237 4482.14404 4488.43311
4480.0 0.0002232 4473.41260 4480.45752
4470.0 0.0002237 4464.77881 4472.72314
4460.0 0.0002242 4456.24463 4465.67432
4460.0 0.0002242 4447.82617 4458.61768
4470.0 0.0002237 4439.52051 4451.99561
4480.0 0.0002232 4431.34424 4445.96045
4480.0 0.0002232 4423.29541 4440.79346
4450.0 0.0002247 4415.38672 4437.16846
4450.0 0.0002247 4407.61865 4436.66699
4430.0 0.0002257 4400.00146 4442.75684
4440.0 0.0002252 4392.53809 4461.97656
4530.0 0.0002208 4385.23584 4504.42529
4630.0 0.0002160 4378.10107 4581.75146
4780.0 0.0002092 4371.13281 4701.05420
4980.0 0.0002008 4364.34033 4855.40381
5110.0 0.0001957 4357.72656 5016.02637
5200.0 0.0001923 4351.29736 5135.08154
5190.0 0.0001927 4345.05127 5163.22266
5050.0 0.0001980 4338.99316 5083.37646
4870.0 0.0002053 4333.12598 4952.01172
4720.0 0.0002119 4327.45410 4786.11426
4620.0 0.0002165 4321.97461 4641.17285
4530.0 0.0002208 4316.69092 4532.38477
4460.0 0.0002242 4311.60547 4459.86670
4440.0 0.0002252 4306.71631 4416.01953
4420.0 0.0002262 4302.02295 4391.88818
4390.0 0.0002278 4297.52637 4380.89404
4370.0 0.0002288 4293.22461 4379.97070
4340.0 0.0002304 4289.11719 4390.21631
4360.0 0.0002294 4285.20508 4418.61133
4410.0 0.0002268 4281.48096 4480.78564
4480.0 0.0002232 4277.94580 4602.79932
4640.0 0.0002155 4274.59570 4817.45117
4980.0 0.0002008 4271.42871 5150.59863
5510.0 0.0001815 4268.43799 5597.18750
6120.0 0.0001634 4265.62305 6090.59131
6600.0 0.0001515 4262.97852 6520.17041
6810.0 0.0001468 4260.50098 6727.67139
6700.0 0.0001493 4258.18262 6612.45215
6260.0 0.0001597 4256.02295 6219.95996
5710.0 0.0001751 4254.01367 5709.05127
5220.0 0.0001916 4252.14893 5225.58203
4840.0 0.0002066 4250.42529 4849.84912
4600.0 0.0002174 4248.83496 4599.40625
4480.0 0.0002232 4247.37256 4452.26074
4400.0 0.0002273 4246.03223 4373.34814
4360.0 0.0002294 4244.80859 4332.44336
4310.0 0.0002320 4243.69336 4310.19189
4300.0 0.0002326 4242.68311 4296.53418
4290.0 0.0002331 4241.76855 4286.96729
4270.0 0.0002342 4240.94287 4279.63184
4270.0 0.0002342 4240.20166 4273.73633
4270.0 0.0002342 4239.53809 4268.88477
4250.0 0.0002353 4238.94287 4264.83398
4250.0 0.0002353 4238.41357 4261.41943
4270.0 0.0002342 4237.94092 4237.94092
4260.0 0.0002347 4237.52051 4237.52051
4250.0 0.0002353 4237.14551 4237.14551
4230.0 0.0002364 4236.80908 4236.80908
4240.0 0.0002358 4236.50537 4236.50537
4260.0 0.0002347 4236.22900 4236.22900
4260.0 0.0002347 4235.97656 4235.97656
4270.0 0.0002342 4235.73730 4235.73730
4280.0 0.0002336 4235.51123 4245.75146
4270.0 0.0002342 4235.28857 4246.70752
4250.0 0.0002353 4235.06885 4247.88037
4240.0 0.0002358 4234.84668 4249.31787
4250.0 0.0002353 4234.61621 4251.09180
4260.0 0.0002347 4234.37012 4253.31152
4240.0 0.0002358 4234.10986 4256.18994
4240.0 0.0002358 4233.83008 4260.16064
4280.0 0.0002336 4233.52734 4266.20020
4320.0 0.0002315 4233.19971 4276.45068
4340.0 0.0002304 4232.83936 4295.18115
4390.0 0.0002278 4232.44678 4329.83350
4490.0 0.0002227 4232.02246 4391.18799
4610.0 0.0002169 4231.56104 4491.28711
4740.0 0.0002110 4231.06006 4637.98877
4890.0 0.0002045 4230.51855 4828.28564
5010.0 0.0001996 4229.93701 5035.62646
5070.0 0.0001972 4229.31348 5215.55469
5100.0 0.0001961 4228.64600 5311.05957
5070.0 0.0001972 4227.93311 5281.98779
4980.0 0.0002008 4227.17822 5138.65723
4860.0 0.0002058 4226.37598 4935.30127
4740.0 0.0002110 4225.53125 4728.83789
4630.0 0.0002160 4224.64307 4555.73633
4510.0 0.0002217 4223.71094 4430.02002
4420.0 0.0002262 4222.73633 4348.99121
4370.0 0.0002288 4221.72070 4301.52002
4330.0 0.0002309 4220.66260 4275.57715
4290.0 0.0002331 4219.56641 4261.22607
4280.0 0.0002336 4218.43213 4252.88574
4260.0 0.0002347 4217.26025 4247.54932
4260.0 0.0002347 4216.05518 4243.91064
4220.0 0.0002370 4214.81592 4241.58447
4210.0 0.0002375 4213.54736 4241.28857
4210.0 0.0002375 4212.25049 4242.92480
4220.0 0.0002370 4210.92725 4248.57471
4210.0 0.0002375 4209.57959 4260.68018
4200.0 0.0002381 4208.21289 4272.38232
4230.0 0.0002364 4206.82520 4306.23242
4260.0 0.0002347 4205.42285 4351.23340
4330.0 0.0002309 4204.00391 4403.01514
4410.0 0.0002268 4202.57422 4452.10742
4460.0 0.0002242 4201.13721 4485.10791
4500.0 0.0002222 4199.69482 4489.74268
4530.0 0.0002208 4198.24854 4463.27588
4500.0 0.0002222 4196.80225 4415.57715
4430.0 0.0002257 4195.35693 4361.31787
4400.0 0.0002273 4193.91797 4312.17285
4350.0 0.0002299 4192.48535 4274.66895
4330.0 0.0002309 4191.06348 4250.76563
4320.0 0.0002315 4189.65430 4239.30908
4290.0 0.0002331 4188.25977 4237.63525
4250.0 0.0002353 4186.88379 4242.72021
4240.0 0.0002358 4185.52539 4251.66943
4240.0 0.0002358 4184.19092 4261.85449
4260.0 0.0002347 4182.87842 4271.22266
4250.0 0.0002353 4181.59473 4279.03418
4250.0 0.0002353 4180.34082 4285.79150
4260.0 0.0002347 4179.11572 4291.53613
4250.0 0.0002353 4177.92285 4294.46045
4250.0 0.0002353 4176.76514 4291.45703
4260.0 0.0002347 4175.64404 4280.50342
4240.0 0.0002358 4174.55859 4262.92529
4230.0 0.0002364 4173.51318 4242.50049
4260.0 0.0002347 4172.50684 4222.87891
4240.0 0.0002358 4171.54248 4206.37158
4230.0 0.0002364 4170.62109 4193.86865
4210.0 0.0002375 4169.74561 4185.16895
4190.0 0.0002387 4168.91162 4179.45410
4190.0 0.0002387 4168.12549 4175.77783
4190.0 0.0002387 4167.38525 4171.99268
4190.0 0.0002387 4166.69092 4177.41846
4180.0 0.0002392 4166.04639 4176.70996
4170.0 0.0002398 4165.44873 4176.29004
4160.0 0.0002404 4164.89941 4176.09326
4150.0 0.0002410 4164.39990 4176.10010
4160.0 0.0002404 4163.94824 4176.30371
4140.0 0.0002415 4163.54492 4176.71582
4150.0 0.0002410 4163.19141 4180.00244
4170.0 0.0002398 4162.88770 4181.35449
4150.0 0.0002410 4162.63232 4182.77197
4170.0 0.0002398 4162.42383 4184.54834
4160.0 0.0002404 4162.26465 4186.49756
4140.0 0.0002415 4162.15381 4189.26123
4150.0 0.0002410 4162.09082 4192.73779
4160.0 0.0002404 4162.07422 4197.26123
4150.0 0.0002410 4162.10352 4203.50635
4180.0 0.0002392 4162.18018 4212.34668
4200.0 0.0002381 4162.30225 4227.42529
4240.0 0.0002358 4162.46924 4252.76611
4310.0 0.0002320 4162.67920 4295.36963
4380.0 0.0002283 4162.93164 4364.48535
4480.0 0.0002232 4163.22949 4469.35059
4650.0 0.0002151 4163.56934 4616.10205
4830.0 0.0002070 4163.94727 4802.47852
5060.0 0.0001976 4164.37012 5013.53174
5270.0 0.0001898 4164.82910 5219.31152
5450.0 0.0001835 4165.33008 5377.87842
5580.0 0.0001792 4165.86670 5449.01270
5560.0 0.0001799 4166.44189 5419.26660
5420.0 0.0001845 4167.05469 5315.28613
5250.0 0.0001905 4167.70166 5183.70459
5070.0 0.0001972 4168.38525 5062.56934
4910.0 0.0002037 4169.10352 4968.82813
4800.0 0.0002083 4169.85449 4898.52002
4720.0 0.0002119 4170.63916 4834.03467
4660.0 0.0002146 4171.45459 4758.26514
4560.0 0.0002193 4172.30322 4667.11035
4490.0 0.0002227 4173.18359 4568.77002
4440.0 0.0002252 4174.09375 4474.76123
4390.0 0.0002278 4175.03418 4394.00879
4350.0 0.0002299 4175.99951 4331.12256
4310.0 0.0002320 4177.00049 4286.59424
4280.0 0.0002336 4178.02686 4257.93066
4270.0 0.0002342 4179.07861 4241.28174
4260.0 0.0002347 4180.15869 4232.72656
4260.0 0.0002347 4181.26904 4228.97412
4250.0 0.0002353 4182.40381 4228.79199
4260.0 0.0002347 4183.56348 4227.91846
4250.0 0.0002353 4184.74854 4226.44141
4210.0 0.0002375 4185.96191 4224.06689
4200.0 0.0002381 4187.19727 4221.16211
4200.0 0.0002381 4188.45947 4218.34912
4200.0 0.0002381 4189.74268 4216.13867
4190.0 0.0002387 4191.05273 4214.83984
4210.0 0.0002375 4192.39014 4207.57227
4230.0 0.0002364 4193.74609 4208.55371
4240.0 0.0002358 4195.12695 4210.03271
4220.0 0.0002370 4196.53027 4211.65186
4220.0 0.0002370 4197.95850 4213.10156
4240.0 0.0002358 4199.40918 4214.25684
4250.0 0.0002353 4200.88184 4215.25342
4240.0 0.0002358 4202.37842 4213.74854
4250.0 0.0002353 4203.89697 4215.43945
4270.0 0.0002342 4205.43652 4218.55957
4290.0 0.0002331 4206.99854 4223.59717
4320.0 0.0002315 4208.58350 4231.57422
4330.0 0.0002309 4210.18945 4243.66748
4330.0 0.0002309 4211.81592 4261.02686
4330.0 0.0002309 4213.46582 4284.29443
4340.0 0.0002304 4215.13428 4313.02441
4350.0 0.0002299 4216.82617 4345.18652
4340.0 0.0002304 4218.53516 4376.83350
4320.0 0.0002315 4220.26514 4402.28027
4320.0 0.0002315 4222.01465 4415.39209
4310.0 0.0002320 4223.78516 4416.09229
4270.0 0.0002342 4225.57520 4398.84326
4250.0 0.0002353 4227.38184 4372.74316
4250.0 0.0002353 4229.20752 4343.90967
4240.0 0.0002358 4231.05029 4317.11377
4230.0 0.0002364 4232.91211 4295.17383
4230.0 0.0002364 4234.79150 4279.12695
4220.0 0.0002370 4236.68359 4268.67725
4220.0 0.0002370 4238.59521 4262.79834
4210.0 0.0002375 4240.52002 4260.23975
4220.0 0.0002370 4242.45850 4259.90381
4230.0 0.0002364 4244.41260 4260.95898
4240.0 0.0002358 4246.37891 4263.01221
4240.0 0.0002358 4248.35840 4265.80664
4250.0 0.0002353 4250.34863 4269.62598
4270.0 0.0002342 4252.35059 4274.19385
4290.0 0.0002331 4254.36328 4281.56055
4290.0 0.0002331 4256.38525 4290.38232
4300.0 0.0002326 4258.41406 4303.45166
4320.0 0.0002315 4260.45215 4323.10547
4360.0 0.0002294 4262.49414 4352.19336
4430.0 0.0002257 4264.54443 4393.52881
4480.0 0.0002232 4266.59912 4448.86572
4560.0 0.0002193 4268.65723 4517.63916
4640.0 0.0002155 4270.72070 4595.79102
4720.0 0.0002119 4272.78125 4675.03076
4790.0 0.0002088 4274.84570 4741.54834
4830.0 0.0002070 4276.90869 4783.98486
4840.0 0.0002066 4278.97217 4788.62793
4790.0 0.0002088 4281.03320 4755.29932
4740.0 0.0002110 4283.09131 4694.52344
4670.0 0.0002141 4285.14453 4621.35449
4600.0 0.0002174 4287.19189 4549.08057
4560.0 0.0002193 4289.23584 4486.97705
4510.0 0.0002217 4291.26807 4440.24365
4480.0 0.0002232 4293.29590 4410.69189
4450.0 0.0002247 4295.31396 4397.72754
4450.0 0.0002247 4297.32129 4399.36084
4470.0 0.0002237 4299.31689 4412.85791
4460.0 0.0002242 4301.30078 4434.95752
4480.0 0.0002232 4303.27197 4461.77393
4500.0 0.0002222 4305.23047 4488.70215
4520.0 0.0002212 4307.17334 4510.68652
4500.0 0.0002222 4309.10303 4523.04834
4500.0 0.0002222 4311.01514 4522.88477
4480.0 0.0002232 4312.91162 4510.70947
4450.0 0.0002247 4314.79102 4490.52734
4440.0 0.0002252 4316.65186 4467.80762
4430.0 0.0002257 4318.49561 4447.24365
4440.0 0.0002252 4320.31738 4431.80322
4440.0 0.0002252 4322.12305 4422.55664
4440.0 0.0002252 4323.90771 4418.82813
4440.0 0.0002252 4325.67432 4418.56885
4420.0 0.0002262 4327.41797 4419.05127
4420.0 0.0002262 4329.14258 4417.39551
4410.0 0.0002268 4330.84473 4408.70801
4380.0 0.0002283 4332.52832 4400.74805
4360.0 0.0002294 4334.18994 4391.04150
4370.0 0.0002288 4335.83252 4381.12012
4380.0 0.0002283 4337.45117 4373.01270
4370.0 0.0002288 4339.05322 4365.79346
4390.0 0.0002278 4340.63184 4360.51221
4370.0 0.0002288 4342.19141 4357.08447
4340.0 0.0002304 4343.73389 4355.20898
4350.0 0.0002299 4345.25391 4354.50000
4330.0 0.0002309 4346.75781 4354.60742
4310.0 0.0002320 4348.24316 4355.24951
4310.0 0.0002320 4349.71191 4356.24121
4310.0 0.0002320 4351.16211 4357.47705
4320.0 0.0002315 4352.59814 4358.64941
4340.0 0.0002304 4354.01904 4360.32422
4310.0 0.0002320 4355.42578 4361.00293
4300.0 0.0002326 4356.81934 4363.37842
4310.0 0.0002320 4358.20020 4366.20898
4320.0 0.0002315 4359.56885 4369.63477
4350.0 0.0002299 4360.93018 4373.82813
4340.0 0.0002304 4362.28076 4378.97510
4360.0 0.0002294 4363.62402 4385.29053
4400.0 0.0002273 4364.96191 4392.97461
4390.0 0.0002278 4366.29395 4402.17041
4380.0 0.0002283 4367.62109 4412.92480
4380.0 0.0002283 4368.94824 4424.60498
4400.0 0.0002273 4370.27246 4438.07617
4400.0 0.0002273 4371.59766 4452.55029
4410.0 0.0002268 4372.92383 4465.61328
4410.0 0.0002268 4374.25439 4475.81299
4450.0 0.0002247 4375.59131 4481.02490
4500.0 0.0002222 4376.93164 4479.91846
4520.0 0.0002212 4378.28076 4472.86328
4540.0 0.0002203 4379.64111 4461.65088
4530.0 0.0002208 4381.01025 4448.59180
4510.0 0.0002217 4382.39111 4435.65723
4510.0 0.0002217 4383.79004 4424.21973
4470.0 0.0002237 4385.20020 4415.02441
4440.0 0.0002252 4386.62939 4408.50977
4420.0 0.0002262 4388.07471 4404.12891
4410.0 0.0002268 4389.54248 4401.70996
4410.0 0.0002268 4391.02930 4400.82715
4420.0 0.0002262 4392.54053 4401.12500
4420.0 0.0002262 4394.07422 4402.37451
4420.0 0.0002262 4395.63281 4404.50684
4410.0 0.0002268 4397.21875 4407.55225
4410.0 0.0002268 4398.83398 4411.68945
4430.0 0.0002257 4400.47510 4417.11035
4440.0 0.0002252 4402.14990 4423.97266
4450.0 0.0002247 4403.85254 4432.27441
4450.0 0.0002247 4405.58838 4441.87402
4470.0 0.0002237 4407.35840 4451.97949
4480.0 0.0002232 4409.16211 4462.01611
4490.0 0.0002227 4411.00098 4470.68408
4500.0 0.0002222 4412.87256 4476.68066
4500.0 0.0002222 4414.78516 4479.06250
4500.0 0.0002222 4416.72998 4477.73438
4470.0 0.0002237 4418.71533 4473.52686
4460.0 0.0002242 4420.73438 4466.85840
4490.0 0.0002227 4422.79492 4460.64648
4480.0 0.0002232 4424.89258 4454.87500
4470.0 0.0002237 4427.02734 4450.15625
4470.0 0.0002237 4429.20508 4446.81445
4450.0 0.0002247 4431.41943 4444.93018
4430.0 0.0002257 4433.67139 4445.20459
4430.0 0.0002257 4435.96240 4446.01074
4470.0 0.0002237 4438.28857 4448.06982
4470.0 0.0002237 4440.65527 4451.08545
4470.0 0.0002237 4443.06104 4455.15283
4470.0 0.0002237 4445.49854 4460.27246
4460.0 0.0002242 4447.97461 4466.43994
4450.0 0.0002247 4450.48633 4473.55615
4470.0 0.0002237 4453.03271 4481.39258
4500.0 0.0002222 4455.61182 4489.79443
4490.0 0.0002227 4458.22119 4497.70020
4490.0 0.0002227 4460.86768 4504.61426
4500.0 0.0002222 4463.54053 4509.80127
4500.0 0.0002222 4466.24316 4512.85449
4500.0 0.0002222 4468.97217 4513.92871
4510.0 0.0002217 4471.73047 4513.65674
4500.0 0.0002222 4474.51221 4512.81348
4500.0 0.0002222 4477.31592 4512.06396
4500.0 0.0002222 4480.14355 4511.31445
4500.0 0.0002222 4482.98877 4511.94629
4500.0 0.0002222 4485.85254 4513.41895
4500.0 0.0002222 4488.73291 4515.59668
4500.0 0.0002222 4491.63135 4518.18945
4490.0 0.0002227 4494.53760 4520.91650
4490.0 0.0002227 4497.45410 4523.57275
4510.0 0.0002217 4500.38428 4526.23340
4510.0 0.0002217 4503.31836 4529.28271
4500.0 0.0002222 4506.25537 4533.18848
4500.0 0.0002222 4509.19434 4538.63623
4500.0 0.0002222 4512.13525 4546.29785
4520.0 0.0002212 4515.07471 4556.80469
4540.0 0.0002203 4518.00781 4570.62988
4560.0 0.0002193 4520.93604 4587.98535
4590.0 0.0002179 4523.85547 4608.59961
4600.0 0.0002174 4526.76025 4631.72559
4620.0 0.0002165 4529.65430 4655.97852
4660.0 0.0002146 4532.53467 4679.42285
4700.0 0.0002128 4535.39355 4699.23633
4720.0 0.0002119 4538.23633 4712.89355
4710.0 0.0002123 4541.05273 4718.65869
4710.0 0.0002123 4543.84619 4716.57568
4730.0 0.0002114 4546.61328 4708.37402
4730.0 0.0002114 4549.34961 4696.57471
4700.0 0.0002128 4552.05566 4683.56982
4680.0 0.0002137 4554.72998 4671.07617
4660.0 0.0002146 4557.36768 4659.95996
4660.0 0.0002146 4559.97021 4650.30518
4690.0 0.0002132 4562.53174 4641.70215
4670.0 0.0002141 4565.05273 4633.69434
4660.0 0.0002146 4567.52930 4626.10498
4630.0 0.0002160 4569.96240 4618.85107
4630.0 0.0002160 4572.34814 4612.58447
4640.0 0.0002155 4574.68604 4607.29932
4650.0 0.0002151 4576.97314 4603.13672
4640.0 0.0002155 4579.21045 4600.16504
4640.0 0.0002155 4581.39551 4598.35352
4620.0 0.0002165 4583.52588 4597.65674
4600.0 0.0002174 4585.59912 4597.91699
4580.0 0.0002183 4587.61719 4598.97363
4560.0 0.0002193 4589.57715 4600.64502
4580.0 0.0002183 4591.47607 4602.76318
4600.0 0.0002174 4593.31934 4605.10400
4600.0 0.0002174 4595.09717 4607.67969
4610.0 0.0002169 4596.81689 4610.30078
4620.0 0.0002165 4598.47021 4612.88672
4610.0 0.0002169 4600.06543 4615.43652
4600.0 0.0002174 4601.59424 4617.99707
4620.0 0.0002165 4603.06006 4620.64111
4640.0 0.0002155 4604.46191 4623.39307
4640.0 0.0002155 4605.79883 4626.19971
4610.0 0.0002169 4607.06934 4628.91260
4610.0 0.0002169 4608.27686 4631.36768
4630.0 0.0002160 4609.41992 4633.30615
4640.0 0.0002155 4610.49805 4634.48389
4630.0 0.0002160 4611.51270 4634.73730
4610.0 0.0002169 4612.46094 4634.07422
4610.0 0.0002169 4613.34668 4631.89502
4610.0 0.0002169 4614.16943 4630.70801
4620.0 0.0002165 4614.93066 4628.68506
4650.0 0.0002151 4615.62891 4626.85596
4640.0 0.0002155 4616.26514 4625.53516
4630.0 0.0002160 4616.84033 4624.23926
4620.0 0.0002165 4617.35449 4623.41553
4630.0 0.0002160 4617.81348 4622.76172
4640.0 0.0002155 4618.21094 4622.36621
4670.0 0.0002141 4618.55420 4621.93018
4710.0 0.0002123 4618.83936 4621.88770
4700.0 0.0002128 4619.07227 4621.93604
4670.0 0.0002141 4619.25000 4622.03125
4670.0 0.0002141 4619.37646 4622.14795
4660.0 0.0002146 4619.45215 4622.26563
4660.0 0.0002146 4619.47754 4622.37598
4650.0 0.0002151 4619.45459 4622.47363
4630.0 0.0002160 4619.38574 4622.55957
4650.0 0.0002151 4619.27197 4622.63818
4650.0 0.0002151 4619.11279 4622.71436
4630.0 0.0002160 4618.91406 4622.80371
4610.0 0.0002169 4618.67236 4622.94434
4600.0 0.0002174 4618.39307 4623.12988
4600.0 0.0002174 4618.07471 4623.42920
4580.0 0.0002183 4617.71973 4623.92383
4570.0 0.0002188 4617.33252 4624.73633
4600.0 0.0002174 4616.91211 4625.99170
4600.0 0.0002174 4616.45947 4628.00195
4610.0 0.0002169 4615.97754 4631.00928
4600.0 0.0002174 4615.46875 4635.34619
4590.0 0.0002179 4614.93213 4641.34668
4620.0 0.0002165 4614.37012 4649.30859
4630.0 0.0002160 4613.78516 4659.39648
4630.0 0.0002160 4613.17773 4671.64209
4640.0 0.0002155 4612.54932 4685.74268
4660.0 0.0002146 4611.90234 4700.97266
4690.0 0.0002132 4611.23535 4716.89502
4690.0 0.0002132 4610.55322 4731.36377
4710.0 0.0002123 4609.85400 4743.09668
4730.0 0.0002114 4609.14355 4750.64258
4730.0 0.0002114 4608.41748 4753.02246
4730.0 0.0002114 4607.68018 4750.08545
4740.0 0.0002110 4606.93359 4742.30859
4740.0 0.0002110 4606.17627 4730.61865
4750.0 0.0002105 4605.40967 4716.16992
4750.0 0.0002105 4604.63721 4700.26660
4750.0 0.0002105 4603.85547 4684.13281
4730.0 0.0002114 4603.06738 4668.78955
4710.0 0.0002123 4602.27295 4655.00732
4700.0 0.0002128 4601.47656 4643.21436
4670.0 0.0002141 4600.67725 4633.38574
4630.0 0.0002160 4599.86914 4625.53076
4620.0 0.0002165 4599.06055 4619.44629
4620.0 0.0002165 4598.24902 4614.84277
4610.0 0.0002169 4597.43604 4611.41943
4600.0 0.0002174 4596.61816 4608.88623
4600.0 0.0002174 4595.79980 4606.99268
4590.0 0.0002179 4594.97949 4605.53076
4580.0 0.0002183 4594.15771 4604.35156
4570.0 0.0002188 4593.33105 4603.36865
4560.0 0.0002193 4592.50635 4602.58057
4560.0 0.0002193 4591.67822 4602.03564
4570.0 0.0002188 4590.84814 4602.04102
4590.0 0.0002179 4590.01367 4602.74463
4590.0 0.0002179 4589.17773 4603.69336
4590.0 0.0002179 4588.34131 4605.59326
4570.0 0.0002188 4587.49658 4608.11133
4580.0 0.0002183 4586.64941 4611.45703
4570.0 0.0002188 4585.79834 4615.54590
4550.0 0.0002198 4584.94238 4620.14844
4570.0 0.0002188 4584.07764 4625.04443
4590.0 0.0002179 4583.21289 4629.58447
4600.0 0.0002174 4582.33643 4633.36475
4620.0 0.0002165 4581.45264 4635.78857
4630.0 0.0002160 4580.55908 4636.29883
4640.0 0.0002155 4579.66016 4634.88770
4620.0 0.0002165 4578.74902 4631.81689
4620.0 0.0002165 4577.82471 4627.03564
4660.0 0.0002146 4576.89404 4622.32910
4680.0 0.0002137 4575.94775 4617.32617
4680.0 0.0002137 4574.98975 4613.03369
4660.0 0.0002146 4574.01465 4609.39941
4640.0 0.0002155 4573.02686 4606.38525
4640.0 0.0002155 4572.02295 4604.26709
4640.0 0.0002155 4571.00244 4602.76465
4640.0 0.0002155 4569.96289 4601.67188
4630.0 0.0002160 4568.90723 4601.13965
4610.0 0.0002169 4567.83252 4600.36719
4640.0 0.0002155 4566.73633 4599.72266
4650.0 0.0002151 4565.61963 4599.42578
4630.0 0.0002160 4564.48242 4599.81689
4640.0 0.0002155 4563.32227 4601.27100
4660.0 0.0002146 4562.13770 4604.12646
4660.0 0.0002146 4560.93311 4608.61768
4670.0 0.0002141 4559.70166 4614.82080
4670.0 0.0002141 4558.44775 4622.62012
4660.0 0.0002146 4557.16748 4631.64355
4650.0 0.0002151 4555.86279 4641.37500
4670.0 0.0002141 4554.53174 4650.90381
4670.0 0.0002141 4553.17578 4659.27197
4660.0 0.0002146 4551.79199 4665.47266
4650.0 0.0002151 4550.38232 4668.70850
4630.0 0.0002160 4548.94531 4668.59717
4630.0 0.0002160 4547.48096 4665.26660
4620.0 0.0002165 4545.99219 4659.27393
4640.0 0.0002155 4544.47314 4651.38867
4640.0 0.0002155 4542.92969 4642.38770
4630.0 0.0002160 4541.35938 4632.88037
4620.0 0.0002165 4539.76270 4623.27637
4610.0 0.0002169 4538.14111 4613.85889
4600.0 0.0002174 4536.49414 4604.69629
4600.0 0.0002174 4534.82080 4595.97021
4610.0 0.0002169 4533.12402 4587.54150
4590.0 0.0002179 4531.40430 4580.29932
4570.0 0.0002188 4529.66064 4574.10254
4580.0 0.0002183 4527.89355 4569.17090
4570.0 0.0002188 4526.10938 4565.57275
4530.0 0.0002208 4524.30127 4563.28711
4520.0 0.0002212 4522.47705 4562.19727
4540.0 0.0002203 4520.63379 4562.04883
4560.0 0.0002193 4518.77393 4562.51807
4550.0 0.0002198 4516.89697 4563.18848
4540.0 0.0002203 4515.00488 4563.42871
4550.0 0.0002198 4513.10254 4562.76074
4540.0 0.0002203 4511.18701 4560.73193
4550.0 0.0002198 4509.26221 4557.16260
4570.0 0.0002188 4507.32764 4552.34961
4560.0 0.0002193 4505.38916 4546.53662
4550.0 0.0002198 4503.44238 4540.16016
4540.0 0.0002203 4501.49414 4533.61816
4520.0 0.0002212 4499.54346 4527.23389
4500.0 0.0002222 4497.59326 4521.53955
4520.0 0.0002212 4495.64697 4516.19922
4520.0 0.0002212 4493.70264 4511.30811
4480.0 0.0002232 4491.76318 4506.97168
4460.0 0.0002242 4489.83203 4503.13428
4460.0 0.0002242 4487.91211 4499.75684
4460.0 0.0002242 4486.00391 4496.51465
4450.0 0.0002247 4484.10986 4493.81055
4460.0 0.0002242 4482.23096 4490.95752
4470.0 0.0002237 4480.37061 4488.77148
4470.0 0.0002237 4478.52783 4486.58740
4480.0 0.0002232 4476.70996 4484.79492
4490.0 0.0002227 4474.91504 4483.12842
4500.0 0.0002222 4473.14600 4481.56201
4480.0 0.0002232 4471.40625 4480.04053
4500.0 0.0002222 4469.69434 4478.40820
4510.0 0.0002217 4468.01416 4477.02686
4490.0 0.0002227 4466.36963 4475.42285
4450.0 0.0002247 4464.76025 4473.74170
4480.0 0.0002232 4463.19092 4472.22607
4490.0 0.0002227 4461.65771 4471.34082
4480.0 0.0002232 4460.16602 4470.12744
4450.0 0.0002247 4458.71729 4469.15332
4450.0 0.0002247 4457.31494 4468.47217
4460.0 0.0002242 4455.95898 4468.13135
4480.0 0.0002232 4454.64941 4468.16699
4480.0 0.0002232 4453.38770 4468.61719
4480.0 0.0002232 4452.17920 4469.51611
4500.0 0.0002222 4451.02100 4470.88770
4500.0 0.0002222 4449.91699 4472.79980
4460.0 0.0002242 4448.86475 4475.28320
4460.0 0.0002242 4447.86963 4477.95508
4460.0 0.0002242 4446.93262 4481.49268
4450.0 0.0002247 4446.05078 4485.43945
4470.0 0.0002237 4445.22705 4489.59375
4490.0 0.0002227 4444.46045 4493.65234
4490.0 0.0002227 4443.75488 4497.23193
4500.0 0.0002222 4443.10938 4499.91016
4520.0 0.0002212 4442.52246 4501.31494
4510.0 0.0002217 4442.00000 4501.26172
4510.0 0.0002217 4441.53418 4499.81152
4520.0 0.0002212 4441.12891 4497.26709
4500.0 0.0002222 4440.78662 4494.05469
4480.0 0.0002232 4440.50439 4490.71826
4460.0 0.0002242 4440.28027 4487.69727
4470.0 0.0002237 4440.11768 4485.41211
4490.0 0.0002227 4440.01367 4484.20557
4500.0 0.0002222 4439.96826 4484.32324
4500.0 0.0002222 4439.98193 4485.89990
4500.0 0.0002222 4440.05273 4488.94336
4490.0 0.0002227 4440.18115 4493.32031
4470.0 0.0002237 4440.36279 4498.76318
4470.0 0.0002237 4440.60156 4504.88623
4490.0 0.0002227 4440.89209 4511.20752
4520.0 0.0002212 4441.23438 4517.16406
4540.0 0.0002203 4441.62500 4522.32520
4530.0 0.0002208 4442.06592 4526.18115
4540.0 0.0002203 4442.55469 4528.35254
4540.0 0.0002203 4443.08887 4528.51807
4550.0 0.0002198 4443.66650 4526.64307
4550.0 0.0002198 4444.28711 4522.94922
4560.0 0.0002193 4444.94727 4517.88086
4550.0 0.0002198 4445.64404 4511.98779
4520.0 0.0002212 4446.38037 4505.79004
4500.0 0.0002222 4447.14746 4499.69678
4500.0 0.0002222 4447.94727 4494.01025
4510.0 0.0002217 4448.77393 4488.78662
4490.0 0.0002227 4449.62988 4484.25781
4480.0 0.0002232 4450.51221 4480.29053
4490.0 0.0002227 4451.41553 4476.88672
4490.0 0.0002227 4452.33740 4474.01709
4490.0 0.0002227 4453.27686 4471.64600
4490.0 0.0002227 4454.23340 4469.74365
4510.0 0.0002217 4455.20068 4468.26074
4520.0 0.0002212 4456.17627 4467.15918
4490.0 0.0002227 4457.16113 4466.39648
4470.0 0.0002237 4458.14941 4465.62646
4480.0 0.0002232 4459.14111 4465.31641
4480.0 0.0002232 4460.13086 4465.35840
4470.0 0.0002237 4461.11963 4465.59619
4480.0 0.0002232 4462.10205 4465.95166
4480.0 0.0002232 4463.07568 4466.49219
4480.0 0.0002232 4464.03809 4467.09619
4480.0 0.0002232 4464.98877 4467.79980
4490.0 0.0002227 4465.92383 4468.56641
4470.0 0.0002237 4466.84277 4469.37695
4430.0 0.0002257 4467.73779 4470.21484
4450.0 0.0002247 4468.61279 4471.07031
4470.0 0.0002237 4469.46240 4471.93701
4470.0 0.0002237 4470.28418 4472.80322
4450.0 0.0002247 4471.07764 4473.65820
4450.0 0.0002247 4471.84033 4474.31982
4440.0 0.0002252 4472.57031 4475.13525
4460.0 0.0002242 4473.26611 4475.95654
4460.0 0.0002242 4473.92285 4476.67822
4460.0 0.0002242 4474.54297 4477.36377
4470.0 0.0002237 4475.12256 4477.44971
4460.0 0.0002242 4475.65918 4478.06982
4470.0 0.0002237 4476.15527 4478.66016
4490.0 0.0002227 4476.60645 4479.23730
4490.0 0.0002227 4477.01074 4479.80957
4470.0 0.0002237 4477.36816 4480.39355
4450.0 0.0002247 4477.67920 4481.00146
4450.0 0.0002247 4477.93994 4481.69727
4440.0 0.0002252 4478.15137 4482.36572
4430.0 0.0002257 4478.31299 4482.97998
4450.0 0.0002247 4478.42285 4483.79150
4450.0 0.0002247 4478.48193 4484.52295
4450.0 0.0002247 4478.48779 4485.24463
4450.0 0.0002247 4478.44336 4485.94531
4470.0 0.0002237 4478.34521 4486.60400
4500.0 0.0002222 4478.19434 4487.20166
4500.0 0.0002222 4477.99121 4487.70654
4490.0 0.0002227 4477.73779 4488.08740
4480.0 0.0002232 4477.42822 4488.28809
4480.0 0.0002232 4477.06787 4488.35205
4470.0 0.0002237 4476.65869 4488.08594
4460.0 0.0002242 4476.19727 4487.55420
4470.0 0.0002237 4475.68604 4486.90918
4450.0 0.0002247 4475.12500 4485.92090
4460.0 0.0002242 4474.51416 4484.79150
4480.0 0.0002232 4473.85840 4483.59033
4500.0 0.0002222 4473.15430 4482.34814
4490.0 0.0002227 4472.40479 4481.13184
4490.0 0.0002227 4471.61035 4479.97900
4490.0 0.0002227 4470.77393 4478.94385
4500.0 0.0002222 4469.89404 4477.96631
4500.0 0.0002222 4468.97607 4477.10352
4490.0 0.0002227 4468.01563 4476.29395
4500.0 0.0002222 4467.02197 4475.54883
4490.0 0.0002227 4465.98926 4474.85205
4480.0 0.0002232 4464.92334 4474.19971
4470.0 0.0002237 4463.82178 4473.63281
4490.0 0.0002227 4462.69287 4473.09229
4510.0 0.0002217 4461.53467 4472.66113
4520.0 0.0002212 4460.34521 4472.34180
4530.0 0.0002208 4459.13135 4472.15674
4530.0 0.0002208 4457.89307 4472.09912
4490.0 0.0002227 4456.63135 4472.15039
4480.0 0.0002232 4455.35059 4472.28125
4480.0 0.0002232 4454.05029 4472.43652
4480.0 0.0002232 4452.73193 4472.55811
4470.0 0.0002237 4451.39941 4472.58008
4460.0 0.0002242 4450.05127 4472.45703
4440.0 0.0002252 4448.69189 4472.18701
4450.0 0.0002247 4447.32373 4471.85400
4450.0 0.0002247 4445.94287 4471.51465
4450.0 0.0002247 4444.55859 4471.16602
4460.0 0.0002242 4443.16846 4470.94678
4460.0 0.0002242 4441.77002 4470.89746
4440.0 0.0002252 4440.37109 4471.02783
4440.0 0.0002252 4438.97168 4471.30176
4450.0 0.0002247 4437.57178 4471.64600
4450.0 0.0002247 4436.17236 4471.96924
4460.0 0.0002242 4434.77686 4472.16016
4480.0 0.0002232 4433.38379 4472.14502
4500.0 0.0002222 4431.99609 4471.87793
4520.0 0.0002212 4430.61328 4471.37695
4520.0 0.0002212 4429.23730 4470.71045
4510.0 0.0002217 4427.86719 4469.98438
4500.0 0.0002222 4426.50586 4469.28809
4490.0 0.0002227 4425.15186 4468.69775
4500.0 0.0002222 4423.80908 4468.23584
4510.0 0.0002217 4422.47412 4467.85840
4510.0 0.0002217 4421.15039 4467.48779
4500.0 0.0002222 4419.83398 4466.98096
4490.0 0.0002227 4418.52783 4466.25488
4470.0 0.0002237 4417.23584 4465.14160
4460.0 0.0002242 4415.95117 4463.60596
4470.0 0.0002237 4414.67578 4461.55957
4480.0 0.0002232 4413.41162 4459.03906
4460.0 0.0002242 4412.15430 4456.03662
4460.0 0.0002242 4410.90869 4452.68945
4460.0 0.0002242 4409.67139 4449.10938
4440.0 0.0002252 4408.43945 4445.40430
4430.0 0.0002257 4407.21582 4441.66650
4440.0 0.0002252 4405.99902 4437.96094
4420.0 0.0002262 4404.78711 4434.33691
4400.0 0.0002273 4403.57910 4430.84668
4400.0 0.0002273 4402.37402 4427.53320
4390.0 0.0002278 4401.17285 4424.41064
4400.0 0.0002273 4399.97119 4421.49902
4410.0 0.0002268 4398.77197 4418.82178
4410.0 0.0002268 4397.56982 4416.37012
4400.0 0.0002273 4396.36377 4414.16309
4400.0 0.0002273 4395.15576 4412.21680
4390.0 0.0002278 4393.94092 4410.54541
4380.0 0.0002283 4392.71924 4409.15576
4390.0 0.0002278 4391.48926 4408.02490
4400.0 0.0002273 4390.24756 4407.11914
4400.0 0.0002273 4388.99609 4406.39746
4410.0 0.0002268 4387.73047 4405.77832
4410.0 0.0002268 4386.45117 4405.18018
4380.0 0.0002283 4385.15430 4404.40723
4370.0 0.0002288 4383.83838 4403.52783
4380.0 0.0002283 4382.50488 4402.36816
4380.0 0.0002283 4381.14795 4400.86621
4380.0 0.0002283 4379.77002 4399.00684
4380.0 0.0002283 4378.36768 4396.79297
4380.0 0.0002283 4376.93701 4394.30811
4360.0 0.0002294 4375.48291 4391.64648
4350.0 0.0002299 4373.99756 4388.89160
4360.0 0.0002294 4372.48096 4386.10840
4370.0 0.0002288 4370.93506 4383.42773
4350.0 0.0002299 4369.35498 4380.70215
4360.0 0.0002294 4367.74170 4378.15039
4370.0 0.0002288 4366.09326 4375.60254
4370.0 0.0002288 4364.40918 4373.29102
4380.0 0.0002283 4362.68896 4371.09131
4380.0 0.0002283 4360.92725 4369.00684
4370.0 0.0002288 4359.13037 4366.98145
4370.0 0.0002288 4357.29199 4365.02246
4380.0 0.0002283 4355.41504 4363.12012
4380.0 0.0002283 4353.49561 4361.25928
4380.0 0.0002283 4351.53467 4359.42725
4400.0 0.0002273 4349.53418 4357.52979
4390.0 0.0002278 4347.49072 4355.71045
4390.0 0.0002278 4345.40625 4353.86230
4380.0 0.0002283 4343.27930 4352.02344
4390.0 0.0002278 4341.11377 4349.91553
4380.0 0.0002283 4338.90479 4347.86865
4370.0 0.0002288 4336.65625 4345.70654
4370.0 0.0002288 4334.36523 4343.48779
4360.0 0.0002294 4332.03760 4341.20264
4360.0 0.0002294 4329.66943 4338.86377
4350.0 0.0002299 4327.26318 4336.48438
4340.0 0.0002304 4324.81982 4334.03418
4330.0 0.0002309 4322.34180 4331.56006
4320.0 0.0002315 4319.82861 4329.05371
4330.0 0.0002309 4317.27979 4326.51660
4330.0 0.0002309 4314.70117 4323.94727
4320.0 0.0002315 4312.09131 4321.22168
4300.0 0.0002326 4309.45215 4318.38037
4290.0 0.0002331 4306.78662 4315.51123
4310.0 0.0002320 4304.09424 4312.63086
4320.0 0.0002315 4301.38037 4309.71045
4310.0 0.0002320 4298.64355 4306.80859
4300.0 0.0002326 4295.88672 4303.95850
4280.0 0.0002336 4293.11475 4301.17725
4280.0 0.0002336 4290.32666 4298.49023
4290.0 0.0002331 4287.52441 4295.90918
4300.0 0.0002326 4284.71240 4293.44873
4300.0 0.0002326 4281.89209 4291.10791
4280.0 0.0002336 4279.06738 4289.18164
4250.0 0.0002353 4276.23633 4287.06006
4260.0 0.0002347 4273.40527 4284.95020
4270.0 0.0002342 4270.57666 4282.85449
4270.0 0.0002342 4267.74854 4280.84277
4260.0 0.0002347 4264.92871 4278.80176
4260.0 0.0002347 4262.11670 4276.70068
4270.0 0.0002342 4259.31641 4274.51953
4280.0 0.0002336 4256.53027 4272.23828
4270.0 0.0002342 4253.75781 4269.83936
4270.0 0.0002342 4251.00635 4267.31250
4270.0 0.0002342 4248.27295 4264.66113
4260.0 0.0002347 4245.56201 4261.90918
4260.0 0.0002347 4242.87695 4259.10059
4280.0 0.0002336 4240.21582 4256.24951
4300.0 0.0002326 4237.58545 4253.39355
4290.0 0.0002331 4234.98389 4250.58301
4260.0 0.0002347 4232.41406 4247.82373
4250.0 0.0002353 4229.87988 4245.16162
4260.0 0.0002347 4227.38135 4242.60352
4270.0 0.0002342 4224.92041 4240.18115
4260.0 0.0002347 4222.49170 4237.85205
4230.0 0.0002364 4220.10840 4235.64404
4220.0 0.0002370 4217.76074 4233.53320
4220.0 0.0002370 4215.45850 4231.51758
4210.0 0.0002375 4213.19434 4229.57666
4200.0 0.0002381 4210.97314 4227.71875
4190.0 0.0002387 4208.79443 4225.92920
4210.0 0.0002375 4206.66113 4224.30713
4210.0 0.0002375 4204.56738 4222.81738
4200.0 0.0002381 4202.51855 4221.51025
4200.0 0.0002381 4200.51221 4220.39844
4200.0 0.0002381 4198.54834 4219.49072
4210.0 0.0002375 4196.62402 4218.77734
4210.0 0.0002375 4194.74365 4218.24951
4220.0 0.0002370 4192.90137 4217.87207
4230.0 0.0002364 4191.09766 4217.61523
4240.0 0.0002358 4189.33398 4217.43945
4240.0 0.0002358 4187.60498 4217.33984
4240.0 0.0002358 4185.90967 4217.32520
4240.0 0.0002358 4184.24658 4217.40479
4230.0 0.0002364 4182.61572 4217.58496
4230.0 0.0002364 4181.01465 4217.86621
4220.0 0.0002370 4179.43750 4218.22900
4230.0 0.0002364 4177.88525 4218.63281
4240.0 0.0002358 4176.35693 4219.06836
4230.0 0.0002364 4174.84326 4219.31543
4230.0 0.0002364 4173.34961 4219.29639
4220.0 0.0002370 4171.86768 4218.85352
4200.0 0.0002381 4170.39551 4217.83496
4200.0 0.0002381 4168.93408 4216.12646
4210.0 0.0002375 4167.47363 4213.68896
4210.0 0.0002375 4166.01660 4210.51660
4210.0 0.0002375 4164.55469 4206.70654
4190.0 0.0002387 4163.08789 4202.46240
4190.0 0.0002387 4161.61426 4197.83447
4200.0 0.0002381 4160.12695 4193.04980
4180.0 0.0002392 4158.62646 4188.28857
4170.0 0.0002398 4157.10449 4183.55225
4160.0 0.0002404 4155.56104 4178.98193
4160.0 0.0002404 4153.99219 4174.61279
4200.0 0.0002381 4152.39404 4170.56445
4200.0 0.0002381 4150.76270 4166.81299
4190.0 0.0002387 4149.09619 4163.35400
4170.0 0.0002398 4147.38965 4160.17480
4170.0 0.0002398 4145.64404 4157.24512
4170.0 0.0002398 4143.85059 4154.50586
4160.0 0.0002404 4142.01221 4151.96143
4140.0 0.0002415 4140.12158 4149.54541
4130.0 0.0002421 4138.17920 4147.20947
4130.0 0.0002421 4136.18018 4144.91846
4120.0 0.0002427 4134.12451 4142.63379
4130.0 0.0002421 4132.00635 4140.33252
4110.0 0.0002433 4129.82861 4137.98730
4110.0 0.0002433 4127.58740 4135.58203
4110.0 0.0002433 4125.27734 4133.06934
4110.0 0.0002433 4122.90430 4130.52734
4110.0 0.0002433 4120.46191 4127.91064
4100.0 0.0002439 4117.94922 4125.21924
4100.0 0.0002439 4115.36963 4122.46680
4090.0 0.0002445 4112.71826 4119.66309
4110.0 0.0002433 4109.99756 4116.83203
4100.0 0.0002439 4107.20605 4113.98584
4080.0 0.0002451 4104.34473 4111.13721
4100.0 0.0002439 4101.41602 4108.31934
4090.0 0.0002445 4098.41699 4105.51563
4080.0 0.0002451 4095.35059 4102.71631
4090.0 0.0002445 4092.21851 4099.97900
4100.0 0.0002439 4089.02148 4097.20166
4110.0 0.0002433 4085.76392 4094.52856
4110.0 0.0002433 4082.44385 4091.90479
4100.0 0.0002439 4079.06543 4089.23071
4100.0 0.0002439 4075.63232 4086.65308
4110.0 0.0002433 4072.14673 4083.99927
4090.0 0.0002445 4068.61279 4081.28271
4100.0 0.0002439 4065.03052 4078.49902
4110.0 0.0002433 4061.40674 4075.65503
4110.0 0.0002433 4057.74463 4072.74023
4090.0 0.0002445 4054.04834 4069.85376
4080.0 0.0002451 4050.32080 4066.80176
4080.0 0.0002451 4046.56689 4063.37671
4080.0 0.0002451 4042.79102 4060.17285
4080.0 0.0002451 4038.99976 4056.85889
4080.0 0.0002451 4035.19580 4053.42725
4080.0 0.0002451 4031.38452 4049.85059
4050.0 0.0002469 4027.57178 4046.09497
4050.0 0.0002469 4023.76270 4042.18457
4040.0 0.0002475 4019.96216 4038.10083
4040.0 0.0002475 4016.17603 4033.85352
4040.0 0.0002475 4012.40698 4029.46216
4050.0 0.0002469 4008.66455 4024.96436
4040.0 0.0002475 4004.95313 4020.40234
4020.0 0.0002488 4001.27466 4015.81421
4020.0 0.0002488 3997.63892 4011.24146
4010.0 0.0002494 3994.04932 4006.75293
4030.0 0.0002481 3990.51123 4002.36255
4000.0 0.0002500 3987.02881 3998.10962
4000.0 0.0002500 3983.60913 3994.01855
4000.0 0.0002500 3980.25488 3990.21948
4000.0 0.0002500 3976.97363 3986.50391
3980.0 0.0002513 3973.76660 3982.98218
3960.0 0.0002525 3970.63940 3979.67456
3940.0 0.0002538 3967.59644 3976.59912
3950.0 0.0002532 3964.64355 3973.66284
3960.0 0.0002525 3961.78125 3970.91040
3950.0 0.0002532 3959.01416 3968.35059
3940.0 0.0002538 3956.34644 3965.96216
3940.0 0.0002538 3953.78052 3963.75781
3940.0 0.0002538 3951.31714 3961.74121
3950.0 0.0002532 3948.96167 3959.94629
3960.0 0.0002525 3946.71289 3958.37158
3960.0 0.0002525 3944.57373 3957.01953
3960.0 0.0002525 3942.54565 3955.93555
3960.0 0.0002525 3940.62866 3955.03467
3950.0 0.0002532 3938.82422 3954.34790
3920.0 0.0002551 3937.13208 3953.85400
3910.0 0.0002558 3935.55078 3953.52563
3910.0 0.0002558 3934.08228 3953.33325
3920.0 0.0002551 3932.72192 3953.22485
3920.0 0.0002551 3931.47119 3953.18408
3930.0 0.0002545 3930.32690 3953.11255
3970.0 0.0002519 3929.28809 3952.98193
3970.0 0.0002519 3928.34985 3952.74658
3960.0 0.0002525 3927.51099 3952.37744
3960.0 0.0002525 3926.76880 3951.86475
3960.0 0.0002525 3926.11719 3951.14893
3950.0 0.0002532 3925.55542 3950.32324
3950.0 0.0002532 3925.07617 3949.35376
3950.0 0.0002532 3924.67578 3948.25488
3950.0 0.0002532 3924.35010 3947.05664
3950.0 0.0002532 3924.09326 3945.79517
3960.0 0.0002525 3923.89941 3944.50024
3970.0 0.0002519 3923.76343 3943.25977
3960.0 0.0002525 3923.68018 3942.13086
3950.0 0.0002532 3923.64258 3941.09521
3950.0 0.0002532 3923.64429 3940.26880
3950.0 0.0002532 3923.67798 3939.64819
3950.0 0.0002532 3923.73975 3939.22437
3950.0 0.0002532 3923.81958 3939.06763
3940.0 0.0002538 3923.91431 3939.13623
3920.0 0.0002551 3924.01392 3939.41870
3920.0 0.0002551 3924.11475 3939.86548
3940.0 0.0002538 3924.20874 3940.47876
3930.0 0.0002545 3924.28760 3941.18579
3920.0 0.0002551 3924.34741 3941.93213
3930.0 0.0002545 3924.38110 3942.65649
3940.0 0.0002538 3924.38086 3943.28589
3940.0 0.0002538 3924.34253 3943.77808
3960.0 0.0002525 3924.25830 3944.05786
3950.0 0.0002532 3924.12451 3944.09937
3940.0 0.0002538 3923.93262 3943.87646
3940.0 0.0002538 3923.68140 3943.42212
3950.0 0.0002532 3923.36328 3942.75537
3940.0 0.0002538 3922.97437 3941.86621
3940.0 0.0002538 3922.50977 3940.84961
3960.0 0.0002525 3921.96729 3939.74805
3970.0 0.0002519 3921.34302 3938.62524
3960.0 0.0002525 3920.63330 3937.48462
3970.0 0.0002519 3919.83618 3936.36987
3980.0 0.0002513 3918.94849 3935.36377
3970.0 0.0002519 3917.96948 3934.35498
3950.0 0.0002532 3916.89771 3933.39844
3940.0 0.0002538 3915.73267 3932.46484
3930.0 0.0002545 3914.47437 3931.54956
3930.0 0.0002545 3913.12183 3930.60938
3930.0 0.0002545 3911.67651 3929.60425
3910.0 0.0002558 3910.13965 3928.50806
3910.0 0.0002558 3908.51294 3927.27393
3920.0 0.0002551 3906.79810 3925.90039
3930.0 0.0002545 3904.99878 3924.37378
3920.0 0.0002551 3903.11450 3922.65112
3930.0 0.0002545 3901.15308 3920.73730
3920.0 0.0002551 3899.11646 3918.62793
3900.0 0.0002564 3897.00854 3916.47559
3900.0 0.0002564 3894.83325 3914.16284
3900.0 0.0002564 3892.59741 3911.73096
3900.0 0.0002564 3890.30347 3909.17603
3890.0 0.0002571 3887.96094 3906.51367
3880.0 0.0002577 3885.56958 3903.66675
3860.0 0.0002591 3883.14063 3900.84302
3870.0 0.0002584 3880.67822 3897.97144
3890.0 0.0002571 3878.18677 3895.07202
3900.0 0.0002564 3875.67480 3892.17163
3900.0 0.0002564 3873.14819 3889.29370
3880.0 0.0002577 3870.61255 3886.43433
3860.0 0.0002591 3868.07422 3883.62524
3860.0 0.0002591 3865.53955 3880.86304
3860.0 0.0002591 3863.01440 3878.16528
3870.0 0.0002584 3860.50513 3875.53857
3860.0 0.0002591 3858.01514 3872.99268
3860.0 0.0002591 3855.55249 3870.53369
3870.0 0.0002584 3853.12207 3868.16553
3870.0 0.0002584 3850.72583 3865.88354
3890.0 0.0002571 3848.37109 3863.69995
3890.0 0.0002571 3846.06006 3861.59619
3900.0 0.0002564 3843.79590 3859.56274
3890.0 0.0002571 3841.58472 3857.58960
3880.0 0.0002577 3839.42358 3855.66187
3850.0 0.0002597 3837.31860 3853.76904
3860.0 0.0002591 3835.27075 3851.87549
3840.0 0.0002604 3833.27856 3850.06592
3840.0 0.0002604 3831.34497 3848.25293
3840.0 0.0002604 3829.46680 3846.50903
3840.0 0.0002604 3827.64502 3844.83057
3860.0 0.0002591 3825.87720 3843.24194
3850.0 0.0002597 3824.16089 3841.77466
3840.0 0.0002604 3822.49414 3840.44043
3840.0 0.0002604 3820.87231 3839.24438
3840.0 0.0002604 3819.29028 3838.20752
3830.0 0.0002611 3817.74731 3837.38965
3830.0 0.0002611 3816.23486 3836.67236
3830.0 0.0002611 3814.74829 3836.09644
3830.0 0.0002611 3813.28052 3835.63403
3830.0 0.0002611 3811.82764 3835.25464
3830.0 0.0002611 3810.38013 3834.91870
3830.0 0.0002611 3808.93237 3834.62183
3830.0 0.0002611 3807.47632 3834.24634
3830.0 0.0002611 3806.00513 3833.78711
3840.0 0.0002604 3804.50903 3833.20459
3840.0 0.0002604 3802.98267 3832.52637
3850.0 0.0002597 3801.41821 3831.59863
3830.0 0.0002611 3799.80493 3830.45435
3830.0 0.0002611 3798.13794 3829.07471
3820.0 0.0002618 3796.40918 3827.47168
3830.0 0.0002611 3794.61255 3825.66382
3830.0 0.0002611 3792.74097 3823.56079
3820.0 0.0002618 3790.78516 3821.24170
3830.0 0.0002611 3788.74585 3818.73926
3830.0 0.0002611 3786.61206 3816.07031
3810.0 0.0002625 3784.38525 3813.26978
3810.0 0.0002625 3782.05664 3810.34717
3790.0 0.0002639 3779.62720 3807.26367
3790.0 0.0002639 3777.09326 3804.13232
3790.0 0.0002639 3774.45459 3800.89575
3780.0 0.0002646 3771.71191 3797.53589
3760.0 0.0002660 3768.86426 3794.08203
3770.0 0.0002653 3765.91699 3790.51270
3780.0 0.0002646 3762.87256 3786.82690
3800.0 0.0002632 3759.73486 3783.03052
3800.0 0.0002632 3756.50781 3779.12891
3790.0 0.0002639 3753.20142 3775.14990
3780.0 0.0002646 3749.82202 3771.06519
3780.0 0.0002646 3746.37769 3766.98486
3770.0 0.0002653 3742.87866 3762.89453
3760.0 0.0002660 3739.33496 3758.81641
3740.0 0.0002674 3735.75977 3754.77954
3740.0 0.0002674 3732.16528 3750.81152
3750.0 0.0002667 3728.56128 3746.93359
3750.0 0.0002667 3724.96558 3743.15820
3750.0 0.0002667 3721.39209 3739.55078
3750.0 0.0002667 3717.85229 3736.11621
3740.0 0.0002674 3714.36230 3732.87915
3740.0 0.0002674 3710.93823 3729.86035
3730.0 0.0002681 3707.59204 3727.08105
3730.0 0.0002681 3704.34009 3724.54321
3740.0 0.0002674 3701.19580 3722.25610
3720.0 0.0002688 3698.17188 3720.21680
3730.0 0.0002681 3695.28027 3718.40234
3720.0 0.0002688 3692.53418 3716.81860
3710.0 0.0002695 3689.94238 3715.40356
3710.0 0.0002695 3687.51563 3714.14746
3700.0 0.0002703 3685.25781 3713.01465
3670.0 0.0002725 3683.17676 3711.97070
3690.0 0.0002710 3681.27686 3711.00049
3700.0 0.0002703 3679.55786 3710.06177
3700.0 0.0002703 3678.02197 3709.18823
3710.0 0.0002695 3676.66406 3708.32300
3710.0 0.0002695 3675.48022 3707.55762
3700.0 0.0002703 3674.46362 3706.84277
3700.0 0.0002703 3673.60327 3706.20483
3710.0 0.0002695 3672.88696 3705.64868
3710.0 0.0002695 3672.30078 3705.18555
3700.0 0.0002703 3671.82813 3704.80908
3690.0 0.0002710 3671.44824 3704.49756
3700.0 0.0002703 3671.14014 3704.23828
3710.0 0.0002695 3670.88086 3704.00854
3720.0 0.0002688 3670.64575 3703.77783
3700.0 0.0002703 3670.40747 3703.52734
3700.0 0.0002703 3670.13892 3703.21045
3720.0 0.0002688 3669.81128 3702.79321
3730.0 0.0002681 3669.39453 3702.23389
3720.0 0.0002688 3668.86157 3701.43286
3720.0 0.0002688 3668.18140 3700.43335
3710.0 0.0002695 3667.32666 3699.10815
3710.0 0.0002695 3666.27319 3697.43652
3690.0 0.0002710 3664.99463 3695.35547
3680.0 0.0002717 3663.46875 3692.89331
3680.0 0.0002717 3661.67871 3689.98047
3680.0 0.0002717 3659.60474 3686.55933
3680.0 0.0002717 3657.23877 3682.79517
3670.0 0.0002725 3654.57324 3678.58398
3670.0 0.0002725 3651.60449 3673.99731
3660.0 0.0002732 3648.33838 3669.06494
3670.0 0.0002725 3644.78247 3663.84595
3660.0 0.0002732 3640.95044 3658.37866
3650.0 0.0002740 3636.86621 3652.73291
3640.0 0.0002747 3632.55322 3646.94604
3640.0 0.0002747 3628.04810 3641.06152
3630.0 0.0002755 3623.38672 3635.16992
3630.0 0.0002755 3618.61475 3629.30591
3630.0 0.0002755 3613.78052 3623.51855
3610.0 0.0002770 3608.93896 3617.87598
3590.0 0.0002786 3604.14258 3612.37695
3600.0 0.0002778 3599.45190 3607.17383
3610.0 0.0002770 3594.92432 3602.26025
3600.0 0.0002778 3590.61768 3597.70117
3600.0 0.0002778 3586.58862 3593.52832
3600.0 0.0002778 3582.88623 3589.80371
3600.0 0.0002778 3579.55444 3586.54810
3590.0 0.0002786 3576.63257 3583.79199
3580.0 0.0002793 3574.14404 3581.55762
3580.0 0.0002793 3572.10425 3579.81763
3590.0 0.0002786 3570.51318 3578.58496
3580.0 0.0002793 3569.35815 3577.84058
3560.0 0.0002809 3568.60742 3577.51953
3570.0 0.0002801 3568.21606 3577.58374
3580.0 0.0002793 3568.12378 3577.94336
3580.0 0.0002793 3568.25879 3578.51953
3580.0 0.0002793 3568.53589 3579.21143
3580.0 0.0002793 3568.86938 3579.92651
3570.0 . . .
3560.0 . . .
3540.0 . . .
3540.0 . . .
3550.0 . . .
3560.0 . . .
3560.0 . . .
3560.0 . . .
3570.0 . . .
3580.0 . . .
3580.0 . . .
3580.0 . . .
3560.0 . . .
3540.0 . . .
3540.0 . . .
3550.0 . . .
3550.0 . . .
3550.0 . . .
3570.0 . . .
3560.0 . . .
3530.0 . . .
3530.0 . . .
3530.0 . . .
3530.0 . . .
3530.0 . . .
3540.0 . . .
3530.0 . . .
3530.0 . . .
3520.0 . . .
3520.0 . . .
3510.0 . . .
3510.0 . . .
3500.0 . . .
3490.0 . . .
3490.0 . . .
3490.0 . . .
3470.0 . . .
3470.0 . . .
3470.0 . . .
3470.0 . . .
3480.0 . . .
3470.0 . . .
3470.0 . . .
3450.0 . . .
3450.0 . . .
3450.0 . . .
3430.0 . . .
3430.0 . . .
3430.0 . . .
3410.0 . . .
3410.0 . . .
3420.0 . . .
3420.0 . . .
3430.0 . . .
3430.0 . . .
3440.0 . . .
3440.0 . . .
3450.0 . . .
3450.0 . . .
3460.0 . . .
3450.0 . . .
3430.0 . . .
3430.0 . . .
3420.0 . . .
3430.0 . . .
3420.0 . . .
3390.0 . . .
3380.0 . . .
3360.0 . . .
3370.0 . . .
3370.0 . . .
3370.0 . . .
3350.0 . . .
3340.0 . . .
3330.0 . . .
3330.0 . . .
3330.0 . . .
3330.0 . . .
3330.0 . . .
3340.0 . . .
3340.0 . . .
3330.0 . . .
3320.0 . . .
3310.0 . . .
3330.0 . . .
3350.0 . . .
3340.0 . . .
3340.0 . . .
3330.0 . . .
3310.0 . . .
3300.0 . . .
3300.0 . . .
3310.0 . . .
3320.0 . . .
3300.0 . . .
3290.0 . . .
3300.0 . . .
3300.0 . . .
3300.0 . . .
3300.0 . . .
3280.0 . . .
3290.0 . . .
3290.0 . . .
3270.0 . . .
3270.0 . . .
3260.0 . . .
3260.0 . . .
3270.0 . . .
3270.0 . . .
3280.0 . . .
3280.0 . . .
3280.0 . . .
3270.0 . . .
3270.0 . . .
3250.0 . . .
3250.0 . . .
3240.0 . . .
3250.0 . . .
3250.0 . . .
3260.0 . . .
3260.0 . . .
3260.0 . . .
3260.0 . . .
3270.0 . . .
3270.0 . . .
3270.0 . . .
3250.0 . . .
3270.0 . . .
3260.0 . . .
3260.0 . . .
3260.0 . . .
3270.0 . . .
3280.0 . . .
3280.0 . . .
3270.0 . . .
3260.0 . . .
3260.0 . . .
3260.0 . . .
3260.0 . . .
3250.0 . . .
3250.0 . . .
3250.0 . . .
3250.0 . . .
3250.0 . . .
3250.0 . . .
3250.0 . . .
3270.0 . . .
3270.0 . . .
3250.0 . . .
3250.0 . . .
3270.0 . . .
3280.0 . . .
3280.0 . . .
3280.0 . . .
3290.0 . . .
3290.0 . . .
3280.0 . . .
3280.0 . . .
3260.0 . . .
3270.0 . . .
3280.0 . . .
3280.0 . . .
3270.0 . . .
3270.0 . . .
3260.0 . . .
3250.0 . . .
3260.0 . . .
3260.0 . . .
3230.0 . . .
3220.0 . . .
3220.0 . . .
3220.0 . . .
3220.0 . . .
3230.0 . . .
3230.0 . . .
3210.0 . . .
3210.0 . . .
3210.0 . . .
3190.0 . . .
3180.0 . . .
3200.0 . . .
3200.0 . . .
3200.0 . . .
3200.0 . . .
3200.0 . . .
3180.0 . . .
3180.0 . . .
3170.0 . . .
3170.0 . . .
3170.0 . . .
3170.0 . . .
3170.0 . . .
3170.0 . . .
3150.0 . . .
3130.0 . . .
3130.0 . . .
3130.0 . . .
3130.0 . . .
3120.0 . . .
3120.0 . . .
3120.0 . . .
3120.0 . . .
3120.0 . . .
3130.0 . . .
3130.0 . . .
3110.0 . . .
3100.0 . . .
3100.0 . . .
3110.0 . . .
3110.0 . . .
3110.0 . . .
3100.0 . . .
3090.0 . . .
3090.0 . . .
3090.0 . . .
3060.0 . . .
3060.0 . . .
3070.0 . . .
3070.0 . . .
3080.0 . . .
3080.0 . . .
3080.0 . . .
3080.0 . . .
3070.0 . . .
3060.0 . . .
3070.0 . . .
3080.0 . . .
3090.0 . . .
3080.0 . . .
3080.0 . . .
3090.0 . . .
3090.0 . . .
3090.0 . . .
3090.0 . . .
3090.0 . . .
3080.0 . . .
3090.0 . . .
3100.0 . . .
3100.0 . . .
3100.0 . . .
3110.0 . . .
3110.0 . . .
3100.0 . . .
3100.0 . . .
3090.0 . . .
3090.0 . . .
3100.0 . . .
3090.0 . . .
3080.0 . . .
3090.0 . . .
3090.0 . . .
3080.0 . . .
3070.0 . . .
3070.0 . . .
3080.0 . . .
3090.0 . . .
3080.0 . . .
3080.0 . . .
3080.0 . . .
3070.0 . . .
3050.0 . . .
3040.0 . . .
3040.0 . . .
3030.0 . . .
3030.0 . . .
3030.0 . . .
3030.0 . . .
3030.0 . . .
3020.0 . . .
3020.0 . . .
3020.0 . . .
3010.0 . . .
3010.0 . . .
3000.0 . . .
3010.0 . . .
3010.0 . . .
3000.0 . . .
2980.0 . . .
2980.0 . . .
2980.0 . . .
2970.0 . . .
2970.0 . . .
2970.0 . . .
2950.0 . . .
2930.0 . . .
2930.0 . . .
2930.0 . . .
2920.0 . . .
2910.0 . . .
2910.0 . . .
2920.0 . . .
2920.0 . . .
2930.0 . . .
2930.0 . . .
2930.0 . . .
2930.0 . . .
2930.0 . . .
2930.0 . . .
2920.0 . . .
2920.0 . . .
2920.0 . . .
2930.0 . . .
2950.0 . . .
2960.0 . . .
2960.0 . . .
2960.0 . . .
2960.0 . . .
2960.0 . . .
2970.0 . . .
2970.0 . . .
2960.0 . . .
2950.0 . . .
2940.0 . . .
2950.0 . . .
2970.0 . . .
2980.0 . . .
2970.0 . . .
2970.0 . . .
2970.0 . . .
2970.0 . . .
2980.0 . . .
2960.0 . . .
2950.0 . . .
2950.0 . . .
2940.0 . . .
2950.0 . . .
2940.0 . . .
2940.0 . . .
2930.0 . . .
2950.0 . . .
2950.0 . . .
2950.0 . . .
2950.0 . . .
2940.0 . . .
2940.0 . . .
2940.0 . . .
2950.0 . . .
2950.0 . . .
2940.0 . . .
2940.0 . . .
2930.0 . . .
2950.0 . . .
2950.0 . . .
2950.0 . . .
2940.0 . . .
2940.0 . . .
2940.0 . . .
2930.0 . . .
2920.0 . . .
2910.0 . . .
2920.0 . . .
2910.0 . . .
2890.0 . . .
2870.0 . . .
2870.0 . . .
2860.0 . . .
2840.0 . . .
2830.0 . . .
2840.0 . . .
2840.0 . . .
2810.0 . . .
2790.0 . . .
2770.0 . . .
2760.0 . . .
2750.0 . . .
2730.0 . . .
2710.0 . . .
2680.0 . . .
2660.0 . . .
2640.0 . . .
2610.0 . . .
2590.0 . . .
2580.0 . . .
2570.0 . . .
2560.0 . . .
2540.0 . . .
2520.0 . . .
2500.0 . . .
2500.0 . . .
2490.0 . . .
2470.0 . . .
2450.0 . . .
2440.0 . . .
2430.0 . . .
2230.0 . . .
1940.0 . . .
1730.0 . . .
1560.0 . . .
1400.0 . . .
1250.0 . . .
1130.0 . . .
1000.0 . . .
894.0 . . .
773.0 . . .
642.0 . . .
504.0 . . .
292.0 . . .
39.0 . . .
0.0 . . .
0.0 . . .
0.0 . . .
0.0 . . .
0.0 . . .
0.0 . . .
0.0 . . .
0.0 . . .
0.0 . . .
0.0 . . .
0.0 . . .
0.0 . . .
0.0 . . .
0.0 . . .
0.0 . . .
0.0 . . .
0.0 . . .
0.0 . . .
0.0 . . .
0.0 . . .
0.0 . . .
0.0 . . .
0.0 . . .
0.0 . . .
0.0 . . .
0.0 . . .
0.0 . . .
0.0 . . .
0.0 . . .
0.0 . . .
0.0 . . .
0.0 . . .
0.0 . . .
0.0 . . .
0.0 . . .
0.0 . . .
0.0 . . .
0.0 . . .
0.0 . . .
0.0 . . .
0.0 . . .
0.0 . . .
0.0 . . .
0.0 . . .
0.0 . . .
0.0 . . .
0.0 . . .
0.0 . . .
0.0 . . .
0.0 . . .
0.0 . . .
0.0 . . .
0.0 . . .
0.0 . . .
0.0 . . .
0.0 . . .
0.0 . . .
0.0 . . .
0.0 . . .
0.0 . . .
0.0 . . .
0.0 . . .
0.0 . . .
0.0 . . .
0.0 . . .
0.0 . . .
0.0 . . .
0.0 . . .
0.0 . . .
0.0 . . .
0.0 . . .
0.0 . . .
0.0 . . .
0.0 . . .
0.0 . . .
0.0 . . .
0.0 . . .
0.0 . . .
0.0 . . .
0.0 . . .
0.0 . . .
0.0 . . .
0.0 . . .
0.0 . . .
0.0 . . .
0.0 . . .
0.0 . . .
0.0 . . .
0.0 . . .
0.0 . . .
0.0 . . .
0.0 . . .
0.0 . . .
0.0 . . .
0.0 . . .
0.0 . . .
0.0 . . .
0.0 . . .
0.0 . . .
0.0 . . .
0.0 . . .
0.0 . . .
0.0 . . .
0.0 . . .
0.0 . . .
0.0 . . .
0.0 . . .
0.0 . . .
0.0 . . .
0.0 . . .
0.0 . . .
0.0 . . .
0.0 . . .
0.0 . . .
0.0 . . .
0.0 . . .
0.0 . . .
0.0 . . .
0.0 . . .
0.0 . . .
0.0 . . .
0.0 . . .
0.0 . . .
0.0 . . .
0.0 . . .
0.0 . . .
0.0 . . .
0.0 . . .
0.0 . . .
0.0 . . .
0.0 . . .
0.0 . . .
0.0 . . .
0.0 . . .
0.0 . . .
0.0 . . .
0.0 . . .
0.0 . . .
0.0 . . .
0.0 . . .
0.0 . . .
0.0 . . .
0.0 . . .
0.0 . . .
0.0 . . .
0.0 . . .
0.0 . . .
0.0 . . .
0.0 . . .
0.0 . . .
0.0 . . .
0.0 . . .
0.0 . . .
0.0 . . .
0.0 . . .
0.0 . . .
0.0 . . .
0.0 . . .
0.0 . . .
0.0 . . .
0.0 . . .
0.0 . . .
0.0 . . .
0.0 . . .
0.0 . . .
0.0 . . .
0.0 . . .
0.0 . . .
0.0 . . .
0.0 . . .
0.0 . . .
0.0 . . .
0.0 . . .
0.0 . . .
0.0 . . .
0.0 . . .
0.0 . . .
0.0 . . .
0.0 . . .
0.0 . . .
0.0 . . .
0.0 . . .
0.0 . . .
0.0 . . .
0.0 . . .
0.0 . . .
0.0 . . .
0.0 . . .
0.0 . . .
0.0 . . .
0.0 . . .
0.0 . . .
0.0 . . .
0.0 . . .
0.0 . . .
0.0 . . .
0.0 . . .
0.0 . . .
0.0 . . .
0.0 . . .
0.0 . . .
0.0 . . .
0.0 . . .
0.0 . . .
0.0 . . .
0.0 . . .
0.0 . . .
0.0 . . .
0.0 . . .
0.0 . . .
0.0 . . .
0.0 . . .
0.0 . . .
0.0 . . .
0.0 . . .
0.0 . . .
0.0 . . .
0.0 . . .
0.0 . . .
0.0 . . .
0.0 . . .
0.0 . . .
0.0 . . .
0.0 . . .
0.0 . . .
0.0 . . .
0.0 . . .
0.0 . . .
0.0 . . .
0.0 . . .
0.0 . . .
0.0 . . .
0.0 . . .
0.0 . . .
0.0 . . .
0.0 . . .
0.0 . . .
0.0 . . .
0.0 . . .
0.0 . . .
0.0 . . .
0.0 . . .
0.0 . . .
0.0 . . .
0.0 . . .
0.0 . . .
0.0 . . .
0.0 . . .
0.0 . . .
0.0 . . .
0.0 . . .
0.0 . . .
0.0 . . .
0.0 . . .
0.0 . . .
0.0 . . .
0.0 . . .
0.0 . . .
0.0 . . .
0.0 . . .
0.0 . . .
0.0 . . .
0.0 . . .
0.0 . . .
0.0 . . .
0.0 . . .
0.0 . . .
0.0 . . .
0.0 . . .
0.0 . . .
0.0 . . .
0.0 . . .
0.0 . . .
0.0 . . .
0.0 . . .
0.0 . . .
0.0 . . .
0.0 . . .
0.0 . . .
0.0 . . .
0.0 . . .
0.0 . . .
0.0 . . .
0.0 . . .
0.0 . . .
0.0 . . .
0.0 . . .
0.0 . . .
0.0 . . .
0.0 . . .
0.0 . . .
0.0 . . .
0.0 . . .
0.0 . . .
0.0 . . .
0.0 . . .
0.0 . . .
0.0 . . .
0.0 . . .
0.0 . . .
0.0 . . .
0.0 . . .
0.0 . . .
0.0 . . .
0.0 . . .
0.0 . . .
0.0 . . .
0.0 . . .
0.0 . . .
0.0 . . .
0.0 . . .
0.0 . . .
0.0 . . .
0.0 . . .
0.0 . . .
0.0 . . .
0.0 . . .
0.0 . . .
0.0 . . .
0.0 . . .
0.0 . . .
0.0 . . .
0.0 . . .
0.0 . . .
0.0 . . .
0.0 . . .
0.0 . . .
0.0 . . .
0.0 . . .
0.0 . . .
0.0 . . .
0.0 . . .
0.0 . . .
0.0 . . .
0.0 . . .
0.0 . . .
0.0 . . .
0.0 . . .
0.0 . . .
0.0 . . .
0.0 . . .
0.0 . . .
0.0 . . .
0.0 . . .
0.0 . . .
0.0 . . .
0.0 . . .
0.0 . . .
0.0 . . .
0.0 . . .
0.0 . . .
0.0 . . .
0.0 . . .
0.0 . . .
0.0 . . .
0.0 . . .
0.0 . . .
0.0 . . .
0.0 . . .
0.0 . . .
0.0 . . .
0.0 . . .
0.0 . . .
0.0 . . .
0.0 . . .
0.0 . . .
0.0 . . .
0.0 . . .
0.0 . . .
0.0 . . .
0.0 . . .
0.0 . . .
0.0 . . .
0.0 . . .
0.0 . . .
0.0 . . .
0.0 . . .
0.0 . . .
0.0 . . .
0.0 . . .
0.0 . . .
0.0 . . .
0.0 . . .
0.0 . . .
0.0 . . .
0.0 . . .
0.0 . . .
0.0 . . .
0.0 . . .
0.0 . . .
0.0 . . .
0.0 . . .
0.0 . . .
0.0 . . .
0.0 . . .
0.0 . . .
0.0 . . .
0.0 . . .
0.0 . . .
0.0 . . .
0.0 . . .
0.0 . . .
0.0 . . .
0.0 . . .
0.0 . . .
0.0 . . .
0.0 . . .
0.0 . . .
0.0 . . .
0.0 . . .
0.0 . . .
0.0 . . .
0.0 . . .
0.0 . . .
0.0 . . .
0.0 . . .
0.0 . . .
0.0 . . .
0.0 . . .
0.0 . . .
0.0 . . .
0.0 . . .
0.0 . . .
0.0 . . .
0.0 . . .
0.0 . . .
0.0 . . .
0.0 . . .
0.0 . . .
0.0 . . .
0.0 . . .
0.0 . . .
0.0 . . .
0.0 . . .
0.0 . . .
0.0 . . .
0.0 . . .
0.0 . . .
0.0 . . .
0.0 . . .
0.0 . . .
0.0 . . .
0.0 . . .
0.0 . . .
0.0 . . .
0.0 . . .
0.0 . . .
0.0 . . .
0.0 . . .
0.0 . . .
0.0 . . .
0.0 . . .
0.0 . . .
0.0 . . .
0.0 . . .
0.0 . . .
0.0 . . .
0.0 . . .
0.0 . . .
0.0 . . .
0.0 . . .
0.0 . . .
0.0 . . .
0.0 . . .
0.0 . . .
0.0 . . .
0.0 . . .
0.0 . . .
0.0 . . .
0.0 . . .
0.0 . . .
0.0 . . .
0.0 . . .
loop_
_refln_index_h
_refln_index_k
_refln_index_l
_refln_observed_status
_refln_F_squared_meas
_refln_F_squared_calc
_refln_phase_calc
_refln_d_spacing
_gsas_i100_meas
0 0 1 o 779.340 768.329 0.00 6.75107 36.36
1 1 -1 o 287.778 274.630 0.00 4.36780 33.40
0 1 1 o 30.806 31.046 0.00 4.31962 2.21
1 1 0 o 1520.163 1548.388 0.00 4.12266 100.00
2 0 -1 o 1513.777 1498.657 0.00 3.67714 48.42
2 0 -2 o 506.590 495.638 180.00 3.46980 13.55
0 0 2 o 218.336 212.582 180.00 3.37554 2.55
1 1 -2 o 76.517 80.194 180.00 3.33556 4.36
2 1 -1 o 1274.499 1255.593 180.00 3.07715 61.32
2 0 0 o 1904.811 2046.892 0.00 3.03259 21.07
1 1 1 o 104.142 111.501 180.00 3.02701 2.08
2 1 -2 o 25.519 21.104 0.00 2.95254 1.13
0 1 2 o 37.471 16.002 0.00 2.89380 0.82
0 2 0 o 240.481 325.429 180.00 2.81040 7.64
2 0 -3 o 3.910 4.549 0.00 2.71119 0.07
2 1 0 o 1543.187 1381.111 180.00 2.66891 31.58
1 2 -1 o 46.134 42.640 0.00 2.60489 2.26
0 2 1 o 240.907 244.170 180.00 2.59456 9.46
1 2 0 o 97.060 113.734 180.00 2.54995 3.56
2 1 -3 o 0.000 26.196 0.00 2.44196 0.00
1 1 -3 o 269.674 262.561 0.00 2.41667 6.25
1 2 -2 o 164.130 117.602 0.00 2.32598 5.35
2 0 1 o 38.591 27.432 180.00 2.31004 0.18
0 0 3 o 397.964 498.739 0.00 2.25036 2.07
3 1 -2 o 0.741 0.657 180.00 2.27090 0.02
2 2 -1 o 4.687 7.909 0.00 2.23291 0.13
1 1 2 o 0.864 2.479 180.00 2.21774 0.01
1 2 1 o 16.516 56.815 180.00 2.21353 0.28
2 2 -2 o 3.356 6.186 0.00 2.18390 0.10
3 1 -1 o 467.986 511.322 0.00 2.16589 8.83
0 2 2 o 83.111 82.341 0.00 2.15981 1.49
3 1 -3 o 183.990 135.369 0.00 2.13913 4.01
2 1 1 o 0.185 0.131 180.00 2.13663 0.00
0 1 3 o 37.641 46.052 0.00 2.08914 0.38
2 0 -4 o 24.015 22.446 0.00 2.07207 0.24
2 2 0 o 108.043 79.109 180.00 2.06133 1.78
2 2 -3 o 259.579 305.778 0.00 1.95123 5.55
2 1 -4 o 188.219 175.513 180.00 1.94418 3.40
1 2 -3 o 114.744 93.531 0.00 1.93826 2.01
3 1 0 o 0.000 23.651 0.00 1.90240 0.00
3 1 -4 o 161.482 222.229 0.00 1.86649 2.58
3 2 -2 o 14.071 12.368 0.00 1.86058 0.28
4 0 -3 o 27.269 16.216 0.00 1.85029 0.24
4 0 -2 o 96.360 51.577 180.00 1.83857 0.77
1 1 -4 o 174.883 93.701 0.00 1.83664 1.94
1 2 2 o 8.593 4.710 180.00 1.83101 0.07
1 3 -1 o 95.391 79.922 180.00 1.80883 2.38
0 3 1 o 208.226 189.437 180.00 1.80536 4.63
3 2 -1 o 146.053 142.563 180.00 1.80151 2.17
2 0 2 o 50.858 52.249 0.00 1.79623 0.13
1 3 0 o 48.920 51.113 180.00 1.79013 1.04
3 2 -3 o 36.299 38.242 0.00 1.78602 0.63
2 2 1 o 109.791 116.393 180.00 1.78456 0.94
4 1 -3 o 133.681 183.351 0.00 1.75751 2.18
0 2 3 o 41.784 57.888 0.00 1.75661 0.39
4 1 -2 o 0.042 0.090 180.00 1.74746 0.00
4 0 -4 o 0.000 44.492 0.00 1.73490 0.00
1 1 3 o 87.698 77.457 0.00 1.71151 0.46
2 1 2 o 3.355 2.905 0.00 1.71099 0.02
1 3 -2 o 0.017 0.014 180.00 1.70723 0.00
4 0 -1 o 0.929 0.741 0.00 1.70636 0.00
0 0 4 o 187.461 175.150 0.00 1.68777 0.55
2 3 -1 o 162.281 166.910 0.00 1.66939 2.90
2 2 -4 o 81.871 83.593 0.00 1.66778 1.17
1 3 1 o 24.098 24.053 180.00 1.66124 0.32
4 1 -4 o 14.552 14.366 0.00 1.65773 0.19
2 3 -2 o 2.574 2.491 0.00 1.64861 0.05
3 2 0 o 204.306 190.231 180.00 1.64119 1.75
0 3 2 o 34.140 31.018 180.00 1.63817 0.46
2 0 -5 o 27.453 24.178 180.00 1.63592 0.15
4 1 -1 o 658.297 554.687 180.00 1.63278 6.12
3 2 -4 o 30.479 18.373 180.00 1.61796 0.41
0 1 4 o 149.287 85.463 0.00 1.61647 0.86
3 1 1 o 65.642 35.998 180.00 1.61515 0.35
1 2 -4 o 0.161 0.076 0.00 1.59840 0.00
2 3 0 o 0.001 0.001 180.00 1.59393 0.00
3 1 -5 o 0.000 0.304 0.00 1.58226 0.00
2 1 -5 o 0.000 10.752 180.00 1.57075 0.00
4 0 -5 o 0.000 36.296 180.00 1.54994 0.00
4 2 -3 o 0.000 0.629 0.00 1.54542 0.00
2 3 -3 o 0.000 0.986 180.00 1.54136 0.00
4 2 -2 o 0.000 25.602 0.00 1.53858 0.00
1 3 -3 o 0.000 42.736 0.00 1.53494 0.00
4 0 0 o 72.604 32.757 180.00 1.51629 0.20
1 2 3 o 97.505 41.904 180.00 1.51386 0.50
2 2 2 o 42.009 17.965 0.00 1.51350 0.21
3 3 -2 o 122.605 96.494 180.00 1.49549 1.69
4 1 -5 o 7.258 6.251 180.00 1.49417 0.07
1 3 2 o 123.675 120.993 0.00 1.48000 0.96
4 2 -4 o 181.701 152.508 0.00 1.47627 2.02
1 1 -5 o 4.946 3.613 0.00 1.46559 0.03
3 3 -1 o 3.639 2.701 180.00 1.46429 0.04
4 1 0 o 292.741 218.308 180.00 1.46396 1.59
4 2 -1 o 301.056 255.707 0.00 1.45857 2.48
3 3 -3 o 12.242 11.446 180.00 1.45593 0.16
2 3 1 o 36.211 35.013 180.00 1.45515 0.27
2 0 3 o 231.605 316.475 0.00 1.44887 0.38
0 2 4 o 34.550 54.087 180.00 1.44690 0.19
3 2 1 o 1.617 2.705 0.00 1.44596 0.01
0 3 3 o 26.180 66.167 180.00 1.43987 0.21
5 1 -3 o 1.054 2.889 0.00 1.43841 0.01
3 2 -5 o 8.850 58.762 180.00 1.42222 0.09
5 1 -4 o 13.922 97.531 0.00 1.42118 0.14
2 2 -5 o 0.533 1.590 0.00 1.41383 0.00
0 4 0 o 28.569 19.596 0.00 1.40520 0.23
2 1 3 o 61.928 33.542 180.00 1.40301 0.20
5 1 -2 o 26.994 8.973 0.00 1.39290 0.22
2 3 -4 o 127.087 43.463 0.00 1.38972 1.37
1 1 4 o 3.221 1.579 0.00 1.38233 0.01
1 4 -1 o 21.202 16.166 0.00 1.37725 0.31
0 4 1 o 19.805 17.580 180.00 1.37571 0.27
3 3 0 o 12.252 12.671 180.00 1.37422 0.09
1 4 0 o 0.032 0.055 0.00 1.36894 0.00
3 1 2 o 12.447 23.412 0.00 1.36815 0.04
3 3 -4 o 0.008 0.020 180.00 1.36050 0.00
4 2 -5 o 9.402 19.395 0.00 1.35722 0.08
4 0 -6 o 36.045 63.821 0.00 1.35559 0.15
0 0 5 o 15.420 16.352 180.00 1.35021 0.03
1 3 -4 o 112.049 106.716 180.00 1.34881 0.90
5 1 -5 o 0.356 0.311 180.00 1.34745 0.00
3 1 -6 o 55.396 40.718 0.00 1.34146 0.47
2 0 -6 o 6.028 4.684 0.00 1.33835 0.02
1 2 -5 o 3.615 3.174 0.00 1.33569 0.02
4 2 0 o 4.794 4.539 180.00 1.33446 0.02
1 4 -2 o 52.850 64.396 180.00 1.33078 0.67
4 0 1 o 1.104 1.574 180.00 1.32415 0.00
4 1 -6 o 44.730 48.346 0.00 1.31781 0.36
4 3 -3 o 93.717 96.411 180.00 1.31652 0.96
5 2 -3 o 1.243 1.220 180.00 1.31502 0.01
0 1 5 o 1.264 1.184 0.00 1.31287 0.00
2 4 -1 o 30.532 28.482 180.00 1.31262 0.36
4 3 -2 o 5.674 5.272 180.00 1.31227 0.05
1 4 1 o 7.964 7.336 180.00 1.30865 0.08
2 4 -2 o 221.489 215.504 180.00 1.30245 2.72
2 1 -6 o 203.906 199.211 0.00 1.30195 1.30
5 2 -4 o 15.405 15.060 180.00 1.30182 0.14
5 1 -1 o 18.287 18.023 0.00 1.30035 0.10
0 4 2 o 15.283 15.079 180.00 1.29728 0.15
1 3 3 o 3.110 3.067 0.00 1.29684 0.02
2 3 2 o 21.889 21.587 180.00 1.29662 0.10
4 1 1 o 0.630 0.718 0.00 1.28887 0.00
2 2 3 o 33.788 41.769 180.00 1.28781 0.11
5 2 -2 o 0.000 36.572 180.00 1.27998 0.00
2 4 0 o 0.000 5.869 0.00 1.27498 0.00
4 3 -4 o 0.000 11.956 180.00 1.27297 0.00
1 2 4 o 0.000 50.150 180.00 1.27176 0.00
4 3 -1 o 3.283 6.737 0.00 1.26157 0.02
3 2 2 o 0.024 0.037 0.00 1.26069 0.00
0 3 4 o 214.630 134.032 180.00 1.25400 1.09
3 3 1 o 0.018 0.011 180.00 1.25339 0.00
2 4 -3 o 36.447 19.853 180.00 1.24759 0.39
5 2 -5 o 76.888 43.288 180.00 1.24444 0.58
1 4 -3 o 34.243 19.370 180.00 1.24417 0.32
6 0 -4 o 298.786 180.571 0.00 1.24126 1.21
5 1 -6 o 0.398 0.250 180.00 1.24004 0.00
3 2 -6 o 11.862 7.518 0.00 1.23972 0.09
3 3 -5 o 54.412 37.150 180.00 1.23783 0.46
2 3 -5 o 8.173 8.324 0.00 1.23229 0.06
6 0 -3 o 7.481 24.188 0.00 1.22571 0.03
3 4 -2 o 4.548 30.449 180.00 1.22289 0.04
4 2 -6 o 0.581 5.290 180.00 1.22098 0.00
0 2 5 o 1.823 11.272 0.00 1.21704 0.01
6 0 -5 o 0.692 3.541 0.00 1.21595 0.00
1 4 2 o 0.002 0.008 0.00 1.21437 0.00
1 1 -6 o 8.722 31.774 0.00 1.21397 0.04
6 1 -4 o 3.443 9.290 0.00 1.21206 0.03
2 2 -6 o 39.462 64.647 0.00 1.20833 0.23
5 2 -1 o 115.563 165.092 180.00 1.20705 0.58
2 0 4 o 30.563 42.458 0.00 1.20677 0.04
3 4 -1 o 24.350 30.529 0.00 1.20565 0.20
3 4 -3 o 131.796 124.924 180.00 1.20097 1.26
2 4 1 o 0.469 0.438 180.00 1.20053 0.00
4 2 1 o 9.366 8.241 180.00 1.19785 0.03
6 1 -3 o 21.445 18.812 0.00 1.19757 0.15
4 3 -5 o 4.337 3.841 180.00 1.19426 0.03
0 4 3 o 2.247 2.073 0.00 1.19191 0.01
6 1 -5 o 1.972 1.923 0.00 1.18846 0.01
5 1 0 o 23.618 22.753 180.00 1.18574 0.08
4 0 -7 o 498.199 427.162 0.00 1.18182 1.66
2 1 4 o 2.657 2.112 180.00 1.17989 0.01
1 3 -5 o 111.749 87.541 180.00 1.17951 0.58
4 3 0 o 0.011 0.008 0.00 1.17866 0.00
5 3 -3 o 145.943 138.080 180.00 1.16520 1.10
2 4 -4 o 32.859 36.240 180.00 1.16299 0.27
6 0 -2 o 20.251 13.862 180.00 1.17358 0.05
3 1 3 o 2.408 1.695 0.00 1.17120 0.01
5 2 -6 o 7.499 11.403 180.00 1.15835 0.05
6 0 -6 o 0.662 1.094 0.00 1.15660 0.00
4 1 -7 o 77.822 128.935 0.00 1.15654 0.50
5 3 -4 o 0.265 0.447 0.00 1.15599 0.00
1 1 5 o 0.013 0.023 0.00 1.15535 0.00
4 0 2 o 14.370 24.616 0.00 1.15502 0.02
3 4 0 o 0.679 1.159 180.00 1.15386 0.00
3 1 -7 o 46.739 68.361 0.00 1.15022 0.27
6 1 -2 o 0.071 0.095 0.00 1.14880 0.00
2 3 3 o 33.324 36.367 180.00 1.14615 0.11
3 4 -4 o 27.979 29.593 0.00 1.14570 0.23
5 3 -2 o 7.423 6.127 180.00 1.14062 0.05
1 4 -4 o 71.948 57.936 0.00 1.13869 0.47
1 2 -6 o 107.666 87.202 0.00 1.13702 0.41
6 2 -4 o 1.733 1.434 180.00 1.13545 0.01
1 3 4 o 188.485 157.928 180.00 1.13479 0.62
6 1 -6 o 0.420 0.368 180.00 1.13286 0.00
4 1 2 o 33.125 29.997 180.00 1.13138 0.08
2 0 -7 o 7.435 7.276 0.00 1.12737 0.02
3 3 2 o 40.414 39.781 0.00 1.12691 0.13
0 0 6 o 46.363 46.351 180.00 1.12518 0.06
6 2 -3 o 57.285 57.624 180.00 1.12351 0.36
5 1 -7 o 104.467 105.167 0.00 1.12242 0.60
4 4 -3 o 96.584 97.372 180.00 1.11906 0.76
4 4 -2 o 163.520 166.829 180.00 1.11646 1.18
6 2 -5 o 14.382 14.729 0.00 1.11597 0.09
5 3 -5 o 19.302 19.879 0.00 1.11525 0.13
5 2 0 o 18.880 19.680 180.00 1.11372 0.06
3 3 -6 o 10.716 11.307 180.00 1.11185 0.07
1 5 -1 o 19.079 20.179 180.00 1.10969 0.19
0 5 1 o 15.105 15.916 0.00 1.10889 0.14
2 2 4 o 116.543 122.780 180.00 1.10887 0.27
1 4 3 o 1.152 1.188 180.00 1.10691 0.01
2 4 2 o 15.185 15.617 0.00 1.10676 0.07
2 1 -7 o 194.605 195.218 0.00 1.10536 0.81
1 5 0 o 6.699 6.716 0.00 1.10533 0.06
0 1 6 o 46.619 44.908 180.00 1.10329 0.12
3 2 3 o 79.500 74.262 180.00 1.10165 0.18
4 3 -6 o 45.310 40.514 180.00 1.09827 0.29
6 0 -1 o 111.174 98.923 180.00 1.09737 0.20
0 3 5 o 60.722 54.001 180.00 1.09541 0.21
4 4 -4 o 1.955 1.808 180.00 1.09195 0.01
4 2 -7 o 7.882 7.697 180.00 1.08942 0.05
2 3 -6 o 13.186 12.990 180.00 1.08904 0.07
1 2 5 o 33.861 33.851 180.00 1.08843 0.08
5 3 -1 o 29.473 29.693 0.00 1.08811 0.13
1 5 -2 o 153.356 162.989 180.00 1.08495 1.35
4 4 -1 o 9.234 9.831 180.00 1.08473 0.05
3 2 -7 o 56.267 60.110 0.00 1.08414 0.30
6 2 -2 o 62.511 66.792 0.00 1.08295 0.30
4 3 1 o 0.835 0.883 180.00 1.08135 0.00
0 4 4 o 50.659 52.556 180.00 1.07990 0.23
3 4 1 o 45.294 46.721 180.00 1.07951 0.19
6 1 -1 o 31.558 31.275 180.00 1.07704 0.11
6 0 -7 o 362.053 356.889 0.00 1.07669 0.90
2 5 -1 o 2.281 2.198 180.00 1.07504 0.02
1 5 1 o 92.455 87.773 180.00 1.07286 0.68
6 2 -6 o 17.683 17.084 180.00 1.06957 0.10
3 4 -5 o 82.875 80.109 0.00 1.06952 0.56
2 5 -2 o 61.304 59.326 180.00 1.06943 0.53
5 1 1 o 0.863 0.839 0.00 1.06905 0.00
4 2 2 o 4.861 4.780 0.00 1.06831 0.01
0 5 2 o 55.560 56.227 0.00 1.06657 0.41
2 4 -5 o 176.496 180.430 180.00 1.06595 1.07
5 2 -7 o 1.058 1.128 0.00 1.06076 0.01
6 1 -7 o 6.951 7.123 180.00 1.05747 0.03
2 5 0 o 3.480 3.300 180.00 1.05407 0.02
5 3 -6 o 9.031 8.234 180.00 1.05202 0.05
2 2 -7 o 6.883 6.234 0.00 1.04633 0.03
0 2 6 o 173.905 160.284 0.00 1.04457 0.44
