#------------------------------------------------------------------------------
#$Date: 2023-12-12 14:54:19 +0200 (Tue, 12 Dec 2023) $
#$Revision: 288248 $
#$URL: file:///home/coder/svn-repositories/cod/cif/2/30/06/2300688.cif $
#------------------------------------------------------------------------------
#
# This file is available in the Crystallography Open Database (COD),
# http://www.crystallography.net/. The original data for this entry
# were provided by IUCr Journals, http://journals.iucr.org/.
#
# The file may be used within the scientific community so long as
# proper attribution is given to the journal article from which the
# data were obtained.
#
data_2300688
loop_
_publ_author_name
'Jha, Kunal Kumar'
'Gruza, Barbara'
'Chodkiewicz, Micha\/l Leszek'
'Jelsch, Christian'
'Dominiak, Paulina Maria'
_publ_section_title
;
 Refinements on electron diffraction data of \b-glycine in MoPro: a quest
 for an improved structure model
;
_journal_coeditor_code           TE5073SUP1
_journal_issue                   4
_journal_name_full               'Journal of Applied Crystallography'
_journal_page_first              1234
_journal_page_last               1243
_journal_paper_doi               10.1107/S160057672100580X
_journal_volume                  54
_journal_year                    2021
_chemical_formula_moiety         'C2 H5 N O2'
_chemical_formula_sum            'C2 H5 N O2'
_chemical_formula_weight         75.064
_space_group_IT_number           4
_space_group_name_Hall           'P 2yb'
_space_group_name_H-M_alt        'P 1 21 1'
_symmetry_cell_setting           monoclinic
_symmetry_space_group_name_Hall  'P 2yb'
_atom_sites_solution_hydrogens   difmap
_atom_sites_solution_primary     direct
_atom_sites_solution_secondary   difmap
_audit_creation_method           'MoPro v20.06             '
_cell_angle_alpha                90.
_cell_angle_beta                 112.86(3)
_cell_angle_gamma                90.
_cell_formula_units_Z            2
_cell_length_a                   5.3110(11)
_cell_length_b                   6.4540(13)
_cell_length_c                   5.6940(11)
_cell_measurement_temperature    103.15
_cell_volume                     179.84(7)
_computing_structure_refinement  'MoPro (J. Appl. Cryst. 2005, 38, 38-54)'
_diffrn_measured_fraction_theta_full 0.873
_diffrn_measured_fraction_theta_max 0.884
_diffrn_measurement_device_type  'transmission electron microscope'
_diffrn_measurement_method       'Phi scan'
_diffrn_radiation_source
'JEOL JEM-2100 LaB6 transmission electron microscope'
_diffrn_radiation_type           electron
_diffrn_radiation_wavelength     0.02508
_diffrn_reflns_av_R_equivalents  0.0
_diffrn_reflns_av_sigmaI/netI    0.22719
_diffrn_reflns_limit_h_max       6
_diffrn_reflns_limit_h_min       -7
_diffrn_reflns_limit_k_max       8
_diffrn_reflns_limit_k_min       -8
_diffrn_reflns_limit_l_max       7
_diffrn_reflns_limit_l_min       0
_diffrn_reflns_number            859
_diffrn_reflns_theta_full        0.88
_diffrn_reflns_theta_max         0.96
_diffrn_reflns_theta_min         0.14
_exptl_absorpt_coefficient_mu    0.119
_exptl_crystal_colour            colourless
_exptl_crystal_density_diffrn    1.387
_exptl_crystal_density_method    'not measured'
_exptl_crystal_description       shard
_exptl_crystal_F_000             28
_refine_diff_density_max         0.25
_refine_diff_density_min         -0.31
_refine_diff_density_rms         0.07
_refine_ls_extinction_method     none
_refine_ls_goodness_of_fit_ref   1.336
_refine_ls_hydrogen_treatment    refall
_refine_ls_matrix_type           full
_refine_ls_number_parameters     66
_refine_ls_number_reflns         859
_refine_ls_number_restraints     17
_refine_ls_restrained_S_all      2.039
_refine_ls_R_factor_all          0.1353
_refine_ls_R_factor_gt           0.1268
_refine_ls_shift/su_max          0.000
_refine_ls_shift/su_mean         0.000
_refine_ls_structure_factor_coef Fsqd
_refine_ls_weighting_scheme      sigma
_refine_ls_wR_factor_gt          0.2553
_refine_ls_wR_factor_ref         0.2619
_reflns_number_gt                736
_reflns_number_total             859
_reflns_threshold_expression     'I > 2\s(I)'
_iucr_refine_instructions_details
; 
! MoPro v20.06 27/11/2020 11:18:28
! molecular file: D:\PostDoc_Papers\GLYTAAM_EDMoPro_Paper\Betaglycine\withrestr
#aints\CJ\MoPro\LSDB\xd_lsdb_07.par
! reflections hkl file : D:\PostDoc_Papers\GLYTAAM_EDMoPro_Paper\Betaglycine\wi
#threstraints\CJ\MoPro\LSDB\glycine_beta_merg.Fhkl refin. vs. F^2
! atomic table file : C:\Program Files (x86)\MoProSuite\LibMoPro\mopro_v20.tab
! wave functions file : C:\Program Files (x86)\MoProSuite\LibMoPro\WAVEF
! anomalous scattering file :
! Constraints file :
! Restraints file : D:\PostDoc_Papers\GLYTAAM_EDMoPro_Paper\Betaglycine\withres
#traints\CJ\MoPro\LSDB\RESTRAIN.txt
! RF factor = 13.532 % RI factor = 29.100%
! wR2F factor = 14.795 % wR2I factor = 26.186%
! g.o.f.(F**2) = 1.510 Nvar= 66 Nref= 859 Nfree= 0 0.10<sinT/l< 0.67

! P00 Dip Qua Oct Hex l=5 l=6
! N nl = 2 2 2 3 4 5 6
! N zeta= 3.839 3.839 3.839 3.839 3.839 3.839 3.839
! H nl = 2 1 2 3 4 5 6
! H zeta= 2.000 2.000 2.000 2.000 2.000 2.000 2.000
! C nl = 2 2 2 3 4 5 6
! C zeta= 3.176 3.176 3.176 3.176 3.176 3.176 3.176
! O nl = 2 2 2 3 4 5 6
! O zeta= 4.466 4.466 4.466 4.466 4.466 4.466 4.466

WSIG 1.00000 ! weighting scheme
 ! SPACE GROUP P ?

CELL 5.3110 6.4540 5.6940 90.0000 112.8630 90.0000 0.02508
ZERR 0.0000 0.0000 0.0000 0.0000 0.0000 0.0000

SYMM 2 P
 X , Y, Z
 -X , 1/2+Y, -Z

SCALE 1 67.452988

FMULT 1.00000

UOVER 0.00000 0.00000 0.00000 0.00000 0.00000 0.00000 ANI

SOLVT 0.00000 50.00000

EXTIN 0.00000 GAUSSIAN ISOT TYP1 ! G*10^4


DUMMY 0

KAPPA 6
 0.990000 0.812000 ! # 1 1 TES N1 1X N
 1.178000 1.317000 ! # 2 1 TES H1A 3X H
 1.016000 0.951000 ! # 3 1 TES C1 1X C
 1.092000 1.139000 ! # 4 1 TES H1D 2X H
 0.990000 0.872000 ! # 5 1 TES C2 1X C
 0.977000 1.163000 ! # 6 1 TES O1 2X O


ATOMS 10

ATOM 1 N1 TES 1 0.852064 0.435114 0.235161 1.0000 1 N
 ZX C1 H1B HEX K1 V0 M0 Q0
UANI 0.011014 0.013502 0.013646 -.000130 0.006276 -.001681
 5.10690 0. 0. 0. 0.042 0. 0. 0. 0. 0.
 0.267 0. 0. 0. 0. 0.211 0.
 0.048 0. 0. 0. 0. -.094 0. 0. 0.

ATOM 2 H1A TES 1 0.843173 0.467603 0.026867 1.0000 1 H
 ZY N1 C1 HEX K2 V0 M0 Q0
UISO 0.009638
 0.77740 0. 0. 0. 0.142 0.062 0. 0. 0. 0.
 0. 0. 0. 0. 0. 0. 0.
 0. 0. 0. 0. 0. 0. 0. 0. 0.

ATOM 3 H1B TES 1 1.049364 0.496846 0.367501 1.0000 1 H
 ZY N1 C1 HEX K2 V0 M0 Q0
UISO 0.063068
 0.77740 0. 0. 0. 0.142 0.062 0. 0. 0. 0.
 0. 0. 0. 0. 0. 0. 0.
 0. 0. 0. 0. 0. 0. 0. 0. 0.

ATOM 4 H1C TES 1 0.854619 0.256511 0.274062 1.0000 1 H
 ZY N1 C1 HEX K2 V0 M0 Q0
UISO 0.026694
 0.77740 0. 0. 0. 0.142 0.062 0. 0. 0. 0.
 0. 0. 0. 0. 0. 0. 0.
 0. 0. 0. 0. 0. 0. 0. 0. 0.

ATOM 5 C1 TES 1 0.613893 0.548352 0.272499 1.0000 1 C
 XY N1 C2 HEX K3 V0 M0 Q0
UANI 0.013210 0.014009 0.015476 0.000653 0.008177 -.000085
 3.69730 0. -.087 0. 0. 0.082 0. 0. -.128 0.
 0. -.119 -.202 0. 0. 0.160 0.034
 0.026 0. 0. -.046 0.076 0. 0. 0.041 0.021

ATOM 6 H1D TES 1 0.622329 0.715698 0.214293 1.0000 1 H
 ZY C1 N1 HEX K4 V0 M0 Q0
UISO 0.025865
 1.08430 0. 0. 0. 0.181 0.085 0. 0. 0. 0.
 0. 0. 0. 0. 0. 0. 0.
 0. 0. 0. 0. 0. 0. 0. 0. 0.

ATOM 7 H1E TES 1 0.410064 0.482529 0.120764 1.0000 1 H
 ZY C1 N1 HEX K4 V0 M0 Q0
UISO 0.043807
 1.08430 0. 0. 0. 0.181 0.085 0. 0. 0. 0.
 0. 0. 0. 0. 0. 0. 0.
 0. 0. 0. 0. 0. 0. 0. 0. 0.

ATOM 8 C2 TES 1 0.635968 0.536755 0.558553 1.0000 1 C
 ZX C1 O2 HEX K5 V0 M0 Q0
UANI 0.010907 0.012060 0.013967 0.000945 0.006899 0.000266
 4.04520 0. 0. 0. -.081 0. 0. 0. 0.275 0.
 0.314 0. 0. -.232 0. 0. 0.
 0.041 0. 0. 0. 0. 0. 0. 0.043 0.

ATOM 9 O1 TES 1 0.881380 0.509430 0.743002 1.0000 1 O
 XY C2 O2 HEX K6 V0 M0 Q0
UANI 0.009247 0.020009 0.016048 -.000286 0.006746 0.001264
 6.32490 0. -.088 0.009 0. -.042 0. 0. -.074 0.008
 0. -.007 0. 0. 0. 0.018 -.003
 0. 0. 0. 0. 0. 0. 0. 0.008 0.

ATOM 10 O2 TES 1 0.410222 0.565371 0.600221 1.0000 1 O
 XY C2 O1 HEX K6 V0 M0 Q0
UANI 0.011841 0.016347 0.020374 0.000562 0.009837 -.003022
 6.32490 0. -.088 0.009 0. -.042 0. 0. -.074 0.008
 0. -.007 0. 0. 0. 0.018 -.003
 0. 0. 0. 0. 0. 0. 0. 0.008 0.

ANHAR 0 3 ! number_of_anharmonic_atoms max_order
! 1 ! atom number
! 0.00E+00 0.00E+00 0.00E+00 0.00E+00 0.00E+00 0.00E+00 0.00E+00 0.00E+00
! 0.00E+00 0.00E+00


STOP
;
_cod_data_source_file            te5073sup1.cif
_cod_data_source_block           TAAM_UBDB
_cod_original_cell_volume        179.841
_cod_database_code               2300688
loop_
_symmetry_equiv_pos_as_xyz
'x, y, z'
'-x, y+1/2, -z'
loop_
_atom_site_type_symbol
_atom_site_label
_atom_site_fract_x
_atom_site_fract_y
_atom_site_fract_z
_atom_site_U_iso_or_equiv
_atom_site_adp_type
_atom_site_occupancy
_atom_site_calc_flag
_atom_site_refinement_flags_posn
_atom_site_refinement_flags_adp
_atom_site_disorder_assembly
_atom_site_disorder_group
N N1 0.8521(10) 0.4351(8) 0.2352(11) 0.0123(11) Uani 1 d . . . .
H H1A 0.843(5) 0.468(3) 0.027(5) 0.010(5) Uiso 1 d D . . .
H H1B 1.049(12) 0.497(9) 0.368(11) 0.063(14) Uiso 1 d D . . .
H H1C 0.855(7) 0.257(5) 0.274(7) 0.027(6) Uiso 1 d D . . .
C C1 0.6139(12) 0.5484(10) 0.2725(12) 0.0134(11) Uani 1 d . . . .
H H1D 0.622(8) 0.716(5) 0.214(8) 0.026(7) Uiso 1 d D . . .
H H1E 0.410(10) 0.483(7) 0.121(10) 0.044(10) Uiso 1 d D . . .
C C2 0.6360(11) 0.5368(10) 0.5586(12) 0.0117(9) Uani 1 d . . . .
O O1 0.8814(9) 0.50943(7) 0.7430(9) 0.0145(10) Uani 1 d . . . .
O O2 0.4102(9) 0.5654(9) 0.6002(10) 0.0151(11) Uani 1 d . . . .
loop_
_atom_site_aniso_label
_atom_site_aniso_U_11
_atom_site_aniso_U_22
_atom_site_aniso_U_33
_atom_site_aniso_U_12
_atom_site_aniso_U_13
_atom_site_aniso_U_23
N1 0.0110(15) 0.0135(14) 0.0136(17) -0.0001(13) 0.0063(14) -0.0017(15)
C1 0.0132(16) 0.0140(17) 0.0155(15) 0.0007(15) 0.0082(14) -0.0001(16)
C2 0.0109(13) 0.0121(16) 0.0140(13) 0.0009(13) 0.0069(11) 0.0003(14)
O1 0.0092(13) 0.0200(16) 0.0160(16) -0.0003(13) 0.0067(12) 0.0013(14)
O2 0.0118(15) 0.0163(15) 0.0204(18) 0.0006(13) 0.0098(14) -0.0030(16)
loop_
_atom_type_symbol
_atom_type_description
_atom_type_scat_dispersion_real
_atom_type_scat_dispersion_imag
_atom_type_scat_source
C C 0.0000 0.0000
;Clementi & Roetti 1974. Atomic Data & Nuclear Data Tables. 
14, 177   f(s)=(Z-f_xray)/pi/|H|^2
;
H H 0.0000 0.0000
;Clementi & Roetti 1974. Atomic Data & Nuclear Data Tables. 
14, 177   f(s)=(Z-f_xray)/pi/|H|^2
;
N N 0.0000 0.0000
;Clementi & Roetti 1974. Atomic Data & Nuclear Data Tables. 
14, 177   f(s)=(Z-f_xray)/pi/|H|^2
;
O O 0.0000 0.0000
;Clementi & Roetti 1974. Atomic Data & Nuclear Data Tables. 
14, 177   f(s)=(Z-f_xray)/pi/|H|^2
;
loop_
_geom_angle_atom_site_label_1
_geom_angle_atom_site_label_2
_geom_angle_atom_site_label_3
_geom_angle
_geom_angle_site_symmetry_1
_geom_angle_site_symmetry_2
_geom_angle_site_symmetry_3
C1 N1 H1B 110.(2) . . .
C1 N1 H1C 113.(2) . . .
C1 N1 H1A 110.(1) . . .
H1B N1 H1C 107.(4) . . .
H1B N1 H1A 106.(3) . . .
H1C N1 H1A 111.(2) . . .
N1 C1 C2 112.4(3) . . .
N1 C1 H1D 106.(2) . . .
N1 C1 H1E 107.(2) . . .
C2 C1 H1D 110.(2) . . .
C2 C1 H1E 115.(2) . . .
H1D C1 H1E 105.(3) . . .
O2 C2 O1 123.7(4) . . .
O2 C2 C1 117.8(4) . . .
O1 C2 C1 118.4(4) . . .
loop_
_geom_bond_atom_site_label_1
_geom_bond_atom_site_label_2
_geom_bond_distance
_geom_bond_site_symmetry_2
N1 C1 1.545(6) .
N1 H1B 1.10(6) .
N1 H1C 1.17(3) .
N1 H1A 1.19(2) .
C1 C2 1.589(8) .
C1 H1D 1.14(3) .
C1 H1E 1.17(5) .
C2 O2 1.322(5) .
C2 O1 1.330(8) .
loop_
_geom_hbond_atom_site_label_D
_geom_hbond_atom_site_label_H
_geom_hbond_atom_site_label_A
_geom_hbond_distance_DH
_geom_hbond_distance_HA
_geom_hbond_distance_DA
_geom_hbond_angle_DHA
_geom_hbond_site_symmetry_A
N1 H1A O1 1.19(2) 1.73(2) 2.906(6) 171.6(6) 1_554
N1 H1C O2 1.17(3) 2.19(3) 3.087(6) 131.(2) 2_646
N1 H1B O2 1.10(6) 1.91(6) 3.004(7) 172.(1) 1_655
C1 H1D O2 1.14(3) 2.53(3) 3.428(6) 135.(2) 2_656
N1 H1C O1 1.17(3) 2.15(3) 3.071(5) 133.(2) 2_746
loop_
_geom_torsion_atom_site_label_1
_geom_torsion_atom_site_label_2
_geom_torsion_atom_site_label_3
_geom_torsion_atom_site_label_4
_geom_torsion_site_symmetry_1
_geom_torsion_site_symmetry_2
_geom_torsion_site_symmetry_3
_geom_torsion_site_symmetry_4
_geom_torsion
N1 C1 C2 O2 . . . . -158.4(7)
N1 C1 C2 O1 . . . . 24.9(7)
H1A N1 C1 C2 . . . . -172.(2)
H1A N1 C1 H1D . . . . -51.(2)
H1A N1 C1 H1E . . . . 61.(2)
H1B N1 C1 C2 . . . . -56.(3)
H1B N1 C1 H1D . . . . 65.(3)
H1B N1 C1 H1E . . . . 177.(4)
H1C N1 C1 C2 . . . . 64.(2)
H1C N1 C1 H1D . . . . -175.(3)
H1C N1 C1 H1E . . . . -63.(3)
H1D C1 C2 O2 . . . . 83.(2)
H1D C1 C2 O1 . . . . -94.(2)
H1E C1 C2 O2 . . . . -35.(3)
H1E C1 C2 O1 . . . . 148.(3)
