#------------------------------------------------------------------------------
#$Date: 2019-12-26 20:22:19 +0200 (Thu, 26 Dec 2019) $
#$Revision: 246049 $
#$URL: file:///home/coder/svn-repositories/cod/cif/2/30/06/2300656.cif $
#------------------------------------------------------------------------------
#
# This file is available in the Crystallography Open Database (COD),
# http://www.crystallography.net/. The original data for this entry
# were provided by IUCr Journals, http://journals.iucr.org/.
#
# The file may be used within the scientific community so long as
# proper attribution is given to the journal article from which the
# data were obtained.
#
data_2300656
loop_
_publ_author_name
'Likhacheva, Anna Y.'
'Rashchenko, Sergey V.'
'Litasov, Konstantin D.'
_publ_section_title
;
 High-pressure structural properties of naphthalene up to 6&#x2005;GPa
;
_journal_coeditor_code           kk5159
_journal_issue                   3
_journal_name_full               'Journal of Applied Crystallography'
_journal_page_first              984
_journal_paper_doi               10.1107/S1600576714005937
_journal_volume                  47
_journal_year                    2014
_chemical_formula_sum            'C5 H4'
_chemical_formula_weight         64.09
_space_group_IT_number           14
_space_group_name_Hall           '-P 2yab'
_space_group_name_H-M_alt        'P 1 21/a 1'
_symmetry_cell_setting           monoclinic
_symmetry_space_group_name_H-M   'P 1 21/a 1'
_audit_creation_date             2013-04-13T16:48
_audit_creation_method           'from EXP file using GSAS2CIF'
_audit_update_record
' 2013-04-13T16:48  Initial CIF as created by GSAS2CIF'
_cell_angle_alpha                90.0
_cell_angle_beta                 122.651(4)
_cell_angle_gamma                90.0
_cell_formula_units_Z            4
_cell_length_a                   8.2592(5)
_cell_length_b                   5.98351(32)
_cell_length_c                   8.6755(11)
_cell_volume                     360.98(6)
_computing_structure_refinement  GSAS
_diffrn_radiation_polarisn_ratio 0.95
_diffrn_radiation_probe          x-ray
_diffrn_radiation_wavelength     0.3685
_exptl_absorpt_correction_T_max  1.00000
_exptl_absorpt_correction_T_min  1.00000
_exptl_absorpt_process_details
;   GSAS Absorption/surface roughness correction: function number 0
 No correction is applied.
;
_pd_calc_method                  'Rietveld Refinement'
_pd_instr_location               ' ?'
_pd_meas_2theta_range_inc        0.0141
_pd_meas_2theta_range_max        32.2254
_pd_meas_2theta_range_min        0.021
_pd_meas_number_of_points        2285
_pd_phase_name                   naphthalene
_pd_prep_pressure                0
_pd_proc_2theta_range_inc        0.0141
_pd_proc_2theta_range_max        32.2254
_pd_proc_2theta_range_min        0.021
_pd_proc_info_datetime           2013-04-13T16:48:17
_pd_proc_info_excluded_regions   ' ?'
_pd_proc_ls_background_function
;   GSAS Background function number 1 with 35 terms.
 Shifted Chebyshev function of 1st kind
      1:    4758.40     2:   -879.988     3:    106.477     4:   -429.531    
      5:    321.207     6:   -87.5981     7:   -25.5122     8:    39.4732    
      9:   -47.7320    10:    15.0541    11:   -32.8967    12:    23.0655    
     13:   -16.3498    14:    9.68701    15:   -12.8121    16:    12.9921    
     17:   -4.02075    18:    4.58237    19:   -5.01527    20:    3.62609    
     21:   -5.76574    22:  -0.247148    23:    2.35465    24:  -0.727316    
     25:    7.21764    26:   -3.30575    27:   0.836256    28:   -7.30925    
     29:    9.99689    30:   -4.16181    31:    6.08843    32:    1.56549    
     33:  -0.417501    34:   -4.74744    35:   -2.72955    
;
_pd_proc_ls_peak_cutoff          0.01000
_pd_proc_ls_pref_orient_corr
;   March-Dollase
 AXIS  1 Ratio=     1.450 Frac     0.537  h= 0.000  k= 0.000  l= 1.000
 AXIS  2 Ratio=     1.515 Frac     0.463  h= 1.000  k= 0.000  l= 0.000
 Prefered orientation correction range: Min=   0.40129, Max=   1.80153
;
_pd_proc_ls_profile_function
;
 CW Profile function number 2 with  18 terms
 Profile coefficients for Simpson's rule integration of pseudovoigt function
 C.J. Howard (1982). J. Appl. Cryst.,15,615-620.
 P. Thompson, D.E. Cox & J.B. Hastings (1987). J. Appl. Cryst.,20,79-83.
 #1(GU)   =  786.433 #2(GV)   =  -50.364 #3(GW)   =    5.666
 #4(LX)   =    0.000 #5(LY)   =   31.520 #6(trns) =    0.000
 #7(asym) =   0.1022 #8(shft) =   0.0000 #9(GP)   =    0.000
 #10(stec)=     0.00 #11(ptec)=     0.00 #12(sfec)=     0.00
 #13(L11) =    0.000 #14(L22) =    0.000 #15(L33) =    0.000
 #16(L12) =    0.000 #17(L13) =    0.000 #18(L23) =    0.000
 Peak tails are ignored  where the intensity is below 0.0100 times the peak
   Aniso. broadening axis   0.0   0.0   1.0
;
_pd_proc_ls_prof_R_factor        0.0041
_pd_proc_ls_prof_wR_expected     0.0145
_pd_proc_ls_prof_wR_factor       0.0058
_pd_proc_number_of_points        2285
_pd_spec_mounting                ' ?'
_refine_ls_goodness_of_fit_all   0.41
_refine_ls_matrix_type           full
_refine_ls_number_parameters     31
_refine_ls_number_restraints     10
_refine_ls_R_Fsqd_factor         0.18978
_refine_ls_shift/su_max          2.59
_refine_ls_shift/su_mean         1.08
_reflns_d_resolution_high        1.025
_reflns_d_resolution_low         7.305
_reflns_limit_h_max              8
_reflns_limit_h_min              0
_reflns_limit_k_max              5
_reflns_limit_k_min              0
_reflns_limit_l_max              7
_reflns_limit_l_min              -8
_reflns_number_total             350
_cod_data_source_file            kk5159sup1.cif
_cod_data_source_block           REF1_publ_000
_cod_depositor_comments
;
The following automatic conversions were performed:

data item '_geom_angle_publ_flag' value 'N' was changed to 'n' in
accordance with the
/home/saulius/struct/COD-crude-data/automatic-downloads/DataCite-retrospective/IUCr/depositions/lib/dictionaries/cif_core.dic
dictionary named 'cif_core.dic' version 2.4.2 last updated on
2011-04-26 (15 times).

data item '_geom_bond_publ_flag' value 'N' was changed to 'n' in
accordance with the
/home/saulius/struct/COD-crude-data/automatic-downloads/DataCite-retrospective/IUCr/depositions/lib/dictionaries/cif_core.dic
dictionary named 'cif_core.dic' version 2.4.2 last updated on
2011-04-26 (29 times).

Automatic conversion script
Id: cif_fix_values 7556 2019-12-06 15:28:31Z antanas 
;
_cod_original_cell_volume        360.98(5)
_cod_database_code               2300656
_gsas_exptl_extinct_corr_t_min   1.00000
_gsas_exptl_extinct_corr_t_max   1.00000
loop_
_symmetry_equiv_pos_site_id
_symmetry_equiv_pos_as_xyz
1 +x,+y,+z
2 -x+1/2,+y+1/2,-z
-1 -x,-y,-z
-2 +x+1/2,-y+1/2,+z
loop_
_atom_site_type_symbol
_atom_site_label
_atom_site_fract_x
_atom_site_fract_y
_atom_site_fract_z
_atom_site_occupancy
_atom_site_thermal_displace_type
_atom_site_U_iso_or_equiv
_atom_site_symmetry_multiplicity
C C1 0.0878(5) 0.0182(5) 0.33141(31) 1.0 Uiso 0.06 4
C C2 0.1139(5) 0.1653(5) 0.22261(28) 1.0 Uiso 0.05 4
C C3 0.0462(4) 0.10508(25) 0.03562(28) 1.0 Uiso 0.04 4
C C4 0.0726(5) 0.2520(4) -0.08049(29) 1.0 Uiso 0.04 4
C C5 -0.0088(5) -0.1923(4) 0.25872(29) 1.0 Uiso 0.05 4
H H1 0.1383(22) 0.0659(19) 0.4535(5) 1.0 Uiso 0.075 4
H H2 0.1754(15) 0.3024(7) 0.2789(17) 1.0 Uiso 0.06 4
H H4 0.1367(11) 0.3915(7) -0.0387(35) 1.0 Uiso 0.05 4
H H5 -0.0297(8) -0.2898(10) 0.3326(5) 1.0 Uiso 0.06 4
loop_
_atom_type_symbol
_atom_type_number_in_cell
_atom_type_scat_dispersion_real
_atom_type_scat_dispersion_imag
_atom_type_scat_Cromer_Mann_a1
_atom_type_scat_Cromer_Mann_a2
_atom_type_scat_Cromer_Mann_a3
_atom_type_scat_Cromer_Mann_a4
_atom_type_scat_Cromer_Mann_b1
_atom_type_scat_Cromer_Mann_b2
_atom_type_scat_Cromer_Mann_b3
_atom_type_scat_Cromer_Mann_b4
_atom_type_scat_Cromer_Mann_c
_atom_type_scat_source
C 20.0 0.000 0.000 2.31000 20.8439 1.02000 10.2075 1.58860 0.56870 0.86500
51.6512 0.21560 International_Tables_Vol_C
H 16.0 0.000 0.000 0.49300 10.5109 0.32291 26.1257 0.14019 3.14236 0.04081
57.7997 0.00304 International_Tables_Vol_C
loop_
_geom_angle_atom_site_label_1
_geom_angle_atom_site_label_2
_geom_angle_atom_site_label_3
_geom_angle
_geom_angle_site_symmetry_1
_geom_angle_site_symmetry_3
_geom_angle_publ_flag
C2 C1 C5 120.56(24) 1_555 1_555 n
C2 C1 H1 115.6(9) 1_555 1_555 n
C5 C1 H1 123.9(9) 1_555 1_555 n
C1 C2 C3 119.71(23) 1_555 1_555 n
C1 C2 H2 115.7(10) 1_555 1_555 n
C3 C2 H2 124.6(11) 1_555 1_555 n
C2 C3 C3 119.86(29) 1_555 -1_555 n
C2 C3 C4 121.29(17) 1_555 1_555 n
C3 C3 C4 118.84(27) -1_555 1_555 n
C3 C4 C5 120.93(24) 1_555 -1_555 n
C3 C4 H4 122.3(18) 1_555 1_555 n
C5 C4 H4 116.8(19) -1_555 1_555 n
C1 C5 C4 120.08(27) 1_555 -1_555 n
C1 C5 H5 120.1(4) 1_555 1_555 n
C4 C5 H5 119.8(4) -1_555 1_555 n
loop_
_geom_bond_atom_site_label_1
_geom_bond_atom_site_label_2
_geom_bond_distance
_geom_bond_site_symmetry_2
_geom_bond_publ_flag
C1 C2 1.3899(32) 1_555 n
C1 C5 1.4415(28) 1_555 n
C1 H1 0.949(4) 1_555 n
C1 H2 1.994(11) 1_555 n
C1 H5 2.085(5) 1_555 n
C2 C1 1.3899(32) 1_555 n
C2 C3 1.4475(26) 1_555 n
C2 H1 1.993(10) 1_555 n
C2 H2 0.949(4) 1_555 n
C3 C2 1.4475(26) 1_555 n
C3 C3 1.4270(26) -1_555 n
C3 C4 1.4394(30) 1_555 n
C4 C3 1.4394(30) 1_555 n
C4 C5 1.3844(27) -1_555 n
C4 H4 0.950(4) 1_555 n
C4 H5 2.031(5) -1_555 n
C5 C1 1.4415(28) 1_555 n
C5 C4 1.3844(27) -1_555 n
C5 H4 2.001(20) -1_555 n
C5 H5 0.949(4) 1_555 n
H1 C1 0.949(4) 1_555 n
H1 C2 1.993(10) 1_555 n
H2 C1 1.994(11) 1_555 n
H2 C2 0.949(4) 1_555 n
H4 C4 0.950(4) 1_555 n
H4 C5 2.001(20) -1_555 n
H5 C1 2.085(5) 1_555 n
H5 C4 2.031(5) -1_555 n
H5 C5 0.949(4) 1_555 n
loop_
_pd_meas_counts_total
_pd_proc_ls_weight
_pd_proc_intensity_bkg_calc
_pd_calc_intensity_total
0.0 . . .
0.0 . . .
0.0 . . .
0.0 . . .
0.0 . . .
0.0 . . .
0.0 . . .
0.0 . . .
0.0 . . .
0.0 . . .
0.0 . . .
0.0 . . .
0.0 . . .
0.0 . . .
0.0 . . .
0.0 . . .
0.0 . . .
0.0 . . .
0.0 . . .
0.0 . . .
0.0 . . .
0.0 . . .
0.0 . . .
0.0 . . .
0.0 . . .
0.0 . . .
0.0 . . .
0.0 . . .
0.0 . . .
0.0 . . .
0.0 . . .
0.0 . . .
0.0 . . .
0.0 . . .
0.0 . . .
0.0 . . .
0.0 . . .
0.0 . . .
0.0 . . .
0.0 . . .
0.0 . . .
0.0 . . .
0.0 . . .
0.0 . . .
0.0 . . .
0.0 . . .
0.0 . . .
0.0 . . .
0.0 . . .
0.0 . . .
0.0 . . .
0.0 . . .
0.0 . . .
0.0 . . .
0.0 . . .
0.0 . . .
0.0 . . .
0.0 . . .
0.0 . . .
0.0 . . .
0.0 . . .
0.0 . . .
0.0 . . .
0.0 . . .
0.0 . . .
1530.0 . . .
1470.0 . . .
1440.0 . . .
1350.0 . . .
1270.0 . . .
1350.0 . . .
1350.0 . . .
1280.0 . . .
1360.0 . . .
1400.0 . . .
1380.0 . . .
1330.0 . . .
1450.0 . . .
1400.0 . . .
1290.0 . . .
1250.0 . . .
1310.0 . . .
1330.0 . . .
1400.0 . . .
1380.0 . . .
1310.0 . . .
1300.0 . . .
1300.0 . . .
1240.0 . . .
1270.0 . . .
1280.0 . . .
1270.0 . . .
1240.0 . . .
1220.0 . . .
1240.0 . . .
1300.0 . . .
1260.0 . . .
1240.0 . . .
1220.0 . . .
1260.0 . . .
1290.0 . . .
1290.0 . . .
1310.0 . . .
1340.0 . . .
1420.0 . . .
1490.0 . . .
1590.0 . . .
1710.0 . . .
1860.0 . . .
1980.0 . . .
2120.0 . . .
2230.0 . . .
2460.0 . . .
2600.0 . . .
2690.0 . . .
2800.0 . . .
2970.0 . . .
3040.0 . . .
3130.0 . . .
3210.0 . . .
3290.0 . . .
3370.0 . . .
3370.0 . . .
3380.0 . . .
3340.0 . . .
3360.0 . . .
3380.0 . . .
3490.0 . . .
3600.0 . . .
3680.0 . . .
3700.0 . . .
3790.0 . . .
3850.0 . . .
3870.0 . . .
3920.0 . . .
3990.0 . . .
4060.0 . . .
4130.0 . . .
4150.0 . . .
4160.0 . . .
4190.0 . . .
4220.0 . . .
4270.0 . . .
4300.0 . . .
4350.0 . . .
4420.0 . . .
4470.0 . . .
4520.0 . . .
4570.0 . . .
4700.0 . . .
4740.0 . . .
4810.0 . . .
4910.0 . . .
5020.0 . . .
5110.0 . . .
5160.0 . . .
5230.0 . . .
5340.0 . . .
5430.0 . . .
5490.0 . . .
5570.0 . . .
5640.0 . . .
5720.0 . . .
5820.0 . . .
5890.0 . . .
5940.0 . . .
5950.0 . . .
5930.0 . . .
5970.0 . . .
5960.0 . . .
5960.0 . . .
6030.0 . . .
6080.0 . . .
6110.0 . . .
6150.0 . . .
6210.0 . . .
6240.0 . . .
6240.0 . . .
6240.0 . . .
6270.0 . . .
6310.0 . . .
6280.0 . . .
6270.0 . . .
6330.0 . . .
6330.0 . . .
6300.0 . . .
6350.0 . . .
6360.0 . . .
6340.0 0.0001577 6366.89697 6366.89697
6360.0 0.0001572 6353.22461 6353.22461
6380.0 0.0001567 6350.19238 6350.19238
6400.0 0.0001562 6354.70703 6354.70703
6390.0 0.0001565 6364.23633 6372.29248
6380.0 0.0001567 6376.72510 6386.41016
6370.0 0.0001570 6390.53223 6402.38965
6400.0 0.0001562 6404.37305 6419.25537
6410.0 0.0001560 6417.26514 6436.91357
6420.0 0.0001558 6428.47607 6458.50928
6480.0 0.0001543 6437.48779 6499.75146
6600.0 0.0001515 6443.95898 6609.79443
6840.0 0.0001462 6447.69678 6881.64111
7350.0 0.0001361 6448.62109 7380.73828
8030.0 0.0001245 6446.74951 7975.25244
8370.0 0.0001195 6442.16797 8288.59863
8070.0 0.0001239 6435.02344 8035.79736
7480.0 0.0001337 6425.50146 7430.53516
6990.0 0.0001431 6413.81738 6886.39844
6650.0 0.0001504 6400.19873 6578.02051
6440.0 0.0001553 6384.88818 6449.48779
6350.0 0.0001575 6368.13135 6398.73242
6330.0 0.0001580 6350.15967 6370.19971
6360.0 0.0001572 6331.20508 6346.39990
6330.0 0.0001580 6311.48242 6323.57520
6250.0 0.0001600 6291.19775 6301.05957
6230.0 0.0001605 6270.53125 6270.53125
6220.0 0.0001608 6249.65479 6249.65479
6170.0 0.0001621 6228.71484 6228.71484
6210.0 0.0001610 6207.84277 6207.84277
6230.0 0.0001605 6187.15137 6187.15137
6200.0 0.0001613 6166.73535 6166.73535
6180.0 0.0001618 6146.66943 6146.66943
6170.0 0.0001621 6127.01953 6127.01953
6120.0 0.0001634 6107.82813 6107.82813
6080.0 0.0001645 6089.12695 6089.12695
6050.0 0.0001653 6070.93994 6070.93994
6030.0 0.0001658 6053.27148 6053.27148
5970.0 0.0001675 6036.12256 6036.12256
5980.0 0.0001672 6019.48535 6019.48535
6050.0 0.0001653 6003.33789 6003.33789
6050.0 0.0001653 5987.65869 5987.65869
5990.0 0.0001669 5972.41943 5972.41943
5950.0 0.0001681 5957.58691 5957.58691
5930.0 0.0001686 5943.12256 5943.12256
5910.0 0.0001692 5928.99170 5928.99170
5900.0 0.0001695 5915.15430 5915.15430
5880.0 0.0001701 5901.57080 5901.57080
5870.0 0.0001704 5888.20068 5888.20068
5870.0 0.0001704 5875.00732 5875.00732
5870.0 0.0001704 5861.94727 5861.94727
5850.0 0.0001709 5848.99023 5848.99023
5840.0 0.0001712 5836.10352 5836.10352
5840.0 0.0001712 5823.25195 5823.25195
5840.0 0.0001712 5810.40479 5810.40479
5840.0 0.0001712 5797.54199 5797.54199
5840.0 0.0001712 5784.63770 5784.63770
5830.0 0.0001715 5771.67236 5771.67236
5780.0 0.0001730 5758.62598 5758.62598
5720.0 0.0001748 5745.48828 5745.48828
5680.0 0.0001761 5732.24707 5732.24707
5700.0 0.0001754 5718.89258 5718.89258
5700.0 0.0001754 5705.42334 5705.42334
5710.0 0.0001751 5691.83350 5691.83350
5710.0 0.0001751 5678.12402 5678.12402
5700.0 0.0001754 5664.29639 5664.29639
5640.0 0.0001773 5650.35547 5650.35547
5610.0 0.0001783 5636.30713 5636.30713
5570.0 0.0001795 5622.16260 5622.16260
5560.0 0.0001799 5607.92529 5607.92529
5560.0 0.0001799 5593.61230 5593.61230
5540.0 0.0001805 5579.23242 5579.23242
5540.0 0.0001805 5564.79883 5564.79883
5550.0 0.0001802 5550.33203 5550.33203
5550.0 0.0001802 5535.83496 5535.83496
5540.0 0.0001805 5521.33203 5521.33203
5530.0 0.0001808 5506.83496 5506.83496
5490.0 0.0001821 5492.36279 5492.36279
5470.0 0.0001828 5477.92480 5477.92480
5450.0 0.0001835 5463.54102 5463.54102
5460.0 0.0001832 5449.22510 5449.22510
5450.0 0.0001835 5434.99072 5434.99072
5420.0 0.0001845 5420.85449 5420.85449
5420.0 0.0001845 5406.82422 5406.82422
5380.0 0.0001859 5392.92090 5392.92090
5360.0 0.0001866 5379.14844 5379.14844
5360.0 0.0001866 5365.52344 5365.52344
5350.0 0.0001869 5352.05225 5352.05225
5330.0 0.0001876 5338.74805 5338.74805
5330.0 0.0001876 5325.61572 5325.61572
5300.0 0.0001887 5312.66357 5312.66357
5290.0 0.0001890 5299.90039 5299.90039
5290.0 0.0001890 5287.32959 5287.32959
5310.0 0.0001883 5274.95508 5274.95508
5310.0 0.0001883 5262.78271 5262.78271
5310.0 0.0001883 5250.81152 5250.81152
5280.0 0.0001894 5239.04639 5239.04639
5220.0 0.0001916 5227.48779 5227.48779
5200.0 0.0001923 5216.13574 5216.13574
5190.0 0.0001927 5204.99072 5204.99072
5180.0 0.0001931 5194.04883 5194.04883
5170.0 0.0001934 5183.30859 5183.30859
5180.0 0.0001931 5172.76514 5172.76514
5200.0 0.0001923 5162.42090 5162.42090
5180.0 0.0001931 5152.26758 5152.26758
5140.0 0.0001946 5142.30225 5142.30225
5120.0 0.0001953 5132.52002 5132.52002
5110.0 0.0001957 5122.91553 5122.91553
5120.0 0.0001953 5113.48340 5113.48340
5090.0 0.0001965 5104.21680 5104.21680
5100.0 0.0001961 5095.11182 5095.11182
5090.0 0.0001965 5086.15869 5086.15869
5050.0 0.0001980 5077.35449 5077.35449
5050.0 0.0001980 5068.69482 5068.69482
5050.0 0.0001980 5060.16748 5060.16748
5030.0 0.0001988 5051.77197 5051.77197
5050.0 0.0001980 5043.49561 5043.49561
5060.0 0.0001976 5035.33691 5035.33691
5020.0 0.0001992 5027.29004 5027.29004
5010.0 0.0001996 5019.34521 5019.34521
5010.0 0.0001996 5011.50293 5011.50293
5020.0 0.0001992 5003.75098 5015.00488
4990.0 0.0002004 4996.08838 5009.65039
4950.0 0.0002020 4988.50732 5005.94727
4940.0 0.0002024 4981.00732 5002.93945
4970.0 0.0002012 4973.57764 5002.60400
4980.0 0.0002008 4966.21924 5010.15430
5030.0 0.0001988 4958.92627 5044.62354
5190.0 0.0001927 4951.69678 5155.95850
5500.0 0.0001818 4944.52490 5453.18506
6030.0 0.0001658 4937.41064 5905.23096
6560.0 0.0001524 4930.35059 6389.85107
6680.0 0.0001497 4923.34082 6584.17334
6330.0 0.0001580 4916.38135 6327.61426
5840.0 0.0001712 4909.47070 5866.95703
5490.0 0.0001821 4902.60693 5512.33398
5440.0 0.0001838 4895.78955 5456.33545
5800.0 0.0001724 4889.01660 5855.60303
6810.0 0.0001468 4882.29004 6853.69824
8370.0 0.0001195 4875.60742 8307.80078
9490.0 0.0001054 4868.97119 9479.18457
9240.0 0.0001082 4862.38086 9399.03711
7980.0 0.0001253 4855.83398 8123.19922
6620.0 0.0001511 4849.33740 6642.03516
5730.0 0.0001745 4842.88867 5643.61182
5260.0 0.0001901 4836.49170 5165.49756
5020.0 0.0001992 4830.14307 4986.20752
4930.0 0.0002028 4823.84814 4920.58252
4890.0 0.0002045 4817.60547 4888.76465
4830.0 0.0002070 4811.42090 4867.36670
4760.0 0.0002101 4805.29346 4850.59521
4780.0 0.0002092 4799.22607 4836.64502
4790.0 0.0002088 4793.22119 4793.22119
4780.0 0.0002092 4787.27734 4787.27734
4760.0 0.0002101 4781.40039 4781.40039
4770.0 0.0002096 4775.59424 4775.59424
4770.0 0.0002096 4769.85498 4769.85498
4760.0 0.0002101 4764.18994 4764.18994
4760.0 0.0002101 4758.59570 4758.59570
4740.0 0.0002110 4753.08154 4753.08154
4740.0 0.0002110 4747.64209 4747.64209
4750.0 0.0002105 4742.28418 4742.28418
4750.0 0.0002105 4737.00830 4737.00830
4710.0 0.0002123 4731.81299 4751.51465
4700.0 0.0002128 4726.70654 4750.37354
4700.0 0.0002128 4721.68311 4750.62939
4730.0 0.0002114 4716.74756 4753.02295
4760.0 0.0002101 4711.89990 4759.52295
4800.0 0.0002083 4707.14404 4777.47119
4880.0 0.0002049 4702.47754 4833.03613
5050.0 0.0001980 4697.90479 4994.98975
5460.0 0.0001832 4693.42139 5373.41650
6180.0 0.0001618 4689.03125 6020.40527
6960.0 0.0001437 4684.73633 6750.52539
7260.0 0.0001377 4680.53271 7097.50732
6780.0 0.0001475 4676.42334 6741.64551
5980.0 0.0001672 4672.40967 6000.34277
5370.0 0.0001862 4668.48730 5344.35596
5030.0 0.0001988 4664.65820 4958.72461
4830.0 0.0002070 4660.92090 4789.95752
4730.0 0.0002114 4657.27637 4727.02490
4670.0 0.0002141 4653.72363 4701.14160
4630.0 0.0002160 4650.26025 4686.44336
4610.0 0.0002169 4646.88672 4675.77637
4600.0 0.0002174 4643.60303 4667.22998
4610.0 0.0002169 4640.40283 4640.40283
4600.0 0.0002174 4637.29346 4637.29346
4580.0 0.0002183 4634.26563 4634.26563
4590.0 0.0002179 4631.32178 4631.32178
4620.0 0.0002165 4628.45703 4628.45703
4630.0 0.0002160 4625.67285 4625.67285
4590.0 0.0002179 4622.96875 4622.96875
4580.0 0.0002183 4620.34082 4620.34082
4600.0 0.0002174 4617.78564 4617.78564
4590.0 0.0002179 4615.30566 4615.30566
4580.0 0.0002183 4612.89063 4612.89063
4580.0 0.0002183 4610.54883 4610.54883
4570.0 0.0002188 4608.27148 4608.27148
4570.0 0.0002188 4606.05566 4606.05566
4590.0 0.0002179 4603.90625 4603.90625
4620.0 0.0002165 4601.81445 4601.81445
4600.0 0.0002174 4599.78223 4599.78223
4570.0 0.0002188 4597.80518 4597.80518
4550.0 0.0002198 4595.88086 4599.37402
4550.0 0.0002198 4594.00928 4598.18945
4550.0 0.0002198 4592.18457 4597.27295
4590.0 0.0002179 4590.41113 4596.74756
4600.0 0.0002174 4588.68213 4596.90234
4600.0 0.0002174 4586.99512 4598.77002
4600.0 0.0002174 4585.34961 4606.97070
4640.0 0.0002155 4583.74316 4629.22656
4690.0 0.0002132 4582.17529 4682.65039
4800.0 0.0002083 4580.64404 4778.10840
4940.0 0.0002024 4579.14697 4895.56104
5030.0 0.0001988 4577.68115 4970.12305
4990.0 0.0002004 4576.24707 4938.80127
4870.0 0.0002053 4574.84033 4833.19238
4760.0 0.0002101 4573.46484 4734.23438
4720.0 0.0002119 4572.11328 4686.79639
4730.0 0.0002114 4570.78809 4685.49707
4730.0 0.0002114 4569.48730 4697.88428
4710.0 0.0002123 4568.20703 4689.57568
4680.0 0.0002137 4566.95166 4656.65527
4640.0 0.0002155 4565.71582 4623.72461
4610.0 0.0002169 4564.49854 4597.64111
4600.0 0.0002174 4563.30078 4580.13965
4590.0 0.0002179 4562.12305 4574.85645
4580.0 0.0002183 4560.96240 4573.02148
4560.0 0.0002193 4559.81592 4572.58936
4550.0 0.0002198 4558.68896 4572.99170
4570.0 0.0002188 4557.57813 4574.35498
4560.0 0.0002193 4556.48389 4577.60352
4560.0 0.0002193 4555.40576 4585.57373
4590.0 0.0002179 4554.34180 4604.59863
4620.0 0.0002165 4553.29346 4652.15967
4690.0 0.0002132 4552.26025 4716.75537
4790.0 0.0002088 4551.24316 4800.36426
4900.0 0.0002041 4550.24268 4895.18408
5030.0 0.0001988 4549.25781 5025.34619
5220.0 0.0001916 4548.29443 5239.46289
5520.0 0.0001812 4547.34131 5507.76611
5740.0 0.0001742 4546.40674 5663.66455
5660.0 0.0001767 4545.49219 5547.25684
5350.0 0.0001869 4544.59619 5246.60449
5010.0 0.0001996 4543.71631 4956.10791
4780.0 0.0002092 4542.85840 4775.15479
4670.0 0.0002141 4542.02100 4708.57617
4660.0 0.0002146 4541.20557 4742.45264
4800.0 0.0002083 4540.41260 4907.60107
5120.0 0.0001953 4539.64160 5273.41797
5660.0 0.0001767 4538.89600 5850.80420
6290.0 0.0001590 4538.17383 6460.08691
6610.0 0.0001513 4537.47998 6717.99951
6320.0 0.0001582 4536.81104 6398.93359
5760.0 0.0001736 4536.17090 5785.37939
5250.0 0.0001905 4535.55908 5242.50342
4940.0 0.0002024 4534.97900 4909.27930
4770.0 0.0002096 4534.42969 4742.04150
4660.0 0.0002146 4533.91260 4659.74512
4610.0 0.0002169 4533.42822 4610.79102
4590.0 0.0002179 4532.97900 4585.13135
4560.0 0.0002193 4532.56592 4570.30469
4550.0 0.0002198 4532.18848 4561.51221
4560.0 0.0002193 4531.84961 4555.77246
4580.0 0.0002183 4531.54785 4551.60742
4570.0 0.0002188 4531.28906 4548.39063
4570.0 0.0002188 4531.06982 4545.82861
4570.0 0.0002188 4530.89307 4543.80273
4560.0 0.0002193 4530.75732 4542.12158
4560.0 0.0002193 4530.66699 4540.75098
4550.0 0.0002198 4530.62061 4531.13037
4560.0 0.0002193 4530.62207 4531.08252
4550.0 0.0002198 4530.66699 4531.09082
4540.0 0.0002203 4530.76025 4531.22754
4550.0 0.0002198 4530.90332 4531.36182
4540.0 0.0002203 4531.09375 4531.31006
4540.0 0.0002203 4531.33203 4531.58691
4570.0 0.0002188 4531.62256 4531.92773
4580.0 0.0002183 4531.96240 4532.33789
4570.0 0.0002188 4532.35547 4532.84521
4560.0 0.0002193 4532.79590 4533.52051
4550.0 0.0002198 4533.29346 4534.57227
4550.0 0.0002198 4533.84033 4536.35059
4580.0 0.0002183 4534.43994 4539.19336
4600.0 0.0002174 4535.09229 4542.92676
4590.0 0.0002179 4535.79834 4546.43994
4560.0 0.0002193 4536.55664 4548.13867
4550.0 0.0002198 4537.36768 4548.17041
4550.0 0.0002198 4538.23340 4548.78711
4550.0 0.0002198 4539.15088 4551.44775
4550.0 0.0002198 4540.11963 4559.66064
4540.0 0.0002203 4541.14355 4562.27393
4530.0 0.0002208 4542.21826 4561.38477
4510.0 0.0002217 4543.34473 4559.93896
4540.0 0.0002203 4544.52246 4558.06104
4550.0 0.0002198 4545.75146 4557.92041
4540.0 0.0002203 4547.02783 4559.41016
4520.0 0.0002212 4548.35693 4562.05518
4520.0 0.0002212 4549.73291 4565.55273
4530.0 0.0002208 4551.15771 4569.90479
4540.0 0.0002203 4552.62744 4575.37549
4580.0 0.0002183 4554.14600 4582.69971
4580.0 0.0002183 4555.70947 4594.13770
4590.0 0.0002179 4557.31836 4616.82129
4640.0 0.0002155 4558.96680 4669.11475
4750.0 0.0002105 4560.66016 4784.62988
4940.0 0.0002024 4562.39160 4997.25781
5240.0 0.0001908 4564.16357 5299.51953
5580.0 0.0001792 4565.97412 5597.37256
5770.0 0.0001733 4567.82227 5723.53027
5670.0 0.0001764 4569.70410 5610.62158
5400.0 0.0001852 4571.62012 5367.14893
5110.0 0.0001957 4573.57129 5102.48633
4900.0 0.0002041 4575.54980 4886.91602
4780.0 0.0002092 4577.55908 4746.81885
4690.0 0.0002132 4579.59717 4670.16113
4640.0 0.0002155 4581.66113 4633.73389
4630.0 0.0002160 4583.74756 4618.01953
4610.0 0.0002169 4585.85840 4611.31250
4610.0 0.0002169 4587.99023 4608.24756
4610.0 0.0002169 4590.14160 4606.81885
4610.0 0.0002169 4592.31055 4606.31006
4620.0 0.0002165 4594.49512 4606.41602
4620.0 0.0002165 4596.69336 4606.96533
4600.0 0.0002174 4598.90527 4607.84717
4610.0 0.0002169 4601.12891 4608.98291
4600.0 0.0002174 4603.35840 4610.31104
4620.0 0.0002165 4605.59619 4607.19678
4640.0 0.0002155 4607.83984 4609.25928
4640.0 0.0002155 4610.08740 4611.35498
4630.0 0.0002160 4612.33545 4612.33545
4610.0 0.0002169 4614.58643 4614.58643
4630.0 0.0002160 4616.83398 4616.95508
4630.0 0.0002160 4619.07666 4620.53760
4640.0 0.0002155 4621.31738 4622.94775
4630.0 0.0002160 4623.55176 4625.38184
4640.0 0.0002155 4625.77686 4627.84668
4650.0 0.0002151 4627.99365 4631.09131
4670.0 0.0002141 4630.19824 4633.73242
4640.0 0.0002155 4632.39209 4636.46045
4620.0 0.0002165 4634.56982 4639.30420
4630.0 0.0002160 4636.73340 4642.31299
4650.0 0.0002151 4638.88232 4645.56104
4670.0 0.0002141 4641.01074 4649.18896
4680.0 0.0002137 4643.12158 4653.57129
4650.0 0.0002151 4645.21143 4659.80811
4640.0 0.0002155 4647.28125 4670.87012
4650.0 0.0002151 4649.32813 4692.99951
4650.0 0.0002151 4651.35303 4735.07373
4680.0 0.0002137 4653.35205 4802.47607
4800.0 0.0002083 4655.32666 4886.35938
4910.0 0.0002037 4657.27637 4957.16797
4970.0 0.0002012 4659.20117 4978.67969
4970.0 0.0002012 4661.09521 4952.27100
4950.0 0.0002020 4662.96436 4915.52344
4920.0 0.0002033 4664.80371 4886.48047
4880.0 0.0002049 4666.61621 4852.90625
4850.0 0.0002062 4668.39893 4806.37842
4790.0 0.0002088 4670.15381 4759.10449
4740.0 0.0002110 4671.87988 4723.14355
4700.0 0.0002128 4673.57568 4701.74023
4690.0 0.0002132 4675.24072 4691.62354
4670.0 0.0002141 4676.87842 4687.77100
4680.0 0.0002137 4678.48682 4686.67920
4690.0 0.0002132 4680.06787 4686.67090
4690.0 0.0002132 4681.61768 4687.12012
4700.0 0.0002128 4683.13965 4687.81250
4700.0 0.0002128 4684.63330 4688.65674
4700.0 0.0002128 4686.10059 4689.60693
4690.0 0.0002132 4687.54199 4690.51270
4700.0 0.0002128 4688.95654 4690.24707
4690.0 0.0002132 4690.34521 4691.50439
4710.0 0.0002123 4691.70752 4692.77490
4720.0 0.0002119 4693.04736 4694.07813
4700.0 0.0002128 4694.36328 4694.70557
4690.0 0.0002132 4695.65918 4696.33057
4710.0 0.0002123 4696.93066 4698.31201
4720.0 0.0002119 4698.18555 4700.38623
4720.0 0.0002119 4699.41797 4702.41602
4720.0 0.0002119 4700.63281 4704.74902
4700.0 0.0002128 4701.83252 4705.64600
4700.0 0.0002128 4703.01514 4706.15283
4700.0 0.0002128 4704.18604 4706.71289
4710.0 0.0002123 4705.34131 4707.53369
4700.0 0.0002128 4706.48633 4708.63574
4700.0 0.0002128 4707.62207 4709.94922
4720.0 0.0002119 4708.74854 4711.42090
4750.0 0.0002105 4709.86768 4713.06396
4750.0 0.0002105 4710.98047 4714.99902
4730.0 0.0002114 4712.08838 4717.55664
4720.0 0.0002119 4713.19189 4721.42334
4730.0 0.0002114 4714.29834 4727.76025
4740.0 0.0002110 4715.39990 4738.16602
4750.0 0.0002105 4716.50732 4754.53662
4790.0 0.0002088 4717.61523 4778.26660
4830.0 0.0002070 4718.72754 4808.86572
4830.0 0.0002070 4719.84717 4842.86475
4850.0 0.0002062 4720.97217 4869.26563
4870.0 0.0002053 4722.10693 4870.26807
4840.0 0.0002066 4723.25391 4842.70264
4800.0 0.0002083 4724.41162 4804.53320
4760.0 0.0002101 4725.58252 4772.64648
4740.0 0.0002110 4726.76855 4752.01172
4740.0 0.0002110 4727.96973 4741.73633
4740.0 0.0002110 4729.18896 4737.73047
4730.0 0.0002114 4730.42529 4736.67725
4710.0 0.0002123 4731.68457 4736.83691
4710.0 0.0002123 4732.96191 4737.51514
4720.0 0.0002119 4734.25928 4741.10254
4720.0 0.0002119 4735.58496 4742.61035
4720.0 0.0002119 4736.93213 4744.39941
4730.0 0.0002114 4738.30615 4746.60254
4750.0 0.0002105 4739.70508 4749.38330
4750.0 0.0002105 4741.13086 4753.38086
4760.0 0.0002101 4742.58496 4760.56152
4770.0 0.0002096 4744.06934 4772.94482
4770.0 0.0002096 4745.58105 4791.91455
4790.0 0.0002088 4747.12354 4818.28516
4830.0 0.0002070 4748.69775 4844.69434
4860.0 0.0002058 4750.30273 4859.71338
4860.0 0.0002058 4751.93750 4858.21289
4840.0 0.0002066 4753.60498 4853.21484
4810.0 0.0002079 4755.30615 4865.66650
4850.0 0.0002062 4757.03857 4912.79785
4930.0 0.0002028 4758.80322 4999.30859
5050.0 0.0001980 4760.60156 5107.04443
5180.0 0.0001931 4762.43213 5189.85547
5230.0 0.0001912 4764.29443 5194.07031
5200.0 0.0001923 4766.19141 5118.02100
5110.0 0.0001957 4768.11816 5013.96240
5000.0 0.0002000 4770.07861 4926.01270
4900.0 0.0002041 4772.06738 4870.00928
4850.0 0.0002062 4774.08984 4841.15527
4830.0 0.0002070 4776.14355 4826.28662
4820.0 0.0002075 4778.22705 4815.80078
4820.0 0.0002075 4780.34082 4807.33008
4810.0 0.0002079 4782.47949 4801.28906
4800.0 0.0002083 4784.64795 4797.27539
4810.0 0.0002079 4786.84473 4796.07227
4820.0 0.0002075 4789.06641 4796.27295
4810.0 0.0002079 4791.31543 4797.46826
4790.0 0.0002088 4793.58594 4798.89063
4780.0 0.0002092 4795.87988 4800.55127
4790.0 0.0002088 4798.19580 4802.37598
4810.0 0.0002079 4800.53418 4803.86963
4810.0 0.0002079 4802.89014 4803.76807
4790.0 0.0002088 4805.26563 4806.18164
4800.0 0.0002083 4807.65625 4808.65820
4810.0 0.0002079 4810.06543 4811.46875
4790.0 0.0002088 4812.48584 4814.25684
4810.0 0.0002079 4814.92090 4817.35400
4830.0 0.0002070 4817.36621 4820.78516
4840.0 0.0002066 4819.81885 4825.06104
4850.0 0.0002062 4822.28467 4830.54443
4840.0 0.0002066 4824.75537 4836.86914
4850.0 0.0002062 4827.23047 4844.48535
4860.0 0.0002058 4829.70947 4853.32324
4850.0 0.0002062 4832.18799 4862.07031
4840.0 0.0002066 4834.67139 4867.36816
4860.0 0.0002058 4837.15186 4867.08984
4870.0 0.0002053 4839.63037 4863.49170
4890.0 0.0002045 4842.10205 4860.63477
4900.0 0.0002041 4844.56982 4861.46338
4890.0 0.0002045 4847.02832 4867.35156
4890.0 0.0002045 4849.47900 4877.97217
4900.0 0.0002041 4851.91895 4891.04248
4920.0 0.0002033 4854.34570 4902.31055
4920.0 0.0002033 4856.75879 4907.77148
4910.0 0.0002037 4859.15723 4908.90283
4920.0 0.0002033 4861.53809 4910.83398
4940.0 0.0002024 4863.90039 4915.69092
4930.0 0.0002028 4866.24463 4920.67090
4920.0 0.0002033 4868.56592 4920.91064
4910.0 0.0002037 4870.86670 4916.17041
4910.0 0.0002037 4873.14404 4909.90771
4900.0 0.0002041 4875.39502 4904.02783
4900.0 0.0002041 4877.62012 4898.46191
4920.0 0.0002033 4879.81836 4894.07861
4900.0 0.0002041 4881.98779 4891.20898
4870.0 0.0002053 4884.12695 4889.92480
4860.0 0.0002058 4886.23828 4889.95703
4870.0 0.0002053 4888.31787 4890.87695
4860.0 0.0002058 4890.36377 4892.28809
4880.0 0.0002049 4892.37793 4893.99072
4890.0 0.0002045 4894.35742 4895.72754
4900.0 0.0002041 4896.30127 4897.21533
4890.0 0.0002045 4898.21240 4899.08301
4890.0 0.0002045 4900.08643 4900.88184
4890.0 0.0002045 4901.92480 4902.66650
4890.0 0.0002045 4903.72656 4904.43408
4890.0 0.0002045 4905.49219 4905.89014
4890.0 0.0002045 4907.21924 4907.64551
4880.0 0.0002049 4908.90674 4909.37646
4870.0 0.0002053 4910.56152 4911.00195
4900.0 0.0002041 4912.17676 4912.73779
4900.0 0.0002041 4913.75244 4914.52441
4920.0 0.0002033 4915.29053 4916.47705
4940.0 0.0002024 4916.79346 4918.79590
4940.0 0.0002024 4918.25732 4921.73975
4960.0 0.0002016 4919.68311 4925.51416
4970.0 0.0002012 4921.07227 4930.04053
4960.0 0.0002016 4922.42432 4934.70850
4940.0 0.0002024 4923.74219 4938.38525
4950.0 0.0002020 4925.02295 4940.24268
4950.0 0.0002020 4926.26855 4940.18408
4960.0 0.0002016 4927.47998 4938.56299
4930.0 0.0002028 4928.65674 4936.40234
4910.0 0.0002037 4929.79932 4934.67676
4900.0 0.0002041 4930.91162 4933.77588
4890.0 0.0002045 4931.99268 4933.64697
4920.0 0.0002033 4933.04102 4934.04980
4930.0 0.0002028 4934.05957 4934.74268
4920.0 0.0002033 4935.04932 4935.56104
4940.0 0.0002024 4936.00928 4936.41846
4960.0 0.0002016 4936.94580 4937.28516
4950.0 0.0002020 4937.85107 4938.13818
4950.0 0.0002020 4938.73633 4938.98193
4940.0 0.0002024 4939.59521 4939.80811
4920.0 0.0002033 4940.43213 4940.61865
4940.0 0.0002024 4941.24609 4941.41064
4960.0 0.0002016 4942.04053 4943.28809
4980.0 0.0002008 4942.81396 4944.18750
4970.0 0.0002012 4943.57129 4945.31299
4950.0 0.0002020 4944.31055 4946.27490
4950.0 0.0002020 4945.03613 4947.26758
4950.0 0.0002020 4945.74365 4948.30078
4950.0 0.0002020 4946.43848 4949.39648
4960.0 0.0002016 4947.12207 4951.03662
4960.0 0.0002016 4947.79346 4952.40674
4980.0 0.0002008 4948.45654 4954.00879
4980.0 0.0002008 4949.10938 4956.05322
4950.0 0.0002020 4949.75635 4959.10352
4930.0 0.0002028 4950.39502 4964.29346
4930.0 0.0002028 4951.02979 4973.84961
4930.0 0.0002028 4951.65771 4990.78174
4970.0 0.0002012 4952.28516 5017.59619
5000.0 0.0002000 4952.91016 5053.56152
5040.0 0.0001984 4953.53369 5092.26270
5090.0 0.0001965 4954.15527 5120.29590
5110.0 0.0001957 4954.77930 5124.79346
5100.0 0.0001961 4955.40576 5107.94092
5090.0 0.0001965 4956.03174 5081.83887
5080.0 0.0001969 4956.66309 5056.99512
5050.0 0.0001980 4957.29883 5040.79688
5050.0 0.0001980 4957.93750 5034.95703
5030.0 0.0001988 4958.58203 5034.87158
5020.0 0.0001992 4959.23389 5033.19922
5000.0 0.0002000 4959.89111 5024.11182
5000.0 0.0002000 4960.55615 5010.90820
5010.0 0.0001996 4961.22803 4998.14746
5020.0 0.0001992 4961.90625 4988.67383
5020.0 0.0001992 4962.59570 4982.75000
5020.0 0.0001992 4963.29199 4979.84082
5030.0 0.0001988 4963.99854 4978.48047
5020.0 0.0001992 4964.71191 4977.47070
5010.0 0.0001996 4965.43457 4977.24463
5000.0 0.0002000 4966.16846 4976.92236
4990.0 0.0002004 4966.90723 4976.47949
4990.0 0.0002004 4967.65869 4978.89600
5000.0 0.0002000 4968.41699 4983.58301
4970.0 0.0002012 4969.18652 4992.43066
4990.0 0.0002004 4969.96045 5006.10400
5000.0 0.0002000 4970.74414 5024.56787
5020.0 0.0001992 4971.53760 5044.37012
5050.0 0.0001980 4972.33740 5059.11523
5080.0 0.0001969 4973.14111 5063.56104
5070.0 0.0001972 4973.95410 5058.13818
5080.0 0.0001969 4974.77246 5049.68750
5090.0 0.0001965 4975.59473 5043.31396
5080.0 0.0001969 4976.41943 5040.54199
5070.0 0.0001972 4977.25195 5042.27930
5070.0 0.0001972 4978.08350 5050.55322
5070.0 0.0001972 4978.92090 5061.54590
5070.0 0.0001972 4979.75830 5070.37793
5080.0 0.0001969 4980.59229 5070.19482
5080.0 0.0001969 4981.42822 5060.19824
5070.0 0.0001972 4982.26172 5046.34717
5070.0 0.0001972 4983.09424 5035.72461
5060.0 0.0001976 4983.92090 5031.03564
5050.0 0.0001980 4984.74219 5031.38330
5050.0 0.0001980 4985.55957 5032.55176
5070.0 0.0001972 4986.37012 5031.13232
5050.0 0.0001980 4987.16895 5027.33301
5020.0 0.0001992 4987.96143 5023.76123
5000.0 0.0002000 4988.74219 5025.52881
4980.0 0.0002008 4989.51172 5035.22656
4960.0 0.0002016 4990.26709 5055.13770
4980.0 0.0002008 4991.00879 5084.72314
5020.0 0.0001992 4991.73535 5120.57422
5070.0 0.0001972 4992.44678 5154.13184
5130.0 0.0001949 4993.13623 5175.45215
5180.0 0.0001931 4993.80762 5181.48682
5200.0 0.0001923 4994.46094 5175.64404
5170.0 0.0001934 4995.09082 5161.14893
5140.0 0.0001946 4995.69775 5138.13672
5150.0 0.0001942 4996.28223 5110.36572
5110.0 0.0001957 4996.83984 5085.15674
5080.0 0.0001969 4997.37451 5065.10059
5080.0 0.0001969 4997.87939 5049.49023
5050.0 0.0001980 4998.35840 5037.50586
5020.0 0.0001992 4998.80469 5030.04980
5020.0 0.0001992 4999.22266 5027.08691
5030.0 0.0001988 4999.60742 5028.27344
5010.0 0.0001996 4999.96240 5031.95752
5020.0 0.0001992 5000.28076 5036.00537
5050.0 0.0001980 5000.56787 5037.38135
5090.0 0.0001965 5000.82129 5034.63867
5080.0 0.0001969 5001.03564 5028.60449
5070.0 0.0001972 5001.21680 5021.63184
5030.0 0.0001988 5001.35840 5016.61182
5000.0 0.0002000 5001.46338 5013.32422
4980.0 0.0002008 5001.52930 5011.35986
4980.0 0.0002008 5001.55713 5010.59131
4990.0 0.0002004 5001.54541 5011.68652
4980.0 0.0002008 5001.49561 5014.38477
4970.0 0.0002012 5001.40479 5019.81982
4970.0 0.0002012 5001.27148 5029.79102
5020.0 0.0001992 5001.10107 5047.18994
5040.0 0.0001984 5000.88623 5073.43359
5080.0 0.0001969 5000.63428 5107.59180
5110.0 0.0001957 5000.33887 5143.33252
5130.0 0.0001949 5000.00488 5169.83057
5150.0 0.0001942 4999.62695 5174.20215
5150.0 0.0001942 4999.21191 5154.45068
5130.0 0.0001949 4998.75391 5123.40820
5130.0 0.0001949 4998.25537 5094.96777
5100.0 0.0001961 4997.71826 5076.39355
5080.0 0.0001969 4997.13965 5068.45264
5060.0 0.0001976 4996.52344 5067.00830
5060.0 0.0001976 4995.86670 5065.72412
5040.0 0.0001984 4995.17236 5060.21484
5070.0 0.0001972 4994.44043 5050.58838
5070.0 0.0001972 4993.67139 5038.89355
5060.0 0.0001976 4992.86670 5026.98828
5060.0 0.0001976 4992.02490 5016.57813
5050.0 0.0001980 4991.14893 5008.58008
5030.0 0.0001988 4990.23828 5002.98486
5030.0 0.0001988 4989.29639 4999.52734
5020.0 0.0001992 4988.32031 4997.43555
5020.0 0.0001992 4987.31299 4996.70557
5020.0 0.0001992 4986.27441 4997.65723
5020.0 0.0001992 4985.20703 5000.82520
5020.0 0.0001992 4984.11279 5007.04541
5020.0 0.0001992 4982.98975 5016.37744
5010.0 0.0001996 4981.84033 5027.82422
5020.0 0.0001992 4980.66699 5038.47900
5050.0 0.0001980 4979.46924 5043.79639
5050.0 0.0001980 4978.25049 5040.63184
5050.0 0.0001980 4977.00586 5030.50732
5030.0 0.0001988 4975.74463 5016.55322
5000.0 0.0002000 4974.46338 5003.60986
5000.0 0.0002000 4973.16504 4993.03369
4990.0 0.0002004 4971.85010 4985.53076
4980.0 0.0002008 4970.52002 4980.81250
4970.0 0.0002012 4969.17578 4978.14502
4950.0 0.0002020 4967.81982 4976.87061
4950.0 0.0002020 4966.45020 4976.08105
4950.0 0.0002020 4965.07178 4975.67871
4940.0 0.0002024 4963.68555 4975.18652
4960.0 0.0002016 4962.29150 4975.01123
4960.0 0.0002016 4960.89160 4976.26172
4960.0 0.0002016 4959.48438 4979.71582
4970.0 0.0002012 4958.07471 4985.60400
4990.0 0.0002004 4956.66260 4993.09961
5020.0 0.0001992 4955.24854 5000.12646
5030.0 0.0001988 4953.83447 5003.86133
5020.0 0.0001992 4952.41846 5003.00488
5020.0 0.0001992 4951.00732 4998.61084
5020.0 0.0001992 4949.59814 4992.08203
5010.0 0.0001996 4948.19385 4984.14893
4980.0 0.0002008 4946.79199 4975.55957
4970.0 0.0002012 4945.39746 4967.17578
4960.0 0.0002016 4944.01074 4959.85400
4950.0 0.0002020 4942.62939 4953.66846
4940.0 0.0002024 4941.25732 4949.06250
4930.0 0.0002028 4939.89502 4945.49561
4910.0 0.0002037 4938.54248 4942.68311
4920.0 0.0002033 4937.20117 4940.46875
4920.0 0.0002033 4935.86914 4938.65137
4930.0 0.0002028 4934.55078 4937.14063
4930.0 0.0002028 4933.24316 4935.88086
4940.0 0.0002024 4931.95215 4934.83105
4930.0 0.0002028 4930.67139 4934.05762
4930.0 0.0002028 4929.40625 4933.14453
4930.0 0.0002028 4928.15332 4932.09424
4940.0 0.0002024 4926.91455 4930.86328
4940.0 0.0002024 4925.69482 4929.63818
4950.0 0.0002020 4924.48633 4928.52539
4930.0 0.0002028 4923.29297 4927.60498
4940.0 0.0002024 4922.11865 4926.92188
4930.0 0.0002028 4920.95801 4926.59912
4960.0 0.0002016 4919.81006 4926.78760
4970.0 0.0002012 4918.67822 4927.42285
4960.0 0.0002016 4917.56445 4928.59277
4950.0 0.0002020 4916.46387 4929.49121
4940.0 0.0002024 4915.37744 4929.16211
4920.0 0.0002033 4914.30811 4927.16455
4930.0 0.0002028 4913.25195 4924.06152
4920.0 0.0002033 4912.20898 4920.70117
4910.0 0.0002037 4911.18213 4917.77588
4920.0 0.0002033 4910.16602 4915.63184
4920.0 0.0002033 4909.16602 4914.37500
4900.0 0.0002041 4908.17480 4914.01709
4870.0 0.0002053 4907.20068 4914.54834
4880.0 0.0002049 4906.23438 4916.29150
4890.0 0.0002045 4905.28076 4919.06787
4890.0 0.0002045 4904.33887 4922.97705
4870.0 0.0002053 4903.40527 4927.66943
4870.0 0.0002053 4902.48047 4931.73047
4880.0 0.0002049 4901.56348 4933.28076
4890.0 0.0002045 4900.65723 4930.96240
4910.0 0.0002037 4899.75684 4925.57031
4940.0 0.0002024 4898.86230 4919.20557
4930.0 0.0002028 4897.97559 4913.54199
4920.0 0.0002033 4897.09277 4909.47900
4910.0 0.0002037 4896.21533 4906.96680
4920.0 0.0002033 4895.34131 4905.61914
4910.0 0.0002037 4894.46973 4904.78076
4910.0 0.0002037 4893.60059 4903.88477
4910.0 0.0002037 4892.73340 4902.63086
4910.0 0.0002037 4891.86670 4901.06836
4920.0 0.0002033 4890.99951 4899.24756
4920.0 0.0002033 4890.13184 4897.63086
4890.0 0.0002045 4889.26318 4896.78467
4900.0 0.0002041 4888.39307 4897.09863
4920.0 0.0002033 4887.51904 4899.12500
4940.0 0.0002024 4886.64307 4903.47510
4920.0 0.0002033 4885.76318 4910.60596
4920.0 0.0002033 4884.87842 4920.33008
4940.0 0.0002024 4883.98389 4931.54395
4930.0 0.0002028 4883.08691 4941.85352
4920.0 0.0002033 4882.18408 4947.83203
4930.0 0.0002028 4881.27393 4947.00684
4950.0 0.0002020 4880.35498 4940.02002
4960.0 0.0002016 4879.42725 4929.50537
4950.0 0.0002020 4878.49268 4918.20313
4910.0 0.0002037 4877.54980 4907.74316
4920.0 0.0002033 4876.59521 4900.03174
4920.0 0.0002033 4875.63232 4895.32324
4900.0 0.0002041 4874.65967 4893.23682
4880.0 0.0002049 4873.67676 4892.92236
4860.0 0.0002058 4872.68164 4893.25977
4890.0 0.0002045 4871.67725 4893.23828
4900.0 0.0002041 4870.66016 4892.67676
4900.0 0.0002041 4869.63379 4892.07568
4910.0 0.0002037 4868.59619 4891.80078
4910.0 0.0002037 4867.54541 4891.45947
4920.0 0.0002033 4866.48242 4890.14307
4930.0 0.0002028 4865.41016 4887.25293
4930.0 0.0002028 4864.32471 4883.27539
4900.0 0.0002041 4863.22803 4879.23096
4890.0 0.0002045 4862.12256 4875.81104
4860.0 0.0002058 4861.00146 4873.26416
4840.0 0.0002066 4859.87061 4871.39697
4840.0 0.0002066 4858.72949 4869.81396
4840.0 0.0002066 4857.57617 4868.28857
4840.0 0.0002066 4856.41602 4867.25000
4860.0 0.0002058 4855.24316 4866.97705
4870.0 0.0002053 4854.05859 4867.89795
4880.0 0.0002049 4852.86719 4870.62744
4870.0 0.0002053 4851.66553 4874.75537
4860.0 0.0002058 4850.45459 4879.12646
4850.0 0.0002062 4849.23291 4882.16309
4850.0 0.0002062 4848.00342 4881.96191
4880.0 0.0002049 4846.76904 4878.16309
4890.0 0.0002045 4845.52637 4872.24170
4880.0 0.0002049 4844.27686 4865.98389
4850.0 0.0002062 4843.01904 4860.45410
4850.0 0.0002062 4841.75586 4855.96826
4860.0 0.0002058 4840.48877 4852.33057
4870.0 0.0002053 4839.21582 4849.51904
4850.0 0.0002062 4837.93750 4847.33740
4820.0 0.0002075 4836.65625 4845.61572
4820.0 0.0002075 4835.36865 4844.12695
4830.0 0.0002070 4834.08105 4842.62158
4820.0 0.0002075 4832.78809 4841.39063
4800.0 0.0002083 4831.49609 4840.62061
4810.0 0.0002079 4830.19971 4840.54395
4810.0 0.0002079 4828.90430 4841.38477
4830.0 0.0002070 4827.60645 4843.23291
4830.0 0.0002070 4826.30713 4845.95703
4850.0 0.0002062 4825.01221 4849.02344
4870.0 0.0002053 4823.71436 4851.44141
4860.0 0.0002058 4822.41650 4851.64355
4840.0 0.0002066 4821.12012 4848.65430
4830.0 0.0002070 4819.82666 4843.09131
4830.0 0.0002070 4818.53516 4836.49268
4820.0 0.0002075 4817.24414 4830.14697
4810.0 0.0002079 4815.95557 4824.80762
4810.0 0.0002079 4814.67090 4820.57275
4800.0 0.0002083 4813.38672 4817.19434
4810.0 0.0002079 4812.10742 4814.79150
4810.0 0.0002079 4810.82813 4812.88867
4810.0 0.0002079 4809.55469 4811.28906
4840.0 0.0002066 4808.28223 4809.87549
4860.0 0.0002058 4807.01465 4808.58105
4860.0 0.0002058 4805.75244 4807.39160
4850.0 0.0002062 4804.48975 4806.32764
4840.0 0.0002066 4803.23145 4805.37549
4840.0 0.0002066 4801.97510 4804.53809
4820.0 0.0002075 4800.72168 4803.77588
4810.0 0.0002079 4799.47266 4803.05029
4830.0 0.0002070 4798.22510 4802.30957
4840.0 0.0002066 4796.98047 4801.38525
4850.0 0.0002062 4795.73486 4800.16113
4820.0 0.0002075 4794.49512 4798.69482
4800.0 0.0002083 4793.25244 4797.21582
4790.0 0.0002088 4792.01270 4795.90479
4780.0 0.0002092 4790.77490 4794.84766
4780.0 0.0002092 4789.53418 4794.11426
4780.0 0.0002092 4788.29443 4793.60010
4790.0 0.0002088 4787.05225 4793.67920
4800.0 0.0002083 4785.81104 4794.09277
4790.0 0.0002088 4784.56543 4794.57568
4780.0 0.0002092 4783.31934 4794.65527
4780.0 0.0002092 4782.06738 4793.77637
4790.0 0.0002088 4780.81396 4791.73779
4780.0 0.0002092 4779.55615 4788.86670
4750.0 0.0002105 4778.29150 4785.70654
4750.0 0.0002105 4777.02197 4782.68066
4760.0 0.0002101 4775.74658 4780.03467
4780.0 0.0002092 4774.46436 4777.86523
4770.0 0.0002096 4773.17236 4776.14551
4770.0 0.0002096 4771.87500 4774.78711
4770.0 0.0002096 4770.56543 4773.66357
4770.0 0.0002096 4769.25000 4772.66455
4770.0 0.0002096 4767.92090 4771.71631
4780.0 0.0002092 4766.58057 4770.86523
4770.0 0.0002096 4765.23047 4770.29004
4770.0 0.0002096 4763.86670 4770.18066
4770.0 0.0002096 4762.48828 4770.65527
4780.0 0.0002092 4761.09814 4771.58740
4780.0 0.0002092 4759.69336 4772.57422
4790.0 0.0002088 4758.27344 4773.04102
4770.0 0.0002096 4756.83887 4772.32520
4780.0 0.0002092 4755.38672 4770.13232
4780.0 0.0002092 4753.91846 4766.73486
4770.0 0.0002096 4752.43359 4762.72314
4760.0 0.0002101 4750.93311 4758.70410
4750.0 0.0002105 4749.41211 4755.04102
4740.0 0.0002110 4747.87500 4751.85107
4730.0 0.0002114 4746.31934 4749.21436
4730.0 0.0002114 4744.74365 4746.84717
4760.0 0.0002101 4743.14990 4744.83008
4770.0 0.0002096 4741.53516 4742.99316
4770.0 0.0002096 4739.90234 4741.30664
4750.0 0.0002105 4738.24805 4739.65674
4740.0 0.0002110 4736.57715 4738.07129
4730.0 0.0002114 4734.88672 4736.54883
4740.0 0.0002110 4733.17627 4735.12061
4740.0 0.0002110 4731.44482 4733.83105
4740.0 0.0002110 4729.69434 4732.79248
4730.0 0.0002114 4727.92480 4732.06934
4740.0 0.0002110 4726.13623 4731.73096
4720.0 0.0002119 4724.33008 4731.82715
4720.0 0.0002119 4722.50635 4732.29932
4730.0 0.0002114 4720.66211 4732.93701
4730.0 0.0002114 4718.80225 4733.35254
4730.0 0.0002114 4716.92529 4733.05713
4720.0 0.0002119 4715.03320 4731.82275
4730.0 0.0002114 4713.12207 4729.86914
4720.0 0.0002119 4711.19971 4727.73291
4700.0 0.0002128 4709.25977 4725.58203
4670.0 0.0002141 4707.30811 4723.59961
4660.0 0.0002146 4705.34229 4721.72070
4660.0 0.0002146 4703.36328 4720.03711
4680.0 0.0002137 4701.37549 4718.71973
4690.0 0.0002132 4699.37598 4717.09229
4690.0 0.0002132 4697.36816 4715.00977
4700.0 0.0002128 4695.35156 4712.29297
4710.0 0.0002123 4693.32666 4709.18506
4710.0 0.0002123 4691.29541 4705.94580
4710.0 0.0002123 4689.26025 4702.76465
4680.0 0.0002137 4687.21973 4699.68262
4680.0 0.0002137 4685.17334 4696.82324
4690.0 0.0002132 4683.12939 4694.35596
4690.0 0.0002132 4681.08057 4692.30615
4690.0 0.0002132 4679.03467 4690.61621
4710.0 0.0002123 4676.98828 4688.76611
4720.0 0.0002119 4674.94482 4686.51416
4720.0 0.0002119 4672.90576 4683.70264
4720.0 0.0002119 4670.87109 4680.53467
4720.0 0.0002119 4668.83936 4677.19385
4710.0 0.0002123 4666.81689 4674.08984
4700.0 0.0002128 4664.80127 4671.50098
4680.0 0.0002137 4662.79346 4669.63184
4670.0 0.0002141 4660.79736 4668.69775
4660.0 0.0002146 4658.81055 4668.93359
4670.0 0.0002141 4656.83691 4670.49854
4680.0 0.0002137 4654.87451 4673.03418
4680.0 0.0002137 4652.92578 4676.25781
4680.0 0.0002137 4650.99219 4679.52979
4690.0 0.0002132 4649.07031 4681.76855
4680.0 0.0002137 4647.16797 4681.75781
4690.0 0.0002132 4645.28076 4678.94336
4690.0 0.0002132 4643.40820 4673.85303
4690.0 0.0002132 4641.55615 4667.85547
4710.0 0.0002123 4639.72070 4661.91504
4700.0 0.0002128 4637.90381 4656.78857
4690.0 0.0002132 4636.10693 4652.81006
4670.0 0.0002141 4634.32617 4650.24463
4660.0 0.0002146 4632.56348 4649.10254
4660.0 0.0002146 4630.82275 4649.02490
4650.0 0.0002151 4629.10059 4649.41650
4650.0 0.0002151 4627.39746 4649.52051
4630.0 0.0002160 4625.71240 4648.73730
4620.0 0.0002165 4624.04541 4646.98242
4620.0 0.0002165 4622.39795 4644.65479
4620.0 0.0002165 4620.76709 4642.00684
4640.0 0.0002155 4619.15186 4639.24561
4660.0 0.0002146 4617.55518 4636.70264
4660.0 0.0002146 4615.97559 4634.77881
4630.0 0.0002160 4614.40674 4633.75000
4630.0 0.0002160 4612.85352 4633.49463
4650.0 0.0002151 4611.31494 4633.53711
4650.0 0.0002151 4609.78857 4633.00439
4650.0 0.0002151 4608.27246 4631.17627
4630.0 0.0002160 4606.76514 4627.96484
4620.0 0.0002165 4605.26758 4623.94141
4610.0 0.0002169 4603.77588 4619.80713
4610.0 0.0002169 4602.28955 4615.91064
4600.0 0.0002174 4600.80811 4612.99512
4580.0 0.0002183 4599.33105 4610.94580
4600.0 0.0002174 4597.85352 4609.64648
4600.0 0.0002174 4596.37256 4608.76367
4600.0 0.0002174 4594.89111 4607.78467
4590.0 0.0002179 4593.40674 4606.28564
4580.0 0.0002183 4591.91309 4604.04932
4590.0 0.0002179 4590.41162 4601.31738
4580.0 0.0002183 4588.89990 4598.44238
4570.0 0.0002188 4587.37695 4595.76172
4580.0 0.0002183 4585.83984 4593.43506
4580.0 0.0002183 4584.28564 4591.37256
4560.0 0.0002193 4582.71436 4589.68408
4550.0 0.0002198 4581.12109 4588.11426
4560.0 0.0002193 4579.50537 4586.65625
4570.0 0.0002188 4577.86572 4585.11328
4580.0 0.0002183 4576.20166 4583.65088
4580.0 0.0002183 4574.50342 4582.11865
4560.0 0.0002193 4572.78125 4580.52002
4570.0 0.0002188 4571.02344 4578.82617
4580.0 0.0002183 4569.23145 4577.00684
4580.0 0.0002183 4567.40234 4575.07471
4580.0 0.0002183 4565.53516 4572.98584
4580.0 0.0002183 4563.62891 4571.02490
4570.0 0.0002188 4561.68066 4569.04199
4570.0 0.0002188 4559.68701 4566.90723
4570.0 0.0002188 4557.65234 4564.58350
4580.0 0.0002183 4555.56787 4562.06445
4580.0 0.0002183 4553.43652 4559.43115
4570.0 0.0002188 4551.25684 4556.76025
4560.0 0.0002193 4549.02637 4554.11426
4540.0 0.0002203 4546.74609 4551.52441
4540.0 0.0002203 4544.41309 4548.95264
4530.0 0.0002208 4542.02441 4546.52881
4530.0 0.0002208 4539.58301 4544.15771
4550.0 0.0002198 4537.08691 4541.82031
4550.0 0.0002198 4534.53662 4539.67285
4550.0 0.0002198 4531.93164 4537.56787
4550.0 0.0002198 4529.26953 4535.62549
4540.0 0.0002203 4526.55176 4533.74902
4540.0 0.0002203 4523.78076 4531.84521
4520.0 0.0002212 4520.95215 4529.56836
4530.0 0.0002208 4518.07031 4526.73975
4540.0 0.0002203 4515.13086 4523.31641
4530.0 0.0002208 4512.14160 4519.60059
4520.0 0.0002212 4509.09814 4515.58350
4520.0 0.0002212 4506.00195 4511.55615
4520.0 0.0002212 4502.85596 4507.60254
4530.0 0.0002208 4499.65967 4503.80957
4520.0 0.0002212 4496.41504 4500.12598
4510.0 0.0002217 4493.12793 4496.51367
4510.0 0.0002217 4489.79248 4492.95459
4500.0 0.0002222 4486.41553 4489.45068
4490.0 0.0002227 4482.99854 4486.06934
4470.0 0.0002237 4479.54199 4482.86230
4480.0 0.0002232 4476.05176 4479.84961
4470.0 0.0002237 4472.52588 4477.04932
4470.0 0.0002237 4468.96924 4474.50684
4480.0 0.0002232 4465.38525 4472.30713
4460.0 0.0002242 4461.77441 4470.54102
4470.0 0.0002237 4458.14111 4469.14014
4470.0 0.0002237 4454.48828 4467.95264
4470.0 0.0002237 4450.82227 4466.75635
4460.0 0.0002242 4447.13770 4465.09082
4440.0 0.0002252 4443.44434 4462.61963
4450.0 0.0002247 4439.74658 4459.29443
4460.0 0.0002242 4436.04346 4455.43115
4460.0 0.0002242 4432.34082 4451.36719
4460.0 0.0002242 4428.64307 4447.22070
4430.0 0.0002257 4424.95020 4443.03955
4430.0 0.0002257 4421.26514 4438.76709
4430.0 0.0002257 4417.59961 4434.10059
4430.0 0.0002257 4413.94727 4428.87646
4440.0 0.0002252 4410.31836 4423.22314
4420.0 0.0002262 4406.71338 4417.49023
4400.0 0.0002273 4403.13428 4412.00146
4390.0 0.0002278 4399.59082 4406.96973
4400.0 0.0002273 4396.07471 4402.50293
4400.0 0.0002273 4392.60107 4398.72705
4410.0 0.0002268 4389.16748 4395.35303
4390.0 0.0002278 4385.77734 4392.46484
4380.0 0.0002283 4382.43457 4389.84766
4370.0 0.0002288 4379.14209 4387.40576
4380.0 0.0002283 4375.90039 4385.08887
4370.0 0.0002288 4372.71289 4382.77930
4370.0 0.0002288 4369.58301 4380.43750
4360.0 0.0002294 4366.51563 4377.90967
4370.0 0.0002288 4363.50830 4375.08643
4370.0 0.0002288 4360.56348 4371.81152
4380.0 0.0002283 4357.68555 4368.28223
4390.0 0.0002278 4354.87305 4364.67725
4390.0 0.0002278 4352.13086 4361.03467
4380.0 0.0002283 4349.45654 4357.63916
4370.0 0.0002288 4346.85303 4354.36475
4370.0 0.0002288 4344.31787 4351.16064
4370.0 0.0002288 4341.85938 4348.13086
4360.0 0.0002294 4339.46924 4345.30273
4340.0 0.0002304 4337.15332 4342.81885
4330.0 0.0002309 4334.90918 4340.76563
4340.0 0.0002304 4332.73486 4339.36719
4340.0 0.0002304 4330.63135 4338.70068
4320.0 0.0002315 4328.59863 4338.81396
4320.0 0.0002315 4326.63379 4339.64990
4320.0 0.0002315 4324.73584 4340.94873
4310.0 0.0002320 4322.90674 4342.59326
4300.0 0.0002326 4321.13916 4343.58887
4330.0 0.0002309 4319.43506 4343.66846
4350.0 0.0002299 4317.78857 4342.61377
4350.0 0.0002299 4316.19873 4340.52295
4350.0 0.0002299 4314.66650 4337.61377
4350.0 0.0002299 4313.18213 4334.24902
4350.0 0.0002299 4311.74951 4330.85889
4330.0 0.0002309 4310.36230 4327.68994
4310.0 0.0002320 4309.01416 4324.78516
4310.0 0.0002320 4307.70557 4322.01221
4320.0 0.0002315 4306.43115 4319.32080
4320.0 0.0002315 4305.18652 4316.69727
4320.0 0.0002315 4303.96924 4314.24463
4330.0 0.0002309 4302.77295 4312.14160
4330.0 0.0002309 4301.59619 4310.53223
4300.0 0.0002326 4300.43359 4309.57666
4290.0 0.0002331 4299.27881 4309.31201
4310.0 0.0002320 4298.12598 4309.82275
4320.0 0.0002315 4296.97852 4311.07861
4330.0 0.0002309 4295.82178 4312.96875
4310.0 0.0002320 4294.65723 4315.33936
4300.0 0.0002326 4293.47900 4317.98535
4310.0 0.0002320 4292.28613 4320.80811
4320.0 0.0002315 4291.06494 4323.54248
4320.0 0.0002315 4289.81934 4325.93311
4310.0 0.0002320 4288.54199 4327.48193
4310.0 0.0002320 4287.22852 4327.59375
4320.0 0.0002315 4285.87598 4325.89355
4330.0 0.0002309 4284.47607 4322.45508
4330.0 0.0002309 4283.03027 4318.14795
4320.0 0.0002315 4281.53125 4313.41162
4320.0 0.0002315 4279.97607 4308.79297
4310.0 0.0002320 4278.36328 4304.42920
4300.0 0.0002326 4276.68799 4300.40088
4290.0 0.0002331 4274.94531 4296.37354
4290.0 0.0002331 4273.13770 4292.15381
4290.0 0.0002331 4271.25488 4287.63916
4280.0 0.0002336 4269.30225 4283.02490
4280.0 0.0002336 4267.27539 4278.58643
4280.0 0.0002336 4265.17188 4274.47412
4270.0 0.0002342 4262.98779 4270.77832
4260.0 0.0002347 4260.72803 4267.51514
4250.0 0.0002353 4258.38477 4264.62402
4250.0 0.0002353 4255.96191 4262.00830
4250.0 0.0002353 4253.45947 4259.54492
4260.0 0.0002347 4250.87500 4257.09082
4270.0 0.0002342 4248.20996 4254.57715
4260.0 0.0002347 4245.46631 4251.92676
4260.0 0.0002347 4242.64453 4249.03760
4270.0 0.0002342 4239.74805 4246.09717
4250.0 0.0002353 4236.77246 4243.21094
4230.0 0.0002364 4233.72607 4240.35596
4250.0 0.0002353 4230.60596 4237.68896
4250.0 0.0002353 4227.41943 4235.25732
4230.0 0.0002364 4224.16553 4233.04980
4240.0 0.0002358 4220.85156 4231.00098
4230.0 0.0002364 4217.47754 4228.95459
4220.0 0.0002370 4214.05078 4226.73584
4220.0 0.0002370 4210.57031 4224.10254
4220.0 0.0002370 4207.04443 4220.92627
4230.0 0.0002364 4203.47656 4217.07324
4220.0 0.0002370 4199.86963 4212.65576
4210.0 0.0002375 4196.23193 4207.87305
4200.0 0.0002381 4192.56445 4203.05615
4200.0 0.0002381 4188.87402 4198.49219
4200.0 0.0002381 4185.16846 4194.37598
4220.0 0.0002370 4181.44727 4190.78564
4220.0 0.0002370 4177.71973 4187.68604
4200.0 0.0002381 4173.99219 4184.81104
4180.0 0.0002392 4170.26953 4181.95801
4170.0 0.0002398 4166.55371 4178.76318
4170.0 0.0002398 4162.85596 4175.00195
4160.0 0.0002404 4159.17578 4170.46533
4160.0 0.0002404 4155.52393 4165.73828
4170.0 0.0002398 4151.89990 4160.92627
4160.0 0.0002404 4148.31348 4156.29590
4140.0 0.0002415 4144.76660 4152.04688
4140.0 0.0002415 4141.26563 4148.38428
4130.0 0.0002421 4137.81543 4145.27295
4120.0 0.0002427 4134.42041 4142.81250
4120.0 0.0002427 4131.08105 4141.09424
4140.0 0.0002415 4127.80518 4139.84619
4140.0 0.0002415 4124.59814 4138.99609
4130.0 0.0002421 4121.45703 4138.29932
4100.0 0.0002439 4118.38916 4137.45166
4100.0 0.0002439 4115.39697 4136.17432
4110.0 0.0002433 4112.47852 4134.33203
4120.0 0.0002427 4109.64209 4131.84326
4120.0 0.0002427 4106.88330 4128.64111
4120.0 0.0002427 4104.20508 4124.74268
4120.0 0.0002427 4101.61279 4120.40283
4130.0 0.0002421 4099.09912 4115.95752
4120.0 0.0002427 4096.66943 4111.71826
4110.0 0.0002433 4094.32153 4107.84131
4100.0 0.0002439 4092.05200 4104.35791
4100.0 0.0002439 4089.86572 4101.28906
4100.0 0.0002439 4087.75757 4098.65283
4100.0 0.0002439 4085.72217 4096.53516
4110.0 0.0002433 4083.76025 4095.00806
4110.0 0.0002433 4081.86963 4094.20410
4090.0 0.0002445 4080.04517 4094.04858
4090.0 0.0002445 4078.28638 4094.41431
4080.0 0.0002451 4076.58545 4095.06567
4090.0 0.0002445 4074.94263 4095.66479
4100.0 0.0002439 4073.34985 4095.81079
4110.0 0.0002433 4071.80396 4095.10278
4120.0 0.0002427 4070.29956 4093.42310
4110.0 0.0002433 4068.83325 4091.01807
4110.0 0.0002433 4067.39868 4088.30249
4120.0 0.0002427 4065.99023 4085.87744
4100.0 0.0002439 4064.60498 4084.11719
4100.0 0.0002439 4063.23486 4083.25757
4100.0 0.0002439 4061.87524 4083.29590
4080.0 0.0002451 4060.52100 4084.03125
4080.0 0.0002451 4059.16504 4085.02808
4070.0 0.0002457 4057.80493 4085.74048
4070.0 0.0002457 4056.43530 4085.62500
4080.0 0.0002451 4055.04956 4084.32593
4090.0 0.0002445 4053.64307 4081.63306
4080.0 0.0002451 4052.21436 4077.68457
4070.0 0.0002457 4050.75562 4072.81421
4060.0 0.0002463 4049.26538 4067.59985
4040.0 0.0002475 4047.73877 4062.46460
4040.0 0.0002475 4046.17383 4057.81445
4040.0 0.0002475 4044.56665 4053.69897
4050.0 0.0002469 4042.91675 4050.17383
4040.0 0.0002475 4041.22021 4047.11157
4030.0 0.0002481 4039.47778 4044.56396
4040.0 0.0002475 4037.68652 4042.33765
4040.0 0.0002475 4035.84766 4040.33862
4040.0 0.0002475 4033.96143 4038.47754
4040.0 0.0002475 4032.02808 4036.68164
4040.0 0.0002475 4030.04956 4034.87085
4030.0 0.0002481 4028.02588 4033.02612
4040.0 0.0002475 4025.96240 4031.12524
4040.0 0.0002475 4023.86035 4029.17871
4030.0 0.0002481 4021.72217 4027.27710
4020.0 0.0002488 4019.55396 4025.47949
4020.0 0.0002488 4017.35889 4023.83276
4040.0 0.0002475 4015.14160 4022.32813
4030.0 0.0002481 4012.90845 4020.92920
4020.0 0.0002488 4010.66357 4019.52954
4020.0 0.0002488 4008.41553 4018.00513
4010.0 0.0002494 4006.16650 4016.26123
4000.0 0.0002500 4003.92651 4014.42529
4000.0 0.0002500 4001.70068 4012.45898
4000.0 0.0002500 3999.49609 4010.48047
4010.0 0.0002494 3997.31934 4008.49585
4010.0 0.0002494 3995.17847 4006.48169
4020.0 0.0002488 3993.08008 4004.42578
4030.0 0.0002481 3991.02930 4002.36865
4010.0 0.0002494 3989.03467 4000.40332
3990.0 0.0002506 3987.10083 3998.57910
3980.0 0.0002513 3985.23682 3996.95679
3990.0 0.0002506 3983.44531 3995.55176
3990.0 0.0002506 3981.73193 3994.23193
4000.0 0.0002500 3980.10229 3992.76343
3980.0 0.0002513 3978.56006 3991.24365
3970.0 0.0002519 3977.10889 3989.50342
3980.0 0.0002513 3975.75195 3987.56177
3980.0 0.0002513 3974.49097 3985.45557
3970.0 0.0002519 3973.32593 3983.21094
3970.0 0.0002519 3972.25928 3980.92920
3980.0 0.0002513 3971.28882 3978.73340
3990.0 0.0002506 3970.41431 3976.75049
3990.0 0.0002506 3969.63354 3975.05859
3960.0 0.0002525 3968.94214 3973.70996
3990.0 0.0002506 3968.33740 3972.70483
3990.0 0.0002506 3967.81201 3972.00635
3980.0 0.0002513 3967.36182 3971.55347
3980.0 0.0002513 3966.97876 3971.26953
3980.0 0.0002513 3966.65625 3971.03955
3970.0 0.0002519 3966.38354 3970.81470
3970.0 0.0002519 3966.15259 3970.52222
3970.0 0.0002519 3965.95361 3970.14600
3960.0 0.0002525 3965.77295 3969.70435
3970.0 0.0002519 3965.60254 3969.26538
3970.0 0.0002519 3965.42993 3968.84546
3970.0 0.0002519 3965.24072 3968.47070
3960.0 0.0002525 3965.02417 3968.16016
3970.0 0.0002519 3964.76831 3967.85205
3960.0 0.0002525 3964.45947 3967.53833
3960.0 0.0002525 3964.08594 3967.17773
3970.0 0.0002519 3963.63525 3966.71899
3980.0 0.0002513 3963.09546 3966.11963
3980.0 0.0002513 3962.45728 3965.37769
3960.0 0.0002525 3961.70850 3964.45313
3950.0 0.0002532 3960.84082 3963.44043
3950.0 0.0002532 3959.84644 3962.30103
3950.0 0.0002532 3958.71655 3961.08862
3940.0 0.0002538 3957.44702 3959.80688
3940.0 0.0002538 3956.03125 3958.45020
3950.0 0.0002532 3954.46948 3957.01538
3960.0 0.0002525 3952.75806 3955.45459
3950.0 0.0002532 3950.89795 3953.78906
3960.0 0.0002525 3948.89404 3951.89478
3960.0 0.0002525 3946.74805 3949.83618
3970.0 0.0002519 3944.46533 3947.57349
3950.0 0.0002532 3942.05493 3945.10327
3940.0 0.0002538 3939.52808 3942.48804
3950.0 0.0002532 3936.89258 3939.72949
3960.0 0.0002525 3934.16504 3936.88062
3950.0 0.0002532 3931.35620 3933.98120
3940.0 0.0002538 3928.48535 3931.06543
3930.0 0.0002545 3925.56665 3928.17139
3920.0 0.0002551 3922.61963 3925.33594
3930.0 0.0002545 3919.66260 3922.58154
3920.0 0.0002551 3916.71362 3919.92212
3920.0 0.0002551 3913.79272 3917.37622
3920.0 0.0002551 3910.91699 3914.93970
3900.0 0.0002564 3908.10425 3912.58252
3900.0 0.0002564 3905.37158 3910.35034
3890.0 0.0002571 3902.73608 3908.19336
3900.0 0.0002564 3900.20605 3906.07788
3880.0 0.0002577 3897.79736 3903.95264
3880.0 0.0002577 3895.51514 3901.77173
3890.0 0.0002571 3893.36401 3899.56470
3890.0 0.0002571 3891.34692 3897.38818
3890.0 0.0002571 3889.46069 3895.30200
3890.0 0.0002571 3887.69849 3893.35547
3900.0 0.0002564 3886.05005 3891.59595
3910.0 0.0002558 3884.49854 3890.02197
3910.0 0.0002558 3883.02563 3888.61304
3900.0 0.0002564 3881.60474 3887.32104
3880.0 0.0002577 3880.20996 3886.11304
3880.0 0.0002577 3878.80591 3884.90381
3890.0 0.0002571 3877.35815 3883.63892
3890.0 0.0002571 3875.82764 3882.28223
3880.0 0.0002577 3874.17114 3880.78564
3870.0 0.0002584 3872.34741 3879.11157
3900.0 0.0002564 3870.31323 3877.16260
3890.0 0.0002571 3868.02783 3874.84424
3880.0 0.0002577 3865.45044 3872.05713
3870.0 0.0002584 3862.54517 3868.75122
3850.0 0.0002597 3859.28467 3864.97144
3840.0 0.0002604 3855.64551 3860.77979
3840.0 0.0002604 3851.61328 3856.26416
3840.0 0.0002604 3847.18848 3851.47339
3860.0 0.0002591 3842.37793 3846.46924
3850.0 0.0002597 3837.20703 3841.29492
3840.0 0.0002604 3831.71265 3835.98608
3840.0 0.0002604 3825.95093 3830.59058
3820.0 0.0002618 3819.98486 3825.14429
3810.0 0.0002625 3813.89844 3819.69312
3810.0 0.0002625 3807.78760 3814.23779
3810.0 0.0002625 3801.74414 3808.78076
3800.0 0.0002632 3795.87817 3803.29639
3800.0 0.0002632 3790.27612 3797.80981
3790.0 0.0002639 3785.02051 3792.38013
3790.0 0.0002639 3780.15332 3787.10791
3780.0 0.0002646 3775.66675 3782.05322
3780.0 0.0002646 3771.48315 3777.20898
3780.0 0.0002646 3767.41943 3772.44458
3770.0 0.0002653 3763.15015 3767.52026
3760.0 0.0002660 3758.17700 3761.97217
3750.0 0.0002667 3751.75732 3755.08228
3740.0 . . .
3740.0 . . .
3740.0 . . .
3750.0 . . .
3760.0 . . .
3770.0 . . .
3760.0 . . .
3750.0 . . .
3740.0 . . .
3740.0 . . .
3730.0 . . .
3740.0 . . .
3750.0 . . .
3750.0 . . .
3750.0 . . .
3750.0 . . .
3740.0 . . .
3750.0 . . .
3760.0 . . .
3740.0 . . .
3730.0 . . .
3740.0 . . .
3730.0 . . .
3730.0 . . .
3720.0 . . .
3710.0 . . .
3720.0 . . .
3720.0 . . .
3720.0 . . .
3720.0 . . .
3710.0 . . .
3700.0 . . .
3700.0 . . .
3700.0 . . .
3710.0 . . .
3710.0 . . .
3710.0 . . .
3700.0 . . .
3690.0 . . .
3690.0 . . .
3670.0 . . .
3670.0 . . .
3670.0 . . .
3680.0 . . .
3670.0 . . .
3670.0 . . .
3660.0 . . .
3650.0 . . .
3640.0 . . .
3630.0 . . .
3640.0 . . .
3640.0 . . .
3640.0 . . .
3630.0 . . .
3620.0 . . .
3630.0 . . .
3610.0 . . .
3610.0 . . .
3610.0 . . .
3610.0 . . .
3620.0 . . .
3610.0 . . .
3610.0 . . .
3590.0 . . .
3590.0 . . .
3600.0 . . .
3590.0 . . .
3600.0 . . .
3600.0 . . .
3600.0 . . .
3590.0 . . .
3590.0 . . .
3570.0 . . .
3570.0 . . .
3570.0 . . .
3550.0 . . .
3560.0 . . .
3580.0 . . .
3570.0 . . .
3560.0 . . .
3540.0 . . .
3540.0 . . .
3550.0 . . .
3560.0 . . .
3570.0 . . .
3560.0 . . .
3570.0 . . .
3560.0 . . .
3550.0 . . .
3550.0 . . .
3540.0 . . .
3540.0 . . .
3560.0 . . .
3570.0 . . .
3570.0 . . .
3560.0 . . .
3550.0 . . .
3540.0 . . .
3540.0 . . .
3540.0 . . .
3530.0 . . .
3540.0 . . .
3520.0 . . .
3510.0 . . .
3520.0 . . .
3530.0 . . .
3520.0 . . .
3530.0 . . .
3530.0 . . .
3530.0 . . .
3540.0 . . .
3550.0 . . .
3550.0 . . .
3560.0 . . .
3560.0 . . .
3550.0 . . .
3560.0 . . .
3550.0 . . .
3540.0 . . .
3540.0 . . .
3530.0 . . .
3530.0 . . .
3520.0 . . .
3530.0 . . .
3530.0 . . .
3530.0 . . .
3520.0 . . .
3510.0 . . .
3510.0 . . .
3500.0 . . .
3510.0 . . .
3500.0 . . .
3480.0 . . .
3460.0 . . .
3470.0 . . .
3470.0 . . .
3470.0 . . .
3470.0 . . .
3470.0 . . .
3460.0 . . .
3460.0 . . .
3460.0 . . .
3460.0 . . .
3450.0 . . .
3460.0 . . .
3470.0 . . .
3470.0 . . .
3460.0 . . .
3450.0 . . .
3450.0 . . .
3430.0 . . .
3440.0 . . .
3430.0 . . .
3420.0 . . .
3420.0 . . .
3410.0 . . .
3400.0 . . .
3400.0 . . .
3400.0 . . .
3390.0 . . .
3400.0 . . .
3410.0 . . .
3400.0 . . .
3410.0 . . .
3410.0 . . .
3390.0 . . .
3380.0 . . .
3390.0 . . .
3390.0 . . .
3390.0 . . .
3390.0 . . .
3390.0 . . .
3380.0 . . .
3370.0 . . .
3380.0 . . .
3390.0 . . .
3390.0 . . .
3380.0 . . .
3390.0 . . .
3390.0 . . .
3390.0 . . .
3380.0 . . .
3390.0 . . .
3400.0 . . .
3400.0 . . .
3390.0 . . .
3370.0 . . .
3370.0 . . .
3380.0 . . .
3390.0 . . .
3400.0 . . .
3380.0 . . .
3370.0 . . .
3370.0 . . .
3360.0 . . .
3350.0 . . .
3340.0 . . .
3340.0 . . .
3340.0 . . .
3350.0 . . .
3350.0 . . .
3340.0 . . .
3340.0 . . .
3330.0 . . .
3340.0 . . .
3330.0 . . .
3310.0 . . .
3320.0 . . .
3320.0 . . .
3320.0 . . .
3320.0 . . .
3320.0 . . .
3320.0 . . .
3320.0 . . .
3310.0 . . .
3300.0 . . .
3310.0 . . .
3300.0 . . .
3320.0 . . .
3320.0 . . .
3320.0 . . .
3300.0 . . .
3290.0 . . .
3310.0 . . .
3320.0 . . .
3320.0 . . .
3310.0 . . .
3310.0 . . .
3320.0 . . .
3320.0 . . .
3320.0 . . .
3340.0 . . .
3330.0 . . .
3310.0 . . .
3300.0 . . .
3300.0 . . .
3290.0 . . .
3280.0 . . .
3280.0 . . .
3280.0 . . .
3280.0 . . .
3290.0 . . .
3280.0 . . .
3270.0 . . .
3260.0 . . .
3270.0 . . .
3270.0 . . .
3260.0 . . .
3260.0 . . .
3270.0 . . .
3270.0 . . .
3280.0 . . .
3270.0 . . .
3260.0 . . .
3250.0 . . .
3260.0 . . .
3260.0 . . .
3270.0 . . .
3270.0 . . .
3270.0 . . .
3260.0 . . .
3260.0 . . .
3250.0 . . .
3250.0 . . .
3250.0 . . .
3240.0 . . .
3240.0 . . .
3240.0 . . .
3240.0 . . .
3230.0 . . .
3230.0 . . .
3220.0 . . .
3220.0 . . .
3220.0 . . .
3230.0 . . .
3230.0 . . .
3240.0 . . .
3250.0 . . .
3250.0 . . .
3270.0 . . .
3270.0 . . .
3260.0 . . .
3260.0 . . .
3260.0 . . .
3260.0 . . .
3260.0 . . .
3260.0 . . .
3250.0 . . .
3250.0 . . .
3250.0 . . .
3240.0 . . .
3240.0 . . .
3230.0 . . .
3220.0 . . .
3210.0 . . .
3210.0 . . .
3220.0 . . .
3230.0 . . .
3220.0 . . .
3210.0 . . .
3190.0 . . .
3200.0 . . .
3190.0 . . .
3170.0 . . .
3200.0 . . .
3210.0 . . .
3210.0 . . .
3200.0 . . .
3190.0 . . .
3170.0 . . .
3170.0 . . .
3160.0 . . .
3140.0 . . .
3140.0 . . .
3130.0 . . .
3130.0 . . .
3130.0 . . .
3140.0 . . .
3140.0 . . .
3130.0 . . .
3120.0 . . .
3100.0 . . .
3090.0 . . .
3090.0 . . .
3070.0 . . .
3060.0 . . .
3050.0 . . .
3050.0 . . .
3040.0 . . .
3020.0 . . .
3000.0 . . .
2980.0 . . .
2960.0 . . .
2940.0 . . .
2940.0 . . .
2910.0 . . .
2880.0 . . .
2870.0 . . .
2850.0 . . .
2840.0 . . .
2830.0 . . .
2810.0 . . .
2800.0 . . .
2780.0 . . .
2760.0 . . .
2740.0 . . .
2700.0 . . .
2680.0 . . .
2660.0 . . .
2630.0 . . .
2610.0 . . .
2590.0 . . .
2570.0 . . .
2560.0 . . .
2550.0 . . .
2510.0 . . .
2220.0 . . .
1970.0 . . .
1780.0 . . .
1620.0 . . .
1450.0 . . .
1320.0 . . .
1200.0 . . .
1070.0 . . .
948.0 . . .
825.0 . . .
688.0 . . .
534.0 . . .
273.0 . . .
17.0 . . .
0.0 . . .
0.0 . . .
0.0 . . .
0.0 . . .
0.0 . . .
0.0 . . .
0.0 . . .
0.0 . . .
0.0 . . .
0.0 . . .
0.0 . . .
0.0 . . .
0.0 . . .
0.0 . . .
0.0 . . .
0.0 . . .
0.0 . . .
0.0 . . .
0.0 . . .
0.0 . . .
0.0 . . .
0.0 . . .
0.0 . . .
0.0 . . .
0.0 . . .
0.0 . . .
0.0 . . .
0.0 . . .
0.0 . . .
0.0 . . .
0.0 . . .
0.0 . . .
0.0 . . .
0.0 . . .
0.0 . . .
0.0 . . .
0.0 . . .
0.0 . . .
0.0 . . .
0.0 . . .
0.0 . . .
0.0 . . .
0.0 . . .
0.0 . . .
0.0 . . .
0.0 . . .
0.0 . . .
0.0 . . .
0.0 . . .
0.0 . . .
0.0 . . .
0.0 . . .
0.0 . . .
0.0 . . .
0.0 . . .
0.0 . . .
0.0 . . .
0.0 . . .
0.0 . . .
0.0 . . .
0.0 . . .
0.0 . . .
0.0 . . .
0.0 . . .
0.0 . . .
0.0 . . .
0.0 . . .
0.0 . . .
0.0 . . .
0.0 . . .
0.0 . . .
0.0 . . .
0.0 . . .
0.0 . . .
0.0 . . .
0.0 . . .
0.0 . . .
0.0 . . .
0.0 . . .
0.0 . . .
0.0 . . .
0.0 . . .
0.0 . . .
0.0 . . .
0.0 . . .
0.0 . . .
0.0 . . .
0.0 . . .
0.0 . . .
0.0 . . .
0.0 . . .
0.0 . . .
0.0 . . .
0.0 . . .
0.0 . . .
0.0 . . .
0.0 . . .
0.0 . . .
0.0 . . .
0.0 . . .
0.0 . . .
0.0 . . .
0.0 . . .
0.0 . . .
0.0 . . .
0.0 . . .
0.0 . . .
0.0 . . .
0.0 . . .
0.0 . . .
0.0 . . .
0.0 . . .
0.0 . . .
0.0 . . .
0.0 . . .
0.0 . . .
0.0 . . .
0.0 . . .
0.0 . . .
0.0 . . .
0.0 . . .
0.0 . . .
0.0 . . .
0.0 . . .
0.0 . . .
0.0 . . .
0.0 . . .
0.0 . . .
0.0 . . .
0.0 . . .
0.0 . . .
0.0 . . .
0.0 . . .
0.0 . . .
0.0 . . .
0.0 . . .
0.0 . . .
0.0 . . .
0.0 . . .
0.0 . . .
0.0 . . .
0.0 . . .
0.0 . . .
0.0 . . .
0.0 . . .
0.0 . . .
0.0 . . .
0.0 . . .
0.0 . . .
0.0 . . .
0.0 . . .
0.0 . . .
0.0 . . .
0.0 . . .
0.0 . . .
0.0 . . .
0.0 . . .
0.0 . . .
0.0 . . .
0.0 . . .
0.0 . . .
0.0 . . .
0.0 . . .
0.0 . . .
0.0 . . .
0.0 . . .
0.0 . . .
0.0 . . .
0.0 . . .
0.0 . . .
0.0 . . .
0.0 . . .
0.0 . . .
0.0 . . .
0.0 . . .
0.0 . . .
0.0 . . .
0.0 . . .
0.0 . . .
0.0 . . .
0.0 . . .
0.0 . . .
0.0 . . .
0.0 . . .
0.0 . . .
0.0 . . .
0.0 . . .
0.0 . . .
0.0 . . .
0.0 . . .
0.0 . . .
0.0 . . .
0.0 . . .
0.0 . . .
0.0 . . .
0.0 . . .
0.0 . . .
0.0 . . .
0.0 . . .
0.0 . . .
0.0 . . .
0.0 . . .
0.0 . . .
0.0 . . .
0.0 . . .
0.0 . . .
0.0 . . .
0.0 . . .
0.0 . . .
0.0 . . .
0.0 . . .
0.0 . . .
0.0 . . .
0.0 . . .
0.0 . . .
0.0 . . .
0.0 . . .
0.0 . . .
0.0 . . .
0.0 . . .
0.0 . . .
0.0 . . .
0.0 . . .
0.0 . . .
0.0 . . .
0.0 . . .
0.0 . . .
0.0 . . .
0.0 . . .
0.0 . . .
0.0 . . .
0.0 . . .
0.0 . . .
0.0 . . .
0.0 . . .
0.0 . . .
0.0 . . .
0.0 . . .
0.0 . . .
0.0 . . .
0.0 . . .
0.0 . . .
0.0 . . .
0.0 . . .
0.0 . . .
0.0 . . .
0.0 . . .
0.0 . . .
0.0 . . .
0.0 . . .
0.0 . . .
0.0 . . .
0.0 . . .
0.0 . . .
0.0 . . .
0.0 . . .
0.0 . . .
0.0 . . .
0.0 . . .
0.0 . . .
0.0 . . .
0.0 . . .
0.0 . . .
0.0 . . .
0.0 . . .
0.0 . . .
0.0 . . .
0.0 . . .
0.0 . . .
0.0 . . .
0.0 . . .
0.0 . . .
0.0 . . .
0.0 . . .
0.0 . . .
0.0 . . .
0.0 . . .
0.0 . . .
0.0 . . .
0.0 . . .
0.0 . . .
0.0 . . .
0.0 . . .
0.0 . . .
0.0 . . .
0.0 . . .
0.0 . . .
0.0 . . .
0.0 . . .
0.0 . . .
0.0 . . .
0.0 . . .
0.0 . . .
0.0 . . .
0.0 . . .
0.0 . . .
0.0 . . .
0.0 . . .
0.0 . . .
0.0 . . .
0.0 . . .
0.0 . . .
0.0 . . .
0.0 . . .
0.0 . . .
0.0 . . .
0.0 . . .
0.0 . . .
0.0 . . .
0.0 . . .
0.0 . . .
0.0 . . .
0.0 . . .
0.0 . . .
0.0 . . .
0.0 . . .
0.0 . . .
0.0 . . .
0.0 . . .
0.0 . . .
0.0 . . .
0.0 . . .
0.0 . . .
0.0 . . .
0.0 . . .
0.0 . . .
0.0 . . .
0.0 . . .
0.0 . . .
0.0 . . .
0.0 . . .
0.0 . . .
0.0 . . .
0.0 . . .
0.0 . . .
0.0 . . .
0.0 . . .
0.0 . . .
0.0 . . .
0.0 . . .
0.0 . . .
0.0 . . .
0.0 . . .
0.0 . . .
0.0 . . .
0.0 . . .
0.0 . . .
0.0 . . .
0.0 . . .
0.0 . . .
0.0 . . .
0.0 . . .
0.0 . . .
0.0 . . .
0.0 . . .
0.0 . . .
0.0 . . .
0.0 . . .
0.0 . . .
0.0 . . .
0.0 . . .
0.0 . . .
0.0 . . .
0.0 . . .
0.0 . . .
0.0 . . .
0.0 . . .
0.0 . . .
0.0 . . .
0.0 . . .
0.0 . . .
0.0 . . .
0.0 . . .
0.0 . . .
0.0 . . .
0.0 . . .
0.0 . . .
0.0 . . .
0.0 . . .
0.0 . . .
0.0 . . .
0.0 . . .
0.0 . . .
0.0 . . .
0.0 . . .
0.0 . . .
0.0 . . .
0.0 . . .
0.0 . . .
0.0 . . .
0.0 . . .
0.0 . . .
0.0 . . .
0.0 . . .
0.0 . . .
0.0 . . .
0.0 . . .
0.0 . . .
0.0 . . .
0.0 . . .
0.0 . . .
0.0 . . .
0.0 . . .
0.0 . . .
0.0 . . .
0.0 . . .
0.0 . . .
0.0 . . .
0.0 . . .
0.0 . . .
0.0 . . .
0.0 . . .
0.0 . . .
0.0 . . .
0.0 . . .
0.0 . . .
0.0 . . .
0.0 . . .
0.0 . . .
0.0 . . .
0.0 . . .
0.0 . . .
0.0 . . .
0.0 . . .
0.0 . . .
0.0 . . .
0.0 . . .
0.0 . . .
0.0 . . .
0.0 . . .
0.0 . . .
0.0 . . .
0.0 . . .
0.0 . . .
0.0 . . .
0.0 . . .
0.0 . . .
0.0 . . .
0.0 . . .
0.0 . . .
0.0 . . .
0.0 . . .
0.0 . . .
0.0 . . .
0.0 . . .
loop_
_refln_index_h
_refln_index_k
_refln_index_l
_refln_observed_status
_refln_F_squared_meas
_refln_F_squared_calc
_refln_phase_calc
_refln_d_spacing
_gsas_i100_meas
0 0 1 o 904.994 898.814 0.00 7.30461 37.46
1 1 -1 o 410.451 399.634 0.00 4.65701 33.72
0 1 1 o 38.788 39.273 0.00 4.62881 2.24
1 1 0 o 1819.170 1843.893 0.00 4.53565 100.00
2 0 -1 o 2136.216 2047.226 0.00 4.11792 55.14
2 0 -2 o 509.776 476.962 180.00 3.70848 9.45
0 0 2 o 322.196 254.840 180.00 3.65230 3.34
1 1 -2 o 100.786 108.548 180.00 3.51166 4.15
2 0 0 o 2559.277 2458.904 0.00 3.47704 25.72
2 1 -1 o 1253.394 1337.670 180.00 3.39221 47.09
1 1 1 o 110.983 88.182 180.00 3.35970 1.95
2 1 -2 o 49.770 8.117 0.00 3.15215 1.54
0 1 2 o 17.358 19.968 0.00 3.11744 0.33
2 1 0 o 1312.877 1376.604 180.00 3.00631 23.71
0 2 0 o 311.667 290.532 180.00 2.99177 6.99
2 0 -3 o 4.866 0.009 180.00 2.84054 0.06
1 2 -1 o 14.464 17.783 0.00 2.77455 0.50
0 2 1 o 204.226 232.936 180.00 2.76855 6.02
1 2 0 o 162.255 134.359 180.00 2.74823 4.60
2 0 1 o 76.662 19.639 180.00 2.63578 0.32
2 1 -3 o 33.545 28.657 0.00 2.56607 0.70
1 1 -3 o 200.346 213.313 0.00 2.55191 3.60
3 1 -2 o 0.008 0.071 180.00 2.48796 0.00
1 2 -2 o 82.422 107.248 0.00 2.46269 1.93
1 1 2 o 3.732 4.884 180.00 2.45396 0.03
0 0 3 o 416.029 432.136 0.00 2.43487 1.92
3 1 -1 o 632.186 614.554 0.00 2.43213 10.18
2 2 -1 o 12.681 10.468 0.00 2.42041 0.28
2 1 1 o 0.059 0.049 0.00 2.41212 0.00
1 2 1 o 55.198 46.015 180.00 2.40852 0.79
2 2 -2 o 7.827 5.715 0.00 2.32851 0.16
0 2 2 o 61.326 57.627 0.00 2.31441 0.89
3 1 -3 o 101.776 79.432 0.00 2.28495 1.54
2 2 0 o 82.868 91.240 180.00 2.26783 1.14
0 1 3 o 14.228 43.800 0.00 2.25529 0.13
2 0 -4 o 47.728 36.021 0.00 2.16857 0.34
3 1 0 o 0.000 29.219 0.00 2.16149 0.00
2 2 -3 o 239.274 278.288 0.00 2.05995 3.63
4 0 -2 o 28.789 32.043 180.00 2.05896 0.19
1 2 -3 o 88.776 85.264 0.00 2.05260 1.18
2 1 -4 o 158.075 138.402 180.00 2.03880 2.07
2 0 2 o 85.339 47.913 0.00 2.03007 0.20
4 0 -3 o 2.079 0.722 0.00 2.02184 0.01
3 2 -2 o 36.527 11.790 0.00 2.01888 0.53
1 2 2 o 5.080 3.675 180.00 2.00059 0.04
3 2 -1 o 222.764 202.482 180.00 1.98871 2.69
2 2 1 o 163.666 119.593 180.00 1.97772 1.22
3 1 -4 o 270.266 216.993 0.00 1.96495 3.11
1 1 -4 o 134.294 103.929 0.00 1.94807 1.21
4 1 -2 o 6.572 5.276 180.00 1.94692 0.08
4 0 -1 o 12.746 11.920 0.00 1.94393 0.06
1 3 -1 o 41.510 75.616 180.00 1.92609 0.73
0 3 1 o 115.382 173.937 180.00 1.92408 1.87
2 1 2 o 3.902 5.160 0.00 1.92244 0.02
1 3 0 o 79.213 80.038 180.00 1.91721 1.25
4 1 -3 o 191.479 183.709 0.00 1.91545 2.19
3 2 -3 o 68.251 59.596 0.00 1.90579 0.83
0 2 3 o 88.972 68.995 0.00 1.88848 0.69
1 1 3 o 128.881 91.159 0.00 1.88642 0.61
4 1 -1 o 545.143 667.457 180.00 1.84881 4.47
3 1 1 o 36.337 31.810 180.00 1.83647 0.17
4 0 -4 o 22.435 48.282 0.00 1.85424 0.10
3 2 0 o 256.590 206.147 180.00 1.83238 1.91
0 0 4 o 321.883 184.543 0.00 1.82615 0.84
1 3 -2 o 0.752 0.274 0.00 1.81209 0.01
2 3 -1 o 162.181 140.963 0.00 1.79504 2.15
1 3 1 o 32.600 30.177 180.00 1.79017 0.34
4 1 -4 o 0.000 21.730 0.00 1.77114 0.00
2 3 -2 o 11.984 13.067 0.00 1.75658 0.16
2 2 -4 o 102.428 105.728 0.00 1.75583 1.06
0 3 2 o 45.335 40.506 180.00 1.75050 0.47
0 1 4 o 83.541 88.507 0.00 1.74662 0.42
4 0 0 o 0.000 18.460 180.00 1.73852 0.00
2 3 0 o 0.000 0.414 180.00 1.73008 0.00
2 0 -5 o 23.751 17.780 180.00 1.71794 0.10
3 2 -4 o 19.656 6.352 180.00 1.70799 0.19
1 2 -4 o 1.098 0.492 180.00 1.69687 0.01
4 2 -2 o 97.036 46.910 0.00 1.69611 0.91
2 2 2 o 0.000 16.056 0.00 1.67985 0.00
4 2 -3 o 0.000 1.773 0.00 1.67518 0.00
4 1 0 o 0.000 216.667 180.00 1.66948 0.00
3 1 -5 o 1.504 0.936 0.00 1.65761 0.01
1 2 3 o 45.886 26.815 180.00 1.65566 0.21
2 1 -5 o 37.565 19.484 180.00 1.65123 0.30
4 0 -5 o 30.384 22.497 180.00 1.63396 0.11
2 3 -3 o 0.285 0.227 0.00 1.63231 0.00
4 2 -1 o 256.828 215.367 0.00 1.63005 1.80
1 3 -3 o 65.030 54.387 0.00 1.62865 0.61
2 0 3 o 419.472 322.447 0.00 1.62469 0.62
3 2 1 o 3.428 2.529 0.00 1.62158 0.02
3 3 -2 o 54.590 49.533 180.00 1.61165 0.55
1 3 2 o 183.841 104.185 0.00 1.60230 1.18
3 3 -1 o 1.687 1.545 180.00 1.59617 0.01
5 1 -3 o 0.069 1.508 0.00 1.59124 0.00
2 3 1 o 0.000 33.364 180.00 1.59047 0.00
4 1 -5 o 4.466 6.789 180.00 1.57625 0.03
4 2 -4 o 97.102 146.082 0.00 1.57608 0.75
2 1 3 o 16.378 19.403 180.00 1.56792 0.05
5 1 -2 o 14.296 17.824 0.00 1.56663 0.10
1 1 -5 o 0.000 2.801 0.00 1.55995 0.00
0 2 4 o 0.000 28.312 180.00 1.55872 0.00
3 3 -3 o 0.000 5.799 180.00 1.55234 0.00
3 1 2 o 0.000 23.625 0.00 1.54958 0.00
5 1 -4 o 80.513 91.851 0.00 1.54318 0.58
0 3 3 o 53.424 60.214 180.00 1.54294 0.34
1 1 4 o 81.150 6.001 0.00 1.51892 0.25
4 0 1 o 1.580 0.138 180.00 1.51695 0.00
3 3 0 o 144.892 20.913 180.00 1.51188 0.89
4 2 0 o 10.624 10.101 180.00 1.50315 0.05
0 4 0 o 1.109 8.956 0.00 1.49588 0.01
3 2 -5 o 0.000 50.720 180.00 1.49447 0.00
2 2 -5 o 0.000 2.678 0.00 1.48979 0.00
5 1 -1 o 9.388 15.104 0.00 1.47856 0.05
4 1 1 o 1.550 1.126 0.00 1.47043 0.00
2 3 -4 o 40.253 28.602 0.00 1.46802 0.31
1 4 -1 o 34.791 25.340 0.00 1.46636 0.36
0 4 1 o 15.565 11.662 180.00 1.46547 0.15
1 4 0 o 0.239 0.208 0.00 1.46243 0.00
0 0 5 o 10.498 9.098 180.00 1.46092 0.02
5 2 -3 o 2.446 0.729 0.00 1.44529 0.02
5 1 -5 o 1.921 1.309 0.00 1.43980 0.01
3 3 -4 o 2.408 1.665 0.00 1.43971 0.02
4 2 -5 o 16.835 27.505 0.00 1.43403 0.11
1 3 -4 o 25.566 51.789 180.00 1.43303 0.16
4 3 -2 o 0.114 0.262 180.00 1.43257 0.00
2 2 3 o 0.000 26.462 180.00 1.42775 0.00
5 2 -2 o 0.000 34.893 180.00 1.42678 0.00
2 3 2 o 0.000 20.266 180.00 1.42274 0.00
1 2 -5 o 0.000 0.340 0.00 1.42172 0.00
4 0 -6 o 0.000 16.876 0.00 1.42027 0.00
4 3 -3 o 0.000 49.374 180.00 1.41990 0.00
0 1 5 o 0.003 3.154 0.00 1.41923 0.00
1 4 -2 o 17.504 25.004 180.00 1.41414 0.16
3 2 2 o 0.041 0.057 0.00 1.41386 0.00
2 0 -6 o 0.463 0.377 0.00 1.41068 0.00
5 2 -4 o 5.770 3.442 180.00 1.40899 0.04
1 3 3 o 8.187 4.092 0.00 1.40795 0.03
2 4 -1 o 48.534 18.317 180.00 1.40599 0.42
3 1 -6 o 52.558 18.308 0.00 1.40528 0.32
1 4 1 o 31.146 9.504 180.00 1.40365 0.23
4 3 -1 o 7.084 4.479 0.00 1.39210 0.04
1 2 4 o 40.290 27.126 180.00 1.39045 0.12
2 4 -2 o 218.625 138.289 180.00 1.38728 1.90
3 3 1 o 0.080 0.050 180.00 1.38681 0.00
0 4 2 o 10.719 5.785 180.00 1.38428 0.08
4 1 -6 o 57.045 28.201 0.00 1.38187 0.33
2 4 0 o 3.188 2.628 0.00 1.37411 0.02
2 1 -6 o 125.359 117.447 0.00 1.37304 0.62
6 0 -3 o 12.906 12.628 0.00 1.37264 0.04
6 0 -4 o 128.918 136.913 0.00 1.36783 0.38
5 2 -1 o 178.148 169.562 180.00 1.35929 0.79
4 3 -4 o 9.943 10.684 180.00 1.35803 0.06
5 1 0 o 8.582 17.551 180.00 1.35470 0.03
4 2 1 o 1.879 7.314 180.00 1.35297 0.01
0 3 4 o 0.000 94.944 180.00 1.34688 0.00
2 0 4 o 0.000 49.757 0.00 1.34533 0.00
6 1 -3 o 0.000 22.735 0.00 1.33789 0.00
6 1 -4 o 0.000 17.461 0.00 1.33343 0.00
6 0 -2 o 0.547 12.344 180.00 1.33098 0.00
5 2 -5 o 15.646 27.289 180.00 1.32900 0.08
2 4 -3 o 26.954 16.389 180.00 1.32357 0.20
1 4 -3 o 20.394 11.335 180.00 1.32161 0.14
3 1 3 o 9.679 5.506 0.00 1.32003 0.02
6 0 -5 o 13.799 9.479 0.00 1.31795 0.03
4 0 2 o 41.423 28.688 0.00 1.31789 0.04
0 2 5 o 5.126 5.124 0.00 1.31277 0.02
2 1 4 o 0.505 0.491 180.00 1.31256 0.00
3 4 -2 o 10.904 10.506 180.00 1.31248 0.08
4 3 0 o 0.045 0.033 0.00 1.31054 0.00
5 1 -6 o 1.571 1.114 180.00 1.31043 0.01
1 4 2 o 1.096 0.594 180.00 1.30742 0.01
3 3 -5 o 30.182 14.611 180.00 1.30477 0.18
3 4 -1 o 66.767 31.221 0.00 1.30408 0.43
3 2 -6 o 12.931 5.092 0.00 1.30170 0.07
2 3 -5 o 15.062 5.909 0.00 1.30166 0.08
2 4 1 o 0.054 0.020 0.00 1.30097 0.00
6 1 -2 o 4.828 1.537 180.00 1.29922 0.02
1 1 -6 o 61.796 17.169 0.00 1.29548 0.21
6 1 -5 o 3.054 2.761 0.00 1.28710 0.01
4 1 2 o 22.979 20.916 180.00 1.28704 0.05
4 2 -6 o 1.228 1.365 180.00 1.28303 0.01
3 4 -3 o 81.345 90.627 180.00 1.27985 0.55
2 2 -6 o 39.903 42.286 0.00 1.27595 0.18
0 4 3 o 2.217 2.329 0.00 1.27457 0.01
5 3 -3 o 83.784 90.989 180.00 1.27166 0.47
1 1 5 o 0.014 0.019 0.00 1.26657 0.00
4 3 -5 o 2.336 3.424 180.00 1.26397 0.01
5 2 0 o 9.551 17.522 180.00 1.26119 0.03
2 3 3 o 16.867 32.918 180.00 1.25966 0.05
5 3 -2 o 0.012 0.023 180.00 1.25899 0.00
3 4 0 o 0.009 0.012 180.00 1.25689 0.00
1 3 -5 o 59.471 58.059 180.00 1.25552 0.25
6 0 -1 o 114.498 82.647 180.00 1.25420 0.19
3 3 2 o 68.857 28.938 0.00 1.25009 0.19
6 2 -3 o 50.081 21.386 180.00 1.24759 0.25
5 3 -4 o 0.664 0.304 180.00 1.24672 0.00
6 2 -4 o 2.209 1.558 180.00 1.24398 0.01
4 0 -7 o 128.675 247.672 0.00 1.23615 0.31
6 0 -6 o 0.032 0.061 180.00 1.23616 0.00
1 3 4 o 97.841 120.577 180.00 1.23383 0.28
3 2 3 o 48.828 54.339 180.00 1.23308 0.10
2 4 -4 o 22.696 21.776 180.00 1.23135 0.13
6 1 -1 o 48.905 42.762 180.00 1.22753 0.15
2 2 4 o 98.586 85.020 180.00 1.22698 0.20
5 2 -6 o 8.337 6.852 180.00 1.22524 0.04
5 1 1 o 1.541 1.316 0.00 1.22183 0.00
0 0 6 o 29.830 31.138 180.00 1.21743 0.03
6 2 -2 o 73.542 80.565 0.00 1.21607 0.30
3 4 -4 o 7.607 8.673 0.00 1.21450 0.04
2 4 2 o 18.623 18.238 0.00 1.20426 0.07
1 2 -6 o 52.808 60.314 0.00 1.21299 0.17
4 4 -3 o 89.060 90.774 180.00 1.20253 0.50
5 3 -1 o 19.579 21.864 0.00 1.21190 0.08
4 1 -7 o 89.763 96.442 0.00 1.21059 0.41
6 1 -6 o 0.011 0.012 0.00 1.21059 0.00
1 4 -4 o 39.064 41.814 0.00 1.21048 0.19
4 4 -2 o 103.933 110.155 180.00 1.21021 0.57
4 3 1 o 0.336 0.325 180.00 1.20741 0.00
3 1 -7 o 54.180 52.117 0.00 1.20711 0.23
6 2 -5 o 16.895 16.113 0.00 1.20611 0.08
4 2 2 o 2.622 2.500 0.00 1.20606 0.01
1 4 3 o 2.306 2.894 180.00 1.19525 0.01
0 1 6 o 35.206 30.116 180.00 1.19299 0.08
2 0 -7 o 9.843 7.236 0.00 1.19211 0.02
5 3 -5 o 30.243 17.880 0.00 1.19028 0.14
1 2 5 o 35.602 19.858 180.00 1.18917 0.08
4 4 -1 o 11.055 6.684 180.00 1.18551 0.05
3 4 1 o 38.973 28.315 180.00 1.18224 0.14
1 5 -1 o 13.465 10.066 180.00 1.18143 0.09
0 5 1 o 12.358 9.327 0.00 1.18096 0.08
1 5 0 o 9.268 6.938 0.00 1.17937 0.06
5 1 -7 o 82.903 60.892 0.00 1.17871 0.34
0 3 5 o 56.239 41.123 180.00 1.17858 0.16
3 3 -6 o 9.369 6.795 180.00 1.17055 0.04
2 1 -7 o 156.855 139.503 0.00 1.16914 0.52
4 4 -4 o 1.129 3.490 180.00 1.16425 0.01
6 0 0 o 2.838 24.997 180.00 1.15901 0.00
7 1 -4 o 1.780 9.345 0.00 1.15758 0.01
0 4 4 o 9.118 42.065 180.00 1.15720 0.03
4 3 -6 o 4.820 20.243 180.00 1.15692 0.02
6 2 -1 o 16.019 62.371 0.00 1.15667 0.05
1 5 -2 o 61.634 101.649 180.00 1.15360 0.38
5 2 1 o 2.536 3.090 0.00 1.15191 0.01
2 3 -6 o 3.121 3.707 180.00 1.15172 0.01
4 0 3 o 9.313 10.498 0.00 1.15130 0.01
2 5 -1 o 1.807 1.703 180.00 1.14916 0.01
1 5 1 o 42.265 37.470 180.00 1.14788 0.23
2 0 5 o 3.908 3.218 180.00 1.14432 0.00
7 1 -3 o 0.004 0.003 0.00 1.14424 0.00
4 2 -7 o 2.301 1.891 180.00 1.14247 0.01
6 2 -6 o 5.777 4.747 180.00 1.14248 0.02
7 1 -5 o 10.945 8.987 0.00 1.14239 0.04
5 3 0 o 7.972 6.269 180.00 1.14083 0.02
3 1 4 o 3.496 2.707 180.00 1.14049 0.01
3 2 -7 o 67.510 49.735 0.00 1.13954 0.27
6 0 -7 o 248.056 179.080 0.00 1.13916 0.44
2 5 -2 o 62.203 44.216 180.00 1.13888 0.38
6 1 0 o 7.772 5.269 180.00 1.13786 0.02
0 5 2 o 55.331 36.742 0.00 1.13722 0.30
4 4 0 o 3.018 2.140 180.00 1.13391 0.01
2 5 0 o 1.668 1.460 180.00 1.13156 0.01
6 3 -3 o 59.232 56.622 180.00 1.13074 0.25
4 1 3 o 84.478 82.350 180.00 1.13056 0.13
3 4 -5 o 48.444 49.296 0.00 1.13017 0.23
2 4 -5 o 84.776 108.734 180.00 1.12814 0.38
6 3 -4 o 33.712 43.783 180.00 1.12805 0.15
0 2 6 o 71.939 98.536 0.00 1.12765 0.16
2 1 5 o 2.382 6.094 0.00 1.12395 0.00
3 3 3 o 6.485 11.007 180.00 1.11990 0.01
6 1 -7 o 0.229 0.315 180.00 1.11906 0.00
5 2 -7 o 2.274 1.777 0.00 1.11556 0.01
2 3 4 o 72.927 55.981 180.00 1.11532 0.15
5 3 -6 o 3.440 2.485 180.00 1.11402 0.01
5 4 -3 o 45.741 41.626 180.00 1.10844 0.21
2 2 -7 o 9.396 9.211 0.00 1.10744 0.03
6 3 -2 o 29.491 29.446 180.00 1.10711 0.10
1 1 -7 o 0.222 0.227 0.00 1.10549 0.00
7 1 -2 o 0.275 0.279 0.00 1.10515 0.00
1 3 -6 o 9.618 9.605 0.00 1.10479 0.03
4 4 -5 o 23.181 21.532 180.00 1.10334 0.10
2 5 -3 o 32.967 30.136 180.00 1.10283 0.18
7 1 -6 o 4.762 4.358 180.00 1.10182 0.02
1 5 -3 o 5.474 5.024 180.00 1.10170 0.03
2 4 3 o 3.665 3.601 0.00 1.10047 0.01
5 4 -2 o 0.187 0.191 0.00 1.10003 0.00
6 3 -5 o 10.891 11.687 180.00 1.09958 0.04
4 3 2 o 0.622 0.670 180.00 1.09954 0.00
1 4 -5 o 14.105 18.391 0.00 1.09771 0.05
7 2 -4 o 9.271 12.203 180.00 1.09760 0.04
3 5 -2 o 35.381 50.201 180.00 1.09639 0.19
5 1 2 o 2.224 3.174 0.00 1.09614 0.00
3 4 2 o 14.487 17.840 180.00 1.09408 0.04
1 5 2 o 43.688 48.134 180.00 1.09343 0.18
5 4 -4 o 6.234 5.004 180.00 1.09182 0.03
3 5 -1 o 0.384 0.289 180.00 1.09148 0.00
2 5 1 o 0.689 0.390 180.00 1.08966 0.00
1 3 5 o 0.315 0.158 180.00 1.08670 0.00
7 2 -3 o 17.756 9.185 180.00 1.08621 0.06
7 2 -5 o 4.674 2.881 180.00 1.08463 0.02
4 0 -8 o 66.537 43.197 0.00 1.08429 0.12
1 1 6 o 0.407 0.269 180.00 1.08417 0.00
1 4 4 o 7.381 5.890 180.00 1.08312 0.02
3 2 4 o 40.860 33.359 180.00 1.08300 0.06
6 2 0 o 0.842 1.012 180.00 1.08075 0.00
3 5 -3 o 7.102 12.438 180.00 1.07715 0.04
4 2 3 o 0.195 33.964 180.00 1.07449 0.00
0 5 3 o 0.000 4.769 0.00 1.07400 0.00
2 2 5 o 0.462 6.040 0.00 1.06880 0.00
5 4 -1 o 2.824 5.500 0.00 1.06820 0.01
4 1 -8 o 21.038 14.113 0.00 1.06691 0.07
4 4 1 o 0.343 0.132 0.00 1.06512 0.00
6 2 -7 o 54.492 19.359 180.00 1.06460 0.18
3 5 0 o 0.621 0.199 180.00 1.06336 0.00
6 3 -1 o 29.763 9.780 180.00 1.06173 0.08
6 0 1 o 3.819 1.685 0.00 1.05963 0.00
5 3 1 o 1.018 0.685 180.00 1.05804 0.00
5 1 -8 o 18.994 17.426 0.00 1.05723 0.07
5 4 -5 o 0.000 13.843 0.00 1.05330 0.00
1 2 -7 o 0.000 42.043 0.00 1.05290 0.00
7 2 -2 o 0.000 19.647 180.00 1.05260 0.00
3 1 -8 o 0.040 0.404 180.00 1.05194 0.00
4 3 -7 o 3.027 6.936 180.00 1.05072 0.01
6 3 -6 o 5.356 12.302 180.00 1.05072 0.02
7 2 -6 o 0.692 0.879 180.00 1.04972 0.00
3 3 -7 o 1.421 1.160 180.00 1.04844 0.00
2 5 -4 o 8.837 6.300 0.00 1.04776 0.04
7 1 -1 o 13.392 9.295 180.00 1.04758 0.03
0 4 5 o 68.659 42.787 180.00 1.04517 0.18
5 2 2 o 16.900 10.620 180.00 1.04480 0.03
0 0 7 o 45.800 30.293 180.00 1.04352 0.04
6 1 1 o 0.259 0.173 180.00 1.04339 0.00
7 1 -7 o 9.458 6.323 0.00 1.04333 0.03
6 0 -8 o 162.769 154.727 0.00 1.04016 0.25
3 4 -6 o 1.437 1.533 180.00 1.03956 0.01
0 3 6 o 6.339 7.339 180.00 1.03915 0.01
3 5 -4 o 0.010 0.014 0.00 1.03732 0.00
1 5 -4 o 0.097 0.110 0.00 1.03481 0.00
4 5 -2 o 0.278 0.311 0.00 1.03464 0.00
1 2 6 o 20.848 22.874 180.00 1.03442 0.03
2 5 2 o 0.165 0.172 180.00 1.03092 0.00
2 0 -8 o 0.421 0.437 180.00 1.03016 0.00
8 0 -5 o 33.336 34.618 0.00 1.03017 0.06
4 4 -6 o 23.129 23.929 180.00 1.02998 0.09
4 5 -3 o 9.617 9.924 180.00 1.02983 0.04
5 3 -7 o 13.633 14.012 180.00 1.02967 0.05
8 0 -4 o 36.871 37.718 0.00 1.02948 0.06
0 1 7 o 22.986 22.506 180.00 1.02800 0.04
2 4 -6 o 23.197 22.069 180.00 1.02630 0.08
1 5 3 o 0.030 0.029 0.00 1.02525 0.00
6 1 -8 o 2.596 2.550 180.00 1.02479 0.01
