#------------------------------------------------------------------------------
#$Date: 2019-12-26 20:22:44 +0200 (Thu, 26 Dec 2019) $
#$Revision: 246051 $
#$URL: file:///home/coder/svn-repositories/cod/cif/2/30/06/2300658.cif $
#------------------------------------------------------------------------------
#
# This file is available in the Crystallography Open Database (COD),
# http://www.crystallography.net/. The original data for this entry
# were provided by IUCr Journals, http://journals.iucr.org/.
#
# The file may be used within the scientific community so long as
# proper attribution is given to the journal article from which the
# data were obtained.
#
data_2300658
loop_
_publ_author_name
'Likhacheva, Anna Y.'
'Rashchenko, Sergey V.'
'Litasov, Konstantin D.'
_publ_section_title
;
 High-pressure structural properties of naphthalene up to 6&#x2005;GPa
;
_journal_coeditor_code           kk5159
_journal_issue                   3
_journal_name_full               'Journal of Applied Crystallography'
_journal_page_first              984
_journal_paper_doi               10.1107/S1600576714005937
_journal_volume                  47
_journal_year                    2014
_chemical_formula_sum            'C5 H4'
_chemical_formula_weight         64.09
_space_group_IT_number           14
_space_group_name_Hall           '-P 2yab'
_space_group_name_H-M_alt        'P 1 21/a 1'
_symmetry_cell_setting           monoclinic
_symmetry_space_group_name_H-M   'P 1 21/a 1'
_audit_creation_date             2013-04-23T16:12
_audit_creation_method           'from EXP file using GSAS2CIF'
_audit_update_record
' 2013-04-23T16:12  Initial CIF as created by GSAS2CIF'
_cell_angle_alpha                90.0
_cell_angle_beta                 123.777(7)
_cell_angle_gamma                90.0
_cell_formula_units_Z            4
_cell_length_a                   7.9917(8)
_cell_length_b                   5.8564(5)
_cell_length_c                   8.5502(19)
_cell_volume                     332.63(9)
_computing_structure_refinement  GSAS
_diffrn_radiation_polarisn_ratio 0.95
_diffrn_radiation_probe          x-ray
_diffrn_radiation_wavelength     0.3685
_exptl_absorpt_correction_T_max  1.00000
_exptl_absorpt_correction_T_min  1.00000
_exptl_absorpt_process_details
;   GSAS Absorption/surface roughness correction: function number 0
 No correction is applied.
;
_pd_calc_method                  'Rietveld Refinement'
_pd_instr_location               ' ?'
_pd_meas_2theta_range_inc        0.0141
_pd_meas_2theta_range_max        34.3545
_pd_meas_2theta_range_min        0.021
_pd_meas_number_of_points        2436
_pd_phase_name                   naphthalene
_pd_prep_pressure                0.78
_pd_proc_2theta_range_inc        0.0141
_pd_proc_2theta_range_max        34.3545
_pd_proc_2theta_range_min        0.021
_pd_proc_info_datetime           2013-04-23T16:12:24
_pd_proc_info_excluded_regions   ' ?'
_pd_proc_ls_background_function
;   GSAS Background function number 1 with 36 terms.
 Shifted Chebyshev function of 1st kind
      1:    3047.45     2:   -401.566     3:    80.2392     4:   -277.165    
      5:    160.984     6:   -39.1566     7:   -13.8834     8:    18.2653    
      9:   -19.9259    10:    11.0505    11:   -25.3066    12:    11.4536    
     13:   0.333504    14:   -3.23489    15:   -3.31585    16:    1.03894    
     17:   2.432060E-0218:    10.0706    19:   -8.57219    20:    1.18380    
     21:   -1.99669    22:   -2.97458    23:    4.93493    24:  -0.489240    
     25:   -2.95256    26:    3.55344    27:   -5.45556    28:    2.72293    
     29:   -4.25447    30:  -0.136325    31:    7.52225    32:   -3.62390    
     33:   -1.02076    34:   -4.08472    35:   0.486988    36:  -0.245009    
;
_pd_proc_ls_peak_cutoff          0.01000
_pd_proc_ls_pref_orient_corr
;   March-Dollase
 AXIS  1 Ratio=     1.501 Frac     0.651  h= 0.000  k= 0.000  l= 1.000
 AXIS  2 Ratio=     1.461 Frac     0.349  h= 1.000  k= 0.000  l= 0.000
 Prefered orientation correction range: Min=   0.38583, Max=   1.81357
;
_pd_proc_ls_profile_function
;
 CW Profile function number 2 with  18 terms
 Profile coefficients for Simpson's rule integration of pseudovoigt function
 C.J. Howard (1982). J. Appl. Cryst.,15,615-620.
 P. Thompson, D.E. Cox & J.B. Hastings (1987). J. Appl. Cryst.,20,79-83.
 #1(GU)   = 1813.920 #2(GV)   = -155.216 #3(GW)   =    6.882
 #4(LX)   =    1.697 #5(LY)   =   30.086 #6(trns) =    0.000
 #7(asym) =   0.0217 #8(shft) =   0.0000 #9(GP)   =    0.000
 #10(stec)=     0.00 #11(ptec)=     0.00 #12(sfec)=     0.00
 #13(L11) =    0.000 #14(L22) =    0.000 #15(L33) =    0.000
 #16(L12) =    0.000 #17(L13) =    0.000 #18(L23) =    0.000
 Peak tails are ignored  where the intensity is below 0.0100 times the peak
   Aniso. broadening axis   0.0   0.0   1.0
;
_pd_proc_ls_prof_R_factor        0.0060
_pd_proc_ls_prof_wR_expected     0.0180
_pd_proc_ls_prof_wR_factor       0.0087
_pd_proc_number_of_points        2436
_pd_spec_mounting                ' ?'
_refine_ls_goodness_of_fit_all   0.49
_refine_ls_matrix_type           full
_refine_ls_number_parameters     31
_refine_ls_number_restraints     10
_refine_ls_R_Fsqd_factor         0.17068
_refine_ls_shift/su_max          3.14
_refine_ls_shift/su_mean         0.83
_reflns_d_resolution_high        1.104
_reflns_d_resolution_low         7.107
_reflns_limit_h_max              7
_reflns_limit_h_min              0
_reflns_limit_k_max              5
_reflns_limit_k_min              0
_reflns_limit_l_max              6
_reflns_limit_l_min              -8
_reflns_number_total             257
_cod_data_source_file            kk5159sup3.cif
_cod_data_source_block           REF1_publ_078
_cod_depositor_comments
;
The following automatic conversions were performed:

data item '_geom_angle_publ_flag' value 'N' was changed to 'n' in
accordance with the
/home/saulius/struct/COD-crude-data/automatic-downloads/DataCite-retrospective/IUCr/depositions/lib/dictionaries/cif_core.dic
dictionary named 'cif_core.dic' version 2.4.2 last updated on
2011-04-26 (15 times).

data item '_geom_bond_publ_flag' value 'N' was changed to 'n' in
accordance with the
/home/saulius/struct/COD-crude-data/automatic-downloads/DataCite-retrospective/IUCr/depositions/lib/dictionaries/cif_core.dic
dictionary named 'cif_core.dic' version 2.4.2 last updated on
2011-04-26 (35 times).

Automatic conversion script
Id: cif_fix_values 7556 2019-12-06 15:28:31Z antanas 
;
_cod_original_cell_volume        332.62(7)
_cod_database_code               2300658
_gsas_exptl_extinct_corr_t_min   1.00000
_gsas_exptl_extinct_corr_t_max   1.00000
loop_
_symmetry_equiv_pos_site_id
_symmetry_equiv_pos_as_xyz
1 +x,+y,+z
2 -x+1/2,+y+1/2,-z
-1 -x,-y,-z
-2 +x+1/2,-y+1/2,+z
loop_
_atom_site_type_symbol
_atom_site_label
_atom_site_fract_x
_atom_site_fract_y
_atom_site_fract_z
_atom_site_occupancy
_atom_site_thermal_displace_type
_atom_site_U_iso_or_equiv
_atom_site_symmetry_multiplicity
C C1 0.0872(7) 0.0194(7) 0.3318(5) 1.0 Uiso 0.05 4
C C2 0.1147(8) 0.1652(7) 0.2227(4) 1.0 Uiso 0.04 4
C C3 0.0476(6) 0.1048(4) 0.0355(4) 1.0 Uiso 0.03 4
C C4 0.0758(7) 0.2527(7) -0.0798(4) 1.0 Uiso 0.03 4
C C5 -0.0111(8) -0.1909(7) 0.2590(4) 1.0 Uiso 0.04 4
H H1 0.1354(28) 0.0637(32) 0.4539(7) 1.0 Uiso 0.06 4
H H2 0.1767(24) 0.3029(10) 0.2772(29) 1.0 Uiso 0.042 4
H H4 0.1379(22) 0.3918(10) -0.0301(34) 1.0 Uiso 0.035 4
H H5 -0.0299(12) -0.2899(15) 0.3325(8) 1.0 Uiso 0.042 4
loop_
_atom_type_symbol
_atom_type_number_in_cell
_atom_type_scat_dispersion_real
_atom_type_scat_dispersion_imag
_atom_type_scat_Cromer_Mann_a1
_atom_type_scat_Cromer_Mann_a2
_atom_type_scat_Cromer_Mann_a3
_atom_type_scat_Cromer_Mann_a4
_atom_type_scat_Cromer_Mann_b1
_atom_type_scat_Cromer_Mann_b2
_atom_type_scat_Cromer_Mann_b3
_atom_type_scat_Cromer_Mann_b4
_atom_type_scat_Cromer_Mann_c
_atom_type_scat_source
C 20.0 0.000 0.000 2.31000 20.8439 1.02000 10.2075 1.58860 0.56870 0.86500
51.6512 0.21560 International_Tables_Vol_C
H 16.0 0.000 0.000 0.49300 10.5109 0.32291 26.1257 0.14019 3.14236 0.04081
57.7997 0.00304 International_Tables_Vol_C
loop_
_geom_angle_atom_site_label_1
_geom_angle_atom_site_label_2
_geom_angle_atom_site_label_3
_geom_angle
_geom_angle_site_symmetry_1
_geom_angle_site_symmetry_3
_geom_angle_publ_flag
C2 C1 C5 120.4(4) 1_555 1_555 n
C2 C1 H1 118.0(14) 1_555 1_555 n
C5 C1 H1 121.6(14) 1_555 1_555 n
C1 C2 C3 120.60(35) 1_555 1_555 n
C1 C2 H2 116.4(17) 1_555 1_555 n
C3 C2 H2 123.0(18) 1_555 1_555 n
C2 C3 C3 118.8(4) 1_555 -1_555 n
C2 C3 C4 121.54(25) 1_555 1_555 n
C3 C3 C4 119.6(4) -1_555 1_555 n
C3 C4 C5 120.6(4) 1_555 -1_555 n
C3 C4 H4 118.0(20) 1_555 1_555 n
C5 C4 H4 121.4(20) -1_555 1_555 n
C1 C5 C4 119.9(4) 1_555 -1_555 n
C1 C5 H5 120.6(6) 1_555 1_555 n
C4 C5 H5 119.5(6) -1_555 1_555 n
loop_
_geom_bond_atom_site_label_1
_geom_bond_atom_site_label_2
_geom_bond_distance
_geom_bond_site_symmetry_2
_geom_bond_publ_flag
C1 C2 1.370(4) 1_555 n
C1 C5 1.407(4) 1_555 n
C1 H1 0.926(5) 1_555 n
C1 H2 1.964(17) 1_555 n
C1 H5 2.040(8) 1_555 n
C2 C1 1.370(4) 1_555 n
C2 C3 1.4219(35) 1_555 n
C2 H1 1.981(14) 1_555 n
C2 H2 0.925(5) 1_555 n
C3 C2 1.4219(35) 1_555 n
C3 C3 1.3927(35) -1_555 n
C3 C4 1.421(4) 1_555 n
C3 H2 2.076(17) 1_555 n
C3 H4 2.027(19) 1_555 n
C4 C3 1.421(4) 1_555 n
C4 C5 1.366(4) -1_555 n
C4 H4 0.925(5) 1_555 n
C4 H5 1.992(7) -1_555 n
C5 C1 1.407(4) 1_555 n
C5 C4 1.366(4) -1_555 n
C5 H1 2.050(14) 1_555 n
C5 H4 2.009(20) -1_555 n
C5 H5 0.927(6) 1_555 n
H1 C1 0.926(5) 1_555 n
H1 C2 1.981(14) 1_555 n
H1 C5 2.050(14) 1_555 n
H2 C1 1.964(17) 1_555 n
H2 C2 0.925(5) 1_555 n
H2 C3 2.076(17) 1_555 n
H4 C3 2.027(19) 1_555 n
H4 C4 0.925(5) 1_555 n
H4 C5 2.009(20) -1_555 n
H5 C1 2.040(8) 1_555 n
H5 C4 1.992(7) -1_555 n
H5 C5 0.927(6) 1_555 n
loop_
_pd_meas_counts_total
_pd_proc_ls_weight
_pd_proc_intensity_bkg_calc
_pd_calc_intensity_total
0.0 . . .
0.0 . . .
0.0 . . .
0.0 . . .
0.0 . . .
0.0 . . .
0.0 . . .
0.0 . . .
0.0 . . .
0.0 . . .
0.0 . . .
0.0 . . .
0.0 . . .
0.0 . . .
0.0 . . .
0.0 . . .
0.0 . . .
0.0 . . .
0.0 . . .
0.0 . . .
0.0 . . .
0.0 . . .
0.0 . . .
0.0 . . .
0.0 . . .
0.0 . . .
0.0 . . .
0.0 . . .
0.0 . . .
0.0 . . .
0.0 . . .
0.0 . . .
0.0 . . .
0.0 . . .
0.0 . . .
0.0 . . .
0.0 . . .
0.0 . . .
0.0 . . .
0.0 . . .
0.0 . . .
0.0 . . .
0.0 . . .
0.0 . . .
0.0 . . .
0.0 . . .
0.0 . . .
0.0 . . .
0.0 . . .
0.0 . . .
0.0 . . .
0.0 . . .
0.0 . . .
0.0 . . .
0.0 . . .
0.0 . . .
0.0 . . .
0.0 . . .
0.0 . . .
0.0 . . .
0.0 . . .
0.0 . . .
0.0 . . .
0.0 . . .
1290.0 . . .
1280.0 . . .
1270.0 . . .
1380.0 . . .
1390.0 . . .
1360.0 . . .
1350.0 . . .
1170.0 . . .
1050.0 . . .
1030.0 . . .
1090.0 . . .
1130.0 . . .
1140.0 . . .
1170.0 . . .
1160.0 . . .
1140.0 . . .
1090.0 . . .
1040.0 . . .
1080.0 . . .
1140.0 . . .
1130.0 . . .
1130.0 . . .
1110.0 . . .
1110.0 . . .
1090.0 . . .
1040.0 . . .
1020.0 . . .
999.0 . . .
997.0 . . .
973.0 . . .
979.0 . . .
1010.0 . . .
1020.0 . . .
1030.0 . . .
1000.0 . . .
985.0 . . .
995.0 . . .
1000.0 . . .
998.0 . . .
1030.0 . . .
1080.0 . . .
1150.0 . . .
1210.0 . . .
1260.0 . . .
1370.0 . . .
1410.0 . . .
1480.0 . . .
1530.0 . . .
1590.0 . . .
1690.0 . . .
1810.0 . . .
1870.0 . . .
1940.0 . . .
2000.0 . . .
1990.0 . . .
2050.0 . . .
2050.0 . . .
2030.0 . . .
2050.0 . . .
2070.0 . . .
2110.0 . . .
2140.0 . . .
2180.0 . . .
2210.0 . . .
2220.0 . . .
2250.0 . . .
2280.0 . . .
2330.0 . . .
2370.0 . . .
2420.0 . . .
2480.0 . . .
2510.0 . . .
2560.0 . . .
2620.0 . . .
2660.0 . . .
2700.0 . . .
2700.0 . . .
2690.0 . . .
2680.0 . . .
2690.0 . . .
2720.0 . . .
2770.0 . . .
2810.0 . . .
2840.0 . . .
2870.0 . . .
2930.0 . . .
3010.0 . . .
3060.0 . . .
3110.0 . . .
3180.0 . . .
3230.0 . . .
3280.0 . . .
3350.0 . . .
3410.0 . . .
3490.0 . . .
3540.0 . . .
3560.0 . . .
3590.0 . . .
3610.0 . . .
3580.0 . . .
3590.0 . . .
3640.0 . . .
3660.0 . . .
3680.0 . . .
3700.0 . . .
3760.0 . . .
3770.0 . . .
3760.0 . . .
3780.0 . . .
3740.0 . . .
3760.0 . . .
3800.0 . . .
3830.0 . . .
3830.0 . . .
3830.0 . . .
3860.0 . . .
3870.0 . . .
3860.0 . . .
3850.0 . . .
3850.0 . . .
3910.0 . . .
3950.0 . . .
3940.0 . . .
3960.0 . . .
3960.0 . . .
3930.0 . . .
3920.0 . . .
3910.0 . . .
3900.0 . . .
3900.0 . . .
3890.0 . . .
3910.0 0.0002558 3888.62817 3897.33472
3910.0 0.0002558 3894.22583 3904.27075
3920.0 0.0002551 3901.90820 3913.62158
3930.0 0.0002545 3910.00879 3923.83740
3930.0 0.0002545 3917.37402 3933.93701
3950.0 0.0002532 3923.26318 3943.44409
3940.0 0.0002538 3927.24390 3952.37085
3910.0 0.0002558 3929.12354 3961.47217
3910.0 0.0002558 3928.88379 3973.48047
3940.0 0.0002538 3926.63037 3997.14697
4030.0 0.0002481 3922.55054 4054.66895
4200.0 0.0002381 3916.88550 4183.14844
4500.0 0.0002222 3909.89746 4408.61914
4840.0 0.0002066 3901.85693 4688.01025
4930.0 0.0002028 3893.02686 4856.02734
4710.0 0.0002123 3883.64966 4741.42480
4390.0 0.0002278 3873.94458 4453.30029
4130.0 0.0002421 3864.10229 4186.30859
3950.0 0.0002532 3854.27856 4015.31592
3870.0 0.0002584 3844.60132 3927.54541
3830.0 0.0002611 3835.16675 3885.07886
3850.0 0.0002597 3826.04248 3861.13916
3870.0 0.0002584 3817.26685 3844.14355
3850.0 0.0002597 3808.86206 3830.28296
3830.0 0.0002611 3800.82056 3818.30444
3820.0 0.0002618 3793.12476 3807.65625
3820.0 0.0002618 3785.74023 3798.00171
3800.0 0.0002632 3778.62427 3789.10425
3800.0 0.0002632 3771.72339 3780.78101
3800.0 0.0002632 3764.98145 3772.88599
3790.0 0.0002639 3758.34058 3765.29761
3760.0 0.0002660 3751.73950 3757.90894
3770.0 0.0002653 3745.11914 3750.62695
3750.0 0.0002667 3738.42700 3738.42700
3750.0 0.0002667 3731.60962 3731.60962
3710.0 0.0002695 3724.62183 3724.62183
3670.0 0.0002725 3717.42554 3717.42554
3690.0 0.0002710 3709.98877 3709.98877
3710.0 0.0002695 3702.28247 3702.28247
3740.0 0.0002674 3694.29126 3694.29126
3710.0 0.0002695 3686.00220 3686.00220
3680.0 0.0002717 3677.40967 3677.40967
3660.0 0.0002732 3668.51685 3668.51685
3620.0 0.0002762 3659.33228 3659.33228
3640.0 0.0002747 3649.86621 3649.86621
3610.0 0.0002770 3640.13989 3640.13989
3610.0 0.0002770 3630.17383 3630.17383
3600.0 0.0002778 3619.99707 3619.99707
3590.0 0.0002786 3609.63574 3609.63574
3580.0 0.0002793 3599.12744 3599.12744
3560.0 0.0002809 3588.49927 3588.49927
3570.0 0.0002801 3577.79053 3577.79053
3540.0 0.0002825 3567.03613 3567.03613
3550.0 0.0002817 3556.27002 3556.27002
3560.0 0.0002809 3545.52808 3545.52808
3540.0 0.0002825 3534.84277 3534.84277
3570.0 0.0002801 3524.24902 3524.24902
3560.0 0.0002809 3513.77490 3513.77490
3530.0 0.0002833 3503.45020 3503.45020
3520.0 0.0002841 3493.29980 3493.29980
3490.0 0.0002865 3483.34595 3483.34595
3460.0 0.0002890 3473.61084 3473.61084
3460.0 0.0002890 3464.11060 3464.11060
3470.0 0.0002882 3454.85962 3454.85962
3450.0 0.0002899 3445.86816 3445.86816
3430.0 0.0002915 3437.14404 3437.14404
3430.0 0.0002915 3428.69287 3428.69287
3410.0 0.0002933 3420.51636 3420.51636
3390.0 0.0002950 3412.61304 3412.61304
3390.0 0.0002950 3404.97852 3404.97852
3410.0 0.0002933 3397.60718 3397.60718
3400.0 0.0002941 3390.49023 3390.49023
3390.0 0.0002950 3383.61523 3383.61523
3400.0 0.0002941 3376.96973 3376.96973
3390.0 0.0002950 3370.54028 3370.54028
3400.0 0.0002941 3364.30859 3364.30859
3390.0 0.0002950 3358.25806 3358.25806
3360.0 0.0002976 3352.36914 3352.36914
3340.0 0.0002994 3346.62280 3346.62280
3330.0 0.0003003 3340.99805 3340.99805
3320.0 0.0003012 3335.47412 3335.47412
3320.0 0.0003012 3330.03149 3330.03149
3330.0 0.0003003 3324.64893 3324.64893
3350.0 0.0002985 3319.30542 3319.30542
3330.0 0.0003003 3313.98120 3313.98120
3290.0 0.0003040 3308.65698 3308.65698
3260.0 0.0003067 3303.31396 3303.31396
3250.0 0.0003077 3297.93579 3297.93579
3250.0 0.0003077 3292.50366 3292.50366
3270.0 0.0003058 3287.00366 3287.00366
3270.0 0.0003058 3281.42114 3281.42114
3280.0 0.0003049 3275.74438 3275.74438
3290.0 0.0003040 3269.96045 3269.96045
3250.0 0.0003077 3264.05957 3264.05957
3230.0 0.0003096 3258.03564 3258.03564
3240.0 0.0003086 3251.87964 3251.87964
3230.0 0.0003096 3245.58716 3245.58716
3220.0 0.0003106 3239.15503 3239.15503
3230.0 0.0003096 3232.58008 3232.58008
3220.0 0.0003106 3225.86450 3225.86450
3210.0 0.0003115 3219.00659 3219.00659
3220.0 0.0003106 3212.01025 3212.01025
3230.0 0.0003096 3204.87915 3204.87915
3220.0 0.0003106 3197.61890 3197.61890
3180.0 0.0003145 3190.23511 3190.23511
3160.0 0.0003165 3182.73511 3182.73511
3160.0 0.0003165 3175.12988 3175.12988
3170.0 0.0003155 3167.42871 3167.42871
3170.0 0.0003155 3159.63892 3159.63892
3180.0 0.0003145 3151.77734 3151.77734
3160.0 0.0003165 3143.85205 3143.85205
3140.0 0.0003185 3135.87866 3135.87866
3130.0 0.0003195 3127.86987 3127.86987
3120.0 0.0003205 3119.83936 3119.83936
3110.0 0.0003215 3111.80054 3118.33960
3130.0 0.0003195 3103.76953 3111.09570
3140.0 0.0003185 3095.76123 3104.02441
3110.0 0.0003215 3087.78760 3097.54468
3100.0 0.0003226 3079.86646 3091.04053
3120.0 0.0003205 3072.00952 3084.93066
3130.0 0.0003195 3064.23389 3079.34106
3110.0 0.0003215 3056.55005 3074.44141
3070.0 0.0003257 3048.97534 3070.48438
3070.0 0.0003257 3041.52173 3067.84985
3090.0 0.0003236 3034.20117 3067.18237
3120.0 0.0003205 3027.02490 3069.87915
3140.0 0.0003185 3020.00781 3099.86694
3180.0 0.0003145 3013.15723 3130.93579
3280.0 0.0003049 3006.48560 3206.95630
3470.0 0.0002882 3000.00269 3364.64771
3730.0 0.0002681 2993.71313 3618.52026
3910.0 0.0002558 2987.62988 3898.76343
3870.0 0.0002584 2981.75781 4006.37207
3700.0 0.0002703 2976.10303 3834.80103
3510.0 0.0002849 2970.67188 3569.09326
3320.0 0.0003012 2965.46777 3359.17603
3170.0 0.0003155 2960.49414 3233.45313
3090.0 0.0003236 2955.75537 3177.26733
3090.0 0.0003236 2951.25098 3171.93286
3140.0 0.0003185 2946.98486 3219.33960
3260.0 0.0003067 2942.95557 3363.06982
3590.0 0.0002786 2939.16431 3699.33325
4310.0 0.0002320 2935.60791 4329.38818
5300.0 0.0001887 2932.28589 5211.01270
5940.0 0.0001684 2929.19385 5944.23682
5780.0 0.0001730 2926.33008 5855.48291
5020.0 0.0001992 2923.68994 5037.97119
4200.0 0.0002381 2921.26807 4172.46631
3610.0 0.0002770 2919.06030 3583.58105
3280.0 0.0003049 2917.06006 3273.72827
3120.0 0.0003205 2915.26147 3125.94312
3050.0 0.0003279 2913.65869 3060.03271
3010.0 0.0003322 2912.24170 3023.20776
3000.0 0.0003333 2911.00537 2998.49487
3000.0 0.0003333 2909.94141 2980.96167
3010.0 0.0003322 2909.04028 2967.80273
3010.0 0.0003322 2908.29492 2957.68896
2990.0 0.0003344 2907.69580 2949.77588
2960.0 0.0003378 2907.23486 2943.50073
2930.0 0.0003413 2906.90210 2938.47241
2950.0 0.0003390 2906.68970 2934.41528
2970.0 0.0003367 2906.58716 2931.12622
2970.0 0.0003367 2906.58618 2939.55005
2970.0 0.0003367 2906.67725 2919.05835
2970.0 0.0003367 2906.85156 2920.75562
2970.0 0.0003367 2907.09937 2922.82349
2950.0 0.0003390 2907.41333 2925.33643
2970.0 0.0003367 2907.78394 2928.39673
2950.0 0.0003390 2908.20068 2932.14990
2940.0 0.0003401 2908.65845 2936.81299
2940.0 0.0003401 2909.14771 2942.70117
2940.0 0.0003401 2909.65967 2950.29663
2960.0 0.0003378 2910.18774 2960.38428
2970.0 0.0003367 2910.72485 2974.45996
2980.0 0.0003356 2911.26318 2996.23828
3030.0 0.0003300 2911.79663 3036.44604
3110.0 0.0003215 2912.31934 3122.59570
3330.0 0.0003003 2912.82446 3305.40649
3740.0 0.0002674 2913.30566 3635.76074
4200.0 0.0002381 2913.75830 4093.34619
4480.0 0.0002232 2914.17944 4481.17432
4410.0 0.0002268 2914.56128 4456.14307
4050.0 0.0002469 2914.90186 4046.28931
3650.0 0.0002740 2915.19751 3597.17578
3330.0 0.0003003 2915.44360 3283.48657
3120.0 0.0003205 2915.63843 3113.86279
3010.0 0.0003322 2915.77759 3034.97339
2960.0 0.0003378 2915.86133 2998.12354
2930.0 0.0003413 2915.88477 2977.99463
2910.0 0.0003436 2915.84839 2964.93262
2890.0 0.0003460 2915.75098 2955.57617
2890.0 0.0003460 2915.59155 2948.53271
2900.0 0.0003448 2915.36792 2943.04956
2920.0 0.0003425 2915.08203 2938.65894
2910.0 0.0003436 2914.73364 2935.04810
2880.0 0.0003472 2914.32178 2932.00244
2880.0 0.0003472 2913.84839 2929.37280
2880.0 0.0003472 2913.31445 2928.96753
2890.0 0.0003460 2912.71948 2927.09790
2890.0 0.0003460 2912.06812 2914.46802
2900.0 0.0003448 2911.35815 2914.07202
2920.0 0.0003425 2910.59473 2913.68750
2920.0 0.0003425 2909.77808 2913.33447
2910.0 0.0003436 2908.91089 2913.04224
2900.0 0.0003448 2907.99512 2912.85083
2920.0 0.0003425 2907.03394 2912.81885
2920.0 0.0003425 2906.02979 2913.03345
2910.0 0.0003436 2904.98608 2914.10083
2910.0 0.0003436 2903.90479 2915.41528
2910.0 0.0003436 2902.78809 2918.07300
2900.0 0.0003448 2901.64063 2923.96704
2910.0 0.0003436 2900.46606 2937.68066
2950.0 0.0003390 2899.26587 2967.16284
3020.0 0.0003311 2898.04321 3019.78613
3110.0 0.0003215 2896.80151 3091.52783
3200.0 0.0003125 2895.54492 3151.24634
3250.0 0.0003077 2894.27637 3146.26367
3210.0 0.0003115 2892.99756 3080.96240
3130.0 0.0003195 2891.71289 3008.64233
3030.0 0.0003300 2890.42480 2958.05957
2950.0 0.0003390 2889.13745 2930.50244
2930.0 0.0003413 2887.85352 2920.26855
2930.0 0.0003413 2886.57422 2921.62085
2930.0 0.0003413 2885.30420 2931.32178
2940.0 0.0003401 2884.04590 2944.78857
2960.0 0.0003378 2882.80054 2951.48242
2960.0 0.0003378 2881.57178 2941.96436
2930.0 0.0003413 2880.36279 2923.71167
2900.0 0.0003448 2879.17480 2907.42432
2890.0 0.0003460 2878.00952 2896.75830
2890.0 0.0003460 2876.87012 2891.11743
2870.0 0.0003484 2875.75830 2888.86084
2870.0 0.0003484 2874.67725 2889.33643
2880.0 0.0003472 2873.62598 2893.73755
2900.0 0.0003448 2872.60767 2903.06030
2920.0 0.0003425 2871.62305 2923.88965
2950.0 0.0003390 2870.67432 2957.09937
2980.0 0.0003356 2869.76221 2980.55688
2980.0 0.0003356 2868.88696 2978.18701
2970.0 0.0003367 2868.05127 2952.15039
2930.0 0.0003413 2867.25415 2923.35181
2920.0 0.0003425 2866.49731 2915.63794
2900.0 0.0003448 2865.78125 2905.98853
2900.0 0.0003448 2865.10693 2903.12402
2910.0 0.0003436 2864.47314 2903.78540
2910.0 0.0003436 2863.88135 2907.42725
2900.0 0.0003448 2863.33057 2913.33618
2880.0 0.0003472 2862.82104 2922.44482
2890.0 0.0003460 2862.35303 2936.11011
2930.0 0.0003413 2861.92603 2959.70190
2990.0 0.0003344 2861.54126 3004.73657
3110.0 0.0003215 2861.19458 3090.35107
3270.0 0.0003058 2860.89014 3235.13940
3440.0 0.0002907 2860.62329 3436.77710
3570.0 0.0002801 2860.39526 3644.55298
3680.0 0.0002717 2860.20557 3772.36304
3770.0 0.0002653 2860.05151 3859.88525
3970.0 0.0002519 2859.93335 4049.99414
4260.0 0.0002347 2859.85205 4343.32520
4450.0 0.0002247 2859.80347 4514.24756
4340.0 0.0002304 2859.78735 4313.33984
3980.0 0.0002513 2859.80396 3885.99048
3580.0 0.0002793 2859.85205 3491.83447
3280.0 0.0003049 2859.92944 3230.60254
3120.0 0.0003205 2860.03320 3092.77539
3060.0 0.0003268 2860.16602 3029.27588
3010.0 0.0003322 2860.32373 2994.27051
2980.0 0.0003356 2860.50610 2965.28125
2950.0 0.0003390 2860.71191 2940.62646
2920.0 0.0003425 2860.94141 2922.03955
2900.0 0.0003448 2861.18994 2909.30225
2910.0 0.0003436 2861.45947 2900.76489
2920.0 0.0003425 2861.74756 2894.89185
2920.0 0.0003425 2862.05225 2885.56421
2910.0 0.0003436 2862.37329 2882.76514
2900.0 0.0003448 2862.70825 2880.59375
2890.0 0.0003460 2863.05835 2878.89185
2880.0 0.0003472 2863.42065 2864.40649
2880.0 0.0003472 2863.79468 2864.69409
2880.0 0.0003472 2864.17896 2865.10059
2870.0 0.0003484 2864.57324 2865.48755
2860.0 0.0003497 2864.97559 2865.92529
2860.0 0.0003497 2865.38623 2866.43970
2880.0 0.0003472 2865.80273 2867.09961
2890.0 0.0003460 2866.22559 2867.74219
2880.0 0.0003472 2866.65454 2869.25952
2870.0 0.0003484 2867.08789 2871.47119
2880.0 0.0003472 2867.52563 2874.20703
2870.0 0.0003484 2867.96655 2877.24146
2870.0 0.0003484 2868.41016 2877.78638
2870.0 0.0003484 2868.85474 2876.52881
2870.0 0.0003484 2869.30298 2875.01172
2880.0 0.0003472 2869.75146 2874.25146
2870.0 0.0003484 2870.20239 2874.61011
2880.0 0.0003472 2870.65308 2876.08716
2870.0 0.0003484 2871.10522 2881.18701
2850.0 0.000351 2871.55786 2883.69531
2850.0 0.000351 2872.01050 2884.83594
2850.0 0.000351 2872.46460 2884.21948
2860.0 0.0003497 2872.91895 2883.08447
2880.0 0.0003472 2873.37451 2882.40918
2890.0 0.0003460 2873.82935 2882.46143
2900.0 0.0003448 2874.28711 2883.15356
2900.0 0.0003448 2874.74414 2884.30615
2900.0 0.0003448 2875.20313 2885.81274
2900.0 0.0003448 2875.66406 2887.66309
2890.0 0.0003460 2876.12744 2889.92480
2880.0 0.0003472 2876.59302 2892.68799
2870.0 0.0003484 2877.06079 2896.46655
2870.0 0.0003484 2877.53271 2902.06738
2900.0 0.0003448 2878.00952 2911.49927
2920.0 0.0003425 2878.48901 2928.36670
2960.0 0.0003378 2878.97412 2957.01367
2990.0 0.0003344 2879.46460 2999.14111
3020.0 0.0003311 2879.96191 3048.22021
3030.0 0.0003300 2880.46582 3083.72900
3000.0 0.0003333 2880.97729 3086.69922
2990.0 0.0003344 2881.49512 3077.49414
3020.0 0.0003311 2882.02393 3096.52026
3120.0 0.0003205 2882.56104 3171.84326
3290.0 0.0003040 2883.10913 3307.83521
3510.0 0.0002849 2883.66699 3468.56226
3650.0 0.0002740 2884.23608 3559.63428
3660.0 0.0002732 2884.81885 3495.39941
3520.0 0.0002841 2885.41284 3332.08154
3320.0 0.0003012 2886.02100 3170.05176
3150.0 0.0003175 2886.64380 3053.54639
3040.0 0.0003289 2887.28027 2984.95557
2960.0 0.0003378 2887.93237 2949.59619
2920.0 0.0003425 2888.59985 2931.91724
2910.0 0.0003436 2889.28540 2923.10864
2870.0 0.0003484 2889.98657 2917.30786
2860.0 0.0003497 2890.70532 2913.42163
2870.0 0.0003484 2891.44336 2910.72021
2870.0 0.0003484 2892.19922 2908.84058
2880.0 0.0003472 2892.97412 2908.00342
2880.0 0.0003472 2893.76782 2907.22290
2890.0 0.0003460 2894.58057 2906.80615
2890.0 0.0003460 2895.41479 2906.68115
2900.0 0.0003448 2896.26855 2906.78467
2900.0 0.0003448 2897.14282 2907.08521
2920.0 0.0003425 2898.03882 2907.57349
2920.0 0.0003425 2898.95386 2907.53979
2900.0 0.0003448 2899.89063 2908.44678
2890.0 0.0003460 2900.84741 2909.54175
2890.0 0.0003460 2901.82642 2910.84692
2890.0 0.0003460 2902.82617 2912.39673
2890.0 0.0003460 2903.84570 2914.25659
2900.0 0.0003448 2904.88745 2916.55811
2890.0 0.0003460 2905.94800 2916.72681
2910.0 0.0003436 2907.03052 2921.33057
2950.0 0.0003390 2908.13208 2928.72046
2970.0 0.0003367 2909.25269 2941.48608
2990.0 0.0003344 2910.39404 2963.10547
3020.0 0.0003311 2911.55298 2996.01514
3060.0 0.0003268 2912.73071 3037.83276
3090.0 0.0003236 2913.92773 3077.73682
3120.0 0.0003205 2915.14038 3096.15820
3110.0 0.0003215 2916.37109 3081.99194
3080.0 0.0003247 2917.61743 3053.97266
3060.0 0.0003268 2918.87988 3034.98193
3050.0 0.0003279 2920.15576 3032.44971
3080.0 0.0003247 2921.44629 3039.09521
3070.0 0.0003257 2922.75098 3037.58398
3030.0 0.0003300 2924.06665 3019.04199
3000.0 0.0003333 2925.39526 2993.32788
2970.0 0.0003367 2926.73462 2970.98584
2960.0 0.0003378 2928.08374 2955.79077
2960.0 0.0003378 2929.44116 2947.22778
2940.0 0.0003401 2930.80640 2943.13599
2940.0 0.0003401 2932.18066 2941.54907
2940.0 0.0003401 2933.55933 2941.09814
2920.0 0.0003425 2934.94434 2941.22266
2900.0 0.0003448 2936.33301 2941.67383
2900.0 0.0003448 2937.72583 2942.33789
2910.0 0.0003436 2939.11987 2943.53296
2930.0 0.0003413 2940.51514 2944.48926
2920.0 0.0003425 2941.91187 2945.53564
2910.0 0.0003436 2943.30615 2946.65161
2920.0 0.0003425 2944.70044 2947.82568
2930.0 0.0003413 2946.09131 2949.04614
2940.0 0.0003401 2947.47876 2950.30786
2940.0 0.0003401 2948.86182 2951.53467
2960.0 0.0003378 2950.23853 2952.86890
2960.0 0.0003378 2951.60913 2953.50439
2960.0 0.0003378 2952.97266 2954.95508
2960.0 0.0003378 2954.32788 2956.43799
2950.0 0.0003390 2955.67456 2957.96240
2950.0 0.0003390 2957.01196 2959.54370
2950.0 0.0003390 2958.33765 2961.21216
2970.0 0.0003367 2959.65161 2962.58105
2970.0 0.0003367 2960.95435 2964.73096
2960.0 0.0003378 2962.24463 2967.41040
2960.0 0.0003378 2963.52124 2970.94141
2970.0 0.0003367 2964.78394 2975.62451
2960.0 0.0003378 2966.03223 2981.58276
2980.0 0.0003356 2967.26685 2988.58301
3010.0 0.0003322 2968.48511 2996.44507
3010.0 0.0003322 2969.68677 3005.38330
3020.0 0.0003311 2970.87378 3017.60278
3020.0 0.0003311 2972.04370 3033.16260
3020.0 0.0003311 2973.19800 3047.51587
3040.0 0.0003289 2974.33447 3051.54736
3060.0 0.0003268 2975.45508 3041.47876
3070.0 0.0003257 2976.55811 3024.81689
3040.0 0.0003289 2977.64502 3009.41382
3020.0 0.0003311 2978.71387 2998.48315
3010.0 0.0003322 2979.76685 2992.13525
3000.0 0.0003333 2980.80103 2989.10840
3000.0 0.0003333 2981.82129 2988.22827
3000.0 0.0003333 2982.82520 2988.11694
3010.0 0.0003322 2983.81201 2988.47656
3000.0 0.0003333 2984.78467 2989.13721
2990.0 0.0003344 2985.74121 2989.93555
2990.0 0.0003344 2986.68213 2990.88843
2990.0 0.0003344 2987.61084 2992.01294
3000.0 0.0003333 2988.52661 2994.60107
3000.0 0.0003333 2989.42798 2996.58594
3000.0 0.0003333 2990.31763 2999.39575
2990.0 0.0003344 2991.19556 3003.85303
3000.0 0.0003333 2992.06372 3010.89966
3010.0 0.0003322 2992.92017 3021.13867
3020.0 0.0003311 2993.76904 3033.95020
3020.0 0.0003311 2994.60938 3046.31909
3030.0 0.0003300 2995.44141 3052.32739
3060.0 0.0003268 2996.26807 3048.38281
3060.0 0.0003268 2997.08887 3038.37207
3050.0 0.0003279 2997.90527 3028.16724
3040.0 0.0003289 2998.71851 3020.76489
3020.0 0.0003311 2999.52930 3016.53101
3000.0 0.0003333 3000.33911 3015.93457
2990.0 0.0003344 3001.14795 3018.21362
2990.0 0.0003344 3001.95801 3023.39404
3000.0 0.0003333 3002.77100 3031.73315
3010.0 0.0003322 3003.58521 3043.01611
3030.0 0.0003300 3004.40454 3055.83960
3080.0 0.0003247 3005.22900 3067.02588
3100.0 0.0003226 3006.05957 3074.38208
3100.0 0.0003226 3006.89746 3082.06738
3110.0 0.0003215 3007.74438 3097.83813
3120.0 0.0003205 3008.60181 3127.24268
3150.0 0.0003175 3009.46802 3170.77393
3190.0 0.0003135 3010.34668 3220.64624
3250.0 0.0003077 3011.23828 3255.82324
3310.0 0.0003021 3012.14355 3251.60254
3310.0 0.0003021 3013.06348 3209.96948
3270.0 0.0003058 3013.99878 3156.11401
3210.0 0.0003115 3014.95093 3108.64868
3140.0 0.0003185 3015.92041 3074.74976
3080.0 0.0003247 3016.90674 3053.97510
3030.0 0.0003300 3017.91382 3042.66479
3010.0 0.0003322 3018.93896 3036.67383
3010.0 0.0003322 3019.98608 3033.88794
3020.0 0.0003311 3021.05322 3032.55688
3020.0 0.0003311 3022.14160 3032.02686
3020.0 0.0003311 3023.25244 3032.03760
3050.0 0.0003279 3024.38574 3032.49805
3070.0 0.0003257 3025.54126 3033.38403
3040.0 0.0003289 3026.72192 3034.67871
3010.0 0.0003322 3027.92432 3036.50342
3010.0 0.0003322 3029.15137 3038.36182
2990.0 0.0003344 3030.40259 3040.25488
3010.0 0.0003322 3031.67822 3042.30249
3030.0 0.0003300 3032.97729 3045.00879
3010.0 0.0003322 3034.30054 3048.56177
3020.0 0.0003311 3035.64795 3053.28564
3020.0 0.0003311 3037.01929 3058.10229
3030.0 0.0003300 3038.41382 3061.74805
3050.0 0.0003279 3039.83252 3063.83667
3060.0 0.0003268 3041.27271 3065.98193
3050.0 0.0003279 3042.73755 3068.50244
3070.0 0.0003257 3044.22314 3074.05225
3090.0 0.0003236 3045.73096 3079.52515
3100.0 0.0003226 3047.25952 3081.58154
3090.0 0.0003236 3048.80859 3078.85449
3090.0 0.0003236 3050.37598 3073.61743
3080.0 0.0003247 3051.96216 3068.58643
3070.0 0.0003257 3053.56665 3065.12915
3070.0 0.0003257 3055.18896 3063.60962
3060.0 0.0003268 3056.82593 3063.82104
3050.0 0.0003279 3058.47754 3065.58594
3040.0 0.0003289 3060.14380 3068.91113
3050.0 0.0003279 3061.82227 3073.97314
3060.0 0.0003268 3063.51270 3080.81860
3080.0 0.0003247 3065.21313 3088.90771
3080.0 0.0003247 3066.92212 3096.59180
3090.0 0.0003236 3068.63965 3100.99927
3090.0 0.0003236 3070.36353 3100.22974
3090.0 0.0003236 3072.09180 3095.87915
3090.0 0.0003236 3073.82471 3090.88452
3100.0 0.0003226 3075.55859 3086.96753
3100.0 0.0003226 3077.29370 3084.68506
3090.0 0.0003236 3079.02832 3083.89673
3070.0 0.0003257 3080.76099 3084.17285
3070.0 0.0003257 3082.48950 3084.99048
3090.0 0.0003236 3084.21265 3086.24609
3090.0 0.0003236 3085.92920 3087.67627
3080.0 0.0003247 3087.63794 3089.21069
3080.0 0.0003247 3089.33716 3090.83179
3100.0 0.0003226 3091.02490 3092.55615
3100.0 0.0003226 3092.69922 3094.27466
3100.0 0.0003226 3094.36060 3096.34985
3110.0 0.0003215 3096.00684 3098.63037
3120.0 0.0003205 3097.63574 3101.05444
3110.0 0.0003215 3099.24536 3103.42383
3100.0 0.0003226 3100.83618 3105.39038
3110.0 0.0003215 3102.40479 3106.68750
3110.0 0.0003215 3103.95068 3107.47363
3130.0 0.0003195 3105.47363 3108.11084
3140.0 0.0003185 3106.97217 3108.83838
3130.0 0.0003195 3108.44385 3109.74316
3130.0 0.0003195 3109.88818 3110.82007
3110.0 0.0003215 3111.30396 3112.01831
3110.0 0.0003215 3112.69019 3113.13843
3110.0 0.0003215 3114.04590 3114.39746
3120.0 0.0003205 3115.36938 3115.69702
3110.0 0.0003215 3116.66187 3116.98413
3120.0 0.0003205 3117.92090 3118.78149
3140.0 0.0003185 3119.14526 3120.07397
3150.0 0.0003175 3120.33618 3121.36572
3150.0 0.0003175 3121.49097 3122.67603
3140.0 0.0003185 3122.60938 3124.17554
3140.0 0.0003185 3123.69360 3125.67407
3140.0 0.0003185 3124.73999 3127.35181
3130.0 0.0003195 3125.74927 3129.47485
3120.0 0.0003205 3126.72192 3131.55737
3140.0 0.0003185 3127.65674 3133.63208
3160.0 0.0003165 3128.55444 3135.34448
3170.0 0.0003155 3129.41333 3136.33252
3160.0 0.0003165 3130.23535 3136.65039
3150.0 0.0003175 3131.02148 3136.70117
3160.0 0.0003165 3131.76831 3136.86426
3150.0 0.0003175 3132.47827 3137.23950
3140.0 0.0003185 3133.15186 3137.89453
3130.0 0.0003195 3133.78979 3138.88818
3120.0 0.0003205 3134.39136 3140.22876
3130.0 0.0003195 3134.95776 3142.06421
3140.0 0.0003185 3135.49023 3144.74976
3120.0 0.0003205 3135.98828 3148.96411
3130.0 0.0003195 3136.45239 3155.57422
3130.0 0.0003195 3136.88525 3165.58569
3150.0 0.0003175 3137.28662 3179.53491
3190.0 0.0003135 3137.65674 3196.82422
3210.0 0.0003115 3137.99707 3214.91821
3230.0 0.0003096 3138.30786 3228.76416
3250.0 0.0003077 3138.59326 3233.36670
3250.0 0.0003077 3138.85107 3229.57739
3240.0 0.0003086 3139.08374 3222.83057
3220.0 0.0003106 3139.29297 3216.61572
3210.0 0.0003115 3139.47827 3210.98145
3220.0 0.0003106 3139.64282 3204.43457
3210.0 0.0003115 3139.78809 3195.60156
3190.0 0.0003135 3139.91406 3185.17651
3190.0 0.0003135 3140.02173 3174.60010
3170.0 0.0003155 3140.11377 3165.94116
3140.0 0.0003185 3140.19214 3160.19263
3130.0 0.0003195 3140.25586 3156.53540
3130.0 0.0003195 3140.30859 3154.59863
3120.0 0.0003205 3140.35034 3153.45508
3110.0 0.0003215 3140.38306 3152.34204
3130.0 0.0003195 3140.40845 3151.09985
3140.0 0.0003185 3140.42773 3150.00708
3150.0 0.0003175 3140.44263 3149.56421
3150.0 0.0003175 3140.45361 3149.41699
3140.0 0.0003185 3140.46362 3149.68579
3130.0 0.0003195 3140.47168 3150.08472
3130.0 0.0003195 3140.48145 3150.24170
3130.0 0.0003195 3140.49219 3149.99487
3110.0 0.0003215 3140.50659 3149.57837
3110.0 0.0003215 3140.52515 3149.36157
3130.0 0.0003195 3140.54956 3149.65796
3150.0 0.0003175 3140.58032 3150.75049
3150.0 0.0003175 3140.61938 3152.63501
3150.0 0.0003175 3140.66553 3156.82471
3140.0 0.0003185 3140.72314 3162.62646
3140.0 0.0003185 3140.79028 3170.82642
3160.0 0.0003165 3140.86987 3181.49609
3160.0 0.0003165 3140.96118 3194.57178
3190.0 0.0003135 3141.06519 3207.49194
3210.0 0.0003115 3141.18237 3218.03271
3230.0 0.0003096 3141.31421 3224.41553
3260.0 0.0003067 3141.46094 3226.56250
3270.0 0.0003058 3141.62183 3224.75586
3270.0 0.0003058 3141.80005 3218.27075
3260.0 0.0003067 3141.99194 3208.76880
3250.0 0.0003077 3142.20068 3199.77417
3230.0 0.0003096 3142.42480 3193.79126
3210.0 0.0003115 3142.66455 3191.11841
3210.0 0.0003115 3142.92139 3190.31079
3200.0 0.0003125 3143.19458 3188.89111
3200.0 0.0003125 3143.48218 3185.30957
3200.0 0.0003125 3143.78662 3180.45947
3190.0 0.0003135 3144.10474 3176.16699
3180.0 0.0003145 3144.43774 3174.16943
3180.0 0.0003145 3144.78516 3175.73267
3180.0 0.0003145 3145.14648 3181.57202
3200.0 0.0003125 3145.52100 3191.83691
3200.0 0.0003125 3145.90649 3205.79761
3220.0 0.0003106 3146.30396 3221.45044
3230.0 0.0003096 3146.71191 3235.39795
3240.0 0.0003086 3147.12939 3243.80859
3250.0 0.0003077 3147.55469 3245.56616
3250.0 0.0003077 3147.98853 3243.35474
3240.0 0.0003086 3148.42773 3241.16895
3240.0 0.0003086 3148.87256 3240.70728
3250.0 0.0003077 3149.32153 3241.29834
3260.0 0.0003067 3149.77222 3240.90039
3270.0 0.0003058 3150.22510 3237.66675
3270.0 0.0003058 3150.67700 3229.10352
3260.0 0.0003067 3151.12817 3215.76611
3230.0 0.0003096 3151.57544 3201.71533
3200.0 0.0003125 3152.01929 3189.29541
3200.0 0.0003125 3152.45728 3179.84497
3190.0 0.0003135 3152.88574 3173.62842
3170.0 0.0003155 3153.30713 3170.26001
3170.0 0.0003155 3153.71680 3169.00562
3170.0 0.0003155 3154.11450 3168.89648
3150.0 0.0003175 3154.49805 3169.21655
3160.0 0.0003165 3154.86621 3169.27930
3150.0 0.0003175 3155.21631 3168.64136
3150.0 0.0003175 3155.54980 3167.60913
3140.0 0.0003185 3155.86157 3167.57861
3140.0 0.0003185 3156.15112 3167.30103
3150.0 0.0003175 3156.41699 3167.72021
3160.0 0.0003165 3156.65869 3168.73560
3140.0 0.0003185 3156.87354 3170.21875
3160.0 0.0003165 3157.06177 3170.99463
3190.0 0.0003135 3157.21973 3170.84058
3190.0 0.0003135 3157.34668 3170.32959
3170.0 0.0003155 3157.44214 3169.18286
3150.0 0.0003175 3157.50415 3167.68750
3150.0 0.0003175 3157.53101 3165.96899
3150.0 0.0003175 3157.52295 3164.99072
3140.0 0.0003185 3157.47827 3164.10571
3150.0 0.0003175 3157.39478 3163.11377
3150.0 0.0003175 3157.27319 3162.95410
3120.0 0.0003205 3157.11157 3163.11206
3120.0 0.0003205 3156.90894 3163.49683
3140.0 0.0003185 3156.66528 3164.20947
3140.0 0.0003185 3156.37915 3165.42944
3120.0 0.0003205 3156.05127 3167.55225
3130.0 0.0003195 3155.68018 3171.12207
3140.0 0.0003185 3155.26563 3177.00171
3160.0 0.0003165 3154.80640 3186.12231
3180.0 0.0003145 3154.30420 3199.19141
3220.0 0.0003106 3153.75757 3216.14600
3230.0 0.0003096 3153.16577 3236.04492
3250.0 0.0003077 3152.53125 3255.42090
3290.0 0.0003040 3151.85107 3269.33838
3310.0 0.0003021 3151.12891 3273.00317
3320.0 0.0003012 3150.36157 3266.38818
3320.0 0.0003012 3149.55225 3253.92383
3300.0 0.0003030 3148.69922 3239.81299
3280.0 0.0003049 3147.80493 3226.10254
3260.0 0.0003067 3146.87012 3213.68091
3240.0 0.0003086 3145.89404 3203.96948
3240.0 0.0003086 3144.87769 3197.74927
3230.0 0.0003096 3143.82422 3194.87329
3210.0 0.0003115 3142.73364 3194.10913
3180.0 0.0003145 3141.60547 3193.57373
3170.0 0.0003155 3140.44263 3191.03296
3190.0 0.0003135 3139.24609 3185.73218
3200.0 0.0003125 3138.01807 3178.61768
3190.0 0.0003135 3136.75879 3171.06323
3160.0 0.0003165 3135.46948 3164.01367
3150.0 0.0003175 3134.15479 3158.08521
3160.0 0.0003165 3132.81152 3153.62158
3140.0 0.0003185 3131.44507 3150.64136
3130.0 0.0003195 3130.05713 3148.93018
3120.0 0.0003205 3128.64795 3148.25610
3120.0 0.0003205 3127.21997 3148.36499
3120.0 0.0003205 3125.77588 3148.81079
3150.0 0.0003175 3124.31812 3148.81445
3150.0 0.0003175 3122.84521 3147.53345
3140.0 0.0003185 3121.36450 3144.75854
3160.0 0.0003165 3119.87476 3140.20581
3180.0 0.0003145 3118.37817 3136.30444
3170.0 0.0003155 3116.87720 3132.77954
3150.0 0.0003175 3115.37451 3129.88159
3130.0 0.0003195 3113.87158 3127.53979
3130.0 0.0003195 3112.37158 3125.28979
3120.0 0.0003205 3110.87622 3123.33057
3100.0 0.0003226 3109.38696 3121.32129
3090.0 0.0003236 3107.90649 3119.39868
3090.0 0.0003236 3106.43774 3117.61646
3100.0 0.0003226 3104.97974 3115.88794
3100.0 0.0003226 3103.53857 3113.92773
3100.0 0.0003226 3102.11377 3111.27539
3100.0 0.0003226 3100.70679 3108.66797
3100.0 0.0003226 3099.32153 3106.04321
3090.0 0.0003236 3097.95947 3103.54370
3090.0 0.0003236 3096.62231 3101.30713
3070.0 0.0003257 3095.31079 3099.29614
3080.0 0.0003247 3094.02612 3097.48901
3090.0 0.0003236 3092.77246 3095.88110
3090.0 0.0003236 3091.55029 3094.41016
3090.0 0.0003236 3090.35889 3093.07324
3100.0 0.0003226 3089.20215 3091.76904
3110.0 0.0003215 3088.08130 3090.45142
3090.0 0.0003236 3086.99756 3089.13916
3070.0 0.0003257 3085.94971 3087.71631
3050.0 0.0003279 3084.94141 3086.56030
3060.0 0.0003268 3083.97314 3085.52124
3080.0 0.0003247 3083.04541 3084.59473
3090.0 0.0003236 3082.15796 3083.81616
3090.0 0.0003236 3081.31396 3083.23218
3090.0 0.0003236 3080.51196 3082.66235
3090.0 0.0003236 3079.75293 3082.08594
3080.0 0.0003247 3079.03638 3081.48560
3080.0 0.0003247 3078.36475 3081.05396
3100.0 0.0003226 3077.73486 3080.82983
3100.0 0.0003226 3077.15039 3080.90210
3100.0 0.0003226 3076.60791 3081.30127
3100.0 0.0003226 3076.10962 3081.98901
3090.0 0.0003236 3075.65527 3082.81982
3100.0 0.0003226 3075.24243 3083.52368
3110.0 0.0003215 3074.87183 3083.74683
3090.0 0.0003236 3074.54297 3083.25317
3070.0 0.0003257 3074.25488 3082.13843
3070.0 0.0003257 3074.00562 3080.73706
3080.0 0.0003247 3073.79785 3079.57251
3100.0 0.0003226 3073.62671 3078.46265
3080.0 0.0003247 3073.49268 3077.69238
3080.0 0.0003247 3073.39453 3077.28125
3100.0 0.0003226 3073.33105 3077.20020
3100.0 0.0003226 3073.30176 3077.38428
3090.0 0.0003236 3073.30347 3077.73389
3080.0 0.0003247 3073.33618 3078.15674
3080.0 0.0003247 3073.39722 3078.51074
3090.0 0.0003236 3073.48633 3078.66724
3080.0 0.0003247 3073.60083 3078.72461
3090.0 0.0003236 3073.73779 3078.81372
3100.0 0.0003226 3073.89819 3079.07471
3090.0 0.0003236 3074.07813 3079.61011
3080.0 0.0003247 3074.27759 3080.56274
3070.0 0.0003257 3074.49341 3081.96948
3080.0 0.0003247 3074.72241 3083.88892
3080.0 0.0003247 3074.96582 3086.44409
3090.0 0.0003236 3075.21851 3089.45337
3090.0 0.0003236 3075.48193 3092.94092
3100.0 0.0003226 3075.75073 3096.75415
3090.0 0.0003236 3076.02515 3100.50488
3100.0 0.0003226 3076.30273 3103.47510
3100.0 0.0003226 3076.58057 3104.79419
3100.0 0.0003226 3076.85791 3103.99976
3090.0 0.0003236 3077.13232 3101.44702
3080.0 0.0003247 3077.40161 3098.03369
3070.0 0.0003257 3077.66479 3094.62915
3070.0 0.0003257 3077.91919 3091.85083
3070.0 0.0003257 3078.16455 3090.08008
3070.0 0.0003257 3078.39697 3089.53589
3080.0 0.0003247 3078.61646 3090.35522
3080.0 0.0003247 3078.82178 3092.61621
3060.0 0.0003268 3079.00830 3096.32910
3080.0 0.0003247 3079.17847 3101.32983
3090.0 0.0003236 3079.32935 3107.33154
3110.0 0.0003215 3079.45752 3113.61499
3120.0 0.0003205 3079.56445 3119.08496
3130.0 0.0003195 3079.64819 3122.41333
3150.0 0.0003175 3079.70801 3122.78271
3150.0 0.0003175 3079.74341 3120.62720
3130.0 0.0003195 3079.75122 3117.24536
3120.0 0.0003205 3079.73242 3113.90039
3120.0 0.0003205 3079.68652 3111.25562
3110.0 0.0003215 3079.61279 3109.25122
3100.0 0.0003226 3079.50781 3107.56177
3100.0 0.0003226 3079.37524 3105.70752
3110.0 0.0003215 3079.21313 3103.53809
3110.0 0.0003215 3079.02124 3101.33057
3100.0 0.0003226 3078.79907 3099.57495
3100.0 0.0003226 3078.54688 3098.67798
3080.0 0.0003247 3078.26489 3098.80469
3070.0 0.0003257 3077.95483 3099.85938
3080.0 0.0003247 3077.61328 3101.45850
3090.0 0.0003236 3077.24365 3102.93506
3100.0 0.0003226 3076.84521 3103.40088
3120.0 0.0003205 3076.41943 3102.20581
3140.0 0.0003185 3075.96533 3099.33984
3150.0 0.0003175 3075.48462 3095.42334
3130.0 0.0003195 3074.97852 3091.18799
3120.0 0.0003205 3074.44849 3087.08813
3100.0 0.0003226 3073.89258 3083.62769
3100.0 0.0003226 3073.31494 3080.79395
3080.0 0.0003247 3072.71558 3078.65552
3070.0 0.0003257 3072.09570 3077.08423
3080.0 0.0003247 3071.45532 3075.96509
3080.0 0.0003247 3070.79712 3075.18579
3070.0 0.0003257 3070.12280 3074.68701
3050.0 0.0003279 3069.43237 3074.33667
3050.0 0.0003279 3068.72803 3074.10815
3050.0 0.0003279 3068.01123 3073.96045
3060.0 0.0003268 3067.28296 3073.87402
3070.0 0.0003257 3066.54541 3073.84253
3070.0 0.0003257 3065.80054 3073.98340
3080.0 0.0003247 3065.04736 3074.46558
3080.0 0.0003247 3064.29053 3075.37964
3070.0 0.0003257 3063.52930 3076.70068
3060.0 0.0003268 3062.76611 3078.55078
3070.0 0.0003257 3062.00195 3080.43164
3070.0 0.0003257 3061.23828 3081.83130
3090.0 0.0003236 3060.47803 3082.16943
3100.0 0.0003226 3059.72095 3081.04004
3100.0 0.0003226 3058.96924 3078.47900
3080.0 0.0003247 3058.22168 3074.92725
3080.0 0.0003247 3057.48315 3071.02002
3060.0 0.0003268 3056.75366 3067.32056
3060.0 0.0003268 3056.03369 3064.05054
3070.0 0.0003257 3055.32397 3061.33496
3050.0 0.0003279 3054.62622 3059.20044
3040.0 0.0003289 3053.94165 3057.54126
3030.0 0.0003300 3053.26953 3056.28052
3020.0 0.0003311 3052.61304 3055.31323
3040.0 0.0003289 3051.97217 3054.57178
3050.0 0.0003279 3051.34497 3053.83472
3040.0 0.0003289 3050.73511 3053.24927
3040.0 0.0003289 3050.14014 3052.72021
3050.0 0.0003279 3049.56348 3052.24023
3050.0 0.0003279 3049.00366 3051.85229
3040.0 0.0003289 3048.45923 3051.61060
3040.0 0.0003289 3047.93164 3051.55957
3050.0 0.0003279 3047.42041 3051.71313
3060.0 0.0003268 3046.92627 3052.04492
3060.0 0.0003268 3046.44629 3052.47900
3070.0 0.0003257 3045.98364 3052.88208
3080.0 0.0003247 3045.53540 3053.07690
3070.0 0.0003257 3045.10059 3052.93335
3070.0 0.0003257 3044.67847 3052.43359
3070.0 0.0003257 3044.26855 3051.66821
3060.0 0.0003268 3043.87109 3050.72095
3060.0 0.0003268 3043.48242 3049.62036
3060.0 0.0003268 3043.10352 3048.41187
3050.0 0.0003279 3042.73145 3047.20215
3050.0 0.0003279 3042.36353 3046.03760
3060.0 0.0003268 3042.00293 3044.99878
3060.0 0.0003268 3041.64307 3044.11304
3050.0 0.0003279 3041.28516 3043.39307
3040.0 0.0003289 3040.92627 3042.85278
3050.0 0.0003279 3040.56616 3042.45093
3070.0 0.0003257 3040.20044 3042.17456
3060.0 0.0003268 3039.82886 3042.02344
3060.0 0.0003268 3039.44946 3042.08911
3060.0 0.0003268 3039.05981 3042.29736
3050.0 0.0003279 3038.65674 3042.62646
3050.0 0.0003279 3038.24097 3043.04126
3050.0 0.0003279 3037.80786 3043.48047
3040.0 0.0003289 3037.35596 3043.85889
3040.0 0.0003289 3036.88379 3044.10571
3040.0 0.0003289 3036.38794 3044.17529
3040.0 0.0003289 3035.86768 3044.02856
3020.0 0.0003311 3035.32031 3043.63696
3020.0 0.0003311 3034.74487 3042.84692
3020.0 0.0003311 3034.13867 3041.64185
3030.0 0.0003300 3033.49756 3040.11597
3040.0 0.0003289 3032.82202 3038.43628
3030.0 0.0003300 3032.10986 3036.76099
3020.0 0.0003311 3031.35986 3035.20850
3020.0 0.0003311 3030.56982 3033.78564
3020.0 0.0003311 3029.73657 3032.51880
3020.0 0.0003311 3028.86060 3031.41235
3020.0 0.0003311 3027.93945 3030.45068
3020.0 0.0003311 3026.97266 3029.56641
3010.0 0.0003322 3025.95923 3028.74438
3010.0 0.0003322 3024.89624 3027.92871
3010.0 0.0003322 3023.78369 3027.14600
3010.0 0.0003322 3022.62158 3026.36523
3010.0 0.0003322 3021.40820 3025.59131
3000.0 0.0003333 3020.14233 3024.82251
2990.0 0.0003344 3018.82617 3024.06494
2990.0 0.0003344 3017.45752 3023.27783
3000.0 0.0003333 3016.03662 3022.41772
3030.0 0.0003300 3014.56250 3021.42188
3030.0 0.0003300 3013.03735 3020.41235
3040.0 0.0003289 3011.46069 3019.11938
3050.0 0.0003279 3009.83325 3017.59424
3040.0 0.0003289 3008.15430 3015.77441
3040.0 0.0003289 3006.42676 3013.68091
3020.0 0.0003311 3004.64990 3011.39722
3020.0 0.0003311 3002.82593 3009.06299
3020.0 0.0003311 3000.95557 3006.81372
3010.0 0.0003322 2999.04199 3004.77295
3010.0 0.0003322 2997.08423 3003.09229
2990.0 0.0003344 2995.08521 3001.71631
3000.0 0.0003333 2993.04761 3000.72144
3000.0 0.0003333 2990.97314 3000.05518
3000.0 0.0003333 2988.86450 2999.66406
3020.0 0.0003311 2986.72192 2999.36499
3010.0 0.0003322 2984.54980 2998.92090
3000.0 0.0003333 2982.35107 2998.02832
3020.0 0.0003311 2980.12622 2996.53271
3010.0 0.0003322 2977.88135 2994.43628
3000.0 0.0003333 2975.61548 2991.91284
3000.0 0.0003333 2973.33423 2989.18970
2990.0 0.0003344 2971.04053 2986.40845
2980.0 0.0003356 2968.73657 2983.58789
2980.0 0.0003356 2966.42603 2980.68286
2970.0 0.0003367 2964.11279 2977.67310
2960.0 0.0003378 2961.79834 2974.55786
2970.0 0.0003367 2959.48755 2971.45166
2980.0 0.0003356 2957.18311 2968.33301
2970.0 0.0003367 2954.88794 2965.37378
2970.0 0.0003367 2952.60620 2962.68970
2960.0 0.0003378 2950.34204 2960.43140
2960.0 0.0003378 2948.09644 2958.70190
2970.0 0.0003367 2945.87280 2957.57422
2970.0 0.0003367 2943.67651 2957.04907
2980.0 0.0003356 2941.50854 2957.03296
2970.0 0.0003367 2939.37207 2957.32520
2960.0 0.0003378 2937.27026 2957.61401
2960.0 0.0003378 2935.20679 2957.55688
2970.0 0.0003367 2933.18286 2956.77783
2960.0 0.0003378 2931.20264 2954.95117
2950.0 0.0003390 2929.26636 2952.17676
2930.0 0.0003413 2927.37817 2948.79053
2920.0 0.0003425 2925.53931 2945.26709
2920.0 0.0003425 2923.75146 2941.87769
2930.0 0.0003413 2922.01782 2938.84961
2930.0 0.0003413 2920.33740 2935.98706
2910.0 0.0003436 2918.71436 2933.22681
2910.0 0.0003436 2917.14868 2930.40356
2920.0 0.0003425 2915.64063 2927.47876
2930.0 0.0003413 2914.19287 2924.49487
2930.0 0.0003413 2912.80396 2921.60059
2910.0 0.0003436 2911.47437 2918.91211
2890.0 0.0003460 2910.20605 2916.51489
2910.0 0.0003436 2908.99658 2914.46655
2920.0 0.0003425 2907.84692 2912.72778
2910.0 0.0003436 2906.75757 2911.40625
2920.0 0.0003425 2905.72632 2910.45166
2900.0 0.0003448 2904.75146 2909.88452
2880.0 0.0003472 2903.83203 2909.63794
2880.0 0.0003472 2902.96851 2909.67749
2910.0 0.0003436 2902.15723 2909.88745
2920.0 0.0003425 2901.39673 2910.20752
2920.0 0.0003425 2900.68604 2910.46411
2920.0 0.0003425 2900.02319 2910.46924
2920.0 0.0003425 2899.40234 2910.11890
2930.0 0.0003413 2898.82349 2909.35059
2920.0 0.0003425 2898.28418 2908.25195
2920.0 0.0003425 2897.78101 2907.00024
2920.0 0.0003425 2897.30957 2905.76538
2920.0 0.0003425 2896.86621 2904.71118
2910.0 0.0003436 2896.45117 2903.96240
2910.0 0.0003436 2896.05762 2903.57251
2900.0 0.0003448 2895.68359 2903.56006
2900.0 0.0003448 2895.32300 2903.89624
2890.0 0.0003460 2894.97461 2904.49487
2890.0 0.0003460 2894.63306 2905.27075
2900.0 0.0003448 2894.29541 2905.96313
2900.0 0.0003448 2893.95654 2906.77515
2900.0 0.0003448 2893.61401 2907.50586
2900.0 0.0003448 2893.26196 2908.15332
2900.0 0.0003448 2892.89941 2908.63794
2910.0 0.0003436 2892.51953 2908.81494
2900.0 0.0003448 2892.11963 2908.53247
2920.0 0.0003425 2891.69482 2907.73389
2940.0 0.0003401 2891.24365 2906.53247
2930.0 0.0003413 2890.76147 2905.05176
2920.0 0.0003425 2890.24438 2903.56445
2900.0 0.0003448 2889.68921 2902.13257
2900.0 0.0003448 2889.09302 2900.82886
2910.0 0.0003436 2888.45239 2899.66870
2910.0 0.0003436 2887.76587 2898.62207
2900.0 0.0003448 2887.02881 2897.59253
2890.0 0.0003460 2886.23950 2896.48755
2870.0 0.0003484 2885.39600 2895.22827
2870.0 0.0003484 2884.49658 2893.85278
2880.0 0.0003472 2883.53906 2892.25635
2880.0 0.0003472 2882.52173 2890.51978
2890.0 0.0003460 2881.44214 2888.72681
2900.0 0.0003448 2880.30249 2886.94849
2900.0 0.0003448 2879.09888 2885.22632
2900.0 0.0003448 2877.83374 2883.60815
2880.0 0.0003472 2876.50293 2882.07446
2860.0 0.0003497 2875.10938 2880.54590
2850.0 0.000351 2873.65356 2879.07690
2850.0 0.000351 2872.13428 2877.54541
2850.0 0.000351 2870.55493 2875.92065
2870.0 0.0003484 2868.91431 2874.17358
2880.0 0.0003472 2867.21411 2872.32422
2880.0 0.0003472 2865.45581 2870.40723
2870.0 0.0003484 2863.64453 2868.46313
2870.0 0.0003484 2861.77881 2866.58862
2870.0 0.0003484 2859.86304 2864.67407
2870.0 0.0003484 2857.89893 2862.78882
2860.0 0.0003497 2855.88916 2860.91357
2850.0 0.000351 2853.83569 2858.96436
2860.0 0.0003497 2851.74634 2856.97266
2870.0 0.0003484 2849.61768 2854.84082
2870.0 0.0003484 2847.45972 2852.57373
2870.0 0.0003484 2845.27295 2850.22681
2850.0 0.000351 2843.06079 2847.72266
2840.0 0.000352 2840.82837 2845.31714
2850.0 0.000351 2838.57764 2842.98267
2850.0 0.000351 2836.31641 2840.78735
2850.0 0.000351 2834.04541 2838.78467
2860.0 0.0003497 2831.76880 2836.99854
2840.0 0.000352 2829.49219 2835.48486
2830.0 0.000353 2827.21851 2834.21973
2840.0 0.000352 2824.95288 2833.15820
2840.0 0.000352 2822.69751 2832.22314
2830.0 0.000353 2820.45752 2831.36011
2830.0 0.000353 2818.23706 2830.24878
2830.0 0.000353 2816.03735 2828.76392
2830.0 0.000353 2813.86304 2826.75488
2830.0 0.000353 2811.71802 2824.15625
2820.0 0.000355 2809.60425 2821.11523
2810.0 0.000356 2807.52393 2817.82813
2810.0 0.000356 2805.48145 2814.51392
2800.0 0.000357 2803.47803 2811.35498
2810.0 0.000356 2801.51685 2808.46484
2800.0 0.000357 2799.59717 2805.94727
2790.0 0.000358 2797.72266 2803.82837
2800.0 0.000357 2795.89307 2802.10156
2800.0 0.000357 2794.11084 2800.72241
2810.0 0.000356 2792.37451 2799.67993
2810.0 0.000356 2790.68579 2798.86157
2800.0 0.000357 2789.04346 2798.16675
2790.0 0.000358 2787.45044 2797.45410
2780.0 0.000360 2785.90234 2796.59180
2790.0 0.000358 2784.39917 2795.41870
2780.0 0.000360 2782.94019 2793.94360
2770.0 0.000361 2781.52319 2792.16016
2770.0 0.000361 2780.14819 2790.22705
2780.0 0.000360 2778.81079 2788.26392
2780.0 0.000360 2777.50830 2786.32837
2780.0 0.000360 2776.24219 2784.51782
2780.0 0.000360 2775.00439 2782.85962
2780.0 0.000360 2773.79395 2781.28174
2770.0 0.000361 2772.60938 2779.84473
2780.0 0.000360 2771.44751 2778.58325
2770.0 0.000361 2770.30078 2777.53149
2770.0 0.000361 2769.16968 2776.70728
2770.0 0.000361 2768.04883 2776.12061
2770.0 0.000361 2766.93457 2775.68506
2760.0 0.000362 2765.82397 2775.34937
2770.0 0.000361 2764.71436 2774.94043
2780.0 0.000360 2763.59839 2774.30835
2780.0 0.000360 2762.47754 2773.34644
2780.0 0.000360 2761.34424 2772.01904
2780.0 0.000360 2760.19800 2770.39966
2780.0 0.000360 2759.03394 2768.54883
2780.0 0.000360 2757.84985 2766.84302
2780.0 0.000360 2756.64453 2765.15625
2790.0 0.000358 2755.41211 2763.64648
2780.0 0.000360 2754.15308 2762.33862
2770.0 0.000361 2752.86597 2761.25488
2760.0 0.000362 2751.54639 2760.22632
2770.0 0.000361 2750.19653 2759.23999
2780.0 0.000360 2748.81372 2758.21191
2770.0 0.000361 2747.39746 2757.14014
2770.0 0.000361 2745.94800 2755.89136
2760.0 0.000362 2744.46680 2754.56958
2750.0 0.000364 2742.95166 2753.18872
2750.0 0.000364 2741.40674 2751.83667
2740.0 0.000365 2739.83203 2750.53125
2750.0 0.000364 2738.22925 2749.28003
2740.0 0.000365 2736.60132 2747.95654
2740.0 0.000365 2734.95117 2746.67358
2750.0 0.000364 2733.27881 2745.31982
2750.0 0.000364 2731.59229 2743.90479
2750.0 0.000364 2729.89185 2742.47095
2750.0 0.000364 2728.18237 2741.06323
2750.0 0.000364 2726.46924 2739.71216
2750.0 0.000364 2724.75293 2738.40503
2740.0 0.000365 2723.04150 2737.13208
2730.0 0.000366 2721.33765 2735.91138
2730.0 0.000366 2719.64746 2734.74805
2720.0 0.000368 2717.97534 2733.67554
2710.0 0.000369 2716.32422 2732.68994
2710.0 0.000369 2714.69995 2731.75269
2720.0 0.000368 2713.10913 2730.80029
2720.0 0.000368 2711.55225 2729.77173
2730.0 0.000366 2710.03613 2728.64795
2710.0 0.000369 2708.56421 2727.46826
2710.0 0.000369 2707.13892 2726.31445
2710.0 0.000369 2705.76514 2725.26050
2710.0 0.000369 2704.44458 2724.47949
2700.0 0.000370 2703.17944 2723.91284
2700.0 0.000370 2701.97363 2723.47974
2700.0 0.000370 2700.82642 2723.05249
2700.0 0.000370 2699.73804 2722.49902
2710.0 0.000369 2698.71118 2721.74243
2730.0 0.000366 2697.74341 2720.74316
2720.0 0.000368 2696.83521 2719.48340
2730.0 0.000366 2695.98364 2717.95581
2740.0 0.000365 2695.18726 2716.26660
2740.0 0.000365 2694.44263 2714.34668
2730.0 0.000366 2693.74756 2712.32178
2730.0 0.000366 2693.09595 2710.28101
2730.0 0.000366 2692.48535 2708.24976
2710.0 0.000369 2691.90991 2706.28516
2710.0 0.000369 2691.36157 2704.46338
2720.0 0.000368 2690.83838 2702.83008
2710.0 0.000369 2690.33057 2701.41162
2710.0 0.000369 2689.83423 2700.20361
2720.0 0.000368 2689.33813 2699.19385
2730.0 0.000366 2688.83887 2698.34790
2720.0 0.000368 2688.32666 2697.59497
2700.0 0.000370 2687.79810 2696.87769
2700.0 0.000370 2687.24268 2696.13110
2700.0 0.000370 2686.65576 2695.33716
2690.0 0.000372 2686.02954 2694.50049
2680.0 0.000373 2685.35742 2693.62598
2670.0 0.000375 2684.63525 2692.77271
2670.0 0.000375 2683.85742 2691.93848
2680.0 0.000373 2683.01904 2691.14063
2690.0 0.000372 2682.11792 2690.35376
2680.0 0.000373 2681.15088 2689.61646
2690.0 0.000372 2680.11597 2688.86841
2690.0 0.000372 2679.01270 2688.16064
2680.0 0.000373 2677.84033 2687.38892
2690.0 0.000372 2676.60205 2686.57642
2680.0 0.000373 2675.29785 2685.66284
2670.0 0.000375 2673.93335 2684.58545
2660.0 0.000376 2672.51123 2683.21411
2670.0 0.000375 2671.03589 2681.53613
2680.0 0.000373 2669.51587 2679.55664
2670.0 0.000375 2667.95776 2677.25903
2670.0 0.000375 2666.36646 2674.89307
2670.0 0.000375 2664.75171 2672.49829
2660.0 0.000376 2663.12207 2670.14038
2660.0 0.000376 2661.48413 2667.90967
2670.0 0.000375 2659.84668 2665.83496
2670.0 0.000375 2658.21802 2663.96509
2660.0 0.000376 2656.60498 2662.28809
2660.0 0.000376 2655.01416 2660.80249
2670.0 0.000375 2653.45117 2659.54907
2670.0 0.000375 2651.91968 2658.48828
2670.0 0.000375 2650.42383 2657.64893
2660.0 0.000376 2648.96216 2657.01758
2670.0 0.000375 2647.53320 2656.57031
2660.0 0.000376 2646.13672 2656.25562
2660.0 0.000376 2644.76489 2655.99097
2670.0 0.000375 2643.41040 2655.62695
2670.0 0.000375 2642.06396 2655.11914
2670.0 0.000375 2640.71069 2654.31812
2660.0 0.000376 2639.33789 2653.18774
2650.0 0.000377 2637.92969 2651.72339
2640.0 0.000379 2636.46606 2650.13306
2640.0 0.000379 2634.92944 2648.47656
2640.0 0.000379 2633.30005 2646.83398
2640.0 0.000379 2631.55835 2645.23828
2630.0 0.000380 2629.68457 2643.67065
2640.0 0.000379 2627.66211 2642.08765
2630.0 0.000380 2625.47729 2640.36035
2630.0 0.000380 2623.12061 2638.39136
2630.0 0.000380 2620.58545 2636.11084
2630.0 0.000380 2617.87158 2633.47534
2620.0 0.000382 2614.98682 2630.53076
2630.0 0.000380 2611.94727 2627.36938
2620.0 0.000382 2608.77686 2624.09863
2620.0 0.000382 2605.50610 2620.83057
2620.0 0.000382 2602.17847 2617.60767
2630.0 0.000380 2598.84448 2614.46606
2630.0 0.000380 2595.55859 2611.43628
2610.0 0.000383 2592.38086 2608.52832
2590.0 0.000386 2589.37354 2605.78174
2610.0 0.000383 2586.59180 2603.20898
2610.0 0.000383 2584.07642 2600.76709
2600.0 0.000385 2581.84814 2598.45752
2590.0 0.000386 2579.88843 2596.24854
2600.0 0.000385 2578.12891 2594.05664
2590.0 0.000386 2576.42407 2591.76025
2590.0 0.000386 2574.53101 2589.15527
2580.0 0.000388 2572.07153 2585.88281
2570.0 0.000389 2568.49902 2581.47632
2570.0 0.000389 2563.04346 2575.24438
2570.0 0.000389 2554.65845 2566.26660
2560.0 0.000391 2541.95435 2553.17798
2560.0 . . .
2560.0 . . .
2560.0 . . .
2560.0 . . .
2550.0 . . .
2550.0 . . .
2560.0 . . .
2560.0 . . .
2560.0 . . .
2560.0 . . .
2550.0 . . .
2550.0 . . .
2550.0 . . .
2540.0 . . .
2550.0 . . .
2550.0 . . .
2550.0 . . .
2550.0 . . .
2540.0 . . .
2540.0 . . .
2550.0 . . .
2550.0 . . .
2550.0 . . .
2540.0 . . .
2540.0 . . .
2540.0 . . .
2530.0 . . .
2530.0 . . .
2540.0 . . .
2540.0 . . .
2540.0 . . .
2540.0 . . .
2540.0 . . .
2520.0 . . .
2510.0 . . .
2500.0 . . .
2490.0 . . .
2500.0 . . .
2510.0 . . .
2510.0 . . .
2500.0 . . .
2500.0 . . .
2500.0 . . .
2500.0 . . .
2500.0 . . .
2490.0 . . .
2480.0 . . .
2470.0 . . .
2470.0 . . .
2470.0 . . .
2480.0 . . .
2480.0 . . .
2480.0 . . .
2470.0 . . .
2460.0 . . .
2470.0 . . .
2460.0 . . .
2450.0 . . .
2450.0 . . .
2450.0 . . .
2450.0 . . .
2460.0 . . .
2470.0 . . .
2460.0 . . .
2460.0 . . .
2480.0 . . .
2480.0 . . .
2480.0 . . .
2480.0 . . .
2480.0 . . .
2490.0 . . .
2480.0 . . .
2480.0 . . .
2470.0 . . .
2470.0 . . .
2470.0 . . .
2480.0 . . .
2480.0 . . .
2490.0 . . .
2500.0 . . .
2500.0 . . .
2490.0 . . .
2490.0 . . .
2490.0 . . .
2490.0 . . .
2480.0 . . .
2470.0 . . .
2460.0 . . .
2450.0 . . .
2450.0 . . .
2460.0 . . .
2460.0 . . .
2460.0 . . .
2460.0 . . .
2470.0 . . .
2470.0 . . .
2460.0 . . .
2460.0 . . .
2460.0 . . .
2460.0 . . .
2450.0 . . .
2440.0 . . .
2440.0 . . .
2430.0 . . .
2430.0 . . .
2430.0 . . .
2430.0 . . .
2430.0 . . .
2430.0 . . .
2420.0 . . .
2420.0 . . .
2430.0 . . .
2420.0 . . .
2400.0 . . .
2400.0 . . .
2400.0 . . .
2400.0 . . .
2390.0 . . .
2390.0 . . .
2380.0 . . .
2380.0 . . .
2370.0 . . .
2380.0 . . .
2370.0 . . .
2370.0 . . .
2370.0 . . .
2370.0 . . .
2360.0 . . .
2360.0 . . .
2360.0 . . .
2350.0 . . .
2360.0 . . .
2350.0 . . .
2350.0 . . .
2350.0 . . .
2350.0 . . .
2350.0 . . .
2350.0 . . .
2350.0 . . .
2350.0 . . .
2350.0 . . .
2350.0 . . .
2340.0 . . .
2340.0 . . .
2330.0 . . .
2340.0 . . .
2350.0 . . .
2340.0 . . .
2330.0 . . .
2330.0 . . .
2340.0 . . .
2330.0 . . .
2320.0 . . .
2320.0 . . .
2320.0 . . .
2320.0 . . .
2320.0 . . .
2340.0 . . .
2340.0 . . .
2330.0 . . .
2340.0 . . .
2330.0 . . .
2330.0 . . .
2320.0 . . .
2320.0 . . .
2320.0 . . .
2310.0 . . .
2310.0 . . .
2310.0 . . .
2310.0 . . .
2310.0 . . .
2300.0 . . .
2300.0 . . .
2290.0 . . .
2290.0 . . .
2300.0 . . .
2310.0 . . .
2320.0 . . .
2320.0 . . .
2300.0 . . .
2290.0 . . .
2300.0 . . .
2310.0 . . .
2320.0 . . .
2320.0 . . .
2300.0 . . .
2310.0 . . .
2320.0 . . .
2330.0 . . .
2320.0 . . .
2320.0 . . .
2340.0 . . .
2340.0 . . .
2350.0 . . .
2350.0 . . .
2340.0 . . .
2330.0 . . .
2330.0 . . .
2340.0 . . .
2340.0 . . .
2350.0 . . .
2350.0 . . .
2340.0 . . .
2340.0 . . .
2330.0 . . .
2330.0 . . .
2340.0 . . .
2340.0 . . .
2340.0 . . .
2340.0 . . .
2330.0 . . .
2330.0 . . .
2340.0 . . .
2340.0 . . .
2330.0 . . .
2330.0 . . .
2320.0 . . .
2320.0 . . .
2310.0 . . .
2310.0 . . .
2320.0 . . .
2320.0 . . .
2320.0 . . .
2310.0 . . .
2300.0 . . .
2310.0 . . .
2320.0 . . .
2320.0 . . .
2300.0 . . .
2290.0 . . .
2300.0 . . .
2300.0 . . .
2290.0 . . .
2290.0 . . .
2290.0 . . .
2290.0 . . .
2290.0 . . .
2280.0 . . .
2280.0 . . .
2280.0 . . .
2270.0 . . .
2270.0 . . .
2280.0 . . .
2280.0 . . .
2280.0 . . .
2280.0 . . .
2280.0 . . .
2270.0 . . .
2270.0 . . .
2260.0 . . .
2260.0 . . .
2250.0 . . .
2260.0 . . .
2260.0 . . .
2270.0 . . .
2280.0 . . .
2280.0 . . .
2280.0 . . .
2300.0 . . .
2290.0 . . .
2270.0 . . .
2270.0 . . .
2270.0 . . .
2270.0 . . .
2290.0 . . .
2280.0 . . .
2290.0 . . .
2280.0 . . .
2270.0 . . .
2270.0 . . .
2280.0 . . .
2290.0 . . .
2280.0 . . .
2260.0 . . .
2270.0 . . .
2290.0 . . .
2290.0 . . .
2270.0 . . .
2270.0 . . .
2280.0 . . .
2290.0 . . .
2290.0 . . .
2290.0 . . .
2290.0 . . .
2290.0 . . .
2280.0 . . .
2280.0 . . .
2280.0 . . .
2300.0 . . .
2300.0 . . .
2290.0 . . .
2290.0 . . .
2290.0 . . .
2280.0 . . .
2280.0 . . .
2270.0 . . .
2270.0 . . .
2260.0 . . .
2260.0 . . .
2250.0 . . .
2260.0 . . .
2260.0 . . .
2260.0 . . .
2260.0 . . .
2250.0 . . .
2250.0 . . .
2250.0 . . .
2240.0 . . .
2230.0 . . .
2230.0 . . .
2240.0 . . .
2230.0 . . .
2220.0 . . .
2210.0 . . .
2220.0 . . .
2230.0 . . .
2230.0 . . .
2210.0 . . .
2200.0 . . .
2220.0 . . .
2220.0 . . .
2220.0 . . .
2220.0 . . .
2210.0 . . .
2220.0 . . .
2220.0 . . .
2220.0 . . .
2220.0 . . .
2210.0 . . .
2220.0 . . .
2220.0 . . .
2210.0 . . .
2210.0 . . .
2210.0 . . .
2230.0 . . .
2220.0 . . .
2220.0 . . .
2220.0 . . .
2220.0 . . .
2230.0 . . .
2230.0 . . .
2220.0 . . .
2220.0 . . .
2210.0 . . .
2210.0 . . .
2200.0 . . .
2200.0 . . .
2200.0 . . .
2200.0 . . .
2200.0 . . .
2190.0 . . .
2190.0 . . .
2180.0 . . .
2180.0 . . .
2180.0 . . .
2160.0 . . .
2150.0 . . .
2160.0 . . .
2170.0 . . .
2170.0 . . .
2160.0 . . .
2140.0 . . .
2130.0 . . .
2140.0 . . .
2130.0 . . .
2120.0 . . .
2120.0 . . .
2120.0 . . .
2130.0 . . .
2130.0 . . .
2130.0 . . .
2120.0 . . .
2110.0 . . .
2110.0 . . .
2100.0 . . .
2090.0 . . .
2100.0 . . .
2090.0 . . .
2080.0 . . .
2090.0 . . .
2090.0 . . .
2100.0 . . .
2100.0 . . .
2110.0 . . .
2110.0 . . .
2110.0 . . .
2110.0 . . .
2120.0 . . .
2120.0 . . .
2120.0 . . .
2120.0 . . .
2120.0 . . .
2140.0 . . .
2160.0 . . .
2160.0 . . .
2160.0 . . .
2150.0 . . .
2160.0 . . .
2170.0 . . .
2170.0 . . .
2170.0 . . .
2160.0 . . .
2150.0 . . .
2150.0 . . .
2160.0 . . .
2170.0 . . .
2180.0 . . .
2180.0 . . .
2180.0 . . .
2170.0 . . .
2180.0 . . .
2190.0 . . .
2180.0 . . .
2180.0 . . .
2180.0 . . .
2180.0 . . .
2190.0 . . .
2180.0 . . .
2180.0 . . .
2180.0 . . .
2180.0 . . .
2170.0 . . .
2180.0 . . .
2190.0 . . .
2200.0 . . .
2200.0 . . .
2200.0 . . .
2200.0 . . .
2200.0 . . .
2180.0 . . .
2170.0 . . .
2180.0 . . .
2180.0 . . .
2170.0 . . .
2160.0 . . .
2160.0 . . .
2150.0 . . .
2140.0 . . .
2140.0 . . .
2130.0 . . .
2120.0 . . .
2100.0 . . .
2090.0 . . .
2080.0 . . .
2080.0 . . .
2060.0 . . .
2030.0 . . .
2020.0 . . .
2020.0 . . .
2010.0 . . .
2000.0 . . .
2000.0 . . .
1990.0 . . .
1990.0 . . .
1980.0 . . .
1970.0 . . .
1970.0 . . .
1950.0 . . .
1940.0 . . .
1950.0 . . .
1880.0 . . .
1670.0 . . .
1520.0 . . .
1410.0 . . .
1310.0 . . .
1220.0 . . .
1140.0 . . .
1050.0 . . .
971.0 . . .
883.0 . . .
784.0 . . .
699.0 . . .
616.0 . . .
523.0 . . .
419.0 . . .
232.0 . . .
17.0 . . .
0.0 . . .
0.0 . . .
0.0 . . .
0.0 . . .
0.0 . . .
0.0 . . .
0.0 . . .
0.0 . . .
0.0 . . .
0.0 . . .
0.0 . . .
0.0 . . .
0.0 . . .
0.0 . . .
0.0 . . .
0.0 . . .
0.0 . . .
0.0 . . .
0.0 . . .
0.0 . . .
0.0 . . .
0.0 . . .
0.0 . . .
0.0 . . .
0.0 . . .
0.0 . . .
0.0 . . .
0.0 . . .
0.0 . . .
0.0 . . .
0.0 . . .
0.0 . . .
0.0 . . .
0.0 . . .
0.0 . . .
0.0 . . .
0.0 . . .
0.0 . . .
0.0 . . .
0.0 . . .
0.0 . . .
0.0 . . .
0.0 . . .
0.0 . . .
0.0 . . .
0.0 . . .
0.0 . . .
0.0 . . .
0.0 . . .
0.0 . . .
0.0 . . .
0.0 . . .
0.0 . . .
0.0 . . .
0.0 . . .
0.0 . . .
0.0 . . .
0.0 . . .
0.0 . . .
0.0 . . .
0.0 . . .
0.0 . . .
0.0 . . .
0.0 . . .
0.0 . . .
0.0 . . .
0.0 . . .
0.0 . . .
0.0 . . .
0.0 . . .
0.0 . . .
0.0 . . .
0.0 . . .
0.0 . . .
0.0 . . .
0.0 . . .
0.0 . . .
0.0 . . .
0.0 . . .
0.0 . . .
0.0 . . .
0.0 . . .
0.0 . . .
0.0 . . .
0.0 . . .
0.0 . . .
0.0 . . .
0.0 . . .
0.0 . . .
0.0 . . .
0.0 . . .
0.0 . . .
0.0 . . .
0.0 . . .
0.0 . . .
0.0 . . .
0.0 . . .
0.0 . . .
0.0 . . .
0.0 . . .
0.0 . . .
0.0 . . .
0.0 . . .
0.0 . . .
0.0 . . .
0.0 . . .
0.0 . . .
0.0 . . .
0.0 . . .
0.0 . . .
0.0 . . .
0.0 . . .
0.0 . . .
0.0 . . .
0.0 . . .
0.0 . . .
0.0 . . .
0.0 . . .
0.0 . . .
0.0 . . .
0.0 . . .
0.0 . . .
0.0 . . .
0.0 . . .
0.0 . . .
0.0 . . .
0.0 . . .
0.0 . . .
0.0 . . .
0.0 . . .
0.0 . . .
0.0 . . .
0.0 . . .
0.0 . . .
0.0 . . .
0.0 . . .
0.0 . . .
0.0 . . .
0.0 . . .
0.0 . . .
0.0 . . .
0.0 . . .
0.0 . . .
0.0 . . .
0.0 . . .
0.0 . . .
0.0 . . .
0.0 . . .
0.0 . . .
0.0 . . .
0.0 . . .
0.0 . . .
0.0 . . .
0.0 . . .
0.0 . . .
0.0 . . .
0.0 . . .
0.0 . . .
0.0 . . .
0.0 . . .
0.0 . . .
0.0 . . .
0.0 . . .
0.0 . . .
0.0 . . .
0.0 . . .
0.0 . . .
0.0 . . .
0.0 . . .
0.0 . . .
0.0 . . .
0.0 . . .
0.0 . . .
0.0 . . .
0.0 . . .
0.0 . . .
0.0 . . .
0.0 . . .
0.0 . . .
0.0 . . .
0.0 . . .
0.0 . . .
0.0 . . .
0.0 . . .
0.0 . . .
0.0 . . .
0.0 . . .
0.0 . . .
0.0 . . .
0.0 . . .
0.0 . . .
0.0 . . .
0.0 . . .
0.0 . . .
0.0 . . .
0.0 . . .
0.0 . . .
0.0 . . .
0.0 . . .
0.0 . . .
0.0 . . .
0.0 . . .
0.0 . . .
0.0 . . .
0.0 . . .
0.0 . . .
0.0 . . .
0.0 . . .
0.0 . . .
0.0 . . .
0.0 . . .
0.0 . . .
0.0 . . .
0.0 . . .
0.0 . . .
0.0 . . .
0.0 . . .
0.0 . . .
0.0 . . .
0.0 . . .
0.0 . . .
0.0 . . .
0.0 . . .
0.0 . . .
0.0 . . .
0.0 . . .
0.0 . . .
0.0 . . .
0.0 . . .
0.0 . . .
0.0 . . .
0.0 . . .
0.0 . . .
0.0 . . .
0.0 . . .
0.0 . . .
0.0 . . .
0.0 . . .
0.0 . . .
0.0 . . .
0.0 . . .
0.0 . . .
0.0 . . .
0.0 . . .
0.0 . . .
0.0 . . .
0.0 . . .
0.0 . . .
0.0 . . .
0.0 . . .
0.0 . . .
0.0 . . .
0.0 . . .
0.0 . . .
0.0 . . .
0.0 . . .
0.0 . . .
0.0 . . .
0.0 . . .
0.0 . . .
0.0 . . .
0.0 . . .
0.0 . . .
0.0 . . .
0.0 . . .
0.0 . . .
0.0 . . .
0.0 . . .
0.0 . . .
0.0 . . .
0.0 . . .
0.0 . . .
0.0 . . .
0.0 . . .
0.0 . . .
0.0 . . .
0.0 . . .
0.0 . . .
0.0 . . .
0.0 . . .
0.0 . . .
0.0 . . .
0.0 . . .
0.0 . . .
0.0 . . .
0.0 . . .
0.0 . . .
0.0 . . .
0.0 . . .
0.0 . . .
0.0 . . .
0.0 . . .
0.0 . . .
0.0 . . .
0.0 . . .
0.0 . . .
0.0 . . .
0.0 . . .
0.0 . . .
0.0 . . .
0.0 . . .
0.0 . . .
0.0 . . .
0.0 . . .
0.0 . . .
0.0 . . .
0.0 . . .
0.0 . . .
0.0 . . .
0.0 . . .
0.0 . . .
0.0 . . .
0.0 . . .
0.0 . . .
0.0 . . .
0.0 . . .
0.0 . . .
0.0 . . .
0.0 . . .
0.0 . . .
0.0 . . .
0.0 . . .
0.0 . . .
0.0 . . .
0.0 . . .
0.0 . . .
0.0 . . .
0.0 . . .
0.0 . . .
0.0 . . .
0.0 . . .
0.0 . . .
0.0 . . .
0.0 . . .
0.0 . . .
0.0 . . .
0.0 . . .
0.0 . . .
0.0 . . .
0.0 . . .
0.0 . . .
0.0 . . .
0.0 . . .
0.0 . . .
0.0 . . .
0.0 . . .
0.0 . . .
0.0 . . .
0.0 . . .
0.0 . . .
0.0 . . .
0.0 . . .
0.0 . . .
0.0 . . .
0.0 . . .
0.0 . . .
0.0 . . .
0.0 . . .
0.0 . . .
0.0 . . .
0.0 . . .
0.0 . . .
0.0 . . .
0.0 . . .
0.0 . . .
0.0 . . .
0.0 . . .
0.0 . . .
0.0 . . .
0.0 . . .
0.0 . . .
0.0 . . .
0.0 . . .
0.0 . . .
0.0 . . .
0.0 . . .
0.0 . . .
0.0 . . .
0.0 . . .
0.0 . . .
0.0 . . .
0.0 . . .
0.0 . . .
0.0 . . .
0.0 . . .
0.0 . . .
0.0 . . .
0.0 . . .
0.0 . . .
0.0 . . .
0.0 . . .
0.0 . . .
0.0 . . .
0.0 . . .
0.0 . . .
0.0 . . .
0.0 . . .
0.0 . . .
0.0 . . .
0.0 . . .
0.0 . . .
0.0 . . .
0.0 . . .
0.0 . . .
0.0 . . .
0.0 . . .
0.0 . . .
0.0 . . .
0.0 . . .
0.0 . . .
0.0 . . .
0.0 . . .
0.0 . . .
0.0 . . .
0.0 . . .
0.0 . . .
0.0 . . .
0.0 . . .
0.0 . . .
0.0 . . .
0.0 . . .
0.0 . . .
0.0 . . .
0.0 . . .
0.0 . . .
0.0 . . .
0.0 . . .
0.0 . . .
0.0 . . .
0.0 . . .
0.0 . . .
0.0 . . .
0.0 . . .
0.0 . . .
0.0 . . .
0.0 . . .
0.0 . . .
0.0 . . .
0.0 . . .
0.0 . . .
0.0 . . .
0.0 . . .
0.0 . . .
0.0 . . .
0.0 . . .
0.0 . . .
0.0 . . .
0.0 . . .
0.0 . . .
0.0 . . .
0.0 . . .
0.0 . . .
0.0 . . .
0.0 . . .
0.0 . . .
0.0 . . .
0.0 . . .
0.0 . . .
0.0 . . .
0.0 . . .
0.0 . . .
0.0 . . .
0.0 . . .
0.0 . . .
0.0 . . .
0.0 . . .
0.0 . . .
0.0 . . .
0.0 . . .
0.0 . . .
0.0 . . .
0.0 . . .
0.0 . . .
0.0 . . .
0.0 . . .
0.0 . . .
0.0 . . .
0.0 . . .
0.0 . . .
0.0 . . .
0.0 . . .
0.0 . . .
0.0 . . .
0.0 . . .
0.0 . . .
0.0 . . .
0.0 . . .
0.0 . . .
0.0 . . .
0.0 . . .
0.0 . . .
0.0 . . .
0.0 . . .
0.0 . . .
0.0 . . .
0.0 . . .
0.0 . . .
0.0 . . .
0.0 . . .
0.0 . . .
0.0 . . .
0.0 . . .
0.0 . . .
0.0 . . .
0.0 . . .
0.0 . . .
0.0 . . .
0.0 . . .
0.0 . . .
0.0 . . .
0.0 . . .
0.0 . . .
0.0 . . .
0.0 . . .
0.0 . . .
0.0 . . .
0.0 . . .
0.0 . . .
0.0 . . .
0.0 . . .
0.0 . . .
0.0 . . .
0.0 . . .
0.0 . . .
0.0 . . .
0.0 . . .
0.0 . . .
0.0 . . .
0.0 . . .
0.0 . . .
0.0 . . .
0.0 . . .
0.0 . . .
0.0 . . .
0.0 . . .
0.0 . . .
0.0 . . .
0.0 . . .
0.0 . . .
0.0 . . .
0.0 . . .
0.0 . . .
0.0 . . .
0.0 . . .
0.0 . . .
0.0 . . .
0.0 . . .
0.0 . . .
0.0 . . .
0.0 . . .
0.0 . . .
0.0 . . .
0.0 . . .
0.0 . . .
0.0 . . .
0.0 . . .
0.0 . . .
0.0 . . .
0.0 . . .
0.0 . . .
0.0 . . .
0.0 . . .
0.0 . . .
0.0 . . .
0.0 . . .
0.0 . . .
0.0 . . .
0.0 . . .
0.0 . . .
0.0 . . .
0.0 . . .
0.0 . . .
0.0 . . .
0.0 . . .
0.0 . . .
0.0 . . .
0.0 . . .
0.0 . . .
0.0 . . .
0.0 . . .
0.0 . . .
0.0 . . .
0.0 . . .
0.0 . . .
0.0 . . .
0.0 . . .
0.0 . . .
0.0 . . .
0.0 . . .
0.0 . . .
0.0 . . .
0.0 . . .
0.0 . . .
0.0 . . .
0.0 . . .
loop_
_refln_index_h
_refln_index_k
_refln_index_l
_refln_observed_status
_refln_F_squared_meas
_refln_F_squared_calc
_refln_phase_calc
_refln_d_spacing
_gsas_i100_meas
0 0 1 o 900.096 897.731 0.00 7.10662 30.59
1 1 -1 o 395.948 383.415 0.00 4.56126 32.42
0 1 1 o 31.050 35.504 0.00 4.51952 1.54
1 1 0 o 1820.991 1835.518 0.00 4.39297 100.00
2 0 -1 o 1880.248 1893.570 0.00 3.97340 53.65
2 0 -2 o 593.833 474.687 180.00 3.63615 11.24
0 0 2 o 257.776 243.779 180.00 3.55331 2.19
1 1 -2 o 106.826 111.574 180.00 3.45212 3.58
2 0 0 o 2195.282 2318.600 0.00 3.32143 21.51
2 1 -1 o 1356.724 1345.307 180.00 3.28804 55.88
1 1 1 o 111.396 86.577 180.00 3.24149 1.79
2 1 -2 o 15.069 10.010 0.00 3.08915 0.47
0 1 2 o 0.000 18.442 0.00 3.03787 0.00
0 2 0 o 212.414 287.034 180.00 2.92820 4.62
2 1 0 o 1502.247 1415.489 180.00 2.88912 26.76
2 0 -3 o 0.032 0.289 0.00 2.80024 0.00
1 2 -1 o 18.372 17.482 0.00 2.71627 0.63
0 2 1 o 239.014 235.326 180.00 2.70738 6.39
1 2 0 o 133.568 140.165 180.00 2.67943 3.77
2 1 -3 o 19.684 28.501 0.00 2.52630 0.35
2 0 1 o 17.989 20.785 180.00 2.51934 0.07
1 1 -3 o 255.651 218.321 0.00 2.50500 3.62
3 1 -2 o 0.146 0.167 180.00 2.41832 0.00
1 2 -2 o 102.962 110.041 0.00 2.41555 2.08
1 1 2 o 4.025 5.056 180.00 2.36938 0.03
0 0 3 o 369.150 453.246 0.00 2.36887 1.40
2 2 -1 o 14.464 14.553 0.00 2.35724 0.34
3 1 -1 o 668.938 584.460 0.00 2.34242 11.35
1 2 1 o 54.662 45.404 180.00 2.33991 0.72
2 1 1 o 0.036 0.073 180.00 2.31428 0.00
2 2 -2 o 0.000 6.686 0.00 2.28063 0.00
0 2 2 o 0.000 58.910 0.00 2.25976 0.00
3 1 -3 o 89.377 91.995 0.00 2.23981 1.38
2 2 0 o 46.952 80.220 180.00 2.19649 0.65
0 1 3 o 27.002 44.687 0.00 2.19603 0.20
2 0 -4 o 149.788 34.099 0.00 2.13675 0.85
3 1 0 o 113.096 28.770 0.00 2.07119 0.95
2 2 -3 o 278.956 296.528 0.00 2.02379 3.70
1 2 -3 o 88.934 90.013 0.00 2.01279 0.96
2 1 -4 o 139.610 154.594 180.00 2.00731 1.44
4 0 -2 o 0.000 39.100 180.00 1.98670 0.00
4 0 -3 o 0.000 3.012 0.00 1.96819 0.00
3 2 -2 o 0.000 13.139 0.00 1.96699 0.00
2 0 2 o 9.183 45.870 0.00 1.94602 0.02
1 2 2 o 1.331 2.779 180.00 1.94039 0.01
3 1 -4 o 187.986 230.907 0.00 1.93429 1.91
3 2 -1 o 264.112 207.643 180.00 1.92550 3.38
2 2 1 o 163.414 120.708 180.00 1.90977 1.15
1 1 -4 o 142.567 106.098 0.00 1.90897 1.02
1 3 -1 o 78.937 76.047 180.00 1.88538 1.36
0 3 1 o 189.400 182.411 180.00 1.88240 2.87
4 1 -2 o 2.716 2.605 180.00 1.88139 0.04
1 3 0 o 92.338 81.677 180.00 1.87293 1.44
3 2 -3 o 74.831 60.704 0.00 1.86727 0.92
4 1 -3 o 239.998 190.235 0.00 1.86565 3.07
4 0 -1 o 5.052 3.915 0.00 1.86284 0.02
2 1 2 o 2.630 4.314 0.00 1.84673 0.01
0 2 3 o 10.086 69.219 0.00 1.84168 0.07
1 1 3 o 10.148 91.246 0.00 1.82367 0.04
4 0 -4 o 1.315 48.293 0.00 1.81808 0.01
4 1 -1 o 619.262 642.579 180.00 1.77519 5.22
1 3 -2 o 0.543 0.581 0.00 1.77564 0.01
0 0 4 o 173.818 201.743 0.00 1.77666 0.37
3 2 0 o 297.088 221.181 180.00 1.76616 2.19
3 1 1 o 40.326 31.611 180.00 1.75798 0.18
2 3 -1 o 161.373 145.408 0.00 1.75209 2.21
1 3 1 o 29.096 30.670 180.00 1.74494 0.29
4 1 -4 o 13.037 22.693 0.00 1.73633 0.12
2 2 -4 o 114.240 118.776 0.00 1.72606 0.96
2 3 -2 o 15.107 11.038 0.00 1.71994 0.20
0 3 2 o 25.616 42.157 180.00 1.71093 0.23
2 0 -5 o 0.000 19.619 180.00 1.69002 0.00
2 3 0 o 0.000 0.410 180.00 1.68297 0.00
0 1 4 o 0.000 93.601 0.00 1.70014 0.00
3 2 -4 o 0.000 8.352 180.00 1.67896 0.00
1 2 -4 o 0.497 0.479 180.00 1.66233 0.00
4 0 0 o 43.422 26.077 180.00 1.66072 0.11
4 2 -2 o 111.039 46.656 0.00 1.64402 1.15
4 2 -3 o 3.031 1.125 0.00 1.63349 0.03
3 1 -5 o 2.685 0.992 0.00 1.63339 0.02
2 1 -5 o 58.599 21.495 180.00 1.62376 0.36
2 2 2 o 36.839 14.791 0.00 1.62075 0.15
4 0 -5 o 34.796 29.905 180.00 1.60846 0.12
1 2 3 o 28.321 29.430 180.00 1.60509 0.11
2 3 -3 o 0.042 0.050 0.00 1.60141 0.00
4 1 0 o 151.525 225.571 180.00 1.59772 0.73
1 3 -3 o 32.479 57.314 0.00 1.59594 0.26
3 3 -2 o 47.977 54.665 180.00 1.57281 0.51
4 2 -1 o 232.077 245.140 0.00 1.57174 1.69
2 0 3 o 339.234 328.770 0.00 1.56141 0.45
3 2 1 o 2.821 2.817 0.00 1.55976 0.01
1 3 2 o 114.155 115.411 0.00 1.55911 0.66
3 3 -1 o 0.970 1.105 180.00 1.55136 0.01
4 1 -5 o 5.314 6.017 180.00 1.55103 0.03
4 2 -4 o 221.926 157.052 0.00 1.54457 1.75
2 3 1 o 51.930 32.415 180.00 1.54310 0.31
5 1 -3 o 4.202 2.418 0.00 1.54194 0.04
1 1 -5 o 0.214 2.908 0.00 1.52665 0.00
3 3 -3 o 0.000 7.590 180.00 1.52042 0.00
0 2 4 o 0.000 30.730 180.00 1.51893 0.00
5 1 -2 o 10.134 15.831 0.00 1.50865 0.08
2 1 3 o 15.563 24.446 180.00 1.50871 0.04
0 3 3 o 48.868 70.144 180.00 1.50651 0.27
5 1 -4 o 70.037 100.730 0.00 1.50511 0.56
3 1 2 o 0.000 23.320 0.00 1.48473 0.00
3 2 -5 o 130.855 57.911 180.00 1.47077 0.80
1 1 4 o 15.861 6.610 0.00 1.46989 0.04
3 3 0 o 62.308 20.960 180.00 1.46432 0.38
0 4 0 o 25.291 8.455 0.00 1.46410 0.14
2 2 -5 o 11.288 3.722 0.00 1.46372 0.06
4 0 1 o 2.148 0.473 180.00 1.44852 0.00
4 2 0 o 20.829 6.804 180.00 1.44456 0.09
2 3 -4 o 48.888 30.038 0.00 1.44122 0.32
1 4 -1 o 0.000 28.658 0.00 1.43530 0.00
0 4 1 o 0.000 12.915 180.00 1.43398 0.00
1 4 0 o 0.000 0.153 0.00 1.42978 0.00
0 0 5 o 0.000 8.574 180.00 1.42132 0.00
5 1 -1 o 0.000 13.539 0.00 1.41744 0.00
3 3 -4 o 0.000 1.380 0.00 1.41347 0.00
5 1 -5 o 0.000 0.818 0.00 1.41158 0.00
4 2 -5 o 0.000 29.827 0.00 1.40978 0.00
4 1 1 o 0.760 0.844 0.00 1.40614 0.00
5 2 -3 o 0.334 0.180 0.00 1.40294 0.00
1 3 -4 o 105.259 60.257 180.00 1.40350 0.54
4 0 -6 o 50.619 24.247 0.00 1.40012 0.13
4 3 -2 o 2.155 1.435 180.00 1.39243 0.02
1 2 -5 o 0.435 0.297 0.00 1.39140 0.00
4 3 -3 o 90.898 63.165 180.00 1.38601 0.71
1 4 -2 o 44.643 31.193 180.00 1.38507 0.37
2 0 -6 o 1.673 1.163 0.00 1.38566 0.00
3 1 -6 o 33.965 24.021 0.00 1.38414 0.16
0 1 5 o 4.656 3.563 0.00 1.38123 0.01
2 3 2 o 23.587 20.229 180.00 1.37820 0.09
5 2 -2 o 42.748 37.164 180.00 1.37773 0.28
2 2 3 o 35.580 30.838 180.00 1.37777 0.09
5 2 -4 o 7.416 6.594 180.00 1.37503 0.05
2 4 -1 o 26.644 23.220 180.00 1.37380 0.23
1 4 1 o 14.717 11.525 180.00 1.37035 0.10
1 3 3 o 6.211 4.621 0.00 1.36853 0.02
4 1 -6 o 41.687 32.359 0.00 1.36175 0.20
3 2 2 o 0.132 0.119 0.00 1.35944 0.00
2 4 -2 o 155.861 157.622 180.00 1.35814 1.33
0 4 2 o 3.046 5.277 180.00 1.35369 0.02
4 3 -1 o 1.008 2.768 0.00 1.34769 0.01
2 1 -6 o 50.849 137.475 0.00 1.34843 0.20
1 2 4 o 11.172 30.495 180.00 1.34802 0.03
3 3 1 o 0.033 0.105 180.00 1.34011 0.00
2 4 0 o 0.663 2.148 0.00 1.33971 0.00
4 3 -4 o 14.845 15.347 180.00 1.33044 0.10
6 0 -4 o 227.311 161.620 0.00 1.32764 0.76
6 0 -3 o 30.201 18.678 0.00 1.32447 0.10
0 3 4 o 87.349 112.984 180.00 1.31395 0.31
5 2 -1 o 209.488 185.041 180.00 1.30722 0.94
5 2 -5 o 44.418 34.107 180.00 1.30262 0.24
4 2 1 o 7.229 7.281 180.00 1.29834 0.02
2 4 -3 o 18.375 20.308 180.00 1.29746 0.13
5 1 0 o 14.487 19.646 180.00 1.29565 0.04
6 1 -4 o 10.463 15.490 0.00 1.29478 0.07
2 0 4 o 40.555 56.247 0.00 1.29545 0.04
1 4 -3 o 9.501 14.351 180.00 1.29455 0.06
6 1 -3 o 13.593 23.091 0.00 1.29184 0.08
5 1 -6 o 0.556 1.075 180.00 1.28895 0.00
6 0 -5 o 2.841 10.145 0.00 1.28648 0.01
3 4 -2 o 1.161 14.190 180.00 1.28211 0.01
3 3 -5 o 0.940 15.801 180.00 1.28240 0.00
3 2 -6 o 1.289 5.930 0.00 1.28097 0.01
6 0 -2 o 11.270 13.886 180.00 1.27788 0.03
0 2 5 o 4.178 6.409 0.00 1.27865 0.01
2 3 -5 o 4.147 4.913 0.00 1.27772 0.02
1 4 2 o 0.827 0.593 180.00 1.27466 0.00
3 4 -1 o 67.691 34.638 0.00 1.27041 0.45
3 1 3 o 11.940 5.393 0.00 1.26664 0.02
2 4 1 o 0.150 0.067 0.00 1.26586 0.00
1 1 -6 o 44.828 20.238 0.00 1.26662 0.12
4 3 0 o 0.000 0.000 0.00 1.26492 0.00
2 1 4 o 2.335 1.048 180.00 1.26487 0.00
4 2 -6 o 5.759 2.638 180.00 1.26315 0.03
4 0 2 o 49.471 26.198 0.00 1.25967 0.05
6 1 -5 o 5.235 3.502 0.00 1.25652 0.03
3 4 -3 o 122.730 108.969 180.00 1.25325 0.82
2 2 -6 o 51.948 49.264 0.00 1.25250 0.18
6 1 -2 o 0.177 0.235 180.00 1.24851 0.00
0 4 3 o 1.637 2.440 0.00 1.24542 0.01
4 3 -5 o 4.070 6.050 180.00 1.24136 0.02
5 3 -3 o 44.573 110.000 180.00 1.23669 0.28
4 1 2 o 7.345 24.404 180.00 1.23150 0.01
1 3 -5 o 25.780 66.373 180.00 1.22876 0.09
1 1 5 o 0.011 0.023 0.00 1.22665 0.00
3 4 0 o 0.056 0.059 180.00 1.22127 0.00
5 3 -2 o 0.099 0.081 180.00 1.21932 0.00
2 3 3 o 47.113 38.413 180.00 1.21935 0.12
4 0 -7 o 429.028 321.975 0.00 1.21869 0.82
5 3 -4 o 0.388 0.253 180.00 1.21744 0.00
6 0 -6 o 0.005 0.002 0.00 1.21205 0.00
5 2 0 o 42.258 21.359 180.00 1.20987 0.13
6 2 -4 o 5.040 2.604 180.00 1.20916 0.03
2 4 -4 o 54.560 29.975 180.00 1.20777 0.28
6 2 -3 o 54.172 31.548 180.00 1.20676 0.29
3 3 2 o 55.626 32.737 0.00 1.20658 0.14
5 2 -6 o 13.393 9.211 180.00 1.20440 0.06
6 0 -1 o 116.074 100.156 180.00 1.20013 0.19
1 3 4 o 159.763 140.316 180.00 1.19858 0.39
4 1 -7 o 107.593 110.931 0.00 1.19313 0.40
3 4 -4 o 9.756 11.911 0.00 1.19130 0.05
3 1 -7 o 38.824 68.608 0.00 1.18786 0.13
6 1 -6 o 0.001 0.001 180.00 1.18690 0.00
3 2 3 o 32.199 64.708 180.00 1.18614 0.06
1 2 -6 o 37.031 74.396 0.00 1.18613 0.10
1 4 -4 o 24.824 51.902 0.00 1.18531 0.10
2 2 4 o 47.156 100.490 180.00 1.18469 0.09
0 0 6 o 16.644 35.667 180.00 1.18444 0.02
4 4 -2 o 90.859 129.032 180.00 1.17862 0.53
6 2 -5 o 12.724 16.074 0.00 1.17782 0.06
6 1 -1 o 40.400 37.899 180.00 1.17570 0.13
1 4 3 o 5.777 3.353 180.00 1.16402 0.02
4 4 -3 o 126.463 105.320 180.00 1.17472 0.75
4 3 1 o 0.221 0.135 180.00 1.16325 0.00
5 1 -7 o 106.277 80.322 0.00 1.16127 0.38
6 2 -2 o 130.610 81.473 0.00 1.17121 0.56
0 1 6 o 44.131 35.171 180.00 1.16093 0.08
2 4 2 o 39.749 23.454 0.00 1.16995 0.13
5 3 -1 o 49.306 28.737 0.00 1.16962 0.20
2 0 -7 o 16.942 9.837 0.00 1.16952 0.02
4 2 2 o 1.875 3.164 0.00 1.15714 0.00
5 1 1 o 2.317 1.287 0.00 1.16780 0.00
1 5 -1 o 6.951 13.508 180.00 1.15638 0.05
0 5 1 o 4.610 9.909 0.00 1.15569 0.03
5 3 -5 o 43.326 23.785 0.00 1.16633 0.20
1 5 0 o 2.864 7.027 0.00 1.15349 0.02
1 2 5 o 9.146 22.442 180.00 1.15311 0.02
4 4 -1 o 3.673 8.822 180.00 1.15111 0.02
3 3 -6 o 3.500 8.379 180.00 1.15071 0.01
0 3 5 o 20.995 49.498 180.00 1.14903 0.05
3 4 1 o 16.792 34.944 180.00 1.14638 0.06
2 1 -7 o 78.676 170.274 0.00 1.14687 0.21
4 4 -4 o 4.282 4.071 180.00 1.14031 0.02
4 3 -6 o 37.846 27.736 180.00 1.13774 0.15
1 5 -2 o 160.103 123.046 180.00 1.12962 0.94
0 4 4 o 71.304 53.736 180.00 1.12988 0.22
2 3 -6 o 7.852 5.891 180.00 1.12994 0.02
4 2 -7 o 3.033 3.483 180.00 1.12514 0.01
2 5 -1 o 1.195 1.507 180.00 1.12348 0.01
1 5 1 o 35.861 46.111 180.00 1.12159 0.19
7 1 -4 o 8.359 10.345 0.00 1.12022 0.04
3 2 -7 o 48.803 61.528 0.00 1.12072 0.15
6 0 -7 o 190.972 236.962 0.00 1.12029 0.32
6 2 -6 o 6.296 7.684 180.00 1.11990 0.02
2 5 -2 o 58.496 56.108 180.00 1.11487 0.35
0 5 2 o 50.531 46.990 0.00 1.11240 0.25
7 1 -5 o 8.958 8.438 0.00 1.11097 0.04
6 2 -1 o 79.133 75.125 0.00 1.11048 0.24
3 4 -5 o 64.330 62.068 0.00 1.10963 0.27
6 0 0 o 32.546 33.181 180.00 1.10714 0.04
2 4 -5 o 132.727 136.727 180.00 1.10659 0.49
2 5 0 o 2.131 2.238 180.00 1.10461 0.01
5 2 1 o 3.479 3.649 0.00 1.10382 0.01
2 0 5 o 3.077 3.223 180.00 1.10351 0.00
