#------------------------------------------------------------------------------
#$Date: 2018-08-13 16:26:29 +0300 (Mon, 13 Aug 2018) $
#$Revision: 209649 $
#$URL: file:///home/coder/svn-repositories/cod/cif/2/30/03/2300332.cif $
#------------------------------------------------------------------------------
#
# This file is available in the Crystallography Open Database (COD),
# http://www.crystallography.net/. The original data for this entry
# were provided by IUCr Journals, http://journals.iucr.org/.
#
# The file may be used within the scientific community so long as
# proper attribution is given to the journal article from which the
# data were obtained.
#
data_2300332
loop_
_publ_author_name
'Eccles, Kevin S.'
'Stokes, Stephen P.'
'Daly, Carla A.'
'Barry, Nicola M.'
'McSweeney, Sharon P.'
'O'Neill, Damian J.'
'Kelly, Dawn M.'
'Jennings, W. Brian'
'N\'i Dhubhghaill, O. M.'
'Moynihan, Humphrey A.'
'Maguire, Anita R.'
'Lawrence, Simon E.'
_publ_section_title
;
 Evaluation of the Bruker SMART X2S: crystallography for the
 nonspecialist?
;
_journal_coden_ASTM              JACGAR
_journal_coeditor_code           KK5074
_journal_issue                   1
_journal_name_full               'Journal of Applied Crystallography'
_journal_page_first              213
_journal_page_last               215
_journal_paper_doi               10.1107/S0021889810042561
_journal_volume                  44
_journal_year                    2011
_chemical_formula_moiety         'C7 H5 N O3 S'
_chemical_formula_sum            'C7 H5 N O3 S'
_chemical_formula_weight         183.18
_space_group_IT_number           14
_symmetry_cell_setting           monoclinic
_symmetry_space_group_name_Hall  '-P 2ybc'
_symmetry_space_group_name_H-M   'P 1 21/c 1'
_atom_sites_solution_hydrogens   geom
_atom_sites_solution_primary     direct
_atom_sites_solution_secondary   difmap
_audit_creation_method           SHELXL-97
_cell_angle_alpha                90.00
_cell_angle_beta                 103.834(6)
_cell_angle_gamma                90.00
_cell_formula_units_Z            4
_cell_length_a                   9.6083(16)
_cell_length_b                   6.9347(10)
_cell_length_c                   11.882(2)
_cell_measurement_reflns_used    1234
_cell_measurement_temperature    300(2)
_cell_measurement_theta_max      21.50
_cell_measurement_theta_min      3.43
_cell_volume                     768.7(2)
_computing_cell_refinement       'Bruker SAINT'
_computing_data_collection       'Bruker GIS'
_computing_data_reduction        'Bruker SAINT'
_computing_molecular_graphics    'Bruker APEX2'
_computing_structure_refinement  'SHELXL-97 (Sheldrick, 2008)'
_computing_structure_solution    'SHELXS-97 (Sheldrick, 2008)'
_diffrn_ambient_temperature      300(2)
_diffrn_measured_fraction_theta_full 0.999
_diffrn_measured_fraction_theta_max 0.999
_diffrn_measurement_device_type  'Bruker SMART X2S'
_diffrn_measurement_method       '\w scans'
_diffrn_radiation_monochromator  'doubly curved silicon crystal'
_diffrn_radiation_source         'micro-focus sealed tube'
_diffrn_radiation_type           MoK\a
_diffrn_radiation_wavelength     0.71073
_diffrn_reflns_av_R_equivalents  0.0347
_diffrn_reflns_av_sigmaI/netI    0.0358
_diffrn_reflns_limit_h_max       11
_diffrn_reflns_limit_h_min       -10
_diffrn_reflns_limit_k_max       8
_diffrn_reflns_limit_k_min       -8
_diffrn_reflns_limit_l_max       13
_diffrn_reflns_limit_l_min       -14
_diffrn_reflns_number            4799
_diffrn_reflns_theta_full        25.00
_diffrn_reflns_theta_max         25.00
_diffrn_reflns_theta_min         2.18
_exptl_absorpt_coefficient_mu    0.381
_exptl_absorpt_correction_T_max  0.9812
_exptl_absorpt_correction_T_min  0.8322
_exptl_absorpt_correction_type   multi-scan
_exptl_absorpt_process_details   'SADABS V2008/1 (Bruker AXS)'
_exptl_crystal_colour            colorless
_exptl_crystal_density_diffrn    1.583
_exptl_crystal_density_method    'not measured'
_exptl_crystal_description       plate
_exptl_crystal_F_000             376
_exptl_crystal_size_max          0.32
_exptl_crystal_size_mid          0.25
_exptl_crystal_size_min          0.11
_refine_diff_density_max         0.236
_refine_diff_density_min         -0.305
_refine_ls_extinction_method     none
_refine_ls_goodness_of_fit_ref   1.171
_refine_ls_hydrogen_treatment    mixed
_refine_ls_matrix_type           full
_refine_ls_number_parameters     113
_refine_ls_number_reflns         1346
_refine_ls_number_restraints     0
_refine_ls_restrained_S_all      1.171
_refine_ls_R_factor_all          0.0590
_refine_ls_R_factor_gt           0.0386
_refine_ls_shift/su_max          0.000
_refine_ls_shift/su_mean         0.000
_refine_ls_structure_factor_coef Fsqd
_refine_ls_weighting_details
'calc w=1/[\s^2^(Fo^2^)+(0.0766P)^2^+0.0000P] where P=(Fo^2^+2Fc^2^)/3'
_refine_ls_weighting_scheme      calc
_refine_ls_wR_factor_gt          0.1067
_refine_ls_wR_factor_ref         0.1375
_reflns_number_gt                1025
_reflns_number_total             1346
_reflns_threshold_expression     >2sigma(I)
_cod_data_source_file            kk5074.cif
_cod_data_source_block           Compound_12_Manual
_cod_depositor_comments
;
The following automatic conversions were performed:
'_symmetry_cell_setting' value 'Monoclinic' changed to 'monoclinic'
according to '/home/saulius/struct/CIF-dictionaries/cif_core.dic'
dictionary named 'cif_core.dic' version 2.4.1 from 2010-06-29.

Automatic conversion script
Id: cif_fix_enum 1555 2011-01-17 13:19:09Z saulius 
;
_cod_original_sg_symbol_H-M      P12(1)/c1
_cod_database_code               2300332
loop_
_symmetry_equiv_pos_as_xyz
'x, y, z'
'-x, y+1/2, -z+1/2'
'-x, -y, -z'
'x, -y-1/2, z-1/2'
loop_
_atom_site_type_symbol
_atom_site_label
_atom_site_fract_x
_atom_site_fract_y
_atom_site_fract_z
_atom_site_U_iso_or_equiv
_atom_site_adp_type
_atom_site_calc_flag
_atom_site_refinement_flags
_atom_site_occupancy
_atom_site_disorder_assembly
_atom_site_disorder_group
S S1 0.21039(8) 0.22889(11) 0.84628(7) 0.0398(3) Uani d . 1 . .
O O1 0.2438(2) 0.1694(3) 0.74080(18) 0.0563(7) Uani d . 1 . .
O O2 0.0848(2) 0.3425(3) 0.8371(2) 0.0600(7) Uani d . 1 . .
N N1 0.3503(3) 0.3404(4) 0.9311(2) 0.0425(7) Uani d . 1 . .
O O3 0.5180(2) 0.3087(3) 1.10339(17) 0.0441(6) Uani d . 1 . .
C C1 0.2220(3) 0.0374(4) 0.9451(2) 0.0361(7) Uani d . 1 . .
C C2 0.1361(3) -0.1255(4) 0.9339(3) 0.0486(8) Uani d . 1 . .
H H2 0.0612 -0.1454 0.8691 0.058 Uiso calc R 1 . .
C C3 0.1674(4) -0.2569(5) 1.0240(3) 0.0544(10) Uani d . 1 . .
H H3 0.1113 -0.3672 1.0197 0.065 Uiso calc R 1 . .
C C4 0.2804(4) -0.2292(5) 1.1211(3) 0.0499(9) Uani d . 1 . .
H H4 0.2978 -0.3200 1.1804 0.060 Uiso calc R 1 . .
C C5 0.4128(3) 0.2489(4) 1.0322(2) 0.0333(7) Uani d . 1 . .
C C6 0.3354(3) 0.0660(4) 1.0399(2) 0.0330(7) Uani d . 1 . .
C C7 0.3663(3) -0.0680(4) 1.1294(3) 0.0435(8) Uani d . 1 . .
H H7 0.4429 -0.0495 1.1932 0.052 Uiso calc R 1 . .
H H1 0.376(3) 0.446(4) 0.913(3) 0.047(10) Uiso d . 1 . .
loop_
_atom_site_aniso_label
_atom_site_aniso_U_11
_atom_site_aniso_U_22
_atom_site_aniso_U_33
_atom_site_aniso_U_12
_atom_site_aniso_U_13
_atom_site_aniso_U_23
S1 0.0416(5) 0.0388(5) 0.0344(5) -0.0035(3) -0.0001(3) 0.0002(3)
O1 0.0787(18) 0.0566(14) 0.0335(12) -0.0095(13) 0.0131(11) -0.0021(10)
O2 0.0464(14) 0.0584(15) 0.0670(17) 0.0113(11) -0.0029(12) 0.0054(12)
N1 0.0483(16) 0.0321(14) 0.0401(15) -0.0117(12) -0.0030(12) 0.0027(12)
O3 0.0491(13) 0.0445(12) 0.0335(12) -0.0134(10) -0.0005(10) -0.0029(9)
C1 0.0387(15) 0.0349(15) 0.0345(15) -0.0030(13) 0.0082(12) -0.0031(12)
C2 0.0479(19) 0.0491(19) 0.0480(19) -0.0160(15) 0.0100(15) -0.0083(16)
C3 0.060(2) 0.0386(18) 0.070(3) -0.0177(16) 0.0243(19) -0.0050(16)
C4 0.067(2) 0.0383(18) 0.048(2) -0.0054(15) 0.0207(18) 0.0052(14)
C5 0.0377(16) 0.0298(14) 0.0323(16) -0.0024(12) 0.0081(13) -0.0014(12)
C6 0.0380(15) 0.0294(14) 0.0323(15) -0.0032(12) 0.0098(12) -0.0039(12)
C7 0.0556(19) 0.0403(17) 0.0328(16) -0.0020(15) 0.0072(14) 0.0003(13)
loop_
_atom_type_symbol
_atom_type_description
_atom_type_scat_dispersion_real
_atom_type_scat_dispersion_imag
_atom_type_scat_source
C C 0.0033 0.0016 'International Tables Vol C Tables 4.2.6.8 and 6.1.1.4'
H H 0.0000 0.0000 'International Tables Vol C Tables 4.2.6.8 and 6.1.1.4'
N N 0.0061 0.0033 'International Tables Vol C Tables 4.2.6.8 and 6.1.1.4'
O O 0.0106 0.0060 'International Tables Vol C Tables 4.2.6.8 and 6.1.1.4'
S S 0.1246 0.1234 'International Tables Vol C Tables 4.2.6.8 and 6.1.1.4'
loop_
_geom_angle_atom_site_label_1
_geom_angle_atom_site_label_2
_geom_angle_atom_site_label_3
_geom_angle_site_symmetry_1
_geom_angle_site_symmetry_3
_geom_angle
_geom_angle_publ_flag
O2 S1 O1 . . 117.24(14) ?
O2 S1 N1 . . 109.65(15) ?
O1 S1 N1 . . 110.33(15) ?
O2 S1 C1 . . 112.72(15) ?
O1 S1 C1 . . 112.09(13) ?
N1 S1 C1 . . 91.92(13) ?
C5 N1 S1 . . 116.0(2) ?
C5 N1 H1 . . 124(2) ?
S1 N1 H1 . . 120(2) ?
C6 C1 C2 . . 122.0(3) ?
C6 C1 S1 . . 110.3(2) ?
C2 C1 S1 . . 127.6(2) ?
C3 C2 C1 . . 116.7(3) ?
C3 C2 H2 . . 121.7 ?
C1 C2 H2 . . 121.7 ?
C2 C3 C4 . . 122.1(3) ?
C2 C3 H3 . . 119.0 ?
C4 C3 H3 . . 119.0 ?
C7 C4 C3 . . 120.3(3) ?
C7 C4 H4 . . 119.8 ?
C3 C4 H4 . . 119.8 ?
O3 C5 N1 . . 124.6(2) ?
O3 C5 C6 . . 126.1(3) ?
N1 C5 C6 . . 109.3(2) ?
C1 C6 C7 . . 120.7(3) ?
C1 C6 C5 . . 112.4(2) ?
C7 C6 C5 . . 126.9(3) ?
C4 C7 C6 . . 118.2(3) ?
C4 C7 H7 . . 120.9 ?
C6 C7 H7 . . 120.9 ?
loop_
_geom_bond_atom_site_label_1
_geom_bond_atom_site_label_2
_geom_bond_site_symmetry_2
_geom_bond_distance
_geom_bond_publ_flag
S1 O2 . 1.423(2) ?
S1 O1 . 1.427(2) ?
S1 N1 . 1.665(2) ?
S1 C1 . 1.758(3) ?
N1 C5 . 1.364(4) ?
N1 H1 . 0.82(3) ?
O3 C5 . 1.224(3) ?
C1 C6 . 1.382(4) ?
C1 C2 . 1.386(4) ?
C2 C3 . 1.383(4) ?
C2 H2 . 0.9300 ?
C3 C4 . 1.395(5) ?
C3 H3 . 0.9300 ?
C4 C7 . 1.379(4) ?
C4 H4 . 0.9300 ?
C5 C6 . 1.484(4) ?
C6 C7 . 1.390(4) ?
C7 H7 . 0.9300 ?
loop_
_cod_related_entry_id
_cod_related_entry_database
_cod_related_entry_code
1 ChemSpider 4959
