#------------------------------------------------------------------------------
#$Date: 2019-12-26 20:21:54 +0200 (Thu, 26 Dec 2019) $
#$Revision: 246047 $
#$URL: file:///home/coder/svn-repositories/cod/cif/2/30/06/2300654.cif $
#------------------------------------------------------------------------------
#
# This file is available in the Crystallography Open Database (COD),
# http://www.crystallography.net/. The original data for this entry
# were provided by IUCr Journals, http://journals.iucr.org/.
#
# The file may be used within the scientific community so long as
# proper attribution is given to the journal article from which the
# data were obtained.
#
data_2300654
loop_
_publ_author_name
'Likhacheva, Anna Y.'
'Rashchenko, Sergey V.'
'Litasov, Konstantin D.'
_publ_section_title
;
 High-pressure structural properties of naphthalene up to 6&#x2005;GPa
;
_journal_coeditor_code           kk5159
_journal_issue                   3
_journal_name_full               'Journal of Applied Crystallography'
_journal_page_first              984
_journal_paper_doi               10.1107/S1600576714005937
_journal_volume                  47
_journal_year                    2014
_chemical_formula_sum            'C5 H4'
_chemical_formula_weight         64.09
_space_group_IT_number           14
_space_group_name_Hall           '-P 2yab'
_space_group_name_H-M_alt        'P 1 21/a 1'
_symmetry_cell_setting           monoclinic
_symmetry_space_group_name_H-M   'P 1 21/a 1'
_audit_creation_date             2013-04-20T16:20
_audit_creation_method           'from EXP file using GSAS2CIF'
_audit_update_record
' 2013-04-20T16:20  Initial CIF as created by GSAS2CIF'
_cell_angle_alpha                90.0
_cell_angle_beta                 124.507(6)
_cell_angle_gamma                90.0
_cell_formula_units_Z            4
_cell_length_a                   7.8031(7)
_cell_length_b                   5.7597(4)
_cell_length_c                   8.4596(15)
_cell_volume                     313.31(7)
_computing_structure_refinement  GSAS
_diffrn_radiation_polarisn_ratio 0.95
_diffrn_radiation_probe          x-ray
_diffrn_radiation_wavelength     0.3685
_exptl_absorpt_correction_T_max  1.00000
_exptl_absorpt_correction_T_min  1.00000
_exptl_absorpt_process_details
;   GSAS Absorption/surface roughness correction: function number 0
 No correction is applied.
;
_pd_calc_method                  'Rietveld Refinement'
_pd_instr_location               ' ?'
_pd_meas_2theta_range_inc        0.0141
_pd_meas_2theta_range_max        31.4217
_pd_meas_2theta_range_min        0.021
_pd_meas_number_of_points        2228
_pd_phase_name                   naphthalene
_pd_prep_pressure                1.9
_pd_proc_2theta_range_inc        0.0141
_pd_proc_2theta_range_max        31.4217
_pd_proc_2theta_range_min        0.021
_pd_proc_info_datetime           2013-04-20T16:20:45
_pd_proc_info_excluded_regions   ' ?'
_pd_proc_ls_background_function
;   GSAS Background function number 1 with 35 terms.
 Shifted Chebyshev function of 1st kind
      1:    6386.93     2:   -1202.88     3:    134.409     4:   -611.201    
      5:    444.766     6:   -146.458     7:   -22.5236     8:    34.2963    
      9:   -38.3829    10:    10.7689    11:   -26.0202    12:    40.6351    
     13:   -19.2914    14:    1.33878    15:   -13.1101    16:    16.2650    
     17:   -19.9229    18:    6.82073    19:   -9.97962    20:    21.8401    
     21:   -5.71087    22:   0.821030    23:   -6.08204    24:   -4.24305    
     25:    5.23973    26:    3.95090    27:    5.24440    28:   -8.06753    
     29:    11.4822    30:   -4.64317    31:    6.67208    32:   -9.25287    
     33:    6.20590    34:   -8.44370    35:    11.1526    
;
_pd_proc_ls_peak_cutoff          0.01000
_pd_proc_ls_pref_orient_corr
;   March-Dollase
 AXIS  1 Ratio=     1.375 Frac     0.660  h= 0.000  k= 0.000  l= 1.000
 AXIS  2 Ratio=     1.664 Frac     0.340  h= 1.000  k= 0.000  l= 0.000
 Prefered orientation correction range: Min=   0.40115, Max=   1.79342
;
_pd_proc_ls_profile_function
;
 CW Profile function number 2 with  18 terms
 Profile coefficients for Simpson's rule integration of pseudovoigt function
 C.J. Howard (1982). J. Appl. Cryst.,15,615-620.
 P. Thompson, D.E. Cox & J.B. Hastings (1987). J. Appl. Cryst.,20,79-83.
 #1(GU)   = 2989.260 #2(GV)   =  -38.837 #3(GW)   =    3.963
 #4(LX)   =    0.000 #5(LY)   =   26.844 #6(trns) =    0.000
 #7(asym) =   0.1032 #8(shft) =   0.0000 #9(GP)   =    0.000
 #10(stec)=     0.00 #11(ptec)=     0.00 #12(sfec)=     0.00
 #13(L11) =    0.000 #14(L22) =    0.000 #15(L33) =    0.000
 #16(L12) =    0.000 #17(L13) =    0.000 #18(L23) =    0.000
 Peak tails are ignored  where the intensity is below 0.0100 times the peak
   Aniso. broadening axis   0.0   0.0   1.0
;
_pd_proc_ls_prof_R_factor        0.0047
_pd_proc_ls_prof_wR_expected     0.0125
_pd_proc_ls_prof_wR_factor       0.0069
_pd_proc_number_of_points        2228
_pd_spec_mounting                ' ?'
_refine_ls_goodness_of_fit_all   0.56
_refine_ls_matrix_type           full
_refine_ls_number_parameters     31
_refine_ls_number_restraints     10
_refine_ls_R_Fsqd_factor         0.13049
_refine_ls_shift/su_max          2.51
_refine_ls_shift/su_mean         0.67
_reflns_d_resolution_high        1.048
_reflns_d_resolution_low         6.971
_reflns_limit_h_max              7
_reflns_limit_h_min              0
_reflns_limit_k_max              5
_reflns_limit_k_min              0
_reflns_limit_l_max              6
_reflns_limit_l_min              -8
_reflns_number_total             287
_cod_data_source_file            kk5159sup5.cif
_cod_data_source_block           REF1_publ_190
_cod_depositor_comments
;
The following automatic conversions were performed:

data item '_geom_angle_publ_flag' value 'N' was changed to 'n' in
accordance with the
/home/saulius/struct/COD-crude-data/automatic-downloads/DataCite-retrospective/IUCr/depositions/lib/dictionaries/cif_core.dic
dictionary named 'cif_core.dic' version 2.4.2 last updated on
2011-04-26 (15 times).

data item '_geom_bond_publ_flag' value 'N' was changed to 'n' in
accordance with the
/home/saulius/struct/COD-crude-data/automatic-downloads/DataCite-retrospective/IUCr/depositions/lib/dictionaries/cif_core.dic
dictionary named 'cif_core.dic' version 2.4.2 last updated on
2011-04-26 (35 times).

Automatic conversion script
Id: cif_fix_values 7556 2019-12-06 15:28:31Z antanas 
;
_cod_original_cell_volume        313.31(6)
_cod_database_code               2300654
_gsas_exptl_extinct_corr_t_min   1.00000
_gsas_exptl_extinct_corr_t_max   1.00000
loop_
_symmetry_equiv_pos_site_id
_symmetry_equiv_pos_as_xyz
1 +x,+y,+z
2 -x+1/2,+y+1/2,-z
-1 -x,-y,-z
-2 +x+1/2,-y+1/2,+z
loop_
_atom_site_type_symbol
_atom_site_label
_atom_site_fract_x
_atom_site_fract_y
_atom_site_fract_z
_atom_site_occupancy
_atom_site_thermal_displace_type
_atom_site_U_iso_or_equiv
_atom_site_symmetry_multiplicity
C C1 0.0874(7) 0.0215(7) 0.3382(5) 1.0 Uiso 0.037 4
C C2 0.1163(9) 0.1690(7) 0.2282(4) 1.0 Uiso 0.03 4
C C3 0.0492(6) 0.1091(4) 0.0375(4) 1.0 Uiso 0.024 4
C C4 0.0791(7) 0.2609(6) -0.0787(5) 1.0 Uiso 0.024 4
C C5 -0.0147(7) -0.1958(6) 0.2621(5) 1.0 Uiso 0.03 4
H H1 0.1330(23) 0.0701(28) 0.4610(7) 1.0 Uiso 0.044 4
H H2 0.1689(33) 0.3143(10) 0.2826(22) 1.0 Uiso 0.037 4
H H4 0.1420(18) 0.4060(9) -0.037(4) 1.0 Uiso 0.028 4
H H5 -0.0326(12) -0.2992(14) 0.3365(8) 1.0 Uiso 0.037 4
loop_
_atom_type_symbol
_atom_type_number_in_cell
_atom_type_scat_dispersion_real
_atom_type_scat_dispersion_imag
_atom_type_scat_Cromer_Mann_a1
_atom_type_scat_Cromer_Mann_a2
_atom_type_scat_Cromer_Mann_a3
_atom_type_scat_Cromer_Mann_a4
_atom_type_scat_Cromer_Mann_b1
_atom_type_scat_Cromer_Mann_b2
_atom_type_scat_Cromer_Mann_b3
_atom_type_scat_Cromer_Mann_b4
_atom_type_scat_Cromer_Mann_c
_atom_type_scat_source
C 20.0 0.000 0.000 2.31000 20.8439 1.02000 10.2075 1.58860 0.56870 0.86500
51.6512 0.21560 International_Tables_Vol_C
H 16.0 0.000 0.000 0.49300 10.5109 0.32291 26.1257 0.14019 3.14236 0.04081
57.7997 0.00304 International_Tables_Vol_C
loop_
_geom_angle_atom_site_label_1
_geom_angle_atom_site_label_2
_geom_angle_atom_site_label_3
_geom_angle
_geom_angle_site_symmetry_1
_geom_angle_site_symmetry_3
_geom_angle_publ_flag
C2 C1 C5 120.2(4) 1_555 1_555 n
C2 C1 H1 117.8(12) 1_555 1_555 n
C5 C1 H1 122.0(12) 1_555 1_555 n
C1 C2 C3 121.44(34) 1_555 1_555 n
C1 C2 H2 114.7(16) 1_555 1_555 n
C3 C2 H2 123.5(15) 1_555 1_555 n
C2 C3 C3 118.6(4) 1_555 -1_555 n
C2 C3 C4 122.06(26) 1_555 1_555 n
C3 C3 C4 119.4(4) -1_555 1_555 n
C3 C4 C5 120.53(33) 1_555 -1_555 n
C3 C4 H4 122.8(24) 1_555 1_555 n
C5 C4 H4 116.7(24) -1_555 1_555 n
C1 C5 C4 119.9(4) 1_555 -1_555 n
C1 C5 H5 121.0(6) 1_555 1_555 n
C4 C5 H5 119.0(6) -1_555 1_555 n
loop_
_geom_bond_atom_site_label_1
_geom_bond_atom_site_label_2
_geom_bond_distance
_geom_bond_site_symmetry_2
_geom_bond_publ_flag
C1 C2 1.370(5) 1_555 n
C1 C5 1.426(4) 1_555 n
C1 H1 0.930(6) 1_555 n
C1 H2 1.951(16) 1_555 n
C1 H5 2.067(8) 1_555 n
C2 C1 1.370(5) 1_555 n
C2 C3 1.428(4) 1_555 n
C2 H1 1.982(12) 1_555 n
C2 H2 0.931(6) 1_555 n
C3 C2 1.428(4) 1_555 n
C3 C3 1.421(4) -1_555 n
C3 C4 1.430(4) 1_555 n
C3 H2 2.091(15) 1_555 n
C3 H4 2.087(22) 1_555 n
C4 C3 1.430(4) 1_555 n
C4 C5 1.385(5) -1_555 n
C4 H4 0.932(5) 1_555 n
C4 H5 2.010(8) -1_555 n
C5 C1 1.426(4) 1_555 n
C5 C4 1.385(5) -1_555 n
C5 H1 2.075(12) 1_555 n
C5 H4 1.987(25) -1_555 n
C5 H5 0.932(6) 1_555 n
H1 C1 0.930(6) 1_555 n
H1 C2 1.982(12) 1_555 n
H1 C5 2.075(12) 1_555 n
H2 C1 1.951(16) 1_555 n
H2 C2 0.931(6) 1_555 n
H2 C3 2.091(15) 1_555 n
H4 C3 2.087(22) 1_555 n
H4 C4 0.932(5) 1_555 n
H4 C5 1.987(25) -1_555 n
H5 C1 2.067(8) 1_555 n
H5 C4 2.010(8) -1_555 n
H5 C5 0.932(6) 1_555 n
loop_
_pd_meas_counts_total
_pd_proc_ls_weight
_pd_proc_intensity_bkg_calc
_pd_calc_intensity_total
0.0 . . .
0.0 . . .
0.0 . . .
0.0 . . .
0.0 . . .
0.0 . . .
0.0 . . .
0.0 . . .
0.0 . . .
0.0 . . .
0.0 . . .
0.0 . . .
0.0 . . .
0.0 . . .
0.0 . . .
0.0 . . .
0.0 . . .
0.0 . . .
0.0 . . .
0.0 . . .
0.0 . . .
0.0 . . .
0.0 . . .
0.0 . . .
0.0 . . .
0.0 . . .
0.0 . . .
0.0 . . .
0.0 . . .
0.0 . . .
0.0 . . .
0.0 . . .
0.0 . . .
0.0 . . .
0.0 . . .
0.0 . . .
0.0 . . .
0.0 . . .
0.0 . . .
0.0 . . .
0.0 . . .
0.0 . . .
0.0 . . .
0.0 . . .
0.0 . . .
0.0 . . .
0.0 . . .
0.0 . . .
0.0 . . .
0.0 . . .
0.0 . . .
0.0 . . .
0.0 . . .
0.0 . . .
0.0 . . .
0.0 . . .
0.0 . . .
0.0 . . .
0.0 . . .
0.0 . . .
0.0 . . .
2210.0 . . .
1790.0 . . .
1580.0 . . .
1610.0 . . .
1640.0 . . .
1600.0 . . .
1590.0 . . .
1870.0 . . .
1770.0 . . .
1590.0 . . .
1600.0 . . .
1450.0 . . .
1540.0 . . .
1570.0 . . .
1470.0 . . .
1500.0 . . .
1470.0 . . .
1440.0 . . .
1520.0 . . .
1460.0 . . .
1480.0 . . .
1440.0 . . .
1390.0 . . .
1370.0 . . .
1320.0 . . .
1290.0 . . .
1300.0 . . .
1350.0 . . .
1380.0 . . .
1360.0 . . .
1390.0 . . .
1370.0 . . .
1350.0 . . .
1350.0 . . .
1350.0 . . .
1400.0 . . .
1490.0 . . .
1580.0 . . .
1730.0 . . .
1910.0 . . .
2080.0 . . .
2230.0 . . .
2480.0 . . .
2710.0 . . .
2860.0 . . .
3010.0 . . .
3280.0 . . .
3560.0 . . .
3690.0 . . .
3830.0 . . .
4040.0 . . .
4240.0 . . .
4420.0 . . .
4580.0 . . .
4720.0 . . .
4970.0 . . .
5230.0 . . .
5390.0 . . .
5450.0 . . .
5560.0 . . .
5720.0 . . .
5700.0 . . .
5770.0 . . .
5860.0 . . .
5820.0 . . .
5860.0 . . .
5930.0 . . .
5840.0 . . .
5770.0 . . .
5740.0 . . .
5730.0 . . .
5880.0 . . .
6000.0 . . .
6030.0 . . .
6040.0 . . .
6100.0 . . .
6160.0 . . .
6230.0 . . .
6310.0 . . .
6380.0 . . .
6450.0 . . .
6410.0 . . .
6370.0 . . .
6370.0 . . .
6420.0 . . .
6470.0 . . .
6440.0 . . .
6470.0 . . .
6510.0 . . .
6520.0 . . .
6560.0 . . .
6670.0 . . .
6830.0 . . .
6990.0 . . .
7100.0 . . .
7130.0 . . .
7230.0 . . .
7310.0 . . .
7410.0 . . .
7500.0 . . .
7570.0 . . .
7690.0 . . .
7810.0 . . .
7870.0 . . .
7930.0 . . .
8040.0 . . .
8100.0 . . .
8150.0 . . .
8200.0 . . .
8210.0 . . .
8270.0 . . .
8310.0 . . .
8330.0 . . .
8370.0 . . .
8430.0 . . .
8460.0 . . .
8470.0 . . .
8450.0 . . .
8520.0 . . .
8560.0 . . .
8600.0 . . .
8640.0 . . .
8620.0 . . .
8660.0 . . .
8690.0 . . .
8700.0 . . .
8730.0 . . .
8730.0 . . .
8720.0 . . .
8690.0 . . .
8680.0 . . .
8690.0 . . .
8710.0 . . .
8710.0 . . .
8690.0 . . .
8680.0 . . .
8690.0 0.0001151 8709.53125 8709.53125
8710.0 0.0001148 8665.11719 8665.11719
8690.0 0.0001151 8652.37695 8652.37695
8680.0 0.0001152 8660.04102 8660.04102
8740.0 0.0001144 8679.46875 8679.46875
8710.0 0.0001148 8704.16504 8713.65625
8640.0 0.0001157 8729.42969 8740.87012
8640.0 0.0001157 8751.94824 8766.00293
8700.0 0.0001149 8769.53516 8787.28418
8730.0 0.0001145 8780.87500 8804.78125
8770.0 0.0001140 8785.35547 8824.28027
8850.0 0.0001130 8782.85352 8871.70801
9060.0 0.0001104 8773.62012 9021.76367
9630.0 0.0001038 8758.16602 9400.48340
10400.0 0.0000962 8737.18164 10065.08301
10900.0 0.0000917 8711.43750 10783.13574
10900.0 0.0000917 8681.76660 11048.01563
10400.0 0.0000962 8648.98242 10588.66016
9660.0 0.0001035 8613.88184 9771.40918
9130.0 0.0001095 8577.20117 9096.13770
8780.0 0.0001139 8539.60742 8727.41797
8590.0 0.0001164 8501.69043 8569.10254
8500.0 0.0001176 8463.95020 8496.57324
8400.0 0.0001190 8426.81348 8448.61914
8350.0 0.0001198 8390.60840 8407.29102
8360.0 0.0001196 8355.61230 8368.95215
8290.0 0.0001206 8322.00000 8332.91602
8240.0 0.0001214 8289.89941 8298.99316
8240.0 0.0001214 8259.37695 8259.37695
8270.0 0.0001209 8230.44043 8230.44043
8270.0 0.0001209 8203.06738 8203.06738
8210.0 0.0001218 8177.19580 8177.19580
8150.0 0.0001227 8152.73047 8152.73047
8170.0 0.0001224 8129.55518 8129.55518
8150.0 0.0001227 8107.54688 8107.54688
8130.0 0.0001230 8086.56201 8086.56201
8120.0 0.0001232 8066.46143 8066.46143
8060.0 0.0001241 8047.09229 8047.09229
8030.0 0.0001245 8028.31641 8028.31641
8040.0 0.0001244 8009.99756 8009.99756
8020.0 0.0001247 7992.00439 7992.00439
7960.0 0.0001256 7974.21680 7974.21680
7940.0 0.0001259 7956.53027 7956.53027
7930.0 0.0001261 7938.85156 7938.85156
7890.0 0.0001267 7921.09277 7921.09277
7870.0 0.0001271 7903.18750 7903.18750
7890.0 0.0001267 7885.07959 7885.07959
7880.0 0.0001269 7866.72754 7866.72754
7850.0 0.0001274 7848.10059 7848.10059
7860.0 0.0001272 7829.17480 7829.17480
7820.0 0.0001279 7809.94971 7809.94971
7750.0 0.0001290 7790.41992 7790.41992
7690.0 0.0001300 7770.60107 7770.60107
7690.0 0.0001300 7750.50488 7750.50488
7740.0 0.0001292 7730.15918 7730.15918
7720.0 0.0001295 7709.58984 7709.58984
7680.0 0.0001302 7688.83398 7688.83398
7650.0 0.0001307 7667.93018 7667.93018
7620.0 0.0001312 7646.91406 7646.91406
7580.0 0.0001319 7625.82666 7625.82666
7550.0 0.0001325 7604.70752 7604.70752
7550.0 0.0001325 7583.60059 7583.60059
7560.0 0.0001323 7562.54590 7562.54590
7610.0 0.0001314 7541.57813 7541.57813
7600.0 0.0001316 7520.73877 7520.73877
7580.0 0.0001319 7500.05615 7500.05615
7540.0 0.0001326 7479.56299 7479.56299
7480.0 0.0001337 7459.28857 7459.28857
7450.0 0.0001342 7439.25439 7439.25439
7410.0 0.0001350 7419.47852 7419.47852
7380.0 0.0001355 7399.98633 7399.98633
7400.0 0.0001351 7380.78076 7380.78076
7400.0 0.0001351 7361.88281 7361.88281
7400.0 0.0001351 7343.28711 7343.28711
7350.0 0.0001361 7325.00439 7325.00439
7280.0 0.0001374 7307.03076 7307.03076
7250.0 0.0001379 7289.36426 7289.36426
7230.0 0.0001383 7271.99951 7271.99951
7210.0 0.0001387 7254.92627 7254.92627
7190.0 0.0001391 7238.13623 7238.13623
7180.0 0.0001393 7221.61328 7221.61328
7140.0 0.0001401 7205.34912 7205.34912
7160.0 0.0001397 7189.32324 7189.32324
7180.0 0.0001393 7173.52295 7173.52295
7160.0 0.0001397 7157.93164 7157.93164
7170.0 0.0001395 7142.52832 7142.52832
7140.0 0.0001401 7127.29736 7127.29736
7120.0 0.0001404 7112.22217 7112.22217
7160.0 0.0001397 7097.28271 7097.28271
7160.0 0.0001397 7082.46582 7082.46582
7130.0 0.0001403 7067.75098 7067.75098
7090.0 0.0001410 7053.12939 7053.12939
7060.0 0.0001416 7038.58350 7038.58350
7030.0 0.0001422 7024.09814 7024.09814
7010.0 0.0001427 7009.66748 7009.66748
7000.0 0.0001429 6995.27686 6995.27686
6990.0 0.0001431 6980.91895 6980.91895
6980.0 0.0001433 6966.58838 6966.58838
6970.0 0.0001435 6952.27930 6952.27930
6940.0 0.0001441 6937.98438 6937.98438
6880.0 0.0001453 6923.70166 6923.70166
6870.0 0.0001456 6909.43213 6909.43213
6870.0 0.0001456 6895.17871 6895.17871
6880.0 0.0001453 6880.93896 6880.93896
6880.0 0.0001453 6866.71777 6866.71777
6830.0 0.0001464 6852.52002 6852.52002
6780.0 0.0001475 6838.35010 6838.35010
6740.0 0.0001484 6824.21826 6824.21826
6710.0 0.0001490 6810.12646 6810.12646
6750.0 0.0001481 6796.09082 6796.09082
6760.0 0.0001479 6782.11426 6782.11426
6760.0 0.0001479 6768.21289 6768.21289
6740.0 0.0001484 6754.39111 6754.39111
6740.0 0.0001484 6740.66504 6740.66504
6730.0 0.0001486 6727.04395 6727.04395
6710.0 0.0001490 6713.53955 6713.53955
6690.0 0.0001495 6700.16504 6700.16504
6690.0 0.0001495 6686.92773 6686.92773
6710.0 0.0001490 6673.84570 6673.84570
6680.0 0.0001497 6660.92334 6660.92334
6640.0 0.0001506 6648.17480 6648.17480
6620.0 0.0001511 6635.61230 6635.61230
6590.0 0.0001517 6623.24219 6623.24219
6610.0 0.0001513 6611.07617 6611.07617
6610.0 0.0001513 6599.12061 6612.08350
6620.0 0.0001511 6587.38428 6602.96729
6630.0 0.0001508 6575.87793 6595.10791
6650.0 0.0001504 6564.60205 6590.52686
6670.0 0.0001499 6553.56836 6592.50830
6680.0 0.0001497 6542.77344 6615.74365
6750.0 0.0001481 6532.22559 6693.40332
6950.0 0.0001439 6521.93213 6879.26855
7320.0 0.0001366 6511.88770 7217.85742
7840.0 0.0001276 6502.09863 7678.54053
8230.0 0.0001215 6492.55957 8105.43018
8270.0 0.0001209 6483.27344 8268.07422
8000.0 0.0001250 6474.24121 8058.93701
7590.0 0.0001318 6465.45654 7623.98389
7210.0 0.0001387 6456.91699 7183.72266
6910.0 0.0001447 6448.61621 6902.68701
6720.0 0.0001488 6440.55566 6712.86230
6590.0 0.0001517 6432.72900 6614.00293
6540.0 0.0001529 6425.12451 6570.88184
6530.0 0.0001531 6417.74023 6570.90625
6560.0 0.0001524 6410.57129 6635.31152
6720.0 0.0001488 6403.60352 6841.20410
7090.0 0.0001410 6396.83545 7324.51074
7980.0 0.0001253 6390.25830 8277.41992
9540.0 0.0001048 6383.86230 9696.58301
11400.0 0.0000877 6377.63818 11243.36426
12600.0 0.0000794 6371.58154 12230.49902
12300.0 0.0000813 6365.67773 12048.15137
10800.0 0.0000926 6359.92236 10811.66016
9160.0 0.0001092 6354.30469 9227.57129
7850.0 0.0001274 6348.81787 7908.88184
7060.0 0.0001416 6343.45215 7083.30420
6650.0 0.0001504 6338.20020 6672.14795
6460.0 0.0001548 6333.05078 6499.13086
6400.0 0.0001562 6328.00195 6429.85352
6370.0 0.0001570 6323.03906 6397.57910
6330.0 0.0001580 6318.16113 6377.63965
6280.0 0.0001592 6313.35645 6313.35645
6280.0 0.0001592 6308.62354 6308.62354
6300.0 0.0001587 6303.95459 6303.95459
6300.0 0.0001587 6299.34180 6299.34180
6300.0 0.0001587 6294.78027 6294.78027
6300.0 0.0001587 6290.26904 6290.26904
6290.0 0.0001590 6285.79834 6285.79834
6300.0 0.0001587 6281.37158 6281.37158
6300.0 0.0001587 6276.97998 6276.97998
6270.0 0.0001595 6272.62402 6272.62402
6240.0 0.0001603 6268.30029 6268.30029
6240.0 0.0001603 6264.00586 6264.00586
6250.0 0.0001600 6259.74170 6259.74170
6220.0 0.0001608 6255.50586 6255.50586
6240.0 0.0001603 6251.29736 6251.29736
6230.0 0.0001605 6247.11719 6247.11719
6230.0 0.0001605 6242.96875 6266.30225
6250.0 0.0001600 6238.84668 6266.72803
6250.0 0.0001600 6234.75684 6269.09668
6260.0 0.0001597 6230.70020 6276.00537
6310.0 0.0001585 6226.67529 6295.42383
6410.0 0.0001560 6222.69043 6348.30078
6620.0 0.0001511 6218.74219 6477.85059
6940.0 0.0001441 6214.83789 6748.04248
7460.0 0.0001340 6210.97705 7211.22461
8090.0 0.0001236 6207.16260 7842.47852
8600.0 0.0001163 6203.40088 8483.97852
8810.0 0.0001135 6199.69287 8866.85352
8610.0 0.0001161 6196.03906 8773.03906
8110.0 0.0001233 6192.44678 8256.91406
7550.0 0.0001325 6188.91699 7584.06738
7030.0 0.0001422 6185.45459 6994.51074
6680.0 0.0001497 6182.06348 6595.75879
6480.0 0.0001543 6178.74365 6376.69531
6340.0 0.0001577 6175.50244 6274.30908
6250.0 0.0001600 6172.33887 6230.13525
6210.0 0.0001610 6169.25635 6209.71875
6180.0 0.0001618 6166.25781 6197.93408
6160.0 0.0001623 6163.34766 6163.34766
6160.0 0.0001623 6160.52197 6160.52197
6160.0 0.0001623 6157.79150 6160.24365
6160.0 0.0001623 6155.15088 6157.88330
6160.0 0.0001623 6152.60449 6155.66748
6140.0 0.0001629 6150.15381 6153.61084
6130.0 0.0001631 6147.79834 6151.72900
6100.0 0.0001639 6145.54004 6150.04736
6090.0 0.0001642 6143.37549 6148.59521
6130.0 0.0001631 6141.30811 6147.42578
6140.0 0.0001629 6139.33789 6146.63721
6130.0 0.0001631 6137.46191 6146.47900
6110.0 0.0001637 6135.68115 6147.70117
6100.0 0.0001639 6133.99365 6152.40918
6120.0 0.0001634 6132.39844 6166.12109
6150.0 0.0001626 6130.89209 6197.52783
6180.0 0.0001618 6129.47656 6260.35986
6250.0 0.0001600 6128.14355 6364.95850
6390.0 0.0001565 6126.89844 6506.44531
6520.0 0.0001534 6125.73047 6654.25293
6680.0 0.0001497 6124.64014 6754.64502
6760.0 0.0001479 6123.62549 6757.21631
6700.0 0.0001493 6122.68213 6659.93896
6580.0 0.0001520 6121.80518 6511.68018
6420.0 0.0001558 6120.99414 6368.42285
6300.0 0.0001587 6120.24316 6261.13281
6230.0 0.0001605 6119.54883 6198.20117
6180.0 0.0001618 6118.90625 6171.80420
6150.0 0.0001626 6118.31494 6170.70801
6170.0 0.0001621 6117.76660 6185.70313
6210.0 0.0001610 6117.25781 6208.67432
6260.0 0.0001597 6116.78662 6230.18262
6250.0 0.0001600 6116.34814 6239.89648
6230.0 0.0001605 6115.93799 6232.12744
6190.0 0.0001616 6115.55420 6211.43262
6170.0 0.0001621 6115.18848 6188.80176
6200.0 0.0001613 6114.84033 6175.08203
6190.0 0.0001616 6114.50635 6178.06104
6180.0 0.0001618 6114.18066 6201.16846
6190.0 0.0001616 6113.86084 6239.50732
6250.0 0.0001600 6113.54590 6288.34766
6320.0 0.0001582 6113.23047 6327.96191
6350.0 0.0001575 6112.91211 6339.93066
6400.0 0.0001562 6112.58594 6317.23291
6390.0 0.0001565 6112.25293 6270.98975
6330.0 0.0001580 6111.91260 6219.37207
6250.0 0.0001600 6111.55664 6175.97754
6180.0 0.0001618 6111.18604 6146.25635
6180.0 0.0001618 6110.80225 6129.04199
6170.0 0.0001621 6110.40137 6120.26270
6170.0 0.0001621 6109.98047 6133.47363
6150.0 0.0001626 6109.54199 6132.84082
6150.0 0.0001626 6109.08740 6133.86133
6150.0 0.0001626 6108.61230 6135.63135
6140.0 0.0001629 6108.11572 6138.08643
6110.0 0.0001637 6107.60352 6141.33203
6090.0 0.0001642 6107.07129 6145.58203
6120.0 0.0001634 6106.52197 6151.27637
6140.0 0.0001629 6105.95605 6159.98242
6170.0 0.0001621 6105.37646 6173.56689
6230.0 0.0001605 6104.78271 6199.07373
6310.0 0.0001585 6104.17920 6256.36182
6470.0 0.0001546 6103.56494 6379.52441
6680.0 0.0001497 6102.94434 6623.69824
7000.0 0.0001429 6102.31787 7050.58105
7480.0 0.0001337 6101.68945 7690.84082
8200.0 0.0001220 6101.06299 8492.75293
9030.0 0.0001107 6100.43994 9289.94531
9680.0 0.0001033 6099.82471 9824.76074
9850.0 0.0001015 6099.21680 9865.85059
9450.0 0.0001058 6098.62451 9394.22070
8680.0 0.0001152 6098.04980 8623.84082
7920.0 0.0001263 6097.49512 7821.14355
7330.0 0.0001364 6096.96338 7169.71436
6870.0 0.0001456 6096.46094 6735.01270
6600.0 0.0001515 6095.98975 6490.07520
6460.0 0.0001548 6095.55371 6367.34180
6360.0 0.0001572 6095.15625 6303.17432
6290.0 0.0001590 6094.80322 6258.80127
6220.0 0.0001608 6094.49658 6220.74414
6180.0 0.0001618 6094.23975 6187.82178
6140.0 0.0001629 6094.03516 6161.82959
6120.0 0.0001634 6093.89014 6143.43359
6110.0 0.0001637 6093.80566 6131.53076
6090.0 0.0001642 6093.78418 6124.18848
6100.0 0.0001639 6093.83154 6119.65137
6120.0 0.0001634 6093.94824 6110.60986
6120.0 0.0001634 6094.13965 6097.49609
6100.0 0.0001639 6094.40625 6098.77148
6090.0 0.0001642 6094.75146 6101.40723
6090.0 0.0001642 6095.17920 6105.99609
6090.0 0.0001642 6095.69238 6112.90918
6100.0 0.0001639 6096.28662 6121.80566
6120.0 0.0001634 6096.97363 6131.30029
6150.0 0.0001626 6097.74658 6138.98730
6120.0 0.0001634 6098.61230 6141.75244
6100.0 0.0001639 6099.56836 6139.62891
6110.0 0.0001637 6100.61816 6133.55664
6090.0 0.0001642 6101.76074 6126.35547
6070.0 0.0001647 6102.99902 6120.52393
6080.0 0.0001645 6104.33203 6117.51025
6120.0 0.0001634 6105.75830 6117.60547
6120.0 0.0001634 6107.27686 6120.16504
6120.0 0.0001634 6108.89258 6123.97021
6130.0 0.0001631 6110.60059 6129.65674
6140.0 0.0001629 6112.40186 6132.04102
6150.0 0.0001626 6114.29150 6132.57422
6160.0 0.0001623 6116.27344 6131.83740
6160.0 0.0001623 6118.34375 6130.81348
6180.0 0.0001618 6120.49951 6130.32373
6170.0 0.0001621 6122.73779 6130.81641
6160.0 0.0001623 6125.05859 6132.42041
6150.0 0.0001626 6127.46191 6135.15918
6170.0 0.0001621 6129.94092 6139.06055
6180.0 0.0001618 6132.49268 6145.52881
6180.0 0.0001618 6135.11865 6156.41260
6190.0 0.0001616 6137.81299 6175.31689
6250.0 0.0001600 6140.56982 6214.49658
6310.0 0.0001585 6143.38916 6264.02344
6360.0 0.0001572 6146.26514 6331.35742
6430.0 0.0001555 6149.19824 6410.31348
6480.0 0.0001543 6152.17969 6486.43066
6450.0 0.0001550 6155.21045 6539.23828
6390.0 0.0001565 6158.28027 6550.52441
6340.0 0.0001577 6161.39258 6517.99756
6280.0 0.0001592 6164.53955 6457.40674
6260.0 0.0001597 6167.71533 6391.16064
6240.0 0.0001603 6170.91943 6338.95166
6250.0 0.0001600 6174.14453 6315.54150
6280.0 0.0001592 6177.39111 6332.80273
6380.0 0.0001567 6180.65137 6402.51660
6540.0 0.0001529 6183.91943 6535.75244
6750.0 0.0001481 6187.19629 6736.29688
7010.0 0.0001427 6190.47607 6990.18701
7300.0 0.0001370 6193.75391 7257.82373
7520.0 0.0001330 6197.02441 7475.39404
7620.0 0.0001312 6200.28906 7572.27979
7580.0 0.0001319 6203.54102 7510.56592
7440.0 0.0001344 6206.77734 7316.66357
7230.0 0.0001383 6209.99365 7058.41797
6970.0 0.0001435 6213.18701 6802.43262
6710.0 0.0001490 6216.35547 6590.06055
6540.0 0.0001529 6219.49316 6441.85205
6430.0 0.0001555 6222.60107 6350.27148
6330.0 0.0001580 6225.67432 6300.41406
6270.0 0.0001595 6228.71240 6275.55615
6240.0 0.0001603 6231.70850 6264.26563
6230.0 0.0001605 6234.66650 6261.77588
6250.0 0.0001600 6237.57959 6260.33545
6270.0 0.0001595 6240.44824 6260.40527
6250.0 0.0001600 6243.27197 6261.33789
6230.0 0.0001605 6246.04688 6262.85889
6230.0 0.0001605 6248.77295 6264.87646
6240.0 0.0001603 6251.44922 6267.44336
6250.0 0.0001600 6254.07813 6263.47168
6250.0 0.0001600 6256.65186 6269.32617
6270.0 0.0001595 6259.17725 6277.90234
6300.0 0.0001587 6261.65137 6291.46436
6320.0 0.0001582 6264.07080 6313.25098
6360.0 0.0001572 6266.44238 6346.99707
6380.0 0.0001567 6268.76221 6395.61865
6450.0 0.0001550 6271.03174 6459.19971
6540.0 0.0001529 6273.25293 6532.85205
6640.0 0.0001506 6275.42480 6606.00781
6720.0 0.0001488 6277.55127 6664.23340
6750.0 0.0001481 6279.63086 6693.80420
6700.0 0.0001493 6281.66797 6688.25146
6640.0 0.0001506 6283.66211 6654.33447
6580.0 0.0001520 6285.61572 6608.56787
6550.0 0.0001527 6287.53369 6566.87842
6540.0 0.0001529 6289.40967 6537.80615
6530.0 0.0001531 6291.25488 6520.86230
6500.0 0.0001538 6293.07031 6508.55420
6480.0 0.0001543 6294.85449 6491.77344
6450.0 0.0001550 6296.61279 6466.27490
6440.0 0.0001553 6298.34717 6434.35498
6410.0 0.0001560 6300.06152 6401.31396
6360.0 0.0001572 6301.75635 6372.04248
6340.0 0.0001577 6303.43799 6349.44580
6310.0 0.0001585 6305.10596 6334.13477
6300.0 0.0001587 6306.76563 6325.05908
6290.0 0.0001590 6308.41943 6319.97705
6290.0 0.0001590 6310.06836 6318.19678
6300.0 0.0001587 6311.71875 6315.53467
6310.0 0.0001585 6313.37207 6316.31885
6300.0 0.0001587 6315.03076 6317.61523
6320.0 0.0001582 6316.70117 6318.94873
6330.0 0.0001580 6318.38428 6320.38574
6340.0 0.0001577 6320.08105 6321.89355
6330.0 0.0001580 6321.79443 6323.46240
6330.0 0.0001580 6323.53467 6323.84131
6340.0 0.0001577 6325.29883 6327.25879
6340.0 0.0001577 6327.08789 6329.34863
6330.0 0.0001580 6328.90576 6331.59863
6320.0 0.0001582 6330.75879 6334.11426
6330.0 0.0001580 6332.64453 6337.05273
6310.0 0.0001585 6334.56982 6340.64453
6310.0 0.0001585 6336.53613 6345.17236
6340.0 0.0001577 6338.54199 6350.99658
6350.0 0.0001575 6340.59570 6358.41797
6360.0 0.0001572 6342.69434 6367.94482
6380.0 0.0001567 6344.83984 6380.25293
6390.0 0.0001565 6347.03711 6396.24756
6400.0 0.0001562 6349.28418 6416.94824
6390.0 0.0001565 6351.58594 6443.15332
6380.0 0.0001567 6353.94287 6474.55127
6420.0 0.0001558 6356.35254 6508.61963
6470.0 0.0001546 6358.82031 6540.18457
6500.0 0.0001538 6361.34619 6562.15527
6550.0 0.0001527 6363.93262 6568.07715
6610.0 0.0001513 6366.57520 6556.15332
6650.0 0.0001504 6369.27588 6530.72119
6630.0 0.0001508 6372.03760 6499.15234
6540.0 0.0001529 6374.85889 6468.27051
6460.0 0.0001548 6377.74072 6443.71436
6430.0 0.0001555 6380.68164 6425.36084
6410.0 0.0001560 6383.68018 6413.88672
6420.0 0.0001558 6386.73877 6407.77637
6430.0 0.0001555 6389.85254 6405.27441
6430.0 0.0001555 6393.02783 6405.02441
6450.0 0.0001550 6396.25830 6406.19580
6470.0 0.0001546 6399.54297 6408.29639
6470.0 0.0001546 6402.88184 6411.67969
6450.0 0.0001550 6406.27344 6416.55176
6440.0 0.0001553 6409.71436 6423.58838
6460.0 0.0001548 6413.20898 6433.72314
6470.0 0.0001546 6416.74854 6447.90967
6460.0 0.0001548 6420.33643 6466.73730
6450.0 0.0001550 6423.96729 6488.51270
6480.0 0.0001543 6427.64160 6514.39990
6490.0 0.0001541 6431.35693 6540.50000
6520.0 0.0001534 6435.10889 6560.90479
6550.0 0.0001527 6438.89893 6572.04248
6530.0 0.0001531 6442.72119 6571.53467
6510.0 0.0001536 6446.57666 6560.90430
6510.0 0.0001536 6450.45850 6544.25732
6480.0 0.0001543 6454.37158 6526.26660
6470.0 0.0001546 6458.30566 6510.56250
6480.0 0.0001543 6462.26123 6499.72070
6480.0 0.0001543 6466.23877 6494.34375
6490.0 0.0001541 6470.23193 6494.81738
6490.0 0.0001541 6474.23730 6503.78662
6490.0 0.0001541 6478.25537 6515.20557
6490.0 0.0001541 6482.28174 6530.94434
6530.0 0.0001531 6486.31543 6549.70703
6560.0 0.0001524 6490.35205 6569.49414
6580.0 0.0001520 6494.39160 6587.65869
6600.0 0.0001515 6498.42822 6601.37061
6630.0 0.0001508 6502.45996 6608.80322
6640.0 0.0001506 6506.48779 6610.48682
6620.0 0.0001511 6510.50635 6608.27783
6620.0 0.0001511 6514.51172 6608.73682
6610.0 0.0001513 6518.50635 6615.24854
6650.0 0.0001504 6522.48389 6631.91602
6650.0 0.0001504 6526.44531 6661.79102
6660.0 0.0001502 6530.38379 6705.64502
6720.0 0.0001488 6534.30078 6761.07666
6820.0 0.0001466 6538.19189 6822.12256
6930.0 0.0001443 6542.06055 6879.70801
6970.0 0.0001435 6545.90137 6923.22266
7000.0 0.0001429 6549.70996 6941.54053
7020.0 0.0001425 6553.48877 6929.81934
7010.0 0.0001427 6557.23389 6891.70605
6950.0 0.0001439 6560.94287 6837.45508
6870.0 0.0001456 6564.61963 6779.41064
6800.0 0.0001471 6568.25635 6725.26270
6740.0 0.0001484 6571.85449 6681.45557
6670.0 0.0001499 6575.41504 6649.41797
6650.0 0.0001504 6578.93311 6629.82764
6620.0 0.0001511 6582.41113 6619.67383
6600.0 0.0001515 6585.84570 6616.60742
6610.0 0.0001513 6589.23584 6618.57764
6630.0 0.0001508 6592.58301 6624.21338
6630.0 0.0001508 6595.88525 6632.97754
6630.0 0.0001508 6599.14355 6644.79004
6640.0 0.0001506 6602.35693 6658.62402
6660.0 0.0001502 6605.52051 6674.53027
6680.0 0.0001497 6608.64209 6691.07617
6710.0 0.0001490 6611.71533 6703.43457
6720.0 0.0001488 6614.74219 6717.25732
6720.0 0.0001488 6617.72217 6727.57666
6720.0 0.0001488 6620.65820 6733.12207
6720.0 0.0001488 6623.54834 6732.75195
6740.0 0.0001484 6626.39063 6726.30273
6760.0 0.0001479 6629.18799 6715.16650
6760.0 0.0001479 6631.93799 6701.74219
6730.0 0.0001486 6634.64697 6688.29688
6690.0 0.0001495 6637.30957 6676.62939
6680.0 0.0001497 6639.92529 6667.72412
6680.0 0.0001497 6642.50000 6662.06934
6670.0 0.0001499 6645.03369 6659.49072
6640.0 0.0001506 6647.52393 6659.64014
6630.0 0.0001508 6649.97021 6662.15088
6630.0 0.0001508 6652.37646 6666.75439
6640.0 0.0001506 6654.74463 6673.26465
6660.0 0.0001502 6657.07031 6681.47803
6660.0 0.0001502 6659.35742 6690.65332
6660.0 0.0001502 6661.60840 6700.96289
6670.0 0.0001499 6663.81982 6711.03320
6690.0 0.0001495 6665.99609 6719.74756
6700.0 0.0001493 6668.13428 6725.17041
6710.0 0.0001490 6670.24023 6728.16943
6710.0 0.0001490 6672.31006 6727.49756
6720.0 0.0001488 6674.34619 6723.72363
6700.0 0.0001493 6676.35107 6718.10547
6680.0 0.0001497 6678.32227 6712.04395
6660.0 0.0001502 6680.26270 6706.67871
6640.0 0.0001506 6682.16943 6702.70947
6650.0 0.0001504 6684.05078 6700.38379
6660.0 0.0001502 6685.89844 6699.54004
6650.0 0.0001504 6687.71875 6699.76611
6620.0 0.0001511 6689.51025 6700.53711
6660.0 0.0001502 6691.27295 6701.39063
6670.0 0.0001499 6693.00928 6702.05957
6640.0 0.0001506 6694.71631 6702.49365
6670.0 0.0001499 6696.39746 6702.78760
6690.0 0.0001495 6698.05371 6703.07764
6680.0 0.0001497 6699.68066 6703.35449
6660.0 0.0001502 6701.28467 6703.95654
6660.0 0.0001502 6702.86182 6704.27832
6670.0 0.0001499 6704.41309 6705.33154
6660.0 0.0001502 6705.93945 6706.56689
6660.0 0.0001502 6707.43896 6707.86670
6690.0 0.0001495 6708.91699 6709.22705
6710.0 0.0001490 6710.36621 6710.60938
6720.0 0.0001488 6711.79053 6711.99561
6720.0 0.0001488 6713.18896 6714.25635
6730.0 0.0001486 6714.56201 6715.68213
6720.0 0.0001488 6715.90967 6717.09570
6710.0 0.0001490 6717.22998 6718.49365
6710.0 0.0001490 6718.52539 6719.87988
6720.0 0.0001488 6719.79150 6721.97559
6720.0 0.0001488 6721.03271 6723.39258
6730.0 0.0001486 6722.24561 6724.81006
6760.0 0.0001479 6723.43066 6726.23096
6790.0 0.0001473 6724.58789 6727.66797
6780.0 0.0001475 6725.71240 6729.13037
6810.0 0.0001468 6726.81299 6730.65527
6820.0 0.0001466 6727.87988 6732.28223
6830.0 0.0001464 6728.91602 6734.10107
6840.0 0.0001462 6729.92236 6736.22363
6880.0 0.0001453 6730.89648 6738.95752
6890.0 0.0001451 6731.84082 6742.64160
6890.0 0.0001451 6732.74756 6747.81348
6910.0 0.0001447 6733.62402 6755.20947
6900.0 0.0001449 6734.46582 6765.71387
6860.0 0.0001458 6735.27051 6780.25195
6830.0 0.0001464 6736.04150 6799.59326
6800.0 0.0001471 6736.77930 6824.08252
6800.0 0.0001471 6737.47607 6853.34766
6820.0 0.0001466 6738.13818 6886.21387
6840.0 0.0001462 6738.76172 6920.37939
6860.0 0.0001458 6739.34473 6952.75977
6930.0 0.0001443 6739.89111 6979.58496
7000.0 0.0001429 6740.39795 6997.70215
7030.0 0.0001422 6740.86230 7005.62891
7010.0 0.0001427 6741.28809 7003.55127
6970.0 0.0001435 6741.67236 6992.28320
6970.0 0.0001435 6742.01660 6972.73291
6980.0 0.0001433 6742.31836 6946.32764
6980.0 0.0001433 6742.57422 6916.07617
6950.0 0.0001439 6742.79346 6884.02783
6930.0 0.0001443 6742.96582 6853.47852
6900.0 0.0001449 6743.09766 6826.45117
6870.0 0.0001456 6743.18555 6804.04395
6800.0 0.0001471 6743.22949 6786.57861
6730.0 0.0001486 6743.23145 6773.76123
6720.0 0.0001488 6743.18945 6764.92334
6730.0 0.0001486 6743.10156 6759.24170
6720.0 0.0001488 6742.97363 6755.96338
6720.0 0.0001488 6742.80078 6754.39795
6740.0 0.0001484 6742.58496 6754.11865
6720.0 0.0001488 6742.32617 6755.19873
6710.0 0.0001490 6742.02393 6756.91406
6700.0 0.0001493 6741.67871 6759.17627
6700.0 0.0001493 6741.29297 6762.04785
6730.0 0.0001486 6740.86572 6765.42432
6760.0 0.0001479 6740.39551 6769.36084
6780.0 0.0001475 6739.88379 6773.88965
6800.0 0.0001471 6739.33398 6779.20605
6790.0 0.0001473 6738.74268 6785.73633
6770.0 0.0001477 6738.11328 6792.49463
6770.0 0.0001477 6737.44580 6801.48047
6760.0 0.0001479 6736.73877 6811.68066
6780.0 0.0001475 6735.99512 6821.72998
6770.0 0.0001477 6735.21582 6831.17529
6780.0 0.0001475 6734.40137 6836.50488
6770.0 0.0001477 6733.55029 6838.29199
6800.0 0.0001471 6732.66699 6835.24561
6860.0 0.0001458 6731.75244 6828.11963
6870.0 0.0001456 6730.80029 6818.88867
6860.0 0.0001458 6729.82129 6809.42773
6830.0 0.0001464 6728.81299 6801.65723
6800.0 0.0001471 6727.77246 6797.14893
6780.0 0.0001475 6726.70508 6796.67236
6750.0 0.0001481 6725.61035 6800.68359
6740.0 0.0001484 6724.48926 6807.44873
6760.0 0.0001479 6723.34668 6816.03174
6780.0 0.0001475 6722.17480 6824.67285
6800.0 0.0001471 6720.98193 6831.60107
6810.0 0.0001468 6719.76709 6835.47900
6830.0 0.0001464 6718.53320 6835.99268
6830.0 0.0001464 6717.27393 6834.09863
6840.0 0.0001462 6716.00049 6831.69287
6840.0 0.0001462 6714.70898 6830.81104
6830.0 0.0001464 6713.39844 6833.33643
6850.0 0.0001460 6712.07373 6839.96484
6870.0 0.0001456 6710.73242 6850.65332
6880.0 0.0001453 6709.37744 6864.54395
6890.0 0.0001451 6708.00781 6879.86279
6900.0 0.0001449 6706.62695 6894.49023
6920.0 0.0001445 6705.23438 6906.20166
6910.0 0.0001447 6703.83008 6913.09277
6880.0 0.0001453 6702.41406 6914.26025
6900.0 0.0001449 6700.99316 6910.02344
6890.0 0.0001451 6699.55811 6901.41357
6840.0 0.0001462 6698.11963 6891.32031
6830.0 0.0001464 6696.67188 6880.60889
6820.0 0.0001466 6695.21777 6870.10254
6830.0 0.0001464 6693.75684 6859.84033
6820.0 0.0001466 6692.29053 6849.69141
6840.0 0.0001462 6690.81641 6839.13818
6840.0 0.0001462 6689.33984 6827.42676
6870.0 0.0001456 6687.85742 6813.95166
6830.0 0.0001464 6686.36914 6798.70361
6810.0 0.0001468 6684.87842 6782.44531
6810.0 0.0001468 6683.38037 6766.20898
6780.0 0.0001475 6681.88330 6750.61035
6770.0 0.0001477 6680.37891 6737.06592
6760.0 0.0001479 6678.87158 6725.79785
6740.0 0.0001484 6677.36035 6716.66455
6750.0 0.0001481 6675.84521 6709.39111
6720.0 0.0001488 6674.32617 6703.56689
6740.0 0.0001484 6672.80420 6698.79590
6720.0 0.0001488 6671.27686 6694.80420
6700.0 0.0001493 6669.74561 6691.26025
6710.0 0.0001490 6668.20850 6688.46973
6700.0 0.0001493 6666.66748 6686.28125
6710.0 0.0001490 6665.12061 6684.12891
6730.0 0.0001486 6663.56885 6681.91895
6730.0 0.0001486 6662.01123 6680.61084
6700.0 0.0001493 6660.44727 6679.29443
6700.0 0.0001493 6658.87744 6677.82617
6720.0 0.0001488 6657.30029 6676.07031
6700.0 0.0001493 6655.71582 6673.68066
6680.0 0.0001497 6654.12109 6672.01074
6680.0 0.0001497 6652.52002 6669.02051
6700.0 0.0001493 6650.91162 6666.48291
6680.0 0.0001497 6649.29004 6663.04443
6660.0 0.0001502 6647.66162 6659.64014
6660.0 0.0001502 6646.02295 6655.93164
6660.0 0.0001502 6644.37256 6653.11768
6640.0 0.0001506 6642.71240 6650.66211
6630.0 0.0001508 6641.03906 6648.69336
6630.0 0.0001508 6639.35352 6647.20459
6630.0 0.0001508 6637.65527 6646.28076
6620.0 0.0001511 6635.94629 6646.07373
6620.0 0.0001511 6634.22412 6646.26074
6610.0 0.0001513 6632.48877 6647.07031
6620.0 0.0001511 6630.73779 6648.51270
6620.0 0.0001511 6628.97266 6650.92627
6660.0 0.0001502 6627.19482 6654.51855
6650.0 0.0001504 6625.40381 6659.70020
6630.0 0.0001508 6623.59619 6667.08984
6650.0 0.0001504 6621.77637 6677.47021
6660.0 0.0001502 6619.93701 6691.68848
6680.0 0.0001497 6618.08740 6710.46094
6710.0 0.0001490 6616.22314 6734.08398
6720.0 0.0001488 6614.34277 6762.07080
6780.0 0.0001475 6612.45117 6793.08984
6790.0 0.0001473 6610.54004 6824.82861
6820.0 0.0001466 6608.62012 6854.13477
6880.0 0.0001453 6606.68457 6877.38428
6900.0 0.0001449 6604.73730 6891.17529
6930.0 0.0001443 6602.77832 6893.52051
6960.0 0.0001437 6600.80420 6884.11572
6950.0 0.0001439 6598.82031 6864.61768
6910.0 0.0001447 6596.82715 6837.77393
6870.0 0.0001456 6594.82227 6807.01904
6860.0 0.0001458 6592.80908 6775.38672
6840.0 0.0001462 6590.78711 6745.18115
6790.0 0.0001473 6588.75781 6717.84180
6720.0 0.0001488 6586.72217 6693.89307
6660.0 0.0001502 6584.68311 6673.34180
6620.0 0.0001511 6582.63721 6655.84814
6620.0 0.0001511 6580.58936 6641.02686
6620.0 0.0001511 6578.54102 6628.53467
6610.0 0.0001513 6576.48975 6618.08057
6600.0 0.0001515 6574.44141 6609.43652
6580.0 0.0001520 6572.39453 6602.39111
6570.0 0.0001522 6570.34961 6596.75195
6590.0 0.0001517 6568.31201 6592.24365
6600.0 0.0001515 6566.28076 6588.83496
6590.0 0.0001517 6564.25684 6586.19971
6550.0 0.0001527 6562.24268 6584.10693
6530.0 0.0001531 6560.23926 6582.34766
6540.0 0.0001529 6558.24854 6580.77148
6560.0 0.0001524 6556.27393 6579.28271
6570.0 0.0001522 6554.31201 6577.80664
6550.0 0.0001527 6552.37354 6575.06787
6510.0 0.0001536 6550.44971 6573.43213
6520.0 0.0001534 6548.54736 6570.97705
6520.0 0.0001534 6546.66992 6568.31592
6490.0 0.0001541 6544.81592 6565.59619
6490.0 0.0001541 6542.98779 6562.49609
6500.0 0.0001538 6541.18701 6559.12598
6490.0 0.0001541 6539.41602 6555.54443
6510.0 0.0001536 6537.67725 6551.93604
6540.0 0.0001529 6535.97021 6548.38477
6540.0 0.0001529 6534.29785 6544.94287
6540.0 0.0001529 6532.65918 6541.34180
6510.0 0.0001536 6531.05957 6538.17383
6530.0 0.0001531 6529.49609 6535.24365
6540.0 0.0001529 6527.97412 6532.53516
6540.0 0.0001529 6526.49268 6530.06885
6560.0 0.0001524 6525.05420 6527.83838
6550.0 0.0001527 6523.65869 6525.81201
6540.0 0.0001529 6522.30518 6523.99707
6550.0 0.0001527 6520.99805 6522.35693
6560.0 0.0001524 6519.73535 6520.86768
6550.0 0.0001527 6518.52490 6519.55469
6520.0 0.0001534 6517.35791 6518.25684
6520.0 0.0001534 6516.23975 6517.15918
6540.0 0.0001529 6515.16992 6516.18994
6530.0 0.0001531 6514.14941 6515.36621
6520.0 0.0001534 6513.17969 6514.73486
6490.0 0.0001541 6512.25635 6514.28467
6480.0 0.0001543 6511.38281 6514.06982
6520.0 0.0001534 6510.56201 6514.12744
6540.0 0.0001529 6509.78955 6514.44482
6530.0 0.0001531 6509.06543 6515.08838
6510.0 0.0001536 6508.38672 6516.00732
6530.0 0.0001531 6507.76074 6517.06152
6560.0 0.0001524 6507.18018 6518.18018
6580.0 0.0001520 6506.64453 6519.22656
6550.0 0.0001527 6506.15625 6520.01416
6540.0 0.0001529 6505.71240 6520.47607
6520.0 0.0001534 6505.31104 6520.47559
6520.0 0.0001534 6504.95264 6520.00293
6540.0 0.0001529 6504.63330 6519.13135
6550.0 0.0001527 6504.35400 6518.00586
6540.0 0.0001529 6504.11279 6516.78516
6540.0 0.0001529 6503.90576 6515.62012
6540.0 0.0001529 6503.73291 6514.62891
6540.0 0.0001529 6503.59424 6514.18115
6530.0 0.0001531 6503.48242 6513.76758
6540.0 0.0001529 6503.39746 6513.66650
6540.0 0.0001529 6503.33936 6514.08350
6550.0 0.0001527 6503.30322 6514.61865
6560.0 0.0001524 6503.28662 6515.46094
6520.0 0.0001534 6503.28809 6516.60107
6530.0 0.0001531 6503.30273 6518.00537
6540.0 0.0001529 6503.33008 6519.60986
6530.0 0.0001531 6503.36621 6521.31543
6510.0 0.0001536 6503.40869 6522.99463
6500.0 0.0001538 6503.45361 6524.94141
6530.0 0.0001531 6503.50000 6526.15967
6540.0 0.0001529 6503.54150 6527.12549
6550.0 0.0001527 6503.57813 6527.41211
6530.0 0.0001531 6503.60400 6527.26514
6520.0 0.0001534 6503.61621 6526.87988
6520.0 0.0001534 6503.61279 6526.54639
6520.0 0.0001534 6503.59180 6526.92334
6500.0 0.0001538 6503.54639 6527.58398
6500.0 0.0001538 6503.47656 6529.40479
6520.0 0.0001534 6503.37500 6532.19287
6510.0 0.0001536 6503.24365 6536.08008
6520.0 0.0001534 6503.07422 6540.99463
6520.0 0.0001534 6502.87012 6546.67822
6540.0 0.0001529 6502.62012 6552.80420
6530.0 0.0001531 6502.32471 6558.84912
6550.0 0.0001527 6501.98389 6564.40967
6560.0 0.0001524 6501.58789 6569.10693
6540.0 0.0001529 6501.13916 6572.78613
6540.0 0.0001529 6500.63330 6575.48584
6540.0 0.0001529 6500.06689 6577.57129
6570.0 0.0001522 6499.43701 6579.42822
6560.0 0.0001524 6498.74268 6581.53955
6560.0 0.0001524 6497.98145 6584.32813
6550.0 0.0001527 6497.14893 6587.92090
6560.0 0.0001524 6496.24268 6592.25537
6590.0 0.0001517 6495.26123 6597.02686
6610.0 0.0001513 6494.20410 6601.62354
6610.0 0.0001513 6493.06982 6605.40088
6620.0 0.0001511 6491.85107 6607.46240
6610.0 0.0001513 6490.55176 6607.67139
6610.0 0.0001513 6489.16748 6605.69922
6630.0 0.0001508 6487.70068 6601.68359
6620.0 0.0001511 6486.14600 6595.70410
6600.0 0.0001515 6484.50293 6588.03760
6600.0 0.0001515 6482.77100 6578.70020
6580.0 0.0001520 6480.95117 6568.32373
6570.0 0.0001522 6479.04443 6556.98779
6570.0 0.0001522 6477.04395 6545.38037
6550.0 0.0001527 6474.95508 6533.98633
6560.0 0.0001524 6472.77637 6523.17822
6560.0 0.0001524 6470.50537 6513.21094
6530.0 0.0001531 6468.14746 6504.22705
6490.0 0.0001541 6465.69971 6496.32324
6470.0 0.0001546 6463.16357 6489.08984
6460.0 0.0001548 6460.53955 6483.12402
6470.0 0.0001546 6457.82959 6477.79492
6450.0 0.0001550 6455.03467 6473.45703
6440.0 0.0001553 6452.15381 6469.74268
6440.0 0.0001553 6449.19141 6466.53809
6430.0 0.0001555 6446.14844 6463.72900
6430.0 0.0001555 6443.02686 6461.23242
6420.0 0.0001558 6439.82813 6458.97998
6430.0 0.0001555 6436.55518 6456.93945
6430.0 0.0001555 6433.20850 6455.22217
6440.0 0.0001553 6429.79199 6453.09570
6450.0 0.0001550 6426.30811 6451.68604
6440.0 0.0001553 6422.76025 6450.24707
6430.0 0.0001555 6419.14941 6449.14063
6450.0 0.0001550 6415.48193 6448.03271
6460.0 0.0001548 6411.75781 6446.74072
6470.0 0.0001546 6407.97949 6445.02930
6480.0 0.0001543 6404.15186 6442.36377
6470.0 0.0001546 6400.27637 6439.16211
6430.0 0.0001555 6396.36182 6434.87598
6420.0 0.0001558 6392.40576 6429.74707
6430.0 0.0001555 6388.41064 6423.83838
6440.0 0.0001553 6384.38867 6417.27197
6440.0 0.0001553 6380.33398 6410.34082
6430.0 0.0001555 6376.25684 6403.27051
6420.0 0.0001558 6372.15820 6396.31787
6410.0 0.0001560 6368.04004 6389.62109
6390.0 0.0001565 6363.91016 6383.35596
6390.0 0.0001565 6359.76709 6377.53760
6380.0 0.0001567 6355.61865 6372.25098
6360.0 0.0001572 6351.46826 6367.44092
6330.0 0.0001580 6347.31738 6363.04883
6320.0 0.0001582 6343.17188 6358.93457
6350.0 0.0001575 6339.03564 6355.03711
6360.0 0.0001572 6334.90625 6351.17090
6370.0 0.0001570 6330.79443 6347.20117
6370.0 0.0001570 6326.69971 6343.02783
6360.0 0.0001572 6322.62744 6338.55029
6360.0 0.0001572 6318.57813 6333.91846
6340.0 0.0001577 6314.55762 6329.13428
6340.0 0.0001577 6310.56543 6324.27637
6340.0 0.0001577 6306.60889 6319.43115
6320.0 0.0001582 6302.68799 6314.65918
6310.0 0.0001585 6298.80371 6310.01123
6320.0 0.0001582 6294.96094 6305.42334
6290.0 0.0001590 6291.16260 6301.10791
6280.0 0.0001592 6287.41064 6296.76514
6270.0 0.0001595 6283.70703 6292.84277
6290.0 0.0001590 6280.04980 6289.13037
6280.0 0.0001592 6276.44678 6285.64551
6270.0 0.0001595 6272.89453 6282.41211
6270.0 0.0001595 6269.39551 6279.46875
6280.0 0.0001592 6265.95313 6276.59229
6280.0 0.0001592 6262.56592 6273.95898
6280.0 0.0001592 6259.23486 6271.48340
6270.0 0.0001595 6255.96338 6269.13574
6270.0 0.0001595 6252.75000 6266.88281
6250.0 0.0001600 6249.59570 6264.64990
6240.0 0.0001603 6246.49854 6262.38574
6240.0 0.0001603 6243.45947 6260.03613
6230.0 0.0001605 6240.48096 6257.56787
6220.0 0.0001608 6237.55908 6254.96680
6230.0 0.0001605 6234.69580 6252.24756
6250.0 0.0001600 6231.88965 6249.32910
6270.0 0.0001595 6229.13818 6246.38818
6270.0 0.0001595 6226.44141 6243.32129
6250.0 0.0001600 6223.79834 6240.20068
6230.0 0.0001605 6221.20850 6236.85352
6200.0 0.0001613 6218.66797 6233.47754
6200.0 0.0001613 6216.17871 6229.94482
6220.0 0.0001608 6213.73633 6226.41162
6240.0 0.0001603 6211.33984 6222.96582
6250.0 0.0001600 6208.98682 6219.64307
6250.0 0.0001600 6206.67383 6216.59326
6250.0 0.0001600 6204.40186 6213.83887
6260.0 0.0001597 6202.16455 6211.42090
6260.0 0.0001597 6199.95996 6209.37549
6230.0 0.0001605 6197.79102 6207.77295
6200.0 0.0001613 6195.64893 6206.50928
6190.0 0.0001616 6193.53516 6205.60840
6190.0 0.0001616 6191.44385 6205.05371
6170.0 0.0001621 6189.37354 6204.79248
6160.0 0.0001623 6187.32129 6204.67090
6170.0 0.0001621 6185.28564 6204.70313
6180.0 0.0001618 6183.26074 6204.70068
6180.0 0.0001618 6181.24951 6204.60889
6180.0 0.0001618 6179.23975 6204.30566
6200.0 0.0001613 6177.23584 6203.69434
6200.0 0.0001613 6175.23389 6202.93408
6210.0 0.0001610 6173.22900 6201.50879
6190.0 0.0001616 6171.22119 6199.67871
6180.0 0.0001618 6169.20264 6197.52588
6170.0 0.0001621 6167.17822 6195.20947
6160.0 0.0001623 6165.13916 6192.90039
6170.0 0.0001621 6163.08350 6190.88965
6180.0 0.0001618 6161.01270 6189.04102
6210.0 0.0001610 6158.91943 6187.57861
6210.0 0.0001610 6156.80615 6186.47852
6200.0 0.0001613 6154.66699 6185.84424
6200.0 0.0001613 6152.50000 6185.52637
6200.0 0.0001613 6150.30518 6185.40430
6200.0 0.0001613 6148.08008 6185.31641
6190.0 0.0001616 6145.82129 6185.08936
6200.0 0.0001613 6143.52832 6184.50977
6210.0 0.0001610 6141.20068 6183.48779
6200.0 0.0001613 6138.83691 6181.87988
6200.0 0.0001613 6136.43213 6179.65576
6200.0 0.0001613 6133.99121 6176.87500
6200.0 0.0001613 6131.50635 6173.68262
6180.0 0.0001618 6128.98291 6170.29443
6170.0 0.0001621 6126.41748 6166.92480
6180.0 0.0001618 6123.80811 6163.78955
6200.0 0.0001613 6121.15527 6161.02002
6200.0 0.0001613 6118.46094 6158.72607
6180.0 0.0001618 6115.72314 6156.94531
6160.0 0.0001623 6112.94287 6155.66504
6150.0 0.0001626 6110.11865 6154.84473
6150.0 0.0001626 6107.25146 6154.41846
6150.0 0.0001626 6104.34033 6154.32324
6140.0 0.0001629 6101.39063 6154.49072
6160.0 0.0001623 6098.39795 6154.84180
6180.0 0.0001618 6095.36523 6155.39551
6170.0 0.0001621 6092.29150 6155.86133
6150.0 0.0001626 6089.18213 6156.16064
6160.0 0.0001623 6086.03320 6156.07324
6160.0 0.0001623 6082.84863 6155.32568
6150.0 0.0001626 6079.62939 6153.69629
6130.0 0.0001631 6076.37842 6150.81787
6110.0 0.0001637 6073.09375 6146.73926
6100.0 0.0001639 6069.77686 6141.41797
6090.0 0.0001642 6066.43213 6134.75488
6070.0 0.0001647 6063.05908 6126.99756
6080.0 0.0001645 6059.66260 6118.37500
6080.0 0.0001645 6056.23926 6109.19971
6070.0 0.0001647 6052.79395 6099.76807
6070.0 0.0001647 6049.32861 6090.38623
6070.0 0.0001647 6045.84326 6081.33496
6070.0 0.0001647 6042.34082 6072.73682
6050.0 0.0001653 6038.82324 6064.74414
6040.0 0.0001656 6035.29053 6057.36768
6040.0 0.0001656 6031.74658 6050.69385
6050.0 0.0001653 6028.18945 6044.50098
6060.0 0.0001650 6024.62500 6038.93311
6050.0 0.0001653 6021.04932 6033.72949
6020.0 0.0001661 6017.46973 6028.98730
6010.0 0.0001664 6013.88232 6024.55420
6040.0 0.0001656 6010.29346 6020.51416
6030.0 0.0001658 6006.69971 6016.60107
6030.0 0.0001658 6003.10547 6012.91748
6020.0 0.0001661 5999.50928 6009.46191
6010.0 0.0001664 5995.91309 6006.23779
6020.0 0.0001661 5992.31738 6003.26270
6000.0 0.0001667 5988.72168 6000.51123
5990.0 0.0001669 5985.12842 5998.00537
5990.0 0.0001669 5981.53711 5995.72900
5980.0 0.0001672 5977.94775 5993.62598
5980.0 0.0001672 5974.36182 5991.62695
5990.0 0.0001669 5970.77783 5989.78369
5980.0 0.0001672 5967.19434 5987.88086
5980.0 0.0001672 5963.61475 5985.88086
6000.0 0.0001667 5960.03760 5983.73193
6010.0 0.0001664 5956.46094 5981.37061
6000.0 0.0001667 5952.88281 5978.75342
6010.0 0.0001664 5949.30664 5975.89209
6020.0 0.0001661 5945.72803 5972.50732
6000.0 0.0001667 5942.14648 5969.14551
6000.0 0.0001667 5938.56592 5965.53516
6000.0 0.0001667 5934.97559 5961.67969
5990.0 0.0001669 5931.38281 5957.61523
5960.0 0.0001678 5927.78223 5953.42773
5950.0 0.0001681 5924.17383 5949.09277
5950.0 0.0001681 5920.55615 5944.91797
5930.0 0.0001686 5916.92627 5940.84766
5940.0 0.0001684 5913.28418 5936.96729
5940.0 0.0001684 5909.62500 5933.31689
5930.0 0.0001686 5905.95215 5929.94336
5910.0 0.0001692 5902.25879 5926.84521
5910.0 0.0001692 5898.54834 5924.02588
5910.0 0.0001692 5894.81738 5921.45361
5900.0 0.0001695 5891.06104 5919.06641
5910.0 0.0001692 5887.27783 5916.77246
5890.0 0.0001698 5883.47314 5914.51318
5890.0 0.0001698 5879.63721 5912.21436
5910.0 0.0001692 5875.77295 5909.80518
5910.0 0.0001692 5871.87402 5906.94727
5930.0 0.0001686 5867.94824 5903.69336
5910.0 0.0001692 5863.98828 5899.99121
5900.0 0.0001695 5859.98877 5895.81885
5900.0 0.0001695 5855.95752 5891.23730
5880.0 0.0001701 5851.88721 5886.28662
5870.0 0.0001704 5847.78027 5881.03223
5870.0 0.0001704 5843.63721 5875.54785
5840.0 0.0001712 5839.45313 5869.89600
5840.0 0.0001712 5835.23096 5864.12695
5840.0 0.0001712 5830.97021 5858.28955
5830.0 0.0001715 5826.67236 5852.41064
5840.0 0.0001712 5822.33398 5846.51807
5820.0 0.0001718 5817.95654 5840.54346
5830.0 0.0001715 5813.54492 5834.69922
5850.0 0.0001709 5809.09375 5828.92529
5840.0 0.0001712 5804.60889 5823.25635
5830.0 0.0001715 5800.08984 5817.72559
5810.0 0.0001721 5795.53955 5812.35986
5780.0 0.0001730 5790.95703 5807.17822
5790.0 0.0001727 5786.34814 5802.18359
5800.0 0.0001724 5781.70996 5797.46289
5790.0 0.0001727 5777.05078 5792.90625
5810.0 0.0001721 5772.36719 5788.54492
5790.0 0.0001727 5767.66846 5784.42920
5780.0 0.0001730 5762.95215 5780.44629
5760.0 0.0001736 5758.22656 5776.65186
5780.0 0.0001730 5753.49219 5773.04297
5780.0 0.0001730 5748.75195 5769.75342
5780.0 0.0001730 5744.01123 5766.50830
5770.0 0.0001733 5739.27441 5763.40234
5780.0 0.0001730 5734.54346 5760.37158
5770.0 0.0001733 5729.82520 5757.31055
5750.0 0.0001739 5725.12158 5754.15820
5730.0 0.0001745 5720.43848 5750.76953
5740.0 0.0001742 5715.78027 5747.00098
5740.0 0.0001742 5711.15381 5742.79736
5740.0 0.0001742 5706.55908 5738.05957
5730.0 0.0001745 5702.00391 5732.64648
5740.0 0.0001742 5697.49316 5726.87695
5740.0 0.0001742 5693.03271 5720.72656
5720.0 0.0001748 5688.62305 5714.31592
5700.0 0.0001754 5684.26953 5707.79883
5690.0 0.0001757 5679.98096 5701.37891
5680.0 0.0001761 5675.76074 5695.15674
5680.0 0.0001761 5671.60938 5689.29004
5680.0 0.0001761 5667.53564 5683.89941
5690.0 0.0001757 5663.54053 5679.05957
5680.0 0.0001761 5659.62939 5674.83936
5660.0 0.0001767 5655.80566 5671.24951
5670.0 0.0001764 5652.07275 5668.42480
5680.0 0.0001761 5648.43213 5666.30078
5680.0 0.0001761 5644.89404 5664.86084
5670.0 0.0001764 5641.45117 5664.02588
5660.0 0.0001767 5638.11279 5663.74170
5650.0 0.0001770 5634.88037 5663.98584
5650.0 0.0001770 5631.74951 5664.40332
5660.0 0.0001767 5628.72949 5664.97363
5650.0 0.0001770 5625.82031 5665.40186
5650.0 0.0001770 5623.01807 5665.55322
5660.0 0.0001767 5620.32861 5665.21582
5660.0 0.0001767 5617.74756 5664.26367
5630.0 0.0001776 5615.27441 5662.60352
5630.0 0.0001776 5612.91455 5660.18848
5660.0 0.0001767 5610.65771 5656.98926
5660.0 0.0001767 5608.50977 5653.11865
5640.0 0.0001773 5606.46338 5648.68408
5650.0 0.0001770 5604.52197 5643.84961
5650.0 0.0001770 5602.67480 5638.80322
5620.0 0.0001779 5600.92627 5633.79150
5640.0 0.0001773 5599.26758 5628.93799
5650.0 0.0001770 5597.69727 5624.34766
5650.0 0.0001770 5596.21191 5620.17773
5620.0 0.0001779 5594.80225 5616.48926
5600.0 0.0001786 5593.46777 5613.19385
5610.0 0.0001783 5592.20068 5610.60156
5630.0 0.0001776 5590.99512 5608.53125
5660.0 0.0001767 5589.84717 5606.92480
5660.0 0.0001767 5588.75000 5605.73730
5620.0 0.0001779 5587.69531 5604.90625
5610.0 0.0001783 5586.67529 5604.39551
5610.0 0.0001783 5585.68799 5604.26416
5620.0 0.0001779 5584.72021 5604.27588
5620.0 0.0001779 5583.77148 5604.56396
5610.0 0.0001783 5582.82764 5605.00000
5610.0 0.0001783 5581.88770 5605.64502
5620.0 0.0001779 5580.93945 5606.52100
5620.0 0.0001779 5579.97852 5607.61572
5610.0 0.0001783 5578.99658 5608.90527
5600.0 0.0001786 5577.98486 5610.34180
5600.0 0.0001786 5576.93750 5611.86963
5590.0 0.0001789 5575.84863 5613.43164
5600.0 0.0001786 5574.70947 5614.78418
5590.0 0.0001789 5573.51660 5615.91602
5590.0 0.0001789 5572.26123 5616.70459
5600.0 0.0001786 5570.93701 5617.07861
5610.0 0.0001783 5569.53613 5616.97070
5620.0 0.0001779 5568.05908 5616.19580
5600.0 0.0001786 5566.49609 5615.02393
5600.0 0.0001786 5564.84570 5613.33838
5600.0 0.0001786 5563.10010 5611.10156
5590.0 0.0001789 5561.25732 5608.42627
5590.0 0.0001789 5559.31787 5605.44482
5610.0 0.0001783 5557.27393 5602.20068
5610.0 0.0001783 5555.12549 5598.66748
5600.0 0.0001786 5552.86963 5595.26123
5610.0 0.0001783 5550.50586 5591.90283
5610.0 0.0001783 5548.03564 5588.65234
5590.0 0.0001789 5545.45557 5585.58154
5570.0 0.0001795 5542.76709 5582.74268
5570.0 0.0001795 5539.97363 5580.18457
5560.0 0.0001799 5537.07324 5577.92725
5550.0 0.0001802 5534.07031 5576.08643
5550.0 0.0001802 5530.96680 5574.42090
5550.0 0.0001802 5527.76807 5573.01465
5560.0 0.0001799 5524.47461 5571.73291
5550.0 0.0001802 5521.09424 5570.47803
5540.0 0.0001805 5517.62598 5569.11279
5540.0 0.0001805 5514.07959 5567.46045
5550.0 0.0001802 5510.45996 5565.36719
5570.0 0.0001795 5506.77197 5562.77832
5580.0 0.0001792 5503.02051 5559.48389
5580.0 0.0001792 5499.21875 5555.52588
5560.0 0.0001799 5495.36035 5550.86133
5550.0 0.0001802 5491.46777 5545.61865
5530.0 0.0001808 5487.53711 5539.90186
5540.0 0.0001805 5483.57861 5533.85010
5560.0 0.0001799 5479.60010 5527.59570
5560.0 0.0001799 5475.60693 5521.26025
5560.0 0.0001799 5471.61182 5514.96826
5550.0 0.0001802 5467.61621 5508.81543
5530.0 0.0001808 5463.62451 5502.80029
5500.0 0.0001818 5459.65137 5497.19189
5480.0 0.0001825 5455.70117 5492.04639
5490.0 0.0001821 5451.77539 5487.13770
5490.0 0.0001821 5447.88379 5482.59180
5490.0 0.0001821 5444.03271 5478.37256
5480.0 0.0001825 5440.22461 5474.26611
5470.0 0.0001828 5436.46484 5470.41260
5470.0 0.0001828 5432.75635 5466.71582
5450.0 0.0001835 5429.10791 5463.13330
5440.0 0.0001838 5425.51709 5459.64697
5440.0 0.0001838 5421.98682 5456.04639
5440.0 0.0001838 5418.52197 5452.43115
5450.0 0.0001835 5415.12109 5448.79150
5450.0 0.0001835 5411.78564 5445.14551
5460.0 0.0001832 5408.51367 5441.38818
5450.0 0.0001835 5405.30957 5437.62012
5450.0 0.0001835 5402.16650 5433.78809
5420.0 0.0001845 5399.08594 5429.86133
5410.0 0.0001848 5396.06348 5425.92285
5400.0 0.0001852 5393.09619 5422.02393
5410.0 0.0001848 5390.18066 5418.06445
5390.0 0.0001855 5387.31348 5414.16113
5390.0 0.0001855 5384.48877 5410.34424
5400.0 0.0001852 5381.70117 5406.77588
5400.0 0.0001852 5378.94531 5403.24219
5410.0 0.0001848 5376.21777 5399.76660
5420.0 0.0001845 5373.50928 5396.64258
5430.0 0.0001842 5370.81543 5393.72510
5420.0 0.0001845 5368.12549 5391.32178
5400.0 0.0001852 5365.43994 5389.13818
5410.0 0.0001848 5362.74707 5387.29639
5380.0 0.0001859 5360.04150 5385.80566
5370.0 0.0001862 5357.31689 5384.65283
5360.0 0.0001866 5354.56494 5383.81738
5370.0 0.0001862 5351.78418 5383.23828
5380.0 0.0001859 5348.96582 5382.81299
5370.0 0.0001862 5346.10303 5382.57959
5370.0 0.0001862 5343.19629 5382.34521
5380.0 0.0001859 5340.23633 5382.01855
5370.0 0.0001862 5337.22266 5381.46582
5380.0 0.0001859 5334.15186 5380.58008
5370.0 0.0001862 5331.01758 5379.27441
5350.0 0.0001869 5327.82373 5377.50391
5350.0 0.0001869 5324.56396 5375.19971
5350.0 0.0001869 5321.24414 5372.46289
5340.0 0.0001873 5317.86084 5369.26416
5340.0 0.0001873 5314.41504 5365.66992
5360.0 0.0001866 5310.91309 5361.72949
5360.0 0.0001866 5307.34961 5357.48389
5360.0 0.0001866 5303.73584 5353.03906
5370.0 0.0001862 5300.07178 5348.49023
5360.0 0.0001866 5296.36279 5343.93701
5360.0 0.0001866 5292.61572 5339.44580
5360.0 0.0001866 5288.83350 5335.12354
5370.0 0.0001862 5285.02441 5330.88770
5350.0 0.0001869 5281.19531 5326.72754
5330.0 0.0001876 5277.34717 5322.81641
5310.0 0.0001883 5273.49023 5319.01709
5320.0 0.0001880 5269.63232 5315.23975
5330.0 0.0001876 5265.77979 5311.51807
5330.0 0.0001876 5261.93311 5307.66455
5320.0 0.0001880 5258.10449 5303.64404
5300.0 0.0001887 5254.29736 5299.38623
5300.0 0.0001887 5250.51416 5294.88135
5300.0 0.0001887 5246.75830 5290.01172
5290.0 0.0001890 5243.03857 5284.90039
5280.0 0.0001894 5239.35059 5279.48486
5260.0 0.0001901 5235.70020 5273.89893
5250.0 0.0001905 5232.08545 5268.18750
5240.0 0.0001908 5228.50879 5262.44678
5240.0 0.0001908 5224.96289 5256.81494
5230.0 0.0001912 5221.45361 5251.31299
5230.0 0.0001912 5217.97070 5246.06787
5240.0 0.0001908 5214.51465 5241.12061
5230.0 0.0001912 5211.07666 5236.53760
5240.0 0.0001908 5207.65137 5232.29395
5260.0 0.0001901 5204.23535 5228.43994
5260.0 0.0001901 5200.82178 5224.76123
5230.0 0.0001912 5197.40381 5221.51953
5220.0 0.0001916 5193.97363 5218.45898
5210.0 0.0001919 5190.52539 5215.58447
5200.0 0.0001923 5187.05225 5212.80859
5200.0 0.0001923 5183.55029 5209.98438
5180.0 0.0001931 5180.01563 5207.07324
5180.0 0.0001931 5176.44531 5204.05322
5190.0 0.0001927 5172.83740 5200.73145
5200.0 0.0001923 5169.19092 5197.34229
5190.0 0.0001927 5165.50732 5193.77051
5180.0 0.0001931 5161.78955 5190.01367
5180.0 0.0001931 5158.04785 5186.04102
5180.0 0.0001931 5154.28320 5182.01318
5180.0 0.0001931 5150.50488 5177.87012
5170.0 0.0001934 5146.72656 5173.67285
5170.0 0.0001934 5142.95361 5169.39014
5150.0 0.0001942 5139.20166 5165.08691
5170.0 0.0001934 5135.48145 5160.71973
5180.0 0.0001931 5131.80176 5156.48047
5180.0 0.0001931 5128.17090 5152.33887
5190.0 0.0001927 5124.59814 5148.29053
5170.0 0.0001934 5121.08154 5144.22607
5150.0 0.0001942 5117.61914 5140.42480
5130.0 0.0001949 5114.20605 5136.77539
5110.0 0.0001957 5110.82227 5133.25537
5120.0 0.0001953 5107.44043 5129.85693
5130.0 0.0001949 5104.03076 5126.39111
5130.0 0.0001949 5100.54004 5123.09961
5130.0 0.0001949 5096.91699 5119.77148
5120.0 0.0001953 5093.08643 5116.34229
5090.0 0.0001965 5088.97266 5112.66748
5080.0 0.0001969 5084.48877 5108.65918
5090.0 0.0001965 5079.53516 5104.19727
5090.0 0.0001965 5074.01904 5099.13818
5090.0 0.0001965 5067.85059 5093.38379
5100.0 0.0001961 5060.95410 5086.82227
5080.0 0.0001969 5053.28076 5079.38916
5080.0 0.0001969 5044.82764 5071.05713
5060.0 0.0001976 5035.64795 5061.86768
5050.0 0.0001980 5025.89893 5051.96826
5040.0 0.0001984 5015.84473 5041.61230
5030.0 0.0001988 5005.93604 5031.20947
5030.0 0.0001988 4996.81396 5021.52295
5030.0 0.0001988 4989.41211 5013.43604
5010.0 0.0001996 4985.01221 5008.19727
5010.0 0.0001996 4985.32764 5007.60107
5000.0 0.0002000 4992.62793 5013.97754
4990.0 . . .
4990.0 . . .
5010.0 . . .
5010.0 . . .
5000.0 . . .
5010.0 . . .
5010.0 . . .
5010.0 . . .
5020.0 . . .
5030.0 . . .
5040.0 . . .
5030.0 . . .
5010.0 . . .
4990.0 . . .
4990.0 . . .
4990.0 . . .
4960.0 . . .
4950.0 . . .
4950.0 . . .
4950.0 . . .
4940.0 . . .
4930.0 . . .
4930.0 . . .
4940.0 . . .
4930.0 . . .
4930.0 . . .
4950.0 . . .
4960.0 . . .
4950.0 . . .
4950.0 . . .
4940.0 . . .
4940.0 . . .
4920.0 . . .
4940.0 . . .
4940.0 . . .
4940.0 . . .
4930.0 . . .
4930.0 . . .
4950.0 . . .
4960.0 . . .
4960.0 . . .
4930.0 . . .
4910.0 . . .
4880.0 . . .
4870.0 . . .
4870.0 . . .
4870.0 . . .
4850.0 . . .
4840.0 . . .
4850.0 . . .
4850.0 . . .
4860.0 . . .
4860.0 . . .
4830.0 . . .
4820.0 . . .
4820.0 . . .
4800.0 . . .
4810.0 . . .
4810.0 . . .
4790.0 . . .
4800.0 . . .
4800.0 . . .
4800.0 . . .
4790.0 . . .
4790.0 . . .
4790.0 . . .
4780.0 . . .
4800.0 . . .
4810.0 . . .
4810.0 . . .
4800.0 . . .
4780.0 . . .
4770.0 . . .
4780.0 . . .
4780.0 . . .
4770.0 . . .
4750.0 . . .
4730.0 . . .
4730.0 . . .
4730.0 . . .
4730.0 . . .
4750.0 . . .
4760.0 . . .
4750.0 . . .
4760.0 . . .
4740.0 . . .
4720.0 . . .
4710.0 . . .
4710.0 . . .
4710.0 . . .
4700.0 . . .
4700.0 . . .
4710.0 . . .
4700.0 . . .
4690.0 . . .
4660.0 . . .
4660.0 . . .
4650.0 . . .
4650.0 . . .
4640.0 . . .
4640.0 . . .
4640.0 . . .
4630.0 . . .
4640.0 . . .
4630.0 . . .
4620.0 . . .
4610.0 . . .
4620.0 . . .
4630.0 . . .
4630.0 . . .
4620.0 . . .
4590.0 . . .
4590.0 . . .
4590.0 . . .
4590.0 . . .
4590.0 . . .
4580.0 . . .
4580.0 . . .
4580.0 . . .
4580.0 . . .
4570.0 . . .
4570.0 . . .
4560.0 . . .
4560.0 . . .
4560.0 . . .
4570.0 . . .
4570.0 . . .
4560.0 . . .
4550.0 . . .
4540.0 . . .
4530.0 . . .
4530.0 . . .
4530.0 . . .
4540.0 . . .
4560.0 . . .
4550.0 . . .
4560.0 . . .
4570.0 . . .
4590.0 . . .
4580.0 . . .
4560.0 . . .
4570.0 . . .
4560.0 . . .
4540.0 . . .
4510.0 . . .
4510.0 . . .
4520.0 . . .
4520.0 . . .
4530.0 . . .
4510.0 . . .
4510.0 . . .
4510.0 . . .
4530.0 . . .
4540.0 . . .
4520.0 . . .
4510.0 . . .
4500.0 . . .
4500.0 . . .
4510.0 . . .
4520.0 . . .
4500.0 . . .
4510.0 . . .
4500.0 . . .
4500.0 . . .
4500.0 . . .
4500.0 . . .
4490.0 . . .
4480.0 . . .
4480.0 . . .
4470.0 . . .
4460.0 . . .
4460.0 . . .
4470.0 . . .
4470.0 . . .
4470.0 . . .
4460.0 . . .
4460.0 . . .
4460.0 . . .
4470.0 . . .
4470.0 . . .
4470.0 . . .
4460.0 . . .
4460.0 . . .
4450.0 . . .
4460.0 . . .
4470.0 . . .
4480.0 . . .
4460.0 . . .
4440.0 . . .
4450.0 . . .
4460.0 . . .
4470.0 . . .
4470.0 . . .
4460.0 . . .
4450.0 . . .
4450.0 . . .
4460.0 . . .
4450.0 . . .
4450.0 . . .
4440.0 . . .
4430.0 . . .
4420.0 . . .
4420.0 . . .
4410.0 . . .
4390.0 . . .
4410.0 . . .
4410.0 . . .
4390.0 . . .
4400.0 . . .
4400.0 . . .
4390.0 . . .
4380.0 . . .
4370.0 . . .
4360.0 . . .
4340.0 . . .
4350.0 . . .
4370.0 . . .
4370.0 . . .
4380.0 . . .
4390.0 . . .
4370.0 . . .
4360.0 . . .
4360.0 . . .
4350.0 . . .
4350.0 . . .
4350.0 . . .
4340.0 . . .
4340.0 . . .
4330.0 . . .
4320.0 . . .
4300.0 . . .
4300.0 . . .
4280.0 . . .
4280.0 . . .
4290.0 . . .
4290.0 . . .
4280.0 . . .
4260.0 . . .
4260.0 . . .
4270.0 . . .
4260.0 . . .
4270.0 . . .
4260.0 . . .
4260.0 . . .
4260.0 . . .
4250.0 . . .
4240.0 . . .
4240.0 . . .
4230.0 . . .
4230.0 . . .
4240.0 . . .
4250.0 . . .
4250.0 . . .
4230.0 . . .
4220.0 . . .
4210.0 . . .
4220.0 . . .
4220.0 . . .
4220.0 . . .
4210.0 . . .
4200.0 . . .
4200.0 . . .
4190.0 . . .
4180.0 . . .
4180.0 . . .
4180.0 . . .
4180.0 . . .
4180.0 . . .
4170.0 . . .
4170.0 . . .
4170.0 . . .
4170.0 . . .
4180.0 . . .
4180.0 . . .
4170.0 . . .
4160.0 . . .
4160.0 . . .
4170.0 . . .
4150.0 . . .
4140.0 . . .
4150.0 . . .
4150.0 . . .
4140.0 . . .
4150.0 . . .
4160.0 . . .
4150.0 . . .
4130.0 . . .
4130.0 . . .
4110.0 . . .
4100.0 . . .
4100.0 . . .
4100.0 . . .
4090.0 . . .
4090.0 . . .
4080.0 . . .
4070.0 . . .
4090.0 . . .
4090.0 . . .
4090.0 . . .
4070.0 . . .
4060.0 . . .
4050.0 . . .
4060.0 . . .
4060.0 . . .
4060.0 . . .
4060.0 . . .
4070.0 . . .
4080.0 . . .
4080.0 . . .
4080.0 . . .
4070.0 . . .
4060.0 . . .
4070.0 . . .
4080.0 . . .
4060.0 . . .
4070.0 . . .
4070.0 . . .
4070.0 . . .
4050.0 . . .
4050.0 . . .
4050.0 . . .
4040.0 . . .
4020.0 . . .
4020.0 . . .
4010.0 . . .
4010.0 . . .
4030.0 . . .
4020.0 . . .
4000.0 . . .
3990.0 . . .
3960.0 . . .
3960.0 . . .
3970.0 . . .
3960.0 . . .
3960.0 . . .
3960.0 . . .
3950.0 . . .
3940.0 . . .
3930.0 . . .
3940.0 . . .
3950.0 . . .
3950.0 . . .
3940.0 . . .
3920.0 . . .
3930.0 . . .
3930.0 . . .
3920.0 . . .
3890.0 . . .
3880.0 . . .
3880.0 . . .
3870.0 . . .
3860.0 . . .
3860.0 . . .
3850.0 . . .
3840.0 . . .
3830.0 . . .
3820.0 . . .
3810.0 . . .
3790.0 . . .
3770.0 . . .
3760.0 . . .
3750.0 . . .
3730.0 . . .
3710.0 . . .
3690.0 . . .
3660.0 . . .
3630.0 . . .
3610.0 . . .
3590.0 . . .
3560.0 . . .
3550.0 . . .
3520.0 . . .
3480.0 . . .
3460.0 . . .
3430.0 . . .
3400.0 . . .
3380.0 . . .
3350.0 . . .
3320.0 . . .
3290.0 . . .
3250.0 . . .
3220.0 . . .
3210.0 . . .
3180.0 . . .
3160.0 . . .
3120.0 . . .
2970.0 . . .
2610.0 . . .
2360.0 . . .
2150.0 . . .
1970.0 . . .
1810.0 . . .
1670.0 . . .
1540.0 . . .
1430.0 . . .
1320.0 . . .
1200.0 . . .
1090.0 . . .
991.0 . . .
876.0 . . .
762.0 . . .
639.0 . . .
487.0 . . .
306.0 . . .
108.0 . . .
0.0 . . .
0.0 . . .
0.0 . . .
0.0 . . .
0.0 . . .
0.0 . . .
0.0 . . .
0.0 . . .
0.0 . . .
0.0 . . .
0.0 . . .
0.0 . . .
0.0 . . .
0.0 . . .
0.0 . . .
0.0 . . .
0.0 . . .
0.0 . . .
0.0 . . .
0.0 . . .
0.0 . . .
0.0 . . .
0.0 . . .
0.0 . . .
0.0 . . .
0.0 . . .
0.0 . . .
0.0 . . .
0.0 . . .
0.0 . . .
0.0 . . .
0.0 . . .
0.0 . . .
0.0 . . .
0.0 . . .
0.0 . . .
0.0 . . .
0.0 . . .
0.0 . . .
0.0 . . .
0.0 . . .
0.0 . . .
0.0 . . .
0.0 . . .
0.0 . . .
0.0 . . .
0.0 . . .
0.0 . . .
0.0 . . .
0.0 . . .
0.0 . . .
0.0 . . .
0.0 . . .
0.0 . . .
0.0 . . .
0.0 . . .
0.0 . . .
0.0 . . .
0.0 . . .
0.0 . . .
0.0 . . .
0.0 . . .
0.0 . . .
0.0 . . .
0.0 . . .
0.0 . . .
0.0 . . .
0.0 . . .
0.0 . . .
0.0 . . .
0.0 . . .
0.0 . . .
0.0 . . .
0.0 . . .
0.0 . . .
0.0 . . .
0.0 . . .
0.0 . . .
0.0 . . .
0.0 . . .
0.0 . . .
0.0 . . .
0.0 . . .
0.0 . . .
0.0 . . .
0.0 . . .
0.0 . . .
0.0 . . .
0.0 . . .
0.0 . . .
0.0 . . .
0.0 . . .
0.0 . . .
0.0 . . .
0.0 . . .
0.0 . . .
0.0 . . .
0.0 . . .
0.0 . . .
0.0 . . .
0.0 . . .
0.0 . . .
0.0 . . .
0.0 . . .
0.0 . . .
0.0 . . .
0.0 . . .
0.0 . . .
0.0 . . .
0.0 . . .
0.0 . . .
0.0 . . .
0.0 . . .
0.0 . . .
0.0 . . .
0.0 . . .
0.0 . . .
0.0 . . .
0.0 . . .
0.0 . . .
0.0 . . .
0.0 . . .
0.0 . . .
0.0 . . .
0.0 . . .
0.0 . . .
0.0 . . .
0.0 . . .
0.0 . . .
0.0 . . .
0.0 . . .
0.0 . . .
0.0 . . .
0.0 . . .
0.0 . . .
0.0 . . .
0.0 . . .
0.0 . . .
0.0 . . .
0.0 . . .
0.0 . . .
0.0 . . .
0.0 . . .
0.0 . . .
0.0 . . .
0.0 . . .
0.0 . . .
0.0 . . .
0.0 . . .
0.0 . . .
0.0 . . .
0.0 . . .
0.0 . . .
0.0 . . .
0.0 . . .
0.0 . . .
0.0 . . .
0.0 . . .
0.0 . . .
0.0 . . .
0.0 . . .
0.0 . . .
0.0 . . .
0.0 . . .
0.0 . . .
0.0 . . .
0.0 . . .
0.0 . . .
0.0 . . .
0.0 . . .
0.0 . . .
0.0 . . .
0.0 . . .
0.0 . . .
0.0 . . .
0.0 . . .
0.0 . . .
0.0 . . .
0.0 . . .
0.0 . . .
0.0 . . .
0.0 . . .
0.0 . . .
0.0 . . .
0.0 . . .
0.0 . . .
0.0 . . .
0.0 . . .
0.0 . . .
0.0 . . .
0.0 . . .
0.0 . . .
0.0 . . .
0.0 . . .
0.0 . . .
0.0 . . .
0.0 . . .
0.0 . . .
0.0 . . .
0.0 . . .
0.0 . . .
0.0 . . .
0.0 . . .
0.0 . . .
0.0 . . .
0.0 . . .
0.0 . . .
0.0 . . .
0.0 . . .
0.0 . . .
0.0 . . .
0.0 . . .
0.0 . . .
0.0 . . .
0.0 . . .
0.0 . . .
0.0 . . .
0.0 . . .
0.0 . . .
0.0 . . .
0.0 . . .
0.0 . . .
0.0 . . .
0.0 . . .
0.0 . . .
0.0 . . .
0.0 . . .
0.0 . . .
0.0 . . .
0.0 . . .
0.0 . . .
0.0 . . .
0.0 . . .
0.0 . . .
0.0 . . .
0.0 . . .
0.0 . . .
0.0 . . .
0.0 . . .
0.0 . . .
0.0 . . .
0.0 . . .
0.0 . . .
0.0 . . .
0.0 . . .
0.0 . . .
0.0 . . .
0.0 . . .
0.0 . . .
0.0 . . .
0.0 . . .
0.0 . . .
0.0 . . .
0.0 . . .
0.0 . . .
0.0 . . .
0.0 . . .
0.0 . . .
0.0 . . .
0.0 . . .
0.0 . . .
0.0 . . .
0.0 . . .
0.0 . . .
0.0 . . .
0.0 . . .
0.0 . . .
0.0 . . .
0.0 . . .
0.0 . . .
0.0 . . .
0.0 . . .
0.0 . . .
0.0 . . .
0.0 . . .
0.0 . . .
0.0 . . .
0.0 . . .
0.0 . . .
0.0 . . .
0.0 . . .
0.0 . . .
0.0 . . .
0.0 . . .
0.0 . . .
0.0 . . .
0.0 . . .
0.0 . . .
0.0 . . .
0.0 . . .
0.0 . . .
0.0 . . .
0.0 . . .
0.0 . . .
0.0 . . .
0.0 . . .
0.0 . . .
0.0 . . .
0.0 . . .
0.0 . . .
0.0 . . .
0.0 . . .
0.0 . . .
0.0 . . .
0.0 . . .
0.0 . . .
0.0 . . .
0.0 . . .
0.0 . . .
0.0 . . .
0.0 . . .
0.0 . . .
0.0 . . .
0.0 . . .
0.0 . . .
0.0 . . .
0.0 . . .
0.0 . . .
0.0 . . .
0.0 . . .
0.0 . . .
0.0 . . .
0.0 . . .
0.0 . . .
0.0 . . .
0.0 . . .
0.0 . . .
0.0 . . .
0.0 . . .
0.0 . . .
0.0 . . .
0.0 . . .
0.0 . . .
0.0 . . .
0.0 . . .
0.0 . . .
0.0 . . .
0.0 . . .
0.0 . . .
0.0 . . .
0.0 . . .
0.0 . . .
0.0 . . .
0.0 . . .
0.0 . . .
0.0 . . .
0.0 . . .
0.0 . . .
0.0 . . .
0.0 . . .
0.0 . . .
0.0 . . .
0.0 . . .
0.0 . . .
0.0 . . .
0.0 . . .
0.0 . . .
0.0 . . .
0.0 . . .
0.0 . . .
0.0 . . .
0.0 . . .
0.0 . . .
0.0 . . .
0.0 . . .
0.0 . . .
0.0 . . .
0.0 . . .
0.0 . . .
0.0 . . .
0.0 . . .
0.0 . . .
0.0 . . .
0.0 . . .
0.0 . . .
0.0 . . .
0.0 . . .
0.0 . . .
0.0 . . .
0.0 . . .
0.0 . . .
0.0 . . .
0.0 . . .
0.0 . . .
0.0 . . .
0.0 . . .
loop_
_refln_index_h
_refln_index_k
_refln_index_l
_refln_observed_status
_refln_F_squared_meas
_refln_F_squared_calc
_refln_phase_calc
_refln_d_spacing
_gsas_i100_meas
0 0 1 o 746.929 768.425 0.00 6.97099 31.16
1 1 -1 o 319.831 299.229 0.00 4.48873 31.17
0 1 1 o 27.724 28.232 0.00 4.44020 1.77
1 1 0 o 1603.806 1626.616 0.00 4.29030 100.00
2 0 -1 o 1736.699 1653.491 0.00 3.87010 51.72
2 0 -2 o 455.038 539.538 180.00 3.58172 10.50
0 0 2 o 217.247 215.795 180.00 3.48549 2.27
1 1 -2 o 118.356 92.090 180.00 3.40818 5.82
2 0 0 o 2158.424 2188.923 0.00 3.21513 25.56
2 1 -1 o 1249.975 1257.640 180.00 3.21230 53.98
1 1 1 o 134.319 118.242 180.00 3.15940 2.66
2 1 -2 o 6.358 24.917 0.00 3.04159 0.24
0 1 2 o 33.523 18.838 0.00 2.98199 0.66
0 2 0 o 272.485 330.077 180.00 2.87988 7.19
2 1 0 o 1635.827 1529.739 180.00 2.80737 34.28
2 0 -3 o 5.096 4.858 0.00 2.77041 0.07
1 2 -1 o 42.090 41.770 0.00 2.67203 1.72
0 2 1 o 248.765 247.925 180.00 2.66168 8.47
1 2 0 o 121.388 133.645 180.00 2.62832 3.87
2 1 -3 o 10.866 20.906 0.00 2.49662 0.27
1 1 -3 o 277.693 264.399 0.00 2.47153 5.50
2 0 1 o 69.321 28.509 180.00 2.44070 0.34
1 2 -2 o 95.894 126.494 0.00 2.38014 2.70
3 1 -2 o 0.261 0.437 180.00 2.36713 0.01
0 0 3 o 497.130 531.762 0.00 2.32366 2.31
2 2 -1 o 10.880 10.630 0.00 2.31039 0.27
1 1 2 o 3.073 3.003 180.00 2.31129 0.03
1 2 1 o 55.103 52.410 180.00 2.29047 0.88
3 1 -1 o 665.872 565.548 0.00 2.27887 12.23
2 1 1 o 0.128 0.122 180.00 2.24726 0.00
2 2 -2 o 6.631 6.598 0.00 2.24437 0.16
0 2 2 o 72.654 77.313 0.00 2.22010 1.16
3 1 -3 o 153.443 135.804 0.00 2.20578 2.86
0 1 3 o 3.268 44.638 0.00 2.15491 0.03
2 2 0 o 3.167 90.696 180.00 2.14515 0.05
2 0 -4 o 0.000 28.504 0.00 2.11389 0.00
3 1 0 o 67.800 23.196 0.00 2.00883 0.68
2 2 -3 o 406.096 301.369 0.00 1.99655 7.47
1 2 -3 o 128.055 103.407 0.00 1.98365 1.95
2 1 -4 o 227.696 183.853 180.00 1.98446 3.52
4 0 -2 o 0.000 38.398 180.00 1.93505 0.00
3 2 -2 o 6.157 18.097 0.00 1.92845 0.10
4 0 -3 o 3.877 11.642 0.00 1.92860 0.03
3 1 -4 o 173.769 229.847 0.00 1.91126 2.39
1 2 2 o 3.248 3.773 180.00 1.89789 0.03
2 0 2 o 44.274 57.617 0.00 1.88930 0.12
3 2 -1 o 136.770 167.163 180.00 1.87982 1.88
1 1 -4 o 76.300 95.562 0.00 1.88151 0.72
2 2 1 o 123.790 122.988 180.00 1.86196 1.05
1 3 -1 o 79.335 80.903 180.00 1.85447 1.65
0 3 1 o 188.553 196.397 180.00 1.85100 3.57
1 3 0 o 67.057 69.057 180.00 1.83967 1.21
3 2 -3 o 47.181 47.652 0.00 1.83816 0.69
4 1 -2 o 0.242 0.228 0.00 1.83430 0.00
4 1 -3 o 245.457 203.293 0.00 1.82880 3.43
0 2 3 o 105.146 56.537 0.00 1.80841 0.87
4 0 -1 o 2.125 1.106 0.00 1.80648 0.01
2 1 2 o 8.677 3.847 0.00 1.79519 0.05
4 0 -4 o 98.850 42.876 0.00 1.79086 0.57
1 1 3 o 160.360 80.821 0.00 1.78072 0.81
1 3 -2 o 0.000 0.146 0.00 1.74811 0.00
0 0 4 o 56.958 187.445 0.00 1.74275 0.15
4 1 -1 o 638.992 638.645 180.00 1.72369 6.00
2 3 -1 o 183.609 170.314 0.00 1.71991 2.76
3 2 0 o 235.328 217.000 180.00 1.71945 2.02
1 3 1 o 27.363 24.611 180.00 1.71164 0.32
4 1 -4 o 12.435 11.393 0.00 1.71011 0.14
3 1 1 o 32.942 34.391 180.00 1.70446 0.18
2 2 -4 o 79.172 83.573 0.00 1.70409 0.98
2 3 -2 o 2.316 4.430 0.00 1.69214 0.04
0 3 2 o 0.209 30.791 180.00 1.68167 0.00
2 0 -5 o 0.000 27.971 180.00 1.67028 0.00
0 1 4 o 0.000 89.710 0.00 1.66806 0.00
3 2 -4 o 13.074 16.472 180.00 1.65707 0.15
2 3 0 o 0.766 0.136 180.00 1.64838 0.01
1 2 -4 o 0.042 0.004 180.00 1.63756 0.00
3 1 -5 o 0.212 0.071 0.00 1.61557 0.00
4 0 0 o 128.358 45.379 180.00 1.60757 0.38
4 2 -2 o 83.989 29.622 0.00 1.60615 0.91
4 2 -3 o 1.063 0.372 0.00 1.60246 0.01
2 1 -5 o 31.207 10.956 180.00 1.60419 0.28
4 0 -5 o 101.781 37.141 180.00 1.58930 0.45
2 2 2 o 39.916 21.499 0.00 1.57970 0.20
2 3 -3 o 0.337 0.200 180.00 1.57802 0.00
1 3 -3 o 55.022 47.275 0.00 1.57163 0.61
1 2 3 o 47.670 45.601 180.00 1.56982 0.23
4 1 0 o 160.167 249.543 180.00 1.54839 0.92
3 3 -2 o 62.220 88.494 180.00 1.54374 0.72
4 1 -5 o 6.362 6.903 180.00 1.53205 0.05
4 2 -1 o 263.877 274.738 0.00 1.53032 2.11
1 3 2 o 139.239 137.617 0.00 1.52794 0.99
4 2 -4 o 190.772 170.776 0.00 1.52079 1.80
3 3 -1 o 2.144 1.914 180.00 1.51846 0.02
2 0 3 o 379.596 338.187 0.00 1.51864 0.63
3 2 1 o 5.816 5.252 0.00 1.51682 0.03
2 3 1 o 24.657 31.731 180.00 1.50900 0.18
5 1 -3 o 1.708 3.040 0.00 1.50613 0.02
1 1 -5 o 1.391 3.867 0.00 1.50345 0.01
3 3 -3 o 1.438 15.247 180.00 1.49624 0.02
0 2 4 o 18.480 61.202 180.00 1.49100 0.09
0 3 3 o 78.632 70.664 180.00 1.48007 0.56
5 1 -4 o 134.845 106.957 0.00 1.47682 1.20
5 1 -2 o 18.385 14.091 0.00 1.46754 0.15
2 1 3 o 52.117 39.444 180.00 1.46846 0.17
3 2 -5 o 87.251 62.614 180.00 1.45315 0.78
2 2 -5 o 2.271 1.800 0.00 1.44486 0.02
0 4 0 o 11.357 12.376 0.00 1.43994 0.08
3 1 2 o 25.484 26.233 0.00 1.44072 0.09
2 3 -4 o 27.585 47.645 0.00 1.42122 0.26
1 1 4 o 1.413 1.929 0.00 1.43638 0.00
3 3 0 o 10.956 18.092 180.00 1.43010 0.08
1 4 -1 o 26.658 22.788 0.00 1.41170 0.33
0 4 1 o 21.410 16.023 180.00 1.41017 0.25
1 4 0 o 0.224 0.119 0.00 1.40514 0.00
4 2 0 o 10.732 5.447 180.00 1.40368 0.06
4 0 1 o 1.095 0.544 180.00 1.40215 0.00
3 3 -4 o 0.058 0.050 0.00 1.39360 0.00
0 0 5 o 19.053 15.396 180.00 1.39420 0.03
4 2 -5 o 18.321 21.144 0.00 1.39147 0.14
5 1 -5 o 0.210 0.283 180.00 1.39032 0.00
4 0 -6 o 30.669 60.205 0.00 1.38520 0.11
1 3 -4 o 63.271 111.404 180.00 1.38194 0.44
5 1 -1 o 15.166 16.751 0.00 1.37495 0.08
5 2 -3 o 0.500 0.469 180.00 1.37197 0.00
1 2 -5 o 3.172 2.733 0.00 1.36994 0.02
3 1 -6 o 48.615 40.393 0.00 1.36888 0.35
2 0 -6 o 2.991 2.430 0.00 1.36813 0.01
1 4 -2 o 87.584 64.922 180.00 1.36305 0.95
4 3 -2 o 4.688 3.470 180.00 1.36290 0.04
4 1 1 o 2.713 1.999 0.00 1.36237 0.01
4 3 -3 o 122.636 89.459 180.00 1.36065 1.05
0 1 5 o 2.689 2.002 0.00 1.35506 0.01
2 4 -1 o 36.774 30.237 180.00 1.34955 0.36
5 2 -4 o 17.949 14.707 180.00 1.34971 0.14
2 3 2 o 23.395 20.711 180.00 1.34663 0.11
1 4 1 o 10.214 9.319 180.00 1.34555 0.09
4 1 -6 o 65.507 57.723 0.00 1.34680 0.46
5 2 -2 o 32.967 32.813 180.00 1.34261 0.23
2 2 3 o 48.316 47.033 180.00 1.34331 0.16
1 3 3 o 2.517 2.693 0.00 1.34049 0.01
2 4 -2 o 156.304 198.965 180.00 1.33601 1.60
0 4 2 o 6.760 9.825 180.00 1.33084 0.06
2 1 -6 o 138.329 200.379 0.00 1.33109 0.75
3 2 2 o 0.208 0.219 0.00 1.32198 0.00
1 2 4 o 57.833 50.781 180.00 1.31863 0.18
4 3 -1 o 6.702 5.232 0.00 1.31565 0.04
2 4 0 o 4.593 3.458 0.00 1.31416 0.04
4 3 -4 o 13.187 9.754 180.00 1.30958 0.10
3 3 1 o 0.026 0.020 180.00 1.30704 0.00
6 0 -4 o 258.394 181.771 0.00 1.29827 0.92
6 0 -3 o 52.830 35.018 0.00 1.29003 0.18
0 3 4 o 205.653 135.229 180.00 1.29041 0.93
5 2 -5 o 42.729 39.205 180.00 1.28272 0.28
2 4 -3 o 16.897 19.138 180.00 1.27766 0.15
1 4 -3 o 17.132 20.328 180.00 1.27426 0.14
5 1 -6 o 0.355 0.423 180.00 1.27276 0.00
5 2 -1 o 160.205 191.728 180.00 1.27062 0.81
6 1 -4 o 9.149 11.390 0.00 1.26650 0.06
3 3 -5 o 26.056 32.825 180.00 1.26564 0.19
3 2 -6 o 8.161 10.259 0.00 1.26583 0.05
6 0 -5 o 1.898 2.448 0.00 1.26305 0.01
4 2 1 o 5.855 7.489 180.00 1.26067 0.02
2 0 4 o 40.104 51.673 0.00 1.26169 0.05
3 4 -2 o 22.679 28.423 180.00 1.25926 0.19
2 3 -5 o 6.521 8.286 0.00 1.26015 0.04
6 1 -3 o 17.721 22.037 0.00 1.25884 0.11
5 1 0 o 22.025 25.049 180.00 1.25515 0.08
0 2 5 o 10.232 11.567 0.00 1.25488 0.03
1 4 2 o 0.000 0.000 0.00 1.25064 0.00
4 2 -6 o 5.041 4.923 180.00 1.24831 0.03
3 4 -1 o 39.264 36.602 0.00 1.24543 0.28
1 1 -6 o 30.353 28.778 0.00 1.24660 0.11
6 0 -2 o 10.633 9.662 180.00 1.24067 0.03
2 4 1 o 0.134 0.122 180.00 1.24019 0.00
2 2 -6 o 73.313 69.191 0.00 1.23577 0.37
6 1 -5 o 2.680 2.592 0.00 1.23374 0.02
3 4 -3 o 139.791 136.218 180.00 1.23308 1.12
4 3 0 o 0.034 0.034 0.00 1.23255 0.00
2 1 4 o 3.186 3.128 180.00 1.23246 0.01
3 1 3 o 1.410 1.412 0.00 1.23046 0.00
0 4 3 o 2.704 2.761 0.00 1.22398 0.02
4 3 -5 o 3.262 3.331 180.00 1.22426 0.02
4 0 2 o 25.990 26.538 0.00 1.22035 0.03
6 1 -2 o 0.040 0.044 0.00 1.21286 0.00
5 3 -3 o 144.311 155.537 180.00 1.21092 0.94
1 3 -5 o 80.769 85.172 180.00 1.20952 0.37
4 0 -7 o 434.418 406.725 0.00 1.20598 1.23
1 1 5 o 0.078 0.054 0.00 1.19938 0.00
3 4 0 o 0.980 0.602 180.00 1.19526 0.01
5 3 -4 o 0.163 0.100 0.00 1.19553 0.00
4 1 2 o 48.890 29.818 180.00 1.19385 0.12
6 0 -6 o 2.279 1.390 0.00 1.19391 0.01
5 3 -2 o 5.787 3.724 180.00 1.19059 0.03
2 3 3 o 60.062 38.111 180.00 1.19108 0.18
2 4 -4 o 55.714 36.461 180.00 1.19007 0.39
5 2 -6 o 13.594 9.403 180.00 1.18867 0.07
6 2 -4 o 1.467 1.343 180.00 1.18357 0.01
4 1 -7 o 128.574 137.836 0.00 1.18038 0.71
6 2 -3 o 54.947 63.522 180.00 1.17731 0.31
3 3 2 o 38.446 44.781 0.00 1.17613 0.12
5 2 0 o 19.303 22.360 180.00 1.17428 0.07
3 4 -4 o 27.318 31.503 0.00 1.17371 0.19
1 3 4 o 152.533 175.987 180.00 1.17377 0.46
3 1 -7 o 57.271 66.238 0.00 1.17415 0.28
6 1 -6 o 0.103 0.115 180.00 1.16906 0.00
1 4 -4 o 58.032 65.921 0.00 1.16672 0.33
1 2 -6 o 85.451 96.582 0.00 1.16728 0.29
6 0 -1 o 106.759 125.816 180.00 1.16281 0.20
0 0 6 o 44.696 52.759 180.00 1.16183 0.05
6 2 -5 o 20.204 21.445 0.00 1.15670 0.11
4 4 -2 o 162.487 162.539 180.00 1.15519 1.01
2 2 4 o 129.470 131.898 180.00 1.15565 0.29
4 4 -3 o 112.923 106.878 180.00 1.15382 0.74
3 2 3 o 86.363 82.265 180.00 1.15399 0.20
2 0 -7 o 5.183 4.892 0.00 1.15376 0.01
5 3 -5 o 31.912 26.185 0.00 1.14823 0.18
5 1 -7 o 131.946 108.283 0.00 1.14825 0.65
2 4 2 o 24.289 20.125 0.00 1.14523 0.10
1 4 3 o 1.743 1.564 180.00 1.14145 0.01
6 1 -1 o 38.139 35.745 180.00 1.13981 0.14
5 3 -1 o 34.944 32.999 0.00 1.13952 0.15
6 2 -2 o 81.546 77.178 0.00 1.13943 0.38
1 5 -1 o 18.799 18.717 180.00 1.13734 0.15
0 1 6 o 45.547 43.730 180.00 1.13889 0.11
0 5 1 o 13.283 13.439 0.00 1.13654 0.10
3 3 -6 o 11.124 11.353 180.00 1.13606 0.06
1 5 0 o 7.281 7.640 0.00 1.13390 0.06
4 3 1 o 0.387 0.410 180.00 1.13233 0.00
5 1 1 o 2.220 2.349 0.00 1.13103 0.01
2 1 -7 o 184.285 195.001 0.00 1.13129 0.65
0 3 5 o 52.771 54.172 180.00 1.12813 0.16
1 2 5 o 31.574 32.464 180.00 1.12824 0.07
4 4 -1 o 11.009 10.845 180.00 1.12600 0.06
4 2 2 o 5.687 5.367 0.00 1.12363 0.01
4 3 -6 o 41.476 38.999 180.00 1.12334 0.23
4 4 -4 o 2.476 2.311 180.00 1.12218 0.02
3 4 1 o 50.392 47.367 180.00 1.12058 0.20
2 3 -6 o 9.159 10.151 180.00 1.11418 0.04
1 5 -2 o 139.907 160.884 180.00 1.11143 1.04
4 2 -7 o 5.607 6.404 180.00 1.11238 0.03
0 4 4 o 50.640 57.785 180.00 1.11005 0.20
3 2 -7 o 65.469 69.944 0.00 1.10716 0.30
6 0 -7 o 360.092 370.511 0.00 1.10606 0.77
2 5 -1 o 1.268 1.216 180.00 1.10408 0.01
6 2 -6 o 19.273 17.806 180.00 1.10289 0.09
1 5 1 o 87.688 78.969 180.00 1.10188 0.55
2 5 -2 o 73.408 64.721 180.00 1.09663 0.53
0 5 2 o 63.046 58.662 0.00 1.09376 0.40
3 4 -5 o 91.536 84.350 0.00 1.09417 0.53
7 1 -4 o 12.218 11.516 0.00 1.09322 0.06
2 4 -5 o 175.007 175.971 180.00 1.09061 0.92
7 1 -5 o 5.866 6.140 0.00 1.08785 0.03
6 1 -7 o 4.363 4.593 180.00 1.08621 0.02
2 5 0 o 2.482 2.609 180.00 1.08445 0.01
5 2 -7 o 1.813 1.908 0.00 1.08536 0.01
5 3 -6 o 7.748 8.361 180.00 1.07929 0.04
6 2 -1 o 94.671 102.907 0.00 1.07823 0.33
0 2 6 o 146.200 159.049 0.00 1.07745 0.33
6 3 -4 o 53.044 56.916 180.00 1.07547 0.27
2 0 5 o 4.041 4.358 180.00 1.07586 0.00
4 4 0 o 4.488 4.502 180.00 1.07257 0.02
7 1 -3 o 0.324 0.323 180.00 1.07235 0.00
6 0 0 o 46.632 45.569 180.00 1.07171 0.06
6 3 -3 o 93.131 88.448 180.00 1.07077 0.45
5 2 1 o 6.522 6.198 0.00 1.07079 0.02
2 2 -7 o 6.821 6.529 0.00 1.07101 0.02
5 3 0 o 11.942 10.737 180.00 1.06849 0.04
4 0 3 o 3.087 2.789 0.00 1.06876 0.00
4 4 -5 o 52.502 46.463 180.00 1.06710 0.28
3 1 4 o 8.319 7.375 180.00 1.06578 0.01
2 5 -3 o 41.045 37.603 180.00 1.06366 0.27
1 3 -6 o 19.502 18.062 0.00 1.06320 0.06
1 5 -3 o 3.563 3.433 180.00 1.06170 0.02
1 1 -7 o 0.211 0.199 180.00 1.06254 0.00
5 4 -3 o 49.968 52.020 180.00 1.05822 0.26
7 1 -6 o 9.679 10.161 180.00 1.05736 0.04
1 4 -5 o 14.249 14.968 0.00 1.05729 0.06
2 1 5 o 10.578 11.084 0.00 1.05757 0.02
4 0 -8 o 29.164 30.687 0.00 1.05694 0.06
6 3 -5 o 12.253 12.873 180.00 1.05519 0.06
2 3 4 o 62.287 65.077 180.00 1.05439 0.14
6 1 0 o 4.231 4.389 180.00 1.05363 0.01
3 5 -2 o 52.953 54.582 180.00 1.05298 0.32
3 3 3 o 10.413 10.761 180.00 1.05313 0.02
4 1 3 o 142.097 143.153 180.00 1.05082 0.25
1 5 2 o 99.371 97.885 180.00 1.04792 0.47
5 4 -4 o 0.734 0.723 180.00 1.04791 0.00
