#------------------------------------------------------------------------------
#$Date: 2016-02-21 11:56:54 +0200 (Sun, 21 Feb 2016) $
#$Revision: 176809 $
#$URL: svn://www.crystallography.net/cod/cif/2/30/04/2300464.cif $
#------------------------------------------------------------------------------
#
# This file is available in the Crystallography Open Database (COD),
# http://www.crystallography.net/. The original data for this entry
# were provided by IUCr Journals, http://journals.iucr.org/.
#
# The file may be used within the scientific community so long as
# proper attribution is given to the journal article from which the
# data were obtained.
#
data_2300464
loop_
_publ_author_name
'Tan, Seng Lim'
'Ng, Seik Weng'
_publ_section_title
;
 Does the size of a crystal matter in an X-ray crystal structure analysis
 of a small molecule?
;
_journal_coeditor_code           kk5175
_journal_issue                   4
_journal_name_full               'Journal of Applied Crystallography'
_journal_page_first              1443
_journal_page_last               1444
_journal_paper_doi               10.1107/S1600576714011297
_journal_volume                  47
_journal_year                    2014
_chemical_formula_moiety         'C7 H8 F N3 S'
_chemical_formula_sum            'C7 H8 F N3 S'
_chemical_formula_weight         185.22
_chemical_name_systematic
; 
  3-Amino-1-(4-fluorophenyl)thiourea
;
_space_group_IT_number           14
_symmetry_cell_setting           monoclinic
_symmetry_space_group_name_Hall  '-P 2ybc'
_symmetry_space_group_name_H-M   'P 1 21/c 1'
_atom_sites_solution_hydrogens   geom
_atom_sites_solution_primary     direct
_atom_sites_solution_secondary   difmap
_audit_creation_method           SHELXL-97
_cell_angle_alpha                90.00
_cell_angle_beta                 91.699(5)
_cell_angle_gamma                90.00
_cell_formula_units_Z            4
_cell_length_a                   11.9525(8)
_cell_length_b                   5.5111(3)
_cell_length_c                   12.4566(7)
_cell_measurement_reflns_used    2228
_cell_measurement_temperature    100(2)
_cell_measurement_theta_max      27.5060
_cell_measurement_theta_min      3.4000
_cell_volume                     820.17(8)
_computing_cell_refinement       'CrysAlis PRO (Agilent, 2014)'
_computing_data_collection       'CrysAlis PRO (Agilent, 2014)'
_computing_data_reduction        'CrysAlis PRO (Agilent, 2014)'
_computing_molecular_graphics    'X-Seed (Barbour, 2001)'
_computing_publication_material  'publCIF (Westrip, 2010)'
_computing_structure_refinement  'SHELXL-97 (Sheldrick, 2008)'
_computing_structure_solution    'SHELXS-97 (Sheldrick, 2008)'
_diffrn_ambient_temperature      100(2)
_diffrn_detector_area_resol_mean 10.4041
_diffrn_measured_fraction_theta_full 0.997
_diffrn_measured_fraction_theta_max 0.997
_diffrn_measurement_device_type
'Agilent Technologies SuperNova Dual diffractometer with Atlas detector'
_diffrn_measurement_method       '\w scan'
_diffrn_radiation_monochromator  Mirror
_diffrn_radiation_source         'SuperNova (Mo) X-ray Source'
_diffrn_radiation_type           MoK\a
_diffrn_radiation_wavelength     0.71073
_diffrn_reflns_av_R_equivalents  0.0369
_diffrn_reflns_av_sigmaI/netI    0.0400
_diffrn_reflns_limit_h_max       11
_diffrn_reflns_limit_h_min       -15
_diffrn_reflns_limit_k_max       6
_diffrn_reflns_limit_k_min       -7
_diffrn_reflns_limit_l_max       16
_diffrn_reflns_limit_l_min       -16
_diffrn_reflns_number            5976
_diffrn_reflns_theta_full        27.58
_diffrn_reflns_theta_max         27.58
_diffrn_reflns_theta_min         3.27
_diffrn_standards_decay_%        0
_diffrn_standards_interval_count 0
_diffrn_standards_interval_time  0
_diffrn_standards_number         0
_exptl_absorpt_coefficient_mu    0.355
_exptl_absorpt_correction_T_max  0.945
_exptl_absorpt_correction_T_min  0.874
_exptl_absorpt_correction_type   gaussian
_exptl_absorpt_process_details   'CrysAlis PRO (Agilent, 2014)'
_exptl_crystal_colour            colorless
_exptl_crystal_density_diffrn    1.500
_exptl_crystal_density_method    'not measured'
_exptl_crystal_description       prism
_exptl_crystal_F_000             384
_exptl_crystal_size_max          0.47
_exptl_crystal_size_mid          0.40
_exptl_crystal_size_min          0.17
_refine_diff_density_max         0.283
_refine_diff_density_min         -0.241
_refine_diff_density_rms         0.059
_refine_ls_extinction_method     none
_refine_ls_goodness_of_fit_ref   1.038
_refine_ls_hydrogen_treatment    mixed
_refine_ls_matrix_type           full
_refine_ls_number_parameters     125
_refine_ls_number_reflns         1892
_refine_ls_number_restraints     4
_refine_ls_restrained_S_all      1.037
_refine_ls_R_factor_all          0.0489
_refine_ls_R_factor_gt           0.0360
_refine_ls_shift/su_max          0.001
_refine_ls_shift/su_mean         0.001
_refine_ls_structure_factor_coef Fsqd
_refine_ls_weighting_details
'calc w=1/[\s^2^(Fo^2^)+(0.0383P)^2^+0.3747P] where P=(Fo^2^+2Fc^2^)/3'
_refine_ls_weighting_scheme      calc
_refine_ls_wR_factor_gt          0.0841
_refine_ls_wR_factor_ref         0.0930
_reflns_number_gt                1513
_reflns_number_total             1892
_reflns_threshold_expression     I>2\s(I)
_iucr_refine_instructions_details
;
TITL  P21/c
rem   eqivR 0.18
CELL  0.71073 11.9525 5.5111 12.4566 90.000 91.699 90.000
ZERR  4        0.0008 0.0003  0.0007  0.000  0.005  0.000
LATT  1
SYMM -x, y+1/2,-z+1/2
SFAC  C H N F S
UNIT  28 32 12 4 4
ACTA
TEMP -173
SIZE  0.5 0.4 0.2
L.S.  100
BOND  $H
CONF
FMAP  2
PLAN -1
DFIX  0.88 0.01 N1 H11 N1 H12 N2 H2 N3 H3
WGHT    0.038300    0.374700
FVAR       7.82172
S1    5    0.095282    0.492051    0.353512    11.00000    0.02586    0.02225 =
         0.01742   -0.00597    0.00937   -0.01006
F1    4    0.465459    0.754675    0.019433    11.00000    0.02790    0.02288 =
         0.01799   -0.00129    0.01096   -0.00014
C1    1    0.145912    0.734106    0.423556    11.00000    0.01415    0.01579 =
         0.01412    0.00093    0.00023    0.00259
C2    1    0.288732    0.839475    0.293598    11.00000    0.01237    0.01673 =
         0.01373   -0.00280    0.00184   -0.00419
C3    1    0.279403    1.011582    0.212799    11.00000    0.01520    0.01422 =
         0.01967    0.00031    0.00144    0.00013
AFIX  43
H3A   2    0.231938    1.148083    0.221284    11.00000   -1.20000
AFIX   0
C4    1    0.339139    0.985781    0.119251    11.00000    0.02037    0.01709 =
         0.01567    0.00267    0.00203   -0.00137
AFIX  43
H4    2    0.333790    1.103359    0.063566    11.00000   -1.20000
AFIX   0
C5    1    0.406472    0.783516    0.110056    11.00000    0.01514    0.02052 =
         0.01228   -0.00356    0.00334   -0.00403
C6    1    0.417259    0.608823    0.188998    11.00000    0.01347    0.01446 =
         0.01872   -0.00276   -0.00020    0.00089
AFIX  43
H6    2    0.464138    0.471643    0.179783    11.00000   -1.20000
AFIX   0
C7    1    0.357862    0.638434    0.282348    11.00000    0.01638    0.01514 =
         0.01628    0.00055   -0.00044   -0.00170
AFIX  43
H7    2    0.364435    0.521760    0.338321    11.00000   -1.20000
AFIX   0
N1    3    0.144501    0.998474    0.575552    11.00000    0.01881    0.01793 =
         0.01317   -0.00410   -0.00058    0.00161
N2    3    0.099796    0.799907    0.515684    11.00000    0.01703    0.01847 =
         0.01395   -0.00147    0.00306   -0.00354
N3    3    0.230163    0.874385    0.390250    11.00000    0.01809    0.01502 =
         0.01620   -0.00349    0.00471   -0.00386
H11   2    0.091010    1.107741    0.581811    11.00000    0.02320
H12   2    0.163250    0.946987    0.640980    11.00000    0.02896
H2    2    0.049542    0.709406    0.546563    11.00000    0.03410
H3    2    0.242126    1.006078    0.427797    11.00000    0.03063
 
HKLF 4
 
REM   P21/c
REM R1 =  0.0360 for   1513 Fo > 4sig(Fo)  and  0.0489 for all   1892 data
REM    125 parameters refined using      4 restraints
 
END  
     
WGHT      0.0310      0.3639 
REM Highest difference peak  0.283,  deepest hole -0.241,  1-sigma level  0.059
Q1    1   0.3036  0.9454  0.2598  11.00000  0.05    0.28
;
_cod_data_source_file            kk5175sup1.cif
_cod_data_source_block           S2
_cod_depositor_comments
;
The following automatic conversions were performed:

'_exptl_absorpt_correction_type' value 'Gaussian' changed to
'gaussian' according to
/usr/data/users/saulius/crontab/automatic-downloads/rss-feeds/IUCr/lib/dictionaries/cif_core.dic
dictionary named 'cif_core.dic' version 2.4.2 from 2011-04-26.

Automatic conversion script
Id: cif_fix_values 2281 2013-09-26 08:29:07Z andrius 

 Adding full bibliography for 2300463--2300482.cif.
;
_cod_original_sg_symbol_H-M      'P 21/c'
_cod_database_code               2300464
_cod_database_fobs_code          2300464
loop_
_symmetry_equiv_pos_as_xyz
'x, y, z'
'-x, y+1/2, -z+1/2'
'-x, -y, -z'
'x, -y-1/2, z-1/2'
loop_
_atom_site_label
_atom_site_type_symbol
_atom_site_fract_x
_atom_site_fract_y
_atom_site_fract_z
_atom_site_U_iso_or_equiv
_atom_site_adp_type
_atom_site_occupancy
_atom_site_symmetry_multiplicity
_atom_site_calc_flag
_atom_site_refinement_flags
S1 S 0.09528(4) 0.49205(8) 0.35351(4) 0.02167(15) Uani 1 1 d .
F1 F 0.46546(9) 0.75468(18) 0.01943(8) 0.0227(3) Uani 1 1 d .
C1 C 0.14591(14) 0.7341(3) 0.42356(13) 0.0147(4) Uani 1 1 d .
C2 C 0.28873(14) 0.8395(3) 0.29360(13) 0.0142(4) Uani 1 1 d .
C3 C 0.27940(15) 1.0116(3) 0.21280(14) 0.0163(4) Uani 1 1 d .
H3A H 0.2319 1.1481 0.2213 0.020 Uiso 1 1 calc R
C4 C 0.33914(15) 0.9858(3) 0.11925(14) 0.0177(4) Uani 1 1 d .
H4 H 0.3338 1.1034 0.0636 0.021 Uiso 1 1 calc R
C5 C 0.40647(14) 0.7835(3) 0.11006(14) 0.0159(4) Uani 1 1 d .
C6 C 0.41726(14) 0.6088(3) 0.18900(14) 0.0156(4) Uani 1 1 d .
H6 H 0.4641 0.4716 0.1798 0.019 Uiso 1 1 calc R
C7 C 0.35786(14) 0.6384(3) 0.28235(14) 0.0160(4) Uani 1 1 d .
H7 H 0.3644 0.5218 0.3383 0.019 Uiso 1 1 calc R
N1 N 0.14450(13) 0.9985(3) 0.57555(12) 0.0167(3) Uani 1 1 d D
N2 N 0.09980(12) 0.7999(3) 0.51568(11) 0.0164(3) Uani 1 1 d D
N3 N 0.23016(12) 0.8744(3) 0.39025(12) 0.0164(3) Uani 1 1 d D
H11 H 0.0910(13) 1.108(3) 0.5818(16) 0.023(5) Uiso 1 1 d D
H12 H 0.1632(18) 0.947(4) 0.6410(10) 0.029(6) Uiso 1 1 d D
H2 H 0.0495(15) 0.709(3) 0.5466(17) 0.034(6) Uiso 1 1 d D
H3 H 0.2421(19) 1.006(3) 0.4278(15) 0.031(6) Uiso 1 1 d D
loop_
_atom_site_aniso_label
_atom_site_aniso_U_11
_atom_site_aniso_U_22
_atom_site_aniso_U_33
_atom_site_aniso_U_23
_atom_site_aniso_U_13
_atom_site_aniso_U_12
S1 0.0259(3) 0.0222(3) 0.0174(2) -0.00597(19) 0.00937(18) -0.01006(19)
F1 0.0279(6) 0.0229(6) 0.0180(5) -0.0013(5) 0.0110(4) -0.0001(5)
C1 0.0141(8) 0.0158(8) 0.0141(8) 0.0009(7) 0.0002(6) 0.0026(7)
C2 0.0124(8) 0.0167(8) 0.0137(8) -0.0028(7) 0.0018(6) -0.0042(7)
C3 0.0152(9) 0.0142(8) 0.0197(9) 0.0003(7) 0.0014(7) 0.0001(7)
C4 0.0204(9) 0.0171(9) 0.0157(9) 0.0027(7) 0.0020(7) -0.0014(7)
C5 0.0151(9) 0.0205(9) 0.0123(8) -0.0036(7) 0.0033(6) -0.0040(7)
C6 0.0135(8) 0.0145(8) 0.0187(8) -0.0028(7) -0.0002(7) 0.0009(7)
C7 0.0164(9) 0.0151(8) 0.0163(8) 0.0005(7) -0.0004(7) -0.0017(7)
N1 0.0188(8) 0.0179(8) 0.0132(8) -0.0041(7) -0.0006(6) 0.0016(6)
N2 0.0170(8) 0.0185(8) 0.0139(7) -0.0015(6) 0.0031(6) -0.0035(6)
N3 0.0181(8) 0.0150(7) 0.0162(7) -0.0035(6) 0.0047(6) -0.0039(6)
loop_
_atom_type_symbol
_atom_type_description
_atom_type_scat_dispersion_real
_atom_type_scat_dispersion_imag
_atom_type_scat_source
C C 0.0033 0.0016 'International Tables Vol C Tables 4.2.6.8 and 6.1.1.4'
H H 0.0000 0.0000 'International Tables Vol C Tables 4.2.6.8 and 6.1.1.4'
N N 0.0061 0.0033 'International Tables Vol C Tables 4.2.6.8 and 6.1.1.4'
F F 0.0171 0.0103 'International Tables Vol C Tables 4.2.6.8 and 6.1.1.4'
S S 0.1246 0.1234 'International Tables Vol C Tables 4.2.6.8 and 6.1.1.4'
loop_
_exptl_crystal_face_index_h
_exptl_crystal_face_index_k
_exptl_crystal_face_index_l
_exptl_crystal_face_perp_dist
_exptl_oxdiff_crystal_face_indexfrac_h
_exptl_oxdiff_crystal_face_indexfrac_k
_exptl_oxdiff_crystal_face_indexfrac_l
_exptl_oxdiff_crystal_face_x
_exptl_oxdiff_crystal_face_y
_exptl_oxdiff_crystal_face_z
1 8 4 0.1508 0.8032 7.5488 3.9747 0.9912 -0.1305 0.0199
13 0 -12 0.2208 12.5693 0.1871 -12.0909 -0.1118 0.0157 0.9936
13 0 -12 0.2169 12.6325 0.4606 -11.9800 -0.0762 0.0110 0.9970
-13 0 12 0.1857 -12.6285 -0.4409 11.9886 0.0788 -0.0113 -0.9968
1 -8 -3 0.1934 0.7113 -7.6445 -2.9811 -0.9723 0.2335 0.0080
17 1 1 0.2272 16.7120 0.7543 1.0801 0.2388 0.6723 0.7007
-17 -1 -2 0.1751 -16.6570 -0.7296 -1.6574 -0.2464 -0.6938 -0.6767
1 0 17 0.0774 0.9367 0.0303 17.4989 0.3438 0.7220 -0.6004
-1 0 -18 0.0938 -0.9121 -0.0284 -17.5011 -0.3434 -0.7212 0.6016
loop_
_geom_angle_atom_site_label_1
_geom_angle_atom_site_label_2
_geom_angle_atom_site_label_3
_geom_angle
N2 C1 N3 116.11(15)
N2 C1 S1 120.32(13)
N3 C1 S1 123.54(13)
C3 C2 C7 120.48(15)
C3 C2 N3 119.41(15)
C7 C2 N3 120.07(15)
C2 C3 C4 120.41(16)
C2 C3 H3A 119.8
C4 C3 H3A 119.8
C5 C4 C3 117.80(16)
C5 C4 H4 121.1
C3 C4 H4 121.1
F1 C5 C6 118.10(15)
F1 C5 C4 118.78(15)
C6 C5 C4 123.12(16)
C5 C6 C7 118.37(16)
C5 C6 H6 120.8
C7 C6 H6 120.8
C6 C7 C2 119.82(16)
C6 C7 H7 120.1
C2 C7 H7 120.1
N2 N1 H11 108.0(14)
N2 N1 H12 108.5(14)
H11 N1 H12 107.5(19)
C1 N2 N1 120.09(14)
C1 N2 H2 121.8(14)
N1 N2 H2 117.3(14)
C1 N3 C2 125.08(15)
C1 N3 H3 115.1(15)
C2 N3 H3 119.3(15)
loop_
_geom_bond_atom_site_label_1
_geom_bond_atom_site_label_2
_geom_bond_distance
S1 C1 1.6958(18)
F1 C5 1.3579(18)
C1 N2 1.338(2)
C1 N3 1.345(2)
C2 C3 1.385(2)
C2 C7 1.392(2)
C2 N3 1.424(2)
C3 C4 1.392(2)
C3 H3A 0.9500
C4 C5 1.382(2)
C4 H4 0.9500
C5 C6 1.379(2)
C6 C7 1.390(2)
C6 H6 0.9500
C7 H7 0.9500
N1 N2 1.420(2)
N1 H11 0.883(9)
N1 H12 0.886(9)
N2 H2 0.878(9)
N3 H3 0.873(9)
loop_
_geom_torsion_atom_site_label_1
_geom_torsion_atom_site_label_2
_geom_torsion_atom_site_label_3
_geom_torsion_atom_site_label_4
_geom_torsion
C7 C2 C3 C4 0.0(3)
N3 C2 C3 C4 177.62(15)
C2 C3 C4 C5 0.5(3)
C3 C4 C5 F1 179.97(15)
C3 C4 C5 C6 -0.3(3)
F1 C5 C6 C7 179.44(15)
C4 C5 C6 C7 -0.3(3)
C5 C6 C7 C2 0.7(2)
C3 C2 C7 C6 -0.6(3)
N3 C2 C7 C6 -178.21(15)
N3 C1 N2 N1 -3.8(2)
S1 C1 N2 N1 178.22(12)
N2 C1 N3 C2 -178.54(16)
S1 C1 N3 C2 -0.6(2)
C3 C2 N3 C1 114.07(19)
C7 C2 N3 C1 -68.3(2)
