#------------------------------------------------------------------------------
#$Date: 2016-02-21 11:56:54 +0200 (Sun, 21 Feb 2016) $
#$Revision: 176809 $
#$URL: svn://www.crystallography.net/cod/cif/2/30/04/2300463.cif $
#------------------------------------------------------------------------------
#
# This file is available in the Crystallography Open Database (COD),
# http://www.crystallography.net/. The original data for this entry
# were provided by IUCr Journals, http://journals.iucr.org/.
#
# The file may be used within the scientific community so long as
# proper attribution is given to the journal article from which the
# data were obtained.
#
data_2300463
loop_
_publ_author_name
'Tan, Seng Lim'
'Ng, Seik Weng'
_publ_section_title
;
 Does the size of a crystal matter in an X-ray crystal structure analysis
 of a small molecule?
;
_journal_coeditor_code           kk5175
_journal_issue                   4
_journal_name_full               'Journal of Applied Crystallography'
_journal_page_first              1443
_journal_page_last               1444
_journal_paper_doi               10.1107/S1600576714011297
_journal_volume                  47
_journal_year                    2014
_chemical_formula_moiety         'C7 H8 F N3 S'
_chemical_formula_sum            'C7 H8 F N3 S'
_chemical_formula_weight         185.22
_chemical_name_systematic
; 
 3-Amino-1-(4-fluorophenyl)thiourea
;
_space_group_IT_number           14
_symmetry_cell_setting           monoclinic
_symmetry_space_group_name_Hall  '-P 2ybc'
_symmetry_space_group_name_H-M   'P 1 21/c 1'
_atom_sites_solution_hydrogens   geom
_atom_sites_solution_primary     direct
_atom_sites_solution_secondary   difmap
_audit_creation_method           SHELXL-97
_cell_angle_alpha                90.00
_cell_angle_beta                 91.712(6)
_cell_angle_gamma                90.00
_cell_formula_units_Z            4
_cell_length_a                   11.9470(8)
_cell_length_b                   5.5093(3)
_cell_length_c                   12.4564(7)
_cell_measurement_reflns_used    2257
_cell_measurement_temperature    100(2)
_cell_measurement_theta_max      27.4770
_cell_measurement_theta_min      4.0440
_cell_volume                     819.51(8)
_computing_cell_refinement       'CrysAlis PRO (Agilent, 2014)'
_computing_data_collection       'CrysAlis PRO (Agilent, 2014)'
_computing_data_reduction        'CrysAlis PRO (Agilent, 2014)'
_computing_molecular_graphics    'X-Seed (Barbour, 2001)'
_computing_publication_material  'publCIF (Westrip, 2010)'
_computing_structure_refinement  'SHELXL-97 (Sheldrick, 2008)'
_computing_structure_solution    'SHELXS-97 (Sheldrick, 2008)'
_diffrn_ambient_temperature      100(2)
_diffrn_detector_area_resol_mean 10.4041
_diffrn_measured_fraction_theta_full 0.999
_diffrn_measured_fraction_theta_max 0.999
_diffrn_measurement_device_type
'Agilent Technologies SuperNova Dual diffractometer with Atlas detector'
_diffrn_measurement_method       '\w scan'
_diffrn_radiation_monochromator  Mirror
_diffrn_radiation_source         'SuperNova (Mo) X-ray Source'
_diffrn_radiation_type           MoK\a
_diffrn_radiation_wavelength     0.71073
_diffrn_reflns_av_R_equivalents  0.0346
_diffrn_reflns_av_sigmaI/netI    0.0397
_diffrn_reflns_limit_h_max       15
_diffrn_reflns_limit_h_min       -14
_diffrn_reflns_limit_k_max       7
_diffrn_reflns_limit_k_min       -5
_diffrn_reflns_limit_l_max       16
_diffrn_reflns_limit_l_min       -16
_diffrn_reflns_number            6015
_diffrn_reflns_theta_full        27.58
_diffrn_reflns_theta_max         27.58
_diffrn_reflns_theta_min         3.27
_diffrn_standards_decay_%        0
_diffrn_standards_interval_count 0
_diffrn_standards_interval_time  0
_diffrn_standards_number         0
_exptl_absorpt_coefficient_mu    0.355
_exptl_absorpt_correction_T_max  0.942
_exptl_absorpt_correction_T_min  0.846
_exptl_absorpt_correction_type   gaussian
_exptl_absorpt_process_details   'CrysAlis PRO (Agilent, 2014)'
_exptl_crystal_colour            colorless
_exptl_crystal_density_diffrn    1.501
_exptl_crystal_density_method    'not measured'
_exptl_crystal_description       prism
_exptl_crystal_F_000             384
_exptl_crystal_size_max          0.71
_exptl_crystal_size_mid          0.36
_exptl_crystal_size_min          0.18
_refine_diff_density_max         0.287
_refine_diff_density_min         -0.255
_refine_diff_density_rms         0.059
_refine_ls_extinction_method     none
_refine_ls_goodness_of_fit_ref   1.047
_refine_ls_hydrogen_treatment    mixed
_refine_ls_matrix_type           full
_refine_ls_number_parameters     125
_refine_ls_number_reflns         1892
_refine_ls_number_restraints     4
_refine_ls_restrained_S_all      1.046
_refine_ls_R_factor_all          0.0476
_refine_ls_R_factor_gt           0.0353
_refine_ls_shift/su_max          0.001
_refine_ls_shift/su_mean         0.001
_refine_ls_structure_factor_coef Fsqd
_refine_ls_weighting_details
'calc w=1/[\s^2^(Fo^2^)+(0.0336P)^2^+0.4252P] where P=(Fo^2^+2Fc^2^)/3'
_refine_ls_weighting_scheme      calc
_refine_ls_wR_factor_gt          0.0803
_refine_ls_wR_factor_ref         0.0901
_reflns_number_gt                1536
_reflns_number_total             1892
_reflns_threshold_expression     I>2\s(I)
_iucr_refine_instructions_details
;
TITL  P21/c
rem   eqivR 0.21
CELL  0.71073 11.9470 5.5093 12.4564 90.000 91.712 90.000
ZERR  4        0.0008 0.0003  0.0007  0.0000 0.006  0.000
LATT  1
SYMM -x, y+1/2,-z+1/2
SFAC  C H N F S
UNIT  28 32 12 4 4
ACTA
TEMP -173
SIZE  0.7 0.4 0.2
L.S.  100
BOND  $H
CONF
FMAP  2
PLAN -1
DFIX  0.88 0.01 N1 H11 N1 H12 N2 H2 N3 H3
WGHT    0.033600    0.425200
FVAR       8.16488
S1    5    0.095280    0.491920    0.353529    11.00000    0.02544    0.02213 =
         0.01755   -0.00590    0.01017   -0.00999
F1    4    0.465474    0.754621    0.019460    11.00000    0.02718    0.02352 =
         0.01651   -0.00160    0.01148   -0.00020
C1    1    0.145988    0.734201    0.423600    11.00000    0.01393    0.01595 =
         0.01339    0.00138    0.00188    0.00156
C2    1    0.288576    0.839656    0.293903    11.00000    0.01209    0.01552 =
         0.01474   -0.00200    0.00250   -0.00360
C3    1    0.279383    1.012155    0.212795    11.00000    0.01613    0.01375 =
         0.01993   -0.00104    0.00227   -0.00032
AFIX  43
H3A   2    0.232133    1.149134    0.221148    11.00000   -1.20000
AFIX   0
C4    1    0.339119    0.985065    0.119366    11.00000    0.02016    0.01536 =
         0.01658    0.00322    0.00298   -0.00193
AFIX  43
H4    2    0.333722    1.102401    0.063565    11.00000   -1.20000
AFIX   0
C5    1    0.406256    0.783580    0.110004    11.00000    0.01692    0.01861 =
         0.01263   -0.00361    0.00531   -0.00440
C6    1    0.417381    0.608773    0.189141    11.00000    0.01404    0.01467 =
         0.01897   -0.00172    0.00149    0.00110
AFIX  43
H6    2    0.464499    0.471832    0.180114    11.00000   -1.20000
AFIX   0
C7    1    0.357723    0.638815    0.282335    11.00000    0.01558    0.01614 =
         0.01493    0.00233    0.00104   -0.00290
AFIX  43
H7    2    0.364194    0.521920    0.338243    11.00000   -1.20000
AFIX   0
N1    3    0.144502    0.998196    0.575595    11.00000    0.01884    0.01789 =
         0.01435   -0.00362   -0.00015    0.00138
N2    3    0.099653    0.800180    0.515675    11.00000    0.01683    0.01816 =
         0.01427   -0.00189    0.00478   -0.00405
N3    3    0.230079    0.874632    0.390369    11.00000    0.01712    0.01541 =
         0.01564   -0.00380    0.00606   -0.00373
H11   2    0.091146    1.108316    0.579159    11.00000    0.01811
H12   2    0.164120    0.946043    0.640524    11.00000    0.03090
H2    2    0.048940    0.709411    0.545186    11.00000    0.02197
H3    2    0.243964    1.007720    0.426673    11.00000    0.03048
 
HKLF 4
 
REM   P21/c
REM R1 =  0.0353 for   1536 Fo > 4sig(Fo)  and  0.0476 for all   1892 data
REM    125 parameters refined using      4 restraints
 
END  
     
WGHT      0.0267      0.4219 
REM Highest difference peak  0.287,  deepest hole -0.255,  1-sigma level  0.059
Q1    1   0.3399  0.7849  0.2919  11.00000  0.05    0.29
;
_cod_data_source_file            kk5175sup1.cif
_cod_data_source_block           S1
_cod_depositor_comments
;
The following automatic conversions were performed:

'_exptl_absorpt_correction_type' value 'Gaussian' changed to
'gaussian' according to
/usr/data/users/saulius/crontab/automatic-downloads/rss-feeds/IUCr/lib/dictionaries/cif_core.dic
dictionary named 'cif_core.dic' version 2.4.2 from 2011-04-26.

Automatic conversion script
Id: cif_fix_values 2281 2013-09-26 08:29:07Z andrius 

 Adding full bibliography for 2300463--2300482.cif.
;
_cod_original_sg_symbol_H-M      'P 21/c'
_cod_database_code               2300463
_cod_database_fobs_code          2300463
loop_
_symmetry_equiv_pos_as_xyz
'x, y, z'
'-x, y+1/2, -z+1/2'
'-x, -y, -z'
'x, -y-1/2, z-1/2'
loop_
_atom_site_label
_atom_site_type_symbol
_atom_site_fract_x
_atom_site_fract_y
_atom_site_fract_z
_atom_site_U_iso_or_equiv
_atom_site_adp_type
_atom_site_occupancy
_atom_site_symmetry_multiplicity
_atom_site_calc_flag
_atom_site_refinement_flags
S1 S 0.09528(4) 0.49192(8) 0.35353(3) 0.02152(15) Uani 1 1 d .
F1 F 0.46547(9) 0.75462(18) 0.01946(8) 0.0222(3) Uani 1 1 d .
C1 C 0.14599(14) 0.7342(3) 0.42360(13) 0.0144(3) Uani 1 1 d .
C2 C 0.28858(14) 0.8397(3) 0.29390(13) 0.0141(3) Uani 1 1 d .
C3 C 0.27938(15) 1.0122(3) 0.21279(14) 0.0166(4) Uani 1 1 d .
H3A H 0.2321 1.1491 0.2211 0.020 Uiso 1 1 calc R
C4 C 0.33912(15) 0.9851(3) 0.11937(14) 0.0173(4) Uani 1 1 d .
H4 H 0.3337 1.1024 0.0636 0.021 Uiso 1 1 calc R
C5 C 0.40626(15) 0.7836(3) 0.11000(13) 0.0160(4) Uani 1 1 d .
C6 C 0.41738(14) 0.6088(3) 0.18914(13) 0.0159(4) Uani 1 1 d .
H6 H 0.4645 0.4718 0.1801 0.019 Uiso 1 1 calc R
C7 C 0.35772(14) 0.6388(3) 0.28234(13) 0.0155(4) Uani 1 1 d .
H7 H 0.3642 0.5219 0.3382 0.019 Uiso 1 1 calc R
N1 N 0.14450(13) 0.9982(3) 0.57559(12) 0.0170(3) Uani 1 1 d D
N2 N 0.09965(12) 0.8002(3) 0.51568(11) 0.0163(3) Uani 1 1 d D
N3 N 0.23008(12) 0.8746(3) 0.39037(11) 0.0159(3) Uani 1 1 d D
H11 H 0.0911(13) 1.108(3) 0.5792(15) 0.018(5) Uiso 1 1 d D
H12 H 0.1641(18) 0.946(4) 0.6405(10) 0.031(6) Uiso 1 1 d D
H2 H 0.0489(13) 0.709(3) 0.5452(15) 0.022(5) Uiso 1 1 d D
H3 H 0.2440(19) 1.008(3) 0.4267(15) 0.030(6) Uiso 1 1 d D
loop_
_atom_site_aniso_label
_atom_site_aniso_U_11
_atom_site_aniso_U_22
_atom_site_aniso_U_33
_atom_site_aniso_U_23
_atom_site_aniso_U_13
_atom_site_aniso_U_12
S1 0.0254(3) 0.0221(3) 0.0176(2) -0.00590(18) 0.01017(18) -0.00999(18)
F1 0.0272(6) 0.0235(6) 0.0165(5) -0.0016(4) 0.0115(4) -0.0002(4)
C1 0.0139(9) 0.0160(8) 0.0134(8) 0.0014(6) 0.0019(6) 0.0016(6)
C2 0.0121(8) 0.0155(8) 0.0147(8) -0.0020(6) 0.0025(6) -0.0036(6)
C3 0.0161(9) 0.0137(8) 0.0199(8) -0.0010(7) 0.0023(7) -0.0003(6)
C4 0.0202(9) 0.0154(8) 0.0166(8) 0.0032(7) 0.0030(7) -0.0019(7)
C5 0.0169(9) 0.0186(9) 0.0126(8) -0.0036(7) 0.0053(6) -0.0044(7)
C6 0.0140(9) 0.0147(8) 0.0190(8) -0.0017(7) 0.0015(7) 0.0011(6)
C7 0.0156(9) 0.0161(8) 0.0149(8) 0.0023(7) 0.0010(7) -0.0029(6)
N1 0.0188(8) 0.0179(8) 0.0143(7) -0.0036(6) -0.0001(6) 0.0014(6)
N2 0.0168(8) 0.0182(8) 0.0143(7) -0.0019(6) 0.0048(6) -0.0041(6)
N3 0.0171(8) 0.0154(7) 0.0156(7) -0.0038(6) 0.0061(6) -0.0037(6)
loop_
_atom_type_symbol
_atom_type_description
_atom_type_scat_dispersion_real
_atom_type_scat_dispersion_imag
_atom_type_scat_source
C C 0.0033 0.0016 'International Tables Vol C Tables 4.2.6.8 and 6.1.1.4'
H H 0.0000 0.0000 'International Tables Vol C Tables 4.2.6.8 and 6.1.1.4'
N N 0.0061 0.0033 'International Tables Vol C Tables 4.2.6.8 and 6.1.1.4'
F F 0.0171 0.0103 'International Tables Vol C Tables 4.2.6.8 and 6.1.1.4'
S S 0.1246 0.1234 'International Tables Vol C Tables 4.2.6.8 and 6.1.1.4'
loop_
_exptl_crystal_face_index_h
_exptl_crystal_face_index_k
_exptl_crystal_face_index_l
_exptl_crystal_face_perp_dist
_exptl_oxdiff_crystal_face_indexfrac_h
_exptl_oxdiff_crystal_face_indexfrac_k
_exptl_oxdiff_crystal_face_indexfrac_l
_exptl_oxdiff_crystal_face_x
_exptl_oxdiff_crystal_face_y
_exptl_oxdiff_crystal_face_z
-17 1 2 0.1964 -17.0438 0.9964 2.0108 -0.0977 0.9794 0.2790
-1 7 -5 0.3328 -0.9917 7.0297 -5.0345 -0.9007 0.1427 -0.2743
17 -1 -2 0.1653 17.0438 -0.9964 -2.0108 0.0977 -0.9794 -0.2790
-8 -7 3 0.3380 -8.0316 -7.0313 3.0315 0.7993 0.3001 0.5862
0 0 17 0.0661 -0.0038 -0.0129 17.0563 0.5810 0.3415 -0.7002
-4 8 0 0.3416 -3.9993 8.0287 -0.0194 -0.8446 0.4311 -0.4759
-1 -8 1 0.3230 -1.0141 -8.0312 1.0247 0.8604 -0.1428 0.5623
10 6 1 0.3602 10.0345 6.0252 0.9836 -0.5516 -0.3541 -0.7297
-1 -6 -12 0.2846 -1.0084 -6.0138 -12.0236 0.2086 -0.3498 0.9532
0 5 14 0.2533 0.0039 5.0082 14.0332 -0.0402 0.4166 -0.9378
-1 0 -17 0.1032 -0.9988 0.0125 -17.0559 -0.5846 -0.2878 0.7257
loop_
_geom_angle_atom_site_label_1
_geom_angle_atom_site_label_2
_geom_angle_atom_site_label_3
_geom_angle
N2 C1 N3 116.10(15)
N2 C1 S1 120.26(13)
N3 C1 S1 123.60(13)
C7 C2 C3 120.21(16)
C7 C2 N3 120.27(15)
C3 C2 N3 119.48(15)
C2 C3 C4 120.24(16)
C2 C3 H3A 119.9
C4 C3 H3A 119.9
C5 C4 C3 118.17(16)
C5 C4 H4 120.9
C3 C4 H4 120.9
F1 C5 C4 118.96(15)
F1 C5 C6 117.97(15)
C4 C5 C6 123.06(16)
C5 C6 C7 118.16(16)
C5 C6 H6 120.9
C7 C6 H6 120.9
C2 C7 C6 120.14(15)
C2 C7 H7 119.9
C6 C7 H7 119.9
N2 N1 H11 107.1(13)
N2 N1 H12 108.5(14)
H11 N1 H12 110.5(18)
C1 N2 N1 120.03(14)
C1 N2 H2 120.9(13)
N1 N2 H2 118.3(13)
C1 N3 C2 125.01(14)
C1 N3 H3 117.1(15)
C2 N3 H3 117.4(15)
loop_
_geom_bond_atom_site_label_1
_geom_bond_atom_site_label_2
_geom_bond_distance
S1 C1 1.6967(17)
F1 C5 1.3586(19)
C1 N2 1.339(2)
C1 N3 1.343(2)
C2 C7 1.391(2)
C2 C3 1.389(2)
C2 N3 1.421(2)
C3 C4 1.391(2)
C3 H3A 0.9500
C4 C5 1.376(2)
C4 H4 0.9500
C5 C6 1.382(2)
C6 C7 1.390(2)
C6 H6 0.9500
C7 H7 0.9500
N1 N2 1.4179(19)
N1 H11 0.882(9)
N1 H12 0.883(9)
N2 H2 0.875(9)
N3 H3 0.875(9)
loop_
_geom_torsion_atom_site_label_1
_geom_torsion_atom_site_label_2
_geom_torsion_atom_site_label_3
_geom_torsion_atom_site_label_4
_geom_torsion
C7 C2 C3 C4 0.1(2)
N3 C2 C3 C4 177.77(15)
C2 C3 C4 C5 0.3(3)
C3 C4 C5 F1 -179.79(15)
C3 C4 C5 C6 -0.4(3)
F1 C5 C6 C7 179.43(14)
C4 C5 C6 C7 0.0(3)
C3 C2 C7 C6 -0.5(2)
N3 C2 C7 C6 -178.12(15)
C5 C6 C7 C2 0.4(2)
N3 C1 N2 N1 -4.1(2)
S1 C1 N2 N1 178.07(12)
N2 C1 N3 C2 -178.47(15)
S1 C1 N3 C2 -0.7(2)
C7 C2 N3 C1 -68.1(2)
C3 C2 N3 C1 114.20(18)
