#------------------------------------------------------------------------------
#$Date: 2015-11-29 04:44:17 +0200 (Sun, 29 Nov 2015) $
#$Revision: 170611 $
#$URL: svn://www.crystallography.net/cod/cif/2/30/05/2300562.cif $
#------------------------------------------------------------------------------
#
# This file is available in the Crystallography Open Database (COD),
# http://www.crystallography.net/. The original data for this entry
# were provided by IUCr Journals, http://journals.iucr.org/.
#
# The file may be used within the scientific community so long as
# proper attribution is given to the journal article from which the
# data were obtained.
#
data_2300562
loop_
_publ_author_name
'Krause, Lennard'
'Herbst-Irmer, Regine'
'Stalke, Dietmar'
_publ_section_title
;
 An empirical correction for the influence of low-energy contamination
;
_journal_coeditor_code           KS5494
_journal_issue                   6
_journal_name_full               'Journal of Applied Crystallography'
_journal_page_first              1907
_journal_page_last               1913
_journal_paper_doi               10.1107/S1600576715020440
_journal_volume                  48
_journal_year                    2015
_chemical_formula_moiety         'C12 H4 N4'
_chemical_formula_sum            'C12 H4 N4'
_chemical_formula_weight         204.19
_space_group_crystal_system      monoclinic
_space_group_IT_number           15
_space_group_name_Hall           '-C 2yc'
_space_group_name_H-M_alt        'C 1 2/c 1'
_symmetry_space_group_name_Hall  '-C 2yc'
_symmetry_space_group_name_H-M   'C 1 2/c 1'
_atom_sites_solution_hydrogens   geom
_audit_creation_method           SHELXL-2014/7
_cell_angle_alpha                90
_cell_angle_beta                 98.290(3)
_cell_angle_gamma                90
_cell_formula_units_Z            4
_cell_length_a                   8.896(2)
_cell_length_b                   6.9130(19)
_cell_length_c                   16.439(5)
_cell_measurement_reflns_used    6323
_cell_measurement_temperature    100(2)
_cell_measurement_theta_max      30.6735
_cell_measurement_theta_min      2.504
_cell_volume                     1000.4(5)
_computing_cell_refinement       'SAINT V8.30C'
_computing_data_collection       'APEX2 v2012.2'
_computing_data_reduction        'SAINT V8.30C'
_computing_molecular_graphics    'Mercury CSD 3.3 (Build RC5)'
_computing_publication_material  'Mercury CSD 3.3 (Build RC5)'
_computing_structure_refinement  'SHELXL-2014/7 (Sheldrick, 2014)'
_computing_structure_solution
'SHELXT (G.M.Sheldrick,Acta Cryst.(2015)A71,3-8)'
_diffrn_ambient_temperature      100(2)
_diffrn_measured_fraction_theta_full 0.999
_diffrn_measured_fraction_theta_max 0.999
_diffrn_measurement_device_type  'Bruker Smart APEX II Quazar'
_diffrn_measurement_method       'omega scans'
_diffrn_radiation_type           MoK\a
_diffrn_radiation_wavelength     0.71073
_diffrn_reflns_av_unetI/netI     0.0085
_diffrn_reflns_laue_measured_fraction_full 0.999
_diffrn_reflns_laue_measured_fraction_max 0.999
_diffrn_reflns_limit_h_max       12
_diffrn_reflns_limit_h_min       -12
_diffrn_reflns_limit_k_max       9
_diffrn_reflns_limit_k_min       0
_diffrn_reflns_limit_l_max       23
_diffrn_reflns_limit_l_min       0
_diffrn_reflns_number            1543
_diffrn_reflns_point_group_measured_fraction_full 0.999
_diffrn_reflns_point_group_measured_fraction_max 0.999
_diffrn_reflns_theta_full        25.242
_diffrn_reflns_theta_max         30.680
_diffrn_reflns_theta_min         2.504
_diffrn_source                   'INCOATEC Microsource'
_exptl_absorpt_coefficient_mu    0.088
_exptl_absorpt_correction_T_max  0.7461
_exptl_absorpt_correction_T_min  0.7182
_exptl_absorpt_correction_type   multi-scan
_exptl_absorpt_process_details   SADABS-2015/1
_exptl_crystal_density_diffrn    1.356
_exptl_crystal_description       plate
_exptl_crystal_F_000             416
_exptl_crystal_size_max          0.180
_exptl_crystal_size_mid          0.130
_exptl_crystal_size_min          0.060
_refine_diff_density_max         0.464
_refine_diff_density_min         -0.173
_refine_diff_density_rms         0.047
_refine_ls_extinction_method     none
_refine_ls_goodness_of_fit_ref   1.087
_refine_ls_hydrogen_treatment    constr
_refine_ls_matrix_type           full
_refine_ls_number_parameters     74
_refine_ls_number_reflns         1543
_refine_ls_number_restraints     0
_refine_ls_restrained_S_all      1.087
_refine_ls_R_factor_all          0.0357
_refine_ls_R_factor_gt           0.0338
_refine_ls_shift/su_max          0.000
_refine_ls_shift/su_mean         0.000
_refine_ls_structure_factor_coef Fsqd
_refine_ls_weighting_details
'w=1/[\s^2^(Fo^2^)+(0.0517P)^2^+0.5563P] where P=(Fo^2^+2Fc^2^)/3'
_refine_ls_weighting_scheme      calc
_refine_ls_wR_factor_gt          0.0943
_refine_ls_wR_factor_ref         0.0963
_reflns_Friedel_coverage         0.000
_reflns_number_gt                1442
_reflns_number_total             1543
_reflns_threshold_expression     'I > 2\s(I)'
_cod_data_source_file            ks5494sup1.cif
_cod_data_source_block           2_corr
_cod_original_cell_volume        1000.5(5)
_cod_database_code               2300562
_shelx_shelxl_version_number     2014/7
_shelx_space_group_comment
;
The symmetry employed for this shelxl refinement is uniquely defined
by the following loop, which should always be used as a source of
symmetry information in preference to the above space-group names.
They are only intended as comments.
;
_shelx_estimated_absorpt_t_min   0.984
_shelx_estimated_absorpt_t_max   0.995
_shelx_res_file
;

    corr_3l.res created by SHELXL-2014/7


TITL NoFilter_05_a.res in C2/c
REM Old TITL NoFilter_05 in C2/c
REM SHELXT solution in C2/c
REM R1 0.068,  Rweak 0.001,  Alpha 0.017,  Orientation as input
REM Formula found by SHELXT:  C6 N2
CELL  0.71073   8.8965    6.9130   16.4390   90.0000   98.2895   90.0000
ZERR   4.000    0.0024    0.0019    0.0045    0.0000    0.0031    0.0000
LATT  7
SYMM -X, Y, 1/2-Z
SFAC C H N
UNIT 48 16 16
TEMP -173.150
L.S. 10
BOND $H
LIST 4
SIZE 0.06 0.13 0.18
ACTA
MERG 0
FMAP 2
PLAN 20
WGHT    0.051700    0.556300
BASF   0.00816
FVAR       0.22861
N1    3    0.306881    0.756181    0.239893    11.00000    0.02245    0.02395 =
         0.01838    0.00307    0.00303    0.00100
C1    1    0.651237    0.525943    0.483973    11.00000    0.01275    0.01425 =
         0.01371   -0.00046    0.00397   -0.00113
AFIX  43
H1    2    0.753209    0.542154    0.474294    11.00000   -1.20000
AFIX   0
N2    3   -0.020316    0.565923    0.400111    11.00000    0.01654    0.02636 =
         0.02114   -0.00004    0.00293   -0.00011
C2    1    0.535503    0.579957    0.425557    11.00000    0.01331    0.01453 =
         0.01327    0.00043    0.00407   -0.00120
AFIX  43
H2    2    0.557168    0.633834    0.375367    11.00000   -1.20000
AFIX   0
C4    1    0.260810    0.610223    0.379272    11.00000    0.01347    0.01389 =
         0.01351   -0.00080    0.00248   -0.00057
C3    1    0.379066    0.556371    0.438871    11.00000    0.01267    0.01209 =
         0.01280   -0.00109    0.00306   -0.00047
C6    1    0.104752    0.585255    0.390423    11.00000    0.01557    0.01619 =
         0.01408   -0.00032    0.00095    0.00032
C5    1    0.286573    0.691379    0.301876    11.00000    0.01463    0.01659 =
         0.01577   -0.00055    0.00098    0.00042
HKLF 5

REM  NoFilter_05_a.res in C2/c
REM R1 =  0.0338 for    1442 Fo > 4sig(Fo)  and  0.0357 for all    1543 data
REM     74 parameters refined using      0 restraints

END

WGHT      0.0516      0.5578

REM Highest difference peak  0.464,  deepest hole -0.173,  1-sigma level  0.047
Q1    1   0.3200  0.5845  0.4101  11.00000  0.05    0.46
Q2    1   0.4601  0.5637  0.4318  11.00000  0.05    0.45
Q3    1   0.5915  0.5616  0.4561  11.00000  0.05    0.42
Q4    1   0.3655  0.5121  0.4757  11.00000  0.05    0.42
Q5    1   0.2799  0.6535  0.3471  11.00000  0.05    0.30
Q6    1   0.1925  0.6045  0.3880  11.00000  0.05    0.29
Q7    1   0.0403  0.5859  0.3694  11.00000  0.05    0.22
Q8    1   0.0608  0.5743  0.4212  11.00000  0.05    0.22
Q9    1   0.0554  0.6396  0.4043  11.00000  0.05    0.20
Q10   1   0.0565  0.5226  0.3917  11.00000  0.05    0.20
Q11   1   0.3443  0.7491  0.2887  11.00000  0.05    0.20
Q12   1   0.2629  0.6743  0.2624  11.00000  0.05    0.19
Q13   1   0.3290  0.6674  0.2654  11.00000  0.05    0.19
Q14   1   0.3391  0.7777  0.1901  11.00000  0.05    0.13
Q15   1   0.3187  0.8318  0.1975  11.00000  0.05    0.12
Q16   1  -0.1200  0.5665  0.3999  11.00000  0.05    0.11
Q17   1   0.5430  0.6611  0.3972  11.00000  0.05    0.07
Q18   1   0.5047  0.7885  0.3601  11.00000  0.05    0.06
Q19   1   0.2843  0.7226  0.2087  11.00000  0.05    0.06
Q20   1   0.5341  0.6889  0.3507  11.00000  0.05    0.06
;
_shelx_res_checksum              74662
_shelx_hkl_file
;
   2   0   0   47.41    0.32   1
   4   0   0   31.07    0.27   1
   2   0   0   47.41    0.32  -2
   6   0   0    3.13    0.07   1
   8   0   0   16.83    0.19   1
  10   0   0    0.59    0.08   1
   4   0   0   31.07    0.27  -2
  12   0   0   11.18    0.28   1
   1   1   0   25.58    0.14   1
   3   1   0  165.81    0.74   1
   5   1   0    0.13    0.01   1
   7   1   0    0.28    0.02   1
   9   1   0     2.1    0.06   1
  11   1   0   31.87    0.35   1
   0   2   0  227.48    1.42   1
   2   2   0  272.12    1.13   1
   4   2   0   35.02    0.19   1
   6   2   0    1.05    0.03   1
   8   2   0   47.57    0.28   1
  10   2   0   13.62    0.18   1
  12   2   0    0.12    0.05   1
   1   3   0    2.76    0.03   1
   1   1   0   25.58    0.14  -2
   3   3   0   22.93    0.14   1
   5   3   0   28.11    0.16   1
   7   3   0   27.82    0.19   1
   3   1   0  165.81    0.74  -2
   9   3   0    9.48    0.13   1
  11   3   0   -0.03    0.04   1
   0   4   0    0.58    0.03   1
   2   4   0    17.9    0.11   1
   4   4   0   21.22    0.14   1
   6   4   0   33.84     0.2   1
   8   4   0   10.56    0.11   1
  10   4   0    0.81    0.06   1
   1   5   0    5.74    0.06   1
   3   5   0   15.74    0.12   1
   5   5   0     0.9    0.04   1
   7   5   0    0.57    0.04   1
   9   5   0    2.98     0.1   1
   0   2   0  227.48    1.42  -2
   0   6   0  102.83    0.65   1
   2   6   0   12.95    0.11   1
   4   6   0    2.32    0.06   1
   8   6   0    2.81    0.09   1
  10   6   0    2.39    0.14   1
   1   7   0    0.31    0.03   1
   3   7   0     0.0    0.03   1
   5   7   0   -0.02    0.03   1
   7   7   0    2.21    0.09   1
   0   8   0   13.68    0.23   1
   2   8   0   15.71    0.18   1
   4   8   0     0.5    0.05   1
   6   8   0    0.09    0.04   1
   1   9   0    0.62    0.06   1
   1   3   0    2.76    0.03  -2
   3   9   0    3.69     0.1   1
   5   9   0    3.73    0.11   1
 -12   0   1    0.04    0.07   1
 -10   0   1   -0.08    0.04   1
  -8   0   1   -0.02    0.02   1
  -6   0   1    0.01    0.02   1
  -4   0   1     0.0    0.01   1
  -2   0   1     0.0    0.01   1
   0   0   1    0.01     0.0   1
   2   0   1    0.01    0.01   1
   4   0   1    0.01    0.01   1
   6   0   1     0.0    0.02   1
   8   0   1    0.02    0.03   1
  10   0   1    0.05    0.06   1
  12   0   1    0.03    0.07   1
 -11   1   1    1.44    0.08   1
  -9   1   1    5.82     0.1   1
  -7   1   1    0.06    0.02   1
  -5   1   1  113.17    0.54   1
  -3   1   1   70.29    0.31   1
  -1   1   1    6.52    0.03   1
   1   1   1  146.22    0.61   1
   3   1   1  241.28    1.23   1
   5   1   1   70.15    0.35   1
   7   1   1  112.31    0.55   1
   9   1   1    0.04    0.02   1
  11   1   1     1.6    0.09   1
 -12   2   1    0.02    0.05   1
 -10   2   1    2.73    0.09   1
  -8   2   1   18.81    0.15   1
  -6   2   1   11.81     0.1   1
  -4   2   1   78.19    0.38   1
  -2   2   1    2.85    0.03   1
   0   2   1  587.39    2.33   1
   2   2   1    8.61    0.06   1
   4   2   1    1.13    0.03   1
   6   2   1    2.38    0.04   1
   8   2   1    1.41    0.05   1
  10   2   1    5.86    0.12   1
  12   2   1     3.5    0.11   1
 -11   3   1    7.62    0.15   1
  -9   3   1     1.2    0.06   1
  -7   3   1  116.97    0.58   1
  -5   3   1    0.63    0.02   1
  -3   3   1   28.84    0.16   1
  -1   3   1   93.97    0.41   1
   1   3   1    0.24    0.01   1
   3   3   1    11.2    0.08   1
   5   3   1   61.64    0.31   1
   7   3   1   52.45    0.31   1
   9   3   1   15.23    0.16   1
  11   3   1    9.18    0.17   1
 -10   4   1    3.62    0.11   1
  -8   4   1    8.03    0.11   1
  -6   4   1    3.91    0.05   1
  -4   4   1    2.97    0.04   1
  -2   4   1   69.03    0.34   1
   0   4   1   47.61    0.25   1
   2   4   1   21.18    0.12   1
   4   4   1    0.62    0.03   1
   6   4   1    0.47    0.03   1
   8   4   1    4.91    0.09   1
  10   4   1    1.07    0.06   1
  -9   5   1    1.57    0.07   1
  -7   5   1   18.83    0.17   1
  -5   5   1   13.03    0.11   1
  -3   5   1   33.96     0.2   1
  -1   5   1    2.34    0.04   1
   1   5   1    1.33    0.03   1
   3   5   1    3.08    0.05   1
   5   5   1    3.42    0.07   1
   7   5   1   23.94    0.22   1
   9   5   1   13.84    0.19   1
 -10   6   1    0.05    0.06   1
  -8   6   1    1.22    0.06   1
  -6   6   1    2.26    0.06   1
  -4   6   1    4.74    0.07   1
  -2   6   1    0.34    0.02   1
   0   6   1    3.31    0.05   1
   2   6   1    3.03    0.06   1
   4   6   1    1.84    0.06   1
   6   6   1    0.72    0.04   1
   8   6   1    1.33    0.06   1
  -9   7   1    5.72    0.15   1
  -7   7   1     0.5    0.06   1
  -5   7   1    6.12    0.12   1
  -3   7   1    2.28    0.06   1
  -1   7   1    5.25    0.09   1
   1   7   1    4.79    0.08   1
   3   7   1    0.29    0.04   1
   5   7   1    2.64    0.07   1
   7   7   1    1.25    0.06   1
  -6   8   1    1.73    0.08   1
  -4   8   1   14.13    0.17   1
  -2   8   1    0.38    0.04   1
   0   8   1     4.6    0.09   1
   2   8   1   -0.01    0.03   1
   4   8   1    3.49    0.09   1
   6   8   1    2.13    0.09   1
  -5   9   1   15.62     0.2   1
  -3   9   1    0.66    0.06   1
  -1   9   1    8.29    0.15   1
   1   9   1    2.83     0.1   1
   3   9   1     0.8    0.06   1
   5   9   1    3.67    0.12   1
 -12   0   2    2.06    0.15   1
 -10   0   2    0.71    0.07   1
  -8   0   2   24.63    0.24   1
  -6   0   2   20.26    0.16   1
  -4   0   2  222.64     1.4   1
  -2   0   2  253.36    1.28   1
   0   0   2  121.64    0.68   1
   2   0   2  381.64    2.13   1
   4   0   2    3.02    0.05   1
   6   0   2    4.41    0.08   1
   8   0   2   50.99    0.42   1
  10   0   2   67.52    0.65   1
  12   0   2    3.27    0.17   1
 -11   1   2    8.18    0.15   1
  -9   1   2   17.84    0.18   1
  -7   1   2   36.51    0.22   1
  -5   1   2   44.27    0.21   1
  -3   1   2  134.16    0.52   1
  -1   1   2  480.14    1.74   1
   1   1   2   10.57    0.07   1
   3   1   2    8.64    0.07   1
   5   1   2    0.85    0.03   1
   7   1   2   187.5    0.88   1
   9   1   2     0.3    0.03   1
  11   1   2    2.97    0.11   1
 -12   2   2    1.57    0.09   1
 -10   2   2    2.06    0.08   1
  -8   2   2    1.26    0.05   1
  -6   2   2   11.55     0.1   1
  -4   2   2    0.85    0.02   1
  -2   2   2   91.02     0.4   1
   0   2   2  961.54    3.62   1
   2   2   2   55.03    0.25   1
   4   2   2    4.13    0.05   1
   6   2   2   21.38    0.15   1
   8   2   2    3.49    0.07   1
  10   2   2    0.24    0.04   1
  12   2   2    6.69    0.19   1
 -11   3   2    3.39    0.11   1
  -9   3   2    0.05    0.03   1
  -7   3   2    0.31    0.02   1
  -5   3   2    6.88    0.07   1
  -3   3   2    3.89    0.04   1
  -1   3   2    1.48    0.02   1
   1   3   2   99.55    0.43   1
   3   3   2  125.11    0.58   1
   5   3   2   12.42     0.1   1
   7   3   2    1.39    0.05   1
   9   3   2    1.99    0.06   1
  11   3   2    3.86    0.11   1
 -10   4   2    6.93    0.13   1
  -8   4   2    8.36    0.12   1
  -6   4   2    1.15    0.03   1
  -4   4   2    0.06    0.01   1
  -2   4   2   12.15    0.09   1
   0   4   2    9.29    0.07   1
   2   4   2    0.14    0.01   1
   4   4   2   43.61    0.24   1
   6   4   2    2.36    0.05   1
   8   4   2    4.49    0.08   1
  10   4   2    5.85    0.12   1
 -11   5   2    9.44     0.2   1
  -9   5   2    2.18    0.08   1
  -7   5   2   76.51    0.46   1
  -5   5   2     0.0    0.02   1
  -3   5   2    1.53    0.04   1
  -1   5   2    8.93    0.07   1
   1   5   2    9.28    0.08   1
   3   5   2    4.67    0.06   1
   5   5   2    9.11    0.11   1
   7   5   2    9.71    0.13   1
   9   5   2    2.61     0.1   1
 -10   6   2    0.22    0.07   1
  -8   6   2    9.77    0.14   1
  -6   6   2    6.46     0.1   1
  -4   6   2    0.14    0.02   1
  -2   6   2    2.28    0.05   1
   0   6   2    1.13    0.04   1
   2   6   2   28.73     0.2   1
   4   6   2    6.96     0.1   1
   6   6   2    1.95    0.06   1
   8   6   2    0.22    0.04   1
  -9   7   2    5.58    0.15   1
  -7   7   2   15.78    0.23   1
  -5   7   2    17.8    0.19   1
  -3   7   2    1.89    0.06   1
  -1   7   2    7.27    0.11   1
   1   7   2    1.34    0.05   1
   3   7   2    0.04    0.03   1
   5   7   2    5.59     0.1   1
   7   7   2   16.73    0.19   1
  -6   8   2    0.32    0.05   1
  -4   8   2    3.58    0.09   1
  -2   8   2    6.96    0.11   1
   0   8   2    5.43     0.1   1
   2   8   2    0.11    0.03   1
   4   8   2   -0.07    0.03   1
   6   8   2    0.68    0.06   1
  -5   9   2   19.37    0.25   1
  -3   9   2    1.99    0.09   1
  -1   9   2    0.24    0.04   1
   1   9   2    1.95    0.09   1
   3   9   2     3.8     0.1   1
   5   9   2    1.04    0.08   1
  -4   0   1     0.0    0.01  -2
 -12   0   3    0.05    0.07   1
 -10   0   3    0.02    0.04   1
  -8   0   3   -0.01    0.03   1
  -2   0   1     0.0    0.01  -2
  -6   0   3     0.0    0.01   1
  -4   0   3     0.0    0.01   1
  -2   0   3     0.0    0.01   1
   0   0   1    0.01     0.0  -2
   0   0   3    0.01    0.01   1
   2   0   3    0.01    0.01   1
   4   0   3    0.01    0.01   1
   2   0   1    0.01    0.01  -2
   6   0   3    0.02    0.02   1
   8   0   3   -0.01    0.03   1
  10   0   3     0.0    0.04   1
   4   0   1    0.01    0.01  -2
  12   0   3    0.01    0.06   1
 -11   1   3    7.68    0.14   1
  -9   1   3    1.77    0.06   1
  -7   1   3    0.56    0.03   1
  -5   1   3   13.46    0.08   1
  -3   1   3    4.75    0.04   1
  -1   1   3   24.29     0.1   1
   1   1   3  183.34    0.76   1
   3   1   3  144.52    0.56   1
   5   1   3   65.41    0.33   1
   7   1   3   18.77    0.14   1
   9   1   3    2.53    0.06   1
  11   1   3    6.88    0.14   1
 -12   2   3    7.85    0.16   1
 -10   2   3    0.51    0.05   1
  -8   2   3   20.83    0.17   1
  -6   2   3   12.87    0.09   1
  -4   2   3    3.24    0.04   1
  -2   2   3   76.99    0.29   1
   0   2   3  733.44    2.91   1
   2   2   3   63.28     0.3   1
   4   2   3   33.32    0.18   1
   6   2   3   29.18    0.17   1
   8   2   3   15.65    0.14   1
  10   2   3    4.21    0.09   1
  12   2   3    0.81    0.12   1
 -11   3   3   27.74    0.29   1
  -3   1   1   70.29    0.31  -2
  -9   3   3    0.57    0.05   1
  -7   3   3   17.54    0.15   1
  -5   3   3   21.87    0.13   1
  -1   1   1    6.52    0.03  -2
  -3   3   3   89.43    0.38   1
  -1   3   3   52.12    0.21   1
   1   3   3     6.1    0.05   1
   1   1   1  146.22    0.61  -2
   3   3   3   48.69    0.27   1
   5   3   3   17.99    0.14   1
   7   3   3    1.93    0.05   1
   3   1   1  241.28    1.23  -2
   9   3   3    4.65    0.08   1
  11   3   3    1.88     0.1   1
 -10   4   3    0.07    0.04   1
  -8   4   3   70.45    0.46   1
  -6   4   3    0.01    0.01   1
  -4   4   3    6.02    0.06   1
  -2   4   3    13.3    0.08   1
   0   4   3  358.75    1.59   1
   2   4   3   46.57    0.23   1
   4   4   3    0.01    0.01   1
   6   4   3     0.0    0.02   1
   8   4   3    0.15    0.03   1
  10   4   3    3.48    0.11   1
 -11   5   3   19.21    0.28   1
  -9   5   3   -0.04    0.04   1
  -7   5   3    5.56    0.09   1
  -5   5   3   37.48    0.21   1
  -3   5   3    0.87    0.03   1
  -1   5   3    1.38    0.03   1
   1   5   3    0.06    0.02   1
   3   5   3    3.97    0.06   1
   5   5   3    5.33    0.08   1
   7   5   3    0.87    0.05   1
   9   5   3     0.6    0.05   1
 -10   6   3    0.06    0.06   1
  -8   6   3    4.13     0.1   1
  -2   2   1    2.85    0.03  -2
  -6   6   3   13.22    0.15   1
  -4   6   3   22.75    0.17   1
  -2   6   3    31.3     0.2   1
   0   2   1  587.39    2.33  -2
   0   6   3   10.41     0.1   1
   2   6   3    3.07    0.06   1
   4   6   3    1.42    0.06   1
   2   2   1    8.61    0.06  -2
   6   6   3    2.93    0.07   1
   8   6   3    0.14    0.04   1
  -9   7   3    0.54    0.08   1
  -7   7   3   13.41    0.19   1
  -5   7   3   19.05    0.19   1
  -3   7   3    16.3    0.16   1
  -1   7   3    6.34     0.1   1
   1   7   3     0.0    0.02   1
   3   7   3    7.97    0.11   1
   5   7   3   -0.01    0.03   1
   7   7   3    1.16    0.06   1
  -6   8   3     0.4    0.06   1
  -4   8   3     4.4     0.1   1
  -2   8   3    0.81    0.05   1
   0   8   3   11.18    0.14   1
   2   8   3    6.48    0.11   1
   4   8   3    1.39    0.08   1
   6   8   3    8.55    0.16   1
  -5   9   3   12.08    0.22   1
  -1   3   1   93.97    0.41  -2
  -3   9   3    0.57    0.06   1
  -1   9   3    0.18    0.05   1
   1   9   3    0.64    0.05   1
   1   3   1    0.24    0.01  -2
   3   9   3    3.26     0.1   1
 -12   0   4    0.63     0.1   1
 -10   0   4    0.02    0.04   1
  -8   0   4   26.37    0.31   1
  -6   0   4    2.24    0.04   1
  -4   0   4   63.37    0.36   1
  -2   0   4  309.47    1.72   1
   0   0   4   49.95    0.25   1
   2   0   4   196.1     1.1   1
   4   0   4   67.75    0.38   1
   6   0   4  130.34    0.88   1
   8   0   4   35.45    0.38   1
  10   0   4    0.12    0.04   1
  12   0   4    4.82    0.17   1
 -11   1   4    1.96    0.08   1
  -9   1   4    2.94    0.07   1
  -7   1   4    5.15    0.07   1
  -5   1   4   65.97    0.29   1
  -3   1   4    0.06    0.01   1
  -1   1   4  160.34    0.61   1
   1   1   4  178.76    0.71   1
   3   1   4    21.7    0.11   1
   5   1   4   16.28     0.1   1
   7   1   4   119.3    0.59   1
   9   1   4     6.5     0.1   1
  11   1   4    1.39    0.08   1
 -12   2   4    2.82    0.11   1
 -10   2   4    2.26    0.07   1
  -8   2   4    0.87    0.05   1
  -6   2   4    0.04    0.01   1
  -4   2   4   57.24    0.25   1
  -2   2   4    2.45    0.02   1
   0   2   4  149.61     0.6   1
   2   2   4    2.37    0.03   1
   4   2   4   21.03    0.12   1
   6   2   4    0.25    0.02   1
   8   2   4    14.7    0.13   1
  10   2   4   39.61    0.29   1
 -11   3   4    1.31    0.08   1
  -9   3   4    4.87     0.1   1
  -7   3   4    0.36    0.03   1
  -5   3   4    2.07    0.03   1
  -3   3   4   17.65     0.1   1
  -1   3   4   71.33    0.28   1
   1   3   4    0.44    0.02   1
   3   3   4    0.11    0.01   1
   5   3   4    0.35    0.02   1
   7   3   4   12.95    0.13   1
   9   3   4    0.23    0.03   1
  11   3   4    8.08    0.18   1
 -10   4   4    0.02    0.04   1
  -8   4   4    0.48    0.04   1
  -6   4   4    0.83    0.03   1
  -4   4   4    4.33    0.05   1
  -2   4   4   26.12    0.13   1
   0   4   4  223.07     0.9   1
   2   4   4   55.57    0.29   1
   4   4   4    0.59    0.03   1
   6   4   4    0.55    0.04   1
   8   4   4    1.08    0.06   1
  10   4   4     1.6    0.08   1
 -11   5   4    7.95    0.18   1
  -9   5   4    0.67    0.05   1
  -7   5   4    7.56    0.09   1
  -5   5   4   20.84    0.14   1
  -3   5   4    0.55    0.02   1
  -1   5   4   31.61    0.18   1
   1   5   4   10.26     0.1   1
   3   5   4   17.73    0.16   1
   5   5   4    0.15    0.03   1
   7   5   4    9.48    0.14   1
   9   5   4    8.92    0.14   1
 -10   6   4    2.46    0.11   1
  -8   6   4   23.27    0.21   1
  -6   6   4    0.47    0.04   1
  -4   6   4   11.85    0.11   1
  -2   6   4    1.24    0.04   1
   0   6   4   28.78     0.2   1
   2   6   4   13.24    0.14   1
   4   6   4   11.35    0.14   1
   6   6   4    2.66    0.07   1
   8   6   4    3.78    0.09   1
  -9   7   4    2.63    0.26   1
  -7   7   4   15.11     0.2   1
  -5   7   4   22.61     0.2   1
  -3   7   4     6.5     0.1   1
  -1   7   4    3.68    0.07   1
   1   7   4    2.21    0.06   1
   3   7   4    0.02    0.03   1
   5   7   4    8.14    0.13   1
   7   7   4   11.49    0.16   1
  -6   8   4   38.56    0.41   1
  -4   8   4    4.17    0.12   1
  -2   8   4    2.54    0.08   1
   0   8   4    5.76     0.1   1
   2   8   4    6.73    0.12   1
   4   8   4   -0.04    0.04   1
   6   8   4    1.07    0.07   1
  -5   9   4    0.07    0.06   1
  -3   9   4    1.76     0.1   1
  -1   9   4    2.14     0.1   1
   1   9   4    0.08    0.04   1
   3   9   4    1.22    0.08   1
 -12   0   5   -0.08    0.05   1
 -10   0   5    0.22    0.05   1
  -8   0   5    0.03    0.03   1
  -6   0   5    0.01    0.01   1
  -4   0   5    0.02    0.01   1
  -2   0   5    0.01    0.01   1
   2   0   5    0.01    0.01   1
   4   0   5    0.01    0.01   1
   6   0   5     0.0    0.02   1
   8   0   5     0.0    0.03   1
  10   0   5    0.03    0.04   1
 -11   1   5    1.75    0.08   1
  -9   1   5    0.46    0.04   1
  -7   1   5   18.38    0.15   1
  -5   1   5    0.74    0.02   1
  -3   1   5   27.72    0.12   1
  -1   1   5   99.64    0.41   1
   1   1   5   21.39     0.1   1
   3   1   5   35.72    0.16   1
   5   1   5   29.52    0.15   1
   7   1   5    12.1    0.11   1
   9   1   5   -0.06    0.02   1
  11   1   5    6.96    0.12   1
 -12   2   5   14.78    0.21   1
 -10   2   5   -0.01    0.03   1
  -8   2   5     8.8    0.12   1
  -6   2   5    3.86    0.05   1
  -4   2   5   20.79    0.11   1
  -2   2   5     6.9    0.05   1
   0   2   5    4.45    0.03   1
   2   2   5   73.03    0.33   1
   4   2   5    2.89    0.04   1
   6   2   5    8.76    0.09   1
   8   2   5    7.81     0.1   1
  10   2   5     0.6    0.05   1
 -11   3   5    14.4     0.2   1
  -9   3   5    0.76    0.05   1
  -7   3   5   22.64    0.18   1
  -5   3   5   89.69     0.4   1
  -3   3   5    0.54    0.02   1
  -1   3   5  196.28    0.75   1
   1   3   5    4.99    0.04   1
   3   3   5   22.85    0.14   1
   5   3   5     4.9    0.07   1
   7   3   5  126.07    0.74   1
   9   3   5    3.73    0.09   1
  11   3   5    0.06    0.05   1
 -10   4   5    2.73     0.1   1
  -8   4   5    2.28    0.07   1
  -6   4   5   20.44    0.14   1
  -4   4   5    45.7    0.21   1
  -2   4   5   16.51    0.09   1
   0   4   5   46.55    0.22   1
   2   4   5    0.19    0.01   1
   4   4   5    6.07    0.07   1
   6   4   5    1.69    0.06   1
   8   4   5     0.1    0.03   1
  10   4   5     7.6    0.14   1
  -9   5   5    1.12    0.06   1
  -7   5   5    3.26    0.06   1
  -5   5   5   16.73    0.11   1
  -3   5   5    17.0    0.11   1
  -1   5   5   87.96    0.42   1
   1   5   5     3.9    0.06   1
   3   5   5   20.56    0.18   1
   5   5   5    24.9     0.2   1
   7   5   5    6.29    0.11   1
   9   5   5    8.29    0.14   1
 -10   6   5    2.76    0.16   1
  -8   6   5   40.73    0.36   1
  -6   6   5   15.36    0.14   1
  -4   6   5    0.03    0.02   1
  -2   6   5    1.04    0.04   1
   0   6   5   18.99    0.15   1
   2   6   5    6.29    0.09   1
   4   6   5    8.65    0.12   1
   6   6   5    3.73    0.08   1
   8   6   5    0.59    0.05   1
  -7   7   5   13.67    0.22   1
  -5   7   5   28.72    0.25   1
  -3   7   5    6.09    0.11   1
  -1   7   5    7.39    0.11   1
   1   7   5    8.66    0.12   1
   3   7   5   13.93    0.16   1
   5   7   5    1.53    0.07   1
   7   7   5    0.16    0.04   1
  -6   8   5    2.77    0.14   1
  -4   8   5     1.2    0.07   1
  -2   8   5    1.46    0.07   1
   0   8   5    4.72    0.11   1
   2   8   5   31.71    0.34   1
   4   8   5    2.65    0.11   1
   6   8   5     0.7    0.06   1
  -5   9   5    2.27    0.23   1
  -3   9   5   12.76    0.19   1
  -1   9   5    2.66    0.11   1
   1   9   5    8.38    0.16   1
   3   9   5    1.08    0.08   1
  -4   0   2  222.64     1.4  -2
 -12   0   6   23.63    0.35   1
 -10   0   6    5.97    0.15   1
  -8   0   6   39.42    0.41   1
  -2   0   2  253.36    1.28  -2
  -6   0   6   39.96    0.29   1
  -4   0   6   10.87    0.11   1
  -2   0   6   32.07    0.19   1
   0   0   2  121.64    0.68  -2
   0   0   6   487.6    2.29   1
   2   0   6  186.04    1.05   1
   4   0   6   24.45    0.18   1
   2   0   2  381.64    2.13  -2
   6   0   6   15.56    0.15   1
   8   0   6   24.06    0.26   1
  10   0   6   12.07    0.19   1
 -11   1   6   24.03    0.24   1
  -9   1   6    0.29    0.04   1
  -7   1   6   21.97    0.16   1
  -5   1   6    0.69    0.02   1
  -3   1   6    0.02    0.01   1
  -1   1   6    6.71    0.04   1
   1   1   6   77.91     0.3   1
   3   1   6   16.17    0.09   1
   5   1   6    6.15    0.05   1
   7   1   6     0.1    0.02   1
   9   1   6    0.67    0.04   1
  11   1   6    1.69    0.07   1
 -12   2   6   15.82    0.22   1
 -10   2   6    3.44    0.09   1
  -8   2   6   28.08    0.23   1
  -6   2   6    1.86    0.04   1
  -4   2   6    3.42    0.03   1
  -2   2   6   99.92    0.38   1
   0   2   6    2.37    0.02   1
   2   2   6  119.29    0.56   1
   4   2   6    15.5     0.1   1
   6   2   6   41.72    0.25   1
   8   2   6    1.51    0.05   1
  10   2   6    0.05    0.04   1
 -11   3   6   -0.03    0.04   1
  -3   1   2  134.16    0.52  -2
  -9   3   6    0.86    0.07   1
  -7   3   6    0.33    0.03   1
  -5   3   6    1.94    0.03   1
  -1   1   2  480.14    1.74  -2
  -3   3   6    8.25    0.07   1
  -1   3   6    1.41    0.02   1
   1   3   6   13.62    0.08   1
   1   1   2   10.57    0.07  -2
   3   3   6    1.56    0.03   1
   5   3   6    0.52    0.03   1
   7   3   6   19.34    0.19   1
   3   1   2    8.64    0.07  -2
   9   3   6    9.73    0.14   1
  11   3   6   -0.05    0.06   1
 -10   4   6    0.65    0.06   1
  -8   4   6    1.92    0.07   1
  -6   4   6    2.47    0.05   1
  -4   4   6    0.21    0.01   1
  -2   4   6    0.04    0.01   1
   0   4   6     3.3    0.04   1
   2   4   6   31.21    0.18   1
   4   4   6    2.31    0.05   1
   6   4   6    2.89    0.07   1
   8   4   6    7.44    0.12   1
  10   4   6   13.89     0.2   1
  -9   5   6     3.7     0.1   1
  -7   5   6    9.95    0.11   1
  -5   5   6   40.24     0.2   1
  -3   5   6   23.89    0.15   1
  -1   5   6   52.22    0.27   1
   1   5   6   14.71    0.11   1
   3   5   6     1.3    0.05   1
   5   5   6    1.82    0.06   1
   7   5   6    7.86    0.13   1
   9   5   6     0.9    0.06   1
 -10   6   6    2.48    0.26   1
  -8   6   6    0.41    0.09   1
  -2   2   2   91.02     0.4  -2
  -6   6   6   56.89     0.4   1
  -4   6   6    0.78    0.04   1
  -2   6   6    0.28    0.02   1
   0   2   2  961.54    3.62  -2
   0   6   6  114.99    0.61   1
   2   6   6     7.3     0.1   1
   4   6   6    3.86    0.08   1
   2   2   2   55.03    0.25  -2
   6   6   6   12.11    0.15   1
   8   6   6   -0.06    0.03   1
  -7   7   6    0.42    0.07   1
  -5   7   6    0.32    0.05   1
  -3   7   6    0.95    0.06   1
  -1   7   6     1.1    0.05   1
   1   7   6    5.83    0.11   1
   3   7   6    2.31    0.08   1
   5   7   6    1.54    0.07   1
   7   7   6    1.47    0.08   1
  -6   8   6    0.84    0.09   1
  -4   8   6     2.4    0.09   1
  -2   8   6    0.84    0.07   1
   0   8   6    4.27    0.11   1
   2   8   6   44.74    0.43   1
   4   8   6   10.75    0.17   1
   6   8   6   -0.01    0.05   1
  -1   3   2    1.48    0.02  -2
  -3   9   6    1.62    0.09   1
  -1   9   6     4.9    0.14   1
   1   9   6   11.13    0.18   1
   1   3   2   99.55    0.43  -2
   3   9   6    4.61    0.14   1
 -12   0   7   -0.12    0.06   1
 -10   0   7    0.05    0.05   1
  -8   0   7    0.05    0.04   1
  -6   0   7    0.01    0.02   1
  -4   0   7    0.03    0.01   1
  -2   0   7    0.01    0.01   1
   2   0   7    0.01    0.01   1
   4   0   7    0.03    0.01   1
   6   0   7     0.0    0.03   1
   8   0   7     0.0    0.03   1
  10   0   7   -0.06    0.04   1
 -11   1   7     0.0    0.04   1
  -9   1   7    1.23    0.06   1
  -7   1   7    0.08    0.02   1
  -5   1   7    34.7    0.17   1
  -3   1   7   10.15    0.06   1
  -1   1   7   14.73    0.08   1
   1   1   7   10.19    0.05   1
   3   1   7    6.87    0.05   1
   5   1   7    0.42    0.02   1
   7   1   7    9.17     0.1   1
   9   1   7    8.85    0.12   1
  11   1   7    0.61    0.05   1
 -12   2   7    1.96    0.09   1
 -10   2   7   -0.03    0.03   1
  -8   2   7   20.15    0.19   1
  -6   2   7    0.99    0.03   1
  -4   2   7   43.93    0.19   1
  -2   2   7    0.09    0.01   1
   0   2   7    69.3    0.28   1
   2   2   7   62.05    0.27   1
   4   2   7     0.4    0.02   1
   6   2   7   21.93    0.16   1
   8   2   7    1.41    0.05   1
  10   2   7    0.12    0.04   1
 -11   3   7    4.56    0.12   1
  -9   3   7     0.5    0.04   1
  -7   3   7    0.29    0.03   1
  -5   3   7   62.56    0.28   1
  -3   3   7    0.95    0.02   1
  -1   3   7   119.3    0.47   1
   1   3   7   76.74    0.34   1
   3   3   7   13.04    0.09   1
   5   3   7   39.73    0.24   1
   7   3   7   17.61    0.18   1
   9   3   7   10.64    0.16   1
 -10   4   7     8.4    0.15   1
  -8   4   7    0.09    0.03   1
  -6   4   7   34.47     0.2   1
  -4   4   7   24.08    0.13   1
  -2   4   7    0.78    0.02   1
   0   4   7   55.17    0.26   1
   2   4   7   13.81     0.1   1
   4   4   7   18.87    0.14   1
   6   4   7   45.07     0.3   1
   8   4   7    1.54    0.07   1
  10   4   7    4.54    0.12   1
  -9   5   7    8.76    0.17   1
  -7   5   7    0.06    0.03   1
  -5   5   7   42.28    0.24   1
  -3   5   7    9.39    0.08   1
  -1   5   7    30.0    0.18   1
   1   5   7    7.08    0.08   1
   3   5   7    0.33    0.03   1
   5   5   7    1.05    0.05   1
   7   5   7   40.56     0.3   1
   9   5   7    0.03    0.04   1
  -8   6   7    0.39    0.08   1
  -6   6   7     4.9     0.1   1
  -4   6   7    8.75    0.11   1
  -2   6   7    0.55    0.03   1
   0   6   7   22.26    0.19   1
   2   6   7   71.38     0.5   1
   4   6   7    1.92    0.08   1
   6   6   7    0.43    0.04   1
   8   6   7    1.98    0.08   1
  -7   7   7    1.34    0.13   1
  -5   7   7   11.94    0.19   1
  -3   7   7   13.34    0.15   1
  -1   7   7   49.22    0.35   1
   1   7   7   13.24    0.17   1
   3   7   7    4.84    0.11   1
   5   7   7   11.81    0.17   1
   7   7   7    0.31    0.05   1
  -6   8   7    0.57    0.08   1
  -4   8   7    1.03    0.07   1
  -2   8   7    3.75    0.11   1
   0   8   7   13.34    0.18   1
   2   8   7    4.53    0.11   1
   4   8   7    2.18    0.09   1
  -3   9   7    9.49    0.18   1
  -1   9   7    2.57    0.11   1
   1   9   7    1.61    0.09   1
   3   9   7    2.71    0.14   1
 -12   0   8   53.26    0.59   1
 -10   0   8    5.09    0.15   1
  -8   0   8    7.47    0.15   1
  -6   0   8    1.25    0.05   1
  -4   0   8   10.49    0.11   1
  -2   0   8   48.58    0.26   1
   0   0   8   51.24    0.29   1
   2   0   8   51.06     0.3   1
   4   0   8    1.12    0.04   1
   6   0   8    2.47    0.09   1
   8   0   8    8.08    0.17   1
  10   0   8    0.28    0.06   1
 -11   1   8    6.07    0.12   1
  -9   1   8    1.13    0.06   1
  -7   1   8   18.68    0.13   1
  -5   1   8   54.01    0.26   1
  -3   1   8    0.76    0.02   1
  -1   1   8  226.93    0.87   1
   1   1   8    9.56    0.05   1
   3   1   8   12.51    0.07   1
   5   1   8     4.6    0.06   1
   7   1   8   14.77    0.16   1
   9   1   8   20.87    0.21   1
  11   1   8    4.82    0.13   1
 -12   2   8     4.6    0.13   1
 -10   2   8    0.56    0.05   1
  -8   2   8    3.42    0.08   1
  -6   2   8    2.01    0.04   1
  -4   2   8   12.58    0.08   1
  -2   2   8   14.64    0.09   1
   0   2   8    0.95    0.02   1
   2   2   8    0.44    0.02   1
   4   2   8    1.52    0.03   1
   6   2   8     0.0    0.02   1
   8   2   8   15.49    0.17   1
  10   2   8    2.03    0.09   1
 -11   3   8    4.09    0.12   1
  -9   3   8    2.44    0.08   1
  -7   3   8    0.45    0.03   1
  -5   3   8   31.29    0.17   1
  -3   3   8   20.88    0.11   1
  -1   3   8    0.01    0.01   1
   1   3   8    0.34    0.02   1
   3   3   8    4.29    0.05   1
   5   3   8    0.04    0.02   1
   7   3   8    0.41    0.04   1
   9   3   8    0.09    0.04   1
 -10   4   8    0.05    0.04   1
  -8   4   8   24.05    0.25   1
  -6   4   8   50.09    0.27   1
  -4   4   8    9.09    0.07   1
  -2   4   8    1.75    0.03   1
   0   4   8    0.55    0.02   1
   2   4   8    4.83    0.06   1
   4   4   8    0.03    0.02   1
   6   4   8    9.24    0.12   1
   8   4   8    4.35    0.09   1
  10   4   8    0.24    0.06   1
  -9   5   8   12.51    0.18   1
  -7   5   8    0.07    0.03   1
  -5   5   8   17.15    0.16   1
  -3   5   8    4.71    0.06   1
  -1   5   8    6.21    0.07   1
   1   5   8   24.15    0.17   1
   3   5   8     1.1    0.04   1
   5   5   8    6.84    0.11   1
   7   5   8   46.23    0.33   1
   9   5   8    0.02    0.04   1
  -8   6   8    1.72    0.08   1
  -6   6   8    3.75    0.09   1
  -4   6   8    0.66    0.04   1
  -2   6   8    0.71    0.04   1
   0   6   8    5.05    0.09   1
   2   6   8   55.11    0.42   1
   4   6   8    6.71    0.12   1
   6   6   8    2.86    0.09   1
   8   6   8    0.12    0.05   1
  -7   7   8    5.44    0.16   1
  -5   7   8    1.35    0.07   1
  -3   7   8    5.12     0.1   1
  -1   7   8   27.21    0.24   1
   1   7   8    20.1    0.22   1
   3   7   8    0.39    0.04   1
   5   7   8    1.27    0.07   1
   7   7   8    7.88    0.16   1
  -6   8   8    1.47    0.09   1
  -4   8   8    0.07    0.05   1
  -2   8   8   10.06    0.18   1
   0   8   8   36.19    0.31   1
   2   8   8    8.61    0.15   1
   4   8   8    3.57    0.11   1
  -3   9   8    1.28     0.1   1
  -1   9   8    0.89    0.07   1
   1   9   8    4.76    0.13   1
  -4   0   3     0.0    0.01  -2
 -12   0   9   -0.05    0.06   1
 -10   0   9   -0.06    0.05   1
  -8   0   9   -0.02    0.03   1
  -2   0   3     0.0    0.01  -2
  -6   0   9   -0.01    0.02   1
  -4   0   9     0.0    0.01   1
  -2   0   9   -0.02    0.01   1
   0   0   3    0.01    0.01  -2
   0   0   9    0.08    0.01   1
   2   0   9    0.04    0.01   1
   4   0   9    0.01    0.01   1
   2   0   3    0.01    0.01  -2
   6   0   9    0.06    0.03   1
   8   0   9    0.01    0.04   1
  10   0   9   -0.02    0.05   1
 -11   1   9    8.58    0.14   1
  -9   1   9    2.98    0.08   1
  -7   1   9   16.85    0.12   1
  -5   1   9    3.29    0.05   1
  -3   1   9     0.8    0.02   1
  -1   1   9    0.02    0.01   1
   1   1   9    1.25    0.02   1
   3   1   9    5.21    0.04   1
   5   1   9    7.99    0.08   1
   7   1   9    3.12    0.07   1
   9   1   9    0.08    0.04   1
 -12   2   9   16.36    0.37   1
 -10   2   9    8.63    0.14   1
  -8   2   9    1.19    0.05   1
  -6   2   9   81.35    0.38   1
  -4   2   9    3.39    0.04   1
  -2   2   9    0.01    0.01   1
   0   2   9    28.7    0.14   1
   2   2   9   65.53    0.27   1
   4   2   9    6.19    0.06   1
   6   2   9   19.08    0.16   1
   8   2   9    7.77    0.13   1
  10   2   9    0.32    0.05   1
 -11   3   9    0.09    0.05   1
  -3   1   3    4.75    0.04  -2
  -9   3   9   16.15     0.2   1
  -7   3   9    6.69    0.09   1
  -5   3   9   12.14     0.1   1
  -1   1   3   24.29     0.1  -2
  -3   3   9   10.14    0.07   1
  -1   3   9   21.24    0.12   1
   1   3   9    6.05    0.05   1
   1   1   3  183.34    0.76  -2
   3   3   9    4.96    0.05   1
   5   3   9    5.37    0.07   1
   7   3   9     0.9    0.05   1
   3   1   3  144.52    0.56  -2
   9   3   9    0.95    0.07   1
 -10   4   9    0.24    0.05   1
  -8   4   9   16.48     0.2   1
  -6   4   9   50.77    0.29   1
  -4   4   9     5.9    0.07   1
  -2   4   9    8.25    0.08   1
   0   4   9   -0.02    0.01   1
   2   4   9  155.75     0.7   1
   4   4   9    0.74    0.03   1
   6   4   9    20.5    0.18   1
   8   4   9     3.4    0.08   1
  -9   5   9    3.61    0.12   1
  -7   5   9    0.25    0.04   1
  -5   5   9    1.97    0.06   1
  -3   5   9    9.07    0.09   1
  -1   5   9   27.08    0.18   1
   1   5   9    7.87    0.09   1
   3   5   9    6.36    0.09   1
   5   5   9   15.52    0.16   1
   7   5   9    0.02    0.03   1
   9   5   9    3.14    0.13   1
  -8   6   9     0.6    0.06   1
  -2   2   3   76.99    0.29  -2
  -6   6   9    1.71    0.08   1
  -4   6   9   17.94    0.18   1
  -2   6   9   12.76    0.12   1
   0   2   3  733.44    2.91  -2
   0   6   9   16.72    0.17   1
   2   6   9     1.2    0.06   1
   4   6   9    3.66     0.1   1
   2   2   3   63.28     0.3  -2
   6   6   9   13.17    0.19   1
   8   6   9   -0.03    0.05   1
  -7   7   9    0.52    0.08   1
  -5   7   9    3.06    0.09   1
  -3   7   9   11.72    0.15   1
  -1   7   9   11.52    0.16   1
   1   7   9    6.21    0.12   1
   3   7   9    0.15    0.04   1
   5   7   9    3.36     0.1   1
  -6   8   9    8.96    0.21   1
  -4   8   9    1.88    0.11   1
  -2   8   9    2.08    0.09   1
   0   8   9    7.45    0.13   1
   2   8   9   -0.02    0.04   1
   4   8   9    0.33    0.05   1
  -1   9   9   21.33    0.26   1
   1   9   9     0.2    0.06   1
 -12   0  10     0.0    0.08   1
 -10   0  10    2.99    0.12   1
  -8   0  10   11.37    0.17   1
  -6   0  10   34.43    0.27   1
  -4   0  10    82.4    0.52   1
  -2   0  10   29.97    0.18   1
   0   0  10   68.04    0.39   1
   2   0  10   95.34    0.53   1
   4   0  10     0.0    0.02   1
   6   0  10   24.45    0.29   1
   8   0  10    0.64    0.07   1
  10   0  10    1.09    0.09   1
 -11   1  10    0.05    0.04   1
  -9   1  10    7.37    0.12   1
  -7   1  10    4.51    0.06   1
  -5   1  10  100.83    0.45   1
  -3   1  10   29.41    0.13   1
  -1   1  10   56.32    0.25   1
   1   1  10   48.51    0.19   1
   3   1  10    5.39    0.05   1
   5   1  10    13.2    0.11   1
   7   1  10    2.88    0.07   1
   9   1  10   11.18    0.15   1
 -10   2  10    0.05    0.04   1
  -8   2  10    2.66    0.07   1
  -6   2  10   91.94    0.45   1
  -4   2  10    0.63    0.02   1
  -2   2  10    0.95    0.02   1
   0   2  10    24.0    0.13   1
   2   2  10   15.61    0.09   1
   4   2  10    0.73    0.03   1
   6   2  10    4.34    0.08   1
   8   2  10    0.05    0.03   1
  10   2  10    0.02    0.04   1
 -11   3  10    3.87    0.12   1
  -9   3  10   26.95    0.28   1
  -7   3  10   11.61    0.12   1
  -5   3  10    0.38    0.02   1
  -3   3  10     0.4    0.02   1
  -1   3  10   35.49    0.17   1
   1   3  10    3.46    0.05   1
   3   3  10     0.0    0.01   1
   5   3  10   11.12    0.11   1
   7   3  10    1.04    0.06   1
   9   3  10    0.56    0.05   1
 -10   4  10   10.62    0.17   1
  -8   4  10    1.15    0.07   1
  -6   4  10    1.62    0.05   1
  -4   4  10    5.56    0.07   1
  -2   4  10    2.41    0.04   1
   0   4  10   11.98     0.1   1
   2   4  10   14.37    0.12   1
   4   4  10    8.19    0.09   1
   6   4  10    8.25    0.11   1
   8   4  10    1.67    0.08   1
  -9   5  10    0.65    0.07   1
  -7   5  10   -0.02    0.03   1
  -5   5  10    1.87    0.06   1
  -3   5  10    5.27    0.07   1
  -1   5  10    0.07    0.02   1
   1   5  10   67.38     0.4   1
   3   5  10    5.26    0.08   1
   5   5  10   10.15    0.14   1
   7   5  10    0.79    0.06   1
  -8   6  10   23.25    0.34   1
  -6   6  10    1.81    0.08   1
  -4   6  10     2.8    0.08   1
  -2   6  10   10.36    0.13   1
   0   6  10    0.68    0.04   1
   2   6  10   19.17    0.19   1
   4   6  10    0.33    0.04   1
   6   6  10    10.2    0.17   1
  -7   7  10    0.13    0.06   1
  -5   7  10    9.27    0.15   1
  -3   7  10    0.64    0.05   1
  -1   7  10    7.52    0.13   1
   1   7  10   13.23    0.18   1
   3   7  10    4.72    0.11   1
   5   7  10    0.97    0.07   1
  -6   8  10    8.61    0.21   1
  -4   8  10    6.93    0.18   1
  -2   8  10    0.52    0.05   1
   0   8  10    6.08    0.13   1
   2   8  10    0.03    0.04   1
   4   8  10    6.06    0.15   1
 -10   0  11    0.01    0.05   1
  -8   0  11    0.05    0.03   1
  -6   0  11    0.02    0.02   1
  -4   0  11   -0.01    0.02   1
  -2   0  11     0.0    0.01   1
   2   0  11   -0.01    0.01   1
   4   0  11    0.01    0.02   1
   6   0  11   -0.01    0.03   1
   8   0  11   -0.02    0.04   1
  10   0  11    0.05    0.05   1
 -11   1  11    7.18    0.15   1
  -9   1  11   17.89    0.21   1
  -7   1  11    6.88    0.08   1
  -5   1  11    6.51    0.07   1
  -3   1  11    1.75    0.03   1
  -1   1  11   47.08    0.21   1
   1   1  11    4.54    0.04   1
   3   1  11    4.88    0.05   1
   5   1  11     0.0    0.02   1
   7   1  11    0.95    0.05   1
   9   1  11    5.21    0.12   1
 -10   2  11    2.43    0.09   1
  -8   2  11    1.62    0.07   1
  -6   2  11    18.6    0.13   1
  -4   2  11    5.18    0.06   1
  -2   2  11   11.96    0.08   1
   0   2  11   40.24    0.19   1
   2   2  11   38.18    0.19   1
   4   2  11     2.9    0.05   1
   6   2  11    0.38    0.04   1
   8   2  11     3.7    0.09   1
  10   2  11    0.44    0.06   1
 -11   3  11    6.65    0.15   1
  -9   3  11     0.3    0.05   1
  -7   3  11    0.98    0.04   1
  -5   3  11   26.69    0.18   1
  -3   3  11   21.17    0.13   1
  -1   3  11    4.58    0.05   1
   1   3  11  128.49    0.59   1
   3   3  11    7.98    0.08   1
   5   3  11    1.76    0.05   1
   7   3  11   10.85    0.16   1
   9   3  11   21.04    0.25   1
 -10   4  11    0.28    0.05   1
  -8   4  11   -0.01    0.03   1
  -6   4  11    1.12    0.04   1
  -4   4  11     3.9    0.06   1
  -2   4  11   10.12    0.09   1
   0   4  11    1.06    0.03   1
   2   4  11    3.43    0.06   1
   4   4  11    0.03    0.02   1
   6   4  11    0.97    0.05   1
   8   4  11    5.87    0.13   1
  -9   5  11    0.04    0.05   1
  -7   5  11    3.33    0.08   1
  -5   5  11    0.67    0.04   1
  -3   5  11    6.74    0.09   1
  -1   5  11   21.33    0.17   1
   1   5  11   20.01    0.17   1
   3   5  11    5.29    0.08   1
   5   5  11    0.69    0.05   1
   7   5  11    0.23    0.04   1
  -8   6  11    1.79    0.09   1
  -6   6  11    0.77    0.06   1
  -4   6  11    0.07    0.03   1
  -2   6  11    0.58    0.04   1
   0   6  11    0.28    0.04   1
   2   6  11    2.15    0.07   1
   4   6  11    0.17    0.04   1
   6   6  11    22.4    0.26   1
  -7   7  11    0.17    0.05   1
  -5   7  11    0.39    0.05   1
  -3   7  11    0.47    0.05   1
  -1   7  11    6.42    0.11   1
   1   7  11    1.56    0.07   1
   3   7  11   14.07    0.19   1
   5   7  11   13.08    0.19   1
  -4   8  11    0.44    0.07   1
  -2   8  11     3.6    0.12   1
   0   8  11    0.94    0.07   1
   2   8  11    1.65    0.08   1
 -10   0  12    0.35    0.08   1
  -8   0  12     5.5    0.15   1
  -2   0   4  309.47    1.72  -2
  -6   0  12  347.86    2.26   1
  -4   0  12    2.82    0.07   1
  -2   0  12     1.2    0.04   1
   0   0   4   49.95    0.25  -2
   0   0  12    0.47    0.04   1
   2   0  12   82.39    0.48   1
   4   0  12    0.21    0.03   1
   2   0   4   196.1     1.1  -2
   6   0  12   24.65    0.27   1
   8   0  12   11.91    0.19   1
 -11   1  12   -0.06    0.05   1
  -9   1  12   32.29    0.31   1
  -7   1  12    0.06    0.02   1
  -5   1  12    7.37    0.08   1
  -3   1  12    2.41    0.04   1
  -1   1  12    0.05    0.01   1
   1   1  12   10.23    0.07   1
   3   1  12    3.88    0.05   1
   5   1  12   23.77    0.18   1
   7   1  12    7.01    0.11   1
   9   1  12    1.11    0.07   1
 -10   2  12    2.76     0.1   1
  -8   2  12    7.54    0.11   1
  -6   2  12   17.18    0.13   1
  -4   2  12   44.49    0.24   1
  -2   2  12   21.65    0.12   1
   0   2  12    0.46    0.02   1
   2   2  12   73.85    0.33   1
   4   2  12   11.82    0.11   1
   6   2  12    3.04    0.08   1
   8   2  12    2.44    0.08   1
 -11   3  12    3.35    0.15   1
  -3   1   4    0.06    0.01  -2
  -9   3  12    1.63    0.08   1
  -7   3  12    1.74    0.05   1
  -5   3  12   11.03     0.1   1
  -1   1   4  160.34    0.61  -2
  -3   3  12    7.48    0.07   1
  -1   3  12   15.21    0.11   1
   1   3  12   29.69    0.18   1
   1   1   4  178.76    0.71  -2
   3   3  12    5.08    0.06   1
   5   3  12    0.45    0.03   1
   7   3  12    2.11    0.08   1
   3   1   4    21.7    0.11  -2
   9   3  12    4.79    0.12   1
 -10   4  12     1.5    0.09   1
  -8   4  12    4.82    0.12   1
  -6   4  12    0.01    0.02   1
  -4   4  12    0.06    0.02   1
  -2   4  12   17.05    0.12   1
   0   4  12   16.88    0.13   1
   2   4  12   15.07    0.12   1
   4   4  12    1.48    0.05   1
   6   4  12    2.56    0.07   1
   8   4  12    9.01    0.15   1
  -9   5  12    1.74     0.1   1
  -7   5  12    3.44    0.08   1
  -5   5  12    0.03    0.03   1
  -3   5  12    5.28    0.08   1
  -1   5  12   10.74    0.12   1
   1   5  12    0.02    0.02   1
   3   5  12    4.41    0.08   1
   5   5  12    1.96    0.08   1
   7   5  12    0.02    0.04   1
  -8   6  12    3.59    0.11   1
  -2   2   4    2.45    0.02  -2
  -6   6  12   33.98     0.3   1
  -4   6  12    1.73    0.07   1
  -2   6  12    0.54    0.05   1
   0   2   4  149.61     0.6  -2
   0   6  12    4.71    0.09   1
   2   6  12    2.27    0.08   1
   4   6  12    6.27    0.13   1
   2   2   4    2.37    0.03  -2
   6   6  12    2.17    0.09   1
  -7   7  12    0.09    0.05   1
  -5   7  12     0.4    0.06   1
  -3   7  12    1.99    0.08   1
  -1   7  12    2.53    0.08   1
   1   7  12    0.02    0.03   1
   3   7  12    1.84    0.09   1
   5   7  12    1.37    0.08   1
  -4   8  12    4.17    0.13   1
  -2   8  12    0.08    0.05   1
   0   8  12    0.73    0.09   1
   2   8  12    7.67    0.19   1
 -10   0  13    0.07    0.07   1
  -8   0  13   -0.04    0.04   1
  -6   0  13     0.0    0.03   1
  -4   0  13     0.0    0.02   1
  -2   0  13   -0.01    0.02   1
   0   0  13     0.4    0.05   1
   2   0  13     0.0    0.02   1
   4   0  13    0.03    0.02   1
   6   0  13   -0.03    0.03   1
   8   0  13    0.03    0.04   1
 -11   1  13    8.92    0.19   1
  -9   1  13    9.58    0.15   1
  -7   1  13   -0.04    0.02   1
  -5   1  13   11.39    0.11   1
  -3   1  13   23.08    0.14   1
  -1   1  13   23.13    0.13   1
   1   1  13   78.28    0.34   1
   3   1  13    0.89    0.03   1
   5   1  13    1.94    0.06   1
   7   1  13     0.1    0.04   1
   9   1  13    2.05    0.09   1
 -10   2  13    9.09    0.19   1
  -8   2  13    1.59    0.06   1
  -6   2  13   64.86    0.35   1
  -4   2  13    0.66    0.03   1
  -2   2  13    5.84    0.06   1
   0   2  13    0.04    0.01   1
   2   2  13   13.08    0.11   1
   4   2  13    0.69    0.03   1
   6   2  13    9.25    0.13   1
   8   2  13     2.5    0.09   1
  -9   3  13    0.08    0.04   1
  -7   3  13    6.23    0.09   1
  -5   3  13    6.87    0.08   1
  -3   3  13    3.07    0.05   1
  -1   3  13   22.23    0.14   1
   1   3  13   35.34    0.21   1
   3   3  13    7.59    0.09   1
   5   3  13    9.09    0.11   1
   7   3  13    2.56    0.09   1
 -10   4  13    0.27    0.07   1
  -8   4  13   13.89    0.18   1
  -6   4  13   22.58    0.19   1
  -4   4  13   17.06    0.16   1
  -2   4  13    1.46    0.04   1
   0   4  13    8.19    0.09   1
   2   4  13    3.64    0.06   1
   4   4  13    0.06    0.02   1
   6   4  13   -0.01    0.03   1
   8   4  13   22.05    0.24   1
  -9   5  13    11.6    0.22   1
  -7   5  13    0.32    0.04   1
  -5   5  13     3.1    0.08   1
  -3   5  13    2.97    0.07   1
  -1   5  13    1.57    0.05   1
   1   5  13    9.79    0.11   1
   3   5  13   14.21    0.14   1
   5   5  13     5.5    0.12   1
   7   5  13    8.27    0.16   1
  -8   6  13    0.55    0.06   1
  -6   6  13    5.96    0.12   1
  -4   6  13    1.38    0.07   1
  -2   6  13     1.0    0.06   1
   0   6  13    0.25    0.04   1
   2   6  13   -0.05    0.03   1
   4   6  13    3.32    0.09   1
   6   6  13    0.01    0.05   1
  -5   7  13    4.43    0.12   1
  -3   7  13   -0.02    0.04   1
  -1   7  13    4.21    0.11   1
   1   7  13    2.98    0.09   1
   3   7  13   -0.04    0.04   1
  -2   8  13    0.52    0.06   1
   0   8  13    1.95     0.1   1
 -10   0  14   30.36     0.5   1
  -8   0  14    1.25    0.08   1
  -6   0  14    0.16    0.04   1
  -4   0  14   30.87     0.3   1
  -2   0  14   24.88    0.19   1
   0   0  14    9.99    0.12   1
   2   0  14   58.76    0.46   1
   4   0  14   41.32    0.37   1
   6   0  14    3.97    0.12   1
   8   0  14    3.19    0.17   1
 -11   1  14     1.2    0.17   1
  -9   1  14    7.22    0.13   1
  -7   1  14    8.58    0.11   1
  -5   1  14    0.15    0.02   1
  -3   1  14    0.56    0.03   1
  -1   1  14    0.66    0.03   1
   1   1  14  197.85    0.88   1
   3   1  14    3.68    0.05   1
   5   1  14    0.65    0.05   1
   7   1  14    0.54    0.05   1
   9   1  14   22.92    0.27   1
 -10   2  14    1.11    0.09   1
  -8   2  14   18.44    0.18   1
  -6   2  14   42.91    0.28   1
  -4   2  14    6.62    0.07   1
  -2   2  14    5.75    0.06   1
   0   2  14    1.66    0.04   1
   2   2  14    0.01    0.02   1
   4   2  14    0.51    0.03   1
   6   2  14   12.24    0.16   1
   8   2  14    1.71    0.08   1
  -9   3  14    2.26     0.1   1
  -7   3  14    0.08    0.03   1
  -5   3  14   12.43    0.12   1
  -3   3  14   12.31    0.11   1
  -1   3  14    2.73    0.05   1
   1   3  14    0.73    0.03   1
   3   3  14   15.12    0.13   1
   5   3  14   13.25    0.15   1
   7   3  14    3.62     0.1   1
  -8   4  14    0.69    0.05   1
  -6   4  14    1.56    0.06   1
  -4   4  14     1.1    0.05   1
  -2   4  14   11.94    0.12   1
   0   4  14    0.07    0.02   1
   2   4  14    7.47    0.09   1
   4   4  14    10.2    0.12   1
   6   4  14    4.43     0.1   1
  -9   5  14    0.53    0.14   1
  -7   5  14    6.24    0.11   1
  -5   5  14    14.7    0.16   1
  -3   5  14    2.61    0.07   1
  -1   5  14   14.49    0.15   1
   1   5  14    9.32    0.11   1
   3   5  14    3.61    0.08   1
   5   5  14     1.0    0.07   1
  -6   6  14    0.01    0.04   1
  -4   6  14    0.48    0.05   1
  -2   6  14    2.53    0.08   1
   0   6  14    3.29    0.08   1
   2   6  14    2.39    0.08   1
   4   6  14    0.31    0.05   1
  -5   7  14    0.98    0.07   1
  -3   7  14    0.15    0.04   1
  -1   7  14    9.83    0.15   1
   1   7  14   24.35    0.23   1
   3   7  14    2.52    0.09   1
 -10   0  15    0.01    0.07   1
  -8   0  15    0.04    0.04   1
  -2   0   5    0.01    0.01  -2
  -6   0  15    0.02    0.03   1
  -4   0  15    0.05    0.03   1
  -2   0  15     0.0    0.02   1
   0   0  15    0.69    0.09   1
   2   0  15    0.02    0.03   1
   4   0  15   -0.05    0.03   1
   2   0   5    0.01    0.01  -2
   6   0  15   -0.05    0.04   1
   8   0  15     0.0    0.08   1
  -9   1  15     0.1    0.04   1
  -7   1  15    0.76    0.04   1
  -5   1  15    6.65    0.09   1
  -3   1  15   28.32    0.19   1
  -1   1  15   16.42    0.12   1
   1   1  15   28.63    0.18   1
   3   1  15    2.56    0.06   1
   5   1  15    2.08    0.08   1
   7   1  15     3.7    0.11   1
 -10   2  15    2.28    0.11   1
  -8   2  15    4.14    0.09   1
  -6   2  15   47.42    0.31   1
  -4   2  15    7.01    0.09   1
  -2   2  15    0.35    0.03   1
   0   2  15    7.01    0.08   1
   2   2  15    21.8    0.16   1
   4   2  15    3.73    0.07   1
   6   2  15    1.06    0.06   1
   8   2  15   38.74    0.37   1
  -3   1   5   27.72    0.12  -2
  -9   3  15   19.45    0.24   1
  -7   3  15    6.04    0.11   1
  -5   3  15     1.0    0.05   1
  -1   1   5   99.64    0.41  -2
  -3   3  15    3.17    0.06   1
  -1   3  15   24.16    0.17   1
   1   3  15    1.88    0.05   1
   1   1   5   21.39     0.1  -2
   3   3  15    0.15    0.02   1
   5   3  15   -0.02    0.03   1
   7   3  15    2.23    0.08   1
  -8   4  15    0.17    0.05   1
  -6   4  15   79.67    0.47   1
  -4   4  15    2.27    0.07   1
  -2   4  15     0.0    0.02   1
   0   4  15     0.2    0.02   1
   2   4  15    3.56    0.07   1
   4   4  15    2.65    0.07   1
   6   4  15    9.47    0.14   1
  -7   5  15    0.13    0.04   1
  -5   5  15    1.65    0.07   1
  -3   5  15    0.19    0.04   1
  -1   5  15    0.21    0.03   1
   1   5  15    6.75     0.1   1
   3   5  15    1.03    0.05   1
   5   5  15    1.61    0.08   1
  -2   2   5     6.9    0.05  -2
  -6   6  15    1.77    0.08   1
  -4   6  15    3.27     0.1   1
  -2   6  15    9.35    0.14   1
   0   2   5    4.45    0.03  -2
   0   6  15    6.36    0.12   1
   2   6  15    0.13    0.04   1
   4   6  15   -0.05    0.04   1
  -5   7  15    2.41    0.12   1
  -3   7  15   11.75    0.19   1
  -1   7  15    0.41    0.05   1
   1   7  15    0.16    0.04   1
 -10   0  16    4.09    0.16   1
  -8   0  16    38.3    0.39   1
  -6   0  16    8.14    0.15   1
  -4   0  16   13.55    0.19   1
  -2   0  16   16.73    0.18   1
   0   0  16   35.75    0.26   1
   2   0  16   26.41    0.27   1
   4   0  16     5.0    0.12   1
   6   0  16    5.96     0.2   1
   8   0  16   48.39     0.7   1
  -9   1  16    0.09    0.04   1
  -7   1  16    2.53    0.07   1
  -5   1  16    3.79    0.07   1
  -3   1  16    5.76    0.08   1
  -1   1  16    0.25    0.02   1
   1   1  16   60.54    0.32   1
   3   1  16   10.06    0.12   1
   5   1  16    0.26    0.04   1
   7   1  16   -0.03    0.04   1
 -10   2  16    5.91    0.22   1
  -8   2  16    0.18    0.04   1
  -6   2  16   27.69    0.22   1
  -4   2  16    0.84    0.04   1
  -2   2  16   10.71    0.12   1
   0   2  16    0.61    0.03   1
   2   2  16   17.89    0.15   1
   4   2  16   29.06    0.25   1
   6   2  16    2.51    0.09   1
  -9   3  16    0.21    0.05   1
  -7   3  16    1.01    0.05   1
  -5   3  16    0.23    0.03   1
  -3   3  16    0.47    0.04   1
  -1   3  16    2.29    0.06   1
   1   3  16   12.61    0.13   1
   3   3  16    0.02    0.02   1
   5   3  16    6.27    0.11   1
   7   3  16    4.35    0.12   1
  -8   4  16    4.96    0.13   1
  -6   4  16    31.8    0.27   1
  -4   4  16     6.4    0.11   1
  -2   4  16    0.04    0.03   1
   0   4  16    0.62    0.03   1
   2   4  16    2.58    0.06   1
   4   4  16    1.13    0.06   1
   6   4  16    2.67    0.09   1
  -7   5  16     4.2     0.1   1
  -5   5  16    7.03    0.13   1
  -3   5  16    0.31    0.04   1
  -1   5  16    0.48    0.04   1
   1   5  16   12.91    0.14   1
   3   5  16    0.38    0.04   1
   5   5  16    9.72    0.19   1
  -6   6  16    15.0    0.24   1
  -4   6  16    6.89    0.14   1
  -2   6  16    0.41    0.05   1
   0   6  16    3.65     0.1   1
   2   6  16    8.14    0.13   1
   4   6  16    0.72    0.07   1
  -3   7  16     2.9    0.13   1
  -1   7  16    4.74    0.12   1
   1   7  16    4.65    0.14   1
 -10   0  17    0.03    0.07   1
  -8   0  17    0.01    0.04   1
  -6   0  17   -0.05    0.04   1
  -4   0  17    0.02    0.03   1
  -2   0  17    0.05    0.03   1
   2   0  17    0.04    0.03   1
   4   0  17   -0.02    0.04   1
   6   0  17   -0.11    0.06   1
  -9   1  17    2.32    0.09   1
  -7   1  17    4.42    0.09   1
  -5   1  17     3.0    0.07   1
  -3   1  17    9.38     0.1   1
  -1   1  17   20.02    0.17   1
   1   1  17    7.72     0.1   1
   3   1  17     0.6    0.04   1
   5   1  17    7.26    0.13   1
   7   1  17   12.54    0.19   1
  -8   2  17    0.84    0.05   1
  -6   2  17    0.56    0.04   1
  -4   2  17    3.64    0.07   1
  -2   2  17     3.4    0.08   1
   0   2  17    3.05    0.07   1
   2   2  17    2.18    0.06   1
   4   2  17    1.12    0.06   1
   6   2  17     0.2    0.05   1
  -9   3  17    0.15    0.07   1
  -7   3  17   20.79    0.21   1
  -5   3  17    1.64    0.06   1
  -3   3  17     6.4    0.11   1
  -1   3  17    0.88    0.05   1
   1   3  17  125.35    0.65   1
   3   3  17    4.27    0.09   1
   5   3  17    0.04    0.04   1
  -8   4  17    0.09    0.05   1
  -6   4  17    1.68    0.07   1
  -4   4  17    0.03    0.04   1
  -2   4  17    1.85    0.07   1
   0   4  17    0.01    0.03   1
   2   4  17    2.77    0.07   1
   4   4  17     4.9    0.12   1
  -7   5  17    13.7    0.24   1
  -5   5  17    3.15    0.11   1
  -3   5  17   10.46    0.17   1
  -1   5  17   13.71    0.16   1
   1   5  17   15.55    0.16   1
   3   5  17    6.41     0.1   1
  -4   6  17    7.16    0.15   1
  -2   6  17    5.34    0.13   1
   0   6  17    1.81    0.08   1
   2   6  17    0.05    0.04   1
  -8   0  18    0.26    0.06   1
  -2   0   6   32.07    0.19  -2
  -6   0  18   53.61    0.49   1
  -4   0  18    4.94    0.12   1
  -2   0  18    1.93    0.08   1
   0   0   6   487.6    2.29  -2
   0   0  18    5.25    0.26   1
   2   0  18   18.99    0.23   1
   4   0  18   18.61    0.35   1
   2   0   6  186.04    1.05  -2
   6   0  18     3.2    0.17   1
  -9   1  18    0.34    0.05   1
  -7   1  18    5.26     0.1   1
  -5   1  18    1.61    0.06   1
  -3   1  18    5.53    0.08   1
  -1   1  18    4.07    0.08   1
   1   1  18    4.26    0.08   1
   3   1  18    0.26    0.04   1
   5   1  18    5.48    0.12   1
  -8   2  18   12.06    0.16   1
  -6   2  18    0.41    0.04   1
  -4   2  18    8.34    0.11   1
  -2   2  18     2.2    0.07   1
   0   2  18   13.75    0.15   1
   2   2  18    2.91    0.07   1
   4   2  18    1.48    0.07   1
   6   2  18    1.01    0.07   1
  -7   3  18    1.54    0.07   1
  -5   3  18    1.38    0.06   1
  -1   1   6    6.71    0.04  -2
  -3   3  18    0.31    0.04   1
  -1   3  18    0.86    0.05   1
   1   3  18    2.63    0.07   1
   1   1   6   77.91     0.3  -2
   3   3  18    2.65    0.08   1
   5   3  18    0.44    0.05   1
  -6   4  18    0.11    0.04   1
  -4   4  18   12.02    0.18   1
  -2   4  18     0.3    0.05   1
   0   4  18     5.2     0.1   1
   2   4  18   13.18    0.15   1
   4   4  18    7.63    0.15   1
  -5   5  18    2.18     0.1   1
  -3   5  18   11.32    0.18   1
  -1   5  18    1.32    0.07   1
   1   5  18   14.21    0.18   1
   3   5  18    0.34    0.05   1
  -4   6  18    7.07     0.4   1
  -2   6  18     0.5    0.07   1
   0   2   6    2.37    0.02  -2
   0   6  18    5.75    0.14   1
  -8   0  19   -0.04    0.05   1
  -6   0  19    0.07    0.05   1
  -4   0  19    0.04    0.04   1
  -2   0  19   -0.02    0.03   1
   2   0  19   -0.02    0.04   1
   4   0  19   -0.07    0.05   1
   6   0  19     0.0    0.07   1
  -7   1  19    1.63    0.07   1
  -5   1  19    0.31    0.04   1
  -3   1  19    1.16    0.05   1
  -1   1  19    3.59    0.08   1
   1   1  19    8.69    0.12   1
   3   1  19    5.36     0.1   1
   5   1  19     2.8    0.11   1
  -8   2  19    0.38    0.05   1
  -6   2  19   13.64    0.17   1
  -4   2  19    5.46    0.09   1
  -2   2  19     1.0    0.05   1
   0   2  19   11.55    0.15   1
   2   2  19    0.16    0.03   1
   4   2  19    0.08    0.04   1
  -7   3  19    5.95    0.12   1
  -5   3  19    7.84    0.12   1
  -3   3  19   24.47    0.24   1
  -1   3  19   10.38    0.14   1
   1   3  19    8.67    0.13   1
   3   3  19    6.44    0.11   1
  -6   4  19    8.05    0.15   1
  -4   4  19    6.11    0.14   1
  -2   4  19    9.85    0.16   1
   0   4  19   26.83    0.25   1
   2   4  19    0.91    0.05   1
   4   4  19    0.33    0.06   1
  -5   5  19    0.51    0.08   1
  -3   5  19    2.17     0.1   1
  -1   5  19    0.11    0.04   1
   1   5  19    24.2    0.25   1
  -8   0  20    2.77    0.12   1
  -6   0  20     5.1    0.14   1
  -4   0  20    2.82     0.1   1
  -2   0  20    0.11    0.05   1
   2   0  20    0.03    0.05   1
   4   0  20    0.16    0.07   1
  -7   1  20   26.53    0.23   1
  -5   1  20    0.38    0.04   1
  -3   1  20    0.21    0.04   1
  -1   1  20    6.13    0.13   1
   1   1  20   22.99    0.23   1
   3   1  20   10.12    0.14   1
   5   1  20    3.48    0.13   1
  -6   2  20    1.05    0.06   1
  -4   2  20    1.71    0.07   1
  -2   2  20    0.23    0.04   1
   0   2  20    4.86    0.12   1
   2   2  20   13.63    0.17   1
   4   2  20    5.85    0.13   1
  -7   3  20    0.34    0.06   1
  -5   3  20    0.49    0.05   1
  -3   3  20    0.87    0.05   1
  -1   3  20    2.42    0.08   1
   1   3  20    0.34    0.05   1
   3   3  20    0.09    0.04   1
  -4   4  20    6.11    0.13   1
  -2   4  20    0.08    0.04   1
   0   4  20    2.71     0.1   1
   2   4  20    2.81    0.11   1
  -3   5  20    0.26    0.12   1
  -1   5  20    0.78    0.08   1
  -2   0   7    0.01    0.01  -2
  -6   0  21    0.08    0.05   1
  -4   0  21    0.02    0.04   1
  -2   0  21     0.0    0.06   1
   2   0  21    0.01    0.05   1
   4   0  21    0.01    0.07   1
  -7   1  21    1.92    0.08   1
  -5   1  21    1.08    0.06   1
  -3   1  21   10.37    0.15   1
  -1   1  21    2.54    0.09   1
   1   1  21     4.3    0.11   1
   3   1  21    0.67    0.06   1
  -6   2  21    3.42     0.1   1
  -4   2  21    13.2    0.17   1
  -2   2  21     2.4    0.08   1
   0   2  21   10.73    0.17   1
   2   2  21    1.52    0.07   1
  -5   3  21    0.08    0.04   1
  -1   1   7   14.73    0.08  -2
  -3   3  21    6.56    0.12   1
  -1   3  21     0.8    0.06   1
   1   3  21    2.68     0.1   1
  -4   4  21   37.85    0.81   1
  -2   4  21    0.37    0.06   1
   0   4  21    5.84    0.14   1
  -6   0  22    6.23    0.16   1
  -4   0  22    18.2    0.31   1
  -2   0  22    0.91    0.11   1
   0   0  22   39.46    0.59   1
   2   0  22    2.79    0.16   1
  -5   1  22    2.75     0.1   1
  -3   1  22    6.52    0.13   1
  -1   1  22    4.05    0.12   1
   1   1  22    2.22    0.11   1
  -4   2  22    9.72    0.16   1
  -2   2  22    0.02    0.04   1
   0   2  22     3.2    0.11   1
   2   2  22    1.42    0.08   1
  -3   3  22    0.72    0.06   1
  -1   3  22     3.7    0.12   1
  -4   0  23   -0.01    0.08   1
  -2   0  23   -0.02    0.07   1
  -3   1  23   -0.01    0.05   1
  -1   1  23     0.5    0.07   1
  -2   2  23    0.92    0.09   1
   0   0   0     0.0     0.0   1
;
_shelx_hkl_checksum              68528
loop_
_space_group_symop_operation_xyz
'x, y, z'
'-x, y, -z+1/2'
'x+1/2, y+1/2, z'
'-x+1/2, y+1/2, -z+1/2'
'-x, -y, -z'
'x, -y, z-1/2'
'-x+1/2, -y+1/2, -z'
'x+1/2, -y+1/2, z-1/2'
loop_
_atom_site_label
_atom_site_type_symbol
_atom_site_fract_x
_atom_site_fract_y
_atom_site_fract_z
_atom_site_U_iso_or_equiv
_atom_site_adp_type
_atom_site_occupancy
_atom_site_site_symmetry_order
_atom_site_calc_flag
_atom_site_refinement_flags_posn
_atom_site_refinement_flags_adp
N1 N 0.30688(9) 0.75618(12) 0.23989(4) 0.02159(18) Uani 1 1 d . .
C1 C 0.65124(8) 0.52594(11) 0.48397(4) 0.01337(16) Uani 1 1 d . .
H1 H 0.7532 0.5422 0.4743 0.016 Uiso 1 1 calc R U
N2 N -0.02032(8) 0.56592(12) 0.40011(5) 0.02133(18) Uani 1 1 d . .
C2 C 0.53550(8) 0.57996(11) 0.42556(4) 0.01349(16) Uani 1 1 d . .
H2 H 0.5572 0.6338 0.3754 0.016 Uiso 1 1 calc R U
C4 C 0.26081(8) 0.61022(11) 0.37927(5) 0.01357(16) Uani 1 1 d . .
C3 C 0.37907(8) 0.55637(10) 0.43887(4) 0.01240(16) Uani 1 1 d . .
C6 C 0.10475(9) 0.58526(11) 0.39042(5) 0.01540(16) Uani 1 1 d . .
C5 C 0.28657(9) 0.69138(11) 0.30188(5) 0.01578(17) Uani 1 1 d . .
loop_
_atom_site_aniso_label
_atom_site_aniso_U_11
_atom_site_aniso_U_22
_atom_site_aniso_U_33
_atom_site_aniso_U_23
_atom_site_aniso_U_13
_atom_site_aniso_U_12
N1 0.0225(4) 0.0240(4) 0.0184(3) 0.0031(3) 0.0030(3) 0.0010(3)
C1 0.0128(3) 0.0143(3) 0.0137(3) -0.0005(2) 0.0040(2) -0.0011(2)
N2 0.0165(3) 0.0264(4) 0.0211(3) 0.0000(3) 0.0029(2) -0.0001(3)
C2 0.0133(3) 0.0145(3) 0.0133(3) 0.0004(2) 0.0041(2) -0.0012(2)
C4 0.0135(3) 0.0139(3) 0.0135(3) -0.0008(2) 0.0025(2) -0.0006(2)
C3 0.0127(3) 0.0121(3) 0.0128(3) -0.0011(2) 0.0031(2) -0.0005(2)
C6 0.0156(3) 0.0162(3) 0.0141(3) -0.0003(2) 0.0010(2) 0.0003(3)
C5 0.0146(3) 0.0166(3) 0.0158(3) -0.0006(3) 0.0010(2) 0.0004(3)
loop_
_atom_type_symbol
_atom_type_description
_atom_type_scat_dispersion_real
_atom_type_scat_dispersion_imag
_atom_type_scat_source
C C 0.0033 0.0016 'International Tables Vol C Tables 4.2.6.8 and 6.1.1.4'
H H 0.0000 0.0000 'International Tables Vol C Tables 4.2.6.8 and 6.1.1.4'
N N 0.0061 0.0033 'International Tables Vol C Tables 4.2.6.8 and 6.1.1.4'
loop_
_geom_angle_atom_site_label_1
_geom_angle_atom_site_label_2
_geom_angle_atom_site_label_3
_geom_angle
_geom_angle_site_symmetry_1
_geom_angle_site_symmetry_3
C2 C1 C3 120.64(7) . 5_666
C2 C1 H1 119.7 . .
C3 C1 H1 119.7 5_666 .
C1 C2 C3 120.67(7) . .
C1 C2 H2 119.7 . .
C3 C2 H2 119.7 . .
C3 C4 C6 121.89(7) . .
C3 C4 C5 122.02(7) . .
C6 C4 C5 116.09(7) . .
C4 C3 C2 120.83(7) . .
C4 C3 C1 120.49(7) . 5_666
C2 C3 C1 118.68(6) . 5_666
N2 C6 C4 179.36(8) . .
N1 C5 C4 179.86(10) . .
loop_
_geom_bond_atom_site_label_1
_geom_bond_atom_site_label_2
_geom_bond_distance
_geom_bond_site_symmetry_2
N1 C5 1.1509(11) .
C1 C2 1.3552(11) .
C1 C3 1.4504(11) 5_666
C1 H1 0.9500 .
N2 C6 1.1543(11) .
C2 C3 1.4489(11) .
C2 H2 0.9500 .
C4 C3 1.3813(11) .
C4 C6 1.4368(11) .
C4 C5 1.4388(11) .
C3 C1 1.4505(11) 5_666

_cod_database_fobs_code 2300562
