#------------------------------------------------------------------------------
#$Date: 2018-08-13 16:26:29 +0300 (Mon, 13 Aug 2018) $
#$Revision: 209649 $
#$URL: file:///home/coder/svn-repositories/cod/cif/2/30/04/2300423.cif $
#------------------------------------------------------------------------------
#
# This file is available in the Crystallography Open Database (COD),
# http://www.crystallography.net/. The original data for this entry
# were provided the Crystal Eye server at
# http://wwmm.ch.cam.ac.uk/crystaleye/, created by Nick Day at the
# Peter Murray-Rust laboratory.
#
# The file may be used within the scientific community so long as
# proper attribution is given to the journal article from which the
# data were obtained.
#
data_2300423
loop_
_publ_author_name
'Eccles, Kevin S.'
'Stokes, Stephen P.'
'Daly, Carla A.'
'Barry, Nicola M.'
'McSweeney, Sharon P.'
'O'Neill, Damian J.'
'Kelly, Dawn M.'
'Jennings, W. Brian'
'N\'i Dhubhghaill, O. M.'
'Moynihan, Humphrey A.'
'Maguire, Anita R.'
'Lawrence, Simon E.'
_publ_section_title
;
 Evaluation of the Bruker SMART X2S: crystallography for the
 nonspecialist?
;
_journal_coden_ASTM              JACGAR
_journal_coeditor_code           KK5074
_journal_issue                   1
_journal_name_full               'Journal of Applied Crystallography'
_journal_page_first              213
_journal_page_last               215
_journal_paper_doi               10.1107/S0021889810042561
_journal_volume                  44
_journal_year                    2011
_chemical_formula_moiety         'C7 H5 N O3 S'
_chemical_formula_sum            'C7 H0 N O3 S'
_chemical_formula_weight         178.14
_space_group_IT_number           14
_symmetry_cell_setting           monoclinic
_symmetry_space_group_name_Hall  '-P 2ybc'
_symmetry_space_group_name_H-M   'P 1 21/c 1'
_atom_sites_solution_hydrogens   geom
_atom_sites_solution_primary     direct
_atom_sites_solution_secondary   difmap
_audit_creation_method           SHELXL-97
_cell_angle_alpha                90.00
_cell_angle_beta                 103.834(6)
_cell_angle_gamma                90.00
_cell_formula_units_Z            4
_cell_length_a                   9.6083(16)
_cell_length_b                   6.9347(10)
_cell_length_c                   11.882(2)
_cell_measurement_reflns_used    1234
_cell_measurement_temperature    300(2)
_cell_measurement_theta_max      21.50
_cell_measurement_theta_min      3.43
_cell_volume                     768.7(2)
_computing_cell_refinement       'Bruker SAINT'
_computing_data_collection       'Bruker GIS'
_computing_data_reduction        'Bruker SAINT'
_computing_molecular_graphics    'Bruker APEX2'
_computing_structure_refinement  'SHELXL-97 (Sheldrick, 2008)'
_computing_structure_solution    'SHELXS-97 (Sheldrick, 2008)'
_diffrn_ambient_temperature      300(2)
_diffrn_measured_fraction_theta_full 0.999
_diffrn_measured_fraction_theta_max 0.999
_diffrn_measurement_device_type  'Bruker SMART X2S'
_diffrn_measurement_method       '\w scans'
_diffrn_radiation_monochromator  'doubly curved silicon crystal'
_diffrn_radiation_source         'micro-focus sealed tube'
_diffrn_radiation_type           MoK\a
_diffrn_radiation_wavelength     0.71073
_diffrn_reflns_av_R_equivalents  0.0347
_diffrn_reflns_av_sigmaI/netI    0.0358
_diffrn_reflns_limit_h_max       11
_diffrn_reflns_limit_h_min       -10
_diffrn_reflns_limit_k_max       8
_diffrn_reflns_limit_k_min       -8
_diffrn_reflns_limit_l_max       13
_diffrn_reflns_limit_l_min       -14
_diffrn_reflns_number            4799
_diffrn_reflns_theta_full        25.00
_diffrn_reflns_theta_max         25.00
_diffrn_reflns_theta_min         2.18
_exptl_absorpt_coefficient_mu    0.380
_exptl_absorpt_correction_T_max  0.9813
_exptl_absorpt_correction_T_min  0.8599
_exptl_absorpt_correction_type   multi-scan
_exptl_absorpt_process_details   'SADABS V2008/1 (Bruker AXS)'
_exptl_crystal_colour            colorless
_exptl_crystal_density_diffrn    1.539
_exptl_crystal_density_method    'not measured'
_exptl_crystal_description       plate
_exptl_crystal_F_000             356
_exptl_crystal_size_max          0.32
_exptl_crystal_size_mid          0.25
_exptl_crystal_size_min          0.11
_refine_diff_density_max         0.588
_refine_diff_density_min         -0.467
_refine_ls_extinction_method     none
_refine_ls_goodness_of_fit_ref   1.075
_refine_ls_hydrogen_treatment    constr
_refine_ls_matrix_type           full
_refine_ls_number_parameters     109
_refine_ls_number_reflns         1346
_refine_ls_number_restraints     0
_refine_ls_restrained_S_all      1.075
_refine_ls_R_factor_all          0.0798
_refine_ls_R_factor_gt           0.0593
_refine_ls_shift/su_max          0.025
_refine_ls_shift/su_mean         0.006
_refine_ls_structure_factor_coef Fsqd
_refine_ls_weighting_details
'calc w=1/[\s^2^(Fo^2^)+(0.1150P)^2^+0.9183P] where P=(Fo^2^+2Fc^2^)/3'
_refine_ls_weighting_scheme      calc
_refine_ls_wR_factor_gt          0.1663
_refine_ls_wR_factor_ref         0.1968
_reflns_number_gt                1025
_reflns_number_total             1346
_reflns_threshold_expression     >2sigma(I)
_cod_duplicate_entry             2300333
_cod_data_source_file            kk5074sup1.cif
_cod_data_source_block           Compound_12_X2S
_cod_depositor_comments
;
The following automatic conversions were performed:

'_symmetry_cell_setting' value 'Monoclinic' changed to 'monoclinic'
according to /home/saulius/struct/CIF-dictionaries/cif_core.dic
dictionary named 'cif_core.dic' version 2.4.2 from 2011-04-26.

Automatic conversion script
Id: cif_fix_values 1891 2012-01-12 08:04:46Z andrius 
;
_cod_original_sg_symbol_H-M      P12(1)/c1
_cod_database_code               2300423
loop_
_symmetry_equiv_pos_as_xyz
'x, y, z'
'-x, y+1/2, -z+1/2'
'-x, -y, -z'
'x, -y-1/2, z-1/2'
loop_
_atom_site_type_symbol
_atom_site_label
_atom_site_fract_x
_atom_site_fract_y
_atom_site_fract_z
_atom_site_U_iso_or_equiv
_atom_site_adp_type
_atom_site_calc_flag
_atom_site_refinement_flags
_atom_site_occupancy
S S1 0.21050(11) 0.22887(16) 0.84648(9) 0.0402(4) Uani d . 1
O O1 0.2443(4) 0.1688(5) 0.7411(3) 0.0571(10) Uani d . 1
O O2 0.0844(3) 0.3423(5) 0.8376(3) 0.0613(10) Uani d . 1
O O3 0.3507(4) 0.3425(5) 0.9303(3) 0.0625(10) Uani d . 1
N N1 0.5181(3) 0.3091(4) 1.1032(2) 0.0289(7) Uani d . 1
C C1 0.2217(4) 0.0375(6) 0.9452(3) 0.0370(10) Uani d . 1
C C2 0.1361(5) -0.1235(7) 0.9337(4) 0.0496(12) Uani d . 1
H H2 0.0610 -0.1428 0.8690 0.060 Uiso calc R 1
C C3 0.1681(6) -0.2572(7) 1.0247(5) 0.0555(14) Uani d . 1
H H3 0.1125 -0.3680 1.0203 0.067 Uiso calc R 1
C C4 0.2805(5) -0.2290(7) 1.1214(4) 0.0501(12) Uani d . 1
H H4 0.2979 -0.3194 1.1809 0.060 Uiso calc R 1
C C5 0.4136(5) 0.2491(5) 1.0326(3) 0.0355(10) Uani d . 1
C C6 0.3351(4) 0.0658(5) 1.0399(3) 0.0337(9) Uani d . 1
C C7 0.3660(5) -0.0686(6) 1.1297(4) 0.0448(11) Uani d . 1
H H7 0.4425 -0.0501 1.1935 0.054 Uiso calc R 1
loop_
_atom_site_aniso_label
_atom_site_aniso_U_11
_atom_site_aniso_U_22
_atom_site_aniso_U_33
_atom_site_aniso_U_12
_atom_site_aniso_U_13
_atom_site_aniso_U_23
S1 0.0424(7) 0.0387(7) 0.0351(7) -0.0034(4) 0.0004(5) 0.0003(4)
O1 0.079(2) 0.058(2) 0.0350(17) -0.0078(18) 0.0146(16) -0.0016(15)
O2 0.0475(19) 0.057(2) 0.071(2) 0.0115(16) -0.0027(16) 0.0066(18)
O3 0.067(2) 0.056(2) 0.056(2) -0.0094(18) -0.0039(17) 0.0016(17)
N1 0.0325(16) 0.0295(16) 0.0196(15) -0.0128(13) -0.0037(12) -0.0028(12)
C1 0.039(2) 0.038(2) 0.033(2) -0.0032(18) 0.0074(17) -0.0030(17)
C2 0.050(3) 0.050(3) 0.049(3) -0.018(2) 0.011(2) -0.008(2)
C3 0.060(3) 0.041(3) 0.070(4) -0.017(2) 0.024(3) -0.003(2)
C4 0.065(3) 0.041(3) 0.048(3) -0.006(2) 0.021(2) 0.005(2)
C5 0.046(2) 0.030(2) 0.033(2) 0.0003(17) 0.0131(19) 0.0024(16)
C6 0.040(2) 0.030(2) 0.033(2) -0.0041(17) 0.0107(17) -0.0024(16)
C7 0.058(3) 0.043(2) 0.031(2) 0.000(2) 0.0065(19) 0.0002(18)
loop_
_atom_type_symbol
_atom_type_description
_atom_type_scat_dispersion_real
_atom_type_scat_dispersion_imag
_atom_type_scat_source
C C 0.0033 0.0016 'International Tables Vol C Tables 4.2.6.8 and 6.1.1.4'
H H 0.0000 0.0000 'International Tables Vol C Tables 4.2.6.8 and 6.1.1.4'
N N 0.0061 0.0033 'International Tables Vol C Tables 4.2.6.8 and 6.1.1.4'
O O 0.0106 0.0060 'International Tables Vol C Tables 4.2.6.8 and 6.1.1.4'
S S 0.1246 0.1234 'International Tables Vol C Tables 4.2.6.8 and 6.1.1.4'
loop_
_geom_angle_atom_site_label_1
_geom_angle_atom_site_label_2
_geom_angle_atom_site_label_3
_geom_angle
O2 S1 O1 117.6(2)
O2 S1 O3 109.5(2)
O1 S1 O3 109.9(2)
O2 S1 C1 112.4(2)
O1 S1 C1 111.98(19)
O3 S1 C1 92.66(18)
C5 O3 S1 115.1(3)
C2 C1 C6 122.3(4)
C2 C1 S1 127.4(3)
C6 C1 S1 110.3(3)
C1 C2 C3 116.4(4)
C1 C2 H2 121.8
C3 C2 H2 121.8
C4 C3 C2 121.9(4)
C4 C3 H3 119.1
C2 C3 H3 119.1
C7 C4 C3 120.5(4)
C7 C4 H4 119.8
C3 C4 H4 119.8
N1 C5 O3 124.1(4)
N1 C5 C6 126.6(4)
O3 C5 C6 109.3(3)
C1 C6 C7 120.7(4)
C1 C6 C5 112.7(4)
C7 C6 C5 126.6(4)
C4 C7 C6 118.2(4)
C4 C7 H7 120.9
C6 C7 H7 120.9
loop_
_geom_bond_atom_site_label_1
_geom_bond_atom_site_label_2
_geom_bond_distance
S1 O2 1.428(3)
S1 O1 1.428(3)
S1 O3 1.669(3)
S1 C1 1.758(4)
O3 C5 1.383(5)
N1 C5 1.217(5)
C1 C2 1.374(6)
C1 C6 1.381(6)
C2 C3 1.402(7)
C2 H2 0.9300
C3 C4 1.389(7)
C3 H3 0.9300
C4 C7 1.372(6)
C4 H4 0.9300
C5 C6 1.491(5)
C6 C7 1.394(6)
C7 H7 0.9300
