#------------------------------------------------------------------------------
#$Date: 2020-12-07 03:49:48 +0200 (Mon, 07 Dec 2020) $
#$Revision: 259638 $
#$URL: file:///home/coder/svn-repositories/cod/cif/2/30/06/2300672.cif $
#------------------------------------------------------------------------------
#
# This file is available in the Crystallography Open Database (COD),
# http://www.crystallography.net/. The original data for this entry
# were provided by IUCr Journals, http://journals.iucr.org/.
#
# The file may be used within the scientific community so long as
# proper attribution is given to the journal article from which the
# data were obtained.
#
data_2300672
loop_
_publ_author_name
'McMonagle, Charles J.'
'Allan, David R.'
'Warren, Mark R.'
'Kamenev, Konstantin V.'
'Turner, Gemma F.'
'Moggach, Stephen A.'
_publ_section_title
;
 High-pressure sapphire capillary cell for synchrotron single-crystal
 X-ray diffraction measurements to 1500 bar
;
_journal_coeditor_code           KC5114SUP1
_journal_issue                   6
_journal_name_full               'Journal of Applied Crystallography'
_journal_page_first              1519
_journal_page_last               1523
_journal_paper_doi               10.1107/S1600576720013710
_journal_volume                  53
_journal_year                    2020
_chemical_formula_moiety         'C6 D12 N4'
_chemical_formula_sum            'C6 D12 N4'
_chemical_formula_weight         152.27
_space_group_crystal_system      cubic
_space_group_IT_number           217
_space_group_name_Hall           'I -4 2 3'
_space_group_name_H-M_alt        'I -4 3 m'
_atom_sites_solution_hydrogens   geom
_audit_creation_date             2020-06-10
_audit_creation_method
;
Olex2 1.3
(compiled 2020.02.04 svn.rd84adfe8 for OlexSys, GUI svn.r6032)
;
_cell_angle_alpha                90
_cell_angle_beta                 90
_cell_angle_gamma                90
_cell_formula_units_Z            2
_cell_length_a                   7.01950(10)
_cell_length_b                   7.01950(10)
_cell_length_c                   7.01950(10)
_cell_measurement_reflns_used    1376
_cell_measurement_temperature    297
_cell_measurement_theta_max      29
_cell_measurement_theta_min      4
_cell_volume                     345.874(9)
_computing_molecular_graphics    'Olex2 1.3 (Dolomanov et al., 2009)'
_computing_publication_material  'Olex2 1.3 (Dolomanov et al., 2009)'
_computing_structure_refinement  'SHELXL 2018/3 (Sheldrick, 2015)'
_computing_structure_solution    'SHELXT  (Sheldrick, 2015)'
_diffrn_ambient_temperature      293(2)
_diffrn_measured_fraction_theta_full 0.978
_diffrn_measured_fraction_theta_max 0.981
_diffrn_measurement_device       Area
_diffrn_measurement_method       '\f & \w scans'
_diffrn_radiation_type           MoK\a
_diffrn_radiation_wavelength     0.71073
_diffrn_reflns_av_R_equivalents  0.0151
_diffrn_reflns_av_unetI/netI     0.0061
_diffrn_reflns_Laue_measured_fraction_full 0.978
_diffrn_reflns_Laue_measured_fraction_max 0.981
_diffrn_reflns_limit_h_max       8
_diffrn_reflns_limit_h_min       -6
_diffrn_reflns_limit_k_max       8
_diffrn_reflns_limit_k_min       -8
_diffrn_reflns_limit_l_max       8
_diffrn_reflns_limit_l_min       -8
_diffrn_reflns_number            1374
_diffrn_reflns_point_group_measured_fraction_full 0.986
_diffrn_reflns_point_group_measured_fraction_max 0.988
_diffrn_reflns_theta_full        25.242
_diffrn_reflns_theta_max         26.190
_diffrn_reflns_theta_min         5.811
_exptl_absorpt_coefficient_mu    0.090
_exptl_absorpt_correction_T_max  0.99
_exptl_absorpt_correction_T_min  0.93
_exptl_absorpt_correction_type   multi-scan
_exptl_absorpt_process_details   'SADABS (Siemens, 1996)'
_exptl_crystal_density_diffrn    1.462
_exptl_crystal_density_method    'not measured'
_exptl_crystal_F_000             152
_exptl_crystal_size_max          0.2
_exptl_crystal_size_mid          0.2
_exptl_crystal_size_min          0.1
_refine_diff_density_max         0.088
_refine_diff_density_min         -0.153
_refine_diff_density_rms         0.023
_refine_ls_abs_structure_details
;
 Flack x determined using 30 quotients [(I+)-(I-)]/[(I+)+(I-)]
 (Parsons, Flack and Wagner, Acta Cryst. B69 (2013) 249-259).
;
_refine_ls_abs_structure_Flack   0.3(7)
_refine_ls_extinction_method     none
_refine_ls_goodness_of_fit_ref   1.325
_refine_ls_hydrogen_treatment    constr
_refine_ls_matrix_type           full
_refine_ls_number_parameters     8
_refine_ls_number_reflns         83
_refine_ls_number_restraints     0
_refine_ls_restrained_S_all      1.325
_refine_ls_R_factor_all          0.0311
_refine_ls_R_factor_gt           0.0307
_refine_ls_shift/su_max          0.000
_refine_ls_shift/su_mean         0.000
_refine_ls_structure_factor_coef Fsqd
_refine_ls_weighting_details
'w=1/[\s^2^(Fo^2^)+(0.0436P)^2^+0.0602P] where P=(Fo^2^+2Fc^2^)/3'
_refine_ls_weighting_scheme      calc
_refine_ls_wR_factor_gt          0.0922
_refine_ls_wR_factor_ref         0.0925
_reflns_Friedel_coverage         0.627
_reflns_Friedel_fraction_full    1.000
_reflns_Friedel_fraction_max     1.000
_reflns_number_gt                80
_reflns_number_total             83
_reflns_threshold_expression     'I > 2\s(I)'
_cod_data_source_file            kc5114sup1.cif
_cod_data_source_block           I
_cod_depositor_comments          'Adding full bibliography for 2300672.cif.'
_cod_original_cell_volume        345.875(15)
_cod_database_code               2300672
_cod_database_fobs_code          2300672
_shelx_shelxl_version_number     2018/3
_shelx_space_group_comment
;
The symmetry employed for this shelxl refinement is uniquely defined
by the following loop, which should always be used as a source of
symmetry information in preference to the above space-group names.
They are only intended as comments.
;
_olex2_refinement_description
;
1. Fixed Uiso
 At 1.2 times of:
  All C(H,H) groups
2. Others
 Fixed Sof: D2A(0.25) D2B(0.25)
3.a Secondary CH2 refined with riding coordinates:
 C2(D2A,D2B)
;
_shelx_res_file
;
TITL ST7035
    st7035.res
    created by SHELXL-2018/3 at 12:08:51 on 10-Jun-2020
CELL 0.71073 7.0195 7.0195 7.0195 90 90 90
ZERR 2 0.0001 0.0001 0.0001 0 0 0
LATT -2
SYMM +Y,+Z,+X
SYMM +Z,+X,+Y
SYMM +Y,-X,-Z
SYMM +Z,-Y,-X
SYMM +X,-Z,-Y
SYMM -X,-Y,+Z
SYMM -Z,+X,-Y
SYMM -X,+Y,-Z
SYMM -Y,-Z,+X
SYMM -Z,-X,+Y
SYMM -Y,+X,-Z
SYMM -Z,+Y,-X
SYMM -X,+Z,-Y
SYMM -Y,+Z,-X
SYMM +Z,+Y,+X
SYMM +X,+Z,+Y
SYMM +Y,+X,+Z
SYMM +Y,-Z,-X
SYMM -Y,-X,+Z
SYMM -Z,-Y,+X
SYMM -X,-Z,+Y
SYMM +X,-Y,-Z
SYMM +Z,-X,-Y
SFAC C D N
UNIT 12 24 8

L.S. 4 0 0
PLAN  5
CONF
MORE -1
BOND $H
fmap 2 53
acta
REM <olex2.extras>
REM <HklSrc "%.\\st7035.hkl">
REM </olex2.extras>

WGHT    0.043600    0.060200
FVAR       0.75628
N1    3    0.622414    0.622414    0.622414    10.16667    0.04837    0.04837 =
         0.04837   -0.00940   -0.00940   -0.00940
C2    1    0.737743    0.500000    0.500000    10.25000    0.03006    0.06586 =
         0.06586    0.00202    0.00000    0.00000
AFIX  23
D2A   2    0.819142    0.578960    0.421038    10.25000   -1.20000
D2B   2    0.819142    0.421038    0.578960    10.25000   -1.20000
AFIX   0
HKLF 4




REM  ST7035
REM wR2 = 0.0925, GooF = S = 1.325, Restrained GooF = 1.325 for all data
REM R1 = 0.0307 for 80 Fo > 4sig(Fo) and 0.0311 for all 83 data
REM 8 parameters refined using 0 restraints

END

WGHT      0.0436      0.0602

REM Highest difference peak  0.088,  deepest hole -0.153,  1-sigma level  0.023
Q1    1   0.6815  0.4394  0.4394  10.50000  0.05    0.09
Q2    1   0.7039  0.7039  0.7039  10.16667  0.05    0.06
Q3    1   0.7898  0.3331  0.6669  10.50000  0.05    0.05
Q4    1   0.7849  0.2897  0.7103  10.50000  0.05    0.05
Q5    1   1.0000  0.5000  0.5000  10.12500  0.05    0.03
;
_shelx_res_checksum              56334
_shelx_hkl_file
;
  -2   0   0  178.55    3.50
  -2   0   0  176.45    3.49
   0  -2   0  176.02    3.50
   0  -2   0  179.47    3.54
   0   0  -2  170.92    3.50
   0   0  -2  176.03    3.53
   0   0   2  177.34    3.51
   0   2   0  178.23    3.52
   0   2   0  173.32    3.49
   2   0   0  177.68    3.50
  -2  -1  -1  276.50    5.47
  -2  -1  -1  280.83    5.47
   2  -1   1  277.68    5.46
   2   1  -1  275.88    5.46
   2   1  -1  283.42    5.47
   1   2  -1  279.82    5.49
  -2   1   1  276.74    5.52
  -2   1   1  281.19    5.47
  -2   1   1  272.79    5.47
  -1  -2  -1  270.73    5.49
   1   1  -2  276.21    5.49
   2  -1   1  276.91    5.50
  -1  -1  -2  280.15    5.48
  -1  -1  -2  262.74    5.50
   1   2  -1  273.27    5.64
   1   2  -1  275.07    5.47
   1  -1   2  275.12    5.46
  -1   1   2  277.97    5.52
  -1   1   2  277.02    5.47
  -1   1   2  271.49    5.49
   1   1  -2  275.18    5.47
  -1   2   1  273.88    5.55
  -1   2   1  275.07    5.52
   1   1  -2  271.38    5.46
   1  -2   1  281.50    5.49
   1  -2   1  278.32    5.69
   1  -2   1  282.89    5.48
   1   1  -2  264.90    5.58
   1  -1   2  285.00    5.49
   1  -1   2  274.94    5.48
   1   1  -2  281.48    5.47
   1  -2  -1  278.89    5.48
  -1   1  -2  267.65    5.53
   1  -1  -2  272.39    5.47
  -1   2  -1  276.32    5.52
  -1  -2   1  274.25    5.50
   1   1   2  271.54    5.47
   1   1   2  273.49    5.50
  -2   1  -1  273.02    5.50
  -1  -1   2  278.82    5.51
  -1   1  -2  282.39    5.48
   1   2   1  271.66    5.48
   1   2   1  278.65    5.50
   2  -1  -1  280.04    5.47
  -1  -2   1  270.49    5.54
  -2  -1   1  275.64    5.48
  -2  -1   1  270.39    5.55
  -2   1  -1  273.15    5.49
   2   1   1  276.14    5.49
   2   1   1  273.17    5.47
  -2  -2   0  123.83    2.43
  -2   0  -2  124.07    2.42
  -2   0  -2  119.81    2.43
  -2   0   2  120.79    2.42
  -2   0   2  125.15    2.43
  -2   0   2  114.51    2.43
  -2   2   0  118.05    2.43
   0  -2  -2  121.49    2.43
   0  -2  -2  121.65    2.42
   0  -2   2  125.21    2.43
   0  -2   2  118.90    2.42
   0   2  -2  119.39    2.49
   0   2  -2  124.54    2.44
   0   2   2  121.98    2.44
   2  -2   0  123.05    2.42
   2  -2   0  120.64    2.47
   2  -2   0  123.21    2.42
   2   0  -2  125.07    2.43
   2   0   2  125.67    2.42
   2   0   2  125.01    2.42
   2   2   0  122.44    2.42
   2   2   0  122.42    2.42
  -2  -2  -2  980.76   19.23
  -2  -2  -2  944.18   19.21
   2   2  -2  957.93   19.55
   2   2  -2  978.55   19.22
   2   2  -2  985.85   19.19
   2  -2   2 1000.00   19.22
  -2   2   2  972.38   19.31
  -2   2   2  948.58   19.29
   2  -2   2  968.91   19.22
   2  -2   2  987.62   19.17
   2  -2  -2  952.17   19.23
  -2   2  -2  969.87   19.28
  -2   2  -2  986.32   19.22
  -2  -2   2  960.56   19.23
  -2  -2   2  947.82   19.47
   2   2   2  959.37   19.21
   2   2   2  976.36   19.22
   1   0   3    5.08    0.13
   1   0   3    5.19    0.12
   3   1   0    5.15    0.12
   0  -3   1    5.20    0.20
   0   3  -1    5.01    0.15
   0   3   1    5.31    0.14
   0   3   1    4.96    0.14
   1   0  -3    5.21    0.12
   0  -3   1    5.41    0.14
  -1   0  -3    5.36    0.13
  -1   0  -3    5.02    0.14
  -1   0   3    5.20    0.14
  -1   0   3    5.05    0.14
  -3   1   0    5.13    0.12
  -3   1   0    5.11    0.13
  -3  -1   0    5.05    0.12
   1  -3   0    5.41    0.20
   1   3   0    5.11    0.13
   1   3   0    5.11    0.14
   3   0   1    5.26    0.13
   1   3   0    5.17    0.13
   0   1   3    6.13    0.15
   1  -3   0    5.16    0.14
   0  -1   3    4.97    0.12
   0   1  -3    5.22    0.13
   0   1  -3    5.28    0.15
   0   1   3    5.40    0.14
  -1  -3   0    5.16    0.14
  -1   3   0    5.19    0.14
   0  -1  -3    5.09    0.14
   0  -1  -3    5.26    0.12
   0  -1  -3    5.43    0.15
  -3   0  -1    5.05    0.13
  -3   0   1    5.17    0.12
  -3   0   1    5.27    0.12
   2   1  -3  120.18    2.54
   2   1  -3  123.51    2.50
  -2   1   3  127.61    2.50
   2  -1   3  126.37    2.49
  -3   2   1  126.58    2.50
  -1   3   2  123.29    2.51
   3  -2   1  124.47    2.49
   3   2  -1  125.04    2.48
   1  -3   2  121.14    2.49
   1  -3   2  128.45    2.51
   1   3  -2  135.96    2.70
   1   3  -2  126.31    2.50
  -2   1   3  128.04    2.50
  -2   1   3  124.91    2.50
  -1  -3  -2  124.08    2.50
  -2  -1  -3  128.15    2.49
   2  -1   3  123.31    2.48
  -3  -2  -1  122.89    2.48
  -2  -1  -3  127.55    2.50
  -1   3   2  119.43    2.51
  -3  -2  -1  126.89    2.49
   2   1   3  123.57    2.49
   1  -3  -2  121.89    2.50
   3  -2  -1  123.67    2.48
   3  -2  -1  125.03    2.48
  -1  -3   2  126.61    2.50
  -1  -3   2  128.14    2.59
  -1   3  -2  120.58    2.51
  -2   1  -3  127.96    2.51
   3   2   1  127.63    2.49
   1   3   2  123.90    2.48
  -2  -1   3  123.64    2.48
  -2  -1   3  126.79    2.50
  -2   1  -3  127.52    2.49
   2  -1  -3  122.48    2.50
   2  -1  -3  122.58    2.50
   3  -2  -1  118.38    2.52
  -3   2  -1  129.31    2.49
  -3   2  -1  127.72    2.50
  -3  -2   1  125.50    2.49
  -3  -2   1  122.73    2.56
   3   2   1  123.74    2.48
   1   3   2  127.30    2.50
   3   1  -2  125.56    2.48
   1   2  -3  125.92    2.50
  -3   1   2  127.07    2.49
   3  -1   2  127.08    2.49
  -3   1   2  124.55    2.50
   2   3  -1  126.62    2.49
  -2   3   1  121.91    2.51
   2  -3   1  123.46    2.48
   2  -3   1  124.06    2.49
   2   3  -1  127.31    2.49
  -1  -2  -3  127.18    2.50
  -1   2   3  127.49    2.51
  -1   2   3  125.88    2.50
   1  -2   3  122.30    2.49
   1  -2   3  125.86    2.49
   1   2  -3  122.97    2.57
  -2  -3  -1  125.46    2.50
  -1  -2  -3  127.94    2.50
  -3  -1  -2  125.16    2.48
  -3   1   2  127.81    2.50
  -3  -1  -2  124.82    2.48
  -1   2   3  125.14    2.51
  -2   3   1  125.01    2.51
  -2  -3   1  124.86    2.58
   3   1   2  123.21    2.49
   2   3   1  124.73    2.49
   1  -2  -3  123.91    2.50
   1   2   3  121.04    2.48
   1   2   3  124.94    2.50
  -1  -2   3  126.14    2.50
  -1   2  -3  123.17    2.49
  -1   2  -3  124.34    2.51
  -2   3  -1  125.20    2.51
  -3  -1   2  126.75    2.49
  -3   1  -2  124.67    2.49
  -3   1  -2  129.29    2.50
   2   3   1  127.05    2.49
   3  -1  -2  121.01    2.49
   2  -3  -1  120.09    2.49
   2  -3  -1  125.52    2.55
  -2  -3   1  125.24    2.50
  -3  -3   0   66.64    1.32
  -3   0  -3   66.83    1.31
  -3   0  -3   65.67    1.32
  -3   0   3   63.88    1.31
  -3   0   3   67.67    1.32
  -3   0   3   67.18    1.32
  -3   3   0   66.27    1.33
   0  -3  -3   65.23    1.33
   0  -3   3   63.95    1.32
   0  -3   3   64.06    1.31
   0   3  -3   63.56    1.34
   0   3   3   63.56    1.34
   0   3   3   61.47    1.33
   3  -3   0   63.77    1.31
   3  -3   0   66.40    1.31
   3   0  -3   65.96    1.32
   3   0   3   64.83    1.32
   3   3   0   65.84    1.32
   3   3   0   66.59    1.30
  -3  -3  -2   85.85    1.71
  -3  -3  -2   85.20    1.70
   3   3  -2   86.24    1.70
  -3  -2  -3   85.61    1.71
  -3  -2  -3   86.77    1.71
   3  -2   3   87.07    1.71
   3   2  -3   81.06    1.69
   3   2  -3   84.47    1.71
  -3   2   3   85.69    1.72
  -3   2   3   86.58    1.71
  -3   2   3   85.72    1.72
   2   3  -3   85.09    1.70
  -3   3   2   85.92    1.73
  -3   3   2   88.24    1.73
  -2  -3  -3   86.50    1.71
   3   3  -2   83.80    1.70
   3  -3   2   82.98    1.69
  -2   3   3   83.75    1.73
  -2   3   3   84.28    1.73
   2   3  -3   86.10    1.72
   2  -3   3   85.57    1.70
   2  -3   3   85.27    1.70
   3  -2   3   83.25    1.69
   2  -3  -3   82.87    1.71
   2   3   3   83.54    1.72
  -3   3  -2   86.31    1.73
   3  -3  -2   83.32    1.74
  -2   3  -3   83.66    1.71
   3  -2  -3   83.03    1.71
   3  -3  -2   81.77    1.70
  -3  -2   3   85.19    1.71
  -3   2  -3   85.77    1.71
  -3   2  -3   86.39    1.73
   3   2   3   83.83    1.70
  -2  -3   3   82.91    1.72
  -3  -3   2   85.57    1.71
   3   3   2   84.30    1.71
   3   3   2   83.45    1.70
  -4   0   0    0.05    0.02
  -4   0   0    0.04    0.02
   0  -4   0    0.02    0.05
   0  -4   0    0.15    0.08
   0   0  -4    0.00    0.04
   0   0  -4   -0.02    0.04
   0   0   4    0.10    0.04
   0   4   0    0.09    0.04
   0   4   0    0.11    0.05
   4   0   0    0.02    0.02
   0  -4  -2   17.94    0.42
   0  -4   2   18.83    0.42
   0  -4   2   19.76    0.53
   0   4  -2   17.97    0.43
   0   4   2   18.83    0.43
   0   4   2   18.12    0.43
   2   0  -4   18.95    0.39
   2   0  -4   18.40    0.42
   2   0   4   18.26    0.40
   2   0   4   19.03    0.41
   4  -2   0   18.97    0.40
   4   2   0   18.96    0.40
  -2   0   4   19.16    0.41
  -2   0   4   19.04    0.42
  -2   0   4   19.53    0.43
  -2   0  -4   19.17    0.43
  -4  -2   0   19.06    0.41
  -4   2   0   19.24    0.42
  -2   0  -4   19.66    0.41
   1  -4   1    0.48    0.05
   4   1  -1    0.48    0.04
   1   1  -4    0.51    0.06
  -1   1   4    0.53    0.05
  -4   1   1    0.56    0.04
  -4   1   1    0.62    0.06
  -1  -4  -1    0.54    0.06
   1   1  -4    0.51    0.04
   1  -4   1    0.55    0.10
  -1  -1  -4    0.44    0.05
  -1  -1  -4    0.42    0.06
   1   4  -1    0.50    0.05
   1   4  -1    0.40    0.05
   4  -1   1    0.54    0.05
   1  -1   4    0.56    0.05
  -1   1   4    0.59    0.06
  -4  -1  -1    0.53    0.05
  -1   4   1    0.51    0.06
  -1   4   1    0.45    0.06
   1  -4  -1    0.52    0.05
   1  -4  -1    0.56    0.10
  -1   1  -4    0.55    0.07
  -1  -4   1    0.52    0.10
   1  -1  -4    0.55    0.05
   1  -1  -4    0.47    0.06
   1   1   4    0.53    0.05
  -1  -4   1    0.58    0.06
   4   1   1    0.59    0.05
  -4  -1   1    0.56    0.06
  -4   1  -1    0.50    0.04
  -1  -1   4    0.46    0.05
  -1   1  -4    0.60    0.05
   1   4   1    0.50    0.06
   1   4   1    0.56    0.06
   4  -1  -1    0.56    0.04
   1   1   4    0.44    0.05
  -4   1  -1    0.68    0.06
  -1   4  -1    0.63    0.07
   3  -1   4   58.52    1.20
  -1  -4  -3   58.71    1.22
  -4   3   1   59.63    1.22
   3  -1   4   59.04    1.19
  -3   1   4   59.47    1.22
  -4  -3  -1   59.02    1.21
  -1   4   3   56.83    1.23
   1  -4   3   59.09    1.21
   1  -4   3   58.88    1.20
   1   4  -3   58.88    1.23
  -3   1   4   59.06    1.21
   3   1  -4   58.98    1.21
  -3  -1  -4   61.10    1.22
  -1   4   3   59.54    1.23
  -3   1   4   59.90    1.21
  -3  -1  -4   60.00    1.20
   4   3  -1   58.40    1.20
   1   4   3   58.64    1.22
  -3   1  -4   59.42    1.19
  -3   1  -4   59.34    1.21
  -3   1  -4   60.93    1.22
   1   4   3   57.20    1.22
   4   3   1   59.33    1.21
   4  -3  -1   58.72    1.19
  -1   4  -3   60.63    1.24
   1  -4  -3   57.33    1.21
   3  -1  -4   58.67    1.21
   3  -1  -4   57.64    1.22
  -3  -1   4   60.69    1.21
  -1  -4   3   58.46    1.21
  -4   3  -1   59.15    1.22
  -4  -3   1   60.27    1.21
   4   0   2   19.44    0.41
   4   0  -2   19.29    0.40
   2   4   0   19.14    0.42
   2   4   0   19.54    0.41
  -4   0   2   19.67    0.40
   0   2  -4   19.07    0.41
   0   2  -4   18.80    0.43
   0   2   4   18.32    0.42
   0   2   4   18.62    0.43
  -4   0   2   18.91    0.41
   2  -4   0   19.35    0.50
   2   4   0   18.08    0.41
   2  -4   0   19.15    0.41
  -4   0  -2   19.47    0.41
   0  -2   4   18.12    0.42
   0  -2  -4   18.87    0.42
   0  -2  -4   19.64    0.43
  -2   4   0   19.48    0.44
  -2  -4   0   18.88    0.42
   4  -2   2    8.60    0.21
  -4  -2  -2    8.17    0.21
   2   4  -2    8.37    0.21
   2  -2   4    8.19    0.20
  -4   2   2    8.52    0.20
  -2   4   2    8.06    0.23
  -2  -4  -2    8.47    0.23
   2  -4   2    8.63    0.21
   2   4  -2    8.49    0.22
   4   2  -2    8.08    0.19
   2   2  -4    8.17    0.20
   2   2  -4    8.44    0.23
   2  -2   4    8.01    0.20
  -2   2   4    8.21    0.22
  -2   2   4    8.53    0.22
  -2   2   4    8.42    0.23
  -2  -2  -4    8.30    0.21
  -2  -2  -4    8.48    0.22
  -2   4   2    8.28    0.23
  -4   2   2    8.67    0.22
   4   2   2    8.63    0.21
   2  -2  -4    8.02    0.22
  -4   2  -2    8.66    0.23
  -2   2  -4    8.66    0.24
  -2  -2   4    8.54    0.22
  -2   2  -4    8.52    0.22
   2   2   4    8.34    0.23
  -4  -2   2    8.46    0.21
   4  -2  -2    8.17    0.20
  -2  -4   2    8.27    0.23
  -2   4  -2    8.55    0.24
   2   4   2    8.64    0.22
   2  -4  -2    8.09    0.21
  -4   1   3   60.01    1.21
  -4   1   3   59.18    1.22
   4  -1   3   60.08    1.21
   4   1  -3   60.42    1.21
  -1   3   4   58.23    1.24
  -4   1   3   57.76    1.22
   3   4  -1   59.12    1.21
   3  -4   1   60.89    1.20
   3   4  -1   59.34    1.21
  -4  -1  -3   59.44    1.20
   1   3  -4   57.69    1.23
  -1   3   4   59.88    1.24
  -3   4   1   60.18    1.24
   1  -3   4   60.49    1.22
  -4  -1  -3   61.44    1.21
  -1  -3  -4   60.34    1.23
  -1  -3  -4   59.23    1.22
  -3  -4  -1   60.34    1.23
  -4  -1   3   59.35    1.22
   4  -1  -3   59.87    1.21
   3   4   1   60.86    1.21
  -3  -4   1   60.57    1.22
  -3   4  -1   61.83    1.24
   3  -4  -1   59.43    1.21
  -4   1  -3   60.04    1.22
   3   4   1   59.02    1.21
  -1  -3   4   58.02    1.22
  -1   3  -4   60.35    1.22
  -1   3  -4   58.18    1.24
   4   1   3   59.20    1.21
   1   3   4   58.30    1.23
   1  -3  -4   58.12    1.22
   3  -4  -1   58.41    1.29
  -4  -3  -3    2.59    0.12
   3  -3   4    2.76    0.11
   3   3  -4    2.67    0.10
  -4   3   3    2.67    0.13
  -4   3   3    2.63    0.13
  -3  -4  -3    2.73    0.14
  -3  -4  -3    2.67    0.12
   3  -4   3    2.84    0.11
  -3  -3  -4    2.75    0.13
  -3  -3  -4    2.62    0.12
   4   3  -3    2.49    0.10
   3   4  -3    2.60    0.13
  -3   3   4    2.69    0.13
  -3   3   4    2.79    0.14
   4  -3   3    2.73    0.11
  -3   4   3    2.68    0.14
  -3   4   3    2.74    0.14
   3   3  -4    2.66    0.13
   3   4  -3    2.53    0.11
   3  -4  -3    2.28    0.12
  -4  -3   3    2.48    0.13
  -4   3  -3    2.71    0.15
   3  -3  -4    2.68    0.12
   3   3   4    2.63    0.12
  -3   3  -4    2.56    0.15
   3   4   3    2.90    0.12
   4  -3  -3    2.65    0.11
  -3   4  -3    2.96    0.16
  -3  -3   4    2.64    0.13
  -4  -4   0  266.80    5.26
  -4   0  -4  261.04    5.26
  -4   0   4  268.12    5.26
  -4   0   4  260.12    5.26
  -4   4   0  265.27    5.28
   0  -4  -4  259.13    5.27
   0  -4   4  270.70    5.26
   0   4  -4  264.10    5.28
   0   4   4  258.88    5.28
   0   4   4  266.17    5.28
   4   0  -4  264.12    5.26
   4   0   4  264.44    5.25
   4   4   0  270.84    5.26
  -4  -4  -2   11.95    0.30
  -2   4   4   11.76    0.32
  -4  -2  -4   11.93    0.28
   2  -4   4   11.95    0.28
   4  -2   4   11.84    0.28
  -4   2   4   11.79    0.30
  -4   2   4   11.86    0.29
  -4   2   4   11.90    0.30
  -2   4   4   11.46    0.31
  -4   4   2   11.70    0.31
  -2  -4  -4   11.31    0.30
  -2  -4  -4   11.75    0.30
   2   4  -4   11.47    0.31
   4   2  -4   11.88    0.26
   4   4  -2   11.29    0.28
  -4  -4   2   11.69    0.30
   2  -4  -4   12.24    0.30
  -4   4  -2   11.91    0.32
  -2  -4   4   11.99    0.30
   2   4   4   11.46    0.30
   4  -4  -2   11.99    0.28
   4  -4  -2   12.21    0.34
   4  -2  -4   11.61    0.29
  -4   2  -4   11.96    0.31
  -2   4  -4   11.61    0.33
  -4  -2   4   11.57    0.29
  -4  -4  -4    1.48    0.12
   4   4  -4    1.30    0.10
   4  -4   4    1.33    0.10
  -4   4   4    1.30    0.13
  -4   4   4    1.45    0.13
   4  -4  -4    1.40    0.10
  -4   4  -4    1.29    0.14
  -4  -4   4    1.08    0.12
   1   0   5    0.63    0.06
   5  -1   0    0.63    0.05
   5   1   0    0.62    0.06
   0  -5   1    0.57    0.12
   0   5  -1    0.49    0.07
   0   5   1    0.73    0.08
   0   5   1    0.63    0.07
   1   0  -5    0.70    0.07
   1   0  -5    0.57    0.05
   1   0  -5    0.65    0.08
   0  -5   1    0.48    0.07
  -1   0  -5    0.64    0.06
  -1   0  -5    0.59    0.06
  -1   0  -5    0.66    0.08
  -1   0   5    0.52    0.06
   0  -5  -1    0.63    0.08
   0   5  -3   45.41    1.00
   0   5   3   47.41    1.00
   3   0   5   46.27    0.96
   5   3   0   45.73    0.97
   0  -5   3   47.20    0.98
   0   5   3   46.04    1.00
   0  -5  -3   47.47    0.99
  -3   0  -5   47.94    0.99
  -3   0   5   47.08    0.98
   3   0  -5   45.75    0.99
  -5  -3   0   47.75    0.97
  -5   3   0   48.13    0.98
  -3   0  -5   46.95    0.96
  -3   0  -5   46.37    0.98
   3   0  -5   45.91    0.94
   1  -5   0    0.54    0.12
   1  -5   0    0.61    0.07
   0   1   5    0.55    0.06
   0   1  -5    0.68    0.06
   0   1  -5    0.43    0.07
  -1   5   0    0.57    0.08
   0   1   5    0.79    0.08
   1   5   0    0.63    0.07
   1   5   0    0.63    0.07
   5   0  -1    0.57    0.04
   5   0   1    0.68    0.06
   0  -1  -5    0.57    0.06
   0  -1  -5    0.75    0.08
   0  -1   5    0.64    0.06
  -1   5   0    0.50    0.06
  -1  -5   0    0.63    0.08
  -1  -5   0    0.60    0.13
   2  -1   5   12.04    0.29
   2   1  -5   11.65    0.31
  -2   1   5   12.45    0.32
  -5   2   1   12.49    0.29
   5   2  -1   11.97    0.28
  -1  -5  -2   12.14    0.31
   2   1  -5   11.88    0.28
  -1   5   2   12.10    0.31
  -1   5   2   12.69    0.32
  -2  -1  -5   12.85    0.29
  -2  -1  -5   12.35    0.31
   5  -2   1   12.15    0.28
   1  -5   2   12.60    0.30
   1  -5   2   12.68    0.43
   1   5  -2   11.70    0.31
  -2   1   5   12.25    0.30
  -2   1   5   12.06    0.30
  -2  -1   5   11.91    0.30
  -2   1  -5   12.28    0.29
  -2   1  -5   12.13    0.29
  -1  -5   2   12.57    0.31
   1   5   2   12.52    0.31
   2   1   5   12.69    0.29
  -5   2  -1   12.87    0.30
  -2   1  -5   12.29    0.32
   1  -5  -2   11.82    0.30
   1   5   2   12.17    0.31
   2  -1  -5   11.95    0.30
   5   2   1   12.02    0.29
   2  -1  -5   12.00    0.31
  -5  -2   1   12.27    0.28
   5   4  -1   38.88    0.84
  -5  -4  -1   40.17    0.85
   1  -5   4   40.99    0.85
  -4  -1  -5   39.87    0.86
   4   1  -5   39.98    0.85
  -4   1   5   39.78    0.85
  -4   1   5   40.05    0.86
  -1  -5  -4   40.40    0.86
  -1   5   4   40.59    0.88
  -5   4   1   39.29    0.86
  -1   5   4   41.89    0.88
   1   5  -4   38.09    0.87
  -4  -1   5   38.85    0.85
  -1  -5   4   41.16    0.86
  -5   4  -1   40.04    0.87
   1   5   4   38.95    0.87
   4  -1  -5   39.39    0.85
   1  -5  -4   40.19    0.86
  -4   1  -5   39.70    0.87
   5   4   1   41.54    0.85
  -1   5  -4   40.09    0.89
  -5  -4   1   40.64    0.85
   1   5   4   40.46    0.87
   4  -1  -5   38.91    0.86
   2  -5   1   13.14    0.43
  -1   2   5   13.00    0.31
   2  -5   1   12.28    0.29
  -2   5   1   12.46    0.32
  -2   5   1   11.83    0.32
  -1   2   5   12.31    0.30
  -1  -2  -5   12.64    0.32
   1   2  -5   12.07    0.32
  -2  -5  -1   12.14    0.31
   2   5  -1   12.35    0.30
   1   2  -5   11.90    0.29
   1  -2   5   12.43    0.29
  -1   2   5   12.07    0.32
   5  -1   2   12.13    0.29
   5   1  -2   12.41    0.26
  -1  -2  -5   12.62    0.30
   2  -5  -1   11.96    0.40
  -1   2  -5   12.52    0.33
   1   2   5   12.11    0.32
  -2  -5   1   12.10    0.31
  -2   5  -1   12.28    0.33
  -1  -2   5   12.25    0.30
  -1   2  -5   12.51    0.30
  -5  -1   2   12.27    0.29
   2   5   1   12.56    0.30
   2   5   1   12.46    0.30
   1  -2  -5   11.93    0.30
   1  -2  -5   12.93    0.32
   5   1   2   12.84    0.29
   2  -5  -1   12.50    0.30
   2  -5   3   11.41    0.29
  -3   2   5   11.73    0.31
  -3  -2  -5   11.32    0.30
  -3   2   5   11.07    0.29
   2  -5   3   11.71    0.28
  -5   3   2   11.65    0.30
  -3  -2  -5   11.86    0.29
  -2   5   3   11.68    0.32
  -2   5   3   11.60    0.32
   5   3  -2   11.73    0.27
  -5  -3  -2   11.81    0.35
   5  -3   2   11.29    0.28
   2   5  -3   11.58    0.30
   3   2  -5   11.34    0.30
  -3   2   5   11.94    0.30
  -2  -5  -3   10.97    0.30
   3   2  -5   11.56    0.27
   3  -2  -5   11.01    0.31
  -5   3  -2   11.39    0.30
  -5  -3   2   11.88    0.29
   3  -2  -5   12.14    0.30
   2   5   3   11.46    0.31
  -3  -2   5   10.94    0.29
  -3   2  -5   12.01    0.32
  -2  -5   3   11.52    0.30
  -2   5  -3   11.68    0.33
   5   3   2   11.93    0.29
   2   5   3   11.71    0.30
   2  -5  -3   11.77    0.30
   3   5   0   47.49    0.98
   5   0   3   46.96    0.98
  -5   0   3   47.11    0.97
  -3  -5   0   46.35    1.00
   0  -3  -5   46.51    1.01
   0  -3   5   48.88    0.99
   0   3  -5   47.57    0.98
   0   3  -5   48.95    1.02
   3  -5   0   47.49    0.98
   0  -3  -5   46.74    0.99
  -3   5   0   47.61    1.01
   0   3   5   47.89    1.01
   3  -5   0   45.68    1.10
   2   3  -5   10.83    0.31
  -3   5   2   11.62    0.32
  -2  -3  -5   11.82    0.30
  -2  -3  -5   11.69    0.31
  -3   5   2   11.77    0.32
   5   2  -3   11.61    0.26
  -2   3   5   11.53    0.31
  -2   3   5   11.57    0.32
   5  -2   3   11.39    0.28
  -5   2   3   11.63    0.29
   2  -3   5   11.33    0.28
   3   5  -2   11.91    0.29
  -3  -5  -2   11.11    0.30
   2  -3  -5   11.70    0.31
   5   2   3   11.51    0.28
   3  -5  -2   11.50    0.29
   2  -3  -5   11.40    0.30
  -3  -5   2   11.19    0.30
  -2  -3   5   11.57    0.30
  -2   3  -5   12.30    0.33
  -3   5  -2   11.42    0.32
   2   3   5   10.59    0.30
  -5   2  -3   11.09    0.30
  -5  -2   3   11.45    0.29
   3  -5  -2   11.75    0.38
  -3  -5  -4    0.33    0.08
  -3   5   4    0.56    0.09
   5  -4   3    0.53    0.06
   5   4  -3    0.47    0.06
  -4   3   5    0.77    0.09
  -4   3   5    0.48    0.08
  -3   5   4    0.69    0.10
  -4  -3  -5    0.52    0.08
  -5   4   3    0.55    0.09
   4   3  -5    0.45    0.05
  -3   5  -4    0.46    0.10
  -4  -3   5    0.45    0.08
  -5  -4   3    0.50    0.08
  -5   4  -3    0.48    0.09
  -3  -5   4    0.44    0.08
   3  -5  -4    0.53    0.08
   4  -3  -5    0.65    0.08
  -4   3  -5    0.56    0.10
  -4  -5  -1   39.96    0.86
   1  -4   5   40.16    0.85
   4   5  -1   40.63    0.85
  -1   4   5   39.60    0.88
  -5   1   4   39.97    0.84
   5  -1   4   40.67    0.85
  -4   5   1   40.53    0.88
  -1  -4  -5   39.62    0.86
  -1  -4  -5   39.78    0.87
  -1   4   5   39.99    0.88
   1   4  -5   39.50    0.88
   1   4   5   40.20    0.88
  -1  -4   5   40.27    0.86
  -5  -1   4   40.43    0.85
   1  -4  -5   41.25    0.86
  -4  -5   1   38.46    0.86
  -1   4  -5   40.09    0.89
  -5   1  -4   39.61    0.89
   4  -5  -1   41.70    0.96
   5  -1  -4   39.94    0.84
  -4   5  -1   41.40    0.88
   5   3  -4    0.40    0.05
   5  -3   4    0.63    0.07
   4  -5   3    0.45    0.07
   4   5  -3    0.59    0.07
  -3   4   5    0.43    0.09
  -3   4   5    0.34    0.09
  -5   3   4    0.56    0.09
   3   4  -5    0.58    0.10
  -4  -5  -3    0.64    0.09
  -5   3   4    0.57    0.09
  -3  -4  -5    0.55    0.08
  -3  -4  -5    0.57    0.08
  -4   5   3    0.46    0.09
  -4   5   3    0.49    0.09
  -3  -4   5    0.50    0.08
  -5   3  -4    0.50    0.09
   3  -4  -5    0.58    0.08
   4  -5  -3    0.55    0.10
   3   4   5    0.68    0.08
  -4  -5   3    0.50    0.08
  -4   5  -3    0.52    0.10
  -3   4  -5    0.60    0.11
  -5  -3   4    0.54    0.07
  -5  -5   0   26.98    0.61
  -5   0   5   26.56    0.60
  -5   5   0   26.79    0.63
   0  -5  -5   27.40    0.62
   0  -5   5   27.60    0.61
   0   5  -5   27.68    0.64
   0   5   5   27.33    0.63
   0   5   5   26.93    0.64
   5   0  -5   27.25    0.61
   5   5   0   27.95    0.60
  -5  -5  -2    1.94    0.14
   5   5  -2    1.98    0.12
  -2   5   5    1.84    0.16
  -2  -5  -5    2.02    0.14
  -5   2   5    1.99    0.12
  -5   2   5    1.90    0.14
  -2   5   5    2.16    0.15
  -5   5   2    2.01    0.15
  -2  -5  -5    1.93    0.14
   2   5  -5    1.96    0.15
   5   2  -5    1.94    0.09
  -2  -5   5    1.90    0.14
  -5   5  -2    1.91    0.15
  -5  -2   5    1.73    0.12
   2  -5  -5    2.09    0.14
  -5   2  -5    1.73    0.15
   2   5   5    1.74    0.14
   5  -2  -5    1.95    0.12
   5  -2  -5    1.97    0.13
  -2   5  -5    2.04    0.18
  -5  -5   2    1.92    0.13
  -5   5   4    0.23    0.09
  -4   5   5    0.29    0.12
  -4   5   5    0.22    0.09
  -5   4   5    0.15    0.08
  -5   4   5    0.26    0.09
  -4  -5  -5    0.32    0.09
  -5  -5   4    0.15    0.09
  -5   5  -4    0.33    0.10
  -4   5  -5    0.44    0.11
  -5  -4   5    0.23    0.09
  -5   4  -5    0.36    0.10
   4  -5  -5    0.28    0.08
   0  -6   0    0.05    0.07
   0  -6   0   -0.06    0.11
   0   0  -6    0.01    0.05
   0   0  -6    0.04    0.04
   0   0  -6   -0.07    0.07
   0   0   6   -0.04    0.05
   0   6   0    0.07    0.06
   0   6   0    0.07    0.07
   6   0   0   -0.02    0.03
   0   6   2    4.98    0.18
   0   6   2    4.61    0.19
   2   0  -6    4.68    0.17
   2   0  -6    4.61    0.14
   2   0  -6    4.54    0.19
   2   0   6    4.95    0.16
   6  -2   0    4.82    0.13
   6   2   0    4.78    0.15
   0   6  -2    4.71    0.19
   0  -6  -2    4.55    0.18
   0  -6   2    4.67    0.17
  -2   0   6    4.78    0.17
  -2   0  -6    4.92    0.19
  -2   0  -6    4.68    0.16
  -2   0  -6    4.57    0.16
   0   6   4    1.65    0.14
   0   6  -4    1.90    0.16
   0  -6   4    1.73    0.13
   0  -6  -4    1.66    0.14
   6   4   0    1.76    0.11
   4   0  -6    1.69    0.12
   4   0  -6    1.90    0.13
   0   6   4    1.61    0.15
  -6   4   0    1.74    0.16
  -4   0  -6    1.63    0.14
  -4   0   6    1.69    0.12
  -1  -1  -6   13.75    0.36
   1   1  -6   14.35    0.36
  -1  -6  -1   13.59    0.35
   1   1  -6   13.52    0.32
  -1   6   1   14.11    0.36
  -1   1   6   13.95    0.34
   1  -6   1   13.75    0.34
  -1   6   1   14.06    0.35
  -1  -6  -1   13.78    0.48
   1  -1   6   13.85    0.33
  -1  -1  -6   14.05    0.34
   1   6  -1   12.81    0.35
   6   1  -1   13.97    0.31
   1  -6   1   13.97    0.48
   6  -1   1   13.88    0.32
   1   6   1   13.28    0.35
   1   1   6   13.57    0.33
  -1   6  -1   14.12    0.37
  -1  -1   6   14.20    0.34
   1  -1  -6   13.47    0.34
   1  -1  -6   14.19    0.36
  -1  -6   1   13.98    0.35
  -1   1  -6   13.73    0.33
   1   6   1   14.11    0.34
   6   1   1   13.83    0.32
   1  -6  -1   14.55    0.35
   1  -6  -1   13.60    0.46
  -1   1  -6   14.12    0.34
  -1   1  -6   14.26    0.37
  -3  -1  -6   10.56    0.30
  -3  -1  -6   10.36    0.27
   6  -3   1   10.82    0.26
   6   3  -1   11.10    0.27
  -3   1   6   10.50    0.28
   3   1  -6   10.60    0.24
  -1   6   3   10.64    0.30
  -1   6   3   11.09    0.31
  -1  -6  -3   10.64    0.30
   1  -6   3   10.65    0.28
   1   6  -3   10.27    0.30
  -3   1   6   11.19    0.31
   3   1  -6   10.48    0.30
  -3  -1   6   10.74    0.29
   1  -6  -3   11.35    0.30
   3  -1  -6   10.55    0.29
   1   6   3   10.88    0.30
   3  -1  -6   10.04    0.30
  -1  -6   3   11.00    0.29
  -1   6  -3   10.77    0.32
   6   3   1   10.01    0.27
  -3   1  -6   10.78    0.31
   1   6   3   10.16    0.30
  -1   6   5    3.97    0.21
   1   6  -5    3.57    0.20
  -1  -6  -5    3.99    0.19
   1  -6   5    3.86    0.17
  -1   6   5    3.89    0.19
  -5   1   6    3.64    0.16
   6   5  -1    4.02    0.16
  -6   5   1    4.01    0.18
   5   1  -6    3.98    0.12
  -5  -1   6    3.64    0.16
  -1  -6   5    3.48    0.18
   1   6   5    3.98    0.19
   1  -6  -5    4.00    0.18
   1   6   5    3.91    0.18
   5  -1  -6    3.73    0.16
  -6   5  -1    3.93    0.19
  -6  -5   1    3.51    0.16
  -1   6  -5    4.35    0.22
   0   2   6    4.76    0.17
  -2  -6   0    4.57    0.18
   0   2  -6    4.78    0.16
   2   6   0    4.65    0.17
   0  -2   6    4.69    0.17
   0   2   6    4.64    0.19
  -2   6   0    4.44    0.19
   0   2  -6    4.90    0.20
   0  -2  -6    4.74    0.17
   0  -2  -6    4.65    0.19
   2  -6   0    4.67    0.27
   6   0   2    4.60    0.15
   2  -6   0    4.89    0.17
   6  -2   2   54.95    1.15
   2   6  -2   53.26    1.17
  -2   2   6   54.38    1.16
  -2   6   2   55.98    1.19
  -2  -2  -6   54.94    1.18
  -2   2   6   57.21    1.18
  -2   6   2   55.80    1.19
   6   2  -2   55.59    1.14
   2  -2   6   56.64    1.15
  -2   2   6   55.53    1.19
  -2  -2  -6   56.86    1.16
   2  -6   2   57.35    1.16
  -2  -6  -2   56.03    1.18
   2   2  -6   54.66    1.18
   6   2   2   55.45    1.15
  -2   6  -2   55.33    1.19
  -2  -6   2   56.93    1.17
   2  -2  -6   56.71    1.19
   2  -6  -2   56.53    1.30
   2  -6  -2   54.75    1.16
  -2  -2   6   55.71    1.17
  -2   2  -6   56.23    1.15
  -2   2  -6   55.97    1.19
   2  -2  -6   57.57    1.17
   2   6   2   53.89    1.17
   2   6   2   55.39    1.17
   2   6  -4    3.46    0.18
   6   4  -2    3.78    0.15
  -2  -6  -4    3.60    0.19
  -2   6   4    3.76    0.19
   4   2  -6    3.69    0.13
   6  -4   2    3.85    0.15
  -2   6   4    3.84    0.19
  -4   2   6    3.66    0.18
  -4   2   6    3.68    0.16
   4  -2  -6    3.93    0.18
  -6   4  -2    3.95    0.20
   4  -2  -6    3.77    0.16
   2   6   4    3.87    0.18
  -4  -2   6    4.03    0.17
  -2  -6   4    3.84    0.17
  -2   6  -4    3.65    0.21
  -6  -4   2    3.68    0.16
   2   6   4    3.67    0.17
   2  -6  -4    3.80    0.17
  -4   2  -6    3.83    0.19
   1  -3   6   10.66    0.28
   6  -1   3   10.43    0.27
  -3  -6  -1   10.52    0.30
  -3   6   1   10.43    0.31
   6   1  -3   10.53    0.23
  -1  -3  -6   10.83    0.31
  -1   3   6   10.52    0.31
   1   3  -6   11.19    0.31
  -1  -3  -6   10.23    0.29
  -1   3   6   10.32    0.30
  -1   3  -6   10.53    0.32
   1   3   6   10.85    0.31
  -1   3  -6   10.69    0.28
  -3   6  -1   10.53    0.31
  -3  -6   1   10.70    0.29
  -1  -3   6   10.72    0.28
   6   1   3   10.76    0.27
   1  -3  -6   10.31    0.29
   1  -3  -6   10.39    0.31
   3  -6  -1   10.76    0.39
   3  -6  -1   10.55    0.28
   3   3  -6   12.73    0.36
  -3   3   6   12.93    0.35
  -3   6   3   13.55    0.37
  -3   6   3   13.57    0.38
   6   3  -3   13.63    0.32
  -3   3   6   13.62    0.34
  -3   3   6   13.36    0.37
  -3  -3  -6   13.67    0.34
  -3  -3  -6   13.41    0.36
  -3  -6  -3   13.47    0.36
   6  -3   3   12.80    0.33
  -3   6  -3   13.53    0.38
  -3  -6   3   13.53    0.35
   3   6   3   13.24    0.35
  -6  -3   3   13.18    0.33
   3  -3  -6   13.84    0.37
  -3   3  -6   13.67    0.38
   3  -3  -6   13.37    0.35
  -3  -3   6   13.20    0.34
   3  -6  -3   13.81    0.34
  -6   5   3    3.52    0.19
  -5   3   6    3.35    0.19
  -3   6   5    3.84    0.21
  -3   6  -5    3.87    0.22
   3  -6  -5    3.90    0.19
  -5   3  -6    3.96    0.21
   5  -3  -6    4.01    0.19
  -6   5  -3    3.90    0.20
  -6  -5   3    3.47    0.17
   5  -3  -6    3.71    0.17
   0  -4  -6    2.05    0.15
   0  -4  -6    1.66    0.14
  -4  -6   0    1.64    0.14
  -4   6   0    1.83    0.16
   0   4   6    1.80    0.15
   0   4   6    1.90    0.14
   6   0   4    1.94    0.11
   0   4  -6    1.58    0.17
   0  -4   6    1.76    0.13
  -2  -4  -6    3.85    0.17
  -4  -6  -2    3.90    0.18
  -2  -4  -6    3.79    0.18
  -2   4   6    3.83    0.20
  -4   6   2    3.64    0.19
   4   6  -2    3.86    0.15
   6  -2   4    3.91    0.15
   6   2  -4    3.77    0.12
  -2   4   6    3.48    0.18
   2   4  -6    3.42    0.19
  -6  -2   4    3.49    0.15
   2  -4  -6    3.73    0.17
  -4  -6   2    3.71    0.17
  -4   6  -2    3.53    0.19
   2   4   6    3.84    0.18
  -2   4  -6    3.26    0.20
   2  -4  -6    3.68    0.19
  -2  -4   6    3.76    0.17
  -4   4   6    0.22    0.09
  -4   4   6    0.51    0.09
  -4   6   4    0.35    0.10
  -4  -6  -4    0.29    0.09
   4  -4  -6    0.28    0.09
  -4   6  -4    0.47    0.11
  -4   4  -6    0.31    0.11
  -6  -4   4    0.33    0.08
   4  -4  -6    0.23    0.08
  -5   6   1    4.06    0.20
  -1  -5  -6    3.78    0.18
  -1  -5  -6    3.60    0.19
   5   6  -1    3.98    0.17
   1  -5   6    3.78    0.16
  -1   5   6    3.95    0.19
  -1   5   6    3.87    0.20
  -5  -6  -1    3.29    0.18
   1   5  -6    4.05    0.21
  -1   5  -6    4.00    0.22
   1  -5  -6    4.13    0.19
  -5  -6   1    3.82    0.18
   1  -5  -6    3.75    0.19
  -1  -5   6    3.83    0.17
   1   5   6    3.74    0.19
  -6  -1   5    3.71    0.16
   1   5   6    3.70    0.18
  -5   6  -1    3.68    0.19
   5   6  -3    3.85    0.25
  -3   5   6    3.70    0.21
   5  -6   3    3.67    0.16
  -5  -6  -3    3.24    0.18
  -5   6   3    3.56    0.20
  -5   6  -3    3.85    0.21
  -6  -3   5    3.12    0.16
  -3   5  -6    4.18    0.23
  -6  -6   0    5.45    0.21
  -6   0   6    5.34    0.20
  -6   6   0    5.91    0.24
   0  -6  -6    5.98    0.24
   0   6  -6    6.12    0.26
   0   6   6    5.99    0.25
   6   0  -6    5.76    0.21
  -2   6   6   14.12    0.42
  -6   6   2   14.24    0.40
  -2  -6  -6   13.55    0.39
   2   6  -6   13.83    0.41
  -6   6  -2   14.30    0.40
  -2   6  -6   14.00    0.43
   2   6   6   14.16    0.40
   0   7  -1    3.57    0.18
   0   7   1    3.88    0.17
   0   7   1    3.74    0.18
   1   0  -7    4.05    0.17
   1   0  -7    3.91    0.19
   1   0   7    3.76    0.16
   7  -1   0    3.73    0.12
   7   1   0    3.65    0.13
  -1   0  -7    3.39    0.16
  -1   0  -7    3.92    0.19
  -1   0   7    3.75    0.16
   0  -7  -1    3.66    0.18
   0  -7  -1    3.76    0.28
   0  -7   1    3.82    0.17
  -1   0  -7    3.67    0.15
   7  -3   0    2.37    0.11
   0   7   3    2.43    0.17
  -3   0  -7    2.10    0.17
   3   0  -7    2.60    0.16
   0  -7   3    2.54    0.15
   0   7  -3    2.54    0.17
   0   7   3    2.29    0.15
   0  -7  -3    2.62    0.17
   3   0  -7    2.57    0.15
  -3   0   7    2.53    0.15
   7   3   0    2.52    0.12
   0   7  -5    1.70    0.19
   0   7   5    1.69    0.17
   0  -1  -7    3.56    0.16
   0  -1   7    3.81    0.16
   0   1  -7    3.59    0.19
   0   1  -7    3.65    0.16
   1  -7   0    3.85    0.17
   1  -7   0    3.55    0.27
   7   0   1    3.67    0.14
   1   7   0    3.33    0.17
   7   0  -1    3.61    0.12
  -1   7   0    3.65    0.19
   0  -1  -7    3.85    0.19
  -1  -7   0    3.42    0.18
   0   1   7    3.77    0.16
  -1   7   2   10.84    0.32
  -1  -7  -2   10.32    0.31
  -2   1   7   10.50    0.29
   2  -1   7   10.51    0.27
   2   1  -7   10.62    0.30
   2   1  -7   10.42    0.31
  -2  -1  -7   10.07    0.28
   7  -2   1   10.35    0.26
   7   2  -1   10.34    0.26
   1  -7   2   10.44    0.29
  -1   7   2   10.55    0.30
   1   7  -2    9.95    0.30
  -2  -1  -7   10.34    0.32
   1  -7  -2    9.95    0.42
   1   7   2   10.16    0.29
   1   7   2   10.43    0.31
  -2   1  -7   10.41    0.32
   2   1   7    9.95    0.28
   1  -7  -2   10.82    0.30
  -2   1  -7   10.75    0.28
  -1  -7   2   10.35    0.30
   2  -1  -7   10.84    0.32
   7   2   1   10.83    0.27
  -1   7  -2   10.72    0.32
   2  -1  -7   10.28    0.29
  -2  -1   7   10.25    0.29
  -1   7   4    1.46    0.14
   4   1  -7    1.11    0.19
  -4   1   7    1.34    0.14
   1   7  -4    1.37    0.15
  -4  -1  -7    1.24    0.12
   1  -7   4    1.37    0.12
  -1  -7   4    1.31    0.13
  -1   7  -4    1.73    0.17
   4  -1  -7    1.44    0.13
   1  -7  -4    1.28    0.15
   7   4   1    1.42    0.12
   4  -1  -7    1.25    0.12
   1   7   4    1.48    0.16
   1   7   4    1.52    0.14
  -4   1  -7    1.46    0.17
   1  -2   7   10.54    0.28
  -1   2   7   10.08    0.31
   1   2  -7   10.59    0.32
  -2  -7  -1    9.99    0.30
   2  -7   1   10.58    0.28
   7  -1   2   10.14    0.27
  -2   7   1   10.82    0.31
  -1  -2  -7   10.37    0.31
  -1  -2  -7   10.17    0.28
   2  -7   1   10.09    0.43
  -2   7   1   10.35    0.32
  -1   2   7   10.13    0.30
  -1   2   7   10.46    0.29
   7   1  -2   10.49    0.24
   1  -2  -7   10.80    0.29
  -2  -7   1   10.01    0.30
  -1  -2   7   10.10    0.29
  -1   2  -7    9.89    0.28
  -1   2  -7   10.24    0.32
   7   1   2   10.17    0.27
   2  -7  -1   10.55    0.29
   2  -7  -1   10.80    0.42
  -1   2  -7    9.76    0.28
   1  -2  -7   10.40    0.32
  -2   7  -1   10.24    0.32
   2   7   1    9.41    0.33
  -3   2   7    9.05    0.30
  -3  -2  -7    9.35    0.27
  -3   2   7    9.32    0.27
   3   2  -7    9.02    0.30
   7  -3   2    9.53    0.25
   7   3  -2    9.28    0.25
  -2   7   3    9.11    0.30
  -3  -2  -7    9.17    0.30
  -2  -7  -3    9.12    0.29
  -2   7   3    9.28    0.30
  -2  -7   3    9.37    0.28
   7   3   2    9.33    0.26
  -3  -2   7    9.52    0.28
  -3   2  -7    9.05    0.31
   3  -2  -7    9.54    0.28
   2   7   3    9.37    0.28
  -2   7  -3    9.19    0.31
   3  -2  -7    9.57    0.30
   2  -7  -3    9.91    0.28
   0   3  -7    2.09    0.19
  -3   7   0    2.40    0.17
   7   0   3    2.35    0.12
   0  -3   7    2.44    0.14
   0  -3  -7    2.54    0.15
  -3  -7   0    2.06    0.16
   0   3   7    2.61    0.18
   0   3   7    2.74    0.16
   0  -3  -7    2.33    0.17
  -3   7   2    9.48    0.31
  -3  -7  -2    9.30    0.29
  -2   3   7    9.23    0.29
   7   2  -3    9.39    0.23
   7  -2   3    9.63    0.26
  -2   3   7    9.51    0.31
  -2  -3  -7    9.08    0.30
  -3   7   2    9.23    0.30
   2   3  -7    9.53    0.31
  -2  -3  -7    9.23    0.27
   2  -3  -7    9.64    0.28
  -2  -3   7    9.46    0.28
   7   2   3    9.34    0.26
  -3   7  -2    9.73    0.31
  -2   3  -7    9.08    0.31
   2  -3  -7    9.01    0.30
  -3  -7   2    9.12    0.28
  -4   3   7    0.72    0.11
  -3   7   4    0.78    0.12
   4  -3  -7    0.72    0.11
  -4   3  -7    0.73    0.12
  -3   7  -4    0.80    0.13
   3   7   4    0.93    0.17
  -1   4   7    1.46    0.16
   7   1  -4    1.66    0.07
  -4  -7  -1    1.67    0.17
   7  -1   4    1.52    0.11
   1   4  -7    1.30    0.13
  -4   7   1    1.46    0.16
   1  -4   7    1.31    0.12
  -1   4   7    1.62    0.19
  -1  -4  -7    1.37    0.13
  -1  -4   7    1.37    0.14
  -1   4  -7    1.11    0.14
   1  -4  -7    1.48    0.16
  -4   7  -1    1.46    0.14
   1   4   7    1.44    0.16
  -3   4   7    0.87    0.12
  -4   7   3    0.90    0.12
  -3   4  -7    0.97    0.14
  -4   7  -3    0.73    0.13
   3  -4  -7    0.92    0.12
   0   5   7    1.87    0.18
   0   5  -7    1.75    0.19
  -5   7   0    1.97    0.18
   0  -5  -7    1.56    0.17
   0  -8   0   43.31    0.93
   0   0  -8   43.20    0.92
   0   0  -8   40.76    0.95
   0   0   8   41.35    0.92
   0   8   0   43.47    0.95
   8   0   0   41.99    0.96
   0  -8   2    2.34    0.16
   0   8  -2    3.10    0.19
   0   8   2    2.74    0.16
   0   8   2    2.54    0.18
   2   0  -8    2.65    0.19
   2   0   8    2.92    0.15
  -2   0  -8    2.80    0.15
  -2   0  -8    2.43    0.19
   1   8  -1   10.53    0.32
   1   1  -8   10.96    0.34
   1  -1   8   11.12    0.30
  -1   8   1   10.89    0.32
  -1   8   1   10.71    0.34
  -1  -1  -8   10.99    0.34
   1  -8   1   10.85    0.31
  -1  -1  -8   10.65    0.30
   1  -1  -8   10.89    0.34
  -1   1  -8   10.66    0.35
   1   1   8   10.11    0.30
  -1   1  -8   10.90    0.30
  -1   8  -1   10.90    0.34
   8  -1  -1   10.88    0.26
   1  -8  -1   10.83    0.32
   1   8   1   10.42    0.32
   1   8  -3    0.01    0.08
  -1   8   3    0.03    0.09
   3   1  -8    0.00    0.09
  -3  -1  -8   -0.12    0.09
  -1   8  -3    0.11    0.10
   3  -1  -8   -0.04    0.09
  -3   1  -8   -0.08    0.10
   1   8   3   -0.03    0.08
   0   2  -8    2.82    0.20
  -2   8   0    3.11    0.20
   0  -2  -8    2.60    0.19
   0  -2   8    2.77    0.16
   0   2  -8    2.63    0.16
   8   0  -2    2.56    0.10
  -2   8   2    0.18    0.10
  -2  -2  -8    0.14    0.10
   2   2  -8    0.16    0.10
  -2   2  -8    0.01    0.10
   2  -2  -8    0.19    0.10
   2  -8  -2    0.26    0.10
   8  -2  -2    0.16    0.04
  -2   8  -2    0.35    0.11
   1   3  -8    0.13    0.11
   1  -3   8   -0.07    0.07
  -3   8   1    0.21    0.10
  -1  -3  -8   -0.09    0.09
  -1   3   8    0.06    0.10
  -1   3  -8   -0.13    0.10
  -3   8  -1    0.02    0.09
   1  -3  -8   -0.15    0.09
  -1   3  -8    0.15    0.13
;
_shelx_hkl_checksum              5443
_olex2_submission_special_instructions 'No special instructions were received'
loop_
_space_group_symop_operation_xyz
'x, y, z'
'y, z, x'
'z, x, y'
'y, -x, -z'
'z, -y, -x'
'x, -z, -y'
'-x, -y, z'
'-z, x, -y'
'-x, y, -z'
'-y, -z, x'
'-z, -x, y'
'-y, x, -z'
'-z, y, -x'
'-x, z, -y'
'-y, z, -x'
'z, y, x'
'x, z, y'
'y, x, z'
'y, -z, -x'
'-y, -x, z'
'-z, -y, x'
'-x, -z, y'
'x, -y, -z'
'z, -x, -y'
'x+1/2, y+1/2, z+1/2'
'y+1/2, z+1/2, x+1/2'
'z+1/2, x+1/2, y+1/2'
'y+1/2, -x+1/2, -z+1/2'
'z+1/2, -y+1/2, -x+1/2'
'x+1/2, -z+1/2, -y+1/2'
'-x+1/2, -y+1/2, z+1/2'
'-z+1/2, x+1/2, -y+1/2'
'-x+1/2, y+1/2, -z+1/2'
'-y+1/2, -z+1/2, x+1/2'
'-z+1/2, -x+1/2, y+1/2'
'-y+1/2, x+1/2, -z+1/2'
'-z+1/2, y+1/2, -x+1/2'
'-x+1/2, z+1/2, -y+1/2'
'-y+1/2, z+1/2, -x+1/2'
'z+1/2, y+1/2, x+1/2'
'x+1/2, z+1/2, y+1/2'
'y+1/2, x+1/2, z+1/2'
'y+1/2, -z+1/2, -x+1/2'
'-y+1/2, -x+1/2, z+1/2'
'-z+1/2, -y+1/2, x+1/2'
'-x+1/2, -z+1/2, y+1/2'
'x+1/2, -y+1/2, -z+1/2'
'z+1/2, -x+1/2, -y+1/2'
loop_
_atom_site_label
_atom_site_type_symbol
_atom_site_fract_x
_atom_site_fract_y
_atom_site_fract_z
_atom_site_U_iso_or_equiv
_atom_site_adp_type
_atom_site_occupancy
_atom_site_site_symmetry_order
_atom_site_calc_flag
_atom_site_refinement_flags_posn
_atom_site_refinement_flags_adp
_atom_site_refinement_flags_occupancy
_atom_site_disorder_assembly
_atom_site_disorder_group
N1 N 0.6224(2) 0.6224(2) 0.6224(2) 0.0484(11) Uani 1 6 d S T P . .
C2 C 0.7377(4) 0.500000 0.500000 0.0539(11) Uani 1 4 d S T P . .
D2A D 0.819142 0.578960 0.421038 0.065 Uiso 0.5 2 calc R U P . .
D2B D 0.819142 0.421038 0.578960 0.065 Uiso 0.5 2 calc R U P . .
loop_
_atom_site_aniso_label
_atom_site_aniso_U_11
_atom_site_aniso_U_22
_atom_site_aniso_U_33
_atom_site_aniso_U_23
_atom_site_aniso_U_13
_atom_site_aniso_U_12
N1 0.0484(11) 0.0484(11) 0.0484(11) -0.0094(8) -0.0094(8) -0.0094(8)
C2 0.0301(14) 0.0659(15) 0.0659(15) 0.0020(19) 0.000 0.000
loop_
_atom_type_symbol
_atom_type_description
_atom_type_scat_dispersion_real
_atom_type_scat_dispersion_imag
_atom_type_scat_source
C C 0.0033 0.0016 'International Tables Vol C Tables 4.2.6.8 and 6.1.1.4'
D D 0.0000 0.0000 'International Tables Vol C Tables 4.2.6.8 and 6.1.1.4'
N N 0.0061 0.0033 'International Tables Vol C Tables 4.2.6.8 and 6.1.1.4'
loop_
_geom_angle_atom_site_label_1
_geom_angle_atom_site_label_2
_geom_angle_atom_site_label_3
_geom_angle
_geom_angle_site_symmetry_1
_geom_angle_site_symmetry_3
_geom_angle_publ_flag
C2 N1 C2 107.83(16) 3 2 ?
C2 N1 C2 107.83(16) 3 . ?
C2 N1 C2 107.83(16) 2 . ?
N1 C2 N1 112.7(3) 4_566 . ?
N1 C2 D2A 109.1 . . ?
N1 C2 D2A 109.1 4_566 . ?
N1 C2 D2B 109.1 4_566 . ?
N1 C2 D2B 109.1 . . ?
D2A C2 D2B 107.8 . . ?
loop_
_geom_bond_atom_site_label_1
_geom_bond_atom_site_label_2
_geom_bond_distance
_geom_bond_site_symmetry_2
_geom_bond_publ_flag
N1 C2 1.460(2) 3 ?
N1 C2 1.460(2) 2 ?
N1 C2 1.460(2) . ?
C2 D2A 0.9700 . ?
C2 D2B 0.9700 . ?
loop_
_geom_torsion_atom_site_label_1
_geom_torsion_atom_site_label_2
_geom_torsion_atom_site_label_3
_geom_torsion_atom_site_label_4
_geom_torsion
_geom_torsion_site_symmetry_1
_geom_torsion_site_symmetry_2
_geom_torsion_site_symmetry_3
_geom_torsion_site_symmetry_4
_geom_torsion_publ_flag
C2 N1 C2 N1 -58.10(17) 3 . . 4_566 ?
C2 N1 C2 N1 58.10(17) 2 . . 4_566 ?
