#------------------------------------------------------------------------------
#$Date: 2019-12-26 20:22:33 +0200 (Thu, 26 Dec 2019) $
#$Revision: 246050 $
#$URL: file:///home/coder/svn-repositories/cod/cif/2/30/06/2300657.cif $
#------------------------------------------------------------------------------
#
# This file is available in the Crystallography Open Database (COD),
# http://www.crystallography.net/. The original data for this entry
# were provided by IUCr Journals, http://journals.iucr.org/.
#
# The file may be used within the scientific community so long as
# proper attribution is given to the journal article from which the
# data were obtained.
#
data_2300657
loop_
_publ_author_name
'Likhacheva, Anna Y.'
'Rashchenko, Sergey V.'
'Litasov, Konstantin D.'
_publ_section_title
;
 High-pressure structural properties of naphthalene up to 6&#x2005;GPa
;
_journal_coeditor_code           kk5159
_journal_issue                   3
_journal_name_full               'Journal of Applied Crystallography'
_journal_page_first              984
_journal_paper_doi               10.1107/S1600576714005937
_journal_volume                  47
_journal_year                    2014
_chemical_formula_sum            'C5 H4'
_chemical_formula_weight         64.09
_space_group_IT_number           14
_space_group_name_Hall           '-P 2yab'
_space_group_name_H-M_alt        'P 1 21/a 1'
_symmetry_cell_setting           monoclinic
_symmetry_space_group_name_H-M   'P 1 21/a 1'
_audit_creation_date             2013-04-17T10:15
_audit_creation_method           'from EXP file using GSAS2CIF'
_audit_update_record
' 2013-04-17T10:15  Initial CIF as created by GSAS2CIF'
_cell_angle_alpha                90.0
_cell_angle_beta                 124.816(7)
_cell_angle_gamma                90.0
_cell_formula_units_Z            4
_cell_length_a                   7.7152(8)
_cell_length_b                   5.7097(5)
_cell_length_c                   8.4166(14)
_cell_volume                     304.39(7)
_computing_structure_refinement  GSAS
_diffrn_radiation_polarisn_ratio 0.95
_diffrn_radiation_probe          x-ray
_diffrn_radiation_wavelength     0.3685
_exptl_absorpt_correction_T_max  1.00000
_exptl_absorpt_correction_T_min  1.00000
_exptl_absorpt_process_details
;   GSAS Absorption/surface roughness correction: function number 0
 No correction is applied.
;
_pd_calc_method                  'Rietveld Refinement'
_pd_instr_location               ' ?'
_pd_meas_2theta_range_inc        0.0141
_pd_meas_2theta_range_max        31.1961
_pd_meas_2theta_range_min        0.021
_pd_meas_number_of_points        2212
_pd_phase_name                   naphthalene
_pd_prep_pressure                2.65
_pd_proc_2theta_range_inc        0.0141
_pd_proc_2theta_range_max        31.1961
_pd_proc_2theta_range_min        0.021
_pd_proc_info_datetime           2013-04-17T10:15:22
_pd_proc_info_excluded_regions   ' ?'
_pd_proc_ls_background_function
;   GSAS Background function number 1 with 29 terms.
 Shifted Chebyshev function of 1st kind
      1:    5532.90     2:   -1086.43     3:    47.1839     4:   -501.883    
      5:    422.189     6:   -161.672     7:   -12.0804     8:    29.1029    
      9:   -18.9625    10:  -0.880264    11:   -19.7769    12:    28.5892    
     13:   -17.6641    14:   -2.29404    15:   -11.9834    16:    7.35248    
     17:   -7.88162    18:   -2.56214    19:   -4.58462    20:    10.4561    
     21:   -6.73492    22:   -3.84855    23:   -6.30590    24:    4.57474    
     25:    4.44932    26:    3.50175    27:   -2.98999    28:    7.42340    
     29:   -3.83557    
;
_pd_proc_ls_peak_cutoff          0.01000
_pd_proc_ls_pref_orient_corr
;   March-Dollase
 AXIS  1 Ratio=     1.345 Frac     0.539  h= 0.000  k= 0.000  l= 1.000
 AXIS  2 Ratio=     1.371 Frac     0.461  h= 1.000  k= 0.000  l= 0.000
 Prefered orientation correction range: Min=   0.49329, Max=   1.58080
;
_pd_proc_ls_profile_function
;
 CW Profile function number 2 with  18 terms
 Profile coefficients for Simpson's rule integration of pseudovoigt function
 C.J. Howard (1982). J. Appl. Cryst.,15,615-620.
 P. Thompson, D.E. Cox & J.B. Hastings (1987). J. Appl. Cryst.,20,79-83.
 #1(GU)   = 3091.080 #2(GV)   =  -24.643 #3(GW)   =    3.195
 #4(LX)   =    0.000 #5(LY)   =   30.763 #6(trns) =    0.000
 #7(asym) =   0.1531 #8(shft) =   0.0000 #9(GP)   =    0.000
 #10(stec)=     0.00 #11(ptec)=     0.00 #12(sfec)=     0.00
 #13(L11) =    0.000 #14(L22) =    0.000 #15(L33) =    0.000
 #16(L12) =    0.000 #17(L13) =    0.000 #18(L23) =    0.000
 Peak tails are ignored  where the intensity is below 0.0100 times the peak
   Aniso. broadening axis   0.0   0.0   1.0
;
_pd_proc_ls_prof_R_factor        0.0045
_pd_proc_ls_prof_wR_expected     0.0134
_pd_proc_ls_prof_wR_factor       0.0064
_pd_proc_number_of_points        2212
_pd_spec_mounting                ' ?'
_refine_ls_goodness_of_fit_all   0.48
_refine_ls_matrix_type           full
_refine_ls_number_parameters     31
_refine_ls_number_restraints     10
_refine_ls_R_Fsqd_factor         0.18667
_refine_ls_shift/su_max          1.86
_refine_ls_shift/su_mean         0.60
_reflns_d_resolution_high        0.992
_reflns_d_resolution_low         6.910
_reflns_limit_h_max              8
_reflns_limit_h_min              0
_reflns_limit_k_max              5
_reflns_limit_k_min              0
_reflns_limit_l_max              7
_reflns_limit_l_min              -8
_reflns_number_total             327
_cod_data_source_file            kk5159sup6.cif
_cod_data_source_block           REF1_publ_265
_cod_depositor_comments
;
The following automatic conversions were performed:

data item '_geom_angle_publ_flag' value 'N' was changed to 'n' in
accordance with the
/home/saulius/struct/COD-crude-data/automatic-downloads/DataCite-retrospective/IUCr/depositions/lib/dictionaries/cif_core.dic
dictionary named 'cif_core.dic' version 2.4.2 last updated on
2011-04-26 (15 times).

data item '_geom_bond_publ_flag' value 'N' was changed to 'n' in
accordance with the
/home/saulius/struct/COD-crude-data/automatic-downloads/DataCite-retrospective/IUCr/depositions/lib/dictionaries/cif_core.dic
dictionary named 'cif_core.dic' version 2.4.2 last updated on
2011-04-26 (35 times).

Automatic conversion script
Id: cif_fix_values 7556 2019-12-06 15:28:31Z antanas 
;
_cod_original_cell_volume        304.39(6)
_cod_database_code               2300657
_gsas_exptl_extinct_corr_t_min   1.00000
_gsas_exptl_extinct_corr_t_max   1.00000
loop_
_symmetry_equiv_pos_site_id
_symmetry_equiv_pos_as_xyz
1 +x,+y,+z
2 -x+1/2,+y+1/2,-z
-1 -x,-y,-z
-2 +x+1/2,-y+1/2,+z
loop_
_atom_site_type_symbol
_atom_site_label
_atom_site_fract_x
_atom_site_fract_y
_atom_site_fract_z
_atom_site_occupancy
_atom_site_thermal_displace_type
_atom_site_U_iso_or_equiv
_atom_site_symmetry_multiplicity
C C1 0.0855(7) 0.0204(6) 0.3380(4) 1.0 Uiso 0.035 4
C C2 0.1155(8) 0.1708(7) 0.2281(4) 1.0 Uiso 0.03 4
C C3 0.0485(6) 0.1095(4) 0.0372(4) 1.0 Uiso 0.023 4
C C4 0.0778(7) 0.2622(6) -0.0793(4) 1.0 Uiso 0.023 4
C C5 -0.0127(7) -0.1984(6) 0.2623(4) 1.0 Uiso 0.03 4
H H1 0.1286(21) 0.0651(31) 0.4617(7) 1.0 Uiso 0.04 4
H H2 0.1750(28) 0.3154(10) 0.2832(25) 1.0 Uiso 0.035 4
H H4 0.1436(18) 0.4074(9) -0.037(5) 1.0 Uiso 0.027 4
H H5 -0.0314(12) -0.3012(14) 0.3372(8) 1.0 Uiso 0.035 4
loop_
_atom_type_symbol
_atom_type_number_in_cell
_atom_type_scat_dispersion_real
_atom_type_scat_dispersion_imag
_atom_type_scat_Cromer_Mann_a1
_atom_type_scat_Cromer_Mann_a2
_atom_type_scat_Cromer_Mann_a3
_atom_type_scat_Cromer_Mann_a4
_atom_type_scat_Cromer_Mann_b1
_atom_type_scat_Cromer_Mann_b2
_atom_type_scat_Cromer_Mann_b3
_atom_type_scat_Cromer_Mann_b4
_atom_type_scat_Cromer_Mann_c
_atom_type_scat_source
C 20.0 0.000 0.000 2.31000 20.8439 1.02000 10.2075 1.58860 0.56870 0.86500
51.6512 0.21560 International_Tables_Vol_C
H 16.0 0.000 0.000 0.49300 10.5109 0.32291 26.1257 0.14019 3.14236 0.04081
57.7997 0.00304 International_Tables_Vol_C
loop_
_geom_angle_atom_site_label_1
_geom_angle_atom_site_label_2
_geom_angle_atom_site_label_3
_geom_angle
_geom_angle_site_symmetry_1
_geom_angle_site_symmetry_3
_geom_angle_publ_flag
C2 C1 C5 120.15(34) 1_555 1_555 n
C2 C1 H1 119.4(12) 1_555 1_555 n
C5 C1 H1 120.4(13) 1_555 1_555 n
C1 C2 C3 120.93(32) 1_555 1_555 n
C1 C2 H2 116.4(16) 1_555 1_555 n
C3 C2 H2 122.6(15) 1_555 1_555 n
C2 C3 C3 118.7(4) 1_555 -1_555 n
C2 C3 C4 121.97(23) 1_555 1_555 n
C3 C3 C4 119.4(4) -1_555 1_555 n
C3 C4 C5 120.78(33) 1_555 -1_555 n
C3 C4 H4 123.4(25) 1_555 1_555 n
C5 C4 H4 115.8(26) -1_555 1_555 n
C1 C5 C4 120.1(4) 1_555 -1_555 n
C1 C5 H5 120.2(6) 1_555 1_555 n
C4 C5 H5 119.7(6) -1_555 1_555 n
loop_
_geom_bond_atom_site_label_1
_geom_bond_atom_site_label_2
_geom_bond_distance
_geom_bond_site_symmetry_2
_geom_bond_publ_flag
C1 C2 1.375(4) 1_555 n
C1 C5 1.4105(33) 1_555 n
C1 H1 0.930(5) 1_555 n
C1 H2 1.973(16) 1_555 n
C1 H5 2.044(7) 1_555 n
C2 C1 1.375(4) 1_555 n
C2 C3 1.4221(33) 1_555 n
C2 H1 2.003(12) 1_555 n
C2 H2 0.930(5) 1_555 n
C3 C2 1.4221(33) 1_555 n
C3 C3 1.4077(32) -1_555 n
C3 C4 1.424(4) 1_555 n
C3 H2 2.077(15) 1_555 n
C3 H4 2.086(23) 1_555 n
C4 C3 1.424(4) 1_555 n
C4 C5 1.3685(34) -1_555 n
C4 H4 0.930(5) 1_555 n
C4 H5 2.001(7) -1_555 n
C5 C1 1.4105(33) 1_555 n
C5 C4 1.3685(34) -1_555 n
C5 H1 2.045(13) 1_555 n
C5 H4 1.961(27) -1_555 n
C5 H5 0.931(5) 1_555 n
H1 C1 0.930(5) 1_555 n
H1 C2 2.003(12) 1_555 n
H1 C5 2.045(13) 1_555 n
H2 C1 1.973(16) 1_555 n
H2 C2 0.930(5) 1_555 n
H2 C3 2.077(15) 1_555 n
H4 C3 2.086(23) 1_555 n
H4 C4 0.930(5) 1_555 n
H4 C5 1.961(27) -1_555 n
H5 C1 2.044(7) 1_555 n
H5 C4 2.001(7) -1_555 n
H5 C5 0.931(5) 1_555 n
loop_
_pd_meas_counts_total
_pd_proc_ls_weight
_pd_proc_intensity_bkg_calc
_pd_calc_intensity_total
0.0 . . .
0.0 . . .
0.0 . . .
0.0 . . .
0.0 . . .
0.0 . . .
0.0 . . .
0.0 . . .
0.0 . . .
0.0 . . .
0.0 . . .
0.0 . . .
0.0 . . .
0.0 . . .
0.0 . . .
0.0 . . .
0.0 . . .
0.0 . . .
0.0 . . .
0.0 . . .
0.0 . . .
0.0 . . .
0.0 . . .
0.0 . . .
0.0 . . .
0.0 . . .
0.0 . . .
0.0 . . .
0.0 . . .
0.0 . . .
0.0 . . .
0.0 . . .
0.0 . . .
0.0 . . .
0.0 . . .
0.0 . . .
0.0 . . .
0.0 . . .
0.0 . . .
0.0 . . .
0.0 . . .
0.0 . . .
0.0 . . .
0.0 . . .
0.0 . . .
0.0 . . .
0.0 . . .
0.0 . . .
0.0 . . .
0.0 . . .
0.0 . . .
0.0 . . .
0.0 . . .
0.0 . . .
0.0 . . .
0.0 . . .
0.0 . . .
0.0 . . .
0.0 . . .
0.0 . . .
0.0 . . .
0.0 . . .
0.0 . . .
0.0 . . .
0.0 . . .
0.0 . . .
0.0 . . .
0.0 . . .
0.0 . . .
1660.0 . . .
1430.0 . . .
1450.0 . . .
1470.0 . . .
1550.0 . . .
1590.0 . . .
1670.0 . . .
1420.0 . . .
1340.0 . . .
1400.0 . . .
1300.0 . . .
1480.0 . . .
1600.0 . . .
1590.0 . . .
1490.0 . . .
1480.0 . . .
1450.0 . . .
1440.0 . . .
1520.0 . . .
1540.0 . . .
1510.0 . . .
1520.0 . . .
1520.0 . . .
1530.0 . . .
1480.0 . . .
1420.0 . . .
1410.0 . . .
1460.0 . . .
1510.0 . . .
1510.0 . . .
1500.0 . . .
1470.0 . . .
1450.0 . . .
1420.0 . . .
1430.0 . . .
1450.0 . . .
1520.0 . . .
1660.0 . . .
1790.0 . . .
1910.0 . . .
2050.0 . . .
2230.0 . . .
2390.0 . . .
2530.0 . . .
2710.0 . . .
2860.0 . . .
3010.0 . . .
3180.0 . . .
3360.0 . . .
3530.0 . . .
3720.0 . . .
3930.0 . . .
3940.0 . . .
3790.0 . . .
3800.0 . . .
3870.0 . . .
3920.0 . . .
3980.0 . . .
4000.0 . . .
4040.0 . . .
4130.0 . . .
4210.0 . . .
4240.0 . . .
4360.0 . . .
4440.0 . . .
4410.0 . . .
4410.0 . . .
4490.0 . . .
4570.0 . . .
4600.0 . . .
4610.0 . . .
4690.0 . . .
4790.0 . . .
4880.0 . . .
4970.0 . . .
5050.0 . . .
5160.0 . . .
5320.0 . . .
5450.0 . . .
5560.0 . . .
5690.0 . . .
5820.0 . . .
5900.0 . . .
5990.0 . . .
6090.0 . . .
6190.0 . . .
6290.0 . . .
6350.0 . . .
6430.0 . . .
6560.0 . . .
6680.0 . . .
6770.0 . . .
6860.0 . . .
6930.0 . . .
6940.0 . . .
6930.0 . . .
6920.0 . . .
6990.0 . . .
7100.0 . . .
7180.0 . . .
7240.0 . . .
7260.0 . . .
7300.0 . . .
7350.0 . . .
7390.0 . . .
7370.0 . . .
7440.0 . . .
7490.0 . . .
7460.0 . . .
7490.0 . . .
7530.0 . . .
7510.0 . . .
7510.0 . . .
7510.0 . . .
7510.0 . . .
7530.0 . . .
7550.0 . . .
7620.0 . . .
7640.0 . . .
7630.0 . . .
7640.0 . . .
7700.0 . . .
7720.0 . . .
7730.0 . . .
7660.0 . . .
7660.0 . . .
7670.0 . . .
7690.0 . . .
7710.0 . . .
7680.0 . . .
7660.0 . . .
7590.0 0.0001318 7562.49316 7562.49316
7620.0 0.0001312 7589.26563 7589.26563
7600.0 0.0001316 7606.69043 7606.69043
7630.0 0.0001311 7616.29932 7626.30713
7640.0 0.0001309 7619.41699 7631.36426
7600.0 0.0001316 7617.18555 7631.69189
7580.0 0.0001319 7610.58447 7628.58789
7560.0 0.0001323 7600.45068 7623.68066
7590.0 0.0001318 7587.49316 7620.76563
7620.0 0.0001312 7572.30908 7633.10889
7710.0 0.0001297 7555.40381 7701.62891
7940.0 0.0001259 7537.19092 7914.75635
8450.0 0.0001183 7518.01416 8379.46289
9210.0 0.0001086 7498.15430 9077.15527
9720.0 0.0001029 7477.83496 9700.20508
9640.0 0.0001037 7457.23682 9777.78906
9090.0 0.0001100 7436.49658 9183.83691
8400.0 0.0001190 7415.72314 8381.57129
7900.0 0.0001266 7394.99170 7803.05908
7610.0 0.0001314 7374.35645 7521.42432
7440.0 0.0001344 7353.85156 7412.68115
7360.0 0.0001359 7333.49707 7366.54102
7300.0 0.0001370 7313.30322 7336.94287
7290.0 0.0001372 7293.26611 7311.68750
7320.0 0.0001366 7273.37598 7288.20947
7300.0 0.0001370 7253.62109 7265.81982
7270.0 0.0001376 7233.98242 7233.98242
7220.0 0.0001385 7214.44287 7214.44287
7210.0 0.0001387 7194.97900 7194.97900
7200.0 0.0001389 7175.57080 7175.57080
7150.0 0.0001399 7156.20117 7156.20117
7100.0 0.0001408 7136.84961 7136.84961
7050.0 0.0001418 7117.50244 7117.50244
7080.0 0.0001412 7098.14160 7098.14160
7100.0 0.0001408 7078.75977 7078.75977
7090.0 0.0001410 7059.34326 7059.34326
7040.0 0.0001420 7039.89063 7039.89063
7010.0 0.0001427 7020.39209 7020.39209
7010.0 0.0001427 7000.85205 7000.85205
6990.0 0.0001431 6981.26660 6981.26660
6970.0 0.0001435 6961.64111 6961.64111
6910.0 0.0001447 6941.97803 6941.97803
6850.0 0.0001460 6922.28516 6922.28516
6850.0 0.0001460 6902.57227 6902.57227
6840.0 0.0001462 6882.84668 6882.84668
6790.0 0.0001473 6863.12305 6863.12305
6790.0 0.0001473 6843.40869 6843.40869
6830.0 0.0001464 6823.72168 6823.72168
6780.0 0.0001475 6804.07080 6804.07080
6790.0 0.0001473 6784.47412 6784.47412
6800.0 0.0001471 6764.94092 6764.94092
6780.0 0.0001475 6745.48975 6745.48975
6740.0 0.0001484 6726.13281 6726.13281
6730.0 0.0001486 6706.88184 6706.88184
6730.0 0.0001486 6687.75439 6687.75439
6720.0 0.0001488 6668.76074 6668.76074
6670.0 0.0001499 6649.91162 6649.91162
6610.0 0.0001513 6631.22168 6631.22168
6560.0 0.0001524 6612.70117 6612.70117
6570.0 0.0001522 6594.35791 6594.35791
6590.0 0.0001517 6576.20166 6576.20166
6580.0 0.0001520 6558.24316 6558.24316
6550.0 0.0001527 6540.48682 6540.48682
6550.0 0.0001527 6522.93896 6522.93896
6550.0 0.0001527 6505.60693 6505.60693
6520.0 0.0001534 6488.49023 6488.49023
6510.0 0.0001536 6471.59668 6471.59668
6480.0 0.0001543 6454.92725 6454.92725
6460.0 0.0001548 6438.48145 6438.48145
6450.0 0.0001550 6422.26367 6422.26367
6410.0 0.0001560 6406.26904 6406.26904
6410.0 0.0001560 6390.50195 6390.50195
6420.0 0.0001558 6374.95508 6374.95508
6360.0 0.0001572 6359.63037 6359.63037
6330.0 0.0001580 6344.52002 6344.52002
6320.0 0.0001582 6329.62256 6329.62256
6330.0 0.0001580 6314.93701 6314.93701
6320.0 0.0001582 6300.45459 6300.45459
6270.0 0.0001595 6286.16797 6286.16797
6230.0 0.0001605 6272.07764 6272.07764
6250.0 0.0001600 6258.17334 6258.17334
6260.0 0.0001597 6244.45215 6244.45215
6230.0 0.0001605 6230.90723 6230.90723
6210.0 0.0001610 6217.52930 6217.52930
6180.0 0.0001618 6204.31494 6204.31494
6150.0 0.0001626 6191.25537 6191.25537
6170.0 0.0001621 6178.34668 6178.34668
6170.0 0.0001621 6165.58203 6165.58203
6150.0 0.0001626 6152.95313 6152.95313
6130.0 0.0001631 6140.45557 6140.45557
6100.0 0.0001639 6128.08398 6128.08398
6080.0 0.0001645 6115.83008 6115.83008
6100.0 0.0001639 6103.69482 6103.69482
6090.0 0.0001642 6091.66553 6091.66553
6070.0 0.0001647 6079.74170 6079.74170
6080.0 0.0001645 6067.91504 6067.91504
6050.0 0.0001653 6056.18652 6056.18652
6010.0 0.0001664 6044.54980 6044.54980
6000.0 0.0001667 6032.99951 6032.99951
5990.0 0.0001669 6021.53662 6021.53662
5990.0 0.0001669 6010.15381 6010.15381
5980.0 0.0001672 5998.85449 5998.85449
5970.0 0.0001675 5987.63135 5987.63135
5950.0 0.0001681 5976.48438 5976.48438
5960.0 0.0001678 5965.41650 5965.41650
5980.0 0.0001672 5954.41895 5954.41895
5950.0 0.0001681 5943.49951 5943.49951
5910.0 0.0001692 5932.65137 5932.65137
5890.0 0.0001698 5921.87891 5921.87891
5920.0 0.0001689 5911.18066 5911.18066
5930.0 0.0001686 5900.55908 5900.55908
5910.0 0.0001692 5890.01563 5890.01563
5890.0 0.0001698 5879.54688 5879.54688
5900.0 0.0001695 5869.16309 5869.16309
5870.0 0.0001704 5858.85742 5858.85742
5870.0 0.0001704 5848.63867 5848.63867
5860.0 0.0001706 5838.50586 5838.50586
5830.0 0.0001715 5828.46143 5828.46143
5800.0 0.0001724 5818.50635 5818.50635
5780.0 0.0001730 5808.64941 5808.64941
5770.0 0.0001733 5798.88477 5798.88477
5770.0 0.0001733 5789.22363 5789.22363
5760.0 0.0001736 5779.66504 5779.66504
5750.0 0.0001739 5770.21191 5780.11133
5770.0 0.0001733 5760.86914 5772.65039
5780.0 0.0001730 5751.63525 5765.93750
5800.0 0.0001724 5742.51953 5760.56641
5800.0 0.0001724 5733.52148 5759.24414
5810.0 0.0001721 5724.64160 5766.52930
5830.0 0.0001715 5715.88867 5798.52344
5930.0 0.0001686 5707.26123 5884.67285
6160.0 0.0001623 5698.76172 6061.06543
6510.0 0.0001536 5690.39697 6339.56299
6850.0 0.0001460 5682.16699 6664.98926
7000.0 0.0001429 5674.06934 6904.67383
6910.0 0.0001447 5666.11377 6919.80811
6650.0 0.0001504 5658.29785 6702.80078
6370.0 0.0001570 5650.62402 6388.27783
6120.0 0.0001634 5643.09326 6106.25537
5900.0 0.0001695 5635.70557 5907.71240
5810.0 0.0001721 5628.46680 5824.31152
5770.0 0.0001733 5621.37451 5758.30029
5730.0 0.0001745 5614.42920 5724.52930
5690.0 0.0001757 5607.63184 5714.48047
5680.0 0.0001761 5600.98242 5732.07422
5710.0 0.0001751 5594.48242 5803.90771
5830.0 0.0001715 5588.13135 5987.13477
6200.0 0.0001613 5581.92529 6414.46094
6970.0 0.0001435 5575.86816 7178.90820
8210.0 0.0001218 5569.95654 8256.60449
9560.0 0.0001046 5564.19092 9374.22852
10300.0 0.0000971 5558.56836 10040.30664
10000.0 0.0001000 5553.08740 9851.17773
8960.0 0.0001116 5547.74805 8918.70508
7740.0 0.0001292 5542.54736 7748.21973
6750.0 0.0001481 5537.48291 6767.61914
6150.0 0.0001626 5532.55176 6139.25439
5840.0 0.0001712 5527.75439 5814.26611
5670.0 0.0001764 5523.08594 5670.64648
5610.0 0.0001783 5518.54150 5610.18408
5570.0 0.0001795 5514.12305 5581.20508
5540.0 0.0001805 5509.82568 5563.31494
5510.0 0.0001815 5505.64307 5549.89404
5500.0 0.0001818 5501.57568 5501.57568
5500.0 0.0001818 5497.61914 5497.61914
5520.0 0.0001812 5493.77246 5493.77246
5490.0 0.0001821 5490.02490 5490.02490
5470.0 0.0001828 5486.38037 5486.38037
5480.0 0.0001825 5482.83008 5482.83008
5450.0 0.0001835 5479.37354 5479.37354
5450.0 0.0001835 5476.00684 5476.00684
5470.0 0.0001828 5472.72363 5472.72363
5490.0 0.0001821 5469.52393 5477.45117
5480.0 0.0001825 5466.39990 5475.25781
5460.0 0.0001832 5463.34961 5473.31006
5470.0 0.0001828 5460.36963 5471.64941
5450.0 0.0001835 5457.45605 5470.33203
5430.0 0.0001842 5454.60400 5469.43555
5440.0 0.0001838 5451.81250 5469.07715
5420.0 0.0001845 5449.07324 5469.43799
5430.0 0.0001842 5446.38867 5470.90918
5450.0 0.0001835 5443.74951 5474.51807
5470.0 0.0001828 5441.15674 5483.33838
5520.0 0.0001812 5438.60449 5505.74414
5620.0 0.0001779 5436.09229 5560.77490
5770.0 0.0001733 5433.61475 5681.95264
6020.0 0.0001661 5431.16943 5910.02100
6390.0 0.0001565 5428.75293 6265.33350
6810.0 0.0001468 5426.36377 6707.30713
7100.0 0.0001408 5423.99854 7111.25781
7220.0 0.0001385 5421.65527 7301.10156
7090.0 0.0001410 5419.32959 7168.65527
6790.0 0.0001473 5417.02246 6787.34668
6420.0 0.0001558 5414.73145 6334.12500
6080.0 0.0001645 5412.45361 5950.17432
5850.0 0.0001709 5410.18701 5692.38574
5670.0 0.0001764 5407.92920 5548.98145
5530.0 0.0001808 5405.68164 5479.87744
5460.0 0.0001832 5403.43994 5448.65527
5460.0 0.0001832 5401.20313 5433.48779
5430.0 0.0001842 5398.97412 5424.43652
5380.0 0.0001859 5396.74902 5420.10840
5350.0 0.0001869 5394.52539 5414.89453
5360.0 0.0001866 5392.30762 5410.44824
5380.0 0.0001859 5390.09033 5406.56641
5380.0 0.0001859 5387.87598 5403.14063
5370.0 0.0001862 5385.66406 5400.10449
5380.0 0.0001859 5383.45703 5397.42822
5380.0 0.0001859 5381.25098 5387.01758
5350.0 0.0001869 5379.04688 5385.94385
5320.0 0.0001880 5376.84814 5385.42822
5330.0 0.0001876 5374.65088 5386.22314
5350.0 0.0001869 5372.46094 5390.29150
5360.0 0.0001866 5370.27490 5402.44434
5350.0 0.0001869 5368.09717 5429.19238
5390.0 0.0001855 5365.92578 5480.51611
5490.0 0.0001821 5363.76123 5562.76904
5560.0 0.0001799 5361.61182 5670.77734
5660.0 0.0001767 5359.46924 5781.30029
5790.0 0.0001727 5357.34180 5855.32910
5860.0 0.0001706 5355.22705 5856.75000
5840.0 0.0001712 5353.12793 5783.50049
5780.0 0.0001730 5351.04541 5671.00098
5690.0 0.0001757 5348.98389 5558.07373
5580.0 0.0001792 5346.94141 5470.58643
5500.0 0.0001818 5344.92090 5415.80762
5440.0 0.0001838 5342.92529 5389.40430
5410.0 0.0001848 5340.95508 5383.76123
5430.0 0.0001842 5339.01514 5392.62549
5440.0 0.0001838 5337.10303 5410.92383
5450.0 0.0001835 5335.22266 5432.52100
5450.0 0.0001835 5333.37646 5449.10303
5460.0 0.0001832 5331.56494 5452.44922
5450.0 0.0001835 5329.79248 5440.51318
5440.0 0.0001838 5328.05762 5420.33447
5400.0 0.0001852 5326.36426 5402.70703
5360.0 0.0001866 5324.71436 5396.42969
5350.0 0.0001869 5323.10791 5405.36768
5340.0 0.0001873 5321.54834 5424.77295
5350.0 0.0001869 5320.03857 5451.05273
5390.0 0.0001855 5318.57666 5469.22754
5430.0 0.0001842 5317.16699 5468.41406
5460.0 0.0001832 5315.81250 5447.16504
5470.0 0.0001828 5314.51025 5414.17676
5440.0 0.0001838 5313.26660 5380.25439
5400.0 0.0001852 5312.08008 5352.60254
5360.0 0.0001866 5310.95215 5333.64941
5350.0 0.0001869 5309.88574 5322.29492
5360.0 0.0001866 5308.87939 5316.03809
5350.0 0.0001869 5307.93604 5312.59619
5320.0 0.0001880 5307.05762 5309.95068
5280.0 0.0001894 5306.24072 5308.52197
5280.0 0.0001894 5305.49414 5318.35742
5310.0 0.0001883 5304.81201 5324.16406
5330.0 0.0001876 5304.19678 5325.48291
5390.0 0.0001855 5303.64941 5327.32471
5410.0 0.0001848 5303.17090 5329.79346
5370.0 0.0001862 5302.76270 5333.04980
5330.0 0.0001876 5302.42236 5337.37451
5330.0 0.0001876 5302.15039 5342.62158
5330.0 0.0001876 5301.95068 5352.45947
5350.0 0.0001869 5301.82129 5368.79834
5380.0 0.0001859 5301.75977 5400.96094
5480.0 0.0001825 5301.76807 5466.57715
5600.0 0.0001786 5301.84668 5594.82568
5800.0 0.0001724 5301.99512 5823.16602
6160.0 0.0001623 5302.21240 6182.64941
6680.0 0.0001497 5302.49756 6672.30908
7270.0 0.0001376 5302.85352 7233.20605
7760.0 0.0001289 5303.27344 7739.66748
7960.0 0.0001256 5303.76221 8029.91016
7850.0 0.0001274 5304.31689 7992.79688
7480.0 0.0001337 5304.93799 7648.86719
6950.0 0.0001439 5305.62207 7130.45117
6490.0 0.0001541 5306.37061 6594.66064
6150.0 0.0001626 5307.17920 6151.72266
5930.0 0.0001686 5308.05176 5843.72363
5750.0 0.0001739 5308.98438 5657.58350
5640.0 0.0001773 5309.97510 5554.15137
5570.0 0.0001795 5311.02295 5494.00342
5490.0 0.0001821 5312.12988 5452.45215
5430.0 0.0001842 5313.29004 5419.56348
5420.0 0.0001845 5314.50342 5393.17725
5390.0 0.0001855 5315.76953 5373.39502
5360.0 0.0001866 5317.08740 5359.95605
5360.0 0.0001866 5318.45264 5351.71924
5360.0 0.0001866 5319.86621 5347.20215
5370.0 0.0001862 5321.32568 5345.28662
5380.0 0.0001859 5322.82959 5334.29834
5380.0 0.0001859 5324.37695 5336.91406
5380.0 0.0001859 5325.96387 5335.90625
5360.0 0.0001866 5327.59277 5342.23975
5340.0 0.0001873 5329.25732 5349.61523
5350.0 0.0001869 5330.95947 5356.92725
5370.0 0.0001862 5332.69385 5362.55371
5370.0 0.0001862 5334.46387 5365.00293
5370.0 0.0001862 5336.26318 5363.98682
5380.0 0.0001859 5338.09082 5360.21045
5390.0 0.0001855 5339.94873 5356.58838
5370.0 0.0001862 5341.83057 5354.01367
5340.0 0.0001873 5343.73730 5353.33691
5330.0 0.0001876 5345.66895 5354.73535
5350.0 0.0001869 5347.61963 5357.81934
5370.0 0.0001862 5349.59180 5361.81934
5370.0 0.0001862 5351.58057 5365.74121
5380.0 0.0001859 5353.58398 5370.44678
5390.0 0.0001855 5355.60645 5371.92578
5390.0 0.0001855 5357.64111 5372.05566
5380.0 0.0001859 5359.68896 5371.56836
5380.0 0.0001859 5361.74609 5371.19238
5360.0 0.0001866 5363.81494 5371.41748
5350.0 0.0001869 5365.89014 5372.45996
5380.0 0.0001859 5367.97412 5374.38965
5390.0 0.0001855 5370.06445 5377.15381
5420.0 0.0001845 5372.15771 5381.61621
5450.0 0.0001835 5374.25586 5388.71826
5460.0 0.0001832 5376.35840 5400.48535
5460.0 0.0001832 5378.46240 5419.71094
5470.0 0.0001828 5380.56592 5449.17432
5510.0 0.0001815 5382.67041 5490.06299
5530.0 0.0001808 5384.77490 5540.05957
5540.0 0.0001805 5386.87744 5599.21436
5580.0 0.0001792 5388.97852 5642.49609
5560.0 0.0001799 5391.07617 5663.38184
5520.0 0.0001812 5393.17139 5655.07324
5470.0 0.0001828 5395.26221 5622.10205
5430.0 0.0001842 5397.34961 5576.95264
5410.0 0.0001848 5399.43164 5532.13037
5400.0 0.0001852 5401.51025 5496.32080
5390.0 0.0001855 5403.58301 5473.94873
5390.0 0.0001855 5405.64893 5466.82471
5400.0 0.0001852 5407.71240 5476.87158
5450.0 0.0001835 5409.76758 5508.52539
5500.0 0.0001818 5411.81787 5569.35645
5610.0 0.0001783 5413.86377 5667.75342
5750.0 0.0001739 5415.90234 5807.65527
5960.0 0.0001678 5417.93652 5981.96094
6170.0 0.0001621 5419.96484 6167.73877
6340.0 0.0001577 5421.98828 6326.40283
6450.0 0.0001550 5424.00781 6412.28369
6430.0 0.0001555 5426.02148 6394.59961
6340.0 0.0001577 5428.03223 6278.98633
6180.0 0.0001618 5430.03809 6108.91016
6000.0 0.0001667 5432.03955 5927.11621
5860.0 0.0001706 5434.04102 5766.84326
5760.0 0.0001736 5436.03662 5644.77246
5670.0 0.0001764 5438.03174 5563.24902
5580.0 0.0001792 5440.02588 5514.17725
5530.0 0.0001808 5442.01807 5489.68262
5510.0 0.0001815 5444.01025 5476.83398
5490.0 0.0001821 5446.00537 5471.18213
5480.0 0.0001825 5447.99951 5469.09961
5480.0 0.0001825 5449.99512 5468.79150
5480.0 0.0001825 5451.99609 5469.51221
5470.0 0.0001828 5453.99707 5471.07861
5480.0 0.0001825 5456.00293 5473.70850
5490.0 0.0001821 5458.01318 5478.95752
5490.0 0.0001821 5460.03027 5486.24463
5510.0 0.0001815 5462.05371 5491.32373
5530.0 0.0001808 5464.08398 5510.89307
5560.0 0.0001799 5466.12109 5539.59033
5620.0 0.0001779 5468.16846 5578.72607
5690.0 0.0001757 5470.22314 5627.22754
5740.0 0.0001742 5472.28955 5680.62305
5820.0 0.0001718 5474.36621 5730.98682
5840.0 0.0001712 5476.45605 5768.56348
5810.0 0.0001721 5478.55664 5784.71484
5760.0 0.0001736 5480.67041 5776.18555
5740.0 0.0001742 5482.79932 5748.45850
5730.0 0.0001745 5484.94287 5712.89600
5710.0 0.0001751 5487.10107 5680.32910
5700.0 0.0001754 5489.27441 5657.10498
5690.0 0.0001757 5491.46582 5644.05713
5650.0 0.0001770 5493.67432 5637.32910
5610.0 0.0001783 5495.90088 5630.80176
5610.0 0.0001783 5498.14648 5619.75049
5590.0 0.0001789 5500.41064 5603.43945
5580.0 0.0001792 5502.69434 5584.28467
5540.0 0.0001805 5504.99756 5565.49512
5540.0 0.0001805 5507.32227 5549.59766
5540.0 0.0001805 5509.66699 5537.88477
5510.0 0.0001815 5512.03516 5530.44775
5490.0 0.0001821 5514.42334 5526.13770
5500.0 0.0001818 5516.83496 5524.83936
5500.0 0.0001818 5519.26953 5525.29932
5510.0 0.0001815 5521.72559 5524.61914
5550.0 0.0001802 5524.20410 5526.53955
5550.0 0.0001802 5526.70850 5528.70801
5560.0 0.0001799 5529.23047 5531.01025
5560.0 0.0001799 5531.78223 5533.41260
5550.0 0.0001802 5534.35498 5537.31104
5530.0 0.0001808 5536.95166 5540.03857
5530.0 0.0001808 5539.57031 5541.97119
5520.0 0.0001812 5542.21484 5545.15674
5530.0 0.0001808 5544.88184 5548.65820
5520.0 0.0001812 5547.57080 5552.63525
5540.0 0.0001805 5550.28516 5557.28955
5560.0 0.0001799 5553.02002 5562.83740
5550.0 0.0001802 5555.78027 5569.51514
5580.0 0.0001792 5558.56006 5577.58740
5580.0 0.0001792 5561.36523 5587.42432
5570.0 0.0001795 5564.19141 5599.53223
5570.0 0.0001795 5567.03857 5614.56543
5580.0 0.0001792 5569.90576 5633.28467
5610.0 0.0001783 5572.79297 5656.03174
5620.0 0.0001779 5575.70264 5682.22607
5640.0 0.0001773 5578.63184 5709.92822
5660.0 0.0001767 5581.57910 5734.12988
5690.0 0.0001757 5584.54443 5749.91895
5730.0 0.0001745 5587.52686 5752.96729
5770.0 0.0001733 5590.52637 5742.68896
5780.0 0.0001730 5593.54395 5722.72070
5780.0 0.0001730 5596.57715 5698.48926
5760.0 0.0001736 5599.62500 5674.88721
5730.0 0.0001745 5602.68750 5655.24072
5690.0 0.0001757 5605.76465 5641.09131
5670.0 0.0001764 5608.85205 5632.46582
5650.0 0.0001770 5611.95313 5628.44629
5620.0 0.0001779 5615.06592 5627.74414
5590.0 0.0001789 5618.18750 5629.13232
5610.0 0.0001783 5621.31982 5631.50098
5630.0 0.0001776 5624.45996 5634.57520
5650.0 0.0001770 5627.60596 5638.32520
5640.0 0.0001773 5630.76270 5642.09570
5630.0 0.0001776 5633.92383 5646.71777
5650.0 0.0001770 5637.08789 5652.86816
5650.0 0.0001770 5640.25928 5661.31641
5650.0 0.0001770 5643.43164 5671.16553
5660.0 0.0001767 5646.60596 5685.62793
5690.0 0.0001757 5649.78174 5702.53955
5720.0 0.0001748 5652.96045 5720.45898
5720.0 0.0001748 5656.13721 5737.07568
5730.0 0.0001745 5659.31250 5749.68359
5730.0 0.0001745 5662.48535 5755.56396
5730.0 0.0001745 5665.65430 5754.04102
5690.0 0.0001757 5668.81934 5746.57178
5680.0 0.0001761 5671.97949 5735.89111
5680.0 0.0001761 5675.13330 5724.75586
5690.0 0.0001757 5678.28271 5716.63281
5680.0 0.0001761 5681.42139 5710.32959
5690.0 0.0001757 5684.55371 5707.71826
5700.0 0.0001754 5687.67529 5709.10156
5710.0 0.0001751 5690.78711 5714.43066
5720.0 0.0001748 5693.88818 5723.57715
5730.0 0.0001745 5696.97803 5736.21191
5740.0 0.0001742 5700.05518 5751.62402
5790.0 0.0001727 5703.11963 5768.46143
5840.0 0.0001712 5706.16943 5784.78906
5860.0 0.0001706 5709.20605 5798.17871
5870.0 0.0001704 5712.22461 5806.33496
5850.0 0.0001709 5715.23096 5808.19678
5830.0 0.0001715 5718.21973 5804.68311
5810.0 0.0001721 5721.19043 5798.39307
5810.0 0.0001721 5724.14307 5791.74902
5820.0 0.0001718 5727.07959 5787.45508
5800.0 0.0001724 5729.99805 5787.58203
5790.0 0.0001727 5732.89551 5794.09912
5800.0 0.0001724 5735.77490 5807.44238
5810.0 0.0001721 5738.63330 5828.55859
5840.0 0.0001712 5741.47266 5857.30322
5890.0 0.0001698 5744.28906 5892.10107
5920.0 0.0001689 5747.08789 5931.40771
5980.0 0.0001672 5749.86572 5970.89453
6030.0 0.0001658 5752.62012 6005.07520
6060.0 0.0001650 5755.35352 6027.45361
6080.0 0.0001645 5758.06445 6032.56299
6050.0 0.0001653 5760.75488 6019.04297
6010.0 0.0001664 5763.42188 5990.72510
5950.0 0.0001681 5766.06787 5954.35742
5900.0 0.0001695 5768.69189 5916.69434
5880.0 0.0001701 5771.29150 5882.94238
5870.0 0.0001704 5773.87061 5856.30664
5840.0 0.0001712 5776.42773 5838.08398
5840.0 0.0001712 5778.96338 5828.22998
5840.0 0.0001712 5781.47607 5825.68750
5830.0 0.0001715 5783.96631 5829.27832
5800.0 0.0001724 5786.43555 5837.27197
5810.0 0.0001721 5788.88330 5849.14307
5840.0 0.0001712 5791.30908 5863.10986
5870.0 0.0001704 5793.71387 5877.03076
5880.0 0.0001701 5796.09619 5889.27881
5880.0 0.0001701 5798.45996 5898.30322
5880.0 0.0001701 5800.80371 5902.98633
5910.0 0.0001692 5803.12549 5902.56104
5930.0 0.0001686 5805.42822 5897.07129
5920.0 0.0001689 5807.71094 5887.58008
5920.0 0.0001689 5809.97461 5876.00537
5890.0 0.0001698 5812.21973 5864.12744
5880.0 0.0001701 5814.44727 5853.66797
5860.0 0.0001706 5816.65723 5845.37256
5830.0 0.0001715 5818.84766 5839.59180
5810.0 0.0001721 5821.02295 5836.27686
5800.0 0.0001724 5823.18164 5833.84766
5810.0 0.0001721 5825.32324 5834.59082
5810.0 0.0001721 5827.45020 5836.79004
5830.0 0.0001715 5829.56104 5840.18994
5840.0 0.0001712 5831.65820 5844.61670
5820.0 0.0001718 5833.73975 5849.93164
5830.0 0.0001715 5835.80859 5855.99219
5820.0 0.0001718 5837.86523 5862.57129
5840.0 0.0001712 5839.90479 5869.41992
5880.0 0.0001701 5841.93848 5876.20752
5890.0 0.0001698 5843.95557 5882.60449
5890.0 0.0001698 5845.96289 5888.25684
5890.0 0.0001698 5847.95850 5892.67725
5900.0 0.0001695 5849.94482 5895.33350
5910.0 0.0001692 5851.92139 5895.90234
5920.0 0.0001689 5853.88721 5894.35352
5930.0 0.0001686 5855.84717 5891.68018
5920.0 0.0001689 5857.79492 5888.38184
5900.0 0.0001695 5859.73682 5884.67773
5900.0 0.0001695 5861.66895 5881.72559
5890.0 0.0001698 5863.59766 5879.33887
5890.0 0.0001698 5865.51709 5877.60498
5880.0 0.0001701 5867.43018 5876.54199
5900.0 0.0001695 5869.33643 5876.10352
5910.0 0.0001692 5871.23828 5876.20898
5900.0 0.0001695 5873.13184 5876.76074
5920.0 0.0001689 5875.02344 5877.67432
5900.0 0.0001695 5876.90869 5878.86523
5900.0 0.0001695 5878.79004 5880.26465
5890.0 0.0001698 5880.66602 5881.81299
5880.0 0.0001701 5882.53906 5883.46484
5900.0 0.0001695 5884.40820 5885.18311
5890.0 0.0001698 5886.27002 5886.93848
5910.0 0.0001692 5888.13184 5888.72168
5890.0 0.0001698 5889.98730 5890.51611
5890.0 0.0001698 5891.84131 5893.05176
5880.0 0.0001701 5893.69043 5894.96240
5900.0 0.0001695 5895.53760 5896.84766
5900.0 0.0001695 5897.38135 5898.74072
5910.0 0.0001692 5899.22021 5901.05127
5920.0 0.0001689 5901.05518 5903.21777
5910.0 0.0001692 5902.88818 5904.99805
5910.0 0.0001692 5904.71484 5907.00391
5910.0 0.0001692 5906.54053 5909.03564
5910.0 0.0001692 5908.35986 5911.09375
5900.0 0.0001695 5910.17480 5913.19141
5900.0 0.0001695 5911.98779 5915.31494
5890.0 0.0001698 5913.79248 5917.56006
5910.0 0.0001692 5915.59229 5919.95313
5910.0 0.0001692 5917.38916 5922.60303
5900.0 0.0001695 5919.17871 5925.68701
5930.0 0.0001686 5920.96240 5929.49756
5960.0 0.0001678 5922.73975 5934.46484
5960.0 0.0001678 5924.50830 5941.17285
5960.0 0.0001678 5926.27051 5950.33740
5970.0 0.0001675 5928.02588 5962.72314
5970.0 0.0001675 5929.77051 5978.97461
5960.0 0.0001678 5931.50732 5999.44287
5970.0 0.0001675 5933.23438 6023.94141
5980.0 0.0001672 5934.95020 6051.55029
6000.0 0.0001667 5936.65381 6080.53027
6070.0 0.0001647 5938.34863 6108.32617
6140.0 0.0001629 5940.03076 6131.86621
6130.0 0.0001631 5941.69873 6148.34229
6110.0 0.0001637 5943.35303 6156.20459
6130.0 0.0001631 5944.99219 6155.04785
6150.0 0.0001626 5946.61865 6145.72705
6140.0 0.0001629 5948.22852 6129.58740
6140.0 0.0001629 5949.81982 6109.02686
6140.0 0.0001629 5951.39404 6085.43604
6120.0 0.0001634 5952.95117 6061.64893
6110.0 0.0001637 5954.48682 6039.60303
6110.0 0.0001637 5956.00391 6020.59326
6070.0 0.0001647 5957.49854 6005.22266
6010.0 0.0001664 5958.97217 5993.55566
5980.0 0.0001672 5960.42285 5985.26465
5950.0 0.0001681 5961.85059 5979.81006
5970.0 0.0001675 5963.25244 5976.57178
5960.0 0.0001678 5964.62988 5974.98779
5960.0 0.0001678 5965.97949 5974.57227
5970.0 0.0001675 5967.30273 5975.00244
5970.0 0.0001675 5968.59814 5976.09033
5980.0 0.0001672 5969.86377 5977.93652
6000.0 0.0001667 5971.09668 5980.27588
6010.0 0.0001664 5972.30176 5983.43262
5990.0 0.0001669 5973.47266 5987.54346
5970.0 0.0001675 5974.61328 5993.15723
5970.0 0.0001675 5975.71826 5999.88232
5970.0 0.0001675 5976.78760 6008.09521
5960.0 0.0001678 5977.82080 6017.71777
5960.0 0.0001678 5978.82031 6027.61279
5950.0 0.0001681 5979.78076 6038.83301
5970.0 0.0001675 5980.70410 6049.75244
5990.0 0.0001669 5981.58447 6058.93555
6010.0 0.0001664 5982.42920 6066.37695
6030.0 0.0001658 5983.23047 6070.31055
6060.0 0.0001650 5983.99072 6070.77344
6080.0 0.0001645 5984.70801 6066.84424
6080.0 0.0001645 5985.38232 6059.91846
6070.0 0.0001647 5986.01221 6051.37695
6080.0 0.0001645 5986.59814 6042.66162
6070.0 0.0001647 5987.13818 6034.99512
6070.0 0.0001647 5987.63330 6029.54248
6050.0 0.0001653 5988.08057 6026.31152
6010.0 0.0001664 5988.47900 6025.72363
6010.0 0.0001664 5988.83008 6027.63525
6000.0 0.0001667 5989.13379 6031.64600
5970.0 0.0001675 5989.38525 6037.61279
5980.0 0.0001672 5989.59131 6044.01709
6020.0 0.0001661 5989.74365 6050.57178
6030.0 0.0001658 5989.84473 6056.73584
6070.0 0.0001647 5989.89795 6062.19678
6110.0 0.0001637 5989.89697 6066.84863
6080.0 0.0001645 5989.84521 6070.78711
6080.0 0.0001645 5989.73926 6074.34326
6100.0 0.0001639 5989.58447 6078.16992
6090.0 0.0001642 5989.37207 6083.19141
6090.0 0.0001642 5989.11035 6089.95801
6110.0 0.0001637 5988.79297 6098.78271
6110.0 0.0001637 5988.42432 6109.39990
6110.0 0.0001637 5987.99951 6120.88281
6120.0 0.0001634 5987.52295 6131.69922
6130.0 0.0001631 5986.99121 6140.14160
6140.0 0.0001629 5986.40625 6144.32520
6140.0 0.0001629 5985.76904 6144.52783
6150.0 0.0001626 5985.07813 6140.54883
6150.0 0.0001626 5984.33105 6133.47412
6150.0 0.0001626 5983.53223 6124.68994
6160.0 0.0001623 5982.68018 6115.41309
6150.0 0.0001626 5981.77295 6106.45947
6140.0 0.0001629 5980.81641 6098.26709
6150.0 0.0001626 5979.80566 6091.04346
6120.0 0.0001634 5978.74219 6084.43555
6120.0 0.0001634 5977.62891 6078.05078
6100.0 0.0001639 5976.46387 6071.20850
6070.0 0.0001647 5975.24609 6063.33789
6060.0 0.0001650 5973.97900 6054.13037
6070.0 0.0001647 5972.66406 6044.24023
6060.0 0.0001650 5971.29590 6034.04541
6040.0 0.0001656 5969.88037 6024.21045
6050.0 0.0001653 5968.41797 6015.15283
6040.0 0.0001656 5966.90674 6006.80957
6010.0 0.0001664 5965.34912 5999.86182
6010.0 0.0001664 5963.74365 5993.87354
6030.0 0.0001658 5962.09473 5988.67822
6030.0 0.0001658 5960.40137 5984.12012
5980.0 0.0001672 5958.66455 5980.08643
5970.0 0.0001675 5956.88379 5976.59082
5990.0 0.0001669 5955.06299 5973.37451
6000.0 0.0001667 5953.19531 5970.02051
6000.0 0.0001667 5951.29297 5967.37402
5980.0 0.0001672 5949.34961 5964.37549
5960.0 0.0001678 5947.36816 5962.11426
5970.0 0.0001675 5945.34961 5959.99219
5970.0 0.0001675 5943.29443 5957.96875
5950.0 0.0001681 5941.20264 5955.96680
5950.0 0.0001681 5939.07959 5953.60791
5940.0 0.0001684 5936.92236 5951.32813
5950.0 0.0001681 5934.73291 5948.71924
5930.0 0.0001686 5932.51318 5945.72412
5930.0 0.0001686 5930.26221 5942.82324
5940.0 0.0001684 5927.98486 5939.27930
5940.0 0.0001684 5925.67920 5936.19580
5940.0 0.0001684 5923.34619 5933.06299
5940.0 0.0001684 5920.98926 5929.89014
5930.0 0.0001686 5918.60889 5927.15137
5940.0 0.0001684 5916.20654 5924.66699
5940.0 0.0001684 5913.78076 5922.62158
5930.0 0.0001686 5911.33789 5921.02148
5940.0 0.0001684 5908.87256 5919.82227
5930.0 0.0001686 5906.39404 5918.87305
5930.0 0.0001686 5903.89600 5918.27051
5910.0 0.0001692 5901.38330 5917.87061
5890.0 0.0001698 5898.85742 5917.54834
5900.0 0.0001695 5896.31934 5917.33057
5910.0 0.0001692 5893.76709 5917.36523
5920.0 0.0001689 5891.20703 5917.98193
5910.0 0.0001692 5888.63867 5919.67578
5870.0 0.0001704 5886.06152 5923.21484
5890.0 0.0001698 5883.47705 5929.33887
5900.0 0.0001695 5880.88916 5938.56250
5930.0 0.0001686 5878.29688 5951.36133
5940.0 0.0001684 5875.70117 5967.79590
5950.0 0.0001681 5873.10449 5987.37891
5970.0 0.0001675 5870.50635 6009.08789
6020.0 0.0001661 5867.90967 6031.20752
6070.0 0.0001647 5865.31445 6051.76758
6100.0 0.0001639 5862.72217 6068.35693
6110.0 0.0001637 5860.13525 6078.48926
6090.0 0.0001642 5857.55127 6080.59326
6060.0 0.0001650 5854.97510 6074.07910
6060.0 0.0001650 5852.40479 6059.60986
6030.0 0.0001658 5849.84326 6038.78027
6000.0 0.0001667 5847.29297 6013.82178
5990.0 0.0001669 5844.75098 5987.01904
5980.0 0.0001672 5842.21924 5960.43701
5950.0 0.0001681 5839.70215 5935.67676
5950.0 0.0001681 5837.19775 5913.78271
5930.0 0.0001686 5834.70703 5895.25537
5910.0 0.0001692 5832.23096 5880.14355
5890.0 0.0001698 5829.77051 5868.17725
5860.0 0.0001706 5827.32568 5858.91602
5850.0 0.0001709 5824.89844 5851.74902
5840.0 0.0001712 5822.49072 5846.39990
5800.0 0.0001724 5820.10205 5842.31250
5810.0 0.0001721 5817.73047 5839.10693
5830.0 0.0001715 5815.38086 5836.47461
5820.0 0.0001718 5813.05127 5834.18359
5790.0 0.0001727 5810.74170 5832.07031
5800.0 0.0001724 5808.45508 5830.03320
5780.0 0.0001730 5806.19092 5827.99170
5790.0 0.0001727 5803.94971 5825.87207
5770.0 0.0001733 5801.73291 5823.59570
5760.0 0.0001736 5799.53711 5821.07129
5770.0 0.0001733 5797.36816 5817.78809
5770.0 0.0001733 5795.22314 5814.62988
5760.0 0.0001736 5793.10010 5810.16992
5780.0 0.0001730 5791.00732 5806.17578
5780.0 0.0001730 5788.93555 5802.36865
5780.0 0.0001730 5786.89307 5798.44824
5780.0 0.0001730 5784.87402 5794.47559
5780.0 0.0001730 5782.88135 5790.76855
5770.0 0.0001733 5780.91455 5787.25098
5770.0 0.0001733 5778.97461 5783.96436
5770.0 0.0001733 5777.06104 5780.97559
5770.0 0.0001733 5775.17383 5778.18652
5770.0 0.0001733 5773.31250 5775.62207
5760.0 0.0001736 5771.47656 5773.23633
5770.0 0.0001733 5769.66895 5771.03613
5760.0 0.0001736 5767.88623 5769.01416
5750.0 0.0001739 5766.13086 5767.08789
5760.0 0.0001736 5764.39844 5765.28662
5770.0 0.0001733 5762.69434 5763.51758
5770.0 0.0001733 5761.01465 5761.81299
5740.0 0.0001742 5759.35889 5760.10693
5740.0 0.0001742 5757.72998 5758.55615
5750.0 0.0001739 5756.12500 5757.04639
5750.0 0.0001739 5754.54541 5755.58887
5770.0 0.0001733 5752.98975 5754.24414
5800.0 0.0001724 5751.45654 5752.99854
5790.0 0.0001727 5749.94678 5751.86865
5770.0 0.0001733 5748.45898 5750.76660
5730.0 0.0001745 5746.99561 5749.91406
5720.0 0.0001748 5745.55176 5749.20508
5730.0 0.0001745 5744.12988 5748.63623
5740.0 0.0001742 5742.72998 5748.15723
5750.0 0.0001739 5741.35010 5747.80420
5770.0 0.0001733 5739.98828 5747.49707
5780.0 0.0001730 5738.64600 5747.18555
5790.0 0.0001727 5737.32324 5746.81201
5790.0 0.0001727 5736.01807 5746.42334
5780.0 0.0001730 5734.72998 5745.75391
5760.0 0.0001736 5733.46045 5745.00195
5750.0 0.0001739 5732.20361 5743.87695
5780.0 0.0001730 5730.96289 5742.53564
5820.0 0.0001718 5729.73730 5741.00195
5810.0 0.0001721 5728.52588 5739.34814
5770.0 0.0001733 5727.32715 5737.65332
5750.0 0.0001739 5726.14111 5736.01270
5770.0 0.0001733 5724.96680 5734.52734
5760.0 0.0001736 5723.80371 5733.28174
5760.0 0.0001736 5722.64990 5732.44238
5790.0 0.0001727 5721.50537 5732.03613
5800.0 0.0001724 5720.37061 5731.91504
5770.0 0.0001733 5719.24365 5731.90332
5740.0 0.0001742 5718.12305 5732.06055
5740.0 0.0001742 5717.00928 5732.26123
5740.0 0.0001742 5715.89746 5732.35400
5710.0 0.0001751 5714.79590 5732.20215
5710.0 0.0001751 5713.69482 5731.67041
5730.0 0.0001745 5712.60059 5730.77930
5730.0 0.0001745 5711.50439 5729.39404
5730.0 0.0001745 5710.41455 5727.65918
5720.0 0.0001748 5709.32129 5725.68311
5710.0 0.0001751 5708.22998 5723.63477
5710.0 0.0001751 5707.13916 5721.67334
5710.0 0.0001751 5706.04297 5719.98730
5710.0 0.0001751 5704.94727 5718.76563
5710.0 0.0001751 5703.84814 5718.15771
5710.0 0.0001751 5702.74561 5718.24707
5720.0 0.0001748 5701.63623 5719.23438
5730.0 0.0001745 5700.52539 5721.07813
5740.0 0.0001742 5699.40576 5723.75586
5740.0 0.0001742 5698.28174 5727.18164
5740.0 0.0001742 5697.14795 5731.22363
5730.0 0.0001745 5696.00488 5735.59619
5720.0 0.0001748 5694.85742 5740.08057
5730.0 0.0001745 5693.69580 5744.39502
5730.0 0.0001745 5692.52832 5748.31641
5730.0 0.0001745 5691.34717 5751.69531
5730.0 0.0001745 5690.15430 5754.53418
5720.0 0.0001748 5688.94873 5756.98535
5740.0 0.0001742 5687.73242 5759.35938
5760.0 0.0001736 5686.50391 5761.81201
5770.0 0.0001733 5685.25977 5764.57959
5810.0 0.0001721 5684.00000 5767.78662
5820.0 0.0001718 5682.72656 5771.05127
5800.0 0.0001724 5681.43750 5774.09180
5820.0 0.0001718 5680.13184 5776.37158
5830.0 0.0001715 5678.80859 5777.30225
5830.0 0.0001715 5677.47168 5776.38721
5840.0 0.0001712 5676.11377 5773.34717
5830.0 0.0001715 5674.74072 5768.21240
5800.0 0.0001724 5673.34570 5761.33252
5800.0 0.0001724 5671.93457 5753.20068
5780.0 0.0001730 5670.50342 5744.32178
5750.0 0.0001739 5669.05273 5735.15771
5730.0 0.0001745 5667.58203 5726.07178
5720.0 0.0001748 5666.09180 5717.49219
5700.0 0.0001754 5664.58008 5709.45605
5700.0 0.0001754 5663.04443 5702.11572
5670.0 0.0001764 5661.49121 5695.58398
5660.0 0.0001767 5659.91553 5689.82324
5650.0 0.0001770 5658.31836 5684.79297
5610.0 0.0001783 5656.69922 5680.43018
5610.0 0.0001783 5655.05615 5676.66943
5640.0 0.0001773 5653.39355 5673.45215
5640.0 0.0001773 5651.70557 5670.71436
5600.0 0.0001786 5649.99561 5668.40283
5590.0 0.0001789 5648.26318 5666.46436
5600.0 0.0001786 5646.50830 5664.86670
5610.0 0.0001783 5644.72949 5663.54297
5610.0 0.0001783 5642.92725 5662.46875
5600.0 0.0001786 5641.10205 5661.61230
5620.0 0.0001779 5639.25342 5660.94580
5620.0 0.0001779 5637.38184 5660.45020
5630.0 0.0001776 5635.48633 5659.93701
5640.0 0.0001773 5633.56885 5659.55615
5670.0 0.0001764 5631.62646 5658.93018
5690.0 0.0001757 5629.66113 5658.20361
5690.0 0.0001757 5627.67285 5657.07861
5660.0 0.0001767 5625.66064 5655.46436
5640.0 0.0001773 5623.62598 5653.26416
5650.0 0.0001770 5621.56836 5650.54248
5660.0 0.0001767 5619.48779 5647.28223
5680.0 0.0001761 5617.38525 5643.67578
5680.0 0.0001761 5615.25830 5639.78320
5670.0 0.0001764 5613.11084 5635.99023
5630.0 0.0001776 5610.93994 5632.10840
5620.0 0.0001779 5608.74902 5628.47607
5620.0 0.0001779 5606.53418 5625.24121
5620.0 0.0001779 5604.29883 5622.21777
5620.0 0.0001779 5602.04248 5619.36816
5640.0 0.0001773 5599.76416 5616.58398
5640.0 0.0001773 5597.46533 5613.76807
5620.0 0.0001779 5595.14648 5610.77979
5620.0 0.0001779 5592.80566 5607.70801
5620.0 0.0001779 5590.44727 5604.45898
5590.0 0.0001789 5588.06836 5601.05176
5590.0 0.0001789 5585.66992 5597.53955
5570.0 0.0001795 5583.25342 5593.96045
5560.0 0.0001799 5580.81543 5590.44043
5560.0 0.0001799 5578.36328 5587.00879
5560.0 0.0001799 5575.89063 5583.71826
5570.0 0.0001795 5573.40283 5580.58887
5560.0 0.0001799 5570.89600 5577.65674
5550.0 0.0001802 5568.37354 5574.87158
5550.0 0.0001802 5565.83252 5572.26318
5560.0 0.0001799 5563.27783 5569.83008
5560.0 0.0001799 5560.70703 5567.50293
5560.0 0.0001799 5558.12207 5565.24805
5550.0 0.0001802 5555.52246 5563.12646
5540.0 0.0001805 5552.90820 5561.07861
5550.0 0.0001802 5550.27881 5559.08398
5540.0 0.0001805 5547.63916 5557.21631
5530.0 0.0001808 5544.98584 5555.26709
5530.0 0.0001808 5542.31738 5553.29395
5550.0 0.0001802 5539.64111 5551.20947
5550.0 0.0001802 5536.95068 5549.08301
5540.0 0.0001805 5534.25244 5546.82080
5510.0 0.0001815 5531.54199 5544.28857
5510.0 0.0001815 5528.81982 5541.70850
5510.0 0.0001815 5526.08936 5538.93018
5530.0 0.0001808 5523.35254 5536.01953
5560.0 0.0001799 5520.60547 5533.00879
5550.0 0.0001802 5517.85010 5529.94189
5550.0 0.0001802 5515.08789 5526.84814
5540.0 0.0001805 5512.31885 5523.75293
5520.0 0.0001812 5509.54150 5520.62598
5500.0 0.0001818 5506.76123 5517.46094
5530.0 0.0001808 5503.97314 5514.35596
5530.0 0.0001808 5501.18213 5511.14209
5520.0 0.0001812 5498.38721 5507.93506
5530.0 0.0001808 5495.58594 5504.83838
5540.0 0.0001805 5492.78418 5501.67383
5540.0 0.0001805 5489.97656 5498.67334
5530.0 0.0001808 5487.16846 5495.82617
5510.0 0.0001815 5484.35840 5493.15918
5510.0 0.0001815 5481.54736 5490.69189
5500.0 0.0001818 5478.73535 5488.42871
5480.0 0.0001825 5475.92139 5486.40527
5470.0 0.0001828 5473.10791 5484.51465
5480.0 0.0001825 5470.29736 5482.81104
5480.0 0.0001825 5467.48682 5481.16943
5480.0 0.0001825 5464.67529 5479.58691
5500.0 0.0001818 5461.86768 5478.02002
5500.0 0.0001818 5459.06104 5476.41309
5500.0 0.0001818 5456.26025 5474.72754
5520.0 0.0001812 5453.45850 5472.91211
5510.0 0.0001815 5450.66553 5470.93311
5520.0 0.0001812 5447.87500 5468.76611
5530.0 0.0001808 5445.08789 5466.35693
5510.0 0.0001815 5442.30566 5463.69775
5490.0 0.0001821 5439.52881 5461.06592
5490.0 0.0001821 5436.75781 5458.21191
5490.0 0.0001821 5433.99512 5455.18408
5480.0 0.0001825 5431.23486 5452.18848
5470.0 0.0001828 5428.48633 5449.35742
5450.0 0.0001835 5425.74072 5446.65771
5450.0 0.0001835 5423.00537 5444.25000
5450.0 0.0001835 5420.27783 5442.10498
5430.0 0.0001842 5417.55713 5440.22314
5440.0 0.0001838 5414.84521 5438.58887
5460.0 0.0001832 5412.14355 5437.16797
5470.0 0.0001828 5409.44971 5435.89307
5480.0 0.0001825 5406.76563 5434.68213
5460.0 0.0001832 5404.08984 5433.43213
5440.0 0.0001838 5401.42627 5432.02393
5430.0 0.0001842 5398.77148 5430.39307
5440.0 0.0001838 5396.12598 5428.48584
5440.0 0.0001838 5393.49316 5426.29297
5420.0 0.0001845 5390.86816 5423.77637
5410.0 0.0001848 5388.25537 5421.02783
5400.0 0.0001852 5385.65479 5418.15039
5380.0 0.0001859 5383.06201 5415.25049
5370.0 0.0001862 5380.48389 5412.45410
5370.0 0.0001862 5377.91553 5409.85352
5400.0 0.0001852 5375.35938 5407.55420
5400.0 0.0001852 5372.81201 5405.62695
5390.0 0.0001855 5370.27686 5404.13574
5380.0 0.0001859 5367.75293 5403.12939
5390.0 0.0001855 5365.24414 5402.67236
5400.0 0.0001852 5362.74170 5402.75830
5390.0 0.0001855 5360.25293 5403.34717
5380.0 0.0001859 5357.77393 5404.31982
5390.0 0.0001855 5355.30762 5405.57178
5410.0 0.0001848 5352.85059 5406.86279
5400.0 0.0001852 5350.40576 5407.92676
5400.0 0.0001852 5347.97021 5408.52734
5390.0 0.0001855 5345.54590 5408.11914
5390.0 0.0001855 5343.13379 5406.68701
5390.0 0.0001855 5340.72949 5403.94141
5390.0 0.0001855 5338.33545 5399.83057
5380.0 0.0001859 5335.95166 5394.53662
5380.0 0.0001859 5333.57715 5388.11621
5390.0 0.0001855 5331.21094 5380.94385
5380.0 0.0001859 5328.85449 5373.34277
5380.0 0.0001859 5326.50537 5365.58301
5390.0 0.0001855 5324.16504 5358.01318
5370.0 0.0001862 5321.83350 5350.83057
5340.0 0.0001873 5319.50830 5344.13428
5330.0 0.0001876 5317.19043 5338.04590
5320.0 0.0001880 5314.87793 5332.59082
5290.0 0.0001890 5312.57178 5327.78174
5290.0 0.0001890 5310.27148 5323.57129
5300.0 0.0001887 5307.97607 5319.76465
5300.0 0.0001887 5305.68555 5316.43896
5280.0 0.0001894 5303.39893 5313.43750
5260.0 0.0001901 5301.11426 5310.54346
5250.0 0.0001905 5298.83594 5307.89453
5260.0 0.0001901 5296.55908 5305.34180
5250.0 0.0001905 5294.28125 5302.85205
5280.0 0.0001894 5292.00635 5300.42773
5280.0 0.0001894 5289.73145 5298.06104
5290.0 0.0001890 5287.45654 5295.81494
5300.0 0.0001887 5285.18213 5293.60645
5320.0 0.0001880 5282.90479 5291.59912
5310.0 0.0001883 5280.62500 5289.83594
5280.0 0.0001894 5278.34229 5288.23242
5270.0 0.0001898 5276.05713 5286.84521
5270.0 0.0001898 5273.76855 5285.66406
5290.0 0.0001890 5271.47266 5284.66553
5260.0 0.0001901 5269.17188 5283.81738
5250.0 0.0001905 5266.86621 5283.11230
5250.0 0.0001905 5264.55273 5282.41553
5260.0 0.0001901 5262.23193 5281.66016
5240.0 0.0001908 5259.90039 5280.74170
5250.0 0.0001905 5257.56104 5279.64063
5260.0 0.0001901 5255.21240 5278.03906
5260.0 0.0001901 5252.85156 5276.24609
5250.0 0.0001905 5250.47900 5274.26855
5260.0 0.0001901 5248.09473 5271.96777
5270.0 0.0001898 5245.69873 5269.35693
5280.0 0.0001894 5243.28760 5266.47217
5270.0 0.0001898 5240.86035 5263.37891
5270.0 0.0001898 5238.42041 5260.11670
5280.0 0.0001894 5235.96484 5256.75684
5290.0 0.0001890 5233.49219 5253.38330
5270.0 0.0001898 5230.99951 5249.99609
5240.0 0.0001908 5228.49170 5246.68457
5250.0 0.0001905 5225.96387 5243.49072
5250.0 0.0001905 5223.41797 5240.45703
5250.0 0.0001905 5220.85059 5237.61377
5250.0 0.0001905 5218.26416 5235.03516
5260.0 0.0001901 5215.65625 5232.63574
5250.0 0.0001905 5213.02588 5230.43213
5250.0 0.0001905 5210.37207 5228.46582
5240.0 0.0001908 5207.69727 5226.69385
5250.0 0.0001905 5204.99854 5225.19727
5240.0 0.0001908 5202.27686 5223.66895
5230.0 0.0001912 5199.52881 5222.16797
5240.0 0.0001908 5196.75830 5220.62207
5250.0 0.0001905 5193.95947 5218.94873
5260.0 0.0001901 5191.13721 5217.06592
5240.0 0.0001908 5188.28906 5214.89209
5250.0 0.0001905 5185.41504 5212.38428
5250.0 0.0001905 5182.51514 5209.50781
5260.0 0.0001901 5179.58643 5206.27588
5260.0 0.0001901 5176.63281 5202.72119
5250.0 0.0001905 5173.65039 5198.90088
5220.0 0.0001916 5170.64160 5194.88232
5230.0 0.0001912 5167.60498 5190.72266
5210.0 0.0001919 5164.54248 5186.49121
5210.0 0.0001919 5161.44971 5182.23828
5200.0 0.0001923 5158.33301 5177.94238
5190.0 0.0001927 5155.18799 5173.79980
5180.0 0.0001931 5152.01514 5169.76660
5180.0 0.0001931 5148.81396 5165.86865
5170.0 0.0001934 5145.58984 5162.13379
5180.0 0.0001931 5142.33545 5158.47510
5170.0 0.0001934 5139.05518 5155.06885
5150.0 0.0001942 5135.75244 5152.03271
5130.0 0.0001949 5132.41992 5148.95117
5110.0 0.0001957 5129.06396 5146.13086
5120.0 0.0001953 5125.68408 5143.31494
5130.0 0.0001949 5122.27930 5140.57910
5120.0 0.0001953 5118.85156 5137.95264
5130.0 0.0001949 5115.40039 5135.37158
5130.0 0.0001949 5111.92627 5132.79297
5140.0 0.0001946 5108.43115 5130.17578
5130.0 0.0001949 5104.91504 5127.44482
5110.0 0.0001957 5101.37891 5124.58154
5120.0 0.0001953 5097.82324 5121.51416
5110.0 0.0001957 5094.24854 5118.16455
5130.0 0.0001949 5090.65723 5114.53613
5130.0 0.0001949 5087.04980 5110.57373
5110.0 0.0001957 5083.42676 5106.27588
5110.0 0.0001957 5079.79004 5101.66260
5100.0 0.0001961 5076.13623 5096.78271
5100.0 0.0001961 5072.47314 5091.70117
5110.0 0.0001957 5068.79834 5086.57373
5100.0 0.0001961 5065.11377 5081.46094
5060.0 0.0001976 5061.42041 5076.49902
5040.0 0.0001984 5057.71924 5071.58203
5040.0 0.0001984 5054.01074 5067.06934
5010.0 0.0001996 5050.29980 5062.91650
5030.0 0.0001988 5046.58105 5059.17139
5040.0 0.0001984 5042.86426 5055.85840
5020.0 0.0001992 5039.14551 5053.01318
5010.0 0.0001996 5035.42578 5050.70654
5020.0 0.0001992 5031.70850 5048.77246
5020.0 0.0001992 5027.99658 5047.24902
5030.0 0.0001988 5024.28613 5046.04443
5020.0 0.0001992 5020.58301 5045.05664
5000.0 0.0002000 5016.88818 5044.19287
4990.0 0.0002004 5013.20264 5043.28711
5000.0 0.0002000 5009.52637 5042.22412
5010.0 0.0001996 5005.86475 5040.75391
5020.0 0.0001992 5002.21387 5038.75146
5010.0 0.0001996 4998.57813 5036.05859
5000.0 0.0002000 4994.96191 5032.67969
5000.0 0.0002000 4991.35889 5028.55029
5010.0 0.0001996 4987.77783 5023.76025
5020.0 0.0001992 4984.21729 5018.29492
5020.0 0.0001992 4980.68018 5012.40771
5000.0 0.0002000 4977.16455 5006.24756
5000.0 0.0002000 4973.67285 5000.03467
5020.0 0.0001992 4970.21094 4993.84766
5020.0 0.0001992 4966.77393 4987.83838
4990.0 0.0002004 4963.36621 4982.13428
4990.0 0.0002004 4959.98926 4976.81201
4990.0 0.0002004 4956.64404 4971.92627
4990.0 0.0002004 4953.32959 4967.50195
4960.0 0.0002016 4950.04883 4963.40967
4950.0 0.0002020 4946.80273 4959.91992
4960.0 0.0002016 4943.59180 4956.83496
4950.0 0.0002020 4940.41797 4954.11963
4960.0 0.0002016 4937.27979 4951.71533
4960.0 0.0002016 4934.18115 4949.56348
4940.0 0.0002024 4931.12402 4947.60498
4950.0 0.0002020 4928.10205 4945.78711
4950.0 0.0002020 4925.12158 4944.05713
4960.0 0.0002016 4922.18408 4942.33984
4950.0 0.0002020 4919.28613 4940.61621
4950.0 0.0002020 4916.43066 4939.08984
4940.0 0.0002024 4913.61719 4937.34619
4950.0 0.0002020 4910.84717 4935.57764
4930.0 0.0002028 4908.11963 4933.68750
4940.0 0.0002024 4905.43555 4931.77979
4940.0 0.0002024 4902.79541 4929.90332
4940.0 0.0002024 4900.19531 4928.02686
4930.0 0.0002028 4897.64014 4926.21729
4940.0 0.0002024 4895.12744 4924.48633
4930.0 0.0002028 4892.65820 4922.85498
4950.0 0.0002020 4890.22900 4921.36572
4950.0 0.0002020 4887.84180 4919.85938
4920.0 0.0002033 4885.49805 4918.35400
4910.0 0.0002037 4883.19531 4916.58887
4920.0 0.0002033 4880.93066 4914.92334
4920.0 0.0002033 4878.70557 4912.99072
4940.0 0.0002024 4876.51953 4910.97705
4940.0 0.0002024 4874.37061 4908.76270
4920.0 0.0002033 4872.26074 4906.31641
4910.0 0.0002037 4870.18213 4903.68604
4910.0 0.0002037 4868.14160 4900.92871
4920.0 0.0002033 4866.13232 4898.08008
4910.0 0.0002037 4864.15430 4895.23584
4910.0 0.0002037 4862.20801 4892.50342
4890.0 0.0002045 4860.29102 4889.96729
4900.0 0.0002041 4858.40039 4887.72021
4890.0 0.0002045 4856.53711 4885.84668
4860.0 0.0002058 4854.69727 4884.39893
4850.0 0.0002062 4852.88037 4883.40283
4850.0 0.0002062 4851.08350 4882.85352
4860.0 0.0002058 4849.30713 4882.72900
4880.0 0.0002049 4847.54688 4882.91992
4890.0 0.0002045 4845.80078 4883.34668
4890.0 0.0002045 4844.07227 4883.83252
4900.0 0.0002041 4842.35205 4884.29883
4900.0 0.0002041 4840.64063 4884.54443
4880.0 0.0002049 4838.93848 4884.42041
4870.0 0.0002053 4837.23975 4883.84424
4870.0 0.0002053 4835.54395 4882.56934
4860.0 0.0002058 4833.85059 4880.68994
4870.0 0.0002053 4832.15576 4878.11621
4860.0 0.0002058 4830.45752 4874.93164
4850.0 0.0002062 4828.75342 4871.31885
4840.0 0.0002066 4827.04395 4867.38086
4830.0 0.0002070 4825.32227 4863.27002
4850.0 0.0002062 4823.59033 4859.14111
4860.0 0.0002058 4821.84619 4855.13232
4850.0 0.0002062 4820.08545 4851.36719
4860.0 0.0002058 4818.30566 4847.87354
4840.0 0.0002066 4816.50684 4844.81055
4850.0 0.0002062 4814.68506 4842.19873
4860.0 0.0002058 4812.84131 4839.92676
4850.0 0.0002062 4810.97168 4838.05225
4830.0 0.0002070 4809.07617 4836.44922
4820.0 0.0002075 4807.14990 4835.01709
4830.0 0.0002070 4805.19385 4833.82764
4840.0 0.0002066 4803.20459 4832.69922
4840.0 0.0002066 4801.18408 4831.51123
4850.0 0.0002062 4799.12744 4830.06885
4850.0 0.0002062 4797.03320 4828.36377
4860.0 0.0002058 4794.90381 4826.43262
4840.0 0.0002066 4792.73535 4824.12207
4820.0 0.0002075 4790.52686 4821.53857
4810.0 0.0002079 4788.27930 4818.55957
4820.0 0.0002075 4785.98779 4815.30225
4820.0 0.0002075 4783.65527 4811.83789
4810.0 0.0002079 4781.28076 4808.20850
4810.0 0.0002079 4778.86475 4804.50293
4800.0 0.0002083 4776.40186 4800.76123
4810.0 0.0002079 4773.89795 4797.04932
4800.0 0.0002083 4771.34961 4793.41211
4790.0 0.0002088 4768.75732 4789.90381
4790.0 0.0002088 4766.12256 4786.54980
4790.0 0.0002088 4763.44336 4783.40430
4770.0 0.0002096 4760.72217 4780.53418
4770.0 0.0002096 4757.95947 4777.80225
4760.0 0.0002101 4755.15527 4775.42090
4760.0 0.0002101 4752.31055 4773.29590
4770.0 0.0002096 4749.42822 4771.57959
4770.0 0.0002096 4746.50391 4770.11230
4750.0 0.0002105 4743.54443 4768.86035
4770.0 0.0002096 4740.55029 4767.81201
4770.0 0.0002096 4737.51953 4766.82617
4760.0 0.0002101 4734.45703 4765.87207
4740.0 0.0002110 4731.36377 4764.86475
4740.0 0.0002110 4728.23926 4763.72168
4730.0 0.0002114 4725.08936 4762.36914
4730.0 0.0002114 4721.91260 4760.71582
4730.0 0.0002114 4718.71240 4758.65674
4740.0 0.0002110 4715.49268 4756.17334
4740.0 0.0002110 4712.25342 4753.25732
4740.0 0.0002110 4708.99658 4749.92627
4730.0 0.0002114 4705.72559 4746.22900
4730.0 0.0002114 4702.44287 4742.25830
4730.0 0.0002114 4699.15381 4738.13525
4760.0 0.0002101 4695.85596 4733.88965
4750.0 0.0002105 4692.55420 4729.65625
4760.0 0.0002101 4689.25049 4725.49658
4750.0 0.0002105 4685.95020 4721.47217
4740.0 0.0002110 4682.65088 4717.63330
4720.0 0.0002119 4679.35986 4713.95557
4720.0 0.0002119 4676.07715 4710.46143
4730.0 0.0002114 4672.80664 4707.13281
4730.0 0.0002114 4669.54932 4703.94971
4720.0 0.0002119 4666.31006 4700.84961
4700.0 0.0002128 4663.08984 4697.79492
4690.0 0.0002132 4659.89160 4694.71240
4690.0 0.0002132 4656.71582 4691.55127
4690.0 0.0002132 4653.56787 4688.24658
4680.0 0.0002137 4650.44678 4684.76270
4680.0 0.0002137 4647.35645 4681.01855
4670.0 0.0002141 4644.29932 4677.01318
4660.0 0.0002146 4641.27344 4672.82422
4660.0 0.0002146 4638.28760 4668.45361
4660.0 0.0002146 4635.33545 4663.92139
4660.0 0.0002146 4632.42188 4659.31689
4650.0 0.0002151 4629.54932 4654.67334
4650.0 0.0002151 4626.71582 4650.05566
4660.0 0.0002146 4623.92285 4645.53174
4650.0 0.0002151 4621.17578 4641.19434
4650.0 0.0002151 4618.46826 4637.06592
4630.0 0.0002160 4615.80176 4633.21777
4630.0 0.0002160 4613.18066 4629.70752
4630.0 0.0002160 4610.60010 4626.45508
4620.0 0.0002165 4608.06104 4623.51709
4630.0 0.0002160 4605.56494 4620.91113
4630.0 0.0002160 4603.10742 4618.56055
4620.0 0.0002165 4600.69043 4616.47461
4620.0 0.0002165 4598.31055 4614.61865
4620.0 0.0002165 4595.96631 4612.93896
4620.0 0.0002165 4593.66016 4611.38721
4620.0 0.0002165 4591.38477 4609.95068
4600.0 0.0002174 4589.14014 4608.56641
4600.0 0.0002174 4586.92041 4607.19824
4620.0 0.0002165 4584.72803 4605.82227
4610.0 0.0002169 4582.55859 4604.41016
4600.0 0.0002174 4580.40918 4602.91943
4590.0 0.0002179 4578.27637 4601.33643
4570.0 0.0002188 4576.15332 4599.56934
4560.0 0.0002193 4574.04346 4597.74658
4570.0 0.0002188 4571.93896 4595.82373
4570.0 0.0002188 4569.83643 4593.71680
4570.0 0.0002188 4567.73389 4591.55371
4580.0 0.0002183 4565.62549 4589.26709
4590.0 0.0002179 4563.50732 4586.87256
4590.0 0.0002179 4561.37500 4584.34912
4600.0 0.0002174 4559.22559 4581.72559
4590.0 0.0002179 4557.05469 4579.01221
4590.0 0.0002179 4554.85693 4576.24609
4590.0 0.0002179 4552.63232 4573.43652
4580.0 0.0002183 4550.37402 4570.60547
4590.0 0.0002179 4548.07568 4567.72754
4590.0 0.0002179 4545.73877 4564.91162
4580.0 0.0002183 4543.35645 4562.12549
4570.0 0.0002188 4540.92334 4559.37207
4570.0 0.0002188 4538.44287 4556.66455
4560.0 0.0002193 4535.90527 4553.99121
4560.0 0.0002193 4533.31299 4551.31934
4530.0 0.0002208 4530.66016 4548.65723
4510.0 0.0002217 4527.94531 4546.03857
4510.0 0.0002217 4525.16699 4543.37891
4530.0 0.0002208 4522.32373 4540.71777
4520.0 0.0002212 4519.41260 4537.93164
4530.0 0.0002208 4516.43457 4535.15820
4540.0 0.0002203 4513.39258 4532.30371
4530.0 0.0002208 4510.28076 4529.34766
4520.0 0.0002212 4507.10303 4526.29297
4510.0 0.0002217 4503.85889 4523.15918
4510.0 0.0002217 4500.55176 4519.85449
4510.0 0.0002217 4497.18311 4516.42725
4520.0 0.0002212 4493.75391 4512.85938
4510.0 0.0002217 4490.26758 4509.16406
4500.0 0.0002222 4486.73193 4505.32959
4510.0 0.0002217 4483.14600 4501.36426
4510.0 0.0002217 4479.51416 4497.27881
4500.0 0.0002222 4475.84668 4493.08350
4490.0 0.0002227 4472.14600 4488.80420
4490.0 0.0002227 4468.41650 4484.45947
4500.0 0.0002222 4464.66650 4480.09570
4500.0 0.0002222 4460.90479 4475.71436
4500.0 0.0002222 4457.13281 4471.34570
4470.0 0.0002237 4453.36621 4467.01855
4450.0 0.0002247 4449.61133 4462.69971
4450.0 0.0002247 4445.87109 4458.47900
4450.0 0.0002247 4442.15869 4454.32520
4440.0 0.0002252 4438.48047 4450.23340
4430.0 0.0002257 4434.85010 4446.18896
4440.0 0.0002252 4431.26953 4442.23682
4430.0 0.0002257 4427.74951 4438.31396
4430.0 0.0002257 4424.30469 4434.50342
4430.0 0.0002257 4420.93506 4430.74561
4430.0 0.0002257 4417.65332 4427.07080
4440.0 0.0002252 4414.46875 4423.46436
4440.0 0.0002252 4411.38574 4419.95166
4420.0 0.0002262 4408.40967 4416.47754
4410.0 0.0002268 4405.55078 4413.19385
4400.0 0.0002273 4402.81104 4410.05322
4390.0 0.0002278 4400.19482 4407.06104
4390.0 0.0002278 4397.70801 4404.24756
4390.0 0.0002278 4395.34766 4401.59668
4390.0 0.0002278 4393.11914 4399.16162
4400.0 0.0002273 4391.02051 4396.94727
4390.0 0.0002278 4389.04736 4394.95068
4390.0 0.0002278 4387.19824 4393.16504
4390.0 0.0002278 4385.46826 4391.59570
4390.0 0.0002278 4383.84570 4390.23779
4400.0 0.0002273 4382.32471 4389.07959
4400.0 0.0002273 4380.89453 4388.10889
4390.0 0.0002278 4379.54053 4387.28711
4390.0 0.0002278 4378.24658 4386.58643
4390.0 0.0002278 4376.99414 4386.01074
4400.0 0.0002273 4375.76758 4385.49756
4410.0 0.0002268 4374.54004 4384.99316
4390.0 0.0002278 4373.28809 4384.47070
4390.0 0.0002278 4371.98975 4383.86621
4390.0 0.0002278 4370.61230 4383.09814
4390.0 0.0002278 4369.12744 4382.15186
4380.0 0.0002283 4367.50586 4380.97461
4370.0 0.0002288 4365.71143 4379.50830
4370.0 0.0002288 4363.70898 4377.69727
4360.0 0.0002294 4361.46777 4375.52588
4360.0 0.0002294 4358.94727 4372.95508
4360.0 0.0002294 4356.11963 4369.97266
4350.0 0.0002299 4352.94482 4366.50586
4350.0 0.0002299 4349.38867 4362.63232
4350.0 0.0002299 4345.42529 4358.28564
4350.0 0.0002299 4341.02246 4353.48926
4350.0 0.0002299 4336.15381 4348.22363
4350.0 0.0002299 4330.79932 4342.48047
4340.0 0.0002304 4324.95020 4336.27295
4330.0 0.0002309 4318.59424 4329.60742
4330.0 0.0002309 4311.72998 4322.48340
4330.0 0.0002309 4304.37744 4314.93164
4330.0 0.0002309 4296.54883 4306.96289
4310.0 0.0002320 4288.29053 4298.63184
4280.0 0.0002336 4279.64648 4289.94580
4270.0 0.0002342 4270.69922 4281.00977
4270.0 0.0002342 4261.53027 4271.88916
4260.0 0.0002347 4252.25195 4262.67334
4250.0 0.0002353 4243.01514 4253.49316
4240.0 0.0002358 4233.98193 4244.50635
4240.0 0.0002358 4225.35010 4235.91162
4230.0 . . .
4210.0 . . .
4220.0 . . .
4210.0 . . .
4210.0 . . .
4210.0 . . .
4210.0 . . .
4210.0 . . .
4210.0 . . .
4210.0 . . .
4210.0 . . .
4220.0 . . .
4220.0 . . .
4220.0 . . .
4200.0 . . .
4200.0 . . .
4200.0 . . .
4190.0 . . .
4210.0 . . .
4240.0 . . .
4220.0 . . .
4210.0 . . .
4210.0 . . .
4200.0 . . .
4210.0 . . .
4220.0 . . .
4230.0 . . .
4230.0 . . .
4220.0 . . .
4190.0 . . .
4190.0 . . .
4200.0 . . .
4200.0 . . .
4210.0 . . .
4220.0 . . .
4220.0 . . .
4220.0 . . .
4230.0 . . .
4220.0 . . .
4210.0 . . .
4200.0 . . .
4210.0 . . .
4200.0 . . .
4190.0 . . .
4180.0 . . .
4180.0 . . .
4180.0 . . .
4190.0 . . .
4180.0 . . .
4160.0 . . .
4150.0 . . .
4150.0 . . .
4140.0 . . .
4160.0 . . .
4160.0 . . .
4160.0 . . .
4150.0 . . .
4120.0 . . .
4120.0 . . .
4110.0 . . .
4110.0 . . .
4090.0 . . .
4090.0 . . .
4090.0 . . .
4090.0 . . .
4090.0 . . .
4080.0 . . .
4070.0 . . .
4070.0 . . .
4080.0 . . .
4070.0 . . .
4060.0 . . .
4070.0 . . .
4090.0 . . .
4080.0 . . .
4070.0 . . .
4070.0 . . .
4070.0 . . .
4060.0 . . .
4060.0 . . .
4060.0 . . .
4050.0 . . .
4060.0 . . .
4060.0 . . .
4050.0 . . .
4030.0 . . .
4040.0 . . .
4040.0 . . .
4030.0 . . .
4030.0 . . .
4050.0 . . .
4060.0 . . .
4080.0 . . .
4080.0 . . .
4070.0 . . .
4080.0 . . .
4070.0 . . .
4080.0 . . .
4080.0 . . .
4070.0 . . .
4050.0 . . .
4050.0 . . .
4040.0 . . .
4040.0 . . .
4040.0 . . .
4040.0 . . .
4040.0 . . .
4040.0 . . .
4040.0 . . .
4020.0 . . .
4020.0 . . .
4040.0 . . .
4030.0 . . .
4020.0 . . .
4020.0 . . .
4020.0 . . .
4010.0 . . .
4010.0 . . .
4020.0 . . .
4010.0 . . .
4000.0 . . .
3980.0 . . .
3970.0 . . .
3980.0 . . .
3970.0 . . .
3970.0 . . .
3950.0 . . .
3940.0 . . .
3940.0 . . .
3950.0 . . .
3960.0 . . .
3950.0 . . .
3940.0 . . .
3920.0 . . .
3920.0 . . .
3910.0 . . .
3910.0 . . .
3920.0 . . .
3920.0 . . .
3910.0 . . .
3920.0 . . .
3920.0 . . .
3930.0 . . .
3940.0 . . .
3920.0 . . .
3930.0 . . .
3930.0 . . .
3930.0 . . .
3930.0 . . .
3920.0 . . .
3910.0 . . .
3910.0 . . .
3900.0 . . .
3900.0 . . .
3900.0 . . .
3910.0 . . .
3920.0 . . .
3910.0 . . .
3910.0 . . .
3900.0 . . .
3880.0 . . .
3880.0 . . .
3880.0 . . .
3860.0 . . .
3870.0 . . .
3870.0 . . .
3860.0 . . .
3860.0 . . .
3860.0 . . .
3860.0 . . .
3850.0 . . .
3840.0 . . .
3840.0 . . .
3850.0 . . .
3840.0 . . .
3840.0 . . .
3850.0 . . .
3840.0 . . .
3840.0 . . .
3850.0 . . .
3850.0 . . .
3850.0 . . .
3840.0 . . .
3850.0 . . .
3850.0 . . .
3830.0 . . .
3820.0 . . .
3830.0 . . .
3820.0 . . .
3810.0 . . .
3800.0 . . .
3790.0 . . .
3780.0 . . .
3780.0 . . .
3770.0 . . .
3770.0 . . .
3770.0 . . .
3770.0 . . .
3750.0 . . .
3740.0 . . .
3730.0 . . .
3710.0 . . .
3710.0 . . .
3710.0 . . .
3710.0 . . .
3700.0 . . .
3690.0 . . .
3690.0 . . .
3680.0 . . .
3690.0 . . .
3680.0 . . .
3670.0 . . .
3690.0 . . .
3690.0 . . .
3670.0 . . .
3670.0 . . .
3670.0 . . .
3680.0 . . .
3680.0 . . .
3680.0 . . .
3690.0 . . .
3680.0 . . .
3700.0 . . .
3700.0 . . .
3690.0 . . .
3690.0 . . .
3690.0 . . .
3690.0 . . .
3690.0 . . .
3680.0 . . .
3710.0 . . .
3740.0 . . .
3740.0 . . .
3730.0 . . .
3740.0 . . .
3740.0 . . .
3750.0 . . .
3750.0 . . .
3740.0 . . .
3730.0 . . .
3730.0 . . .
3730.0 . . .
3730.0 . . .
3730.0 . . .
3740.0 . . .
3760.0 . . .
3750.0 . . .
3750.0 . . .
3740.0 . . .
3740.0 . . .
3740.0 . . .
3730.0 . . .
3730.0 . . .
3730.0 . . .
3730.0 . . .
3700.0 . . .
3680.0 . . .
3670.0 . . .
3670.0 . . .
3650.0 . . .
3620.0 . . .
3620.0 . . .
3620.0 . . .
3610.0 . . .
3610.0 . . .
3620.0 . . .
3610.0 . . .
3600.0 . . .
3590.0 . . .
3600.0 . . .
3580.0 . . .
3560.0 . . .
3560.0 . . .
3560.0 . . .
3560.0 . . .
3560.0 . . .
3550.0 . . .
3540.0 . . .
3550.0 . . .
3540.0 . . .
3520.0 . . .
3510.0 . . .
3500.0 . . .
3490.0 . . .
3460.0 . . .
3440.0 . . .
3410.0 . . .
3380.0 . . .
3360.0 . . .
3350.0 . . .
3340.0 . . .
3300.0 . . .
3270.0 . . .
3230.0 . . .
3200.0 . . .
3150.0 . . .
3120.0 . . .
3090.0 . . .
3060.0 . . .
3030.0 . . .
3000.0 . . .
2980.0 . . .
2960.0 . . .
2950.0 . . .
2940.0 . . .
2930.0 . . .
2910.0 . . .
2900.0 . . .
2880.0 . . .
2860.0 . . .
2820.0 . . .
2330.0 . . .
1870.0 . . .
1540.0 . . .
1220.0 . . .
903.0 . . .
464.0 . . .
28.0 . . .
0.0 . . .
0.0 . . .
0.0 . . .
0.0 . . .
0.0 . . .
0.0 . . .
0.0 . . .
0.0 . . .
0.0 . . .
0.0 . . .
0.0 . . .
0.0 . . .
0.0 . . .
0.0 . . .
0.0 . . .
0.0 . . .
0.0 . . .
0.0 . . .
0.0 . . .
0.0 . . .
0.0 . . .
0.0 . . .
0.0 . . .
0.0 . . .
0.0 . . .
0.0 . . .
0.0 . . .
0.0 . . .
0.0 . . .
0.0 . . .
0.0 . . .
0.0 . . .
0.0 . . .
0.0 . . .
0.0 . . .
0.0 . . .
0.0 . . .
0.0 . . .
0.0 . . .
0.0 . . .
0.0 . . .
0.0 . . .
0.0 . . .
0.0 . . .
0.0 . . .
0.0 . . .
0.0 . . .
0.0 . . .
0.0 . . .
0.0 . . .
0.0 . . .
0.0 . . .
0.0 . . .
0.0 . . .
0.0 . . .
0.0 . . .
0.0 . . .
0.0 . . .
0.0 . . .
0.0 . . .
0.0 . . .
0.0 . . .
0.0 . . .
0.0 . . .
0.0 . . .
0.0 . . .
0.0 . . .
0.0 . . .
0.0 . . .
0.0 . . .
0.0 . . .
0.0 . . .
0.0 . . .
0.0 . . .
0.0 . . .
0.0 . . .
0.0 . . .
0.0 . . .
0.0 . . .
0.0 . . .
0.0 . . .
0.0 . . .
0.0 . . .
0.0 . . .
0.0 . . .
0.0 . . .
0.0 . . .
0.0 . . .
0.0 . . .
0.0 . . .
0.0 . . .
0.0 . . .
0.0 . . .
0.0 . . .
0.0 . . .
0.0 . . .
0.0 . . .
0.0 . . .
0.0 . . .
0.0 . . .
0.0 . . .
0.0 . . .
0.0 . . .
0.0 . . .
0.0 . . .
0.0 . . .
0.0 . . .
0.0 . . .
0.0 . . .
0.0 . . .
0.0 . . .
0.0 . . .
0.0 . . .
0.0 . . .
0.0 . . .
0.0 . . .
0.0 . . .
0.0 . . .
0.0 . . .
0.0 . . .
0.0 . . .
0.0 . . .
0.0 . . .
0.0 . . .
0.0 . . .
0.0 . . .
0.0 . . .
0.0 . . .
0.0 . . .
0.0 . . .
0.0 . . .
0.0 . . .
0.0 . . .
0.0 . . .
0.0 . . .
0.0 . . .
0.0 . . .
0.0 . . .
0.0 . . .
0.0 . . .
0.0 . . .
0.0 . . .
0.0 . . .
0.0 . . .
0.0 . . .
0.0 . . .
0.0 . . .
0.0 . . .
0.0 . . .
0.0 . . .
0.0 . . .
0.0 . . .
0.0 . . .
0.0 . . .
0.0 . . .
0.0 . . .
0.0 . . .
0.0 . . .
0.0 . . .
0.0 . . .
0.0 . . .
0.0 . . .
0.0 . . .
0.0 . . .
0.0 . . .
0.0 . . .
0.0 . . .
0.0 . . .
0.0 . . .
0.0 . . .
0.0 . . .
0.0 . . .
0.0 . . .
0.0 . . .
0.0 . . .
0.0 . . .
0.0 . . .
0.0 . . .
0.0 . . .
0.0 . . .
0.0 . . .
0.0 . . .
0.0 . . .
0.0 . . .
0.0 . . .
0.0 . . .
0.0 . . .
0.0 . . .
0.0 . . .
0.0 . . .
0.0 . . .
0.0 . . .
0.0 . . .
0.0 . . .
0.0 . . .
0.0 . . .
0.0 . . .
0.0 . . .
0.0 . . .
0.0 . . .
0.0 . . .
0.0 . . .
0.0 . . .
0.0 . . .
0.0 . . .
0.0 . . .
0.0 . . .
0.0 . . .
0.0 . . .
0.0 . . .
0.0 . . .
0.0 . . .
0.0 . . .
0.0 . . .
0.0 . . .
0.0 . . .
0.0 . . .
0.0 . . .
0.0 . . .
0.0 . . .
0.0 . . .
0.0 . . .
0.0 . . .
0.0 . . .
0.0 . . .
0.0 . . .
0.0 . . .
0.0 . . .
0.0 . . .
0.0 . . .
0.0 . . .
0.0 . . .
0.0 . . .
0.0 . . .
0.0 . . .
0.0 . . .
0.0 . . .
0.0 . . .
0.0 . . .
0.0 . . .
0.0 . . .
0.0 . . .
0.0 . . .
0.0 . . .
0.0 . . .
0.0 . . .
0.0 . . .
0.0 . . .
0.0 . . .
0.0 . . .
0.0 . . .
0.0 . . .
0.0 . . .
0.0 . . .
0.0 . . .
0.0 . . .
0.0 . . .
0.0 . . .
0.0 . . .
0.0 . . .
0.0 . . .
0.0 . . .
0.0 . . .
0.0 . . .
0.0 . . .
0.0 . . .
0.0 . . .
0.0 . . .
0.0 . . .
0.0 . . .
0.0 . . .
0.0 . . .
0.0 . . .
0.0 . . .
0.0 . . .
0.0 . . .
0.0 . . .
0.0 . . .
0.0 . . .
0.0 . . .
0.0 . . .
0.0 . . .
0.0 . . .
0.0 . . .
0.0 . . .
0.0 . . .
0.0 . . .
0.0 . . .
0.0 . . .
0.0 . . .
0.0 . . .
0.0 . . .
0.0 . . .
0.0 . . .
0.0 . . .
0.0 . . .
0.0 . . .
0.0 . . .
0.0 . . .
0.0 . . .
0.0 . . .
0.0 . . .
0.0 . . .
0.0 . . .
0.0 . . .
0.0 . . .
0.0 . . .
0.0 . . .
0.0 . . .
0.0 . . .
0.0 . . .
0.0 . . .
0.0 . . .
0.0 . . .
0.0 . . .
0.0 . . .
0.0 . . .
0.0 . . .
0.0 . . .
0.0 . . .
0.0 . . .
0.0 . . .
0.0 . . .
0.0 . . .
0.0 . . .
0.0 . . .
0.0 . . .
0.0 . . .
0.0 . . .
0.0 . . .
0.0 . . .
0.0 . . .
0.0 . . .
0.0 . . .
0.0 . . .
0.0 . . .
0.0 . . .
0.0 . . .
0.0 . . .
0.0 . . .
0.0 . . .
0.0 . . .
0.0 . . .
0.0 . . .
0.0 . . .
0.0 . . .
0.0 . . .
0.0 . . .
0.0 . . .
0.0 . . .
0.0 . . .
0.0 . . .
0.0 . . .
0.0 . . .
0.0 . . .
0.0 . . .
0.0 . . .
0.0 . . .
0.0 . . .
0.0 . . .
0.0 . . .
0.0 . . .
0.0 . . .
0.0 . . .
0.0 . . .
0.0 . . .
0.0 . . .
0.0 . . .
0.0 . . .
0.0 . . .
0.0 . . .
0.0 . . .
0.0 . . .
0.0 . . .
0.0 . . .
0.0 . . .
loop_
_refln_index_h
_refln_index_k
_refln_index_l
_refln_observed_status
_refln_F_squared_meas
_refln_F_squared_calc
_refln_phase_calc
_refln_d_spacing
_gsas_i100_meas
0 0 1 o 769.148 763.531 0.00 6.90995 41.63
1 1 -1 o 306.217 281.253 0.00 4.45202 29.44
0 1 1 o 29.974 30.270 0.00 4.40151 2.09
1 1 0 o 1574.758 1586.594 0.00 4.24099 100.00
2 0 -1 o 1708.148 1640.637 0.00 3.82181 46.93
2 0 -2 o 484.054 529.248 180.00 3.55524 11.77
0 0 2 o 245.480 214.723 180.00 3.45498 3.32
1 1 -2 o 78.339 83.211 180.00 3.38654 3.74
2 1 -1 o 1240.490 1257.620 180.00 3.17600 50.83
2 0 0 o 2214.523 2223.052 0.00 3.16704 26.53
1 1 1 o 145.320 116.995 180.00 3.12147 3.33
2 1 -2 o 35.035 22.122 0.00 3.01800 1.36
0 1 2 o 23.381 17.766 0.00 2.95594 0.56
0 2 0 o 226.427 337.359 180.00 2.85486 5.35
2 1 0 o 1502.188 1442.408 180.00 2.76953 32.00
2 0 -3 o 5.120 4.215 0.00 2.75602 0.08
1 2 -1 o 56.043 45.083 0.00 2.64930 2.13
0 2 1 o 288.168 249.752 180.00 2.63853 9.54
1 2 0 o 116.029 116.311 180.00 2.60271 3.66
2 1 -3 o 6.348 23.692 0.00 2.48201 0.16
1 1 -3 o 251.288 266.426 0.00 2.45572 5.31
2 0 1 o 14.344 29.284 180.00 2.40548 0.08
1 2 -2 o 70.617 123.394 0.00 2.36217 1.87
3 1 -2 o 0.335 0.737 180.00 2.34252 0.01
0 0 3 o 675.576 523.285 0.00 2.30332 4.07
2 2 -1 o 7.187 6.005 0.00 2.28718 0.17
1 1 2 o 2.931 2.510 180.00 2.28485 0.03
1 2 1 o 56.830 55.940 180.00 2.26657 0.99
3 1 -1 o 588.490 561.766 0.00 2.24919 10.24
2 2 -2 o 6.276 6.342 0.00 2.22601 0.15
2 1 1 o 0.025 0.028 180.00 2.21678 0.00
0 2 2 o 74.101 84.123 0.00 2.20075 1.29
3 1 -3 o 140.657 139.601 0.00 2.18905 2.74
0 1 3 o 21.469 45.080 0.00 2.13606 0.24
2 2 0 o 129.875 91.196 180.00 2.12049 2.07
2 0 -4 o 85.653 27.514 0.00 2.10314 0.72
2 2 -3 o 271.427 312.462 0.00 1.98282 4.85
3 1 0 o 24.664 26.858 0.00 1.98030 0.25
2 1 -4 o 195.253 180.444 180.00 1.97352 2.97
1 2 -3 o 119.228 101.679 0.00 1.96934 1.84
4 0 -2 o 14.682 46.870 180.00 1.91090 0.10
4 0 -3 o 4.044 12.219 0.00 1.90965 0.03
3 2 -2 o 5.109 15.317 0.00 1.90951 0.08
3 1 -4 o 158.047 228.416 0.00 1.89996 2.28
1 2 2 o 4.108 4.948 180.00 1.87788 0.04
1 1 -4 o 70.381 93.112 0.00 1.86879 0.77
2 0 2 o 47.152 56.861 0.00 1.86394 0.15
3 2 -1 o 138.459 147.008 180.00 1.85793 1.84
2 2 1 o 127.171 120.295 180.00 1.83954 1.18
1 3 -1 o 88.024 82.730 180.00 1.83852 1.67
0 3 1 o 210.080 191.354 180.00 1.83491 3.71
3 2 -3 o 56.784 45.750 0.00 1.82360 0.85
1 3 0 o 72.421 57.886 180.00 1.82273 1.25
4 1 -2 o 0.047 0.035 180.00 1.81211 0.00
4 1 -3 o 276.522 204.172 0.00 1.81104 3.75
0 2 3 o 98.367 58.310 0.00 1.79262 0.96
4 0 -1 o 6.593 3.865 0.00 1.78066 0.03
4 0 -4 o 72.628 44.454 0.00 1.77762 0.44
2 1 2 o 4.793 3.390 0.00 1.77191 0.03
1 1 3 o 90.290 80.609 0.00 1.76129 0.58
1 3 -2 o 0.003 0.003 0.00 1.73399 0.00
0 0 4 o 152.015 180.096 0.00 1.72749 0.52
2 3 -1 o 158.610 175.666 0.00 1.70367 2.31
4 1 -1 o 603.646 627.965 180.00 1.69991 5.43
3 2 0 o 197.578 199.660 180.00 1.69755 1.72
4 1 -4 o 12.933 13.025 0.00 1.69727 0.15
1 3 1 o 24.967 24.646 180.00 1.69510 0.30
2 2 -4 o 79.582 77.507 0.00 1.69327 0.95
3 1 1 o 31.237 37.239 180.00 1.68023 0.19
2 3 -2 o 2.431 3.407 0.00 1.67793 0.04
0 3 2 o 0.000 30.443 180.00 1.66704 0.00
2 0 -5 o 0.000 26.163 180.00 1.66116 0.00
0 1 4 o 0.000 88.245 0.00 1.65347 0.00
3 2 -4 o 0.000 15.392 180.00 1.64612 0.00
2 3 0 o 0.000 0.007 180.00 1.63133 0.00
1 2 -4 o 0.000 0.051 0.00 1.62573 0.00
3 1 -5 o 0.387 0.148 0.00 1.60697 0.00
2 1 -5 o 34.739 11.073 180.00 1.59502 0.32
4 2 -2 o 98.006 26.711 0.00 1.58800 1.01
4 2 -3 o 4.578 1.226 0.00 1.58728 0.05
2 3 -3 o 1.153 0.419 180.00 1.56610 0.01
4 0 0 o 129.390 32.562 180.00 1.58352 0.39
4 0 -5 o 147.055 35.973 180.00 1.57996 0.70
2 2 2 o 40.545 22.002 0.00 1.56073 0.23
1 3 -3 o 78.449 47.319 0.00 1.55943 0.85
1 2 3 o 45.996 43.539 180.00 1.55346 0.27
3 3 -2 o 89.240 95.909 180.00 1.52921 1.01
4 1 0 o 228.024 238.464 180.00 1.52592 1.33
4 1 -5 o 8.368 8.229 180.00 1.52274 0.08
1 3 2 o 161.325 131.225 0.00 1.51282 1.26
4 2 -1 o 321.654 260.913 0.00 1.51086 2.50
4 2 -4 o 201.539 166.595 0.00 1.50900 1.96
3 3 -1 o 2.922 3.282 180.00 1.50233 0.03
2 0 3 o 216.182 338.811 0.00 1.49952 0.44
3 2 1 o 1.337 3.754 0.00 1.49699 0.01
1 1 -5 o 0.000 3.922 0.00 1.49280 0.00
2 3 1 o 0.000 35.367 180.00 1.49256 0.00
5 1 -3 o 0.000 2.994 0.00 1.48915 0.00
3 3 -3 o 0.000 11.675 180.00 1.48401 0.00
0 2 4 o 0.000 61.540 180.00 1.47797 0.00
0 3 3 o 42.253 67.745 180.00 1.46717 0.33
5 1 -4 o 108.942 108.349 0.00 1.46317 0.95
2 1 3 o 38.725 35.268 180.00 1.45034 0.16
5 1 -2 o 11.597 11.916 0.00 1.44840 0.09
3 2 -5 o 35.336 59.940 180.00 1.44448 0.31
2 2 -5 o 0.000 1.201 0.00 1.43578 0.00
0 4 0 o 0.000 18.520 0.00 1.42743 0.00
1 1 4 o 0.000 1.580 0.00 1.42126 0.00
3 1 2 o 0.000 26.552 0.00 1.42090 0.00
3 3 0 o 2.434 15.887 180.00 1.41366 0.02
2 3 -4 o 21.930 49.221 0.00 1.41119 0.20
1 4 -1 o 37.619 18.095 0.00 1.39951 0.42
0 4 1 o 39.343 17.481 180.00 1.39791 0.42
1 4 0 o 0.244 0.096 0.00 1.39251 0.00
4 2 0 o 14.239 6.329 180.00 1.38476 0.08
3 3 -4 o 0.024 0.011 180.00 1.38354 0.00
4 2 -5 o 42.714 19.434 0.00 1.38238 0.34
0 0 5 o 35.606 16.225 180.00 1.38199 0.08
4 0 1 o 2.450 1.116 180.00 1.38132 0.00
5 1 -5 o 0.543 0.246 180.00 1.37994 0.00
4 0 -6 o 134.116 59.584 0.00 1.37801 0.50
1 3 -4 o 261.166 112.346 180.00 1.37137 1.90
3 1 -6 o 74.626 40.987 0.00 1.36164 0.53
2 0 -6 o 4.721 2.727 0.00 1.36008 0.01
1 2 -5 o 5.570 3.241 0.00 1.35987 0.03
5 2 -3 o 0.586 0.374 180.00 1.35710 0.00
5 1 -1 o 32.975 22.364 0.00 1.35545 0.18
1 4 -2 o 82.666 66.247 180.00 1.35172 0.81
4 3 -2 o 3.165 3.060 180.00 1.34849 0.03
4 3 -3 o 92.906 92.366 180.00 1.34805 0.78
0 1 5 o 1.216 1.648 0.00 1.34321 0.01
4 1 1 o 1.183 1.654 0.00 1.34259 0.00
4 1 -6 o 36.208 55.712 0.00 1.33955 0.26
5 2 -4 o 8.365 12.960 180.00 1.33735 0.06
2 4 -1 o 17.799 27.558 180.00 1.33720 0.17
1 4 1 o 5.014 7.307 180.00 1.33305 0.04
2 3 2 o 15.801 22.394 180.00 1.33168 0.08
2 2 3 o 34.074 45.204 180.00 1.32754 0.13
1 3 3 o 2.263 2.988 0.00 1.32715 0.01
5 2 -2 o 26.321 34.535 180.00 1.32605 0.17
2 4 -2 o 160.362 210.953 180.00 1.32465 1.53
2 1 -6 o 149.310 200.345 0.00 1.32306 0.88
0 4 2 o 8.809 14.561 180.00 1.31927 0.07
1 2 4 o 0.000 50.879 180.00 1.30513 0.00
3 2 2 o 0.000 0.091 0.00 1.30484 0.00
2 4 0 o 0.000 5.539 0.00 1.30136 0.00
4 3 -1 o 0.000 9.138 0.00 1.30029 0.00
4 3 -4 o 0.000 8.957 180.00 1.29911 0.00
3 3 1 o 0.000 0.000 0.00 1.29142 0.00
6 0 -4 o 60.674 189.952 0.00 1.28433 0.20
0 3 4 o 102.024 135.113 180.00 1.27915 0.53
6 0 -3 o 35.212 27.701 0.00 1.27394 0.11
5 2 -5 o 57.326 42.232 180.00 1.27291 0.39
2 4 -3 o 31.679 18.589 180.00 1.26751 0.26
5 1 -6 o 0.603 0.330 180.00 1.26483 0.00
1 4 -3 o 36.851 19.828 180.00 1.26397 0.28
3 2 -6 o 18.554 9.007 0.00 1.25851 0.12
3 3 -5 o 82.990 39.502 180.00 1.25725 0.58
5 2 -1 o 396.480 182.095 180.00 1.25362 1.96
6 1 -4 o 29.453 13.501 0.00 1.25302 0.19
6 0 -5 o 5.618 2.579 0.00 1.25176 0.02
2 3 -5 o 22.185 10.194 0.00 1.25151 0.14
3 4 -2 o 61.687 30.038 180.00 1.24772 0.49
2 0 4 o 95.143 47.924 0.00 1.24659 0.14
0 2 5 o 20.204 11.383 0.00 1.24391 0.08
4 2 1 o 13.976 8.082 180.00 1.24342 0.05
6 1 -3 o 41.061 23.813 0.00 1.24336 0.24
4 2 -6 o 5.877 3.937 180.00 1.24100 0.04
1 4 2 o 0.030 0.024 0.00 1.23876 0.00
1 1 -6 o 36.248 31.354 0.00 1.23747 0.15
5 1 0 o 26.074 23.754 180.00 1.23674 0.10
3 4 -1 o 30.703 34.230 0.00 1.23299 0.22
2 2 -6 o 60.708 70.995 0.00 1.22786 0.32
2 4 1 o 0.490 0.572 180.00 1.22757 0.00
6 0 -2 o 9.733 12.356 180.00 1.22353 0.02
3 4 -3 o 100.003 132.557 180.00 1.22279 0.77
6 1 -5 o 1.460 1.945 0.00 1.22272 0.01
2 1 4 o 0.736 2.143 180.00 1.21790 0.00
4 3 0 o 0.012 0.044 0.00 1.21728 0.00
4 3 -5 o 0.220 2.161 180.00 1.21566 0.00
3 1 3 o 0.000 1.898 0.00 1.21420 0.00
0 4 3 o 0.000 2.570 0.00 1.21332 0.00
4 0 2 o 3.025 28.766 0.00 1.20274 0.00
1 3 -5 o 31.972 90.071 180.00 1.20027 0.16
4 0 -7 o 158.325 404.673 0.00 1.19993 0.45
5 3 -3 o 82.025 146.571 180.00 1.19837 0.51
6 1 -2 o 0.010 0.013 180.00 1.19637 0.00
1 1 5 o 0.090 0.070 0.00 1.18709 0.00
6 0 -6 o 1.207 0.932 0.00 1.18508 0.00
5 3 -4 o 0.288 0.222 0.00 1.18470 0.00
3 4 0 o 1.161 0.896 180.00 1.18254 0.01
2 4 -4 o 45.313 34.997 180.00 1.18109 0.30
5 2 -6 o 12.884 9.950 180.00 1.18089 0.07
2 3 3 o 48.662 37.288 180.00 1.17786 0.17
4 1 2 o 39.545 30.175 180.00 1.17691 0.11
5 3 -2 o 8.126 6.199 180.00 1.17682 0.04
4 1 -7 o 191.639 144.647 0.00 1.17428 1.04
6 2 -4 o 1.115 0.831 180.00 1.17126 0.01
3 1 -7 o 87.359 64.671 0.00 1.16773 0.44
3 4 -4 o 40.917 30.525 0.00 1.16474 0.28
6 2 -3 o 77.537 58.454 180.00 1.16336 0.41
1 3 4 o 224.366 171.659 180.00 1.16213 0.82
3 3 2 o 57.939 44.446 0.00 1.16193 0.20
6 1 -6 o 0.195 0.154 180.00 1.16035 0.00
1 2 -6 o 111.469 92.054 0.00 1.15853 0.44
5 2 0 o 24.734 20.781 180.00 1.15793 0.09
1 4 -4 o 71.845 61.320 0.00 1.15744 0.41
0 0 6 o 47.339 49.545 180.00 1.15166 0.07
2 0 -7 o 4.074 4.716 0.00 1.14657 0.01
6 2 -5 o 16.845 19.535 0.00 1.14640 0.09
6 0 -1 o 89.611 104.536 180.00 1.14580 0.16
4 4 -2 o 144.378 170.729 180.00 1.14359 0.87
4 4 -3 o 86.652 102.528 180.00 1.14332 0.55
2 2 4 o 110.559 130.841 180.00 1.14242 0.31
5 1 -7 o 90.682 107.136 0.00 1.14191 0.47
0 1 6 o 51.311 45.259 180.00 1.12892 0.15
3 3 -6 o 12.229 10.775 180.00 1.12885 0.07
3 2 3 o 67.743 78.041 180.00 1.13937 0.18
5 3 -5 o 17.105 19.647 0.00 1.13921 0.10
1 5 -1 o 21.633 18.683 180.00 1.12750 0.16
0 5 1 o 17.881 15.309 0.00 1.12666 0.13
5 3 -1 o 33.869 28.728 0.00 1.12531 0.15
6 2 -2 o 92.129 78.083 0.00 1.12460 0.40
2 1 -7 o 233.020 197.645 0.00 1.12413 0.93
1 5 0 o 9.587 8.141 0.00 1.12383 0.07
6 1 -1 o 48.322 41.123 180.00 1.12340 0.17
2 4 2 o 16.635 16.296 0.00 1.13328 0.07
1 4 3 o 1.498 1.364 180.00 1.13049 0.01
0 3 5 o 58.351 54.099 180.00 1.11828 0.21
4 3 1 o 1.046 0.980 180.00 1.11792 0.00
1 2 5 o 35.652 34.434 180.00 1.11688 0.10
4 3 -6 o 38.499 38.063 180.00 1.11616 0.21
5 1 1 o 1.384 1.458 0.00 1.11443 0.00
4 4 -1 o 9.327 10.084 180.00 1.11375 0.05
4 4 -4 o 1.837 2.045 180.00 1.11300 0.01
4 2 2 o 4.125 5.386 0.00 1.10839 0.01
3 4 1 o 36.012 47.264 180.00 1.10816 0.15
2 3 -6 o 8.298 11.183 180.00 1.10657 0.04
4 2 -7 o 4.390 5.935 180.00 1.10619 0.02
1 5 -2 o 131.664 166.427 180.00 1.10205 0.89
3 2 -7 o 56.074 66.868 0.00 1.10071 0.26
0 4 4 o 45.410 53.288 180.00 1.10038 0.20
6 0 -7 o 341.217 375.298 0.00 1.09912 0.79
6 2 -6 o 18.052 16.156 180.00 1.09452 0.09
2 5 -1 o 2.258 1.999 180.00 1.09414 0.01
1 5 1 o 103.050 87.754 180.00 1.09186 0.62
2 5 -2 o 69.635 61.074 180.00 1.08723 0.46
3 4 -5 o 95.660 85.019 0.00 1.08634 0.53
0 5 2 o 61.923 56.567 0.00 1.08425 0.37
2 4 -5 o 193.187 178.322 180.00 1.08263 0.99
7 1 -4 o 15.320 14.061 0.00 1.08048 0.07
6 1 -7 o 3.361 3.056 180.00 1.07930 0.02
5 2 -7 o 2.713 2.459 0.00 1.07901 0.01
7 1 -5 o 6.915 6.141 0.00 1.07680 0.03
2 5 0 o 3.329 2.930 180.00 1.07424 0.02
5 3 -6 o 9.294 8.351 180.00 1.07182 0.05
0 2 6 o 164.708 163.685 0.00 1.06803 0.47
6 3 -4 o 51.130 56.543 180.00 1.06461 0.25
2 2 -7 o 5.901 6.596 0.00 1.06396 0.02
2 0 5 o 4.391 4.930 180.00 1.06348 0.00
6 2 -1 o 93.523 105.076 0.00 1.06335 0.31
4 4 0 o 3.667 3.904 180.00 1.06025 0.01
4 4 -5 o 52.939 54.041 180.00 1.05918 0.28
6 3 -3 o 93.401 93.394 180.00 1.05867 0.43
7 1 -3 o 0.675 0.670 180.00 1.05845 0.00
5 2 1 o 6.182 5.620 0.00 1.05573 0.02
6 0 0 o 49.160 44.640 180.00 1.05568 0.07
1 3 -6 o 18.590 16.716 0.00 1.05502 0.07
2 5 -3 o 35.320 31.741 180.00 1.05497 0.21
1 1 -7 o 0.180 0.161 180.00 1.05456 0.00
5 3 0 o 12.103 10.844 180.00 1.05457 0.04
4 0 3 o 5.588 5.004 0.00 1.05388 0.01
1 5 -3 o 3.685 3.328 180.00 1.05292 0.02
3 1 4 o 8.861 8.114 180.00 1.05224 0.02
4 0 -8 o 32.702 30.507 0.00 1.05157 0.07
1 4 -5 o 13.735 14.225 0.00 1.04895 0.06
7 1 -6 o 10.085 10.796 180.00 1.04817 0.04
5 4 -3 o 49.091 53.575 180.00 1.04768 0.25
6 3 -5 o 10.731 12.295 180.00 1.04584 0.05
2 1 5 o 9.093 10.461 0.00 1.04550 0.02
3 5 -2 o 48.213 54.751 180.00 1.04347 0.28
2 3 4 o 59.231 66.212 180.00 1.04281 0.15
3 3 3 o 9.726 10.024 180.00 1.04049 0.03
5 4 -4 o 0.618 0.593 180.00 1.03851 0.00
1 5 2 o 109.510 104.016 180.00 1.03822 0.52
6 1 0 o 5.230 4.947 180.00 1.03809 0.01
4 1 3 o 148.339 135.007 180.00 1.03637 0.30
3 5 -1 o 0.059 0.053 0.00 1.03481 0.00
4 1 -8 o 13.558 12.261 0.00 1.03418 0.06
2 4 3 o 7.353 6.668 0.00 1.03389 0.02
5 4 -2 o 1.495 1.370 0.00 1.03319 0.01
2 5 1 o 0.026 0.025 180.00 1.03160 0.00
6 3 -2 o 41.891 43.562 180.00 1.02920 0.16
3 5 -3 o 4.987 5.278 180.00 1.02876 0.03
7 2 -4 o 22.647 25.946 180.00 1.02673 0.10
6 2 -7 o 28.834 34.239 180.00 1.02573 0.12
5 1 -8 o 7.364 8.767 0.00 1.02565 0.03
7 2 -5 o 2.543 3.220 180.00 1.02357 0.01
1 3 5 o 0.377 0.481 0.00 1.02327 0.00
1 4 4 o 0.991 1.264 180.00 1.02320 0.00
0 5 3 o 2.928 3.744 0.00 1.02311 0.01
3 4 2 o 23.427 29.976 180.00 1.02306 0.07
1 1 6 o 0.448 0.488 180.00 1.01739 0.00
4 3 2 o 0.871 0.910 180.00 1.01673 0.00
3 1 -8 o 6.928 6.799 180.00 1.01575 0.03
4 3 -7 o 10.001 9.427 180.00 1.01504 0.04
7 1 -2 o 0.663 0.626 0.00 1.01508 0.00
3 3 -7 o 2.200 1.877 180.00 1.01080 0.01
7 2 -3 o 23.357 21.567 180.00 1.00778 0.09
5 4 -5 o 40.410 37.762 0.00 1.00745 0.19
6 0 -8 o 204.331 191.414 0.00 1.00739 0.40
6 3 -6 o 21.322 20.989 180.00 1.00600 0.09
1 2 -7 o 49.419 50.598 0.00 1.00442 0.14
3 5 0 o 0.336 0.344 180.00 1.00444 0.00
2 5 -4 o 12.059 12.454 0.00 1.00355 0.06
3 2 4 o 47.525 48.949 180.00 1.00241 0.10
5 1 2 o 3.937 3.952 0.00 1.00077 0.01
3 4 -6 o 5.726 5.686 180.00 1.00027 0.03
7 1 -7 o 20.415 20.186 0.00 1.00008 0.08
7 2 -6 o 1.981 1.910 180.00 0.99889 0.01
5 4 -1 o 9.595 9.079 0.00 0.99781 0.04
2 2 5 o 15.507 14.461 0.00 0.99658 0.03
5 3 -7 o 20.302 18.891 180.00 0.99391 0.09
3 5 -4 o 1.002 0.935 0.00 0.99347 0.01
0 4 5 o 55.646 52.143 180.00 0.99289 0.18
4 4 1 o 0.099 0.093 180.00 0.99264 0.00
6 1 -8 o 6.869 6.486 180.00 0.99207 0.03
