#------------------------------------------------------------------------------
#$Date: 2019-12-26 20:22:06 +0200 (Thu, 26 Dec 2019) $
#$Revision: 246048 $
#$URL: file:///home/coder/svn-repositories/cod/cif/2/30/06/2300655.cif $
#------------------------------------------------------------------------------
#
# This file is available in the Crystallography Open Database (COD),
# http://www.crystallography.net/. The original data for this entry
# were provided by IUCr Journals, http://journals.iucr.org/.
#
# The file may be used within the scientific community so long as
# proper attribution is given to the journal article from which the
# data were obtained.
#
data_2300655
loop_
_publ_author_name
'Likhacheva, Anna Y.'
'Rashchenko, Sergey V.'
'Litasov, Konstantin D.'
_publ_section_title
;
 High-pressure structural properties of naphthalene up to 6&#x2005;GPa
;
_journal_coeditor_code           kk5159
_journal_issue                   3
_journal_name_full               'Journal of Applied Crystallography'
_journal_page_first              984
_journal_paper_doi               10.1107/S1600576714005937
_journal_volume                  47
_journal_year                    2014
_chemical_formula_sum            'C5 H4'
_chemical_formula_weight         64.09
_space_group_IT_number           14
_space_group_name_Hall           '-P 2yab'
_space_group_name_H-M_alt        'P 1 21/a 1'
_symmetry_cell_setting           monoclinic
_symmetry_space_group_name_H-M   'P 1 21/a 1'
_audit_creation_date             2013-04-17T11:39
_audit_creation_method           'from EXP file using GSAS2CIF'
_audit_update_record
' 2013-04-17T11:39  Initial CIF as created by GSAS2CIF'
_cell_angle_alpha                90.0
_cell_angle_beta                 125.212(8)
_cell_angle_gamma                90.0
_cell_formula_units_Z            4
_cell_length_a                   7.5578(9)
_cell_length_b                   5.6554(6)
_cell_length_c                   8.3443(19)
_cell_volume                     291.40(9)
_computing_structure_refinement  GSAS
_diffrn_radiation_polarisn_ratio 0.95
_diffrn_radiation_probe          x-ray
_diffrn_radiation_wavelength     0.3685
_exptl_absorpt_correction_T_max  1.00000
_exptl_absorpt_correction_T_min  1.00000
_exptl_absorpt_process_details
;   GSAS Absorption/surface roughness correction: function number 0
 No correction is applied.
;
_pd_calc_method                  'Rietveld Refinement'
_pd_instr_location               ' ?'
_pd_meas_2theta_range_inc        0.0141
_pd_meas_2theta_range_max        32.1408
_pd_meas_2theta_range_min        0.021
_pd_meas_number_of_points        2279
_pd_phase_name                   naphthalene
_pd_prep_pressure                3.7
_pd_proc_2theta_range_inc        0.0141
_pd_proc_2theta_range_max        32.1408
_pd_proc_2theta_range_min        0.021
_pd_proc_info_datetime           2013-04-17T11:39:39
_pd_proc_info_excluded_regions   ' ?'
_pd_proc_ls_background_function
;   GSAS Background function number 1 with 36 terms.
 Shifted Chebyshev function of 1st kind
      1:    5452.56     2:   -1130.40     3:   -34.2045     4:   -464.258    
      5:    400.098     6:   -170.817     7:    3.74509     8:    13.8830    
      9:   -23.1097    10:    18.4268    11:   0.188631    12:    20.1357    
     13:   -28.0722    14:    4.76889    15:    8.32629    16:  -0.841920    
     17:   -2.52815    18:   -2.97918    19:   -6.52494    20:    7.71074    
     21:   -14.5499    22:    7.14862    23:    2.12824    24:    3.29541    
     25:   -1.71415    26:    1.04317    27:   -9.08575    28:    10.9901    
     29:   -12.9727    30:    9.96327    31:    1.06214    32:   -1.79378    
     33:    2.17768    34:   -9.42282    35:    2.20634    36:   -2.33128    
;
_pd_proc_ls_peak_cutoff          0.01000
_pd_proc_ls_pref_orient_corr
;   March-Dollase
 AXIS  1 Ratio=     1.459 Frac     0.678  h= 0.000  k= 0.000  l= 1.000
 AXIS  2 Ratio=     1.523 Frac     0.322  h= 1.000  k= 0.000  l= 0.000
 Prefered orientation correction range: Min=   0.38298, Max=   1.80058
;
_pd_proc_ls_profile_function
;
 CW Profile function number 2 with  18 terms
 Profile coefficients for Simpson's rule integration of pseudovoigt function
 C.J. Howard (1982). J. Appl. Cryst.,15,615-620.
 P. Thompson, D.E. Cox & J.B. Hastings (1987). J. Appl. Cryst.,20,79-83.
 #1(GU)   = 2491.640 #2(GV)   =  -22.826 #3(GW)   =    4.574
 #4(LX)   =    0.000 #5(LY)   =   42.687 #6(trns) =    0.000
 #7(asym) =   0.0769 #8(shft) =   0.0000 #9(GP)   =    0.000
 #10(stec)=     0.00 #11(ptec)=     0.00 #12(sfec)=     0.00
 #13(L11) =    0.000 #14(L22) =    0.000 #15(L33) =    0.000
 #16(L12) =    0.000 #17(L13) =    0.000 #18(L23) =    0.000
 Peak tails are ignored  where the intensity is below 0.0100 times the peak
   Aniso. broadening axis   0.0   0.0   1.0
;
_pd_proc_ls_prof_R_factor        0.0049
_pd_proc_ls_prof_wR_expected     0.0134
_pd_proc_ls_prof_wR_factor       0.0075
_pd_proc_number_of_points        2279
_pd_spec_mounting                ' ?'
_refine_ls_goodness_of_fit_all   0.56
_refine_ls_matrix_type           full
_refine_ls_number_parameters     31
_refine_ls_number_restraints     10
_refine_ls_R_Fsqd_factor         0.17122
_refine_ls_shift/su_max          3.02
_refine_ls_shift/su_mean         0.77
_reflns_d_resolution_high        0.977
_reflns_d_resolution_low         6.817
_reflns_limit_h_max              7
_reflns_limit_h_min              0
_reflns_limit_k_max              5
_reflns_limit_k_min              0
_reflns_limit_l_max              7
_reflns_limit_l_min              -8
_reflns_number_total             330
_cod_data_source_file            kk5159sup8.cif
_cod_data_source_block           REF1_publ_370
_cod_depositor_comments
;
The following automatic conversions were performed:

data item '_geom_angle_publ_flag' value 'N' was changed to 'n' in
accordance with the
/home/saulius/struct/COD-crude-data/automatic-downloads/DataCite-retrospective/IUCr/depositions/lib/dictionaries/cif_core.dic
dictionary named 'cif_core.dic' version 2.4.2 last updated on
2011-04-26 (15 times).

data item '_geom_bond_publ_flag' value 'N' was changed to 'n' in
accordance with the
/home/saulius/struct/COD-crude-data/automatic-downloads/DataCite-retrospective/IUCr/depositions/lib/dictionaries/cif_core.dic
dictionary named 'cif_core.dic' version 2.4.2 last updated on
2011-04-26 (35 times).

Automatic conversion script
Id: cif_fix_values 7556 2019-12-06 15:28:31Z antanas 
;
_cod_original_cell_volume        291.39(7)
_cod_database_code               2300655
_gsas_exptl_extinct_corr_t_min   1.00000
_gsas_exptl_extinct_corr_t_max   1.00000
loop_
_symmetry_equiv_pos_site_id
_symmetry_equiv_pos_as_xyz
1 +x,+y,+z
2 -x+1/2,+y+1/2,-z
-1 -x,-y,-z
-2 +x+1/2,-y+1/2,+z
loop_
_atom_site_type_symbol
_atom_site_label
_atom_site_fract_x
_atom_site_fract_y
_atom_site_fract_z
_atom_site_occupancy
_atom_site_thermal_displace_type
_atom_site_U_iso_or_equiv
_atom_site_symmetry_multiplicity
C C1 0.0863(8) 0.0211(8) 0.3380(5) 1.0 Uiso 0.035 4
C C2 0.1177(8) 0.1705(8) 0.2284(5) 1.0 Uiso 0.03 4
C C3 0.0508(7) 0.1092(4) 0.0375(5) 1.0 Uiso 0.023 4
C C4 0.0789(8) 0.2618(7) -0.0798(5) 1.0 Uiso 0.023 4
C C5 -0.0139(8) -0.1978(7) 0.2623(5) 1.0 Uiso 0.03 4
H H1 0.1293(24) 0.064(4) 0.4620(8) 1.0 Uiso 0.04 4
H H2 0.1770(34) 0.3149(11) 0.2849(28) 1.0 Uiso 0.035 4
H H4 0.1444(23) 0.4068(11) -0.033(5) 1.0 Uiso 0.027 4
H H5 -0.0317(14) -0.3002(16) 0.3377(9) 1.0 Uiso 0.035 4
loop_
_atom_type_symbol
_atom_type_number_in_cell
_atom_type_scat_dispersion_real
_atom_type_scat_dispersion_imag
_atom_type_scat_Cromer_Mann_a1
_atom_type_scat_Cromer_Mann_a2
_atom_type_scat_Cromer_Mann_a3
_atom_type_scat_Cromer_Mann_a4
_atom_type_scat_Cromer_Mann_b1
_atom_type_scat_Cromer_Mann_b2
_atom_type_scat_Cromer_Mann_b3
_atom_type_scat_Cromer_Mann_b4
_atom_type_scat_Cromer_Mann_c
_atom_type_scat_source
C 20.0 0.000 0.000 2.31000 20.8439 1.02000 10.2075 1.58860 0.56870 0.86500
51.6512 0.21560 International_Tables_Vol_C
H 16.0 0.000 0.000 0.49300 10.5109 0.32291 26.1257 0.14019 3.14236 0.04081
57.7997 0.00304 International_Tables_Vol_C
loop_
_geom_angle_atom_site_label_1
_geom_angle_atom_site_label_2
_geom_angle_atom_site_label_3
_geom_angle
_geom_angle_site_symmetry_1
_geom_angle_site_symmetry_3
_geom_angle_publ_flag
C2 C1 C5 120.3(4) 1_555 1_555 n
C2 C1 H1 120.4(14) 1_555 1_555 n
C5 C1 H1 119.3(15) 1_555 1_555 n
C1 C2 C3 121.2(4) 1_555 1_555 n
C1 C2 H2 115.4(18) 1_555 1_555 n
C3 C2 H2 123.3(18) 1_555 1_555 n
C2 C3 C3 118.0(5) 1_555 -1_555 n
C2 C3 C4 122.31(26) 1_555 1_555 n
C3 C3 C4 119.6(4) -1_555 1_555 n
C3 C4 C5 121.0(4) 1_555 -1_555 n
C3 C4 H4 120.6(25) 1_555 1_555 n
C5 C4 H4 118.4(25) -1_555 1_555 n
C1 C5 C4 119.8(4) 1_555 -1_555 n
C1 C5 H5 120.2(7) 1_555 1_555 n
C4 C5 H5 120.0(7) -1_555 1_555 n
loop_
_geom_bond_atom_site_label_1
_geom_bond_atom_site_label_2
_geom_bond_distance
_geom_bond_site_symmetry_2
_geom_bond_publ_flag
C1 C2 1.363(5) 1_555 n
C1 C5 1.398(4) 1_555 n
C1 H1 0.920(6) 1_555 n
C1 H2 1.944(18) 1_555 n
C1 H5 2.024(8) 1_555 n
C2 C1 1.363(5) 1_555 n
C2 C3 1.409(4) 1_555 n
C2 H1 1.993(14) 1_555 n
C2 H2 0.920(6) 1_555 n
C3 C2 1.409(4) 1_555 n
C3 C3 1.397(4) -1_555 n
C3 C4 1.410(4) 1_555 n
C3 H2 2.063(17) 1_555 n
C3 H4 2.039(23) 1_555 n
C4 C3 1.410(4) 1_555 n
C4 C5 1.353(4) -1_555 n
C4 H4 0.920(5) 1_555 n
C4 H5 1.981(8) -1_555 n
C5 C1 1.398(4) 1_555 n
C5 C4 1.353(4) -1_555 n
C5 H1 2.014(15) 1_555 n
C5 H4 1.965(25) -1_555 n
C5 H5 0.921(6) 1_555 n
H1 C1 0.920(6) 1_555 n
H1 C2 1.993(14) 1_555 n
H1 C5 2.014(15) 1_555 n
H2 C1 1.944(18) 1_555 n
H2 C2 0.920(6) 1_555 n
H2 C3 2.063(17) 1_555 n
H4 C3 2.039(23) 1_555 n
H4 C4 0.920(5) 1_555 n
H4 C5 1.965(25) -1_555 n
H5 C1 2.024(8) 1_555 n
H5 C4 1.981(8) -1_555 n
H5 C5 0.921(6) 1_555 n
loop_
_pd_meas_counts_total
_pd_proc_ls_weight
_pd_proc_intensity_bkg_calc
_pd_calc_intensity_total
0.0 . . .
0.0 . . .
0.0 . . .
0.0 . . .
0.0 . . .
0.0 . . .
0.0 . . .
0.0 . . .
0.0 . . .
0.0 . . .
0.0 . . .
0.0 . . .
0.0 . . .
0.0 . . .
0.0 . . .
0.0 . . .
0.0 . . .
0.0 . . .
0.0 . . .
0.0 . . .
0.0 . . .
0.0 . . .
0.0 . . .
0.0 . . .
0.0 . . .
0.0 . . .
0.0 . . .
0.0 . . .
0.0 . . .
0.0 . . .
0.0 . . .
0.0 . . .
0.0 . . .
0.0 . . .
0.0 . . .
0.0 . . .
0.0 . . .
0.0 . . .
0.0 . . .
0.0 . . .
0.0 . . .
0.0 . . .
0.0 . . .
0.0 . . .
0.0 . . .
0.0 . . .
0.0 . . .
0.0 . . .
0.0 . . .
0.0 . . .
0.0 . . .
0.0 . . .
0.0 . . .
0.0 . . .
0.0 . . .
0.0 . . .
0.0 . . .
0.0 . . .
0.0 . . .
0.0 . . .
0.0 . . .
0.0 . . .
0.0 . . .
0.0 . . .
1400.0 . . .
1200.0 . . .
1300.0 . . .
1350.0 . . .
1240.0 . . .
1460.0 . . .
1510.0 . . .
1380.0 . . .
1540.0 . . .
1650.0 . . .
1640.0 . . .
1540.0 . . .
1620.0 . . .
1670.0 . . .
1600.0 . . .
1550.0 . . .
1470.0 . . .
1400.0 . . .
1420.0 . . .
1410.0 . . .
1380.0 . . .
1330.0 . . .
1300.0 . . .
1260.0 . . .
1240.0 . . .
1220.0 . . .
1250.0 . . .
1280.0 . . .
1240.0 . . .
1210.0 . . .
1200.0 . . .
1220.0 . . .
1250.0 . . .
1230.0 . . .
1190.0 . . .
1180.0 . . .
1210.0 . . .
1220.0 . . .
1240.0 . . .
1330.0 . . .
1450.0 . . .
1550.0 . . .
1670.0 . . .
1790.0 . . .
1890.0 . . .
2050.0 . . .
2240.0 . . .
2410.0 . . .
2530.0 . . .
2690.0 . . .
2810.0 . . .
2940.0 . . .
3080.0 . . .
3300.0 . . .
3440.0 . . .
3480.0 . . .
3550.0 . . .
3710.0 . . .
3850.0 . . .
3850.0 . . .
3880.0 . . .
3970.0 . . .
4040.0 . . .
4070.0 . . .
4110.0 . . .
4150.0 . . .
4230.0 . . .
4340.0 . . .
4420.0 . . .
4500.0 . . .
4600.0 . . .
4740.0 . . .
4870.0 . . .
4910.0 . . .
4880.0 . . .
4860.0 . . .
4880.0 . . .
4900.0 . . .
4920.0 . . .
4980.0 . . .
5110.0 . . .
5230.0 . . .
5320.0 . . .
5430.0 . . .
5570.0 . . .
5700.0 . . .
5700.0 . . .
5740.0 . . .
5830.0 . . .
5930.0 . . .
6030.0 . . .
6170.0 . . .
6310.0 . . .
6420.0 . . .
6500.0 . . .
6560.0 . . .
6620.0 . . .
6690.0 . . .
6800.0 . . .
6880.0 . . .
6930.0 . . .
6990.0 . . .
7030.0 . . .
7090.0 . . .
7170.0 . . .
7220.0 . . .
7240.0 . . .
7240.0 . . .
7240.0 . . .
7290.0 . . .
7330.0 . . .
7350.0 . . .
7360.0 . . .
7430.0 . . .
7470.0 . . .
7490.0 . . .
7480.0 . . .
7510.0 . . .
7560.0 . . .
7590.0 . . .
7640.0 . . .
7660.0 . . .
7640.0 . . .
7640.0 . . .
7600.0 . . .
7580.0 . . .
7530.0 . . .
7510.0 . . .
7510.0 . . .
7540.0 . . .
7600.0 . . .
7600.0 . . .
7590.0 . . .
7620.0 . . .
7650.0 . . .
7630.0 . . .
7670.0 . . .
7630.0 . . .
7640.0 . . .
7660.0 . . .
7690.0 . . .
7640.0 . . .
7570.0 . . .
7500.0 0.0001333 7425.20996 7436.72070
7440.0 0.0001344 7453.29834 7467.15479
7430.0 0.0001346 7473.66699 7490.67627
7490.0 0.0001335 7486.40967 7507.98828
7510.0 0.0001332 7491.90820 7521.58496
7520.0 0.0001330 7490.75000 7540.08057
7590.0 0.0001318 7483.64893 7589.05322
7800.0 0.0001282 7471.39990 7723.00537
8150.0 0.0001227 7454.82080 8008.25195
8570.0 0.0001167 7434.72949 8444.33301
8870.0 0.0001127 7411.90381 8870.39941
8910.0 0.0001122 7387.07373 9001.37305
8560.0 0.0001168 7360.90332 8706.76367
8100.0 0.0001235 7333.98682 8199.17480
7730.0 0.0001294 7306.83398 7750.88721
7470.0 0.0001339 7279.87793 7472.67578
7330.0 0.0001364 7253.47363 7334.65869
7250.0 0.0001379 7227.90186 7268.70459
7230.0 0.0001383 7203.37207 7229.84082
7220.0 0.0001385 7180.03174 7199.98584
7210.0 0.0001387 7157.96729 7173.91064
7220.0 0.0001385 7137.21826 7150.29541
7200.0 0.0001389 7117.76807 7117.76807
7110.0 0.0001406 7099.57715 7099.57715
7060.0 0.0001416 7082.56641 7082.56641
7050.0 0.0001418 7066.62842 7066.62842
7020.0 0.0001425 7051.65088 7051.65088
7000.0 0.0001429 7037.49316 7037.49316
6960.0 0.0001437 7024.01416 7024.01416
6960.0 0.0001437 7011.06738 7011.06738
6980.0 0.0001433 6998.50342 6998.50342
7010.0 0.0001427 6986.17725 6986.17725
7030.0 0.0001422 6973.95508 6973.95508
7040.0 0.0001420 6961.70605 6961.70605
7020.0 0.0001425 6949.31201 6949.31201
6970.0 0.0001435 6936.66504 6936.66504
6950.0 0.0001439 6923.67285 6923.67285
6910.0 0.0001447 6910.25537 6910.25537
6880.0 0.0001453 6896.34521 6896.34521
6870.0 0.0001456 6881.89258 6881.89258
6870.0 0.0001456 6866.86230 6866.86230
6840.0 0.0001462 6851.22510 6851.22510
6830.0 0.0001464 6834.97168 6834.97168
6820.0 0.0001466 6818.10449 6818.10449
6790.0 0.0001473 6800.63672 6800.63672
6750.0 0.0001481 6782.58887 6782.58887
6730.0 0.0001486 6763.99365 6763.99365
6700.0 0.0001493 6744.89209 6744.89209
6680.0 0.0001497 6725.32715 6725.32715
6680.0 0.0001497 6705.35498 6705.35498
6700.0 0.0001493 6685.03174 6685.03174
6670.0 0.0001499 6664.41895 6664.41895
6640.0 0.0001506 6643.57813 6643.57813
6600.0 0.0001515 6622.58008 6622.58008
6610.0 0.0001513 6601.48193 6601.48193
6600.0 0.0001515 6580.35205 6580.35205
6590.0 0.0001517 6559.25488 6559.25488
6560.0 0.0001524 6538.25049 6538.25049
6520.0 0.0001534 6517.39795 6517.39795
6490.0 0.0001541 6496.75342 6496.75342
6460.0 0.0001548 6476.37012 6476.37012
6440.0 0.0001553 6456.29443 6456.29443
6440.0 0.0001553 6436.57080 6436.57080
6390.0 0.0001565 6417.23633 6417.23633
6360.0 0.0001572 6398.32275 6398.32275
6380.0 0.0001567 6379.86230 6379.86230
6370.0 0.0001570 6361.87598 6361.87598
6350.0 0.0001575 6344.38477 6344.38477
6350.0 0.0001575 6327.39746 6327.39746
6300.0 0.0001587 6310.92432 6310.92432
6260.0 0.0001597 6294.96826 6294.96826
6260.0 0.0001597 6279.52979 6279.52979
6260.0 0.0001597 6264.59814 6264.59814
6270.0 0.0001595 6250.16748 6250.16748
6290.0 0.0001590 6236.22559 6236.22559
6310.0 0.0001585 6222.75098 6222.75098
6290.0 0.0001590 6209.72363 6209.72363
6270.0 0.0001595 6197.12598 6197.12598
6250.0 0.0001600 6184.92529 6184.92529
6220.0 0.0001608 6173.09912 6173.09912
6160.0 0.0001623 6161.61670 6161.61670
6130.0 0.0001631 6150.44824 6150.44824
6120.0 0.0001634 6139.55811 6139.55811
6100.0 0.0001639 6128.91992 6128.91992
6080.0 0.0001645 6118.49805 6118.49805
6070.0 0.0001647 6108.25684 6108.25684
6080.0 0.0001645 6098.16992 6098.16992
6100.0 0.0001639 6088.20459 6088.20459
6110.0 0.0001637 6078.32617 6078.32617
6090.0 0.0001642 6068.50586 6068.50586
6070.0 0.0001647 6058.71777 6058.71777
6040.0 0.0001656 6048.93652 6048.93652
6000.0 0.0001667 6039.13086 6039.13086
6000.0 0.0001667 6029.28174 6029.28174
5970.0 0.0001675 6019.36768 6019.36768
5960.0 0.0001678 6009.37305 6009.37305
6000.0 0.0001667 5999.27637 5999.27637
6010.0 0.0001664 5989.06055 5989.06055
5970.0 0.0001675 5978.71924 5978.71924
5950.0 0.0001681 5968.23975 5968.23975
5930.0 0.0001686 5957.61572 5957.61572
5930.0 0.0001686 5946.84033 5946.84033
5920.0 0.0001689 5935.91357 5935.91357
5910.0 0.0001692 5924.83398 5924.83398
5880.0 0.0001701 5913.60107 5913.60107
5870.0 0.0001704 5902.21924 5902.21924
5860.0 0.0001706 5890.69678 5890.69678
5850.0 0.0001709 5879.04053 5879.04053
5820.0 0.0001718 5867.25928 5867.25928
5830.0 0.0001715 5855.36377 5855.36377
5830.0 0.0001715 5843.36670 5843.36670
5820.0 0.0001718 5831.28809 5831.28809
5850.0 0.0001709 5819.13525 5819.13525
5840.0 0.0001712 5806.93115 5812.82666
5790.0 0.0001727 5794.69189 5801.26074
5810.0 0.0001721 5782.43457 5789.79834
5790.0 0.0001727 5770.18213 5778.49268
5780.0 0.0001730 5757.95117 5767.77002
5740.0 0.0001742 5745.76270 5757.01172
5740.0 0.0001742 5733.64258 5746.65381
5730.0 0.0001745 5721.60303 5736.82080
5690.0 0.0001757 5709.67383 5727.71680
5690.0 0.0001757 5697.87012 5719.69727
5720.0 0.0001748 5686.21191 5713.65771
5750.0 0.0001739 5674.72510 5712.21338
5760.0 0.0001736 5663.42188 5722.51807
5850.0 0.0001709 5652.32764 5760.76221
6030.0 0.0001658 5641.45410 5854.40332
6300.0 0.0001587 5630.82666 6033.17139
6610.0 0.0001513 5620.45654 6302.83789
6830.0 0.0001464 5610.35791 6613.29248
6920.0 0.0001445 5600.55176 6847.92871
6780.0 0.0001475 5591.04443 6895.95752
6550.0 0.0001527 5581.85254 6700.55273
6260.0 0.0001597 5572.98535 6400.20654
6030.0 0.0001658 5564.45313 6115.84521
5890.0 0.0001698 5556.26416 5904.35791
5790.0 0.0001727 5548.42480 5769.73193
5740.0 0.0001742 5540.94238 5692.61719
5670.0 0.0001764 5533.82324 5651.55664
5620.0 0.0001779 5527.06445 5632.16895
5620.0 0.0001779 5520.67090 5627.32617
5620.0 0.0001779 5514.64453 5636.27295
5640.0 0.0001773 5508.98291 5667.98730
5720.0 0.0001748 5503.68555 5750.57275
5830.0 0.0001715 5498.74854 5943.33643
6160.0 0.0001623 5494.16602 6335.66602
6780.0 0.0001475 5489.93408 7006.76660
7770.0 0.0001287 5486.04590 7940.18896
8970.0 0.0001115 5482.49023 8938.29590
9840.0 0.0001016 5479.26514 9608.37109
9860.0 0.0001014 5476.35449 9579.89258
9020.0 0.0001109 5473.75195 8861.81934
7880.0 0.0001269 5471.44189 7850.18555
6900.0 0.0001449 5469.41650 6922.38916
6280.0 0.0001592 5467.66211 6263.24707
5900.0 0.0001695 5466.16455 5879.40381
5690.0 0.0001757 5464.91016 5688.32764
5590.0 0.0001789 5463.88379 5601.46094
5530.0 0.0001808 5463.07031 5561.08105
5500.0 0.0001818 5462.45703 5539.28906
5480.0 0.0001825 5462.02783 5525.16504
5480.0 0.0001825 5461.76611 5514.87695
5470.0 0.0001828 5461.65674 5506.99268
5470.0 0.0001828 5461.68359 5500.82568
5460.0 0.0001832 5461.83301 5495.95654
5470.0 0.0001828 5462.08691 5492.08984
5500.0 0.0001818 5462.43066 5489.01074
5510.0 0.0001815 5462.85156 5486.55811
5480.0 0.0001825 5463.32959 5463.32959
5470.0 0.0001828 5463.85498 5463.85498
5480.0 0.0001825 5464.40967 5464.40967
5450.0 0.0001835 5464.98291 5464.98291
5450.0 0.0001835 5465.55811 5465.55811
5450.0 0.0001835 5466.12402 5478.32324
5460.0 0.0001832 5466.66943 5480.28125
5450.0 0.0001835 5467.18018 5482.46191
5480.0 0.0001825 5467.64453 5484.91943
5480.0 0.0001825 5468.05518 5487.73340
5500.0 0.0001818 5468.39990 5491.01270
5510.0 0.0001815 5468.67139 5494.92188
5500.0 0.0001818 5468.85693 5499.72754
5490.0 0.0001821 5468.94873 5505.98438
5510.0 0.0001815 5468.94531 5515.09082
5490.0 0.0001821 5468.83398 5530.75879
5510.0 0.0001815 5468.61475 5562.13965
5650.0 0.0001770 5468.27393 5628.19482
5880.0 0.0001701 5467.81348 5759.88330
6160.0 0.0001623 5467.22852 5992.64111
6500.0 0.0001538 5466.51758 6343.51025
6840.0 0.0001462 5465.67285 6779.21191
7090.0 0.0001410 5464.69971 7194.53418
7270.0 0.0001376 5463.59131 7425.65234
7220.0 0.0001385 5462.34961 7346.75195
7010.0 0.0001427 5460.97803 7002.92383
6710.0 0.0001490 5459.47314 6557.42578
6380.0 0.0001567 5457.83838 6151.50195
6070.0 0.0001647 5456.07275 5854.60742
5840.0 0.0001712 5454.18408 5672.01563
5690.0 0.0001757 5452.17139 5574.02246
5570.0 0.0001795 5450.04248 5528.52490
5490.0 0.0001821 5447.79492 5504.32227
5460.0 0.0001832 5445.44043 5490.53516
5420.0 0.0001845 5442.97900 5481.14453
5410.0 0.0001848 5440.41895 5473.85107
5430.0 0.0001842 5437.76367 5467.80420
5420.0 0.0001845 5435.02002 5462.65967
5400.0 0.0001852 5432.19629 5458.27148
5380.0 0.0001859 5429.29346 5454.61914
5380.0 0.0001859 5426.32422 5451.90088
5400.0 0.0001852 5423.29004 5437.87451
5400.0 0.0001852 5420.20459 5441.37695
5390.0 0.0001855 5417.06738 5451.61670
5430.0 0.0001842 5413.89160 5475.31934
5460.0 0.0001832 5410.68115 5519.04150
5510.0 0.0001815 5407.44531 5588.73926
5590.0 0.0001789 5404.18896 5681.48535
5670.0 0.0001764 5400.92334 5780.60352
5760.0 0.0001736 5397.65088 5854.88525
5850.0 0.0001709 5394.38379 5869.47266
5900.0 0.0001695 5391.12500 5815.71582
5860.0 0.0001706 5387.88281 5718.18262
5750.0 0.0001739 5384.66553 5613.60107
5620.0 0.0001779 5381.47705 5526.43213
5520.0 0.0001812 5378.32813 5466.44824
5450.0 0.0001835 5375.21973 5432.45850
5420.0 0.0001845 5372.16113 5418.45605
5400.0 0.0001852 5369.15820 5418.18750
5380.0 0.0001859 5366.21387 5426.51611
5420.0 0.0001845 5363.33984 5438.67285
5430.0 0.0001842 5360.53320 5449.37305
5430.0 0.0001842 5357.80322 5453.74268
5420.0 0.0001845 5355.15479 5451.19580
5420.0 0.0001845 5352.58936 5447.23242
5430.0 0.0001842 5350.11475 5448.58545
5430.0 0.0001842 5347.72998 5458.13184
5430.0 0.0001842 5345.44238 5472.89746
5440.0 0.0001838 5343.25342 5481.17090
5460.0 0.0001832 5341.16797 5479.80225
5470.0 0.0001828 5339.18408 5461.75244
5450.0 0.0001835 5337.30713 5433.14063
5440.0 0.0001838 5335.53613 5402.79004
5390.0 0.0001855 5333.87646 5376.92969
5360.0 0.0001866 5332.32813 5358.11572
5360.0 0.0001866 5330.89063 5345.99268
5350.0 0.0001869 5329.56494 5338.76025
5350.0 0.0001869 5328.35352 5334.49609
5320.0 0.0001880 5327.25293 5331.80908
5340.0 0.0001873 5326.26758 5329.91992
5360.0 0.0001866 5325.39355 5327.88867
5380.0 0.0001859 5324.63037 5326.74756
5390.0 0.0001855 5323.98047 5325.80518
5340.0 0.0001873 5323.43848 5325.02783
5330.0 0.0001876 5323.00635 5324.40283
5330.0 0.0001876 5322.68115 5341.67871
5340.0 0.0001873 5322.46045 5343.39600
5370.0 0.0001862 5322.34473 5344.62939
5370.0 0.0001862 5322.33105 5347.54443
5360.0 0.0001866 5322.41650 5357.59521
5370.0 0.0001862 5322.59717 5362.85498
5390.0 0.0001855 5322.87598 5369.51855
5400.0 0.0001852 5323.24609 5378.37939
5400.0 0.0001852 5323.70508 5391.93750
5400.0 0.0001852 5324.25195 5413.19629
5450.0 0.0001835 5324.88135 5451.61523
5540.0 0.0001805 5325.59473 5523.24268
5630.0 0.0001776 5326.38574 5651.90332
5830.0 0.0001715 5327.25146 5864.36719
6130.0 0.0001631 5328.19141 6177.89258
6520.0 0.0001534 5329.19922 6582.74951
7030.0 0.0001422 5330.27344 7028.02734
7480.0 0.0001337 5331.41406 7418.46338
7740.0 0.0001292 5332.61230 7638.83740
7710.0 0.0001297 5333.86914 7632.13330
7460.0 0.0001340 5335.18018 7453.52197
7080.0 0.0001412 5336.54297 7200.71143
6710.0 0.0001490 5337.95361 6933.56445
6410.0 0.0001560 5339.41064 6664.30713
6190.0 0.0001616 5340.91016 6396.62793
6040.0 0.0001656 5342.45215 6147.16406
5930.0 0.0001686 5344.03125 5931.94775
5830.0 0.0001715 5345.64551 5758.46045
5760.0 0.0001736 5347.29102 5628.32959
5680.0 0.0001761 5348.96875 5537.99219
5610.0 0.0001783 5350.67334 5479.52832
5560.0 0.0001799 5352.40381 5443.73291
5470.0 0.0001828 5354.15723 5422.73975
5420.0 0.0001845 5355.93604 5411.10352
5400.0 0.0001852 5357.73096 5405.18457
5420.0 0.0001845 5359.54492 5403.22412
5410.0 0.0001848 5361.37793 5386.55762
5410.0 0.0001848 5363.22314 5391.52686
5440.0 0.0001838 5365.08105 5397.50195
5470.0 0.0001828 5366.95264 5403.12695
5470.0 0.0001828 5368.83447 5406.71533
5460.0 0.0001832 5370.72412 5400.45605
5450.0 0.0001835 5372.62646 5398.57129
5410.0 0.0001848 5374.53271 5395.23975
5380.0 0.0001859 5376.44775 5392.07373
5380.0 0.0001859 5378.36816 5389.56201
5350.0 0.0001869 5380.29297 5389.45215
5340.0 0.0001873 5382.22314 5391.01855
5360.0 0.0001866 5384.15820 5393.79639
5370.0 0.0001862 5386.09521 5399.84717
5390.0 0.0001855 5388.03760 5403.10303
5390.0 0.0001855 5389.98682 5405.39258
5380.0 0.0001859 5391.93555 5406.55615
5370.0 0.0001862 5393.88818 5407.03467
5390.0 0.0001855 5395.84570 5407.43750
5380.0 0.0001859 5397.80615 5408.26025
5390.0 0.0001855 5399.77002 5409.85986
5410.0 0.0001848 5401.73730 5412.57031
5470.0 0.0001828 5403.71045 5416.94678
5490.0 0.0001821 5405.68701 5423.82129
5520.0 0.0001812 5407.66748 5435.60400
5580.0 0.0001792 5409.65723 5454.66650
5580.0 0.0001792 5411.65088 5483.76709
5570.0 0.0001795 5413.64990 5524.41895
5570.0 0.0001795 5415.65625 5575.11670
5600.0 0.0001786 5417.66943 5629.84814
5620.0 0.0001779 5419.69238 5677.65332
5610.0 0.0001783 5421.72168 5704.47412
5590.0 0.0001789 5423.76221 5700.32910
5530.0 0.0001808 5425.81250 5667.75195
5500.0 0.0001818 5427.87207 5619.76172
5490.0 0.0001821 5429.94385 5569.60205
5480.0 0.0001825 5432.02441 5535.88574
5470.0 0.0001828 5434.11963 5504.82227
5460.0 0.0001832 5436.22607 5485.16309
5450.0 0.0001835 5438.34668 5474.73682
5420.0 0.0001845 5440.48193 5470.72217
5410.0 0.0001848 5442.63281 5470.76953
5430.0 0.0001842 5444.79590 5473.45020
5460.0 0.0001832 5446.97461 5478.34326
5460.0 0.0001832 5449.17041 5486.10107
5470.0 0.0001828 5451.38232 5498.76221
5510.0 0.0001815 5453.60986 5520.27783
5550.0 0.0001802 5455.85596 5556.90430
5630.0 0.0001776 5458.11865 5617.98975
5730.0 0.0001745 5460.39990 5708.88770
5850.0 0.0001709 5462.70068 5831.66846
5990.0 0.0001669 5465.01709 5986.43359
6170.0 0.0001621 5467.35352 6151.93457
6330.0 0.0001580 5469.71045 6296.05908
6400.0 0.0001562 5472.08301 6377.87646
6370.0 0.0001570 5474.47656 6367.87158
6280.0 0.0001592 5476.88770 6270.24561
6180.0 0.0001618 5479.31934 6122.05859
6040.0 0.0001656 5481.77148 5961.91895
5900.0 0.0001695 5484.23975 5819.08447
5790.0 0.0001727 5486.72998 5708.16357
5680.0 0.0001761 5489.23828 5631.76123
5620.0 0.0001779 5491.76318 5584.72363
5580.0 0.0001792 5494.30908 5558.97363
5570.0 0.0001795 5496.87500 5547.10645
5580.0 0.0001792 5499.45654 5544.12354
5590.0 0.0001789 5502.05176 5547.68555
5620.0 0.0001779 5504.67236 5557.61719
5660.0 0.0001767 5507.30762 5575.08398
5700.0 0.0001754 5509.95605 5601.63525
5730.0 0.0001745 5512.62549 5638.12695
5750.0 0.0001739 5515.30957 5683.28711
5770.0 0.0001733 5518.00928 5732.77002
5780.0 0.0001730 5520.72217 5769.77100
5770.0 0.0001733 5523.45361 5804.33545
5750.0 0.0001739 5526.19629 5817.65625
5730.0 0.0001745 5528.95410 5806.54053
5710.0 0.0001751 5531.72559 5776.91211
5690.0 0.0001757 5534.50977 5740.45654
5690.0 0.0001757 5537.30615 5708.09570
5680.0 0.0001761 5540.10986 5686.64990
5700.0 0.0001754 5542.93018 5678.11914
5720.0 0.0001748 5545.75879 5680.04150
5720.0 0.0001748 5548.59863 5686.62939
5730.0 0.0001745 5551.44482 5690.72266
5710.0 0.0001751 5554.30322 5686.64258
5640.0 0.0001773 5557.16797 5673.75195
5580.0 0.0001792 5560.04150 5655.42969
5580.0 0.0001792 5562.91895 5635.96777
5560.0 0.0001799 5565.80713 5618.67383
5540.0 0.0001805 5568.70020 5605.36475
5580.0 0.0001792 5571.59619 5597.30811
5600.0 0.0001786 5574.49951 5592.41602
5600.0 0.0001786 5577.40674 5590.48193
5610.0 0.0001783 5580.31641 5587.48682
5600.0 0.0001786 5583.23047 5588.99316
5600.0 0.0001786 5586.14697 5591.13672
5610.0 0.0001783 5589.06738 5593.63086
5610.0 0.0001783 5591.98730 5596.32471
5610.0 0.0001783 5594.91064 5599.16260
5600.0 0.0001786 5597.83105 5602.12402
5590.0 0.0001789 5600.75439 5605.23779
5610.0 0.0001783 5603.67725 5608.55566
5620.0 0.0001779 5606.60010 5612.17432
5610.0 0.0001783 5609.52197 5616.22607
5620.0 0.0001779 5612.44189 5620.87646
5620.0 0.0001779 5615.35889 5626.30713
5600.0 0.0001786 5618.27686 5632.71533
5590.0 0.0001789 5621.19043 5640.31396
5610.0 0.0001783 5624.10254 5649.37207
5620.0 0.0001779 5627.01123 5660.21875
5630.0 0.0001776 5629.91602 5673.24365
5650.0 0.0001770 5632.81592 5688.29785
5650.0 0.0001770 5635.71240 5706.98242
5670.0 0.0001764 5638.60645 5728.20410
5680.0 0.0001761 5641.49268 5750.69873
5700.0 0.0001754 5644.37842 5769.99316
5740.0 0.0001742 5647.25830 5782.15381
5780.0 0.0001730 5650.13086 5783.64014
5810.0 0.0001721 5652.99951 5774.42871
5840.0 0.0001712 5655.85986 5758.03857
5840.0 0.0001712 5658.71826 5739.01221
5830.0 0.0001715 5661.56836 5721.01611
5790.0 0.0001727 5664.41211 5706.31982
5740.0 0.0001742 5667.25098 5695.83936
5700.0 0.0001754 5670.07959 5689.43262
5710.0 0.0001751 5672.90527 5686.36182
5720.0 0.0001748 5675.72266 5685.68164
5710.0 0.0001751 5678.53271 5686.57178
5700.0 0.0001754 5681.33594 5688.45361
5690.0 0.0001757 5684.13086 5691.01318
5700.0 0.0001754 5686.91699 5694.17871
5700.0 0.0001754 5689.69922 5698.09375
5680.0 0.0001761 5692.47070 5703.08252
5710.0 0.0001751 5695.23486 5710.04053
5720.0 0.0001748 5697.98877 5718.72168
5700.0 0.0001754 5700.73633 5729.95020
5710.0 0.0001751 5703.47461 5743.80908
5750.0 0.0001739 5706.20361 5759.77734
5760.0 0.0001736 5708.92334 5776.50488
5800.0 0.0001724 5711.63574 5791.97119
5800.0 0.0001724 5714.33740 5803.42188
5810.0 0.0001721 5717.02881 5808.38867
5820.0 0.0001718 5719.71094 5806.05762
5810.0 0.0001721 5722.38330 5797.98438
5810.0 0.0001721 5725.04590 5786.35791
5800.0 0.0001724 5727.69629 5775.06641
5770.0 0.0001733 5730.33838 5765.28809
5770.0 0.0001733 5732.96924 5758.01953
5790.0 0.0001727 5735.59033 5753.54639
5770.0 0.0001733 5738.19727 5751.67236
5770.0 0.0001733 5740.79199 5752.01855
5760.0 0.0001736 5743.37744 5754.25098
5740.0 0.0001742 5745.94971 5758.20898
5730.0 0.0001745 5748.51025 5763.92578
5750.0 0.0001739 5751.05859 5773.28516
5760.0 0.0001736 5753.59326 5782.90332
5790.0 0.0001727 5756.11328 5794.16504
5830.0 0.0001715 5758.62256 5806.36279
5840.0 0.0001712 5761.11572 5818.26172
5830.0 0.0001715 5763.59717 5828.19141
5860.0 0.0001706 5766.06152 5834.43750
5860.0 0.0001706 5768.51416 5836.18652
5810.0 0.0001721 5770.94971 5834.36182
5820.0 0.0001718 5773.37207 5830.22021
5850.0 0.0001709 5775.77686 5825.71582
5840.0 0.0001712 5778.16553 5822.12842
5840.0 0.0001712 5780.54053 5820.18311
5840.0 0.0001712 5782.89746 5820.70605
5830.0 0.0001715 5785.23682 5822.06250
5800.0 0.0001724 5787.56104 5825.44775
5780.0 0.0001730 5789.86621 5829.72803
5790.0 0.0001727 5792.15381 5834.53662
5810.0 0.0001721 5794.42578 5840.11816
5820.0 0.0001718 5796.67773 5847.62402
5860.0 0.0001706 5798.91162 5858.92041
5850.0 0.0001709 5801.12646 5875.99756
5850.0 0.0001709 5803.32080 5900.31299
5880.0 0.0001701 5805.49707 5932.18164
5920.0 0.0001689 5807.65527 5970.19482
5970.0 0.0001675 5809.79150 6010.87891
6010.0 0.0001664 5811.90820 6048.68506
6030.0 0.0001658 5814.00439 6076.54004
6060.0 0.0001650 5816.08057 6088.01465
6080.0 0.0001645 5818.13574 6080.97705
6080.0 0.0001645 5820.16895 6059.20801
6060.0 0.0001650 5822.18311 6029.86279
6020.0 0.0001661 5824.17383 5999.60596
5980.0 0.0001672 5826.14355 5973.37012
5960.0 0.0001678 5828.09375 5953.31055
5960.0 0.0001678 5830.02197 5940.66357
5940.0 0.0001684 5831.92480 5934.04004
5920.0 0.0001689 5833.80664 5931.88330
5920.0 0.0001689 5835.66895 5932.62256
5920.0 0.0001689 5837.50635 5933.85352
5930.0 0.0001686 5839.32227 5933.52490
5960.0 0.0001678 5841.11572 5929.97803
5980.0 0.0001672 5842.88916 5922.85156
5970.0 0.0001675 5844.63623 5913.15967
5970.0 0.0001675 5846.36426 5902.35352
5940.0 0.0001684 5848.06836 5892.19678
5920.0 0.0001689 5849.74902 5883.50635
5900.0 0.0001695 5851.40771 5876.81006
5870.0 0.0001704 5853.04541 5872.23779
5890.0 0.0001698 5854.66064 5869.63525
5870.0 0.0001704 5856.25244 5868.68848
5850.0 0.0001709 5857.82178 5869.05615
5850.0 0.0001709 5859.37207 5870.42236
5840.0 0.0001712 5860.89648 5872.52148
5840.0 0.0001712 5862.40186 5875.15820
5840.0 0.0001712 5863.88428 5876.29883
5840.0 0.0001712 5865.34521 5879.66260
5870.0 0.0001704 5866.78320 5883.14697
5880.0 0.0001701 5868.20068 5886.75342
5880.0 0.0001701 5869.60010 5890.62402
5900.0 0.0001695 5870.97461 5894.96143
5910.0 0.0001692 5872.33008 5899.87207
5910.0 0.0001692 5873.66553 5905.20508
5920.0 0.0001689 5874.97949 5910.27197
5920.0 0.0001689 5876.27490 5914.79053
5940.0 0.0001684 5877.54590 5917.61914
5940.0 0.0001684 5878.80225 5918.11816
5950.0 0.0001681 5880.03467 5916.27686
5960.0 0.0001678 5881.25195 5912.24463
5990.0 0.0001669 5882.44482 5907.92773
5970.0 0.0001675 5883.62256 5903.57471
5950.0 0.0001681 5884.77979 5899.73486
5930.0 0.0001686 5885.91992 5896.72461
5910.0 0.0001692 5887.03906 5894.63867
5900.0 0.0001695 5888.14160 5893.42285
5900.0 0.0001695 5889.22461 5892.91895
5900.0 0.0001695 5890.29004 5892.94482
5890.0 0.0001698 5891.34033 5893.33203
5900.0 0.0001695 5892.36865 5893.93750
5910.0 0.0001692 5893.38184 5894.67480
5890.0 0.0001698 5894.37695 5895.47998
5880.0 0.0001701 5895.35547 5896.31982
5880.0 0.0001701 5896.31787 5897.17334
5880.0 0.0001701 5897.26074 5899.13525
5910.0 0.0001692 5898.18750 5900.07178
5910.0 0.0001692 5899.09863 5900.94189
5870.0 0.0001704 5899.99170 5902.38818
5870.0 0.0001704 5900.86865 5903.37744
5880.0 0.0001701 5901.72852 5904.65479
5900.0 0.0001695 5902.57031 5905.68359
5890.0 0.0001698 5903.39648 5906.72998
5900.0 0.0001695 5904.20654 5907.80127
5910.0 0.0001692 5904.99707 5908.90186
5920.0 0.0001689 5905.77441 5909.76514
5910.0 0.0001692 5906.53271 5911.04395
5910.0 0.0001692 5907.27441 5912.39746
5910.0 0.0001692 5907.99658 5913.93652
5920.0 0.0001689 5908.70508 5915.79639
5930.0 0.0001686 5909.39551 5918.18457
5900.0 0.0001695 5910.06689 5921.42480
5860.0 0.0001706 5910.72168 5925.97949
5830.0 0.0001715 5911.35791 5932.43604
5840.0 0.0001712 5911.97412 5941.46729
5880.0 0.0001701 5912.57373 5953.72900
5900.0 0.0001695 5913.15527 5969.68018
5900.0 0.0001695 5913.71631 5989.39355
5930.0 0.0001686 5914.25635 6012.35742
5980.0 0.0001672 5914.77979 6037.29150
6050.0 0.0001653 5915.28027 6062.05029
6080.0 0.0001645 5915.76318 6083.74658
6090.0 0.0001642 5916.22510 6099.32959
6110.0 0.0001637 5916.66504 6106.71875
6100.0 0.0001639 5917.08008 6105.45557
6120.0 0.0001634 5917.47949 6096.39355
6120.0 0.0001634 5917.85303 6081.06543
6130.0 0.0001631 5918.20264 6061.45850
6140.0 0.0001629 5918.52979 6039.77490
6150.0 0.0001626 5918.83447 6018.80664
6140.0 0.0001629 5919.11475 5998.91455
6110.0 0.0001637 5919.37158 5981.81299
6050.0 0.0001653 5919.60010 5967.84521
6010.0 0.0001664 5919.80371 5956.93359
5980.0 0.0001672 5919.98145 5948.74463
5940.0 0.0001684 5920.13232 5942.60254
5910.0 0.0001692 5920.25781 5938.09912
5920.0 0.0001689 5920.35400 5934.81641
5900.0 0.0001695 5920.42139 5932.43262
5920.0 0.0001689 5920.46191 5930.70898
5910.0 0.0001692 5920.47461 5929.48145
5890.0 0.0001698 5920.45557 5928.65332
5830.0 0.0001715 5920.40771 5928.36133
5830.0 0.0001715 5920.32764 5928.27246
5870.0 0.0001704 5920.21729 5928.62695
5910.0 0.0001692 5920.07617 5929.56201
5910.0 0.0001692 5919.90332 5931.27588
5920.0 0.0001689 5919.69775 5934.01904
5950.0 0.0001681 5919.45996 5938.05518
5940.0 0.0001684 5919.18799 5942.48193
5910.0 0.0001692 5918.88330 5949.66357
5900.0 0.0001695 5918.54590 5958.27002
5920.0 0.0001689 5918.17139 5967.86279
5920.0 0.0001689 5917.76465 5977.73145
5910.0 0.0001692 5917.32227 5986.73828
5920.0 0.0001689 5916.84619 5993.63135
5960.0 0.0001678 5916.33594 5996.98975
6000.0 0.0001667 5915.78809 5997.06494
6000.0 0.0001667 5915.20557 5992.65918
6030.0 0.0001658 5914.58545 5985.59180
6070.0 0.0001647 5913.93115 5977.13135
6090.0 0.0001642 5913.24121 5968.55664
6060.0 0.0001650 5912.51514 5960.40479
6040.0 0.0001656 5911.75293 5953.66455
6020.0 0.0001661 5910.95313 5948.36230
5980.0 0.0001672 5910.11963 5944.50732
5960.0 0.0001678 5909.24756 5942.05859
5960.0 0.0001678 5908.34277 5940.67627
5950.0 0.0001681 5907.39893 5939.95215
5950.0 0.0001681 5906.42285 5939.56934
5950.0 0.0001681 5905.41064 5939.44434
5940.0 0.0001684 5904.36230 5939.85889
5960.0 0.0001678 5903.28027 5941.40283
5970.0 0.0001675 5902.16357 5944.79785
5990.0 0.0001669 5901.01367 5951.39551
5980.0 0.0001672 5899.82813 5960.43262
5980.0 0.0001672 5898.61133 5972.74072
5980.0 0.0001672 5897.36279 5988.09033
6000.0 0.0001667 5896.08105 6005.81738
6050.0 0.0001653 5894.76855 6024.38770
6080.0 0.0001645 5893.42383 6042.05420
6090.0 0.0001642 5892.05127 6056.80469
6090.0 0.0001642 5890.64746 6066.87842
6100.0 0.0001639 5889.21533 6071.08398
6100.0 0.0001639 5887.75488 6068.61523
6100.0 0.0001639 5886.26855 6061.30127
6080.0 0.0001645 5884.75635 6049.90137
6050.0 0.0001653 5883.21582 6036.18896
6020.0 0.0001661 5881.65137 6021.29639
5990.0 0.0001669 5880.06494 6006.30029
5990.0 0.0001669 5878.45557 5991.58643
5950.0 0.0001681 5876.82666 5977.54541
5920.0 0.0001689 5875.17529 5964.65283
5920.0 0.0001689 5873.50391 5953.51221
5950.0 0.0001681 5871.81543 5944.70898
5950.0 0.0001681 5870.10889 5938.62109
5950.0 0.0001681 5868.38477 5935.30518
5940.0 0.0001684 5866.65039 5934.33838
5950.0 0.0001681 5864.89844 5935.50391
5940.0 0.0001684 5863.13379 5937.47998
5910.0 0.0001692 5861.35840 5939.11963
5890.0 0.0001698 5859.57471 5939.14648
5900.0 0.0001695 5857.78174 5936.61523
5910.0 0.0001692 5855.98047 5931.27393
5930.0 0.0001686 5854.17432 5923.54980
5920.0 0.0001689 5852.36230 5914.21631
5900.0 0.0001695 5850.54541 5904.10693
5880.0 0.0001701 5848.72705 5893.98145
5870.0 0.0001704 5846.90967 5883.94775
5870.0 0.0001704 5845.09082 5875.50488
5870.0 0.0001704 5843.27344 5867.93115
5870.0 0.0001704 5841.45850 5861.19531
5850.0 0.0001709 5839.64844 5856.52832
5800.0 0.0001724 5837.84375 5852.63672
5810.0 0.0001721 5836.04639 5849.36865
5830.0 0.0001715 5834.25684 5846.50879
5810.0 0.0001721 5832.47754 5843.71875
5780.0 0.0001730 5830.70703 5841.37646
5770.0 0.0001733 5828.94922 5839.02344
5780.0 0.0001730 5827.20508 5837.00342
5810.0 0.0001721 5825.47461 5835.33252
5840.0 0.0001712 5823.75928 5833.81689
5860.0 0.0001706 5822.06006 5832.37109
5850.0 0.0001709 5820.37793 5831.53711
5840.0 0.0001712 5818.71729 5829.94092
5820.0 0.0001718 5817.07568 5828.10596
5820.0 0.0001718 5815.45361 5826.25049
5830.0 0.0001715 5813.85156 5824.08643
5850.0 0.0001709 5812.27393 5821.86279
5830.0 0.0001715 5810.72168 5819.04639
5800.0 0.0001724 5809.19336 5817.13867
5780.0 0.0001730 5807.69092 5815.52539
5780.0 0.0001730 5806.21289 5814.25635
5810.0 0.0001721 5804.76270 5813.66064
5820.0 0.0001718 5803.33984 5813.14111
5800.0 0.0001724 5801.94629 5814.25977
5830.0 0.0001715 5800.57910 5814.40039
5820.0 0.0001718 5799.24316 5814.76123
5820.0 0.0001718 5797.93799 5815.31592
5810.0 0.0001721 5796.66357 5816.11914
5800.0 0.0001724 5795.41699 5817.32324
5810.0 0.0001721 5794.20703 5819.27979
5810.0 0.0001721 5793.02686 5822.05615
5820.0 0.0001718 5791.87549 5826.12598
5840.0 0.0001712 5790.75781 5831.50977
5840.0 0.0001712 5789.67236 5838.24023
5830.0 0.0001715 5788.62061 5846.00098
5840.0 0.0001712 5787.59961 5854.39063
5850.0 0.0001709 5786.61230 5862.78955
5840.0 0.0001712 5785.65771 5870.47314
5840.0 0.0001712 5784.73584 5876.84033
5830.0 0.0001715 5783.84521 5881.77051
5830.0 0.0001715 5782.98535 5885.31592
5860.0 0.0001706 5782.15820 5888.34814
5880.0 0.0001701 5781.36182 5891.65479
5900.0 0.0001695 5780.59668 5895.99268
5910.0 0.0001692 5779.86230 5901.83643
5930.0 0.0001686 5779.15918 5909.21338
5930.0 0.0001686 5778.48438 5917.58447
5950.0 0.0001681 5777.83740 5925.85352
5960.0 0.0001678 5777.22070 5932.49268
5930.0 0.0001686 5776.63184 5935.84082
5920.0 0.0001689 5776.06738 5934.57178
5940.0 0.0001684 5775.53174 5928.16064
5950.0 0.0001681 5775.01855 5917.11426
5930.0 0.0001686 5774.53467 5902.74902
5940.0 0.0001684 5774.07227 5886.55615
5940.0 0.0001684 5773.63135 5870.18262
5920.0 0.0001689 5773.21289 5854.62402
5900.0 0.0001695 5772.81494 5840.63379
5880.0 0.0001701 5772.43848 5828.63916
5860.0 0.0001706 5772.07764 5818.80420
5850.0 0.0001709 5771.73633 5811.03711
5840.0 0.0001712 5771.41113 5805.11377
5850.0 0.0001709 5771.10205 5800.70703
5860.0 0.0001706 5770.80664 5797.45996
5850.0 0.0001709 5770.52490 5795.00928
5840.0 0.0001712 5770.25195 5792.36377
5860.0 0.0001706 5769.99121 5790.57324
5870.0 0.0001704 5769.74023 5788.73438
5860.0 0.0001706 5769.49805 5786.54834
5840.0 0.0001712 5769.25879 5784.45557
5830.0 0.0001715 5769.02930 5782.23389
5810.0 0.0001721 5768.80273 5780.17432
5780.0 0.0001730 5768.57764 5778.19092
5740.0 0.0001742 5768.35449 5776.38623
5740.0 0.0001742 5768.13135 5774.79443
5760.0 0.0001736 5767.90723 5773.01318
5770.0 0.0001733 5767.67969 5771.88965
5770.0 0.0001733 5767.44824 5769.58887
5760.0 0.0001736 5767.21143 5768.89941
5740.0 0.0001742 5766.96973 5768.34082
5740.0 0.0001742 5766.72070 5767.87354
5740.0 0.0001742 5766.46094 5767.54883
5720.0 0.0001748 5766.19336 5767.19580
5710.0 0.0001751 5765.91113 5766.78516
5700.0 0.0001754 5765.61816 5766.48828
5710.0 0.0001751 5765.30811 5766.20801
5740.0 0.0001742 5764.98584 5765.92285
5760.0 0.0001736 5764.64941 5765.63232
5730.0 0.0001745 5764.29004 5765.41406
5740.0 0.0001742 5763.91699 5765.20020
5750.0 0.0001739 5763.52246 5765.02051
5760.0 0.0001736 5763.10645 5764.81836
5760.0 0.0001736 5762.66943 5764.61279
5760.0 0.0001736 5762.20996 5764.39355
5750.0 0.0001739 5761.72656 5764.05811
5750.0 0.0001739 5761.22021 5763.75049
5750.0 0.0001739 5760.68799 5763.46094
5760.0 0.0001736 5760.12939 5763.15332
5760.0 0.0001736 5759.54199 5762.85596
5760.0 0.0001736 5758.92969 5762.60645
5750.0 0.0001739 5758.28955 5762.43604
5740.0 0.0001742 5757.61621 5762.36230
5730.0 0.0001745 5756.91895 5762.40479
5750.0 0.0001739 5756.18848 5762.70898
5740.0 0.0001742 5755.42871 5762.93604
5730.0 0.0001745 5754.63525 5763.18799
5730.0 0.0001745 5753.81104 5763.41553
5730.0 0.0001745 5752.95459 5763.53027
5720.0 0.0001748 5752.06689 5763.48340
5730.0 0.0001745 5751.14648 5763.23975
5740.0 0.0001742 5750.19434 5762.80273
5750.0 0.0001739 5749.20801 5762.20947
5770.0 0.0001733 5748.18848 5761.52588
5780.0 0.0001730 5747.13525 5760.80615
5780.0 0.0001730 5746.04785 5760.20557
5780.0 0.0001730 5744.92871 5759.47412
5770.0 0.0001733 5743.77588 5758.84424
5770.0 0.0001733 5742.58838 5758.14844
5760.0 0.0001736 5741.37012 5757.01660
5750.0 0.0001739 5740.11572 5755.61621
5760.0 0.0001736 5738.82764 5753.95361
5760.0 0.0001736 5737.51221 5752.09619
5740.0 0.0001742 5736.16113 5750.11182
5750.0 0.0001739 5734.77881 5748.38135
5730.0 0.0001745 5733.36328 5746.35693
5730.0 0.0001745 5731.91797 5744.35400
5740.0 0.0001742 5730.44092 5742.38232
5730.0 0.0001745 5728.93262 5740.44629
5730.0 0.0001745 5727.39453 5738.57031
5730.0 0.0001745 5725.82764 5736.80859
5720.0 0.0001748 5724.23193 5735.33301
5730.0 0.0001745 5722.60693 5734.02051
5740.0 0.0001742 5720.95410 5733.06934
5740.0 0.0001742 5719.27441 5732.47998
5760.0 0.0001736 5717.56738 5732.28857
5750.0 0.0001739 5715.83643 5732.50781
5730.0 0.0001745 5714.07764 5733.06641
5720.0 0.0001748 5712.29541 5733.88281
5730.0 0.0001745 5710.48828 5734.85547
5720.0 0.0001748 5708.65820 5735.76025
5720.0 0.0001748 5706.80518 5736.48486
5730.0 0.0001745 5704.93115 5736.91797
5750.0 0.0001739 5703.03564 5737.06836
5760.0 0.0001736 5701.11914 5737.09033
5730.0 0.0001745 5699.18359 5737.32227
5720.0 0.0001748 5697.22949 5737.91846
5730.0 0.0001745 5695.25635 5739.25146
5740.0 0.0001742 5693.26855 5741.42285
5760.0 0.0001736 5691.25928 5744.54590
5760.0 0.0001736 5689.23584 5748.44873
5760.0 0.0001736 5687.19678 5752.84082
5760.0 0.0001736 5685.14404 5757.29688
5770.0 0.0001733 5683.07813 5761.43164
5790.0 0.0001727 5680.99707 5764.44043
5790.0 0.0001727 5678.90381 5766.02344
5780.0 0.0001730 5676.79980 5765.95654
5790.0 0.0001727 5674.68066 5764.18994
5790.0 0.0001727 5672.55615 5761.12891
5780.0 0.0001730 5670.41797 5757.04834
5780.0 0.0001730 5668.26953 5752.03125
5780.0 0.0001730 5666.11377 5746.26563
5750.0 0.0001739 5663.94971 5739.81738
5740.0 0.0001742 5661.77490 5732.79883
5750.0 0.0001739 5659.59375 5725.41895
5750.0 0.0001739 5657.40527 5717.94678
5740.0 0.0001742 5655.21094 5710.58105
5720.0 0.0001748 5653.00928 5703.52588
5740.0 0.0001742 5650.80176 5696.81006
5740.0 0.0001742 5648.58691 5690.42773
5730.0 0.0001745 5646.36621 5684.38525
5700.0 0.0001754 5644.14209 5678.67383
5690.0 0.0001757 5641.91162 5673.35400
5710.0 0.0001751 5639.67578 5668.42432
5680.0 0.0001761 5637.43457 5663.91357
5650.0 0.0001770 5635.19043 5659.81201
5650.0 0.0001770 5632.93945 5656.08252
5640.0 0.0001773 5630.68408 5652.69434
5620.0 0.0001779 5628.42432 5649.62158
5630.0 0.0001776 5626.15820 5646.83594
5640.0 0.0001773 5623.88721 5644.14893
5640.0 0.0001773 5621.61230 5641.86279
5620.0 0.0001779 5619.33154 5639.75488
5630.0 0.0001776 5617.04688 5637.81836
5630.0 0.0001776 5614.75537 5636.09814
5620.0 0.0001779 5612.45801 5634.49316
5620.0 0.0001779 5610.15479 5633.06689
5610.0 0.0001783 5607.84375 5631.78906
5620.0 0.0001779 5605.52637 5630.59375
5630.0 0.0001776 5603.20264 5629.36816
5610.0 0.0001783 5600.87305 5627.98975
5630.0 0.0001776 5598.53223 5626.12695
5630.0 0.0001776 5596.18457 5623.95117
5620.0 0.0001779 5593.82764 5620.92773
5610.0 0.0001783 5591.46338 5617.82959
5600.0 0.0001786 5589.08838 5614.36084
5590.0 0.0001789 5586.70166 5610.53320
5590.0 0.0001789 5584.30469 5606.45752
5600.0 0.0001786 5581.89893 5602.22803
5590.0 0.0001789 5579.47754 5597.62939
5580.0 0.0001792 5577.04395 5593.40186
5580.0 0.0001792 5574.60010 5589.29932
5590.0 0.0001789 5572.14111 5585.36328
5580.0 0.0001792 5569.66992 5581.61475
5580.0 0.0001792 5567.18066 5578.04688
5590.0 0.0001789 5564.67676 5574.64941
5580.0 0.0001792 5562.16113 5571.37109
5550.0 0.0001802 5559.62598 5568.18213
5540.0 0.0001805 5557.07227 5565.17773
5550.0 0.0001802 5554.50293 5562.19678
5550.0 0.0001802 5551.91260 5559.29248
5530.0 0.0001808 5549.30762 5556.48486
5530.0 0.0001808 5546.68262 5553.72217
5510.0 0.0001815 5544.03760 5551.04639
5510.0 0.0001815 5541.37109 5548.43799
5540.0 0.0001805 5538.68359 5545.99219
5520.0 0.0001812 5535.97607 5543.77051
5510.0 0.0001815 5533.24756 5541.55176
5510.0 0.0001815 5530.49609 5539.41211
5530.0 0.0001808 5527.72119 5537.30566
5560.0 0.0001799 5524.92578 5535.12207
5540.0 0.0001805 5522.10449 5532.94775
5530.0 0.0001808 5519.26270 5530.68457
5520.0 0.0001812 5516.39502 5528.34863
5520.0 0.0001812 5513.50293 5525.87061
5540.0 0.0001805 5510.58936 5523.30273
5540.0 0.0001805 5507.64941 5520.64209
5520.0 0.0001812 5504.68408 5517.87695
5520.0 0.0001812 5501.69482 5514.99268
5510.0 0.0001815 5498.68213 5511.81055
5510.0 0.0001815 5495.64404 5508.60596
5510.0 0.0001815 5492.57959 5505.20459
5510.0 0.0001815 5489.49219 5501.72412
5510.0 0.0001815 5486.38135 5497.96924
5500.0 0.0001818 5483.24365 5494.09521
5490.0 0.0001821 5480.08203 5490.10449
5490.0 0.0001821 5476.89648 5486.21143
5480.0 0.0001825 5473.68994 5482.41650
5470.0 0.0001828 5470.45557 5478.76123
5470.0 0.0001828 5467.19824 5475.29785
5470.0 0.0001828 5463.92139 5472.20166
5460.0 0.0001832 5460.62061 5469.17627
5460.0 0.0001832 5457.29785 5466.44971
5470.0 0.0001828 5453.95264 5463.87305
5470.0 0.0001828 5450.58887 5461.46680
5470.0 0.0001828 5447.20117 5459.18945
5470.0 0.0001828 5443.79590 5456.99805
5460.0 0.0001832 5440.37109 5454.76025
5440.0 0.0001838 5436.92920 5452.49463
5440.0 0.0001838 5433.46777 5450.14258
5440.0 0.0001838 5429.98926 5447.64355
5440.0 0.0001838 5426.49512 5444.98975
5450.0 0.0001835 5422.98877 5442.09912
5460.0 0.0001832 5419.46387 5438.94141
5440.0 0.0001838 5415.92676 5435.50635
5440.0 0.0001838 5412.37695 5431.80762
5440.0 0.0001838 5408.81543 5428.27197
5430.0 0.0001842 5405.24219 5424.41602
5410.0 0.0001848 5401.65918 5420.35791
5390.0 0.0001855 5398.06787 5416.32813
5380.0 0.0001859 5394.46826 5412.34375
5370.0 0.0001862 5390.86084 5408.53320
5390.0 0.0001855 5387.24756 5404.91943
5410.0 0.0001848 5383.62939 5401.49756
5430.0 0.0001842 5380.00879 5398.31494
5440.0 0.0001838 5376.38379 5395.35449
5440.0 0.0001838 5372.75635 5392.66504
5420.0 0.0001845 5369.12891 5390.13037
5420.0 0.0001845 5365.49902 5387.72314
5400.0 0.0001852 5361.87256 5385.35645
5380.0 0.0001859 5358.24902 5383.02148
5380.0 0.0001859 5354.62842 5380.72998
5380.0 0.0001859 5351.01123 5378.45605
5370.0 0.0001862 5347.39844 5376.20508
5390.0 0.0001855 5343.79053 5373.97266
5400.0 0.0001852 5340.18994 5371.72217
5390.0 0.0001855 5336.59814 5369.40186
5400.0 0.0001852 5333.01465 5366.94727
5390.0 0.0001855 5329.43896 5364.32715
5380.0 0.0001859 5325.87451 5361.56348
5380.0 0.0001859 5322.32080 5358.69629
5370.0 0.0001862 5318.77881 5355.83545
5370.0 0.0001862 5315.24951 5353.13086
5380.0 0.0001859 5311.73242 5350.70557
5350.0 0.0001869 5308.22803 5348.64990
5330.0 0.0001876 5304.73828 5347.08154
5340.0 0.0001873 5301.26367 5345.97217
5330.0 0.0001876 5297.80225 5345.32568
5320.0 0.0001880 5294.35742 5345.00879
5330.0 0.0001876 5290.92969 5344.82520
5350.0 0.0001869 5287.51660 5344.50830
5350.0 0.0001869 5284.11914 5343.73877
5350.0 0.0001869 5280.73877 5342.05957
5360.0 0.0001866 5277.37549 5339.37793
5330.0 0.0001876 5274.02686 5335.39111
5310.0 0.0001883 5270.69873 5330.10449
5310.0 0.0001883 5267.38525 5323.67529
5310.0 0.0001883 5264.08936 5316.38477
5300.0 0.0001887 5260.80957 5308.54346
5290.0 0.0001890 5257.54639 5300.50586
5260.0 0.0001901 5254.29980 5292.41455
5260.0 0.0001901 5251.06689 5284.51270
5270.0 0.0001898 5247.85205 5276.95410
5270.0 0.0001898 5244.65039 5269.94336
5270.0 0.0001898 5241.46289 5263.30273
5250.0 0.0001905 5238.29102 5257.15430
5240.0 0.0001908 5235.13232 5251.53076
5230.0 0.0001912 5231.98584 5246.23535
5230.0 0.0001912 5228.85254 5241.45068
5240.0 0.0001908 5225.73193 5237.04199
5250.0 0.0001905 5222.61768 5232.98242
5240.0 0.0001908 5219.51660 5229.18066
5220.0 0.0001916 5216.42529 5225.60352
5210.0 0.0001919 5213.34180 5222.19385
5210.0 0.0001919 5210.26416 5218.90283
5220.0 0.0001916 5207.19482 5215.53760
5210.0 0.0001919 5204.13086 5212.35596
5200.0 0.0001923 5201.07031 5209.18018
5210.0 0.0001919 5198.01221 5205.89453
5220.0 0.0001916 5194.96045 5202.63330
5200.0 0.0001923 5191.90576 5199.34131
5180.0 0.0001931 5188.85254 5196.02930
5190.0 0.0001927 5185.79980 5192.82178
5200.0 0.0001923 5182.74463 5189.68164
5180.0 0.0001931 5179.68555 5186.65088
5190.0 0.0001927 5176.62549 5183.75732
5180.0 0.0001931 5173.55811 5181.02539
5170.0 0.0001934 5170.48389 5178.51318
5170.0 0.0001934 5167.40234 5176.22266
5150.0 0.0001942 5164.31543 5174.20313
5130.0 0.0001949 5161.21582 5172.36719
5140.0 0.0001946 5158.10645 5170.37354
5160.0 0.0001938 5154.98877 5168.80322
5160.0 0.0001938 5151.85498 5167.49756
5160.0 0.0001938 5148.70947 5166.24512
5170.0 0.0001934 5145.55029 5165.10303
5180.0 0.0001931 5142.37646 5163.69141
5180.0 0.0001931 5139.18701 5162.08740
5160.0 0.0001938 5135.97949 5160.24902
5140.0 0.0001946 5132.75928 5158.12939
5130.0 0.0001949 5129.51855 5155.63379
5120.0 0.0001953 5126.25830 5152.74902
5110.0 0.0001957 5122.98047 5149.41992
5110.0 0.0001957 5119.68359 5145.74414
5090.0 0.0001965 5116.36719 5141.71289
5080.0 0.0001969 5113.03223 5137.45605
5080.0 0.0001969 5109.67383 5132.96631
5100.0 0.0001961 5106.30029 5128.28467
5120.0 0.0001953 5102.90332 5123.53271
5130.0 0.0001949 5099.48682 5118.77246
5110.0 0.0001957 5096.05029 5114.04688
5110.0 0.0001957 5092.59326 5109.38818
5120.0 0.0001953 5089.11768 5104.99854
5140.0 0.0001946 5085.62256 5100.51807
5140.0 0.0001946 5082.10889 5096.09180
5110.0 0.0001957 5078.57666 5091.81006
5100.0 0.0001961 5075.02734 5087.60352
5100.0 0.0001961 5071.46045 5083.53857
5130.0 0.0001949 5067.87646 5079.62744
5130.0 0.0001949 5064.28027 5075.89502
5110.0 0.0001957 5060.66553 5072.35791
5110.0 0.0001957 5057.04150 5069.02246
5090.0 0.0001965 5053.40479 5065.91064
5080.0 0.0001969 5049.75732 5063.00830
5070.0 0.0001972 5046.09863 5060.29883
5060.0 0.0001976 5042.43262 5057.75635
5060.0 0.0001976 5038.76074 5055.34277
5050.0 0.0001980 5035.08496 5053.01270
5070.0 0.0001972 5031.40576 5050.71680
5080.0 0.0001969 5027.72266 5048.39697
5070.0 0.0001972 5024.04004 5046.00244
5070.0 0.0001972 5020.35938 5043.48584
5050.0 0.0001980 5016.68506 5040.79736
5040.0 0.0001984 5013.01416 5037.89746
5050.0 0.0001980 5009.34961 5034.86621
5060.0 0.0001976 5005.69629 5031.56104
5040.0 0.0001984 5002.05518 5028.17822
5040.0 0.0001984 4998.42773 5024.66064
5050.0 0.0001980 4994.81641 5021.13867
5050.0 0.0001980 4991.22217 5017.55078
5050.0 0.0001980 4987.64746 5014.17236
5030.0 0.0001988 4984.09863 5010.88770
5030.0 0.0001988 4980.57129 5007.62598
5040.0 0.0001984 4977.06836 5004.41699
5030.0 0.0001988 4973.59766 5001.23633
5000.0 0.0002000 4970.16064 4998.20020
5010.0 0.0001996 4966.75146 4994.88867
5010.0 0.0001996 4963.37891 4991.49219
4990.0 0.0002004 4960.04395 4987.94678
4960.0 0.0002016 4956.74756 4984.19775
4950.0 0.0002020 4953.49414 4980.20313
4940.0 0.0002024 4950.28223 4975.95215
4940.0 0.0002024 4947.11475 4971.43066
4940.0 0.0002024 4943.99512 4966.81104
4940.0 0.0002024 4940.92334 4962.12646
4940.0 0.0002024 4937.90039 4957.52051
4950.0 0.0002020 4934.93066 4953.00977
4950.0 0.0002020 4932.01270 4948.71631
4930.0 0.0002028 4929.14893 4944.72266
4920.0 0.0002033 4926.33984 4941.07764
4930.0 0.0002028 4923.58740 4937.82861
4920.0 0.0002033 4920.89307 4935.00244
4910.0 0.0002037 4918.25586 4932.71680
4880.0 0.0002049 4915.67773 4930.74072
4890.0 0.0002045 4913.16162 4929.15576
4880.0 0.0002049 4910.70264 4927.86621
4890.0 0.0002045 4908.30371 4926.89502
4900.0 0.0002041 4905.96582 4926.14209
4890.0 0.0002045 4903.68701 4925.46436
4870.0 0.0002053 4901.47070 4924.80615
4870.0 0.0002053 4899.31348 4924.10596
4880.0 0.0002049 4897.21484 4923.03027
4900.0 0.0002041 4895.17578 4921.85449
4900.0 0.0002041 4893.19385 4920.41162
4890.0 0.0002045 4891.26807 4918.72852
4910.0 0.0002037 4889.40137 4916.84961
4930.0 0.0002028 4887.58789 4914.84912
4920.0 0.0002033 4885.82520 4912.80811
4930.0 0.0002028 4884.11719 4910.76123
4920.0 0.0002033 4882.45605 4908.73535
4930.0 0.0002028 4880.84570 4906.74268
4940.0 0.0002024 4879.27832 4904.68506
4920.0 0.0002033 4877.75732 4902.77637
4930.0 0.0002028 4876.27637 4900.77979
4920.0 0.0002033 4874.83496 4898.66260
4900.0 0.0002041 4873.42871 4896.48926
4900.0 0.0002041 4872.05566 4894.29688
4900.0 0.0002041 4870.71533 4892.15625
4900.0 0.0002041 4869.39893 4889.88086
4890.0 0.0002045 4868.10986 4887.99023
4880.0 0.0002049 4866.84033 4886.26367
4900.0 0.0002041 4865.59229 4884.70752
4880.0 0.0002049 4864.35303 4883.20850
4870.0 0.0002053 4863.12793 4881.85693
4880.0 0.0002049 4861.91016 4880.65283
4890.0 0.0002045 4860.69775 4879.52490
4870.0 0.0002053 4859.48242 4878.46729
4870.0 0.0002053 4858.26416 4877.47168
4880.0 0.0002049 4857.03809 4876.44873
4880.0 0.0002049 4855.80371 4875.37598
4890.0 0.0002045 4854.55225 4874.22754
4890.0 0.0002045 4853.28320 4873.09180
4900.0 0.0002041 4851.99121 4871.79443
4890.0 0.0002045 4850.67432 4870.45703
4900.0 0.0002041 4849.32764 4869.07861
4900.0 0.0002041 4847.94580 4867.65674
4890.0 0.0002045 4846.53076 4866.21875
4860.0 0.0002058 4845.07422 4864.78809
4860.0 0.0002058 4843.57275 4863.39160
4860.0 0.0002058 4842.02344 4862.10303
4890.0 0.0002045 4840.42529 4860.62695
4890.0 0.0002045 4838.77490 4859.33252
4880.0 0.0002049 4837.06592 4858.16504
4880.0 0.0002049 4835.30127 4857.05029
4880.0 0.0002049 4833.47217 4855.95752
4860.0 0.0002058 4831.58008 4854.85889
4860.0 0.0002058 4829.62061 4853.71045
4870.0 0.0002053 4827.59521 4852.45947
4860.0 0.0002058 4825.49756 4851.06592
4840.0 0.0002066 4823.32715 4849.44775
4850.0 0.0002062 4821.08350 4847.57373
4850.0 0.0002062 4818.76660 4845.23828
4850.0 0.0002062 4816.37256 4842.85010
4850.0 0.0002062 4813.90137 4840.26025
4830.0 0.0002070 4811.35303 4837.56787
4810.0 0.0002079 4808.72754 4834.76709
4830.0 0.0002070 4806.02539 4831.95068
4830.0 0.0002070 4803.24316 4829.17480
4820.0 0.0002075 4800.38330 4826.49805
4810.0 0.0002079 4797.44922 4823.99170
4810.0 0.0002079 4794.43896 4821.67773
4820.0 0.0002075 4791.35107 4819.53076
4800.0 0.0002083 4788.19336 4817.64893
4810.0 0.0002079 4784.96338 4815.96191
4810.0 0.0002079 4781.66406 4814.43213
4810.0 0.0002079 4778.29541 4812.97656
4800.0 0.0002083 4774.86133 4811.64307
4790.0 0.0002088 4771.36377 4810.04590
4790.0 0.0002088 4767.81055 4808.04980
4780.0 0.0002092 4764.19678 4805.77441
4780.0 0.0002092 4760.53223 4803.04395
4790.0 0.0002088 4756.81543 4799.76074
4790.0 0.0002088 4753.05273 4795.93896
4770.0 0.0002096 4749.24561 4791.68945
4760.0 0.0002101 4745.40283 4786.97217
4770.0 0.0002096 4741.52246 4781.90234
4780.0 0.0002092 4737.61523 4776.70020
4770.0 0.0002096 4733.67773 4771.40527
4750.0 0.0002105 4729.71924 4766.12354
4760.0 0.0002101 4725.74609 4760.87793
4760.0 0.0002101 4721.75781 4755.84570
4760.0 0.0002101 4717.76318 4750.90625
4760.0 0.0002101 4713.76514 4746.08789
4740.0 0.0002110 4709.77148 4741.36230
4730.0 0.0002114 4705.78076 4736.72021
4730.0 0.0002114 4701.80273 4732.15283
4720.0 0.0002119 4697.83887 4727.58545
4700.0 0.0002128 4693.89648 4722.93359
4710.0 0.0002123 4689.97998 4718.04443
4700.0 0.0002128 4686.09082 4713.35645
4710.0 0.0002123 4682.23926 4708.61035
4710.0 0.0002123 4678.42090 4703.96777
4720.0 0.0002119 4674.64893 4699.30225
4700.0 0.0002128 4670.91992 4694.72510
4700.0 0.0002128 4667.23975 4690.25000
4690.0 0.0002132 4663.61426 4686.04492
4680.0 0.0002137 4660.04736 4682.05176
4690.0 0.0002132 4656.53809 4678.28076
4710.0 0.0002123 4653.09180 4674.73193
4690.0 0.0002132 4649.71094 4671.41211
4670.0 0.0002141 4646.39648 4668.31006
4660.0 0.0002146 4643.15234 4665.42383
4650.0 0.0002151 4639.97852 4662.75635
4670.0 0.0002141 4636.87646 4660.30273
4660.0 0.0002146 4633.84961 4658.07080
4660.0 0.0002146 4630.89551 4656.05078
4660.0 0.0002146 4628.01611 4654.23877
4660.0 0.0002146 4625.21240 4652.63232
4650.0 0.0002151 4622.47949 4651.21387
4640.0 0.0002155 4619.82471 4649.98340
4640.0 0.0002155 4617.24316 4648.89551
4640.0 0.0002155 4614.72949 4647.91846
4650.0 0.0002151 4612.29004 4647.00049
4650.0 0.0002151 4609.91602 4646.07959
4660.0 0.0002146 4607.60645 4645.08447
4660.0 0.0002146 4605.36230 4643.98193
4650.0 0.0002151 4603.18018 4642.64307
4650.0 0.0002151 4601.05176 4641.06885
4640.0 0.0002155 4598.97900 4639.25391
4640.0 0.0002155 4596.95508 4637.22461
4630.0 0.0002160 4594.97852 4634.94434
4620.0 0.0002165 4593.04395 4632.60303
4610.0 0.0002169 4591.14648 4630.07227
4590.0 0.0002179 4589.28125 4627.66357
4610.0 0.0002169 4587.44434 4625.24170
4630.0 0.0002160 4585.63232 4622.90479
4640.0 0.0002155 4583.83838 4620.65283
4650.0 0.0002151 4582.05615 4618.53320
4640.0 0.0002155 4580.28271 4616.51660
4630.0 0.0002160 4578.51367 4614.68408
4620.0 0.0002165 4576.74023 4612.95996
4620.0 0.0002165 4574.96143 4611.29785
4610.0 0.0002169 4573.16699 4609.64404
4630.0 0.0002160 4571.35596 4607.92822
4630.0 0.0002160 4569.52490 4606.06104
4630.0 0.0002160 4567.66357 4604.13330
4620.0 0.0002165 4565.76807 4601.88525
4610.0 0.0002169 4563.84082 4599.37207
4590.0 0.0002179 4561.87061 4596.52832
4590.0 0.0002179 4559.85400 4593.32764
4590.0 0.0002179 4557.79004 4589.73047
4580.0 0.0002183 4555.67090 4585.88525
4580.0 0.0002183 4553.49854 4581.76660
4580.0 0.0002183 4551.26855 4577.44189
4580.0 0.0002183 4548.97852 4572.98047
4560.0 0.0002193 4546.62305 4568.44775
4530.0 0.0002208 4544.20557 4563.98779
4510.0 0.0002217 4541.71973 4559.52051
4510.0 0.0002217 4539.16553 4555.14844
4530.0 0.0002208 4536.54639 4550.89014
4520.0 0.0002212 4533.85889 4546.78076
4510.0 0.0002217 4531.10303 4542.83496
4520.0 0.0002212 4528.28125 4539.07178
4520.0 0.0002212 4525.39502 4535.47705
4530.0 0.0002208 4522.44336 4532.08154
4530.0 0.0002208 4519.42725 4528.74756
4530.0 0.0002208 4516.35449 4525.55566
4540.0 0.0002203 4513.22314 4522.47656
4510.0 0.0002217 4510.03662 4519.47412
4510.0 0.0002217 4506.80127 4516.53662
4520.0 0.0002212 4503.51660 4513.62451
4520.0 0.0002212 4500.19238 4510.76074
4510.0 0.0002217 4496.82422 4507.90918
4520.0 0.0002212 4493.42285 4505.06543
4510.0 0.0002217 4489.99219 4502.21240
4510.0 0.0002217 4486.53662 4499.34912
4500.0 0.0002222 4483.05664 4496.34082
4480.0 0.0002232 4479.56348 4493.43652
4490.0 0.0002227 4476.05811 4490.51855
4500.0 0.0002222 4472.54395 4487.63525
4490.0 0.0002227 4469.03076 4484.76318
4490.0 0.0002227 4465.51953 4481.87646
4500.0 0.0002222 4462.01416 4479.01318
4500.0 0.0002222 4458.52002 4476.18701
4480.0 0.0002232 4455.04346 4473.22852
4470.0 0.0002237 4451.58301 4470.33154
4460.0 0.0002242 4448.14453 4467.40869
4460.0 0.0002242 4444.73047 4464.45996
4460.0 0.0002242 4441.34082 4461.48584
4470.0 0.0002237 4437.98145 4458.50146
4460.0 0.0002242 4434.65283 4455.53467
4460.0 0.0002242 4431.35303 4452.47510
4440.0 0.0002252 4428.08545 4449.48438
4440.0 0.0002252 4424.85010 4446.52539
4460.0 0.0002242 4421.64307 4443.52637
4450.0 0.0002247 4418.46484 4440.51709
4440.0 0.0002252 4415.31104 4437.37158
4420.0 0.0002262 4412.18115 4434.29590
4430.0 0.0002257 4409.07227 4431.19727
4430.0 0.0002257 4405.97803 4428.08350
4440.0 0.0002252 4402.89551 4424.93066
4440.0 0.0002252 4399.81934 4421.73438
4420.0 0.0002262 4396.74561 4418.63867
4410.0 0.0002268 4393.66504 4415.54492
4410.0 0.0002268 4390.57422 4412.43359
4410.0 0.0002268 4387.46631 4409.27637
4410.0 0.0002268 4384.33301 4406.04395
4390.0 0.0002278 4381.16748 4402.70898
4390.0 0.0002278 4377.96289 4399.25195
4390.0 0.0002278 4374.71240 4395.69092
4380.0 0.0002283 4371.40674 4391.96289
4380.0 0.0002283 4368.03955 4388.06201
4390.0 0.0002278 4364.61035 4384.01367
4390.0 0.0002278 4361.10303 4379.78857
4380.0 0.0002283 4357.52002 4375.42822
4370.0 0.0002288 4353.84961 4370.88818
4360.0 0.0002294 4350.08838 4366.20508
4340.0 0.0002304 4346.23389 4361.40869
4330.0 0.0002309 4342.28564 4356.52441
4350.0 0.0002299 4338.23340 4351.57275
4330.0 0.0002309 4334.08447 4346.58398
4340.0 0.0002304 4329.83740 4341.59619
4340.0 0.0002304 4325.48877 4336.60791
4330.0 0.0002309 4321.04541 4331.64307
4330.0 0.0002309 4316.50977 4326.71826
4320.0 0.0002315 4311.88379 4321.81934
4320.0 0.0002315 4307.18164 4316.90967
4320.0 0.0002315 4302.40479 4312.06348
4330.0 0.0002309 4297.56494 4307.25195
4310.0 0.0002320 4292.67041 4302.46045
4290.0 0.0002331 4287.73730 4297.66357
4280.0 0.0002336 4282.77295 4292.86621
4270.0 0.0002342 4277.79395 4288.10303
4280.0 0.0002336 4272.81445 4283.29346
4300.0 0.0002326 4267.84961 4278.44678
4280.0 0.0002336 4262.91455 4273.59326
4270.0 0.0002342 4258.03076 4268.79834
4270.0 0.0002342 4253.20703 4264.02148
4270.0 0.0002342 4248.46240 4259.28174
4270.0 0.0002342 4243.81689 4254.61279
4260.0 0.0002347 4239.28271 4250.01172
4260.0 0.0002347 4234.87061 4245.49756
4250.0 0.0002353 4230.60156 4241.10791
4230.0 0.0002364 4226.48193 4236.82080
4220.0 0.0002370 4222.52002 4232.67432
4220.0 0.0002370 4218.72656 4228.69922
4220.0 0.0002370 4215.10449 4224.80029
4220.0 0.0002370 4211.65625 4221.20166
4210.0 0.0002375 4208.38379 4217.80664
4210.0 0.0002375 4205.27979 4214.64160
4210.0 0.0002375 4202.33984 4211.70020
4210.0 0.0002375 4199.55273 4208.98340
4200.0 0.0002381 4196.90186 4206.46045
4200.0 0.0002381 4194.37354 4204.13477
4190.0 0.0002387 4191.94434 4201.94482
4190.0 0.0002387 4189.59326 4199.85352
4210.0 0.0002375 4187.28955 4197.78711
4220.0 0.0002370 4185.00732 4195.72949
4210.0 0.0002375 4182.71484 4193.66064
4200.0 0.0002381 4180.38037 4191.49707
4180.0 0.0002392 4177.97119 4189.19482
4180.0 0.0002392 4175.45410 4186.71973
4170.0 0.0002398 4172.80078 4184.03857
4170.0 0.0002398 4169.98145 4181.12842
4190.0 0.0002387 4166.97559 4177.92773
4190.0 0.0002387 4163.76123 4174.51807
4160.0 0.0002404 4160.32373 4170.88428
4160.0 0.0002404 4156.66455 4167.02148
4170.0 0.0002398 4152.77832 4162.96143
4160.0 0.0002404 4148.68408 4158.72119
4140.0 0.0002415 4144.40576 4154.34082
4130.0 0.0002421 4139.97266 4149.85791
4140.0 0.0002415 4135.43848 4145.32666
4150.0 0.0002410 4130.85547 4140.79199
4150.0 0.0002410 4126.29346 4136.31787
4150.0 0.0002410 4121.82031 4131.95752
4130.0 0.0002421 4117.51465 4127.77637
4120.0 0.0002427 4113.45166 4123.83447
4110.0 0.0002433 4109.69775 4120.19141
4120.0 0.0002427 4106.30078 4116.86963
4120.0 0.0002427 4103.27637 4113.87207
4120.0 0.0002427 4100.60303 4111.17822
4110.0 0.0002433 4098.19043 4108.68311
4100.0 0.0002439 4095.85889 4106.17090
4100.0 0.0002439 4093.31738 4103.42822
4100.0 0.0002439 4090.12842 4099.98193
4090.0 0.0002445 4085.65869 4095.22339
4080.0 0.0002451 4079.03223 4088.26440
4080.0 0.0002451 4069.07471 4077.94995
4070.0 0.0002457 4054.25244 4062.75342
4050.0 . . .
4040.0 . . .
4050.0 . . .
4070.0 . . .
4080.0 . . .
4080.0 . . .
4080.0 . . .
4090.0 . . .
4080.0 . . .
4060.0 . . .
4050.0 . . .
4040.0 . . .
4050.0 . . .
4040.0 . . .
4030.0 . . .
4030.0 . . .
4050.0 . . .
4040.0 . . .
4030.0 . . .
4020.0 . . .
4030.0 . . .
4030.0 . . .
4020.0 . . .
4030.0 . . .
4030.0 . . .
4020.0 . . .
4020.0 . . .
4020.0 . . .
4030.0 . . .
4030.0 . . .
4020.0 . . .
4020.0 . . .
4020.0 . . .
4020.0 . . .
4030.0 . . .
4020.0 . . .
4020.0 . . .
4020.0 . . .
4050.0 . . .
4040.0 . . .
4010.0 . . .
4000.0 . . .
4020.0 . . .
4020.0 . . .
4010.0 . . .
4000.0 . . .
4020.0 . . .
4030.0 . . .
4000.0 . . .
3990.0 . . .
3990.0 . . .
4010.0 . . .
4010.0 . . .
4010.0 . . .
3990.0 . . .
4010.0 . . .
4010.0 . . .
4010.0 . . .
3990.0 . . .
3990.0 . . .
3990.0 . . .
3990.0 . . .
3980.0 . . .
3990.0 . . .
4010.0 . . .
3990.0 . . .
3990.0 . . .
3980.0 . . .
3950.0 . . .
3940.0 . . .
3930.0 . . .
3940.0 . . .
3960.0 . . .
3960.0 . . .
3950.0 . . .
3940.0 . . .
3920.0 . . .
3910.0 . . .
3910.0 . . .
3910.0 . . .
3920.0 . . .
3900.0 . . .
3910.0 . . .
3910.0 . . .
3880.0 . . .
3890.0 . . .
3900.0 . . .
3910.0 . . .
3910.0 . . .
3910.0 . . .
3900.0 . . .
3900.0 . . .
3890.0 . . .
3900.0 . . .
3910.0 . . .
3910.0 . . .
3900.0 . . .
3900.0 . . .
3890.0 . . .
3880.0 . . .
3870.0 . . .
3860.0 . . .
3870.0 . . .
3880.0 . . .
3890.0 . . .
3890.0 . . .
3890.0 . . .
3900.0 . . .
3910.0 . . .
3890.0 . . .
3870.0 . . .
3860.0 . . .
3880.0 . . .
3880.0 . . .
3880.0 . . .
3860.0 . . .
3860.0 . . .
3880.0 . . .
3870.0 . . .
3870.0 . . .
3870.0 . . .
3860.0 . . .
3840.0 . . .
3830.0 . . .
3830.0 . . .
3840.0 . . .
3850.0 . . .
3840.0 . . .
3830.0 . . .
3820.0 . . .
3820.0 . . .
3820.0 . . .
3810.0 . . .
3790.0 . . .
3780.0 . . .
3780.0 . . .
3760.0 . . .
3750.0 . . .
3750.0 . . .
3750.0 . . .
3760.0 . . .
3760.0 . . .
3740.0 . . .
3740.0 . . .
3740.0 . . .
3720.0 . . .
3710.0 . . .
3710.0 . . .
3700.0 . . .
3700.0 . . .
3710.0 . . .
3710.0 . . .
3690.0 . . .
3700.0 . . .
3700.0 . . .
3710.0 . . .
3700.0 . . .
3700.0 . . .
3700.0 . . .
3700.0 . . .
3700.0 . . .
3690.0 . . .
3690.0 . . .
3680.0 . . .
3670.0 . . .
3670.0 . . .
3660.0 . . .
3650.0 . . .
3650.0 . . .
3650.0 . . .
3650.0 . . .
3640.0 . . .
3640.0 . . .
3630.0 . . .
3630.0 . . .
3620.0 . . .
3620.0 . . .
3620.0 . . .
3620.0 . . .
3630.0 . . .
3630.0 . . .
3630.0 . . .
3640.0 . . .
3650.0 . . .
3630.0 . . .
3620.0 . . .
3600.0 . . .
3600.0 . . .
3620.0 . . .
3630.0 . . .
3620.0 . . .
3620.0 . . .
3630.0 . . .
3630.0 . . .
3630.0 . . .
3630.0 . . .
3610.0 . . .
3590.0 . . .
3600.0 . . .
3590.0 . . .
3580.0 . . .
3590.0 . . .
3570.0 . . .
3580.0 . . .
3580.0 . . .
3580.0 . . .
3580.0 . . .
3570.0 . . .
3580.0 . . .
3590.0 . . .
3590.0 . . .
3590.0 . . .
3590.0 . . .
3570.0 . . .
3570.0 . . .
3570.0 . . .
3560.0 . . .
3560.0 . . .
3560.0 . . .
3550.0 . . .
3540.0 . . .
3540.0 . . .
3540.0 . . .
3540.0 . . .
3540.0 . . .
3530.0 . . .
3530.0 . . .
3510.0 . . .
3510.0 . . .
3500.0 . . .
3500.0 . . .
3510.0 . . .
3510.0 . . .
3490.0 . . .
3480.0 . . .
3480.0 . . .
3470.0 . . .
3470.0 . . .
3470.0 . . .
3470.0 . . .
3470.0 . . .
3470.0 . . .
3470.0 . . .
3470.0 . . .
3470.0 . . .
3460.0 . . .
3460.0 . . .
3460.0 . . .
3460.0 . . .
3450.0 . . .
3450.0 . . .
3450.0 . . .
3430.0 . . .
3430.0 . . .
3420.0 . . .
3390.0 . . .
3380.0 . . .
3380.0 . . .
3350.0 . . .
3350.0 . . .
3330.0 . . .
3300.0 . . .
3260.0 . . .
3250.0 . . .
3220.0 . . .
3200.0 . . .
3180.0 . . .
3170.0 . . .
3140.0 . . .
3100.0 . . .
3070.0 . . .
3030.0 . . .
3020.0 . . .
3000.0 . . .
2980.0 . . .
2960.0 . . .
2950.0 . . .
2930.0 . . .
2900.0 . . .
2880.0 . . .
2860.0 . . .
2840.0 . . .
2820.0 . . .
2820.0 . . .
2620.0 . . .
2270.0 . . .
2050.0 . . .
1870.0 . . .
1700.0 . . .
1560.0 . . .
1410.0 . . .
1270.0 . . .
1130.0 . . .
1000.0 . . .
869.0 . . .
735.0 . . .
575.0 . . .
295.0 . . .
17.0 . . .
0.0 . . .
0.0 . . .
0.0 . . .
0.0 . . .
0.0 . . .
0.0 . . .
0.0 . . .
0.0 . . .
0.0 . . .
0.0 . . .
0.0 . . .
0.0 . . .
0.0 . . .
0.0 . . .
0.0 . . .
0.0 . . .
0.0 . . .
0.0 . . .
0.0 . . .
0.0 . . .
0.0 . . .
0.0 . . .
0.0 . . .
0.0 . . .
0.0 . . .
0.0 . . .
0.0 . . .
0.0 . . .
0.0 . . .
0.0 . . .
0.0 . . .
0.0 . . .
0.0 . . .
0.0 . . .
0.0 . . .
0.0 . . .
0.0 . . .
0.0 . . .
0.0 . . .
0.0 . . .
0.0 . . .
0.0 . . .
0.0 . . .
0.0 . . .
0.0 . . .
0.0 . . .
0.0 . . .
0.0 . . .
0.0 . . .
0.0 . . .
0.0 . . .
0.0 . . .
0.0 . . .
0.0 . . .
0.0 . . .
0.0 . . .
0.0 . . .
0.0 . . .
0.0 . . .
0.0 . . .
0.0 . . .
0.0 . . .
0.0 . . .
0.0 . . .
0.0 . . .
0.0 . . .
0.0 . . .
0.0 . . .
0.0 . . .
0.0 . . .
0.0 . . .
0.0 . . .
0.0 . . .
0.0 . . .
0.0 . . .
0.0 . . .
0.0 . . .
0.0 . . .
0.0 . . .
0.0 . . .
0.0 . . .
0.0 . . .
0.0 . . .
0.0 . . .
0.0 . . .
0.0 . . .
0.0 . . .
0.0 . . .
0.0 . . .
0.0 . . .
0.0 . . .
0.0 . . .
0.0 . . .
0.0 . . .
0.0 . . .
0.0 . . .
0.0 . . .
0.0 . . .
0.0 . . .
0.0 . . .
0.0 . . .
0.0 . . .
0.0 . . .
0.0 . . .
0.0 . . .
0.0 . . .
0.0 . . .
0.0 . . .
0.0 . . .
0.0 . . .
0.0 . . .
0.0 . . .
0.0 . . .
0.0 . . .
0.0 . . .
0.0 . . .
0.0 . . .
0.0 . . .
0.0 . . .
0.0 . . .
0.0 . . .
0.0 . . .
0.0 . . .
0.0 . . .
0.0 . . .
0.0 . . .
0.0 . . .
0.0 . . .
0.0 . . .
0.0 . . .
0.0 . . .
0.0 . . .
0.0 . . .
0.0 . . .
0.0 . . .
0.0 . . .
0.0 . . .
0.0 . . .
0.0 . . .
0.0 . . .
0.0 . . .
0.0 . . .
0.0 . . .
0.0 . . .
0.0 . . .
0.0 . . .
0.0 . . .
0.0 . . .
0.0 . . .
0.0 . . .
0.0 . . .
0.0 . . .
0.0 . . .
0.0 . . .
0.0 . . .
0.0 . . .
0.0 . . .
0.0 . . .
0.0 . . .
0.0 . . .
0.0 . . .
0.0 . . .
0.0 . . .
0.0 . . .
0.0 . . .
0.0 . . .
0.0 . . .
0.0 . . .
0.0 . . .
0.0 . . .
0.0 . . .
0.0 . . .
0.0 . . .
0.0 . . .
0.0 . . .
0.0 . . .
0.0 . . .
0.0 . . .
0.0 . . .
0.0 . . .
0.0 . . .
0.0 . . .
0.0 . . .
0.0 . . .
0.0 . . .
0.0 . . .
0.0 . . .
0.0 . . .
0.0 . . .
0.0 . . .
0.0 . . .
0.0 . . .
0.0 . . .
0.0 . . .
0.0 . . .
0.0 . . .
0.0 . . .
0.0 . . .
0.0 . . .
0.0 . . .
0.0 . . .
0.0 . . .
0.0 . . .
0.0 . . .
0.0 . . .
0.0 . . .
0.0 . . .
0.0 . . .
0.0 . . .
0.0 . . .
0.0 . . .
0.0 . . .
0.0 . . .
0.0 . . .
0.0 . . .
0.0 . . .
0.0 . . .
0.0 . . .
0.0 . . .
0.0 . . .
0.0 . . .
0.0 . . .
0.0 . . .
0.0 . . .
0.0 . . .
0.0 . . .
0.0 . . .
0.0 . . .
0.0 . . .
0.0 . . .
0.0 . . .
0.0 . . .
0.0 . . .
0.0 . . .
0.0 . . .
0.0 . . .
0.0 . . .
0.0 . . .
0.0 . . .
0.0 . . .
0.0 . . .
0.0 . . .
0.0 . . .
0.0 . . .
0.0 . . .
0.0 . . .
0.0 . . .
0.0 . . .
0.0 . . .
0.0 . . .
0.0 . . .
0.0 . . .
0.0 . . .
0.0 . . .
0.0 . . .
0.0 . . .
0.0 . . .
0.0 . . .
0.0 . . .
0.0 . . .
0.0 . . .
0.0 . . .
0.0 . . .
0.0 . . .
0.0 . . .
0.0 . . .
0.0 . . .
0.0 . . .
0.0 . . .
0.0 . . .
0.0 . . .
0.0 . . .
0.0 . . .
0.0 . . .
0.0 . . .
0.0 . . .
0.0 . . .
0.0 . . .
0.0 . . .
0.0 . . .
0.0 . . .
0.0 . . .
0.0 . . .
0.0 . . .
0.0 . . .
0.0 . . .
0.0 . . .
0.0 . . .
0.0 . . .
0.0 . . .
0.0 . . .
0.0 . . .
0.0 . . .
0.0 . . .
0.0 . . .
0.0 . . .
0.0 . . .
0.0 . . .
0.0 . . .
0.0 . . .
0.0 . . .
0.0 . . .
0.0 . . .
0.0 . . .
0.0 . . .
0.0 . . .
0.0 . . .
0.0 . . .
0.0 . . .
0.0 . . .
0.0 . . .
0.0 . . .
0.0 . . .
0.0 . . .
0.0 . . .
0.0 . . .
0.0 . . .
0.0 . . .
0.0 . . .
0.0 . . .
0.0 . . .
0.0 . . .
0.0 . . .
0.0 . . .
0.0 . . .
0.0 . . .
0.0 . . .
0.0 . . .
0.0 . . .
0.0 . . .
0.0 . . .
0.0 . . .
0.0 . . .
0.0 . . .
0.0 . . .
0.0 . . .
0.0 . . .
0.0 . . .
0.0 . . .
0.0 . . .
0.0 . . .
0.0 . . .
0.0 . . .
0.0 . . .
0.0 . . .
0.0 . . .
0.0 . . .
0.0 . . .
0.0 . . .
0.0 . . .
0.0 . . .
0.0 . . .
0.0 . . .
0.0 . . .
0.0 . . .
0.0 . . .
0.0 . . .
0.0 . . .
0.0 . . .
0.0 . . .
0.0 . . .
0.0 . . .
0.0 . . .
0.0 . . .
0.0 . . .
0.0 . . .
0.0 . . .
0.0 . . .
0.0 . . .
0.0 . . .
0.0 . . .
0.0 . . .
0.0 . . .
0.0 . . .
0.0 . . .
0.0 . . .
0.0 . . .
0.0 . . .
0.0 . . .
0.0 . . .
0.0 . . .
0.0 . . .
0.0 . . .
0.0 . . .
0.0 . . .
0.0 . . .
0.0 . . .
0.0 . . .
0.0 . . .
0.0 . . .
0.0 . . .
0.0 . . .
0.0 . . .
0.0 . . .
0.0 . . .
0.0 . . .
0.0 . . .
0.0 . . .
0.0 . . .
0.0 . . .
0.0 . . .
0.0 . . .
0.0 . . .
0.0 . . .
0.0 . . .
0.0 . . .
0.0 . . .
0.0 . . .
0.0 . . .
0.0 . . .
0.0 . . .
0.0 . . .
0.0 . . .
0.0 . . .
0.0 . . .
0.0 . . .
0.0 . . .
0.0 . . .
0.0 . . .
0.0 . . .
0.0 . . .
0.0 . . .
0.0 . . .
0.0 . . .
0.0 . . .
0.0 . . .
0.0 . . .
0.0 . . .
0.0 . . .
0.0 . . .
0.0 . . .
0.0 . . .
0.0 . . .
0.0 . . .
0.0 . . .
0.0 . . .
0.0 . . .
0.0 . . .
0.0 . . .
loop_
_refln_index_h
_refln_index_k
_refln_index_l
_refln_observed_status
_refln_F_squared_meas
_refln_F_squared_calc
_refln_phase_calc
_refln_d_spacing
_gsas_i100_meas
0 0 1 o 755.144 753.994 0.00 6.81731 30.60
1 1 -1 o 308.847 283.013 0.00 4.40157 32.32
0 1 1 o 28.706 29.183 0.00 4.35261 1.77
1 1 0 o 1548.179 1562.800 0.00 4.17055 100.00
2 0 -1 o 1619.520 1557.345 0.00 3.73634 52.73
2 0 -2 o 471.338 511.064 180.00 3.50511 11.79
0 0 2 o 158.605 210.674 180.00 3.40865 1.61
1 1 -2 o 94.866 83.607 180.00 3.35630 4.23
2 1 -1 o 1258.895 1261.728 180.00 3.11741 60.34
2 0 0 o 2009.796 2042.017 0.00 3.08750 22.89
1 1 1 o 139.264 115.644 180.00 3.06565 2.68
2 1 -2 o 39.718 21.713 0.00 2.97928 1.62
0 1 2 o 0.000 18.232 0.00 2.91937 0.00
0 2 0 o 268.337 328.122 180.00 2.82765 7.33
2 0 -3 o 4.324 4.522 0.00 2.72985 0.06
2 1 0 o 1515.151 1429.311 180.00 2.70994 31.44
0 2 1 o 245.510 242.476 180.00 2.61189 8.30
1 2 -1 o 48.687 40.296 0.00 2.62236 2.09
1 2 0 o 111.776 123.121 180.00 2.57092 3.80
2 1 -3 o 2.625 23.268 0.00 2.45842 0.06
1 1 -3 o 284.996 258.610 0.00 2.43280 5.18
2 0 1 o 27.323 30.063 180.00 2.34916 0.13
1 2 -2 o 130.229 119.928 0.00 2.34035 3.47
3 1 -2 o 0.560 0.590 180.00 2.30020 0.02
0 0 3 o 532.572 510.819 0.00 2.27244 2.40
2 2 -1 o 8.779 8.502 0.00 2.25474 0.24
1 1 2 o 2.064 2.465 180.00 2.24537 0.02
1 2 1 o 34.434 54.459 180.00 2.23493 0.55
3 1 -1 o 467.861 518.882 0.00 2.19988 9.01
2 2 -2 o 5.772 6.478 0.00 2.20079 0.15
0 2 2 o 86.873 82.465 0.00 2.17630 1.34
2 1 1 o 0.029 0.026 180.00 2.16944 0.00
3 1 -3 o 175.754 135.764 0.00 2.15964 3.56
0 1 3 o 5.610 43.286 0.00 2.10858 0.05
2 2 0 o 150.389 83.192 180.00 2.08527 2.43
2 0 -4 o 48.278 26.449 0.00 2.08505 0.36
2 2 -3 o 208.229 305.393 0.00 1.96396 3.66
2 1 -4 o 194.989 174.912 180.00 1.95632 2.69
1 2 -3 o 133.767 97.184 0.00 1.95082 1.88
3 1 0 o 14.285 20.438 0.00 1.93420 0.14
3 2 -2 o 10.251 12.521 0.00 1.88043 0.20
3 1 -4 o 184.848 222.758 0.00 1.88030 2.49
4 0 -3 o 17.860 13.494 0.00 1.87469 0.16
4 0 -2 o 81.819 46.644 180.00 1.86817 0.67
1 2 2 o 6.089 3.943 180.00 1.85011 0.05
1 1 -4 o 139.043 90.271 0.00 1.85000 1.24
3 2 -1 o 181.955 155.147 180.00 1.82442 2.69
2 0 2 o 63.308 54.088 0.00 1.82409 0.16
1 3 -1 o 91.582 79.985 180.00 1.82043 1.99
0 3 1 o 212.257 190.084 180.00 1.81692 4.06
2 2 1 o 116.070 116.422 180.00 1.80694 0.97
1 3 0 o 54.245 57.209 180.00 1.80296 1.04
3 2 -3 o 38.261 41.180 0.00 1.80127 0.61
4 1 -3 o 148.154 189.434 0.00 1.77947 2.36
4 1 -2 o 0.048 0.069 180.00 1.77389 0.00
0 2 3 o 35.124 57.018 0.00 1.77132 0.28
4 0 -4 o 0.000 43.460 0.00 1.75255 0.00
4 0 -1 o 0.003 0.430 0.00 1.73670 0.00
2 1 2 o 0.283 3.279 0.00 1.73602 0.00
1 1 3 o 33.507 77.267 0.00 1.73208 0.16
1 3 -2 o 0.003 0.007 0.00 1.71774 0.00
0 0 4 o 113.666 172.230 0.00 1.70433 0.29
2 3 -1 o 133.155 165.261 0.00 1.68302 2.21
2 2 -4 o 70.184 81.201 0.00 1.67815 0.78
1 3 1 o 21.452 23.012 180.00 1.67473 0.26
4 1 -4 o 12.479 13.191 0.00 1.67401 0.15
3 2 0 o 232.097 197.785 180.00 1.66413 2.00
4 1 -1 o 748.604 582.466 180.00 1.66018 7.16
2 3 -2 o 3.310 2.579 0.00 1.66022 0.05
0 3 2 o 50.480 30.437 180.00 1.64964 0.58
2 0 -5 o 42.097 25.424 180.00 1.64648 0.18
3 1 1 o 67.234 35.258 180.00 1.64178 0.36
0 1 4 o 146.375 81.918 0.00 1.63183 0.73
3 2 -4 o 22.305 16.321 180.00 1.62943 0.25
2 3 0 o 0.000 0.050 180.00 1.60892 0.00
1 2 -4 o 0.000 0.010 0.00 1.60959 0.00
3 1 -5 o 0.000 0.118 0.00 1.59250 0.00
2 1 -5 o 0.000 10.571 180.00 1.58084 0.00
4 2 -3 o 0.000 0.333 0.00 1.56249 0.00
4 0 -5 o 0.000 36.428 180.00 1.56239 0.00
4 2 -2 o 0.000 26.467 0.00 1.55870 0.00
2 3 -3 o 0.204 0.899 180.00 1.55119 0.00
4 0 0 o 26.235 39.615 180.00 1.54375 0.07
1 3 -3 o 29.829 45.463 0.00 1.54469 0.31
2 2 2 o 12.034 19.203 0.00 1.53283 0.06
1 2 3 o 28.388 42.645 180.00 1.53011 0.13
3 3 -2 o 90.672 92.371 180.00 1.50903 1.18
4 1 -5 o 7.114 7.141 180.00 1.50598 0.06
1 3 2 o 148.151 128.879 0.00 1.49323 1.05
4 1 0 o 264.022 219.366 180.00 1.48926 1.47
4 2 -4 o 187.032 156.110 0.00 1.48964 1.91
4 2 -1 o 346.922 258.447 0.00 1.47986 2.89
3 3 -1 o 2.495 1.853 180.00 1.47962 0.03
1 1 -5 o 4.902 3.523 0.00 1.47692 0.03
2 3 1 o 48.331 33.790 180.00 1.47025 0.35
2 0 3 o 438.318 307.699 0.00 1.46977 0.69
3 2 1 o 5.464 4.053 0.00 1.46679 0.03
3 3 -3 o 18.440 13.541 180.00 1.46719 0.22
5 1 -3 o 2.335 2.490 0.00 1.45919 0.03
0 2 4 o 54.841 56.742 180.00 1.45968 0.26
0 3 3 o 42.136 68.044 180.00 1.45087 0.29
5 1 -4 o 62.644 100.494 0.00 1.43843 0.63
3 2 -5 o 35.762 60.775 180.00 1.43133 0.29
2 1 3 o 9.729 36.212 180.00 1.42252 0.03
2 2 -5 o 0.423 1.444 0.00 1.42285 0.00
5 1 -2 o 0.000 9.664 0.00 1.41557 0.00
0 4 0 o 0.000 17.049 0.00 1.41382 0.00
1 1 4 o 0.387 1.389 0.00 1.39845 0.00
2 3 -4 o 13.080 44.096 0.00 1.39833 0.11
3 3 0 o 14.463 13.798 180.00 1.39018 0.10
3 1 2 o 25.938 24.391 0.00 1.38979 0.08
1 4 -1 o 21.207 18.894 0.00 1.38592 0.27
0 4 1 o 18.567 16.691 180.00 1.38437 0.22
1 4 0 o 0.092 0.092 0.00 1.37816 0.00
3 3 -4 o 0.012 0.012 0.00 1.36976 0.00
4 2 -5 o 19.689 19.119 0.00 1.36752 0.15
4 0 -6 o 62.341 59.691 0.00 1.36492 0.21
0 0 5 o 16.718 15.973 180.00 1.36346 0.03
5 1 -5 o 0.327 0.314 180.00 1.36085 0.00
1 3 -4 o 110.353 107.476 180.00 1.35791 0.72
4 2 0 o 5.350 5.270 180.00 1.35497 0.03
3 1 -6 o 45.496 41.162 0.00 1.34986 0.29
4 0 1 o 1.166 0.957 180.00 1.34754 0.00
2 0 -6 o 4.597 3.756 0.00 1.34745 0.01
1 2 -5 o 3.774 2.851 0.00 1.34566 0.02
1 4 -2 o 100.535 65.789 180.00 1.33896 1.08
5 2 -3 o 1.872 1.276 180.00 1.33220 0.02
4 3 -3 o 135.763 96.160 180.00 1.32927 1.32
4 3 -2 o 6.084 4.500 180.00 1.32694 0.06
4 1 -6 o 66.784 49.558 0.00 1.32683 0.44
0 1 5 o 1.893 1.450 0.00 1.32548 0.01
5 1 -1 o 18.461 15.205 0.00 1.32284 0.10
2 4 -1 o 32.540 27.235 180.00 1.32232 0.35
1 4 1 o 8.466 8.002 180.00 1.31829 0.07
5 2 -4 o 15.125 15.013 180.00 1.31635 0.13
4 1 1 o 1.289 1.448 0.00 1.31084 0.00
2 4 -2 o 183.869 205.214 180.00 1.31118 1.98
2 3 2 o 19.067 21.418 180.00 1.31087 0.09
2 1 -6 o 172.404 194.512 0.00 1.31075 0.85
1 3 3 o 2.133 2.487 0.00 1.30916 0.01
0 4 2 o 10.511 13.027 180.00 1.30594 0.09
2 2 3 o 34.713 44.035 180.00 1.30412 0.11
5 2 -2 o 27.621 35.766 180.00 1.29877 0.21
2 4 0 o 4.144 5.122 0.00 1.28546 0.04
1 2 4 o 40.278 49.783 180.00 1.28551 0.12
4 3 -4 o 9.105 11.635 180.00 1.28354 0.08
3 2 2 o 0.034 0.055 0.00 1.27877 0.00
4 3 -1 o 3.339 6.065 0.00 1.27728 0.02
3 3 1 o 0.000 0.001 180.00 1.26884 0.00
0 3 4 o 45.042 132.659 180.00 1.26423 0.20
6 0 -4 o 68.189 179.121 0.00 1.25894 0.28
5 2 -5 o 20.451 40.204 180.00 1.25611 0.14
2 4 -3 o 10.922 19.410 180.00 1.25544 0.10
1 4 -3 o 19.590 19.733 180.00 1.25199 0.15
5 1 -6 o 0.662 0.518 180.00 1.25029 0.00
3 2 -6 o 13.642 7.623 0.00 1.24745 0.08
6 0 -3 o 54.049 25.574 0.00 1.24545 0.20
3 3 -5 o 70.481 33.887 180.00 1.24568 0.48
2 3 -5 o 19.710 7.778 0.00 1.24007 0.12
3 4 -2 o 60.041 28.261 180.00 1.23277 0.54
6 0 -5 o 5.621 2.826 0.00 1.23070 0.02
6 1 -4 o 18.263 9.637 0.00 1.22886 0.14
4 2 -6 o 9.909 5.186 180.00 1.22921 0.06
0 2 5 o 21.781 11.694 0.00 1.22814 0.07
5 2 -1 o 304.031 169.946 180.00 1.22604 1.57
1 4 2 o 0.005 0.003 0.00 1.22411 0.00
1 1 -6 o 51.350 29.786 0.00 1.22377 0.17
2 0 4 o 70.337 41.152 0.00 1.22323 0.08
4 2 1 o 10.709 7.851 180.00 1.21647 0.04
6 1 -3 o 24.864 18.421 0.00 1.21630 0.17
3 4 -1 o 46.355 33.748 0.00 1.21658 0.37
2 2 -6 o 89.795 66.005 0.00 1.21640 0.41
2 4 1 o 0.227 0.267 180.00 1.21136 0.00
3 4 -3 o 87.378 131.050 180.00 1.20965 0.75
5 1 0 o 8.834 24.501 180.00 1.20656 0.03
4 3 -5 o 0.160 3.295 180.00 1.20293 0.00
6 1 -5 o 0.039 2.046 0.00 1.20255 0.00
0 4 3 o 0.000 2.206 0.00 1.20045 0.00
2 1 4 o 0.000 2.414 180.00 1.19558 0.00
4 3 0 o 0.000 0.005 0.00 1.19436 0.00
6 0 -2 o 0.000 14.266 180.00 1.19398 0.00
3 1 3 o 0.239 1.148 0.00 1.18889 0.00
4 0 -7 o 60.674 412.911 0.00 1.18938 0.15
1 3 -5 o 28.064 85.592 180.00 1.18797 0.12
5 3 -3 o 177.553 143.280 180.00 1.17868 1.31
4 0 2 o 30.814 24.235 0.00 1.17458 0.04
2 4 -4 o 44.567 35.291 180.00 1.17017 0.30
6 1 -2 o 0.037 0.029 0.00 1.16823 0.00
6 0 -6 o 0.776 0.601 0.00 1.16837 0.00
1 1 5 o 0.029 0.023 0.00 1.16851 0.00
5 3 -4 o 0.217 0.166 0.00 1.16766 0.00
5 2 -6 o 15.115 11.540 180.00 1.16761 0.08
3 4 0 o 1.459 1.050 180.00 1.16539 0.01
4 1 -7 o 186.967 128.724 0.00 1.16391 0.93
2 3 3 o 59.954 37.094 180.00 1.15910 0.18
3 1 -7 o 109.456 67.013 0.00 1.15752 0.48
5 3 -2 o 6.285 3.879 180.00 1.15533 0.04
3 4 -4 o 46.116 29.270 0.00 1.15328 0.32
6 2 -4 o 2.756 1.908 180.00 1.15010 0.02
4 1 2 o 42.318 29.365 180.00 1.15004 0.10
1 4 -4 o 76.139 62.365 0.00 1.14618 0.41
1 3 4 o 197.477 163.366 180.00 1.14597 0.59
1 2 -6 o 108.634 90.093 0.00 1.14592 0.35
6 1 -6 o 0.380 0.343 180.00 1.14420 0.00
3 3 2 o 38.954 40.615 0.00 1.14119 0.12
6 2 -3 o 54.170 60.014 180.00 1.13978 0.34
4 4 -3 o 73.867 97.761 180.00 1.12880 0.54
6 2 -5 o 13.153 17.343 0.00 1.12845 0.08
4 4 -2 o 120.554 156.673 180.00 1.12737 0.84
0 0 6 o 38.622 47.923 180.00 1.13622 0.04
5 3 -5 o 18.390 22.843 0.00 1.12500 0.11
2 0 -7 o 5.045 6.385 0.00 1.13541 0.01
2 2 4 o 104.828 123.316 180.00 1.12269 0.23
5 2 0 o 13.975 18.607 180.00 1.13176 0.05
5 1 -7 o 78.748 105.359 0.00 1.13050 0.37
3 3 -6 o 10.317 11.165 180.00 1.11877 0.05
6 0 -1 o 105.296 110.420 180.00 1.11714 0.20
2 4 2 o 16.392 17.300 0.00 1.11746 0.07
3 2 3 o 74.390 78.030 180.00 1.11713 0.16
1 5 -1 o 17.440 18.099 180.00 1.11662 0.15
1 4 3 o 1.419 1.468 180.00 1.11641 0.01
0 5 1 o 13.762 14.041 0.00 1.11581 0.11
0 1 6 o 45.354 44.329 180.00 1.11396 0.10
2 1 -7 o 199.602 191.295 0.00 1.11319 0.66
1 5 0 o 8.072 7.608 0.00 1.11255 0.06
4 3 -6 o 46.664 39.626 180.00 1.10555 0.24
0 3 5 o 60.325 51.365 180.00 1.10477 0.18
5 3 -1 o 37.320 32.164 0.00 1.10324 0.17
6 2 -2 o 79.261 71.469 0.00 1.09994 0.38
4 4 -4 o 1.948 1.745 180.00 1.10039 0.01
1 2 5 o 35.339 31.754 180.00 1.10018 0.08
4 4 -1 o 9.387 8.828 180.00 1.09644 0.05
4 3 1 o 0.734 0.692 180.00 1.09625 0.00
6 1 -1 o 33.023 31.195 180.00 1.09596 0.12
4 2 -7 o 7.589 7.141 180.00 1.09634 0.03
2 3 -6 o 13.109 12.351 180.00 1.09620 0.05
1 5 -2 o 164.649 159.007 180.00 1.09162 1.23
3 4 1 o 49.099 47.471 180.00 1.09109 0.20
3 2 -7 o 66.252 64.083 0.00 1.09099 0.27
5 1 1 o 1.430 1.369 0.00 1.08760 0.00
0 4 4 o 55.261 53.100 180.00 1.08815 0.22
6 0 -7 o 375.402 352.098 0.00 1.08599 0.83
4 2 2 o 5.073 4.667 0.00 1.08472 0.01
2 5 -1 o 1.639 1.464 180.00 1.08255 0.01
1 5 1 o 93.489 83.016 180.00 1.08033 0.61
6 2 -6 o 18.293 16.315 180.00 1.07982 0.09
2 5 -2 o 58.877 58.600 180.00 1.07641 0.44
3 4 -5 o 82.168 82.502 0.00 1.07625 0.45
0 5 2 o 44.132 55.831 0.00 1.07350 0.28
2 4 -5 o 122.721 172.266 180.00 1.07263 0.60
5 2 -7 o 0.358 0.987 0.00 1.06828 0.00
6 1 -7 o 2.023 6.477 180.00 1.06650 0.01
2 5 0 o 1.710 3.081 180.00 1.06204 0.01
5 3 -6 o 5.391 7.174 180.00 1.06009 0.03
7 1 -4 o 9.991 10.382 0.00 1.05788 0.06
7 1 -5 o 5.510 5.246 0.00 1.05676 0.03
0 2 6 o 186.299 156.970 0.00 1.05429 0.41
2 2 -7 o 6.781 5.606 0.00 1.05364 0.02
4 4 -5 o 58.321 46.878 180.00 1.04832 0.32
6 3 -4 o 68.335 55.836 180.00 1.04693 0.40
2 5 -3 o 38.018 32.070 180.00 1.04492 0.25
2 0 5 o 6.313 5.369 180.00 1.04442 0.01
1 3 -6 o 18.835 16.174 0.00 1.04378 0.06
4 4 0 o 4.137 3.615 180.00 1.04264 0.02
1 5 -3 o 3.803 3.308 180.00 1.04293 0.02
1 1 -7 o 0.187 0.163 180.00 1.04254 0.00
4 0 -8 o 37.079 32.432 0.00 1.04253 0.07
6 2 -1 o 102.973 94.989 0.00 1.03899 0.36
6 3 -3 o 96.647 88.961 180.00 1.03914 0.52
1 4 -5 o 15.053 14.030 0.00 1.03838 0.06
7 1 -3 o 1.155 1.171 180.00 1.03434 0.01
5 3 0 o 9.478 9.963 180.00 1.03305 0.03
5 4 -3 o 44.835 48.373 180.00 1.03216 0.26
5 2 1 o 4.706 5.121 0.00 1.03186 0.01
3 5 -2 o 46.019 50.221 180.00 1.03174 0.30
7 1 -6 o 10.198 11.282 180.00 1.03120 0.05
3 1 4 o 7.698 8.501 180.00 1.03126 0.01
6 3 -5 o 11.395 12.822 180.00 1.03052 0.06
4 0 3 o 2.131 2.410 0.00 1.03034 0.00
6 0 0 o 37.652 43.779 180.00 1.02917 0.05
2 1 5 o 8.776 10.576 0.00 1.02705 0.01
1 5 2 o 80.984 97.923 180.00 1.02665 0.39
2 3 4 o 51.844 62.842 180.00 1.02613 0.11
5 4 -4 o 0.729 0.879 180.00 1.02473 0.00
4 1 -8 o 8.363 10.132 0.00 1.02525 0.03
3 5 -1 o 0.023 0.026 0.00 1.02219 0.00
3 3 3 o 7.879 8.820 180.00 1.02188 0.02
2 5 1 o 0.112 0.111 180.00 1.01909 0.00
2 4 3 o 6.777 6.692 0.00 1.01893 0.02
3 5 -3 o 4.881 4.658 180.00 1.01807 0.03
5 4 -2 o 1.488 1.342 0.00 1.01637 0.01
5 1 -8 o 11.031 9.924 0.00 1.01627 0.04
4 1 3 o 150.036 127.700 180.00 1.01365 0.25
6 2 -7 o 38.702 33.006 180.00 1.01379 0.16
6 1 0 o 4.513 3.802 180.00 1.01254 0.01
0 5 3 o 4.533 3.821 0.00 1.01257 0.02
1 4 4 o 1.393 1.193 180.00 1.00998 0.00
6 3 -2 o 50.671 44.814 180.00 1.00868 0.22
1 3 5 o 0.789 0.694 0.00 1.00886 0.00
3 4 2 o 30.863 29.278 180.00 1.00670 0.09
7 2 -4 o 30.019 28.835 180.00 1.00637 0.15
3 1 -8 o 6.228 5.929 180.00 1.00661 0.02
7 2 -5 o 2.965 2.951 180.00 1.00541 0.02
4 3 -7 o 8.978 8.782 180.00 1.00590 0.04
1 1 6 o 0.624 0.667 180.00 1.00178 0.00
3 3 -7 o 2.124 2.270 180.00 1.00176 0.01
4 3 2 o 0.756 0.779 180.00 0.99690 0.00
6 0 -8 o 178.841 184.254 0.00 0.99687 0.32
5 4 -5 o 30.908 31.753 0.00 0.99553 0.16
2 5 -4 o 13.038 13.417 0.00 0.99420 0.07
6 3 -6 o 19.701 20.332 180.00 0.99309 0.09
1 2 -7 o 47.920 49.448 0.00 0.99314 0.11
3 5 0 o 0.280 0.289 180.00 0.99126 0.00
7 1 -2 o 0.137 0.141 0.00 0.99069 0.00
3 4 -6 o 5.625 5.804 180.00 0.99121 0.02
7 2 -3 o 22.952 22.492 180.00 0.98604 0.10
7 1 -7 o 16.657 16.337 0.00 0.98612 0.07
5 3 -7 o 20.217 19.597 180.00 0.98409 0.08
3 5 -4 o 0.629 0.610 0.00 0.98378 0.00
7 2 -6 o 1.606 1.557 180.00 0.98333 0.01
3 2 4 o 46.603 45.202 180.00 0.98338 0.08
4 4 -6 o 33.635 32.722 180.00 0.98198 0.15
6 1 -8 o 9.877 9.620 180.00 0.98173 0.04
0 4 5 o 51.574 50.313 180.00 0.98143 0.14
5 4 -1 o 7.378 7.237 0.00 0.98036 0.03
2 2 5 o 13.488 13.299 0.00 0.97972 0.02
1 5 -4 o 2.613 2.583 0.00 0.97936 0.01
2 0 -8 o 1.812 1.797 180.00 0.97886 0.00
4 2 -8 o 30.399 30.248 180.00 0.97816 0.11
5 1 2 o 2.553 2.548 0.00 0.97734 0.00
