#------------------------------------------------------------------------------
#$Date: 2019-12-26 20:22:57 +0200 (Thu, 26 Dec 2019) $
#$Revision: 246052 $
#$URL: file:///home/coder/svn-repositories/cod/cif/2/30/06/2300659.cif $
#------------------------------------------------------------------------------
#
# This file is available in the Crystallography Open Database (COD),
# http://www.crystallography.net/. The original data for this entry
# were provided by IUCr Journals, http://journals.iucr.org/.
#
# The file may be used within the scientific community so long as
# proper attribution is given to the journal article from which the
# data were obtained.
#
data_2300659
loop_
_publ_author_name
'Likhacheva, Anna Y.'
'Rashchenko, Sergey V.'
'Litasov, Konstantin D.'
_publ_section_title
;
 High-pressure structural properties of naphthalene up to 6&#x2005;GPa
;
_journal_coeditor_code           kk5159
_journal_issue                   3
_journal_name_full               'Journal of Applied Crystallography'
_journal_page_first              984
_journal_paper_doi               10.1107/S1600576714005937
_journal_volume                  47
_journal_year                    2014
_chemical_formula_sum            'C5 H4'
_chemical_formula_weight         64.09
_space_group_IT_number           14
_space_group_name_Hall           '-P 2yab'
_space_group_name_H-M_alt        'P 1 21/a 1'
_symmetry_cell_setting           monoclinic
_symmetry_space_group_name_H-M   'P 1 21/a 1'
_audit_creation_date             2013-04-20T17:44
_audit_creation_method           'from EXP file using GSAS2CIF'
_audit_update_record
' 2013-04-20T17:44  Initial CIF as created by GSAS2CIF'
_cell_angle_alpha                90.0
_cell_angle_beta                 124.076(6)
_cell_angle_gamma                90.0
_cell_formula_units_Z            4
_cell_length_a                   7.8713(7)
_cell_length_b                   5.7880(4)
_cell_length_c                   8.4908(15)
_cell_volume                     320.41(7)
_computing_structure_refinement  GSAS
_diffrn_radiation_polarisn_ratio 0.95
_diffrn_radiation_probe          x-ray
_diffrn_radiation_wavelength     0.3685
_exptl_absorpt_correction_T_max  1.00000
_exptl_absorpt_correction_T_min  1.00000
_exptl_absorpt_process_details
;   GSAS Absorption/surface roughness correction: function number 0
 No correction is applied.
;
_pd_calc_method                  'Rietveld Refinement'
_pd_instr_location               ' ?'
_pd_meas_2theta_range_inc        0.0141
_pd_meas_2theta_range_max        32.0562
_pd_meas_2theta_range_min        0.021
_pd_meas_number_of_points        2273
_pd_phase_name                   naphthalene
_pd_prep_pressure                1.31
_pd_proc_2theta_range_inc        0.0141
_pd_proc_2theta_range_max        32.0562
_pd_proc_2theta_range_min        0.021
_pd_proc_info_datetime           2013-04-20T17:44:53
_pd_proc_info_excluded_regions   ' ?'
_pd_proc_ls_background_function
;   GSAS Background function number 1 with 35 terms.
 Shifted Chebyshev function of 1st kind
      1:    4861.13     2:   -956.316     3:    130.255     4:   -468.002    
      5:    340.074     6:   -84.2817     7:   -24.8272     8:    27.3708    
      9:   -26.4061    10:    32.0456    11:   -32.7029    12:    22.9616    
     13:   -7.74345    14:    14.3799    15:    3.69083    16:   -1.45665    
     17:   -9.59381    18:    1.13848    19:   -3.20752    20:  -0.346694    
     21:   0.748276    22:   0.806196    23:    10.3709    24:   -11.7678    
     25:    3.11716    26:   -6.03821    27:   0.756866    28:   0.674693    
     29:    2.04528    30:    1.55141    31:    6.57656    32:   -4.13358    
     33:   0.222988    34:  -0.545508    35:    6.97294    
;
_pd_proc_ls_peak_cutoff          0.01000
_pd_proc_ls_pref_orient_corr
;   March-Dollase
 AXIS  1 Ratio=     1.372 Frac     0.617  h= 0.000  k= 0.000  l= 1.000
 AXIS  2 Ratio=     1.217 Frac     0.383  h= 1.000  k= 0.000  l= 1.000
 Prefered orientation correction range: Min=   0.47688, Max=   1.50536
;
_pd_proc_ls_profile_function
;
 CW Profile function number 2 with  18 terms
 Profile coefficients for Simpson's rule integration of pseudovoigt function
 C.J. Howard (1982). J. Appl. Cryst.,15,615-620.
 P. Thompson, D.E. Cox & J.B. Hastings (1987). J. Appl. Cryst.,20,79-83.
 #1(GU)   = 1554.690 #2(GV)   =   -0.748 #3(GW)   =    3.023
 #4(LX)   =    0.836 #5(LY)   =   16.670 #6(trns) =    0.000
 #7(asym) =   0.0739 #8(shft) =   0.0000 #9(GP)   =    0.000
 #10(stec)=     0.00 #11(ptec)=     0.00 #12(sfec)=     0.00
 #13(L11) =    0.000 #14(L22) =    0.000 #15(L33) =    0.000
 #16(L12) =    0.000 #17(L13) =    0.000 #18(L23) =    0.000
 Peak tails are ignored  where the intensity is below 0.0100 times the peak
   Aniso. broadening axis   0.0   0.0   1.0
;
_pd_proc_ls_prof_R_factor        0.0051
_pd_proc_ls_prof_wR_expected     0.0143
_pd_proc_ls_prof_wR_factor       0.0078
_pd_proc_number_of_points        2273
_pd_spec_mounting                ' ?'
_refine_ls_goodness_of_fit_all   0.55
_refine_ls_matrix_type           full
_refine_ls_number_parameters     31
_refine_ls_number_restraints     10
_refine_ls_R_Fsqd_factor         0.16297
_refine_ls_shift/su_max          3.75
_refine_ls_shift/su_mean         0.82
_reflns_d_resolution_high        1.068
_reflns_d_resolution_low         7.033
_reflns_limit_h_max              7
_reflns_limit_h_min              0
_reflns_limit_k_max              5
_reflns_limit_k_min              0
_reflns_limit_l_max              6
_reflns_limit_l_min              -8
_reflns_number_total             275
_cod_data_source_file            kk5159sup4.cif
_cod_data_source_block           REF1_publ_131
_cod_depositor_comments
;
The following automatic conversions were performed:

data item '_geom_angle_publ_flag' value 'N' was changed to 'n' in
accordance with the
/home/saulius/struct/COD-crude-data/automatic-downloads/DataCite-retrospective/IUCr/depositions/lib/dictionaries/cif_core.dic
dictionary named 'cif_core.dic' version 2.4.2 last updated on
2011-04-26 (15 times).

data item '_geom_bond_publ_flag' value 'N' was changed to 'n' in
accordance with the
/home/saulius/struct/COD-crude-data/automatic-downloads/DataCite-retrospective/IUCr/depositions/lib/dictionaries/cif_core.dic
dictionary named 'cif_core.dic' version 2.4.2 last updated on
2011-04-26 (35 times).

Automatic conversion script
Id: cif_fix_values 7556 2019-12-06 15:28:31Z antanas 
;
_cod_original_cell_volume        320.42(6)
_cod_database_code               2300659
_gsas_exptl_extinct_corr_t_min   1.00000
_gsas_exptl_extinct_corr_t_max   1.00000
loop_
_symmetry_equiv_pos_site_id
_symmetry_equiv_pos_as_xyz
1 +x,+y,+z
2 -x+1/2,+y+1/2,-z
-1 -x,-y,-z
-2 +x+1/2,-y+1/2,+z
loop_
_atom_site_type_symbol
_atom_site_label
_atom_site_fract_x
_atom_site_fract_y
_atom_site_fract_z
_atom_site_occupancy
_atom_site_thermal_displace_type
_atom_site_U_iso_or_equiv
_atom_site_symmetry_multiplicity
C C1 0.0903(7) 0.0225(7) 0.3359(5) 1.0 Uiso 0.04 4
C C2 0.1215(8) 0.1690(7) 0.2262(5) 1.0 Uiso 0.03 4
C C3 0.0503(7) 0.1060(4) 0.0363(4) 1.0 Uiso 0.026 4
C C4 0.0800(8) 0.2573(7) -0.0789(5) 1.0 Uiso 0.026 4
C C5 -0.0119(8) -0.1900(7) 0.2600(5) 1.0 Uiso 0.03 4
H H1 0.1402(29) 0.0696(32) 0.4591(8) 1.0 Uiso 0.05 4
H H2 0.1862(23) 0.3097(11) 0.2778(35) 1.0 Uiso 0.037 4
H H4 0.1400(29) 0.3976(11) -0.0203(25) 1.0 Uiso 0.03 4
H H5 -0.0317(13) -0.2905(16) 0.3339(9) 1.0 Uiso 0.037 4
loop_
_atom_type_symbol
_atom_type_number_in_cell
_atom_type_scat_dispersion_real
_atom_type_scat_dispersion_imag
_atom_type_scat_Cromer_Mann_a1
_atom_type_scat_Cromer_Mann_a2
_atom_type_scat_Cromer_Mann_a3
_atom_type_scat_Cromer_Mann_a4
_atom_type_scat_Cromer_Mann_b1
_atom_type_scat_Cromer_Mann_b2
_atom_type_scat_Cromer_Mann_b3
_atom_type_scat_Cromer_Mann_b4
_atom_type_scat_Cromer_Mann_c
_atom_type_scat_source
C 20.0 0.000 0.000 2.31000 20.8439 1.02000 10.2075 1.58860 0.56870 0.86500
51.6512 0.21560 International_Tables_Vol_C
H 16.0 0.000 0.000 0.49300 10.5109 0.32291 26.1257 0.14019 3.14236 0.04081
57.7997 0.00304 International_Tables_Vol_C
loop_
_geom_angle_atom_site_label_1
_geom_angle_atom_site_label_2
_geom_angle_atom_site_label_3
_geom_angle
_geom_angle_site_symmetry_1
_geom_angle_site_symmetry_3
_geom_angle_publ_flag
C2 C1 C5 119.9(4) 1_555 1_555 n
C2 C1 H1 117.2(14) 1_555 1_555 n
C5 C1 H1 122.8(15) 1_555 1_555 n
C1 C2 C3 120.0(4) 1_555 1_555 n
C1 C2 H2 118.6(20) 1_555 1_555 n
C3 C2 H2 121.4(20) 1_555 1_555 n
C2 C3 C3 119.2(4) 1_555 -1_555 n
C2 C3 C4 120.47(26) 1_555 1_555 n
C3 C3 C4 120.3(4) -1_555 1_555 n
C3 C4 C5 118.9(4) 1_555 -1_555 n
C3 C4 H4 113.5(16) 1_555 1_555 n
C5 C4 H4 127.5(16) -1_555 1_555 n
C1 C5 C4 121.6(4) 1_555 -1_555 n
C1 C5 H5 120.3(6) 1_555 1_555 n
C4 C5 H5 118.1(7) -1_555 1_555 n
loop_
_geom_bond_atom_site_label_1
_geom_bond_atom_site_label_2
_geom_bond_distance
_geom_bond_site_symmetry_2
_geom_bond_publ_flag
C1 C2 1.379(4) 1_555 n
C1 C5 1.412(4) 1_555 n
C1 H1 0.929(6) 1_555 n
C1 H2 1.999(19) 1_555 n
C1 H5 2.046(8) 1_555 n
C2 C1 1.379(4) 1_555 n
C2 C3 1.426(4) 1_555 n
C2 H1 1.985(15) 1_555 n
C2 H2 0.930(6) 1_555 n
C3 C2 1.426(4) 1_555 n
C3 C3 1.403(4) -1_555 n
C3 C4 1.426(4) 1_555 n
C3 H2 2.069(20) 1_555 n
C3 H4 1.989(17) 1_555 n
C4 C3 1.426(4) 1_555 n
C4 C5 1.371(4) -1_555 n
C4 H4 0.931(5) 1_555 n
C4 H5 1.987(8) -1_555 n
C5 C1 1.412(4) 1_555 n
C5 C4 1.371(4) -1_555 n
C5 H1 2.069(14) 1_555 n
C5 H4 2.074(15) -1_555 n
C5 H5 0.930(6) 1_555 n
H1 C1 0.929(6) 1_555 n
H1 C2 1.985(15) 1_555 n
H1 C5 2.069(14) 1_555 n
H2 C1 1.999(19) 1_555 n
H2 C2 0.930(6) 1_555 n
H2 C3 2.069(20) 1_555 n
H4 C3 1.989(17) 1_555 n
H4 C4 0.931(5) 1_555 n
H4 C5 2.074(15) -1_555 n
H5 C1 2.046(8) 1_555 n
H5 C4 1.987(8) -1_555 n
H5 C5 0.930(6) 1_555 n
loop_
_pd_meas_counts_total
_pd_proc_ls_weight
_pd_proc_intensity_bkg_calc
_pd_calc_intensity_total
0.0 . . .
0.0 . . .
0.0 . . .
0.0 . . .
0.0 . . .
0.0 . . .
0.0 . . .
0.0 . . .
0.0 . . .
0.0 . . .
0.0 . . .
0.0 . . .
0.0 . . .
0.0 . . .
0.0 . . .
0.0 . . .
0.0 . . .
0.0 . . .
0.0 . . .
0.0 . . .
0.0 . . .
0.0 . . .
0.0 . . .
0.0 . . .
0.0 . . .
0.0 . . .
0.0 . . .
0.0 . . .
0.0 . . .
0.0 . . .
0.0 . . .
0.0 . . .
0.0 . . .
0.0 . . .
0.0 . . .
0.0 . . .
0.0 . . .
0.0 . . .
0.0 . . .
0.0 . . .
0.0 . . .
0.0 . . .
0.0 . . .
0.0 . . .
0.0 . . .
0.0 . . .
0.0 . . .
0.0 . . .
0.0 . . .
0.0 . . .
0.0 . . .
0.0 . . .
0.0 . . .
0.0 . . .
0.0 . . .
0.0 . . .
1480.0 . . .
1480.0 . . .
1530.0 . . .
1460.0 . . .
1520.0 . . .
1520.0 . . .
1460.0 . . .
1430.0 . . .
1440.0 . . .
1450.0 . . .
1420.0 . . .
1410.0 . . .
1410.0 . . .
1390.0 . . .
1390.0 . . .
1380.0 . . .
1380.0 . . .
1370.0 . . .
1370.0 . . .
1380.0 . . .
1370.0 . . .
1350.0 . . .
1350.0 . . .
1330.0 . . .
1330.0 . . .
1340.0 . . .
1340.0 . . .
1340.0 . . .
1330.0 . . .
1330.0 . . .
1310.0 . . .
1290.0 . . .
1280.0 . . .
1290.0 . . .
1300.0 . . .
1300.0 . . .
1310.0 . . .
1320.0 . . .
1300.0 . . .
1280.0 . . .
1280.0 . . .
1300.0 . . .
1300.0 . . .
1320.0 . . .
1330.0 . . .
1350.0 . . .
1360.0 . . .
1370.0 . . .
1410.0 . . .
1450.0 . . .
1500.0 . . .
1560.0 . . .
1610.0 . . .
1680.0 . . .
1720.0 . . .
1810.0 . . .
1910.0 . . .
1980.0 . . .
2050.0 . . .
2150.0 . . .
2260.0 . . .
2360.0 . . .
2420.0 . . .
2450.0 . . .
2500.0 . . .
2580.0 . . .
2670.0 . . .
2760.0 . . .
2840.0 . . .
2920.0 . . .
3000.0 . . .
3130.0 . . .
3240.0 . . .
3310.0 . . .
3390.0 . . .
3500.0 . . .
3620.0 . . .
3710.0 . . .
3760.0 . . .
3820.0 . . .
3890.0 . . .
3960.0 . . .
4050.0 . . .
4170.0 . . .
4300.0 . . .
4410.0 . . .
4480.0 . . .
4540.0 . . .
4590.0 . . .
4640.0 . . .
4710.0 . . .
4810.0 . . .
4940.0 . . .
5040.0 . . .
5110.0 . . .
5170.0 . . .
5230.0 . . .
5310.0 . . .
5410.0 . . .
5490.0 . . .
5560.0 . . .
5610.0 . . .
5710.0 . . .
5790.0 . . .
5890.0 . . .
6010.0 . . .
6090.0 . . .
6110.0 . . .
6160.0 . . .
6220.0 . . .
6250.0 . . .
6260.0 . . .
6270.0 . . .
6300.0 . . .
6350.0 . . .
6430.0 . . .
6430.0 . . .
6390.0 . . .
6470.0 . . .
6520.0 . . .
6570.0 . . .
6640.0 . . .
6670.0 . . .
6690.0 . . .
6700.0 . . .
6720.0 . . .
6680.0 . . .
6630.0 . . .
6660.0 . . .
6690.0 . . .
6690.0 . . .
6710.0 . . .
6700.0 . . .
6670.0 . . .
6640.0 . . .
6640.0 . . .
6690.0 . . .
6710.0 . . .
6700.0 . . .
6700.0 . . .
6650.0 0.0001504 6693.43750 6693.43750
6660.0 0.0001502 6654.15527 6654.15527
6670.0 0.0001499 6632.23828 6632.23828
6660.0 0.0001502 6622.46582 6622.46582
6650.0 0.0001504 6620.75439 6632.54639
6650.0 0.0001504 6623.97461 6638.13428
6660.0 0.0001502 6629.75781 6647.06592
6680.0 0.0001497 6636.35742 6657.98193
6670.0 0.0001499 6642.52588 6670.40332
6680.0 0.0001497 6647.41064 6685.91016
6680.0 0.0001497 6650.45752 6714.31055
6730.0 0.0001486 6651.35693 6792.85938
6920.0 0.0001445 6649.97021 7009.14990
7410.0 0.0001350 6646.29834 7455.93506
8010.0 0.0001248 6640.42529 8052.74316
8320.0 0.0001202 6632.50146 8410.93750
8150.0 0.0001227 6622.70996 8163.89307
7650.0 0.0001307 6611.26318 7555.56934
7150.0 0.0001399 6598.37354 7035.87012
6810.0 0.0001468 6584.24756 6756.26416
6670.0 0.0001499 6569.08350 6642.42920
6630.0 0.0001508 6553.06348 6594.91992
6600.0 0.0001515 6536.34717 6565.98242
6560.0 0.0001524 6519.08252 6541.87256
6520.0 0.0001534 6501.38574 6519.52832
6500.0 0.0001538 6483.36133 6498.13965
6450.0 0.0001550 6465.09521 6465.09521
6460.0 0.0001548 6446.64844 6446.64844
6440.0 0.0001553 6428.08154 6428.08154
6400.0 0.0001562 6409.42529 6409.42529
6410.0 0.0001560 6390.70898 6390.70898
6390.0 0.0001565 6371.95752 6371.95752
6330.0 0.0001580 6353.17920 6353.17920
6320.0 0.0001582 6334.38086 6334.38086
6280.0 0.0001592 6315.56592 6315.56592
6260.0 0.0001597 6296.73633 6296.73633
6230.0 0.0001605 6277.89063 6277.89063
6240.0 0.0001603 6259.03027 6259.03027
6250.0 0.0001600 6240.15430 6240.15430
6260.0 0.0001597 6221.26563 6221.26563
6200.0 0.0001613 6202.36377 6202.36377
6170.0 0.0001621 6183.45605 6183.45605
6150.0 0.0001626 6164.54785 6164.54785
6140.0 0.0001629 6145.64648 6145.64648
6120.0 0.0001634 6126.76904 6126.76904
6070.0 0.0001647 6107.92090 6107.92090
6060.0 0.0001650 6089.12207 6089.12207
6050.0 0.0001653 6070.38232 6070.38232
6060.0 0.0001650 6051.72314 6051.72314
6100.0 0.0001639 6033.16162 6033.16162
6070.0 0.0001647 6014.71289 6014.71289
6020.0 0.0001661 5996.39844 5996.39844
5990.0 0.0001669 5978.23389 5978.23389
5960.0 0.0001678 5960.24023 5960.24023
5910.0 0.0001692 5942.42773 5942.42773
5890.0 0.0001698 5924.81787 5924.81787
5860.0 0.0001706 5907.42090 5907.42090
5850.0 0.0001709 5890.25098 5890.25098
5860.0 0.0001706 5873.31982 5873.31982
5870.0 0.0001704 5856.63330 5856.63330
5890.0 0.0001698 5840.20215 5840.20215
5860.0 0.0001706 5824.02832 5824.02832
5820.0 0.0001718 5808.11816 5808.11816
5810.0 0.0001721 5792.46826 5792.46826
5800.0 0.0001724 5777.08203 5777.08203
5770.0 0.0001733 5761.95313 5761.95313
5740.0 0.0001742 5747.07764 5747.07764
5750.0 0.0001739 5732.45020 5732.45020
5760.0 0.0001736 5718.06006 5718.06006
5740.0 0.0001742 5703.89893 5703.89893
5670.0 0.0001764 5689.95508 5689.95508
5650.0 0.0001770 5676.21582 5676.21582
5630.0 0.0001776 5662.66846 5662.66846
5640.0 0.0001773 5649.29834 5649.29834
5640.0 0.0001773 5636.08984 5636.08984
5660.0 0.0001767 5623.03027 5623.03027
5690.0 0.0001757 5610.09863 5610.09863
5640.0 0.0001773 5597.28613 5597.28613
5600.0 0.0001786 5584.57080 5584.57080
5590.0 0.0001789 5571.94238 5571.94238
5580.0 0.0001792 5559.38428 5559.38428
5570.0 0.0001795 5546.88135 5546.88135
5540.0 0.0001805 5534.41846 5534.41846
5490.0 0.0001821 5521.98633 5521.98633
5470.0 0.0001828 5509.56982 5509.56982
5440.0 0.0001838 5497.15918 5497.15918
5450.0 0.0001835 5484.74707 5484.74707
5450.0 0.0001835 5472.32031 5472.32031
5440.0 0.0001838 5459.87500 5459.87500
5410.0 0.0001848 5447.40332 5447.40332
5370.0 0.0001862 5434.90186 5434.90186
5350.0 0.0001869 5422.36523 5422.36523
5350.0 0.0001869 5409.79346 5409.79346
5380.0 0.0001859 5397.18555 5397.18555
5360.0 0.0001866 5384.54004 5384.54004
5350.0 0.0001869 5371.85791 5371.85791
5350.0 0.0001869 5359.14697 5359.14697
5320.0 0.0001880 5346.40674 5346.40674
5320.0 0.0001880 5333.64258 5333.64258
5330.0 0.0001876 5320.86328 5320.86328
5330.0 0.0001876 5308.07422 5308.07422
5330.0 0.0001876 5295.28418 5295.28418
5310.0 0.0001883 5282.50146 5282.50146
5290.0 0.0001890 5269.73682 5269.73682
5270.0 0.0001898 5256.99951 5256.99951
5250.0 0.0001905 5244.29834 5244.29834
5220.0 0.0001916 5231.64697 5231.64697
5250.0 0.0001905 5219.05615 5219.05615
5250.0 0.0001905 5206.54199 5206.54199
5240.0 0.0001908 5194.10791 5194.10791
5190.0 0.0001927 5181.77197 5181.77197
5170.0 0.0001934 5169.54443 5169.54443
5160.0 0.0001938 5157.43945 5157.43945
5140.0 0.0001946 5145.46436 5145.46436
5130.0 0.0001949 5133.63477 5133.63477
5140.0 0.0001946 5121.96045 5126.41260
5120.0 0.0001953 5110.45166 5115.39404
5120.0 0.0001953 5099.11816 5104.63623
5120.0 0.0001953 5087.97314 5094.37158
5110.0 0.0001957 5077.02148 5084.25684
5140.0 0.0001946 5066.27588 5074.52246
5130.0 0.0001949 5055.74170 5065.22559
5110.0 0.0001957 5045.43066 5056.44971
5100.0 0.0001961 5035.34521 5048.29932
5040.0 0.0001984 5025.49023 5040.92969
5030.0 0.0001988 5015.87646 5034.58496
5040.0 0.0001984 5006.50439 5029.68945
5020.0 0.0001992 4997.37646 5027.35400
5000.0 0.0002000 4988.50049 5031.46045
5000.0 0.0002000 4979.87402 5071.68457
5160.0 0.0001938 4971.50439 5149.90967
5470.0 0.0001828 4963.38672 5337.21533
5880.0 0.0001701 4955.52344 5673.69971
6270.0 0.0001595 4947.91260 6101.81641
6370.0 0.0001570 4940.55420 6415.55518
6170.0 0.0001621 4933.44775 6378.80615
5820.0 0.0001718 4926.58740 6031.96240
5480.0 0.0001825 4919.97070 5625.39502
5250.0 0.0001905 4913.59473 5322.63867
5090.0 0.0001965 4907.45410 5152.42236
5040.0 0.0001984 4901.54492 5077.35352
5040.0 0.0001984 4895.86182 5058.35156
5080.0 0.0001969 4890.39648 5085.90137
5160.0 0.0001938 4885.14795 5199.94629
5390.0 0.0001855 4880.10645 5520.23242
6060.0 0.0001650 4875.26465 6239.09375
7430.0 0.0001346 4870.61572 7472.76025
9140.0 0.0001094 4866.15186 8984.56934
10200.0 0.0000980 4861.86816 10037.00488
9880.0 0.0001012 4857.75537 9829.56250
8460.0 0.0001182 4853.80664 8533.15137
6980.0 0.0001433 4850.01270 7034.78174
5940.0 0.0001684 4846.36426 5929.65869
5380.0 0.0001859 4842.85840 5334.91406
5140.0 0.0001946 4839.48340 5078.50537
5020.0 0.0001992 4836.23389 4978.41211
4970.0 0.0002012 4833.09912 4934.71777
4950.0 0.0002020 4830.07178 4909.49170
4910.0 0.0002037 4827.14551 4891.59033
4880.0 0.0002049 4824.31689 4877.71582
4890.0 0.0002045 4821.57129 4866.52002
4890.0 0.0002045 4818.90820 4857.24658
4860.0 0.0002058 4816.31641 4849.39063
4820.0 0.0002075 4813.79297 4842.60938
4820.0 0.0002075 4811.32764 4836.65332
4790.0 0.0002088 4808.92139 4831.35059
4780.0 0.0002092 4806.56201 4815.35254
4800.0 0.0002083 4804.24512 4813.99414
4800.0 0.0002083 4801.96680 4812.83887
4800.0 0.0002083 4799.72266 4811.92188
4810.0 0.0002079 4797.50635 4811.28906
4800.0 0.0002083 4795.31494 4811.00781
4800.0 0.0002083 4793.14551 4811.16992
4830.0 0.0002070 4790.99414 4811.90430
4820.0 0.0002075 4788.85693 4813.39355
4810.0 0.0002079 4786.72900 4815.90869
4790.0 0.0002088 4784.60840 4819.89355
4800.0 0.0002083 4782.49512 4826.26123
4830.0 0.0002070 4780.38379 4837.64893
4880.0 0.0002049 4778.27588 4862.82715
4990.0 0.0002004 4776.16553 4927.44482
5210.0 0.0001919 4774.05518 5088.36279
5650.0 0.0001770 4771.93994 5428.55420
6270.0 0.0001595 4769.82031 5996.41016
6890.0 0.0001451 4767.69727 6698.55469
7230.0 0.0001383 4765.56689 7238.15625
7080.0 0.0001412 4763.43066 7252.60059
6580.0 0.0001520 4761.29053 6727.93262
5980.0 0.0001672 4759.14307 6020.49658
5510.0 0.0001815 4756.98682 5437.15137
5160.0 0.0001938 4754.82568 5081.29248
4950.0 0.0002020 4752.66113 4909.07715
4860.0 0.0002058 4750.49072 4837.05762
4810.0 0.0002079 4748.31543 4806.47949
4750.0 0.0002105 4746.13721 4790.42139
4730.0 0.0002114 4743.95410 4779.59863
4700.0 0.0002128 4741.76855 4771.21777
4700.0 0.0002128 4739.58252 4764.32715
4710.0 0.0002123 4737.39600 4758.47021
4720.0 0.0002119 4735.21191 4755.17285
4710.0 0.0002123 4733.02979 4750.83008
4700.0 0.0002128 4730.84961 4746.94971
4690.0 0.0002132 4728.67529 4731.17432
4700.0 0.0002128 4726.50488 4729.32520
4710.0 0.0002123 4724.34229 4727.54980
4730.0 0.0002114 4722.18848 4725.86816
4730.0 0.0002114 4720.04492 4724.30713
4730.0 0.0002114 4717.90869 4722.90088
4730.0 0.0002114 4715.78613 4721.71191
4690.0 0.0002132 4713.67871 4720.83350
4680.0 0.0002137 4711.58398 4720.87305
4710.0 0.0002123 4709.50391 4721.69678
4740.0 0.0002110 4707.44287 4725.60938
4750.0 0.0002105 4705.39795 4737.78809
4760.0 0.0002101 4703.37451 4768.72168
4790.0 0.0002088 4701.37256 4832.45605
4890.0 0.0002045 4699.39063 4936.04590
5010.0 0.0001996 4697.43164 5062.84082
5150.0 0.0001942 4695.49902 5163.37451
5190.0 0.0001927 4693.59082 5175.31836
5130.0 0.0001949 4691.70947 5088.53223
5020.0 0.0001992 4689.85645 4960.06934
4900.0 0.0002041 4688.02979 4845.73926
4790.0 0.0002088 4686.23389 4772.06445
4730.0 0.0002114 4684.47119 4738.59033
4710.0 0.0002123 4682.73730 4734.08252
4740.0 0.0002110 4681.03857 4746.99170
4770.0 0.0002096 4679.37305 4766.12305
4790.0 0.0002088 4677.74316 4778.43848
4800.0 0.0002083 4676.14795 4772.96143
4800.0 0.0002083 4674.58838 4751.50049
4750.0 0.0002105 4673.06934 4725.49561
4710.0 0.0002123 4671.58936 4704.17334
4690.0 0.0002132 4670.14502 4691.12061
4690.0 0.0002132 4668.74561 4686.33643
4680.0 0.0002137 4667.38330 4689.82666
4670.0 0.0002141 4666.06592 4701.28223
4670.0 0.0002141 4664.79102 4727.71826
4730.0 0.0002114 4663.55762 4764.25439
4800.0 0.0002083 4662.37158 4799.92676
4840.0 0.0002066 4661.23047 4816.36523
4840.0 0.0002066 4660.13477 4801.50781
4830.0 0.0002070 4659.08447 4769.06934
4800.0 0.0002083 4658.08057 4729.56885
4730.0 0.0002114 4657.12891 4699.11035
4670.0 0.0002141 4656.22168 4691.26953
4660.0 0.0002146 4655.36768 4682.86377
4670.0 0.0002141 4654.56201 4680.38281
4680.0 0.0002137 4653.80615 4680.58594
4680.0 0.0002137 4653.10059 4682.21045
4690.0 0.0002132 4652.44922 4684.90283
4690.0 0.0002132 4651.84814 4688.71143
4700.0 0.0002128 4651.29736 4694.33203
4710.0 0.0002123 4650.80176 4701.69189
4740.0 0.0002110 4650.35645 4712.89453
4760.0 0.0002101 4649.96338 4732.71729
4830.0 0.0002070 4649.62646 4772.97412
4940.0 0.0002024 4649.34229 4857.67090
5110.0 0.0001957 4649.10986 5023.84180
5320.0 0.0001880 4648.93262 5315.62939
5610.0 0.0001783 4648.80957 5758.69336
6010.0 0.0001664 4648.73828 6334.07715
6590.0 0.0001517 4648.71826 6951.34717
7300.0 0.0001370 4648.75537 7479.62256
7860.0 0.0001272 4648.84180 7785.35400
7910.0 0.0001264 4648.98193 7700.90039
7370.0 0.0001357 4649.17334 7185.00146
6570.0 0.0001522 4649.41602 6459.82520
5820.0 0.0001718 4649.70898 5789.79102
5330.0 0.0001876 4650.05322 5314.77441
5080.0 0.0001969 4650.44629 5044.35107
4960.0 0.0002016 4650.88867 4913.10986
4880.0 0.0002049 4651.37988 4846.27100
4830.0 0.0002070 4651.91455 4800.02734
4780.0 0.0002092 4652.49854 4761.77148
4730.0 0.0002114 4653.12451 4731.64990
4720.0 0.0002119 4653.79834 4710.66162
4690.0 0.0002132 4654.51172 4697.57715
4690.0 0.0002132 4655.26709 4689.85547
4680.0 0.0002137 4656.06250 4679.36816
4680.0 0.0002137 4656.89795 4676.94385
4670.0 0.0002141 4657.76758 4675.34473
4680.0 0.0002137 4658.67725 4660.30420
4690.0 0.0002132 4659.61768 4661.10547
4670.0 0.0002141 4660.59229 4662.02002
4660.0 0.0002146 4661.59912 4663.07764
4650.0 0.0002151 4662.63574 4664.38721
4640.0 0.0002155 4663.69824 4666.18604
4640.0 0.0002155 4664.78857 4668.86035
4660.0 0.0002146 4665.90186 4672.29443
4660.0 0.0002146 4667.04102 4677.52441
4650.0 0.0002151 4668.19971 4683.25830
4650.0 0.0002151 4669.37646 4687.89844
4670.0 0.0002141 4670.57178 4689.66064
4680.0 0.0002137 4671.78174 4688.30566
4670.0 0.0002141 4673.00537 4685.55908
4670.0 0.0002141 4674.24170 4683.43359
4680.0 0.0002137 4675.49072 4683.18066
4720.0 0.0002119 4676.74365 4685.04541
4740.0 0.0002110 4678.00635 4688.36963
4700.0 0.0002128 4679.27490 4691.82520
4690.0 0.0002132 4680.54736 4695.03467
4700.0 0.0002128 4681.81787 4695.05273
4720.0 0.0002119 4683.09180 4693.64209
4720.0 0.0002119 4684.36377 4692.02539
4710.0 0.0002123 4685.63184 4691.03760
4700.0 0.0002128 4686.89795 4690.95654
4670.0 0.0002141 4688.15674 4691.65088
4660.0 0.0002146 4689.40820 4692.86670
4670.0 0.0002141 4690.65381 4694.40869
4680.0 0.0002137 4691.88867 4702.17041
4690.0 0.0002132 4693.11133 4704.96533
4690.0 0.0002132 4694.32568 4708.61719
4690.0 0.0002132 4695.52734 4714.22705
4720.0 0.0002119 4696.71436 4724.16650
4760.0 0.0002101 4697.88818 4742.41797
4840.0 0.0002066 4699.04736 4773.61377
4890.0 0.0002045 4700.19043 4819.95313
4900.0 0.0002041 4701.31885 4876.90527
4920.0 0.0002033 4702.43164 4930.51416
4910.0 0.0002037 4703.52637 4960.37939
4870.0 0.0002053 4704.60596 4953.53564
4820.0 0.0002075 4705.66895 4921.55127
4800.0 0.0002083 4706.71387 4893.02930
4820.0 0.0002075 4707.74414 4899.77637
4890.0 0.0002045 4708.75830 4972.06592
5050.0 0.0001980 4709.75391 5132.23633
5280.0 0.0001894 4710.73730 5379.84814
5580.0 0.0001792 4711.70361 5673.34082
5880.0 0.0001701 4712.65723 5922.68066
6020.0 0.0001661 4713.59424 6013.52246
6000.0 0.0001667 4714.52051 5892.83447
5830.0 0.0001715 4715.43408 5628.58838
5550.0 0.0001802 4716.33447 5333.77979
5250.0 0.0001905 4717.22656 5088.62744
5050.0 0.0001980 4718.11035 4923.15674
4910.0 0.0002037 4718.98340 4829.13574
4830.0 0.0002070 4719.85303 4781.13770
4780.0 0.0002092 4720.71289 4760.14502
4760.0 0.0002101 4721.57324 4750.61865
4750.0 0.0002105 4722.42871 4745.79443
4740.0 0.0002110 4723.28320 4743.04297
4740.0 0.0002110 4724.13721 4741.04785
4710.0 0.0002123 4724.99561 4740.79736
4670.0 0.0002141 4725.85449 4739.83057
4710.0 0.0002123 4726.71973 4739.23096
4750.0 0.0002105 4727.59229 4738.96777
4760.0 0.0002101 4728.47461 4730.79736
4730.0 0.0002114 4729.36279 4731.95117
4730.0 0.0002114 4730.26514 4734.01855
4740.0 0.0002110 4731.18213 4735.49072
4730.0 0.0002114 4732.11279 4737.14307
4700.0 0.0002128 4733.05957 4739.09766
4700.0 0.0002128 4734.02783 4741.66211
4710.0 0.0002123 4735.01514 4745.55566
4720.0 0.0002119 4736.02246 4752.31104
4740.0 0.0002110 4737.05713 4764.65820
4790.0 0.0002088 4738.11328 4786.38916
4820.0 0.0002075 4739.19629 4821.06055
4860.0 0.0002058 4740.30811 4869.18018
4940.0 0.0002024 4741.45020 4925.05762
5010.0 0.0001996 4742.62158 4975.82959
5040.0 0.0001984 4743.82568 5004.99561
5000.0 0.0002000 4745.06348 5002.19189
4970.0 0.0002012 4746.33594 4975.18604
4970.0 0.0002012 4747.64307 4944.25195
4970.0 0.0002012 4748.98633 4925.60840
4990.0 0.0002004 4750.37061 4923.30713
4960.0 0.0002016 4751.79004 4928.98340
4940.0 0.0002024 4753.25049 4927.61377
4930.0 0.0002028 4754.74951 4909.44922
4850.0 0.0002062 4756.28906 4878.04932
4820.0 0.0002075 4757.86914 4843.52734
4820.0 0.0002075 4759.49268 4814.15674
4790.0 0.0002088 4761.15967 4793.68555
4790.0 0.0002088 4762.86475 4781.82422
4790.0 0.0002088 4764.61475 4776.20996
4780.0 0.0002092 4766.40527 4774.07764
4770.0 0.0002096 4768.23779 4774.01611
4770.0 0.0002096 4770.11230 4774.81006
4770.0 0.0002096 4772.02930 4774.53613
4770.0 0.0002096 4773.98535 4776.23242
4750.0 0.0002105 4775.98389 4777.94629
4750.0 0.0002105 4778.02344 4779.76270
4740.0 0.0002110 4780.10059 4781.66357
4730.0 0.0002114 4782.21631 4783.63965
4740.0 0.0002110 4784.37305 4784.59668
4750.0 0.0002105 4786.56592 4787.49707
4780.0 0.0002092 4788.79395 4789.87549
4800.0 0.0002083 4791.05566 4792.28174
4800.0 0.0002083 4793.35205 4794.75928
4810.0 0.0002079 4795.68213 4797.33252
4790.0 0.0002088 4798.04346 4800.05469
4810.0 0.0002079 4800.43164 4803.04297
4810.0 0.0002079 4802.85107 4806.52295
4810.0 0.0002079 4805.29541 4810.83252
4830.0 0.0002070 4807.76709 4816.38428
4830.0 0.0002070 4810.26221 4823.53223
4820.0 0.0002075 4812.77979 4832.46729
4820.0 0.0002075 4815.31836 4843.21484
4820.0 0.0002075 4817.87256 4855.76904
4850.0 0.0002062 4820.44629 4870.39648
4870.0 0.0002053 4823.03613 4887.86182
4860.0 0.0002058 4825.63672 4908.28467
4880.0 0.0002049 4828.24951 4929.14404
4910.0 0.0002037 4830.87305 4944.72852
4950.0 0.0002020 4833.50195 4948.54688
5000.0 0.0002000 4836.13916 4938.84863
5040.0 0.0001984 4838.77930 4920.34570
5030.0 0.0001988 4841.42285 4899.69238
4980.0 0.0002008 4844.06641 4882.42871
4920.0 0.0002033 4846.71191 4870.10547
4860.0 0.0002058 4849.34961 4863.17969
4870.0 0.0002053 4851.98486 4860.38867
4870.0 0.0002053 4854.61426 4860.20361
4860.0 0.0002058 4857.23486 4861.43896
4840.0 0.0002066 4859.84570 4863.37598
4840.0 0.0002066 4862.44629 4865.65039
4830.0 0.0002070 4865.03418 4867.95703
4840.0 0.0002066 4867.60498 4870.59326
4860.0 0.0002058 4870.16455 4873.46924
4860.0 0.0002058 4872.70508 4876.80664
4840.0 0.0002066 4875.22852 4881.08545
4850.0 0.0002062 4877.73193 4886.78271
4890.0 0.0002045 4880.21338 4895.63770
4910.0 0.0002037 4882.67676 4907.97949
4940.0 0.0002024 4885.11572 4923.81494
4960.0 0.0002016 4887.53027 4941.55078
4960.0 0.0002016 4889.92188 4957.60547
4980.0 0.0002008 4892.28711 4967.47266
4970.0 0.0002012 4894.62939 4967.88770
4960.0 0.0002016 4896.94434 4959.88965
4960.0 0.0002016 4899.23340 4947.94727
4940.0 0.0002024 4901.49365 4938.39844
4940.0 0.0002024 4903.72754 4930.31787
4940.0 0.0002024 4905.93164 4927.17871
4940.0 0.0002024 4908.10938 4929.46924
4920.0 0.0002033 4910.25830 4937.13623
4910.0 0.0002037 4912.38135 4949.66602
4910.0 0.0002037 4914.47559 4965.69385
4920.0 0.0002033 4916.54248 4982.61426
4940.0 0.0002024 4918.58057 4996.62012
4940.0 0.0002024 4920.59375 5003.93555
4980.0 0.0002008 4922.57861 5003.66895
5000.0 0.0002000 4924.53857 4999.14941
5010.0 0.0001996 4926.46973 4995.83447
5010.0 0.0001996 4928.37695 4998.41455
4990.0 0.0002004 4930.26074 5013.42139
5010.0 0.0001996 4932.11914 5044.65234
5040.0 0.0001984 4933.95410 5094.56982
5100.0 0.0001961 4935.76758 5160.81152
5200.0 0.0001923 4937.55908 5232.84277
5320.0 0.0001880 4939.33057 5293.11768
5410.0 0.0001848 4941.08105 5320.77686
5430.0 0.0001842 4942.81445 5303.64209
5390.0 0.0001855 4944.52637 5249.12939
5300.0 0.0001887 4946.22412 5177.44336
5190.0 0.0001927 4947.90527 5107.61963
5120.0 0.0001953 4949.57227 5051.37744
5050.0 0.0001980 4951.22461 5012.57178
5020.0 0.0001992 4952.86328 4988.84326
4990.0 0.0002004 4954.49268 4976.85059
4970.0 0.0002012 4956.10889 4971.70020
4970.0 0.0002012 4957.71729 4970.15869
4970.0 0.0002012 4959.31641 4970.68359
4950.0 0.0002020 4960.90674 4972.31152
4940.0 0.0002024 4962.49219 4974.75293
4960.0 0.0002016 4964.07031 4977.79688
5000.0 0.0002000 4965.64551 4981.76807
5000.0 0.0002000 4967.21582 4983.42676
4980.0 0.0002008 4968.78467 4990.54639
4970.0 0.0002012 4970.35059 4998.90381
4990.0 0.0002004 4971.91309 5007.88818
5010.0 0.0001996 4973.47949 5016.66016
5010.0 0.0001996 4975.04395 5024.77051
5020.0 0.0001992 4976.60840 5032.71826
5040.0 0.0001984 4978.17432 5041.13330
5050.0 0.0001980 4979.74365 5049.41553
5060.0 0.0001976 4981.31445 5055.32959
5060.0 0.0001976 4982.88672 5055.97900
5070.0 0.0001972 4984.46533 5050.18457
5060.0 0.0001976 4986.04590 5039.77686
5030.0 0.0001988 4987.62891 5027.89453
5010.0 0.0001996 4989.21533 5017.23975
4990.0 0.0002004 4990.80908 5009.39111
4990.0 0.0002004 4992.40430 5004.81885
5010.0 0.0001996 4994.00391 5003.28662
5010.0 0.0001996 4995.60645 5004.32227
4990.0 0.0002004 4997.21191 5007.56787
5010.0 0.0001996 4998.82178 5012.85205
5030.0 0.0001988 5000.43457 5020.01953
5030.0 0.0001988 5002.04932 5028.38721
5040.0 0.0001984 5003.66406 5037.56494
5050.0 0.0001980 5005.28418 5045.87646
5060.0 0.0001976 5006.90234 5051.78760
5060.0 0.0001976 5008.52148 5053.94971
5070.0 0.0001972 5010.13770 5051.84912
5060.0 0.0001976 5011.75488 5046.52002
5040.0 0.0001984 5013.36768 5039.89502
5040.0 0.0001984 5014.97656 5033.70361
5030.0 0.0001988 5016.58350 5028.99854
5040.0 0.0001984 5018.18066 5026.13965
5020.0 0.0001992 5019.77637 5025.00391
5010.0 0.0001996 5021.36182 5025.21191
5000.0 0.0002000 5022.93701 5026.09521
5010.0 0.0001996 5024.50391 5027.89063
4980.0 0.0002008 5026.06055 5030.03271
4990.0 0.0002004 5027.60303 5032.26904
5020.0 0.0001992 5029.13135 5034.33594
5020.0 0.0001992 5030.64355 5035.99072
5040.0 0.0001984 5032.14111 5037.14990
5050.0 0.0001980 5033.61963 5037.88037
5050.0 0.0001980 5035.08008 5038.41943
5030.0 0.0001988 5036.52002 5038.96484
5020.0 0.0001992 5037.93799 5039.64063
5000.0 0.0002000 5039.33301 5040.49316
5000.0 0.0002000 5040.70264 5041.50537
5000.0 0.0002000 5042.04639 5042.63330
4990.0 0.0002004 5043.36230 5043.82373
5000.0 0.0002000 5044.65137 5044.99854
5020.0 0.0001992 5045.91162 5046.21826
5060.0 0.0001976 5047.13867 5047.27051
5050.0 0.0001980 5048.33643 5048.93018
5040.0 0.0001984 5049.49756 5050.12256
5050.0 0.0001980 5050.62891 5051.29150
5060.0 0.0001976 5051.72266 5052.43018
5060.0 0.0001976 5052.78076 5053.65771
5050.0 0.0001980 5053.80273 5054.92871
5060.0 0.0001976 5054.78662 5056.01318
5040.0 0.0001984 5055.72998 5057.08301
5040.0 0.0001984 5056.63672 5058.15625
5060.0 0.0001976 5057.50293 5059.25732
5060.0 0.0001976 5058.32910 5060.42920
5050.0 0.0001980 5059.11426 5061.72461
5070.0 0.0001972 5059.85693 5063.19580
5080.0 0.0001969 5060.56006 5064.85254
5060.0 0.0001976 5061.22266 5066.70996
5060.0 0.0001976 5061.83740 5068.64307
5060.0 0.0001976 5062.41797 5070.50830
5070.0 0.0001972 5062.95117 5072.13770
5100.0 0.0001961 5063.44580 5073.57764
5110.0 0.0001957 5063.89697 5075.11523
5090.0 0.0001965 5064.30957 5077.59473
5080.0 0.0001969 5064.68066 5082.18701
5110.0 0.0001957 5065.00879 5090.28711
5110.0 0.0001957 5065.29980 5103.25244
5130.0 0.0001949 5065.55176 5121.75781
5140.0 0.0001946 5065.76367 5145.40723
5150.0 0.0001942 5065.94092 5172.19043
5190.0 0.0001927 5066.08105 5198.36865
5230.0 0.0001912 5066.18311 5219.04980
5230.0 0.0001912 5066.25586 5230.15137
5240.0 0.0001908 5066.29346 5230.91943
5240.0 0.0001908 5066.29932 5223.49658
5230.0 0.0001912 5066.27393 5210.10547
5230.0 0.0001912 5066.22021 5192.27441
5220.0 0.0001916 5066.13965 5170.74561
5210.0 0.0001919 5066.03223 5148.16016
5210.0 0.0001919 5065.90088 5127.01514
5160.0 0.0001938 5065.74805 5109.08936
5160.0 0.0001938 5065.57373 5095.19580
5160.0 0.0001938 5065.37842 5085.34814
5160.0 0.0001938 5065.16846 5079.03076
5130.0 0.0001949 5064.94238 5075.48828
5110.0 0.0001957 5064.70361 5074.29199
5110.0 0.0001957 5064.45068 5074.24072
5100.0 0.0001961 5064.19043 5075.17188
5100.0 0.0001961 5063.92090 5076.77441
5110.0 0.0001957 5063.64844 5078.51807
5110.0 0.0001957 5063.37109 5080.06592
5100.0 0.0001961 5063.09082 5081.08008
5090.0 0.0001965 5062.81104 5081.57959
5080.0 0.0001969 5062.53369 5081.52783
5070.0 0.0001972 5062.26123 5081.26660
5060.0 0.0001976 5061.99463 5080.96143
5060.0 0.0001976 5061.73438 5080.78857
5060.0 0.0001976 5061.48877 5080.60254
5060.0 0.0001976 5061.25195 5082.39404
5070.0 0.0001972 5061.03125 5086.67285
5060.0 0.0001976 5060.82568 5094.00439
5060.0 0.0001976 5060.63525 5105.04834
5060.0 0.0001976 5060.46631 5118.22021
5050.0 0.0001980 5060.31787 5132.73291
5060.0 0.0001976 5060.18994 5145.48682
5090.0 0.0001965 5060.08594 5153.63916
5130.0 0.0001949 5060.00879 5155.30566
5120.0 0.0001953 5059.95557 5151.55420
5130.0 0.0001949 5059.93262 5146.23584
5130.0 0.0001949 5059.93604 5142.63672
5130.0 0.0001949 5059.97363 5143.74023
5140.0 0.0001946 5060.03906 5150.26660
5120.0 0.0001953 5060.13672 5160.73535
5110.0 0.0001957 5060.26611 5171.80908
5110.0 0.0001957 5060.43164 5179.31201
5120.0 0.0001953 5060.62939 5180.07861
5130.0 0.0001949 5060.86230 5173.95898
5130.0 0.0001949 5061.12744 5163.15479
5130.0 0.0001949 5061.43115 5150.75000
5150.0 0.0001942 5061.76855 5139.30029
5140.0 0.0001946 5062.14111 5130.08984
5130.0 0.0001949 5062.54834 5123.71875
5130.0 0.0001949 5062.98975 5120.71094
5130.0 0.0001949 5063.46729 5121.79443
5150.0 0.0001942 5063.97803 5127.67236
5170.0 0.0001934 5064.52148 5138.44580
5200.0 0.0001923 5065.09961 5153.22852
5220.0 0.0001916 5065.70850 5170.04785
5240.0 0.0001908 5066.34863 5185.94971
5230.0 0.0001912 5067.02002 5198.14453
5220.0 0.0001916 5067.71875 5205.06543
5200.0 0.0001923 5068.44824 5207.25537
5190.0 0.0001927 5069.20117 5207.94043
5180.0 0.0001931 5069.97998 5208.85547
5190.0 0.0001927 5070.78369 5210.54492
5210.0 0.0001919 5071.60742 5212.11572
5210.0 0.0001919 5072.45215 5211.95215
5190.0 0.0001927 5073.31348 5208.29346
5190.0 0.0001927 5074.19385 5199.71680
5170.0 0.0001934 5075.08740 5185.58496
5180.0 0.0001931 5075.99268 5168.61621
5200.0 0.0001923 5076.90820 5151.07471
5180.0 0.0001931 5077.83398 5135.32910
5140.0 0.0001946 5078.76465 5123.04199
5120.0 0.0001953 5079.69824 5114.53418
5090.0 0.0001965 5080.63330 5109.34863
5110.0 0.0001957 5081.56592 5106.32471
5110.0 0.0001957 5082.49756 5104.64648
5100.0 0.0001961 5083.42285 5103.40137
5100.0 0.0001961 5084.33887 5102.46240
5110.0 0.0001957 5085.24414 5101.92627
5100.0 0.0001961 5086.13525 5102.20166
5100.0 0.0001961 5087.01123 5103.54199
5100.0 0.0001961 5087.86768 5106.61230
5100.0 0.0001961 5088.70264 5109.63428
5130.0 0.0001949 5089.51514 5112.59570
5140.0 0.0001946 5090.30029 5115.26123
5130.0 0.0001949 5091.05859 5116.69287
5140.0 0.0001946 5091.78320 5116.12451
5150.0 0.0001942 5092.47607 5114.06787
5130.0 0.0001949 5093.13379 5111.00732
5130.0 0.0001949 5093.75195 5108.08545
5110.0 0.0001957 5094.32861 5105.44873
5100.0 0.0001961 5094.86621 5103.00977
5080.0 0.0001969 5095.35693 5101.75195
5070.0 0.0001972 5095.80273 5101.18555
5070.0 0.0001972 5096.19678 5101.13721
5070.0 0.0001972 5096.54150 5101.56494
5070.0 0.0001972 5096.83301 5102.34473
5080.0 0.0001969 5097.07080 5103.53564
5100.0 0.0001961 5097.25293 5105.22559
5110.0 0.0001957 5097.37744 5107.55127
5080.0 0.0001969 5097.44189 5110.81641
5060.0 0.0001976 5097.44678 5114.97949
5080.0 0.0001969 5097.39063 5120.65234
5110.0 0.0001957 5097.27246 5128.31934
5130.0 0.0001949 5097.08887 5138.72412
5150.0 0.0001942 5096.84277 5152.80713
5170.0 0.0001934 5096.53027 5171.49023
5210.0 0.0001919 5096.14990 5195.27686
5240.0 0.0001908 5095.70459 5223.56494
5230.0 0.0001912 5095.19238 5254.13428
5250.0 0.0001905 5094.61230 5283.08643
5320.0 0.0001880 5093.96533 5305.44727
5350.0 0.0001869 5093.24902 5317.07080
5340.0 0.0001873 5092.46826 5316.64355
5370.0 0.0001862 5091.61768 5306.10303
5390.0 0.0001855 5090.70313 5288.82227
5370.0 0.0001862 5089.71973 5268.02881
5350.0 0.0001869 5088.67188 5246.49023
5320.0 0.0001880 5087.55762 5225.71729
5270.0 0.0001898 5086.37988 5206.09180
5240.0 0.0001908 5085.14063 5187.78076
5190.0 0.0001927 5083.83643 5171.23633
5160.0 0.0001938 5082.47070 5156.99170
5150.0 0.0001942 5081.04395 5145.34521
5140.0 0.0001946 5079.56104 5136.25293
5120.0 0.0001953 5078.02148 5129.29688
5090.0 0.0001965 5076.42334 5123.82031
5080.0 0.0001969 5074.77490 5119.00488
5100.0 0.0001961 5073.06934 5114.01709
5100.0 0.0001961 5071.31982 5108.34326
5090.0 0.0001965 5069.51563 5102.00732
5100.0 0.0001961 5067.66748 5095.40234
5110.0 0.0001957 5065.77197 5089.22705
5100.0 0.0001961 5063.83691 5083.83350
5090.0 0.0001965 5061.85986 5079.44629
5070.0 0.0001972 5059.84375 5076.09863
5050.0 0.0001980 5057.79199 5072.63281
5040.0 0.0001984 5055.70557 5070.93262
5050.0 0.0001980 5053.58838 5069.55811
5050.0 0.0001980 5051.44141 5067.87061
5050.0 0.0001980 5049.26660 5066.34277
5060.0 0.0001976 5047.06592 5064.50928
5050.0 0.0001980 5044.84570 5062.28076
5050.0 0.0001980 5042.60449 5059.48682
5040.0 0.0001984 5040.34326 5055.75146
5020.0 0.0001992 5038.06885 5051.77490
5020.0 0.0001992 5035.78125 5047.50635
5010.0 0.0001996 5033.47998 5043.17920
5010.0 0.0001996 5031.17139 5039.05713
5030.0 0.0001988 5028.85547 5035.19238
5030.0 0.0001988 5026.53613 5031.78076
5000.0 0.0002000 5024.21240 5028.72607
4980.0 0.0002008 5021.88965 5025.93408
5000.0 0.0002000 5019.56738 5023.27539
5010.0 0.0001996 5017.24902 5020.51611
5010.0 0.0001996 5014.93555 5017.85498
5000.0 0.0002000 5012.62793 5015.15381
5020.0 0.0001992 5010.33105 5012.45020
5020.0 0.0001992 5008.04346 5009.78076
5010.0 0.0001996 5005.76611 5007.16748
5010.0 0.0001996 5003.50293 5004.66064
4980.0 0.0002008 5001.25586 5002.25928
4960.0 0.0002016 4999.02051 4999.97998
4970.0 0.0002012 4996.80322 4997.83350
5000.0 0.0002000 4994.60498 4995.75098
5000.0 0.0002000 4992.42432 4993.87402
5000.0 0.0002000 4990.26172 4992.17285
4980.0 0.0002008 4988.12109 4990.67139
4970.0 0.0002012 4986.00000 4989.38477
4980.0 0.0002008 4983.90332 4988.31738
4980.0 0.0002008 4981.82471 4987.42383
4990.0 0.0002004 4979.76660 4986.73975
4980.0 0.0002008 4977.73291 4986.18164
4980.0 0.0002008 4975.72168 4985.77588
4980.0 0.0002008 4973.73193 4985.36816
4970.0 0.0002012 4971.76074 4984.93945
4970.0 0.0002012 4969.81445 4984.35596
4980.0 0.0002008 4967.88721 4983.39648
4990.0 0.0002004 4965.98145 4981.98584
4990.0 0.0002004 4964.09521 4979.72949
5000.0 0.0002000 4962.22754 4976.88379
4980.0 0.0002008 4960.37939 4973.64746
4990.0 0.0002004 4958.54785 4970.23730
5000.0 0.0002000 4956.73438 4966.85303
4990.0 0.0002004 4954.93311 4963.66064
4970.0 0.0002012 4953.14844 4960.81299
4980.0 0.0002008 4951.37598 4958.41016
4980.0 0.0002008 4949.61719 4956.48291
4960.0 0.0002016 4947.86768 4955.07617
4940.0 0.0002024 4946.12646 4953.92432
4930.0 0.0002028 4944.39600 4952.98193
4940.0 0.0002024 4942.66943 4952.09521
4960.0 0.0002016 4940.94775 4951.43408
4980.0 0.0002008 4939.22803 4950.43457
4980.0 0.0002008 4937.51270 4949.44238
4970.0 0.0002012 4935.79395 4948.58838
4950.0 0.0002020 4934.07520 4947.96826
4940.0 0.0002024 4932.35449 4947.80225
4940.0 0.0002024 4930.62695 4947.80957
4940.0 0.0002024 4928.89307 4948.09668
4960.0 0.0002016 4927.15088 4948.45654
4950.0 0.0002020 4925.39941 4948.90820
4950.0 0.0002020 4923.63477 4949.35254
4960.0 0.0002016 4921.85791 4950.00049
4950.0 0.0002020 4920.06543 4950.94092
4950.0 0.0002020 4918.25830 4951.73389
4950.0 0.0002020 4916.43164 4952.22412
4950.0 0.0002020 4914.58643 4951.94092
4950.0 0.0002020 4912.72119 4950.44092
4950.0 0.0002020 4910.83350 4947.52246
4960.0 0.0002016 4908.92285 4943.61621
4960.0 0.0002016 4906.98535 4939.45898
4950.0 0.0002020 4905.02441 4935.91797
4940.0 0.0002024 4903.03760 4933.75146
4950.0 0.0002020 4901.02051 4933.50000
4950.0 0.0002020 4898.97559 4935.43115
4950.0 0.0002020 4896.90283 4939.47607
4970.0 0.0002012 4894.80029 4945.18506
4980.0 0.0002008 4892.66455 4951.99170
4980.0 0.0002008 4890.49951 4959.07275
4980.0 0.0002008 4888.30225 4965.62939
4990.0 0.0002004 4886.07373 4970.73828
4980.0 0.0002008 4883.81152 4973.55566
4970.0 0.0002012 4881.51758 4973.48535
4980.0 0.0002008 4879.19287 4970.61719
4990.0 0.0002004 4876.83447 4965.56836
4980.0 0.0002008 4874.44629 4958.91943
4960.0 0.0002016 4872.02441 4951.13770
4960.0 0.0002016 4869.57031 4942.95605
4930.0 0.0002028 4867.08887 4934.97021
4910.0 0.0002037 4864.57471 4927.75879
4910.0 0.0002037 4862.03271 4921.51172
4890.0 0.0002045 4859.46289 4915.57471
4880.0 0.0002049 4856.86328 4910.00830
4900.0 0.0002041 4854.23828 4903.87842
4910.0 0.0002037 4851.58887 4896.86084
4910.0 0.0002037 4848.91406 4889.02246
4910.0 0.0002037 4846.21729 4880.70947
4890.0 0.0002045 4843.49854 4872.32422
4870.0 0.0002053 4840.76025 4864.24854
4860.0 0.0002058 4838.00293 4856.79834
4840.0 0.0002066 4835.22998 4850.19531
4820.0 0.0002075 4832.44189 4844.54541
4810.0 0.0002079 4829.63916 4839.71826
4790.0 0.0002088 4826.82764 4835.89746
4790.0 0.0002088 4824.00195 4832.80566
4810.0 0.0002079 4821.17041 4829.85303
4810.0 0.0002079 4818.33203 4827.76123
4810.0 0.0002079 4815.49072 4825.87939
4800.0 0.0002083 4812.64648 4824.04443
4800.0 0.0002083 4809.80273 4822.17188
4790.0 0.0002088 4806.95898 4820.25293
4790.0 0.0002088 4804.12207 4818.37695
4810.0 0.0002079 4801.28809 4816.92480
4800.0 0.0002083 4798.46387 4816.26904
4790.0 0.0002088 4795.64648 4816.48340
4800.0 0.0002083 4792.84277 4817.55127
4800.0 0.0002083 4790.05273 4819.22998
4790.0 0.0002088 4787.27832 4820.78662
4810.0 0.0002079 4784.51855 4822.09180
4800.0 0.0002083 4781.77734 4822.17334
4800.0 0.0002083 4779.05713 4820.44141
4810.0 0.0002079 4776.36230 4816.63623
4810.0 0.0002079 4773.68750 4810.82275
4820.0 0.0002075 4771.03711 4803.60742
4820.0 0.0002075 4768.41650 4795.65332
4820.0 0.0002075 4765.82227 4787.62549
4800.0 0.0002083 4763.25586 4780.05078
4780.0 0.0002092 4760.71973 4773.27588
4740.0 0.0002110 4758.21631 4767.46924
4730.0 0.0002114 4755.74414 4762.65039
4740.0 0.0002110 4753.30420 4758.75830
4750.0 0.0002105 4750.89844 4755.68506
4770.0 0.0002096 4748.52588 4753.31543
4770.0 0.0002096 4746.18994 4751.56836
4750.0 0.0002105 4743.88818 4750.24756
4750.0 0.0002105 4741.61816 4749.30225
4750.0 0.0002105 4739.38574 4748.52295
4760.0 0.0002101 4737.18848 4747.78711
4770.0 0.0002096 4735.02637 4746.83154
4760.0 0.0002101 4732.89844 4745.48926
4760.0 0.0002101 4730.80664 4743.56836
4760.0 0.0002101 4728.74609 4741.06836
4750.0 0.0002105 4726.71729 4738.13916
4740.0 0.0002110 4724.72363 4734.99268
4730.0 0.0002114 4722.76270 4731.54395
4730.0 0.0002114 4720.82813 4728.53809
4740.0 0.0002110 4718.92529 4725.71582
4720.0 0.0002119 4717.04883 4723.20410
4710.0 0.0002123 4715.19922 4720.92285
4710.0 0.0002123 4713.37695 4718.81006
4720.0 0.0002119 4711.57471 4716.77979
4730.0 0.0002114 4709.79590 4714.77100
4730.0 0.0002114 4708.03906 4712.74951
4730.0 0.0002114 4706.29785 4710.72852
4730.0 0.0002114 4704.57373 4708.76465
4720.0 0.0002119 4702.86377 4706.92090
4720.0 0.0002119 4701.16699 4705.28125
4730.0 0.0002114 4699.48145 4703.83301
4720.0 0.0002119 4697.80322 4702.61230
4730.0 0.0002114 4696.13037 4701.58740
4720.0 0.0002119 4694.46143 4700.71631
4700.0 0.0002128 4692.79492 4699.93066
4710.0 0.0002123 4691.12646 4699.22266
4710.0 0.0002123 4689.45557 4698.40283
4700.0 0.0002128 4687.77979 4697.49414
4700.0 0.0002128 4686.09619 4696.43652
4700.0 0.0002128 4684.40234 4695.33691
4710.0 0.0002123 4682.69824 4694.14355
4720.0 0.0002119 4680.97900 4692.59766
4700.0 0.0002128 4679.24414 4690.67969
4680.0 0.0002137 4677.49023 4688.34619
4680.0 0.0002137 4675.71533 4685.63330
4670.0 0.0002141 4673.91748 4682.66113
4670.0 0.0002141 4672.09717 4679.57031
4660.0 0.0002146 4670.24756 4676.50488
4650.0 0.0002151 4668.37549 4673.58740
4650.0 0.0002151 4666.46826 4670.85791
4650.0 0.0002151 4664.53223 4668.45850
4660.0 0.0002146 4662.56299 4666.29150
4660.0 0.0002146 4660.56104 4664.41162
4660.0 0.0002146 4658.52344 4662.80859
4660.0 0.0002146 4656.45020 4661.45459
4650.0 0.0002151 4654.33887 4660.34326
4650.0 0.0002151 4652.19092 4659.41260
4650.0 0.0002151 4650.00439 4658.61035
4670.0 0.0002141 4647.77686 4657.86035
4670.0 0.0002141 4645.51270 4657.07227
4660.0 0.0002146 4643.20703 4656.14941
4660.0 0.0002146 4640.86182 4654.95801
4640.0 0.0002155 4638.47949 4653.57275
4630.0 0.0002160 4636.05420 4651.62500
4640.0 0.0002155 4633.59033 4649.11719
4640.0 0.0002155 4631.09131 4646.02930
4620.0 0.0002165 4628.55225 4642.47656
4620.0 0.0002165 4625.97705 4638.64893
4630.0 0.0002160 4623.36475 4634.78662
4630.0 0.0002160 4620.71777 4631.16699
4630.0 0.0002160 4618.04053 4627.97266
4620.0 0.0002165 4615.32861 4625.36133
4630.0 0.0002160 4612.58740 4623.44531
4630.0 0.0002160 4609.81738 4622.27051
4610.0 0.0002169 4607.02051 4621.77637
4630.0 0.0002160 4604.20068 4621.83984
4640.0 0.0002155 4601.35645 4622.24219
4650.0 0.0002151 4598.49072 4622.69238
4650.0 0.0002151 4595.61084 4622.86230
4640.0 0.0002155 4592.71240 4622.41357
4650.0 0.0002151 4589.80078 4621.05127
4620.0 0.0002165 4586.88135 4618.63428
4610.0 0.0002169 4583.95215 4615.25488
4610.0 0.0002169 4581.01611 4611.20508
4600.0 0.0002174 4578.08057 4606.98633
4590.0 0.0002179 4575.14258 4602.90967
4590.0 0.0002179 4572.20996 4599.22119
4590.0 0.0002179 4569.28467 4596.01172
4570.0 0.0002188 4566.36279 4593.18018
4550.0 0.0002198 4563.45654 4590.59229
4560.0 0.0002193 4560.56641 4587.91602
4570.0 0.0002188 4557.68896 4585.03467
4570.0 0.0002188 4554.83350 4581.93945
4590.0 0.0002179 4552.00195 4578.75439
4590.0 0.0002179 4549.19482 4575.72070
4600.0 0.0002174 4546.41553 4573.09277
4590.0 0.0002179 4543.66846 4571.11084
4570.0 0.0002188 4540.95215 4569.91504
4560.0 0.0002193 4538.27197 4569.50879
4550.0 0.0002198 4535.62500 4569.70801
4550.0 0.0002198 4533.02197 4570.20117
4560.0 0.0002193 4530.45703 4570.41553
4560.0 0.0002193 4527.93799 4569.85791
4560.0 0.0002193 4525.46240 4568.10107
4550.0 0.0002198 4523.03223 4564.98193
4540.0 0.0002203 4520.64893 4560.57471
4530.0 0.0002208 4518.31396 4555.11865
4520.0 0.0002212 4516.02832 4548.93604
4510.0 0.0002217 4513.79297 4542.42139
4510.0 0.0002217 4511.61084 4535.90967
4510.0 0.0002217 4509.47510 4529.67383
4530.0 0.0002208 4507.39209 4524.04150
4530.0 0.0002208 4505.36035 4518.91309
4540.0 0.0002203 4503.37744 4514.37305
4540.0 0.0002203 4501.44775 4510.43359
4520.0 0.0002212 4499.56494 4506.93604
4510.0 0.0002217 4497.72998 4503.96387
4510.0 0.0002217 4495.94238 4501.47998
4510.0 0.0002217 4494.20166 4499.38477
4510.0 0.0002217 4492.50244 4497.66260
4510.0 0.0002217 4490.84619 4496.29053
4520.0 0.0002212 4489.23193 4495.26758
4520.0 0.0002212 4487.65430 4494.57373
4530.0 0.0002208 4486.11182 4494.22168
4520.0 0.0002212 4484.60205 4494.14111
4510.0 0.0002217 4483.12500 4494.29053
4510.0 0.0002217 4481.67383 4494.68115
4500.0 0.0002222 4480.24512 4495.21533
4510.0 0.0002217 4478.83936 4495.78125
4510.0 0.0002217 4477.44922 4496.25488
4500.0 0.0002222 4476.07568 4496.47754
4500.0 0.0002222 4474.70947 4496.27051
4500.0 0.0002222 4473.34961 4495.56885
4480.0 0.0002232 4471.99365 4494.35938
4480.0 0.0002232 4470.63525 4492.75000
4500.0 0.0002222 4469.27002 4490.87842
4500.0 0.0002222 4467.89795 4488.86230
4500.0 0.0002222 4466.50732 4486.75732
4480.0 0.0002232 4465.10303 4484.46387
4480.0 0.0002232 4463.67383 4482.23242
4490.0 0.0002227 4462.21875 4479.93896
4490.0 0.0002227 4460.73145 4477.67480
4460.0 0.0002242 4459.21240 4475.53955
4450.0 0.0002247 4457.65137 4473.66943
4480.0 0.0002232 4456.05029 4472.32715
4480.0 0.0002232 4454.39795 4471.56543
4490.0 0.0002227 4452.69873 4471.42041
4480.0 0.0002232 4450.94385 4471.82861
4480.0 0.0002232 4449.13086 4472.60889
4470.0 0.0002237 4447.25439 4473.52686
4460.0 0.0002242 4445.31396 4474.24756
4480.0 0.0002232 4443.30518 4474.43604
4490.0 0.0002227 4441.22510 4473.77393
4480.0 0.0002232 4439.07080 4472.04541
4480.0 0.0002232 4436.84229 4469.21045
4470.0 0.0002237 4434.53418 4465.37988
4470.0 0.0002237 4432.14453 4460.91357
4470.0 0.0002237 4429.67236 4455.97461
4460.0 0.0002242 4427.11523 4450.91406
4460.0 0.0002242 4424.47412 4445.96289
4440.0 0.0002252 4421.74414 4441.23926
4410.0 0.0002268 4418.92773 4436.84375
4400.0 0.0002273 4416.02295 4432.75098
4410.0 0.0002268 4413.03076 4428.89453
4420.0 0.0002262 4409.95020 4425.16797
4430.0 0.0002257 4406.77979 4421.35645
4440.0 0.0002252 4403.52295 4417.52490
4420.0 0.0002262 4400.18115 4413.51514
4410.0 0.0002268 4396.75391 4409.30713
4380.0 0.0002283 4393.24414 4404.93164
4350.0 0.0002299 4389.65039 4400.41943
4360.0 0.0002294 4385.97803 4395.85254
4360.0 0.0002294 4382.22852 4391.30029
4340.0 0.0002304 4378.40381 4386.83984
4350.0 0.0002299 4374.50732 4382.61523
4370.0 0.0002288 4370.54297 4378.52344
4350.0 0.0002299 4366.51270 4374.59033
4340.0 0.0002304 4362.41895 4370.88281
4350.0 0.0002299 4358.27002 4367.28662
4350.0 0.0002299 4354.06641 4363.70557
4340.0 0.0002304 4349.81396 4360.06055
4360.0 0.0002294 4345.51416 4356.20898
4360.0 0.0002294 4341.17627 4352.11719
4350.0 0.0002299 4336.79834 4347.78467
4330.0 0.0002309 4332.39648 4343.28076
4300.0 0.0002326 4327.96191 4338.78223
4300.0 0.0002326 4323.50732 4334.47852
4310.0 0.0002320 4319.03955 4330.29932
4320.0 0.0002315 4314.55762 4326.63525
4330.0 0.0002309 4310.07422 4323.43457
4330.0 0.0002309 4305.58545 4320.66064
4320.0 0.0002315 4301.10693 4318.26416
4310.0 0.0002320 4296.63525 4316.04785
4320.0 0.0002315 4292.17920 4313.77637
4320.0 0.0002315 4287.74365 4311.21289
4330.0 0.0002309 4283.33203 4308.07178
4320.0 0.0002315 4278.95166 4304.14258
4340.0 0.0002304 4274.60547 4299.33936
4330.0 0.0002309 4270.30225 4293.70605
4330.0 0.0002309 4266.03857 4287.40674
4320.0 0.0002315 4261.82715 4280.76709
4330.0 0.0002309 4257.66797 4274.06689
4320.0 0.0002315 4253.56445 4267.52100
4310.0 0.0002320 4249.52148 4261.37695
4300.0 0.0002326 4245.54346 4255.76855
4290.0 0.0002331 4241.63379 4250.79297
4280.0 0.0002336 4237.79492 4246.54248
4260.0 0.0002347 4234.02588 4243.04883
4260.0 0.0002347 4230.33594 4240.26904
4250.0 0.0002353 4226.72217 4238.16943
4240.0 0.0002358 4223.18994 4236.68848
4230.0 0.0002364 4219.73926 4235.70410
4230.0 0.0002364 4216.37158 4235.05762
4220.0 0.0002370 4213.08887 4234.58008
4210.0 0.0002375 4209.89209 4234.00879
4230.0 0.0002364 4206.78125 4233.07275
4230.0 0.0002364 4203.75732 4231.61523
4240.0 0.0002358 4200.81934 4229.55176
4240.0 0.0002358 4197.96631 4226.94922
4230.0 0.0002364 4195.20166 4223.94922
4200.0 0.0002381 4192.52197 4220.68408
4200.0 0.0002381 4189.92480 4217.32813
4190.0 0.0002387 4187.40967 4213.98730
4200.0 0.0002381 4184.97900 4210.70117
4200.0 0.0002381 4182.62744 4207.44971
4190.0 0.0002387 4180.35254 4204.10352
4180.0 0.0002392 4178.15283 4200.63232
4160.0 0.0002404 4176.02881 4196.96680
4150.0 0.0002410 4173.97461 4193.17969
4150.0 0.0002410 4171.98926 4189.37305
4160.0 0.0002404 4170.07080 4185.64404
4170.0 0.0002398 4168.21436 4182.16992
4180.0 0.0002392 4166.41846 4178.82373
4180.0 0.0002392 4164.67969 4175.89355
4170.0 0.0002398 4162.99463 4173.31934
4160.0 0.0002404 4161.36377 4171.15771
4160.0 0.0002404 4159.77930 4169.30225
4170.0 0.0002398 4158.23975 4167.80615
4160.0 0.0002404 4156.74023 4166.70361
4170.0 0.0002398 4155.28125 4165.86768
4180.0 0.0002392 4153.85986 4165.33105
4170.0 0.0002398 4152.46680 4165.05371
4150.0 0.0002410 4151.10742 4165.03467
4150.0 0.0002410 4149.77051 4165.25439
4150.0 0.0002410 4148.46191 4165.71973
4170.0 0.0002398 4147.17090 4166.39160
4190.0 0.0002387 4145.90186 4167.26514
4180.0 0.0002392 4144.64697 4168.25293
4170.0 0.0002398 4143.40430 4169.25098
4160.0 0.0002404 4142.17334 4170.09229
4140.0 0.0002415 4140.95068 4170.59521
4150.0 0.0002410 4139.73682 4170.89746
4160.0 0.0002404 4138.52734 4170.79395
4180.0 0.0002392 4137.31982 4170.23438
4160.0 0.0002404 4136.11328 4169.22461
4160.0 0.0002404 4134.90576 4167.78809
4170.0 0.0002398 4133.69824 4166.09033
4190.0 0.0002387 4132.48535 4164.20947
4170.0 0.0002398 4131.26807 4162.22119
4150.0 0.0002410 4130.04297 4160.17969
4160.0 0.0002404 4128.81104 4158.10693
4180.0 0.0002392 4127.57031 4156.06934
4170.0 0.0002398 4126.31885 4154.04443
4170.0 0.0002398 4125.05713 4152.20020
4170.0 0.0002398 4123.78369 4150.50586
4170.0 0.0002398 4122.49609 4148.99121
4170.0 0.0002398 4121.19482 4147.67822
4170.0 0.0002398 4119.87646 4146.66064
4170.0 0.0002398 4118.54297 4145.85010
4150.0 0.0002410 4117.19043 4145.29346
4160.0 0.0002404 4115.82129 4144.98584
4170.0 0.0002398 4114.42871 4144.85889
4170.0 0.0002398 4113.01807 4144.85693
4150.0 0.0002410 4111.58252 4144.91602
4130.0 0.0002421 4110.12305 4144.90625
4140.0 0.0002415 4108.63916 4144.71973
4140.0 0.0002415 4107.12646 4144.21973
4140.0 0.0002415 4105.58643 4143.28955
4120.0 0.0002427 4104.01514 4141.88281
4130.0 0.0002421 4102.41016 4140.05273
4130.0 0.0002421 4100.77295 4137.88330
4130.0 0.0002421 4099.09863 4135.52539
4130.0 0.0002421 4097.38623 4133.09570
4120.0 0.0002427 4095.63428 4130.80273
4100.0 0.0002439 4093.84009 4128.63818
4110.0 0.0002433 4092.00171 4126.59180
4120.0 0.0002427 4090.11743 4124.52832
4120.0 0.0002427 4088.18530 4122.28076
4120.0 0.0002427 4086.20532 4119.67529
4120.0 0.0002427 4084.17212 4116.52783
4120.0 0.0002427 4082.08789 4112.91406
4120.0 0.0002427 4079.94751 4108.77539
4120.0 0.0002427 4077.75269 4104.27783
4100.0 0.0002439 4075.50195 4099.58105
4090.0 0.0002445 4073.19312 4094.93457
4090.0 0.0002445 4070.82739 4090.48462
4080.0 0.0002451 4068.40186 4086.39893
4070.0 0.0002457 4065.92041 4082.80542
4070.0 0.0002457 4063.38159 4079.59497
4060.0 0.0002463 4060.78516 4076.79224
4070.0 0.0002457 4058.13452 4074.32739
4080.0 0.0002451 4055.43042 4072.03540
4080.0 0.0002451 4052.67407 4069.85229
4070.0 0.0002457 4049.87061 4067.60229
4070.0 0.0002457 4047.01978 4065.17236
4050.0 0.0002469 4044.12646 4062.44629
4040.0 0.0002475 4041.19678 4059.35693
4040.0 0.0002475 4038.23096 4055.92334
4050.0 0.0002469 4035.23730 4052.26929
4060.0 0.0002463 4032.21802 4048.40015
4070.0 0.0002457 4029.18066 4044.42676
4050.0 0.0002469 4026.13013 4040.39233
4050.0 0.0002469 4023.07202 4036.50220
4020.0 0.0002488 4020.01367 4032.65918
4020.0 0.0002488 4016.96069 4028.82910
4000.0 0.0002500 4013.91870 4025.16577
3990.0 0.0002506 4010.89648 4021.60205
3990.0 0.0002506 4007.89795 4018.21118
3990.0 0.0002506 4004.93066 4014.93970
4000.0 0.0002500 4001.99878 4011.89209
4020.0 0.0002488 3999.10962 4009.14795
4040.0 0.0002475 3996.26709 4006.72217
4040.0 0.0002475 3993.47559 4004.74536
4030.0 0.0002481 3990.73999 4003.15088
4030.0 0.0002481 3988.06055 4001.97827
4020.0 0.0002488 3985.44263 4001.26001
4020.0 0.0002488 3982.88428 4000.85010
4010.0 0.0002494 3980.38818 4000.62256
4020.0 0.0002488 3977.95117 4000.44214
4020.0 0.0002488 3975.57080 4000.15356
4010.0 0.0002494 3973.24390 3999.63770
3990.0 0.0002506 3970.96631 3998.79419
4000.0 0.0002500 3968.72974 3997.56299
4000.0 0.0002500 3966.52881 3996.01172
3980.0 0.0002513 3964.35229 3994.18335
3970.0 0.0002519 3962.19312 3992.17920
3980.0 0.0002513 3960.03687 3989.95020
3980.0 0.0002513 3957.87329 3987.51685
3950.0 0.0002532 3955.68726 3984.86060
3960.0 0.0002525 3953.46558 3981.99268
3980.0 0.0002513 3951.19482 3978.92188
3980.0 0.0002513 3948.85864 3975.71899
3990.0 0.0002506 3946.44189 3972.40845
3980.0 0.0002513 3943.93091 3969.15454
3960.0 0.0002525 3941.31177 3966.03247
3950.0 0.0002532 3938.56958 3963.07861
3960.0 0.0002525 3935.69312 3960.30640
3950.0 0.0002532 3932.67432 3957.69482
3950.0 0.0002532 3929.50269 3955.15015
3940.0 0.0002538 3926.17358 3952.55225
3950.0 0.0002532 3922.68481 3949.83691
3930.0 0.0002545 3919.03516 3946.88745
3940.0 0.0002538 3915.23096 3943.56006
3960.0 0.0002525 3911.27954 3939.80103
3960.0 0.0002525 3907.19238 3935.62842
3940.0 0.0002538 3902.98877 3931.00073
3930.0 0.0002545 3898.68921 3926.01538
3910.0 0.0002558 3894.31909 3920.70850
3920.0 0.0002551 3889.91064 3915.18579
3910.0 0.0002558 3885.49927 3909.60278
3890.0 0.0002571 3881.12158 3904.08179
3890.0 0.0002571 3876.82104 3898.73828
3890.0 0.0002571 3872.64355 3893.67261
3910.0 0.0002558 3868.63550 3888.96265
3900.0 0.0002564 3864.84619 3884.69238
3890.0 0.0002571 3861.31934 3880.86914
3880.0 0.0002577 3858.10278 3877.43799
3860.0 0.0002591 3855.23828 3874.62891
3870.0 0.0002584 3852.75781 3872.30981
3870.0 0.0002584 3850.69043 3870.44678
3870.0 0.0002584 3849.05518 3869.03223
3870.0 0.0002584 3847.85498 3867.96973
3860.0 0.0002591 3847.08154 3867.19385
3870.0 0.0002584 3846.70752 3866.56592
3870.0 0.0002584 3846.69043 3866.18774
3860.0 0.0002591 3846.96582 3865.88379
3870.0 0.0002584 3847.44702 3865.54785
3870.0 0.0002584 3848.03052 3865.17505
3870.0 0.0002584 3848.59082 3864.66138
3870.0 0.0002584 3848.98633 3863.91553
3870.0 0.0002584 3849.06372 3862.88403
3850.0 0.0002597 3848.66504 3861.51050
3840.0 0.0002604 3847.64014 3859.72534
3840.0 0.0002604 3845.85449 3857.45850
3850.0 0.0002597 3843.21436 3854.63354
3850.0 0.0002597 3839.68726 3851.30005
3860.0 0.0002591 3835.33765 3847.49512
3850.0 0.0002597 3830.35718 3843.33521
3840.0 0.0002604 3825.12183 3839.17578
3850.0 0.0002597 3820.24658 3835.61279
3840.0 0.0002604 3816.65527 3833.46191
3830.0 0.0002611 3815.67798 3833.95947
3830.0 0.0002611 3819.14429 3838.78687
3850.0 0.0002597 3829.52246 3850.44824
3850.0 . . .
3840.0 . . .
3820.0 . . .
3820.0 . . .
3820.0 . . .
3840.0 . . .
3840.0 . . .
3850.0 . . .
3840.0 . . .
3840.0 . . .
3830.0 . . .
3820.0 . . .
3830.0 . . .
3820.0 . . .
3800.0 . . .
3780.0 . . .
3780.0 . . .
3770.0 . . .
3750.0 . . .
3770.0 . . .
3770.0 . . .
3760.0 . . .
3750.0 . . .
3740.0 . . .
3740.0 . . .
3740.0 . . .
3740.0 . . .
3740.0 . . .
3740.0 . . .
3740.0 . . .
3730.0 . . .
3720.0 . . .
3710.0 . . .
3710.0 . . .
3730.0 . . .
3750.0 . . .
3750.0 . . .
3750.0 . . .
3750.0 . . .
3750.0 . . .
3750.0 . . .
3750.0 . . .
3750.0 . . .
3750.0 . . .
3740.0 . . .
3740.0 . . .
3740.0 . . .
3730.0 . . .
3720.0 . . .
3700.0 . . .
3700.0 . . .
3700.0 . . .
3700.0 . . .
3700.0 . . .
3700.0 . . .
3690.0 . . .
3700.0 . . .
3710.0 . . .
3700.0 . . .
3690.0 . . .
3680.0 . . .
3680.0 . . .
3670.0 . . .
3660.0 . . .
3660.0 . . .
3650.0 . . .
3650.0 . . .
3660.0 . . .
3640.0 . . .
3640.0 . . .
3620.0 . . .
3630.0 . . .
3640.0 . . .
3640.0 . . .
3630.0 . . .
3610.0 . . .
3600.0 . . .
3610.0 . . .
3600.0 . . .
3590.0 . . .
3580.0 . . .
3580.0 . . .
3590.0 . . .
3590.0 . . .
3590.0 . . .
3580.0 . . .
3580.0 . . .
3560.0 . . .
3560.0 . . .
3550.0 . . .
3540.0 . . .
3540.0 . . .
3540.0 . . .
3530.0 . . .
3510.0 . . .
3500.0 . . .
3510.0 . . .
3510.0 . . .
3510.0 . . .
3520.0 . . .
3500.0 . . .
3510.0 . . .
3510.0 . . .
3510.0 . . .
3500.0 . . .
3510.0 . . .
3510.0 . . .
3490.0 . . .
3500.0 . . .
3480.0 . . .
3470.0 . . .
3480.0 . . .
3490.0 . . .
3480.0 . . .
3460.0 . . .
3460.0 . . .
3470.0 . . .
3460.0 . . .
3450.0 . . .
3440.0 . . .
3450.0 . . .
3470.0 . . .
3470.0 . . .
3470.0 . . .
3450.0 . . .
3450.0 . . .
3460.0 . . .
3450.0 . . .
3450.0 . . .
3430.0 . . .
3420.0 . . .
3430.0 . . .
3430.0 . . .
3420.0 . . .
3410.0 . . .
3400.0 . . .
3390.0 . . .
3390.0 . . .
3400.0 . . .
3390.0 . . .
3380.0 . . .
3370.0 . . .
3380.0 . . .
3380.0 . . .
3380.0 . . .
3390.0 . . .
3390.0 . . .
3380.0 . . .
3370.0 . . .
3370.0 . . .
3360.0 . . .
3360.0 . . .
3350.0 . . .
3360.0 . . .
3350.0 . . .
3350.0 . . .
3350.0 . . .
3350.0 . . .
3350.0 . . .
3350.0 . . .
3350.0 . . .
3350.0 . . .
3350.0 . . .
3350.0 . . .
3330.0 . . .
3320.0 . . .
3320.0 . . .
3310.0 . . .
3310.0 . . .
3310.0 . . .
3340.0 . . .
3360.0 . . .
3360.0 . . .
3360.0 . . .
3350.0 . . .
3350.0 . . .
3340.0 . . .
3340.0 . . .
3340.0 . . .
3320.0 . . .
3310.0 . . .
3310.0 . . .
3300.0 . . .
3310.0 . . .
3320.0 . . .
3340.0 . . .
3330.0 . . .
3340.0 . . .
3340.0 . . .
3320.0 . . .
3310.0 . . .
3320.0 . . .
3320.0 . . .
3320.0 . . .
3310.0 . . .
3300.0 . . .
3300.0 . . .
3300.0 . . .
3290.0 . . .
3280.0 . . .
3290.0 . . .
3270.0 . . .
3290.0 . . .
3300.0 . . .
3290.0 . . .
3290.0 . . .
3270.0 . . .
3270.0 . . .
3260.0 . . .
3250.0 . . .
3270.0 . . .
3280.0 . . .
3270.0 . . .
3260.0 . . .
3260.0 . . .
3260.0 . . .
3250.0 . . .
3250.0 . . .
3260.0 . . .
3270.0 . . .
3270.0 . . .
3260.0 . . .
3250.0 . . .
3240.0 . . .
3240.0 . . .
3240.0 . . .
3240.0 . . .
3230.0 . . .
3230.0 . . .
3220.0 . . .
3210.0 . . .
3200.0 . . .
3200.0 . . .
3210.0 . . .
3200.0 . . .
3200.0 . . .
3190.0 . . .
3180.0 . . .
3160.0 . . .
3150.0 . . .
3150.0 . . .
3160.0 . . .
3160.0 . . .
3170.0 . . .
3160.0 . . .
3150.0 . . .
3160.0 . . .
3150.0 . . .
3150.0 . . .
3150.0 . . .
3160.0 . . .
3170.0 . . .
3180.0 . . .
3170.0 . . .
3150.0 . . .
3130.0 . . .
3120.0 . . .
3110.0 . . .
3110.0 . . .
3120.0 . . .
3120.0 . . .
3110.0 . . .
3120.0 . . .
3110.0 . . .
3120.0 . . .
3130.0 . . .
3130.0 . . .
3120.0 . . .
3110.0 . . .
3100.0 . . .
3090.0 . . .
3090.0 . . .
3080.0 . . .
3080.0 . . .
3070.0 . . .
3070.0 . . .
3090.0 . . .
3090.0 . . .
3080.0 . . .
3070.0 . . .
3070.0 . . .
3070.0 . . .
3060.0 . . .
3060.0 . . .
3060.0 . . .
3040.0 . . .
3050.0 . . .
3050.0 . . .
3050.0 . . .
3030.0 . . .
3020.0 . . .
3020.0 . . .
3030.0 . . .
3030.0 . . .
3020.0 . . .
3030.0 . . .
3020.0 . . .
3020.0 . . .
3010.0 . . .
3010.0 . . .
3010.0 . . .
3020.0 . . .
3020.0 . . .
3020.0 . . .
3010.0 . . .
3000.0 . . .
3010.0 . . .
3010.0 . . .
3000.0 . . .
3000.0 . . .
3010.0 . . .
3010.0 . . .
3010.0 . . .
3000.0 . . .
2990.0 . . .
2980.0 . . .
2980.0 . . .
2980.0 . . .
2990.0 . . .
2980.0 . . .
2970.0 . . .
2980.0 . . .
3000.0 . . .
3000.0 . . .
3000.0 . . .
2980.0 . . .
2970.0 . . .
2970.0 . . .
2970.0 . . .
2960.0 . . .
2960.0 . . .
2960.0 . . .
2960.0 . . .
2970.0 . . .
2970.0 . . .
2960.0 . . .
2960.0 . . .
2960.0 . . .
2960.0 . . .
2950.0 . . .
2960.0 . . .
2960.0 . . .
2950.0 . . .
2940.0 . . .
2930.0 . . .
2930.0 . . .
2930.0 . . .
2920.0 . . .
2920.0 . . .
2920.0 . . .
2920.0 . . .
2910.0 . . .
2890.0 . . .
2890.0 . . .
2890.0 . . .
2880.0 . . .
2880.0 . . .
2880.0 . . .
2890.0 . . .
2870.0 . . .
2860.0 . . .
2850.0 . . .
2850.0 . . .
2860.0 . . .
2850.0 . . .
2860.0 . . .
2860.0 . . .
2850.0 . . .
2850.0 . . .
2850.0 . . .
2860.0 . . .
2850.0 . . .
2850.0 . . .
2850.0 . . .
2850.0 . . .
2840.0 . . .
2840.0 . . .
2850.0 . . .
2840.0 . . .
2830.0 . . .
2830.0 . . .
2820.0 . . .
2820.0 . . .
2800.0 . . .
2790.0 . . .
2780.0 . . .
2770.0 . . .
2760.0 . . .
2760.0 . . .
2750.0 . . .
2730.0 . . .
2710.0 . . .
2710.0 . . .
2700.0 . . .
2690.0 . . .
2670.0 . . .
2640.0 . . .
2620.0 . . .
2600.0 . . .
2580.0 . . .
2560.0 . . .
2550.0 . . .
2530.0 . . .
2520.0 . . .
2510.0 . . .
2500.0 . . .
2480.0 . . .
2460.0 . . .
2440.0 . . .
2430.0 . . .
2410.0 . . .
2400.0 . . .
2400.0 . . .
2370.0 . . .
2270.0 . . .
2000.0 . . .
1820.0 . . .
1680.0 . . .
1560.0 . . .
1460.0 . . .
1370.0 . . .
1280.0 . . .
1200.0 . . .
1120.0 . . .
1050.0 . . .
967.0 . . .
894.0 . . .
828.0 . . .
752.0 . . .
667.0 . . .
580.0 . . .
483.0 . . .
346.0 . . .
84.0 . . .
0.0 . . .
0.0 . . .
0.0 . . .
0.0 . . .
0.0 . . .
0.0 . . .
0.0 . . .
0.0 . . .
0.0 . . .
0.0 . . .
0.0 . . .
0.0 . . .
0.0 . . .
0.0 . . .
0.0 . . .
0.0 . . .
0.0 . . .
0.0 . . .
0.0 . . .
0.0 . . .
0.0 . . .
0.0 . . .
0.0 . . .
0.0 . . .
0.0 . . .
0.0 . . .
0.0 . . .
0.0 . . .
0.0 . . .
0.0 . . .
0.0 . . .
0.0 . . .
0.0 . . .
0.0 . . .
0.0 . . .
0.0 . . .
0.0 . . .
0.0 . . .
0.0 . . .
0.0 . . .
0.0 . . .
0.0 . . .
0.0 . . .
0.0 . . .
0.0 . . .
0.0 . . .
0.0 . . .
0.0 . . .
0.0 . . .
0.0 . . .
0.0 . . .
0.0 . . .
0.0 . . .
0.0 . . .
0.0 . . .
0.0 . . .
0.0 . . .
0.0 . . .
0.0 . . .
0.0 . . .
0.0 . . .
0.0 . . .
0.0 . . .
0.0 . . .
0.0 . . .
0.0 . . .
0.0 . . .
0.0 . . .
0.0 . . .
0.0 . . .
0.0 . . .
0.0 . . .
0.0 . . .
0.0 . . .
0.0 . . .
0.0 . . .
0.0 . . .
0.0 . . .
0.0 . . .
0.0 . . .
0.0 . . .
0.0 . . .
0.0 . . .
0.0 . . .
0.0 . . .
0.0 . . .
0.0 . . .
0.0 . . .
0.0 . . .
0.0 . . .
0.0 . . .
0.0 . . .
0.0 . . .
0.0 . . .
0.0 . . .
0.0 . . .
0.0 . . .
0.0 . . .
0.0 . . .
0.0 . . .
0.0 . . .
0.0 . . .
0.0 . . .
0.0 . . .
0.0 . . .
0.0 . . .
0.0 . . .
0.0 . . .
0.0 . . .
0.0 . . .
0.0 . . .
0.0 . . .
0.0 . . .
0.0 . . .
0.0 . . .
0.0 . . .
0.0 . . .
0.0 . . .
0.0 . . .
0.0 . . .
0.0 . . .
0.0 . . .
0.0 . . .
0.0 . . .
0.0 . . .
0.0 . . .
0.0 . . .
0.0 . . .
0.0 . . .
0.0 . . .
0.0 . . .
0.0 . . .
0.0 . . .
0.0 . . .
0.0 . . .
0.0 . . .
0.0 . . .
0.0 . . .
0.0 . . .
0.0 . . .
0.0 . . .
0.0 . . .
0.0 . . .
0.0 . . .
0.0 . . .
0.0 . . .
0.0 . . .
0.0 . . .
0.0 . . .
0.0 . . .
0.0 . . .
0.0 . . .
0.0 . . .
0.0 . . .
0.0 . . .
0.0 . . .
0.0 . . .
0.0 . . .
0.0 . . .
0.0 . . .
0.0 . . .
0.0 . . .
0.0 . . .
0.0 . . .
0.0 . . .
0.0 . . .
0.0 . . .
0.0 . . .
0.0 . . .
0.0 . . .
0.0 . . .
0.0 . . .
0.0 . . .
0.0 . . .
0.0 . . .
0.0 . . .
0.0 . . .
0.0 . . .
0.0 . . .
0.0 . . .
0.0 . . .
0.0 . . .
0.0 . . .
0.0 . . .
0.0 . . .
0.0 . . .
0.0 . . .
0.0 . . .
0.0 . . .
0.0 . . .
0.0 . . .
0.0 . . .
0.0 . . .
0.0 . . .
0.0 . . .
0.0 . . .
0.0 . . .
0.0 . . .
0.0 . . .
0.0 . . .
0.0 . . .
0.0 . . .
0.0 . . .
0.0 . . .
0.0 . . .
0.0 . . .
0.0 . . .
0.0 . . .
0.0 . . .
0.0 . . .
0.0 . . .
0.0 . . .
0.0 . . .
0.0 . . .
0.0 . . .
0.0 . . .
0.0 . . .
0.0 . . .
0.0 . . .
0.0 . . .
0.0 . . .
0.0 . . .
0.0 . . .
0.0 . . .
0.0 . . .
0.0 . . .
0.0 . . .
0.0 . . .
0.0 . . .
0.0 . . .
0.0 . . .
0.0 . . .
0.0 . . .
0.0 . . .
0.0 . . .
0.0 . . .
0.0 . . .
0.0 . . .
0.0 . . .
0.0 . . .
0.0 . . .
0.0 . . .
0.0 . . .
0.0 . . .
0.0 . . .
0.0 . . .
0.0 . . .
0.0 . . .
0.0 . . .
0.0 . . .
0.0 . . .
0.0 . . .
0.0 . . .
0.0 . . .
0.0 . . .
0.0 . . .
0.0 . . .
0.0 . . .
0.0 . . .
0.0 . . .
0.0 . . .
0.0 . . .
0.0 . . .
0.0 . . .
0.0 . . .
0.0 . . .
0.0 . . .
0.0 . . .
0.0 . . .
0.0 . . .
0.0 . . .
0.0 . . .
0.0 . . .
0.0 . . .
0.0 . . .
0.0 . . .
0.0 . . .
0.0 . . .
0.0 . . .
0.0 . . .
0.0 . . .
0.0 . . .
0.0 . . .
0.0 . . .
0.0 . . .
0.0 . . .
0.0 . . .
0.0 . . .
0.0 . . .
0.0 . . .
0.0 . . .
0.0 . . .
0.0 . . .
0.0 . . .
0.0 . . .
0.0 . . .
0.0 . . .
0.0 . . .
0.0 . . .
0.0 . . .
0.0 . . .
0.0 . . .
0.0 . . .
0.0 . . .
0.0 . . .
0.0 . . .
0.0 . . .
0.0 . . .
0.0 . . .
0.0 . . .
0.0 . . .
0.0 . . .
0.0 . . .
0.0 . . .
0.0 . . .
0.0 . . .
0.0 . . .
0.0 . . .
0.0 . . .
0.0 . . .
0.0 . . .
0.0 . . .
0.0 . . .
0.0 . . .
0.0 . . .
0.0 . . .
0.0 . . .
0.0 . . .
0.0 . . .
0.0 . . .
0.0 . . .
0.0 . . .
0.0 . . .
0.0 . . .
0.0 . . .
0.0 . . .
0.0 . . .
0.0 . . .
0.0 . . .
0.0 . . .
0.0 . . .
0.0 . . .
0.0 . . .
0.0 . . .
0.0 . . .
0.0 . . .
0.0 . . .
0.0 . . .
0.0 . . .
0.0 . . .
0.0 . . .
0.0 . . .
0.0 . . .
0.0 . . .
0.0 . . .
0.0 . . .
0.0 . . .
0.0 . . .
0.0 . . .
0.0 . . .
0.0 . . .
0.0 . . .
0.0 . . .
0.0 . . .
0.0 . . .
0.0 . . .
0.0 . . .
0.0 . . .
0.0 . . .
0.0 . . .
0.0 . . .
0.0 . . .
0.0 . . .
0.0 . . .
0.0 . . .
0.0 . . .
0.0 . . .
0.0 . . .
0.0 . . .
0.0 . . .
0.0 . . .
0.0 . . .
0.0 . . .
0.0 . . .
0.0 . . .
0.0 . . .
0.0 . . .
0.0 . . .
0.0 . . .
0.0 . . .
0.0 . . .
0.0 . . .
0.0 . . .
0.0 . . .
0.0 . . .
0.0 . . .
0.0 . . .
0.0 . . .
0.0 . . .
0.0 . . .
0.0 . . .
0.0 . . .
0.0 . . .
0.0 . . .
0.0 . . .
0.0 . . .
0.0 . . .
0.0 . . .
0.0 . . .
0.0 . . .
0.0 . . .
0.0 . . .
0.0 . . .
0.0 . . .
0.0 . . .
0.0 . . .
0.0 . . .
0.0 . . .
0.0 . . .
0.0 . . .
0.0 . . .
0.0 . . .
0.0 . . .
0.0 . . .
0.0 . . .
0.0 . . .
0.0 . . .
0.0 . . .
0.0 . . .
0.0 . . .
loop_
_refln_index_h
_refln_index_k
_refln_index_l
_refln_observed_status
_refln_F_squared_meas
_refln_F_squared_calc
_refln_phase_calc
_refln_d_spacing
_gsas_i100_meas
0 0 1 o 838.393 832.398 0.00 7.03309 28.87
1 1 -1 o 346.177 344.182 0.00 4.51045 27.40
0 1 1 o 21.897 25.547 0.00 4.46918 1.05
1 1 0 o 1721.766 1720.638 0.00 4.32849 100.00
2 0 -1 o 1814.302 1787.878 0.00 3.90910 51.91
2 0 -2 o 438.365 457.481 180.00 3.59867 9.77
0 0 2 o 263.091 228.271 180.00 3.51654 2.27
1 1 -2 o 123.043 114.187 180.00 3.42258 3.57
2 0 0 o 1929.069 2002.964 0.00 3.25997 22.92
2 1 -1 o 1437.098 1416.978 180.00 3.23949 58.59
1 1 1 o 124.946 107.989 180.00 3.19395 2.40
2 1 -2 o 0.000 12.857 0.00 3.05613 0.00
0 1 2 o 45.666 19.144 0.00 3.00535 0.71
0 2 0 o 261.649 310.644 180.00 2.89401 4.69
2 1 0 o 1578.652 1517.053 180.00 2.84043 32.51
2 0 -3 o 1.013 2.046 0.00 2.77962 0.01
1 2 -1 o 20.107 22.460 0.00 2.68508 0.60
0 2 1 o 243.872 241.294 180.00 2.67629 5.86
1 2 0 o 141.901 151.463 180.00 2.64514 3.74
2 1 -3 o 8.676 34.477 0.00 2.50566 0.15
1 1 -3 o 289.680 239.200 0.00 2.48441 3.43
2 0 1 o 57.109 32.326 180.00 2.47548 0.29
1 2 -2 o 99.361 112.741 0.00 2.39103 1.78
3 1 -2 o 0.217 0.220 180.00 2.38491 0.00
0 0 3 o 272.134 509.521 0.00 2.34436 1.04
1 1 2 o 2.414 3.366 180.00 2.33690 0.02
2 2 -1 o 14.427 16.867 0.00 2.32597 0.32
1 2 1 o 40.751 39.044 180.00 2.30894 0.57
3 1 -1 o 666.513 566.304 0.00 2.30342 11.80
2 1 1 o 0.128 0.115 0.00 2.27605 0.00
0 2 2 o 55.910 73.155 0.00 2.23459 0.67
2 2 -2 o 2.341 5.080 0.00 2.25523 0.05
3 1 -3 o 108.730 110.676 0.00 2.21627 1.89
0 1 3 o 37.542 44.572 0.00 2.17289 0.28
2 2 0 o 53.485 74.619 180.00 2.16424 0.78
2 0 -4 o 0.000 30.474 0.00 2.12204 0.00
3 1 0 o 19.603 16.914 0.00 2.03461 0.19
2 2 -3 o 371.356 318.562 0.00 2.00471 4.59
1 2 -3 o 165.210 103.315 0.00 1.99378 1.57
2 1 -4 o 285.242 166.928 180.00 1.99236 2.47
4 0 -2 o 101.521 47.932 180.00 1.95455 0.73
4 0 -3 o 5.492 9.215 0.00 1.94221 0.04
3 2 -2 o 7.800 14.818 0.00 1.94124 0.12
3 1 -4 o 109.575 250.914 0.00 1.91813 1.15
2 0 2 o 31.267 58.469 0.00 1.91492 0.08
1 2 2 o 0.792 1.495 180.00 1.91508 0.01
3 2 -1 o 154.296 224.819 180.00 1.89653 1.99
1 1 -4 o 73.269 100.084 0.00 1.89289 0.45
2 2 1 o 116.665 111.222 180.00 1.88116 0.95
1 3 -1 o 91.827 76.319 180.00 1.86355 1.34
0 3 1 o 209.449 182.594 180.00 1.86060 2.75
4 1 -2 o 2.546 2.545 180.00 1.85182 0.03
1 3 0 o 82.309 82.866 180.00 1.85004 1.13
3 2 -3 o 59.786 59.840 0.00 1.84699 0.76
4 1 -3 o 209.586 196.391 0.00 1.84131 2.82
4 0 -1 o 0.476 0.420 180.00 1.82923 0.00
0 2 3 o 70.181 67.688 0.00 1.82165 0.45
2 1 2 o 3.865 3.821 0.00 1.81801 0.02
4 0 -4 o 80.824 60.430 0.00 1.79933 0.45
1 1 3 o 122.447 91.179 0.00 1.80003 0.58
1 3 -2 o 0.620 1.273 0.00 1.75637 0.01
0 0 4 o 68.503 218.563 0.00 1.75827 0.15
4 1 -1 o 694.030 644.404 180.00 1.74420 6.36
3 2 0 o 277.882 221.241 180.00 1.73784 2.30
2 3 -1 o 197.618 153.011 0.00 1.73010 2.46
3 1 1 o 37.571 30.504 180.00 1.72750 0.21
1 3 1 o 23.564 22.054 180.00 1.72305 0.22
4 1 -4 o 26.577 29.821 0.00 1.71822 0.28
2 2 -4 o 97.087 120.893 0.00 1.71129 0.71
2 3 -2 o 3.589 5.549 0.00 1.70038 0.04
0 3 2 o 0.985 34.244 180.00 1.69149 0.01
0 1 4 o 0.000 90.410 0.00 1.68236 0.00
2 0 -5 o 0.000 20.716 180.00 1.67801 0.00
3 2 -4 o 0.000 9.494 180.00 1.66356 0.00
2 3 0 o 0.000 0.492 180.00 1.66035 0.00
1 2 -4 o 0.000 0.147 180.00 1.64701 0.00
4 0 0 o 0.000 50.183 180.00 1.62998 0.00
4 2 -2 o 55.338 45.136 0.00 1.61974 0.57
3 1 -5 o 0.271 0.271 0.00 1.62128 0.00
4 2 -3 o 0.280 0.130 180.00 1.61270 0.00
2 1 -5 o 57.193 25.571 180.00 1.61165 0.28
2 2 2 o 27.313 17.759 0.00 1.59697 0.13
4 0 -5 o 71.049 46.140 180.00 1.59501 0.26
2 3 -3 o 0.819 0.633 180.00 1.58496 0.01
1 2 3 o 52.778 41.062 180.00 1.58475 0.23
1 3 -3 o 64.754 56.707 0.00 1.57954 0.46
4 1 0 o 241.471 203.336 180.00 1.56896 1.39
3 3 -2 o 88.427 68.621 180.00 1.55303 0.89
4 2 -1 o 334.770 285.227 0.00 1.54625 2.58
1 3 2 o 153.403 146.913 0.00 1.53954 0.92
4 1 -5 o 6.875 6.826 180.00 1.53769 0.05
2 0 3 o 345.098 339.477 0.00 1.53816 0.57
3 2 1 o 9.713 10.175 0.00 1.53458 0.05
3 3 -1 o 0.569 0.619 180.00 1.52985 0.01
4 2 -4 o 141.265 155.517 0.00 1.52806 1.20
2 3 1 o 14.634 26.979 180.00 1.52175 0.09
5 1 -3 o 0.349 2.537 0.00 1.51907 0.00
1 1 -5 o 0.000 2.389 0.00 1.51340 0.00
3 3 -3 o 0.000 15.534 180.00 1.50348 0.00
0 2 4 o 0.000 50.201 180.00 1.50267 0.00
0 3 3 o 40.460 83.240 180.00 1.48973 0.22
5 1 -4 o 82.880 115.243 0.00 1.48627 0.71
5 1 -2 o 11.919 14.541 0.00 1.48339 0.09
2 1 3 o 30.000 42.648 180.00 1.48657 0.10
3 1 2 o 52.105 27.811 0.00 1.46013 0.18
3 2 -5 o 126.853 67.559 180.00 1.45867 0.70
2 2 -5 o 3.347 1.922 0.00 1.45164 0.02
1 1 4 o 7.318 4.200 0.00 1.45159 0.02
0 4 0 o 17.393 8.242 0.00 1.44701 0.08
3 3 0 o 56.721 18.964 180.00 1.44283 0.37
2 3 -4 o 97.175 35.653 0.00 1.42753 0.56
4 0 1 o 0.133 0.079 180.00 1.42228 0.00
4 2 0 o 7.021 5.584 180.00 1.42021 0.04
1 4 -1 o 26.832 29.895 0.00 1.41862 0.23
0 4 1 o 7.941 13.566 180.00 1.41732 0.06
1 4 0 o 0.000 0.127 0.00 1.41263 0.00
0 0 5 o 0.000 9.018 180.00 1.40662 0.00
3 3 -4 o 0.157 0.625 0.00 1.39947 0.00
5 1 -5 o 0.077 0.160 0.00 1.39691 0.00
4 2 -5 o 13.875 28.822 0.00 1.39690 0.08
5 1 -1 o 4.388 7.972 0.00 1.39213 0.02
1 2 -5 o 0.347 0.327 0.00 1.37861 0.00
4 0 -6 o 14.876 28.947 0.00 1.38981 0.04
1 3 -4 o 45.832 89.472 180.00 1.38957 0.21
4 3 -2 o 3.479 2.712 180.00 1.37308 0.03
2 0 -6 o 4.433 3.576 0.00 1.37535 0.01
3 1 -6 o 39.211 30.861 0.00 1.37424 0.16
5 2 -3 o 0.209 0.281 180.00 1.38289 0.00
4 3 -3 o 105.108 91.622 180.00 1.36878 0.81
1 4 -2 o 65.571 54.978 180.00 1.36959 0.47
4 1 1 o 2.680 3.074 0.00 1.38119 0.01
0 1 5 o 2.806 2.747 0.00 1.36683 0.01
5 2 -4 o 8.396 11.976 180.00 1.35801 0.06
2 3 2 o 13.638 19.812 180.00 1.35912 0.06
5 2 -2 o 34.614 44.700 180.00 1.35581 0.23
2 2 3 o 33.502 47.838 180.00 1.35824 0.10
2 4 -1 o 18.355 25.108 180.00 1.35702 0.14
1 4 1 o 10.693 12.333 180.00 1.35361 0.07
4 1 -6 o 27.026 29.133 0.00 1.35140 0.13
1 3 3 o 2.402 2.597 0.00 1.35156 0.01
2 4 -2 o 131.116 174.698 180.00 1.34254 0.98
3 2 2 o 0.095 0.116 0.00 1.33798 0.00
0 4 2 o 4.393 5.444 180.00 1.33815 0.03
2 1 -6 o 132.118 163.059 0.00 1.33809 0.42
1 2 4 o 73.260 42.158 180.00 1.33140 0.21
4 3 -1 o 3.675 1.477 0.00 1.32744 0.02
2 4 0 o 5.301 1.724 0.00 1.32257 0.04
3 3 1 o 0.000 0.000 0.00 1.32004 0.00
4 3 -4 o 56.874 21.510 180.00 1.31588 0.37
6 0 -4 o 318.454 211.336 0.00 1.30871 1.09
6 0 -3 o 27.274 23.063 0.00 1.30303 0.09
0 3 4 o 151.347 135.562 180.00 1.29956 0.53
5 2 -5 o 44.398 38.621 180.00 1.28884 0.26
5 2 -1 o 225.498 200.279 180.00 1.28508 1.11
2 4 -3 o 27.028 24.784 180.00 1.28351 0.16
1 4 -3 o 21.304 21.962 180.00 1.28062 0.11
6 1 -4 o 6.591 9.779 0.00 1.27649 0.04
5 1 -6 o 1.828 2.393 180.00 1.27758 0.01
4 2 1 o 3.749 5.588 180.00 1.27646 0.01
2 0 4 o 38.602 52.848 0.00 1.27718 0.04
5 1 0 o 4.380 23.319 180.00 1.27210 0.02
6 1 -3 o 0.843 18.513 0.00 1.27122 0.01
6 0 -5 o 0.000 11.896 0.00 1.27083 0.00
3 3 -5 o 0.000 19.875 180.00 1.27079 0.00
3 2 -6 o 0.010 5.796 0.00 1.27096 0.00
3 4 -2 o 0.000 18.490 180.00 1.26637 0.00
2 3 -5 o 0.000 4.945 0.00 1.26613 0.00
0 2 5 o 0.000 8.169 0.00 1.26510 0.00
1 4 2 o 0.000 0.234 180.00 1.25903 0.00
6 0 -2 o 0.000 20.038 180.00 1.25541 0.00
3 4 -1 o 0.000 45.128 0.00 1.25371 0.00
1 1 -6 o 0.000 23.929 0.00 1.25535 0.00
4 2 -6 o 0.000 4.850 180.00 1.25283 0.00
2 4 1 o 0.000 0.001 180.00 1.24924 0.00
3 1 3 o 1.345 2.187 0.00 1.24665 0.00
2 1 4 o 1.953 3.726 180.00 1.24718 0.00
4 3 0 o 0.062 0.068 180.00 1.24511 0.00
6 1 -5 o 7.642 4.410 0.00 1.24126 0.05
2 2 -6 o 86.449 57.048 0.00 1.24221 0.26
3 4 -3 o 336.215 149.937 180.00 1.23908 2.08
4 0 2 o 60.255 23.634 0.00 1.23774 0.08
0 4 3 o 7.556 2.348 0.00 1.23134 0.03
4 3 -5 o 15.986 5.419 180.00 1.22931 0.08
6 1 -2 o 0.071 0.030 0.00 1.22688 0.00
5 3 -3 o 155.702 153.870 180.00 1.21974 0.95
1 3 -5 o 59.986 80.644 180.00 1.21680 0.19
4 1 2 o 8.197 35.020 180.00 1.21037 0.02
1 1 5 o 0.012 0.035 0.00 1.21181 0.00
4 0 -7 o 92.359 407.358 0.00 1.21020 0.15
3 4 0 o 0.213 0.732 180.00 1.20446 0.00
5 3 -4 o 0.443 1.027 180.00 1.20256 0.00
5 3 -2 o 0.011 0.019 0.00 1.20103 0.00
2 3 3 o 18.233 43.402 180.00 1.20272 0.05
6 0 -6 o 0.704 1.082 180.00 1.19956 0.00
2 4 -4 o 30.708 37.174 180.00 1.19551 0.14
6 2 -4 o 7.904 9.097 180.00 1.19245 0.05
5 2 -6 o 11.390 13.254 180.00 1.19335 0.05
5 2 0 o 13.205 15.054 180.00 1.18888 0.05
6 2 -3 o 46.752 53.086 180.00 1.18815 0.25
3 3 2 o 34.056 38.799 0.00 1.18858 0.10
4 1 -7 o 114.370 120.619 0.00 1.18459 0.37
1 3 4 o 174.281 179.287 180.00 1.18397 0.46
6 0 -1 o 172.244 133.056 180.00 1.17813 0.32
3 4 -4 o 24.804 19.845 0.00 1.17889 0.12
3 1 -7 o 98.857 80.769 0.00 1.17932 0.27
6 1 -6 o 0.061 0.042 180.00 1.17460 0.00
1 2 -6 o 128.724 89.623 0.00 1.17517 0.30
1 4 -4 o 101.927 68.824 0.00 1.17295 0.38
0 0 6 o 69.899 47.203 180.00 1.17218 0.07
3 2 3 o 123.646 93.226 180.00 1.16802 0.28
2 2 4 o 171.715 127.037 180.00 1.16845 0.37
6 2 -5 o 17.315 16.919 0.00 1.16358 0.09
4 4 -2 o 127.670 129.146 180.00 1.16298 0.71
4 4 -3 o 101.098 115.404 180.00 1.16037 0.57
2 0 -7 o 8.184 9.336 0.00 1.16044 0.01
6 1 -1 o 23.376 26.731 180.00 1.15446 0.08
2 4 2 o 23.282 26.610 0.00 1.15447 0.08
5 3 -5 o 31.779 35.717 0.00 1.15373 0.16
6 2 -2 o 85.428 92.409 0.00 1.15171 0.38
5 3 -1 o 38.488 41.387 0.00 1.15104 0.16
5 1 -7 o 92.118 100.128 0.00 1.15217 0.33
1 4 3 o 2.731 2.935 180.00 1.14982 0.01
5 1 1 o 3.394 3.845 0.00 1.14681 0.01
0 1 6 o 38.702 42.018 180.00 1.14886 0.07
4 3 1 o 0.096 0.113 180.00 1.14483 0.00
1 5 -1 o 11.418 13.570 180.00 1.14292 0.06
0 5 1 o 6.585 7.801 0.00 1.14224 0.04
3 3 -6 o 8.015 9.384 180.00 1.14086 0.03
1 5 0 o 7.552 8.752 0.00 1.13978 0.04
4 2 2 o 4.007 4.622 0.00 1.13802 0.01
1 2 5 o 20.810 24.065 180.00 1.13922 0.04
2 1 -7 o 175.273 202.469 0.00 1.13780 0.38
4 4 -1 o 6.055 7.465 180.00 1.13486 0.03
0 3 5 o 42.435 49.614 180.00 1.13661 0.10
3 4 1 o 35.095 53.925 180.00 1.13022 0.13
4 4 -4 o 2.862 3.398 180.00 1.12761 0.01
4 3 -6 o 27.684 33.265 180.00 1.12769 0.10
2 3 -6 o 17.070 10.486 180.00 1.11992 0.05
1 5 -2 o 200.331 150.115 180.00 1.11681 1.00
0 4 4 o 88.780 63.827 180.00 1.11729 0.27
4 2 -7 o 8.973 6.902 180.00 1.11651 0.03
3 2 -7 o 67.180 74.000 0.00 1.11210 0.17
6 0 -7 o 239.624 279.277 0.00 1.11032 0.46
2 5 -1 o 0.081 0.095 180.00 1.10996 0.00
6 2 -6 o 7.581 8.811 180.00 1.10813 0.03
1 5 1 o 58.441 67.903 180.00 1.10809 0.27
7 1 -4 o 8.574 9.286 0.00 1.10312 0.04
2 5 -2 o 58.281 61.846 180.00 1.10199 0.30
0 5 2 o 56.307 56.680 0.00 1.09956 0.25
3 4 -5 o 91.702 90.956 0.00 1.09885 0.34
7 1 -5 o 9.345 8.915 0.00 1.09588 0.04
2 4 -5 o 163.459 155.544 180.00 1.09583 0.53
6 2 -1 o 87.350 81.742 0.00 1.09118 0.29
2 5 0 o 3.392 3.178 180.00 1.09087 0.02
6 1 -7 o 8.269 7.751 180.00 1.09044 0.03
5 2 -7 o 0.319 0.301 0.00 1.08925 0.00
6 0 0 o 32.822 31.662 180.00 1.08666 0.04
2 0 5 o 4.878 4.625 180.00 1.08858 0.00
7 1 -3 o 0.550 0.545 180.00 1.08381 0.00
5 2 1 o 6.950 6.835 0.00 1.08472 0.02
0 2 6 o 159.339 154.163 0.00 1.08645 0.29
6 3 -4 o 64.980 65.062 180.00 1.08306 0.31
5 3 -6 o 2.121 2.108 180.00 1.08372 0.01
4 0 3 o 1.974 1.962 0.00 1.08365 0.00
4 4 0 o 6.297 6.385 180.00 1.08212 0.02
5 3 0 o 12.255 12.827 180.00 1.08037 0.04
6 3 -3 o 75.413 79.878 180.00 1.07983 0.34
3 1 4 o 5.381 5.751 180.00 1.07942 0.01
2 2 -7 o 9.164 10.243 0.00 1.07708 0.02
4 4 -5 o 25.007 25.250 180.00 1.07170 0.10
6 1 0 o 1.799 1.711 180.00 1.06800 0.00
1 3 -6 o 18.791 18.247 0.00 1.07005 0.04
2 1 5 o 11.400 11.028 0.00 1.06983 0.02
1 1 -7 o 0.003 0.003 180.00 1.07031 0.00
2 5 -3 o 54.003 51.535 180.00 1.06864 0.24
