#------------------------------------------------------------------------------
#$Date: 2019-12-26 20:21:42 +0200 (Thu, 26 Dec 2019) $
#$Revision: 246046 $
#$URL: file:///home/coder/svn-repositories/cod/cif/2/30/06/2300653.cif $
#------------------------------------------------------------------------------
#
# This file is available in the Crystallography Open Database (COD),
# http://www.crystallography.net/. The original data for this entry
# were provided by IUCr Journals, http://journals.iucr.org/.
#
# The file may be used within the scientific community so long as
# proper attribution is given to the journal article from which the
# data were obtained.
#
data_2300653
loop_
_publ_author_name
'Likhacheva, Anna Y.'
'Rashchenko, Sergey V.'
'Litasov, Konstantin D.'
_publ_section_title
;
 High-pressure structural properties of naphthalene up to 6&#x2005;GPa
;
_journal_coeditor_code           kk5159
_journal_issue                   3
_journal_name_full               'Journal of Applied Crystallography'
_journal_page_first              984
_journal_paper_doi               10.1107/S1600576714005937
_journal_volume                  47
_journal_year                    2014
_chemical_formula_sum            'C5 H4'
_chemical_formula_weight         64.09
_space_group_IT_number           14
_space_group_name_Hall           '-P 2yab'
_space_group_name_H-M_alt        'P 1 21/a 1'
_symmetry_cell_setting           monoclinic
_symmetry_space_group_name_H-M   'P 1 21/a 1'
_audit_creation_date             2013-04-16T18:09
_audit_creation_method           'from EXP file using GSAS2CIF'
_audit_update_record
' 2013-04-16T18:09  Initial CIF as created by GSAS2CIF'
_cell_angle_alpha                90.0
_cell_angle_beta                 125.028(7)
_cell_angle_gamma                90.0
_cell_formula_units_Z            4
_cell_length_a                   7.6472(8)
_cell_length_b                   5.6840(5)
_cell_length_c                   8.3890(17)
_cell_volume                     298.60(8)
_computing_structure_refinement  GSAS
_diffrn_radiation_polarisn_ratio 0.95
_diffrn_radiation_probe          x-ray
_diffrn_radiation_wavelength     0.3685
_exptl_absorpt_correction_T_max  1.00000
_exptl_absorpt_correction_T_min  1.00000
_exptl_absorpt_process_details
;   GSAS Absorption/surface roughness correction: function number 0
 No correction is applied.
;
_pd_calc_method                  'Rietveld Refinement'
_pd_instr_location               ' ?'
_pd_meas_2theta_range_inc        0.0141
_pd_meas_2theta_range_max        31.9575
_pd_meas_2theta_range_min        0.021
_pd_meas_number_of_points        2266
_pd_phase_name                   naphthalene
_pd_prep_pressure                3.1
_pd_proc_2theta_range_inc        0.0141
_pd_proc_2theta_range_max        31.9575
_pd_proc_2theta_range_min        0.021
_pd_proc_info_datetime           2013-04-16T18:09:36
_pd_proc_info_excluded_regions   ' ?'
_pd_proc_ls_background_function
;   GSAS Background function number 1 with 29 terms.
 Shifted Chebyshev function of 1st kind
      1:    6759.15     2:   -1306.10     3:    20.7629     4:   -599.099    
      5:    490.663     6:   -197.189     7:   -13.7766     8:    22.2852    
      9:   -29.5809    10:   0.145046    11:   -20.7978    12:    37.3171    
     13:   -13.5206    14:   -1.19742    15:    2.62905    16:    11.2822    
     17:   0.681150    18:   -1.46947    19:   -10.8419    20:    16.0052    
     21:   -10.2862    22:    2.19094    23:   -11.2067    24:   -1.29137    
     25:   -1.40940    26:    6.55178    27:   -9.11712    28:    9.17643    
     29:   -5.86721    
;
_pd_proc_ls_peak_cutoff          0.01000
_pd_proc_ls_pref_orient_corr
;   March-Dollase
 AXIS  1 Ratio=     1.486 Frac     0.547  h= 0.000  k= 0.000  l= 1.000
 AXIS  2 Ratio=     1.224 Frac     0.453  h= 1.000  k= 0.000  l= 0.000
 Prefered orientation correction range: Min=   0.50073, Max=   1.60398
;
_pd_proc_ls_profile_function
;
 CW Profile function number 2 with  18 terms
 Profile coefficients for Simpson's rule integration of pseudovoigt function
 C.J. Howard (1982). J. Appl. Cryst.,15,615-620.
 P. Thompson, D.E. Cox & J.B. Hastings (1987). J. Appl. Cryst.,20,79-83.
 #1(GU)   = 2444.930 #2(GV)   =  -12.374 #3(GW)   =    4.350
 #4(LX)   =    0.008 #5(LY)   =   34.233 #6(trns) =    0.000
 #7(asym) =   0.1150 #8(shft) =   0.0000 #9(GP)   =    0.000
 #10(stec)=     0.00 #11(ptec)=     0.00 #12(sfec)=     0.00
 #13(L11) =    0.000 #14(L22) =    0.000 #15(L33) =    0.000
 #16(L12) =    0.000 #17(L13) =    0.000 #18(L23) =    0.000
 Peak tails are ignored  where the intensity is below 0.0100 times the peak
   Aniso. broadening axis   0.0   0.0   1.0
;
_pd_proc_ls_prof_R_factor        0.0048
_pd_proc_ls_prof_wR_expected     0.0121
_pd_proc_ls_prof_wR_factor       0.0072
_pd_proc_number_of_points        2266
_pd_spec_mounting                ' ?'
_refine_ls_goodness_of_fit_all   0.60
_refine_ls_matrix_type           full
_refine_ls_number_parameters     31
_refine_ls_number_restraints     10
_refine_ls_R_Fsqd_factor         0.13710
_refine_ls_shift/su_max          1.59
_refine_ls_shift/su_mean         0.57
_reflns_d_resolution_high        1.016
_reflns_d_resolution_low         6.870
_reflns_limit_h_max              7
_reflns_limit_h_min              0
_reflns_limit_k_max              5
_reflns_limit_k_min              0
_reflns_limit_l_max              7
_reflns_limit_l_min              -8
_reflns_number_total             302
_cod_data_source_file            kk5159sup7.cif
_cod_data_source_block           REF1_publ_310
_cod_depositor_comments
;
The following automatic conversions were performed:

data item '_geom_angle_publ_flag' value 'N' was changed to 'n' in
accordance with the
/home/saulius/struct/COD-crude-data/automatic-downloads/DataCite-retrospective/IUCr/depositions/lib/dictionaries/cif_core.dic
dictionary named 'cif_core.dic' version 2.4.2 last updated on
2011-04-26 (15 times).

data item '_geom_bond_publ_flag' value 'N' was changed to 'n' in
accordance with the
/home/saulius/struct/COD-crude-data/automatic-downloads/DataCite-retrospective/IUCr/depositions/lib/dictionaries/cif_core.dic
dictionary named 'cif_core.dic' version 2.4.2 last updated on
2011-04-26 (35 times).

Automatic conversion script
Id: cif_fix_values 7556 2019-12-06 15:28:31Z antanas 
;
_cod_original_cell_volume        298.60(6)
_cod_database_code               2300653
_gsas_exptl_extinct_corr_t_min   1.00000
_gsas_exptl_extinct_corr_t_max   1.00000
loop_
_symmetry_equiv_pos_site_id
_symmetry_equiv_pos_as_xyz
1 +x,+y,+z
2 -x+1/2,+y+1/2,-z
-1 -x,-y,-z
-2 +x+1/2,-y+1/2,+z
loop_
_atom_site_type_symbol
_atom_site_label
_atom_site_fract_x
_atom_site_fract_y
_atom_site_fract_z
_atom_site_occupancy
_atom_site_thermal_displace_type
_atom_site_U_iso_or_equiv
_atom_site_symmetry_multiplicity
C C1 0.0890(10) 0.0204(11) 0.3385(7) 1.0 Uiso 0.035 4
C C2 0.1203(11) 0.1679(10) 0.2287(7) 1.0 Uiso 0.03 4
C C3 0.0503(10) 0.1086(6) 0.0369(7) 1.0 Uiso 0.023 4
C C4 0.0803(10) 0.2631(9) -0.0783(7) 1.0 Uiso 0.023 4
C C5 -0.0132(10) -0.1958(9) 0.2612(7) 1.0 Uiso 0.03 4
H H1 0.1324(34) 0.062(5) 0.4626(12) 1.0 Uiso 0.04 4
H H2 0.177(5) 0.3148(17) 0.280(4) 1.0 Uiso 0.035 4
H H4 0.1478(31) 0.4068(17) -0.030(6) 1.0 Uiso 0.027 4
H H5 -0.0319(22) -0.2989(25) 0.3358(15) 1.0 Uiso 0.035 4
loop_
_atom_type_symbol
_atom_type_number_in_cell
_atom_type_scat_dispersion_real
_atom_type_scat_dispersion_imag
_atom_type_scat_Cromer_Mann_a1
_atom_type_scat_Cromer_Mann_a2
_atom_type_scat_Cromer_Mann_a3
_atom_type_scat_Cromer_Mann_a4
_atom_type_scat_Cromer_Mann_b1
_atom_type_scat_Cromer_Mann_b2
_atom_type_scat_Cromer_Mann_b3
_atom_type_scat_Cromer_Mann_b4
_atom_type_scat_Cromer_Mann_c
_atom_type_scat_source
C 20.0 0.000 0.000 2.31000 20.8439 1.02000 10.2075 1.58860 0.56870 0.86500
51.6512 0.21560 International_Tables_Vol_C
H 16.0 0.000 0.000 0.49300 10.5109 0.32291 26.1257 0.14019 3.14236 0.04081
57.7997 0.00304 International_Tables_Vol_C
loop_
_geom_angle_atom_site_label_1
_geom_angle_atom_site_label_2
_geom_angle_atom_site_label_3
_geom_angle
_geom_angle_site_symmetry_1
_geom_angle_site_symmetry_3
_geom_angle_publ_flag
C2 C1 C5 119.6(5) 1_555 1_555 n
C2 C1 H1 120.9(21) 1_555 1_555 n
C5 C1 H1 119.5(22) 1_555 1_555 n
C1 C2 C3 121.5(5) 1_555 1_555 n
C1 C2 H2 117.1(27) 1_555 1_555 n
C3 C2 H2 121.0(26) 1_555 1_555 n
C2 C3 C3 117.8(7) 1_555 -1_555 n
C2 C3 C4 121.6(4) 1_555 1_555 n
C3 C3 C4 120.6(6) -1_555 1_555 n
C3 C4 C5 119.3(5) 1_555 -1_555 n
C3 C4 H4 121.1(32) 1_555 1_555 n
C5 C4 H4 119.6(32) -1_555 1_555 n
C1 C5 C4 121.1(6) 1_555 -1_555 n
C1 C5 H5 120.2(10) 1_555 1_555 n
C4 C5 H5 118.6(10) -1_555 1_555 n
loop_
_geom_bond_atom_site_label_1
_geom_bond_atom_site_label_2
_geom_bond_distance
_geom_bond_site_symmetry_2
_geom_bond_publ_flag
C1 C2 1.365(6) 1_555 n
C1 C5 1.400(5) 1_555 n
C1 H1 0.923(9) 1_555 n
C1 H2 1.967(26) 1_555 n
C1 H5 2.031(12) 1_555 n
C2 C1 1.365(6) 1_555 n
C2 C3 1.415(6) 1_555 n
C2 H1 2.003(20) 1_555 n
C2 H2 0.925(8) 1_555 n
C3 C2 1.415(6) 1_555 n
C3 C3 1.398(6) -1_555 n
C3 C4 1.419(6) 1_555 n
C3 H2 2.051(26) 1_555 n
C3 H4 2.055(29) 1_555 n
C4 C3 1.419(6) 1_555 n
C4 C5 1.364(6) -1_555 n
C4 H4 0.926(8) 1_555 n
C4 H5 1.982(12) -1_555 n
C5 C1 1.400(5) 1_555 n
C5 C4 1.364(6) -1_555 n
C5 H1 2.021(23) 1_555 n
C5 H4 1.991(32) -1_555 n
C5 H5 0.927(9) 1_555 n
H1 C1 0.923(9) 1_555 n
H1 C2 2.003(20) 1_555 n
H1 C5 2.021(23) 1_555 n
H2 C1 1.967(26) 1_555 n
H2 C2 0.925(8) 1_555 n
H2 C3 2.051(26) 1_555 n
H4 C3 2.055(29) 1_555 n
H4 C4 0.926(8) 1_555 n
H4 C5 1.991(32) -1_555 n
H5 C1 2.031(12) 1_555 n
H5 C4 1.982(12) -1_555 n
H5 C5 0.927(9) 1_555 n
loop_
_pd_meas_counts_total
_pd_proc_ls_weight
_pd_proc_intensity_bkg_calc
_pd_calc_intensity_total
0.0 . . .
0.0 . . .
0.0 . . .
0.0 . . .
0.0 . . .
0.0 . . .
0.0 . . .
0.0 . . .
0.0 . . .
0.0 . . .
0.0 . . .
0.0 . . .
0.0 . . .
0.0 . . .
0.0 . . .
0.0 . . .
0.0 . . .
0.0 . . .
0.0 . . .
0.0 . . .
0.0 . . .
0.0 . . .
0.0 . . .
0.0 . . .
0.0 . . .
0.0 . . .
0.0 . . .
0.0 . . .
0.0 . . .
0.0 . . .
0.0 . . .
0.0 . . .
0.0 . . .
0.0 . . .
0.0 . . .
0.0 . . .
0.0 . . .
0.0 . . .
0.0 . . .
0.0 . . .
0.0 . . .
0.0 . . .
0.0 . . .
0.0 . . .
0.0 . . .
0.0 . . .
0.0 . . .
0.0 . . .
0.0 . . .
0.0 . . .
0.0 . . .
0.0 . . .
0.0 . . .
0.0 . . .
0.0 . . .
0.0 . . .
0.0 . . .
0.0 . . .
0.0 . . .
0.0 . . .
0.0 . . .
0.0 . . .
0.0 . . .
0.0 . . .
0.0 . . .
1550.0 . . .
1550.0 . . .
1640.0 . . .
1740.0 . . .
1550.0 . . .
1310.0 . . .
1450.0 . . .
1620.0 . . .
1490.0 . . .
1560.0 . . .
1660.0 . . .
1560.0 . . .
1740.0 . . .
1650.0 . . .
1530.0 . . .
1540.0 . . .
1500.0 . . .
1510.0 . . .
1500.0 . . .
1490.0 . . .
1510.0 . . .
1430.0 . . .
1350.0 . . .
1310.0 . . .
1350.0 . . .
1360.0 . . .
1370.0 . . .
1410.0 . . .
1400.0 . . .
1380.0 . . .
1390.0 . . .
1380.0 . . .
1410.0 . . .
1480.0 . . .
1480.0 . . .
1430.0 . . .
1410.0 . . .
1410.0 . . .
1440.0 . . .
1540.0 . . .
1670.0 . . .
1810.0 . . .
2010.0 . . .
2240.0 . . .
2390.0 . . .
2560.0 . . .
2790.0 . . .
3100.0 . . .
3320.0 . . .
3540.0 . . .
3730.0 . . .
3950.0 . . .
4110.0 . . .
4290.0 . . .
4440.0 . . .
4460.0 . . .
4570.0 . . .
4650.0 . . .
4610.0 . . .
4620.0 . . .
4720.0 . . .
4830.0 . . .
4920.0 . . .
5010.0 . . .
5070.0 . . .
5100.0 . . .
5160.0 . . .
5300.0 . . .
5450.0 . . .
5590.0 . . .
5700.0 . . .
5820.0 . . .
5900.0 . . .
5840.0 . . .
5830.0 . . .
5910.0 . . .
5980.0 . . .
6070.0 . . .
6130.0 . . .
6190.0 . . .
6290.0 . . .
6370.0 . . .
6530.0 . . .
6670.0 . . .
6750.0 . . .
6900.0 . . .
7060.0 . . .
7160.0 . . .
7220.0 . . .
7320.0 . . .
7460.0 . . .
7640.0 . . .
7780.0 . . .
7910.0 . . .
8040.0 . . .
8180.0 . . .
8270.0 . . .
8340.0 . . .
8390.0 . . .
8460.0 . . .
8510.0 . . .
8580.0 . . .
8580.0 . . .
8590.0 . . .
8690.0 . . .
8780.0 . . .
8770.0 . . .
8820.0 . . .
8950.0 . . .
9070.0 . . .
9100.0 . . .
9110.0 . . .
9180.0 . . .
9210.0 . . .
9230.0 . . .
9270.0 . . .
9320.0 . . .
9300.0 . . .
9250.0 . . .
9250.0 . . .
9290.0 . . .
9320.0 . . .
9320.0 . . .
9360.0 . . .
9400.0 . . .
9400.0 . . .
9390.0 . . .
9380.0 . . .
9350.0 . . .
9330.0 . . .
9340.0 . . .
9330.0 . . .
9310.0 . . .
9370.0 . . .
9380.0 . . .
9420.0 . . .
9440.0 . . .
9380.0 . . .
9340.0 . . .
9320.0 . . .
9260.0 0.0001080 9148.87305 9163.14844
9230.0 0.0001083 9194.53223 9211.68848
9190.0 0.0001088 9223.61426 9244.63672
9210.0 0.0001086 9239.04492 9265.67480
9230.0 0.0001083 9243.34082 9280.02148
9240.0 0.0001082 9238.66504 9300.43848
9330.0 0.0001072 9226.86719 9362.91113
9570.0 0.0001045 9209.49902 9547.23242
10100.0 0.0000990 9187.88574 9962.04395
10800.0 0.0000926 9163.11914 10634.89355
11500.0 0.0000870 9136.11719 11351.99121
11600.0 0.0000862 9107.62695 11679.37500
11200.0 0.0000893 9078.24805 11332.58496
10500.0 0.0000952 9048.47168 10554.18555
9830.0 0.0001017 9018.66895 9806.14648
9400.0 0.0001064 8989.13086 9326.19141
9220.0 0.0001085 8960.06445 9092.65332
9040.0 0.0001106 8931.62793 8991.56152
8940.0 0.0001119 8903.91895 8940.08887
8930.0 0.0001120 8876.99121 8903.56738
8900.0 0.0001124 8850.85449 8871.91211
8830.0 0.0001133 8825.51172 8842.70801
8820.0 0.0001134 8800.92676 8800.92676
8770.0 0.0001140 8777.05176 8777.05176
8710.0 0.0001148 8753.82910 8753.82910
8690.0 0.0001151 8731.19141 8731.19141
8700.0 0.0001149 8709.06934 8709.06934
8680.0 0.0001152 8687.38770 8687.38770
8650.0 0.0001156 8666.06738 8666.06738
8640.0 0.0001157 8645.04297 8645.04297
8610.0 0.0001161 8624.24023 8624.24023
8570.0 0.0001167 8603.60352 8603.60352
8580.0 0.0001166 8583.06445 8583.06445
8570.0 0.0001167 8562.57324 8562.57324
8490.0 0.0001178 8542.08594 8542.08594
8480.0 0.0001179 8521.54883 8521.54883
8500.0 0.0001176 8500.94141 8500.94141
8460.0 0.0001182 8480.22949 8480.22949
8440.0 0.0001185 8459.38965 8459.38965
8460.0 0.0001182 8438.40723 8438.40723
8430.0 0.0001186 8417.27246 8417.27246
8370.0 0.0001195 8395.97461 8395.97461
8330.0 0.0001200 8374.51563 8374.51563
8310.0 0.0001203 8352.89844 8352.89844
8290.0 0.0001206 8331.13086 8331.13086
8270.0 0.0001209 8309.21875 8309.21875
8280.0 0.0001208 8287.18359 8287.18359
8280.0 0.0001208 8265.02441 8265.02441
8300.0 0.0001205 8242.78125 8242.78125
8280.0 0.0001208 8220.45703 8220.45703
8290.0 0.0001206 8198.07617 8198.07617
8260.0 0.0001211 8175.66309 8175.66309
8220.0 0.0001217 8153.23682 8153.23682
8190.0 0.0001221 8130.82080 8130.82080
8200.0 0.0001220 8108.43799 8108.43799
8150.0 0.0001227 8086.10938 8086.10938
8060.0 0.0001241 8063.85449 8063.85449
8030.0 0.0001245 8041.69482 8041.69482
7980.0 0.0001253 8019.65283 8019.65283
7950.0 0.0001258 7997.74268 7997.74268
7940.0 0.0001259 7975.98389 7975.98389
7950.0 0.0001258 7954.39063 7954.39063
7910.0 0.0001264 7932.98047 7932.98047
7900.0 0.0001266 7911.76318 7911.76318
7910.0 0.0001264 7890.75439 7890.75439
7890.0 0.0001267 7869.95947 7869.95947
7850.0 0.0001274 7849.39111 7849.39111
7870.0 0.0001271 7829.05225 7829.05225
7820.0 0.0001279 7808.95361 7808.95361
7760.0 0.0001289 7789.09717 7789.09717
7750.0 0.0001290 7769.48535 7769.48535
7710.0 0.0001297 7750.12061 7750.12061
7700.0 0.0001299 7731.00146 7731.00146
7700.0 0.0001299 7712.12939 7712.12939
7690.0 0.0001300 7693.50195 7693.50195
7620.0 0.0001312 7675.11621 7675.11621
7620.0 0.0001312 7656.96631 7656.96631
7640.0 0.0001309 7639.05029 7639.05029
7620.0 0.0001312 7621.36377 7621.36377
7590.0 0.0001318 7603.89893 7603.89893
7570.0 0.0001321 7586.65039 7586.65039
7580.0 0.0001319 7569.61133 7569.61133
7590.0 0.0001318 7552.77393 7552.77393
7600.0 0.0001316 7536.13232 7536.13232
7580.0 0.0001319 7519.67773 7519.67773
7530.0 0.0001328 7503.40479 7503.40479
7500.0 0.0001333 7487.30273 7487.30273
7430.0 0.0001346 7471.36279 7471.36279
7380.0 0.0001355 7455.58447 7455.58447
7380.0 0.0001355 7439.95557 7439.95557
7390.0 0.0001353 7424.47266 7424.47266
7380.0 0.0001355 7409.12354 7409.12354
7370.0 0.0001357 7393.90820 7393.90820
7370.0 0.0001357 7378.81689 7378.81689
7360.0 0.0001359 7363.84766 7363.84766
7340.0 0.0001362 7348.99219 7348.99219
7320.0 0.0001366 7334.25000 7334.25000
7260.0 0.0001377 7319.61328 7319.61328
7240.0 0.0001381 7305.08105 7305.08105
7250.0 0.0001379 7290.65186 7290.65186
7220.0 0.0001385 7276.32227 7276.32227
7230.0 0.0001383 7262.09082 7262.09082
7240.0 0.0001381 7247.95605 7247.95605
7240.0 0.0001381 7233.91699 7233.91699
7230.0 0.0001383 7219.97852 7219.97852
7230.0 0.0001383 7206.13525 7206.13525
7230.0 0.0001383 7192.39404 7192.39404
7220.0 0.0001385 7178.75195 7178.75195
7200.0 0.0001389 7165.21387 7165.21387
7210.0 0.0001387 7151.77930 7151.77930
7180.0 0.0001393 7138.45801 7138.45801
7140.0 0.0001401 7125.24561 7125.24561
7110.0 0.0001406 7112.15186 7112.15186
7130.0 0.0001403 7099.17627 7105.14063
7150.0 0.0001399 7086.33008 7092.98779
7150.0 0.0001399 7073.60938 7081.08789
7110.0 0.0001406 7061.02490 7069.48389
7100.0 0.0001408 7048.58105 7058.60742
7090.0 0.0001410 7036.28174 7047.80176
7060.0 0.0001416 7024.13379 7037.50293
7070.0 0.0001414 7012.14160 7027.83984
7040.0 0.0001420 7000.30908 7019.02100
7010.0 0.0001427 6988.64697 7011.49756
6990.0 0.0001431 6977.15723 7006.54346
6990.0 0.0001431 6965.84570 7008.14600
7040.0 0.0001420 6954.71631 7027.37305
7150.0 0.0001399 6943.77734 7088.67871
7360.0 0.0001359 6933.03223 7231.19580
7690.0 0.0001300 6922.48438 7491.33203
8140.0 0.0001229 6912.14111 7861.76611
8420.0 0.0001188 6902.00586 8251.07520
8490.0 0.0001178 6892.08252 8513.45703
8370.0 0.0001195 6882.37598 8464.63281
8030.0 0.0001245 6872.88818 8161.72168
7710.0 0.0001297 6863.62402 7773.69336
7410.0 0.0001350 6854.58496 7438.63477
7230.0 0.0001383 6845.77246 7206.92480
7120.0 0.0001404 6837.19238 7067.76367
7010.0 0.0001427 6828.84521 6991.23633
6920.0 0.0001445 6820.72998 6952.58008
6870.0 0.0001456 6812.85156 6938.58398
6840.0 0.0001462 6805.20605 6947.39355
6870.0 0.0001456 6797.79736 6993.99707
6980.0 0.0001433 6790.62256 7125.55908
7250.0 0.0001379 6783.68311 7437.60889
7770.0 0.0001287 6776.97559 8061.00391
8820.0 0.0001134 6770.50342 9081.20508
10300.0 0.0000971 6764.25879 10401.10449
11800.0 0.0000847 6758.24463 11644.59668
12500.0 0.0000800 6752.45264 12240.63477
12100.0 0.0000826 6746.88330 11819.61230
10700.0 0.0000935 6741.53418 10643.96777
9220.0 0.0001085 6736.39844 9284.54199
8140.0 0.0001229 6731.47656 8173.82666
7490.0 0.0001335 6726.75977 7460.58691
7160.0 0.0001397 6722.24414 7084.22998
6970.0 0.0001435 6717.92725 6912.05615
6880.0 0.0001453 6713.80176 6837.00000
6810.0 0.0001468 6709.86182 6800.66943
6770.0 0.0001477 6706.10156 6778.74170
6770.0 0.0001477 6702.51660 6762.80420
6760.0 0.0001479 6699.09863 6750.09570
6720.0 0.0001488 6695.84473 6739.55176
6700.0 0.0001493 6692.74365 6730.60645
6700.0 0.0001493 6689.79248 6722.89844
6690.0 0.0001495 6686.98291 6716.16797
6650.0 0.0001504 6684.30762 6710.22363
6680.0 0.0001497 6681.75830 6681.75830
6720.0 0.0001488 6679.33301 6679.33301
6700.0 0.0001493 6677.01709 6677.01709
6680.0 0.0001497 6674.81152 6674.81152
6670.0 0.0001499 6672.70313 6685.06641
6660.0 0.0001502 6670.68701 6684.50049
6670.0 0.0001499 6668.75635 6684.28760
6700.0 0.0001493 6666.90283 6684.48926
6700.0 0.0001493 6665.12158 6685.19385
6680.0 0.0001497 6663.40430 6686.52051
6700.0 0.0001493 6661.74512 6688.64990
6680.0 0.0001497 6660.13525 6691.88184
6670.0 0.0001499 6658.57031 6696.86865
6680.0 0.0001497 6657.04639 6705.36572
6730.0 0.0001486 6655.55078 6722.34131
6840.0 0.0001462 6654.08398 6760.55713
6990.0 0.0001431 6652.63721 6847.11035
7230.0 0.0001383 6651.20410 7026.48389
7560.0 0.0001323 6649.78076 7348.27295
7990.0 0.0001252 6648.36279 7830.96289
8470.0 0.0001181 6646.94580 8414.47363
8840.0 0.0001131 6645.52051 8936.04590
9000.0 0.0001111 6644.09033 9171.57813
8900.0 0.0001124 6642.64502 8989.26270
8530.0 0.0001172 6641.18311 8490.68164
8050.0 0.0001242 6639.69971 7900.06104
7610.0 0.0001314 6638.19531 7393.94922
7280.0 0.0001374 6636.66064 7046.48535
7040.0 0.0001420 6635.09912 6847.22607
6850.0 0.0001460 6633.50635 6748.02441
6730.0 0.0001486 6631.87842 6702.25439
6660.0 0.0001502 6630.21777 6680.32129
6650.0 0.0001504 6628.51709 6671.08838
6630.0 0.0001508 6626.78076 6662.86084
6640.0 0.0001506 6625.00391 6656.50830
6630.0 0.0001508 6623.18652 6651.31152
6560.0 0.0001524 6621.33203 6646.96484
6560.0 0.0001524 6619.43457 6643.29932
6560.0 0.0001524 6617.49854 6640.23438
6540.0 0.0001529 6615.52441 6637.76660
6530.0 0.0001531 6613.50830 6623.48730
6540.0 0.0001529 6611.45605 6624.28125
6560.0 0.0001524 6609.36523 6627.63672
6570.0 0.0001522 6607.24219 6637.08545
6550.0 0.0001527 6605.08203 6660.00684
6570.0 0.0001522 6602.89014 6704.98584
6640.0 0.0001506 6600.66943 6782.04590
6720.0 0.0001488 6598.42041 6892.43213
6820.0 0.0001466 6596.14502 7020.56396
6980.0 0.0001433 6593.84668 7130.84082
7140.0 0.0001401 6591.52832 7177.21289
7230.0 0.0001383 6589.19141 7134.24512
7200.0 0.0001389 6586.84229 7024.48633
7120.0 0.0001404 6584.47900 6892.21436
6990.0 0.0001431 6582.10889 6775.82813
6870.0 0.0001456 6579.73389 6693.28662
6740.0 0.0001484 6577.35791 6645.66211
6660.0 0.0001502 6574.98096 6625.67969
6630.0 0.0001508 6572.61328 6625.32080
6620.0 0.0001511 6570.25293 6638.47070
6640.0 0.0001506 6567.90381 6659.55713
6660.0 0.0001502 6565.57275 6681.37061
6680.0 0.0001497 6563.26221 6694.89502
6680.0 0.0001497 6560.97607 6693.39404
6640.0 0.0001506 6558.71631 6679.18018
6610.0 0.0001513 6556.48730 6662.82861
6570.0 0.0001522 6554.29395 6655.36328
6580.0 0.0001520 6552.14063 6662.61035
6600.0 0.0001515 6550.02783 6679.40283
6660.0 0.0001502 6547.96143 6702.94385
6720.0 0.0001488 6545.94287 6715.69189
6760.0 0.0001479 6543.97949 6707.06934
6780.0 0.0001475 6542.07129 6678.52637
6740.0 0.0001484 6540.22266 6640.83154
6660.0 0.0001502 6538.43750 6604.74023
6600.0 0.0001515 6536.71631 6576.50586
6570.0 0.0001522 6535.06592 6557.56494
6560.0 0.0001524 6533.48633 6546.19971
6530.0 0.0001531 6531.97998 6539.70996
6510.0 0.0001536 6530.55273 6535.85693
6520.0 0.0001534 6529.20215 6533.26660
6530.0 0.0001531 6527.93555 6530.61621
6540.0 0.0001529 6526.75293 6528.99658
6550.0 0.0001527 6525.65674 6527.57422
6560.0 0.0001524 6524.64990 6544.27686
6540.0 0.0001529 6523.72949 6545.25684
6490.0 0.0001541 6522.90430 6553.06982
6510.0 0.0001536 6522.16943 6555.88428
6530.0 0.0001531 6521.53027 6559.56934
6510.0 0.0001536 6520.98633 6563.44775
6540.0 0.0001529 6520.53809 6569.84082
6550.0 0.0001527 6520.18896 6578.61230
6570.0 0.0001522 6519.93896 6592.68652
6560.0 0.0001524 6519.78613 6615.72363
6630.0 0.0001508 6519.73340 6659.97900
6730.0 0.0001486 6519.77979 6747.59570
6860.0 0.0001458 6519.92383 6913.57813
7200.0 0.0001389 6520.16895 7200.30908
7710.0 0.0001297 6520.51318 7639.52588
8330.0 0.0001200 6520.95605 8224.51074
9020.0 0.0001109 6521.49756 8884.70215
9640.0 0.0001037 6522.13672 9478.29297
9910.0 0.0001009 6522.87158 9828.71094
9770.0 0.0001024 6523.70313 9832.00977
9310.0 0.0001074 6524.62939 9527.20313
8730.0 0.0001145 6525.64990 9025.45508
8230.0 0.0001215 6526.76318 8447.64355
7810.0 0.0001280 6527.96533 7907.47949
7490.0 0.0001335 6529.25830 7476.26318
7290.0 0.0001372 6530.63770 7171.02441
7150.0 0.0001399 6532.10498 6971.12988
7020.0 0.0001425 6533.65625 6842.68799
6910.0 0.0001447 6535.28809 6757.31104
6820.0 0.0001466 6536.99951 6697.95898
6740.0 0.0001484 6538.79102 6655.85498
6690.0 0.0001495 6540.65771 6626.58447
6640.0 0.0001506 6542.59668 6607.33984
6620.0 0.0001511 6544.60889 6595.63965
6600.0 0.0001515 6546.68848 6589.39648
6620.0 0.0001511 6548.83350 6586.78076
6620.0 0.0001511 6551.04541 6569.41113
6580.0 0.0001520 6553.31592 6573.85107
6550.0 0.0001527 6555.64600 6580.11865
6590.0 0.0001517 6558.03320 6580.76416
6600.0 0.0001515 6560.47363 6588.57129
6610.0 0.0001513 6562.96289 6594.29980
6640.0 0.0001506 6565.50342 6596.56934
6630.0 0.0001508 6568.08936 6595.50146
6600.0 0.0001515 6570.71826 6592.65625
6610.0 0.0001513 6573.38770 6589.10156
6600.0 0.0001515 6576.09570 6587.78955
6590.0 0.0001517 6578.83691 6588.56787
6600.0 0.0001515 6581.61133 6591.48682
6600.0 0.0001515 6584.41699 6596.06787
6580.0 0.0001520 6587.25000 6601.45020
6580.0 0.0001520 6590.10889 6608.67480
6590.0 0.0001517 6592.98779 6612.61572
6580.0 0.0001520 6595.89209 6614.69141
6580.0 0.0001520 6598.80908 6615.29346
6580.0 0.0001520 6601.74414 6615.33203
6590.0 0.0001517 6604.69531 6615.62842
6590.0 0.0001517 6607.65527 6616.69531
6600.0 0.0001515 6610.62500 6618.76221
6610.0 0.0001513 6613.60156 6621.93799
6580.0 0.0001520 6616.58301 6626.30029
6610.0 0.0001513 6619.56836 6633.08545
6670.0 0.0001499 6622.55566 6643.74365
6740.0 0.0001484 6625.54395 6660.94678
6790.0 0.0001473 6628.52734 6687.91553
6820.0 0.0001466 6631.51172 6727.12158
6840.0 0.0001462 6634.48779 6778.22705
6850.0 0.0001460 6637.45898 6836.15967
6840.0 0.0001462 6640.42139 6890.32324
6800.0 0.0001471 6643.37695 6926.13281
6760.0 0.0001479 6646.32227 6940.52881
6740.0 0.0001484 6649.25537 6914.81689
6690.0 0.0001495 6652.17871 6869.12744
6680.0 0.0001497 6655.08838 6818.30420
6680.0 0.0001497 6657.98389 6773.62549
6680.0 0.0001497 6660.86621 6740.91553
6670.0 0.0001499 6663.73340 6721.15625
6660.0 0.0001502 6666.58643 6712.49854
6660.0 0.0001502 6669.42139 6712.62402
6700.0 0.0001493 6672.24072 6720.78271
6720.0 0.0001488 6675.04590 6739.27734
6730.0 0.0001486 6677.83252 6774.46631
6780.0 0.0001475 6680.60400 6836.86182
6880.0 0.0001453 6683.35840 6939.14014
7070.0 0.0001414 6686.09473 7091.05908
7320.0 0.0001366 6688.81592 7291.74951
7600.0 0.0001316 6691.52051 7523.53174
7810.0 0.0001280 6694.21240 7744.01367
7910.0 0.0001264 6696.88525 7895.23730
7920.0 0.0001263 6699.54395 7928.67480
7830.0 0.0001277 6702.18799 7829.34521
7670.0 0.0001304 6704.81934 7636.53857
7470.0 0.0001339 6707.43555 7409.87256
7290.0 0.0001372 6710.03955 7197.36816
7140.0 0.0001401 6712.63232 7028.36230
7000.0 0.0001429 6715.21484 6909.80078
6900.0 0.0001449 6717.78662 6836.17139
6820.0 0.0001466 6720.34814 6795.12354
6810.0 0.0001468 6722.90137 6774.41260
6810.0 0.0001468 6725.44482 6764.99512
6790.0 0.0001473 6727.98633 6761.43701
6760.0 0.0001479 6730.51758 6761.04297
6730.0 0.0001486 6733.04688 6762.90771
6740.0 0.0001484 6735.57227 6767.27832
6770.0 0.0001477 6738.09570 6775.32617
6800.0 0.0001471 6740.61523 6789.05713
6880.0 0.0001453 6743.13721 6811.06250
6960.0 0.0001437 6745.66016 6833.86475
7030.0 0.0001422 6748.18506 6879.63379
7070.0 0.0001414 6750.71240 6935.55225
7100.0 0.0001408 6753.24463 6995.82910
7130.0 0.0001403 6755.78320 7050.75537
7130.0 0.0001403 6758.32520 7088.80908
7100.0 0.0001408 6760.87793 7100.36182
7070.0 0.0001414 6763.43848 7083.51123
7030.0 0.0001422 6766.01074 7047.42285
6980.0 0.0001433 6768.59375 7006.75879
6960.0 0.0001437 6771.18604 6973.94629
6970.0 0.0001435 6773.79395 6955.43945
6970.0 0.0001435 6776.41504 6950.92969
6950.0 0.0001439 6779.05322 6954.42041
6940.0 0.0001441 6781.70752 6956.90967
6910.0 0.0001447 6784.37793 6950.43555
6890.0 0.0001451 6787.06641 6933.09131
6850.0 0.0001460 6789.77441 6908.56104
6840.0 0.0001462 6792.50195 6882.34082
6810.0 0.0001468 6795.25049 6858.93262
6790.0 0.0001473 6798.02002 6840.89844
6760.0 0.0001479 6800.81201 6829.60596
6740.0 0.0001484 6803.62744 6822.84814
6760.0 0.0001479 6806.46484 6819.94629
6800.0 0.0001471 6809.32666 6819.53418
6830.0 0.0001464 6812.21484 6820.57764
6820.0 0.0001466 6815.12549 6822.41504
6820.0 0.0001466 6818.06396 6824.68848
6840.0 0.0001462 6821.02393 6827.21533
6840.0 0.0001462 6824.01465 6829.93164
6820.0 0.0001466 6827.02979 6832.80811
6810.0 0.0001468 6830.07373 6835.86768
6830.0 0.0001464 6833.14209 6839.15918
6820.0 0.0001466 6836.23926 6841.41943
6830.0 0.0001464 6839.36279 6845.64307
6820.0 0.0001466 6842.51367 6850.56494
6850.0 0.0001460 6845.69043 6856.41748
6860.0 0.0001458 6848.89502 6863.41650
6830.0 0.0001464 6852.12842 6871.77637
6830.0 0.0001464 6855.38574 6881.61377
6860.0 0.0001458 6858.66943 6893.21289
6860.0 0.0001458 6861.98096 6906.98145
6860.0 0.0001458 6865.31641 6922.94824
6870.0 0.0001456 6868.67773 6943.23486
6900.0 0.0001449 6872.06641 6967.51807
6920.0 0.0001445 6875.47656 6995.10400
6950.0 0.0001439 6878.91309 7021.73145
7000.0 0.0001429 6882.37158 7042.64209
7060.0 0.0001416 6885.85449 7052.20313
7110.0 0.0001406 6889.35938 7047.55566
7160.0 0.0001397 6892.88379 7030.89697
7180.0 0.0001393 6896.43066 7007.71387
7160.0 0.0001397 6899.99756 6983.59375
7120.0 0.0001404 6903.58252 6962.59326
7050.0 0.0001418 6907.18750 6946.84717
6980.0 0.0001433 6910.80908 6936.76611
6960.0 0.0001437 6914.44727 6931.61230
6940.0 0.0001441 6918.10205 6930.16016
6900.0 0.0001449 6921.76953 6931.21826
6920.0 0.0001445 6925.45215 6933.89795
6950.0 0.0001439 6929.14795 6937.64404
6960.0 0.0001437 6932.85498 6942.18408
6950.0 0.0001439 6936.57373 6947.44629
6940.0 0.0001441 6940.30078 6954.04736
6930.0 0.0001443 6944.03760 6961.23682
6910.0 0.0001447 6947.78076 6969.95264
6950.0 0.0001439 6951.53223 6980.82520
6980.0 0.0001433 6955.28711 6994.49414
7000.0 0.0001429 6959.04834 7011.28076
7010.0 0.0001427 6962.80957 7030.37354
7030.0 0.0001422 6966.57520 7050.27686
7040.0 0.0001420 6970.34180 7068.01563
7040.0 0.0001420 6974.10742 7080.09082
7040.0 0.0001420 6977.87256 7083.79004
7050.0 0.0001418 6981.63623 7079.13232
7050.0 0.0001418 6985.39453 7067.63672
7060.0 0.0001416 6989.14795 7054.50977
7050.0 0.0001418 6992.89600 7041.96631
7040.0 0.0001420 6996.63916 7032.03906
7030.0 0.0001422 7000.37158 7025.72705
7040.0 0.0001420 7004.09766 7023.26465
7030.0 0.0001422 7007.81299 7026.34180
7040.0 0.0001420 7011.51758 7031.24072
7030.0 0.0001422 7015.20947 7039.68457
7020.0 0.0001425 7018.88867 7051.79492
7060.0 0.0001416 7022.55469 7067.54639
7100.0 0.0001408 7026.20508 7086.32666
7150.0 0.0001399 7029.84082 7106.78271
7190.0 0.0001391 7033.45996 7126.61523
7200.0 0.0001389 7037.06152 7142.80371
7210.0 0.0001387 7040.64453 7152.42334
7190.0 0.0001391 7044.20703 7154.20898
7170.0 0.0001395 7047.75195 7149.45752
7150.0 0.0001399 7051.27637 7141.37549
7130.0 0.0001403 7054.77783 7132.44678
7100.0 0.0001408 7058.25977 7125.10303
7110.0 0.0001406 7061.71680 7120.78027
7100.0 0.0001408 7065.15332 7120.81445
7090.0 0.0001410 7068.56592 7124.75830
7080.0 0.0001412 7071.95020 7133.43311
7120.0 0.0001404 7075.31396 7146.91943
7150.0 0.0001399 7078.64941 7167.23096
7190.0 0.0001391 7081.96240 7195.25391
7230.0 0.0001383 7085.24805 7232.31152
7290.0 0.0001372 7088.50537 7278.41699
7350.0 0.0001361 7091.73730 7330.98926
7400.0 0.0001351 7094.94287 7384.20117
7410.0 0.0001350 7098.11963 7429.19824
7430.0 0.0001346 7101.27002 7455.81104
7450.0 0.0001342 7104.39014 7456.74902
7440.0 0.0001344 7107.48584 7432.35791
7420.0 0.0001348 7110.55078 7390.36719
7380.0 0.0001355 7113.58691 7341.11377
7310.0 0.0001368 7116.59570 7293.72998
7290.0 0.0001372 7119.57617 7254.72900
7270.0 0.0001376 7122.52783 7227.35596
7230.0 0.0001383 7125.45215 7212.38281
7200.0 0.0001389 7128.34668 7207.95850
7180.0 0.0001393 7131.21143 7212.63867
7200.0 0.0001389 7134.05176 7222.75244
7210.0 0.0001387 7136.86182 7235.10596
7230.0 0.0001383 7139.64307 7247.18750
7250.0 0.0001379 7142.39697 7256.32666
7270.0 0.0001376 7145.12451 7261.22168
7270.0 0.0001376 7147.82227 7260.39600
7250.0 0.0001379 7150.49268 7253.64551
7280.0 0.0001374 7153.13770 7242.34570
7300.0 0.0001370 7155.75488 7228.85352
7260.0 0.0001377 7158.34717 7215.30322
7240.0 0.0001381 7160.91016 7203.63525
7220.0 0.0001385 7163.44873 7194.61816
7190.0 0.0001391 7165.96143 7188.52686
7170.0 0.0001395 7168.44873 7185.18408
7170.0 0.0001395 7170.91162 7184.16309
7150.0 0.0001399 7173.34814 7184.97998
7150.0 0.0001399 7175.76172 7187.22412
7150.0 0.0001399 7178.15186 7188.75000
7160.0 0.0001397 7180.51855 7193.11426
7150.0 0.0001399 7182.85938 7198.16895
7150.0 0.0001399 7185.17822 7203.72949
7150.0 0.0001399 7187.47412 7209.67139
7180.0 0.0001393 7189.74951 7215.81592
7190.0 0.0001391 7192.00146 7222.09570
7190.0 0.0001391 7194.23145 7228.57959
7230.0 0.0001383 7196.44287 7235.32275
7220.0 0.0001385 7198.63135 7242.11328
7220.0 0.0001385 7200.79883 7248.36572
7240.0 0.0001381 7202.94775 7252.94922
7260.0 0.0001377 7205.07764 7255.40576
7270.0 0.0001376 7207.18457 7255.08301
7270.0 0.0001376 7209.27490 7252.34033
7250.0 0.0001379 7211.34619 7247.53223
7240.0 0.0001381 7213.39893 7242.60889
7230.0 0.0001383 7215.43066 7237.88574
7250.0 0.0001379 7217.44629 7233.96680
7250.0 0.0001379 7219.44189 7231.15918
7240.0 0.0001381 7221.42188 7229.51807
7240.0 0.0001381 7223.38379 7228.91748
7220.0 0.0001385 7225.32861 7229.14014
7220.0 0.0001385 7227.25439 7229.95605
7220.0 0.0001385 7229.16406 7231.16748
7190.0 0.0001391 7231.05664 7232.62109
7170.0 0.0001395 7232.93311 7234.21436
7180.0 0.0001393 7234.79004 7235.87891
7180.0 0.0001393 7236.63330 7237.58301
7200.0 0.0001389 7238.45752 7239.29980
7230.0 0.0001383 7240.26660 7241.02148
7240.0 0.0001381 7242.05664 7243.65332
7250.0 0.0001379 7243.83154 7245.34473
7260.0 0.0001377 7245.58643 7247.12646
7260.0 0.0001377 7247.32861 7248.91113
7270.0 0.0001376 7249.05029 7251.13721
7290.0 0.0001372 7250.75635 7252.95215
7310.0 0.0001368 7252.44287 7255.07813
7320.0 0.0001366 7254.11182 7256.92432
7330.0 0.0001364 7255.76416 7258.53418
7330.0 0.0001364 7257.39746 7260.43066
7320.0 0.0001366 7259.01172 7262.35156
7300.0 0.0001370 7260.60791 7264.27832
7330.0 0.0001364 7262.18457 7266.30469
7350.0 0.0001361 7263.74219 7268.43799
7330.0 0.0001364 7265.27979 7270.76025
7310.0 0.0001368 7266.79590 7273.41650
7320.0 0.0001366 7268.29102 7276.65430
7310.0 0.0001368 7269.76660 7280.86670
7290.0 0.0001372 7271.21924 7286.61475
7270.0 0.0001376 7272.65186 7294.64209
7270.0 0.0001376 7274.06152 7305.79980
7290.0 0.0001372 7275.44629 7320.90088
7290.0 0.0001372 7276.80713 7340.51563
7340.0 0.0001362 7278.14258 7364.68018
7360.0 0.0001359 7279.45752 7392.66064
7370.0 0.0001357 7280.74561 7422.74951
7380.0 0.0001355 7282.00635 7452.19971
7420.0 0.0001348 7283.24219 7477.50830
7470.0 0.0001339 7284.45020 7495.26953
7490.0 0.0001335 7285.62988 7503.42822
7480.0 0.0001337 7286.78125 7501.76660
7490.0 0.0001335 7287.90381 7491.29053
7500.0 0.0001333 7288.99805 7473.72949
7520.0 0.0001330 7290.06006 7451.18506
7510.0 0.0001332 7291.09082 7426.83643
7530.0 0.0001328 7292.08984 7401.76758
7520.0 0.0001330 7293.05811 7378.64453
7460.0 0.0001340 7293.99072 7358.77686
7400.0 0.0001351 7294.89209 7342.74268
7380.0 0.0001355 7295.75635 7330.52588
7350.0 0.0001361 7296.58691 7321.73877
7330.0 0.0001364 7297.38135 7315.77783
7310.0 0.0001368 7298.13818 7311.98535
7280.0 0.0001374 7298.85791 7309.76270
7240.0 0.0001381 7299.53955 7308.61523
7240.0 0.0001381 7300.18408 7308.19238
7270.0 0.0001376 7300.78857 7308.25684
7280.0 0.0001374 7301.35205 7308.90234
7290.0 0.0001372 7301.87549 7309.78027
7270.0 0.0001376 7302.35645 7311.18896
7260.0 0.0001377 7302.79736 7313.36475
7250.0 0.0001379 7303.19385 7316.64404
7260.0 0.0001377 7303.54932 7321.44287
7290.0 0.0001372 7303.85840 7328.16895
7310.0 0.0001368 7304.12305 7337.17432
7330.0 0.0001364 7304.34521 7348.03320
7330.0 0.0001364 7304.52051 7361.34521
7310.0 0.0001368 7304.65186 7375.76416
7320.0 0.0001366 7304.73389 7389.47998
7330.0 0.0001364 7304.77148 7401.58447
7340.0 0.0001362 7304.75977 7409.32422
7370.0 0.0001357 7304.70215 7411.95557
7420.0 0.0001348 7304.59424 7408.81348
7430.0 0.0001346 7304.43848 7400.06445
7400.0 0.0001351 7304.23291 7387.84277
7410.0 0.0001350 7303.98096 7374.51611
7410.0 0.0001350 7303.67529 7361.90918
7400.0 0.0001351 7303.32227 7351.34619
7380.0 0.0001355 7302.91846 7343.95215
7370.0 0.0001357 7302.46436 7339.25244
7360.0 0.0001359 7301.96143 7337.40967
7340.0 0.0001362 7301.40576 7337.96729
7320.0 0.0001366 7300.79834 7340.35254
7320.0 0.0001366 7300.14063 7343.99561
7340.0 0.0001362 7299.43115 7348.45801
7300.0 0.0001370 7298.67285 7353.56689
7260.0 0.0001377 7297.85986 7360.14990
7310.0 0.0001368 7296.99951 7367.27441
7350.0 0.0001361 7296.08789 7375.87891
7390.0 0.0001353 7295.12158 7386.01758
7420.0 0.0001348 7294.10791 7397.42480
7420.0 0.0001348 7293.04199 7409.51660
7440.0 0.0001344 7291.92725 7421.69727
7480.0 0.0001337 7290.76025 7433.31738
7510.0 0.0001332 7289.54346 7444.50098
7500.0 0.0001333 7288.27686 7455.47705
7510.0 0.0001332 7286.96143 7466.06934
7500.0 0.0001333 7285.59717 7475.49854
7480.0 0.0001337 7284.18311 7481.54346
7500.0 0.0001333 7282.72070 7483.95166
7490.0 0.0001335 7281.20947 7480.89746
7460.0 0.0001340 7279.65186 7472.29443
7460.0 0.0001340 7278.04590 7459.48779
7440.0 0.0001344 7276.39502 7444.38770
7470.0 0.0001339 7274.69775 7428.78174
7450.0 0.0001342 7272.95459 7414.00586
7400.0 0.0001351 7271.16699 7400.97168
7460.0 0.0001340 7269.33447 7390.34375
7450.0 0.0001342 7267.46045 7382.50684
7440.0 0.0001344 7265.54248 7377.46289
7410.0 0.0001350 7263.58154 7374.30273
7390.0 0.0001353 7261.58105 7371.70947
7390.0 0.0001353 7259.53955 7368.57031
7380.0 0.0001355 7257.45557 7363.30713
7390.0 0.0001353 7255.33398 7355.27881
7370.0 0.0001357 7253.17627 7344.77490
7360.0 0.0001359 7250.98096 7332.70020
7330.0 0.0001364 7248.74854 7320.08398
7310.0 0.0001368 7246.47949 7307.71338
7280.0 0.0001374 7244.17725 7295.65869
7280.0 0.0001374 7241.83984 7285.33594
7280.0 0.0001374 7239.47217 7276.25586
7250.0 0.0001379 7237.07031 7268.43555
7250.0 0.0001379 7234.63965 7261.80615
7230.0 0.0001383 7232.17871 7256.20557
7220.0 0.0001385 7229.68750 7251.24316
7210.0 0.0001387 7227.16943 7247.07617
7250.0 0.0001379 7224.62549 7242.59375
7220.0 0.0001385 7222.05615 7238.86182
7200.0 0.0001389 7219.46045 7235.57422
7220.0 0.0001385 7216.84131 7232.51855
7230.0 0.0001383 7214.20361 7229.73779
7190.0 0.0001391 7211.53955 7227.04834
7180.0 0.0001393 7208.85645 7224.51709
7200.0 0.0001389 7206.15527 7222.26367
7220.0 0.0001385 7203.43555 7219.87012
7180.0 0.0001393 7200.70068 7217.13525
7170.0 0.0001395 7197.94727 7214.48291
7180.0 0.0001393 7195.18018 7210.78369
7180.0 0.0001393 7192.39844 7206.70752
7190.0 0.0001391 7189.60400 7201.83154
7170.0 0.0001395 7186.79883 7197.93262
7170.0 0.0001395 7183.98389 7194.04736
7170.0 0.0001395 7181.15820 7192.31934
7150.0 0.0001399 7178.32373 7189.51855
7170.0 0.0001395 7175.48340 7187.35938
7200.0 0.0001389 7172.63574 7185.74463
7210.0 0.0001387 7169.78369 7184.53809
7210.0 0.0001387 7166.92676 7183.80859
7180.0 0.0001393 7164.06592 7183.27344
7150.0 0.0001399 7161.20508 7182.74121
7150.0 0.0001399 7158.34229 7182.04346
7170.0 0.0001395 7155.47900 7181.10938
7150.0 0.0001399 7152.61719 7180.12988
7150.0 0.0001399 7149.75732 7179.26904
7170.0 0.0001395 7146.89941 7179.29248
7180.0 0.0001393 7144.04541 7180.77637
7200.0 0.0001389 7141.19824 7184.31982
7200.0 0.0001389 7138.35547 7190.49512
7210.0 0.0001387 7135.51855 7199.72461
7220.0 0.0001385 7132.68848 7212.23193
7230.0 0.0001383 7129.86816 7227.96924
7240.0 0.0001381 7127.05664 7246.52588
7280.0 0.0001374 7124.25342 7267.10059
7320.0 0.0001366 7121.46191 7288.45752
7360.0 0.0001359 7118.68262 7309.56641
7380.0 0.0001355 7115.91504 7328.99316
7380.0 0.0001355 7113.15820 7345.21631
7370.0 0.0001357 7110.41699 7356.42383
7340.0 0.0001362 7107.68896 7360.60303
7320.0 0.0001366 7104.97656 7356.08057
7320.0 0.0001366 7102.27979 7342.26904
7330.0 0.0001364 7099.60010 7320.23633
7330.0 0.0001364 7096.93604 7292.44580
7310.0 0.0001368 7094.29004 7261.89648
7280.0 0.0001374 7091.65967 7231.34570
7260.0 0.0001377 7089.05029 7202.90479
7240.0 0.0001381 7086.45898 7177.93945
7210.0 0.0001387 7083.88525 7157.11719
7180.0 0.0001393 7081.33545 7140.34229
7140.0 0.0001401 7078.80273 7127.48682
7120.0 0.0001404 7076.29053 7117.71240
7110.0 0.0001406 7073.80127 7110.23877
7100.0 0.0001408 7071.33154 7104.35303
7060.0 0.0001416 7068.88330 7099.51416
7060.0 0.0001416 7066.45654 7095.38916
7050.0 0.0001418 7064.05420 7091.74951
7050.0 0.0001418 7061.67334 7088.48438
7090.0 0.0001410 7059.31543 7085.49072
7110.0 0.0001406 7056.97949 7082.63867
7120.0 0.0001404 7054.66602 7079.75293
7120.0 0.0001404 7052.37646 7076.07471
7110.0 0.0001406 7050.10986 7072.66064
7100.0 0.0001408 7047.86572 7068.84277
7060.0 0.0001416 7045.64600 7064.72900
7060.0 0.0001416 7043.45166 7060.35205
7050.0 0.0001418 7041.27832 7055.86572
7060.0 0.0001416 7039.12939 7051.44238
7050.0 0.0001418 7037.00244 7047.20361
7040.0 0.0001420 7034.89990 7043.25391
7020.0 0.0001425 7032.82275 7039.60303
7010.0 0.0001427 7030.76563 7036.27148
7020.0 0.0001425 7028.73438 7033.24609
7030.0 0.0001422 7026.72461 7030.48291
7010.0 0.0001427 7024.73730 7027.47998
7020.0 0.0001425 7022.77295 7025.13574
7030.0 0.0001422 7020.83154 7022.92676
7020.0 0.0001425 7018.91211 7020.87939
7020.0 0.0001425 7017.01563 7018.85889
7030.0 0.0001422 7015.14063 7016.90918
7010.0 0.0001427 7013.28564 7015.03613
7000.0 0.0001429 7011.45361 7013.21631
7000.0 0.0001429 7009.64209 7011.45996
6990.0 0.0001431 7007.85010 7009.80859
7000.0 0.0001429 7006.08057 7008.20605
7000.0 0.0001429 7004.33008 7006.68896
6990.0 0.0001431 7002.59814 7005.26172
6970.0 0.0001435 7000.88574 7003.93213
6980.0 0.0001433 6999.19141 7002.70215
6980.0 0.0001433 6997.51563 7001.12354
6990.0 0.0001431 6995.85889 7000.12012
7000.0 0.0001429 6994.21826 6999.17480
7010.0 0.0001427 6992.59619 6998.38818
7020.0 0.0001425 6990.98926 6997.70557
7040.0 0.0001420 6989.39941 6997.16895
7040.0 0.0001420 6987.82129 6996.78125
7040.0 0.0001420 6986.26367 6996.55420
7040.0 0.0001420 6984.71631 6996.45068
7020.0 0.0001425 6983.18359 6996.56738
7020.0 0.0001425 6981.66455 6996.42578
7010.0 0.0001427 6980.15918 6996.17578
7020.0 0.0001425 6978.66455 6995.61279
7020.0 0.0001425 6977.18213 6994.60938
7000.0 0.0001429 6975.71094 6993.20117
6980.0 0.0001433 6974.25000 6991.44092
6970.0 0.0001435 6972.80029 6989.62793
6970.0 0.0001435 6971.35742 6987.58301
6980.0 0.0001433 6969.92188 6985.59717
6990.0 0.0001431 6968.49707 6983.78125
6980.0 0.0001433 6967.07959 6982.36133
6960.0 0.0001437 6965.66699 6981.10010
6950.0 0.0001439 6964.26172 6980.34424
6970.0 0.0001435 6962.86035 6979.61719
6980.0 0.0001433 6961.46387 6979.32129
6960.0 0.0001437 6960.07275 6978.70801
6930.0 0.0001443 6958.68408 6977.92090
6930.0 0.0001443 6957.29492 6976.84814
6920.0 0.0001445 6955.91113 6975.44727
6940.0 0.0001441 6954.52783 6973.72217
6950.0 0.0001439 6953.14502 6971.71680
6940.0 0.0001441 6951.76221 6969.49023
6930.0 0.0001443 6950.37695 6967.21045
6940.0 0.0001441 6948.99121 6964.79395
6950.0 0.0001439 6947.60400 6962.49463
6940.0 0.0001441 6946.21240 6960.39111
6920.0 0.0001445 6944.81689 6958.66992
6910.0 0.0001447 6943.41846 6957.47168
6910.0 0.0001447 6942.01270 6956.93457
6920.0 0.0001445 6940.60254 6957.08984
6910.0 0.0001447 6939.18359 6957.98975
6920.0 0.0001445 6937.75977 6959.63574
6950.0 0.0001439 6936.32715 6961.94580
6960.0 0.0001437 6934.88672 6964.88818
6960.0 0.0001437 6933.43359 6968.20459
6960.0 0.0001437 6931.97412 6971.77148
6960.0 0.0001437 6930.50146 6975.40771
6960.0 0.0001437 6929.01709 6979.01318
6980.0 0.0001433 6927.52344 6982.61572
7000.0 0.0001429 6926.01221 6986.38281
6980.0 0.0001433 6924.49023 6990.57471
7000.0 0.0001429 6922.95313 6995.34131
7020.0 0.0001425 6921.40039 7000.80859
7000.0 0.0001429 6919.83350 7006.85205
6990.0 0.0001431 6918.24756 7013.20703
7010.0 0.0001427 6916.64600 7019.66553
7020.0 0.0001425 6915.02686 7025.49512
7030.0 0.0001422 6913.38965 7030.37988
7060.0 0.0001416 6911.73096 7033.74707
7090.0 0.0001410 6910.05420 7035.07471
7090.0 0.0001410 6908.35840 7033.95410
7080.0 0.0001412 6906.63867 7030.18701
7070.0 0.0001414 6904.89893 7023.83154
7090.0 0.0001410 6903.13623 7015.21680
7080.0 0.0001412 6901.35107 7004.88477
7070.0 0.0001414 6899.54150 6993.76563
7060.0 0.0001416 6897.70898 6982.41064
7060.0 0.0001416 6895.85205 6971.40137
7040.0 0.0001420 6893.97021 6961.14551
7030.0 0.0001422 6892.06152 6951.79736
7020.0 0.0001425 6890.12549 6943.30420
6990.0 0.0001431 6888.16357 6935.68848
6970.0 0.0001435 6886.17578 6928.83008
6970.0 0.0001435 6884.15771 6922.64893
6930.0 0.0001443 6882.11475 6917.08691
6910.0 0.0001447 6880.03809 6912.07422
6890.0 0.0001451 6877.93506 6907.56055
6880.0 0.0001453 6875.80273 6903.50244
6880.0 0.0001453 6873.63818 6899.87305
6870.0 0.0001456 6871.44580 6896.63867
6910.0 0.0001447 6869.22119 6893.77979
6930.0 0.0001443 6866.96631 6891.28369
6910.0 0.0001447 6864.67822 6889.13770
6890.0 0.0001451 6862.35938 6887.34961
6860.0 0.0001458 6860.00732 6885.91650
6860.0 0.0001458 6857.62207 6884.64404
6850.0 0.0001460 6855.20410 6883.77734
6840.0 0.0001462 6852.75391 6883.01318
6860.0 0.0001458 6850.27051 6882.21582
6860.0 0.0001458 6847.75391 6881.23779
6850.0 0.0001460 6845.20215 6879.94824
6850.0 0.0001460 6842.61572 6878.15430
6860.0 0.0001458 6839.99609 6875.64404
6880.0 0.0001453 6837.34375 6872.66113
6870.0 0.0001456 6834.65527 6869.07178
6860.0 0.0001458 6831.93262 6864.87012
6840.0 0.0001462 6829.17578 6860.54883
6830.0 0.0001464 6826.38330 6856.15576
6830.0 0.0001464 6823.55762 6851.64551
6820.0 0.0001466 6820.69434 6847.50635
6780.0 0.0001475 6817.80127 6843.25146
6800.0 0.0001471 6814.86963 6839.41748
6820.0 0.0001466 6811.90576 6835.53516
6810.0 0.0001468 6808.90918 6831.50537
6840.0 0.0001462 6805.87500 6827.23633
6850.0 0.0001460 6802.80908 6822.70557
6840.0 0.0001462 6799.70801 6817.94043
6830.0 0.0001464 6796.57471 6812.91748
6810.0 0.0001468 6793.40869 6807.91895
6790.0 0.0001473 6790.20752 6802.92627
6780.0 0.0001475 6786.97607 6798.00391
6770.0 0.0001477 6783.71045 6793.27100
6740.0 0.0001484 6780.41211 6788.73877
6740.0 0.0001484 6777.08447 6784.45459
6760.0 0.0001479 6773.72314 6780.34082
6750.0 0.0001481 6770.33301 6776.47754
6730.0 0.0001486 6766.90967 6772.83057
6740.0 0.0001484 6763.45850 6769.35303
6740.0 0.0001484 6759.97998 6766.04785
6760.0 0.0001479 6756.46875 6762.86719
6760.0 0.0001479 6752.93164 6759.89941
6760.0 0.0001479 6749.36523 6757.08398
6760.0 0.0001479 6745.77100 6754.50146
6750.0 0.0001481 6742.15186 6751.90430
6750.0 0.0001481 6738.50586 6749.33545
6750.0 0.0001481 6734.83545 6746.72559
6750.0 0.0001481 6731.14063 6743.93262
6750.0 0.0001481 6727.42139 6741.01123
6760.0 0.0001479 6723.67822 6737.87012
6760.0 0.0001479 6719.91455 6734.43066
6760.0 0.0001479 6716.12939 6730.74609
6750.0 0.0001481 6712.32178 6726.72314
6730.0 0.0001486 6708.49512 6722.71875
6710.0 0.0001490 6704.64941 6718.63770
6720.0 0.0001488 6700.78467 6714.51660
6730.0 0.0001486 6696.90332 6710.36670
6740.0 0.0001484 6693.00488 6706.16943
6720.0 0.0001488 6689.09082 6701.89746
6700.0 0.0001493 6685.16113 6697.61572
6690.0 0.0001495 6681.21924 6693.14014
6680.0 0.0001497 6677.26367 6688.58398
6700.0 0.0001493 6673.29492 6683.93359
6700.0 0.0001493 6669.31592 6679.38525
6670.0 0.0001499 6665.32813 6675.09375
6650.0 0.0001504 6661.32861 6670.84375
6660.0 0.0001502 6657.32373 6666.82617
6630.0 0.0001508 6653.31006 6663.05859
6640.0 0.0001506 6649.28857 6659.58447
6650.0 0.0001504 6645.26416 6656.32666
6640.0 0.0001506 6641.23535 6653.28662
6640.0 0.0001506 6637.20068 6650.41797
6650.0 0.0001504 6633.16504 6647.71143
6630.0 0.0001508 6629.12842 6645.02539
6630.0 0.0001508 6625.09082 6642.35693
6630.0 0.0001508 6621.05322 6639.62891
6640.0 0.0001506 6617.01660 6636.80615
6630.0 0.0001508 6612.98438 6633.84668
6640.0 0.0001506 6608.95215 6630.68457
6640.0 0.0001506 6604.92676 6627.28223
6650.0 0.0001504 6600.90576 6623.55273
6650.0 0.0001504 6596.89014 6619.48584
6640.0 0.0001506 6592.88086 6615.55859
6640.0 0.0001506 6588.87891 6611.01123
6640.0 0.0001506 6584.88721 6606.32959
6630.0 0.0001508 6580.90332 6601.65283
6620.0 0.0001511 6576.93018 6597.11914
6620.0 0.0001511 6572.96631 6592.72412
6610.0 0.0001513 6569.01807 6588.64795
6610.0 0.0001513 6565.07715 6584.89990
6610.0 0.0001513 6561.15137 6581.57471
6600.0 0.0001515 6557.24023 6578.68555
6610.0 0.0001513 6553.34180 6576.22510
6580.0 0.0001520 6549.45898 6574.15527
6570.0 0.0001522 6545.59180 6572.38623
6560.0 0.0001524 6541.73975 6570.79395
6560.0 0.0001524 6537.90430 6569.20898
6560.0 0.0001524 6534.08643 6567.54834
6540.0 0.0001529 6530.28760 6565.63721
6550.0 0.0001527 6526.50537 6563.43066
6530.0 0.0001531 6522.74023 6560.83594
6540.0 0.0001529 6518.99609 6557.81396
6530.0 0.0001531 6515.26855 6554.39063
6530.0 0.0001531 6511.56250 6550.57031
6540.0 0.0001529 6507.87549 6546.51416
6540.0 0.0001529 6504.20752 6542.38770
6540.0 0.0001529 6500.55957 6538.35352
6540.0 0.0001529 6496.93018 6534.60986
6550.0 0.0001527 6493.32275 6531.32373
6530.0 0.0001531 6489.73535 6528.64014
6520.0 0.0001534 6486.16650 6526.64697
6510.0 0.0001536 6482.62012 6525.45947
6490.0 0.0001541 6479.09033 6525.05078
6500.0 0.0001538 6475.58252 6525.41406
6510.0 0.0001536 6472.09375 6526.38428
6500.0 0.0001538 6468.62451 6527.74023
6500.0 0.0001538 6465.17578 6529.15576
6490.0 0.0001541 6461.74365 6530.21094
6470.0 0.0001546 6458.33105 6530.33301
6480.0 0.0001543 6454.93604 6529.27100
6500.0 0.0001538 6451.55908 6526.53125
6500.0 0.0001538 6448.19922 6521.93262
6500.0 0.0001538 6444.85840 6515.53369
6520.0 0.0001534 6441.53076 6507.81348
6510.0 0.0001536 6438.22070 6498.74219
6490.0 0.0001541 6434.92676 6488.93359
6490.0 0.0001541 6431.64404 6478.87842
6500.0 0.0001538 6428.37744 6468.93115
6500.0 0.0001538 6425.12402 6459.40088
6480.0 0.0001543 6421.88232 6450.52051
6470.0 0.0001546 6418.65137 6442.48291
6450.0 0.0001550 6415.43408 6435.26025
6440.0 0.0001553 6412.22412 6428.88721
6430.0 0.0001555 6409.02393 6423.32959
6420.0 0.0001558 6405.83203 6418.36768
6410.0 0.0001560 6402.64844 6414.07178
6400.0 0.0001562 6399.47168 6410.22852
6420.0 0.0001558 6396.29883 6406.72949
6410.0 0.0001560 6393.13135 6403.40186
6390.0 0.0001565 6389.96875 6400.16064
6390.0 0.0001565 6386.80518 6396.80615
6390.0 0.0001565 6383.64795 6393.55469
6390.0 0.0001565 6380.48828 6390.22363
6390.0 0.0001565 6377.32715 6386.86182
6390.0 0.0001565 6374.16602 6383.39160
6400.0 0.0001562 6371.00293 6379.97852
6400.0 0.0001562 6367.83740 6376.63770
6410.0 0.0001560 6364.66602 6373.43701
6420.0 0.0001558 6361.49023 6370.41406
6400.0 0.0001562 6358.30615 6367.68555
6380.0 0.0001567 6355.11719 6365.31006
6370.0 0.0001570 6351.91602 6363.28516
6380.0 0.0001567 6348.70703 6361.66992
6370.0 0.0001570 6345.48828 6360.56006
6360.0 0.0001572 6342.25488 6359.64795
6350.0 0.0001575 6339.01270 6358.96826
6350.0 0.0001575 6335.75439 6358.42285
6350.0 0.0001575 6332.48340 6357.87354
6350.0 0.0001575 6329.19580 6356.73047
6340.0 0.0001577 6325.88965 6355.64844
6340.0 0.0001577 6322.57080 6354.07910
6350.0 0.0001575 6319.23291 6351.85986
6370.0 0.0001570 6315.87549 6348.88916
6360.0 0.0001572 6312.49951 6345.36084
6340.0 0.0001577 6309.10303 6341.24121
6320.0 0.0001582 6305.68311 6336.69434
6320.0 0.0001582 6302.24463 6331.85693
6320.0 0.0001582 6298.78418 6326.83789
6320.0 0.0001582 6295.30029 6321.72998
6300.0 0.0001587 6291.79346 6316.64697
6300.0 0.0001587 6288.26270 6311.56641
6280.0 0.0001592 6284.70654 6306.57813
6290.0 0.0001590 6281.12695 6301.73535
6290.0 0.0001590 6277.52246 6296.96338
6300.0 0.0001587 6273.89160 6292.32129
6300.0 0.0001587 6270.23730 6287.82764
6290.0 0.0001590 6266.55762 6283.49170
6260.0 0.0001597 6262.85059 6279.30078
6240.0 0.0001603 6259.12061 6275.51904
6240.0 0.0001603 6255.36230 6271.77295
6240.0 0.0001603 6251.57861 6268.26074
6220.0 0.0001608 6247.76953 6264.97461
6240.0 0.0001603 6243.93408 6261.94971
6250.0 0.0001600 6240.07422 6259.16943
6260.0 0.0001597 6236.18945 6256.62451
6270.0 0.0001595 6232.27979 6254.28516
6300.0 0.0001587 6228.34570 6252.05664
6290.0 0.0001590 6224.38721 6249.86035
6280.0 0.0001592 6220.40527 6247.57813
6280.0 0.0001592 6216.40088 6245.07373
6240.0 0.0001603 6212.37500 6242.21240
6250.0 0.0001600 6208.32617 6238.88184
6260.0 0.0001597 6204.25879 6235.02539
6250.0 0.0001600 6200.16650 6230.65137
6240.0 0.0001603 6196.05908 6225.83887
6250.0 0.0001600 6191.93213 6220.70068
6240.0 0.0001603 6187.78857 6215.37451
6200.0 0.0001613 6183.62549 6209.97998
6180.0 0.0001618 6179.44971 6204.51807
6180.0 0.0001618 6175.25732 6199.22705
6180.0 0.0001618 6171.05225 6194.42041
6200.0 0.0001613 6166.83496 6189.78320
6170.0 0.0001621 6162.60645 6185.36768
6160.0 0.0001623 6158.36914 6181.24951
6160.0 0.0001623 6154.12061 6177.41260
6140.0 0.0001629 6149.86670 6173.78223
6140.0 0.0001629 6145.60547 6170.59473
6150.0 0.0001626 6141.33740 6167.34961
6160.0 0.0001623 6137.06982 6164.15625
6130.0 0.0001631 6132.79834 6160.94287
6130.0 0.0001631 6128.52734 6157.61035
6140.0 0.0001629 6124.25439 6154.12891
6150.0 0.0001626 6119.98535 6150.39990
6140.0 0.0001629 6115.71875 6146.41650
6130.0 0.0001631 6111.45703 6142.09668
6130.0 0.0001631 6107.20313 6137.44238
6120.0 0.0001634 6102.95410 6132.32764
6110.0 0.0001637 6098.71777 6126.80371
6140.0 0.0001629 6094.48926 6120.92432
6140.0 0.0001629 6090.27393 6114.86914
6130.0 0.0001631 6086.07275 6108.72412
6130.0 0.0001631 6081.88477 6102.62598
6100.0 0.0001639 6077.71289 6096.70313
6090.0 0.0001642 6073.55908 6091.01318
6100.0 0.0001639 6069.42383 6085.66992
6100.0 0.0001639 6065.30957 6080.75684
6100.0 0.0001639 6061.21436 6076.33203
6080.0 0.0001645 6057.14404 6072.45605
6080.0 0.0001645 6053.09424 6069.10205
6090.0 0.0001642 6049.07129 6066.13281
6080.0 0.0001645 6045.07422 6063.89648
6060.0 0.0001650 6041.10596 6062.14941
6070.0 0.0001647 6037.16211 6060.86865
6060.0 0.0001650 6033.24951 6059.84082
6050.0 0.0001653 6029.36328 6059.01855
6020.0 0.0001661 6025.50977 6058.28760
6010.0 0.0001664 6021.68555 6057.33105
6010.0 0.0001664 6017.89600 6056.06201
6020.0 0.0001661 6014.13818 6054.32520
6020.0 0.0001661 6010.41357 6051.97656
6040.0 0.0001656 6006.72119 6049.04932
6040.0 0.0001656 6003.06299 6045.49072
6050.0 0.0001653 5999.44141 6041.32568
6070.0 0.0001647 5995.84961 6036.56592
6080.0 0.0001645 5992.29541 6031.28711
6070.0 0.0001647 5988.77539 6025.50781
6070.0 0.0001647 5985.29102 6019.44629
6050.0 0.0001653 5981.84082 6013.13867
6040.0 0.0001656 5978.42676 6006.88770
6020.0 0.0001661 5975.04639 6000.77783
6020.0 0.0001661 5971.69971 5994.93408
6010.0 0.0001664 5968.38525 5989.46631
6000.0 0.0001667 5965.10645 5984.47656
5980.0 0.0001672 5961.86133 5979.99023
5980.0 0.0001672 5958.64746 5975.85449
5980.0 0.0001672 5955.46387 5972.25684
5980.0 0.0001672 5952.31396 5969.09082
6000.0 0.0001667 5949.19238 5966.33447
5990.0 0.0001669 5946.10205 5963.89355
5980.0 0.0001672 5943.03760 5961.64258
5940.0 0.0001684 5940.00244 5959.54199
5920.0 0.0001689 5936.99316 5957.54883
5930.0 0.0001686 5934.00684 5955.60254
5940.0 0.0001684 5931.04736 5953.60742
5930.0 0.0001686 5928.10742 5951.53418
5920.0 0.0001689 5925.18994 5949.34424
5920.0 0.0001689 5922.29395 5947.02881
5910.0 0.0001692 5919.41699 5944.57373
5910.0 0.0001692 5916.55518 5942.02832
5920.0 0.0001689 5913.70850 5939.43506
5920.0 0.0001689 5910.87744 5936.88037
5930.0 0.0001686 5908.05908 5934.37109
5930.0 0.0001686 5905.25098 5931.95801
5910.0 0.0001692 5902.45215 5929.68213
5910.0 0.0001692 5899.65967 5927.64209
5930.0 0.0001686 5896.87646 5925.55908
5920.0 0.0001689 5894.09521 5923.75732
5920.0 0.0001689 5891.31885 5922.18750
5920.0 0.0001689 5888.54346 5920.73584
5940.0 0.0001684 5885.76465 5919.34180
5930.0 0.0001686 5882.98828 5917.89160
5920.0 0.0001689 5880.20459 5916.32666
5900.0 0.0001695 5877.41650 5914.26318
5910.0 0.0001692 5874.62109 5912.07666
5920.0 0.0001689 5871.81641 5909.42480
5930.0 0.0001686 5869.00342 5906.31055
5930.0 0.0001686 5866.17969 5902.78760
5930.0 0.0001686 5863.33984 5898.94287
5890.0 0.0001698 5860.48877 5894.93701
5890.0 0.0001698 5857.62158 5890.93506
5890.0 0.0001698 5854.73682 5887.10449
5880.0 0.0001701 5851.83643 5883.60449
5870.0 0.0001704 5848.91260 5880.55078
5850.0 0.0001709 5845.97070 5878.04102
5840.0 0.0001712 5843.00830 5876.12842
5850.0 0.0001709 5840.02344 5874.83154
5860.0 0.0001706 5837.01514 5874.09814
5860.0 0.0001706 5833.98438 5873.84375
5860.0 0.0001706 5830.92725 5873.95801
5880.0 0.0001701 5827.84766 5874.25732
5880.0 0.0001701 5824.74072 5874.52393
5880.0 0.0001701 5821.60889 5874.63086
5880.0 0.0001701 5818.44971 5874.15234
5880.0 0.0001701 5815.26758 5872.92383
5870.0 0.0001704 5812.05859 5870.84570
5880.0 0.0001701 5808.82178 5867.79297
5880.0 0.0001701 5805.56250 5863.89746
5880.0 0.0001701 5802.27539 5859.09570
5850.0 0.0001709 5798.96289 5853.61182
5850.0 0.0001709 5795.62598 5847.63721
5850.0 0.0001709 5792.26465 5841.35938
5840.0 0.0001712 5788.88281 5834.98389
5850.0 0.0001709 5785.47363 5828.66895
5850.0 0.0001709 5782.04443 5822.57471
5840.0 0.0001712 5778.59717 5816.79932
5830.0 0.0001715 5775.12695 5811.46240
5820.0 0.0001718 5771.64063 5806.44775
5780.0 0.0001730 5768.13672 5801.90820
5760.0 0.0001736 5764.61670 5797.77197
5750.0 0.0001739 5761.08203 5793.97461
5770.0 0.0001733 5757.53467 5790.43701
5770.0 0.0001733 5753.97754 5787.16211
5780.0 0.0001730 5750.40869 5783.87061
5780.0 0.0001730 5746.83398 5780.56543
5780.0 0.0001730 5743.25391 5777.22656
5790.0 0.0001727 5739.66943 5773.81543
5800.0 0.0001724 5736.08301 5770.32227
5800.0 0.0001724 5732.49756 5766.59375
5780.0 0.0001730 5728.91406 5762.73584
5740.0 0.0001742 5725.33203 5758.73486
5750.0 0.0001739 5721.75781 5754.58398
5760.0 0.0001736 5718.19434 5750.29492
5750.0 0.0001739 5714.63867 5745.86719
5740.0 0.0001742 5711.09570 5741.27490
5710.0 0.0001751 5707.56787 5736.68604
5700.0 0.0001754 5704.05469 5732.02783
5700.0 0.0001754 5700.56299 5727.49316
5720.0 0.0001748 5697.09033 5723.16309
5730.0 0.0001745 5693.64111 5719.09082
5730.0 0.0001745 5690.21680 5715.35156
5730.0 0.0001745 5686.81787 5711.99561
5740.0 0.0001742 5683.44727 5709.08008
5740.0 0.0001742 5680.10742 5706.61230
5720.0 0.0001748 5676.79785 5704.59424
5700.0 0.0001754 5673.52148 5702.99561
5700.0 0.0001754 5670.28223 5701.76953
5700.0 0.0001754 5667.07715 5700.82813
5680.0 0.0001761 5663.91016 5700.10840
5680.0 0.0001761 5660.78076 5699.40283
5700.0 0.0001754 5657.69189 5698.62646
5690.0 0.0001757 5654.64160 5697.63916
5690.0 0.0001757 5651.63379 5696.31592
5690.0 0.0001757 5648.66602 5694.57764
5680.0 0.0001761 5645.74219 5692.31104
5680.0 0.0001761 5642.85742 5689.44873
5700.0 0.0001754 5640.01758 5686.29346
5690.0 0.0001757 5637.22119 5682.76123
5680.0 0.0001761 5634.46289 5678.91748
5660.0 0.0001767 5631.75049 5674.96191
5680.0 0.0001761 5629.07520 5671.00879
5710.0 0.0001751 5626.44141 5667.20410
5700.0 0.0001754 5623.84814 5663.58447
5660.0 0.0001767 5621.29248 5660.23438
5650.0 0.0001770 5618.77197 5657.19824
5650.0 0.0001770 5616.28906 5654.52002
5660.0 0.0001767 5613.83838 5652.06982
5670.0 0.0001764 5611.41992 5649.85938
5660.0 0.0001767 5609.02979 5647.79541
5640.0 0.0001773 5606.66748 5645.82666
5640.0 0.0001773 5604.32959 5643.87158
5630.0 0.0001776 5602.01611 5641.82666
5620.0 0.0001779 5599.71826 5639.58398
5600.0 0.0001786 5597.43994 5637.11377
5610.0 0.0001783 5595.17334 5634.32666
5610.0 0.0001783 5592.91699 5631.12012
5610.0 0.0001783 5590.66797 5627.61914
5610.0 0.0001783 5588.42090 5623.76563
5610.0 0.0001783 5586.17236 5619.62549
5630.0 0.0001776 5583.91943 5615.21436
5610.0 0.0001783 5581.65723 5610.62988
5590.0 0.0001789 5579.38281 5606.02246
5600.0 0.0001786 5577.08936 5601.39697
5600.0 0.0001786 5574.77588 5596.82031
5600.0 0.0001786 5572.43457 5592.41504
5580.0 0.0001792 5570.06152 5588.22656
5580.0 0.0001792 5567.65723 5584.26270
5590.0 0.0001789 5565.20898 5580.54541
5570.0 0.0001795 5562.71582 5577.06787
5560.0 0.0001799 5560.17285 5573.88477
5550.0 0.0001802 5557.57568 5570.87402
5570.0 0.0001795 5554.91797 5568.06299
5570.0 0.0001795 5552.19629 5565.42334
5580.0 0.0001792 5549.40576 5562.92725
5570.0 0.0001795 5546.54004 5560.53516
5560.0 0.0001799 5543.59473 5558.22266
5580.0 0.0001792 5540.56543 5555.94531
5570.0 0.0001795 5537.44775 5553.66797
5560.0 0.0001799 5534.23828 5551.40234
5570.0 0.0001795 5530.92871 5549.02637
5560.0 0.0001799 5527.51904 5546.60156
5550.0 0.0001802 5523.99951 5544.08496
5540.0 0.0001805 5520.37207 5541.48145
5550.0 0.0001802 5516.63037 5538.63184
5530.0 0.0001808 5512.76904 5535.80908
5520.0 0.0001812 5508.78467 5532.84229
5530.0 0.0001808 5504.67676 5529.70361
5520.0 0.0001812 5500.44092 5526.33496
5530.0 0.0001808 5496.07275 5522.80371
5530.0 0.0001808 5491.57129 5519.02979
5520.0 0.0001812 5486.93457 5514.98340
5530.0 0.0001808 5482.16162 5510.65527
5520.0 0.0001812 5477.25000 5505.98486
5490.0 0.0001821 5472.19580 5500.97168
5490.0 0.0001821 5467.00586 5495.62012
5490.0 0.0001821 5461.67480 5489.93213
5490.0 0.0001821 5456.20508 5483.93799
5490.0 0.0001821 5450.59668 5477.61865
5480.0 0.0001825 5444.85449 5471.14893
5460.0 0.0001832 5438.97412 5464.52490
5440.0 0.0001838 5432.96729 5457.80469
5430.0 0.0001842 5426.83203 5451.02002
5430.0 0.0001842 5420.57666 5444.12646
5420.0 0.0001845 5414.20215 5437.32324
5410.0 0.0001848 5407.72119 5430.53174
5400.0 0.0001852 5401.13721 5423.75195
5400.0 0.0001852 5394.45801 5416.94287
5410.0 0.0001848 5387.69189 5410.07227
5410.0 0.0001848 5380.85449 5403.26416
5410.0 0.0001848 5373.95166 5396.41309
5410.0 0.0001848 5366.99414 5389.49658
5410.0 0.0001848 5359.99805 5382.51221
5390.0 0.0001855 5352.97949 5375.49658
5350.0 0.0001869 5345.94775 5368.36328
5350.0 0.0001869 5338.92578 5361.19482
5360.0 0.0001866 5331.92529 5353.95703
5350.0 0.0001869 5324.96582 5346.69971
5340.0 0.0001873 5318.06494 5339.41406
5330.0 0.0001876 5311.24561 5332.16748
5320.0 0.0001880 5304.52197 5324.93457
5320.0 0.0001880 5297.91455 5317.78418
5320.0 0.0001880 5291.44727 5310.73389
5310.0 0.0001883 5285.13184 5303.83203
5290.0 0.0001890 5278.99170 5297.13379
5270.0 0.0001898 5273.04346 5290.66992
5270.0 0.0001898 5267.30469 5284.47412
5270.0 0.0001898 5261.78467 5278.57373
5280.0 0.0001894 5256.49268 5272.97021
5290.0 0.0001890 5251.43994 5267.65918
5290.0 0.0001890 5246.62207 5262.59326
5280.0 0.0001894 5242.04004 5257.85254
5250.0 0.0001905 5237.68115 5253.36523
5240.0 0.0001908 5233.52002 5249.09521
5240.0 0.0001908 5229.52979 5245.01855
5240.0 0.0001908 5225.67090 5241.05811
5240.0 0.0001908 5221.88232 5237.13623
5240.0 0.0001908 5218.09424 5233.16211
5230.0 0.0001912 5214.21631 5229.06592
5220.0 0.0001916 5210.12939 5224.67432
5210.0 0.0001919 5205.69922 5219.84033
5210.0 0.0001919 5200.75537 5214.44434
5200.0 0.0001923 5195.09570 5208.26416
5190.0 0.0001927 5188.48389 5201.04297
5190.0 0.0001927 5180.63770 5192.60352
5190.0 0.0001927 5171.22217 5182.56836
5170.0 0.0001934 5159.85303 5170.51367
5160.0 0.0001938 5146.08936 5156.18604
5120.0 . . .
5110.0 . . .
5110.0 . . .
5110.0 . . .
5100.0 . . .
5100.0 . . .
5100.0 . . .
5100.0 . . .
5100.0 . . .
5110.0 . . .
5100.0 . . .
5090.0 . . .
5090.0 . . .
5100.0 . . .
5090.0 . . .
5080.0 . . .
5070.0 . . .
5080.0 . . .
5090.0 . . .
5090.0 . . .
5090.0 . . .
5100.0 . . .
5090.0 . . .
5090.0 . . .
5070.0 . . .
5060.0 . . .
5050.0 . . .
5050.0 . . .
5080.0 . . .
5070.0 . . .
5070.0 . . .
5060.0 . . .
5060.0 . . .
5060.0 . . .
5040.0 . . .
5050.0 . . .
5030.0 . . .
5020.0 . . .
5030.0 . . .
5030.0 . . .
5030.0 . . .
5030.0 . . .
5030.0 . . .
5030.0 . . .
5020.0 . . .
5020.0 . . .
5010.0 . . .
5010.0 . . .
5030.0 . . .
5040.0 . . .
5030.0 . . .
5000.0 . . .
4990.0 . . .
5000.0 . . .
4970.0 . . .
4970.0 . . .
4970.0 . . .
4950.0 . . .
4960.0 . . .
4950.0 . . .
4930.0 . . .
4920.0 . . .
4930.0 . . .
4920.0 . . .
4910.0 . . .
4900.0 . . .
4900.0 . . .
4900.0 . . .
4910.0 . . .
4910.0 . . .
4920.0 . . .
4900.0 . . .
4910.0 . . .
4910.0 . . .
4910.0 . . .
4920.0 . . .
4930.0 . . .
4930.0 . . .
4940.0 . . .
4930.0 . . .
4930.0 . . .
4920.0 . . .
4920.0 . . .
4910.0 . . .
4900.0 . . .
4910.0 . . .
4920.0 . . .
4930.0 . . .
4950.0 . . .
4960.0 . . .
4950.0 . . .
4940.0 . . .
4940.0 . . .
4920.0 . . .
4910.0 . . .
4900.0 . . .
4900.0 . . .
4910.0 . . .
4900.0 . . .
4900.0 . . .
4910.0 . . .
4890.0 . . .
4870.0 . . .
4870.0 . . .
4870.0 . . .
4860.0 . . .
4860.0 . . .
4850.0 . . .
4830.0 . . .
4830.0 . . .
4820.0 . . .
4820.0 . . .
4830.0 . . .
4830.0 . . .
4820.0 . . .
4820.0 . . .
4820.0 . . .
4810.0 . . .
4790.0 . . .
4790.0 . . .
4790.0 . . .
4780.0 . . .
4780.0 . . .
4760.0 . . .
4750.0 . . .
4750.0 . . .
4750.0 . . .
4740.0 . . .
4740.0 . . .
4740.0 . . .
4740.0 . . .
4760.0 . . .
4750.0 . . .
4740.0 . . .
4720.0 . . .
4710.0 . . .
4710.0 . . .
4730.0 . . .
4720.0 . . .
4710.0 . . .
4730.0 . . .
4730.0 . . .
4730.0 . . .
4720.0 . . .
4710.0 . . .
4720.0 . . .
4730.0 . . .
4720.0 . . .
4710.0 . . .
4710.0 . . .
4710.0 . . .
4680.0 . . .
4670.0 . . .
4680.0 . . .
4670.0 . . .
4660.0 . . .
4650.0 . . .
4640.0 . . .
4640.0 . . .
4630.0 . . .
4620.0 . . .
4630.0 . . .
4620.0 . . .
4620.0 . . .
4610.0 . . .
4610.0 . . .
4620.0 . . .
4630.0 . . .
4640.0 . . .
4640.0 . . .
4630.0 . . .
4630.0 . . .
4630.0 . . .
4640.0 . . .
4640.0 . . .
4640.0 . . .
4640.0 . . .
4640.0 . . .
4640.0 . . .
4640.0 . . .
4640.0 . . .
4610.0 . . .
4620.0 . . .
4630.0 . . .
4620.0 . . .
4610.0 . . .
4610.0 . . .
4610.0 . . .
4590.0 . . .
4580.0 . . .
4600.0 . . .
4610.0 . . .
4590.0 . . .
4570.0 . . .
4570.0 . . .
4560.0 . . .
4560.0 . . .
4550.0 . . .
4540.0 . . .
4540.0 . . .
4540.0 . . .
4530.0 . . .
4520.0 . . .
4530.0 . . .
4520.0 . . .
4520.0 . . .
4520.0 . . .
4510.0 . . .
4510.0 . . .
4510.0 . . .
4500.0 . . .
4500.0 . . .
4490.0 . . .
4490.0 . . .
4490.0 . . .
4490.0 . . .
4510.0 . . .
4500.0 . . .
4500.0 . . .
4480.0 . . .
4480.0 . . .
4490.0 . . .
4490.0 . . .
4480.0 . . .
4470.0 . . .
4470.0 . . .
4470.0 . . .
4480.0 . . .
4450.0 . . .
4440.0 . . .
4440.0 . . .
4450.0 . . .
4440.0 . . .
4440.0 . . .
4430.0 . . .
4430.0 . . .
4420.0 . . .
4420.0 . . .
4410.0 . . .
4390.0 . . .
4380.0 . . .
4380.0 . . .
4390.0 . . .
4390.0 . . .
4380.0 . . .
4360.0 . . .
4350.0 . . .
4330.0 . . .
4300.0 . . .
4320.0 . . .
4330.0 . . .
4330.0 . . .
4300.0 . . .
4290.0 . . .
4280.0 . . .
4280.0 . . .
4290.0 . . .
4300.0 . . .
4300.0 . . .
4280.0 . . .
4280.0 . . .
4300.0 . . .
4310.0 . . .
4300.0 . . .
4290.0 . . .
4280.0 . . .
4280.0 . . .
4300.0 . . .
4310.0 . . .
4320.0 . . .
4320.0 . . .
4320.0 . . .
4310.0 . . .
4310.0 . . .
4300.0 . . .
4290.0 . . .
4280.0 . . .
4270.0 . . .
4270.0 . . .
4260.0 . . .
4270.0 . . .
4270.0 . . .
4280.0 . . .
4290.0 . . .
4290.0 . . .
4280.0 . . .
4270.0 . . .
4250.0 . . .
4240.0 . . .
4240.0 . . .
4230.0 . . .
4220.0 . . .
4200.0 . . .
4190.0 . . .
4180.0 . . .
4190.0 . . .
4190.0 . . .
4190.0 . . .
4180.0 . . .
4180.0 . . .
4170.0 . . .
4140.0 . . .
4130.0 . . .
4130.0 . . .
4120.0 . . .
4120.0 . . .
4100.0 . . .
4100.0 . . .
4090.0 . . .
4080.0 . . .
4060.0 . . .
4040.0 . . .
4030.0 . . .
4020.0 . . .
4020.0 . . .
3990.0 . . .
3980.0 . . .
3950.0 . . .
3920.0 . . .
3900.0 . . .
3880.0 . . .
3860.0 . . .
3830.0 . . .
3810.0 . . .
3780.0 . . .
3750.0 . . .
3710.0 . . .
3670.0 . . .
3620.0 . . .
3600.0 . . .
3570.0 . . .
3530.0 . . .
3510.0 . . .
3480.0 . . .
3450.0 . . .
3410.0 . . .
3380.0 . . .
3360.0 . . .
3330.0 . . .
3320.0 . . .
3310.0 . . .
3270.0 . . .
2960.0 . . .
2550.0 . . .
2270.0 . . .
2040.0 . . .
1840.0 . . .
1670.0 . . .
1500.0 . . .
1320.0 . . .
1160.0 . . .
987.0 . . .
813.0 . . .
629.0 . . .
297.0 . . .
15.0 . . .
0.0 . . .
0.0 . . .
0.0 . . .
0.0 . . .
0.0 . . .
0.0 . . .
0.0 . . .
0.0 . . .
0.0 . . .
0.0 . . .
0.0 . . .
0.0 . . .
0.0 . . .
0.0 . . .
0.0 . . .
0.0 . . .
0.0 . . .
0.0 . . .
0.0 . . .
0.0 . . .
0.0 . . .
0.0 . . .
0.0 . . .
0.0 . . .
0.0 . . .
0.0 . . .
0.0 . . .
0.0 . . .
0.0 . . .
0.0 . . .
0.0 . . .
0.0 . . .
0.0 . . .
0.0 . . .
0.0 . . .
0.0 . . .
0.0 . . .
0.0 . . .
0.0 . . .
0.0 . . .
0.0 . . .
0.0 . . .
0.0 . . .
0.0 . . .
0.0 . . .
0.0 . . .
0.0 . . .
0.0 . . .
0.0 . . .
0.0 . . .
0.0 . . .
0.0 . . .
0.0 . . .
0.0 . . .
0.0 . . .
0.0 . . .
0.0 . . .
0.0 . . .
0.0 . . .
0.0 . . .
0.0 . . .
0.0 . . .
0.0 . . .
0.0 . . .
0.0 . . .
0.0 . . .
0.0 . . .
0.0 . . .
0.0 . . .
0.0 . . .
0.0 . . .
0.0 . . .
0.0 . . .
0.0 . . .
0.0 . . .
0.0 . . .
0.0 . . .
0.0 . . .
0.0 . . .
0.0 . . .
0.0 . . .
0.0 . . .
0.0 . . .
0.0 . . .
0.0 . . .
0.0 . . .
0.0 . . .
0.0 . . .
0.0 . . .
0.0 . . .
0.0 . . .
0.0 . . .
0.0 . . .
0.0 . . .
0.0 . . .
0.0 . . .
0.0 . . .
0.0 . . .
0.0 . . .
0.0 . . .
0.0 . . .
0.0 . . .
0.0 . . .
0.0 . . .
0.0 . . .
0.0 . . .
0.0 . . .
0.0 . . .
0.0 . . .
0.0 . . .
0.0 . . .
0.0 . . .
0.0 . . .
0.0 . . .
0.0 . . .
0.0 . . .
0.0 . . .
0.0 . . .
0.0 . . .
0.0 . . .
0.0 . . .
0.0 . . .
0.0 . . .
0.0 . . .
0.0 . . .
0.0 . . .
0.0 . . .
0.0 . . .
0.0 . . .
0.0 . . .
0.0 . . .
0.0 . . .
0.0 . . .
0.0 . . .
0.0 . . .
0.0 . . .
0.0 . . .
0.0 . . .
0.0 . . .
0.0 . . .
0.0 . . .
0.0 . . .
0.0 . . .
0.0 . . .
0.0 . . .
0.0 . . .
0.0 . . .
0.0 . . .
0.0 . . .
0.0 . . .
0.0 . . .
0.0 . . .
0.0 . . .
0.0 . . .
0.0 . . .
0.0 . . .
0.0 . . .
0.0 . . .
0.0 . . .
0.0 . . .
0.0 . . .
0.0 . . .
0.0 . . .
0.0 . . .
0.0 . . .
0.0 . . .
0.0 . . .
0.0 . . .
0.0 . . .
0.0 . . .
0.0 . . .
0.0 . . .
0.0 . . .
0.0 . . .
0.0 . . .
0.0 . . .
0.0 . . .
0.0 . . .
0.0 . . .
0.0 . . .
0.0 . . .
0.0 . . .
0.0 . . .
0.0 . . .
0.0 . . .
0.0 . . .
0.0 . . .
0.0 . . .
0.0 . . .
0.0 . . .
0.0 . . .
0.0 . . .
0.0 . . .
0.0 . . .
0.0 . . .
0.0 . . .
0.0 . . .
0.0 . . .
0.0 . . .
0.0 . . .
0.0 . . .
0.0 . . .
0.0 . . .
0.0 . . .
0.0 . . .
0.0 . . .
0.0 . . .
0.0 . . .
0.0 . . .
0.0 . . .
0.0 . . .
0.0 . . .
0.0 . . .
0.0 . . .
0.0 . . .
0.0 . . .
0.0 . . .
0.0 . . .
0.0 . . .
0.0 . . .
0.0 . . .
0.0 . . .
0.0 . . .
0.0 . . .
0.0 . . .
0.0 . . .
0.0 . . .
0.0 . . .
0.0 . . .
0.0 . . .
0.0 . . .
0.0 . . .
0.0 . . .
0.0 . . .
0.0 . . .
0.0 . . .
0.0 . . .
0.0 . . .
0.0 . . .
0.0 . . .
0.0 . . .
0.0 . . .
0.0 . . .
0.0 . . .
0.0 . . .
0.0 . . .
0.0 . . .
0.0 . . .
0.0 . . .
0.0 . . .
0.0 . . .
0.0 . . .
0.0 . . .
0.0 . . .
0.0 . . .
0.0 . . .
0.0 . . .
0.0 . . .
0.0 . . .
0.0 . . .
0.0 . . .
0.0 . . .
0.0 . . .
0.0 . . .
0.0 . . .
0.0 . . .
0.0 . . .
0.0 . . .
0.0 . . .
0.0 . . .
0.0 . . .
0.0 . . .
0.0 . . .
0.0 . . .
0.0 . . .
0.0 . . .
0.0 . . .
0.0 . . .
0.0 . . .
0.0 . . .
0.0 . . .
0.0 . . .
0.0 . . .
0.0 . . .
0.0 . . .
0.0 . . .
0.0 . . .
0.0 . . .
0.0 . . .
0.0 . . .
0.0 . . .
0.0 . . .
0.0 . . .
0.0 . . .
0.0 . . .
0.0 . . .
0.0 . . .
0.0 . . .
0.0 . . .
0.0 . . .
0.0 . . .
0.0 . . .
0.0 . . .
0.0 . . .
0.0 . . .
0.0 . . .
0.0 . . .
0.0 . . .
0.0 . . .
0.0 . . .
0.0 . . .
0.0 . . .
0.0 . . .
0.0 . . .
0.0 . . .
0.0 . . .
0.0 . . .
0.0 . . .
0.0 . . .
0.0 . . .
0.0 . . .
0.0 . . .
0.0 . . .
0.0 . . .
0.0 . . .
0.0 . . .
0.0 . . .
0.0 . . .
0.0 . . .
0.0 . . .
0.0 . . .
0.0 . . .
0.0 . . .
0.0 . . .
0.0 . . .
0.0 . . .
0.0 . . .
0.0 . . .
0.0 . . .
0.0 . . .
0.0 . . .
0.0 . . .
0.0 . . .
0.0 . . .
0.0 . . .
0.0 . . .
0.0 . . .
0.0 . . .
0.0 . . .
0.0 . . .
0.0 . . .
0.0 . . .
0.0 . . .
0.0 . . .
0.0 . . .
0.0 . . .
0.0 . . .
0.0 . . .
0.0 . . .
0.0 . . .
0.0 . . .
0.0 . . .
0.0 . . .
0.0 . . .
0.0 . . .
0.0 . . .
0.0 . . .
0.0 . . .
0.0 . . .
0.0 . . .
0.0 . . .
0.0 . . .
0.0 . . .
0.0 . . .
0.0 . . .
0.0 . . .
0.0 . . .
0.0 . . .
0.0 . . .
0.0 . . .
0.0 . . .
0.0 . . .
0.0 . . .
0.0 . . .
0.0 . . .
0.0 . . .
0.0 . . .
0.0 . . .
0.0 . . .
0.0 . . .
0.0 . . .
0.0 . . .
0.0 . . .
0.0 . . .
0.0 . . .
0.0 . . .
0.0 . . .
0.0 . . .
0.0 . . .
0.0 . . .
0.0 . . .
0.0 . . .
0.0 . . .
0.0 . . .
0.0 . . .
0.0 . . .
0.0 . . .
0.0 . . .
0.0 . . .
0.0 . . .
0.0 . . .
0.0 . . .
0.0 . . .
0.0 . . .
0.0 . . .
0.0 . . .
0.0 . . .
0.0 . . .
0.0 . . .
0.0 . . .
0.0 . . .
0.0 . . .
0.0 . . .
0.0 . . .
0.0 . . .
0.0 . . .
loop_
_refln_index_h
_refln_index_k
_refln_index_l
_refln_observed_status
_refln_F_squared_meas
_refln_F_squared_calc
_refln_phase_calc
_refln_d_spacing
_gsas_i100_meas
0 0 1 o 795.880 772.789 0.00 6.86954 39.47
1 1 -1 o 329.066 302.899 0.00 4.42987 31.13
0 1 1 o 29.474 29.674 0.00 4.37928 1.79
1 1 0 o 1562.644 1586.179 0.00 4.20878 100.00
2 0 -1 o 1722.992 1622.958 0.00 3.78440 53.00
2 0 -2 o 449.141 500.303 180.00 3.53496 10.83
0 0 2 o 161.852 205.415 180.00 3.43477 2.01
1 1 -2 o 101.003 91.745 180.00 3.37396 3.89
2 1 -1 o 1315.908 1320.147 180.00 3.15007 59.86
2 0 0 o 1968.429 1965.265 0.00 3.13107 23.09
1 1 1 o 171.788 125.424 180.00 3.09598 3.74
2 1 -2 o 29.636 18.245 0.00 3.00180 1.14
0 1 2 o 0.000 18.436 0.00 2.93972 0.00
0 2 0 o 199.303 302.896 180.00 2.84200 4.58
2 0 -3 o 3.276 3.233 0.00 2.74608 0.04
2 1 0 o 1498.017 1446.243 180.00 2.74250 31.70
0 2 1 o 285.936 247.505 180.00 2.62613 8.55
1 2 -1 o 52.232 38.440 0.00 2.63692 1.95
1 2 0 o 84.423 126.761 180.00 2.58795 2.67
2 1 -3 o 0.000 27.458 0.00 2.47263 0.00
1 1 -3 o 322.720 256.294 0.00 2.44621 5.55
2 0 1 o 11.717 33.214 180.00 2.37984 0.06
1 2 -2 o 97.873 129.435 0.00 2.35244 2.21
3 1 -2 o 0.115 0.104 180.00 2.32425 0.00
0 0 3 o 630.496 525.639 0.00 2.28985 3.48
2 2 -1 o 11.668 13.125 0.00 2.27253 0.30
1 1 2 o 1.788 2.249 180.00 2.26696 0.02
1 2 1 o 38.754 48.453 180.00 2.25197 0.63
3 1 -1 o 560.871 549.703 0.00 2.22720 10.41
2 2 -2 o 5.541 5.219 0.00 2.21493 0.13
2 1 1 o 0.000 0.000 180.00 2.19520 0.00
0 2 2 o 72.960 76.999 0.00 2.18964 1.11
3 1 -3 o 142.618 131.414 0.00 2.17695 2.75
0 1 3 o 0.000 43.730 0.00 2.12397 0.00
2 2 0 o 28.873 80.817 180.00 2.10439 0.46
2 0 -4 o 9.743 27.174 0.00 2.09623 0.06
2 2 -3 o 350.135 301.605 0.00 1.97481 5.35
2 1 -4 o 233.320 174.491 180.00 1.96675 2.82
1 2 -3 o 153.112 103.394 0.00 1.96127 1.94
3 1 0 o 24.734 16.299 0.00 1.95943 0.25
3 2 -2 o 4.159 12.549 0.00 1.89671 0.07
4 0 -3 o 6.301 13.454 0.00 1.89487 0.05
4 0 -2 o 28.401 43.643 180.00 1.89220 0.22
3 1 -4 o 152.403 234.712 0.00 1.89222 1.90
1 2 2 o 2.672 3.087 180.00 1.86520 0.02
1 1 -4 o 71.907 96.035 0.00 1.86093 0.66
2 0 2 o 60.248 63.277 0.00 1.84583 0.18
3 2 -1 o 179.391 175.337 180.00 1.84286 2.55
1 3 -1 o 86.974 77.677 180.00 1.83009 1.61
0 3 1 o 214.531 192.010 180.00 1.82647 3.53
2 2 1 o 133.144 118.778 180.00 1.82461 1.19
3 2 -3 o 58.006 48.455 0.00 1.81409 0.85
1 3 0 o 67.477 56.175 180.00 1.81348 1.15
4 1 -3 o 228.932 195.897 0.00 1.79762 3.44
4 1 -2 o 0.630 0.558 180.00 1.79533 0.01
0 2 3 o 40.999 56.680 0.00 1.78309 0.35
4 0 -4 o 0.000 51.846 0.00 1.76748 0.00
4 0 -1 o 0.000 0.032 0.00 1.76100 0.00
2 1 2 o 0.000 2.807 0.00 1.75558 0.00
1 1 3 o 0.000 79.417 0.00 1.74814 0.00
1 3 -2 o 0.021 0.069 0.00 1.72654 0.00
0 0 4 o 108.748 192.150 0.00 1.71739 0.34
2 3 -1 o 166.973 158.241 0.00 1.69420 2.53
2 3 -2 o 5.637 4.787 0.00 1.66993 0.08
4 1 -4 o 20.025 18.483 0.00 1.68777 0.23
2 2 -4 o 94.054 86.519 0.00 1.68698 0.91
1 3 1 o 23.041 21.075 180.00 1.68563 0.26
3 2 0 o 216.937 193.761 180.00 1.68235 1.89
3 1 1 o 31.118 31.766 180.00 1.66273 0.18
4 1 -1 o 656.250 593.850 180.00 1.68212 6.12
0 3 2 o 28.657 32.317 180.00 1.65900 0.30
2 0 -5 o 21.274 24.281 180.00 1.65540 0.08
0 1 4 o 97.846 83.401 0.00 1.64398 0.58
3 2 -4 o 15.634 15.750 180.00 1.63924 0.16
2 3 0 o 0.000 0.317 180.00 1.62099 0.00
1 2 -4 o 0.000 0.013 0.00 1.61877 0.00
3 1 -5 o 0.000 0.246 0.00 1.60138 0.00
2 1 -5 o 14.075 14.972 180.00 1.58936 0.10
4 2 -3 o 0.091 0.046 0.00 1.57658 0.00
4 2 -2 o 62.436 34.380 0.00 1.57504 0.71
4 0 -5 o 59.686 38.053 180.00 1.57314 0.25
4 0 0 o 31.218 48.546 180.00 1.56553 0.09
2 3 -3 o 0.055 0.503 180.00 1.55950 0.00
1 3 -3 o 0.000 47.654 0.00 1.55280 0.00
2 2 2 o 0.000 19.452 0.00 1.54799 0.00
1 2 3 o 0.000 44.344 180.00 1.54288 0.00
3 3 -2 o 50.284 94.546 180.00 1.52017 0.60
4 1 -5 o 5.430 7.122 180.00 1.51614 0.04
4 1 0 o 206.307 204.876 180.00 1.50933 1.18
1 3 2 o 168.917 140.592 0.00 1.50379 1.21
4 2 -4 o 203.069 153.797 0.00 1.50090 1.95
4 2 -1 o 409.620 274.912 0.00 1.49692 3.33
3 3 -1 o 1.946 1.176 180.00 1.49202 0.02
2 0 3 o 528.442 319.622 0.00 1.48605 1.04
1 1 -5 o 7.106 4.294 0.00 1.48611 0.04
3 2 1 o 10.655 6.868 0.00 1.48321 0.06
2 3 1 o 46.044 30.594 180.00 1.48228 0.34
3 3 -3 o 20.011 16.975 180.00 1.47662 0.21
5 1 -3 o 2.660 2.303 0.00 1.47616 0.03
0 2 4 o 50.622 59.298 180.00 1.46986 0.27
0 3 3 o 31.883 66.698 180.00 1.45976 0.22
5 1 -4 o 41.800 105.338 0.00 1.45275 0.40
3 2 -5 o 18.583 68.389 180.00 1.43917 0.13
2 1 3 o 9.259 43.016 180.00 1.43772 0.04
5 1 -2 o 0.000 12.354 0.00 1.43387 0.00
2 2 -5 o 0.000 1.573 0.00 1.43043 0.00
0 4 0 o 0.000 12.631 0.00 1.42100 0.00
1 1 4 o 1.031 1.722 0.00 1.41105 0.00
3 1 2 o 35.785 28.206 0.00 1.40673 0.14
2 3 -4 o 54.129 39.010 0.00 1.40560 0.40
3 3 0 o 24.990 15.841 180.00 1.40293 0.18
1 4 -1 o 26.928 19.218 0.00 1.39314 0.29
0 4 1 o 22.541 17.684 180.00 1.39154 0.23
1 4 0 o 0.008 0.011 0.00 1.38577 0.00
3 3 -4 o 0.000 0.000 0.00 1.37763 0.00
4 2 -5 o 12.590 21.569 0.00 1.37635 0.09
0 0 5 o 9.318 12.234 180.00 1.37391 0.02
4 0 -6 o 41.576 49.562 0.00 1.37304 0.13
5 1 -5 o 0.113 0.123 180.00 1.37216 0.00
4 2 0 o 6.346 6.269 180.00 1.37125 0.03
4 0 1 o 0.274 0.180 180.00 1.36597 0.00
1 3 -4 o 177.001 112.508 180.00 1.36541 1.08
3 1 -6 o 72.391 39.742 0.00 1.35707 0.41
2 0 -6 o 5.711 3.280 0.00 1.35501 0.01
1 2 -5 o 4.018 2.405 0.00 1.35376 0.02
5 2 -3 o 1.404 1.285 180.00 1.34623 0.01
1 4 -2 o 69.413 65.319 180.00 1.34580 0.63
5 1 -1 o 10.490 12.435 0.00 1.34082 0.06
4 3 -3 o 73.817 89.615 180.00 1.33980 0.67
4 3 -2 o 3.408 4.194 180.00 1.33886 0.03
0 1 5 o 1.661 2.072 0.00 1.33545 0.01
4 1 -6 o 35.181 43.854 0.00 1.33465 0.21
2 4 -1 o 22.589 28.877 180.00 1.33031 0.22
5 2 -4 o 10.893 14.254 180.00 1.32841 0.09
4 1 1 o 1.371 1.801 0.00 1.32815 0.01
1 4 1 o 7.079 9.475 180.00 1.32615 0.06
2 3 2 o 14.569 18.951 180.00 1.32213 0.07
1 3 3 o 2.171 2.518 0.00 1.31894 0.01
2 4 -2 o 180.819 204.848 180.00 1.31846 1.69
2 1 -6 o 166.376 184.828 0.00 1.31808 0.80
2 2 3 o 45.763 47.748 180.00 1.31689 0.17
5 2 -2 o 47.325 42.280 180.00 1.31392 0.34
0 4 2 o 10.355 8.885 180.00 1.31307 0.08
1 2 4 o 85.034 52.883 180.00 1.29630 0.31
2 4 0 o 6.490 3.577 0.00 1.29397 0.05
3 2 2 o 0.104 0.054 0.00 1.29295 0.00
4 3 -4 o 26.144 13.292 180.00 1.29242 0.20
4 3 -1 o 7.434 3.405 0.00 1.28988 0.05
3 3 1 o 0.000 0.000 180.00 1.28108 0.00
6 0 -4 o 209.723 197.037 0.00 1.27346 0.79
0 3 4 o 130.587 129.678 180.00 1.27244 0.60
5 2 -5 o 31.385 42.095 180.00 1.26595 0.21
2 4 -3 o 10.985 17.847 180.00 1.26204 0.08
6 0 -3 o 15.265 25.552 0.00 1.26147 0.05
5 1 -6 o 0.745 1.397 180.00 1.25910 0.00
1 4 -3 o 11.930 22.923 180.00 1.25849 0.08
3 2 -6 o 3.240 6.113 0.00 1.25407 0.02
3 3 -5 o 20.624 33.962 180.00 1.25238 0.12
2 3 -5 o 8.008 7.441 0.00 1.24661 0.04
6 0 -5 o 7.775 6.201 0.00 1.24298 0.03
6 1 -4 o 11.862 9.422 0.00 1.24265 0.09
5 2 -1 o 223.085 177.218 180.00 1.24121 1.13
3 4 -2 o 32.506 25.913 180.00 1.24092 0.27
0 2 5 o 12.047 11.158 0.00 1.23695 0.04
4 2 -6 o 4.435 4.277 180.00 1.23632 0.02
2 0 4 o 45.791 44.985 0.00 1.23604 0.06
1 4 2 o 0.003 0.004 180.00 1.23197 0.00
1 1 -6 o 21.807 30.620 0.00 1.23166 0.08
6 1 -3 o 12.183 17.325 0.00 1.23150 0.08
4 2 1 o 4.147 6.074 180.00 1.23114 0.01
3 4 -1 o 17.583 32.086 0.00 1.22547 0.13
5 1 0 o 15.304 25.044 180.00 1.22309 0.06
2 2 -6 o 42.524 69.621 0.00 1.22311 0.18
2 4 1 o 0.117 0.150 180.00 1.22006 0.00
3 4 -3 o 136.037 135.168 180.00 1.21690 1.03
6 1 -5 o 3.056 2.538 0.00 1.21429 0.02
6 0 -2 o 20.651 14.629 180.00 1.21039 0.05
4 3 -5 o 6.109 4.322 180.00 1.21032 0.04
2 1 4 o 5.329 3.702 180.00 1.20781 0.01
0 4 3 o 4.045 2.818 0.00 1.20741 0.02
4 3 0 o 0.000 0.000 180.00 1.20685 0.00
3 1 3 o 1.099 0.883 0.00 1.20269 0.00
4 0 -7 o 435.906 418.283 0.00 1.19593 0.98
1 3 -5 o 97.683 90.820 180.00 1.19488 0.41
4 0 2 o 34.099 24.599 0.00 1.18992 0.05
5 3 -3 o 218.726 156.111 180.00 1.18969 1.52
5 3 -4 o 0.025 0.022 180.00 1.17733 0.00
2 4 -4 o 34.978 34.177 180.00 1.17622 0.20
5 2 -6 o 12.520 13.098 180.00 1.17554 0.06
3 4 0 o 1.815 2.089 180.00 1.17465 0.01
6 1 -2 o 0.044 0.029 0.00 1.18385 0.00
4 1 -7 o 74.735 131.641 0.00 1.17031 0.32
2 3 3 o 19.277 35.665 180.00 1.16929 0.06
1 1 5 o 0.139 0.110 0.00 1.17880 0.00
5 3 -2 o 0.992 1.838 180.00 1.16721 0.01
6 0 -6 o 0.017 0.014 0.00 1.17832 0.00
4 1 2 o 21.772 35.269 180.00 1.16467 0.06
3 1 -7 o 47.149 71.305 0.00 1.16372 0.19
6 2 -4 o 3.026 4.067 180.00 1.16212 0.02
3 4 -4 o 22.420 25.796 0.00 1.15968 0.14
1 3 4 o 172.150 168.984 180.00 1.15481 0.57
6 1 -6 o 0.240 0.234 180.00 1.15379 0.00
1 2 -6 o 92.943 90.788 0.00 1.15312 0.32
6 2 -3 o 60.234 58.866 180.00 1.15299 0.36
3 3 2 o 42.732 41.950 0.00 1.15243 0.14
1 4 -4 o 57.648 56.635 0.00 1.15236 0.28
5 2 0 o 13.777 15.566 180.00 1.14608 0.05
0 0 6 o 42.503 48.776 180.00 1.14492 0.06
2 0 -7 o 4.628 5.235 0.00 1.14202 0.01
6 2 -5 o 16.307 17.047 0.00 1.13883 0.10
5 1 -7 o 104.259 105.153 0.00 1.13751 0.45
4 4 -3 o 109.636 108.761 180.00 1.13684 0.74
4 4 -2 o 160.137 156.750 180.00 1.13627 1.04
2 2 4 o 134.863 126.601 180.00 1.13348 0.35
5 3 -5 o 28.570 26.784 0.00 1.13320 0.16
6 0 -1 o 126.817 118.720 180.00 1.13292 0.23
3 2 3 o 88.436 84.587 180.00 1.12924 0.23
2 4 2 o 19.991 20.296 0.00 1.12598 0.08
3 3 -6 o 10.505 10.877 180.00 1.12465 0.05
1 4 3 o 0.823 0.857 180.00 1.12402 0.00
0 1 6 o 37.674 39.401 180.00 1.12238 0.10
1 5 -1 o 19.584 20.481 180.00 1.12238 0.14
0 5 1 o 12.959 13.497 0.00 1.12155 0.09
2 1 -7 o 191.337 195.697 0.00 1.11964 0.64
1 5 0 o 5.544 5.606 0.00 1.11852 0.04
5 3 -1 o 32.977 32.738 0.00 1.11535 0.15
6 2 -2 o 83.380 82.461 0.00 1.11360 0.39
0 3 5 o 56.712 55.730 180.00 1.11225 0.18
4 3 -6 o 39.457 38.642 180.00 1.11179 0.18
6 1 -1 o 27.675 26.927 180.00 1.11107 0.10
1 2 5 o 34.194 32.582 180.00 1.10940 0.09
4 3 1 o 0.326 0.305 180.00 1.10803 0.00
4 4 -4 o 1.566 1.454 180.00 1.10747 0.01
4 4 -1 o 8.628 7.912 180.00 1.10587 0.05
5 1 1 o 3.357 3.132 0.00 1.10224 0.01
4 2 -7 o 6.097 5.680 180.00 1.10231 0.02
2 3 -6 o 10.461 9.764 180.00 1.10216 0.04
3 4 1 o 55.792 53.192 180.00 1.10030 0.23
4 2 2 o 5.777 5.596 0.00 1.09760 0.01
1 5 -2 o 164.745 159.581 180.00 1.09718 1.04
3 2 -7 o 67.802 65.636 0.00 1.09680 0.25
0 4 4 o 61.809 59.207 180.00 1.09482 0.24
6 0 -7 o 351.512 334.512 0.00 1.09396 0.75
2 5 -1 o 0.827 0.792 180.00 1.08874 0.01
6 2 -6 o 15.121 14.550 180.00 1.08847 0.07
1 5 1 o 86.566 87.287 180.00 1.08645 0.50
2 5 -2 o 53.390 61.402 180.00 1.08222 0.34
3 4 -5 o 74.849 86.657 0.00 1.08196 0.35
0 5 2 o 45.450 54.890 0.00 1.07923 0.25
2 4 -5 o 146.450 176.877 180.00 1.07823 0.62
5 2 -7 o 0.669 0.766 0.00 1.07477 0.00
6 1 -7 o 5.947 6.719 180.00 1.07424 0.02
7 1 -4 o 9.847 9.881 0.00 1.07066 0.05
2 5 0 o 2.644 2.429 180.00 1.06855 0.02
7 1 -5 o 7.954 7.216 0.00 1.06826 0.04
5 3 -6 o 5.917 5.090 180.00 1.06697 0.03
0 2 6 o 205.639 159.398 0.00 1.06199 0.53
2 2 -7 o 9.635 7.623 0.00 1.05966 0.03
6 3 -4 o 68.320 57.289 180.00 1.05691 0.37
2 0 5 o 4.205 3.707 180.00 1.05490 0.00
4 4 -5 o 46.279 41.247 180.00 1.05449 0.22
6 2 -1 o 92.490 87.590 0.00 1.05239 0.32
4 4 0 o 5.126 4.885 180.00 1.05219 0.02
2 5 -3 o 36.293 36.745 180.00 1.05036 0.20
1 3 -6 o 16.329 16.665 0.00 1.05012 0.05
6 3 -3 o 87.007 89.078 180.00 1.05002 0.44
1 1 -7 o 0.148 0.154 180.00 1.04944 0.00
1 5 -3 o 2.489 2.698 180.00 1.04830 0.01
4 0 -8 o 35.187 38.366 0.00 1.04812 0.06
7 1 -3 o 0.923 1.016 180.00 1.04781 0.00
5 2 1 o 4.599 5.328 0.00 1.04488 0.01
5 3 0 o 12.094 14.011 180.00 1.04479 0.04
1 4 -5 o 13.293 15.378 0.00 1.04423 0.05
6 0 0 o 33.101 38.111 180.00 1.04369 0.04
4 0 3 o 0.976 1.115 0.00 1.04317 0.00
3 1 4 o 7.145 8.092 180.00 1.04272 0.01
7 1 -6 o 11.215 12.186 180.00 1.04111 0.05
5 4 -3 o 41.694 44.858 180.00 1.04076 0.23
6 3 -5 o 12.692 13.128 180.00 1.03929 0.06
3 5 -2 o 51.389 51.811 180.00 1.03809 0.30
2 1 5 o 11.521 11.450 0.00 1.03719 0.02
2 3 4 o 65.121 63.551 180.00 1.03522 0.16
1 5 2 o 100.185 96.663 180.00 1.03283 0.44
5 4 -4 o 1.160 1.117 180.00 1.03246 0.01
3 3 3 o 9.816 9.430 180.00 1.03199 0.02
4 1 -8 o 13.735 13.091 0.00 1.03074 0.04
3 5 -1 o 0.027 0.025 0.00 1.02899 0.00
2 4 3 o 5.536 5.145 0.00 1.02702 0.02
6 1 0 o 2.816 2.615 180.00 1.02653 0.01
4 1 3 o 150.639 139.945 180.00 1.02603 0.30
2 5 1 o 0.494 0.460 180.00 1.02578 0.00
5 4 -2 o 1.925 1.791 0.00 1.02562 0.01
3 5 -3 o 4.577 4.337 180.00 1.02390 0.03
5 1 -8 o 13.179 12.931 0.00 1.02207 0.04
6 2 -7 o 31.424 31.643 180.00 1.02093 0.12
6 3 -2 o 48.814 50.219 180.00 1.02001 0.20
0 5 3 o 3.322 3.543 0.00 1.01822 0.01
7 2 -4 o 30.114 32.303 180.00 1.01786 0.15
1 4 4 o 0.636 0.688 180.00 1.01717 0.00
1 3 5 o 0.772 0.838 0.00 1.01678 0.00
7 2 -5 o 2.876 3.144 180.00 1.01580 0.01
3 4 2 o 28.616 31.304 180.00 1.01555 0.09
