#------------------------------------------------------------------------------
#$Date: 2016-02-14 06:40:26 +0200 (Sun, 14 Feb 2016) $
#$Revision: 176432 $
#$URL: svn://www.crystallography.net/cod/cif/2/31/01/2310122.cif $
#------------------------------------------------------------------------------
#
# This file is available in the Crystallography Open Database (COD),
# http://www.crystallography.net/
#
# All data on this site have been placed in the public domain by the
# contributors.
#
data_2310122
loop_
_publ_author_name
'Kami\'nski, Rados\/law'
'Domaga\/la, S\/lawomir'
'Jarzembska, Katarzyna N.'
'Hoser, Anna A.'
'Sanjuan-Szklarz, W. Fabiola'
'Gutmann, Matthias J.'
'Makal, Anna'
'Mali\'nska, Maura'
'Bak, Joanna M.'
'Wo\'zniak, Krzysztof'
_publ_section_title
;
 Statistical analysis of multipole-model-derived structural parameters and
 charge-density properties from high-resolution X-ray diffraction
 experiments
;
_journal_issue                   1
_journal_name_full               'Acta Crystallographica Section A'
_journal_page_first              72
_journal_page_last               91
_journal_paper_doi               10.1107/S2053273313028313
_journal_volume                  70
_journal_year                    2014
_chemical_formula_sum            'C2 H6 O6'
_chemical_formula_weight         63
_space_group_IT_number           14
_symmetry_cell_setting           monoclinic
_symmetry_Int_Tables_number      14
_symmetry_space_group_name_Hall  '-P 2ybc'
_symmetry_space_group_name_H-M   'P 1 21/c 1'
_cell_angle_alpha                90
_cell_angle_beta                 103.93(3)
_cell_angle_gamma                90
_cell_formula_units_Z            2
_cell_length_a                   6.118(2)
_cell_length_b                   3.5042(2)
_cell_length_c                   11.883(4)
_cell_measurement_temperature    100(1)
_cell_volume                     247.26(12)
_diffrn_ambient_temperature      100(1)
_diffrn_measured_fraction_theta_full 0.81
_diffrn_measured_fraction_theta_max 0.07
_diffrn_measurement_device       '1-cirle goniometer'
_diffrn_measurement_device_type  '11 neutro detectors'
_diffrn_measurement_method       \p-scans
_diffrn_radiation_probe          neutron
_diffrn_radiation_source         'ISIS neutro spallation source'
_diffrn_radiation_type           Mo-K\a
_diffrn_reflns_av_sigmaI/netI    0.2077
_diffrn_reflns_limit_h_max       17
_diffrn_reflns_limit_h_min       -21
_diffrn_reflns_limit_k_max       8
_diffrn_reflns_limit_k_min       -5
_diffrn_reflns_limit_l_max       40
_diffrn_reflns_limit_l_min       -30
_diffrn_reflns_number            2630
_diffrn_reflns_theta_full        13.99
_diffrn_reflns_theta_max         70.86
_diffrn_reflns_theta_min         2.43
_exptl_absorpt_coefficient_mu    0.168
_exptl_crystal_colour            colourless
_exptl_crystal_density_diffrn    1.6926
_exptl_crystal_description       unspecified
_exptl_crystal_F_000             132
_exptl_crystal_size_max          4
_exptl_crystal_size_mid          2
_exptl_crystal_size_min          1
_refine_diff_density_max         4.42
_refine_diff_density_min         -4.76
_refine_ls_extinction_coef       2.36(6)
_refine_ls_extinction_method
'B-C type 1 Gaussian isotropic (Becker & Coppens, 1974)'
_refine_ls_goodness_of_fit_gt    2.00
_refine_ls_goodness_of_fit_ref   1.64
_refine_ls_hydrogen_treatment    refall
_refine_ls_number_constraints    0
_refine_ls_number_parameters     65
_refine_ls_number_reflns         2630
_refine_ls_number_restraints     0
_refine_ls_R_factor_all          0.1083
_refine_ls_R_factor_gt           0.0671
_refine_ls_shift/su_max          0.0013
_refine_ls_shift/su_mean         0.0003
_refine_ls_structure_factor_coef F
_refine_ls_weighting_details     w=1/(\s^2^(F)+0.0001F^2^)
_refine_ls_weighting_scheme      sigma
_refine_ls_wR_factor_gt          0.0645
_refine_ls_wR_factor_ref         0.0683
_reflns_number_gt                1583
_reflns_number_total             2630
_reflns_threshold_expression     I>3\s(I)
_cod_data_source_file            pc5031sup14.cif
_cod_data_source_block           sxd1
_cod_original_cell_volume        247.27(12)
_cod_original_sg_symbol_Hall     '-P 2ycb'
_cod_original_formula_sum        'C1 H3 O3'
_cod_database_code               2310122
loop_
_symmetry_equiv_pos_site_id
_symmetry_equiv_pos_as_xyz
1 x,y,z
2 -x,y+1/2,-z+1/2
3 -x,-y,-z
4 x,-y+1/2,z+1/2
loop_
_atom_site_label
_atom_site_type_symbol
_atom_site_fract_x
_atom_site_fract_y
_atom_site_fract_z
_atom_site_adp_type
_atom_site_U_iso_or_equiv
_atom_site_symmetry_multiplicity
_atom_site_occupancy
_atom_site_calc_flag
O1 O 0.4350(2) 0.4438(7) 0.34995(11) Uani 0.0110(5) 4 1 d
O2 O 0.2420(2) 0.7414(7) 0.46353(12) Uani 0.0111(5) 4 1 d
C1 C 0.40331(19) 0.5597(5) 0.44821(10) Uani 0.0078(4) 4 1 d
H1 H 0.3009(4) 0.5202(12) 0.2772(2) Uani 0.0213(11) 4 1 d
O3 O 0.1300(2) 0.6319(6) 0.17874(12) Uani 0.0109(6) 4 1 d
H2 H 0.1914(5) 0.6978(13) 0.1130(2) Uani 0.0274(12) 4 1 d
H3 H 0.0076(4) 0.4549(13) 0.1495(3) Uani 0.0271(11) 4 1 d
loop_
_atom_site_aniso_label
_atom_site_aniso_type_symbol
_atom_site_aniso_U_11
_atom_site_aniso_U_22
_atom_site_aniso_U_33
_atom_site_aniso_U_12
_atom_site_aniso_U_13
_atom_site_aniso_U_23
O1 O 0.0092(5) 0.0186(12) 0.0048(5) 0.0043(7) 0.0011(4) -0.0013(7)
O2 O 0.0071(5) 0.0187(13) 0.0067(5) 0.0059(6) 0.0005(4) -0.0003(7)
C1 C 0.0053(4) 0.0127(10) 0.0050(4) 0.0021(5) 0.0009(3) 0.0009(6)
H1 H 0.0179(11) 0.027(3) 0.0186(11) 0.0021(13) 0.0043(9) 0.0004(15)
O3 O 0.0069(5) 0.0184(15) 0.0072(5) -0.0017(6) 0.0009(4) 0.0010(7)
H2 H 0.0225(12) 0.042(3) 0.0192(12) -0.0038(15) 0.0079(10) 0.0040(15)
H3 H 0.0185(11) 0.031(3) 0.0313(14) -0.0070(15) 0.0053(10) -0.0019(18)
loop_
_atom_type_symbol
_atom_type_scat_length_neutron
_atom_type_scat_source
C 6.646 International_Tables_Vol_C
H -3.739 International_Tables_Vol_C
O 5.803 International_Tables_Vol_C
loop_
_geom_angle_atom_site_label_1
_geom_angle_atom_site_label_2
_geom_angle_atom_site_label_3
_geom_angle_site_symmetry_3
_geom_angle
C1 O1 H1 . 113.4(2)
O1 C1 O2 . 126.75(12)
O1 C1 C1 3_666 112.42(13)
O2 C1 C1 3_666 120.82(12)
H2 O3 H3 . 106.2(3)
loop_
_geom_bond_atom_site_label_1
_geom_bond_atom_site_label_2
_geom_bond_site_symmetry_2
_geom_bond_distance
O1 C1 . 1.295(2)
O1 H1 . 1.072(3)
O2 C1 . 1.224(2)
C1 C1 3_666 1.5457(19)
O3 H2 . 0.972(3)
O3 H3 . 0.970(3)
loop_
_refln_index_h
_refln_index_k
_refln_index_l
_refln_F_squared_calc
_refln_F_squared_meas
_refln_F_squared_sigma
_refln_observed_status
-6 -1 5 2161.86 2235.71 50.14 o
-6 -1 6 1593.92 1820.49 60.00 o
-7 -1 7 1444.00 1501.39 65.31 o
-4 -1 3 646.70 692.53 29.27 o
-4 -1 4 667.27 735.45 33.41 o
-5 -1 4 640.72 696.23 26.33 o
-8 -2 6 1172.11 1307.55 83.55 o
-8 -1 7 1118.88 1135.05 76.22 o
-9 -2 8 1586.61 1715.28 117.75 o
-7 -2 8 746.15 830.32 62.66 o
-7 -2 10 622.27 760.02 57.33 o
-9 -1 7 968.30 908.84 93.73 o
-7 -1 9 502.65 480.25 50.65 o
-5 -1 5 223.32 310.67 31.03 o
-8 -2 5 626.03 606.97 72.00 o
-6 -1 7 353.02 315.21 38.85 o
-9 -2 6 598.83 525.08 98.61 o
-6 -1 8 303.39 331.76 38.56 o
-9 -1 9 525.43 559.69 90.60 o
-8 -2 8 491.18 431.06 77.20 o
-8 -1 5 263.51 347.51 58.42 o
-7 -2 7 340.47 317.64 58.15 o
-4 -1 5 121.57 139.47 24.52 o
-9 -1 6 370.19 339.77 84.76 o
-8 -2 10 357.91 432.02 73.04 o
-8 -2 11 353.21 422.47 70.66 o
-8 -1 9 225.85 231.02 61.94 o
-10 -1 7 661.95 609.77 113.74 o
-8 -1 10 308.32 266.51 63.76 o
-11 -2 15 585.79 703.99 170.10 o
-10 -1 9 573.64 467.99 116.54 o
-10 -2 14 635.49 713.12 132.79 o
-9 -1 11 376.75 262.95 80.76 o
-10 -2 11 506.78 669.60 129.21 o
-10 -2 8 329.90 317.84 119.60 <
-10 -2 9 342.63 459.26 133.28 o
-8 -1 6 160.65 147.30 60.37 <
-11 -1 12 625.38 410.35 160.27 <
-6 -1 4 70.28 142.37 34.43 o
-10 -1 8 421.32 333.86 104.91 o
-10 -2 13 476.34 457.14 131.81 o
-10 -1 13 466.94 428.95 109.61 o
-11 -3 10 487.39 330.57 208.17 <
-11 -1 9 362.80 319.50 146.99 <
-12 -1 15 815.39 690.85 205.51 o
-12 -2 11 394.21 270.84 215.08 <
-11 -1 11 192.38 262.28 147.26 <
-11 -2 7 317.03 179.01 156.64 <
-8 -1 8 95.77 125.84 66.94 <
-12 -1 9 354.26 262.95 184.03 <
-10 -2 12 208.55 211.17 129.73 <
-13 -3 10 359.41 417.49 312.17 <
-11 -3 11 166.76 283.54 197.18 <
-6 0 0 4938.13 4552.57 69.98 o
-3 -1 -1 2145.96 1798.57 27.63 o
-4 0 0 1454.47 1321.00 26.50 o
-3 0 0 1187.17 1134.37 22.60 o
-5 -1 2 2122.09 2071.70 43.42 o
-4 -1 -1 1347.71 1323.29 29.88 o
-5 -1 -1 1929.02 1808.97 44.30 o
-5 -1 1 1483.05 1394.32 38.29 o
-4 -1 1 895.22 918.14 34.06 o
-7 -1 2 1450.34 1432.10 58.15 o
-6 -1 -1 1112.51 1094.25 53.36 o
-7 -1 0 1478.12 1450.40 90.40 o
-6 -2 1 848.80 826.21 65.60 o
-7 -1 1 927.12 857.40 56.39 o
-9 -3 2 2546.17 2561.20 222.84 o
-5 0 0 271.50 341.00 28.61 o
-7 0 0 666.54 596.97 54.31 o
-8 -2 1 1040.58 1081.99 127.10 o
-10 -2 3 1556.28 1861.75 149.67 o
-8 0 0 717.79 682.12 105.78 o
-8 -2 0 838.58 828.94 154.87 o
-7 -2 2 294.98 346.38 74.64 o
-8 -2 2 499.35 517.08 107.68 o
-11 -1 4 951.68 1064.33 222.25 o
-9 -1 0 884.20 582.67 174.64 o
-8 -2 3 320.71 278.93 80.67 o
-8 -2 -1 542.51 426.29 136.25 o
-7 -2 -1 335.14 300.04 110.30 <
-10 -1 -1 1086.91 1073.05 279.11 o
-10 -2 -2 1382.33 1136.51 344.01 o
-11 0 0 1571.05 692.03 316.42 <
-2 0 0 69.52 61.30 14.56 o
-11 -1 3 908.51 1335.48 258.45 o
-6 -2 0 138.51 166.13 60.95 <
-10 -2 4 521.47 465.86 164.26 <
-6 -2 -1 230.05 254.53 75.09 o
-6 -1 1 100.71 142.82 44.20 o
-12 -1 5 779.21 821.96 273.55 o
-9 -2 -2 651.95 1046.44 260.02 o
-9 -3 -3 793.40 296.98 276.98 <
-10 0 0 450.43 289.24 216.16 <
-5 -1 0 58.37 61.17 34.31 <
-10 -2 2 454.07 463.80 213.51 <
-4 -1 0 30.01 24.43 17.26 <
-9 -2 1 199.20 137.60 137.40 <
-7 -2 3 138.25 133.98 62.44 <
-13 -1 2 525.41 561.52 484.02 <
-8 -3 -2 297.29 364.75 228.01 <
-11 -3 0 719.55 661.91 421.07 <
-7 -1 3 45.26 71.60 36.94 <
-13 -1 5 764.67 675.82 300.27 <
-7 -2 0 62.25 175.80 72.77 <
-12 -2 1 470.60 435.37 355.22 <
-10 -3 4 447.93 202.92 171.85 <
-12 -4 4 114.67 379.12 364.87 <
-6 -1 0 30.20 59.42 45.74 <
-2 0 -2 3113.50 3259.78 24.75 o
-2 -1 -3 3759.58 3865.90 45.91 o
-5 0 -2 3684.18 3561.91 58.77 o
-3 0 -2 1907.63 1933.56 26.44 o
-1 -1 -2 510.06 502.83 14.13 o
-4 -1 -3 1367.02 1452.53 47.99 o
-4 0 -2 347.55 396.02 30.39 o
-7 0 -4 3993.23 4270.82 254.49 o
-3 -1 -2 196.15 194.20 20.51 o
-3 -2 -4 1050.09 788.26 88.64 o
-6 -2 -5 1664.14 1327.86 186.88 o
-4 1 -2 537.52 335.28 44.72 o
-8 0 -4 1837.35 1692.28 224.55 o
-4 1 -3 1367.03 1082.07 114.79 o
-6 -1 -4 866.91 836.69 120.80 o
-5 -2 -6 1448.66 705.04 277.17 <
-4 -1 -4 293.28 290.90 77.49 o
-6 -1 -5 1140.57 1132.92 224.78 o
-3 -1 -3 112.98 88.90 30.74 <
-7 -1 -5 1055.07 1317.11 249.27 o
-5 -3 -6 1960.15 1038.17 352.38 <
-7 -3 -4 697.60 346.18 211.31 <
-6 -2 -4 346.95 256.90 155.47 <
-5 -2 -4 236.40 149.04 117.88 <
-8 -1 -4 576.69 346.88 244.56 <
-7 -1 -4 425.58 353.70 187.63 <
-8 -2 -7 794.62 1535.15 666.62 <
-5 -1 -3 65.83 65.96 47.43 <
-9 -3 -6 567.57 885.93 583.79 <
-10 0 -4 500.80 560.03 394.44 <
-2 -1 -2 17.39 19.22 12.38 <
0 1 4 2920.69 3447.69 32.71 o
1 0 4 6859.31 8174.25 54.32 o
1 0 10 5577.86 7196.07 121.50 o
0 1 5 703.68 764.05 19.65 o
0 1 7 718.58 766.83 29.38 o
0 1 9 1347.86 1315.62 59.52 o
1 -1 9 1496.35 1470.96 70.38 o
0 1 11 1581.27 1506.02 105.25 o
0 1 10 1211.95 1195.35 74.25 o
0 1 6 294.07 301.43 19.45 o
1 -1 10 1123.36 1264.08 83.71 o
1 0 8 729.83 766.68 49.06 o
1 -1 8 520.37 585.09 45.55 o
1 0 14 1931.72 2191.25 238.20 o
1 1 9 1496.34 1353.00 157.00 o
1 1 7 1109.90 888.64 126.82 o
1 -1 14 1175.60 1171.51 197.82 o
2 -1 9 1487.35 1334.70 148.16 o
2 0 10 1588.48 934.78 212.44 o
2 -1 13 2537.15 3523.43 384.47 o
1 1 10 1123.36 1632.06 167.02 o
2 -1 6 866.61 718.04 139.94 o
2 0 8 1212.05 1146.90 212.27 o
0 2 7 1510.86 1284.21 283.91 o
1 1 14 1175.60 697.17 247.14 <
1 0 18 1946.36 1879.75 418.32 o
0 2 15 1316.31 1017.13 385.81 <
0 1 14 332.45 334.45 156.52 <
2 -2 17 669.44 475.63 430.78 <
2 -1 10 420.91 257.74 156.99 <
1 -1 16 370.40 261.93 248.12 <
-1 0 8 1965.04 1979.97 51.53 o
0 -1 11 1581.27 1778.54 65.27 o
0 -1 10 1211.95 1332.68 50.77 o
-2 0 10 900.91 946.29 42.48 o
-1 -1 11 829.92 863.80 56.08 o
-1 0 10 568.00 667.43 41.06 o
-3 0 22 3146.29 3555.82 374.29 o
-3 -1 17 1015.61 1060.90 120.49 o
-1 0 12 385.21 390.20 40.96 o
-2 -1 21 1843.29 1802.74 324.72 o
-3 -1 18 888.90 961.84 141.97 o
-3 0 18 872.13 716.72 142.03 o
-1 0 18 862.29 1062.13 212.61 o
-2 1 21 1843.28 1667.54 353.53 o
0 -1 19 1446.89 1622.86 328.76 o
-4 -1 22 905.64 778.75 236.89 o
-1 0 20 1678.44 881.83 315.63 <
-2 -1 17 592.65 658.93 144.16 o
-1 0 16 511.63 666.14 136.53 o
-1 -1 14 311.90 248.12 84.00 <
0 -1 14 332.45 261.90 94.48 <
-1 -1 12 217.36 212.01 55.23 o
-2 0 18 352.15 495.15 168.37 <
-2 0 12 82.88 86.54 38.29 <
-1 -2 20 1236.58 827.66 306.89 <
0 -2 20 838.21 556.78 290.29 <
-1 -2 22 742.86 817.61 407.43 <
-1 -1 15 257.31 324.06 102.95 o
-2 0 22 278.65 360.87 341.56 <
-3 -2 21 496.35 376.13 249.80 <
-1 -1 18 335.86 415.99 201.50 <
-3 0 28 833.55 1150.52 698.26 <
-1 0 14 51.85 79.50 62.58 <
-5 0 28 849.36 633.37 516.80 <
-2 0 32 917.23 1517.06 1171.66 <
-7 -2 40 45.35 1991.74 1622.98 <
0 -1 15 117.67 101.28 94.36 <
-1 0 6 29.80 42.22 26.23 <
-1 -1 21 631.21 854.59 377.40 <
-1 0 24 734.40 669.16 517.93 <
-3 -1 9 1521.91 1775.30 55.33 o
-3 -1 11 1134.14 1264.00 50.79 o
-4 -1 12 739.93 861.97 55.52 o
-5 -1 16 1473.23 1594.36 77.58 o
-5 -1 14 686.83 742.40 69.60 o
-5 -1 19 1312.28 1271.33 135.53 o
-3 0 10 292.73 297.07 27.96 o
-7 -1 17 1045.34 1123.88 116.52 o
-5 -1 15 655.10 700.31 78.68 o
-6 -1 14 526.81 552.92 63.96 o
-4 -1 13 338.41 397.51 54.04 o
-5 0 18 877.98 759.17 98.81 o
-7 -1 19 869.78 763.92 139.41 o
-5 -1 13 304.80 327.61 51.68 o
-7 -2 20 1022.66 1043.03 176.04 o
-4 -1 17 503.40 390.61 84.26 o
-6 -1 20 848.83 859.08 161.81 o
-6 0 20 681.03 618.86 132.01 o
-5 -1 17 419.27 480.52 96.92 o
-6 -2 20 617.16 593.91 157.23 o
-5 -1 12 175.93 204.09 44.45 o
-3 -1 12 168.03 172.79 38.64 o
-5 -2 18 516.41 679.32 125.57 o
-2 -1 9 89.69 92.70 23.90 o
-4 -2 19 301.32 433.44 115.51 o
-6 -2 17 473.36 648.68 80.73 o
-4 -1 10 66.60 89.98 31.81 <
-6 -2 18 372.49 305.75 120.11 <
-3 -1 13 85.70 47.79 34.82 <
-4 -1 16 231.85 115.29 70.33 <
-6 -1 19 495.49 490.59 131.20 o
-7 -2 25 125.09 477.48 365.90 <
-9 -2 21 338.97 311.35 183.79 <
-5 -2 19 323.80 348.78 131.04 <
-4 -2 18 268.76 219.49 107.04 <
-6 -2 15 127.83 120.72 71.41 <
-8 -3 22 912.56 629.70 271.61 <
-15 -4 36 33.69 1531.71 1362.24 <
-7 -2 24 292.56 375.09 302.83 <
-3 -1 10 24.89 57.70 27.35 <
-4 0 2 4779.79 4915.35 59.53 o
-5 1 2 2122.08 2269.04 40.67 o
-6 1 5 2161.86 2054.12 50.45 o
-5 1 3 804.05 818.20 25.44 o
-7 1 2 1450.34 1536.94 71.28 o
-5 1 4 640.72 579.33 28.47 o
-5 0 2 449.93 472.78 24.42 o
-9 1 7 968.30 814.00 91.63 o
-4 1 2 82.21 119.32 16.71 o
-8 2 5 626.03 739.62 103.43 o
-10 2 3 1556.28 1213.37 224.33 o
-8 1 4 296.21 258.38 73.21 o
-8 1 5 263.51 212.16 56.12 o
-11 1 4 951.68 541.59 215.52 <
-10 1 7 661.95 620.77 129.18 o
-9 2 6 598.83 546.84 134.03 o
-13 0 6 1854.78 1433.96 275.55 o
-9 1 6 370.19 254.97 90.42 <
-8 1 6 160.65 229.04 62.90 o
-6 1 4 70.28 45.24 32.72 <
-11 1 3 908.51 863.98 248.61 o
-9 0 4 235.12 232.60 74.47 o
-12 1 5 779.22 469.69 228.36 <
-10 2 4 521.47 623.66 183.30 o
-7 1 4 72.33 42.64 37.64 <
-7 1 5 52.55 36.97 36.62 <
-10 2 8 329.90 182.60 136.86 <
-13 1 5 764.67 838.15 326.79 <
-19 2 9 58.91 1204.83 1138.68 <
-2 1 2 1896.75 1743.67 25.35 o
-3 2 3 2391.45 2643.37 47.38 o
-2 2 4 2004.76 2079.59 44.39 o
-1 2 5 3205.00 3239.16 65.66 o
-2 1 1 529.11 513.44 13.50 o
-4 2 0 1760.61 1706.07 101.01 o
-1 1 2 149.54 154.90 8.08 o
-4 3 4 2143.91 2203.07 171.40 o
-3 2 2 478.02 423.81 34.85 o
-2 3 6 3061.16 2455.82 194.59 o
-4 2 4 371.96 287.88 39.30 o
-4 2 3 334.08 314.08 41.05 o
-4 2 1 678.70 615.14 53.84 o
-2 1 0 78.87 88.51 9.46 o
-2 3 7 1049.07 1663.81 184.43 o
-7 3 4 974.54 1184.22 176.93 o
-3 3 4 816.31 627.32 163.43 o
-3 3 5 955.73 699.06 145.08 o
-5 3 5 286.59 192.39 138.90 <
-3 2 5 67.35 37.59 22.93 <
-7 3 5 464.58 374.99 173.94 <
-5 3 7 340.49 191.97 106.61 <
-3 3 8 485.48 361.48 119.15 o
-4 3 9 312.39 103.77 87.02 <
-2 2 5 92.15 115.44 31.21 o
-5 4 10 237.89 457.97 298.19 <
-5 3 4 292.84 245.62 123.21 <
-4 2 2 95.31 254.83 45.73 o
-3 4 11 373.68 541.01 363.54 <
-4 3 5 185.85 285.75 123.44 <
-5 4 8 363.84 724.37 314.23 <
-3 2 4 11.32 39.06 27.00 <
-3 3 7 6.45 105.17 79.25 <
-2 1 11 1940.02 2126.70 64.32 o
-3 1 9 1521.91 1570.55 55.40 o
-2 1 8 1104.01 1225.40 43.90 o
-3 1 11 1134.14 1133.69 61.39 o
-2 1 6 494.46 477.36 29.45 o
-2 1 10 438.16 452.68 42.43 o
-2 1 7 234.60 233.46 28.06 o
-3 1 16 760.65 799.81 115.35 o
-4 2 15 945.98 962.44 160.17 o
-3 2 10 264.42 285.86 59.85 o
-4 1 19 971.12 607.45 170.82 o
-3 2 11 331.67 325.25 67.12 o
-3 2 13 537.78 517.50 108.24 o
-3 2 16 741.36 423.49 149.37 <
-4 1 17 503.40 575.71 130.24 o
-3 2 12 281.29 111.66 68.22 <
-4 2 14 280.21 305.22 122.43 <
-2 1 9 89.69 72.91 32.07 <
-3 1 12 168.03 163.76 52.42 o
-7 2 20 1022.66 1186.27 317.50 o
-5 2 18 516.41 513.42 223.41 <
-3 2 15 304.52 239.34 149.79 <
-4 2 16 234.41 405.17 173.85 <
-4 2 12 56.86 112.46 67.17 <
-3 2 18 537.27 901.39 244.06 o
-2 1 12 85.06 149.34 53.04 <
-6 2 17 473.36 492.58 193.40 <
-4 1 20 286.54 180.26 154.29 <
-4 3 22 84.64 588.82 529.56 <
-3 1 13 85.70 150.44 62.41 <
-6 2 18 372.49 244.29 221.50 <
-3 1 15 101.44 100.15 82.64 <
-8 3 22 912.56 1033.45 602.59 <
-4 2 18 268.76 236.74 228.47 <
-4 2 11 138.40 153.32 85.91 <
-4 2 17 187.38 204.06 164.85 <
-7 4 30 32.42 1740.20 1278.88 <
-5 3 28 285.66 911.16 901.13 <
-7 2 26 239.10 647.84 523.26 <
-5 0 8 4251.05 5507.12 96.14 o
-6 0 10 2581.92 3005.65 83.20 o
-4 0 8 1254.65 1414.65 53.78 o
-5 0 10 1017.78 1089.83 52.45 o
-3 0 6 755.62 839.98 46.00 o
-6 1 10 656.83 649.92 58.55 o
-6 1 9 460.36 445.15 52.04 o
-7 1 9 502.65 497.74 59.83 o
-8 0 14 810.52 708.94 91.84 o
-10 0 18 1998.35 1809.92 197.88 o
-7 0 14 628.24 591.77 76.50 o
-7 1 11 680.09 587.51 71.14 o
-2 0 4 410.98 507.14 56.38 o
-11 0 14 1578.94 1139.41 175.43 o
-7 1 14 447.82 501.36 85.18 o
-9 0 16 892.70 693.59 127.19 o
-9 1 17 1086.29 906.53 180.91 o
-8 1 10 308.32 239.84 76.12 o
-8 1 15 658.64 663.49 129.49 o
-4 0 6 91.67 135.15 27.39 o
-6 0 12 192.84 206.95 51.82 o
-6 0 8 91.02 114.45 35.32 o
-10 1 14 778.74 629.57 168.04 o
-9 1 11 376.75 230.69 95.59 <
-7 1 10 168.49 131.29 53.70 <
-9 0 14 394.21 446.35 110.01 o
-10 1 17 534.07 393.21 212.44 <
-6 1 12 167.59 169.41 58.29 <
-12 0 16 741.84 468.14 221.46 <
-11 0 18 582.16 594.99 233.01 <
-6 1 11 125.22 155.29 55.86 <
-12 1 15 815.39 759.27 301.37 <
-8 1 16 348.49 225.28 111.23 <
-8 1 12 151.66 199.00 94.76 <
-5 1 10 56.46 63.32 41.78 <
-7 1 12 118.82 129.10 71.41 <
-10 1 13 466.94 391.27 146.31 <
-11 2 21 128.74 449.96 343.25 <
-5 2 5 1851.42 1793.27 58.25 o
-3 1 4 666.81 625.90 25.17 o
-3 1 3 534.61 525.97 23.19 o
-4 1 6 518.95 512.61 28.30 o
-4 2 8 436.38 450.46 50.03 o
-2 1 4 203.11 182.88 18.55 o
-7 2 10 622.27 760.77 94.89 o
-7 2 8 746.15 726.73 89.20 o
-6 2 6 477.56 579.34 68.50 o
-7 2 11 578.45 584.09 93.90 o
-6 2 8 343.19 380.76 61.99 o
-9 3 12 1486.97 1027.01 248.38 o
-8 3 12 1082.81 958.20 142.47 o
-4 1 5 121.57 114.48 23.26 o
-7 2 7 340.47 352.56 77.43 o
-6 2 10 336.65 280.06 77.58 o
-5 2 6 143.19 115.13 46.71 <
-8 3 8 773.84 531.51 169.50 o
-7 3 14 691.20 998.34 211.50 o
-8 2 10 357.91 444.15 111.89 o
-7 3 13 376.71 358.95 184.95 <
-8 2 11 353.21 160.61 96.28 <
-7 2 14 245.77 255.66 89.15 <
-3 1 6 50.40 69.34 19.38 o
-8 4 13 534.08 372.88 355.44 <
-6 2 9 160.82 212.13 68.31 o
-8 3 17 465.58 321.67 204.51 <
-9 3 14 313.09 274.65 231.65 <
-9 3 13 333.08 360.67 254.94 <
-7 2 12 127.18 107.09 78.84 <
-15 4 15 2.87 985.02 816.67 <
-4 2 7 20.23 38.73 28.32 <
-10 3 12 0.77 309.14 261.38 <
-5 -1 2 2122.09 2643.51 66.43 o
-5 -1 1 1483.05 1613.32 47.44 o
-7 -1 0 1478.12 1413.94 49.35 o
-7 -1 2 1450.34 1474.53 63.44 o
-4 -1 1 895.22 924.92 36.34 o
-5 -1 3 804.04 1018.18 44.52 o
-7 -1 1 927.12 912.97 54.57 o
-8 -2 1 1040.58 1196.72 84.51 o
-10 -2 3 1556.28 1356.82 137.46 o
-8 -2 0 838.58 883.96 85.32 o
-9 -1 0 884.20 715.84 92.52 o
-8 -2 5 626.03 530.63 59.64 o
-8 -1 5 263.51 280.96 46.84 o
-11 -1 4 951.68 691.08 141.00 o
-8 -2 2 499.35 439.07 72.53 o
-7 -2 2 294.98 321.37 57.80 o
-11 -1 3 908.51 820.77 143.67 o
-8 -2 3 320.71 381.83 66.47 o
-6 -1 1 100.71 120.62 34.67 o
-8 -1 4 296.21 333.08 53.63 o
-10 -2 4 521.47 615.34 118.34 o
-12 -1 5 779.21 707.52 174.76 o
-4 -1 2 82.21 121.93 21.84 o
-10 -2 2 454.07 453.04 127.11 o
-5 -1 0 58.37 87.23 25.10 o
-11 -3 0 719.55 782.51 203.06 o
-13 -1 5 764.67 703.22 242.30 <
-9 -2 4 180.59 143.57 80.59 <
-10 -3 4 447.93 472.33 132.82 o
-11 -2 7 317.03 412.16 115.70 o
-11 -2 -1 378.44 278.57 173.18 <
-11 -2 4 376.44 344.46 152.97 <
-14 -2 6 685.65 597.86 311.39 <
-8 -1 1 133.23 117.93 52.94 <
-9 -2 1 199.20 224.75 89.57 <
-4 -1 0 30.01 28.68 15.79 <
-11 -3 4 303.21 379.66 177.33 <
-10 -1 0 355.69 350.62 119.59 <
-12 -2 1 470.60 541.62 239.33 <
-9 -1 5 35.46 88.42 62.38 <
-7 -2 3 138.25 70.14 43.79 <
-6 -1 2 42.89 57.60 29.67 <
-10 -2 0 159.16 172.00 125.94 <
-9 -2 -1 241.28 334.28 110.64 o
-7 -1 4 72.33 91.37 36.46 <
-7 -1 3 45.26 61.99 37.99 <
-7 -2 0 62.25 69.76 46.01 <
-14 -4 1 431.45 513.46 449.07 <
-10 -3 2 182.77 142.62 139.89 <
-9 -2 0 149.90 187.75 89.56 <
-12 -3 -1 43.08 301.42 263.40 <
-2 0 -2 3113.50 2823.48 40.57 o
-3 0 -2 1907.63 1781.64 34.06 o
-7 0 -4 3993.23 3878.62 120.53 o
-4 -1 -3 1367.02 1345.12 42.65 o
-4 -1 -2 537.52 576.11 31.99 o
-6 -1 -5 1140.57 1241.57 92.67 o
-6 -2 -5 1664.14 1568.10 108.64 o
-8 0 -4 1837.35 1876.04 136.27 o
-6 -1 -4 866.91 995.16 56.32 o
-8 -1 -3 1387.94 1330.40 117.64 o
-4 0 -2 347.55 351.75 24.03 o
-5 -2 -6 1448.66 1191.78 94.32 o
-7 -1 -5 1055.07 1195.33 125.10 o
-9 -1 -3 1384.64 1879.58 122.94 o
-5 -1 -6 662.80 480.29 73.58 o
-4 -1 -4 293.28 262.46 25.12 o
-5 0 -4 362.62 331.50 43.89 o
-8 -2 -4 998.92 1322.45 149.05 o
-4 0 -4 198.93 202.28 29.24 o
-3 -1 -2 196.15 191.29 21.95 o
-6 -1 -2 424.63 519.58 49.99 o
-6 -1 -6 604.16 828.00 104.48 o
-6 0 -6 591.63 596.59 70.06 o
-8 -1 -4 576.69 545.27 125.34 o
-6 -2 -4 346.95 464.81 82.57 o
-7 -1 -4 425.58 383.00 92.23 o
-3 -1 -3 112.98 127.20 21.43 o
-9 -2 -4 873.40 784.50 178.88 o
-5 -1 -2 104.20 82.47 35.10 <
-8 -2 -7 794.62 1148.38 261.62 o
-7 0 -6 604.72 568.19 135.37 o
-7 -1 -3 197.96 170.16 62.73 <
-5 -2 -7 329.88 215.22 93.88 <
-7 -2 -3 213.40 176.25 84.79 <
-7 -1 -8 639.59 533.03 205.62 <
-7 -2 -9 518.52 221.41 198.22 <
-5 -1 -3 65.83 127.93 36.17 o
-10 -2 -5 316.40 548.53 237.72 <
-10 -3 -8 1007.83 995.39 502.77 <
-9 0 -6 594.95 504.77 238.49 <
-8 -1 -8 468.41 528.67 250.40 <
-12 0 -6 1368.00 1502.01 505.84 <
-4 -1 -5 54.78 52.51 28.97 <
-9 -2 -3 135.16 186.02 144.32 <
-5 -1 -4 56.33 53.35 43.84 <
-11 -1 -3 444.76 415.12 211.61 <
-10 -3 -6 557.14 600.72 371.30 <
-9 -3 -6 567.57 863.81 300.27 <
-9 -2 -9 503.34 465.08 403.30 <
-10 0 -6 426.14 340.27 305.85 <
-11 -1 -5 464.55 559.45 355.71 <
-8 -2 -3 140.08 140.65 96.87 <
-10 -1 -3 270.88 306.22 188.40 <
-7 -1 -2 12.82 68.57 45.52 <
-12 -3 -10 500.16 1457.82 867.66 <
-11 -2 -4 349.79 343.01 275.00 <
-9 -1 -6 144.33 308.48 224.04 <
-8 -1 -6 206.70 290.55 143.06 <
-11 -2 -6 568.29 412.62 336.19 <
-9 -2 -12 261.88 521.49 445.38 <
-2 1 -3 3759.58 3808.79 46.20 o
-1 -1 -4 440.38 375.75 15.61 o
-3 0 -6 1469.26 1637.76 55.93 o
-3 -1 -7 1036.68 1136.58 70.51 o
-2 0 -6 1353.95 1694.39 84.81 o
-2 -1 -6 866.61 881.53 45.64 o
-1 -2 -6 1006.50 943.79 109.54 o
-4 0 -6 453.55 403.50 44.98 o
-2 -1 -4 140.02 128.74 16.86 o
-3 -1 -6 279.96 292.26 45.70 o
-1 0 -2 16.13 30.48 3.98 o
-5 0 -8 904.74 1400.38 160.16 o
-6 0 -10 1789.04 991.43 293.81 o
-6 1 -8 616.24 1073.58 245.29 o
-7 0 -10 989.95 1279.35 306.44 o
-5 -1 -12 1174.08 1163.69 397.73 <
-4 1 -6 286.72 291.38 101.69 <
-5 0 -10 1253.57 849.57 316.59 <
-5 -2 -10 392.78 876.79 248.34 o
-6 -1 -11 800.05 494.71 346.78 <
-5 -1 -11 1223.55 1544.46 319.55 o
-3 -2 -8 295.67 399.21 132.52 o
-4 -1 -9 338.01 299.77 185.04 <
-3 1 -7 1036.69 689.29 204.78 o
-2 0 -4 48.42 55.60 15.71 o
-8 0 -12 1137.35 1003.56 549.11 <
-6 0 -12 1799.85 1754.98 516.72 o
-6 1 -9 531.34 746.50 306.25 <
-6 -2 -13 299.11 741.81 586.03 <
-6 -2 -12 235.55 1065.42 438.12 <
0 0 2 1322.45 1679.94 14.72 o
-1 0 8 1965.04 2119.16 37.40 o
-2 1 11 1940.02 2194.28 93.61 o
-1 1 7 931.27 1040.04 43.94 o
0 0 6 1293.04 1497.91 46.95 o
0 0 8 3218.47 3575.02 120.93 o
-1 1 8 1347.75 1573.04 70.89 o
0 -1 7 718.59 829.51 45.31 o
-1 1 9 1097.39 1199.74 96.57 o
0 -1 9 1347.86 1451.43 100.98 o
0 0 4 126.14 139.77 9.98 o
0 -1 10 1211.95 857.34 143.54 o
0 -1 11 1581.27 1243.84 159.12 o
-1 0 10 568.00 668.19 67.39 o
-1 -1 11 829.92 1068.59 87.59 o
0 0 10 3023.69 3231.40 213.91 o
0 -1 6 294.07 386.16 31.34 o
-3 0 22 3146.29 2906.19 681.55 o
-3 1 16 760.65 1084.22 218.37 o
-1 1 11 829.93 283.24 151.77 <
-2 -1 21 1843.29 1923.90 656.44 <
-2 2 12 957.97 654.87 249.86 <
-1 -1 12 217.36 151.11 105.89 <
-3 1 18 888.90 630.83 308.93 <
-2 -1 17 592.65 1165.41 295.43 o
-1 -1 14 311.90 283.92 198.24 <
-4 1 22 905.64 591.07 562.48 <
-2 0 8 3084.95 3243.35 51.55 o
-2 -1 11 1940.03 2349.93 68.64 o
-3 0 12 1956.23 2146.40 74.53 o
-3 -1 9 1521.91 1582.02 54.40 o
-2 -1 8 1104.00 1180.39 42.60 o
-4 0 12 2072.69 2209.78 79.72 o
-3 -1 11 1134.14 1260.82 65.96 o
-1 0 4 740.58 723.32 35.44 o
-6 0 16 3331.92 3111.73 162.06 o
-5 -1 16 1473.23 1528.03 154.23 o
-4 0 16 1554.03 1780.10 114.63 o
-4 -1 12 739.93 776.02 66.14 o
-4 0 18 2671.81 2866.04 242.37 o
-3 0 10 292.73 343.80 39.46 o
-2 -1 10 438.16 508.29 45.38 o
-5 -1 14 686.83 510.71 88.83 o
-2 -1 7 234.60 265.90 31.28 o
-5 -1 15 655.10 638.21 115.59 o
-3 -1 16 760.65 802.33 164.90 o
-5 -1 19 1312.28 1692.59 265.32 o
-5 0 20 2170.23 2403.68 327.46 o
-4 -2 15 945.98 1096.47 146.61 o
-3 -1 17 1015.61 1426.80 224.07 o
-4 -1 13 338.41 354.84 74.06 o
-5 0 18 877.98 608.94 195.37 o
-6 0 18 637.18 486.77 199.71 <
-7 -1 19 869.78 666.97 221.45 o
-7 -2 20 1022.66 910.84 310.62 <
-3 -2 16 741.36 658.45 195.47 o
-6 -2 17 473.36 247.65 145.49 <
-3 0 8 64.92 99.09 29.05 o
-3 -2 15 304.52 156.58 118.95 <
-3 -1 12 168.03 143.34 60.64 <
-4 -1 17 503.40 394.03 180.80 <
-4 -1 22 905.64 1179.67 459.01 <
-2 -1 9 89.69 58.65 31.47 <
-4 -2 14 280.21 293.42 108.81 <
-4 -1 19 971.13 617.06 233.59 <
-6 0 20 681.03 419.52 295.17 <
-4 -1 16 231.85 283.40 145.96 <
-5 -1 17 419.27 511.89 167.49 o
-2 0 6 35.86 32.43 20.10 <
-5 -2 18 516.41 256.14 248.34 <
-6 -2 30 515.10 1175.11 1129.84 <
-6 -2 20 617.16 708.16 334.42 <
-6 -1 19 495.49 304.10 201.45 <
-6 -2 18 372.49 314.52 176.90 <
-5 -2 19 323.80 391.43 266.01 <
-8 -3 27 11.61 1269.41 876.67 <
-4 -1 7 1864.37 2208.01 59.70 o
-5 -1 9 1848.10 2024.10 64.53 o
-4 -1 8 1491.07 1694.71 51.20 o
-4 -1 6 518.95 660.12 36.48 o
-6 -1 10 656.83 699.97 59.37 o
-3 -1 7 305.48 303.84 24.82 o
-6 -1 9 460.36 622.97 50.42 o
-7 -2 15 1020.40 985.88 117.95 o
-4 -1 9 343.15 410.46 34.24 o
-7 -1 9 502.65 466.98 51.54 o
-7 -1 11 680.09 713.34 70.61 o
-7 -2 10 622.27 628.98 65.19 o
-7 -2 11 578.45 554.93 75.92 o
-5 -1 11 427.83 444.29 48.41 o
-9 -2 13 1037.55 1136.80 124.72 o
-6 -1 8 303.39 374.41 41.66 o
-8 -1 15 658.65 622.17 121.21 o
-6 -1 13 374.42 378.17 67.52 o
-6 -2 10 336.65 366.32 56.03 o
-8 -2 16 798.96 899.66 118.92 o
-10 -1 14 778.74 629.04 131.30 o
-9 -1 17 1086.30 885.98 166.34 o
-8 -2 14 582.20 541.57 115.75 o
-10 -2 14 635.49 559.32 151.99 o
-7 -1 14 447.82 444.98 93.94 o
-6 -2 14 466.75 408.16 79.80 o
-10 -2 13 476.34 458.25 120.45 o
-8 -1 16 348.49 462.85 133.07 o
-10 -1 13 466.94 476.11 108.24 o
-8 -2 11 353.21 295.79 74.70 o
-9 -1 14 363.40 421.13 117.42 o
-6 -1 11 125.22 141.17 59.08 <
-7 -1 10 168.49 197.04 48.96 o
-8 -2 18 468.75 403.91 164.00 <
-9 -2 18 560.17 449.41 201.78 <
-12 -1 15 815.39 631.76 179.20 o
-7 -1 15 170.12 196.10 90.92 <
-3 -1 6 50.40 54.32 21.49 <
-8 -1 12 151.66 143.87 75.99 <
-10 -1 18 117.78 229.45 159.31 <
-7 -1 12 118.82 139.98 69.54 <
-10 -1 17 534.06 463.90 191.71 <
-10 -3 14 356.99 349.62 172.98 <
-5 -1 10 56.46 88.81 38.67 <
-7 -2 16 322.51 225.85 105.04 <
-12 -2 18 326.77 447.84 275.50 <
-8 -2 12 137.23 189.27 84.05 <
-11 -2 15 585.79 509.94 196.90 <
-8 -1 13 109.68 150.70 89.09 <
-13 -3 23 99.92 583.53 548.03 <
-13 -3 20 548.37 447.52 431.69 <
-14 -3 22 426.52 610.82 589.54 <
-14 -5 27 1.78 1999.60 1073.56 <
-5 1 -1 1929.02 2110.40 38.65 o
-4 1 -1 1347.71 1424.70 26.22 o
-5 1 1 1483.06 1607.96 37.71 o
-6 1 -1 1112.51 1190.96 42.30 o
-7 1 2 1450.34 1422.65 52.81 o
-7 1 0 1478.12 1503.96 66.57 o
-7 1 1 927.12 942.16 53.91 o
-8 1 -3 1387.94 1427.76 91.92 o
-6 1 -2 424.63 387.29 49.66 o
-8 2 1 1040.58 1117.17 112.12 o
-9 1 -3 1384.64 1256.39 160.89 o
-9 1 0 884.20 809.83 112.76 o
-8 2 0 838.57 962.30 97.24 o
-7 1 -4 425.58 622.57 89.37 o
-10 1 -1 1086.91 873.67 164.59 o
-10 2 -2 1382.33 1364.88 270.23 o
-8 1 -4 576.69 712.63 132.49 o
-8 2 -1 542.51 484.03 122.82 o
-5 1 -2 104.20 82.20 32.69 <
-9 2 -2 651.95 986.54 192.92 o
-6 1 1 100.71 72.87 29.97 <
-7 2 -1 335.14 387.10 93.55 o
-7 1 -3 197.96 193.27 70.70 <
-4 1 0 30.01 28.04 15.91 <
-5 1 0 58.37 97.04 26.91 o
-10 2 2 454.07 489.65 161.93 o
-10 1 -3 270.88 326.10 183.68 <
-8 1 1 133.23 96.88 59.92 <
-10 1 0 355.69 428.30 151.96 <
-11 2 -1 378.44 699.22 279.97 <
-11 3 0 719.55 820.17 352.29 <
-15 4 1 84.69 1486.22 780.21 <
-12 2 1 470.59 296.54 276.01 <
-11 1 -3 444.76 589.01 281.20 <
-6 1 0 30.20 32.87 26.88 <
-5 1 -3 65.83 33.78 26.05 <
-12 1 -2 380.35 329.92 241.00 <
-11 1 -7 381.18 418.07 365.12 <
-16 3 0 149.98 988.89 833.99 <
-3 2 3 2391.45 2698.59 48.01 o
-4 2 0 1760.61 1939.61 51.70 o
-2 1 1 529.11 477.12 15.97 o
-2 2 4 2004.76 2067.78 61.98 o
-4 2 1 678.70 731.46 37.88 o
-1 1 2 149.54 166.21 7.73 o
-3 2 2 478.02 537.56 40.80 o
-4 3 4 2143.91 1817.99 136.01 o
-3 2 0 522.25 478.19 52.13 o
-2 1 0 78.87 71.08 10.41 o
-6 3 1 471.03 500.94 161.79 o
-5 3 0 1018.64 1043.91 184.85 o
-4 2 2 95.31 147.39 35.68 o
-3 2 5 67.35 111.28 35.84 o
-5 3 5 286.59 205.04 133.38 <
-3 3 5 955.73 541.46 166.21 o
-3 3 4 816.31 706.14 149.42 o
-2 2 5 92.15 119.58 57.77 <
-4 3 2 433.05 313.56 133.48 <
-5 3 4 292.84 254.07 119.14 <
-6 4 5 821.97 370.58 279.48 <
-4 3 5 185.85 303.09 152.53 <
-9 4 1 310.08 543.06 365.46 <
-4 1 7 1864.37 1831.48 54.81 o
-4 1 8 1491.06 1472.79 44.88 o
-5 1 9 1848.10 1832.42 55.83 o
-6 1 10 656.83 714.00 70.87 o
-4 1 12 739.94 738.49 76.62 o
-3 1 7 305.48 292.37 30.31 o
-4 1 9 343.15 437.09 47.42 o
-5 1 11 427.83 440.52 70.55 o
-5 1 16 1473.23 1455.76 174.92 o
-5 1 14 686.84 687.28 111.62 o
-7 1 17 1045.34 1217.59 218.47 o
-7 2 15 1020.40 1216.29 240.98 o
-6 1 14 526.81 521.71 118.05 o
-5 1 15 655.10 703.18 133.61 o
-5 1 13 304.80 396.38 90.08 o
-8 2 16 798.96 458.65 251.88 <
-6 1 13 374.42 341.55 104.96 o
-8 2 14 582.21 403.73 175.03 <
-3 1 6 50.40 78.67 25.27 o
-4 1 13 338.40 307.01 86.22 o
-7 1 14 447.82 588.01 130.51 o
-6 2 14 466.75 392.55 167.71 <
-7 1 19 869.78 671.83 294.39 <
-7 2 20 1022.66 1135.27 395.79 <
-6 1 11 125.22 141.97 61.29 <
-5 2 11 156.68 138.65 81.68 <
-7 1 15 170.12 144.41 125.35 <
-5 1 12 175.93 290.48 80.41 o
-6 1 12 167.59 99.45 86.95 <
-5 1 17 419.26 373.89 191.11 <
-6 2 17 473.36 410.31 280.08 <
-6 1 19 495.49 408.23 257.94 <
-7 2 14 245.77 477.44 207.68 <
-5 1 10 56.46 58.71 57.17 <
-8 1 16 348.49 246.33 167.85 <
-7 2 16 322.51 293.63 216.61 <
-10 3 19 45.77 694.86 484.31 <
-7 0 6 4412.17 5164.82 112.15 o
-5 0 4 2020.42 2388.07 69.31 o
-5 0 6 1674.02 1785.35 56.32 o
-6 0 6 1514.26 1773.75 61.24 o
-7 1 7 1444.00 1379.38 73.53 o
-4 0 4 817.24 906.01 46.06 o
-8 0 8 1163.27 1090.34 75.56 o
-8 1 7 1118.88 1179.69 85.28 o
-11 0 8 1822.00 1953.03 159.18 o
-9 1 7 968.30 1027.50 107.69 o
-10 0 8 1216.84 1032.52 114.64 o
-3 0 2 368.29 376.68 40.20 o
-9 0 10 562.22 537.48 88.50 o
-6 0 4 46.92 128.83 33.90 o
-10 1 7 661.95 623.04 132.15 o
-8 1 5 263.51 283.87 62.13 o
-10 1 9 573.64 626.70 142.81 o
-9 1 6 370.19 270.95 77.17 o
-9 1 9 525.43 507.65 101.93 o
-10 0 12 462.04 327.46 111.83 <
-10 0 6 328.12 237.99 88.18 <
-8 1 6 160.65 196.79 64.23 o
-8 1 9 225.85 225.21 78.80 <
-9 1 11 376.75 261.10 93.50 <
-11 1 12 625.39 258.56 196.67 <
-8 0 6 202.83 156.24 56.31 <
-10 0 10 378.16 423.50 104.63 o
-10 1 8 421.32 379.55 127.52 <
-12 0 12 569.08 543.16 201.50 <
-2 0 2 139.61 169.68 47.76 o
-11 0 10 512.32 358.61 142.35 <
-9 0 8 202.27 238.36 79.08 o
-12 1 8 379.36 243.77 219.93 <
-9 0 6 112.97 109.41 66.94 <
-11 1 9 362.80 275.32 165.05 <
-12 1 9 354.26 411.73 237.15 <
-10 1 10 95.30 210.38 141.25 <
-11 1 10 115.89 165.91 159.84 <
-5 2 5 1851.42 1931.64 61.18 o
-5 1 3 804.05 726.24 25.70 o
-3 1 4 666.81 653.44 25.33 o
-4 1 3 646.70 687.80 29.95 o
-4 1 4 667.27 660.71 29.09 o
-3 1 3 534.61 529.46 23.92 o
-5 1 4 640.72 662.97 33.68 o
-3 1 2 389.04 468.26 22.47 o
-5 2 4 604.42 646.54 45.99 o
-6 2 3 744.52 733.72 66.41 o
-8 2 6 1172.11 1295.56 110.42 o
-9 2 8 1586.61 1827.88 142.53 o
-6 2 6 477.55 469.65 63.38 o
-7 2 8 746.15 823.05 90.60 o
-8 2 5 626.03 617.85 106.35 o
-6 2 5 317.30 336.82 60.74 o
-9 3 12 1486.97 1091.55 280.81 o
-4 1 5 121.57 128.42 20.19 o
-9 2 6 598.83 847.55 126.05 o
-6 2 8 343.19 359.02 45.02 o
-4 1 2 82.21 87.64 22.55 o
-8 2 10 357.91 215.62 99.46 <
-7 2 7 340.47 412.24 86.21 o
-9 3 7 522.53 440.17 215.13 <
-5 2 6 143.19 110.10 36.98 <
-8 2 8 491.18 422.21 99.32 o
-8 3 8 773.84 647.85 212.10 o
-5 2 3 81.72 74.40 41.18 <
-10 3 6 527.76 350.92 203.27 <
-8 3 6 497.68 301.57 158.63 <
-7 2 3 138.25 147.48 69.71 <
-6 2 4 97.70 132.72 54.21 <
-7 3 10 247.78 140.44 121.93 <
-10 2 8 329.90 159.03 136.82 <
-11 3 10 487.39 524.53 281.47 <
-9 3 4 429.04 333.08 182.53 <
-11 3 14 62.44 349.58 287.10 <
-9 2 5 117.69 101.78 96.82 <
-4 -1 -3 1367.02 1565.70 50.02 o
-6 -1 -5 1140.57 1216.83 61.62 o
-6 -1 -4 866.91 928.84 54.07 o
-4 -1 -2 537.52 604.52 31.10 o
-5 -1 -6 662.80 706.74 46.90 o
-7 -1 -5 1055.07 1225.64 73.25 o
-8 -2 -4 998.92 1089.98 79.33 o
-6 -1 -6 604.16 700.84 60.31 o
-7 0 -8 873.36 697.39 79.56 o
-7 -1 -4 425.58 541.34 56.13 o
-6 -1 -8 616.24 620.62 68.38 o
-4 -1 -6 286.72 268.28 31.55 o
-8 -2 -7 794.62 916.10 111.99 o
-6 -1 -9 531.34 470.08 75.00 o
-4 -1 -4 293.28 264.39 29.11 o
-7 -1 -8 639.59 628.29 94.53 o
-8 -1 -4 576.69 549.60 72.01 o
-7 -1 -3 197.96 244.98 44.10 o
-7 -2 -9 518.52 624.07 102.77 o
-6 -2 -9 444.31 403.27 80.37 o
-9 0 -10 762.14 813.00 175.89 o
-9 -1 -13 1205.70 1004.39 260.25 o
-8 -1 -8 468.41 581.26 117.13 o
-5 -1 -7 132.32 146.30 44.11 o
-7 -2 -11 426.58 440.65 128.31 o
-8 -1 -10 447.33 479.82 134.85 o
-9 -2 -9 503.34 575.46 182.05 o
-10 -3 -8 1007.83 711.28 226.70 o
-8 -1 -11 374.45 398.19 159.73 <
-3 -1 -5 34.02 45.63 19.51 <
-7 -1 -9 210.52 264.56 99.71 <
-4 -1 -5 54.78 85.90 25.28 o
-6 -2 -10 255.59 204.69 87.32 <
-9 -1 -7 239.38 377.93 125.89 o
-8 -2 -5 203.95 221.75 79.98 <
-10 0 -12 572.15 465.20 269.25 <
-9 -1 -6 144.33 192.97 101.20 <
-5 -1 -4 56.33 85.65 32.95 <
-11 -2 -7 633.02 495.85 224.19 <
-5 -1 -3 65.83 75.28 27.08 <
-8 -1 -6 206.70 124.31 79.11 <
-8 -2 -10 321.50 443.24 158.06 <
-10 -3 -6 557.14 471.03 163.87 <
-8 -1 -9 210.25 175.80 116.63 <
-13 -1 -5 791.39 542.14 243.90 <
-10 -2 -5 316.40 385.76 135.81 <
-11 -1 -5 464.55 350.71 151.17 <
-10 -1 -6 219.65 246.99 132.67 <
-11 -2 -8 294.22 387.19 230.15 <
-10 -2 -10 269.05 380.76 227.45 <
-9 -2 -12 261.88 348.38 261.32 <
-10 -3 -7 274.31 181.21 167.99 <
-10 -2 -12 727.66 513.79 301.55 <
-10 -1 -4 99.49 126.31 99.31 <
-5 -1 -5 27.54 36.01 35.78 <
-10 -3 -16 665.87 501.04 433.10 <
-13 0 -16 640.96 1086.95 742.05 <
-12 -3 -10 500.16 481.74 427.77 <
-10 -2 -14 253.86 430.79 340.42 <
-9 -1 -5 83.15 183.21 89.64 <
-1 0 -4 6859.31 8128.62 91.23 o
-3 0 -12 5243.05 5788.85 127.30 o
-2 0 -6 1353.95 1382.76 30.98 o
-2 0 -8 1212.05 1389.51 35.26 o
-3 0 -6 1469.26 1562.81 37.16 o
-2 -1 -9 1487.35 1292.52 50.33 o
-3 -1 -7 1036.69 925.00 40.35 o
-4 -1 -11 2015.04 2085.97 106.54 o
-3 -1 -10 1149.36 1129.13 69.53 o
-6 0 -10 1789.04 1584.60 112.18 o
-5 0 -10 1253.57 1223.20 94.83 o
-5 -1 -11 1223.55 1229.00 110.67 o
-6 0 -12 1799.85 1666.17 165.21 o
-5 -1 -12 1174.08 1649.09 141.11 o
-2 -1 -12 599.52 659.93 91.76 o
-8 0 -14 3148.34 3418.86 238.18 o
-2 -1 -10 420.91 386.67 51.09 o
-3 -1 -8 299.19 302.82 40.09 o
-3 -1 -13 767.63 877.76 130.22 o
-4 -1 -9 338.01 397.07 56.51 o
-5 0 -12 659.33 719.58 133.77 o
-3 -1 -16 884.69 1275.54 180.90 o
-3 0 -8 176.06 147.79 37.15 o
-4 -1 -13 495.09 389.92 120.29 o
-3 -1 -9 149.50 132.48 46.87 <
-2 -1 -8 127.46 106.33 31.28 o
-6 -2 -14 883.39 725.02 187.41 o
-7 -1 -15 846.87 738.13 244.08 o
-7 0 -12 592.16 370.90 141.00 <
-4 1 -13 495.09 300.65 148.76 <
-7 -1 -14 769.97 738.40 241.41 o
-6 -1 -16 761.26 457.49 271.37 <
-4 -2 -15 575.30 474.11 180.15 <
-4 -1 -12 283.91 337.13 106.78 o
-6 1 -16 761.26 834.41 341.71 <
-6 -2 -15 644.77 454.18 258.21 <
-6 -1 -13 324.25 534.56 176.45 o
-4 0 -8 96.21 157.35 44.96 o
-5 0 -14 407.61 346.22 189.41 <
-5 -2 -17 829.60 1236.44 352.80 o
-3 0 -10 77.62 97.99 59.73 <
-2 0 -4 48.42 52.10 19.48 <
-3 -1 -11 103.77 172.36 77.15 <
-7 0 -16 663.16 684.00 371.54 <
-4 0 -16 346.86 515.19 245.07 <
-5 -1 -15 225.10 258.19 189.23 <
-3 -1 -12 116.19 189.28 96.93 <
-7 -2 -19 689.51 1328.16 542.75 <
-7 0 -18 708.67 541.76 399.73 <
-5 -2 -22 612.09 724.82 638.88 <
-8 1 -18 897.35 1285.75 623.64 <
-6 -2 -13 299.11 404.81 146.40 <
-4 0 -12 149.92 140.71 85.43 <
-5 -1 -21 1004.66 1464.11 731.01 <
-4 -1 -15 240.47 256.82 168.65 <
-8 -1 -18 897.35 563.76 486.66 <
-3 -2 -18 729.86 489.63 359.50 <
-5 1 -19 7.08 614.30 520.16 <
-8 0 -22 1165.39 2014.49 886.19 <
-4 -2 -16 105.00 414.07 261.60 <
-7 -1 -23 660.81 934.16 886.73 <
-1 0 -10 5577.86 6333.28 93.08 o
0 0 -8 3218.47 3465.00 71.67 o
0 0 -2 1322.45 1764.58 17.83 o
0 0 -6 1293.04 1476.60 27.30 o
-1 1 -6 1037.68 1089.94 34.34 o
0 -1 -7 718.58 679.11 25.39 o
-1 0 -8 729.83 886.35 29.44 o
-2 1 -9 1487.35 1532.05 54.05 o
-1 1 -7 1109.90 1190.34 47.22 o
0 -1 -9 1347.86 1364.26 68.94 o
0 0 -10 3023.69 3253.20 124.91 o
0 -1 -10 1211.95 1252.73 91.58 o
1 -2 -10 4332.65 4600.53 282.09 o
0 -1 -11 1581.27 2137.26 135.13 o
-1 1 -9 1496.35 854.05 73.14 o
0 0 -4 126.14 111.56 6.51 o
-1 1 -5 135.92 104.30 13.59 o
-1 1 -10 1123.36 870.15 115.72 o
-1 0 -14 1931.72 2764.25 247.36 o
-1 -1 -14 1175.60 1489.46 201.66 o
-2 1 -13 2537.15 2180.45 172.81 o
-2 1 -12 599.51 602.04 138.16 o
0 -2 -15 1316.31 1433.42 361.67 o
-3 1 -16 884.69 459.07 299.09 <
-2 0 -16 596.11 418.09 265.44 <
-2 -1 -19 1024.50 709.45 461.06 <
-1 -1 -11 68.24 58.22 52.38 <
-2 0 -20 378.17 649.28 619.97 <
-1 0 4 740.58 855.07 17.72 o
-1 -1 4 795.41 888.91 18.31 o
-2 -1 6 494.46 578.08 29.96 o
-2 -1 5 375.62 421.50 19.93 o
-3 -1 9 1521.91 1854.10 75.08 o
-2 0 8 3084.95 3854.97 145.53 o
-4 0 10 967.23 889.52 72.28 o
-2 -1 8 1104.00 1065.00 88.41 o
-4 -2 10 891.38 932.97 85.60 o
-6 0 16 3331.92 2639.65 439.00 o
-2 1 5 375.62 472.86 74.88 o
-2 -1 7 234.60 217.78 41.73 o
-3 1 7 305.48 374.08 52.81 o
-5 -2 13 1481.79 1442.79 255.44 o
-4 0 12 2072.69 1778.51 241.49 o
-3 -1 11 1134.14 1323.48 209.21 o
-3 1 9 1521.91 1124.94 192.16 o
-4 -1 12 739.93 638.13 198.22 o
-7 -1 17 1045.34 804.33 461.73 <
-5 0 12 492.46 639.40 160.70 o
-6 1 13 374.42 229.61 192.65 <
-3 -2 9 249.39 143.91 91.80 <
-3 0 8 64.92 105.35 44.26 <
-5 -1 14 686.83 430.29 226.20 <
-5 -1 12 175.93 168.65 96.42 <
-6 1 14 526.81 401.88 336.80 <
-6 0 14 320.31 523.35 243.33 <
-5 0 8 4251.05 4300.69 65.85 o
-4 -1 7 1864.37 2156.71 55.65 o
-4 -1 8 1491.07 1778.55 55.62 o
-5 -1 9 1848.10 1953.75 77.59 o
-6 0 10 2581.92 2651.08 78.70 o
-3 -1 4 666.81 653.82 35.01 o
-4 -1 6 518.95 550.65 40.17 o
-7 -2 8 746.15 733.39 93.34 o
-6 -1 10 656.83 645.97 92.95 o
-6 -1 9 460.36 487.51 76.19 o
-6 -1 7 353.02 465.06 55.99 o
-7 -2 10 622.27 743.40 138.37 o
-7 -1 9 502.65 482.28 91.24 o
-7 -1 11 680.09 911.28 132.11 o
-9 -3 12 1486.97 1219.44 287.15 o
-7 -2 11 578.45 519.37 150.53 o
-6 -2 8 343.19 241.27 64.93 o
-6 -1 8 303.39 311.00 63.31 o
-4 -1 5 121.57 148.57 32.71 o
-8 0 14 810.52 626.37 231.55 <
-8 -3 12 1082.82 694.30 259.17 <
-8 -1 10 308.32 338.17 120.82 <
-9 -2 13 1037.55 947.93 303.41 o
-11 -1 12 625.38 504.74 251.71 <
-6 -2 10 336.65 278.38 101.06 <
-8 -1 15 658.65 859.38 270.44 o
-8 -2 11 353.21 339.49 171.89 <
-3 -1 6 50.40 85.71 23.34 o
-10 -1 14 778.74 550.41 342.86 <
-8 -2 10 357.91 316.46 137.51 <
-8 -1 9 225.85 207.73 90.39 <
-9 0 16 892.70 1016.73 330.14 o
-9 -1 17 1086.30 651.86 413.89 <
-10 -1 13 466.94 429.00 266.47 <
-9 0 14 394.21 381.30 274.83 <
-6 -1 11 125.22 220.87 118.56 <
-10 0 18 1998.35 993.88 433.98 <
-8 -2 14 582.20 628.72 277.01 <
-7 -2 9 43.20 138.40 85.52 <
-7 -1 10 168.49 175.75 99.91 <
-5 -1 8 31.87 45.07 36.68 <
-7 -2 14 245.77 226.92 191.99 <
-10 -3 14 356.99 377.21 343.79 <
-10 -2 13 476.34 462.36 296.65 <
-10 -2 14 635.49 881.65 367.51 <
-7 -3 14 691.20 532.82 285.71 <
-8 -2 16 798.96 877.83 389.08 <
-6 -1 12 167.59 116.16 96.42 <
-10 -4 18 0.07 768.13 717.03 <
-7 -1 14 447.82 350.04 210.07 <
-15 -1 20 144.62 1714.89 1068.60 <
-6 -1 5 2161.86 2412.64 62.40 o
-5 -1 2 2122.09 2773.48 71.09 o
-5 -1 1 1483.05 2159.11 63.76 o
-7 -1 2 1450.34 1742.19 68.82 o
-5 -1 3 804.04 941.38 42.07 o
-4 -1 1 895.22 1106.30 46.46 o
-4 -1 3 646.70 641.92 32.47 o
-5 -1 4 640.72 684.58 36.62 o
-8 -1 7 1118.88 1157.98 57.19 o
-8 -2 6 1172.11 1211.68 92.08 o
-9 -2 8 1586.61 1641.55 95.06 o
-10 -2 3 1556.28 1569.23 129.37 o
-9 -1 7 968.30 929.59 99.44 o
-8 -2 5 626.03 635.11 82.64 o
-8 -2 2 499.35 456.53 64.65 o
-11 -1 4 951.68 571.81 126.46 o
-9 -2 6 598.83 792.76 107.56 o
-11 -1 3 908.51 847.17 121.72 o
-8 -2 3 320.71 317.92 66.02 o
-10 -1 7 661.95 735.09 126.56 o
-8 -1 4 296.21 357.18 63.04 o
-9 -1 6 370.19 413.01 93.43 o
-7 -2 2 294.98 279.22 53.30 o
-10 -1 9 573.64 470.07 114.41 o
-8 -1 5 263.51 273.81 69.02 o
-12 -1 5 779.21 639.13 166.70 o
-10 -2 2 454.07 434.47 93.55 o
-10 -1 8 421.32 364.10 122.27 <
-4 -1 2 82.21 91.04 25.23 o
-11 -2 4 376.44 226.72 139.45 <
-13 -1 5 764.67 754.60 213.88 o
-10 -2 8 329.90 209.28 137.86 <
-10 -2 4 521.47 526.84 118.63 o
-10 -3 4 447.93 403.41 140.49 <
-10 -3 6 527.76 463.77 150.27 o
-8 -1 6 160.65 148.12 63.91 <
-11 -3 10 487.39 527.83 204.65 <
-7 -2 3 138.25 83.26 52.09 <
-6 -1 4 70.28 69.75 36.25 <
-11 -2 7 317.03 340.69 170.38 <
-9 -2 4 180.59 193.22 84.59 <
-7 -1 5 52.55 76.11 47.90 <
-12 -1 8 379.36 381.71 197.85 <
-9 -2 5 117.69 117.83 88.34 <
-12 -1 9 354.26 247.76 184.65 <
-7 -1 3 45.26 50.36 45.77 <
-10 -2 9 342.63 255.43 140.05 <
-11 -1 9 362.80 428.81 161.97 <
-14 -1 7 637.02 317.97 301.78 <
-7 -1 4 72.33 70.24 41.75 <
-21 -5 13 12.89 1593.76 1489.78 <
-13 -3 10 359.41 376.81 362.48 <
-9 -1 4 42.53 112.25 75.03 <
-11 -3 4 303.21 336.64 168.30 <
-11 -1 8 138.89 210.46 139.28 <
-6 -1 2 42.89 39.29 31.05 <
-11 -2 5 188.69 203.46 150.50 <
-4 1 -3 1367.03 1313.89 30.56 o
-3 1 -7 1036.69 1028.68 30.29 o
-6 2 -5 1664.13 1663.50 85.21 o
-5 2 -6 1448.67 1393.29 60.99 o
-5 1 -6 662.80 670.89 35.82 o
-3 1 -6 279.96 324.84 26.17 o
-4 1 -4 293.28 323.84 26.78 o
-3 1 -8 299.19 361.01 35.90 o
-6 1 -8 616.24 600.76 72.35 o
-4 1 -6 286.72 253.36 33.84 o
-3 1 -3 112.98 124.34 17.70 o
-4 1 -9 338.01 287.80 50.59 o
-6 1 -9 531.34 432.55 87.25 o
-6 1 -11 800.05 894.79 121.94 o
-8 2 -7 794.62 506.77 143.42 o
-5 2 -7 329.88 287.12 80.57 o
-5 2 -5 244.72 188.31 55.54 o
-6 2 -9 444.31 324.21 125.20 <
-7 2 -9 518.52 356.59 157.82 <
-5 2 -10 392.78 192.76 109.92 <
-5 1 -7 132.32 87.05 46.07 <
-9 1 -13 1205.70 1193.29 275.07 o
-4 1 -5 54.78 36.74 21.28 <
-6 2 -14 883.39 715.54 291.86 <
-8 1 -11 374.45 434.24 172.25 <
-7 1 -11 316.62 450.61 138.41 o
-9 2 -9 503.34 528.88 196.25 <
-9 3 -8 772.09 902.58 295.37 o
-5 2 -9 263.96 389.88 106.40 o
-7 2 -11 426.58 815.46 215.18 o
-6 2 -10 255.60 215.98 140.95 <
-3 1 -5 34.02 22.99 16.06 <
-10 3 -8 1007.83 450.30 282.48 <
-5 2 -8 182.91 223.25 90.93 <
-7 1 -12 555.30 320.93 149.73 <
-7 3 -9 337.49 367.38 224.18 <
-7 1 -9 210.52 89.57 77.66 <
-7 3 -8 404.86 388.76 229.43 <
-5 2 -11 304.37 329.57 145.65 <
-5 1 -4 56.33 51.92 28.29 <
-10 2 -12 727.66 572.63 306.54 <
-6 2 -6 144.56 151.71 76.59 <
-8 2 -10 321.50 283.58 221.46 <
-6 2 -8 68.69 155.96 104.23 <
-9 2 -17 552.84 757.84 512.68 <
-2 1 2 1896.75 1834.06 20.73 o
-3 2 -2 3177.41 3166.05 52.83 o
-1 1 0 529.76 537.62 8.74 o
-3 2 3 2391.45 2652.87 63.01 o
-1 1 -1 372.84 360.39 8.81 o
-2 1 1 529.11 494.87 16.70 o
-3 2 0 522.25 500.62 30.77 o
-3 2 2 478.02 643.00 47.61 o
-2 2 0 893.10 899.05 55.05 o
-4 2 4 371.96 435.45 50.64 o
-4 2 3 334.08 445.36 45.31 o
-5 3 0 1018.64 1072.48 142.82 o
-2 2 -1 299.48 380.09 49.61 o
-4 3 4 2143.91 2133.19 224.39 o
-4 3 -1 877.71 1055.32 157.91 o
-3 3 0 889.11 285.50 202.67 <
-3 3 -4 606.20 373.34 172.67 <
-4 2 2 95.31 54.97 34.57 <
-4 3 -4 401.65 308.04 132.23 <
-4 3 2 433.05 226.50 169.95 <
-5 3 4 292.84 175.93 146.93 <
-5 3 -1 311.93 409.99 139.81 <
-6 4 0 384.23 516.34 299.32 <
-4 3 -2 7.98 128.05 110.20 <
-8 4 3 365.79 456.37 360.15 <
-6 1 5 2161.86 2209.18 75.06 o
-6 0 6 1514.26 1430.04 57.29 o
-6 1 6 1593.92 1757.65 73.04 o
-4 0 4 817.24 783.89 37.41 o
-4 1 4 667.27 710.16 34.04 o
-7 1 7 1444.00 1597.47 98.10 o
-5 1 4 640.72 664.20 43.84 o
-8 0 8 1163.27 1113.73 92.09 o
-8 1 7 1118.88 1185.45 116.34 o
-9 2 8 1586.61 1590.19 224.66 o
-9 1 7 968.30 984.57 138.82 o
-5 1 5 223.32 216.19 39.48 o
-6 1 7 353.02 436.34 67.51 o
-7 1 9 502.65 647.06 113.74 o
-6 1 8 303.39 312.60 76.43 o
-9 1 9 525.43 495.63 155.69 o
-7 2 7 340.47 355.46 115.68 o
-11 1 12 625.39 487.01 279.30 <
-2 0 2 139.61 150.07 35.01 o
-10 1 9 573.64 686.32 222.13 o
-8 2 8 491.18 310.80 156.60 <
-10 1 8 421.32 413.53 178.56 <
-8 1 10 308.32 294.92 150.80 <
-10 2 8 329.90 240.99 214.95 <
-9 1 11 376.75 651.94 212.94 o
-8 1 6 160.65 158.70 80.22 <
-10 1 13 466.94 332.94 259.28 <
-12 0 12 569.08 372.34 276.34 <
-7 1 4 72.33 90.32 55.31 <
-10 2 9 342.63 442.43 293.12 <
-10 0 10 378.16 308.10 166.89 <
-8 1 8 95.77 105.65 97.11 <
-6 1 4 70.28 91.84 44.07 <
-11 3 10 487.39 668.17 508.77 <
-5 1 6 0.75 31.21 31.02 <
-10 0 12 462.04 265.08 216.19 <
-11 1 8 138.89 235.12 194.51 <
-6 0 0 4938.13 6582.52 104.37 o
-4 0 0 1454.47 2068.75 66.37 o
-7 1 0 1478.12 1393.95 71.76 o
-3 0 0 1187.17 1604.89 81.02 o
-7 1 1 927.11 902.30 63.27 o
-9 0 -2 1234.66 1070.47 91.74 o
-7 0 0 666.54 852.32 56.52 o
-9 1 -3 1384.64 1468.44 96.17 o
-5 0 0 271.50 341.25 34.71 o
-8 0 0 717.79 646.69 65.50 o
-11 0 0 1571.05 1164.67 156.54 o
-9 1 0 884.20 942.18 111.42 o
-10 1 -1 1086.91 931.45 159.32 o
-11 0 -2 801.22 744.49 152.12 o
-8 0 -2 286.00 271.60 60.12 o
-11 1 3 908.51 898.40 161.81 o
-10 0 -2 357.80 392.99 112.16 o
-12 0 -2 817.43 720.74 199.02 o
-10 0 0 450.43 271.46 99.88 <
-13 0 -2 951.24 817.60 263.72 o
-11 1 -3 444.76 426.01 183.04 <
-8 1 1 133.23 83.54 66.99 <
-10 1 0 355.69 240.05 130.42 <
-12 1 -2 380.35 470.39 266.31 <
-11 1 -1 291.95 240.04 193.42 <
-13 0 -4 519.82 429.61 273.51 <
-12 0 -4 348.38 264.29 200.30 <
-10 1 -3 270.88 238.75 140.93 <
-2 0 0 69.52 99.82 39.51 <
-13 1 -5 791.39 518.95 371.81 <
-13 1 2 525.41 304.57 276.18 <
-12 1 1 168.93 264.37 222.34 <
-5 1 2 2122.08 2048.45 37.53 o
-3 1 -1 2145.96 1915.67 36.82 o
-4 1 -1 1347.71 1396.53 32.16 o
-3 1 1 881.30 950.65 27.93 o
-4 1 1 895.22 946.49 31.13 o
-5 2 0 719.57 925.48 53.77 o
-6 2 1 848.80 914.24 66.94 o
-9 3 2 2546.18 2721.30 248.23 o
-8 2 1 1040.58 1056.78 104.09 o
-6 2 3 744.52 763.70 78.04 o
-10 2 3 1556.28 1525.37 158.12 o
-8 2 0 838.57 967.05 104.27 o
-6 2 2 408.56 467.83 61.05 o
-8 2 -1 542.51 525.15 100.95 o
-7 2 -1 335.14 398.45 82.09 o
-8 2 2 499.35 446.00 93.38 o
-8 3 0 554.25 532.81 181.07 <
-6 2 -1 230.05 149.47 54.84 <
-7 3 -1 498.88 387.63 145.82 <
-8 2 3 320.71 313.03 99.51 o
-7 2 2 294.98 288.09 78.84 o
-6 2 0 138.51 109.44 53.29 <
-10 2 4 521.47 469.31 132.63 o
-9 3 -3 793.40 564.99 244.98 <
-7 2 -2 122.83 138.45 76.14 <
-8 3 3 450.90 628.83 191.22 o
-7 2 3 138.25 130.21 66.68 <
-4 1 0 30.01 25.51 19.64 <
-11 3 0 719.55 730.79 327.45 <
-9 2 1 199.20 187.39 109.41 <
-9 3 4 429.04 701.32 218.66 o
-10 3 4 447.93 420.63 252.93 <
-7 3 1 142.92 136.50 103.93 <
-10 3 -2 430.56 655.18 300.85 <
-8 3 1 126.15 150.15 139.15 <
-9 2 -1 241.28 221.57 132.07 <
-7 3 -2 347.15 188.79 158.38 <
-5 2 1 18.68 48.52 36.00 <
-7 2 0 62.25 156.75 68.95 <
2 0 -8 3084.95 2209.55 50.67 o
2 1 -11 1940.03 1927.57 55.47 o
2 1 -8 1104.00 897.87 31.95 o
3 0 -12 1956.23 1489.85 51.65 o
3 1 -11 1134.14 1078.69 42.62 o
4 0 -18 2671.81 2186.10 109.26 o
2 0 -10 900.91 838.53 38.48 o
5 1 -16 1473.23 1343.36 88.02 o
4 0 -16 1554.03 1270.37 76.96 o
3 1 -17 1015.61 1233.19 83.27 o
2 1 -10 438.16 454.22 32.55 o
5 0 -20 2170.23 1636.84 139.54 o
3 1 -16 760.65 767.60 71.87 o
3 1 -18 888.90 995.24 87.73 o
5 1 -19 1312.28 1340.45 131.26 o
3 0 -18 872.13 660.21 74.43 o
2 1 -17 592.65 612.19 59.48 o
4 1 -19 971.13 851.00 80.08 o
5 0 -18 877.98 772.46 94.61 o
4 1 -17 503.40 443.97 78.46 o
1 0 -4 740.58 557.12 65.19 o
5 1 -17 419.27 441.02 90.00 o
4 1 -22 905.64 732.32 149.95 o
6 1 -20 848.83 627.44 155.13 o
3 2 -21 496.35 554.32 128.67 o
5 2 -18 516.41 468.66 109.75 o
3 1 -12 168.03 197.47 39.38 o
4 1 -16 231.85 226.28 65.93 o
4 2 -16 234.40 202.28 70.00 <
4 2 -19 301.32 275.48 106.13 <
4 2 -23 607.96 569.81 188.96 o
6 1 -19 495.49 357.43 116.94 o
2 1 -9 89.69 75.87 22.84 o
4 2 -18 268.76 257.57 100.06 <
4 1 -20 286.55 347.18 122.11 <
5 2 -19 323.80 411.60 131.57 o
2 1 -12 85.06 79.32 34.37 <
3 1 -15 101.44 156.59 60.26 <
4 0 -28 871.76 752.64 257.23 <
5 2 -23 392.94 529.39 216.66 <
2 0 -12 82.88 113.71 31.18 o
4 1 -14 57.40 59.14 54.06 <
5 0 -28 849.36 712.88 308.55 <
3 1 -13 85.70 77.67 40.69 <
2 0 -14 104.04 88.65 31.64 <
6 1 -21 277.98 278.87 150.87 <
6 2 -25 572.31 410.96 284.75 <
4 1 -23 328.15 215.30 163.59 <
6 0 -24 401.86 372.24 219.81 <
5 1 -24 451.88 589.91 220.41 <
4 2 -25 154.96 281.64 209.80 <
6 3 -24 768.65 412.18 296.89 <
5 0 -22 175.98 281.58 149.37 <
6 1 -29 706.15 520.82 411.27 <
4 1 -29 547.25 357.49 329.63 <
7 3 -26 721.70 643.87 403.94 <
3 1 -23 222.34 211.30 139.73 <
8 2 -26 611.33 504.69 352.11 <
6 2 -28 395.56 423.49 413.54 <
4 2 -17 187.38 130.81 77.91 <
6 1 -26 10.73 305.66 272.87 <
4 2 -22 56.07 255.42 167.24 <
8 1 -27 363.05 627.32 411.88 <
7 0 -28 12.92 541.94 379.44 <
5 2 -22 209.06 195.59 149.76 <
6 2 -30 515.10 564.23 474.43 <
1 0 -6 29.80 30.87 21.57 <
5 0 -8 4251.05 3838.79 70.81 o
4 1 -7 1864.37 1729.22 38.76 o
4 1 -8 1491.07 1385.31 38.51 o
5 1 -9 1848.10 1799.32 56.20 o
5 2 -13 1481.79 1533.70 98.97 o
3 1 -7 305.48 307.54 27.69 o
4 1 -9 343.15 375.15 39.44 o
6 1 -10 656.83 694.65 91.93 o
5 1 -11 427.83 513.51 63.67 o
7 1 -17 1045.34 866.81 176.93 o
7 1 -11 680.09 801.08 137.73 o
6 1 -14 526.81 610.85 102.61 o
7 2 -15 1020.40 928.00 192.93 o
6 1 -13 374.42 414.21 96.79 o
6 2 -14 466.75 671.44 133.90 o
5 1 -13 304.80 158.22 55.90 <
7 1 -19 869.78 668.80 187.18 o
8 0 -14 810.52 935.72 202.86 o
5 1 -12 175.93 186.98 60.33 o
8 2 -16 798.96 906.72 288.02 o
7 2 -20 1022.66 1254.11 168.20 o
6 2 -10 336.65 366.40 107.12 o
6 2 -17 473.36 493.44 136.87 o
9 0 -16 892.70 877.01 296.45 <
8 1 -15 658.65 602.68 228.64 <
3 1 -6 50.40 37.80 20.02 <
9 1 -17 1086.30 1674.43 371.08 o
7 1 -14 447.82 510.53 152.77 o
8 2 -14 582.20 322.06 216.34 <
7 2 -14 245.77 286.58 163.45 <
7 3 -14 691.20 604.52 238.94 <
7 3 -16 652.95 390.86 251.98 <
4 1 -10 66.60 69.23 34.13 <
6 1 -11 125.22 79.84 68.72 <
7 1 -12 118.82 205.65 122.97 <
6 1 -12 167.59 156.71 73.38 <
8 3 -22 912.56 596.25 420.04 <
5 2 -11 156.68 129.01 62.83 <
8 2 -18 468.75 377.74 302.30 <
5 1 -8 31.87 54.42 36.35 <
12 3 -20 53.95 1185.94 911.32 <
7 2 -12 127.18 284.70 159.95 <
8 1 -16 348.49 430.69 226.96 <
8 3 -20 503.08 486.92 323.87 <
8 3 -16 353.12 425.41 378.32 <
3 1 -5 0.37 19.27 12.75 <
2 1 -2 1896.75 1562.49 19.26 o
1 1 -1 870.17 710.50 9.38 o
5 0 -6 1674.02 1684.30 50.11 o
3 1 -4 666.81 606.24 17.84 o
3 1 -3 534.61 458.51 20.08 o
4 0 -4 817.24 912.98 37.63 o
3 2 -3 2391.45 2101.89 68.99 o
2 2 -2 1266.34 1291.72 60.41 o
2 0 -2 139.61 158.44 6.77 o
4 1 -4 667.27 653.61 38.32 o
6 0 -6 1514.26 1320.85 112.44 o
5 0 -4 2020.42 2243.87 119.64 o
6 1 -6 1593.92 1506.72 145.64 o
5 2 -5 1851.42 1154.90 121.31 o
7 0 -6 4412.17 4134.81 307.22 o
2 1 -3 85.69 64.97 10.16 o
3 1 -2 389.04 348.30 47.83 o
6 -1 -5 2161.86 1340.06 210.32 o
4 1 -5 121.57 114.33 28.76 o
5 1 -5 223.32 401.35 83.08 o
6 1 -5 2161.86 1623.55 206.21 o
7 -1 -7 1444.00 1325.15 238.90 o
7 1 -7 1444.00 1373.32 235.43 o
4 2 -6 129.71 87.92 39.53 <
4 2 -4 371.96 139.56 93.55 <
8 0 -10 690.69 560.71 203.77 <
11 0 -14 1578.94 1124.99 619.45 <
7 1 -9 502.65 454.00 145.36 o
6 1 -7 353.02 125.57 95.02 <
6 2 -8 343.19 244.64 117.06 <
9 3 -12 1486.97 847.95 404.40 <
7 2 -8 746.15 1280.03 239.39 o
6 3 -8 422.73 414.69 212.17 <
8 0 -8 1163.27 1062.35 333.66 o
3 0 -4 0.21 15.43 12.02 <
8 1 -10 308.32 579.79 241.04 <
-3 0 -2 1907.63 1846.06 27.60 o
-5 0 -2 3684.18 4071.78 130.51 o
-2 -1 -1 488.48 422.66 24.21 o
-3 -1 -1 2145.96 2334.70 71.41 o
-4 -1 -3 1367.02 1509.59 61.11 o
-4 1 -1 1347.71 1102.08 66.96 o
-7 0 -4 3993.23 3408.14 305.91 o
-3 -2 -2 3177.41 3127.96 159.53 o
-4 0 -2 347.55 434.01 50.53 o
-5 1 -1 1929.02 2471.68 171.21 o
-5 -2 -6 1448.66 1659.71 174.88 o
-4 -1 -4 293.28 257.67 48.37 o
-3 -1 -2 196.15 307.67 36.43 o
-6 -1 -5 1140.57 1264.40 196.38 o
-3 -1 -3 112.98 139.56 29.09 o
-6 -1 -4 866.91 759.82 201.81 o
-4 -1 -2 537.52 601.39 94.50 o
-5 0 -4 362.62 408.24 74.19 o
-3 -2 -3 347.14 246.45 76.06 o
-4 -2 -2 1341.40 1352.28 221.49 o
-7 -1 -5 1055.07 1096.58 324.65 o
-8 0 -4 1837.35 1252.77 464.98 <
-7 0 -6 604.72 622.14 207.21 o
-6 -2 -5 1664.14 1534.97 317.54 o
-7 1 -4 425.58 286.61 213.29 <
-8 -2 -7 794.62 1098.73 572.12 <
-5 -1 -4 56.33 130.66 108.19 <
-3 0 -6 1469.26 1350.73 39.84 o
-3 -1 -7 1036.68 1112.18 53.45 o
-4 -1 -11 2015.04 2172.21 119.77 o
-3 -1 -10 1149.36 1037.75 68.81 o
-4 0 -6 453.55 535.03 48.88 o
-5 0 -8 904.74 947.33 93.81 o
-5 0 -10 1253.57 1350.07 121.61 o
-6 0 -10 1789.04 2018.76 184.68 o
-5 -1 -11 1223.55 1413.81 165.00 o
-3 -1 -6 279.96 355.64 39.47 o
-4 -1 -6 286.72 322.62 43.36 o
-6 0 -12 1799.85 2084.29 229.27 o
-3 -1 -8 299.19 272.98 51.65 o
-8 0 -14 3148.34 2728.01 486.77 o
-5 -1 -12 1174.08 1122.25 169.28 o
-4 -1 -9 338.01 372.41 83.98 o
-4 -1 -13 495.09 633.79 119.74 o
-5 0 -12 659.33 566.88 130.57 o
-6 -1 -11 800.05 710.84 206.76 o
-3 0 -8 176.06 137.26 37.21 o
-6 -1 -8 616.24 632.21 168.83 o
-3 -1 -9 149.50 234.37 52.77 o
-7 0 -10 989.95 1315.05 261.39 o
-5 0 -14 407.61 582.55 161.41 o
-6 -1 -9 531.34 400.67 169.30 <
-5 -2 -12 771.89 672.90 215.41 o
-6 -2 -14 883.39 886.02 362.25 <
-7 0 -12 592.16 834.08 283.93 <
-4 -1 -12 283.91 167.60 101.19 <
-2 0 -4 48.42 44.02 21.80 <
-5 -2 -17 829.60 1074.03 313.67 o
-6 -2 -9 444.31 939.37 240.13 o
-4 0 -8 96.21 71.45 43.73 <
-7 -1 -15 846.87 1095.63 403.61 <
-9 -1 -13 1205.70 962.78 640.31 <
-5 -2 -10 392.78 487.83 172.26 <
-6 -1 -13 324.25 305.42 207.00 <
-6 -1 -16 761.26 401.26 259.68 <
-7 -1 -14 769.97 921.83 406.88 <
-3 -1 -5 34.02 30.36 21.05 <
-7 0 -18 708.67 608.36 364.64 <
-8 0 -12 1137.35 905.73 389.94 <
-7 -2 -11 426.58 910.32 388.39 <
-4 -1 -7 2.34 68.54 48.46 <
-7 -1 -13 592.60 946.64 373.35 <
-4 0 -12 149.92 121.66 68.89 <
-5 -1 -7 132.32 84.98 70.74 <
-7 0 -16 663.16 637.13 368.75 <
-7 -2 -15 377.93 1001.01 508.82 <
-3 0 -12 5243.05 4443.75 97.48 o
-1 0 -10 5577.86 4456.73 105.00 o
-2 -1 -13 2537.15 2181.19 62.47 o
-2 0 -8 1212.05 994.53 37.72 o
-1 0 -4 6859.31 4487.54 152.32 o
-2 0 -10 1588.48 1352.54 53.93 o
-1 0 -14 1931.72 1881.79 79.80 o
-2 0 -14 1467.76 1299.44 81.28 o
-1 0 -8 729.83 669.26 37.61 o
-1 0 -20 2402.67 2062.22 150.14 o
-1 0 -18 1946.36 1516.54 113.36 o
-2 -1 -12 599.52 552.62 49.65 o
-3 -1 -16 884.69 835.59 108.45 o
-2 1 -19 1024.50 1055.64 121.78 o
-2 0 -12 413.14 385.93 53.29 o
-2 -1 -19 1024.50 883.53 105.39 o
-3 0 -20 1029.98 1059.01 191.88 o
-1 1 -16 370.40 441.26 60.71 o
-2 0 -16 596.11 517.19 90.97 o
-2 0 -18 587.53 625.51 110.12 o
-1 1 -19 587.09 482.75 89.21 o
-2 0 -24 1560.50 1119.78 274.84 o
-2 -1 -20 576.32 614.34 172.47 o
-2 1 -20 576.31 573.49 137.95 o
-3 0 -16 406.40 482.12 103.86 o
-2 -1 -18 626.09 477.48 79.27 o
-1 -1 -19 587.09 435.64 113.31 o
-2 1 -18 626.09 461.68 96.27 o
-3 0 -22 1041.18 1073.14 251.81 o
-4 0 -22 1150.88 1136.16 310.22 o
-2 0 -20 378.17 288.49 138.90 <
-5 1 -21 1004.66 979.18 297.77 o
-3 -1 -23 951.00 892.35 285.89 o
-4 0 -16 346.86 402.88 111.89 o
-4 1 -20 446.26 467.10 197.09 <
-3 1 -23 951.00 824.60 261.97 o
-4 -1 -20 446.26 428.44 226.19 <
-4 -1 -21 453.85 238.60 234.90 <
-2 0 -22 608.89 366.04 193.02 <
-1 0 -12 61.81 65.98 35.03 <
-2 1 -21 337.87 330.32 147.14 <
-1 1 -20 84.27 171.04 105.55 <
-3 0 -14 53.30 197.59 71.48 <
-3 0 -18 209.98 381.19 131.68 <
-1 -1 -24 582.89 607.24 221.41 <
-3 -1 -21 254.92 224.93 200.15 <
-3 1 -21 254.92 204.19 178.30 <
-2 1 -24 391.10 254.41 227.13 <
1 2 -5 3205.00 2379.04 33.23 o
3 2 -8 2505.41 2247.41 42.39 o
3 2 -7 1571.24 1420.89 31.71 o
1 1 -4 795.41 669.97 28.71 o
2 2 -9 670.83 607.98 33.13 o
2 3 -12 1171.85 1085.89 67.99 o
1 1 -3 310.22 250.17 15.70 o
2 3 -11 879.23 767.94 63.23 o
2 3 -10 610.02 649.95 55.80 o
4 3 -10 718.59 778.22 76.77 o
4 3 -12 645.25 711.28 88.74 o
3 3 -10 425.04 444.86 65.23 o
4 3 -14 651.55 626.66 97.60 o
3 2 -9 249.39 286.62 32.81 o
3 2 -10 264.42 219.54 33.60 o
2 3 -8 222.95 158.57 43.92 o
2 2 -7 148.68 121.96 23.99 o
3 3 -12 356.81 327.26 70.59 o
3 4 -13 746.03 597.89 138.07 o
2 2 -8 91.83 111.41 25.23 o
5 5 -14 1214.75 1107.35 317.61 o
4 3 -9 312.39 319.92 71.14 o
3 4 -10 461.90 388.01 124.01 o
3 4 -11 373.68 233.32 122.29 <
3 3 -9 138.70 152.40 59.16 <
3 4 -17 424.01 406.75 156.88 <
2 4 -16 263.29 306.08 126.82 <
4 4 -14 412.58 456.51 162.76 <
2 4 -13 200.47 226.21 109.50 <
5 4 -13 494.15 455.97 194.68 <
4 4 -13 390.01 383.92 159.40 <
5 4 -15 368.37 365.64 197.50 <
3 4 -14 243.07 156.04 111.33 <
5 4 -18 507.34 477.72 228.24 <
7 4 -19 150.65 555.71 289.67 <
6 4 -13 449.68 206.18 169.49 <
0 1 -1 1520.50 1340.12 16.84 o
-1 2 -3 1335.07 1347.26 27.72 o
-1 1 -1 372.84 362.74 9.08 o
-2 3 -4 2196.69 2690.45 100.36 o
0 3 -4 890.62 979.75 68.79 o
1 3 -4 659.77 599.90 51.97 o
-1 2 -2 219.16 244.38 20.16 o
1 3 -3 981.90 887.25 97.15 o
-1 4 -5 1150.49 1455.24 181.81 o
-2 5 -8 1610.07 1924.29 389.10 o
-3 3 -4 606.20 344.47 100.42 o
-1 2 -1 306.36 386.05 38.57 o
-4 4 -7 895.09 869.76 212.71 o
0 3 -2 975.11 1375.61 129.95 o
0 4 -5 482.32 726.02 161.24 o
-2 3 -2 818.83 970.65 133.55 o
1 4 -6 617.33 764.64 143.93 o
1 4 -5 1026.42 435.47 150.19 <
-2 2 -1 299.48 273.59 45.73 o
0 2 -2 60.29 40.79 19.51 <
-2 2 -2 102.31 119.10 28.33 o
0 3 -3 279.29 357.55 73.60 o
-2 3 -3 432.11 591.93 94.38 o
-3 4 -4 604.47 636.78 258.38 <
-2 4 -4 402.93 459.02 191.28 <
-3 3 -3 351.17 428.73 115.86 o
-1 3 -5 96.87 118.29 52.16 <
-5 4 -4 589.11 437.56 305.02 <
0 5 -6 1139.31 1438.64 436.40 o
0 3 -5 68.52 78.01 34.68 <
-3 1 -7 1036.69 967.82 49.43 o
-4 2 -12 2610.22 2730.52 156.67 o
-2 1 -6 866.61 771.14 41.10 o
-4 2 -7 1586.76 1655.97 95.39 o
-4 1 -11 2015.04 1789.05 101.82 o
-3 2 -6 573.46 635.82 56.98 o
-5 1 -11 1223.55 1218.78 122.85 o
-3 1 -6 279.96 298.54 37.33 o
-5 1 -12 1174.08 1140.00 127.17 o
-4 2 -10 862.01 917.66 109.78 o
-3 1 -8 299.19 333.83 46.69 o
-4 1 -6 286.72 294.64 48.77 o
-5 2 -12 771.89 638.04 179.56 o
-2 1 -4 140.02 143.73 23.60 o
-4 1 -9 338.01 362.83 69.67 o
-3 2 -8 295.67 268.96 60.22 o
-3 2 -10 294.46 273.10 66.69 o
-4 2 -13 473.13 389.87 132.73 <
-5 2 -7 329.88 503.97 129.36 o
-6 1 -8 616.24 576.85 136.70 o
-4 2 -9 262.31 282.89 91.32 o
-5 3 -11 750.20 720.33 228.58 o
-5 2 -11 304.37 438.66 163.30 <
-3 2 -11 213.48 231.90 83.90 <
-6 1 -9 531.34 401.71 139.11 <
-5 2 -10 392.78 514.97 158.73 o
-6 2 -14 883.39 579.98 235.96 <
-5 3 -16 1056.11 1441.62 368.37 o
-3 2 -9 161.59 195.12 65.21 <
-6 3 -10 643.43 561.32 283.50 <
-5 3 -14 857.04 938.10 303.27 o
-4 3 -13 411.55 316.42 200.19 <
-6 2 -9 444.31 471.46 207.27 <
-5 1 -7 132.32 105.96 62.41 <
-3 1 -5 34.02 57.33 31.03 <
-6 2 -15 644.77 580.69 307.05 <
-3 2 -7 85.27 147.52 50.47 <
-5 3 -10 517.67 470.55 229.43 <
-7 2 -11 426.58 529.26 352.05 <
-6 2 -16 213.86 562.48 338.19 <
-5 2 -8 182.91 142.42 105.23 <
-10 3 -14 17.69 1781.78 927.81 <
-9 4 -17 290.40 1718.69 1190.56 <
-5 1 -10 96.01 111.26 80.75 <
-6 3 -12 141.56 692.26 329.47 <
0 1 -11 1581.27 1481.58 58.65 o
0 1 -9 1347.86 1227.63 51.35 o
0 1 -10 1211.95 1215.35 52.15 o
1 3 -16 2522.69 2626.29 139.83 o
0 2 -15 1316.31 1431.46 93.47 o
0 1 -7 718.59 676.86 43.49 o
0 1 -5 703.68 605.54 38.52 o
-1 2 -13 665.41 707.28 71.36 o
1 2 -20 1236.58 1140.59 126.88 o
0 1 -6 294.07 242.69 32.32 o
1 2 -15 368.26 309.59 71.16 o
0 2 -20 838.21 893.61 138.24 o
0 2 -16 351.75 364.93 80.80 o
0 2 -10 99.39 122.40 35.73 o
-1 3 -18 687.95 621.18 158.63 o
-1 2 -14 261.86 240.32 65.88 o
0 2 -18 309.13 396.72 100.09 o
-1 2 -12 174.20 182.23 57.02 o
-1 2 -16 178.71 234.88 87.64 <
1 3 -26 817.35 537.51 334.41 <
0 2 -14 192.63 193.95 72.35 <
1 3 -21 537.17 507.16 209.99 <
-1 2 -22 389.25 244.67 182.63 <
-1 3 -19 431.24 419.36 189.32 <
0 3 -22 182.48 343.96 256.05 <
1 2 -17 50.40 144.04 74.60 <
0 2 -11 61.90 59.63 41.81 <
0 4 -25 455.29 563.77 461.35 <
-1 2 -15 142.40 150.88 71.15 <
-1 2 -19 239.07 183.80 121.41 <
2 3 -22 457.83 376.23 199.15 <
0 3 -26 556.32 531.27 334.12 <
0 2 -12 56.38 62.60 44.68 <
0 2 -7 1510.86 1207.47 32.15 o
-1 2 -6 1006.50 870.99 33.56 o
0 3 -9 1441.83 1399.90 53.77 o
-1 2 -7 328.35 353.22 29.76 o
-1 2 -5 367.06 347.41 26.89 o
0 3 -8 615.74 579.50 52.36 o
-2 3 -7 587.10 589.74 61.85 o
0 2 -5 184.29 162.83 22.02 o
-1 2 -8 222.24 211.07 28.21 o
-1 4 -9 542.65 675.02 128.43 o
0 4 -15 753.96 528.64 150.95 o
-1 3 -11 145.81 255.06 64.89 o
-2 4 -13 492.06 703.32 202.95 o
-2 4 -12 428.23 358.33 158.42 <
-1 5 -12 519.20 597.53 287.34 <
-1 4 -15 477.65 449.36 164.12 <
-1 3 -12 186.01 103.62 55.22 <
0 3 -7 156.96 154.79 48.77 o
0 5 -16 651.09 331.47 248.91 <
0 3 -10 100.94 120.59 59.29 <
-2 3 -8 103.58 97.31 65.98 <
-1 3 -7 100.97 71.46 42.39 <
0 5 -14 495.26 285.93 206.12 <
-3 4 -17 534.17 605.67 235.26 <
-1 3 -9 109.51 125.48 57.37 <
-1 5 -14 536.24 511.04 234.71 <
-1 4 -13 172.55 183.38 139.81 <
-3 4 -9 259.70 197.47 145.37 <
-3 5 -18 547.24 867.58 401.91 <
-2 4 -14 186.78 438.90 184.18 <
-5 7 -18 9.47 1057.37 1044.70 <
-3 4 -13 331.22 356.60 206.71 <
0 4 -10 187.13 384.99 120.06 o
-4 7 -15 1.14 741.99 639.21 <
-3 5 -16 158.80 425.05 334.44 <
-4 7 -28 5.65 2741.07 1130.27 <
0 2 -6 15.35 31.65 22.31 <
5 1 -2 2122.09 1997.29 43.56 o
6 1 -5 2161.86 2386.27 68.66 o
7 1 -2 1450.34 1292.06 55.10 o
5 1 -3 804.04 765.20 37.33 o
4 1 -4 667.27 759.55 36.45 o
4 1 -3 646.70 636.15 33.62 o
8 1 -7 1118.88 1197.90 70.21 o
5 1 -4 640.72 645.30 37.74 o
9 2 -8 1586.61 1588.34 101.68 o
8 2 -6 1172.11 1086.32 76.35 o
10 2 -3 1556.28 1525.14 146.46 o
9 1 -7 968.30 896.88 83.42 o
8 2 -2 499.35 422.79 67.35 o
8 2 -8 491.18 439.73 63.04 o
8 2 -5 626.03 571.35 74.44 o
7 2 -2 294.98 296.18 52.05 o
9 2 -6 598.83 583.19 91.57 o
10 1 -7 661.95 654.89 108.94 o
7 2 -7 340.47 248.75 43.05 o
11 1 -4 951.68 702.04 139.48 o
10 1 -9 573.64 506.10 96.66 o
8 1 -4 296.21 298.78 61.46 o
8 1 -5 263.51 226.89 59.37 o
4 1 -2 82.21 69.28 17.07 o
9 1 -6 370.19 305.06 79.45 o
10 2 -4 521.47 506.57 128.83 o
8 2 -3 320.71 284.45 72.75 o
7 2 -3 138.25 190.85 53.50 o
10 1 -8 421.32 368.41 94.32 o
7 1 -3 45.26 52.08 37.86 <
6 1 -4 70.28 105.40 32.04 o
11 3 -10 487.39 447.38 172.12 <
10 3 -6 527.76 441.25 150.85 <
9 2 -5 117.69 164.87 84.07 <
12 1 -5 779.21 675.23 200.53 o
11 1 -9 362.80 257.66 133.49 <
10 3 -4 447.93 345.54 151.12 <
10 2 -8 329.90 192.07 108.56 <
10 2 -9 342.63 307.98 106.13 <
12 2 -11 394.21 271.75 194.09 <
11 2 -4 376.44 617.80 190.06 o
12 1 -9 354.26 238.32 182.16 <
6 1 -2 42.89 40.40 32.54 <
7 1 -4 72.33 68.09 41.12 <
8 1 -6 160.65 83.25 54.45 <
10 3 -9 171.82 241.68 127.02 <
13 1 -5 764.67 481.86 232.79 <
9 2 -4 180.59 109.67 90.32 <
7 2 -6 66.95 81.09 44.52 <
10 3 -3 146.37 159.49 141.83 <
5 0 2 3684.18 3239.35 53.97 o
3 1 1 2145.96 1906.23 36.22 o
4 1 3 1367.02 1218.45 31.66 o
5 1 1 1929.02 1750.32 43.99 o
4 1 1 1347.71 1263.69 31.26 o
6 1 1 1112.51 1029.80 46.00 o
7 1 0 1478.12 1351.26 56.39 o
4 1 2 537.52 478.19 29.53 o
4 0 2 347.55 297.48 18.44 o
3 1 2 196.15 196.51 18.18 o
6 1 4 866.91 790.19 91.57 o
8 0 4 1837.35 1912.97 188.61 o
6 1 2 424.63 426.91 61.39 o
8 1 3 1387.94 1199.89 157.88 o
8 2 0 838.58 767.95 105.90 o
7 1 5 1055.07 837.61 139.61 o
9 1 3 1384.64 1175.13 218.77 o
9 1 0 884.20 845.66 131.10 o
8 2 4 998.92 1210.63 192.87 o
10 1 1 1086.91 1295.30 211.07 o
8 2 1 542.51 374.76 115.67 o
10 2 2 1382.33 712.51 259.63 <
5 1 2 104.20 136.59 37.73 o
7 1 4 425.58 611.84 126.47 o
8 1 4 576.69 579.61 168.31 o
6 2 4 346.95 326.05 88.44 o
7 2 1 335.14 317.34 83.11 o
9 3 3 793.40 1095.46 283.56 o
5 2 4 236.40 229.38 64.05 o
9 2 2 651.95 595.28 197.64 o
6 2 1 230.05 168.05 49.25 o
6 2 0 138.51 114.09 46.48 <
10 1 0 355.69 315.85 167.49 <
7 1 3 197.96 207.42 87.56 <
9 2 4 873.40 468.19 223.05 <
4 1 0 30.01 24.52 22.39 <
5 1 3 65.83 167.07 48.34 o
11 3 0 719.55 606.91 261.52 <
5 1 0 58.37 83.79 30.44 <
9 2 1 241.28 196.82 135.13 <
12 2 -1 470.60 639.32 325.56 <
9 1 6 144.33 330.36 315.53 <
10 0 4 500.80 278.94 241.24 <
7 2 0 62.25 109.41 59.90 <
11 1 5 464.55 462.66 378.74 <
11 1 3 444.76 439.86 289.87 <
10 3 6 557.14 535.88 475.35 <
13 1 -1 87.85 542.13 414.63 <
13 3 5 2.64 1288.60 822.16 <
6 1 0 30.20 63.89 38.93 <
6 2 3 63.97 83.47 57.90 <
10 3 8 1007.83 1051.95 524.65 <
9 3 6 567.57 742.84 389.80 <
2 0 2 3113.50 2732.08 28.35 o
2 1 3 3759.58 3687.87 32.70 o
1 1 3 495.93 540.20 16.75 o
4 2 7 1586.76 1674.91 184.07 o
3 0 6 1469.26 896.42 133.66 o
5 2 6 1448.66 1415.97 133.22 o
2 2 5 580.99 697.68 78.61 o
3 2 6 573.46 424.86 108.26 o
4 0 4 198.93 132.07 38.88 o
2 1 4 140.02 198.53 23.79 o
5 1 6 662.80 924.46 121.90 o
6 0 6 591.63 308.20 165.93 <
3 1 6 279.96 308.75 100.31 o
4 -1 4 293.28 177.76 77.06 <
7 0 6 604.72 834.56 208.92 o
6 -1 6 604.16 495.57 257.87 <
5 2 7 329.88 201.49 140.83 <
6 1 8 616.24 617.18 285.03 <
4 3 8 1033.50 988.18 319.65 o
7 0 8 873.36 439.91 305.73 <
4 1 5 54.78 49.07 40.62 <
4 2 5 73.01 92.12 51.80 <
0 0 -8 3218.47 3639.49 52.97 o
0 0 -6 1293.04 1383.54 23.92 o
0 0 -10 3023.69 3457.28 86.31 o
0 1 -9 1347.86 1437.60 50.69 o
0 1 -7 718.59 717.54 22.13 o
0 0 -2 1322.45 1601.63 46.67 o
0 1 -10 1211.95 1124.23 66.58 o
0 1 -11 1581.27 1693.88 109.59 o
-1 1 -6 1037.68 776.26 69.53 o
-1 0 -10 5577.87 6325.13 280.49 o
-1 1 -9 1496.35 1602.92 162.77 o
1 -1 -11 829.93 765.88 69.33 o
0 0 -4 126.14 146.75 10.77 o
0 -1 -11 1581.27 532.71 174.34 o
-1 1 -7 1109.90 1008.33 96.94 o
0 -1 -9 1347.86 1680.16 171.31 o
0 2 -15 1316.31 1437.82 219.48 o
-1 1 -10 1123.36 1507.68 162.68 o
2 -1 -21 1843.28 664.18 499.18 <
1 0 -20 1678.44 1601.13 480.53 o
-1 2 -13 665.41 470.40 317.53 <
0 1 -19 1446.89 1084.36 527.10 <
1 0 -18 862.29 1644.77 367.46 o
0 1 -14 332.45 187.04 177.27 <
-1 1 -14 1175.60 650.51 377.66 <
0 2 -20 838.21 649.41 573.47 <
1 0 -8 1965.04 1844.62 33.64 o
2 0 -8 3084.95 2511.25 63.43 o
1 1 -8 1347.75 1227.69 37.86 o
1 1 -9 1097.39 1082.40 39.36 o
2 1 -11 1940.03 1940.53 66.97 o
3 0 -12 1956.23 1689.76 71.50 o
2 1 -8 1104.00 966.01 40.92 o
2 0 -10 900.91 856.30 45.28 o
1 1 -11 829.92 857.07 54.15 o
4 0 -18 2671.81 2739.71 214.69 o
2 1 -10 438.16 394.32 42.30 o
4 0 -16 1554.03 1379.18 124.56 o
1 0 -4 740.58 636.37 59.73 o
5 1 -19 1312.28 1425.73 194.27 o
3 1 -17 1015.61 1141.74 168.48 o
3 0 -22 3146.29 3203.18 463.70 o
3 1 -16 760.65 974.34 138.22 o
5 0 -20 2170.23 1889.37 260.21 o
2 2 -16 972.88 1152.05 157.11 o
3 0 -10 292.73 247.30 35.13 o
3 1 -18 888.90 843.18 198.79 o
2 2 -17 1170.53 1385.12 207.83 o
2 1 -21 1843.29 2542.16 450.94 o
3 2 -16 741.36 709.17 97.86 o
5 0 -18 877.98 682.33 154.64 o
4 1 -17 503.40 453.77 128.56 o
1 1 -12 217.36 261.41 63.73 o
3 0 -18 872.13 577.16 211.85 <
4 1 -19 971.13 1117.08 228.75 o
2 1 -17 592.65 854.66 189.40 o
3 1 -12 168.03 193.89 53.40 o
4 1 -16 231.85 309.82 102.11 o
2 1 -9 89.69 83.77 30.78 <
3 2 -18 537.27 396.75 184.48 <
2 0 -18 352.15 312.45 181.67 <
6 0 -20 681.03 662.55 215.24 o
2 1 -12 85.06 79.82 55.65 <
4 2 -16 234.40 117.71 103.89 <
4 2 -17 187.38 134.62 109.58 <
2 0 -12 82.88 69.68 56.20 <
1 0 -6 29.80 33.06 18.29 <
4 1 -22 905.64 724.46 356.33 <
6 1 -29 706.15 883.58 802.39 <
2 2 -22 617.28 482.63 423.32 <
5 0 -22 175.98 347.99 314.27 <
3 2 -21 496.35 541.79 349.80 <
6 3 -24 768.65 589.28 444.19 <
2 0 -14 104.04 139.91 77.00 <
4 2 -19 301.32 238.80 216.33 <
7 2 -30 176.11 939.73 878.80 <
4 0 -14 46.29 57.73 53.58 <
4 2 -18 268.76 201.59 174.95 <
8 0 -26 442.28 506.15 433.62 <
4 1 -20 286.55 274.39 265.02 <
3 1 -23 222.34 430.96 355.59 <
4 1 -7 1864.37 2411.66 70.44 o
3 1 -9 1521.91 1406.17 44.28 o
5 1 -9 1848.10 2272.94 72.93 o
4 1 -8 1491.07 1540.21 56.27 o
5 2 -13 1481.79 1431.81 77.16 o
4 1 -12 739.93 626.33 48.88 o
5 1 -14 686.83 610.58 71.47 o
3 1 -7 305.48 277.62 27.08 o
7 1 -17 1045.34 1039.38 140.36 o
5 1 -15 655.10 621.73 78.06 o
7 2 -15 1020.40 839.40 105.89 o
6 1 -14 526.81 484.33 74.11 o
5 1 -11 427.83 413.94 51.76 o
4 1 -9 343.15 336.50 38.16 o
6 2 -14 466.75 518.03 83.97 o
6 1 -13 374.42 356.54 66.25 o
9 1 -17 1086.30 901.58 141.11 o
5 1 -13 304.80 340.17 61.44 o
7 1 -14 447.82 449.99 78.21 o
8 2 -14 582.20 510.04 92.04 o
8 2 -16 798.96 779.81 123.81 o
7 1 -19 869.78 785.90 156.80 o
5 1 -12 175.93 164.05 48.24 o
7 2 -20 1022.66 708.71 204.14 o
8 1 -15 658.65 332.94 100.75 o
7 2 -14 245.77 182.74 83.21 <
7 2 -16 322.51 285.78 112.54 <
9 2 -18 560.17 497.23 178.69 <
6 1 -12 167.59 120.40 51.50 <
4 1 -10 66.60 96.02 32.08 <
10 1 -17 534.06 432.64 139.99 o
6 1 -11 125.22 87.39 41.72 <
6 2 -17 473.36 414.46 117.65 o
8 1 -16 348.49 313.29 107.88 <
8 3 -22 912.56 893.78 290.56 o
6 2 -18 372.49 296.98 132.73 <
8 3 -17 465.58 461.52 144.34 o
8 3 -20 503.08 482.99 225.93 <
7 1 -15 170.12 169.77 86.12 <
8 2 -18 468.75 427.07 169.18 <
5 2 -15 119.10 115.63 73.90 <
9 2 -17 282.48 310.02 144.35 <
5 1 -10 56.46 51.84 36.81 <
3 1 -6 50.40 38.39 18.62 <
7 2 -21 370.41 361.57 196.76 <
7 1 -12 118.82 97.26 49.89 <
9 2 -16 223.19 197.85 131.38 <
8 1 -21 209.47 255.77 211.18 <
10 1 -19 173.86 208.16 197.90 <
11 2 -29 144.88 967.51 671.99 <
4 2 0 1760.61 1658.77 33.19 o
2 2 0 893.10 820.84 20.84 o
4 2 2 1341.40 1274.86 36.66 o
2 1 1 488.48 434.62 15.33 o
3 3 0 889.11 965.02 31.20 o
4 2 -1 678.70 607.13 27.80 o
1 1 0 529.76 475.84 19.69 o
3 2 0 522.25 486.33 23.03 o
4 3 1 877.71 927.20 52.12 o
5 2 0 719.57 589.16 33.63 o
5 3 0 1018.64 981.22 59.53 o
6 3 -1 471.02 542.44 59.53 o
5 3 1 311.93 314.86 58.00 o
4 4 0 497.18 554.28 81.59 o
7 4 -1 615.71 659.49 126.36 o
2 1 0 78.87 91.51 15.87 o
7 3 1 498.88 408.99 82.85 o
8 4 -1 743.04 821.22 152.42 o
6 5 0 711.44 752.41 185.96 o
6 4 2 263.34 428.17 152.11 <
6 4 0 384.23 352.43 107.43 o
3 2 -1 48.24 49.00 16.09 o
7 5 -2 490.75 528.07 191.95 <
5 4 1 320.06 420.06 109.42 o
7 3 2 347.15 175.69 94.29 <
7 4 0 366.17 371.65 152.35 <
8 5 -2 678.44 899.89 238.47 o
7 4 -2 213.03 193.42 89.66 <
7 5 0 397.56 617.30 220.05 <
5 5 0 106.87 235.63 134.22 <
4 2 1 38.13 33.91 23.25 <
9 4 -1 310.08 191.88 142.80 <
6 4 -1 131.18 104.43 99.66 <
4 3 -1 30.65 43.22 36.64 <
6 3 0 82.16 94.70 60.99 <
4 3 0 5.19 28.15 27.96 <
0 1 -1 1520.50 1612.31 19.14 o
1 2 0 1184.71 1115.84 20.81 o
1 2 1 306.36 295.51 16.78 o
0 3 -4 890.62 996.66 59.27 o
1 4 -5 1026.42 1189.73 94.03 o
0 3 -2 975.11 1108.26 68.21 o
1 3 -2 274.46 262.51 31.32 o
0 4 -5 482.32 618.48 172.01 o
0 2 -1 126.71 165.11 21.18 o
-1 4 -5 1150.49 1865.74 299.95 o
0 4 -2 799.40 1163.81 191.91 o
0 3 -3 279.29 232.72 65.18 o
1 3 1 260.48 265.70 58.53 o
0 2 -2 60.29 61.87 16.83 o
1 5 -2 777.58 890.45 258.97 o
2 4 3 518.29 854.52 155.92 o
0 5 -4 572.99 881.81 361.28 <
2 4 -1 189.35 272.71 101.05 <
1 4 0 189.77 318.41 146.46 <
2 5 -2 426.68 685.08 248.62 <
0 3 -1 204.98 146.22 69.76 <
0 4 -3 365.34 566.80 189.68 <
1 5 -6 402.80 468.87 239.67 <
2 6 -3 295.65 597.09 371.48 <
1 2 -5 3205.00 3134.26 60.76 o
1 2 -10 4332.64 4538.62 85.16 o
2 2 -9 670.83 790.25 52.32 o
2 2 -12 957.96 1057.07 78.09 o
1 1 -4 795.41 798.90 52.80 o
2 2 -10 611.59 647.70 55.29 o
2 3 -12 1171.85 1238.06 131.95 o
2 3 -10 610.02 802.69 90.31 o
3 3 -14 1356.58 1399.93 145.01 o
1 2 -11 723.96 753.74 59.68 o
2 3 -11 879.23 831.65 110.80 o
3 3 -10 425.04 271.76 74.70 o
2 3 -8 222.95 198.53 62.45 o
1 1 -3 310.22 275.63 40.99 o
2 3 -16 923.07 931.73 219.54 o
1 2 -12 258.57 175.29 75.33 <
3 4 -13 746.03 491.10 197.41 <
2 2 -7 148.68 156.66 36.39 o
4 3 -17 722.64 645.29 192.40 o
1 3 -10 253.67 175.53 89.38 <
3 2 -12 281.29 232.48 60.36 o
3 3 -12 356.81 338.80 99.96 o
1 3 -11 268.69 444.97 117.72 o
2 3 -15 343.44 226.68 172.75 <
3 4 -11 373.68 302.46 150.17 <
1 2 -9 97.53 38.67 34.20 <
2 4 -10 245.92 299.70 155.40 <
4 4 -13 390.01 385.37 145.31 <
2 2 -8 91.83 78.82 40.96 <
4 4 -14 412.58 231.38 190.87 <
3 3 -9 138.70 156.21 60.94 <
6 4 -25 439.54 487.10 472.91 <
2 5 -13 264.35 728.63 380.77 <
3 4 -16 185.08 245.72 239.99 <
4 3 -15 112.42 122.55 121.89 <
5 2 -5 1851.42 1592.01 54.65 o
3 2 -6 1060.19 841.63 39.61 o
2 1 -2 1896.75 1568.10 85.23 o
4 2 -4 371.96 340.40 34.06 o
8 3 -8 773.84 636.34 85.55 o
5 3 -7 340.49 236.93 56.24 o
5 3 -5 286.59 258.86 47.59 o
6 3 -8 422.73 429.38 72.58 o
5 2 -6 143.19 182.19 36.84 o
6 3 -9 238.11 266.70 73.13 o
8 4 -11 806.79 508.72 168.03 o
8 3 -10 240.93 205.70 90.50 <
7 3 -9 280.57 188.63 76.72 <
7 4 -8 356.63 282.02 121.70 <
4 2 -6 129.71 115.63 33.55 o
8 4 -12 595.34 511.81 170.40 o
6 3 -6 105.39 178.19 52.04 o
6 4 -12 332.65 399.30 118.92 o
8 4 -13 534.09 391.73 188.29 <
2 1 -3 85.69 80.89 30.98 <
7 5 -12 839.95 1094.13 252.94 o
9 5 -16 293.09 454.21 341.21 <
7 3 -10 247.78 185.78 81.17 <
10 4 -16 419.74 492.47 250.94 <
3 2 -4 11.32 31.74 24.28 <
5 3 -6 89.02 93.15 49.28 <
17 8 -24 0.69 1474.41 1462.90 <
7 4 -7 223.87 256.98 124.98 <
10 5 -12 513.58 629.20 329.21 <
3 2 -5 67.35 51.54 28.18 <
5 2 -7 37.90 56.51 36.17 <
10 4 -11 0.70 195.92 183.18 <
10 4 -13 409.02 415.01 216.00 <
4 2 -7 20.23 39.07 37.49 <
2 2 -4 2004.76 1662.75 35.27 o
3 3 -2 1555.94 1514.41 45.75 o
2 2 -2 1266.34 1102.38 29.10 o
2 3 -2 768.45 773.64 38.35 o
3 3 -5 955.73 897.26 44.73 o
3 3 -4 816.31 807.32 45.93 o
1 1 -1 870.17 884.41 52.77 o
1 2 -3 198.15 200.58 17.82 o
3 4 -3 821.19 952.88 89.86 o
4 4 -3 748.21 680.43 82.06 o
4 4 -5 751.73 786.24 84.28 o
2 4 -5 528.93 575.35 87.15 o
2 4 -7 658.79 693.62 146.42 o
5 5 -4 1150.05 1204.94 184.93 o
4 4 -6 390.30 407.78 84.06 o
3 4 -4 279.94 293.87 77.41 o
3 5 -6 506.78 947.97 202.35 o
1 1 -2 149.54 124.29 25.39 o
3 5 -4 339.74 494.32 153.91 o
4 5 -2 533.23 381.53 168.29 <
5 5 -6 356.10 327.57 154.55 <
5 4 -5 162.69 204.54 72.01 <
2 3 -4 69.18 75.51 34.44 <
4 4 -7 178.99 248.81 72.73 o
2 4 -6 152.98 240.50 81.53 <
6 5 -6 180.33 143.26 132.30 <
2 2 -3 33.78 33.63 19.72 <
3 4 -7 126.55 89.79 78.66 <
5 6 -8 282.89 544.32 301.84 <
3 4 -6 165.10 168.26 73.57 <
4 5 -9 2.53 162.68 130.27 <
5 8 -14 4.02 855.91 849.72 <
3 5 -7 182.11 256.65 189.76 <
-2 0 8 3084.95 2901.82 54.95 o
-2 -1 11 1940.03 2098.43 57.45 o
-3 0 12 1956.23 1880.23 54.58 o
-3 -1 11 1134.14 1107.60 34.91 o
-4 0 18 2671.81 2677.86 112.26 o
-2 0 10 900.91 887.33 38.38 o
-3 0 22 3146.29 3391.07 122.23 o
-4 0 16 1554.03 1605.66 78.95 o
-5 0 20 2170.23 2039.73 140.71 o
-2 -1 10 438.16 490.00 33.37 o
-5 -1 19 1312.28 1684.28 134.79 o
-3 0 10 292.73 290.90 26.02 o
-3 -1 18 888.90 880.33 91.30 o
-3 -1 17 1015.61 1106.69 83.39 o
-3 -1 16 760.65 871.47 72.64 o
-3 0 18 872.13 876.18 77.87 o
-4 -1 19 971.13 987.05 84.58 o
-1 0 4 740.58 675.40 61.65 o
-5 0 18 877.98 855.50 96.90 o
-4 -1 17 503.40 525.48 85.47 o
-4 -1 22 905.64 1166.91 174.09 o
-2 -1 17 592.65 553.16 63.76 o
-6 -1 20 848.83 714.32 153.14 o
-6 0 20 681.03 735.35 142.41 o
-5 -2 18 516.41 499.27 116.19 o
-2 -1 9 89.69 132.81 26.08 o
-5 -1 17 419.27 325.42 86.23 o
-3 -1 12 168.03 201.68 37.32 o
-4 0 28 871.76 1024.69 249.67 o
-4 -2 19 301.32 229.09 119.75 <
-4 -2 18 268.76 176.80 97.39 <
-6 -1 21 277.98 341.15 157.15 <
-4 -2 23 607.96 529.84 189.98 <
-2 0 12 82.88 90.57 29.89 o
-4 -1 16 231.85 267.37 63.60 o
-5 0 22 175.98 258.72 146.82 <
-4 -1 20 286.55 277.42 118.24 <
-5 0 28 849.36 676.72 304.16 <
-5 -1 24 451.88 581.50 212.54 <
-5 -2 23 392.94 382.96 209.80 <
-6 -2 30 515.10 911.47 502.35 <
-5 -1 30 251.31 491.56 414.72 <
-1 0 6 29.80 22.24 20.29 <
-3 -1 23 222.34 303.95 142.76 <
-6 -2 25 572.31 424.41 275.48 <
-5 0 8 4251.05 3918.33 57.69 o
-4 -1 7 1864.37 1804.06 40.34 o
-4 -1 8 1491.07 1486.39 40.66 o
-6 0 10 2581.92 2347.16 82.87 o
-5 -1 9 1848.10 1816.05 68.42 o
-4 0 8 1254.65 1153.52 37.35 o
-3 0 6 755.62 720.62 25.15 o
-5 0 10 1017.78 1078.90 51.28 o
-5 -2 13 1481.79 1449.11 105.67 o
-2 0 4 410.98 366.70 22.05 o
-3 -1 7 305.48 346.63 27.63 o
-4 -1 9 343.15 315.70 39.79 o
-6 -1 10 656.83 698.03 91.26 o
-5 -1 11 427.83 415.30 62.07 o
-7 -1 17 1045.34 1039.33 184.92 o
-6 -1 14 526.81 762.50 108.40 o
-6 -1 13 374.42 373.08 99.04 o
-7 -2 15 1020.40 1010.36 198.49 o
-5 -1 13 304.80 361.39 66.88 o
-7 -1 19 869.78 890.97 195.19 o
-7 0 14 628.24 597.44 127.99 o
-7 -1 11 680.09 500.71 129.83 o
-6 -2 14 466.75 503.74 135.87 o
-5 -1 12 175.93 164.49 51.40 o
-7 -2 20 1022.66 974.93 238.92 o
-6 -2 10 336.65 210.54 87.34 <
-6 0 12 192.84 73.38 56.40 <
-7 -1 14 447.82 477.55 162.93 <
-6 -2 17 473.36 424.81 153.62 <
-9 0 16 892.70 1034.76 278.29 o
-8 0 14 810.52 937.47 181.04 o
-8 -1 15 658.65 524.52 221.44 <
-9 -1 17 1086.30 1095.08 323.53 o
-7 -3 14 691.20 697.66 263.90 <
-10 0 18 1998.35 933.62 347.66 <
-8 -2 16 798.96 673.43 272.64 <
-3 -1 6 50.40 53.40 19.44 <
-6 -1 11 125.22 183.86 79.88 <
-7 -3 13 376.71 578.71 251.36 <
-5 -2 11 156.68 136.68 81.44 <
-4 -1 10 66.60 74.86 38.37 <
-8 -1 16 348.49 402.01 238.11 <
-8 -2 18 468.75 356.16 297.22 <
-6 -1 12 167.59 180.30 87.18 <
-8 0 16 343.02 259.89 152.82 <
-7 -3 16 652.95 474.73 277.62 <
-8 -2 14 582.20 316.04 235.92 <
-7 -2 16 322.51 266.71 187.09 <
-8 -3 17 465.58 453.00 369.35 <
-9 0 14 394.21 396.16 253.95 <
-8 -3 20 503.08 604.29 415.94 <
-7 -1 12 118.82 114.05 106.32 <
-2 -1 2 1896.75 2018.71 21.90 o
-1 -1 1 870.17 853.19 11.01 o
-3 -1 4 666.81 648.91 19.77 o
-3 -2 3 2391.45 2413.35 79.38 o
-5 0 6 1674.02 1627.14 57.02 o
-3 -1 3 534.61 605.23 26.56 o
-4 0 4 817.24 764.78 29.11 o
-5 0 4 2020.42 1589.08 94.56 o
-4 -1 4 667.27 630.71 39.49 o
-2 -2 2 1266.34 1004.84 59.11 o
-6 0 6 1514.26 1166.49 103.73 o
-7 0 6 4412.17 3525.95 293.29 o
-6 -1 5 2161.86 2212.60 206.63 o
-2 0 2 139.61 155.15 7.92 o
-5 -2 5 1851.42 1273.33 132.51 o
-7 -1 7 1444.00 1244.98 229.15 o
-6 1 5 2161.86 1325.77 187.65 o
-6 1 6 1593.92 1256.65 134.93 o
-4 -1 3 646.70 411.71 70.67 o
-6 -1 6 1593.92 1379.89 148.00 o
-3 -1 2 389.04 213.18 51.05 o
-4 -3 4 2143.91 1113.66 231.94 o
-7 -1 9 502.65 796.79 157.99 o
-7 -2 8 746.15 415.23 247.59 <
-4 -1 5 121.57 188.68 31.92 o
-4 -2 4 371.96 400.26 94.60 o
-8 0 8 1163.27 1142.49 340.56 o
-6 -3 8 422.73 447.50 238.16 <
-6 -1 7 353.02 305.48 91.01 o
-8 0 10 690.69 728.37 207.08 o
-9 -3 12 1486.97 852.73 503.45 <
-6 -2 8 343.19 429.36 135.94 o
-11 0 14 1578.94 1312.52 448.45 <
-3 0 4 0.21 12.94 8.75 <
-8 -2 10 357.91 402.13 300.01 <
-10 0 12 462.04 569.65 436.81 <
3 0 2 1907.63 1644.25 28.59 o
1 1 1 372.84 348.89 9.92 o
3 1 1 2145.96 2487.03 79.47 o
4 1 3 1367.02 1407.94 71.82 o
5 0 2 3684.18 3517.97 127.05 o
2 1 1 488.48 345.79 23.07 o
3 2 2 3177.41 2642.35 125.60 o
5 2 6 1448.66 1496.66 135.95 o
4 1 1 1347.71 470.11 110.32 o
4 -1 1 1347.71 853.60 68.20 o
7 0 4 3993.23 3123.14 339.02 o
4 1 2 537.52 507.26 75.27 o
6 2 5 1664.14 904.28 271.96 o
5 -1 1 1929.02 1483.22 190.02 o
5 3 6 1960.15 2381.46 337.81 o
3 1 2 196.15 131.35 30.67 o
4 1 4 293.28 245.52 51.85 o
6 1 5 1140.57 1266.77 197.08 o
5 0 4 362.62 206.07 71.06 <
3 2 3 347.14 226.40 79.68 <
4 0 2 347.55 383.74 53.49 o
3 1 3 112.98 86.24 25.97 o
7 1 5 1055.07 590.32 267.25 <
8 0 4 1837.35 1042.28 523.61 <
6 1 4 866.91 572.36 189.38 o
7 0 6 604.72 236.81 172.95 <
2 1 2 17.39 19.30 12.76 <
7 -1 4 425.58 309.15 308.61 <
4 2 5 73.01 102.14 60.26 <
3 0 6 1469.26 1642.50 52.55 o
2 0 6 1353.95 1223.95 45.46 o
3 1 7 1036.68 1133.21 51.71 o
4 1 11 2015.04 2312.77 119.77 o
3 1 10 1149.36 1117.03 53.19 o
5 0 8 904.74 935.96 97.50 o
6 0 10 1789.04 1734.68 184.83 o
4 0 6 453.55 512.33 36.34 o
5 0 10 1253.57 1297.90 127.74 o
5 1 11 1223.55 1404.29 165.09 o
6 0 12 1799.85 2122.58 237.37 o
4 1 6 286.72 367.80 54.75 o
3 1 6 279.96 327.75 38.49 o
5 1 12 1174.08 1205.84 180.84 o
4 1 9 338.01 405.02 80.10 o
3 1 8 299.19 322.71 36.63 o
8 0 14 3148.34 2592.14 494.59 o
5 0 12 659.33 784.83 143.17 o
7 0 10 989.95 1475.77 258.02 o
4 1 13 495.09 741.68 121.06 o
6 1 11 800.05 688.55 209.83 o
3 0 8 176.06 172.13 40.83 o
3 1 9 149.50 187.74 51.52 o
5 0 14 407.61 523.48 162.03 o
5 2 12 771.89 925.25 207.66 o
6 2 14 883.39 876.14 322.67 <
6 1 8 616.24 622.70 168.05 o
6 1 9 531.34 848.84 196.18 o
3 1 11 103.77 133.28 58.70 <
7 1 15 846.87 1252.22 426.52 <
4 1 12 283.91 164.25 88.80 <
4 0 8 96.21 59.58 45.97 <
5 2 10 392.78 537.45 160.95 o
5 1 7 132.32 109.37 67.96 <
4 0 12 149.92 173.04 83.63 <
8 0 12 1137.35 1532.42 426.31 o
5 2 17 829.60 801.88 273.92 <
5 2 11 304.37 345.65 176.12 <
6 2 15 644.77 405.26 363.89 <
2 0 4 48.42 59.02 23.75 <
8 1 12 116.43 608.30 418.80 <
7 1 12 555.30 329.51 258.95 <
7 0 12 592.16 239.58 231.40 <
9 2 14 405.65 769.15 717.68 <
7 1 14 769.97 712.58 385.56 <
7 1 23 660.81 1534.01 757.22 <
6 1 16 761.26 552.25 282.02 <
7 1 21 165.15 530.29 487.14 <
7 1 13 592.60 876.29 343.69 <
8 0 20 181.52 812.39 576.10 <
3 0 12 5243.05 4903.49 100.41 o
1 0 10 5577.86 5572.88 99.44 o
1 0 4 6859.31 6075.14 167.77 o
2 1 13 2537.15 2384.05 80.12 o
2 0 8 1212.05 1134.45 38.62 o
2 0 10 1588.48 1497.22 55.19 o
1 0 14 1931.72 1929.83 81.24 o
2 0 14 1467.76 1435.58 81.42 o
1 0 8 729.83 697.57 38.69 o
1 0 20 2402.67 2329.45 123.44 o
1 0 18 1946.36 1677.25 115.10 o
2 1 12 599.52 542.56 37.22 o
3 1 16 884.69 994.09 85.12 o
2 0 16 596.11 636.92 86.77 o
2 -1 19 1024.50 871.84 126.82 o
2 0 12 413.14 373.62 49.28 o
3 0 20 1029.98 1072.30 184.94 o
1 1 16 370.40 333.60 67.82 o
2 1 18 626.09 758.99 128.49 o
2 1 19 1024.50 950.86 153.63 o
1 1 19 587.09 452.60 107.26 o
1 -1 19 587.09 484.87 92.40 o
2 0 24 1560.50 1691.75 275.33 o
2 0 18 587.53 530.84 113.58 o
3 0 16 406.40 365.08 103.40 o
2 1 20 576.32 506.58 153.36 o
4 0 22 1150.88 1257.53 312.80 o
4 0 16 346.86 346.16 110.00 o
3 0 22 1041.18 688.63 254.12 <
2 0 20 378.17 332.92 149.32 <
3 1 23 951.00 799.78 306.42 <
2 -1 20 576.31 459.01 150.59 o
3 0 18 209.98 195.96 138.17 <
3 -1 23 951.00 742.94 264.05 <
1 1 24 582.89 594.51 218.49 <
2 0 22 608.89 658.25 198.10 o
3 0 14 53.30 100.95 77.10 <
1 0 12 61.81 120.46 40.31 <
4 1 20 446.26 216.30 208.89 <
1 -1 24 582.89 224.07 177.03 <
2 1 21 337.87 345.98 181.59 <
1 0 22 181.08 292.71 158.04 <
2 1 11 45.88 60.77 34.35 <
3 1 21 254.92 210.86 207.01 <
4 0 20 78.63 334.04 207.49 <
4 0 26 482.18 683.09 463.34 <
0 1 23 358.61 291.53 144.09 <
2 -1 21 337.87 372.26 163.55 <
3 -1 19 97.83 195.69 134.98 <
2 1 24 391.10 534.26 264.12 <
1 0 16 19.58 88.56 57.05 <
0 1 24 128.78 236.79 150.51 <
2 -1 23 265.12 523.59 207.53 <
3 -1 21 254.92 322.26 185.13 <
-4 1 8 1491.06 1435.78 30.99 o
-3 1 9 1521.91 1416.65 29.76 o
-5 1 9 1848.10 1887.86 42.81 o
-5 2 13 1481.79 1561.79 87.51 o
-4 1 12 739.94 695.26 42.87 o
-3 1 7 305.48 310.96 19.76 o
-4 1 9 343.15 333.59 31.72 o
-5 1 14 686.84 597.94 59.82 o
-5 1 11 427.83 356.65 48.01 o
-7 1 17 1045.34 1041.44 145.05 o
-6 1 14 526.81 567.89 81.89 o
-5 1 13 304.80 227.23 52.58 o
-7 2 15 1020.40 1031.41 157.10 o
-7 2 20 1022.66 882.02 213.02 o
-7 1 19 869.78 799.49 141.81 o
-6 2 14 466.75 404.06 97.99 o
-6 1 13 374.42 305.84 68.71 o
-3 1 6 50.40 63.19 14.16 o
-5 1 12 175.93 230.73 51.41 o
-8 2 16 798.96 1078.02 216.01 o
-9 1 17 1086.29 903.74 256.62 o
-6 1 12 167.59 165.60 67.99 <
-7 1 14 447.82 305.23 116.45 <
-8 3 22 912.56 1100.42 386.66 <
-4 1 10 66.61 52.57 30.83 <
-6 2 17 473.36 555.74 139.15 o
-5 2 11 156.68 132.79 65.41 <
-7 2 16 322.51 595.53 167.17 o
-6 2 18 372.49 395.25 138.54 <
-8 1 15 658.64 372.67 153.55 <
-7 3 16 652.95 616.23 214.67 <
-8 1 16 348.49 427.39 165.88 <
-8 3 17 465.58 502.97 289.35 <
-7 1 15 170.12 204.08 120.53 <
-9 2 18 560.16 723.90 340.81 <
-6 2 15 127.82 154.39 99.62 <
-6 1 11 125.22 147.31 60.22 <
-7 1 16 89.08 213.61 133.31 <
-7 2 14 245.77 183.73 126.93 <
-7 2 21 370.41 236.57 180.13 <
-1 2 5 3205.00 3025.57 41.54 o
-2 2 4 2004.76 2412.78 50.38 o
-2 3 6 3061.16 3937.04 135.58 o
-3 2 6 1060.19 1010.34 43.96 o
-1 2 4 446.09 418.54 23.23 o
-1 1 2 149.54 150.81 8.37 o
-2 3 7 1049.07 1279.46 80.80 o
0 3 4 890.62 749.41 115.25 o
-1 2 3 198.15 199.45 30.24 o
-3 3 5 955.73 491.30 153.40 o
-3 3 8 485.48 273.09 85.18 o
-1 3 6 638.78 840.70 91.08 o
-4 3 9 312.39 605.87 131.01 o
-2 3 8 222.95 305.84 85.28 o
-1 3 4 659.77 177.95 105.38 <
-2 2 5 92.15 131.06 27.19 o
-3 4 10 461.90 420.27 221.97 <
-1 4 6 617.33 295.70 230.33 <
-1 3 5 167.98 125.06 95.25 <
-2 4 7 658.79 616.36 264.72 <
-3 2 5 67.35 94.10 43.59 <
0 1 2 15.82 19.84 7.95 <
-1 4 7 458.67 262.26 209.09 <
1 4 5 1150.49 486.17 227.68 <
-2 4 10 245.92 344.81 172.31 <
-2 5 10 4.95 735.16 409.35 <
1 2 6 1006.50 879.80 32.48 o
2 2 8 1114.95 1187.25 51.33 o
1 1 6 1037.68 901.31 42.05 o
2 2 9 935.52 1033.99 54.46 o
1 1 4 440.38 382.97 28.98 o
2 2 7 449.43 542.13 42.90 o
1 2 7 328.35 356.20 33.66 o
2 2 10 480.58 327.74 64.60 o
3 3 12 939.01 600.76 176.84 o
1 2 8 222.24 115.83 44.06 <
3 2 8 295.67 199.58 64.12 o
1 1 5 135.92 119.06 27.63 o
3 2 10 294.46 244.02 78.77 o
3 2 12 371.20 207.87 93.10 <
3 2 14 309.74 299.01 112.16 <
3 3 13 489.66 695.69 205.16 o
3 2 11 213.48 93.22 68.77 <
1 3 14 454.51 379.15 148.87 <
3 3 14 595.76 230.95 206.58 <
2 4 12 428.23 525.88 261.65 <
2 2 11 230.11 202.15 70.03 <
4 3 13 411.55 644.62 258.11 <
4 4 14 619.25 607.50 427.64 <
3 4 17 534.17 633.99 448.18 <
2 4 13 492.06 377.88 282.83 <
3 3 11 240.01 202.09 182.87 <
1 3 12 186.01 159.31 121.62 <
1 3 11 145.81 101.31 79.82 <
-2 1 11 1940.02 1899.94 59.95 o
-1 1 8 1347.75 1222.62 44.68 o
-1 1 9 1097.39 1132.19 45.41 o
-1 1 11 829.93 826.73 49.91 o
-2 2 16 972.88 1203.42 97.18 o
-3 1 16 760.65 763.57 72.90 o
-2 1 21 1843.28 1793.19 146.36 o
-2 1 10 438.16 417.32 35.32 o
-3 1 17 1015.61 982.66 81.93 o
-2 2 17 1170.53 1194.54 115.36 o
-3 1 18 888.90 838.45 89.21 o
-3 2 16 741.36 761.11 90.96 o
-1 2 20 1236.59 1193.93 163.21 o
-2 1 17 592.65 633.45 79.80 o
-1 2 15 368.26 376.37 78.04 o
-1 1 14 311.90 341.89 56.58 o
-3 2 18 537.27 545.16 119.69 o
-1 1 15 257.31 205.26 54.30 o
-1 1 12 217.36 242.46 44.90 o
-2 1 9 89.69 116.66 25.04 o
-3 2 21 496.35 562.37 185.47 o
-4 2 18 268.76 415.83 108.00 o
-1 2 22 742.86 652.82 191.74 o
-2 2 18 372.24 451.67 123.01 o
-2 2 22 617.29 891.24 214.70 o
-1 1 18 335.86 325.44 79.17 o
-4 2 19 301.32 330.74 117.64 <
-2 1 12 85.06 89.47 41.40 <
-1 3 21 537.17 382.33 201.54 <
-2 1 13 37.81 59.46 39.38 <
-3 1 26 497.83 248.37 227.43 <
-3 3 22 435.05 344.03 276.69 <
-1 2 10 4332.65 4606.26 68.57 o
-1 1 4 795.41 790.00 27.70 o
-1 3 16 2522.69 2441.69 126.44 o
-2 2 9 670.83 682.16 40.31 o
-2 2 10 611.59 674.62 33.32 o
-2 3 12 1171.85 1290.31 79.50 o
-3 3 14 1356.57 1418.04 127.41 o
-2 3 11 879.23 959.15 74.49 o
-3 2 13 537.78 517.57 54.02 o
-2 3 10 610.02 699.30 83.50 o
-2 3 16 923.07 988.08 122.67 o
-3 2 10 264.42 295.89 39.92 o
-2 2 7 148.68 164.81 26.24 o
-3 2 11 331.67 316.59 50.22 o
-1 4 15 1135.56 1210.41 248.43 o
-3 2 12 281.29 201.79 48.41 o
-4 3 12 645.25 679.26 115.11 o
-3 2 9 249.38 202.84 39.17 o
-4 3 14 651.56 644.49 131.09 o
-4 3 17 722.64 802.23 161.90 o
-1 3 11 268.69 225.22 72.70 o
-3 3 12 356.81 246.46 103.50 <
-1 3 10 253.67 332.19 74.90 o
-1 3 14 344.42 220.38 86.53 <
-2 2 8 91.83 109.51 32.16 o
-1 2 9 97.53 66.57 31.16 <
-2 4 17 429.20 436.03 200.57 <
-3 4 17 424.01 268.63 234.15 <
-1 4 12 467.00 527.38 152.61 o
-2 2 11 47.69 43.61 39.37 <
-3 3 13 110.68 136.03 98.48 <
-2 3 15 343.44 222.86 98.16 <
-5 4 18 507.34 325.31 235.21 <
-5 4 15 368.37 261.91 238.67 <
-2 3 14 115.94 160.16 84.01 <
-6 5 20 87.57 762.96 607.12 <
