#------------------------------------------------------------------------------
#$Date: 2016-02-21 11:56:54 +0200 (Sun, 21 Feb 2016) $
#$Revision: 176809 $
#$URL: svn://www.crystallography.net/cod/cif/2/31/01/2310115.cif $
#------------------------------------------------------------------------------
#
# This file is available in the Crystallography Open Database (COD),
# http://www.crystallography.net/
#
# All data on this site have been placed in the public domain by the
# contributors.
#
data_2310115
loop_
_publ_author_name
'Kami\'nski, Rados\/law'
'Domaga\/la, S\/lawomir'
'Jarzembska, Katarzyna N.'
'Hoser, Anna A.'
'Sanjuan-Szklarz, W. Fabiola'
'Gutmann, Matthias J.'
'Makal, Anna'
'Mali\'nska, Maura'
'Bak, Joanna M.'
'Wo\'zniak, Krzysztof'
_publ_section_title
;
 Statistical analysis of multipole-model-derived structural parameters and
 charge-density properties from high-resolution X-ray diffraction
 experiments
;
_journal_issue                   1
_journal_name_full               'Acta Crystallographica Section A'
_journal_page_first              72
_journal_page_last               91
_journal_paper_doi               10.1107/S2053273313028313
_journal_volume                  70
_journal_year                    2014
_chemical_formula_moiety         'C2 H2 O4, 2(H2 O1)'
_chemical_formula_sum            'C2 H6 O6'
_chemical_formula_weight         126.07
_space_group_IT_number           14
_symmetry_cell_setting           monoclinic
_symmetry_Int_Tables_number      14
_symmetry_space_group_name_Hall  '-P 2ybc'
_symmetry_space_group_name_H-M   'P 1 21/c 1'
_cell_angle_alpha                90.00
_cell_angle_beta                 103.901(2)
_cell_angle_gamma                90.00
_cell_formula_units_Z            2
_cell_length_a                   6.0910(3)
_cell_length_b                   3.4928(2)
_cell_length_c                   11.8372(6)
_cell_measurement_temperature    100(1)
_cell_volume                     244.46(2)
_diffrn_ambient_temperature      100(1)
_diffrn_measured_fraction_theta_full 0.985
_diffrn_measured_fraction_theta_max 0.985
_diffrn_measurement_device
;
Bruker AXS Kappa APEX II Ultra diffractometer
;
_diffrn_measurement_device_type  'APEX II CCD detector'
_diffrn_measurement_method       \w-scans
_diffrn_radiation_monochromator  'multi-layer optics'
_diffrn_radiation_source         'TXS rotating anode'
_diffrn_radiation_type           'Mo K\a'
_diffrn_radiation_wavelength     0.71073
_diffrn_reflns_av_R_equivalents  0.0260
_diffrn_reflns_av_sigmaI/netI    0.01692
_diffrn_reflns_limit_h_max       14
_diffrn_reflns_limit_h_min       -13
_diffrn_reflns_limit_k_max       8
_diffrn_reflns_limit_k_min       -7
_diffrn_reflns_limit_l_max       27
_diffrn_reflns_limit_l_min       -26
_diffrn_reflns_number            24573
_diffrn_reflns_theta_full        54.82
_diffrn_reflns_theta_max         54.818
_diffrn_reflns_theta_min         3.446
_exptl_absorpt_coefficient_mu    0.181
_exptl_absorpt_correction_T_max  0.976
_exptl_absorpt_correction_T_min  0.936
_exptl_absorpt_correction_type   multi-scan
_exptl_absorpt_process_details
;
 Absorption correction done by SORTAV
 Blessing, R. H.: (1995) Acta Cryst. A51, 33-38
;
_exptl_crystal_colour            colourless
_exptl_crystal_density_diffrn    1.713
_exptl_crystal_description       unspecified
_exptl_crystal_F_000             132
_exptl_crystal_size_max          0.362
_exptl_crystal_size_mid          0.210
_exptl_crystal_size_min          0.208
_refine_diff_density_max         +0.13
_refine_diff_density_min         -0.15
_refine_ls_extinction_method     none
_refine_ls_goodness_of_fit_ref   1.450
_refine_ls_hydrogen_treatment    mixed
_refine_ls_number_parameters     177
_refine_ls_number_reflns         2588
_refine_ls_number_restraints     3
_refine_ls_R_factor_all          0.0139
_refine_ls_R_factor_gt           0.0139
_refine_ls_shift/su_max          0.001
_refine_ls_shift/su_mean         0.000
_refine_ls_structure_factor_coef F
_refine_ls_weighting_details
;
w=1/[\s^2^(Fo)]
;
_refine_ls_weighting_scheme      sigma
_refine_ls_wR_factor_gt          0.0228
_refine_ls_wR_factor_ref         0.0228
_reflns_number_gt                2588
_reflns_number_total             3051
_reflns_threshold_expression     I>3\s(I)
_iucr_refine_instructions_details
;
 Multipole refinement with MOPRO program
;
_cod_data_source_file            pc5031sup3.cif
_cod_data_source_block           oxa03
_cod_original_sg_symbol_H-M      'P 21/c'
_cod_database_code               2310115
loop_
_symmetry_equiv_pos_as_xyz
'x, y, z'
'-x, y+1/2, -z+1/2'
'-x, -y, -z'
'x, -y-1/2, z-1/2'
loop_
_atom_site_type_symbol
_atom_site_label
_atom_site_fract_x
_atom_site_fract_y
_atom_site_fract_z
_atom_site_U_iso_or_equiv
_atom_site_adp_type
_atom_site_occupancy
_atom_site_calc_flag
O O1 0.43481(4) 0.44404(8) 0.34987(2) 0.01308(8) Uani 1 d
O O2 0.24238(4) 0.74272(7) 0.46369(2) 0.01286(8) Uani 1 d
C C1 0.40314(2) 0.55877(4) 0.44801(1) 0.00955(6) Uani 1 d
H H1 0.304(2) 0.520(6) 0.2750(8) 0.02254 Uani 1 d
O O3 0.13002(3) 0.63125(7) 0.17856(2) 0.01271(7) Uani 1 d
H H2 0.193(2) 0.706(6) 0.1137(7) 0.02827 Uani 1 d
H H3 0.023(2) 0.433(3) 0.144(2) 0.02800 Uani 1 d
loop_
_atom_site_aniso_label
_atom_site_aniso_U_11
_atom_site_aniso_U_22
_atom_site_aniso_U_33
_atom_site_aniso_U_12
_atom_site_aniso_U_13
_atom_site_aniso_U_23
O1 0.01269(7) 0.01854(8) 0.00755(6) 0.00460(6) 0.00149(5) -0.00080(5)
O2 0.01081(7) 0.01775(8) 0.00941(6) 0.00539(6) 0.00123(5) -0.00058(5)
C1 0.00921(6) 0.01130(6) 0.00787(6) 0.00174(3) 0.00155(3) -0.00012(3)
H1 0.0210 0.0260 0.0205 0.0018 0.0046 0.0002
O3 0.01056(6) 0.01778(8) 0.00900(6) -0.00205(5) 0.00081(5) 0.00102(5)
H2 0.0253 0.0397 0.0210 -0.0037 0.0080 0.0036
H3 0.0215 0.0296 0.0325 -0.0067 0.0055 -0.0020
loop_
_atom_type_symbol
_atom_type_description
_atom_type_scat_dispersion_real
_atom_type_scat_dispersion_imag
_atom_type_scat_source
C C 0.0033 0.0016 'Su & Coppens, Acta. Cryst. (1997) A53, 749'
H H 0.0000 0.0000 'Su & Coppens, Acta. Cryst. (1997) A53, 749'
O O 0.0106 0.0060 'Su & Coppens, Acta. Cryst. (1997) A53, 749'
loop_
_geom_angle_atom_site_label_1
_geom_angle_atom_site_label_2
_geom_angle_atom_site_label_3
_geom_angle
O1 C1 O2 126.89(2)
C1 O1 H1 115.1(9)
H2 O3 H3 102(1)
loop_
_geom_bond_atom_site_label_1
_geom_bond_atom_site_label_2
_geom_bond_distance
O1 C1 1.2866(3)
O1 H1 1.074(1)
O2 C1 1.2220(3)
O3 H3 0.970(1)
O3 H2 0.974(1)
loop_
_geom_torsion_atom_site_label_1
_geom_torsion_atom_site_label_2
_geom_torsion_atom_site_label_3
_geom_torsion_atom_site_label_4
_geom_torsion
O2 C1 O1 H1 -0.37(77)
loop_
_refln_index_h
_refln_index_k
_refln_index_l
_refln_F_squared_calc
_refln_F_squared_meas
_refln_F_squared_sigma
_refln_observed_status
-14 0 6 2.155 2.264 0.367 o
-13 0 6 35.342 34.946 0.896 o
-13 0 8 3.568 3.323 0.173 o
-13 1 1 2.728 2.751 0.395 o
-13 1 2 14.905 14.462 0.700 o
-13 1 4 1.248 1.202 0.140 o
-13 1 5 9.987 10.117 0.925 o
-13 1 8 3.917 3.811 0.170 o
-13 1 10 3.486 3.305 0.163 o
-13 1 12 3.415 3.555 0.185 o
-13 2 1 4.146 4.090 0.404 o
-13 2 3 1.082 1.174 0.309 o
-13 2 4 0.830 0.534 0.132 o
-13 2 5 1.277 1.192 0.148 o
-13 2 6 0.495 0.510 0.153 o
-13 2 8 2.313 2.206 0.321 o
-13 2 9 1.367 1.469 0.280 o
-12 0 2 9.213 9.072 0.309 o
-12 0 4 42.772 43.548 1.127 o
-12 0 6 4.328 5.312 0.219 o
-12 0 10 2.579 2.455 0.130 o
-12 0 12 8.916 8.884 0.313 o
-12 0 14 5.523 5.649 0.229 o
-12 0 16 18.706 19.421 0.660 o
-12 1 1 1.981 2.004 0.110 o
-12 1 2 1.025 1.053 0.136 o
-12 1 5 19.396 19.002 0.478 o
-12 1 6 4.684 4.367 0.139 o
-12 1 7 1.635 1.539 0.127 o
-12 1 8 12.244 12.076 0.310 o
-12 1 9 11.688 11.734 0.299 o
-12 1 10 2.857 2.830 0.173 o
-12 1 11 1.053 1.056 0.071 o
-12 1 12 7.183 6.960 0.210 o
-12 1 13 0.795 0.837 0.078 o
-12 1 14 0.169 0.231 0.067 o
-12 1 15 14.016 14.275 0.425 o
-12 1 16 1.836 1.734 0.111 o
-12 1 17 0.869 0.896 0.277 o
-12 2 1 13.391 13.559 0.384 o
-12 2 2 5.500 5.307 0.239 o
-12 2 5 8.126 7.662 0.245 o
-12 2 6 0.240 0.311 0.077 o
-12 2 7 3.524 3.426 0.129 o
-12 2 8 4.570 4.453 0.169 o
-12 2 9 4.192 4.352 0.197 o
-12 2 11 8.837 8.705 0.252 o
-12 2 12 1.101 1.166 0.110 o
-12 2 13 5.228 4.818 0.227 o
-12 3 1 1.576 1.640 0.103 o
-12 3 2 0.489 0.607 0.089 o
-12 3 3 3.340 3.252 0.190 o
-12 3 6 0.890 1.012 0.094 o
-12 3 7 1.298 1.318 0.099 o
-12 3 11 1.749 1.430 0.111 o
-12 3 12 0.472 0.500 0.093 o
-12 3 14 3.822 4.352 0.427 o
-12 4 3 1.993 1.889 0.150 o
-12 4 4 1.682 1.515 0.163 o
-12 4 5 2.457 1.986 0.337 o
-12 4 6 5.795 5.317 0.240 o
-12 4 8 0.529 0.618 0.094 o
-12 4 9 1.390 1.203 0.118 o
-11 0 2 3.810 3.589 0.199 o
-11 0 4 9.439 9.421 0.270 o
-11 0 6 0.644 0.481 0.107 o
-11 0 8 88.406 88.874 2.493 o
-11 0 10 8.046 8.099 0.241 o
-11 0 12 2.646 2.517 0.145 o
-11 0 14 34.917 36.529 0.917 o
-11 0 16 1.476 1.339 0.101 o
-11 0 18 12.326 12.729 0.371 o
-11 0 20 2.150 1.899 0.332 o
-11 1 2 5.948 6.017 0.174 o
-11 1 3 13.842 14.180 0.389 o
-11 1 4 36.492 37.188 0.854 o
-11 1 5 2.095 2.127 0.130 o
-11 1 6 0.220 0.244 0.055 o
-11 1 7 1.451 1.462 0.099 o
-11 1 8 1.380 1.404 0.076 o
-11 1 9 6.192 5.975 0.193 o
-11 1 10 3.845 3.828 0.126 o
-11 1 11 4.313 4.350 0.153 o
-11 1 12 13.774 13.872 0.344 o
-11 1 13 0.408 0.402 0.063 o
-11 1 14 6.395 6.390 0.206 o
-11 1 15 6.136 6.063 0.214 o
-11 1 16 2.581 2.487 0.119 o
-11 1 18 9.667 9.897 0.274 o
-11 1 19 11.510 12.018 0.360 o
-11 1 20 0.454 0.429 0.122 o
-11 2 1 2.747 2.830 0.107 o
-11 2 2 0.292 0.338 0.070 o
-11 2 3 1.295 1.235 0.099 o
-11 2 4 10.926 11.097 0.291 o
-11 2 5 2.152 2.091 0.096 o
-11 2 6 6.416 6.493 0.191 o
-11 2 7 8.320 8.542 0.267 o
-11 2 10 1.083 1.173 0.084 o
-11 2 11 2.281 2.109 0.114 o
-11 2 12 2.698 2.670 0.108 o
-11 2 13 0.527 0.515 0.073 o
-11 2 14 1.407 1.310 0.079 o
-11 2 15 10.578 10.217 0.282 o
-11 2 17 0.811 0.724 0.125 o
-11 2 18 2.439 2.559 0.173 o
-11 3 1 1.051 1.039 0.070 o
-11 3 2 3.435 3.321 0.119 o
-11 3 3 0.382 0.363 0.060 o
-11 3 4 4.541 4.432 0.176 o
-11 3 5 6.488 6.663 0.190 o
-11 3 6 3.030 2.917 0.149 o
-11 3 7 3.728 3.671 0.124 o
-11 3 9 1.312 1.314 0.076 o
-11 3 10 12.436 12.520 0.313 o
-11 3 11 4.136 4.517 0.170 o
-11 3 12 1.142 1.122 0.077 o
-11 3 13 2.707 2.750 0.157 o
-11 3 14 0.434 0.323 0.095 o
-11 3 16 3.882 3.787 0.304 o
-11 3 17 4.659 4.864 0.385 o
-11 4 1 1.327 1.388 0.136 o
-11 4 2 2.961 2.898 0.122 o
-11 4 3 5.698 5.570 0.218 o
-11 4 6 6.978 6.648 0.197 o
-11 4 7 0.418 0.477 0.070 o
-11 4 9 2.428 2.616 0.102 o
-11 4 10 3.867 3.841 0.133 o
-11 4 12 3.438 3.235 0.208 o
-11 4 13 5.897 5.711 0.222 o
-10 0 4 8.717 8.738 0.232 o
-10 0 6 12.299 12.778 0.348 o
-10 0 8 17.776 17.707 0.430 o
-10 0 10 12.166 11.935 0.321 o
-10 0 12 12.002 11.592 0.299 o
-10 0 14 0.779 0.894 0.082 o
-10 0 16 2.973 3.075 0.146 o
-10 0 18 63.924 65.325 1.953 o
-10 0 20 1.764 1.887 0.222 o
-10 1 1 3.461 3.520 0.121 o
-10 1 2 0.509 0.508 0.056 o
-10 1 3 2.172 2.202 0.089 o
-10 1 4 0.740 0.721 0.056 o
-10 1 5 9.846 9.651 0.245 o
-10 1 7 47.867 47.640 1.086 o
-10 1 8 20.271 19.931 0.465 o
-10 1 9 10.088 9.920 0.243 o
-10 1 10 6.271 6.431 0.171 o
-10 1 11 1.987 1.876 0.094 o
-10 1 12 3.913 3.787 0.122 o
-10 1 13 11.719 11.511 0.305 o
-10 1 14 18.417 18.587 0.506 o
-10 1 16 0.995 0.983 0.067 o
-10 1 17 15.248 15.393 0.407 o
-10 1 18 2.404 2.434 0.104 o
-10 1 19 1.851 1.860 0.154 o
-10 1 21 0.532 0.510 0.134 o
-10 1 22 11.849 11.960 0.378 o
-10 2 1 0.539 0.472 0.060 o
-10 2 2 11.254 11.299 0.388 o
-10 2 3 49.338 48.267 1.132 o
-10 2 4 28.668 29.103 0.799 o
-10 2 7 1.335 1.257 0.072 o
-10 2 8 9.051 9.364 0.242 o
-10 2 9 13.704 13.329 0.326 o
-10 2 10 0.801 0.761 0.055 o
-10 2 11 12.074 12.098 0.296 o
-10 2 12 5.066 5.218 0.155 o
-10 2 13 11.462 11.738 0.291 o
-10 2 14 13.882 14.233 0.357 o
-10 2 16 0.732 0.682 0.064 o
-10 2 17 3.868 3.907 0.138 o
-10 2 18 0.602 0.479 0.069 o
-10 2 20 0.362 0.384 0.108 o
-10 2 21 1.078 0.805 0.092 o
-10 3 1 2.599 2.855 0.105 o
-10 3 2 8.050 8.426 0.219 o
-10 3 3 3.570 3.623 0.135 o
-10 3 4 10.434 10.569 0.273 o
-10 3 6 11.277 11.087 0.275 o
-10 3 7 0.580 0.538 0.056 o
-10 3 8 5.923 6.053 0.168 o
-10 3 9 0.993 0.939 0.073 o
-10 3 10 7.939 7.870 0.211 o
-10 3 13 0.299 0.286 0.056 o
-10 3 14 8.348 8.121 0.240 o
-10 3 15 2.743 3.032 0.119 o
-10 3 17 1.585 1.446 0.096 o
-10 3 19 0.915 0.754 0.106 o
-10 3 20 7.327 7.315 0.284 o
-10 4 2 10.786 10.965 0.311 o
-10 4 3 6.385 6.698 0.186 o
-10 4 4 0.308 0.302 0.064 o
-10 4 5 1.121 1.196 0.100 o
-10 4 6 3.572 3.614 0.141 o
-10 4 8 3.327 3.137 0.114 o
-10 4 9 3.182 3.248 0.162 o
-10 4 10 7.397 7.643 0.206 o
-10 4 13 7.990 8.089 0.238 o
-10 4 16 11.059 10.877 0.359 o
-10 4 17 0.835 0.921 0.144 o
-10 5 2 7.108 7.086 0.230 o
-10 5 4 2.309 2.268 0.100 o
-10 5 5 3.021 3.043 0.125 o
-10 5 6 6.202 6.055 0.181 o
-10 5 10 0.762 0.783 0.101 o
-10 5 11 1.304 1.189 0.143 o
-10 5 12 14.959 14.709 0.604 o
-9 0 2 4.266 4.079 0.136 o
-9 0 4 57.669 58.003 1.304 o
-9 0 6 25.181 25.187 0.582 o
-9 0 8 4.475 4.284 0.146 o
-9 0 10 53.274 52.877 1.506 o
-9 0 14 1.907 1.972 0.099 o
-9 0 16 21.711 22.066 0.528 o
-9 0 20 1.012 1.075 0.111 o
-9 0 22 7.067 7.248 0.521 o
-9 0 24 4.199 3.602 0.419 o
-9 1 1 0.470 0.405 0.041 o
-9 1 2 1.376 1.538 0.065 o
-9 1 4 10.578 10.595 0.253 o
-9 1 5 3.064 3.042 0.095 o
-9 1 6 22.588 22.915 0.523 o
-9 1 7 17.347 17.715 0.410 o
-9 1 8 4.948 4.907 0.133 o
-9 1 9 17.697 17.677 0.433 o
-9 1 10 1.227 1.184 0.061 o
-9 1 11 6.932 6.802 0.173 o
-9 1 12 0.077 0.144 0.044 o
-9 1 13 0.296 0.278 0.044 o
-9 1 14 13.963 13.932 0.345 o
-9 1 15 0.606 0.521 0.046 o
-9 1 16 2.587 2.606 0.091 o
-9 1 17 37.075 36.326 0.850 o
-9 1 18 6.896 6.988 0.196 o
-9 1 19 2.723 2.792 0.106 o
-9 1 20 4.397 4.470 0.142 o
-9 1 21 7.105 7.445 0.221 o
-9 1 23 2.317 2.308 0.158 o
-9 1 24 0.571 0.483 0.113 o
-9 2 1 4.758 4.996 0.141 o
-9 2 3 0.700 0.661 0.050 o
-9 2 4 0.321 0.302 0.050 o
-9 2 5 6.377 6.084 0.163 o
-9 2 6 34.473 34.806 0.804 o
-9 2 7 10.281 9.988 0.242 o
-9 2 8 56.594 56.292 1.313 o
-9 2 9 1.345 1.410 0.069 o
-9 2 10 5.419 5.435 0.157 o
-9 2 12 3.208 3.221 0.106 o
-9 2 13 32.252 32.021 0.734 o
-9 2 14 4.962 5.181 0.142 o
-9 2 15 0.516 0.347 0.047 o
-9 2 16 9.885 9.443 0.241 o
-9 2 17 8.475 8.476 0.242 o
-9 2 18 14.862 15.435 0.372 o
-9 2 19 4.126 3.968 0.168 o
-9 2 20 0.436 0.430 0.060 o
-9 2 21 7.423 7.013 0.224 o
-9 2 22 2.951 2.814 0.222 o
-9 2 23 7.837 7.663 0.234 o
-9 3 1 2.820 2.681 0.096 o
-9 3 2 85.623 86.985 2.135 o
-9 3 3 12.873 13.616 0.346 o
-9 3 4 21.919 21.792 0.519 o
-9 3 6 1.044 1.036 0.059 o
-9 3 7 20.371 20.406 0.530 o
-9 3 8 6.848 6.749 0.181 o
-9 3 9 1.461 1.720 0.098 o
-9 3 10 5.095 5.144 0.148 o
-9 3 11 1.154 1.096 0.069 o
-9 3 12 42.134 42.982 1.032 o
-9 3 13 6.877 7.096 0.212 o
-9 3 14 6.159 6.232 0.206 o
-9 3 15 2.564 2.836 0.128 o
-9 3 16 3.170 3.368 0.167 o
-9 3 18 2.876 2.678 0.212 o
-9 3 21 0.462 0.867 0.111 o
-9 4 1 11.673 12.102 0.358 o
-9 4 2 3.793 3.882 0.171 o
-9 4 3 21.160 21.328 0.506 o
-9 4 4 0.299 0.307 0.093 o
-9 4 6 8.168 8.359 0.258 o
-9 4 7 0.884 0.935 0.071 o
-9 4 8 4.398 4.172 0.136 o
-9 4 9 1.671 1.660 0.101 o
-9 4 10 0.606 0.685 0.066 o
-9 4 11 5.688 5.862 0.177 o
-9 4 12 6.256 6.283 0.182 o
-9 4 13 7.481 7.567 0.234 o
-9 4 14 0.289 0.268 0.088 o
-9 4 19 0.619 0.537 0.136 o
-9 5 1 1.596 1.524 0.115 o
-9 5 6 0.862 0.839 0.071 o
-9 5 8 0.604 0.609 0.069 o
-9 5 9 3.680 3.615 0.134 o
-9 5 10 0.911 0.929 0.082 o
-9 5 12 3.223 3.116 0.155 o
-9 5 15 2.358 2.139 0.168 o
-9 5 16 8.897 8.954 0.314 o
-9 6 1 1.667 1.712 0.188 o
-9 6 3 4.180 4.262 0.210 o
-9 6 5 3.596 3.512 0.161 o
-9 6 6 0.710 0.843 0.101 o
-8 0 2 3.612 3.526 0.112 o
-8 0 4 4.426 4.397 0.138 o
-8 0 8 50.852 50.651 1.133 o
-8 0 10 7.445 7.227 0.205 o
-8 0 12 3.134 3.213 0.133 o
-8 0 14 45.967 45.382 1.151 o
-8 0 16 12.796 13.035 0.329 o
-8 0 18 2.422 2.353 0.120 o
-8 0 20 42.661 41.962 1.226 o
-8 0 22 0.352 0.399 0.087 o
-8 0 24 0.592 0.491 0.090 o
-8 1 1 29.813 29.599 0.665 o
-8 1 3 19.371 19.122 0.435 o
-8 1 4 30.026 29.844 0.671 o
-8 1 5 22.898 23.060 0.522 o
-8 1 6 1.590 1.728 0.063 o
-8 1 7 56.678 56.423 1.328 o
-8 1 8 5.900 5.881 0.160 o
-8 1 9 14.014 13.913 0.332 o
-8 1 10 37.131 36.900 0.873 o
-8 1 11 1.700 1.689 0.060 o
-8 1 12 1.985 1.791 0.065 o
-8 1 14 0.521 0.488 0.042 o
-8 1 15 16.235 16.369 0.381 o
-8 1 16 8.933 8.949 0.225 o
-8 1 17 7.097 7.203 0.189 o
-8 1 18 10.743 10.617 0.258 o
-8 1 20 1.108 1.213 0.077 o
-8 1 21 4.203 4.101 0.153 o
-8 1 23 1.038 0.893 0.087 o
-8 1 24 9.342 9.115 0.252 o
-8 2 1 39.934 39.886 0.933 o
-8 2 2 16.706 16.295 0.396 o
-8 2 3 6.992 6.845 0.200 o
-8 2 4 16.368 16.111 0.390 o
-8 2 5 34.236 34.293 0.798 o
-8 2 6 58.178 57.807 1.304 o
-8 2 7 6.694 6.482 0.167 o
-8 2 8 6.883 6.871 0.188 o
-8 2 9 1.428 1.363 0.059 o
-8 2 10 11.398 11.272 0.276 o
-8 2 11 20.638 20.478 0.479 o
-8 2 12 8.085 8.134 0.200 o
-8 2 13 2.136 2.232 0.076 o
-8 2 14 11.352 11.790 0.296 o
-8 2 16 38.149 38.023 0.867 o
-8 2 17 2.056 2.085 0.079 o
-8 2 18 14.105 14.462 0.370 o
-8 2 19 3.748 3.726 0.121 o
-8 2 20 0.474 0.456 0.059 o
-8 2 23 3.003 2.813 0.181 o
-8 3 1 0.230 0.246 0.041 o
-8 3 2 8.344 8.743 0.240 o
-8 3 3 7.078 7.159 0.191 o
-8 3 5 0.865 0.816 0.051 o
-8 3 6 34.150 33.552 0.770 o
-8 3 7 10.791 10.803 0.266 o
-8 3 8 22.802 22.359 0.532 o
-8 3 9 5.569 5.750 0.184 o
-8 3 10 9.604 9.935 0.248 o
-8 3 11 6.270 6.320 0.175 o
-8 3 12 51.867 52.113 1.312 o
-8 3 13 1.647 1.681 0.081 o
-8 3 14 1.427 1.353 0.074 o
-8 3 15 0.498 0.510 0.064 o
-8 3 16 17.924 18.260 0.533 o
-8 3 17 16.905 17.801 0.436 o
-8 3 19 1.118 1.170 0.073 o
-8 3 20 8.125 8.113 0.232 o
-8 3 22 24.553 23.540 0.729 o
-8 3 23 2.983 3.172 0.150 o
-8 4 1 21.559 21.856 0.507 o
-8 4 2 20.418 20.538 0.481 o
-8 4 3 16.263 16.237 0.400 o
-8 4 4 11.604 11.178 0.278 o
-8 4 5 3.103 3.090 0.129 o
-8 4 6 4.831 4.870 0.152 o
-8 4 7 3.022 3.025 0.170 o
-8 4 8 4.447 4.607 0.151 o
-8 4 10 0.339 0.337 0.062 o
-8 4 11 22.954 23.231 0.543 o
-8 4 12 17.652 17.556 0.433 o
-8 4 13 11.127 10.798 0.400 o
-8 4 15 3.024 3.216 0.155 o
-8 4 16 2.776 3.055 0.153 o
-8 4 18 5.125 4.546 0.203 o
-8 4 20 0.330 0.328 0.073 o
-8 5 1 4.910 5.068 0.150 o
-8 5 2 27.381 28.063 0.646 o
-8 5 5 1.410 1.385 0.094 o
-8 5 6 0.480 0.512 0.060 o
-8 5 7 4.863 4.704 0.154 o
-8 5 8 8.094 7.801 0.210 o
-8 5 10 2.323 2.377 0.121 o
-8 5 12 0.909 0.846 0.091 o
-8 5 14 0.596 0.604 0.089 o
-8 5 15 0.697 0.862 0.093 o
-8 6 1 0.322 0.322 0.061 o
-8 6 2 0.667 0.565 0.077 o
-8 6 3 0.344 0.337 0.068 o
-8 6 4 0.727 0.696 0.075 o
-8 6 6 0.404 0.398 0.072 o
-8 6 7 1.251 1.241 0.083 o
-8 6 8 0.471 0.515 0.073 o
-8 6 11 0.699 0.826 0.114 o
-7 0 2 14.753 14.249 0.339 o
-7 0 4 40.100 40.410 0.920 o
-7 0 6 256.964 259.734 6.383 o
-7 0 8 0.188 0.233 0.044 o
-7 0 10 1.359 1.384 0.066 o
-7 0 12 5.925 5.518 0.224 o
-7 0 14 10.736 12.837 0.315 o
-7 0 16 7.370 7.338 0.196 o
-7 0 18 7.682 7.743 0.219 o
-7 0 20 0.568 0.580 0.080 o
-7 0 24 8.198 8.150 0.275 o
-7 0 26 1.979 1.572 0.147 o
-7 1 1 18.268 18.120 0.409 o
-7 1 2 87.583 86.105 1.922 o
-7 1 3 3.672 3.732 0.100 o
-7 1 4 0.387 0.467 0.032 o
-7 1 5 2.235 2.174 0.069 o
-7 1 6 20.022 19.241 0.441 o
-7 1 7 54.155 53.502 1.200 o
-7 1 9 11.135 10.677 0.251 o
-7 1 10 29.926 30.043 0.679 o
-7 1 11 47.586 47.360 1.059 o
-7 1 12 2.704 2.867 0.086 o
-7 1 13 10.574 9.490 0.226 o
-7 1 14 15.334 15.455 0.360 o
-7 1 15 14.197 13.830 0.324 o
-7 1 16 5.875 6.152 0.171 o
-7 1 17 23.230 23.575 0.539 o
-7 1 19 27.441 26.958 0.622 o
-7 1 20 4.527 4.714 0.144 o
-7 1 21 2.941 3.038 0.128 o
-7 1 22 1.405 1.289 0.070 o
-7 1 23 1.049 1.050 0.082 o
-7 1 24 0.816 0.743 0.093 o
-7 1 25 7.916 7.701 0.256 o
-7 2 2 0.338 0.332 0.034 o
-7 2 3 23.606 22.653 0.536 o
-7 2 4 3.475 3.514 0.101 o
-7 2 5 10.149 10.097 0.239 o
-7 2 6 2.255 2.223 0.076 o
-7 2 7 19.838 19.353 0.449 o
-7 2 8 16.760 16.773 0.387 o
-7 2 9 17.876 17.229 0.420 o
-7 2 10 80.433 79.890 1.834 o
-7 2 11 23.228 23.101 0.552 o
-7 2 12 7.813 8.147 0.197 o
-7 2 13 5.298 5.145 0.139 o
-7 2 14 3.464 3.648 0.118 o
-7 2 15 42.589 42.691 0.970 o
-7 2 16 12.679 13.014 0.326 o
-7 2 17 2.195 2.182 0.097 o
-7 2 18 4.807 4.843 0.178 o
-7 2 19 0.248 0.191 0.059 o
-7 2 20 23.666 24.072 0.568 o
-7 2 21 12.727 12.777 0.318 o
-7 2 22 4.628 4.573 0.178 o
-7 2 23 3.997 3.962 0.182 o
-7 2 24 4.945 4.417 0.157 o
-7 2 25 2.549 2.617 0.163 o
-7 3 1 2.062 2.027 0.072 o
-7 3 2 1.832 1.817 0.070 o
-7 3 3 2.139 2.118 0.076 o
-7 3 4 77.784 76.489 1.732 o
-7 3 5 35.080 34.733 0.834 o
-7 3 6 16.414 16.203 0.391 o
-7 3 8 0.081 0.119 0.038 o
-7 3 9 9.762 9.735 0.245 o
-7 3 10 11.581 11.114 0.267 o
-7 3 11 0.257 0.272 0.047 o
-7 3 12 1.037 1.066 0.066 o
-7 3 13 7.590 7.624 0.200 o
-7 3 14 23.149 23.319 0.543 o
-7 3 15 4.865 5.027 0.170 o
-7 3 16 22.862 23.189 0.544 o
-7 3 17 0.194 0.234 0.056 o
-7 3 18 10.191 9.740 0.260 o
-7 3 20 2.676 2.517 0.139 o
-7 3 21 2.797 2.898 0.127 o
-7 3 22 2.922 2.821 0.123 o
-7 4 1 21.344 22.095 0.526 o
-7 4 2 6.766 6.873 0.180 o
-7 4 3 0.590 0.665 0.052 o
-7 4 4 2.113 2.246 0.083 o
-7 4 5 23.395 23.583 0.549 o
-7 4 6 4.408 4.404 0.132 o
-7 4 7 4.743 4.464 0.141 o
-7 4 8 27.100 26.565 0.609 o
-7 4 9 5.520 5.719 0.160 o
-7 4 10 0.234 0.246 0.044 o
-7 4 11 14.359 14.075 0.334 o
-7 4 12 3.635 3.711 0.129 o
-7 4 14 3.447 3.439 0.134 o
-7 4 15 12.708 12.368 0.352 o
-7 4 16 9.896 9.982 0.266 o
-7 4 17 3.678 3.874 0.138 o
-7 4 19 0.710 0.749 0.087 o
-7 4 20 0.266 0.242 0.071 o
-7 4 21 7.901 7.261 0.274 o
-7 4 22 10.090 10.220 0.378 o
-7 5 1 4.006 3.975 0.130 o
-7 5 2 20.034 20.685 0.480 o
-7 5 3 3.714 3.637 0.118 o
-7 5 4 1.896 1.747 0.105 o
-7 5 5 1.015 0.973 0.066 o
-7 5 6 7.980 8.059 0.209 o
-7 5 7 0.621 0.580 0.056 o
-7 5 10 5.416 5.591 0.217 o
-7 5 11 9.558 9.262 0.245 o
-7 5 12 25.556 25.862 0.614 o
-7 5 14 1.197 1.003 0.094 o
-7 5 17 2.525 2.437 0.189 o
-7 5 18 3.912 3.739 0.303 o
-7 6 1 16.621 16.840 0.419 o
-7 6 2 3.128 3.205 0.145 o
-7 6 4 0.674 0.677 0.068 o
-7 6 5 1.266 1.112 0.076 o
-7 6 6 6.295 6.168 0.187 o
-7 6 7 2.492 2.521 0.112 o
-7 6 8 4.443 4.537 0.153 o
-7 6 9 2.169 2.020 0.122 o
-7 6 10 0.398 0.375 0.082 o
-7 6 11 1.880 1.693 0.115 o
-7 6 13 0.491 0.306 0.086 o
-6 0 2 180.181 182.575 4.465 o
-6 0 4 2.949 2.811 0.108 o
-6 0 6 170.655 166.122 3.780 o
-6 0 8 1.168 1.136 0.065 o
-6 0 10 297.631 300.930 6.860 o
-6 0 12 0.163 2.614 0.133 o
-6 0 14 25.999 26.658 0.605 o
-6 0 16 134.115 133.805 3.091 o
-6 0 18 16.010 16.112 0.389 o
-6 0 20 9.995 10.331 0.289 o
-6 0 22 2.841 2.775 0.141 o
-6 0 24 13.107 13.227 0.350 o
-6 0 26 4.753 4.881 0.199 o
-6 1 1 1.330 1.421 0.069 o
-6 1 2 6.975 6.737 0.174 o
-6 1 3 1.147 1.320 0.061 o
-6 1 4 31.522 31.993 0.729 o
-6 1 5 96.592 94.368 2.122 o
-6 1 6 153.037 153.511 3.471 o
-6 1 7 2.702 2.685 0.088 o
-6 1 8 2.681 3.044 0.091 o
-6 1 9 44.561 44.861 1.012 o
-6 1 10 51.747 52.295 1.170 o
-6 1 11 3.903 4.119 0.125 o
-6 1 12 43.146 42.529 0.997 o
-6 1 13 4.872 5.078 0.131 o
-6 1 14 23.239 22.515 0.534 o
-6 1 15 3.699 3.793 0.112 o
-6 1 16 0.594 0.628 0.046 o
-6 1 17 1.092 1.038 0.056 o
-6 1 18 0.675 0.643 0.067 o
-6 1 19 12.052 12.284 0.297 o
-6 1 20 28.479 29.090 0.669 o
-6 1 21 13.114 13.069 0.324 o
-6 1 22 1.424 1.360 0.071 o
-6 1 23 2.200 2.226 0.095 o
-6 1 24 0.295 0.246 0.057 o
-6 1 25 1.331 1.127 0.083 o
-6 1 26 1.657 1.513 0.107 o
-6 2 1 71.375 70.613 1.571 o
-6 2 2 39.729 39.613 0.888 o
-6 2 3 61.448 61.413 1.391 o
-6 2 4 5.750 5.474 0.147 o
-6 2 5 4.163 4.359 0.127 o
-6 2 6 1.056 1.190 0.057 o
-6 2 7 0.203 0.206 0.036 o
-6 2 8 13.622 13.597 0.322 o
-6 2 9 32.557 31.464 0.754 o
-6 2 10 10.305 9.824 0.242 o
-6 2 11 0.252 0.234 0.033 o
-6 2 12 9.494 9.249 0.221 o
-6 2 13 0.228 0.156 0.036 o
-6 2 14 6.420 6.533 0.175 o
-6 2 15 2.857 2.904 0.112 o
-6 2 16 0.321 0.323 0.047 o
-6 2 17 9.624 9.893 0.258 o
-6 2 18 19.685 19.518 0.456 o
-6 2 19 2.636 2.532 0.118 o
-6 2 20 21.096 21.325 0.498 o
-6 2 21 1.660 1.357 0.077 o
-6 2 23 0.594 0.710 0.074 o
-6 2 24 0.218 0.253 0.079 o
-6 2 25 12.674 12.206 0.341 o
-6 3 1 13.393 13.278 0.335 o
-6 3 2 12.048 11.727 0.278 o
-6 3 3 1.423 1.687 0.061 o
-6 3 4 4.337 4.459 0.119 o
-6 3 5 0.697 0.716 0.040 o
-6 3 6 6.373 7.082 0.180 o
-6 3 7 7.904 7.729 0.208 o
-6 3 8 40.959 40.401 0.910 o
-6 3 9 32.769 32.116 0.731 o
-6 3 10 0.560 0.537 0.043 o
-6 3 11 4.407 4.486 0.129 o
-6 3 12 0.395 0.907 0.056 o
-6 3 13 6.859 6.889 0.196 o
-6 3 14 56.466 56.701 1.282 o
-6 3 15 12.909 12.983 0.312 o
-6 3 16 1.821 1.731 0.106 o
-6 3 17 0.640 0.663 0.067 o
-6 3 18 8.660 8.662 0.240 o
-6 3 19 15.559 15.719 0.459 o
-6 3 20 1.026 0.944 0.076 o
-6 3 21 0.449 0.464 0.080 o
-6 3 22 5.046 4.773 0.161 o
-6 3 23 0.954 0.790 0.088 o
-6 3 24 18.710 18.804 0.493 o
-6 4 1 7.918 7.981 0.199 o
-6 4 3 7.235 7.364 0.198 o
-6 4 4 43.832 43.309 0.975 o
-6 4 5 39.904 40.009 0.900 o
-6 4 6 1.996 1.866 0.070 o
-6 4 8 6.875 6.989 0.183 o
-6 4 10 1.899 1.896 0.084 o
-6 4 11 6.831 7.054 0.196 o
-6 4 12 11.739 11.688 0.295 o
-6 4 13 13.884 13.996 0.362 o
-6 4 14 13.984 13.652 0.334 o
-6 4 15 22.981 22.766 0.616 o
-6 4 16 0.540 0.612 0.099 o
-6 4 18 6.825 6.827 0.215 o
-6 4 19 1.000 0.931 0.087 o
-6 4 21 1.438 1.302 0.085 o
-6 4 22 0.536 0.428 0.075 o
-6 5 2 0.659 0.783 0.055 o
-6 5 3 1.228 1.123 0.061 o
-6 5 4 37.559 38.251 0.870 o
-6 5 6 6.962 6.951 0.204 o
-6 5 7 2.794 2.708 0.121 o
-6 5 8 16.490 16.500 0.422 o
-6 5 9 1.417 1.301 0.075 o
-6 5 10 15.366 15.146 0.375 o
-6 5 11 0.528 0.595 0.071 o
-6 5 13 0.620 0.563 0.077 o
-6 5 14 2.323 2.676 0.148 o
-6 5 15 1.480 1.270 0.210 o
-6 5 16 7.963 7.747 0.267 o
-6 5 17 0.258 0.331 0.108 o
-6 5 18 1.508 1.375 0.134 o
-6 5 20 2.510 2.535 0.196 o
-6 6 1 1.827 1.867 0.085 o
-6 6 2 4.417 4.326 0.134 o
-6 6 3 0.413 0.559 0.068 o
-6 6 4 3.181 3.234 0.112 o
-6 6 5 9.619 9.789 0.264 o
-6 6 6 1.046 1.646 0.126 o
-6 6 7 0.808 0.701 0.069 o
-6 6 8 0.472 0.418 0.078 o
-6 6 10 5.260 5.457 0.209 o
-6 6 11 10.406 10.201 0.311 o
-6 6 12 4.451 4.682 0.184 o
-6 6 13 0.777 0.727 0.112 o
-6 6 14 0.879 1.012 0.115 o
-6 6 15 3.803 3.762 0.260 o
-6 7 1 6.001 5.999 0.194 o
-6 7 3 0.318 0.336 0.074 o
-6 7 4 0.493 0.394 0.089 o
-6 7 6 1.319 1.279 0.139 o
-6 7 7 2.745 2.821 0.176 o
-6 7 9 2.690 2.498 0.411 o
-5 0 2 90.723 92.134 2.107 o
-5 0 4 18.812 18.129 0.466 o
-5 0 6 113.636 119.073 2.764 o
-5 0 8 280.938 282.354 6.727 o
-5 0 10 99.837 103.881 2.331 o
-5 0 12 44.358 44.549 1.255 o
-5 0 14 0.648 0.611 0.052 o
-5 0 18 27.027 27.019 0.623 o
-5 0 20 101.305 104.362 2.469 o
-5 0 24 0.595 0.468 0.093 o
-5 0 26 14.402 14.903 0.391 o
-5 1 1 57.134 56.513 1.286 o
-5 1 2 254.254 257.670 5.944 o
-5 1 3 51.419 51.255 1.171 o
-5 1 4 93.384 94.294 2.179 o
-5 1 5 32.168 31.139 0.719 o
-5 1 6 3.827 4.418 0.172 o
-5 1 7 1.103 1.099 0.064 o
-5 1 8 17.774 17.150 0.481 o
-5 1 9 276.350 270.785 6.600 o
-5 1 10 26.126 26.562 0.621 o
-5 1 11 0.408 0.196 0.041 o
-5 1 12 24.420 25.986 0.596 o
-5 1 13 9.617 9.152 0.225 o
-5 1 14 26.130 26.648 0.620 o
-5 1 15 41.917 40.625 0.906 o
-5 1 16 55.642 56.568 1.277 o
-5 1 17 16.720 16.735 0.389 o
-5 1 18 0.548 0.529 0.048 o
-5 1 19 42.026 42.816 0.970 o
-5 1 20 0.585 0.616 0.059 o
-5 1 21 1.049 0.950 0.055 o
-5 1 22 1.464 1.419 0.067 o
-5 1 23 0.255 0.158 0.050 o
-5 1 24 16.367 15.950 0.436 o
-5 1 25 1.076 1.116 0.073 o
-5 1 26 2.950 3.025 0.129 o
-5 2 1 9.344 9.247 0.231 o
-5 2 2 0.569 0.553 0.052 o
-5 2 3 4.281 4.324 0.132 o
-5 2 4 28.265 28.497 0.655 o
-5 2 5 178.241 177.710 4.044 o
-5 2 6 81.448 80.177 1.800 o
-5 2 7 21.742 21.866 0.500 o
-5 2 8 2.002 1.915 0.075 o
-5 2 9 0.113 0.162 0.035 o
-5 2 11 41.077 40.071 0.905 o
-5 2 12 25.032 24.372 0.579 o
-5 2 13 75.471 74.107 1.713 o
-5 2 14 0.741 0.761 0.048 o
-5 2 15 12.223 12.076 0.296 o
-5 2 16 3.482 3.296 0.115 o
-5 2 17 8.040 7.916 0.235 o
-5 2 18 5.020 5.165 0.155 o
-5 2 19 11.628 11.352 0.275 o
-5 2 21 0.243 0.255 0.060 o
-5 2 22 10.129 10.669 0.284 o
-5 2 23 7.760 7.951 0.286 o
-5 2 24 1.667 1.597 0.078 o
-5 3 1 20.143 19.760 0.453 o
-5 3 3 6.142 6.142 0.175 o
-5 3 4 11.166 11.593 0.276 o
-5 3 5 3.510 3.531 0.102 o
-5 3 6 4.736 4.652 0.128 o
-5 3 7 15.870 15.911 0.383 o
-5 3 8 2.287 2.260 0.077 o
-5 3 10 6.440 6.482 0.174 o
-5 3 11 0.568 0.581 0.047 o
-5 3 12 0.717 0.678 0.054 o
-5 3 14 0.896 0.827 0.058 o
-5 3 15 2.350 2.448 0.113 o
-5 3 18 13.038 13.126 0.328 o
-5 3 19 6.058 6.289 0.177 o
-5 3 20 0.276 0.262 0.059 o
-5 3 21 0.908 0.824 0.070 o
-5 3 23 3.880 3.949 0.157 o
-5 3 24 9.138 9.005 0.258 o
-5 4 1 3.314 3.273 0.101 o
-5 4 3 23.741 24.457 0.559 o
-5 4 4 24.382 24.047 0.603 o
-5 4 5 14.097 13.888 0.322 o
-5 4 7 1.091 1.047 0.050 o
-5 4 8 25.653 25.058 0.598 o
-5 4 10 24.210 23.972 0.552 o
-5 4 11 0.334 0.391 0.050 o
-5 4 12 2.008 1.930 0.081 o
-5 4 13 15.052 14.938 0.356 o
-5 4 14 7.390 7.506 0.216 o
-5 4 15 13.555 13.392 0.339 o
-5 4 17 2.421 2.338 0.102 o
-5 4 18 16.895 16.655 0.412 o
-5 4 19 0.446 0.523 0.067 o
-5 4 22 2.691 2.681 0.112 o
-5 4 23 9.385 9.403 0.299 o
-5 5 1 2.828 2.715 0.099 o
-5 5 2 4.159 3.992 0.124 o
-5 5 3 3.315 3.486 0.117 o
-5 5 4 66.634 67.511 1.524 o
-5 5 5 0.233 0.357 0.054 o
-5 5 6 9.186 8.927 0.240 o
-5 5 7 2.590 2.550 0.097 o
-5 5 8 6.258 6.339 0.186 o
-5 5 9 2.938 2.992 0.141 o
-5 5 10 3.614 3.641 0.158 o
-5 5 12 11.655 11.903 0.306 o
-5 5 13 4.301 4.200 0.170 o
-5 5 14 50.154 50.971 1.230 o
-5 5 16 0.761 0.690 0.074 o
-5 5 17 0.567 0.538 0.079 o
-5 5 18 1.471 1.408 0.093 o
-5 5 19 1.087 1.057 0.127 o
-5 5 20 2.893 2.573 0.203 o
-5 6 2 0.357 0.376 0.060 o
-5 6 3 19.992 20.212 0.541 o
-5 6 4 2.899 2.951 0.129 o
-5 6 5 1.452 1.375 0.106 o
-5 6 6 0.915 0.936 0.085 o
-5 6 7 1.765 1.701 0.093 o
-5 6 8 11.858 12.099 0.365 o
-5 6 9 2.505 2.418 0.161 o
-5 6 10 9.853 9.969 0.280 o
-5 6 11 0.756 0.618 0.098 o
-5 6 13 1.566 1.464 0.246 o
-5 6 15 4.174 3.888 0.217 o
-5 7 2 0.991 0.832 0.114 o
-5 7 3 0.605 0.664 0.084 o
-5 7 7 2.440 2.470 0.154 o
-5 7 9 2.267 1.999 0.137 o
-5 7 10 2.121 2.048 0.168 o
-5 7 11 2.672 2.477 0.389 o
-4 0 2 986.732 962.746 22.943 o
-4 0 4 118.499 124.075 3.189 o
-4 0 6 51.605 46.376 1.139 o
-4 0 8 592.556 596.570 13.837 o
-4 0 10 2.108 1.683 0.122 o
-4 0 12 247.760 244.747 6.108 o
-4 0 14 2.418 1.943 0.117 o
-4 0 16 57.250 59.211 1.326 o
-4 0 18 136.184 136.960 3.195 o
-4 0 22 1.331 1.231 0.094 o
-4 0 24 1.873 1.884 0.106 o
-4 0 26 11.899 11.606 0.843 o
-4 1 1 93.590 92.803 2.092 o
-4 1 2 57.437 57.849 1.316 o
-4 1 3 1.522 1.649 0.074 o
-4 1 4 32.900 34.256 0.782 o
-4 1 6 177.118 177.705 4.063 o
-4 1 7 85.566 88.708 2.194 o
-4 1 8 174.710 177.060 4.320 o
-4 1 9 46.391 46.961 1.073 o
-4 1 11 1.715 1.891 0.083 o
-4 1 12 84.393 81.772 1.870 o
-4 1 13 15.669 15.616 0.370 o
-4 1 14 16.771 16.620 0.416 o
-4 1 16 22.838 22.043 0.503 o
-4 1 17 4.657 4.711 0.138 o
-4 1 18 0.990 0.883 0.056 o
-4 1 19 53.785 54.945 1.238 o
-4 1 20 12.270 12.319 0.298 o
-4 1 21 1.617 1.428 0.070 o
-4 1 22 22.903 23.061 0.542 o
-4 1 23 9.476 9.724 0.273 o
-4 1 24 2.747 2.760 0.115 o
-4 1 25 4.603 4.430 0.163 o
-4 1 26 2.508 2.481 0.142 o
-4 2 1 54.023 52.154 1.197 o
-4 2 2 13.077 12.894 0.323 o
-4 2 3 79.021 80.296 1.808 o
-4 2 4 61.943 63.481 1.472 o
-4 2 5 5.792 5.913 0.167 o
-4 2 6 6.050 5.946 0.167 o
-4 2 7 6.831 7.149 0.194 o
-4 2 8 83.985 84.829 2.008 o
-4 2 9 14.618 14.005 0.356 o
-4 2 10 30.559 32.073 0.727 o
-4 2 11 7.575 7.793 0.212 o
-4 2 12 0.663 0.851 0.059 o
-4 2 13 3.410 3.290 0.111 o
-4 2 14 22.779 22.746 0.551 o
-4 2 15 35.293 35.311 0.801 o
-4 2 16 10.547 10.417 0.254 o
-4 2 17 7.575 7.630 0.210 o
-4 2 18 7.909 7.799 0.200 o
-4 2 19 6.240 6.076 0.176 o
-4 2 21 4.591 4.428 0.158 o
-4 2 22 3.958 4.097 0.157 o
-4 2 23 19.024 19.212 0.456 o
-4 2 24 2.561 2.302 0.164 o
-4 2 25 3.226 3.209 0.119 o
-4 2 26 1.329 1.163 0.093 o
-4 3 1 5.058 5.119 0.138 o
-4 3 2 13.349 13.910 0.329 o
-4 3 3 22.943 23.221 0.532 o
-4 3 4 243.557 244.942 5.632 o
-4 3 5 29.094 29.694 0.685 o
-4 3 6 8.620 8.249 0.209 o
-4 3 7 5.322 5.327 0.156 o
-4 3 8 0.257 0.250 0.043 o
-4 3 9 37.277 36.982 0.844 o
-4 3 10 64.127 63.573 1.429 o
-4 3 11 21.142 20.001 0.460 o
-4 3 12 12.556 12.284 0.289 o
-4 3 13 1.064 0.978 0.060 o
-4 3 14 32.172 31.487 0.753 o
-4 3 15 5.992 6.073 0.168 o
-4 3 16 4.013 4.218 0.165 o
-4 3 17 14.928 15.256 0.360 o
-4 3 18 2.663 2.593 0.132 o
-4 3 20 6.275 6.106 0.179 o
-4 3 21 1.565 1.625 0.091 o
-4 3 22 1.152 0.987 0.077 o
-4 3 23 0.491 0.324 0.071 o
-4 3 25 0.791 0.706 0.136 o
-4 4 1 0.196 0.188 0.032 o
-4 4 2 5.111 5.133 0.134 o
-4 4 3 60.597 60.383 1.370 o
-4 4 4 0.910 1.241 0.049 o
-4 4 5 11.659 11.305 0.265 o
-4 4 6 29.132 28.925 0.653 o
-4 4 7 9.651 9.702 0.236 o
-4 4 8 4.458 4.438 0.124 o
-4 4 9 2.167 2.178 0.078 o
-4 4 10 2.894 2.869 0.094 o
-4 4 12 0.334 0.417 0.046 o
-4 4 13 29.167 29.589 0.690 o
-4 4 14 22.940 23.127 0.620 o
-4 4 15 0.882 0.804 0.069 o
-4 4 16 1.852 1.924 0.109 o
-4 4 17 4.749 4.797 0.208 o
-4 4 18 2.203 2.328 0.101 o
-4 4 20 4.716 4.396 0.145 o
-4 4 21 0.284 0.246 0.066 o
-4 4 22 2.884 2.975 0.114 o
-4 4 23 5.544 5.210 0.167 o
-4 5 2 22.572 22.815 0.524 o
-4 5 3 2.343 2.436 0.099 o
-4 5 4 0.549 0.516 0.044 o
-4 5 6 5.418 5.458 0.194 o
-4 5 8 8.282 8.174 0.209 o
-4 5 9 0.207 0.155 0.050 o
-4 5 10 12.679 12.507 0.312 o
-4 5 11 1.386 1.333 0.077 o
-4 5 12 7.828 7.966 0.219 o
-4 5 13 0.570 0.527 0.069 o
-4 5 14 13.615 13.394 0.389 o
-4 5 17 1.721 1.577 0.184 o
-4 5 18 12.256 12.024 0.512 o
-4 6 2 4.982 4.844 0.152 o
-4 6 3 13.428 13.664 0.349 o
-4 6 4 3.609 3.663 0.145 o
-4 6 5 5.919 5.657 0.178 o
-4 6 6 1.743 1.713 0.123 o
-4 6 7 9.752 9.785 0.353 o
-4 6 8 1.455 1.252 0.103 o
-4 6 10 0.234 0.246 0.069 o
-4 6 11 0.524 0.535 0.078 o
-4 6 12 4.457 4.596 0.177 o
-4 6 13 20.484 19.725 0.776 o
-4 6 14 5.070 5.027 0.193 o
-4 6 16 1.062 0.979 0.110 o
-4 7 2 4.756 4.729 0.187 o
-4 7 3 5.162 5.138 0.213 o
-4 7 4 2.787 2.877 0.202 o
-4 7 6 0.886 0.821 0.118 o
-4 7 7 2.825 2.595 0.170 o
-4 7 8 2.158 1.802 0.141 o
-4 7 9 7.842 7.640 0.257 o
-4 7 11 0.872 0.803 0.111 o
-3 0 2 14.718 14.617 0.368 o
-3 0 4 92.996 89.709 2.263 o
-3 0 6 13.831 15.553 0.430 o
-3 0 8 22.826 23.156 0.571 o
-3 0 10 4.326 4.558 0.189 o
-3 0 12 146.687 151.183 4.380 o
-3 0 14 18.138 18.146 0.505 o
-3 0 16 13.931 13.711 0.345 o
-3 0 18 33.505 33.836 0.925 o
-3 0 20 10.069 9.862 0.325 o
-3 0 22 98.273 98.345 4.772 o
-3 0 24 0.062 0.437 0.114 o
-3 0 26 4.468 3.948 0.226 o
-3 1 1 334.177 329.100 7.525 o
-3 1 2 34.365 33.913 0.854 o
-3 1 3 160.712 163.898 3.760 o
-3 1 4 231.936 233.878 5.304 o
-3 1 5 217.509 214.877 4.870 o
-3 1 6 0.334 0.360 0.043 o
-3 1 7 349.677 358.839 8.234 o
-3 1 8 8.830 8.466 0.237 o
-3 1 9 60.820 61.656 1.648 o
-3 1 10 3.578 3.852 0.130 o
-3 1 11 163.397 158.569 3.657 o
-3 1 12 53.653 54.973 1.465 o
-3 1 13 0.847 0.896 0.065 o
-3 1 14 0.293 0.401 0.048 o
-3 1 16 32.127 31.716 0.721 o
-3 1 17 60.641 59.956 1.344 o
-3 1 18 39.371 38.579 0.887 o
-3 1 19 0.271 0.307 0.063 o
-3 1 20 2.111 2.031 0.090 o
-3 1 21 8.246 8.136 0.219 o
-3 1 22 2.168 2.239 0.122 o
-3 1 23 1.874 2.024 0.119 o
-3 1 24 0.221 0.217 0.064 o
-3 1 25 1.293 1.165 0.086 o
-3 1 26 17.829 17.566 0.466 o
-3 1 27 2.255 2.153 0.147 o
-3 2 1 84.487 83.495 1.919 o
-3 2 2 178.823 180.671 4.097 o
-3 2 3 297.067 303.247 6.958 o
-3 2 4 28.424 27.722 0.645 o
-3 2 5 2.779 2.707 0.105 o
-3 2 6 136.741 140.846 3.216 o
-3 2 7 166.701 171.748 3.939 o
-3 2 8 290.880 296.236 6.970 o
-3 2 9 50.868 52.429 1.261 o
-3 2 10 11.080 11.229 0.323 o
-3 2 11 24.227 22.644 0.635 o
-3 2 12 2.090 2.191 0.098 o
-3 2 13 53.149 52.846 1.187 o
-3 2 14 0.879 0.847 0.061 o
-3 2 15 29.362 29.047 0.681 o
-3 2 16 15.096 14.932 0.350 o
-3 2 17 1.001 1.101 0.064 o
-3 2 18 44.615 45.162 1.028 o
-3 2 19 0.356 0.390 0.063 o
-3 2 20 3.483 3.595 0.134 o
-3 2 21 11.295 11.588 0.297 o
-3 2 24 2.963 2.910 0.137 o
-3 3 1 3.518 3.722 0.118 o
-3 3 2 251.386 254.270 5.838 o
-3 3 3 3.603 8.281 0.469 o
-3 3 4 46.602 46.305 1.052 o
-3 3 5 21.574 21.930 0.533 o
-3 3 6 0.047 0.303 0.048 o
-3 3 7 3.972 4.064 0.141 o
-3 3 8 18.473 17.907 0.492 o
-3 3 9 5.141 5.505 0.145 o
-3 3 10 20.207 19.868 0.495 o
-3 3 11 1.417 1.456 0.067 o
-3 3 12 43.181 42.622 1.003 o
-3 3 13 9.699 9.445 0.250 o
-3 3 14 70.436 69.327 1.564 o
-3 3 15 1.629 1.528 0.065 o
-3 3 17 1.201 1.267 0.068 o
-3 3 18 3.560 3.503 0.119 o
-3 3 19 10.763 10.833 0.282 o
-3 3 20 4.394 4.561 0.153 o
-3 3 21 6.505 7.310 0.213 o
-3 3 22 10.656 10.481 0.266 o
-3 3 24 11.541 11.600 0.293 o
-3 3 25 2.331 2.351 0.186 o
-3 4 1 20.737 21.169 0.509 o
-3 4 2 10.956 10.929 0.282 o
-3 4 3 58.809 58.032 1.303 o
-3 4 4 29.789 29.173 0.658 o
-3 4 5 0.460 0.382 0.037 o
-3 4 6 25.466 25.051 0.566 o
-3 4 7 16.858 16.916 0.393 o
-3 4 8 0.545 0.534 0.040 o
-3 4 9 0.601 0.562 0.043 o
-3 4 10 38.765 38.624 0.871 o
-3 4 11 3.920 3.924 0.116 o
-3 4 12 2.931 2.957 0.103 o
-3 4 13 32.559 32.796 0.746 o
-3 4 14 5.951 5.945 0.169 o
-3 4 16 4.164 4.152 0.142 o
-3 4 17 10.941 11.135 0.277 o
-3 4 18 4.269 4.035 0.130 o
-3 4 19 0.279 0.318 0.062 o
-3 4 20 9.471 9.559 0.266 o
-3 4 21 0.700 0.617 0.070 o
-3 4 23 7.825 7.760 0.225 o
-3 5 1 0.210 0.199 0.043 o
-3 5 2 2.419 2.482 0.086 o
-3 5 3 4.526 4.403 0.121 o
-3 5 4 9.806 9.691 0.234 o
-3 5 5 1.138 1.204 0.057 o
-3 5 6 37.430 37.118 0.843 o
-3 5 7 4.128 4.232 0.130 o
-3 5 8 0.611 0.503 0.059 o
-3 5 9 4.419 4.457 0.188 o
-3 5 10 4.593 4.657 0.147 o
-3 5 11 1.445 1.498 0.080 o
-3 5 12 13.045 12.910 0.389 o
-3 5 13 0.337 0.292 0.062 o
-3 5 14 1.661 1.616 0.105 o
-3 5 16 18.044 18.161 0.590 o
-3 5 17 1.083 0.987 0.082 o
-3 5 18 1.269 1.263 0.089 o
-3 5 20 2.605 2.714 0.154 o
-3 6 1 8.701 8.959 0.309 o
-3 6 2 1.966 1.986 0.091 o
-3 6 3 0.938 1.074 0.073 o
-3 6 4 1.279 1.411 0.073 o
-3 6 5 0.741 0.633 0.069 o
-3 6 6 0.939 0.896 0.072 o
-3 6 7 0.773 0.807 0.071 o
-3 6 9 4.156 4.329 0.144 o
-3 6 10 3.161 3.202 0.181 o
-3 6 11 0.398 0.296 0.066 o
-3 6 12 3.923 4.177 0.155 o
-3 6 13 1.901 1.932 0.114 o
-3 6 15 0.216 0.665 0.099 o
-3 6 17 7.323 7.130 0.240 o
-3 7 1 0.873 0.814 0.080 o
-3 7 2 5.740 5.625 0.246 o
-3 7 3 0.287 0.443 0.095 o
-3 7 4 4.848 4.414 0.205 o
-3 7 5 1.871 1.965 0.291 o
-3 7 6 0.862 0.723 0.106 o
-3 7 9 0.318 0.434 0.114 o
-3 7 11 0.446 0.465 0.111 o
-3 7 12 6.667 6.847 0.392 o
-2 0 2 612.482 637.949 20.071 o
-2 0 4 2092.544 2084.997 56.736 o
-2 0 6 169.324 178.855 4.380 o
-2 0 8 469.648 464.686 13.853 o
-2 0 10 187.202 192.560 5.262 o
-2 0 12 16.076 17.333 0.640 o
-2 0 14 57.798 57.409 2.152 o
-2 0 16 11.799 11.404 0.329 o
-2 0 18 5.094 4.933 0.183 o
-2 0 20 17.113 17.427 0.584 o
-2 0 22 4.312 4.755 0.320 o
-2 0 26 3.949 3.903 0.345 o
-2 1 1 182.757 193.360 4.567 o
-2 1 2 552.434 575.119 13.200 o
-2 1 3 21.638 20.930 0.559 o
-2 1 4 360.734 372.463 8.694 o
-2 1 5 19.415 19.404 0.615 o
-2 1 6 5.679 5.501 0.201 o
-2 1 7 35.644 35.909 0.848 o
-2 1 8 289.912 293.510 8.052 o
-2 1 9 22.757 22.081 0.540 o
-2 1 10 32.382 32.877 1.035 o
-2 1 11 83.147 82.765 1.967 o
-2 1 12 8.894 9.634 0.285 o
-2 1 13 32.069 31.975 0.755 o
-2 1 14 19.268 18.391 0.475 o
-2 1 15 11.512 11.297 0.278 o
-2 1 16 1.107 1.153 0.074 o
-2 1 17 30.891 30.673 0.700 o
-2 1 18 8.931 8.670 0.250 o
-2 1 19 1.706 1.884 0.089 o
-2 1 20 1.006 0.996 0.072 o
-2 1 21 58.477 60.039 1.376 o
-2 1 22 11.390 11.701 0.319 o
-2 1 24 2.354 2.472 0.123 o
-2 1 25 0.548 0.571 0.117 o
-2 1 26 1.612 1.472 0.123 o
-2 2 1 146.992 150.545 3.418 o
-2 2 2 481.658 489.100 11.474 o
-2 2 3 9.952 9.849 0.260 o
-2 2 4 23.588 23.305 0.712 o
-2 2 5 3.327 3.460 0.130 o
-2 2 6 71.660 73.555 1.819 o
-2 2 7 34.937 34.456 0.885 o
-2 2 8 28.611 28.256 0.684 o
-2 2 9 15.988 16.960 0.449 o
-2 2 10 89.665 88.919 2.051 o
-2 2 11 13.586 13.494 0.340 o
-2 2 12 111.183 108.426 2.460 o
-2 2 13 30.471 30.001 0.680 o
-2 2 14 13.682 13.825 0.324 o
-2 2 15 2.269 2.216 0.098 o
-2 2 16 37.489 37.953 0.858 o
-2 2 17 55.897 55.390 1.255 o
-2 2 18 28.477 28.248 0.652 o
-2 2 19 8.343 8.366 0.227 o
-2 2 20 7.041 7.167 0.226 o
-2 2 21 0.577 0.495 0.087 o
-2 2 22 9.784 10.285 0.284 o
-2 2 23 10.968 10.824 0.310 o
-2 2 24 0.489 0.457 0.076 o
-2 2 25 15.279 14.860 0.370 o
-2 2 26 8.080 7.464 0.281 o
-2 3 1 142.182 144.803 3.271 o
-2 3 2 68.274 66.597 1.482 o
-2 3 3 1.488 1.491 0.081 o
-2 3 4 9.502 9.372 0.244 o
-2 3 5 6.649 6.766 0.191 o
-2 3 6 368.046 376.746 8.670 o
-2 3 7 81.712 82.861 1.881 o
-2 3 8 26.487 26.313 0.636 o
-2 3 9 8.053 7.998 0.203 o
-2 3 10 22.817 22.195 0.526 o
-2 3 11 20.172 19.909 0.457 o
-2 3 12 84.775 84.463 1.895 o
-2 3 13 3.744 3.816 0.109 o
-2 3 14 5.036 4.962 0.132 o
-2 3 15 11.580 11.335 0.273 o
-2 3 16 33.251 32.808 0.746 o
-2 3 17 4.634 4.632 0.138 o
-2 3 18 9.455 9.501 0.248 o
-2 3 19 1.516 1.317 0.082 o
-2 3 20 15.709 15.563 0.420 o
-2 3 22 11.377 11.368 0.293 o
-2 3 23 1.253 1.210 0.153 o
-2 3 24 1.703 1.589 0.084 o
-2 4 1 16.531 16.417 0.381 o
-2 4 2 61.811 60.326 1.353 o
-2 4 3 33.727 32.152 0.728 o
-2 4 4 0.465 0.461 0.039 o
-2 4 5 34.913 34.665 0.790 o
-2 4 6 3.997 3.936 0.125 o
-2 4 7 38.066 36.948 0.851 o
-2 4 8 0.529 0.592 0.042 o
-2 4 9 0.276 0.339 0.039 o
-2 4 10 24.483 24.599 0.566 o
-2 4 11 18.285 18.379 0.445 o
-2 4 13 10.869 10.840 0.300 o
-2 4 14 8.802 9.086 0.240 o
-2 4 15 10.746 10.921 0.289 o
-2 4 16 14.966 14.700 0.355 o
-2 4 17 11.129 11.062 0.274 o
-2 4 18 1.175 1.231 0.073 o
-2 4 19 0.263 0.224 0.065 o
-2 4 20 2.730 2.772 0.123 o
-2 4 21 2.354 2.310 0.118 o
-2 4 23 3.394 3.263 0.138 o
-2 5 1 0.334 0.306 0.042 o
-2 5 2 16.017 16.031 0.377 o
-2 5 3 3.385 3.319 0.104 o
-2 5 4 3.617 3.566 0.108 o
-2 5 5 4.195 4.213 0.129 o
-2 5 7 0.268 0.240 0.047 o
-2 5 8 1.235 1.208 0.066 o
-2 5 9 0.953 1.007 0.064 o
-2 5 10 3.317 3.339 0.171 o
-2 5 11 0.601 0.500 0.053 o
-2 5 12 0.918 0.975 0.063 o
-2 5 13 5.858 5.960 0.165 o
-2 5 14 2.579 2.587 0.106 o
-2 5 16 13.688 13.763 0.339 o
-2 5 17 0.615 0.587 0.067 o
-2 5 19 1.493 1.566 0.106 o
-2 5 20 5.251 5.185 0.191 o
-2 5 21 1.487 1.282 0.142 o
-2 6 1 0.595 0.561 0.057 o
-2 6 3 16.378 16.051 0.381 o
-2 6 5 9.329 9.424 0.256 o
-2 6 7 3.730 3.670 0.141 o
-2 6 8 2.002 2.056 0.091 o
-2 6 9 3.163 3.057 0.121 o
-2 6 11 6.520 6.562 0.199 o
-2 6 12 0.464 0.445 0.079 o
-2 6 14 1.636 1.753 0.109 o
-2 6 15 5.999 5.975 0.208 o
-2 6 16 0.681 0.602 0.096 o
-2 7 1 6.378 6.444 0.188 o
-2 7 3 0.216 0.240 0.071 o
-2 7 4 1.495 1.378 0.117 o
-2 7 5 0.273 0.229 0.069 o
-2 7 6 3.399 3.468 0.142 o
-2 7 7 4.861 4.824 0.165 o
-2 7 8 3.818 3.751 0.194 o
-2 7 9 0.409 0.501 0.080 o
-2 7 10 1.478 1.449 0.094 o
-2 7 11 3.264 3.325 0.140 o
-2 7 12 0.981 1.038 0.108 o
-1 0 2 790.566 783.227 17.638 o
-1 0 4 883.596 857.147 28.356 o
-1 0 6 212.761 199.771 6.627 o
-1 0 8 499.732 499.090 14.041 o
-1 0 10 2.744 3.288 0.179 o
-1 0 12 108.679 113.197 2.854 o
-1 0 14 49.088 45.796 1.228 o
-1 0 16 22.914 22.976 0.544 o
-1 0 18 61.268 61.648 1.403 o
-1 0 20 43.210 45.143 1.044 o
-1 0 22 0.733 0.744 0.118 o
-1 0 24 22.399 23.505 0.766 o
-1 0 26 6.562 7.017 0.278 o
-1 1 1 2887.356 2823.948 62.097 o
-1 1 2 150.563 159.827 4.332 o
-1 1 3 330.224 358.494 8.509 o
-1 1 4 244.343 255.648 6.614 o
-1 1 5 1.093 1.113 0.077 o
-1 1 6 0.510 0.523 0.060 o
-1 1 7 423.034 394.448 9.049 o
-1 1 8 94.452 93.372 2.578 o
-1 1 9 167.412 168.864 3.821 o
-1 1 11 74.244 72.581 1.650 o
-1 1 12 86.161 86.152 2.042 o
-1 1 13 5.587 5.586 0.171 o
-1 1 14 45.941 44.622 1.056 o
-1 1 15 10.177 10.681 0.260 o
-1 1 16 6.295 6.228 0.182 o
-1 1 17 1.782 1.667 0.089 o
-1 1 18 15.105 15.406 0.376 o
-1 1 19 9.837 10.281 0.292 o
-1 1 20 2.862 2.932 0.131 o
-1 1 21 13.756 14.539 0.391 o
-1 1 22 12.737 13.185 0.354 o
-1 1 23 1.644 1.796 0.111 o
-1 1 24 0.596 0.555 0.094 o
-1 1 25 1.355 1.592 0.131 o
-1 1 26 0.330 0.301 0.084 o
-1 2 1 146.633 140.489 3.216 o
-1 2 2 8.531 8.269 0.242 o
-1 2 3 174.280 173.861 3.929 o
-1 2 4 237.168 234.911 5.397 o
-1 2 5 495.342 501.224 11.608 o
-1 2 6 19.358 18.842 0.447 o
-1 2 7 1.370 1.426 0.088 o
-1 2 8 46.174 45.744 1.035 o
-1 2 9 7.712 7.893 0.247 o
-1 2 10 187.006 183.944 4.308 o
-1 2 11 71.642 71.675 1.632 o
-1 2 12 34.039 33.114 0.866 o
-1 2 13 13.165 12.836 0.311 o
-1 2 14 1.233 1.224 0.056 o
-1 2 15 12.324 12.409 0.324 o
-1 2 18 5.848 5.432 0.183 o
-1 2 19 4.224 4.264 0.144 o
-1 2 20 49.373 50.572 1.161 o
-1 2 21 1.028 1.106 0.083 o
-1 2 22 19.240 19.480 0.549 o
-1 2 25 0.510 0.559 0.097 o
-1 3 2 32.201 32.314 0.735 o
-1 3 3 13.863 13.591 0.335 o
-1 3 4 55.648 56.329 1.308 o
-1 3 5 0.802 0.798 0.068 o
-1 3 6 107.298 106.746 2.413 o
-1 3 7 1.742 1.691 0.086 o
-1 3 8 6.053 6.483 0.179 o
-1 3 9 1.126 1.176 0.056 o
-1 3 10 31.759 31.646 0.724 o
-1 3 11 42.728 42.175 0.970 o
-1 3 12 0.226 0.237 0.035 o
-1 3 13 1.221 1.176 0.053 o
-1 3 14 27.357 26.775 0.609 o
-1 3 15 6.212 6.349 0.164 o
-1 3 16 116.410 117.004 2.716 o
-1 3 17 11.930 12.252 0.302 o
-1 3 18 1.152 1.102 0.066 o
-1 3 19 4.036 4.135 0.147 o
-1 3 21 13.207 13.650 0.352 o
-1 3 22 5.473 5.700 0.215 o
-1 3 23 2.297 2.407 0.172 o
-1 3 24 13.776 13.434 0.410 o
-1 4 1 6.125 5.819 0.157 o
-1 4 2 9.466 9.621 0.233 o
-1 4 4 0.385 0.406 0.040 o
-1 4 5 61.027 60.698 1.382 o
-1 4 6 82.615 82.238 1.888 o
-1 4 7 29.396 28.930 0.656 o
-1 4 8 7.822 7.914 0.193 o
-1 4 9 1.333 1.369 0.057 o
-1 4 11 2.870 2.986 0.101 o
-1 4 12 20.826 20.916 0.485 o
-1 4 13 0.328 0.361 0.050 o
-1 4 14 3.483 3.583 0.112 o
-1 4 15 38.569 39.361 0.932 o
-1 4 16 4.341 4.179 0.127 o
-1 4 17 10.606 10.428 0.257 o
-1 4 19 0.690 0.648 0.065 o
-1 4 20 10.222 10.200 0.300 o
-1 4 21 2.483 2.452 0.150 o
-1 4 22 1.251 1.302 0.095 o
-1 5 1 10.344 10.267 0.245 o
-1 5 2 73.052 72.821 1.636 o
-1 5 3 1.211 1.263 0.057 o
-1 5 4 4.951 4.845 0.130 o
-1 5 5 0.188 0.158 0.040 o
-1 5 6 32.929 32.676 0.763 o
-1 5 7 1.012 1.046 0.057 o
-1 5 8 0.880 0.895 0.055 o
-1 5 9 7.017 6.995 0.183 o
-1 5 10 14.900 15.086 0.354 o
-1 5 11 1.568 1.490 0.068 o
-1 5 12 14.451 13.857 0.333 o
-1 5 14 1.903 1.745 0.079 o
-1 5 15 1.139 1.184 0.071 o
-1 5 17 0.500 0.501 0.061 o
-1 5 19 0.380 0.464 0.080 o
-1 6 1 2.287 2.191 0.098 o
-1 6 2 6.864 7.109 0.193 o
-1 6 4 1.728 1.804 0.085 o
-1 6 5 0.819 0.814 0.068 o
-1 6 6 9.293 9.508 0.243 o
-1 6 7 9.371 9.086 0.251 o
-1 6 8 2.707 2.740 0.114 o
-1 6 10 0.537 0.450 0.062 o
-1 6 12 0.137 0.212 0.064 o
-1 6 13 3.500 3.267 0.145 o
-1 6 15 5.469 5.328 0.163 o
-1 6 16 0.619 0.603 0.100 o
-1 6 17 2.283 2.028 0.426 o
-1 7 1 1.528 1.589 0.101 o
-1 7 3 3.428 3.253 0.138 o
-1 7 4 3.536 3.701 0.175 o
-1 7 6 4.131 4.043 0.152 o
-1 7 8 0.463 0.445 0.078 o
-1 7 11 4.739 4.744 0.178 o
0 0 4 68.170 71.689 1.662 o
0 0 8 288.656 285.797 6.624 o
0 0 12 14.502 13.886 0.384 o
0 0 16 10.973 11.908 0.430 o
0 0 20 10.354 12.817 0.783 o
0 0 24 1.248 1.898 0.334 o
0 1 1 466.112 475.411 10.661 o
0 1 2 88.967 93.887 2.233 o
0 1 3 18.407 18.638 0.568 o
0 1 4 1568.393 1517.684 34.928 o
0 1 5 70.553 72.609 1.691 o
0 1 6 313.537 308.539 9.598 o
0 1 7 36.116 35.755 0.896 o
0 1 8 27.754 26.502 0.722 o
0 1 9 37.811 36.306 0.830 o
0 1 10 146.470 144.948 3.290 o
0 1 11 201.434 201.825 4.693 o
0 1 12 0.214 0.169 0.049 o
0 1 13 25.989 25.638 0.728 o
0 1 14 9.004 8.997 0.233 o
0 1 15 3.491 3.387 0.112 o
0 1 16 3.620 3.739 0.128 o
0 1 17 19.824 20.499 0.483 o
0 1 18 26.059 25.900 0.609 o
0 1 19 50.751 53.436 1.224 o
0 1 20 3.249 3.801 0.205 o
0 1 21 16.256 17.408 0.456 o
0 1 22 4.232 4.347 0.209 o
0 1 23 10.930 11.016 0.308 o
0 1 24 4.256 4.283 0.166 o
0 1 25 1.052 1.087 0.125 o
0 1 26 2.262 2.272 0.130 o
0 2 1 76.870 76.428 1.737 o
0 2 2 133.552 131.663 3.083 o
0 2 4 184.688 188.272 4.274 o
0 2 5 47.734 49.596 1.172 o
0 2 6 5.246 5.096 0.159 o
0 2 7 133.963 138.570 3.130 o
0 2 8 0.446 0.590 0.068 o
0 2 9 53.867 53.627 1.212 o
0 2 10 25.829 25.562 0.659 o
0 2 11 1.361 1.371 0.094 o
0 2 12 16.510 16.971 0.394 o
0 2 13 9.861 9.975 0.248 o
0 2 14 59.065 57.984 1.299 o
0 2 15 96.876 97.554 2.204 o
0 2 16 2.791 2.809 0.116 o
0 2 18 11.764 11.947 0.293 o
0 2 19 12.483 12.572 0.347 o
0 2 20 26.025 26.616 0.636 o
0 2 21 13.581 13.619 0.375 o
0 2 22 0.446 0.393 0.081 o
0 2 23 4.150 4.285 0.180 o
0 2 24 7.410 7.092 0.272 o
0 2 25 8.468 8.322 0.300 o
0 3 1 49.631 51.327 1.231 o
0 3 2 116.793 117.933 2.649 o
0 3 3 85.434 88.963 2.006 o
0 3 4 55.909 59.182 1.346 o
0 3 5 15.445 15.969 0.393 o
0 3 6 0.182 0.351 0.053 o
0 3 7 0.936 0.995 0.070 o
0 3 8 98.657 100.215 2.265 o
0 3 9 41.561 40.607 0.936 o
0 3 10 1.352 1.377 0.056 o
0 3 11 1.377 1.428 0.058 o
0 3 12 6.993 9.726 0.263 o
0 3 14 27.945 28.106 0.654 o
0 3 15 0.251 0.351 0.044 o
0 3 16 1.181 1.166 0.063 o
0 3 17 5.270 5.102 0.158 o
0 3 18 4.813 5.385 0.171 o
0 3 19 0.378 0.370 0.062 o
0 3 20 12.558 12.795 0.327 o
0 3 21 2.572 2.709 0.134 o
0 3 22 4.458 4.610 0.180 o
0 3 24 7.183 7.173 0.270 o
0 4 0 2.680 2.683 0.112 o
0 4 1 12.555 11.898 0.301 o
0 4 2 57.775 57.940 1.300 o
0 4 3 3.954 3.901 0.129 o
0 4 4 12.176 12.263 0.287 o
0 4 5 78.065 76.330 1.730 o
0 4 6 6.585 6.514 0.161 o
0 4 7 0.132 0.136 0.030 o
0 4 8 5.638 5.661 0.145 o
0 4 9 6.385 6.551 0.167 o
0 4 10 16.729 16.556 0.381 o
0 4 11 0.682 0.748 0.048 o
0 4 12 24.723 24.460 0.561 o
0 4 13 6.303 6.339 0.166 o
0 4 14 0.098 0.141 0.044 o
0 4 15 26.570 26.895 0.669 o
0 4 16 17.044 17.747 0.542 o
0 4 17 0.778 0.705 0.065 o
0 4 18 2.425 2.366 0.100 o
0 4 19 3.547 3.422 0.129 o
0 4 20 4.139 3.982 0.196 o
0 4 22 1.231 1.149 0.089 o
0 5 2 7.412 7.451 0.183 o
0 5 3 1.158 1.114 0.051 o
0 5 4 24.481 24.652 0.559 o
0 5 5 3.137 3.247 0.100 o
0 5 6 75.199 75.264 1.701 o
0 5 8 6.472 6.551 0.167 o
0 5 10 0.203 0.244 0.043 o
0 5 11 3.838 3.787 0.114 o
0 5 12 8.300 8.338 0.210 o
0 5 13 1.015 0.986 0.058 o
0 5 14 14.300 14.281 0.343 o
0 5 15 1.713 1.541 0.105 o
0 5 16 24.538 23.947 0.686 o
0 5 17 0.364 0.381 0.072 o
0 5 18 1.019 1.033 0.089 o
0 5 19 1.880 1.890 0.105 o
0 5 20 2.775 2.552 0.151 o
0 6 1 6.139 6.028 0.176 o
0 6 2 9.866 9.895 0.273 o
0 6 3 3.954 4.076 0.201 o
0 6 4 0.706 0.780 0.061 o
0 6 5 29.168 28.986 0.671 o
0 6 6 0.044 0.215 0.054 o
0 6 7 0.217 0.261 0.059 o
0 6 8 0.822 0.813 0.067 o
0 6 9 0.505 0.513 0.063 o
0 6 10 12.136 12.357 0.305 o
0 6 11 1.424 1.368 0.081 o
0 6 12 4.908 5.264 0.225 o
0 6 13 4.831 5.067 0.173 o
0 6 14 0.286 0.292 0.074 o
0 6 15 1.766 1.736 0.098 o
0 6 16 1.981 2.027 0.218 o
0 7 1 8.824 8.902 0.260 o
0 7 3 0.751 0.790 0.083 o
0 7 5 0.945 0.987 0.117 o
0 7 8 1.135 1.044 0.120 o
0 7 9 7.205 7.174 0.425 o
0 7 10 1.906 1.796 0.208 o
0 7 11 0.826 0.666 0.149 o
1 0 0 388.470 404.949 8.737 o
1 0 2 10.099 10.736 0.354 o
1 0 4 1889.162 1822.940 58.797 o
1 0 6 228.852 221.108 5.175 o
1 0 8 74.310 70.287 1.920 o
1 0 10 666.448 660.477 15.196 o
1 0 12 6.226 6.146 0.230 o
1 0 14 85.667 86.034 1.920 o
1 0 16 12.126 11.937 0.328 o
1 0 18 87.723 88.483 2.208 o
1 0 20 91.377 93.408 2.242 o
1 0 22 4.363 4.201 0.455 o
1 0 24 1.314 0.966 0.298 o
1 1 0 1607.517 1571.024 38.316 o
1 1 1 39.939 39.190 0.919 o
1 1 2 441.330 443.473 10.189 o
1 1 3 812.336 800.700 18.222 o
1 1 4 65.998 67.637 1.580 o
1 1 5 115.035 112.965 2.859 o
1 1 6 202.241 208.341 5.118 o
1 1 7 18.338 17.908 0.474 o
1 1 8 91.188 90.246 2.067 o
1 1 9 186.887 186.475 4.271 o
1 1 10 73.136 72.063 1.630 o
1 1 12 2.092 2.104 0.139 o
1 1 13 7.130 6.726 0.174 o
1 1 14 125.794 125.817 2.839 o
1 1 15 4.238 4.167 0.142 o
1 1 16 23.656 23.769 0.549 o
1 1 17 3.721 3.836 0.152 o
1 1 18 4.240 4.199 0.251 o
1 1 19 11.699 12.305 0.321 o
1 1 20 5.278 5.550 0.202 o
1 1 21 9.909 10.481 0.346 o
1 1 22 3.056 3.488 0.186 o
1 1 23 8.432 8.624 0.261 o
1 1 24 14.656 14.699 0.393 o
1 1 25 2.446 2.641 0.164 o
1 2 0 318.882 325.534 7.525 o
1 2 1 278.045 270.032 6.496 o
1 2 3 353.844 360.395 8.345 o
1 2 4 19.144 19.445 0.534 o
1 2 5 88.469 89.604 2.237 o
1 2 6 162.608 156.881 3.569 o
1 2 7 81.569 81.004 1.820 o
1 2 8 5.937 5.659 0.167 o
1 2 9 7.212 7.177 0.191 o
1 2 10 4.635 4.582 0.145 o
1 2 11 8.670 8.472 0.212 o
1 2 12 14.848 14.645 0.381 o
1 2 13 27.276 27.173 0.613 o
1 2 14 6.496 6.499 0.179 o
1 2 15 0.884 0.774 0.056 o
1 2 16 5.593 5.563 0.157 o
1 2 17 4.102 4.279 0.133 o
1 2 19 5.954 6.014 0.178 o
1 2 20 0.456 0.489 0.084 o
1 2 21 2.391 2.292 0.115 o
1 2 22 11.611 11.816 0.580 o
1 2 24 10.076 10.227 0.436 o
1 2 25 10.061 9.633 0.491 o
1 3 0 20.283 19.353 0.518 o
1 3 1 30.789 31.076 0.738 o
1 3 2 47.266 47.093 1.130 o
1 3 4 8.364 8.058 0.223 o
1 3 5 22.152 21.909 0.524 o
1 3 6 42.651 43.686 0.991 o
1 3 7 18.754 18.700 0.449 o
1 3 8 25.266 24.750 0.571 o
1 3 9 9.893 9.516 0.229 o
1 3 10 0.791 0.791 0.044 o
1 3 11 15.584 15.023 0.346 o
1 3 12 34.237 34.439 0.780 o
1 3 13 28.992 28.785 0.654 o
1 3 14 14.882 15.096 0.357 o
1 3 15 0.888 0.923 0.057 o
1 3 16 0.311 0.292 0.048 o
1 3 17 1.659 1.727 0.080 o
1 3 18 37.030 37.272 0.909 o
1 3 19 15.255 15.495 0.471 o
1 3 20 0.290 0.307 0.097 o
1 3 21 1.226 1.188 0.137 o
1 3 23 2.346 2.314 0.118 o
1 4 0 17.381 17.995 0.413 o
1 4 1 0.590 0.631 0.043 o
1 4 2 55.837 56.086 1.266 o
1 4 3 14.539 14.328 0.336 o
1 4 4 2.902 2.874 0.091 o
1 4 5 52.354 51.334 1.148 o
1 4 6 8.252 8.120 0.195 o
1 4 7 1.322 1.370 0.052 o
1 4 8 59.381 59.457 1.389 o
1 4 9 12.191 12.072 0.285 o
1 4 11 1.364 1.497 0.067 o
1 4 12 1.522 1.546 0.067 o
1 4 13 8.086 8.166 0.228 o
1 4 14 1.808 1.622 0.072 o
1 4 15 18.823 18.644 0.442 o
1 4 16 13.037 12.895 0.315 o
1 4 17 4.216 4.255 0.138 o
1 4 18 0.800 0.886 0.069 o
1 4 19 4.382 4.442 0.146 o
1 4 20 2.607 2.699 0.126 o
1 4 22 7.659 7.432 0.241 o
1 5 0 4.313 4.354 0.123 o
1 5 2 12.186 12.299 0.290 o
1 5 3 0.662 0.630 0.046 o
1 5 4 92.424 91.977 2.075 o
1 5 5 4.244 4.333 0.140 o
1 5 7 0.963 0.965 0.051 o
1 5 8 8.125 7.898 0.201 o
1 5 9 0.799 0.802 0.054 o
1 5 10 2.206 2.116 0.083 o
1 5 11 0.915 0.894 0.061 o
1 5 12 22.673 22.545 0.539 o
1 5 13 0.369 0.356 0.056 o
1 5 14 19.975 19.825 0.551 o
1 5 16 7.077 7.270 0.216 o
1 5 17 0.272 0.304 0.087 o
1 6 0 6.523 6.774 0.191 o
1 6 1 5.922 5.886 0.181 o
1 6 2 2.924 3.034 0.111 o
1 6 3 0.619 0.652 0.059 o
1 6 4 5.355 5.493 0.180 o
1 6 5 11.883 11.776 0.331 o
1 6 6 3.937 3.770 0.123 o
1 6 7 0.301 0.275 0.059 o
1 6 8 12.858 12.885 0.408 o
1 6 9 11.954 11.555 0.304 o
1 6 10 6.587 6.611 0.189 o
1 6 11 0.200 0.225 0.060 o
1 6 13 2.288 2.233 0.126 o
1 6 14 0.628 0.755 0.093 o
1 6 15 12.339 12.607 0.350 o
1 6 16 1.230 1.136 0.110 o
1 7 0 2.174 1.884 0.124 o
1 7 1 1.702 1.363 0.092 o
1 7 2 0.771 0.750 0.076 o
1 7 3 0.521 0.509 0.074 o
1 7 4 1.669 1.620 0.099 o
1 7 5 3.898 3.848 0.162 o
1 7 9 4.654 4.755 0.213 o
1 7 10 0.573 0.614 0.204 o
1 7 11 2.754 2.645 0.188 o
1 8 0 4.553 4.401 0.239 o
2 0 0 23.991 26.377 0.778 o
2 0 2 3731.441 3483.408 68.649 o
2 0 4 8.025 8.263 0.282 o
2 0 6 3.964 4.039 0.249 o
2 0 8 99.637 100.776 2.429 o
2 0 10 33.980 33.971 0.808 o
2 0 12 77.538 75.953 2.570 o
2 0 14 98.666 97.796 2.464 o
2 0 16 35.752 35.882 0.846 o
2 0 18 5.114 5.227 0.213 o
2 0 20 19.074 19.272 1.678 o
2 0 22 15.381 15.494 0.491 o
2 0 24 35.239 35.955 0.930 o
2 1 0 365.591 376.800 8.711 o
2 1 1 68.198 68.203 1.569 o
2 1 2 2.707 2.597 0.115 o
2 1 3 475.929 470.281 10.762 o
2 1 4 9.829 9.410 0.285 o
2 1 5 19.919 19.854 0.517 o
2 1 6 426.093 418.148 9.640 o
2 1 7 29.817 29.112 0.720 o
2 1 8 47.480 45.923 1.170 o
2 1 9 175.047 174.114 3.975 o
2 1 10 41.749 42.308 0.964 o
2 1 11 1.819 1.703 0.085 o
2 1 12 23.959 23.924 0.618 o
2 1 13 118.889 115.452 2.606 o
2 1 14 3.100 3.095 0.106 o
2 1 15 5.176 5.378 0.158 o
2 1 16 0.491 0.615 0.059 o
2 1 17 4.398 4.351 0.157 o
2 1 18 21.372 21.799 0.521 o
2 1 19 34.081 34.692 0.807 o
2 1 20 25.898 26.246 0.639 o
2 1 21 9.570 9.955 0.420 o
2 1 22 0.661 0.627 0.108 o
2 1 23 7.111 7.265 0.301 o
2 1 24 8.666 8.553 0.297 o
2 2 0 526.787 523.770 12.024 o
2 2 1 1.771 1.748 0.093 o
2 2 2 3.009 3.083 0.142 o
2 2 3 16.913 16.624 0.419 o
2 2 4 1.029 1.129 0.081 o
2 2 5 147.209 149.058 3.365 o
2 2 6 9.905 10.086 0.260 o
2 2 7 56.225 55.657 1.251 o
2 2 8 55.254 54.297 1.206 o
2 2 9 76.897 76.977 1.790 o
2 2 10 75.046 74.751 1.673 o
2 2 11 31.350 31.855 0.717 o
2 2 12 0.419 0.365 0.039 o
2 2 13 35.615 36.088 0.809 o
2 2 14 1.580 1.692 0.079 o
2 2 15 12.834 12.624 0.309 o
2 2 16 13.011 13.055 0.315 o
2 2 17 46.854 46.905 1.103 o
2 2 18 2.260 2.325 0.110 o
2 2 20 1.978 2.053 0.141 o
2 2 22 3.063 2.922 0.188 o
2 2 23 11.416 11.306 0.338 o
2 3 0 13.004 12.834 0.311 o
2 3 1 29.525 29.667 0.675 o
2 3 2 89.091 90.453 2.021 o
2 3 3 4.509 4.504 0.142 o
2 3 4 216.594 219.446 5.114 o
2 3 5 7.688 7.776 0.205 o
2 3 6 2.220 2.247 0.086 o
2 3 7 29.594 28.918 0.652 o
2 3 8 1.779 1.608 0.065 o
2 3 9 1.387 1.333 0.055 o
2 3 10 2.404 2.340 0.077 o
2 3 11 0.227 0.226 0.040 o
2 3 12 3.858 3.833 0.124 o
2 3 14 8.569 8.570 0.217 o
2 3 15 5.152 5.023 0.144 o
2 3 16 3.783 3.819 0.125 o
2 3 17 0.216 0.176 0.056 o
2 3 18 1.500 1.441 0.082 o
2 3 19 0.307 0.279 0.063 o
2 3 20 0.356 0.355 0.064 o
2 3 21 1.846 1.790 0.115 o
2 3 22 4.996 4.975 0.177 o
2 3 23 5.154 5.103 0.422 o
2 4 0 13.310 12.690 0.311 o
2 4 2 1.864 1.917 0.097 o
2 4 3 56.028 54.475 1.233 o
2 4 4 54.685 53.948 1.209 o
2 4 5 18.410 18.531 0.422 o
2 4 6 3.544 3.554 0.102 o
2 4 7 18.856 18.425 0.421 o
2 4 8 5.413 5.430 0.143 o
2 4 9 6.724 6.782 0.172 o
2 4 10 1.743 1.755 0.066 o
2 4 11 0.225 0.251 0.041 o
2 4 12 35.291 35.448 0.835 o
2 4 13 11.862 12.166 0.311 o
2 4 14 8.032 8.026 0.213 o
2 4 15 5.690 5.537 0.175 o
2 4 17 6.292 6.324 0.204 o
2 4 18 11.164 11.231 0.297 o
2 4 19 3.783 3.740 0.181 o
2 4 20 0.328 0.288 0.075 o
2 5 0 11.446 11.590 0.280 o
2 5 1 3.786 3.748 0.115 o
2 5 2 1.912 1.957 0.076 o
2 5 3 1.399 1.416 0.065 o
2 5 4 2.932 2.931 0.105 o
2 5 5 1.282 1.225 0.069 o
2 5 6 1.889 1.886 0.078 o
2 5 7 0.236 0.324 0.055 o
2 5 8 72.575 73.165 1.669 o
2 5 9 5.762 5.871 0.167 o
2 5 10 3.627 3.595 0.131 o
2 5 11 0.326 0.310 0.052 o
2 5 12 0.773 0.820 0.077 o
2 5 13 1.626 1.669 0.122 o
2 5 14 18.907 18.683 0.781 o
2 5 15 1.149 1.032 0.097 o
2 5 16 7.023 7.639 0.275 o
2 5 18 16.043 15.870 0.544 o
2 6 0 0.881 0.890 0.064 o
2 6 1 0.629 0.520 0.061 o
2 6 2 7.283 7.370 0.205 o
2 6 3 13.180 13.653 0.353 o
2 6 4 7.085 7.356 0.199 o
2 6 6 0.285 0.234 0.059 o
2 6 7 5.699 5.733 0.188 o
2 6 8 0.730 0.718 0.067 o
2 6 9 0.511 0.478 0.062 o
2 6 11 3.395 3.366 0.155 o
2 6 12 8.016 8.433 0.260 o
2 6 13 0.633 0.664 0.085 o
2 6 14 4.432 4.629 0.177 o
2 7 0 1.234 1.149 0.084 o
2 7 1 2.452 2.275 0.125 o
2 7 2 0.367 0.338 0.065 o
2 7 3 2.204 2.129 0.115 o
2 7 4 4.572 4.463 0.170 o
2 7 6 2.256 2.239 0.125 o
2 7 7 3.235 3.125 0.184 o
2 7 9 0.312 0.294 0.094 o
3 0 0 404.076 399.918 10.793 o
3 0 2 194.656 186.175 4.421 o
3 0 4 21.232 21.271 0.572 o
3 0 6 579.380 563.884 13.337 o
3 0 8 10.336 10.151 0.337 o
3 0 10 1.223 1.131 0.075 o
3 0 12 275.835 278.826 7.048 o
3 0 14 3.471 3.641 0.147 o
3 0 16 11.200 11.119 0.324 o
3 0 18 10.099 10.501 0.340 o
3 0 20 36.382 36.147 0.991 o
3 0 22 34.759 33.964 0.956 o
3 1 0 115.132 110.751 2.491 o
3 1 1 447.003 451.258 10.340 o
3 1 2 437.972 450.257 10.846 o
3 1 3 40.743 42.185 1.006 o
3 1 4 11.671 11.551 0.324 o
3 1 5 5.260 5.050 0.152 o
3 1 6 4.479 4.581 0.143 o
3 1 7 29.133 28.213 0.654 o
3 1 8 37.109 37.477 0.853 o
3 1 9 1.335 1.398 0.066 o
3 1 10 83.330 83.720 1.888 o
3 1 11 13.867 13.394 0.317 o
3 1 12 10.900 10.680 0.272 o
3 1 13 36.280 35.194 0.789 o
3 1 14 0.628 0.600 0.054 o
3 1 15 2.996 2.935 0.108 o
3 1 16 58.472 58.591 1.326 o
3 1 17 1.335 1.277 0.087 o
3 1 18 2.947 2.996 0.168 o
3 1 19 7.758 7.778 0.227 o
3 1 21 4.248 4.385 0.235 o
3 1 22 0.936 0.931 0.126 o
3 1 23 22.930 22.494 1.234 o
3 1 24 5.311 5.519 0.420 o
3 2 0 1.849 1.831 0.082 o
3 2 1 7.565 7.619 0.212 o
3 2 2 274.932 270.978 6.787 o
3 2 3 104.368 100.101 2.401 o
3 2 4 92.555 88.943 2.001 o
3 2 5 62.782 61.125 1.447 o
3 2 6 44.220 43.630 1.005 o
3 2 7 3.610 3.855 0.114 o
3 2 8 101.845 101.941 2.293 o
3 2 9 2.349 2.197 0.080 o
3 2 10 10.914 11.298 0.270 o
3 2 11 9.273 9.126 0.229 o
3 2 12 21.916 21.670 0.518 o
3 2 13 2.840 3.100 0.121 o
3 2 14 8.042 7.756 0.200 o
3 2 15 1.219 1.249 0.065 o
3 2 16 1.950 1.874 0.100 o
3 2 17 6.863 7.155 0.192 o
3 2 18 21.036 21.332 0.500 o
3 2 19 14.696 14.874 0.380 o
3 2 20 6.688 6.912 0.274 o
3 2 21 5.530 5.338 0.463 o
3 2 22 1.837 1.622 0.317 o
3 3 0 71.358 75.368 1.690 o
3 3 1 2.211 2.001 0.087 o
3 3 2 21.434 20.731 0.504 o
3 3 3 98.190 97.420 2.285 o
3 3 4 106.376 106.610 2.444 o
3 3 5 0.126 0.133 0.029 o
3 3 6 20.530 20.845 0.473 o
3 3 7 2.219 2.179 0.074 o
3 3 8 115.186 113.537 2.631 o
3 3 9 35.125 36.251 0.811 o
3 3 10 0.228 0.184 0.037 o
3 3 11 15.889 16.269 0.398 o
3 3 12 32.909 33.581 0.760 o
3 3 13 12.376 12.070 0.293 o
3 3 14 49.543 49.698 1.129 o
3 3 15 4.672 5.143 0.159 o
3 3 16 8.128 8.403 0.244 o
3 3 17 7.231 7.380 0.217 o
3 3 18 2.082 2.308 0.124 o
3 3 19 0.802 0.724 0.081 o
3 3 20 0.528 0.374 0.083 o
3 3 21 3.872 3.753 0.265 o
3 3 22 6.125 6.523 0.447 o
3 4 0 6.156 6.293 0.174 o
3 4 1 0.322 0.350 0.037 o
3 4 2 2.371 2.260 0.077 o
3 4 3 18.549 18.341 0.423 o
3 4 4 38.749 38.089 0.884 o
3 4 5 0.201 0.254 0.034 o
3 4 6 0.270 0.334 0.039 o
3 4 7 55.491 55.804 1.282 o
3 4 8 20.346 20.626 0.471 o
3 4 9 9.845 9.910 0.259 o
3 4 10 11.333 11.234 0.266 o
3 4 12 1.810 1.829 0.081 o
3 4 13 13.702 13.743 0.338 o
3 4 14 3.174 3.132 0.121 o
3 4 16 2.351 2.522 0.118 o
3 4 17 16.523 16.768 0.427 o
3 4 18 9.839 9.664 0.334 o
3 4 19 0.963 0.944 0.094 o
3 5 0 18.118 17.751 0.419 o
3 5 1 9.345 9.253 0.227 o
3 5 2 3.149 3.107 0.108 o
3 5 5 1.855 1.806 0.078 o
3 5 6 15.901 16.319 0.395 o
3 5 7 4.746 4.731 0.144 o
3 5 8 1.555 1.619 0.083 o
3 5 9 0.406 0.367 0.052 o
3 5 12 1.653 1.354 0.123 o
3 5 13 0.366 0.392 0.070 o
3 5 14 1.637 1.722 0.119 o
3 5 15 1.930 1.803 0.176 o
3 5 16 4.204 4.082 0.182 o
3 5 18 14.447 14.109 0.545 o
3 6 0 0.060 0.534 0.065 o
3 6 1 1.045 0.912 0.072 o
3 6 2 1.314 1.290 0.100 o
3 6 3 0.647 1.041 0.070 o
3 6 4 1.211 1.279 0.076 o
3 6 5 3.469 3.417 0.130 o
3 6 6 0.774 0.910 0.077 o
3 6 7 14.844 15.122 0.407 o
3 6 8 0.244 0.173 0.056 o
3 6 9 0.664 1.024 0.069 o
3 6 10 2.148 2.281 0.101 o
3 6 11 2.703 2.328 0.174 o
3 6 12 2.708 2.611 0.156 o
3 6 13 4.100 4.050 0.205 o
3 6 14 0.447 0.399 0.119 o
3 7 0 1.246 1.203 0.079 o
3 7 2 3.803 3.828 0.143 o
3 7 3 4.988 5.267 0.170 o
3 7 4 0.777 0.780 0.085 o
3 7 6 0.635 0.586 0.089 o
3 7 8 1.226 1.230 0.107 o
3 7 9 2.120 1.687 0.159 o
3 7 10 1.505 1.559 0.154 o
4 0 0 44.686 45.958 1.104 o
4 0 4 36.388 36.185 0.929 o
4 0 6 13.583 13.025 0.640 o
4 0 8 0.973 1.010 0.064 o
4 0 10 4.072 4.104 0.173 o
4 0 12 3.125 2.994 0.126 o
4 0 16 48.315 48.007 1.156 o
4 1 0 2.719 2.484 0.100 o
4 1 1 152.222 153.557 3.514 o
4 1 2 187.091 184.924 4.258 o
4 1 3 212.451 207.413 4.805 o
4 1 4 2.898 2.916 0.124 o
4 1 5 89.432 88.170 2.014 o
4 1 6 39.489 39.473 0.899 o
4 1 7 7.920 8.100 0.206 o
4 1 8 27.168 27.649 0.624 o
4 1 9 20.270 20.356 0.478 o
4 1 10 0.257 0.268 0.033 o
4 1 11 127.117 127.133 2.868 o
4 1 12 11.206 11.337 0.270 o
4 1 13 6.366 5.973 0.160 o
4 1 14 2.346 2.132 0.120 o
4 1 15 9.480 9.430 0.244 o
4 1 16 3.287 3.210 0.127 o
4 1 17 8.604 8.673 0.303 o
4 1 18 0.477 0.485 0.081 o
4 1 19 1.278 1.019 0.143 o
4 1 20 17.865 17.589 0.487 o
4 1 21 14.105 14.078 0.570 o
4 1 22 4.847 4.748 0.416 o
4 2 0 121.219 118.495 2.701 o
4 2 1 73.261 72.662 1.644 o
4 2 2 295.492 293.283 6.752 o
4 2 3 55.527 54.362 1.223 o
4 2 4 14.969 15.086 0.355 o
4 2 5 0.490 0.540 0.045 o
4 2 6 6.903 6.936 0.178 o
4 2 7 153.673 150.917 3.429 o
4 2 8 0.649 0.733 0.042 o
4 2 9 14.469 14.252 0.338 o
4 2 10 40.423 40.259 0.904 o
4 2 11 1.270 1.219 0.060 o
4 2 12 101.345 100.150 2.341 o
4 2 13 27.181 27.205 0.627 o
4 2 14 10.798 11.165 0.282 o
4 2 15 26.081 26.273 0.634 o
4 2 16 2.319 2.185 0.111 o
4 2 17 5.351 5.160 0.168 o
4 2 18 5.642 5.468 0.212 o
4 2 19 2.952 2.963 0.169 o
4 2 20 3.035 3.031 0.215 o
4 2 21 2.349 2.390 0.408 o
4 2 22 12.927 13.584 0.568 o
4 3 0 5.965 5.869 0.161 o
4 3 1 36.661 36.964 0.865 o
4 3 2 1.132 1.057 0.056 o
4 3 3 1.497 1.421 0.061 o
4 3 4 50.507 48.663 1.092 o
4 3 5 3.639 3.506 0.098 o
4 3 6 106.004 105.706 2.417 o
4 3 7 0.290 0.329 0.031 o
4 3 8 54.263 54.475 1.229 o
4 3 9 6.244 6.190 0.160 o
4 3 10 9.913 9.803 0.262 o
4 3 11 0.370 0.361 0.054 o
4 3 13 13.264 13.172 0.323 o
4 3 16 23.274 23.479 0.787 o
4 3 17 3.022 3.058 0.137 o
4 3 18 32.922 33.188 0.875 o
4 3 19 2.632 2.237 0.225 o
4 3 21 3.786 3.979 0.400 o
4 4 0 67.876 66.907 1.526 o
4 4 1 0.518 0.494 0.040 o
4 4 2 0.572 0.515 0.044 o
4 4 3 2.858 2.814 0.096 o
4 4 4 1.498 1.552 0.058 o
4 4 5 20.759 20.459 0.474 o
4 4 6 13.826 13.822 0.323 o
4 4 7 40.542 41.031 1.004 o
4 4 8 21.073 21.006 0.482 o
4 4 9 0.952 0.855 0.053 o
4 4 10 1.408 1.295 0.062 o
4 4 11 0.460 0.484 0.056 o
4 4 12 0.209 0.293 0.062 o
4 4 13 0.594 0.568 0.072 o
4 4 14 21.522 21.510 0.521 o
4 4 15 5.069 5.489 0.196 o
4 4 17 18.620 18.326 0.631 o
4 5 0 0.173 0.154 0.049 o
4 5 1 2.036 2.058 0.076 o
4 5 2 0.935 0.818 0.049 o
4 5 3 3.502 3.604 0.109 o
4 5 4 23.072 22.897 0.550 o
4 5 5 2.121 2.214 0.088 o
4 5 6 9.730 9.695 0.242 o
4 5 8 2.117 2.145 0.087 o
4 5 10 15.393 15.875 0.400 o
4 5 11 7.574 7.810 0.222 o
4 5 12 2.035 2.108 0.115 o
4 5 16 8.085 7.688 0.247 o
4 5 17 1.171 1.185 0.284 o
4 6 0 0.994 0.918 0.082 o
4 6 1 3.868 3.797 0.134 o
4 6 2 0.545 0.645 0.062 o
4 6 3 0.709 0.617 0.065 o
4 6 5 2.721 2.952 0.150 o
4 6 7 0.848 0.784 0.066 o
4 6 8 2.183 2.286 0.103 o
4 6 9 1.799 1.834 0.086 o
4 7 1 4.931 5.056 0.165 o
4 7 2 0.880 0.926 0.081 o
4 7 5 1.011 0.925 0.093 o
4 7 6 6.883 6.963 0.273 o
4 7 7 0.506 0.560 0.114 o
4 7 8 3.857 4.021 0.217 o
5 0 0 63.319 62.385 1.504 o
5 0 2 677.182 666.926 19.746 o
5 0 4 12.042 11.483 0.319 o
5 0 6 6.120 6.336 0.176 o
5 0 8 142.641 144.063 4.226 o
5 0 10 71.313 70.435 1.741 o
5 0 12 17.542 16.902 0.400 o
5 0 14 15.563 15.312 0.579 o
5 0 16 15.080 15.145 0.414 o
5 0 18 2.008 1.618 0.384 o
5 0 20 1.937 1.293 0.345 o
5 1 0 0.458 0.424 0.061 o
5 1 1 109.377 108.220 2.480 o
5 1 2 58.948 57.202 1.286 o
5 1 3 1.735 1.772 0.088 o
5 1 4 37.627 37.930 0.975 o
5 1 5 1.153 1.319 0.057 o
5 1 6 82.435 79.819 1.787 o
5 1 7 5.093 5.067 0.133 o
5 1 8 1.417 1.469 0.057 o
5 1 9 1.821 1.884 0.069 o
5 1 10 0.695 0.720 0.044 o
5 1 11 29.219 28.793 0.654 o
5 1 12 54.855 55.499 1.247 o
5 1 13 16.552 16.496 0.387 o
5 1 14 0.313 0.277 0.050 o
5 1 15 17.985 17.784 0.435 o
5 1 18 5.673 5.479 0.328 o
5 1 19 0.946 0.798 0.122 o
5 1 20 1.349 0.981 0.163 o
5 1 21 24.236 24.313 0.691 o
5 2 0 23.557 23.874 0.580 o
5 2 1 26.648 24.910 0.570 o
5 2 2 3.446 3.284 0.109 o
5 2 3 25.368 23.886 0.552 o
5 2 4 60.497 59.968 1.338 o
5 2 5 14.857 14.711 0.346 o
5 2 6 48.193 48.157 1.077 o
5 2 7 4.221 4.108 0.113 o
5 2 8 14.019 14.002 0.335 o
5 2 9 10.690 10.742 0.258 o
5 2 10 40.087 40.691 0.910 o
5 2 11 10.442 10.670 0.259 o
5 2 12 21.692 21.737 0.557 o
5 2 14 6.003 6.103 0.173 o
5 2 16 11.939 11.432 0.302 o
5 2 17 25.247 24.837 0.616 o
5 2 18 2.787 2.856 0.146 o
5 2 19 2.815 2.296 0.174 o
5 2 20 17.534 16.583 1.129 o
5 2 21 2.674 2.936 0.389 o
5 3 0 122.811 120.962 2.709 o
5 3 1 26.454 26.744 0.610 o
5 3 2 5.413 5.430 0.144 o
5 3 3 4.531 4.529 0.120 o
5 3 4 3.948 3.910 0.105 o
5 3 5 41.118 40.826 0.952 o
5 3 6 91.449 90.899 2.090 o
5 3 7 4.694 4.675 0.122 o
5 3 8 3.341 3.355 0.099 o
5 3 9 0.285 0.374 0.041 o
5 3 10 38.066 38.970 0.882 o
5 3 11 21.572 21.395 0.498 o
5 3 12 0.580 0.660 0.075 o
5 3 13 4.434 4.267 0.154 o
5 3 14 29.356 29.708 0.793 o
5 3 15 0.842 0.871 0.088 o
5 3 16 33.261 33.579 0.802 o
5 3 19 4.293 4.034 0.212 o
5 4 0 9.363 9.153 0.249 o
5 4 1 4.273 4.489 0.127 o
5 4 3 1.195 1.225 0.056 o
5 4 4 26.143 26.044 0.597 o
5 4 5 18.932 19.076 0.438 o
5 4 6 8.681 8.890 0.229 o
5 4 7 18.913 19.406 0.456 o
5 4 9 7.805 8.047 0.224 o
5 4 10 16.171 16.276 0.387 o
5 4 11 2.602 2.616 0.118 o
5 4 12 0.604 0.532 0.072 o
5 4 14 2.523 2.447 0.134 o
5 4 15 12.233 11.749 0.478 o
5 4 16 1.356 1.158 0.129 o
5 4 17 4.916 5.093 0.196 o
5 4 18 7.623 7.392 0.468 o
5 5 0 5.262 5.322 0.146 o
5 5 2 5.014 4.960 0.141 o
5 5 3 1.216 1.224 0.060 o
5 5 4 3.531 3.621 0.122 o
5 5 5 0.377 0.330 0.050 o
5 5 6 6.475 6.491 0.182 o
5 5 7 1.254 1.281 0.103 o
5 5 8 7.541 7.264 0.212 o
5 5 9 0.335 0.365 0.059 o
5 5 13 0.393 0.409 0.095 o
5 5 14 3.051 2.534 0.289 o
5 5 15 0.896 0.835 0.266 o
5 5 16 2.700 2.236 0.351 o
5 6 0 7.187 7.261 0.228 o
5 6 1 4.649 4.814 0.153 o
5 6 2 4.287 4.232 0.145 o
5 6 3 2.146 2.116 0.100 o
5 6 4 1.718 1.652 0.092 o
5 6 5 7.981 7.906 0.215 o
5 6 6 3.127 3.143 0.176 o
5 6 7 11.999 11.830 0.322 o
5 6 8 0.763 0.717 0.087 o
5 6 9 2.289 2.105 0.153 o
5 7 0 1.891 1.740 0.098 o
5 7 1 8.856 9.633 0.278 o
5 7 2 1.664 1.778 0.097 o
5 7 3 2.111 2.177 0.132 o
5 7 4 1.255 1.506 0.099 o
5 7 5 0.928 1.142 0.106 o
5 7 6 0.573 0.568 0.111 o
6 0 0 232.067 228.087 5.372 o
6 0 2 29.976 29.247 0.691 o
6 0 4 1.412 1.477 0.080 o
6 0 6 43.301 47.980 1.057 o
6 0 8 15.199 15.656 0.399 o
6 0 10 33.739 33.675 0.770 o
6 0 12 93.010 93.149 2.127 o
6 0 14 4.224 4.218 0.195 o
6 0 16 2.140 1.991 0.243 o
6 0 18 12.291 11.553 0.623 o
6 1 0 0.586 0.599 0.046 o
6 1 1 185.678 182.697 4.151 o
6 1 2 61.435 59.889 1.340 o
6 1 3 22.455 22.158 0.502 o
6 1 4 54.034 54.329 1.206 o
6 1 5 58.385 59.394 1.348 o
6 1 6 21.148 21.069 0.516 o
6 1 7 11.888 12.346 0.291 o
6 1 8 41.943 42.269 0.982 o
6 1 9 34.580 34.432 0.784 o
6 1 10 0.289 0.332 0.043 o
6 1 11 32.200 31.961 0.727 o
6 1 12 0.656 0.650 0.056 o
6 1 13 13.644 13.657 0.338 o
6 1 15 2.046 1.910 0.121 o
6 1 16 26.237 26.709 1.566 o
6 1 18 3.175 3.075 0.153 o
6 1 19 5.738 5.696 0.230 o
6 2 0 0.073 0.134 0.035 o
6 2 1 9.457 9.477 0.225 o
6 2 3 13.575 13.336 0.310 o
6 2 4 47.618 46.748 1.135 o
6 2 5 98.726 97.099 2.231 o
6 2 6 2.213 2.152 0.075 o
6 2 7 1.125 1.096 0.051 o
6 2 8 5.325 5.354 0.147 o
6 2 9 34.528 34.608 0.812 o
6 2 10 1.555 1.501 0.073 o
6 2 11 5.811 5.834 0.176 o
6 2 12 3.254 3.413 0.135 o
6 2 13 6.858 7.293 0.192 o
6 2 14 33.802 33.505 0.778 o
6 2 15 15.741 15.514 0.404 o
6 2 16 7.727 8.048 0.248 o
6 2 17 1.382 1.259 0.139 o
6 2 18 0.683 0.631 0.189 o
6 2 20 2.832 2.849 0.364 o
6 3 0 0.046 0.555 0.035 o
6 3 2 0.685 0.754 0.037 o
6 3 3 0.725 0.844 0.043 o
6 3 4 0.240 0.275 0.032 o
6 3 5 0.139 0.123 0.030 o
6 3 6 0.226 0.240 0.032 o
6 3 7 5.181 5.406 0.149 o
6 3 8 6.212 6.319 0.164 o
6 3 9 3.149 3.913 0.121 o
6 3 10 32.753 32.801 0.837 o
6 3 11 1.765 1.474 0.100 o
6 3 12 1.243 1.323 0.077 o
6 3 13 0.664 0.456 0.064 o
6 3 15 12.538 12.201 0.320 o
6 3 16 5.755 5.779 0.244 o
6 3 17 0.617 0.604 0.088 o
6 3 18 8.385 8.672 0.490 o
6 4 0 17.064 17.082 0.397 o
6 4 2 26.842 27.137 0.631 o
6 4 3 0.266 0.297 0.043 o
6 4 4 6.507 6.411 0.162 o
6 4 5 14.544 14.610 0.340 o
6 4 6 0.786 0.833 0.048 o
6 4 7 2.027 1.895 0.069 o
6 4 9 7.596 7.914 0.280 o
6 4 10 18.746 18.570 0.462 o
6 4 11 1.779 1.683 0.110 o
6 4 14 3.121 2.775 0.150 o
6 4 15 4.802 4.830 0.253 o
6 4 16 3.995 4.207 0.216 o
6 5 0 27.507 28.393 0.650 o
6 5 1 4.325 4.199 0.142 o
6 5 2 0.202 0.217 0.052 o
6 5 3 0.660 0.703 0.059 o
6 5 4 15.615 15.913 0.378 o
6 5 6 46.599 47.104 1.096 o
6 5 7 3.055 3.239 0.158 o
6 5 8 0.618 0.600 0.066 o
6 5 9 1.367 1.397 0.083 o
6 5 10 0.413 0.400 0.067 o
6 5 12 0.628 0.541 0.088 o
6 5 13 1.590 1.365 0.136 o
6 5 14 8.183 7.753 0.437 o
6 6 0 11.852 13.152 0.333 o
6 6 1 2.209 2.113 0.100 o
6 6 2 4.881 5.030 0.160 o
6 6 3 5.508 5.774 0.201 o
6 6 4 0.272 0.330 0.078 o
6 6 5 1.219 1.127 0.139 o
6 6 7 2.063 1.861 0.108 o
6 6 8 0.880 0.777 0.104 o
6 6 9 0.533 0.731 0.106 o
6 6 10 7.306 7.102 0.393 o
6 7 0 1.888 1.977 0.116 o
6 7 1 0.566 0.635 0.102 o
6 7 2 0.693 0.630 0.132 o
7 0 0 108.793 107.345 2.394 o
7 0 2 35.956 35.212 0.799 o
7 0 4 266.122 265.949 6.446 o
7 0 6 1.157 1.016 0.065 o
7 0 8 43.681 44.627 1.138 o
7 0 10 60.161 59.845 1.415 o
7 0 12 17.409 17.125 0.462 o
7 0 14 12.090 12.186 0.332 o
7 0 16 8.219 7.944 0.464 o
7 1 0 82.044 81.912 1.837 o
7 1 1 1.171 1.094 0.047 o
7 1 2 0.159 0.187 0.031 o
7 1 3 7.445 7.596 0.188 o
7 1 4 35.339 34.986 0.783 o
7 1 5 40.682 40.467 0.950 o
7 1 6 1.027 0.991 0.054 o
7 1 7 1.370 1.386 0.057 o
7 1 8 46.364 45.927 1.039 o
7 1 10 3.221 3.171 0.110 o
7 1 11 16.732 16.426 0.389 o
7 1 12 15.143 15.184 0.363 o
7 1 13 15.203 15.087 0.362 o
7 1 14 23.819 23.883 0.591 o
7 1 15 22.417 22.558 0.546 o
7 1 17 3.615 3.274 0.153 o
7 2 0 36.415 35.484 0.836 o
7 2 1 11.073 10.496 0.253 o
7 2 2 6.421 6.343 0.157 o
7 2 3 5.077 4.811 0.126 o
7 2 4 0.553 0.582 0.038 o
7 2 5 0.767 0.756 0.047 o
7 2 6 5.895 5.933 0.167 o
7 2 7 3.355 3.616 0.116 o
7 2 8 7.219 7.243 0.197 o
7 2 9 20.607 21.015 0.542 o
7 2 10 0.928 0.957 0.067 o
7 2 11 10.174 10.048 0.250 o
7 2 12 0.337 0.391 0.069 o
7 2 13 4.236 4.017 0.139 o
7 2 14 6.706 6.371 0.198 o
7 2 15 11.465 11.502 0.308 o
7 2 16 1.199 1.204 0.151 o
7 2 18 4.129 3.682 0.401 o
7 3 0 0.577 0.594 0.038 o
7 3 1 28.386 28.037 0.678 o
7 3 2 23.083 22.924 0.538 o
7 3 3 15.547 15.289 0.359 o
7 3 4 14.612 14.634 0.341 o
7 3 5 1.031 1.051 0.051 o
7 3 6 6.893 6.788 0.173 o
7 3 7 3.446 3.535 0.112 o
7 3 8 12.339 12.354 0.295 o
7 3 9 10.158 9.900 0.261 o
7 3 10 1.901 1.940 0.092 o
7 3 12 3.652 3.516 0.147 o
7 3 13 1.620 1.575 0.102 o
7 3 16 1.899 1.682 0.149 o
7 4 0 10.221 10.047 0.252 o
7 4 1 1.473 1.460 0.063 o
7 4 2 1.779 1.770 0.085 o
7 4 3 1.253 1.173 0.063 o
7 4 4 2.702 2.540 0.093 o
7 4 5 21.020 20.733 0.514 o
7 4 6 30.871 30.802 0.701 o
7 4 9 10.356 10.514 0.281 o
7 4 10 0.319 0.307 0.059 o
7 4 12 5.084 5.040 0.173 o
7 4 14 7.213 6.773 0.226 o
7 4 15 3.556 3.812 0.382 o
7 5 0 13.998 14.118 0.340 o
7 5 2 12.910 13.141 0.320 o
7 5 3 1.467 1.485 0.077 o
7 5 4 2.480 2.571 0.098 o
7 5 6 1.122 1.012 0.099 o
7 5 7 0.219 0.277 0.064 o
7 5 8 3.734 3.785 0.151 o
7 5 10 21.484 20.207 0.531 o
7 5 11 1.440 1.209 0.223 o
7 5 12 1.241 1.399 0.278 o
7 6 0 0.822 0.855 0.074 o
7 6 2 2.460 2.450 0.129 o
7 6 4 4.098 4.234 0.160 o
7 6 5 4.218 4.448 0.163 o
7 6 6 3.459 3.387 0.144 o
7 6 7 3.655 3.600 0.179 o
7 6 8 3.174 3.159 0.203 o
8 0 0 26.749 27.524 0.653 o
8 0 2 15.013 15.107 0.388 o
8 0 4 65.417 65.487 1.485 o
8 0 6 4.674 4.925 0.204 o
8 0 8 28.475 29.135 0.674 o
8 0 10 0.917 0.924 0.075 o
8 0 12 24.418 24.313 0.583 o
8 0 14 82.607 82.300 2.291 o
8 0 16 0.894 0.916 0.249 o
8 1 1 0.371 0.387 0.037 o
8 1 2 2.116 2.172 0.110 o
8 1 3 84.546 85.211 2.018 o
8 1 4 32.919 33.409 0.833 o
8 1 6 4.177 4.227 0.146 o
8 1 7 0.299 0.331 0.053 o
8 1 8 19.526 20.147 0.475 o
8 1 9 9.724 9.653 0.254 o
8 1 10 18.711 18.516 0.502 o
8 1 11 5.885 6.117 0.225 o
8 1 12 4.375 4.341 0.167 o
8 1 13 11.044 10.840 0.308 o
8 1 15 1.530 1.544 0.115 o
8 1 16 0.615 0.698 0.092 o
8 2 0 42.222 42.698 1.029 o
8 2 1 21.554 21.808 0.534 o
8 2 2 0.141 0.131 0.036 o
8 2 3 5.206 5.022 0.141 o
8 2 4 14.279 14.758 0.394 o
8 2 5 7.658 7.603 0.217 o
8 2 7 35.529 36.338 0.866 o
8 2 8 4.345 4.271 0.142 o
8 2 9 0.138 0.176 0.055 o
8 2 10 15.581 15.493 0.373 o
8 2 11 0.156 0.204 0.066 o
8 2 13 3.953 3.820 0.153 o
8 2 15 2.582 2.677 0.279 o
8 2 16 2.081 1.781 0.308 o
8 3 0 17.715 17.662 0.415 o
8 3 1 0.202 0.191 0.037 o
8 3 2 10.152 9.601 0.232 o
8 3 3 0.619 0.505 0.046 o
8 3 4 11.143 10.705 0.271 o
8 3 5 18.124 18.022 0.503 o
8 3 6 14.577 14.783 0.360 o
8 3 8 3.703 3.953 0.135 o
8 3 10 2.644 2.777 0.125 o
8 3 11 5.964 5.545 0.192 o
8 3 12 3.388 3.269 0.121 o
8 3 13 6.651 6.235 0.206 o
8 3 14 5.890 5.523 0.433 o
8 3 15 1.415 1.346 0.297 o
8 4 1 2.297 2.231 0.083 o
8 4 2 14.567 14.632 0.384 o
8 4 3 2.606 2.667 0.096 o
8 4 4 2.417 2.524 0.100 o
8 4 5 2.806 2.641 0.102 o
8 4 6 3.833 3.773 0.120 o
8 4 7 4.343 4.476 0.173 o
8 4 9 13.093 12.577 0.387 o
8 4 10 6.107 5.683 0.181 o
8 4 12 5.837 5.639 0.204 o
8 5 0 1.018 1.131 0.077 o
8 5 1 0.243 0.300 0.053 o
8 5 2 6.890 6.949 0.185 o
8 5 3 3.910 3.937 0.126 o
8 5 4 0.904 0.854 0.063 o
8 5 6 7.150 7.238 0.245 o
8 5 7 2.269 2.490 0.138 o
8 5 8 20.932 20.727 0.704 o
8 5 9 2.876 2.770 0.347 o
8 5 10 0.814 0.884 0.260 o
8 6 1 0.535 0.493 0.077 o
8 6 2 5.109 5.172 0.327 o
8 6 3 1.522 1.307 0.155 o
8 6 4 2.800 2.734 0.165 o
9 0 0 17.500 19.287 0.460 o
9 0 2 47.067 47.663 1.364 o
9 0 4 4.685 4.672 0.159 o
9 0 6 27.134 28.589 0.673 o
9 0 10 13.549 13.789 0.410 o
9 0 12 8.515 8.474 0.366 o
9 1 0 33.125 33.153 0.773 o
9 1 1 0.228 0.297 0.048 o
9 1 2 4.793 4.867 0.136 o
9 1 3 26.711 27.096 0.707 o
9 1 4 2.530 2.514 0.098 o
9 1 5 6.139 6.327 0.191 o
9 1 6 7.756 7.975 0.214 o
9 1 7 13.014 13.013 0.384 o
9 1 8 1.706 1.720 0.162 o
9 1 9 2.133 1.957 0.091 o
9 1 10 9.301 9.334 0.243 o
9 1 12 0.994 1.035 0.078 o
9 1 13 27.149 26.762 0.635 o
9 1 14 9.024 9.155 0.301 o
9 1 15 1.083 0.899 0.266 o
9 2 0 1.799 1.792 0.075 o
9 2 1 3.739 3.778 0.116 o
9 2 2 37.010 36.555 0.836 o
9 2 3 5.042 5.177 0.203 o
9 2 4 36.407 36.683 0.953 o
9 2 5 3.315 3.333 0.115 o
9 2 6 3.114 3.039 0.114 o
9 2 7 1.687 1.788 0.083 o
9 2 8 2.240 2.377 0.116 o
9 2 9 15.396 14.913 0.369 o
9 2 10 2.192 1.972 0.105 o
9 2 11 8.839 8.682 0.245 o
9 2 12 6.382 6.514 0.191 o
9 2 14 7.434 7.302 0.467 o
9 3 0 2.145 2.223 0.083 o
9 3 1 6.632 6.652 0.186 o
9 3 2 2.658 2.519 0.088 o
9 3 3 14.272 15.307 0.371 o
9 3 4 6.858 6.907 0.189 o
9 3 5 1.413 1.375 0.087 o
9 3 6 16.167 16.938 0.405 o
9 3 7 0.320 0.296 0.070 o
9 3 8 16.423 16.299 0.527 o
9 3 10 3.090 2.626 0.187 o
9 3 11 3.931 4.068 0.147 o
9 3 12 4.807 4.777 0.252 o
9 4 1 2.451 2.501 0.099 o
9 4 2 13.443 13.114 0.363 o
9 4 5 0.316 0.281 0.061 o
9 4 6 5.274 5.147 0.188 o
9 4 7 18.408 17.857 0.513 o
9 4 8 12.912 12.471 0.353 o
9 4 9 5.195 5.534 0.201 o
9 4 10 1.054 1.040 0.185 o
9 5 1 0.862 0.955 0.075 o
9 5 2 4.441 4.353 0.145 o
9 5 3 1.588 1.630 0.101 o
9 5 4 1.077 1.232 0.112 o
9 5 5 0.915 0.875 0.102 o
10 0 0 7.506 8.431 0.243 o
10 0 2 2.872 2.893 0.129 o
10 0 4 14.259 14.488 0.427 o
10 0 6 17.512 17.712 0.562 o
10 0 8 1.079 1.049 0.091 o
10 0 10 12.245 11.748 0.327 o
10 0 12 11.611 11.520 0.530 o
10 1 0 9.807 10.111 0.266 o
10 1 1 32.695 33.235 0.761 o
10 1 3 8.497 8.931 0.248 o
10 1 4 9.649 9.515 0.250 o
10 1 5 3.693 3.703 0.136 o
10 1 6 7.921 7.928 0.214 o
10 1 8 1.339 1.380 0.083 o
10 1 9 1.079 1.050 0.074 o
10 1 10 5.330 5.308 0.172 o
10 1 11 3.760 3.631 0.152 o
10 1 12 0.692 0.713 0.097 o
10 1 13 1.730 1.613 0.285 o
10 2 0 9.480 9.567 0.241 o
10 2 1 1.670 1.737 0.080 o
10 2 2 29.225 29.949 0.705 o
10 2 3 8.068 8.127 0.246 o
10 2 4 1.534 1.593 0.080 o
10 2 5 10.268 10.286 0.302 o
10 2 6 7.408 7.580 0.227 o
10 2 7 3.873 3.752 0.141 o
10 2 8 3.179 2.828 0.142 o
10 2 9 0.436 0.407 0.068 o
10 2 10 6.414 6.359 0.256 o
10 2 11 1.283 1.135 0.107 o
10 2 12 15.553 15.172 0.577 o
10 3 0 0.832 0.781 0.059 o
10 3 1 1.373 1.377 0.077 o
10 3 2 18.945 18.931 0.448 o
10 3 3 3.872 3.845 0.178 o
10 3 4 3.354 3.479 0.135 o
10 3 6 14.177 13.814 0.339 o
10 3 7 11.875 11.594 0.292 o
10 3 8 25.005 25.225 0.714 o
10 3 9 0.575 0.538 0.081 o
10 3 10 1.109 0.855 0.277 o
10 4 0 2.552 2.572 0.118 o
10 4 1 5.141 5.055 0.166 o
10 4 3 1.500 1.363 0.118 o
10 4 4 3.371 3.550 0.150 o
10 4 5 0.978 0.948 0.108 o
10 4 6 0.878 0.614 0.098 o
10 4 7 6.839 7.171 0.260 o
10 5 0 1.924 2.009 0.151 o
10 5 1 2.600 2.674 0.143 o
10 5 2 0.727 0.650 0.108 o
11 0 0 33.579 34.313 0.812 o
11 0 2 25.440 25.464 0.618 o
11 0 6 2.630 2.649 0.136 o
11 1 1 3.903 3.825 0.149 o
11 1 2 8.379 8.247 0.230 o
11 1 3 11.414 11.356 0.305 o
11 1 4 1.698 1.632 0.141 o
11 1 5 12.634 12.530 0.394 o
11 1 6 3.615 3.692 0.144 o
11 1 7 4.689 4.675 0.233 o
11 1 9 1.432 1.501 0.114 o
11 1 10 5.675 5.246 0.394 o
11 2 1 12.124 12.047 0.320 o
11 2 3 0.931 0.908 0.085 o
11 2 4 7.143 7.131 0.305 o
11 2 6 19.557 19.202 0.478 o
11 2 7 16.475 16.013 0.426 o
11 2 8 2.737 2.676 0.181 o
11 3 0 19.588 19.600 0.556 o
11 3 1 2.120 2.175 0.115 o
11 3 2 1.176 1.176 0.091 o
11 3 3 1.485 1.522 0.138 o
11 3 4 3.084 2.947 0.153 o
11 3 5 0.729 0.671 0.102 o
11 3 6 2.139 2.310 0.140 o
11 4 0 1.550 1.576 0.225 o
11 4 1 3.396 3.611 0.161 o
11 4 2 3.593 3.411 0.270 o
11 4 4 6.548 6.545 0.431 o
12 0 0 1.502 1.637 0.119 o
12 0 2 20.420 20.906 0.507 o
12 0 4 7.633 8.214 0.287 o
12 1 0 8.682 9.279 0.265 o
12 1 1 3.381 3.496 0.169 o
12 1 2 8.509 8.584 0.241 o
12 1 3 3.446 3.729 0.169 o
12 1 4 0.539 0.600 0.077 o
12 1 5 3.636 3.541 0.163 o
12 1 6 12.439 12.861 0.562 o
12 1 7 2.383 2.457 0.382 o
12 2 0 0.688 0.538 0.077 o
12 2 3 2.119 2.154 0.157 o
12 2 4 3.974 3.940 0.268 o
12 2 5 2.649 2.329 0.368 o
12 2 6 0.941 0.953 0.297 o
12 3 0 4.452 4.570 0.212 o
12 3 3 2.669 2.473 0.356 o
13 1 0 1.355 1.153 0.298 o
13 1 1 2.202 2.161 0.328 o
13 1 2 1.309 1.331 0.292 o
13 1 3 2.514 2.660 0.382 o
13 2 1 2.951 2.432 0.356 o
