#------------------------------------------------------------------------------
#$Date: 2016-02-21 11:56:54 +0200 (Sun, 21 Feb 2016) $
#$Revision: 176809 $
#$URL: svn://www.crystallography.net/cod/cif/2/31/01/2310120.cif $
#------------------------------------------------------------------------------
#
# This file is available in the Crystallography Open Database (COD),
# http://www.crystallography.net/
#
# All data on this site have been placed in the public domain by the
# contributors.
#
data_2310120
loop_
_publ_author_name
'Kami\'nski, Rados\/law'
'Domaga\/la, S\/lawomir'
'Jarzembska, Katarzyna N.'
'Hoser, Anna A.'
'Sanjuan-Szklarz, W. Fabiola'
'Gutmann, Matthias J.'
'Makal, Anna'
'Mali\'nska, Maura'
'Bak, Joanna M.'
'Wo\'zniak, Krzysztof'
_publ_section_title
;
 Statistical analysis of multipole-model-derived structural parameters and
 charge-density properties from high-resolution X-ray diffraction
 experiments
;
_journal_issue                   1
_journal_name_full               'Acta Crystallographica Section A'
_journal_page_first              72
_journal_page_last               91
_journal_paper_doi               10.1107/S2053273313028313
_journal_volume                  70
_journal_year                    2014
_chemical_formula_moiety         'C2 H2 O4, 2(H2 O1)'
_chemical_formula_sum            'C2 H6 O6'
_chemical_formula_weight         126.07
_space_group_IT_number           14
_symmetry_cell_setting           monoclinic
_symmetry_Int_Tables_number      14
_symmetry_space_group_name_Hall  '-P 2ybc'
_symmetry_space_group_name_H-M   'P 1 21/c 1'
_cell_angle_alpha                90.00
_cell_angle_beta                 103.9387(9)
_cell_angle_gamma                90.00
_cell_formula_units_Z            2
_cell_length_a                   6.0954(2)
_cell_length_b                   3.4948(1)
_cell_length_c                   11.8499(3)
_cell_measurement_temperature    100(1)
_cell_volume                     244.996(12)
_diffrn_ambient_temperature      100(1)
_diffrn_measured_fraction_theta_full 0.981
_diffrn_measured_fraction_theta_max 0.963
_diffrn_measurement_device
;
Bruker AXS Kappa APEX II Ultra diffractometer
;
_diffrn_measurement_device_type  'APEX II CCD detector'
_diffrn_measurement_method       \w-scans
_diffrn_radiation_monochromator  'multi-layer optics'
_diffrn_radiation_source         'TXS rotating anode'
_diffrn_radiation_type           'Mo K\a'
_diffrn_radiation_wavelength     0.71073
_diffrn_reflns_av_R_equivalents  0.02333
_diffrn_reflns_av_sigmaI/netI    0.01769
_diffrn_reflns_limit_h_max       14
_diffrn_reflns_limit_h_min       -14
_diffrn_reflns_limit_k_max       8
_diffrn_reflns_limit_k_min       -8
_diffrn_reflns_limit_l_max       26
_diffrn_reflns_limit_l_min       -27
_diffrn_reflns_number            15900
_diffrn_reflns_theta_full        56.99
_diffrn_reflns_theta_max         58.524
_diffrn_reflns_theta_min         3.444
_exptl_absorpt_coefficient_mu    0.181
_exptl_absorpt_correction_T_max  1.095
_exptl_absorpt_correction_T_min  0.882
_exptl_absorpt_correction_type   multi-scan
_exptl_absorpt_process_details
;
 Absorption correction done by SORTAV
 Blessing, R. H.: (1995) Acta Cryst. A51, 33-38
;
_exptl_crystal_colour            colourless
_exptl_crystal_density_diffrn    1.709
_exptl_crystal_description       unspecified
_exptl_crystal_F_000             132
_exptl_crystal_size_max          0.254
_exptl_crystal_size_mid          0.199
_exptl_crystal_size_min          0.184
_refine_diff_density_max         +0.20
_refine_diff_density_min         -0.21
_refine_ls_extinction_method     none
_refine_ls_goodness_of_fit_ref   1.090
_refine_ls_hydrogen_treatment    mixed
_refine_ls_number_parameters     177
_refine_ls_number_reflns         2755
_refine_ls_number_restraints     3
_refine_ls_R_factor_all          0.0192
_refine_ls_R_factor_gt           0.0192
_refine_ls_shift/su_max          0.001
_refine_ls_shift/su_mean         0.000
_refine_ls_structure_factor_coef F
_refine_ls_weighting_details
;
w=1/[\s^2^(Fo)]
;
_refine_ls_weighting_scheme      sigma
_refine_ls_wR_factor_gt          0.0225
_refine_ls_wR_factor_ref         0.0225
_reflns_number_gt                2755
_reflns_number_total             3422
_reflns_threshold_expression     I>3\s(I)
_iucr_refine_instructions_details
;
 Multipole refinement with MOPRO program
;
_cod_data_source_file            pc5031sup9.cif
_cod_data_source_block           oxa09
_cod_original_cell_volume        245.00(1)
_cod_original_sg_symbol_H-M      'P 21/c'
_cod_database_code               2310120
loop_
_symmetry_equiv_pos_as_xyz
'x, y, z'
'-x, y+1/2, -z+1/2'
'-x, -y, -z'
'x, -y-1/2, z-1/2'
loop_
_atom_site_type_symbol
_atom_site_label
_atom_site_fract_x
_atom_site_fract_y
_atom_site_fract_z
_atom_site_U_iso_or_equiv
_atom_site_adp_type
_atom_site_occupancy
_atom_site_calc_flag
O O1 0.43489(4) 0.44411(8) 0.34987(2) 0.01301(8) Uani 1 d
O O2 0.24247(3) 0.74247(7) 0.46372(2) 0.01278(8) Uani 1 d
C C1 0.40309(2) 0.55878(5) 0.44801(1) 0.00934(6) Uani 1 d
H H1 0.308(2) 0.515(6) 0.2730(7) 0.02256 Uani 1 d
O O3 0.13002(3) 0.63131(7) 0.17858(2) 0.01261(7) Uani 1 d
H H2 0.185(2) 0.677(7) 0.1092(5) 0.02837 Uani 1 d
H H3 0.004(1) 0.465(3) 0.145(2) 0.02809 Uani 1 d
loop_
_atom_site_aniso_label
_atom_site_aniso_U_11
_atom_site_aniso_U_22
_atom_site_aniso_U_33
_atom_site_aniso_U_12
_atom_site_aniso_U_13
_atom_site_aniso_U_23
O1 0.01270(6) 0.01844(9) 0.00747(6) 0.00452(6) 0.00161(5) -0.00071(6)
O2 0.01102(6) 0.01746(8) 0.00922(6) 0.00530(5) 0.00123(4) -0.00060(5)
C1 0.00916(5) 0.01096(6) 0.00754(5) 0.00167(3) 0.00132(3) -0.00011(4)
H1 0.0212 0.0258 0.0204 0.0017 0.0045 0.0002
O3 0.01067(5) 0.01748(8) 0.00889(6) -0.00204(5) 0.00080(4) 0.00094(5)
H2 0.0256 0.0397 0.0210 -0.0038 0.0079 0.0036
H3 0.0217 0.0294 0.0326 -0.0069 0.0055 -0.0020
loop_
_atom_type_symbol
_atom_type_description
_atom_type_scat_dispersion_real
_atom_type_scat_dispersion_imag
_atom_type_scat_source
C C 0.0033 0.0016 'Su & Coppens, Acta. Cryst. (1997) A53, 749'
H H 0.0000 0.0000 'Su & Coppens, Acta. Cryst. (1997) A53, 749'
O O 0.0106 0.0060 'Su & Coppens, Acta. Cryst. (1997) A53, 749'
loop_
_geom_angle_atom_site_label_1
_geom_angle_atom_site_label_2
_geom_angle_atom_site_label_3
_geom_angle
O1 C1 O2 126.96(2)
C1 O1 H1 117.3(8)
H2 O3 H3 99(2)
loop_
_geom_bond_atom_site_label_1
_geom_bond_atom_site_label_2
_geom_bond_distance
O1 C1 1.2881(2)
O1 H1 1.074(1)
O2 C1 1.2219(2)
O3 H3 0.970(1)
O3 H2 0.974(1)
loop_
_geom_torsion_atom_site_label_1
_geom_torsion_atom_site_label_2
_geom_torsion_atom_site_label_3
_geom_torsion_atom_site_label_4
_geom_torsion
O2 C1 O1 H1 -0.23(69)
loop_
_refln_index_h
_refln_index_k
_refln_index_l
_refln_F_squared_calc
_refln_F_squared_meas
_refln_F_squared_sigma
_refln_observed_status
-14 0 2 15.917 15.401 0.847 o
-14 0 6 2.226 2.270 0.206 o
-14 0 8 0.598 0.585 0.097 o
-14 0 10 1.272 1.214 0.127 o
-14 0 12 0.704 0.924 0.230 o
-14 1 3 0.267 0.272 0.068 o
-14 1 5 0.374 0.359 0.101 o
-14 1 6 3.931 3.696 0.165 o
-14 1 7 7.179 7.516 0.276 o
-14 1 8 0.685 0.813 0.078 o
-14 1 9 0.230 0.186 0.057 o
-14 1 10 0.485 0.466 0.063 o
-14 1 11 0.293 0.296 0.072 o
-14 1 12 1.451 1.488 0.174 o
-14 1 13 1.793 1.902 0.180 o
-14 2 3 3.172 3.028 0.182 o
-14 2 4 2.220 2.188 0.143 o
-14 2 5 1.418 1.281 0.138 o
-14 2 6 8.954 8.553 0.302 o
-14 2 8 1.031 0.995 0.079 o
-14 2 9 1.410 1.567 0.138 o
-14 2 11 5.181 5.261 0.243 o
-13 0 6 34.737 34.467 1.036 o
-13 0 8 3.437 3.543 0.315 o
-13 0 10 0.500 0.474 0.135 o
-13 0 12 11.876 12.487 0.458 o
-13 0 14 1.626 1.777 0.178 o
-13 0 16 9.650 10.310 0.523 o
-13 0 18 1.142 1.405 0.241 o
-13 1 1 2.694 2.847 0.132 o
-13 1 2 14.612 13.674 0.516 o
-13 1 4 1.191 1.181 0.109 o
-13 1 5 9.967 10.049 0.362 o
-13 1 8 3.791 3.675 0.241 o
-13 1 10 3.456 3.273 0.133 o
-13 1 12 3.357 3.279 0.145 o
-13 1 13 0.594 0.564 0.093 o
-13 1 15 1.514 1.871 0.145 o
-13 1 16 4.316 4.270 0.204 o
-13 1 17 2.086 1.987 0.187 o
-13 2 1 4.202 4.137 0.235 o
-13 2 3 1.051 0.983 0.086 o
-13 2 4 0.841 0.861 0.108 o
-13 2 5 1.284 1.356 0.097 o
-13 2 6 0.504 0.464 0.063 o
-13 2 8 2.256 2.144 0.120 o
-13 2 9 1.387 1.343 0.086 o
-13 2 10 4.065 3.884 0.221 o
-13 2 12 1.090 1.006 0.084 o
-13 2 13 0.839 0.798 0.098 o
-13 2 14 3.070 3.109 0.186 o
-13 2 15 0.550 0.468 0.088 o
-13 2 16 3.650 3.736 0.179 o
-13 3 1 1.507 1.636 0.125 o
-13 3 2 0.465 0.460 0.086 o
-13 3 4 4.485 4.566 0.182 o
-13 3 5 2.393 2.347 0.169 o
-13 3 6 4.403 4.160 0.160 o
-13 3 7 2.413 2.309 0.111 o
-13 3 9 2.049 2.059 0.100 o
-13 3 10 4.243 3.940 0.157 o
-13 3 12 0.909 0.962 0.121 o
-13 3 14 7.195 7.008 0.688 o
-12 0 2 9.016 8.527 0.470 o
-12 0 4 42.039 42.359 2.661 o
-12 0 6 4.246 3.757 0.223 o
-12 0 10 2.524 2.251 0.152 o
-12 0 12 8.703 8.535 0.287 o
-12 0 14 5.469 5.996 0.301 o
-12 0 16 18.446 19.062 0.621 o
-12 1 1 1.959 1.883 0.123 o
-12 1 2 1.039 0.907 0.102 o
-12 1 5 19.201 19.051 0.489 o
-12 1 6 4.551 4.364 0.149 o
-12 1 7 1.583 1.610 0.087 o
-12 1 8 11.987 12.161 0.388 o
-12 1 9 11.359 11.152 0.453 o
-12 1 10 2.779 2.822 0.119 o
-12 1 11 1.022 0.990 0.075 o
-12 1 12 6.950 6.844 0.273 o
-12 1 13 0.796 0.759 0.093 o
-12 1 15 13.853 14.369 0.427 o
-12 1 16 1.792 1.631 0.223 o
-12 1 17 0.855 0.937 0.102 o
-12 1 19 1.444 1.536 0.131 o
-12 1 20 3.673 4.306 0.336 o
-12 2 1 13.302 13.110 0.433 o
-12 2 2 5.350 5.098 0.235 o
-12 2 5 8.008 7.926 0.272 o
-12 2 6 0.272 0.324 0.058 o
-12 2 7 3.408 3.342 0.135 o
-12 2 8 4.461 4.741 0.173 o
-12 2 9 4.194 4.381 0.174 o
-12 2 11 8.735 8.684 0.245 o
-12 2 12 1.102 1.041 0.106 o
-12 2 13 5.113 4.919 0.175 o
-12 2 14 0.347 0.431 0.080 o
-12 2 17 0.317 0.315 0.081 o
-12 2 18 5.408 5.605 0.232 o
-12 2 19 3.397 3.449 0.210 o
-12 3 1 1.600 1.751 0.115 o
-12 3 2 0.459 0.372 0.067 o
-12 3 3 3.309 3.376 0.153 o
-12 3 6 0.888 0.942 0.078 o
-12 3 7 1.289 1.178 0.083 o
-12 3 11 1.695 1.624 0.104 o
-12 3 12 0.453 0.353 0.082 o
-12 3 13 0.471 0.487 0.070 o
-12 3 14 3.737 3.456 0.159 o
-12 3 16 1.708 1.607 0.126 o
-12 4 1 0.565 0.524 0.095 o
-12 4 2 1.072 0.974 0.092 o
-12 4 3 1.947 1.904 0.142 o
-12 4 4 1.594 1.517 0.100 o
-12 4 5 2.344 2.369 0.133 o
-12 4 6 5.644 5.319 0.209 o
-12 4 7 0.305 0.312 0.092 o
-12 4 8 0.552 0.510 0.071 o
-12 4 9 1.401 1.350 0.102 o
-12 4 11 1.614 1.550 0.101 o
-12 4 13 2.329 2.085 0.122 o
-12 4 14 8.065 8.036 0.423 o
-11 0 2 3.709 3.582 0.252 o
-11 0 4 9.379 9.789 0.349 o
-11 0 6 0.608 0.540 0.082 o
-11 0 8 85.854 89.767 2.494 o
-11 0 10 7.876 7.960 0.296 o
-11 0 12 2.635 2.298 0.162 o
-11 0 14 34.246 36.000 1.058 o
-11 0 18 12.270 12.992 0.606 o
-11 1 1 0.232 0.320 0.077 o
-11 1 2 5.789 6.018 0.206 o
-11 1 3 13.685 13.984 0.411 o
-11 1 4 35.685 35.883 1.035 o
-11 1 5 2.090 2.136 0.115 o
-11 1 6 0.209 0.230 0.050 o
-11 1 7 1.433 1.493 0.083 o
-11 1 8 1.344 1.344 0.080 o
-11 1 9 6.080 6.125 0.212 o
-11 1 10 3.736 3.703 0.155 o
-11 1 11 4.266 4.288 0.159 o
-11 1 12 13.449 13.946 0.383 o
-11 1 13 0.418 0.427 0.070 o
-11 1 14 6.288 6.513 0.229 o
-11 1 15 6.070 6.579 0.230 o
-11 1 16 2.540 2.798 0.158 o
-11 1 18 9.588 9.881 0.383 o
-11 1 19 11.418 12.490 0.456 o
-11 2 1 2.752 2.845 0.130 o
-11 2 2 0.323 0.304 0.065 o
-11 2 3 1.312 1.222 0.118 o
-11 2 4 10.910 10.770 0.300 o
-11 2 5 2.102 2.194 0.113 o
-11 2 6 6.202 6.185 0.219 o
-11 2 7 8.248 8.248 0.238 o
-11 2 10 1.022 0.998 0.075 o
-11 2 11 2.179 2.168 0.107 o
-11 2 12 2.578 2.534 0.183 o
-11 2 13 0.526 0.562 0.071 o
-11 2 14 1.404 1.404 0.093 o
-11 2 15 10.358 10.627 0.340 o
-11 2 16 0.241 0.254 0.072 o
-11 2 17 0.783 0.598 0.082 o
-11 2 18 2.424 2.683 0.292 o
-11 2 19 1.039 0.579 0.175 o
-11 2 20 0.455 0.462 0.109 o
-11 2 21 3.819 3.660 0.309 o
-11 2 22 1.724 1.763 0.258 o
-11 3 1 1.009 1.145 0.099 o
-11 3 2 3.298 3.089 0.150 o
-11 3 3 0.368 0.348 0.069 o
-11 3 4 4.571 4.679 0.260 o
-11 3 5 6.519 6.664 0.213 o
-11 3 6 2.875 2.826 0.138 o
-11 3 7 3.631 3.826 0.146 o
-11 3 9 1.299 1.271 0.085 o
-11 3 10 12.333 12.415 0.366 o
-11 3 11 4.099 4.062 0.168 o
-11 3 12 1.116 0.835 0.094 o
-11 3 13 2.639 2.528 0.155 o
-11 3 14 0.430 0.371 0.082 o
-11 3 16 3.832 4.069 0.186 o
-11 3 17 4.631 4.813 0.241 o
-11 4 1 1.376 1.406 0.116 o
-11 4 2 2.887 2.770 0.136 o
-11 4 3 5.687 5.646 0.218 o
-11 4 5 0.201 0.197 0.062 o
-11 4 6 6.920 6.819 0.213 o
-11 4 7 0.396 0.430 0.067 o
-11 4 9 2.540 2.453 0.108 o
-11 4 10 3.786 3.939 0.159 o
-11 4 12 3.330 3.232 0.142 o
-11 4 13 5.851 5.671 0.205 o
-11 4 15 0.695 0.695 0.084 o
-11 4 16 0.609 0.671 0.136 o
-11 5 2 6.601 6.727 0.260 o
-11 5 4 3.522 3.275 0.216 o
-11 5 5 0.572 0.488 0.071 o
-11 5 6 3.589 3.332 0.166 o
-11 5 8 1.205 1.042 0.113 o
-11 5 12 0.830 0.780 0.092 o
-10 0 4 8.533 8.630 0.323 o
-10 0 6 12.038 12.228 0.484 o
-10 0 8 17.185 17.036 0.553 o
-10 0 10 12.023 12.187 0.364 o
-10 0 12 11.559 11.473 0.364 o
-10 0 14 0.810 1.001 0.149 o
-10 0 16 2.995 2.981 0.183 o
-10 0 18 63.322 65.189 1.778 o
-10 0 20 1.750 1.826 0.380 o
-10 1 1 3.393 3.568 0.154 o
-10 1 2 0.504 0.519 0.065 o
-10 1 3 2.187 2.469 0.155 o
-10 1 4 0.750 0.906 0.112 o
-10 1 5 9.416 9.070 0.265 o
-10 1 7 46.581 46.855 1.142 o
-10 1 8 19.578 19.871 0.490 o
-10 1 9 9.916 9.616 0.284 o
-10 1 10 6.194 6.176 0.187 o
-10 1 11 1.846 1.956 0.096 o
-10 1 12 3.833 3.857 0.207 o
-10 1 13 11.447 11.409 0.362 o
-10 1 14 17.955 19.103 0.510 o
-10 1 16 0.965 0.933 0.091 o
-10 1 17 15.146 15.518 0.446 o
-10 1 18 2.372 2.336 0.196 o
-10 1 19 1.848 2.056 0.165 o
-10 1 22 11.941 11.298 0.856 o
-10 1 24 4.660 4.996 0.535 o
-10 2 1 0.534 0.534 0.073 o
-10 2 2 10.978 10.642 0.314 o
-10 2 3 48.594 49.763 1.385 o
-10 2 4 28.113 28.256 0.709 o
-10 2 7 1.282 1.244 0.082 o
-10 2 8 8.977 9.023 0.258 o
-10 2 9 13.253 13.417 0.355 o
-10 2 10 0.818 0.790 0.066 o
-10 2 11 11.810 12.678 0.364 o
-10 2 12 5.018 5.331 0.176 o
-10 2 13 11.304 11.757 0.325 o
-10 2 14 13.701 13.935 0.475 o
-10 2 16 0.716 0.668 0.077 o
-10 2 17 3.827 4.191 0.294 o
-10 2 18 0.603 0.571 0.098 o
-10 2 23 0.643 0.686 0.204 o
-10 3 1 2.631 2.818 0.146 o
-10 3 2 8.240 8.002 0.456 o
-10 3 3 3.616 3.517 0.160 o
-10 3 4 10.358 10.614 0.385 o
-10 3 6 11.064 10.966 0.311 o
-10 3 7 0.555 0.604 0.063 o
-10 3 8 5.966 5.894 0.230 o
-10 3 9 0.997 1.065 0.075 o
-10 3 10 7.647 7.797 0.224 o
-10 3 13 0.287 0.207 0.056 o
-10 3 14 8.222 7.980 0.242 o
-10 3 15 2.739 2.664 0.114 o
-10 3 17 1.565 1.642 0.123 o
-10 3 18 0.393 0.407 0.086 o
-10 3 19 0.914 0.930 0.108 o
-10 3 20 7.401 7.286 0.265 o
-10 3 21 3.018 3.141 0.297 o
-10 3 22 1.158 0.845 0.226 o
-10 4 2 10.681 11.408 0.433 o
-10 4 3 6.493 6.161 0.259 o
-10 4 4 0.321 0.344 0.063 o
-10 4 5 1.173 1.191 0.092 o
-10 4 6 3.446 3.588 0.145 o
-10 4 8 3.252 3.301 0.143 o
-10 4 9 3.205 3.289 0.147 o
-10 4 10 7.328 7.449 0.236 o
-10 4 13 7.951 7.685 0.300 o
-10 4 14 0.164 0.172 0.054 o
-10 4 16 10.984 10.597 0.356 o
-10 4 17 0.813 0.735 0.101 o
-10 4 19 1.247 1.387 0.168 o
-10 5 2 7.166 7.237 0.251 o
-10 5 4 2.334 2.385 0.128 o
-10 5 5 3.019 3.302 0.160 o
-10 5 6 6.164 5.956 0.246 o
-10 5 8 0.261 0.226 0.059 o
-10 5 10 0.735 0.720 0.081 o
-10 5 11 1.239 1.000 0.111 o
-10 5 12 14.997 13.809 0.420 o
-10 5 14 0.909 0.852 0.092 o
-10 6 1 3.871 3.608 0.463 o
-10 6 2 2.330 2.438 0.156 o
-10 6 3 1.225 1.132 0.112 o
-10 6 5 1.124 1.139 0.118 o
-10 6 6 0.968 0.936 0.112 o
-10 6 7 0.544 0.350 0.082 o
-10 6 8 1.818 1.939 0.159 o
-9 0 2 4.176 3.996 0.179 o
-9 0 4 55.827 51.950 1.290 o
-9 0 6 24.299 23.791 0.630 o
-9 0 8 4.271 4.528 0.168 o
-9 0 10 51.146 52.014 1.297 o
-9 0 14 1.927 2.093 0.135 o
-9 0 16 21.459 23.187 0.648 o
-9 0 20 1.068 0.722 0.155 o
-9 0 22 7.169 6.918 0.602 o
-9 1 1 0.468 0.533 0.061 o
-9 1 2 1.363 1.357 0.083 o
-9 1 4 10.198 10.032 0.281 o
-9 1 5 3.143 3.183 0.133 o
-9 1 6 21.825 22.470 0.572 o
-9 1 7 16.746 16.762 0.433 o
-9 1 8 4.688 4.618 0.168 o
-9 1 9 17.279 16.949 0.438 o
-9 1 10 1.174 1.189 0.070 o
-9 1 11 6.510 6.429 0.192 o
-9 1 13 0.324 0.301 0.050 o
-9 1 14 13.734 14.339 0.385 o
-9 1 15 0.548 0.501 0.075 o
-9 1 16 2.616 2.477 0.132 o
-9 1 17 36.520 38.185 1.043 o
-9 1 18 6.889 7.072 0.252 o
-9 1 19 2.710 2.748 0.305 o
-9 1 20 4.416 4.414 0.303 o
-9 1 21 7.176 7.271 0.455 o
-9 1 23 2.382 1.883 0.406 o
-9 1 24 0.574 0.595 0.171 o
-9 2 1 4.829 5.054 0.219 o
-9 2 3 0.673 0.761 0.075 o
-9 2 4 0.357 0.339 0.073 o
-9 2 5 6.122 6.018 0.199 o
-9 2 6 33.764 34.438 0.875 o
-9 2 7 9.755 9.989 0.294 o
-9 2 8 55.166 55.334 1.711 o
-9 2 9 1.382 1.479 0.077 o
-9 2 10 5.356 5.242 0.172 o
-9 2 12 3.132 3.593 0.136 o
-9 2 13 31.302 31.546 0.814 o
-9 2 14 4.850 5.252 0.178 o
-9 2 15 0.504 0.507 0.065 o
-9 2 16 9.844 10.264 0.472 o
-9 2 17 8.342 8.970 0.287 o
-9 2 18 14.898 14.786 0.453 o
-9 2 19 4.118 4.050 0.176 o
-9 2 20 0.434 0.559 0.106 o
-9 2 21 7.512 7.368 0.279 o
-9 2 22 2.965 2.999 0.444 o
-9 2 23 7.921 8.137 0.409 o
-9 2 24 3.458 3.697 0.515 o
-9 3 1 2.868 3.069 0.227 o
-9 3 2 84.619 85.899 2.274 o
-9 3 3 12.614 13.190 0.371 o
-9 3 4 21.465 22.404 0.586 o
-9 3 6 1.021 0.807 0.104 o
-9 3 7 20.177 20.838 0.548 o
-9 3 8 6.557 6.670 0.201 o
-9 3 9 1.372 1.344 0.109 o
-9 3 10 5.074 5.254 0.165 o
-9 3 11 1.137 1.117 0.077 o
-9 3 12 41.603 41.814 1.023 o
-9 3 13 6.792 7.206 0.213 o
-9 3 14 6.162 6.315 0.191 o
-9 3 15 2.550 2.559 0.110 o
-9 3 16 3.155 3.347 0.149 o
-9 3 18 2.906 3.147 0.152 o
-9 3 22 2.527 2.345 0.178 o
-9 4 1 12.035 12.671 0.403 o
-9 4 2 3.794 3.785 0.213 o
-9 4 3 21.373 21.236 0.863 o
-9 4 4 0.296 0.256 0.064 o
-9 4 6 8.024 8.227 0.264 o
-9 4 7 0.921 0.882 0.074 o
-9 4 8 4.274 4.325 0.174 o
-9 4 9 1.623 1.921 0.109 o
-9 4 10 0.573 0.570 0.075 o
-9 4 11 5.887 6.006 0.205 o
-9 4 12 6.192 6.171 0.191 o
-9 4 13 7.522 7.524 0.245 o
-9 4 14 0.295 0.308 0.079 o
-9 4 18 0.324 0.349 0.114 o
-9 4 19 0.644 0.618 0.093 o
-9 4 20 6.019 5.898 0.389 o
-9 5 1 1.584 1.691 0.165 o
-9 5 4 0.167 0.173 0.056 o
-9 5 6 0.795 0.773 0.083 o
-9 5 8 0.586 0.467 0.065 o
-9 5 9 3.696 3.566 0.163 o
-9 5 10 0.900 1.088 0.127 o
-9 5 12 3.247 3.186 0.163 o
-9 5 13 0.256 0.340 0.063 o
-9 5 15 2.327 2.329 0.153 o
-9 5 16 8.944 9.037 0.494 o
-9 6 1 1.688 1.863 0.179 o
-9 6 2 0.284 0.318 0.089 o
-9 6 3 4.246 4.193 0.202 o
-9 6 4 0.312 0.287 0.075 o
-9 6 5 3.629 3.555 0.162 o
-9 6 6 0.686 0.605 0.072 o
-9 6 10 0.973 0.914 0.139 o
-9 6 11 8.057 7.274 0.256 o
-9 6 12 2.779 2.547 0.144 o
-9 6 13 0.560 0.438 0.096 o
-8 0 2 3.671 3.561 0.225 o
-8 0 4 3.934 3.810 0.231 o
-8 0 8 48.550 47.197 1.238 o
-8 0 10 6.563 6.541 0.232 o
-8 0 12 3.024 3.171 0.135 o
-8 0 14 44.418 45.817 1.179 o
-8 0 16 12.071 12.044 0.428 o
-8 0 18 2.345 2.203 0.347 o
-8 0 20 42.930 43.673 1.332 o
-8 1 1 29.401 28.788 0.862 o
-8 1 3 18.616 17.749 0.519 o
-8 1 4 29.236 27.776 0.968 o
-8 1 5 22.238 21.431 0.570 o
-8 1 6 1.684 1.808 0.098 o
-8 1 7 54.564 52.426 1.295 o
-8 1 8 5.699 5.709 0.178 o
-8 1 9 13.320 13.671 0.346 o
-8 1 10 35.830 35.242 0.948 o
-8 1 11 1.679 1.657 0.078 o
-8 1 12 1.787 1.683 0.086 o
-8 1 14 0.521 0.622 0.109 o
-8 1 15 16.074 16.065 0.406 o
-8 1 16 8.727 9.078 0.274 o
-8 1 17 7.071 7.072 0.232 o
-8 1 18 10.759 10.772 0.361 o
-8 1 20 1.145 0.880 0.204 o
-8 1 21 4.298 4.545 0.208 o
-8 1 23 0.994 1.027 0.160 o
-8 1 24 9.566 10.079 0.454 o
-8 2 1 39.410 37.850 0.964 o
-8 2 2 16.231 15.344 0.771 o
-8 2 3 6.992 7.090 0.245 o
-8 2 4 16.091 15.295 0.466 o
-8 2 5 33.009 32.674 0.997 o
-8 2 6 56.693 55.190 1.326 o
-8 2 7 6.236 6.461 0.199 o
-8 2 8 6.599 6.485 0.201 o
-8 2 9 1.405 1.331 0.080 o
-8 2 10 10.955 11.136 0.286 o
-8 2 11 19.846 20.355 0.492 o
-8 2 12 8.043 7.859 0.218 o
-8 2 13 2.067 2.135 0.108 o
-8 2 14 11.526 11.859 0.305 o
-8 2 16 37.914 38.519 1.021 o
-8 2 17 2.032 2.197 0.127 o
-8 2 18 14.170 14.056 0.540 o
-8 2 19 3.704 4.095 0.216 o
-8 2 20 0.475 0.427 0.094 o
-8 2 23 3.056 2.853 0.246 o
-8 2 25 0.799 0.888 0.256 o
-8 3 1 0.224 0.285 0.077 o
-8 3 2 8.520 8.232 0.279 o
-8 3 3 7.085 7.411 0.242 o
-8 3 5 0.912 0.929 0.082 o
-8 3 6 32.874 33.506 0.831 o
-8 3 7 10.590 10.392 0.391 o
-8 3 8 22.109 21.414 0.529 o
-8 3 9 5.427 5.260 0.163 o
-8 3 10 9.702 9.608 0.322 o
-8 3 11 6.190 6.167 0.196 o
-8 3 12 50.743 50.472 1.231 o
-8 3 13 1.580 1.504 0.087 o
-8 3 14 1.382 1.337 0.078 o
-8 3 15 0.517 0.353 0.068 o
-8 3 16 17.739 18.076 0.490 o
-8 3 17 16.982 17.435 0.478 o
-8 3 19 1.113 1.050 0.105 o
-8 3 20 8.308 8.098 0.286 o
-8 3 22 25.022 24.900 0.729 o
-8 3 23 3.049 3.177 0.193 o
-8 4 1 21.706 21.993 0.665 o
-8 4 2 19.949 20.529 0.631 o
-8 4 3 15.988 16.360 0.447 o
-8 4 4 11.213 11.072 0.326 o
-8 4 5 3.087 2.683 0.323 o
-8 4 6 4.841 4.674 0.171 o
-8 4 7 3.052 3.057 0.140 o
-8 4 8 4.271 4.352 0.143 o
-8 4 9 0.126 0.213 0.048 o
-8 4 10 0.332 0.368 0.051 o
-8 4 11 22.942 22.664 0.567 o
-8 4 12 17.421 17.427 0.447 o
-8 4 13 11.148 11.234 0.323 o
-8 4 15 3.029 3.000 0.134 o
-8 4 16 2.793 2.827 0.146 o
-8 4 18 5.130 4.813 0.191 o
-8 4 21 7.546 7.164 0.279 o
-8 5 1 4.910 5.338 0.241 o
-8 5 2 27.939 28.832 0.803 o
-8 5 5 1.448 1.303 0.090 o
-8 5 6 0.481 0.506 0.104 o
-8 5 7 4.834 4.811 0.183 o
-8 5 8 8.022 7.781 0.266 o
-8 5 10 2.473 2.355 0.156 o
-8 5 12 0.958 0.936 0.086 o
-8 5 14 0.597 0.547 0.084 o
-8 5 15 0.742 0.704 0.086 o
-8 5 19 1.010 0.889 0.200 o
-8 6 2 0.679 0.719 0.103 o
-8 6 3 0.377 0.517 0.082 o
-8 6 4 0.699 0.708 0.075 o
-8 6 6 0.466 0.329 0.062 o
-8 6 7 1.253 1.224 0.091 o
-8 6 8 0.488 0.404 0.100 o
-8 6 9 0.320 0.393 0.103 o
-8 6 11 0.706 0.696 0.096 o
-8 6 13 1.641 1.302 0.176 o
-8 6 15 4.324 4.723 0.356 o
-8 7 2 1.649 1.561 0.130 o
-7 0 2 14.223 13.806 0.762 o
-7 0 4 39.676 41.054 1.677 o
-7 0 6 249.282 258.896 11.491 o
-7 0 8 0.268 0.401 0.119 o
-7 0 10 1.419 1.346 0.143 o
-7 0 12 5.816 5.443 0.220 o
-7 0 14 10.533 10.107 0.282 o
-7 0 16 7.401 7.087 0.248 o
-7 0 18 7.847 8.134 0.280 o
-7 0 20 0.575 0.523 0.113 o
-7 1 1 17.573 17.868 0.616 o
-7 1 2 87.121 82.966 2.374 o
-7 1 3 3.928 3.853 0.232 o
-7 1 5 2.220 2.178 0.219 o
-7 1 6 19.005 18.984 0.581 o
-7 1 7 50.681 49.072 1.204 o
-7 1 9 10.168 9.796 0.286 o
-7 1 10 28.783 28.082 0.743 o
-7 1 11 45.682 45.564 1.137 o
-7 1 12 2.818 2.756 0.111 o
-7 1 13 9.595 8.951 0.265 o
-7 1 14 15.548 15.257 0.390 o
-7 1 15 13.734 13.524 0.386 o
-7 1 16 6.010 6.050 0.212 o
-7 1 17 23.083 24.217 0.629 o
-7 1 18 0.237 0.229 0.069 o
-7 1 19 27.412 27.672 0.717 o
-7 1 20 4.627 4.531 0.198 o
-7 1 21 2.967 2.518 0.230 o
-7 1 22 1.431 1.416 0.169 o
-7 1 23 1.111 1.232 0.167 o
-7 1 24 0.825 0.543 0.144 o
-7 1 25 8.103 7.736 0.622 o
-7 2 2 0.371 0.401 0.119 o
-7 2 3 22.485 20.969 0.828 o
-7 2 4 3.265 3.358 0.203 o
-7 2 5 9.521 9.643 0.470 o
-7 2 6 2.191 2.141 0.176 o
-7 2 7 18.927 18.475 0.544 o
-7 2 8 16.220 15.929 0.443 o
-7 2 9 16.652 16.099 0.419 o
-7 2 10 78.419 76.093 1.797 o
-7 2 11 22.303 21.838 0.635 o
-7 2 12 7.728 7.644 0.279 o
-7 2 13 5.163 5.033 0.151 o
-7 2 14 3.531 3.419 0.122 o
-7 2 15 41.762 41.246 1.131 o
-7 2 16 12.604 12.590 0.345 o
-7 2 17 2.207 2.006 0.135 o
-7 2 18 4.846 4.720 0.280 o
-7 2 19 0.255 0.271 0.077 o
-7 2 20 24.184 24.433 0.649 o
-7 2 21 12.937 12.715 0.379 o
-7 2 22 4.701 4.576 0.270 o
-7 2 23 4.065 3.877 0.256 o
-7 2 24 5.013 5.153 0.234 o
-7 2 25 2.600 2.580 0.189 o
-7 3 1 2.051 2.063 0.142 o
-7 3 2 1.911 1.990 0.114 o
-7 3 3 2.110 2.256 0.196 o
-7 3 4 75.010 74.628 1.997 o
-7 3 5 34.448 33.792 0.831 o
-7 3 6 16.030 15.581 0.407 o
-7 3 8 0.090 0.114 0.037 o
-7 3 9 9.672 9.636 0.257 o
-7 3 10 11.309 10.739 0.335 o
-7 3 12 1.018 1.182 0.074 o
-7 3 13 7.621 7.056 0.250 o
-7 3 14 22.996 22.699 0.564 o
-7 3 15 4.865 5.015 0.166 o
-7 3 16 22.846 22.727 0.587 o
-7 3 17 0.189 0.188 0.062 o
-7 3 18 10.250 10.008 0.528 o
-7 3 20 2.737 2.533 0.141 o
-7 3 21 2.900 3.148 0.150 o
-7 3 22 3.045 2.930 0.186 o
-7 3 24 2.592 2.285 0.194 o
-7 4 1 21.947 21.441 0.589 o
-7 4 2 6.805 6.905 0.232 o
-7 4 3 0.659 0.630 0.069 o
-7 4 4 2.123 2.067 0.133 o
-7 4 5 23.219 24.139 0.667 o
-7 4 6 4.288 4.214 0.176 o
-7 4 7 4.554 4.446 0.152 o
-7 4 8 26.478 26.097 0.675 o
-7 4 9 5.653 5.274 0.210 o
-7 4 10 0.202 0.195 0.042 o
-7 4 11 14.312 13.916 0.363 o
-7 4 12 3.509 3.618 0.138 o
-7 4 14 3.425 3.318 0.161 o
-7 4 15 12.805 12.992 0.357 o
-7 4 16 9.935 10.295 0.342 o
-7 4 17 3.714 3.962 0.157 o
-7 4 19 0.753 0.698 0.087 o
-7 4 20 0.265 0.231 0.075 o
-7 4 21 8.109 7.392 0.471 o
-7 4 22 10.303 9.784 0.376 o
-7 5 1 3.918 3.706 0.204 o
-7 5 2 19.940 20.267 0.909 o
-7 5 3 3.595 3.346 0.234 o
-7 5 4 1.816 1.560 0.153 o
-7 5 5 0.993 0.984 0.085 o
-7 5 6 8.128 7.995 0.328 o
-7 5 7 0.599 0.596 0.074 o
-7 5 10 5.522 5.541 0.290 o
-7 5 11 9.507 8.951 0.278 o
-7 5 12 25.749 25.211 0.725 o
-7 5 14 1.219 1.299 0.107 o
-7 5 16 0.215 0.233 0.066 o
-7 5 17 2.527 2.397 0.166 o
-7 5 18 3.963 3.664 0.192 o
-7 5 19 0.629 0.699 0.189 o
-7 6 1 17.135 16.829 0.742 o
-7 6 2 3.204 3.229 0.220 o
-7 6 4 0.736 0.707 0.076 o
-7 6 5 1.297 1.113 0.093 o
-7 6 6 6.428 6.505 0.346 o
-7 6 7 2.472 2.312 0.130 o
-7 6 8 4.459 4.535 0.261 o
-7 6 9 2.291 2.376 0.140 o
-7 6 10 0.405 0.338 0.080 o
-7 6 11 1.949 1.786 0.149 o
-7 6 13 0.485 0.485 0.094 o
-7 6 16 1.863 1.692 0.258 o
-7 7 2 0.284 0.287 0.089 o
-7 7 3 0.212 0.307 0.089 o
-7 7 4 0.729 0.713 0.211 o
-7 7 5 2.572 2.585 0.203 o
-7 7 6 0.902 0.845 0.109 o
-7 7 7 0.463 0.435 0.093 o
-6 0 2 184.237 183.406 5.449 o
-6 0 4 3.132 2.901 0.275 o
-6 0 6 159.225 168.523 6.159 o
-6 0 8 1.024 1.268 0.424 o
-6 0 10 286.017 264.054 11.497 o
-6 0 14 26.350 25.785 0.656 o
-6 0 16 134.456 137.878 3.793 o
-6 0 18 15.532 15.873 0.480 o
-6 0 20 10.030 10.395 0.343 o
-6 0 22 2.968 3.298 0.185 o
-6 0 24 13.372 13.114 0.915 o
-6 1 1 1.403 1.305 0.142 o
-6 1 2 6.626 6.628 0.281 o
-6 1 3 1.000 1.125 0.135 o
-6 1 4 30.749 32.114 1.066 o
-6 1 5 94.319 95.427 2.752 o
-6 1 6 148.991 155.154 4.599 o
-6 1 7 2.548 2.356 0.326 o
-6 1 8 2.986 2.959 0.320 o
-6 1 9 43.838 42.587 1.270 o
-6 1 10 50.637 47.043 1.456 o
-6 1 11 3.895 3.820 0.165 o
-6 1 12 42.540 39.789 1.006 o
-6 1 13 4.929 4.830 0.158 o
-6 1 14 22.518 22.607 0.621 o
-6 1 15 3.721 3.736 0.190 o
-6 1 16 0.628 0.545 0.083 o
-6 1 17 1.158 1.178 0.107 o
-6 1 18 0.710 0.682 0.096 o
-6 1 19 12.276 12.456 0.405 o
-6 1 20 29.052 29.478 0.896 o
-6 1 21 13.302 13.479 0.436 o
-6 1 22 1.506 1.512 0.155 o
-6 1 23 2.333 2.056 0.187 o
-6 1 24 0.313 0.437 0.122 o
-6 1 25 1.416 1.120 0.214 o
-6 1 26 1.736 1.237 0.365 o
-6 2 1 71.152 70.534 1.933 o
-6 2 2 39.218 41.845 1.253 o
-6 2 3 59.321 59.397 1.835 o
-6 2 4 5.019 5.683 0.354 o
-6 2 5 4.165 3.863 0.290 o
-6 2 6 1.000 0.932 0.212 o
-6 2 8 13.239 12.940 0.376 o
-6 2 9 31.307 30.859 1.038 o
-6 2 10 9.648 8.804 0.305 o
-6 2 11 0.225 0.258 0.058 o
-6 2 12 9.063 8.557 0.243 o
-6 2 13 0.203 0.300 0.042 o
-6 2 14 6.493 6.436 0.193 o
-6 2 15 2.819 2.984 0.144 o
-6 2 16 0.351 0.277 0.084 o
-6 2 17 9.701 10.065 0.475 o
-6 2 18 19.968 20.664 0.614 o
-6 2 19 2.654 2.814 0.187 o
-6 2 20 21.550 22.578 1.053 o
-6 2 21 1.762 1.345 0.145 o
-6 2 23 0.613 0.499 0.121 o
-6 2 25 13.058 12.359 0.439 o
-6 3 1 13.255 12.621 0.589 o
-6 3 2 11.591 10.717 0.580 o
-6 3 3 1.283 1.227 0.207 o
-6 3 4 4.514 4.244 0.289 o
-6 3 5 0.674 0.539 0.108 o
-6 3 6 5.984 6.256 0.268 o
-6 3 7 7.541 7.185 0.221 o
-6 3 8 38.762 38.156 1.125 o
-6 3 9 32.174 31.406 0.766 o
-6 3 10 0.485 0.505 0.044 o
-6 3 11 4.309 4.153 0.139 o
-6 3 12 0.381 0.445 0.055 o
-6 3 13 6.718 6.640 0.268 o
-6 3 14 56.086 55.819 1.333 o
-6 3 15 12.763 12.935 0.334 o
-6 3 16 1.812 1.774 0.103 o
-6 3 17 0.658 0.547 0.085 o
-6 3 18 8.761 8.400 0.253 o
-6 3 19 15.904 16.442 0.435 o
-6 3 20 1.059 0.964 0.108 o
-6 3 21 0.450 0.472 0.107 o
-6 3 22 5.186 5.059 0.229 o
-6 3 23 0.949 0.998 0.123 o
-6 3 24 19.289 18.531 0.639 o
-6 3 25 2.206 1.897 0.423 o
-6 4 1 8.016 7.853 0.317 o
-6 4 3 7.149 7.080 0.288 o
-6 4 4 42.485 41.974 1.131 o
-6 4 5 39.341 36.983 0.921 o
-6 4 6 1.878 1.688 0.092 o
-6 4 8 6.943 6.640 0.194 o
-6 4 9 0.118 0.118 0.039 o
-6 4 10 1.820 1.703 0.095 o
-6 4 11 6.746 6.599 0.197 o
-6 4 12 11.712 11.868 0.342 o
-6 4 13 13.963 14.029 0.370 o
-6 4 14 13.957 14.248 0.383 o
-6 4 15 23.101 22.767 0.606 o
-6 4 16 0.529 0.537 0.059 o
-6 4 18 6.937 6.687 0.242 o
-6 4 19 1.005 0.885 0.087 o
-6 4 21 1.483 1.433 0.106 o
-6 4 22 0.546 0.531 0.087 o
-6 4 23 3.800 3.545 0.496 o
-6 5 2 0.713 0.672 0.129 o
-6 5 3 1.202 1.260 0.091 o
-6 5 4 38.067 37.642 1.067 o
-6 5 6 6.917 6.963 0.229 o
-6 5 7 2.772 2.732 0.118 o
-6 5 8 16.646 16.465 0.428 o
-6 5 9 1.377 1.377 0.080 o
-6 5 10 15.457 14.176 0.421 o
-6 5 11 0.499 0.499 0.104 o
-6 5 12 0.228 0.251 0.071 o
-6 5 13 0.626 0.561 0.081 o
-6 5 14 2.396 2.328 0.139 o
-6 5 15 1.491 1.368 0.221 o
-6 5 16 8.149 7.714 0.278 o
-6 5 18 1.574 1.339 0.130 o
-6 5 20 2.589 2.158 0.248 o
-6 6 1 1.803 1.957 0.165 o
-6 6 2 4.444 4.238 0.202 o
-6 6 3 0.383 0.378 0.077 o
-6 6 4 3.306 3.218 0.183 o
-6 6 5 9.944 9.429 0.312 o
-6 6 6 1.050 0.956 0.081 o
-6 6 7 0.878 0.817 0.077 o
-6 6 8 0.516 0.453 0.097 o
-6 6 10 5.320 5.137 0.209 o
-6 6 11 10.623 9.706 0.309 o
-6 6 12 4.569 4.377 0.187 o
-6 6 13 0.806 0.931 0.108 o
-6 6 14 0.955 1.007 0.098 o
-6 6 15 3.948 3.836 0.179 o
-6 6 16 2.209 1.491 0.252 o
-6 7 1 6.275 5.927 0.508 o
-6 7 3 0.364 0.296 0.089 o
-6 7 4 0.506 0.417 0.080 o
-6 7 5 0.474 0.486 0.093 o
-6 7 6 1.328 1.075 0.145 o
-6 7 7 2.791 2.555 0.165 o
-6 7 9 2.812 2.576 0.346 o
-6 7 11 1.707 1.701 0.277 o
-6 7 12 0.777 0.654 0.202 o
-5 0 2 89.528 90.038 2.550 o
-5 0 4 18.468 18.831 0.690 o
-5 0 6 114.241 114.581 3.550 o
-5 0 8 283.863 264.526 11.476 o
-5 0 10 101.752 93.110 6.000 o
-5 0 12 45.082 44.346 1.685 o
-5 0 14 0.630 0.712 0.113 o
-5 0 18 27.704 28.089 0.750 o
-5 0 20 104.013 108.354 2.942 o
-5 0 26 15.118 15.081 0.816 o
-5 1 1 57.840 58.588 1.598 o
-5 1 2 252.883 260.566 7.234 o
-5 1 3 48.930 51.253 1.446 o
-5 1 4 90.335 92.871 2.547 o
-5 1 5 29.423 30.316 0.925 o
-5 1 6 3.760 3.922 0.231 o
-5 1 7 0.933 0.808 0.127 o
-5 1 8 16.848 16.303 0.602 o
-5 1 9 263.487 252.983 7.734 o
-5 1 10 26.474 25.727 0.816 o
-5 1 12 24.831 24.757 0.738 o
-5 1 13 9.264 9.057 0.338 o
-5 1 14 26.790 27.031 0.704 o
-5 1 15 41.657 42.224 1.041 o
-5 1 16 56.865 57.212 1.655 o
-5 1 17 16.707 17.408 0.458 o
-5 1 18 0.585 0.536 0.069 o
-5 1 19 42.848 44.939 1.140 o
-5 1 20 0.647 0.579 0.075 o
-5 1 21 1.069 0.987 0.096 o
-5 1 22 1.536 1.528 0.139 o
-5 1 24 16.878 15.675 0.553 o
-5 1 25 1.129 1.040 0.143 o
-5 1 26 3.035 3.138 0.187 o
-5 1 27 2.451 2.455 0.431 o
-5 2 1 9.424 9.458 0.363 o
-5 2 2 0.434 0.621 0.102 o
-5 2 3 4.447 4.381 0.233 o
-5 2 4 27.750 28.366 0.939 o
-5 2 5 172.460 179.033 5.718 o
-5 2 6 79.222 80.246 2.751 o
-5 2 7 20.526 20.921 0.854 o
-5 2 8 2.146 2.204 0.181 o
-5 2 11 39.947 38.317 1.211 o
-5 2 12 24.418 24.422 0.748 o
-5 2 13 74.461 75.632 2.082 o
-5 2 14 0.725 0.720 0.113 o
-5 2 15 12.492 12.447 0.369 o
-5 2 16 3.553 3.552 0.174 o
-5 2 17 8.045 8.151 0.283 o
-5 2 18 5.056 5.315 0.313 o
-5 2 19 11.869 11.861 0.376 o
-5 2 22 10.557 10.942 0.395 o
-5 2 23 7.990 7.899 0.274 o
-5 2 24 1.739 1.732 0.146 o
-5 3 1 20.037 20.089 0.811 o
-5 3 3 6.118 5.968 0.370 o
-5 3 4 11.519 11.694 0.642 o
-5 3 5 3.502 3.446 0.256 o
-5 3 6 4.280 4.566 0.229 o
-5 3 7 15.973 16.587 0.583 o
-5 3 8 2.397 2.071 0.126 o
-5 3 10 6.425 7.015 0.265 o
-5 3 11 0.537 0.591 0.061 o
-5 3 12 0.698 0.862 0.060 o
-5 3 14 0.859 0.908 0.061 o
-5 3 15 2.363 2.285 0.116 o
-5 3 18 13.272 13.689 0.397 o
-5 3 19 6.170 6.310 0.245 o
-5 3 21 0.905 0.927 0.108 o
-5 3 23 4.073 4.448 0.241 o
-5 3 24 9.553 9.580 0.482 o
-5 3 25 1.000 1.131 0.155 o
-5 4 1 3.305 3.379 0.279 o
-5 4 3 24.697 25.902 0.834 o
-5 4 4 24.252 23.109 1.185 o
-5 4 5 13.903 13.342 0.360 o
-5 4 7 1.018 1.070 0.066 o
-5 4 8 25.289 25.412 0.648 o
-5 4 10 23.820 23.875 0.674 o
-5 4 11 0.326 0.316 0.057 o
-5 4 12 2.063 2.065 0.142 o
-5 4 13 15.213 15.054 0.384 o
-5 4 14 7.301 6.980 0.202 o
-5 4 15 13.612 13.936 0.378 o
-5 4 17 2.479 2.348 0.121 o
-5 4 18 17.249 17.392 0.459 o
-5 4 19 0.450 0.337 0.069 o
-5 4 21 0.227 0.216 0.070 o
-5 4 22 2.789 2.455 0.135 o
-5 4 23 9.694 8.765 0.419 o
-5 4 24 6.583 5.649 0.573 o
-5 5 1 2.867 2.742 0.178 o
-5 5 2 4.297 4.388 0.226 o
-5 5 3 3.133 3.437 0.175 o
-5 5 4 66.653 67.472 1.856 o
-5 5 6 9.178 9.399 0.295 o
-5 5 7 2.580 2.566 0.113 o
-5 5 8 6.244 6.100 0.286 o
-5 5 9 2.923 2.794 0.117 o
-5 5 10 3.596 3.463 0.178 o
-5 5 12 11.923 12.149 0.370 o
-5 5 13 4.275 4.513 0.224 o
-5 5 14 51.072 49.034 1.442 o
-5 5 16 0.783 0.741 0.080 o
-5 5 17 0.594 0.582 0.091 o
-5 5 18 1.515 1.390 0.303 o
-5 5 19 1.076 1.155 0.139 o
-5 5 20 2.978 2.479 0.251 o
-5 6 2 0.353 0.315 0.081 o
-5 6 3 20.556 19.757 0.558 o
-5 6 4 2.874 2.867 0.179 o
-5 6 5 1.481 1.363 0.137 o
-5 6 6 0.949 0.995 0.084 o
-5 6 7 1.819 1.802 0.106 o
-5 6 8 12.125 12.316 0.344 o
-5 6 9 2.512 2.424 0.134 o
-5 6 10 10.006 9.150 0.318 o
-5 6 11 0.824 0.893 0.098 o
-5 6 13 1.635 1.548 0.152 o
-5 6 15 4.389 4.629 0.265 o
-5 6 17 0.877 0.707 0.193 o
-5 7 2 1.005 1.100 0.122 o
-5 7 3 0.646 0.725 0.108 o
-5 7 4 0.434 0.280 0.080 o
-5 7 7 2.628 2.425 0.167 o
-5 7 9 2.355 2.167 0.350 o
-5 7 10 2.181 1.735 0.300 o
-5 7 11 2.808 3.211 0.356 o
-4 0 2 978.966 997.489 27.152 o
-4 0 4 124.955 128.650 3.763 o
-4 0 6 46.096 46.231 1.486 o
-4 0 8 568.311 551.583 17.779 o
-4 0 10 1.594 1.780 0.196 o
-4 0 12 248.247 233.742 9.361 o
-4 0 14 2.039 1.980 0.163 o
-4 0 16 58.354 58.263 1.586 o
-4 0 18 139.561 142.324 4.019 o
-4 0 22 1.360 1.249 0.170 o
-4 0 24 1.921 1.674 0.155 o
-4 0 26 12.241 10.874 0.709 o
-4 1 1 92.185 92.535 2.483 o
-4 1 2 58.786 59.657 1.539 o
-4 1 3 1.658 1.733 0.127 o
-4 1 4 32.196 35.527 0.992 o
-4 1 6 178.089 187.037 5.273 o
-4 1 7 88.435 85.081 2.843 o
-4 1 8 176.878 167.965 5.959 o
-4 1 9 46.480 42.303 1.215 o
-4 1 11 1.796 1.940 0.135 o
-4 1 12 84.049 81.484 2.677 o
-4 1 13 16.055 15.791 0.480 o
-4 1 14 17.291 17.304 0.518 o
-4 1 16 22.925 23.275 0.584 o
-4 1 17 4.679 4.680 0.169 o
-4 1 18 1.061 1.087 0.080 o
-4 1 19 55.537 57.990 1.448 o
-4 1 20 12.572 13.333 0.379 o
-4 1 21 1.708 1.424 0.112 o
-4 1 22 23.564 24.017 0.648 o
-4 1 23 9.839 9.861 0.350 o
-4 1 24 2.891 2.796 0.208 o
-4 1 25 4.830 4.974 0.253 o
-4 1 26 2.634 2.873 0.241 o
-4 1 27 6.470 5.606 0.744 o
-4 2 1 54.324 54.047 1.472 o
-4 2 2 13.013 12.957 0.447 o
-4 2 3 76.749 82.398 2.263 o
-4 2 4 60.368 64.881 1.768 o
-4 2 5 5.940 5.987 0.260 o
-4 2 6 5.268 5.572 0.276 o
-4 2 7 6.945 6.881 0.309 o
-4 2 8 82.197 88.011 2.805 o
-4 2 9 14.180 13.917 0.508 o
-4 2 10 31.053 31.694 0.975 o
-4 2 11 7.801 7.530 0.360 o
-4 2 12 0.739 0.556 0.135 o
-4 2 13 3.402 3.581 0.200 o
-4 2 14 23.323 22.799 0.668 o
-4 2 15 36.110 36.774 0.951 o
-4 2 16 10.802 11.521 0.483 o
-4 2 17 7.787 7.699 0.270 o
-4 2 18 8.099 8.453 0.293 o
-4 2 19 6.375 6.686 0.304 o
-4 2 21 4.744 4.726 0.267 o
-4 2 22 4.137 4.579 0.190 o
-4 2 23 19.859 20.355 0.781 o
-4 2 24 2.612 2.580 0.158 o
-4 2 25 3.334 3.314 0.256 o
-4 2 26 1.397 1.468 0.173 o
-4 2 27 7.546 7.885 0.654 o
-4 3 1 5.071 5.184 0.261 o
-4 3 2 14.489 13.242 0.528 o
-4 3 3 22.890 22.361 0.884 o
-4 3 4 239.301 228.872 8.524 o
-4 3 5 28.057 28.558 1.095 o
-4 3 6 8.456 8.683 0.488 o
-4 3 7 5.531 5.236 0.320 o
-4 3 8 0.267 0.202 0.058 o
-4 3 9 36.367 36.738 0.990 o
-4 3 10 63.100 63.796 1.634 o
-4 3 11 20.839 21.691 0.676 o
-4 3 12 12.748 12.481 0.368 o
-4 3 13 1.068 1.268 0.135 o
-4 3 14 32.784 31.858 0.837 o
-4 3 15 6.074 6.046 0.237 o
-4 3 16 4.091 4.104 0.182 o
-4 3 17 15.086 15.778 0.442 o
-4 3 18 2.750 2.642 0.145 o
-4 3 20 6.475 6.311 0.267 o
-4 3 21 1.609 1.541 0.123 o
-4 3 22 1.186 1.178 0.126 o
-4 3 23 0.494 0.386 0.102 o
-4 3 25 0.812 0.677 0.117 o
-4 4 2 5.184 5.241 0.395 o
-4 4 3 61.153 57.498 2.254 o
-4 4 5 11.635 11.365 0.543 o
-4 4 6 28.468 28.679 0.743 o
-4 4 7 9.387 9.399 0.309 o
-4 4 8 4.467 4.499 0.168 o
-4 4 9 2.160 2.086 0.096 o
-4 4 10 2.990 2.945 0.116 o
-4 4 12 0.346 0.383 0.056 o
-4 4 13 29.342 29.264 0.701 o
-4 4 14 23.399 23.099 0.562 o
-4 4 15 0.930 0.851 0.073 o
-4 4 16 1.859 1.906 0.104 o
-4 4 17 4.801 4.670 0.179 o
-4 4 18 2.259 2.284 0.127 o
-4 4 20 4.880 4.537 0.181 o
-4 4 22 3.030 2.955 0.236 o
-4 4 23 5.789 5.227 0.386 o
-4 5 2 23.216 22.394 0.599 o
-4 5 3 2.420 2.360 0.147 o
-4 5 4 0.558 0.440 0.069 o
-4 5 6 5.455 5.006 0.225 o
-4 5 8 8.222 8.173 0.353 o
-4 5 9 0.196 0.157 0.047 o
-4 5 10 12.894 12.519 0.343 o
-4 5 11 1.451 1.391 0.091 o
-4 5 12 7.983 7.557 0.265 o
-4 5 13 0.537 0.664 0.082 o
-4 5 14 13.857 13.350 1.099 o
-4 5 15 0.234 0.217 0.065 o
-4 5 17 1.765 1.926 0.190 o
-4 5 18 12.678 12.215 0.418 o
-4 5 19 0.503 0.423 0.106 o
-4 6 2 4.987 4.586 0.235 o
-4 6 3 13.627 13.400 0.451 o
-4 6 4 3.590 3.363 0.261 o
-4 6 5 5.994 5.874 0.207 o
-4 6 6 1.825 1.695 0.169 o
-4 6 7 10.003 9.543 0.288 o
-4 6 8 1.480 1.216 0.111 o
-4 6 11 0.568 0.557 0.112 o
-4 6 12 4.498 4.504 0.446 o
-4 6 13 21.145 19.798 2.792 o
-4 6 14 5.198 4.914 0.778 o
-4 6 16 1.147 0.931 0.107 o
-4 7 2 4.959 4.646 0.597 o
-4 7 3 5.311 5.253 0.267 o
-4 7 4 2.898 3.003 0.180 o
-4 7 6 0.938 0.827 0.094 o
-4 7 7 2.975 2.921 0.207 o
-4 7 8 2.199 2.090 0.461 o
-4 7 9 8.115 7.917 0.312 o
-4 7 14 0.533 0.652 0.186 o
-3 0 2 15.232 14.897 0.573 o
-3 0 4 93.218 93.254 2.631 o
-3 0 6 12.563 13.129 0.432 o
-3 0 8 22.660 21.136 0.735 o
-3 0 10 4.269 4.023 0.363 o
-3 0 12 152.440 142.861 4.524 o
-3 0 14 18.418 18.397 0.750 o
-3 0 16 14.544 13.966 0.504 o
-3 0 18 35.004 35.844 0.938 o
-3 0 20 10.354 10.845 0.371 o
-3 0 22 101.918 103.930 3.367 o
-3 0 26 4.736 4.476 0.508 o
-3 1 1 333.231 342.856 8.883 o
-3 1 2 35.333 35.402 0.941 o
-3 1 3 158.269 170.483 4.174 o
-3 1 4 240.383 239.672 5.976 o
-3 1 5 211.553 218.048 5.522 o
-3 1 6 0.351 0.332 0.050 o
-3 1 7 343.157 353.982 10.179 o
-3 1 8 8.439 8.326 0.330 o
-3 1 9 63.766 61.891 1.968 o
-3 1 10 3.554 3.825 0.189 o
-3 1 11 164.137 163.786 4.564 o
-3 1 12 55.057 52.589 1.454 o
-3 1 13 0.821 0.739 0.108 o
-3 1 14 0.287 0.300 0.072 o
-3 1 16 33.130 33.295 0.856 o
-3 1 17 62.102 62.921 1.530 o
-3 1 18 40.500 42.483 1.057 o
-3 1 19 0.286 0.216 0.065 o
-3 1 20 2.170 1.923 0.116 o
-3 1 21 8.532 9.554 0.331 o
-3 1 22 2.324 2.298 0.142 o
-3 1 23 1.987 2.077 0.145 o
-3 1 24 0.238 0.294 0.089 o
-3 1 25 1.330 1.658 0.174 o
-3 1 26 18.535 19.122 0.720 o
-3 1 27 2.366 2.629 0.251 o
-3 2 1 84.155 86.377 2.192 o
-3 2 2 179.428 186.582 4.898 o
-3 2 3 297.685 304.423 8.983 o
-3 2 4 27.564 28.288 0.759 o
-3 2 5 2.748 2.816 0.174 o
-3 2 6 139.347 139.805 5.491 o
-3 2 7 166.932 166.951 8.804 o
-3 2 8 286.997 288.414 11.133 o
-3 2 9 50.080 50.974 1.836 o
-3 2 10 11.201 12.295 0.443 o
-3 2 11 23.574 23.728 0.712 o
-3 2 12 2.121 2.187 0.194 o
-3 2 13 54.318 53.646 1.546 o
-3 2 14 0.884 1.127 0.126 o
-3 2 15 29.631 29.878 0.785 o
-3 2 16 15.087 15.466 0.453 o
-3 2 17 1.061 1.199 0.102 o
-3 2 18 45.882 46.249 1.188 o
-3 2 19 0.362 0.292 0.078 o
-3 2 20 3.611 3.717 0.217 o
-3 2 21 11.570 11.955 0.343 o
-3 2 24 3.100 3.109 0.289 o
-3 2 27 1.484 1.350 0.419 o
-3 3 1 3.649 4.155 0.270 o
-3 3 2 253.028 257.888 7.359 o
-3 3 3 3.362 3.405 0.212 o
-3 3 4 45.362 43.272 1.643 o
-3 3 5 21.396 20.410 1.179 o
-3 3 7 3.957 3.962 0.318 o
-3 3 8 18.204 17.989 0.567 o
-3 3 9 4.896 5.185 0.194 o
-3 3 10 20.940 21.433 0.560 o
-3 3 11 1.391 1.347 0.147 o
-3 3 12 43.227 43.941 1.129 o
-3 3 13 9.711 10.134 0.288 o
-3 3 14 72.219 72.903 1.817 o
-3 3 15 1.667 1.721 0.108 o
-3 3 17 1.281 1.217 0.095 o
-3 3 18 3.700 3.848 0.167 o
-3 3 19 11.109 11.351 0.353 o
-3 3 20 4.609 4.683 0.249 o
-3 3 21 6.704 7.135 0.271 o
-3 3 22 11.123 10.243 0.546 o
-3 3 24 11.938 11.662 0.592 o
-3 3 25 2.446 2.307 0.185 o
-3 3 26 2.817 2.016 0.441 o
-3 4 1 21.488 20.997 1.879 o
-3 4 2 10.798 11.286 0.607 o
-3 4 3 58.913 58.727 1.650 o
-3 4 4 29.541 30.196 0.877 o
-3 4 5 0.413 0.384 0.112 o
-3 4 6 25.255 25.431 1.045 o
-3 4 7 16.749 16.589 0.466 o
-3 4 8 0.508 0.619 0.068 o
-3 4 9 0.611 0.605 0.060 o
-3 4 10 39.029 40.472 0.988 o
-3 4 11 4.102 4.308 0.203 o
-3 4 12 2.935 3.006 0.125 o
-3 4 13 33.382 34.470 1.355 o
-3 4 14 6.092 6.171 0.205 o
-3 4 16 4.265 4.656 0.176 o
-3 4 17 11.142 11.782 0.621 o
-3 4 18 4.442 4.655 0.349 o
-3 4 20 9.742 9.476 0.352 o
-3 4 21 0.741 0.807 0.124 o
-3 4 23 8.184 7.553 0.326 o
-3 4 24 4.067 4.133 0.525 o
-3 5 2 2.501 2.229 0.143 o
-3 5 3 4.522 4.242 0.187 o
-3 5 4 9.874 9.778 0.275 o
-3 5 5 1.082 1.082 0.081 o
-3 5 6 37.418 36.247 0.904 o
-3 5 7 4.239 3.920 0.143 o
-3 5 8 0.594 0.497 0.059 o
-3 5 9 4.528 4.394 0.217 o
-3 5 10 4.558 4.273 0.176 o
-3 5 11 1.447 1.465 0.093 o
-3 5 12 13.343 12.946 0.385 o
-3 5 13 0.375 0.390 0.069 o
-3 5 14 1.718 1.853 0.116 o
-3 5 16 18.555 18.436 0.496 o
-3 5 17 1.155 1.005 0.132 o
-3 5 18 1.328 1.145 0.210 o
-3 5 20 2.759 2.808 0.265 o
-3 6 1 9.033 9.293 0.513 o
-3 6 2 1.940 1.954 0.174 o
-3 6 3 0.953 0.888 0.130 o
-3 6 4 1.311 1.394 0.125 o
-3 6 5 0.756 0.885 0.107 o
-3 6 6 0.921 0.860 0.192 o
-3 6 7 0.783 0.800 0.079 o
-3 6 9 4.338 4.441 0.201 o
-3 6 10 3.251 3.072 0.165 o
-3 6 11 0.401 0.329 0.101 o
-3 6 12 3.987 4.123 0.918 o
-3 6 13 1.925 2.128 0.193 o
-3 6 17 7.739 7.218 0.402 o
-3 7 1 0.870 0.641 0.130 o
-3 7 2 5.958 6.631 0.327 o
-3 7 3 0.277 0.389 0.123 o
-3 7 4 5.019 5.113 0.231 o
-3 7 5 1.996 1.517 0.157 o
-3 7 6 0.904 0.844 0.149 o
-3 7 13 4.666 4.912 0.370 o
-3 7 14 1.564 1.620 0.248 o
-3 8 2 4.180 4.255 0.227 o
-3 8 3 1.080 0.859 0.106 o
-3 8 4 0.537 0.557 0.104 o
-3 8 6 1.521 1.431 0.166 o
-2 0 2 610.914 629.454 17.191 o
-2 0 4 2094.419 2046.872 58.192 o
-2 0 6 168.751 179.729 4.986 o
-2 0 8 486.816 457.384 12.693 o
-2 0 10 190.829 191.201 6.144 o
-2 0 12 16.225 17.430 0.709 o
-2 0 14 59.450 58.402 1.695 o
-2 0 16 12.071 12.492 0.402 o
-2 0 18 5.124 5.243 0.229 o
-2 0 20 17.665 17.799 0.934 o
-2 0 22 4.663 4.495 0.250 o
-2 0 26 4.096 3.869 0.479 o
-2 1 1 184.481 189.712 4.519 o
-2 1 2 552.503 581.009 13.741 o
-2 1 3 20.789 20.843 0.530 o
-2 1 4 364.618 369.950 9.158 o
-2 1 5 20.186 21.695 0.687 o
-2 1 6 5.869 5.956 0.212 o
-2 1 7 34.336 34.245 1.121 o
-2 1 8 288.076 299.816 8.630 o
-2 1 9 24.135 23.454 0.744 o
-2 1 10 33.545 33.722 1.271 o
-2 1 11 85.005 84.202 2.573 o
-2 1 12 9.071 9.558 0.343 o
-2 1 13 33.014 32.547 0.870 o
-2 1 14 19.316 18.932 0.551 o
-2 1 15 12.263 11.906 0.370 o
-2 1 16 1.058 1.038 0.099 o
-2 1 17 32.035 32.605 0.824 o
-2 1 18 9.006 9.135 0.279 o
-2 1 19 1.844 1.825 0.127 o
-2 1 20 1.053 0.919 0.106 o
-2 1 21 60.773 64.007 1.721 o
-2 1 22 11.752 12.403 0.388 o
-2 1 24 2.436 2.526 0.178 o
-2 1 25 0.561 0.465 0.122 o
-2 1 26 1.725 1.811 0.231 o
-2 1 27 11.773 12.296 0.528 o
-2 2 1 151.431 151.255 3.987 o
-2 2 2 485.353 483.126 13.329 o
-2 2 3 9.638 9.785 0.337 o
-2 2 4 23.001 22.948 0.622 o
-2 2 5 3.352 3.559 0.192 o
-2 2 6 70.348 70.615 2.088 o
-2 2 7 34.148 34.681 1.218 o
-2 2 8 29.013 28.605 1.550 o
-2 2 9 17.151 16.898 0.735 o
-2 2 10 91.680 94.064 2.652 o
-2 2 11 14.082 13.526 0.442 o
-2 2 12 112.797 110.797 2.963 o
-2 2 13 31.929 31.440 0.905 o
-2 2 14 13.683 14.495 0.447 o
-2 2 15 2.235 2.520 0.123 o
-2 2 16 38.776 38.693 0.985 o
-2 2 17 57.640 57.102 1.470 o
-2 2 18 29.257 30.224 0.797 o
-2 2 19 8.791 8.807 0.277 o
-2 2 20 7.222 7.258 0.290 o
-2 2 21 0.610 0.557 0.082 o
-2 2 22 10.112 10.400 0.361 o
-2 2 23 11.351 11.635 0.359 o
-2 2 24 0.504 0.388 0.082 o
-2 2 25 16.025 16.693 0.598 o
-2 2 26 8.377 7.643 0.633 o
-2 2 27 1.555 1.892 0.454 o
-2 3 1 141.630 138.530 4.892 o
-2 3 2 68.217 68.362 2.059 o
-2 3 3 1.314 1.350 0.165 o
-2 3 4 9.429 9.073 0.588 o
-2 3 5 6.114 6.292 0.330 o
-2 3 6 367.524 363.496 16.876 o
-2 3 7 81.236 79.733 3.520 o
-2 3 8 26.701 25.149 0.714 o
-2 3 9 8.373 8.356 0.301 o
-2 3 10 22.811 23.431 0.592 o
-2 3 11 20.345 21.086 0.592 o
-2 3 12 86.852 87.832 2.292 o
-2 3 13 3.775 3.961 0.283 o
-2 3 14 5.153 4.902 0.173 o
-2 3 15 11.872 12.111 0.429 o
-2 3 16 34.050 33.971 0.850 o
-2 3 17 4.736 4.688 0.174 o
-2 3 18 9.682 9.780 0.293 o
-2 3 19 1.535 1.392 0.161 o
-2 3 20 16.280 16.187 0.477 o
-2 3 22 11.802 11.790 0.506 o
-2 3 23 1.351 1.279 0.176 o
-2 3 24 1.805 1.710 0.221 o
-2 3 26 1.858 1.863 0.461 o
-2 4 1 17.339 18.217 1.352 o
-2 4 2 61.769 59.971 3.320 o
-2 4 3 33.608 30.500 1.947 o
-2 4 4 0.452 0.515 0.107 o
-2 4 5 34.981 35.201 1.560 o
-2 4 6 3.868 3.857 0.231 o
-2 4 7 37.866 36.488 1.285 o
-2 4 8 0.553 0.507 0.074 o
-2 4 9 0.346 0.389 0.054 o
-2 4 10 24.939 25.350 0.639 o
-2 4 11 18.544 19.127 0.489 o
-2 4 13 11.170 12.378 0.556 o
-2 4 14 9.100 9.565 0.294 o
-2 4 15 10.962 10.153 0.435 o
-2 4 16 15.489 14.632 0.453 o
-2 4 17 11.647 11.021 0.374 o
-2 4 18 1.228 1.219 0.133 o
-2 4 20 2.864 2.698 0.204 o
-2 4 21 2.521 2.274 0.192 o
-2 4 23 3.553 3.286 0.220 o
-2 4 24 6.514 5.557 0.575 o
-2 5 1 0.321 0.472 0.075 o
-2 5 2 16.576 16.722 0.494 o
-2 5 3 3.373 3.335 0.233 o
-2 5 4 3.645 3.490 0.136 o
-2 5 5 4.328 4.349 0.336 o
-2 5 7 0.256 0.195 0.050 o
-2 5 8 1.276 1.344 0.104 o
-2 5 9 0.982 1.070 0.117 o
-2 5 10 3.323 3.288 0.144 o
-2 5 11 0.622 0.580 0.067 o
-2 5 12 0.950 0.947 0.094 o
-2 5 13 6.091 6.474 0.598 o
-2 5 14 2.684 2.361 0.281 o
-2 5 16 14.189 14.469 0.640 o
-2 5 17 0.682 0.627 0.183 o
-2 5 19 1.541 1.574 0.235 o
-2 5 20 5.435 5.205 0.327 o
-2 5 21 1.557 1.365 0.214 o
-2 6 3 16.810 16.454 0.811 o
-2 6 5 9.520 10.146 0.335 o
-2 6 7 3.804 4.057 0.167 o
-2 6 8 2.065 2.168 0.122 o
-2 6 9 3.223 3.059 0.193 o
-2 6 11 6.743 6.836 0.363 o
-2 6 12 0.462 0.653 0.112 o
-2 6 14 1.650 1.648 0.145 o
-2 6 15 6.217 6.177 0.630 o
-2 7 1 6.569 6.777 0.311 o
-2 7 4 1.562 1.637 0.136 o
-2 7 5 0.266 0.330 0.089 o
-2 7 6 3.550 3.763 0.176 o
-2 7 7 5.097 5.493 0.250 o
-2 7 8 4.054 3.994 0.778 o
-2 7 10 1.541 1.482 0.306 o
-2 7 12 1.014 0.940 0.239 o
-2 7 15 0.475 0.533 0.163 o
-2 8 2 2.078 2.069 0.200 o
-2 8 4 2.858 2.856 0.166 o
-1 0 2 774.734 775.063 20.603 o
-1 0 4 891.867 864.655 23.749 o
-1 0 6 207.340 207.261 7.756 o
-1 0 8 516.435 503.880 17.657 o
-1 0 10 3.111 3.009 0.175 o
-1 0 12 113.416 113.591 3.638 o
-1 0 14 51.504 50.730 1.488 o
-1 0 16 23.329 24.028 0.715 o
-1 0 18 63.409 64.292 1.713 o
-1 0 20 45.230 45.941 1.313 o
-1 0 22 0.748 0.723 0.127 o
-1 0 24 23.167 23.525 0.760 o
-1 0 26 6.770 6.591 0.583 o
-1 1 1 2911.275 2726.722 83.781 o
-1 1 2 153.340 160.887 4.278 o
-1 1 3 343.403 350.033 9.203 o
-1 1 4 246.007 263.365 7.568 o
-1 1 5 1.066 1.057 0.088 o
-1 1 6 0.498 0.497 0.077 o
-1 1 7 439.908 427.822 14.131 o
-1 1 8 98.481 92.873 2.432 o
-1 1 9 173.525 177.087 7.583 o
-1 1 11 76.803 72.350 2.493 o
-1 1 12 89.446 86.836 2.274 o
-1 1 13 5.823 5.819 0.245 o
-1 1 14 47.061 46.665 1.289 o
-1 1 15 10.650 10.837 0.353 o
-1 1 16 6.683 6.643 0.211 o
-1 1 17 1.892 1.891 0.119 o
-1 1 18 15.635 15.706 0.454 o
-1 1 19 10.012 10.165 0.323 o
-1 1 20 2.965 3.058 0.161 o
-1 1 21 14.349 14.480 0.447 o
-1 1 22 13.058 13.724 0.446 o
-1 1 23 1.739 1.695 0.173 o
-1 1 24 0.659 0.592 0.124 o
-1 1 25 1.433 1.407 0.115 o
-1 1 26 0.338 0.347 0.091 o
-1 2 1 143.879 138.781 3.624 o
-1 2 2 8.152 7.953 0.291 o
-1 2 3 174.116 170.384 6.435 o
-1 2 4 233.649 230.188 6.086 o
-1 2 5 492.181 492.091 14.746 o
-1 2 6 19.739 19.040 0.782 o
-1 2 7 1.310 1.276 0.185 o
-1 2 8 47.579 47.402 1.983 o
-1 2 9 7.816 8.252 0.424 o
-1 2 10 188.461 190.017 5.934 o
-1 2 11 74.372 75.716 2.097 o
-1 2 12 34.930 34.609 0.955 o
-1 2 13 13.081 13.252 0.439 o
-1 2 14 1.314 1.213 0.112 o
-1 2 15 12.688 12.376 0.372 o
-1 2 18 5.779 5.951 0.203 o
-1 2 19 4.370 4.236 0.184 o
-1 2 20 51.108 50.900 1.304 o
-1 2 21 1.071 1.124 0.097 o
-1 2 22 20.054 20.799 0.564 o
-1 2 24 0.428 0.445 0.083 o
-1 2 25 0.545 0.423 0.104 o
-1 2 26 2.201 2.062 0.177 o
-1 3 2 31.687 31.345 1.126 o
-1 3 3 14.265 13.581 0.524 o
-1 3 4 56.613 55.797 2.052 o
-1 3 5 0.756 0.525 0.155 o
-1 3 6 107.149 108.340 4.314 o
-1 3 7 1.814 1.746 0.282 o
-1 3 8 6.612 6.408 0.290 o
-1 3 9 1.161 1.223 0.151 o
-1 3 10 32.989 32.501 0.790 o
-1 3 11 43.658 43.078 1.087 o
-1 3 12 0.204 0.210 0.070 o
-1 3 13 1.168 1.227 0.096 o
-1 3 14 27.520 27.300 0.723 o
-1 3 15 6.402 6.510 0.214 o
-1 3 16 120.760 118.570 3.036 o
-1 3 17 12.208 12.230 0.498 o
-1 3 18 1.180 1.237 0.104 o
-1 3 19 4.246 3.935 0.176 o
-1 3 20 0.232 0.261 0.073 o
-1 3 21 13.800 14.052 0.408 o
-1 3 22 5.734 5.537 0.227 o
-1 3 23 2.334 2.265 0.177 o
-1 3 24 14.480 14.346 0.583 o
-1 3 25 1.021 0.859 0.176 o
-1 4 1 6.530 5.599 0.740 o
-1 4 2 9.885 10.281 0.970 o
-1 4 4 0.346 0.387 0.102 o
-1 4 5 62.132 63.057 4.275 o
-1 4 6 83.680 89.857 6.027 o
-1 4 7 30.177 29.387 0.990 o
-1 4 8 7.808 8.960 0.638 o
-1 4 9 1.337 1.421 0.091 o
-1 4 11 3.015 3.197 0.125 o
-1 4 12 21.484 22.618 1.757 o
-1 4 13 0.325 0.400 0.091 o
-1 4 14 3.651 3.536 0.185 o
-1 4 15 39.950 40.040 1.699 o
-1 4 16 4.406 4.120 0.231 o
-1 4 17 11.072 10.627 0.386 o
-1 4 19 0.678 0.620 0.085 o
-1 4 20 10.705 9.949 1.060 o
-1 4 21 2.558 2.379 0.193 o
-1 4 22 1.266 1.090 0.236 o
-1 5 1 10.472 10.286 0.365 o
-1 5 2 74.182 78.735 2.398 o
-1 5 3 1.180 1.122 0.098 o
-1 5 4 5.042 4.899 0.209 o
-1 5 6 33.572 32.197 1.173 o
-1 5 7 1.063 1.034 0.090 o
-1 5 8 0.804 0.978 0.081 o
-1 5 9 7.275 7.585 0.260 o
-1 5 10 15.483 15.787 0.564 o
-1 5 11 1.602 1.403 0.255 o
-1 5 12 14.780 15.120 0.714 o
-1 5 14 1.961 2.137 0.187 o
-1 5 15 1.223 1.491 0.131 o
-1 6 1 2.367 2.174 0.184 o
-1 6 2 7.144 7.479 0.315 o
-1 6 4 1.863 2.110 0.152 o
-1 6 5 0.826 0.815 0.101 o
-1 6 6 9.673 10.610 0.501 o
-1 6 7 9.748 10.355 0.371 o
-1 6 8 2.792 2.908 0.177 o
-1 6 10 0.557 0.511 0.087 o
-1 6 13 3.696 3.387 0.194 o
-1 6 15 5.682 6.050 0.245 o
-1 6 16 0.668 0.655 0.100 o
-1 6 17 2.408 2.190 0.266 o
-1 7 1 1.568 1.594 0.190 o
-1 7 3 3.698 3.733 0.230 o
-1 7 4 3.704 3.838 0.344 o
-1 7 6 4.306 4.254 0.187 o
-1 7 11 4.933 4.417 0.405 o
-1 7 14 4.211 4.141 0.325 o
-1 8 2 1.180 0.979 0.140 o
-1 8 4 1.097 1.085 0.135 o
-1 8 6 0.285 0.457 0.121 o
-1 8 8 0.792 0.722 0.213 o
0 0 2 151.183 147.390 5.339 o
0 0 4 72.678 76.662 2.027 o
0 0 6 1049.963 1056.212 28.914 o
0 0 8 298.242 300.089 8.839 o
0 0 10 413.706 417.052 12.621 o
0 0 12 14.604 14.248 0.607 o
0 0 14 52.989 54.116 1.666 o
0 0 16 11.114 11.121 0.397 o
0 0 18 0.559 0.587 0.096 o
0 0 20 10.751 10.312 0.378 o
0 0 22 17.087 16.985 0.664 o
0 0 24 1.360 1.241 0.206 o
0 0 26 2.205 1.768 0.387 o
0 1 1 457.195 462.999 14.506 o
0 1 2 90.455 89.840 2.540 o
0 1 3 18.657 18.189 0.500 o
0 1 4 1573.321 1536.653 54.197 o
0 1 5 71.771 73.058 1.813 o
0 1 6 318.694 327.750 8.542 o
0 1 7 38.017 38.460 0.965 o
0 1 8 29.029 29.557 0.777 o
0 1 9 38.211 38.406 1.036 o
0 1 10 149.309 155.886 4.249 o
0 1 11 209.172 206.200 5.452 o
0 1 13 26.780 26.578 0.719 o
0 1 14 9.163 8.760 0.301 o
0 1 15 3.683 3.841 0.171 o
0 1 16 3.693 3.927 0.165 o
0 1 17 20.810 20.815 0.690 o
0 1 18 26.515 26.213 0.712 o
0 1 19 52.761 53.031 1.590 o
0 1 20 3.248 3.289 0.165 o
0 1 21 16.912 17.741 0.508 o
0 1 22 4.395 4.461 0.169 o
0 1 23 11.229 11.072 0.639 o
0 1 24 4.403 4.311 0.245 o
0 1 25 1.090 0.838 0.207 o
0 1 26 2.347 2.085 0.389 o
0 2 0 12.875 13.458 0.615 o
0 2 1 72.037 73.836 2.091 o
0 2 2 132.831 130.846 3.432 o
0 2 4 188.862 180.568 5.696 o
0 2 5 50.219 51.329 1.520 o
0 2 6 5.466 5.500 0.258 o
0 2 7 142.317 146.835 4.112 o
0 2 9 57.147 58.456 1.874 o
0 2 10 26.878 26.467 0.769 o
0 2 11 1.453 1.410 0.145 o
0 2 12 17.259 17.883 0.548 o
0 2 13 10.466 10.475 0.301 o
0 2 14 60.131 59.920 1.477 o
0 2 15 101.167 101.682 2.479 o
0 2 16 2.854 2.797 0.130 o
0 2 18 12.190 12.025 0.417 o
0 2 19 12.825 12.987 0.407 o
0 2 20 27.013 26.964 0.712 o
0 2 21 14.134 13.875 0.426 o
0 2 22 0.416 0.384 0.080 o
0 2 23 4.402 3.910 0.189 o
0 2 24 7.669 8.309 0.431 o
0 2 25 8.812 8.412 0.332 o
0 3 1 51.786 48.708 1.770 o
0 3 2 117.184 119.242 3.829 o
0 3 3 84.492 87.987 3.278 o
0 3 4 56.869 55.294 2.005 o
0 3 5 15.716 16.071 0.722 o
0 3 7 0.712 0.915 0.234 o
0 3 8 101.308 99.574 2.957 o
0 3 9 42.175 42.514 1.436 o
0 3 10 1.270 1.222 0.078 o
0 3 11 1.505 1.577 0.124 o
0 3 12 7.039 7.023 0.228 o
0 3 14 28.896 28.838 0.735 o
0 3 16 1.242 1.186 0.092 o
0 3 17 5.484 5.362 0.227 o
0 3 18 4.822 4.857 0.206 o
0 3 19 0.384 0.403 0.098 o
0 3 20 13.091 13.011 0.387 o
0 3 21 2.712 2.753 0.160 o
0 3 22 4.695 4.648 0.236 o
0 3 24 7.623 7.860 0.412 o
0 4 0 2.870 3.015 0.632 o
0 4 1 12.123 12.390 1.060 o
0 4 2 58.649 61.001 3.309 o
0 4 3 4.338 3.857 0.648 o
0 4 4 12.754 14.010 0.982 o
0 4 5 79.277 78.982 4.828 o
0 4 6 6.994 6.608 1.112 o
0 4 8 5.645 5.224 0.309 o
0 4 9 6.505 6.261 0.226 o
0 4 10 17.328 16.091 0.437 o
0 4 11 0.642 0.651 0.083 o
0 4 12 25.386 23.617 0.688 o
0 4 13 6.400 6.775 0.251 o
0 4 14 0.112 0.209 0.056 o
0 4 15 27.577 26.997 0.718 o
0 4 16 17.752 16.981 0.510 o
0 4 17 0.810 0.735 0.158 o
0 4 18 2.535 2.957 0.169 o
0 4 19 3.713 3.850 0.229 o
0 4 20 4.289 4.703 0.651 o
0 4 22 1.293 1.561 0.144 o
0 5 2 7.889 7.868 0.308 o
0 5 3 1.243 1.179 0.101 o
0 5 4 25.384 25.167 0.639 o
0 5 5 3.237 3.396 0.228 o
0 5 6 77.587 81.265 3.106 o
0 5 8 6.780 6.828 0.243 o
0 5 10 0.209 0.266 0.074 o
0 5 11 4.002 4.059 0.181 o
0 5 12 8.577 9.603 0.473 o
0 5 13 1.083 1.176 0.123 o
0 5 14 14.881 16.763 0.894 o
0 5 15 1.796 2.010 0.238 o
0 5 16 25.644 26.833 1.763 o
0 5 18 1.040 1.028 0.212 o
0 5 19 2.044 2.245 0.263 o
0 5 20 2.878 2.906 0.270 o
0 6 0 18.429 19.090 0.790 o
0 6 1 6.260 7.181 0.307 o
0 6 2 10.359 9.902 0.371 o
0 6 3 4.140 4.457 0.239 o
0 6 4 0.767 0.775 0.101 o
0 6 5 30.170 29.740 1.882 o
0 6 7 0.205 0.213 0.068 o
0 6 8 0.885 0.812 0.083 o
0 6 9 0.563 0.731 0.097 o
0 6 10 12.605 12.857 0.882 o
0 6 11 1.459 1.388 0.141 o
0 6 12 5.173 5.438 0.246 o
0 6 13 5.059 5.374 0.405 o
0 6 15 1.831 1.544 0.139 o
0 6 16 2.052 2.281 0.221 o
0 6 17 0.700 0.662 0.199 o
0 7 1 9.301 9.180 0.453 o
0 7 5 1.007 0.814 0.109 o
0 7 8 1.177 0.977 0.276 o
0 7 9 7.618 7.691 0.762 o
0 7 10 2.029 2.141 0.334 o
0 7 11 0.877 0.782 0.246 o
0 7 14 0.837 0.855 0.207 o
0 8 2 0.290 0.423 0.118 o
0 8 4 0.293 0.337 0.087 o
1 0 0 369.046 368.498 9.499 o
1 0 2 10.059 10.300 0.348 o
1 0 4 1909.598 1753.889 66.001 o
1 0 6 226.924 218.034 8.157 o
1 0 8 75.171 73.443 2.192 o
1 0 10 685.005 707.271 22.591 o
1 0 12 6.617 6.328 0.313 o
1 0 14 88.279 89.218 2.610 o
1 0 16 12.973 12.491 0.484 o
1 0 18 90.247 88.306 2.472 o
1 0 20 93.921 96.279 2.867 o
1 0 22 4.488 4.072 0.302 o
1 0 24 1.371 1.129 0.199 o
1 1 0 1602.087 1532.550 41.397 o
1 1 1 40.519 41.243 1.061 o
1 1 2 431.536 444.734 12.327 o
1 1 3 825.116 807.324 21.789 o
1 1 4 67.777 67.090 1.638 o
1 1 5 118.153 115.461 3.113 o
1 1 6 213.501 216.789 5.656 o
1 1 7 18.562 18.608 0.511 o
1 1 8 96.604 97.273 2.636 o
1 1 9 190.886 202.331 5.519 o
1 1 10 74.044 76.328 1.917 o
1 1 12 1.937 1.951 0.138 o
1 1 13 7.213 6.948 0.277 o
1 1 14 129.416 128.225 3.392 o
1 1 15 4.482 4.312 0.211 o
1 1 16 24.204 23.876 0.646 o
1 1 17 3.921 3.722 0.201 o
1 1 18 4.373 4.511 0.160 o
1 1 19 12.105 11.653 0.334 o
1 1 20 5.495 5.546 0.250 o
1 1 21 10.400 10.628 0.361 o
1 1 22 3.170 3.075 0.145 o
1 1 23 8.771 8.126 0.305 o
1 1 24 15.117 14.740 0.635 o
1 1 25 2.620 2.129 0.239 o
1 2 0 325.128 315.790 8.923 o
1 2 1 278.082 268.771 7.747 o
1 2 3 361.624 372.776 10.946 o
1 2 4 20.356 19.792 0.688 o
1 2 5 91.907 95.535 2.720 o
1 2 6 162.555 166.736 4.496 o
1 2 7 82.519 89.496 2.481 o
1 2 8 6.416 6.556 0.327 o
1 2 9 7.488 6.830 0.422 o
1 2 10 4.749 4.642 0.227 o
1 2 11 8.955 9.118 0.355 o
1 2 12 15.053 14.848 0.410 o
1 2 13 28.244 27.800 0.707 o
1 2 14 6.826 6.798 0.215 o
1 2 15 0.923 0.940 0.081 o
1 2 16 5.736 6.000 0.179 o
1 2 17 4.310 4.644 0.194 o
1 2 19 6.268 6.126 0.370 o
1 2 20 0.499 0.482 0.093 o
1 2 21 2.525 2.463 0.143 o
1 2 22 12.011 11.838 0.440 o
1 2 23 0.465 0.451 0.095 o
1 2 24 10.591 9.943 1.018 o
1 2 25 10.600 9.608 1.345 o
1 3 0 19.189 18.766 0.837 o
1 3 1 30.293 30.386 1.249 o
1 3 2 47.622 45.646 1.352 o
1 3 4 8.247 8.476 0.470 o
1 3 5 23.382 23.383 0.754 o
1 3 6 46.439 47.585 1.655 o
1 3 7 19.129 20.333 1.104 o
1 3 8 25.613 22.996 0.777 o
1 3 9 10.379 8.520 0.351 o
1 3 10 0.731 0.626 0.070 o
1 3 11 15.836 16.016 0.411 o
1 3 12 35.929 35.460 0.948 o
1 3 13 29.893 27.881 0.732 o
1 3 14 15.570 15.304 0.449 o
1 3 15 0.956 0.856 0.101 o
1 3 16 0.309 0.364 0.076 o
1 3 17 1.726 1.414 0.123 o
1 3 18 38.544 38.555 1.136 o
1 3 19 15.679 15.415 0.593 o
1 3 21 1.279 1.223 0.120 o
1 3 23 2.459 2.555 0.196 o
1 3 24 4.636 4.323 0.650 o
1 4 0 17.790 18.197 1.339 o
1 4 2 57.491 54.763 3.017 o
1 4 3 15.199 14.938 1.198 o
1 4 4 3.064 3.458 0.279 o
1 4 5 54.247 55.536 6.188 o
1 4 6 8.725 9.796 0.574 o
1 4 7 1.443 1.059 0.172 o
1 4 8 61.301 57.230 1.791 o
1 4 9 12.617 13.262 1.044 o
1 4 11 1.454 1.488 0.082 o
1 4 12 1.602 1.658 0.125 o
1 4 13 8.348 9.089 0.617 o
1 4 14 1.903 2.066 0.150 o
1 4 15 19.403 20.352 0.600 o
1 4 16 13.631 12.677 0.487 o
1 4 17 4.344 4.234 0.235 o
1 4 18 0.788 0.828 0.090 o
1 4 19 4.646 4.871 0.481 o
1 4 20 2.732 2.803 0.524 o
1 4 22 8.073 7.902 1.303 o
1 5 0 4.641 4.729 0.237 o
1 5 2 12.882 12.709 0.419 o
1 5 3 0.717 0.817 0.087 o
1 5 4 94.667 94.836 2.357 o
1 5 5 4.353 4.412 0.185 o
1 5 7 0.989 1.052 0.112 o
1 5 8 8.306 9.064 0.319 o
1 5 9 0.806 1.056 0.128 o
1 5 10 2.392 2.473 0.183 o
1 5 11 0.973 1.089 0.131 o
1 5 12 23.688 26.457 0.984 o
1 5 13 0.393 0.352 0.096 o
1 5 14 20.724 24.595 1.249 o
1 5 16 7.462 8.032 0.476 o
1 5 20 2.395 2.261 0.257 o
1 6 0 6.732 6.839 0.299 o
1 6 1 6.299 6.032 0.397 o
1 6 2 2.987 3.053 0.207 o
1 6 3 0.657 0.732 0.122 o
1 6 4 5.605 5.546 0.243 o
1 6 5 12.362 13.223 0.406 o
1 6 6 4.164 4.539 0.216 o
1 6 7 0.340 0.356 0.090 o
1 6 8 13.431 13.705 0.736 o
1 6 9 12.498 12.476 0.480 o
1 6 10 6.895 7.562 0.306 o
1 6 13 2.449 2.400 0.201 o
1 6 14 0.649 0.758 0.114 o
1 6 15 13.072 12.802 0.399 o
1 6 16 1.321 1.027 0.222 o
1 6 17 1.901 1.859 0.255 o
1 7 1 1.798 1.585 0.166 o
1 7 4 1.735 2.004 0.182 o
1 7 5 4.190 4.184 0.636 o
1 7 9 4.932 5.047 0.440 o
1 7 11 2.952 2.557 0.340 o
1 7 13 2.885 2.867 0.310 o
1 8 0 4.813 4.851 0.329 o
2 0 0 22.936 24.424 0.766 o
2 0 2 3781.418 3351.224 86.217 o
2 0 4 8.061 8.469 0.331 o
2 0 6 4.028 4.131 0.194 o
2 0 8 99.870 102.514 4.360 o
2 0 10 35.100 33.170 0.959 o
2 0 12 77.763 78.882 1.981 o
2 0 14 101.003 101.535 3.486 o
2 0 16 37.048 36.186 1.003 o
2 0 18 5.256 5.234 0.308 o
2 0 20 19.820 19.250 0.642 o
2 0 22 15.868 15.200 1.101 o
2 0 24 36.749 32.943 2.357 o
2 1 0 380.798 386.030 9.342 o
2 1 1 68.653 69.451 1.712 o
2 1 2 2.844 2.745 0.130 o
2 1 3 477.178 470.160 13.332 o
2 1 4 9.762 9.661 0.299 o
2 1 5 20.474 21.331 0.584 o
2 1 6 435.285 430.262 12.283 o
2 1 7 30.971 30.847 0.881 o
2 1 8 49.046 49.930 1.451 o
2 1 9 179.858 183.625 5.195 o
2 1 10 43.227 42.534 1.399 o
2 1 11 1.966 1.869 0.142 o
2 1 12 24.427 25.170 0.709 o
2 1 13 122.736 121.701 3.007 o
2 1 14 3.186 3.110 0.122 o
2 1 15 5.439 5.515 0.180 o
2 1 16 0.455 0.379 0.060 o
2 1 17 4.651 4.469 0.168 o
2 1 18 21.901 21.050 0.546 o
2 1 19 35.085 35.258 0.891 o
2 1 20 26.657 25.393 0.682 o
2 1 21 9.957 9.480 0.396 o
2 1 22 0.702 0.664 0.088 o
2 1 23 7.407 7.389 0.257 o
2 1 24 9.085 8.201 0.325 o
2 2 0 527.729 531.020 13.841 o
2 2 1 1.817 1.728 0.137 o
2 2 2 3.038 3.106 0.175 o
2 2 3 17.466 18.050 0.576 o
2 2 4 1.182 1.103 0.112 o
2 2 5 156.357 157.935 4.624 o
2 2 6 10.349 10.993 0.392 o
2 2 7 58.190 59.208 1.830 o
2 2 8 57.825 59.519 1.834 o
2 2 9 79.609 68.822 5.549 o
2 2 10 76.735 70.009 4.032 o
2 2 11 32.989 32.319 0.878 o
2 2 12 0.435 0.361 0.066 o
2 2 13 36.745 36.632 0.984 o
2 2 14 1.634 1.465 0.106 o
2 2 15 13.154 12.995 0.469 o
2 2 16 13.190 13.113 0.396 o
2 2 17 48.774 48.986 1.248 o
2 2 18 2.280 2.435 0.136 o
2 2 20 2.014 2.018 0.152 o
2 2 22 3.228 3.136 0.142 o
2 2 23 11.939 12.437 0.391 o
2 3 0 12.690 12.827 0.496 o
2 3 1 30.172 28.955 1.222 o
2 3 2 91.587 90.826 3.314 o
2 3 3 4.522 4.813 0.274 o
2 3 4 226.108 229.296 7.955 o
2 3 5 7.407 8.092 0.387 o
2 3 6 2.289 2.672 0.235 o
2 3 7 29.841 28.638 1.931 o
2 3 8 1.751 1.702 0.172 o
2 3 9 1.369 1.372 0.096 o
2 3 10 2.632 2.286 0.142 o
2 3 11 0.202 0.198 0.036 o
2 3 12 3.983 3.940 0.134 o
2 3 14 8.765 8.633 0.368 o
2 3 15 5.365 5.377 0.276 o
2 3 16 3.943 4.076 0.171 o
2 3 17 0.229 0.238 0.054 o
2 3 18 1.627 1.823 0.107 o
2 3 19 0.313 0.364 0.081 o
2 3 20 0.324 0.267 0.070 o
2 3 21 1.934 1.788 0.206 o
2 3 22 5.127 5.756 0.248 o
2 3 23 5.393 5.684 0.558 o
2 4 0 13.686 13.582 1.137 o
2 4 2 1.910 2.212 0.301 o
2 4 3 55.612 58.171 2.766 o
2 4 4 56.157 53.230 2.286 o
2 4 5 19.179 19.934 1.400 o
2 4 6 3.573 3.115 0.254 o
2 4 7 18.936 18.594 0.542 o
2 4 8 5.639 5.475 0.299 o
2 4 9 7.202 7.400 0.253 o
2 4 10 1.763 1.639 0.290 o
2 4 12 36.664 35.577 1.422 o
2 4 13 12.178 12.898 0.691 o
2 4 14 8.276 7.723 0.276 o
2 4 15 5.945 5.977 0.407 o
2 4 17 6.497 6.237 0.300 o
2 4 18 11.680 13.958 0.542 o
2 4 19 3.964 3.604 0.235 o
2 4 21 0.263 0.310 0.092 o
2 5 0 12.059 12.319 0.655 o
2 5 1 3.970 4.239 0.219 o
2 5 2 1.975 1.911 0.163 o
2 5 3 1.447 1.502 0.114 o
2 5 4 2.974 3.048 0.194 o
2 5 5 1.320 1.287 0.106 o
2 5 6 1.935 2.105 0.135 o
2 5 7 0.269 0.268 0.070 o
2 5 8 75.381 77.304 3.998 o
2 5 9 5.968 6.732 0.517 o
2 5 10 3.849 3.927 0.177 o
2 5 11 0.356 0.352 0.070 o
2 5 12 0.831 0.941 0.108 o
2 5 13 1.684 1.420 0.167 o
2 5 14 19.732 22.063 0.767 o
2 5 15 1.236 1.518 0.138 o
2 5 16 7.291 8.198 0.278 o
2 5 18 16.823 18.177 0.628 o
2 5 19 0.997 1.213 0.223 o
2 6 0 0.916 0.705 0.120 o
2 6 1 0.595 0.552 0.133 o
2 6 2 7.492 7.270 0.310 o
2 6 3 13.641 14.587 0.482 o
2 6 4 7.462 7.428 0.310 o
2 6 6 0.322 0.347 0.112 o
2 6 7 5.931 5.629 0.290 o
2 6 8 0.755 1.006 0.089 o
2 6 9 0.571 0.385 0.085 o
2 6 11 3.687 4.092 0.483 o
2 6 12 8.356 8.500 0.320 o
2 6 13 0.664 0.660 0.113 o
2 6 14 4.704 4.847 0.483 o
2 6 16 1.147 0.999 0.221 o
2 7 0 1.300 1.292 0.159 o
2 7 1 2.588 2.765 0.272 o
2 7 2 0.392 0.482 0.120 o
2 7 3 2.341 2.390 0.198 o
2 7 4 4.774 5.053 0.275 o
2 7 6 2.380 2.283 0.139 o
2 7 7 3.467 3.350 0.232 o
2 7 8 0.431 0.529 0.122 o
2 7 13 0.810 0.849 0.210 o
2 8 0 2.934 2.806 0.198 o
2 8 4 1.640 1.536 0.193 o
3 0 0 410.715 394.058 12.767 o
3 0 2 193.832 187.246 5.741 o
3 0 4 22.207 21.830 0.681 o
3 0 6 594.093 601.183 17.269 o
3 0 8 10.793 10.804 0.436 o
3 0 10 1.477 1.323 0.126 o
3 0 12 283.355 294.108 11.613 o
3 0 14 3.729 4.014 0.169 o
3 0 16 11.071 10.858 0.333 o
3 0 18 10.488 9.909 0.322 o
3 0 20 37.762 35.195 0.958 o
3 0 22 36.014 37.060 1.291 o
3 0 24 1.930 1.685 0.188 o
3 1 0 111.774 110.619 2.936 o
3 1 1 450.514 441.965 11.157 o
3 1 2 450.801 450.461 11.077 o
3 1 3 42.319 42.853 1.129 o
3 1 4 11.642 11.748 0.361 o
3 1 5 5.470 5.524 0.211 o
3 1 6 4.864 4.798 0.188 o
3 1 7 29.718 29.753 0.826 o
3 1 8 37.539 37.902 1.012 o
3 1 9 1.321 1.523 0.118 o
3 1 10 86.234 83.328 2.440 o
3 1 11 13.917 13.167 0.352 o
3 1 12 10.925 10.503 0.316 o
3 1 13 36.786 36.158 0.991 o
3 1 14 0.639 0.656 0.052 o
3 1 15 3.210 2.933 0.114 o
3 1 16 60.354 57.785 1.399 o
3 1 17 1.403 1.316 0.082 o
3 1 18 3.069 3.107 0.124 o
3 1 19 7.845 7.568 0.330 o
3 1 20 0.465 0.405 0.061 o
3 1 21 4.473 4.377 0.160 o
3 1 22 1.007 0.769 0.086 o
3 1 23 24.040 22.813 0.596 o
3 1 24 5.521 4.944 0.201 o
3 2 0 1.862 2.144 0.146 o
3 2 1 7.403 8.097 0.305 o
3 2 2 277.000 276.894 7.362 o
3 2 3 108.501 104.007 2.877 o
3 2 4 97.038 92.684 2.512 o
3 2 5 63.651 62.018 1.695 o
3 2 6 44.970 45.461 1.406 o
3 2 7 4.044 3.889 0.231 o
3 2 8 104.898 101.571 3.103 o
3 2 9 2.354 2.249 0.130 o
3 2 10 11.525 11.038 0.402 o
3 2 11 9.324 9.276 0.252 o
3 2 12 22.507 22.708 0.537 o
3 2 13 3.040 3.056 0.114 o
3 2 14 8.253 8.173 0.241 o
3 2 15 1.272 1.320 0.120 o
3 2 16 2.024 1.953 0.099 o
3 2 17 7.167 7.085 0.305 o
3 2 18 21.523 21.823 0.607 o
3 2 19 15.384 14.570 0.405 o
3 2 20 6.779 6.278 0.301 o
3 2 21 5.655 5.509 0.388 o
3 2 22 1.908 1.866 0.127 o
3 2 23 1.196 1.128 0.106 o
3 3 0 72.512 74.045 2.185 o
3 3 1 2.342 2.173 0.191 o
3 3 2 20.879 20.519 0.729 o
3 3 3 99.488 96.144 2.836 o
3 3 4 109.854 106.260 3.164 o
3 3 6 20.346 20.566 1.699 o
3 3 7 2.221 2.246 0.173 o
3 3 8 120.372 117.626 7.759 o
3 3 9 36.077 32.562 0.992 o
3 3 10 0.252 0.289 0.054 o
3 3 11 16.503 16.075 0.466 o
3 3 12 33.765 34.698 0.873 o
3 3 13 12.667 12.956 0.503 o
3 3 14 51.198 52.046 1.321 o
3 3 15 4.714 4.925 0.246 o
3 3 16 8.470 9.171 0.488 o
3 3 17 7.565 8.088 0.260 o
3 3 18 2.149 2.073 0.169 o
3 3 19 0.834 0.830 0.108 o
3 3 20 0.504 0.462 0.083 o
3 3 21 3.973 4.532 0.229 o
3 3 22 6.368 6.818 0.920 o
3 4 0 6.435 6.209 0.493 o
3 4 2 2.515 2.407 0.267 o
3 4 3 19.177 17.781 0.742 o
3 4 4 39.766 36.293 1.299 o
3 4 6 0.286 0.361 0.065 o
3 4 7 57.504 56.110 2.422 o
3 4 8 21.049 21.370 1.781 o
3 4 9 10.177 9.946 0.297 o
3 4 10 11.870 11.469 1.033 o
3 4 12 1.889 1.871 0.096 o
3 4 13 14.244 14.635 0.494 o
3 4 14 3.366 3.354 0.270 o
3 4 16 2.424 2.264 0.198 o
3 4 17 17.186 18.146 1.320 o
3 4 18 10.224 9.251 0.420 o
3 4 19 1.061 1.068 0.201 o
3 5 0 17.981 17.052 0.523 o
3 5 1 9.352 9.462 0.335 o
3 5 2 3.143 3.161 0.245 o
3 5 5 1.933 1.968 0.126 o
3 5 6 16.313 16.909 0.529 o
3 5 7 4.962 5.237 0.315 o
3 5 8 1.665 1.726 0.111 o
3 5 9 0.408 0.324 0.062 o
3 5 12 1.737 1.966 0.183 o
3 5 13 0.382 0.430 0.092 o
3 5 14 1.739 1.957 0.230 o
3 5 15 2.033 2.113 0.147 o
3 5 16 4.404 4.654 0.486 o
3 5 18 15.333 16.673 0.598 o
3 6 1 1.084 0.873 0.130 o
3 6 2 1.375 1.505 0.183 o
3 6 3 0.627 0.626 0.120 o
3 6 4 1.205 1.120 0.133 o
3 6 5 3.567 3.402 0.221 o
3 6 6 0.798 0.877 0.137 o
3 6 7 15.526 16.968 0.723 o
3 6 8 0.268 0.298 0.079 o
3 6 9 0.724 0.578 0.101 o
3 6 10 2.259 2.453 0.147 o
3 6 11 2.807 2.984 0.190 o
3 6 12 2.867 3.066 0.191 o
3 6 13 4.228 4.162 0.600 o
3 6 14 0.497 0.610 0.132 o
3 6 15 0.849 0.995 0.114 o
3 7 0 1.324 1.418 0.165 o
3 7 2 4.001 4.282 0.247 o
3 7 3 5.266 5.748 0.279 o
3 7 4 0.810 0.936 0.129 o
3 7 6 0.653 0.688 0.112 o
3 7 8 1.287 1.522 0.217 o
3 7 9 2.164 2.022 0.326 o
3 7 10 1.616 1.581 0.288 o
3 7 11 2.942 3.208 0.344 o
3 7 12 0.903 0.843 0.219 o
3 8 2 3.601 3.543 0.208 o
4 0 0 47.561 46.292 2.235 o
4 0 4 38.213 38.900 1.179 o
4 0 6 13.926 13.695 0.525 o
4 0 8 1.026 1.086 0.129 o
4 0 10 4.303 4.398 0.174 o
4 0 12 3.050 2.826 0.129 o
4 0 14 0.099 0.157 0.042 o
4 0 16 49.521 49.446 1.519 o
4 0 22 31.197 28.716 1.565 o
4 1 0 2.385 2.525 0.151 o
4 1 1 152.571 158.178 4.326 o
4 1 2 191.794 187.807 4.881 o
4 1 3 218.549 213.517 5.406 o
4 1 4 3.124 3.145 0.150 o
4 1 5 91.600 89.523 2.239 o
4 1 6 40.148 40.629 1.093 o
4 1 7 8.424 8.640 0.313 o
4 1 8 28.014 29.151 0.849 o
4 1 9 20.715 20.755 0.552 o
4 1 10 0.304 0.296 0.043 o
4 1 11 130.603 125.907 3.044 o
4 1 12 11.727 11.521 0.379 o
4 1 13 6.310 6.011 0.179 o
4 1 14 2.408 2.469 0.116 o
4 1 15 9.562 9.345 0.262 o
4 1 16 3.305 3.175 0.161 o
4 1 17 8.832 8.668 0.259 o
4 1 18 0.527 0.464 0.081 o
4 1 19 1.435 1.469 0.098 o
4 1 20 18.291 16.938 0.464 o
4 1 21 14.642 13.853 0.457 o
4 1 22 5.038 4.513 0.189 o
4 1 23 0.697 0.663 0.117 o
4 2 0 118.968 116.753 3.009 o
4 2 1 74.870 75.218 2.102 o
4 2 2 301.284 295.021 7.829 o
4 2 3 55.791 55.215 1.433 o
4 2 4 15.562 15.206 0.506 o
4 2 5 0.524 0.572 0.103 o
4 2 6 7.090 7.070 0.348 o
4 2 7 158.114 146.867 4.918 o
4 2 8 0.631 0.694 0.067 o
4 2 9 14.794 15.277 0.410 o
4 2 10 42.161 41.484 1.001 o
4 2 11 1.273 1.230 0.078 o
4 2 12 103.574 103.598 3.045 o
4 2 13 27.972 28.566 0.696 o
4 2 14 11.281 11.530 0.302 o
4 2 15 27.039 28.245 0.823 o
4 2 16 2.441 2.373 0.115 o
4 2 17 5.464 5.450 0.296 o
4 2 18 5.746 5.921 0.285 o
4 2 19 2.994 2.976 0.162 o
4 2 20 3.152 3.283 0.156 o
4 2 21 2.435 2.468 0.146 o
4 2 22 13.415 13.814 0.468 o
4 3 0 6.077 6.107 0.338 o
4 3 1 36.300 38.348 1.338 o
4 3 2 1.061 0.944 0.153 o
4 3 3 1.415 1.404 0.174 o
4 3 4 50.491 47.303 1.616 o
4 3 5 3.678 3.983 0.195 o
4 3 6 110.467 106.311 3.559 o
4 3 7 0.299 0.381 0.072 o
4 3 8 56.222 54.557 1.332 o
4 3 9 6.423 6.181 0.191 o
4 3 10 10.239 9.784 0.483 o
4 3 11 0.396 0.456 0.057 o
4 3 13 13.909 14.191 0.628 o
4 3 16 24.091 24.618 0.856 o
4 3 17 3.126 3.619 0.180 o
4 3 18 34.324 33.435 0.967 o
4 3 19 2.702 2.434 0.178 o
4 3 21 3.949 3.342 0.237 o
4 4 0 67.766 65.131 2.412 o
4 4 2 0.566 0.548 0.106 o
4 4 3 2.871 2.953 0.198 o
4 4 4 1.561 1.605 0.158 o
4 4 5 20.943 19.882 0.561 o
4 4 6 14.282 13.964 0.796 o
4 4 7 42.281 43.013 1.092 o
4 4 8 21.686 23.186 1.471 o
4 4 9 1.076 1.193 0.086 o
4 4 10 1.452 1.516 0.262 o
4 4 11 0.489 0.420 0.073 o
4 4 12 0.225 0.206 0.060 o
4 4 13 0.593 0.570 0.106 o
4 4 14 22.280 24.029 1.167 o
4 4 15 5.330 5.931 0.278 o
4 4 17 19.517 21.255 1.581 o
4 5 1 2.146 2.385 0.188 o
4 5 2 0.886 0.903 0.128 o
4 5 3 3.747 3.622 0.381 o
4 5 4 23.821 25.460 0.727 o
4 5 5 2.138 2.240 0.171 o
4 5 6 10.061 10.527 0.427 o
4 5 8 2.254 2.251 0.134 o
4 5 10 15.928 17.027 0.991 o
4 5 11 7.955 8.471 0.355 o
4 5 12 2.051 2.172 0.190 o
4 5 16 8.543 9.190 0.508 o
4 5 17 1.241 1.655 0.254 o
4 6 0 1.035 0.984 0.193 o
4 6 1 3.976 4.252 0.377 o
4 6 2 0.581 0.688 0.123 o
4 6 3 0.705 0.812 0.132 o
4 6 5 2.795 2.830 0.232 o
4 6 7 0.853 1.068 0.116 o
4 6 8 2.203 2.221 0.343 o
4 6 9 1.889 1.942 0.199 o
4 6 14 1.661 1.737 0.277 o
4 7 1 5.063 5.502 0.497 o
4 7 2 0.899 1.038 0.146 o
4 7 5 1.069 1.056 0.114 o
4 7 6 7.205 7.252 0.258 o
4 7 7 0.500 0.563 0.130 o
4 7 8 4.064 4.193 0.397 o
4 8 0 0.897 0.826 0.161 o
4 8 1 0.626 0.617 0.116 o
5 0 0 62.836 64.071 2.303 o
5 0 2 692.407 661.959 20.063 o
5 0 4 12.135 12.017 0.495 o
5 0 6 6.677 6.685 0.419 o
5 0 8 146.418 145.444 4.028 o
5 0 10 73.583 74.011 1.862 o
5 0 12 17.429 16.881 0.444 o
5 0 14 15.865 16.100 0.444 o
5 0 16 15.446 15.734 0.475 o
5 0 18 1.838 2.061 0.157 o
5 0 20 2.076 1.834 0.165 o
5 0 22 0.771 0.781 0.124 o
5 1 0 0.444 0.350 0.081 o
5 1 1 110.367 108.705 2.835 o
5 1 2 59.256 59.771 1.544 o
5 1 3 1.784 1.787 0.124 o
5 1 4 38.675 40.423 1.105 o
5 1 5 1.200 1.244 0.121 o
5 1 6 84.589 80.899 2.186 o
5 1 7 5.201 5.157 0.191 o
5 1 8 1.510 1.432 0.082 o
5 1 9 2.014 2.108 0.093 o
5 1 10 0.792 0.779 0.056 o
5 1 11 29.656 29.351 0.826 o
5 1 12 56.295 55.746 1.472 o
5 1 13 17.121 17.139 0.475 o
5 1 14 0.292 0.235 0.054 o
5 1 15 18.251 18.456 0.469 o
5 1 18 5.878 5.718 0.247 o
5 1 19 0.890 0.795 0.092 o
5 1 20 1.364 1.385 0.159 o
5 1 21 25.085 23.932 0.685 o
5 2 0 23.936 25.115 0.712 o
5 2 1 25.659 26.505 0.750 o
5 2 2 3.455 3.570 0.181 o
5 2 3 25.343 24.279 0.721 o
5 2 4 62.575 60.325 1.707 o
5 2 5 15.629 15.108 0.588 o
5 2 6 49.723 51.018 1.853 o
5 2 7 4.486 4.408 0.199 o
5 2 8 14.421 13.932 0.428 o
5 2 9 10.962 10.700 0.382 o
5 2 10 41.499 41.637 1.116 o
5 2 11 10.771 11.043 0.310 o
5 2 12 22.462 23.396 0.606 o
5 2 14 6.074 6.444 0.197 o
5 2 16 12.260 12.166 0.500 o
5 2 17 26.098 27.306 1.116 o
5 2 18 2.989 2.925 0.374 o
5 2 19 2.888 3.036 0.283 o
5 2 20 18.213 18.327 0.527 o
5 2 21 2.795 2.825 0.193 o
5 2 22 13.003 13.142 0.747 o
5 3 0 122.436 120.312 3.949 o
5 3 1 27.018 27.594 0.964 o
5 3 2 5.605 5.577 0.301 o
5 3 3 4.740 5.313 0.239 o
5 3 4 4.008 4.336 0.233 o
5 3 5 42.322 39.421 1.411 o
5 3 6 94.110 91.281 2.353 o
5 3 7 4.769 5.124 0.336 o
5 3 8 3.319 3.440 0.172 o
5 3 9 0.315 0.310 0.051 o
5 3 10 39.533 40.142 0.983 o
5 3 11 22.061 22.325 1.078 o
5 3 12 0.639 0.729 0.066 o
5 3 13 4.552 4.627 0.169 o
5 3 14 30.588 30.376 0.789 o
5 3 15 0.851 0.824 0.084 o
5 3 16 34.472 35.242 1.387 o
5 3 19 4.565 4.268 0.533 o
5 4 0 9.083 9.206 0.366 o
5 4 1 4.760 5.251 0.252 o
5 4 3 1.266 1.317 0.108 o
5 4 4 26.654 27.428 1.218 o
5 4 5 19.510 21.069 1.225 o
5 4 6 9.052 9.750 0.300 o
5 4 7 19.781 19.048 0.762 o
5 4 9 8.049 7.465 0.317 o
5 4 10 16.760 17.189 1.377 o
5 4 11 2.803 2.860 0.184 o
5 4 12 0.603 0.593 0.074 o
5 4 14 2.580 2.931 0.409 o
5 4 15 12.905 13.835 0.400 o
5 4 16 1.431 1.748 0.220 o
5 4 17 5.229 6.063 0.403 o
5 4 18 7.900 9.273 0.461 o
5 5 0 5.313 5.737 0.274 o
5 5 2 4.955 5.308 0.262 o
5 5 3 1.212 1.111 0.159 o
5 5 4 3.585 3.863 0.190 o
5 5 6 6.600 7.179 0.308 o
5 5 7 1.374 1.225 0.114 o
5 5 8 7.854 7.821 0.579 o
5 5 9 0.374 0.362 0.086 o
5 5 13 0.424 0.371 0.103 o
5 5 14 3.104 3.298 0.191 o
5 5 15 0.945 1.003 0.117 o
5 5 16 2.833 2.956 0.302 o
5 6 0 7.266 7.383 0.323 o
5 6 1 4.728 5.017 0.264 o
5 6 2 4.401 4.367 0.247 o
5 6 3 2.250 2.149 0.153 o
5 6 4 1.784 1.875 0.146 o
5 6 5 8.188 8.599 0.302 o
5 6 6 3.142 3.470 0.188 o
5 6 7 12.465 12.206 0.467 o
5 6 8 0.762 0.731 0.137 o
5 6 9 2.348 2.339 0.233 o
5 7 0 1.928 1.811 0.260 o
5 7 1 9.205 9.756 0.377 o
5 7 2 1.737 1.783 0.175 o
5 7 3 2.249 2.303 0.187 o
5 7 4 1.335 1.615 0.163 o
5 7 6 0.613 0.457 0.129 o
5 7 7 0.950 0.860 0.115 o
6 0 0 231.224 225.801 7.085 o
6 0 2 29.663 29.299 1.217 o
6 0 4 1.506 1.469 0.208 o
6 0 6 44.172 41.954 1.339 o
6 0 8 16.378 16.492 0.452 o
6 0 10 34.633 36.561 1.185 o
6 0 12 95.044 97.235 2.524 o
6 0 14 4.269 4.705 0.196 o
6 0 16 2.276 2.210 0.171 o
6 0 18 12.259 12.238 0.436 o
6 0 20 23.836 23.640 0.721 o
6 1 0 0.598 0.611 0.095 o
6 1 1 186.108 188.694 5.651 o
6 1 2 63.174 61.256 1.651 o
6 1 3 23.536 22.943 0.717 o
6 1 4 56.217 56.221 1.578 o
6 1 5 60.045 62.077 1.609 o
6 1 6 21.858 20.943 0.587 o
6 1 7 12.187 12.174 0.332 o
6 1 8 43.147 44.045 1.073 o
6 1 9 35.889 35.782 0.972 o
6 1 10 0.296 0.317 0.043 o
6 1 11 32.894 33.728 0.986 o
6 1 12 0.661 0.647 0.057 o
6 1 13 13.969 14.547 0.371 o
6 1 15 2.088 1.952 0.104 o
6 1 16 26.847 28.116 0.754 o
6 1 17 0.423 0.422 0.076 o
6 1 18 3.226 3.329 0.151 o
6 1 19 6.048 6.184 0.229 o
6 1 21 1.826 1.918 0.394 o
6 2 1 9.599 9.618 0.347 o
6 2 3 13.721 13.093 0.475 o
6 2 4 49.258 46.763 1.253 o
6 2 5 100.955 96.730 2.743 o
6 2 6 2.258 2.259 0.112 o
6 2 7 1.177 1.117 0.092 o
6 2 8 5.383 5.530 0.214 o
6 2 9 35.558 35.049 0.860 o
6 2 10 1.527 1.564 0.085 o
6 2 11 5.845 6.271 0.211 o
6 2 12 3.407 3.374 0.143 o
6 2 13 7.248 7.440 0.286 o
6 2 14 34.582 34.835 0.885 o
6 2 15 16.200 16.791 0.497 o
6 2 16 8.137 9.024 0.297 o
6 2 17 1.412 1.387 0.116 o
6 2 18 0.804 0.672 0.125 o
6 2 20 3.001 2.916 0.198 o
6 3 2 0.711 0.656 0.108 o
6 3 3 0.736 0.762 0.095 o
6 3 4 0.279 0.279 0.062 o
6 3 7 5.258 5.488 0.268 o
6 3 8 6.457 6.237 0.242 o
6 3 9 3.260 3.800 0.210 o
6 3 10 34.104 33.661 1.476 o
6 3 11 1.790 1.958 0.127 o
6 3 12 1.381 1.368 0.095 o
6 3 13 0.661 0.602 0.078 o
6 3 15 13.060 13.831 0.904 o
6 3 16 6.008 5.734 0.352 o
6 3 17 0.589 0.632 0.123 o
6 3 18 8.630 8.876 0.530 o
6 4 0 17.084 16.657 0.725 o
6 4 2 27.127 27.902 2.509 o
6 4 3 0.276 0.250 0.076 o
6 4 4 6.505 6.242 0.268 o
6 4 5 14.651 14.098 0.447 o
6 4 6 0.857 0.864 0.150 o
6 4 7 2.080 1.961 0.120 o
6 4 9 7.974 8.388 0.285 o
6 4 10 19.215 19.416 1.783 o
6 4 11 1.965 1.856 0.158 o
6 4 12 0.301 0.355 0.067 o
6 4 14 3.268 3.652 0.175 o
6 4 15 4.979 5.487 0.252 o
6 4 16 4.145 4.928 0.246 o
6 5 0 28.049 29.088 1.039 o
6 5 1 4.268 4.384 0.472 o
6 5 4 15.850 16.387 0.520 o
6 5 6 48.020 47.991 1.609 o
6 5 7 3.063 3.036 0.230 o
6 5 8 0.625 0.593 0.107 o
6 5 9 1.395 1.572 0.170 o
6 5 12 0.614 0.531 0.108 o
6 5 13 1.683 1.916 0.353 o
6 5 14 8.545 9.242 0.468 o
6 6 0 12.084 12.758 0.447 o
6 6 1 2.288 2.518 0.170 o
6 6 2 5.054 4.936 0.333 o
6 6 3 5.748 5.977 0.333 o
6 6 5 1.284 1.252 0.119 o
6 6 7 2.216 1.891 0.123 o
6 6 8 0.908 0.990 0.148 o
6 6 9 0.520 0.502 0.120 o
6 6 10 7.567 8.669 0.527 o
6 6 11 5.221 5.615 0.422 o
6 6 12 1.492 1.842 0.291 o
6 7 0 1.961 2.039 0.177 o
6 7 1 0.604 0.560 0.102 o
6 7 2 0.689 0.588 0.165 o
6 7 5 0.465 0.566 0.081 o
6 7 7 2.172 2.035 0.191 o
7 0 0 108.702 111.733 3.700 o
7 0 2 37.480 35.786 1.359 o
7 0 4 273.945 257.769 11.621 o
7 0 6 1.171 1.310 0.101 o
7 0 8 45.101 46.163 1.246 o
7 0 10 61.458 63.243 1.578 o
7 0 12 17.905 18.741 0.491 o
7 0 14 12.311 13.012 0.798 o
7 0 16 8.703 9.182 0.505 o
7 0 18 16.936 17.033 1.879 o
7 0 20 4.387 4.029 0.473 o
7 1 0 82.221 85.728 2.444 o
7 1 1 1.118 1.171 0.128 o
7 1 3 7.676 8.139 0.456 o
7 1 4 36.096 38.617 1.777 o
7 1 5 41.236 40.238 1.023 o
7 1 6 1.041 0.969 0.075 o
7 1 7 1.492 1.564 0.089 o
7 1 8 47.785 47.770 1.182 o
7 1 10 3.364 3.657 0.131 o
7 1 11 16.778 17.285 0.505 o
7 1 12 15.712 16.340 0.582 o
7 1 13 15.619 16.744 0.566 o
7 1 14 24.394 26.204 0.836 o
7 1 15 23.185 24.896 0.682 o
7 1 17 3.471 3.461 0.162 o
7 1 18 0.451 0.442 0.085 o
7 1 19 4.334 4.776 0.250 o
7 2 0 35.769 35.944 1.073 o
7 2 1 11.286 11.394 0.484 o
7 2 2 6.428 6.080 0.330 o
7 2 3 4.952 5.169 0.219 o
7 2 4 0.536 0.560 0.076 o
7 2 5 0.824 0.839 0.096 o
7 2 6 6.101 6.449 0.267 o
7 2 7 3.345 3.851 0.158 o
7 2 8 7.451 7.245 0.247 o
7 2 9 21.375 20.963 0.552 o
7 2 10 0.927 0.945 0.073 o
7 2 11 10.630 11.012 0.318 o
7 2 12 0.373 0.315 0.060 o
7 2 13 4.233 4.384 0.263 o
7 2 14 7.010 6.926 0.310 o
7 2 15 11.786 12.413 0.767 o
7 2 16 1.122 1.146 0.131 o
7 2 18 4.107 4.191 0.884 o
7 2 19 16.757 15.213 0.799 o
7 3 0 0.620 0.602 0.088 o
7 3 1 28.842 27.170 0.758 o
7 3 2 23.090 23.152 1.127 o
7 3 3 15.767 14.881 0.421 o
7 3 4 14.546 14.355 0.452 o
7 3 5 1.008 1.060 0.098 o
7 3 6 6.952 6.947 0.246 o
7 3 7 3.563 3.529 0.158 o
7 3 8 12.796 12.916 0.591 o
7 3 9 10.340 10.695 0.625 o
7 3 10 1.841 1.850 0.133 o
7 3 12 3.623 3.637 0.217 o
7 3 13 1.656 1.638 0.116 o
7 3 14 0.277 0.294 0.074 o
7 3 16 2.014 2.124 0.173 o
7 4 0 9.966 10.479 0.869 o
7 4 1 1.469 1.617 0.129 o
7 4 2 1.702 1.584 0.113 o
7 4 3 1.155 1.227 0.101 o
7 4 4 2.674 2.419 0.218 o
7 4 5 21.428 22.558 0.657 o
7 4 6 31.408 30.642 1.064 o
7 4 9 10.759 11.713 0.375 o
7 4 12 5.297 5.717 0.755 o
7 4 14 7.352 7.881 0.272 o
7 4 15 3.575 4.221 0.335 o
7 5 0 14.340 13.823 0.636 o
7 5 2 13.268 12.827 0.453 o
7 5 3 1.465 1.298 0.108 o
7 5 4 2.527 2.526 0.185 o
7 5 8 3.777 4.208 0.238 o
7 5 10 22.330 21.812 1.154 o
7 5 11 1.445 1.142 0.279 o
7 5 12 1.337 1.628 0.290 o
7 6 0 0.835 0.614 0.129 o
7 6 2 2.445 2.564 0.182 o
7 6 4 4.217 4.147 0.184 o
7 6 5 4.425 4.313 0.360 o
7 6 6 3.653 3.464 0.153 o
7 6 7 3.755 3.847 0.401 o
7 6 8 3.280 2.852 0.364 o
7 6 9 5.205 5.165 0.423 o
7 6 10 2.111 2.176 0.316 o
7 7 1 0.682 0.741 0.107 o
7 7 3 5.433 5.726 0.270 o
8 0 0 27.514 28.389 2.190 o
8 0 2 15.135 16.357 0.581 o
8 0 4 65.727 65.035 2.017 o
8 0 6 4.876 5.009 0.251 o
8 0 8 28.987 30.660 1.105 o
8 0 10 0.837 0.894 0.119 o
8 0 12 25.220 25.644 1.139 o
8 0 14 84.620 81.838 2.436 o
8 0 16 0.809 0.974 0.145 o
8 1 2 2.145 2.163 0.144 o
8 1 3 85.691 85.931 2.465 o
8 1 4 34.040 34.656 0.933 o
8 1 6 4.347 4.366 0.175 o
8 1 7 0.321 0.429 0.073 o
8 1 8 20.014 20.353 0.782 o
8 1 9 9.818 9.788 0.299 o
8 1 10 19.255 18.803 0.493 o
8 1 11 6.156 6.108 0.205 o
8 1 12 4.382 4.392 0.248 o
8 1 13 11.417 10.821 0.350 o
8 1 15 1.679 1.731 0.118 o
8 1 16 0.634 0.709 0.113 o
8 1 18 21.077 19.957 0.942 o
8 2 0 42.547 39.133 0.993 o
8 2 1 21.804 22.932 0.643 o
8 2 3 5.151 4.974 0.203 o
8 2 4 14.400 14.514 0.524 o
8 2 5 7.659 8.109 0.309 o
8 2 7 36.516 34.522 0.969 o
8 2 8 4.440 4.315 0.191 o
8 2 10 15.689 16.151 0.701 o
8 2 13 4.025 3.817 0.215 o
8 2 15 2.734 2.774 0.211 o
8 2 16 2.049 2.273 0.186 o
8 2 17 0.902 0.967 0.313 o
8 3 0 17.791 17.465 0.531 o
8 3 2 9.762 9.861 0.301 o
8 3 3 0.604 0.730 0.104 o
8 3 4 11.182 11.193 0.489 o
8 3 5 18.484 18.261 0.682 o
8 3 6 14.807 14.783 0.434 o
8 3 8 3.847 3.674 0.164 o
8 3 10 2.763 2.651 0.133 o
8 3 11 6.133 5.658 0.230 o
8 3 12 3.463 3.407 0.175 o
8 3 13 6.784 7.101 0.268 o
8 3 14 5.877 5.850 0.943 o
8 3 15 1.450 1.176 0.325 o
8 4 1 2.392 2.323 0.303 o
8 4 2 14.682 14.863 0.462 o
8 4 3 2.574 2.651 0.151 o
8 4 4 2.448 2.424 0.236 o
8 4 5 2.872 2.912 0.447 o
8 4 6 3.807 4.156 0.256 o
8 4 7 4.353 4.317 0.228 o
8 4 9 13.484 13.182 0.387 o
8 4 10 6.189 5.716 0.615 o
8 4 12 5.949 6.393 0.447 o
8 5 0 1.126 1.406 0.157 o
8 5 2 6.866 7.404 0.282 o
8 5 3 3.891 4.221 0.215 o
8 5 4 0.950 1.008 0.113 o
8 5 6 7.313 6.825 0.339 o
8 5 7 2.285 2.208 0.152 o
8 5 8 21.610 21.203 1.027 o
8 5 9 2.907 2.666 0.464 o
8 5 12 0.585 0.860 0.225 o
8 6 1 0.584 0.552 0.114 o
8 6 2 5.265 5.019 0.265 o
8 6 3 1.562 1.268 0.109 o
8 6 4 2.960 3.104 0.157 o
9 0 0 17.351 18.385 0.648 o
9 0 2 47.591 48.361 4.535 o
9 0 4 4.829 5.023 0.314 o
9 0 6 27.739 27.012 0.810 o
9 0 10 14.081 14.243 0.470 o
9 0 12 8.861 8.744 0.293 o
9 1 0 33.331 32.712 1.019 o
9 1 2 4.835 5.046 0.387 o
9 1 3 26.770 27.020 1.943 o
9 1 4 2.546 2.823 0.159 o
9 1 5 6.168 6.225 0.221 o
9 1 6 8.005 8.345 0.276 o
9 1 7 13.182 13.343 0.389 o
9 1 8 1.700 1.792 0.141 o
9 1 9 2.065 1.932 0.125 o
9 1 10 9.390 9.426 0.280 o
9 1 11 0.188 0.235 0.063 o
9 1 12 1.012 1.012 0.094 o
9 1 13 27.753 25.423 0.805 o
9 1 14 9.311 9.541 0.391 o
9 1 15 1.051 1.108 0.181 o
9 1 16 2.346 2.288 0.401 o
9 2 0 1.748 1.873 0.111 o
9 2 1 3.637 3.773 0.182 o
9 2 2 36.864 35.633 1.322 o
9 2 3 5.237 5.008 0.212 o
9 2 4 36.969 36.090 1.031 o
9 2 5 3.342 3.468 0.166 o
9 2 6 3.167 3.187 0.203 o
9 2 7 1.718 1.919 0.137 o
9 2 8 2.245 2.395 0.172 o
9 2 9 15.721 15.972 0.450 o
9 2 10 2.207 1.992 0.125 o
9 2 11 9.000 8.564 0.362 o
9 2 12 6.512 6.550 0.270 o
9 2 14 7.601 6.485 0.576 o
9 2 15 2.685 2.482 0.404 o
9 3 0 2.189 2.203 0.147 o
9 3 1 6.741 6.725 0.239 o
9 3 2 2.603 2.756 0.148 o
9 3 3 14.486 14.491 0.574 o
9 3 4 6.852 6.611 0.444 o
9 3 5 1.398 1.222 0.120 o
9 3 6 16.283 15.887 0.535 o
9 3 7 0.361 0.540 0.095 o
9 3 8 16.713 16.423 0.484 o
9 3 10 3.177 3.055 0.179 o
9 3 11 4.023 3.679 0.223 o
9 3 12 4.839 5.028 0.410 o
9 4 1 2.436 2.648 0.175 o
9 4 2 13.310 14.099 0.434 o
9 4 6 5.293 5.592 0.461 o
9 4 7 18.852 19.739 0.592 o
9 4 8 13.087 12.773 0.423 o
9 4 9 5.419 5.185 0.458 o
9 4 10 1.061 0.974 0.276 o
9 5 1 0.865 0.919 0.151 o
9 5 2 4.544 4.546 0.197 o
9 5 3 1.655 1.671 0.139 o
9 5 4 1.152 1.267 0.127 o
9 5 5 0.962 1.018 0.219 o
9 5 8 5.563 5.495 0.442 o
9 6 1 1.685 1.673 0.164 o
9 6 3 1.185 1.138 0.102 o
9 6 4 0.166 0.267 0.084 o
10 0 0 7.400 7.590 0.662 o
10 0 2 2.868 2.963 0.579 o
10 0 4 14.283 14.435 0.505 o
10 0 6 17.798 17.609 0.751 o
10 0 8 1.004 0.625 0.127 o
10 0 10 12.037 11.422 0.405 o
10 0 12 11.882 11.589 0.468 o
10 0 14 3.033 2.817 0.425 o
10 1 0 9.726 9.669 0.349 o
10 1 1 32.591 34.717 0.975 o
10 1 3 8.574 8.916 0.332 o
10 1 4 9.631 9.430 0.305 o
10 1 5 3.728 3.858 0.170 o
10 1 6 8.015 7.929 0.270 o
10 1 8 1.360 1.327 0.151 o
10 1 9 1.151 1.273 0.107 o
10 1 10 5.430 5.227 0.194 o
10 1 11 3.876 3.730 0.170 o
10 1 12 0.745 0.667 0.081 o
10 1 13 1.777 1.724 0.307 o
10 1 14 5.401 5.267 0.516 o
10 2 0 9.518 9.633 0.296 o
10 2 1 1.683 1.709 0.129 o
10 2 2 29.499 29.348 0.819 o
10 2 3 8.042 8.119 0.278 o
10 2 4 1.540 1.558 0.118 o
10 2 5 10.359 9.882 0.319 o
10 2 6 7.374 7.582 0.427 o
10 2 7 3.894 3.890 0.197 o
10 2 8 3.208 3.188 0.179 o
10 2 9 0.447 0.546 0.087 o
10 2 10 6.589 6.203 0.531 o
10 2 11 1.263 1.139 0.123 o
10 2 12 15.807 15.423 1.045 o
10 3 0 0.816 0.800 0.092 o
10 3 1 1.336 1.462 0.150 o
10 3 2 19.015 19.733 0.574 o
10 3 3 4.030 3.841 0.245 o
10 3 4 3.365 3.186 0.191 o
10 3 6 14.367 14.294 0.816 o
10 3 7 12.054 11.608 0.413 o
10 3 8 25.463 24.182 0.975 o
10 3 9 0.562 0.492 0.080 o
10 3 10 1.098 1.017 0.151 o
10 3 12 1.453 1.368 0.224 o
10 4 0 2.501 2.772 0.179 o
10 4 1 5.230 5.649 0.446 o
10 4 3 1.610 1.509 0.139 o
10 4 4 3.441 3.450 0.241 o
10 4 5 1.033 1.159 0.192 o
10 4 6 0.881 0.987 0.136 o
10 4 7 7.120 7.337 0.677 o
10 5 0 1.988 2.352 0.166 o
10 5 1 2.669 2.954 0.184 o
10 5 2 0.680 0.460 0.149 o
10 5 3 0.499 0.426 0.096 o
10 5 4 1.732 1.697 0.135 o
10 5 5 0.797 0.889 0.109 o
10 5 6 1.130 0.894 0.258 o
11 0 0 33.211 34.726 1.171 o
11 0 2 25.246 24.792 0.880 o
11 0 6 2.550 2.392 0.203 o
11 0 10 0.835 0.914 0.137 o
11 1 1 3.955 4.065 0.184 o
11 1 2 8.345 8.666 0.390 o
11 1 3 11.396 11.565 0.406 o
11 1 4 1.705 1.728 0.148 o
11 1 5 12.739 12.819 0.396 o
11 1 6 3.579 3.675 0.254 o
11 1 7 4.795 4.690 0.209 o
11 1 9 1.375 1.317 0.123 o
11 1 10 5.628 5.322 0.286 o
11 1 11 10.150 10.012 0.336 o
11 2 1 12.194 12.599 0.531 o
11 2 3 0.941 0.876 0.115 o
11 2 4 7.046 6.972 0.300 o
11 2 6 19.806 18.144 0.604 o
11 2 7 16.591 16.044 0.536 o
11 2 8 2.841 2.914 0.172 o
11 2 9 0.806 0.825 0.101 o
11 2 10 1.021 1.050 0.349 o
11 2 11 4.684 4.775 0.325 o
11 3 0 19.576 20.105 0.633 o
11 3 1 2.159 2.213 0.193 o
11 3 2 1.261 1.511 0.171 o
11 3 3 1.515 1.445 0.336 o
11 3 4 3.167 3.368 0.222 o
11 3 5 0.752 0.678 0.137 o
11 3 6 2.214 2.310 0.163 o
11 3 8 1.286 1.372 0.123 o
11 4 0 1.584 1.455 0.128 o
11 4 1 3.563 3.573 0.194 o
11 4 2 3.545 3.091 0.210 o
11 4 4 6.502 6.756 0.297 o
11 4 5 0.606 0.506 0.116 o
11 4 6 0.441 0.434 0.125 o
11 4 7 1.047 0.984 0.259 o
11 5 2 1.511 1.630 0.177 o
12 0 0 1.486 1.416 0.152 o
12 0 2 20.303 20.953 0.695 o
12 0 4 7.689 7.690 0.488 o
12 0 6 20.026 18.310 0.625 o
12 0 8 0.522 0.517 0.128 o
12 1 0 8.585 8.436 0.280 o
12 1 1 3.367 3.434 0.158 o
12 1 2 8.414 7.810 0.407 o
12 1 3 3.420 3.221 0.256 o
12 1 5 3.719 3.781 0.189 o
12 1 6 12.376 12.199 0.382 o
12 1 7 2.484 2.748 0.160 o
12 1 8 1.055 1.199 0.118 o
12 2 0 0.651 0.546 0.121 o
12 2 3 2.156 2.623 0.229 o
12 2 4 4.063 3.906 0.208 o
12 2 5 2.661 2.511 0.205 o
12 2 6 1.008 0.874 0.116 o
12 2 7 1.129 1.056 0.115 o
12 2 8 1.290 1.379 0.252 o
12 3 0 4.615 4.287 0.404 o
12 3 3 2.619 2.575 0.200 o
12 3 4 4.764 4.889 0.252 o
12 3 5 3.715 3.930 0.356 o
12 3 6 0.496 0.551 0.114 o
12 4 0 4.026 4.254 0.236 o
12 4 1 1.656 2.070 0.188 o
13 0 2 12.046 12.154 0.783 o
13 0 4 9.218 8.977 0.561 o
13 0 6 8.156 8.564 0.451 o
13 1 0 1.344 1.292 0.111 o
13 1 1 2.165 2.028 0.193 o
13 1 2 1.315 1.101 0.126 o
13 1 3 2.565 2.583 0.161 o
13 1 4 0.931 0.994 0.140 o
13 1 5 11.186 10.838 0.717 o
13 1 6 2.286 2.410 0.232 o
13 2 0 1.000 0.821 0.117 o
13 2 1 3.025 2.964 0.168 o
13 2 2 2.416 2.335 0.222 o
13 2 3 4.373 4.799 0.228 o
