#------------------------------------------------------------------------------
#$Date: 2016-02-21 11:56:54 +0200 (Sun, 21 Feb 2016) $
#$Revision: 176809 $
#$URL: svn://www.crystallography.net/cod/cif/2/31/01/2310114.cif $
#------------------------------------------------------------------------------
#
# This file is available in the Crystallography Open Database (COD),
# http://www.crystallography.net/
#
# All data on this site have been placed in the public domain by the
# contributors.
#
data_2310114
loop_
_publ_author_name
'Kami\'nski, Rados\/law'
'Domaga\/la, S\/lawomir'
'Jarzembska, Katarzyna N.'
'Hoser, Anna A.'
'Sanjuan-Szklarz, W. Fabiola'
'Gutmann, Matthias J.'
'Makal, Anna'
'Mali\'nska, Maura'
'Bak, Joanna M.'
'Wo\'zniak, Krzysztof'
_publ_section_title
;
 Statistical analysis of multipole-model-derived structural parameters and
 charge-density properties from high-resolution X-ray diffraction
 experiments
;
_journal_issue                   1
_journal_name_full               'Acta Crystallographica Section A'
_journal_page_first              72
_journal_page_last               91
_journal_paper_doi               10.1107/S2053273313028313
_journal_volume                  70
_journal_year                    2014
_chemical_formula_moiety         'C2 H2 O4, 2(H2 O1)'
_chemical_formula_sum            'C2 H6 O6'
_chemical_formula_weight         126.07
_space_group_IT_number           14
_symmetry_cell_setting           monoclinic
_symmetry_Int_Tables_number      14
_symmetry_space_group_name_Hall  '-P 2ybc'
_symmetry_space_group_name_H-M   'P 1 21/c 1'
_cell_angle_alpha                90.00
_cell_angle_beta                 103.917(1)
_cell_angle_gamma                90.00
_cell_formula_units_Z            2
_cell_length_a                   6.0903(2)
_cell_length_b                   3.4959(1)
_cell_length_c                   11.8348(3)
_cell_measurement_temperature    100(1)
_cell_volume                     244.579(12)
_diffrn_ambient_temperature      100(1)
_diffrn_measured_fraction_theta_full 0.982
_diffrn_measured_fraction_theta_max 0.888
_diffrn_measurement_device
;
Bruker AXS Kappa APEX II Ultra diffractometer
;
_diffrn_measurement_device_type  'APEX II CCD detector'
_diffrn_measurement_method       \w-scans
_diffrn_radiation_monochromator  'multi-layer optics'
_diffrn_radiation_source         'TXS rotating anode'
_diffrn_radiation_type           'Mo K\a'
_diffrn_radiation_wavelength     0.71073
_diffrn_reflns_av_R_equivalents  0.0232
_diffrn_reflns_av_sigmaI/netI    0.02413
_diffrn_reflns_limit_h_max       13
_diffrn_reflns_limit_h_min       -14
_diffrn_reflns_limit_k_max       8
_diffrn_reflns_limit_k_min       -7
_diffrn_reflns_limit_l_max       28
_diffrn_reflns_limit_l_min       -22
_diffrn_reflns_number            11581
_diffrn_reflns_theta_full        45.86
_diffrn_reflns_theta_max         58.521
_diffrn_reflns_theta_min         3.446
_exptl_absorpt_coefficient_mu    0.181
_exptl_absorpt_correction_T_max  0.969
_exptl_absorpt_correction_T_min  0.950
_exptl_absorpt_correction_type   multi-scan
_exptl_absorpt_process_details
;
 Absorption correction done by SORTAV
 Blessing, R. H.: (1995) Acta Cryst. A51, 33-38
;
_exptl_crystal_colour            colourless
_exptl_crystal_density_diffrn    1.712
_exptl_crystal_description       unspecified
_exptl_crystal_F_000             132
_exptl_crystal_size_max          0.290
_exptl_crystal_size_mid          0.287
_exptl_crystal_size_min          0.120
_refine_diff_density_max         +0.14
_refine_diff_density_min         -0.18
_refine_ls_extinction_method     none
_refine_ls_goodness_of_fit_ref   0.941
_refine_ls_hydrogen_treatment    mixed
_refine_ls_number_parameters     177
_refine_ls_number_reflns         2282
_refine_ls_number_restraints     3
_refine_ls_R_factor_all          0.0166
_refine_ls_R_factor_gt           0.0166
_refine_ls_shift/su_max          0.003
_refine_ls_shift/su_mean         0.000
_refine_ls_structure_factor_coef F
_refine_ls_weighting_details
;
w=1/[\s^2^(Fo)]
;
_refine_ls_weighting_scheme      sigma
_refine_ls_wR_factor_gt          0.0184
_refine_ls_wR_factor_ref         0.0184
_reflns_number_gt                2282
_reflns_number_total             3149
_reflns_threshold_expression     I>3\s(I)
_iucr_refine_instructions_details
;
 Multipole refinement with MOPRO program
;
_cod_data_source_file            pc5031sup8.cif
_cod_data_source_block           oxa08
_cod_original_cell_volume        244.58(1)
_cod_original_sg_symbol_H-M      'P 21/c'
_cod_database_code               2310114
loop_
_symmetry_equiv_pos_as_xyz
'x, y, z'
'-x, y+1/2, -z+1/2'
'-x, -y, -z'
'x, -y-1/2, z-1/2'
loop_
_atom_site_type_symbol
_atom_site_label
_atom_site_fract_x
_atom_site_fract_y
_atom_site_fract_z
_atom_site_U_iso_or_equiv
_atom_site_adp_type
_atom_site_occupancy
_atom_site_calc_flag
O O1 0.43489(5) 0.44404(9) 0.34988(2) 0.01318(9) Uani 1 d
O O2 0.24238(4) 0.74251(8) 0.46362(2) 0.01293(8) Uani 1 d
C C1 0.40312(3) 0.55879(5) 0.44801(2) 0.00937(6) Uani 1 d
H H1 0.304(1) 0.520(5) 0.2751(6) 0.02292 Uani 1 d
O O3 0.13003(4) 0.63111(8) 0.17862(2) 0.01282(8) Uani 1 d
H H2 0.196(1) 0.712(5) 0.1154(5) 0.02886 Uani 1 d
H H3 0.007(1) 0.458(2) 0.145(2) 0.02858 Uani 1 d
loop_
_atom_site_aniso_label
_atom_site_aniso_U_11
_atom_site_aniso_U_22
_atom_site_aniso_U_33
_atom_site_aniso_U_12
_atom_site_aniso_U_13
_atom_site_aniso_U_23
O1 0.01245(8) 0.01883(9) 0.00773(9) 0.00475(7) 0.00142(7) -0.00081(6)
O2 0.01095(8) 0.01779(8) 0.00936(9) 0.00557(6) 0.00111(6) -0.00061(6)
C1 0.00894(7) 0.01117(6) 0.00766(7) 0.00169(4) 0.00129(4) -0.00019(4)
H1 0.0212 0.0264 0.0209 0.0018 0.0045 0.0002
O3 0.01060(8) 0.01789(9) 0.00911(8) -0.00215(6) 0.00072(6) 0.00100(6)
H2 0.0257 0.0406 0.0215 -0.0039 0.0080 0.0037
H3 0.0218 0.0301 0.0333 -0.0070 0.0055 -0.0021
loop_
_atom_type_symbol
_atom_type_description
_atom_type_scat_dispersion_real
_atom_type_scat_dispersion_imag
_atom_type_scat_source
C C 0.0033 0.0016 'Su & Coppens, Acta. Cryst. (1997) A53, 749'
H H 0.0000 0.0000 'Su & Coppens, Acta. Cryst. (1997) A53, 749'
O O 0.0106 0.0060 'Su & Coppens, Acta. Cryst. (1997) A53, 749'
loop_
_geom_angle_atom_site_label_1
_geom_angle_atom_site_label_2
_geom_angle_atom_site_label_3
_geom_angle
O1 C1 O2 126.90(3)
C1 O1 H1 115.0(7)
H2 O3 H3 107(1)
loop_
_geom_bond_atom_site_label_1
_geom_bond_atom_site_label_2
_geom_bond_distance
O1 C1 1.2865(3)
O1 H1 1.0739(9)
O2 C1 1.2215(3)
O3 H3 0.9700(9)
O3 H2 0.9740(9)
loop_
_geom_torsion_atom_site_label_1
_geom_torsion_atom_site_label_2
_geom_torsion_atom_site_label_3
_geom_torsion_atom_site_label_4
_geom_torsion
O2 C1 O1 H1 -0.22(62)
loop_
_refln_index_h
_refln_index_k
_refln_index_l
_refln_F_squared_calc
_refln_F_squared_meas
_refln_F_squared_sigma
_refln_observed_status
-14 0 10 1.257 1.321 0.438 o
-14 1 6 3.882 4.954 0.614 o
-14 1 7 7.343 7.388 0.682 o
-14 1 12 1.387 1.525 0.426 o
-14 2 6 9.218 9.322 0.636 o
-13 0 6 35.433 39.297 1.298 o
-13 0 8 3.441 3.377 0.552 o
-13 0 12 11.841 12.240 0.824 o
-13 0 16 9.651 10.117 0.703 o
-13 0 18 1.077 1.265 0.388 o
-13 1 2 14.822 14.768 0.708 o
-13 1 4 1.183 1.280 0.199 o
-13 1 5 10.211 9.954 0.483 o
-13 1 8 3.822 4.232 0.464 o
-13 1 10 3.499 3.565 0.295 o
-13 1 12 3.371 3.675 0.292 o
-13 1 15 1.549 1.712 0.336 o
-13 1 16 4.188 4.408 0.607 o
-13 1 17 2.069 2.141 0.444 o
-13 2 1 4.302 3.980 0.653 o
-13 2 3 1.049 0.934 0.226 o
-13 2 5 1.239 1.504 0.238 o
-13 2 8 2.264 2.386 0.488 o
-13 2 10 4.107 4.401 0.654 o
-13 2 14 3.105 3.616 0.568 o
-13 2 16 3.670 3.388 0.272 o
-13 3 4 4.573 4.650 0.726 o
-13 3 5 2.573 2.785 0.591 o
-13 3 6 4.520 4.171 0.684 o
-13 3 7 2.407 2.747 0.449 o
-13 3 9 2.011 1.656 0.426 o
-13 3 10 4.305 4.166 0.580 o
-13 3 12 0.952 0.706 0.232 o
-12 0 2 9.126 9.255 0.366 o
-12 0 4 42.843 41.122 1.066 o
-12 0 6 4.425 4.160 0.272 o
-12 0 10 2.632 2.767 0.518 o
-12 0 12 8.720 9.337 0.793 o
-12 0 14 5.558 6.118 0.736 o
-12 0 16 18.382 19.873 0.937 o
-12 1 1 1.964 1.896 0.284 o
-12 1 2 1.015 1.242 0.209 o
-12 1 5 19.677 20.125 0.920 o
-12 1 6 4.635 4.751 0.298 o
-12 1 7 1.608 1.582 0.358 o
-12 1 8 12.025 12.677 0.475 o
-12 1 9 11.561 12.474 0.618 o
-12 1 10 2.860 3.226 0.390 o
-12 1 11 1.046 1.139 0.280 o
-12 1 12 7.036 6.971 0.385 o
-12 1 15 13.836 15.021 0.502 o
-12 1 16 1.798 1.854 0.485 o
-12 1 19 1.417 1.352 0.202 o
-12 1 20 3.605 3.837 0.585 o
-12 2 1 13.624 14.609 1.061 o
-12 2 2 5.387 5.542 0.376 o
-12 2 5 8.101 7.978 0.411 o
-12 2 7 3.480 3.129 0.368 o
-12 2 8 4.554 4.859 0.360 o
-12 2 9 4.210 4.979 0.709 o
-12 2 11 8.819 9.259 0.586 o
-12 2 12 1.067 1.177 0.386 o
-12 2 13 5.068 4.841 0.699 o
-12 2 18 5.227 5.425 0.639 o
-12 3 3 3.388 3.184 0.424 o
-12 3 7 1.335 1.344 0.238 o
-12 3 14 3.764 3.080 0.647 o
-12 3 16 1.731 1.710 0.441 o
-12 4 5 2.517 2.130 0.591 o
-12 4 9 1.422 1.551 0.200 o
-12 4 13 2.404 2.425 0.449 o
-12 4 14 8.088 7.748 0.586 o
-11 0 2 3.752 3.557 0.202 o
-11 0 4 9.668 9.625 0.582 o
-11 0 8 88.050 87.572 3.945 o
-11 0 10 8.027 8.176 0.454 o
-11 0 12 2.700 2.123 0.493 o
-11 0 14 34.185 34.599 1.204 o
-11 1 2 5.882 6.165 0.259 o
-11 1 3 13.969 14.252 0.416 o
-11 1 4 36.430 35.405 0.908 o
-11 1 5 2.187 2.204 0.159 o
-11 1 7 1.460 1.580 0.185 o
-11 1 8 1.360 1.592 0.174 o
-11 1 9 6.257 5.704 0.532 o
-11 1 10 3.765 3.443 0.230 o
-11 1 11 4.279 3.825 0.664 o
-11 1 12 13.528 12.390 0.512 o
-11 1 14 6.356 7.350 0.378 o
-11 1 15 6.096 6.165 0.790 o
-11 1 16 2.585 2.366 0.509 o
-11 1 18 9.269 9.866 0.795 o
-11 1 19 11.194 11.211 0.783 o
-11 2 1 2.693 2.905 0.286 o
-11 2 3 1.362 1.437 0.179 o
-11 2 4 11.089 11.000 0.484 o
-11 2 5 2.185 2.257 0.188 o
-11 2 6 6.293 6.228 0.612 o
-11 2 7 8.261 8.371 0.471 o
-11 2 10 1.063 0.864 0.168 o
-11 2 11 2.303 2.340 0.493 o
-11 2 12 2.587 2.678 0.534 o
-11 2 15 10.361 11.619 0.862 o
-11 2 18 2.390 2.311 0.187 o
-11 2 19 1.024 0.879 0.155 o
-11 2 21 3.683 3.764 0.265 o
-11 2 22 1.568 1.362 0.401 o
-11 3 1 1.070 1.218 0.291 o
-11 3 2 3.309 3.650 0.319 o
-11 3 4 4.714 4.587 0.810 o
-11 3 5 6.415 6.404 0.440 o
-11 3 6 2.901 2.665 0.469 o
-11 3 7 3.770 3.633 0.326 o
-11 3 10 12.468 12.460 0.953 o
-11 3 11 4.060 4.512 0.738 o
-11 3 13 2.676 2.920 0.243 o
-11 3 16 3.725 3.869 0.240 o
-11 3 17 4.578 4.802 0.253 o
-11 4 1 1.337 1.478 0.251 o
-11 4 2 2.926 2.177 0.582 o
-11 4 3 5.817 4.864 0.740 o
-11 4 6 6.969 5.703 0.786 o
-11 4 9 2.453 2.148 0.183 o
-11 4 10 3.668 3.515 0.638 o
-11 4 12 3.348 2.962 0.207 o
-11 4 13 5.863 5.263 0.256 o
-11 4 15 0.742 0.527 0.153 o
-11 4 16 0.558 0.617 0.150 o
-11 5 4 3.620 3.499 0.270 o
-11 5 6 3.549 3.272 0.482 o
-11 5 12 0.865 0.656 0.181 o
-10 0 4 8.769 8.309 0.608 o
-10 0 6 12.310 11.890 0.565 o
-10 0 8 17.800 17.644 1.219 o
-10 0 10 12.065 12.350 0.499 o
-10 0 12 11.868 11.246 0.758 o
-10 0 16 3.049 2.664 0.496 o
-10 1 1 3.448 3.536 0.213 o
-10 1 2 0.520 0.590 0.106 o
-10 1 3 2.261 2.247 0.136 o
-10 1 4 0.751 0.753 0.130 o
-10 1 5 9.811 9.733 0.311 o
-10 1 7 47.981 47.390 1.181 o
-10 1 8 20.167 19.949 0.623 o
-10 1 9 10.085 9.772 0.515 o
-10 1 10 6.264 5.973 0.398 o
-10 1 11 1.879 1.763 0.213 o
-10 1 12 3.984 4.219 0.416 o
-10 1 13 11.576 11.892 0.419 o
-10 1 14 18.006 17.698 2.152 o
-10 1 17 14.981 15.652 0.936 o
-10 1 18 2.340 2.159 0.221 o
-10 1 19 1.870 2.036 0.320 o
-10 1 22 11.479 11.342 0.660 o
-10 1 24 4.421 4.239 0.473 o
-10 2 2 11.121 11.066 0.360 o
-10 2 3 49.642 50.379 1.188 o
-10 2 4 28.618 28.628 0.693 o
-10 2 7 1.320 1.643 0.166 o
-10 2 8 9.098 9.186 0.350 o
-10 2 9 13.495 13.370 0.683 o
-10 2 10 0.831 0.847 0.164 o
-10 2 11 11.852 11.799 0.711 o
-10 2 12 5.106 5.365 0.918 o
-10 2 13 11.431 12.126 0.423 o
-10 2 14 13.600 13.982 0.522 o
-10 2 16 0.708 0.976 0.197 o
-10 2 17 3.745 3.768 0.701 o
-10 2 21 1.025 1.089 0.233 o
-10 2 23 0.655 0.699 0.175 o
-10 3 1 2.590 2.810 0.623 o
-10 3 2 8.336 8.558 0.428 o
-10 3 3 3.663 3.638 0.321 o
-10 3 4 10.506 10.590 0.633 o
-10 3 6 11.052 10.653 0.428 o
-10 3 7 0.544 0.779 0.210 o
-10 3 8 5.935 6.221 0.289 o
-10 3 9 0.931 0.946 0.161 o
-10 3 10 7.780 8.420 0.370 o
-10 3 14 8.349 8.059 0.325 o
-10 3 15 2.643 2.542 0.205 o
-10 3 17 1.585 1.739 0.183 o
-10 3 19 0.819 0.614 0.160 o
-10 3 20 7.115 6.965 0.301 o
-10 3 21 2.853 3.133 0.208 o
-10 3 22 1.117 0.990 0.188 o
-10 4 2 10.488 10.552 0.677 o
-10 4 3 6.492 6.495 0.373 o
-10 4 6 3.522 3.565 0.334 o
-10 4 8 3.171 3.189 0.208 o
-10 4 9 3.252 3.276 0.392 o
-10 4 10 7.349 7.330 0.347 o
-10 4 13 7.936 8.650 0.774 o
-10 4 16 10.794 10.659 0.367 o
-10 4 17 0.802 0.832 0.163 o
-10 4 19 1.165 1.167 0.223 o
-10 5 2 7.207 7.170 0.302 o
-10 5 4 2.301 2.578 0.199 o
-10 5 5 3.092 3.559 0.280 o
-10 5 6 6.052 6.171 0.341 o
-10 5 10 0.750 0.863 0.193 o
-10 5 11 1.306 1.218 0.174 o
-10 5 12 14.692 14.438 0.697 o
-10 5 14 0.912 0.769 0.195 o
-10 6 1 3.941 3.783 0.520 o
-10 6 2 2.339 2.013 0.196 o
-10 6 3 1.301 0.963 0.173 o
-10 6 5 1.131 0.984 0.172 o
-10 6 6 0.948 0.825 0.169 o
-10 6 8 1.785 1.527 0.182 o
-9 0 2 4.212 4.363 0.341 o
-9 0 4 58.638 58.529 1.364 o
-9 0 6 25.055 25.089 0.726 o
-9 0 8 4.282 5.032 0.775 o
-9 0 10 53.132 52.721 2.095 o
-9 0 14 1.952 1.842 0.434 o
-9 0 22 6.933 7.052 0.627 o
-9 0 24 4.046 3.514 0.510 o
-9 1 1 0.488 0.522 0.124 o
-9 1 2 1.408 1.675 0.150 o
-9 1 4 10.644 10.632 0.334 o
-9 1 5 3.107 3.274 0.185 o
-9 1 6 22.792 21.913 0.651 o
-9 1 7 17.260 17.408 0.585 o
-9 1 8 4.870 4.170 0.393 o
-9 1 9 17.708 17.256 0.687 o
-9 1 10 1.145 1.306 0.200 o
-9 1 11 6.698 6.394 0.904 o
-9 1 14 13.643 13.186 0.848 o
-9 1 16 2.638 2.591 0.667 o
-9 1 17 36.176 37.700 1.092 o
-9 1 18 6.839 6.889 0.351 o
-9 1 19 2.697 3.269 0.249 o
-9 1 20 4.170 3.974 0.562 o
-9 1 21 6.766 6.734 0.617 o
-9 1 23 2.182 1.946 0.436 o
-9 2 1 4.904 4.927 0.416 o
-9 2 3 0.716 0.469 0.149 o
-9 2 5 6.260 6.468 0.284 o
-9 2 6 34.653 34.741 1.167 o
-9 2 7 10.119 9.809 0.506 o
-9 2 8 56.280 55.267 1.333 o
-9 2 9 1.342 1.767 0.192 o
-9 2 10 5.391 5.106 0.240 o
-9 2 12 3.269 3.318 0.220 o
-9 2 13 31.741 31.184 1.229 o
-9 2 14 4.777 5.332 0.341 o
-9 2 15 0.512 0.596 0.171 o
-9 2 16 9.976 10.599 0.407 o
-9 2 17 8.244 8.859 0.891 o
-9 2 18 14.508 15.477 0.502 o
-9 2 19 3.873 3.877 0.280 o
-9 2 21 7.314 7.058 0.414 o
-9 2 22 2.919 2.659 0.456 o
-9 2 23 7.618 8.042 0.634 o
-9 2 24 3.113 3.394 0.501 o
-9 3 1 2.800 2.801 0.244 o
-9 3 2 85.302 85.479 1.963 o
-9 3 3 12.898 12.821 0.743 o
-9 3 4 21.754 21.187 0.620 o
-9 3 6 1.084 1.218 0.151 o
-9 3 7 20.182 20.313 0.536 o
-9 3 8 6.676 6.504 0.420 o
-9 3 9 1.417 1.268 0.198 o
-9 3 10 5.065 4.839 0.275 o
-9 3 11 1.197 1.164 0.176 o
-9 3 12 41.777 42.547 0.985 o
-9 3 13 6.753 6.780 0.354 o
-9 3 14 6.146 5.928 0.284 o
-9 3 15 2.474 2.704 0.200 o
-9 3 16 3.088 2.861 0.246 o
-9 3 18 2.737 2.775 0.207 o
-9 3 21 0.448 0.558 0.154 o
-9 3 22 2.477 2.479 0.260 o
-9 4 1 11.992 12.336 0.492 o
-9 4 2 3.865 4.017 0.265 o
-9 4 3 21.374 21.670 0.555 o
-9 4 6 7.874 8.061 0.319 o
-9 4 7 0.923 0.858 0.139 o
-9 4 8 4.348 4.337 0.223 o
-9 4 9 1.663 1.852 0.151 o
-9 4 10 0.592 0.590 0.129 o
-9 4 11 5.663 6.260 0.340 o
-9 4 12 5.896 6.207 0.305 o
-9 4 13 7.454 7.407 0.337 o
-9 4 20 5.769 5.763 0.267 o
-9 4 21 0.721 0.881 0.153 o
-9 5 1 1.602 1.550 0.156 o
-9 5 9 3.736 3.633 0.257 o
-9 5 10 0.873 0.825 0.133 o
-9 5 12 3.267 3.319 0.294 o
-9 5 15 2.379 2.254 0.180 o
-9 5 16 8.574 8.459 0.431 o
-9 6 1 1.712 1.582 0.181 o
-9 6 3 4.138 4.117 0.284 o
-9 6 5 3.589 3.478 0.319 o
-9 6 6 0.690 0.690 0.183 o
-9 6 11 7.997 6.977 0.560 o
-9 6 12 2.760 2.945 0.247 o
-8 0 2 3.754 3.344 0.662 o
-8 0 4 4.443 4.386 0.676 o
-8 0 8 50.737 51.234 1.921 o
-8 0 10 6.735 7.109 0.856 o
-8 0 12 2.953 3.177 0.682 o
-8 0 26 7.163 6.973 0.572 o
-8 1 1 29.973 31.395 0.779 o
-8 1 3 19.783 19.638 0.523 o
-8 1 4 30.494 29.809 0.729 o
-8 1 5 23.195 22.830 0.584 o
-8 1 6 1.765 1.909 0.150 o
-8 1 7 56.927 57.877 1.494 o
-8 1 8 6.173 5.734 0.561 o
-8 1 9 13.872 13.266 0.716 o
-8 1 10 37.211 35.189 1.793 o
-8 1 12 1.820 1.671 0.183 o
-8 1 15 16.048 16.308 0.477 o
-8 1 16 8.490 8.665 0.320 o
-8 1 17 6.932 6.572 0.315 o
-8 1 18 10.468 10.529 0.819 o
-8 1 21 4.129 4.118 0.604 o
-8 1 24 8.919 9.188 0.664 o
-8 2 1 40.303 40.887 0.971 o
-8 2 2 16.581 16.393 0.471 o
-8 2 3 7.053 6.726 0.281 o
-8 2 4 16.268 16.507 0.509 o
-8 2 5 34.465 33.609 0.901 o
-8 2 6 58.130 56.972 1.334 o
-8 2 7 6.519 6.094 0.331 o
-8 2 8 6.793 6.625 0.322 o
-8 2 9 1.385 1.559 0.169 o
-8 2 10 11.171 10.956 0.402 o
-8 2 11 20.177 20.323 0.771 o
-8 2 12 8.223 7.765 0.492 o
-8 2 13 2.007 2.194 0.189 o
-8 2 14 11.492 11.382 0.790 o
-8 2 16 37.406 38.515 1.053 o
-8 2 17 2.141 2.067 0.195 o
-8 2 18 13.850 13.398 0.622 o
-8 2 19 3.643 3.445 0.227 o
-8 2 23 2.941 3.013 0.500 o
-8 3 2 8.580 8.828 0.305 o
-8 3 3 7.025 7.431 0.318 o
-8 3 5 0.917 1.066 0.163 o
-8 3 6 33.700 33.495 0.808 o
-8 3 7 10.695 11.277 0.386 o
-8 3 8 22.281 21.413 0.628 o
-8 3 9 5.423 5.226 0.275 o
-8 3 10 9.621 9.896 0.473 o
-8 3 11 5.932 5.724 0.313 o
-8 3 12 51.007 50.384 1.289 o
-8 3 13 1.634 1.754 0.205 o
-8 3 14 1.369 1.036 0.158 o
-8 3 16 17.713 18.238 0.559 o
-8 3 17 16.424 16.735 0.549 o
-8 3 19 1.068 1.261 0.202 o
-8 3 20 8.050 8.409 0.331 o
-8 3 22 23.922 24.529 1.002 o
-8 3 23 2.845 3.051 0.630 o
-8 4 1 21.858 22.541 0.635 o
-8 4 2 20.009 20.124 0.709 o
-8 4 3 16.332 16.156 0.513 o
-8 4 4 11.223 11.147 0.535 o
-8 4 5 3.108 3.475 0.209 o
-8 4 6 4.883 4.971 0.290 o
-8 4 7 2.976 2.661 0.194 o
-8 4 8 4.345 4.313 0.258 o
-8 4 11 23.048 23.379 0.582 o
-8 4 12 17.418 17.300 0.554 o
-8 4 13 10.958 10.858 0.346 o
-8 4 15 2.891 2.784 0.224 o
-8 4 16 2.678 2.728 0.177 o
-8 4 18 4.951 5.079 0.297 o
-8 4 20 0.336 0.435 0.127 o
-8 4 21 7.178 7.110 0.442 o
-8 5 1 4.956 5.175 0.251 o
-8 5 2 27.564 27.713 0.684 o
-8 5 5 1.401 1.520 0.202 o
-8 5 7 4.942 4.755 0.288 o
-8 5 8 7.845 7.468 0.516 o
-8 5 10 2.404 2.393 0.166 o
-8 5 12 0.958 0.640 0.133 o
-8 5 15 0.692 0.600 0.160 o
-8 5 19 0.998 1.202 0.134 o
-8 6 4 0.674 0.903 0.189 o
-8 6 11 0.705 0.647 0.158 o
-8 6 13 1.517 1.400 0.138 o
-8 6 14 0.494 0.366 0.120 o
-8 6 15 4.183 4.156 0.205 o
-8 7 2 1.602 1.272 0.181 o
-7 0 2 15.420 15.549 1.003 o
-7 0 4 42.019 42.419 1.576 o
-7 0 6 264.552 262.259 5.881 o
-7 0 10 1.548 1.996 0.527 o
-7 0 12 5.936 6.356 0.403 o
-7 0 14 10.534 11.987 0.694 o
-7 0 16 7.380 8.971 1.133 o
-7 0 18 7.742 8.299 1.174 o
-7 1 1 18.275 18.553 0.558 o
-7 1 2 89.456 90.350 2.777 o
-7 1 3 3.901 3.415 0.293 o
-7 1 6 20.430 20.112 0.950 o
-7 1 7 53.551 51.301 1.298 o
-7 1 9 10.476 10.467 0.475 o
-7 1 10 29.961 29.739 0.828 o
-7 1 11 47.011 47.419 1.208 o
-7 1 12 3.007 3.237 0.291 o
-7 1 13 9.643 9.193 0.442 o
-7 1 14 15.577 15.378 0.552 o
-7 1 15 13.757 13.658 0.629 o
-7 1 16 5.718 5.812 0.450 o
-7 1 17 22.337 21.613 1.167 o
-7 1 20 4.380 3.703 0.829 o
-7 1 21 2.894 2.717 0.804 o
-7 1 25 7.661 6.954 0.647 o
-7 2 3 23.333 23.290 0.798 o
-7 2 4 3.487 3.207 0.219 o
-7 2 5 10.225 9.971 0.443 o
-7 2 6 2.230 2.270 0.273 o
-7 2 7 19.692 19.334 0.657 o
-7 2 9 17.439 15.277 1.274 o
-7 2 10 79.845 74.220 2.802 o
-7 2 11 22.735 21.748 0.622 o
-7 2 12 7.756 8.476 0.331 o
-7 2 13 5.083 5.190 0.285 o
-7 2 14 3.642 3.511 0.248 o
-7 2 15 41.412 40.274 1.129 o
-7 2 16 12.154 12.400 0.393 o
-7 2 17 2.091 2.418 0.214 o
-7 2 18 4.862 4.546 0.451 o
-7 2 20 22.975 23.639 0.713 o
-7 2 21 12.158 12.515 0.639 o
-7 2 22 4.642 5.066 0.639 o
-7 2 23 3.872 3.383 0.569 o
-7 2 24 4.891 3.957 0.556 o
-7 2 25 2.473 2.421 0.458 o
-7 2 26 6.581 7.256 0.579 o
-7 3 1 2.059 1.997 0.164 o
-7 3 2 1.986 1.845 0.159 o
-7 3 3 2.178 2.253 0.204 o
-7 3 4 77.023 78.974 1.789 o
-7 3 5 35.213 33.396 0.842 o
-7 3 6 16.232 16.080 0.433 o
-7 3 9 9.631 9.598 0.548 o
-7 3 10 11.417 11.020 0.330 o
-7 3 12 1.031 1.144 0.136 o
-7 3 13 7.573 7.401 0.265 o
-7 3 14 22.749 22.278 0.669 o
-7 3 15 4.846 4.961 0.232 o
-7 3 16 22.501 23.121 0.604 o
-7 3 18 10.105 9.918 0.358 o
-7 3 20 2.568 2.243 0.234 o
-7 3 21 2.725 2.852 0.206 o
-7 3 22 2.790 2.758 0.243 o
-7 3 24 2.475 1.894 0.302 o
-7 4 1 21.766 21.701 0.772 o
-7 4 2 6.712 7.313 0.260 o
-7 4 3 0.634 0.734 0.107 o
-7 4 4 2.154 2.286 0.137 o
-7 4 5 23.440 22.499 0.639 o
-7 4 6 4.274 4.385 0.233 o
-7 4 7 4.660 4.824 0.282 o
-7 4 8 26.267 25.393 0.605 o
-7 4 9 5.555 5.597 0.216 o
-7 4 11 14.318 13.350 0.401 o
-7 4 12 3.563 3.664 0.215 o
-7 4 14 3.174 3.058 0.423 o
-7 4 15 12.689 12.450 0.378 o
-7 4 16 9.770 9.904 0.518 o
-7 4 17 3.709 4.084 0.232 o
-7 4 19 0.746 0.511 0.141 o
-7 4 21 7.878 7.732 0.298 o
-7 4 22 9.818 9.700 0.309 o
-7 5 1 4.024 4.340 0.225 o
-7 5 2 19.790 19.694 0.845 o
-7 5 3 3.713 3.407 0.177 o
-7 5 4 1.751 1.468 0.220 o
-7 5 5 1.002 1.080 0.159 o
-7 5 6 7.987 8.362 0.331 o
-7 5 7 0.624 0.732 0.128 o
-7 5 10 5.588 5.821 0.254 o
-7 5 11 9.653 8.952 0.319 o
-7 5 12 24.990 25.499 0.673 o
-7 5 14 1.187 1.278 0.149 o
-7 5 17 2.518 2.353 0.171 o
-7 5 18 3.614 3.911 0.208 o
-7 5 19 0.594 0.486 0.128 o
-7 5 20 3.634 3.534 0.312 o
-7 5 21 0.758 0.564 0.167 o
-7 6 1 16.686 16.462 0.605 o
-7 6 2 3.186 3.161 0.546 o
-7 6 4 0.692 0.781 0.160 o
-7 6 5 1.226 1.265 0.274 o
-7 6 6 6.325 6.538 0.303 o
-7 6 7 2.471 2.149 0.371 o
-7 6 8 4.338 4.741 0.334 o
-7 6 9 2.190 1.996 0.223 o
-7 6 11 1.870 1.653 0.152 o
-7 6 13 0.477 0.537 0.129 o
-7 6 16 1.761 1.594 0.202 o
-7 7 4 0.703 0.602 0.173 o
-7 7 5 2.377 1.934 0.256 o
-7 7 6 0.838 0.725 0.172 o
-6 0 2 189.434 190.074 3.824 o
-6 0 4 3.491 2.816 0.493 o
-6 0 6 171.502 167.068 3.380 o
-6 0 8 1.005 1.252 0.214 o
-6 0 10 297.613 299.105 6.887 o
-6 0 14 26.669 27.042 1.087 o
-6 0 16 130.286 126.885 3.187 o
-6 0 18 15.328 15.085 0.696 o
-6 0 20 9.763 8.978 1.046 o
-6 0 22 2.489 2.150 0.701 o
-6 1 1 1.216 1.415 0.140 o
-6 1 2 6.846 6.795 0.303 o
-6 1 3 1.058 1.057 0.173 o
-6 1 4 32.917 32.664 0.873 o
-6 1 5 98.834 99.248 2.180 o
-6 1 6 157.530 156.043 3.473 o
-6 1 8 3.126 2.998 0.200 o
-6 1 9 45.317 46.045 1.133 o
-6 1 10 52.746 53.352 1.331 o
-6 1 11 3.924 3.895 0.302 o
-6 1 12 42.940 42.342 1.312 o
-6 1 13 4.990 4.942 0.298 o
-6 1 14 22.449 21.737 0.689 o
-6 1 15 3.621 3.616 0.282 o
-6 1 19 11.761 11.386 0.542 o
-6 1 20 27.704 28.809 1.720 o
-6 1 21 12.934 11.107 1.178 o
-6 1 26 1.505 2.182 0.460 o
-6 1 27 1.768 1.978 0.420 o
-6 2 1 71.858 72.034 2.284 o
-6 2 2 40.449 39.724 1.191 o
-6 2 3 62.620 65.680 1.544 o
-6 2 4 5.499 5.366 0.225 o
-6 2 5 4.137 4.307 0.257 o
-6 2 6 1.048 1.015 0.144 o
-6 2 8 13.325 14.589 0.459 o
-6 2 9 32.259 33.180 0.851 o
-6 2 10 9.906 10.166 0.542 o
-6 2 12 9.217 8.809 0.531 o
-6 2 14 6.467 6.559 0.303 o
-6 2 15 2.902 2.821 0.187 o
-6 2 17 9.470 9.503 0.321 o
-6 2 18 19.395 18.819 0.504 o
-6 2 19 2.618 2.374 0.256 o
-6 2 20 20.540 21.277 0.802 o
-6 2 21 1.646 1.614 0.471 o
-6 2 25 12.338 11.882 0.722 o
-6 3 1 13.459 13.519 0.683 o
-6 3 2 12.035 11.850 0.368 o
-6 3 3 1.359 1.305 0.143 o
-6 3 4 4.617 4.876 0.385 o
-6 3 6 6.266 6.320 0.377 o
-6 3 7 7.777 7.903 0.350 o
-6 3 8 40.326 42.585 1.137 o
-6 3 9 32.166 33.299 0.881 o
-6 3 10 0.519 0.514 0.103 o
-6 3 11 4.216 3.991 0.237 o
-6 3 13 6.347 6.609 0.492 o
-6 3 14 55.453 53.357 1.260 o
-6 3 15 12.608 12.655 0.389 o
-6 3 16 1.791 1.596 0.157 o
-6 3 17 0.718 0.900 0.164 o
-6 3 18 8.490 8.465 0.326 o
-6 3 19 15.076 15.533 0.500 o
-6 3 20 0.978 0.954 0.162 o
-6 3 22 4.998 5.246 0.325 o
-6 3 24 18.195 18.138 1.488 o
-6 3 25 2.077 2.073 0.412 o
-6 4 1 8.021 7.837 0.332 o
-6 4 3 7.300 7.045 0.240 o
-6 4 4 43.052 41.294 1.125 o
-6 4 5 39.687 37.106 0.850 o
-6 4 6 1.893 1.881 0.127 o
-6 4 8 6.967 6.707 0.265 o
-6 4 10 1.878 1.961 0.147 o
-6 4 11 6.559 6.899 0.274 o
-6 4 12 11.545 10.898 0.336 o
-6 4 13 13.854 14.443 0.507 o
-6 4 14 13.843 13.328 0.396 o
-6 4 15 22.460 22.670 0.695 o
-6 4 16 0.532 0.633 0.132 o
-6 4 18 6.563 6.335 0.266 o
-6 4 19 1.002 1.130 0.145 o
-6 4 21 1.326 1.299 0.144 o
-6 4 22 0.530 0.565 0.125 o
-6 4 23 3.568 3.707 0.216 o
-6 5 2 0.695 0.701 0.123 o
-6 5 3 1.264 1.241 0.135 o
-6 5 4 37.539 37.507 1.360 o
-6 5 6 6.870 6.611 0.258 o
-6 5 7 2.766 2.927 0.176 o
-6 5 8 16.288 15.897 0.464 o
-6 5 9 1.431 1.332 0.141 o
-6 5 10 15.126 14.992 0.713 o
-6 5 11 0.539 0.543 0.127 o
-6 5 13 0.601 0.569 0.130 o
-6 5 14 2.407 2.368 0.301 o
-6 5 15 1.516 1.562 0.153 o
-6 5 16 7.980 8.137 0.380 o
-6 5 18 1.540 1.408 0.166 o
-6 5 20 2.540 2.393 0.254 o
-6 5 21 3.414 3.543 0.193 o
-6 6 1 1.832 1.866 0.163 o
-6 6 2 4.446 4.598 0.255 o
-6 6 4 3.111 2.559 0.353 o
-6 6 5 9.531 9.788 0.361 o
-6 6 8 0.478 0.498 0.129 o
-6 6 10 5.364 4.859 0.294 o
-6 6 11 10.289 10.150 0.409 o
-6 6 12 4.460 4.893 0.233 o
-6 6 13 0.766 0.747 0.150 o
-6 6 14 0.852 0.991 0.136 o
-6 6 15 3.666 3.594 0.302 o
-6 6 16 2.123 1.936 0.275 o
-6 6 17 1.408 1.038 0.143 o
-6 7 1 6.081 5.488 0.310 o
-6 7 6 1.313 1.316 0.194 o
-6 7 7 2.704 2.343 0.776 o
-6 7 9 2.665 2.387 0.530 o
-6 7 11 1.619 1.248 0.147 o
-5 0 2 91.163 92.395 2.073 o
-5 0 4 19.108 18.915 0.572 o
-5 0 6 120.933 123.016 2.763 o
-5 0 8 295.573 288.791 7.647 o
-5 0 10 104.493 107.229 2.530 o
-5 0 12 45.550 45.884 2.201 o
-5 0 18 27.119 27.248 0.972 o
-5 0 20 100.313 100.037 2.764 o
-5 1 1 57.405 58.838 1.347 o
-5 1 2 263.765 261.119 5.749 o
-5 1 3 50.988 52.835 1.283 o
-5 1 4 95.648 93.487 2.145 o
-5 1 5 32.096 31.963 0.832 o
-5 1 6 4.149 4.269 0.193 o
-5 1 7 1.088 0.845 0.231 o
-5 1 8 17.864 18.022 0.553 o
-5 1 9 274.772 275.174 6.236 o
-5 1 10 27.041 26.379 0.791 o
-5 1 12 25.017 24.938 0.731 o
-5 1 13 9.279 9.265 0.384 o
-5 1 14 26.895 25.778 0.778 o
-5 1 15 40.315 39.127 1.246 o
-5 1 16 55.324 54.149 1.498 o
-5 1 17 16.524 14.930 1.061 o
-5 1 18 0.511 0.662 0.212 o
-5 1 19 41.063 41.761 1.259 o
-5 2 1 9.829 10.026 0.327 o
-5 2 2 0.449 0.612 0.183 o
-5 2 3 4.642 4.317 0.281 o
-5 2 4 28.902 29.992 0.846 o
-5 2 5 179.699 179.300 4.051 o
-5 2 6 82.169 83.448 1.946 o
-5 2 7 22.366 23.987 0.939 o
-5 2 8 2.055 1.971 0.229 o
-5 2 11 40.659 41.748 1.178 o
-5 2 12 24.161 24.608 0.776 o
-5 2 13 73.927 74.060 2.279 o
-5 2 15 12.219 12.141 0.522 o
-5 2 16 3.272 3.545 0.314 o
-5 2 17 7.654 7.417 0.428 o
-5 2 18 4.724 4.320 0.308 o
-5 2 19 11.286 10.647 0.511 o
-5 2 22 9.715 10.419 0.742 o
-5 2 23 7.475 7.780 0.666 o
-5 2 24 1.644 1.720 0.436 o
-5 3 1 20.226 20.353 0.693 o
-5 3 3 6.299 6.111 0.236 o
-5 3 4 11.640 11.711 0.535 o
-5 3 5 3.604 3.532 0.351 o
-5 3 6 4.703 4.517 0.324 o
-5 3 7 16.101 16.942 0.527 o
-5 3 8 2.421 2.259 0.174 o
-5 3 10 6.422 5.853 0.239 o
-5 3 11 0.536 0.491 0.130 o
-5 3 12 0.684 0.661 0.111 o
-5 3 14 0.836 0.688 0.129 o
-5 3 15 2.235 2.198 0.184 o
-5 3 18 12.692 12.755 0.390 o
-5 3 19 6.018 6.134 0.268 o
-5 3 21 0.837 1.012 0.195 o
-5 3 23 3.710 4.214 0.286 o
-5 3 24 8.908 8.738 0.612 o
-5 4 1 3.341 3.544 0.162 o
-5 4 3 24.249 23.861 0.628 o
-5 4 4 24.204 22.890 0.813 o
-5 4 5 13.969 13.555 0.608 o
-5 4 7 1.105 1.066 0.107 o
-5 4 8 25.116 24.074 0.591 o
-5 4 10 23.424 22.513 0.688 o
-5 4 11 0.345 0.352 0.100 o
-5 4 12 1.953 1.807 0.129 o
-5 4 13 15.091 14.868 0.427 o
-5 4 14 7.295 7.310 0.341 o
-5 4 15 13.373 13.336 0.452 o
-5 4 17 2.432 2.443 0.191 o
-5 4 18 16.621 16.466 0.674 o
-5 4 19 0.435 0.504 0.166 o
-5 4 22 2.711 2.670 0.563 o
-5 4 23 9.337 8.878 0.670 o
-5 4 24 6.253 6.310 0.632 o
-5 5 1 2.831 2.576 0.146 o
-5 5 2 4.196 4.075 0.204 o
-5 5 3 3.265 3.243 0.279 o
-5 5 4 65.812 67.094 1.568 o
-5 5 6 8.965 8.547 0.321 o
-5 5 7 2.634 2.606 0.171 o
-5 5 8 6.054 6.152 0.241 o
-5 5 9 2.926 2.724 0.146 o
-5 5 10 3.464 3.586 0.185 o
-5 5 12 11.767 11.951 0.346 o
-5 5 13 4.362 4.676 0.243 o
-5 5 14 49.029 48.468 1.553 o
-5 5 16 0.792 0.643 0.134 o
-5 5 17 0.568 0.639 0.133 o
-5 5 18 1.489 1.505 0.228 o
-5 5 19 1.069 1.141 0.140 o
-5 5 20 2.676 2.497 0.541 o
-5 5 22 4.079 3.192 1.017 o
-5 6 3 20.152 20.424 0.720 o
-5 6 4 2.839 2.691 0.198 o
-5 6 5 1.485 1.679 0.177 o
-5 6 6 0.932 0.879 0.214 o
-5 6 7 1.824 1.784 0.203 o
-5 6 8 11.756 11.854 0.471 o
-5 6 9 2.520 2.524 0.250 o
-5 6 10 9.663 9.856 0.321 o
-5 6 11 0.775 0.703 0.119 o
-5 6 13 1.594 1.525 0.160 o
-5 6 15 4.199 3.957 0.285 o
-5 6 17 0.862 0.804 0.149 o
-5 6 18 3.507 3.526 0.217 o
-5 7 2 0.946 0.774 0.158 o
-5 7 7 2.463 1.985 0.231 o
-5 7 9 2.330 1.975 0.200 o
-5 7 10 2.119 1.683 0.195 o
-5 7 11 2.746 2.314 0.212 o
-4 0 2 999.768 980.941 23.128 o
-4 0 4 126.186 125.587 2.751 o
-4 0 6 46.097 46.500 1.120 o
-4 0 8 600.242 603.297 14.610 o
-4 0 10 1.826 2.320 0.413 o
-4 0 12 248.253 247.279 6.600 o
-4 0 14 1.841 2.234 0.301 o
-4 0 16 57.696 55.408 1.884 o
-4 0 18 133.553 135.137 7.620 o
-4 1 1 91.935 91.028 2.032 o
-4 1 2 59.072 58.085 1.336 o
-4 1 3 1.674 1.649 0.096 o
-4 1 4 33.983 34.951 0.840 o
-4 1 6 184.813 183.500 4.086 o
-4 1 7 90.232 90.719 2.032 o
-4 1 8 180.649 179.247 3.998 o
-4 1 9 46.610 47.374 1.228 o
-4 1 11 1.847 1.987 0.157 o
-4 1 12 84.175 84.395 1.980 o
-4 1 13 15.601 15.876 0.485 o
-4 1 14 16.704 17.557 0.608 o
-4 1 16 22.345 22.313 0.630 o
-4 1 17 4.603 4.786 0.270 o
-4 1 18 1.085 1.116 0.190 o
-4 1 19 53.423 55.080 1.451 o
-4 1 20 12.397 11.605 0.436 o
-4 1 21 1.539 1.409 0.237 o
-4 1 22 22.305 21.193 0.728 o
-4 2 1 55.162 54.201 1.255 o
-4 2 2 13.167 13.093 0.390 o
-4 2 3 79.493 79.976 1.849 o
-4 2 4 63.199 64.112 1.539 o
-4 2 5 6.098 6.039 0.302 o
-4 2 6 6.008 6.772 0.477 o
-4 2 7 7.272 7.225 0.503 o
-4 2 8 84.427 84.858 2.052 o
-4 2 9 14.580 15.068 0.704 o
-4 2 10 31.322 32.784 0.955 o
-4 2 11 7.751 8.126 0.409 o
-4 2 12 0.695 0.653 0.172 o
-4 2 13 3.369 3.110 0.270 o
-4 2 14 22.988 22.999 1.251 o
-4 2 15 35.239 33.678 0.995 o
-4 2 16 10.266 10.008 0.404 o
-4 2 17 7.568 7.451 0.392 o
-4 2 18 8.024 7.661 0.512 o
-4 2 19 6.212 5.733 0.666 o
-4 2 21 4.434 4.101 0.418 o
-4 2 24 2.537 1.841 0.425 o
-4 2 25 3.176 2.686 0.456 o
-4 2 27 6.967 6.811 0.525 o
-4 3 1 5.159 5.074 0.340 o
-4 3 2 14.354 15.485 0.501 o
-4 3 3 23.025 22.799 0.784 o
-4 3 4 245.549 247.819 5.641 o
-4 3 5 28.955 28.816 0.764 o
-4 3 6 8.168 8.199 0.337 o
-4 3 7 5.618 5.603 0.387 o
-4 3 9 36.548 37.360 0.941 o
-4 3 10 64.250 64.739 1.720 o
-4 3 11 20.595 20.683 0.723 o
-4 3 12 12.580 12.044 0.411 o
-4 3 13 1.133 1.085 0.121 o
-4 3 14 32.327 30.820 1.028 o
-4 3 15 5.666 5.732 0.251 o
-4 3 16 3.920 3.920 0.220 o
-4 3 17 14.544 15.319 0.459 o
-4 3 18 2.672 2.514 0.169 o
-4 3 20 6.049 5.548 0.290 o
-4 3 21 1.472 1.038 0.191 o
-4 4 2 5.026 4.935 0.236 o
-4 4 3 61.227 62.756 2.243 o
-4 4 4 0.821 0.977 0.135 o
-4 4 5 11.536 11.882 0.610 o
-4 4 6 28.964 29.290 0.872 o
-4 4 7 9.305 8.916 0.350 o
-4 4 8 4.490 4.363 0.192 o
-4 4 9 2.146 2.050 0.118 o
-4 4 10 2.988 3.101 0.222 o
-4 4 12 0.318 0.443 0.137 o
-4 4 13 28.323 26.634 0.693 o
-4 4 14 22.380 21.928 0.604 o
-4 4 15 0.912 0.686 0.148 o
-4 4 16 1.840 1.689 0.223 o
-4 4 17 4.550 4.809 0.289 o
-4 4 18 2.189 2.136 0.170 o
-4 4 20 4.492 4.555 0.263 o
-4 4 22 2.841 3.494 0.525 o
-4 4 23 5.410 5.547 0.644 o
-4 5 2 22.692 22.225 0.602 o
-4 5 3 2.407 2.387 0.185 o
-4 5 6 5.368 4.873 0.238 o
-4 5 8 8.054 7.742 0.298 o
-4 5 10 12.449 11.739 0.333 o
-4 5 11 1.412 1.225 0.124 o
-4 5 12 7.842 8.001 0.268 o
-4 5 13 0.581 0.637 0.123 o
-4 5 14 13.411 12.752 0.412 o
-4 5 17 1.760 1.524 0.177 o
-4 5 18 12.013 12.833 0.474 o
-4 5 22 6.091 5.547 0.576 o
-4 6 2 4.853 5.060 0.256 o
-4 6 3 13.355 13.684 0.421 o
-4 6 4 3.595 4.303 0.303 o
-4 6 5 5.824 6.058 0.289 o
-4 6 6 1.697 1.662 0.210 o
-4 6 7 9.576 9.014 0.315 o
-4 6 8 1.444 1.260 0.244 o
-4 6 11 0.597 0.696 0.132 o
-4 6 12 4.466 4.574 0.241 o
-4 6 13 20.292 20.376 0.561 o
-4 6 14 5.024 4.988 0.901 o
-4 6 16 1.077 1.122 0.240 o
-4 6 18 4.121 4.170 0.301 o
-4 6 19 0.619 0.576 0.138 o
-4 7 2 4.840 4.798 0.250 o
-4 7 3 5.126 5.051 0.259 o
-4 7 4 2.768 2.494 0.192 o
-4 7 6 0.901 0.666 0.189 o
-4 7 7 2.903 3.131 0.268 o
-4 7 8 2.162 2.227 0.233 o
-4 7 9 7.748 7.253 0.840 o
-4 7 11 0.831 0.644 0.170 o
-3 0 2 14.674 15.221 0.426 o
-3 0 4 91.153 88.485 1.924 o
-3 0 6 12.679 12.975 0.362 o
-3 0 8 23.052 22.976 0.881 o
-3 0 10 4.313 4.256 0.340 o
-3 0 12 150.890 151.322 4.025 o
-3 0 14 18.639 18.342 0.571 o
-3 0 16 14.232 13.474 0.483 o
-3 0 18 33.483 33.843 0.973 o
-3 0 20 10.020 8.528 0.550 o
-3 0 22 97.318 96.181 3.139 o
-3 1 1 336.665 335.892 7.488 o
-3 1 2 34.570 34.538 0.800 o
-3 1 3 162.520 165.794 3.816 o
-3 1 4 241.167 238.003 5.569 o
-3 1 5 215.556 218.715 5.445 o
-3 1 6 0.366 0.404 0.071 o
-3 1 7 359.096 363.281 8.102 o
-3 1 8 9.244 9.100 0.329 o
-3 1 9 62.873 63.291 1.466 o
-3 1 10 3.671 4.121 0.201 o
-3 1 11 165.589 163.459 3.807 o
-3 1 12 54.819 53.968 1.324 o
-3 1 13 0.761 0.592 0.120 o
-3 1 16 32.397 32.634 0.857 o
-3 1 17 60.431 60.580 1.610 o
-3 1 18 38.944 39.400 1.009 o
-3 1 20 2.149 2.333 0.214 o
-3 1 21 8.025 7.199 0.402 o
-3 1 22 2.119 1.924 0.266 o
-3 2 1 84.811 85.874 1.944 o
-3 2 2 183.230 184.398 4.150 o
-3 2 3 306.284 304.051 7.148 o
-3 2 4 28.432 27.323 0.943 o
-3 2 5 2.997 2.746 0.272 o
-3 2 6 142.171 146.363 3.441 o
-3 2 7 169.757 177.434 4.174 o
-3 2 8 290.836 302.790 7.026 o
-3 2 9 52.159 53.662 1.368 o
-3 2 10 11.223 11.851 0.447 o
-3 2 11 23.607 23.844 0.729 o
-3 2 12 1.948 1.852 0.211 o
-3 2 13 53.668 54.863 1.617 o
-3 2 14 0.728 0.897 0.293 o
-3 2 15 28.927 29.304 0.915 o
-3 2 16 15.017 14.992 0.567 o
-3 2 18 44.289 42.486 1.417 o
-3 2 20 3.601 3.294 0.381 o
-3 2 21 11.102 11.269 0.804 o
-3 3 1 3.697 3.664 0.429 o
-3 3 2 256.268 261.717 6.749 o
-3 3 3 3.456 3.346 0.423 o
-3 3 4 46.057 45.373 2.195 o
-3 3 5 21.902 21.742 0.602 o
-3 3 7 4.058 3.901 0.254 o
-3 3 8 18.407 18.810 0.565 o
-3 3 9 5.001 4.908 0.301 o
-3 3 10 20.836 21.229 0.585 o
-3 3 11 1.357 1.283 0.234 o
-3 3 12 42.414 42.685 1.633 o
-3 3 13 9.279 9.048 0.390 o
-3 3 14 70.330 68.427 1.906 o
-3 3 15 1.599 1.671 0.150 o
-3 3 17 1.324 1.177 0.136 o
-3 3 18 3.736 3.871 0.210 o
-3 3 19 10.459 9.927 0.360 o
-3 3 20 4.188 3.908 0.278 o
-3 3 21 6.338 6.574 0.319 o
-3 3 22 10.681 10.626 0.771 o
-3 4 1 21.304 21.832 1.113 o
-3 4 2 10.820 10.852 0.455 o
-3 4 3 59.771 61.383 1.396 o
-3 4 4 29.864 29.647 1.453 o
-3 4 6 25.085 25.538 0.963 o
-3 4 7 16.905 16.426 0.644 o
-3 4 8 0.540 0.574 0.117 o
-3 4 9 0.553 0.617 0.116 o
-3 4 10 38.565 38.432 1.178 o
-3 4 11 4.082 3.779 0.184 o
-3 4 12 2.750 2.888 0.164 o
-3 4 13 32.740 32.537 0.935 o
-3 4 14 5.929 6.142 0.256 o
-3 4 16 4.123 3.741 0.249 o
-3 4 17 10.640 10.010 0.481 o
-3 4 18 4.320 3.821 0.268 o
-3 4 20 9.269 9.312 1.079 o
-3 4 23 7.596 7.399 0.681 o
-3 4 24 3.756 3.635 0.559 o
-3 5 2 2.500 2.401 0.144 o
-3 5 3 4.613 4.442 0.213 o
-3 5 4 9.712 9.575 0.310 o
-3 5 5 1.112 1.184 0.125 o
-3 5 6 36.684 35.644 0.956 o
-3 5 7 4.186 3.977 0.191 o
-3 5 8 0.577 0.455 0.105 o
-3 5 9 4.490 4.556 0.210 o
-3 5 10 4.345 3.977 0.335 o
-3 5 11 1.434 1.522 0.133 o
-3 5 12 12.798 13.229 0.412 o
-3 5 14 1.652 1.585 0.187 o
-3 5 16 17.494 17.854 1.085 o
-3 5 17 1.062 1.124 0.308 o
-3 5 18 1.305 1.442 0.227 o
-3 5 20 2.635 2.760 0.197 o
-3 5 22 1.746 1.280 0.375 o
-3 6 1 8.726 9.036 0.301 o
-3 6 2 1.886 2.218 0.188 o
-3 6 3 0.900 1.077 0.147 o
-3 6 4 1.242 1.070 0.150 o
-3 6 5 0.758 0.593 0.137 o
-3 6 6 0.887 0.880 0.153 o
-3 6 7 0.759 0.795 0.156 o
-3 6 9 4.186 4.102 0.282 o
-3 6 10 3.053 2.806 0.263 o
-3 6 12 3.856 3.273 0.322 o
-3 6 13 1.870 1.615 0.169 o
-3 6 17 7.247 7.004 0.354 o
-3 7 1 0.852 0.762 0.134 o
-3 7 2 5.687 6.236 0.329 o
-3 7 4 4.782 4.460 0.295 o
-3 7 5 1.902 1.805 0.214 o
-3 7 12 6.678 6.703 0.639 o
-3 7 13 4.472 4.398 0.296 o
-3 7 14 1.467 1.066 0.184 o
-2 0 2 631.811 627.877 16.178 o
-2 0 4 2106.213 1977.448 67.080 o
-2 0 6 177.846 181.133 4.046 o
-2 0 8 474.820 475.279 10.610 o
-2 0 10 194.600 195.557 5.380 o
-2 0 12 16.043 17.089 0.764 o
-2 0 14 58.227 58.951 1.410 o
-2 0 16 11.891 12.412 0.470 o
-2 0 18 5.098 5.257 0.345 o
-2 0 20 16.554 17.041 0.631 o
-2 0 22 4.397 4.731 1.419 o
-2 1 1 189.540 194.327 4.495 o
-2 1 2 562.029 579.864 13.536 o
-2 1 3 21.559 21.043 0.507 o
-2 1 4 369.351 370.314 8.177 o
-2 1 5 20.465 21.103 0.498 o
-2 1 6 5.740 5.785 0.166 o
-2 1 7 35.627 35.189 0.811 o
-2 1 8 294.824 301.186 6.891 o
-2 1 9 23.820 23.543 0.609 o
-2 1 10 33.420 33.933 0.834 o
-2 1 11 85.265 83.871 1.909 o
-2 1 12 9.000 9.297 0.310 o
-2 1 13 33.630 33.625 0.844 o
-2 1 14 18.976 18.877 0.555 o
-2 1 15 11.947 11.817 0.376 o
-2 1 16 1.136 0.996 0.122 o
-2 1 17 30.912 31.527 0.801 o
-2 1 18 8.697 8.345 0.301 o
-2 1 19 1.752 1.632 0.258 o
-2 1 20 1.048 1.008 0.169 o
-2 1 21 58.508 56.795 1.538 o
-2 1 22 11.376 11.781 0.644 o
-2 2 1 154.780 155.472 3.439 o
-2 2 2 497.291 489.797 11.006 o
-2 2 3 9.735 9.623 0.290 o
-2 2 4 23.739 23.862 0.618 o
-2 2 5 3.501 3.372 0.173 o
-2 2 6 73.054 72.479 1.707 o
-2 2 7 35.330 35.013 0.918 o
-2 2 8 29.526 29.829 0.812 o
-2 2 9 16.812 16.584 0.486 o
-2 2 10 92.503 92.456 2.271 o
-2 2 11 14.277 14.244 0.473 o
-2 2 12 111.796 110.042 2.623 o
-2 2 13 30.982 31.435 0.949 o
-2 2 14 13.430 13.742 0.455 o
-2 2 15 2.257 2.160 0.180 o
-2 2 16 38.235 39.800 1.053 o
-2 2 17 56.248 55.107 1.414 o
-2 2 18 27.890 29.726 0.951 o
-2 2 19 8.324 8.424 0.372 o
-2 2 20 7.132 7.450 0.480 o
-2 2 22 9.803 9.001 1.380 o
-2 3 1 145.119 145.461 10.906 o
-2 3 2 69.881 68.896 1.737 o
-2 3 3 1.407 1.714 0.219 o
-2 3 4 9.704 9.505 0.449 o
-2 3 5 6.261 6.520 0.445 o
-2 3 6 373.411 372.488 10.675 o
-2 3 7 82.156 82.606 2.155 o
-2 3 8 25.957 25.536 0.687 o
-2 3 9 8.444 8.299 0.379 o
-2 3 10 22.644 23.605 0.979 o
-2 3 11 20.016 21.659 0.891 o
-2 3 12 85.837 84.948 3.162 o
-2 3 13 3.629 3.602 0.279 o
-2 3 14 5.182 5.069 0.224 o
-2 3 15 11.664 11.253 0.399 o
-2 3 16 33.342 33.586 0.888 o
-2 3 17 4.573 4.592 0.252 o
-2 3 18 9.632 9.648 0.418 o
-2 3 19 1.418 1.320 0.286 o
-2 3 20 15.838 15.356 0.669 o
-2 4 1 17.222 16.981 0.492 o
-2 4 2 62.233 63.083 1.450 o
-2 4 3 33.175 32.726 0.788 o
-2 4 4 0.494 0.666 0.137 o
-2 4 5 35.025 34.368 0.894 o
-2 4 6 3.912 3.821 0.305 o
-2 4 7 38.036 38.993 1.112 o
-2 4 10 24.462 24.404 0.633 o
-2 4 11 18.026 17.682 0.462 o
-2 4 13 10.803 11.066 0.374 o
-2 4 14 8.842 9.100 0.313 o
-2 4 15 10.478 10.495 0.410 o
-2 4 16 14.513 15.049 0.488 o
-2 4 17 11.344 11.304 0.614 o
-2 4 20 2.682 2.960 0.250 o
-2 4 21 2.368 2.243 0.513 o
-2 4 23 3.374 4.055 0.602 o
-2 4 24 6.151 6.702 0.619 o
-2 5 2 16.283 15.601 0.546 o
-2 5 3 3.470 3.238 0.261 o
-2 5 4 3.584 3.480 0.208 o
-2 5 5 4.265 3.810 0.211 o
-2 5 7 0.286 0.413 0.115 o
-2 5 8 1.212 1.119 0.133 o
-2 5 9 0.969 0.980 0.131 o
-2 5 10 3.160 3.148 0.189 o
-2 5 11 0.639 0.557 0.110 o
-2 5 12 0.976 1.003 0.111 o
-2 5 13 6.011 5.971 0.247 o
-2 5 14 2.502 2.372 0.327 o
-2 5 16 13.421 14.190 0.497 o
-2 5 19 1.486 1.363 0.219 o
-2 5 20 4.965 5.543 0.353 o
-2 5 21 1.496 1.388 0.211 o
-2 5 22 2.062 1.510 0.463 o
-2 6 1 0.606 0.601 0.143 o
-2 6 3 16.219 15.402 0.746 o
-2 6 5 9.159 8.813 0.369 o
-2 6 7 3.598 3.277 0.212 o
-2 6 8 2.005 2.146 0.203 o
-2 6 9 3.043 2.768 0.536 o
-2 6 11 6.497 6.655 0.297 o
-2 6 12 0.456 0.516 0.129 o
-2 6 14 1.563 1.357 0.165 o
-2 6 15 5.863 6.195 0.350 o
-2 7 1 6.219 7.008 0.363 o
-2 7 6 3.330 3.009 0.570 o
-2 7 7 4.747 5.117 0.688 o
-2 7 8 3.845 3.793 0.360 o
-2 7 10 1.496 1.528 0.227 o
-2 7 11 3.193 3.218 0.563 o
-1 0 2 772.525 787.540 17.827 o
-1 0 4 884.416 852.052 19.634 o
-1 0 6 211.545 208.632 4.454 o
-1 0 8 519.448 511.561 11.411 o
-1 0 10 3.299 3.458 0.193 o
-1 0 12 115.904 114.917 2.591 o
-1 0 14 51.345 52.165 1.261 o
-1 0 16 23.120 22.758 0.651 o
-1 0 18 62.301 62.046 1.625 o
-1 0 20 43.689 42.084 1.280 o
-1 1 1 2964.609 2828.339 74.795 o
-1 1 2 152.923 157.483 3.546 o
-1 1 3 343.812 357.670 7.743 o
-1 1 4 249.146 260.071 6.530 o
-1 1 5 1.153 1.171 0.083 o
-1 1 6 0.503 0.538 0.070 o
-1 1 7 433.659 439.089 9.790 o
-1 1 8 97.431 97.692 2.215 o
-1 1 9 175.748 178.846 4.025 o
-1 1 11 76.912 76.565 1.745 o
-1 1 12 88.951 90.260 2.057 o
-1 1 13 6.020 5.825 0.221 o
-1 1 14 46.641 46.906 1.125 o
-1 1 15 10.490 10.671 0.349 o
-1 1 16 6.583 6.361 0.245 o
-1 1 17 1.724 1.833 0.144 o
-1 1 18 15.123 15.528 0.525 o
-1 1 19 9.747 9.908 0.411 o
-1 1 20 2.742 2.574 0.418 o
-1 1 21 13.863 13.455 0.681 o
-1 1 22 12.713 12.726 0.646 o
-1 2 1 147.984 145.649 3.245 o
-1 2 2 8.453 8.375 0.266 o
-1 2 3 178.384 178.751 3.882 o
-1 2 4 237.463 241.417 6.724 o
-1 2 5 502.997 510.052 11.567 o
-1 2 6 19.274 19.721 0.583 o
-1 2 7 1.385 1.344 0.215 o
-1 2 8 47.490 47.755 1.159 o
-1 2 9 8.022 8.298 0.263 o
-1 2 10 189.921 189.325 4.273 o
-1 2 11 73.628 75.174 1.760 o
-1 2 12 35.140 34.599 0.895 o
-1 2 13 13.111 13.196 0.391 o
-1 2 14 1.332 1.385 0.149 o
-1 2 15 12.367 12.243 0.445 o
-1 2 18 5.739 5.680 0.268 o
-1 2 19 4.214 4.335 0.295 o
-1 2 20 49.557 47.577 1.447 o
-1 2 21 1.108 1.322 0.347 o
-1 3 2 33.016 33.408 1.026 o
-1 3 3 14.235 13.740 0.528 o
-1 3 4 56.878 58.732 1.532 o
-1 3 5 0.805 1.136 0.196 o
-1 3 6 109.009 110.045 2.662 o
-1 3 7 1.763 1.721 0.208 o
-1 3 8 6.542 6.664 0.268 o
-1 3 9 1.045 1.120 0.153 o
-1 3 10 32.948 32.630 0.870 o
-1 3 11 42.867 42.776 1.218 o
-1 3 13 1.117 1.134 0.165 o
-1 3 14 27.068 26.917 0.701 o
-1 3 15 5.909 5.994 0.276 o
-1 3 16 117.173 118.014 3.028 o
-1 3 17 11.847 11.910 0.360 o
-1 3 18 1.158 1.260 0.186 o
-1 3 19 4.175 4.339 0.245 o
-1 3 21 13.022 12.076 0.829 o
-1 4 1 6.246 6.019 0.255 o
-1 4 2 9.731 10.199 0.392 o
-1 4 4 0.362 0.355 0.094 o
-1 4 5 62.267 62.748 2.191 o
-1 4 6 84.076 84.668 2.848 o
-1 4 7 29.050 31.035 0.840 o
-1 4 8 7.730 7.815 0.652 o
-1 4 9 1.360 1.005 0.158 o
-1 4 11 2.978 3.101 0.166 o
-1 4 12 20.928 21.021 0.597 o
-1 4 14 3.615 3.731 0.214 o
-1 4 15 38.673 39.881 1.181 o
-1 4 16 4.384 4.944 0.304 o
-1 4 17 10.644 11.779 0.438 o
-1 4 20 10.228 8.706 0.784 o
-1 4 21 2.402 2.476 0.504 o
-1 5 1 10.442 11.033 0.386 o
-1 5 2 72.614 74.677 1.711 o
-1 5 3 1.251 1.229 0.165 o
-1 5 4 4.956 5.279 0.277 o
-1 5 6 32.641 31.003 0.753 o
-1 5 7 0.955 0.684 0.198 o
-1 5 8 0.771 0.616 0.118 o
-1 5 9 7.142 7.086 0.287 o
-1 5 10 15.040 15.304 0.457 o
-1 5 11 1.560 1.341 0.131 o
-1 5 12 14.237 14.562 0.409 o
-1 5 14 1.854 1.717 0.178 o
-1 5 15 1.114 1.068 0.164 o
-1 6 1 2.342 2.025 0.526 o
-1 6 2 6.917 7.838 0.360 o
-1 6 4 1.824 1.550 0.502 o
-1 6 6 9.146 9.490 1.714 o
-1 6 7 9.396 9.025 0.784 o
-1 6 8 2.670 2.460 0.241 o
-1 6 10 0.536 0.432 0.126 o
-1 6 13 3.455 3.402 0.208 o
-1 6 15 5.401 5.110 0.292 o
-1 6 16 0.604 0.469 0.143 o
-1 6 19 2.356 2.055 0.221 o
-1 7 3 3.534 3.623 0.608 o
-1 7 4 3.534 4.075 0.658 o
-1 7 6 4.067 4.461 0.636 o
-1 7 11 4.687 5.792 0.651 o
-1 7 14 3.985 3.937 0.356 o
0 0 2 145.533 144.713 3.086 o
0 0 4 71.019 71.419 1.570 o
0 0 6 1038.186 1043.661 24.032 o
0 0 8 302.864 297.809 7.754 o
0 0 10 420.207 422.637 9.514 o
0 0 12 14.398 14.946 0.435 o
0 0 14 53.182 55.095 1.474 o
0 0 16 10.722 10.143 0.516 o
0 0 20 10.667 9.598 0.529 o
0 0 22 17.106 17.239 1.391 o
0 1 1 464.733 462.061 9.763 o
0 1 2 92.137 91.968 2.217 o
0 1 3 18.957 18.511 0.493 o
0 1 4 1579.177 1536.030 35.236 o
0 1 5 72.108 74.057 1.642 o
0 1 6 322.025 321.083 7.129 o
0 1 7 38.221 37.627 0.880 o
0 1 8 29.275 28.048 0.660 o
0 1 9 38.950 38.897 0.900 o
0 1 10 151.007 153.342 3.429 o
0 1 11 212.475 215.326 4.829 o
0 1 13 27.244 26.951 0.717 o
0 1 14 9.096 9.237 0.287 o
0 1 15 3.758 3.547 0.199 o
0 1 16 3.830 3.854 0.236 o
0 1 17 20.516 21.215 0.566 o
0 1 18 26.440 25.580 0.718 o
0 1 19 51.336 50.373 1.305 o
0 1 20 3.130 3.316 0.330 o
0 1 21 16.414 16.469 0.576 o
0 1 22 4.250 3.571 0.375 o
0 2 0 13.732 13.960 0.412 o
0 2 1 76.628 76.726 1.867 o
0 2 2 133.099 132.353 3.026 o
0 2 4 190.147 187.588 4.123 o
0 2 5 50.448 50.419 1.186 o
0 2 6 5.366 5.498 0.226 o
0 2 7 141.745 143.694 3.220 o
0 2 8 0.413 0.344 0.077 o
0 2 9 56.843 57.023 1.458 o
0 2 10 26.920 26.994 0.666 o
0 2 11 1.443 1.544 0.120 o
0 2 12 17.516 17.788 0.486 o
0 2 13 10.421 10.086 0.325 o
0 2 14 59.237 58.326 1.420 o
0 2 15 98.657 97.090 2.364 o
0 2 16 2.782 2.762 0.161 o
0 2 18 11.880 11.854 0.480 o
0 2 19 12.450 12.440 0.566 o
0 2 20 25.762 24.508 0.805 o
0 2 21 13.420 12.881 1.992 o
0 3 1 51.598 52.800 1.318 o
0 3 2 119.493 119.146 3.006 o
0 3 3 86.638 85.521 1.841 o
0 3 4 58.288 57.559 1.480 o
0 3 5 16.233 16.612 0.491 o
0 3 7 0.953 0.907 0.111 o
0 3 8 101.003 98.693 2.322 o
0 3 9 42.052 41.622 1.003 o
0 3 10 1.307 1.192 0.117 o
0 3 11 1.402 1.635 0.151 o
0 3 12 7.073 6.826 0.335 o
0 3 14 28.019 28.192 0.678 o
0 3 16 1.169 1.172 0.116 o
0 3 17 5.234 5.466 0.268 o
0 3 18 4.731 4.812 0.268 o
0 3 20 12.840 12.825 0.437 o
0 4 0 2.757 2.352 0.252 o
0 4 1 12.233 12.682 0.385 o
0 4 2 59.050 59.026 1.353 o
0 4 3 3.977 4.009 0.208 o
0 4 4 12.593 11.730 0.413 o
0 4 5 77.875 78.207 1.889 o
0 4 6 6.512 5.919 0.286 o
0 4 8 5.608 5.815 0.303 o
0 4 9 6.544 6.384 0.266 o
0 4 10 17.119 16.277 0.484 o
0 4 11 0.656 0.668 0.201 o
0 4 12 24.566 24.189 0.605 o
0 4 13 6.220 6.207 0.254 o
0 4 15 26.787 27.064 0.903 o
0 4 16 17.217 17.835 0.472 o
0 4 17 0.807 0.617 0.135 o
0 4 18 2.318 2.061 0.172 o
0 4 19 3.576 3.208 0.779 o
0 4 20 4.127 4.461 0.885 o
0 5 2 7.571 7.750 0.427 o
0 5 3 1.188 1.167 0.172 o
0 5 4 24.903 24.703 1.059 o
0 5 5 3.268 3.534 0.487 o
0 5 6 75.504 73.871 1.641 o
0 5 8 6.568 7.060 0.313 o
0 5 11 3.862 4.050 0.274 o
0 5 12 8.054 8.042 0.289 o
0 5 13 1.080 1.186 0.141 o
0 5 14 14.487 14.718 0.445 o
0 5 15 1.778 1.843 0.199 o
0 5 16 24.466 25.107 0.653 o
0 5 18 0.902 1.022 0.237 o
0 5 19 1.921 1.912 0.235 o
0 5 20 2.762 3.067 0.361 o
0 5 22 2.916 3.291 0.514 o
0 6 0 17.968 18.402 1.003 o
0 6 1 5.990 7.008 0.345 o
0 6 2 9.916 9.263 0.535 o
0 6 3 4.104 4.062 0.296 o
0 6 4 0.731 0.668 0.183 o
0 6 5 29.141 28.414 0.748 o
0 6 8 0.885 1.166 0.164 o
0 6 10 12.060 12.322 0.370 o
0 6 11 1.369 1.276 0.163 o
0 6 12 4.940 4.633 0.259 o
0 6 13 4.858 5.297 0.249 o
0 6 14 0.305 0.565 0.162 o
0 6 15 1.775 2.175 0.194 o
0 6 16 1.863 2.080 0.422 o
0 7 1 8.891 8.604 1.172 o
0 7 8 1.086 0.914 0.210 o
0 7 9 7.202 7.200 0.371 o
0 7 10 1.878 1.579 0.296 o
0 7 14 0.789 0.862 0.195 o
1 0 0 374.240 393.044 8.478 o
1 0 2 10.277 10.596 0.332 o
1 0 4 1918.343 1783.530 56.223 o
1 0 6 233.846 230.575 5.420 o
1 0 8 75.608 71.989 1.620 o
1 0 10 703.393 703.293 16.323 o
1 0 12 6.547 6.499 0.255 o
1 0 14 89.631 88.036 2.099 o
1 0 16 12.616 12.305 1.023 o
1 0 18 89.281 88.314 2.303 o
1 0 20 92.111 87.906 2.661 o
1 1 0 1606.232 1612.870 36.982 o
1 1 1 39.052 39.260 0.937 o
1 1 2 433.258 446.823 10.302 o
1 1 3 828.040 818.675 18.676 o
1 1 4 68.754 68.781 1.576 o
1 1 5 118.572 116.399 2.655 o
1 1 6 217.404 218.887 4.875 o
1 1 7 19.047 18.987 0.476 o
1 1 8 95.492 95.176 2.133 o
1 1 9 195.822 197.053 4.404 o
1 1 10 75.517 76.449 1.730 o
1 1 12 1.999 2.167 0.133 o
1 1 13 7.118 7.133 0.244 o
1 1 14 128.874 131.177 3.187 o
1 1 15 4.414 4.258 0.225 o
1 1 16 23.875 24.330 0.682 o
1 1 17 3.755 3.706 0.216 o
1 1 18 4.353 4.220 0.247 o
1 1 19 11.768 11.705 0.567 o
1 1 20 5.149 5.075 0.390 o
1 1 21 10.223 10.189 0.476 o
1 2 0 332.386 333.626 7.636 o
1 2 1 281.330 274.862 6.115 o
1 2 3 367.545 365.486 8.168 o
1 2 4 19.729 19.453 0.481 o
1 2 5 92.517 92.688 2.097 o
1 2 6 167.298 165.494 3.685 o
1 2 7 82.828 81.957 1.848 o
1 2 8 6.232 5.938 0.221 o
1 2 9 7.460 7.458 0.310 o
1 2 10 5.040 4.866 0.245 o
1 2 11 8.843 9.121 0.326 o
1 2 12 15.295 15.123 0.424 o
1 2 13 27.587 28.433 0.791 o
1 2 14 6.725 7.128 0.271 o
1 2 15 0.931 0.807 0.154 o
1 2 16 5.854 6.114 0.250 o
1 2 17 4.273 4.210 0.357 o
1 2 18 0.175 0.404 0.132 o
1 2 19 6.218 6.786 0.303 o
1 3 0 19.274 19.426 0.699 o
1 3 1 31.653 32.315 0.782 o
1 3 2 48.405 47.452 1.112 o
1 3 4 8.346 8.337 0.287 o
1 3 5 22.174 21.129 0.561 o
1 3 6 45.147 44.938 1.205 o
1 3 7 19.185 19.372 0.501 o
1 3 8 26.141 25.398 0.653 o
1 3 9 10.354 10.358 0.311 o
1 3 10 0.817 0.793 0.110 o
1 3 11 15.450 15.519 0.506 o
1 3 12 35.234 34.702 0.852 o
1 3 13 29.021 29.033 0.687 o
1 3 14 15.117 15.445 0.527 o
1 3 15 0.944 1.007 0.148 o
1 3 17 1.593 1.605 0.190 o
1 3 18 37.056 35.526 0.935 o
1 3 19 15.143 15.612 0.737 o
1 4 0 17.907 18.612 0.506 o
1 4 1 0.637 0.728 0.120 o
1 4 2 57.041 57.540 1.325 o
1 4 3 15.095 15.281 0.442 o
1 4 4 2.870 2.982 0.272 o
1 4 5 53.392 52.917 1.340 o
1 4 6 8.539 8.557 0.395 o
1 4 7 1.306 1.488 0.186 o
1 4 8 60.291 59.509 1.382 o
1 4 9 11.978 12.222 0.385 o
1 4 11 1.354 1.312 0.111 o
1 4 12 1.572 1.699 0.129 o
1 4 13 8.114 7.995 0.273 o
1 4 14 1.798 1.793 0.139 o
1 4 15 18.656 19.224 0.537 o
1 4 16 13.100 13.553 0.393 o
1 4 17 4.096 3.705 0.201 o
1 4 18 0.814 0.787 0.218 o
1 4 19 4.448 4.298 0.412 o
1 4 22 7.635 7.774 0.684 o
1 5 0 4.528 4.688 0.327 o
1 5 2 12.640 13.118 0.435 o
1 5 3 0.614 0.559 0.127 o
1 5 4 92.563 90.197 2.338 o
1 5 5 4.316 4.387 0.237 o
1 5 7 0.980 0.903 0.183 o
1 5 8 8.016 8.196 0.274 o
1 5 9 0.724 0.750 0.106 o
1 5 10 2.316 2.584 0.202 o
1 5 11 0.907 0.853 0.155 o
1 5 12 22.883 23.250 0.569 o
1 5 14 20.112 21.179 0.545 o
1 5 16 7.181 7.325 0.403 o
1 5 20 2.313 1.484 0.456 o
1 6 0 6.487 6.262 0.338 o
1 6 1 6.143 7.066 0.346 o
1 6 2 2.819 2.711 0.242 o
1 6 4 5.436 5.830 0.343 o
1 6 5 11.922 12.346 0.431 o
1 6 6 4.039 4.331 0.246 o
1 6 8 12.830 12.574 0.433 o
1 6 9 11.925 12.377 0.391 o
1 6 10 6.646 6.816 0.275 o
1 6 13 2.418 2.539 0.204 o
1 6 15 12.322 12.317 0.413 o
1 6 16 1.279 1.265 0.177 o
1 6 17 1.769 2.011 0.301 o
1 6 18 2.259 2.574 0.587 o
1 7 0 2.144 2.215 0.248 o
1 7 1 1.688 1.984 0.238 o
1 7 2 0.730 0.882 0.202 o
1 7 4 1.666 1.598 0.522 o
1 7 5 3.988 4.069 0.649 o
1 7 9 4.691 4.714 0.540 o
1 7 11 2.737 2.724 0.201 o
1 7 13 2.705 2.496 0.275 o
2 0 0 24.067 25.094 0.827 o
2 0 2 3781.089 3372.849 81.070 o
2 0 4 8.228 8.408 0.231 o
2 0 6 4.418 4.386 0.203 o
2 0 8 104.451 107.210 2.545 o
2 0 10 35.409 35.323 0.894 o
2 0 12 78.833 79.327 1.936 o
2 0 14 101.702 103.185 2.587 o
2 0 16 36.376 34.645 0.992 o
2 0 18 4.984 4.809 1.015 o
2 0 20 19.336 19.040 1.071 o
2 1 0 376.707 382.936 8.472 o
2 1 1 69.427 69.941 1.589 o
2 1 2 2.847 2.702 0.132 o
2 1 3 484.932 478.241 10.728 o
2 1 4 9.771 9.472 0.272 o
2 1 5 20.923 20.575 0.545 o
2 1 6 436.499 429.550 9.618 o
2 1 7 31.550 31.588 0.739 o
2 1 8 49.024 48.604 1.118 o
2 1 9 184.586 185.083 4.141 o
2 1 10 43.681 45.789 1.074 o
2 1 11 1.804 1.827 0.142 o
2 1 12 24.541 24.637 0.872 o
2 1 13 122.908 124.897 3.176 o
2 1 14 3.263 3.387 0.201 o
2 1 15 5.338 5.147 0.302 o
2 1 16 0.488 0.363 0.112 o
2 1 17 4.500 4.749 0.251 o
2 1 18 22.048 21.971 0.765 o
2 1 19 34.405 33.654 0.953 o
2 1 20 26.250 25.840 0.870 o
2 2 0 534.438 536.709 12.208 o
2 2 1 1.650 1.610 0.096 o
2 2 2 2.896 2.996 0.125 o
2 2 3 17.471 17.550 0.463 o
2 2 4 1.019 0.993 0.099 o
2 2 5 157.533 155.453 3.483 o
2 2 6 10.740 10.657 0.344 o
2 2 7 58.221 57.909 1.363 o
2 2 8 57.362 56.728 1.349 o
2 2 9 79.499 79.538 1.824 o
2 2 10 77.243 77.087 1.888 o
2 2 11 32.299 32.076 0.825 o
2 2 12 0.389 0.336 0.110 o
2 2 13 36.248 36.424 0.917 o
2 2 14 1.621 1.830 0.125 o
2 2 15 12.996 13.061 0.365 o
2 2 16 12.944 13.627 0.435 o
2 2 17 47.394 45.587 1.236 o
2 2 18 2.293 2.106 0.205 o
2 2 20 2.074 2.076 0.239 o
2 3 0 13.324 13.926 1.157 o
2 3 1 29.860 30.240 0.866 o
2 3 2 92.004 92.519 2.109 o
2 3 3 4.577 4.962 0.436 o
2 3 4 223.038 221.831 5.006 o
2 3 5 7.711 7.724 0.255 o
2 3 6 2.440 2.583 0.151 o
2 3 7 30.136 29.115 0.723 o
2 3 8 1.820 1.840 0.140 o
2 3 9 1.551 1.546 0.135 o
2 3 10 2.446 2.350 0.154 o
2 3 12 3.824 3.991 0.172 o
2 3 14 8.675 8.780 0.281 o
2 3 15 5.126 4.882 0.216 o
2 3 16 3.980 3.875 0.238 o
2 3 18 1.556 1.425 0.162 o
2 3 21 1.849 1.880 0.550 o
2 4 0 13.405 13.688 0.760 o
2 4 2 2.010 2.454 0.240 o
2 4 3 56.560 56.562 1.355 o
2 4 4 55.423 55.587 1.282 o
2 4 5 19.260 19.684 0.548 o
2 4 6 3.616 3.805 0.224 o
2 4 7 18.882 19.121 0.512 o
2 4 8 5.177 5.259 0.219 o
2 4 9 6.831 6.552 0.214 o
2 4 10 1.692 1.660 0.111 o
2 4 11 0.231 0.385 0.085 o
2 4 12 35.652 35.636 0.822 o
2 4 13 12.106 11.576 0.435 o
2 4 14 7.932 7.851 0.305 o
2 4 15 5.783 6.124 0.248 o
2 4 17 6.306 6.691 0.275 o
2 4 18 11.165 12.095 0.521 o
2 4 19 3.836 4.400 0.311 o
2 4 22 2.275 2.745 0.449 o
2 5 0 11.717 11.821 0.503 o
2 5 1 3.983 3.873 0.193 o
2 5 2 1.856 1.713 0.163 o
2 5 3 1.450 1.209 0.105 o
2 5 4 2.990 3.084 0.155 o
2 5 5 1.309 1.181 0.148 o
2 5 6 1.930 1.948 0.138 o
2 5 8 72.703 73.040 1.731 o
2 5 9 5.909 6.201 0.279 o
2 5 10 3.767 3.673 0.182 o
2 5 12 0.847 0.931 0.121 o
2 5 13 1.621 1.561 0.142 o
2 5 14 18.711 19.125 0.648 o
2 5 15 1.156 1.202 0.153 o
2 5 16 6.999 7.258 0.386 o
2 5 18 16.063 16.978 0.657 o
2 5 19 0.944 0.794 0.167 o
2 6 0 0.902 0.959 0.156 o
2 6 1 0.583 0.734 0.134 o
2 6 2 7.278 7.344 0.289 o
2 6 3 13.022 13.236 0.364 o
2 6 4 7.117 7.366 0.334 o
2 6 7 5.651 5.298 0.228 o
2 6 8 0.724 0.825 0.121 o
2 6 9 0.556 0.532 0.131 o
2 6 11 3.513 3.246 0.303 o
2 6 12 7.954 8.558 0.327 o
2 6 13 0.631 0.930 0.126 o
2 6 14 4.543 4.652 0.239 o
2 6 16 1.118 0.942 0.169 o
2 7 0 1.272 1.328 0.219 o
2 7 1 2.436 2.165 0.242 o
2 7 3 2.225 2.204 0.530 o
2 7 4 4.556 4.859 0.429 o
2 7 6 2.268 2.213 0.197 o
2 7 7 3.244 3.315 0.323 o
2 7 13 0.796 0.726 0.176 o
3 0 0 405.018 401.504 8.932 o
3 0 2 193.047 189.946 4.530 o
3 0 4 21.573 21.046 0.635 o
3 0 6 603.745 588.537 13.438 o
3 0 8 10.924 10.581 0.374 o
3 0 10 1.231 1.090 0.148 o
3 0 12 283.548 287.855 6.831 o
3 0 14 3.592 3.680 0.772 o
3 0 16 11.425 11.795 0.556 o
3 0 18 9.984 9.427 0.955 o
3 0 20 36.956 35.817 1.199 o
3 1 0 114.579 112.033 2.686 o
3 1 1 452.079 443.103 11.050 o
3 1 2 454.453 455.044 10.219 o
3 1 3 42.232 41.806 1.014 o
3 1 4 12.258 12.190 0.312 o
3 1 5 5.387 5.244 0.161 o
3 1 6 4.824 4.802 0.179 o
3 1 7 29.810 29.841 0.718 o
3 1 8 38.590 39.716 0.940 o
3 1 9 1.387 1.454 0.121 o
3 1 10 85.982 88.261 2.024 o
3 1 11 13.879 14.490 0.479 o
3 1 12 11.398 11.773 0.377 o
3 1 13 37.145 38.458 0.981 o
3 1 14 0.663 0.496 0.113 o
3 1 15 3.174 3.419 0.190 o
3 1 16 59.259 57.838 1.455 o
3 1 17 1.409 1.465 0.161 o
3 1 18 2.946 2.880 0.315 o
3 1 19 7.844 8.003 0.536 o
3 2 0 1.809 1.982 0.111 o
3 2 1 7.678 7.960 0.253 o
3 2 2 280.076 284.403 6.367 o
3 2 3 106.637 106.495 2.407 o
3 2 4 94.872 93.445 2.134 o
3 2 5 62.919 62.395 1.456 o
3 2 6 44.994 45.243 1.071 o
3 2 7 3.757 3.907 0.184 o
3 2 8 106.154 103.877 2.349 o
3 2 9 2.517 2.368 0.140 o
3 2 10 11.300 11.256 0.357 o
3 2 11 9.328 9.197 0.343 o
3 2 12 22.381 23.057 0.660 o
3 2 13 2.981 3.078 0.174 o
3 2 14 8.269 8.023 0.270 o
3 2 15 1.275 1.407 0.150 o
3 2 16 2.059 1.918 0.187 o
3 2 17 7.124 7.164 0.435 o
3 2 18 21.431 21.850 1.243 o
3 2 19 15.009 13.163 0.652 o
3 2 20 6.709 8.245 0.873 o
3 3 0 72.126 70.710 2.006 o
3 3 1 2.056 1.836 0.352 o
3 3 2 21.398 20.430 0.562 o
3 3 3 100.242 99.956 2.332 o
3 3 4 110.702 109.143 2.626 o
3 3 6 20.660 21.087 0.558 o
3 3 7 2.074 1.990 0.153 o
3 3 8 116.939 113.826 2.601 o
3 3 9 35.819 35.832 0.887 o
3 3 11 16.102 15.663 0.419 o
3 3 12 33.538 33.230 0.776 o
3 3 13 12.488 12.853 0.364 o
3 3 14 49.896 49.628 1.610 o
3 3 15 4.520 4.602 0.301 o
3 3 16 8.262 8.465 0.309 o
3 3 17 7.345 7.666 0.292 o
3 3 18 2.176 2.541 0.244 o
3 4 0 6.460 6.842 0.290 o
3 4 2 2.421 2.196 0.294 o
3 4 3 18.927 19.165 0.523 o
3 4 4 38.794 37.883 0.929 o
3 4 5 0.216 0.331 0.106 o
3 4 7 56.380 55.476 1.249 o
3 4 8 20.513 20.629 0.508 o
3 4 9 10.292 10.402 0.301 o
3 4 10 11.320 10.836 0.357 o
3 4 12 1.797 1.965 0.134 o
3 4 13 13.712 13.505 0.512 o
3 4 14 3.174 3.259 0.178 o
3 4 16 2.412 2.597 0.175 o
3 4 17 16.691 17.829 0.553 o
3 4 18 9.768 10.268 0.606 o
3 5 0 17.682 16.997 0.802 o
3 5 1 9.428 9.411 0.280 o
3 5 2 3.099 3.070 0.157 o
3 5 5 2.024 2.051 0.149 o
3 5 6 15.947 16.148 0.432 o
3 5 7 4.716 4.697 0.215 o
3 5 8 1.645 1.623 0.129 o
3 5 9 0.419 0.336 0.108 o
3 5 12 1.638 1.567 0.158 o
3 5 14 1.648 1.735 0.163 o
3 5 15 1.985 2.072 0.169 o
3 5 16 4.292 4.542 0.231 o
3 5 18 14.596 15.347 0.517 o
3 5 19 0.448 0.640 0.201 o
3 6 1 1.037 0.956 0.130 o
3 6 2 1.362 1.424 0.131 o
3 6 3 0.646 0.548 0.119 o
3 6 4 1.139 1.185 0.159 o
3 6 5 3.452 3.953 0.287 o
3 6 6 0.771 0.738 0.134 o
3 6 7 14.745 14.748 0.565 o
3 6 9 0.666 0.662 0.124 o
3 6 10 2.192 2.213 0.156 o
3 6 11 2.612 2.357 0.214 o
3 6 12 2.774 2.867 0.166 o
3 6 13 4.023 4.437 0.261 o
3 6 15 0.800 0.849 0.140 o
3 6 17 5.711 5.137 0.555 o
3 7 0 1.288 1.599 0.170 o
3 7 2 3.838 3.873 0.241 o
3 7 3 4.925 5.047 0.256 o
3 7 8 1.231 0.987 0.189 o
3 7 9 2.024 1.926 0.210 o
3 7 10 1.574 1.277 0.141 o
3 7 11 2.748 2.452 0.190 o
3 7 12 0.867 0.740 0.155 o
4 0 0 44.454 43.320 1.551 o
4 0 4 37.936 38.046 0.976 o
4 0 6 13.370 13.347 0.442 o
4 0 8 0.926 0.904 0.126 o
4 0 10 4.508 4.960 0.303 o
4 0 12 2.950 3.070 0.301 o
4 0 16 49.196 48.470 1.688 o
4 1 0 2.407 2.479 0.123 o
4 1 1 153.808 154.241 3.419 o
4 1 2 190.128 189.414 4.216 o
4 1 3 214.804 212.956 4.951 o
4 1 4 3.163 3.091 0.138 o
4 1 5 92.727 91.441 2.049 o
4 1 6 41.481 41.347 1.060 o
4 1 7 8.423 8.512 0.272 o
4 1 8 27.992 28.741 0.715 o
4 1 9 20.644 20.221 0.533 o
4 1 11 129.290 133.347 3.021 o
4 1 12 11.597 11.393 0.397 o
4 1 13 6.537 6.475 0.298 o
4 1 14 2.446 2.564 0.175 o
4 1 15 9.465 9.502 0.342 o
4 1 16 3.364 3.315 0.209 o
4 1 17 8.573 8.529 0.882 o
4 2 0 121.360 121.309 2.727 o
4 2 1 75.860 76.372 1.735 o
4 2 2 303.328 299.346 6.683 o
4 2 3 57.052 55.764 1.416 o
4 2 4 15.368 14.923 0.494 o
4 2 5 0.485 0.597 0.093 o
4 2 6 6.980 7.065 0.264 o
4 2 7 156.052 154.816 3.953 o
4 2 8 0.728 0.722 0.115 o
4 2 9 14.482 14.470 0.409 o
4 2 10 41.186 41.494 0.999 o
4 2 11 1.299 1.239 0.146 o
4 2 12 103.365 101.455 2.527 o
4 2 13 27.259 27.388 0.672 o
4 2 14 11.253 11.423 0.470 o
4 2 15 26.381 26.941 0.940 o
4 2 16 2.320 2.088 0.199 o
4 2 17 5.393 5.445 0.498 o
4 2 18 5.551 5.592 0.461 o
4 2 19 2.830 2.288 0.546 o
4 3 0 6.015 5.958 0.316 o
4 3 1 36.895 37.005 0.870 o
4 3 2 1.127 1.075 0.111 o
4 3 3 1.433 1.571 0.125 o
4 3 4 49.568 49.803 1.145 o
4 3 5 3.581 3.794 0.180 o
4 3 6 107.671 107.436 2.409 o
4 3 8 56.069 53.379 1.319 o
4 3 9 6.292 5.793 0.199 o
4 3 10 9.978 10.023 0.286 o
4 3 11 0.414 0.418 0.093 o
4 3 13 13.539 13.507 0.384 o
4 3 16 23.888 24.319 0.626 o
4 3 17 2.989 3.039 0.223 o
4 3 18 33.744 33.130 3.309 o
4 3 19 2.582 2.464 0.521 o
4 4 0 67.393 70.332 1.594 o
4 4 1 0.571 0.666 0.148 o
4 4 2 0.597 0.605 0.148 o
4 4 3 2.868 3.101 0.188 o
4 4 4 1.654 1.598 0.119 o
4 4 5 21.067 20.919 0.503 o
4 4 6 13.732 13.828 0.522 o
4 4 7 41.249 40.681 0.937 o
4 4 8 21.237 21.050 0.589 o
4 4 9 1.006 0.744 0.105 o
4 4 10 1.394 1.405 0.121 o
4 4 11 0.453 0.551 0.097 o
4 4 13 0.548 0.518 0.105 o
4 4 14 21.461 22.130 0.683 o
4 4 15 5.317 5.268 0.365 o
4 4 17 18.972 19.626 0.543 o
4 4 20 1.805 1.668 0.353 o
4 5 1 2.132 2.476 0.156 o
4 5 2 0.899 0.872 0.107 o
4 5 3 3.545 3.392 0.206 o
4 5 4 22.885 22.966 0.912 o
4 5 5 2.169 2.101 0.150 o
4 5 6 9.819 9.727 0.341 o
4 5 8 2.185 1.894 0.134 o
4 5 10 15.141 15.772 0.434 o
4 5 11 7.742 8.382 0.289 o
4 5 12 1.980 1.840 0.146 o
4 5 16 8.097 8.431 0.303 o
4 5 17 1.135 1.277 0.159 o
4 6 0 0.942 0.945 0.136 o
4 6 1 3.945 3.969 0.218 o
4 6 2 0.534 0.596 0.115 o
4 6 3 0.705 0.544 0.116 o
4 6 5 2.652 2.547 0.190 o
4 6 7 0.864 0.708 0.123 o
4 6 8 2.075 2.057 0.188 o
4 6 9 1.880 2.127 0.154 o
4 6 14 1.561 1.353 0.260 o
4 7 1 4.906 5.263 0.258 o
4 7 2 0.863 0.903 0.183 o
4 7 5 1.048 0.636 0.161 o
4 7 6 6.904 6.729 0.338 o
4 7 7 0.506 0.793 0.158 o
4 7 8 3.883 3.462 0.232 o
5 0 0 62.352 61.421 1.852 o
5 0 2 687.800 680.863 15.806 o
5 0 4 12.265 12.609 0.444 o
5 0 6 6.857 6.856 0.281 o
5 0 8 145.453 144.201 3.144 o
5 0 10 71.983 72.835 2.011 o
5 0 12 17.893 16.550 0.633 o
5 0 14 15.339 15.742 0.557 o
5 0 16 15.176 15.431 0.864 o
5 1 0 0.462 0.583 0.082 o
5 1 1 109.751 110.551 2.460 o
5 1 2 60.386 59.160 1.495 o
5 1 3 1.810 1.885 0.144 o
5 1 4 39.016 39.433 0.948 o
5 1 5 1.240 1.253 0.092 o
5 1 6 82.970 82.713 2.144 o
5 1 7 5.234 5.142 0.244 o
5 1 8 1.510 1.246 0.136 o
5 1 9 1.851 1.967 0.149 o
5 1 11 29.340 29.187 0.827 o
5 1 12 55.668 55.166 1.284 o
5 1 13 17.135 16.355 0.558 o
5 1 15 18.196 17.954 0.610 o
5 2 0 24.400 24.924 0.609 o
5 2 1 25.867 25.541 0.855 o
5 2 2 3.509 3.713 0.176 o
5 2 3 24.950 25.122 0.634 o
5 2 4 61.685 61.183 1.514 o
5 2 5 14.677 14.379 0.494 o
5 2 6 48.409 49.362 1.285 o
5 2 7 4.484 4.237 0.227 o
5 2 8 14.399 14.582 0.452 o
5 2 9 10.895 10.953 0.485 o
5 2 10 40.715 40.907 0.937 o
5 2 11 10.749 11.068 0.419 o
5 2 12 22.020 21.820 0.626 o
5 2 14 6.027 6.075 0.334 o
5 2 16 12.254 12.205 0.566 o
5 2 17 25.681 26.411 1.103 o
5 2 18 2.998 3.082 0.572 o
5 2 19 2.826 3.084 0.584 o
5 3 0 123.198 125.025 3.029 o
5 3 1 27.101 27.538 0.837 o
5 3 2 5.365 5.784 0.246 o
5 3 3 4.461 4.435 0.215 o
5 3 4 4.114 3.900 0.311 o
5 3 5 41.397 41.210 1.016 o
5 3 6 92.283 91.037 2.019 o
5 3 7 4.797 4.725 0.265 o
5 3 8 3.254 3.186 0.162 o
5 3 10 38.260 38.346 0.884 o
5 3 11 21.692 21.656 0.538 o
5 3 12 0.673 0.778 0.110 o
5 3 13 4.374 4.636 0.230 o
5 3 14 30.022 29.775 0.759 o
5 3 15 0.862 0.889 0.233 o
5 3 16 33.551 34.762 1.975 o
5 3 19 4.358 4.703 0.699 o
5 4 0 9.038 8.832 0.309 o
5 4 1 4.501 4.248 0.192 o
5 4 3 1.233 1.328 0.106 o
5 4 4 25.985 25.852 0.629 o
5 4 5 18.985 19.161 0.483 o
5 4 6 8.667 8.656 0.275 o
5 4 7 19.280 18.951 0.496 o
5 4 9 7.860 7.481 0.387 o
5 4 10 16.193 16.586 0.661 o
5 4 11 2.785 2.944 0.174 o
5 4 12 0.641 0.698 0.109 o
5 4 14 2.532 2.568 0.178 o
5 4 15 12.482 13.323 0.397 o
5 4 16 1.306 1.482 0.178 o
5 4 17 5.092 5.244 0.933 o
5 4 18 7.737 7.937 0.378 o
5 5 0 5.147 5.119 0.210 o
5 5 2 4.909 5.078 0.235 o
5 5 3 1.214 1.252 0.122 o
5 5 4 3.513 3.440 0.173 o
5 5 6 6.588 6.590 0.318 o
5 5 7 1.329 1.486 0.149 o
5 5 8 7.654 7.594 0.375 o
5 5 9 0.334 0.403 0.116 o
5 5 14 2.931 2.909 0.187 o
5 5 15 0.964 1.147 0.149 o
5 5 16 2.783 2.895 0.207 o
5 6 0 7.147 7.470 0.418 o
5 6 1 4.610 5.020 0.222 o
5 6 2 4.299 4.440 0.214 o
5 6 3 2.078 2.238 0.158 o
5 6 4 1.682 1.560 0.189 o
5 6 5 8.115 7.897 0.392 o
5 6 6 3.088 3.112 0.225 o
5 6 7 12.156 11.882 0.352 o
5 6 8 0.730 1.105 0.151 o
5 6 9 2.150 2.356 0.177 o
5 6 12 0.557 0.610 0.186 o
5 7 0 1.843 2.041 0.186 o
5 7 1 8.928 8.454 0.364 o
5 7 2 1.715 1.835 0.215 o
5 7 3 2.180 1.918 0.393 o
5 7 4 1.277 1.017 0.192 o
5 7 5 0.880 0.806 0.160 o
5 7 7 0.871 0.888 0.159 o
6 0 0 234.520 237.550 7.041 o
6 0 2 30.549 29.453 1.116 o
6 0 4 1.635 1.613 0.151 o
6 0 6 44.016 45.562 1.118 o
6 0 8 15.964 16.020 0.432 o
6 0 10 33.953 34.809 1.006 o
6 0 12 94.864 91.397 2.864 o
6 0 14 4.227 4.283 0.396 o
6 1 0 0.614 0.569 0.119 o
6 1 1 187.021 189.795 4.626 o
6 1 2 62.674 62.290 1.402 o
6 1 3 23.010 23.191 0.646 o
6 1 4 54.541 56.560 1.421 o
6 1 5 58.277 60.509 1.494 o
6 1 6 21.581 21.691 0.577 o
6 1 7 11.792 12.471 0.477 o
6 1 8 43.010 42.830 1.269 o
6 1 9 35.031 36.294 0.915 o
6 1 11 32.532 33.069 0.841 o
6 1 12 0.713 0.504 0.163 o
6 1 13 13.574 13.669 0.983 o
6 1 15 2.159 2.247 0.208 o
6 1 16 26.719 26.299 1.961 o
6 2 1 9.565 9.239 0.289 o
6 2 3 13.609 13.727 0.532 o
6 2 4 48.634 48.727 1.167 o
6 2 5 98.649 98.252 2.769 o
6 2 6 2.215 2.351 0.192 o
6 2 7 1.153 1.142 0.141 o
6 2 8 5.295 4.781 0.499 o
6 2 9 34.595 34.886 0.820 o
6 2 10 1.556 1.622 0.153 o
6 2 11 5.609 5.725 0.333 o
6 2 12 3.250 3.490 0.252 o
6 2 13 7.139 6.761 0.386 o
6 2 14 34.223 32.985 1.123 o
6 2 15 15.913 16.267 0.842 o
6 2 16 7.985 8.206 0.786 o
6 3 2 0.676 0.474 0.137 o
6 3 3 0.705 0.895 0.242 o
6 3 7 5.099 4.858 0.236 o
6 3 8 6.261 6.123 0.223 o
6 3 9 3.163 3.167 0.230 o
6 3 10 33.504 33.077 0.781 o
6 3 11 1.807 1.563 0.173 o
6 3 12 1.293 1.171 0.140 o
6 3 13 0.664 0.606 0.187 o
6 3 15 12.637 13.052 1.135 o
6 3 16 5.845 6.226 0.381 o
6 3 18 8.574 9.096 0.758 o
6 4 0 16.891 16.331 0.437 o
6 4 2 26.600 26.207 0.690 o
6 4 4 6.373 6.170 0.234 o
6 4 5 14.634 14.520 0.498 o
6 4 6 0.825 0.717 0.112 o
6 4 7 2.058 2.093 0.143 o
6 4 9 7.637 8.065 0.338 o
6 4 10 18.686 18.946 0.509 o
6 4 11 1.864 1.922 0.148 o
6 4 14 3.219 3.238 0.261 o
6 4 15 4.822 4.769 0.272 o
6 4 16 3.939 3.801 0.353 o
6 5 0 27.411 27.026 0.657 o
6 5 1 4.300 4.255 0.206 o
6 5 3 0.681 0.829 0.159 o
6 5 4 15.601 15.925 0.445 o
6 5 6 46.728 48.958 1.125 o
6 5 7 3.046 3.194 0.275 o
6 5 8 0.583 0.611 0.141 o
6 5 9 1.364 1.478 0.143 o
6 5 12 0.556 0.616 0.127 o
6 5 13 1.617 1.585 0.162 o
6 5 14 8.324 8.452 0.389 o
6 5 16 3.655 3.632 0.274 o
6 6 0 11.789 11.824 0.353 o
6 6 1 2.340 2.484 0.283 o
6 6 2 4.885 5.049 0.249 o
6 6 3 5.627 5.500 0.380 o
6 6 5 1.276 1.305 0.215 o
6 6 7 2.149 2.043 0.154 o
6 6 8 0.902 0.812 0.143 o
6 6 9 0.546 0.541 0.140 o
6 6 10 7.351 7.168 0.272 o
6 6 11 5.121 4.881 0.229 o
6 6 12 1.461 1.338 0.145 o
6 7 0 1.921 1.955 0.214 o
6 7 1 0.592 0.705 0.186 o
6 7 2 0.658 0.568 0.185 o
6 7 7 2.113 1.608 0.261 o
7 0 0 110.075 112.027 2.698 o
7 0 2 36.728 37.248 1.157 o
7 0 4 268.861 267.882 22.485 o
7 0 8 44.500 44.252 1.129 o
7 0 10 60.344 58.712 2.177 o
7 0 12 17.586 16.347 1.255 o
7 0 14 12.598 11.356 1.123 o
7 1 0 83.857 85.297 1.891 o
7 1 1 1.128 1.081 0.103 o
7 1 3 7.452 7.746 0.251 o
7 1 4 35.483 35.093 0.844 o
7 1 5 40.767 41.962 1.041 o
7 1 6 1.015 0.998 0.124 o
7 1 7 1.501 1.353 0.156 o
7 1 8 46.753 46.568 1.147 o
7 1 10 3.381 3.423 0.252 o
7 1 11 16.783 16.198 1.271 o
7 1 12 15.548 14.618 1.097 o
7 1 13 15.498 15.129 0.679 o
7 1 14 24.018 23.478 1.716 o
7 2 0 36.260 37.088 0.956 o
7 2 1 11.182 11.201 0.521 o
7 2 2 6.327 7.028 0.252 o
7 2 3 4.940 5.105 0.263 o
7 2 5 0.754 0.877 0.137 o
7 2 6 5.817 5.633 0.274 o
7 2 7 3.363 3.354 0.266 o
7 2 8 7.220 7.330 0.414 o
7 2 9 21.147 21.142 0.555 o
7 2 10 0.944 1.026 0.178 o
7 2 11 10.444 10.527 0.431 o
7 2 13 4.152 4.132 0.607 o
7 2 14 6.825 6.571 0.734 o
7 2 15 11.576 12.039 0.825 o
7 2 16 1.118 1.458 0.484 o
7 3 0 0.650 0.619 0.094 o
7 3 1 28.521 28.923 0.758 o
7 3 2 22.727 22.397 0.720 o
7 3 3 15.577 15.399 0.615 o
7 3 4 14.527 14.590 0.389 o
7 3 5 1.026 1.145 0.126 o
7 3 6 6.850 6.840 0.337 o
7 3 7 3.373 3.144 0.177 o
7 3 8 12.389 12.543 0.383 o
7 3 9 10.223 9.914 0.570 o
7 3 10 1.774 2.059 0.234 o
7 3 12 3.494 3.680 0.294 o
7 3 13 1.586 1.410 0.460 o
7 3 16 1.909 2.093 0.341 o
7 3 18 3.482 3.701 0.627 o
7 4 0 9.958 10.118 0.320 o
7 4 1 1.535 1.612 0.181 o
7 4 2 1.662 1.862 0.146 o
7 4 3 1.235 1.157 0.133 o
7 4 4 2.691 2.638 0.237 o
7 4 5 21.342 21.297 0.560 o
7 4 6 30.677 31.489 0.901 o
7 4 9 10.605 10.819 0.423 o
7 4 12 5.103 4.958 0.257 o
7 4 13 0.318 0.560 0.176 o
7 4 14 7.267 7.350 0.390 o
7 4 15 3.636 3.432 0.640 o
7 4 16 1.265 1.422 0.203 o
7 5 0 14.133 13.765 0.403 o
7 5 2 12.960 13.502 0.447 o
7 5 3 1.459 1.600 0.159 o
7 5 4 2.548 2.471 0.389 o
7 5 6 1.167 0.963 0.196 o
7 5 8 3.794 3.816 0.220 o
7 5 10 21.824 21.887 0.555 o
7 5 11 1.463 1.472 0.156 o
7 5 12 1.343 1.350 0.154 o
7 5 14 2.861 2.931 0.446 o
7 6 0 0.868 0.961 0.147 o
7 6 2 2.469 2.181 0.383 o
7 6 4 4.123 4.037 0.250 o
7 6 5 4.158 4.100 0.206 o
7 6 6 3.501 3.481 0.210 o
7 6 7 3.687 3.398 0.283 o
7 6 8 3.277 3.047 0.217 o
7 6 9 5.121 5.018 0.236 o
7 6 10 2.050 2.098 0.178 o
7 7 1 0.615 0.691 0.179 o
7 7 3 5.261 4.714 0.277 o
8 0 0 28.049 28.518 1.447 o
8 0 2 15.184 15.874 1.108 o
8 0 4 65.361 67.530 2.281 o
8 0 6 4.919 4.621 0.515 o
8 0 8 28.692 28.768 0.940 o
8 1 1 0.387 0.504 0.109 o
8 1 2 2.126 2.392 0.150 o
8 1 3 85.053 84.176 1.894 o
8 1 4 33.414 33.920 0.816 o
8 1 6 4.225 4.229 0.218 o
8 1 8 19.771 18.499 0.583 o
8 1 9 9.606 8.923 0.354 o
8 1 10 18.920 18.467 0.630 o
8 1 11 5.967 5.760 0.439 o
8 1 12 4.411 4.442 0.888 o
8 2 0 42.426 42.549 1.158 o
8 2 1 21.474 21.851 0.634 o
8 2 3 5.130 5.163 0.267 o
8 2 4 14.375 14.490 0.429 o
8 2 5 7.560 8.045 0.323 o
8 2 7 35.632 35.547 0.894 o
8 2 8 4.413 3.736 0.269 o
8 2 10 15.654 14.993 0.528 o
8 3 0 17.806 17.784 0.481 o
8 3 2 9.798 10.148 0.488 o
8 3 3 0.659 0.671 0.166 o
8 3 4 11.116 11.161 0.530 o
8 3 5 18.370 18.249 0.504 o
8 3 6 14.505 13.616 0.452 o
8 3 8 3.957 3.334 0.193 o
8 3 10 2.774 2.519 0.392 o
8 3 11 6.025 6.023 0.357 o
8 3 12 3.326 2.596 0.235 o
8 3 13 6.753 6.401 0.690 o
8 3 14 5.978 5.598 0.343 o
8 3 16 2.542 2.370 0.477 o
8 4 1 2.383 2.517 0.275 o
8 4 2 14.370 14.667 0.440 o
8 4 3 2.650 2.621 0.190 o
8 4 4 2.410 2.533 0.173 o
8 4 5 2.809 2.701 0.178 o
8 4 6 3.706 4.050 0.299 o
8 4 7 4.446 4.454 0.315 o
8 4 9 13.500 13.730 0.504 o
8 4 10 6.109 6.389 0.516 o
8 4 12 5.757 6.285 0.354 o
8 4 15 2.537 2.087 0.212 o
8 5 0 1.136 1.226 0.195 o
8 5 2 6.733 6.528 0.546 o
8 5 3 3.957 4.395 0.269 o
8 5 4 0.909 0.986 0.148 o
8 5 6 7.119 6.899 0.401 o
8 5 7 2.367 1.869 0.209 o
8 5 8 21.271 22.231 0.589 o
8 5 9 2.895 2.720 0.203 o
8 5 10 0.916 1.021 0.146 o
8 6 2 5.172 4.913 0.301 o
8 6 3 1.558 1.471 0.179 o
8 6 4 2.909 2.959 0.192 o
9 0 0 17.742 17.476 0.605 o
9 0 2 47.487 46.936 1.179 o
9 0 4 4.541 4.579 0.272 o
9 0 6 27.106 25.884 0.797 o
9 1 0 33.337 33.447 0.818 o
9 1 2 4.841 4.531 0.278 o
9 1 3 26.824 27.179 0.716 o
9 1 4 2.514 2.053 0.221 o
9 1 5 6.272 5.745 0.339 o
9 1 6 7.804 7.468 0.349 o
9 1 7 13.012 13.358 0.916 o
9 1 8 1.684 1.260 0.242 o
9 1 9 2.077 2.092 0.196 o
9 1 10 9.277 8.820 0.766 o
9 2 0 1.760 1.935 0.182 o
9 2 1 3.718 3.667 0.230 o
9 2 2 37.005 36.255 1.313 o
9 2 3 5.083 5.425 0.316 o
9 2 4 36.836 36.467 1.038 o
9 2 5 3.315 3.395 0.256 o
9 2 6 3.128 3.101 0.255 o
9 2 7 1.774 1.753 0.264 o
9 2 8 2.157 1.724 0.242 o
9 2 9 15.569 16.148 0.979 o
9 2 10 2.142 2.110 0.508 o
9 3 0 2.144 1.820 0.520 o
9 3 1 6.678 6.028 0.365 o
9 3 2 2.595 2.016 0.525 o
9 3 3 14.449 15.253 0.550 o
9 3 4 6.727 6.476 1.102 o
9 3 5 1.344 1.484 0.350 o
9 3 6 16.324 16.845 0.586 o
9 3 8 16.792 14.656 0.754 o
9 3 10 3.234 3.575 0.296 o
9 3 11 4.005 4.092 0.586 o
9 4 1 2.491 2.333 0.170 o
9 4 2 13.259 13.531 0.400 o
9 4 6 5.252 4.945 0.284 o
9 4 7 19.012 20.341 1.231 o
9 4 8 12.889 13.425 1.709 o
9 4 9 5.490 5.749 0.363 o
9 4 10 1.064 1.222 0.223 o
9 5 1 0.915 0.901 0.146 o
9 5 2 4.459 4.414 0.233 o
9 5 3 1.678 1.884 0.166 o
9 5 4 1.107 1.102 0.147 o
9 5 5 0.902 0.984 0.251 o
9 5 8 5.462 5.022 0.279 o
9 6 1 1.581 1.237 0.195 o
9 6 3 1.186 1.195 0.143 o
10 0 0 7.335 7.776 0.513 o
10 0 2 2.953 3.116 0.185 o
10 0 4 14.452 13.661 0.576 o
10 0 6 17.638 15.855 0.975 o
10 1 0 9.823 9.894 0.311 o
10 1 1 32.912 32.618 0.828 o
10 1 3 8.793 8.628 0.391 o
10 1 4 9.544 9.618 0.676 o
10 1 5 3.652 4.100 0.313 o
10 1 6 7.802 7.824 0.335 o
10 1 8 1.389 1.266 0.318 o
10 1 10 5.331 5.163 0.628 o
10 2 0 9.481 9.915 0.410 o
10 2 1 1.699 1.695 0.304 o
10 2 2 29.499 29.376 0.819 o
10 2 3 7.970 8.871 0.444 o
10 2 4 1.568 1.346 0.246 o
10 2 5 10.386 10.466 1.116 o
10 2 6 7.516 7.997 0.523 o
10 2 7 4.017 3.801 0.309 o
10 2 8 3.270 3.024 0.558 o
10 2 10 6.580 6.977 0.672 o
10 3 0 0.842 0.866 0.229 o
10 3 2 19.027 20.103 1.003 o
10 3 3 3.941 4.145 0.941 o
10 3 4 3.332 2.769 0.447 o
10 3 6 14.499 13.404 1.568 o
10 3 7 12.123 11.812 0.907 o
10 3 8 25.369 24.253 0.996 o
10 4 0 2.530 2.775 0.515 o
10 4 1 5.260 4.322 0.956 o
10 4 3 1.592 1.440 0.429 o
10 4 5 1.048 1.027 0.269 o
10 4 7 7.029 6.958 0.812 o
10 5 0 1.933 2.324 0.193 o
10 5 1 2.653 2.468 0.230 o
10 5 5 0.846 0.823 0.239 o
10 5 6 1.111 1.109 0.206 o
11 0 0 33.627 34.375 0.880 o
11 0 2 25.729 25.126 0.684 o
11 0 6 2.394 2.430 0.557 o
11 1 1 4.045 4.353 0.271 o
11 1 2 8.268 8.233 0.428 o
11 1 3 11.529 11.727 0.498 o
11 1 4 1.735 1.798 0.185 o
11 1 5 12.903 12.264 0.417 o
11 1 6 3.688 3.801 0.252 o
11 1 7 4.900 4.342 0.312 o
11 2 1 12.375 12.885 0.594 o
11 2 3 0.973 0.897 0.246 o
11 2 4 7.013 6.768 0.403 o
11 2 6 19.906 19.791 0.652 o
11 2 7 16.756 16.074 0.562 o
11 3 0 19.653 17.598 1.331 o
11 3 2 1.244 1.062 0.243 o
11 3 3 1.441 1.365 0.251 o
11 3 4 3.161 2.301 0.443 o
11 3 6 2.231 2.558 0.649 o
11 4 1 3.558 3.533 0.685 o
11 4 2 3.570 3.181 0.677 o
11 4 4 6.556 6.205 0.802 o
12 0 2 20.441 19.163 1.079 o
12 0 4 7.925 6.894 0.696 o
12 1 0 8.731 8.731 0.307 o
12 1 1 3.428 3.629 0.232 o
12 1 2 8.487 8.319 0.432 o
12 1 3 3.453 3.488 0.222 o
12 1 4 0.530 0.558 0.181 o
12 2 3 2.155 2.239 0.540 o
12 2 4 4.096 4.691 0.697 o
12 2 5 2.698 3.521 0.630 o
12 3 0 4.725 4.964 0.840 o
12 3 3 2.739 3.239 0.656 o
12 3 4 4.744 4.522 0.804 o
12 3 5 3.663 3.382 0.613 o
12 4 0 3.900 3.129 0.635 o
13 2 1 2.987 2.063 0.580 o
13 2 2 2.472 2.142 0.559 o
13 2 3 4.458 4.932 0.711 o
