#------------------------------------------------------------------------------
#$Date: 2016-02-21 11:56:54 +0200 (Sun, 21 Feb 2016) $
#$Revision: 176809 $
#$URL: svn://www.crystallography.net/cod/cif/2/31/01/2310116.cif $
#------------------------------------------------------------------------------
#
# This file is available in the Crystallography Open Database (COD),
# http://www.crystallography.net/
#
# All data on this site have been placed in the public domain by the
# contributors.
#
data_2310116
loop_
_publ_author_name
'Kami\'nski, Rados\/law'
'Domaga\/la, S\/lawomir'
'Jarzembska, Katarzyna N.'
'Hoser, Anna A.'
'Sanjuan-Szklarz, W. Fabiola'
'Gutmann, Matthias J.'
'Makal, Anna'
'Mali\'nska, Maura'
'Bak, Joanna M.'
'Wo\'zniak, Krzysztof'
_publ_section_title
;
 Statistical analysis of multipole-model-derived structural parameters and
 charge-density properties from high-resolution X-ray diffraction
 experiments
;
_journal_issue                   1
_journal_name_full               'Acta Crystallographica Section A'
_journal_page_first              72
_journal_page_last               91
_journal_paper_doi               10.1107/S2053273313028313
_journal_volume                  70
_journal_year                    2014
_chemical_formula_moiety         'C2 H2 O4, 2(H2 O1)'
_chemical_formula_sum            'C2 H6 O6'
_chemical_formula_weight         126.07
_space_group_IT_number           14
_symmetry_cell_setting           monoclinic
_symmetry_Int_Tables_number      14
_symmetry_space_group_name_Hall  '-P 2ybc'
_symmetry_space_group_name_H-M   'P 1 21/c 1'
_cell_angle_alpha                90.00
_cell_angle_beta                 103.927(2)
_cell_angle_gamma                90.00
_cell_formula_units_Z            2
_cell_length_a                   6.0988(2)
_cell_length_b                   3.4954(1)
_cell_length_c                   11.8455(4)
_cell_measurement_temperature    100(1)
_cell_volume                     245.096(14)
_diffrn_ambient_temperature      100(1)
_diffrn_measured_fraction_theta_full 0.986
_diffrn_measured_fraction_theta_max 0.853
_diffrn_measurement_device
;
Bruker AXS Kappa APEX II Ultra diffractometer
;
_diffrn_measurement_device_type  'APEX II CCD detector'
_diffrn_measurement_method       \w-scans
_diffrn_radiation_monochromator  'multi-layer optics'
_diffrn_radiation_source         'TXS rotating anode'
_diffrn_radiation_type           'Mo K\a'
_diffrn_radiation_wavelength     0.71073
_diffrn_reflns_av_R_equivalents  0.0258
_diffrn_reflns_av_sigmaI/netI    0.02203
_diffrn_reflns_limit_h_max       10
_diffrn_reflns_limit_h_min       -10
_diffrn_reflns_limit_k_max       3
_diffrn_reflns_limit_k_min       -7
_diffrn_reflns_limit_l_max       23
_diffrn_reflns_limit_l_min       -17
_diffrn_reflns_number            7347
_diffrn_reflns_theta_full        32.37
_diffrn_reflns_theta_max         45.482
_diffrn_reflns_theta_min         3.442
_exptl_absorpt_coefficient_mu    0.181
_exptl_absorpt_correction_T_max  1.001
_exptl_absorpt_correction_T_min  0.942
_exptl_absorpt_correction_type   multi-scan
_exptl_absorpt_process_details
;
 Absorption correction done by SORTAV
 Blessing, R. H.: (1995) Acta Cryst. A51, 33-38
;
_exptl_crystal_colour            colourless
_exptl_crystal_density_diffrn    1.709
_exptl_crystal_description       unspecified
_exptl_crystal_F_000             132
_exptl_crystal_size_max          0.192
_exptl_crystal_size_mid          0.172
_exptl_crystal_size_min          0.122
_refine_diff_density_max         +0.13
_refine_diff_density_min         -0.17
_refine_ls_extinction_method     none
_refine_ls_goodness_of_fit_ref   1.000
_refine_ls_hydrogen_treatment    mixed
_refine_ls_number_parameters     177
_refine_ls_number_reflns         1434
_refine_ls_number_restraints     3
_refine_ls_R_factor_all          0.0160
_refine_ls_R_factor_gt           0.0160
_refine_ls_shift/su_max          0.000
_refine_ls_shift/su_mean         0.000
_refine_ls_structure_factor_coef F
_refine_ls_weighting_details
;
w=1/[\s^2^(Fo)]
;
_refine_ls_weighting_scheme      sigma
_refine_ls_wR_factor_gt          0.0184
_refine_ls_wR_factor_ref         0.0184
_reflns_number_gt                1434
_reflns_number_total             1759
_reflns_threshold_expression     I>3\s(I)
_iucr_refine_instructions_details
;
 Multipole refinement with MOPRO program
;
_cod_data_source_file            pc5031sup10.cif
_cod_data_source_block           oxa10
_cod_original_cell_volume        245.10(1)
_cod_original_sg_symbol_H-M      'P 21/c'
_cod_database_code               2310116
loop_
_symmetry_equiv_pos_as_xyz
'x, y, z'
'-x, y+1/2, -z+1/2'
'-x, -y, -z'
'x, -y-1/2, z-1/2'
loop_
_atom_site_type_symbol
_atom_site_label
_atom_site_fract_x
_atom_site_fract_y
_atom_site_fract_z
_atom_site_U_iso_or_equiv
_atom_site_adp_type
_atom_site_occupancy
_atom_site_calc_flag
O O1 0.43503(9) 0.4442(1) 0.34990(4) 0.0136(2) Uani 1 d
O O2 0.24228(9) 0.7430(1) 0.46366(3) 0.0133(2) Uani 1 d
C C1 0.40310(5) 0.55870(7) 0.44804(2) 0.0100(1) Uani 1 d
H H1 0.302(2) 0.516(6) 0.2755(7) 0.02297 Uani 1 d
O O3 0.12989(8) 0.6316(1) 0.17853(4) 0.0132(2) Uani 1 d
H H2 0.189(2) 0.679(7) 0.1103(5) 0.02866 Uani 1 d
H H3 0.010(1) 0.446(2) 0.153(3) 0.02839 Uani 1 d
loop_
_atom_site_aniso_label
_atom_site_aniso_U_11
_atom_site_aniso_U_22
_atom_site_aniso_U_33
_atom_site_aniso_U_12
_atom_site_aniso_U_13
_atom_site_aniso_U_23
O1 0.0132(2) 0.0193(2) 0.0077(1) 0.0045(1) 0.0017(1) -0.0004(1)
O2 0.0115(2) 0.0180(1) 0.0097(1) 0.0054(1) 0.0012(1) -0.0004(1)
C1 0.0101(2) 0.0113(1) 0.0084(1) 0.00157(8) 0.00163(7) -0.00025(8)
H1 0.0216 0.0262 0.0208 0.0017 0.0045 0.0001
O3 0.0110(2) 0.0182(1) 0.0095(1) -0.0019(1) 0.0008(1) 0.0009(1)
H2 0.0259 0.0398 0.0214 -0.0038 0.0079 0.0035
H3 0.0221 0.0298 0.0327 -0.0068 0.0055 -0.0021
loop_
_atom_type_symbol
_atom_type_description
_atom_type_scat_dispersion_real
_atom_type_scat_dispersion_imag
_atom_type_scat_source
C C 0.0033 0.0016 'Su & Coppens, Acta. Cryst. (1997) A53, 749'
H H 0.0000 0.0000 'Su & Coppens, Acta. Cryst. (1997) A53, 749'
O O 0.0106 0.0060 'Su & Coppens, Acta. Cryst. (1997) A53, 749'
loop_
_geom_angle_atom_site_label_1
_geom_angle_atom_site_label_2
_geom_angle_atom_site_label_3
_geom_angle
O1 C1 O2 126.92(5)
C1 O1 H1 114.9(8)
H2 O3 H3 105(2)
loop_
_geom_bond_atom_site_label_1
_geom_bond_atom_site_label_2
_geom_bond_distance
O1 C1 1.2879(5)
O1 H1 1.074(1)
O2 C1 1.2241(5)
O3 H3 0.970(1)
O3 H2 0.974(1)
loop_
_geom_torsion_atom_site_label_1
_geom_torsion_atom_site_label_2
_geom_torsion_atom_site_label_3
_geom_torsion_atom_site_label_4
_geom_torsion
O2 C1 O1 H1 -1.6(7)
loop_
_refln_index_h
_refln_index_k
_refln_index_l
_refln_F_squared_calc
_refln_F_squared_meas
_refln_F_squared_sigma
_refln_observed_status
-10 1 17 13.590 13.529 0.963 o
-10 2 11 10.942 11.393 0.868 o
-10 2 12 4.456 4.377 0.641 o
-10 2 13 10.162 9.455 0.809 o
-10 2 14 12.639 13.038 0.928 o
-10 3 6 10.093 8.350 0.969 o
-10 3 8 5.546 5.580 0.888 o
-10 3 10 7.296 6.926 0.397 o
-9 0 16 19.650 19.448 1.085 o
-9 1 9 16.557 16.041 0.916 o
-9 1 11 6.269 5.259 0.605 o
-9 1 14 12.849 14.227 0.650 o
-9 1 16 2.340 1.723 0.265 o
-9 1 17 33.544 33.304 1.158 o
-9 1 18 6.110 5.489 0.750 o
-9 1 19 2.403 2.493 0.285 o
-9 2 7 9.123 9.851 0.773 o
-9 2 8 52.283 50.535 1.495 o
-9 2 9 1.169 1.348 0.180 o
-9 2 10 5.060 4.718 0.287 o
-9 2 12 2.936 3.208 0.303 o
-9 2 13 29.366 28.716 0.905 o
-9 2 14 4.518 4.299 0.544 o
-9 2 16 8.815 9.219 0.449 o
-9 2 17 7.365 7.193 0.510 o
-9 2 18 13.508 12.697 0.569 o
-9 3 4 20.096 19.785 1.282 o
-9 3 6 0.897 0.884 0.142 o
-9 3 7 19.023 18.097 0.630 o
-9 3 8 6.559 5.509 0.346 o
-9 3 9 1.398 1.067 0.187 o
-9 3 10 4.682 4.788 0.317 o
-9 3 11 0.944 0.866 0.188 o
-9 3 12 38.270 37.575 1.172 o
-9 3 13 6.101 5.485 0.352 o
-9 3 14 5.518 5.051 0.499 o
-9 3 15 2.368 1.546 0.268 o
-9 3 16 2.870 2.454 0.282 o
-9 4 6 7.554 7.104 0.405 o
-9 4 7 0.820 0.926 0.166 o
-9 4 8 3.938 3.601 0.388 o
-9 4 9 1.570 1.159 0.181 o
-9 4 11 5.454 4.814 0.297 o
-9 4 12 5.912 5.293 0.484 o
-8 0 2 3.786 3.407 0.881 o
-8 0 4 4.451 3.364 0.886 o
-8 0 10 6.356 6.456 0.588 o
-8 0 12 2.886 2.922 0.495 o
-8 0 14 41.829 44.578 1.373 o
-8 0 16 11.443 11.802 0.522 o
-8 0 18 2.202 2.221 0.325 o
-8 0 20 38.760 40.957 1.556 o
-8 1 1 28.694 29.082 1.489 o
-8 1 3 18.823 20.468 1.002 o
-8 1 4 28.642 28.367 1.358 o
-8 1 5 21.833 22.805 1.083 o
-8 1 6 1.698 1.369 0.193 o
-8 1 7 53.891 53.726 1.586 o
-8 1 8 5.651 5.938 0.334 o
-8 1 9 12.907 13.932 0.451 o
-8 1 10 34.471 35.284 0.951 o
-8 1 11 1.562 1.524 0.160 o
-8 1 12 1.746 1.613 0.182 o
-8 1 14 0.482 0.532 0.142 o
-8 1 15 14.918 14.927 0.589 o
-8 1 16 8.005 7.776 0.537 o
-8 1 17 6.643 6.001 0.392 o
-8 1 18 9.926 9.909 0.766 o
-8 2 1 38.509 39.468 1.341 o
-8 2 3 6.696 6.751 1.071 o
-8 2 4 15.251 14.535 0.511 o
-8 2 5 32.463 32.337 0.856 o
-8 2 6 55.399 56.052 1.949 o
-8 2 7 6.328 6.379 0.343 o
-8 2 8 6.532 6.433 0.374 o
-8 2 9 1.368 1.475 0.158 o
-8 2 10 10.672 10.970 0.428 o
-8 2 11 19.556 18.784 0.868 o
-8 2 12 7.567 7.357 0.500 o
-8 2 13 1.877 1.846 0.199 o
-8 2 14 10.503 10.230 0.662 o
-8 2 16 34.895 34.615 1.176 o
-8 2 17 1.778 1.513 0.270 o
-8 2 18 12.850 12.562 0.537 o
-8 2 19 3.325 2.633 0.325 o
-8 3 2 8.319 9.087 0.738 o
-8 3 3 6.631 6.994 0.376 o
-8 3 5 0.743 0.701 0.152 o
-8 3 6 31.672 31.469 0.879 o
-8 3 7 9.745 9.945 0.376 o
-8 3 8 20.708 21.740 0.656 o
-8 3 9 5.159 5.791 0.284 o
-8 3 10 9.167 9.183 0.375 o
-8 3 11 5.971 6.070 0.300 o
-8 3 12 48.230 47.561 1.327 o
-8 3 13 1.456 1.299 0.177 o
-8 3 14 1.233 0.857 0.254 o
-8 3 16 15.999 16.312 0.636 o
-8 3 17 15.311 15.897 0.982 o
-8 4 1 20.159 23.224 1.161 o
-8 4 2 18.889 20.672 1.097 o
-8 4 3 14.898 15.037 1.664 o
-8 4 4 10.861 10.517 0.514 o
-8 4 5 2.784 3.197 0.266 o
-8 4 6 4.422 3.967 0.365 o
-8 4 7 2.737 2.548 0.202 o
-8 4 8 4.151 4.373 0.347 o
-8 4 11 20.816 20.881 0.721 o
-8 4 12 15.785 15.706 0.611 o
-8 4 13 10.080 9.903 0.548 o
-8 4 15 2.794 2.302 0.231 o
-8 5 1 4.243 4.310 0.648 o
-8 5 7 4.333 3.829 0.403 o
-8 5 8 7.494 7.236 0.361 o
-7 0 2 14.610 13.410 0.702 o
-7 0 4 38.767 39.522 2.202 o
-7 0 6 248.613 238.696 6.711 o
-7 0 10 1.282 1.346 0.147 o
-7 0 12 5.376 5.537 0.260 o
-7 0 14 10.063 10.210 0.403 o
-7 0 16 7.062 6.826 0.406 o
-7 0 18 7.249 6.699 0.983 o
-7 1 1 17.535 17.351 0.985 o
-7 1 2 86.370 90.810 3.018 o
-7 1 3 3.451 3.400 0.239 o
-7 1 5 2.160 1.983 0.212 o
-7 1 6 18.969 18.712 0.537 o
-7 1 7 50.498 51.293 1.280 o
-7 1 9 10.154 10.194 0.374 o
-7 1 10 28.566 28.191 1.156 o
-7 1 11 44.864 44.929 1.119 o
-7 1 12 2.755 2.523 0.276 o
-7 1 13 8.943 9.050 0.472 o
-7 1 14 14.407 14.545 0.453 o
-7 1 15 13.093 13.874 0.458 o
-7 1 16 5.528 5.731 0.235 o
-7 1 17 21.353 20.935 1.592 o
-7 1 19 25.003 25.014 0.758 o
-7 1 20 4.076 4.092 0.355 o
-7 1 21 2.660 3.224 0.261 o
-7 2 2 0.334 0.358 0.093 o
-7 2 3 21.838 21.157 0.902 o
-7 2 4 3.407 3.028 0.201 o
-7 2 5 9.811 9.711 0.358 o
-7 2 6 2.079 1.927 0.144 o
-7 2 7 18.953 18.599 0.531 o
-7 2 8 15.858 16.630 0.483 o
-7 2 9 16.046 15.677 0.512 o
-7 2 10 75.476 74.992 1.866 o
-7 2 11 21.963 21.126 0.898 o
-7 2 12 7.549 7.355 0.408 o
-7 2 13 4.829 4.339 0.259 o
-7 2 14 3.224 3.031 0.377 o
-7 2 15 39.299 39.257 1.214 o
-7 2 16 11.679 11.154 0.495 o
-7 2 17 2.036 1.575 0.204 o
-7 2 18 4.306 4.254 0.309 o
-7 2 20 21.891 21.393 0.779 o
-7 3 1 1.921 1.880 0.172 o
-7 3 2 1.751 1.768 0.181 o
-7 3 3 2.222 2.301 0.160 o
-7 3 4 73.904 76.062 2.131 o
-7 3 5 33.421 32.463 1.512 o
-7 3 6 15.528 15.765 0.746 o
-7 3 9 9.107 9.379 0.352 o
-7 3 10 11.057 10.935 0.420 o
-7 3 12 0.948 0.579 0.149 o
-7 3 13 6.914 6.872 0.492 o
-7 3 14 21.318 21.353 0.696 o
-7 3 15 4.330 4.308 0.304 o
-7 3 16 20.953 21.481 0.939 o
-7 3 18 9.180 8.319 0.427 o
-7 4 1 21.223 21.621 0.703 o
-7 4 2 6.400 6.040 0.472 o
-7 4 3 0.573 0.604 0.126 o
-7 4 4 1.925 1.521 0.252 o
-7 4 5 21.966 21.001 1.192 o
-7 4 6 4.033 4.236 0.404 o
-7 4 7 4.046 3.639 0.257 o
-7 4 8 25.612 24.058 1.271 o
-7 4 9 5.220 5.316 0.317 o
-7 4 11 13.661 13.180 0.696 o
-7 4 12 3.250 3.410 0.304 o
-7 4 14 3.307 3.048 0.302 o
-7 4 15 11.469 11.790 0.699 o
-7 4 16 8.921 8.823 0.387 o
-7 5 1 3.605 4.227 0.585 o
-7 5 2 18.664 19.005 0.656 o
-7 5 3 3.368 2.883 0.578 o
-7 5 4 1.844 1.596 0.222 o
-7 5 6 7.444 7.140 0.715 o
-7 5 7 0.598 0.652 0.149 o
-7 5 10 4.952 5.044 0.320 o
-7 5 11 8.343 8.134 0.407 o
-7 5 12 23.540 24.179 0.881 o
-6 0 2 178.906 179.860 16.907 o
-6 0 4 3.003 2.747 0.245 o
-6 0 6 159.197 160.288 3.785 o
-6 0 8 1.086 0.933 0.201 o
-6 0 10 280.833 283.358 7.319 o
-6 0 14 24.953 24.692 0.949 o
-6 0 16 123.693 126.653 3.918 o
-6 0 18 14.487 15.145 1.443 o
-6 0 20 9.182 10.244 0.455 o
-6 0 22 2.684 3.628 0.622 o
-6 1 1 1.300 1.315 0.106 o
-6 1 2 6.532 6.341 0.237 o
-6 1 3 1.298 1.378 0.116 o
-6 1 4 31.136 31.353 1.199 o
-6 1 5 92.731 91.495 2.379 o
-6 1 6 148.558 146.748 3.475 o
-6 1 7 2.798 2.684 0.167 o
-6 1 8 3.001 3.059 0.155 o
-6 1 9 43.438 42.773 1.084 o
-6 1 10 49.191 48.256 1.145 o
-6 1 11 3.979 4.072 0.168 o
-6 1 12 40.462 40.786 1.082 o
-6 1 13 4.724 4.747 0.186 o
-6 1 14 21.423 22.143 0.605 o
-6 1 15 3.428 3.428 0.243 o
-6 1 16 0.605 0.457 0.116 o
-6 1 17 1.043 0.824 0.163 o
-6 1 18 0.671 0.711 0.136 o
-6 1 19 11.456 11.238 0.418 o
-6 1 20 26.514 27.165 1.503 o
-6 1 21 12.013 12.687 0.485 o
-6 1 22 1.329 1.303 0.288 o
-6 2 1 69.503 64.758 1.645 o
-6 2 2 39.805 39.599 0.978 o
-6 2 3 59.922 60.099 2.202 o
-6 2 4 5.387 5.231 0.230 o
-6 2 5 4.266 4.423 0.242 o
-6 2 6 1.002 0.868 0.128 o
-6 2 8 13.054 13.326 0.413 o
-6 2 9 30.739 30.777 0.957 o
-6 2 10 9.521 9.111 0.353 o
-6 2 12 8.700 8.747 0.303 o
-6 2 14 6.002 5.798 0.284 o
-6 2 15 2.745 2.636 0.213 o
-6 2 17 8.926 8.412 0.406 o
-6 2 18 18.150 17.215 0.609 o
-6 2 19 2.381 1.850 0.249 o
-6 2 20 19.402 19.211 1.533 o
-6 2 21 1.600 0.972 0.221 o
-6 3 1 13.181 13.163 0.418 o
-6 3 2 11.315 11.469 0.398 o
-6 3 3 1.265 1.217 0.110 o
-6 3 4 4.443 4.454 0.189 o
-6 3 5 0.610 0.629 0.099 o
-6 3 6 5.852 6.291 0.321 o
-6 3 7 7.984 7.654 0.377 o
-6 3 8 38.723 39.078 1.263 o
-6 3 9 30.473 30.961 0.882 o
-6 3 10 0.424 0.494 0.117 o
-6 3 11 4.255 4.410 0.250 o
-6 3 13 6.397 6.529 0.281 o
-6 3 14 53.074 53.503 1.504 o
-6 3 15 11.994 12.227 0.557 o
-6 3 16 1.618 1.682 0.176 o
-6 3 18 7.867 7.530 0.513 o
-6 3 19 14.168 13.680 0.999 o
-6 3 20 1.002 0.757 0.237 o
-6 4 1 7.766 7.658 0.299 o
-6 4 3 6.759 7.167 0.564 o
-6 4 4 41.623 41.601 1.608 o
-6 4 5 38.046 40.336 1.125 o
-6 4 6 1.926 1.978 0.193 o
-6 4 8 6.420 5.792 0.275 o
-6 4 10 1.792 1.766 0.158 o
-6 4 11 6.648 6.388 0.298 o
-6 4 12 11.125 11.035 0.390 o
-6 4 13 12.685 11.794 0.429 o
-6 4 14 12.719 12.951 0.464 o
-6 4 15 21.226 20.153 0.625 o
-6 5 2 0.634 0.654 0.142 o
-6 5 3 1.053 1.142 0.200 o
-6 5 4 35.962 36.490 1.568 o
-6 5 6 6.482 6.201 0.343 o
-6 5 7 2.593 2.421 0.241 o
-6 5 8 15.780 15.306 0.515 o
-6 5 9 1.269 1.138 0.161 o
-6 5 10 14.673 13.540 0.528 o
-6 5 14 2.121 1.942 0.224 o
-6 6 1 1.657 1.542 0.384 o
-6 6 2 4.142 3.762 0.332 o
-6 6 4 3.235 2.859 0.296 o
-6 6 5 9.080 8.330 1.224 o
-6 6 6 1.020 0.630 0.177 o
-5 0 2 92.592 94.640 2.625 o
-5 0 4 17.249 16.463 0.924 o
-5 0 6 114.998 111.411 2.556 o
-5 0 8 279.529 273.872 8.715 o
-5 0 10 98.257 99.813 2.382 o
-5 0 12 42.885 43.255 1.099 o
-5 0 14 0.628 0.487 0.113 o
-5 0 18 26.026 28.104 1.021 o
-5 0 20 94.897 103.035 3.485 o
-5 1 1 55.199 54.776 1.521 o
-5 1 2 251.135 242.997 5.696 o
-5 1 3 50.706 50.516 1.201 o
-5 1 4 92.052 91.051 2.586 o
-5 1 5 28.991 29.444 0.782 o
-5 1 6 3.912 3.795 0.182 o
-5 1 7 0.901 0.854 0.086 o
-5 1 8 16.922 17.298 0.457 o
-5 1 9 258.409 261.577 6.131 o
-5 1 10 25.405 25.632 0.656 o
-5 1 12 24.000 24.452 0.612 o
-5 1 13 8.705 8.581 0.336 o
-5 1 14 25.284 25.975 0.653 o
-5 1 15 38.079 40.156 1.024 o
-5 1 16 52.518 55.470 1.405 o
-5 1 17 15.728 15.326 0.795 o
-5 1 19 38.984 40.297 1.088 o
-5 1 20 0.587 0.590 0.142 o
-5 1 22 1.323 1.177 0.188 o
-5 2 1 9.340 9.187 0.301 o
-5 2 2 0.558 0.580 0.085 o
-5 2 3 4.206 4.335 0.199 o
-5 2 4 27.679 28.474 0.729 o
-5 2 5 171.191 175.226 4.143 o
-5 2 6 79.115 80.423 1.947 o
-5 2 7 21.317 21.337 0.570 o
-5 2 8 1.966 1.938 0.145 o
-5 2 11 38.581 38.458 0.969 o
-5 2 12 23.237 23.428 0.688 o
-5 2 13 71.075 70.246 1.730 o
-5 2 14 0.654 0.644 0.123 o
-5 2 15 11.461 11.566 0.905 o
-5 2 16 3.355 3.212 0.188 o
-5 2 17 7.609 7.276 0.367 o
-5 2 18 4.674 4.936 0.407 o
-5 2 19 10.795 9.720 0.444 o
-5 2 22 9.567 9.331 0.469 o
-5 3 1 19.384 19.497 0.538 o
-5 3 3 6.303 6.454 0.230 o
-5 3 4 11.366 11.666 0.338 o
-5 3 5 3.701 3.587 0.194 o
-5 3 6 4.643 4.448 0.225 o
-5 3 7 15.693 15.829 0.576 o
-5 3 8 2.281 2.075 0.190 o
-5 3 10 6.162 6.403 0.271 o
-5 3 11 0.613 0.507 0.094 o
-5 3 12 0.649 0.648 0.125 o
-5 3 14 0.848 0.693 0.118 o
-5 3 15 2.175 2.024 0.231 o
-5 3 18 12.093 11.276 0.620 o
-5 3 19 5.611 5.471 0.881 o
-5 4 1 3.167 3.185 0.183 o
-5 4 3 24.186 23.859 0.830 o
-5 4 4 23.756 24.592 0.663 o
-5 4 5 13.799 13.166 0.412 o
-5 4 7 0.980 0.907 0.133 o
-5 4 8 24.378 24.208 0.732 o
-5 4 10 23.392 23.998 0.658 o
-5 4 12 1.892 1.605 0.147 o
-5 4 13 14.526 14.131 0.583 o
-5 4 14 6.785 7.361 0.362 o
-5 4 15 12.684 12.684 0.506 o
-5 4 17 2.104 2.033 0.281 o
-5 4 18 15.304 14.082 0.892 o
-5 5 1 2.704 2.255 0.185 o
-5 5 2 4.129 3.878 0.265 o
-5 5 3 2.950 3.251 0.199 o
-5 5 4 64.314 63.887 1.634 o
-5 5 6 9.049 9.271 0.473 o
-5 5 7 2.295 2.085 0.213 o
-5 5 8 5.841 5.227 0.277 o
-5 5 9 2.828 2.232 0.370 o
-5 5 10 3.446 3.305 0.273 o
-5 5 12 10.918 9.990 0.449 o
-5 5 13 3.716 3.587 0.238 o
-5 5 14 46.977 52.545 2.600 o
-5 6 3 18.963 18.651 1.184 o
-5 6 4 2.677 2.410 0.222 o
-5 6 5 1.392 0.857 0.237 o
-5 6 6 0.904 0.701 0.196 o
-5 6 7 1.707 1.303 0.182 o
-5 6 8 11.279 10.795 0.493 o
-5 6 9 2.292 1.697 0.217 o
-4 0 2 978.529 988.935 23.602 o
-4 0 4 125.986 130.910 3.386 o
-4 0 6 43.911 42.895 1.160 o
-4 0 8 558.543 538.003 12.852 o
-4 0 10 1.758 1.732 0.155 o
-4 0 12 233.480 232.440 5.770 o
-4 0 14 1.697 1.686 0.153 o
-4 0 16 55.501 55.373 2.542 o
-4 0 18 127.912 131.266 5.567 o
-4 1 1 92.931 90.761 2.246 o
-4 1 2 57.654 57.899 1.460 o
-4 1 3 1.428 1.513 0.116 o
-4 1 4 32.417 34.331 0.873 o
-4 1 6 174.031 178.581 4.154 o
-4 1 7 86.586 84.817 2.504 o
-4 1 8 169.676 168.195 3.847 o
-4 1 9 44.463 43.303 1.025 o
-4 1 11 1.691 1.681 0.112 o
-4 1 12 79.859 79.234 1.834 o
-4 1 13 15.224 14.824 0.396 o
-4 1 14 16.221 16.826 0.444 o
-4 1 16 21.498 21.390 0.613 o
-4 1 17 4.409 4.487 0.342 o
-4 1 18 1.006 1.000 0.131 o
-4 1 19 50.955 50.910 1.323 o
-4 1 20 11.468 11.574 0.505 o
-4 1 21 1.630 1.263 0.295 o
-4 1 22 21.386 21.941 0.969 o
-4 1 23 8.782 9.065 0.480 o
-4 2 1 52.049 51.829 1.242 o
-4 2 2 13.114 12.576 0.357 o
-4 2 3 77.676 78.094 1.823 o
-4 2 4 60.946 63.287 1.748 o
-4 2 5 6.011 6.253 0.226 o
-4 2 6 5.540 5.872 0.242 o
-4 2 7 6.990 6.982 0.267 o
-4 2 8 80.251 80.994 2.000 o
-4 2 9 13.554 13.352 0.432 o
-4 2 10 29.365 28.669 0.755 o
-4 2 11 7.307 7.568 0.292 o
-4 2 12 0.770 0.733 0.099 o
-4 2 13 3.138 2.892 0.167 o
-4 2 14 21.724 21.334 0.629 o
-4 2 15 33.438 35.270 0.935 o
-4 2 16 9.700 9.604 0.351 o
-4 2 17 7.215 7.490 0.345 o
-4 2 18 7.393 7.497 0.287 o
-4 2 19 5.626 5.085 0.306 o
-4 2 21 4.308 4.186 0.430 o
-4 2 22 3.696 3.491 0.296 o
-4 3 1 5.014 4.769 0.218 o
-4 3 2 13.729 13.295 0.421 o
-4 3 3 23.063 22.949 0.579 o
-4 3 4 239.702 242.964 6.404 o
-4 3 5 28.202 28.907 0.822 o
-4 3 6 8.215 8.571 0.284 o
-4 3 7 5.414 5.561 0.215 o
-4 3 8 0.267 0.305 0.069 o
-4 3 9 36.636 36.715 1.230 o
-4 3 10 61.895 61.363 1.614 o
-4 3 11 19.926 20.488 0.852 o
-4 3 12 12.382 12.386 0.431 o
-4 3 14 30.607 30.540 0.917 o
-4 3 15 5.579 5.566 0.284 o
-4 3 16 3.836 3.422 0.335 o
-4 3 17 14.066 13.601 0.640 o
-4 3 18 2.546 2.539 0.516 o
-4 3 20 5.917 5.646 0.472 o
-4 4 2 5.238 5.246 0.223 o
-4 4 3 61.169 61.970 1.492 o
-4 4 4 0.861 0.786 0.098 o
-4 4 5 11.572 11.665 0.344 o
-4 4 6 28.391 30.545 0.766 o
-4 4 7 9.404 9.996 0.387 o
-4 4 8 4.319 4.906 0.276 o
-4 4 9 2.059 2.162 0.137 o
-4 4 10 2.659 2.884 0.195 o
-4 4 13 28.188 27.795 0.893 o
-4 4 14 21.933 21.725 0.698 o
-4 4 16 1.668 1.324 0.223 o
-4 4 17 4.423 4.284 0.406 o
-4 4 18 2.032 1.458 0.308 o
-4 5 2 22.586 22.991 0.633 o
-4 5 3 2.284 2.407 0.154 o
-4 5 6 5.255 5.144 0.287 o
-4 5 8 7.798 8.107 0.337 o
-4 5 10 12.324 12.130 0.459 o
-4 5 11 1.275 1.342 0.135 o
-4 5 12 7.584 7.103 0.439 o
-4 5 14 12.843 12.502 0.574 o
-4 6 2 4.679 4.572 0.252 o
-4 6 3 12.911 12.974 0.566 o
-4 6 4 3.388 3.401 0.333 o
-4 6 5 5.768 5.358 0.479 o
-4 6 6 1.863 1.514 0.376 o
-4 6 7 9.095 8.254 0.402 o
-4 6 8 1.419 1.112 0.205 o
-3 0 2 13.071 13.049 0.553 o
-3 0 4 91.317 89.360 2.526 o
-3 0 6 11.496 12.125 0.908 o
-3 0 8 21.632 20.617 0.904 o
-3 0 10 4.193 3.963 0.197 o
-3 0 12 144.613 144.277 3.608 o
-3 0 14 17.515 17.482 0.523 o
-3 0 16 13.457 13.754 0.798 o
-3 0 18 32.244 35.380 1.184 o
-3 0 20 9.751 9.886 0.749 o
-3 0 22 92.500 99.519 3.486 o
-3 1 1 330.265 337.462 7.914 o
-3 1 2 33.166 33.985 0.951 o
-3 1 3 160.584 163.696 4.891 o
-3 1 4 229.265 230.372 5.578 o
-3 1 5 207.471 219.704 5.578 o
-3 1 7 335.816 330.280 11.023 o
-3 1 8 8.247 7.892 0.247 o
-3 1 9 58.231 57.118 1.341 o
-3 1 10 3.360 3.687 0.186 o
-3 1 11 154.419 155.156 3.600 o
-3 1 12 52.172 52.651 1.280 o
-3 1 13 0.812 0.710 0.081 o
-3 1 14 0.278 0.255 0.078 o
-3 1 16 30.909 30.818 0.816 o
-3 1 17 57.644 57.709 1.561 o
-3 1 18 37.132 37.977 1.409 o
-3 1 20 2.036 2.050 0.205 o
-3 1 21 7.748 8.116 0.587 o
-3 1 22 2.063 1.822 0.244 o
-3 1 23 1.703 1.838 0.313 o
-3 2 1 83.324 82.580 1.931 o
-3 2 2 178.071 175.479 4.179 o
-3 2 3 299.243 307.093 7.288 o
-3 2 4 26.968 25.791 0.692 o
-3 2 5 2.571 2.554 0.163 o
-3 2 6 136.806 138.499 3.280 o
-3 2 7 163.137 162.454 4.702 o
-3 2 8 280.128 288.059 7.083 o
-3 2 9 49.723 50.743 1.394 o
-3 2 10 10.535 10.844 0.331 o
-3 2 11 22.904 23.181 0.635 o
-3 2 12 2.119 2.082 0.143 o
-3 2 13 51.816 52.612 1.278 o
-3 2 14 0.819 0.672 0.172 o
-3 2 15 27.532 27.311 0.921 o
-3 2 16 14.244 14.436 0.491 o
-3 2 17 0.933 1.047 0.197 o
-3 2 18 42.732 41.556 1.841 o
-3 2 20 3.317 3.056 0.270 o
-3 2 21 10.394 9.733 0.425 o
-3 3 1 3.801 3.961 0.159 o
-3 3 2 256.291 250.884 6.102 o
-3 3 3 3.516 3.550 0.166 o
-3 3 4 45.700 45.630 1.123 o
-3 3 5 21.716 22.541 0.573 o
-3 3 7 3.908 4.062 0.195 o
-3 3 8 17.473 18.093 0.487 o
-3 3 9 4.661 4.530 0.209 o
-3 3 10 19.786 19.563 0.517 o
-3 3 11 1.363 1.239 0.131 o
-3 3 12 41.202 42.088 1.051 o
-3 3 13 9.302 9.635 0.323 o
-3 3 14 67.431 68.397 2.696 o
-3 3 15 1.433 1.490 0.241 o
-3 3 17 1.138 1.092 0.230 o
-3 3 18 3.243 3.024 0.474 o
-3 3 19 10.209 10.103 0.560 o
-3 3 20 4.148 4.447 0.440 o
-3 4 1 21.131 21.590 0.559 o
-3 4 2 11.009 10.863 0.324 o
-3 4 3 58.480 58.508 1.397 o
-3 4 4 29.391 29.558 0.876 o
-3 4 5 0.379 0.360 0.066 o
-3 4 6 25.390 25.983 0.794 o
-3 4 7 16.543 17.332 0.558 o
-3 4 8 0.573 0.556 0.108 o
-3 4 9 0.588 0.604 0.092 o
-3 4 10 37.047 37.955 1.250 o
-3 4 11 3.987 3.474 0.234 o
-3 4 12 2.850 2.968 0.219 o
-3 4 13 30.994 31.629 0.958 o
-3 4 14 5.555 6.020 0.345 o
-3 4 16 3.825 3.433 0.360 o
-3 5 2 2.382 2.350 0.199 o
-3 5 3 4.413 4.289 0.244 o
-3 5 4 9.657 9.960 0.366 o
-3 5 5 1.028 1.072 0.130 o
-3 5 6 36.562 37.399 0.967 o
-3 5 7 4.064 3.952 0.367 o
-3 5 8 0.609 0.521 0.101 o
-3 5 9 3.995 4.130 0.273 o
-3 5 10 4.277 3.960 0.299 o
-3 5 11 1.437 1.189 0.159 o
-3 5 12 12.599 11.261 2.447 o
-3 6 1 8.646 8.945 0.357 o
-3 6 2 1.863 1.803 0.216 o
-3 6 4 1.215 1.103 0.183 o
-3 6 5 0.665 0.487 0.143 o
-3 6 7 0.730 0.664 0.157 o
-3 6 9 4.080 3.914 0.267 o
-3 6 10 3.136 2.772 0.237 o
-2 0 2 627.698 608.359 16.239 o
-2 0 4 2038.616 1877.224 47.726 o
-2 0 6 168.025 166.888 4.020 o
-2 0 8 449.091 452.687 30.231 o
-2 0 10 181.384 180.439 4.625 o
-2 0 12 16.410 16.646 0.508 o
-2 0 14 54.679 54.507 1.365 o
-2 0 16 11.447 10.645 0.389 o
-2 0 18 4.878 4.824 0.534 o
-2 0 20 16.155 17.999 0.961 o
-2 0 22 4.047 3.852 0.595 o
-2 1 1 184.954 189.605 4.370 o
-2 1 2 554.102 573.514 15.995 o
-2 1 3 20.452 20.893 0.653 o
-2 1 4 363.565 359.780 8.367 o
-2 1 5 20.062 20.852 0.596 o
-2 1 6 5.399 5.420 0.215 o
-2 1 7 33.103 33.475 0.899 o
-2 1 8 278.961 272.799 6.854 o
-2 1 9 22.052 21.841 0.546 o
-2 1 10 31.677 30.388 0.746 o
-2 1 11 82.227 81.684 1.897 o
-2 1 12 8.804 8.904 0.294 o
-2 1 13 31.516 30.760 0.878 o
-2 1 14 18.004 18.677 0.520 o
-2 1 15 11.250 11.722 0.493 o
-2 1 16 1.045 0.985 0.094 o
-2 1 17 30.228 29.998 0.806 o
-2 1 18 8.576 8.145 0.295 o
-2 1 19 1.695 1.753 0.157 o
-2 1 21 55.328 56.179 2.958 o
-2 1 22 10.612 11.196 0.683 o
-2 2 1 153.851 152.992 3.753 o
-2 2 2 482.215 480.928 11.788 o
-2 2 3 9.685 9.709 0.424 o
-2 2 4 22.636 23.028 0.619 o
-2 2 5 3.237 3.219 0.164 o
-2 2 6 69.258 70.290 1.685 o
-2 2 7 33.043 32.209 0.852 o
-2 2 8 27.248 26.918 0.741 o
-2 2 9 16.440 16.385 0.449 o
-2 2 10 87.127 86.749 2.039 o
-2 2 11 13.151 13.210 0.380 o
-2 2 12 105.121 105.965 2.514 o
-2 2 13 30.135 29.960 0.764 o
-2 2 14 13.377 13.518 0.453 o
-2 2 15 2.175 2.133 0.192 o
-2 2 16 36.339 38.235 1.320 o
-2 2 17 53.100 52.157 1.474 o
-2 2 18 26.951 27.326 0.820 o
-2 2 19 8.044 7.873 0.371 o
-2 2 20 6.556 6.725 0.360 o
-2 3 1 143.722 142.281 3.306 o
-2 3 2 68.554 67.749 1.903 o
-2 3 3 1.308 1.491 0.100 o
-2 3 4 9.242 9.135 0.295 o
-2 3 5 6.560 6.647 0.219 o
-2 3 6 364.813 372.554 8.921 o
-2 3 7 80.908 85.267 2.103 o
-2 3 8 25.527 25.603 0.709 o
-2 3 9 7.835 7.676 0.263 o
-2 3 10 21.948 22.841 0.638 o
-2 3 11 19.538 19.426 0.728 o
-2 3 12 82.111 83.740 2.179 o
-2 3 13 3.637 3.771 0.310 o
-2 3 14 4.853 4.706 0.387 o
-2 3 15 10.859 11.191 0.504 o
-2 3 16 31.526 31.253 1.026 o
-2 3 17 4.363 4.307 0.352 o
-2 4 1 16.948 16.974 0.546 o
-2 4 2 62.658 61.263 1.468 o
-2 4 3 33.711 33.902 0.819 o
-2 4 4 0.443 0.412 0.068 o
-2 4 5 35.430 35.046 1.016 o
-2 4 6 3.865 4.178 0.240 o
-2 4 7 37.163 38.855 0.996 o
-2 4 8 0.518 0.492 0.092 o
-2 4 10 23.934 23.574 0.805 o
-2 4 11 17.684 18.431 0.597 o
-2 4 13 10.409 11.071 0.974 o
-2 5 1 0.309 0.432 0.099 o
-2 5 2 16.108 16.229 0.498 o
-2 5 3 3.248 3.351 0.172 o
-2 5 4 3.526 3.469 0.248 o
-2 5 5 4.200 4.270 0.257 o
-2 5 10 3.065 2.883 0.356 o
-2 5 11 0.586 0.590 0.190 o
-2 5 13 5.313 4.271 0.778 o
-2 6 1 0.617 0.550 0.116 o
-2 6 3 15.957 14.854 0.470 o
-2 6 5 8.979 9.248 0.346 o
-2 6 7 3.702 3.802 0.380 o
-2 6 8 1.785 1.762 0.186 o
-2 6 9 2.800 2.599 0.220 o
-2 6 11 6.275 6.408 0.513 o
-1 0 2 768.292 752.735 17.302 o
-1 0 4 876.779 847.445 41.493 o
-1 0 6 201.583 191.358 4.922 o
-1 0 8 493.309 499.169 13.183 o
-1 0 10 2.952 3.045 0.247 o
-1 0 12 108.509 104.853 2.862 o
-1 0 14 48.736 46.978 1.187 o
-1 0 16 22.537 22.718 1.744 o
-1 0 18 59.688 64.108 1.754 o
-1 0 20 41.127 44.459 1.456 o
-1 1 1 2913.566 2726.259 62.430 o
-1 1 2 146.871 148.929 3.408 o
-1 1 3 341.466 335.532 7.758 o
-1 1 4 239.647 240.032 5.589 o
-1 1 5 0.972 0.846 0.117 o
-1 1 6 0.406 0.561 0.111 o
-1 1 7 412.768 411.053 9.921 o
-1 1 8 94.877 89.140 2.154 o
-1 1 9 167.363 169.302 4.330 o
-1 1 11 70.794 70.811 1.672 o
-1 1 12 85.463 85.220 2.039 o
-1 1 13 5.417 5.449 0.212 o
-1 1 14 44.787 44.735 1.382 o
-1 1 15 10.410 10.553 0.337 o
-1 1 16 6.099 5.867 0.229 o
-1 1 17 1.709 1.490 0.154 o
-1 1 18 14.642 14.745 0.452 o
-1 1 19 9.314 9.114 0.941 o
-1 1 20 2.704 2.778 0.245 o
-1 1 21 13.133 13.170 0.520 o
-1 1 22 12.143 11.785 0.515 o
-1 1 23 1.449 1.299 0.342 o
-1 2 1 144.657 137.749 3.220 o
-1 2 2 8.024 7.892 0.296 o
-1 2 3 171.327 171.015 4.446 o
-1 2 4 229.859 231.832 5.662 o
-1 2 5 488.004 486.562 11.558 o
-1 2 6 18.351 18.111 0.518 o
-1 2 7 1.278 1.347 0.109 o
-1 2 8 45.288 44.169 1.043 o
-1 2 9 7.804 7.626 0.244 o
-1 2 10 181.102 175.780 4.117 o
-1 2 11 69.771 70.247 1.681 o
-1 2 12 32.701 32.983 0.844 o
-1 2 13 12.508 12.272 0.432 o
-1 2 14 1.222 1.177 0.115 o
-1 2 15 11.951 11.800 0.368 o
-1 2 18 5.412 5.488 0.622 o
-1 2 19 3.956 4.029 0.606 o
-1 2 20 46.763 47.513 1.722 o
-1 3 2 32.006 32.528 0.867 o
-1 3 3 13.970 13.959 0.496 o
-1 3 4 57.678 56.203 1.529 o
-1 3 5 0.739 0.829 0.079 o
-1 3 6 105.316 103.612 2.516 o
-1 3 7 1.724 1.566 0.114 o
-1 3 8 6.096 6.346 0.314 o
-1 3 9 1.110 1.106 0.098 o
-1 3 10 30.631 31.408 1.129 o
-1 3 11 40.693 41.481 1.071 o
-1 4 1 6.167 6.273 0.209 o
-1 4 2 9.956 9.779 0.284 o
-1 4 4 0.433 0.390 0.063 o
-1 4 5 61.155 59.909 1.713 o
-1 4 6 82.215 81.951 2.202 o
-1 4 7 28.999 28.816 0.991 o
-1 4 8 7.937 8.200 0.360 o
-1 4 9 1.212 1.199 0.209 o
-1 4 11 2.842 3.303 0.290 o
-1 4 12 19.677 21.752 1.210 o
-1 5 1 10.101 10.753 0.405 o
-1 5 2 73.655 74.957 1.803 o
-1 5 3 1.202 1.213 0.140 o
-1 5 4 4.862 4.805 0.233 o
-1 5 6 32.562 32.746 1.233 o
-1 5 7 0.943 0.971 0.180 o
-1 5 8 0.797 0.853 0.172 o
-1 5 9 6.907 7.813 0.391 o
-1 5 10 14.549 16.008 0.726 o
-1 5 11 1.404 1.126 0.242 o
-1 5 12 13.833 13.658 1.201 o
-1 6 1 2.244 2.314 0.183 o
-1 6 2 6.787 6.641 0.268 o
-1 6 4 1.771 1.463 0.195 o
-1 6 5 0.820 0.737 0.204 o
-1 6 6 9.189 9.748 0.388 o
-1 6 7 9.298 8.940 0.476 o
-1 6 8 2.522 2.243 0.201 o
0 0 2 145.045 141.352 3.559 o
0 0 4 69.650 67.408 1.866 o
0 0 6 1007.832 981.084 25.797 o
0 0 8 290.713 294.260 9.055 o
0 0 10 394.567 384.861 10.958 o
0 0 12 13.587 13.733 0.572 o
0 0 14 52.333 55.320 1.564 o
0 0 16 10.842 10.417 0.423 o
0 0 20 9.910 9.413 0.739 o
0 0 22 15.415 15.609 0.949 o
0 1 1 453.449 445.225 10.759 o
0 1 2 87.339 88.144 2.351 o
0 1 3 18.674 18.002 0.558 o
0 1 4 1534.729 1526.439 34.702 o
0 1 5 70.049 70.663 1.776 o
0 1 6 309.647 308.511 7.416 o
0 1 7 35.679 35.185 1.029 o
0 1 8 28.117 26.410 0.756 o
0 1 9 36.096 35.998 0.908 o
0 1 10 144.320 142.155 3.311 o
0 1 11 198.050 199.926 4.730 o
0 1 13 25.777 25.571 0.667 o
0 1 14 8.547 8.601 0.286 o
0 1 15 3.319 3.493 0.172 o
0 1 16 3.484 3.443 0.154 o
0 1 17 19.443 19.761 0.564 o
0 1 18 24.878 25.593 2.224 o
0 1 19 48.474 47.888 2.952 o
0 1 20 3.153 2.890 0.258 o
0 1 21 15.546 15.106 0.579 o
0 1 22 4.101 3.931 0.327 o
0 2 0 13.034 13.274 0.537 o
0 2 1 75.692 72.804 1.836 o
0 2 2 131.116 130.593 3.000 o
0 2 4 184.745 184.081 5.357 o
0 2 5 47.702 49.005 1.276 o
0 2 6 5.375 5.458 0.256 o
0 2 7 134.047 135.689 3.325 o
0 2 8 0.420 0.395 0.068 o
0 2 9 53.656 53.255 1.282 o
0 2 10 25.219 24.385 0.668 o
0 2 11 1.481 1.376 0.143 o
0 2 12 16.149 16.040 0.449 o
0 2 13 9.648 10.016 0.379 o
0 2 14 55.611 54.151 1.379 o
0 2 15 93.543 94.721 2.477 o
0 2 16 2.640 2.791 0.484 o
0 2 18 11.104 10.729 0.806 o
0 2 19 11.945 12.178 0.872 o
0 2 20 24.686 24.082 1.200 o
0 3 1 50.729 49.817 1.170 o
0 3 2 116.430 114.050 2.812 o
0 3 3 86.154 85.019 1.961 o
0 3 4 57.137 56.887 1.482 o
0 3 5 15.547 15.638 0.407 o
0 3 7 0.919 1.045 0.109 o
0 3 8 96.227 97.512 2.939 o
0 3 9 40.934 42.353 1.139 o
0 3 10 1.250 1.136 0.161 o
0 3 11 1.267 1.384 0.201 o
0 3 12 6.696 5.816 0.908 o
0 4 0 2.769 2.954 0.196 o
0 4 1 12.720 12.480 0.359 o
0 4 2 58.974 60.498 1.546 o
0 4 3 4.079 3.975 0.177 o
0 4 4 12.615 12.344 0.448 o
0 4 5 77.977 77.075 2.199 o
0 4 6 6.495 6.516 0.245 o
0 4 8 5.536 5.277 0.247 o
0 4 9 6.154 5.789 0.453 o
0 4 10 16.163 16.327 0.617 o
0 5 2 7.687 7.586 0.257 o
0 5 3 1.170 1.176 0.111 o
0 5 4 24.489 25.147 0.660 o
0 5 5 3.063 2.930 0.168 o
0 5 6 74.259 77.561 1.875 o
0 5 8 6.600 6.656 0.409 o
0 5 11 3.503 3.806 0.706 o
0 5 12 7.795 7.872 0.895 o
0 6 0 17.460 17.277 0.610 o
0 6 1 5.949 5.893 0.258 o
0 6 2 9.905 10.184 0.346 o
0 6 3 3.920 3.515 0.227 o
0 6 4 0.774 0.646 0.197 o
0 6 5 28.482 27.714 0.775 o
0 6 8 0.870 0.760 0.231 o
0 6 10 11.502 11.524 1.034 o
0 7 1 8.523 7.667 0.580 o
1 0 0 370.842 366.495 8.566 o
1 0 2 10.439 10.681 0.427 o
1 0 4 1859.361 1841.433 53.174 o
1 0 6 228.224 223.671 5.682 o
1 0 8 71.565 72.908 2.200 o
1 0 10 663.139 657.736 19.927 o
1 0 12 6.093 5.986 0.481 o
1 0 14 82.962 78.974 2.669 o
1 0 16 12.221 13.055 0.706 o
1 0 18 83.876 84.902 2.463 o
1 0 20 87.670 88.577 2.920 o
1 0 22 4.091 4.124 0.625 o
1 1 0 1595.485 1533.562 34.881 o
1 1 1 38.670 37.700 1.162 o
1 1 2 430.239 432.011 11.263 o
1 1 3 814.616 801.920 24.684 o
1 1 4 65.861 68.235 1.831 o
1 1 5 115.382 113.520 3.319 o
1 1 6 208.424 216.283 5.137 o
1 1 7 17.808 17.736 0.483 o
1 1 8 91.016 90.341 2.727 o
1 1 9 183.810 184.275 4.584 o
1 1 10 70.147 69.927 1.651 o
1 1 12 1.803 1.873 0.126 o
1 1 13 6.592 6.658 0.273 o
1 1 14 122.423 124.114 2.995 o
1 1 15 3.923 3.668 0.182 o
1 1 16 22.987 24.299 0.654 o
1 1 17 3.561 3.665 0.235 o
1 1 18 4.124 4.338 0.374 o
1 1 19 11.115 11.562 0.454 o
1 1 20 5.087 5.258 0.329 o
1 1 21 9.398 9.673 0.460 o
1 1 22 2.847 2.650 0.296 o
1 2 0 322.139 311.592 7.294 o
1 2 1 268.980 263.055 6.093 o
1 2 3 356.934 354.718 9.687 o
1 2 4 19.360 18.930 0.657 o
1 2 5 87.493 89.413 2.270 o
1 2 6 158.261 157.430 3.927 o
1 2 7 79.029 78.119 1.909 o
1 2 8 5.622 5.655 0.242 o
1 2 9 7.288 7.165 0.278 o
1 2 10 4.437 4.393 0.218 o
1 2 11 8.201 8.371 0.323 o
1 2 12 14.515 15.628 0.485 o
1 2 13 26.128 26.345 0.864 o
1 2 14 6.078 5.705 0.263 o
1 2 15 0.801 0.649 0.186 o
1 2 16 5.356 5.673 0.604 o
1 2 17 3.813 3.688 0.559 o
1 2 19 5.672 5.977 0.690 o
1 2 21 2.197 1.699 0.409 o
1 3 0 19.002 18.882 0.482 o
1 3 1 30.762 31.200 0.801 o
1 3 2 47.428 46.486 1.154 o
1 3 4 8.284 8.222 0.260 o
1 3 5 21.962 21.603 0.552 o
1 3 6 42.838 44.461 1.075 o
1 3 7 18.220 18.666 0.615 o
1 3 8 24.897 24.660 0.917 o
1 3 9 9.628 9.543 0.573 o
1 3 10 0.754 0.810 0.210 o
1 3 11 14.958 14.682 0.869 o
1 3 12 32.267 29.630 1.221 o
1 3 13 27.341 28.286 2.036 o
1 4 0 18.077 18.606 0.519 o
1 4 1 0.592 0.554 0.071 o
1 4 2 57.038 56.938 1.528 o
1 4 3 14.611 14.657 0.440 o
1 4 4 3.003 3.030 0.151 o
1 4 5 51.432 50.869 1.387 o
1 4 6 7.891 8.348 0.309 o
1 4 7 1.307 1.441 0.196 o
1 4 8 57.398 56.257 1.627 o
1 4 9 11.961 12.100 0.530 o
1 4 12 1.546 1.780 0.498 o
1 5 0 4.421 4.140 0.181 o
1 5 2 12.342 12.867 0.379 o
1 5 3 0.652 0.680 0.094 o
1 5 4 92.017 93.601 2.250 o
1 5 5 4.094 4.146 0.234 o
1 5 7 0.987 0.925 0.227 o
1 5 8 7.854 8.494 0.475 o
1 5 10 2.173 1.944 0.564 o
1 5 12 21.946 21.567 1.309 o
1 6 0 6.359 6.275 0.258 o
1 6 1 5.964 5.710 0.247 o
1 6 2 2.912 2.834 0.203 o
1 6 4 5.238 5.170 0.240 o
1 6 5 11.607 11.613 0.463 o
1 6 6 3.960 3.794 0.292 o
1 6 8 12.747 12.804 0.536 o
1 6 9 11.392 10.904 1.052 o
1 6 10 6.155 5.621 0.860 o
2 0 0 22.154 22.964 0.826 o
2 0 2 3727.494 3729.755 92.222 o
2 0 4 8.824 8.890 0.490 o
2 0 6 4.418 4.241 0.611 o
2 0 8 100.074 103.924 2.516 o
2 0 10 34.163 34.605 0.932 o
2 0 12 74.679 78.045 1.992 o
2 0 14 94.474 88.469 3.071 o
2 0 16 34.874 36.072 1.213 o
2 0 18 4.843 4.333 0.569 o
2 0 20 18.203 16.458 0.974 o
2 1 0 369.253 370.317 8.569 o
2 1 1 65.424 66.809 1.787 o
2 1 2 2.801 2.517 0.173 o
2 1 3 469.955 456.554 10.787 o
2 1 4 9.557 9.368 0.340 o
2 1 5 19.942 20.433 0.584 o
2 1 6 418.397 410.599 12.427 o
2 1 7 29.523 28.412 0.799 o
2 1 8 45.651 45.419 1.191 o
2 1 9 172.191 174.210 4.332 o
2 1 10 41.221 41.785 1.118 o
2 1 11 1.820 1.597 0.155 o
2 1 12 23.754 24.047 0.618 o
2 1 13 114.422 115.818 2.837 o
2 1 14 3.086 3.199 0.169 o
2 1 15 5.163 5.413 0.263 o
2 1 17 4.063 4.232 0.458 o
2 1 18 20.385 21.054 1.419 o
2 1 19 32.527 32.528 0.980 o
2 1 20 24.530 23.835 1.464 o
2 1 21 8.890 9.028 0.475 o
2 2 0 520.837 510.329 11.982 o
2 2 1 1.753 1.836 0.148 o
2 2 2 2.753 2.956 0.177 o
2 2 3 17.065 17.218 0.509 o
2 2 4 1.084 1.096 0.121 o
2 2 5 149.148 154.588 3.747 o
2 2 6 10.089 10.067 0.356 o
2 2 7 55.459 55.764 1.915 o
2 2 8 53.743 53.123 1.570 o
2 2 9 74.532 73.117 1.788 o
2 2 10 71.891 74.050 2.110 o
2 2 11 30.390 30.720 0.829 o
2 2 12 0.423 0.396 0.105 o
2 2 13 33.985 33.023 0.947 o
2 2 14 1.573 1.558 0.295 o
2 2 15 12.335 12.188 0.798 o
2 2 16 12.525 12.711 0.837 o
2 2 17 44.943 45.167 1.572 o
2 2 18 2.124 2.520 0.291 o
2 2 20 1.990 1.572 0.424 o
2 3 0 12.697 12.765 0.348 o
2 3 1 29.393 29.501 0.714 o
2 3 2 91.231 88.734 2.030 o
2 3 3 4.510 4.584 0.184 o
2 3 4 214.045 213.446 5.116 o
2 3 5 7.849 8.073 0.272 o
2 3 6 2.054 1.649 0.210 o
2 3 7 28.276 28.679 1.007 o
2 3 8 1.581 1.437 0.177 o
2 3 9 1.404 1.255 0.168 o
2 3 10 2.345 2.455 0.316 o
2 3 12 3.686 4.149 0.624 o
2 4 0 13.206 13.144 0.410 o
2 4 2 1.901 1.824 0.111 o
2 4 3 55.176 56.557 1.335 o
2 4 4 54.322 53.389 1.324 o
2 4 5 18.346 18.727 0.766 o
2 4 6 3.376 3.281 0.243 o
2 4 7 18.409 18.602 0.743 o
2 4 8 5.187 4.764 0.353 o
2 4 9 6.494 5.696 0.728 o
2 4 10 1.727 1.697 0.502 o
2 4 12 33.084 34.777 1.526 o
2 5 0 11.660 12.139 0.363 o
2 5 1 3.796 3.910 0.185 o
2 5 2 1.914 2.111 0.139 o
2 5 3 1.326 1.397 0.120 o
2 5 4 2.799 2.396 0.207 o
2 5 5 1.219 1.238 0.134 o
2 5 6 1.770 1.460 0.466 o
2 5 8 70.037 72.232 2.755 o
2 5 9 5.299 6.083 0.815 o
2 5 10 3.709 3.308 0.676 o
2 6 0 0.907 1.046 0.130 o
2 6 1 0.538 0.444 0.116 o
2 6 2 7.017 7.380 0.295 o
2 6 3 12.919 13.076 0.419 o
2 6 4 7.039 6.817 0.325 o
2 6 7 5.349 4.889 0.318 o
2 6 8 0.671 0.668 0.211 o
3 0 0 403.480 411.895 15.215 o
3 0 2 193.603 197.073 4.958 o
3 0 4 21.692 21.374 0.829 o
3 0 6 574.815 582.345 14.128 o
3 0 8 10.304 10.655 0.416 o
3 0 10 1.336 1.091 0.174 o
3 0 12 269.100 270.004 7.797 o
3 0 14 3.490 3.781 0.300 o
3 0 16 11.089 11.094 0.755 o
3 0 18 9.680 8.970 0.750 o
3 0 20 34.135 34.430 1.395 o
3 1 0 111.953 113.341 2.925 o
3 1 1 443.858 443.084 10.877 o
3 1 2 442.907 450.827 11.239 o
3 1 3 41.976 42.398 1.133 o
3 1 4 11.613 12.062 0.424 o
3 1 5 5.083 5.090 0.193 o
3 1 6 4.675 4.637 0.181 o
3 1 7 28.615 28.301 0.720 o
3 1 8 36.911 36.474 0.901 o
3 1 9 1.308 1.481 0.110 o
3 1 10 81.519 83.474 2.075 o
3 1 11 13.477 13.275 0.387 o
3 1 12 10.774 11.281 0.348 o
3 1 13 34.036 34.687 0.894 o
3 1 14 0.574 0.758 0.129 o
3 1 15 2.908 2.674 0.334 o
3 1 16 56.593 54.896 4.729 o
3 1 17 1.306 1.428 0.201 o
3 1 18 2.803 2.718 0.259 o
3 1 19 7.471 7.164 0.402 o
3 2 0 1.934 2.018 0.128 o
3 2 1 7.514 7.725 0.253 o
3 2 2 276.346 275.567 6.627 o
3 2 3 102.366 98.450 2.578 o
3 2 4 90.547 90.394 2.662 o
3 2 5 61.876 62.246 2.354 o
3 2 6 42.742 43.749 1.316 o
3 2 7 3.756 3.760 0.199 o
3 2 8 99.186 95.831 2.375 o
3 2 9 2.132 1.949 0.151 o
3 2 10 10.469 11.132 0.482 o
3 2 11 9.055 9.174 0.339 o
3 2 12 20.354 19.854 0.741 o
3 2 13 2.742 2.694 0.257 o
3 2 14 7.818 7.582 1.067 o
3 2 16 1.906 1.452 0.353 o
3 2 17 6.306 6.045 0.562 o
3 2 18 19.920 18.573 0.888 o
3 2 19 13.556 13.619 0.806 o
3 3 0 70.165 69.714 1.622 o
3 3 1 2.295 2.353 0.122 o
3 3 2 20.569 21.238 0.536 o
3 3 3 96.825 96.184 2.585 o
3 3 4 105.666 105.825 2.462 o
3 3 6 19.819 19.452 1.297 o
3 3 7 2.125 1.851 0.213 o
3 3 8 110.660 111.098 4.768 o
3 3 9 33.806 33.135 1.095 o
3 4 0 6.237 6.658 0.232 o
3 4 2 2.334 2.131 0.120 o
3 4 3 18.306 18.879 0.503 o
3 4 4 37.697 37.117 0.988 o
3 4 7 53.589 49.944 2.604 o
3 4 12 1.719 1.917 0.564 o
3 5 0 17.683 17.373 0.531 o
3 5 1 8.876 8.997 0.351 o
3 5 2 3.097 3.136 0.171 o
3 5 5 1.784 1.929 0.255 o
3 5 6 15.351 16.023 0.525 o
3 5 7 4.453 4.805 0.309 o
3 5 8 1.511 1.589 0.199 o
3 6 1 0.938 0.694 0.136 o
3 6 2 1.232 1.483 0.252 o
3 6 3 0.625 0.412 0.136 o
3 6 4 1.192 1.396 0.209 o
3 6 5 3.349 3.049 0.376 o
3 6 7 14.037 14.337 0.840 o
4 0 0 44.724 45.645 2.096 o
4 0 4 37.087 36.615 1.592 o
4 0 6 12.878 12.395 0.449 o
4 0 8 0.940 0.586 0.186 o
4 0 10 3.942 4.138 0.277 o
4 0 12 2.536 2.550 0.220 o
4 0 16 46.505 43.986 1.495 o
4 1 0 2.339 2.259 0.150 o
4 1 1 153.644 157.226 3.813 o
4 1 2 187.033 186.234 4.412 o
4 1 3 209.815 205.262 5.431 o
4 1 4 2.988 2.933 0.159 o
4 1 5 88.625 86.537 2.261 o
4 1 6 38.596 39.277 0.980 o
4 1 7 7.893 7.741 0.325 o
4 1 8 27.556 28.042 0.749 o
4 1 9 19.730 20.787 0.626 o
4 1 10 0.256 0.272 0.083 o
4 1 11 122.029 120.137 2.948 o
4 1 12 11.111 10.993 0.358 o
4 1 13 6.147 5.842 0.353 o
4 1 14 2.222 2.457 0.287 o
4 1 15 9.071 8.651 0.383 o
4 1 16 3.329 3.116 0.317 o
4 1 17 8.270 7.531 0.393 o
4 1 19 1.079 0.972 0.229 o
4 2 0 118.183 116.724 2.702 o
4 2 1 74.290 72.645 1.702 o
4 2 2 293.723 288.726 6.850 o
4 2 3 54.370 52.535 1.364 o
4 2 4 15.515 15.601 0.479 o
4 2 5 0.496 0.500 0.104 o
4 2 6 6.796 6.881 0.257 o
4 2 7 148.529 147.618 4.422 o
4 2 8 0.686 0.637 0.098 o
4 2 9 13.451 14.283 0.435 o
4 2 10 39.107 40.319 1.049 o
4 2 11 1.292 1.027 0.157 o
4 2 12 97.070 99.132 2.432 o
4 2 13 26.254 26.935 0.957 o
4 2 14 10.428 10.049 0.654 o
4 2 15 24.655 24.624 0.990 o
4 2 16 2.240 1.894 0.419 o
4 2 17 5.048 4.230 0.557 o
4 2 18 5.430 5.036 0.606 o
4 3 0 5.793 5.754 0.219 o
4 3 1 36.941 36.099 1.002 o
4 3 2 0.951 0.819 0.084 o
4 3 3 1.291 1.399 0.111 o
4 3 4 48.321 48.925 1.248 o
4 3 5 3.546 3.484 0.209 o
4 3 6 103.368 103.124 2.561 o
4 3 8 52.084 49.887 1.500 o
4 3 9 5.984 6.314 0.320 o
4 3 10 9.386 9.814 0.547 o
4 3 13 12.695 13.455 0.695 o
4 3 16 21.975 21.662 0.929 o
4 3 17 2.999 2.662 0.466 o
4 4 0 66.250 67.428 1.951 o
4 4 1 0.474 0.504 0.088 o
4 4 2 0.610 0.528 0.086 o
4 4 3 2.864 2.789 0.187 o
4 4 4 1.404 1.331 0.134 o
4 4 5 20.081 19.493 1.530 o
4 4 6 13.175 13.619 0.692 o
4 4 7 38.669 39.382 1.121 o
4 4 8 20.184 19.835 0.799 o
4 4 10 1.482 1.445 0.341 o
4 5 1 1.997 1.770 0.162 o
4 5 2 0.875 0.901 0.132 o
4 5 3 3.311 3.842 0.243 o
4 5 4 22.459 22.625 0.747 o
4 5 5 1.976 1.726 0.424 o
4 5 6 9.248 9.361 0.575 o
4 5 8 2.152 1.541 0.271 o
4 5 10 14.358 13.791 0.566 o
4 5 11 7.062 7.067 0.418 o
4 6 0 1.012 0.775 0.144 o
4 6 1 3.724 3.442 0.226 o
4 6 5 2.619 2.369 0.757 o
5 0 0 62.611 65.333 3.319 o
5 0 2 675.725 693.459 17.759 o
5 0 4 11.832 11.705 0.514 o
5 0 6 6.099 5.771 0.318 o
5 0 8 141.762 141.883 3.720 o
5 0 10 67.953 68.754 1.865 o
5 0 12 16.793 15.813 0.872 o
5 0 14 15.005 14.796 0.893 o
5 0 16 14.683 13.155 0.895 o
5 1 0 0.446 0.503 0.078 o
5 1 1 108.203 101.747 2.517 o
5 1 2 58.618 58.183 1.555 o
5 1 3 1.816 1.788 0.129 o
5 1 4 38.490 38.794 1.154 o
5 1 5 1.284 1.238 0.117 o
5 1 6 79.817 80.050 1.929 o
5 1 7 4.852 4.841 0.224 o
5 1 8 1.464 1.373 0.136 o
5 1 9 1.903 1.850 0.214 o
5 1 10 0.642 0.658 0.119 o
5 1 11 27.514 27.154 1.310 o
5 1 12 53.591 52.075 1.361 o
5 1 13 16.084 15.490 0.742 o
5 1 15 16.867 16.703 0.606 o
5 1 18 5.523 4.370 0.370 o
5 2 0 24.174 24.201 0.612 o
5 2 1 25.143 25.289 0.640 o
5 2 2 3.330 3.384 0.171 o
5 2 3 23.909 23.504 0.661 o
5 2 4 59.664 59.531 1.496 o
5 2 5 14.814 14.893 0.450 o
5 2 6 46.632 47.244 1.204 o
5 2 7 3.939 3.695 0.227 o
5 2 8 13.837 13.702 0.514 o
5 2 9 10.199 10.094 0.362 o
5 2 10 37.918 38.028 1.173 o
5 2 11 9.932 10.814 0.685 o
5 2 12 20.861 21.418 0.943 o
5 2 14 5.510 5.031 0.577 o
5 2 16 11.552 11.081 0.795 o
5 2 17 23.666 22.318 1.087 o
5 3 0 120.516 119.142 3.278 o
5 3 1 26.685 26.674 0.812 o
5 3 2 5.228 5.477 0.237 o
5 3 3 4.781 4.339 0.266 o
5 3 4 3.893 3.714 0.215 o
5 3 5 39.658 40.184 1.133 o
5 3 6 87.012 89.300 2.549 o
5 3 7 4.523 4.645 0.308 o
5 3 8 3.034 3.255 0.450 o
5 3 10 36.575 36.938 1.172 o
5 3 11 20.472 20.573 0.904 o
5 3 13 4.081 3.305 0.516 o
5 3 14 27.478 27.808 1.106 o
5 3 16 31.166 29.411 1.169 o
5 4 0 9.067 8.976 0.346 o
5 4 1 4.553 4.943 0.232 o
5 4 3 1.202 1.543 0.380 o
5 4 4 25.292 28.501 1.067 o
5 4 5 18.216 18.592 0.878 o
5 4 6 8.471 9.010 0.651 o
5 4 7 18.446 19.463 0.898 o
5 4 9 7.383 7.241 0.626 o
5 4 10 15.265 13.282 0.780 o
5 4 11 2.448 2.628 0.459 o
5 5 0 5.146 4.806 0.251 o
5 5 2 4.638 5.149 0.831 o
5 5 3 1.126 1.353 0.441 o
5 5 4 3.463 3.415 0.558 o
5 5 6 6.152 6.479 0.652 o
5 5 8 7.382 7.025 0.667 o
5 6 0 6.864 7.101 0.395 o
5 6 1 4.441 4.333 0.336 o
5 6 2 4.033 4.372 0.338 o
5 6 3 1.937 1.967 0.293 o
5 6 4 1.712 1.493 0.341 o
5 6 5 7.536 8.439 0.975 o
6 0 0 230.241 245.419 7.734 o
6 0 2 30.002 29.474 0.850 o
6 0 4 1.432 1.713 0.195 o
6 0 6 41.379 42.069 1.437 o
6 0 8 15.282 14.786 0.557 o
6 0 10 31.718 32.828 1.244 o
6 0 12 89.980 84.759 2.637 o
6 0 14 3.702 3.512 0.603 o
6 0 16 2.068 2.347 0.550 o
6 1 0 0.571 0.405 0.101 o
6 1 1 182.207 190.981 5.589 o
6 1 2 60.211 61.359 1.754 o
6 1 3 22.270 22.306 0.711 o
6 1 4 54.004 56.614 1.678 o
6 1 5 57.799 59.171 1.608 o
6 1 6 20.457 20.381 0.577 o
6 1 7 11.646 11.432 0.376 o
6 1 8 41.029 40.718 1.061 o
6 1 9 32.577 31.917 0.892 o
6 1 11 30.957 29.311 1.786 o
6 1 12 0.667 0.737 0.178 o
6 1 13 12.916 11.702 0.925 o
6 1 15 1.941 1.728 0.505 o
6 1 16 24.809 23.149 1.168 o
6 2 1 9.065 9.858 0.391 o
6 2 3 13.553 13.129 0.518 o
6 2 4 47.159 45.457 1.210 o
6 2 5 93.919 93.764 2.565 o
6 2 6 2.118 1.816 0.255 o
6 2 7 1.131 0.962 0.147 o
6 2 8 5.262 5.231 0.556 o
6 2 9 33.761 32.109 1.183 o
6 2 10 1.399 1.266 0.407 o
6 2 11 5.423 5.659 0.622 o
6 2 12 3.121 3.231 0.548 o
6 2 13 6.383 5.665 0.653 o
6 2 14 31.718 32.039 1.306 o
6 2 15 14.912 14.359 0.923 o
6 2 16 7.269 7.463 0.753 o
6 3 2 0.766 0.601 0.129 o
6 3 3 0.723 0.634 0.159 o
6 3 7 5.063 4.797 0.552 o
6 3 8 6.059 6.668 0.624 o
6 3 9 3.028 3.200 0.520 o
6 3 10 30.877 31.500 1.209 o
6 3 11 1.683 1.344 0.441 o
6 3 12 1.183 1.449 0.432 o
6 4 0 16.555 17.023 0.891 o
6 4 2 25.770 28.570 1.166 o
6 4 4 6.110 6.609 0.638 o
6 4 5 13.606 15.309 0.883 o
6 4 7 2.028 1.922 0.451 o
6 4 9 6.923 7.438 0.691 o
6 4 10 17.832 18.324 0.965 o
6 4 11 1.734 1.417 0.446 o
6 5 0 26.725 25.654 0.843 o
6 5 1 3.959 3.893 0.336 o
6 5 4 14.825 16.094 0.969 o
6 5 6 44.316 47.647 1.724 o
6 5 7 2.780 2.971 0.534 o
6 6 0 11.130 11.960 1.052 o
7 0 0 106.869 113.970 5.292 o
7 0 2 35.001 35.846 1.053 o
7 0 4 263.762 269.359 8.047 o
7 0 6 1.088 0.853 0.205 o
7 0 8 41.140 40.282 1.399 o
7 0 10 58.077 56.670 1.817 o
7 0 12 16.536 16.794 1.011 o
7 0 14 11.361 10.656 0.868 o
7 1 0 80.953 82.677 2.351 o
7 1 1 1.274 1.240 0.193 o
7 1 3 7.309 7.563 0.354 o
7 1 4 34.020 34.332 0.976 o
7 1 5 38.718 38.896 1.303 o
7 1 6 1.057 1.170 0.200 o
7 1 7 1.297 1.335 0.405 o
7 1 8 45.412 44.110 1.470 o
7 1 10 3.132 3.296 0.563 o
7 1 11 15.781 15.439 0.957 o
7 1 12 14.311 13.795 0.918 o
7 1 13 13.890 14.657 0.963 o
7 1 14 22.709 20.387 1.124 o
7 1 15 21.166 19.953 1.124 o
7 2 0 35.024 36.269 1.073 o
7 2 1 10.365 10.367 0.596 o
7 2 2 6.437 5.978 0.448 o
7 2 3 4.628 4.420 0.311 o
7 2 6 5.604 5.801 0.615 o
7 2 7 3.138 3.112 0.518 o
7 2 8 7.181 6.891 0.672 o
7 2 9 19.293 20.713 1.044 o
7 2 11 9.705 9.060 0.774 o
7 2 13 4.172 3.934 0.622 o
7 2 14 6.170 6.024 0.701 o
7 3 0 0.578 0.566 0.159 o
7 3 1 27.503 27.595 1.130 o
7 3 2 21.872 23.340 1.052 o
7 3 3 15.059 16.171 0.891 o
7 3 4 13.430 14.848 0.871 o
7 3 5 1.050 1.292 0.415 o
7 3 6 6.669 6.567 0.664 o
7 3 7 3.260 3.471 0.566 o
7 3 8 11.436 11.955 0.840 o
7 3 9 9.794 9.316 0.774 o
7 3 12 3.620 3.323 0.594 o
7 4 0 9.576 9.508 0.762 o
7 4 2 1.660 1.493 0.444 o
7 4 4 2.533 2.751 0.539 o
7 4 5 20.016 20.879 1.071 o
7 4 6 29.271 32.394 1.317 o
7 4 9 9.673 11.353 0.846 o
7 5 0 13.337 13.813 0.945 o
7 5 2 12.371 11.600 0.882 o
7 5 4 2.218 2.691 0.562 o
8 0 0 26.072 28.219 1.966 o
8 0 2 14.308 14.799 1.541 o
8 1 2 2.149 1.862 0.391 o
8 1 3 81.178 82.640 2.408 o
8 1 4 32.679 34.211 1.289 o
8 1 6 4.082 4.159 0.591 o
8 1 8 18.295 19.521 1.065 o
8 1 9 9.247 8.677 0.785 o
8 1 10 17.853 18.441 1.066 o
8 1 11 5.330 6.290 0.736 o
8 1 12 4.282 4.030 0.667 o
8 1 13 10.112 11.432 0.905 o
8 2 0 41.502 43.590 1.425 o
8 2 1 20.888 20.222 0.995 o
8 2 3 4.728 4.731 0.604 o
8 2 4 13.676 14.966 0.911 o
8 2 5 7.557 7.385 0.701 o
8 2 7 33.499 31.288 1.319 o
8 2 8 4.183 4.003 0.621 o
8 2 10 14.890 13.654 0.953 o
8 3 0 16.885 16.840 0.951 o
8 3 2 9.282 9.112 0.758 o
8 3 4 10.557 10.439 0.824 o
8 3 5 17.541 18.149 1.032 o
8 3 6 13.802 14.117 0.930 o
8 3 8 3.343 4.103 0.636 o
8 3 10 2.480 2.782 0.581 o
8 4 1 2.229 1.735 0.484 o
8 4 2 13.456 14.107 0.936 o
8 4 3 2.212 2.804 0.563 o
8 4 4 2.255 2.785 0.558 o
8 4 5 2.520 2.389 0.544 o
8 4 6 3.587 3.581 0.623 o
8 4 7 3.921 4.015 0.642 o
9 1 8 1.692 1.502 0.498 o
9 2 3 4.912 5.039 0.658 o
9 2 4 35.029 35.589 1.422 o
9 2 5 3.206 2.701 0.544 o
9 2 6 2.959 3.113 0.597 o
9 2 8 2.019 1.753 0.511 o
9 2 9 14.458 14.774 0.997 o
9 3 1 6.124 6.813 0.717 o
9 3 2 2.253 1.720 0.499 o
9 3 3 13.336 14.458 0.964 o
9 3 4 6.307 7.025 0.756 o
9 3 6 14.849 15.893 1.014 o
9 4 1 2.405 2.747 0.568 o
9 4 2 12.652 14.195 0.960 o
