#------------------------------------------------------------------------------
#$Date: 2016-02-21 11:56:54 +0200 (Sun, 21 Feb 2016) $
#$Revision: 176809 $
#$URL: svn://www.crystallography.net/cod/cif/2/31/01/2310123.cif $
#------------------------------------------------------------------------------
#
# This file is available in the Crystallography Open Database (COD),
# http://www.crystallography.net/
#
# All data on this site have been placed in the public domain by the
# contributors.
#
data_2310123
loop_
_publ_author_name
'Kami\'nski, Rados\/law'
'Domaga\/la, S\/lawomir'
'Jarzembska, Katarzyna N.'
'Hoser, Anna A.'
'Sanjuan-Szklarz, W. Fabiola'
'Gutmann, Matthias J.'
'Makal, Anna'
'Mali\'nska, Maura'
'Bak, Joanna M.'
'Wo\'zniak, Krzysztof'
_publ_section_title
;
 Statistical analysis of multipole-model-derived structural parameters and
 charge-density properties from high-resolution X-ray diffraction
 experiments
;
_journal_issue                   1
_journal_name_full               'Acta Crystallographica Section A'
_journal_page_first              72
_journal_page_last               91
_journal_paper_doi               10.1107/S2053273313028313
_journal_volume                  70
_journal_year                    2014
_chemical_formula_moiety         'C2 H2 O4, 2(H2 O1)'
_chemical_formula_sum            'C2 H6 O6'
_chemical_formula_weight         126.07
_space_group_IT_number           14
_symmetry_cell_setting           monoclinic
_symmetry_Int_Tables_number      14
_symmetry_space_group_name_Hall  '-P 2ybc'
_symmetry_space_group_name_H-M   'P 1 21/c 1'
_cell_angle_alpha                90.00
_cell_angle_beta                 103.951(2)
_cell_angle_gamma                90.00
_cell_formula_units_Z            2
_cell_length_a                   6.0939(3)
_cell_length_b                   3.4965(2)
_cell_length_c                   11.8441(5)
_cell_measurement_temperature    100(1)
_cell_volume                     244.92(2)
_diffrn_ambient_temperature      100(1)
_diffrn_measured_fraction_theta_full 0.984
_diffrn_measured_fraction_theta_max 0.971
_diffrn_measurement_device
;
Bruker AXS Kappa APEX II Ultra diffractometer
;
_diffrn_measurement_device_type  'APEX II CCD detector'
_diffrn_measurement_method       \w-scans
_diffrn_radiation_monochromator  'multi-layer optics'
_diffrn_radiation_source         'TXS rotating anode'
_diffrn_radiation_type           'Mo K\a'
_diffrn_radiation_wavelength     0.71073
_diffrn_reflns_av_R_equivalents  0.0383
_diffrn_reflns_av_sigmaI/netI    0.01828
_diffrn_reflns_limit_h_max       14
_diffrn_reflns_limit_h_min       -14
_diffrn_reflns_limit_k_max       7
_diffrn_reflns_limit_k_min       -8
_diffrn_reflns_limit_l_max       27
_diffrn_reflns_limit_l_min       -25
_diffrn_reflns_number            23539
_diffrn_reflns_theta_full        55.29
_diffrn_reflns_theta_max         56.053
_diffrn_reflns_theta_min         3.445
_exptl_absorpt_coefficient_mu    0.181
_exptl_absorpt_correction_T_max  0.995
_exptl_absorpt_correction_T_min  0.901
_exptl_absorpt_correction_type   multi-scan
_exptl_absorpt_process_details
;
 Absorption correction done by SORTAV
 Blessing, R. H.: (1995) Acta Cryst. A51, 33-38
;
_exptl_crystal_colour            colourless
_exptl_crystal_density_diffrn    1.710
_exptl_crystal_description       unspecified
_exptl_crystal_F_000             132
_exptl_crystal_size_max          0.414
_exptl_crystal_size_mid          0.344
_exptl_crystal_size_min          0.210
_refine_diff_density_max         +0.20
_refine_diff_density_min         -0.20
_refine_ls_extinction_method     none
_refine_ls_goodness_of_fit_ref   1.467
_refine_ls_hydrogen_treatment    mixed
_refine_ls_number_parameters     177
_refine_ls_number_reflns         2765
_refine_ls_number_restraints     3
_refine_ls_R_factor_all          0.0165
_refine_ls_R_factor_gt           0.0165
_refine_ls_shift/su_max          0.001
_refine_ls_shift/su_mean         0.000
_refine_ls_structure_factor_coef F
_refine_ls_weighting_details
;
w=1/[\s^2^(Fo)]
;
_refine_ls_weighting_scheme      sigma
_refine_ls_wR_factor_gt          0.0238
_refine_ls_wR_factor_ref         0.0238
_reflns_number_gt                2765
_reflns_number_total             3169
_reflns_threshold_expression     I>3\s(I)
_iucr_refine_instructions_details
;
 Multipole refinement with MOPRO program
;
_cod_data_source_file            pc5031sup5.cif
_cod_data_source_block           oxa05
_cod_original_sg_symbol_H-M      'P 21/c'
_cod_database_code               2310123
loop_
_symmetry_equiv_pos_as_xyz
'x, y, z'
'-x, y+1/2, -z+1/2'
'-x, -y, -z'
'x, -y-1/2, z-1/2'
loop_
_atom_site_type_symbol
_atom_site_label
_atom_site_fract_x
_atom_site_fract_y
_atom_site_fract_z
_atom_site_U_iso_or_equiv
_atom_site_adp_type
_atom_site_occupancy
_atom_site_calc_flag
O O1 0.43486(3) 0.44401(7) 0.34990(2) 0.01356(7) Uani 1 d
O O2 0.24243(3) 0.74263(6) 0.46369(2) 0.01332(7) Uani 1 d
C C1 0.40314(2) 0.55873(4) 0.44801(1) 0.00982(6) Uani 1 d
H H1 0.306(2) 0.522(6) 0.2742(9) 0.02332 Uani 1 d
O O3 0.13006(3) 0.63111(6) 0.17859(2) 0.01316(7) Uani 1 d
H H2 0.184(2) 0.703(6) 0.1107(7) 0.02926 Uani 1 d
H H3 0.030(2) 0.416(2) 0.152(2) 0.02898 Uani 1 d
loop_
_atom_site_aniso_label
_atom_site_aniso_U_11
_atom_site_aniso_U_22
_atom_site_aniso_U_33
_atom_site_aniso_U_12
_atom_site_aniso_U_13
_atom_site_aniso_U_23
O1 0.01322(6) 0.01924(8) 0.00760(6) 0.00479(5) 0.00132(5) -0.00078(5)
O2 0.01134(6) 0.01820(7) 0.00969(6) 0.00549(5) 0.00109(4) -0.00073(5)
C1 0.00952(5) 0.01183(6) 0.00773(5) 0.00181(3) 0.00136(3) -0.00010(3)
H1 0.0218 0.0270 0.0209 0.0019 0.0046 0.0002
O3 0.01095(6) 0.01839(7) 0.00919(6) -0.00215(5) 0.00058(4) 0.00107(4)
H2 0.0262 0.0412 0.0215 -0.0038 0.0080 0.0037
H3 0.0223 0.0307 0.0333 -0.0070 0.0055 -0.0021
loop_
_atom_type_symbol
_atom_type_description
_atom_type_scat_dispersion_real
_atom_type_scat_dispersion_imag
_atom_type_scat_source
C C 0.0033 0.0016 'Su & Coppens, Acta. Cryst. (1997) A53, 749'
H H 0.0000 0.0000 'Su & Coppens, Acta. Cryst. (1997) A53, 749'
O O 0.0106 0.0060 'Su & Coppens, Acta. Cryst. (1997) A53, 749'
loop_
_geom_angle_atom_site_label_1
_geom_angle_atom_site_label_2
_geom_angle_atom_site_label_3
_geom_angle
O1 C1 O2 126.95(2)
C1 O1 H1 115.9(9)
H2 O3 H3 104(2)
loop_
_geom_bond_atom_site_label_1
_geom_bond_atom_site_label_2
_geom_bond_distance
O1 C1 1.2873(2)
O1 H1 1.074(1)
O2 C1 1.2226(2)
O3 H3 0.970(1)
O3 H2 0.974(1)
loop_
_geom_torsion_atom_site_label_1
_geom_torsion_atom_site_label_2
_geom_torsion_atom_site_label_3
_geom_torsion_atom_site_label_4
_geom_torsion
O2 C1 O1 H1 0.52(83)
loop_
_refln_index_h
_refln_index_k
_refln_index_l
_refln_F_squared_calc
_refln_F_squared_meas
_refln_F_squared_sigma
_refln_observed_status
-14 0 2 14.440 12.258 0.323 o
-14 0 6 1.980 1.879 0.104 o
-14 0 10 1.193 1.071 0.126 o
-14 1 5 0.326 0.330 0.063 o
-14 1 6 3.521 3.629 0.123 o
-14 1 7 6.476 6.575 0.169 o
-14 1 8 0.602 0.509 0.054 o
-14 1 9 0.184 0.168 0.043 o
-13 0 6 31.866 30.626 1.334 o
-13 0 8 3.246 3.160 0.104 o
-13 0 10 0.463 0.414 0.054 o
-13 0 12 10.541 10.657 0.410 o
-13 0 14 1.503 1.378 0.077 o
-13 0 16 8.654 7.763 0.236 o
-13 1 1 2.493 2.547 0.093 o
-13 1 2 13.512 13.367 0.361 o
-13 1 3 0.292 0.275 0.039 o
-13 1 4 1.105 1.037 0.053 o
-13 1 5 9.103 9.515 0.234 o
-13 1 7 0.140 0.129 0.034 o
-13 1 8 3.441 3.517 0.101 o
-13 1 10 3.136 3.148 0.091 o
-13 1 12 3.049 2.977 0.087 o
-13 1 13 0.589 0.515 0.040 o
-13 1 15 1.348 1.347 0.084 o
-13 1 16 3.761 3.665 0.167 o
-13 2 1 3.811 3.755 0.148 o
-13 2 3 0.956 0.782 0.062 o
-13 2 4 0.770 0.614 0.042 o
-13 2 5 1.148 1.206 0.063 o
-13 2 6 0.442 0.384 0.042 o
-13 2 8 1.995 2.039 0.080 o
-13 2 9 1.223 1.280 0.076 o
-13 2 10 3.698 3.729 0.115 o
-13 2 12 1.025 1.008 0.072 o
-13 2 13 0.754 0.839 0.064 o
-13 2 14 2.776 2.656 0.119 o
-13 3 4 4.054 4.247 0.134 o
-13 3 5 2.255 2.127 0.081 o
-13 3 6 4.160 3.771 0.239 o
-13 3 7 2.185 1.955 0.088 o
-13 3 9 1.765 1.832 0.096 o
-13 3 10 3.744 3.710 0.222 o
-12 0 2 8.597 8.283 0.220 o
-12 0 4 39.262 39.858 1.421 o
-12 0 6 3.912 4.648 0.189 o
-12 0 8 0.192 0.141 0.044 o
-12 0 10 2.383 2.170 0.093 o
-12 0 12 8.248 8.558 0.233 o
-12 0 14 5.020 4.981 0.147 o
-12 0 16 16.685 16.131 0.406 o
-12 0 18 0.502 0.514 0.124 o
-12 1 1 1.899 1.805 0.072 o
-12 1 2 0.946 0.905 0.053 o
-12 1 5 17.730 17.678 0.413 o
-12 1 6 4.334 4.164 0.112 o
-12 1 7 1.521 1.433 0.059 o
-12 1 8 11.087 10.978 0.289 o
-12 1 9 10.519 9.794 0.252 o
-12 1 10 2.558 2.538 0.080 o
-12 1 11 0.904 0.905 0.062 o
-12 1 12 6.453 6.375 0.167 o
-12 1 13 0.747 0.655 0.042 o
-12 1 14 0.139 0.166 0.036 o
-12 1 15 12.610 12.017 0.290 o
-12 1 16 1.673 1.669 0.072 o
-12 1 17 0.755 0.613 0.057 o
-12 1 19 1.294 1.347 0.128 o
-12 2 1 12.321 12.080 0.393 o
-12 2 2 4.921 4.665 0.191 o
-12 2 4 0.120 0.135 0.038 o
-12 2 5 7.446 7.507 0.258 o
-12 2 6 0.224 0.205 0.041 o
-12 2 7 3.120 3.126 0.101 o
-12 2 8 4.091 4.120 0.124 o
-12 2 9 3.793 3.979 0.113 o
-12 2 11 8.015 7.997 0.204 o
-12 2 12 0.937 0.867 0.073 o
-12 2 13 4.620 4.372 0.133 o
-12 2 14 0.329 0.286 0.037 o
-12 2 16 0.223 0.170 0.054 o
-12 2 17 0.272 0.175 0.055 o
-12 2 18 4.700 4.542 0.201 o
-12 3 1 1.439 1.354 0.140 o
-12 3 2 0.433 0.307 0.045 o
-12 3 3 3.086 2.990 0.094 o
-12 3 6 0.790 0.726 0.080 o
-12 3 7 1.189 1.175 0.065 o
-12 3 11 1.584 1.534 0.067 o
-12 3 12 0.415 0.364 0.067 o
-12 3 13 0.467 0.413 0.049 o
-12 3 14 3.361 3.085 0.101 o
-12 3 15 0.320 0.309 0.065 o
-12 3 16 1.624 1.517 0.163 o
-12 4 1 0.462 0.422 0.111 o
-12 4 2 1.011 1.050 0.113 o
-12 4 3 1.776 1.844 0.155 o
-12 4 4 1.524 1.536 0.273 o
-12 4 5 2.256 2.081 0.108 o
-12 4 6 5.118 5.059 0.496 o
-12 4 7 0.309 0.294 0.065 o
-12 4 8 0.472 0.504 0.057 o
-12 4 9 1.229 1.064 0.076 o
-12 4 11 1.456 1.470 0.136 o
-11 0 2 3.385 3.385 0.115 o
-11 0 4 8.700 8.974 0.249 o
-11 0 6 0.574 0.462 0.054 o
-11 0 8 81.252 86.366 2.520 o
-11 0 10 7.529 7.571 0.284 o
-11 0 12 2.494 2.593 0.109 o
-11 0 14 31.824 33.369 0.805 o
-11 0 16 1.346 1.476 0.123 o
-11 0 18 11.224 11.565 0.310 o
-11 0 20 2.013 1.901 0.115 o
-11 1 1 0.236 0.223 0.036 o
-11 1 2 5.492 5.333 0.155 o
-11 1 3 13.057 13.439 0.324 o
-11 1 4 33.642 33.282 0.862 o
-11 1 5 1.936 1.908 0.073 o
-11 1 6 0.208 0.161 0.033 o
-11 1 7 1.353 1.386 0.061 o
-11 1 8 1.261 1.281 0.059 o
-11 1 9 5.708 5.754 0.150 o
-11 1 10 3.484 3.482 0.098 o
-11 1 11 4.110 4.138 0.114 o
-11 1 12 12.607 12.533 0.305 o
-11 1 13 0.403 0.396 0.043 o
-11 1 14 5.874 6.048 0.166 o
-11 1 15 5.575 5.732 0.154 o
-11 1 16 2.376 2.461 0.099 o
-11 1 17 0.150 0.142 0.046 o
-11 1 18 8.612 8.740 0.231 o
-11 1 19 10.412 10.233 0.261 o
-11 1 20 0.400 0.371 0.054 o
-11 2 1 2.541 2.614 0.094 o
-11 2 2 0.319 0.333 0.045 o
-11 2 3 1.237 1.337 0.070 o
-11 2 4 10.122 10.175 0.285 o
-11 2 5 2.068 2.070 0.078 o
-11 2 6 5.892 5.689 0.156 o
-11 2 7 7.741 7.921 0.235 o
-11 2 10 0.946 0.985 0.057 o
-11 2 11 2.101 2.017 0.076 o
-11 2 12 2.385 2.186 0.081 o
-11 2 13 0.482 0.477 0.045 o
-11 2 14 1.331 1.321 0.062 o
-11 2 15 9.699 9.910 0.268 o
-11 2 16 0.215 0.247 0.046 o
-11 2 17 0.701 0.550 0.049 o
-11 2 18 2.224 2.227 0.091 o
-11 2 19 0.910 0.961 0.070 o
-11 2 20 0.388 0.394 0.120 o
-11 3 1 0.975 0.932 0.056 o
-11 3 2 3.156 3.018 0.097 o
-11 3 3 0.320 0.250 0.041 o
-11 3 4 4.252 4.128 0.128 o
-11 3 5 5.876 5.708 0.158 o
-11 3 6 2.628 2.589 0.112 o
-11 3 7 3.437 3.231 0.103 o
-11 3 9 1.138 1.094 0.077 o
-11 3 10 11.357 11.320 0.353 o
-11 3 11 3.734 3.796 0.118 o
-11 3 12 1.019 0.806 0.085 o
-11 3 13 2.470 2.274 0.082 o
-11 3 14 0.422 0.337 0.045 o
-11 3 16 3.409 3.369 0.399 o
-11 3 17 4.203 4.143 0.210 o
-11 4 1 1.193 1.331 0.147 o
-11 4 2 2.702 2.762 0.128 o
-11 4 3 5.176 4.869 0.171 o
-11 4 6 6.382 6.208 0.176 o
-11 4 7 0.362 0.331 0.079 o
-11 4 9 2.165 1.852 0.303 o
-11 4 10 3.390 3.103 0.131 o
-11 4 12 3.115 2.975 0.149 o
-11 4 13 5.271 5.271 0.476 o
-11 4 15 0.687 0.623 0.124 o
-11 5 2 5.933 5.436 0.198 o
-11 5 4 3.214 3.269 0.393 o
-11 5 5 0.571 0.422 0.086 o
-11 5 6 3.258 3.388 0.165 o
-11 5 8 1.070 1.021 0.132 o
-10 0 4 8.104 7.703 0.217 o
-10 0 6 11.550 11.725 0.408 o
-10 0 8 16.650 16.849 0.491 o
-10 0 10 11.562 11.558 0.294 o
-10 0 12 11.164 11.582 0.296 o
-10 0 14 0.761 0.824 0.066 o
-10 0 16 2.777 2.910 0.151 o
-10 0 18 58.774 60.495 2.142 o
-10 0 20 1.677 1.889 0.106 o
-10 0 22 1.164 1.210 0.100 o
-10 1 1 3.074 3.140 0.099 o
-10 1 2 0.476 0.518 0.041 o
-10 1 3 2.022 2.086 0.076 o
-10 1 4 0.663 0.690 0.042 o
-10 1 5 8.979 8.705 0.275 o
-10 1 7 44.692 45.790 1.166 o
-10 1 8 19.012 19.050 0.460 o
-10 1 9 9.564 9.788 0.251 o
-10 1 10 5.816 6.209 0.177 o
-10 1 11 1.783 1.846 0.073 o
-10 1 12 3.639 3.811 0.110 o
-10 1 13 10.911 11.392 0.285 o
-10 1 14 17.163 17.556 0.419 o
-10 1 16 0.918 0.856 0.063 o
-10 1 17 14.183 14.679 0.361 o
-10 1 18 2.212 2.278 0.089 o
-10 1 19 1.771 1.784 0.080 o
-10 1 21 0.512 0.452 0.056 o
-10 1 22 10.648 10.179 0.439 o
-10 2 1 0.476 0.483 0.041 o
-10 2 2 10.707 10.814 0.271 o
-10 2 3 46.082 47.690 1.145 o
-10 2 4 26.555 26.772 0.732 o
-10 2 7 1.234 1.222 0.066 o
-10 2 8 8.374 8.342 0.215 o
-10 2 9 12.564 12.442 0.348 o
-10 2 10 0.782 0.697 0.043 o
-10 2 11 11.245 11.690 0.285 o
-10 2 12 4.833 4.989 0.136 o
-10 2 13 10.760 11.195 0.274 o
-10 2 14 12.708 12.807 0.315 o
-10 2 16 0.654 0.616 0.046 o
-10 2 17 3.539 3.573 0.110 o
-10 2 18 0.574 0.552 0.049 o
-10 2 20 0.292 0.281 0.059 o
-10 2 21 0.969 0.982 0.082 o
-10 3 1 2.476 2.574 0.101 o
-10 3 2 7.641 7.800 0.208 o
-10 3 3 3.422 3.487 0.106 o
-10 3 4 9.760 9.660 0.241 o
-10 3 6 10.520 10.454 0.289 o
-10 3 7 0.544 0.570 0.043 o
-10 3 8 5.471 5.365 0.153 o
-10 3 9 0.877 0.795 0.051 o
-10 3 10 7.167 6.962 0.186 o
-10 3 13 0.251 0.210 0.042 o
-10 3 14 7.767 7.808 0.209 o
-10 3 15 2.474 2.713 0.128 o
-10 3 17 1.463 1.420 0.085 o
-10 3 18 0.313 0.308 0.056 o
-10 3 19 0.778 0.749 0.154 o
-10 3 20 6.547 6.127 0.237 o
-10 3 21 2.635 2.658 0.174 o
-10 4 2 9.695 9.802 0.339 o
-10 4 3 5.850 6.058 0.293 o
-10 4 4 0.296 0.219 0.057 o
-10 4 5 1.054 1.140 0.077 o
-10 4 6 3.244 3.318 0.117 o
-10 4 8 2.955 2.794 0.137 o
-10 4 9 2.930 2.997 0.101 o
-10 4 10 6.786 6.943 0.214 o
-10 4 13 7.244 7.069 0.562 o
-10 4 14 0.141 0.245 0.073 o
-10 4 16 9.972 9.225 0.293 o
-10 4 17 0.754 0.695 0.131 o
-10 5 2 6.432 6.573 0.244 o
-10 5 4 2.040 1.833 0.119 o
-10 5 5 2.800 2.804 0.152 o
-10 5 6 5.522 5.318 0.174 o
-10 5 8 0.216 0.367 0.109 o
-10 5 10 0.708 0.644 0.112 o
-10 5 11 1.223 1.072 0.138 o
-10 5 12 13.329 14.084 0.343 o
-9 0 2 3.990 3.954 0.144 o
-9 0 4 53.703 53.638 1.706 o
-9 0 6 23.653 23.250 0.585 o
-9 0 8 4.212 4.255 0.132 o
-9 0 10 50.285 52.395 1.262 o
-9 0 14 1.860 2.008 0.105 o
-9 0 16 20.448 22.173 0.978 o
-9 0 18 0.294 0.314 0.082 o
-9 0 20 0.906 0.852 0.086 o
-9 0 22 6.495 6.394 0.358 o
-9 1 1 0.448 0.435 0.037 o
-9 1 2 1.284 1.184 0.068 o
-9 1 3 0.114 0.137 0.033 o
-9 1 4 9.838 9.681 0.252 o
-9 1 5 3.017 2.961 0.109 o
-9 1 6 21.184 21.238 0.532 o
-9 1 7 16.413 16.620 0.420 o
-9 1 8 4.603 4.670 0.120 o
-9 1 9 16.855 17.316 0.409 o
-9 1 10 1.157 1.193 0.054 o
-9 1 11 6.519 6.478 0.162 o
-9 1 13 0.318 0.346 0.035 o
-9 1 14 13.092 13.824 0.327 o
-9 1 15 0.537 0.500 0.045 o
-9 1 16 2.448 2.520 0.087 o
-9 1 17 34.725 36.169 0.856 o
-9 1 18 6.477 6.910 0.178 o
-9 1 19 2.628 2.772 0.093 o
-9 1 20 4.006 4.267 0.159 o
-9 1 21 6.492 6.636 0.192 o
-9 1 23 2.048 1.921 0.154 o
-9 2 1 4.554 4.594 0.132 o
-9 2 3 0.687 0.600 0.041 o
-9 2 4 0.330 0.335 0.035 o
-9 2 5 5.898 5.649 0.156 o
-9 2 6 32.652 32.948 0.880 o
-9 2 7 9.823 9.908 0.263 o
-9 2 8 53.427 54.835 1.272 o
-9 2 9 1.309 1.328 0.066 o
-9 2 10 5.070 4.966 0.137 o
-9 2 12 3.057 3.133 0.091 o
-9 2 13 30.480 30.882 0.711 o
-9 2 14 4.623 4.550 0.127 o
-9 2 15 0.471 0.382 0.043 o
-9 2 16 9.433 9.632 0.238 o
-9 2 17 8.007 8.468 0.214 o
-9 2 18 13.776 13.779 0.373 o
-9 2 19 3.695 3.609 0.149 o
-9 2 20 0.408 0.333 0.047 o
-9 2 21 6.880 6.596 0.173 o
-9 2 22 2.696 2.759 0.112 o
-9 2 23 7.279 7.225 0.253 o
-9 3 1 2.466 2.357 0.092 o
-9 3 2 79.933 79.555 2.024 o
-9 3 3 12.125 12.480 0.388 o
-9 3 4 20.515 20.092 0.502 o
-9 3 6 1.003 0.996 0.051 o
-9 3 7 18.906 19.019 0.498 o
-9 3 8 6.267 6.139 0.158 o
-9 3 9 1.353 1.387 0.065 o
-9 3 10 4.793 4.682 0.135 o
-9 3 11 1.165 1.107 0.064 o
-9 3 12 39.494 40.657 0.956 o
-9 3 13 6.493 6.884 0.204 o
-9 3 14 5.774 6.103 0.167 o
-9 3 15 2.351 2.615 0.141 o
-9 3 16 2.898 2.899 0.116 o
-9 3 18 2.588 2.606 0.104 o
-9 3 21 0.415 0.644 0.071 o
-9 3 22 2.307 2.159 0.180 o
-9 4 1 11.013 11.280 0.345 o
-9 4 2 3.691 3.662 0.149 o
-9 4 3 19.632 20.093 0.655 o
-9 4 4 0.260 0.196 0.042 o
-9 4 6 7.435 7.325 0.326 o
-9 4 7 0.871 0.848 0.057 o
-9 4 8 4.118 4.001 0.119 o
-9 4 9 1.519 1.427 0.071 o
-9 4 10 0.549 0.560 0.059 o
-9 4 11 5.186 5.578 0.172 o
-9 4 12 5.549 5.727 0.176 o
-9 4 13 6.863 6.786 0.187 o
-9 4 14 0.269 0.280 0.061 o
-9 4 19 0.572 0.641 0.101 o
-9 4 20 5.303 5.139 0.215 o
-9 5 1 1.453 1.378 0.087 o
-9 5 6 0.752 0.678 0.055 o
-9 5 8 0.519 0.482 0.070 o
-9 5 9 3.390 3.414 0.150 o
-9 5 10 0.817 0.778 0.163 o
-9 5 12 2.930 2.511 0.549 o
-9 5 13 0.254 0.238 0.072 o
-9 5 15 2.198 2.164 0.167 o
-9 5 16 7.909 6.772 0.227 o
-9 6 1 1.514 1.534 0.402 o
-9 6 2 0.301 0.233 0.066 o
-9 6 3 3.704 3.945 0.171 o
-9 6 4 0.289 0.337 0.106 o
-9 6 5 3.230 3.354 0.167 o
-9 6 6 0.653 0.795 0.132 o
-9 6 10 0.915 0.823 0.130 o
-8 0 2 3.515 3.418 0.145 o
-8 0 4 4.108 4.033 0.136 o
-8 0 8 49.062 48.455 1.150 o
-8 0 10 7.073 6.522 0.170 o
-8 0 12 3.052 3.073 0.099 o
-8 0 14 44.133 43.790 1.294 o
-8 0 16 12.010 12.347 0.444 o
-8 0 18 2.345 2.442 0.168 o
-8 0 20 39.821 41.859 1.197 o
-8 0 22 0.285 0.413 0.086 o
-8 1 1 28.303 27.246 0.737 o
-8 1 3 18.064 18.022 0.490 o
-8 1 4 28.690 28.633 0.740 o
-8 1 5 21.818 22.021 0.519 o
-8 1 6 1.529 1.559 0.063 o
-8 1 7 54.203 54.200 1.258 o
-8 1 8 5.741 5.700 0.142 o
-8 1 9 13.499 13.551 0.333 o
-8 1 10 36.086 36.029 0.841 o
-8 1 11 1.632 1.565 0.062 o
-8 1 12 1.915 1.817 0.064 o
-8 1 14 0.496 0.462 0.043 o
-8 1 15 15.596 16.347 0.385 o
-8 1 16 8.541 8.962 0.222 o
-8 1 17 6.736 7.065 0.181 o
-8 1 18 10.067 10.326 0.258 o
-8 1 20 1.029 1.057 0.067 o
-8 1 21 4.014 3.932 0.121 o
-8 1 23 1.010 0.873 0.073 o
-8 1 24 8.421 8.368 0.541 o
-8 2 1 37.615 38.168 1.038 o
-8 2 2 15.707 15.552 0.431 o
-8 2 3 6.699 6.461 0.160 o
-8 2 4 15.769 15.248 0.408 o
-8 2 5 32.447 32.486 0.757 o
-8 2 6 55.215 55.294 1.314 o
-8 2 7 6.247 6.160 0.158 o
-8 2 8 6.471 6.461 0.160 o
-8 2 9 1.353 1.265 0.053 o
-8 2 10 10.783 10.801 0.259 o
-8 2 11 19.443 19.383 0.464 o
-8 2 12 7.847 7.990 0.197 o
-8 2 13 2.062 2.142 0.077 o
-8 2 14 10.978 11.574 0.280 o
-8 2 15 0.139 0.150 0.038 o
-8 2 16 36.014 36.676 0.852 o
-8 2 17 2.039 2.229 0.082 o
-8 2 18 13.345 13.513 0.324 o
-8 2 19 3.531 3.657 0.115 o
-8 2 20 0.459 0.416 0.050 o
-8 2 23 2.809 2.698 0.098 o
-8 3 1 0.236 0.230 0.031 o
-8 3 2 7.889 7.947 0.218 o
-8 3 3 6.636 6.751 0.169 o
-8 3 5 0.922 0.890 0.048 o
-8 3 6 32.273 31.921 0.736 o
-8 3 7 10.347 10.374 0.288 o
-8 3 8 21.676 21.077 0.567 o
-8 3 9 5.208 5.146 0.137 o
-8 3 10 8.983 9.543 0.236 o
-8 3 11 5.760 5.597 0.178 o
-8 3 12 48.841 49.645 1.147 o
-8 3 13 1.600 1.631 0.075 o
-8 3 14 1.371 1.301 0.063 o
-8 3 15 0.531 0.514 0.045 o
-8 3 16 17.024 16.981 0.470 o
-8 3 17 15.808 16.576 0.399 o
-8 3 19 1.013 1.098 0.072 o
-8 3 20 7.494 7.608 0.311 o
-8 3 22 22.662 22.346 0.815 o
-8 3 23 2.712 2.860 0.187 o
-8 4 1 20.416 20.692 0.559 o
-8 4 2 19.065 18.717 0.632 o
-8 4 3 15.207 15.089 0.424 o
-8 4 4 10.597 10.498 0.296 o
-8 4 5 2.894 2.840 0.098 o
-8 4 6 4.576 4.531 0.127 o
-8 4 7 2.799 2.804 0.089 o
-8 4 8 4.105 4.085 0.117 o
-8 4 10 0.338 0.342 0.046 o
-8 4 11 21.714 22.558 0.588 o
-8 4 12 16.638 17.065 0.406 o
-8 4 13 10.433 10.823 0.321 o
-8 4 15 2.731 2.818 0.108 o
-8 4 16 2.505 2.560 0.170 o
-8 4 18 4.696 4.474 0.233 o
-8 4 20 0.307 0.254 0.076 o
-8 4 21 6.697 6.143 0.236 o
-8 5 1 4.664 4.427 0.127 o
-8 5 2 25.243 23.614 1.579 o
-8 5 5 1.282 1.219 0.069 o
-8 5 6 0.467 0.440 0.052 o
-8 5 7 4.580 4.367 0.199 o
-8 5 8 7.341 7.269 0.219 o
-8 5 10 2.166 2.237 0.110 o
-8 5 12 0.851 0.684 0.065 o
-8 5 14 0.514 0.388 0.079 o
-8 5 15 0.628 0.444 0.060 o
-8 6 1 0.299 0.261 0.052 o
-8 6 2 0.586 0.444 0.093 o
-8 6 3 0.295 0.408 0.076 o
-8 6 4 0.629 0.711 0.082 o
-8 6 6 0.360 0.328 0.062 o
-8 6 7 1.097 1.283 0.109 o
-8 6 8 0.440 0.313 0.078 o
-8 6 9 0.274 0.310 0.086 o
-8 6 11 0.620 0.824 0.114 o
-7 0 2 13.664 13.249 0.384 o
-7 0 4 39.094 38.499 0.968 o
-7 0 6 250.734 250.397 6.720 o
-7 0 8 0.225 0.257 0.046 o
-7 0 10 1.440 1.295 0.070 o
-7 0 12 5.827 5.497 0.154 o
-7 0 14 10.381 12.075 0.320 o
-7 0 16 7.095 7.451 0.207 o
-7 0 18 7.454 7.658 0.219 o
-7 0 20 0.599 0.467 0.059 o
-7 0 22 0.492 0.437 0.061 o
-7 0 24 7.416 7.547 0.275 o
-7 1 1 17.321 17.699 0.492 o
-7 1 2 84.948 84.429 2.346 o
-7 1 3 3.644 3.648 0.114 o
-7 1 4 0.358 0.379 0.033 o
-7 1 5 2.221 2.183 0.076 o
-7 1 6 19.177 18.687 0.437 o
-7 1 7 52.514 51.676 1.209 o
-7 1 9 10.710 10.185 0.242 o
-7 1 10 29.100 28.896 0.678 o
-7 1 11 46.495 46.532 1.093 o
-7 1 12 2.737 2.840 0.085 o
-7 1 13 10.233 9.333 0.226 o
-7 1 14 15.230 15.392 0.366 o
-7 1 15 13.438 13.666 0.340 o
-7 1 16 5.616 5.858 0.164 o
-7 1 17 22.320 22.895 0.531 o
-7 1 18 0.202 0.166 0.039 o
-7 1 19 26.095 26.106 0.616 o
-7 1 20 4.274 4.624 0.137 o
-7 1 21 2.906 3.132 0.106 o
-7 1 22 1.357 1.226 0.073 o
-7 1 23 0.935 1.123 0.068 o
-7 1 24 0.726 0.691 0.054 o
-7 1 25 7.412 6.581 0.201 o
-7 2 2 0.305 0.349 0.028 o
-7 2 3 22.490 21.682 0.640 o
-7 2 4 3.298 3.232 0.092 o
-7 2 5 9.709 9.595 0.236 o
-7 2 6 2.184 2.113 0.069 o
-7 2 7 19.140 18.698 0.430 o
-7 2 8 16.595 16.764 0.391 o
-7 2 9 17.666 16.715 0.390 o
-7 2 10 78.111 77.495 1.799 o
-7 2 11 22.487 21.990 0.505 o
-7 2 12 7.380 7.733 0.190 o
-7 2 13 5.251 5.189 0.138 o
-7 2 14 3.457 3.670 0.105 o
-7 2 15 41.093 41.035 1.033 o
-7 2 16 12.115 12.640 0.302 o
-7 2 17 2.061 2.065 0.079 o
-7 2 18 4.644 4.619 0.135 o
-7 2 19 0.257 0.267 0.048 o
-7 2 20 22.269 22.823 0.767 o
-7 2 21 11.830 11.775 0.420 o
-7 2 22 4.386 4.230 0.156 o
-7 2 23 3.692 3.589 0.124 o
-7 2 24 4.630 4.535 0.134 o
-7 2 25 2.466 2.356 0.150 o
-7 3 1 1.951 1.945 0.066 o
-7 3 2 1.761 1.820 0.064 o
-7 3 3 1.936 1.913 0.066 o
-7 3 4 73.642 74.295 1.747 o
-7 3 5 33.465 34.172 0.805 o
-7 3 6 15.548 15.659 0.372 o
-7 3 9 9.355 9.460 0.229 o
-7 3 10 11.038 10.972 0.260 o
-7 3 11 0.241 0.231 0.029 o
-7 3 12 1.023 1.013 0.049 o
-7 3 13 7.467 7.616 0.191 o
-7 3 14 22.138 22.701 0.523 o
-7 3 15 4.745 4.854 0.174 o
-7 3 16 21.692 22.333 0.525 o
-7 3 17 0.204 0.208 0.042 o
-7 3 18 9.668 9.860 0.249 o
-7 3 20 2.493 2.592 0.092 o
-7 3 21 2.603 2.778 0.115 o
-7 3 22 2.711 2.606 0.095 o
-7 3 24 2.313 2.060 0.182 o
-7 4 1 20.041 19.806 0.465 o
-7 4 2 6.226 6.444 0.171 o
-7 4 3 0.576 0.676 0.040 o
-7 4 4 2.109 2.127 0.073 o
-7 4 5 22.140 22.080 0.589 o
-7 4 6 4.225 4.159 0.117 o
-7 4 7 4.597 4.409 0.133 o
-7 4 8 25.188 25.172 0.589 o
-7 4 9 5.256 5.415 0.145 o
-7 4 10 0.228 0.271 0.038 o
-7 4 11 13.557 13.939 0.339 o
-7 4 12 3.452 3.438 0.109 o
-7 4 14 3.091 3.152 0.106 o
-7 4 15 12.066 12.248 0.302 o
-7 4 16 9.312 9.786 0.245 o
-7 4 17 3.543 3.727 0.115 o
-7 4 19 0.685 0.648 0.053 o
-7 4 21 7.498 7.653 0.199 o
-7 4 22 9.213 8.441 0.275 o
-7 5 1 3.802 3.883 0.133 o
-7 5 2 18.423 18.994 0.533 o
-7 5 3 3.464 3.353 0.101 o
-7 5 4 1.679 1.743 0.074 o
-7 5 5 0.953 0.918 0.055 o
-7 5 6 7.354 7.675 0.199 o
-7 5 7 0.566 0.517 0.047 o
-7 5 10 5.168 5.273 0.151 o
-7 5 11 9.071 9.216 0.292 o
-7 5 12 23.545 24.822 0.599 o
-7 5 13 0.135 0.144 0.046 o
-7 5 14 1.099 1.060 0.070 o
-7 5 17 2.392 2.289 0.098 o
-7 5 18 3.440 3.184 0.824 o
-7 5 19 0.529 0.547 0.124 o
-7 6 1 15.200 15.525 0.406 o
-7 6 2 2.917 3.038 0.102 o
-7 6 4 0.615 0.595 0.049 o
-7 6 5 1.102 1.104 0.067 o
-7 6 6 5.763 5.938 0.179 o
-7 6 7 2.303 2.193 0.093 o
-7 6 8 4.026 3.987 0.204 o
-7 6 9 1.966 2.029 0.127 o
-7 6 10 0.374 0.376 0.063 o
-7 6 11 1.697 1.654 0.098 o
-7 6 13 0.451 0.338 0.102 o
-7 7 4 0.632 0.691 0.109 o
-7 7 5 2.082 1.977 0.144 o
-7 7 6 0.750 0.896 0.134 o
-6 0 2 177.099 184.802 5.209 o
-6 0 4 2.956 2.766 0.135 o
-6 0 6 168.012 166.606 5.540 o
-6 0 8 1.124 1.132 0.122 o
-6 0 10 296.536 299.511 8.404 o
-6 0 12 0.099 2.936 0.170 o
-6 0 14 25.648 26.360 0.630 o
-6 0 16 131.218 132.091 3.552 o
-6 0 18 15.295 15.480 0.379 o
-6 0 20 9.865 10.024 0.274 o
-6 0 22 2.562 2.754 0.120 o
-6 0 24 12.274 12.138 0.458 o
-6 0 26 4.444 4.472 0.207 o
-6 1 1 1.345 1.324 0.071 o
-6 1 2 6.629 6.633 0.181 o
-6 1 3 1.132 1.175 0.058 o
-6 1 4 31.152 32.049 0.754 o
-6 1 5 95.309 97.102 2.408 o
-6 1 6 152.770 154.623 4.270 o
-6 1 7 2.692 2.834 0.097 o
-6 1 8 2.763 2.969 0.099 o
-6 1 9 44.229 44.695 1.036 o
-6 1 10 51.812 50.607 1.233 o
-6 1 11 3.800 4.130 0.109 o
-6 1 12 43.384 42.499 0.976 o
-6 1 13 4.885 5.099 0.132 o
-6 1 14 22.759 22.493 0.520 o
-6 1 15 3.586 3.589 0.100 o
-6 1 16 0.617 0.617 0.040 o
-6 1 17 1.088 1.101 0.058 o
-6 1 18 0.662 0.646 0.044 o
-6 1 19 11.681 11.735 0.342 o
-6 1 20 27.023 28.341 0.664 o
-6 1 21 12.669 12.856 0.312 o
-6 1 22 1.356 1.425 0.079 o
-6 1 23 2.051 2.165 0.103 o
-6 1 24 0.252 0.270 0.049 o
-6 1 25 1.267 1.299 0.078 o
-6 1 26 1.437 1.398 0.154 o
-6 2 1 69.531 70.506 1.705 o
-6 2 2 38.375 39.715 0.925 o
-6 2 3 59.523 60.336 1.421 o
-6 2 4 5.345 5.421 0.144 o
-6 2 5 4.288 4.339 0.116 o
-6 2 6 1.045 1.087 0.056 o
-6 2 7 0.194 0.182 0.028 o
-6 2 8 13.354 13.156 0.306 o
-6 2 9 31.926 31.525 0.716 o
-6 2 10 9.902 9.839 0.230 o
-6 2 11 0.232 0.222 0.024 o
-6 2 12 9.343 8.812 0.212 o
-6 2 13 0.179 0.224 0.029 o
-6 2 14 6.468 6.292 0.155 o
-6 2 15 2.737 2.737 0.081 o
-6 2 16 0.309 0.300 0.033 o
-6 2 17 9.283 9.602 0.229 o
-6 2 18 18.975 19.284 0.452 o
-6 2 19 2.567 2.537 0.088 o
-6 2 20 20.295 20.926 0.491 o
-6 2 21 1.599 1.511 0.083 o
-6 2 22 0.149 0.153 0.050 o
-6 2 23 0.545 0.589 0.057 o
-6 2 24 0.182 0.270 0.049 o
-6 2 25 11.960 11.711 0.429 o
-6 3 1 12.417 12.373 0.317 o
-6 3 2 11.493 11.288 0.271 o
-6 3 3 1.312 1.521 0.056 o
-6 3 4 4.237 4.299 0.124 o
-6 3 5 0.633 0.618 0.032 o
-6 3 6 6.180 6.571 0.227 o
-6 3 7 7.335 7.148 0.202 o
-6 3 8 39.996 38.945 0.913 o
-6 3 9 32.033 30.930 0.774 o
-6 3 10 0.554 0.479 0.031 o
-6 3 11 4.072 4.167 0.109 o
-6 3 12 0.446 0.643 0.045 o
-6 3 13 6.501 6.376 0.193 o
-6 3 14 54.498 55.597 1.289 o
-6 3 15 12.461 12.726 0.317 o
-6 3 16 1.802 1.760 0.073 o
-6 3 17 0.682 0.645 0.047 o
-6 3 18 8.337 8.216 0.204 o
-6 3 19 14.846 15.626 0.366 o
-6 3 20 0.977 0.872 0.052 o
-6 3 21 0.382 0.421 0.044 o
-6 3 22 4.650 4.562 0.160 o
-6 3 23 0.953 0.802 0.066 o
-6 3 24 17.573 17.683 1.253 o
-6 4 1 7.371 7.763 0.194 o
-6 4 3 7.057 6.727 0.168 o
-6 4 4 41.173 40.434 0.965 o
-6 4 5 37.572 37.729 0.876 o
-6 4 6 1.841 1.867 0.070 o
-6 4 8 6.638 6.825 0.176 o
-6 4 9 0.105 0.148 0.036 o
-6 4 10 1.833 1.799 0.071 o
-6 4 11 6.351 6.628 0.176 o
-6 4 12 11.208 11.267 0.275 o
-6 4 13 13.467 13.626 0.374 o
-6 4 14 13.422 13.572 0.326 o
-6 4 15 21.807 22.005 0.526 o
-6 4 16 0.505 0.565 0.046 o
-6 4 18 6.278 6.195 0.185 o
-6 4 19 0.967 0.885 0.058 o
-6 4 21 1.302 1.271 0.095 o
-6 4 23 3.371 2.957 0.201 o
-6 5 2 0.639 0.719 0.040 o
-6 5 3 1.184 1.126 0.056 o
-6 5 4 34.987 35.380 1.047 o
-6 5 6 6.546 6.487 0.190 o
-6 5 7 2.632 2.599 0.086 o
-6 5 8 15.367 15.644 0.409 o
-6 5 9 1.364 1.384 0.076 o
-6 5 10 14.276 14.490 0.357 o
-6 5 11 0.523 0.481 0.054 o
-6 5 12 0.237 0.214 0.039 o
-6 5 13 0.571 0.507 0.043 o
-6 5 14 2.229 2.290 0.084 o
-6 5 15 1.418 1.473 0.073 o
-6 5 16 7.477 7.868 0.234 o
-6 5 17 0.252 0.227 0.042 o
-6 5 18 1.408 1.413 0.069 o
-6 5 19 0.188 0.191 0.058 o
-6 5 20 2.360 2.514 0.118 o
-6 6 1 1.692 1.776 0.074 o
-6 6 2 4.086 4.227 0.128 o
-6 6 3 0.366 0.438 0.045 o
-6 6 4 2.845 2.969 0.100 o
-6 6 5 8.689 9.054 0.275 o
-6 6 6 0.916 1.232 0.073 o
-6 6 7 0.758 0.672 0.052 o
-6 6 8 0.431 0.381 0.042 o
-6 6 10 4.914 5.065 0.162 o
-6 6 11 9.543 9.900 0.272 o
-6 6 12 4.122 4.365 0.150 o
-6 6 13 0.683 0.662 0.198 o
-6 6 14 0.776 0.620 0.133 o
-6 6 15 3.370 3.677 0.164 o
-6 6 16 1.978 2.303 0.137 o
-6 7 1 5.433 5.615 0.203 o
-6 7 5 0.415 0.400 0.106 o
-6 7 6 1.211 1.004 0.137 o
-6 7 7 2.467 2.497 0.161 o
-6 7 9 2.368 2.335 0.153 o
-5 0 2 91.052 92.192 2.497 o
-5 0 4 18.477 18.148 0.497 o
-5 0 6 116.537 119.739 3.713 o
-5 0 8 286.721 301.254 8.825 o
-5 0 10 102.128 109.563 3.168 o
-5 0 12 45.373 45.911 1.115 o
-5 0 14 0.700 0.586 0.056 o
-5 0 18 26.685 26.519 0.790 o
-5 0 20 98.773 102.975 2.668 o
-5 0 22 0.195 0.180 0.057 o
-5 0 24 0.541 0.392 0.076 o
-5 0 26 13.362 12.746 0.362 o
-5 1 1 55.798 56.092 1.404 o
-5 1 2 250.910 250.097 6.325 o
-5 1 3 50.781 51.092 1.212 o
-5 1 4 93.826 94.755 2.349 o
-5 1 5 31.346 30.724 0.735 o
-5 1 6 3.935 4.105 0.128 o
-5 1 7 1.018 0.990 0.054 o
-5 1 8 17.767 16.694 0.411 o
-5 1 9 276.771 270.211 6.853 o
-5 1 10 26.433 26.222 0.613 o
-5 1 11 0.338 0.127 0.031 o
-5 1 12 24.457 24.697 0.570 o
-5 1 13 9.655 8.953 0.209 o
-5 1 14 26.394 26.919 0.616 o
-5 1 15 41.437 40.802 0.934 o
-5 1 16 55.191 55.674 1.279 o
-5 1 17 16.244 16.331 0.387 o
-5 1 18 0.519 0.580 0.039 o
-5 1 19 41.201 41.312 1.071 o
-5 1 20 0.575 0.550 0.045 o
-5 1 21 0.945 1.029 0.066 o
-5 1 22 1.373 1.453 0.083 o
-5 1 23 0.239 0.223 0.051 o
-5 1 24 15.628 14.630 0.357 o
-5 1 25 1.021 1.047 0.073 o
-5 1 26 2.759 2.750 0.121 o
-5 2 1 8.891 9.135 0.223 o
-5 2 2 0.547 0.560 0.038 o
-5 2 3 4.280 4.280 0.114 o
-5 2 4 28.023 27.954 0.672 o
-5 2 5 177.416 175.076 4.436 o
-5 2 6 80.886 78.268 1.872 o
-5 2 7 21.512 20.847 0.510 o
-5 2 8 2.007 1.899 0.075 o
-5 2 9 0.131 0.134 0.030 o
-5 2 11 41.631 40.294 0.918 o
-5 2 12 24.801 23.820 0.543 o
-5 2 13 74.562 73.662 1.702 o
-5 2 14 0.745 0.745 0.039 o
-5 2 15 12.351 12.285 0.289 o
-5 2 16 3.339 3.315 0.093 o
-5 2 17 7.734 7.736 0.205 o
-5 2 18 4.858 5.025 0.133 o
-5 2 19 11.142 11.208 0.274 o
-5 2 21 0.208 0.175 0.042 o
-5 2 22 9.473 9.590 0.258 o
-5 2 23 7.365 7.381 0.289 o
-5 2 24 1.567 1.589 0.080 o
-5 3 1 19.486 19.149 0.448 o
-5 3 3 6.004 5.983 0.154 o
-5 3 4 11.233 11.204 0.273 o
-5 3 5 3.596 3.588 0.098 o
-5 3 6 4.569 4.586 0.128 o
-5 3 7 15.636 15.177 0.364 o
-5 3 8 2.262 2.331 0.070 o
-5 3 10 6.362 6.224 0.155 o
-5 3 11 0.515 0.529 0.032 o
-5 3 12 0.719 0.685 0.041 o
-5 3 14 0.814 0.821 0.047 o
-5 3 15 2.331 2.296 0.081 o
-5 3 17 0.099 0.125 0.036 o
-5 3 18 12.461 12.568 0.300 o
-5 3 19 5.913 6.004 0.154 o
-5 3 20 0.274 0.217 0.039 o
-5 3 21 0.829 0.805 0.048 o
-5 3 23 3.605 3.957 0.129 o
-5 3 24 8.781 8.675 0.355 o
-5 3 25 0.901 0.493 0.133 o
-5 4 1 3.114 2.985 0.092 o
-5 4 3 22.719 23.305 0.581 o
-5 4 4 22.619 22.811 0.594 o
-5 4 5 13.463 13.499 0.322 o
-5 4 7 1.127 1.105 0.052 o
-5 4 8 24.711 24.638 0.563 o
-5 4 10 22.799 22.431 0.550 o
-5 4 11 0.343 0.361 0.040 o
-5 4 12 1.954 1.959 0.073 o
-5 4 13 14.458 14.600 0.399 o
-5 4 14 7.144 7.095 0.196 o
-5 4 15 13.019 13.358 0.320 o
-5 4 17 2.396 2.384 0.085 o
-5 4 18 16.052 16.224 0.382 o
-5 4 19 0.444 0.488 0.045 o
-5 4 21 0.187 0.187 0.045 o
-5 4 22 2.506 2.576 0.101 o
-5 4 23 9.047 8.928 0.239 o
-5 5 1 2.591 2.441 0.088 o
-5 5 2 4.022 3.853 0.114 o
-5 5 3 3.152 3.168 0.100 o
-5 5 4 61.833 60.983 1.445 o
-5 5 5 0.227 0.337 0.035 o
-5 5 6 8.428 8.257 0.213 o
-5 5 7 2.457 2.358 0.084 o
-5 5 8 5.775 5.923 0.167 o
-5 5 9 2.755 2.844 0.095 o
-5 5 10 3.353 3.373 0.125 o
-5 5 12 11.106 11.542 0.276 o
-5 5 13 4.223 4.169 0.133 o
-5 5 14 46.747 47.647 1.383 o
-5 5 16 0.735 0.667 0.050 o
-5 5 17 0.538 0.474 0.051 o
-5 5 18 1.381 1.449 0.077 o
-5 5 19 1.047 1.008 0.084 o
-5 5 20 2.579 2.903 0.142 o
-5 6 2 0.335 0.368 0.043 o
-5 6 3 18.457 18.214 0.436 o
-5 6 4 2.697 2.687 0.094 o
-5 6 5 1.376 1.268 0.066 o
-5 6 6 0.867 0.803 0.049 o
-5 6 7 1.682 1.604 0.074 o
-5 6 8 10.875 11.205 0.285 o
-5 6 9 2.373 2.262 0.092 o
-5 6 10 9.006 9.008 0.254 o
-5 6 11 0.685 0.622 0.053 o
-5 6 13 1.457 1.470 0.087 o
-5 6 15 3.853 4.061 0.132 o
-5 6 16 0.223 0.270 0.065 o
-5 6 17 0.785 0.714 0.122 o
-5 7 2 0.877 0.834 0.063 o
-5 7 3 0.550 0.506 0.051 o
-5 7 4 0.362 0.346 0.055 o
-5 7 7 2.191 2.067 0.102 o
-5 7 9 2.079 2.008 0.156 o
-5 7 10 1.926 2.072 0.154 o
-5 7 11 2.466 2.577 0.160 o
-4 0 4 121.460 129.138 3.975 o
-4 0 6 50.745 48.266 2.270 o
-4 0 8 600.901 491.177 122.364 o
-4 0 10 1.987 1.831 0.137 o
-4 0 12 251.418 258.820 8.172 o
-4 0 14 2.217 1.845 0.094 o
-4 0 16 56.849 58.008 1.380 o
-4 0 18 134.502 135.860 3.498 o
-4 0 22 1.338 1.137 0.086 o
-4 0 24 1.855 1.721 0.171 o
-4 0 26 11.296 9.951 0.294 o
-4 1 1 94.932 92.178 2.215 o
-4 1 2 56.968 56.503 1.343 o
-4 1 3 1.491 1.563 0.066 o
-4 1 4 34.028 33.111 0.790 o
-4 1 6 179.008 180.531 4.631 o
-4 1 7 88.396 90.089 2.281 o
-4 1 8 179.607 180.040 4.599 o
-4 1 9 46.894 48.308 1.200 o
-4 1 11 1.842 1.952 0.083 o
-4 1 12 84.867 82.646 2.003 o
-4 1 13 16.158 15.542 0.375 o
-4 1 14 17.081 16.893 0.386 o
-4 1 15 0.128 0.119 0.025 o
-4 1 16 22.336 22.061 0.506 o
-4 1 17 4.632 4.641 0.118 o
-4 1 18 1.049 0.973 0.046 o
-4 1 19 53.328 54.615 1.258 o
-4 1 20 11.890 12.019 0.284 o
-4 1 21 1.525 1.493 0.069 o
-4 1 22 21.842 21.660 0.617 o
-4 1 23 9.225 9.130 0.230 o
-4 1 24 2.692 2.543 0.093 o
-4 1 25 4.318 4.142 0.129 o
-4 1 26 2.349 2.302 0.083 o
-4 1 27 5.996 5.189 0.195 o
-4 2 1 53.569 53.397 1.296 o
-4 2 2 12.732 12.635 0.308 o
-4 2 3 79.427 77.106 1.865 o
-4 2 4 62.277 60.179 1.501 o
-4 2 5 5.921 5.848 0.172 o
-4 2 6 5.657 5.754 0.157 o
-4 2 7 6.561 6.798 0.186 o
-4 2 8 84.008 83.734 2.026 o
-4 2 9 14.679 14.195 0.340 o
-4 2 10 30.673 30.939 0.728 o
-4 2 11 7.576 7.576 0.186 o
-4 2 12 0.662 0.738 0.038 o
-4 2 13 3.401 3.389 0.102 o
-4 2 14 22.895 22.881 0.529 o
-4 2 15 35.557 35.790 0.832 o
-4 2 16 10.339 10.324 0.244 o
-4 2 17 7.414 7.488 0.182 o
-4 2 18 7.950 7.976 0.197 o
-4 2 19 6.102 6.312 0.158 o
-4 2 20 0.105 0.136 0.035 o
-4 2 21 4.369 4.503 0.123 o
-4 2 22 3.804 4.017 0.114 o
-4 2 23 18.495 18.090 0.503 o
-4 2 24 2.400 2.244 0.093 o
-4 2 25 3.166 3.136 0.103 o
-4 2 26 1.158 0.969 0.092 o
-4 3 1 4.940 4.866 0.126 o
-4 3 2 13.270 13.364 0.313 o
-4 3 3 21.948 22.092 0.509 o
-4 3 4 237.391 237.083 5.902 o
-4 3 5 28.677 27.710 0.658 o
-4 3 6 8.200 8.042 0.198 o
-4 3 7 5.261 5.333 0.135 o
-4 3 8 0.217 0.207 0.030 o
-4 3 9 36.137 35.317 0.879 o
-4 3 10 64.049 63.308 1.461 o
-4 3 11 21.039 20.613 0.472 o
-4 3 12 12.276 12.351 0.301 o
-4 3 13 1.124 1.148 0.055 o
-4 3 14 31.966 32.161 0.768 o
-4 3 15 5.830 5.687 0.143 o
-4 3 16 3.925 3.994 0.108 o
-4 3 17 14.354 14.521 0.340 o
-4 3 18 2.508 2.548 0.079 o
-4 3 20 5.971 5.802 0.152 o
-4 3 21 1.515 1.532 0.069 o
-4 3 22 1.170 1.048 0.052 o
-4 3 23 0.423 0.334 0.038 o
-4 3 25 0.765 0.415 0.115 o
-4 4 1 0.138 0.154 0.029 o
-4 4 2 4.674 4.793 0.132 o
-4 4 3 58.072 59.088 1.377 o
-4 4 4 0.761 0.925 0.050 o
-4 4 5 11.038 10.760 0.267 o
-4 4 6 27.769 27.910 0.646 o
-4 4 7 9.217 9.053 0.231 o
-4 4 8 4.340 4.282 0.110 o
-4 4 9 2.167 2.114 0.068 o
-4 4 10 2.825 2.839 0.085 o
-4 4 11 0.111 0.124 0.033 o
-4 4 12 0.302 0.360 0.039 o
-4 4 13 27.499 27.779 0.726 o
-4 4 14 21.980 21.950 0.512 o
-4 4 15 0.823 0.818 0.046 o
-4 4 16 1.799 1.805 0.073 o
-4 4 17 4.542 4.573 0.138 o
-4 4 18 2.095 2.238 0.077 o
-4 4 20 4.362 4.358 0.120 o
-4 4 21 0.272 0.247 0.048 o
-4 4 22 2.691 3.049 0.152 o
-4 4 23 5.251 5.269 0.354 o
-4 5 2 21.157 21.172 0.577 o
-4 5 3 2.131 2.270 0.078 o
-4 5 4 0.560 0.496 0.038 o
-4 5 6 5.056 5.088 0.138 o
-4 5 8 7.769 7.771 0.193 o
-4 5 9 0.212 0.191 0.033 o
-4 5 10 11.814 12.150 0.290 o
-4 5 11 1.314 1.232 0.060 o
-4 5 12 7.375 7.390 0.195 o
-4 5 13 0.560 0.551 0.045 o
-4 5 14 12.851 13.246 0.316 o
-4 5 15 0.231 0.204 0.042 o
-4 5 17 1.697 1.730 0.077 o
-4 5 18 11.454 11.911 0.301 o
-4 5 19 0.434 0.398 0.048 o
-4 5 20 0.277 0.202 0.062 o
-4 6 1 0.100 0.141 0.041 o
-4 6 2 4.574 4.550 0.131 o
-4 6 3 12.448 12.596 0.304 o
-4 6 4 3.332 3.409 0.108 o
-4 6 5 5.431 5.271 0.190 o
-4 6 6 1.564 1.479 0.069 o
-4 6 7 8.880 8.840 0.224 o
-4 6 8 1.333 1.232 0.070 o
-4 6 10 0.217 0.188 0.041 o
-4 6 11 0.535 0.584 0.052 o
-4 6 12 4.193 4.256 0.133 o
-4 6 13 19.038 18.827 0.497 o
-4 6 14 4.683 4.598 0.177 o
-4 6 16 0.974 1.208 0.098 o
-4 6 17 0.409 0.418 0.070 o
-4 6 18 3.862 3.915 0.169 o
-4 7 2 4.380 4.383 0.126 o
-4 7 3 4.669 4.496 0.132 o
-4 7 4 2.532 2.512 0.094 o
-4 7 6 0.815 0.806 0.054 o
-4 7 7 2.604 2.736 0.105 o
-4 7 8 1.992 1.887 0.089 o
-4 7 9 7.085 7.110 0.197 o
-4 7 11 0.753 0.761 0.114 o
-3 0 2 14.578 14.202 0.395 o
-3 0 4 92.852 89.288 3.564 o
-3 0 6 13.286 14.613 0.406 o
-3 0 8 23.383 23.744 0.845 o
-3 0 10 4.039 4.237 0.223 o
-3 0 12 151.829 156.353 5.108 o
-3 0 14 18.682 17.592 0.592 o
-3 0 16 13.980 13.486 0.326 o
-3 0 18 33.689 34.342 0.805 o
-3 0 20 9.741 9.632 0.250 o
-3 0 22 96.026 96.869 3.347 o
-3 0 24 0.051 0.648 0.087 o
-3 0 26 4.368 3.808 0.147 o
-3 1 1 339.198 317.356 11.060 o
-3 1 2 34.205 33.697 0.813 o
-3 1 3 161.686 160.031 5.188 o
-3 1 4 230.852 229.398 5.852 o
-3 1 5 220.243 218.762 5.734 o
-3 1 6 0.310 0.340 0.043 o
-3 1 7 353.742 363.930 9.728 o
-3 1 8 8.770 8.694 0.237 o
-3 1 9 62.373 64.300 1.583 o
-3 1 10 3.800 3.847 0.146 o
-3 1 11 166.696 168.031 4.511 o
-3 1 12 54.514 54.363 1.269 o
-3 1 13 0.818 0.786 0.042 o
-3 1 14 0.264 0.294 0.029 o
-3 1 15 0.090 0.121 0.024 o
-3 1 16 32.093 31.873 0.723 o
-3 1 17 60.728 60.079 1.383 o
-3 1 18 38.801 39.099 0.898 o
-3 1 19 0.289 0.327 0.038 o
-3 1 20 2.046 2.010 0.079 o
-3 1 21 8.180 8.057 0.220 o
-3 1 22 2.163 2.128 0.090 o
-3 1 23 1.941 1.971 0.088 o
-3 1 24 0.227 0.237 0.048 o
-3 1 25 1.300 1.226 0.069 o
-3 1 26 16.949 15.543 1.931 o
-3 1 27 2.293 2.122 0.109 o
-3 2 1 83.709 83.910 2.033 o
-3 2 2 177.293 174.509 4.498 o
-3 2 3 298.065 294.311 7.384 o
-3 2 4 27.614 27.159 0.657 o
-3 2 5 2.736 2.577 0.092 o
-3 2 6 137.944 138.395 3.519 o
-3 2 7 170.113 166.090 4.228 o
-3 2 8 292.553 279.306 7.423 o
-3 2 9 51.441 51.233 1.201 o
-3 2 10 11.293 11.086 0.267 o
-3 2 11 23.916 23.084 0.549 o
-3 2 12 2.081 2.039 0.065 o
-3 2 13 53.425 53.361 1.221 o
-3 2 14 0.817 0.768 0.039 o
-3 2 15 28.975 28.774 0.654 o
-3 2 16 14.807 14.762 0.341 o
-3 2 17 1.104 1.046 0.049 o
-3 2 18 43.944 44.054 1.012 o
-3 2 19 0.394 0.419 0.039 o
-3 2 20 3.418 3.505 0.103 o
-3 2 21 10.996 10.930 0.277 o
-3 2 24 2.718 2.559 0.119 o
-3 3 1 3.522 3.731 0.103 o
-3 3 2 244.702 237.815 5.884 o
-3 3 3 3.887 6.784 0.229 o
-3 3 4 45.057 44.023 1.088 o
-3 3 5 21.378 21.197 0.533 o
-3 3 6 0.093 0.225 0.025 o
-3 3 7 4.153 4.110 0.127 o
-3 3 8 18.152 18.162 0.423 o
-3 3 9 5.081 5.573 0.193 o
-3 3 10 19.961 20.158 0.478 o
-3 3 11 1.456 1.355 0.055 o
-3 3 12 42.071 41.784 1.037 o
-3 3 13 9.268 9.253 0.221 o
-3 3 14 69.707 71.018 1.649 o
-3 3 15 1.634 1.664 0.061 o
-3 3 17 1.213 1.259 0.055 o
-3 3 18 3.643 3.692 0.104 o
-3 3 19 10.221 10.505 0.251 o
-3 3 20 4.173 4.239 0.115 o
-3 3 21 6.254 6.921 0.197 o
-3 3 22 10.311 10.028 0.246 o
-3 3 24 11.126 11.257 0.270 o
-3 3 25 2.164 2.041 0.112 o
-3 4 1 19.921 19.862 0.516 o
-3 4 2 10.242 10.439 0.251 o
-3 4 3 56.579 57.190 1.325 o
-3 4 4 28.400 28.610 0.664 o
-3 4 5 0.434 0.365 0.030 o
-3 4 6 23.855 23.979 0.617 o
-3 4 7 16.186 16.138 0.372 o
-3 4 8 0.572 0.603 0.031 o
-3 4 9 0.514 0.509 0.033 o
-3 4 10 37.659 38.360 0.882 o
-3 4 11 3.731 3.929 0.115 o
-3 4 12 2.734 2.688 0.094 o
-3 4 13 31.756 32.499 0.748 o
-3 4 14 5.813 5.994 0.153 o
-3 4 16 4.060 4.086 0.113 o
-3 4 17 10.420 10.498 0.252 o
-3 4 18 4.088 4.147 0.114 o
-3 4 19 0.282 0.251 0.036 o
-3 4 20 8.991 9.009 0.237 o
-3 4 21 0.684 0.619 0.043 o
-3 4 23 7.364 7.914 0.231 o
-3 5 1 0.201 0.160 0.031 o
-3 5 2 2.473 2.476 0.080 o
-3 5 3 4.223 4.221 0.120 o
-3 5 4 9.255 9.016 0.223 o
-3 5 5 1.089 1.136 0.055 o
-3 5 6 34.967 35.423 0.816 o
-3 5 7 3.894 3.951 0.107 o
-3 5 8 0.549 0.488 0.035 o
-3 5 9 4.242 4.184 0.116 o
-3 5 10 4.225 4.358 0.122 o
-3 5 11 1.357 1.296 0.060 o
-3 5 12 12.294 12.463 0.296 o
-3 5 13 0.345 0.352 0.040 o
-3 5 14 1.569 1.757 0.078 o
-3 5 16 16.832 16.750 0.447 o
-3 5 17 0.997 0.844 0.056 o
-3 5 18 1.242 1.233 0.078 o
-3 5 20 2.463 2.447 0.109 o
-3 6 1 8.089 7.989 0.259 o
-3 6 2 1.778 1.722 0.083 o
-3 6 3 0.883 0.895 0.055 o
-3 6 4 1.128 1.192 0.084 o
-3 6 5 0.697 0.624 0.044 o
-3 6 6 0.855 0.770 0.051 o
-3 6 7 0.742 0.723 0.045 o
-3 6 9 3.919 4.025 0.131 o
-3 6 10 2.866 3.051 0.104 o
-3 6 11 0.396 0.372 0.043 o
-3 6 12 3.593 3.738 0.113 o
-3 6 13 1.773 1.812 0.077 o
-3 6 15 0.191 0.411 0.044 o
-3 6 17 6.821 7.106 0.200 o
-3 7 1 0.795 0.690 0.052 o
-3 7 2 5.216 5.133 0.154 o
-3 7 3 0.276 0.333 0.047 o
-3 7 4 4.378 4.022 0.130 o
-3 7 5 1.704 1.790 0.077 o
-3 7 6 0.780 0.684 0.051 o
-3 7 7 0.266 0.293 0.044 o
-3 7 8 0.245 0.204 0.047 o
-3 7 9 0.283 0.282 0.047 o
-3 7 11 0.427 0.425 0.054 o
-3 7 12 6.097 5.597 0.617 o
-3 7 13 4.092 3.541 0.191 o
-2 0 2 620.279 620.513 42.346 o
-2 0 6 174.801 179.684 5.535 o
-2 0 8 486.247 472.740 13.047 o
-2 0 10 191.197 195.808 7.192 o
-2 0 12 16.103 17.405 0.446 o
-2 0 14 57.912 56.526 1.352 o
-2 0 16 12.140 11.685 0.288 o
-2 0 18 4.859 4.728 0.170 o
-2 0 20 17.060 16.709 0.628 o
-2 0 22 4.548 4.629 0.173 o
-2 0 26 3.657 3.403 0.139 o
-2 1 1 179.974 190.752 5.110 o
-2 1 2 562.217 518.473 27.087 o
-2 1 3 20.827 20.163 0.518 o
-2 1 4 366.503 360.456 23.720 o
-2 1 5 20.992 21.622 0.563 o
-2 1 6 5.749 5.755 0.156 o
-2 1 7 36.101 33.529 0.907 o
-2 1 8 293.499 305.286 8.362 o
-2 1 9 23.985 24.002 0.578 o
-2 1 10 32.882 34.007 0.798 o
-2 1 11 85.573 87.968 2.189 o
-2 1 12 8.942 9.597 0.236 o
-2 1 13 33.478 32.366 0.811 o
-2 1 14 18.891 18.252 0.418 o
-2 1 15 11.862 11.621 0.318 o
-2 1 16 1.044 1.019 0.051 o
-2 1 17 30.800 30.579 0.703 o
-2 1 18 8.606 8.390 0.202 o
-2 1 19 1.714 1.854 0.071 o
-2 1 20 1.003 0.995 0.060 o
-2 1 21 58.238 58.803 1.616 o
-2 1 22 10.888 10.937 0.330 o
-2 1 24 2.192 1.998 0.094 o
-2 1 25 0.507 0.539 0.063 o
-2 1 26 1.614 1.497 0.077 o
-2 1 27 11.003 10.007 0.315 o
-2 2 1 143.720 150.894 3.857 o
-2 2 2 475.470 462.719 20.520 o
-2 2 3 9.867 9.359 0.238 o
-2 2 4 22.430 22.670 0.558 o
-2 2 5 3.242 3.295 0.100 o
-2 2 6 72.083 70.610 1.773 o
-2 2 7 34.310 33.328 0.822 o
-2 2 8 29.038 28.349 0.700 o
-2 2 9 15.869 15.977 0.386 o
-2 2 10 91.503 87.969 2.166 o
-2 2 11 14.155 14.008 0.367 o
-2 2 12 111.407 109.164 2.687 o
-2 2 13 31.062 30.666 0.705 o
-2 2 14 13.639 13.412 0.309 o
-2 2 15 2.273 2.231 0.071 o
-2 2 16 37.784 37.873 0.864 o
-2 2 17 55.904 55.851 1.289 o
-2 2 18 27.711 28.369 0.649 o
-2 2 19 8.123 8.395 0.206 o
-2 2 20 7.033 7.282 0.188 o
-2 2 21 0.572 0.535 0.054 o
-2 2 22 9.593 9.707 0.254 o
-2 2 23 10.622 10.437 0.380 o
-2 2 24 0.500 0.467 0.083 o
-2 2 25 14.900 13.783 0.350 o
-2 2 26 7.744 6.911 0.525 o
-2 3 1 137.367 140.685 3.599 o
-2 3 2 66.840 66.601 1.633 o
-2 3 3 1.486 1.496 0.064 o
-2 3 4 9.035 9.064 0.228 o
-2 3 5 6.303 6.166 0.213 o
-2 3 6 361.837 353.140 9.090 o
-2 3 7 81.505 80.223 1.952 o
-2 3 8 25.758 24.899 0.602 o
-2 3 9 7.949 7.961 0.194 o
-2 3 10 22.382 22.154 0.540 o
-2 3 11 19.819 19.513 0.449 o
-2 3 12 84.097 84.915 2.052 o
-2 3 13 3.621 3.690 0.106 o
-2 3 14 4.970 5.012 0.127 o
-2 3 15 11.536 11.443 0.270 o
-2 3 16 32.751 32.944 0.784 o
-2 3 17 4.606 4.565 0.121 o
-2 3 18 9.305 9.290 0.234 o
-2 3 19 1.392 1.406 0.065 o
-2 3 20 15.257 15.549 0.363 o
-2 3 22 10.934 11.158 0.290 o
-2 3 23 1.211 1.054 0.077 o
-2 3 24 1.596 1.587 0.081 o
-2 4 1 16.325 15.790 0.385 o
-2 4 2 57.843 57.190 1.600 o
-2 4 3 32.707 32.382 0.745 o
-2 4 4 0.489 0.503 0.031 o
-2 4 5 33.901 33.522 0.900 o
-2 4 6 3.637 3.698 0.110 o
-2 4 7 36.773 36.431 0.858 o
-2 4 8 0.505 0.539 0.032 o
-2 4 9 0.303 0.349 0.033 o
-2 4 10 23.701 23.513 0.584 o
-2 4 11 17.747 17.858 0.414 o
-2 4 12 0.110 0.117 0.033 o
-2 4 13 10.690 10.866 0.257 o
-2 4 14 8.459 8.947 0.217 o
-2 4 15 10.084 10.286 0.273 o
-2 4 16 14.259 14.555 0.397 o
-2 4 17 10.885 11.247 0.322 o
-2 4 18 1.122 1.197 0.059 o
-2 4 19 0.267 0.216 0.040 o
-2 4 20 2.608 2.699 0.087 o
-2 4 21 2.248 2.264 0.079 o
-2 4 22 0.240 0.253 0.042 o
-2 4 23 3.335 3.325 0.106 o
-2 5 1 0.295 0.335 0.031 o
-2 5 2 15.185 15.226 0.405 o
-2 5 3 3.244 3.078 0.090 o
-2 5 4 3.338 3.325 0.102 o
-2 5 5 3.966 3.924 0.105 o
-2 5 7 0.261 0.215 0.029 o
-2 5 8 1.205 1.128 0.054 o
-2 5 9 0.962 0.921 0.046 o
-2 5 10 3.076 3.229 0.100 o
-2 5 11 0.545 0.530 0.042 o
-2 5 12 0.913 0.930 0.050 o
-2 5 13 5.660 5.544 0.150 o
-2 5 14 2.430 2.420 0.083 o
-2 5 16 12.975 13.432 0.318 o
-2 5 17 0.599 0.640 0.045 o
-2 5 19 1.487 1.454 0.073 o
-2 5 20 4.788 5.146 0.155 o
-2 5 21 1.372 1.474 0.084 o
-2 6 1 0.582 0.567 0.041 o
-2 6 3 14.987 14.807 0.360 o
-2 6 5 8.641 8.793 0.220 o
-2 6 7 3.437 3.395 0.111 o
-2 6 8 1.889 1.892 0.079 o
-2 6 9 2.880 2.706 0.098 o
-2 6 11 6.003 5.934 0.197 o
-2 6 12 0.430 0.413 0.054 o
-2 6 14 1.517 1.444 0.070 o
-2 6 15 5.624 5.551 0.166 o
-2 6 16 0.606 0.529 0.050 o
-2 7 1 5.697 6.038 0.175 o
-2 7 2 0.217 0.185 0.046 o
-2 7 3 0.203 0.223 0.046 o
-2 7 4 1.372 1.245 0.069 o
-2 7 5 0.238 0.187 0.044 o
-2 7 6 3.074 3.045 0.111 o
-2 7 7 4.297 3.716 0.319 o
-2 7 8 3.498 3.633 0.120 o
-2 7 9 0.382 0.425 0.057 o
-2 7 10 1.368 1.315 0.079 o
-2 7 11 2.949 2.851 0.132 o
-2 8 1 0.223 0.230 0.065 o
-2 8 2 1.767 1.690 0.099 o
-2 8 4 2.364 2.037 0.142 o
-1 0 4 906.786 941.722 38.451 o
-1 0 6 220.763 212.619 8.159 o
-1 0 8 514.828 557.290 42.285 o
-1 0 10 3.255 3.389 0.156 o
-1 0 12 115.511 121.578 3.486 o
-1 0 14 50.117 48.013 1.344 o
-1 0 16 22.893 22.868 0.538 o
-1 0 18 61.253 62.438 1.664 o
-1 0 20 43.670 43.188 1.551 o
-1 0 22 0.588 0.575 0.070 o
-1 0 24 21.639 20.758 1.475 o
-1 0 26 6.404 5.824 0.212 o
-1 1 2 151.879 157.902 4.132 o
-1 1 3 345.459 350.006 9.895 o
-1 1 4 247.730 250.816 6.799 o
-1 1 5 1.049 1.073 0.058 o
-1 1 6 0.550 0.524 0.042 o
-1 1 7 439.156 429.541 22.391 o
-1 1 8 96.984 96.546 2.437 o
-1 1 9 171.628 178.150 4.677 o
-1 1 11 76.451 76.719 2.022 o
-1 1 12 89.539 90.085 2.747 o
-1 1 13 5.620 5.635 0.143 o
-1 1 14 46.328 45.858 1.101 o
-1 1 15 10.597 10.659 0.267 o
-1 1 16 6.522 6.248 0.158 o
-1 1 17 1.775 1.776 0.067 o
-1 1 18 14.847 15.160 0.377 o
-1 1 19 9.933 9.739 0.247 o
-1 1 20 2.792 2.804 0.093 o
-1 1 21 13.928 13.609 0.347 o
-1 1 22 12.424 11.945 0.354 o
-1 1 23 1.668 1.673 0.091 o
-1 1 24 0.618 0.550 0.059 o
-1 1 25 1.345 1.252 0.076 o
-1 1 26 0.276 0.269 0.058 o
-1 1 27 0.933 0.815 0.082 o
-1 2 1 147.407 143.017 3.970 o
-1 2 2 8.220 8.254 0.205 o
-1 2 3 175.490 168.112 4.382 o
-1 2 4 230.858 226.232 5.905 o
-1 2 5 498.118 491.907 13.116 o
-1 2 6 18.947 18.667 0.453 o
-1 2 7 1.331 1.353 0.064 o
-1 2 8 46.612 45.576 1.511 o
-1 2 9 7.555 7.719 0.207 o
-1 2 10 187.919 184.731 4.807 o
-1 2 11 72.208 70.965 1.749 o
-1 2 12 35.194 33.561 0.777 o
-1 2 13 12.922 12.588 0.293 o
-1 2 14 1.271 1.213 0.051 o
-1 2 15 12.176 12.119 0.283 o
-1 2 18 5.617 5.394 0.140 o
-1 2 19 4.079 4.008 0.114 o
-1 2 20 48.864 49.867 1.427 o
-1 2 21 1.044 1.094 0.089 o
-1 2 22 19.015 19.198 0.707 o
-1 2 24 0.356 0.310 0.054 o
-1 2 25 0.564 0.421 0.053 o
-1 2 26 2.022 1.759 0.143 o
-1 3 1 0.129 0.191 0.043 o
-1 3 2 29.580 31.638 0.892 o
-1 3 3 13.402 13.357 0.346 o
-1 3 4 54.614 54.616 1.318 o
-1 3 5 0.728 0.736 0.053 o
-1 3 6 105.533 103.189 2.646 o
-1 3 7 1.696 1.778 0.064 o
-1 3 8 6.122 6.600 0.270 o
-1 3 9 0.996 1.105 0.059 o
-1 3 10 31.986 31.342 0.885 o
-1 3 11 42.559 41.577 1.014 o
-1 3 12 0.202 0.218 0.026 o
-1 3 13 1.219 1.133 0.050 o
-1 3 14 26.582 26.413 0.638 o
-1 3 15 5.838 5.988 0.174 o
-1 3 16 115.229 117.395 2.936 o
-1 3 17 11.617 11.986 0.347 o
-1 3 18 1.144 1.123 0.053 o
-1 3 19 4.034 4.117 0.136 o
-1 3 20 0.245 0.270 0.036 o
-1 3 21 12.811 12.828 0.388 o
-1 3 22 5.346 5.013 0.152 o
-1 3 23 2.119 2.180 0.094 o
-1 3 24 13.351 12.811 0.472 o
-1 3 25 0.976 0.866 0.225 o
-1 4 1 5.935 5.429 0.170 o
-1 4 2 9.031 9.410 0.222 o
-1 4 4 0.391 0.417 0.028 o
-1 4 5 59.019 59.406 1.603 o
-1 4 6 79.159 78.656 1.887 o
-1 4 7 28.539 27.858 0.637 o
-1 4 8 7.381 7.363 0.227 o
-1 4 9 1.225 1.306 0.053 o
-1 4 11 2.854 3.011 0.090 o
-1 4 12 20.198 20.652 0.479 o
-1 4 13 0.294 0.275 0.032 o
-1 4 14 3.434 3.526 0.101 o
-1 4 15 37.616 38.275 1.027 o
-1 4 16 4.187 4.210 0.117 o
-1 4 17 10.418 10.680 0.264 o
-1 4 19 0.580 0.534 0.044 o
-1 4 20 9.737 9.986 0.245 o
-1 4 21 2.420 2.506 0.092 o
-1 4 22 1.159 1.264 0.076 o
-1 5 1 9.702 9.486 0.238 o
-1 5 2 67.864 67.780 1.718 o
-1 5 3 1.115 1.167 0.054 o
-1 5 4 4.824 4.659 0.126 o
-1 5 5 0.176 0.170 0.029 o
-1 5 6 31.235 31.027 0.708 o
-1 5 7 0.961 0.936 0.045 o
-1 5 8 0.765 0.757 0.046 o
-1 5 9 6.740 6.647 0.166 o
-1 5 10 14.133 14.345 0.347 o
-1 5 11 1.532 1.616 0.071 o
-1 5 12 13.545 13.335 0.522 o
-1 5 14 1.791 1.834 0.080 o
-1 5 15 1.135 1.221 0.066 o
-1 5 16 0.217 0.230 0.043 o
-1 5 17 0.460 0.432 0.049 o
-1 5 19 0.358 0.252 0.048 o
-1 6 1 2.132 1.977 0.075 o
-1 6 2 6.361 5.986 0.207 o
-1 6 4 1.652 1.661 0.067 o
-1 6 5 0.768 0.742 0.045 o
-1 6 6 8.447 8.801 0.226 o
-1 6 7 8.672 8.636 0.230 o
-1 6 8 2.475 2.465 0.101 o
-1 6 10 0.482 0.486 0.051 o
-1 6 12 0.146 0.186 0.052 o
-1 6 13 3.221 3.092 0.117 o
-1 6 15 5.073 5.128 0.178 o
-1 6 16 0.563 0.622 0.062 o
-1 6 17 2.112 2.054 0.178 o
-1 6 18 0.604 0.613 0.085 o
-1 7 1 1.405 1.406 0.065 o
-1 7 3 3.119 2.939 0.102 o
-1 7 4 3.219 3.265 0.109 o
-1 7 5 0.215 0.214 0.039 o
-1 7 6 3.750 3.600 0.110 o
-1 7 8 0.415 0.348 0.054 o
-1 7 11 4.266 4.197 0.314 o
-1 7 13 0.235 0.200 0.057 o
-1 7 14 3.681 3.359 0.189 o
-1 8 2 0.984 0.885 0.135 o
-1 8 4 0.925 0.652 0.110 o
-1 8 5 0.618 0.534 0.105 o
0 0 2 157.408 139.437 19.336 o
0 0 4 68.840 72.565 1.848 o
0 0 6 1039.951 1011.448 33.670 o
0 0 8 297.893 273.975 9.683 o
0 0 10 422.294 405.105 28.655 o
0 0 12 15.446 16.142 0.419 o
0 0 14 53.417 53.901 1.487 o
0 0 16 10.955 11.728 0.313 o
0 0 18 0.633 2.085 0.124 o
0 0 20 10.727 12.095 0.448 o
0 0 22 16.489 17.236 0.756 o
0 0 24 1.343 1.866 0.125 o
0 1 1 454.529 450.537 22.620 o
0 1 2 93.017 90.204 2.194 o
0 1 3 19.883 18.723 0.565 o
0 1 4 1579.108 1203.058 49.138 o
0 1 5 69.011 72.637 1.787 o
0 1 6 322.636 332.161 13.527 o
0 1 7 35.476 37.112 0.938 o
0 1 8 30.355 28.760 0.723 o
0 1 9 39.078 39.402 0.941 o
0 1 10 148.646 160.558 4.516 o
0 1 11 211.825 223.566 6.297 o
0 1 12 0.228 0.177 0.033 o
0 1 13 26.373 26.215 0.724 o
0 1 14 9.026 8.994 0.212 o
0 1 15 3.629 3.587 0.098 o
0 1 16 3.739 3.749 0.105 o
0 1 17 20.174 20.941 0.519 o
0 1 18 25.854 25.688 0.592 o
0 1 19 50.904 51.289 1.482 o
0 1 20 3.107 3.294 0.102 o
0 1 21 16.499 15.909 0.391 o
0 1 22 4.142 4.038 0.128 o
0 1 23 10.795 10.581 0.442 o
0 1 24 4.007 4.144 0.147 o
0 1 25 0.978 0.839 0.075 o
0 1 26 2.301 1.903 0.107 o
0 2 0 12.480 13.369 0.353 o
0 2 1 74.273 73.866 1.794 o
0 2 2 131.361 130.524 3.222 o
0 2 4 187.757 181.440 5.010 o
0 2 5 47.916 49.320 1.203 o
0 2 6 5.590 5.348 0.191 o
0 2 7 137.945 139.033 4.086 o
0 2 8 0.401 0.433 0.034 o
0 2 9 54.684 54.180 1.476 o
0 2 10 26.351 26.122 0.840 o
0 2 11 1.549 1.621 0.081 o
0 2 12 16.970 16.730 0.419 o
0 2 13 10.221 10.170 0.266 o
0 2 14 58.284 57.442 1.313 o
0 2 15 97.866 97.404 2.285 o
0 2 16 2.806 2.758 0.082 o
0 2 18 11.857 11.745 0.280 o
0 2 19 12.404 12.156 0.358 o
0 2 20 25.719 25.626 0.758 o
0 2 21 13.349 13.005 0.326 o
0 2 22 0.392 0.398 0.056 o
0 2 23 4.099 3.912 0.143 o
0 2 24 7.194 6.784 0.487 o
0 2 25 8.365 7.599 0.221 o
0 2 26 0.891 0.878 0.159 o
0 3 1 48.234 49.996 1.225 o
0 3 2 113.222 114.092 2.947 o
0 3 3 81.623 84.550 2.143 o
0 3 4 55.956 56.335 1.405 o
0 3 5 15.268 15.115 0.452 o
0 3 6 0.156 0.215 0.033 o
0 3 7 0.848 0.893 0.055 o
0 3 8 96.482 95.270 2.395 o
0 3 9 40.803 39.744 0.919 o
0 3 10 1.292 1.269 0.051 o
0 3 11 1.315 1.345 0.051 o
0 3 12 7.049 8.670 0.223 o
0 3 14 27.569 27.846 0.677 o
0 3 15 0.210 0.241 0.030 o
0 3 16 1.192 1.190 0.053 o
0 3 17 5.261 5.002 0.140 o
0 3 18 4.561 4.935 0.138 o
0 3 19 0.408 0.410 0.043 o
0 3 20 12.302 12.870 0.316 o
0 3 21 2.651 2.719 0.123 o
0 3 22 4.335 4.321 0.162 o
0 3 24 7.017 6.481 0.182 o
0 4 0 2.561 2.545 0.089 o
0 4 1 12.001 10.790 0.402 o
0 4 2 54.181 53.173 1.493 o
0 4 3 3.919 3.717 0.103 o
0 4 4 11.453 11.560 0.313 o
0 4 5 75.391 71.975 1.838 o
0 4 6 6.288 6.129 0.178 o
0 4 7 0.164 0.192 0.033 o
0 4 8 5.391 5.419 0.139 o
0 4 9 6.330 6.242 0.167 o
0 4 10 16.190 15.917 0.408 o
0 4 11 0.580 0.571 0.036 o
0 4 12 23.808 23.527 0.594 o
0 4 13 6.117 6.332 0.162 o
0 4 14 0.094 0.109 0.032 o
0 4 15 26.186 27.085 0.664 o
0 4 16 16.418 17.063 0.478 o
0 4 17 0.819 0.747 0.048 o
0 4 18 2.276 2.374 0.087 o
0 4 19 3.482 3.524 0.128 o
0 4 20 3.979 4.044 0.123 o
0 4 22 1.175 1.190 0.068 o
0 4 23 0.930 0.861 0.127 o
0 5 2 6.954 6.949 0.180 o
0 5 3 1.131 1.072 0.057 o
0 5 4 23.135 23.461 0.607 o
0 5 5 3.003 3.002 0.087 o
0 5 6 70.705 70.083 1.676 o
0 5 8 6.116 5.904 0.175 o
0 5 9 0.133 0.110 0.033 o
0 5 10 0.192 0.241 0.038 o
0 5 11 3.705 3.856 0.116 o
0 5 12 7.726 8.298 0.221 o
0 5 13 0.965 0.951 0.055 o
0 5 14 13.729 14.193 0.428 o
0 5 15 1.674 1.587 0.095 o
0 5 16 23.342 23.885 0.656 o
0 5 17 0.337 0.331 0.052 o
0 5 18 0.925 0.824 0.068 o
0 5 19 1.854 1.887 0.090 o
0 5 20 2.579 2.829 0.136 o
0 5 21 0.569 0.623 0.123 o
0 6 0 16.534 15.867 0.562 o
0 6 1 5.595 5.598 0.167 o
0 6 2 9.044 9.014 0.233 o
0 6 3 3.695 3.784 0.117 o
0 6 4 0.642 0.627 0.048 o
0 6 5 26.986 26.747 0.632 o
0 6 6 0.042 0.131 0.036 o
0 6 7 0.179 0.179 0.044 o
0 6 8 0.791 0.753 0.058 o
0 6 9 0.494 0.523 0.048 o
0 6 10 11.312 11.675 0.365 o
0 6 11 1.310 1.192 0.069 o
0 6 12 4.552 4.906 0.147 o
0 6 13 4.464 4.562 0.129 o
0 6 14 0.282 0.297 0.046 o
0 6 15 1.623 1.647 0.077 o
0 6 16 1.818 1.937 0.101 o
0 6 17 0.594 0.592 0.068 o
0 7 1 7.996 7.868 0.201 o
0 7 3 0.632 0.666 0.051 o
0 7 5 0.857 0.814 0.049 o
0 7 8 1.009 0.989 0.068 o
0 7 9 6.481 6.641 0.180 o
0 7 10 1.756 1.561 0.094 o
0 7 11 0.766 0.673 0.089 o
0 8 2 0.235 0.250 0.066 o
1 0 0 372.525 352.820 19.205 o
1 0 2 10.809 11.252 0.289 o
1 0 6 242.021 234.923 20.261 o
1 0 8 78.449 75.607 2.052 o
1 0 10 699.284 749.530 23.260 o
1 0 12 6.513 6.325 0.294 o
1 0 14 88.326 88.288 2.326 o
1 0 16 12.497 12.563 0.329 o
1 0 18 88.193 89.996 2.606 o
1 0 20 91.809 93.356 2.608 o
1 0 22 4.408 4.163 0.181 o
1 0 24 1.165 1.006 0.190 o
1 0 26 0.800 0.631 0.111 o
1 1 1 39.482 38.458 0.947 o
1 1 2 440.951 427.789 20.828 o
1 1 3 820.892 734.378 28.594 o
1 1 4 68.118 69.271 1.993 o
1 1 5 116.373 117.470 3.453 o
1 1 6 209.106 234.029 7.076 o
1 1 7 19.148 20.148 0.555 o
1 1 8 94.127 97.547 2.454 o
1 1 9 194.875 200.220 5.502 o
1 1 10 73.975 77.678 1.948 o
1 1 11 0.102 0.132 0.035 o
1 1 12 2.089 2.024 0.073 o
1 1 13 6.970 6.803 0.168 o
1 1 14 128.826 131.591 3.154 o
1 1 15 4.334 4.487 0.138 o
1 1 16 23.869 23.870 0.581 o
1 1 17 3.888 3.687 0.108 o
1 1 18 4.340 4.240 0.115 o
1 1 19 11.844 11.854 0.293 o
1 1 20 5.204 5.016 0.140 o
1 1 21 10.081 10.312 0.288 o
1 1 22 3.036 2.910 0.107 o
1 1 23 8.498 8.451 0.223 o
1 1 24 14.373 13.740 0.390 o
1 1 25 2.489 2.442 0.105 o
1 1 26 0.485 0.485 0.066 o
1 2 0 310.594 324.458 8.092 o
1 2 1 278.459 270.532 6.934 o
1 2 2 0.089 0.103 0.025 o
1 2 3 352.982 364.727 11.436 o
1 2 4 19.688 19.269 0.581 o
1 2 5 87.968 90.563 2.350 o
1 2 6 160.630 156.104 4.060 o
1 2 7 80.998 81.340 2.594 o
1 2 8 6.412 6.203 0.220 o
1 2 9 7.218 7.273 0.248 o
1 2 10 4.976 4.830 0.185 o
1 2 11 9.136 8.788 0.287 o
1 2 12 14.748 14.355 0.350 o
1 2 13 27.481 27.574 0.666 o
1 2 14 6.740 6.668 0.167 o
1 2 15 0.924 0.921 0.044 o
1 2 16 5.560 5.765 0.154 o
1 2 17 4.253 4.324 0.124 o
1 2 18 0.149 0.148 0.039 o
1 2 19 5.987 6.146 0.178 o
1 2 20 0.530 0.562 0.048 o
1 2 21 2.346 2.370 0.085 o
1 2 22 11.374 11.992 0.301 o
1 2 23 0.451 0.433 0.050 o
1 2 24 9.960 9.651 0.411 o
1 2 25 10.037 9.788 0.286 o
1 3 0 18.835 18.329 0.452 o
1 3 1 30.666 30.282 0.748 o
1 3 2 45.487 46.592 1.172 o
1 3 4 8.113 7.788 0.210 o
1 3 5 21.469 20.512 0.535 o
1 3 6 42.991 43.642 1.079 o
1 3 7 18.409 18.386 0.474 o
1 3 8 25.247 24.407 0.598 o
1 3 9 9.754 9.431 0.223 o
1 3 10 0.697 0.636 0.031 o
1 3 11 14.925 14.538 0.341 o
1 3 12 34.209 33.969 0.803 o
1 3 13 28.560 28.015 0.677 o
1 3 14 14.965 15.239 0.380 o
1 3 15 0.860 0.867 0.042 o
1 3 16 0.274 0.264 0.032 o
1 3 17 1.534 1.514 0.063 o
1 3 18 36.571 38.671 0.980 o
1 3 19 14.885 15.241 0.400 o
1 3 20 0.275 0.268 0.051 o
1 3 21 1.190 1.117 0.070 o
1 3 23 2.305 2.227 0.144 o
1 3 24 4.460 3.967 0.313 o
1 4 0 16.736 16.600 0.434 o
1 4 1 0.507 0.604 0.034 o
1 4 2 52.475 51.594 1.330 o
1 4 3 14.289 13.732 0.325 o
1 4 4 2.683 2.611 0.076 o
1 4 5 49.986 49.169 1.231 o
1 4 6 7.804 7.818 0.191 o
1 4 7 1.282 1.282 0.055 o
1 4 8 56.883 55.110 1.341 o
1 4 9 11.674 11.218 0.324 o
1 4 11 1.235 1.244 0.059 o
1 4 12 1.498 1.552 0.062 o
1 4 13 7.911 8.136 0.200 o
1 4 14 1.731 1.642 0.063 o
1 4 15 18.039 18.015 0.551 o
1 4 16 12.718 12.642 0.403 o
1 4 17 4.043 4.112 0.115 o
1 4 18 0.747 0.726 0.053 o
1 4 19 4.369 4.343 0.130 o
1 4 20 2.500 2.520 0.123 o
1 4 22 7.298 6.050 0.230 o
1 5 0 4.037 4.052 0.110 o
1 5 2 11.410 11.403 0.283 o
1 5 3 0.635 0.580 0.038 o
1 5 4 86.537 84.775 2.022 o
1 5 5 3.986 4.099 0.110 o
1 5 6 0.190 0.193 0.031 o
1 5 7 0.908 0.914 0.057 o
1 5 8 7.617 7.594 0.196 o
1 5 9 0.742 0.746 0.045 o
1 5 10 2.198 2.290 0.085 o
1 5 11 0.904 0.920 0.054 o
1 5 12 21.570 22.554 0.608 o
1 5 13 0.344 0.358 0.043 o
1 5 14 19.017 20.105 0.486 o
1 5 15 0.196 0.221 0.054 o
1 5 16 6.824 7.268 0.197 o
1 5 17 0.276 0.242 0.054 o
1 5 19 0.277 0.245 0.054 o
1 5 20 2.178 2.031 0.114 o
1 6 0 5.947 6.011 0.164 o
1 6 1 5.534 5.508 0.146 o
1 6 2 2.593 2.695 0.092 o
1 6 3 0.607 0.595 0.042 o
1 6 4 4.903 4.850 0.138 o
1 6 5 11.078 10.738 0.301 o
1 6 6 3.710 3.712 0.113 o
1 6 7 0.297 0.306 0.046 o
1 6 8 11.860 12.143 0.297 o
1 6 9 11.081 11.073 0.300 o
1 6 10 6.151 6.215 0.169 o
1 6 13 2.173 2.136 0.087 o
1 6 14 0.604 0.652 0.055 o
1 6 15 11.567 10.839 0.270 o
1 6 16 1.149 1.213 0.088 o
1 6 17 1.670 1.738 0.116 o
1 7 0 1.944 1.843 0.080 o
1 7 1 1.545 1.424 0.065 o
1 7 2 0.678 0.572 0.050 o
1 7 3 0.470 0.411 0.043 o
1 7 4 1.521 1.493 0.064 o
1 7 5 3.540 3.445 0.101 o
1 7 9 4.291 4.153 0.123 o
1 7 10 0.509 0.497 0.065 o
1 7 11 2.530 2.148 0.374 o
1 7 13 2.456 1.651 0.177 o
1 8 0 4.015 3.911 0.135 o
2 0 0 23.429 24.670 0.602 o
2 0 4 8.295 8.318 0.471 o
2 0 6 4.100 3.822 0.148 o
2 0 8 104.315 107.711 3.928 o
2 0 10 34.582 35.890 0.929 o
2 0 12 78.903 78.379 2.611 o
2 0 14 101.021 103.810 3.255 o
2 0 16 36.590 35.938 0.836 o
2 0 18 5.104 5.099 0.220 o
2 0 20 19.404 19.604 0.641 o
2 0 22 15.558 14.525 0.382 o
2 0 24 35.258 32.544 0.813 o
2 1 0 366.188 379.444 12.729 o
2 1 1 67.289 67.359 1.665 o
2 1 2 2.704 2.718 0.097 o
2 1 3 470.762 485.105 12.988 o
2 1 4 10.022 9.849 0.257 o
2 1 5 20.662 20.796 0.511 o
2 1 6 432.646 438.289 11.347 o
2 1 7 31.538 31.573 0.853 o
2 1 8 49.357 48.534 1.161 o
2 1 9 182.420 191.181 5.414 o
2 1 10 43.643 45.455 1.153 o
2 1 11 1.881 1.799 0.067 o
2 1 12 24.320 24.612 0.568 o
2 1 13 122.356 123.577 2.952 o
2 1 14 3.195 3.173 0.099 o
2 1 15 5.266 5.467 0.139 o
2 1 16 0.452 0.454 0.037 o
2 1 17 4.478 4.838 0.138 o
2 1 18 21.498 21.178 0.499 o
2 1 19 34.555 34.498 0.873 o
2 1 20 25.706 25.703 0.823 o
2 1 21 9.521 9.407 0.323 o
2 1 22 0.632 0.630 0.058 o
2 1 23 7.257 6.964 0.353 o
2 1 24 8.612 7.876 0.212 o
2 2 0 524.608 516.052 13.248 o
2 2 1 1.624 1.656 0.067 o
2 2 2 2.794 2.973 0.096 o
2 2 3 17.243 16.849 0.406 o
2 2 4 1.049 1.073 0.058 o
2 2 5 148.404 147.757 3.883 o
2 2 6 9.970 10.045 0.271 o
2 2 7 57.262 57.723 1.967 o
2 2 8 55.803 56.357 1.371 o
2 2 9 78.252 78.740 2.903 o
2 2 10 74.583 74.211 1.847 o
2 2 11 31.935 31.590 0.759 o
2 2 12 0.380 0.384 0.028 o
2 2 13 36.315 35.829 0.842 o
2 2 14 1.623 1.660 0.062 o
2 2 15 12.996 12.920 0.369 o
2 2 16 12.673 12.834 0.417 o
2 2 17 47.144 47.639 1.340 o
2 2 18 2.243 2.222 0.103 o
2 2 20 2.003 1.957 0.080 o
2 2 22 3.088 2.865 0.101 o
2 2 23 11.396 11.217 0.386 o
2 3 0 12.846 12.473 0.309 o
2 3 1 28.526 28.238 0.674 o
2 3 2 86.454 89.669 2.312 o
2 3 3 4.314 4.191 0.130 o
2 3 4 208.902 215.696 5.770 o
2 3 5 7.124 7.535 0.222 o
2 3 6 2.082 2.176 0.085 o
2 3 7 28.500 27.754 0.681 o
2 3 8 1.843 1.747 0.063 o
2 3 9 1.400 1.315 0.057 o
2 3 10 2.281 2.266 0.074 o
2 3 11 0.181 0.164 0.027 o
2 3 12 3.889 3.758 0.101 o
2 3 13 0.112 0.105 0.028 o
2 3 14 8.299 8.260 0.238 o
2 3 15 5.147 4.928 0.144 o
2 3 16 3.815 3.778 0.124 o
2 3 17 0.234 0.238 0.037 o
2 3 18 1.554 1.526 0.076 o
2 3 19 0.298 0.324 0.048 o
2 3 20 0.290 0.244 0.048 o
2 3 21 1.761 1.643 0.107 o
2 3 22 4.780 4.582 0.182 o
2 3 23 5.175 4.741 0.281 o
2 4 0 12.095 11.704 0.307 o
2 4 2 1.772 1.819 0.059 o
2 4 3 52.675 51.758 1.264 o
2 4 4 52.023 50.989 1.234 o
2 4 5 18.073 17.764 0.429 o
2 4 6 3.312 3.301 0.098 o
2 4 7 17.881 17.119 0.462 o
2 4 8 5.109 4.968 0.141 o
2 4 9 6.746 6.800 0.182 o
2 4 10 1.661 1.617 0.065 o
2 4 11 0.209 0.194 0.033 o
2 4 12 34.158 34.622 0.800 o
2 4 13 11.427 11.467 0.284 o
2 4 14 7.749 7.648 0.283 o
2 4 15 5.565 5.650 0.153 o
2 4 17 6.224 6.638 0.186 o
2 4 18 10.739 10.814 0.336 o
2 4 19 3.749 3.454 0.128 o
2 4 20 0.327 0.300 0.045 o
2 4 21 0.262 0.246 0.050 o
2 4 22 2.207 1.986 0.159 o
2 5 0 10.912 10.799 0.301 o
2 5 1 3.541 3.624 0.100 o
2 5 2 1.626 1.711 0.070 o
2 5 3 1.264 1.271 0.055 o
2 5 4 2.837 2.743 0.082 o
2 5 5 1.211 1.108 0.053 o
2 5 6 1.763 1.719 0.067 o
2 5 7 0.224 0.255 0.035 o
2 5 8 68.310 68.365 1.650 o
2 5 9 5.446 5.602 0.156 o
2 5 10 3.564 3.581 0.109 o
2 5 11 0.313 0.301 0.041 o
2 5 12 0.784 0.758 0.057 o
2 5 13 1.543 1.568 0.089 o
2 5 14 17.865 18.351 0.489 o
2 5 15 1.136 1.124 0.067 o
2 5 16 6.636 6.979 0.210 o
2 5 17 0.122 0.151 0.047 o
2 5 18 15.278 15.675 0.751 o
2 5 19 0.922 1.047 0.102 o
2 6 0 0.784 0.746 0.044 o
2 6 1 0.538 0.428 0.037 o
2 6 2 6.707 6.769 0.173 o
2 6 3 12.115 12.127 0.297 o
2 6 4 6.506 6.556 0.173 o
2 6 5 0.204 0.142 0.036 o
2 6 6 0.283 0.269 0.040 o
2 6 7 5.270 5.054 0.167 o
2 6 8 0.704 0.660 0.045 o
2 6 9 0.524 0.542 0.050 o
2 6 11 3.274 3.198 0.098 o
2 6 12 7.408 7.457 0.243 o
2 6 13 0.601 0.600 0.046 o
2 6 14 4.125 4.034 0.136 o
2 6 16 1.019 0.845 0.231 o
2 7 0 1.148 1.124 0.072 o
2 7 1 2.197 2.055 0.097 o
2 7 2 0.333 0.292 0.046 o
2 7 3 1.993 1.923 0.079 o
2 7 4 4.130 4.152 0.126 o
2 7 6 2.068 2.063 0.083 o
2 7 7 2.972 3.140 0.114 o
2 7 8 0.383 0.346 0.050 o
2 7 9 0.288 0.318 0.062 o
2 7 10 0.276 0.272 0.079 o
2 7 11 0.480 0.424 0.105 o
2 8 0 2.476 2.320 0.108 o
3 0 0 410.248 406.963 43.572 o
3 0 2 190.015 185.480 6.448 o
3 0 4 21.836 21.727 0.817 o
3 0 6 600.529 595.133 18.285 o
3 0 8 11.103 10.851 0.609 o
3 0 10 1.319 1.253 0.088 o
3 0 12 283.960 280.354 8.349 o
3 0 14 3.696 3.893 0.116 o
3 0 16 11.286 11.060 0.275 o
3 0 18 10.406 10.475 0.267 o
3 0 20 36.315 36.114 3.347 o
3 0 22 34.900 37.680 1.030 o
3 0 24 1.788 1.938 0.154 o
3 1 0 115.206 109.627 2.693 o
3 1 1 437.640 426.325 10.682 o
3 1 2 441.608 448.602 11.057 o
3 1 3 39.965 41.522 1.016 o
3 1 4 11.511 11.392 0.284 o
3 1 5 5.425 5.193 0.140 o
3 1 6 4.729 4.979 0.165 o
3 1 7 29.608 29.597 0.711 o
3 1 8 37.887 38.823 0.933 o
3 1 9 1.304 1.421 0.072 o
3 1 10 85.920 85.069 2.195 o
3 1 11 13.863 13.420 0.312 o
3 1 12 10.968 10.902 0.254 o
3 1 13 36.655 36.720 0.852 o
3 1 14 0.621 0.649 0.036 o
3 1 15 3.171 3.180 0.089 o
3 1 16 59.391 60.219 1.486 o
3 1 17 1.407 1.443 0.063 o
3 1 18 2.950 2.886 0.091 o
3 1 19 7.870 7.798 0.226 o
3 1 20 0.484 0.409 0.043 o
3 1 21 4.334 4.279 0.206 o
3 1 22 0.959 0.995 0.085 o
3 1 23 23.365 22.594 1.236 o
3 1 24 5.162 4.601 0.150 o
3 2 0 1.773 1.861 0.075 o
3 2 1 7.319 7.803 0.206 o
3 2 2 268.733 277.506 7.276 o
3 2 3 102.145 101.782 2.551 o
3 2 4 91.982 92.008 2.224 o
3 2 5 62.188 62.094 1.559 o
3 2 6 42.972 43.749 1.080 o
3 2 7 3.496 3.613 0.135 o
3 2 8 103.103 100.840 2.621 o
3 2 9 2.350 2.304 0.080 o
3 2 10 11.407 11.224 0.318 o
3 2 11 9.279 8.972 0.231 o
3 2 12 22.065 22.104 0.525 o
3 2 13 3.014 2.979 0.087 o
3 2 14 8.191 7.910 0.196 o
3 2 15 1.271 1.284 0.060 o
3 2 16 1.925 1.839 0.076 o
3 2 17 6.984 7.136 0.216 o
3 2 18 20.859 21.128 0.630 o
3 2 19 14.911 14.745 0.501 o
3 2 20 6.512 6.326 0.181 o
3 2 21 5.448 5.268 0.153 o
3 2 22 1.947 1.783 0.080 o
3 2 23 1.197 1.030 0.094 o
3 3 0 68.406 71.059 1.690 o
3 3 1 2.054 1.939 0.073 o
3 3 2 19.969 20.014 0.470 o
3 3 3 95.422 96.404 2.348 o
3 3 4 104.104 105.699 2.593 o
3 3 5 0.097 0.106 0.023 o
3 3 6 19.569 19.831 0.472 o
3 3 7 2.047 2.030 0.064 o
3 3 8 113.912 110.997 2.747 o
3 3 9 34.075 33.788 0.812 o
3 3 10 0.222 0.206 0.030 o
3 3 11 15.624 15.331 0.362 o
3 3 12 32.502 33.053 0.757 o
3 3 13 12.050 12.285 0.299 o
3 3 14 49.080 48.756 1.323 o
3 3 15 4.487 4.514 0.186 o
3 3 16 8.178 8.443 0.249 o
3 3 17 7.072 6.984 0.222 o
3 3 18 2.109 2.190 0.094 o
3 3 19 0.769 0.734 0.060 o
3 3 20 0.492 0.486 0.054 o
3 3 21 3.751 3.591 0.170 o
3 3 22 6.032 5.536 0.468 o
3 4 0 5.915 5.828 0.158 o
3 4 1 0.354 0.309 0.037 o
3 4 2 2.119 2.056 0.075 o
3 4 3 17.649 17.517 0.437 o
3 4 4 36.035 36.366 0.845 o
3 4 5 0.164 0.194 0.029 o
3 4 6 0.266 0.272 0.030 o
3 4 7 52.903 51.744 1.227 o
3 4 8 19.674 19.311 0.473 o
3 4 9 9.680 9.674 0.333 o
3 4 10 10.895 10.827 0.428 o
3 4 12 1.744 1.777 0.071 o
3 4 13 13.120 12.884 0.436 o
3 4 14 3.180 3.127 0.108 o
3 4 16 2.296 2.350 0.097 o
3 4 17 15.955 16.344 0.388 o
3 4 18 9.555 9.771 0.243 o
3 4 19 0.996 1.042 0.070 o
3 5 0 16.298 16.432 0.427 o
3 5 1 8.691 8.684 0.213 o
3 5 2 2.878 2.904 0.087 o
3 5 5 1.763 1.666 0.063 o
3 5 6 14.884 15.029 0.356 o
3 5 7 4.549 4.482 0.126 o
3 5 8 1.595 1.478 0.079 o
3 5 9 0.375 0.375 0.042 o
3 5 12 1.578 1.320 0.124 o
3 5 13 0.333 0.298 0.044 o
3 5 14 1.545 1.540 0.089 o
3 5 15 1.837 1.930 0.079 o
3 5 16 4.033 4.290 0.128 o
3 5 18 13.930 13.968 1.145 o
3 6 0 0.059 0.309 0.039 o
3 6 1 0.934 0.788 0.049 o
3 6 2 1.211 1.308 0.067 o
3 6 3 0.584 0.754 0.058 o
3 6 4 1.070 0.963 0.058 o
3 6 5 3.159 3.029 0.095 o
3 6 6 0.695 0.636 0.046 o
3 6 7 13.796 13.987 0.347 o
3 6 8 0.220 0.165 0.039 o
3 6 9 0.658 0.965 0.062 o
3 6 10 1.989 2.016 0.086 o
3 6 11 2.468 2.325 0.098 o
3 6 12 2.559 2.695 0.092 o
3 6 13 3.752 3.882 0.112 o
3 6 14 0.420 0.330 0.056 o
3 6 15 0.740 0.828 0.152 o
3 7 0 1.162 1.213 0.064 o
3 7 2 3.445 3.497 0.114 o
3 7 3 4.486 4.599 0.134 o
3 7 4 0.689 0.697 0.056 o
3 7 6 0.570 0.437 0.071 o
3 7 8 1.127 1.071 0.085 o
3 7 9 1.883 2.044 0.179 o
3 7 10 1.413 1.407 0.089 o
4 0 0 42.750 43.731 1.092 o
4 0 4 37.982 37.391 0.918 o
4 0 6 13.883 13.208 0.366 o
4 0 8 1.070 1.048 0.103 o
4 0 10 4.413 4.282 0.134 o
4 0 12 3.040 2.932 0.125 o
4 0 16 49.460 49.546 1.275 o
4 0 18 0.185 0.193 0.057 o
4 0 22 30.591 32.681 0.868 o
4 1 0 2.640 2.419 0.079 o
4 1 1 149.089 151.615 3.844 o
4 1 2 185.058 187.258 4.845 o
4 1 3 212.302 210.460 5.422 o
4 1 4 2.895 3.059 0.100 o
4 1 5 91.831 91.972 2.344 o
4 1 6 39.975 40.335 0.981 o
4 1 7 8.447 8.299 0.221 o
4 1 8 28.103 28.239 0.663 o
4 1 9 21.086 20.438 0.535 o
4 1 10 0.293 0.250 0.028 o
4 1 11 129.026 128.764 3.121 o
4 1 12 11.581 11.603 0.291 o
4 1 13 6.327 6.141 0.169 o
4 1 14 2.462 2.519 0.081 o
4 1 15 9.567 9.719 0.245 o
4 1 16 3.280 3.224 0.096 o
4 1 17 8.656 8.823 0.259 o
4 1 18 0.531 0.497 0.046 o
4 1 19 1.330 1.361 0.071 o
4 1 20 17.754 18.442 0.683 o
4 1 21 14.291 13.799 0.352 o
4 1 22 4.715 5.010 0.177 o
4 2 0 116.478 118.048 2.961 o
4 2 1 71.990 73.522 1.779 o
4 2 2 289.742 293.745 7.463 o
4 2 3 54.850 54.891 1.305 o
4 2 4 15.417 15.590 0.395 o
4 2 5 0.529 0.653 0.046 o
4 2 6 6.646 6.455 0.189 o
4 2 7 152.946 151.763 3.802 o
4 2 8 0.568 0.706 0.043 o
4 2 9 14.557 13.966 0.338 o
4 2 10 40.531 39.991 0.974 o
4 2 11 1.228 1.180 0.051 o
4 2 12 100.897 102.017 2.422 o
4 2 13 27.458 27.496 0.632 o
4 2 14 11.057 11.330 0.279 o
4 2 15 26.377 27.681 0.647 o
4 2 16 2.263 2.360 0.096 o
4 2 17 5.353 5.207 0.151 o
4 2 18 5.539 5.799 0.169 o
4 2 19 2.900 3.036 0.126 o
4 2 20 3.008 2.994 0.115 o
4 2 21 2.334 2.474 0.186 o
4 2 22 12.992 13.324 0.362 o
4 3 0 5.469 5.610 0.141 o
4 3 1 35.181 35.992 0.837 o
4 3 2 1.105 1.096 0.047 o
4 3 3 1.297 1.327 0.055 o
4 3 4 48.821 47.826 1.126 o
4 3 5 3.375 3.301 0.100 o
4 3 6 102.863 100.340 2.468 o
4 3 7 0.332 0.382 0.035 o
4 3 8 53.418 52.353 1.344 o
4 3 9 6.108 6.061 0.176 o
4 3 10 10.109 9.746 0.279 o
4 3 11 0.369 0.384 0.038 o
4 3 13 13.367 13.508 0.327 o
4 3 16 22.892 24.198 0.567 o
4 3 17 3.009 3.008 0.099 o
4 3 18 32.699 34.100 1.235 o
4 3 19 2.610 2.618 0.122 o
4 4 0 63.420 62.157 1.670 o
4 4 1 0.556 0.539 0.034 o
4 4 2 0.541 0.530 0.033 o
4 4 3 2.619 2.533 0.080 o
4 4 4 1.445 1.386 0.058 o
4 4 5 19.616 18.752 0.447 o
4 4 6 13.248 12.926 0.313 o
4 4 7 39.461 38.565 0.947 o
4 4 8 19.921 19.901 0.466 o
4 4 9 0.982 0.864 0.059 o
4 4 10 1.328 1.336 0.066 o
4 4 11 0.445 0.401 0.039 o
4 4 12 0.207 0.190 0.039 o
4 4 13 0.580 0.558 0.044 o
4 4 14 20.714 21.577 0.570 o
4 4 15 4.976 5.322 0.151 o
4 4 16 0.221 0.156 0.046 o
4 4 17 18.216 18.650 0.436 o
4 4 18 0.220 0.247 0.048 o
4 4 19 0.246 0.204 0.058 o
4 5 0 0.160 0.127 0.029 o
4 5 1 1.912 1.900 0.066 o
4 5 2 0.837 0.766 0.041 o
4 5 3 3.248 3.301 0.103 o
4 5 4 21.135 21.238 0.561 o
4 5 5 1.956 2.004 0.073 o
4 5 6 9.162 8.852 0.245 o
4 5 7 0.142 0.134 0.036 o
4 5 8 2.045 1.884 0.116 o
4 5 10 14.311 14.153 0.337 o
4 5 11 7.282 7.499 0.190 o
4 5 12 1.853 1.645 0.101 o
4 5 16 7.721 7.854 0.279 o
4 5 17 1.181 1.139 0.102 o
4 6 0 0.887 0.901 0.062 o
4 6 1 3.528 3.357 0.126 o
4 6 2 0.497 0.454 0.047 o
4 6 3 0.624 0.598 0.044 o
4 6 5 2.482 2.558 0.089 o
4 6 7 0.797 0.742 0.050 o
4 6 8 1.983 2.012 0.101 o
4 6 9 1.714 1.865 0.090 o
4 6 12 0.181 0.161 0.045 o
4 6 14 1.462 1.080 0.327 o
4 7 0 0.292 0.202 0.040 o
4 7 1 4.431 4.726 0.139 o
4 7 2 0.814 0.845 0.060 o
4 7 5 0.933 0.815 0.087 o
4 7 6 6.262 6.243 0.441 o
4 7 7 0.460 0.493 0.077 o
4 7 8 3.553 3.662 0.159 o
5 0 0 61.723 64.160 1.729 o
5 0 2 674.153 657.782 19.899 o
5 0 4 12.349 12.019 0.326 o
5 0 6 6.492 6.632 0.216 o
5 0 8 146.430 145.851 4.312 o
5 0 10 71.987 73.349 1.818 o
5 0 12 17.425 17.037 0.415 o
5 0 14 15.679 15.545 0.386 o
5 0 16 15.239 15.419 0.553 o
5 0 18 1.878 1.854 0.121 o
5 0 20 2.040 1.984 0.130 o
5 1 0 0.426 0.433 0.042 o
5 1 1 106.997 107.297 2.791 o
5 1 2 58.663 58.124 1.414 o
5 1 3 1.812 1.838 0.098 o
5 1 4 38.045 39.461 0.964 o
5 1 5 1.083 1.198 0.065 o
5 1 6 82.347 82.455 2.100 o
5 1 7 5.084 5.102 0.141 o
5 1 8 1.453 1.393 0.058 o
5 1 9 1.814 1.831 0.067 o
5 1 10 0.749 0.751 0.040 o
5 1 11 29.136 28.686 0.709 o
5 1 12 55.797 55.829 1.329 o
5 1 13 17.093 17.341 0.410 o
5 1 14 0.289 0.270 0.039 o
5 1 15 18.334 18.965 0.445 o
5 1 18 5.669 5.726 0.172 o
5 1 19 0.947 0.894 0.067 o
5 1 20 1.345 1.401 0.099 o
5 1 21 24.565 25.052 0.601 o
5 2 0 23.060 24.109 0.565 o
5 2 1 25.475 25.307 0.593 o
5 2 2 3.502 3.438 0.102 o
5 2 3 24.820 23.972 0.560 o
5 2 4 59.773 59.458 1.421 o
5 2 5 14.873 14.804 0.355 o
5 2 6 47.826 48.350 1.176 o
5 2 7 4.284 4.207 0.121 o
5 2 8 14.039 13.929 0.326 o
5 2 9 10.878 10.670 0.255 o
5 2 10 40.036 40.227 0.925 o
5 2 11 10.467 10.309 0.281 o
5 2 12 21.764 21.399 0.529 o
5 2 14 5.922 5.914 0.174 o
5 2 16 11.946 12.429 0.305 o
5 2 17 25.410 25.793 1.198 o
5 2 18 2.787 3.097 0.126 o
5 2 19 2.846 2.863 0.125 o
5 2 20 17.329 18.068 0.442 o
5 3 0 117.671 119.006 2.894 o
5 3 1 24.985 25.808 0.598 o
5 3 2 5.397 5.213 0.136 o
5 3 3 4.346 4.264 0.117 o
5 3 4 3.901 3.784 0.105 o
5 3 5 39.576 39.865 0.950 o
5 3 6 89.193 86.732 2.193 o
5 3 7 4.341 4.322 0.119 o
5 3 8 3.186 3.145 0.100 o
5 3 9 0.294 0.243 0.036 o
5 3 10 37.218 35.392 0.926 o
5 3 11 20.852 20.066 0.594 o
5 3 12 0.564 0.516 0.045 o
5 3 13 4.277 4.075 0.164 o
5 3 14 29.118 29.315 0.779 o
5 3 15 0.827 0.915 0.055 o
5 3 16 32.798 33.862 0.817 o
5 3 19 4.215 4.352 0.148 o
5 4 0 8.483 8.489 0.209 o
5 4 1 4.101 4.324 0.115 o
5 4 2 0.081 0.110 0.027 o
5 4 3 1.047 1.078 0.053 o
5 4 4 24.644 23.631 0.650 o
5 4 5 17.953 17.625 0.417 o
5 4 6 8.055 8.153 0.208 o
5 4 7 18.010 17.534 0.415 o
5 4 9 7.283 7.448 0.206 o
5 4 10 15.775 16.047 0.384 o
5 4 11 2.608 2.666 0.101 o
5 4 12 0.592 0.542 0.049 o
5 4 14 2.425 2.455 0.118 o
5 4 15 11.889 12.307 0.321 o
5 4 16 1.390 1.326 0.078 o
5 4 17 4.921 5.050 0.152 o
5 5 0 4.794 4.984 0.132 o
5 5 1 0.115 0.116 0.031 o
5 5 2 4.497 4.631 0.127 o
5 5 3 1.131 1.160 0.054 o
5 5 4 3.249 3.281 0.110 o
5 5 5 0.357 0.342 0.035 o
5 5 6 6.099 6.212 0.168 o
5 5 7 1.187 1.119 0.070 o
5 5 8 7.183 6.968 0.195 o
5 5 9 0.327 0.224 0.050 o
5 5 10 0.183 0.168 0.046 o
5 5 13 0.387 0.381 0.049 o
5 5 14 2.836 2.650 0.106 o
5 5 15 0.835 0.803 0.112 o
5 5 16 2.627 2.811 0.173 o
5 6 0 6.575 6.758 0.186 o
5 6 1 4.298 4.331 0.179 o
5 6 2 3.938 4.011 0.116 o
5 6 3 1.906 1.862 0.077 o
5 6 4 1.579 1.347 0.101 o
5 6 5 7.363 6.983 0.319 o
5 6 6 2.920 2.874 0.149 o
5 6 7 11.121 11.315 0.286 o
5 6 8 0.710 0.655 0.063 o
5 6 9 2.071 2.177 0.092 o
5 6 12 0.520 0.470 0.120 o
5 7 0 1.711 1.610 0.143 o
5 7 1 8.009 8.137 0.262 o
5 7 2 1.569 1.512 0.094 o
5 7 3 1.936 1.852 0.122 o
5 7 6 0.517 0.497 0.076 o
6 0 0 226.836 236.611 7.065 o
6 0 2 29.796 29.478 0.846 o
6 0 4 1.508 1.631 0.096 o
6 0 6 42.659 46.434 1.452 o
6 0 8 15.381 15.861 0.389 o
6 0 10 33.713 33.160 0.853 o
6 0 12 94.563 92.351 2.386 o
6 0 14 4.382 4.410 0.229 o
6 0 16 2.233 2.281 0.112 o
6 0 18 12.330 12.461 0.563 o
6 0 20 23.452 23.496 1.965 o
6 1 0 0.552 0.610 0.049 o
6 1 1 181.355 178.915 5.339 o
6 1 2 60.273 59.412 1.531 o
6 1 3 22.271 21.830 0.571 o
6 1 4 53.880 55.508 1.383 o
6 1 5 57.747 58.403 1.391 o
6 1 6 21.150 20.714 0.491 o
6 1 7 11.784 11.278 0.278 o
6 1 8 42.156 42.683 0.986 o
6 1 9 34.739 35.194 0.810 o
6 1 10 0.279 0.282 0.035 o
6 1 11 32.085 31.907 0.767 o
6 1 12 0.631 0.591 0.043 o
6 1 13 13.594 13.786 0.385 o
6 1 15 2.029 1.983 0.081 o
6 1 16 26.382 26.989 0.629 o
6 1 17 0.382 0.441 0.046 o
6 1 18 3.079 3.200 0.122 o
6 1 19 5.753 6.068 0.172 o
6 2 1 9.350 9.540 0.268 o
6 2 3 12.859 13.076 0.383 o
6 2 4 46.459 45.495 1.132 o
6 2 5 96.680 95.429 2.348 o
6 2 6 2.311 2.144 0.079 o
6 2 7 1.113 1.037 0.059 o
6 2 8 5.208 5.159 0.151 o
6 2 9 34.106 33.313 0.856 o
6 2 10 1.431 1.380 0.062 o
6 2 11 5.793 5.720 0.158 o
6 2 12 3.149 3.103 0.100 o
6 2 13 6.985 7.059 0.182 o
6 2 14 33.530 33.987 1.069 o
6 2 15 15.684 15.908 0.502 o
6 2 16 7.829 8.332 0.216 o
6 2 17 1.372 1.455 0.079 o
6 2 18 0.685 0.718 0.078 o
6 3 0 0.019 0.300 0.029 o
6 3 2 0.593 0.626 0.035 o
6 3 3 0.731 0.712 0.045 o
6 3 4 0.225 0.245 0.033 o
6 3 5 0.140 0.130 0.038 o
6 3 6 0.222 0.211 0.036 o
6 3 7 5.010 4.681 0.140 o
6 3 8 5.941 5.914 0.165 o
6 3 9 3.161 3.441 0.110 o
6 3 10 32.256 31.539 0.885 o
6 3 11 1.694 1.655 0.108 o
6 3 12 1.283 1.282 0.068 o
6 3 13 0.654 0.545 0.047 o
6 3 15 12.491 12.675 0.334 o
6 3 16 5.807 5.855 0.184 o
6 3 17 0.569 0.564 0.101 o
6 3 18 8.150 8.596 0.330 o
6 4 0 15.869 15.824 0.410 o
6 4 2 25.201 24.604 0.746 o
6 4 3 0.252 0.229 0.035 o
6 4 4 6.019 5.984 0.159 o
6 4 5 13.770 13.520 0.361 o
6 4 6 0.739 0.762 0.055 o
6 4 7 1.941 1.897 0.077 o
6 4 9 7.299 7.621 0.206 o
6 4 10 17.739 16.611 0.736 o
6 4 11 1.752 1.838 0.091 o
6 4 12 0.279 0.246 0.047 o
6 4 14 3.015 2.950 0.120 o
6 4 15 4.693 4.874 0.144 o
6 4 16 3.745 3.764 0.127 o
6 5 0 25.418 25.596 0.699 o
6 5 1 4.018 3.854 0.110 o
6 5 2 0.213 0.221 0.033 o
6 5 3 0.626 0.609 0.040 o
6 5 4 14.570 14.388 0.404 o
6 5 6 43.462 44.460 1.072 o
6 5 7 2.914 3.131 0.105 o
6 5 8 0.541 0.580 0.063 o
6 5 9 1.339 1.346 0.080 o
6 5 10 0.402 0.406 0.056 o
6 5 12 0.546 0.452 0.072 o
6 5 13 1.534 1.628 0.103 o
6 5 14 7.731 8.299 0.257 o
6 6 0 10.882 11.520 0.328 o
6 6 1 2.143 2.050 0.075 o
6 6 2 4.504 4.552 0.128 o
6 6 3 5.118 5.083 0.186 o
6 6 4 0.227 0.268 0.046 o
6 6 5 1.120 1.090 0.068 o
6 6 7 1.950 1.686 0.102 o
6 6 8 0.822 0.815 0.067 o
6 6 9 0.491 0.465 0.087 o
6 6 10 6.780 7.041 0.237 o
6 6 11 4.712 4.969 0.203 o
6 7 0 1.746 1.761 0.157 o
6 7 1 0.524 0.485 0.103 o
7 0 0 105.279 113.191 3.806 o
7 0 2 35.275 33.085 1.354 o
7 0 4 261.052 255.744 9.841 o
7 0 6 1.170 1.115 0.107 o
7 0 8 43.714 43.876 1.071 o
7 0 10 59.760 57.748 1.414 o
7 0 12 17.355 17.705 0.458 o
7 0 14 11.901 12.198 0.447 o
7 0 16 8.380 8.845 0.308 o
7 0 18 16.154 16.639 0.670 o
7 1 0 79.301 80.451 2.377 o
7 1 1 1.144 1.093 0.076 o
7 1 2 0.136 0.156 0.037 o
7 1 3 7.280 7.042 0.220 o
7 1 4 34.800 34.275 0.796 o
7 1 5 39.988 39.550 0.928 o
7 1 6 1.040 0.852 0.055 o
7 1 7 1.384 1.420 0.072 o
7 1 8 45.997 46.834 1.100 o
7 1 10 3.183 3.194 0.104 o
7 1 11 16.790 16.589 0.417 o
7 1 12 15.171 15.438 0.426 o
7 1 13 15.224 15.500 0.418 o
7 1 14 23.698 24.443 0.571 o
7 1 15 22.638 22.776 0.642 o
7 1 17 3.582 3.657 0.127 o
7 1 18 0.427 0.450 0.060 o
7 2 0 34.493 33.806 0.931 o
7 2 1 10.710 10.167 0.281 o
7 2 2 6.169 6.039 0.155 o
7 2 3 4.857 4.784 0.138 o
7 2 4 0.508 0.537 0.045 o
7 2 5 0.771 0.662 0.042 o
7 2 6 5.691 5.643 0.146 o
7 2 7 3.227 3.125 0.113 o
7 2 8 7.079 6.838 0.190 o
7 2 9 20.432 20.312 0.523 o
7 2 10 0.852 0.836 0.051 o
7 2 11 10.113 10.086 0.311 o
7 2 12 0.337 0.341 0.043 o
7 2 13 4.166 4.178 0.150 o
7 2 14 6.690 6.867 0.189 o
7 2 15 11.511 11.977 0.325 o
7 2 16 1.089 1.032 0.098 o
7 2 18 3.992 4.011 0.151 o
7 3 0 0.575 0.567 0.035 o
7 3 1 26.980 26.417 0.618 o
7 3 2 21.690 21.512 0.501 o
7 3 3 14.510 14.338 0.344 o
7 3 4 13.864 13.544 0.327 o
7 3 5 1.015 1.047 0.067 o
7 3 6 6.489 6.266 0.172 o
7 3 7 3.254 3.040 0.127 o
7 3 8 11.971 11.667 0.313 o
7 3 9 9.635 9.227 0.304 o
7 3 10 1.831 1.744 0.081 o
7 3 12 3.420 3.360 0.114 o
7 3 13 1.546 1.542 0.124 o
7 3 14 0.282 0.293 0.062 o
7 3 15 0.272 0.263 0.068 o
7 3 16 1.859 2.015 0.103 o
7 4 0 9.518 9.245 0.305 o
7 4 1 1.466 1.454 0.065 o
7 4 2 1.583 1.546 0.066 o
7 4 3 1.216 1.226 0.062 o
7 4 4 2.592 2.452 0.086 o
7 4 5 19.825 19.342 0.560 o
7 4 6 29.478 28.362 0.785 o
7 4 9 9.901 10.289 0.269 o
7 4 10 0.298 0.179 0.047 o
7 4 12 4.950 4.873 0.148 o
7 4 13 0.285 0.187 0.057 o
7 4 14 6.972 6.724 0.253 o
7 5 0 13.224 12.667 0.431 o
7 5 2 12.124 12.242 0.332 o
7 5 3 1.389 1.369 0.072 o
7 5 4 2.327 2.464 0.092 o
7 5 6 1.071 0.975 0.081 o
7 5 7 0.199 0.177 0.053 o
7 5 8 3.475 3.622 0.129 o
7 5 10 20.335 20.664 0.508 o
7 5 11 1.376 1.463 0.101 o
7 5 12 1.203 1.356 0.164 o
7 6 0 0.797 0.801 0.048 o
7 6 2 2.247 2.219 0.092 o
7 6 4 3.728 3.947 0.130 o
7 6 5 3.791 3.958 0.130 o
7 6 6 3.157 3.132 0.143 o
7 6 7 3.363 3.479 0.184 o
7 6 8 3.010 3.023 0.175 o
7 6 9 4.647 4.826 0.193 o
8 0 0 25.602 25.401 0.619 o
8 0 2 14.581 13.623 0.332 o
8 0 4 63.762 63.956 1.732 o
8 0 6 4.710 4.576 0.171 o
8 0 8 28.211 28.401 0.709 o
8 0 10 0.927 0.871 0.069 o
8 0 12 24.174 24.601 0.609 o
8 0 14 82.306 82.664 5.143 o
8 0 16 0.894 0.853 0.128 o
8 1 1 0.326 0.377 0.038 o
8 1 2 2.017 1.993 0.077 o
8 1 3 81.107 81.775 2.115 o
8 1 4 31.961 31.616 0.742 o
8 1 6 4.125 4.179 0.122 o
8 1 7 0.275 0.260 0.045 o
8 1 8 19.211 19.305 0.509 o
8 1 9 9.383 9.140 0.287 o
8 1 10 18.493 18.116 0.432 o
8 1 11 5.889 6.125 0.163 o
8 1 12 4.298 4.504 0.136 o
8 1 13 10.840 11.237 0.392 o
8 1 15 1.605 1.634 0.080 o
8 1 16 0.594 0.653 0.050 o
8 2 0 40.071 39.808 1.004 o
8 2 1 20.445 20.526 0.489 o
8 2 2 0.119 0.156 0.033 o
8 2 3 4.987 4.831 0.145 o
8 2 4 13.756 14.046 0.345 o
8 2 5 7.279 7.231 0.188 o
8 2 7 34.575 33.037 0.784 o
8 2 8 4.087 4.040 0.144 o
8 2 9 0.128 0.171 0.039 o
8 2 10 15.147 14.954 0.481 o
8 2 13 3.912 3.920 0.166 o
8 2 14 0.357 0.306 0.046 o
8 2 15 2.582 2.676 0.100 o
8 2 16 1.980 2.018 0.089 o
8 3 0 16.775 16.622 0.390 o
8 3 1 0.182 0.167 0.032 o
8 3 2 9.563 9.155 0.225 o
8 3 3 0.600 0.592 0.046 o
8 3 4 10.558 10.213 0.273 o
8 3 5 17.585 17.330 0.412 o
8 3 6 13.991 13.520 0.331 o
8 3 8 3.592 3.321 0.111 o
8 3 10 2.602 2.591 0.117 o
8 3 11 5.799 5.611 0.205 o
8 3 12 3.296 3.234 0.129 o
8 3 13 6.443 5.868 0.180 o
8 3 14 5.713 5.805 0.163 o
8 4 1 2.271 2.236 0.082 o
8 4 2 13.598 13.397 0.446 o
8 4 3 2.499 2.521 0.122 o
8 4 4 2.313 2.311 0.090 o
8 4 5 2.617 2.611 0.089 o
8 4 6 3.497 3.513 0.114 o
8 4 7 4.107 4.139 0.148 o
8 4 9 12.472 12.559 0.312 o
8 4 10 5.873 5.732 0.169 o
8 4 11 0.290 0.262 0.052 o
8 4 12 5.469 5.859 0.175 o
8 5 0 1.022 1.069 0.070 o
8 5 1 0.234 0.159 0.042 o
8 5 2 6.230 6.131 0.171 o
8 5 3 3.626 3.762 0.118 o
8 5 4 0.804 0.813 0.058 o
8 5 6 6.653 6.849 0.200 o
8 5 7 2.195 2.187 0.101 o
8 5 8 19.586 20.953 0.519 o
8 5 9 2.763 2.985 0.187 o
8 5 10 0.821 0.919 0.132 o
8 6 1 0.493 0.413 0.065 o
8 6 2 4.658 4.818 0.169 o
8 6 3 1.438 1.309 0.155 o
8 6 4 2.595 2.585 0.176 o
9 0 0 16.118 16.577 0.729 o
9 0 2 45.006 43.718 1.254 o
9 0 4 4.532 4.471 0.172 o
9 0 6 26.004 25.677 0.686 o
9 0 10 13.509 13.998 0.440 o
9 0 12 8.328 8.378 0.682 o
9 0 16 0.759 0.538 0.102 o
9 1 0 31.364 31.021 0.760 o
9 1 1 0.213 0.164 0.033 o
9 1 2 4.545 4.475 0.135 o
9 1 3 25.634 26.038 0.635 o
9 1 4 2.399 2.458 0.092 o
9 1 5 6.018 6.141 0.170 o
9 1 6 7.625 7.427 0.201 o
9 1 7 12.723 12.842 0.412 o
9 1 8 1.638 1.638 0.086 o
9 1 9 2.056 2.109 0.100 o
9 1 10 8.998 9.110 0.369 o
9 1 11 0.152 0.187 0.058 o
9 1 12 0.935 1.029 0.078 o
9 1 13 26.851 26.934 0.630 o
9 1 14 8.856 9.320 0.236 o
9 1 15 1.045 1.116 0.077 o
9 2 0 1.721 1.659 0.070 o
9 2 1 3.547 3.518 0.103 o
9 2 2 34.866 34.905 0.817 o
9 2 3 4.747 4.888 0.150 o
9 2 4 34.823 34.056 0.811 o
9 2 5 3.200 3.135 0.102 o
9 2 6 3.088 3.205 0.123 o
9 2 7 1.630 1.583 0.074 o
9 2 8 2.090 2.040 0.098 o
9 2 9 14.931 15.841 0.389 o
9 2 10 2.077 2.055 0.101 o
9 2 11 8.617 9.045 0.241 o
9 2 12 6.126 6.505 0.230 o
9 2 14 7.292 7.522 0.199 o
9 3 0 2.083 2.097 0.079 o
9 3 1 6.255 6.157 0.165 o
9 3 2 2.586 2.510 0.093 o
9 3 3 13.534 14.327 0.362 o
9 3 4 6.427 6.555 0.184 o
9 3 5 1.266 1.266 0.081 o
9 3 6 15.379 14.496 0.363 o
9 3 7 0.290 0.304 0.059 o
9 3 8 15.564 14.167 1.076 o
9 3 10 3.012 2.745 0.151 o
9 3 11 3.746 3.617 0.160 o
9 3 12 4.629 4.577 0.253 o
9 4 1 2.225 2.275 0.090 o
9 4 2 12.481 12.685 0.380 o
9 4 5 0.311 0.237 0.050 o
9 4 6 4.977 4.702 0.150 o
9 4 7 17.461 16.700 0.934 o
9 4 8 12.367 12.481 0.310 o
9 4 9 5.028 5.165 0.152 o
9 4 10 0.994 0.957 0.083 o
9 5 1 0.815 0.841 0.066 o
9 5 2 4.115 4.059 0.138 o
9 5 3 1.514 1.659 0.099 o
9 5 4 1.049 1.067 0.112 o
9 5 5 0.850 0.959 0.162 o
9 5 8 4.956 5.047 0.203 o
9 6 1 1.443 1.304 0.151 o
10 0 0 6.972 7.682 0.223 o
10 0 2 2.755 2.769 0.179 o
10 0 4 13.714 14.122 0.412 o
10 0 6 16.966 17.050 0.474 o
10 0 8 0.980 1.021 0.105 o
10 0 10 11.725 11.555 0.297 o
10 0 12 11.522 11.772 0.369 o
10 1 0 9.132 9.194 0.227 o
10 1 1 30.939 31.384 0.742 o
10 1 3 8.034 8.058 0.218 o
10 1 4 9.125 9.434 0.245 o
10 1 5 3.407 3.539 0.117 o
10 1 6 7.532 7.686 0.313 o
10 1 8 1.311 1.116 0.099 o
10 1 9 1.118 1.162 0.081 o
10 1 10 5.179 5.386 0.189 o
10 1 11 3.617 3.790 0.128 o
10 1 12 0.677 0.725 0.061 o
10 1 13 1.699 1.653 0.108 o
10 2 0 8.915 8.795 0.224 o
10 2 1 1.491 1.505 0.080 o
10 2 2 27.572 27.908 0.657 o
10 2 3 7.600 7.640 0.201 o
10 2 4 1.519 1.441 0.075 o
10 2 5 9.871 9.641 0.268 o
10 2 6 7.038 6.823 0.910 o
10 2 7 3.688 3.528 0.175 o
10 2 8 3.079 2.956 0.259 o
10 2 9 0.408 0.434 0.069 o
10 2 10 6.138 6.111 0.185 o
10 2 11 1.265 1.327 0.081 o
10 2 12 14.945 15.811 0.396 o
10 3 0 0.735 0.758 0.050 o
10 3 1 1.301 1.253 0.077 o
10 3 2 17.658 18.153 0.441 o
10 3 3 3.612 3.866 0.152 o
10 3 4 3.151 2.884 0.108 o
10 3 5 0.235 0.202 0.043 o
10 3 6 13.491 12.686 0.707 o
10 3 7 11.451 10.780 0.485 o
10 3 8 23.860 22.225 1.041 o
10 3 9 0.515 0.370 0.094 o
10 3 10 1.056 0.926 0.236 o
10 4 0 2.361 2.571 0.120 o
10 4 1 4.742 4.672 0.192 o
10 4 3 1.466 1.436 0.090 o
10 4 4 3.128 2.579 0.350 o
10 4 5 0.961 0.921 0.084 o
10 4 6 0.795 0.719 0.122 o
10 4 7 6.395 6.021 0.862 o
10 4 8 0.425 0.435 0.122 o
10 5 0 1.735 1.737 0.162 o
10 5 1 2.428 2.492 0.179 o
10 5 2 0.622 0.486 0.123 o
10 5 4 1.607 1.508 0.161 o
11 0 0 31.488 32.547 0.929 o
11 0 2 23.596 25.074 0.621 o
11 0 6 2.491 2.537 0.211 o
11 0 10 0.784 0.828 0.116 o
11 1 1 3.688 3.614 0.120 o
11 1 2 7.859 8.281 0.237 o
11 1 3 10.823 11.519 0.300 o
11 1 4 1.627 1.726 0.098 o
11 1 5 11.986 12.865 0.347 o
11 1 6 3.405 3.343 0.162 o
11 1 7 4.555 4.352 0.151 o
11 1 8 0.233 0.207 0.054 o
11 1 9 1.335 1.259 0.071 o
11 1 10 5.407 5.341 0.402 o
11 2 1 11.326 11.339 0.400 o
11 2 3 0.892 0.814 0.068 o
11 2 4 6.577 6.289 0.279 o
11 2 6 18.509 17.460 1.578 o
11 2 7 15.741 15.870 0.726 o
11 2 8 2.703 2.619 0.138 o
11 2 9 0.770 0.714 0.066 o
11 3 0 17.948 18.823 0.441 o
11 3 1 1.882 1.837 0.100 o
11 3 2 1.131 1.030 0.126 o
11 3 3 1.387 1.397 0.084 o
11 3 4 3.005 2.785 0.121 o
11 3 5 0.686 0.675 0.060 o
11 3 6 2.025 1.961 0.114 o
11 4 0 1.483 1.546 0.164 o
11 4 1 3.161 3.174 0.183 o
11 4 4 6.018 6.384 0.224 o
11 4 5 0.525 0.581 0.121 o
12 0 0 1.392 1.564 0.100 o
12 0 2 18.980 20.495 0.504 o
12 0 4 7.157 7.761 0.286 o
12 0 6 18.818 20.067 0.514 o
12 1 0 7.960 8.200 0.217 o
12 1 1 3.055 3.362 0.132 o
12 1 2 7.849 7.792 0.321 o
12 1 3 3.225 3.366 0.110 o
12 1 4 0.497 0.408 0.056 o
12 1 5 3.403 3.648 0.133 o
12 1 6 11.693 11.276 0.494 o
12 1 7 2.369 2.596 0.125 o
12 2 0 0.642 0.611 0.049 o
12 2 3 2.053 2.076 0.161 o
12 2 4 3.734 3.938 0.229 o
12 2 5 2.495 2.747 0.135 o
12 3 0 4.173 4.533 0.162 o
12 3 3 2.483 2.318 0.169 o
13 0 2 11.300 11.327 1.142 o
13 0 4 8.434 7.312 0.242 o
13 1 0 1.229 1.051 0.096 o
13 1 1 1.976 1.876 0.132 o
13 1 2 1.229 1.097 0.094 o
13 1 3 2.357 2.066 0.115 o
13 1 4 0.882 0.584 0.125 o
13 2 0 0.896 0.660 0.055 o
13 2 1 2.714 2.432 0.127 o
13 2 2 2.228 1.730 0.163 o
