#------------------------------------------------------------------------------
#$Date: 2016-02-21 11:56:54 +0200 (Sun, 21 Feb 2016) $
#$Revision: 176809 $
#$URL: svn://www.crystallography.net/cod/cif/2/31/01/2310118.cif $
#------------------------------------------------------------------------------
#
# This file is available in the Crystallography Open Database (COD),
# http://www.crystallography.net/
#
# All data on this site have been placed in the public domain by the
# contributors.
#
data_2310118
loop_
_publ_author_name
'Kami\'nski, Rados\/law'
'Domaga\/la, S\/lawomir'
'Jarzembska, Katarzyna N.'
'Hoser, Anna A.'
'Sanjuan-Szklarz, W. Fabiola'
'Gutmann, Matthias J.'
'Makal, Anna'
'Mali\'nska, Maura'
'Bak, Joanna M.'
'Wo\'zniak, Krzysztof'
_publ_section_title
;
 Statistical analysis of multipole-model-derived structural parameters and
 charge-density properties from high-resolution X-ray diffraction
 experiments
;
_journal_issue                   1
_journal_name_full               'Acta Crystallographica Section A'
_journal_page_first              72
_journal_page_last               91
_journal_paper_doi               10.1107/S2053273313028313
_journal_volume                  70
_journal_year                    2014
_chemical_formula_moiety         'C2 H2 O4, 2(H2 O1)'
_chemical_formula_sum            'C2 H6 O6'
_chemical_formula_weight         126.07
_space_group_IT_number           14
_symmetry_cell_setting           monoclinic
_symmetry_Int_Tables_number      14
_symmetry_space_group_name_Hall  '-P 2ybc'
_symmetry_space_group_name_H-M   'P 1 21/c 1'
_cell_angle_alpha                90.00
_cell_angle_beta                 103.842(2)
_cell_angle_gamma                90.00
_cell_formula_units_Z            2
_cell_length_a                   6.0931(4)
_cell_length_b                   3.4921(2)
_cell_length_c                   11.8409(7)
_cell_measurement_temperature    100(1)
_cell_volume                     244.63(3)
_diffrn_ambient_temperature      100(1)
_diffrn_measured_fraction_theta_full 0.980
_diffrn_measured_fraction_theta_max 0.950
_diffrn_measurement_device
;
Bruker AXS Kappa APEX II Ultra diffractometer
;
_diffrn_measurement_device_type  'APEX II CCD detector'
_diffrn_measurement_method       \w-scans
_diffrn_radiation_monochromator  'multi-layer optics'
_diffrn_radiation_source         'TXS rotating anode'
_diffrn_radiation_type           'Mo K\a'
_diffrn_radiation_wavelength     0.71073
_diffrn_reflns_av_R_equivalents  0.0197
_diffrn_reflns_av_sigmaI/netI    0.01769
_diffrn_reflns_limit_h_max       14
_diffrn_reflns_limit_h_min       -13
_diffrn_reflns_limit_k_max       8
_diffrn_reflns_limit_k_min       -7
_diffrn_reflns_limit_l_max       27
_diffrn_reflns_limit_l_min       -20
_diffrn_reflns_number            17234
_diffrn_reflns_theta_full        53.43
_diffrn_reflns_theta_max         56.997
_diffrn_reflns_theta_min         3.444
_exptl_absorpt_coefficient_mu    0.181
_exptl_absorpt_correction_T_max  0.997
_exptl_absorpt_correction_T_min  0.957
_exptl_absorpt_correction_type   multi-scan
_exptl_absorpt_process_details
;
 Absorption correction done by SORTAV
 Blessing, R. H.: (1995) Acta Cryst. A51, 33-38
;
_exptl_crystal_colour            colourless
_exptl_crystal_density_diffrn    1.712
_exptl_crystal_description       unspecified
_exptl_crystal_F_000             132
_exptl_crystal_size_max          0.243
_exptl_crystal_size_mid          0.201
_exptl_crystal_size_min          0.193
_refine_diff_density_max         +0.13
_refine_diff_density_min         -0.13
_refine_ls_extinction_method     none
_refine_ls_goodness_of_fit_ref   1.319
_refine_ls_hydrogen_treatment    mixed
_refine_ls_number_parameters     177
_refine_ls_number_reflns         2690
_refine_ls_number_restraints     3
_refine_ls_R_factor_all          0.0142
_refine_ls_R_factor_gt           0.0142
_refine_ls_shift/su_max          0.001
_refine_ls_shift/su_mean         0.000
_refine_ls_structure_factor_coef F
_refine_ls_weighting_details
;
w=1/[\s^2^(Fo)]
;
_refine_ls_weighting_scheme      sigma
_refine_ls_wR_factor_gt          0.0209
_refine_ls_wR_factor_ref         0.0209
_reflns_number_gt                2690
_reflns_number_total             3202
_reflns_threshold_expression     I>3\s(I)
_iucr_refine_instructions_details
;
 Multipole refinement with MOPRO program
;
_cod_data_source_file            pc5031sup1.cif
_cod_data_source_block           oxa01
_cod_original_sg_symbol_H-M      'P 21/c'
_cod_database_code               2310118
loop_
_symmetry_equiv_pos_as_xyz
'x, y, z'
'-x, y+1/2, -z+1/2'
'-x, -y, -z'
'x, -y-1/2, z-1/2'
loop_
_atom_site_type_symbol
_atom_site_label
_atom_site_fract_x
_atom_site_fract_y
_atom_site_fract_z
_atom_site_U_iso_or_equiv
_atom_site_adp_type
_atom_site_occupancy
_atom_site_calc_flag
O O1 0.43483(4) 0.44406(7) 0.34986(2) 0.01290(8) Uani 1 d
O O2 0.24237(3) 0.74277(7) 0.46367(2) 0.01267(7) Uani 1 d
C C1 0.40312(2) 0.55885(4) 0.44800(1) 0.00925(6) Uani 1 d
H H1 0.306(2) 0.516(5) 0.2738(7) 0.02242 Uani 1 d
O O3 0.13004(3) 0.63145(7) 0.17857(2) 0.01254(7) Uani 1 d
H H2 0.189(2) 0.692(6) 0.1112(6) 0.02820 Uani 1 d
H H3 0.025(2) 0.421(2) 0.157(2) 0.02793 Uani 1 d
loop_
_atom_site_aniso_label
_atom_site_aniso_U_11
_atom_site_aniso_U_22
_atom_site_aniso_U_33
_atom_site_aniso_U_12
_atom_site_aniso_U_13
_atom_site_aniso_U_23
O1 0.01268(6) 0.01829(8) 0.00726(6) 0.00458(5) 0.00148(5) -0.00073(5)
O2 0.01089(6) 0.01739(7) 0.00912(6) 0.00527(5) 0.00117(4) -0.00067(5)
C1 0.00911(5) 0.01093(6) 0.00741(5) 0.00169(3) 0.00142(3) -0.00010(3)
H1 0.0211 0.0257 0.0203 0.0018 0.0045 0.0002
O3 0.01051(6) 0.01750(7) 0.00882(6) -0.00197(5) 0.00074(4) 0.00104(5)
H2 0.0254 0.0395 0.0208 -0.0038 0.0079 0.0036
H3 0.0216 0.0293 0.0323 -0.0068 0.0055 -0.0020
loop_
_atom_type_symbol
_atom_type_description
_atom_type_scat_dispersion_real
_atom_type_scat_dispersion_imag
_atom_type_scat_source
C C 0.0033 0.0016 'Su & Coppens, Acta. Cryst. (1997) A53, 749'
H H 0.0000 0.0000 'Su & Coppens, Acta. Cryst. (1997) A53, 749'
O O 0.0106 0.0060 'Su & Coppens, Acta. Cryst. (1997) A53, 749'
loop_
_geom_angle_atom_site_label_1
_geom_angle_atom_site_label_2
_geom_angle_atom_site_label_3
_geom_angle
O1 C1 O2 126.86(2)
C1 O1 H1 116.5(8)
H2 O3 H3 107(2)
loop_
_geom_bond_atom_site_label_1
_geom_bond_atom_site_label_2
_geom_bond_distance
O1 C1 1.2868(3)
O1 H1 1.074(1)
O2 C1 1.2220(2)
O3 H3 0.970(1)
O3 H2 0.974(1)
loop_
_geom_torsion_atom_site_label_1
_geom_torsion_atom_site_label_2
_geom_torsion_atom_site_label_3
_geom_torsion_atom_site_label_4
_geom_torsion
O2 C1 O1 H1 -0.40(73)
loop_
_refln_index_h
_refln_index_k
_refln_index_l
_refln_F_squared_calc
_refln_F_squared_meas
_refln_F_squared_sigma
_refln_observed_status
-14 1 6 3.986 3.746 0.231 o
-13 0 6 35.206 35.972 0.803 o
-13 1 1 2.707 2.692 0.209 o
-13 1 2 14.802 14.221 0.397 o
-13 1 4 1.226 1.155 0.090 o
-13 1 5 10.043 10.561 0.410 o
-13 2 1 4.213 4.369 0.155 o
-13 2 3 1.091 0.999 0.191 o
-13 2 4 0.865 0.956 0.085 o
-13 2 5 1.280 1.255 0.154 o
-13 3 1 1.523 1.373 0.196 o
-13 3 2 0.470 0.548 0.164 o
-13 3 4 4.591 4.447 0.383 o
-13 3 5 2.409 2.011 0.129 o
-13 3 6 4.566 4.266 0.172 o
-13 3 7 2.495 2.293 0.194 o
-13 3 9 2.056 2.071 0.219 o
-12 0 2 9.126 8.568 0.510 o
-12 0 4 42.531 43.621 0.990 o
-12 0 6 4.280 6.110 0.312 o
-12 0 14 5.552 5.789 0.298 o
-12 0 16 18.863 19.039 0.461 o
-12 0 18 0.587 0.781 0.169 o
-12 0 20 3.024 2.783 0.227 o
-12 1 1 1.987 1.971 0.124 o
-12 1 2 1.034 0.991 0.110 o
-12 1 5 19.328 19.502 0.928 o
-12 1 6 4.609 4.836 0.192 o
-12 1 7 1.616 1.671 0.136 o
-12 1 15 14.107 14.644 0.654 o
-12 1 16 1.862 1.966 0.131 o
-12 1 17 0.870 0.937 0.099 o
-12 1 19 1.494 1.458 0.121 o
-12 1 20 3.741 3.811 0.257 o
-12 2 1 13.343 13.274 0.332 o
-12 2 2 5.375 5.511 0.307 o
-12 2 5 8.181 8.373 0.254 o
-12 2 7 3.496 3.503 0.133 o
-12 2 8 4.562 4.826 0.177 o
-12 2 9 4.214 4.207 0.167 o
-12 2 11 8.892 9.228 0.327 o
-12 2 12 1.112 1.187 0.088 o
-12 2 13 5.273 5.565 0.189 o
-12 2 14 0.347 0.399 0.089 o
-12 2 16 0.248 0.363 0.086 o
-12 2 17 0.313 0.316 0.083 o
-12 2 18 5.519 6.139 0.268 o
-12 2 19 3.468 3.876 0.229 o
-12 3 1 1.606 1.634 0.100 o
-12 3 2 0.482 0.463 0.074 o
-12 3 3 3.401 3.281 0.142 o
-12 3 6 0.870 0.921 0.103 o
-12 3 7 1.302 1.278 0.119 o
-12 3 11 1.748 1.789 0.127 o
-12 3 12 0.468 0.465 0.091 o
-12 3 13 0.495 0.524 0.073 o
-12 3 14 3.871 3.963 0.141 o
-12 3 16 1.806 1.621 0.201 o
-12 4 2 1.090 0.964 0.196 o
-12 4 3 1.992 2.035 0.112 o
-12 4 4 1.636 1.445 0.168 o
-12 4 5 2.404 2.077 0.136 o
-12 4 6 5.799 5.324 0.475 o
-12 4 8 0.542 0.615 0.079 o
-12 4 9 1.449 1.370 0.116 o
-12 4 11 1.667 1.546 0.116 o
-11 0 2 3.751 3.893 0.295 o
-11 0 4 9.432 9.537 0.272 o
-11 0 6 0.648 0.595 0.122 o
-11 0 10 8.145 8.064 0.247 o
-11 0 12 2.668 2.909 0.258 o
-11 0 14 34.960 35.574 0.753 o
-11 0 16 1.486 1.281 0.202 o
-11 0 18 12.582 12.724 0.396 o
-11 0 20 2.238 2.086 0.239 o
-11 0 22 8.067 8.389 0.309 o
-11 1 2 5.827 5.943 0.215 o
-11 1 3 13.741 13.698 0.477 o
-11 1 4 36.221 35.653 1.038 o
-11 1 5 2.079 2.105 0.141 o
-11 1 7 1.438 1.492 0.088 o
-11 1 8 1.367 1.448 0.138 o
-11 1 9 6.221 6.554 0.211 o
-11 1 10 3.844 3.901 0.161 o
-11 1 11 4.357 4.534 0.154 o
-11 1 12 13.822 14.128 0.349 o
-11 1 13 0.399 0.467 0.094 o
-11 1 14 6.489 6.724 0.279 o
-11 1 15 6.137 6.262 0.209 o
-11 1 16 2.632 2.732 0.126 o
-11 1 18 9.815 10.465 0.416 o
-11 1 19 11.714 11.727 0.397 o
-11 1 20 0.471 0.416 0.073 o
-11 2 1 2.750 2.764 0.134 o
-11 2 2 0.303 0.418 0.082 o
-11 2 3 1.297 1.289 0.115 o
-11 2 4 10.908 10.668 0.298 o
-11 2 5 2.104 2.164 0.133 o
-11 2 6 6.293 6.477 0.191 o
-11 2 7 8.296 8.569 0.223 o
-11 2 10 1.057 1.163 0.110 o
-11 2 11 2.251 2.036 0.160 o
-11 2 12 2.687 2.612 0.148 o
-11 2 13 0.535 0.529 0.068 o
-11 2 14 1.398 1.307 0.100 o
-11 2 15 10.662 10.946 0.281 o
-11 2 16 0.244 0.202 0.059 o
-11 2 17 0.801 0.677 0.093 o
-11 2 18 2.475 2.604 0.109 o
-11 2 19 1.029 0.999 0.072 o
-11 2 20 0.443 0.427 0.061 o
-11 2 21 3.859 4.005 0.231 o
-11 3 1 0.993 0.895 0.080 o
-11 3 2 3.337 3.104 0.142 o
-11 3 3 0.383 0.310 0.082 o
-11 3 4 4.602 4.701 0.282 o
-11 3 5 6.587 6.607 0.532 o
-11 3 6 2.984 3.045 0.121 o
-11 3 7 3.713 3.507 0.168 o
-11 3 9 1.367 1.134 0.107 o
-11 3 10 12.521 12.927 0.338 o
-11 3 11 4.168 4.460 0.179 o
-11 3 12 1.148 0.834 0.170 o
-11 3 13 2.722 2.584 0.281 o
-11 3 14 0.453 0.320 0.080 o
-11 3 16 3.891 3.921 0.167 o
-11 3 17 4.743 5.020 0.162 o
-11 4 1 1.372 1.315 0.115 o
-11 4 2 2.982 2.713 0.220 o
-11 4 3 5.818 5.558 0.377 o
-11 4 6 7.032 6.782 0.196 o
-11 4 7 0.412 0.491 0.074 o
-11 4 9 2.565 2.848 0.148 o
-11 4 10 3.867 3.719 0.161 o
-11 4 12 3.457 3.457 0.189 o
-11 4 13 6.067 6.048 0.379 o
-11 4 15 0.745 0.669 0.077 o
-11 4 16 0.627 0.595 0.090 o
-11 5 1 0.338 0.324 0.083 o
-11 5 2 6.736 6.434 0.203 o
-11 5 4 3.606 3.457 0.152 o
-11 5 5 0.595 0.479 0.106 o
-11 5 6 3.686 3.531 0.225 o
-11 5 8 1.254 1.215 0.113 o
-10 0 4 8.658 8.318 0.228 o
-10 0 6 12.162 12.167 0.327 o
-10 0 8 17.633 18.119 0.743 o
-10 0 10 12.282 12.013 0.765 o
-10 0 12 12.162 11.658 0.542 o
-10 0 14 0.878 0.779 0.100 o
-10 0 16 3.061 3.316 0.263 o
-10 0 18 64.647 67.548 1.513 o
-10 0 20 1.865 1.858 0.187 o
-10 0 22 1.342 1.358 0.120 o
-10 0 24 5.362 5.367 0.510 o
-10 1 1 3.419 3.445 0.108 o
-10 1 2 0.516 0.593 0.044 o
-10 1 3 2.190 2.217 0.087 o
-10 1 4 0.744 0.770 0.051 o
-10 1 5 9.784 9.454 0.228 o
-10 1 7 47.524 47.234 1.238 o
-10 1 8 20.224 19.911 0.464 o
-10 1 9 10.146 10.274 0.247 o
-10 1 10 6.357 6.483 0.175 o
-10 1 11 1.983 1.889 0.076 o
-10 1 12 3.953 4.022 0.117 o
-10 1 13 11.649 12.052 0.282 o
-10 1 14 18.507 18.534 0.427 o
-10 1 16 0.996 0.878 0.067 o
-10 1 17 15.424 15.952 0.373 o
-10 1 18 2.458 2.674 0.115 o
-10 1 19 1.916 1.944 0.103 o
-10 1 21 0.537 0.450 0.064 o
-10 1 22 12.154 12.343 0.392 o
-10 1 23 0.438 0.489 0.073 o
-10 2 1 0.554 0.512 0.053 o
-10 2 2 11.013 10.836 0.330 o
-10 2 3 49.099 50.134 1.175 o
-10 2 4 28.484 28.774 0.672 o
-10 2 7 1.341 1.341 0.064 o
-10 2 8 9.158 8.856 0.222 o
-10 2 9 13.757 13.718 0.352 o
-10 2 10 0.822 0.716 0.058 o
-10 2 11 12.037 12.114 0.327 o
-10 2 12 5.075 5.231 0.219 o
-10 2 13 11.553 12.045 0.292 o
-10 2 14 14.004 14.874 0.347 o
-10 2 16 0.750 0.646 0.058 o
-10 2 17 3.898 4.173 0.153 o
-10 2 18 0.610 0.532 0.061 o
-10 2 20 0.361 0.469 0.065 o
-10 2 21 1.121 1.214 0.079 o
-10 2 23 0.666 0.596 0.071 o
-10 3 1 2.599 2.625 0.122 o
-10 3 2 8.152 7.931 0.223 o
-10 3 3 3.585 3.685 0.236 o
-10 3 4 10.482 10.851 0.269 o
-10 3 6 11.142 11.222 0.389 o
-10 3 7 0.562 0.630 0.058 o
-10 3 8 5.992 6.069 0.247 o
-10 3 9 1.014 1.091 0.090 o
-10 3 10 7.979 8.155 0.345 o
-10 3 14 8.447 8.778 0.246 o
-10 3 15 2.755 2.862 0.160 o
-10 3 17 1.610 1.593 0.110 o
-10 3 19 0.955 0.942 0.071 o
-10 3 20 7.466 7.539 0.196 o
-10 3 21 3.030 3.263 0.180 o
-10 4 2 10.846 10.092 0.322 o
-10 4 3 6.527 6.467 0.288 o
-10 4 4 0.314 0.375 0.065 o
-10 4 5 1.153 1.074 0.077 o
-10 4 6 3.558 3.487 0.162 o
-10 4 8 3.374 3.054 0.197 o
-10 4 9 3.185 3.162 0.389 o
-10 4 10 7.483 7.576 0.241 o
-10 4 13 8.197 8.291 0.250 o
-10 4 16 11.257 11.129 0.299 o
-10 4 17 0.850 0.756 0.135 o
-10 4 19 1.239 1.323 0.155 o
-10 5 2 7.280 7.079 0.206 o
-10 5 4 2.427 2.215 0.141 o
-10 5 5 3.018 2.847 0.190 o
-10 5 6 6.310 6.236 0.174 o
-10 5 10 0.750 0.746 0.105 o
-10 5 11 1.283 1.054 0.104 o
-10 5 12 15.436 15.600 0.381 o
-10 5 14 0.958 0.790 0.094 o
-9 0 2 4.184 3.992 0.139 o
-9 0 4 57.435 56.555 1.230 o
-9 0 6 24.778 24.076 0.533 o
-9 0 8 4.428 4.265 0.140 o
-9 0 10 53.594 53.747 1.378 o
-9 0 14 1.967 1.965 0.095 o
-9 0 16 21.731 22.178 1.146 o
-9 0 20 1.072 1.111 0.112 o
-9 0 22 7.281 7.323 0.226 o
-9 0 24 4.341 4.184 0.164 o
-9 1 1 0.472 0.494 0.039 o
-9 1 2 1.420 1.488 0.061 o
-9 1 3 0.117 0.175 0.032 o
-9 1 4 10.465 10.528 0.245 o
-9 1 5 3.027 2.985 0.090 o
-9 1 6 22.535 22.311 0.513 o
-9 1 7 17.179 17.703 0.401 o
-9 1 8 4.955 4.784 0.134 o
-9 1 9 17.931 17.482 0.420 o
-9 1 10 1.176 1.185 0.057 o
-9 1 11 6.862 6.819 0.171 o
-9 1 13 0.342 0.365 0.041 o
-9 1 14 14.208 14.276 0.405 o
-9 1 15 0.593 0.568 0.046 o
-9 1 16 2.704 2.665 0.108 o
-9 1 17 37.114 37.528 0.839 o
-9 1 18 7.049 7.100 0.188 o
-9 1 19 2.828 2.726 0.107 o
-9 1 20 4.507 4.807 0.143 o
-9 1 21 7.202 7.313 0.191 o
-9 1 23 2.314 2.336 0.094 o
-9 1 24 0.572 0.747 0.076 o
-9 1 25 0.698 0.692 0.063 o
-9 2 1 4.839 5.046 0.152 o
-9 2 3 0.724 0.649 0.045 o
-9 2 4 0.333 0.361 0.038 o
-9 2 5 6.368 6.064 0.172 o
-9 2 6 34.378 35.808 0.803 o
-9 2 7 10.131 9.960 0.283 o
-9 2 8 56.812 56.468 1.248 o
-9 2 9 1.335 1.331 0.065 o
-9 2 10 5.473 5.642 0.158 o
-9 2 12 3.210 3.209 0.117 o
-9 2 13 32.434 32.380 0.727 o
-9 2 14 4.988 4.916 0.136 o
-9 2 15 0.507 0.507 0.052 o
-9 2 16 10.037 10.277 0.255 o
-9 2 17 8.543 9.087 0.229 o
-9 2 18 15.229 16.192 0.383 o
-9 2 19 4.150 4.118 0.143 o
-9 2 20 0.458 0.450 0.067 o
-9 2 21 7.620 7.622 0.203 o
-9 2 22 3.009 2.873 0.171 o
-9 2 23 8.107 8.411 0.215 o
-9 2 24 3.420 3.606 0.147 o
-9 3 1 2.957 2.892 0.111 o
-9 3 2 85.574 82.781 1.873 o
-9 3 3 12.717 13.131 0.308 o
-9 3 4 21.789 21.778 0.499 o
-9 3 6 1.059 1.062 0.056 o
-9 3 7 20.599 20.306 0.464 o
-9 3 8 6.863 6.712 0.173 o
-9 3 9 1.481 1.691 0.085 o
-9 3 10 5.113 5.024 0.168 o
-9 3 11 1.106 1.088 0.133 o
-9 3 12 42.701 44.184 0.993 o
-9 3 13 6.902 6.831 0.267 o
-9 3 14 6.332 6.276 0.223 o
-9 3 15 2.620 2.771 0.110 o
-9 3 16 3.214 3.312 0.111 o
-9 3 17 0.127 0.205 0.052 o
-9 3 18 2.950 3.037 0.139 o
-9 3 21 0.465 0.782 0.080 o
-9 3 22 2.620 2.581 0.119 o
-9 4 1 11.819 11.395 0.315 o
-9 4 2 3.802 3.463 0.148 o
-9 4 3 21.580 20.971 0.595 o
-9 4 4 0.318 0.320 0.051 o
-9 4 6 8.161 8.282 0.216 o
-9 4 7 0.868 0.960 0.078 o
-9 4 8 4.452 4.317 0.164 o
-9 4 9 1.723 1.732 0.119 o
-9 4 10 0.608 0.690 0.086 o
-9 4 11 5.941 5.869 0.220 o
-9 4 12 6.372 6.194 0.311 o
-9 4 13 7.668 7.866 0.231 o
-9 4 14 0.285 0.277 0.077 o
-9 4 18 0.323 0.249 0.078 o
-9 4 19 0.622 0.503 0.094 o
-9 4 20 6.094 6.474 0.237 o
-9 5 1 1.577 1.513 0.110 o
-9 5 6 0.848 0.887 0.086 o
-9 5 8 0.626 0.449 0.077 o
-9 5 9 3.729 3.889 0.172 o
-9 5 10 0.912 1.149 0.110 o
-9 5 12 3.312 3.342 0.160 o
-9 5 15 2.366 2.444 0.118 o
-9 5 16 9.184 10.153 0.258 o
-9 6 1 1.731 1.896 0.187 o
-9 6 3 4.344 4.374 0.354 o
-9 6 4 0.301 0.345 0.063 o
-9 6 5 3.664 3.638 0.135 o
-9 6 6 0.705 0.866 0.078 o
-9 6 10 0.998 0.880 0.170 o
-9 6 11 8.253 8.338 0.302 o
-8 0 2 3.591 3.555 0.145 o
-8 0 4 4.351 4.224 0.119 o
-8 0 8 51.404 50.762 1.113 o
-8 0 10 6.876 6.806 0.188 o
-8 0 12 3.117 3.083 0.104 o
-8 0 14 46.127 44.985 1.883 o
-8 0 16 12.105 12.743 0.309 o
-8 0 18 2.396 2.468 0.150 o
-8 0 20 43.029 44.086 0.975 o
-8 0 22 0.322 0.364 0.075 o
-8 0 24 0.598 0.801 0.083 o
-8 0 26 7.834 7.542 0.280 o
-8 1 1 29.639 29.957 0.695 o
-8 1 3 19.260 18.906 0.438 o
-8 1 4 30.216 29.716 0.692 o
-8 1 5 22.778 22.937 0.541 o
-8 1 6 1.686 1.708 0.055 o
-8 1 7 57.283 56.124 1.271 o
-8 1 8 6.040 5.931 0.148 o
-8 1 9 13.962 14.081 0.321 o
-8 1 10 37.820 36.830 0.810 o
-8 1 11 1.754 1.765 0.072 o
-8 1 12 1.877 1.719 0.076 o
-8 1 14 0.523 0.518 0.043 o
-8 1 15 16.345 16.802 0.428 o
-8 1 16 8.865 9.194 0.253 o
-8 1 17 7.201 7.236 0.198 o
-8 1 18 10.915 10.949 0.305 o
-8 1 20 1.163 1.152 0.073 o
-8 1 21 4.325 4.369 0.136 o
-8 1 23 1.073 0.907 0.066 o
-8 1 24 9.602 9.396 0.261 o
-8 1 25 0.242 0.248 0.054 o
-8 1 26 1.186 1.157 0.080 o
-8 2 1 40.367 40.205 0.933 o
-8 2 2 16.516 16.565 0.424 o
-8 2 3 7.149 7.055 0.176 o
-8 2 4 16.112 16.163 0.368 o
-8 2 5 34.329 34.665 0.797 o
-8 2 6 58.216 58.829 1.413 o
-8 2 7 6.697 6.629 0.164 o
-8 2 8 6.904 6.767 0.197 o
-8 2 9 1.415 1.406 0.069 o
-8 2 10 11.551 11.561 0.269 o
-8 2 11 20.796 20.651 0.480 o
-8 2 12 8.448 8.406 0.204 o
-8 2 13 2.106 2.168 0.078 o
-8 2 14 11.767 12.122 0.286 o
-8 2 16 38.569 39.310 1.026 o
-8 2 17 2.075 2.058 0.088 o
-8 2 18 14.450 14.574 0.448 o
-8 2 19 3.839 4.107 0.131 o
-8 2 20 0.476 0.341 0.054 o
-8 2 22 0.227 0.205 0.057 o
-8 2 23 3.080 2.920 0.145 o
-8 2 25 0.803 0.638 0.080 o
-8 3 1 0.244 0.283 0.046 o
-8 3 2 8.669 8.454 0.209 o
-8 3 3 7.065 7.100 0.187 o
-8 3 5 0.848 0.848 0.049 o
-8 3 6 34.333 34.313 0.764 o
-8 3 7 10.690 10.667 0.254 o
-8 3 8 22.665 21.891 0.563 o
-8 3 9 5.529 5.468 0.141 o
-8 3 10 9.702 9.975 0.267 o
-8 3 11 6.416 6.489 0.170 o
-8 3 12 52.662 53.127 1.261 o
-8 3 13 1.655 1.637 0.097 o
-8 3 14 1.439 1.281 0.085 o
-8 3 15 0.496 0.514 0.056 o
-8 3 16 18.266 18.175 0.517 o
-8 3 17 17.155 17.999 0.415 o
-8 3 19 1.144 1.118 0.066 o
-8 3 20 8.463 8.685 0.225 o
-8 3 22 25.462 24.435 0.549 o
-8 3 23 3.056 3.202 0.187 o
-8 4 1 21.752 21.696 0.494 o
-8 4 2 20.303 20.224 0.610 o
-8 4 3 16.140 16.065 0.374 o
-8 4 4 11.651 11.180 0.272 o
-8 4 5 3.140 3.043 0.100 o
-8 4 6 4.885 4.763 0.134 o
-8 4 7 3.065 3.104 0.115 o
-8 4 8 4.502 4.573 0.135 o
-8 4 10 0.324 0.320 0.067 o
-8 4 11 23.218 23.274 0.543 o
-8 4 12 17.916 18.100 0.436 o
-8 4 13 11.376 11.724 0.318 o
-8 4 15 3.145 3.225 0.208 o
-8 4 16 2.867 2.937 0.155 o
-8 4 18 5.281 5.115 0.160 o
-8 4 20 0.330 0.294 0.054 o
-8 4 21 7.681 8.089 0.226 o
-8 5 1 4.901 4.714 0.173 o
-8 5 2 28.117 27.932 0.631 o
-8 5 5 1.413 1.626 0.107 o
-8 5 6 0.456 0.459 0.082 o
-8 5 7 4.921 4.787 0.156 o
-8 5 8 8.357 8.269 0.223 o
-8 5 10 2.436 2.261 0.151 o
-8 5 12 0.965 0.820 0.085 o
-8 5 14 0.640 0.580 0.081 o
-8 5 15 0.720 0.760 0.081 o
-8 5 19 1.006 0.966 0.091 o
-8 6 1 0.359 0.294 0.078 o
-8 6 2 0.678 0.593 0.069 o
-8 6 3 0.364 0.363 0.065 o
-8 6 4 0.755 0.779 0.080 o
-8 6 6 0.453 0.411 0.074 o
-8 6 7 1.290 1.280 0.110 o
-8 6 11 0.734 0.875 0.177 o
-8 6 13 1.665 1.855 0.209 o
-8 6 14 0.500 0.501 0.086 o
-7 0 2 14.545 14.639 0.447 o
-7 0 4 40.931 41.050 0.931 o
-7 0 6 262.885 261.553 6.132 o
-7 0 8 0.291 0.274 0.035 o
-7 0 10 1.506 1.361 0.068 o
-7 0 12 6.042 5.876 0.151 o
-7 0 14 10.716 13.057 0.422 o
-7 0 16 7.581 7.414 0.227 o
-7 0 18 7.892 7.900 0.301 o
-7 0 20 0.565 0.429 0.067 o
-7 0 22 0.466 0.420 0.079 o
-7 0 24 8.280 8.511 0.410 o
-7 0 26 2.094 1.671 0.229 o
-7 1 1 18.308 18.455 0.441 o
-7 1 2 88.292 87.772 2.081 o
-7 1 3 3.824 3.873 0.098 o
-7 1 4 0.410 0.417 0.028 o
-7 1 5 2.222 2.286 0.064 o
-7 1 6 20.049 19.629 0.448 o
-7 1 7 54.285 53.126 1.175 o
-7 1 9 10.719 10.755 0.248 o
-7 1 10 30.621 30.302 0.677 o
-7 1 11 48.213 47.309 1.053 o
-7 1 12 3.020 2.887 0.090 o
-7 1 13 9.958 9.650 0.229 o
-7 1 14 15.980 15.753 0.379 o
-7 1 15 13.842 14.178 0.355 o
-7 1 16 6.139 6.272 0.179 o
-7 1 17 23.269 23.895 0.534 o
-7 1 18 0.228 0.232 0.041 o
-7 1 19 27.496 27.659 0.664 o
-7 1 20 4.550 4.635 0.138 o
-7 1 21 3.103 3.110 0.114 o
-7 1 22 1.440 1.255 0.100 o
-7 1 23 1.030 0.968 0.072 o
-7 1 24 0.834 0.889 0.067 o
-7 1 25 8.206 7.732 0.199 o
-7 1 26 0.672 0.670 0.065 o
-7 2 2 0.330 0.359 0.029 o
-7 2 3 23.502 22.948 0.516 o
-7 2 4 3.648 3.545 0.093 o
-7 2 5 10.284 10.303 0.237 o
-7 2 6 2.285 2.204 0.066 o
-7 2 7 20.261 19.795 0.446 o
-7 2 8 17.079 16.915 0.400 o
-7 2 9 18.059 16.954 0.385 o
-7 2 10 81.982 79.691 2.007 o
-7 2 11 23.402 23.339 0.525 o
-7 2 12 7.969 8.179 0.198 o
-7 2 13 5.427 5.229 0.142 o
-7 2 14 3.524 3.586 0.111 o
-7 2 15 43.060 43.876 0.961 o
-7 2 16 12.699 13.233 0.434 o
-7 2 17 2.153 2.128 0.081 o
-7 2 18 4.993 5.074 0.141 o
-7 2 19 0.245 0.286 0.046 o
-7 2 20 24.429 25.099 0.563 o
-7 2 21 13.059 12.772 0.473 o
-7 2 22 4.828 4.723 0.147 o
-7 2 23 4.088 3.867 0.130 o
-7 2 24 5.162 5.019 0.195 o
-7 2 25 2.715 2.500 0.128 o
-7 2 26 7.201 6.712 0.560 o
-7 3 1 2.047 2.040 0.075 o
-7 3 2 1.940 1.886 0.072 o
-7 3 3 2.317 2.303 0.080 o
-7 3 4 78.075 77.587 1.729 o
-7 3 5 35.343 34.453 0.764 o
-7 3 6 16.483 16.266 0.372 o
-7 3 9 9.973 10.014 0.237 o
-7 3 10 11.654 11.378 0.297 o
-7 3 11 0.275 0.262 0.036 o
-7 3 12 1.059 0.981 0.055 o
-7 3 13 7.675 7.902 0.209 o
-7 3 14 23.768 24.160 0.541 o
-7 3 15 4.871 4.823 0.152 o
-7 3 16 23.375 23.846 0.612 o
-7 3 17 0.188 0.243 0.049 o
-7 3 18 10.477 10.353 0.364 o
-7 3 20 2.827 2.902 0.161 o
-7 3 21 2.897 3.024 0.135 o
-7 3 22 3.011 2.704 0.155 o
-7 3 24 2.675 2.740 0.121 o
-7 4 1 22.147 21.071 0.486 o
-7 4 2 6.743 6.855 0.178 o
-7 4 3 0.595 0.684 0.050 o
-7 4 4 2.120 2.070 0.082 o
-7 4 5 23.948 23.887 0.583 o
-7 4 6 4.385 4.582 0.148 o
-7 4 7 4.544 4.537 0.133 o
-7 4 8 27.283 27.304 0.625 o
-7 4 9 5.506 5.634 0.178 o
-7 4 10 0.226 0.231 0.053 o
-7 4 11 14.802 14.677 0.478 o
-7 4 12 3.697 3.538 0.123 o
-7 4 14 3.547 3.535 0.135 o
-7 4 15 13.049 12.281 0.528 o
-7 4 16 10.059 9.975 0.263 o
-7 4 17 3.762 3.906 0.128 o
-7 4 19 0.753 0.675 0.064 o
-7 4 20 0.278 0.220 0.063 o
-7 4 21 8.231 8.501 0.240 o
-7 4 22 10.443 10.567 0.403 o
-7 5 1 4.010 3.933 0.146 o
-7 5 2 20.183 20.381 0.471 o
-7 5 3 3.681 3.510 0.146 o
-7 5 4 1.906 1.847 0.103 o
-7 5 5 0.991 0.996 0.079 o
-7 5 6 8.156 8.335 0.224 o
-7 5 7 0.650 0.547 0.064 o
-7 5 10 5.502 5.490 0.291 o
-7 5 11 9.667 9.400 0.253 o
-7 5 12 26.319 26.947 0.620 o
-7 5 14 1.245 1.339 0.102 o
-7 5 16 0.220 0.198 0.064 o
-7 5 17 2.604 2.498 0.135 o
-7 5 18 4.052 4.238 0.144 o
-7 5 19 0.614 0.551 0.166 o
-7 5 20 3.798 3.923 0.230 o
-7 6 1 17.112 16.831 1.509 o
-7 6 2 3.240 3.398 0.169 o
-7 6 4 0.713 0.734 0.102 o
-7 6 5 1.352 1.158 0.246 o
-7 6 6 6.461 6.492 0.217 o
-7 6 7 2.549 2.364 0.214 o
-7 6 8 4.639 4.643 0.240 o
-7 6 9 2.248 2.619 0.250 o
-7 6 11 1.972 1.982 0.230 o
-7 6 16 1.902 2.148 0.204 o
-7 7 4 0.777 0.752 0.160 o
-7 7 5 2.536 2.487 0.215 o
-7 7 6 0.915 0.896 0.167 o
-7 7 7 0.464 0.970 0.165 o
-6 0 2 185.439 191.524 5.974 o
-6 0 4 3.091 3.027 0.100 o
-6 0 6 171.063 171.354 3.820 o
-6 0 8 1.094 1.160 0.071 o
-6 0 10 302.070 295.923 7.053 o
-6 0 14 26.735 26.829 0.617 o
-6 0 16 134.371 138.212 3.121 o
-6 0 18 15.591 16.266 0.381 o
-6 0 20 10.253 10.339 0.285 o
-6 0 22 2.761 3.049 0.140 o
-6 0 24 13.513 13.526 0.517 o
-6 0 26 5.004 4.966 0.177 o
-6 1 1 1.401 1.447 0.051 o
-6 1 2 6.846 6.951 0.168 o
-6 1 3 1.236 1.287 0.045 o
-6 1 4 32.712 33.089 0.739 o
-6 1 5 99.307 100.037 2.225 o
-6 1 6 158.892 158.370 3.547 o
-6 1 7 2.760 2.889 0.081 o
-6 1 8 3.073 3.063 0.085 o
-6 1 9 45.895 45.378 1.010 o
-6 1 10 53.063 51.642 1.148 o
-6 1 11 4.053 4.181 0.108 o
-6 1 12 44.229 43.265 0.963 o
-6 1 13 4.955 5.098 0.131 o
-6 1 14 23.120 22.433 0.501 o
-6 1 15 3.715 3.734 0.104 o
-6 1 16 0.686 0.581 0.042 o
-6 1 17 1.064 1.064 0.052 o
-6 1 18 0.754 0.671 0.045 o
-6 1 19 12.387 12.468 0.293 o
-6 1 20 29.082 29.343 0.653 o
-6 1 21 13.411 13.375 0.324 o
-6 1 22 1.502 1.448 0.113 o
-6 1 23 2.202 2.284 0.113 o
-6 1 24 0.290 0.231 0.059 o
-6 1 25 1.399 1.244 0.097 o
-6 1 26 1.690 1.674 0.107 o
-6 1 27 1.897 1.805 0.138 o
-6 2 1 72.718 72.823 1.648 o
-6 2 2 40.517 40.741 0.917 o
-6 2 3 62.946 63.622 1.421 o
-6 2 4 5.559 5.631 0.135 o
-6 2 5 4.417 4.467 0.122 o
-6 2 6 1.110 1.172 0.044 o
-6 2 7 0.232 0.255 0.024 o
-6 2 8 13.667 13.913 0.319 o
-6 2 9 32.910 32.536 0.737 o
-6 2 10 10.019 9.912 0.233 o
-6 2 11 0.250 0.245 0.028 o
-6 2 12 9.622 9.399 0.231 o
-6 2 13 0.254 0.235 0.036 o
-6 2 14 6.881 6.630 0.165 o
-6 2 15 2.890 2.873 0.092 o
-6 2 16 0.387 0.345 0.043 o
-6 2 17 9.801 10.033 0.262 o
-6 2 18 20.070 20.277 0.458 o
-6 2 19 2.602 2.596 0.095 o
-6 2 20 21.662 21.158 0.745 o
-6 2 21 1.690 1.663 0.080 o
-6 2 23 0.568 0.597 0.072 o
-6 2 24 0.231 0.211 0.066 o
-6 2 25 13.187 12.844 0.324 o
-6 3 1 13.433 13.339 0.309 o
-6 3 2 12.238 11.843 0.291 o
-6 3 3 1.449 1.814 0.061 o
-6 3 4 4.577 4.887 0.127 o
-6 3 5 0.691 0.682 0.037 o
-6 3 6 6.418 7.011 0.208 o
-6 3 7 8.221 8.044 0.213 o
-6 3 8 42.187 41.100 0.914 o
-6 3 9 33.305 32.876 0.732 o
-6 3 10 0.555 0.609 0.041 o
-6 3 11 4.419 4.448 0.120 o
-6 3 12 0.430 0.779 0.051 o
-6 3 13 7.045 6.959 0.183 o
-6 3 14 57.704 58.577 1.294 o
-6 3 15 13.111 13.760 0.332 o
-6 3 16 1.874 1.891 0.082 o
-6 3 17 0.648 0.586 0.057 o
-6 3 18 8.926 8.680 0.267 o
-6 3 19 15.965 16.001 0.646 o
-6 3 20 1.045 0.965 0.065 o
-6 3 21 0.450 0.481 0.061 o
-6 3 22 5.239 4.438 0.158 o
-6 3 23 0.979 0.796 0.082 o
-6 3 24 19.722 20.099 0.463 o
-6 3 25 2.252 2.166 0.145 o
-6 4 1 8.112 8.253 0.218 o
-6 4 3 7.280 7.016 0.181 o
-6 4 4 44.025 43.231 0.978 o
-6 4 5 40.435 40.241 0.971 o
-6 4 6 1.998 1.933 0.090 o
-6 4 8 7.097 7.038 0.178 o
-6 4 10 1.963 1.935 0.107 o
-6 4 11 7.123 7.142 0.189 o
-6 4 12 11.989 12.063 0.288 o
-6 4 13 14.216 13.800 0.345 o
-6 4 14 14.301 14.252 0.338 o
-6 4 15 23.598 23.423 0.692 o
-6 4 16 0.545 0.568 0.057 o
-6 4 18 7.034 6.849 0.217 o
-6 4 19 1.059 1.100 0.079 o
-6 4 21 1.506 1.515 0.091 o
-6 4 22 0.559 0.518 0.065 o
-6 4 23 3.883 3.992 0.155 o
-6 5 2 0.647 0.807 0.067 o
-6 5 3 1.194 1.212 0.086 o
-6 5 4 38.756 37.905 0.925 o
-6 5 6 6.964 6.880 0.193 o
-6 5 7 2.769 2.810 0.147 o
-6 5 8 16.683 16.621 0.388 o
-6 5 9 1.425 1.374 0.076 o
-6 5 10 15.932 15.356 0.369 o
-6 5 11 0.557 0.536 0.069 o
-6 5 12 0.254 0.234 0.065 o
-6 5 13 0.642 0.524 0.069 o
-6 5 14 2.442 2.351 0.111 o
-6 5 15 1.475 1.495 0.106 o
-6 5 16 8.239 8.650 0.244 o
-6 5 17 0.265 0.282 0.061 o
-6 5 18 1.593 1.616 0.100 o
-6 5 21 3.516 3.265 0.208 o
-6 6 1 1.850 1.835 0.108 o
-6 6 2 4.485 4.628 0.179 o
-6 6 3 0.401 0.561 0.085 o
-6 6 4 3.364 3.383 0.188 o
-6 6 5 9.927 9.918 0.282 o
-6 6 6 1.113 2.068 0.121 o
-6 6 7 0.826 0.741 0.098 o
-6 6 8 0.515 0.534 0.101 o
-6 6 10 5.398 5.447 0.415 o
-6 6 11 10.736 10.030 0.545 o
-6 6 12 4.646 4.910 0.280 o
-6 6 13 0.820 0.737 0.210 o
-6 6 14 0.969 1.029 0.103 o
-6 6 15 3.994 3.786 0.158 o
-6 6 16 2.258 2.151 0.206 o
-6 7 1 6.279 6.089 0.200 o
-6 7 3 0.347 0.284 0.076 o
-6 7 4 0.511 0.437 0.102 o
-6 7 5 0.460 0.350 0.091 o
-6 7 6 1.355 1.196 0.092 o
-6 7 7 2.860 2.803 0.156 o
-6 7 9 2.832 2.941 0.228 o
-6 7 11 1.727 1.679 0.204 o
-5 0 2 94.012 95.375 2.147 o
-5 0 4 19.135 18.637 0.460 o
-5 0 6 121.800 120.819 2.713 o
-5 0 8 295.981 299.394 7.074 o
-5 0 10 105.383 106.109 2.373 o
-5 0 12 45.858 45.443 1.110 o
-5 0 14 0.643 0.586 0.042 o
-5 0 18 28.117 27.652 0.601 o
-5 0 20 103.245 106.185 2.413 o
-5 0 24 0.626 0.572 0.097 o
-5 0 26 14.712 14.503 0.426 o
-5 1 1 58.273 58.342 1.296 o
-5 1 2 261.064 264.108 5.970 o
-5 1 3 51.995 53.089 1.180 o
-5 1 4 96.092 97.292 2.158 o
-5 1 5 31.812 31.646 0.712 o
-5 1 6 4.040 4.125 0.104 o
-5 1 7 1.061 1.108 0.042 o
-5 1 8 17.841 17.736 0.419 o
-5 1 9 276.950 272.271 6.265 o
-5 1 10 27.424 26.559 0.600 o
-5 1 11 0.211 0.204 0.027 o
-5 1 12 26.075 25.739 0.574 o
-5 1 13 9.710 9.188 0.224 o
-5 1 14 27.284 27.232 0.637 o
-5 1 15 41.081 41.309 0.912 o
-5 1 16 56.669 57.108 1.388 o
-5 1 17 16.855 16.599 0.417 o
-5 1 18 0.606 0.606 0.045 o
-5 1 19 42.712 43.306 1.026 o
-5 1 20 0.601 0.622 0.054 o
-5 1 21 1.022 0.977 0.062 o
-5 1 22 1.428 1.512 0.085 o
-5 1 24 16.973 16.139 0.602 o
-5 1 25 1.107 1.183 0.119 o
-5 1 26 3.099 2.725 0.146 o
-5 1 27 2.568 2.353 0.112 o
-5 2 1 9.518 9.798 0.226 o
-5 2 2 0.610 0.643 0.028 o
-5 2 3 4.378 4.486 0.110 o
-5 2 4 29.221 29.266 0.663 o
-5 2 5 183.601 184.472 4.144 o
-5 2 6 85.100 83.676 1.909 o
-5 2 7 22.492 22.568 0.514 o
-5 2 8 2.008 2.019 0.070 o
-5 2 9 0.174 0.169 0.022 o
-5 2 11 42.134 40.871 0.957 o
-5 2 12 25.658 24.798 0.563 o
-5 2 13 76.211 75.474 1.675 o
-5 2 14 0.734 0.654 0.048 o
-5 2 15 12.652 12.485 0.292 o
-5 2 16 3.541 3.561 0.104 o
-5 2 17 8.190 8.145 0.241 o
-5 2 18 5.067 5.247 0.141 o
-5 2 19 11.708 11.726 0.375 o
-5 2 21 0.244 0.168 0.049 o
-5 2 22 10.436 10.268 0.438 o
-5 2 23 8.158 7.786 0.269 o
-5 2 24 1.736 1.862 0.113 o
-5 3 1 20.924 20.521 0.468 o
-5 3 2 0.072 0.085 0.022 o
-5 3 3 6.367 6.261 0.154 o
-5 3 4 11.923 11.846 0.287 o
-5 3 5 3.856 3.847 0.099 o
-5 3 6 4.922 4.792 0.121 o
-5 3 7 16.665 16.363 0.370 o
-5 3 8 2.287 2.283 0.075 o
-5 3 10 6.805 6.616 0.161 o
-5 3 11 0.571 0.615 0.036 o
-5 3 12 0.736 0.716 0.040 o
-5 3 14 0.860 0.916 0.063 o
-5 3 15 2.421 2.262 0.090 o
-5 3 18 13.256 13.199 0.386 o
-5 3 19 6.208 6.064 0.194 o
-5 3 20 0.283 0.310 0.053 o
-5 3 21 0.942 0.806 0.068 o
-5 3 23 4.018 4.000 0.130 o
-5 3 24 9.594 9.005 0.250 o
-5 3 25 1.000 0.848 0.093 o
-5 4 1 3.510 3.423 0.103 o
-5 4 3 24.812 24.350 0.552 o
-5 4 4 24.847 24.671 0.555 o
-5 4 5 14.380 13.748 0.317 o
-5 4 7 1.215 1.131 0.058 o
-5 4 8 26.287 25.787 0.569 o
-5 4 10 24.694 24.828 0.575 o
-5 4 11 0.369 0.380 0.051 o
-5 4 12 2.124 2.081 0.083 o
-5 4 13 15.600 15.828 0.366 o
-5 4 14 7.519 7.395 0.193 o
-5 4 15 13.990 14.183 0.335 o
-5 4 17 2.498 2.348 0.100 o
-5 4 18 17.421 17.650 0.559 o
-5 4 19 0.459 0.538 0.061 o
-5 4 21 0.227 0.201 0.067 o
-5 4 22 2.803 2.479 0.456 o
-5 4 23 9.993 9.417 0.324 o
-5 4 24 6.682 6.785 0.269 o
-5 5 1 2.883 2.877 0.122 o
-5 5 2 4.265 4.075 0.154 o
-5 5 3 3.288 3.325 0.138 o
-5 5 4 68.029 67.808 1.502 o
-5 5 5 0.216 0.394 0.070 o
-5 5 6 9.345 8.650 0.229 o
-5 5 7 2.591 2.522 0.099 o
-5 5 8 6.527 6.511 0.213 o
-5 5 9 3.053 3.132 0.107 o
-5 5 10 3.772 3.602 0.118 o
-5 5 12 12.049 12.648 0.338 o
-5 5 13 4.353 4.365 0.147 o
-5 5 14 52.085 49.887 2.488 o
-5 5 16 0.789 0.723 0.068 o
-5 5 18 1.532 1.491 0.125 o
-5 5 19 1.154 1.119 0.215 o
-5 5 20 3.020 2.711 0.194 o
-5 6 2 0.334 0.482 0.082 o
-5 6 3 20.632 20.887 1.046 o
-5 6 4 3.012 3.011 0.159 o
-5 6 5 1.488 1.283 0.207 o
-5 6 6 0.936 0.940 0.107 o
-5 6 7 1.768 1.875 0.118 o
-5 6 8 12.272 12.467 0.455 o
-5 6 9 2.583 2.644 0.127 o
-5 6 10 10.352 10.159 0.293 o
-5 6 11 0.781 0.849 0.106 o
-5 6 13 1.653 1.455 0.124 o
-5 6 15 4.363 4.417 0.333 o
-5 7 2 1.022 0.881 0.084 o
-5 7 3 0.643 0.620 0.071 o
-5 7 4 0.420 0.409 0.068 o
-5 7 7 2.602 2.596 0.146 o
-5 7 9 2.379 2.337 0.225 o
-5 7 10 2.203 2.329 0.221 o
-5 7 11 2.808 2.646 0.221 o
-4 0 2 1009.642 1014.716 24.572 o
-4 0 4 126.127 130.362 2.858 o
-4 0 6 48.027 47.483 1.053 o
-4 0 8 594.965 592.100 14.641 o
-4 0 10 1.813 1.710 0.081 o
-4 0 12 251.626 251.150 5.838 o
-4 0 14 1.863 1.823 0.067 o
-4 0 16 58.630 60.205 1.453 o
-4 0 18 137.881 142.465 3.245 o
-4 0 22 1.411 1.476 0.113 o
-4 0 24 1.976 1.996 0.133 o
-4 0 26 12.563 11.698 0.389 o
-4 1 1 96.644 96.559 2.139 o
-4 1 2 59.078 59.994 1.329 o
-4 1 3 1.699 1.739 0.048 o
-4 1 4 34.122 35.710 0.799 o
-4 1 5 0.047 0.057 0.013 o
-4 1 6 185.732 185.847 4.145 o
-4 1 7 90.238 92.442 2.061 o
-4 1 8 184.424 183.263 4.172 o
-4 1 9 47.764 47.914 1.115 o
-4 1 11 1.776 1.801 0.063 o
-4 1 12 85.342 84.942 2.020 o
-4 1 13 15.958 16.057 0.364 o
-4 1 14 17.296 17.019 0.388 o
-4 1 15 0.126 0.107 0.030 o
-4 1 16 22.978 22.939 0.523 o
-4 1 17 4.825 4.654 0.127 o
-4 1 18 1.110 1.115 0.061 o
-4 1 19 54.582 55.808 1.231 o
-4 1 20 12.542 12.605 0.298 o
-4 1 21 1.661 1.537 0.081 o
-4 1 22 23.583 23.447 0.717 o
-4 1 23 9.781 9.720 0.246 o
-4 1 24 2.901 2.877 0.132 o
-4 1 25 4.667 4.605 0.200 o
-4 1 26 2.563 2.538 0.142 o
-4 1 27 6.579 5.666 0.190 o
-4 2 1 55.513 55.936 1.250 o
-4 2 2 13.336 13.343 0.309 o
-4 2 3 81.923 81.824 1.828 o
-4 2 4 64.663 64.507 1.435 o
-4 2 5 6.166 6.336 0.165 o
-4 2 6 5.851 6.143 0.161 o
-4 2 7 6.986 7.237 0.172 o
-4 2 8 85.221 85.314 1.949 o
-4 2 9 14.445 14.087 0.322 o
-4 2 10 31.836 31.838 0.711 o
-4 2 11 7.913 7.967 0.199 o
-4 2 12 0.788 0.825 0.038 o
-4 2 13 3.384 3.339 0.094 o
-4 2 14 23.438 23.027 0.537 o
-4 2 15 35.530 35.655 0.797 o
-4 2 16 10.660 10.602 0.255 o
-4 2 17 7.643 7.546 0.211 o
-4 2 18 8.084 8.054 0.262 o
-4 2 19 6.343 6.400 0.167 o
-4 2 21 4.573 4.570 0.171 o
-4 2 22 4.075 4.060 0.225 o
-4 2 23 19.797 18.902 0.501 o
-4 2 24 2.639 2.692 0.130 o
-4 2 25 3.352 3.345 0.132 o
-4 2 26 1.364 1.305 0.114 o
-4 2 27 7.603 7.334 0.276 o
-4 3 1 5.253 5.335 0.132 o
-4 3 2 13.874 14.100 0.327 o
-4 3 3 24.120 23.676 0.535 o
-4 3 4 250.698 248.014 5.689 o
-4 3 5 30.516 28.932 0.650 o
-4 3 6 8.608 8.333 0.197 o
-4 3 7 5.431 5.464 0.137 o
-4 3 8 0.242 0.298 0.034 o
-4 3 9 38.695 37.871 0.849 o
-4 3 10 66.752 64.785 1.445 o
-4 3 11 21.899 21.383 0.483 o
-4 3 12 12.803 12.776 0.297 o
-4 3 13 1.051 1.011 0.054 o
-4 3 14 33.254 32.358 0.714 o
-4 3 15 6.132 6.158 0.160 o
-4 3 16 4.153 4.059 0.123 o
-4 3 17 15.346 15.108 0.406 o
-4 3 18 2.705 2.563 0.093 o
-4 3 20 6.524 6.258 0.176 o
-4 3 21 1.623 1.624 0.083 o
-4 3 22 1.249 0.903 0.068 o
-4 3 23 0.489 0.345 0.058 o
-4 3 25 0.839 0.805 0.165 o
-4 4 1 0.199 0.176 0.028 o
-4 4 2 5.303 5.310 0.135 o
-4 4 3 62.444 60.512 1.375 o
-4 4 4 0.838 1.121 0.063 o
-4 4 5 11.924 11.572 0.272 o
-4 4 6 29.913 29.396 0.661 o
-4 4 7 10.255 9.612 0.234 o
-4 4 8 4.647 4.563 0.126 o
-4 4 9 2.301 2.222 0.095 o
-4 4 10 3.044 3.009 0.094 o
-4 4 11 0.119 0.131 0.036 o
-4 4 12 0.339 0.455 0.058 o
-4 4 13 30.164 30.305 0.672 o
-4 4 14 23.772 23.922 0.579 o
-4 4 15 0.888 0.856 0.064 o
-4 4 16 1.926 1.918 0.092 o
-4 4 17 4.914 4.821 0.151 o
-4 4 18 2.243 2.319 0.109 o
-4 4 20 4.864 4.848 0.166 o
-4 4 21 0.328 0.351 0.074 o
-4 4 22 3.010 3.077 0.278 o
-4 4 23 5.923 5.234 0.521 o
-4 5 2 23.323 22.585 0.506 o
-4 5 3 2.375 2.496 0.097 o
-4 5 4 0.568 0.504 0.059 o
-4 5 6 5.737 5.613 0.184 o
-4 5 8 8.476 8.500 0.222 o
-4 5 9 0.199 0.166 0.052 o
-4 5 10 13.001 12.616 0.307 o
-4 5 11 1.443 1.395 0.096 o
-4 5 12 8.122 8.226 0.234 o
-4 5 13 0.585 0.555 0.107 o
-4 5 14 14.091 13.738 0.361 o
-4 5 15 0.252 0.261 0.078 o
-4 5 17 1.729 1.657 0.131 o
-4 5 18 12.866 13.058 0.380 o
-4 5 19 0.508 0.436 0.095 o
-4 5 22 6.468 6.156 0.258 o
-4 6 2 5.130 4.952 0.189 o
-4 6 3 13.842 14.108 0.468 o
-4 6 4 3.642 3.674 0.153 o
-4 6 5 6.074 5.910 0.456 o
-4 6 6 1.873 1.835 0.136 o
-4 6 7 10.129 9.834 0.287 o
-4 6 8 1.520 1.481 0.112 o
-4 6 11 0.546 0.524 0.079 o
-4 6 12 4.591 4.457 0.308 o
-4 6 13 21.375 20.667 0.679 o
-4 6 14 5.328 5.783 0.277 o
-4 6 16 1.158 1.118 0.204 o
-4 7 2 4.913 4.839 0.319 o
-4 7 3 5.377 5.726 0.485 o
-4 7 4 2.943 2.662 0.150 o
-4 7 6 0.926 1.028 0.105 o
-4 7 7 2.969 2.788 0.249 o
-4 7 8 2.232 2.019 0.231 o
-4 7 9 8.293 8.215 0.376 o
-4 7 11 0.913 0.900 0.171 o
-3 0 2 15.152 15.202 0.342 o
-3 0 4 93.652 93.376 2.107 o
-3 0 6 13.717 14.971 0.347 o
-3 0 8 23.645 23.658 0.542 o
-3 0 10 4.312 4.446 0.128 o
-3 0 12 150.636 151.482 3.387 o
-3 0 14 18.628 18.524 0.421 o
-3 0 16 13.785 14.408 0.335 o
-3 0 18 33.948 35.794 0.781 o
-3 0 20 10.336 10.182 0.258 o
-3 0 22 100.963 100.059 2.417 o
-3 0 24 0.053 0.584 0.182 o
-3 0 26 4.763 4.696 0.280 o
-3 1 1 344.316 337.035 7.579 o
-3 1 2 35.633 35.448 0.786 o
-3 1 3 164.299 170.860 3.795 o
-3 1 4 238.702 242.634 5.413 o
-3 1 5 219.004 224.726 5.011 o
-3 1 6 0.331 0.341 0.018 o
-3 1 7 355.706 363.939 8.248 o
-3 1 8 8.772 8.827 0.210 o
-3 1 9 64.512 64.018 1.426 o
-3 1 10 3.624 3.845 0.101 o
-3 1 11 165.039 166.356 3.939 o
-3 1 12 55.134 56.382 1.255 o
-3 1 13 0.870 0.897 0.041 o
-3 1 14 0.353 0.346 0.029 o
-3 1 15 0.100 0.132 0.029 o
-3 1 16 32.605 32.613 0.726 o
-3 1 17 61.895 61.158 1.348 o
-3 1 18 39.772 40.869 0.912 o
-3 1 19 0.269 0.299 0.055 o
-3 1 20 2.104 2.097 0.104 o
-3 1 21 8.567 8.570 0.226 o
-3 1 22 2.265 2.288 0.112 o
-3 1 23 1.966 2.045 0.107 o
-3 1 24 0.221 0.248 0.065 o
-3 1 25 1.380 1.235 0.090 o
-3 1 26 18.666 18.149 0.581 o
-3 1 27 2.488 2.154 0.158 o
-3 2 1 86.914 87.675 1.943 o
-3 2 2 185.961 187.880 4.189 o
-3 2 3 310.819 316.220 7.140 o
-3 2 4 28.795 28.473 0.636 o
-3 2 5 2.855 2.686 0.073 o
-3 2 6 142.591 145.252 3.235 o
-3 2 7 174.500 175.563 3.918 o
-3 2 8 301.773 296.922 6.821 o
-3 2 9 53.000 54.309 1.202 o
-3 2 10 11.527 11.521 0.264 o
-3 2 11 24.116 23.872 0.538 o
-3 2 12 2.177 2.161 0.071 o
-3 2 13 55.072 55.459 1.331 o
-3 2 14 0.898 0.953 0.048 o
-3 2 15 29.594 29.777 0.709 o
-3 2 16 15.381 15.477 0.356 o
-3 2 17 1.083 0.974 0.060 o
-3 2 18 45.646 44.186 0.970 o
-3 2 19 0.348 0.330 0.047 o
-3 2 20 3.564 3.421 0.114 o
-3 2 21 11.679 11.324 0.292 o
-3 2 23 0.178 0.209 0.061 o
-3 2 24 3.012 3.023 0.129 o
-3 2 27 1.511 1.353 0.186 o
-3 3 1 3.908 4.281 0.109 o
-3 3 2 261.316 260.043 5.955 o
-3 3 3 4.132 8.768 0.282 o
-3 3 4 47.951 46.983 1.047 o
-3 3 5 22.412 22.409 0.506 o
-3 3 6 0.093 0.320 0.033 o
-3 3 7 4.116 4.114 0.112 o
-3 3 8 18.577 18.386 0.432 o
-3 3 9 4.931 5.673 0.143 o
-3 3 10 20.720 20.809 0.474 o
-3 3 11 1.459 1.447 0.052 o
-3 3 12 44.408 43.974 1.140 o
-3 3 13 9.907 9.643 0.237 o
-3 3 14 72.204 72.610 1.673 o
-3 3 15 1.611 1.743 0.090 o
-3 3 17 1.238 1.144 0.069 o
-3 3 18 3.662 3.470 0.149 o
-3 3 19 10.941 11.370 0.288 o
-3 3 20 4.414 4.201 0.135 o
-3 3 21 6.756 6.863 0.219 o
-3 3 22 11.256 10.772 0.581 o
-3 3 24 12.063 11.599 0.367 o
-3 3 25 2.416 2.611 0.218 o
-3 3 26 2.847 2.469 0.206 o
-3 4 1 21.375 21.184 0.489 o
-3 4 2 11.459 11.209 0.265 o
-3 4 3 60.481 58.972 1.320 o
-3 4 4 30.990 29.740 0.702 o
-3 4 5 0.415 0.374 0.031 o
-3 4 6 26.458 25.686 0.610 o
-3 4 7 17.257 16.765 0.393 o
-3 4 8 0.594 0.547 0.040 o
-3 4 9 0.564 0.591 0.041 o
-3 4 10 40.253 39.693 0.931 o
-3 4 11 4.008 4.019 0.133 o
-3 4 12 3.048 3.253 0.126 o
-3 4 13 33.533 33.498 0.731 o
-3 4 14 6.205 6.148 0.178 o
-3 4 16 4.246 4.391 0.170 o
-3 4 17 11.459 11.275 0.340 o
-3 4 18 4.455 4.434 0.159 o
-3 4 19 0.287 0.342 0.073 o
-3 4 20 9.877 9.509 0.442 o
-3 4 21 0.760 0.715 0.076 o
-3 4 23 8.307 7.997 0.316 o
-3 4 24 4.035 3.979 0.235 o
-3 5 1 0.211 0.211 0.042 o
-3 5 2 2.462 2.576 0.092 o
-3 5 3 4.586 4.637 0.128 o
-3 5 4 10.154 9.829 0.342 o
-3 5 5 1.139 1.188 0.066 o
-3 5 6 38.934 38.630 0.815 o
-3 5 7 4.276 4.141 0.164 o
-3 5 8 0.594 0.574 0.063 o
-3 5 9 4.515 4.449 0.152 o
-3 5 10 4.842 4.796 0.155 o
-3 5 11 1.492 1.503 0.096 o
-3 5 12 13.564 13.513 0.332 o
-3 5 13 0.355 0.410 0.093 o
-3 5 14 1.771 1.896 0.137 o
-3 5 16 18.922 18.633 0.535 o
-3 5 17 1.149 0.954 0.214 o
-3 5 18 1.339 1.282 0.120 o
-3 5 20 2.777 2.509 0.143 o
-3 5 22 1.941 1.785 0.193 o
-3 6 1 8.977 9.357 0.271 o
-3 6 2 2.025 2.019 0.123 o
-3 6 3 0.989 1.271 0.112 o
-3 6 4 1.306 1.458 0.092 o
-3 6 5 0.777 0.724 0.069 o
-3 6 6 0.994 1.002 0.095 o
-3 6 7 0.817 0.819 0.095 o
-3 6 9 4.294 4.644 0.193 o
-3 6 10 3.322 3.426 0.169 o
-3 6 11 0.415 0.375 0.096 o
-3 6 12 4.105 4.608 0.180 o
-3 6 13 1.999 2.082 0.137 o
-3 6 17 7.750 7.617 0.223 o
-3 7 1 0.906 0.844 0.153 o
-3 7 2 6.043 5.755 0.412 o
-3 7 3 0.287 0.303 0.095 o
-3 7 4 5.037 5.174 0.192 o
-3 7 5 2.006 2.109 0.187 o
-3 7 6 0.896 0.823 0.084 o
-3 7 9 0.329 0.394 0.092 o
-3 7 10 0.174 0.280 0.090 o
-3 7 11 0.465 0.570 0.092 o
-3 7 12 7.001 6.998 0.318 o
-3 7 13 4.720 4.819 0.238 o
-3 8 2 4.199 4.155 0.233 o
-3 8 3 1.078 1.020 0.165 o
-3 8 4 0.539 0.531 0.153 o
-2 0 2 618.938 653.336 14.495 o
-2 0 6 173.433 183.910 4.108 o
-2 0 8 490.133 480.041 11.175 o
-2 0 10 192.008 192.494 4.478 o
-2 0 12 16.648 16.978 0.391 o
-2 0 14 58.223 58.112 1.284 o
-2 0 16 12.613 12.377 0.298 o
-2 0 18 5.100 5.183 0.156 o
-2 0 20 17.839 17.859 0.412 o
-2 0 22 4.530 4.771 0.196 o
-2 1 1 186.228 199.056 4.461 o
-2 1 2 571.706 584.866 13.150 o
-2 1 3 21.629 21.747 0.483 o
-2 1 4 373.399 380.543 8.547 o
-2 1 5 21.230 21.984 0.489 o
-2 1 6 5.938 5.870 0.140 o
-2 1 7 36.918 35.444 0.802 o
-2 1 8 298.228 303.650 6.851 o
-2 1 9 24.515 23.608 0.530 o
-2 1 10 33.579 33.903 0.758 o
-2 1 11 85.409 85.610 1.918 o
-2 1 12 9.253 9.627 0.226 o
-2 1 13 33.300 32.875 0.736 o
-2 1 14 19.265 19.193 0.450 o
-2 1 15 11.563 11.634 0.274 o
-2 1 16 1.021 1.030 0.047 o
-2 1 17 31.610 31.885 0.780 o
-2 1 18 8.997 8.710 0.220 o
-2 1 19 1.743 1.927 0.095 o
-2 1 20 1.026 0.994 0.070 o
-2 1 21 60.416 60.201 1.341 o
-2 1 22 11.542 11.739 0.295 o
-2 1 24 2.448 2.393 0.110 o
-2 1 25 0.544 0.620 0.071 o
-2 1 26 1.730 1.458 0.125 o
-2 2 1 152.088 161.720 3.616 o
-2 2 2 499.804 508.266 11.661 o
-2 2 3 10.218 10.154 0.241 o
-2 2 4 23.591 23.945 0.534 o
-2 2 5 3.487 3.540 0.091 o
-2 2 6 73.824 74.913 1.655 o
-2 2 7 35.552 35.370 0.786 o
-2 2 8 29.902 29.823 0.668 o
-2 2 9 17.259 17.435 0.409 o
-2 2 10 92.567 94.205 2.090 o
-2 2 11 13.683 14.030 0.322 o
-2 2 12 112.950 112.365 2.637 o
-2 2 13 31.560 32.099 0.720 o
-2 2 14 13.993 13.855 0.322 o
-2 2 15 2.297 2.381 0.087 o
-2 2 16 38.787 38.825 1.113 o
-2 2 17 57.162 57.473 1.342 o
-2 2 18 28.778 29.215 0.739 o
-2 2 19 8.456 8.023 0.214 o
-2 2 20 7.413 7.335 0.206 o
-2 2 21 0.638 0.615 0.066 o
-2 2 22 10.178 10.098 0.256 o
-2 2 23 11.348 10.947 0.416 o
-2 2 24 0.530 0.436 0.121 o
-2 2 26 8.591 8.289 0.293 o
-2 3 1 147.999 150.268 3.355 o
-2 3 2 70.809 69.999 1.567 o
-2 3 3 1.514 1.552 0.068 o
-2 3 4 9.838 9.666 0.233 o
-2 3 5 7.169 7.144 0.183 o
-2 3 6 381.954 381.448 8.959 o
-2 3 7 85.650 84.535 1.894 o
-2 3 8 27.026 26.556 0.621 o
-2 3 9 8.359 8.380 0.197 o
-2 3 10 23.390 23.521 0.533 o
-2 3 11 21.013 20.726 0.482 o
-2 3 12 87.634 89.322 1.978 o
-2 3 13 3.995 3.977 0.108 o
-2 3 14 5.186 5.086 0.138 o
-2 3 15 11.738 11.971 0.284 o
-2 3 16 34.523 34.567 0.758 o
-2 3 17 4.720 4.650 0.149 o
-2 3 18 9.714 9.334 0.233 o
-2 3 19 1.583 1.535 0.085 o
-2 3 20 16.335 15.903 0.405 o
-2 3 22 12.032 11.645 0.329 o
-2 3 23 1.322 1.236 0.213 o
-2 3 24 1.725 1.925 0.221 o
-2 4 1 17.235 16.651 0.384 o
-2 4 2 64.229 61.778 1.391 o
-2 4 3 35.510 33.707 0.788 o
-2 4 4 0.446 0.488 0.032 o
-2 4 5 36.597 36.006 0.813 o
-2 4 6 4.037 3.980 0.113 o
-2 4 7 38.958 37.985 0.875 o
-2 4 8 0.570 0.609 0.040 o
-2 4 9 0.219 0.296 0.032 o
-2 4 10 25.416 25.101 0.647 o
-2 4 11 18.907 18.597 0.464 o
-2 4 12 0.126 0.180 0.050 o
-2 4 13 11.167 11.237 0.284 o
-2 4 14 9.143 9.692 0.257 o
-2 4 15 11.243 11.262 0.307 o
-2 4 16 15.583 15.290 0.646 o
-2 4 17 11.493 11.543 0.319 o
-2 4 18 1.190 1.237 0.130 o
-2 4 20 2.808 2.793 0.152 o
-2 4 21 2.510 2.541 0.123 o
-2 4 23 3.548 3.492 0.242 o
-2 4 24 6.579 7.122 0.286 o
-2 5 1 0.311 0.306 0.037 o
-2 5 2 16.593 15.933 0.419 o
-2 5 3 3.531 3.232 0.105 o
-2 5 4 3.701 3.688 0.123 o
-2 5 5 4.364 4.193 0.136 o
-2 5 7 0.278 0.300 0.055 o
-2 5 8 1.225 1.183 0.093 o
-2 5 9 0.996 1.066 0.063 o
-2 5 10 3.495 3.533 0.121 o
-2 5 11 0.619 0.607 0.060 o
-2 5 12 0.938 1.061 0.070 o
-2 5 13 6.036 5.878 0.207 o
-2 5 14 2.687 2.512 0.182 o
-2 5 16 14.332 13.778 0.359 o
-2 5 17 0.658 0.659 0.105 o
-2 5 19 1.544 1.412 0.120 o
-2 5 20 5.508 5.364 0.295 o
-2 5 21 1.550 1.338 0.198 o
-2 5 22 2.251 2.200 0.207 o
-2 6 1 0.614 0.602 0.075 o
-2 6 3 16.990 17.301 0.468 o
-2 6 5 9.740 9.966 0.271 o
-2 6 7 3.857 3.872 0.151 o
-2 6 8 2.057 2.254 0.124 o
-2 6 9 3.301 3.299 0.144 o
-2 6 11 6.790 6.741 0.199 o
-2 6 12 0.476 0.401 0.093 o
-2 6 14 1.704 1.759 0.248 o
-2 6 16 0.709 0.594 0.187 o
-2 7 1 6.667 7.041 0.250 o
-2 7 4 1.565 1.869 0.132 o
-2 7 6 3.641 3.484 0.165 o
-2 7 7 5.121 5.343 0.175 o
-2 7 8 4.015 4.000 0.170 o
-2 7 9 0.441 0.457 0.077 o
-2 7 10 1.553 1.605 0.130 o
-2 7 11 3.472 3.520 0.231 o
-2 7 12 1.044 1.080 0.197 o
-2 8 2 2.127 2.257 0.212 o
-2 8 4 2.829 2.898 0.221 o
-2 8 6 0.626 0.706 0.154 o
-1 0 4 905.430 910.059 23.104 o
-1 0 6 221.738 212.935 4.710 o
-1 0 8 523.306 507.510 11.986 o
-1 0 10 3.055 3.259 0.122 o
-1 0 12 115.019 111.870 2.479 o
-1 0 14 50.102 50.070 1.157 o
-1 0 16 23.104 23.175 0.552 o
-1 0 18 62.297 62.869 1.374 o
-1 0 20 45.078 44.975 1.872 o
-1 0 22 0.689 0.654 0.103 o
-1 0 24 23.124 22.037 0.527 o
-1 0 26 6.892 5.827 0.283 o
-1 1 2 152.322 164.497 3.943 o
-1 1 3 347.069 368.058 8.214 o
-1 1 4 250.934 263.170 5.848 o
-1 1 5 1.033 1.065 0.034 o
-1 1 6 0.499 0.515 0.024 o
-1 1 7 447.172 436.978 9.961 o
-1 1 8 99.018 98.874 2.198 o
-1 1 9 176.002 180.873 4.103 o
-1 1 11 77.132 76.080 1.687 o
-1 1 12 88.670 87.817 1.960 o
-1 1 13 5.823 5.740 0.141 o
-1 1 14 46.481 46.870 1.045 o
-1 1 15 11.066 10.801 0.250 o
-1 1 16 6.685 6.593 0.168 o
-1 1 17 1.850 1.956 0.094 o
-1 1 18 15.284 15.553 0.358 o
-1 1 19 10.483 10.296 0.342 o
-1 1 20 2.879 2.915 0.118 o
-1 1 21 14.359 14.400 0.338 o
-1 1 22 13.140 12.448 0.302 o
-1 1 23 1.701 1.713 0.138 o
-1 1 24 0.643 0.642 0.080 o
-1 1 25 1.383 1.279 0.294 o
-1 2 1 152.656 149.356 3.442 o
-1 2 2 9.028 8.680 0.199 o
-1 2 3 180.396 179.886 4.259 o
-1 2 4 240.714 244.633 5.458 o
-1 2 5 518.507 515.724 12.032 o
-1 2 6 19.416 19.534 0.442 o
-1 2 7 1.408 1.436 0.049 o
-1 2 8 47.994 47.934 1.073 o
-1 2 9 7.877 8.142 0.194 o
-1 2 10 193.232 193.395 4.353 o
-1 2 11 74.618 75.097 1.670 o
-1 2 12 35.003 34.776 0.776 o
-1 2 13 13.477 13.090 0.306 o
-1 2 14 1.294 1.245 0.062 o
-1 2 15 13.052 13.025 0.299 o
-1 2 18 5.953 5.546 0.289 o
-1 2 19 4.339 4.397 0.243 o
-1 2 20 51.112 51.230 1.143 o
-1 2 21 1.023 1.014 0.091 o
-1 2 22 20.084 19.901 0.519 o
-1 2 25 0.603 0.567 0.159 o
-1 2 26 2.191 2.127 0.195 o
-1 3 1 0.128 0.146 0.019 o
-1 3 2 33.142 33.818 0.773 o
-1 3 3 14.167 14.020 0.322 o
-1 3 4 58.429 58.569 1.346 o
-1 3 5 0.775 0.854 0.043 o
-1 3 6 111.419 110.968 2.560 o
-1 3 7 1.786 1.820 0.065 o
-1 3 8 6.235 6.760 0.170 o
-1 3 9 1.245 1.264 0.049 o
-1 3 10 32.965 32.979 0.758 o
-1 3 11 43.379 43.875 0.980 o
-1 3 12 0.209 0.215 0.030 o
-1 3 13 1.183 1.118 0.054 o
-1 3 14 28.334 28.822 0.634 o
-1 3 15 6.345 6.594 0.175 o
-1 3 16 120.184 123.234 2.788 o
-1 3 17 12.226 12.413 0.297 o
-1 3 18 1.180 1.126 0.072 o
-1 3 19 4.213 4.193 0.145 o
-1 3 21 13.690 13.401 0.544 o
-1 3 22 5.652 5.365 0.315 o
-1 3 23 2.377 2.309 0.143 o
-1 3 24 14.708 14.172 0.394 o
-1 3 25 1.032 0.919 0.164 o
-1 4 1 6.358 6.257 0.155 o
-1 4 2 10.073 10.112 0.238 o
-1 4 4 0.452 0.447 0.034 o
-1 4 5 62.597 62.817 1.492 o
-1 4 6 86.283 83.962 1.894 o
-1 4 7 30.092 29.430 0.675 o
-1 4 8 8.253 8.205 0.199 o
-1 4 9 1.364 1.354 0.069 o
-1 4 11 2.953 3.023 0.109 o
-1 4 12 21.669 22.192 0.502 o
-1 4 14 3.581 3.711 0.147 o
-1 4 15 40.050 41.144 0.913 o
-1 4 16 4.486 4.563 0.148 o
-1 4 17 11.019 10.585 0.265 o
-1 4 19 0.714 0.652 0.069 o
-1 4 20 10.720 10.331 0.337 o
-1 4 21 2.654 2.984 0.262 o
-1 5 1 10.540 10.110 0.254 o
-1 5 2 76.485 73.372 1.675 o
-1 5 3 1.200 1.171 0.070 o
-1 5 4 5.122 5.186 0.170 o
-1 5 5 0.182 0.187 0.042 o
-1 5 6 34.030 33.783 2.844 o
-1 5 7 1.033 1.052 0.100 o
-1 5 8 0.966 0.870 0.071 o
-1 5 9 7.254 7.106 0.194 o
-1 5 10 15.590 15.485 0.446 o
-1 5 11 1.624 1.617 0.111 o
-1 5 12 15.049 15.099 0.409 o
-1 5 14 2.003 2.083 0.149 o
-1 5 15 1.209 1.126 0.104 o
-1 5 17 0.502 0.393 0.081 o
-1 6 1 2.366 2.196 0.098 o
-1 6 2 7.196 7.510 0.217 o
-1 6 4 1.834 1.747 0.287 o
-1 6 5 0.848 0.893 0.089 o
-1 6 6 9.777 10.280 0.269 o
-1 6 7 9.697 9.688 0.263 o
-1 6 8 2.820 2.730 0.117 o
-1 6 10 0.565 0.574 0.069 o
-1 6 13 3.641 3.816 0.153 o
-1 6 15 5.776 5.897 0.187 o
-1 6 16 0.677 0.725 0.191 o
-1 6 17 2.420 2.073 0.244 o
-1 7 1 1.582 1.487 0.129 o
-1 7 3 3.633 3.398 0.164 o
-1 7 4 3.713 3.558 0.163 o
-1 7 6 4.313 4.508 0.162 o
-1 7 8 0.483 0.493 0.080 o
-1 7 11 5.012 4.964 0.301 o
-1 8 2 1.178 0.937 0.172 o
-1 8 4 1.119 1.063 0.170 o
-1 8 5 0.751 0.551 0.159 o
0 0 2 154.039 153.534 3.372 o
0 0 4 71.455 74.677 1.656 o
0 0 6 1066.108 1055.591 24.553 o
0 0 8 302.458 305.186 6.906 o
0 0 10 422.828 411.445 9.748 o
0 0 12 14.007 14.068 0.334 o
0 0 14 53.743 53.956 1.197 o
0 0 16 11.320 12.203 0.302 o
0 0 18 0.730 2.676 0.149 o
0 0 20 10.975 12.793 0.336 o
0 0 22 16.948 17.125 1.135 o
0 0 24 1.316 1.760 0.225 o
0 1 1 458.814 487.728 10.810 o
0 1 2 96.818 97.620 2.193 o
0 1 3 19.574 19.145 0.426 o
0 1 4 1610.689 1586.600 41.196 o
0 1 5 69.525 75.405 1.665 o
0 1 6 327.300 324.506 7.373 o
0 1 7 37.129 37.911 0.845 o
0 1 8 29.628 28.094 0.630 o
0 1 9 39.458 38.601 0.892 o
0 1 10 151.534 149.262 3.329 o
0 1 11 212.094 209.141 4.767 o
0 1 12 0.248 0.191 0.031 o
0 1 13 26.841 26.450 0.595 o
0 1 14 9.390 9.156 0.214 o
0 1 15 3.706 3.589 0.100 o
0 1 16 3.664 3.708 0.110 o
0 1 17 20.427 20.635 0.511 o
0 1 18 26.443 27.080 0.615 o
0 1 19 52.731 54.191 1.194 o
0 1 20 3.295 3.552 0.215 o
0 1 21 17.027 16.630 0.394 o
0 1 22 4.342 4.308 0.186 o
0 1 23 11.416 11.007 0.294 o
0 1 25 1.067 0.849 0.190 o
0 2 0 13.333 14.195 0.321 o
0 2 1 79.454 80.005 1.763 o
0 2 2 136.080 140.253 3.110 o
0 2 4 194.777 197.230 4.392 o
0 2 5 50.086 51.891 1.151 o
0 2 6 5.638 5.491 0.131 o
0 2 7 142.524 144.616 3.256 o
0 2 8 0.465 0.485 0.029 o
0 2 9 57.358 56.327 1.256 o
0 2 10 27.120 26.288 0.592 o
0 2 11 1.393 1.350 0.053 o
0 2 12 17.366 17.429 0.396 o
0 2 13 10.134 10.181 0.246 o
0 2 14 59.944 60.915 1.344 o
0 2 15 100.868 100.358 2.271 o
0 2 16 2.756 2.707 0.111 o
0 2 18 12.341 12.300 0.394 o
0 2 19 12.959 12.624 0.721 o
0 2 20 26.975 27.495 0.680 o
0 2 21 14.034 14.015 0.389 o
0 2 22 0.474 0.384 0.112 o
0 2 23 4.437 4.258 0.190 o
0 2 24 7.777 7.691 0.230 o
0 2 25 9.041 8.530 0.291 o
0 3 1 52.688 53.461 1.185 o
0 3 2 120.824 121.817 2.704 o
0 3 3 88.314 91.327 2.025 o
0 3 4 58.986 59.872 1.336 o
0 3 5 16.646 16.443 0.373 o
0 3 6 0.238 0.324 0.025 o
0 3 7 0.996 1.073 0.046 o
0 3 8 102.448 101.086 2.262 o
0 3 9 43.056 41.676 0.943 o
0 3 10 1.405 1.304 0.055 o
0 3 11 1.482 1.471 0.057 o
0 3 12 7.232 9.388 0.395 o
0 3 14 29.018 29.417 0.665 o
0 3 15 0.276 0.372 0.064 o
0 3 16 1.230 1.214 0.089 o
0 3 17 5.447 5.220 0.171 o
0 3 18 5.022 5.395 0.177 o
0 3 19 0.392 0.364 0.078 o
0 3 20 13.010 13.466 0.350 o
0 3 21 2.724 2.925 0.258 o
0 3 22 4.736 4.423 0.351 o
0 3 24 7.806 7.595 0.291 o
0 3 25 2.466 2.320 0.203 o
0 4 0 3.011 2.998 0.098 o
0 4 1 13.254 12.892 0.311 o
0 4 2 60.109 59.316 1.328 o
0 4 3 4.122 4.074 0.106 o
0 4 4 12.712 12.726 0.326 o
0 4 5 81.241 77.342 1.749 o
0 4 6 6.752 6.626 0.170 o
0 4 7 0.122 0.110 0.036 o
0 4 8 5.863 5.917 0.160 o
0 4 9 6.567 6.259 0.179 o
0 4 10 17.373 17.291 0.478 o
0 4 11 0.746 0.743 0.061 o
0 4 12 25.479 26.046 0.593 o
0 4 13 6.624 6.733 0.204 o
0 4 15 27.597 28.314 0.667 o
0 4 16 17.714 18.301 0.425 o
0 4 17 0.811 0.853 0.076 o
0 4 18 2.535 2.538 0.114 o
0 4 19 3.674 3.816 0.183 o
0 4 20 4.300 4.291 0.181 o
0 4 23 1.019 1.061 0.170 o
0 5 2 7.835 7.731 0.189 o
0 5 3 1.260 1.315 0.061 o
0 5 4 25.208 23.871 0.665 o
0 5 5 3.230 3.211 0.146 o
0 5 6 77.839 77.638 5.489 o
0 5 8 6.802 6.659 0.358 o
0 5 11 3.960 4.118 0.159 o
0 5 12 8.660 8.789 0.252 o
0 5 13 1.031 0.967 0.095 o
0 5 14 14.994 15.081 0.411 o
0 5 15 1.759 1.659 0.119 o
0 5 16 25.781 25.732 0.598 o
0 5 17 0.358 0.343 0.094 o
0 5 18 1.055 1.005 0.105 o
0 5 19 2.027 1.957 0.113 o
0 6 0 18.490 19.901 0.633 o
0 6 1 6.433 6.647 0.187 o
0 6 2 10.403 11.573 0.427 o
0 6 3 4.077 4.762 0.192 o
0 6 4 0.770 0.772 0.199 o
0 6 5 30.242 29.804 0.682 o
0 6 8 0.872 0.902 0.113 o
0 6 9 0.526 0.457 0.070 o
0 6 10 12.767 13.052 0.318 o
0 6 11 1.485 1.331 0.103 o
0 6 12 5.213 5.641 0.213 o
0 6 13 5.045 5.263 0.414 o
0 6 14 0.309 0.330 0.079 o
0 6 15 1.858 1.896 0.118 o
0 6 16 2.113 2.357 0.174 o
0 7 1 9.257 9.775 0.365 o
0 7 3 0.776 0.813 0.103 o
0 7 5 1.006 1.080 0.093 o
0 7 8 1.225 1.208 0.094 o
0 7 9 7.626 7.755 0.254 o
0 7 10 2.016 2.081 0.146 o
0 7 11 0.866 0.728 0.105 o
0 8 4 0.307 0.383 0.086 o
0 8 6 0.477 0.455 0.082 o
1 0 0 361.991 395.503 11.061 o
1 0 2 10.796 11.139 0.323 o
1 0 4 1903.779 1692.513 18.793 o
1 0 6 239.304 235.848 5.224 o
1 0 8 77.737 74.585 1.751 o
1 0 10 703.229 687.688 17.620 o
1 0 12 6.487 6.357 0.195 o
1 0 14 89.324 87.772 2.303 o
1 0 16 12.955 13.208 0.323 o
1 0 18 90.343 93.992 2.348 o
1 0 20 94.716 97.534 2.239 o
1 0 22 4.640 4.370 0.156 o
1 1 1 40.995 40.802 0.903 o
1 1 2 451.822 449.965 10.471 o
1 1 3 837.936 844.629 19.008 o
1 1 4 69.093 71.031 1.569 o
1 1 5 119.575 120.882 2.678 o
1 1 6 215.592 223.681 4.988 o
1 1 7 19.008 19.106 0.428 o
1 1 8 96.377 95.870 2.138 o
1 1 9 197.934 195.505 4.463 o
1 1 10 75.583 75.747 1.686 o
1 1 12 1.910 2.001 0.070 o
1 1 13 7.343 7.016 0.172 o
1 1 14 130.234 131.751 2.960 o
1 1 15 4.151 4.376 0.125 o
1 1 16 24.225 24.252 0.561 o
1 1 17 4.015 3.898 0.124 o
1 1 18 4.531 4.332 0.157 o
1 1 19 12.290 12.281 0.298 o
1 1 20 5.431 5.495 0.237 o
1 1 21 10.170 10.742 0.438 o
1 1 22 3.228 3.150 0.161 o
1 1 23 8.919 8.603 0.258 o
1 1 24 15.456 15.695 0.479 o
1 2 0 330.737 347.254 7.836 o
1 2 1 288.650 285.401 6.390 o
1 2 2 0.080 0.081 0.015 o
1 2 3 372.295 381.957 8.704 o
1 2 4 20.966 20.565 0.460 o
1 2 5 91.838 94.366 2.094 o
1 2 6 168.085 169.616 3.817 o
1 2 7 85.000 84.700 1.878 o
1 2 8 6.250 5.953 0.147 o
1 2 9 7.590 7.445 0.177 o
1 2 10 4.815 4.676 0.120 o
1 2 11 9.125 8.832 0.209 o
1 2 12 15.362 15.027 0.344 o
1 2 13 28.328 28.033 0.672 o
1 2 14 6.677 6.921 0.195 o
1 2 15 0.886 0.858 0.063 o
1 2 16 5.726 5.931 0.174 o
1 2 17 4.172 4.343 0.158 o
1 2 19 6.216 6.517 0.391 o
1 2 20 0.502 0.395 0.098 o
1 2 21 2.499 2.457 0.209 o
1 2 22 12.138 12.034 0.329 o
1 2 23 0.453 0.510 0.093 o
1 2 24 10.694 10.741 0.370 o
1 3 0 20.543 19.905 0.450 o
1 3 1 32.936 32.583 0.727 o
1 3 2 49.218 48.655 1.092 o
1 3 3 0.043 0.068 0.017 o
1 3 4 8.467 8.395 0.205 o
1 3 5 23.310 22.621 0.519 o
1 3 6 45.090 45.313 1.014 o
1 3 7 19.691 19.752 0.451 o
1 3 8 26.416 25.985 0.591 o
1 3 9 10.414 10.218 0.245 o
1 3 10 0.842 0.761 0.038 o
1 3 11 16.004 16.019 0.427 o
1 3 12 35.512 35.911 0.901 o
1 3 13 29.875 30.326 0.815 o
1 3 14 15.523 15.648 0.398 o
1 3 15 0.971 1.006 0.087 o
1 3 17 1.675 1.736 0.117 o
1 3 18 38.561 39.308 1.091 o
1 3 19 15.909 15.739 0.449 o
1 3 20 0.295 0.288 0.079 o
1 3 21 1.281 1.248 0.254 o
1 3 23 2.481 2.631 0.245 o
1 3 24 4.734 4.471 0.237 o
1 4 0 18.467 18.458 0.420 o
1 4 1 0.546 0.582 0.033 o
1 4 2 58.772 57.146 1.278 o
1 4 3 15.115 14.852 0.346 o
1 4 4 3.053 3.081 0.086 o
1 4 5 53.683 53.509 1.202 o
1 4 6 8.584 8.339 0.201 o
1 4 7 1.333 1.354 0.059 o
1 4 8 61.513 60.160 1.440 o
1 4 9 12.634 12.894 0.330 o
1 4 11 1.413 1.447 0.079 o
1 4 12 1.601 1.564 0.099 o
1 4 13 8.423 8.885 0.246 o
1 4 14 1.864 1.850 0.103 o
1 4 15 19.617 19.976 0.460 o
1 4 16 13.593 13.515 0.373 o
1 4 17 4.454 4.601 0.163 o
1 4 18 0.828 0.875 0.088 o
1 4 19 4.631 4.682 0.193 o
1 4 20 2.748 2.744 0.129 o
1 4 22 8.090 8.057 0.300 o
1 5 0 4.417 4.378 0.125 o
1 5 1 0.094 0.102 0.031 o
1 5 2 12.585 12.380 0.310 o
1 5 3 0.666 0.648 0.045 o
1 5 4 95.913 98.331 4.371 o
1 5 5 4.304 4.219 0.548 o
1 5 7 1.015 0.995 0.109 o
1 5 8 8.427 8.656 0.245 o
1 5 9 0.819 0.859 0.090 o
1 5 10 2.312 2.278 0.131 o
1 5 11 0.937 0.870 0.090 o
1 5 12 23.800 24.279 0.565 o
1 5 13 0.366 0.586 0.086 o
1 5 14 20.901 20.380 0.502 o
1 5 16 7.426 7.237 0.217 o
1 6 0 6.723 7.104 0.192 o
1 6 1 6.112 6.659 0.440 o
1 6 2 3.070 3.066 0.157 o
1 6 3 0.634 0.600 0.190 o
1 6 4 5.548 5.793 0.336 o
1 6 5 12.350 12.906 0.438 o
1 6 6 4.197 4.222 0.192 o
1 6 8 13.626 13.601 0.338 o
1 6 9 12.418 12.849 0.352 o
1 6 10 6.839 6.880 0.306 o
1 6 13 2.410 2.403 0.203 o
1 6 14 0.661 0.662 0.087 o
1 6 15 13.002 12.844 0.431 o
1 6 16 1.364 1.152 0.310 o
1 7 0 2.290 2.710 0.255 o
1 7 1 1.807 2.053 0.248 o
1 7 2 0.829 0.647 0.194 o
1 7 3 0.535 0.651 0.196 o
1 7 4 1.715 1.721 0.143 o
1 7 5 4.127 3.868 0.138 o
1 7 9 4.952 4.825 0.193 o
1 7 10 0.606 0.653 0.183 o
1 7 11 2.934 2.810 0.154 o
1 8 0 4.830 4.827 0.172 o
2 0 0 24.527 26.104 0.596 o
2 0 4 8.483 8.581 0.200 o
2 0 6 4.055 4.031 0.109 o
2 0 8 106.670 107.682 2.448 o
2 0 10 34.997 35.126 0.771 o
2 0 12 80.042 79.623 1.742 o
2 0 14 100.314 103.114 2.272 o
2 0 16 37.005 37.446 0.788 o
2 0 18 5.352 5.186 0.292 o
2 0 20 19.641 20.326 0.729 o
2 0 22 16.361 15.717 0.469 o
2 1 0 380.011 387.867 9.261 o
2 1 1 68.514 72.557 1.598 o
2 1 2 2.874 2.854 0.071 o
2 1 3 484.914 492.524 11.321 o
2 1 4 9.907 9.786 0.223 o
2 1 5 20.778 21.132 0.474 o
2 1 6 444.697 436.263 10.026 o
2 1 7 31.492 30.924 0.694 o
2 1 8 49.782 48.267 1.115 o
2 1 9 185.099 181.346 4.101 o
2 1 10 44.026 43.644 0.972 o
2 1 11 1.865 1.822 0.061 o
2 1 12 25.031 25.215 0.568 o
2 1 13 123.573 123.997 2.782 o
2 1 14 3.266 3.282 0.173 o
2 1 15 5.505 5.371 0.212 o
2 1 16 0.484 0.460 0.052 o
2 1 17 4.534 4.649 0.157 o
2 1 18 22.076 22.395 0.527 o
2 1 19 35.527 36.480 0.802 o
2 1 20 26.822 27.342 0.628 o
2 1 21 10.040 10.147 0.659 o
2 1 22 0.700 0.597 0.142 o
2 1 23 7.615 7.735 0.242 o
2 2 0 550.380 546.643 12.691 o
2 2 1 1.910 1.880 0.064 o
2 2 2 3.064 3.227 0.082 o
2 2 3 17.801 18.099 0.410 o
2 2 4 1.275 1.279 0.042 o
2 2 5 156.602 160.340 3.575 o
2 2 6 10.586 10.738 0.251 o
2 2 7 58.924 58.752 1.312 o
2 2 8 57.766 57.323 1.281 o
2 2 9 80.552 80.118 1.858 o
2 2 10 77.730 77.258 1.732 o
2 2 11 33.274 32.473 0.741 o
2 2 12 0.467 0.385 0.040 o
2 2 13 37.013 37.213 0.869 o
2 2 14 1.758 1.727 0.097 o
2 2 15 13.330 13.142 0.322 o
2 2 16 13.357 13.298 0.326 o
2 2 17 48.959 48.346 1.066 o
2 2 18 2.424 2.415 0.130 o
2 2 20 2.038 2.085 0.290 o
2 2 22 3.247 3.244 0.229 o
2 2 23 12.115 11.334 0.722 o
2 3 0 13.516 13.229 0.307 o
2 3 1 31.516 31.156 0.697 o
2 3 2 93.909 93.779 2.088 o
2 3 3 4.597 4.705 0.121 o
2 3 4 224.201 224.601 5.089 o
2 3 5 7.839 8.358 0.200 o
2 3 6 2.353 2.445 0.072 o
2 3 7 30.596 30.521 0.687 o
2 3 8 1.950 1.742 0.057 o
2 3 9 1.421 1.428 0.050 o
2 3 10 2.569 2.550 0.080 o
2 3 11 0.226 0.247 0.035 o
2 3 12 3.955 3.952 0.115 o
2 3 14 8.881 8.886 0.319 o
2 3 15 5.419 5.449 0.180 o
2 3 16 3.877 3.869 0.156 o
2 3 18 1.591 1.425 0.155 o
2 3 19 0.313 0.277 0.081 o
2 3 21 1.907 1.890 0.141 o
2 3 23 5.528 5.100 0.271 o
2 3 24 1.793 1.509 0.205 o
2 4 0 13.470 13.121 0.310 o
2 4 2 2.040 2.062 0.065 o
2 4 3 57.443 56.587 1.279 o
2 4 4 56.959 55.162 1.246 o
2 4 5 19.039 18.528 0.429 o
2 4 6 3.726 3.575 0.099 o
2 4 7 19.404 18.851 0.435 o
2 4 8 5.548 5.409 0.157 o
2 4 9 6.913 7.038 0.179 o
2 4 10 1.734 1.623 0.074 o
2 4 11 0.244 0.290 0.060 o
2 4 12 36.654 38.062 0.838 o
2 4 13 12.234 12.391 0.310 o
2 4 14 8.284 8.475 0.224 o
2 4 15 5.833 5.904 0.176 o
2 4 17 6.647 6.916 0.210 o
2 4 18 11.583 11.767 0.304 o
2 4 19 4.070 4.113 0.175 o
2 4 20 0.346 0.335 0.075 o
2 4 22 2.453 2.195 0.210 o
2 5 0 11.890 11.600 0.286 o
2 5 1 3.901 3.940 0.161 o
2 5 2 2.054 2.108 0.081 o
2 5 3 1.404 1.474 0.068 o
2 5 4 2.938 2.855 0.105 o
2 5 5 1.331 1.285 0.097 o
2 5 6 1.973 2.114 0.116 o
2 5 8 75.364 78.910 2.303 o
2 5 9 5.856 6.134 0.282 o
2 5 10 3.793 3.871 0.191 o
2 5 11 0.325 0.319 0.079 o
2 5 12 0.819 1.022 0.095 o
2 5 13 1.687 1.772 0.119 o
2 5 14 19.677 19.559 0.468 o
2 5 15 1.172 1.369 0.107 o
2 5 16 7.462 7.403 0.219 o
2 6 0 0.919 1.132 0.087 o
2 6 1 0.658 0.569 0.074 o
2 6 2 7.540 8.019 0.253 o
2 6 3 13.659 15.121 0.465 o
2 6 4 7.501 7.925 0.363 o
2 6 6 0.301 0.374 0.114 o
2 6 7 5.922 6.225 0.272 o
2 6 8 0.754 0.838 0.094 o
2 6 9 0.548 0.495 0.087 o
2 6 11 3.580 3.491 0.176 o
2 6 12 8.543 8.697 0.314 o
2 6 13 0.684 0.700 0.088 o
2 6 14 4.701 4.688 0.167 o
2 7 0 1.258 1.167 0.112 o
2 7 1 2.591 2.448 0.151 o
2 7 2 0.396 0.417 0.099 o
2 7 3 2.302 2.126 0.137 o
2 7 4 4.827 4.833 0.202 o
2 7 6 2.375 2.449 0.101 o
2 7 7 3.486 3.617 0.122 o
2 7 8 0.415 0.479 0.071 o
2 8 0 2.977 3.008 0.222 o
2 8 4 1.623 1.454 0.183 o
3 0 0 417.424 412.184 10.055 o
3 0 2 198.462 195.907 4.349 o
3 0 4 21.939 22.219 0.545 o
3 0 6 610.695 589.905 16.824 o
3 0 8 11.136 10.746 0.249 o
3 0 10 1.241 1.212 0.057 o
3 0 12 287.540 290.830 7.146 o
3 0 14 3.755 3.900 0.224 o
3 0 16 11.642 11.573 0.296 o
3 0 18 10.641 11.219 0.532 o
3 0 20 37.983 39.520 0.870 o
3 0 22 36.740 36.681 0.781 o
3 1 0 117.691 115.580 2.577 o
3 1 1 454.545 455.180 10.367 o
3 1 2 457.971 466.051 10.803 o
3 1 3 42.904 44.071 0.982 o
3 1 4 12.037 12.342 0.281 o
3 1 5 5.453 5.428 0.130 o
3 1 6 4.744 4.958 0.121 o
3 1 7 30.183 29.815 0.690 o
3 1 8 39.431 39.123 0.882 o
3 1 9 1.485 1.493 0.058 o
3 1 10 87.474 86.293 1.944 o
3 1 11 14.416 13.895 0.324 o
3 1 12 11.289 11.230 0.264 o
3 1 13 36.869 37.329 0.822 o
3 1 14 0.599 0.692 0.075 o
3 1 15 3.085 3.102 0.130 o
3 1 16 60.901 61.634 1.321 o
3 1 17 1.351 1.355 0.121 o
3 1 18 3.051 2.953 0.157 o
3 1 19 8.027 8.457 0.296 o
3 1 20 0.526 0.505 0.094 o
3 1 21 4.576 4.383 0.415 o
3 1 22 0.982 0.799 0.174 o
3 1 24 5.613 5.432 0.277 o
3 2 0 2.057 2.200 0.060 o
3 2 1 7.981 8.376 0.195 o
3 2 2 284.620 286.526 6.478 o
3 2 3 107.700 105.693 2.345 o
3 2 4 95.818 95.146 2.131 o
3 2 5 65.080 64.643 1.478 o
3 2 6 45.772 46.269 1.038 o
3 2 7 3.730 3.841 0.099 o
3 2 8 106.671 105.414 2.353 o
3 2 9 2.398 2.339 0.075 o
3 2 10 11.525 11.168 0.275 o
3 2 11 9.566 9.572 0.233 o
3 2 12 22.239 22.353 0.527 o
3 2 13 2.996 2.993 0.110 o
3 2 14 8.371 8.142 0.226 o
3 2 15 1.274 1.284 0.098 o
3 2 16 2.023 1.773 0.117 o
3 2 17 7.191 7.258 0.214 o
3 2 18 21.789 22.202 0.521 o
3 2 19 15.404 15.049 0.906 o
3 2 20 6.926 6.727 0.226 o
3 2 21 5.686 5.728 0.209 o
3 2 22 2.006 1.977 0.250 o
3 2 23 1.246 1.311 0.222 o
3 3 0 73.128 76.144 1.693 o
3 3 1 2.302 2.237 0.066 o
3 3 2 21.592 21.424 0.487 o
3 3 3 102.532 99.233 2.228 o
3 3 4 111.002 111.572 2.645 o
3 3 5 0.151 0.182 0.024 o
3 3 6 20.807 21.402 0.489 o
3 3 7 2.268 2.246 0.065 o
3 3 8 119.208 119.344 2.673 o
3 3 9 36.260 37.978 0.990 o
3 3 10 0.255 0.224 0.031 o
3 3 11 16.588 16.434 0.375 o
3 3 12 34.020 34.100 1.085 o
3 3 13 12.547 12.649 0.367 o
3 3 14 51.275 52.243 1.293 o
3 3 15 4.875 5.150 0.176 o
3 3 16 8.519 8.891 0.247 o
3 3 17 7.540 7.724 0.246 o
3 3 18 2.241 2.157 0.152 o
3 3 19 0.814 0.714 0.104 o
3 3 20 0.530 0.360 0.095 o
3 3 21 4.079 3.872 0.266 o
3 3 22 6.530 6.419 0.297 o
3 4 0 6.504 6.533 0.169 o
3 4 1 0.308 0.328 0.028 o
3 4 2 2.458 2.462 0.075 o
3 4 3 18.952 19.041 0.440 o
3 4 4 39.970 39.027 0.882 o
3 4 5 0.220 0.267 0.032 o
3 4 6 0.319 0.270 0.032 o
3 4 7 57.089 56.660 1.246 o
3 4 8 21.107 21.041 0.482 o
3 4 9 10.096 9.834 0.242 o
3 4 10 11.695 12.166 0.334 o
3 4 12 1.887 1.877 0.091 o
3 4 13 14.206 14.323 0.342 o
3 4 14 3.273 3.276 0.143 o
3 4 16 2.489 2.346 0.128 o
3 4 17 17.315 17.185 0.494 o
3 4 18 10.352 10.187 0.295 o
3 4 19 1.017 1.150 0.132 o
3 5 0 18.779 17.956 0.418 o
3 5 1 9.492 9.250 0.353 o
3 5 2 3.177 3.284 0.127 o
3 5 5 1.937 1.884 0.093 o
3 5 6 16.324 16.503 0.404 o
3 5 7 4.858 5.034 0.177 o
3 5 8 1.589 1.708 0.088 o
3 5 9 0.409 0.358 0.064 o
3 5 12 1.759 1.635 0.120 o
3 5 13 0.379 0.336 0.081 o
3 5 14 1.741 1.781 0.101 o
3 5 15 1.985 1.912 0.147 o
3 5 16 4.459 4.615 0.159 o
3 5 18 15.376 15.629 0.388 o
3 6 0 0.075 0.600 0.125 o
3 6 1 1.101 1.008 0.254 o
3 6 2 1.325 1.551 0.134 o
3 6 3 0.667 1.098 0.173 o
3 6 4 1.271 1.350 0.105 o
3 6 5 3.567 3.581 0.167 o
3 6 6 0.770 0.915 0.078 o
3 6 7 15.485 16.112 0.396 o
3 6 8 0.277 0.291 0.070 o
3 6 9 0.712 1.201 0.135 o
3 6 10 2.282 2.351 0.185 o
3 6 11 2.780 2.804 0.139 o
3 6 12 2.832 2.864 0.134 o
3 6 13 4.279 4.264 0.159 o
3 7 0 1.317 1.261 0.141 o
3 7 2 3.953 3.816 0.336 o
3 7 3 5.313 5.080 0.283 o
3 7 4 0.835 0.838 0.076 o
3 7 6 0.668 0.686 0.064 o
3 7 8 1.321 1.297 0.215 o
3 7 9 2.212 2.397 0.253 o
4 0 0 45.256 46.172 1.015 o
4 0 4 38.666 39.047 0.909 o
4 0 6 13.671 13.257 0.312 o
4 0 8 1.134 1.131 0.059 o
4 0 10 4.360 4.448 0.126 o
4 0 12 3.024 2.894 0.223 o
4 0 16 50.140 51.253 0.996 o
4 0 22 31.502 31.909 0.674 o
4 1 0 2.656 2.576 0.064 o
4 1 1 157.761 159.054 3.561 o
4 1 2 192.018 192.627 4.300 o
4 1 3 218.459 216.716 4.858 o
4 1 4 3.041 3.097 0.085 o
4 1 5 94.355 92.766 2.064 o
4 1 6 41.174 40.385 0.915 o
4 1 7 8.418 8.286 0.196 o
4 1 8 28.735 28.995 0.651 o
4 1 9 21.386 20.899 0.475 o
4 1 10 0.293 0.252 0.030 o
4 1 11 130.834 133.077 2.977 o
4 1 12 11.813 11.860 0.283 o
4 1 13 6.503 6.463 0.175 o
4 1 14 2.469 2.513 0.111 o
4 1 15 9.839 9.891 0.268 o
4 1 16 3.414 3.414 0.160 o
4 1 17 8.912 9.332 0.265 o
4 1 18 0.514 0.576 0.093 o
4 1 19 1.374 1.270 0.112 o
4 1 20 18.616 19.605 0.500 o
4 1 21 15.024 14.820 0.429 o
4 1 22 5.061 5.235 0.290 o
4 1 23 0.698 0.686 0.163 o
4 2 0 122.329 124.070 2.842 o
4 2 1 76.528 77.868 1.750 o
4 2 2 305.790 305.627 6.992 o
4 2 3 57.328 56.766 1.263 o
4 2 4 15.906 15.936 0.363 o
4 2 5 0.576 0.622 0.034 o
4 2 6 7.186 7.080 0.171 o
4 2 7 158.865 156.705 3.546 o
4 2 8 0.700 0.737 0.036 o
4 2 9 14.850 14.512 0.343 o
4 2 10 42.165 41.609 0.942 o
4 2 11 1.356 1.302 0.078 o
4 2 12 104.257 105.586 2.345 o
4 2 13 28.184 27.802 0.657 o
4 2 14 11.079 11.068 0.394 o
4 2 15 27.223 27.444 0.618 o
4 2 16 2.446 2.556 0.128 o
4 2 17 5.644 5.354 0.200 o
4 2 18 5.801 5.948 0.214 o
4 2 19 3.062 3.190 0.161 o
4 2 20 3.271 3.400 0.246 o
4 2 21 2.456 2.141 0.246 o
4 2 22 13.732 14.209 0.409 o
4 3 0 6.054 6.165 0.149 o
4 3 1 37.580 37.856 0.871 o
4 3 2 1.099 1.058 0.043 o
4 3 3 1.523 1.442 0.054 o
4 3 4 51.518 50.245 1.253 o
4 3 5 3.694 3.649 0.097 o
4 3 6 109.314 108.176 2.427 o
4 3 7 0.298 0.347 0.031 o
4 3 8 56.154 55.321 1.230 o
4 3 9 6.420 6.482 0.163 o
4 3 10 10.225 10.018 0.243 o
4 3 11 0.343 0.405 0.049 o
4 3 13 13.746 13.745 0.339 o
4 3 16 24.408 24.781 0.606 o
4 3 17 3.158 3.219 0.164 o
4 3 18 34.453 36.178 0.813 o
4 3 19 2.777 2.647 0.315 o
4 3 21 3.984 4.182 0.261 o
4 3 22 2.346 2.298 0.218 o
4 4 0 69.528 67.585 1.514 o
4 4 1 0.561 0.468 0.031 o
4 4 2 0.601 0.557 0.034 o
4 4 3 2.884 2.886 0.084 o
4 4 4 1.626 1.586 0.060 o
4 4 5 21.061 21.221 0.487 o
4 4 6 14.123 14.066 0.327 o
4 4 7 41.508 41.627 1.005 o
4 4 8 21.781 21.839 0.491 o
4 4 9 1.033 1.056 0.056 o
4 4 10 1.476 1.486 0.079 o
4 4 11 0.482 0.538 0.072 o
4 4 12 0.244 0.303 0.061 o
4 4 13 0.604 0.532 0.082 o
4 4 14 22.347 22.479 0.525 o
4 4 15 5.251 5.470 0.186 o
4 4 17 19.622 19.184 1.215 o
4 4 18 0.219 0.231 0.076 o
4 4 20 1.933 1.780 0.203 o
4 5 0 0.211 0.268 0.041 o
4 5 1 2.103 1.983 0.114 o
4 5 2 0.955 0.835 0.063 o
4 5 3 3.575 3.642 0.114 o
4 5 4 23.911 23.477 0.521 o
4 5 5 2.087 2.237 0.092 o
4 5 6 10.014 10.016 0.278 o
4 5 8 2.158 2.136 0.099 o
4 5 10 15.916 15.613 0.617 o
4 5 11 7.812 7.837 0.224 o
4 5 12 2.119 2.131 0.111 o
4 5 16 8.501 9.068 0.378 o
4 5 17 1.238 1.153 0.192 o
4 5 18 0.639 0.756 0.146 o
4 6 0 1.059 1.005 0.091 o
4 6 1 3.936 3.871 0.140 o
4 6 2 0.598 0.524 0.084 o
4 6 3 0.719 0.641 0.089 o
4 6 5 2.807 2.907 0.198 o
4 6 7 0.892 0.802 0.081 o
4 6 8 2.293 2.302 0.115 o
4 6 9 1.868 2.013 0.171 o
4 7 0 0.347 0.400 0.069 o
4 7 1 5.152 5.569 0.181 o
4 7 2 0.915 0.893 0.077 o
4 7 5 1.077 1.159 0.084 o
4 7 6 7.202 7.583 0.222 o
4 7 7 0.505 0.437 0.080 o
5 0 0 64.666 65.230 1.428 o
5 0 2 695.202 679.390 17.803 o
5 0 4 12.606 11.876 0.389 o
5 0 6 6.446 6.532 0.173 o
5 0 8 149.334 147.206 3.420 o
5 0 10 72.477 74.196 2.713 o
5 0 12 17.912 18.169 0.408 o
5 0 14 16.077 16.264 0.407 o
5 0 16 15.663 16.602 0.433 o
5 0 18 2.026 1.946 0.233 o
5 0 20 2.108 2.118 0.246 o
5 1 0 0.435 0.438 0.027 o
5 1 1 110.981 112.575 2.504 o
5 1 2 60.482 60.110 1.337 o
5 1 3 1.863 1.883 0.060 o
5 1 4 39.758 39.756 0.964 o
5 1 5 1.244 1.304 0.050 o
5 1 6 84.465 82.694 1.854 o
5 1 7 5.067 4.986 0.132 o
5 1 8 1.555 1.549 0.054 o
5 1 9 1.852 1.913 0.064 o
5 1 10 0.720 0.733 0.055 o
5 1 11 29.740 29.346 0.679 o
5 1 12 56.968 56.901 1.189 o
5 1 13 17.027 17.063 0.394 o
5 1 15 18.667 18.862 0.470 o
5 1 18 5.893 5.887 0.309 o
5 1 19 0.930 0.723 0.178 o
5 1 20 1.415 1.156 0.185 o
5 1 21 25.568 26.373 0.591 o
5 2 0 24.672 25.346 0.570 o
5 2 1 26.543 26.220 0.605 o
5 2 2 3.524 3.529 0.094 o
5 2 3 25.489 24.414 0.560 o
5 2 4 62.469 62.507 1.395 o
5 2 5 15.104 15.312 0.353 o
5 2 6 49.491 49.223 1.183 o
5 2 7 4.358 4.328 0.113 o
5 2 8 14.623 14.058 0.324 o
5 2 9 10.936 10.739 0.274 o
5 2 10 40.872 42.019 1.010 o
5 2 11 10.862 11.174 0.271 o
5 2 12 22.319 21.984 0.497 o
5 2 14 6.187 6.438 0.183 o
5 2 16 12.525 12.795 0.333 o
5 2 17 26.258 26.319 0.602 o
5 2 18 2.944 2.889 0.255 o
5 2 19 2.972 2.820 0.248 o
5 2 21 2.854 2.705 0.239 o
5 2 22 13.178 13.461 0.380 o
5 3 0 125.656 127.564 2.919 o
5 3 1 27.265 27.266 0.619 o
5 3 2 5.586 5.599 0.146 o
5 3 3 4.610 4.605 0.124 o
5 3 4 3.998 4.022 0.108 o
5 3 5 42.087 41.547 0.945 o
5 3 6 93.041 91.260 2.026 o
5 3 7 4.885 4.894 0.128 o
5 3 8 3.358 3.416 0.103 o
5 3 9 0.307 0.317 0.041 o
5 3 10 39.442 39.383 0.904 o
5 3 11 22.091 21.582 0.493 o
5 3 12 0.652 0.626 0.057 o
5 3 13 4.583 4.738 0.152 o
5 3 14 30.439 31.545 0.714 o
5 3 15 0.832 0.772 0.087 o
5 3 16 34.765 33.716 1.006 o
5 3 19 4.516 4.612 0.279 o
5 4 0 9.311 9.420 0.240 o
5 4 1 4.530 4.652 0.152 o
5 4 2 0.091 0.158 0.033 o
5 4 3 1.277 1.280 0.060 o
5 4 4 26.703 25.861 0.635 o
5 4 5 19.487 19.487 0.678 o
5 4 6 8.943 8.720 0.229 o
5 4 7 19.482 19.653 0.446 o
5 4 9 8.019 7.909 0.196 o
5 4 10 16.714 16.639 0.498 o
5 4 11 2.656 2.579 0.116 o
5 4 12 0.622 0.478 0.081 o
5 4 14 2.642 2.527 0.133 o
5 4 15 12.898 13.257 0.341 o
5 4 16 1.388 1.406 0.101 o
5 4 17 5.174 5.289 0.195 o
5 4 18 8.025 8.198 0.316 o
5 4 19 1.737 1.872 0.210 o
5 5 0 5.371 5.407 0.197 o
5 5 1 0.109 0.162 0.039 o
5 5 2 5.016 5.130 0.161 o
5 5 3 1.203 1.183 0.057 o
5 5 4 3.576 3.582 0.137 o
5 5 5 0.365 0.354 0.049 o
5 5 6 6.618 6.762 0.235 o
5 5 7 1.304 1.344 0.080 o
5 5 8 7.905 7.858 0.220 o
5 5 9 0.372 0.281 0.060 o
5 5 13 0.411 0.379 0.076 o
5 5 14 3.165 2.982 0.131 o
5 5 15 0.901 0.847 0.098 o
5 5 16 2.906 2.835 0.219 o
5 6 0 7.450 7.884 0.233 o
5 6 1 4.770 4.949 0.159 o
5 6 2 4.387 4.619 0.172 o
5 6 3 2.242 2.258 0.115 o
5 6 4 1.840 1.725 0.124 o
5 6 5 8.221 8.241 0.266 o
5 6 6 3.198 3.143 0.147 o
5 6 7 12.377 12.612 0.739 o
5 6 8 0.757 0.802 0.077 o
5 6 9 2.390 2.544 0.133 o
5 6 11 0.294 0.419 0.095 o
5 7 0 2.000 2.015 0.116 o
5 7 1 9.290 9.332 0.278 o
5 7 2 1.717 1.840 0.169 o
5 7 3 2.197 2.205 0.105 o
5 7 4 1.297 1.256 0.246 o
5 7 5 0.988 1.152 0.207 o
6 0 0 235.255 235.443 7.265 o
6 0 2 30.748 29.964 0.866 o
6 0 4 1.500 1.528 0.068 o
6 0 6 43.730 48.336 1.291 o
6 0 8 15.692 15.601 0.379 o
6 0 10 34.445 34.363 0.738 o
6 0 12 96.053 98.523 2.056 o
6 0 14 4.382 4.601 0.273 o
6 0 16 2.266 2.242 0.237 o
6 1 0 0.588 0.635 0.034 o
6 1 1 188.485 187.165 4.220 o
6 1 2 62.281 61.938 1.435 o
6 1 3 22.864 22.840 0.543 o
6 1 4 55.179 55.677 1.262 o
6 1 5 59.432 60.045 1.385 o
6 1 6 21.761 21.686 0.493 o
6 1 7 12.195 12.165 0.326 o
6 1 8 43.285 42.815 1.073 o
6 1 9 34.914 34.650 0.790 o
6 1 10 0.298 0.306 0.049 o
6 1 11 32.883 32.404 0.716 o
6 1 12 0.683 0.658 0.080 o
6 1 13 14.007 14.541 0.423 o
6 1 15 2.136 2.108 0.238 o
6 1 16 27.320 27.971 0.627 o
6 1 18 3.289 3.130 0.256 o
6 1 19 6.064 6.378 0.302 o
6 1 21 1.882 1.834 0.218 o
6 2 1 9.641 9.799 0.231 o
6 2 2 0.053 0.076 0.024 o
6 2 3 13.931 14.065 0.331 o
6 2 4 48.876 48.789 1.093 o
6 2 5 99.742 98.380 2.212 o
6 2 6 2.198 2.278 0.077 o
6 2 7 1.206 1.128 0.058 o
6 2 8 5.516 5.337 0.143 o
6 2 9 35.419 35.884 0.806 o
6 2 10 1.521 1.477 0.081 o
6 2 11 5.895 5.903 0.180 o
6 2 12 3.445 3.422 0.203 o
6 2 13 7.050 7.196 0.234 o
6 2 14 34.837 35.161 0.763 o
6 2 15 16.259 16.137 0.457 o
6 2 16 8.055 8.155 0.344 o
6 2 17 1.453 1.487 0.239 o
6 2 18 0.744 0.696 0.182 o
6 2 20 2.958 3.267 0.250 o
6 3 0 0.014 0.450 0.048 o
6 3 2 0.727 0.734 0.041 o
6 3 3 0.741 0.822 0.050 o
6 3 4 0.271 0.307 0.036 o
6 3 5 0.143 0.188 0.036 o
6 3 6 0.223 0.225 0.037 o
6 3 7 5.347 5.377 0.143 o
6 3 8 6.444 6.313 0.170 o
6 3 9 3.254 3.921 0.119 o
6 3 10 33.681 33.867 0.781 o
6 3 11 1.812 1.950 0.085 o
6 3 12 1.316 1.359 0.109 o
6 3 13 0.694 0.737 0.084 o
6 3 15 13.081 13.342 0.354 o
6 3 16 5.911 6.533 0.324 o
6 3 18 8.803 9.936 0.354 o
6 4 0 17.279 16.440 0.374 o
6 4 2 27.058 27.379 0.613 o
6 4 3 0.279 0.303 0.041 o
6 4 4 6.548 6.249 0.165 o
6 4 5 14.582 15.031 0.510 o
6 4 6 0.834 0.808 0.054 o
6 4 7 2.121 2.005 0.081 o
6 4 9 7.869 7.405 0.215 o
6 4 10 19.255 19.574 0.540 o
6 4 11 1.955 1.815 0.122 o
6 4 12 0.317 0.385 0.079 o
6 4 14 3.267 3.212 0.140 o
6 4 15 5.130 5.121 0.204 o
6 4 16 4.145 4.106 0.172 o
6 4 18 0.696 0.607 0.154 o
6 5 0 28.294 28.297 0.677 o
6 5 1 4.305 4.337 0.130 o
6 5 2 0.187 0.169 0.046 o
6 5 3 0.684 0.581 0.070 o
6 5 4 16.081 16.168 0.597 o
6 5 6 47.878 48.988 1.106 o
6 5 7 3.007 3.259 0.129 o
6 5 8 0.648 0.620 0.064 o
6 5 9 1.424 1.521 0.085 o
6 5 10 0.429 0.452 0.097 o
6 5 12 0.605 0.619 0.093 o
6 5 13 1.659 1.780 0.130 o
6 5 14 8.678 8.883 0.314 o
6 6 0 12.301 13.881 0.351 o
6 6 1 2.268 2.369 0.133 o
6 6 2 5.032 5.206 0.264 o
6 6 3 5.624 5.619 0.215 o
6 6 4 0.307 0.313 0.083 o
6 6 5 1.261 1.338 0.091 o
6 6 7 2.164 2.188 0.110 o
6 6 8 0.960 0.990 0.107 o
6 6 9 0.551 0.475 0.126 o
6 7 0 1.932 1.863 0.142 o
6 7 1 0.588 0.692 0.079 o
6 7 2 0.715 0.636 0.185 o
7 0 0 109.567 111.023 3.118 o
7 0 2 36.083 35.924 0.922 o
7 0 4 269.844 273.481 6.631 o
7 0 6 1.228 1.083 0.077 o
7 0 8 44.200 43.341 0.931 o
7 0 10 61.267 60.796 1.318 o
7 0 12 17.889 18.510 0.439 o
7 0 14 12.541 12.863 0.382 o
7 1 0 82.978 83.495 1.935 o
7 1 1 1.227 1.239 0.052 o
7 1 2 0.169 0.173 0.029 o
7 1 3 7.538 7.515 0.188 o
7 1 4 35.539 34.818 0.886 o
7 1 5 40.998 40.412 1.007 o
7 1 6 1.071 1.001 0.064 o
7 1 7 1.392 1.366 0.065 o
7 1 8 47.504 47.816 1.105 o
7 1 10 3.388 3.281 0.119 o
7 1 11 17.080 17.477 0.408 o
7 1 12 15.649 15.967 0.435 o
7 1 13 15.615 16.622 0.458 o
7 1 14 24.541 24.312 0.550 o
7 1 15 23.249 24.099 0.557 o
7 1 17 3.680 3.633 0.258 o
7 1 19 4.354 4.629 0.252 o
7 1 20 0.698 0.536 0.143 o
7 2 0 36.246 36.651 0.825 o
7 2 1 11.231 10.946 0.266 o
7 2 2 6.479 6.468 0.169 o
7 2 3 4.985 4.796 0.143 o
7 2 4 0.519 0.530 0.070 o
7 2 5 0.765 0.773 0.060 o
7 2 6 5.932 6.103 0.195 o
7 2 7 3.439 3.498 0.116 o
7 2 8 7.469 7.178 0.187 o
7 2 9 21.078 21.206 0.666 o
7 2 10 0.919 1.005 0.065 o
7 2 11 10.493 10.372 0.261 o
7 2 13 4.341 4.312 0.286 o
7 2 14 6.952 6.950 0.327 o
7 2 15 11.860 11.826 0.402 o
7 2 16 1.233 1.167 0.194 o
7 2 18 4.263 4.277 0.261 o
7 2 19 17.004 17.093 0.424 o
7 3 0 0.642 0.557 0.045 o
7 3 1 28.557 27.965 0.637 o
7 3 2 23.093 22.713 0.522 o
7 3 3 15.826 15.332 0.357 o
7 3 4 14.468 14.037 0.388 o
7 3 5 0.998 1.020 0.056 o
7 3 6 7.027 6.912 0.179 o
7 3 7 3.507 3.315 0.112 o
7 3 8 12.499 12.650 0.303 o
7 3 9 10.335 10.345 0.391 o
7 3 10 1.868 2.008 0.099 o
7 3 12 3.759 3.574 0.407 o
7 3 13 1.677 1.842 0.170 o
7 3 16 1.965 1.781 0.228 o
7 3 18 3.660 3.913 0.240 o
7 4 0 10.246 9.963 0.239 o
7 4 1 1.415 1.401 0.082 o
7 4 2 1.732 1.771 0.076 o
7 4 3 1.222 1.022 0.058 o
7 4 4 2.722 2.630 0.091 o
7 4 5 21.338 21.204 0.483 o
7 4 6 31.328 31.690 0.711 o
7 4 9 10.694 10.827 0.314 o
7 4 10 0.326 0.393 0.078 o
7 4 12 5.230 5.452 0.302 o
7 4 13 0.334 0.284 0.092 o
7 4 14 7.484 7.348 0.444 o
7 4 15 3.614 3.850 0.253 o
7 4 16 1.311 1.378 0.198 o
7 5 0 14.383 13.745 0.364 o
7 5 2 13.185 13.304 0.340 o
7 5 3 1.413 1.162 0.091 o
7 5 4 2.460 2.588 0.108 o
7 5 6 1.168 1.034 0.065 o
7 5 7 0.226 0.189 0.052 o
7 5 8 3.875 3.863 0.171 o
7 5 10 22.495 22.618 0.676 o
7 5 11 1.424 1.391 0.122 o
7 5 12 1.306 1.199 0.206 o
7 6 0 0.807 1.053 0.107 o
7 6 2 2.515 2.407 0.361 o
7 6 3 0.160 0.325 0.101 o
7 6 4 4.279 4.593 0.219 o
7 6 5 4.412 4.829 0.332 o
7 6 6 3.679 3.625 0.143 o
7 6 7 3.739 3.778 0.264 o
8 0 0 26.815 27.216 0.600 o
8 0 2 15.019 14.809 0.494 o
8 0 4 65.633 65.397 1.532 o
8 0 6 4.753 4.410 0.165 o
8 0 8 29.250 29.882 0.662 o
8 0 10 0.886 0.706 0.125 o
8 0 12 25.103 26.849 0.564 o
8 1 1 0.374 0.454 0.047 o
8 1 2 2.148 2.136 0.086 o
8 1 3 84.673 83.227 2.470 o
8 1 4 33.410 33.753 0.770 o
8 1 6 4.229 4.211 0.125 o
8 1 7 0.309 0.242 0.045 o
8 1 8 19.853 19.019 0.436 o
8 1 9 9.784 9.763 0.345 o
8 1 10 19.159 19.104 0.564 o
8 1 11 6.022 6.365 0.279 o
8 1 12 4.521 4.465 0.289 o
8 1 13 11.408 11.942 0.393 o
8 1 15 1.628 1.560 0.225 o
8 1 16 0.658 0.629 0.161 o
8 1 18 21.543 22.348 0.488 o
8 2 0 42.452 41.770 1.234 o
8 2 1 21.459 22.006 0.497 o
8 2 2 0.157 0.171 0.040 o
8 2 3 5.130 4.938 0.138 o
8 2 4 14.327 14.152 0.336 o
8 2 5 7.691 7.384 0.193 o
8 2 7 35.999 34.978 0.797 o
8 2 8 4.455 4.274 0.137 o
8 2 10 15.816 15.450 0.389 o
8 2 13 4.075 4.265 0.292 o
8 2 15 2.676 2.755 0.249 o
8 2 16 2.078 2.120 0.228 o
8 2 17 0.900 0.976 0.166 o
8 3 0 17.771 17.680 0.410 o
8 3 1 0.175 0.196 0.041 o
8 3 2 9.943 9.470 0.329 o
8 3 3 0.583 0.563 0.052 o
8 3 4 11.235 10.654 0.270 o
8 3 5 18.312 17.220 0.406 o
8 3 6 14.662 14.312 0.341 o
8 3 8 3.815 3.733 0.178 o
8 3 10 2.765 2.666 0.128 o
8 3 11 6.108 6.325 0.411 o
8 3 12 3.402 3.449 0.277 o
8 3 13 6.899 6.664 0.322 o
8 3 14 6.028 6.083 0.303 o
8 3 15 1.453 0.973 0.177 o
8 3 16 2.677 2.698 0.224 o
8 4 1 2.347 2.373 0.098 o
8 4 2 14.617 14.192 0.409 o
8 4 3 2.492 2.615 0.105 o
8 4 4 2.381 2.514 0.116 o
8 4 5 2.837 2.868 0.177 o
8 4 6 3.892 3.899 0.174 o
8 4 7 4.382 4.877 0.324 o
8 4 9 13.603 13.555 0.868 o
8 4 10 6.272 6.072 0.312 o
8 4 12 5.989 6.291 0.300 o
8 5 0 1.030 1.029 0.140 o
8 5 2 6.988 7.035 0.237 o
8 5 3 3.949 4.235 0.157 o
8 5 4 0.943 0.883 0.071 o
8 5 6 7.404 7.299 0.228 o
8 5 7 2.256 2.196 0.221 o
8 5 8 21.527 20.129 0.481 o
8 5 9 2.906 2.918 0.158 o
8 5 10 0.857 0.860 0.094 o
8 6 1 0.576 0.548 0.083 o
8 6 2 5.343 5.221 0.193 o
8 6 3 1.544 1.323 0.182 o
8 6 4 2.882 2.915 0.153 o
9 0 0 17.392 18.217 0.425 o
9 0 2 46.944 45.772 1.431 o
9 0 4 4.668 4.603 0.178 o
9 0 6 27.363 27.659 0.665 o
9 0 10 13.875 15.076 0.456 o
9 1 0 32.980 32.769 0.756 o
9 1 2 4.814 4.656 0.136 o
9 1 3 26.771 26.097 0.834 o
9 1 4 2.539 2.485 0.111 o
9 1 5 6.204 5.940 0.171 o
9 1 6 7.818 7.349 0.200 o
9 1 7 13.207 13.548 0.347 o
9 1 8 1.731 2.110 0.153 o
9 1 9 2.094 2.216 0.244 o
9 1 10 9.464 9.508 0.255 o
9 1 12 1.026 1.078 0.182 o
9 1 14 9.349 9.173 0.333 o
9 1 15 1.078 0.880 0.160 o
9 1 16 2.324 2.247 0.208 o
9 2 0 1.766 1.666 0.073 o
9 2 1 3.634 3.527 0.124 o
9 2 2 36.728 35.544 0.922 o
9 2 3 5.200 5.229 0.154 o
9 2 4 36.769 35.496 0.807 o
9 2 5 3.294 3.147 0.131 o
9 2 6 3.140 3.050 0.121 o
9 2 7 1.745 1.527 0.088 o
9 2 8 2.216 2.256 0.129 o
9 2 9 15.818 16.381 0.403 o
9 2 10 2.212 1.973 0.119 o
9 2 11 9.009 9.387 0.523 o
9 2 12 6.647 6.864 0.323 o
9 2 14 7.719 7.828 0.315 o
9 2 15 2.788 2.810 0.234 o
9 3 0 2.174 2.238 0.111 o
9 3 1 6.646 6.367 0.178 o
9 3 2 2.553 2.383 0.141 o
9 3 3 14.216 14.636 0.355 o
9 3 4 6.778 6.826 0.282 o
9 3 5 1.432 1.455 0.151 o
9 3 6 16.324 16.753 0.416 o
9 3 8 16.911 17.279 0.864 o
9 3 10 3.190 2.977 0.153 o
9 3 11 3.983 4.191 0.371 o
9 3 12 4.882 4.874 0.281 o
9 3 14 1.211 1.178 0.198 o
9 4 1 2.485 2.300 0.115 o
9 4 2 13.557 13.255 0.334 o
9 4 5 0.328 0.251 0.068 o
9 4 6 5.321 5.109 0.203 o
9 4 7 18.703 19.122 1.016 o
9 4 8 13.092 11.773 0.626 o
9 4 9 5.294 5.210 0.350 o
9 4 12 0.535 0.477 0.158 o
9 5 1 0.879 0.840 0.075 o
9 5 2 4.560 4.291 0.256 o
9 5 3 1.609 1.480 0.094 o
9 5 4 1.098 1.110 0.090 o
9 5 5 0.924 0.751 0.097 o
9 5 8 5.529 5.357 0.483 o
10 0 0 7.407 7.849 0.239 o
10 0 2 2.889 2.795 0.112 o
10 0 4 14.416 14.056 0.818 o
10 0 6 17.684 17.693 0.421 o
10 0 8 1.044 1.001 0.200 o
10 0 10 12.377 12.657 0.413 o
10 1 0 9.744 9.667 0.268 o
10 1 1 32.470 31.972 0.807 o
10 1 3 8.509 8.203 0.210 o
10 1 4 9.627 9.152 0.238 o
10 1 5 3.718 3.867 0.156 o
10 1 6 7.967 7.805 0.257 o
10 1 8 1.392 1.240 0.095 o
10 1 9 1.141 1.080 0.135 o
10 1 10 5.418 5.414 0.191 o
10 1 11 3.892 3.751 0.160 o
10 1 12 0.712 0.717 0.162 o
10 1 13 1.785 1.727 0.206 o
10 2 0 9.461 9.373 0.429 o
10 2 1 1.728 1.621 0.124 o
10 2 2 29.185 28.804 0.766 o
10 2 3 7.944 7.644 0.280 o
10 2 4 1.515 1.442 0.120 o
10 2 5 10.372 10.056 0.260 o
10 2 6 7.427 7.334 0.289 o
10 2 7 3.911 3.776 0.152 o
10 2 8 3.289 3.242 0.340 o
10 2 9 0.447 0.388 0.079 o
10 2 10 6.599 6.795 0.293 o
10 2 11 1.270 1.184 0.184 o
10 2 12 15.897 16.632 0.427 o
10 2 13 0.925 0.794 0.158 o
10 3 0 0.851 0.710 0.076 o
10 3 1 1.380 1.261 0.097 o
10 3 2 19.048 18.461 0.512 o
10 3 3 4.024 4.003 0.145 o
10 3 4 3.408 3.406 0.229 o
10 3 5 0.239 0.278 0.072 o
10 3 6 14.358 14.084 0.353 o
10 3 7 11.986 11.297 0.505 o
10 3 8 25.378 24.206 2.838 o
10 3 9 0.609 0.458 0.068 o
10 3 10 1.135 1.032 0.156 o
10 3 12 1.507 1.543 0.205 o
10 4 0 2.522 2.428 0.180 o
10 4 1 5.210 5.202 0.293 o
10 4 3 1.549 1.579 0.111 o
10 4 4 3.387 3.390 0.220 o
10 4 5 0.977 1.056 0.091 o
10 4 6 0.920 0.875 0.089 o
10 4 7 7.137 7.058 0.225 o
10 4 8 0.524 0.394 0.128 o
10 5 0 1.970 2.103 0.109 o
10 5 1 2.661 2.725 0.145 o
10 5 2 0.736 0.663 0.099 o
10 5 3 0.504 0.378 0.077 o
10 5 4 1.775 1.940 0.214 o
10 5 5 0.817 0.950 0.157 o
11 0 0 33.427 32.173 1.558 o
11 0 2 25.289 24.666 0.802 o
11 0 6 2.590 2.751 0.272 o
11 0 10 0.853 0.685 0.177 o
11 1 1 3.880 4.085 0.156 o
11 1 2 8.285 8.308 0.291 o
11 1 3 11.411 11.305 0.314 o
11 1 4 1.744 1.790 0.118 o
11 1 5 12.723 12.784 0.324 o
11 1 6 3.631 3.403 0.145 o
11 1 7 4.820 4.690 0.301 o
11 1 9 1.428 1.341 0.095 o
11 1 10 5.760 5.973 0.178 o
11 2 1 12.223 12.038 0.405 o
11 2 3 0.932 0.855 0.111 o
11 2 4 7.108 7.055 0.313 o
11 2 6 19.792 19.188 0.954 o
11 2 7 16.624 16.197 0.401 o
11 2 8 2.767 3.156 0.136 o
11 2 9 0.837 0.803 0.114 o
11 2 10 0.998 0.966 0.166 o
11 2 11 4.762 4.493 0.246 o
11 3 0 19.632 18.552 0.442 o
11 3 1 2.190 2.109 0.126 o
11 3 2 1.219 1.107 0.083 o
11 3 3 1.496 1.416 0.121 o
11 3 4 3.096 3.084 0.190 o
11 3 5 0.710 0.831 0.075 o
11 3 6 2.184 2.355 0.123 o
11 3 8 1.345 0.974 0.306 o
11 3 9 0.701 0.602 0.159 o
11 4 0 1.575 1.543 0.103 o
11 4 1 3.477 3.469 0.142 o
11 4 2 3.622 3.429 0.141 o
11 4 4 6.608 6.595 0.195 o
11 4 5 0.614 0.469 0.089 o
12 0 0 1.458 1.694 0.273 o
12 0 2 20.350 21.100 0.566 o
12 0 4 7.739 7.874 0.355 o
12 0 6 20.256 21.235 0.544 o
12 1 0 8.708 8.497 0.307 o
12 1 1 3.389 3.393 0.166 o
12 1 2 8.497 8.331 0.239 o
12 1 3 3.446 3.487 0.145 o
12 1 4 0.516 0.490 0.080 o
12 1 5 3.676 3.520 0.141 o
12 1 6 12.503 12.683 0.323 o
12 1 7 2.449 2.804 0.151 o
12 2 0 0.652 0.654 0.083 o
12 2 3 2.147 2.100 0.119 o
12 2 4 3.964 4.093 0.150 o
12 2 5 2.656 2.520 0.123 o
12 2 6 0.974 0.864 0.084 o
12 2 7 1.159 0.974 0.165 o
12 3 0 4.542 4.637 0.162 o
12 3 1 0.283 0.244 0.065 o
12 3 3 2.652 2.699 0.123 o
12 3 4 4.833 4.478 0.171 o
12 3 5 3.771 3.644 0.241 o
12 4 0 4.037 4.056 0.162 o
12 4 1 1.690 1.708 0.208 o
13 0 2 12.272 12.973 0.421 o
13 1 0 1.324 1.410 0.126 o
13 1 1 2.200 2.218 0.118 o
13 1 2 1.314 1.274 0.117 o
13 1 3 2.539 2.480 0.118 o
13 2 0 1.052 1.052 0.116 o
13 2 1 3.036 3.056 0.148 o
13 2 2 2.478 2.560 0.216 o
13 2 3 4.438 4.339 0.242 o
