#------------------------------------------------------------------------------
#$Date: 2016-02-21 11:56:54 +0200 (Sun, 21 Feb 2016) $
#$Revision: 176809 $
#$URL: svn://www.crystallography.net/cod/cif/2/31/01/2310121.cif $
#------------------------------------------------------------------------------
#
# This file is available in the Crystallography Open Database (COD),
# http://www.crystallography.net/
#
# All data on this site have been placed in the public domain by the
# contributors.
#
data_2310121
loop_
_publ_author_name
'Kami\'nski, Rados\/law'
'Domaga\/la, S\/lawomir'
'Jarzembska, Katarzyna N.'
'Hoser, Anna A.'
'Sanjuan-Szklarz, W. Fabiola'
'Gutmann, Matthias J.'
'Makal, Anna'
'Mali\'nska, Maura'
'Bak, Joanna M.'
'Wo\'zniak, Krzysztof'
_publ_section_title
;
 Statistical analysis of multipole-model-derived structural parameters and
 charge-density properties from high-resolution X-ray diffraction
 experiments
;
_journal_issue                   1
_journal_name_full               'Acta Crystallographica Section A'
_journal_page_first              72
_journal_page_last               91
_journal_paper_doi               10.1107/S2053273313028313
_journal_volume                  70
_journal_year                    2014
_chemical_formula_moiety         'C2 H2 O4, 2(H2 O1)'
_chemical_formula_sum            'C2 H6 O6'
_chemical_formula_weight         126.07
_space_group_IT_number           14
_symmetry_cell_setting           monoclinic
_symmetry_Int_Tables_number      14
_symmetry_space_group_name_Hall  '-P 2ybc'
_symmetry_space_group_name_H-M   'P 1 21/c 1'
_cell_angle_alpha                90.00
_cell_angle_beta                 103.948(2)
_cell_angle_gamma                90.00
_cell_formula_units_Z            2
_cell_length_a                   6.0937(4)
_cell_length_b                   3.4929(2)
_cell_length_c                   11.8533(7)
_cell_measurement_temperature    100(1)
_cell_volume                     244.85(3)
_diffrn_ambient_temperature      100(1)
_diffrn_measured_fraction_theta_full 0.990
_diffrn_measured_fraction_theta_max 0.990
_diffrn_measurement_device
;
Bruker AXS Kappa APEX II Ultra diffractometer
;
_diffrn_measurement_device_type  'APEX II CCD detector'
_diffrn_measurement_method       \w-scans
_diffrn_radiation_monochromator  'multi-layer optics'
_diffrn_radiation_source         'TXS rotating anode'
_diffrn_radiation_type           'Mo K\a'
_diffrn_radiation_wavelength     0.71073
_diffrn_reflns_av_R_equivalents  0.0241
_diffrn_reflns_av_sigmaI/netI    0.01645
_diffrn_reflns_limit_h_max       14
_diffrn_reflns_limit_h_min       -14
_diffrn_reflns_limit_k_max       8
_diffrn_reflns_limit_k_min       -8
_diffrn_reflns_limit_l_max       27
_diffrn_reflns_limit_l_min       -27
_diffrn_reflns_number            21907
_diffrn_reflns_theta_full        56.33
_diffrn_reflns_theta_max         56.421
_diffrn_reflns_theta_min         3.445
_exptl_absorpt_coefficient_mu    0.181
_exptl_absorpt_correction_T_max  0.996
_exptl_absorpt_correction_T_min  0.964
_exptl_absorpt_correction_type   multi-scan
_exptl_absorpt_process_details
;
 Absorption correction done by SORTAV
 Blessing, R. H.: (1995) Acta Cryst. A51, 33-38
;
_exptl_crystal_colour            colourless
_exptl_crystal_density_diffrn    1.710
_exptl_crystal_description       unspecified
_exptl_crystal_F_000             132
_exptl_crystal_size_max          0.134
_exptl_crystal_size_mid          0.131
_exptl_crystal_size_min          0.119
_refine_diff_density_max         +0.12
_refine_diff_density_min         -0.11
_refine_ls_extinction_method     none
_refine_ls_goodness_of_fit_ref   1.252
_refine_ls_hydrogen_treatment    mixed
_refine_ls_number_parameters     177
_refine_ls_number_reflns         2892
_refine_ls_number_restraints     3
_refine_ls_R_factor_all          0.0123
_refine_ls_R_factor_gt           0.0123
_refine_ls_shift/su_max          0.001
_refine_ls_shift/su_mean         0.000
_refine_ls_structure_factor_coef F
_refine_ls_weighting_details
;
w=1/[\s^2^(Fo)]
;
_refine_ls_weighting_scheme      sigma
_refine_ls_wR_factor_gt          0.0192
_refine_ls_wR_factor_ref         0.0192
_reflns_number_gt                2892
_reflns_number_total             3266
_reflns_threshold_expression     I>3\s(I)
_iucr_refine_instructions_details
;
 Multipole refinement with MOPRO program
;
_cod_data_source_file            pc5031sup12.cif
_cod_data_source_block           oxa12
_cod_depositor_comments
;
The following automatic conversions were performed:
'__diffrn_reflns_limit_h_max' tag replaced with
'_diffrn_reflns_limit_h_max'.

Automatic conversion script
Id: cif_correct_tags 1440 2010-10-19 06:21:57Z saulius 
;
_cod_original_sg_symbol_H-M      'P 21/c'
_cod_database_code               2310121
loop_
_symmetry_equiv_pos_as_xyz
'x, y, z'
'-x, y+1/2, -z+1/2'
'-x, -y, -z'
'x, -y-1/2, z-1/2'
loop_
_atom_site_type_symbol
_atom_site_label
_atom_site_fract_x
_atom_site_fract_y
_atom_site_fract_z
_atom_site_U_iso_or_equiv
_atom_site_adp_type
_atom_site_occupancy
_atom_site_calc_flag
O O1 0.43488(3) 0.44400(5) 0.34987(1) 0.01305(5) Uani 1 d
O O2 0.24244(2) 0.74287(5) 0.46370(1) 0.01285(5) Uani 1 d
C C1 0.40311(2) 0.55880(3) 0.448009(1) 0.00947(4) Uani 1 d
H H1 0.301(2) 0.510(5) 0.2752(7) 0.02253 Uani 1 d
O O3 0.13003(2) 0.63148(5) 0.17857(1) 0.01271(5) Uani 1 d
H H2 0.192(2) 0.695(6) 0.1124(6) 0.02827 Uani 1 d
H H3 0.013(1) 0.441(3) 0.152(2) 0.02800 Uani 1 d
loop_
_atom_site_aniso_label
_atom_site_aniso_U_11
_atom_site_aniso_U_22
_atom_site_aniso_U_33
_atom_site_aniso_U_12
_atom_site_aniso_U_13
_atom_site_aniso_U_23
O1 0.01263(5) 0.01847(5) 0.00760(4) 0.00459(4) 0.00155(3) -0.00071(4)
O2 0.01087(4) 0.01751(5) 0.00951(4) 0.00527(4) 0.00117(3) -0.00058(4)
C1 0.00905(4) 0.01115(4) 0.00788(4) 0.00169(2) 0.00138(2) -0.00008(2)
H1 0.0210 0.0258 0.0206 0.0018 0.0045 0.0002
O3 0.01062(4) 0.01763(5) 0.00907(4) -0.00198(3) 0.00080(3) 0.00100(3)
H2 0.0253 0.0395 0.0211 -0.0038 0.0078 0.0036
H3 0.0215 0.0294 0.0326 -0.0068 0.0054 -0.0020
loop_
_atom_type_symbol
_atom_type_description
_atom_type_scat_dispersion_real
_atom_type_scat_dispersion_imag
_atom_type_scat_source
C C 0.0033 0.0016 'Su & Coppens, Acta. Cryst. (1997) A53, 749'
H H 0.0000 0.0000 'Su & Coppens, Acta. Cryst. (1997) A53, 749'
O O 0.0106 0.0060 'Su & Coppens, Acta. Cryst. (1997) A53, 749'
loop_
_geom_angle_atom_site_label_1
_geom_angle_atom_site_label_2
_geom_angle_atom_site_label_3
_geom_angle
O1 C1 O2 126.96(2)
C1 O1 H1 115.3(8)
H2 O3 H3 107(2)
loop_
_geom_bond_atom_site_label_1
_geom_bond_atom_site_label_2
_geom_bond_distance
O1 C1 1.2885(2)
O1 H1 1.074(1)
O2 C1 1.2224(2)
O3 H3 0.970(1)
O3 H2 0.974(1)
loop_
_geom_torsion_atom_site_label_1
_geom_torsion_atom_site_label_2
_geom_torsion_atom_site_label_3
_geom_torsion_atom_site_label_4
_geom_torsion
O2 C1 O1 H1 -2.7(7)
loop_
_refln_index_h
_refln_index_k
_refln_index_l
_refln_F_squared_calc
_refln_F_squared_meas
_refln_F_squared_sigma
_refln_observed_status
-14 0 2 16.208 15.929 0.449 o
-14 0 6 2.275 2.261 0.104 o
-14 0 8 0.602 0.623 0.068 o
-14 0 10 1.278 1.336 0.116 o
-14 1 3 0.270 0.318 0.059 o
-14 1 5 0.400 0.379 0.043 o
-14 1 6 3.982 4.160 0.133 o
-14 1 7 7.318 7.307 0.178 o
-14 1 8 0.715 0.762 0.064 o
-14 1 9 0.230 0.247 0.041 o
-14 1 10 0.491 0.455 0.052 o
-13 0 6 35.380 34.700 1.141 o
-13 0 8 3.511 3.576 0.153 o
-13 0 10 0.507 0.368 0.068 o
-13 0 12 11.986 12.278 0.288 o
-13 0 14 1.648 1.613 0.082 o
-13 0 16 9.709 9.762 0.733 o
-13 1 1 2.717 2.809 0.147 o
-13 1 2 14.880 14.613 0.339 o
-13 1 3 0.306 0.246 0.060 o
-13 1 4 1.230 1.276 0.063 o
-13 1 5 10.154 10.422 0.246 o
-13 1 7 0.166 0.166 0.041 o
-13 1 8 3.855 3.892 0.112 o
-13 1 10 3.499 3.411 0.138 o
-13 1 12 3.416 3.314 0.112 o
-13 1 13 0.608 0.601 0.063 o
-13 1 15 1.549 1.661 0.069 o
-13 1 16 4.287 4.397 0.121 o
-13 2 1 4.266 4.636 0.129 o
-13 2 3 1.077 0.979 0.098 o
-13 2 4 0.874 0.897 0.051 o
-13 2 5 1.253 1.250 0.081 o
-13 2 6 0.515 0.475 0.041 o
-13 2 8 2.327 2.282 0.076 o
-13 2 9 1.412 1.472 0.080 o
-13 2 10 4.124 4.231 0.112 o
-13 2 12 1.108 1.182 0.067 o
-13 2 13 0.832 0.837 0.042 o
-13 2 14 3.118 3.163 0.090 o
-13 3 1 1.494 1.557 0.110 o
-13 3 2 0.460 0.451 0.047 o
-13 3 4 4.641 4.681 0.122 o
-13 3 5 2.429 2.326 0.084 o
-13 3 6 4.486 4.331 0.115 o
-13 3 7 2.450 2.409 0.086 o
-13 3 9 2.027 2.071 0.137 o
-13 3 10 4.330 4.344 0.145 o
-12 0 2 9.167 8.680 0.320 o
-12 0 4 42.928 42.554 0.939 o
-12 0 6 4.365 5.700 0.195 o
-12 0 10 2.570 2.513 0.180 o
-12 0 12 8.769 8.752 0.224 o
-12 0 14 5.539 5.671 0.163 o
-12 0 16 18.337 17.613 0.812 o
-12 0 18 0.544 0.627 0.075 o
-12 0 20 2.896 2.833 0.250 o
-12 1 1 1.950 1.877 0.084 o
-12 1 2 1.044 0.998 0.058 o
-12 1 4 0.103 0.140 0.040 o
-12 1 5 19.525 19.748 0.446 o
-12 1 6 4.605 4.378 0.196 o
-12 1 7 1.587 1.577 0.070 o
-12 1 8 12.197 12.494 0.290 o
-12 1 9 11.607 11.551 0.269 o
-12 1 10 2.867 2.860 0.090 o
-12 1 11 1.038 0.990 0.047 o
-12 1 12 7.002 7.031 0.175 o
-12 1 13 0.805 0.757 0.042 o
-12 1 14 0.162 0.178 0.038 o
-12 1 15 13.880 13.918 0.321 o
-12 1 16 1.801 1.753 0.073 o
-12 1 17 0.859 0.770 0.050 o
-12 1 19 1.449 1.536 0.071 o
-12 2 1 13.447 13.452 0.309 o
-12 2 2 5.425 5.428 0.138 o
-12 2 5 8.138 8.381 0.204 o
-12 2 6 0.266 0.305 0.037 o
-12 2 7 3.493 3.402 0.104 o
-12 2 8 4.544 4.605 0.121 o
-12 2 9 4.218 4.321 0.113 o
-12 2 11 8.816 8.804 0.207 o
-12 2 12 1.121 1.188 0.065 o
-12 2 13 5.206 5.146 0.153 o
-12 2 14 0.355 0.390 0.038 o
-12 2 16 0.235 0.251 0.037 o
-12 2 17 0.316 0.331 0.038 o
-12 2 18 5.357 5.429 0.195 o
-12 3 1 1.605 1.556 0.061 o
-12 3 2 0.465 0.468 0.038 o
-12 3 3 3.402 3.473 0.097 o
-12 3 4 0.169 0.177 0.038 o
-12 3 6 0.900 0.924 0.051 o
-12 3 7 1.309 1.318 0.074 o
-12 3 11 1.691 1.628 0.076 o
-12 3 12 0.463 0.484 0.038 o
-12 3 13 0.493 0.422 0.043 o
-12 3 14 3.807 3.895 0.146 o
-12 3 15 0.328 0.233 0.036 o
-12 3 16 1.703 1.666 0.071 o
-12 4 1 0.585 0.547 0.045 o
-12 4 2 1.114 1.142 0.056 o
-12 4 3 2.018 2.059 0.081 o
-12 4 4 1.664 1.676 0.064 o
-12 4 5 2.381 2.288 0.100 o
-12 4 6 5.695 5.705 0.214 o
-12 4 7 0.311 0.238 0.059 o
-12 4 8 0.535 0.520 0.050 o
-12 4 9 1.457 1.424 0.059 o
-12 4 11 1.649 1.500 0.103 o
-11 0 2 3.783 3.812 0.149 o
-11 0 4 9.551 9.748 0.277 o
-11 0 6 0.629 0.524 0.062 o
-11 0 8 87.807 87.707 1.967 o
-11 0 10 7.982 8.029 0.212 o
-11 0 12 2.611 2.586 0.110 o
-11 0 14 34.378 35.508 0.917 o
-11 0 16 1.451 1.423 0.086 o
-11 0 18 12.183 12.328 0.413 o
-11 0 20 2.064 1.878 0.087 o
-11 0 22 7.575 7.782 0.337 o
-11 1 1 0.227 0.199 0.032 o
-11 1 2 5.918 5.834 0.148 o
-11 1 3 13.888 14.106 0.335 o
-11 1 4 36.465 36.612 0.935 o
-11 1 5 2.143 2.133 0.075 o
-11 1 6 0.213 0.183 0.035 o
-11 1 7 1.472 1.505 0.069 o
-11 1 8 1.344 1.433 0.091 o
-11 1 9 6.195 6.258 0.160 o
-11 1 10 3.818 3.832 0.105 o
-11 1 11 4.227 4.219 0.131 o
-11 1 12 13.597 13.597 0.316 o
-11 1 13 0.418 0.488 0.038 o
-11 1 14 6.349 6.266 0.162 o
-11 1 15 6.017 6.052 0.166 o
-11 1 16 2.495 2.412 0.087 o
-11 1 17 0.174 0.198 0.045 o
-11 1 18 9.442 9.461 0.272 o
-11 1 19 11.266 11.101 0.263 o
-11 1 20 0.452 0.524 0.052 o
-11 2 1 2.730 2.840 0.089 o
-11 2 2 0.318 0.331 0.038 o
-11 2 3 1.349 1.332 0.059 o
-11 2 4 11.137 11.245 0.262 o
-11 2 5 2.101 2.125 0.109 o
-11 2 6 6.294 6.141 0.155 o
-11 2 7 8.216 8.155 0.203 o
-11 2 10 1.080 1.113 0.048 o
-11 2 11 2.213 2.133 0.082 o
-11 2 12 2.602 2.673 0.085 o
-11 2 13 0.543 0.584 0.043 o
-11 2 14 1.404 1.427 0.061 o
-11 2 15 10.326 10.172 0.240 o
-11 2 16 0.235 0.206 0.039 o
-11 2 17 0.794 0.700 0.049 o
-11 2 18 2.400 2.318 0.099 o
-11 2 19 0.997 0.776 0.064 o
-11 2 20 0.430 0.488 0.043 o
-11 2 21 3.709 3.681 0.126 o
-11 3 1 1.002 1.050 0.052 o
-11 3 2 3.331 3.245 0.101 o
-11 3 3 0.372 0.359 0.039 o
-11 3 4 4.580 4.473 0.130 o
-11 3 5 6.548 6.607 0.174 o
-11 3 6 3.014 2.961 0.094 o
-11 3 7 3.697 3.593 0.103 o
-11 3 9 1.342 1.331 0.051 o
-11 3 10 12.463 12.359 0.284 o
-11 3 11 4.106 4.287 0.118 o
-11 3 12 1.131 0.995 0.050 o
-11 3 13 2.700 2.652 0.082 o
-11 3 14 0.443 0.425 0.054 o
-11 3 16 3.819 3.793 0.119 o
-11 3 17 4.600 4.613 0.162 o
-11 4 1 1.370 1.455 0.063 o
-11 4 2 2.958 2.963 0.110 o
-11 4 3 5.830 5.626 0.161 o
-11 4 5 0.220 0.134 0.039 o
-11 4 6 7.020 6.941 0.201 o
-11 4 7 0.417 0.384 0.051 o
-11 4 9 2.575 2.559 0.097 o
-11 4 10 3.807 3.660 0.104 o
-11 4 12 3.400 3.166 0.090 o
-11 4 13 5.961 5.898 0.163 o
-11 4 15 0.701 0.588 0.043 o
-11 4 16 0.597 0.608 0.050 o
-11 5 1 0.343 0.316 0.080 o
-11 5 2 6.724 6.428 0.167 o
-11 5 4 3.602 3.476 0.105 o
-11 5 5 0.574 0.527 0.056 o
-11 5 6 3.607 3.649 0.101 o
-11 5 8 1.240 1.174 0.052 o
-10 0 4 8.609 8.447 0.210 o
-10 0 6 12.294 12.454 0.331 o
-10 0 8 17.541 17.724 0.398 o
-10 0 10 11.954 12.159 0.292 o
-10 0 12 11.647 11.860 0.285 o
-10 0 14 0.816 0.804 0.058 o
-10 0 16 2.935 3.133 0.141 o
-10 0 18 62.132 62.192 1.442 o
-10 0 20 1.727 1.901 0.155 o
-10 0 22 1.301 1.412 0.105 o
-10 1 1 3.485 3.456 0.097 o
-10 1 2 0.527 0.526 0.035 o
-10 1 3 2.260 2.285 0.072 o
-10 1 4 0.774 0.820 0.047 o
-10 1 5 9.791 9.698 0.232 o
-10 1 6 0.089 0.102 0.030 o
-10 1 7 47.655 47.651 1.058 o
-10 1 8 19.937 20.330 0.457 o
-10 1 9 9.992 9.820 0.229 o
-10 1 10 6.275 6.403 0.158 o
-10 1 11 1.940 2.015 0.084 o
-10 1 12 3.874 3.905 0.106 o
-10 1 13 11.541 11.660 0.273 o
-10 1 14 17.956 17.998 0.410 o
-10 1 16 0.965 0.866 0.052 o
-10 1 17 14.965 15.017 0.357 o
-10 1 18 2.348 2.307 0.080 o
-10 1 19 1.804 1.961 0.079 o
-10 1 21 0.491 0.475 0.057 o
-10 1 22 11.503 11.600 0.299 o
-10 1 23 0.422 0.450 0.055 o
-10 2 1 0.542 0.518 0.040 o
-10 2 2 11.186 11.297 0.265 o
-10 2 3 49.557 49.495 1.096 o
-10 2 4 28.738 28.527 0.632 o
-10 2 7 1.340 1.296 0.055 o
-10 2 8 9.185 9.262 0.216 o
-10 2 9 13.682 13.420 0.306 o
-10 2 10 0.801 0.779 0.044 o
-10 2 11 11.843 12.002 0.275 o
-10 2 12 5.039 5.136 0.134 o
-10 2 13 11.358 11.584 0.296 o
-10 2 14 13.714 13.696 0.322 o
-10 2 16 0.696 0.686 0.051 o
-10 2 17 3.753 3.731 0.114 o
-10 2 18 0.601 0.491 0.076 o
-10 2 20 0.360 0.362 0.044 o
-10 2 21 1.061 1.203 0.059 o
-10 3 1 2.623 2.740 0.088 o
-10 3 2 8.284 8.247 0.210 o
-10 3 3 3.628 3.789 0.107 o
-10 3 4 10.594 10.518 0.257 o
-10 3 6 11.077 11.090 0.261 o
-10 3 7 0.551 0.545 0.039 o
-10 3 8 6.067 6.101 0.160 o
-10 3 9 0.987 1.029 0.047 o
-10 3 10 7.953 7.863 0.188 o
-10 3 13 0.294 0.237 0.039 o
-10 3 14 8.218 7.988 0.193 o
-10 3 15 2.667 2.766 0.095 o
-10 3 16 0.192 0.135 0.039 o
-10 3 17 1.567 1.471 0.084 o
-10 3 18 0.380 0.414 0.041 o
-10 3 19 0.927 0.912 0.053 o
-10 3 20 7.194 6.940 0.246 o
-10 3 21 2.903 2.928 0.115 o
-10 4 2 10.791 10.933 0.254 o
-10 4 3 6.536 6.675 0.178 o
-10 4 4 0.298 0.275 0.043 o
-10 4 5 1.126 1.069 0.055 o
-10 4 6 3.566 3.545 0.108 o
-10 4 8 3.293 3.097 0.094 o
-10 4 9 3.186 3.097 0.108 o
-10 4 10 7.366 7.473 0.183 o
-10 4 13 8.039 7.924 0.216 o
-10 4 14 0.166 0.152 0.039 o
-10 4 16 10.919 10.788 0.249 o
-10 4 17 0.819 0.877 0.058 o
-10 5 2 7.236 7.200 0.211 o
-10 5 3 0.118 0.157 0.048 o
-10 5 4 2.364 2.226 0.072 o
-10 5 5 2.994 2.909 0.088 o
-10 5 6 6.272 6.287 0.157 o
-10 5 8 0.250 0.269 0.040 o
-10 5 10 0.736 0.692 0.062 o
-10 5 11 1.257 1.161 0.063 o
-10 5 12 15.088 14.920 0.342 o
-10 5 14 0.915 0.694 0.053 o
-9 0 2 4.181 4.113 0.114 o
-9 0 4 58.099 56.903 1.302 o
-9 0 6 24.907 24.814 0.557 o
-9 0 8 4.445 4.372 0.120 o
-9 0 10 52.550 53.470 1.192 o
-9 0 12 0.001 0.159 0.040 o
-9 0 14 1.877 1.983 0.095 o
-9 0 16 21.230 21.628 0.503 o
-9 0 18 0.279 0.368 0.059 o
-9 0 20 1.011 1.021 0.074 o
-9 0 22 6.786 6.832 0.192 o
-9 1 1 0.478 0.510 0.031 o
-9 1 2 1.427 1.411 0.052 o
-9 1 3 0.114 0.119 0.024 o
-9 1 4 10.527 10.572 0.266 o
-9 1 5 3.067 3.124 0.085 o
-9 1 6 22.635 22.462 0.500 o
-9 1 7 17.211 17.502 0.396 o
-9 1 8 4.938 4.866 0.122 o
-9 1 9 17.468 17.244 0.408 o
-9 1 10 1.139 1.172 0.058 o
-9 1 11 6.570 6.610 0.160 o
-9 1 12 0.071 0.110 0.029 o
-9 1 13 0.316 0.286 0.046 o
-9 1 14 13.714 13.678 0.315 o
-9 1 15 0.556 0.532 0.041 o
-9 1 16 2.553 2.558 0.086 o
-9 1 17 35.833 35.496 0.837 o
-9 1 18 6.651 6.618 0.165 o
-9 1 19 2.678 2.747 0.089 o
-9 1 20 4.290 4.402 0.143 o
-9 1 21 6.909 7.010 0.181 o
-9 1 23 2.274 2.131 0.104 o
-9 1 24 0.553 0.663 0.171 o
-9 2 1 4.868 4.962 0.130 o
-9 2 3 0.723 0.677 0.038 o
-9 2 4 0.348 0.399 0.030 o
-9 2 5 6.237 6.000 0.150 o
-9 2 6 34.651 34.539 0.779 o
-9 2 7 10.011 9.985 0.235 o
-9 2 8 56.211 56.047 1.273 o
-9 2 9 1.306 1.290 0.059 o
-9 2 10 5.430 5.479 0.141 o
-9 2 12 3.184 3.095 0.094 o
-9 2 13 31.606 31.263 0.693 o
-9 2 14 4.810 4.846 0.133 o
-9 2 15 0.499 0.484 0.045 o
-9 2 16 9.709 9.818 0.237 o
-9 2 17 8.200 8.249 0.224 o
-9 2 18 14.622 14.562 0.346 o
-9 2 19 4.082 3.850 0.117 o
-9 2 20 0.410 0.412 0.047 o
-9 2 21 7.220 7.031 0.269 o
-9 2 22 2.835 2.739 0.126 o
-9 2 23 7.656 7.488 0.531 o
-9 3 1 2.911 2.895 0.086 o
-9 3 2 86.395 86.176 1.925 o
-9 3 3 12.820 13.273 0.303 o
-9 3 4 21.812 21.670 0.484 o
-9 3 6 1.046 1.102 0.049 o
-9 3 7 20.519 20.555 0.462 o
-9 3 8 6.826 6.676 0.175 o
-9 3 9 1.463 1.735 0.064 o
-9 3 10 5.062 5.184 0.138 o
-9 3 11 1.108 1.185 0.052 o
-9 3 12 41.926 42.050 0.939 o
-9 3 13 6.738 6.865 0.192 o
-9 3 14 6.141 6.155 0.157 o
-9 3 15 2.591 2.954 0.092 o
-9 3 16 3.083 3.019 0.092 o
-9 3 17 0.127 0.154 0.040 o
-9 3 18 2.860 2.840 0.094 o
-9 3 21 0.448 0.735 0.063 o
-9 3 22 2.464 2.337 0.107 o
-9 4 1 11.884 12.236 0.297 o
-9 4 2 3.797 3.854 0.105 o
-9 4 3 21.579 21.739 0.489 o
-9 4 4 0.307 0.289 0.032 o
-9 4 6 8.162 8.259 0.204 o
-9 4 7 0.880 0.897 0.046 o
-9 4 8 4.429 4.348 0.119 o
-9 4 9 1.721 1.793 0.077 o
-9 4 10 0.602 0.642 0.042 o
-9 4 11 5.886 5.890 0.148 o
-9 4 12 6.236 6.293 0.160 o
-9 4 13 7.488 7.555 0.182 o
-9 4 14 0.274 0.280 0.038 o
-9 4 18 0.317 0.273 0.036 o
-9 4 19 0.606 0.621 0.051 o
-9 4 20 5.829 5.868 0.169 o
-9 5 1 1.547 1.500 0.069 o
-9 5 4 0.143 0.156 0.034 o
-9 5 6 0.849 0.875 0.045 o
-9 5 8 0.601 0.537 0.037 o
-9 5 9 3.652 3.657 0.112 o
-9 5 10 0.903 0.966 0.056 o
-9 5 12 3.240 3.198 0.090 o
-9 5 13 0.261 0.237 0.034 o
-9 5 14 0.194 0.210 0.039 o
-9 5 15 2.292 2.192 0.110 o
-9 5 16 8.887 8.956 0.217 o
-9 6 1 1.722 1.714 0.112 o
-9 6 2 0.298 0.216 0.043 o
-9 6 3 4.257 4.356 0.152 o
-9 6 4 0.309 0.274 0.040 o
-9 6 5 3.597 3.749 0.105 o
-9 6 6 0.701 0.889 0.047 o
-9 6 8 0.239 0.276 0.036 o
-9 6 9 0.079 0.272 0.037 o
-9 6 10 0.986 0.908 0.051 o
-9 6 11 8.013 8.460 0.356 o
-8 0 2 3.738 3.540 0.107 o
-8 0 4 4.317 4.569 0.120 o
-8 0 8 49.780 49.466 1.086 o
-8 0 10 6.517 6.554 0.160 o
-8 0 12 3.045 3.250 0.105 o
-8 0 14 43.673 43.555 0.964 o
-8 0 16 11.916 11.882 0.293 o
-8 0 18 2.369 2.349 0.104 o
-8 0 20 41.134 41.352 0.952 o
-8 0 22 0.332 0.255 0.066 o
-8 1 1 29.717 29.687 0.679 o
-8 1 3 19.624 19.313 0.464 o
-8 1 4 30.120 29.816 0.665 o
-8 1 5 22.857 22.807 0.502 o
-8 1 6 1.722 1.685 0.057 o
-8 1 7 56.612 56.074 1.241 o
-8 1 8 5.902 5.927 0.142 o
-8 1 9 13.734 13.730 0.316 o
-8 1 10 36.568 36.204 0.798 o
-8 1 11 1.646 1.657 0.060 o
-8 1 12 1.842 1.852 0.071 o
-8 1 14 0.491 0.568 0.041 o
-8 1 15 15.935 16.137 0.405 o
-8 1 16 8.594 8.759 0.220 o
-8 1 17 6.972 7.056 0.182 o
-8 1 18 10.419 10.305 0.245 o
-8 1 20 1.088 1.049 0.064 o
-8 1 21 4.071 4.255 0.129 o
-8 1 23 0.976 1.063 0.154 o
-8 1 24 9.052 8.982 0.356 o
-8 2 1 40.648 40.444 0.895 o
-8 2 2 16.722 16.685 0.373 o
-8 2 3 7.094 7.089 0.166 o
-8 2 4 16.230 15.945 0.356 o
-8 2 5 34.394 34.476 0.764 o
-8 2 6 58.421 57.767 1.318 o
-8 2 7 6.682 6.497 0.157 o
-8 2 8 6.756 6.829 0.176 o
-8 2 9 1.370 1.404 0.061 o
-8 2 10 11.264 11.335 0.261 o
-8 2 11 20.445 20.254 0.457 o
-8 2 12 8.102 8.009 0.204 o
-8 2 13 2.034 2.016 0.070 o
-8 2 14 11.433 11.405 0.301 o
-8 2 15 0.127 0.193 0.038 o
-8 2 16 37.239 36.828 0.832 o
-8 2 17 1.956 2.063 0.083 o
-8 2 18 13.727 13.571 0.323 o
-8 2 19 3.657 3.706 0.117 o
-8 2 20 0.459 0.392 0.046 o
-8 2 22 0.199 0.207 0.047 o
-8 2 23 2.953 2.781 0.100 o
-8 3 1 0.235 0.222 0.029 o
-8 3 2 8.707 8.647 0.203 o
-8 3 3 7.189 7.230 0.202 o
-8 3 5 0.869 0.871 0.042 o
-8 3 6 34.294 33.904 0.748 o
-8 3 7 10.617 10.498 0.243 o
-8 3 8 22.350 22.284 0.548 o
-8 3 9 5.498 5.425 0.136 o
-8 3 10 9.697 9.990 0.232 o
-8 3 11 6.268 6.260 0.154 o
-8 3 12 51.595 51.094 1.139 o
-8 3 13 1.582 1.576 0.064 o
-8 3 14 1.369 1.363 0.066 o
-8 3 15 0.477 0.463 0.041 o
-8 3 16 17.560 17.263 0.400 o
-8 3 17 16.571 16.887 0.406 o
-8 3 19 1.133 1.126 0.071 o
-8 3 20 8.002 7.794 0.197 o
-8 3 22 24.096 22.993 0.508 o
-8 3 23 2.923 3.021 0.234 o
-8 4 1 21.836 21.892 0.538 o
-8 4 2 20.432 20.484 0.476 o
-8 4 3 16.184 16.365 0.391 o
-8 4 4 11.532 11.507 0.267 o
-8 4 5 3.138 3.124 0.090 o
-8 4 6 4.816 4.863 0.123 o
-8 4 7 3.037 3.109 0.088 o
-8 4 8 4.461 4.478 0.119 o
-8 4 9 0.095 0.111 0.035 o
-8 4 10 0.339 0.353 0.037 o
-8 4 11 22.782 22.563 0.510 o
-8 4 12 17.453 17.311 0.410 o
-8 4 13 11.066 10.979 0.296 o
-8 4 15 3.087 3.124 0.093 o
-8 4 16 2.772 2.782 0.086 o
-8 4 18 5.086 4.944 0.127 o
-8 4 20 0.318 0.268 0.038 o
-8 4 21 7.283 7.258 0.514 o
-8 5 1 4.853 4.855 0.130 o
-8 5 2 27.916 28.096 0.649 o
-8 5 4 0.148 0.112 0.036 o
-8 5 5 1.398 1.410 0.061 o
-8 5 6 0.472 0.539 0.042 o
-8 5 7 4.849 4.900 0.126 o
-8 5 8 8.250 8.193 0.195 o
-8 5 10 2.380 2.448 0.086 o
-8 5 12 0.931 0.888 0.053 o
-8 5 13 0.120 0.167 0.044 o
-8 5 14 0.629 0.595 0.046 o
-8 5 15 0.684 0.713 0.047 o
-8 6 1 0.354 0.346 0.037 o
-8 6 2 0.687 0.631 0.074 o
-8 6 3 0.358 0.436 0.047 o
-8 6 4 0.761 0.707 0.046 o
-8 6 6 0.445 0.496 0.040 o
-8 6 7 1.261 1.203 0.066 o
-8 6 8 0.476 0.517 0.046 o
-8 6 9 0.309 0.390 0.044 o
-8 6 11 0.723 0.767 0.054 o
-8 6 13 1.619 1.678 0.065 o
-8 6 14 0.494 0.429 0.085 o
-7 0 2 14.998 14.478 0.337 o
-7 0 4 40.581 39.358 0.961 o
-7 0 6 259.512 259.873 5.831 o
-7 0 8 0.245 0.259 0.030 o
-7 0 10 1.407 1.387 0.058 o
-7 0 12 5.710 5.627 0.159 o
-7 0 14 10.565 12.798 0.294 o
-7 0 16 7.271 6.998 0.183 o
-7 0 18 7.406 7.512 0.192 o
-7 0 20 0.544 0.509 0.047 o
-7 0 22 0.458 0.502 0.090 o
-7 0 24 7.921 8.052 0.248 o
-7 0 26 1.978 1.883 0.101 o
-7 1 1 18.169 18.409 0.414 o
-7 1 2 88.842 88.105 1.944 o
-7 1 3 3.736 3.798 0.102 o
-7 1 4 0.412 0.431 0.026 o
-7 1 5 2.331 2.232 0.062 o
-7 1 6 19.842 19.277 0.429 o
-7 1 7 52.934 51.976 1.153 o
-7 1 9 10.295 10.534 0.240 o
-7 1 10 29.736 29.743 0.661 o
-7 1 11 46.226 46.099 1.016 o
-7 1 12 2.831 2.852 0.079 o
-7 1 13 9.332 9.167 0.212 o
-7 1 14 15.104 15.162 0.347 o
-7 1 15 13.543 13.690 0.312 o
-7 1 16 5.825 5.919 0.153 o
-7 1 17 22.345 22.762 0.512 o
-7 1 18 0.194 0.162 0.039 o
-7 1 19 26.337 26.445 0.594 o
-7 1 20 4.357 4.614 0.143 o
-7 1 21 2.889 3.131 0.109 o
-7 1 22 1.359 1.227 0.064 o
-7 1 23 1.013 1.118 0.060 o
-7 1 24 0.791 0.873 0.053 o
-7 1 25 7.734 7.772 0.233 o
-7 1 26 0.658 0.700 0.055 o
-7 2 2 0.336 0.372 0.024 o
-7 2 3 23.645 22.632 0.498 o
-7 2 4 3.536 3.445 0.086 o
-7 2 5 10.182 10.022 0.227 o
-7 2 6 2.187 2.201 0.063 o
-7 2 7 19.721 19.369 0.434 o
-7 2 8 16.764 16.892 0.379 o
-7 2 9 17.467 17.108 0.384 o
-7 2 10 79.527 78.449 1.732 o
-7 2 11 22.895 22.569 0.503 o
-7 2 12 7.870 7.999 0.190 o
-7 2 13 5.227 4.886 0.129 o
-7 2 14 3.431 3.678 0.109 o
-7 2 15 41.496 41.258 0.915 o
-7 2 16 12.382 12.576 0.321 o
-7 2 17 2.085 2.203 0.078 o
-7 2 18 4.717 4.659 0.124 o
-7 2 19 0.234 0.235 0.036 o
-7 2 20 23.231 23.899 0.539 o
-7 2 21 12.572 12.323 0.289 o
-7 2 22 4.456 4.565 0.157 o
-7 2 23 3.863 3.980 0.115 o
-7 2 24 4.766 4.798 0.179 o
-7 2 25 2.503 2.557 0.132 o
-7 3 1 2.064 2.100 0.064 o
-7 3 2 1.889 1.911 0.063 o
-7 3 3 2.232 2.222 0.063 o
-7 3 4 78.141 77.386 1.735 o
-7 3 5 35.340 34.886 0.796 o
-7 3 6 16.433 16.568 0.370 o
-7 3 8 0.070 0.083 0.026 o
-7 3 9 9.768 9.850 0.227 o
-7 3 10 11.436 11.666 0.268 o
-7 3 11 0.263 0.283 0.030 o
-7 3 12 1.017 0.930 0.044 o
-7 3 13 7.510 7.390 0.180 o
-7 3 14 22.939 22.658 0.535 o
-7 3 15 4.719 4.780 0.131 o
-7 3 16 22.493 22.543 0.510 o
-7 3 17 0.170 0.187 0.036 o
-7 3 18 9.968 9.829 0.240 o
-7 3 19 0.143 0.109 0.036 o
-7 3 20 2.665 2.708 0.088 o
-7 3 21 2.743 2.840 0.098 o
-7 3 22 2.920 2.824 0.087 o
-7 3 23 0.142 0.163 0.051 o
-7 3 24 2.468 2.476 0.093 o
-7 4 1 22.094 22.286 0.498 o
-7 4 2 6.886 7.024 0.166 o
-7 4 3 0.625 0.671 0.038 o
-7 4 4 2.129 2.166 0.074 o
-7 4 5 23.693 23.357 0.522 o
-7 4 6 4.374 4.483 0.119 o
-7 4 7 4.481 4.450 0.116 o
-7 4 8 27.076 26.392 0.624 o
-7 4 9 5.475 5.517 0.151 o
-7 4 10 0.224 0.212 0.031 o
-7 4 11 14.492 14.327 0.333 o
-7 4 12 3.582 3.608 0.100 o
-7 4 14 3.457 3.410 0.124 o
-7 4 15 12.559 12.525 0.324 o
-7 4 16 9.723 9.993 0.245 o
-7 4 17 3.548 3.678 0.104 o
-7 4 19 0.690 0.723 0.043 o
-7 4 20 0.252 0.277 0.042 o
-7 4 21 7.756 7.450 0.186 o
-7 4 22 9.905 9.835 0.241 o
-7 5 1 3.986 3.947 0.135 o
-7 5 2 20.194 20.410 0.458 o
-7 5 3 3.605 3.510 0.103 o
-7 5 4 1.890 1.846 0.068 o
-7 5 5 0.974 0.914 0.053 o
-7 5 6 8.071 8.225 0.201 o
-7 5 7 0.651 0.638 0.039 o
-7 5 10 5.401 5.533 0.149 o
-7 5 11 9.354 9.140 0.217 o
-7 5 12 25.671 25.662 0.579 o
-7 5 13 0.117 0.113 0.032 o
-7 5 14 1.218 1.272 0.074 o
-7 5 16 0.207 0.235 0.041 o
-7 5 17 2.498 2.270 0.103 o
-7 5 18 3.956 4.065 0.113 o
-7 5 19 0.586 0.530 0.045 o
-7 6 1 16.810 16.543 0.527 o
-7 6 2 3.172 3.201 0.101 o
-7 6 4 0.698 0.723 0.043 o
-7 6 5 1.319 1.260 0.053 o
-7 6 6 6.393 6.231 0.156 o
-7 6 7 2.475 2.419 0.079 o
-7 6 8 4.539 4.496 0.119 o
-7 6 9 2.205 2.158 0.077 o
-7 6 10 0.399 0.410 0.054 o
-7 6 11 1.905 1.798 0.070 o
-7 6 13 0.503 0.462 0.043 o
-7 7 1 0.361 0.319 0.050 o
-7 7 2 0.290 0.282 0.081 o
-7 7 4 0.765 0.752 0.069 o
-7 7 5 2.465 2.397 0.100 o
-7 7 6 0.893 0.995 0.078 o
-7 7 7 0.449 0.645 0.146 o
-6 0 2 183.605 191.890 5.876 o
-6 0 4 3.255 2.980 0.281 o
-6 0 6 166.392 166.548 5.411 o
-6 0 10 286.960 292.837 6.359 o
-6 0 14 25.623 25.771 0.556 o
-6 0 16 127.988 128.819 2.885 o
-6 0 18 15.112 15.236 0.359 o
-6 0 20 9.701 9.772 0.270 o
-6 0 22 2.723 2.691 0.125 o
-6 0 24 12.702 12.835 0.328 o
-6 0 26 4.654 4.697 0.155 o
-6 1 1 1.368 1.256 0.157 o
-6 1 2 6.875 7.071 0.331 o
-6 1 3 1.046 1.244 0.182 o
-6 1 4 32.310 33.499 1.031 o
-6 1 5 98.311 96.874 2.708 o
-6 1 6 154.828 155.981 4.422 o
-6 1 7 2.704 2.726 0.124 o
-6 1 8 2.952 3.000 0.081 o
-6 1 9 44.087 44.183 0.976 o
-6 1 10 50.665 50.712 1.120 o
-6 1 11 4.049 4.189 0.105 o
-6 1 12 42.237 42.141 0.930 o
-6 1 13 4.906 4.902 0.120 o
-6 1 14 22.092 21.681 0.486 o
-6 1 15 3.621 3.680 0.094 o
-6 1 16 0.638 0.586 0.034 o
-6 1 17 1.021 1.028 0.044 o
-6 1 18 0.673 0.610 0.035 o
-6 1 19 11.780 11.972 0.284 o
-6 1 20 27.661 28.158 0.649 o
-6 1 21 12.790 12.800 0.313 o
-6 1 22 1.393 1.423 0.069 o
-6 1 23 2.142 2.216 0.084 o
-6 1 24 0.271 0.361 0.052 o
-6 1 25 1.321 1.241 0.093 o
-6 1 26 1.617 1.746 0.073 o
-6 2 1 72.711 71.106 1.574 o
-6 2 2 40.579 39.943 0.860 o
-6 2 3 62.461 60.831 1.331 o
-6 2 4 5.470 5.481 0.181 o
-6 2 5 4.311 4.278 0.105 o
-6 2 6 1.055 1.089 0.041 o
-6 2 7 0.196 0.219 0.024 o
-6 2 8 13.503 13.351 0.309 o
-6 2 9 32.334 31.323 0.701 o
-6 2 10 9.812 9.778 0.225 o
-6 2 11 0.241 0.187 0.024 o
-6 2 12 9.081 8.896 0.224 o
-6 2 13 0.242 0.275 0.029 o
-6 2 14 6.361 6.308 0.152 o
-6 2 15 2.779 2.760 0.084 o
-6 2 16 0.361 0.341 0.032 o
-6 2 17 9.534 9.620 0.243 o
-6 2 18 19.207 19.234 0.436 o
-6 2 19 2.522 2.483 0.077 o
-6 2 20 20.568 21.112 0.524 o
-6 2 21 1.622 1.511 0.064 o
-6 2 22 0.148 0.134 0.037 o
-6 2 23 0.569 0.604 0.061 o
-6 2 24 0.217 0.218 0.045 o
-6 2 25 12.471 11.994 0.278 o
-6 3 1 13.544 13.660 0.306 o
-6 3 2 12.232 11.698 0.266 o
-6 3 3 1.445 1.628 0.052 o
-6 3 4 4.568 4.638 0.113 o
-6 3 5 0.725 0.706 0.036 o
-6 3 6 6.175 7.084 0.184 o
-6 3 7 8.053 7.782 0.184 o
-6 3 8 41.255 40.843 0.916 o
-6 3 9 32.563 31.968 0.712 o
-6 3 10 0.510 0.500 0.034 o
-6 3 11 4.401 4.353 0.114 o
-6 3 12 0.388 0.967 0.066 o
-6 3 13 6.845 6.702 0.163 o
-6 3 14 55.881 55.424 1.291 o
-6 3 15 12.731 12.780 0.318 o
-6 3 16 1.796 1.779 0.062 o
-6 3 17 0.613 0.624 0.037 o
-6 3 18 8.505 8.447 0.203 o
-6 3 19 15.319 15.711 0.371 o
-6 3 20 1.032 1.011 0.051 o
-6 3 21 0.460 0.482 0.051 o
-6 3 22 4.902 4.724 0.130 o
-6 3 23 0.901 0.735 0.057 o
-6 3 24 18.399 18.366 0.411 o
-6 3 25 2.118 2.101 0.217 o
-6 4 1 8.127 8.106 0.189 o
-6 4 3 7.219 7.294 0.188 o
-6 4 4 43.846 43.996 0.985 o
-6 4 5 40.287 40.353 0.901 o
-6 4 6 1.909 1.761 0.069 o
-6 4 8 6.877 6.937 0.170 o
-6 4 9 0.097 0.091 0.028 o
-6 4 10 1.885 1.981 0.079 o
-6 4 11 6.995 6.977 0.185 o
-6 4 12 11.786 11.666 0.269 o
-6 4 13 13.743 13.992 0.322 o
-6 4 14 13.802 13.611 0.349 o
-6 4 15 22.766 22.749 0.544 o
-6 4 16 0.513 0.565 0.038 o
-6 4 18 6.769 6.700 0.185 o
-6 4 19 0.994 1.000 0.061 o
-6 4 21 1.477 1.457 0.068 o
-6 4 22 0.524 0.548 0.052 o
-6 4 23 3.605 3.599 0.192 o
-6 5 2 0.680 0.749 0.039 o
-6 5 3 1.198 1.168 0.053 o
-6 5 4 38.161 38.099 0.849 o
-6 5 6 6.918 6.881 0.174 o
-6 5 7 2.718 2.654 0.092 o
-6 5 8 16.518 16.696 0.377 o
-6 5 9 1.392 1.346 0.059 o
-6 5 10 15.542 15.447 0.353 o
-6 5 11 0.519 0.592 0.042 o
-6 5 12 0.250 0.239 0.036 o
-6 5 13 0.623 0.651 0.044 o
-6 5 14 2.321 2.251 0.078 o
-6 5 15 1.409 1.450 0.058 o
-6 5 16 7.886 8.016 0.197 o
-6 5 17 0.237 0.199 0.047 o
-6 5 18 1.490 1.453 0.087 o
-6 5 19 0.187 0.188 0.039 o
-6 5 20 2.480 2.564 0.100 o
-6 6 1 1.824 1.811 0.108 o
-6 6 2 4.416 4.296 0.120 o
-6 6 3 0.395 0.543 0.039 o
-6 6 4 3.316 3.318 0.099 o
-6 6 5 9.754 9.536 0.237 o
-6 6 6 1.100 1.666 0.067 o
-6 6 7 0.801 0.771 0.047 o
-6 6 8 0.499 0.531 0.039 o
-6 6 10 5.218 5.233 0.135 o
-6 6 11 10.392 10.143 0.248 o
-6 6 12 4.465 4.681 0.134 o
-6 6 13 0.809 0.796 0.063 o
-6 6 14 0.931 0.939 0.049 o
-6 6 15 3.850 3.797 0.151 o
-6 6 16 2.179 2.119 0.104 o
-6 6 17 1.497 1.526 0.100 o
-6 7 1 6.096 6.203 0.199 o
-6 7 3 0.326 0.278 0.072 o
-6 7 4 0.492 0.485 0.069 o
-6 7 5 0.450 0.429 0.047 o
-6 7 6 1.319 1.264 0.076 o
-6 7 7 2.775 2.703 0.112 o
-6 7 8 0.298 0.248 0.041 o
-6 7 9 2.749 2.840 0.089 o
-5 0 2 91.262 92.717 2.352 o
-5 0 4 19.545 19.092 0.651 o
-5 0 6 116.648 115.937 3.437 o
-5 0 8 282.481 292.438 8.309 o
-5 0 10 100.663 101.680 8.809 o
-5 0 12 43.919 43.944 1.039 o
-5 0 14 0.577 0.592 0.037 o
-5 0 18 26.324 26.576 0.592 o
-5 0 20 98.408 102.108 2.636 o
-5 0 22 0.206 0.228 0.070 o
-5 0 24 0.566 0.564 0.093 o
-5 0 26 14.138 14.189 0.352 o
-5 1 1 58.256 57.567 1.473 o
-5 1 2 258.547 259.897 6.311 o
-5 1 3 50.852 51.466 1.308 o
-5 1 4 93.696 96.700 2.677 o
-5 1 5 31.490 32.867 0.972 o
-5 1 6 3.838 3.975 0.286 o
-5 1 7 0.942 1.004 0.181 o
-5 1 8 17.505 16.799 0.665 o
-5 1 9 266.394 265.916 7.194 o
-5 1 10 25.831 25.771 0.581 o
-5 1 11 0.174 0.189 0.027 o
-5 1 12 24.705 24.702 0.561 o
-5 1 13 8.902 8.768 0.203 o
-5 1 14 25.672 25.801 0.573 o
-5 1 15 39.374 39.242 0.870 o
-5 1 16 54.318 54.323 1.208 o
-5 1 17 16.294 16.130 0.361 o
-5 1 18 0.570 0.616 0.039 o
-5 1 19 40.664 40.478 0.909 o
-5 1 20 0.564 0.624 0.045 o
-5 1 21 0.992 1.081 0.060 o
-5 1 22 1.440 1.432 0.083 o
-5 1 23 0.241 0.327 0.059 o
-5 1 24 15.942 15.733 0.425 o
-5 1 25 1.056 1.084 0.060 o
-5 1 26 2.852 2.844 0.099 o
-5 1 27 2.341 2.369 0.082 o
-5 2 1 9.505 9.508 0.509 o
-5 2 3 4.816 4.555 0.433 o
-5 2 4 29.061 28.183 1.247 o
-5 2 5 180.394 176.560 5.051 o
-5 2 6 82.147 82.754 2.439 o
-5 2 7 22.014 22.149 0.834 o
-5 2 8 1.934 1.867 0.059 o
-5 2 9 0.140 0.141 0.022 o
-5 2 11 40.196 39.716 0.907 o
-5 2 12 24.490 23.975 0.556 o
-5 2 13 73.499 73.597 1.626 o
-5 2 14 0.691 0.698 0.034 o
-5 2 15 12.151 11.929 0.276 o
-5 2 16 3.383 3.404 0.092 o
-5 2 17 7.824 7.803 0.209 o
-5 2 18 4.956 4.986 0.131 o
-5 2 19 11.275 11.346 0.268 o
-5 2 21 0.234 0.238 0.038 o
-5 2 22 9.957 10.061 0.245 o
-5 2 23 7.674 7.582 0.191 o
-5 2 24 1.614 1.713 0.076 o
-5 2 26 0.279 0.278 0.042 o
-5 3 1 20.335 20.196 0.445 o
-5 3 2 0.082 0.078 0.020 o
-5 3 3 6.304 6.213 0.145 o
-5 3 4 11.627 11.401 0.259 o
-5 3 5 3.503 3.687 0.096 o
-5 3 6 4.698 4.721 0.115 o
-5 3 7 15.990 16.303 0.367 o
-5 3 8 2.257 2.272 0.065 o
-5 3 10 6.497 6.539 0.156 o
-5 3 11 0.593 0.612 0.030 o
-5 3 12 0.720 0.728 0.033 o
-5 3 14 0.847 0.854 0.038 o
-5 3 15 2.345 2.265 0.081 o
-5 3 17 0.126 0.123 0.030 o
-5 3 18 12.823 12.708 0.295 o
-5 3 19 5.930 5.910 0.165 o
-5 3 20 0.260 0.281 0.038 o
-5 3 21 0.913 0.861 0.052 o
-5 3 23 3.844 4.054 0.187 o
-5 3 24 9.089 8.893 0.225 o
-5 3 25 0.973 0.954 0.054 o
-5 4 1 3.384 3.307 0.095 o
-5 4 3 24.474 24.872 0.547 o
-5 4 4 24.868 24.808 0.579 o
-5 4 5 14.153 14.146 0.319 o
-5 4 7 1.125 1.136 0.054 o
-5 4 8 25.825 25.391 0.579 o
-5 4 10 24.312 24.457 0.555 o
-5 4 11 0.346 0.344 0.030 o
-5 4 12 2.058 2.079 0.066 o
-5 4 13 15.102 15.158 0.368 o
-5 4 14 7.316 7.278 0.194 o
-5 4 15 13.515 13.204 0.332 o
-5 4 17 2.374 2.426 0.080 o
-5 4 18 16.735 17.018 0.388 o
-5 4 19 0.429 0.504 0.050 o
-5 4 21 0.240 0.238 0.065 o
-5 4 22 2.638 2.580 0.094 o
-5 4 23 9.262 9.154 0.316 o
-5 5 1 2.835 2.849 0.087 o
-5 5 2 4.202 4.216 0.109 o
-5 5 3 3.240 3.228 0.103 o
-5 5 4 67.363 67.312 1.500 o
-5 5 5 0.202 0.297 0.030 o
-5 5 6 9.209 8.968 0.215 o
-5 5 7 2.521 2.527 0.077 o
-5 5 8 6.393 6.407 0.155 o
-5 5 9 2.979 2.936 0.091 o
-5 5 10 3.692 3.684 0.097 o
-5 5 12 11.703 11.965 0.281 o
-5 5 13 4.163 4.122 0.120 o
-5 5 14 50.352 50.746 1.127 o
-5 5 15 0.101 0.119 0.032 o
-5 5 16 0.740 0.796 0.050 o
-5 5 17 0.567 0.592 0.046 o
-5 5 18 1.464 1.533 0.067 o
-5 5 19 1.083 0.989 0.051 o
-5 5 20 2.930 2.996 0.197 o
-5 5 21 0.211 0.174 0.044 o
-5 6 2 0.351 0.355 0.037 o
-5 6 3 20.139 19.961 0.460 o
-5 6 4 2.913 2.939 0.085 o
-5 6 5 1.446 1.450 0.057 o
-5 6 6 0.909 0.881 0.043 o
-5 6 7 1.735 1.706 0.061 o
-5 6 8 12.044 12.341 0.285 o
-5 6 9 2.481 2.409 0.075 o
-5 6 10 10.013 9.896 0.234 o
-5 6 11 0.764 0.749 0.049 o
-5 6 13 1.565 1.598 0.064 o
-5 6 15 4.168 4.014 0.114 o
-5 6 16 0.208 0.253 0.042 o
-5 6 17 0.797 0.748 0.082 o
-5 7 1 0.140 0.173 0.042 o
-5 7 2 1.002 0.937 0.075 o
-5 7 3 0.628 0.597 0.063 o
-5 7 4 0.403 0.341 0.039 o
-5 7 5 0.074 0.123 0.036 o
-5 7 7 2.503 2.303 0.101 o
-5 7 9 2.267 2.376 0.080 o
-5 7 10 2.117 2.182 0.072 o
-5 7 11 2.675 2.745 0.091 o
-4 0 2 991.316 991.541 49.619 o
-4 0 4 119.753 125.457 4.677 o
-4 0 6 46.986 43.075 1.699 o
-4 0 8 570.518 573.915 24.533 o
-4 0 12 236.506 237.651 5.806 o
-4 0 14 1.857 1.877 0.074 o
-4 0 16 56.430 56.444 1.245 o
-4 0 18 131.726 130.030 3.029 o
-4 0 22 1.283 1.067 0.092 o
-4 0 24 1.797 1.763 0.116 o
-4 0 26 11.540 10.698 0.383 o
-4 1 1 93.504 95.150 2.285 o
-4 1 2 57.450 58.317 1.407 o
-4 1 3 1.752 1.799 0.168 o
-4 1 4 33.237 34.615 1.111 o
-4 1 6 180.556 180.559 4.496 o
-4 1 7 86.651 86.734 2.389 o
-4 1 8 177.231 173.753 4.590 o
-4 1 9 46.716 45.958 1.326 o
-4 1 11 1.803 1.692 0.240 o
-4 1 12 81.027 80.318 1.782 o
-4 1 13 15.411 14.952 0.335 o
-4 1 14 16.654 16.615 0.380 o
-4 1 15 0.128 0.104 0.022 o
-4 1 16 21.689 21.806 0.486 o
-4 1 17 4.546 4.494 0.120 o
-4 1 18 0.997 0.935 0.048 o
-4 1 19 52.491 52.844 1.282 o
-4 1 20 11.897 12.195 0.297 o
-4 1 21 1.579 1.446 0.071 o
-4 1 22 22.338 21.704 0.496 o
-4 1 23 9.340 9.897 0.257 o
-4 1 24 2.683 2.700 0.117 o
-4 1 25 4.558 4.421 0.133 o
-4 1 26 2.444 2.479 0.088 o
-4 1 27 6.051 5.817 0.184 o
-4 2 1 55.354 52.721 2.217 o
-4 2 2 12.947 13.140 0.638 o
-4 2 3 79.157 78.371 2.097 o
-4 2 4 61.184 63.194 1.742 o
-4 2 5 5.896 6.308 0.355 o
-4 2 6 5.736 6.045 0.361 o
-4 2 7 6.808 7.337 0.380 o
-4 2 8 83.206 87.074 2.514 o
-4 2 9 14.428 13.928 0.580 o
-4 2 10 30.685 30.357 0.681 o
-4 2 11 7.750 7.660 0.177 o
-4 2 12 0.756 0.818 0.033 o
-4 2 13 3.245 3.331 0.085 o
-4 2 14 22.476 22.473 0.506 o
-4 2 15 34.681 34.799 0.776 o
-4 2 16 10.153 10.390 0.241 o
-4 2 17 7.351 7.341 0.179 o
-4 2 18 7.680 7.587 0.228 o
-4 2 19 6.126 6.089 0.156 o
-4 2 20 0.106 0.113 0.034 o
-4 2 21 4.526 4.497 0.133 o
-4 2 22 3.939 4.033 0.122 o
-4 2 23 18.712 18.169 0.417 o
-4 2 24 2.473 2.391 0.095 o
-4 2 25 3.148 3.228 0.139 o
-4 2 26 1.310 1.325 0.064 o
-4 3 1 5.230 5.245 0.215 o
-4 3 2 14.188 14.782 0.902 o
-4 3 3 23.358 23.853 2.084 o
-4 3 4 246.779 244.022 5.516 o
-4 3 5 29.395 28.665 0.638 o
-4 3 6 8.360 8.338 0.192 o
-4 3 7 5.532 5.345 0.126 o
-4 3 8 0.278 0.286 0.021 o
-4 3 9 37.865 37.880 0.832 o
-4 3 10 64.367 64.780 1.444 o
-4 3 11 21.199 20.793 0.473 o
-4 3 12 12.524 12.497 0.283 o
-4 3 13 1.013 1.007 0.042 o
-4 3 14 31.914 31.599 0.707 o
-4 3 15 5.922 5.948 0.146 o
-4 3 16 3.986 4.005 0.138 o
-4 3 17 14.865 15.055 0.348 o
-4 3 18 2.604 2.591 0.080 o
-4 3 20 6.220 5.971 0.156 o
-4 3 21 1.553 1.506 0.094 o
-4 3 22 1.147 1.004 0.060 o
-4 3 23 0.481 0.412 0.048 o
-4 3 25 0.783 0.732 0.051 o
-4 4 1 0.189 0.137 0.022 o
-4 4 2 5.184 5.306 0.126 o
-4 4 3 61.625 62.205 1.375 o
-4 4 4 0.998 1.254 0.046 o
-4 4 5 11.781 11.763 0.274 o
-4 4 6 29.066 29.407 0.646 o
-4 4 7 9.950 9.842 0.224 o
-4 4 8 4.547 4.499 0.111 o
-4 4 9 2.201 2.176 0.062 o
-4 4 10 2.857 2.979 0.088 o
-4 4 11 0.123 0.128 0.024 o
-4 4 12 0.346 0.379 0.032 o
-4 4 13 29.285 29.213 0.686 o
-4 4 14 23.161 22.745 0.553 o
-4 4 15 0.885 0.876 0.041 o
-4 4 16 1.832 1.748 0.067 o
-4 4 17 4.739 4.607 0.134 o
-4 4 18 2.175 2.213 0.081 o
-4 4 20 4.703 4.617 0.131 o
-4 4 21 0.294 0.318 0.046 o
-4 4 22 2.885 2.998 0.127 o
-4 4 23 5.581 5.356 0.145 o
-4 5 2 22.871 22.995 0.513 o
-4 5 3 2.379 2.396 0.077 o
-4 5 4 0.549 0.502 0.034 o
-4 5 6 5.537 5.546 0.137 o
-4 5 7 0.066 0.087 0.027 o
-4 5 8 8.360 8.328 0.196 o
-4 5 9 0.198 0.165 0.029 o
-4 5 10 12.765 12.897 0.304 o
-4 5 11 1.397 1.402 0.055 o
-4 5 12 7.845 7.885 0.208 o
-4 5 13 0.559 0.573 0.063 o
-4 5 14 13.673 13.792 0.350 o
-4 5 15 0.238 0.194 0.035 o
-4 5 17 1.652 1.711 0.071 o
-4 5 18 12.317 12.596 0.292 o
-4 5 19 0.503 0.562 0.063 o
-4 5 20 0.279 0.325 0.061 o
-4 6 1 0.143 0.102 0.031 o
-4 6 2 5.027 5.038 0.134 o
-4 6 3 13.561 13.565 0.340 o
-4 6 4 3.576 3.562 0.097 o
-4 6 5 5.972 5.844 0.162 o
-4 6 6 1.827 1.836 0.078 o
-4 6 7 9.852 9.761 0.260 o
-4 6 8 1.472 1.387 0.056 o
-4 6 9 0.207 0.187 0.032 o
-4 6 10 0.229 0.212 0.032 o
-4 6 11 0.517 0.525 0.039 o
-4 6 12 4.425 4.454 0.120 o
-4 6 13 20.532 20.484 0.463 o
-4 6 14 5.097 4.921 0.161 o
-4 6 16 1.091 1.135 0.086 o
-4 6 17 0.488 0.482 0.060 o
-4 6 18 4.227 4.345 0.128 o
-4 7 2 4.789 4.601 0.141 o
-4 7 3 5.195 5.104 0.131 o
-4 7 4 2.864 2.812 0.101 o
-4 7 6 0.910 0.945 0.052 o
-4 7 7 2.871 2.975 0.087 o
-4 7 8 2.164 2.135 0.071 o
-4 7 9 7.983 7.781 0.206 o
-4 7 10 0.284 0.289 0.056 o
-4 7 11 0.893 0.909 0.049 o
-4 7 12 0.137 0.150 0.037 o
-4 7 13 0.329 0.296 0.040 o
-3 0 2 14.638 14.802 0.488 o
-3 0 4 90.682 92.197 4.413 o
-3 0 6 14.016 15.930 0.720 o
-3 0 8 22.732 24.396 1.249 o
-3 0 10 3.993 4.339 0.423 o
-3 0 12 143.994 149.117 5.035 o
-3 0 14 18.132 17.955 0.404 o
-3 0 16 13.302 13.395 0.365 o
-3 0 18 32.912 34.331 0.757 o
-3 0 20 9.649 9.403 0.642 o
-3 0 22 96.465 94.914 2.186 o
-3 0 24 0.068 0.550 0.102 o
-3 0 26 4.375 4.149 0.204 o
-3 1 1 338.454 339.974 7.866 o
-3 1 2 35.317 35.287 1.017 o
-3 1 3 163.648 166.410 4.063 o
-3 1 4 235.359 237.010 6.357 o
-3 1 5 212.050 216.792 5.192 o
-3 1 7 345.645 346.284 8.351 o
-3 1 8 8.349 8.777 0.461 o
-3 1 9 61.347 62.434 1.710 o
-3 1 10 3.247 3.703 0.279 o
-3 1 11 158.210 160.685 4.509 o
-3 1 12 52.539 51.156 1.236 o
-3 1 13 0.824 0.823 0.039 o
-3 1 14 0.322 0.331 0.028 o
-3 1 15 0.122 0.102 0.029 o
-3 1 16 31.286 31.528 0.768 o
-3 1 17 59.162 58.584 1.428 o
-3 1 18 38.557 38.528 0.911 o
-3 1 19 0.267 0.279 0.039 o
-3 1 20 2.039 2.024 0.086 o
-3 1 21 8.074 8.133 0.223 o
-3 1 22 2.170 2.348 0.096 o
-3 1 23 1.846 1.834 0.111 o
-3 1 24 0.235 0.309 0.052 o
-3 1 25 1.244 1.147 0.068 o
-3 1 26 17.471 17.067 0.388 o
-3 1 27 2.232 2.262 0.081 o
-3 2 1 84.894 85.654 2.215 o
-3 2 2 181.608 185.422 6.076 o
-3 2 3 302.192 310.207 8.189 o
-3 2 4 29.281 28.383 0.961 o
-3 2 5 3.168 2.223 0.331 o
-3 2 6 140.960 143.644 3.898 o
-3 2 7 167.523 172.460 4.824 o
-3 2 8 293.458 294.552 8.292 o
-3 2 9 50.501 52.032 1.685 o
-3 2 10 11.304 11.799 0.570 o
-3 2 11 23.487 23.237 0.540 o
-3 2 12 2.191 2.195 0.074 o
-3 2 13 52.565 53.345 1.186 o
-3 2 14 0.870 0.928 0.047 o
-3 2 15 28.351 28.679 0.640 o
-3 2 16 14.617 14.610 0.339 o
-3 2 17 0.993 1.034 0.065 o
-3 2 18 43.897 43.254 0.995 o
-3 2 19 0.346 0.365 0.040 o
-3 2 20 3.390 3.418 0.182 o
-3 2 21 11.077 10.732 0.262 o
-3 2 24 2.917 2.801 0.096 o
-3 2 25 0.136 0.235 0.045 o
-3 3 1 3.683 3.672 0.502 o
-3 3 2 253.630 257.211 7.557 o
-3 3 3 2.994 5.857 0.597 o
-3 3 4 46.868 45.224 1.533 o
-3 3 5 21.727 19.731 1.008 o
-3 3 6 0.062 0.323 0.054 o
-3 3 7 3.887 3.949 0.113 o
-3 3 8 18.425 17.988 0.397 o
-3 3 9 5.100 5.672 0.135 o
-3 3 10 20.311 20.418 0.472 o
-3 3 11 1.388 1.419 0.047 o
-3 3 12 42.718 43.313 0.956 o
-3 3 13 9.725 9.667 0.224 o
-3 3 14 70.488 70.145 1.679 o
-3 3 15 1.593 1.609 0.056 o
-3 3 17 1.180 1.145 0.054 o
-3 3 18 3.509 3.675 0.108 o
-3 3 19 10.622 10.708 0.293 o
-3 3 20 4.392 4.250 0.136 o
-3 3 21 6.530 7.160 0.184 o
-3 3 22 10.595 10.189 0.291 o
-3 3 24 11.351 10.688 0.261 o
-3 3 25 2.317 2.506 0.116 o
-3 4 1 21.085 21.569 0.478 o
-3 4 2 11.266 11.133 0.251 o
-3 4 3 59.454 59.712 1.314 o
-3 4 4 29.989 30.090 0.670 o
-3 4 5 0.405 0.390 0.024 o
-3 4 6 25.724 25.806 0.584 o
-3 4 7 17.070 16.960 0.378 o
-3 4 8 0.568 0.548 0.028 o
-3 4 9 0.583 0.584 0.028 o
-3 4 10 39.273 39.293 0.868 o
-3 4 11 3.918 3.914 0.098 o
-3 4 12 2.990 2.985 0.084 o
-3 4 13 32.510 32.691 0.753 o
-3 4 14 5.931 5.956 0.146 o
-3 4 16 4.157 4.074 0.117 o
-3 4 17 11.048 11.141 0.264 o
-3 4 18 4.284 4.126 0.122 o
-3 4 19 0.275 0.249 0.047 o
-3 4 20 9.417 9.078 0.250 o
-3 4 21 0.692 0.628 0.057 o
-3 4 23 7.862 7.752 0.191 o
-3 4 24 3.837 3.874 0.132 o
-3 5 1 0.217 0.192 0.024 o
-3 5 2 2.419 2.393 0.071 o
-3 5 3 4.400 4.436 0.109 o
-3 5 4 9.889 9.793 0.235 o
-3 5 5 1.113 1.196 0.054 o
-3 5 6 37.936 37.620 0.907 o
-3 5 7 4.163 4.030 0.106 o
-3 5 8 0.596 0.566 0.036 o
-3 5 9 4.352 4.353 0.113 o
-3 5 10 4.644 4.719 0.120 o
-3 5 11 1.459 1.419 0.055 o
-3 5 12 13.135 13.306 0.303 o
-3 5 13 0.351 0.333 0.033 o
-3 5 14 1.713 1.733 0.081 o
-3 5 16 18.207 17.936 0.477 o
-3 5 17 1.103 1.110 0.054 o
-3 5 18 1.263 1.273 0.060 o
-3 5 20 2.629 2.611 0.087 o
-3 6 1 8.835 8.698 0.236 o
-3 6 2 1.972 2.045 0.066 o
-3 6 3 0.973 1.223 0.076 o
-3 6 4 1.323 1.338 0.054 o
-3 6 5 0.731 0.676 0.039 o
-3 6 6 0.948 0.963 0.060 o
-3 6 7 0.789 0.770 0.043 o
-3 6 8 0.143 0.135 0.033 o
-3 6 9 4.196 4.528 0.119 o
-3 6 10 3.261 3.279 0.108 o
-3 6 11 0.390 0.374 0.036 o
-3 6 12 3.958 4.209 0.119 o
-3 6 13 1.930 1.984 0.081 o
-3 6 14 0.189 0.163 0.042 o
-3 6 15 0.225 0.670 0.053 o
-3 6 17 7.385 7.433 0.279 o
-3 7 1 0.875 0.839 0.046 o
-3 7 2 5.884 5.853 0.149 o
-3 7 3 0.279 0.367 0.035 o
-3 7 4 4.914 4.709 0.130 o
-3 7 5 1.949 1.892 0.085 o
-3 7 6 0.860 0.808 0.045 o
-3 7 7 0.309 0.311 0.037 o
-3 7 8 0.271 0.244 0.035 o
-3 7 9 0.326 0.338 0.035 o
-3 7 10 0.168 0.234 0.035 o
-3 7 11 0.433 0.398 0.048 o
-3 7 12 6.709 6.772 0.168 o
-3 7 13 4.481 4.460 0.125 o
-3 7 14 1.529 1.459 0.107 o
-2 0 2 615.649 639.237 15.586 o
-2 0 6 170.468 177.952 6.043 o
-2 0 8 474.817 463.400 11.214 o
-2 0 10 185.519 190.271 5.453 o
-2 0 12 15.760 16.805 1.327 o
-2 0 14 55.895 55.482 1.333 o
-2 0 16 11.600 11.455 0.295 o
-2 0 18 4.975 4.820 0.155 o
-2 0 20 16.884 17.354 0.391 o
-2 0 22 4.350 4.595 0.168 o
-2 0 26 3.831 3.671 0.209 o
-2 1 1 190.898 196.118 5.897 o
-2 1 2 549.216 583.043 13.227 o
-2 1 3 22.388 23.168 0.974 o
-2 1 4 359.732 376.371 8.712 o
-2 1 5 20.195 20.599 0.730 o
-2 1 6 5.291 4.761 0.443 o
-2 1 7 35.538 33.337 1.050 o
-2 1 8 287.421 289.754 7.401 o
-2 1 9 24.024 23.463 0.808 o
-2 1 10 33.132 33.243 0.993 o
-2 1 11 82.501 83.673 2.326 o
-2 1 12 8.530 9.790 0.473 o
-2 1 13 32.244 31.592 0.743 o
-2 1 14 18.446 18.219 0.461 o
-2 1 15 11.408 11.288 0.285 o
-2 1 16 1.015 1.040 0.049 o
-2 1 17 30.470 30.178 0.853 o
-2 1 18 8.537 8.549 0.212 o
-2 1 19 1.750 1.850 0.082 o
-2 1 20 0.971 0.981 0.061 o
-2 1 21 57.900 58.060 1.288 o
-2 1 22 11.136 10.831 0.272 o
-2 1 24 2.293 2.417 0.109 o
-2 1 25 0.548 0.515 0.054 o
-2 1 26 1.597 1.531 0.099 o
-2 1 27 11.191 11.101 0.262 o
-2 2 1 149.081 152.325 4.137 o
-2 2 2 504.364 506.721 11.909 o
-2 2 3 9.637 9.458 0.376 o
-2 2 4 23.887 24.439 0.730 o
-2 2 5 3.425 3.601 0.385 o
-2 2 6 71.400 74.367 2.362 o
-2 2 7 34.693 35.710 1.087 o
-2 2 8 28.930 29.467 0.994 o
-2 2 9 16.590 16.888 0.691 o
-2 2 10 89.654 93.449 2.914 o
-2 2 11 13.674 13.579 0.323 o
-2 2 12 109.335 108.981 2.419 o
-2 2 13 30.625 30.547 0.681 o
-2 2 14 13.710 13.382 0.316 o
-2 2 15 2.205 2.129 0.070 o
-2 2 16 37.397 36.712 0.906 o
-2 2 17 55.489 55.334 1.375 o
-2 2 18 28.086 27.909 0.641 o
-2 2 19 8.254 8.188 0.283 o
-2 2 20 6.967 7.028 0.187 o
-2 2 21 0.595 0.512 0.051 o
-2 2 22 9.664 9.516 0.261 o
-2 2 23 10.938 10.638 0.269 o
-2 2 24 0.454 0.470 0.051 o
-2 2 25 15.135 14.852 0.357 o
-2 2 26 7.917 7.729 0.191 o
-2 3 1 146.226 140.278 4.656 o
-2 3 2 70.005 69.098 2.147 o
-2 3 3 1.546 1.526 0.236 o
-2 3 4 9.849 9.530 0.698 o
-2 3 5 6.541 6.560 0.199 o
-2 3 6 371.539 351.241 8.355 o
-2 3 7 83.045 81.702 2.028 o
-2 3 8 26.392 26.037 0.632 o
-2 3 9 8.274 8.134 0.186 o
-2 3 10 23.141 22.782 0.504 o
-2 3 11 20.510 20.442 0.455 o
-2 3 12 84.953 85.897 1.898 o
-2 3 13 3.807 3.913 0.103 o
-2 3 14 4.968 4.865 0.121 o
-2 3 15 11.343 11.365 0.269 o
-2 3 16 32.941 32.373 0.723 o
-2 3 17 4.545 4.450 0.128 o
-2 3 18 9.368 9.081 0.251 o
-2 3 19 1.528 1.517 0.117 o
-2 3 20 15.514 15.068 0.435 o
-2 3 22 11.338 11.060 0.285 o
-2 3 23 1.256 1.271 0.086 o
-2 3 24 1.698 1.621 0.080 o
-2 3 25 0.142 0.158 0.042 o
-2 4 1 16.566 16.745 0.381 o
-2 4 2 60.772 61.878 1.393 o
-2 4 3 33.822 34.094 0.753 o
-2 4 4 0.456 0.523 0.030 o
-2 4 5 35.178 35.213 0.773 o
-2 4 6 4.114 4.021 0.100 o
-2 4 7 37.897 37.572 0.823 o
-2 4 8 0.532 0.563 0.030 o
-2 4 9 0.265 0.281 0.024 o
-2 4 10 24.665 24.785 0.549 o
-2 4 11 18.231 18.306 0.407 o
-2 4 12 0.098 0.095 0.025 o
-2 4 13 10.880 11.021 0.254 o
-2 4 14 8.956 9.141 0.214 o
-2 4 15 10.827 10.773 0.278 o
-2 4 16 15.154 15.424 0.357 o
-2 4 17 11.056 10.942 0.287 o
-2 4 18 1.168 1.171 0.064 o
-2 4 19 0.252 0.195 0.058 o
-2 4 20 2.760 2.733 0.101 o
-2 4 21 2.353 2.310 0.091 o
-2 4 22 0.274 0.259 0.053 o
-2 4 23 3.336 3.281 0.119 o
-2 4 24 6.210 6.378 0.204 o
-2 5 1 0.302 0.286 0.027 o
-2 5 2 16.242 16.011 0.364 o
-2 5 3 3.315 3.331 0.087 o
-2 5 4 3.645 3.549 0.094 o
-2 5 5 4.253 4.228 0.109 o
-2 5 7 0.266 0.265 0.028 o
-2 5 8 1.225 1.224 0.049 o
-2 5 9 0.953 0.896 0.039 o
-2 5 10 3.441 3.422 0.091 o
-2 5 11 0.596 0.574 0.036 o
-2 5 12 0.899 0.918 0.049 o
-2 5 13 5.771 5.813 0.147 o
-2 5 14 2.621 2.597 0.080 o
-2 5 15 0.137 0.175 0.034 o
-2 5 16 13.858 13.962 0.328 o
-2 5 17 0.633 0.634 0.058 o
-2 5 19 1.458 1.407 0.066 o
-2 5 20 5.324 5.190 0.201 o
-2 5 21 1.481 1.401 0.078 o
-2 6 1 0.604 0.594 0.043 o
-2 6 3 16.495 16.217 0.419 o
-2 6 5 9.486 9.662 0.234 o
-2 6 7 3.793 3.770 0.106 o
-2 6 8 2.002 1.954 0.071 o
-2 6 9 3.152 3.007 0.089 o
-2 6 11 6.602 6.611 0.170 o
-2 6 12 0.453 0.444 0.041 o
-2 6 13 0.232 0.197 0.057 o
-2 6 14 1.657 1.618 0.080 o
-2 6 15 6.045 5.961 0.186 o
-2 6 16 0.691 0.677 0.053 o
-2 7 1 6.527 6.507 0.159 o
-2 7 2 0.239 0.231 0.034 o
-2 7 3 0.226 0.235 0.037 o
-2 7 4 1.524 1.472 0.070 o
-2 7 5 0.267 0.236 0.033 o
-2 7 6 3.531 3.536 0.105 o
-2 7 7 4.999 4.831 0.129 o
-2 7 8 3.921 3.873 0.104 o
-2 7 9 0.425 0.425 0.036 o
-2 7 10 1.503 1.397 0.055 o
-2 7 11 3.329 3.485 0.120 o
-2 7 12 1.004 1.060 0.063 o
-2 8 1 0.254 0.241 0.040 o
-2 8 2 2.052 2.074 0.092 o
-2 8 4 2.733 2.703 0.114 o
-1 0 4 868.927 858.739 11.951 o
-1 0 6 208.235 206.395 5.046 o
-1 0 8 511.328 511.960 13.635 o
-1 0 10 2.311 2.955 0.343 o
-1 0 12 109.557 106.969 3.577 o
-1 0 14 48.620 48.278 1.212 o
-1 0 16 22.190 21.792 0.537 o
-1 0 18 60.704 61.572 1.407 o
-1 0 20 43.234 44.358 0.899 o
-1 0 22 0.691 0.698 0.064 o
-1 0 24 22.183 21.973 0.826 o
-1 0 26 6.504 6.242 0.168 o
-1 1 2 154.670 161.726 4.876 o
-1 1 3 334.275 353.692 10.035 o
-1 1 4 245.558 264.433 7.885 o
-1 1 5 1.096 1.145 0.163 o
-1 1 7 434.385 435.061 12.890 o
-1 1 8 95.698 93.777 2.742 o
-1 1 9 169.931 176.923 5.218 o
-1 1 11 73.969 72.575 1.986 o
-1 1 12 85.488 89.062 2.757 o
-1 1 13 5.564 5.351 0.134 o
-1 1 14 45.599 45.476 1.123 o
-1 1 15 10.270 10.434 0.284 o
-1 1 16 6.278 6.089 0.153 o
-1 1 17 1.776 1.675 0.073 o
-1 1 18 14.948 14.773 0.348 o
-1 1 19 9.764 9.522 0.308 o
-1 1 20 2.850 2.978 0.122 o
-1 1 21 13.756 13.610 0.339 o
-1 1 22 12.564 12.200 0.440 o
-1 1 23 1.622 1.675 0.077 o
-1 1 24 0.622 0.582 0.053 o
-1 1 25 1.350 1.372 0.061 o
-1 1 26 0.309 0.251 0.059 o
-1 1 27 0.966 0.687 0.182 o
-1 2 1 147.433 142.748 3.858 o
-1 2 2 9.603 7.261 1.199 o
-1 2 3 175.791 169.389 4.279 o
-1 2 4 235.549 232.034 5.865 o
-1 2 5 495.468 503.965 12.326 o
-1 2 6 18.972 18.324 0.785 o
-1 2 7 1.419 1.251 0.182 o
-1 2 8 46.778 48.772 1.402 o
-1 2 9 7.403 8.040 0.563 o
-1 2 10 189.445 189.691 4.717 o
-1 2 11 71.648 72.806 1.621 o
-1 2 12 34.642 34.257 0.739 o
-1 2 13 13.091 12.895 0.311 o
-1 2 14 1.309 1.328 0.059 o
-1 2 15 12.217 12.148 0.320 o
-1 2 18 5.627 5.410 0.147 o
-1 2 19 4.221 4.046 0.119 o
-1 2 20 49.014 49.192 1.079 o
-1 2 21 1.023 0.994 0.061 o
-1 2 22 19.085 19.253 0.438 o
-1 2 24 0.383 0.332 0.064 o
-1 2 25 0.524 0.481 0.048 o
-1 2 26 2.065 1.976 0.070 o
-1 3 2 32.785 32.346 1.424 o
-1 3 3 14.049 13.444 0.587 o
-1 3 4 55.824 54.051 1.268 o
-1 3 5 0.817 0.806 0.080 o
-1 3 6 107.636 106.495 2.455 o
-1 3 7 1.776 1.787 0.099 o
-1 3 8 6.432 6.597 0.154 o
-1 3 9 1.164 1.178 0.041 o
-1 3 10 32.332 32.212 0.717 o
-1 3 11 42.959 41.859 0.915 o
-1 3 12 0.194 0.225 0.033 o
-1 3 13 1.157 1.058 0.068 o
-1 3 14 27.372 26.634 0.695 o
-1 3 15 6.242 6.303 0.194 o
-1 3 16 116.898 116.841 2.685 o
-1 3 17 12.004 12.006 0.291 o
-1 3 18 1.132 1.036 0.072 o
-1 3 19 4.027 4.088 0.137 o
-1 3 20 0.223 0.218 0.047 o
-1 3 21 13.150 13.038 0.342 o
-1 3 22 5.505 5.451 0.148 o
-1 3 23 2.330 2.196 0.085 o
-1 3 24 13.705 13.591 0.314 o
-1 3 25 0.948 0.929 0.053 o
-1 4 1 6.381 6.194 0.144 o
-1 4 2 9.797 9.811 0.228 o
-1 4 4 0.430 0.478 0.026 o
-1 4 5 61.874 62.409 1.373 o
-1 4 6 83.454 84.684 1.867 o
-1 4 7 29.432 29.615 0.654 o
-1 4 8 7.944 8.163 0.186 o
-1 4 9 1.353 1.397 0.047 o
-1 4 11 2.907 2.971 0.109 o
-1 4 12 21.035 21.647 0.479 o
-1 4 13 0.356 0.309 0.037 o
-1 4 14 3.462 3.466 0.101 o
-1 4 15 38.608 38.680 0.851 o
-1 4 16 4.254 4.207 0.150 o
-1 4 17 10.609 10.420 0.290 o
-1 4 19 0.718 0.716 0.055 o
-1 4 20 10.272 10.037 0.294 o
-1 4 21 2.495 2.548 0.107 o
-1 4 22 1.232 1.168 0.079 o
-1 5 1 10.127 10.088 0.237 o
-1 5 2 73.561 74.455 1.650 o
-1 5 3 1.169 1.206 0.045 o
-1 5 4 4.981 5.030 0.122 o
-1 5 5 0.166 0.168 0.027 o
-1 5 6 32.981 32.920 0.756 o
-1 5 7 1.039 1.019 0.043 o
-1 5 8 0.889 0.944 0.045 o
-1 5 9 7.044 6.963 0.167 o
-1 5 10 15.110 15.062 0.342 o
-1 5 11 1.523 1.485 0.070 o
-1 5 12 14.550 14.402 0.407 o
-1 5 14 1.910 1.880 0.072 o
-1 5 15 1.176 1.213 0.072 o
-1 5 16 0.187 0.166 0.034 o
-1 5 17 0.491 0.485 0.042 o
-1 5 19 0.378 0.389 0.047 o
-1 5 21 0.159 0.153 0.046 o
-1 6 1 2.275 2.216 0.069 o
-1 6 2 6.961 6.866 0.166 o
-1 6 4 1.777 1.782 0.060 o
-1 6 5 0.845 0.896 0.042 o
-1 6 6 9.575 9.396 0.288 o
-1 6 7 9.521 9.476 0.231 o
-1 6 8 2.756 2.709 0.096 o
-1 6 10 0.543 0.505 0.038 o
-1 6 12 0.119 0.136 0.036 o
-1 6 13 3.535 3.382 0.103 o
-1 6 15 5.574 5.892 0.154 o
-1 6 16 0.653 0.665 0.046 o
-1 6 17 2.331 2.465 0.090 o
-1 6 18 0.624 0.702 0.054 o
-1 7 1 1.528 1.565 0.061 o
-1 7 3 3.521 3.375 0.092 o
-1 7 4 3.616 3.603 0.099 o
-1 7 5 0.239 0.172 0.040 o
-1 7 6 4.193 3.860 0.148 o
-1 7 8 0.458 0.431 0.040 o
-1 7 11 4.835 4.911 0.126 o
-1 7 12 0.096 0.113 0.036 o
-1 7 13 0.277 0.231 0.047 o
-1 7 14 4.072 3.996 0.134 o
-1 8 2 1.126 1.142 0.053 o
-1 8 4 1.092 1.087 0.093 o
-1 8 5 0.718 0.614 0.053 o
0 0 2 155.934 145.178 4.124 o
0 0 4 72.476 73.291 1.852 o
0 0 6 1046.152 1043.387 15.597 o
0 0 8 292.591 305.362 14.229 o
0 0 10 408.848 417.614 10.324 o
0 0 12 14.038 14.347 0.438 o
0 0 14 51.618 52.624 1.334 o
0 0 16 11.090 11.342 0.292 o
0 0 20 10.376 11.996 0.285 o
0 0 22 16.275 16.868 0.395 o
0 0 24 1.304 1.717 0.095 o
0 0 26 2.128 2.380 0.095 o
0 1 1 474.646 480.270 9.966 o
0 1 2 92.482 94.100 2.239 o
0 1 3 18.285 17.724 0.915 o
0 1 4 1553.017 1427.115 18.495 o
0 1 5 70.029 73.579 2.305 o
0 1 6 312.125 318.692 8.499 o
0 1 7 36.862 35.629 1.133 o
0 1 8 29.377 27.494 0.987 o
0 1 9 37.553 39.579 1.359 o
0 1 10 148.602 150.026 4.636 o
0 1 11 205.187 212.470 5.180 o
0 1 12 0.207 0.202 0.050 o
0 1 13 26.128 25.614 0.585 o
0 1 14 8.840 8.889 0.252 o
0 1 15 3.593 3.461 0.137 o
0 1 16 3.604 3.660 0.105 o
0 1 17 20.104 20.349 0.555 o
0 1 18 25.774 26.141 0.606 o
0 1 19 50.698 50.407 1.219 o
0 1 20 3.140 3.120 0.116 o
0 1 21 16.251 16.025 0.370 o
0 1 22 4.195 4.136 0.158 o
0 1 23 10.903 10.761 0.265 o
0 1 24 4.202 4.327 0.119 o
0 1 25 1.028 1.007 0.056 o
0 1 26 2.256 2.303 0.080 o
0 2 0 12.894 15.077 1.068 o
0 2 1 76.200 82.372 2.393 o
0 2 2 133.658 136.636 3.337 o
0 2 4 185.610 182.038 5.255 o
0 2 5 48.826 49.078 2.022 o
0 2 6 5.372 5.410 0.468 o
0 2 7 139.676 138.563 4.230 o
0 2 9 55.996 55.906 1.308 o
0 2 10 26.470 26.768 0.657 o
0 2 11 1.405 1.401 0.050 o
0 2 12 16.773 16.827 0.392 o
0 2 13 10.102 9.966 0.255 o
0 2 14 59.047 57.569 1.371 o
0 2 15 97.703 96.179 2.329 o
0 2 16 2.760 2.693 0.082 o
0 2 18 11.789 11.971 0.298 o
0 2 19 12.512 12.197 0.287 o
0 2 20 26.133 26.535 0.589 o
0 2 21 13.560 13.152 0.390 o
0 2 22 0.436 0.414 0.050 o
0 2 23 4.191 4.176 0.122 o
0 2 24 7.361 7.425 0.184 o
0 2 25 8.474 8.568 0.213 o
0 2 26 0.890 0.916 0.194 o
0 3 1 52.656 54.351 1.605 o
0 3 2 117.833 118.325 3.136 o
0 3 3 86.788 87.813 2.247 o
0 3 4 57.914 55.658 1.216 o
0 3 5 15.547 15.588 0.422 o
0 3 6 0.207 0.364 0.057 o
0 3 7 0.929 0.965 0.087 o
0 3 8 99.986 98.671 2.173 o
0 3 9 41.990 41.833 0.914 o
0 3 10 1.379 1.337 0.047 o
0 3 11 1.353 1.437 0.055 o
0 3 12 7.209 9.529 0.224 o
0 3 14 28.002 27.785 0.756 o
0 3 15 0.251 0.372 0.037 o
0 3 16 1.219 1.203 0.057 o
0 3 17 5.228 5.122 0.180 o
0 3 18 4.768 5.304 0.139 o
0 3 19 0.361 0.358 0.046 o
0 3 20 12.567 12.512 0.294 o
0 3 21 2.592 2.732 0.095 o
0 3 22 4.420 4.521 0.128 o
0 3 24 7.245 7.381 0.223 o
0 3 25 2.354 2.280 0.248 o
0 4 0 2.991 2.968 0.123 o
0 4 1 12.352 12.329 0.275 o
0 4 2 58.060 58.761 1.321 o
0 4 3 4.101 4.055 0.098 o
0 4 4 12.371 12.540 0.281 o
0 4 5 78.299 78.618 1.767 o
0 4 6 6.647 6.627 0.154 o
0 4 7 0.161 0.175 0.022 o
0 4 8 5.786 5.765 0.145 o
0 4 9 6.373 6.392 0.158 o
0 4 10 17.095 16.777 0.382 o
0 4 11 0.703 0.689 0.035 o
0 4 12 24.816 24.951 0.550 o
0 4 13 6.369 6.330 0.173 o
0 4 15 26.751 26.694 0.827 o
0 4 16 17.317 17.243 0.477 o
0 4 17 0.780 0.741 0.051 o
0 4 18 2.463 2.466 0.104 o
0 4 19 3.511 3.579 0.106 o
0 4 20 4.122 3.909 0.177 o
0 4 22 1.242 1.264 0.068 o
0 4 23 0.911 0.999 0.070 o
0 5 2 7.510 7.620 0.192 o
0 5 3 1.213 1.104 0.043 o
0 5 4 24.800 24.717 0.545 o
0 5 5 3.108 3.212 0.087 o
0 5 6 76.130 75.853 1.711 o
0 5 8 6.585 6.456 0.162 o
0 5 9 0.121 0.126 0.039 o
0 5 10 0.205 0.245 0.033 o
0 5 11 3.854 4.015 0.110 o
0 5 12 8.524 8.611 0.213 o
0 5 13 1.004 0.951 0.058 o
0 5 14 14.412 14.846 0.346 o
0 5 15 1.652 1.708 0.072 o
0 5 16 24.817 24.668 0.599 o
0 5 17 0.364 0.366 0.039 o
0 5 18 1.041 1.120 0.055 o
0 5 19 1.917 1.864 0.085 o
0 5 20 2.795 2.789 0.122 o
0 5 21 0.558 0.651 0.058 o
0 6 0 17.988 17.815 0.497 o
0 6 1 6.187 5.967 0.146 o
0 6 2 10.144 10.072 0.233 o
0 6 3 3.991 4.103 0.111 o
0 6 4 0.755 0.763 0.039 o
0 6 5 29.314 28.601 0.690 o
0 6 6 0.042 0.224 0.031 o
0 6 7 0.226 0.224 0.037 o
0 6 8 0.838 0.782 0.047 o
0 6 9 0.503 0.522 0.042 o
0 6 10 12.325 12.609 0.309 o
0 6 11 1.409 1.381 0.064 o
0 6 12 5.033 5.268 0.140 o
0 6 13 4.885 4.796 0.157 o
0 6 14 0.302 0.341 0.040 o
0 6 15 1.770 1.774 0.070 o
0 6 16 2.053 2.093 0.074 o
0 6 17 0.633 0.555 0.047 o
0 7 1 8.955 8.500 0.204 o
0 7 3 0.772 0.773 0.041 o
0 7 5 0.972 0.867 0.044 o
0 7 8 1.188 1.269 0.056 o
0 7 9 7.374 7.370 0.177 o
0 7 10 1.971 1.959 0.069 o
0 7 11 0.818 0.753 0.047 o
0 7 13 0.249 0.152 0.037 o
0 8 2 0.260 0.258 0.047 o
0 8 4 0.300 0.332 0.048 o
1 0 0 384.569 395.097 6.567 o
1 0 2 9.276 9.885 0.668 o
1 0 4 1879.939 1822.934 22.619 o
1 0 6 227.407 218.699 5.230 o
1 0 8 74.646 71.175 2.252 o
1 0 10 682.214 697.956 26.481 o
1 0 12 6.023 6.014 0.183 o
1 0 14 86.605 86.564 2.023 o
1 0 16 12.606 12.704 0.306 o
1 0 18 87.376 91.505 2.119 o
1 0 20 91.142 91.817 2.149 o
1 0 22 4.394 4.170 0.152 o
1 0 24 1.286 1.048 0.186 o
1 1 1 39.965 39.307 1.745 o
1 1 2 433.183 437.574 8.613 o
1 1 3 827.063 793.770 14.687 o
1 1 4 67.592 68.108 2.278 o
1 1 5 118.556 121.644 2.894 o
1 1 6 211.745 219.800 5.333 o
1 1 7 18.790 18.412 0.663 o
1 1 8 95.673 95.432 2.579 o
1 1 9 191.905 193.131 8.230 o
1 1 10 74.469 73.569 1.723 o
1 1 12 1.939 1.983 0.080 o
1 1 13 7.190 6.766 0.158 o
1 1 14 126.823 127.191 2.943 o
1 1 15 4.180 4.124 0.106 o
1 1 16 23.863 23.577 0.571 o
1 1 17 3.642 3.659 0.108 o
1 1 18 4.241 4.138 0.118 o
1 1 19 11.762 11.830 0.272 o
1 1 20 5.335 5.203 0.150 o
1 1 21 9.914 9.905 0.237 o
1 1 22 3.027 3.059 0.095 o
1 1 23 8.506 8.371 0.215 o
1 1 24 14.539 14.226 0.842 o
1 1 25 2.450 2.575 0.248 o
1 2 0 336.010 330.210 8.994 o
1 2 1 282.835 282.601 8.046 o
1 2 3 362.700 379.047 9.010 o
1 2 4 18.760 18.565 0.700 o
1 2 5 89.783 94.199 2.667 o
1 2 6 162.984 163.045 7.117 o
1 2 7 82.823 82.301 1.914 o
1 2 8 6.299 5.958 0.186 o
1 2 9 7.589 7.579 0.225 o
1 2 10 4.766 4.732 0.141 o
1 2 11 9.093 8.500 0.226 o
1 2 12 15.273 14.405 0.344 o
1 2 13 27.348 27.040 0.652 o
1 2 14 6.649 6.498 0.169 o
1 2 15 0.874 0.822 0.041 o
1 2 16 5.680 5.686 0.142 o
1 2 17 4.183 4.117 0.111 o
1 2 18 0.163 0.160 0.033 o
1 2 19 6.049 5.993 0.154 o
1 2 20 0.476 0.540 0.065 o
1 2 21 2.378 2.482 0.122 o
1 2 22 11.563 11.650 0.291 o
1 2 23 0.470 0.543 0.054 o
1 2 24 10.142 10.483 0.522 o
1 2 25 10.067 9.924 0.376 o
1 3 0 20.054 19.987 1.031 o
1 3 1 30.670 30.525 1.145 o
1 3 2 47.187 44.762 0.986 o
1 3 4 7.996 8.149 0.229 o
1 3 5 22.434 21.472 0.581 o
1 3 6 44.261 43.640 1.092 o
1 3 7 18.949 19.025 0.447 o
1 3 8 25.802 25.221 0.553 o
1 3 9 10.285 10.034 0.227 o
1 3 10 0.782 0.801 0.034 o
1 3 11 15.640 15.476 0.351 o
1 3 12 34.824 34.843 0.770 o
1 3 13 29.562 29.125 0.778 o
1 3 14 15.104 15.010 0.388 o
1 3 15 0.939 0.912 0.048 o
1 3 16 0.335 0.343 0.045 o
1 3 17 1.668 1.769 0.070 o
1 3 18 37.332 37.305 0.917 o
1 3 19 15.408 14.561 0.338 o
1 3 20 0.286 0.349 0.043 o
1 3 21 1.224 1.333 0.106 o
1 3 23 2.348 2.567 0.161 o
1 3 24 4.442 4.332 0.282 o
1 4 0 18.086 18.278 0.426 o
1 4 1 0.571 0.616 0.027 o
1 4 2 56.510 57.144 1.286 o
1 4 3 14.908 14.970 0.328 o
1 4 4 2.966 2.997 0.079 o
1 4 5 52.855 53.187 1.173 o
1 4 6 8.413 8.074 0.189 o
1 4 7 1.362 1.320 0.054 o
1 4 8 59.882 60.413 1.317 o
1 4 9 12.418 12.487 0.303 o
1 4 11 1.379 1.422 0.054 o
1 4 12 1.599 1.592 0.067 o
1 4 13 8.175 8.271 0.249 o
1 4 14 1.809 1.778 0.070 o
1 4 15 19.118 19.296 0.439 o
1 4 16 13.162 12.744 0.297 o
1 4 17 4.250 4.395 0.183 o
1 4 18 0.769 0.736 0.050 o
1 4 19 4.428 4.511 0.170 o
1 4 20 2.631 2.681 0.085 o
1 4 22 7.719 7.708 0.189 o
1 5 0 4.386 4.465 0.110 o
1 5 1 0.094 0.081 0.023 o
1 5 2 12.506 12.589 0.292 o
1 5 3 0.664 0.628 0.035 o
1 5 4 93.325 92.777 2.199 o
1 5 5 4.196 4.454 0.117 o
1 5 6 0.168 0.174 0.028 o
1 5 7 1.022 0.979 0.053 o
1 5 8 8.151 8.243 0.196 o
1 5 9 0.804 0.818 0.045 o
1 5 10 2.255 2.386 0.078 o
1 5 11 0.915 0.890 0.047 o
1 5 12 23.098 22.976 0.514 o
1 5 13 0.378 0.399 0.049 o
1 5 14 20.192 20.047 0.457 o
1 5 15 0.198 0.187 0.042 o
1 5 16 7.199 7.002 0.182 o
1 5 17 0.285 0.277 0.046 o
1 5 19 0.275 0.295 0.047 o
1 5 20 2.273 2.167 0.095 o
1 6 0 6.608 6.570 0.158 o
1 6 1 5.931 5.789 0.157 o
1 6 2 2.996 2.987 0.085 o
1 6 3 0.620 0.598 0.037 o
1 6 4 5.435 5.434 0.137 o
1 6 5 12.035 12.021 0.303 o
1 6 6 4.034 4.019 0.120 o
1 6 7 0.311 0.243 0.039 o
1 6 8 13.287 13.207 0.321 o
1 6 9 12.120 12.042 0.296 o
1 6 10 6.677 6.918 0.176 o
1 6 11 0.208 0.238 0.042 o
1 6 13 2.296 2.315 0.085 o
1 6 14 0.612 0.641 0.052 o
1 6 15 12.467 12.234 0.289 o
1 6 16 1.277 1.265 0.061 o
1 6 17 1.878 2.075 0.080 o
1 7 0 2.228 2.240 0.070 o
1 7 1 1.754 1.750 0.085 o
1 7 2 0.799 0.735 0.050 o
1 7 3 0.513 0.463 0.038 o
1 7 4 1.650 1.622 0.077 o
1 7 5 3.978 3.762 0.119 o
1 7 9 4.739 4.694 0.122 o
1 7 10 0.576 0.654 0.048 o
1 7 11 2.811 2.813 0.126 o
1 7 13 2.823 2.901 0.091 o
1 8 0 4.661 4.806 0.222 o
1 8 1 0.285 0.227 0.040 o
1 8 2 0.264 0.248 0.040 o
2 0 0 22.526 24.960 0.817 o
2 0 4 8.064 8.420 0.276 o
2 0 6 3.904 3.879 0.253 o
2 0 8 100.721 106.876 4.053 o
2 0 10 34.359 34.685 0.876 o
2 0 12 78.194 78.499 1.673 o
2 0 14 99.528 99.731 2.391 o
2 0 16 35.747 36.466 0.872 o
2 0 18 5.174 5.160 0.222 o
2 0 20 19.329 19.116 0.513 o
2 1 0 376.832 367.970 7.622 o
2 1 1 68.769 70.739 1.617 o
2 1 2 2.861 2.825 0.181 o
2 1 3 483.004 472.672 11.943 o
2 1 4 9.941 9.462 0.433 o
2 1 5 20.683 20.643 0.841 o
2 1 6 436.086 427.538 11.941 o
2 1 7 30.738 30.653 1.037 o
2 1 8 48.128 47.554 1.112 o
2 1 9 180.250 181.651 4.572 o
2 1 10 43.670 43.894 1.051 o
2 1 11 1.825 1.753 0.070 o
2 1 12 24.628 24.289 0.595 o
2 1 13 120.747 118.215 2.847 o
2 1 14 3.167 3.146 0.097 o
2 1 15 5.411 5.354 0.135 o
2 1 16 0.455 0.498 0.035 o
2 1 17 4.406 4.612 0.126 o
2 1 18 21.445 21.917 0.495 o
2 1 19 34.242 35.387 0.774 o
2 1 20 25.881 26.278 0.644 o
2 1 21 9.574 9.817 0.816 o
2 1 22 0.654 0.731 0.193 o
2 1 23 7.152 6.981 0.340 o
2 2 0 531.803 518.776 11.880 o
2 2 1 1.861 2.056 0.187 o
2 2 2 2.966 3.027 0.205 o
2 2 3 18.206 17.111 0.559 o
2 2 4 0.953 1.047 0.161 o
2 2 5 152.826 149.185 4.160 o
2 2 6 10.069 10.337 0.312 o
2 2 7 58.194 59.160 1.386 o
2 2 8 57.355 55.986 1.308 o
2 2 9 79.478 79.897 1.818 o
2 2 10 76.527 75.248 1.675 o
2 2 11 32.200 32.342 0.721 o
2 2 12 0.446 0.432 0.034 o
2 2 13 36.239 35.769 0.814 o
2 2 14 1.674 1.625 0.064 o
2 2 15 13.004 12.754 0.291 o
2 2 16 13.318 13.238 0.305 o
2 2 17 47.277 48.164 1.072 o
2 2 18 2.263 2.379 0.082 o
2 2 20 1.965 2.017 0.086 o
2 2 22 3.130 2.907 0.272 o
2 2 23 11.450 11.295 0.412 o
2 3 0 13.190 13.816 0.674 o
2 3 1 29.627 28.680 0.664 o
2 3 2 90.658 89.811 2.058 o
2 3 3 4.583 4.515 0.222 o
2 3 4 220.287 221.879 5.765 o
2 3 5 7.592 7.742 0.228 o
2 3 6 2.173 2.351 0.127 o
2 3 7 29.546 29.495 0.697 o
2 3 8 1.878 1.766 0.053 o
2 3 9 1.427 1.342 0.045 o
2 3 10 2.504 2.555 0.072 o
2 3 11 0.219 0.209 0.025 o
2 3 12 3.811 3.774 0.099 o
2 3 13 0.119 0.091 0.027 o
2 3 14 8.583 8.569 0.205 o
2 3 15 5.253 5.172 0.133 o
2 3 16 3.838 3.934 0.115 o
2 3 17 0.231 0.259 0.044 o
2 3 18 1.551 1.466 0.116 o
2 3 19 0.304 0.316 0.052 o
2 3 20 0.352 0.326 0.087 o
2 3 21 1.866 1.727 0.114 o
2 3 22 4.968 4.838 0.304 o
2 3 23 5.242 5.286 0.218 o
2 4 0 13.499 13.129 0.300 o
2 4 2 1.935 2.032 0.059 o
2 4 3 56.300 55.969 1.249 o
2 4 4 55.405 54.860 1.251 o
2 4 5 18.525 18.871 0.420 o
2 4 6 3.616 3.624 0.095 o
2 4 7 19.051 19.403 0.436 o
2 4 8 5.386 5.434 0.143 o
2 4 9 6.811 6.921 0.202 o
2 4 10 1.767 1.693 0.059 o
2 4 11 0.236 0.226 0.029 o
2 4 12 36.030 35.915 0.797 o
2 4 13 11.946 12.081 0.278 o
2 4 14 8.098 8.130 0.247 o
2 4 15 5.683 5.710 0.144 o
2 4 17 6.367 6.446 0.225 o
2 4 18 11.269 11.432 0.298 o
2 4 19 3.883 3.909 0.121 o
2 4 20 0.326 0.299 0.054 o
2 4 22 2.305 2.352 0.111 o
2 5 0 11.609 11.854 0.295 o
2 5 1 3.782 3.787 0.098 o
2 5 2 1.940 1.974 0.067 o
2 5 3 1.428 1.397 0.051 o
2 5 4 2.931 2.798 0.081 o
2 5 5 1.268 1.196 0.050 o
2 5 6 1.912 1.843 0.065 o
2 5 7 0.223 0.227 0.030 o
2 5 8 73.889 74.845 1.675 o
2 5 9 5.759 5.927 0.173 o
2 5 10 3.720 3.637 0.103 o
2 5 11 0.309 0.303 0.039 o
2 5 12 0.794 0.833 0.051 o
2 5 13 1.641 1.712 0.070 o
2 5 14 19.204 19.346 0.437 o
2 5 15 1.147 1.248 0.087 o
2 5 16 7.141 7.329 0.189 o
2 5 18 16.277 16.450 0.373 o
2 5 19 0.983 1.013 0.126 o
2 5 20 0.424 0.563 0.173 o
2 6 0 0.908 0.892 0.042 o
2 6 1 0.612 0.552 0.036 o
2 6 2 7.366 7.231 0.174 o
2 6 3 13.390 13.193 0.315 o
2 6 4 7.305 7.427 0.184 o
2 6 5 0.220 0.208 0.033 o
2 6 6 0.300 0.266 0.034 o
2 6 7 5.727 5.615 0.144 o
2 6 8 0.737 0.667 0.049 o
2 6 9 0.524 0.526 0.042 o
2 6 11 3.457 3.413 0.123 o
2 6 12 8.239 8.583 0.210 o
2 6 13 0.639 0.633 0.046 o
2 6 14 4.531 4.606 0.134 o
2 6 16 1.088 1.200 0.063 o
2 7 0 1.235 1.269 0.055 o
2 7 1 2.492 2.435 0.074 o
2 7 2 0.391 0.368 0.036 o
2 7 3 2.238 2.218 0.080 o
2 7 4 4.691 4.637 0.122 o
2 7 6 2.320 2.363 0.073 o
2 7 7 3.359 3.404 0.115 o
2 7 8 0.397 0.354 0.037 o
2 7 9 0.318 0.291 0.042 o
2 7 10 0.328 0.422 0.069 o
2 7 11 0.544 0.512 0.085 o
2 8 0 2.885 3.087 0.130 o
3 0 0 407.682 406.302 15.946 o
3 0 2 195.765 193.021 7.557 o
3 0 4 20.111 19.426 0.910 o
3 0 6 595.325 589.857 21.041 o
3 0 8 10.937 10.659 0.278 o
3 0 10 1.303 1.181 0.059 o
3 0 12 281.770 288.462 6.352 o
3 0 14 3.681 3.945 0.136 o
3 0 16 11.269 11.731 0.435 o
3 0 18 10.230 10.881 0.386 o
3 1 0 114.552 109.436 2.693 o
3 1 1 456.742 438.845 10.806 o
3 1 2 451.400 458.287 12.203 o
3 1 3 41.060 42.681 1.313 o
3 1 4 11.750 11.467 0.521 o
3 1 5 5.451 5.049 0.400 o
3 1 6 4.836 4.916 0.444 o
3 1 7 29.509 29.332 0.703 o
3 1 8 38.278 40.497 0.963 o
3 1 9 1.394 1.412 0.072 o
3 1 10 85.814 86.119 1.915 o
3 1 11 13.946 13.533 0.302 o
3 1 12 11.165 11.266 0.267 o
3 1 13 36.628 36.333 0.802 o
3 1 14 0.634 0.574 0.046 o
3 1 15 2.980 3.145 0.103 o
3 1 16 59.342 60.650 1.379 o
3 1 17 1.360 1.522 0.087 o
3 1 18 2.990 3.052 0.113 o
3 1 19 7.866 7.922 0.209 o
3 1 20 0.479 0.471 0.077 o
3 1 21 4.309 4.332 0.296 o
3 1 22 0.964 0.797 0.190 o
3 2 0 1.815 2.243 0.213 o
3 2 1 7.521 7.645 0.459 o
3 2 2 279.161 274.589 6.963 o
3 2 3 106.484 100.971 2.658 o
3 2 4 96.190 95.300 2.866 o
3 2 5 65.207 63.291 1.541 o
3 2 6 44.850 45.085 1.198 o
3 2 7 3.733 3.736 0.146 o
3 2 8 104.811 105.613 2.434 o
3 2 9 2.409 2.318 0.074 o
3 2 10 11.460 11.387 0.266 o
3 2 11 9.467 9.411 0.301 o
3 2 12 21.916 21.885 0.562 o
3 2 13 2.976 3.022 0.105 o
3 2 14 8.057 8.011 0.260 o
3 2 15 1.277 1.299 0.070 o
3 2 16 1.945 1.958 0.095 o
3 2 17 6.975 7.002 0.207 o
3 2 18 21.078 21.622 0.513 o
3 2 19 14.870 14.898 0.360 o
3 2 20 6.719 6.708 0.185 o
3 2 21 5.526 5.506 0.174 o
3 2 22 1.869 1.901 0.247 o
3 2 23 1.184 0.997 0.192 o
3 3 0 72.687 73.386 1.677 o
3 3 1 2.106 2.148 0.102 o
3 3 2 21.652 20.921 0.515 o
3 3 3 99.898 100.450 2.375 o
3 3 4 108.581 107.740 2.393 o
3 3 5 0.140 0.136 0.026 o
3 3 6 20.637 21.098 0.466 o
3 3 7 2.153 2.156 0.071 o
3 3 8 117.375 117.591 2.616 o
3 3 9 36.064 37.534 0.856 o
3 3 10 0.245 0.249 0.037 o
3 3 11 16.314 16.397 0.375 o
3 3 12 33.468 34.048 0.758 o
3 3 13 12.377 12.524 0.286 o
3 3 14 50.169 51.018 1.134 o
3 3 15 4.809 5.123 0.144 o
3 3 16 8.184 8.278 0.210 o
3 3 17 7.287 7.243 0.236 o
3 3 18 2.089 2.342 0.095 o
3 3 19 0.789 0.731 0.100 o
3 3 20 0.524 0.471 0.080 o
3 3 21 3.907 3.695 0.123 o
3 3 22 6.132 6.134 0.338 o
3 4 0 6.304 6.320 0.150 o
3 4 1 0.307 0.302 0.022 o
3 4 2 2.426 2.369 0.065 o
3 4 3 18.739 18.695 0.428 o
3 4 4 39.043 38.760 0.869 o
3 4 5 0.228 0.256 0.024 o
3 4 6 0.299 0.308 0.027 o
3 4 7 56.322 56.388 1.241 o
3 4 8 20.732 20.523 0.457 o
3 4 9 9.936 9.828 0.235 o
3 4 10 11.520 11.505 0.269 o
3 4 12 1.822 1.772 0.063 o
3 4 13 13.868 13.914 0.326 o
3 4 14 3.259 3.222 0.098 o
3 4 16 2.410 2.485 0.102 o
3 4 17 16.767 16.333 0.382 o
3 4 18 9.977 9.764 0.261 o
3 4 19 0.974 0.958 0.073 o
3 5 0 18.283 18.061 0.408 o
3 5 1 9.261 9.223 0.213 o
3 5 2 3.178 3.204 0.087 o
3 5 4 0.072 0.093 0.031 o
3 5 5 1.882 1.840 0.064 o
3 5 6 16.149 16.326 0.400 o
3 5 7 4.753 4.874 0.124 o
3 5 8 1.566 1.528 0.063 o
3 5 9 0.416 0.458 0.038 o
3 5 12 1.712 1.629 0.065 o
3 5 13 0.369 0.391 0.043 o
3 5 14 1.699 1.759 0.124 o
3 5 15 1.924 1.993 0.091 o
3 5 16 4.277 4.262 0.137 o
3 5 18 14.772 14.881 0.340 o
3 5 19 0.435 0.561 0.172 o
3 6 0 0.065 0.480 0.038 o
3 6 1 1.036 0.923 0.043 o
3 6 2 1.330 1.368 0.056 o
3 6 3 0.656 0.998 0.056 o
3 6 4 1.257 1.294 0.059 o
3 6 5 3.506 3.477 0.097 o
3 6 6 0.772 0.824 0.044 o
3 6 7 15.116 15.217 0.355 o
3 6 8 0.266 0.297 0.038 o
3 6 9 0.698 1.063 0.062 o
3 6 10 2.235 2.321 0.082 o
3 6 11 2.708 2.625 0.086 o
3 6 12 2.752 3.021 0.125 o
3 6 13 4.156 4.129 0.117 o
3 6 14 0.470 0.382 0.059 o
3 6 15 0.779 0.768 0.097 o
3 7 0 1.305 1.349 0.058 o
3 7 2 3.873 3.953 0.111 o
3 7 3 5.160 5.351 0.141 o
3 7 4 0.812 0.739 0.041 o
3 7 6 0.639 0.628 0.038 o
3 7 8 1.280 1.346 0.069 o
3 7 9 2.167 2.293 0.119 o
3 7 10 1.545 1.731 0.178 o
3 7 11 2.833 2.865 0.115 o
4 0 0 45.823 46.728 1.316 o
4 0 4 37.861 37.562 2.201 o
4 0 6 13.425 12.983 0.323 o
4 0 8 1.021 1.061 0.086 o
4 0 10 4.517 4.408 0.138 o
4 0 12 3.008 3.089 0.221 o
4 0 16 49.203 49.382 0.968 o
4 1 0 2.578 2.530 0.186 o
4 1 1 154.395 156.061 3.873 o
4 1 2 190.636 188.556 4.926 o
4 1 3 215.211 220.285 7.383 o
4 1 4 2.955 1.753 0.422 o
4 1 5 92.238 90.223 2.070 o
4 1 6 40.510 40.434 0.941 o
4 1 7 8.349 8.463 0.247 o
4 1 8 28.040 28.138 0.574 o
4 1 9 20.967 20.770 0.461 o
4 1 10 0.277 0.293 0.030 o
4 1 11 129.234 128.797 2.945 o
4 1 12 11.710 11.531 0.280 o
4 1 13 6.291 6.162 0.172 o
4 1 14 2.396 2.464 0.098 o
4 1 15 9.569 9.685 0.238 o
4 1 16 3.308 3.342 0.117 o
4 1 17 8.652 9.274 0.498 o
4 1 18 0.501 0.483 0.078 o
4 1 19 1.313 1.431 0.107 o
4 1 20 17.952 18.027 0.528 o
4 1 21 14.242 14.729 0.475 o
4 1 22 4.852 5.083 0.162 o
4 1 23 0.660 0.538 0.172 o
4 2 0 124.253 122.408 3.258 o
4 2 1 74.731 77.810 2.124 o
4 2 2 303.469 307.380 7.671 o
4 2 3 56.600 55.852 1.284 o
4 2 4 15.320 15.867 0.437 o
4 2 5 0.528 0.561 0.065 o
4 2 6 6.900 6.993 0.166 o
4 2 7 156.855 155.331 3.445 o
4 2 8 0.717 0.779 0.036 o
4 2 9 14.763 14.526 0.325 o
4 2 10 41.553 41.880 0.915 o
4 2 11 1.310 1.342 0.058 o
4 2 12 102.853 102.603 2.293 o
4 2 13 27.522 27.235 0.615 o
4 2 14 10.910 11.026 0.326 o
4 2 15 26.564 26.750 0.795 o
4 2 16 2.379 2.511 0.106 o
4 2 17 5.420 5.315 0.159 o
4 2 18 5.712 5.775 0.189 o
4 2 19 2.928 2.960 0.141 o
4 2 20 3.057 2.860 0.138 o
4 2 21 2.371 2.363 0.104 o
4 2 22 12.978 12.482 0.429 o
4 3 0 6.119 5.882 0.183 o
4 3 1 37.022 37.501 0.799 o
4 3 2 1.101 1.072 0.046 o
4 3 3 1.441 1.437 0.051 o
4 3 4 50.977 49.512 1.093 o
4 3 5 3.750 3.798 0.105 o
4 3 6 108.545 108.309 2.438 o
4 3 7 0.281 0.306 0.028 o
4 3 8 55.447 55.351 1.218 o
4 3 9 6.312 6.184 0.150 o
4 3 10 10.155 9.932 0.234 o
4 3 11 0.345 0.348 0.037 o
4 3 13 13.490 13.300 0.317 o
4 3 16 23.626 23.411 0.565 o
4 3 17 3.088 2.910 0.114 o
4 3 18 33.273 33.479 0.820 o
4 3 19 2.681 2.440 0.095 o
4 3 21 3.800 3.785 0.280 o
4 3 22 2.258 2.438 0.238 o
4 4 0 68.239 67.917 1.517 o
4 4 1 0.502 0.521 0.028 o
4 4 2 0.568 0.576 0.031 o
4 4 3 2.886 2.866 0.086 o
4 4 4 1.589 1.639 0.059 o
4 4 5 21.058 20.556 0.457 o
4 4 6 14.048 13.742 0.334 o
4 4 7 40.991 41.613 0.918 o
4 4 8 21.535 21.580 0.517 o
4 4 9 0.998 0.967 0.056 o
4 4 10 1.438 1.371 0.073 o
4 4 11 0.465 0.463 0.054 o
4 4 12 0.227 0.311 0.039 o
4 4 13 0.589 0.564 0.045 o
4 4 14 21.858 21.635 0.490 o
4 4 15 5.087 5.164 0.187 o
4 4 17 18.880 18.625 0.426 o
4 4 18 0.224 0.231 0.058 o
4 4 20 1.879 1.969 0.232 o
4 5 0 0.183 0.177 0.026 o
4 5 1 2.075 2.007 0.063 o
4 5 2 0.924 0.888 0.044 o
4 5 3 3.528 3.554 0.097 o
4 5 4 23.548 23.234 0.537 o
4 5 5 2.091 2.134 0.084 o
4 5 6 9.844 9.916 0.253 o
4 5 7 0.138 0.157 0.034 o
4 5 8 2.139 2.190 0.082 o
4 5 10 15.690 15.812 0.363 o
4 5 11 7.637 7.752 0.194 o
4 5 12 2.044 2.085 0.083 o
4 5 16 8.218 8.123 0.207 o
4 5 17 1.187 1.203 0.166 o
4 6 0 1.046 1.004 0.062 o
4 6 1 3.873 3.844 0.112 o
4 6 2 0.569 0.624 0.042 o
4 6 3 0.703 0.687 0.043 o
4 6 5 2.779 2.993 0.093 o
4 6 7 0.880 0.829 0.051 o
4 6 8 2.238 2.265 0.080 o
4 6 9 1.842 1.862 0.106 o
4 6 12 0.198 0.233 0.057 o
4 6 14 1.675 1.790 0.098 o
4 7 0 0.332 0.302 0.035 o
4 7 1 5.047 5.182 0.155 o
4 7 2 0.896 0.868 0.056 o
4 7 3 0.130 0.161 0.043 o
4 7 4 0.115 0.146 0.034 o
4 7 5 1.044 1.016 0.052 o
4 7 6 7.023 7.024 0.197 o
4 7 7 0.499 0.555 0.058 o
4 7 8 3.975 4.048 0.149 o
4 7 9 0.159 0.272 0.051 o
5 0 0 63.822 67.014 2.325 o
5 0 2 685.720 669.941 20.007 o
5 0 4 12.492 12.050 0.609 o
5 0 6 6.566 6.950 0.205 o
5 0 8 147.031 146.904 3.233 o
5 0 10 72.448 72.523 1.579 o
5 0 12 17.385 17.082 0.380 o
5 0 14 15.757 15.865 0.974 o
5 0 16 15.216 15.721 0.478 o
5 0 18 1.951 1.852 0.247 o
5 0 20 1.977 2.081 0.250 o
5 1 0 0.457 0.491 0.124 o
5 1 1 111.316 112.509 2.873 o
5 1 2 59.993 57.984 1.766 o
5 1 3 1.772 1.852 0.090 o
5 1 4 38.720 40.198 0.940 o
5 1 5 1.159 1.257 0.079 o
5 1 6 83.991 81.524 1.905 o
5 1 7 5.103 5.017 0.123 o
5 1 8 1.467 1.451 0.053 o
5 1 9 1.820 1.898 0.066 o
5 1 10 0.746 0.815 0.068 o
5 1 11 29.351 29.631 0.665 o
5 1 12 55.994 56.109 1.270 o
5 1 13 16.800 16.939 0.402 o
5 1 14 0.313 0.364 0.054 o
5 1 15 18.265 18.624 0.469 o
5 1 18 5.748 5.444 0.541 o
5 1 19 0.918 0.789 0.145 o
5 1 20 1.339 1.281 0.203 o
5 1 21 24.468 23.933 0.525 o
5 2 0 24.116 24.167 0.835 o
5 2 1 26.491 26.293 0.590 o
5 2 2 3.446 3.350 0.128 o
5 2 3 25.474 24.459 0.575 o
5 2 4 61.654 61.419 1.348 o
5 2 5 15.204 15.269 0.350 o
5 2 6 49.148 49.016 1.119 o
5 2 7 4.296 4.335 0.115 o
5 2 8 14.386 14.148 0.350 o
5 2 9 10.920 10.906 0.311 o
5 2 10 40.692 40.463 0.938 o
5 2 11 10.740 10.677 0.246 o
5 2 12 22.081 22.152 0.501 o
5 2 14 6.017 6.110 0.164 o
5 2 16 12.142 11.572 0.392 o
5 2 17 25.553 24.899 0.673 o
5 2 18 2.834 3.001 0.120 o
5 2 19 2.856 3.007 0.137 o
5 2 20 17.702 18.092 0.541 o
5 2 21 2.710 2.766 0.124 o
5 3 0 124.737 123.668 2.745 o
5 3 1 27.151 27.544 0.609 o
5 3 2 5.603 5.523 0.140 o
5 3 3 4.554 4.550 0.112 o
5 3 4 4.074 4.008 0.100 o
5 3 5 41.999 41.764 0.921 o
5 3 6 92.923 92.170 2.047 o
5 3 7 4.911 4.945 0.124 o
5 3 8 3.348 3.335 0.094 o
5 3 9 0.301 0.313 0.036 o
5 3 10 38.825 39.114 0.895 o
5 3 11 21.888 22.238 0.501 o
5 3 12 0.632 0.623 0.054 o
5 3 13 4.494 4.292 0.123 o
5 3 14 29.868 30.525 0.678 o
5 3 15 0.826 0.826 0.098 o
5 3 16 33.799 32.873 0.753 o
5 3 19 4.329 4.330 0.205 o
5 4 0 9.361 9.435 0.217 o
5 4 1 4.533 4.675 0.119 o
5 4 3 1.269 1.421 0.056 o
5 4 4 26.521 26.230 0.595 o
5 4 5 19.345 19.360 0.429 o
5 4 6 8.956 8.916 0.213 o
5 4 7 19.377 19.610 0.470 o
5 4 9 7.929 7.944 0.193 o
5 4 10 16.533 15.827 0.363 o
5 4 11 2.617 2.734 0.088 o
5 4 12 0.599 0.582 0.065 o
5 4 14 2.547 2.580 0.124 o
5 4 15 12.497 12.517 0.294 o
5 4 16 1.377 1.485 0.092 o
5 4 17 4.985 5.294 0.152 o
5 4 18 7.715 7.531 0.349 o
5 4 19 1.686 1.678 0.230 o
5 5 0 5.333 5.489 0.141 o
5 5 2 5.070 4.917 0.148 o
5 5 3 1.198 1.187 0.058 o
5 5 4 3.558 3.650 0.105 o
5 5 5 0.367 0.410 0.045 o
5 5 6 6.530 6.760 0.172 o
5 5 7 1.268 1.360 0.081 o
5 5 8 7.719 7.391 0.185 o
5 5 9 0.355 0.385 0.042 o
5 5 10 0.210 0.234 0.044 o
5 5 13 0.393 0.458 0.059 o
5 5 14 3.107 2.978 0.141 o
5 5 15 0.882 1.063 0.068 o
5 5 16 2.755 2.902 0.147 o
5 6 0 7.309 7.419 0.186 o
5 6 1 4.710 4.733 0.156 o
5 6 2 4.336 4.415 0.196 o
5 6 3 2.175 2.181 0.089 o
5 6 4 1.793 1.764 0.079 o
5 6 5 8.064 8.092 0.254 o
5 6 6 3.161 3.189 0.110 o
5 6 7 12.152 12.023 0.281 o
5 6 8 0.762 0.820 0.054 o
5 6 9 2.325 2.387 0.091 o
5 6 10 0.124 0.197 0.063 o
5 6 11 0.284 0.339 0.063 o
5 6 12 0.582 0.679 0.058 o
5 6 13 0.271 0.265 0.063 o
5 7 0 1.955 1.874 0.101 o
5 7 1 9.034 9.038 0.217 o
5 7 2 1.697 1.649 0.076 o
5 7 3 2.141 2.062 0.084 o
5 7 4 1.274 1.262 0.075 o
5 7 5 0.969 0.999 0.088 o
5 7 6 0.599 0.561 0.049 o
5 7 7 0.925 0.950 0.063 o
6 0 0 233.494 235.450 6.841 o
6 0 2 30.082 29.571 0.674 o
6 0 4 1.515 1.601 0.062 o
6 0 6 44.049 47.785 1.075 o
6 0 8 15.614 15.907 0.489 o
6 0 10 34.049 34.307 0.734 o
6 0 12 94.718 93.019 2.256 o
6 0 14 4.261 4.341 0.272 o
6 0 16 2.188 2.016 0.245 o
6 0 18 12.291 12.077 0.443 o
6 0 20 23.368 23.655 0.578 o
6 1 0 0.560 0.682 0.154 o
6 1 1 187.312 186.982 4.435 o
6 1 2 62.565 61.145 1.350 o
6 1 3 22.970 22.641 0.496 o
6 1 4 55.102 55.624 1.216 o
6 1 5 59.301 59.619 1.309 o
6 1 6 21.610 21.786 0.491 o
6 1 7 12.232 12.144 0.272 o
6 1 8 43.008 42.971 0.929 o
6 1 9 35.138 35.368 0.778 o
6 1 10 0.302 0.301 0.034 o
6 1 11 32.471 32.598 0.721 o
6 1 12 0.658 0.697 0.046 o
6 1 13 13.788 13.999 0.329 o
6 1 15 2.089 1.959 0.089 o
6 1 16 26.548 26.764 0.642 o
6 1 17 0.369 0.400 0.064 o
6 1 18 3.176 3.215 0.119 o
6 1 19 5.815 6.109 0.186 o
6 1 21 1.804 1.804 0.239 o
6 2 1 9.797 9.454 0.218 o
6 2 2 0.065 0.093 0.021 o
6 2 3 13.818 14.034 0.313 o
6 2 4 48.907 48.848 1.116 o
6 2 5 100.355 99.952 2.227 o
6 2 6 2.163 2.213 0.068 o
6 2 7 1.157 1.138 0.050 o
6 2 8 5.402 5.318 0.180 o
6 2 9 35.123 34.692 0.826 o
6 2 10 1.534 1.505 0.063 o
6 2 11 5.851 5.914 0.153 o
6 2 12 3.378 3.460 0.101 o
6 2 13 6.995 7.154 0.176 o
6 2 14 34.219 34.943 0.839 o
6 2 15 15.870 15.653 0.370 o
6 2 16 7.920 7.897 0.215 o
6 2 17 1.397 1.387 0.128 o
6 2 18 0.735 0.706 0.069 o
6 2 20 2.871 2.972 0.203 o
6 3 0 0.013 0.492 0.055 o
6 3 2 0.749 0.762 0.035 o
6 3 3 0.742 0.883 0.053 o
6 3 4 0.256 0.320 0.026 o
6 3 5 0.129 0.160 0.024 o
6 3 6 0.226 0.239 0.038 o
6 3 7 5.314 5.188 0.136 o
6 3 8 6.427 6.333 0.168 o
6 3 9 3.217 3.928 0.111 o
6 3 10 33.426 33.288 0.846 o
6 3 11 1.797 1.697 0.068 o
6 3 12 1.310 1.377 0.069 o
6 3 13 0.685 0.576 0.050 o
6 3 15 12.760 12.208 0.300 o
6 3 16 5.810 5.817 0.183 o
6 3 17 0.607 0.537 0.066 o
6 3 18 8.477 8.788 0.329 o
6 3 19 0.270 0.223 0.071 o
6 4 0 17.238 17.303 0.388 o
6 4 2 27.220 27.304 0.611 o
6 4 3 0.278 0.276 0.035 o
6 4 4 6.477 6.394 0.159 o
6 4 5 14.627 15.353 0.347 o
6 4 6 0.829 0.843 0.048 o
6 4 7 2.092 2.124 0.073 o
6 4 8 0.107 0.122 0.037 o
6 4 9 7.746 7.889 0.193 o
6 4 10 18.967 19.269 0.480 o
6 4 11 1.902 1.837 0.107 o
6 4 12 0.314 0.274 0.041 o
6 4 14 3.201 3.116 0.099 o
6 4 15 4.940 4.789 0.147 o
6 4 16 4.027 4.001 0.288 o
6 5 0 28.013 27.824 0.648 o
6 5 1 4.303 4.484 0.139 o
6 5 2 0.196 0.208 0.048 o
6 5 3 0.668 0.698 0.051 o
6 5 4 15.875 15.810 0.367 o
6 5 6 47.459 47.626 1.057 o
6 5 7 3.001 3.097 0.106 o
6 5 8 0.622 0.663 0.053 o
6 5 9 1.393 1.424 0.101 o
6 5 10 0.417 0.441 0.047 o
6 5 12 0.611 0.616 0.061 o
6 5 13 1.603 1.714 0.076 o
6 5 14 8.363 8.619 0.210 o
6 6 0 12.116 12.950 0.302 o
6 6 1 2.220 2.203 0.108 o
6 6 2 4.991 4.985 0.136 o
6 6 3 5.537 5.490 0.158 o
6 6 4 0.297 0.305 0.050 o
6 6 5 1.240 1.219 0.072 o
6 6 7 2.109 1.925 0.140 o
6 6 8 0.917 0.913 0.055 o
6 6 9 0.543 0.562 0.059 o
6 6 10 7.538 7.627 0.411 o
6 6 11 5.087 5.367 0.252 o
6 7 0 1.882 1.860 0.098 o
6 7 1 0.573 0.598 0.066 o
6 7 2 0.695 0.646 0.052 o
6 7 4 0.192 0.160 0.042 o
6 7 5 0.462 0.327 0.060 o
7 0 0 109.517 111.890 2.320 o
7 0 2 36.648 35.875 0.769 o
7 0 4 270.847 275.475 6.103 o
7 0 6 1.146 1.096 0.068 o
7 0 8 44.496 44.408 1.058 o
7 0 10 60.816 60.464 1.270 o
7 0 12 17.615 17.422 0.514 o
7 0 14 12.248 12.091 0.448 o
7 0 16 8.465 8.763 0.391 o
7 0 18 16.462 16.971 0.508 o
7 1 0 83.392 84.011 1.855 o
7 1 1 1.141 1.170 0.045 o
7 1 2 0.183 0.202 0.023 o
7 1 3 7.575 7.590 0.174 o
7 1 4 35.879 35.357 0.818 o
7 1 5 41.079 40.880 0.947 o
7 1 6 1.030 1.063 0.048 o
7 1 7 1.426 1.401 0.078 o
7 1 8 47.249 46.965 1.062 o
7 1 10 3.310 3.380 0.103 o
7 1 11 16.856 17.383 0.391 o
7 1 12 15.502 15.563 0.356 o
7 1 13 15.376 15.494 0.359 o
7 1 14 24.118 24.149 0.541 o
7 1 15 22.777 22.814 0.515 o
7 1 17 3.548 3.574 0.124 o
7 1 18 0.433 0.360 0.109 o
7 1 19 4.189 4.454 0.305 o
7 2 0 36.331 35.859 0.790 o
7 2 1 11.199 10.775 0.263 o
7 2 2 6.559 6.607 0.159 o
7 2 3 5.026 4.870 0.122 o
7 2 4 0.528 0.628 0.044 o
7 2 5 0.786 0.768 0.044 o
7 2 6 5.982 5.962 0.146 o
7 2 7 3.406 3.410 0.095 o
7 2 8 7.431 7.465 0.180 o
7 2 9 21.022 21.061 0.473 o
7 2 10 0.913 0.946 0.052 o
7 2 11 10.376 10.252 0.252 o
7 2 12 0.344 0.423 0.042 o
7 2 13 4.251 4.045 0.141 o
7 2 14 6.887 6.611 0.213 o
7 2 15 11.592 12.128 0.293 o
7 2 16 1.168 1.141 0.080 o
7 2 18 4.124 3.907 0.271 o
7 2 19 16.363 16.114 0.482 o
7 3 0 0.627 0.623 0.037 o
7 3 1 28.852 28.511 0.634 o
7 3 2 23.446 22.783 0.519 o
7 3 3 15.800 15.529 0.366 o
7 3 4 14.517 14.361 0.341 o
7 3 5 1.001 1.058 0.048 o
7 3 6 6.993 6.923 0.166 o
7 3 7 3.485 3.474 0.098 o
7 3 8 12.535 12.499 0.290 o
7 3 9 10.280 10.225 0.246 o
7 3 10 1.845 1.984 0.074 o
7 3 12 3.686 3.689 0.112 o
7 3 13 1.640 1.672 0.074 o
7 3 14 0.270 0.276 0.059 o
7 3 16 1.924 2.081 0.098 o
7 3 17 0.613 0.608 0.077 o
7 4 0 10.184 10.195 0.237 o
7 4 1 1.434 1.504 0.061 o
7 4 2 1.782 1.795 0.070 o
7 4 3 1.220 1.135 0.090 o
7 4 4 2.694 2.706 0.092 o
7 4 5 21.346 21.467 0.512 o
7 4 6 31.248 31.258 0.707 o
7 4 7 0.106 0.150 0.043 o
7 4 9 10.600 10.581 0.252 o
7 4 10 0.329 0.323 0.055 o
7 4 12 5.170 4.960 0.135 o
7 4 13 0.326 0.310 0.044 o
7 4 14 7.258 7.169 0.182 o
7 4 15 3.548 3.499 0.128 o
7 4 16 1.266 1.316 0.214 o
7 5 0 14.292 14.310 0.396 o
7 5 2 13.125 13.013 0.365 o
7 5 3 1.394 1.391 0.078 o
7 5 4 2.496 2.530 0.115 o
7 5 6 1.162 1.208 0.079 o
7 5 7 0.219 0.244 0.044 o
7 5 8 3.802 3.973 0.125 o
7 5 10 22.055 21.712 0.487 o
7 5 11 1.412 1.381 0.080 o
7 5 12 1.290 1.387 0.094 o
7 6 0 0.804 0.809 0.068 o
7 6 2 2.480 2.423 0.088 o
7 6 3 0.162 0.151 0.038 o
7 6 4 4.227 4.162 0.133 o
7 6 5 4.312 4.510 0.171 o
7 6 6 3.614 3.599 0.104 o
7 6 7 3.659 3.777 0.116 o
7 6 8 3.216 3.452 0.103 o
7 6 9 5.078 4.902 0.148 o
7 7 0 0.001 0.304 0.059 o
7 7 1 0.678 0.732 0.163 o
8 0 0 27.369 28.151 0.633 o
8 0 2 15.046 14.672 0.394 o
8 0 4 65.948 65.839 1.449 o
8 0 6 4.803 4.543 0.261 o
8 0 8 28.995 29.743 0.882 o
8 0 10 0.880 0.648 0.110 o
8 0 12 24.860 24.721 0.676 o
8 0 14 83.820 83.393 2.019 o
8 0 16 0.837 1.021 0.210 o
8 1 1 0.390 0.414 0.029 o
8 1 2 2.189 2.198 0.069 o
8 1 3 85.528 86.375 1.936 o
8 1 4 33.612 33.865 0.751 o
8 1 6 4.229 4.201 0.109 o
8 1 7 0.308 0.343 0.032 o
8 1 8 19.918 19.559 0.439 o
8 1 9 9.760 9.705 0.231 o
8 1 10 19.068 18.688 0.438 o
8 1 11 5.977 6.298 0.168 o
8 1 12 4.398 4.278 0.144 o
8 1 13 11.275 11.353 0.275 o
8 1 15 1.615 1.563 0.113 o
8 1 16 0.632 0.622 0.084 o
8 1 18 20.774 20.924 0.551 o
8 2 0 42.897 42.423 0.935 o
8 2 1 21.926 21.688 0.500 o
8 2 2 0.153 0.166 0.025 o
8 2 3 5.149 5.035 0.129 o
8 2 4 14.297 14.312 0.336 o
8 2 5 7.722 7.588 0.195 o
8 2 7 36.065 35.917 0.794 o
8 2 8 4.429 4.389 0.118 o
8 2 9 0.158 0.148 0.037 o
8 2 10 15.620 15.581 0.376 o
8 2 11 0.144 0.152 0.040 o
8 2 13 3.992 3.978 0.117 o
8 2 14 0.334 0.450 0.055 o
8 2 15 2.607 2.550 0.110 o
8 2 16 2.040 2.115 0.093 o
8 2 17 0.874 0.880 0.078 o
8 3 0 17.793 17.524 0.399 o
8 3 1 0.188 0.187 0.030 o
8 3 2 10.004 9.630 0.228 o
8 3 3 0.596 0.593 0.041 o
8 3 4 11.333 11.216 0.268 o
8 3 5 18.382 18.241 0.438 o
8 3 6 14.675 14.448 0.355 o
8 3 7 0.173 0.112 0.034 o
8 3 8 3.784 3.779 0.106 o
8 3 10 2.703 2.686 0.110 o
8 3 11 6.020 5.875 0.176 o
8 3 12 3.380 3.458 0.122 o
8 3 13 6.770 6.656 0.169 o
8 3 14 5.869 5.796 0.258 o
8 3 15 1.438 1.207 0.100 o
8 3 16 2.579 2.446 0.094 o
8 4 0 0.014 0.109 0.037 o
8 4 1 2.333 2.335 0.082 o
8 4 2 14.633 14.619 0.335 o
8 4 3 2.516 2.579 0.087 o
8 4 4 2.431 2.465 0.090 o
8 4 5 2.844 2.842 0.114 o
8 4 6 3.815 3.870 0.142 o
8 4 7 4.376 4.334 0.142 o
8 4 9 13.487 12.866 0.306 o
8 4 10 6.180 6.086 0.162 o
8 4 11 0.278 0.295 0.049 o
8 4 12 5.878 6.257 0.168 o
8 4 13 0.258 0.203 0.063 o
8 5 0 1.050 1.071 0.055 o
8 5 1 0.237 0.143 0.040 o
8 5 2 6.969 7.096 0.201 o
8 5 3 3.940 3.976 0.156 o
8 5 4 0.920 0.924 0.052 o
8 5 6 7.313 7.055 0.237 o
8 5 7 2.226 2.189 0.153 o
8 5 8 21.328 21.248 0.476 o
8 5 9 2.872 3.033 0.108 o
8 5 10 0.867 0.852 0.078 o
8 5 11 0.397 0.421 0.044 o
8 6 0 0.141 0.184 0.035 o
8 6 1 0.564 0.508 0.041 o
8 6 2 5.288 5.292 0.169 o
8 6 3 1.518 1.527 0.065 o
8 6 4 2.868 2.942 0.089 o
9 0 0 17.710 18.753 0.414 o
9 0 2 47.553 47.678 1.103 o
9 0 4 4.693 4.647 0.152 o
9 0 6 27.483 27.474 0.623 o
9 0 10 13.843 13.854 0.485 o
9 0 12 8.742 8.912 0.405 o
9 0 16 0.835 0.719 0.204 o
9 1 0 33.551 33.562 0.755 o
9 1 1 0.233 0.248 0.027 o
9 1 2 4.880 4.734 0.121 o
9 1 3 26.908 26.958 0.603 o
9 1 4 2.535 2.568 0.079 o
9 1 5 6.229 6.284 0.158 o
9 1 6 7.895 7.847 0.193 o
9 1 7 13.153 13.004 0.306 o
9 1 8 1.704 1.706 0.075 o
9 1 9 2.072 2.081 0.081 o
9 1 10 9.344 9.398 0.237 o
9 1 12 1.021 0.939 0.074 o
9 1 13 27.553 27.008 0.608 o
9 1 14 9.181 9.019 0.242 o
9 1 15 1.037 0.951 0.087 o
9 1 16 2.300 2.135 0.232 o
9 2 0 1.759 1.842 0.066 o
9 2 1 3.645 3.502 0.102 o
9 2 2 37.100 37.078 0.827 o
9 2 3 5.179 5.224 0.132 o
9 2 4 37.094 36.188 0.832 o
9 2 5 3.323 3.345 0.106 o
9 2 6 3.143 3.050 0.091 o
9 2 7 1.758 1.751 0.081 o
9 2 8 2.233 2.358 0.078 o
9 2 9 15.685 15.568 0.357 o
9 2 10 2.221 1.966 0.075 o
9 2 11 8.883 8.909 0.223 o
9 2 12 6.512 6.484 0.172 o
9 2 14 7.554 7.577 0.188 o
9 2 15 2.709 2.577 0.096 o
9 3 0 2.218 2.418 0.088 o
9 3 1 6.694 6.712 0.170 o
9 3 2 2.575 2.495 0.083 o
9 3 3 14.321 15.184 0.347 o
9 3 4 6.893 6.805 0.177 o
9 3 5 1.407 1.256 0.081 o
9 3 6 16.246 16.880 0.387 o
9 3 7 0.338 0.243 0.047 o
9 3 8 16.851 16.484 0.407 o
9 3 9 0.101 0.201 0.034 o
9 3 10 3.162 2.888 0.084 o
9 3 11 3.940 4.105 0.112 o
9 3 12 4.797 4.845 0.129 o
9 3 13 0.310 0.306 0.045 o
9 3 14 1.204 1.134 0.257 o
9 4 1 2.509 2.472 0.085 o
9 4 2 13.537 13.363 0.324 o
9 4 5 0.327 0.302 0.046 o
9 4 6 5.299 5.158 0.142 o
9 4 7 18.642 18.747 0.427 o
9 4 8 13.037 12.886 0.325 o
9 4 9 5.277 5.205 0.144 o
9 4 10 1.048 1.026 0.101 o
9 4 11 0.175 0.199 0.063 o
9 5 1 0.881 0.878 0.056 o
9 5 2 4.561 4.355 0.139 o
9 5 3 1.609 1.583 0.078 o
9 5 4 1.103 1.120 0.053 o
9 5 5 0.900 0.952 0.074 o
9 5 8 5.451 5.474 0.143 o
9 6 1 1.639 1.713 0.093 o
10 0 0 7.540 8.345 0.224 o
10 0 2 2.909 2.957 0.120 o
10 0 4 14.389 14.668 0.380 o
10 0 6 17.772 17.678 0.481 o
10 0 8 1.021 0.897 0.206 o
10 0 10 12.127 11.618 0.449 o
10 0 12 11.771 11.720 0.449 o
10 0 14 3.007 3.231 0.279 o
10 1 0 9.774 9.809 0.230 o
10 1 1 32.743 32.749 0.730 o
10 1 3 8.688 8.625 0.207 o
10 1 4 9.718 9.637 0.247 o
10 1 5 3.737 3.532 0.123 o
10 1 6 7.958 7.918 0.200 o
10 1 8 1.360 1.388 0.074 o
10 1 9 1.128 1.229 0.083 o
10 1 10 5.417 5.373 0.187 o
10 1 11 3.871 3.785 0.127 o
10 1 12 0.719 0.660 0.086 o
10 1 13 1.793 1.614 0.108 o
10 1 14 5.432 5.421 0.385 o
10 2 0 9.625 9.604 0.269 o
10 2 1 1.754 1.893 0.074 o
10 2 2 29.508 29.111 0.809 o
10 2 3 8.011 7.998 0.198 o
10 2 4 1.559 1.491 0.067 o
10 2 5 10.351 10.260 0.249 o
10 2 6 7.396 7.301 0.178 o
10 2 7 3.956 3.833 0.107 o
10 2 8 3.280 3.311 0.101 o
10 2 9 0.432 0.408 0.051 o
10 2 10 6.551 6.516 0.162 o
10 2 11 1.237 1.275 0.057 o
10 2 12 15.716 15.909 0.424 o
10 2 13 0.893 0.863 0.064 o
10 3 0 0.868 0.726 0.049 o
10 3 1 1.382 1.210 0.057 o
10 3 2 19.121 19.151 0.434 o
10 3 3 4.014 3.994 0.112 o
10 3 4 3.426 3.515 0.102 o
10 3 5 0.244 0.168 0.042 o
10 3 6 14.438 13.914 0.425 o
10 3 7 11.965 11.961 0.354 o
10 3 8 25.336 24.551 0.549 o
10 3 9 0.583 0.495 0.051 o
10 3 10 1.093 1.031 0.054 o
10 3 11 0.870 0.906 0.077 o
10 4 0 2.564 2.613 0.086 o
10 4 1 5.261 5.261 0.138 o
10 4 3 1.550 1.599 0.086 o
10 4 4 3.367 3.401 0.107 o
10 4 5 0.976 1.058 0.058 o
10 4 6 0.887 0.832 0.055 o
10 4 7 7.094 7.221 0.196 o
10 4 8 0.506 0.505 0.050 o
10 4 9 0.237 0.287 0.050 o
10 5 0 1.953 2.019 0.076 o
10 5 1 2.627 2.565 0.085 o
10 5 2 0.714 0.670 0.044 o
10 5 3 0.497 0.463 0.039 o
10 5 4 1.779 1.805 0.074 o
10 5 5 0.819 0.839 0.060 o
11 0 0 33.489 34.214 0.750 o
11 0 2 25.641 25.456 0.594 o
11 0 6 2.524 2.365 0.120 o
11 0 10 0.826 0.795 0.214 o
11 1 1 3.954 3.872 0.132 o
11 1 2 8.367 8.305 0.207 o
11 1 3 11.465 11.490 0.274 o
11 1 4 1.706 1.680 0.070 o
11 1 5 12.779 12.698 0.357 o
11 1 6 3.618 3.729 0.117 o
11 1 7 4.840 4.620 0.135 o
11 1 8 0.263 0.229 0.051 o
11 1 9 1.380 1.389 0.079 o
11 1 10 5.647 5.486 0.157 o
11 1 11 10.089 9.881 0.420 o
11 2 0 0.139 0.108 0.036 o
11 2 1 12.322 12.011 0.291 o
11 2 3 0.937 0.860 0.067 o
11 2 4 7.150 6.906 0.201 o
11 2 6 19.934 19.243 0.435 o
11 2 7 16.570 16.380 0.372 o
11 2 8 2.809 2.746 0.085 o
11 2 9 0.822 0.848 0.057 o
11 2 10 1.012 0.969 0.058 o
11 3 0 19.890 19.658 0.444 o
11 3 1 2.160 2.197 0.080 o
11 3 2 1.267 1.228 0.073 o
11 3 3 1.477 1.529 0.076 o
11 3 4 3.100 3.157 0.100 o
11 3 5 0.723 0.779 0.062 o
11 3 6 2.223 2.341 0.105 o
11 3 8 1.305 1.372 0.075 o
11 4 0 1.560 1.560 0.068 o
11 4 1 3.504 3.697 0.140 o
11 4 2 3.590 3.527 0.144 o
11 4 3 0.269 0.307 0.048 o
11 4 4 6.595 6.848 0.168 o
11 4 5 0.601 0.604 0.054 o
12 0 0 1.519 1.681 0.114 o
12 0 2 20.516 20.849 0.468 o
12 0 4 7.751 8.239 0.296 o
12 0 6 20.207 20.307 0.556 o
12 0 8 0.505 0.456 0.071 o
12 1 0 8.767 8.869 0.211 o
12 1 1 3.428 3.320 0.099 o
12 1 2 8.516 8.449 0.206 o
12 1 3 3.429 3.335 0.103 o
12 1 4 0.536 0.511 0.044 o
12 1 5 3.785 3.670 0.118 o
12 1 6 12.513 12.248 0.321 o
12 1 7 2.466 2.559 0.085 o
12 1 8 1.056 0.983 0.058 o
12 2 0 0.677 0.671 0.043 o
12 2 3 2.124 2.159 0.075 o
12 2 4 4.028 4.062 0.120 o
12 2 5 2.661 2.704 0.187 o
12 2 6 1.010 0.976 0.114 o
12 2 7 1.120 1.089 0.068 o
12 3 0 4.597 4.544 0.123 o
12 3 1 0.282 0.243 0.038 o
12 3 2 0.208 0.180 0.044 o
12 3 3 2.645 2.847 0.089 o
12 3 4 4.822 4.920 0.129 o
12 3 5 3.728 3.759 0.126 o
12 4 0 4.007 4.534 0.279 o
13 0 0 0.152 0.218 0.051 o
13 0 2 12.192 11.928 0.281 o
13 0 4 9.450 9.468 0.234 o
13 1 0 1.388 1.308 0.063 o
13 1 1 2.194 2.321 0.080 o
13 1 2 1.331 1.421 0.072 o
13 1 3 2.572 2.493 0.106 o
13 1 4 0.927 1.021 0.240 o
13 2 0 1.041 1.007 0.060 o
13 2 1 3.027 3.019 0.126 o
13 2 2 2.487 2.624 0.104 o
