#------------------------------------------------------------------------------
#$Date: 2016-02-21 11:56:54 +0200 (Sun, 21 Feb 2016) $
#$Revision: 176809 $
#$URL: svn://www.crystallography.net/cod/cif/2/31/01/2310125.cif $
#------------------------------------------------------------------------------
#
# This file is available in the Crystallography Open Database (COD),
# http://www.crystallography.net/
#
# All data on this site have been placed in the public domain by the
# contributors.
#
data_2310125
loop_
_publ_author_name
'Kami\'nski, Rados\/law'
'Domaga\/la, S\/lawomir'
'Jarzembska, Katarzyna N.'
'Hoser, Anna A.'
'Sanjuan-Szklarz, W. Fabiola'
'Gutmann, Matthias J.'
'Makal, Anna'
'Mali\'nska, Maura'
'Bak, Joanna M.'
'Wo\'zniak, Krzysztof'
_publ_section_title
;
 Statistical analysis of multipole-model-derived structural parameters and
 charge-density properties from high-resolution X-ray diffraction
 experiments
;
_journal_issue                   1
_journal_name_full               'Acta Crystallographica Section A'
_journal_page_first              72
_journal_page_last               91
_journal_paper_doi               10.1107/S2053273313028313
_journal_volume                  70
_journal_year                    2014
_chemical_formula_moiety         'C2 H2 O4, 2(H2 O1)'
_chemical_formula_sum            'C2 H6 O6'
_chemical_formula_weight         126.07
_space_group_IT_number           14
_symmetry_cell_setting           monoclinic
_symmetry_Int_Tables_number      14
_symmetry_space_group_name_Hall  '-P 2ybc'
_symmetry_space_group_name_H-M   'P 1 21/c 1'
_cell_angle_alpha                90.00
_cell_angle_beta                 103.922(2)
_cell_angle_gamma                90.00
_cell_formula_units_Z            2
_cell_length_a                   6.0988(1)
_cell_length_b                   3.497
_cell_length_c                   11.8494(2)
_cell_measurement_temperature    100(1)
_cell_volume                     245.294(6)
_diffrn_ambient_temperature      100(1)
_diffrn_measured_fraction_theta_full 0.997
_diffrn_measured_fraction_theta_max 0.997
_diffrn_measurement_device
;
Bruker AXS Kappa APEX II Ultra diffractometer
;
_diffrn_measurement_device_type  'APEX II CCD detector'
_diffrn_measurement_method       \w-scans
_diffrn_radiation_monochromator  'multi-layer optics'
_diffrn_radiation_source         'TXS rotating anode'
_diffrn_radiation_type           'Mo K\a'
_diffrn_radiation_wavelength     0.71073
_diffrn_reflns_av_R_equivalents  0.0211
_diffrn_reflns_av_sigmaI/netI    0.01784
_diffrn_reflns_limit_h_max       13
_diffrn_reflns_limit_h_min       -13
_diffrn_reflns_limit_k_max       7
_diffrn_reflns_limit_k_min       -7
_diffrn_reflns_limit_l_max       26
_diffrn_reflns_limit_l_min       -26
_diffrn_reflns_number            22748
_diffrn_reflns_theta_full        53.19
_diffrn_reflns_theta_max         53.257
_diffrn_reflns_theta_min         3.442
_exptl_absorpt_coefficient_mu    0.181
_exptl_absorpt_correction_T_max  0.990
_exptl_absorpt_correction_T_min  0.984
_exptl_absorpt_correction_type   multi-scan
_exptl_absorpt_process_details
;
 Absorption correction done by SORTAV
 Blessing, R. H.: (1995) Acta Cryst. A51, 33-38
;
_exptl_crystal_colour            colourless
_exptl_crystal_density_diffrn    1.707
_exptl_crystal_description       unspecified
_exptl_crystal_F_000             132
_exptl_crystal_size_max          0.234
_exptl_crystal_size_mid          0.212
_exptl_crystal_size_min          0.103
_refine_diff_density_max         +0.14
_refine_diff_density_min         -0.18
_refine_ls_extinction_method     none
_refine_ls_goodness_of_fit_ref   0.988
_refine_ls_hydrogen_treatment    mixed
_refine_ls_number_parameters     177
_refine_ls_number_reflns         2394
_refine_ls_number_restraints     3
_refine_ls_R_factor_all          0.0138
_refine_ls_R_factor_gt           0.0138
_refine_ls_shift/su_max          0.001
_refine_ls_shift/su_mean         0.000
_refine_ls_structure_factor_coef F
_refine_ls_weighting_details
;
w=1/[\s^2^(Fo)]
;
_refine_ls_weighting_scheme      sigma
_refine_ls_wR_factor_gt          0.0159
_refine_ls_wR_factor_ref         0.0159
_reflns_number_gt                2394
_reflns_number_total             2929
_reflns_threshold_expression     I>3\s(I)
_iucr_refine_instructions_details
;
 Multipole refinement with MOPRO program
;
_cod_data_source_file            pc5031sup13.cif
_cod_data_source_block           oxa13
_cod_original_cell_volume        245.322(6)
_cod_original_sg_symbol_H-M      'P 21/c'
_cod_database_code               2310125
loop_
_symmetry_equiv_pos_as_xyz
'x, y, z'
'-x, y+1/2, -z+1/2'
'-x, -y, -z'
'x, -y-1/2, z-1/2'
loop_
_atom_site_type_symbol
_atom_site_label
_atom_site_fract_x
_atom_site_fract_y
_atom_site_fract_z
_atom_site_U_iso_or_equiv
_atom_site_adp_type
_atom_site_occupancy
_atom_site_calc_flag
O O1 0.43489(3) 0.44401(7) 0.34989(2) 0.01335(7) Uani 1 d
O O2 0.24240(3) 0.74258(6) 0.46370(2) 0.01311(6) Uani 1 d
C C1 0.40315(2) 0.55869(4) 0.44800(1) 0.00961(5) Uani 1 d
H H1 0.301(1) 0.512(5) 0.2754(6) 0.02316 Uani 1 d
O O3 0.13003(3) 0.63128(6) 0.17861(2) 0.01298(6) Uani 1 d
H H2 0.193(1) 0.699(5) 0.1131(5) 0.02911 Uani 1 d
H H3 0.014(1) 0.445(2) 0.147(2) 0.02883 Uani 1 d
loop_
_atom_site_aniso_label
_atom_site_aniso_U_11
_atom_site_aniso_U_22
_atom_site_aniso_U_33
_atom_site_aniso_U_12
_atom_site_aniso_U_13
_atom_site_aniso_U_23
O1 0.01278(6) 0.01926(7) 0.00754(5) 0.00466(5) 0.00154(5) -0.00071(5)
O2 0.01110(5) 0.01820(7) 0.00937(5) 0.00555(5) 0.00116(4) -0.00073(5)
C1 0.00927(5) 0.01149(5) 0.00777(5) 0.00172(3) 0.00148(3) -0.00011(3)
H1 0.0216 0.0268 0.0209 0.0018 0.0047 0.0002
O3 0.01061(5) 0.01842(7) 0.00910(5) -0.00205(5) 0.00078(4) 0.00107(5)
H2 0.0260 0.0410 0.0215 -0.0039 0.0081 0.0037
H3 0.0221 0.0305 0.0334 -0.0070 0.0056 -0.0021
loop_
_atom_type_symbol
_atom_type_description
_atom_type_scat_dispersion_real
_atom_type_scat_dispersion_imag
_atom_type_scat_source
C C 0.0033 0.0016 'Su & Coppens, Acta. Cryst. (1997) A53, 749'
H H 0.0000 0.0000 'Su & Coppens, Acta. Cryst. (1997) A53, 749'
O O 0.0106 0.0060 'Su & Coppens, Acta. Cryst. (1997) A53, 749'
loop_
_geom_angle_atom_site_label_1
_geom_angle_atom_site_label_2
_geom_angle_atom_site_label_3
_geom_angle
O1 C1 O2 126.94(2)
C1 O1 H1 115.1(6)
H2 O3 H3 104(1)
loop_
_geom_bond_atom_site_label_1
_geom_bond_atom_site_label_2
_geom_bond_distance
O1 C1 1.2876(2)
O1 H1 1.0738(10)
O2 C1 1.2236(2)
O3 H3 0.9700(10)
O3 H2 0.9738(10)
loop_
_geom_torsion_atom_site_label_1
_geom_torsion_atom_site_label_2
_geom_torsion_atom_site_label_3
_geom_torsion_atom_site_label_4
_geom_torsion
O2 C1 O1 H1 -2.3(6)
loop_
_refln_index_h
_refln_index_k
_refln_index_l
_refln_F_squared_calc
_refln_F_squared_meas
_refln_F_squared_sigma
_refln_observed_status
-13 0 6 34.439 34.732 0.853 o
-13 0 8 3.379 3.199 0.243 o
-13 0 12 11.688 11.842 0.427 o
-13 0 14 1.655 1.421 0.276 o
-13 1 1 2.708 2.458 0.156 o
-13 1 2 14.448 14.573 0.392 o
-13 1 4 1.156 1.154 0.120 o
-13 1 5 9.831 10.108 0.318 o
-13 1 8 3.791 3.435 0.189 o
-13 1 10 3.422 3.387 0.296 o
-13 1 12 3.294 3.202 0.172 o
-13 1 13 0.610 0.541 0.113 o
-13 2 1 4.083 4.066 0.247 o
-13 2 3 1.064 1.133 0.110 o
-13 2 4 0.853 0.646 0.106 o
-13 2 5 1.265 1.316 0.122 o
-13 2 6 0.502 0.483 0.149 o
-13 2 8 2.197 2.253 0.153 o
-13 2 9 1.333 1.016 0.330 o
-13 2 10 4.012 3.950 0.224 o
-12 0 2 8.945 8.911 0.334 o
-12 0 4 41.775 42.834 1.053 o
-12 0 6 4.152 4.028 0.220 o
-12 0 10 2.548 2.335 0.208 o
-12 0 12 8.698 8.463 0.412 o
-12 0 14 5.367 5.634 0.302 o
-12 0 16 18.134 17.898 0.870 o
-12 1 1 1.951 1.684 0.173 o
-12 1 2 1.032 0.759 0.154 o
-12 1 5 19.062 19.123 0.499 o
-12 1 6 4.502 4.448 0.158 o
-12 1 7 1.591 1.542 0.111 o
-12 1 8 11.855 12.203 0.330 o
-12 1 9 11.369 11.020 0.356 o
-12 1 10 2.732 2.632 0.161 o
-12 1 11 1.017 0.746 0.107 o
-12 1 12 6.901 6.622 0.222 o
-12 1 13 0.797 0.644 0.172 o
-12 1 15 13.667 13.464 0.370 o
-12 1 16 1.791 1.746 0.142 o
-12 1 17 0.845 0.913 0.115 o
-12 2 1 13.195 12.958 0.358 o
-12 2 2 5.224 5.091 0.200 o
-12 2 5 7.931 7.667 0.240 o
-12 2 7 3.436 3.369 0.155 o
-12 2 8 4.431 4.341 0.169 o
-12 2 9 4.121 4.096 0.172 o
-12 2 11 8.643 8.998 0.297 o
-12 2 12 1.042 0.849 0.155 o
-12 2 13 5.049 4.976 0.209 o
-12 3 1 1.538 1.571 0.134 o
-12 3 3 3.301 3.326 0.176 o
-12 3 6 0.850 0.831 0.099 o
-12 3 7 1.303 1.085 0.180 o
-12 3 11 1.733 1.443 0.156 o
-11 0 2 3.716 3.817 0.193 o
-11 0 4 9.335 9.460 0.313 o
-11 0 6 0.637 0.761 0.113 o
-11 0 8 86.211 88.868 1.909 o
-11 0 10 7.900 7.912 0.603 o
-11 0 12 2.623 2.615 0.205 o
-11 0 14 33.904 34.950 0.854 o
-11 0 16 1.447 1.460 0.248 o
-11 0 18 12.084 12.212 1.395 o
-11 0 20 2.135 1.354 0.377 o
-11 1 2 5.708 5.478 0.256 o
-11 1 3 13.685 13.744 0.353 o
-11 1 4 35.630 35.460 0.814 o
-11 1 5 2.057 2.176 0.134 o
-11 1 7 1.432 1.585 0.094 o
-11 1 8 1.325 1.363 0.094 o
-11 1 9 6.118 5.827 0.202 o
-11 1 10 3.749 3.723 0.165 o
-11 1 11 4.288 3.970 0.170 o
-11 1 12 13.388 12.893 0.357 o
-11 1 14 6.240 5.874 0.206 o
-11 1 15 6.004 6.143 0.212 o
-11 1 16 2.503 2.565 0.132 o
-11 1 18 9.318 9.447 0.304 o
-11 1 19 11.265 11.445 0.389 o
-11 1 20 0.439 0.588 0.149 o
-11 2 1 2.718 2.634 0.150 o
-11 2 2 0.318 0.395 0.085 o
-11 2 3 1.305 1.191 0.120 o
-11 2 4 10.716 10.727 0.299 o
-11 2 5 2.114 2.065 0.125 o
-11 2 6 6.114 5.971 0.192 o
-11 2 7 8.203 7.903 0.245 o
-11 2 10 1.013 0.930 0.126 o
-11 2 11 2.223 2.213 0.141 o
-11 2 12 2.526 2.743 0.139 o
-11 2 13 0.525 0.692 0.124 o
-11 2 14 1.391 1.251 0.105 o
-11 2 15 10.269 10.197 0.336 o
-11 2 16 0.228 0.315 0.093 o
-11 2 17 0.770 0.778 0.093 o
-11 2 18 2.405 2.292 0.160 o
-11 3 1 1.024 0.901 0.124 o
-11 3 2 3.233 3.345 0.154 o
-11 3 4 4.513 4.486 0.180 o
-11 3 5 6.263 6.376 0.220 o
-11 3 6 2.856 2.705 0.134 o
-11 3 7 3.645 3.533 0.159 o
-11 3 9 1.270 1.011 0.151 o
-11 3 10 12.076 12.131 0.359 o
-11 3 11 4.000 4.323 0.195 o
-11 3 12 1.120 1.104 0.135 o
-11 3 13 2.590 2.617 0.156 o
-11 3 16 3.681 3.340 0.173 o
-11 3 17 4.572 4.637 0.445 o
-11 4 1 1.277 1.205 0.119 o
-11 4 2 2.856 3.031 0.163 o
-11 4 3 5.531 5.501 0.214 o
-11 4 6 6.740 6.833 0.240 o
-11 4 9 2.341 2.651 0.149 o
-11 4 10 3.678 3.463 0.239 o
-11 4 12 3.294 3.106 0.195 o
-11 4 13 5.771 5.455 0.553 o
-10 0 4 8.559 8.557 0.260 o
-10 0 6 12.095 12.594 0.342 o
-10 0 8 17.378 16.964 0.441 o
-10 0 10 12.028 11.543 0.816 o
-10 0 12 11.617 11.738 0.410 o
-10 0 14 0.811 1.163 0.230 o
-10 0 16 2.964 2.902 0.259 o
-10 0 18 62.401 63.521 1.666 o
-10 0 20 1.750 1.324 0.228 o
-10 0 22 1.281 1.137 0.175 o
-10 1 1 3.384 3.606 0.131 o
-10 1 2 0.502 0.480 0.080 o
-10 1 3 2.146 2.167 0.104 o
-10 1 4 0.734 0.585 0.074 o
-10 1 5 9.502 9.242 0.249 o
-10 1 7 46.959 47.646 1.068 o
-10 1 8 19.692 19.943 0.474 o
-10 1 9 9.995 9.668 0.293 o
-10 1 10 6.197 6.155 0.206 o
-10 1 11 1.840 1.969 0.141 o
-10 1 12 3.857 3.618 0.224 o
-10 1 13 11.360 11.477 0.332 o
-10 1 14 17.897 17.734 0.576 o
-10 1 16 0.965 1.007 0.113 o
-10 1 17 14.956 15.788 0.422 o
-10 1 18 2.329 2.079 0.143 o
-10 1 19 1.894 2.214 0.155 o
-10 1 21 0.522 0.809 0.130 o
-10 1 22 11.524 11.399 0.671 o
-10 2 1 0.515 0.453 0.080 o
-10 2 2 10.912 11.018 0.285 o
-10 2 3 48.554 48.927 1.114 o
-10 2 4 27.909 27.830 0.655 o
-10 2 7 1.316 1.143 0.085 o
-10 2 8 8.967 8.880 0.245 o
-10 2 9 13.253 13.067 0.334 o
-10 2 10 0.816 0.702 0.098 o
-10 2 11 11.801 12.170 0.328 o
-10 2 12 4.977 5.086 0.190 o
-10 2 13 11.344 11.581 0.337 o
-10 2 14 13.433 13.666 0.359 o
-10 2 16 0.688 0.647 0.106 o
-10 2 17 3.768 3.947 0.169 o
-10 2 18 0.617 0.504 0.107 o
-10 2 20 0.333 0.476 0.109 o
-10 3 1 2.592 2.486 0.119 o
-10 3 2 8.064 8.394 0.249 o
-10 3 3 3.578 3.425 0.138 o
-10 3 4 10.189 10.617 0.295 o
-10 3 6 10.863 11.234 0.298 o
-10 3 7 0.570 0.590 0.094 o
-10 3 8 5.817 5.767 0.247 o
-10 3 9 0.922 0.745 0.139 o
-10 3 10 7.603 7.840 0.253 o
-10 3 14 8.152 8.371 0.285 o
-10 3 15 2.609 2.768 0.164 o
-10 3 17 1.539 1.343 0.132 o
-10 3 18 0.359 0.537 0.138 o
-10 3 19 0.861 0.878 0.152 o
-10 4 2 10.251 9.860 0.302 o
-10 4 3 6.162 6.151 0.205 o
-10 4 4 0.302 0.303 0.074 o
-10 4 5 1.083 1.115 0.092 o
-10 4 6 3.411 3.331 0.134 o
-10 4 8 3.148 3.059 0.146 o
-10 4 9 3.087 3.087 0.147 o
-10 4 10 7.094 7.204 0.235 o
-10 4 13 7.664 7.619 0.246 o
-10 4 16 10.581 10.572 0.375 o
-10 5 2 6.837 6.233 0.279 o
-10 5 4 2.209 1.931 0.132 o
-10 5 5 2.934 2.895 0.161 o
-10 5 6 5.839 6.046 0.245 o
-10 5 10 0.747 0.718 0.112 o
-10 5 11 1.277 0.935 0.205 o
-9 0 2 4.170 3.972 0.204 o
-9 0 4 56.599 56.592 1.246 o
-9 0 6 24.544 25.127 0.643 o
-9 0 8 4.402 4.216 0.263 o
-9 0 10 51.785 52.228 1.099 o
-9 0 14 1.957 2.026 0.168 o
-9 0 16 21.163 22.070 0.561 o
-9 0 20 0.991 0.748 0.175 o
-9 0 22 6.985 6.992 0.360 o
-9 1 1 0.465 0.567 0.061 o
-9 1 2 1.395 1.365 0.071 o
-9 1 3 0.123 0.171 0.049 o
-9 1 4 10.261 10.397 0.257 o
-9 1 5 3.080 3.274 0.113 o
-9 1 6 22.284 22.480 0.520 o
-9 1 7 16.966 16.866 0.400 o
-9 1 8 4.774 4.549 0.151 o
-9 1 9 17.416 16.903 0.423 o
-9 1 10 1.136 1.238 0.122 o
-9 1 11 6.632 6.832 0.230 o
-9 1 13 0.340 0.436 0.115 o
-9 1 14 13.569 13.485 0.357 o
-9 1 16 2.595 2.547 0.139 o
-9 1 17 36.215 35.811 0.835 o
-9 1 18 6.763 6.992 0.228 o
-9 1 19 2.731 2.919 0.137 o
-9 1 20 4.262 4.388 0.194 o
-9 1 21 6.918 7.227 0.247 o
-9 1 23 2.211 2.131 0.150 o
-9 2 1 4.723 4.815 0.162 o
-9 2 3 0.674 0.655 0.067 o
-9 2 4 0.342 0.419 0.061 o
-9 2 5 6.084 5.904 0.167 o
-9 2 6 33.976 34.350 0.777 o
-9 2 7 9.984 10.016 0.259 o
-9 2 8 55.225 55.894 1.259 o
-9 2 9 1.378 1.372 0.090 o
-9 2 10 5.416 5.422 0.176 o
-9 2 12 3.146 3.438 0.160 o
-9 2 13 31.396 30.710 0.722 o
-9 2 14 4.690 4.857 0.177 o
-9 2 15 0.503 0.345 0.107 o
-9 2 16 9.725 9.490 0.312 o
-9 2 17 8.254 8.057 0.249 o
-9 2 18 14.586 14.763 0.400 o
-9 2 19 3.895 3.578 0.230 o
-9 2 21 7.363 7.197 0.300 o
-9 2 22 2.827 2.582 0.205 o
-9 3 1 2.700 2.628 0.119 o
-9 3 2 83.462 83.979 1.846 o
-9 3 3 12.635 12.500 0.333 o
-9 3 4 21.274 21.266 0.500 o
-9 3 6 1.044 1.051 0.089 o
-9 3 7 19.962 20.015 0.473 o
-9 3 8 6.546 6.557 0.207 o
-9 3 9 1.371 1.415 0.108 o
-9 3 10 5.029 4.822 0.197 o
-9 3 11 1.164 1.219 0.100 o
-9 3 12 41.165 41.192 0.937 o
-9 3 13 6.708 7.024 0.233 o
-9 3 14 6.085 5.968 0.212 o
-9 3 15 2.439 2.434 0.139 o
-9 3 16 3.041 2.865 0.162 o
-9 3 18 2.744 2.780 0.226 o
-9 4 1 11.622 11.560 0.310 o
-9 4 2 3.747 3.886 0.144 o
-9 4 3 20.777 20.618 0.504 o
-9 4 6 7.783 7.898 0.223 o
-9 4 7 0.919 0.947 0.121 o
-9 4 8 4.262 4.163 0.150 o
-9 4 9 1.645 1.591 0.104 o
-9 4 10 0.570 0.502 0.090 o
-9 4 11 5.570 5.538 0.196 o
-9 4 12 5.935 5.862 0.269 o
-9 4 13 7.242 7.144 0.233 o
-9 5 1 1.535 1.408 0.150 o
-9 5 6 0.781 0.620 0.112 o
-9 5 8 0.560 0.478 0.099 o
-9 5 9 3.523 3.514 0.169 o
-9 5 10 0.832 1.071 0.120 o
-9 5 12 3.115 2.991 0.154 o
-9 5 13 0.232 0.311 0.103 o
-8 0 2 3.621 3.500 0.129 o
-8 0 4 4.201 4.084 0.151 o
-8 0 8 49.719 49.165 1.078 o
-8 0 10 6.610 6.950 0.319 o
-8 0 12 3.124 3.180 0.141 o
-8 0 14 43.911 43.116 1.462 o
-8 0 16 12.078 11.904 0.360 o
-8 0 18 2.364 2.922 0.260 o
-8 0 20 41.516 42.520 0.994 o
-8 1 1 29.203 29.043 0.658 o
-8 1 3 19.122 19.100 0.441 o
-8 1 4 29.637 29.422 0.667 o
-8 1 5 22.552 22.520 0.516 o
-8 1 6 1.704 1.679 0.072 o
-8 1 7 55.732 55.928 1.242 o
-8 1 8 5.799 6.017 0.188 o
-8 1 9 13.472 13.365 0.342 o
-8 1 10 36.358 36.272 0.848 o
-8 1 11 1.727 1.633 0.142 o
-8 1 12 1.792 1.575 0.128 o
-8 1 14 0.508 0.629 0.099 o
-8 1 15 15.877 16.071 0.397 o
-8 1 16 8.614 8.613 0.250 o
-8 1 17 7.007 7.066 0.221 o
-8 1 18 10.389 10.558 0.290 o
-8 1 20 1.078 0.875 0.107 o
-8 1 21 4.258 4.262 0.184 o
-8 1 23 1.038 1.005 0.305 o
-8 1 24 9.064 8.629 0.326 o
-8 2 1 39.251 39.459 0.882 o
-8 2 2 16.179 16.235 0.384 o
-8 2 3 6.995 7.045 0.186 o
-8 2 4 16.080 16.067 0.375 o
-8 2 5 33.746 33.864 0.763 o
-8 2 6 57.374 57.355 1.265 o
-8 2 7 6.397 6.435 0.174 o
-8 2 8 6.744 6.677 0.194 o
-8 2 9 1.343 1.150 0.079 o
-8 2 10 11.194 11.307 0.331 o
-8 2 11 20.029 19.931 0.495 o
-8 2 12 8.145 8.045 0.259 o
-8 2 13 2.027 1.974 0.145 o
-8 2 14 11.404 11.244 0.312 o
-8 2 16 37.317 37.559 0.857 o
-8 2 17 2.108 1.682 0.151 o
-8 2 18 13.838 13.827 0.391 o
-8 2 19 3.671 3.337 0.168 o
-8 2 20 0.472 0.672 0.119 o
-8 2 23 2.951 2.740 0.179 o
-8 3 1 0.223 0.221 0.055 o
-8 3 2 8.363 8.400 0.213 o
-8 3 3 7.036 7.213 0.187 o
-8 3 5 0.953 0.811 0.069 o
-8 3 6 33.310 33.495 0.771 o
-8 3 7 10.550 10.360 0.272 o
-8 3 8 22.149 21.774 0.510 o
-8 3 9 5.492 5.534 0.190 o
-8 3 10 9.590 9.782 0.280 o
-8 3 11 5.938 5.760 0.265 o
-8 3 12 50.586 51.007 1.134 o
-8 3 13 1.551 1.468 0.152 o
-8 3 14 1.346 1.398 0.145 o
-8 3 15 0.522 0.386 0.099 o
-8 3 16 17.482 17.879 0.500 o
-8 3 17 16.448 16.659 0.465 o
-8 3 19 1.040 1.066 0.160 o
-8 3 20 7.999 7.982 0.301 o
-8 3 22 23.907 24.756 0.682 o
-8 4 1 21.322 21.001 0.498 o
-8 4 2 19.615 19.840 0.470 o
-8 4 3 15.860 15.831 0.430 o
-8 4 4 11.031 10.750 0.285 o
-8 4 5 3.009 3.140 0.122 o
-8 4 6 4.739 4.831 0.154 o
-8 4 7 2.954 3.118 0.141 o
-8 4 8 4.235 4.347 0.148 o
-8 4 9 0.122 0.365 0.082 o
-8 4 11 22.568 22.567 0.568 o
-8 4 12 17.014 17.406 0.479 o
-8 4 13 10.926 11.060 0.368 o
-8 4 15 2.848 2.797 0.173 o
-8 4 16 2.678 2.922 0.183 o
-8 4 18 4.884 4.605 0.209 o
-8 5 1 4.743 4.688 0.183 o
-8 5 2 26.539 26.894 0.664 o
-8 5 5 1.382 1.567 0.108 o
-8 5 6 0.467 0.751 0.158 o
-8 5 7 4.785 4.773 0.172 o
-8 5 8 7.652 7.706 0.260 o
-8 5 10 2.317 2.469 0.131 o
-8 5 12 0.910 0.796 0.099 o
-8 5 14 0.553 0.477 0.107 o
-8 5 15 0.674 0.667 0.107 o
-8 6 2 0.625 0.628 0.117 o
-8 6 4 0.658 0.710 0.122 o
-8 6 7 1.178 0.878 0.243 o
-8 6 9 0.274 0.407 0.133 o
-7 0 2 14.700 14.461 0.357 o
-7 0 4 40.309 40.731 0.922 o
-7 0 6 257.025 263.077 5.679 o
-7 0 8 0.290 0.346 0.080 o
-7 0 10 1.342 1.439 0.138 o
-7 0 12 5.615 5.548 0.189 o
-7 0 14 10.484 10.968 0.317 o
-7 0 16 7.343 7.159 0.315 o
-7 0 18 7.602 7.287 0.309 o
-7 0 20 0.613 0.414 0.127 o
-7 0 24 8.003 7.235 0.702 o
-7 1 1 17.705 18.115 0.416 o
-7 1 2 87.546 88.152 1.955 o
-7 1 3 3.800 3.803 0.103 o
-7 1 4 0.370 0.399 0.038 o
-7 1 5 2.247 2.241 0.074 o
-7 1 6 19.383 19.138 0.440 o
-7 1 7 52.793 51.611 1.152 o
-7 1 9 10.349 10.655 0.274 o
-7 1 10 29.702 29.815 0.691 o
-7 1 11 46.861 46.592 1.044 o
-7 1 12 2.944 2.799 0.179 o
-7 1 13 9.470 9.421 0.261 o
-7 1 14 15.123 15.583 0.379 o
-7 1 15 13.596 13.775 0.341 o
-7 1 16 5.744 5.743 0.179 o
-7 1 17 22.439 22.585 0.536 o
-7 1 19 26.703 26.374 0.631 o
-7 1 20 4.409 4.642 0.182 o
-7 1 21 3.004 3.196 0.173 o
-7 1 22 1.395 1.313 0.164 o
-7 1 23 0.989 1.237 0.148 o
-7 1 24 0.764 0.869 0.145 o
-7 1 25 7.711 7.666 0.338 o
-7 2 2 0.317 0.215 0.061 o
-7 2 3 23.121 22.697 0.515 o
-7 2 4 3.372 3.390 0.097 o
-7 2 5 9.872 9.984 0.239 o
-7 2 6 2.135 2.186 0.079 o
-7 2 7 19.567 19.603 0.454 o
-7 2 8 16.676 16.726 0.393 o
-7 2 9 17.168 16.931 0.418 o
-7 2 10 78.873 78.022 1.751 o
-7 2 11 22.440 22.846 0.535 o
-7 2 12 8.022 8.181 0.251 o
-7 2 13 5.105 5.177 0.166 o
-7 2 14 3.497 3.355 0.135 o
-7 2 15 41.390 40.931 0.920 o
-7 2 16 12.239 12.605 0.321 o
-7 2 17 2.072 1.994 0.116 o
-7 2 18 4.719 4.816 0.168 o
-7 2 20 23.284 23.886 0.582 o
-7 2 21 12.264 12.353 0.344 o
-7 2 22 4.615 4.505 0.190 o
-7 2 23 3.929 4.284 0.231 o
-7 2 24 4.838 4.648 0.204 o
-7 3 1 2.027 2.052 0.076 o
-7 3 2 1.907 1.884 0.075 o
-7 3 3 2.097 2.112 0.076 o
-7 3 4 76.277 76.864 1.702 o
-7 3 5 34.748 34.932 0.800 o
-7 3 6 16.203 15.994 0.381 o
-7 3 9 9.715 9.647 0.251 o
-7 3 10 11.195 11.231 0.299 o
-7 3 12 1.019 0.959 0.085 o
-7 3 13 7.568 7.648 0.248 o
-7 3 14 22.746 22.736 0.549 o
-7 3 15 4.856 4.937 0.280 o
-7 3 16 22.539 22.259 0.554 o
-7 3 18 9.986 9.890 0.323 o
-7 3 20 2.628 2.497 0.172 o
-7 3 21 2.759 2.774 0.170 o
-7 3 22 2.861 2.655 0.215 o
-7 4 1 21.148 21.109 0.497 o
-7 4 2 6.574 6.725 0.203 o
-7 4 3 0.664 0.655 0.078 o
-7 4 4 2.176 2.215 0.093 o
-7 4 5 23.157 22.969 0.539 o
-7 4 6 4.276 4.370 0.142 o
-7 4 7 4.636 4.623 0.159 o
-7 4 8 26.154 26.473 0.610 o
-7 4 9 5.562 5.716 0.181 o
-7 4 10 0.238 0.283 0.084 o
-7 4 11 14.206 13.979 0.364 o
-7 4 12 3.473 3.684 0.186 o
-7 4 14 3.224 3.149 0.138 o
-7 4 15 12.467 12.200 0.329 o
-7 4 16 9.540 9.853 0.306 o
-7 4 17 3.674 3.629 0.158 o
-7 4 19 0.749 0.772 0.199 o
-7 4 21 7.826 7.904 0.445 o
-7 5 1 3.890 3.953 0.154 o
-7 5 2 19.180 19.306 0.476 o
-7 5 3 3.570 3.427 0.195 o
-7 5 4 1.740 1.836 0.114 o
-7 5 5 0.940 0.958 0.103 o
-7 5 6 7.742 7.806 0.296 o
-7 5 7 0.591 0.729 0.102 o
-7 5 10 5.385 5.614 0.208 o
-7 5 11 9.255 9.069 0.280 o
-7 5 12 24.474 24.363 0.592 o
-7 5 14 1.147 1.033 0.122 o
-7 5 17 2.463 2.286 0.143 o
-7 5 18 3.593 3.741 0.319 o
-7 6 1 15.831 16.103 0.422 o
-7 6 2 3.025 3.285 0.163 o
-7 6 5 1.164 0.535 0.136 o
-7 6 6 6.040 6.208 0.253 o
-7 6 7 2.331 2.425 0.155 o
-7 6 8 4.181 4.286 0.188 o
-7 6 9 2.061 1.827 0.144 o
-7 6 10 0.383 0.494 0.136 o
-7 6 11 1.762 1.375 0.153 o
-6 0 2 182.670 182.104 3.923 o
-6 0 4 3.183 2.561 0.201 o
-6 0 6 165.555 168.613 3.571 o
-6 0 8 0.973 0.985 0.215 o
-6 0 10 293.813 294.881 6.355 o
-6 0 14 25.630 25.767 0.602 o
-6 0 16 129.688 130.366 2.893 o
-6 0 18 15.310 15.404 0.425 o
-6 0 20 9.973 10.172 0.369 o
-6 0 22 2.660 3.385 0.499 o
-6 0 24 12.698 12.054 0.580 o
-6 0 26 4.685 4.706 0.507 o
-6 1 1 1.284 1.534 0.130 o
-6 1 2 6.843 6.789 0.346 o
-6 1 3 1.066 0.973 0.199 o
-6 1 4 31.855 32.239 0.828 o
-6 1 5 96.989 97.961 2.205 o
-6 1 6 154.745 153.848 3.353 o
-6 1 7 2.725 2.721 0.151 o
-6 1 8 3.139 3.371 0.135 o
-6 1 9 44.769 44.914 1.007 o
-6 1 10 50.683 51.370 1.137 o
-6 1 11 4.161 4.165 0.123 o
-6 1 12 42.546 42.373 0.946 o
-6 1 13 4.903 4.925 0.142 o
-6 1 14 22.311 21.815 0.503 o
-6 1 15 3.570 3.638 0.123 o
-6 1 16 0.664 0.649 0.077 o
-6 1 17 1.068 1.024 0.070 o
-6 1 18 0.700 0.457 0.066 o
-6 1 19 11.982 11.918 0.309 o
-6 1 20 27.718 27.839 0.647 o
-6 1 21 13.013 12.808 0.335 o
-6 1 22 1.407 1.330 0.176 o
-6 1 23 2.188 1.785 0.165 o
-6 1 25 1.313 0.887 0.123 o
-6 2 1 71.593 72.537 1.596 o
-6 2 2 39.820 39.933 0.894 o
-6 2 3 61.198 61.619 1.363 o
-6 2 4 5.424 5.422 0.149 o
-6 2 5 4.419 4.478 0.122 o
-6 2 6 1.077 1.096 0.071 o
-6 2 7 0.196 0.173 0.048 o
-6 2 8 13.428 13.476 0.320 o
-6 2 9 31.897 31.790 0.718 o
-6 2 10 9.913 9.801 0.249 o
-6 2 12 9.224 9.287 0.247 o
-6 2 13 0.235 0.282 0.056 o
-6 2 14 6.387 6.477 0.176 o
-6 2 15 2.880 2.932 0.102 o
-6 2 16 0.350 0.374 0.062 o
-6 2 17 9.377 9.362 0.259 o
-6 2 18 19.375 19.138 0.469 o
-6 2 19 2.612 2.628 0.146 o
-6 2 20 20.854 20.766 0.509 o
-6 2 21 1.649 1.565 0.110 o
-6 2 23 0.554 0.509 0.096 o
-6 2 25 12.449 11.555 0.580 o
-6 3 1 12.937 12.711 0.302 o
-6 3 2 11.708 11.511 0.274 o
-6 3 3 1.376 1.292 0.056 o
-6 3 4 4.432 4.493 0.135 o
-6 3 5 0.703 0.722 0.055 o
-6 3 6 6.099 6.197 0.169 o
-6 3 7 7.607 7.518 0.195 o
-6 3 8 40.373 40.450 0.904 o
-6 3 9 32.009 32.537 0.733 o
-6 3 10 0.532 0.703 0.081 o
-6 3 11 4.396 4.498 0.157 o
-6 3 13 6.469 6.505 0.195 o
-6 3 14 55.341 55.159 1.322 o
-6 3 15 12.452 12.852 0.326 o
-6 3 16 1.813 1.623 0.098 o
-6 3 17 0.670 0.756 0.095 o
-6 3 18 8.410 8.554 0.243 o
-6 3 19 15.257 16.051 0.423 o
-6 3 20 0.983 1.048 0.124 o
-6 3 22 4.931 4.686 0.230 o
-6 3 23 0.980 0.827 0.111 o
-6 4 1 7.782 7.657 0.206 o
-6 4 3 7.265 6.995 0.198 o
-6 4 4 42.666 42.810 0.975 o
-6 4 5 39.207 39.519 0.884 o
-6 4 6 1.910 1.849 0.078 o
-6 4 8 6.822 6.850 0.196 o
-6 4 10 1.796 1.776 0.114 o
-6 4 11 6.501 6.188 0.195 o
-6 4 12 11.513 11.609 0.311 o
-6 4 13 13.781 13.996 0.365 o
-6 4 14 13.641 13.371 0.354 o
-6 4 15 22.606 22.416 0.549 o
-6 4 16 0.533 0.590 0.109 o
-6 4 18 6.552 6.294 0.262 o
-6 4 19 1.005 0.901 0.135 o
-6 4 21 1.369 1.542 0.156 o
-6 5 2 0.686 0.667 0.099 o
-6 5 3 1.253 1.054 0.098 o
-6 5 4 36.645 36.509 0.866 o
-6 5 6 6.795 6.828 0.202 o
-6 5 7 2.738 2.700 0.137 o
-6 5 8 16.044 16.796 0.440 o
-6 5 9 1.429 1.324 0.126 o
-6 5 10 14.872 14.533 0.382 o
-6 5 11 0.528 0.599 0.096 o
-6 5 12 0.231 0.277 0.086 o
-6 5 13 0.593 0.400 0.086 o
-6 5 14 2.338 2.239 0.134 o
-6 5 15 1.416 1.125 0.161 o
-6 5 16 7.801 7.994 0.262 o
-6 5 18 1.495 1.679 0.144 o
-6 6 1 1.764 1.395 0.113 o
-6 6 2 4.223 4.198 0.157 o
-6 6 4 3.050 2.739 0.135 o
-6 6 5 9.127 9.847 0.296 o
-6 6 6 0.971 0.745 0.152 o
-6 6 7 0.823 0.676 0.093 o
-6 6 8 0.479 0.371 0.080 o
-6 6 10 5.065 4.888 0.222 o
-6 6 11 9.862 10.297 0.324 o
-6 6 12 4.292 4.417 0.198 o
-6 6 13 0.718 0.829 0.122 o
-6 6 14 0.864 1.044 0.132 o
-6 6 15 3.533 3.177 0.471 o
-6 7 1 5.669 5.842 0.332 o
-6 7 4 0.451 0.647 0.147 o
-6 7 5 0.455 0.655 0.149 o
-5 0 2 91.113 91.449 2.051 o
-5 0 4 18.901 18.263 0.663 o
-5 0 6 117.617 117.730 2.597 o
-5 0 8 290.537 290.117 7.585 o
-5 0 10 102.063 103.400 2.376 o
-5 0 12 44.405 44.953 1.030 o
-5 0 14 0.643 0.728 0.069 o
-5 0 18 26.940 26.546 0.625 o
-5 0 20 100.191 101.589 2.195 o
-5 0 26 14.147 14.920 0.887 o
-5 1 1 56.845 57.700 1.374 o
-5 1 2 255.282 257.489 5.573 o
-5 1 3 50.488 50.856 1.211 o
-5 1 4 94.471 94.397 2.116 o
-5 1 5 30.715 30.974 0.751 o
-5 1 6 3.926 3.869 0.221 o
-5 1 7 1.036 1.270 0.129 o
-5 1 8 17.198 16.992 0.639 o
-5 1 9 270.988 275.066 5.927 o
-5 1 10 26.376 25.917 0.651 o
-5 1 11 0.161 0.161 0.050 o
-5 1 12 25.250 25.053 0.565 o
-5 1 13 9.390 9.121 0.245 o
-5 1 14 26.321 25.936 0.591 o
-5 1 15 39.749 39.885 0.889 o
-5 1 16 54.739 55.649 1.229 o
-5 1 17 16.350 16.302 0.386 o
-5 1 18 0.533 0.367 0.092 o
-5 1 19 41.344 41.351 0.931 o
-5 1 20 0.589 0.309 0.077 o
-5 1 21 0.962 0.733 0.109 o
-5 1 22 1.420 1.338 0.102 o
-5 1 24 16.174 15.844 0.418 o
-5 1 25 1.047 1.059 0.161 o
-5 1 26 2.871 2.911 0.158 o
-5 2 1 9.354 9.120 0.329 o
-5 2 2 0.531 0.560 0.128 o
-5 2 3 4.553 4.232 0.303 o
-5 2 4 29.018 28.929 0.758 o
-5 2 5 178.693 182.638 4.046 o
-5 2 6 81.732 81.801 1.863 o
-5 2 7 21.660 21.260 0.611 o
-5 2 8 1.882 1.920 0.102 o
-5 2 9 0.177 0.273 0.050 o
-5 2 11 40.177 40.700 0.919 o
-5 2 12 24.253 23.948 0.543 o
-5 2 13 73.525 73.943 1.634 o
-5 2 14 0.667 0.650 0.084 o
-5 2 15 12.267 12.085 0.294 o
-5 2 16 3.342 3.312 0.116 o
-5 2 17 7.735 7.648 0.249 o
-5 2 18 4.913 4.801 0.154 o
-5 2 19 11.259 11.070 0.290 o
-5 2 22 9.881 9.774 0.282 o
-5 2 23 7.558 7.410 0.243 o
-5 2 24 1.682 1.709 0.174 o
-5 3 1 20.201 20.300 0.463 o
-5 3 3 6.252 6.080 0.155 o
-5 3 4 11.547 11.550 0.275 o
-5 3 5 3.645 3.675 0.112 o
-5 3 6 4.681 4.722 0.141 o
-5 3 7 15.990 16.195 0.375 o
-5 3 8 2.262 2.188 0.078 o
-5 3 10 6.410 6.313 0.171 o
-5 3 11 0.517 0.636 0.057 o
-5 3 12 0.723 0.776 0.079 o
-5 3 14 0.872 0.868 0.086 o
-5 3 15 2.330 2.286 0.108 o
-5 3 18 12.780 12.586 0.328 o
-5 3 19 6.061 6.049 0.194 o
-5 3 21 0.880 0.581 0.107 o
-5 3 23 3.805 4.041 0.171 o
-5 3 24 9.054 8.371 0.396 o
-5 4 1 3.227 3.148 0.097 o
-5 4 3 23.692 23.940 0.547 o
-5 4 4 23.939 23.842 0.545 o
-5 4 5 13.619 13.906 0.342 o
-5 4 7 1.139 1.138 0.062 o
-5 4 8 25.223 25.667 0.589 o
-5 4 10 23.568 23.333 0.553 o
-5 4 11 0.307 0.335 0.068 o
-5 4 12 1.917 1.911 0.096 o
-5 4 13 14.971 14.646 0.397 o
-5 4 14 7.149 7.204 0.215 o
-5 4 15 13.268 13.148 0.339 o
-5 4 17 2.396 2.442 0.129 o
-5 4 18 16.356 16.602 0.423 o
-5 4 19 0.462 0.563 0.102 o
-5 4 22 2.654 2.306 0.197 o
-5 5 1 2.651 2.398 0.128 o
-5 5 2 4.202 4.306 0.145 o
-5 5 3 3.193 3.318 0.125 o
-5 5 4 64.588 65.545 1.442 o
-5 5 6 8.843 8.412 0.251 o
-5 5 7 2.506 2.505 0.151 o
-5 5 8 5.979 6.062 0.197 o
-5 5 9 2.781 2.765 0.128 o
-5 5 10 3.392 3.283 0.170 o
-5 5 12 11.530 11.587 0.363 o
-5 5 13 4.237 4.323 0.165 o
-5 5 14 48.371 49.379 1.113 o
-5 5 16 0.789 0.870 0.136 o
-5 5 18 1.436 1.488 0.158 o
-5 5 19 1.065 0.823 0.173 o
-5 6 2 0.343 0.510 0.148 o
-5 6 3 19.325 18.742 0.593 o
-5 6 4 2.749 2.689 0.145 o
-5 6 5 1.492 1.569 0.127 o
-5 6 6 0.909 0.721 0.104 o
-5 6 7 1.778 1.869 0.128 o
-5 6 8 11.397 11.373 0.314 o
-5 6 9 2.430 2.338 0.209 o
-5 6 10 9.357 9.152 0.285 o
-5 6 11 0.724 0.871 0.132 o
-5 6 13 1.541 1.443 0.147 o
-5 6 15 4.066 4.389 0.219 o
-5 7 2 0.882 0.728 0.111 o
-5 7 3 0.595 0.740 0.111 o
-5 7 7 2.344 2.546 0.150 o
-5 7 9 2.203 2.014 0.214 o
-4 0 2 979.193 941.735 21.607 o
-4 0 4 125.144 124.639 2.714 o
-4 0 6 46.496 46.572 1.126 o
-4 0 8 581.468 581.150 12.575 o
-4 0 10 1.453 1.552 0.305 o
-4 0 12 245.172 246.649 5.119 o
-4 0 14 1.781 1.671 0.080 o
-4 0 16 56.367 57.447 1.259 o
-4 0 18 133.491 134.843 2.908 o
-4 0 22 1.340 1.376 0.136 o
-4 0 24 1.930 1.999 0.387 o
-4 0 26 11.648 11.367 0.485 o
-4 1 1 93.596 92.727 2.205 o
-4 1 2 57.959 57.572 1.385 o
-4 1 3 1.675 1.633 0.097 o
-4 1 4 33.003 34.575 0.799 o
-4 1 6 180.491 182.043 3.970 o
-4 1 7 89.146 89.459 2.000 o
-4 1 8 180.654 177.559 3.886 o
-4 1 9 46.259 46.472 1.238 o
-4 1 11 1.759 1.446 0.168 o
-4 1 12 82.062 83.269 1.833 o
-4 1 13 15.713 15.705 0.364 o
-4 1 14 16.940 16.473 0.382 o
-4 1 16 22.089 21.884 0.518 o
-4 1 17 4.597 4.768 0.145 o
-4 1 18 1.038 0.943 0.078 o
-4 1 19 53.388 54.239 1.214 o
-4 1 20 12.096 11.713 0.317 o
-4 1 21 1.585 1.488 0.100 o
-4 1 22 22.383 22.789 0.557 o
-4 1 23 9.471 9.564 0.351 o
-4 1 24 2.768 2.659 0.176 o
-4 1 25 4.525 4.579 0.195 o
-4 1 26 2.477 2.193 0.143 o
-4 2 1 54.238 54.171 1.294 o
-4 2 2 13.337 13.191 0.371 o
-4 2 3 79.374 80.494 1.876 o
-4 2 4 62.380 62.953 1.438 o
-4 2 5 6.029 6.065 0.224 o
-4 2 6 5.866 5.766 0.208 o
-4 2 7 6.784 7.028 0.281 o
-4 2 8 83.949 85.375 2.151 o
-4 2 9 14.537 14.055 0.481 o
-4 2 10 30.753 31.801 0.740 o
-4 2 11 7.716 7.831 0.194 o
-4 2 12 0.741 0.758 0.045 o
-4 2 13 3.318 3.469 0.107 o
-4 2 14 22.460 22.533 0.521 o
-4 2 15 34.921 34.849 0.791 o
-4 2 16 10.161 10.185 0.283 o
-4 2 17 7.498 7.563 0.211 o
-4 2 18 7.889 7.565 0.230 o
-4 2 19 6.127 6.476 0.195 o
-4 2 21 4.483 4.479 0.157 o
-4 2 22 3.944 4.138 0.182 o
-4 2 23 18.954 18.475 0.559 o
-4 2 24 2.466 2.348 0.131 o
-4 2 25 3.191 3.497 0.173 o
-4 3 1 5.055 4.823 0.292 o
-4 3 2 13.868 13.107 0.465 o
-4 3 3 22.621 22.044 0.663 o
-4 3 4 243.811 246.409 5.544 o
-4 3 5 29.264 29.206 0.721 o
-4 3 6 8.442 8.072 0.245 o
-4 3 7 5.445 5.279 0.147 o
-4 3 8 0.256 0.236 0.038 o
-4 3 9 36.879 37.076 0.830 o
-4 3 10 63.873 64.497 1.421 o
-4 3 11 20.761 20.420 0.473 o
-4 3 12 12.439 12.396 0.299 o
-4 3 13 1.021 0.909 0.064 o
-4 3 14 31.877 32.248 0.764 o
-4 3 15 5.704 5.792 0.171 o
-4 3 16 3.929 3.835 0.165 o
-4 3 17 14.528 14.552 0.360 o
-4 3 18 2.547 2.317 0.109 o
-4 3 20 6.080 5.894 0.188 o
-4 3 21 1.530 1.641 0.106 o
-4 3 22 1.154 0.865 0.105 o
-4 4 1 0.175 0.205 0.053 o
-4 4 2 5.096 5.017 0.136 o
-4 4 3 60.577 60.759 1.348 o
-4 4 4 0.858 1.021 0.059 o
-4 4 5 11.365 11.411 0.283 o
-4 4 6 28.744 28.491 0.649 o
-4 4 7 9.497 9.577 0.243 o
-4 4 8 4.354 4.401 0.135 o
-4 4 9 2.151 2.183 0.170 o
-4 4 10 2.927 2.834 0.101 o
-4 4 12 0.335 0.395 0.076 o
-4 4 13 28.215 28.485 0.668 o
-4 4 14 22.407 22.364 0.529 o
-4 4 15 0.860 0.777 0.079 o
-4 4 16 1.841 1.735 0.100 o
-4 4 17 4.664 4.883 0.180 o
-4 4 18 2.177 1.936 0.249 o
-4 4 20 4.535 4.622 0.186 o
-4 4 22 2.800 2.841 0.157 o
-4 5 2 22.195 21.878 0.516 o
-4 5 3 2.338 2.374 0.094 o
-4 5 4 0.544 0.524 0.064 o
-4 5 6 5.314 5.252 0.173 o
-4 5 8 8.041 7.753 0.229 o
-4 5 10 12.352 12.213 0.329 o
-4 5 11 1.314 1.323 0.094 o
-4 5 12 7.724 7.322 0.263 o
-4 5 13 0.553 0.530 0.099 o
-4 5 14 13.223 13.242 0.378 o
-4 5 17 1.674 1.716 0.157 o
-4 5 18 11.855 11.619 0.353 o
-4 5 19 0.435 0.534 0.129 o
-4 6 2 4.705 4.830 0.237 o
-4 6 3 12.971 13.023 0.347 o
-4 6 4 3.444 3.445 0.154 o
-4 6 5 5.667 5.389 0.210 o
-4 6 6 1.688 1.495 0.113 o
-4 6 7 9.182 9.347 0.312 o
-4 6 8 1.382 1.348 0.125 o
-4 6 11 0.589 0.551 0.144 o
-4 6 12 4.271 4.297 0.250 o
-4 6 13 19.667 19.733 0.551 o
-4 6 14 4.846 4.655 0.206 o
-4 6 16 1.052 0.932 0.145 o
-4 7 2 4.535 4.381 0.237 o
-4 7 3 4.811 4.786 0.245 o
-4 7 4 2.686 2.918 0.203 o
-4 7 6 0.866 0.711 0.117 o
-4 7 7 2.786 2.898 0.170 o
-4 7 8 2.009 1.787 0.293 o
-4 7 9 7.378 7.483 0.282 o
-3 0 2 14.432 14.751 0.429 o
-3 0 4 92.067 89.590 2.112 o
-3 0 6 11.985 12.077 0.345 o
-3 0 8 23.091 22.637 0.598 o
-3 0 10 4.233 3.428 0.308 o
-3 0 12 146.235 145.568 3.263 o
-3 0 14 18.469 17.202 0.427 o
-3 0 16 13.726 13.741 0.354 o
-3 0 18 33.532 34.177 0.885 o
-3 0 20 9.850 9.428 0.365 o
-3 0 22 97.748 98.381 2.443 o
-3 0 26 4.503 5.197 0.346 o
-3 1 1 331.255 323.702 7.030 o
-3 1 2 34.083 34.132 0.785 o
-3 1 3 162.766 163.211 3.610 o
-3 1 4 236.230 233.584 5.104 o
-3 1 5 212.508 215.293 4.804 o
-3 1 6 0.403 0.569 0.079 o
-3 1 7 348.270 351.363 7.611 o
-3 1 8 8.852 8.618 0.278 o
-3 1 9 62.364 61.504 1.463 o
-3 1 10 3.329 3.720 0.332 o
-3 1 11 161.443 164.346 3.603 o
-3 1 12 53.799 55.271 1.350 o
-3 1 13 0.742 0.795 0.049 o
-3 1 14 0.286 0.210 0.039 o
-3 1 15 0.087 0.194 0.054 o
-3 1 16 31.570 32.300 0.731 o
-3 1 17 59.763 60.565 1.335 o
-3 1 18 38.794 39.158 0.904 o
-3 1 20 2.089 2.067 0.103 o
-3 1 21 8.192 8.130 0.253 o
-3 1 22 2.217 2.003 0.119 o
-3 1 23 1.971 1.966 0.115 o
-3 1 24 0.219 0.475 0.103 o
-3 1 25 1.287 1.109 0.143 o
-3 1 26 17.631 17.360 0.453 o
-3 2 1 84.597 85.435 1.895 o
-3 2 2 181.186 182.159 4.016 o
-3 2 3 300.562 302.095 6.545 o
-3 2 4 27.993 27.630 0.672 o
-3 2 5 2.857 2.656 0.151 o
-3 2 6 140.968 142.483 3.130 o
-3 2 7 169.583 171.715 3.862 o
-3 2 8 291.155 292.755 6.235 o
-3 2 9 51.334 52.475 1.386 o
-3 2 10 11.145 11.156 0.419 o
-3 2 11 23.181 23.767 0.567 o
-3 2 12 2.146 2.101 0.084 o
-3 2 13 53.336 54.100 1.205 o
-3 2 14 0.807 0.925 0.056 o
-3 2 15 28.498 28.358 0.646 o
-3 2 16 14.694 14.713 0.359 o
-3 2 17 1.047 0.913 0.104 o
-3 2 18 43.851 43.928 1.004 o
-3 2 19 0.387 0.407 0.124 o
-3 2 20 3.458 3.463 0.138 o
-3 2 21 11.107 10.858 0.293 o
-3 2 23 0.166 0.295 0.091 o
-3 2 24 2.855 2.750 0.160 o
-3 3 1 3.591 3.518 0.201 o
-3 3 2 255.520 257.252 5.579 o
-3 3 3 3.477 3.285 0.201 o
-3 3 4 46.080 46.071 1.151 o
-3 3 5 21.633 21.937 0.637 o
-3 3 7 4.096 4.100 0.148 o
-3 3 8 18.395 18.589 0.430 o
-3 3 9 4.860 4.795 0.133 o
-3 3 10 20.333 20.352 0.466 o
-3 3 11 1.373 1.350 0.084 o
-3 3 12 42.240 42.476 0.951 o
-3 3 13 9.414 9.375 0.231 o
-3 3 14 69.895 71.563 1.608 o
-3 3 15 1.578 1.654 0.072 o
-3 3 17 1.229 1.193 0.077 o
-3 3 18 3.628 3.580 0.133 o
-3 3 19 10.391 10.503 0.303 o
-3 3 20 4.268 4.107 0.218 o
-3 3 21 6.434 6.432 0.232 o
-3 3 22 10.531 9.797 0.285 o
-3 3 24 11.341 10.536 0.301 o
-3 4 1 20.935 21.351 0.489 o
-3 4 2 10.861 10.881 0.261 o
-3 4 3 58.710 59.704 1.325 o
-3 4 4 29.640 29.381 0.665 o
-3 4 5 0.446 0.426 0.048 o
-3 4 6 25.012 24.623 0.570 o
-3 4 7 16.588 16.720 0.403 o
-3 4 8 0.539 0.539 0.055 o
-3 4 9 0.547 0.586 0.070 o
-3 4 10 38.453 38.655 0.868 o
-3 4 11 3.903 3.764 0.134 o
-3 4 12 2.835 2.783 0.111 o
-3 4 13 32.065 32.914 0.761 o
-3 4 14 5.748 5.773 0.176 o
-3 4 16 4.068 4.068 0.147 o
-3 4 17 10.679 10.677 0.301 o
-3 4 18 4.199 4.358 0.173 o
-3 4 20 9.141 9.086 0.287 o
-3 4 21 0.695 0.676 0.114 o
-3 4 23 7.549 7.386 0.567 o
-3 5 1 0.181 0.237 0.072 o
-3 5 2 2.450 2.499 0.092 o
-3 5 3 4.367 4.368 0.137 o
-3 5 4 9.482 9.637 0.250 o
-3 5 5 1.093 1.049 0.110 o
-3 5 6 36.291 36.206 0.821 o
-3 5 7 3.980 4.041 0.140 o
-3 5 8 0.581 0.333 0.067 o
-3 5 9 4.365 4.296 0.142 o
-3 5 10 4.280 4.407 0.175 o
-3 5 11 1.350 1.095 0.118 o
-3 5 12 12.579 12.928 0.344 o
-3 5 14 1.618 1.764 0.126 o
-3 5 16 17.320 18.055 0.479 o
-3 5 17 1.021 0.828 0.125 o
-3 5 18 1.315 1.357 0.159 o
-3 5 20 2.577 2.363 0.177 o
-3 6 1 8.418 8.414 0.323 o
-3 6 2 1.825 1.804 0.207 o
-3 6 3 0.909 0.879 0.113 o
-3 6 4 1.211 1.222 0.097 o
-3 6 5 0.735 0.607 0.092 o
-3 6 6 0.866 0.643 0.110 o
-3 6 7 0.791 0.850 0.130 o
-3 6 9 4.110 3.962 0.171 o
-3 6 10 3.010 3.006 0.163 o
-3 6 12 3.706 3.540 0.196 o
-3 6 13 1.841 1.806 0.133 o
-3 6 17 7.065 7.275 0.304 o
-3 7 1 0.821 0.672 0.123 o
-3 7 2 5.450 5.214 0.230 o
-3 7 4 4.529 4.485 0.269 o
-3 7 5 1.825 1.688 0.177 o
-3 7 6 0.796 0.699 0.119 o
-2 0 2 627.327 597.449 12.303 o
-2 0 4 2063.715 1868.741 42.502 o
-2 0 6 169.051 169.771 3.638 o
-2 0 8 469.794 460.361 10.014 o
-2 0 10 188.374 188.226 4.079 o
-2 0 12 15.595 16.655 0.848 o
-2 0 14 57.129 58.180 1.254 o
-2 0 16 11.896 12.195 0.386 o
-2 0 18 5.014 5.056 0.198 o
-2 0 20 16.933 17.052 0.465 o
-2 0 22 4.559 4.555 0.201 o
-2 0 26 3.930 3.824 0.238 o
-2 1 1 187.044 189.455 4.147 o
-2 1 2 550.825 564.240 12.366 o
-2 1 3 21.071 20.759 0.495 o
-2 1 4 363.421 362.034 7.851 o
-2 1 5 20.581 21.201 0.517 o
-2 1 6 5.845 5.774 0.175 o
-2 1 7 34.782 33.917 0.828 o
-2 1 8 289.006 292.437 6.398 o
-2 1 9 23.637 22.654 0.607 o
-2 1 10 33.058 33.356 0.849 o
-2 1 11 82.688 83.605 1.983 o
-2 1 12 9.182 9.083 0.437 o
-2 1 13 32.701 32.980 0.745 o
-2 1 14 18.753 18.683 0.433 o
-2 1 15 11.637 11.392 0.281 o
-2 1 16 1.013 0.978 0.104 o
-2 1 17 30.604 31.290 0.709 o
-2 1 18 8.508 8.493 0.229 o
-2 1 19 1.735 1.738 0.102 o
-2 1 20 0.992 1.051 0.110 o
-2 1 21 58.651 59.202 1.409 o
-2 1 22 11.229 11.311 0.326 o
-2 1 24 2.284 2.287 0.142 o
-2 1 25 0.535 0.576 0.097 o
-2 1 26 1.673 1.722 0.127 o
-2 2 1 151.861 155.077 3.385 o
-2 2 2 495.926 495.134 10.762 o
-2 2 3 9.936 10.201 0.304 o
-2 2 4 22.898 22.932 0.668 o
-2 2 5 3.531 3.565 0.151 o
-2 2 6 71.932 74.115 1.668 o
-2 2 7 34.860 34.665 0.894 o
-2 2 8 28.535 29.313 0.903 o
-2 2 9 16.960 16.731 0.656 o
-2 2 10 90.132 90.912 2.108 o
-2 2 11 13.942 13.949 0.412 o
-2 2 12 109.781 112.093 2.452 o
-2 2 13 30.819 30.885 0.706 o
-2 2 14 13.362 13.923 0.344 o
-2 2 15 2.158 1.969 0.089 o
-2 2 16 37.359 37.577 0.842 o
-2 2 17 55.824 56.571 1.281 o
-2 2 18 27.828 27.997 0.668 o
-2 2 19 8.252 7.752 0.248 o
-2 2 20 7.061 7.019 0.297 o
-2 2 21 0.593 0.531 0.095 o
-2 2 22 9.721 9.580 0.293 o
-2 2 23 10.769 10.617 0.308 o
-2 2 24 0.500 0.565 0.117 o
-2 2 25 15.262 14.829 0.390 o
-2 3 1 144.973 147.064 3.340 o
-2 3 2 68.337 69.170 1.619 o
-2 3 3 1.371 1.260 0.135 o
-2 3 4 9.417 9.298 0.346 o
-2 3 5 6.341 6.303 0.290 o
-2 3 6 370.463 373.054 7.938 o
-2 3 7 82.565 81.773 1.943 o
-2 3 8 26.127 26.008 0.603 o
-2 3 9 8.410 8.130 0.205 o
-2 3 10 22.484 22.610 0.514 o
-2 3 11 20.074 20.262 0.465 o
-2 3 12 84.570 86.556 1.915 o
-2 3 13 3.707 3.653 0.119 o
-2 3 14 4.969 5.185 0.162 o
-2 3 15 11.407 11.679 0.311 o
-2 3 16 32.884 33.226 0.769 o
-2 3 17 4.494 4.233 0.142 o
-2 3 18 9.369 9.459 0.264 o
-2 3 19 1.426 1.199 0.102 o
-2 3 20 15.468 15.394 0.401 o
-2 3 22 11.205 11.369 0.325 o
-2 3 23 1.262 1.158 0.109 o
-2 3 24 1.670 1.435 0.188 o
-2 4 1 17.104 17.113 0.393 o
-2 4 2 61.139 62.068 1.375 o
-2 4 3 33.312 32.888 0.743 o
-2 4 4 0.449 0.434 0.054 o
-2 4 5 34.777 34.549 0.774 o
-2 4 6 3.784 3.807 0.132 o
-2 4 7 37.390 37.631 0.846 o
-2 4 8 0.540 0.487 0.044 o
-2 4 9 0.314 0.315 0.052 o
-2 4 10 23.964 23.985 0.550 o
-2 4 11 17.923 17.973 0.430 o
-2 4 12 0.115 0.185 0.061 o
-2 4 13 10.719 10.817 0.286 o
-2 4 14 8.662 9.105 0.275 o
-2 4 15 10.340 10.605 0.284 o
-2 4 16 14.488 14.615 0.384 o
-2 4 17 11.055 10.928 0.294 o
-2 4 18 1.122 1.086 0.103 o
-2 4 19 0.278 0.328 0.102 o
-2 4 20 2.683 2.553 0.172 o
-2 4 21 2.295 2.254 0.185 o
-2 5 1 0.314 0.292 0.058 o
-2 5 2 15.900 15.849 0.371 o
-2 5 3 3.317 3.264 0.103 o
-2 5 4 3.522 3.474 0.109 o
-2 5 5 4.189 4.113 0.130 o
-2 5 7 0.256 0.267 0.088 o
-2 5 8 1.208 1.025 0.082 o
-2 5 9 0.974 0.941 0.089 o
-2 5 10 3.148 3.027 0.130 o
-2 5 11 0.570 0.508 0.096 o
-2 5 12 0.927 0.944 0.102 o
-2 5 13 5.681 5.467 0.187 o
-2 5 14 2.436 2.425 0.137 o
-2 5 16 13.306 13.537 0.384 o
-2 5 17 0.624 0.495 0.094 o
-2 5 19 1.470 1.597 0.157 o
-2 5 20 4.917 5.176 0.223 o
-2 6 1 0.602 0.586 0.077 o
-2 6 3 15.519 15.702 0.385 o
-2 6 5 8.918 8.901 0.267 o
-2 6 7 3.581 3.587 0.227 o
-2 6 8 1.930 1.892 0.111 o
-2 6 9 2.884 2.718 0.134 o
-2 6 11 6.160 6.080 0.203 o
-2 6 12 0.438 0.670 0.109 o
-2 6 14 1.534 1.579 0.125 o
-2 6 15 5.761 5.575 0.213 o
-2 6 16 0.620 0.633 0.116 o
-2 7 1 5.896 6.277 0.253 o
-2 7 4 1.419 1.469 0.161 o
-2 7 6 3.242 3.140 0.212 o
-2 7 7 4.460 4.632 0.201 o
-2 7 8 3.671 3.710 0.212 o
-2 7 9 0.403 0.428 0.113 o
-2 7 10 1.437 1.709 0.123 o
-2 7 11 3.064 3.017 0.160 o
-2 7 12 0.912 1.281 0.326 o
-1 0 2 765.710 745.798 16.271 o
-1 0 4 876.451 836.480 17.823 o
-1 0 6 207.276 198.544 4.417 o
-1 0 8 509.359 499.201 11.574 o
-1 0 10 2.606 2.867 0.461 o
-1 0 12 111.954 115.473 2.849 o
-1 0 14 50.123 49.981 1.146 o
-1 0 16 22.155 22.509 0.556 o
-1 0 18 60.915 61.208 1.305 o
-1 0 20 43.927 44.021 0.987 o
-1 0 24 22.246 22.208 0.931 o
-1 0 26 6.438 6.229 0.303 o
-1 1 1 2950.508 2705.177 60.363 o
-1 1 2 150.151 157.830 3.443 o
-1 1 3 340.065 348.147 7.592 o
-1 1 4 244.922 255.235 5.631 o
-1 1 5 1.023 1.014 0.079 o
-1 1 6 0.502 0.561 0.084 o
-1 1 7 427.298 424.532 9.223 o
-1 1 8 96.923 95.114 2.161 o
-1 1 9 170.442 174.835 3.851 o
-1 1 11 74.434 73.783 1.756 o
-1 1 12 85.988 88.890 2.084 o
-1 1 13 5.856 5.857 0.195 o
-1 1 14 45.856 46.327 1.032 o
-1 1 15 10.442 10.468 0.260 o
-1 1 16 6.583 6.493 0.192 o
-1 1 17 1.710 1.642 0.089 o
-1 1 18 14.992 15.553 0.387 o
-1 1 19 9.826 9.656 0.259 o
-1 1 20 2.829 2.582 0.129 o
-1 1 21 13.912 14.104 0.400 o
-1 1 22 12.563 12.430 0.382 o
-1 1 23 1.665 1.914 0.159 o
-1 1 24 0.622 0.500 0.113 o
-1 1 25 1.401 1.644 0.130 o
-1 2 1 145.243 144.060 3.239 o
-1 2 2 8.484 8.402 0.233 o
-1 2 3 177.083 177.021 3.990 o
-1 2 4 234.826 232.825 5.197 o
-1 2 5 495.498 500.473 10.718 o
-1 2 6 19.154 18.702 0.514 o
-1 2 7 1.326 1.264 0.121 o
-1 2 8 47.078 45.872 1.127 o
-1 2 9 7.715 7.513 0.290 o
-1 2 10 186.664 191.170 4.232 o
-1 2 11 72.789 74.926 1.686 o
-1 2 12 34.041 34.628 0.790 o
-1 2 13 12.986 12.456 0.308 o
-1 2 14 1.271 1.200 0.106 o
-1 2 15 12.337 12.253 0.344 o
-1 2 18 5.606 5.220 0.194 o
-1 2 19 4.161 4.207 0.165 o
-1 2 20 49.067 50.423 1.125 o
-1 2 21 1.067 0.852 0.134 o
-1 2 22 19.318 19.290 0.494 o
-1 2 24 0.380 0.368 0.114 o
-1 3 2 32.702 33.976 0.837 o
-1 3 3 13.780 13.649 0.405 o
-1 3 4 55.801 56.959 1.543 o
-1 3 5 0.746 0.674 0.130 o
-1 3 6 106.897 108.442 2.744 o
-1 3 7 1.742 1.587 0.189 o
-1 3 8 6.458 7.124 0.318 o
-1 3 9 1.079 1.008 0.065 o
-1 3 10 32.214 32.419 0.740 o
-1 3 11 42.358 41.741 0.929 o
-1 3 12 0.206 0.193 0.051 o
-1 3 13 1.114 1.233 0.119 o
-1 3 14 26.593 26.869 0.617 o
-1 3 15 5.967 6.019 0.185 o
-1 3 16 115.732 116.799 2.509 o
-1 3 17 11.729 11.695 0.319 o
-1 3 18 1.161 1.175 0.106 o
-1 3 19 4.091 4.197 0.224 o
-1 3 21 12.977 13.423 0.367 o
-1 3 22 5.375 5.290 0.200 o
-1 3 23 2.173 2.181 0.136 o
-1 3 24 13.664 13.823 0.378 o
-1 4 1 6.145 6.088 0.157 o
-1 4 2 9.738 9.686 0.231 o
-1 4 4 0.393 0.362 0.040 o
-1 4 5 61.205 62.320 1.390 o
-1 4 6 83.025 83.365 1.834 o
-1 4 7 29.175 29.258 0.663 o
-1 4 8 7.562 7.543 0.192 o
-1 4 9 1.303 1.211 0.061 o
-1 4 11 2.923 2.833 0.104 o
-1 4 12 20.547 21.021 0.490 o
-1 4 13 0.304 0.307 0.084 o
-1 4 14 3.448 3.325 0.145 o
-1 4 15 38.118 38.466 0.899 o
-1 4 16 4.188 4.042 0.176 o
-1 4 17 10.497 9.766 0.300 o
-1 4 19 0.608 0.569 0.112 o
-1 4 20 9.956 10.230 0.314 o
-1 4 21 2.459 2.529 0.152 o
-1 4 22 1.186 0.962 0.125 o
-1 5 1 9.997 10.213 0.284 o
-1 5 2 71.303 72.050 1.592 o
-1 5 3 1.146 1.243 0.079 o
-1 5 4 4.898 4.955 0.143 o
-1 5 5 0.195 0.250 0.051 o
-1 5 6 32.095 32.184 0.737 o
-1 5 7 0.974 0.868 0.095 o
-1 5 8 0.760 0.653 0.071 o
-1 5 9 6.820 6.800 0.202 o
-1 5 10 14.609 14.530 0.370 o
-1 5 11 1.544 1.484 0.095 o
-1 5 12 13.820 13.990 0.365 o
-1 5 14 1.826 1.885 0.109 o
-1 5 15 1.139 1.085 0.099 o
-1 5 17 0.468 0.329 0.087 o
-1 5 19 0.373 0.482 0.120 o
-1 6 1 2.248 2.308 0.110 o
-1 6 2 6.636 6.801 0.220 o
-1 6 4 1.752 1.886 0.097 o
-1 6 5 0.810 0.871 0.077 o
-1 6 6 8.884 9.013 0.278 o
-1 6 7 9.015 9.357 0.265 o
-1 6 8 2.563 2.422 0.120 o
-1 6 10 0.507 0.501 0.089 o
-1 6 13 3.243 3.220 0.156 o
-1 6 15 5.230 5.750 0.202 o
-1 6 16 0.589 0.461 0.100 o
-1 6 17 2.179 1.758 0.225 o
-1 7 1 1.471 1.510 0.111 o
-1 7 3 3.315 3.311 0.163 o
-1 7 4 3.352 3.417 0.260 o
-1 7 6 3.908 3.650 0.290 o
-1 7 8 0.396 0.409 0.098 o
-1 7 11 4.420 4.848 0.189 o
0 0 2 150.612 149.766 3.386 o
0 0 4 72.078 71.981 1.641 o
0 0 6 1027.601 998.310 21.366 o
0 0 8 291.122 292.776 6.380 o
0 0 10 403.940 407.548 8.416 o
0 0 12 13.096 13.021 0.632 o
0 0 14 52.260 53.670 1.218 o
0 0 16 10.569 11.085 0.325 o
0 0 18 0.577 0.478 0.132 o
0 0 20 10.426 10.600 0.339 o
0 0 22 16.552 16.378 0.897 o
0 0 24 1.345 1.521 0.219 o
0 1 1 461.081 470.690 10.511 o
0 1 2 91.650 93.049 2.032 o
0 1 3 19.308 18.469 0.440 o
0 1 4 1553.583 1465.307 32.222 o
0 1 5 70.266 70.762 1.638 o
0 1 6 317.466 310.983 6.792 o
0 1 7 36.754 35.710 0.858 o
0 1 8 28.925 27.493 0.689 o
0 1 9 37.010 37.601 0.923 o
0 1 10 148.857 149.510 3.326 o
0 1 11 205.591 214.236 4.666 o
0 1 13 26.594 26.614 0.628 o
0 1 14 8.842 9.041 0.246 o
0 1 15 3.730 3.776 0.150 o
0 1 16 3.547 3.420 0.155 o
0 1 17 20.098 20.346 0.507 o
0 1 18 25.775 26.068 0.675 o
0 1 19 51.013 51.617 1.140 o
0 1 20 3.078 3.007 0.147 o
0 1 21 16.356 17.081 0.439 o
0 1 22 4.259 4.059 0.273 o
0 1 23 10.931 11.020 0.331 o
0 1 24 4.191 4.458 0.181 o
0 1 25 1.002 0.932 0.106 o
0 2 0 14.175 14.150 0.379 o
0 2 1 76.210 77.342 1.733 o
0 2 2 134.679 133.741 2.926 o
0 2 4 187.134 189.246 4.324 o
0 2 5 48.883 49.912 1.152 o
0 2 6 5.466 5.797 0.228 o
0 2 7 140.257 140.207 3.117 o
0 2 9 55.733 55.167 1.472 o
0 2 10 26.585 26.183 0.750 o
0 2 11 1.328 1.346 0.077 o
0 2 12 16.988 16.780 0.400 o
0 2 13 10.269 10.173 0.262 o
0 2 14 58.094 58.101 1.286 o
0 2 15 97.590 99.281 2.146 o
0 2 16 2.741 2.536 0.139 o
0 2 18 11.911 12.008 0.342 o
0 2 19 12.464 11.879 0.337 o
0 2 20 25.905 26.652 0.657 o
0 2 21 13.457 13.562 0.363 o
0 2 23 4.168 4.003 0.170 o
0 2 24 7.359 7.601 0.257 o
0 2 25 8.366 8.790 0.613 o
0 3 1 51.753 51.863 1.224 o
0 3 2 118.409 116.628 2.571 o
0 3 3 86.070 87.659 2.142 o
0 3 4 56.843 56.505 1.542 o
0 3 5 16.065 15.793 0.577 o
0 3 8 98.751 100.504 2.260 o
0 3 9 41.752 41.908 0.992 o
0 3 10 1.270 1.150 0.066 o
0 3 11 1.408 1.464 0.100 o
0 3 12 6.971 7.075 0.195 o
0 3 14 27.852 28.521 0.659 o
0 3 15 0.233 0.388 0.090 o
0 3 16 1.209 1.054 0.091 o
0 3 17 5.227 5.058 0.220 o
0 3 18 4.656 4.568 0.219 o
0 3 19 0.388 0.343 0.098 o
0 3 20 12.476 12.446 0.364 o
0 3 21 2.678 2.766 0.155 o
0 3 22 4.456 4.358 0.191 o
0 4 0 2.932 2.909 0.149 o
0 4 1 12.200 12.252 0.300 o
0 4 2 57.738 58.988 1.322 o
0 4 3 3.993 4.120 0.114 o
0 4 4 12.314 12.309 0.303 o
0 4 5 77.188 76.944 1.694 o
0 4 6 6.510 6.570 0.180 o
0 4 8 5.420 5.561 0.155 o
0 4 9 6.298 6.383 0.171 o
0 4 10 16.751 16.532 0.392 o
0 4 11 0.616 0.525 0.055 o
0 4 12 23.985 24.237 0.563 o
0 4 13 6.173 5.999 0.194 o
0 4 15 26.374 26.144 0.616 o
0 4 16 16.710 17.110 0.426 o
0 4 17 0.828 0.848 0.097 o
0 4 18 2.319 2.267 0.146 o
0 4 19 3.522 3.530 0.187 o
0 4 20 4.001 3.961 0.224 o
0 4 22 1.169 1.089 0.200 o
0 5 2 7.408 7.528 0.195 o
0 5 3 1.184 1.126 0.070 o
0 5 4 24.348 24.683 0.568 o
0 5 5 3.143 2.913 0.118 o
0 5 6 73.826 74.321 1.625 o
0 5 8 6.381 6.620 0.199 o
0 5 9 0.138 0.307 0.073 o
0 5 11 3.745 3.747 0.174 o
0 5 12 7.875 7.853 0.226 o
0 5 13 0.977 0.802 0.099 o
0 5 14 14.095 14.348 0.386 o
0 5 15 1.678 1.490 0.116 o
0 5 16 23.776 23.748 0.579 o
0 5 18 0.923 0.979 0.108 o
0 5 19 1.876 1.722 0.178 o
0 6 0 17.172 17.486 0.459 o
0 6 1 5.749 5.465 0.179 o
0 6 2 9.600 9.668 0.268 o
0 6 3 3.919 3.717 0.140 o
0 6 4 0.701 0.596 0.092 o
0 6 5 28.043 27.742 0.651 o
0 6 8 0.823 0.733 0.112 o
0 6 9 0.515 0.429 0.095 o
0 6 10 11.652 11.653 0.313 o
0 6 11 1.307 1.229 0.100 o
0 6 12 4.721 4.976 0.176 o
0 6 13 4.596 4.718 0.186 o
0 6 15 1.709 1.493 0.122 o
0 6 16 1.865 2.158 0.153 o
0 7 1 8.383 8.273 0.297 o
0 7 3 0.626 0.477 0.147 o
0 7 5 0.883 1.000 0.126 o
0 7 8 1.031 0.946 0.112 o
0 7 9 6.756 6.944 0.231 o
0 7 10 1.793 1.776 0.208 o
0 7 11 0.813 0.628 0.119 o
1 0 0 373.831 375.874 11.740 o
1 0 2 10.444 10.854 0.319 o
1 0 4 1869.459 1749.789 41.556 o
1 0 6 230.145 220.076 4.828 o
1 0 8 73.027 70.936 1.766 o
1 0 10 682.368 684.175 15.577 o
1 0 12 6.437 6.304 0.325 o
1 0 14 87.291 86.756 1.880 o
1 0 16 12.848 12.807 1.016 o
1 0 18 87.771 87.726 1.907 o
1 0 20 91.316 91.280 2.051 o
1 0 22 4.390 4.133 0.252 o
1 0 24 1.276 1.389 0.184 o
1 1 0 1601.836 1550.654 33.870 o
1 1 1 39.069 38.922 0.866 o
1 1 2 435.829 432.167 9.381 o
1 1 3 821.040 792.967 17.218 o
1 1 4 67.669 67.978 1.532 o
1 1 5 117.308 113.860 2.540 o
1 1 6 212.872 213.262 4.688 o
1 1 7 18.473 18.236 0.499 o
1 1 8 92.852 92.925 2.114 o
1 1 9 190.238 191.364 4.370 o
1 1 10 73.182 73.807 1.723 o
1 1 12 1.758 1.995 0.136 o
1 1 13 6.964 6.977 0.328 o
1 1 14 126.377 127.837 2.812 o
1 1 15 4.283 4.196 0.155 o
1 1 16 23.630 23.416 0.556 o
1 1 17 3.820 3.914 0.164 o
1 1 18 4.286 4.255 0.178 o
1 1 19 11.657 11.885 0.344 o
1 1 20 5.322 5.154 0.210 o
1 1 21 10.027 9.798 0.331 o
1 1 22 3.078 2.753 0.169 o
1 1 23 8.538 7.892 0.309 o
1 1 24 14.543 14.629 0.412 o
1 1 25 2.487 2.516 0.292 o
1 2 0 328.588 328.340 7.256 o
1 2 1 278.253 270.473 5.907 o
1 2 3 360.224 365.130 7.979 o
1 2 4 19.668 19.990 0.482 o
1 2 5 90.885 93.410 2.076 o
1 2 6 161.717 164.983 3.639 o
1 2 7 81.165 83.162 1.890 o
1 2 8 6.050 5.991 0.262 o
1 2 9 7.555 7.275 0.306 o
1 2 10 4.765 4.700 0.199 o
1 2 11 8.879 8.795 0.236 o
1 2 12 15.077 14.467 0.350 o
1 2 13 27.249 27.361 0.632 o
1 2 14 6.710 6.715 0.208 o
1 2 15 0.862 0.951 0.107 o
1 2 16 5.535 5.425 0.187 o
1 2 17 4.181 4.226 0.199 o
1 2 19 6.061 6.046 0.218 o
1 2 20 0.501 0.637 0.124 o
1 2 21 2.355 2.518 0.154 o
1 2 22 11.591 11.589 0.380 o
1 2 23 0.463 0.944 0.129 o
1 2 24 10.197 10.060 0.357 o
1 3 0 19.308 19.495 0.555 o
1 3 1 30.977 32.707 0.862 o
1 3 2 48.106 48.285 1.180 o
1 3 4 8.178 8.192 0.341 o
1 3 5 22.155 22.161 1.099 o
1 3 6 44.996 44.127 1.200 o
1 3 7 18.589 18.892 0.535 o
1 3 8 25.311 25.737 0.590 o
1 3 9 10.370 10.212 0.258 o
1 3 10 0.711 0.700 0.058 o
1 3 11 15.157 14.940 0.366 o
1 3 12 34.329 34.465 0.786 o
1 3 13 28.783 28.689 0.659 o
1 3 14 14.929 15.257 0.383 o
1 3 15 0.912 0.909 0.095 o
1 3 17 1.543 1.735 0.165 o
1 3 18 36.842 37.008 0.874 o
1 3 19 15.021 15.183 0.449 o
1 3 21 1.215 1.008 0.235 o
1 3 23 2.312 2.197 0.135 o
1 4 0 17.976 18.214 0.421 o
1 4 1 0.579 0.591 0.048 o
1 4 2 56.579 56.613 1.252 o
1 4 3 14.821 14.697 0.346 o
1 4 4 2.871 2.877 0.096 o
1 4 5 52.363 52.798 1.170 o
1 4 6 8.332 8.136 0.204 o
1 4 7 1.303 1.291 0.068 o
1 4 8 59.079 58.939 1.309 o
1 4 9 11.947 12.123 0.301 o
1 4 11 1.305 1.316 0.102 o
1 4 12 1.498 1.422 0.080 o
1 4 13 8.090 8.204 0.236 o
1 4 14 1.754 1.825 0.112 o
1 4 15 18.381 18.393 0.500 o
1 4 16 12.800 12.692 0.343 o
1 4 17 4.121 4.169 0.168 o
1 4 18 0.775 0.940 0.174 o
1 4 19 4.375 4.686 0.288 o
1 4 20 2.603 2.553 0.161 o
1 5 0 4.397 4.480 0.148 o
1 5 2 12.261 12.028 0.298 o
1 5 3 0.615 0.552 0.066 o
1 5 4 90.357 91.035 1.979 o
1 5 5 4.133 4.306 0.138 o
1 5 7 0.926 0.740 0.197 o
1 5 8 7.824 7.638 0.224 o
1 5 9 0.732 0.757 0.080 o
1 5 10 2.295 2.245 0.114 o
1 5 11 0.883 0.742 0.109 o
1 5 12 22.170 22.577 0.536 o
1 5 13 0.351 0.496 0.086 o
1 5 14 19.481 19.664 0.491 o
1 5 16 7.001 6.757 0.235 o
1 6 0 6.231 6.504 0.196 o
1 6 1 5.847 5.552 0.182 o
1 6 2 2.726 2.734 0.125 o
1 6 3 0.660 0.601 0.071 o
1 6 4 5.169 5.327 0.175 o
1 6 5 11.516 11.541 0.300 o
1 6 6 3.880 3.772 0.141 o
1 6 8 12.342 12.552 0.336 o
1 6 9 11.377 11.160 0.314 o
1 6 10 6.328 6.414 0.219 o
1 6 13 2.289 2.399 0.147 o
1 6 14 0.616 0.651 0.115 o
1 6 15 11.786 11.466 0.418 o
1 6 16 1.207 1.415 0.168 o
1 7 0 1.986 1.871 0.126 o
1 7 1 1.618 1.483 0.124 o
1 7 2 0.677 0.508 0.127 o
1 7 3 0.484 0.410 0.099 o
1 7 4 1.576 1.360 0.155 o
1 7 5 3.720 3.444 0.157 o
1 7 9 4.464 4.333 0.185 o
1 7 11 2.598 1.941 0.195 o
2 0 0 24.999 25.761 0.649 o
2 0 2 3759.655 3247.960 66.240 o
2 0 4 8.079 8.365 0.345 o
2 0 6 4.232 4.346 0.204 o
2 0 8 103.018 105.185 2.340 o
2 0 10 35.281 34.712 1.019 o
2 0 12 76.505 77.537 2.301 o
2 0 14 98.668 100.882 2.179 o
2 0 16 36.311 36.805 0.829 o
2 0 18 5.029 5.499 0.506 o
2 0 20 19.380 19.466 0.599 o
2 0 22 15.550 15.993 0.942 o
2 0 24 35.518 36.972 1.817 o
2 1 0 368.713 366.399 7.970 o
2 1 1 67.904 68.579 1.530 o
2 1 2 2.871 2.625 0.130 o
2 1 3 473.477 466.699 10.154 o
2 1 4 9.427 9.128 0.284 o
2 1 5 20.798 20.978 0.566 o
2 1 6 430.411 423.098 9.007 o
2 1 7 30.660 30.445 0.857 o
2 1 8 47.542 46.981 1.150 o
2 1 9 179.714 180.303 3.979 o
2 1 10 42.980 43.401 1.067 o
2 1 11 1.884 1.739 0.089 o
2 1 12 24.476 24.648 0.627 o
2 1 13 120.908 120.028 2.631 o
2 1 14 3.170 3.277 0.139 o
2 1 15 5.406 5.424 0.185 o
2 1 16 0.426 0.594 0.119 o
2 1 17 4.425 4.466 0.208 o
2 1 18 21.430 21.637 0.768 o
2 1 19 34.256 34.460 0.816 o
2 1 20 25.849 25.932 0.712 o
2 1 21 9.604 9.052 0.376 o
2 1 22 0.658 0.656 0.187 o
2 1 23 7.198 7.131 0.322 o
2 1 24 8.789 8.769 0.370 o
2 2 0 529.883 521.933 11.147 o
2 2 1 1.724 1.735 0.103 o
2 2 2 2.978 2.916 0.111 o
2 2 3 17.420 17.492 0.437 o
2 2 4 1.026 1.093 0.087 o
2 2 5 154.054 156.237 3.418 o
2 2 6 10.064 10.261 0.353 o
2 2 7 56.787 58.012 1.378 o
2 2 8 56.791 54.704 1.392 o
2 2 9 78.146 79.369 2.003 o
2 2 10 74.546 76.868 1.693 o
2 2 11 32.114 31.636 0.726 o
2 2 12 0.456 0.381 0.052 o
2 2 13 35.637 36.328 0.825 o
2 2 14 1.626 1.626 0.124 o
2 2 15 12.918 12.937 0.329 o
2 2 16 12.761 12.980 0.441 o
2 2 17 46.999 46.918 1.049 o
2 2 18 2.224 1.842 0.200 o
2 2 20 1.939 1.711 0.161 o
2 2 22 3.058 3.075 0.247 o
2 2 23 11.372 11.066 0.356 o
2 3 0 13.115 13.616 0.470 o
2 3 1 29.732 30.132 0.830 o
2 3 2 91.462 92.777 2.115 o
2 3 3 4.632 4.271 0.215 o
2 3 4 218.892 225.054 4.980 o
2 3 5 7.417 7.984 0.389 o
2 3 6 2.301 2.474 0.127 o
2 3 7 29.580 30.174 0.688 o
2 3 8 1.815 1.717 0.081 o
2 3 9 1.483 1.404 0.073 o
2 3 10 2.386 2.351 0.120 o
2 3 11 0.228 0.344 0.059 o
2 3 12 3.842 3.865 0.188 o
2 3 14 8.415 8.309 0.249 o
2 3 15 5.153 4.968 0.198 o
2 3 16 3.764 3.703 0.163 o
2 3 18 1.533 1.408 0.149 o
2 3 19 0.313 0.666 0.156 o
2 3 20 0.323 0.544 0.163 o
2 3 21 1.791 1.672 0.223 o
2 3 22 4.897 4.762 0.224 o
2 4 0 13.141 12.648 0.300 o
2 4 2 1.977 2.078 0.074 o
2 4 3 55.245 55.826 1.258 o
2 4 4 54.482 54.672 1.203 o
2 4 5 18.864 18.786 0.437 o
2 4 6 3.492 3.464 0.121 o
2 4 7 18.428 18.238 0.431 o
2 4 8 5.110 5.140 0.175 o
2 4 9 6.871 6.859 0.203 o
2 4 10 1.643 1.411 0.110 o
2 4 12 34.839 35.287 0.802 o
2 4 13 11.623 11.912 0.346 o
2 4 14 7.831 7.813 0.253 o
2 4 15 5.647 5.731 0.214 o
2 4 17 6.244 6.262 0.270 o
2 4 18 10.893 11.436 0.384 o
2 4 19 3.812 3.529 0.195 o
2 5 0 11.439 11.678 0.292 o
2 5 1 3.834 3.795 0.116 o
2 5 2 1.797 1.740 0.077 o
2 5 3 1.370 1.371 0.093 o
2 5 4 2.899 2.885 0.129 o
2 5 5 1.248 1.223 0.075 o
2 5 6 1.868 1.708 0.092 o
2 5 7 0.228 0.249 0.066 o
2 5 8 70.644 71.353 1.566 o
2 5 9 5.574 5.673 0.216 o
2 5 10 3.675 3.451 0.207 o
2 5 12 0.834 0.728 0.113 o
2 5 13 1.551 1.620 0.134 o
2 5 14 18.189 18.579 0.477 o
2 5 15 1.119 0.897 0.132 o
2 5 16 6.785 6.868 0.226 o
2 5 18 15.551 15.352 0.479 o
2 6 0 0.855 0.739 0.087 o
2 6 1 0.536 0.585 0.123 o
2 6 2 6.950 7.134 0.216 o
2 6 3 12.563 12.771 0.380 o
2 6 4 6.855 6.803 0.229 o
2 6 6 0.306 0.572 0.101 o
2 6 7 5.451 5.367 0.199 o
2 6 8 0.711 0.666 0.109 o
2 6 11 3.368 3.051 0.149 o
2 6 12 7.630 7.833 0.260 o
2 6 13 0.630 0.469 0.120 o
2 6 14 4.254 4.563 0.216 o
2 7 0 1.198 1.261 0.137 o
2 7 1 2.265 1.845 0.147 o
2 7 2 0.377 0.344 0.105 o
2 7 3 2.096 2.164 0.202 o
2 7 4 4.303 4.326 0.186 o
2 7 6 2.108 2.031 0.152 o
2 7 7 3.090 2.883 0.208 o
3 0 0 400.598 395.944 8.352 o
3 0 2 190.896 187.456 4.261 o
3 0 4 21.058 21.232 0.729 o
3 0 6 590.522 570.841 11.204 o
3 0 8 10.954 10.783 0.845 o
3 0 10 1.304 1.413 0.149 o
3 0 12 281.569 279.465 5.829 o
3 0 14 3.674 3.797 0.188 o
3 0 16 11.151 11.040 0.667 o
3 0 18 10.257 10.587 0.669 o
3 0 20 36.674 37.641 1.292 o
3 0 22 34.958 35.596 1.249 o
3 1 0 113.971 110.867 2.468 o
3 1 1 447.053 437.252 9.476 o
3 1 2 449.910 441.839 9.555 o
3 1 3 40.447 41.006 0.963 o
3 1 4 11.342 11.122 0.337 o
3 1 5 5.244 5.280 0.205 o
3 1 6 4.789 4.862 0.208 o
3 1 7 29.974 28.471 0.762 o
3 1 8 38.128 38.892 0.953 o
3 1 9 1.287 1.011 0.111 o
3 1 10 84.485 86.413 1.927 o
3 1 11 13.827 13.504 0.327 o
3 1 12 10.939 10.955 0.282 o
3 1 13 35.886 35.962 0.816 o
3 1 14 0.603 0.455 0.090 o
3 1 15 3.128 2.960 0.178 o
3 1 16 59.038 58.337 1.247 o
3 1 17 1.388 1.300 0.153 o
3 1 18 2.951 2.773 0.201 o
3 1 19 7.757 7.650 0.326 o
3 1 21 4.303 4.304 0.229 o
3 1 22 0.937 0.744 0.195 o
3 1 23 23.224 24.106 0.667 o
3 2 0 1.692 1.732 0.159 o
3 2 1 7.723 8.146 0.257 o
3 2 2 277.692 279.793 6.000 o
3 2 3 105.288 103.388 2.287 o
3 2 4 94.377 92.968 2.078 o
3 2 5 63.052 63.510 1.492 o
3 2 6 44.023 45.255 1.205 o
3 2 7 3.634 3.364 0.202 o
3 2 8 104.255 104.861 2.320 o
3 2 9 2.360 2.371 0.103 o
3 2 10 11.076 11.297 0.276 o
3 2 11 9.349 9.421 0.238 o
3 2 12 21.975 21.730 0.514 o
3 2 13 2.947 2.877 0.119 o
3 2 14 8.004 7.772 0.227 o
3 2 15 1.261 1.283 0.105 o
3 2 16 1.912 2.268 0.170 o
3 2 17 6.923 7.752 0.310 o
3 2 18 20.979 20.753 0.538 o
3 2 19 14.793 15.050 0.428 o
3 2 20 6.638 6.553 0.282 o
3 2 21 5.499 5.524 0.263 o
3 2 22 1.870 2.157 0.217 o
3 2 23 1.183 1.378 0.347 o
3 3 0 71.409 73.240 1.744 o
3 3 1 2.096 1.916 0.302 o
3 3 2 20.885 20.784 0.586 o
3 3 3 98.978 101.876 2.300 o
3 3 4 108.903 110.106 2.422 o
3 3 6 20.221 20.184 0.467 o
3 3 7 2.046 2.028 0.084 o
3 3 8 115.609 117.099 2.574 o
3 3 9 34.758 34.545 0.795 o
3 3 10 0.250 0.233 0.062 o
3 3 11 16.067 15.874 0.386 o
3 3 12 32.584 33.185 0.753 o
3 3 13 12.189 12.036 0.320 o
3 3 14 49.225 49.187 1.094 o
3 3 15 4.504 4.264 0.172 o
3 3 16 8.076 8.387 0.358 o
3 3 17 7.172 7.254 0.390 o
3 3 18 2.097 2.142 0.253 o
3 3 19 0.765 0.589 0.157 o
3 3 21 3.745 3.152 0.243 o
3 4 0 6.312 6.080 0.161 o
3 4 1 0.352 0.355 0.057 o
3 4 2 2.357 2.347 0.087 o
3 4 3 18.373 18.391 0.429 o
3 4 4 37.929 37.826 0.850 o
3 4 7 54.941 55.446 1.211 o
3 4 8 19.965 20.593 0.542 o
3 4 9 9.939 10.047 0.301 o
3 4 10 11.205 10.887 0.302 o
3 4 12 1.710 1.652 0.116 o
3 4 13 13.407 13.166 0.368 o
3 4 14 3.152 2.989 0.187 o
3 4 16 2.317 2.408 0.153 o
3 4 17 16.146 16.419 0.446 o
3 4 18 9.612 10.025 0.622 o
3 4 19 1.003 0.855 0.178 o
3 5 0 17.272 17.304 0.413 o
3 5 1 9.035 8.986 0.238 o
3 5 2 3.004 2.973 0.120 o
3 5 5 1.894 1.630 0.097 o
3 5 6 15.425 15.606 0.454 o
3 5 7 4.579 4.685 0.191 o
3 5 8 1.639 1.501 0.116 o
3 5 12 1.609 1.599 0.133 o
3 5 14 1.586 1.627 0.286 o
3 5 15 1.858 1.789 0.149 o
3 5 16 4.157 4.247 0.212 o
3 6 1 0.951 0.911 0.090 o
3 6 2 1.271 1.315 0.107 o
3 6 3 0.625 0.561 0.083 o
3 6 4 1.104 1.192 0.127 o
3 6 5 3.233 3.279 0.184 o
3 6 6 0.718 0.918 0.119 o
3 6 7 14.187 13.814 0.391 o
3 6 9 0.680 0.981 0.160 o
3 6 10 2.051 2.017 0.136 o
3 6 11 2.462 2.278 0.154 o
3 6 12 2.625 2.680 0.149 o
3 6 13 3.793 3.910 0.169 o
3 7 0 1.253 1.242 0.128 o
3 7 2 3.594 3.564 0.198 o
3 7 3 4.679 4.674 0.238 o
3 7 4 0.725 0.725 0.134 o
3 7 6 0.595 0.779 0.119 o
3 7 8 1.194 0.955 0.127 o
3 7 9 1.903 2.009 0.345 o
4 0 0 44.546 44.254 1.108 o
4 0 4 38.189 38.825 0.994 o
4 0 6 13.657 13.518 0.550 o
4 0 8 0.938 1.240 0.241 o
4 0 10 4.145 4.196 0.205 o
4 0 12 2.848 3.004 0.152 o
4 0 16 48.958 49.396 1.204 o
4 0 22 30.203 31.583 1.155 o
4 1 0 2.319 2.312 0.112 o
4 1 1 151.459 153.821 3.475 o
4 1 2 187.114 186.553 4.074 o
4 1 3 212.196 208.609 4.533 o
4 1 4 2.858 2.731 0.159 o
4 1 5 91.487 90.890 2.046 o
4 1 6 39.729 40.876 1.001 o
4 1 7 8.507 8.446 0.300 o
4 1 8 27.966 28.445 0.665 o
4 1 9 20.677 20.965 0.488 o
4 1 10 0.262 0.305 0.072 o
4 1 11 128.569 128.690 2.823 o
4 1 12 11.572 11.515 0.308 o
4 1 13 6.257 6.220 0.207 o
4 1 14 2.359 2.420 0.242 o
4 1 15 9.526 9.597 0.289 o
4 1 16 3.289 3.209 0.179 o
4 1 17 8.647 8.946 0.290 o
4 1 19 1.328 1.103 0.174 o
4 1 20 17.988 18.173 0.571 o
4 1 21 14.171 14.540 0.546 o
4 1 22 4.842 4.807 0.314 o
4 2 0 120.399 120.996 2.736 o
4 2 1 74.798 75.195 1.739 o
4 2 2 297.152 301.356 6.597 o
4 2 3 56.177 54.926 1.313 o
4 2 4 15.699 15.773 0.501 o
4 2 5 0.500 0.425 0.122 o
4 2 6 6.776 7.045 0.222 o
4 2 7 154.300 157.157 3.432 o
4 2 8 0.664 0.650 0.064 o
4 2 9 14.259 14.053 0.339 o
4 2 10 40.891 41.620 0.937 o
4 2 11 1.265 1.261 0.076 o
4 2 12 101.048 102.022 2.203 o
4 2 13 27.303 27.281 0.632 o
4 2 14 10.955 10.881 0.341 o
4 2 15 26.132 26.500 0.723 o
4 2 16 2.348 2.548 0.157 o
4 2 17 5.308 5.206 0.342 o
4 2 18 5.551 5.557 0.247 o
4 2 19 2.897 2.828 0.218 o
4 2 20 3.003 2.824 0.538 o
4 2 21 2.315 2.563 0.202 o
4 3 0 5.758 5.473 0.186 o
4 3 1 36.691 37.511 0.897 o
4 3 2 1.049 1.016 0.062 o
4 3 3 1.329 1.335 0.058 o
4 3 4 49.717 49.089 1.104 o
4 3 5 3.426 3.414 0.108 o
4 3 6 105.851 107.482 2.358 o
4 3 8 54.657 54.492 1.217 o
4 3 9 6.255 6.245 0.187 o
4 3 10 9.965 9.860 0.266 o
4 3 11 0.405 0.432 0.074 o
4 3 13 13.310 12.944 0.342 o
4 3 16 23.104 23.192 0.655 o
4 3 17 2.984 3.014 0.175 o
4 3 18 32.808 33.200 0.794 o
4 3 19 2.603 2.399 0.190 o
4 4 0 66.575 66.503 1.475 o
4 4 1 0.591 0.636 0.047 o
4 4 2 0.593 0.676 0.048 o
4 4 3 2.822 2.824 0.097 o
4 4 4 1.560 1.597 0.080 o
4 4 5 20.491 20.332 0.497 o
4 4 6 13.468 13.524 0.356 o
4 4 7 40.418 40.984 0.976 o
4 4 8 20.557 20.803 0.529 o
4 4 9 1.010 0.897 0.133 o
4 4 10 1.340 1.262 0.148 o
4 4 11 0.462 0.614 0.133 o
4 4 13 0.561 0.395 0.109 o
4 4 14 20.939 20.546 0.591 o
4 4 15 5.039 5.276 0.238 o
4 4 17 18.485 18.348 0.936 o
4 5 1 2.036 2.148 0.106 o
4 5 2 0.882 0.779 0.087 o
4 5 3 3.378 3.380 0.125 o
4 5 4 22.184 22.439 0.530 o
4 5 5 2.041 2.153 0.128 o
4 5 6 9.499 9.397 0.290 o
4 5 8 2.113 2.156 0.212 o
4 5 10 14.622 14.623 0.403 o
4 5 11 7.345 7.511 0.279 o
4 5 12 1.890 2.014 0.142 o
4 5 16 7.813 7.961 0.440 o
4 6 0 0.949 0.692 0.134 o
4 6 1 3.738 3.768 0.144 o
4 6 2 0.522 0.569 0.082 o
4 6 3 0.661 0.594 0.094 o
4 6 5 2.568 2.678 0.147 o
4 6 7 0.855 0.950 0.125 o
4 6 8 2.025 1.952 0.150 o
4 6 9 1.769 1.506 0.176 o
4 7 1 4.612 4.850 0.210 o
4 7 5 0.986 0.796 0.171 o
4 7 6 6.471 6.286 0.254 o
4 7 7 0.463 0.637 0.145 o
5 0 0 61.533 62.192 1.508 o
5 0 2 675.010 666.773 13.892 o
5 0 4 12.429 11.889 0.528 o
5 0 6 6.532 6.304 0.262 o
5 0 8 145.401 146.728 3.147 o
5 0 10 71.937 72.342 1.530 o
5 0 12 17.290 17.292 0.462 o
5 0 14 15.732 16.078 0.507 o
5 0 16 15.225 15.408 0.465 o
5 0 18 1.929 1.231 0.356 o
5 0 20 1.924 1.511 0.382 o
5 1 0 0.416 0.475 0.121 o
5 1 1 107.341 108.212 2.433 o
5 1 2 58.694 58.201 1.430 o
5 1 3 1.801 1.757 0.172 o
5 1 4 38.169 39.573 0.991 o
5 1 5 1.142 0.784 0.122 o
5 1 6 82.274 81.977 1.808 o
5 1 7 5.046 5.039 0.144 o
5 1 8 1.481 1.530 0.120 o
5 1 9 1.930 1.952 0.098 o
5 1 10 0.718 0.684 0.126 o
5 1 11 28.892 29.626 0.718 o
5 1 12 55.446 55.471 1.210 o
5 1 13 16.819 16.504 0.428 o
5 1 15 17.984 18.251 0.552 o
5 1 18 5.705 5.461 0.250 o
5 1 19 0.932 0.935 0.222 o
5 1 20 1.341 1.116 0.186 o
5 1 21 24.343 24.086 0.982 o
5 2 0 23.787 24.125 0.659 o
5 2 1 25.833 25.699 0.812 o
5 2 2 3.599 3.357 0.314 o
5 2 3 24.942 24.426 0.602 o
5 2 4 61.470 61.206 1.342 o
5 2 5 15.071 15.334 0.368 o
5 2 6 47.809 49.242 1.097 o
5 2 7 4.343 4.316 0.161 o
5 2 8 14.106 13.691 0.344 o
5 2 9 10.817 10.738 0.285 o
5 2 10 40.411 40.096 0.896 o
5 2 11 10.436 10.370 0.297 o
5 2 12 21.803 21.517 0.561 o
5 2 14 5.952 5.709 0.240 o
5 2 16 11.966 12.063 0.382 o
5 2 17 25.273 26.139 0.665 o
5 2 18 2.833 2.460 0.486 o
5 2 19 2.830 2.772 0.221 o
5 2 20 17.597 17.790 0.548 o
5 3 0 122.897 122.778 2.713 o
5 3 1 26.245 26.703 0.602 o
5 3 2 5.266 5.320 0.145 o
5 3 3 4.514 4.511 0.133 o
5 3 4 4.009 3.941 0.123 o
5 3 5 40.868 40.782 0.913 o
5 3 6 90.966 91.557 2.028 o
5 3 7 4.587 4.620 0.151 o
5 3 8 3.195 3.141 0.125 o
5 3 9 0.301 0.398 0.068 o
5 3 10 37.727 37.917 0.888 o
5 3 11 21.193 21.472 0.518 o
5 3 12 0.618 0.812 0.086 o
5 3 13 4.352 4.130 0.248 o
5 3 14 29.246 29.221 0.704 o
5 3 15 0.829 0.824 0.139 o
5 3 16 33.073 33.217 0.809 o
5 3 19 4.259 3.987 0.374 o
5 4 0 8.904 8.762 0.217 o
5 4 1 4.455 4.453 0.141 o
5 4 3 1.182 1.188 0.070 o
5 4 4 25.534 26.027 0.602 o
5 4 5 18.477 18.723 0.446 o
5 4 6 8.470 8.596 0.256 o
5 4 7 18.725 18.575 0.450 o
5 4 9 7.614 7.696 0.245 o
5 4 10 15.793 15.704 0.406 o
5 4 11 2.646 2.611 0.133 o
5 4 12 0.591 0.580 0.092 o
5 4 14 2.434 2.236 0.148 o
5 4 15 12.072 11.954 0.353 o
5 4 16 1.332 1.106 0.218 o
5 4 17 4.904 5.001 0.225 o
5 5 0 5.057 5.128 0.155 o
5 5 2 4.727 4.759 0.156 o
5 5 3 1.166 1.164 0.094 o
5 5 4 3.390 3.089 0.134 o
5 5 6 6.352 6.239 0.221 o
5 5 7 1.239 1.369 0.133 o
5 5 8 7.416 7.373 0.249 o
5 5 14 2.867 3.188 0.224 o
5 6 0 6.820 6.888 0.224 o
5 6 1 4.401 4.662 0.165 o
5 6 2 4.107 4.030 0.172 o
5 6 3 1.932 1.890 0.127 o
5 6 4 1.662 1.716 0.134 o
5 6 5 7.710 7.697 0.255 o
5 6 6 2.937 2.817 0.180 o
5 6 7 11.512 11.757 0.346 o
5 6 8 0.711 0.687 0.109 o
5 6 9 2.058 1.927 0.158 o
5 7 0 1.764 1.549 0.145 o
5 7 1 8.393 8.627 0.324 o
5 7 2 1.615 1.507 0.144 o
5 7 3 2.045 1.917 0.290 o
6 0 0 228.871 234.945 5.046 o
6 0 2 29.442 29.675 0.891 o
6 0 4 1.485 1.447 0.094 o
6 0 6 42.846 42.852 0.971 o
6 0 8 15.820 15.276 0.409 o
6 0 10 33.504 32.763 0.754 o
6 0 12 93.733 94.531 1.962 o
6 0 14 4.159 4.489 0.239 o
6 0 16 2.184 1.957 0.183 o
6 0 18 12.283 12.567 0.696 o
6 0 20 23.293 23.013 0.966 o
6 1 0 0.552 0.527 0.112 o
6 1 1 184.515 188.271 4.493 o
6 1 2 61.221 60.972 1.361 o
6 1 3 22.851 22.696 0.531 o
6 1 4 54.696 55.628 1.234 o
6 1 5 58.209 59.250 1.309 o
6 1 6 21.186 20.855 0.488 o
6 1 7 11.955 12.114 0.312 o
6 1 8 42.286 42.461 0.957 o
6 1 9 34.909 34.931 0.796 o
6 1 11 32.213 32.408 0.772 o
6 1 12 0.657 0.622 0.123 o
6 1 13 13.658 14.617 0.417 o
6 1 15 2.042 1.986 0.177 o
6 1 16 26.347 25.268 0.670 o
6 1 18 3.159 3.033 0.185 o
6 1 19 5.756 5.753 0.300 o
6 2 1 9.475 9.675 0.238 o
6 2 3 13.284 13.379 0.320 o
6 2 4 47.679 48.129 1.065 o
6 2 5 98.100 98.587 2.186 o
6 2 6 2.236 2.190 0.106 o
6 2 7 1.152 0.968 0.086 o
6 2 8 5.257 5.170 0.283 o
6 2 9 34.435 33.802 0.772 o
6 2 10 1.499 1.376 0.163 o
6 2 11 5.700 5.540 0.251 o
6 2 12 3.270 3.319 0.192 o
6 2 13 6.962 7.137 0.272 o
6 2 14 33.649 34.293 0.837 o
6 2 15 15.692 15.380 0.485 o
6 2 16 7.888 7.015 0.363 o
6 2 17 1.359 1.475 0.246 o
6 2 18 0.719 0.618 0.162 o
6 3 2 0.675 0.818 0.061 o
6 3 3 0.713 0.652 0.057 o
6 3 4 0.265 0.184 0.054 o
6 3 7 5.027 5.223 0.168 o
6 3 8 6.171 6.054 0.195 o
6 3 9 3.143 3.186 0.166 o
6 3 10 32.682 32.426 0.815 o
6 3 11 1.732 1.736 0.139 o
6 3 12 1.290 1.395 0.183 o
6 3 15 12.497 12.236 0.431 o
6 3 16 5.704 5.463 0.408 o
6 3 17 0.586 0.671 0.221 o
6 3 18 8.283 7.421 0.382 o
6 4 0 16.725 16.564 0.391 o
6 4 2 26.143 25.912 0.603 o
6 4 4 6.219 6.074 0.185 o
6 4 5 14.151 14.656 0.371 o
6 4 6 0.782 0.792 0.113 o
6 4 7 2.011 1.832 0.132 o
6 4 9 7.451 7.430 0.260 o
6 4 10 18.157 18.444 0.479 o
6 4 11 1.819 1.379 0.121 o
6 4 14 3.089 2.848 0.201 o
6 4 15 4.725 4.877 0.248 o
6 4 16 3.835 3.595 0.277 o
6 5 0 26.620 26.208 0.635 o
6 5 1 4.123 4.225 0.190 o
6 5 3 0.635 0.651 0.109 o
6 5 4 15.131 15.047 0.404 o
6 5 6 45.005 46.196 1.145 o
6 5 7 2.941 2.899 0.244 o
6 5 8 0.556 0.712 0.149 o
6 5 9 1.289 1.328 0.151 o
6 5 13 1.548 1.618 0.214 o
6 6 0 11.307 11.504 0.372 o
6 6 1 2.253 2.150 0.122 o
6 6 2 4.703 4.805 0.184 o
6 6 3 5.368 5.341 0.206 o
6 6 5 1.218 0.860 0.247 o
6 6 7 2.017 1.804 0.133 o
6 6 8 0.858 0.863 0.114 o
6 7 0 1.777 1.759 0.341 o
7 0 0 107.362 109.145 2.369 o
7 0 2 36.112 35.585 0.814 o
7 0 4 266.213 270.410 5.849 o
7 0 6 1.148 1.059 0.106 o
7 0 8 43.920 44.320 0.973 o
7 0 10 60.214 58.995 1.229 o
7 0 12 17.485 18.093 0.554 o
7 0 14 12.031 11.893 0.471 o
7 0 16 8.413 8.470 0.410 o
7 0 18 16.344 16.773 0.821 o
7 1 0 81.670 83.009 1.839 o
7 1 1 1.134 1.095 0.067 o
7 1 2 0.166 0.117 0.036 o
7 1 3 7.468 7.606 0.194 o
7 1 4 35.004 34.688 0.785 o
7 1 5 40.292 40.133 0.902 o
7 1 6 1.031 0.891 0.086 o
7 1 7 1.440 1.407 0.089 o
7 1 8 46.510 46.906 1.059 o
7 1 10 3.246 3.222 0.177 o
7 1 11 16.576 16.458 0.468 o
7 1 12 15.283 15.172 0.436 o
7 1 13 15.171 15.693 0.477 o
7 1 14 23.867 22.779 1.186 o
7 1 15 22.615 22.555 0.888 o
7 1 17 3.529 3.121 0.288 o
7 2 0 35.876 35.795 0.803 o
7 2 1 10.957 10.940 0.265 o
7 2 2 6.300 6.421 0.174 o
7 2 3 4.893 4.680 0.146 o
7 2 4 0.527 0.491 0.064 o
7 2 5 0.775 0.765 0.088 o
7 2 6 5.847 6.142 0.197 o
7 2 7 3.251 3.185 0.119 o
7 2 8 7.189 7.179 0.238 o
7 2 9 20.692 20.712 0.553 o
7 2 10 0.892 0.844 0.115 o
7 2 11 10.249 9.806 0.326 o
7 2 13 4.175 4.212 0.279 o
7 2 14 6.743 6.476 0.426 o
7 2 15 11.434 11.002 0.451 o
7 2 16 1.144 0.955 0.211 o
7 3 0 0.590 0.517 0.055 o
7 3 1 28.338 28.481 0.646 o
7 3 2 22.547 22.451 0.532 o
7 3 3 15.067 15.263 0.370 o
7 3 4 14.246 14.652 0.391 o
7 3 5 1.007 1.040 0.109 o
7 3 6 6.720 6.621 0.208 o
7 3 7 3.351 3.319 0.136 o
7 3 8 12.156 12.658 0.353 o
7 3 9 9.957 9.713 0.285 o
7 3 10 1.798 2.308 0.175 o
7 3 12 3.534 3.030 0.176 o
7 3 13 1.552 1.747 0.166 o
7 3 16 1.894 2.686 0.235 o
7 4 0 9.792 9.561 0.253 o
7 4 1 1.492 1.399 0.086 o
7 4 2 1.650 1.393 0.160 o
7 4 3 1.194 0.925 0.086 o
7 4 4 2.651 2.447 0.177 o
7 4 5 20.703 20.308 0.502 o
7 4 6 30.075 30.775 0.723 o
7 4 9 10.130 10.410 0.387 o
7 4 12 4.975 5.069 0.284 o
7 4 14 7.014 7.625 0.600 o
7 5 0 13.778 13.412 0.389 o
7 5 2 12.605 12.685 0.337 o
7 5 3 1.421 1.499 0.108 o
7 5 4 2.426 2.643 0.144 o
7 5 6 1.121 0.923 0.118 o
7 5 8 3.602 3.357 0.176 o
7 5 10 20.906 20.210 0.804 o
7 5 11 1.379 1.257 0.163 o
7 6 0 0.801 0.727 0.119 o
7 6 2 2.288 2.203 0.143 o
7 6 4 3.910 3.719 0.374 o
7 6 5 3.917 3.772 0.195 o
7 6 6 3.344 3.103 0.171 o
7 6 7 3.466 3.181 0.422 o
8 0 0 26.905 27.013 0.631 o
8 0 2 14.875 14.714 0.421 o
8 0 4 64.245 64.594 1.368 o
8 0 6 4.775 4.772 0.180 o
8 0 8 28.534 28.938 0.687 o
8 0 10 0.864 0.565 0.185 o
8 0 12 24.392 25.176 0.723 o
8 0 14 82.856 81.357 2.220 o
8 0 16 0.856 1.314 0.388 o
8 1 1 0.366 0.442 0.065 o
8 1 2 2.093 2.250 0.091 o
8 1 3 83.628 84.684 1.871 o
8 1 4 32.896 33.150 0.749 o
8 1 6 4.203 4.022 0.196 o
8 1 8 19.442 19.494 0.560 o
8 1 9 9.559 8.747 0.286 o
8 1 10 18.750 18.593 0.569 o
8 1 11 5.927 6.175 0.390 o
8 1 12 4.357 4.674 0.369 o
8 1 13 11.020 10.643 0.385 o
8 1 15 1.589 1.617 0.339 o
8 2 0 41.828 41.866 0.939 o
8 2 1 21.433 21.798 0.502 o
8 2 3 5.007 5.131 0.171 o
8 2 4 14.156 14.709 0.373 o
8 2 5 7.470 7.337 0.211 o
8 2 7 35.244 36.062 0.820 o
8 2 8 4.283 4.419 0.197 o
8 2 10 15.342 15.191 0.488 o
8 2 11 0.149 0.380 0.122 o
8 2 13 3.888 3.678 0.209 o
8 2 15 2.620 2.748 0.227 o
8 2 16 2.008 2.152 0.213 o
8 3 0 17.478 17.470 0.419 o
8 3 2 9.625 9.682 0.262 o
8 3 3 0.616 0.833 0.138 o
8 3 4 10.916 10.641 0.280 o
8 3 5 18.066 17.849 0.435 o
8 3 6 14.328 14.357 0.386 o
8 3 8 3.702 3.806 0.189 o
8 3 10 2.642 2.642 0.230 o
8 3 11 5.919 5.201 0.281 o
8 3 12 3.318 3.439 0.283 o
8 3 13 6.555 6.944 0.369 o
8 3 14 5.729 5.754 0.300 o
8 4 1 2.370 2.314 0.124 o
8 4 2 14.092 14.149 0.366 o
8 4 3 2.562 2.494 0.181 o
8 4 4 2.361 2.482 0.120 o
8 4 5 2.743 2.758 0.129 o
8 4 6 3.591 3.780 0.154 o
8 4 7 4.202 4.582 0.206 o
8 4 9 12.949 12.505 0.402 o
8 4 10 5.952 6.060 0.267 o
8 4 12 5.629 5.513 0.257 o
8 5 0 1.082 1.145 0.107 o
8 5 2 6.457 6.589 0.303 o
8 5 3 3.760 3.860 0.173 o
8 5 4 0.855 0.714 0.104 o
8 5 6 6.883 6.806 0.264 o
8 5 7 2.212 2.027 0.173 o
8 5 8 20.215 20.736 0.535 o
8 5 9 2.798 2.926 0.285 o
8 6 1 0.518 0.632 0.186 o
8 6 2 4.880 4.737 0.194 o
8 6 3 1.456 1.414 0.278 o
9 0 0 17.296 17.236 0.439 o
9 0 2 46.614 46.746 1.083 o
9 0 4 4.634 4.673 0.188 o
9 0 6 26.917 26.788 0.733 o
9 0 10 13.633 13.703 0.515 o
9 0 12 8.472 8.488 0.459 o
9 1 0 32.739 33.291 0.779 o
9 1 2 4.745 4.725 0.150 o
9 1 3 26.196 26.206 0.606 o
9 1 4 2.525 2.772 0.139 o
9 1 5 6.122 5.775 0.187 o
9 1 6 7.752 7.662 0.229 o
9 1 7 12.920 13.210 0.382 o
9 1 8 1.689 1.665 0.162 o
9 1 9 2.068 2.181 0.179 o
9 1 10 9.220 9.397 0.434 o
9 1 12 0.980 0.618 0.136 o
9 1 13 27.060 27.524 0.681 o
9 1 14 9.059 9.707 0.440 o
9 2 0 1.747 1.681 0.108 o
9 2 1 3.616 3.764 0.134 o
9 2 2 36.077 36.343 0.830 o
9 2 3 4.994 5.017 0.243 o
9 2 4 36.017 36.254 0.853 o
9 2 5 3.312 2.963 0.141 o
9 2 6 3.104 3.146 0.137 o
9 2 7 1.647 1.617 0.174 o
9 2 8 2.152 1.869 0.168 o
9 2 9 15.231 15.519 0.460 o
9 2 10 2.162 1.844 0.307 o
9 2 11 8.790 8.899 0.332 o
9 2 12 6.311 6.059 0.280 o
9 2 14 7.419 7.169 0.383 o
9 3 0 2.119 2.157 0.125 o
9 3 1 6.567 6.834 0.206 o
9 3 2 2.569 2.466 0.115 o
9 3 3 14.116 14.256 0.379 o
9 3 4 6.643 6.716 0.200 o
9 3 5 1.317 1.184 0.116 o
9 3 6 15.760 16.057 0.407 o
9 3 8 16.147 16.146 0.489 o
9 3 10 3.077 3.028 0.199 o
9 3 11 3.873 3.200 0.213 o
9 3 12 4.692 4.629 0.252 o
9 4 1 2.380 2.311 0.121 o
9 4 2 12.898 12.599 0.340 o
9 4 5 0.327 0.397 0.085 o
9 4 6 5.079 5.088 0.183 o
9 4 7 18.081 18.023 0.469 o
9 4 8 12.566 12.360 0.362 o
9 4 9 5.204 5.296 0.254 o
9 5 1 0.861 0.833 0.163 o
9 5 2 4.286 3.942 0.189 o
9 5 3 1.584 1.366 0.120 o
9 5 4 1.079 0.928 0.294 o
9 5 5 0.878 0.865 0.154 o
10 0 0 7.276 7.464 0.433 o
10 0 2 2.810 2.912 0.215 o
10 0 4 14.235 14.965 0.435 o
10 0 6 17.384 17.292 0.469 o
10 0 8 1.013 1.076 0.128 o
10 0 10 12.078 11.996 0.490 o
10 0 12 11.631 11.600 0.548 o
10 1 0 9.634 9.910 0.267 o
10 1 1 32.127 31.775 0.730 o
10 1 3 8.443 8.478 0.239 o
10 1 4 9.429 9.796 0.277 o
10 1 5 3.590 3.554 0.140 o
10 1 6 7.818 7.886 0.232 o
10 1 8 1.356 1.157 0.167 o
10 1 9 1.101 1.160 0.138 o
10 1 10 5.303 5.489 0.239 o
10 1 11 3.713 3.934 0.208 o
10 2 0 9.245 8.990 0.273 o
10 2 1 1.626 1.586 0.106 o
10 2 2 28.716 28.575 0.669 o
10 2 3 7.958 7.898 0.239 o
10 2 4 1.532 1.584 0.101 o
10 2 5 10.113 10.216 0.288 o
10 2 6 7.242 7.349 0.228 o
10 2 7 3.816 3.785 0.156 o
10 2 8 3.166 3.467 0.187 o
10 2 10 6.342 6.278 0.255 o
10 2 11 1.278 1.358 0.170 o
10 3 0 0.797 0.494 0.086 o
10 3 1 1.362 1.220 0.115 o
10 3 2 18.483 18.600 0.464 o
10 3 3 3.814 3.987 0.160 o
10 3 4 3.244 3.261 0.160 o
10 3 6 13.881 13.629 0.362 o
10 3 7 11.801 11.635 0.327 o
10 3 8 24.576 25.201 0.763 o
10 3 9 0.536 0.569 0.127 o
10 3 10 1.069 1.009 0.291 o
10 4 0 2.425 2.572 0.134 o
10 4 1 5.058 4.800 0.189 o
10 4 3 1.545 1.595 0.121 o
10 4 4 3.237 3.121 0.184 o
10 4 5 0.976 1.046 0.122 o
10 4 6 0.840 0.688 0.123 o
10 4 7 6.711 7.118 0.581 o
10 5 0 1.824 1.769 0.219 o
10 5 1 2.476 2.348 0.163 o
11 0 0 32.939 32.247 0.803 o
11 0 2 24.891 24.639 0.622 o
11 0 6 2.545 2.562 0.194 o
11 1 1 3.846 4.135 0.185 o
11 1 2 8.224 7.985 0.288 o
11 1 3 11.335 11.303 0.369 o
11 1 4 1.695 1.683 0.120 o
11 1 5 12.456 12.634 0.356 o
11 1 6 3.546 3.531 0.160 o
11 1 7 4.715 4.649 0.171 o
11 1 9 1.391 1.449 0.166 o
11 2 1 12.007 11.714 0.328 o
11 2 3 0.935 0.837 0.136 o
11 2 4 6.833 6.635 0.241 o
11 2 6 19.269 19.194 0.478 o
11 2 7 16.340 16.116 0.409 o
11 2 8 2.736 2.960 0.186 o
11 3 0 18.992 19.642 0.489 o
11 3 1 2.035 1.887 0.115 o
11 3 2 1.185 1.159 0.098 o
11 3 3 1.461 1.396 0.122 o
11 3 4 3.048 3.046 0.168 o
11 3 5 0.709 0.636 0.128 o
11 3 6 2.121 2.043 0.137 o
11 4 0 1.526 1.612 0.208 o
11 4 1 3.330 3.445 0.232 o
11 4 2 3.419 3.268 0.242 o
12 0 0 1.401 1.113 0.144 o
12 0 2 20.089 19.566 0.546 o
12 0 4 7.536 7.411 0.302 o
12 0 6 19.758 20.315 0.698 o
12 1 0 8.480 8.715 0.284 o
12 1 1 3.301 3.397 0.162 o
12 1 2 8.287 8.208 0.254 o
12 1 3 3.381 3.462 0.149 o
12 1 4 0.488 0.626 0.105 o
12 1 5 3.608 3.579 0.157 o
12 1 6 12.190 11.758 0.339 o
12 2 0 0.643 0.629 0.128 o
12 2 3 2.115 2.018 0.123 o
12 2 4 3.897 3.951 0.171 o
12 2 5 2.607 2.703 0.546 o
12 3 0 4.450 4.540 0.191 o
13 0 2 11.914 12.309 0.454 o
13 1 0 1.277 1.135 0.136 o
13 1 1 2.157 2.111 0.141 o
