#------------------------------------------------------------------------------
#$Date: 2016-02-21 11:56:54 +0200 (Sun, 21 Feb 2016) $
#$Revision: 176809 $
#$URL: svn://www.crystallography.net/cod/cif/2/31/01/2310117.cif $
#------------------------------------------------------------------------------
#
# This file is available in the Crystallography Open Database (COD),
# http://www.crystallography.net/
#
# All data on this site have been placed in the public domain by the
# contributors.
#
data_2310117
loop_
_publ_author_name
'Kami\'nski, Rados\/law'
'Domaga\/la, S\/lawomir'
'Jarzembska, Katarzyna N.'
'Hoser, Anna A.'
'Sanjuan-Szklarz, W. Fabiola'
'Gutmann, Matthias J.'
'Makal, Anna'
'Mali\'nska, Maura'
'Bak, Joanna M.'
'Wo\'zniak, Krzysztof'
_publ_section_title
;
 Statistical analysis of multipole-model-derived structural parameters and
 charge-density properties from high-resolution X-ray diffraction
 experiments
;
_journal_issue                   1
_journal_name_full               'Acta Crystallographica Section A'
_journal_page_first              72
_journal_page_last               91
_journal_paper_doi               10.1107/S2053273313028313
_journal_volume                  70
_journal_year                    2014
_chemical_formula_moiety         'C2 H2 O4, 2(H2 O1)'
_chemical_formula_sum            'C2 H6 O6'
_chemical_formula_weight         126.07
_space_group_IT_number           14
_symmetry_cell_setting           monoclinic
_symmetry_Int_Tables_number      14
_symmetry_space_group_name_Hall  '-P 2ybc'
_symmetry_space_group_name_H-M   'P 1 21/c 1'
_cell_angle_alpha                90.00
_cell_angle_beta                 103.935(2)
_cell_angle_gamma                90.00
_cell_formula_units_Z            2
_cell_length_a                   6.0909(3)
_cell_length_b                   3.4916(2)
_cell_length_c                   11.8401(6)
_cell_measurement_temperature    100(1)
_cell_volume                     244.39(2)
_diffrn_ambient_temperature      100(1)
_diffrn_measured_fraction_theta_full 0.985
_diffrn_measured_fraction_theta_max 0.973
_diffrn_measurement_device
;
Bruker AXS Kappa APEX II Ultra diffractometer
;
_diffrn_measurement_device_type  'APEX II CCD detector'
_diffrn_measurement_method       \w-scans
_diffrn_radiation_monochromator  'multi-layer optics'
_diffrn_radiation_source         'TXS rotating anode'
_diffrn_radiation_type           'Mo K\a'
_diffrn_radiation_wavelength     0.71073
_diffrn_reflns_av_R_equivalents  0.0258
_diffrn_reflns_av_sigmaI/netI    0.01679
_diffrn_reflns_limit_h_max       13
_diffrn_reflns_limit_h_min       -13
_diffrn_reflns_limit_k_max       8
_diffrn_reflns_limit_k_min       -7
_diffrn_reflns_limit_l_max       27
_diffrn_reflns_limit_l_min       -26
_diffrn_reflns_number            24801
_diffrn_reflns_theta_full        55.20
_diffrn_reflns_theta_max         55.925
_diffrn_reflns_theta_min         3.446
_exptl_absorpt_coefficient_mu    0.181
_exptl_absorpt_correction_T_max  0.969
_exptl_absorpt_correction_T_min  0.956
_exptl_absorpt_correction_type   multi-scan
_exptl_absorpt_process_details
;
 Absorption correction done by SORTAV
 Blessing, R. H.: (1995) Acta Cryst. A51, 33-38
;
_exptl_crystal_colour            colourless
_exptl_crystal_density_diffrn    1.7124
_exptl_crystal_description       unspecified
_exptl_crystal_F_000             132
_exptl_crystal_size_max          0.255
_exptl_crystal_size_mid          0.205
_exptl_crystal_size_min          0.190
_refine_diff_density_max         +0.20
_refine_diff_density_min         -0.22
_refine_ls_extinction_method     none
_refine_ls_goodness_of_fit_ref   1.222
_refine_ls_hydrogen_treatment    mixed
_refine_ls_number_parameters     177
_refine_ls_number_reflns         2720
_refine_ls_number_restraints     3
_refine_ls_R_factor_all          0.0128
_refine_ls_R_factor_gt           0.0128
_refine_ls_shift/su_max          0.001
_refine_ls_shift/su_mean         0.000
_refine_ls_structure_factor_coef F
_refine_ls_weighting_details
;
w=1/[\s^2^(Fo)]
;
_refine_ls_weighting_scheme      sigma
_refine_ls_wR_factor_gt          0.0183
_refine_ls_wR_factor_ref         0.0183
_reflns_number_gt                2720
_reflns_number_total             3154
_reflns_threshold_expression     I>3\s(I)
_iucr_refine_instructions_details
;
 Multipole refinement with MOPRO program
;
_cod_data_source_file            pc5031sup6.cif
_cod_data_source_block           oxa06
_cod_original_sg_symbol_H-M      'P 21/c'
_cod_database_code               2310117
loop_
_symmetry_equiv_pos_as_xyz
'x, y, z'
'-x, y+1/2, -z+1/2'
'-x, -y, -z'
'x, -y-1/2, z-1/2'
loop_
_atom_site_type_symbol
_atom_site_label
_atom_site_fract_x
_atom_site_fract_y
_atom_site_fract_z
_atom_site_U_iso_or_equiv
_atom_site_adp_type
_atom_site_occupancy
_atom_site_calc_flag
O O1 0.43485(3) 0.44404(6) 0.34988(1) 0.01310(6) Uani 1 d
O O2 0.24234(3) 0.74276(5) 0.46369(1) 0.01287(6) Uani 1 d
C C1 0.40314(2) 0.55880(3) 0.448013(1) 0.00942(5) Uani 1 d
H H1 0.307(2) 0.524(5) 0.2741(7) 0.02275 Uani 1 d
O O3 0.13007(3) 0.63133(5) 0.17858(1) 0.01272(6) Uani 1 d
H H2 0.187(2) 0.691(6) 0.1104(6) 0.02862 Uani 1 d
H H3 0.022(1) 0.424(2) 0.155(2) 0.02834 Uani 1 d
loop_
_atom_site_aniso_label
_atom_site_aniso_U_11
_atom_site_aniso_U_22
_atom_site_aniso_U_33
_atom_site_aniso_U_12
_atom_site_aniso_U_13
_atom_site_aniso_U_23
O1 0.01272(6) 0.01870(6) 0.00742(5) 0.00470(4) 0.00157(4) -0.00073(4)
O2 0.01094(5) 0.01773(6) 0.00933(5) 0.00541(4) 0.00122(4) -0.00068(4)
C1 0.00917(5) 0.01121(5) 0.00761(4) 0.00171(3) 0.00151(3) -0.00014(2)
H1 0.0213 0.0262 0.0206 0.0018 0.0046 0.0002
O3 0.01061(5) 0.01783(6) 0.00893(4) -0.00202(4) 0.00082(3) 0.00106(4)
H2 0.0257 0.0402 0.0212 -0.0038 0.0081 0.0037
H3 0.0218 0.0298 0.0329 -0.0069 0.0056 -0.0021
loop_
_atom_type_symbol
_atom_type_description
_atom_type_scat_dispersion_real
_atom_type_scat_dispersion_imag
_atom_type_scat_source
C C 0.0033 0.0016 'Su & Coppens, Acta. Cryst. (1997) A53, 749'
H H 0.0000 0.0000 'Su & Coppens, Acta. Cryst. (1997) A53, 749'
O O 0.0106 0.0060 'Su & Coppens, Acta. Cryst. (1997) A53, 749'
loop_
_geom_angle_atom_site_label_1
_geom_angle_atom_site_label_2
_geom_angle_atom_site_label_3
_geom_angle
O1 C1 O2 126.92(2)
C1 O1 H1 115.9(7)
H2 O3 H3 106(2)
loop_
_geom_bond_atom_site_label_1
_geom_bond_atom_site_label_2
_geom_bond_distance
O1 C1 1.2869(2)
O1 H1 1.074(1)
O2 C1 1.2222(2)
O3 H3 0.970(1)
O3 H2 0.974(1)
loop_
_geom_torsion_atom_site_label_1
_geom_torsion_atom_site_label_2
_geom_torsion_atom_site_label_3
_geom_torsion_atom_site_label_4
_geom_torsion
O2 C1 O1 H1 1.1(7)
loop_
_refln_index_h
_refln_index_k
_refln_index_l
_refln_F_squared_calc
_refln_F_squared_meas
_refln_F_squared_sigma
_refln_observed_status
-13 0 6 34.850 32.286 0.883 o
-13 0 8 3.497 3.329 0.350 o
-13 1 1 2.704 3.077 0.129 o
-13 1 2 14.649 14.758 0.417 o
-13 1 4 1.216 1.176 0.098 o
-13 1 5 9.973 9.830 0.273 o
-13 1 8 3.870 3.828 0.158 o
-13 1 10 3.435 3.438 0.163 o
-13 1 12 3.396 3.576 0.157 o
-13 2 1 4.149 3.977 0.330 o
-13 2 3 1.073 0.946 0.105 o
-13 2 4 0.871 0.930 0.088 o
-13 2 5 1.249 1.305 0.095 o
-13 2 6 0.512 0.456 0.079 o
-13 2 8 2.267 2.515 0.249 o
-13 2 9 1.372 1.422 0.329 o
-13 3 4 4.545 4.804 0.338 o
-13 3 5 2.459 2.262 0.288 o
-13 3 6 4.553 4.310 0.326 o
-13 3 7 2.449 2.669 0.293 o
-13 3 9 1.997 2.277 0.273 o
-12 0 2 9.023 8.820 0.265 o
-12 0 4 42.392 41.238 1.040 o
-12 0 6 4.270 5.286 0.183 o
-12 0 10 2.550 2.358 0.188 o
-12 0 12 8.893 8.971 0.294 o
-12 0 14 5.516 5.533 0.212 o
-12 1 1 1.953 1.972 0.094 o
-12 1 2 1.003 0.967 0.078 o
-12 1 5 19.234 19.142 0.493 o
-12 1 6 4.572 4.289 0.166 o
-12 1 7 1.610 1.563 0.117 o
-12 1 8 12.065 11.962 0.436 o
-12 1 9 11.538 11.205 0.322 o
-12 1 10 2.814 2.860 0.128 o
-12 1 11 1.019 0.964 0.077 o
-12 1 12 7.073 6.543 0.202 o
-12 1 13 0.801 0.729 0.070 o
-12 1 15 13.985 13.668 0.600 o
-12 1 16 1.836 1.891 0.304 o
-12 1 17 0.860 0.845 0.256 o
-12 2 1 13.271 12.970 0.303 o
-12 2 2 5.347 5.255 0.152 o
-12 2 5 8.069 8.138 0.217 o
-12 2 6 0.246 0.275 0.067 o
-12 2 7 3.478 3.489 0.125 o
-12 2 8 4.552 4.497 0.138 o
-12 2 9 4.125 4.168 0.150 o
-12 2 11 8.833 8.712 0.247 o
-12 2 12 1.072 0.980 0.075 o
-12 2 13 5.170 5.293 0.208 o
-12 2 14 0.362 0.327 0.081 o
-12 3 1 1.572 1.442 0.379 o
-12 3 2 0.481 0.476 0.101 o
-12 3 3 3.372 3.430 0.140 o
-12 3 6 0.861 0.976 0.074 o
-12 3 7 1.327 1.398 0.119 o
-12 3 11 1.735 1.742 0.159 o
-12 3 12 0.464 0.562 0.079 o
-12 4 2 1.091 0.869 0.221 o
-12 4 3 1.998 1.778 0.279 o
-12 4 4 1.663 1.639 0.259 o
-12 4 5 2.441 2.177 0.290 o
-12 4 6 5.670 5.231 0.366 o
-12 4 9 1.421 1.345 0.238 o
-12 4 11 1.647 1.286 0.227 o
-11 0 2 3.706 3.692 0.155 o
-11 0 4 9.438 9.750 0.251 o
-11 0 6 0.643 0.373 0.109 o
-11 0 8 87.219 86.834 3.312 o
-11 0 10 8.076 7.823 0.231 o
-11 0 12 2.660 2.654 0.124 o
-11 0 14 34.608 34.792 0.872 o
-11 0 16 1.458 1.264 0.144 o
-11 0 18 12.404 12.289 0.561 o
-11 1 2 5.786 5.721 0.160 o
-11 1 3 13.817 14.282 0.333 o
-11 1 4 36.075 36.781 0.805 o
-11 1 5 2.090 2.075 0.088 o
-11 1 6 0.222 0.199 0.047 o
-11 1 7 1.448 1.607 0.101 o
-11 1 8 1.349 1.223 0.090 o
-11 1 9 6.134 6.036 0.170 o
-11 1 10 3.817 3.732 0.133 o
-11 1 11 4.350 4.238 0.143 o
-11 1 12 13.579 13.249 0.367 o
-11 1 13 0.422 0.478 0.068 o
-11 1 14 6.407 6.320 0.192 o
-11 1 15 6.086 6.003 0.202 o
-11 1 16 2.580 2.605 0.175 o
-11 1 18 9.606 9.611 0.488 o
-11 1 19 11.549 11.717 0.554 o
-11 2 1 2.690 2.747 0.110 o
-11 2 2 0.296 0.315 0.058 o
-11 2 3 1.301 1.366 0.077 o
-11 2 4 10.850 10.828 0.280 o
-11 2 5 2.129 2.173 0.106 o
-11 2 6 6.210 6.303 0.176 o
-11 2 7 8.261 8.218 0.225 o
-11 2 10 1.051 1.003 0.107 o
-11 2 11 2.262 2.142 0.111 o
-11 2 12 2.621 2.462 0.122 o
-11 2 13 0.523 0.526 0.080 o
-11 2 14 1.416 1.322 0.095 o
-11 2 15 10.535 9.604 0.273 o
-11 2 17 0.791 0.681 0.203 o
-11 2 18 2.474 2.275 0.325 o
-11 2 19 1.013 0.865 0.260 o
-11 3 1 1.032 0.917 0.103 o
-11 3 2 3.336 3.276 0.139 o
-11 3 3 0.372 0.328 0.058 o
-11 3 4 4.560 4.569 0.139 o
-11 3 5 6.394 6.585 0.175 o
-11 3 6 2.948 2.929 0.106 o
-11 3 7 3.747 3.588 0.117 o
-11 3 9 1.320 1.326 0.103 o
-11 3 10 12.358 12.258 0.304 o
-11 3 11 4.106 4.225 0.132 o
-11 3 12 1.136 1.109 0.093 o
-11 3 13 2.699 2.647 0.109 o
-11 3 14 0.466 0.395 0.060 o
-11 3 16 3.820 3.250 0.354 o
-11 3 17 4.722 4.595 0.378 o
-11 4 1 1.308 1.408 0.120 o
-11 4 2 2.950 2.876 0.116 o
-11 4 3 5.710 5.599 0.171 o
-11 4 6 6.956 7.054 0.184 o
-11 4 7 0.417 0.443 0.056 o
-11 4 9 2.450 2.528 0.134 o
-11 4 10 3.755 3.562 0.211 o
-11 4 12 3.442 3.210 0.172 o
-11 4 13 5.993 5.866 0.337 o
-11 5 2 6.572 6.131 0.359 o
-11 5 4 3.556 3.712 0.319 o
-11 5 6 3.596 3.160 0.312 o
-11 5 8 1.226 1.196 0.226 o
-10 0 4 8.602 8.980 0.235 o
-10 0 6 12.244 12.588 0.304 o
-10 0 8 17.491 17.114 0.404 o
-10 0 10 12.214 12.469 0.311 o
-10 0 12 11.765 11.597 0.302 o
-10 0 14 0.847 0.823 0.095 o
-10 0 16 3.011 2.974 0.218 o
-10 0 18 63.715 64.215 1.365 o
-10 0 20 1.841 1.953 0.175 o
-10 0 22 1.315 1.119 0.155 o
-10 1 1 3.422 3.390 0.137 o
-10 1 2 0.523 0.533 0.044 o
-10 1 3 2.192 2.196 0.081 o
-10 1 4 0.721 0.694 0.053 o
-10 1 5 9.669 9.606 0.234 o
-10 1 7 47.382 47.128 1.042 o
-10 1 8 19.995 20.229 0.460 o
-10 1 9 10.113 9.873 0.244 o
-10 1 10 6.262 6.518 0.208 o
-10 1 11 1.902 1.911 0.094 o
-10 1 12 3.894 4.035 0.131 o
-10 1 13 11.605 11.884 0.287 o
-10 1 14 18.264 18.029 0.444 o
-10 1 16 0.970 0.994 0.081 o
-10 1 17 15.300 15.630 0.376 o
-10 1 18 2.409 2.417 0.114 o
-10 1 19 1.901 2.141 0.131 o
-10 1 21 0.543 0.543 0.129 o
-10 2 1 0.540 0.462 0.079 o
-10 2 2 11.081 11.224 0.275 o
-10 2 3 49.000 50.190 1.077 o
-10 2 4 28.355 28.698 0.642 o
-10 2 7 1.327 1.292 0.109 o
-10 2 8 9.003 9.035 0.234 o
-10 2 9 13.558 13.500 0.323 o
-10 2 10 0.814 0.754 0.059 o
-10 2 11 11.880 12.058 0.283 o
-10 2 12 5.064 5.056 0.146 o
-10 2 13 11.530 11.845 0.285 o
-10 2 14 13.764 13.986 0.347 o
-10 2 16 0.715 0.703 0.069 o
-10 2 17 3.857 3.872 0.136 o
-10 2 18 0.616 0.620 0.080 o
-10 2 20 0.348 0.343 0.081 o
-10 2 21 1.083 0.887 0.250 o
-10 3 1 2.542 2.607 0.109 o
-10 3 2 8.031 8.212 0.227 o
-10 3 3 3.610 3.800 0.123 o
-10 3 4 10.347 10.535 0.258 o
-10 3 6 11.040 10.968 0.268 o
-10 3 7 0.558 0.449 0.061 o
-10 3 8 5.891 5.914 0.175 o
-10 3 9 0.947 0.848 0.083 o
-10 3 10 7.843 7.629 0.225 o
-10 3 13 0.295 0.294 0.059 o
-10 3 14 8.358 8.221 0.244 o
-10 3 15 2.680 2.829 0.123 o
-10 3 17 1.606 1.410 0.149 o
-10 3 19 0.910 0.857 0.118 o
-10 3 20 7.329 6.766 0.469 o
-10 4 2 10.553 10.560 0.252 o
-10 4 3 6.338 6.397 0.288 o
-10 4 4 0.309 0.254 0.055 o
-10 4 5 1.104 1.083 0.088 o
-10 4 6 3.560 3.445 0.137 o
-10 4 8 3.301 3.125 0.113 o
-10 4 9 3.145 3.061 0.139 o
-10 4 10 7.353 7.488 0.261 o
-10 4 13 8.023 7.531 0.209 o
-10 4 16 11.070 10.791 0.277 o
-10 4 17 0.854 0.855 0.268 o
-10 5 2 7.101 7.139 0.180 o
-10 5 3 0.132 0.165 0.052 o
-10 5 4 2.326 2.225 0.111 o
-10 5 5 3.008 2.922 0.103 o
-10 5 6 6.120 6.069 0.210 o
-10 5 8 0.243 0.313 0.072 o
-10 5 10 0.749 0.708 0.072 o
-10 5 11 1.312 0.988 0.190 o
-10 5 12 15.031 15.289 0.553 o
-10 5 14 0.942 0.716 0.204 o
-9 0 2 4.236 4.148 0.124 o
-9 0 4 57.057 57.877 1.264 o
-9 0 6 24.789 25.106 0.588 o
-9 0 8 4.444 4.317 0.141 o
-9 0 10 52.399 52.902 1.131 o
-9 0 14 1.942 2.110 0.099 o
-9 0 16 21.627 22.331 0.581 o
-9 0 18 0.298 0.381 0.071 o
-9 0 20 1.010 1.073 0.101 o
-9 0 22 7.102 6.873 0.225 o
-9 0 24 4.225 4.373 0.399 o
-9 1 1 0.468 0.449 0.040 o
-9 1 2 1.392 1.385 0.059 o
-9 1 3 0.117 0.099 0.032 o
-9 1 4 10.367 10.160 0.247 o
-9 1 5 3.126 3.237 0.096 o
-9 1 6 22.377 22.482 0.504 o
-9 1 7 17.089 17.504 0.394 o
-9 1 8 4.836 4.907 0.148 o
-9 1 9 17.707 17.490 0.394 o
-9 1 10 1.159 1.196 0.063 o
-9 1 11 6.652 6.591 0.170 o
-9 1 13 0.344 0.330 0.039 o
-9 1 14 13.831 14.178 0.328 o
-9 1 15 0.549 0.532 0.051 o
-9 1 16 2.628 2.573 0.109 o
-9 1 17 36.765 36.359 0.873 o
-9 1 18 6.922 7.020 0.197 o
-9 1 19 2.826 2.760 0.104 o
-9 1 20 4.410 4.584 0.145 o
-9 1 21 7.078 7.174 0.244 o
-9 1 23 2.298 2.256 0.144 o
-9 2 1 4.783 4.665 0.139 o
-9 2 3 0.711 0.718 0.058 o
-9 2 4 0.319 0.284 0.040 o
-9 2 5 6.287 6.238 0.167 o
-9 2 6 34.309 34.360 0.769 o
-9 2 7 10.167 10.181 0.262 o
-9 2 8 56.099 55.981 1.304 o
-9 2 9 1.369 1.498 0.075 o
-9 2 10 5.390 5.444 0.165 o
-9 2 12 3.215 3.314 0.105 o
-9 2 13 32.110 31.784 0.716 o
-9 2 14 4.887 4.988 0.143 o
-9 2 15 0.484 0.418 0.058 o
-9 2 16 9.978 9.850 0.252 o
-9 2 17 8.473 8.675 0.222 o
-9 2 18 14.933 15.210 0.420 o
-9 2 19 4.070 4.026 0.138 o
-9 2 20 0.440 0.277 0.067 o
-9 2 21 7.523 7.558 0.200 o
-9 2 22 2.961 2.939 0.174 o
-9 3 1 2.802 2.664 0.117 o
-9 3 2 84.708 83.869 1.822 o
-9 3 3 12.825 13.232 0.328 o
-9 3 4 21.691 21.389 0.483 o
-9 3 6 1.052 1.076 0.060 o
-9 3 7 20.225 20.230 0.494 o
-9 3 8 6.757 6.656 0.196 o
-9 3 9 1.466 1.654 0.083 o
-9 3 10 5.027 5.175 0.146 o
-9 3 11 1.137 1.117 0.070 o
-9 3 12 42.121 43.104 0.936 o
-9 3 13 6.891 7.081 0.184 o
-9 3 14 6.230 6.322 0.195 o
-9 3 15 2.556 2.934 0.107 o
-9 3 16 3.135 3.103 0.116 o
-9 3 18 2.874 2.915 0.122 o
-9 3 22 2.547 2.318 0.402 o
-9 4 1 11.604 12.012 0.297 o
-9 4 2 3.796 3.742 0.116 o
-9 4 3 21.124 20.932 0.467 o
-9 4 4 0.309 0.238 0.048 o
-9 4 6 7.937 8.055 0.203 o
-9 4 7 0.887 0.980 0.072 o
-9 4 8 4.404 4.217 0.135 o
-9 4 9 1.710 1.616 0.090 o
-9 4 10 0.603 0.493 0.159 o
-9 4 11 5.721 5.791 0.173 o
-9 4 12 6.151 6.053 0.180 o
-9 4 13 7.477 7.509 0.196 o
-9 4 14 0.278 0.329 0.065 o
-9 4 18 0.317 0.260 0.072 o
-9 4 20 5.931 6.034 0.461 o
-9 5 1 1.568 1.575 0.110 o
-9 5 3 0.132 0.172 0.054 o
-9 5 6 0.842 0.835 0.068 o
-9 5 8 0.600 0.601 0.060 o
-9 5 9 3.661 3.693 0.139 o
-9 5 10 0.880 0.847 0.081 o
-9 5 12 3.254 3.050 0.161 o
-9 5 15 2.380 2.159 0.326 o
-9 5 16 8.905 8.972 0.461 o
-9 6 1 1.690 1.658 0.107 o
-9 6 2 0.314 0.280 0.089 o
-9 6 3 4.148 4.171 0.164 o
-9 6 4 0.300 0.250 0.061 o
-9 6 5 3.555 3.701 0.137 o
-9 6 6 0.697 0.945 0.084 o
-9 6 10 0.987 0.816 0.211 o
-8 0 2 3.666 3.565 0.119 o
-8 0 4 4.203 4.258 0.130 o
-8 0 8 50.428 49.993 1.133 o
-8 0 10 6.636 6.606 0.168 o
-8 0 12 3.104 3.151 0.101 o
-8 0 14 44.630 44.875 0.970 o
-8 0 16 12.164 12.556 0.305 o
-8 0 18 2.430 2.461 0.117 o
-8 0 20 42.352 43.628 1.118 o
-8 0 22 0.319 0.324 0.078 o
-8 1 1 29.686 29.547 0.656 o
-8 1 3 19.282 19.023 0.433 o
-8 1 4 29.987 29.695 0.677 o
-8 1 5 22.772 22.871 0.509 o
-8 1 6 1.654 1.749 0.063 o
-8 1 7 56.440 56.282 1.234 o
-8 1 8 5.876 5.983 0.149 o
-8 1 9 13.753 13.907 0.324 o
-8 1 10 36.855 36.509 0.813 o
-8 1 11 1.722 1.643 0.056 o
-8 1 12 1.874 1.827 0.084 o
-8 1 14 0.495 0.525 0.044 o
-8 1 15 16.343 16.359 0.373 o
-8 1 16 8.769 8.895 0.219 o
-8 1 17 7.127 7.174 0.185 o
-8 1 18 10.668 10.523 0.253 o
-8 1 20 1.117 1.155 0.063 o
-8 1 21 4.262 4.305 0.130 o
-8 1 23 1.071 0.905 0.085 o
-8 1 24 9.383 9.432 0.296 o
-8 2 1 39.729 39.183 0.885 o
-8 2 2 16.354 16.315 0.372 o
-8 2 3 7.029 6.985 0.174 o
-8 2 4 16.239 16.023 0.390 o
-8 2 5 34.113 33.979 0.758 o
-8 2 6 57.767 58.069 1.308 o
-8 2 7 6.483 6.350 0.160 o
-8 2 8 6.816 6.785 0.167 o
-8 2 9 1.407 1.370 0.062 o
-8 2 10 11.291 11.291 0.262 o
-8 2 11 20.477 20.232 0.454 o
-8 2 12 8.262 8.165 0.202 o
-8 2 13 2.070 2.102 0.076 o
-8 2 14 11.619 11.891 0.288 o
-8 2 15 0.142 0.156 0.046 o
-8 2 16 38.008 38.733 0.842 o
-8 2 17 2.104 2.060 0.087 o
-8 2 18 14.224 14.401 0.345 o
-8 2 19 3.812 3.889 0.122 o
-8 2 20 0.470 0.358 0.060 o
-8 2 22 0.216 0.227 0.060 o
-8 2 23 3.064 2.873 0.168 o
-8 3 1 0.248 0.250 0.035 o
-8 3 2 8.499 8.293 0.232 o
-8 3 3 6.957 7.126 0.175 o
-8 3 5 0.908 0.916 0.052 o
-8 3 6 33.966 33.642 0.764 o
-8 3 7 10.728 10.637 0.297 o
-8 3 8 22.498 22.153 0.496 o
-8 3 9 5.481 5.401 0.143 o
-8 3 10 9.578 9.984 0.239 o
-8 3 11 6.144 6.249 0.162 o
-8 3 12 51.854 51.526 1.228 o
-8 3 13 1.663 1.748 0.081 o
-8 3 14 1.444 1.287 0.061 o
-8 3 15 0.510 0.508 0.063 o
-8 3 16 18.027 18.018 0.436 o
-8 3 17 16.905 17.016 0.388 o
-8 3 19 1.117 1.168 0.079 o
-8 3 20 8.211 8.348 0.217 o
-8 3 22 24.938 24.335 1.005 o
-8 3 23 3.035 3.205 0.375 o
-8 4 1 21.536 21.859 0.500 o
-8 4 2 20.157 19.971 0.458 o
-8 4 3 16.113 15.961 0.376 o
-8 4 4 11.393 11.003 0.261 o
-8 4 5 3.066 3.015 0.145 o
-8 4 6 4.824 4.719 0.133 o
-8 4 7 2.980 2.985 0.102 o
-8 4 8 4.455 4.379 0.138 o
-8 4 10 0.325 0.335 0.047 o
-8 4 11 22.973 23.237 0.516 o
-8 4 12 17.677 17.628 0.416 o
-8 4 13 11.227 11.480 0.281 o
-8 4 15 3.024 3.059 0.124 o
-8 4 16 2.763 2.715 0.102 o
-8 4 18 5.171 5.205 0.155 o
-8 5 1 4.837 4.733 0.139 o
-8 5 2 27.233 27.902 0.642 o
-8 5 4 0.141 0.165 0.045 o
-8 5 5 1.375 1.563 0.071 o
-8 5 6 0.459 0.543 0.058 o
-8 5 7 4.886 4.672 0.143 o
-8 5 8 8.083 8.468 0.243 o
-8 5 10 2.367 2.441 0.110 o
-8 5 12 0.936 0.887 0.067 o
-8 5 14 0.611 0.592 0.066 o
-8 5 15 0.682 0.745 0.081 o
-8 6 1 0.333 0.260 0.058 o
-8 6 2 0.647 0.629 0.060 o
-8 6 3 0.329 0.265 0.055 o
-8 6 4 0.722 0.639 0.060 o
-8 6 6 0.413 0.510 0.058 o
-8 6 7 1.246 1.294 0.116 o
-8 6 8 0.475 0.443 0.070 o
-8 6 9 0.297 0.317 0.078 o
-7 0 2 14.741 14.403 0.330 o
-7 0 4 40.704 40.102 0.908 o
-7 0 6 258.585 257.760 6.135 o
-7 0 8 0.275 0.258 0.036 o
-7 0 10 1.394 1.339 0.063 o
-7 0 12 5.758 5.750 0.149 o
-7 0 14 10.910 12.411 0.290 o
-7 0 16 7.514 7.294 0.192 o
-7 0 18 7.748 7.599 0.209 o
-7 0 20 0.575 0.509 0.081 o
-7 0 22 0.494 0.440 0.087 o
-7 0 24 8.149 8.181 0.232 o
-7 0 26 2.078 1.680 0.323 o
-7 1 1 18.016 18.071 0.430 o
-7 1 2 87.897 87.778 1.944 o
-7 1 3 3.840 3.844 0.102 o
-7 1 4 0.384 0.412 0.030 o
-7 1 5 2.238 2.294 0.083 o
-7 1 6 19.632 19.302 0.432 o
-7 1 7 53.102 52.576 1.155 o
-7 1 9 10.520 10.586 0.241 o
-7 1 10 30.094 29.819 0.660 o
-7 1 11 47.255 46.872 1.032 o
-7 1 12 2.954 2.934 0.082 o
-7 1 13 9.597 9.600 0.224 o
-7 1 14 15.578 15.642 0.372 o
-7 1 15 13.757 13.915 0.323 o
-7 1 16 5.925 6.007 0.170 o
-7 1 17 22.953 23.283 0.545 o
-7 1 18 0.209 0.189 0.043 o
-7 1 19 27.168 27.057 0.653 o
-7 1 20 4.503 4.542 0.147 o
-7 1 21 3.062 3.172 0.108 o
-7 1 22 1.425 1.259 0.079 o
-7 1 23 1.016 0.967 0.133 o
-7 1 24 0.807 0.743 0.074 o
-7 1 25 8.074 7.870 0.292 o
-7 1 26 0.694 0.790 0.128 o
-7 2 2 0.323 0.317 0.032 o
-7 2 3 23.502 22.911 0.528 o
-7 2 4 3.473 3.375 0.097 o
-7 2 5 10.107 10.037 0.243 o
-7 2 6 2.283 2.258 0.074 o
-7 2 7 19.886 19.767 0.446 o
-7 2 8 16.926 16.531 0.373 o
-7 2 9 17.707 16.983 0.382 o
-7 2 10 80.395 79.709 1.746 o
-7 2 11 22.911 22.945 0.512 o
-7 2 12 7.827 8.222 0.202 o
-7 2 13 5.331 5.293 0.132 o
-7 2 14 3.560 3.569 0.110 o
-7 2 15 42.552 42.409 0.964 o
-7 2 16 12.597 12.985 0.323 o
-7 2 17 2.104 2.148 0.096 o
-7 2 18 4.887 4.926 0.142 o
-7 2 19 0.250 0.260 0.052 o
-7 2 20 23.859 24.467 0.575 o
-7 2 21 12.813 12.947 0.330 o
-7 2 22 4.701 4.533 0.146 o
-7 2 23 4.045 3.976 0.152 o
-7 2 24 5.043 5.114 0.188 o
-7 2 25 2.665 2.620 0.404 o
-7 3 1 2.035 1.955 0.078 o
-7 3 2 1.894 1.870 0.072 o
-7 3 3 2.155 2.065 0.091 o
-7 3 4 77.299 76.504 1.689 o
-7 3 5 35.162 34.696 0.789 o
-7 3 6 16.385 16.191 0.374 o
-7 3 9 9.797 9.690 0.239 o
-7 3 10 11.541 11.364 0.263 o
-7 3 11 0.265 0.237 0.033 o
-7 3 12 1.031 0.949 0.048 o
-7 3 13 7.663 7.830 0.202 o
-7 3 14 23.322 23.641 0.529 o
-7 3 15 4.907 4.830 0.131 o
-7 3 16 23.007 23.191 0.557 o
-7 3 17 0.201 0.266 0.051 o
-7 3 18 10.310 10.123 0.265 o
-7 3 20 2.744 2.857 0.117 o
-7 3 21 2.816 2.911 0.127 o
-7 3 22 2.972 2.897 0.167 o
-7 4 1 21.524 21.968 0.496 o
-7 4 2 6.572 6.964 0.170 o
-7 4 3 0.589 0.642 0.048 o
-7 4 4 2.118 2.035 0.086 o
-7 4 5 23.577 23.352 0.521 o
-7 4 6 4.372 4.416 0.135 o
-7 4 7 4.646 4.570 0.129 o
-7 4 8 26.701 26.702 0.629 o
-7 4 9 5.508 5.541 0.151 o
-7 4 10 0.235 0.199 0.044 o
-7 4 11 14.597 14.915 0.368 o
-7 4 12 3.660 3.717 0.114 o
-7 4 14 3.432 3.538 0.113 o
-7 4 15 12.812 12.645 0.323 o
-7 4 16 9.894 10.284 0.250 o
-7 4 17 3.720 3.727 0.136 o
-7 4 19 0.731 0.775 0.082 o
-7 4 21 8.117 7.949 0.447 o
-7 4 22 10.196 10.285 0.512 o
-7 5 1 4.012 4.015 0.121 o
-7 5 2 19.741 20.074 0.449 o
-7 5 3 3.674 3.556 0.107 o
-7 5 4 1.841 1.840 0.078 o
-7 5 5 0.979 0.996 0.062 o
-7 5 6 7.919 8.113 0.208 o
-7 5 7 0.642 0.566 0.054 o
-7 5 10 5.421 5.575 0.175 o
-7 5 11 9.584 9.749 0.243 o
-7 5 12 25.579 26.037 0.614 o
-7 5 14 1.211 1.339 0.075 o
-7 5 16 0.209 0.237 0.064 o
-7 5 17 2.587 2.666 0.139 o
-7 5 18 3.907 3.836 0.184 o
-7 6 1 16.438 16.517 0.401 o
-7 6 2 3.132 3.074 0.107 o
-7 6 4 0.675 0.564 0.092 o
-7 6 5 1.263 1.118 0.059 o
-7 6 6 6.252 6.194 0.164 o
-7 6 7 2.491 2.262 0.097 o
-7 6 8 4.462 4.510 0.190 o
-7 6 9 2.153 2.223 0.121 o
-7 6 10 0.405 0.394 0.062 o
-7 6 11 1.874 1.879 0.103 o
-7 7 4 0.732 0.777 0.106 o
-6 0 2 184.218 183.608 4.519 o
-6 0 4 3.173 2.887 0.124 o
-6 0 6 167.056 168.071 3.778 o
-6 0 8 1.126 1.125 0.068 o
-6 0 10 295.377 296.426 6.319 o
-6 0 14 26.454 26.682 0.588 o
-6 0 16 132.121 134.627 2.921 o
-6 0 18 15.537 15.881 0.366 o
-6 0 20 10.139 10.178 0.268 o
-6 0 22 2.728 3.059 0.156 o
-6 0 24 13.255 13.319 0.348 o
-6 0 26 4.830 5.000 0.418 o
-6 1 1 1.332 1.416 0.057 o
-6 1 2 6.895 6.758 0.166 o
-6 1 3 1.148 1.221 0.057 o
-6 1 4 32.073 32.490 0.724 o
-6 1 5 97.787 96.629 2.151 o
-6 1 6 155.640 155.252 3.452 o
-6 1 7 2.708 2.779 0.080 o
-6 1 8 3.057 3.152 0.089 o
-6 1 9 45.118 44.852 0.989 o
-6 1 10 51.730 51.322 1.129 o
-6 1 11 3.995 4.128 0.108 o
-6 1 12 43.142 43.302 0.954 o
-6 1 13 5.039 4.948 0.123 o
-6 1 14 22.913 22.620 0.505 o
-6 1 15 3.700 3.705 0.102 o
-6 1 16 0.683 0.582 0.043 o
-6 1 17 1.046 1.058 0.053 o
-6 1 18 0.729 0.714 0.049 o
-6 1 19 12.162 12.140 0.284 o
-6 1 20 28.569 28.506 0.660 o
-6 1 21 13.276 13.039 0.311 o
-6 1 22 1.440 1.398 0.100 o
-6 1 23 2.189 2.205 0.106 o
-6 1 24 0.283 0.239 0.068 o
-6 1 25 1.364 1.301 0.090 o
-6 1 26 1.643 1.479 0.141 o
-6 2 1 71.986 70.246 1.547 o
-6 2 2 39.903 39.808 0.893 o
-6 2 3 61.805 61.011 1.339 o
-6 2 4 5.526 5.473 0.134 o
-6 2 5 4.316 4.290 0.108 o
-6 2 6 1.062 1.169 0.049 o
-6 2 7 0.217 0.250 0.022 o
-6 2 8 13.548 13.537 0.310 o
-6 2 9 32.408 31.982 0.708 o
-6 2 10 9.922 9.766 0.224 o
-6 2 11 0.241 0.203 0.026 o
-6 2 12 9.344 9.161 0.219 o
-6 2 13 0.240 0.198 0.027 o
-6 2 14 6.646 6.686 0.163 o
-6 2 15 2.854 2.926 0.087 o
-6 2 16 0.361 0.375 0.042 o
-6 2 17 9.688 9.785 0.265 o
-6 2 18 19.715 19.887 0.449 o
-6 2 19 2.631 2.542 0.093 o
-6 2 20 21.368 21.396 0.480 o
-6 2 21 1.661 1.436 0.085 o
-6 2 23 0.577 0.707 0.091 o
-6 2 24 0.213 0.277 0.060 o
-6 2 25 12.969 12.499 0.300 o
-6 3 1 13.274 13.152 0.306 o
-6 3 2 12.031 11.766 0.270 o
-6 3 3 1.429 1.715 0.060 o
-6 3 4 4.514 4.580 0.116 o
-6 3 5 0.665 0.660 0.034 o
-6 3 6 6.390 6.875 0.163 o
-6 3 7 7.855 7.570 0.194 o
-6 3 8 41.394 40.111 0.887 o
-6 3 9 32.973 32.024 0.718 o
-6 3 10 0.555 0.538 0.035 o
-6 3 11 4.371 4.485 0.122 o
-6 3 12 0.430 0.791 0.040 o
-6 3 13 6.802 6.950 0.169 o
-6 3 14 56.963 56.601 1.252 o
-6 3 15 13.028 13.155 0.304 o
-6 3 16 1.892 1.896 0.071 o
-6 3 17 0.651 0.655 0.055 o
-6 3 18 8.786 8.709 0.230 o
-6 3 19 15.714 16.509 0.403 o
-6 3 20 1.048 0.931 0.076 o
-6 3 21 0.438 0.435 0.065 o
-6 3 22 5.075 5.124 0.169 o
-6 3 23 1.000 0.906 0.087 o
-6 3 24 19.176 19.684 0.658 o
-6 4 1 7.863 7.927 0.191 o
-6 4 3 7.314 7.222 0.180 o
-6 4 4 43.499 42.315 0.926 o
-6 4 5 39.912 39.776 0.999 o
-6 4 6 1.975 1.910 0.075 o
-6 4 8 6.939 7.012 0.193 o
-6 4 9 0.105 0.150 0.034 o
-6 4 10 1.956 1.850 0.074 o
-6 4 11 6.913 6.881 0.193 o
-6 4 12 11.764 11.902 0.287 o
-6 4 13 14.050 14.253 0.351 o
-6 4 14 14.118 14.311 0.339 o
-6 4 15 23.247 23.634 0.652 o
-6 4 16 0.534 0.558 0.062 o
-6 4 18 6.874 6.619 0.196 o
-6 4 19 1.053 1.078 0.083 o
-6 4 21 1.467 1.407 0.143 o
-6 4 22 0.541 0.477 0.116 o
-6 5 2 0.645 0.717 0.052 o
-6 5 3 1.202 1.210 0.060 o
-6 5 4 37.564 37.368 0.907 o
-6 5 6 6.878 6.748 0.177 o
-6 5 7 2.752 2.696 0.098 o
-6 5 8 16.354 16.575 0.458 o
-6 5 9 1.440 1.490 0.069 o
-6 5 10 15.481 15.332 0.418 o
-6 5 11 0.562 0.567 0.050 o
-6 5 12 0.257 0.229 0.049 o
-6 5 13 0.630 0.708 0.061 o
-6 5 14 2.366 2.247 0.105 o
-6 5 15 1.461 1.577 0.081 o
-6 5 16 8.030 8.354 0.225 o
-6 5 17 0.262 0.350 0.075 o
-6 5 18 1.530 1.371 0.176 o
-6 5 20 2.562 2.417 0.390 o
-6 6 1 1.814 1.721 0.089 o
-6 6 2 4.390 4.319 0.127 o
-6 6 3 0.397 0.452 0.057 o
-6 6 4 3.190 3.222 0.101 o
-6 6 5 9.490 9.772 0.243 o
-6 6 6 1.053 1.436 0.081 o
-6 6 7 0.802 0.718 0.067 o
-6 6 8 0.477 0.533 0.064 o
-6 6 10 5.261 5.280 0.147 o
-6 6 11 10.385 10.515 0.279 o
-6 6 12 4.484 4.669 0.143 o
-6 6 13 0.770 0.841 0.079 o
-6 6 14 0.897 0.975 0.117 o
-6 6 15 3.787 3.611 0.386 o
-6 6 16 2.173 2.360 0.377 o
-6 7 1 5.972 5.931 0.296 o
-6 7 3 0.333 0.189 0.060 o
-6 7 4 0.487 0.374 0.079 o
-6 7 5 0.448 0.409 0.086 o
-6 7 6 1.302 1.137 0.093 o
-6 7 7 2.737 2.740 0.140 o
-6 7 9 2.662 2.739 0.290 o
-5 0 2 92.113 91.035 2.016 o
-5 0 4 18.682 18.224 0.505 o
-5 0 6 118.297 119.165 2.809 o
-5 0 8 290.087 289.980 6.441 o
-5 0 10 102.804 103.641 2.197 o
-5 0 12 45.216 45.468 0.992 o
-5 0 14 0.634 0.620 0.045 o
-5 0 16 0.163 0.156 0.049 o
-5 0 18 27.590 27.172 0.678 o
-5 0 20 102.106 103.833 2.142 o
-5 0 24 0.597 0.396 0.088 o
-5 0 26 14.541 15.023 0.601 o
-5 1 1 58.179 56.927 1.388 o
-5 1 2 257.256 262.053 5.879 o
-5 1 3 51.194 51.169 1.141 o
-5 1 4 94.380 96.418 2.139 o
-5 1 5 31.233 31.058 0.731 o
-5 1 6 3.967 4.168 0.123 o
-5 1 7 0.990 0.994 0.047 o
-5 1 8 17.523 17.458 0.407 o
-5 1 9 271.804 270.523 5.993 o
-5 1 10 26.897 26.551 0.607 o
-5 1 11 0.192 0.184 0.020 o
-5 1 12 25.571 25.356 0.563 o
-5 1 13 9.350 9.121 0.220 o
-5 1 14 26.824 26.653 0.593 o
-5 1 15 40.641 40.748 0.898 o
-5 1 16 56.043 56.588 1.248 o
-5 1 17 16.654 16.718 0.380 o
-5 1 18 0.572 0.603 0.042 o
-5 1 19 42.166 42.523 0.951 o
-5 1 20 0.590 0.591 0.050 o
-5 1 21 1.007 0.919 0.061 o
-5 1 22 1.447 1.468 0.074 o
-5 1 23 0.258 0.171 0.052 o
-5 1 24 16.642 15.832 0.367 o
-5 1 25 1.086 1.017 0.116 o
-5 1 26 2.978 2.963 0.176 o
-5 1 27 2.471 2.304 0.252 o
-5 2 1 9.393 9.543 0.233 o
-5 2 2 0.604 0.637 0.046 o
-5 2 3 4.303 4.473 0.122 o
-5 2 4 28.834 28.642 0.654 o
-5 2 5 180.471 178.243 3.917 o
-5 2 6 82.966 81.381 1.795 o
-5 2 7 21.853 21.954 0.490 o
-5 2 8 2.033 2.028 0.063 o
-5 2 9 0.156 0.152 0.022 o
-5 2 11 41.509 40.877 0.902 o
-5 2 12 25.073 24.672 0.555 o
-5 2 13 75.323 74.785 1.654 o
-5 2 14 0.752 0.742 0.038 o
-5 2 15 12.547 12.359 0.283 o
-5 2 16 3.462 3.366 0.109 o
-5 2 17 8.095 7.919 0.197 o
-5 2 18 5.023 5.091 0.137 o
-5 2 19 11.616 11.861 0.278 o
-5 2 21 0.237 0.258 0.049 o
-5 2 22 10.139 10.380 0.251 o
-5 2 23 7.906 7.829 0.212 o
-5 2 24 1.687 1.755 0.093 o
-5 3 1 20.446 19.548 0.453 o
-5 3 2 0.069 0.090 0.025 o
-5 3 3 6.203 6.246 0.151 o
-5 3 4 11.624 11.576 0.265 o
-5 3 5 3.669 3.666 0.095 o
-5 3 6 4.867 4.689 0.117 o
-5 3 7 16.378 16.170 0.364 o
-5 3 8 2.243 2.230 0.083 o
-5 3 10 6.615 6.671 0.160 o
-5 3 11 0.567 0.629 0.034 o
-5 3 12 0.721 0.765 0.038 o
-5 3 14 0.864 0.853 0.043 o
-5 3 15 2.408 2.414 0.090 o
-5 3 17 0.121 0.173 0.041 o
-5 3 18 13.074 12.942 0.365 o
-5 3 19 6.179 6.154 0.173 o
-5 3 20 0.287 0.280 0.062 o
-5 3 21 0.931 0.789 0.077 o
-5 3 23 3.915 3.947 0.162 o
-5 3 24 9.414 9.115 0.498 o
-5 4 1 3.347 3.319 0.093 o
-5 4 3 24.087 23.916 0.536 o
-5 4 4 24.107 23.826 0.535 o
-5 4 5 14.138 13.762 0.315 o
-5 4 7 1.193 1.127 0.052 o
-5 4 8 25.835 25.614 0.599 o
-5 4 10 24.205 24.121 0.590 o
-5 4 11 0.357 0.316 0.039 o
-5 4 12 2.043 2.011 0.074 o
-5 4 13 15.351 15.153 0.348 o
-5 4 14 7.481 7.652 0.196 o
-5 4 15 13.845 13.965 0.371 o
-5 4 17 2.479 2.432 0.106 o
-5 4 18 17.041 17.111 0.456 o
-5 4 19 0.458 0.463 0.068 o
-5 4 22 2.735 2.734 0.134 o
-5 5 1 2.776 2.716 0.089 o
-5 5 2 4.221 4.225 0.116 o
-5 5 3 3.298 3.102 0.099 o
-5 5 4 66.325 65.661 1.478 o
-5 5 5 0.230 0.383 0.041 o
-5 5 6 9.117 8.869 0.214 o
-5 5 7 2.556 2.532 0.085 o
-5 5 8 6.242 6.389 0.168 o
-5 5 9 2.989 2.994 0.095 o
-5 5 10 3.665 3.626 0.107 o
-5 5 12 11.741 12.235 0.290 o
-5 5 13 4.369 4.246 0.130 o
-5 5 14 50.552 51.454 1.148 o
-5 5 16 0.774 0.689 0.063 o
-5 5 17 0.593 0.621 0.082 o
-5 5 18 1.504 1.406 0.205 o
-5 5 19 1.140 0.756 0.126 o
-5 5 20 2.908 2.217 0.370 o
-5 6 2 0.332 0.348 0.049 o
-5 6 3 19.914 19.680 0.443 o
-5 6 4 2.897 3.013 0.098 o
-5 6 5 1.467 1.519 0.074 o
-5 6 6 0.913 0.648 0.059 o
-5 6 7 1.774 1.808 0.078 o
-5 6 8 11.849 11.868 0.297 o
-5 6 9 2.541 2.561 0.106 o
-5 6 10 9.934 10.056 0.273 o
-5 6 11 0.742 0.660 0.086 o
-5 6 13 1.572 1.563 0.082 o
-5 6 15 4.198 4.305 0.163 o
-5 6 17 0.841 0.763 0.104 o
-5 7 1 0.155 0.159 0.048 o
-5 7 2 0.963 0.907 0.059 o
-5 7 3 0.621 0.566 0.058 o
-5 7 4 0.398 0.340 0.049 o
-5 7 7 2.447 2.534 0.133 o
-5 7 9 2.276 2.197 0.182 o
-5 7 10 2.099 1.848 0.282 o
-5 7 11 2.703 2.904 0.301 o
-4 0 2 995.560 971.769 23.459 o
-4 0 4 123.268 129.315 2.873 o
-4 0 6 47.392 46.956 1.100 o
-4 0 8 583.325 586.637 12.914 o
-4 0 10 1.797 1.643 0.127 o
-4 0 12 246.163 245.292 5.325 o
-4 0 14 1.864 1.849 0.069 o
-4 0 16 58.189 57.774 1.251 o
-4 0 18 136.179 134.668 2.938 o
-4 0 22 1.334 1.297 0.098 o
-4 0 24 1.932 1.864 0.329 o
-4 0 26 12.129 11.737 0.546 o
-4 1 1 95.077 93.821 2.184 o
-4 1 2 58.785 58.242 1.338 o
-4 1 3 1.623 1.626 0.065 o
-4 1 4 33.036 34.863 0.857 o
-4 1 6 181.540 182.686 4.122 o
-4 1 7 89.303 90.211 2.004 o
-4 1 8 180.090 179.810 3.991 o
-4 1 9 47.162 46.814 1.043 o
-4 1 11 1.776 1.791 0.065 o
-4 1 12 84.277 84.132 1.851 o
-4 1 13 15.650 15.411 0.350 o
-4 1 14 17.032 17.058 0.384 o
-4 1 15 0.133 0.113 0.024 o
-4 1 16 22.772 22.431 0.510 o
-4 1 17 4.737 4.686 0.121 o
-4 1 18 1.062 0.979 0.049 o
-4 1 19 54.171 54.462 1.207 o
-4 1 20 12.393 12.532 0.296 o
-4 1 21 1.608 1.447 0.083 o
-4 1 22 23.058 23.471 0.524 o
-4 1 23 9.620 9.726 0.241 o
-4 1 24 2.808 3.169 0.186 o
-4 1 25 4.643 4.344 0.326 o
-4 1 26 2.538 2.509 0.139 o
-4 1 27 6.374 6.331 0.218 o
-4 2 1 54.759 53.636 1.223 o
-4 2 2 12.894 13.074 0.309 o
-4 2 3 80.203 80.223 1.822 o
-4 2 4 62.971 63.196 1.398 o
-4 2 5 6.073 6.135 0.165 o
-4 2 6 5.808 6.040 0.172 o
-4 2 7 6.907 7.128 0.174 o
-4 2 8 84.031 85.013 1.857 o
-4 2 9 14.349 14.008 0.335 o
-4 2 10 31.447 30.942 0.686 o
-4 2 11 7.825 7.761 0.185 o
-4 2 12 0.774 0.808 0.037 o
-4 2 13 3.383 3.353 0.095 o
-4 2 14 23.101 23.016 0.521 o
-4 2 15 35.532 35.202 0.779 o
-4 2 16 10.603 10.721 0.250 o
-4 2 17 7.551 7.626 0.190 o
-4 2 18 8.030 8.196 0.200 o
-4 2 19 6.278 6.428 0.166 o
-4 2 21 4.595 4.509 0.138 o
-4 2 22 4.016 4.219 0.145 o
-4 2 23 19.437 18.514 0.421 o
-4 2 24 2.577 2.708 0.167 o
-4 2 25 3.297 3.334 0.150 o
-4 2 26 1.308 1.015 0.287 o
-4 3 1 5.088 5.085 0.132 o
-4 3 2 13.509 13.822 0.318 o
-4 3 3 23.386 22.910 0.536 o
-4 3 4 245.942 241.000 5.288 o
-4 3 5 29.708 28.598 0.640 o
-4 3 6 8.482 8.284 0.200 o
-4 3 7 5.405 5.485 0.134 o
-4 3 8 0.229 0.264 0.024 o
-4 3 9 37.825 37.469 0.828 o
-4 3 10 65.906 65.196 1.436 o
-4 3 11 21.616 21.207 0.476 o
-4 3 12 12.585 12.575 0.288 o
-4 3 13 1.060 0.985 0.046 o
-4 3 14 32.971 32.604 0.737 o
-4 3 15 6.038 6.042 0.164 o
-4 3 16 4.151 4.154 0.122 o
-4 3 17 15.127 15.170 0.351 o
-4 3 18 2.638 2.658 0.119 o
-4 3 20 6.375 6.221 0.175 o
-4 3 21 1.579 1.574 0.092 o
-4 3 22 1.221 1.042 0.089 o
-4 3 23 0.475 0.484 0.113 o
-4 4 1 0.184 0.167 0.027 o
-4 4 2 5.127 5.178 0.130 o
-4 4 3 61.130 60.542 1.341 o
-4 4 4 0.865 1.058 0.043 o
-4 4 5 11.574 11.529 0.265 o
-4 4 6 29.450 29.146 0.656 o
-4 4 7 9.963 9.736 0.234 o
-4 4 8 4.517 4.512 0.114 o
-4 4 9 2.233 2.272 0.074 o
-4 4 10 2.939 2.989 0.086 o
-4 4 11 0.115 0.098 0.031 o
-4 4 12 0.315 0.357 0.038 o
-4 4 13 29.431 29.622 0.690 o
-4 4 14 23.250 23.176 0.522 o
-4 4 15 0.862 0.801 0.056 o
-4 4 16 1.883 1.929 0.088 o
-4 4 17 4.821 4.677 0.170 o
-4 4 18 2.208 2.387 0.111 o
-4 4 20 4.777 4.688 0.178 o
-4 4 21 0.311 0.296 0.068 o
-4 4 22 2.903 3.095 0.171 o
-4 5 2 22.644 22.619 0.508 o
-4 5 3 2.309 2.273 0.085 o
-4 5 4 0.574 0.519 0.043 o
-4 5 6 5.481 5.584 0.141 o
-4 5 8 8.306 8.251 0.207 o
-4 5 9 0.208 0.126 0.035 o
-4 5 10 12.675 12.977 0.309 o
-4 5 11 1.372 1.405 0.078 o
-4 5 12 7.904 7.897 0.203 o
-4 5 13 0.590 0.612 0.050 o
-4 5 14 13.807 14.111 0.327 o
-4 5 17 1.723 1.716 0.089 o
-4 5 18 12.410 12.590 0.296 o
-4 5 19 0.481 0.435 0.071 o
-4 5 20 0.295 0.273 0.082 o
-4 6 2 4.940 4.917 0.148 o
-4 6 3 13.411 13.549 0.318 o
-4 6 4 3.577 3.527 0.109 o
-4 6 5 5.891 5.773 0.163 o
-4 6 6 1.772 1.769 0.090 o
-4 6 7 9.645 9.703 0.247 o
-4 6 8 1.472 1.315 0.081 o
-4 6 9 0.196 0.197 0.044 o
-4 6 10 0.234 0.203 0.042 o
-4 6 11 0.545 0.558 0.056 o
-4 6 12 4.464 4.643 0.151 o
-4 6 13 20.646 20.889 0.473 o
-4 6 14 5.125 5.120 0.156 o
-4 6 16 1.093 0.964 0.096 o
-4 6 17 0.460 0.533 0.117 o
-4 6 18 4.265 4.043 0.427 o
-4 7 2 4.722 4.799 0.144 o
-4 7 3 5.113 5.075 0.165 o
-4 7 4 2.786 2.585 0.102 o
-4 7 6 0.893 0.870 0.072 o
-4 7 7 2.861 2.871 0.116 o
-4 7 8 2.154 1.918 0.108 o
-4 7 9 7.888 8.088 0.209 o
-4 7 11 0.846 0.617 0.103 o
-3 0 2 15.002 15.457 0.399 o
-3 0 4 94.402 92.686 2.046 o
-3 0 6 13.146 14.653 0.422 o
-3 0 8 22.555 22.638 0.505 o
-3 0 10 4.320 4.376 0.128 o
-3 0 12 148.483 148.030 3.202 o
-3 0 14 18.385 17.916 0.409 o
-3 0 16 13.811 13.844 0.323 o
-3 0 18 33.805 34.755 0.776 o
-3 0 20 10.104 9.838 0.247 o
-3 0 22 99.352 101.382 1.729 o
-3 0 24 0.061 0.449 0.118 o
-3 0 26 4.632 4.285 0.399 o
-3 1 1 341.911 337.627 7.498 o
-3 1 2 35.405 35.516 0.795 o
-3 1 3 163.366 168.439 3.782 o
-3 1 4 235.186 241.459 5.405 o
-3 1 5 216.381 218.501 4.917 o
-3 1 6 0.292 0.357 0.031 o
-3 1 7 350.516 357.882 7.975 o
-3 1 8 8.540 8.469 0.204 o
-3 1 9 63.186 61.420 1.353 o
-3 1 10 3.549 3.578 0.113 o
-3 1 11 162.382 161.741 3.568 o
-3 1 12 54.440 54.629 1.210 o
-3 1 13 0.843 0.857 0.038 o
-3 1 14 0.323 0.317 0.029 o
-3 1 15 0.108 0.143 0.026 o
-3 1 16 32.373 32.322 0.721 o
-3 1 17 61.241 60.864 1.390 o
-3 1 18 39.470 39.972 0.881 o
-3 1 19 0.270 0.321 0.040 o
-3 1 20 2.105 2.088 0.086 o
-3 1 21 8.325 8.460 0.225 o
-3 1 22 2.257 2.402 0.147 o
-3 1 23 1.939 2.166 0.171 o
-3 1 25 1.349 1.589 0.119 o
-3 1 26 18.133 17.980 0.391 o
-3 1 27 2.379 2.401 0.386 o
-3 2 1 86.260 84.617 1.835 o
-3 2 2 182.930 184.460 4.130 o
-3 2 3 303.722 303.657 6.737 o
-3 2 4 28.708 28.135 0.658 o
-3 2 5 2.817 2.641 0.086 o
-3 2 6 140.990 140.809 3.117 o
-3 2 7 172.030 169.502 3.755 o
-3 2 8 297.216 292.079 6.515 o
-3 2 9 52.120 52.212 1.172 o
-3 2 10 11.316 11.085 0.259 o
-3 2 11 23.983 23.540 0.544 o
-3 2 12 2.108 2.079 0.063 o
-3 2 13 54.723 54.419 1.196 o
-3 2 14 0.889 0.931 0.037 o
-3 2 15 29.417 28.832 0.643 o
-3 2 16 15.173 14.795 0.336 o
-3 2 17 1.052 1.087 0.045 o
-3 2 18 44.943 45.388 0.998 o
-3 2 19 0.362 0.346 0.042 o
-3 2 20 3.545 3.635 0.111 o
-3 2 21 11.478 11.235 0.293 o
-3 2 24 2.934 2.631 0.213 o
-3 3 1 3.780 4.199 0.137 o
-3 3 2 255.920 254.652 5.619 o
-3 3 3 3.763 7.418 0.303 o
-3 3 4 46.974 46.044 1.013 o
-3 3 5 22.050 22.057 0.499 o
-3 3 6 0.083 0.273 0.035 o
-3 3 7 4.004 4.072 0.107 o
-3 3 8 18.344 18.030 0.407 o
-3 3 9 4.965 5.551 0.138 o
-3 3 10 20.375 20.527 0.481 o
-3 3 11 1.457 1.428 0.053 o
-3 3 12 43.692 43.274 0.984 o
-3 3 13 9.773 9.511 0.238 o
-3 3 14 71.454 71.481 1.617 o
-3 3 15 1.656 1.683 0.073 o
-3 3 17 1.215 1.231 0.061 o
-3 3 18 3.645 3.569 0.109 o
-3 3 19 10.782 11.027 0.273 o
-3 3 20 4.398 4.536 0.139 o
-3 3 21 6.637 7.195 0.206 o
-3 3 22 10.875 10.363 0.315 o
-3 3 24 11.744 10.935 0.401 o
-3 3 25 2.356 2.324 0.326 o
-3 4 1 20.949 20.952 0.488 o
-3 4 2 11.124 10.793 0.259 o
-3 4 3 59.269 58.989 1.328 o
-3 4 4 29.934 29.047 0.648 o
-3 4 5 0.434 0.355 0.028 o
-3 4 6 25.666 25.099 0.560 o
-3 4 7 17.071 16.859 0.386 o
-3 4 8 0.564 0.553 0.032 o
-3 4 9 0.547 0.537 0.034 o
-3 4 10 39.450 38.774 0.857 o
-3 4 11 3.851 3.848 0.106 o
-3 4 12 2.983 2.969 0.103 o
-3 4 13 33.098 33.099 0.778 o
-3 4 14 6.068 5.860 0.154 o
-3 4 16 4.243 4.209 0.124 o
-3 4 17 11.191 11.337 0.281 o
-3 4 18 4.317 4.248 0.136 o
-3 4 19 0.295 0.287 0.056 o
-3 4 20 9.544 9.795 0.314 o
-3 4 21 0.722 0.640 0.075 o
-3 5 1 0.202 0.162 0.035 o
-3 5 2 2.452 2.359 0.081 o
-3 5 3 4.470 4.448 0.120 o
-3 5 4 9.752 9.686 0.232 o
-3 5 5 1.145 1.175 0.052 o
-3 5 6 37.652 36.920 0.855 o
-3 5 7 4.147 4.245 0.115 o
-3 5 8 0.603 0.529 0.039 o
-3 5 9 4.429 4.418 0.121 o
-3 5 10 4.614 4.664 0.124 o
-3 5 11 1.469 1.475 0.079 o
-3 5 12 13.205 13.262 0.311 o
-3 5 13 0.350 0.326 0.055 o
-3 5 14 1.699 1.797 0.082 o
-3 5 16 18.208 18.299 0.428 o
-3 5 17 1.090 1.118 0.079 o
-3 5 18 1.303 1.221 0.101 o
-3 5 20 2.693 2.683 0.133 o
-3 6 1 8.692 8.778 0.215 o
-3 6 2 1.945 1.969 0.075 o
-3 6 3 0.942 1.081 0.060 o
-3 6 4 1.241 1.351 0.070 o
-3 6 5 0.745 0.689 0.053 o
-3 6 6 0.935 0.971 0.058 o
-3 6 7 0.794 0.779 0.053 o
-3 6 8 0.136 0.168 0.043 o
-3 6 9 4.208 4.217 0.132 o
-3 6 10 3.189 3.232 0.105 o
-3 6 11 0.416 0.459 0.053 o
-3 6 12 3.945 4.179 0.146 o
-3 6 13 1.936 2.049 0.102 o
-3 6 15 0.221 0.625 0.061 o
-3 6 17 7.407 7.170 0.578 o
-3 7 1 0.864 0.845 0.059 o
-3 7 2 5.737 5.730 0.157 o
-3 7 3 0.293 0.311 0.054 o
-3 7 4 4.796 4.631 0.173 o
-3 7 5 1.916 1.985 0.113 o
-3 7 6 0.840 0.807 0.097 o
-3 7 7 0.305 0.293 0.065 o
-3 7 8 0.266 0.288 0.066 o
-3 7 9 0.314 0.416 0.072 o
-3 7 10 0.168 0.293 0.069 o
-3 7 11 0.450 0.399 0.062 o
-3 7 12 6.667 6.555 0.490 o
-3 7 13 4.509 4.436 0.422 o
-2 0 2 619.292 693.728 24.774 o
-2 0 4 2103.442 2121.699 61.285 o
-2 0 6 172.828 179.040 3.998 o
-2 0 8 482.377 471.533 10.369 o
-2 0 10 187.568 191.897 4.193 o
-2 0 12 16.682 17.239 0.410 o
-2 0 14 57.156 57.270 1.242 o
-2 0 16 12.294 11.828 0.279 o
-2 0 18 5.136 5.014 0.144 o
-2 0 20 17.329 16.667 0.428 o
-2 0 22 4.498 4.888 0.291 o
-2 0 26 3.930 4.017 0.539 o
-2 1 1 185.402 200.151 4.492 o
-2 1 2 563.336 586.881 13.449 o
-2 1 3 21.374 21.413 0.480 o
-2 1 4 370.964 374.064 8.803 o
-2 1 5 20.853 21.452 0.483 o
-2 1 6 5.970 5.903 0.159 o
-2 1 7 36.679 34.943 0.791 o
-2 1 8 293.105 297.401 6.614 o
-2 1 9 23.687 22.729 0.519 o
-2 1 10 33.139 32.856 0.745 o
-2 1 11 84.580 83.619 1.836 o
-2 1 12 9.106 9.744 0.231 o
-2 1 13 32.830 32.430 0.721 o
-2 1 14 19.132 19.050 0.430 o
-2 1 15 11.574 11.551 0.264 o
-2 1 16 1.062 1.111 0.042 o
-2 1 17 31.265 31.045 0.703 o
-2 1 18 8.800 8.783 0.212 o
-2 1 19 1.747 1.811 0.080 o
-2 1 20 1.002 0.943 0.086 o
-2 1 21 59.469 58.281 1.219 o
-2 1 22 11.406 12.300 0.374 o
-2 1 24 2.345 2.285 0.183 o
-2 1 25 0.534 0.628 0.099 o
-2 1 26 1.682 1.802 0.151 o
-2 1 27 11.608 11.616 0.552 o
-2 2 1 148.950 158.404 3.543 o
-2 2 2 495.920 500.414 11.297 o
-2 2 3 10.047 10.374 0.370 o
-2 2 4 23.351 23.058 0.518 o
-2 2 5 3.382 3.353 0.097 o
-2 2 6 72.074 73.379 1.634 o
-2 2 7 35.090 34.830 0.771 o
-2 2 8 29.440 28.958 0.654 o
-2 2 9 17.089 17.264 0.405 o
-2 2 10 91.421 91.451 2.009 o
-2 2 11 13.638 13.806 0.316 o
-2 2 12 112.071 110.798 2.433 o
-2 2 13 31.289 31.194 0.712 o
-2 2 14 13.738 13.657 0.308 o
-2 2 15 2.288 2.248 0.065 o
-2 2 16 38.382 38.004 0.858 o
-2 2 17 56.723 56.311 1.247 o
-2 2 18 28.565 29.055 0.651 o
-2 2 19 8.377 8.433 0.207 o
-2 2 20 7.224 7.020 0.186 o
-2 2 21 0.621 0.593 0.068 o
-2 2 22 9.879 10.070 0.254 o
-2 2 23 11.118 10.770 0.269 o
-2 2 24 0.506 0.474 0.095 o
-2 2 25 15.711 15.635 0.361 o
-2 2 26 8.266 7.682 0.473 o
-2 3 1 145.272 147.034 3.283 o
-2 3 2 69.319 68.959 1.527 o
-2 3 3 1.570 1.537 0.068 o
-2 3 4 9.592 9.414 0.259 o
-2 3 5 6.836 6.793 0.185 o
-2 3 6 376.368 373.162 8.328 o
-2 3 7 83.873 83.037 1.854 o
-2 3 8 26.831 26.015 0.580 o
-2 3 9 8.242 8.168 0.192 o
-2 3 10 22.866 22.738 0.515 o
-2 3 11 20.618 20.401 0.456 o
-2 3 12 87.137 86.106 1.936 o
-2 3 13 3.954 3.963 0.104 o
-2 3 14 5.072 4.902 0.125 o
-2 3 15 11.654 11.399 0.272 o
-2 3 16 33.887 33.633 0.757 o
-2 3 17 4.641 4.585 0.130 o
-2 3 18 9.477 9.529 0.227 o
-2 3 19 1.501 1.553 0.070 o
-2 3 20 15.926 15.773 0.359 o
-2 3 22 11.605 11.145 0.269 o
-2 3 23 1.291 1.339 0.098 o
-2 3 24 1.696 1.835 0.135 o
-2 4 1 16.984 16.798 0.381 o
-2 4 2 62.196 61.415 1.390 o
-2 4 3 34.227 33.234 0.762 o
-2 4 4 0.456 0.498 0.031 o
-2 4 5 35.683 34.869 0.827 o
-2 4 6 4.005 3.997 0.120 o
-2 4 7 38.338 37.639 0.834 o
-2 4 8 0.575 0.591 0.034 o
-2 4 9 0.236 0.309 0.028 o
-2 4 10 24.887 24.805 0.558 o
-2 4 11 18.530 18.411 0.415 o
-2 4 12 0.118 0.186 0.031 o
-2 4 13 11.018 10.996 0.265 o
-2 4 14 8.915 8.990 0.226 o
-2 4 15 10.819 10.883 0.257 o
-2 4 16 15.199 15.304 0.365 o
-2 4 17 11.219 11.197 0.271 o
-2 4 18 1.186 1.176 0.065 o
-2 4 19 0.274 0.204 0.056 o
-2 4 20 2.748 2.754 0.112 o
-2 4 21 2.383 2.311 0.111 o
-2 4 22 0.267 0.323 0.082 o
-2 4 23 3.464 3.588 0.313 o
-2 5 1 0.318 0.334 0.034 o
-2 5 2 16.041 15.956 0.371 o
-2 5 3 3.413 3.314 0.093 o
-2 5 4 3.588 3.561 0.098 o
-2 5 5 4.236 4.076 0.111 o
-2 5 7 0.263 0.242 0.034 o
-2 5 8 1.223 1.185 0.055 o
-2 5 9 0.970 0.971 0.050 o
-2 5 10 3.397 3.474 0.102 o
-2 5 11 0.592 0.541 0.051 o
-2 5 12 0.923 0.944 0.054 o
-2 5 13 5.885 5.909 0.165 o
-2 5 14 2.608 2.418 0.099 o
-2 5 15 0.138 0.192 0.056 o
-2 5 16 13.910 14.141 0.342 o
-2 5 17 0.626 0.684 0.060 o
-2 5 19 1.513 1.449 0.083 o
-2 5 20 5.257 5.406 0.187 o
-2 5 21 1.489 1.545 0.265 o
-2 6 1 0.603 0.579 0.043 o
-2 6 3 16.186 16.194 0.398 o
-2 6 5 9.315 9.493 0.237 o
-2 6 7 3.728 3.747 0.115 o
-2 6 8 1.984 2.046 0.094 o
-2 6 9 3.122 3.132 0.101 o
-2 6 10 0.089 0.158 0.048 o
-2 6 11 6.527 6.650 0.180 o
-2 6 12 0.468 0.445 0.053 o
-2 6 14 1.637 1.683 0.085 o
-2 6 15 6.071 5.974 0.251 o
-2 6 16 0.675 0.710 0.074 o
-2 7 1 6.301 6.578 0.208 o
-2 7 4 1.488 1.492 0.095 o
-2 7 6 3.407 3.380 0.197 o
-2 7 7 4.799 4.844 0.158 o
-2 7 8 3.840 3.902 0.193 o
-2 7 9 0.425 0.371 0.064 o
-2 7 10 1.498 1.546 0.131 o
-2 7 11 3.285 3.534 0.130 o
-2 7 12 0.983 0.896 0.094 o
-2 8 2 1.991 2.043 0.276 o
-1 0 2 768.410 755.958 46.324 o
-1 0 4 896.432 864.220 18.581 o
-1 0 6 217.256 207.158 6.860 o
-1 0 8 514.230 510.850 11.048 o
-1 0 10 2.955 3.103 0.114 o
-1 0 12 112.066 111.944 2.396 o
-1 0 14 49.810 49.462 1.097 o
-1 0 16 23.015 23.366 0.548 o
-1 0 18 61.510 62.151 1.347 o
-1 0 20 44.319 44.714 0.965 o
-1 0 22 0.688 0.614 0.131 o
-1 0 24 22.523 22.810 0.481 o
-1 0 26 6.708 6.565 0.319 o
-1 1 1 2938.837 2107.788 272.175 o
-1 1 2 151.761 168.039 3.765 o
-1 1 3 342.797 369.079 8.283 o
-1 1 4 247.426 266.820 5.939 o
-1 1 5 0.977 1.058 0.058 o
-1 1 6 0.508 0.520 0.034 o
-1 1 7 438.560 424.375 9.331 o
-1 1 8 98.979 96.436 2.155 o
-1 1 9 172.921 176.937 3.929 o
-1 1 11 75.333 75.078 1.650 o
-1 1 12 87.901 88.274 1.925 o
-1 1 13 5.744 5.646 0.141 o
-1 1 14 45.937 45.963 1.042 o
-1 1 15 10.813 10.750 0.248 o
-1 1 16 6.539 6.447 0.156 o
-1 1 17 1.780 1.907 0.065 o
-1 1 18 15.210 15.156 0.349 o
-1 1 19 10.157 9.985 0.239 o
-1 1 20 2.834 2.929 0.110 o
-1 1 21 14.052 13.789 0.322 o
-1 1 22 12.815 12.694 0.303 o
-1 1 23 1.696 1.895 0.197 o
-1 1 24 0.647 0.587 0.071 o
-1 1 25 1.374 1.398 0.095 o
-1 2 1 149.877 149.292 3.320 o
-1 2 2 8.987 8.676 0.217 o
-1 2 3 177.898 179.492 4.023 o
-1 2 4 238.018 237.689 5.332 o
-1 2 5 511.031 502.224 11.157 o
-1 2 6 19.236 19.285 0.444 o
-1 2 7 1.279 1.298 0.056 o
-1 2 8 47.550 47.606 1.047 o
-1 2 9 7.959 8.200 0.201 o
-1 2 10 191.184 188.420 4.137 o
-1 2 11 73.742 75.175 1.671 o
-1 2 12 34.648 34.722 0.790 o
-1 2 13 13.311 13.098 0.299 o
-1 2 14 1.266 1.266 0.048 o
-1 2 15 12.705 12.533 0.287 o
-1 2 18 5.750 5.561 0.145 o
-1 2 19 4.265 4.192 0.127 o
-1 2 20 49.926 50.049 1.061 o
-1 2 21 1.053 1.159 0.092 o
-1 2 22 19.656 19.292 0.458 o
-1 2 24 0.393 0.320 0.074 o
-1 2 25 0.569 0.534 0.084 o
-1 2 26 2.132 1.904 0.338 o
-1 3 1 0.132 0.139 0.032 o
-1 3 2 32.500 32.926 0.747 o
-1 3 3 13.980 13.937 0.327 o
-1 3 4 57.633 57.106 1.267 o
-1 3 5 0.816 0.910 0.054 o
-1 3 6 109.865 107.480 2.343 o
-1 3 7 1.781 1.799 0.070 o
-1 3 8 6.241 6.687 0.169 o
-1 3 9 1.217 1.246 0.051 o
-1 3 10 32.434 32.117 0.731 o
-1 3 11 43.005 42.243 0.943 o
-1 3 12 0.206 0.245 0.024 o
-1 3 13 1.171 1.165 0.044 o
-1 3 14 27.683 27.042 0.601 o
-1 3 15 6.202 6.227 0.167 o
-1 3 16 118.246 116.772 2.645 o
-1 3 17 12.169 12.277 0.286 o
-1 3 18 1.173 1.067 0.074 o
-1 3 19 4.115 4.166 0.120 o
-1 3 20 0.237 0.207 0.058 o
-1 3 21 13.313 13.194 0.329 o
-1 3 22 5.563 5.561 0.162 o
-1 3 23 2.302 2.293 0.096 o
-1 3 24 14.114 13.800 0.332 o
-1 3 25 1.022 0.936 0.105 o
-1 4 1 6.129 6.025 0.153 o
-1 4 2 9.763 10.024 0.235 o
-1 4 4 0.411 0.426 0.032 o
-1 4 5 61.657 61.746 1.351 o
-1 4 6 83.754 83.827 1.847 o
-1 4 7 29.716 29.290 0.649 o
-1 4 8 8.084 7.994 0.190 o
-1 4 9 1.378 1.366 0.050 o
-1 4 11 2.948 2.993 0.087 o
-1 4 12 21.302 21.022 0.479 o
-1 4 13 0.357 0.328 0.033 o
-1 4 14 3.517 3.553 0.101 o
-1 4 15 39.180 39.180 0.882 o
-1 4 16 4.361 4.314 0.149 o
-1 4 17 10.738 10.432 0.246 o
-1 4 19 0.674 0.623 0.069 o
-1 4 20 10.392 10.102 0.274 o
-1 4 21 2.578 2.481 0.089 o
-1 4 22 1.241 1.218 0.090 o
-1 5 1 10.306 10.154 0.240 o
-1 5 2 73.262 72.096 1.603 o
-1 5 3 1.194 1.219 0.049 o
-1 5 4 4.941 4.879 0.127 o
-1 5 5 0.185 0.193 0.033 o
-1 5 6 32.997 32.314 0.716 o
-1 5 7 1.016 0.982 0.049 o
-1 5 8 0.899 0.841 0.050 o
-1 5 9 7.084 7.298 0.184 o
-1 5 10 15.062 15.032 0.347 o
-1 5 11 1.596 1.711 0.081 o
-1 5 12 14.517 14.278 0.359 o
-1 5 14 1.920 1.800 0.084 o
-1 5 15 1.182 1.206 0.084 o
-1 5 17 0.489 0.511 0.068 o
-1 5 19 0.396 0.449 0.082 o
-1 6 1 2.273 2.204 0.079 o
-1 6 2 6.890 6.938 0.175 o
-1 6 4 1.767 1.810 0.088 o
-1 6 5 0.812 0.753 0.058 o
-1 6 6 9.301 9.611 0.235 o
-1 6 7 9.353 9.336 0.237 o
-1 6 8 2.685 2.791 0.105 o
-1 6 10 0.534 0.548 0.057 o
-1 6 13 3.487 3.272 0.163 o
-1 6 15 5.502 5.819 0.189 o
-1 6 16 0.622 0.590 0.086 o
-1 6 17 2.320 2.281 0.152 o
-1 6 18 0.623 0.497 0.098 o
-1 7 1 1.518 1.425 0.133 o
-1 7 3 3.447 3.546 0.137 o
-1 7 4 3.522 3.548 0.152 o
-1 7 5 0.240 0.204 0.068 o
-1 7 6 4.105 4.225 0.150 o
-1 7 8 0.444 0.418 0.065 o
-1 7 11 4.731 4.895 0.153 o
-1 7 14 4.016 4.280 0.330 o
-1 8 2 1.112 0.994 0.214 o
-1 8 4 1.023 1.190 0.225 o
0 0 2 154.000 153.829 4.867 o
0 0 4 70.172 71.005 1.540 o
0 0 6 1048.687 1023.336 79.985 o
0 0 8 299.084 298.954 6.553 o
0 0 10 412.923 413.709 8.954 o
0 0 12 13.988 14.313 0.358 o
0 0 14 53.006 53.927 1.161 o
0 0 16 11.004 11.669 0.336 o
0 0 18 0.647 2.003 0.135 o
0 0 20 10.650 12.137 0.305 o
0 0 22 16.687 16.714 0.394 o
0 0 24 1.323 1.891 0.121 o
0 0 26 2.185 2.533 0.326 o
0 1 1 462.211 488.151 12.189 o
0 1 2 94.185 99.226 2.206 o
0 1 3 18.846 18.675 0.445 o
0 1 4 1597.358 1472.130 67.916 o
0 1 5 70.303 73.504 1.680 o
0 1 6 322.913 314.922 6.963 o
0 1 7 37.023 36.828 0.814 o
0 1 8 29.116 27.453 0.634 o
0 1 9 38.446 38.293 0.856 o
0 1 10 149.349 151.104 3.445 o
0 1 11 207.185 207.938 4.585 o
0 1 12 0.226 0.228 0.035 o
0 1 13 26.576 26.219 0.585 o
0 1 14 9.051 8.956 0.210 o
0 1 15 3.602 3.482 0.102 o
0 1 16 3.649 3.744 0.103 o
0 1 17 20.164 20.202 0.456 o
0 1 18 26.074 26.455 0.586 o
0 1 19 51.600 51.895 1.160 o
0 1 20 3.163 3.489 0.158 o
0 1 21 16.599 16.362 0.459 o
0 1 22 4.265 4.528 0.237 o
0 1 23 11.086 11.025 0.312 o
0 1 24 4.223 4.526 0.170 o
0 1 25 1.046 1.009 0.073 o
0 1 26 2.350 2.322 0.139 o
0 2 0 12.928 13.975 0.413 o
0 2 1 77.594 78.215 1.861 o
0 2 2 133.544 135.572 3.050 o
0 2 4 192.245 192.656 4.428 o
0 2 5 49.702 50.871 1.135 o
0 2 6 5.489 5.465 0.145 o
0 2 7 140.493 142.692 3.175 o
0 2 8 0.465 0.492 0.045 o
0 2 9 55.879 55.786 1.294 o
0 2 10 26.558 26.211 0.585 o
0 2 11 1.391 1.381 0.061 o
0 2 12 17.258 17.237 0.393 o
0 2 13 10.023 10.113 0.238 o
0 2 14 59.120 58.627 1.299 o
0 2 15 98.903 97.777 2.196 o
0 2 16 2.706 2.719 0.095 o
0 2 18 12.124 11.820 0.279 o
0 2 19 12.661 12.610 0.297 o
0 2 20 26.374 26.546 0.583 o
0 2 21 13.719 13.476 0.314 o
0 2 22 0.439 0.519 0.063 o
0 2 23 4.314 4.124 0.130 o
0 2 24 7.454 7.549 0.209 o
0 2 25 8.660 8.424 0.576 o
0 3 1 51.263 51.660 1.151 o
0 3 2 117.841 116.989 2.612 o
0 3 3 86.011 89.094 1.970 o
0 3 4 57.921 57.857 1.351 o
0 3 5 16.058 16.355 0.376 o
0 3 6 0.175 0.277 0.032 o
0 3 7 0.991 1.088 0.048 o
0 3 8 101.272 100.522 2.205 o
0 3 9 42.352 41.776 0.935 o
0 3 10 1.393 1.401 0.056 o
0 3 11 1.447 1.537 0.051 o
0 3 12 7.102 8.845 0.221 o
0 3 14 28.575 28.491 0.646 o
0 3 15 0.257 0.319 0.032 o
0 3 16 1.213 1.177 0.053 o
0 3 17 5.315 5.210 0.143 o
0 3 18 4.820 5.273 0.144 o
0 3 19 0.376 0.376 0.048 o
0 3 20 12.673 12.817 0.323 o
0 3 21 2.711 2.758 0.100 o
0 3 22 4.563 4.454 0.131 o
0 3 24 7.421 7.229 0.199 o
0 4 0 2.875 2.875 0.109 o
0 4 1 12.646 12.326 0.286 o
0 4 2 58.469 57.609 1.343 o
0 4 3 4.017 3.941 0.111 o
0 4 4 12.504 12.364 0.284 o
0 4 5 79.128 78.212 1.719 o
0 4 6 6.567 6.486 0.160 o
0 4 7 0.133 0.164 0.028 o
0 4 8 5.743 5.724 0.139 o
0 4 9 6.443 6.350 0.153 o
0 4 10 16.860 16.831 0.381 o
0 4 11 0.703 0.665 0.034 o
0 4 12 24.929 24.788 0.552 o
0 4 13 6.426 6.254 0.153 o
0 4 15 26.934 26.998 0.616 o
0 4 16 17.311 17.459 0.395 o
0 4 17 0.824 0.798 0.055 o
0 4 18 2.466 2.563 0.094 o
0 4 19 3.570 3.663 0.119 o
0 4 20 4.170 4.157 0.141 o
0 4 22 1.228 1.222 0.068 o
0 4 23 0.958 0.849 0.103 o
0 5 2 7.579 7.683 0.186 o
0 5 3 1.186 1.215 0.053 o
0 5 4 24.549 24.416 0.543 o
0 5 5 3.134 3.112 0.095 o
0 5 6 75.473 74.463 1.641 o
0 5 8 6.599 6.480 0.183 o
0 5 9 0.130 0.129 0.034 o
0 5 10 0.197 0.249 0.038 o
0 5 11 3.858 3.913 0.113 o
0 5 12 8.390 8.401 0.209 o
0 5 13 1.009 1.072 0.062 o
0 5 14 14.447 14.606 0.355 o
0 5 15 1.723 1.733 0.081 o
0 5 16 24.802 24.530 0.539 o
0 5 17 0.350 0.313 0.050 o
0 5 18 1.008 0.950 0.067 o
0 5 19 1.953 1.756 0.129 o
0 5 20 2.807 3.034 0.196 o
0 6 0 17.837 17.678 0.411 o
0 6 1 6.062 5.998 0.156 o
0 6 2 9.912 9.787 0.243 o
0 6 3 3.951 4.055 0.116 o
0 6 4 0.731 0.732 0.050 o
0 6 5 29.034 28.771 0.664 o
0 6 6 0.041 0.177 0.040 o
0 6 7 0.206 0.173 0.046 o
0 6 8 0.841 0.898 0.065 o
0 6 9 0.518 0.435 0.051 o
0 6 10 12.197 12.486 0.324 o
0 6 11 1.414 1.311 0.069 o
0 6 12 4.936 5.189 0.216 o
0 6 13 4.823 4.744 0.139 o
0 6 14 0.295 0.335 0.062 o
0 6 15 1.754 1.848 0.117 o
0 6 16 1.995 1.927 0.118 o
0 6 17 0.639 0.657 0.073 o
0 7 1 8.777 8.786 0.244 o
0 7 3 0.714 0.747 0.061 o
0 7 5 0.945 1.072 0.073 o
0 7 8 1.121 1.072 0.070 o
0 7 9 7.181 7.468 0.244 o
0 7 10 1.909 1.922 0.088 o
0 7 11 0.821 0.723 0.068 o
1 0 0 369.822 410.066 18.596 o
1 0 2 9.928 10.942 0.709 o
1 0 4 1907.416 1887.806 58.656 o
1 0 6 232.009 225.758 4.908 o
1 0 8 74.633 71.722 1.592 o
1 0 10 685.471 680.292 22.033 o
1 0 12 6.409 6.220 0.254 o
1 0 14 86.821 86.065 1.838 o
1 0 16 12.581 12.744 0.304 o
1 0 18 88.572 89.581 1.923 o
1 0 20 92.205 92.083 2.295 o
1 0 22 4.464 4.149 0.220 o
1 0 24 1.287 1.238 0.102 o
1 1 0 1615.171 1506.392 64.721 o
1 1 1 40.819 41.512 0.918 o
1 1 2 445.378 455.436 10.880 o
1 1 3 830.659 827.475 19.224 o
1 1 4 69.124 69.590 1.635 o
1 1 5 118.357 117.938 2.609 o
1 1 6 212.360 218.222 4.879 o
1 1 7 18.915 18.701 0.430 o
1 1 8 94.300 93.386 2.061 o
1 1 9 192.738 192.813 4.259 o
1 1 10 74.271 73.881 1.622 o
1 1 12 2.001 2.097 0.101 o
1 1 13 7.135 6.869 0.170 o
1 1 14 127.670 126.861 2.772 o
1 1 15 4.109 4.205 0.116 o
1 1 16 23.653 23.586 0.530 o
1 1 17 3.881 3.902 0.117 o
1 1 18 4.327 4.129 0.120 o
1 1 19 11.946 12.092 0.285 o
1 1 20 5.347 5.418 0.151 o
1 1 21 10.039 9.895 0.248 o
1 1 22 3.143 3.219 0.124 o
1 1 23 8.634 8.784 0.225 o
1 1 24 14.831 14.526 0.380 o
1 1 25 2.520 2.907 0.119 o
1 2 0 327.513 339.550 7.653 o
1 2 1 282.715 272.662 6.376 o
1 2 2 0.112 0.104 0.029 o
1 2 3 364.968 365.210 8.348 o
1 2 4 20.365 20.061 0.455 o
1 2 5 91.041 92.578 2.034 o
1 2 6 165.314 164.376 3.626 o
1 2 7 83.207 82.601 1.826 o
1 2 8 6.169 5.861 0.168 o
1 2 9 7.421 7.451 0.189 o
1 2 10 4.658 4.549 0.126 o
1 2 11 8.930 8.577 0.211 o
1 2 12 15.156 14.837 0.337 o
1 2 13 27.694 27.278 0.604 o
1 2 14 6.665 6.710 0.167 o
1 2 15 0.883 0.920 0.045 o
1 2 16 5.619 5.772 0.150 o
1 2 17 4.175 4.131 0.120 o
1 2 18 0.161 0.155 0.039 o
1 2 19 6.097 5.946 0.155 o
1 2 20 0.510 0.509 0.054 o
1 2 21 2.412 2.446 0.100 o
1 2 22 11.710 11.729 0.275 o
1 2 23 0.464 0.486 0.056 o
1 2 24 10.320 10.146 0.293 o
1 2 25 10.309 9.472 0.416 o
1 3 0 20.126 19.401 0.454 o
1 3 1 32.146 32.102 0.722 o
1 3 2 47.826 46.947 1.053 o
1 3 4 8.377 8.362 0.204 o
1 3 5 22.439 22.062 0.546 o
1 3 6 43.985 44.285 0.980 o
1 3 7 19.188 19.185 0.437 o
1 3 8 25.790 25.722 0.597 o
1 3 9 10.145 9.975 0.235 o
1 3 10 0.791 0.746 0.041 o
1 3 11 15.625 15.753 0.355 o
1 3 12 34.712 34.781 0.781 o
1 3 13 29.380 29.092 0.652 o
1 3 14 15.157 15.097 0.361 o
1 3 15 0.952 0.910 0.048 o
1 3 16 0.316 0.274 0.042 o
1 3 17 1.617 1.699 0.074 o
1 3 18 37.568 37.278 0.827 o
1 3 19 15.491 15.546 0.398 o
1 3 20 0.285 0.322 0.070 o
1 3 21 1.234 1.262 0.090 o
1 3 23 2.355 2.215 0.134 o
1 3 24 4.557 4.397 0.149 o
1 4 0 17.792 18.093 0.413 o
1 4 1 0.539 0.653 0.041 o
1 4 2 56.478 56.537 1.242 o
1 4 3 14.875 14.713 0.336 o
1 4 4 2.986 3.025 0.092 o
1 4 5 52.654 52.786 1.198 o
1 4 6 8.278 8.028 0.192 o
1 4 7 1.316 1.373 0.056 o
1 4 8 60.039 58.816 1.353 o
1 4 9 12.292 12.392 0.286 o
1 4 11 1.379 1.357 0.054 o
1 4 12 1.588 1.720 0.063 o
1 4 13 8.228 8.247 0.197 o
1 4 14 1.837 1.842 0.069 o
1 4 15 19.012 19.033 0.432 o
1 4 16 13.165 13.002 0.302 o
1 4 17 4.274 4.318 0.127 o
1 4 18 0.779 0.645 0.062 o
1 4 19 4.461 4.514 0.133 o
1 4 20 2.660 2.727 0.095 o
1 4 22 7.799 7.291 0.196 o
1 5 0 4.380 4.383 0.119 o
1 5 2 12.282 12.433 0.290 o
1 5 3 0.653 0.626 0.037 o
1 5 4 92.752 92.216 2.037 o
1 5 5 4.218 4.088 0.115 o
1 5 6 0.179 0.174 0.033 o
1 5 7 0.972 0.943 0.051 o
1 5 8 8.091 8.037 0.199 o
1 5 9 0.799 0.861 0.049 o
1 5 10 2.242 2.220 0.079 o
1 5 11 0.932 0.866 0.050 o
1 5 12 22.949 23.013 0.538 o
1 5 13 0.355 0.397 0.043 o
1 5 14 20.089 20.035 0.454 o
1 5 15 0.202 0.194 0.041 o
1 5 16 7.207 7.018 0.189 o
1 5 17 0.299 0.245 0.051 o
1 5 19 0.282 0.277 0.056 o
1 5 20 2.306 2.385 0.129 o
1 6 0 6.454 6.622 0.165 o
1 6 1 5.957 5.918 0.151 o
1 6 2 2.898 2.909 0.090 o
1 6 3 0.629 0.637 0.046 o
1 6 4 5.322 5.340 0.146 o
1 6 5 11.848 11.743 0.305 o
1 6 6 4.022 3.990 0.121 o
1 6 7 0.317 0.276 0.042 o
1 6 8 12.971 12.880 0.338 o
1 6 9 11.880 11.871 0.301 o
1 6 10 6.566 6.772 0.186 o
1 6 11 0.191 0.214 0.044 o
1 6 13 2.302 2.219 0.112 o
1 6 14 0.633 0.700 0.110 o
1 6 15 12.402 12.433 0.304 o
1 6 16 1.278 1.351 0.105 o
1 6 17 1.811 1.729 0.267 o
1 7 0 2.142 2.130 0.153 o
1 7 1 1.703 1.702 0.092 o
1 7 2 0.759 0.644 0.064 o
1 7 3 0.504 0.367 0.050 o
1 7 4 1.637 1.614 0.090 o
1 7 5 3.905 3.894 0.150 o
1 7 9 4.674 4.666 0.180 o
1 7 10 0.563 0.464 0.064 o
1 7 11 2.757 2.685 0.131 o
1 8 0 4.505 4.466 0.326 o
2 0 0 24.286 26.309 0.741 o
2 0 4 8.288 8.492 0.259 o
2 0 6 4.146 4.006 0.156 o
2 0 8 103.065 104.842 2.412 o
2 0 10 34.941 34.889 0.854 o
2 0 12 78.365 76.979 1.684 o
2 0 14 98.557 99.055 2.109 o
2 0 16 36.126 36.123 0.778 o
2 0 18 5.236 5.430 0.219 o
2 0 20 19.359 20.042 0.449 o
2 0 22 15.773 15.154 0.371 o
2 0 24 35.897 35.592 0.661 o
2 1 0 377.091 382.679 8.462 o
2 1 1 68.172 70.844 1.719 o
2 1 2 2.765 2.787 0.081 o
2 1 3 481.898 482.524 11.072 o
2 1 4 10.067 9.677 0.278 o
2 1 5 20.443 20.973 0.519 o
2 1 6 434.087 429.428 10.177 o
2 1 7 31.133 30.605 0.694 o
2 1 8 48.393 47.464 1.087 o
2 1 9 180.202 177.266 3.970 o
2 1 10 43.242 42.733 0.954 o
2 1 11 1.866 1.670 0.071 o
2 1 12 24.417 24.378 0.556 o
2 1 13 120.608 119.114 2.609 o
2 1 14 3.144 3.163 0.091 o
2 1 15 5.310 5.440 0.142 o
2 1 16 0.454 0.409 0.040 o
2 1 17 4.482 4.690 0.133 o
2 1 18 21.595 21.998 0.512 o
2 1 19 34.573 34.463 0.847 o
2 1 20 26.041 25.695 0.629 o
2 1 21 9.678 9.814 0.253 o
2 1 22 0.663 0.673 0.058 o
2 1 23 7.290 7.253 0.188 o
2 1 24 8.854 8.836 0.221 o
2 2 0 542.798 538.314 11.957 o
2 2 1 1.805 1.781 0.066 o
2 2 2 2.899 3.079 0.086 o
2 2 3 17.235 17.562 0.409 o
2 2 4 1.126 1.168 0.057 o
2 2 5 152.399 157.794 3.500 o
2 2 6 10.320 10.668 0.263 o
2 2 7 57.566 58.332 1.296 o
2 2 8 56.833 56.489 1.294 o
2 2 9 78.802 80.074 1.759 o
2 2 10 75.750 75.552 1.663 o
2 2 11 32.012 31.636 0.706 o
2 2 12 0.466 0.442 0.031 o
2 2 13 36.317 35.998 0.805 o
2 2 14 1.718 1.792 0.061 o
2 2 15 12.946 12.597 0.291 o
2 2 16 13.003 13.050 0.303 o
2 2 17 47.501 47.262 1.037 o
2 2 18 2.333 2.257 0.100 o
2 2 20 1.983 2.117 0.083 o
2 2 22 3.115 2.984 0.109 o
2 2 23 11.647 11.454 0.332 o
2 3 0 13.078 12.891 0.305 o
2 3 1 29.981 30.448 0.682 o
2 3 2 91.761 91.218 1.998 o
2 3 3 4.608 4.631 0.128 o
2 3 4 220.076 218.646 4.806 o
2 3 5 7.718 7.895 0.194 o
2 3 6 2.258 2.313 0.084 o
2 3 7 29.898 29.391 0.717 o
2 3 8 1.879 1.644 0.073 o
2 3 9 1.423 1.348 0.063 o
2 3 10 2.512 2.636 0.089 o
2 3 11 0.215 0.246 0.028 o
2 3 12 3.885 3.965 0.105 o
2 3 13 0.123 0.123 0.026 o
2 3 14 8.582 8.536 0.213 o
2 3 15 5.272 5.264 0.137 o
2 3 16 3.799 3.844 0.106 o
2 3 17 0.233 0.167 0.043 o
2 3 18 1.550 1.619 0.075 o
2 3 19 0.314 0.253 0.058 o
2 3 20 0.332 0.306 0.050 o
2 3 21 1.867 1.887 0.083 o
2 3 22 4.953 5.069 0.143 o
2 3 23 5.336 5.393 0.167 o
2 4 0 13.182 12.992 0.334 o
2 4 2 1.935 1.934 0.081 o
2 4 3 56.225 55.513 1.245 o
2 4 4 55.253 54.522 1.226 o
2 4 5 18.777 18.719 0.446 o
2 4 6 3.509 3.536 0.103 o
2 4 7 18.823 18.499 0.417 o
2 4 8 5.396 5.265 0.132 o
2 4 9 6.772 6.842 0.166 o
2 4 10 1.739 1.767 0.063 o
2 4 11 0.241 0.258 0.031 o
2 4 12 35.562 35.981 0.806 o
2 4 13 11.867 12.078 0.281 o
2 4 14 8.044 8.262 0.211 o
2 4 15 5.701 5.724 0.152 o
2 4 17 6.405 6.574 0.171 o
2 4 18 11.239 11.218 0.286 o
2 4 19 3.916 3.868 0.123 o
2 4 20 0.326 0.293 0.059 o
2 4 21 0.271 0.226 0.061 o
2 4 22 2.309 2.411 0.233 o
2 5 0 11.573 11.673 0.271 o
2 5 1 3.783 3.793 0.101 o
2 5 2 1.874 1.822 0.066 o
2 5 3 1.363 1.312 0.051 o
2 5 4 2.879 2.882 0.094 o
2 5 5 1.299 1.230 0.053 o
2 5 6 1.891 1.949 0.069 o
2 5 7 0.222 0.257 0.041 o
2 5 8 72.650 72.699 1.621 o
2 5 9 5.687 5.741 0.150 o
2 5 10 3.722 3.644 0.109 o
2 5 11 0.314 0.271 0.040 o
2 5 12 0.810 0.806 0.070 o
2 5 13 1.633 1.796 0.070 o
2 5 14 18.958 18.789 0.421 o
2 5 15 1.145 1.108 0.058 o
2 5 16 7.076 7.209 0.194 o
2 5 17 0.133 0.147 0.043 o
2 5 18 16.165 16.204 0.393 o
2 5 19 0.966 0.955 0.073 o
2 6 0 0.881 0.873 0.047 o
2 6 1 0.602 0.570 0.043 o
2 6 2 7.239 7.294 0.185 o
2 6 3 13.081 13.087 0.335 o
2 6 4 7.128 7.228 0.191 o
2 6 5 0.219 0.200 0.042 o
2 6 6 0.301 0.323 0.044 o
2 6 7 5.642 5.599 0.148 o
2 6 8 0.736 0.717 0.052 o
2 6 9 0.531 0.515 0.051 o
2 6 11 3.461 3.500 0.123 o
2 6 12 8.089 8.334 0.244 o
2 6 13 0.646 0.733 0.059 o
2 6 14 4.445 4.614 0.158 o
2 6 16 1.097 1.021 0.184 o
2 7 0 1.234 1.252 0.077 o
2 7 1 2.428 2.341 0.095 o
2 7 2 0.378 0.428 0.053 o
2 7 3 2.174 2.187 0.089 o
2 7 4 4.548 4.395 0.172 o
2 7 6 2.264 2.395 0.106 o
2 7 7 3.284 3.192 0.126 o
2 7 8 0.396 0.321 0.070 o
2 7 9 0.309 0.330 0.055 o
2 7 10 0.305 0.321 0.056 o
2 7 11 0.532 0.416 0.133 o
2 8 0 2.769 2.795 0.291 o
3 0 0 411.138 415.613 9.257 o
3 0 2 196.845 192.117 4.358 o
3 0 4 21.624 22.069 0.757 o
3 0 6 598.430 586.916 12.884 o
3 0 8 10.902 10.788 0.272 o
3 0 10 1.300 1.307 0.112 o
3 0 12 279.856 278.994 6.090 o
3 0 14 3.580 3.892 0.113 o
3 0 16 11.125 11.112 0.272 o
3 0 18 10.282 10.592 0.274 o
3 0 20 36.765 37.277 1.591 o
3 0 22 35.268 35.092 0.672 o
3 0 24 1.810 2.176 0.285 o
3 1 0 117.010 114.174 2.555 o
3 1 1 453.078 448.895 10.086 o
3 1 2 447.998 454.690 10.259 o
3 1 3 42.315 42.757 0.960 o
3 1 4 11.904 12.238 0.303 o
3 1 5 5.435 5.356 0.160 o
3 1 6 4.675 4.747 0.139 o
3 1 7 29.725 29.148 0.655 o
3 1 8 38.021 38.442 0.930 o
3 1 9 1.364 1.480 0.070 o
3 1 10 84.935 84.917 1.886 o
3 1 11 14.268 13.749 0.318 o
3 1 12 10.883 10.999 0.254 o
3 1 13 36.215 36.101 0.798 o
3 1 14 0.627 0.674 0.040 o
3 1 15 3.034 3.030 0.109 o
3 1 16 59.190 58.987 1.283 o
3 1 17 1.313 1.429 0.084 o
3 1 18 2.950 2.857 0.099 o
3 1 19 7.857 7.669 0.214 o
3 1 20 0.483 0.373 0.052 o
3 1 21 4.387 4.428 0.129 o
3 1 22 0.957 0.908 0.064 o
3 1 23 23.473 23.022 0.752 o
3 1 24 5.399 5.291 0.364 o
3 2 0 1.921 2.036 0.072 o
3 2 1 7.755 8.231 0.282 o
3 2 2 280.727 282.109 6.438 o
3 2 3 106.311 103.550 2.725 o
3 2 4 94.831 93.202 2.062 o
3 2 5 63.790 63.090 1.426 o
3 2 6 44.630 45.618 1.036 o
3 2 7 3.654 3.849 0.116 o
3 2 8 104.110 104.628 2.328 o
3 2 9 2.392 2.318 0.080 o
3 2 10 11.275 11.186 0.258 o
3 2 11 9.413 9.533 0.223 o
3 2 12 21.888 21.872 0.489 o
3 2 13 2.937 2.985 0.085 o
3 2 14 8.165 7.940 0.213 o
3 2 15 1.253 1.316 0.059 o
3 2 16 1.950 1.959 0.075 o
3 2 17 7.020 7.087 0.178 o
3 2 18 21.181 21.450 0.508 o
3 2 19 14.963 14.802 0.357 o
3 2 20 6.728 6.714 0.171 o
3 2 21 5.530 5.388 0.155 o
3 2 22 1.925 1.835 0.083 o
3 2 23 1.210 1.071 0.083 o
3 3 0 71.845 74.407 1.715 o
3 3 1 2.162 2.070 0.075 o
3 3 2 21.356 20.934 0.474 o
3 3 3 99.950 99.586 2.249 o
3 3 4 108.408 108.914 2.363 o
3 3 5 0.113 0.125 0.034 o
3 3 6 20.301 20.808 0.542 o
3 3 7 2.163 2.154 0.077 o
3 3 8 116.378 115.879 2.552 o
3 3 9 35.490 36.168 0.816 o
3 3 10 0.258 0.214 0.032 o
3 3 11 16.168 15.898 0.364 o
3 3 12 33.196 33.146 0.734 o
3 3 13 12.253 12.324 0.286 o
3 3 14 49.831 49.869 1.101 o
3 3 15 4.708 4.973 0.132 o
3 3 16 8.253 8.414 0.232 o
3 3 17 7.315 7.225 0.183 o
3 3 18 2.134 2.446 0.090 o
3 3 19 0.787 0.689 0.073 o
3 3 20 0.510 0.430 0.051 o
3 3 21 3.872 3.767 0.134 o
3 3 22 6.245 6.084 0.174 o
3 4 0 6.226 6.422 0.166 o
3 4 1 0.355 0.336 0.032 o
3 4 2 2.321 2.336 0.073 o
3 4 3 18.569 18.706 0.426 o
3 4 4 38.833 38.259 0.857 o
3 4 5 0.196 0.244 0.040 o
3 4 6 0.298 0.309 0.030 o
3 4 7 55.496 55.643 1.236 o
3 4 8 20.416 20.435 0.457 o
3 4 9 9.914 9.784 0.230 o
3 4 10 11.355 11.496 0.270 o
3 4 12 1.808 1.777 0.066 o
3 4 13 13.735 13.746 0.318 o
3 4 14 3.229 3.148 0.096 o
3 4 16 2.393 2.390 0.090 o
3 4 17 16.604 16.994 0.408 o
3 4 18 9.910 9.924 0.241 o
3 4 19 0.997 0.974 0.067 o
3 5 0 17.897 17.772 0.405 o
3 5 1 9.280 9.177 0.218 o
3 5 2 3.102 3.128 0.092 o
3 5 5 1.874 1.876 0.073 o
3 5 6 15.842 15.760 0.363 o
3 5 7 4.746 4.672 0.124 o
3 5 8 1.572 1.503 0.065 o
3 5 9 0.408 0.414 0.050 o
3 5 12 1.674 1.740 0.071 o
3 5 13 0.357 0.380 0.043 o
3 5 14 1.654 1.643 0.097 o
3 5 15 1.916 1.873 0.096 o
3 5 16 4.236 4.469 0.126 o
3 5 18 14.688 14.125 0.340 o
3 6 0 0.067 0.402 0.041 o
3 6 1 1.012 0.954 0.053 o
3 6 2 1.285 1.285 0.060 o
3 6 3 0.641 0.898 0.053 o
3 6 4 1.196 1.168 0.059 o
3 6 5 3.432 3.539 0.111 o
3 6 6 0.742 0.790 0.052 o
3 6 7 14.742 14.751 0.367 o
3 6 8 0.257 0.282 0.054 o
3 6 9 0.696 1.087 0.065 o
3 6 10 2.181 2.129 0.105 o
3 6 11 2.630 2.708 0.097 o
3 6 12 2.715 2.713 0.132 o
3 6 13 4.064 4.187 0.155 o
3 6 14 0.461 0.411 0.076 o
3 6 15 0.772 0.816 0.076 o
3 7 0 1.275 1.220 0.066 o
3 7 2 3.766 3.688 0.139 o
3 7 3 4.982 4.919 0.144 o
3 7 4 0.777 0.797 0.061 o
3 7 6 0.623 0.612 0.057 o
3 7 8 1.242 1.121 0.068 o
3 7 9 2.072 2.238 0.106 o
3 7 10 1.527 1.566 0.241 o
4 0 0 45.753 46.385 1.037 o
4 0 4 37.997 37.054 1.590 o
4 0 6 13.584 12.777 0.319 o
4 0 8 1.095 1.079 0.099 o
4 0 10 4.161 4.132 0.148 o
4 0 12 3.076 2.922 0.098 o
4 0 16 48.735 48.859 1.132 o
4 0 22 30.498 30.291 0.585 o
4 1 0 2.723 2.461 0.096 o
4 1 1 155.310 153.296 3.574 o
4 1 2 191.348 187.909 4.212 o
4 1 3 217.105 211.564 4.820 o
4 1 4 3.052 3.043 0.097 o
4 1 5 92.635 89.319 1.989 o
4 1 6 40.429 40.386 1.000 o
4 1 7 8.197 8.102 0.203 o
4 1 8 27.771 28.166 0.641 o
4 1 9 20.645 20.227 0.508 o
4 1 10 0.272 0.275 0.029 o
4 1 11 128.047 127.887 2.799 o
4 1 12 11.505 11.561 0.266 o
4 1 13 6.373 6.152 0.155 o
4 1 14 2.404 2.325 0.073 o
4 1 15 9.473 9.341 0.223 o
4 1 16 3.275 3.224 0.098 o
4 1 17 8.635 8.706 0.221 o
4 1 18 0.502 0.460 0.064 o
4 1 19 1.332 1.357 0.076 o
4 1 20 18.022 17.922 0.402 o
4 1 21 14.382 14.191 0.325 o
4 1 22 4.845 4.962 0.154 o
4 1 23 0.682 0.683 0.150 o
4 2 0 121.686 120.951 2.663 o
4 2 1 74.444 76.169 1.660 o
4 2 2 300.776 298.363 6.629 o
4 2 3 56.408 55.722 1.234 o
4 2 4 15.538 15.546 0.377 o
4 2 5 0.566 0.629 0.047 o
4 2 6 6.953 6.912 0.173 o
4 2 7 155.046 155.885 3.401 o
4 2 8 0.673 0.739 0.045 o
4 2 9 14.481 14.310 0.327 o
4 2 10 41.356 40.740 0.897 o
4 2 11 1.267 1.289 0.056 o
4 2 12 101.798 101.310 2.235 o
4 2 13 27.255 27.229 0.618 o
4 2 14 10.850 10.827 0.260 o
4 2 15 26.507 26.353 0.609 o
4 2 16 2.376 2.203 0.083 o
4 2 17 5.404 5.260 0.142 o
4 2 18 5.632 5.706 0.155 o
4 2 19 2.925 2.980 0.098 o
4 2 20 3.092 3.031 0.095 o
4 2 21 2.382 2.306 0.088 o
4 2 22 13.178 13.077 0.331 o
4 3 0 5.889 5.792 0.147 o
4 3 1 37.355 37.331 0.819 o
4 3 2 1.149 1.113 0.055 o
4 3 3 1.445 1.357 0.062 o
4 3 4 50.882 49.159 1.073 o
4 3 5 3.559 3.389 0.100 o
4 3 6 106.778 106.955 2.326 o
4 3 7 0.286 0.313 0.037 o
4 3 8 54.712 54.545 1.202 o
4 3 9 6.235 6.159 0.160 o
4 3 10 10.126 9.846 0.233 o
4 3 11 0.359 0.417 0.039 o
4 3 13 13.479 13.486 0.312 o
4 3 16 23.526 23.863 0.566 o
4 3 17 3.048 2.929 0.095 o
4 3 18 33.274 33.580 0.747 o
4 3 19 2.698 2.604 0.090 o
4 3 21 3.833 3.816 0.135 o
4 4 0 67.622 67.107 1.475 o
4 4 1 0.550 0.560 0.037 o
4 4 2 0.586 0.588 0.045 o
4 4 3 2.827 2.778 0.107 o
4 4 4 1.516 1.600 0.062 o
4 4 5 20.717 20.625 0.487 o
4 4 6 13.843 13.618 0.314 o
4 4 7 40.594 40.689 0.919 o
4 4 8 21.130 20.940 0.511 o
4 4 9 1.011 0.994 0.049 o
4 4 10 1.433 1.463 0.061 o
4 4 11 0.460 0.434 0.040 o
4 4 12 0.220 0.229 0.038 o
4 4 13 0.584 0.547 0.045 o
4 4 14 21.514 21.316 0.498 o
4 4 15 5.087 5.370 0.140 o
4 4 16 0.228 0.295 0.044 o
4 4 17 18.844 18.596 0.443 o
4 4 18 0.215 0.226 0.051 o
4 4 19 0.248 0.225 0.057 o
4 4 20 1.843 1.689 0.121 o
4 5 0 0.174 0.106 0.034 o
4 5 1 2.025 2.153 0.077 o
4 5 2 0.928 0.861 0.052 o
4 5 3 3.444 3.502 0.118 o
4 5 4 22.905 22.849 0.536 o
4 5 5 2.066 2.102 0.082 o
4 5 6 9.647 9.504 0.230 o
4 5 8 2.123 2.048 0.080 o
4 5 10 15.207 14.967 0.427 o
4 5 11 7.565 7.759 0.192 o
4 5 12 2.011 2.078 0.081 o
4 5 16 8.091 8.099 0.295 o
4 5 17 1.187 1.313 0.095 o
4 6 0 0.988 1.012 0.055 o
4 6 1 3.834 3.827 0.124 o
4 6 2 0.555 0.486 0.052 o
4 6 3 0.689 0.639 0.052 o
4 6 5 2.689 2.813 0.098 o
4 6 7 0.858 0.914 0.059 o
4 6 8 2.157 2.222 0.085 o
4 6 9 1.832 1.771 0.082 o
4 6 14 1.611 1.655 0.269 o
4 7 0 0.320 0.252 0.050 o
4 7 1 4.898 5.169 0.146 o
4 7 2 0.877 0.867 0.062 o
4 7 5 1.035 0.851 0.071 o
4 7 6 6.809 6.631 0.199 o
4 7 7 0.491 0.564 0.064 o
4 7 8 3.878 3.982 0.186 o
5 0 0 63.997 64.922 1.478 o
5 0 2 692.447 671.347 15.069 o
5 0 4 12.402 11.947 0.288 o
5 0 6 6.321 6.465 0.199 o
5 0 8 145.250 144.929 3.086 o
5 0 10 71.470 72.154 1.601 o
5 0 12 17.488 17.177 0.398 o
5 0 14 15.485 15.545 0.468 o
5 0 16 15.167 15.365 0.362 o
5 0 18 1.928 1.796 0.118 o
5 0 20 1.991 1.872 0.163 o
5 1 0 0.459 0.419 0.055 o
5 1 1 110.696 109.438 2.619 o
5 1 2 59.702 58.202 1.287 o
5 1 3 1.796 1.780 0.063 o
5 1 4 38.816 39.545 0.881 o
5 1 5 1.207 1.202 0.063 o
5 1 6 83.234 82.138 1.780 o
5 1 7 4.984 4.887 0.144 o
5 1 8 1.515 1.469 0.056 o
5 1 9 1.852 1.871 0.060 o
5 1 10 0.753 0.845 0.040 o
5 1 11 29.342 29.225 0.649 o
5 1 12 55.337 55.265 1.225 o
5 1 13 16.641 16.491 0.373 o
5 1 14 0.297 0.308 0.037 o
5 1 15 18.159 18.330 0.413 o
5 1 18 5.686 5.788 0.159 o
5 1 19 0.912 0.900 0.068 o
5 1 20 1.367 1.304 0.104 o
5 1 21 24.659 24.281 0.532 o
5 2 0 24.189 24.497 0.545 o
5 2 1 26.971 25.663 0.569 o
5 2 2 3.569 3.391 0.110 o
5 2 3 25.444 23.873 0.561 o
5 2 4 61.824 61.244 1.350 o
5 2 5 15.028 15.023 0.344 o
5 2 6 48.699 48.429 1.062 o
5 2 7 4.240 4.424 0.115 o
5 2 8 14.178 13.814 0.313 o
5 2 9 10.819 10.722 0.249 o
5 2 10 40.173 39.944 0.881 o
5 2 11 10.565 10.591 0.250 o
5 2 12 21.901 21.785 0.489 o
5 2 14 5.997 6.116 0.159 o
5 2 16 12.107 11.855 0.308 o
5 2 17 25.461 25.471 0.562 o
5 2 18 2.833 2.893 0.097 o
5 2 19 2.872 2.888 0.095 o
5 2 20 17.762 17.507 0.472 o
5 2 21 2.711 2.346 0.143 o
5 3 0 123.180 121.676 2.663 o
5 3 1 26.595 26.325 0.592 o
5 3 2 5.411 5.348 0.139 o
5 3 3 4.611 4.482 0.120 o
5 3 4 3.939 3.919 0.110 o
5 3 5 41.409 40.650 0.894 o
5 3 6 91.390 90.660 1.979 o
5 3 7 4.704 4.648 0.120 o
5 3 8 3.288 3.332 0.099 o
5 3 9 0.294 0.252 0.037 o
5 3 10 38.237 38.705 0.898 o
5 3 11 21.558 21.876 0.532 o
5 3 12 0.622 0.525 0.046 o
5 3 13 4.409 4.434 0.124 o
5 3 14 29.615 29.974 0.701 o
5 3 15 0.812 0.785 0.056 o
5 3 16 33.512 33.146 0.754 o
5 3 19 4.307 4.572 0.132 o
5 3 20 0.382 0.304 0.071 o
5 4 0 9.227 9.163 0.231 o
5 4 1 4.317 4.630 0.119 o
5 4 2 0.082 0.105 0.030 o
5 4 3 1.190 1.205 0.068 o
5 4 4 26.027 25.692 0.606 o
5 4 5 18.878 18.784 0.427 o
5 4 6 8.662 8.521 0.248 o
5 4 7 18.880 18.769 0.453 o
5 4 9 7.702 7.637 0.191 o
5 4 10 16.226 16.151 0.371 o
5 4 11 2.599 2.692 0.110 o
5 4 12 0.619 0.498 0.049 o
5 4 14 2.542 2.577 0.086 o
5 4 15 12.346 12.389 0.292 o
5 4 16 1.362 1.435 0.066 o
5 4 17 4.970 5.026 0.165 o
5 4 18 7.692 7.525 0.213 o
5 5 0 5.206 5.306 0.153 o
5 5 2 4.874 4.850 0.136 o
5 5 3 1.204 1.146 0.065 o
5 5 4 3.506 3.574 0.116 o
5 5 5 0.367 0.334 0.050 o
5 5 6 6.434 6.385 0.171 o
5 5 7 1.253 1.289 0.079 o
5 5 8 7.632 7.111 0.182 o
5 5 9 0.356 0.342 0.044 o
5 5 10 0.207 0.231 0.045 o
5 5 13 0.382 0.396 0.054 o
5 5 14 3.021 2.813 0.117 o
5 5 15 0.873 0.838 0.086 o
5 5 16 2.760 2.595 0.171 o
5 6 0 7.169 7.309 0.186 o
5 6 1 4.614 4.528 0.161 o
5 6 2 4.234 4.240 0.126 o
5 6 3 2.083 1.881 0.080 o
5 6 4 1.740 1.504 0.141 o
5 6 5 7.925 7.872 0.199 o
5 6 6 3.096 2.770 0.126 o
5 6 7 11.932 11.899 0.279 o
5 6 8 0.730 0.787 0.058 o
5 6 9 2.224 2.227 0.085 o
5 6 11 0.281 0.258 0.063 o
5 6 12 0.569 0.490 0.091 o
5 7 0 1.883 1.953 0.079 o
5 7 1 8.825 8.551 0.211 o
5 7 2 1.665 1.493 0.082 o
5 7 3 2.102 2.094 0.089 o
5 7 4 1.242 1.272 0.066 o
5 7 5 0.909 0.860 0.062 o
5 7 6 0.575 0.617 0.085 o
5 7 7 0.888 0.933 0.110 o
6 0 0 233.602 234.102 5.117 o
6 0 2 30.148 30.150 0.669 o
6 0 4 1.428 1.477 0.112 o
6 0 6 43.465 47.979 1.118 o
6 0 8 15.483 15.678 0.361 o
6 0 10 34.139 33.478 0.712 o
6 0 12 93.876 93.852 1.986 o
6 0 14 4.313 4.435 0.149 o
6 0 16 2.182 2.231 0.173 o
6 0 18 12.210 12.393 0.296 o
6 0 20 23.610 24.423 0.484 o
6 1 0 0.632 0.697 0.040 o
6 1 1 188.187 185.662 4.211 o
6 1 2 62.246 60.718 1.367 o
6 1 3 22.831 22.510 0.542 o
6 1 4 55.093 54.917 1.260 o
6 1 5 59.120 60.007 1.317 o
6 1 6 21.367 21.318 0.481 o
6 1 7 12.008 12.106 0.304 o
6 1 8 42.393 42.676 0.952 o
6 1 9 34.552 34.913 0.772 o
6 1 10 0.297 0.340 0.039 o
6 1 11 32.227 32.367 0.715 o
6 1 12 0.661 0.663 0.045 o
6 1 13 13.585 13.958 0.322 o
6 1 15 2.073 2.046 0.078 o
6 1 16 26.496 26.757 0.580 o
6 1 17 0.375 0.286 0.060 o
6 1 18 3.152 2.995 0.108 o
6 1 19 5.811 5.866 0.164 o
6 1 21 1.815 1.809 0.117 o
6 2 0 0.072 0.076 0.024 o
6 2 1 9.560 9.406 0.225 o
6 2 3 13.726 13.435 0.313 o
6 2 4 48.112 47.767 1.041 o
6 2 5 98.824 97.192 2.148 o
6 2 6 2.199 2.149 0.068 o
6 2 7 1.163 1.122 0.050 o
6 2 8 5.417 5.501 0.140 o
6 2 9 34.550 34.438 0.760 o
6 2 10 1.509 1.521 0.062 o
6 2 11 5.765 5.936 0.160 o
6 2 12 3.293 3.178 0.099 o
6 2 13 6.970 7.050 0.188 o
6 2 14 33.828 34.045 0.759 o
6 2 15 15.743 15.723 0.367 o
6 2 16 7.846 8.013 0.218 o
6 2 17 1.395 1.376 0.090 o
6 2 18 0.711 0.769 0.059 o
6 2 20 2.847 2.904 0.144 o
6 3 0 0.031 0.355 0.027 o
6 3 2 0.692 0.739 0.039 o
6 3 3 0.734 0.822 0.039 o
6 3 4 0.250 0.314 0.034 o
6 3 5 0.139 0.114 0.029 o
6 3 6 0.229 0.178 0.043 o
6 3 7 5.175 5.057 0.133 o
6 3 8 6.204 6.189 0.159 o
6 3 9 3.186 3.631 0.126 o
6 3 10 32.778 33.067 0.726 o
6 3 11 1.791 1.757 0.075 o
6 3 12 1.287 1.302 0.084 o
6 3 13 0.678 0.633 0.054 o
6 3 15 12.656 12.627 0.294 o
6 3 16 5.744 5.878 0.152 o
6 3 17 0.607 0.511 0.053 o
6 3 18 8.435 8.873 0.211 o
6 4 0 16.864 17.111 0.389 o
6 4 2 26.653 26.421 0.595 o
6 4 3 0.273 0.333 0.041 o
6 4 4 6.447 6.281 0.159 o
6 4 5 14.362 14.572 0.361 o
6 4 6 0.780 0.781 0.050 o
6 4 7 2.053 1.886 0.100 o
6 4 9 7.572 7.851 0.210 o
6 4 10 18.654 18.696 0.506 o
6 4 11 1.844 1.888 0.089 o
6 4 12 0.315 0.303 0.053 o
6 4 14 3.157 3.038 0.098 o
6 4 15 4.890 4.973 0.138 o
6 4 16 3.935 3.913 0.158 o
6 4 17 0.524 0.392 0.065 o
6 5 0 27.382 27.957 0.620 o
6 5 1 4.236 4.183 0.117 o
6 5 2 0.206 0.147 0.044 o
6 5 3 0.659 0.612 0.062 o
6 5 4 15.574 15.166 0.371 o
6 5 6 46.273 46.223 0.982 o
6 5 7 2.984 3.051 0.111 o
6 5 8 0.597 0.522 0.067 o
6 5 9 1.380 1.426 0.087 o
6 5 10 0.413 0.441 0.054 o
6 5 12 0.574 0.512 0.066 o
6 5 13 1.604 1.694 0.086 o
6 5 14 8.234 8.692 0.219 o
6 6 0 11.817 12.499 0.294 o
6 6 1 2.244 2.248 0.091 o
6 6 2 4.821 4.650 0.158 o
6 6 3 5.471 5.409 0.151 o
6 6 4 0.277 0.277 0.048 o
6 6 5 1.210 1.134 0.081 o
6 6 7 2.078 1.933 0.098 o
6 6 8 0.915 0.903 0.066 o
6 6 9 0.528 0.484 0.057 o
6 6 10 7.315 7.727 0.197 o
6 6 11 5.003 5.475 0.357 o
6 7 0 1.858 1.894 0.085 o
6 7 1 0.558 0.579 0.063 o
6 7 2 0.666 0.612 0.091 o
7 0 0 109.556 108.109 2.358 o
7 0 2 36.226 35.283 0.781 o
7 0 4 269.260 268.806 6.531 o
7 0 6 1.179 1.185 0.067 o
7 0 8 43.657 44.517 0.935 o
7 0 10 60.012 59.920 1.288 o
7 0 12 17.428 17.732 0.464 o
7 0 14 12.170 12.200 0.294 o
7 0 16 8.495 8.619 0.323 o
7 0 18 16.409 16.585 0.479 o
7 1 0 82.346 82.342 1.799 o
7 1 1 1.194 1.230 0.051 o
7 1 2 0.187 0.218 0.028 o
7 1 3 7.472 7.366 0.178 o
7 1 4 35.303 35.122 0.769 o
7 1 5 40.835 41.006 0.906 o
7 1 6 1.026 1.068 0.054 o
7 1 7 1.363 1.425 0.068 o
7 1 8 46.767 46.867 1.051 o
7 1 10 3.300 3.324 0.118 o
7 1 11 16.804 16.418 0.379 o
7 1 12 15.347 15.534 0.361 o
7 1 13 15.290 15.502 0.423 o
7 1 14 23.824 23.882 0.523 o
7 1 15 22.608 22.744 0.546 o
7 1 17 3.560 3.464 0.135 o
7 1 18 0.423 0.441 0.053 o
7 1 19 4.206 4.102 0.147 o
7 2 0 36.334 35.064 0.776 o
7 2 1 11.067 10.958 0.255 o
7 2 2 6.491 6.320 0.167 o
7 2 3 5.035 4.884 0.135 o
7 2 4 0.535 0.613 0.044 o
7 2 5 0.793 0.865 0.051 o
7 2 6 5.871 5.878 0.151 o
7 2 7 3.351 3.412 0.106 o
7 2 8 7.277 7.190 0.185 o
7 2 9 20.670 21.094 0.483 o
7 2 10 0.925 0.986 0.065 o
7 2 11 10.217 10.338 0.260 o
7 2 12 0.320 0.322 0.064 o
7 2 13 4.195 4.223 0.138 o
7 2 14 6.750 6.683 0.212 o
7 2 15 11.522 11.705 0.275 o
7 2 16 1.171 1.192 0.086 o
7 2 18 4.106 3.955 0.146 o
7 3 0 0.610 0.614 0.037 o
7 3 1 28.526 28.280 0.635 o
7 3 2 22.779 22.560 0.512 o
7 3 3 15.488 15.096 0.359 o
7 3 4 14.479 14.472 0.330 o
7 3 5 1.036 1.069 0.060 o
7 3 6 6.884 6.858 0.190 o
7 3 7 3.433 3.443 0.105 o
7 3 8 12.232 12.426 0.290 o
7 3 9 10.085 9.976 0.239 o
7 3 10 1.860 1.843 0.080 o
7 3 12 3.604 3.588 0.143 o
7 3 13 1.584 1.669 0.103 o
7 3 14 0.276 0.401 0.059 o
7 3 15 0.285 0.287 0.062 o
7 3 16 1.902 1.846 0.115 o
7 3 17 0.607 0.621 0.116 o
7 4 0 10.090 10.054 0.236 o
7 4 1 1.460 1.510 0.061 o
7 4 2 1.693 1.713 0.070 o
7 4 3 1.248 1.111 0.060 o
7 4 4 2.706 2.640 0.088 o
7 4 5 20.924 20.645 0.463 o
7 4 6 30.701 30.537 0.668 o
7 4 9 10.319 10.250 0.299 o
7 4 10 0.321 0.330 0.058 o
7 4 12 5.097 5.015 0.146 o
7 4 13 0.319 0.257 0.051 o
7 4 14 7.220 7.166 0.206 o
7 4 15 3.501 3.471 0.130 o
7 5 0 14.013 14.222 0.328 o
7 5 2 12.851 12.665 0.313 o
7 5 3 1.409 1.207 0.074 o
7 5 4 2.422 2.488 0.094 o
7 5 6 1.128 1.090 0.081 o
7 5 8 3.718 3.644 0.148 o
7 5 10 21.571 21.476 0.464 o
7 5 11 1.391 1.467 0.116 o
7 5 12 1.267 1.385 0.085 o
7 6 0 0.802 0.879 0.069 o
7 6 2 2.448 2.368 0.094 o
7 6 4 4.083 3.977 0.118 o
7 6 5 4.147 4.355 0.130 o
7 6 6 3.477 3.386 0.113 o
7 6 7 3.586 3.396 0.218 o
7 6 8 3.167 3.018 0.142 o
7 6 9 4.961 4.981 0.345 o
8 0 0 26.831 27.641 0.658 o
8 0 2 14.737 14.792 0.344 o
8 0 4 65.267 65.165 1.391 o
8 0 6 4.649 4.792 0.168 o
8 0 8 28.859 28.611 0.639 o
8 0 10 0.899 0.798 0.079 o
8 0 12 24.588 24.655 0.589 o
8 0 14 82.944 83.339 1.584 o
8 0 16 0.876 0.828 0.100 o
8 1 1 0.392 0.453 0.038 o
8 1 2 2.125 2.254 0.075 o
8 1 3 84.513 84.662 1.852 o
8 1 4 33.241 33.575 0.746 o
8 1 6 4.191 4.125 0.119 o
8 1 7 0.307 0.275 0.041 o
8 1 8 19.510 19.230 0.439 o
8 1 9 9.621 9.673 0.249 o
8 1 10 18.663 18.459 0.424 o
8 1 11 5.871 5.988 0.168 o
8 1 12 4.403 4.374 0.143 o
8 1 13 11.065 11.385 0.274 o
8 1 15 1.605 1.770 0.101 o
8 1 16 0.644 0.645 0.099 o
8 1 18 20.705 20.940 0.616 o
8 2 0 42.198 42.033 0.959 o
8 2 1 21.580 21.466 0.491 o
8 2 2 0.148 0.240 0.035 o
8 2 3 5.160 5.075 0.140 o
8 2 4 14.415 14.409 0.347 o
8 2 5 7.621 7.600 0.190 o
8 2 7 35.469 35.568 0.815 o
8 2 8 4.343 4.421 0.142 o
8 2 10 15.573 15.974 0.392 o
8 2 13 3.939 4.019 0.136 o
8 2 14 0.343 0.378 0.094 o
8 2 15 2.607 2.679 0.118 o
8 2 16 2.001 2.109 0.116 o
8 3 0 17.608 17.648 0.424 o
8 3 1 0.178 0.152 0.036 o
8 3 2 9.961 9.591 0.253 o
8 3 3 0.612 0.615 0.047 o
8 3 4 11.083 10.766 0.270 o
8 3 5 18.227 18.154 0.409 o
8 3 6 14.448 14.501 0.352 o
8 3 7 0.167 0.164 0.049 o
8 3 8 3.731 3.872 0.123 o
8 3 10 2.685 2.623 0.107 o
8 3 11 5.976 5.864 0.356 o
8 3 12 3.301 3.254 0.215 o
8 3 13 6.678 6.451 0.207 o
8 3 14 5.861 5.478 0.172 o
8 3 15 1.431 1.268 0.093 o
8 4 1 2.340 2.156 0.086 o
8 4 2 14.267 14.165 0.335 o
8 4 3 2.531 2.622 0.095 o
8 4 4 2.381 2.534 0.098 o
8 4 5 2.765 2.785 0.096 o
8 4 6 3.768 3.779 0.115 o
8 4 7 4.307 4.514 0.143 o
8 4 9 13.177 13.079 0.341 o
8 4 10 6.073 6.056 0.215 o
8 4 12 5.725 5.927 0.172 o
8 4 13 0.268 0.328 0.083 o
8 5 0 1.028 0.924 0.067 o
8 5 2 6.762 6.970 0.192 o
8 5 3 3.884 3.893 0.126 o
8 5 4 0.889 0.861 0.062 o
8 5 6 7.115 7.249 0.194 o
8 5 7 2.251 2.232 0.099 o
8 5 8 20.737 21.231 0.669 o
8 5 9 2.845 2.771 0.187 o
8 5 10 0.846 0.958 0.075 o
8 6 0 0.143 0.174 0.054 o
8 6 1 0.544 0.495 0.058 o
8 6 2 5.121 5.173 0.157 o
8 6 3 1.506 1.437 0.079 o
8 6 4 2.761 2.868 0.125 o
9 0 0 17.563 18.374 0.421 o
9 0 2 46.879 47.381 1.041 o
9 0 4 4.691 4.598 0.143 o
9 0 6 27.059 27.355 0.613 o
9 0 10 13.529 12.999 0.743 o
9 0 12 8.446 8.390 0.263 o
9 0 16 0.829 0.653 0.205 o
9 1 0 33.011 33.567 0.764 o
9 1 1 0.208 0.232 0.045 o
9 1 2 4.711 4.728 0.134 o
9 1 3 26.697 27.000 0.629 o
9 1 4 2.576 2.593 0.096 o
9 1 5 6.177 6.077 0.230 o
9 1 6 7.719 7.737 0.216 o
9 1 7 13.068 13.211 0.334 o
9 1 8 1.726 1.888 0.099 o
9 1 9 2.106 2.151 0.097 o
9 1 10 9.271 9.132 0.247 o
9 1 12 0.999 0.954 0.084 o
9 1 13 27.240 27.234 0.739 o
9 1 14 9.057 9.312 0.239 o
9 1 15 1.047 1.137 0.123 o
9 1 16 2.232 2.129 0.120 o
9 2 0 1.751 1.847 0.081 o
9 2 1 3.686 3.618 0.128 o
9 2 2 36.582 36.483 0.905 o
9 2 3 5.051 5.128 0.158 o
9 2 4 36.480 36.905 0.794 o
9 2 5 3.313 3.313 0.104 o
9 2 6 3.106 3.058 0.104 o
9 2 7 1.699 1.765 0.081 o
9 2 8 2.166 2.204 0.133 o
9 2 9 15.373 15.345 0.357 o
9 2 10 2.163 2.129 0.169 o
9 2 11 8.791 8.670 0.218 o
9 2 12 6.427 6.238 0.211 o
9 2 14 7.519 7.293 0.199 o
9 2 15 2.697 2.458 0.214 o
9 3 0 2.124 2.265 0.086 o
9 3 1 6.549 6.542 0.171 o
9 3 2 2.575 2.599 0.097 o
9 3 3 14.164 15.080 0.353 o
9 3 4 6.692 6.673 0.191 o
9 3 5 1.375 1.435 0.072 o
9 3 6 16.096 16.454 0.406 o
9 3 7 0.316 0.309 0.086 o
9 3 8 16.447 16.041 0.647 o
9 3 10 3.121 3.111 0.139 o
9 3 11 3.858 3.704 0.138 o
9 3 12 4.765 4.940 0.157 o
9 4 1 2.449 2.390 0.111 o
9 4 2 13.327 13.246 0.348 o
9 4 5 0.329 0.415 0.056 o
9 4 6 5.209 5.020 0.150 o
9 4 7 18.304 18.065 0.398 o
9 4 8 12.794 12.808 0.560 o
9 4 9 5.194 5.927 0.397 o
9 4 10 1.068 0.908 0.234 o
9 5 1 0.887 0.840 0.075 o
9 5 2 4.413 4.536 0.189 o
9 5 3 1.574 1.522 0.083 o
9 5 4 1.068 1.012 0.152 o
9 5 5 0.878 0.918 0.085 o
10 0 0 7.482 8.428 0.230 o
10 0 2 2.913 3.050 0.123 o
10 0 4 14.432 13.874 0.355 o
10 0 6 17.472 17.010 0.451 o
10 0 8 1.058 1.028 0.096 o
10 0 10 12.137 12.308 0.538 o
10 0 12 11.654 12.416 0.520 o
10 0 14 2.975 2.888 0.288 o
10 1 0 9.749 9.513 0.244 o
10 1 1 32.395 32.669 0.765 o
10 1 3 8.496 8.439 0.214 o
10 1 4 9.593 9.565 0.240 o
10 1 5 3.630 3.668 0.148 o
10 1 6 7.834 7.896 0.218 o
10 1 8 1.362 1.424 0.111 o
10 1 9 1.107 1.121 0.107 o
10 1 10 5.294 4.942 0.170 o
10 1 11 3.752 3.885 0.149 o
10 1 12 0.674 0.556 0.115 o
10 1 13 1.762 1.742 0.148 o
10 1 14 5.443 5.523 0.357 o
10 2 0 9.289 9.361 0.233 o
10 2 1 1.656 1.753 0.084 o
10 2 2 28.911 28.879 0.662 o
10 2 3 7.958 8.134 0.212 o
10 2 4 1.522 1.339 0.098 o
10 2 5 10.267 10.060 0.329 o
10 2 6 7.388 7.589 0.220 o
10 2 7 3.855 3.845 0.131 o
10 2 8 3.234 3.227 0.144 o
10 2 9 0.424 0.400 0.068 o
10 2 10 6.397 6.365 0.178 o
10 2 11 1.263 1.487 0.101 o
10 2 12 15.470 15.949 0.338 o
10 2 13 0.873 0.785 0.201 o
10 3 0 0.844 0.882 0.070 o
10 3 1 1.405 1.365 0.095 o
10 3 2 18.778 18.781 0.459 o
10 3 3 3.915 3.784 0.200 o
10 3 4 3.327 3.249 0.149 o
10 3 5 0.246 0.201 0.053 o
10 3 6 14.116 14.139 0.480 o
10 3 7 11.853 11.827 0.368 o
10 3 8 24.775 25.116 0.611 o
10 3 9 0.574 0.525 0.094 o
10 3 11 0.844 0.875 0.208 o
10 4 0 2.517 2.568 0.107 o
10 4 1 5.128 5.159 0.161 o
10 4 3 1.515 1.414 0.114 o
10 4 4 3.249 3.264 0.124 o
10 4 5 0.963 1.123 0.089 o
10 4 6 0.883 0.947 0.103 o
10 4 7 6.845 6.993 0.465 o
10 5 0 1.878 1.965 0.094 o
10 5 1 2.578 2.577 0.106 o
10 5 2 0.705 0.524 0.106 o
10 5 3 0.529 0.408 0.086 o
11 0 0 33.305 33.418 0.844 o
11 0 2 25.167 24.926 0.890 o
11 0 6 2.551 2.541 0.313 o
11 0 10 0.817 0.681 0.218 o
11 1 1 3.876 4.025 0.125 o
11 1 2 8.233 8.442 0.237 o
11 1 3 11.395 11.441 0.283 o
11 1 4 1.738 1.623 0.090 o
11 1 5 12.589 12.425 0.339 o
11 1 6 3.601 3.632 0.128 o
11 1 7 4.735 4.590 0.232 o
11 1 9 1.393 1.139 0.187 o
11 1 10 5.625 5.504 0.637 o
11 1 11 9.976 10.114 0.518 o
11 2 1 12.125 11.869 0.294 o
11 2 3 0.922 0.932 0.116 o
11 2 4 6.976 6.816 0.413 o
11 2 6 19.465 18.771 0.897 o
11 2 7 16.372 16.078 0.618 o
11 2 8 2.727 2.569 0.307 o
11 2 9 0.815 0.979 0.108 o
11 2 10 0.951 0.900 0.216 o
11 3 0 19.323 18.880 0.757 o
11 3 1 2.084 2.078 0.111 o
11 3 2 1.178 1.051 0.130 o
11 3 3 1.440 1.340 0.080 o
11 3 4 3.044 3.515 0.168 o
11 3 6 2.121 1.903 0.301 o
11 3 8 1.308 1.339 0.237 o
11 4 0 1.555 1.570 0.214 o
11 4 1 3.368 3.427 0.175 o
11 4 2 3.564 3.017 0.319 o
11 4 4 6.490 6.653 0.375 o
12 0 0 1.448 1.397 0.115 o
12 0 2 20.188 19.881 1.118 o
12 0 4 7.666 7.610 0.413 o
12 0 6 19.903 20.467 0.631 o
12 1 0 8.655 8.522 0.222 o
12 1 1 3.326 3.190 0.124 o
12 1 2 8.376 7.929 0.208 o
12 1 3 3.385 3.216 0.171 o
12 1 4 0.521 0.487 0.109 o
12 1 5 3.640 3.476 0.208 o
12 1 6 12.298 12.593 0.336 o
12 1 7 2.430 2.546 0.230 o
12 1 8 1.011 0.943 0.223 o
12 2 0 0.662 0.717 0.071 o
12 2 3 2.118 2.840 0.324 o
12 2 4 3.878 3.691 0.345 o
12 2 5 2.604 2.683 0.307 o
12 2 6 0.958 0.989 0.224 o
12 2 7 1.132 1.226 0.226 o
12 3 0 4.456 4.516 0.279 o
12 3 3 2.670 2.551 0.305 o
12 3 4 4.736 4.960 0.347 o
12 4 0 3.895 4.315 0.332 o
13 0 2 12.046 11.311 0.454 o
13 0 4 9.094 9.134 0.411 o
13 1 0 1.308 1.203 0.228 o
13 1 1 2.179 2.293 0.291 o
13 1 2 1.284 1.185 0.228 o
13 1 3 2.497 2.553 0.279 o
13 1 4 0.898 0.900 0.207 o
13 2 0 1.032 0.867 0.221 o
13 2 1 2.915 2.961 0.301 o
13 2 2 2.470 2.230 0.278 o
