#------------------------------------------------------------------------------
#$Date: 2016-02-21 11:56:54 +0200 (Sun, 21 Feb 2016) $
#$Revision: 176809 $
#$URL: svn://www.crystallography.net/cod/cif/2/31/01/2310124.cif $
#------------------------------------------------------------------------------
#
# This file is available in the Crystallography Open Database (COD),
# http://www.crystallography.net/
#
# All data on this site have been placed in the public domain by the
# contributors.
#
data_2310124
loop_
_publ_author_name
'Kami\'nski, Rados\/law'
'Domaga\/la, S\/lawomir'
'Jarzembska, Katarzyna N.'
'Hoser, Anna A.'
'Sanjuan-Szklarz, W. Fabiola'
'Gutmann, Matthias J.'
'Makal, Anna'
'Mali\'nska, Maura'
'Bak, Joanna M.'
'Wo\'zniak, Krzysztof'
_publ_section_title
;
 Statistical analysis of multipole-model-derived structural parameters and
 charge-density properties from high-resolution X-ray diffraction
 experiments
;
_journal_issue                   1
_journal_name_full               'Acta Crystallographica Section A'
_journal_page_first              72
_journal_page_last               91
_journal_paper_doi               10.1107/S2053273313028313
_journal_volume                  70
_journal_year                    2014
_chemical_formula_moiety         'C2 H2 O4, 2(H2 O1)'
_chemical_formula_sum            'C2 H6 O6'
_chemical_formula_weight         126.07
_space_group_IT_number           14
_symmetry_cell_setting           monoclinic
_symmetry_Int_Tables_number      14
_symmetry_space_group_name_Hall  '-P 2ybc'
_symmetry_space_group_name_H-M   'P 1 21/c 1'
_cell_angle_alpha                90.00
_cell_angle_beta                 103.930(1)
_cell_angle_gamma                90.00
_cell_formula_units_Z            2
_cell_length_a                   6.0889(2)
_cell_length_b                   3.4870(1)
_cell_length_c                   11.8299(3)
_cell_measurement_temperature    100(1)
_cell_volume                     243.786(12)
_diffrn_ambient_temperature      100(1)
_diffrn_measured_fraction_theta_full 0.982
_diffrn_measured_fraction_theta_max 0.906
_diffrn_measurement_device
;
Bruker AXS Kappa APEX II Ultra diffractometer
;
_diffrn_measurement_device_type  'APEX II CCD detector'
_diffrn_measurement_method       \w-scans
_diffrn_radiation_monochromator  'multi-layer optics'
_diffrn_radiation_source         'TXS rotating anode'
_diffrn_radiation_type           'Mo K\a'
_diffrn_radiation_wavelength     0.71073
_diffrn_reflns_av_R_equivalents  0.0215
_diffrn_reflns_av_sigmaI/netI    0.02145
_diffrn_reflns_limit_h_max       13
_diffrn_reflns_limit_h_min       -13
_diffrn_reflns_limit_k_max       7
_diffrn_reflns_limit_k_min       -6
_diffrn_reflns_limit_l_max       24
_diffrn_reflns_limit_l_min       -26
_diffrn_reflns_number            12130
_diffrn_reflns_theta_full        42.42
_diffrn_reflns_theta_max         54.796
_diffrn_reflns_theta_min         3.447
_exptl_absorpt_coefficient_mu    0.182
_exptl_absorpt_correction_T_max  0.984
_exptl_absorpt_correction_T_min  0.967
_exptl_absorpt_correction_type   multi-scan
_exptl_absorpt_process_details
;
 Absorption correction done by SORTAV
 Blessing, R. H.: (1995) Acta Cryst. A51, 33-38
;
_exptl_crystal_colour            colourless
_exptl_crystal_density_diffrn    1.718
_exptl_crystal_description       unspecified
_exptl_crystal_F_000             132
_exptl_crystal_size_max          0.243
_exptl_crystal_size_mid          0.198
_exptl_crystal_size_min          0.178
_refine_diff_density_max         +0.14
_refine_diff_density_min         -0.13
_refine_ls_extinction_method     none
_refine_ls_goodness_of_fit_ref   1.065
_refine_ls_hydrogen_treatment    mixed
_refine_ls_number_parameters     177
_refine_ls_number_reflns         2791
_refine_ls_number_restraints     3
_refine_ls_R_factor_all          0.0150
_refine_ls_R_factor_gt           0.0150
_refine_ls_shift/su_max          0.001
_refine_ls_shift/su_mean         0.000
_refine_ls_structure_factor_coef F
_refine_ls_weighting_details
;
w=1/[\s^2^(Fo)]
;
_refine_ls_weighting_scheme      sigma
_refine_ls_wR_factor_gt          0.0190
_refine_ls_wR_factor_ref         0.0190
_reflns_number_gt                2205
_reflns_number_total             2791
_reflns_threshold_expression     I>3\s(I)
_iucr_refine_instructions_details
;
 Multipole refinement with MOPRO program
;
_cod_data_source_file            pc5031sup4.cif
_cod_data_source_block           oxa04
_cod_original_cell_volume        243.79(1)
_cod_original_sg_symbol_H-M      'P 21/c'
_cod_database_code               2310124
loop_
_symmetry_equiv_pos_as_xyz
'x, y, z'
'-x, y+1/2, -z+1/2'
'-x, -y, -z'
'x, -y-1/2, z-1/2'
loop_
_atom_site_type_symbol
_atom_site_label
_atom_site_fract_x
_atom_site_fract_y
_atom_site_fract_z
_atom_site_U_iso_or_equiv
_atom_site_adp_type
_atom_site_occupancy
_atom_site_calc_flag
O O1 0.43485(4) 0.4444(1) 0.34984(2) 0.0124(1) Uani 1 d
O O2 0.24232(4) 0.7430(1) 0.46371(2) 0.0122(1) Uani 1 d
C C1 0.40313(3) 0.55894(6) 0.44798(1) 0.00913(9) Uani 1 d
H H1 0.307(2) 0.515(5) 0.2729(6) 0.02121 Uani 1 d
O O3 0.13001(4) 0.63178(10) 0.17854(2) 0.0121(1) Uani 1 d
H H2 0.187(2) 0.674(7) 0.1093(5) 0.02651 Uani 1 d
H H3 0.024(1) 0.424(2) 0.151(2) 0.02626 Uani 1 d
loop_
_atom_site_aniso_label
_atom_site_aniso_U_11
_atom_site_aniso_U_22
_atom_site_aniso_U_33
_atom_site_aniso_U_12
_atom_site_aniso_U_13
_atom_site_aniso_U_23
O1 0.01174(8) 0.0180(1) 0.00703(7) 0.00417(7) 0.00138(6) -0.00066(7)
O2 0.01029(7) 0.0169(1) 0.00885(7) 0.00490(7) 0.00122(5) -0.00065(8)
C1 0.00853(6) 0.01126(9) 0.00730(6) 0.00159(4) 0.00132(4) -0.00017(5)
H1 0.0196 0.0247 0.0191 0.0017 0.0042 0.0001
O3 0.00997(7) 0.0171(1) 0.00852(7) -0.00172(6) 0.00071(5) 0.00102(7)
H2 0.0236 0.0374 0.0196 -0.0034 0.0073 0.0033
H3 0.0201 0.0280 0.0302 -0.0063 0.0050 -0.0019
loop_
_atom_type_symbol
_atom_type_description
_atom_type_scat_dispersion_real
_atom_type_scat_dispersion_imag
_atom_type_scat_source
C C 0.0033 0.0016 'Su & Coppens, Acta. Cryst. (1997) A53, 749'
H H 0.0000 0.0000 'Su & Coppens, Acta. Cryst. (1997) A53, 749'
O O 0.0106 0.0060 'Su & Coppens, Acta. Cryst. (1997) A53, 749'
loop_
_geom_angle_atom_site_label_1
_geom_angle_atom_site_label_2
_geom_angle_atom_site_label_3
_geom_angle
O1 C1 O2 126.93(3)
C1 O1 H1 117.3(7)
H2 O3 H3 100(2)
loop_
_geom_bond_atom_site_label_1
_geom_bond_atom_site_label_2
_geom_bond_distance
O1 C1 1.2856(3)
O1 H1 1.074(1)
O2 C1 1.2219(3)
O3 H3 0.970(1)
O3 H2 0.974(1)
loop_
_geom_torsion_atom_site_label_1
_geom_torsion_atom_site_label_2
_geom_torsion_atom_site_label_3
_geom_torsion_atom_site_label_4
_geom_torsion
O2 C1 O1 H1 -0.30(65)
loop_
_refln_index_h
_refln_index_k
_refln_index_l
_refln_F_squared_calc
_refln_F_squared_meas
_refln_F_squared_sigma
_refln_observed_status
-13 0 6 39.729 35.584 5.977 o
-13 0 8 3.816 3.549 0.268 o
-13 0 14 1.781 1.434 0.372 o
-13 1 1 2.998 2.514 0.464 o
-13 1 2 16.554 16.082 0.705 o
-13 1 4 1.391 1.306 0.202 o
-13 1 5 11.405 11.635 1.269 o
-13 1 8 4.421 4.543 0.515 o
-13 1 10 3.882 3.844 0.302 o
-13 1 12 3.793 3.635 0.364 o
-13 1 13 0.657 0.528 0.174 o
-13 1 15 1.793 1.893 0.404 o
-13 2 1 4.767 4.745 0.654 o
-13 2 3 1.284 1.423 0.208 o
-13 2 4 0.973 0.926 0.195 o
-13 2 5 1.382 1.614 0.471 o
-13 2 8 2.714 2.816 0.453 o
-13 2 9 1.674 1.655 0.539 o
-13 2 10 4.766 5.355 0.572 o
-13 2 12 1.269 1.237 0.225 o
-13 2 13 0.923 0.975 0.179 o
-12 0 2 9.811 10.041 0.957 o
-12 0 4 47.278 51.105 1.540 o
-12 0 6 4.937 6.168 0.411 o
-12 0 10 2.790 2.254 0.437 o
-12 0 12 9.507 9.694 0.699 o
-12 0 14 6.195 6.705 0.634 o
-12 0 16 20.852 20.314 0.919 o
-12 1 1 2.037 2.125 0.249 o
-12 1 2 1.141 1.120 0.147 o
-12 1 5 21.500 20.421 0.635 o
-12 1 6 4.931 4.672 0.616 o
-12 1 7 1.644 1.522 0.189 o
-12 1 8 13.557 13.039 0.425 o
-12 1 9 13.084 12.369 0.415 o
-12 1 10 3.231 3.001 0.216 o
-12 1 11 1.157 1.211 0.165 o
-12 1 12 7.801 7.631 0.366 o
-12 1 13 0.867 0.903 0.160 o
-12 1 15 15.511 15.743 0.542 o
-12 1 16 1.948 2.016 0.306 o
-12 2 1 14.500 13.945 0.561 o
-12 2 2 6.091 5.997 0.311 o
-12 2 5 8.895 8.302 0.525 o
-12 2 7 3.889 4.000 0.304 o
-12 2 8 5.171 4.769 0.283 o
-12 2 9 4.697 5.113 0.312 o
-12 2 11 9.544 9.510 0.431 o
-12 2 12 1.322 1.489 0.184 o
-12 2 13 5.988 5.645 0.322 o
-12 3 1 1.804 1.781 0.293 o
-12 3 3 3.646 3.479 0.288 o
-12 3 6 0.981 0.927 0.146 o
-12 3 7 1.356 1.045 0.171 o
-12 3 11 1.835 1.436 0.223 o
-12 3 14 4.416 4.488 0.253 o
-12 4 3 2.238 1.410 0.312 o
-12 4 4 1.743 1.579 0.217 o
-12 4 5 2.425 1.920 0.217 o
-12 4 6 6.526 6.050 0.400 o
-11 0 2 4.223 3.819 0.805 o
-11 0 4 10.516 10.814 0.554 o
-11 0 6 0.669 0.611 0.142 o
-11 0 8 95.640 93.754 2.356 o
-11 0 10 8.721 8.576 0.692 o
-11 0 12 2.855 2.537 0.631 o
-11 0 14 38.029 38.494 1.270 o
-11 0 18 13.731 15.119 0.836 o
-11 0 20 2.336 1.846 0.424 o
-11 1 2 6.525 7.047 0.324 o
-11 1 3 14.539 14.334 0.538 o
-11 1 4 39.465 38.349 0.962 o
-11 1 5 2.349 2.138 0.188 o
-11 1 6 0.238 0.373 0.105 o
-11 1 7 1.624 1.823 0.160 o
-11 1 8 1.554 1.523 0.179 o
-11 1 9 6.804 6.912 0.269 o
-11 1 10 4.238 3.719 0.290 o
-11 1 11 4.409 4.199 0.239 o
-11 1 12 14.953 14.932 0.438 o
-11 1 13 0.401 0.393 0.131 o
-11 1 14 6.968 7.176 0.456 o
-11 1 15 6.665 7.088 0.330 o
-11 1 16 2.789 2.727 0.242 o
-11 1 18 10.890 11.647 0.462 o
-11 1 19 12.773 13.285 0.492 o
-11 1 20 0.546 0.774 0.191 o
-11 2 1 2.987 3.189 0.226 o
-11 2 3 1.407 1.553 0.180 o
-11 2 4 11.933 12.266 0.408 o
-11 2 5 2.076 1.705 0.196 o
-11 2 6 6.744 6.348 0.311 o
-11 2 7 8.652 8.525 0.356 o
-11 2 10 1.207 1.369 0.154 o
-11 2 11 2.287 2.422 0.164 o
-11 2 12 3.007 3.097 0.184 o
-11 2 13 0.610 0.699 0.133 o
-11 2 14 1.396 1.459 0.150 o
-11 2 15 11.208 10.771 0.387 o
-11 2 17 0.903 1.085 0.172 o
-11 2 18 2.705 2.578 0.208 o
-11 3 1 0.988 0.891 0.143 o
-11 3 2 3.438 3.321 0.270 o
-11 3 3 0.447 0.423 0.140 o
-11 3 4 4.761 5.009 0.284 o
-11 3 5 7.347 7.196 0.306 o
-11 3 6 3.506 2.991 0.328 o
-11 3 7 3.898 4.183 0.269 o
-11 3 9 1.643 1.402 0.195 o
-11 3 10 13.264 13.524 0.743 o
-11 3 11 4.485 4.512 0.282 o
-11 3 12 1.300 1.228 0.150 o
-11 3 13 2.878 2.648 0.313 o
-11 3 14 0.433 0.469 0.152 o
-11 3 16 4.346 4.385 0.254 o
-11 3 17 5.058 4.858 0.400 o
-11 4 1 1.530 1.458 0.205 o
-11 4 2 3.165 3.394 0.264 o
-11 4 3 6.385 6.227 0.893 o
-11 4 6 7.395 7.322 0.338 o
-11 4 9 2.908 2.745 0.502 o
-11 4 10 4.385 4.311 0.458 o
-11 4 12 3.672 3.499 0.295 o
-11 4 13 6.661 6.677 0.848 o
-10 0 4 9.102 8.598 0.454 o
-10 0 6 13.286 13.572 0.596 o
-10 0 8 19.162 19.266 0.521 o
-10 0 10 12.736 13.127 0.582 o
-10 0 12 12.751 12.574 0.417 o
-10 0 14 0.866 0.786 0.161 o
-10 0 16 3.340 2.767 0.271 o
-10 0 18 69.410 69.154 3.196 o
-10 0 20 1.939 2.516 0.471 o
-10 1 1 3.907 4.206 0.179 o
-10 1 2 0.618 0.541 0.098 o
-10 1 3 2.476 2.839 0.157 o
-10 1 4 0.842 0.939 0.111 o
-10 1 5 10.577 10.522 0.330 o
-10 1 7 50.414 50.226 1.183 o
-10 1 8 21.177 21.477 0.544 o
-10 1 9 10.490 10.532 0.316 o
-10 1 10 6.884 7.040 0.317 o
-10 1 11 2.162 2.051 0.130 o
-10 1 12 4.304 4.022 0.221 o
-10 1 13 12.248 12.195 0.455 o
-10 1 14 19.557 19.148 0.746 o
-10 1 16 1.019 0.974 0.152 o
-10 1 17 16.398 16.190 0.684 o
-10 1 18 2.561 2.690 0.466 o
-10 1 19 1.986 2.293 0.363 o
-10 1 22 13.278 12.923 0.730 o
-10 2 1 0.613 0.685 0.101 o
-10 2 2 11.424 11.825 0.357 o
-10 2 3 51.968 52.236 1.251 o
-10 2 4 30.917 30.019 0.854 o
-10 2 7 1.372 1.414 0.142 o
-10 2 8 9.879 9.749 0.303 o
-10 2 9 14.902 14.753 0.409 o
-10 2 10 0.792 0.693 0.116 o
-10 2 11 12.740 12.919 0.398 o
-10 2 12 5.116 5.014 0.219 o
-10 2 13 11.982 12.079 0.497 o
-10 2 14 15.155 15.503 0.498 o
-10 2 17 4.146 4.159 0.265 o
-10 2 18 0.637 0.662 0.177 o
-10 3 1 2.609 2.746 0.161 o
-10 3 2 8.614 8.731 0.331 o
-10 3 3 3.630 3.563 0.192 o
-10 3 4 11.072 11.214 0.359 o
-10 3 6 11.513 11.533 0.689 o
-10 3 8 6.545 6.647 0.369 o
-10 3 9 1.186 1.059 0.153 o
-10 3 10 8.748 7.978 0.849 o
-10 3 14 8.588 8.237 1.050 o
-10 3 15 2.986 3.091 0.254 o
-10 3 17 1.691 1.167 0.389 o
-10 4 2 12.050 12.773 0.512 o
-10 4 3 7.094 7.507 0.316 o
-10 4 5 1.141 1.026 0.155 o
-10 4 6 3.782 4.066 0.278 o
-10 4 8 3.789 3.821 0.256 o
-10 4 9 3.287 3.488 0.306 o
-10 4 10 7.767 6.937 0.572 o
-10 4 16 11.961 11.496 0.660 o
-10 4 17 0.914 1.084 0.352 o
-10 5 2 7.789 7.652 0.540 o
-10 5 4 2.674 2.405 0.347 o
-10 5 5 2.972 2.762 0.609 o
-10 5 6 7.037 7.143 0.365 o
-10 5 10 0.758 0.812 0.227 o
-10 5 12 16.732 18.056 1.026 o
-9 0 2 4.433 4.622 0.209 o
-9 0 4 60.787 59.306 1.421 o
-9 0 6 26.200 25.452 0.639 o
-9 0 8 4.509 4.473 0.199 o
-9 0 10 55.750 56.962 1.350 o
-9 0 14 2.061 2.057 0.212 o
-9 0 16 23.134 23.521 0.654 o
-9 0 22 7.815 7.518 0.618 o
-9 1 1 0.439 0.440 0.090 o
-9 1 2 1.459 1.431 0.113 o
-9 1 4 11.419 11.169 0.326 o
-9 1 5 3.065 3.130 0.143 o
-9 1 6 23.898 23.712 0.696 o
-9 1 7 18.414 18.296 0.511 o
-9 1 8 5.204 5.234 0.188 o
-9 1 9 18.520 18.519 0.468 o
-9 1 10 1.295 1.210 0.102 o
-9 1 11 7.152 7.600 0.255 o
-9 1 14 14.996 15.538 0.448 o
-9 1 15 0.639 0.535 0.117 o
-9 1 16 2.814 2.807 0.203 o
-9 1 17 39.086 38.485 0.950 o
-9 1 18 7.361 7.438 0.428 o
-9 1 19 2.854 2.827 0.195 o
-9 1 20 4.975 4.656 0.391 o
-9 1 21 7.792 7.909 0.665 o
-9 1 23 2.575 2.485 0.324 o
-9 2 1 5.330 5.323 0.187 o
-9 2 3 0.807 0.649 0.099 o
-9 2 4 0.349 0.399 0.093 o
-9 2 5 6.665 6.912 0.266 o
-9 2 6 36.049 37.091 0.945 o
-9 2 7 9.976 10.050 0.297 o
-9 2 8 59.176 58.413 1.413 o
-9 2 9 1.271 1.278 0.140 o
-9 2 10 5.898 5.756 0.221 o
-9 2 12 3.297 3.281 0.167 o
-9 2 13 33.503 33.013 1.001 o
-9 2 14 5.330 5.413 0.208 o
-9 2 15 0.550 0.591 0.136 o
-9 2 16 10.147 9.387 0.542 o
-9 2 17 8.723 8.717 0.540 o
-9 2 18 16.160 15.592 0.559 o
-9 2 19 4.568 4.168 0.672 o
-9 2 21 8.091 8.052 0.380 o
-9 2 22 3.148 3.378 0.306 o
-9 2 23 8.484 9.177 0.638 o
-9 3 1 3.596 3.655 0.226 o
-9 3 2 90.901 90.716 2.101 o
-9 3 3 12.873 13.719 0.449 o
-9 3 4 22.561 22.565 0.618 o
-9 3 6 0.997 1.048 0.126 o
-9 3 7 21.777 22.120 0.811 o
-9 3 8 7.497 7.824 0.413 o
-9 3 9 1.574 1.758 0.154 o
-9 3 10 5.346 5.197 0.213 o
-9 3 11 0.951 1.183 0.123 o
-9 3 12 44.405 43.871 1.182 o
-9 3 13 7.067 7.209 0.302 o
-9 3 14 6.550 6.525 0.363 o
-9 3 15 2.792 2.946 0.243 o
-9 3 16 3.456 3.215 0.238 o
-9 3 18 3.277 3.436 0.292 o
-9 4 1 12.150 12.790 0.400 o
-9 4 2 3.640 3.750 0.267 o
-9 4 3 22.682 23.100 0.604 o
-9 4 4 0.345 0.409 0.132 o
-9 4 6 8.846 9.299 0.387 o
-9 4 7 0.797 0.643 0.161 o
-9 4 8 4.609 4.533 0.306 o
-9 4 9 1.887 1.991 0.222 o
-9 4 11 6.467 6.598 0.974 o
-9 4 12 7.231 6.647 0.595 o
-9 4 13 7.982 8.266 0.650 o
-9 5 1 1.625 1.536 0.159 o
-9 5 6 0.966 0.793 0.163 o
-9 5 8 0.726 0.688 0.170 o
-9 5 9 3.720 3.950 0.332 o
-9 6 1 1.766 2.031 0.227 o
-9 6 3 4.662 4.626 0.318 o
-9 6 5 3.924 3.871 0.283 o
-8 0 2 4.063 3.878 0.336 o
-8 0 4 4.826 4.314 0.180 o
-8 0 8 51.804 51.048 1.230 o
-8 0 10 7.319 7.267 0.262 o
-8 0 12 3.208 3.256 0.186 o
-8 0 14 46.862 47.345 1.610 o
-8 0 16 12.859 12.436 0.500 o
-8 0 18 2.410 2.228 0.166 o
-8 0 20 45.861 44.614 1.651 o
-8 1 1 31.227 30.065 0.797 o
-8 1 3 19.913 19.592 0.557 o
-8 1 4 30.832 30.274 0.764 o
-8 1 5 24.213 24.122 0.621 o
-8 1 6 1.846 2.041 0.109 o
-8 1 7 58.765 58.504 1.336 o
-8 1 8 6.271 6.402 0.205 o
-8 1 9 14.015 14.017 0.381 o
-8 1 10 38.092 38.203 0.890 o
-8 1 11 1.780 1.910 0.112 o
-8 1 12 1.883 1.809 0.118 o
-8 1 14 0.577 0.552 0.111 o
-8 1 15 16.956 16.797 0.492 o
-8 1 16 9.257 9.472 0.282 o
-8 1 17 7.554 7.560 0.254 o
-8 1 18 11.394 11.869 0.391 o
-8 1 20 1.196 1.031 0.204 o
-8 1 21 4.550 4.071 0.344 o
-8 1 23 1.063 0.917 0.194 o
-8 1 24 10.558 10.890 0.698 o
-8 2 1 43.357 42.880 1.074 o
-8 2 2 17.762 17.946 0.448 o
-8 2 3 7.462 7.297 0.320 o
-8 2 4 16.476 15.881 0.414 o
-8 2 5 35.473 35.512 0.849 o
-8 2 6 61.084 59.631 1.362 o
-8 2 7 7.056 7.198 0.230 o
-8 2 8 7.299 7.507 0.230 o
-8 2 9 1.545 1.460 0.105 o
-8 2 10 12.101 12.616 0.349 o
-8 2 11 22.156 21.789 0.549 o
-8 2 12 8.476 8.218 0.259 o
-8 2 13 2.151 1.806 0.136 o
-8 2 14 12.006 12.670 0.358 o
-8 2 16 40.353 39.381 1.367 o
-8 2 17 1.980 1.764 0.252 o
-8 2 18 15.092 14.190 0.457 o
-8 2 19 4.033 4.580 0.348 o
-8 2 23 3.201 3.024 0.268 o
-8 3 1 0.245 0.271 0.078 o
-8 3 2 9.415 9.831 0.295 o
-8 3 3 7.244 7.425 0.327 o
-8 3 5 0.715 0.816 0.116 o
-8 3 6 35.584 35.319 0.863 o
-8 3 7 10.484 10.648 0.341 o
-8 3 8 22.951 23.124 0.623 o
-8 3 9 5.730 5.833 0.200 o
-8 3 10 10.489 10.697 0.352 o
-8 3 11 7.005 7.376 0.240 o
-8 3 12 55.009 53.860 1.543 o
-8 3 13 1.651 1.722 0.157 o
-8 3 14 1.441 1.403 0.144 o
-8 3 16 18.553 18.657 0.553 o
-8 3 17 17.929 17.967 0.957 o
-8 3 19 1.228 1.071 0.214 o
-8 3 20 9.035 9.532 0.425 o
-8 3 22 26.894 27.288 1.016 o
-8 3 23 3.313 3.304 0.505 o
-8 4 1 22.231 22.209 0.676 o
-8 4 2 20.868 21.766 0.949 o
-8 4 3 16.035 15.950 0.442 o
-8 4 4 12.595 12.181 0.383 o
-8 4 5 3.270 3.420 0.234 o
-8 4 6 4.787 4.891 0.307 o
-8 4 7 3.106 3.277 0.359 o
-8 4 8 4.688 4.565 0.262 o
-8 4 11 23.310 23.168 0.640 o
-8 4 12 18.323 17.989 0.602 o
-8 4 13 11.612 12.252 1.174 o
-8 4 15 3.434 3.116 0.602 o
-8 4 16 3.195 3.333 0.613 o
-8 4 18 5.586 5.720 0.407 o
-8 5 1 4.698 4.978 0.270 o
-8 5 2 29.347 29.115 1.377 o
-8 5 5 1.511 1.599 0.152 o
-8 5 6 0.439 0.780 0.186 o
-8 5 7 4.780 4.722 0.299 o
-8 5 8 9.252 8.287 0.721 o
-8 6 2 0.799 0.815 0.160 o
-8 6 4 0.906 0.809 0.179 o
-8 6 7 1.399 1.344 0.426 o
-7 0 2 15.545 15.418 0.473 o
-7 0 4 42.565 42.052 1.045 o
-7 0 6 264.480 272.035 6.714 o
-7 0 10 1.426 1.577 0.131 o
-7 0 12 6.043 5.915 0.218 o
-7 0 14 11.106 13.018 0.426 o
-7 0 16 7.621 7.651 0.310 o
-7 0 18 7.943 8.016 0.273 o
-7 0 20 0.590 0.387 0.115 o
-7 0 24 9.086 8.399 0.382 o
-7 0 26 2.129 1.535 0.350 o
-7 1 1 19.504 19.964 0.641 o
-7 1 2 92.134 91.415 2.130 o
-7 1 3 3.776 3.801 0.159 o
-7 1 4 0.406 0.452 0.077 o
-7 1 5 2.409 2.588 0.130 o
-7 1 6 20.792 20.292 0.509 o
-7 1 7 54.364 55.002 1.267 o
-7 1 9 11.371 11.254 0.297 o
-7 1 10 31.118 31.213 0.730 o
-7 1 11 48.895 48.352 1.156 o
-7 1 12 2.865 2.845 0.134 o
-7 1 13 10.000 9.424 0.253 o
-7 1 14 15.789 15.912 0.396 o
-7 1 15 14.586 14.377 0.364 o
-7 1 16 6.420 6.443 0.212 o
-7 1 17 23.964 23.851 0.586 o
-7 1 19 28.751 28.490 0.811 o
-7 1 20 4.784 4.690 0.267 o
-7 1 21 3.180 3.205 0.187 o
-7 1 22 1.422 1.216 0.114 o
-7 1 23 1.155 0.965 0.134 o
-7 1 24 0.883 0.908 0.133 o
-7 1 25 8.697 8.135 0.292 o
-7 2 2 0.398 0.329 0.063 o
-7 2 3 22.886 22.460 0.614 o
-7 2 4 3.634 3.985 0.160 o
-7 2 5 10.862 10.875 0.372 o
-7 2 6 2.092 2.160 0.155 o
-7 2 7 20.394 19.895 0.531 o
-7 2 8 17.145 17.132 0.529 o
-7 2 9 17.431 17.263 0.490 o
-7 2 10 83.527 81.045 1.820 o
-7 2 11 24.107 24.032 0.578 o
-7 2 12 8.477 9.066 0.266 o
-7 2 13 5.344 5.059 0.190 o
-7 2 14 3.518 3.192 0.158 o
-7 2 15 44.336 43.775 1.048 o
-7 2 16 13.207 13.857 0.398 o
-7 2 17 2.271 2.294 0.157 o
-7 2 18 5.001 5.231 0.354 o
-7 2 20 25.863 25.852 1.422 o
-7 2 21 13.926 13.309 0.913 o
-7 2 22 5.029 5.327 0.340 o
-7 2 23 4.421 3.665 0.457 o
-7 2 24 5.371 5.332 0.276 o
-7 2 25 2.796 2.534 0.477 o
-7 3 1 2.163 2.238 0.119 o
-7 3 2 1.825 1.755 0.102 o
-7 3 3 2.685 2.746 0.179 o
-7 3 4 80.781 78.740 1.882 o
-7 3 5 35.711 35.143 0.842 o
-7 3 6 16.972 16.944 0.682 o
-7 3 9 10.202 9.942 0.277 o
-7 3 10 12.085 11.581 0.337 o
-7 3 11 0.325 0.370 0.113 o
-7 3 12 1.088 0.877 0.174 o
-7 3 13 7.486 7.785 0.309 o
-7 3 14 24.668 25.219 0.663 o
-7 3 15 4.806 4.634 0.228 o
-7 3 16 24.211 24.270 0.795 o
-7 3 18 10.862 11.174 0.694 o
-7 3 20 3.050 3.036 0.235 o
-7 3 21 3.093 2.962 0.441 o
-7 3 22 3.212 2.649 0.258 o
-7 4 1 23.543 24.872 0.639 o
-7 4 2 7.064 7.256 0.271 o
-7 4 3 0.583 0.770 0.126 o
-7 4 4 1.993 1.838 0.143 o
-7 4 5 24.551 23.800 0.599 o
-7 4 6 4.430 4.248 0.274 o
-7 4 7 4.093 4.230 0.242 o
-7 4 8 28.879 28.059 0.707 o
-7 4 9 5.478 5.301 0.235 o
-7 4 11 15.254 15.619 0.833 o
-7 4 12 3.847 3.545 0.245 o
-7 4 14 4.091 4.190 0.302 o
-7 4 15 13.144 13.770 0.752 o
-7 4 16 10.330 10.469 1.201 o
-7 4 17 3.648 3.991 0.314 o
-7 4 21 8.314 7.703 0.655 o
-7 5 1 3.831 3.943 0.221 o
-7 5 2 20.853 21.320 0.564 o
-7 5 3 3.608 3.756 0.209 o
-7 5 4 2.127 2.073 0.170 o
-7 5 5 0.947 0.695 0.185 o
-7 5 6 8.226 7.642 0.355 o
-7 5 14 1.233 1.284 0.388 o
-7 5 17 2.546 2.159 0.435 o
-7 5 18 4.699 4.746 0.541 o
-7 6 1 17.618 17.386 0.527 o
-7 6 2 3.184 3.785 0.221 o
-7 6 4 0.773 0.772 0.173 o
-7 6 5 1.501 1.583 0.213 o
-7 6 6 6.567 6.532 0.489 o
-7 6 7 2.683 2.448 0.428 o
-7 6 8 4.939 5.965 0.653 o
-7 6 9 2.233 2.135 0.426 o
-6 0 2 188.984 187.756 4.256 o
-6 0 4 3.316 3.314 0.185 o
-6 0 6 170.236 173.695 3.908 o
-6 0 8 1.169 0.853 0.131 o
-6 0 10 299.096 300.111 6.955 o
-6 0 12 0.026 1.761 0.226 o
-6 0 14 26.789 26.557 0.627 o
-6 0 16 136.293 134.305 3.085 o
-6 0 18 16.270 16.625 0.442 o
-6 0 20 10.422 10.599 0.585 o
-6 0 22 3.128 2.957 0.301 o
-6 0 24 14.192 13.159 0.736 o
-6 0 26 5.318 5.413 0.325 o
-6 1 1 1.305 1.375 0.106 o
-6 1 2 6.881 7.044 0.231 o
-6 1 3 1.252 1.401 0.098 o
-6 1 4 32.983 33.275 0.780 o
-6 1 5 97.622 98.111 2.216 o
-6 1 6 156.386 157.518 3.554 o
-6 1 7 3.008 3.014 0.150 o
-6 1 8 3.039 3.159 0.162 o
-6 1 9 46.272 47.079 1.093 o
-6 1 10 52.951 51.569 1.231 o
-6 1 11 4.079 3.964 0.177 o
-6 1 12 44.011 42.762 0.990 o
-6 1 13 5.036 4.860 0.160 o
-6 1 14 23.393 22.564 0.576 o
-6 1 15 3.675 3.494 0.130 o
-6 1 16 0.624 0.735 0.104 o
-6 1 17 1.056 1.070 0.085 o
-6 1 18 0.735 0.717 0.081 o
-6 1 19 12.891 12.901 0.389 o
-6 1 20 30.421 30.908 0.754 o
-6 1 21 13.912 13.719 0.371 o
-6 1 22 1.538 1.332 0.226 o
-6 1 23 2.408 2.391 0.202 o
-6 1 25 1.471 1.374 0.149 o
-6 1 26 1.961 1.873 0.158 o
-6 2 1 73.414 73.292 1.680 o
-6 2 2 42.593 41.907 0.976 o
-6 2 3 64.574 63.435 1.490 o
-6 2 4 5.859 5.792 0.198 o
-6 2 5 4.401 4.501 0.181 o
-6 2 6 1.048 0.986 0.116 o
-6 2 7 0.312 0.324 0.099 o
-6 2 8 14.372 14.432 0.420 o
-6 2 9 33.041 31.453 0.741 o
-6 2 10 10.237 9.695 0.264 o
-6 2 11 0.293 0.276 0.079 o
-6 2 12 9.785 9.553 0.261 o
-6 2 13 0.347 0.304 0.074 o
-6 2 14 6.864 6.773 0.219 o
-6 2 15 2.934 2.741 0.138 o
-6 2 16 0.428 0.420 0.089 o
-6 2 17 10.057 10.240 0.299 o
-6 2 18 20.729 21.255 0.536 o
-6 2 19 2.636 2.390 0.154 o
-6 2 20 22.648 23.043 0.589 o
-6 2 21 1.717 1.537 0.152 o
-6 2 23 0.582 0.781 0.139 o
-6 2 25 13.844 13.759 0.510 o
-6 3 1 14.302 14.573 0.372 o
-6 3 2 12.118 11.716 0.312 o
-6 3 3 1.324 1.402 0.095 o
-6 3 4 4.934 5.245 0.182 o
-6 3 5 0.751 0.719 0.076 o
-6 3 6 5.913 6.239 0.249 o
-6 3 7 8.802 8.572 0.248 o
-6 3 8 42.886 42.226 0.965 o
-6 3 9 33.088 32.687 0.769 o
-6 3 10 0.548 0.471 0.083 o
-6 3 11 4.709 4.678 0.188 o
-6 3 12 0.330 0.595 0.096 o
-6 3 13 7.534 7.518 0.377 o
-6 3 14 59.401 58.726 1.609 o
-6 3 15 13.385 13.438 0.567 o
-6 3 16 1.827 2.007 0.225 o
-6 3 18 9.213 9.018 0.558 o
-6 3 19 16.566 16.223 1.715 o
-6 3 20 1.069 1.257 0.184 o
-6 3 21 0.507 0.722 0.173 o
-6 3 22 5.677 5.720 0.286 o
-6 3 23 0.917 0.964 0.169 o
-6 3 24 20.772 20.461 0.584 o
-6 4 1 8.396 8.213 0.278 o
-6 4 3 7.119 7.187 0.263 o
-6 4 4 44.606 42.986 1.382 o
-6 4 5 40.929 38.897 0.940 o
-6 4 6 2.191 2.043 0.152 o
-6 4 8 6.994 6.807 0.339 o
-6 4 10 1.976 1.707 0.165 o
-6 4 11 7.607 7.227 0.438 o
-6 4 12 12.314 12.462 0.393 o
-6 4 13 14.129 14.191 0.439 o
-6 4 14 14.580 14.954 0.462 o
-6 4 15 24.152 23.764 1.684 o
-6 4 18 7.749 7.954 0.388 o
-6 4 19 1.050 0.822 0.208 o
-6 4 21 1.656 1.833 0.236 o
-6 4 22 0.575 0.706 0.204 o
-6 5 2 0.604 0.652 0.116 o
-6 5 3 1.056 1.127 0.126 o
-6 5 4 40.079 39.459 1.087 o
-6 5 6 6.841 6.855 0.309 o
-6 5 7 2.814 2.308 0.202 o
-6 5 8 17.034 16.818 0.713 o
-6 5 10 16.765 16.708 1.253 o
-6 5 14 2.281 2.254 0.453 o
-6 5 15 1.451 1.898 0.427 o
-6 5 16 8.234 8.650 0.689 o
-6 5 18 1.608 1.421 0.383 o
-6 5 20 2.686 2.910 0.480 o
-6 6 1 1.829 1.578 0.151 o
-6 6 2 4.447 4.735 0.242 o
-6 6 3 0.437 0.821 0.170 o
-6 6 4 3.721 3.767 0.399 o
-6 6 5 10.311 11.644 0.457 o
-6 6 6 1.243 1.333 0.228 o
-6 6 15 4.211 3.875 0.510 o
-6 7 1 6.271 6.390 0.634 o
-5 0 2 94.523 94.527 2.281 o
-5 0 4 19.365 18.862 0.525 o
-5 0 6 119.489 119.897 3.166 o
-5 0 8 290.406 295.224 6.767 o
-5 0 10 101.218 104.156 2.378 o
-5 0 12 45.552 45.812 1.167 o
-5 0 14 0.628 0.504 0.075 o
-5 0 18 28.411 27.841 0.693 o
-5 0 20 106.133 105.560 2.581 o
-5 0 26 15.903 13.819 0.747 o
-5 1 1 57.357 56.277 1.305 o
-5 1 2 264.425 261.836 6.042 o
-5 1 3 52.300 54.168 1.277 o
-5 1 4 96.304 96.138 2.310 o
-5 1 5 31.299 31.328 0.735 o
-5 1 6 3.826 4.018 0.164 o
-5 1 7 1.072 1.236 0.101 o
-5 1 8 18.294 18.052 0.464 o
-5 1 9 273.105 276.030 6.254 o
-5 1 10 26.409 26.621 0.659 o
-5 1 12 25.800 25.776 0.618 o
-5 1 13 9.780 9.160 0.240 o
-5 1 14 26.814 26.696 0.684 o
-5 1 15 41.412 40.499 0.959 o
-5 1 16 57.116 57.004 1.283 o
-5 1 17 17.280 17.093 0.426 o
-5 1 18 0.659 0.624 0.083 o
-5 1 19 43.844 44.727 1.027 o
-5 1 20 0.642 0.648 0.113 o
-5 1 21 1.148 1.254 0.119 o
-5 1 22 1.529 1.547 0.147 o
-5 1 24 17.653 16.469 0.498 o
-5 1 25 1.172 1.048 0.235 o
-5 1 26 3.245 3.130 0.234 o
-5 2 1 9.991 9.773 0.265 o
-5 2 2 0.574 0.626 0.077 o
-5 2 3 4.394 4.498 0.156 o
-5 2 4 28.169 27.781 0.703 o
-5 2 5 178.635 178.168 4.068 o
-5 2 6 84.373 84.047 1.936 o
-5 2 7 22.844 23.467 0.611 o
-5 2 8 1.937 1.829 0.136 o
-5 2 11 41.905 39.927 0.916 o
-5 2 12 26.338 25.977 0.650 o
-5 2 13 77.134 76.009 1.703 o
-5 2 14 0.633 0.630 0.072 o
-5 2 15 12.411 11.997 0.368 o
-5 2 16 3.696 3.711 0.157 o
-5 2 17 8.672 8.723 0.345 o
-5 2 18 5.216 5.452 0.207 o
-5 2 19 12.201 12.682 0.355 o
-5 2 22 11.264 11.540 0.333 o
-5 2 23 8.597 8.919 0.311 o
-5 2 24 1.878 2.045 0.164 o
-5 3 1 20.930 20.502 0.521 o
-5 3 3 6.216 6.134 0.203 o
-5 3 4 11.661 11.343 0.468 o
-5 3 5 3.902 3.772 0.201 o
-5 3 6 5.239 5.406 0.240 o
-5 3 7 17.125 16.496 0.478 o
-5 3 8 2.159 2.282 0.116 o
-5 3 10 6.910 7.214 0.247 o
-5 3 11 0.597 0.720 0.099 o
-5 3 12 0.768 0.694 0.091 o
-5 3 14 0.831 0.797 0.106 o
-5 3 15 2.494 2.460 0.235 o
-5 3 18 13.973 14.475 0.409 o
-5 3 19 6.355 6.974 0.256 o
-5 3 21 1.054 0.976 0.225 o
-5 3 23 4.376 4.855 0.274 o
-5 3 24 9.897 10.057 0.380 o
-5 4 1 3.627 3.590 0.170 o
-5 4 3 26.206 26.121 0.632 o
-5 4 4 25.881 25.309 0.615 o
-5 4 5 14.272 13.919 0.433 o
-5 4 7 1.252 1.180 0.143 o
-5 4 8 26.781 26.099 0.639 o
-5 4 10 26.136 26.693 0.691 o
-5 4 12 2.151 2.209 0.169 o
-5 4 13 15.726 15.947 0.535 o
-5 4 14 7.660 8.281 0.336 o
-5 4 15 14.033 15.192 0.469 o
-5 4 17 2.509 2.288 0.233 o
-5 4 18 18.031 18.412 0.599 o
-5 4 22 2.955 3.045 0.231 o
-5 4 23 10.094 10.372 0.664 o
-5 5 1 2.896 3.020 0.162 o
-5 5 2 4.196 4.102 0.267 o
-5 5 3 3.113 3.075 0.267 o
-5 5 4 69.621 69.059 1.595 o
-5 5 6 9.688 9.819 0.355 o
-5 5 7 2.473 2.485 0.353 o
-5 5 8 6.993 7.103 0.771 o
-5 5 9 3.072 3.224 0.795 o
-5 5 10 4.012 4.485 0.331 o
-5 5 12 11.974 12.076 0.770 o
-5 5 13 4.166 3.886 0.608 o
-5 5 14 54.237 55.992 1.500 o
-5 5 16 0.769 0.791 0.207 o
-5 5 18 1.585 1.392 0.301 o
-5 5 20 3.394 3.532 0.296 o
-5 6 3 20.780 20.169 1.415 o
-5 6 4 3.119 3.039 0.418 o
-5 6 5 1.370 1.317 0.218 o
-5 6 13 1.560 1.577 0.398 o
-5 6 15 4.397 4.468 0.536 o
-4 0 2 1005.905 1004.189 22.845 o
-4 0 4 127.152 127.711 2.861 o
-4 0 6 48.530 47.100 1.253 o
-4 0 8 588.013 589.345 13.055 o
-4 0 10 1.978 1.759 0.201 o
-4 0 12 248.292 250.596 7.476 o
-4 0 14 2.095 1.835 0.148 o
-4 0 16 58.906 58.241 1.762 o
-4 0 18 141.077 141.748 3.230 o
-4 0 22 1.443 1.520 0.182 o
-4 0 24 1.975 1.807 0.200 o
-4 0 26 13.188 13.423 0.783 o
-4 1 1 95.980 93.547 2.120 o
-4 1 2 58.820 58.797 1.346 o
-4 1 3 1.788 1.775 0.114 o
-4 1 4 33.730 34.572 0.833 o
-4 1 6 182.142 182.006 4.125 o
-4 1 7 88.989 88.878 2.092 o
-4 1 8 177.552 177.991 4.698 o
-4 1 9 46.011 45.683 1.063 o
-4 1 11 1.654 1.554 0.111 o
-4 1 12 85.826 84.532 2.026 o
-4 1 13 15.892 15.677 0.399 o
-4 1 14 17.427 17.219 0.419 o
-4 1 16 23.507 23.119 0.541 o
-4 1 17 4.731 4.627 0.161 o
-4 1 18 1.042 1.061 0.084 o
-4 1 19 55.642 55.907 1.279 o
-4 1 20 12.945 13.005 0.434 o
-4 1 21 1.809 1.940 0.136 o
-4 1 22 24.819 25.448 0.816 o
-4 1 23 10.192 10.281 0.318 o
-4 1 24 2.967 2.868 0.169 o
-4 1 25 5.023 5.190 0.330 o
-4 1 26 2.741 2.777 0.192 o
-4 2 1 54.378 53.998 1.395 o
-4 2 2 13.461 13.077 0.363 o
-4 2 3 81.638 81.286 1.927 o
-4 2 4 65.105 65.686 1.656 o
-4 2 5 6.286 6.616 0.254 o
-4 2 6 5.938 5.932 0.290 o
-4 2 7 7.441 7.365 0.256 o
-4 2 8 83.574 84.551 2.053 o
-4 2 9 13.493 13.725 0.410 o
-4 2 10 30.758 31.843 0.791 o
-4 2 11 7.776 8.069 0.462 o
-4 2 12 0.778 0.951 0.133 o
-4 2 13 3.271 3.530 0.140 o
-4 2 14 23.430 23.735 0.585 o
-4 2 15 35.496 35.874 0.828 o
-4 2 16 11.245 11.347 0.311 o
-4 2 17 7.799 7.931 0.234 o
-4 2 18 7.978 7.941 0.274 o
-4 2 19 6.437 6.752 0.220 o
-4 2 21 4.808 4.889 0.209 o
-4 2 22 4.396 4.674 0.217 o
-4 2 23 20.388 20.565 0.544 o
-4 2 24 2.757 2.362 0.192 o
-4 2 25 3.375 3.635 0.215 o
-4 2 26 1.574 1.769 0.159 o
-4 3 1 5.209 4.936 0.261 o
-4 3 2 14.511 14.447 0.422 o
-4 3 3 25.417 25.225 0.632 o
-4 3 4 248.987 247.735 5.701 o
-4 3 5 29.845 28.546 0.760 o
-4 3 6 8.547 8.559 0.294 o
-4 3 7 5.225 5.278 0.214 o
-4 3 8 0.358 0.330 0.079 o
-4 3 9 39.426 38.894 1.118 o
-4 3 10 67.964 66.280 1.561 o
-4 3 11 22.391 22.525 0.784 o
-4 3 12 12.621 12.928 0.363 o
-4 3 13 0.916 0.977 0.099 o
-4 3 14 32.914 32.645 0.846 o
-4 3 15 6.468 6.713 0.280 o
-4 3 16 4.394 4.472 0.192 o
-4 3 17 15.760 16.505 0.440 o
-4 3 18 2.885 2.986 0.155 o
-4 3 20 6.916 6.956 0.255 o
-4 3 21 1.700 1.834 0.146 o
-4 3 22 1.194 1.106 0.144 o
-4 4 1 0.238 0.320 0.077 o
-4 4 2 5.775 5.410 0.190 o
-4 4 3 62.623 60.180 1.366 o
-4 4 4 0.944 1.294 0.123 o
-4 4 5 12.102 12.044 0.355 o
-4 4 6 30.344 29.347 0.823 o
-4 4 7 10.871 10.630 0.304 o
-4 4 8 4.602 4.487 0.190 o
-4 4 9 2.310 2.244 0.165 o
-4 4 10 3.073 2.991 0.196 o
-4 4 12 0.388 0.604 0.156 o
-4 4 13 31.143 31.066 1.041 o
-4 4 14 25.007 24.116 0.982 o
-4 4 15 0.861 0.974 0.253 o
-4 4 16 1.940 2.073 0.382 o
-4 4 17 5.167 5.844 0.337 o
-4 4 18 2.386 2.102 0.203 o
-4 4 20 5.394 5.384 0.279 o
-4 4 22 3.215 3.520 0.249 o
-4 4 23 6.089 6.086 0.292 o
-4 5 2 23.778 23.658 0.580 o
-4 5 3 2.430 2.397 0.224 o
-4 5 6 6.234 6.380 0.275 o
-4 5 8 8.706 9.008 0.949 o
-4 5 10 13.530 13.094 1.574 o
-4 5 11 1.464 1.000 0.276 o
-4 5 12 8.158 7.695 0.494 o
-4 5 13 0.555 0.869 0.234 o
-4 5 14 14.282 14.847 0.840 o
-4 5 17 1.691 1.553 0.304 o
-4 5 18 13.537 13.750 0.507 o
-4 6 2 5.312 5.825 0.639 o
-4 6 3 13.801 14.499 0.842 o
-4 6 4 3.619 3.433 0.571 o
-4 6 5 6.157 5.454 0.376 o
-4 6 12 4.598 4.716 0.584 o
-4 6 13 21.764 23.235 0.957 o
-4 6 14 5.606 6.833 0.637 o
-3 0 2 15.045 15.354 0.482 o
-3 0 4 95.690 92.977 2.077 o
-3 0 6 12.590 13.843 0.641 o
-3 0 8 23.049 22.919 0.828 o
-3 0 10 4.506 4.491 0.224 o
-3 0 12 148.718 149.060 3.488 o
-3 0 14 18.687 18.058 0.805 o
-3 0 16 14.124 13.597 0.501 o
-3 0 18 34.395 34.290 0.866 o
-3 0 20 10.815 10.326 0.359 o
-3 0 22 104.599 104.176 3.358 o
-3 0 26 4.948 5.002 0.323 o
-3 1 1 339.129 340.873 7.833 o
-3 1 2 34.804 35.082 0.846 o
-3 1 3 162.138 162.955 3.568 o
-3 1 4 239.536 246.389 5.547 o
-3 1 5 218.037 217.020 4.867 o
-3 1 6 0.270 0.312 0.087 o
-3 1 7 352.161 355.473 8.010 o
-3 1 8 8.463 8.564 0.288 o
-3 1 9 62.767 63.126 1.443 o
-3 1 10 3.430 3.495 0.245 o
-3 1 11 163.472 163.753 3.664 o
-3 1 12 54.441 56.634 1.295 o
-3 1 13 0.895 0.975 0.123 o
-3 1 14 0.346 0.453 0.072 o
-3 1 16 33.029 32.731 0.766 o
-3 1 17 62.637 61.728 1.380 o
-3 1 18 40.652 40.366 0.935 o
-3 1 19 0.267 0.396 0.092 o
-3 1 20 2.134 2.189 0.137 o
-3 1 21 8.846 9.223 0.289 o
-3 1 22 2.363 2.461 0.180 o
-3 1 23 1.952 2.061 0.226 o
-3 1 25 1.368 1.344 0.148 o
-3 1 26 19.736 19.249 0.564 o
-3 2 1 84.058 84.918 2.181 o
-3 2 2 186.602 190.421 4.369 o
-3 2 3 312.444 315.048 7.108 o
-3 2 4 28.041 27.855 0.690 o
-3 2 5 2.704 2.398 0.169 o
-3 2 6 139.158 142.791 3.266 o
-3 2 7 171.168 170.803 3.924 o
-3 2 8 299.283 300.703 6.932 o
-3 2 9 53.311 55.084 1.566 o
-3 2 10 11.310 11.276 0.431 o
-3 2 11 24.495 24.242 0.664 o
-3 2 12 2.193 2.403 0.148 o
-3 2 13 55.817 55.450 1.347 o
-3 2 14 1.030 1.033 0.082 o
-3 2 15 30.351 29.304 0.832 o
-3 2 16 15.239 15.255 0.409 o
-3 2 17 0.974 0.900 0.118 o
-3 2 18 46.802 47.073 1.285 o
-3 2 20 3.687 3.853 0.177 o
-3 2 21 12.119 12.154 0.378 o
-3 2 24 3.306 3.463 0.232 o
-3 3 1 4.066 4.076 0.183 o
-3 3 2 262.050 267.609 6.200 o
-3 3 3 4.320 8.098 0.382 o
-3 3 4 48.867 49.374 1.166 o
-3 3 5 22.102 22.395 0.656 o
-3 3 7 3.812 3.978 0.341 o
-3 3 8 18.012 18.366 0.748 o
-3 3 9 4.557 5.070 0.216 o
-3 3 10 20.459 20.391 0.538 o
-3 3 11 1.443 1.486 0.114 o
-3 3 12 45.114 44.215 1.036 o
-3 3 13 10.467 10.338 0.298 o
-3 3 14 73.622 74.494 1.687 o
-3 3 15 1.737 1.816 0.125 o
-3 3 17 1.141 1.065 0.131 o
-3 3 18 3.466 3.556 0.325 o
-3 3 19 11.610 12.163 0.389 o
-3 3 20 4.779 4.686 0.194 o
-3 3 21 7.102 7.418 0.320 o
-3 3 22 11.484 11.584 0.347 o
-3 3 24 12.371 12.782 0.408 o
-3 3 25 2.694 3.011 0.424 o
-3 4 1 21.515 21.483 0.544 o
-3 4 2 11.772 11.637 0.452 o
-3 4 3 59.833 57.983 1.331 o
-3 4 4 31.215 30.803 0.751 o
-3 4 6 27.724 27.016 0.640 o
-3 4 7 17.052 17.270 0.464 o
-3 4 8 0.547 0.350 0.101 o
-3 4 9 0.552 0.417 0.130 o
-3 4 10 41.499 40.219 1.085 o
-3 4 11 3.862 3.639 0.219 o
-3 4 12 3.448 3.559 0.260 o
-3 4 13 33.404 33.594 1.080 o
-3 4 14 6.390 6.673 0.353 o
-3 4 16 4.264 4.642 0.293 o
-3 4 17 11.824 12.888 0.508 o
-3 4 18 4.536 4.457 0.607 o
-3 4 20 10.319 11.072 0.456 o
-3 4 21 0.701 0.971 0.167 o
-3 4 23 8.628 8.822 0.507 o
-3 5 2 2.164 2.038 0.199 o
-3 5 3 4.476 4.402 0.219 o
-3 5 4 10.284 10.857 0.413 o
-3 5 5 1.095 1.024 0.141 o
-3 5 6 40.522 40.646 1.049 o
-3 5 7 4.272 4.987 0.772 o
-3 5 8 0.601 0.903 0.236 o
-3 5 9 4.385 4.560 0.531 o
-3 5 10 5.523 5.424 0.405 o
-3 5 11 1.500 1.152 0.284 o
-3 5 12 13.657 12.638 0.607 o
-3 5 14 1.950 1.742 0.464 o
-3 5 16 20.063 21.122 0.942 o
-3 5 17 1.178 1.455 0.464 o
-3 5 20 2.821 2.942 0.271 o
-3 6 1 8.890 8.795 0.708 o
-3 6 2 2.043 1.560 0.461 o
-3 6 4 1.451 1.782 0.251 o
-3 6 17 8.020 8.272 0.630 o
-2 0 2 621.668 645.612 13.712 o
-2 0 4 2124.873 2153.134 46.349 o
-2 0 6 169.251 176.259 4.643 o
-2 0 8 476.426 456.864 10.634 o
-2 0 10 190.515 192.137 4.333 o
-2 0 12 16.708 17.297 0.467 o
-2 0 14 59.186 58.423 1.350 o
-2 0 16 12.492 12.410 0.353 o
-2 0 18 5.296 5.202 0.229 o
-2 0 20 18.443 17.461 0.556 o
-2 0 22 4.527 4.709 0.267 o
-2 0 26 4.287 4.241 0.304 o
-2 1 1 191.634 203.841 4.639 o
-2 1 2 576.428 596.804 13.182 o
-2 1 3 21.713 21.256 0.529 o
-2 1 4 370.792 375.971 8.642 o
-2 1 5 19.900 20.898 0.551 o
-2 1 6 6.061 5.941 0.199 o
-2 1 7 35.618 34.209 0.828 o
-2 1 8 294.584 295.672 6.651 o
-2 1 9 22.942 23.034 0.573 o
-2 1 10 32.663 33.223 0.775 o
-2 1 11 84.689 84.176 1.928 o
-2 1 12 9.412 10.178 0.282 o
-2 1 13 32.950 32.856 0.865 o
-2 1 14 19.899 19.372 0.530 o
-2 1 15 11.837 11.319 0.312 o
-2 1 16 1.087 0.942 0.074 o
-2 1 17 32.142 31.714 0.867 o
-2 1 18 9.477 9.544 0.270 o
-2 1 19 1.778 1.993 0.119 o
-2 1 20 1.046 0.954 0.103 o
-2 1 21 61.838 62.905 1.602 o
-2 1 22 12.170 13.043 0.370 o
-2 1 24 2.677 2.401 0.166 o
-2 1 25 0.605 0.537 0.133 o
-2 1 26 1.779 1.794 0.159 o
-2 2 1 153.262 160.364 3.635 o
-2 2 2 488.145 500.259 11.266 o
-2 2 3 10.221 10.100 0.270 o
-2 2 4 24.378 23.888 0.625 o
-2 2 5 3.478 3.345 0.164 o
-2 2 6 73.304 72.795 1.888 o
-2 2 7 35.321 35.600 0.869 o
-2 2 8 29.018 29.152 0.723 o
-2 2 9 17.940 17.844 0.454 o
-2 2 10 91.646 93.575 2.265 o
-2 2 11 13.334 13.335 0.366 o
-2 2 12 114.397 111.153 2.928 o
-2 2 13 31.914 31.156 0.740 o
-2 2 14 14.021 13.866 0.363 o
-2 2 15 2.297 2.260 0.134 o
-2 2 16 38.935 38.341 0.881 o
-2 2 17 57.857 57.707 1.310 o
-2 2 18 30.082 30.920 0.728 o
-2 2 19 8.764 9.123 0.265 o
-2 2 20 7.452 7.347 0.249 o
-2 2 21 0.661 0.613 0.110 o
-2 2 22 10.485 10.475 0.327 o
-2 2 23 11.772 12.149 0.374 o
-2 2 24 0.488 0.659 0.127 o
-2 2 25 16.859 16.761 0.499 o
-2 2 26 8.953 8.831 0.391 o
-2 3 1 146.635 148.384 3.410 o
-2 3 2 70.872 69.533 1.952 o
-2 3 3 1.317 1.362 0.112 o
-2 3 4 9.781 9.889 0.319 o
-2 3 5 7.982 8.623 0.315 o
-2 3 6 381.314 383.758 9.420 o
-2 3 7 85.785 85.427 2.024 o
-2 3 8 27.610 27.443 0.784 o
-2 3 9 8.303 8.396 0.446 o
-2 3 10 23.717 23.356 0.783 o
-2 3 11 21.481 20.727 0.606 o
-2 3 12 89.259 88.039 2.330 o
-2 3 13 4.333 4.082 0.182 o
-2 3 14 5.185 5.069 0.196 o
-2 3 15 11.509 11.246 0.326 o
-2 3 16 34.831 34.130 0.931 o
-2 3 17 4.809 4.580 0.193 o
-2 3 18 9.742 9.883 0.328 o
-2 3 19 1.648 2.132 0.220 o
-2 3 20 16.873 16.487 0.442 o
-2 3 22 12.549 12.324 0.388 o
-2 3 24 1.835 1.737 0.213 o
-2 4 1 16.737 16.044 0.576 o
-2 4 2 65.453 63.604 1.442 o
-2 4 3 36.574 35.339 0.818 o
-2 4 4 0.353 0.465 0.082 o
-2 4 5 36.752 36.200 0.907 o
-2 4 6 4.290 4.423 0.254 o
-2 4 7 38.877 37.658 0.915 o
-2 4 8 0.626 0.673 0.118 o
-2 4 9 0.119 0.339 0.112 o
-2 4 10 25.959 25.731 0.675 o
-2 4 11 18.930 19.209 0.544 o
-2 4 13 11.355 11.446 0.395 o
-2 4 14 9.713 9.878 0.378 o
-2 4 15 11.612 11.749 0.472 o
-2 4 16 16.724 17.037 0.569 o
-2 4 17 11.346 11.670 0.709 o
-2 4 18 1.272 1.401 0.431 o
-2 4 21 2.527 2.650 0.473 o
-2 4 23 3.575 3.745 0.293 o
-2 5 2 16.625 16.620 0.765 o
-2 5 3 3.455 3.426 0.248 o
-2 5 4 3.730 3.949 0.364 o
-2 5 5 4.405 4.338 0.349 o
-2 5 8 1.070 1.020 0.245 o
-2 5 9 0.973 1.254 0.333 o
-2 5 10 4.003 4.120 0.373 o
-2 5 12 0.795 0.876 0.189 o
-2 5 13 6.033 6.213 0.323 o
-2 5 14 2.881 2.715 0.490 o
-2 5 20 6.213 6.363 0.352 o
-1 0 2 772.796 817.686 20.140 o
-1 0 4 889.133 901.645 21.399 o
-1 0 6 211.708 211.575 4.331 o
-1 0 8 506.473 494.558 12.762 o
-1 0 10 2.912 2.910 0.177 o
-1 0 12 111.470 110.223 2.434 o
-1 0 14 50.589 50.374 1.163 o
-1 0 16 23.582 23.816 0.580 o
-1 0 18 63.414 64.435 2.283 o
-1 0 20 45.587 44.874 1.138 o
-1 0 22 0.816 0.733 0.152 o
-1 0 24 24.424 24.968 0.723 o
-1 0 26 7.192 6.953 0.352 o
-1 1 1 2915.685 2988.561 65.860 o
-1 1 2 148.179 159.171 3.581 o
-1 1 3 344.441 363.147 8.531 o
-1 1 4 252.679 265.865 5.847 o
-1 1 5 0.959 0.984 0.098 o
-1 1 6 0.408 0.455 0.076 o
-1 1 7 434.749 427.442 9.660 o
-1 1 8 99.225 96.102 2.151 o
-1 1 9 174.923 176.519 4.052 o
-1 1 11 76.553 75.861 1.709 o
-1 1 12 89.106 89.009 2.048 o
-1 1 13 5.953 5.956 0.217 o
-1 1 14 46.871 46.570 1.195 o
-1 1 15 10.778 10.654 0.332 o
-1 1 16 6.523 6.647 0.214 o
-1 1 17 1.905 1.919 0.101 o
-1 1 18 15.821 16.253 0.407 o
-1 1 19 10.678 11.102 0.322 o
-1 1 20 2.987 2.910 0.186 o
-1 1 21 14.605 15.503 0.456 o
-1 1 22 13.543 13.497 0.406 o
-1 1 23 1.698 1.698 0.133 o
-1 1 24 0.683 0.851 0.134 o
-1 1 25 1.453 1.550 0.151 o
-1 2 1 150.805 143.603 3.536 o
-1 2 2 8.783 8.607 0.243 o
-1 2 3 176.732 172.736 3.829 o
-1 2 4 245.209 238.205 5.254 o
-1 2 5 518.210 509.966 12.144 o
-1 2 6 19.341 18.910 0.495 o
-1 2 7 1.331 1.379 0.102 o
-1 2 8 47.771 48.311 1.159 o
-1 2 9 8.077 7.960 0.254 o
-1 2 10 193.890 196.014 4.425 o
-1 2 11 75.126 75.732 1.742 o
-1 2 12 34.793 33.883 0.864 o
-1 2 13 13.950 13.430 0.358 o
-1 2 14 1.377 1.403 0.098 o
-1 2 15 13.278 13.156 0.340 o
-1 2 18 6.120 5.958 0.211 o
-1 2 19 4.525 4.669 0.191 o
-1 2 20 52.426 53.793 1.623 o
-1 2 21 1.042 1.232 0.123 o
-1 2 22 20.782 21.904 0.572 o
-1 3 2 32.369 33.162 0.787 o
-1 3 3 14.423 14.416 0.450 o
-1 3 4 59.304 59.097 1.360 o
-1 3 5 0.745 0.906 0.098 o
-1 3 6 111.898 111.234 2.535 o
-1 3 7 1.816 1.751 0.120 o
-1 3 8 6.283 6.484 0.230 o
-1 3 9 1.476 1.433 0.122 o
-1 3 10 33.102 33.714 0.831 o
-1 3 11 43.653 42.383 1.058 o
-1 3 12 0.227 0.308 0.078 o
-1 3 13 1.160 1.075 0.096 o
-1 3 14 29.045 28.652 0.715 o
-1 3 15 6.898 6.500 0.284 o
-1 3 16 122.418 120.677 3.250 o
-1 3 17 12.888 13.216 0.381 o
-1 3 18 1.198 1.356 0.143 o
-1 3 19 4.113 3.929 0.311 o
-1 3 21 14.298 14.542 0.467 o
-1 3 22 5.874 6.009 0.425 o
-1 3 23 2.612 2.403 0.239 o
-1 3 24 15.259 14.237 1.440 o
-1 4 1 6.529 6.386 0.210 o
-1 4 2 10.072 10.232 0.289 o
-1 4 4 0.556 0.561 0.090 o
-1 4 5 61.618 62.207 1.440 o
-1 4 6 87.560 83.957 2.705 o
-1 4 7 30.333 29.094 0.735 o
-1 4 8 8.829 8.402 0.296 o
-1 4 9 1.468 1.866 0.171 o
-1 4 11 2.904 3.080 0.229 o
-1 4 12 22.580 22.206 0.689 o
-1 4 13 0.456 0.543 0.159 o
-1 4 14 3.455 3.615 0.245 o
-1 4 16 4.668 3.820 0.856 o
-1 4 20 11.285 11.458 0.681 o
-1 4 21 2.768 2.465 0.684 o
-1 4 22 1.402 1.501 0.214 o
-1 5 1 10.432 10.628 0.557 o
-1 5 2 79.385 78.692 1.921 o
-1 5 3 1.151 1.331 0.140 o
-1 5 4 4.891 4.893 0.271 o
-1 5 6 34.175 34.652 1.008 o
-1 5 7 1.023 1.290 0.241 o
-1 5 9 7.231 6.769 0.997 o
-1 5 10 15.757 14.965 1.128 o
-1 5 12 15.901 15.081 1.223 o
0 0 2 153.186 153.247 3.291 o
0 0 4 72.718 75.625 1.767 o
0 0 6 1050.261 1063.950 28.148 o
0 0 8 298.504 298.151 6.656 o
0 0 10 414.235 410.548 9.010 o
0 0 12 13.991 14.826 0.495 o
0 0 14 53.579 56.383 2.807 o
0 0 16 11.649 12.209 0.342 o
0 0 18 0.716 1.440 0.168 o
0 0 20 10.998 12.444 0.401 o
0 0 22 17.221 17.402 0.522 o
0 0 24 1.347 1.648 0.251 o
0 0 26 2.407 2.034 0.393 o
0 1 1 463.340 483.776 11.193 o
0 1 2 93.561 97.005 2.238 o
0 1 3 17.501 17.201 0.442 o
0 1 4 1618.565 1619.917 35.430 o
0 1 5 72.570 73.508 1.676 o
0 1 6 321.335 326.148 7.280 o
0 1 7 37.205 37.537 0.910 o
0 1 8 28.392 26.544 0.674 o
0 1 9 38.299 38.440 0.905 o
0 1 10 151.598 150.646 3.370 o
0 1 11 205.855 206.465 5.007 o
0 1 13 27.368 26.765 0.730 o
0 1 14 9.591 9.017 0.267 o
0 1 15 3.685 3.750 0.204 o
0 1 16 3.613 3.751 0.161 o
0 1 17 20.570 21.056 0.523 o
0 1 18 27.163 27.160 0.696 o
0 1 19 53.621 55.367 1.265 o
0 1 20 3.516 4.119 0.174 o
0 1 21 17.260 17.267 0.445 o
0 1 22 4.480 4.609 0.217 o
0 1 23 11.947 12.190 0.445 o
0 1 24 4.610 5.080 0.276 o
0 1 25 1.134 0.668 0.169 o
0 1 26 2.435 2.145 0.213 o
0 2 0 11.468 12.279 0.463 o
0 2 1 78.646 76.712 1.729 o
0 2 2 133.337 133.868 3.207 o
0 2 4 192.904 190.164 4.426 o
0 2 5 49.217 48.661 1.114 o
0 2 6 5.251 5.237 0.182 o
0 2 7 141.793 141.184 3.273 o
0 2 8 0.561 0.642 0.100 o
0 2 9 57.400 56.498 1.347 o
0 2 10 26.728 26.609 0.651 o
0 2 11 1.334 1.280 0.106 o
0 2 12 17.593 17.273 0.478 o
0 2 13 10.031 10.007 0.305 o
0 2 14 62.086 60.083 1.424 o
0 2 15 101.358 99.479 2.245 o
0 2 16 2.814 2.755 0.152 o
0 2 18 12.435 12.303 0.366 o
0 2 19 13.355 13.295 0.386 o
0 2 20 27.873 27.526 0.958 o
0 2 21 14.481 14.750 1.011 o
0 2 22 0.520 0.562 0.160 o
0 2 23 4.633 4.561 0.316 o
0 2 24 8.155 8.247 0.637 o
0 2 25 9.341 9.096 0.398 o
0 3 1 52.956 53.464 1.226 o
0 3 2 120.487 117.606 2.655 o
0 3 3 89.663 91.633 2.106 o
0 3 4 58.157 57.839 1.326 o
0 3 5 16.964 17.118 0.442 o
0 3 6 0.163 0.295 0.078 o
0 3 7 1.151 1.254 0.107 o
0 3 8 103.689 104.226 2.514 o
0 3 9 43.899 44.122 1.197 o
0 3 10 1.541 1.506 0.129 o
0 3 11 1.518 1.569 0.146 o
0 3 12 7.244 8.699 0.277 o
0 3 14 29.409 28.786 0.736 o
0 3 16 1.154 1.275 0.142 o
0 3 17 5.433 5.531 0.255 o
0 3 18 5.324 5.532 0.318 o
0 3 20 13.416 13.625 0.761 o
0 3 21 2.804 2.970 0.221 o
0 3 22 4.975 5.064 0.323 o
0 3 24 8.113 8.177 0.643 o
0 4 0 2.833 2.925 0.195 o
0 4 1 13.843 13.782 0.458 o
0 4 2 60.247 59.357 1.601 o
0 4 3 4.090 4.320 0.181 o
0 4 4 13.050 13.444 0.387 o
0 4 5 82.386 83.939 2.022 o
0 4 6 6.629 6.884 0.252 o
0 4 8 6.151 6.284 0.467 o
0 4 9 6.592 6.559 0.295 o
0 4 10 17.652 18.150 0.604 o
0 4 11 0.847 0.994 0.180 o
0 4 12 26.241 25.118 0.763 o
0 4 13 6.629 6.257 0.283 o
0 4 15 27.632 28.149 1.568 o
0 4 16 18.695 18.016 0.654 o
0 4 18 2.850 3.278 0.507 o
0 4 19 3.737 3.779 0.520 o
0 4 20 4.542 4.297 0.533 o
0 4 22 1.324 1.268 0.240 o
0 5 2 7.831 8.218 0.578 o
0 5 3 1.315 1.081 0.171 o
0 5 4 24.716 26.345 0.706 o
0 5 5 3.246 3.117 0.246 o
0 5 6 78.901 77.956 1.805 o
0 5 8 6.941 5.737 0.787 o
0 5 11 3.956 4.630 0.873 o
0 5 12 9.557 9.081 1.025 o
0 6 5 30.611 31.232 1.086 o
1 0 0 374.576 413.760 14.981 o
1 0 2 10.079 10.587 0.368 o
1 0 4 1930.052 1963.055 42.350 o
1 0 6 232.756 231.378 5.365 o
1 0 8 75.670 71.625 1.627 o
1 0 10 682.568 685.406 15.010 o
1 0 12 6.908 8.709 0.959 o
1 0 14 88.697 85.414 2.025 o
1 0 16 12.722 12.972 0.358 o
1 0 18 92.397 93.515 2.113 o
1 0 20 96.877 99.827 2.419 o
1 0 22 4.811 4.582 0.376 o
1 0 24 1.425 1.389 0.376 o
1 1 0 1632.872 1709.779 38.775 o
1 1 1 41.573 41.019 1.012 o
1 1 2 448.211 460.765 10.280 o
1 1 3 826.568 835.511 21.575 o
1 1 4 67.022 68.850 1.548 o
1 1 5 120.304 120.335 2.694 o
1 1 6 214.634 217.899 5.161 o
1 1 7 18.103 18.904 0.504 o
1 1 8 96.442 97.114 2.208 o
1 1 9 192.027 194.553 4.346 o
1 1 10 75.674 75.138 1.707 o
1 1 12 2.139 2.332 0.138 o
1 1 13 7.614 7.548 0.343 o
1 1 14 131.091 130.852 3.907 o
1 1 15 4.124 4.207 0.167 o
1 1 16 24.465 24.339 0.602 o
1 1 17 3.990 3.980 0.228 o
1 1 18 4.552 4.527 0.185 o
1 1 19 12.458 12.411 0.365 o
1 1 20 5.640 5.993 0.304 o
1 1 21 10.272 10.122 0.309 o
1 1 22 3.339 3.370 0.190 o
1 1 23 9.223 9.247 0.426 o
1 1 24 16.072 15.888 0.527 o
1 1 25 2.656 3.231 0.485 o
1 2 0 330.617 338.642 7.616 o
1 2 1 287.148 280.283 6.249 o
1 2 3 369.099 369.740 8.272 o
1 2 4 20.639 21.055 0.580 o
1 2 5 91.849 94.604 2.130 o
1 2 6 168.883 171.667 3.855 o
1 2 7 84.901 84.628 1.925 o
1 2 8 6.059 6.036 0.226 o
1 2 9 7.700 7.884 0.255 o
1 2 10 4.474 4.254 0.196 o
1 2 11 8.829 8.852 0.286 o
1 2 12 15.617 15.065 0.427 o
1 2 13 28.464 28.235 0.700 o
1 2 14 6.606 7.062 0.269 o
1 2 15 0.792 0.812 0.101 o
1 2 16 5.930 5.385 0.406 o
1 2 17 4.132 4.080 0.316 o
1 2 19 6.222 6.162 0.281 o
1 2 20 0.477 0.498 0.129 o
1 2 21 2.597 2.470 0.247 o
1 2 22 12.663 13.103 1.188 o
1 2 24 11.230 10.996 1.011 o
1 2 25 10.907 10.024 0.628 o
1 3 0 20.423 20.298 0.515 o
1 3 1 32.354 31.919 0.787 o
1 3 2 49.102 49.203 1.164 o
1 3 4 8.513 8.772 0.313 o
1 3 5 23.733 23.558 0.584 o
1 3 6 44.619 44.579 1.074 o
1 3 7 20.010 20.154 0.546 o
1 3 8 26.395 26.227 0.700 o
1 3 9 10.561 10.303 0.718 o
1 3 10 0.868 0.856 0.152 o
1 3 11 16.538 16.326 0.544 o
1 3 12 36.085 35.169 0.869 o
1 3 13 30.861 30.279 0.768 o
1 3 14 15.236 14.803 0.532 o
1 3 15 1.015 1.217 0.135 o
1 3 17 1.862 1.613 0.261 o
1 3 18 39.773 39.166 1.191 o
1 3 19 16.686 16.526 0.688 o
1 3 21 1.308 1.241 0.213 o
1 3 23 2.621 2.645 0.255 o
1 4 0 18.550 18.522 0.501 o
1 4 1 0.528 0.676 0.082 o
1 4 2 60.012 57.983 1.362 o
1 4 3 14.445 13.923 0.459 o
1 4 4 3.025 3.285 0.184 o
1 4 5 54.438 54.082 1.278 o
1 4 6 8.161 8.118 0.320 o
1 4 7 1.344 1.081 0.135 o
1 4 8 62.943 61.222 1.398 o
1 4 9 13.277 12.927 0.384 o
1 4 11 1.588 1.578 0.149 o
1 4 12 1.615 1.370 0.157 o
1 4 13 8.376 8.468 0.436 o
1 4 14 1.986 1.857 0.187 o
1 4 15 20.189 19.811 1.327 o
1 4 16 13.785 13.607 0.499 o
1 4 17 4.738 4.605 0.554 o
1 4 19 4.705 5.016 0.575 o
1 4 20 2.943 3.265 0.487 o
1 4 22 8.627 8.360 0.379 o
1 5 0 4.171 4.089 0.433 o
1 5 2 12.262 12.183 0.545 o
1 5 3 0.685 0.603 0.150 o
1 5 4 97.823 97.837 2.341 o
1 5 5 4.145 3.560 0.398 o
1 5 8 8.639 9.296 1.098 o
1 5 12 24.132 21.611 1.433 o
1 6 0 6.746 6.810 0.650 o
1 6 1 5.901 6.467 0.669 o
1 6 2 3.322 2.958 0.506 o
1 6 4 5.640 6.614 0.644 o
1 6 5 12.455 11.878 0.589 o
1 6 6 4.311 4.005 0.316 o
2 0 0 24.162 25.193 0.618 o
2 0 2 3810.030 3709.368 79.249 o
2 0 4 8.461 9.064 0.398 o
2 0 6 4.000 3.763 0.222 o
2 0 8 102.134 104.467 2.490 o
2 0 10 36.399 34.801 1.603 o
2 0 12 81.353 80.786 2.024 o
2 0 14 100.970 100.252 3.068 o
2 0 16 37.594 37.443 0.901 o
2 0 18 5.524 4.943 0.395 o
2 0 20 19.919 20.130 0.634 o
2 0 22 16.848 16.719 0.582 o
2 0 24 38.524 36.756 1.111 o
2 1 0 380.963 394.685 8.747 o
2 1 1 70.491 71.034 1.700 o
2 1 2 2.847 2.816 0.130 o
2 1 3 488.664 491.150 10.922 o
2 1 4 10.172 9.849 0.280 o
2 1 5 19.679 20.205 0.512 o
2 1 6 445.036 443.018 9.923 o
2 1 7 30.427 29.795 0.800 o
2 1 8 49.120 48.588 1.321 o
2 1 9 180.788 182.282 4.151 o
2 1 10 43.353 42.794 1.016 o
2 1 11 1.994 1.886 0.133 o
2 1 12 25.092 26.325 0.920 o
2 1 13 122.390 120.246 2.922 o
2 1 14 3.422 3.370 0.200 o
2 1 15 5.606 5.560 0.274 o
2 1 16 0.561 0.395 0.083 o
2 1 17 4.621 4.791 0.186 o
2 1 18 22.513 22.880 0.648 o
2 1 19 36.297 35.538 1.229 o
2 1 20 27.764 27.273 0.876 o
2 1 21 10.411 11.181 0.518 o
2 1 22 0.741 0.920 0.173 o
2 1 23 7.835 6.961 0.619 o
2 1 24 9.484 8.955 0.631 o
2 2 0 542.738 542.423 12.277 o
2 2 1 1.962 1.959 0.119 o
2 2 2 3.106 3.298 0.182 o
2 2 3 17.199 17.802 0.525 o
2 2 4 1.260 1.193 0.104 o
2 2 5 157.858 159.313 3.615 o
2 2 6 11.056 11.268 0.363 o
2 2 7 57.890 58.903 1.529 o
2 2 8 57.631 56.239 1.310 o
2 2 9 79.759 79.530 1.957 o
2 2 10 78.642 78.429 1.792 o
2 2 11 33.038 32.957 0.789 o
2 2 12 0.500 0.515 0.079 o
2 2 13 37.096 37.027 0.873 o
2 2 14 1.849 1.939 0.163 o
2 2 15 13.378 13.568 0.421 o
2 2 16 14.064 14.724 0.599 o
2 2 17 49.821 50.519 2.452 o
2 2 18 2.492 2.652 0.209 o
2 2 20 2.077 2.011 0.233 o
2 2 22 3.396 3.622 0.538 o
2 3 0 13.136 13.280 0.375 o
2 3 1 32.535 32.318 0.793 o
2 3 2 91.919 91.959 2.210 o
2 3 3 4.606 4.616 0.191 o
2 3 4 224.947 225.596 5.130 o
2 3 5 8.497 8.897 0.312 o
2 3 6 2.438 2.352 0.196 o
2 3 7 30.909 31.324 0.764 o
2 3 8 1.780 1.755 0.127 o
2 3 9 1.375 1.373 0.101 o
2 3 10 2.786 2.959 0.146 o
2 3 12 3.864 3.439 0.190 o
2 3 14 8.998 8.998 0.347 o
2 3 15 5.476 5.109 0.280 o
2 3 16 3.867 4.161 0.268 o
2 3 18 1.543 1.499 0.430 o
2 3 21 2.023 1.879 0.220 o
2 3 22 5.421 5.543 0.364 o
2 3 23 5.845 5.521 0.529 o
2 4 0 13.576 13.111 0.362 o
2 4 2 2.060 1.987 0.132 o
2 4 3 57.628 56.756 1.411 o
2 4 4 57.118 55.196 1.424 o
2 4 5 18.681 18.558 0.629 o
2 4 6 3.827 3.851 0.176 o
2 4 7 19.710 19.570 0.538 o
2 4 8 5.546 5.961 0.229 o
2 4 9 6.804 6.919 0.275 o
2 4 10 1.864 1.951 0.130 o
2 4 12 37.712 37.244 0.950 o
2 4 13 12.054 11.596 0.413 o
2 4 14 8.543 8.296 0.353 o
2 4 15 5.857 5.392 0.329 o
2 4 17 6.790 6.415 0.616 o
2 4 18 12.274 12.140 0.748 o
2 4 19 4.202 4.149 0.552 o
2 5 0 11.782 11.728 0.410 o
2 5 1 3.921 4.013 0.205 o
2 5 2 2.461 2.626 0.212 o
2 5 3 1.391 1.152 0.169 o
2 5 4 2.904 2.989 0.232 o
2 5 5 1.414 1.365 0.192 o
2 5 6 1.930 1.656 0.303 o
2 5 8 77.531 78.039 1.910 o
2 5 9 5.598 4.985 0.315 o
2 5 10 3.617 3.739 0.840 o
2 5 13 1.738 1.908 0.406 o
2 5 14 20.568 22.722 0.916 o
2 5 15 1.148 1.190 0.379 o
2 5 16 7.831 7.938 0.609 o
2 5 18 17.678 17.387 0.788 o
2 6 2 7.591 7.561 0.664 o
2 6 3 14.057 14.541 0.537 o
2 6 4 7.882 7.821 0.404 o
2 6 7 6.073 6.111 0.595 o
2 7 6 2.512 2.154 0.481 o
2 7 7 3.526 2.680 0.481 o
3 0 0 422.192 431.454 9.645 o
3 0 2 204.345 198.604 4.408 o
3 0 4 21.627 21.511 0.608 o
3 0 6 605.247 591.670 15.211 o
3 0 8 10.657 10.950 0.397 o
3 0 10 1.484 1.214 0.252 o
3 0 12 286.279 281.676 8.632 o
3 0 14 3.951 4.072 0.169 o
3 0 16 11.853 11.697 0.378 o
3 0 18 10.824 11.366 0.429 o
3 0 20 39.479 38.102 1.755 o
3 0 22 38.253 38.267 1.151 o
3 1 0 115.641 114.793 2.580 o
3 1 1 454.656 460.048 10.309 o
3 1 2 459.242 475.433 10.607 o
3 1 3 44.379 44.704 1.034 o
3 1 4 11.989 12.226 0.333 o
3 1 5 5.238 5.348 0.194 o
3 1 6 4.706 4.725 0.187 o
3 1 7 30.577 30.698 0.743 o
3 1 8 38.779 39.054 0.960 o
3 1 9 1.472 1.511 0.114 o
3 1 10 87.779 88.875 2.030 o
3 1 11 14.828 13.966 0.390 o
3 1 12 11.503 11.657 0.312 o
3 1 13 37.137 36.172 0.836 o
3 1 14 0.679 0.659 0.087 o
3 1 15 3.063 3.139 0.159 o
3 1 16 62.242 63.404 1.488 o
3 1 17 1.311 1.218 0.138 o
3 1 18 3.113 2.886 0.215 o
3 1 19 8.222 8.244 0.407 o
3 1 21 4.727 4.397 0.349 o
3 1 23 25.132 23.535 0.917 o
3 1 24 5.933 5.371 0.514 o
3 2 0 2.100 2.277 0.131 o
3 2 1 7.876 7.954 0.240 o
3 2 2 285.089 284.571 6.602 o
3 2 3 107.816 104.379 2.384 o
3 2 4 93.802 92.926 2.138 o
3 2 5 64.870 65.264 1.528 o
3 2 6 46.495 47.010 1.143 o
3 2 7 4.023 4.277 0.224 o
3 2 8 106.260 107.201 2.955 o
3 2 9 2.446 2.547 0.188 o
3 2 10 11.354 11.169 0.314 o
3 2 11 9.788 9.695 0.267 o
3 2 12 22.315 21.760 0.528 o
3 2 13 2.970 2.855 0.156 o
3 2 14 8.461 8.637 0.292 o
3 2 15 1.237 1.213 0.131 o
3 2 16 2.054 2.297 0.226 o
3 2 17 7.267 6.959 0.636 o
3 2 18 22.569 23.055 0.702 o
3 2 19 15.851 16.024 1.470 o
3 2 20 7.302 7.641 0.392 o
3 2 21 5.872 6.092 0.600 o
3 2 22 2.082 1.576 0.402 o
3 2 23 1.277 1.439 0.369 o
3 3 0 71.869 73.912 1.701 o
3 3 1 2.502 2.441 0.139 o
3 3 2 21.542 21.979 0.571 o
3 3 3 101.702 101.723 2.307 o
3 3 4 111.353 112.359 2.528 o
3 3 5 0.256 0.325 0.088 o
3 3 6 20.630 20.932 0.609 o
3 3 7 2.360 2.486 0.159 o
3 3 8 119.646 117.244 2.959 o
3 3 9 37.352 38.539 0.908 o
3 3 11 16.938 17.182 0.493 o
3 3 12 34.168 34.096 0.823 o
3 3 13 12.683 12.452 0.587 o
3 3 14 52.316 51.030 2.002 o
3 3 15 5.374 5.974 0.644 o
3 3 16 8.586 8.909 1.330 o
3 3 17 7.804 7.325 0.394 o
3 3 18 2.255 2.040 0.449 o
3 3 21 4.334 4.742 0.544 o
3 3 22 6.754 6.675 0.568 o
3 4 0 6.666 6.692 0.225 o
3 4 2 2.488 2.254 0.193 o
3 4 3 19.084 18.235 0.459 o
3 4 4 41.483 40.290 1.219 o
3 4 5 0.337 0.397 0.073 o
3 4 6 0.300 0.329 0.072 o
3 4 7 58.039 57.857 1.464 o
3 4 8 20.865 21.235 0.545 o
3 4 9 9.717 9.440 0.303 o
3 4 10 12.053 11.589 0.352 o
3 4 12 1.910 2.205 0.200 o
3 4 13 14.707 14.080 0.700 o
3 4 14 3.274 2.975 0.257 o
3 4 16 2.583 2.352 0.471 o
3 4 17 17.752 17.853 0.885 o
3 4 18 10.663 10.910 0.721 o
3 4 19 0.915 1.147 0.379 o
3 5 0 20.171 19.574 0.498 o
3 5 1 9.233 9.481 0.333 o
3 5 2 3.256 3.020 0.175 o
3 5 5 1.905 1.841 0.318 o
3 5 6 16.589 17.413 0.571 o
3 5 7 4.745 4.167 0.265 o
3 5 8 1.436 1.850 0.172 o
3 5 12 1.922 2.166 0.436 o
3 5 14 1.816 1.397 0.413 o
3 5 15 2.019 2.115 0.431 o
3 5 16 4.483 4.374 0.552 o
3 5 18 15.927 16.206 0.752 o
3 6 5 3.784 3.673 0.586 o
3 6 7 15.963 16.983 0.870 o
3 7 2 4.094 4.151 0.620 o
3 7 3 5.471 5.600 0.646 o
3 7 8 1.312 1.333 0.423 o
4 0 0 46.317 46.515 1.080 o
4 0 4 38.669 39.070 0.977 o
4 0 6 14.293 13.594 0.448 o
4 0 8 1.151 1.214 0.157 o
4 0 10 4.236 4.903 0.312 o
4 0 12 3.008 2.858 0.146 o
4 0 16 50.985 50.699 1.168 o
4 1 0 2.520 2.515 0.148 o
4 1 1 161.178 160.739 3.623 o
4 1 2 194.102 191.206 4.295 o
4 1 3 220.375 214.833 4.838 o
4 1 4 3.114 3.168 0.146 o
4 1 5 94.126 92.468 2.260 o
4 1 6 41.249 41.427 0.977 o
4 1 7 8.335 8.430 0.272 o
4 1 8 28.897 29.137 0.755 o
4 1 9 20.670 21.016 0.537 o
4 1 11 132.792 129.734 2.917 o
4 1 12 11.892 11.775 0.343 o
4 1 13 6.571 6.147 0.218 o
4 1 14 2.478 2.457 0.134 o
4 1 15 10.079 9.794 0.288 o
4 1 16 3.554 3.664 0.201 o
4 1 17 9.234 8.863 0.379 o
4 1 19 1.416 1.471 0.178 o
4 1 20 19.361 18.058 0.614 o
4 1 21 15.820 15.089 0.774 o
4 1 22 5.361 5.430 0.549 o
4 2 0 120.880 120.475 2.701 o
4 2 1 78.701 78.088 1.770 o
4 2 2 308.642 306.901 6.940 o
4 2 3 56.568 54.870 1.272 o
4 2 4 15.514 15.192 0.407 o
4 2 5 0.521 0.651 0.106 o
4 2 6 7.263 6.915 0.269 o
4 2 7 161.010 158.463 3.896 o
4 2 8 0.821 0.872 0.094 o
4 2 9 14.855 15.036 0.387 o
4 2 10 43.252 43.224 0.996 o
4 2 11 1.436 1.337 0.127 o
4 2 12 106.514 105.520 2.391 o
4 2 13 28.253 28.246 0.727 o
4 2 14 10.983 11.025 0.344 o
4 2 15 28.130 29.751 0.799 o
4 2 16 2.594 2.476 0.170 o
4 2 17 5.867 5.471 0.248 o
4 2 18 6.138 5.973 0.694 o
4 2 19 3.223 3.423 0.299 o
4 2 20 3.414 3.320 0.534 o
4 2 21 2.575 2.941 0.486 o
4 3 0 6.431 6.536 0.273 o
4 3 1 37.547 37.779 1.021 o
4 3 2 0.989 0.875 0.091 o
4 3 3 1.755 1.762 0.107 o
4 3 4 50.538 49.151 1.137 o
4 3 5 3.973 4.009 0.185 o
4 3 6 110.850 109.489 2.624 o
4 3 7 0.202 0.225 0.070 o
4 3 8 56.608 55.616 1.296 o
4 3 9 6.293 6.297 0.203 o
4 3 10 10.068 9.659 0.284 o
4 3 11 0.315 0.351 0.097 o
4 3 13 13.885 13.156 0.405 o
4 3 16 25.100 24.917 2.256 o
4 3 17 3.180 3.749 0.553 o
4 3 18 35.402 34.898 0.935 o
4 3 19 3.079 2.753 0.471 o
4 3 21 4.141 4.467 0.506 o
4 4 0 70.157 67.902 1.697 o
4 4 1 0.468 0.492 0.086 o
4 4 2 0.625 0.436 0.079 o
4 4 3 3.106 3.026 0.148 o
4 4 4 1.755 1.948 0.110 o
4 4 5 20.817 20.791 0.526 o
4 4 6 14.287 13.673 0.402 o
4 4 7 41.501 42.054 1.130 o
4 4 8 22.813 22.499 0.571 o
4 4 9 1.054 1.149 0.131 o
4 4 10 1.514 1.774 0.162 o
4 4 11 0.519 0.506 0.120 o
4 4 13 0.679 0.492 0.143 o
4 4 14 23.507 24.116 1.027 o
4 4 15 5.073 5.611 0.655 o
4 4 17 20.164 20.390 0.930 o
4 5 1 2.008 1.890 0.123 o
4 5 2 0.997 0.918 0.120 o
4 5 3 3.760 3.298 0.210 o
4 5 4 25.577 26.020 0.796 o
4 5 5 2.017 1.965 0.149 o
4 5 6 10.207 10.220 0.498 o
4 5 8 2.087 1.792 0.255 o
4 5 10 17.084 16.974 0.534 o
4 5 11 7.694 7.406 0.599 o
4 5 12 2.335 2.482 0.461 o
4 5 16 8.801 8.798 0.642 o
4 5 17 1.240 1.177 0.348 o
4 6 1 3.961 3.866 0.614 o
4 6 5 2.884 2.743 0.497 o
4 6 8 2.441 2.371 0.463 o
4 6 9 1.775 1.918 0.451 o
4 7 1 5.086 5.559 0.657 o
4 7 6 7.427 7.174 0.633 o
5 0 0 65.596 66.076 1.690 o
5 0 2 715.657 698.948 15.430 o
5 0 4 12.512 12.409 0.414 o
5 0 6 6.643 6.429 0.344 o
5 0 8 150.914 149.161 3.715 o
5 0 10 74.791 73.189 1.698 o
5 0 12 18.333 18.816 0.660 o
5 0 14 16.631 16.879 0.465 o
5 0 16 16.308 16.229 0.463 o
5 0 18 2.157 1.677 0.547 o
5 1 0 0.397 0.404 0.076 o
5 1 1 113.460 112.144 2.540 o
5 1 2 60.905 61.074 1.426 o
5 1 3 1.705 1.963 0.131 o
5 1 4 40.690 40.763 1.000 o
5 1 5 1.364 1.449 0.112 o
5 1 6 86.575 85.463 1.994 o
5 1 7 5.073 5.002 0.188 o
5 1 8 1.629 1.677 0.107 o
5 1 9 2.020 2.123 0.101 o
5 1 10 0.752 0.874 0.076 o
5 1 11 30.716 30.444 0.707 o
5 1 12 58.175 57.489 1.309 o
5 1 13 16.916 16.834 0.481 o
5 1 14 0.317 0.284 0.083 o
5 1 15 19.258 19.418 0.491 o
5 1 18 6.192 6.103 0.304 o
5 1 19 0.958 0.803 0.157 o
5 1 20 1.473 1.323 0.351 o
5 1 21 26.830 25.270 0.906 o
5 2 0 25.090 25.432 0.613 o
5 2 1 25.794 26.339 0.634 o
5 2 2 3.300 3.628 0.154 o
5 2 3 25.413 24.472 0.625 o
5 2 4 63.335 63.226 1.445 o
5 2 5 15.008 15.170 0.387 o
5 2 6 49.706 49.149 1.141 o
5 2 7 4.275 4.058 0.167 o
5 2 8 14.795 14.477 0.365 o
5 2 9 10.736 10.438 0.360 o
5 2 10 41.772 42.268 0.960 o
5 2 11 11.318 11.065 0.330 o
5 2 12 22.971 22.621 0.562 o
5 2 14 6.531 6.753 0.246 o
5 2 16 12.927 12.502 0.397 o
5 2 17 27.022 26.504 1.190 o
5 2 18 2.914 2.532 0.251 o
5 2 19 3.163 3.513 0.535 o
5 2 20 19.540 17.914 0.821 o
5 2 21 3.106 2.965 0.462 o
5 3 0 127.236 126.404 2.987 o
5 3 1 29.083 28.396 0.825 o
5 3 2 5.606 5.564 0.191 o
5 3 3 4.785 4.803 0.161 o
5 3 4 3.887 3.845 0.140 o
5 3 5 42.656 42.247 0.962 o
5 3 6 94.483 91.857 2.063 o
5 3 7 5.504 5.565 0.204 o
5 3 8 3.352 3.399 0.146 o
5 3 9 0.321 0.338 0.074 o
5 3 10 40.898 40.570 1.087 o
5 3 11 23.390 23.140 0.677 o
5 3 12 0.683 0.481 0.145 o
5 3 13 4.798 4.900 0.255 o
5 3 14 31.037 31.720 1.367 o
5 3 16 36.172 38.208 1.272 o
5 3 19 4.711 4.880 0.537 o
5 4 0 9.804 9.864 0.293 o
5 4 1 4.781 5.291 0.192 o
5 4 3 1.528 1.438 0.123 o
5 4 4 27.158 26.491 0.686 o
5 4 5 20.288 20.019 0.583 o
5 4 6 9.598 9.525 0.299 o
5 4 7 20.448 21.219 0.604 o
5 4 9 8.398 8.623 0.287 o
5 4 10 16.947 16.064 0.694 o
5 4 11 2.523 2.585 0.194 o
5 4 12 0.640 0.591 0.145 o
5 4 14 2.741 3.447 0.536 o
5 4 15 13.408 12.717 0.806 o
5 4 16 1.384 1.566 0.431 o
5 4 17 5.290 5.286 0.595 o
5 4 18 8.614 8.541 0.614 o
5 5 0 5.679 6.407 0.234 o
5 5 2 5.332 4.810 0.229 o
5 5 3 1.127 1.166 0.135 o
5 5 4 3.565 3.842 0.197 o
5 5 6 6.587 6.444 0.286 o
5 5 7 1.391 1.325 0.196 o
5 5 8 8.129 8.080 0.368 o
5 5 14 3.561 3.362 0.526 o
5 5 16 3.005 3.117 0.461 o
5 6 0 7.454 7.685 0.358 o
5 6 1 4.820 4.780 0.307 o
5 6 2 4.411 4.818 0.683 o
5 6 3 2.617 2.279 0.233 o
5 6 4 2.029 1.716 0.245 o
5 6 5 8.228 8.362 0.667 o
5 6 6 3.212 2.925 0.690 o
5 6 7 12.563 12.328 1.123 o
5 6 8 0.788 1.230 0.203 o
5 6 9 2.714 2.780 0.248 o
5 7 0 2.152 2.006 0.500 o
5 7 3 2.167 1.868 0.462 o
6 0 0 244.707 242.740 5.755 o
6 0 2 31.600 30.617 0.832 o
6 0 4 1.443 1.450 0.144 o
6 0 6 45.112 47.944 1.230 o
6 0 8 16.526 16.479 0.453 o
6 0 10 36.345 35.242 0.953 o
6 0 12 98.630 98.259 2.265 o
6 0 14 4.616 4.801 0.264 o
6 0 16 2.329 1.936 0.219 o
6 0 18 13.279 12.322 0.950 o
6 1 0 0.514 0.650 0.106 o
6 1 1 193.903 191.903 4.442 o
6 1 2 65.026 62.815 1.449 o
6 1 3 23.577 22.764 0.663 o
6 1 4 57.146 57.145 1.323 o
6 1 5 61.087 61.756 1.383 o
6 1 6 22.479 22.720 0.550 o
6 1 7 12.881 12.867 0.361 o
6 1 8 44.558 44.243 1.041 o
6 1 9 35.945 36.000 0.835 o
6 1 10 0.333 0.377 0.066 o
6 1 11 34.137 34.403 0.815 o
6 1 12 0.736 0.672 0.094 o
6 1 13 14.832 15.443 0.415 o
6 1 15 2.249 2.246 0.128 o
6 1 16 28.452 28.307 0.785 o
6 1 18 3.431 3.499 0.548 o
6 2 1 9.605 9.468 0.312 o
6 2 3 15.139 15.162 0.401 o
6 2 4 51.041 49.307 1.233 o
6 2 5 101.799 99.155 2.259 o
6 2 6 2.017 1.909 0.095 o
6 2 7 1.255 1.070 0.081 o
6 2 8 5.788 5.494 0.195 o
6 2 9 36.778 36.747 0.864 o
6 2 10 1.731 1.867 0.135 o
6 2 11 6.126 5.872 0.308 o
6 2 12 3.702 3.528 0.415 o
6 2 13 7.081 7.140 0.259 o
6 2 14 36.262 36.591 0.885 o
6 2 15 16.736 16.903 0.477 o
6 2 16 8.189 7.994 0.299 o
6 2 17 1.598 1.260 0.209 o
6 2 18 0.768 0.912 0.300 o
6 2 20 3.163 2.859 0.444 o
6 3 0 0.003 0.295 0.067 o
6 3 2 0.882 0.884 0.078 o
6 3 3 0.707 0.699 0.075 o
6 3 4 0.322 0.425 0.063 o
6 3 7 5.616 5.652 0.224 o
6 3 8 6.780 7.395 0.246 o
6 3 9 3.166 3.189 0.164 o
6 3 10 34.659 34.802 0.839 o
6 3 11 2.055 2.130 0.181 o
6 3 12 1.324 1.283 0.176 o
6 3 15 13.712 13.762 0.452 o
6 3 16 6.086 6.517 0.364 o
6 3 18 9.245 9.362 0.404 o
6 4 0 18.256 18.454 0.469 o
6 4 2 27.531 28.054 0.675 o
6 4 4 6.900 6.836 0.333 o
6 4 5 14.893 15.180 0.480 o
6 4 6 0.971 0.946 0.111 o
6 4 7 2.300 1.976 0.136 o
6 4 9 8.334 8.376 0.446 o
6 4 10 20.589 20.320 1.233 o
6 4 11 2.115 2.358 0.231 o
6 4 14 3.367 3.597 0.443 o
6 4 15 5.538 5.948 0.632 o
6 4 16 4.580 4.312 0.620 o
6 5 0 29.499 30.388 0.766 o
6 5 1 4.271 4.386 0.271 o
6 5 3 0.665 0.758 0.126 o
6 5 4 16.557 16.666 0.467 o
6 5 6 50.045 49.173 1.243 o
6 5 7 2.865 3.074 0.646 o
6 5 8 0.758 0.864 0.241 o
6 5 9 1.415 1.606 0.366 o
6 5 13 1.710 1.578 0.210 o
6 5 14 9.146 9.386 0.651 o
6 6 0 12.645 13.554 0.510 o
6 6 1 2.038 1.896 0.368 o
6 6 2 5.218 5.284 0.441 o
6 6 3 5.518 5.833 0.542 o
6 6 5 1.253 1.174 0.268 o
6 6 7 2.206 2.085 0.239 o
6 6 8 0.992 0.820 0.201 o
6 6 10 7.966 8.166 0.602 o
6 7 0 1.860 1.712 0.460 o
7 0 0 113.902 104.779 3.231 o
7 0 2 38.145 37.218 0.854 o
7 0 4 285.632 285.627 6.370 o
7 0 6 1.248 1.166 0.123 o
7 0 8 45.995 46.607 1.094 o
7 0 10 64.650 64.026 1.562 o
7 0 12 19.003 18.095 0.605 o
7 0 14 13.426 13.682 0.453 o
7 0 16 8.892 8.639 0.579 o
7 0 18 17.996 18.276 0.846 o
7 1 0 87.566 85.673 2.004 o
7 1 1 1.471 1.290 0.083 o
7 1 3 8.030 7.817 0.230 o
7 1 4 36.885 36.448 0.863 o
7 1 5 42.295 42.973 0.990 o
7 1 6 1.114 0.997 0.086 o
7 1 7 1.360 1.301 0.094 o
7 1 8 50.023 50.417 1.178 o
7 1 10 3.600 3.720 0.170 o
7 1 11 17.892 17.627 0.507 o
7 1 12 16.338 16.101 0.506 o
7 1 13 16.445 16.700 0.535 o
7 1 14 25.654 25.659 0.815 o
7 1 15 24.210 24.753 0.769 o
7 1 17 4.012 4.043 0.414 o
7 2 0 37.710 36.979 0.903 o
7 2 1 11.737 11.433 0.316 o
7 2 2 6.876 6.824 0.199 o
7 2 3 5.047 4.803 0.196 o
7 2 4 0.512 0.521 0.064 o
7 2 5 0.730 0.813 0.080 o
7 2 6 6.331 6.623 0.214 o
7 2 7 3.775 3.460 0.204 o
7 2 8 7.861 7.887 0.265 o
7 2 9 21.766 21.586 0.563 o
7 2 10 1.095 0.986 0.109 o
7 2 11 10.853 10.797 0.351 o
7 2 13 4.662 4.330 0.212 o
7 2 14 7.479 7.326 0.323 o
7 2 15 12.453 12.293 0.425 o
7 2 16 1.421 1.192 0.187 o
7 2 18 4.521 4.182 0.484 o
7 3 0 0.689 0.693 0.081 o
7 3 1 29.126 29.461 0.693 o
7 3 2 24.124 24.527 0.586 o
7 3 3 17.408 17.925 0.463 o
7 3 4 14.749 15.094 0.406 o
7 3 5 0.971 0.970 0.131 o
7 3 6 7.606 7.478 0.315 o
7 3 7 3.823 3.577 0.199 o
7 3 8 13.083 13.513 0.379 o
7 3 9 11.157 10.961 0.329 o
7 3 10 1.888 1.715 0.137 o
7 3 12 4.159 4.397 0.299 o
7 3 13 1.913 1.777 0.214 o
7 3 16 2.031 1.887 0.234 o
7 4 0 10.508 10.724 0.332 o
7 4 1 1.262 1.277 0.125 o
7 4 2 1.932 1.816 0.141 o
7 4 3 1.122 1.079 0.118 o
7 4 4 2.771 2.445 0.152 o
7 4 5 22.138 21.040 0.565 o
7 4 6 32.116 31.420 0.801 o
7 4 9 11.342 11.541 0.435 o
7 4 12 5.458 5.523 0.333 o
7 4 14 7.912 7.627 0.586 o
7 4 15 3.736 4.018 0.539 o
7 5 0 14.688 14.674 0.629 o
7 5 2 13.395 13.256 0.429 o
7 5 3 1.384 1.309 0.159 o
7 5 4 2.417 2.280 0.172 o
7 5 6 1.249 0.969 0.160 o
7 5 8 4.049 4.738 0.450 o
7 5 10 23.590 23.843 0.723 o
7 5 11 1.352 1.441 0.216 o
7 5 12 1.235 1.273 0.390 o
7 6 0 0.678 0.644 0.142 o
7 6 2 2.547 2.676 0.485 o
7 6 4 4.519 4.746 0.333 o
7 6 5 4.913 4.925 0.525 o
7 6 6 3.985 3.518 0.737 o
7 6 7 3.821 3.603 0.375 o
7 6 8 3.180 3.360 0.501 o
8 0 0 28.046 28.353 0.700 o
8 0 2 16.198 16.272 0.458 o
8 0 4 69.617 69.165 1.573 o
8 0 6 4.751 5.103 0.258 o
8 0 8 30.901 32.124 1.699 o
8 0 10 0.969 1.042 0.157 o
8 0 12 26.830 27.099 0.742 o
8 0 14 90.762 90.237 2.505 o
8 1 1 0.438 0.567 0.075 o
8 1 2 2.458 2.439 0.104 o
8 1 3 90.451 91.684 2.056 o
8 1 4 35.946 36.474 0.934 o
8 1 6 4.442 4.411 0.181 o
8 1 8 21.018 21.607 0.686 o
8 1 9 10.811 10.704 0.321 o
8 1 10 20.290 20.359 0.583 o
8 1 11 6.256 6.680 0.260 o
8 1 12 4.881 5.152 0.250 o
8 1 13 12.458 12.166 0.420 o
8 1 15 1.662 1.605 0.196 o
8 2 0 45.741 46.120 1.115 o
8 2 1 22.201 22.093 0.524 o
8 2 3 5.373 5.442 0.182 o
8 2 4 15.084 15.218 0.400 o
8 2 5 8.394 8.357 0.250 o
8 2 7 37.994 38.946 0.912 o
8 2 8 4.944 5.178 0.246 o
8 2 10 16.896 16.880 0.472 o
8 2 13 4.379 4.331 0.214 o
8 2 15 2.744 3.048 0.270 o
8 2 16 2.262 2.561 0.309 o
8 3 0 18.674 18.992 0.827 o
8 3 2 10.205 10.103 0.306 o
8 3 3 0.568 0.609 0.088 o
8 3 4 11.967 12.225 0.364 o
8 3 5 18.636 19.299 0.503 o
8 3 6 15.450 15.743 0.449 o
8 3 8 4.039 4.243 0.203 o
8 3 10 2.933 2.905 0.183 o
8 3 11 6.448 6.705 0.367 o
8 3 12 3.649 3.479 0.290 o
8 3 13 7.541 7.428 0.672 o
8 3 14 6.326 6.223 0.292 o
8 3 15 1.440 2.078 0.404 o
8 4 1 2.257 2.209 0.162 o
8 4 2 15.519 15.780 0.541 o
8 4 3 2.279 2.198 0.163 o
8 4 4 2.395 2.346 0.164 o
8 4 5 3.077 3.067 0.247 o
8 4 6 4.346 4.833 0.328 o
8 4 7 4.504 4.450 0.323 o
8 4 9 14.413 14.067 0.740 o
8 4 10 6.439 6.203 0.352 o
8 4 12 6.513 6.432 0.301 o
8 5 0 0.889 0.886 0.144 o
8 5 2 7.649 7.342 0.338 o
8 5 3 3.976 4.233 0.269 o
8 5 4 1.078 0.954 0.146 o
8 5 6 7.812 7.968 0.334 o
8 5 7 2.116 2.040 0.378 o
8 5 8 22.590 23.920 0.733 o
8 5 9 2.838 2.782 0.351 o
8 6 2 5.599 5.749 0.351 o
8 6 3 1.532 1.368 0.224 o
8 6 4 2.895 3.079 0.480 o
9 0 0 19.333 19.908 0.677 o
9 0 2 50.171 51.393 1.208 o
9 0 4 5.021 5.131 0.440 o
9 0 6 30.180 31.417 0.832 o
9 0 10 14.487 14.714 0.530 o
9 0 12 9.656 8.949 0.468 o
9 1 0 35.458 35.105 0.814 o
9 1 2 5.300 5.558 0.209 o
9 1 3 29.182 29.370 0.779 o
9 1 4 2.769 2.802 0.288 o
9 1 5 6.445 6.408 0.296 o
9 1 6 8.257 8.115 0.269 o
9 1 7 14.182 14.441 0.413 o
9 1 8 1.844 1.952 0.135 o
9 1 9 2.316 2.369 0.162 o
9 1 10 10.161 9.917 0.376 o
9 1 12 1.122 1.221 0.287 o
9 1 13 30.543 30.637 0.883 o
9 1 14 10.010 9.864 0.374 o
9 1 15 1.170 1.412 0.216 o
9 2 0 1.813 1.861 0.103 o
9 2 1 3.678 3.880 0.185 o
9 2 2 39.544 39.155 0.901 o
9 2 3 5.804 5.796 0.220 o
9 2 4 39.588 39.887 0.985 o
9 2 5 3.461 3.460 0.171 o
9 2 6 3.143 3.391 0.242 o
9 2 7 1.949 1.956 0.134 o
9 2 8 2.472 2.586 0.242 o
9 2 9 17.276 17.398 0.515 o
9 2 10 2.494 2.526 0.204 o
9 2 11 9.669 9.803 0.423 o
9 2 12 7.446 7.029 0.447 o
9 2 14 8.227 7.644 0.494 o
9 3 0 2.381 2.468 0.145 o
9 3 1 6.996 7.154 0.258 o
9 3 2 2.447 2.502 0.243 o
9 3 3 14.828 15.067 0.478 o
9 3 4 7.290 7.412 0.260 o
9 3 5 1.710 1.714 0.175 o
9 3 6 17.165 18.135 0.479 o
9 3 7 0.428 0.326 0.108 o
9 3 8 18.447 19.029 0.528 o
9 3 10 3.273 3.270 0.253 o
9 3 11 4.189 4.394 0.314 o
9 3 12 5.084 5.070 0.321 o
9 4 1 2.712 2.496 0.218 o
9 4 2 14.264 14.323 0.555 o
9 4 6 5.647 5.336 0.464 o
9 4 7 19.384 19.318 0.536 o
9 4 8 13.546 13.374 0.548 o
9 4 9 5.384 5.813 0.295 o
9 4 10 1.247 1.174 0.175 o
9 5 1 0.839 0.724 0.169 o
9 5 2 4.910 4.803 0.244 o
9 5 3 1.547 1.499 0.178 o
9 5 4 1.040 1.012 0.186 o
9 5 5 0.991 1.015 0.163 o
10 0 0 8.345 8.376 1.357 o
10 0 2 3.268 3.703 0.228 o
10 0 4 15.567 15.149 0.534 o
10 0 6 19.429 19.419 1.132 o
10 0 8 1.206 1.540 0.220 o
10 0 10 13.589 13.782 0.778 o
10 0 12 13.296 13.127 1.079 o
10 1 0 10.605 10.759 0.331 o
10 1 1 34.886 36.658 0.956 o
10 1 3 9.417 9.806 0.307 o
10 1 4 10.616 10.478 0.349 o
10 1 5 4.344 4.365 0.202 o
10 1 6 8.715 9.057 0.327 o
10 1 8 1.552 1.451 0.155 o
10 1 9 1.123 1.399 0.153 o
10 1 10 5.895 5.553 0.263 o
10 1 11 4.400 4.640 0.242 o
10 1 12 0.797 0.892 0.142 o
10 1 13 2.006 1.732 0.398 o
10 2 0 10.268 10.178 0.311 o
10 2 1 2.104 2.006 0.128 o
10 2 2 31.759 32.301 0.842 o
10 2 3 8.391 8.553 0.267 o
10 2 4 1.527 1.843 0.144 o
10 2 5 11.005 11.223 0.573 o
10 2 6 8.087 8.362 0.339 o
10 2 7 4.277 4.127 0.243 o
10 2 8 3.446 3.705 0.219 o
10 2 9 0.517 0.478 0.148 o
10 2 10 7.064 6.806 0.549 o
10 2 11 1.246 1.401 0.191 o
10 2 12 17.399 17.459 0.838 o
10 3 0 1.003 1.016 0.123 o
10 3 1 1.392 1.283 0.134 o
10 3 2 20.595 20.780 0.552 o
10 3 3 4.596 4.703 0.226 o
10 3 4 3.633 3.561 0.183 o
10 3 6 15.252 14.852 0.605 o
10 3 7 12.440 11.976 0.385 o
10 3 8 27.349 27.962 0.723 o
10 3 9 0.808 0.712 0.136 o
10 3 10 1.252 1.465 0.224 o
10 4 0 2.657 2.129 0.202 o
10 4 1 5.629 5.674 0.368 o
10 4 3 1.511 1.292 0.151 o
10 4 4 3.680 3.729 0.244 o
10 4 5 0.898 1.109 0.164 o
10 4 6 1.036 0.891 0.138 o
10 4 7 7.962 8.083 0.322 o
10 5 0 2.148 2.211 0.214 o
10 5 1 2.719 2.910 0.218 o
10 5 2 0.889 0.814 0.191 o
11 0 0 36.288 36.851 2.312 o
11 0 2 28.537 31.434 1.243 o
11 0 6 2.703 2.270 0.239 o
11 0 10 0.944 0.844 0.226 o
11 1 1 4.298 4.257 0.471 o
11 1 2 8.969 9.332 0.370 o
11 1 3 12.475 12.187 0.501 o
11 1 4 1.874 1.900 0.216 o
11 1 5 14.208 14.504 0.436 o
11 1 6 3.989 3.942 0.247 o
11 1 7 5.219 5.518 0.262 o
11 1 9 1.696 1.798 0.191 o
11 1 10 6.237 6.038 0.264 o
11 2 1 13.401 13.845 0.612 o
11 2 3 0.938 0.879 0.162 o
11 2 4 7.981 7.866 0.345 o
11 2 6 21.817 21.440 0.814 o
11 2 7 18.026 18.181 0.596 o
11 2 8 2.769 2.710 0.220 o
11 3 0 21.698 21.966 1.817 o
11 3 1 2.634 2.645 0.177 o
11 3 2 1.328 1.306 0.174 o
11 3 3 1.588 1.459 0.146 o
11 3 4 3.081 3.341 0.307 o
11 3 6 2.425 2.776 0.466 o
11 4 0 1.570 1.463 0.240 o
11 4 1 3.755 3.556 0.276 o
11 4 2 4.044 3.442 0.234 o
11 4 4 7.123 7.219 0.395 o
12 0 2 22.939 24.813 1.084 o
12 0 4 8.797 9.038 0.759 o
12 0 6 22.727 21.912 0.866 o
12 1 0 9.855 10.033 1.048 o
12 1 1 4.032 3.611 1.070 o
12 1 2 9.459 10.283 0.473 o
12 1 3 3.730 3.895 0.349 o
12 1 4 0.549 0.543 0.166 o
12 1 5 4.238 3.731 0.307 o
12 1 6 13.911 13.401 0.500 o
12 1 7 2.524 2.221 0.533 o
12 2 0 0.681 0.698 0.183 o
12 2 3 2.201 2.463 0.404 o
12 2 4 4.383 3.940 0.266 o
12 2 5 2.892 2.944 0.252 o
12 3 0 4.923 4.717 0.911 o
13 1 0 1.537 1.517 0.374 o
13 1 1 2.636 2.786 0.463 o
13 1 2 1.450 1.627 0.419 o
