#------------------------------------------------------------------------------
#$Date: 2016-02-21 11:56:54 +0200 (Sun, 21 Feb 2016) $
#$Revision: 176809 $
#$URL: svn://www.crystallography.net/cod/cif/2/31/01/2310119.cif $
#------------------------------------------------------------------------------
#
# This file is available in the Crystallography Open Database (COD),
# http://www.crystallography.net/
#
# All data on this site have been placed in the public domain by the
# contributors.
#
data_2310119
loop_
_publ_author_name
'Kami\'nski, Rados\/law'
'Domaga\/la, S\/lawomir'
'Jarzembska, Katarzyna N.'
'Hoser, Anna A.'
'Sanjuan-Szklarz, W. Fabiola'
'Gutmann, Matthias J.'
'Makal, Anna'
'Mali\'nska, Maura'
'Bak, Joanna M.'
'Wo\'zniak, Krzysztof'
_publ_section_title
;
 Statistical analysis of multipole-model-derived structural parameters and
 charge-density properties from high-resolution X-ray diffraction
 experiments
;
_journal_issue                   1
_journal_name_full               'Acta Crystallographica Section A'
_journal_page_first              72
_journal_page_last               91
_journal_paper_doi               10.1107/S2053273313028313
_journal_volume                  70
_journal_year                    2014
_chemical_formula_moiety         'C2 H2 O4, 2(H2 O1)'
_chemical_formula_sum            'C2 H6 O6'
_chemical_formula_weight         126.07
_space_group_IT_number           14
_symmetry_cell_setting           monoclinic
_symmetry_Int_Tables_number      14
_symmetry_space_group_name_Hall  '-P 2ybc'
_symmetry_space_group_name_H-M   'P 1 21/c 1'
_cell_angle_alpha                90.00
_cell_angle_beta                 103.883(2)
_cell_angle_gamma                90.00
_cell_formula_units_Z            2
_cell_length_a                   6.0893(2)
_cell_length_b                   3.4965(1)
_cell_length_c                   11.8311(4)
_cell_measurement_temperature    100(1)
_cell_volume                     244.540(14)
_diffrn_ambient_temperature      100(1)
_diffrn_measured_fraction_theta_full 0.989
_diffrn_measured_fraction_theta_max 0.979
_diffrn_measurement_device
;
Bruker AXS Kappa APEX II Ultra diffractometer
;
_diffrn_measurement_device_type  'APEX II CCD detector'
_diffrn_measurement_method       \w-scans
_diffrn_radiation_monochromator  'multi-layer optics'
_diffrn_radiation_source         'TXS rotating anode'
_diffrn_radiation_type           'Mo K\a'
_diffrn_radiation_wavelength     0.71073
_diffrn_reflns_av_R_equivalents  0.0487
_diffrn_reflns_av_sigmaI/netI    0.02713
_diffrn_reflns_limit_h_max       13
_diffrn_reflns_limit_h_min       -14
_diffrn_reflns_limit_k_max       7
_diffrn_reflns_limit_k_min       -7
_diffrn_reflns_limit_l_max       27
_diffrn_reflns_limit_l_min       -27
_diffrn_reflns_number            27377
_diffrn_reflns_theta_full        55.08
_diffrn_reflns_theta_max         55.960
_diffrn_reflns_theta_min         3.446
_exptl_absorpt_coefficient_mu    0.181
_exptl_absorpt_correction_T_max  0.979
_exptl_absorpt_correction_T_min  0.967
_exptl_absorpt_correction_type   multi-scan
_exptl_absorpt_process_details
;
 Absorption correction done by SORTAV
 Blessing, R. H.: (1995) Acta Cryst. A51, 33-38
;
_exptl_crystal_colour            colourless
_exptl_crystal_density_diffrn    1.712
_exptl_crystal_description       unspecified
_exptl_crystal_F_000             132
_exptl_crystal_size_max          0.199
_exptl_crystal_size_mid          0.174
_exptl_crystal_size_min          0.093
_refine_diff_density_max         +0.17
_refine_diff_density_min         -0.19
_refine_ls_extinction_method     none
_refine_ls_goodness_of_fit_ref   1.061
_refine_ls_hydrogen_treatment    mixed
_refine_ls_number_parameters     177
_refine_ls_number_reflns         1998
_refine_ls_number_restraints     3
_refine_ls_R_factor_all          0.0199
_refine_ls_R_factor_gt           0.0199
_refine_ls_shift/su_max          0.000
_refine_ls_shift/su_mean         0.000
_refine_ls_structure_factor_coef F
_refine_ls_weighting_details
;
w=1/[\s^2^(Fo)]
;
_refine_ls_weighting_scheme      sigma
_refine_ls_wR_factor_gt          0.0217
_refine_ls_wR_factor_ref         0.0217
_reflns_number_gt                1998
_reflns_number_total             3167
_reflns_threshold_expression     I>3\s(I)
_iucr_refine_instructions_details
;
 Multipole refinement with MOPRO program
;
_cod_data_source_file            pc5031sup2.cif
_cod_data_source_block           oxa02
_cod_original_cell_volume        244.54(1)
_cod_original_sg_symbol_H-M      'P 21/c'
_cod_database_code               2310119
loop_
_symmetry_equiv_pos_as_xyz
'x, y, z'
'-x, y+1/2, -z+1/2'
'-x, -y, -z'
'x, -y-1/2, z-1/2'
loop_
_atom_site_type_symbol
_atom_site_label
_atom_site_fract_x
_atom_site_fract_y
_atom_site_fract_z
_atom_site_U_iso_or_equiv
_atom_site_adp_type
_atom_site_occupancy
_atom_site_calc_flag
O O1 0.43494(7) 0.4440(2) 0.34987(3) 0.0141(2) Uani 1 d
O O2 0.24238(7) 0.7424(1) 0.46361(3) 0.0139(1) Uani 1 d
C C1 0.40310(4) 0.55857(9) 0.44803(2) 0.0106(1) Uani 1 d
H H1 0.304(2) 0.521(5) 0.2752(7) 0.02374 Uani 1 d
O O3 0.13003(6) 0.6307(1) 0.17862(3) 0.0137(1) Uani 1 d
H H2 0.188(2) 0.711(5) 0.1124(6) 0.02957 Uani 1 d
H H3 0.004(1) 0.465(3) 0.144(2) 0.02929 Uani 1 d
loop_
_atom_site_aniso_label
_atom_site_aniso_U_11
_atom_site_aniso_U_22
_atom_site_aniso_U_33
_atom_site_aniso_U_12
_atom_site_aniso_U_13
_atom_site_aniso_U_23
O1 0.0135(1) 0.0201(2) 0.0081(1) 0.0047(1) 0.00163(9) -0.0007(1)
O2 0.0117(1) 0.0192(2) 0.0101(1) 0.0057(1) 0.00132(9) -0.0007(1)
C1 0.01032(10) 0.0127(1) 0.00843(10) 0.00177(7) 0.00150(6) -0.000062(7)
H1 0.0221 0.0276 0.0213 0.0019 0.0047 0.0002
O3 0.0112(1) 0.0193(2) 0.0096(1) -0.0021(1) 0.00075(9) 0.0010(1)
H2 0.0265 0.0415 0.0219 -0.0037 0.0081 0.0037
H3 0.0226 0.0312 0.0335 -0.0068 0.0056 -0.0020
loop_
_atom_type_symbol
_atom_type_description
_atom_type_scat_dispersion_real
_atom_type_scat_dispersion_imag
_atom_type_scat_source
C C 0.0033 0.0016 'Su & Coppens, Acta. Cryst. (1997) A53, 749'
H H 0.0000 0.0000 'Su & Coppens, Acta. Cryst. (1997) A53, 749'
O O 0.0106 0.0060 'Su & Coppens, Acta. Cryst. (1997) A53, 749'
loop_
_geom_angle_atom_site_label_1
_geom_angle_atom_site_label_2
_geom_angle_atom_site_label_3
_geom_angle
O1 C1 O2 126.82(4)
C1 O1 H1 115.0(8)
H2 O3 H3 104(1)
loop_
_geom_bond_atom_site_label_1
_geom_bond_atom_site_label_2
_geom_bond_distance
O1 C1 1.2871(5)
O1 H1 1.074(1)
O2 C1 1.2212(5)
O3 H3 0.970(1)
O3 H2 0.974(1)
loop_
_geom_torsion_atom_site_label_1
_geom_torsion_atom_site_label_2
_geom_torsion_atom_site_label_3
_geom_torsion_atom_site_label_4
_geom_torsion
O2 C1 O1 H1 -0.07(69)
loop_
_refln_index_h
_refln_index_k
_refln_index_l
_refln_F_squared_calc
_refln_F_squared_meas
_refln_F_squared_sigma
_refln_observed_status
-14 1 7 5.832 5.360 1.717 o
-13 0 6 29.831 28.967 3.222 o
-13 0 8 2.893 3.067 0.637 o
-13 0 12 10.522 9.983 1.759 o
-13 0 16 7.910 7.444 1.766 o
-13 1 1 2.510 2.462 0.552 o
-13 1 2 12.676 12.344 0.748 o
-13 1 5 8.293 5.891 0.652 o
-13 1 8 3.392 2.842 0.533 o
-13 1 10 2.949 2.627 0.421 o
-13 1 12 2.832 3.158 0.426 o
-13 2 1 3.406 4.523 0.489 o
-13 2 10 3.469 2.939 0.596 o
-13 3 4 3.858 3.650 0.749 o
-12 0 2 7.831 8.467 0.661 o
-12 0 4 37.005 40.429 1.520 o
-12 0 6 3.560 4.514 0.704 o
-12 0 12 7.480 6.015 0.966 o
-12 0 14 4.528 4.349 0.477 o
-12 0 16 15.676 11.777 2.903 o
-12 1 1 1.645 1.003 0.335 o
-12 1 5 16.791 16.528 1.109 o
-12 1 6 3.996 3.613 0.367 o
-12 1 7 1.392 1.131 0.361 o
-12 1 8 10.497 10.194 0.636 o
-12 1 9 9.871 9.591 0.831 o
-12 1 10 2.385 1.662 0.340 o
-12 1 12 6.088 5.634 0.422 o
-12 1 15 11.725 12.049 0.872 o
-12 2 1 11.700 11.554 0.757 o
-12 2 2 4.816 4.721 0.424 o
-12 2 5 6.827 6.598 0.548 o
-12 2 7 3.220 2.708 0.479 o
-12 2 8 3.834 3.617 0.414 o
-12 2 9 3.546 3.885 0.444 o
-12 2 11 7.515 7.890 0.609 o
-12 2 13 4.352 4.029 0.499 o
-12 3 3 2.796 2.513 0.495 o
-12 4 5 2.004 2.384 0.614 o
-12 4 6 4.671 4.104 0.585 o
-11 0 2 3.535 3.379 0.409 o
-11 0 4 8.418 8.294 0.540 o
-11 0 8 77.534 81.050 2.936 o
-11 0 10 6.651 6.760 0.828 o
-11 0 12 2.239 1.363 0.456 o
-11 0 14 30.083 30.099 1.459 o
-11 0 18 10.338 9.193 0.855 o
-11 0 22 6.350 5.230 1.693 o
-11 1 2 5.231 5.228 0.388 o
-11 1 3 12.321 12.414 0.667 o
-11 1 4 32.126 33.767 0.981 o
-11 1 5 1.810 1.992 0.312 o
-11 1 8 1.186 1.386 0.333 o
-11 1 9 5.223 4.890 0.349 o
-11 1 10 3.313 3.018 0.352 o
-11 1 11 3.708 3.096 0.333 o
-11 1 12 12.037 11.827 0.526 o
-11 1 14 5.430 4.956 0.475 o
-11 1 15 5.322 4.421 0.384 o
-11 1 16 2.155 2.274 0.436 o
-11 1 18 8.064 7.323 0.807 o
-11 1 19 9.487 8.494 0.928 o
-11 2 1 2.484 2.018 0.469 o
-11 2 4 9.592 9.902 0.494 o
-11 2 5 1.818 1.913 0.329 o
-11 2 6 5.581 5.645 0.370 o
-11 2 7 7.289 7.999 0.463 o
-11 2 11 2.030 1.630 0.348 o
-11 2 12 2.334 2.153 0.371 o
-11 2 14 1.254 1.317 0.384 o
-11 2 15 8.799 8.886 0.544 o
-11 3 2 2.975 2.351 0.371 o
-11 3 4 3.869 4.374 0.364 o
-11 3 5 5.431 5.200 0.430 o
-11 3 6 2.735 2.535 0.428 o
-11 3 7 3.211 2.611 0.406 o
-11 3 10 10.736 11.241 0.555 o
-11 3 11 3.592 2.986 0.489 o
-11 3 13 2.191 2.207 0.390 o
-11 3 16 3.395 2.372 0.486 o
-11 3 17 3.890 4.642 0.576 o
-11 4 2 2.505 2.107 0.380 o
-11 4 3 4.582 4.049 0.412 o
-11 4 6 5.934 6.048 0.436 o
-11 4 9 1.880 2.195 0.450 o
-11 4 10 3.190 3.520 0.485 o
-11 4 12 2.799 3.349 0.535 o
-11 5 2 5.307 4.395 0.731 o
-10 0 4 7.922 7.997 0.466 o
-10 0 6 10.825 11.166 0.600 o
-10 0 8 15.378 15.589 1.192 o
-10 0 10 10.705 10.611 0.669 o
-10 0 12 10.768 11.478 0.700 o
-10 0 18 54.635 55.404 1.921 o
-10 0 20 1.336 2.074 0.556 o
-10 1 1 3.221 3.159 0.285 o
-10 1 3 2.008 1.971 0.305 o
-10 1 5 8.735 8.545 0.466 o
-10 1 7 42.695 42.418 1.271 o
-10 1 8 18.040 17.459 0.631 o
-10 1 9 8.666 8.249 0.411 o
-10 1 10 5.520 6.158 0.378 o
-10 1 11 1.746 1.427 0.364 o
-10 1 12 3.403 3.031 0.347 o
-10 1 13 10.490 10.260 0.450 o
-10 1 14 15.850 15.210 0.817 o
-10 1 17 13.052 12.876 0.706 o
-10 1 18 2.062 1.846 0.386 o
-10 1 19 1.492 2.495 0.413 o
-10 1 22 9.917 7.869 0.954 o
-10 2 2 10.048 10.031 0.715 o
-10 2 3 43.976 44.302 1.227 o
-10 2 4 25.303 24.790 0.867 o
-10 2 8 7.817 8.392 0.436 o
-10 2 9 12.110 11.967 0.577 o
-10 2 11 10.640 10.364 0.468 o
-10 2 12 4.470 4.220 0.382 o
-10 2 13 9.855 9.497 0.630 o
-10 2 14 12.031 12.072 0.597 o
-10 2 17 3.344 4.010 0.441 o
-10 3 1 2.280 2.360 0.315 o
-10 3 2 7.039 7.591 0.395 o
-10 3 3 3.225 3.495 0.332 o
-10 3 4 8.829 8.562 0.402 o
-10 3 6 9.735 9.732 0.441 o
-10 3 8 5.153 5.422 0.372 o
-10 3 9 0.777 1.048 0.316 o
-10 3 10 6.866 7.411 0.578 o
-10 3 14 7.050 7.020 0.486 o
-10 3 15 2.317 2.127 0.392 o
-10 4 2 9.068 8.784 0.495 o
-10 4 3 5.247 5.323 0.565 o
-10 4 6 3.016 3.248 0.601 o
-10 4 8 2.714 2.675 0.410 o
-10 4 9 2.839 3.081 0.416 o
-10 4 10 6.306 6.237 0.668 o
-10 4 13 6.326 6.136 0.653 o
-10 4 16 9.137 9.473 0.744 o
-10 5 2 5.694 4.958 0.672 o
-10 5 5 2.657 2.588 0.503 o
-10 5 6 5.144 5.121 0.644 o
-10 5 12 11.732 9.683 2.024 o
-9 0 2 3.727 3.727 0.358 o
-9 0 4 52.411 53.095 1.420 o
-9 0 6 22.721 22.422 0.804 o
-9 0 8 3.765 3.121 0.380 o
-9 0 10 47.725 47.299 2.334 o
-9 0 14 1.686 1.746 0.441 o
-9 0 16 18.833 19.776 1.063 o
-9 0 22 5.989 4.937 0.703 o
-9 0 24 3.290 2.909 0.592 o
-9 1 2 1.233 1.269 0.221 o
-9 1 4 9.691 9.843 0.454 o
-9 1 5 2.799 3.044 0.261 o
-9 1 6 20.239 19.933 0.676 o
-9 1 7 15.296 15.961 0.545 o
-9 1 8 4.518 4.291 0.303 o
-9 1 9 15.971 15.829 0.600 o
-9 1 10 1.067 0.949 0.261 o
-9 1 11 6.083 5.920 0.350 o
-9 1 14 12.466 13.398 0.531 o
-9 1 16 2.271 2.169 0.313 o
-9 1 17 32.397 34.165 1.191 o
-9 1 18 5.933 6.400 0.535 o
-9 1 19 2.271 2.620 0.364 o
-9 1 20 3.617 2.857 0.460 o
-9 1 21 6.131 4.595 0.657 o
-9 1 23 2.073 2.124 0.469 o
-9 2 1 4.325 4.808 0.403 o
-9 2 5 5.488 5.324 0.324 o
-9 2 6 31.002 30.523 0.953 o
-9 2 7 9.115 9.083 0.382 o
-9 2 8 50.163 50.492 1.297 o
-9 2 10 4.748 4.682 0.475 o
-9 2 12 2.928 2.904 0.319 o
-9 2 13 28.313 28.458 0.864 o
-9 2 14 4.283 3.837 0.335 o
-9 2 16 8.774 8.295 0.645 o
-9 2 17 7.292 6.720 0.422 o
-9 2 18 12.653 12.912 0.595 o
-9 2 19 3.631 3.397 0.430 o
-9 2 21 6.368 5.782 0.706 o
-9 2 23 6.533 5.425 0.542 o
-9 3 1 2.334 2.209 0.279 o
-9 3 2 75.575 80.842 2.063 o
-9 3 3 11.538 12.205 0.484 o
-9 3 4 18.947 19.547 0.652 o
-9 3 7 17.679 18.066 0.600 o
-9 3 8 6.111 6.146 0.418 o
-9 3 9 1.243 1.263 0.279 o
-9 3 10 4.496 4.190 0.353 o
-9 3 11 1.087 1.228 0.354 o
-9 3 12 36.525 37.222 1.148 o
-9 3 13 6.000 5.479 0.466 o
-9 3 14 5.152 5.687 0.584 o
-9 3 15 2.122 1.831 0.433 o
-9 3 16 2.745 2.508 0.432 o
-9 4 1 10.155 9.929 0.575 o
-9 4 2 3.384 3.643 0.405 o
-9 4 3 18.049 18.935 0.857 o
-9 4 6 6.991 6.549 0.478 o
-9 4 8 3.756 3.406 0.468 o
-9 4 11 4.609 4.856 0.435 o
-9 4 12 5.216 6.406 0.479 o
-9 4 13 6.216 7.056 0.486 o
-9 5 1 1.401 1.637 0.384 o
-9 5 9 3.125 2.799 0.427 o
-9 5 12 2.544 2.586 0.611 o
-9 6 5 2.981 2.225 0.600 o
-8 0 2 3.496 3.749 0.348 o
-8 0 4 3.927 4.396 0.355 o
-8 0 8 46.225 47.061 1.484 o
-8 0 10 6.261 5.898 0.353 o
-8 0 12 2.731 2.665 0.375 o
-8 0 14 41.070 40.895 1.227 o
-8 0 16 11.429 11.916 0.753 o
-8 0 18 2.099 1.991 0.467 o
-8 0 20 37.158 37.056 1.412 o
-8 1 1 26.961 27.164 0.783 o
-8 1 3 17.631 17.511 0.523 o
-8 1 4 27.057 26.937 0.704 o
-8 1 5 21.089 20.885 0.603 o
-8 1 6 1.540 1.782 0.233 o
-8 1 7 51.161 51.184 1.310 o
-8 1 8 5.516 5.308 0.359 o
-8 1 9 12.631 12.679 0.449 o
-8 1 10 33.258 32.575 1.047 o
-8 1 11 1.409 1.122 0.225 o
-8 1 12 1.811 1.765 0.256 o
-8 1 15 14.610 14.913 0.733 o
-8 1 16 7.724 7.560 0.367 o
-8 1 17 6.183 6.545 0.401 o
-8 1 18 9.718 9.637 0.605 o
-8 1 20 0.973 1.333 0.350 o
-8 1 21 3.659 3.718 0.397 o
-8 1 24 7.862 6.499 0.813 o
-8 2 1 36.128 36.062 0.940 o
-8 2 2 14.950 15.066 0.557 o
-8 2 3 6.260 6.271 0.410 o
-8 2 4 14.963 14.919 0.500 o
-8 2 5 30.856 30.785 0.832 o
-8 2 6 51.971 51.114 1.312 o
-8 2 7 6.089 6.307 0.306 o
-8 2 8 6.149 5.913 0.324 o
-8 2 9 1.298 1.507 0.254 o
-8 2 10 10.047 9.894 0.396 o
-8 2 11 18.326 18.186 0.598 o
-8 2 12 7.395 7.686 0.380 o
-8 2 13 1.954 1.985 0.283 o
-8 2 14 10.121 10.301 0.541 o
-8 2 16 33.547 34.766 0.970 o
-8 2 17 1.804 2.043 0.312 o
-8 2 18 12.221 12.466 0.615 o
-8 2 19 3.141 2.824 0.436 o
-8 2 23 2.567 2.019 0.518 o
-8 3 2 7.449 8.036 0.412 o
-8 3 3 6.340 6.662 0.455 o
-8 3 6 30.059 30.323 0.866 o
-8 3 7 9.724 10.054 0.394 o
-8 3 8 19.921 19.094 0.641 o
-8 3 9 4.927 4.544 0.318 o
-8 3 10 8.350 8.024 0.491 o
-8 3 11 5.386 4.860 0.421 o
-8 3 12 45.502 46.226 1.312 o
-8 3 16 15.708 16.444 0.790 o
-8 3 17 14.520 14.710 0.888 o
-8 3 20 6.895 6.280 0.454 o
-8 3 22 20.630 20.814 1.373 o
-8 3 23 2.509 2.375 0.700 o
-8 4 1 19.260 19.873 0.778 o
-8 4 2 17.705 17.493 0.649 o
-8 4 3 14.245 13.855 0.732 o
-8 4 4 9.794 9.593 0.511 o
-8 4 5 2.774 2.856 0.346 o
-8 4 6 4.308 3.584 0.402 o
-8 4 7 2.475 2.604 0.316 o
-8 4 8 3.798 3.455 0.337 o
-8 4 11 20.046 21.042 1.271 o
-8 4 12 15.207 14.024 0.738 o
-8 4 13 9.400 9.841 0.841 o
-8 4 15 2.439 2.976 0.481 o
-8 4 16 2.357 2.713 0.528 o
-8 4 18 4.245 4.543 0.857 o
-8 5 1 4.273 4.212 0.360 o
-8 5 2 22.977 23.950 1.249 o
-8 5 5 1.234 1.560 0.402 o
-8 5 7 4.208 3.866 0.590 o
-8 5 8 6.791 6.162 0.581 o
-8 5 10 1.899 2.590 0.427 o
-8 5 12 0.760 1.626 0.500 o
-7 0 2 13.262 13.179 0.587 o
-7 0 4 37.860 35.770 1.027 o
-7 0 6 235.532 235.355 5.506 o
-7 0 10 1.333 1.391 0.247 o
-7 0 12 5.159 5.468 0.324 o
-7 0 14 10.006 12.237 0.514 o
-7 0 16 6.770 6.889 0.482 o
-7 0 18 7.006 6.726 1.282 o
-7 0 24 7.147 6.458 0.793 o
-7 0 26 1.861 1.891 0.601 o
-7 1 1 16.375 16.582 0.546 o
-7 1 2 80.643 79.075 1.901 o
-7 1 3 3.587 3.685 0.228 o
-7 1 4 0.327 0.780 0.200 o
-7 1 5 2.164 2.068 0.251 o
-7 1 6 18.238 17.637 0.578 o
-7 1 7 48.677 48.003 1.217 o
-7 1 9 9.807 9.601 0.338 o
-7 1 10 27.362 26.506 0.746 o
-7 1 11 43.252 42.340 1.078 o
-7 1 12 2.544 2.611 0.211 o
-7 1 13 9.142 8.428 0.358 o
-7 1 14 14.040 14.031 0.466 o
-7 1 15 12.960 12.519 0.497 o
-7 1 16 5.189 5.587 0.312 o
-7 1 17 20.677 20.400 0.652 o
-7 1 19 24.535 25.205 1.033 o
-7 1 20 3.918 4.178 0.355 o
-7 1 21 2.468 2.710 0.406 o
-7 1 22 1.331 1.348 0.335 o
-7 1 25 6.800 5.790 0.544 o
-7 2 3 20.911 21.343 0.601 o
-7 2 4 3.028 3.127 0.222 o
-7 2 5 9.239 9.453 0.351 o
-7 2 6 2.106 2.146 0.207 o
-7 2 7 17.657 17.441 0.656 o
-7 2 8 15.297 15.424 0.515 o
-7 2 9 15.840 16.064 0.521 o
-7 2 10 72.126 69.414 1.686 o
-7 2 11 21.343 19.481 0.636 o
-7 2 12 6.957 7.182 0.450 o
-7 2 13 4.661 4.993 0.288 o
-7 2 14 3.242 2.950 0.263 o
-7 2 15 38.126 38.309 1.125 o
-7 2 16 11.060 10.559 0.572 o
-7 2 17 2.100 1.996 0.279 o
-7 2 18 4.362 4.148 0.444 o
-7 2 20 20.600 21.113 0.700 o
-7 2 21 11.067 11.109 0.669 o
-7 2 22 3.936 3.273 0.389 o
-7 2 23 3.459 2.934 0.378 o
-7 2 24 4.088 3.619 0.457 o
-7 2 25 2.141 1.960 0.433 o
-7 3 1 1.883 2.012 0.229 o
-7 3 2 1.801 1.789 0.220 o
-7 3 3 1.793 1.790 0.223 o
-7 3 4 69.734 70.643 1.711 o
-7 3 5 31.397 31.072 0.813 o
-7 3 6 14.405 14.427 0.516 o
-7 3 9 8.594 8.673 0.406 o
-7 3 10 10.437 10.515 0.585 o
-7 3 12 0.995 1.124 0.342 o
-7 3 13 6.877 6.958 0.441 o
-7 3 14 20.332 20.181 0.758 o
-7 3 15 4.316 4.254 0.461 o
-7 3 16 19.758 20.416 0.843 o
-7 3 18 8.689 9.157 0.698 o
-7 3 20 2.188 1.973 0.387 o
-7 3 21 2.375 3.081 0.410 o
-7 4 1 18.768 17.712 0.817 o
-7 4 2 6.038 6.235 0.369 o
-7 4 4 1.948 1.729 0.342 o
-7 4 5 20.688 21.502 0.677 o
-7 4 6 3.833 3.812 0.317 o
-7 4 7 4.202 4.213 0.354 o
-7 4 8 23.609 23.860 0.836 o
-7 4 9 4.776 5.201 0.366 o
-7 4 11 12.626 11.793 0.699 o
-7 4 12 3.071 2.958 0.342 o
-7 4 14 2.838 2.623 0.496 o
-7 4 15 11.123 10.988 0.689 o
-7 4 16 8.582 9.126 1.142 o
-7 4 17 3.010 2.828 0.712 o
-7 5 1 3.519 3.051 0.363 o
-7 5 2 16.975 18.389 0.724 o
-7 5 3 3.174 2.764 0.380 o
-7 5 6 6.697 7.811 0.486 o
-7 5 10 4.732 4.408 0.431 o
-7 5 11 8.257 9.087 0.527 o
-7 5 12 21.259 21.916 0.984 o
-7 5 17 2.170 2.951 0.774 o
-7 6 1 13.646 12.696 0.794 o
-7 6 2 2.470 2.170 0.367 o
-7 6 6 5.183 4.977 0.436 o
-7 6 7 2.122 1.201 0.375 o
-7 6 8 3.478 2.863 0.430 o
-7 6 9 1.709 1.871 0.442 o
-7 6 11 1.462 1.888 0.494 o
-6 0 2 167.387 169.764 4.120 o
-6 0 4 3.164 2.487 0.338 o
-6 0 6 153.583 153.624 3.656 o
-6 0 8 1.152 1.320 0.301 o
-6 0 10 270.822 265.637 6.069 o
-6 0 12 0.057 2.439 0.280 o
-6 0 14 24.520 25.622 0.873 o
-6 0 16 120.591 122.185 3.092 o
-6 0 18 14.799 15.174 0.771 o
-6 0 20 8.928 8.976 0.602 o
-6 0 22 2.497 2.943 0.488 o
-6 0 24 11.564 11.523 1.035 o
-6 0 26 4.212 4.501 0.645 o
-6 1 1 1.340 1.207 0.223 o
-6 1 2 6.134 6.351 0.288 o
-6 1 3 0.922 1.128 0.195 o
-6 1 4 29.819 29.939 0.803 o
-6 1 5 88.290 88.329 2.104 o
-6 1 6 139.428 140.748 3.527 o
-6 1 7 2.730 2.639 0.215 o
-6 1 8 2.554 3.085 0.226 o
-6 1 9 41.242 41.002 1.027 o
-6 1 10 47.959 46.441 1.159 o
-6 1 11 3.727 3.965 0.234 o
-6 1 12 38.825 38.579 0.961 o
-6 1 13 4.699 5.101 0.258 o
-6 1 14 21.288 20.130 0.624 o
-6 1 15 3.341 3.472 0.277 o
-6 1 17 0.995 0.979 0.313 o
-6 1 19 10.933 11.228 0.451 o
-6 1 20 25.426 26.447 0.838 o
-6 1 21 11.533 12.082 0.545 o
-6 1 22 1.257 1.443 0.320 o
-6 1 23 2.038 1.612 0.423 o
-6 1 25 1.230 1.397 0.366 o
-6 2 1 65.963 65.122 1.628 o
-6 2 2 35.515 35.736 1.011 o
-6 2 3 56.359 55.693 1.380 o
-6 2 4 4.904 5.201 0.253 o
-6 2 5 3.987 4.283 0.234 o
-6 2 6 0.919 0.836 0.186 o
-6 2 8 12.200 12.590 0.498 o
-6 2 9 29.788 29.247 0.963 o
-6 2 10 9.387 8.838 0.370 o
-6 2 12 8.469 8.546 0.356 o
-6 2 14 5.774 5.768 0.286 o
-6 2 15 2.628 2.549 0.254 o
-6 2 17 8.558 8.714 0.543 o
-6 2 18 17.750 18.038 0.639 o
-6 2 19 2.403 2.205 0.311 o
-6 2 20 18.404 19.946 0.770 o
-6 2 21 1.583 1.099 0.340 o
-6 2 25 10.780 8.290 0.761 o
-6 3 1 11.986 12.476 0.494 o
-6 3 2 10.744 10.645 0.374 o
-6 3 3 1.207 1.848 0.200 o
-6 3 4 4.161 4.250 0.232 o
-6 3 5 0.598 0.766 0.191 o
-6 3 6 5.786 5.873 0.274 o
-6 3 7 7.026 6.801 0.411 o
-6 3 8 36.836 36.757 1.022 o
-6 3 9 29.390 28.812 0.812 o
-6 3 11 3.874 3.375 0.303 o
-6 3 12 0.409 1.198 0.280 o
-6 3 13 5.922 5.758 0.376 o
-6 3 14 50.844 50.458 1.407 o
-6 3 15 11.449 11.477 0.496 o
-6 3 18 7.855 6.924 0.600 o
-6 3 19 13.554 12.199 0.906 o
-6 3 20 0.966 1.603 0.389 o
-6 3 22 4.296 4.162 0.545 o
-6 3 24 15.666 14.803 0.905 o
-6 4 1 7.202 7.663 0.375 o
-6 4 3 6.681 6.345 0.421 o
-6 4 4 38.617 39.784 1.036 o
-6 4 5 35.086 36.118 0.960 o
-6 4 6 1.676 1.634 0.254 o
-6 4 8 6.229 6.546 0.431 o
-6 4 10 1.669 1.814 0.295 o
-6 4 11 5.807 5.890 0.381 o
-6 4 12 10.529 10.780 0.518 o
-6 4 13 12.252 11.138 1.077 o
-6 4 14 12.266 12.432 0.599 o
-6 4 15 19.668 19.054 0.932 o
-6 4 18 5.743 6.034 0.503 o
-6 5 4 32.262 33.519 1.003 o
-6 5 6 5.963 5.736 0.499 o
-6 5 7 2.513 2.438 0.366 o
-6 5 8 13.921 14.778 0.611 o
-6 5 9 1.205 1.426 0.329 o
-6 5 10 13.012 12.556 0.701 o
-6 5 16 6.614 7.196 0.848 o
-6 6 2 3.626 3.293 0.393 o
-6 6 4 2.433 2.798 0.474 o
-6 6 5 7.846 7.489 0.528 o
-6 6 6 0.834 1.845 0.417 o
-6 6 10 4.399 4.313 0.628 o
-6 6 11 8.556 8.095 0.791 o
-6 6 12 3.509 3.007 0.768 o
-6 7 1 4.605 4.323 0.624 o
-5 0 2 83.314 84.494 2.079 o
-5 0 4 16.826 16.588 0.636 o
-5 0 6 108.346 111.170 2.882 o
-5 0 8 261.673 259.349 5.995 o
-5 0 10 92.764 95.900 2.387 o
-5 0 12 40.814 41.402 1.258 o
-5 0 18 25.231 25.159 0.892 o
-5 0 20 91.648 95.511 2.462 o
-5 0 26 12.542 11.911 0.937 o
-5 1 1 52.251 52.695 1.452 o
-5 1 2 234.776 232.915 5.431 o
-5 1 3 46.400 47.664 1.229 o
-5 1 4 85.798 85.363 2.153 o
-5 1 5 28.190 28.865 0.804 o
-5 1 6 3.708 3.886 0.273 o
-5 1 7 0.780 1.065 0.195 o
-5 1 8 16.466 16.013 0.541 o
-5 1 9 251.583 251.127 5.771 o
-5 1 10 24.259 24.702 0.709 o
-5 1 12 22.361 22.896 0.697 o
-5 1 13 8.541 8.414 0.316 o
-5 1 14 24.359 23.929 0.670 o
-5 1 15 38.097 37.064 0.995 o
-5 1 16 50.486 51.834 1.305 o
-5 1 17 15.710 15.690 0.604 o
-5 1 19 38.018 40.531 1.201 o
-5 1 21 0.977 1.369 0.367 o
-5 1 24 14.563 12.941 0.774 o
-5 1 26 2.486 2.591 0.649 o
-5 1 27 2.010 1.672 0.476 o
-5 2 1 8.542 8.024 0.410 o
-5 2 3 4.504 4.274 0.268 o
-5 2 4 26.088 26.003 0.825 o
-5 2 5 162.172 162.337 3.778 o
-5 2 6 73.292 72.333 1.747 o
-5 2 7 20.664 20.710 0.681 o
-5 2 8 2.013 2.126 0.215 o
-5 2 11 37.613 37.288 0.950 o
-5 2 12 22.078 22.019 0.684 o
-5 2 13 69.853 67.638 1.620 o
-5 2 14 0.693 0.826 0.204 o
-5 2 15 11.023 11.367 0.455 o
-5 2 16 3.067 2.793 0.330 o
-5 2 17 7.341 7.235 0.367 o
-5 2 18 4.439 4.802 0.392 o
-5 2 19 10.608 10.672 0.599 o
-5 2 22 8.944 8.412 0.498 o
-5 2 23 6.714 5.984 0.438 o
-5 2 24 1.405 1.197 0.387 o
-5 3 1 17.868 17.622 0.577 o
-5 3 3 5.773 6.032 0.268 o
-5 3 4 10.876 11.018 0.364 o
-5 3 5 3.237 3.267 0.213 o
-5 3 6 4.249 4.249 0.231 o
-5 3 7 14.379 14.299 0.474 o
-5 3 8 2.307 2.172 0.230 o
-5 3 10 5.761 5.570 0.300 o
-5 3 12 0.642 0.756 0.235 o
-5 3 14 0.741 1.001 0.298 o
-5 3 15 2.074 2.165 0.311 o
-5 3 18 11.596 10.886 0.745 o
-5 3 19 5.434 5.495 0.556 o
-5 3 23 3.323 2.988 0.517 o
-5 3 24 7.837 6.494 0.570 o
-5 4 1 3.056 3.035 0.253 o
-5 4 3 21.367 22.180 0.673 o
-5 4 4 21.694 21.654 0.680 o
-5 4 5 12.782 12.666 0.442 o
-5 4 7 1.017 0.729 0.235 o
-5 4 8 22.740 23.331 0.711 o
-5 4 10 21.500 21.070 0.668 o
-5 4 12 1.800 1.775 0.331 o
-5 4 13 13.540 12.479 0.828 o
-5 4 14 6.472 7.129 0.604 o
-5 4 15 11.747 10.931 0.556 o
-5 4 17 2.303 1.885 0.595 o
-5 4 18 14.736 14.478 0.697 o
-5 4 22 2.289 1.799 0.500 o
-5 4 23 7.961 7.717 0.671 o
-5 5 1 2.443 2.733 0.290 o
-5 5 2 3.691 3.771 0.320 o
-5 5 3 2.972 2.640 0.303 o
-5 5 4 57.232 60.363 1.660 o
-5 5 6 7.705 7.282 0.399 o
-5 5 7 2.436 2.441 0.318 o
-5 5 8 5.286 5.586 0.452 o
-5 5 9 2.523 3.234 0.338 o
-5 5 10 3.028 3.204 0.429 o
-5 5 12 10.083 10.299 0.565 o
-5 5 13 3.841 4.188 0.453 o
-5 5 14 42.090 43.017 1.453 o
-5 6 3 16.857 18.141 0.936 o
-5 6 4 2.306 2.240 0.522 o
-5 6 5 1.246 1.622 0.385 o
-5 6 7 1.524 2.404 0.506 o
-5 6 8 9.646 9.610 1.162 o
-5 6 9 2.101 2.428 0.503 o
-5 6 10 7.771 7.661 0.675 o
-4 0 2 920.898 899.338 20.049 o
-4 0 4 112.968 117.446 2.787 o
-4 0 6 43.274 41.860 1.101 o
-4 0 8 545.261 535.683 11.840 o
-4 0 10 2.181 1.548 0.302 o
-4 0 12 225.256 224.047 5.287 o
-4 0 14 2.222 1.533 0.263 o
-4 0 16 53.513 55.387 1.466 o
-4 0 18 124.256 126.689 3.143 o
-4 0 22 1.248 2.074 0.537 o
-4 0 24 1.655 1.912 0.485 o
-4 0 26 10.213 8.864 0.734 o
-4 1 1 86.888 83.885 1.967 o
-4 1 2 52.158 52.317 1.323 o
-4 1 3 1.449 1.559 0.177 o
-4 1 4 30.902 31.052 0.797 o
-4 1 6 167.825 167.828 3.844 o
-4 1 7 80.169 81.378 1.910 o
-4 1 8 161.267 161.806 3.714 o
-4 1 9 41.861 42.512 1.092 o
-4 1 11 1.605 1.387 0.219 o
-4 1 12 77.795 77.234 1.865 o
-4 1 13 14.679 13.771 0.643 o
-4 1 14 15.417 15.620 0.501 o
-4 1 16 20.746 20.407 0.603 o
-4 1 17 4.373 4.230 0.272 o
-4 1 19 49.685 50.766 1.321 o
-4 1 20 11.035 10.798 0.476 o
-4 1 21 1.548 1.883 0.409 o
-4 1 22 20.215 21.400 0.861 o
-4 1 23 8.393 9.222 0.478 o
-4 1 24 2.429 2.387 0.374 o
-4 1 25 4.210 4.034 0.414 o
-4 1 26 2.107 1.572 0.365 o
-4 1 27 5.435 3.756 0.533 o
-4 2 1 49.988 49.089 1.224 o
-4 2 2 11.920 11.823 0.477 o
-4 2 3 73.199 72.463 1.735 o
-4 2 4 55.252 56.734 1.381 o
-4 2 5 5.657 5.933 0.287 o
-4 2 6 5.374 5.235 0.303 o
-4 2 7 6.515 6.674 0.293 o
-4 2 8 78.106 76.045 1.817 o
-4 2 9 13.418 12.495 0.446 o
-4 2 10 28.066 28.771 0.773 o
-4 2 11 6.840 7.043 0.302 o
-4 2 13 3.050 3.352 0.272 o
-4 2 14 21.379 20.856 0.740 o
-4 2 15 32.699 32.940 0.900 o
-4 2 16 9.267 9.600 0.446 o
-4 2 17 7.139 7.348 0.358 o
-4 2 18 7.551 7.528 0.426 o
-4 2 19 5.457 5.822 0.464 o
-4 2 21 4.181 4.513 0.544 o
-4 2 22 3.418 3.241 0.474 o
-4 2 23 17.141 16.860 0.781 o
-4 2 24 2.336 2.227 0.402 o
-4 2 25 2.775 3.065 0.588 o
-4 3 1 4.940 5.054 0.298 o
-4 3 2 13.057 12.474 0.456 o
-4 3 3 20.553 20.166 0.590 o
-4 3 4 224.331 224.065 5.112 o
-4 3 5 25.676 26.030 0.698 o
-4 3 6 7.616 7.759 0.304 o
-4 3 7 5.307 4.600 0.276 o
-4 3 9 34.098 33.811 0.971 o
-4 3 10 60.041 59.387 1.605 o
-4 3 11 18.879 19.111 0.586 o
-4 3 12 11.905 11.658 0.444 o
-4 3 14 29.798 29.192 0.949 o
-4 3 15 5.184 5.899 0.401 o
-4 3 16 3.795 3.751 0.372 o
-4 3 17 13.308 13.621 0.630 o
-4 3 18 2.544 2.378 0.398 o
-4 3 20 5.652 5.233 0.450 o
-4 4 2 4.382 4.015 0.274 o
-4 4 3 55.711 55.519 1.336 o
-4 4 4 0.753 0.940 0.194 o
-4 4 5 10.475 10.321 0.394 o
-4 4 6 26.323 26.072 0.849 o
-4 4 7 8.124 8.598 0.357 o
-4 4 8 4.019 4.335 0.284 o
-4 4 9 1.945 2.418 0.251 o
-4 4 10 2.644 2.364 0.365 o
-4 4 13 25.366 25.128 0.829 o
-4 4 14 20.631 21.903 0.824 o
-4 4 17 4.143 4.660 0.473 o
-4 4 18 1.914 2.218 0.439 o
-4 4 20 3.948 3.141 0.614 o
-4 4 23 4.662 3.732 0.601 o
-4 5 2 19.762 20.076 0.688 o
-4 5 3 2.226 1.791 0.299 o
-4 5 6 4.705 5.501 0.351 o
-4 5 8 7.163 7.445 0.426 o
-4 5 10 10.694 10.875 0.622 o
-4 5 12 6.745 6.942 0.574 o
-4 5 14 11.608 12.272 0.636 o
-4 5 17 1.583 1.807 0.429 o
-4 5 18 10.178 10.372 0.619 o
-4 6 2 4.153 4.228 0.373 o
-4 6 3 11.264 10.693 0.682 o
-4 6 4 2.984 2.923 0.392 o
-4 6 5 4.875 4.348 0.651 o
-4 6 7 8.147 7.227 0.897 o
-4 6 12 3.770 3.396 0.518 o
-4 6 13 16.860 15.411 0.898 o
-4 6 14 3.941 2.783 0.696 o
-4 7 2 3.897 3.257 0.741 o
-4 7 3 4.036 3.745 0.469 o
-4 7 4 2.160 1.717 0.473 o
-4 7 9 6.002 4.581 0.884 o
-3 0 2 13.311 12.997 0.732 o
-3 0 4 86.345 83.926 2.015 o
-3 0 6 13.435 14.409 0.518 o
-3 0 8 22.355 21.988 0.706 o
-3 0 10 4.091 4.442 0.378 o
-3 0 12 137.541 136.359 3.320 o
-3 0 14 16.482 16.527 0.786 o
-3 0 16 12.445 13.580 0.762 o
-3 0 18 32.106 32.364 1.088 o
-3 0 20 9.401 9.251 0.809 o
-3 0 22 88.704 95.459 2.771 o
-3 0 26 3.935 3.370 0.540 o
-3 1 1 313.570 310.315 6.904 o
-3 1 2 32.127 32.024 0.867 o
-3 1 3 153.978 153.584 3.467 o
-3 1 4 220.141 219.271 4.932 o
-3 1 5 202.694 202.794 4.544 o
-3 1 7 326.128 331.094 7.436 o
-3 1 8 8.267 7.974 0.310 o
-3 1 9 54.673 55.504 1.472 o
-3 1 10 3.309 3.804 0.280 o
-3 1 11 151.875 149.660 3.492 o
-3 1 12 48.797 49.855 1.279 o
-3 1 13 0.934 0.751 0.197 o
-3 1 16 29.987 30.334 0.826 o
-3 1 17 56.765 55.834 1.411 o
-3 1 18 35.447 35.305 0.993 o
-3 1 20 2.029 1.958 0.339 o
-3 1 21 7.531 7.336 0.443 o
-3 1 22 2.008 1.505 0.376 o
-3 1 26 15.593 15.121 0.870 o
-3 2 1 78.445 77.974 1.839 o
-3 2 2 165.440 163.917 3.703 o
-3 2 3 280.134 281.275 6.452 o
-3 2 4 26.468 25.801 0.738 o
-3 2 5 2.489 2.482 0.222 o
-3 2 6 130.853 130.711 3.026 o
-3 2 7 155.031 156.783 3.729 o
-3 2 8 266.295 262.694 6.059 o
-3 2 9 49.007 48.904 1.454 o
-3 2 10 10.391 10.884 0.368 o
-3 2 11 22.396 21.975 0.659 o
-3 2 12 1.873 2.086 0.217 o
-3 2 13 50.136 48.691 1.191 o
-3 2 14 0.665 0.895 0.216 o
-3 2 15 27.118 26.196 0.732 o
-3 2 16 13.818 13.957 0.470 o
-3 2 17 0.904 0.785 0.240 o
-3 2 18 41.101 41.707 1.185 o
-3 2 20 3.153 3.650 0.377 o
-3 2 21 10.111 9.908 0.537 o
-3 3 1 3.230 3.511 0.248 o
-3 3 2 233.619 232.614 5.306 o
-3 3 3 2.758 8.003 0.999 o
-3 3 4 41.659 41.161 1.119 o
-3 3 5 20.332 20.535 0.592 o
-3 3 7 3.979 3.903 0.222 o
-3 3 8 17.038 16.255 0.506 o
-3 3 9 4.647 5.110 0.268 o
-3 3 10 19.338 18.734 0.592 o
-3 3 11 1.226 1.291 0.228 o
-3 3 12 38.973 38.742 1.064 o
-3 3 13 8.888 9.237 0.384 o
-3 3 14 65.583 65.708 1.629 o
-3 3 15 1.442 1.577 0.298 o
-3 3 18 3.327 3.383 0.404 o
-3 3 19 9.447 9.827 0.531 o
-3 3 20 4.018 3.001 0.551 o
-3 3 21 5.765 4.260 0.932 o
-3 3 22 9.634 9.292 1.074 o
-3 3 24 10.119 9.273 0.881 o
-3 4 1 19.460 19.234 0.576 o
-3 4 2 9.815 9.903 0.355 o
-3 4 3 54.914 53.891 1.271 o
-3 4 4 26.305 26.391 0.707 o
-3 4 6 22.692 21.541 0.711 o
-3 4 7 15.835 16.086 0.499 o
-3 4 8 0.529 0.748 0.236 o
-3 4 10 35.143 35.836 0.960 o
-3 4 11 3.681 3.447 0.382 o
-3 4 12 2.592 2.672 0.386 o
-3 4 13 30.024 29.911 0.923 o
-3 4 14 5.284 5.099 0.481 o
-3 4 16 3.738 3.732 0.409 o
-3 4 17 9.371 10.235 0.559 o
-3 4 18 3.863 4.470 0.487 o
-3 4 20 8.146 7.738 0.526 o
-3 4 23 6.525 6.388 0.656 o
-3 5 2 2.343 2.064 0.256 o
-3 5 3 4.107 3.884 0.288 o
-3 5 4 8.559 8.213 0.402 o
-3 5 6 32.092 31.618 0.918 o
-3 5 7 3.724 3.569 0.357 o
-3 5 9 4.046 3.350 0.364 o
-3 5 10 3.887 4.027 0.390 o
-3 5 11 1.288 1.726 0.565 o
-3 5 12 11.103 10.130 0.553 o
-3 5 14 1.412 1.388 0.373 o
-3 5 16 15.152 15.238 0.807 o
-3 6 1 7.309 7.523 0.443 o
-3 6 2 1.519 1.494 0.337 o
-3 6 9 3.513 3.656 0.534 o
-3 6 10 2.505 1.946 0.498 o
-3 6 12 3.123 2.942 0.596 o
-3 7 2 4.527 3.952 0.472 o
-3 7 4 3.850 3.870 0.523 o
-2 0 2 604.929 603.552 13.604 o
-2 0 4 2019.214 2053.075 43.457 o
-2 0 6 159.405 163.400 4.702 o
-2 0 8 428.614 430.401 10.039 o
-2 0 10 179.169 179.869 4.321 o
-2 0 12 14.973 16.318 0.816 o
-2 0 14 52.119 53.969 1.868 o
-2 0 16 11.539 11.480 0.539 o
-2 0 18 4.476 4.749 0.736 o
-2 0 20 15.612 16.004 0.800 o
-2 0 22 4.015 3.468 0.568 o
-2 0 26 3.438 2.056 0.640 o
-2 1 1 174.853 179.768 4.004 o
-2 1 2 528.178 544.854 11.984 o
-2 1 3 20.077 19.963 0.544 o
-2 1 4 341.031 343.280 7.652 o
-2 1 5 19.182 20.311 0.554 o
-2 1 6 5.411 5.265 0.238 o
-2 1 7 31.519 31.274 0.793 o
-2 1 8 272.547 273.074 6.167 o
-2 1 9 21.125 21.640 0.716 o
-2 1 10 30.596 29.934 0.860 o
-2 1 11 77.687 77.198 1.841 o
-2 1 12 8.382 8.982 0.442 o
-2 1 13 30.414 30.126 0.963 o
-2 1 14 17.490 17.500 0.562 o
-2 1 15 10.689 10.979 0.378 o
-2 1 16 0.972 0.799 0.208 o
-2 1 17 29.512 29.240 0.834 o
-2 1 18 7.975 7.872 0.415 o
-2 1 19 1.538 1.123 0.339 o
-2 1 21 54.078 53.446 1.523 o
-2 1 22 10.060 9.229 0.545 o
-2 2 1 142.566 144.569 3.246 o
-2 2 2 463.122 463.191 10.246 o
-2 2 3 9.284 9.415 0.355 o
-2 2 4 21.250 21.533 0.585 o
-2 2 5 3.204 3.047 0.203 o
-2 2 6 67.819 67.809 1.608 o
-2 2 7 31.918 32.098 0.835 o
-2 2 8 26.798 26.214 0.790 o
-2 2 9 15.540 15.573 0.516 o
-2 2 10 85.453 85.472 2.141 o
-2 2 11 12.820 12.839 0.470 o
-2 2 12 102.516 99.721 2.410 o
-2 2 13 29.609 29.172 0.806 o
-2 2 14 12.647 12.665 0.436 o
-2 2 15 2.157 1.744 0.226 o
-2 2 16 35.649 35.713 1.010 o
-2 2 17 51.796 52.851 1.375 o
-2 2 18 25.608 26.507 0.886 o
-2 2 19 7.849 8.488 0.597 o
-2 2 20 6.626 6.761 0.479 o
-2 2 22 8.809 9.086 0.635 o
-2 2 23 9.810 10.049 0.741 o
-2 2 25 13.566 12.598 1.071 o
-2 2 26 7.004 6.168 0.750 o
-2 3 1 132.835 133.458 3.130 o
-2 3 2 64.428 64.138 1.525 o
-2 3 3 1.493 1.636 0.194 o
-2 3 4 8.300 8.571 0.346 o
-2 3 5 5.594 5.823 0.351 o
-2 3 6 344.902 339.366 7.618 o
-2 3 7 74.614 74.675 1.838 o
-2 3 8 24.191 23.180 0.648 o
-2 3 9 7.870 7.442 0.330 o
-2 3 10 21.164 20.400 0.640 o
-2 3 11 18.573 18.552 0.613 o
-2 3 12 80.586 78.454 1.913 o
-2 3 13 3.223 3.606 0.270 o
-2 3 14 4.888 4.937 0.338 o
-2 3 15 10.721 10.692 0.428 o
-2 3 16 30.407 30.648 0.890 o
-2 3 17 4.157 4.044 0.477 o
-2 3 18 8.452 9.496 0.470 o
-2 3 19 1.296 1.461 0.311 o
-2 3 20 14.155 15.073 0.826 o
-2 3 22 9.949 10.234 0.733 o
-2 4 1 15.944 14.835 0.463 o
-2 4 2 54.789 54.328 1.289 o
-2 4 3 29.277 29.277 0.743 o
-2 4 4 0.486 0.726 0.174 o
-2 4 5 31.606 31.594 0.795 o
-2 4 6 3.441 3.540 0.243 o
-2 4 7 35.053 34.051 0.916 o
-2 4 10 22.485 23.016 0.755 o
-2 4 11 16.205 17.211 0.679 o
-2 4 13 9.964 10.352 0.450 o
-2 4 14 7.866 8.585 0.405 o
-2 4 15 9.364 9.521 0.447 o
-2 4 16 13.275 13.494 0.637 o
-2 4 17 10.136 11.415 0.615 o
-2 4 18 1.062 1.518 0.389 o
-2 4 20 2.381 1.967 0.479 o
-2 4 21 2.054 2.265 0.483 o
-2 5 2 14.508 14.717 0.510 o
-2 5 3 3.021 2.534 0.279 o
-2 5 4 3.177 3.147 0.326 o
-2 5 5 3.852 3.472 0.286 o
-2 5 8 1.082 0.918 0.279 o
-2 5 9 0.870 1.027 0.322 o
-2 5 10 2.856 2.918 0.398 o
-2 5 13 5.224 4.979 0.434 o
-2 5 14 2.201 1.844 0.481 o
-2 5 16 11.611 11.701 0.741 o
-2 5 20 4.273 4.565 0.666 o
-2 6 3 13.803 12.543 0.528 o
-2 6 5 7.725 6.592 0.576 o
-2 6 7 3.073 2.701 0.466 o
-2 6 8 1.763 1.464 0.370 o
-2 6 9 2.655 2.788 0.374 o
-2 6 11 5.360 4.816 0.641 o
-2 6 15 4.896 4.156 0.468 o
-2 7 1 4.871 5.462 0.473 o
-2 7 4 1.205 1.447 0.416 o
-2 7 6 2.626 2.874 0.524 o
-2 7 7 3.721 3.184 0.569 o
-2 7 8 3.091 2.822 0.800 o
-1 0 2 776.586 771.452 17.986 o
-1 0 4 836.219 827.803 17.404 o
-1 0 6 191.633 187.844 4.226 o
-1 0 8 471.713 465.740 10.245 o
-1 0 10 2.506 2.584 0.346 o
-1 0 12 101.953 104.586 3.219 o
-1 0 14 46.223 46.768 1.746 o
-1 0 16 22.084 20.596 0.719 o
-1 0 18 56.156 54.210 1.541 o
-1 0 20 41.120 42.287 1.679 o
-1 0 24 19.793 20.284 1.407 o
-1 0 26 6.050 4.724 1.234 o
-1 1 1 2863.111 2820.503 62.579 o
-1 1 2 146.628 150.496 3.389 o
-1 1 3 330.899 333.292 7.466 o
-1 1 4 234.060 239.468 5.358 o
-1 1 5 0.908 0.852 0.147 o
-1 1 6 0.388 0.589 0.164 o
-1 1 7 400.582 399.533 8.862 o
-1 1 8 88.030 86.859 2.020 o
-1 1 9 160.541 161.596 3.701 o
-1 1 11 69.039 66.422 1.602 o
-1 1 12 81.290 81.473 2.024 o
-1 1 13 5.186 5.316 0.333 o
-1 1 14 41.791 41.202 1.051 o
-1 1 15 9.970 10.399 0.380 o
-1 1 16 6.098 5.945 0.302 o
-1 1 17 1.644 1.404 0.249 o
-1 1 18 13.946 13.499 0.505 o
-1 1 19 9.213 9.057 0.467 o
-1 1 20 2.445 3.008 0.361 o
-1 1 21 12.807 13.002 0.613 o
-1 1 22 11.708 12.245 0.850 o
-1 1 23 1.497 1.395 0.413 o
-1 2 1 139.328 136.680 3.068 o
-1 2 2 7.962 7.684 0.288 o
-1 2 3 165.454 165.741 3.722 o
-1 2 4 214.699 211.324 4.747 o
-1 2 5 468.322 464.775 10.322 o
-1 2 6 18.046 18.171 0.527 o
-1 2 7 1.170 1.077 0.175 o
-1 2 8 45.250 42.736 1.172 o
-1 2 9 7.347 7.467 0.322 o
-1 2 10 174.325 172.693 4.309 o
-1 2 11 68.757 68.248 1.656 o
-1 2 12 33.065 31.181 0.852 o
-1 2 13 12.294 11.919 0.413 o
-1 2 14 1.181 0.816 0.213 o
-1 2 15 11.605 11.102 0.468 o
-1 2 18 5.232 4.583 0.496 o
-1 2 19 3.858 3.816 0.492 o
-1 2 20 45.526 44.737 1.385 o
-1 2 22 17.218 17.796 1.184 o
-1 3 2 30.266 31.048 0.792 o
-1 3 3 12.580 12.270 0.415 o
-1 3 4 51.662 51.888 1.243 o
-1 3 5 0.689 0.946 0.178 o
-1 3 6 99.533 99.048 2.292 o
-1 3 7 1.793 1.591 0.238 o
-1 3 8 6.529 6.682 0.289 o
-1 3 9 0.967 0.803 0.214 o
-1 3 10 30.503 30.730 0.879 o
-1 3 11 39.832 38.837 0.989 o
-1 3 13 1.095 1.309 0.228 o
-1 3 14 24.845 25.270 0.743 o
-1 3 15 5.537 6.002 0.327 o
-1 3 16 107.981 109.008 2.698 o
-1 3 17 10.755 11.360 0.502 o
-1 3 19 3.792 4.301 0.386 o
-1 3 21 11.695 12.005 0.682 o
-1 3 22 4.948 4.994 0.501 o
-1 3 23 1.936 2.132 0.500 o
-1 3 24 12.166 11.905 0.761 o
-1 4 1 5.528 5.722 0.316 o
-1 4 2 8.785 8.983 0.330 o
-1 4 5 57.537 58.159 1.548 o
-1 4 6 75.553 76.193 1.784 o
-1 4 7 26.774 26.772 0.710 o
-1 4 8 7.024 6.665 0.281 o
-1 4 9 1.308 1.689 0.212 o
-1 4 11 2.804 2.972 0.271 o
-1 4 12 18.912 19.961 0.760 o
-1 4 14 3.291 3.082 0.290 o
-1 4 15 34.856 36.200 1.023 o
-1 4 16 3.822 3.916 0.358 o
-1 4 17 9.311 8.976 0.467 o
-1 4 20 8.906 8.922 0.552 o
-1 4 21 2.150 2.588 0.515 o
-1 5 1 9.190 9.085 0.379 o
-1 5 2 62.901 61.326 1.692 o
-1 5 3 1.183 1.339 0.299 o
-1 5 4 4.378 4.289 0.277 o
-1 5 6 29.120 29.398 0.805 o
-1 5 7 0.918 0.849 0.244 o
-1 5 8 0.650 0.961 0.266 o
-1 5 9 6.462 6.265 0.466 o
-1 5 10 13.019 14.221 0.597 o
-1 5 12 12.561 12.437 0.525 o
-1 5 14 1.583 1.571 0.373 o
-1 6 1 2.039 2.292 0.345 o
-1 6 2 5.708 6.016 0.401 o
-1 6 4 1.540 1.732 0.544 o
-1 6 6 7.591 7.010 0.578 o
-1 6 7 7.984 8.007 0.456 o
-1 6 8 2.291 2.279 0.364 o
-1 6 13 2.947 2.507 0.420 o
-1 6 15 4.446 3.916 0.466 o
-1 7 3 2.710 2.243 0.423 o
-1 7 4 2.838 2.960 0.560 o
-1 7 6 3.312 3.290 0.531 o
0 0 4 65.795 65.646 1.501 o
0 0 6 979.911 973.328 19.471 o
0 0 8 272.776 277.165 5.846 o
0 0 10 374.843 377.974 8.365 o
0 0 12 13.126 13.500 0.833 o
0 0 14 48.291 49.668 1.792 o
0 0 16 9.931 10.930 0.536 o
0 0 18 0.595 1.620 0.522 o
0 0 20 10.079 10.913 0.768 o
0 0 22 15.342 16.090 1.242 o
0 1 1 457.309 447.869 10.047 o
0 1 2 84.384 87.284 1.956 o
0 1 3 18.882 18.139 0.508 o
0 1 4 1488.393 1489.740 33.069 o
0 1 5 66.557 66.060 1.579 o
0 1 6 294.461 293.671 6.650 o
0 1 7 33.258 32.629 0.869 o
0 1 8 26.233 25.098 0.707 o
0 1 9 34.588 35.726 0.923 o
0 1 10 138.423 137.673 3.231 o
0 1 11 191.513 192.789 4.678 o
0 1 13 24.756 23.651 0.744 o
0 1 14 8.466 8.285 0.332 o
0 1 15 3.183 3.379 0.234 o
0 1 16 3.529 3.636 0.313 o
0 1 17 18.584 18.494 0.676 o
0 1 18 24.002 23.074 0.751 o
0 1 19 48.067 48.349 1.275 o
0 1 20 2.874 2.738 0.370 o
0 1 21 14.932 14.488 0.713 o
0 1 22 3.865 3.538 0.551 o
0 1 23 9.927 10.008 0.820 o
0 1 24 3.641 3.284 0.590 o
0 2 0 12.809 13.585 0.511 o
0 2 1 72.366 71.901 1.650 o
0 2 2 126.838 125.058 2.833 o
0 2 4 173.253 172.721 3.949 o
0 2 5 45.363 46.786 1.152 o
0 2 6 4.877 5.312 0.354 o
0 2 7 130.402 130.346 3.043 o
0 2 8 0.333 0.678 0.208 o
0 2 9 52.068 51.368 1.302 o
0 2 10 24.606 24.509 0.802 o
0 2 11 1.358 1.165 0.252 o
0 2 12 15.673 15.837 0.612 o
0 2 13 9.343 9.352 0.393 o
0 2 14 54.168 53.589 1.315 o
0 2 15 91.852 91.304 2.187 o
0 2 16 2.608 2.443 0.286 o
0 2 18 10.990 11.026 0.562 o
0 2 19 11.342 11.882 0.675 o
0 2 20 23.494 24.114 1.186 o
0 2 21 12.556 13.519 0.757 o
0 2 24 6.613 7.101 0.840 o
0 2 25 7.413 5.532 0.840 o
0 3 1 45.992 45.680 1.131 o
0 3 2 107.587 109.673 2.534 o
0 3 3 77.976 81.802 1.916 o
0 3 4 54.286 54.441 1.318 o
0 3 5 14.558 14.726 0.615 o
0 3 7 0.773 0.794 0.176 o
0 3 8 93.865 93.018 2.453 o
0 3 9 38.214 38.202 0.997 o
0 3 10 1.120 1.415 0.221 o
0 3 11 1.246 1.354 0.200 o
0 3 12 6.683 8.733 0.340 o
0 3 14 26.046 26.549 0.984 o
0 3 17 4.824 4.827 0.381 o
0 3 18 4.227 3.888 0.367 o
0 3 20 11.254 11.425 0.747 o
0 3 21 2.385 2.054 0.456 o
0 3 22 3.837 3.544 0.685 o
0 3 24 6.118 6.439 0.785 o
0 4 0 2.521 2.478 0.353 o
0 4 1 10.508 10.642 0.415 o
0 4 2 52.275 52.305 1.250 o
0 4 3 3.568 3.475 0.202 o
0 4 4 11.443 11.436 0.377 o
0 4 5 69.822 68.880 1.623 o
0 4 6 6.221 6.112 0.282 o
0 4 8 5.175 5.179 0.282 o
0 4 9 6.082 6.126 0.268 o
0 4 10 15.465 15.858 0.526 o
0 4 12 22.751 22.469 0.736 o
0 4 13 5.463 5.869 0.330 o
0 4 15 24.253 24.243 0.748 o
0 4 16 15.150 16.223 0.583 o
0 4 18 2.043 2.256 0.399 o
0 4 19 3.230 2.901 0.526 o
0 4 20 3.676 3.701 0.497 o
0 5 2 6.456 6.414 0.297 o
0 5 3 1.043 0.859 0.247 o
0 5 4 22.157 22.636 0.699 o
0 5 5 2.904 2.938 0.239 o
0 5 6 66.739 67.568 1.734 o
0 5 8 5.680 5.295 0.292 o
0 5 11 3.391 3.330 0.307 o
0 5 12 7.123 7.172 0.450 o
0 5 14 12.535 13.837 0.575 o
0 5 15 1.505 1.867 0.334 o
0 5 16 20.980 21.493 1.060 o
0 6 0 15.245 15.188 0.745 o
0 6 1 5.051 4.866 0.401 o
0 6 2 8.117 7.943 0.818 o
0 6 3 3.475 3.346 0.359 o
0 6 5 24.947 24.875 1.022 o
0 6 10 10.032 10.062 0.774 o
0 6 12 3.948 3.286 0.415 o
0 6 13 3.994 3.722 0.427 o
0 6 16 1.583 1.794 0.538 o
0 7 1 7.053 6.177 0.669 o
0 7 9 5.600 5.393 0.674 o
1 0 0 389.082 386.369 7.656 o
1 0 2 9.736 10.360 0.578 o
1 0 4 1799.358 1682.542 145.525 o
1 0 6 212.993 206.947 4.583 o
1 0 8 67.811 65.178 2.028 o
1 0 10 632.550 630.809 17.328 o
1 0 12 6.109 6.084 0.450 o
1 0 14 80.332 78.407 1.950 o
1 0 16 11.478 11.936 0.692 o
1 0 18 83.184 80.984 2.330 o
1 0 20 84.137 83.805 2.472 o
1 0 22 4.131 3.012 0.565 o
1 1 0 1546.791 1569.632 35.645 o
1 1 1 36.851 35.986 0.896 o
1 1 2 420.523 413.857 9.900 o
1 1 3 779.874 779.602 17.234 o
1 1 4 63.674 64.349 1.525 o
1 1 5 112.557 108.395 2.662 o
1 1 6 196.815 197.011 4.503 o
1 1 7 17.523 18.072 0.838 o
1 1 8 87.886 90.629 2.255 o
1 1 9 176.609 177.045 4.122 o
1 1 10 67.773 66.747 1.655 o
1 1 12 1.854 1.565 0.274 o
1 1 13 6.458 6.260 0.295 o
1 1 14 118.597 117.885 2.769 o
1 1 15 4.123 4.005 0.262 o
1 1 16 21.761 21.654 0.674 o
1 1 17 3.617 3.604 0.279 o
1 1 18 4.019 3.701 0.338 o
1 1 19 10.971 12.052 0.514 o
1 1 20 4.819 4.196 0.503 o
1 1 21 9.310 9.893 0.750 o
1 1 22 2.897 2.766 0.462 o
1 1 23 7.735 7.103 0.510 o
1 1 24 13.124 12.489 1.069 o
1 2 0 304.698 307.268 6.839 o
1 2 1 257.654 255.268 5.752 o
1 2 3 336.686 343.427 7.685 o
1 2 4 18.571 18.799 0.533 o
1 2 5 84.594 85.954 2.002 o
1 2 6 149.137 145.127 3.430 o
1 2 7 77.997 75.332 2.129 o
1 2 8 5.903 6.181 0.348 o
1 2 9 6.894 7.100 0.371 o
1 2 10 4.611 4.313 0.376 o
1 2 11 8.289 7.640 0.339 o
1 2 12 13.974 13.718 0.520 o
1 2 13 25.933 25.636 0.731 o
1 2 14 6.219 6.718 0.280 o
1 2 15 0.862 1.024 0.206 o
1 2 16 5.294 5.524 0.302 o
1 2 17 3.933 3.996 0.307 o
1 2 19 5.574 5.900 0.417 o
1 2 21 2.114 1.744 0.440 o
1 2 22 10.431 10.713 0.719 o
1 2 24 8.775 5.777 0.736 o
1 3 0 16.730 16.853 0.632 o
1 3 1 28.159 28.600 0.760 o
1 3 2 42.796 43.241 1.123 o
1 3 4 7.399 7.351 0.281 o
1 3 5 20.335 20.222 0.574 o
1 3 6 41.789 42.319 1.133 o
1 3 7 17.376 17.133 0.581 o
1 3 8 23.928 23.790 0.733 o
1 3 9 9.260 9.248 0.370 o
1 3 11 14.549 14.384 0.457 o
1 3 12 32.551 31.755 0.887 o
1 3 13 26.804 26.978 0.783 o
1 3 14 14.197 14.722 0.546 o
1 3 18 33.658 34.264 1.086 o
1 3 19 13.578 12.096 0.837 o
1 3 23 2.043 1.870 0.453 o
1 4 0 16.118 16.121 0.492 o
1 4 1 0.628 0.769 0.177 o
1 4 2 50.197 50.295 1.346 o
1 4 3 13.823 13.818 0.434 o
1 4 4 2.577 2.561 0.195 o
1 4 5 48.638 47.794 1.149 o
1 4 6 7.737 8.055 0.335 o
1 4 7 1.254 0.957 0.180 o
1 4 8 54.644 53.937 1.297 o
1 4 9 10.736 11.107 0.424 o
1 4 11 1.244 1.159 0.251 o
1 4 12 1.421 1.504 0.252 o
1 4 13 7.329 7.720 0.373 o
1 4 14 1.580 1.581 0.283 o
1 4 15 16.545 16.882 0.656 o
1 4 16 11.942 12.552 0.620 o
1 4 17 3.628 3.031 0.518 o
1 4 19 3.847 3.951 0.532 o
1 4 22 6.494 5.816 0.801 o
1 5 0 4.050 3.654 0.251 o
1 5 2 11.009 11.227 0.411 o
1 5 4 81.123 82.315 2.143 o
1 5 5 4.121 3.786 0.255 o
1 5 7 0.831 0.727 0.232 o
1 5 8 7.142 7.171 0.402 o
1 5 9 0.661 0.730 0.235 o
1 5 10 2.050 2.246 0.256 o
1 5 11 0.889 0.918 0.295 o
1 5 12 19.646 19.791 0.656 o
1 5 14 17.320 17.694 0.778 o
1 5 16 6.120 6.010 0.410 o
1 6 0 5.367 5.710 0.394 o
1 6 1 5.235 5.129 0.410 o
1 6 2 2.289 2.223 0.347 o
1 6 4 4.554 4.162 0.411 o
1 6 5 10.160 9.553 0.462 o
1 6 6 3.293 3.428 0.302 o
1 6 8 10.477 10.102 0.597 o
1 6 9 10.195 9.915 0.502 o
1 6 10 5.594 5.792 0.462 o
1 6 13 1.942 1.962 0.399 o
1 6 15 10.185 10.520 0.741 o
1 7 4 1.392 1.528 0.474 o
1 7 5 3.071 2.410 0.485 o
2 0 0 23.155 24.319 0.965 o
2 0 2 3593.433 3580.486 72.645 o
2 0 4 6.578 7.214 0.876 o
2 0 6 3.799 3.893 0.319 o
2 0 8 93.767 95.839 2.452 o
2 0 10 31.732 31.416 1.122 o
2 0 12 71.561 70.949 1.789 o
2 0 14 93.313 91.150 2.222 o
2 0 16 33.790 33.283 1.112 o
2 0 18 4.666 5.028 0.513 o
2 0 20 17.757 17.624 0.893 o
2 0 22 14.325 14.886 0.863 o
2 0 24 31.830 29.850 1.582 o
2 1 0 354.601 353.480 7.799 o
2 1 1 64.880 66.307 1.495 o
2 1 2 2.246 2.068 0.190 o
2 1 3 446.162 447.642 10.088 o
2 1 4 9.106 8.934 0.403 o
2 1 5 19.502 19.361 0.620 o
2 1 6 401.263 395.781 8.844 o
2 1 7 28.606 28.034 1.087 o
2 1 8 44.784 44.950 1.194 o
2 1 9 167.822 165.996 3.956 o
2 1 10 39.665 38.838 1.147 o
2 1 11 1.789 1.642 0.275 o
2 1 12 22.712 22.388 0.692 o
2 1 13 112.989 110.159 2.555 o
2 1 14 2.935 3.001 0.278 o
2 1 15 4.927 5.155 0.291 o
2 1 17 4.389 4.516 0.333 o
2 1 18 19.989 20.026 0.696 o
2 1 19 31.764 32.329 0.980 o
2 1 20 23.537 24.219 0.852 o
2 1 21 8.878 8.951 0.553 o
2 1 23 6.382 6.315 0.520 o
2 1 24 7.735 6.108 0.875 o
2 2 0 486.395 490.929 11.099 o
2 2 1 1.669 1.790 0.192 o
2 2 2 2.850 3.483 0.292 o
2 2 3 16.956 16.991 0.688 o
2 2 4 0.914 1.002 0.219 o
2 2 5 140.364 141.315 3.327 o
2 2 6 8.976 9.210 0.364 o
2 2 7 54.170 54.441 1.348 o
2 2 8 52.397 52.194 1.393 o
2 2 9 73.506 73.930 1.776 o
2 2 10 70.855 69.045 1.684 o
2 2 11 29.733 29.764 0.785 o
2 2 13 34.134 33.791 0.877 o
2 2 14 1.390 1.319 0.194 o
2 2 15 12.002 12.206 0.419 o
2 2 16 11.612 12.250 0.441 o
2 2 17 43.747 43.156 1.177 o
2 2 18 2.101 2.140 0.290 o
2 2 20 1.896 1.317 0.437 o
2 2 22 2.691 2.901 0.906 o
2 2 23 10.265 9.150 1.244 o
2 3 0 11.795 11.947 0.422 o
2 3 1 25.791 24.446 0.691 o
2 3 2 82.809 84.341 2.085 o
2 3 3 4.088 4.234 0.243 o
2 3 4 202.746 201.547 4.690 o
2 3 5 6.520 6.993 0.354 o
2 3 6 1.953 2.156 0.246 o
2 3 7 27.481 28.003 0.813 o
2 3 8 1.662 1.495 0.273 o
2 3 9 1.414 1.419 0.184 o
2 3 10 2.208 2.373 0.208 o
2 3 12 3.714 3.658 0.265 o
2 3 14 7.844 8.608 0.403 o
2 3 15 4.802 5.462 0.370 o
2 3 16 3.647 3.810 0.396 o
2 3 22 4.367 4.609 0.628 o
2 4 0 11.805 11.577 0.414 o
2 4 2 1.650 1.718 0.177 o
2 4 3 50.691 50.529 1.210 o
2 4 4 50.252 49.847 1.224 o
2 4 5 17.982 17.700 0.550 o
2 4 6 3.112 2.705 0.198 o
2 4 7 16.857 17.279 0.525 o
2 4 8 4.928 5.100 0.262 o
2 4 9 6.379 6.771 0.308 o
2 4 10 1.645 1.831 0.237 o
2 4 12 32.224 32.473 1.003 o
2 4 13 10.850 10.625 0.503 o
2 4 14 7.292 7.348 0.397 o
2 4 15 5.266 5.245 0.487 o
2 4 17 5.636 5.279 0.690 o
2 4 18 9.695 8.866 0.937 o
2 4 19 3.202 2.321 0.684 o
2 5 0 10.220 10.895 0.379 o
2 5 1 3.627 3.525 0.241 o
2 5 2 1.524 1.113 0.201 o
2 5 3 1.221 1.290 0.205 o
2 5 4 2.740 2.371 0.222 o
2 5 5 1.112 1.010 0.269 o
2 5 6 1.665 1.850 0.226 o
2 5 8 63.678 65.153 1.640 o
2 5 9 5.297 5.626 0.331 o
2 5 10 3.267 3.398 0.289 o
2 5 14 16.109 16.177 0.677 o
2 5 16 5.925 5.878 0.516 o
2 5 18 13.443 12.566 0.969 o
2 6 2 6.199 5.732 0.367 o
2 6 3 10.939 11.100 0.453 o
2 6 4 5.701 5.355 0.402 o
2 6 7 4.853 4.815 0.361 o
2 6 11 2.889 2.255 0.409 o
2 6 12 6.422 6.276 0.634 o
2 6 14 3.532 2.856 0.519 o
2 7 3 1.775 1.585 0.420 o
2 7 4 3.581 3.296 0.400 o
2 7 7 2.466 2.274 0.550 o
3 0 0 389.418 390.095 8.725 o
3 0 2 175.176 179.144 4.297 o
3 0 4 19.673 19.441 0.692 o
3 0 6 546.640 543.885 11.770 o
3 0 8 10.447 10.125 0.502 o
3 0 10 1.221 1.171 0.292 o
3 0 12 262.363 262.467 6.385 o
3 0 14 3.444 3.480 0.363 o
3 0 16 10.099 10.374 0.609 o
3 0 18 9.590 9.629 0.775 o
3 0 20 33.619 35.238 1.691 o
3 0 22 31.097 32.559 1.267 o
3 1 0 106.722 104.740 2.441 o
3 1 1 422.070 416.055 9.286 o
3 1 2 419.203 426.257 9.292 o
3 1 3 37.564 38.294 0.966 o
3 1 4 10.835 10.851 0.439 o
3 1 5 5.017 5.024 0.271 o
3 1 6 4.428 4.133 0.291 o
3 1 7 27.082 26.966 0.912 o
3 1 8 35.128 35.050 0.962 o
3 1 9 1.236 1.560 0.213 o
3 1 10 79.058 79.394 1.935 o
3 1 11 12.847 12.791 0.425 o
3 1 12 9.949 10.401 0.356 o
3 1 13 34.630 33.513 0.865 o
3 1 14 0.549 0.907 0.232 o
3 1 15 3.057 3.145 0.255 o
3 1 16 54.627 55.533 1.454 o
3 1 17 1.294 1.689 0.293 o
3 1 18 2.580 2.151 0.435 o
3 1 19 7.238 7.437 0.487 o
3 1 21 3.892 3.488 0.716 o
3 1 23 20.891 19.464 1.318 o
3 2 0 1.694 1.897 0.195 o
3 2 1 6.182 6.114 0.387 o
3 2 2 255.293 259.257 5.865 o
3 2 3 97.266 95.711 2.579 o
3 2 4 88.389 84.848 2.467 o
3 2 5 58.320 57.533 1.665 o
3 2 6 41.094 40.412 1.064 o
3 2 7 3.624 3.306 0.314 o
3 2 8 96.788 96.791 2.250 o
3 2 9 2.266 2.261 0.235 o
3 2 10 10.288 10.984 0.371 o
3 2 11 8.818 9.274 0.310 o
3 2 12 21.036 20.744 0.616 o
3 2 13 2.777 2.726 0.229 o
3 2 14 7.652 8.103 0.403 o
3 2 15 1.204 1.368 0.267 o
3 2 16 1.876 2.066 0.285 o
3 2 17 6.413 7.667 0.409 o
3 2 18 19.379 20.071 0.730 o
3 2 19 13.519 13.996 0.623 o
3 2 20 5.895 5.299 0.536 o
3 2 21 5.061 4.197 0.750 o
3 2 22 1.717 1.958 0.486 o
3 3 0 65.653 70.020 1.660 o
3 3 1 1.866 1.709 0.213 o
3 3 2 19.084 18.709 0.591 o
3 3 3 91.565 91.910 2.234 o
3 3 4 99.946 99.939 2.310 o
3 3 6 19.101 19.203 0.637 o
3 3 7 1.960 2.133 0.209 o
3 3 8 108.609 108.518 2.673 o
3 3 9 32.818 34.090 0.928 o
3 3 11 14.738 15.030 0.510 o
3 3 12 30.731 32.200 0.881 o
3 3 13 11.594 11.506 0.436 o
3 3 14 45.811 45.881 1.346 o
3 3 15 4.083 4.306 0.394 o
3 3 16 7.671 8.550 0.517 o
3 3 17 6.534 6.145 0.560 o
3 3 18 1.864 2.372 0.554 o
3 4 0 5.727 5.701 0.286 o
3 4 2 2.089 1.894 0.208 o
3 4 3 17.248 16.510 0.478 o
3 4 4 34.061 34.131 0.845 o
3 4 7 50.759 51.458 1.257 o
3 4 8 18.632 18.428 0.571 o
3 4 9 9.326 9.228 0.360 o
3 4 10 10.298 10.895 0.442 o
3 4 13 12.199 12.318 0.502 o
3 4 14 2.967 2.633 0.475 o
3 4 16 2.122 2.056 0.540 o
3 4 17 14.403 14.796 0.769 o
3 4 18 8.686 8.504 0.932 o
3 5 0 15.161 14.753 0.522 o
3 5 1 8.435 8.656 0.349 o
3 5 2 2.663 2.525 0.240 o
3 5 5 1.723 1.634 0.268 o
3 5 6 13.934 13.958 0.465 o
3 5 7 4.391 4.974 0.293 o
3 5 8 1.494 1.773 0.355 o
3 5 12 1.440 1.299 0.335 o
3 5 14 1.351 1.340 0.419 o
3 5 15 1.710 1.944 0.499 o
3 5 16 3.562 3.428 0.514 o
3 5 18 12.088 11.315 0.791 o
3 6 2 1.134 0.874 0.285 o
3 6 5 2.937 2.406 0.384 o
3 6 7 12.354 12.564 0.553 o
3 6 10 1.713 1.502 0.372 o
3 6 11 2.280 1.732 0.370 o
3 6 12 2.276 2.276 0.462 o
3 6 13 3.275 2.511 0.491 o
3 7 2 3.063 2.842 0.680 o
3 7 3 3.764 3.725 0.511 o
4 0 0 41.035 41.671 1.188 o
4 0 4 35.151 33.905 0.986 o
4 0 6 12.454 11.368 0.799 o
4 0 10 4.019 4.122 0.298 o
4 0 12 3.023 2.714 0.285 o
4 0 16 45.131 44.800 1.548 o
4 0 22 27.218 28.056 1.474 o
4 1 0 2.199 2.204 0.170 o
4 1 1 138.855 137.894 3.133 o
4 1 2 174.497 170.348 3.856 o
4 1 3 197.396 192.897 4.427 o
4 1 4 2.914 2.964 0.219 o
4 1 5 83.888 81.939 1.932 o
4 1 6 36.489 35.952 0.966 o
4 1 7 7.732 8.196 0.345 o
4 1 8 25.345 26.268 0.815 o
4 1 9 18.992 19.400 0.619 o
4 1 11 121.396 117.856 2.712 o
4 1 12 10.610 10.710 0.361 o
4 1 13 5.884 5.324 0.261 o
4 1 14 2.316 2.402 0.241 o
4 1 15 8.693 8.639 0.530 o
4 1 16 3.078 3.016 0.342 o
4 1 17 8.107 8.751 0.475 o
4 1 19 1.254 1.873 0.379 o
4 1 20 16.229 16.018 0.833 o
4 1 21 12.697 12.363 0.993 o
4 1 22 4.175 3.274 0.623 o
4 2 0 111.376 110.861 2.862 o
4 2 1 68.728 67.799 1.698 o
4 2 2 275.280 268.385 6.243 o
4 2 3 51.897 52.044 1.445 o
4 2 4 14.771 14.114 0.556 o
4 2 6 6.666 7.016 0.316 o
4 2 7 144.402 141.843 3.307 o
4 2 9 13.674 14.213 0.481 o
4 2 10 37.933 39.133 0.995 o
4 2 11 1.128 1.267 0.253 o
4 2 12 95.015 94.577 2.275 o
4 2 13 25.674 25.629 0.723 o
4 2 14 10.305 10.901 0.430 o
4 2 15 24.489 25.955 0.795 o
4 2 16 2.029 1.802 0.305 o
4 2 17 4.772 4.637 0.391 o
4 2 18 4.958 4.592 0.525 o
4 2 19 2.675 2.227 0.389 o
4 2 20 2.744 2.269 0.430 o
4 2 21 2.174 1.673 0.416 o
4 2 22 11.677 12.625 1.026 o
4 3 0 5.440 5.483 0.278 o
4 3 1 34.117 34.588 0.898 o
4 3 2 0.995 1.153 0.207 o
4 3 3 1.101 1.203 0.197 o
4 3 4 45.552 45.783 1.174 o
4 3 5 3.255 3.317 0.217 o
4 3 6 98.426 97.295 2.275 o
4 3 8 50.938 50.337 1.205 o
4 3 9 5.906 6.292 0.355 o
4 3 10 9.317 8.840 0.361 o
4 3 13 12.506 11.645 0.679 o
4 3 16 20.988 21.192 1.151 o
4 3 17 2.781 2.426 0.747 o
4 3 18 29.759 26.087 3.121 o
4 4 0 59.992 60.682 1.462 o
4 4 1 0.587 0.745 0.196 o
4 4 3 2.543 2.294 0.208 o
4 4 4 1.303 1.313 0.199 o
4 4 5 19.054 19.015 0.574 o
4 4 6 12.692 12.782 0.428 o
4 4 7 37.777 38.449 0.982 o
4 4 8 18.901 18.826 0.581 o
4 4 9 0.873 1.056 0.239 o
4 4 10 1.244 1.400 0.248 o
4 4 14 18.935 19.805 0.860 o
4 4 15 4.632 4.679 0.467 o
4 4 17 16.343 14.768 1.059 o
4 5 1 1.851 1.826 0.250 o
4 5 3 3.111 3.093 0.278 o
4 5 4 19.772 19.891 0.621 o
4 5 5 1.976 2.411 0.283 o
4 5 6 8.502 8.636 0.434 o
4 5 8 1.920 1.485 0.318 o
4 5 10 13.137 12.334 0.738 o
4 5 11 6.781 6.271 0.448 o
4 5 16 6.732 7.000 0.719 o
4 6 1 3.281 2.852 0.337 o
4 6 5 2.182 2.141 0.365 o
4 6 8 1.729 1.622 0.482 o
4 7 1 3.787 3.120 0.407 o
4 7 6 5.403 6.188 0.693 o
4 7 8 3.061 3.147 0.732 o
5 0 0 58.051 56.764 1.429 o
5 0 2 629.647 614.376 13.245 o
5 0 4 11.088 11.241 0.543 o
5 0 6 5.782 6.424 0.464 o
5 0 8 134.012 134.011 3.201 o
5 0 10 69.066 67.871 1.690 o
5 0 12 16.516 17.057 0.676 o
5 0 14 14.316 13.788 0.700 o
5 0 16 14.350 13.756 1.178 o
5 1 1 101.656 100.226 2.363 o
5 1 2 54.385 54.191 1.320 o
5 1 3 1.814 1.837 0.220 o
5 1 4 35.369 36.130 0.947 o
5 1 5 1.200 1.172 0.228 o
5 1 6 77.960 75.845 1.784 o
5 1 7 4.956 4.834 0.285 o
5 1 8 1.400 1.248 0.196 o
5 1 9 1.708 1.424 0.184 o
5 1 10 0.695 0.642 0.179 o
5 1 11 27.386 27.028 0.737 o
5 1 12 51.744 52.002 1.320 o
5 1 13 16.092 15.558 0.515 o
5 1 15 16.810 17.420 0.708 o
5 1 18 5.096 5.145 0.464 o
5 1 19 0.892 1.159 0.372 o
5 1 21 22.002 19.507 0.831 o
5 2 0 22.231 21.968 0.656 o
5 2 1 23.387 23.375 0.885 o
5 2 2 3.318 3.373 0.350 o
5 2 3 22.747 21.267 0.665 o
5 2 4 56.441 54.958 1.355 o
5 2 5 14.120 14.604 0.496 o
5 2 6 44.723 44.781 1.129 o
5 2 7 4.192 3.845 0.224 o
5 2 8 13.081 12.779 0.463 o
5 2 9 10.276 10.376 0.366 o
5 2 10 37.650 38.323 1.020 o
5 2 11 9.867 9.715 0.411 o
5 2 12 20.127 20.529 0.653 o
5 2 14 5.586 5.875 0.386 o
5 2 16 10.991 11.263 0.512 o
5 2 17 23.373 24.882 0.928 o
5 2 18 2.570 2.031 0.541 o
5 2 19 2.558 2.684 0.403 o
5 2 20 15.519 15.743 2.171 o
5 3 0 112.108 113.063 2.615 o
5 3 1 24.059 24.504 0.739 o
5 3 2 4.836 4.922 0.276 o
5 3 3 4.254 4.075 0.215 o
5 3 4 3.693 3.853 0.221 o
5 3 5 38.353 37.705 0.940 o
5 3 6 85.105 83.897 1.977 o
5 3 7 4.050 4.267 0.233 o
5 3 8 3.070 2.942 0.259 o
5 3 10 35.012 34.764 0.934 o
5 3 11 19.611 20.305 0.781 o
5 3 13 4.007 4.141 0.420 o
5 3 14 26.789 29.242 0.984 o
5 3 16 29.568 29.786 1.493 o
5 4 0 8.140 8.159 0.349 o
5 4 1 4.090 4.000 0.257 o
5 4 3 1.032 1.105 0.222 o
5 4 4 23.309 23.237 0.673 o
5 4 5 16.703 16.063 0.553 o
5 4 6 7.575 7.418 0.370 o
5 4 7 16.958 17.162 0.637 o
5 4 9 6.953 7.509 0.408 o
5 4 10 14.546 13.838 0.580 o
5 4 11 2.507 2.165 0.338 o
5 4 15 10.547 10.926 1.058 o
5 4 17 4.336 3.865 0.637 o
5 4 18 6.534 5.009 1.328 o
5 5 0 4.319 4.131 0.312 o
5 5 2 4.272 3.722 0.357 o
5 5 3 1.165 0.951 0.270 o
5 5 4 2.961 2.726 0.287 o
5 5 6 5.679 5.835 0.364 o
5 5 8 6.514 6.217 0.427 o
5 6 0 5.740 5.633 0.421 o
5 6 1 3.874 3.542 0.400 o
5 6 2 3.582 2.830 0.328 o
5 6 3 1.748 1.665 0.319 o
5 6 5 6.622 5.719 0.439 o
5 6 6 2.567 2.446 0.388 o
5 6 7 10.078 10.455 0.564 o
5 6 9 1.797 2.017 0.397 o
5 7 0 1.443 1.407 0.417 o
5 7 1 6.918 7.148 0.572 o
5 7 2 1.341 1.799 0.575 o
6 0 0 213.314 213.638 5.192 o
6 0 2 28.168 28.232 0.853 o
6 0 4 1.230 1.554 0.314 o
6 0 6 41.605 47.261 1.347 o
6 0 8 14.738 14.846 0.591 o
6 0 10 31.432 32.182 1.232 o
6 0 12 87.979 91.106 2.611 o
6 0 14 4.041 4.142 0.558 o
6 0 16 2.143 1.648 0.527 o
6 0 18 11.162 9.877 0.792 o
6 0 20 21.267 20.972 1.408 o
6 1 1 171.142 166.762 3.911 o
6 1 2 57.260 55.644 1.359 o
6 1 3 21.124 21.176 0.615 o
6 1 4 50.755 50.937 1.273 o
6 1 5 55.074 54.991 1.323 o
6 1 6 19.763 19.585 0.609 o
6 1 7 11.080 11.809 0.425 o
6 1 8 39.384 39.352 1.050 o
6 1 9 33.011 32.983 0.868 o
6 1 11 30.112 29.542 0.881 o
6 1 13 12.696 13.554 0.554 o
6 1 15 1.816 1.642 0.309 o
6 1 16 24.387 23.916 1.288 o
6 1 18 2.821 2.584 0.457 o
6 1 19 5.199 5.582 0.503 o
6 2 1 8.943 9.294 0.353 o
6 2 3 12.371 12.795 0.414 o
6 2 4 44.499 43.315 1.095 o
6 2 5 92.145 91.283 2.168 o
6 2 6 2.201 2.276 0.217 o
6 2 7 1.083 1.090 0.224 o
6 2 8 5.001 4.818 0.377 o
6 2 9 32.180 33.294 0.938 o
6 2 10 1.369 1.484 0.255 o
6 2 11 5.451 5.636 0.326 o
6 2 12 2.889 2.651 0.312 o
6 2 13 6.559 7.136 0.448 o
6 2 14 30.719 30.586 0.945 o
6 2 15 14.430 14.279 0.734 o
6 2 16 7.067 7.019 0.535 o
6 3 2 0.595 0.629 0.204 o
6 3 3 0.644 0.682 0.182 o
6 3 7 4.651 4.532 0.260 o
6 3 8 5.463 5.541 0.363 o
6 3 9 2.994 3.485 0.272 o
6 3 10 30.093 29.906 0.901 o
6 3 11 1.568 1.593 0.311 o
6 3 15 11.367 11.566 0.910 o
6 3 16 5.237 4.580 0.668 o
6 3 18 7.296 5.701 0.796 o
6 4 0 14.948 15.241 0.538 o
6 4 2 23.909 23.836 0.695 o
6 4 4 5.773 6.003 0.333 o
6 4 5 12.939 13.439 0.488 o
6 4 6 0.670 1.130 0.260 o
6 4 7 1.785 1.565 0.267 o
6 4 9 6.796 5.637 0.422 o
6 4 10 16.474 16.135 1.070 o
6 4 14 2.702 2.530 0.801 o
6 4 15 4.080 3.922 0.603 o
6 4 16 3.305 2.758 0.828 o
6 5 0 23.502 24.295 0.848 o
6 5 1 3.749 4.115 0.337 o
6 5 4 13.138 13.322 0.659 o
6 5 6 39.765 40.098 1.318 o
6 5 7 2.849 3.194 0.379 o
6 5 9 1.153 1.471 0.426 o
6 5 13 1.404 2.244 0.621 o
6 5 14 6.723 6.362 0.812 o
6 6 0 9.622 10.194 0.549 o
6 6 2 3.934 4.291 0.440 o
6 6 3 4.628 4.369 0.464 o
6 6 10 5.773 5.121 0.785 o
7 0 0 99.480 100.979 2.445 o
7 0 2 33.820 32.229 0.985 o
7 0 4 250.539 249.023 5.658 o
7 0 6 1.039 1.192 0.325 o
7 0 8 40.768 40.179 1.149 o
7 0 10 55.645 54.967 1.707 o
7 0 12 16.523 17.350 0.767 o
7 0 14 10.934 12.178 0.880 o
7 0 16 7.716 8.404 0.866 o
7 0 18 14.673 13.953 1.841 o
7 1 0 75.934 76.008 1.819 o
7 1 1 1.094 0.897 0.184 o
7 1 3 7.019 7.151 0.299 o
7 1 4 32.589 31.556 0.846 o
7 1 5 38.414 37.596 0.969 o
7 1 6 0.947 1.435 0.211 o
7 1 7 1.329 1.546 0.218 o
7 1 8 43.628 43.026 1.164 o
7 1 10 2.949 2.671 0.260 o
7 1 11 15.613 15.797 0.683 o
7 1 12 14.066 13.591 0.631 o
7 1 13 13.988 14.503 0.696 o
7 1 14 21.705 21.147 0.789 o
7 1 15 20.808 21.163 0.880 o
7 1 17 3.300 2.451 0.506 o
7 1 19 3.734 3.397 0.670 o
7 2 0 33.242 32.196 0.830 o
7 2 1 10.241 10.240 0.352 o
7 2 2 5.825 6.314 0.280 o
7 2 3 4.461 4.460 0.242 o
7 2 4 0.546 0.909 0.220 o
7 2 5 0.744 1.089 0.228 o
7 2 6 5.370 5.770 0.406 o
7 2 7 3.108 2.789 0.270 o
7 2 8 6.592 5.897 0.387 o
7 2 9 19.315 19.932 0.835 o
7 2 11 9.470 9.789 0.465 o
7 2 13 3.969 4.219 0.556 o
7 2 14 6.002 6.378 0.506 o
7 2 15 10.497 10.713 0.759 o
7 3 0 0.587 0.855 0.270 o
7 3 1 25.983 25.883 0.754 o
7 3 2 20.946 20.430 0.615 o
7 3 3 13.784 14.063 0.470 o
7 3 4 13.248 13.112 0.506 o
7 3 5 0.963 1.461 0.218 o
7 3 6 6.269 6.113 0.364 o
7 3 7 3.108 3.034 0.270 o
7 3 8 11.234 11.168 0.441 o
7 3 9 9.077 9.231 0.416 o
7 3 12 3.185 2.829 0.374 o
7 3 13 1.357 1.417 0.365 o
7 3 16 1.688 2.081 0.591 o
7 4 0 8.885 9.017 0.561 o
7 4 1 1.345 1.071 0.260 o
7 4 2 1.498 1.543 0.264 o
7 4 3 1.055 1.368 0.258 o
7 4 4 2.377 2.214 0.273 o
7 4 5 18.646 18.828 0.638 o
7 4 6 27.443 27.115 0.885 o
7 4 9 8.974 7.941 0.558 o
7 4 12 4.492 3.358 0.762 o
7 4 14 6.344 5.420 0.885 o
7 5 0 12.037 12.246 0.567 o
7 5 2 10.850 11.184 0.661 o
7 5 3 1.357 1.324 0.332 o
7 5 4 2.114 1.832 0.334 o
7 5 8 3.119 4.702 0.471 o
7 5 10 17.993 17.391 1.068 o
7 6 4 3.309 2.406 0.604 o
7 6 5 3.313 2.706 0.439 o
7 6 6 2.658 2.493 0.674 o
7 6 8 2.577 2.502 0.725 o
8 0 0 24.946 25.259 0.761 o
8 0 2 13.634 14.396 0.553 o
8 0 4 60.270 59.481 1.570 o
8 0 6 4.385 4.353 0.372 o
8 0 8 27.049 27.936 0.949 o
8 0 12 22.044 23.821 1.021 o
8 0 14 75.199 75.640 2.822 o
8 1 2 2.020 1.993 0.234 o
8 1 3 78.244 78.848 1.939 o
8 1 4 30.758 30.752 0.845 o
8 1 6 3.765 4.012 0.280 o
8 1 8 17.813 18.220 0.631 o
8 1 9 8.844 8.746 0.376 o
8 1 10 17.128 16.176 0.687 o
8 1 11 5.490 5.515 0.561 o
8 1 12 4.169 4.023 0.320 o
8 1 13 9.801 9.553 0.590 o
8 1 15 1.411 1.148 0.362 o
8 2 0 38.206 38.040 0.980 o
8 2 1 20.018 20.457 0.652 o
8 2 3 4.588 4.464 0.336 o
8 2 4 13.241 13.764 0.524 o
8 2 5 7.012 6.839 0.392 o
8 2 7 32.565 32.222 1.065 o
8 2 8 3.864 3.235 0.349 o
8 2 10 14.115 13.515 0.631 o
8 2 13 3.555 3.791 0.460 o
8 2 15 2.437 2.153 0.555 o
8 2 16 1.768 1.504 0.482 o
8 3 0 15.903 15.741 0.564 o
8 3 2 8.772 8.963 0.446 o
8 3 4 9.805 10.236 0.426 o
8 3 5 16.663 16.510 0.588 o
8 3 6 13.321 13.228 0.584 o
8 3 8 3.338 3.250 0.377 o
8 3 10 2.437 2.290 0.397 o
8 3 11 5.429 4.831 0.412 o
8 3 12 3.082 3.074 0.428 o
8 3 13 5.850 5.304 0.465 o
8 3 14 5.205 4.576 0.537 o
8 4 1 2.018 1.570 0.306 o
8 4 2 12.701 12.860 0.489 o
8 4 3 2.330 2.460 0.293 o
8 4 4 2.159 2.405 0.298 o
8 4 5 2.538 2.343 0.304 o
8 4 6 3.256 3.428 0.327 o
8 4 7 3.755 3.542 0.350 o
8 4 9 11.279 10.793 0.692 o
8 4 10 5.337 4.763 0.520 o
8 4 12 4.928 3.936 0.617 o
8 5 0 0.921 1.261 0.334 o
8 5 2 5.786 5.408 0.455 o
8 5 3 3.376 3.374 0.447 o
8 5 6 5.851 4.530 0.404 o
8 5 7 1.988 1.494 0.460 o
8 5 8 17.353 16.998 0.991 o
8 5 9 2.543 2.739 0.627 o
8 6 2 4.038 3.845 0.621 o
9 0 0 16.298 17.207 0.654 o
9 0 2 43.008 43.233 1.264 o
9 0 4 4.386 4.287 0.434 o
9 0 6 24.967 25.925 0.959 o
9 0 10 12.348 12.331 1.110 o
9 0 12 7.316 5.902 0.593 o
9 1 0 30.283 31.216 0.958 o
9 1 2 4.375 4.326 0.301 o
9 1 3 24.100 23.388 0.771 o
9 1 4 2.410 2.008 0.345 o
9 1 5 5.671 5.718 0.372 o
9 1 6 7.073 7.212 0.522 o
9 1 7 12.093 12.436 0.493 o
9 1 8 1.621 1.408 0.339 o
9 1 9 1.956 1.854 0.318 o
9 1 10 8.446 8.586 0.566 o
9 1 13 24.368 23.295 1.129 o
9 1 14 8.049 7.255 0.911 o
9 2 0 1.566 1.797 0.325 o
9 2 1 3.343 3.453 0.323 o
9 2 2 33.246 33.056 0.995 o
9 2 3 4.607 4.630 0.385 o
9 2 4 32.924 33.322 1.093 o
9 2 5 3.210 3.424 0.452 o
9 2 6 2.770 3.044 0.386 o
9 2 8 1.917 2.003 0.352 o
9 2 9 13.858 14.396 0.634 o
9 2 10 1.923 1.457 0.385 o
9 2 11 8.106 7.855 0.465 o
9 2 12 5.594 4.886 0.504 o
9 2 14 6.583 5.479 0.979 o
9 3 0 1.820 2.033 0.268 o
9 3 1 5.987 5.318 0.333 o
9 3 2 2.298 2.407 0.279 o
9 3 3 12.819 13.397 0.606 o
9 3 4 6.161 5.751 0.531 o
9 3 6 14.247 15.532 0.648 o
9 3 8 14.197 14.096 0.656 o
9 3 10 2.671 2.343 0.431 o
9 3 11 3.464 3.474 0.557 o
9 3 12 4.223 3.689 0.495 o
9 4 1 2.155 2.330 0.322 o
9 4 2 11.581 12.224 0.515 o
9 4 6 4.491 3.290 0.558 o
9 4 7 15.805 15.371 1.103 o
9 4 8 11.233 9.471 0.897 o
9 4 9 4.588 4.341 0.555 o
9 5 2 3.767 2.786 0.387 o
9 5 3 1.356 1.345 0.413 o
10 0 0 6.961 7.343 0.439 o
10 0 2 2.486 2.967 0.706 o
10 0 4 13.194 13.862 0.697 o
10 0 6 15.946 16.911 0.974 o
10 0 10 11.259 10.360 1.002 o
10 0 12 10.509 9.777 1.883 o
10 1 0 8.885 8.993 0.441 o
10 1 1 29.224 29.388 0.866 o
10 1 3 7.640 7.754 0.395 o
10 1 4 8.772 9.405 0.462 o
10 1 5 3.284 2.946 0.377 o
10 1 6 7.226 6.451 0.623 o
10 1 8 1.283 1.762 0.431 o
10 1 10 4.737 4.106 0.432 o
10 1 11 3.177 2.914 0.378 o
10 2 0 8.287 8.628 0.536 o
10 2 2 25.755 26.350 0.937 o
10 2 3 7.442 6.732 0.534 o
10 2 4 1.368 1.747 0.344 o
10 2 5 9.112 7.920 0.785 o
10 2 6 6.641 6.257 0.444 o
10 2 7 3.350 3.083 0.433 o
10 2 8 2.829 2.510 0.366 o
10 2 10 5.503 5.012 0.431 o
10 2 11 1.239 1.742 0.478 o
10 2 12 13.393 13.800 0.867 o
10 3 2 16.695 17.289 0.933 o
10 3 3 3.318 3.178 0.368 o
10 3 4 2.787 3.227 0.392 o
10 3 6 11.994 12.791 0.619 o
10 3 7 10.669 10.249 0.518 o
10 3 8 21.768 23.793 1.065 o
10 4 0 2.161 1.767 0.314 o
10 4 1 4.542 3.922 0.380 o
10 4 4 2.882 2.562 0.424 o
10 4 7 5.618 4.361 0.516 o
10 5 1 2.142 2.347 0.482 o
11 0 0 29.533 29.852 1.498 o
11 0 2 22.387 20.981 1.107 o
11 0 6 2.424 1.788 0.410 o
11 1 1 3.330 3.770 0.336 o
11 1 2 7.538 8.143 0.430 o
11 1 3 10.318 11.220 0.489 o
11 1 4 1.534 1.452 0.344 o
11 1 5 11.190 10.742 0.553 o
11 1 6 3.175 3.360 0.386 o
11 1 7 4.161 3.494 0.419 o
11 1 10 5.050 4.219 0.469 o
11 1 11 8.780 6.686 0.760 o
11 2 1 10.801 10.456 0.981 o
11 2 4 6.128 6.500 0.484 o
11 2 6 16.952 16.925 0.935 o
11 2 7 14.680 15.892 0.863 o
11 2 8 2.360 2.108 0.403 o
11 3 0 16.851 17.141 0.805 o
11 3 1 1.707 1.408 0.391 o
11 3 3 1.324 1.471 0.370 o
11 3 4 2.612 2.604 0.379 o
11 3 6 1.768 1.234 0.371 o
11 4 0 1.364 1.728 0.396 o
11 4 1 2.819 2.993 0.508 o
11 4 4 5.530 5.411 0.637 o
12 0 2 18.066 15.491 2.933 o
12 0 4 6.612 6.941 0.888 o
12 0 6 17.373 17.414 1.464 o
12 1 0 7.535 6.859 0.777 o
12 1 1 2.847 2.581 0.422 o
12 1 2 7.357 7.745 0.617 o
12 1 3 3.008 2.487 0.414 o
12 1 5 3.024 3.053 0.566 o
12 1 6 10.791 9.320 0.628 o
12 1 7 2.106 2.228 0.490 o
12 2 3 1.832 1.897 0.469 o
12 2 4 3.336 3.171 0.423 o
12 2 5 2.250 2.180 0.428 o
12 3 0 3.758 3.541 0.450 o
12 3 3 2.392 2.159 0.434 o
12 3 4 4.266 3.919 0.605 o
13 0 2 10.416 10.572 1.816 o
13 0 4 7.427 5.746 1.256 o
13 1 1 1.928 1.771 0.501 o
13 1 3 2.050 1.899 0.550 o
13 2 1 2.450 2.830 0.740 o
