#------------------------------------------------------------------------------
#$Date: 2016-02-21 11:56:54 +0200 (Sun, 21 Feb 2016) $
#$Revision: 176809 $
#$URL: svn://www.crystallography.net/cod/cif/2/31/01/2310127.cif $
#------------------------------------------------------------------------------
#
# This file is available in the Crystallography Open Database (COD),
# http://www.crystallography.net/
#
# All data on this site have been placed in the public domain by the
# contributors.
#
data_2310127
loop_
_publ_author_name
'Kami\'nski, Rados\/law'
'Domaga\/la, S\/lawomir'
'Jarzembska, Katarzyna N.'
'Hoser, Anna A.'
'Sanjuan-Szklarz, W. Fabiola'
'Gutmann, Matthias J.'
'Makal, Anna'
'Mali\'nska, Maura'
'Bak, Joanna M.'
'Wo\'zniak, Krzysztof'
_publ_section_title
;
 Statistical analysis of multipole-model-derived structural parameters and
 charge-density properties from high-resolution X-ray diffraction
 experiments
;
_journal_issue                   1
_journal_name_full               'Acta Crystallographica Section A'
_journal_page_first              72
_journal_page_last               91
_journal_paper_doi               10.1107/S2053273313028313
_journal_volume                  70
_journal_year                    2014
_chemical_formula_moiety         'C2 H2 O4, 2(H2 O1)'
_chemical_formula_sum            'C2 H6 O6'
_chemical_formula_weight         126.07
_space_group_IT_number           14
_symmetry_cell_setting           monoclinic
_symmetry_Int_Tables_number      14
_symmetry_space_group_name_Hall  '-P 2ybc'
_symmetry_space_group_name_H-M   'P 1 21/c 1'
_cell_angle_alpha                90.00
_cell_angle_beta                 103.842(3)
_cell_angle_gamma                90.00
_cell_formula_units_Z            2
_cell_length_a                   6.0950(5)
_cell_length_b                   3.4881(3)
_cell_length_c                   11.8462(9)
_cell_measurement_temperature    100(1)
_cell_volume                     244.54(3)
_diffrn_ambient_temperature      100(1)
_diffrn_measured_fraction_theta_full 0.985
_diffrn_measured_fraction_theta_max 0.949
_diffrn_measurement_device
;
Bruker AXS Kappa APEX II Ultra diffractometer
;
_diffrn_measurement_device_type  'APEX II CCD detector'
_diffrn_measurement_method       \w-scans
_diffrn_radiation_monochromator  'multi-layer optics'
_diffrn_radiation_source         'TXS rotating anode'
_diffrn_radiation_type           'Mo K\a'
_diffrn_radiation_wavelength     0.71073
_diffrn_reflns_av_R_equivalents  0.0224
_diffrn_reflns_av_sigmaI/netI    0.01783
_diffrn_reflns_limit_h_max       13
_diffrn_reflns_limit_h_min       -13
_diffrn_reflns_limit_k_max       7
_diffrn_reflns_limit_k_min       -7
_diffrn_reflns_limit_l_max       18
_diffrn_reflns_limit_l_min       -26
_diffrn_reflns_number            11034
_diffrn_reflns_theta_full        52.08
_diffrn_reflns_theta_max         54.811
_diffrn_reflns_theta_min         3.543
_exptl_absorpt_coefficient_mu    0.181
_exptl_absorpt_correction_T_max  1.004
_exptl_absorpt_correction_T_min  0.951
_exptl_absorpt_correction_type   multi-scan
_exptl_absorpt_process_details
;
 Absorption correction done by SORTAV
 Blessing, R. H.: (1995) Acta Cryst. A51, 33-38
;
_exptl_crystal_colour            colourless
_exptl_crystal_density_diffrn    1.713
_exptl_crystal_description       unspecified
_exptl_crystal_F_000             132
_exptl_crystal_size_max          0.193
_exptl_crystal_size_mid          0.186
_exptl_crystal_size_min          0.139
_refine_diff_density_max         +0.14
_refine_diff_density_min         -0.16
_refine_ls_extinction_method     none
_refine_ls_goodness_of_fit_ref   1.206
_refine_ls_hydrogen_treatment    mixed
_refine_ls_number_parameters     177
_refine_ls_number_reflns         2499
_refine_ls_number_restraints     3
_refine_ls_R_factor_all          0.0136
_refine_ls_R_factor_gt           0.0136
_refine_ls_shift/su_max          0.018
_refine_ls_shift/su_mean         0.001
_refine_ls_structure_factor_coef F
_refine_ls_weighting_details
;
w=1/[\s^2^(Fo)]
;
_refine_ls_weighting_scheme      sigma
_refine_ls_wR_factor_gt          0.0185
_refine_ls_wR_factor_ref         0.0185
_reflns_number_gt                2499
_reflns_number_total             2939
_reflns_threshold_expression     I>3\s(I)
_iucr_refine_instructions_details
;
 Multipole refinement with MOPRO program
;
_cod_data_source_file            pc5031sup7.cif
_cod_data_source_block           oxa07
_cod_original_sg_symbol_H-M      'P 21/c'
_cod_database_code               2310127
loop_
_symmetry_equiv_pos_as_xyz
'x, y, z'
'-x, y+1/2, -z+1/2'
'-x, -y, -z'
'x, -y-1/2, z-1/2'
loop_
_atom_site_type_symbol
_atom_site_label
_atom_site_fract_x
_atom_site_fract_y
_atom_site_fract_z
_atom_site_U_iso_or_equiv
_atom_site_adp_type
_atom_site_occupancy
_atom_site_calc_flag
O O1 0.43483(3) 0.44402(7) 0.34987(1) 0.01350(8) Uani 1 d
O O2 0.24234(3) 0.74254(7) 0.46370(1) 0.01331(7) Uani 1 d
C C1 0.40312(2) 0.55871(4) 0.44802(1) 0.00981(6) Uani 1 d
H H1 0.303(2) 0.517(6) 0.2751(7) 0.02334 Uani 1 d
O O3 0.13008(3) 0.63105(6) 0.17861(1) 0.01316(7) Uani 1 d
H H2 0.189(2) 0.704(5) 0.1121(6) 0.02931 Uani 1 d
H H3 0.003(1) 0.465(3) 0.145(2) 0.02902 Uani 1 d
loop_
_atom_site_aniso_label
_atom_site_aniso_U_11
_atom_site_aniso_U_22
_atom_site_aniso_U_33
_atom_site_aniso_U_12
_atom_site_aniso_U_13
_atom_site_aniso_U_23
O1 0.01288(6) 0.01948(8) 0.00763(5) 0.00457(5) 0.00143(4) -0.00077(5)
O2 0.01115(6) 0.01843(7) 0.00967(5) 0.00543(5) 0.00114(4) -0.00074(5)
C1 0.00942(5) 0.01174(6) 0.00792(5) 0.00174(3) 0.00142(3) -0.00014(3)
H1 0.0217 0.0270 0.0211 0.0018 0.0046 0.0002
O3 0.01068(6) 0.01870(7) 0.00923(5) -0.00213(5) 0.00070(4) 0.00106(5)
H2 0.0262 0.0412 0.0217 -0.0039 0.0081 0.0037
H3 0.0223 0.0307 0.0335 -0.0071 0.0056 -0.0021
loop_
_atom_type_symbol
_atom_type_description
_atom_type_scat_dispersion_real
_atom_type_scat_dispersion_imag
_atom_type_scat_source
C C 0.0033 0.0016 'Su & Coppens, Acta. Cryst. (1997) A53, 749'
H H 0.0000 0.0000 'Su & Coppens, Acta. Cryst. (1997) A53, 749'
O O 0.0106 0.0060 'Su & Coppens, Acta. Cryst. (1997) A53, 749'
loop_
_geom_angle_atom_site_label_1
_geom_angle_atom_site_label_2
_geom_angle_atom_site_label_3
_geom_angle
O1 C1 O2 126.84(2)
C1 O1 H1 115.3(8)
H2 O3 H3 104(1)
loop_
_geom_bond_atom_site_label_1
_geom_bond_atom_site_label_2
_geom_bond_distance
O1 C1 1.2872(3)
O1 H1 1.074(1)
O2 C1 1.2219(3)
O3 H3 0.970(1)
O3 H2 0.974(1)
loop_
_geom_torsion_atom_site_label_1
_geom_torsion_atom_site_label_2
_geom_torsion_atom_site_label_3
_geom_torsion_atom_site_label_4
_geom_torsion
O2 C1 O1 H1 -0.8(7)
loop_
_refln_index_h
_refln_index_k
_refln_index_l
_refln_F_squared_calc
_refln_F_squared_meas
_refln_F_squared_sigma
_refln_observed_status
-13 0 6 33.416 35.202 0.675 o
-13 0 8 3.332 3.242 0.228 o
-13 0 10 0.504 0.496 0.139 o
-13 0 12 11.340 11.307 0.351 o
-13 1 1 2.632 2.518 0.195 o
-13 1 2 14.117 13.342 0.387 o
-13 1 4 1.150 1.080 0.174 o
-13 1 8 3.711 3.715 0.153 o
-13 1 10 3.270 3.188 0.180 o
-13 1 12 3.158 3.243 0.126 o
-13 1 13 0.576 0.511 0.131 o
-13 2 1 3.979 4.092 0.218 o
-13 2 3 1.044 0.793 0.143 o
-13 2 4 0.802 0.871 0.149 o
-13 2 5 1.228 1.130 0.170 o
-13 2 6 0.479 0.474 0.137 o
-13 2 8 2.089 2.140 0.198 o
-13 2 9 1.287 1.356 0.179 o
-13 2 10 3.896 3.895 0.232 o
-13 2 12 1.045 1.070 0.165 o
-13 2 13 0.781 0.759 0.138 o
-13 3 6 4.291 3.660 0.214 o
-12 0 2 8.701 8.344 0.225 o
-12 0 4 40.836 42.255 0.758 o
-12 0 6 4.130 5.235 0.344 o
-12 0 10 2.453 2.315 0.124 o
-12 0 12 8.373 8.957 0.311 o
-12 0 16 17.387 16.837 0.435 o
-12 1 1 1.916 1.970 0.099 o
-12 1 2 0.994 1.112 0.082 o
-12 1 5 18.516 18.718 0.405 o
-12 1 6 4.398 4.401 0.126 o
-12 1 7 1.584 1.463 0.085 o
-12 1 8 11.533 11.817 0.276 o
-12 1 9 11.008 10.934 0.266 o
-12 1 10 2.659 2.572 0.099 o
-12 1 11 0.991 1.048 0.069 o
-12 1 12 6.709 6.753 0.255 o
-12 1 13 0.740 0.720 0.139 o
-12 1 15 13.104 12.926 0.282 o
-12 1 16 1.698 1.784 0.190 o
-12 1 17 0.797 0.595 0.138 o
-12 2 1 12.784 12.750 0.524 o
-12 2 2 5.181 5.003 0.200 o
-12 2 5 7.721 7.676 0.200 o
-12 2 6 0.243 0.266 0.080 o
-12 2 7 3.344 3.412 0.144 o
-12 2 8 4.287 4.445 0.201 o
-12 2 9 3.940 4.105 0.156 o
-12 2 11 8.346 8.595 0.330 o
-12 2 12 0.998 1.042 0.179 o
-12 2 13 4.846 4.581 0.250 o
-12 2 14 0.330 0.351 0.072 o
-12 3 1 1.483 1.535 0.166 o
-12 3 3 3.157 2.970 0.206 o
-12 3 6 0.836 0.925 0.157 o
-12 3 7 1.217 1.242 0.176 o
-12 3 11 1.649 1.486 0.185 o
-12 3 12 0.434 0.625 0.142 o
-12 3 14 3.472 3.469 0.215 o
-12 4 3 1.817 1.616 0.162 o
-12 4 4 1.503 1.638 0.165 o
-12 4 5 2.293 1.874 0.175 o
-12 4 6 5.313 4.968 0.239 o
-12 4 8 0.478 0.521 0.132 o
-12 4 9 1.274 1.235 0.165 o
-11 0 2 3.653 3.545 0.154 o
-11 0 4 9.136 8.977 0.224 o
-11 0 6 0.630 0.548 0.061 o
-11 0 8 84.147 83.533 3.452 o
-11 0 10 7.694 7.312 0.280 o
-11 0 12 2.535 2.586 0.125 o
-11 0 14 32.777 32.929 0.721 o
-11 0 16 1.369 1.346 0.192 o
-11 0 18 11.433 11.571 0.368 o
-11 0 20 1.991 1.810 0.183 o
-11 1 1 0.217 0.168 0.047 o
-11 1 2 5.640 5.778 0.157 o
-11 1 3 13.319 13.661 0.309 o
-11 1 4 34.960 35.255 0.870 o
-11 1 5 2.035 2.099 0.083 o
-11 1 6 0.207 0.153 0.041 o
-11 1 7 1.349 1.385 0.070 o
-11 1 8 1.306 1.294 0.078 o
-11 1 9 5.918 5.895 0.171 o
-11 1 10 3.640 3.809 0.131 o
-11 1 11 4.185 4.241 0.129 o
-11 1 12 12.948 13.103 0.297 o
-11 1 13 0.387 0.430 0.062 o
-11 1 14 5.991 5.964 0.170 o
-11 1 15 5.763 5.683 0.155 o
-11 1 16 2.407 2.313 0.093 o
-11 2 1 2.654 2.639 0.123 o
-11 2 2 0.293 0.298 0.060 o
-11 2 3 1.269 1.205 0.084 o
-11 2 4 10.389 10.600 0.265 o
-11 2 5 2.037 2.029 0.116 o
-11 2 6 6.070 6.069 0.185 o
-11 2 7 7.963 8.436 0.225 o
-11 2 10 0.989 0.911 0.093 o
-11 2 11 2.157 2.204 0.106 o
-11 2 12 2.505 2.447 0.110 o
-11 2 13 0.487 0.468 0.055 o
-11 2 14 1.346 1.198 0.088 o
-11 2 15 9.857 9.876 0.314 o
-11 2 17 0.739 0.685 0.140 o
-11 2 18 2.290 2.027 0.184 o
-11 3 1 0.980 1.106 0.098 o
-11 3 2 3.212 3.150 0.118 o
-11 3 3 0.363 0.361 0.062 o
-11 3 4 4.370 4.249 0.208 o
-11 3 5 6.094 6.214 0.166 o
-11 3 6 2.784 2.673 0.111 o
-11 3 7 3.478 3.516 0.156 o
-11 3 9 1.216 1.125 0.085 o
-11 3 10 11.687 11.428 0.327 o
-11 3 11 3.834 4.095 0.137 o
-11 3 12 1.075 0.975 0.091 o
-11 3 13 2.481 2.268 0.116 o
-11 3 14 0.426 0.336 0.072 o
-11 3 16 3.547 3.347 0.126 o
-11 4 1 1.225 1.279 0.182 o
-11 4 2 2.752 2.692 0.105 o
-11 4 3 5.306 5.266 0.180 o
-11 4 5 0.175 0.222 0.070 o
-11 4 6 6.425 6.191 0.284 o
-11 4 9 2.239 1.994 0.196 o
-11 4 10 3.513 3.357 0.228 o
-11 4 12 3.151 3.052 0.220 o
-11 4 13 5.387 5.405 0.261 o
-10 0 4 8.466 8.426 0.220 o
-10 0 6 11.687 11.839 0.700 o
-10 0 8 16.995 17.718 0.401 o
-10 0 10 11.855 12.230 0.286 o
-10 0 12 11.401 11.502 0.345 o
-10 0 16 2.782 2.878 0.212 o
-10 0 18 59.622 58.771 0.959 o
-10 0 20 1.683 1.940 0.127 o
-10 1 1 3.332 3.516 0.125 o
-10 1 2 0.500 0.539 0.048 o
-10 1 3 2.111 2.284 0.082 o
-10 1 4 0.722 0.746 0.052 o
-10 1 5 9.448 9.421 0.226 o
-10 1 7 45.904 46.068 1.016 o
-10 1 8 19.395 19.434 0.489 o
-10 1 9 9.786 9.749 0.258 o
-10 1 10 6.009 6.123 0.205 o
-10 1 11 1.817 1.916 0.092 o
-10 1 12 3.743 4.039 0.387 o
-10 1 13 11.091 11.451 0.357 o
-10 1 14 17.342 17.682 0.375 o
-10 1 16 0.928 0.760 0.074 o
-10 1 17 14.308 14.272 0.312 o
-10 1 18 2.216 2.185 0.114 o
-10 1 19 1.770 1.684 0.095 o
-10 1 21 0.507 0.442 0.131 o
-10 2 1 0.519 0.428 0.059 o
-10 2 2 10.714 10.644 0.416 o
-10 2 3 47.364 48.289 1.026 o
-10 2 4 27.350 27.942 0.662 o
-10 2 7 1.291 1.403 0.073 o
-10 2 8 8.596 8.886 0.221 o
-10 2 9 12.950 12.813 0.364 o
-10 2 10 0.813 0.756 0.060 o
-10 2 11 11.422 11.312 0.588 o
-10 2 12 4.825 5.062 0.169 o
-10 2 13 10.929 10.986 0.268 o
-10 2 14 12.884 13.147 0.301 o
-10 2 16 0.693 0.741 0.107 o
-10 2 17 3.624 3.728 0.221 o
-10 2 18 0.576 0.500 0.138 o
-10 3 1 2.497 2.842 0.113 o
-10 3 2 7.798 8.002 0.206 o
-10 3 3 3.468 3.654 0.128 o
-10 3 4 9.798 9.974 0.281 o
-10 3 6 10.569 10.556 0.273 o
-10 3 7 0.556 0.594 0.057 o
-10 3 8 5.627 5.626 0.165 o
-10 3 9 0.901 0.855 0.073 o
-10 3 10 7.339 7.161 0.193 o
-10 3 14 7.813 7.621 0.211 o
-10 3 15 2.532 2.758 0.112 o
-10 3 17 1.468 1.290 0.165 o
-10 3 18 0.324 0.384 0.124 o
-10 4 2 9.923 10.104 0.243 o
-10 4 3 5.983 5.821 0.173 o
-10 4 4 0.291 0.335 0.060 o
-10 4 5 1.057 0.990 0.068 o
-10 4 6 3.245 3.191 0.166 o
-10 4 8 3.063 2.755 0.213 o
-10 4 9 3.005 3.017 0.137 o
-10 4 10 6.779 6.956 0.308 o
-10 4 13 7.348 7.186 0.303 o
-10 4 16 10.019 10.207 0.328 o
-10 4 17 0.760 0.917 0.157 o
-10 5 2 6.522 5.800 0.271 o
-10 5 4 2.122 1.811 0.350 o
-10 5 5 2.789 2.583 0.211 o
-10 5 6 5.511 5.073 0.361 o
-10 5 10 0.699 0.744 0.085 o
-10 5 11 1.224 1.091 0.172 o
-10 5 12 13.462 13.177 0.379 o
-9 0 2 4.073 3.806 0.150 o
-9 0 4 56.394 57.015 1.191 o
-9 0 6 23.912 24.471 0.542 o
-9 0 8 4.297 4.208 0.142 o
-9 0 10 50.725 50.975 1.345 o
-9 0 16 20.398 20.796 0.496 o
-9 0 18 0.288 0.415 0.133 o
-9 0 20 0.913 0.790 0.097 o
-9 0 22 6.539 6.274 0.439 o
-9 1 1 0.471 0.496 0.040 o
-9 1 2 1.331 1.280 0.059 o
-9 1 3 0.123 0.125 0.031 o
-9 1 4 10.176 10.091 0.233 o
-9 1 5 2.970 3.116 0.092 o
-9 1 6 21.830 22.108 0.489 o
-9 1 7 16.522 16.727 0.405 o
-9 1 8 4.693 4.736 0.136 o
-9 1 9 17.300 16.800 0.378 o
-9 1 10 1.114 1.119 0.068 o
-9 1 11 6.444 6.461 0.179 o
-9 1 13 0.349 0.383 0.109 o
-9 1 15 0.530 0.457 0.065 o
-9 1 16 2.474 2.494 0.128 o
-9 1 17 34.700 34.290 1.030 o
-9 1 18 6.496 6.356 0.185 o
-9 1 19 2.646 2.710 0.114 o
-9 1 20 4.063 4.036 0.152 o
-9 1 21 6.566 6.370 0.182 o
-9 1 23 2.124 2.029 0.192 o
-9 2 1 4.662 4.829 0.142 o
-9 2 3 0.671 0.587 0.048 o
-9 2 4 0.307 0.323 0.042 o
-9 2 5 5.945 5.923 0.154 o
-9 2 6 33.236 33.517 0.787 o
-9 2 7 9.839 9.715 0.231 o
-9 2 8 54.350 53.994 1.280 o
-9 2 9 1.343 1.374 0.074 o
-9 2 10 5.180 5.299 0.180 o
-9 2 12 3.104 3.153 0.117 o
-9 2 13 30.542 30.027 0.677 o
-9 2 14 4.627 4.829 0.154 o
-9 2 15 0.477 0.454 0.055 o
-9 2 16 9.398 9.220 0.241 o
-9 2 17 7.956 7.736 0.202 o
-9 2 18 13.849 13.759 0.411 o
-9 2 19 3.764 3.774 0.236 o
-9 2 21 6.979 6.891 0.293 o
-9 2 22 2.710 2.789 0.208 o
-9 3 1 2.608 2.402 0.193 o
-9 3 2 81.148 80.680 1.901 o
-9 3 3 12.221 12.795 0.301 o
-9 3 4 20.838 20.366 0.512 o
-9 3 6 1.032 1.111 0.062 o
-9 3 7 19.236 19.246 0.414 o
-9 3 8 6.458 6.412 0.192 o
-9 3 9 1.326 1.623 0.091 o
-9 3 10 4.801 4.713 0.160 o
-9 3 11 1.150 1.167 0.088 o
-9 3 12 39.821 40.663 1.129 o
-9 3 13 6.483 6.641 0.229 o
-9 3 14 5.774 6.101 0.171 o
-9 3 15 2.330 2.834 0.170 o
-9 3 16 2.935 2.887 0.113 o
-9 3 18 2.651 2.750 0.210 o
-9 4 1 11.180 11.214 0.260 o
-9 4 2 3.616 3.525 0.148 o
-9 4 3 19.967 19.377 0.412 o
-9 4 4 0.280 0.322 0.051 o
-9 4 6 7.495 7.409 0.243 o
-9 4 7 0.885 0.992 0.067 o
-9 4 8 4.096 4.025 0.155 o
-9 4 9 1.579 1.665 0.103 o
-9 4 10 0.541 0.398 0.063 o
-9 4 11 5.255 4.960 0.533 o
-9 4 12 5.704 5.433 0.827 o
-9 4 13 6.933 6.860 0.204 o
-9 4 14 0.265 0.322 0.076 o
-9 5 1 1.469 1.268 0.107 o
-9 5 6 0.759 0.826 0.074 o
-9 5 8 0.530 0.428 0.079 o
-9 5 9 3.362 3.384 0.138 o
-9 5 10 0.798 0.734 0.085 o
-9 5 12 2.981 2.861 0.216 o
-9 5 15 2.174 2.185 0.193 o
-9 6 1 1.503 1.269 0.166 o
-9 6 2 0.282 0.282 0.069 o
-9 6 3 3.739 3.427 0.129 o
-9 6 4 0.276 0.343 0.055 o
-9 6 5 3.155 2.635 0.212 o
-9 6 6 0.602 0.698 0.135 o
-8 0 2 3.685 3.665 0.120 o
-8 0 4 4.204 4.115 0.125 o
-8 0 8 49.702 48.104 1.410 o
-8 0 10 6.356 6.200 0.189 o
-8 0 12 3.049 2.940 0.387 o
-8 0 14 42.671 41.639 1.967 o
-8 0 16 11.652 12.235 0.367 o
-8 0 18 2.302 2.376 0.203 o
-8 0 20 39.598 38.369 2.000 o
-8 0 24 0.519 0.607 0.138 o
-8 1 1 28.857 29.061 0.630 o
-8 1 3 19.034 18.776 0.461 o
-8 1 4 29.547 29.242 0.676 o
-8 1 5 22.028 22.199 0.481 o
-8 1 6 1.694 1.654 0.063 o
-8 1 7 55.336 54.447 1.159 o
-8 1 8 5.823 5.844 0.152 o
-8 1 9 13.379 13.284 0.308 o
-8 1 10 35.753 34.677 0.874 o
-8 1 11 1.669 1.774 0.154 o
-8 1 12 1.804 1.689 0.112 o
-8 1 14 0.490 0.544 0.066 o
-8 1 15 15.525 15.267 0.381 o
-8 1 16 8.315 8.270 0.242 o
-8 1 17 6.689 6.812 0.320 o
-8 1 18 10.011 10.050 0.245 o
-8 1 20 1.012 1.046 0.075 o
-8 1 21 3.983 3.865 0.126 o
-8 1 23 0.985 0.878 0.096 o
-8 1 24 8.564 8.530 0.310 o
-8 2 1 38.448 37.944 0.919 o
-8 2 2 15.970 16.233 0.368 o
-8 2 3 6.893 6.682 0.183 o
-8 2 4 15.820 15.677 0.365 o
-8 2 5 33.220 33.108 0.723 o
-8 2 6 55.862 56.197 1.195 o
-8 2 7 6.279 6.331 0.157 o
-8 2 8 6.629 6.546 0.168 o
-8 2 9 1.322 1.294 0.068 o
-8 2 10 10.746 10.941 0.345 o
-8 2 11 19.479 19.068 0.443 o
-8 2 12 8.000 7.651 0.231 o
-8 2 13 2.013 1.993 0.098 o
-8 2 14 11.040 11.208 0.260 o
-8 2 15 0.142 0.199 0.064 o
-8 2 16 35.810 36.148 0.880 o
-8 2 17 2.013 1.916 0.173 o
-8 2 18 13.375 13.269 0.402 o
-8 2 19 3.536 3.073 0.224 o
-8 2 23 2.804 2.641 0.199 o
-8 3 1 0.225 0.211 0.041 o
-8 3 2 8.205 8.120 0.243 o
-8 3 3 6.712 6.945 0.180 o
-8 3 5 0.928 0.967 0.055 o
-8 3 6 32.468 31.948 0.863 o
-8 3 7 10.477 10.388 0.281 o
-8 3 8 21.626 21.547 0.471 o
-8 3 9 5.333 5.094 0.163 o
-8 3 10 9.141 9.189 0.229 o
-8 3 11 5.736 5.699 0.473 o
-8 3 12 49.116 49.525 1.157 o
-8 3 13 1.570 1.482 0.126 o
-8 3 14 1.353 1.244 0.095 o
-8 3 15 0.507 0.499 0.061 o
-8 3 16 16.890 17.046 0.377 o
-8 3 17 15.806 16.316 0.357 o
-8 3 19 0.998 1.116 0.173 o
-8 3 20 7.544 7.219 0.410 o
-8 4 1 20.613 20.582 0.532 o
-8 4 2 18.904 19.067 0.482 o
-8 4 3 15.400 15.950 0.344 o
-8 4 4 10.733 10.406 0.252 o
-8 4 5 2.922 3.057 0.104 o
-8 4 6 4.574 4.485 0.143 o
-8 4 7 2.792 2.790 0.110 o
-8 4 8 4.132 4.221 0.155 o
-8 4 10 0.330 0.358 0.076 o
-8 4 11 21.824 22.696 0.463 o
-8 4 12 16.501 16.725 0.436 o
-8 4 13 10.459 10.647 0.388 o
-8 4 15 2.724 2.830 0.225 o
-8 4 16 2.550 2.671 0.175 o
-8 4 18 4.658 4.426 0.289 o
-8 5 1 4.569 4.451 0.163 o
-8 5 2 25.350 25.361 0.491 o
-8 5 5 1.325 1.297 0.089 o
-8 5 6 0.440 0.508 0.057 o
-8 5 7 4.575 4.395 0.139 o
-8 5 8 7.337 6.844 0.723 o
-8 5 10 2.183 2.213 0.125 o
-8 5 12 0.866 0.857 0.092 o
-8 5 14 0.522 0.540 0.142 o
-8 5 15 0.652 0.702 0.145 o
-8 6 1 0.311 0.296 0.075 o
-8 6 2 0.584 0.501 0.079 o
-8 6 3 0.309 0.244 0.057 o
-8 6 4 0.609 0.563 0.062 o
-8 6 6 0.373 0.358 0.075 o
-8 6 7 1.111 0.973 0.093 o
-8 6 8 0.432 0.420 0.118 o
-8 6 11 0.625 0.627 0.106 o
-7 0 2 14.264 14.667 0.331 o
-7 0 4 40.366 39.496 0.790 o
-7 0 6 257.435 257.610 4.989 o
-7 0 10 1.332 0.964 0.255 o
-7 0 12 5.417 5.609 0.471 o
-7 0 14 10.450 11.469 0.299 o
-7 0 16 7.096 6.881 0.321 o
-7 0 18 7.330 7.137 0.283 o
-7 0 20 0.571 0.516 0.087 o
-7 0 22 0.472 0.407 0.085 o
-7 0 24 7.517 7.117 0.590 o
-7 1 1 17.314 18.300 0.517 o
-7 1 2 87.222 86.734 1.857 o
-7 1 3 3.828 3.888 0.114 o
-7 1 4 0.376 0.378 0.054 o
-7 1 5 2.223 2.190 0.080 o
-7 1 6 19.131 18.240 0.415 o
-7 1 7 52.113 50.701 1.531 o
-7 1 9 10.009 10.813 0.382 o
-7 1 10 29.181 28.466 0.733 o
-7 1 11 45.888 44.535 1.272 o
-7 1 12 2.892 2.964 0.125 o
-7 1 13 9.183 8.829 0.293 o
-7 1 14 14.872 14.914 0.350 o
-7 1 15 13.131 12.987 0.305 o
-7 1 16 5.528 5.781 0.165 o
-7 1 17 21.721 22.402 0.447 o
-7 1 18 0.201 0.179 0.055 o
-7 1 19 25.624 25.150 0.710 o
-7 1 20 4.219 4.342 0.134 o
-7 1 21 2.841 2.916 0.109 o
-7 1 22 1.336 1.150 0.079 o
-7 1 23 0.948 1.015 0.075 o
-7 1 24 0.716 0.863 0.154 o
-7 1 25 7.416 7.101 0.287 o
-7 2 2 0.298 0.329 0.028 o
-7 2 3 22.835 22.248 0.501 o
-7 2 4 3.488 3.319 0.131 o
-7 2 5 9.647 9.775 0.241 o
-7 2 6 2.239 2.242 0.093 o
-7 2 7 19.163 19.104 0.414 o
-7 2 8 16.509 16.458 0.359 o
-7 2 9 17.282 16.697 0.370 o
-7 2 10 77.581 76.674 1.561 o
-7 2 11 21.939 21.802 0.484 o
-7 2 12 7.579 7.808 0.212 o
-7 2 13 5.056 4.966 0.139 o
-7 2 14 3.467 3.344 0.107 o
-7 2 15 40.363 40.031 0.849 o
-7 2 16 11.883 11.804 0.495 o
-7 2 17 2.039 2.175 0.202 o
-7 2 18 4.556 4.367 0.250 o
-7 2 20 22.079 21.536 1.213 o
-7 2 21 11.835 11.107 0.990 o
-7 2 22 4.359 4.157 0.374 o
-7 2 23 3.745 3.787 0.236 o
-7 2 24 4.592 4.557 0.238 o
-7 3 1 2.002 1.928 0.069 o
-7 3 2 1.891 1.808 0.066 o
-7 3 3 2.017 2.078 0.078 o
-7 3 4 74.493 73.665 1.844 o
-7 3 5 34.072 33.912 0.704 o
-7 3 6 15.760 15.709 0.349 o
-7 3 9 9.418 9.550 0.235 o
-7 3 10 11.029 11.023 0.372 o
-7 3 11 0.237 0.176 0.042 o
-7 3 12 1.001 0.942 0.067 o
-7 3 13 7.452 7.371 0.189 o
-7 3 14 22.008 22.100 0.554 o
-7 3 15 4.707 4.667 0.151 o
-7 3 16 21.543 21.563 0.860 o
-7 3 18 9.633 9.737 0.239 o
-7 3 20 2.515 2.357 0.151 o
-7 3 21 2.611 2.635 0.132 o
-7 3 22 2.729 2.645 0.204 o
-7 4 1 20.506 20.522 0.449 o
-7 4 2 6.240 6.479 0.167 o
-7 4 3 0.600 0.672 0.048 o
-7 4 4 2.073 2.154 0.082 o
-7 4 5 22.539 22.159 0.513 o
-7 4 6 4.182 4.445 0.136 o
-7 4 7 4.533 4.530 0.137 o
-7 4 8 25.402 25.923 0.511 o
-7 4 9 5.317 5.451 0.263 o
-7 4 10 0.227 0.199 0.067 o
-7 4 11 13.813 13.981 0.768 o
-7 4 12 3.398 3.381 0.145 o
-7 4 14 3.160 3.232 0.203 o
-7 4 15 12.029 12.003 0.286 o
-7 4 16 9.203 9.473 0.317 o
-7 4 17 3.465 3.313 0.354 o
-7 5 1 3.749 3.702 0.119 o
-7 5 2 18.442 18.073 0.660 o
-7 5 3 3.461 3.372 0.112 o
-7 5 4 1.671 1.588 0.135 o
-7 5 5 0.929 0.957 0.074 o
-7 5 6 7.352 7.739 0.230 o
-7 5 7 0.581 0.680 0.068 o
-7 5 10 5.139 5.464 0.182 o
-7 5 11 8.992 9.194 0.244 o
-7 5 12 23.423 24.074 1.513 o
-7 5 14 1.099 1.180 0.108 o
-7 5 17 2.357 2.241 0.193 o
-7 6 1 15.064 14.480 0.316 o
-7 6 2 2.832 2.739 0.131 o
-7 6 4 0.641 0.686 0.070 o
-7 6 5 1.113 1.001 0.201 o
-7 6 6 5.724 5.583 0.179 o
-7 6 7 2.228 1.905 0.116 o
-7 6 8 3.908 3.476 0.343 o
-7 6 9 1.956 1.881 0.133 o
-7 6 11 1.685 1.554 0.191 o
-6 0 2 183.985 186.704 4.103 o
-6 0 4 3.452 3.167 0.287 o
-6 0 6 164.067 166.962 3.598 o
-6 0 8 1.084 1.260 0.147 o
-6 0 10 289.111 290.474 8.251 o
-6 0 14 25.274 24.973 0.559 o
-6 0 16 125.387 127.706 3.817 o
-6 0 18 14.856 15.081 0.472 o
-6 0 20 9.569 9.430 0.247 o
-6 0 22 2.551 2.793 0.140 o
-6 0 24 12.234 11.774 0.420 o
-6 1 1 1.403 1.532 0.090 o
-6 1 2 6.750 6.745 0.177 o
-6 1 3 1.122 1.271 0.072 o
-6 1 4 31.948 31.678 0.678 o
-6 1 5 97.646 97.368 2.393 o
-6 1 6 154.739 154.367 3.442 o
-6 1 7 2.524 2.633 0.165 o
-6 1 8 3.112 3.128 0.179 o
-6 1 9 44.180 43.780 1.039 o
-6 1 10 50.075 50.571 1.287 o
-6 1 11 3.943 3.976 0.176 o
-6 1 12 41.617 41.238 0.953 o
-6 1 13 4.929 4.862 0.136 o
-6 1 14 21.944 21.089 0.471 o
-6 1 15 3.502 3.504 0.113 o
-6 1 16 0.637 0.539 0.052 o
-6 1 17 1.004 1.028 0.065 o
-6 1 18 0.688 0.653 0.060 o
-6 1 19 11.472 11.189 0.304 o
-6 1 20 26.687 26.495 0.906 o
-6 1 21 12.482 12.104 0.308 o
-6 1 22 1.321 1.444 0.084 o
-6 1 23 2.053 2.001 0.092 o
-6 1 24 0.258 0.215 0.070 o
-6 1 25 1.280 1.399 0.179 o
-6 2 1 71.274 68.550 1.544 o
-6 2 2 39.372 38.370 0.822 o
-6 2 3 60.122 59.857 1.864 o
-6 2 4 5.136 5.386 0.141 o
-6 2 5 4.273 4.306 0.129 o
-6 2 6 1.055 1.069 0.098 o
-6 2 7 0.199 0.201 0.038 o
-6 2 8 13.169 12.906 0.642 o
-6 2 9 31.494 31.275 0.763 o
-6 2 10 9.506 9.146 0.240 o
-6 2 11 0.216 0.191 0.038 o
-6 2 12 8.957 8.595 0.208 o
-6 2 13 0.207 0.172 0.035 o
-6 2 14 6.247 6.396 0.181 o
-6 2 15 2.725 2.657 0.106 o
-6 2 16 0.328 0.384 0.052 o
-6 2 17 9.134 9.232 0.305 o
-6 2 18 18.697 19.038 0.953 o
-6 2 19 2.500 2.365 0.119 o
-6 2 20 20.017 19.227 0.408 o
-6 2 21 1.589 1.555 0.103 o
-6 2 23 0.531 0.530 0.088 o
-6 3 1 12.530 12.962 0.297 o
-6 3 2 11.565 11.262 0.256 o
-6 3 3 1.396 1.680 0.062 o
-6 3 4 4.365 4.407 0.113 o
-6 3 5 0.661 0.652 0.038 o
-6 3 6 6.083 6.979 0.168 o
-6 3 7 7.406 7.296 0.179 o
-6 3 8 40.013 38.444 0.861 o
-6 3 9 31.914 30.565 0.593 o
-6 3 10 0.532 0.517 0.058 o
-6 3 11 4.278 4.292 0.126 o
-6 3 12 0.403 0.926 0.155 o
-6 3 13 6.364 6.421 0.170 o
-6 3 14 54.237 54.024 1.106 o
-6 3 15 12.242 12.726 0.311 o
-6 3 16 1.743 1.857 0.115 o
-6 3 17 0.647 0.597 0.066 o
-6 3 18 8.173 8.093 0.231 o
-6 3 19 14.626 14.898 0.582 o
-6 3 20 1.006 0.897 0.169 o
-6 3 21 0.376 0.399 0.080 o
-6 3 22 4.669 4.548 0.158 o
-6 3 23 0.939 0.746 0.137 o
-6 4 1 7.482 7.648 0.201 o
-6 4 3 7.137 7.140 0.176 o
-6 4 4 41.707 41.646 1.027 o
-6 4 5 38.046 37.575 0.801 o
-6 4 6 1.889 1.864 0.085 o
-6 4 8 6.702 6.807 0.201 o
-6 4 10 1.872 1.801 0.104 o
-6 4 11 6.348 6.321 0.455 o
-6 4 12 11.175 11.921 0.285 o
-6 4 13 13.374 13.833 0.851 o
-6 4 14 13.302 13.720 0.315 o
-6 4 15 21.705 21.548 0.439 o
-6 4 16 0.498 0.557 0.069 o
-6 4 18 6.323 6.298 0.201 o
-6 4 19 0.967 1.009 0.128 o
-6 5 2 0.614 0.737 0.059 o
-6 5 3 1.172 1.207 0.071 o
-6 5 4 35.248 34.245 0.842 o
-6 5 6 6.510 6.523 0.177 o
-6 5 7 2.701 2.613 0.107 o
-6 5 8 15.318 15.402 0.362 o
-6 5 9 1.375 1.296 0.181 o
-6 5 10 14.398 14.516 0.331 o
-6 5 11 0.505 0.529 0.083 o
-6 5 13 0.586 0.576 0.096 o
-6 5 14 2.220 2.381 0.130 o
-6 5 15 1.377 1.406 0.127 o
-6 5 16 7.365 7.471 0.214 o
-6 5 18 1.390 1.158 0.208 o
-6 6 1 1.684 1.711 0.084 o
-6 6 2 4.068 4.104 0.124 o
-6 6 3 0.356 0.560 0.060 o
-6 6 4 2.851 2.704 0.186 o
-6 6 5 8.677 8.649 0.570 o
-6 6 6 0.936 1.516 0.094 o
-6 6 7 0.775 0.634 0.059 o
-6 6 8 0.435 0.430 0.136 o
-6 6 10 4.852 4.971 0.272 o
-6 6 11 9.425 9.512 0.349 o
-6 6 12 4.020 4.306 0.253 o
-6 6 13 0.676 0.870 0.158 o
-6 6 14 0.791 0.674 0.147 o
-6 6 15 3.340 3.257 0.219 o
-6 6 16 1.949 1.830 0.182 o
-6 7 1 5.306 5.077 0.156 o
-6 7 4 0.432 0.324 0.081 o
-6 7 5 0.428 0.391 0.072 o
-6 7 6 1.127 1.018 0.090 o
-6 7 7 2.350 2.055 0.181 o
-6 7 9 2.332 2.322 0.190 o
-5 0 2 89.029 91.444 1.845 o
-5 0 4 18.919 18.768 0.470 o
-5 0 6 117.292 118.905 2.772 o
-5 0 8 288.087 287.952 7.698 o
-5 0 10 100.175 105.316 2.392 o
-5 0 12 43.752 43.017 1.012 o
-5 0 14 0.624 0.545 0.073 o
-5 0 18 26.272 25.799 0.716 o
-5 0 20 96.437 98.021 2.497 o
-5 0 22 0.188 0.346 0.083 o
-5 0 24 0.561 0.478 0.087 o
-5 0 26 13.479 13.387 0.380 o
-5 1 1 56.570 57.075 1.339 o
-5 1 2 255.758 260.327 6.576 o
-5 1 3 48.069 51.587 1.083 o
-5 1 4 93.862 96.086 2.494 o
-5 1 5 31.055 31.198 1.101 o
-5 1 6 3.969 4.149 0.322 o
-5 1 7 0.867 0.830 0.197 o
-5 1 8 16.895 16.988 0.504 o
-5 1 9 266.318 270.303 6.406 o
-5 1 10 26.412 25.663 0.646 o
-5 1 12 24.690 24.340 0.544 o
-5 1 13 8.988 8.817 0.209 o
-5 1 14 25.716 25.680 0.565 o
-5 1 15 38.794 38.638 0.884 o
-5 1 16 53.264 53.566 1.147 o
-5 1 17 15.998 15.600 0.362 o
-5 1 18 0.519 0.488 0.049 o
-5 1 19 40.052 40.197 0.880 o
-5 1 20 0.570 0.570 0.059 o
-5 1 21 0.939 0.899 0.068 o
-5 1 22 1.355 1.405 0.095 o
-5 1 23 0.244 0.231 0.055 o
-5 1 24 15.464 14.283 0.452 o
-5 1 25 1.029 0.956 0.162 o
-5 1 26 2.690 2.943 0.210 o
-5 2 1 9.155 9.194 0.212 o
-5 2 2 0.590 0.667 0.065 o
-5 2 3 4.353 4.204 0.127 o
-5 2 4 28.820 27.523 0.854 o
-5 2 5 178.309 177.034 3.641 o
-5 2 6 82.282 79.360 3.072 o
-5 2 7 20.907 21.561 0.770 o
-5 2 8 1.936 2.038 0.141 o
-5 2 11 40.507 39.577 0.881 o
-5 2 12 23.954 23.541 0.522 o
-5 2 13 72.695 71.831 1.524 o
-5 2 14 0.695 0.732 0.063 o
-5 2 15 11.953 11.973 0.278 o
-5 2 16 3.226 3.208 0.108 o
-5 2 17 7.601 7.871 0.212 o
-5 2 18 4.755 4.948 0.161 o
-5 2 19 11.029 10.762 0.355 o
-5 2 22 9.374 8.991 0.451 o
-5 2 23 7.325 6.311 0.202 o
-5 2 24 1.553 1.526 0.173 o
-5 3 1 20.435 19.707 0.423 o
-5 3 3 6.100 5.894 0.140 o
-5 3 4 11.288 11.056 0.247 o
-5 3 5 3.717 3.663 0.149 o
-5 3 6 4.596 4.655 0.122 o
-5 3 7 16.284 15.784 0.346 o
-5 3 8 2.192 2.192 0.091 o
-5 3 10 6.306 6.389 0.177 o
-5 3 11 0.482 0.485 0.053 o
-5 3 12 0.714 0.674 0.050 o
-5 3 14 0.813 0.916 0.093 o
-5 3 15 2.295 2.227 0.108 o
-5 3 18 12.318 12.743 0.296 o
-5 3 19 5.827 5.915 0.211 o
-5 3 20 0.264 0.236 0.077 o
-5 3 21 0.837 0.913 0.117 o
-5 3 23 3.582 3.806 0.145 o
-5 4 1 3.264 3.262 0.105 o
-5 4 3 23.191 23.535 0.517 o
-5 4 4 23.017 23.429 0.506 o
-5 4 5 13.282 13.174 0.285 o
-5 4 7 1.237 1.158 0.066 o
-5 4 8 24.684 25.418 0.523 o
-5 4 10 23.175 22.915 0.581 o
-5 4 11 0.325 0.267 0.058 o
-5 4 12 1.907 2.020 0.156 o
-5 4 13 14.647 14.523 0.335 o
-5 4 14 7.061 7.200 0.202 o
-5 4 15 12.821 13.151 0.400 o
-5 4 17 2.365 2.400 0.166 o
-5 4 18 15.741 16.688 1.058 o
-5 4 19 0.413 0.449 0.087 o
-5 5 1 2.616 2.637 0.092 o
-5 5 2 4.066 3.955 0.118 o
-5 5 3 3.204 2.960 0.106 o
-5 5 4 62.185 64.594 1.545 o
-5 5 5 0.234 0.311 0.053 o
-5 5 6 8.578 8.736 0.247 o
-5 5 7 2.476 2.459 0.101 o
-5 5 8 5.755 5.865 0.164 o
-5 5 9 2.767 2.605 0.173 o
-5 5 10 3.360 3.295 0.141 o
-5 5 12 11.003 11.534 0.622 o
-5 5 13 4.165 4.001 0.565 o
-5 5 14 46.408 47.217 3.352 o
-5 5 16 0.740 0.700 0.079 o
-5 5 17 0.556 0.601 0.105 o
-5 5 18 1.378 1.348 0.219 o
-5 6 2 0.316 0.446 0.053 o
-5 6 3 18.435 18.145 0.400 o
-5 6 4 2.590 2.513 0.112 o
-5 6 5 1.416 1.388 0.193 o
-5 6 6 0.885 0.825 0.072 o
-5 6 7 1.691 1.676 0.139 o
-5 6 8 10.841 11.386 0.271 o
-5 6 9 2.350 2.239 0.125 o
-5 6 10 8.869 9.018 0.351 o
-5 6 11 0.676 0.672 0.115 o
-5 6 13 1.451 1.230 0.129 o
-5 6 15 3.836 4.140 0.240 o
-5 6 17 0.778 0.823 0.137 o
-5 7 2 0.849 0.690 0.153 o
-5 7 3 0.547 0.502 0.075 o
-5 7 4 0.370 0.335 0.072 o
-5 7 7 2.180 1.935 0.342 o
-5 7 9 2.083 1.908 0.289 o
-5 7 10 1.858 1.815 0.189 o
-5 7 11 2.414 2.248 0.195 o
-4 0 2 972.448 873.025 129.841 o
-4 0 4 120.163 123.968 3.508 o
-4 0 6 44.436 45.103 1.035 o
-4 0 8 573.424 584.145 13.044 o
-4 0 10 1.787 1.781 0.188 o
-4 0 12 239.906 243.641 5.386 o
-4 0 14 1.724 1.947 0.137 o
-4 0 16 55.369 56.483 1.242 o
-4 0 18 129.948 131.147 2.661 o
-4 0 22 1.274 1.203 0.109 o
-4 0 24 1.782 1.876 0.232 o
-4 0 26 11.109 10.995 0.349 o
-4 1 1 91.591 91.716 2.298 o
-4 1 2 57.251 57.090 1.256 o
-4 1 3 1.662 1.763 0.102 o
-4 1 4 32.985 34.487 0.827 o
-4 1 5 0.031 0.132 0.038 o
-4 1 6 178.283 179.808 4.182 o
-4 1 7 89.025 89.805 2.044 o
-4 1 8 178.332 178.729 4.173 o
-4 1 9 46.112 46.770 1.092 o
-4 1 11 1.752 1.920 0.077 o
-4 1 12 81.338 81.521 1.791 o
-4 1 13 15.230 15.183 0.363 o
-4 1 14 16.470 16.484 0.371 o
-4 1 15 0.153 0.124 0.029 o
-4 1 16 21.783 21.374 0.473 o
-4 1 17 4.588 4.509 0.120 o
-4 1 18 1.007 0.999 0.056 o
-4 1 19 51.718 52.273 1.250 o
-4 1 20 11.646 11.641 0.322 o
-4 1 21 1.529 1.336 0.105 o
-4 1 22 21.563 20.951 0.891 o
-4 1 23 9.033 9.017 0.260 o
-4 1 24 2.633 2.609 0.180 o
-4 1 25 4.372 4.370 0.143 o
-4 1 26 2.332 2.152 0.187 o
-4 2 1 53.908 52.745 1.232 o
-4 2 2 13.509 13.158 0.372 o
-4 2 3 80.250 80.071 2.401 o
-4 2 4 64.475 63.404 2.419 o
-4 2 5 5.625 5.916 0.375 o
-4 2 6 5.229 5.760 0.377 o
-4 2 7 6.695 6.579 0.180 o
-4 2 8 82.576 83.478 1.824 o
-4 2 9 14.561 14.070 0.335 o
-4 2 10 30.186 30.139 0.681 o
-4 2 11 7.654 7.427 0.198 o
-4 2 12 0.782 0.811 0.044 o
-4 2 13 3.200 3.264 0.095 o
-4 2 14 22.230 22.098 0.487 o
-4 2 15 34.277 34.375 0.770 o
-4 2 16 9.886 9.950 0.243 o
-4 2 17 7.261 7.306 0.183 o
-4 2 18 7.750 7.952 0.236 o
-4 2 19 5.936 5.967 0.199 o
-4 2 21 4.320 4.282 0.199 o
-4 2 22 3.758 3.908 0.138 o
-4 2 23 18.300 17.233 0.436 o
-4 2 24 2.398 2.295 0.099 o
-4 2 25 3.048 3.241 0.218 o
-4 3 1 4.896 4.913 0.119 o
-4 3 2 13.560 13.276 0.291 o
-4 3 3 22.093 21.495 0.609 o
-4 3 4 240.201 236.688 5.138 o
-4 3 5 29.799 27.695 0.581 o
-4 3 6 8.237 7.997 0.261 o
-4 3 7 4.992 5.192 0.140 o
-4 3 8 0.236 0.274 0.056 o
-4 3 9 36.520 36.436 0.900 o
-4 3 10 64.321 63.115 1.501 o
-4 3 11 20.912 20.107 0.458 o
-4 3 12 12.342 12.261 0.269 o
-4 3 13 1.025 1.074 0.059 o
-4 3 14 31.296 31.511 0.810 o
-4 3 15 5.698 6.077 0.173 o
-4 3 16 3.985 3.994 0.167 o
-4 3 17 14.190 14.618 0.325 o
-4 3 18 2.529 2.444 0.272 o
-4 3 20 5.910 5.976 0.188 o
-4 3 21 1.455 1.607 0.116 o
-4 3 22 1.167 1.176 0.131 o
-4 3 23 0.421 0.355 0.108 o
-4 4 1 0.172 0.148 0.030 o
-4 4 2 4.893 5.109 0.136 o
-4 4 3 58.071 58.350 1.431 o
-4 4 4 0.708 1.073 0.062 o
-4 4 5 11.155 11.153 0.264 o
-4 4 6 28.693 28.540 0.622 o
-4 4 7 9.423 9.260 0.297 o
-4 4 8 4.303 4.459 0.126 o
-4 4 9 2.145 1.991 0.098 o
-4 4 10 2.889 2.757 0.112 o
-4 4 11 0.098 0.175 0.053 o
-4 4 12 0.290 0.325 0.059 o
-4 4 13 27.451 27.631 0.862 o
-4 4 14 21.862 22.138 0.848 o
-4 4 15 0.826 0.894 0.073 o
-4 4 16 1.779 1.958 0.147 o
-4 4 17 4.504 4.636 0.241 o
-4 4 18 2.086 2.115 0.130 o
-4 4 20 4.384 3.922 0.285 o
-4 5 2 21.530 21.574 0.468 o
-4 5 3 2.255 2.164 0.090 o
-4 5 4 0.559 0.531 0.055 o
-4 5 6 5.227 5.012 0.155 o
-4 5 8 7.732 7.992 0.204 o
-4 5 10 11.828 11.971 0.764 o
-4 5 11 1.278 1.378 0.114 o
-4 5 12 7.495 7.448 0.484 o
-4 5 13 0.547 0.541 0.081 o
-4 5 14 12.796 13.191 0.394 o
-4 5 15 0.223 0.285 0.065 o
-4 5 17 1.631 1.604 0.277 o
-4 5 18 11.197 11.338 0.416 o
-4 6 2 4.550 4.375 0.326 o
-4 6 3 12.433 12.268 0.284 o
-4 6 4 3.339 3.257 0.137 o
-4 6 5 5.447 5.436 0.234 o
-4 6 6 1.583 1.521 0.088 o
-4 6 7 8.801 8.587 0.230 o
-4 6 8 1.360 1.360 0.109 o
-4 6 11 0.545 0.620 0.087 o
-4 6 12 4.104 4.079 0.166 o
-4 6 13 18.781 18.899 0.431 o
-4 6 14 4.559 4.742 0.171 o
-4 6 16 0.990 1.036 0.174 o
-4 6 17 0.394 0.491 0.129 o
-4 7 2 4.285 3.858 0.237 o
-4 7 3 4.505 4.044 0.323 o
-4 7 4 2.505 2.363 0.158 o
-4 7 6 0.818 0.776 0.083 o
-4 7 7 2.624 2.550 0.290 o
-4 7 8 1.914 1.738 0.195 o
-4 7 9 6.913 6.710 0.292 o
-4 7 11 0.719 0.799 0.155 o
-3 0 2 14.863 14.667 0.323 o
-3 0 4 91.174 91.391 3.111 o
-3 0 6 12.802 14.998 0.652 o
-3 0 8 22.670 22.528 0.531 o
-3 0 10 4.145 4.168 0.124 o
-3 0 12 143.186 146.676 3.189 o
-3 0 14 18.034 17.790 0.385 o
-3 0 16 13.152 13.371 0.318 o
-3 0 18 32.534 33.709 0.754 o
-3 0 20 9.622 9.281 0.483 o
-3 0 22 94.067 92.889 3.763 o
-3 0 24 0.067 0.491 0.086 o
-3 0 26 4.342 4.016 0.233 o
-3 1 1 332.285 327.424 7.640 o
-3 1 2 33.591 33.910 0.777 o
-3 1 3 155.793 162.962 3.732 o
-3 1 4 227.864 234.652 5.331 o
-3 1 5 207.283 217.524 5.005 o
-3 1 6 0.303 0.325 0.040 o
-3 1 7 346.151 354.162 8.049 o
-3 1 8 8.700 8.315 0.225 o
-3 1 9 60.083 61.850 1.373 o
-3 1 10 3.561 3.596 0.114 o
-3 1 11 159.084 158.766 3.547 o
-3 1 12 53.925 53.351 1.177 o
-3 1 13 0.775 0.841 0.044 o
-3 1 14 0.306 0.326 0.029 o
-3 1 15 0.097 0.140 0.026 o
-3 1 16 30.823 31.503 0.691 o
-3 1 17 58.875 59.547 1.281 o
-3 1 18 37.634 38.342 0.839 o
-3 1 19 0.263 0.274 0.037 o
-3 1 20 2.022 1.958 0.082 o
-3 1 21 7.973 7.928 0.195 o
-3 1 22 2.163 1.961 0.093 o
-3 1 23 1.849 1.814 0.091 o
-3 1 24 0.218 0.225 0.055 o
-3 1 25 1.242 1.134 0.078 o
-3 1 26 16.823 16.457 0.429 o
-3 2 1 83.053 83.986 1.899 o
-3 2 2 178.532 181.373 4.220 o
-3 2 3 296.082 303.875 6.937 o
-3 2 4 27.331 27.649 0.690 o
-3 2 5 2.726 2.671 0.106 o
-3 2 6 138.116 139.193 3.617 o
-3 2 7 171.286 169.285 3.799 o
-3 2 8 291.929 290.121 6.585 o
-3 2 9 51.971 52.269 1.145 o
-3 2 10 11.031 10.968 0.257 o
-3 2 11 23.529 23.101 0.510 o
-3 2 12 2.095 2.114 0.067 o
-3 2 13 53.095 53.211 1.213 o
-3 2 14 0.816 0.885 0.051 o
-3 2 15 28.583 28.371 0.662 o
-3 2 16 14.578 14.628 0.329 o
-3 2 17 1.016 0.980 0.055 o
-3 2 18 42.953 43.208 0.998 o
-3 2 19 0.345 0.345 0.048 o
-3 2 20 3.343 3.545 0.114 o
-3 2 21 10.825 10.702 0.326 o
-3 2 24 2.749 2.601 0.152 o
-3 3 1 3.616 3.901 0.099 o
-3 3 2 249.701 249.541 5.537 o
-3 3 3 4.683 7.500 0.181 o
-3 3 4 46.277 45.394 0.927 o
-3 3 5 21.544 21.712 0.453 o
-3 3 6 0.061 0.265 0.052 o
-3 3 7 4.138 4.079 0.137 o
-3 3 8 18.264 17.922 0.426 o
-3 3 9 4.746 5.562 0.153 o
-3 3 10 19.985 20.041 0.446 o
-3 3 11 1.472 1.521 0.081 o
-3 3 12 41.662 42.021 0.913 o
-3 3 13 9.249 9.326 0.222 o
-3 3 14 68.907 69.930 1.582 o
-3 3 15 1.547 1.637 0.128 o
-3 3 17 1.210 1.160 0.082 o
-3 3 18 3.506 3.437 0.124 o
-3 3 19 10.129 10.333 0.252 o
-3 3 20 4.183 4.197 0.143 o
-3 3 21 6.172 6.832 0.235 o
-3 3 22 10.207 9.903 0.247 o
-3 3 24 10.867 10.913 0.341 o
-3 4 1 20.466 20.599 0.441 o
-3 4 2 10.553 10.507 0.402 o
-3 4 3 58.162 57.839 1.195 o
-3 4 4 29.358 28.551 0.686 o
-3 4 5 0.412 0.472 0.042 o
-3 4 6 24.929 24.505 0.707 o
-3 4 7 16.076 16.460 0.477 o
-3 4 8 0.575 0.499 0.052 o
-3 4 9 0.443 0.488 0.057 o
-3 4 10 37.946 37.451 0.804 o
-3 4 11 3.808 3.981 0.137 o
-3 4 12 2.824 2.851 0.122 o
-3 4 13 31.528 31.687 0.957 o
-3 4 14 5.666 5.720 0.194 o
-3 4 16 4.032 4.007 0.161 o
-3 4 17 10.279 10.615 0.259 o
-3 4 18 4.031 3.920 0.146 o
-3 4 20 8.738 8.673 0.374 o
-3 5 1 0.169 0.238 0.044 o
-3 5 2 2.337 2.348 0.083 o
-3 5 3 4.330 4.251 0.127 o
-3 5 4 9.263 8.982 0.251 o
-3 5 5 1.111 1.109 0.070 o
-3 5 6 35.365 35.469 0.908 o
-3 5 7 3.888 4.010 0.127 o
-3 5 8 0.571 0.582 0.070 o
-3 5 9 4.244 4.190 0.151 o
-3 5 10 4.236 4.281 0.171 o
-3 5 11 1.337 1.383 0.106 o
-3 5 12 12.261 12.478 0.295 o
-3 5 13 0.351 0.319 0.065 o
-3 5 14 1.542 1.636 0.099 o
-3 5 16 16.647 16.979 0.538 o
-3 5 17 0.989 0.978 0.103 o
-3 5 18 1.233 1.231 0.208 o
-3 6 1 8.060 7.774 0.372 o
-3 6 2 1.733 1.654 0.106 o
-3 6 3 0.879 1.234 0.239 o
-3 6 4 1.124 1.278 0.084 o
-3 6 5 0.709 0.785 0.070 o
-3 6 6 0.824 0.911 0.089 o
-3 6 7 0.752 0.812 0.130 o
-3 6 9 3.910 3.933 0.156 o
-3 6 10 2.870 2.875 0.140 o
-3 6 11 0.405 0.334 0.069 o
-3 6 12 3.563 3.953 0.161 o
-3 6 13 1.771 1.832 0.104 o
-3 6 15 0.186 0.600 0.113 o
-3 6 17 6.668 6.887 0.273 o
-3 7 2 5.146 5.211 0.251 o
-3 7 4 4.328 4.199 0.240 o
-3 7 5 1.701 1.632 0.188 o
-3 7 6 0.759 0.564 0.149 o
-3 7 12 5.936 5.797 0.270 o
-3 7 13 3.966 3.851 0.229 o
-2 0 6 171.868 175.790 4.141 o
-2 0 8 463.228 468.376 10.687 o
-2 0 10 182.950 187.546 4.386 o
-2 0 12 16.281 17.000 0.384 o
-2 0 14 56.298 56.157 1.249 o
-2 0 16 12.026 11.643 0.291 o
-2 0 18 4.781 4.812 0.133 o
-2 0 20 16.658 16.835 0.363 o
-2 0 22 4.375 4.467 0.167 o
-2 0 26 3.633 3.818 0.227 o
-2 1 1 181.245 196.481 4.415 o
-2 1 2 552.357 562.485 47.290 o
-2 1 3 21.248 21.171 0.462 o
-2 1 4 365.947 352.072 15.792 o
-2 1 5 19.993 20.981 0.529 o
-2 1 6 5.626 5.671 0.144 o
-2 1 7 35.630 34.570 0.779 o
-2 1 8 293.139 293.468 6.652 o
-2 1 9 23.352 22.753 0.530 o
-2 1 10 32.411 32.939 0.736 o
-2 1 11 82.513 83.006 1.830 o
-2 1 12 9.416 9.539 0.232 o
-2 1 13 32.178 32.101 0.707 o
-2 1 14 18.605 18.482 0.410 o
-2 1 15 11.220 11.133 0.256 o
-2 1 16 0.998 1.052 0.047 o
-2 1 17 30.220 30.596 0.676 o
-2 1 18 8.526 8.313 0.204 o
-2 1 19 1.670 1.794 0.070 o
-2 1 20 0.963 0.963 0.058 o
-2 1 21 56.962 56.944 1.227 o
-2 1 22 10.709 10.799 0.296 o
-2 1 24 2.176 2.292 0.150 o
-2 1 25 0.506 0.558 0.059 o
-2 1 26 1.601 1.458 0.177 o
-2 2 1 147.702 152.281 3.508 o
-2 2 2 474.360 487.073 10.927 o
-2 2 3 9.817 9.636 0.248 o
-2 2 4 22.623 22.607 0.534 o
-2 2 5 3.124 3.210 0.113 o
-2 2 6 72.776 72.414 1.607 o
-2 2 7 34.823 33.864 0.762 o
-2 2 8 28.342 28.590 0.637 o
-2 2 9 16.829 17.044 0.383 o
-2 2 10 89.992 90.196 1.982 o
-2 2 11 14.003 13.443 0.312 o
-2 2 12 109.793 108.628 2.387 o
-2 2 13 30.507 30.614 0.687 o
-2 2 14 13.447 13.459 0.303 o
-2 2 15 2.089 2.218 0.078 o
-2 2 16 37.030 36.942 0.821 o
-2 2 17 54.477 54.842 1.232 o
-2 2 18 27.258 27.373 0.662 o
-2 2 19 8.105 7.925 0.198 o
-2 2 20 6.904 6.751 0.187 o
-2 2 21 0.589 0.504 0.056 o
-2 2 22 9.344 9.645 0.236 o
-2 2 23 10.468 10.317 0.339 o
-2 2 24 0.470 0.404 0.072 o
-2 2 25 14.748 14.386 0.405 o
-2 3 1 140.878 142.378 3.219 o
-2 3 2 67.742 67.560 1.421 o
-2 3 3 1.432 1.569 0.118 o
-2 3 4 9.512 9.120 0.225 o
-2 3 5 6.725 6.513 0.207 o
-2 3 6 371.044 361.233 8.321 o
-2 3 7 83.506 81.893 1.776 o
-2 3 8 25.551 25.412 0.559 o
-2 3 9 8.006 8.106 0.202 o
-2 3 10 22.557 22.241 0.532 o
-2 3 11 20.074 20.244 0.467 o
-2 3 12 84.880 84.050 2.531 o
-2 3 13 3.725 3.855 0.110 o
-2 3 14 4.972 4.952 0.133 o
-2 3 15 11.359 11.450 0.316 o
-2 3 16 32.279 32.739 0.722 o
-2 3 17 4.465 4.640 0.155 o
-2 3 18 8.957 9.229 0.229 o
-2 3 19 1.387 1.431 0.097 o
-2 3 20 15.007 15.316 0.377 o
-2 3 22 10.835 10.811 0.259 o
-2 3 23 1.202 1.299 0.249 o
-2 3 24 1.572 1.582 0.173 o
-2 4 1 16.548 16.299 0.352 o
-2 4 2 61.479 60.221 1.360 o
-2 4 3 33.397 32.498 0.670 o
-2 4 4 0.415 0.464 0.051 o
-2 4 5 33.949 34.132 0.749 o
-2 4 6 3.748 3.852 0.120 o
-2 4 7 37.145 36.970 0.789 o
-2 4 8 0.541 0.540 0.047 o
-2 4 9 0.281 0.345 0.050 o
-2 4 10 23.842 23.536 0.510 o
-2 4 11 17.725 18.378 0.382 o
-2 4 13 10.640 10.497 0.253 o
-2 4 14 8.459 8.582 0.268 o
-2 4 15 10.116 10.370 0.254 o
-2 4 16 14.148 14.940 0.342 o
-2 4 17 10.716 10.778 0.262 o
-2 4 18 1.112 1.027 0.109 o
-2 4 20 2.579 2.584 0.143 o
-2 4 21 2.243 2.329 0.247 o
-2 5 1 0.299 0.278 0.037 o
-2 5 2 15.598 15.515 0.457 o
-2 5 3 3.323 3.211 0.106 o
-2 5 4 3.382 3.478 0.120 o
-2 5 5 4.140 4.071 0.125 o
-2 5 7 0.254 0.232 0.048 o
-2 5 8 1.118 1.094 0.088 o
-2 5 9 0.956 0.829 0.125 o
-2 5 10 3.100 3.181 0.538 o
-2 5 11 0.553 0.526 0.081 o
-2 5 12 0.907 0.838 0.173 o
-2 5 13 5.539 5.527 0.252 o
-2 5 14 2.352 2.303 0.109 o
-2 5 16 12.845 13.019 0.858 o
-2 5 17 0.603 0.620 0.093 o
-2 5 19 1.413 1.204 0.203 o
-2 6 1 0.574 0.600 0.061 o
-2 6 3 14.965 14.834 1.031 o
-2 6 5 8.586 8.551 0.363 o
-2 6 7 3.420 3.339 0.144 o
-2 6 8 1.833 1.966 0.122 o
-2 6 9 2.820 2.720 0.137 o
-2 6 11 5.931 6.010 0.306 o
-2 6 12 0.415 0.397 0.094 o
-2 6 14 1.463 1.527 0.170 o
-2 6 15 5.487 5.268 0.266 o
-2 6 16 0.578 0.529 0.140 o
-2 7 4 1.332 1.378 0.181 o
-2 7 6 3.026 2.858 0.224 o
-2 7 7 4.194 4.246 0.251 o
-2 7 8 3.473 3.415 0.235 o
-2 7 10 1.350 1.214 0.188 o
-2 7 11 2.887 2.979 0.225 o
-2 7 12 0.864 0.741 0.152 o
-1 0 2 775.388 718.073 15.963 o
-1 0 4 876.248 834.809 62.776 o
-1 0 6 218.667 205.811 4.772 o
-1 0 8 514.274 513.583 11.584 o
-1 0 10 2.989 3.110 0.113 o
-1 0 12 111.778 112.577 2.470 o
-1 0 14 48.693 48.403 1.070 o
-1 0 16 22.398 22.594 0.490 o
-1 0 18 59.714 61.033 1.307 o
-1 0 20 43.000 43.401 0.887 o
-1 0 22 0.645 0.578 0.071 o
-1 0 24 21.410 21.164 1.034 o
-1 0 26 6.394 5.892 0.257 o
-1 1 2 151.789 156.514 4.434 o
-1 1 3 340.507 352.917 11.225 o
-1 1 4 241.616 254.892 6.230 o
-1 1 5 1.055 1.082 0.044 o
-1 1 6 0.487 0.512 0.047 o
-1 1 7 426.875 423.060 9.809 o
-1 1 8 96.952 95.158 2.148 o
-1 1 9 168.875 172.149 3.954 o
-1 1 11 74.235 74.062 1.627 o
-1 1 12 86.715 88.494 1.952 o
-1 1 13 5.588 5.653 0.135 o
-1 1 14 45.779 45.587 1.002 o
-1 1 15 10.615 10.336 0.234 o
-1 1 16 6.397 6.354 0.150 o
-1 1 17 1.779 1.779 0.059 o
-1 1 18 14.620 14.754 0.331 o
-1 1 19 9.745 9.408 0.235 o
-1 1 20 2.720 2.880 0.094 o
-1 1 21 13.594 13.928 0.315 o
-1 1 22 12.252 12.103 0.301 o
-1 1 23 1.591 1.653 0.075 o
-1 1 24 0.621 0.530 0.051 o
-1 1 25 1.319 1.456 0.101 o
-1 2 1 144.472 141.809 3.237 o
-1 2 2 8.556 8.396 0.230 o
-1 2 3 175.139 173.760 3.980 o
-1 2 4 234.380 232.215 5.248 o
-1 2 5 504.193 499.698 11.294 o
-1 2 6 19.340 18.861 0.431 o
-1 2 7 1.416 1.437 0.071 o
-1 2 8 47.034 46.492 1.071 o
-1 2 9 7.903 7.894 0.187 o
-1 2 10 188.222 186.587 4.140 o
-1 2 11 73.932 73.479 1.607 o
-1 2 12 34.018 34.063 0.759 o
-1 2 13 12.850 12.623 0.292 o
-1 2 14 1.214 1.192 0.052 o
-1 2 15 12.355 12.059 0.291 o
-1 2 18 5.525 5.226 0.136 o
-1 2 19 4.040 4.013 0.122 o
-1 2 20 47.932 46.575 0.951 o
-1 2 21 0.987 1.093 0.069 o
-1 2 22 18.583 18.969 0.438 o
-1 2 24 0.351 0.375 0.069 o
-1 2 25 0.554 0.427 0.137 o
-1 3 2 32.207 32.543 0.783 o
-1 3 3 13.653 13.620 0.312 o
-1 3 4 56.433 55.981 1.375 o
-1 3 5 0.688 0.846 0.061 o
-1 3 6 107.407 105.735 2.307 o
-1 3 7 1.705 1.767 0.068 o
-1 3 8 6.467 6.521 0.176 o
-1 3 9 1.144 1.160 0.063 o
-1 3 10 32.013 32.253 0.698 o
-1 3 11 42.469 42.679 1.075 o
-1 3 12 0.209 0.267 0.044 o
-1 3 13 1.156 1.120 0.071 o
-1 3 14 26.450 26.857 0.630 o
-1 3 15 5.939 5.869 0.152 o
-1 3 16 113.661 114.587 2.390 o
-1 3 17 11.523 11.708 0.273 o
-1 3 18 1.092 1.087 0.100 o
-1 3 19 3.985 3.908 0.137 o
-1 3 20 0.224 0.316 0.068 o
-1 3 21 12.587 13.027 0.404 o
-1 3 22 5.306 5.351 0.162 o
-1 3 23 2.100 2.144 0.122 o
-1 4 1 6.165 6.072 0.150 o
-1 4 2 9.434 9.581 0.242 o
-1 4 4 0.423 0.457 0.041 o
-1 4 5 60.782 59.962 1.343 o
-1 4 6 82.158 80.507 2.130 o
-1 4 7 28.589 27.832 0.676 o
-1 4 8 7.759 7.996 0.234 o
-1 4 9 1.287 1.338 0.086 o
-1 4 11 2.935 2.971 0.106 o
-1 4 12 20.355 20.590 0.519 o
-1 4 13 0.304 0.247 0.044 o
-1 4 14 3.411 3.369 0.110 o
-1 4 15 37.362 37.234 0.701 o
-1 4 16 4.081 4.048 0.140 o
-1 4 17 10.150 9.998 0.247 o
-1 4 20 9.595 9.828 0.382 o
-1 4 21 2.402 2.305 0.242 o
-1 5 1 9.864 9.941 0.229 o
-1 5 2 69.540 68.281 2.087 o
-1 5 3 1.100 1.210 0.071 o
-1 5 4 4.696 4.913 0.140 o
-1 5 6 31.242 30.540 0.960 o
-1 5 7 0.918 0.976 0.079 o
-1 5 8 0.785 0.663 0.168 o
-1 5 9 6.783 6.933 0.197 o
-1 5 10 14.177 14.289 0.425 o
-1 5 11 1.483 1.543 0.094 o
-1 5 12 13.529 13.197 0.304 o
-1 5 14 1.771 1.799 0.105 o
-1 5 15 1.113 1.114 0.088 o
-1 5 17 0.465 0.289 0.084 o
-1 6 1 2.174 1.984 0.107 o
-1 6 2 6.379 6.280 0.272 o
-1 6 4 1.692 1.856 0.110 o
-1 6 5 0.767 0.718 0.085 o
-1 6 6 8.470 8.789 0.908 o
-1 6 7 8.630 9.024 0.240 o
-1 6 8 2.469 2.602 0.132 o
-1 6 10 0.484 0.464 0.085 o
-1 6 13 3.142 2.666 0.225 o
-1 6 15 4.992 5.149 0.261 o
-1 6 16 0.554 0.399 0.128 o
-1 7 1 1.414 1.508 0.181 o
-1 7 3 3.118 3.097 0.225 o
-1 7 4 3.186 3.244 0.228 o
-1 7 6 3.709 3.406 0.240 o
-1 7 11 4.152 4.477 0.253 o
0 0 2 155.368 144.367 4.587 o
0 0 4 70.523 71.099 1.617 o
0 0 6 1024.460 919.549 48.042 o
0 0 8 292.025 296.729 6.815 o
0 0 10 407.494 402.957 9.229 o
0 0 12 14.076 14.153 0.330 o
0 0 14 52.699 52.879 1.145 o
0 0 16 10.788 11.244 0.252 o
0 0 18 0.633 1.648 0.084 o
0 0 20 10.470 11.543 0.277 o
0 0 22 16.039 16.513 0.365 o
0 0 24 1.321 1.814 0.103 o
0 1 1 459.924 483.132 10.885 o
0 1 2 90.375 92.988 2.120 o
0 1 3 19.995 18.422 0.418 o
0 1 4 1570.294 1513.016 51.785 o
0 1 5 69.601 72.436 1.611 o
0 1 6 322.537 316.450 7.180 o
0 1 7 36.969 36.179 0.812 o
0 1 8 28.973 28.033 0.655 o
0 1 9 38.435 38.075 0.877 o
0 1 10 149.446 148.274 3.341 o
0 1 11 207.129 202.862 4.773 o
0 1 12 0.206 0.189 0.025 o
0 1 13 26.033 25.570 0.559 o
0 1 14 9.045 8.871 0.202 o
0 1 15 3.523 3.564 0.089 o
0 1 16 3.540 3.616 0.102 o
0 1 17 19.730 19.876 0.444 o
0 1 18 25.237 25.304 0.571 o
0 1 19 50.263 50.983 1.106 o
0 1 20 3.053 3.055 0.091 o
0 1 21 16.047 15.925 0.358 o
0 1 22 4.112 4.195 0.126 o
0 1 23 10.668 10.258 0.239 o
0 1 24 3.961 4.065 0.125 o
0 1 25 1.011 0.946 0.087 o
0 2 0 12.951 13.853 0.342 o
0 2 1 75.848 74.206 1.673 o
0 2 2 132.361 132.674 3.072 o
0 2 4 189.580 188.385 4.298 o
0 2 5 48.249 49.688 1.129 o
0 2 6 5.391 5.401 0.141 o
0 2 7 139.890 140.218 3.164 o
0 2 8 0.465 0.490 0.041 o
0 2 9 54.479 54.868 1.198 o
0 2 10 26.625 26.048 0.591 o
0 2 11 1.374 1.404 0.055 o
0 2 12 16.756 16.724 0.374 o
0 2 13 10.015 9.875 0.229 o
0 2 14 57.936 57.352 1.265 o
0 2 15 96.661 97.033 2.090 o
0 2 16 2.664 2.698 0.082 o
0 2 18 11.646 11.753 0.291 o
0 2 19 12.149 11.935 0.298 o
0 2 20 25.385 25.181 0.564 o
0 2 21 13.232 12.882 0.308 o
0 2 22 0.403 0.434 0.075 o
0 2 23 4.061 3.922 0.138 o
0 2 24 7.052 7.397 0.205 o
0 3 1 50.198 50.023 1.131 o
0 3 2 115.771 116.217 2.634 o
0 3 3 85.416 86.968 1.912 o
0 3 4 57.455 56.847 1.233 o
0 3 5 15.887 15.939 0.369 o
0 3 6 0.191 0.259 0.030 o
0 3 7 0.963 1.036 0.053 o
0 3 8 99.625 98.769 2.133 o
0 3 9 41.631 41.353 0.864 o
0 3 10 1.270 1.245 0.062 o
0 3 11 1.417 1.505 0.069 o
0 3 12 6.836 8.809 0.307 o
0 3 14 27.724 27.464 0.583 o
0 3 15 0.235 0.305 0.044 o
0 3 16 1.182 1.171 0.073 o
0 3 17 5.141 5.034 0.142 o
0 3 18 4.584 4.988 0.151 o
0 3 19 0.386 0.359 0.058 o
0 3 20 12.003 12.261 0.283 o
0 3 21 2.593 2.548 0.104 o
0 3 22 4.215 4.069 0.138 o
0 4 0 2.806 2.829 0.132 o
0 4 1 12.072 11.988 0.269 o
0 4 2 57.045 56.626 1.302 o
0 4 3 3.993 3.943 0.109 o
0 4 4 11.940 12.105 0.315 o
0 4 5 76.150 75.655 1.607 o
0 4 6 6.274 6.427 0.167 o
0 4 7 0.161 0.187 0.034 o
0 4 8 5.651 5.537 0.182 o
0 4 9 6.240 6.164 0.170 o
0 4 10 16.556 16.394 0.354 o
0 4 11 0.627 0.567 0.048 o
0 4 12 23.866 24.065 0.510 o
0 4 13 6.082 6.018 0.163 o
0 4 15 25.815 25.619 0.534 o
0 4 16 16.338 16.222 0.372 o
0 4 17 0.776 0.747 0.226 o
0 4 18 2.250 2.086 0.132 o
0 4 19 3.411 3.352 0.311 o
0 4 20 3.885 3.582 0.277 o
0 5 2 7.106 7.137 0.177 o
0 5 3 1.153 1.184 0.118 o
0 5 4 23.689 23.893 0.495 o
0 5 5 3.082 3.205 0.127 o
0 5 6 71.853 71.367 3.285 o
0 5 8 6.209 5.992 0.164 o
0 5 11 3.658 3.770 0.150 o
0 5 12 7.748 8.170 0.227 o
0 5 13 0.988 0.979 0.083 o
0 5 14 13.628 13.770 0.312 o
0 5 15 1.636 1.546 0.096 o
0 5 16 22.880 23.130 0.609 o
0 5 18 0.901 0.949 0.182 o
0 6 0 16.586 16.507 0.412 o
0 6 1 5.569 5.236 0.251 o
0 6 2 9.162 9.080 0.229 o
0 6 3 3.743 4.022 0.203 o
0 6 4 0.686 0.811 0.102 o
0 6 5 26.973 27.417 0.605 o
0 6 8 0.813 0.930 0.094 o
0 6 9 0.504 0.506 0.083 o
0 6 10 11.103 11.286 0.530 o
0 6 11 1.284 1.143 0.104 o
0 6 12 4.469 4.854 0.278 o
0 6 13 4.381 4.546 0.166 o
0 6 15 1.627 1.755 0.194 o
0 7 1 7.934 7.837 0.302 o
0 7 3 0.583 0.598 0.147 o
0 7 5 0.830 0.771 0.157 o
0 7 8 0.968 0.908 0.166 o
0 7 9 6.360 6.325 0.296 o
0 7 10 1.693 1.604 0.195 o
0 7 11 0.778 0.783 0.158 o
1 0 2 10.057 10.916 0.297 o
1 0 6 233.695 229.496 5.301 o
1 0 8 74.645 72.122 1.696 o
1 0 10 687.453 694.426 15.660 o
1 0 12 6.316 5.955 0.143 o
1 0 14 86.407 86.027 1.924 o
1 0 16 12.480 12.543 0.288 o
1 0 18 86.740 87.596 2.081 o
1 0 20 89.832 90.935 2.078 o
1 0 22 4.394 4.087 0.153 o
1 0 24 1.215 1.115 0.086 o
1 1 0 1594.460 1425.343 31.162 o
1 1 1 40.870 39.344 0.861 o
1 1 2 443.449 445.184 17.801 o
1 1 3 826.723 745.982 16.748 o
1 1 4 66.853 68.471 1.528 o
1 1 5 116.992 117.300 2.662 o
1 1 6 210.084 216.935 4.933 o
1 1 7 18.744 18.778 0.436 o
1 1 8 91.807 93.467 2.115 o
1 1 9 192.494 192.334 4.377 o
1 1 10 72.910 73.772 1.642 o
1 1 12 1.938 1.968 0.058 o
1 1 13 6.984 6.753 0.161 o
1 1 14 126.055 126.758 2.781 o
1 1 15 4.166 4.258 0.109 o
1 1 16 23.313 23.220 0.511 o
1 1 17 3.805 3.606 0.092 o
1 1 18 4.280 4.103 0.104 o
1 1 19 11.700 11.736 0.266 o
1 1 20 5.185 5.189 0.131 o
1 1 21 9.817 9.896 0.231 o
1 1 22 2.992 2.947 0.089 o
1 1 23 8.374 8.271 0.201 o
1 1 24 14.116 13.726 0.304 o
1 2 0 316.034 324.981 7.339 o
1 2 1 272.123 271.510 6.128 o
1 2 2 0.100 0.119 0.023 o
1 2 3 360.781 361.268 8.104 o
1 2 4 19.906 19.887 0.460 o
1 2 5 90.589 91.760 2.056 o
1 2 6 163.420 162.989 3.697 o
1 2 7 82.267 82.194 1.831 o
1 2 8 6.085 5.721 0.157 o
1 2 9 7.317 7.284 0.174 o
1 2 10 4.725 4.550 0.131 o
1 2 11 8.608 8.636 0.198 o
1 2 12 14.720 14.522 0.324 o
1 2 13 27.303 27.177 0.605 o
1 2 14 6.485 6.595 0.172 o
1 2 15 0.891 0.868 0.041 o
1 2 16 5.449 5.490 0.136 o
1 2 17 4.046 4.085 0.112 o
1 2 18 0.140 0.158 0.041 o
1 2 19 5.918 5.885 0.173 o
1 2 20 0.516 0.524 0.051 o
1 2 21 2.258 2.253 0.106 o
1 2 22 11.238 10.952 0.258 o
1 2 23 0.438 0.512 0.073 o
1 2 24 9.717 9.471 0.323 o
1 3 0 19.649 18.904 0.513 o
1 3 1 32.264 30.365 0.737 o
1 3 2 46.511 45.882 1.000 o
1 3 4 7.938 7.791 0.207 o
1 3 5 22.424 21.169 0.545 o
1 3 6 43.530 43.460 0.968 o
1 3 7 19.191 18.928 0.420 o
1 3 8 24.943 25.002 0.543 o
1 3 9 10.135 9.835 0.235 o
1 3 10 0.768 0.703 0.042 o
1 3 11 15.416 14.936 0.372 o
1 3 12 33.882 33.957 0.740 o
1 3 13 28.441 28.665 0.587 o
1 3 14 14.730 14.828 0.327 o
1 3 15 0.902 0.909 0.062 o
1 3 16 0.293 0.225 0.047 o
1 3 17 1.541 1.545 0.080 o
1 3 18 35.993 35.977 0.927 o
1 3 19 14.705 14.297 0.328 o
1 3 20 0.280 0.236 0.056 o
1 3 21 1.176 1.154 0.079 o
1 4 0 17.387 17.661 0.380 o
1 4 1 0.568 0.651 0.054 o
1 4 2 55.215 55.801 1.031 o
1 4 3 14.492 14.563 0.357 o
1 4 4 2.865 2.962 0.104 o
1 4 5 51.486 52.005 1.066 o
1 4 6 8.097 8.037 0.194 o
1 4 7 1.297 1.264 0.066 o
1 4 8 58.143 58.542 1.428 o
1 4 9 11.755 11.900 0.359 o
1 4 11 1.340 1.378 0.069 o
1 4 12 1.544 1.529 0.074 o
1 4 13 7.893 7.766 0.232 o
1 4 14 1.738 1.669 0.094 o
1 4 15 17.967 18.308 0.401 o
1 4 16 12.485 12.364 0.448 o
1 4 17 4.029 3.833 0.433 o
1 4 18 0.740 0.657 0.096 o
1 4 19 4.246 4.065 0.266 o
1 4 20 2.491 2.424 0.249 o
1 5 0 4.244 4.160 0.114 o
1 5 2 11.934 12.062 0.270 o
1 5 3 0.578 0.635 0.056 o
1 5 4 87.751 89.200 1.820 o
1 5 5 4.074 4.096 0.149 o
1 5 6 0.194 0.155 0.046 o
1 5 7 0.950 1.064 0.105 o
1 5 8 7.559 7.955 0.201 o
1 5 9 0.700 0.753 0.081 o
1 5 10 2.183 2.281 0.120 o
1 5 11 0.906 0.839 0.203 o
1 5 12 21.423 20.761 0.429 o
1 5 13 0.342 0.379 0.075 o
1 5 14 18.889 18.677 0.424 o
1 5 16 6.719 6.370 0.193 o
1 6 0 5.944 5.832 0.280 o
1 6 1 5.587 5.662 0.265 o
1 6 2 2.583 2.590 0.123 o
1 6 3 0.628 0.567 0.178 o
1 6 4 4.968 4.886 0.554 o
1 6 5 11.112 10.920 0.412 o
1 6 6 3.735 3.770 0.153 o
1 6 7 0.291 0.259 0.075 o
1 6 8 11.781 11.944 0.614 o
1 6 9 10.897 11.301 0.280 o
1 6 10 6.113 6.416 0.353 o
1 6 13 2.201 2.266 0.215 o
1 6 14 0.598 0.516 0.143 o
1 6 15 11.287 11.123 0.349 o
1 7 0 1.900 1.687 0.186 o
1 7 1 1.520 1.602 0.188 o
1 7 2 0.646 0.438 0.139 o
1 7 4 1.515 1.479 0.198 o
1 7 5 3.491 3.266 0.212 o
1 7 9 4.229 4.288 0.256 o
1 7 11 2.441 2.151 0.205 o
2 0 0 24.602 25.765 0.416 o
2 0 4 7.971 8.269 0.197 o
2 0 6 4.188 4.003 0.125 o
2 0 8 104.878 103.705 2.394 o
2 0 10 34.512 34.485 0.755 o
2 0 12 77.196 77.239 1.683 o
2 0 14 98.049 99.249 2.161 o
2 0 16 35.752 35.980 0.795 o
2 0 18 5.051 5.245 0.165 o
2 0 20 19.028 19.604 0.444 o
2 0 22 15.365 14.952 0.378 o
2 0 24 34.364 34.276 0.655 o
2 1 0 356.177 295.053 6.857 o
2 1 1 65.336 68.252 1.517 o
2 1 2 2.805 2.704 0.072 o
2 1 3 477.351 481.869 10.836 o
2 1 4 9.908 9.332 0.226 o
2 1 5 21.017 20.540 0.467 o
2 1 6 430.881 424.384 9.542 o
2 1 7 31.081 30.438 0.693 o
2 1 8 48.459 47.734 1.070 o
2 1 9 179.222 177.643 3.993 o
2 1 10 42.467 42.498 0.940 o
2 1 11 1.781 1.715 0.052 o
2 1 12 24.066 24.151 0.536 o
2 1 13 119.497 119.241 2.651 o
2 1 14 3.150 3.092 0.079 o
2 1 15 5.241 5.309 0.126 o
2 1 16 0.445 0.402 0.028 o
2 1 17 4.416 4.438 0.110 o
2 1 18 21.117 21.489 0.479 o
2 1 19 33.908 33.933 0.751 o
2 1 20 25.152 25.106 0.572 o
2 1 21 9.437 9.295 0.236 o
2 1 22 0.619 0.620 0.045 o
2 1 23 7.045 6.874 0.172 o
2 1 24 8.509 8.513 0.228 o
2 2 0 534.625 516.347 11.572 o
2 2 1 1.690 1.707 0.065 o
2 2 2 2.926 3.109 0.092 o
2 2 3 17.352 17.344 0.404 o
2 2 4 1.220 1.264 0.058 o
2 2 5 150.895 152.842 3.461 o
2 2 6 10.498 10.308 0.257 o
2 2 7 56.445 56.483 1.271 o
2 2 8 56.066 56.173 1.244 o
2 2 9 76.656 78.003 1.747 o
2 2 10 75.457 75.075 1.678 o
2 2 11 31.644 31.749 0.713 o
2 2 12 0.427 0.461 0.030 o
2 2 13 35.478 35.863 0.794 o
2 2 14 1.609 1.670 0.054 o
2 2 15 12.658 12.655 0.285 o
2 2 16 12.604 12.773 0.288 o
2 2 17 46.396 46.405 1.043 o
2 2 18 2.270 2.188 0.081 o
2 2 20 1.954 2.046 0.089 o
2 2 22 3.032 3.027 0.104 o
2 2 23 11.146 11.380 0.258 o
2 3 0 12.735 12.188 0.603 o
2 3 1 29.746 29.003 0.645 o
2 3 2 89.164 87.581 1.915 o
2 3 3 4.520 4.409 0.135 o
2 3 4 215.353 211.946 4.700 o
2 3 5 7.397 7.596 0.179 o
2 3 6 2.339 2.405 0.075 o
2 3 7 29.400 29.120 0.667 o
2 3 8 1.778 1.715 0.062 o
2 3 9 1.440 1.429 0.056 o
2 3 10 2.474 2.358 0.108 o
2 3 11 0.190 0.203 0.028 o
2 3 12 3.750 3.783 0.101 o
2 3 13 0.120 0.113 0.032 o
2 3 14 8.395 8.348 0.202 o
2 3 15 5.081 4.976 0.132 o
2 3 16 3.683 3.792 0.125 o
2 3 17 0.216 0.240 0.043 o
2 3 18 1.542 1.582 0.072 o
2 3 19 0.313 0.274 0.051 o
2 3 20 0.313 0.284 0.055 o
2 3 21 1.722 1.623 0.086 o
2 3 22 4.696 4.724 0.201 o
2 4 0 12.463 12.468 0.286 o
2 4 2 1.951 2.029 0.082 o
2 4 3 53.935 54.490 1.158 o
2 4 4 54.031 52.812 1.262 o
2 4 5 18.212 18.189 0.408 o
2 4 6 3.494 3.346 0.114 o
2 4 7 17.867 18.045 0.400 o
2 4 8 5.067 5.079 0.129 o
2 4 9 6.599 6.818 0.190 o
2 4 10 1.696 1.655 0.072 o
2 4 11 0.228 0.267 0.043 o
2 4 12 33.999 33.753 0.798 o
2 4 13 11.421 11.221 0.271 o
2 4 14 7.651 7.563 0.256 o
2 4 15 5.491 5.392 0.181 o
2 4 17 6.114 6.378 0.198 o
2 4 18 10.589 10.378 0.489 o
2 4 19 3.636 3.634 0.260 o
2 5 0 11.006 10.937 0.246 o
2 5 1 3.682 3.610 0.105 o
2 5 2 1.767 1.635 0.132 o
2 5 3 1.294 1.240 0.065 o
2 5 4 2.864 2.945 0.107 o
2 5 5 1.229 1.181 0.075 o
2 5 6 1.812 1.942 0.089 o
2 5 7 0.224 0.261 0.053 o
2 5 8 68.542 69.754 1.702 o
2 5 9 5.429 5.510 0.177 o
2 5 10 3.533 3.621 0.168 o
2 5 11 0.307 0.336 0.074 o
2 5 12 0.812 0.826 0.089 o
2 5 13 1.514 1.531 0.111 o
2 5 14 17.639 17.404 1.143 o
2 5 15 1.106 1.236 0.184 o
2 6 0 0.827 0.805 0.065 o
2 6 1 0.525 0.454 0.060 o
2 6 2 6.712 6.831 0.265 o
2 6 3 12.047 12.699 0.293 o
2 6 4 6.473 6.751 0.197 o
2 6 5 0.204 0.224 0.061 o
2 6 6 0.306 0.239 0.073 o
2 6 7 5.229 5.235 0.166 o
2 6 8 0.695 0.754 0.074 o
2 6 9 0.539 0.619 0.089 o
2 6 11 3.236 3.108 0.143 o
2 6 12 7.239 7.103 0.307 o
2 6 13 0.616 0.559 0.149 o
2 6 14 4.052 3.894 0.237 o
2 7 0 1.148 0.935 0.151 o
2 7 1 2.127 1.877 0.198 o
2 7 3 1.995 2.039 0.209 o
2 7 4 4.070 3.916 0.247 o
2 7 6 2.004 1.941 0.207 o
2 7 7 2.905 2.928 0.231 o
3 0 0 389.114 320.792 7.271 o
3 0 2 196.576 194.728 4.547 o
3 0 4 22.201 21.026 0.698 o
3 0 6 594.182 592.301 13.317 o
3 0 8 10.325 10.405 0.260 o
3 0 10 1.206 1.144 0.047 o
3 0 12 277.702 280.496 6.218 o
3 0 14 3.609 3.728 0.101 o
3 0 16 11.030 10.926 0.261 o
3 0 18 10.263 10.472 0.247 o
3 0 20 35.813 35.928 0.753 o
3 0 22 34.201 34.178 0.735 o
3 0 24 1.713 1.950 0.235 o
3 1 0 114.594 111.150 2.473 o
3 1 1 445.129 422.310 11.449 o
3 1 2 448.146 454.627 10.211 o
3 1 3 41.176 41.836 0.930 o
3 1 4 11.594 11.515 0.295 o
3 1 5 5.641 5.287 0.147 o
3 1 6 4.832 4.994 0.143 o
3 1 7 29.577 29.242 0.668 o
3 1 8 37.336 38.151 0.867 o
3 1 9 1.419 1.473 0.054 o
3 1 10 84.568 84.808 1.876 o
3 1 11 13.789 13.480 0.302 o
3 1 12 10.880 11.028 0.254 o
3 1 13 35.841 36.189 0.801 o
3 1 14 0.599 0.684 0.031 o
3 1 15 3.056 2.967 0.079 o
3 1 16 58.229 58.863 1.308 o
3 1 17 1.334 1.382 0.056 o
3 1 18 2.867 2.849 0.097 o
3 1 19 7.748 7.725 0.185 o
3 1 20 0.479 0.446 0.038 o
3 1 21 4.299 4.302 0.112 o
3 1 22 0.927 0.897 0.055 o
3 1 23 22.746 22.268 0.488 o
3 2 0 1.819 1.895 0.072 o
3 2 1 7.667 7.749 0.201 o
3 2 2 272.344 276.951 6.290 o
3 2 3 102.035 101.865 2.307 o
3 2 4 91.926 91.487 2.031 o
3 2 5 61.423 61.019 1.415 o
3 2 6 44.368 44.510 1.058 o
3 2 7 3.565 3.725 0.101 o
3 2 8 102.580 102.330 2.469 o
3 2 9 2.299 2.236 0.063 o
3 2 10 11.048 11.182 0.254 o
3 2 11 9.074 9.251 0.213 o
3 2 12 21.512 21.463 0.476 o
3 2 13 2.891 2.932 0.080 o
3 2 14 8.060 7.820 0.185 o
3 2 15 1.253 1.200 0.056 o
3 2 16 1.924 1.912 0.071 o
3 2 17 6.908 7.019 0.173 o
3 2 18 20.652 20.792 0.500 o
3 2 19 14.481 14.424 0.325 o
3 2 20 6.402 6.340 0.175 o
3 2 21 5.395 5.269 0.146 o
3 2 22 1.891 1.701 0.089 o
3 2 23 1.190 0.915 0.188 o
3 3 0 70.341 71.896 1.501 o
3 3 1 2.175 2.053 0.081 o
3 3 2 20.646 20.646 0.481 o
3 3 3 98.617 96.498 2.085 o
3 3 4 105.722 105.103 2.269 o
3 3 5 0.130 0.127 0.028 o
3 3 6 19.796 20.157 0.441 o
3 3 7 2.094 2.109 0.078 o
3 3 8 112.589 113.627 2.575 o
3 3 9 34.529 35.538 0.777 o
3 3 10 0.257 0.223 0.029 o
3 3 11 15.649 15.728 0.346 o
3 3 12 32.259 32.041 0.707 o
3 3 13 12.022 11.848 0.268 o
3 3 14 48.244 48.549 1.045 o
3 3 15 4.414 4.583 0.124 o
3 3 16 8.007 8.160 0.196 o
3 3 17 7.063 7.040 0.174 o
3 3 18 2.060 2.174 0.083 o
3 3 19 0.763 0.722 0.055 o
3 3 20 0.486 0.511 0.061 o
3 3 21 3.664 3.687 0.124 o
3 3 22 5.903 6.014 0.281 o
3 4 0 6.047 6.046 0.165 o
3 4 1 0.285 0.276 0.045 o
3 4 2 2.228 2.127 0.089 o
3 4 3 18.022 17.853 0.466 o
3 4 4 36.862 37.142 1.187 o
3 4 5 0.201 0.235 0.041 o
3 4 6 0.284 0.305 0.038 o
3 4 7 53.785 54.642 1.237 o
3 4 8 19.611 20.225 0.426 o
3 4 9 9.657 9.610 0.225 o
3 4 10 10.850 10.582 0.264 o
3 4 12 1.687 1.721 0.088 o
3 4 13 13.153 12.760 0.300 o
3 4 14 3.096 3.027 0.116 o
3 4 16 2.238 2.287 0.107 o
3 4 17 15.725 15.622 0.345 o
3 4 18 9.220 9.003 0.355 o
3 5 0 16.596 16.082 0.356 o
3 5 1 8.929 8.567 0.256 o
3 5 2 2.870 2.956 0.134 o
3 5 5 1.832 1.794 0.077 o
3 5 6 14.874 14.499 0.326 o
3 5 7 4.524 4.535 0.137 o
3 5 8 1.597 1.535 0.094 o
3 5 9 0.378 0.389 0.060 o
3 5 12 1.523 1.480 0.108 o
3 5 13 0.337 0.341 0.077 o
3 5 14 1.495 1.456 0.186 o
3 6 0 0.052 0.379 0.100 o
3 6 1 0.927 0.748 0.066 o
3 6 2 1.203 1.150 0.071 o
3 6 3 0.598 0.889 0.091 o
3 6 4 1.024 1.072 0.113 o
3 6 5 3.089 3.076 0.155 o
3 6 6 0.697 0.782 0.074 o
3 6 7 13.638 14.049 0.375 o
3 6 8 0.223 0.200 0.063 o
3 6 9 0.647 0.963 0.096 o
3 6 10 1.947 2.067 0.123 o
3 6 11 2.341 2.187 0.220 o
3 6 12 2.533 2.613 0.223 o
3 6 13 3.655 3.518 0.233 o
3 7 0 1.158 1.107 0.179 o
3 7 2 3.411 3.403 0.232 o
3 7 3 4.391 4.120 0.247 o
3 7 4 0.675 0.645 0.155 o
3 7 6 0.567 0.556 0.154 o
3 7 8 1.111 1.009 0.167 o
3 7 9 1.770 1.928 0.201 o
3 7 10 1.382 1.363 0.181 o
4 0 0 45.392 45.589 1.138 o
4 0 4 38.900 38.813 0.924 o
4 0 6 13.194 12.694 0.315 o
4 0 8 1.040 1.024 0.049 o
4 0 10 4.268 4.376 0.111 o
4 0 12 2.912 2.924 0.083 o
4 0 16 48.194 49.209 1.100 o
4 0 18 0.191 0.171 0.050 o
4 0 22 29.853 29.858 0.733 o
4 1 0 2.357 2.379 0.076 o
4 1 1 151.828 154.046 3.493 o
4 1 2 183.089 186.140 4.295 o
4 1 3 208.908 210.702 4.993 o
4 1 4 2.953 2.994 0.103 o
4 1 5 90.198 87.837 2.203 o
4 1 6 40.387 39.902 0.903 o
4 1 7 8.076 8.384 0.199 o
4 1 8 27.782 28.006 0.635 o
4 1 9 20.316 20.636 0.472 o
4 1 10 0.256 0.239 0.021 o
4 1 11 126.412 128.420 2.842 o
4 1 12 11.403 11.578 0.262 o
4 1 13 6.277 6.171 0.145 o
4 1 14 2.421 2.430 0.069 o
4 1 15 9.347 9.478 0.218 o
4 1 16 3.233 3.219 0.088 o
4 1 17 8.566 8.727 0.207 o
4 1 18 0.507 0.436 0.037 o
4 1 19 1.301 1.378 0.059 o
4 1 20 17.566 17.355 0.419 o
4 1 21 14.029 13.762 0.338 o
4 1 22 4.631 4.609 0.184 o
4 2 0 116.044 118.838 2.701 o
4 2 1 73.952 74.237 1.631 o
4 2 2 293.844 294.832 6.720 o
4 2 3 55.805 54.799 1.205 o
4 2 4 15.261 14.940 0.425 o
4 2 5 0.466 0.561 0.037 o
4 2 6 6.944 6.924 0.169 o
4 2 7 151.084 149.861 3.286 o
4 2 8 0.663 0.682 0.032 o
4 2 9 14.188 14.226 0.319 o
4 2 10 40.305 40.666 0.890 o
4 2 11 1.226 1.173 0.050 o
4 2 12 100.059 101.332 2.179 o
4 2 13 26.868 27.248 0.598 o
4 2 14 10.768 10.678 0.254 o
4 2 15 25.798 26.409 0.569 o
4 2 16 2.286 2.221 0.087 o
4 2 17 5.235 5.064 0.136 o
4 2 18 5.478 5.336 0.144 o
4 2 19 2.848 2.722 0.095 o
4 2 20 2.998 2.991 0.179 o
4 2 21 2.262 2.148 0.095 o
4 2 22 12.728 13.277 0.416 o
4 3 0 5.765 5.556 0.132 o
4 3 1 35.562 36.417 0.791 o
4 3 2 1.015 1.019 0.049 o
4 3 3 1.344 1.309 0.054 o
4 3 4 48.119 47.773 1.045 o
4 3 5 3.425 3.640 0.115 o
4 3 6 103.736 103.810 2.301 o
4 3 7 0.301 0.329 0.033 o
4 3 8 53.632 53.571 1.203 o
4 3 9 6.126 6.139 0.154 o
4 3 10 9.732 9.794 0.290 o
4 3 11 0.387 0.294 0.067 o
4 3 13 13.150 12.902 0.293 o
4 3 16 22.732 22.864 0.508 o
4 3 17 2.860 2.807 0.098 o
4 3 18 31.996 31.739 0.692 o
4 3 19 2.553 2.424 0.113 o
4 3 21 3.696 3.538 0.247 o
4 4 0 65.323 63.939 1.596 o
4 4 1 0.579 0.470 0.043 o
4 4 2 0.593 0.610 0.048 o
4 4 3 2.613 2.653 0.102 o
4 4 4 1.486 1.464 0.063 o
4 4 5 19.861 19.802 0.443 o
4 4 6 13.183 13.434 0.299 o
4 4 7 39.246 39.164 0.848 o
4 4 8 19.952 20.603 0.537 o
4 4 9 1.007 0.960 0.074 o
4 4 10 1.312 1.353 0.073 o
4 4 11 0.428 0.438 0.050 o
4 4 12 0.208 0.217 0.050 o
4 4 13 0.565 0.543 0.074 o
4 4 14 20.292 20.288 0.419 o
4 4 15 4.926 4.942 0.169 o
4 4 17 17.908 18.128 0.462 o
4 5 0 0.176 0.148 0.039 o
4 5 1 1.913 1.803 0.084 o
4 5 2 0.869 0.799 0.069 o
4 5 3 3.286 2.941 0.145 o
4 5 4 21.308 22.320 0.457 o
4 5 5 1.952 2.000 0.144 o
4 5 6 9.234 9.721 0.236 o
4 5 7 0.125 0.167 0.047 o
4 5 8 2.037 2.116 0.089 o
4 5 10 14.035 14.007 0.395 o
4 5 11 7.119 7.254 0.201 o
4 5 12 1.843 1.835 0.096 o
4 6 0 0.857 0.959 0.074 o
4 6 1 3.546 3.616 0.123 o
4 6 2 0.492 0.507 0.056 o
4 6 3 0.628 0.722 0.072 o
4 6 4 0.106 0.171 0.051 o
4 6 5 2.458 2.648 0.101 o
4 6 7 0.815 0.790 0.094 o
4 6 8 1.905 1.976 0.105 o
4 6 9 1.677 1.685 0.119 o
4 7 1 4.335 4.598 0.310 o
4 7 2 0.776 0.877 0.154 o
4 7 5 0.911 0.952 0.161 o
4 7 6 6.127 6.014 0.280 o
4 7 8 3.439 3.451 0.227 o
5 0 0 62.652 63.364 1.424 o
5 0 2 669.111 677.123 15.142 o
5 0 4 12.003 11.519 0.281 o
5 0 6 6.422 6.374 0.162 o
5 0 8 143.416 146.614 3.146 o
5 0 10 70.955 72.542 1.558 o
5 0 12 17.332 17.306 0.383 o
5 0 14 15.342 15.405 0.342 o
5 0 16 15.061 15.692 0.382 o
5 0 18 1.888 1.853 0.099 o
5 0 20 1.983 1.948 0.143 o
5 0 22 0.679 0.675 0.191 o
5 1 0 0.379 0.432 0.037 o
5 1 1 107.278 108.301 2.411 o
5 1 2 58.857 57.417 1.278 o
5 1 3 1.779 1.710 0.087 o
5 1 4 38.067 38.299 0.982 o
5 1 5 1.277 0.964 0.133 o
5 1 6 81.720 79.351 1.803 o
5 1 7 5.056 4.987 0.120 o
5 1 8 1.487 1.428 0.045 o
5 1 9 1.824 1.888 0.056 o
5 1 10 0.729 0.761 0.034 o
5 1 11 28.733 29.232 0.644 o
5 1 12 54.828 55.435 1.212 o
5 1 13 16.682 16.758 0.388 o
5 1 14 0.294 0.261 0.030 o
5 1 15 17.862 18.011 0.398 o
5 1 18 5.544 5.640 0.146 o
5 1 19 0.909 0.783 0.060 o
5 1 20 1.326 1.364 0.082 o
5 1 21 24.123 24.186 0.546 o
5 2 0 23.727 23.872 0.562 o
5 2 1 24.977 24.898 0.561 o
5 2 2 3.315 3.264 0.091 o
5 2 3 24.413 23.505 0.548 o
5 2 4 59.974 59.432 1.296 o
5 2 5 14.493 14.496 0.365 o
5 2 6 47.323 47.633 1.040 o
5 2 7 4.291 4.193 0.113 o
5 2 8 14.144 13.709 0.307 o
5 2 9 10.680 10.448 0.239 o
5 2 10 39.498 39.455 0.881 o
5 2 11 10.389 10.486 0.239 o
5 2 12 21.425 21.163 0.473 o
5 2 14 5.859 6.006 0.153 o
5 2 16 11.711 11.257 0.260 o
5 2 17 24.909 24.878 0.591 o
5 2 18 2.736 2.754 0.115 o
5 2 19 2.835 2.844 0.145 o
5 2 20 17.180 17.358 0.364 o
5 2 21 2.611 2.596 0.329 o
5 3 0 119.674 118.332 2.568 o
5 3 1 25.445 25.427 0.556 o
5 3 2 5.214 5.309 0.144 o
5 3 3 4.349 4.302 0.114 o
5 3 4 3.968 3.733 0.111 o
5 3 5 39.794 40.088 0.876 o
5 3 6 88.261 88.147 1.870 o
5 3 7 4.413 4.340 0.124 o
5 3 8 3.117 3.302 0.096 o
5 3 9 0.312 0.218 0.041 o
5 3 10 36.750 36.388 0.732 o
5 3 11 20.818 20.738 0.574 o
5 3 12 0.601 0.561 0.066 o
5 3 13 4.226 4.282 0.156 o
5 3 14 28.606 29.110 0.701 o
5 3 15 0.790 0.839 0.069 o
5 3 16 32.218 32.141 0.664 o
5 3 19 4.170 4.099 0.156 o
5 4 0 8.613 8.638 0.361 o
5 4 1 4.251 4.662 0.146 o
5 4 2 0.073 0.137 0.046 o
5 4 3 1.150 1.322 0.065 o
5 4 4 24.634 25.116 0.670 o
5 4 5 18.115 18.086 0.422 o
5 4 6 8.111 8.259 0.205 o
5 4 7 18.170 18.282 0.418 o
5 4 9 7.331 7.161 0.202 o
5 4 10 15.306 15.591 0.346 o
5 4 11 2.575 2.623 0.099 o
5 4 12 0.593 0.535 0.059 o
5 4 14 2.356 2.269 0.105 o
5 4 15 11.804 11.960 0.283 o
5 4 16 1.285 1.352 0.198 o
5 4 17 4.836 4.866 0.264 o
5 5 0 4.813 4.887 0.279 o
5 5 2 4.474 4.817 0.260 o
5 5 3 1.141 1.100 0.081 o
5 5 4 3.266 3.407 0.121 o
5 5 5 0.334 0.340 0.062 o
5 5 6 6.168 6.411 0.195 o
5 5 7 1.204 1.118 0.072 o
5 5 8 7.139 7.138 0.229 o
5 5 9 0.323 0.408 0.065 o
5 5 14 2.705 2.606 0.208 o
5 5 15 0.834 0.772 0.152 o
5 6 0 6.475 6.615 0.402 o
5 6 1 4.201 4.126 0.137 o
5 6 2 3.971 3.872 0.134 o
5 6 3 1.854 1.861 0.143 o
5 6 4 1.571 1.533 0.082 o
5 6 5 7.358 7.175 0.184 o
5 6 6 2.780 2.799 0.133 o
5 6 7 10.912 11.318 0.267 o
5 6 8 0.676 0.685 0.132 o
5 6 9 1.986 2.091 0.119 o
5 6 12 0.521 0.519 0.140 o
5 7 0 1.646 1.535 0.105 o
5 7 1 7.869 7.254 0.193 o
5 7 2 1.512 1.371 0.201 o
5 7 3 1.909 1.749 0.193 o
5 7 4 1.149 1.230 0.180 o
5 7 5 0.760 0.656 0.148 o
6 0 0 229.668 235.366 5.351 o
6 0 2 29.691 29.824 0.658 o
6 0 4 1.405 1.503 0.123 o
6 0 6 43.267 47.506 0.964 o
6 0 8 15.580 15.487 0.347 o
6 0 10 33.270 33.633 0.697 o
6 0 12 93.065 94.162 1.999 o
6 0 14 4.242 4.217 0.141 o
6 0 16 2.171 2.090 0.111 o
6 0 18 12.058 12.005 0.286 o
6 0 20 23.230 22.493 0.445 o
6 1 0 0.554 0.620 0.051 o
6 1 1 181.507 180.349 4.078 o
6 1 2 60.852 58.546 1.502 o
6 1 3 22.659 20.834 0.484 o
6 1 4 53.959 52.171 1.297 o
6 1 5 57.422 58.461 1.273 o
6 1 6 20.984 20.114 0.526 o
6 1 7 11.586 11.581 0.270 o
6 1 8 42.065 41.816 0.908 o
6 1 9 34.355 34.408 0.772 o
6 1 10 0.301 0.339 0.035 o
6 1 11 31.764 31.737 0.685 o
6 1 12 0.661 0.665 0.046 o
6 1 13 13.406 13.862 0.312 o
6 1 15 2.009 1.883 0.080 o
6 1 16 26.070 26.350 0.554 o
6 1 17 0.362 0.373 0.051 o
6 1 18 3.048 3.046 0.147 o
6 1 19 5.676 5.788 0.160 o
6 2 1 9.346 9.255 0.220 o
6 2 2 0.049 0.103 0.024 o
6 2 3 13.003 12.911 0.307 o
6 2 4 46.860 46.039 0.989 o
6 2 5 95.945 94.877 2.315 o
6 2 6 2.212 2.177 0.094 o
6 2 7 1.137 1.064 0.057 o
6 2 8 5.167 5.141 0.140 o
6 2 9 33.607 33.334 0.693 o
6 2 10 1.482 1.485 0.083 o
6 2 11 5.613 5.617 0.160 o
6 2 12 3.192 3.274 0.123 o
6 2 13 6.839 7.022 0.203 o
6 2 14 33.021 33.812 0.714 o
6 2 15 15.365 15.103 0.337 o
6 2 16 7.607 7.634 0.205 o
6 2 17 1.332 1.336 0.075 o
6 2 18 0.683 0.699 0.081 o
6 2 20 2.814 2.543 0.263 o
6 3 2 0.664 0.718 0.061 o
6 3 3 0.699 0.709 0.048 o
6 3 4 0.247 0.276 0.039 o
6 3 5 0.148 0.149 0.038 o
6 3 6 0.181 0.221 0.045 o
6 3 7 4.960 4.958 0.135 o
6 3 8 5.960 5.821 0.148 o
6 3 9 3.043 3.740 0.133 o
6 3 10 31.998 32.473 0.703 o
6 3 11 1.717 1.626 0.081 o
6 3 12 1.230 1.276 0.093 o
6 3 13 0.615 0.571 0.073 o
6 3 15 12.218 12.061 0.302 o
6 3 16 5.677 5.647 0.188 o
6 3 17 0.572 0.575 0.170 o
6 3 18 8.092 8.735 0.499 o
6 4 0 16.037 16.148 0.439 o
6 4 2 25.122 25.296 0.595 o
6 4 3 0.252 0.298 0.046 o
6 4 4 6.013 5.936 0.197 o
6 4 5 13.714 13.927 0.313 o
6 4 6 0.748 0.824 0.054 o
6 4 7 1.937 1.867 0.088 o
6 4 9 7.274 7.558 0.193 o
6 4 10 17.600 18.131 0.392 o
6 4 11 1.779 1.649 0.077 o
6 4 12 0.276 0.305 0.056 o
6 4 14 2.987 2.898 0.136 o
6 4 15 4.645 4.774 0.163 o
6 4 16 3.697 3.719 0.146 o
6 5 0 25.588 25.676 1.110 o
6 5 1 3.980 3.915 0.139 o
6 5 2 0.209 0.270 0.060 o
6 5 3 0.611 0.642 0.069 o
6 5 4 14.615 14.270 0.323 o
6 5 6 43.090 43.088 1.153 o
6 5 7 2.797 2.899 0.213 o
6 5 8 0.545 0.537 0.085 o
6 5 9 1.269 1.379 0.089 o
6 5 10 0.405 0.424 0.066 o
6 5 12 0.512 0.549 0.081 o
6 5 13 1.481 1.592 0.192 o
6 6 0 10.752 11.086 0.291 o
6 6 1 2.134 2.047 0.091 o
6 6 2 4.421 4.645 0.274 o
6 6 3 5.095 5.150 0.164 o
6 6 4 0.232 0.257 0.055 o
6 6 5 1.160 1.127 0.082 o
6 6 7 1.924 1.808 0.116 o
6 6 8 0.822 0.844 0.089 o
6 6 9 0.485 0.515 0.079 o
6 6 10 6.574 6.677 0.285 o
6 7 0 1.681 1.542 0.102 o
6 7 1 0.534 0.464 0.137 o
7 0 0 106.471 108.859 3.574 o
7 0 2 36.203 35.279 1.288 o
7 0 4 264.398 262.396 11.592 o
7 0 6 1.197 1.121 0.067 o
7 0 8 43.412 44.014 0.871 o
7 0 10 59.219 59.446 1.295 o
7 0 12 17.334 17.696 0.410 o
7 0 14 11.943 12.202 0.367 o
7 0 16 8.298 8.188 0.227 o
7 0 18 15.991 16.539 0.346 o
7 1 0 81.684 80.823 1.849 o
7 1 1 1.079 1.050 0.062 o
7 1 2 0.154 0.235 0.033 o
7 1 3 7.384 7.283 0.181 o
7 1 4 34.463 34.189 0.745 o
7 1 5 40.103 38.907 1.049 o
7 1 6 1.005 0.928 0.062 o
7 1 7 1.420 1.426 0.065 o
7 1 8 45.956 46.480 0.952 o
7 1 10 3.235 3.247 0.120 o
7 1 11 16.492 16.517 0.364 o
7 1 12 15.073 15.135 0.371 o
7 1 13 15.062 15.240 0.363 o
7 1 14 23.369 23.572 0.548 o
7 1 15 22.225 22.256 0.466 o
7 1 17 3.531 3.514 0.138 o
7 1 18 0.417 0.302 0.076 o
7 1 19 4.177 4.276 0.162 o
7 2 0 35.087 34.101 0.781 o
7 2 1 10.795 10.436 0.244 o
7 2 2 6.135 6.108 0.160 o
7 2 3 4.776 4.538 0.123 o
7 2 4 0.518 0.538 0.044 o
7 2 5 0.751 0.713 0.049 o
7 2 6 5.677 5.655 0.153 o
7 2 7 3.287 3.163 0.097 o
7 2 8 7.009 6.815 0.175 o
7 2 9 20.438 20.627 0.443 o
7 2 10 0.896 0.780 0.071 o
7 2 11 10.050 10.006 0.252 o
7 2 12 0.324 0.301 0.066 o
7 2 13 4.127 4.197 0.182 o
7 2 14 6.603 6.538 0.196 o
7 2 15 11.371 11.409 0.271 o
7 2 16 1.123 1.005 0.108 o
7 2 18 3.937 3.680 0.154 o
7 3 0 0.583 0.561 0.041 o
7 3 1 27.212 27.278 0.580 o
7 3 2 21.741 22.018 0.512 o
7 3 3 14.701 14.736 0.355 o
7 3 4 13.875 14.048 0.313 o
7 3 5 0.964 0.990 0.064 o
7 3 6 6.529 6.575 0.170 o
7 3 7 3.230 3.332 0.107 o
7 3 8 11.788 11.624 0.267 o
7 3 9 9.707 9.640 0.283 o
7 3 10 1.749 1.858 0.089 o
7 3 12 3.381 3.510 0.160 o
7 3 13 1.550 1.485 0.100 o
7 3 14 0.268 0.293 0.071 o
7 3 16 1.814 1.923 0.125 o
7 4 0 9.497 9.512 0.224 o
7 4 1 1.436 1.454 0.103 o
7 4 2 1.595 1.635 0.080 o
7 4 3 1.176 1.113 0.080 o
7 4 4 2.596 2.346 0.110 o
7 4 5 19.876 20.140 0.492 o
7 4 6 28.973 29.345 0.637 o
7 4 9 9.914 9.894 0.238 o
7 4 10 0.316 0.315 0.057 o
7 4 12 4.760 4.729 0.167 o
7 4 13 0.286 0.355 0.104 o
7 4 14 6.836 6.623 0.221 o
7 4 15 3.348 3.330 0.158 o
7 5 0 13.231 12.870 0.298 o
7 5 2 12.013 11.923 0.281 o
7 5 3 1.368 1.355 0.091 o
7 5 4 2.326 2.509 0.112 o
7 5 6 1.061 0.986 0.081 o
7 5 8 3.502 3.438 0.134 o
7 5 10 20.011 19.300 0.424 o
7 5 11 1.334 1.405 0.198 o
7 5 12 1.196 1.174 0.183 o
7 6 0 0.769 0.785 0.074 o
7 6 2 2.181 2.116 0.106 o
7 6 4 3.719 3.568 0.206 o
7 6 5 3.756 3.502 0.139 o
7 6 6 3.147 2.998 0.141 o
7 6 7 3.300 3.390 0.135 o
7 6 8 2.903 2.993 0.220 o
8 0 0 27.188 27.831 0.535 o
8 0 2 14.827 14.736 0.463 o
8 0 4 63.775 64.253 1.398 o
8 0 6 4.669 4.363 0.140 o
8 0 8 28.396 29.137 0.619 o
8 0 10 0.872 0.870 0.088 o
8 0 12 24.189 24.991 0.488 o
8 0 14 81.632 82.943 1.962 o
8 0 16 0.908 1.099 0.104 o
8 1 1 0.340 0.413 0.034 o
8 1 2 2.107 2.046 0.074 o
8 1 3 82.699 83.694 1.964 o
8 1 4 32.697 32.303 0.765 o
8 1 6 4.105 4.038 0.118 o
8 1 7 0.291 0.336 0.045 o
8 1 8 19.191 19.514 0.421 o
8 1 9 9.407 9.441 0.226 o
8 1 10 18.440 18.108 0.392 o
8 1 11 5.846 6.111 0.191 o
8 1 12 4.372 4.341 0.200 o
8 1 13 10.873 11.040 0.271 o
8 1 15 1.581 1.547 0.128 o
8 1 16 0.606 0.570 0.106 o
8 2 0 40.783 40.709 0.955 o
8 2 1 20.898 21.124 0.507 o
8 2 3 4.914 4.903 0.155 o
8 2 4 13.875 14.187 0.316 o
8 2 5 7.255 7.215 0.187 o
8 2 7 34.520 34.654 0.819 o
8 2 8 4.263 4.005 0.123 o
8 2 9 0.143 0.152 0.049 o
8 2 10 15.080 14.981 0.339 o
8 2 13 3.830 3.910 0.208 o
8 2 14 0.340 0.322 0.094 o
8 2 15 2.554 2.819 0.285 o
8 2 16 1.968 1.927 0.127 o
8 3 0 17.064 17.028 0.423 o
8 3 1 0.175 0.192 0.042 o
8 3 2 9.388 9.230 0.225 o
8 3 3 0.612 0.573 0.054 o
8 3 4 10.588 10.588 0.251 o
8 3 5 17.469 17.400 0.468 o
8 3 6 13.977 13.724 0.425 o
8 3 8 3.694 3.658 0.120 o
8 3 10 2.621 2.614 0.116 o
8 3 11 5.722 5.477 0.166 o
8 3 12 3.246 3.267 0.129 o
8 3 13 6.428 6.241 0.195 o
8 3 14 5.681 5.706 0.183 o
8 3 15 1.347 1.372 0.161 o
8 4 1 2.258 2.274 0.092 o
8 4 2 13.632 13.147 0.319 o
8 4 3 2.478 2.381 0.153 o
8 4 4 2.219 2.227 0.094 o
8 4 5 2.624 2.681 0.105 o
8 4 6 3.503 3.442 0.109 o
8 4 7 4.093 4.175 0.122 o
8 4 9 12.437 11.856 0.277 o
8 4 10 5.799 5.729 0.220 o
8 4 12 5.434 5.448 0.172 o
8 4 13 0.254 0.313 0.085 o
8 5 0 1.015 0.949 0.078 o
8 5 1 0.225 0.216 0.063 o
8 5 2 6.162 6.073 0.174 o
8 5 3 3.575 3.466 0.127 o
8 5 4 0.817 0.826 0.076 o
8 5 6 6.596 6.657 0.192 o
8 5 7 2.125 2.404 0.225 o
8 5 8 19.356 19.291 0.685 o
8 5 9 2.634 2.816 0.127 o
8 5 10 0.814 0.791 0.145 o
8 6 1 0.498 0.448 0.078 o
8 6 2 4.555 4.463 0.351 o
8 6 3 1.370 1.213 0.102 o
8 6 4 2.576 2.534 0.153 o
9 0 0 17.120 18.294 0.824 o
9 0 2 45.933 45.913 1.640 o
9 0 4 4.646 4.550 0.242 o
9 0 6 26.611 26.668 0.520 o
9 0 10 13.399 13.865 0.419 o
9 0 12 8.286 8.482 0.334 o
9 1 0 32.376 32.773 0.692 o
9 1 1 0.226 0.205 0.043 o
9 1 2 4.705 4.607 0.136 o
9 1 3 25.871 25.686 0.530 o
9 1 4 2.479 2.460 0.117 o
9 1 5 5.975 6.015 0.182 o
9 1 6 7.565 7.386 0.280 o
9 1 7 12.775 12.576 0.286 o
9 1 8 1.692 1.670 0.082 o
9 1 9 2.063 1.948 0.087 o
9 1 10 9.053 8.826 0.230 o
9 1 12 0.959 1.051 0.089 o
9 1 13 26.808 27.142 0.512 o
9 1 14 8.866 9.029 0.258 o
9 1 15 1.068 1.136 0.103 o
9 2 0 1.738 1.708 0.089 o
9 2 1 3.508 3.634 0.119 o
9 2 2 35.543 35.131 0.808 o
9 2 3 4.973 4.923 0.168 o
9 2 4 35.275 34.703 0.766 o
9 2 5 3.260 3.209 0.129 o
9 2 6 3.033 3.070 0.108 o
9 2 7 1.655 1.734 0.086 o
9 2 8 2.098 2.115 0.092 o
9 2 9 15.047 14.608 0.351 o
9 2 10 2.075 2.028 0.107 o
9 2 11 8.682 8.766 0.235 o
9 2 12 6.254 6.248 0.244 o
9 2 14 7.292 7.252 0.203 o
9 3 0 2.037 2.226 0.122 o
9 3 1 6.440 6.297 0.164 o
9 3 2 2.512 2.486 0.109 o
9 3 3 13.629 14.634 0.360 o
9 3 4 6.364 6.440 0.309 o
9 3 5 1.310 1.238 0.087 o
9 3 6 15.460 16.105 0.376 o
9 3 7 0.325 0.330 0.056 o
9 3 8 15.700 15.465 0.343 o
9 3 10 3.027 2.822 0.228 o
9 3 11 3.779 3.770 0.153 o
9 3 12 4.548 4.432 0.323 o
9 4 1 2.279 2.400 0.124 o
9 4 2 12.426 12.115 0.287 o
9 4 5 0.303 0.293 0.061 o
9 4 6 4.943 4.810 0.141 o
9 4 7 17.460 17.845 0.385 o
9 4 8 12.029 11.797 0.274 o
9 4 9 5.012 5.105 0.169 o
9 4 10 0.993 1.059 0.103 o
9 5 1 0.785 0.768 0.089 o
9 5 2 4.058 3.913 0.131 o
9 5 3 1.517 1.365 0.090 o
9 5 4 1.017 1.144 0.183 o
9 5 5 0.859 0.956 0.165 o
10 0 0 7.237 8.059 0.462 o
10 0 2 2.784 2.944 0.126 o
10 0 4 13.973 13.833 0.436 o
10 0 6 17.162 16.418 0.351 o
10 0 8 1.048 1.012 0.095 o
10 1 0 9.512 9.511 0.231 o
10 1 1 31.607 31.527 0.660 o
10 1 3 8.222 8.124 0.206 o
10 1 4 9.367 9.312 0.242 o
10 1 5 3.555 3.435 0.133 o
10 1 6 7.708 7.474 0.206 o
10 1 8 1.362 1.274 0.105 o
10 1 9 1.099 1.123 0.106 o
10 1 10 5.202 5.095 0.294 o
10 1 11 3.647 3.470 0.262 o
10 1 12 0.672 0.524 0.174 o
10 1 13 1.714 1.655 0.229 o
10 2 0 9.100 9.120 0.253 o
10 2 1 1.581 1.582 0.089 o
10 2 2 28.124 27.637 1.016 o
10 2 3 7.723 7.478 0.353 o
10 2 4 1.442 1.409 0.188 o
10 2 5 9.934 9.650 0.250 o
10 2 6 7.165 7.199 0.207 o
10 2 7 3.686 3.599 0.118 o
10 2 8 3.073 3.010 0.108 o
10 2 9 0.412 0.430 0.090 o
10 2 10 6.256 6.124 0.297 o
10 2 11 1.238 1.250 0.108 o
10 2 12 15.059 15.741 0.447 o
10 3 0 0.789 0.761 0.061 o
10 3 1 1.296 1.141 0.082 o
10 3 2 18.114 18.094 0.432 o
10 3 3 3.719 3.808 0.132 o
10 3 4 3.129 3.286 0.122 o
10 3 5 0.240 0.222 0.056 o
10 3 6 13.519 13.259 0.305 o
10 3 7 11.380 11.489 0.280 o
10 3 8 23.935 24.091 0.464 o
10 3 9 0.535 0.349 0.098 o
10 3 10 1.091 0.969 0.156 o
10 3 11 0.839 0.929 0.200 o
10 4 0 2.287 2.397 0.106 o
10 4 1 4.815 4.916 0.150 o
10 4 3 1.473 1.425 0.092 o
10 4 4 3.151 3.246 0.150 o
10 4 5 0.966 1.152 0.105 o
10 4 6 0.837 0.802 0.132 o
10 4 7 6.464 6.501 0.187 o
10 5 0 1.735 1.672 0.197 o
10 5 1 2.389 2.484 0.124 o
11 0 0 32.475 32.817 1.033 o
11 0 2 24.473 23.874 0.495 o
11 0 6 2.520 2.212 0.195 o
11 1 1 3.802 3.948 0.123 o
11 1 2 8.054 7.734 0.200 o
11 1 3 11.056 10.895 0.261 o
11 1 4 1.688 1.700 0.096 o
11 1 5 12.353 12.538 0.293 o
11 1 6 3.496 3.626 0.138 o
11 1 7 4.555 4.446 0.158 o
11 1 9 1.385 1.405 0.225 o
11 1 10 5.507 5.329 0.287 o
11 2 1 11.773 11.744 0.273 o
11 2 3 0.887 0.798 0.090 o
11 2 4 6.745 6.821 0.235 o
11 2 6 18.797 18.420 0.902 o
11 2 7 16.004 16.362 0.465 o
11 2 8 2.656 2.823 0.247 o
11 2 9 0.790 0.704 0.188 o
11 3 0 18.350 18.631 0.395 o
11 3 1 2.008 2.073 0.169 o
11 3 2 1.129 1.218 0.177 o
11 3 3 1.439 1.461 0.116 o
11 3 4 2.976 3.074 0.139 o
11 3 5 0.697 0.830 0.198 o
11 3 6 2.011 2.022 0.229 o
11 4 0 1.457 1.193 0.181 o
11 4 1 3.249 3.433 0.222 o
11 4 2 3.323 3.137 0.137 o
11 4 4 6.003 5.762 0.295 o
12 0 0 1.401 1.507 0.090 o
12 0 2 19.694 19.605 0.511 o
12 0 4 7.535 7.607 0.312 o
12 1 0 8.371 8.373 0.221 o
12 1 1 3.203 3.173 0.117 o
12 1 2 8.156 7.936 0.199 o
12 1 3 3.321 3.245 0.141 o
12 1 4 0.482 0.404 0.084 o
12 1 5 3.499 3.471 0.251 o
12 1 6 11.982 12.276 0.384 o
12 1 7 2.379 2.693 0.242 o
12 2 0 0.619 0.684 0.080 o
12 2 3 2.076 2.001 0.228 o
12 2 4 3.836 3.850 0.269 o
12 2 5 2.520 2.473 0.245 o
12 2 6 0.909 0.970 0.195 o
12 3 3 2.512 2.454 0.249 o
13 1 0 1.244 1.298 0.099 o
13 1 1 2.138 2.140 0.173 o
13 2 0 0.969 0.908 0.186 o
13 2 1 2.837 2.777 0.253 o
