#------------------------------------------------------------------------------
#$Date: 2016-02-21 11:56:54 +0200 (Sun, 21 Feb 2016) $
#$Revision: 176809 $
#$URL: svn://www.crystallography.net/cod/cif/2/31/01/2310126.cif $
#------------------------------------------------------------------------------
#
# This file is available in the Crystallography Open Database (COD),
# http://www.crystallography.net/
#
# All data on this site have been placed in the public domain by the
# contributors.
#
data_2310126
loop_
_publ_author_name
'Kami\'nski, Rados\/law'
'Domaga\/la, S\/lawomir'
'Jarzembska, Katarzyna N.'
'Hoser, Anna A.'
'Sanjuan-Szklarz, W. Fabiola'
'Gutmann, Matthias J.'
'Makal, Anna'
'Mali\'nska, Maura'
'Bak, Joanna M.'
'Wo\'zniak, Krzysztof'
_publ_section_title
;
 Statistical analysis of multipole-model-derived structural parameters and
 charge-density properties from high-resolution X-ray diffraction
 experiments
;
_journal_issue                   1
_journal_name_full               'Acta Crystallographica Section A'
_journal_page_first              72
_journal_page_last               91
_journal_paper_doi               10.1107/S2053273313028313
_journal_volume                  70
_journal_year                    2014
_chemical_formula_moiety         'C2 H2 O4, 2(H2 O1)'
_chemical_formula_sum            'C2 H6 O6'
_chemical_formula_weight         126.07
_space_group_IT_number           14
_symmetry_cell_setting           monoclinic
_symmetry_Int_Tables_number      14
_symmetry_space_group_name_Hall  '-P 2ybc'
_symmetry_space_group_name_H-M   'P 1 21/c 1'
_cell_angle_alpha                90.00
_cell_angle_beta                 103.898(2)
_cell_angle_gamma                90.00
_cell_formula_units_Z            2
_cell_length_a                   6.0920(3)
_cell_length_b                   3.4919(2)
_cell_length_c                   11.8481(5)
_cell_measurement_temperature    100(1)
_cell_volume                     244.66(2)
_diffrn_ambient_temperature      100(1)
_diffrn_measured_fraction_theta_full 0.995
_diffrn_measured_fraction_theta_max 0.995
_diffrn_measurement_device
;
Bruker AXS Kappa APEX II Ultra diffractometer
;
_diffrn_measurement_device_type  'APEX II CCD detector'
_diffrn_measurement_method       \w-scans
_diffrn_radiation_monochromator  'multi-layer optics'
_diffrn_radiation_source         'TXS rotating anode'
_diffrn_radiation_type           'Mo K\a'
_diffrn_radiation_wavelength     0.71073
_diffrn_reflns_av_R_equivalents  0.0178
_diffrn_reflns_av_sigmaI/netI    0.01264
_diffrn_reflns_limit_h_max       12
_diffrn_reflns_limit_h_min       -12
_diffrn_reflns_limit_k_max       7
_diffrn_reflns_limit_k_min       -7
_diffrn_reflns_limit_l_max       24
_diffrn_reflns_limit_l_min       -24
_diffrn_reflns_number            24619
_diffrn_reflns_theta_full        47.19
_diffrn_reflns_theta_max         47.194
_diffrn_reflns_theta_min         3.445
_exptl_absorpt_coefficient_mu    0.181
_exptl_absorpt_correction_T_max  0.981
_exptl_absorpt_correction_T_min  0.958
_exptl_absorpt_correction_type   multi-scan
_exptl_absorpt_process_details
;
 Absorption correction done by SORTAV
 Blessing, R. H.: (1995) Acta Cryst. A51, 33-38
;
_exptl_crystal_colour            colourless
_exptl_crystal_density_diffrn    1.712
_exptl_crystal_description       unspecified
_exptl_crystal_F_000             132
_exptl_crystal_size_max          0.225
_exptl_crystal_size_mid          0.212
_exptl_crystal_size_min          0.100
_refine_diff_density_max         +0.17
_refine_diff_density_min         -0.13
_refine_ls_extinction_method     none
_refine_ls_goodness_of_fit_ref   1.465
_refine_ls_hydrogen_treatment    mixed
_refine_ls_number_parameters     177
_refine_ls_number_reflns         2125
_refine_ls_number_restraints     3
_refine_ls_R_factor_all          0.0103
_refine_ls_R_factor_gt           0.0103
_refine_ls_shift/su_max          0.001
_refine_ls_shift/su_mean         0.000
_refine_ls_structure_factor_coef F
_refine_ls_weighting_details
;
w=1/[\s^2^(Fo)]
;
_refine_ls_weighting_scheme      sigma
_refine_ls_wR_factor_gt          0.0185
_refine_ls_wR_factor_ref         0.0185
_reflns_number_gt                2125
_reflns_number_total             2248
_reflns_threshold_expression     I>3\s(I)
_iucr_refine_instructions_details
;
 Multipole refinement with MOPRO program
;
_cod_data_source_file            pc5031sup11.cif
_cod_data_source_block           oxa11
_cod_original_sg_symbol_H-M      'P 21/c'
_cod_database_code               2310126
loop_
_symmetry_equiv_pos_as_xyz
'x, y, z'
'-x, y+1/2, -z+1/2'
'-x, -y, -z'
'x, -y-1/2, z-1/2'
loop_
_atom_site_type_symbol
_atom_site_label
_atom_site_fract_x
_atom_site_fract_y
_atom_site_fract_z
_atom_site_U_iso_or_equiv
_atom_site_adp_type
_atom_site_occupancy
_atom_site_calc_flag
O O1 0.43490(3) 0.44403(5) 0.34987(1) 0.01293(7) Uani 1 d
O O2 0.24238(3) 0.74291(5) 0.46367(1) 0.01271(7) Uani 1 d
C C1 0.40312(2) 0.55878(3) 0.448016(1) 0.00928(6) Uani 1 d
H H1 0.300(2) 0.509(6) 0.2758(8) 0.02256 Uani 1 d
O O3 0.13007(3) 0.63143(5) 0.17859(1) 0.01257(6) Uani 1 d
H H2 0.192(2) 0.692(6) 0.1123(6) 0.02839 Uani 1 d
H H3 0.015(2) 0.436(3) 0.155(2) 0.02811 Uani 1 d
loop_
_atom_site_aniso_label
_atom_site_aniso_U_11
_atom_site_aniso_U_22
_atom_site_aniso_U_33
_atom_site_aniso_U_12
_atom_site_aniso_U_13
_atom_site_aniso_U_23
O1 0.01249(6) 0.01857(7) 0.00727(6) 0.00459(5) 0.00146(5) -0.00070(4)
O2 0.01070(6) 0.01759(7) 0.00921(6) 0.00532(4) 0.00115(4) -0.00067(4)
C1 0.00889(6) 0.01108(6) 0.00756(6) 0.00167(3) 0.00135(3) -0.00010(2)
H1 0.0210 0.0260 0.0204 0.0018 0.0045 0.0002
O3 0.01042(6) 0.01773(6) 0.00876(6) -0.00205(4) 0.00075(4) 0.00098(4)
H2 0.0254 0.0399 0.0210 -0.0038 0.0079 0.0036
H3 0.0215 0.0296 0.0326 -0.0069 0.0054 -0.0021
loop_
_atom_type_symbol
_atom_type_description
_atom_type_scat_dispersion_real
_atom_type_scat_dispersion_imag
_atom_type_scat_source
C C 0.0033 0.0016 'Su & Coppens, Acta. Cryst. (1997) A53, 749'
H H 0.0000 0.0000 'Su & Coppens, Acta. Cryst. (1997) A53, 749'
O O 0.0106 0.0060 'Su & Coppens, Acta. Cryst. (1997) A53, 749'
loop_
_geom_angle_atom_site_label_1
_geom_angle_atom_site_label_2
_geom_angle_atom_site_label_3
_geom_angle
O1 C1 O2 126.90(2)
C1 O1 H1 114.8(9)
H2 O3 H3 108(2)
loop_
_geom_bond_atom_site_label_1
_geom_bond_atom_site_label_2
_geom_bond_distance
O1 C1 1.2878(2)
O1 H1 1.074(1)
O2 C1 1.2223(2)
O3 H3 0.970(1)
O3 H2 0.974(1)
loop_
_geom_torsion_atom_site_label_1
_geom_torsion_atom_site_label_2
_geom_torsion_atom_site_label_3
_geom_torsion_atom_site_label_4
_geom_torsion
O2 C1 O1 H1 -3.2(8)
loop_
_refln_index_h
_refln_index_k
_refln_index_l
_refln_F_squared_calc
_refln_F_squared_meas
_refln_F_squared_sigma
_refln_observed_status
-12 0 2 9.412 9.305 0.216 o
-12 0 4 43.824 43.173 0.891 o
-12 0 6 4.425 5.262 0.144 o
-12 0 8 0.208 0.154 0.044 o
-12 0 10 2.627 2.545 0.090 o
-12 0 12 9.135 9.144 0.224 o
-12 1 1 2.015 2.047 0.060 o
-12 1 2 1.050 1.058 0.041 o
-12 1 5 19.807 19.728 0.438 o
-12 1 6 4.704 4.581 0.114 o
-12 1 7 1.641 1.549 0.056 o
-12 1 8 12.521 12.713 0.294 o
-12 1 9 11.864 11.646 0.326 o
-12 1 10 2.923 2.948 0.091 o
-12 1 11 1.056 1.092 0.044 o
-12 2 4 0.116 0.160 0.031 o
-12 2 5 8.284 8.317 0.196 o
-12 2 6 0.264 0.308 0.036 o
-12 2 7 3.568 3.472 0.110 o
-12 2 8 4.681 4.802 0.156 o
-11 0 2 3.740 3.697 0.109 o
-11 0 4 9.700 9.541 0.222 o
-11 0 6 0.640 0.587 0.043 o
-11 0 8 89.553 86.696 2.229 o
-11 0 10 8.217 8.065 0.196 o
-11 0 12 2.726 2.700 0.084 o
-11 0 14 35.477 36.046 1.095 o
-11 0 16 1.526 1.590 0.082 o
-11 1 1 0.238 0.210 0.020 o
-11 1 2 5.988 5.875 0.168 o
-11 1 3 14.142 13.953 0.312 o
-11 1 4 37.034 36.400 0.808 o
-11 1 5 2.151 2.094 0.058 o
-11 1 6 0.222 0.184 0.020 o
-11 1 7 1.481 1.557 0.057 o
-11 1 8 1.398 1.391 0.046 o
-11 1 9 6.294 6.200 0.178 o
-11 1 10 3.911 3.919 0.099 o
-11 1 11 4.402 4.305 0.106 o
-11 1 12 14.002 14.166 0.316 o
-11 1 13 0.423 0.492 0.034 o
-11 1 14 6.531 6.557 0.178 o
-11 1 15 6.194 6.162 0.147 o
-11 1 16 2.623 2.453 0.164 o
-11 2 1 2.771 2.855 0.078 o
-11 2 2 0.327 0.335 0.029 o
-11 2 3 1.346 1.379 0.044 o
-11 2 4 11.173 11.296 0.255 o
-11 2 5 2.127 2.095 0.061 o
-11 2 6 6.386 6.267 0.146 o
-11 2 7 8.460 8.499 0.195 o
-11 2 10 1.085 1.147 0.043 o
-11 2 11 2.276 2.197 0.064 o
-11 2 12 2.697 2.645 0.073 o
-11 2 13 0.533 0.534 0.031 o
-11 2 14 1.431 1.373 0.056 o
-11 3 1 1.019 1.028 0.044 o
-11 3 2 3.408 3.376 0.087 o
-11 3 3 0.386 0.408 0.025 o
-11 3 4 4.638 4.709 0.113 o
-11 3 5 6.622 6.913 0.163 o
-11 3 6 3.020 3.009 0.078 o
-11 3 7 3.809 3.707 0.092 o
-11 3 9 1.386 1.327 0.060 o
-11 3 10 12.726 12.683 0.286 o
-11 3 11 4.200 4.280 0.135 o
-10 0 4 8.864 8.843 0.202 o
-10 0 6 12.451 12.742 0.309 o
-10 0 8 17.821 17.607 0.446 o
-10 0 10 12.386 12.265 0.274 o
-10 0 12 12.081 11.950 0.279 o
-10 0 14 0.875 0.903 0.049 o
-10 0 16 3.029 3.187 0.102 o
-10 0 18 64.794 63.433 1.144 o
-10 1 1 3.442 3.498 0.087 o
-10 1 2 0.534 0.557 0.029 o
-10 1 3 2.277 2.282 0.064 o
-10 1 4 0.767 0.760 0.030 o
-10 1 5 9.872 9.758 0.220 o
-10 1 6 0.082 0.098 0.017 o
-10 1 7 48.372 48.282 1.072 o
-10 1 8 20.415 20.345 0.454 o
-10 1 9 10.226 10.088 0.228 o
-10 1 10 6.437 6.588 0.153 o
-10 1 11 1.982 1.980 0.056 o
-10 1 12 3.967 4.044 0.099 o
-10 1 13 11.863 11.739 0.283 o
-10 1 14 18.570 18.378 0.417 o
-10 1 16 1.006 0.954 0.052 o
-10 1 17 15.479 15.891 0.374 o
-10 1 18 2.450 2.410 0.073 o
-10 2 1 0.544 0.518 0.028 o
-10 2 2 11.273 11.212 0.265 o
-10 2 3 50.023 49.938 1.099 o
-10 2 4 29.092 28.982 0.638 o
-10 2 7 1.341 1.407 0.044 o
-10 2 8 9.305 9.370 0.212 o
-10 2 9 13.973 13.762 0.308 o
-10 2 10 0.824 0.778 0.034 o
-10 2 11 12.141 12.156 0.283 o
-10 2 12 5.185 5.290 0.126 o
-10 2 13 11.652 11.699 0.271 o
-10 2 14 14.053 14.266 0.356 o
-10 2 16 0.741 0.780 0.039 o
-10 2 17 3.960 4.033 0.122 o
-10 3 1 2.631 2.730 0.072 o
-10 3 2 8.402 8.351 0.206 o
-10 3 3 3.647 3.652 0.097 o
-10 3 4 10.627 10.679 0.241 o
-10 3 6 11.258 11.214 0.253 o
-10 3 7 0.565 0.626 0.030 o
-10 3 8 6.198 6.208 0.147 o
-10 3 9 1.004 1.013 0.047 o
-10 3 10 8.031 8.086 0.194 o
-10 3 13 0.316 0.326 0.028 o
-10 3 14 8.445 8.321 0.192 o
-10 3 15 2.742 2.999 0.100 o
-10 4 2 10.922 10.932 0.260 o
-10 4 3 6.555 6.625 0.155 o
-10 4 4 0.298 0.330 0.024 o
-10 4 5 1.154 1.264 0.043 o
-10 4 6 3.595 3.496 0.096 o
-10 4 8 3.386 3.209 0.082 o
-10 4 9 3.216 3.192 0.083 o
-10 4 10 7.506 7.684 0.180 o
-9 0 2 4.203 4.142 0.107 o
-9 0 4 58.344 57.810 1.354 o
-9 0 6 25.266 25.606 0.552 o
-9 0 8 4.437 4.425 0.111 o
-9 0 10 53.927 54.102 1.219 o
-9 0 12 0.001 0.091 0.029 o
-9 0 14 1.971 1.941 0.064 o
-9 0 16 21.827 21.948 0.474 o
-9 0 18 0.274 0.340 0.038 o
-9 0 20 1.041 1.103 0.060 o
-9 1 1 0.476 0.475 0.022 o
-9 1 2 1.429 1.438 0.040 o
-9 1 3 0.121 0.144 0.016 o
-9 1 4 10.693 10.708 0.240 o
-9 1 5 3.107 3.108 0.077 o
-9 1 6 22.827 23.031 0.510 o
-9 1 7 17.386 17.778 0.405 o
-9 1 8 5.062 4.941 0.124 o
-9 1 9 17.964 17.541 0.391 o
-9 1 10 1.182 1.228 0.039 o
-9 1 11 6.766 6.818 0.157 o
-9 1 12 0.064 0.087 0.019 o
-9 1 13 0.346 0.345 0.025 o
-9 1 14 14.215 14.237 0.331 o
-9 1 15 0.591 0.557 0.029 o
-9 1 16 2.644 2.612 0.072 o
-9 1 17 37.155 36.395 0.839 o
-9 1 18 6.976 6.946 0.164 o
-9 1 19 2.817 2.858 0.079 o
-9 1 20 4.489 4.783 0.121 o
-9 2 1 4.960 4.990 0.117 o
-9 2 3 0.737 0.710 0.028 o
-9 2 4 0.352 0.358 0.021 o
-9 2 5 6.358 6.276 0.145 o
-9 2 6 34.960 35.144 0.784 o
-9 2 7 10.144 10.106 0.227 o
-9 2 8 57.332 57.000 1.251 o
-9 2 9 1.351 1.339 0.048 o
-9 2 10 5.502 5.516 0.131 o
-9 2 12 3.236 3.270 0.091 o
-9 2 13 32.519 32.130 0.725 o
-9 2 14 4.959 5.075 0.120 o
-9 2 15 0.506 0.527 0.031 o
-9 2 16 10.064 9.776 0.222 o
-9 2 17 8.505 8.594 0.218 o
-9 2 18 15.182 15.772 0.351 o
-9 2 19 4.228 4.078 0.121 o
-9 3 1 2.947 2.891 0.073 o
-9 3 2 86.680 87.004 1.966 o
-9 3 3 12.947 13.301 0.297 o
-9 3 4 22.113 21.894 0.502 o
-9 3 6 1.069 1.064 0.037 o
-9 3 7 20.779 20.807 0.490 o
-9 3 8 6.912 6.692 0.158 o
-9 3 9 1.506 1.691 0.054 o
-9 3 10 5.141 5.181 0.124 o
-9 3 11 1.129 1.107 0.042 o
-9 3 12 42.983 43.034 0.956 o
-9 3 13 6.906 7.157 0.169 o
-9 3 14 6.304 6.423 0.151 o
-9 3 15 2.635 2.947 0.078 o
-9 3 16 3.219 3.246 0.100 o
-9 3 17 0.120 0.106 0.024 o
-9 4 1 12.032 11.884 0.278 o
-9 4 2 3.849 3.747 0.093 o
-9 4 3 21.719 21.409 0.486 o
-9 4 4 0.312 0.289 0.022 o
-9 4 6 8.179 8.147 0.197 o
-9 4 7 0.920 0.963 0.037 o
-9 4 8 4.513 4.350 0.108 o
-9 4 9 1.737 1.669 0.063 o
-9 4 10 0.609 0.611 0.029 o
-9 4 11 5.952 5.986 0.147 o
-9 4 12 6.372 6.389 0.150 o
-9 4 13 7.594 7.580 0.187 o
-9 4 14 0.278 0.307 0.030 o
-9 5 3 0.124 0.150 0.033 o
-9 5 4 0.147 0.209 0.028 o
-9 5 6 0.848 0.858 0.138 o
-8 0 2 3.699 3.652 0.095 o
-8 0 4 4.408 4.399 0.107 o
-8 0 8 51.417 51.144 1.106 o
-8 0 10 6.688 6.900 0.161 o
-8 0 12 3.182 3.132 0.090 o
-8 0 14 45.634 45.208 1.056 o
-8 0 16 12.215 12.155 0.278 o
-8 0 18 2.444 2.364 0.105 o
-8 0 20 42.953 43.051 0.917 o
-8 0 22 0.357 0.384 0.118 o
-8 1 1 29.886 30.217 0.666 o
-8 1 3 19.606 19.642 0.434 o
-8 1 4 30.642 30.320 0.685 o
-8 1 5 23.067 23.331 0.514 o
-8 1 6 1.745 1.815 0.049 o
-8 1 7 57.567 57.833 1.276 o
-8 1 8 6.048 6.118 0.140 o
-8 1 9 14.108 14.031 0.331 o
-8 1 10 37.763 37.850 0.828 o
-8 1 11 1.699 1.700 0.046 o
-8 1 12 1.908 1.792 0.051 o
-8 1 14 0.503 0.502 0.028 o
-8 1 15 16.410 16.398 0.363 o
-8 1 16 8.842 9.106 0.216 o
-8 1 17 7.159 7.057 0.168 o
-8 1 18 10.918 10.569 0.239 o
-8 1 20 1.135 1.125 0.052 o
-8 1 21 4.260 4.158 0.113 o
-8 2 1 40.712 40.895 0.923 o
-8 2 2 16.722 16.859 0.376 o
-8 2 3 7.168 7.175 0.167 o
-8 2 4 16.307 16.390 0.364 o
-8 2 5 34.667 34.835 0.778 o
-8 2 6 58.983 59.209 1.337 o
-8 2 7 6.810 6.605 0.151 o
-8 2 8 6.784 6.840 0.156 o
-8 2 9 1.407 1.455 0.043 o
-8 2 10 11.557 11.549 0.258 o
-8 2 11 20.940 20.829 0.469 o
-8 2 12 8.428 8.332 0.189 o
-8 2 13 2.117 2.119 0.058 o
-8 2 14 11.765 11.852 0.265 o
-8 2 15 0.131 0.139 0.020 o
-8 2 16 38.371 38.070 0.834 o
-8 2 17 2.041 2.049 0.066 o
-8 2 18 14.318 14.309 0.322 o
-8 2 19 3.843 3.848 0.101 o
-8 2 20 0.477 0.455 0.038 o
-8 3 1 0.244 0.240 0.019 o
-8 3 2 8.837 8.759 0.199 o
-8 3 3 7.141 7.288 0.172 o
-8 3 5 0.874 0.931 0.033 o
-8 3 6 34.501 34.178 0.758 o
-8 3 7 10.812 10.738 0.250 o
-8 3 8 22.690 22.864 0.504 o
-8 3 9 5.559 5.591 0.134 o
-8 3 10 9.807 10.044 0.226 o
-8 3 11 6.411 6.356 0.149 o
-8 3 12 52.605 51.868 1.166 o
-8 3 13 1.642 1.601 0.048 o
-8 3 14 1.417 1.352 0.042 o
-8 3 15 0.487 0.504 0.027 o
-8 3 16 18.169 17.891 0.397 o
-8 3 17 17.115 17.617 0.402 o
-8 3 19 1.157 1.154 0.076 o
-8 4 1 21.970 20.929 0.459 o
-8 4 2 20.356 20.339 0.480 o
-8 4 3 16.374 15.980 0.356 o
-8 4 4 11.653 11.444 0.257 o
-8 4 5 3.151 3.144 0.084 o
-8 4 6 4.898 4.931 0.117 o
-8 4 7 3.055 3.026 0.077 o
-8 4 8 4.477 4.474 0.108 o
-8 4 9 0.092 0.122 0.019 o
-8 4 10 0.336 0.381 0.024 o
-8 4 11 23.282 22.883 0.518 o
-8 4 12 17.865 17.712 0.396 o
-8 4 13 11.338 11.448 0.260 o
-8 4 15 3.119 3.198 0.092 o
-8 4 16 2.859 2.927 0.080 o
-8 5 1 4.878 4.929 0.119 o
-8 5 2 28.122 27.869 0.631 o
-8 5 4 0.149 0.170 0.026 o
-8 5 5 1.386 1.497 0.046 o
-8 5 6 0.475 0.518 0.026 o
-8 5 7 4.965 4.916 0.116 o
-8 5 8 8.320 8.255 0.188 o
-8 5 10 2.432 2.502 0.067 o
-7 0 2 15.012 14.895 0.326 o
-7 0 4 41.248 41.387 0.901 o
-7 0 6 263.887 259.943 5.804 o
-7 0 8 0.246 0.250 0.021 o
-7 0 10 1.521 1.448 0.045 o
-7 0 12 5.941 5.976 0.143 o
-7 0 14 10.911 12.074 0.268 o
-7 0 16 7.518 7.438 0.173 o
-7 0 18 7.800 7.598 0.244 o
-7 0 20 0.553 0.488 0.038 o
-7 0 22 0.482 0.466 0.037 o
-7 1 1 18.290 18.833 0.416 o
-7 1 2 89.528 90.315 1.995 o
-7 1 3 3.761 3.815 0.090 o
-7 1 4 0.406 0.413 0.020 o
-7 1 5 2.279 2.280 0.058 o
-7 1 6 20.334 19.780 0.439 o
-7 1 7 54.087 54.178 1.198 o
-7 1 9 10.582 10.934 0.245 o
-7 1 10 30.811 30.877 0.680 o
-7 1 11 48.022 48.199 1.061 o
-7 1 12 2.950 2.955 0.072 o
-7 1 13 9.794 9.586 0.216 o
-7 1 14 15.742 15.605 0.345 o
-7 1 15 13.820 13.995 0.311 o
-7 1 16 6.074 6.103 0.154 o
-7 1 17 23.195 23.210 0.530 o
-7 1 18 0.208 0.244 0.021 o
-7 1 19 27.424 27.199 0.600 o
-7 1 20 4.548 4.660 0.114 o
-7 1 21 3.012 3.069 0.081 o
-7 1 22 1.443 1.277 0.044 o
-7 2 2 0.328 0.350 0.017 o
-7 2 3 23.670 23.256 0.522 o
-7 2 4 3.792 3.609 0.085 o
-7 2 5 10.266 10.441 0.235 o
-7 2 6 2.263 2.181 0.055 o
-7 2 7 20.111 20.118 0.446 o
-7 2 8 17.122 17.311 0.393 o
-7 2 9 18.016 17.408 0.389 o
-7 2 10 81.797 81.384 1.828 o
-7 2 11 23.500 23.169 0.515 o
-7 2 12 7.944 8.274 0.187 o
-7 2 13 5.433 5.262 0.122 o
-7 2 14 3.472 3.618 0.092 o
-7 2 15 42.879 42.129 0.924 o
-7 2 16 12.664 12.764 0.301 o
-7 2 17 2.189 2.246 0.059 o
-7 2 18 4.939 4.838 0.115 o
-7 2 19 0.245 0.295 0.023 o
-7 2 20 24.154 24.395 0.564 o
-7 2 21 13.072 12.737 0.303 o
-7 3 1 2.100 2.102 0.058 o
-7 3 2 1.965 1.962 0.051 o
-7 3 3 2.309 2.305 0.061 o
-7 3 4 78.532 78.264 1.739 o
-7 3 5 35.695 35.563 0.788 o
-7 3 6 16.551 16.526 0.381 o
-7 3 8 0.051 0.050 0.015 o
-7 3 9 9.975 9.964 0.224 o
-7 3 10 11.625 11.783 0.267 o
-7 3 11 0.275 0.246 0.020 o
-7 3 12 1.051 1.014 0.034 o
-7 3 13 7.708 7.713 0.176 o
-7 3 14 23.643 23.505 0.533 o
-7 3 15 4.858 4.898 0.115 o
-7 3 16 23.081 23.137 0.511 o
-7 3 17 0.184 0.169 0.019 o
-7 3 18 10.356 10.252 0.241 o
-7 3 19 0.156 0.133 0.020 o
-7 3 20 2.766 2.714 0.077 o
-7 4 1 22.471 22.221 0.516 o
-7 4 2 6.806 6.905 0.167 o
-7 4 3 0.639 0.698 0.029 o
-7 4 4 2.197 2.198 0.061 o
-7 4 5 23.927 23.973 0.530 o
-7 4 6 4.422 4.455 0.106 o
-7 4 7 4.522 4.423 0.110 o
-7 4 8 27.282 27.113 0.611 o
-7 4 9 5.558 5.656 0.145 o
-7 4 10 0.228 0.254 0.022 o
-7 4 11 14.789 14.610 0.329 o
-7 4 12 3.615 3.693 0.092 o
-7 4 13 0.085 0.061 0.019 o
-7 4 14 3.519 3.511 0.088 o
-7 4 15 12.876 12.666 0.290 o
-7 4 16 10.014 10.155 0.231 o
-7 4 17 3.681 3.816 0.094 o
-7 5 1 3.960 3.956 0.098 o
-7 5 2 20.199 20.264 0.455 o
-7 5 3 3.678 3.568 0.088 o
-7 5 4 1.875 1.845 0.052 o
-7 5 5 0.960 0.992 0.035 o
-7 5 6 8.126 8.369 0.193 o
-7 5 7 0.649 0.616 0.026 o
-7 5 10 5.524 5.599 0.132 o
-7 5 11 9.543 9.257 0.212 o
-7 5 12 26.102 26.668 0.579 o
-7 5 13 0.128 0.138 0.024 o
-7 5 14 1.228 1.244 0.059 o
-6 0 2 186.381 185.910 4.134 o
-6 0 4 3.094 2.971 0.073 o
-6 0 6 170.190 169.009 3.765 o
-6 0 8 1.079 1.102 0.039 o
-6 0 10 299.963 302.138 6.742 o
-6 0 12 0.002 0.958 0.265 o
-6 0 14 26.240 27.198 0.598 o
-6 0 16 133.105 134.065 2.884 o
-6 0 18 15.641 15.789 0.346 o
-6 0 20 10.078 10.017 0.230 o
-6 0 22 2.823 3.017 0.092 o
-6 1 1 1.371 1.441 0.038 o
-6 1 2 6.919 6.943 0.158 o
-6 1 3 1.280 1.304 0.035 o
-6 1 4 32.753 32.915 0.732 o
-6 1 5 99.448 98.732 2.185 o
-6 1 6 158.865 158.172 3.522 o
-6 1 7 2.775 2.911 0.069 o
-6 1 8 3.002 3.137 0.074 o
-6 1 9 45.571 46.103 1.021 o
-6 1 10 52.577 52.913 1.170 o
-6 1 11 4.080 4.252 0.099 o
-6 1 12 43.889 43.846 0.971 o
-6 1 13 5.020 5.057 0.117 o
-6 1 14 23.062 22.936 0.520 o
-6 1 15 3.710 3.712 0.088 o
-6 1 16 0.670 0.632 0.026 o
-6 1 17 1.060 1.101 0.038 o
-6 1 18 0.720 0.706 0.030 o
-6 1 19 12.188 11.845 0.266 o
-6 1 20 28.898 28.658 0.661 o
-6 1 21 13.330 13.091 0.297 o
-6 1 22 1.451 1.506 0.047 o
-6 1 23 2.253 2.265 0.065 o
-6 2 1 73.728 73.067 1.620 o
-6 2 2 41.471 41.414 0.917 o
-6 2 3 63.130 63.162 1.404 o
-6 2 4 5.466 5.660 0.130 o
-6 2 5 4.420 4.521 0.105 o
-6 2 6 1.102 1.143 0.033 o
-6 2 7 0.220 0.237 0.015 o
-6 2 8 13.592 13.856 0.314 o
-6 2 9 33.050 32.754 0.734 o
-6 2 10 9.847 10.112 0.240 o
-6 2 11 0.242 0.258 0.016 o
-6 2 12 9.517 9.395 0.211 o
-6 2 13 0.253 0.269 0.019 o
-6 2 14 6.712 6.533 0.150 o
-6 2 15 2.822 2.850 0.072 o
-6 2 16 0.371 0.367 0.021 o
-6 2 17 9.786 9.722 0.219 o
-6 2 18 19.858 19.654 0.439 o
-6 2 19 2.632 2.586 0.067 o
-6 2 20 21.358 21.462 0.501 o
-6 2 21 1.691 1.600 0.053 o
-6 2 22 0.158 0.146 0.024 o
-6 3 1 13.578 13.711 0.306 o
-6 3 2 12.311 12.127 0.272 o
-6 3 3 1.511 1.792 0.047 o
-6 3 4 4.536 4.745 0.110 o
-6 3 5 0.699 0.667 0.027 o
-6 3 6 6.200 6.975 0.159 o
-6 3 7 8.231 7.888 0.179 o
-6 3 8 42.220 41.194 0.941 o
-6 3 9 33.296 32.915 0.726 o
-6 3 10 0.521 0.540 0.022 o
-6 3 11 4.453 4.487 0.106 o
-6 3 12 0.442 0.942 0.032 o
-6 3 13 7.060 7.095 0.162 o
-6 3 14 57.272 57.185 1.288 o
-6 3 15 13.071 13.160 0.294 o
-6 3 16 1.808 1.856 0.050 o
-6 3 17 0.641 0.615 0.027 o
-6 3 18 8.855 8.725 0.213 o
-6 3 19 15.858 16.273 0.362 o
-6 3 20 1.071 0.964 0.040 o
-6 3 21 0.459 0.444 0.127 o
-6 4 1 8.184 8.167 0.187 o
-6 4 3 7.315 7.245 0.170 o
-6 4 4 43.898 43.801 0.971 o
-6 4 5 40.702 40.501 0.891 o
-6 4 6 1.946 1.908 0.056 o
-6 4 8 7.132 7.033 0.160 o
-6 4 9 0.101 0.092 0.016 o
-6 4 10 1.911 1.898 0.050 o
-6 4 11 7.155 7.048 0.162 o
-6 4 12 12.022 11.920 0.282 o
-6 4 13 14.136 14.250 0.322 o
-6 4 14 14.199 14.042 0.314 o
-6 4 15 23.330 23.302 0.513 o
-6 4 16 0.522 0.566 0.027 o
-6 4 17 0.103 0.090 0.020 o
-6 4 18 6.972 6.845 0.176 o
-6 5 2 0.676 0.767 0.032 o
-6 5 3 1.224 1.195 0.037 o
-6 5 4 38.597 38.591 0.882 o
-6 5 6 6.983 6.894 0.158 o
-6 5 7 2.733 2.682 0.067 o
-6 5 8 16.627 16.808 0.374 o
-6 5 9 1.444 1.408 0.048 o
-6 5 10 15.786 15.475 0.350 o
-6 5 11 0.534 0.519 0.025 o
-6 5 12 0.248 0.240 0.023 o
-6 5 13 0.643 0.585 0.030 o
-6 5 14 2.398 2.331 0.068 o
-6 5 15 1.434 1.444 0.051 o
-6 6 1 1.825 1.894 0.064 o
-6 6 2 4.446 4.569 0.112 o
-6 6 3 0.392 0.559 0.029 o
-6 6 4 3.336 3.430 0.084 o
-6 6 5 9.715 9.918 0.226 o
-6 6 6 1.089 1.544 0.048 o
-6 6 7 0.821 0.765 0.035 o
-6 6 8 0.505 0.532 0.029 o
-5 0 2 95.321 94.245 2.065 o
-5 0 4 19.067 18.698 0.412 o
-5 0 6 120.794 120.667 2.661 o
-5 0 8 292.129 291.907 6.518 o
-5 0 10 103.609 106.257 2.342 o
-5 0 12 45.654 45.715 1.008 o
-5 0 14 0.615 0.594 0.033 o
-5 0 16 0.154 0.132 0.025 o
-5 0 18 27.462 26.986 0.574 o
-5 0 20 102.455 99.751 2.104 o
-5 0 22 0.210 0.209 0.032 o
-5 0 24 0.603 0.528 0.116 o
-5 1 1 58.138 57.812 1.280 o
-5 1 2 262.231 258.900 5.785 o
-5 1 3 52.227 52.848 1.174 o
-5 1 4 95.152 97.093 2.154 o
-5 1 5 31.676 31.699 0.702 o
-5 1 6 4.019 4.098 0.094 o
-5 1 7 0.980 0.993 0.028 o
-5 1 8 17.823 17.826 0.396 o
-5 1 9 275.211 275.319 6.159 o
-5 1 10 27.235 27.035 0.606 o
-5 1 11 0.199 0.176 0.013 o
-5 1 12 25.780 25.926 0.580 o
-5 1 13 9.548 9.355 0.210 o
-5 1 14 26.586 26.957 0.605 o
-5 1 15 40.875 41.150 0.907 o
-5 1 16 56.134 56.415 1.239 o
-5 1 17 16.756 16.654 0.382 o
-5 1 18 0.587 0.595 0.027 o
-5 1 19 42.176 41.984 0.959 o
-5 1 20 0.594 0.575 0.029 o
-5 1 21 1.041 1.031 0.038 o
-5 1 22 1.482 1.581 0.048 o
-5 1 23 0.261 0.201 0.025 o
-5 2 1 9.590 9.698 0.217 o
-5 2 2 0.607 0.636 0.022 o
-5 2 3 4.475 4.460 0.103 o
-5 2 4 29.354 29.125 0.646 o
-5 2 5 183.502 181.076 4.042 o
-5 2 6 85.746 84.188 1.889 o
-5 2 7 22.586 22.499 0.504 o
-5 2 8 2.023 2.016 0.053 o
-5 2 9 0.155 0.155 0.012 o
-5 2 11 42.012 41.716 0.928 o
-5 2 12 25.422 25.099 0.562 o
-5 2 13 76.016 75.589 1.685 o
-5 2 14 0.736 0.742 0.027 o
-5 2 15 12.516 12.401 0.279 o
-5 2 16 3.547 3.533 0.084 o
-5 2 17 8.158 8.100 0.184 o
-5 2 18 5.040 5.150 0.123 o
-5 2 19 11.771 11.636 0.262 o
-5 2 21 0.240 0.227 0.034 o
-5 2 22 10.354 10.560 0.240 o
-5 2 23 8.005 7.942 0.205 o
-5 3 1 21.078 20.537 0.457 o
-5 3 2 0.087 0.078 0.012 o
-5 3 3 6.390 6.320 0.145 o
-5 3 4 12.253 11.776 0.265 o
-5 3 5 3.813 3.847 0.090 o
-5 3 6 4.870 4.839 0.111 o
-5 3 7 16.477 16.687 0.371 o
-5 3 8 2.298 2.333 0.057 o
-5 3 10 6.984 6.854 0.158 o
-5 3 11 0.580 0.593 0.022 o
-5 3 12 0.755 0.755 0.026 o
-5 3 13 0.042 0.042 0.014 o
-5 3 14 0.843 0.836 0.029 o
-5 3 15 2.433 2.375 0.066 o
-5 3 17 0.124 0.152 0.017 o
-5 3 18 13.166 12.911 0.290 o
-5 3 19 6.151 6.158 0.144 o
-5 3 20 0.266 0.260 0.025 o
-5 3 21 0.955 0.932 0.050 o
-5 4 1 3.449 3.388 0.085 o
-5 4 3 24.818 25.225 0.559 o
-5 4 4 25.047 25.023 0.560 o
-5 4 5 14.309 14.022 0.320 o
-5 4 7 1.202 1.111 0.033 o
-5 4 8 26.119 25.750 0.587 o
-5 4 10 24.639 24.391 0.553 o
-5 4 11 0.372 0.331 0.019 o
-5 4 12 2.126 2.009 0.054 o
-5 4 13 15.472 15.193 0.338 o
-5 4 14 7.417 7.350 0.172 o
-5 4 15 13.812 13.556 0.303 o
-5 4 17 2.455 2.411 0.065 o
-5 4 18 17.269 17.380 0.395 o
-5 4 19 0.445 0.502 0.028 o
-5 5 1 2.813 2.808 0.072 o
-5 5 2 4.276 4.281 0.102 o
-5 5 3 3.245 3.289 0.084 o
-5 5 4 67.597 67.881 1.493 o
-5 5 5 0.218 0.325 0.019 o
-5 5 6 9.202 9.130 0.206 o
-5 5 7 2.569 2.537 0.067 o
-5 5 8 6.474 6.513 0.153 o
-5 5 9 3.019 2.910 0.074 o
-5 5 10 3.717 3.651 0.089 o
-5 5 12 11.963 11.657 0.263 o
-5 5 13 4.302 4.187 0.106 o
-5 5 14 51.285 51.052 1.279 o
-5 5 15 0.097 0.136 0.025 o
-5 5 16 0.772 0.697 0.034 o
-5 6 2 0.351 0.396 0.026 o
-5 6 3 20.284 20.068 0.443 o
-5 6 4 2.933 2.947 0.076 o
-5 6 5 1.482 1.441 0.046 o
-5 6 6 0.921 0.894 0.034 o
-5 6 7 1.755 1.809 0.052 o
-5 6 8 12.144 12.173 0.275 o
-5 6 9 2.552 2.526 0.067 o
-5 6 10 10.093 10.005 0.228 o
-5 6 11 0.766 0.776 0.033 o
-4 0 2 1008.376 949.704 20.850 o
-4 0 4 124.373 126.343 2.788 o
-4 0 6 47.726 46.942 1.026 o
-4 0 8 589.567 580.399 12.851 o
-4 0 10 1.751 1.770 0.049 o
-4 0 12 248.216 245.660 5.496 o
-4 0 14 1.930 1.933 0.060 o
-4 0 16 57.864 58.515 1.261 o
-4 0 18 136.593 135.948 3.118 o
-4 0 22 1.341 1.363 0.062 o
-4 0 24 1.906 1.948 0.082 o
-4 1 1 97.213 94.389 2.091 o
-4 1 2 60.376 58.672 1.300 o
-4 1 3 1.597 1.629 0.041 o
-4 1 4 33.917 34.896 0.771 o
-4 1 5 0.033 0.039 0.008 o
-4 1 6 184.295 183.298 4.091 o
-4 1 7 89.578 91.377 2.030 o
-4 1 8 181.715 180.123 4.019 o
-4 1 9 47.681 47.754 1.073 o
-4 1 10 0.029 0.040 0.009 o
-4 1 11 1.776 1.850 0.048 o
-4 1 12 84.523 84.925 1.885 o
-4 1 13 15.855 15.792 0.357 o
-4 1 14 17.282 17.337 0.388 o
-4 1 15 0.129 0.108 0.015 o
-4 1 16 22.768 22.652 0.516 o
-4 1 17 4.697 4.558 0.109 o
-4 1 18 1.051 0.952 0.037 o
-4 1 19 54.428 54.047 1.214 o
-4 1 20 12.346 12.097 0.272 o
-4 1 21 1.651 1.551 0.051 o
-4 1 22 23.304 22.787 0.513 o
-4 1 23 9.716 9.865 0.225 o
-4 1 24 2.807 2.704 0.109 o
-4 2 1 55.941 55.076 1.221 o
-4 2 2 13.162 13.305 0.297 o
-4 2 3 81.983 81.637 1.811 o
-4 2 4 63.950 64.473 1.433 o
-4 2 5 6.162 6.153 0.139 o
-4 2 6 5.682 5.956 0.135 o
-4 2 7 6.717 7.206 0.162 o
-4 2 8 85.240 85.819 1.914 o
-4 2 9 14.430 14.256 0.322 o
-4 2 10 31.783 31.822 0.713 o
-4 2 11 7.844 7.865 0.182 o
-4 2 12 0.808 0.889 0.032 o
-4 2 13 3.288 3.409 0.081 o
-4 2 14 23.233 23.300 0.533 o
-4 2 15 35.621 35.640 0.801 o
-4 2 16 10.478 10.639 0.240 o
-4 2 17 7.557 7.542 0.172 o
-4 2 18 7.960 7.818 0.179 o
-4 2 19 6.278 6.289 0.163 o
-4 2 20 0.110 0.125 0.025 o
-4 2 21 4.702 4.506 0.112 o
-4 2 22 4.049 4.268 0.114 o
-4 2 23 19.653 19.309 0.428 o
-4 3 1 5.241 5.229 0.120 o
-4 3 2 14.267 14.210 0.317 o
-4 3 3 24.104 23.960 0.531 o
-4 3 4 251.695 248.679 5.563 o
-4 3 5 30.492 29.433 0.652 o
-4 3 6 8.704 8.428 0.189 o
-4 3 7 5.474 5.472 0.125 o
-4 3 8 0.253 0.290 0.014 o
-4 3 9 38.749 38.581 0.864 o
-4 3 10 66.617 66.503 1.469 o
-4 3 11 21.798 21.571 0.478 o
-4 3 12 12.869 12.783 0.287 o
-4 3 13 1.048 1.043 0.036 o
-4 3 14 32.947 32.764 0.740 o
-4 3 15 6.100 6.026 0.139 o
-4 3 16 4.111 4.048 0.096 o
-4 3 17 15.252 15.107 0.347 o
-4 3 18 2.739 2.657 0.069 o
-4 3 20 6.457 6.264 0.149 o
-4 3 21 1.617 1.705 0.057 o
-4 3 22 1.215 1.110 0.077 o
-4 4 1 0.216 0.194 0.019 o
-4 4 2 5.305 5.407 0.125 o
-4 4 3 62.791 62.473 1.379 o
-4 4 4 0.855 1.110 0.033 o
-4 4 5 11.885 11.750 0.263 o
-4 4 6 29.532 29.896 0.663 o
-4 4 7 10.285 9.925 0.223 o
-4 4 8 4.683 4.634 0.107 o
-4 4 9 2.347 2.273 0.057 o
-4 4 10 3.048 2.976 0.072 o
-4 4 11 0.120 0.112 0.014 o
-4 4 12 0.343 0.445 0.021 o
-4 4 13 29.805 29.722 0.655 o
-4 4 14 23.659 23.069 0.510 o
-4 4 15 0.882 0.901 0.033 o
-4 4 16 1.896 1.837 0.052 o
-4 4 17 4.875 4.873 0.121 o
-4 4 18 2.211 2.299 0.063 o
-4 4 20 4.836 4.819 0.135 o
-4 5 1 0.044 0.062 0.016 o
-4 5 2 22.999 22.999 0.508 o
-4 5 3 2.353 2.330 0.060 o
-4 5 4 0.560 0.531 0.021 o
-4 5 5 0.073 0.061 0.013 o
-4 5 6 5.698 5.656 0.138 o
-4 5 7 0.063 0.060 0.015 o
-4 5 8 8.413 8.224 0.191 o
-4 5 9 0.204 0.175 0.018 o
-4 5 10 12.831 12.655 0.283 o
-4 5 11 1.402 1.386 0.042 o
-4 5 12 7.985 7.719 0.177 o
-4 5 13 0.577 0.609 0.028 o
-4 5 14 13.837 13.490 0.329 o
-4 5 15 0.245 0.210 0.023 o
-4 5 17 1.705 1.638 0.056 o
-4 6 1 0.126 0.165 0.022 o
-4 6 2 5.023 5.009 0.124 o
-4 6 3 13.627 13.521 0.309 o
-4 6 4 3.588 3.539 0.087 o
-4 6 5 6.017 5.816 0.136 o
-4 6 6 1.820 1.797 0.050 o
-4 6 7 9.841 9.804 0.222 o
-4 6 8 1.479 1.395 0.043 o
-4 6 9 0.205 0.204 0.020 o
-4 6 10 0.227 0.209 0.020 o
-4 6 11 0.543 0.567 0.027 o
-4 6 12 4.502 4.541 0.116 o
-3 0 2 15.507 15.638 0.381 o
-3 0 4 95.527 94.065 2.191 o
-3 0 6 13.295 14.491 0.396 o
-3 0 8 22.640 22.846 0.522 o
-3 0 10 4.177 4.333 0.103 o
-3 0 12 148.979 150.269 3.303 o
-3 0 14 18.758 18.208 0.402 o
-3 0 16 13.813 13.477 0.297 o
-3 0 18 34.040 34.139 0.765 o
-3 0 20 10.116 9.560 0.220 o
-3 0 22 100.369 98.533 4.898 o
-3 0 24 0.078 0.414 0.048 o
-3 1 1 345.238 330.679 7.435 o
-3 1 2 34.845 34.773 0.792 o
-3 1 3 164.217 168.549 3.762 o
-3 1 4 235.306 239.985 5.346 o
-3 1 5 217.592 217.940 4.985 o
-3 1 6 0.293 0.311 0.017 o
-3 1 7 352.142 354.397 7.966 o
-3 1 8 8.649 8.533 0.193 o
-3 1 9 63.270 63.529 1.403 o
-3 1 10 3.554 3.703 0.086 o
-3 1 11 163.237 164.231 3.674 o
-3 1 12 55.061 55.307 1.230 o
-3 1 13 0.848 0.857 0.028 o
-3 1 14 0.328 0.329 0.019 o
-3 1 15 0.105 0.124 0.016 o
-3 1 16 32.122 32.396 0.739 o
-3 1 17 61.326 60.750 1.382 o
-3 1 18 39.673 39.648 0.891 o
-3 1 19 0.273 0.304 0.025 o
-3 1 20 2.133 2.046 0.059 o
-3 1 21 8.380 8.443 0.194 o
-3 1 22 2.267 2.204 0.063 o
-3 1 23 1.925 1.985 0.059 o
-3 1 24 0.237 0.246 0.057 o
-3 2 1 87.748 86.976 1.931 o
-3 2 2 187.979 184.009 4.106 o
-3 2 3 309.388 307.547 6.856 o
-3 2 4 28.876 28.091 0.623 o
-3 2 5 2.745 2.638 0.062 o
-3 2 6 142.998 141.187 3.139 o
-3 2 7 173.414 172.206 3.838 o
-3 2 8 301.011 293.523 6.552 o
-3 2 9 53.158 54.100 1.200 o
-3 2 10 11.307 11.549 0.258 o
-3 2 11 24.067 23.981 0.533 o
-3 2 12 2.225 2.187 0.054 o
-3 2 13 54.618 55.205 1.235 o
-3 2 14 0.912 0.963 0.030 o
-3 2 15 29.469 29.351 0.653 o
-3 2 16 15.125 14.891 0.330 o
-3 2 17 1.032 0.981 0.035 o
-3 2 18 45.415 44.314 0.968 o
-3 2 19 0.345 0.351 0.029 o
-3 2 20 3.514 3.512 0.090 o
-3 2 21 11.581 11.214 0.270 o
-3 2 23 0.164 0.147 0.024 o
-3 3 1 3.810 4.047 0.094 o
-3 3 2 261.752 258.812 5.783 o
-3 3 3 3.848 6.230 0.173 o
-3 3 4 47.943 47.255 1.049 o
-3 3 5 22.427 22.483 0.500 o
-3 3 6 0.149 0.297 0.017 o
-3 3 7 4.108 4.177 0.096 o
-3 3 8 18.552 18.562 0.415 o
-3 3 9 5.023 5.646 0.129 o
-3 3 10 20.686 21.007 0.468 o
-3 3 11 1.458 1.470 0.040 o
-3 3 12 43.952 44.416 0.985 o
-3 3 13 9.857 9.592 0.219 o
-3 3 14 72.133 72.249 1.589 o
-3 3 15 1.610 1.683 0.046 o
-3 3 17 1.196 1.221 0.042 o
-3 3 18 3.627 3.541 0.087 o
-3 3 19 10.870 10.839 0.252 o
-3 3 20 4.499 4.381 0.111 o
-3 3 21 6.743 7.030 0.165 o
-3 3 22 11.125 10.825 0.284 o
-3 4 1 21.249 21.612 0.478 o
-3 4 2 11.172 11.159 0.249 o
-3 4 3 60.336 60.564 1.339 o
-3 4 4 30.727 30.377 0.677 o
-3 4 5 0.416 0.402 0.017 o
-3 4 6 26.481 26.380 0.594 o
-3 4 7 17.341 17.347 0.386 o
-3 4 8 0.576 0.593 0.023 o
-3 4 9 0.544 0.555 0.023 o
-3 4 10 39.873 39.511 0.878 o
-3 4 11 3.970 3.992 0.095 o
-3 4 12 2.990 3.049 0.077 o
-3 4 13 33.129 33.095 0.738 o
-3 4 14 6.126 6.080 0.142 o
-3 4 16 4.235 4.052 0.100 o
-3 4 17 11.243 10.986 0.264 o
-3 4 18 4.432 4.381 0.108 o
-3 4 19 0.288 0.293 0.025 o
-3 4 20 9.713 9.746 0.243 o
-3 5 1 0.204 0.183 0.016 o
-3 5 2 2.460 2.409 0.060 o
-3 5 3 4.512 4.531 0.108 o
-3 5 4 10.058 9.734 0.224 o
-3 5 5 1.143 1.158 0.035 o
-3 5 6 38.351 37.772 0.837 o
-3 5 7 4.177 4.187 0.100 o
-3 5 8 0.567 0.576 0.030 o
-3 5 9 4.454 4.416 0.105 o
-3 5 10 4.751 4.614 0.109 o
-3 5 11 1.484 1.444 0.043 o
-3 5 12 13.307 12.990 0.291 o
-3 5 13 0.360 0.334 0.022 o
-3 5 14 1.747 1.794 0.052 o
-3 5 16 18.523 18.450 0.410 o
-3 5 17 1.112 1.075 0.042 o
-3 6 1 8.885 8.760 0.207 o
-3 6 2 1.969 1.949 0.066 o
-3 6 3 0.997 1.129 0.043 o
-3 6 4 1.325 1.398 0.042 o
-3 6 5 0.752 0.712 0.029 o
-3 6 6 0.959 0.950 0.033 o
-3 6 7 0.800 0.799 0.030 o
-3 6 8 0.141 0.135 0.018 o
-3 6 9 4.252 4.410 0.105 o
-3 6 10 3.259 3.283 0.081 o
-3 6 11 0.419 0.389 0.023 o
-3 6 12 3.988 4.328 0.107 o
-3 6 13 1.967 1.976 0.060 o
-3 7 1 0.881 0.912 0.134 o
-2 0 2 623.287 627.471 14.862 o
-2 0 6 172.776 178.690 4.144 o
-2 0 8 480.278 457.144 10.770 o
-2 0 10 188.418 191.051 4.329 o
-2 0 12 16.358 17.045 0.377 o
-2 0 14 57.995 57.710 1.252 o
-2 0 16 12.311 12.007 0.268 o
-2 0 18 5.076 5.148 0.133 o
-2 0 20 17.545 17.373 0.461 o
-2 0 22 4.494 4.612 0.130 o
-2 1 1 185.264 196.710 4.419 o
-2 1 2 565.832 571.067 12.655 o
-2 1 3 21.359 21.298 0.488 o
-2 1 4 375.276 373.044 8.333 o
-2 1 5 21.590 22.271 0.510 o
-2 1 6 5.641 5.728 0.153 o
-2 1 7 37.317 34.957 0.790 o
-2 1 8 296.383 293.744 6.563 o
-2 1 9 23.981 23.337 0.517 o
-2 1 10 33.314 33.555 0.762 o
-2 1 11 85.083 86.033 1.925 o
-2 1 12 9.191 9.800 0.220 o
-2 1 13 33.061 32.842 0.736 o
-2 1 14 19.264 19.200 0.440 o
-2 1 15 11.793 11.589 0.278 o
-2 1 16 1.015 1.060 0.038 o
-2 1 17 31.605 31.708 0.801 o
-2 1 18 8.938 8.835 0.201 o
-2 1 19 1.774 1.879 0.054 o
-2 1 20 1.006 1.017 0.039 o
-2 1 21 60.167 59.985 1.314 o
-2 1 22 11.515 11.498 0.262 o
-2 1 24 2.382 2.273 0.102 o
-2 2 1 152.586 155.895 3.516 o
-2 2 2 500.392 493.592 10.949 o
-2 2 3 9.654 9.905 0.225 o
-2 2 4 23.318 23.418 0.520 o
-2 2 5 3.197 3.387 0.079 o
-2 2 6 72.471 74.087 1.643 o
-2 2 7 34.925 34.972 0.776 o
-2 2 8 29.497 29.486 0.656 o
-2 2 9 16.889 17.418 0.388 o
-2 2 10 91.890 93.103 2.068 o
-2 2 11 14.032 13.899 0.310 o
-2 2 12 112.506 112.678 2.498 o
-2 2 13 31.498 31.846 0.709 o
-2 2 14 14.024 14.109 0.322 o
-2 2 15 2.232 2.270 0.056 o
-2 2 16 38.414 38.323 0.902 o
-2 2 17 57.087 56.662 1.237 o
-2 2 18 28.717 29.007 0.640 o
-2 2 19 8.512 8.631 0.198 o
-2 2 20 7.245 7.049 0.165 o
-2 2 21 0.634 0.601 0.031 o
-2 2 22 10.061 10.289 0.234 o
-2 2 23 11.392 11.184 0.254 o
-2 3 1 148.514 148.119 3.301 o
-2 3 2 69.816 70.108 1.553 o
-2 3 3 1.479 1.494 0.038 o
-2 3 4 9.839 9.510 0.214 o
-2 3 5 7.091 6.947 0.157 o
-2 3 6 382.199 376.327 8.411 o
-2 3 7 85.276 84.787 1.879 o
-2 3 8 26.773 26.764 0.596 o
-2 3 9 8.413 8.386 0.189 o
-2 3 10 23.216 23.318 0.521 o
-2 3 11 20.865 20.839 0.471 o
-2 3 12 86.926 88.635 1.966 o
-2 3 13 3.975 4.028 0.099 o
-2 3 14 5.153 5.037 0.119 o
-2 3 15 11.670 11.551 0.263 o
-2 3 16 33.890 33.559 0.739 o
-2 3 17 4.692 4.637 0.109 o
-2 3 18 9.607 9.718 0.225 o
-2 3 19 1.563 1.513 0.049 o
-2 3 20 16.106 15.860 0.369 o
-2 3 22 11.782 11.515 0.269 o
-2 4 1 17.117 17.105 0.380 o
-2 4 2 63.420 63.403 1.403 o
-2 4 3 35.369 34.258 0.761 o
-2 4 4 0.469 0.479 0.019 o
-2 4 5 36.655 36.029 0.804 o
-2 4 6 3.941 4.005 0.094 o
-2 4 7 38.452 38.475 0.852 o
-2 4 8 0.543 0.588 0.024 o
-2 4 9 0.228 0.276 0.017 o
-2 4 10 25.280 24.885 0.548 o
-2 4 11 18.606 18.329 0.405 o
-2 4 12 0.120 0.116 0.017 o
-2 4 13 11.108 10.893 0.251 o
-2 4 14 9.066 9.289 0.216 o
-2 4 15 11.005 10.877 0.249 o
-2 4 16 15.412 15.209 0.347 o
-2 4 17 11.268 11.167 0.252 o
-2 4 18 1.203 1.211 0.047 o
-2 4 19 0.258 0.252 0.027 o
-2 4 20 2.811 2.787 0.087 o
-2 5 1 0.319 0.345 0.019 o
-2 5 2 16.556 16.553 0.367 o
-2 5 3 3.353 3.409 0.081 o
-2 5 4 3.711 3.614 0.086 o
-2 5 5 4.279 4.193 0.099 o
-2 5 7 0.270 0.286 0.022 o
-2 5 8 1.200 1.171 0.044 o
-2 5 9 0.983 0.981 0.033 o
-2 5 10 3.424 3.493 0.085 o
-2 5 11 0.602 0.583 0.026 o
-2 5 12 0.927 0.914 0.034 o
-2 5 13 5.869 5.667 0.137 o
-2 5 14 2.668 2.614 0.072 o
-2 5 15 0.143 0.173 0.025 o
-2 5 16 14.035 13.837 0.310 o
-2 5 17 0.655 0.705 0.036 o
-2 6 1 0.607 0.647 0.031 o
-2 6 2 0.070 0.063 0.019 o
-2 6 3 16.548 15.963 0.355 o
-2 6 4 0.076 0.085 0.019 o
-2 6 5 9.556 9.507 0.218 o
-2 6 7 3.812 3.684 0.091 o
-2 6 8 2.033 2.009 0.058 o
-2 6 9 3.146 2.997 0.077 o
-2 6 10 0.101 0.091 0.021 o
-2 6 11 6.670 6.671 0.163 o
-2 6 12 0.454 0.434 0.030 o
-2 6 13 0.227 0.206 0.028 o
-2 7 1 6.497 6.763 0.159 o
-2 7 2 0.241 0.212 0.025 o
-2 7 3 0.236 0.219 0.026 o
-2 7 4 1.531 1.610 0.060 o
-2 7 5 0.257 0.313 0.057 o
-1 0 2 756.776 752.480 14.215 o
-1 0 4 902.406 809.068 37.359 o
-1 0 6 224.447 212.030 4.715 o
-1 0 8 517.824 505.358 11.678 o
-1 0 10 2.977 3.159 0.078 o
-1 0 12 113.696 114.960 2.633 o
-1 0 14 50.900 50.282 1.098 o
-1 0 16 23.065 23.360 0.501 o
-1 0 18 62.458 62.157 1.277 o
-1 0 20 44.902 44.744 0.947 o
-1 0 22 0.718 0.657 0.046 o
-1 0 24 23.137 22.882 0.963 o
-1 1 2 153.033 164.063 3.626 o
-1 1 3 343.585 353.279 7.775 o
-1 1 4 244.778 262.703 6.578 o
-1 1 5 1.057 1.107 0.042 o
-1 1 6 0.508 0.499 0.029 o
-1 1 7 439.334 424.385 9.845 o
-1 1 8 97.810 97.170 2.192 o
-1 1 9 171.649 177.452 4.002 o
-1 1 10 0.032 0.038 0.008 o
-1 1 11 76.278 76.019 1.702 o
-1 1 12 88.313 89.958 2.006 o
-1 1 13 5.752 5.776 0.133 o
-1 1 14 46.959 46.710 1.026 o
-1 1 15 10.770 10.782 0.249 o
-1 1 16 6.564 6.519 0.158 o
-1 1 17 1.835 1.823 0.052 o
-1 1 18 15.329 15.522 0.344 o
-1 1 19 10.204 9.993 0.235 o
-1 1 20 2.913 2.922 0.083 o
-1 1 21 14.242 14.187 0.317 o
-1 1 22 13.117 12.777 0.288 o
-1 1 23 1.698 1.816 0.062 o
-1 2 1 149.987 148.311 3.289 o
-1 2 2 8.914 8.736 0.217 o
-1 2 3 179.322 179.432 4.059 o
-1 2 4 239.972 234.199 5.223 o
-1 2 5 514.115 495.104 11.082 o
-1 2 6 19.257 19.306 0.431 o
-1 2 7 1.424 1.366 0.035 o
-1 2 8 48.201 48.084 1.076 o
-1 2 9 7.910 8.199 0.184 o
-1 2 10 192.754 191.645 4.310 o
-1 2 11 74.060 75.992 1.698 o
-1 2 12 34.941 35.105 0.784 o
-1 2 13 13.377 13.331 0.305 o
-1 2 14 1.337 1.319 0.037 o
-1 2 15 12.702 12.820 0.293 o
-1 2 16 0.087 0.055 0.017 o
-1 2 18 5.839 5.661 0.139 o
-1 2 19 4.322 4.378 0.107 o
-1 2 20 50.685 50.127 1.117 o
-1 2 21 1.056 1.098 0.044 o
-1 2 22 19.798 20.218 0.464 o
-1 3 1 0.118 0.120 0.009 o
-1 3 2 32.031 33.527 0.743 o
-1 3 3 14.317 14.146 0.315 o
-1 3 4 58.722 58.371 1.290 o
-1 3 5 0.798 0.823 0.025 o
-1 3 6 109.991 110.111 2.444 o
-1 3 7 1.803 1.833 0.046 o
-1 3 8 6.182 6.716 0.152 o
-1 3 9 1.226 1.245 0.034 o
-1 3 10 33.191 33.211 0.739 o
-1 3 11 43.375 43.523 0.971 o
-1 3 12 0.208 0.218 0.016 o
-1 3 13 1.185 1.169 0.037 o
-1 3 14 27.901 27.410 0.601 o
-1 3 15 6.291 6.412 0.147 o
-1 3 16 119.388 119.735 2.637 o
-1 3 17 12.278 12.492 0.279 o
-1 3 18 1.138 1.157 0.043 o
-1 3 19 4.133 4.047 0.105 o
-1 3 20 0.230 0.221 0.031 o
-1 3 21 13.564 13.885 0.314 o
-1 4 1 6.346 6.255 0.142 o
-1 4 2 10.127 10.146 0.227 o
-1 4 3 0.041 0.042 0.011 o
-1 4 4 0.411 0.437 0.018 o
-1 4 5 62.436 63.315 1.402 o
-1 4 6 85.767 85.604 1.920 o
-1 4 7 29.707 29.817 0.659 o
-1 4 8 8.147 8.109 0.185 o
-1 4 9 1.369 1.419 0.040 o
-1 4 11 2.953 3.019 0.074 o
-1 4 12 21.424 21.246 0.470 o
-1 4 13 0.361 0.357 0.023 o
-1 4 14 3.600 3.537 0.088 o
-1 4 15 39.318 39.148 0.860 o
-1 4 16 4.397 4.355 0.108 o
-1 4 17 10.871 10.782 0.245 o
-1 4 19 0.704 0.689 0.036 o
-1 4 20 10.604 10.013 0.243 o
-1 5 1 10.378 10.318 0.236 o
-1 5 2 75.292 74.645 1.644 o
-1 5 3 1.189 1.225 0.036 o
-1 5 4 5.082 5.052 0.117 o
-1 5 5 0.184 0.177 0.015 o
-1 5 6 33.488 32.773 0.723 o
-1 5 7 1.045 1.070 0.035 o
-1 5 8 0.905 0.888 0.031 o
-1 5 9 7.090 6.951 0.161 o
-1 5 10 15.395 15.253 0.339 o
-1 5 11 1.561 1.592 0.046 o
-1 5 12 14.781 14.486 0.330 o
-1 5 14 1.948 1.893 0.084 o
-1 5 15 1.203 1.123 0.052 o
-1 5 16 0.198 0.255 0.031 o
-1 5 17 0.493 0.537 0.032 o
-1 6 1 2.298 2.211 0.061 o
-1 6 2 7.023 6.997 0.162 o
-1 6 3 0.063 0.074 0.019 o
-1 6 4 1.804 1.768 0.059 o
-1 6 5 0.851 0.845 0.031 o
-1 6 6 9.592 9.742 0.223 o
-1 6 7 9.527 9.391 0.213 o
-1 6 8 2.776 2.732 0.072 o
-1 6 10 0.551 0.505 0.030 o
-1 6 12 0.131 0.130 0.025 o
-1 6 13 3.527 3.456 0.099 o
-1 7 1 1.542 1.577 0.050 o
-1 7 3 3.517 3.489 0.090 o
-1 7 4 3.620 3.680 0.100 o
-1 7 5 0.242 0.180 0.033 o
0 0 2 153.711 149.413 3.636 o
0 0 4 71.381 73.374 1.846 o
0 0 6 1040.474 1001.669 23.940 o
0 0 8 294.059 292.357 6.830 o
0 0 10 417.023 406.770 9.068 o
0 0 12 14.472 14.773 0.323 o
0 0 14 53.526 54.939 1.193 o
0 0 16 11.414 11.534 0.256 o
0 0 18 0.621 1.626 0.127 o
0 0 20 10.773 11.771 0.268 o
0 0 22 16.961 17.752 0.389 o
0 1 1 460.782 471.975 10.531 o
0 1 2 94.360 94.950 2.101 o
0 1 3 19.865 18.891 0.428 o
0 1 4 1590.952 1421.246 37.170 o
0 1 5 68.250 73.213 1.647 o
0 1 6 324.540 309.918 6.869 o
0 1 7 36.623 37.297 0.842 o
0 1 8 29.797 27.627 0.621 o
0 1 9 38.977 38.737 0.874 o
0 1 10 151.414 151.067 3.363 o
0 1 11 211.154 208.133 4.657 o
0 1 12 0.210 0.193 0.013 o
0 1 13 27.271 26.773 0.599 o
0 1 14 9.101 9.237 0.207 o
0 1 15 3.586 3.683 0.089 o
0 1 16 3.626 3.824 0.093 o
0 1 17 20.642 20.821 0.458 o
0 1 18 26.400 26.855 0.587 o
0 1 19 52.412 52.153 1.182 o
0 1 20 3.255 3.320 0.092 o
0 1 21 16.830 16.992 0.416 o
0 1 22 4.347 4.422 0.112 o
0 1 23 11.413 11.251 0.266 o
0 2 0 13.217 14.072 0.339 o
0 2 1 76.344 78.126 1.811 o
0 2 2 134.925 137.479 3.058 o
0 2 3 0.055 0.054 0.014 o
0 2 4 192.294 188.506 4.197 o
0 2 5 49.764 50.640 1.133 o
0 2 6 5.501 5.401 0.124 o
0 2 7 142.233 143.056 3.193 o
0 2 8 0.491 0.497 0.018 o
0 2 9 57.034 56.785 1.263 o
0 2 10 26.959 26.835 0.594 o
0 2 11 1.405 1.468 0.043 o
0 2 12 17.305 17.613 0.395 o
0 2 13 10.382 10.428 0.235 o
0 2 14 60.010 60.595 1.346 o
0 2 15 99.963 101.029 2.244 o
0 2 16 2.775 2.776 0.071 o
0 2 18 12.149 12.054 0.270 o
0 2 19 12.907 12.854 0.290 o
0 2 20 26.869 27.351 0.684 o
0 2 21 14.068 14.100 0.338 o
0 2 22 0.456 0.433 0.038 o
0 3 1 52.536 53.097 1.174 o
0 3 2 120.241 119.181 2.641 o
0 3 3 88.297 90.117 2.003 o
0 3 4 58.606 58.973 1.305 o
0 3 5 16.743 16.445 0.369 o
0 3 6 0.251 0.317 0.015 o
0 3 7 0.999 1.059 0.030 o
0 3 8 102.357 102.618 2.287 o
0 3 9 42.955 43.152 0.963 o
0 3 10 1.408 1.376 0.038 o
0 3 11 1.450 1.533 0.042 o
0 3 12 7.195 8.727 0.205 o
0 3 14 28.536 28.909 0.663 o
0 3 15 0.277 0.354 0.025 o
0 3 16 1.224 1.232 0.051 o
0 3 17 5.407 5.345 0.128 o
0 3 18 4.899 5.424 0.133 o
0 3 19 0.383 0.423 0.037 o
0 3 20 12.942 13.051 0.295 o
0 3 21 2.720 2.796 0.086 o
0 4 0 2.993 2.954 0.073 o
0 4 1 13.262 12.784 0.285 o
0 4 2 59.717 60.013 1.325 o
0 4 3 4.137 4.119 0.095 o
0 4 4 12.744 12.806 0.286 o
0 4 5 80.184 79.224 1.751 o
0 4 6 6.725 6.676 0.152 o
0 4 7 0.136 0.160 0.015 o
0 4 8 5.760 5.851 0.135 o
0 4 9 6.480 6.389 0.146 o
0 4 10 17.357 17.008 0.377 o
0 4 11 0.730 0.714 0.027 o
0 4 12 25.216 25.123 0.559 o
0 4 13 6.491 6.379 0.154 o
0 4 14 0.099 0.119 0.021 o
0 4 15 27.314 27.090 0.612 o
0 4 16 17.608 17.591 0.392 o
0 4 17 0.810 0.769 0.035 o
0 4 18 2.477 2.446 0.076 o
0 4 19 3.562 3.628 0.101 o
0 5 2 7.673 7.695 0.175 o
0 5 3 1.225 1.192 0.036 o
0 5 4 25.094 24.919 0.548 o
0 5 5 3.171 3.172 0.077 o
0 5 6 76.815 76.211 1.679 o
0 5 8 6.737 6.595 0.155 o
0 5 9 0.126 0.120 0.017 o
0 5 10 0.204 0.212 0.020 o
0 5 11 3.933 3.938 0.112 o
0 5 12 8.515 8.365 0.195 o
0 5 13 1.020 1.021 0.042 o
0 5 14 14.715 14.793 0.331 o
0 5 15 1.685 1.649 0.057 o
0 5 16 25.332 24.678 0.541 o
0 5 17 0.366 0.393 0.047 o
0 6 0 18.143 18.005 0.394 o
0 6 1 6.238 6.039 0.141 o
0 6 2 10.190 10.143 0.243 o
0 6 3 4.019 4.162 0.102 o
0 6 4 0.755 0.742 0.030 o
0 6 5 29.456 29.216 0.691 o
0 6 6 0.040 0.207 0.022 o
0 6 7 0.222 0.249 0.024 o
0 6 8 0.857 0.839 0.044 o
0 6 9 0.516 0.499 0.029 o
0 6 10 12.425 12.441 0.280 o
0 6 11 1.412 1.373 0.059 o
0 6 12 5.104 5.342 0.128 o
0 6 13 4.935 4.873 0.136 o
0 7 1 8.938 8.899 0.204 o
0 7 3 0.748 0.823 0.038 o
0 7 5 0.962 0.996 0.053 o
1 0 0 362.536 371.366 8.262 o
1 0 2 10.495 10.778 0.321 o
1 0 4 1880.422 1639.022 17.977 o
1 0 6 238.005 225.146 5.085 o
1 0 8 77.092 72.261 1.591 o
1 0 10 702.822 687.327 15.254 o
1 0 12 6.587 6.415 0.182 o
1 0 14 88.122 89.027 2.058 o
1 0 16 13.118 13.311 0.328 o
1 0 18 89.969 91.182 2.045 o
1 0 20 94.313 97.534 1.751 o
1 0 22 4.630 4.454 0.127 o
1 1 1 41.163 40.621 0.917 o
1 1 2 447.306 438.264 9.998 o
1 1 3 834.097 776.297 19.520 o
1 1 4 66.918 68.843 1.529 o
1 1 5 116.816 119.568 2.682 o
1 1 6 214.600 218.704 4.872 o
1 1 7 18.711 18.991 0.432 o
1 1 8 95.273 95.858 2.142 o
1 1 9 195.396 196.123 4.383 o
1 1 10 75.173 75.973 1.689 o
1 1 11 0.076 0.060 0.012 o
1 1 12 1.958 2.038 0.054 o
1 1 13 7.263 7.191 0.165 o
1 1 14 129.772 132.263 2.917 o
1 1 15 4.154 4.318 0.104 o
1 1 16 24.318 24.227 0.560 o
1 1 17 3.844 3.815 0.095 o
1 1 18 4.428 4.299 0.118 o
1 1 19 12.125 12.026 0.270 o
1 1 20 5.496 5.429 0.133 o
1 1 21 10.280 10.164 0.232 o
1 1 22 3.181 3.112 0.091 o
1 2 0 331.136 338.878 7.515 o
1 2 1 283.147 279.832 6.221 o
1 2 2 0.053 0.058 0.018 o
1 2 3 370.827 362.915 8.431 o
1 2 4 20.588 20.462 0.462 o
1 2 5 90.630 93.502 2.099 o
1 2 6 167.482 165.145 3.715 o
1 2 7 84.747 84.594 1.882 o
1 2 8 6.372 6.068 0.140 o
1 2 9 7.586 7.547 0.170 o
1 2 10 4.825 4.679 0.112 o
1 2 11 9.020 9.108 0.205 o
1 2 12 15.582 15.479 0.352 o
1 2 13 27.843 28.523 0.634 o
1 2 14 6.669 6.753 0.154 o
1 2 15 0.885 0.901 0.032 o
1 2 16 5.759 5.972 0.139 o
1 2 17 4.260 4.300 0.107 o
1 2 18 0.160 0.153 0.027 o
1 2 19 6.198 6.200 0.147 o
1 2 20 0.500 0.528 0.035 o
1 2 21 2.438 2.551 0.092 o
1 2 22 11.989 12.264 0.286 o
1 3 0 20.975 19.729 0.437 o
1 3 1 32.333 32.467 0.720 o
1 3 2 49.337 48.633 1.078 o
1 3 3 0.066 0.073 0.009 o
1 3 4 8.303 8.340 0.187 o
1 3 5 23.073 22.689 0.502 o
1 3 6 44.931 45.311 1.000 o
1 3 7 19.565 19.620 0.437 o
1 3 8 26.187 26.240 0.580 o
1 3 9 10.464 10.356 0.237 o
1 3 10 0.811 0.746 0.026 o
1 3 11 15.874 15.829 0.349 o
1 3 12 35.481 35.339 0.775 o
1 3 13 29.880 29.350 0.639 o
1 3 14 15.350 15.357 0.339 o
1 3 15 0.962 0.983 0.038 o
1 3 16 0.337 0.374 0.026 o
1 3 17 1.655 1.670 0.060 o
1 3 18 38.143 38.885 0.929 o
1 3 19 15.889 16.173 0.357 o
1 3 20 0.308 0.293 0.032 o
1 4 0 18.326 18.669 0.414 o
1 4 1 0.580 0.622 0.022 o
1 4 2 58.044 58.347 1.285 o
1 4 3 15.119 15.063 0.333 o
1 4 4 2.988 3.021 0.073 o
1 4 5 53.462 54.054 1.207 o
1 4 6 8.564 8.395 0.189 o
1 4 7 1.314 1.355 0.040 o
1 4 8 61.193 60.351 1.359 o
1 4 9 12.553 12.610 0.281 o
1 4 10 0.039 0.052 0.017 o
1 4 11 1.385 1.449 0.043 o
1 4 12 1.603 1.544 0.051 o
1 4 13 8.328 8.240 0.189 o
1 4 14 1.838 1.821 0.071 o
1 4 15 19.452 19.347 0.427 o
1 4 16 13.491 13.260 0.331 o
1 4 17 4.328 4.344 0.110 o
1 4 18 0.796 0.877 0.045 o
1 4 19 4.587 4.357 0.139 o
1 5 0 4.411 4.460 0.105 o
1 5 1 0.092 0.085 0.017 o
1 5 2 12.575 12.899 0.289 o
1 5 3 0.667 0.668 0.026 o
1 5 4 94.489 94.456 2.085 o
1 5 5 4.209 4.193 0.099 o
1 5 6 0.170 0.160 0.017 o
1 5 7 1.013 1.011 0.035 o
1 5 8 8.245 8.140 0.185 o
1 5 9 0.798 0.824 0.034 o
1 5 10 2.301 2.308 0.063 o
1 5 11 0.910 0.901 0.035 o
1 5 12 23.441 23.010 0.555 o
1 5 13 0.375 0.388 0.029 o
1 5 14 20.519 20.351 0.448 o
1 5 15 0.214 0.242 0.029 o
1 5 16 7.318 7.250 0.183 o
1 6 0 6.627 6.681 0.155 o
1 6 1 5.969 5.904 0.138 o
1 6 2 2.995 3.003 0.077 o
1 6 3 0.632 0.615 0.032 o
1 6 4 5.480 5.368 0.128 o
1 6 5 12.074 11.920 0.287 o
1 6 6 4.079 3.953 0.098 o
1 6 7 0.316 0.267 0.025 o
1 6 8 13.316 13.152 0.295 o
1 6 9 12.112 11.890 0.274 o
1 6 10 6.718 6.729 0.158 o
1 6 11 0.205 0.236 0.025 o
1 6 12 0.125 0.101 0.032 o
1 7 0 2.211 2.196 0.064 o
1 7 1 1.758 1.729 0.054 o
1 7 2 0.779 0.775 0.035 o
1 7 3 0.509 0.494 0.033 o
1 7 4 1.660 1.641 0.072 o
2 0 0 24.222 26.121 0.596 o
2 0 4 8.271 8.486 0.241 o
2 0 6 4.166 4.112 0.103 o
2 0 8 103.927 106.807 2.348 o
2 0 10 34.688 35.660 0.779 o
2 0 12 79.782 80.028 1.739 o
2 0 14 100.741 103.656 2.221 o
2 0 16 36.846 37.386 0.806 o
2 0 18 5.300 5.632 0.178 o
2 0 20 19.943 19.973 0.556 o
2 0 22 16.197 16.262 0.445 o
2 1 0 377.774 380.131 8.501 o
2 1 1 66.829 70.520 1.599 o
2 1 2 3.108 2.918 0.123 o
2 1 3 482.416 472.912 10.572 o
2 1 4 9.945 9.615 0.246 o
2 1 5 20.851 20.681 0.465 o
2 1 6 443.190 429.401 9.544 o
2 1 7 31.968 30.900 0.691 o
2 1 8 49.717 48.770 1.083 o
2 1 9 185.005 182.932 4.090 o
2 1 10 44.188 44.157 0.982 o
2 1 11 1.911 1.801 0.048 o
2 1 12 24.895 25.323 0.568 o
2 1 13 122.878 124.103 2.728 o
2 1 14 3.206 3.243 0.081 o
2 1 15 5.547 5.629 0.141 o
2 1 16 0.459 0.485 0.027 o
2 1 17 4.537 4.566 0.146 o
2 1 18 22.016 22.519 0.542 o
2 1 19 35.439 35.399 0.895 o
2 1 20 26.704 26.427 0.568 o
2 1 21 9.941 9.870 0.233 o
2 1 22 0.669 0.651 0.054 o
2 2 0 547.575 519.510 11.549 o
2 2 1 1.855 1.844 0.049 o
2 2 2 3.013 3.090 0.073 o
2 2 3 18.441 17.588 0.392 o
2 2 4 1.233 1.235 0.032 o
2 2 5 155.960 154.919 3.449 o
2 2 6 10.678 10.729 0.239 o
2 2 7 58.387 58.507 1.302 o
2 2 8 57.644 57.637 1.274 o
2 2 9 80.256 81.122 1.787 o
2 2 10 77.466 78.973 1.733 o
2 2 11 32.850 33.248 0.737 o
2 2 12 0.463 0.468 0.026 o
2 2 13 36.807 37.402 0.816 o
2 2 14 1.764 1.664 0.054 o
2 2 15 13.269 13.182 0.292 o
2 2 16 13.410 13.737 0.310 o
2 2 17 48.426 48.460 1.128 o
2 2 18 2.375 2.537 0.077 o
2 2 20 2.064 2.045 0.069 o
2 3 0 13.694 13.248 0.295 o
2 3 1 31.219 30.631 0.677 o
2 3 2 93.006 93.661 2.068 o
2 3 3 4.673 4.678 0.107 o
2 3 4 222.870 223.527 4.990 o
2 3 5 7.847 8.217 0.188 o
2 3 6 2.363 2.462 0.061 o
2 3 7 30.583 30.586 0.677 o
2 3 8 1.912 1.743 0.046 o
2 3 9 1.447 1.392 0.038 o
2 3 10 2.581 2.610 0.066 o
2 3 11 0.234 0.247 0.019 o
2 3 12 3.868 3.978 0.096 o
2 3 13 0.126 0.143 0.018 o
2 3 14 8.773 8.727 0.227 o
2 3 15 5.403 5.301 0.150 o
2 3 16 3.932 3.914 0.101 o
2 3 17 0.230 0.228 0.035 o
2 3 18 1.597 1.514 0.058 o
2 3 19 0.311 0.281 0.045 o
2 3 20 0.358 0.333 0.044 o
2 4 0 13.595 13.226 0.294 o
2 4 2 2.059 2.109 0.053 o
2 4 3 57.062 57.352 1.275 o
2 4 4 56.469 56.297 1.252 o
2 4 5 18.894 18.970 0.421 o
2 4 6 3.647 3.708 0.088 o
2 4 7 19.231 19.001 0.426 o
2 4 8 5.387 5.397 0.125 o
2 4 9 6.908 6.931 0.158 o
2 4 10 1.742 1.715 0.055 o
2 4 11 0.249 0.228 0.022 o
2 4 12 36.463 35.909 0.798 o
2 4 13 12.118 12.038 0.270 o
2 4 14 8.163 8.189 0.196 o
2 4 15 5.741 5.747 0.138 o
2 4 17 6.539 6.538 0.160 o
2 4 18 11.511 11.661 0.265 o
2 5 0 11.748 11.851 0.264 o
2 5 1 3.844 3.870 0.102 o
2 5 2 1.967 1.947 0.053 o
2 5 3 1.448 1.473 0.042 o
2 5 4 2.924 2.964 0.073 o
2 5 5 1.294 1.264 0.044 o
2 5 6 1.932 1.917 0.057 o
2 5 7 0.228 0.258 0.021 o
2 5 8 74.346 74.007 1.644 o
2 5 9 5.786 5.859 0.136 o
2 5 10 3.771 3.610 0.091 o
2 5 11 0.306 0.313 0.022 o
2 5 12 0.816 0.826 0.035 o
2 5 13 1.668 1.752 0.058 o
2 5 14 19.382 19.291 0.429 o
2 5 15 1.162 1.259 0.061 o
2 6 0 0.913 0.893 0.038 o
2 6 1 0.604 0.570 0.031 o
2 6 2 7.390 7.378 0.187 o
2 6 3 13.409 13.308 0.301 o
2 6 4 7.344 7.460 0.184 o
2 6 5 0.216 0.220 0.021 o
2 6 6 0.306 0.294 0.023 o
2 6 7 5.708 5.615 0.133 o
2 6 8 0.727 0.776 0.035 o
2 6 9 0.541 0.481 0.028 o
2 6 11 3.522 3.528 0.102 o
2 7 0 1.245 1.239 0.045 o
2 7 1 2.463 2.435 0.068 o
2 7 2 0.397 0.421 0.031 o
2 7 3 2.230 2.203 0.078 o
3 0 0 413.447 403.539 10.594 o
3 0 2 196.153 189.976 4.434 o
3 0 4 21.651 22.227 0.481 o
3 0 6 611.790 580.347 12.802 o
3 0 8 11.043 10.985 0.254 o
3 0 10 1.309 1.284 0.058 o
3 0 12 286.583 287.996 6.513 o
3 0 14 3.734 3.874 0.123 o
3 0 16 11.528 11.443 0.350 o
3 0 18 10.615 10.450 0.246 o
3 0 20 37.780 38.358 0.852 o
3 1 0 115.877 114.102 2.552 o
3 1 1 456.589 440.571 10.541 o
3 1 2 462.447 442.159 10.178 o
3 1 3 41.949 42.794 0.973 o
3 1 4 11.901 11.887 0.273 o
3 1 5 5.490 5.308 0.126 o
3 1 6 4.715 4.835 0.113 o
3 1 7 29.903 29.804 0.660 o
3 1 8 38.835 39.356 0.872 o
3 1 9 1.462 1.480 0.046 o
3 1 10 86.862 88.460 1.952 o
3 1 11 14.381 14.261 0.321 o
3 1 12 11.295 11.473 0.257 o
3 1 13 36.837 37.760 0.862 o
3 1 14 0.643 0.671 0.033 o
3 1 15 3.100 3.184 0.085 o
3 1 16 60.689 60.972 1.365 o
3 1 17 1.373 1.417 0.071 o
3 1 18 3.028 3.030 0.087 o
3 1 19 8.160 8.007 0.259 o
3 1 20 0.511 0.452 0.041 o
3 1 21 4.506 4.478 0.130 o
3 2 0 1.952 2.008 0.049 o
3 2 1 7.877 8.112 0.183 o
3 2 2 284.090 281.121 6.275 o
3 2 3 107.260 105.761 2.352 o
3 2 4 95.462 93.809 2.077 o
3 2 5 64.753 63.658 1.408 o
3 2 6 45.593 45.963 1.026 o
3 2 7 3.704 3.938 0.092 o
3 2 8 106.546 106.561 2.375 o
3 2 9 2.389 2.336 0.060 o
3 2 10 11.592 11.618 0.266 o
3 2 11 9.519 9.597 0.218 o
3 2 12 22.192 22.684 0.537 o
3 2 13 2.990 2.902 0.083 o
3 2 14 8.299 8.065 0.185 o
3 2 15 1.317 1.240 0.054 o
3 2 16 2.007 1.944 0.063 o
3 2 17 7.168 7.226 0.186 o
3 2 18 21.692 21.525 0.583 o
3 2 19 15.378 15.436 0.374 o
3 2 20 6.935 6.698 0.169 o
3 3 0 72.724 75.518 1.669 o
3 3 1 2.216 2.154 0.053 o
3 3 2 21.670 21.480 0.476 o
3 3 3 102.422 101.989 2.259 o
3 3 4 110.961 110.414 2.445 o
3 3 5 0.157 0.181 0.014 o
3 3 6 20.541 21.149 0.476 o
3 3 7 2.211 2.209 0.055 o
3 3 8 118.317 119.665 2.640 o
3 3 9 36.276 37.453 0.845 o
3 3 10 0.261 0.297 0.021 o
3 3 11 16.630 16.645 0.378 o
3 3 12 33.864 33.475 0.752 o
3 3 13 12.486 12.477 0.326 o
3 3 14 50.870 50.935 1.159 o
3 3 15 4.860 5.104 0.124 o
3 3 16 8.401 8.366 0.215 o
3 3 17 7.469 7.566 0.185 o
3 3 18 2.175 2.288 0.099 o
3 3 19 0.804 0.860 0.075 o
3 4 0 6.600 6.500 0.147 o
3 4 1 0.306 0.326 0.016 o
3 4 2 2.405 2.365 0.059 o
3 4 3 18.761 18.963 0.421 o
3 4 4 39.532 39.763 0.871 o
3 4 5 0.234 0.272 0.019 o
3 4 6 0.303 0.286 0.018 o
3 4 7 56.934 56.943 1.254 o
3 4 8 20.878 21.045 0.463 o
3 4 9 10.056 9.924 0.223 o
3 4 10 11.615 11.491 0.267 o
3 4 12 1.847 1.816 0.061 o
3 4 13 14.005 13.436 0.301 o
3 4 14 3.294 3.260 0.090 o
3 4 16 2.474 2.495 0.078 o
3 4 17 17.181 17.153 0.425 o
3 5 0 18.497 18.234 0.417 o
3 5 1 9.307 9.293 0.214 o
3 5 2 3.126 3.219 0.079 o
3 5 4 0.073 0.090 0.018 o
3 5 5 1.906 1.865 0.051 o
3 5 6 16.154 16.121 0.360 o
3 5 7 4.697 4.722 0.114 o
3 5 8 1.597 1.604 0.052 o
3 5 9 0.416 0.435 0.025 o
3 5 12 1.717 1.680 0.058 o
3 5 13 0.382 0.408 0.036 o
3 5 14 1.715 1.696 0.076 o
3 6 0 0.067 0.381 0.032 o
3 6 1 1.032 1.016 0.049 o
3 6 2 1.334 1.343 0.054 o
3 6 3 0.673 1.002 0.037 o
3 6 4 1.246 1.235 0.046 o
3 6 5 3.495 3.448 0.093 o
3 6 6 0.768 0.781 0.034 o
3 6 7 15.186 15.269 0.340 o
3 6 8 0.265 0.257 0.029 o
3 6 9 0.713 1.108 0.046 o
3 6 10 2.244 2.396 0.070 o
4 0 0 45.790 45.675 1.008 o
4 0 4 38.716 38.674 0.877 o
4 0 6 13.734 13.090 0.290 o
4 0 8 1.096 1.054 0.043 o
4 0 10 4.354 4.487 0.113 o
4 0 12 2.965 3.016 0.091 o
4 0 14 0.074 0.100 0.033 o
4 0 16 50.284 52.321 1.037 o
4 0 18 0.190 0.193 0.041 o
4 1 0 2.496 2.444 0.060 o
4 1 1 156.411 154.894 3.451 o
4 1 2 191.573 186.981 4.175 o
4 1 3 217.891 212.878 4.754 o
4 1 4 2.989 3.033 0.071 o
4 1 5 94.017 91.864 2.075 o
4 1 6 41.519 40.876 0.905 o
4 1 7 8.345 8.454 0.191 o
4 1 8 28.705 29.290 0.644 o
4 1 9 21.416 21.550 0.488 o
4 1 10 0.294 0.297 0.024 o
4 1 11 130.679 132.640 2.913 o
4 1 12 11.862 12.005 0.268 o
4 1 13 6.517 6.307 0.147 o
4 1 14 2.479 2.554 0.070 o
4 1 15 9.745 9.781 0.270 o
4 1 16 3.395 3.404 0.093 o
4 1 17 8.894 8.968 0.227 o
4 1 18 0.522 0.474 0.063 o
4 1 19 1.360 1.476 0.063 o
4 1 20 18.628 18.073 0.397 o
4 2 0 122.824 121.815 2.705 o
4 2 1 77.122 77.262 1.712 o
4 2 2 308.201 302.748 6.763 o
4 2 3 57.427 56.769 1.256 o
4 2 4 15.728 15.956 0.355 o
4 2 5 0.583 0.624 0.023 o
4 2 6 7.118 7.146 0.163 o
4 2 7 157.992 159.154 3.541 o
4 2 8 0.758 0.845 0.051 o
4 2 9 14.738 14.860 0.330 o
4 2 10 42.301 42.538 0.952 o
4 2 11 1.312 1.322 0.052 o
4 2 12 104.057 104.823 2.775 o
4 2 13 27.921 27.918 0.663 o
4 2 14 11.134 11.088 0.251 o
4 2 15 27.141 27.640 0.602 o
4 2 16 2.430 2.398 0.070 o
4 2 17 5.571 5.253 0.135 o
4 2 18 5.841 5.853 0.154 o
4 2 19 3.003 3.062 0.094 o
4 3 0 5.980 6.051 0.137 o
4 3 1 38.008 38.094 0.842 o
4 3 2 1.088 1.061 0.031 o
4 3 3 1.526 1.475 0.043 o
4 3 4 50.715 50.455 1.114 o
4 3 5 3.672 3.739 0.089 o
4 3 6 109.436 111.182 2.457 o
4 3 7 0.295 0.320 0.019 o
4 3 8 56.066 56.690 1.267 o
4 3 9 6.378 6.367 0.147 o
4 3 10 10.206 10.250 0.230 o
4 3 11 0.348 0.401 0.029 o
4 3 13 13.720 13.404 0.369 o
4 3 16 24.256 24.451 0.549 o
4 3 17 3.160 3.079 0.096 o
4 3 18 34.322 33.487 1.650 o
4 4 0 69.045 69.172 1.530 o
4 4 1 0.564 0.517 0.025 o
4 4 2 0.586 0.584 0.023 o
4 4 3 2.914 2.879 0.070 o
4 4 4 1.652 1.684 0.052 o
4 4 5 21.001 21.208 0.467 o
4 4 6 14.034 14.065 0.312 o
4 4 7 41.170 41.634 0.909 o
4 4 8 21.638 21.664 0.484 o
4 4 9 1.028 1.008 0.036 o
4 4 10 1.424 1.385 0.046 o
4 4 11 0.468 0.475 0.033 o
4 4 12 0.236 0.309 0.037 o
4 4 13 0.586 0.640 0.051 o
4 4 14 22.110 21.648 0.467 o
4 4 15 5.181 5.449 0.142 o
4 4 16 0.230 0.230 0.039 o
4 5 0 0.205 0.192 0.018 o
4 5 1 2.098 2.044 0.059 o
4 5 2 0.926 0.914 0.032 o
4 5 3 3.493 3.576 0.087 o
4 5 4 23.631 23.692 0.522 o
4 5 5 2.104 2.136 0.059 o
4 5 6 9.939 9.985 0.229 o
4 5 7 0.139 0.136 0.023 o
4 5 8 2.169 2.173 0.063 o
4 5 10 15.652 15.537 0.353 o
4 5 11 7.657 7.702 0.188 o
4 5 12 2.079 2.129 0.076 o
4 6 0 1.048 1.019 0.042 o
4 6 1 3.877 3.775 0.099 o
4 6 2 0.572 0.560 0.029 o
4 6 3 0.685 0.679 0.032 o
4 6 4 0.122 0.138 0.022 o
4 6 5 2.775 2.838 0.074 o
4 6 6 0.062 0.077 0.024 o
4 6 7 0.911 0.912 0.040 o
4 6 8 2.231 2.362 0.068 o
5 0 0 63.613 64.854 1.418 o
5 0 2 695.077 657.938 15.396 o
5 0 4 12.533 12.137 0.270 o
5 0 6 6.434 6.479 0.149 o
5 0 8 149.376 150.938 3.293 o
5 0 10 72.686 74.405 1.644 o
5 0 12 17.897 17.631 0.461 o
5 0 14 15.938 16.363 0.618 o
5 0 16 15.625 16.050 1.000 o
5 0 18 2.013 1.885 0.116 o
5 1 0 0.394 0.404 0.017 o
5 1 1 111.182 111.089 2.486 o
5 1 2 60.778 59.566 1.331 o
5 1 3 1.819 1.815 0.046 o
5 1 4 39.692 40.267 0.903 o
5 1 5 1.222 1.267 0.035 o
5 1 6 84.466 83.615 1.855 o
5 1 7 5.026 5.206 0.123 o
5 1 8 1.509 1.494 0.045 o
5 1 9 1.934 1.993 0.062 o
5 1 10 0.763 0.782 0.037 o
5 1 11 29.699 30.028 0.655 o
5 1 12 56.859 57.489 1.343 o
5 1 13 17.138 17.328 0.423 o
5 1 14 0.315 0.345 0.034 o
5 1 15 18.693 18.658 0.437 o
5 1 16 0.092 0.126 0.032 o
5 1 17 0.100 0.100 0.030 o
5 1 18 5.878 5.878 0.187 o
5 1 19 0.947 0.919 0.066 o
5 2 0 25.174 25.333 0.562 o
5 2 1 26.449 26.032 0.578 o
5 2 2 3.532 3.475 0.082 o
5 2 3 25.470 24.820 0.550 o
5 2 4 62.194 62.505 1.377 o
5 2 5 15.237 15.464 0.349 o
5 2 6 49.804 49.760 1.127 o
5 2 7 4.371 4.406 0.106 o
5 2 8 14.580 14.446 0.321 o
5 2 9 11.014 11.063 0.261 o
5 2 10 40.923 41.686 0.928 o
5 2 11 10.903 11.092 0.262 o
5 2 12 22.468 22.520 0.521 o
5 2 14 6.135 6.426 0.174 o
5 2 16 12.517 12.264 0.293 o
5 2 17 26.354 25.500 0.544 o
5 2 18 2.927 3.116 0.096 o
5 3 0 126.588 126.214 2.798 o
5 3 1 27.482 27.774 0.617 o
5 3 2 5.616 5.639 0.130 o
5 3 3 4.604 4.719 0.109 o
5 3 4 4.079 4.037 0.094 o
5 3 5 42.239 42.446 0.935 o
5 3 6 93.050 94.206 2.077 o
5 3 7 4.982 4.912 0.115 o
5 3 8 3.307 3.450 0.086 o
5 3 9 0.312 0.324 0.025 o
5 3 10 39.089 39.385 0.894 o
5 3 11 22.089 21.801 0.486 o
5 3 12 0.662 0.645 0.037 o
5 3 13 4.541 4.539 0.128 o
5 3 14 30.398 30.630 0.713 o
5 3 15 0.827 0.854 0.048 o
5 3 16 34.486 34.445 0.804 o
5 4 0 9.223 9.215 0.211 o
5 4 1 4.631 4.793 0.112 o
5 4 2 0.090 0.093 0.015 o
5 4 3 1.335 1.317 0.040 o
5 4 4 26.556 26.499 0.591 o
5 4 5 19.403 19.598 0.432 o
5 4 6 8.893 9.017 0.207 o
5 4 7 19.555 19.414 0.430 o
5 4 9 7.952 7.958 0.184 o
5 4 10 16.579 16.225 0.356 o
5 4 11 2.644 2.598 0.079 o
5 4 12 0.636 0.599 0.045 o
5 4 14 2.603 2.499 0.090 o
5 5 0 5.323 5.368 0.126 o
5 5 1 0.115 0.094 0.017 o
5 5 2 5.003 5.039 0.120 o
5 5 3 1.163 1.232 0.039 o
5 5 4 3.549 3.613 0.091 o
5 5 5 0.362 0.376 0.025 o
5 5 6 6.597 6.663 0.155 o
5 5 7 1.276 1.323 0.049 o
5 5 8 7.850 7.659 0.179 o
5 5 9 0.340 0.342 0.034 o
5 5 10 0.214 0.257 0.055 o
5 6 0 7.339 7.342 0.171 o
5 6 1 4.718 4.787 0.116 o
5 6 2 4.341 4.398 0.110 o
5 6 3 2.146 2.164 0.064 o
5 6 4 1.796 1.719 0.057 o
5 6 5 8.168 8.092 0.193 o
5 6 6 3.169 3.149 0.087 o
6 0 0 235.333 237.834 5.401 o
6 0 2 30.540 30.178 0.728 o
6 0 4 1.548 1.581 0.050 o
6 0 6 44.063 47.052 1.063 o
6 0 8 16.034 15.952 0.474 o
6 0 10 34.515 33.939 0.700 o
6 0 12 96.496 97.206 2.663 o
6 0 14 4.385 4.182 0.129 o
6 0 16 2.276 2.338 0.108 o
6 1 0 0.597 0.617 0.022 o
6 1 1 189.029 187.978 4.243 o
6 1 2 63.002 62.279 1.397 o
6 1 3 22.849 23.074 0.517 o
6 1 4 55.417 56.368 1.269 o
6 1 5 60.113 60.554 1.364 o
6 1 6 21.728 21.709 0.487 o
6 1 7 12.181 12.323 0.289 o
6 1 8 43.585 43.680 0.987 o
6 1 9 35.150 35.597 0.809 o
6 1 10 0.308 0.340 0.026 o
6 1 11 33.014 32.636 0.840 o
6 1 12 0.686 0.701 0.035 o
6 1 13 13.953 14.161 0.350 o
6 1 14 0.107 0.074 0.022 o
6 1 15 2.164 2.058 0.068 o
6 1 16 27.412 27.065 0.734 o
6 1 17 0.387 0.362 0.033 o
6 2 0 0.076 0.093 0.012 o
6 2 1 9.797 9.813 0.221 o
6 2 2 0.050 0.067 0.012 o
6 2 3 13.942 14.187 0.317 o
6 2 4 49.509 49.542 1.092 o
6 2 5 100.185 99.440 2.200 o
6 2 6 2.147 2.250 0.060 o
6 2 7 1.166 1.148 0.037 o
6 2 8 5.429 5.476 0.131 o
6 2 9 35.375 35.394 0.799 o
6 2 10 1.553 1.547 0.048 o
6 2 11 5.864 5.844 0.150 o
6 2 12 3.415 3.399 0.093 o
6 2 13 7.143 7.232 0.170 o
6 2 14 34.889 34.763 0.871 o
6 2 15 16.194 15.978 0.462 o
6 2 16 8.087 8.178 0.215 o
6 3 0 0.004 0.463 0.099 o
6 3 1 0.042 0.059 0.013 o
6 3 2 0.765 0.796 0.029 o
6 3 3 0.766 0.870 0.032 o
6 3 4 0.267 0.294 0.019 o
6 3 5 0.143 0.151 0.018 o
6 3 6 0.207 0.222 0.020 o
6 3 7 5.342 5.218 0.123 o
6 3 8 6.448 6.372 0.148 o
6 3 9 3.248 3.700 0.092 o
6 3 10 33.767 33.504 0.725 o
6 3 11 1.860 1.759 0.060 o
6 3 12 1.312 1.265 0.051 o
6 3 13 0.712 0.698 0.037 o
6 3 15 13.075 12.920 0.296 o
6 4 0 17.441 17.291 0.387 o
6 4 1 0.042 0.052 0.016 o
6 4 2 27.117 26.851 0.599 o
6 4 3 0.287 0.308 0.020 o
6 4 4 6.492 6.493 0.150 o
6 4 5 14.676 14.740 0.326 o
6 4 6 0.837 0.796 0.036 o
6 4 7 2.146 1.989 0.065 o
6 4 8 0.120 0.134 0.024 o
6 4 9 7.729 7.811 0.184 o
6 4 10 19.159 18.888 0.455 o
6 4 11 1.956 1.755 0.076 o
6 4 12 0.317 0.277 0.040 o
6 5 0 28.158 27.707 0.625 o
6 5 1 4.309 4.381 0.107 o
6 5 2 0.195 0.214 0.021 o
6 5 3 0.674 0.693 0.052 o
6 5 4 15.985 15.786 0.360 o
6 5 6 47.657 46.988 1.305 o
6 5 7 2.986 2.980 0.107 o
6 5 8 0.625 0.671 0.074 o
6 5 9 1.422 1.547 0.073 o
6 6 0 12.090 12.605 0.287 o
6 6 1 2.285 2.147 0.064 o
6 6 2 5.018 5.024 0.124 o
6 6 3 5.551 5.715 0.140 o
7 0 0 110.065 111.692 2.540 o
7 0 2 36.412 36.197 0.779 o
7 0 4 272.734 273.821 6.335 o
7 0 6 1.243 1.163 0.046 o
7 0 8 44.719 44.572 1.155 o
7 0 10 61.487 60.949 1.286 o
7 0 12 17.913 17.879 0.388 o
7 0 14 12.645 12.432 0.375 o
7 0 16 8.829 8.791 0.222 o
7 1 0 84.026 84.884 1.895 o
7 1 1 1.206 1.181 0.034 o
7 1 2 0.180 0.186 0.014 o
7 1 3 7.633 7.574 0.172 o
7 1 4 35.909 35.909 0.804 o
7 1 5 41.185 41.456 0.943 o
7 1 6 1.022 0.936 0.039 o
7 1 7 1.450 1.430 0.045 o
7 1 8 47.780 47.884 1.053 o
7 1 9 0.063 0.072 0.020 o
7 1 10 3.388 3.385 0.087 o
7 1 11 17.165 16.817 0.391 o
7 1 12 15.824 16.176 0.358 o
7 1 13 15.722 15.876 0.391 o
7 1 14 24.631 24.968 0.545 o
7 1 15 23.436 23.156 0.588 o
7 2 0 36.553 36.800 0.816 o
7 2 1 11.217 11.222 0.252 o
7 2 2 6.649 6.683 0.154 o
7 2 3 4.971 4.966 0.118 o
7 2 4 0.542 0.571 0.026 o
7 2 5 0.793 0.847 0.034 o
7 2 6 5.890 6.047 0.141 o
7 2 7 3.449 3.340 0.085 o
7 2 8 7.520 7.483 0.174 o
7 2 9 21.252 21.431 0.469 o
7 2 10 0.939 0.964 0.042 o
7 2 11 10.533 10.451 0.277 o
7 2 12 0.322 0.335 0.032 o
7 2 13 4.364 4.226 0.130 o
7 2 14 7.025 7.077 0.171 o
7 2 15 11.940 12.059 0.277 o
7 3 0 0.622 0.621 0.025 o
7 3 1 29.023 28.829 0.644 o
7 3 2 23.265 23.216 0.510 o
7 3 3 15.964 15.819 0.353 o
7 3 4 14.536 14.604 0.324 o
7 3 5 1.023 1.036 0.038 o
7 3 6 7.025 6.807 0.158 o
7 3 7 3.451 3.479 0.090 o
7 3 8 12.482 12.842 0.322 o
7 3 9 10.447 10.362 0.244 o
7 3 10 1.846 1.905 0.061 o
7 3 12 3.694 3.662 0.101 o
7 3 13 1.673 1.677 0.073 o
7 4 0 10.166 10.054 0.240 o
7 4 1 1.465 1.531 0.052 o
7 4 2 1.724 1.767 0.052 o
7 4 3 1.224 1.168 0.043 o
7 4 4 2.766 2.645 0.077 o
7 4 5 21.573 21.445 0.471 o
7 4 6 31.375 31.344 0.685 o
7 4 7 0.104 0.118 0.029 o
7 4 9 10.792 10.642 0.245 o
7 4 10 0.337 0.321 0.039 o
7 5 0 14.440 14.065 0.320 o
7 5 1 0.084 0.079 0.022 o
7 5 2 13.202 13.014 0.295 o
7 5 3 1.399 1.326 0.051 o
7 5 4 2.491 2.611 0.080 o
7 5 6 1.166 1.142 0.052 o
7 5 7 0.219 0.264 0.037 o
8 0 0 27.479 28.033 0.610 o
8 0 2 15.128 15.490 0.340 o
8 0 4 66.177 66.650 1.418 o
8 0 6 4.856 4.623 0.120 o
8 0 8 29.525 29.559 0.619 o
8 0 10 0.889 0.910 0.059 o
8 0 12 25.393 25.702 0.611 o
8 0 14 86.219 84.794 1.754 o
8 1 1 0.410 0.441 0.019 o
8 1 2 2.195 2.176 0.067 o
8 1 3 85.684 87.393 1.923 o
8 1 4 33.961 34.046 0.746 o
8 1 6 4.260 4.265 0.104 o
8 1 7 0.307 0.303 0.023 o
8 1 8 20.072 19.675 0.446 o
8 1 9 9.826 9.795 0.250 o
8 1 10 19.329 18.826 0.416 o
8 1 11 6.031 6.240 0.149 o
8 1 12 4.559 4.626 0.118 o
8 1 13 11.522 11.664 0.264 o
8 2 0 43.308 43.758 0.966 o
8 2 1 21.821 21.967 0.509 o
8 2 2 0.164 0.158 0.015 o
8 2 3 5.194 5.157 0.131 o
8 2 4 14.527 14.532 0.323 o
8 2 5 7.732 7.650 0.183 o
8 2 7 36.197 35.972 0.810 o
8 2 8 4.529 4.399 0.121 o
8 2 9 0.157 0.155 0.026 o
8 2 10 15.939 15.767 0.356 o
8 2 11 0.140 0.133 0.028 o
8 2 13 4.076 4.023 0.118 o
8 3 0 18.002 18.181 0.406 o
8 3 1 0.181 0.197 0.021 o
8 3 2 9.948 9.706 0.220 o
8 3 3 0.622 0.596 0.028 o
8 3 4 11.410 11.103 0.250 o
8 3 5 18.658 18.267 0.427 o
8 3 6 14.799 14.676 0.352 o
8 3 7 0.177 0.204 0.025 o
8 3 8 3.894 3.887 0.101 o
8 3 9 0.091 0.094 0.024 o
8 3 10 2.793 2.775 0.080 o
8 3 11 6.131 6.016 0.146 o
8 4 1 2.390 2.322 0.069 o
8 4 2 14.706 14.648 0.352 o
8 4 3 2.527 2.620 0.074 o
8 4 4 2.403 2.482 0.071 o
8 4 5 2.802 2.767 0.077 o
8 4 6 3.838 3.840 0.103 o
8 4 7 4.423 4.546 0.114 o
8 5 0 1.070 1.129 0.048 o
8 5 1 0.262 0.222 0.028 o
8 5 2 6.966 6.775 0.162 o
8 5 3 3.949 4.009 0.124 o
8 5 4 0.925 0.951 0.065 o
9 0 0 17.857 18.781 0.445 o
9 0 2 47.551 47.759 1.036 o
9 0 4 4.689 4.679 0.127 o
9 0 6 27.610 28.145 0.630 o
9 0 10 14.042 14.227 0.356 o
9 0 12 8.838 9.024 0.226 o
9 1 0 33.635 34.164 0.751 o
9 1 1 0.240 0.235 0.020 o
9 1 2 4.870 4.847 0.118 o
9 1 3 27.203 27.168 0.622 o
9 1 4 2.574 2.646 0.074 o
9 1 5 6.359 6.315 0.149 o
9 1 6 7.908 7.680 0.184 o
9 1 7 13.312 13.308 0.304 o
9 1 8 1.768 1.725 0.057 o
9 1 9 2.120 2.072 0.070 o
9 1 10 9.539 9.364 0.218 o
9 1 11 0.176 0.203 0.030 o
9 2 0 1.798 1.801 0.052 o
9 2 1 3.699 3.637 0.090 o
9 2 2 37.302 37.295 0.867 o
9 2 3 5.218 5.284 0.134 o
9 2 4 37.592 37.075 0.812 o
9 2 5 3.369 3.383 0.088 o
9 2 6 3.206 3.096 0.099 o
9 2 7 1.785 1.771 0.056 o
9 2 8 2.208 2.227 0.065 o
9 2 9 16.022 15.733 0.436 o
9 2 10 2.238 2.075 0.093 o
9 3 0 2.243 2.366 0.065 o
9 3 1 6.752 6.617 0.155 o
9 3 2 2.609 2.515 0.067 o
9 3 3 14.438 14.652 0.355 o
9 3 4 6.791 6.763 0.172 o
9 3 5 1.427 1.408 0.051 o
9 3 6 16.477 16.708 0.382 o
9 3 7 0.338 0.326 0.028 o
9 3 8 17.125 16.630 0.379 o
9 4 1 2.557 2.448 0.068 o
9 4 2 13.604 13.601 0.305 o
9 4 5 0.332 0.320 0.030 o
10 0 0 7.530 8.167 0.191 o
10 0 2 2.964 3.020 0.084 o
10 0 4 14.763 14.681 0.327 o
10 0 6 17.939 17.902 0.409 o
10 0 8 1.056 1.187 0.072 o
10 1 0 9.981 9.843 0.243 o
10 1 1 33.046 32.816 0.748 o
10 1 3 8.803 8.629 0.197 o
10 1 4 9.823 9.729 0.221 o
10 1 5 3.712 3.657 0.094 o
10 1 6 8.079 8.002 0.209 o
10 1 8 1.418 1.377 0.049 o
10 1 9 1.174 1.133 0.051 o
10 2 0 9.673 9.619 0.220 o
10 2 1 1.742 1.676 0.052 o
10 2 2 29.820 29.480 0.648 o
10 2 3 8.007 7.932 0.187 o
10 2 4 1.559 1.619 0.056 o
10 2 5 10.565 10.133 0.247 o
10 2 6 7.577 7.861 0.187 o
10 2 7 4.010 3.920 0.100 o
10 2 8 3.373 3.423 0.170 o
10 3 0 0.885 0.814 0.035 o
10 3 1 1.418 1.415 0.046 o
10 3 2 19.420 19.043 0.450 o
10 3 3 4.068 3.979 0.101 o
10 3 4 3.459 3.348 0.088 o
10 3 5 0.246 0.224 0.031 o
10 4 0 2.550 2.614 0.082 o
10 4 1 5.255 5.243 0.155 o
11 0 0 34.146 33.887 0.743 o
11 0 2 26.002 25.397 0.615 o
11 0 6 2.572 2.464 0.086 o
11 1 0 0.082 0.085 0.020 o
11 1 1 4.009 3.966 0.097 o
11 1 2 8.425 8.430 0.192 o
11 1 3 11.676 11.703 0.267 o
11 1 4 1.786 1.771 0.058 o
11 1 5 13.042 12.948 0.292 o
11 2 0 0.145 0.139 0.024 o
11 2 1 12.570 12.258 0.302 o
11 2 3 0.968 0.995 0.045 o
11 2 4 7.209 7.070 0.206 o
11 3 0 19.975 19.989 0.508 o
12 0 0 1.521 1.546 0.056 o
12 1 0 8.975 9.055 0.210 o
