#------------------------------------------------------------------------------
#$Date: 2019-12-25 21:47:14 +0200 (Wed, 25 Dec 2019) $
#$Revision: 245789 $
#$URL: file:///home/coder/svn-repositories/cod/cif/2/31/13/2311318.cif $
#------------------------------------------------------------------------------
#
# This file is available in the Crystallography Open Database (COD),
# http://www.crystallography.net/. The original data for this entry
# were provided by IUCr Journals, http://journals.iucr.org/.
#
# The file may be used within the scientific community so long as
# proper attribution is given to the journal article from which the
# data were obtained.
#
data_2311318
loop_
_publ_author_name
'Nguyen, Vu D.'
'McCormick, Cameron A.'
'Pascal, Jr, Robert A'
'Mague, Joel T.'
'Koplitz, Lynn V.'
_publ_section_title
;
 Crystal structure of 2-cyano-1-methyl-pyridinium bromide.
;
_journal_coeditor_code           HB7523
_journal_issue                   'Pt 11'
_journal_name_full
'Acta crystallographica. Section E, Crystallographic communications'
_journal_page_first              o854
_journal_page_last               5
_journal_paper_doi               10.1107/S2056989015019167
_journal_volume                  71
_journal_year                    2015
_chemical_formula_iupac          'C7 H7 N2 +, Br -'
_chemical_formula_moiety         'C7 H7 N2 +, Br -'
_chemical_formula_sum            'C7 H7 Br N2'
_chemical_formula_weight         199.06
_chemical_name_systematic
;
2-Cyano-1-methylpyridinium bromide
;
_space_group_crystal_system      monoclinic
_space_group_IT_number           12
_space_group_name_Hall           '-C 2y'
_space_group_name_H-M_alt        'C 1 2/m 1'
_atom_sites_solution_hydrogens   geom
_atom_sites_solution_primary     direct
_atom_sites_solution_secondary   difmap
_audit_creation_method           SHELXL-2014/7
_cell_angle_alpha                90
_cell_angle_beta                 92.4190(10)
_cell_angle_gamma                90
_cell_formula_units_Z            4
_cell_length_a                   13.3039(12)
_cell_length_b                   6.5892(6)
_cell_length_c                   9.3753(8)
_cell_measurement_reflns_used    9936
_cell_measurement_temperature    150.(2)
_cell_measurement_theta_max      29.1180
_cell_measurement_theta_min      2.1742
_cell_volume                     821.13(13)
_computing_cell_refinement
;
<i>SAINT</i> (Bruker, 2014)
;
_computing_data_collection
;
<i>APEX2</i> (Bruker, 2014)
;
_computing_data_reduction
;
<i>SAINT</i> (Bruker, 2014) and <i>CELL_NOW</i> (Sheldrick,
2008a)
;
_computing_molecular_graphics
;
<i>DIAMOND</i> (Brandenburg & Putz, 2012)
;
_computing_publication_material
;
<i>SHELXTL</i> (Sheldrick, 2008b)
;
_computing_structure_refinement
;
<i>SHELXL2014</i> (Sheldrick, 2015b)
;
_computing_structure_solution
;
<i>SHELXT</i> (Sheldrick, 2015a)
;
_diffrn_ambient_temperature      150(2)
_diffrn_detector_area_resol_mean 8.3660
_diffrn_measured_fraction_theta_full 0.997
_diffrn_measured_fraction_theta_max 0.986
_diffrn_measurement_device_type  'Bruker SMART APEX CCD'
_diffrn_measurement_method       '\f and \w scans'
_diffrn_radiation_monochromator  graphite
_diffrn_radiation_type           MoK\a
_diffrn_radiation_wavelength     0.71073
_diffrn_reflns_av_R_equivalents  0.0210
_diffrn_reflns_limit_h_max       18
_diffrn_reflns_limit_h_min       -18
_diffrn_reflns_limit_k_max       8
_diffrn_reflns_limit_k_min       -8
_diffrn_reflns_limit_l_max       12
_diffrn_reflns_limit_l_min       -12
_diffrn_reflns_number            22367
_diffrn_reflns_theta_full        28.500
_diffrn_reflns_theta_max         29.118
_diffrn_reflns_theta_min         2.174
_exptl_absorpt_coefficient_mu    4.932
_exptl_absorpt_correction_T_max  0.74
_exptl_absorpt_correction_T_min  0.44
_exptl_absorpt_correction_type   multi-scan
_exptl_absorpt_process_details
;
(<i>TWINABS</i>; Sheldrick, 2009)
;
_exptl_crystal_colour            colourless
_exptl_crystal_density_diffrn    1.610
_exptl_crystal_density_method    'not measured'
_exptl_crystal_description       block
_exptl_crystal_F_000             392
_exptl_crystal_size_max          0.197
_exptl_crystal_size_mid          0.149
_exptl_crystal_size_min          0.064
_refine_diff_density_max         0.514
_refine_diff_density_min         -0.438
_refine_ls_extinction_method     none
_refine_ls_goodness_of_fit_ref   1.022
_refine_ls_hydrogen_treatment    constr
_refine_ls_matrix_type           full
_refine_ls_number_parameters     62
_refine_ls_number_reflns         1179
_refine_ls_number_restraints     0
_refine_ls_restrained_S_all      1.022
_refine_ls_R_factor_all          0.0258
_refine_ls_R_factor_gt           0.0225
_refine_ls_shift/su_max          0.001
_refine_ls_shift/su_mean         0.000
_refine_ls_structure_factor_coef Fsqd
_refine_ls_weighting_details
'w=1/[\s^2^(Fo^2^)+(0.0234P)^2^] where P=(Fo^2^+2Fc^2^)/3'
_refine_ls_weighting_scheme      calc
_refine_ls_wR_factor_gt          0.0473
_refine_ls_wR_factor_ref         0.0481
_reflns_number_gt                1084
_reflns_number_total             1179
_reflns_threshold_expression     'I > 2\s(I)'
_cod_data_source_file            hb7523sup1.cif
_cod_data_source_block           I
_cod_original_sg_symbol_H-M      'C 2/m'
_cod_database_code               2311318
_shelx_space_group_comment
;
The symmetry employed for this shelxl refinement is uniquely defined
by the following loop, which should always be used as a source of
symmetry information in preference to the above space-group names.
They are only intended as comments.
;
_shelx_estimated_absorpt_t_min   0.443
_shelx_estimated_absorpt_t_max   0.743
_shelx_hkl_file
;
   2   0   0  622.54   27.80
   4   0   0 2243.38   88.39
   6   0   0  771.12   29.00
   8   0   0  284.87   11.90
  10   0   0  225.18   14.60
  12   0   0  405.36   24.40
  14   0   0  135.09   11.30
  16   0   0   32.60    6.00
  18   0   0   83.29   63.49
  -1  -1   0  188.88    6.70
   1   1   0  203.28    5.20
  -3  -1   0 1843.02   32.70
   3   1   0 1902.21   29.50
  -5  -1   0  622.84   12.50
   5   1   0  620.54   10.90
  -7  -1   0 1193.28   23.30
   7   1   0 1195.08   20.40
  -9  -1   0   46.60    2.60
   9   1   0   42.60    2.50
 -11  -1   0  189.68    7.40
  11   1   0  192.88    7.10
 -13  -1   0    0.70    2.30
  13   1   0    0.50    2.10
 -15  -1   0  176.88    8.30
  15   1   0  179.38    9.00
 -17  -1   0    2.80    3.30
  17   1   0    0.00    2.70
   0  -2   0 9307.67  242.18
   0   2   0 9999.00  303.37
  -2  -2   0  364.06   18.90
   2   2   0  390.16    8.80
  -4  -2   0 1554.84   27.60
   4   2   0 1607.04   28.00
  -6  -2   0  586.64   12.50
   6   2   0  607.64   12.80
  -8  -2   0  255.07    6.60
   8   2   0  265.77    5.50
 -10  -2   0  206.68    7.90
  10   2   0  203.58    6.60
 -12  -2   0  355.86   11.80
  12   2   0  350.66   14.90
 -14  -2   0  125.29    7.00
  14   2   0  120.99    7.30
 -16  -2   0   28.10    4.50
  16   2   0   26.20    3.10
  -1  -3   0  201.08    4.20
   1   3   0  221.58    4.40
  -3  -3   0  982.90   23.60
   3   3   0  990.60   19.50
  -5  -3   0  386.46    7.70
   5   3   0  396.66    8.70
  -7  -3   0  743.73   15.70
   7   3   0  777.52   20.10
  -9  -3   0   38.70    3.00
   9   3   0   39.40    6.90
 -11  -3   0  139.89    7.60
  11   3   0  158.88    8.60
 -13  -3   0    0.80    2.90
  13   3   0    2.50    5.40
 -15  -3   0  135.59    9.30
  15   3   0  146.89   16.60
 -17  -3   0    0.10    7.90
   0  -4   0 3822.32   86.79
   0   4   0 3987.40  125.29
  -2  -4   0  139.89    3.60
   2   4   0  153.48    4.00
  -4  -4   0  820.02   20.50
   4   4   0  802.92   18.30
  -6  -4   0  285.67    6.90
   6   4   0  295.97    8.40
  -8  -4   0  181.38    6.00
   8   4   0  191.78    8.70
 -10  -4   0  133.39    6.10
  10   4   0  136.49    8.00
 -12  -4   0  225.38   11.00
  12   4   0  244.28   15.00
 -14  -4   0   99.19    7.50
  14   4   0   85.99    9.90
 -16  -4   0   24.30    8.90
  -1  -5   0  131.49    6.40
   1   5   0  120.69   11.30
  -3  -5   0  402.26    9.70
   3   5   0  420.96   18.20
  -5  -5   0  171.78    5.90
   5   5   0  173.48    9.60
  -7  -5   0  416.36   13.40
   7   5   0  392.66   17.00
  -9  -5   0   70.39   11.40
   9   5   0   23.20   17.80
 -11  -5   0   94.99    8.70
  11   5   0   81.39   11.10
 -13  -5   0    3.90    9.40
  13   5   0    4.30   11.00
   0  -6   0 1414.56   47.70
   0   6   0 1349.77   71.09
  -2  -6   0  129.29   15.90
   2   6   0   55.89   32.80
  -4  -6   0  401.66   11.80
   4   6   0  361.96   13.90
  -6  -6   0  124.19    5.40
   6   6   0  109.89    8.60
  -8  -6   0  107.09    5.20
   8   6   0  103.99   10.80
 -10  -6   0   79.79    5.70
  10   6   0   83.39   12.90
 -12  -6   0  143.69   14.50
  12   6   0  125.39   16.00
  -1  -7   0   67.29    3.60
   1   7   0   62.29    7.70
  -3  -7   0  171.28    6.20
   3   7   0  158.88   12.00
  -5  -7   0   68.49    3.90
   5   7   0   69.69    8.40
  -7  -7   0  170.48    6.10
   7   7   0  165.78    8.30
  -9  -7   0    9.00    2.00
   9   7   0    9.60    4.10
 -11  -7   0   43.20    5.00
  11   7   0   49.40   11.70
   0  -8   0  493.55   20.70
   0   8   0  455.05   32.40
  -2  -8   0   20.20    3.00
   2   8   0   22.00    6.80
  -4  -8   0  155.98    6.90
   4   8   0  164.18   12.50
  -6  -8   0   49.10    4.30
   6   8   0   71.39    9.30
  -8  -8   0   38.70    8.00
 -18   0   1    6.90   16.10
 -16   0   1  135.09   12.30
 -14   0   1    1.10    6.50
 -12   0   1  387.16   13.30
 -10   0   1  253.47   10.30
  -8   0   1  361.46    8.40
  -6   0   1  758.52   14.90
  -4   0   1 1119.49   21.60
  -2   0   1 2063.59   41.80
   0   0   1   72.59    2.40
   2   0   1 2459.45   55.69
   4   0   1   28.30    1.60
   6   0   1  998.20   19.90
   8   0   1    1.50    1.00
  10   0   1  281.67    9.20
  12   0   1   80.39    5.50
  14   0   1  167.98   10.50
  16   0   1    0.00   14.60
  17  -1  -1   40.60    5.00
 -17   1   1   44.10    6.40
  15  -1  -1    7.90    3.00
 -15   1   1    8.30    3.00
  13  -1  -1  121.99    6.40
 -13   1   1  115.09    6.10
  11  -1  -1   21.70    2.90
 -11   1   1   22.00    2.90
   9  -1  -1  962.60   21.60
  -9   1   1  964.40   19.80
   7  -1  -1  233.08    5.90
  -7   1   1  235.08    5.40
   5  -1  -1  463.65    9.80
  -5   1   1  474.35    9.10
   3  -1  -1  867.41   16.70
  -3   1   1  873.81   15.60
   1  -1  -1   58.79    1.70
  -1   1   1   63.19    1.80
  -1  -1  -1   50.29    1.50
   1   1   1   54.29    1.60
  -3  -1  -1  750.02   14.60
   3   1   1  781.02   12.80
  -5  -1  -1  492.55   10.10
   5   1   1  508.35    8.30
  -7  -1  -1  317.57    6.80
   7   1   1  324.67    7.50
  -9  -1  -1  603.24   14.60
   9   1   1  612.24   13.40
 -11  -1  -1   81.69    5.00
  11   1   1   85.09    4.20
 -13  -1  -1  113.89    6.40
  13   1   1  105.49    5.20
 -15  -1  -1    0.80    2.70
  15   1   1    0.70    2.60
 -17  -1  -1   63.39    6.20
  17   1   1   63.69    7.70
  16  -2  -1  101.19    6.90
 -16   2   1  105.09    6.80
  14  -2  -1   12.20    3.30
 -14   2   1   12.80    3.30
  12  -2  -1  327.77   11.30
 -12   2   1  343.27   12.40
  10  -2  -1  197.18    6.50
 -10   2   1  195.18    7.10
   8  -2  -1  322.57    7.90
  -8   2   1  328.07    7.00
   6  -2  -1  546.15   10.80
  -6   2   1  576.34   11.60
   4  -2  -1  693.03   12.80
  -4   2   1  719.83   15.50
   2  -2  -1 1387.76   25.90
  -2   2   1 1412.56   29.00
   0  -2  -1   32.00    1.00
   0   2   1   37.40    1.40
  -2  -2  -1 1765.12   57.59
   2   2   1 1834.72   37.30
  -4  -2  -1    6.10    0.60
   4   2   1    7.90    0.90
  -6  -2  -1  826.72   16.40
   6   2   1  847.82   15.70
  -8  -2  -1    1.20    0.90
   8   2   1    1.10    1.20
 -10  -2  -1  267.27   11.30
  10   2   1  261.67    6.70
 -12  -2  -1   67.99    4.90
  12   2   1   66.59    4.30
 -14  -2  -1  140.09    7.30
  14   2   1  119.59    6.80
 -16  -2  -1   14.60    3.90
  16   2   1    9.00    7.40
  17  -3  -1   35.00   10.20
  15  -3  -1    8.20    4.00
 -15   3   1   10.50    7.70
  13  -3  -1   90.09    6.90
 -13   3   1   92.79   12.60
  11  -3  -1   16.40    3.40
 -11   3   1   18.30    4.70
   9  -3  -1  682.03   16.20
  -9   3   1  685.73   27.00
   7  -3  -1  138.79    4.40
  -7   3   1  136.09    5.10
   5  -3  -1  429.76    8.60
  -5   3   1  440.76   11.50
   3  -3  -1  379.16    8.00
  -3   3   1  401.46    8.40
   1  -3  -1  155.38    3.20
  -1   3   1  174.08    5.20
  -1  -3  -1    5.40    0.40
   1   3   1    7.50    0.80
  -3  -3  -1  517.95   18.60
   3   3   1  534.75   12.20
  -5  -3  -1  285.77    6.80
   5   3   1  294.37    7.70
  -7  -3  -1  218.88    5.50
   7   3   1  217.28    6.80
  -9  -3  -1  433.86   10.20
   9   3   1  376.26   15.00
 -11  -3  -1   56.09    4.50
  11   3   1   52.99    5.50
 -13  -3  -1   87.19    6.80
  13   3   1   84.89    8.70
 -15  -3  -1    3.00    3.00
  15   3   1    8.10    7.10
 -17  -3  -1   62.29   12.00
  16  -4  -1   67.99   12.50
  14  -4  -1    8.60    3.70
 -14   4   1    5.30    4.80
  12  -4  -1  251.27   11.10
 -12   4   1  230.98   14.40
  10  -4  -1  129.19    5.50
 -10   4   1  135.09    9.80
   8  -4  -1  230.78    7.10
  -8   4   1  228.18    9.50
   6  -4  -1  310.77    8.20
  -6   4   1  303.97   11.00
   4  -4  -1  310.27    6.50
  -4   4   1  316.87    9.30
   2  -4  -1  714.93   13.40
  -2   4   1  741.23   14.70
   0  -4  -1   21.90    1.10
   0   4   1   26.90    2.60
  -2  -4  -1  906.01   25.80
   2   4   1  952.90   18.80
  -4  -4  -1    0.50    1.60
   4   4   1    1.30    1.20
  -6  -4  -1  505.85   10.80
   6   4   1  527.15   12.80
  -8  -4  -1    4.40    1.50
   8   4   1    1.50    1.90
 -10  -4  -1  182.38    8.60
  10   4   1  176.88    9.30
 -12  -4  -1   47.90    6.30
  12   4   1   57.09    9.00
 -14  -4  -1   84.99    7.00
  14   4   1   94.39   16.30
  15  -5  -1    0.00    5.70
 -15   5   1    5.10    7.40
  13  -5  -1   47.20    8.00
 -13   5   1   59.29   10.20
  11  -5  -1   15.20    4.30
 -11   5   1   16.00    6.50
   9  -5  -1  396.46   11.50
  -9   5   1  376.96   19.60
   7  -5  -1   80.19    4.10
  -7   5   1   75.69    8.20
   5  -5  -1  282.37    7.50
  -5   5   1  273.17   10.50
   3  -5  -1  144.69    5.50
  -3   5   1  152.08    5.10
   1  -5  -1  149.09    5.60
  -1   5   1  136.29   12.40
  -1  -5  -1    8.30    1.60
   1   5   1    9.20    2.80
  -3  -5  -1  286.07   11.70
   3   5   1  309.97   10.00
  -5  -5  -1  178.78    8.00
   5   5   1  182.38    7.10
  -7  -5  -1  141.09    6.20
   7   5   1  128.49    7.00
  -9  -5  -1  233.98    8.80
   9   5   1  204.98   11.10
 -11  -5  -1   33.70    4.80
  11   5   1   30.10    5.60
 -13  -5  -1   46.60    6.90
  13   5   1   57.69   11.20
  15   5   1   13.50   16.80
  12  -6  -1  176.28   19.30
 -12   6   1  172.38   18.50
  10  -6  -1   59.49    6.60
 -10   6   1   56.49    8.40
   8  -6  -1  132.09    6.60
  -8   6   1  114.69   10.00
   6  -6  -1  149.69    6.70
  -6   6   1  145.89    6.90
   4  -6  -1  148.49    5.60
  -4   6   1  143.59    9.80
   2  -6  -1  368.36   10.10
  -2   6   1  330.37   16.50
   0  -6  -1   24.00    3.00
   0   6   1   23.50    4.90
  -2  -6  -1  436.76   11.50
   2   6   1  403.66   18.80
  -4  -6  -1    2.70    1.00
   4   6   1    1.40    2.40
  -6  -6  -1  248.18    7.90
   6   6   1  254.77    8.70
  -8  -6  -1    3.00    1.70
   8   6   1    3.20    2.70
 -10  -6  -1   97.69    6.60
  10   6   1   85.89    7.00
 -12  -6  -1   18.50    4.10
  12   6   1   19.40    8.30
  11  -7  -1    7.90    2.70
 -11   7   1    8.10    7.20
   9  -7  -1  164.98    7.10
  -9   7   1  166.78   10.70
   7  -7  -1   31.20    3.30
  -7   7   1   27.10    3.60
   5  -7  -1  125.99    5.70
  -5   7   1  128.79    8.00
   3  -7  -1   56.19    4.00
  -3   7   1   61.49    8.10
   1  -7  -1   69.09    4.30
  -1   7   1   72.29    8.00
  -1  -7  -1   10.00    2.30
   1   7   1    7.00    4.50
  -3  -7  -1  125.79    5.10
   3   7   1  128.19   10.30
  -5  -7  -1   87.49    4.00
   5   7   1   86.59    6.60
  -7  -7  -1   64.69    6.00
   7   7   1   57.59    5.40
  -9  -7  -1  106.39    5.10
   9   7   1   97.29    7.30
 -11  -7  -1   10.80    3.10
  11   7   1   11.00    8.60
   8  -8  -1   55.79    5.00
  -8   8   1   40.10   10.50
   6  -8  -1   60.99    4.40
  -6   8   1   68.19   13.00
   4  -8  -1   54.09    4.40
  -4   8   1   48.00    8.10
   2  -8  -1  159.98    7.00
  -2   8   1  147.09   12.60
   0  -8  -1   11.50    2.40
   0   8   1    9.70    5.70
  -2  -8  -1  179.88    6.90
   2   8   1  168.18   12.50
  -4  -8  -1    0.10    1.40
   4   8   1    0.80    3.80
  -6  -8  -1   97.29    8.00
   6   8   1   77.59   13.20
  -8  -8  -1    9.60    9.90
 -18   0   2   88.49   14.70
 -16   0   2    0.80    2.90
 -14   0   2  201.88    8.60
 -12   0   2  104.19    5.60
 -10   0   2  683.73   16.30
  -8   0   2   47.30    2.40
  -6   0   2 1175.28   21.30
  -4   0   2  682.63   12.60
  -2   0   2  709.43   12.70
   0   0   2 3020.50   51.59
   2   0   2 1212.98   24.90
   4   0   2 1084.19   25.60
   6   0   2   42.90    2.20
   8   0   2  664.33   17.20
  10   0   2    9.10    1.80
  12   0   2  285.97    8.90
  14   0   2    6.10    2.40
  16   0   2   80.99    5.70
  17  -1  -2   20.20    4.00
 -17   1   2   22.80    4.90
  15  -1  -2  183.78    8.50
 -15   1   2  176.68    9.20
  13  -1  -2   97.69    5.90
 -13   1   2   90.79    6.30
  11  -1  -2  215.38    8.20
 -11   1   2  222.38    8.10
   9  -1  -2   17.00    2.00
  -9   1   2   15.00    1.80
   7  -1  -2 1266.37   23.10
  -7   1   2 1254.67   24.90
   5  -1  -2    1.20    0.70
  -5   1   2    0.40    0.70
   3  -1  -2 3011.40   55.29
  -3   1   2 2971.00   55.79
   1  -1  -2    1.50    0.60
  -1   1   2    1.70    0.50
  -1  -1  -2 1620.84   33.30
   1   1   2 1641.04   28.50
  -3  -1  -2  560.74   10.30
   3   1   2  568.74   10.40
  -5  -1  -2 1648.34   34.60
   5   1   2 1687.53   29.60
  -7  -1  -2  374.76    9.00
   7   1   2  370.26    7.70
  -9  -1  -2  644.74   15.60
   9   1   2  662.73   15.50
 -11  -1  -2  478.95   12.70
  11   1   2  483.55   12.50
 -13  -1  -2   25.50    3.70
  13   1   2   23.40    2.90
 -15  -1  -2  175.28    8.50
  15   1   2  176.38    8.80
 -17  -1  -2    1.90    2.80
  17   1   2    0.00    2.80
  16  -2  -2    2.70    2.90
 -16   2   2    1.50    2.50
  14  -2  -2  189.18    8.50
 -14   2   2  178.38   10.20
  12  -2  -2   98.59    5.70
 -12   2   2   97.49    5.90
  10  -2  -2  566.04   14.20
 -10   2   2  573.54   16.00
   8  -2  -2   43.30    2.50
  -8   2   2   46.90    2.50
   6  -2  -2  880.21   17.90
  -6   2   2  891.01   16.50
   4  -2  -2  554.94   10.60
  -4   2   2  576.84   11.60
   2  -2  -2  478.65    9.70
  -2   2   2  496.35   10.00
   0  -2  -2 2170.48   37.20
   0   2   2 2222.88   45.70
  -2  -2  -2  731.63   13.10
   2   2   2  748.63   15.90
  -4  -2  -2  970.80   17.40
   4   2   2 1000.20   19.20
  -6  -2  -2   37.00    1.60
   6   2   2   43.10    2.00
  -8  -2  -2  579.94   12.30
   8   2   2  586.94   14.00
 -10  -2  -2    3.40    1.90
  10   2   2    5.60    1.10
 -12  -2  -2  259.67   11.40
  12   2   2  236.08    9.20
 -14  -2  -2    2.90    2.50
  14   2   2    4.20    3.90
 -16  -2  -2   73.49    6.20
  16   2   2   69.89   12.00
  17  -3  -2   22.40    8.40
  15  -3  -2  137.79    9.30
 -15   3   2  141.39   15.80
  13  -3  -2   81.09    6.70
 -13   3   2   75.19   10.00
  11  -3  -2  193.78    7.80
 -11   3   2  182.08   11.80
   9  -3  -2   11.00    2.00
  -9   3   2   12.30    2.80
   7  -3  -2  855.61   19.40
  -7   3   2  885.01   22.10
   5  -3  -2    1.80    0.70
  -5   3   2    1.20    1.00
   3  -3  -2 1643.64   29.00
  -3   3   2 1704.33   35.20
   1  -3  -2    0.70    0.40
  -1   3   2    0.90    0.30
  -1  -3  -2  845.22   15.10
   1   3   2  880.21   17.10
  -3  -3  -2  223.08    6.80
   3   3   2  240.18    6.30
  -5  -3  -2  890.81   19.30
   5   3   2  923.61   20.10
  -7  -3  -2  259.77    7.00
   7   3   2  257.47    8.50
  -9  -3  -2  456.85   13.20
   9   3   2  440.86   15.80
 -11  -3  -2  378.86   12.20
  11   3   2  366.66   14.60
 -13  -3  -2   14.40    3.40
  13   3   2   17.60    5.20
 -15  -3  -2  140.49    8.00
  15   3   2  134.79   11.30
  14  -4  -2  135.89    8.90
 -14   4   2  132.29   12.00
  12  -4  -2   61.99    6.00
 -12   4   2   60.49    8.30
  10  -4  -2  360.56   10.30
 -10   4   2  342.27   17.20
   8  -4  -2   33.70    2.80
  -8   4   2   37.60    4.00
   6  -4  -2  501.55   12.20
  -6   4   2  506.05   16.30
   4  -4  -2  312.57    7.50
  -4   4   2  330.17   11.00
   2  -4  -2  258.27    6.30
  -2   4   2  284.27    6.30
   0  -4  -2 1040.60   18.80
   0   4   2 1075.99   22.90
  -2  -4  -2  279.17    6.20
   2   4   2  303.07    7.70
  -4  -4  -2  609.84   18.30
   4   4   2  609.14   14.30
  -6  -4  -2   24.00    1.40
   6   4   2   29.80    2.70
  -8  -4  -2  382.86    9.90
   8   4   2  345.87   11.50
 -10  -4  -2    5.80    2.50
  10   4   2    4.40    3.10
 -12  -4  -2  161.28    8.60
  12   4   2  158.18    9.70
 -14  -4  -2    4.50    3.10
  14   4   2    2.50    4.70
 -15   5   2   66.79   15.10
  13  -5  -2   40.10    6.20
 -13   5   2   30.20    6.80
  11  -5  -2  118.79    7.40
 -11   5   2  120.29   10.20
   9  -5  -2   10.50    2.50
  -9   5   2    6.10    4.00
   7  -5  -2  463.45   11.90
  -7   5   2  439.66   15.50
   5  -5  -2    0.50    1.10
  -5   5   2    0.20    1.70
   3  -5  -2  738.33   16.70
  -3   5   2  729.83   22.60
   1  -5  -2    1.10    1.10
  -1   5   2    2.60    2.90
  -1  -5  -2  455.75   11.00
   1   5   2  479.65   15.40
  -3  -5  -2   97.29    2.90
   3   5   2  102.99    4.20
  -5  -5  -2  450.15   15.20
   5   5   2  462.35   11.90
  -7  -5  -2  156.38    5.30
   7   5   2  151.58    6.90
  -9  -5  -2  283.07    8.50
   9   5   2  267.47   10.20
 -11  -5  -2  227.58   10.00
  11   5   2  196.98   10.70
 -13  -5  -2   10.90    3.40
  13   5   2   13.00    5.00
  12  -6  -2   31.10    5.40
 -12   6   2   27.10    6.30
  10  -6  -2  176.88    7.90
 -10   6   2  174.28   11.40
   8  -6  -2   22.00    2.90
  -8   6   2   21.20    3.90
   6  -6  -2  257.17    8.80
  -6   6   2  247.98   10.10
   4  -6  -2  161.38    6.30
  -4   6   2  161.78   10.30
   2  -6  -2  149.19    6.00
  -2   6   2  137.89    9.80
   0  -6  -2  427.56   12.10
   0   6   2  402.66   18.60
  -2  -6  -2  114.19    4.80
   2   6   2  117.59    8.70
  -4  -6  -2  294.27    8.90
   4   6   2  289.47   11.10
  -6  -6  -2    8.30    2.80
   6   6   2   11.20    2.50
  -8  -6  -2  183.58    6.30
   8   6   2  176.58    8.00
 -10  -6  -2    2.10    2.10
  10   6   2    0.70    2.60
 -12  -6  -2   77.69    6.30
  12   6   2   90.79    8.10
  11  -7  -2   52.09   12.60
   9  -7  -2    6.80    2.30
  -9   7   2    4.00    3.60
   7  -7  -2  192.88    7.80
  -7   7   2  182.38    8.20
   5  -7  -2    0.50    1.70
  -5   7   2    0.30    3.50
   3  -7  -2  302.97   10.00
  -3   7   2  278.27   15.80
   1  -7  -2    3.00    2.00
  -1   7   2    4.40    4.30
  -1  -7  -2  214.48    7.80
   1   7   2  203.08   12.80
  -3  -7  -2   41.40    3.40
   3   7   2   49.60    7.40
  -5  -7  -2  197.18    6.60
   5   7   2  198.88    8.60
  -7  -7  -2   77.79    6.70
   7   7   2   57.99    6.90
  -9  -7  -2  146.29    9.20
   9   7   2  139.79   10.70
 -11  -7  -2   93.79    6.70
  11   7   2   96.89   13.90
   6  -8  -2  110.69    6.00
  -6   8   2   88.29   13.70
   4  -8  -2   62.89    4.90
  -4   8   2   77.99   13.80
   2  -8  -2   66.29    4.70
  -2   8   2   62.09    8.90
   0  -8  -2  175.28    7.40
   0   8   2  145.59   12.20
  -2  -8  -2   37.30    3.90
   2   8   2   39.00    7.30
  -4  -8  -2  118.29    5.40
   4   8   2  122.69   10.90
  -6  -8  -2    4.80    3.40
   6   8   2    0.00    6.50
 -16   0   3  104.49    7.60
 -14   0   3   16.90    3.40
 -12   0   3  276.07   10.00
 -10   0   3   46.50    3.30
  -8   0   3  646.44   14.00
  -6   0   3  104.39    3.20
  -4   0   3  914.61   16.70
  -2   0   3    8.30    0.80
   0   0   3  472.35    8.80
   2   0   3 2260.37   39.20
   4   0   3   64.69    2.10
   6   0   3  456.95   10.90
   8   0   3    1.90    1.30
  10   0   3   11.00    2.30
  12   0   3   31.80    3.30
  14   0   3  134.19    6.30
  16   0   3   12.50    3.20
  17  -1  -3   10.60    3.50
 -17   1   3   20.40    5.00
  15  -1  -3   69.69    5.70
 -15   1   3   67.29    6.00
  13  -1  -3  127.39    6.70
 -13   1   3  117.59    7.20
  11  -1  -3  190.48    6.70
 -11   1   3  182.38    7.40
   9  -1  -3  177.98    6.00
  -9   1   3  177.78    5.50
   7  -1  -3  346.17    8.10
  -7   1   3  335.37    8.10
   5  -1  -3  985.80   18.00
  -5   1   3  972.50   19.50
   3  -1  -3  181.08    4.10
  -3   1   3  175.88    4.40
   1  -1  -3 3958.20   72.99
  -1   1   3 3967.50   73.69
  -1  -1  -3   51.69    1.80
   1   1   3   55.59    1.80
  -3  -1  -3  814.42   17.60
   3   1   3  836.12   15.10
  -5  -1  -3   34.10    1.60
   5   1   3   35.20    1.50
  -7  -1  -3  702.03   18.10
   7   1   3  721.13   16.50
  -9  -1  -3  164.68    6.20
   9   1   3  169.48    6.30
 -11  -1  -3  349.07   10.20
  11   1   3  350.46    9.90
 -13  -1  -3   53.99    4.30
  13   1   3   52.99    3.80
 -15  -1  -3   30.10    4.40
  15   1   3   23.30    3.90
 -17  -1  -3   31.10    7.10
  17   1   3   36.20    5.80
  16  -2  -3   90.59    6.60
 -16   2   3   84.29    7.30
  14  -2  -3   16.10    3.50
 -14   2   3    8.00    3.40
  12  -2  -3  224.58    8.90
 -12   2   3  226.58    9.70
  10  -2  -3   39.20    3.20
 -10   2   3   41.20    3.10
   8  -2  -3  556.04   12.30
  -8   2   3  540.15   13.40
   6  -2  -3   98.79    3.40
  -6   2   3   99.59    3.10
   4  -2  -3  751.42   15.10
  -4   2   3  751.12   15.30
   2  -2  -3   33.70    1.50
  -2   2   3   28.10    1.70
   0  -2  -3  459.65    9.60
   0   2   3  474.25   10.70
  -2  -2  -3 1603.04   28.20
   2   2   3 1653.83   33.80
  -4  -2  -3   87.09    2.40
   4   2   3   91.69    3.30
  -6  -2  -3  397.86    8.80
   6   2   3  399.06    9.90
  -8  -2  -3    2.70    1.30
   8   2   3    3.00    1.70
 -10  -2  -3    7.50    2.40
  10   2   3    8.80    3.40
 -12  -2  -3   30.00    3.90
  12   2   3   32.30    6.00
 -14  -2  -3  126.39    8.70
  14   2   3  116.69    9.90
 -16  -2  -3    5.70    3.40
  16   2   3   11.90    5.10
  15  -3  -3   53.89    6.20
 -15   3   3   64.49   11.30
  13  -3  -3   88.59    6.80
 -13   3   3   83.09    8.90
  11  -3  -3  150.98    6.80
 -11   3   3  140.29    6.30
   9  -3  -3  126.49    5.10
  -9   3   3  127.09    4.60
   7  -3  -3  241.98    7.10
  -7   3   3  248.28    6.90
   5  -3  -3  637.04   14.70
  -5   3   3  651.13   13.40
   3  -3  -3  119.79    3.50
  -3   3   3  123.49    3.20
   1  -3  -3 1957.70   34.10
  -1   3   3 2013.20   38.30
  -1  -3  -3   14.00    1.00
   1   3   3   17.20    1.60
  -3  -3  -3  530.05   10.70
   3   3   3  536.65   13.90
  -5  -3  -3   33.00    1.70
   5   3   3   34.80    2.60
  -7  -3  -3  511.45   13.70
   7   3   3  494.65   14.10
  -9  -3  -3  119.29    6.10
   9   3   3  135.09    7.30
 -11  -3  -3  274.27    9.90
  11   3   3  261.57   12.50
 -13  -3  -3   47.00    4.90
  13   3   3   50.99    6.90
 -15  -3  -3   22.10    4.10
  15   3   3   16.00    5.40
  14  -4  -3   10.80    5.30
 -14   4   3    9.40    4.70
  12  -4  -3  175.28    9.40
 -12   4   3  175.98   12.30
  10  -4  -3   26.00    3.50
 -10   4   3   28.10    5.70
   8  -4  -3  354.46   11.10
  -8   4   3  347.97   13.10
   6  -4  -3   67.79    3.90
  -6   4   3   61.59    4.60
   4  -4  -3  408.66    9.40
  -4   4   3  416.16   11.50
   2  -4  -3   53.39    2.40
  -2   4   3   58.89    1.70
   0  -4  -3  306.67    7.80
   0   4   3  327.07    9.00
  -2  -4  -3  781.02   15.40
   2   4   3  784.22   19.70
  -4  -4  -3   72.69    2.60
   4   4   3   81.29    3.50
  -6  -4  -3  255.37    8.70
   6   4   3  247.98    8.50
  -8  -4  -3    2.00    1.50
   8   4   3    0.80    1.80
 -10  -4  -3    7.20    2.60
  10   4   3    7.60    3.30
 -12  -4  -3   23.90    4.10
  12   4   3   20.30    4.70
 -14  -4  -3   79.29    6.60
  14   4   3   71.79    8.80
  13  -5  -3   56.29    7.50
 -13   5   3   50.89    8.50
  11  -5  -3   80.19    6.40
 -11   5   3   76.19    8.60
   9  -5  -3   80.39    5.10
  -9   5   3   65.99    5.70
   7  -5  -3  130.69    5.40
  -7   5   3  121.09    6.80
   5  -5  -3  345.47    9.50
  -5   5   3  336.37   12.20
   3  -5  -3   61.59    3.70
  -3   5   3   55.49    6.00
   1  -5  -3  868.71   21.60
  -1   5   3  833.22   45.10
  -1  -5  -3    2.00    1.40
   1   5   3    5.30    1.70
  -3  -5  -3  321.27    9.40
   3   5   3  320.57   10.10
  -5  -5  -3   18.60    1.90
   5   5   3   20.30    2.90
  -7  -5  -3  289.77    9.90
   7   5   3  267.37    9.80
  -9  -5  -3   67.79    4.90
   9   5   3   68.09    6.20
 -11  -5  -3  157.18    8.30
  11   5   3  143.49    9.30
 -13  -5  -3   28.10    4.70
  13   5   3   27.60    5.40
  12  -6  -3  103.29    7.50
 -12   6   3   92.69    9.90
  10  -6  -3    9.50    2.60
 -10   6   3    9.00    4.30
   8  -6  -3  187.98    7.70
  -8   6   3  182.08    9.00
   6  -6  -3   35.00    3.60
  -6   6   3   29.80    3.80
   4  -6  -3  179.78    7.00
  -4   6   3  183.38   11.30
   2  -6  -3   41.90    3.60
  -2   6   3   40.60    9.50
   0  -6  -3  167.88    6.50
   0   6   3  154.48   14.90
  -2  -6  -3  321.77    9.80
   2   6   3  307.47   11.20
  -4  -6  -3   42.80    3.00
   4   6   3   43.00    3.90
  -6  -6  -3  141.99    5.90
   6   6   3  135.19    7.70
  -8  -6  -3    0.80    1.40
   8   6   3    0.00    2.50
 -10  -6  -3    2.90    2.30
  10   6   3    0.90    4.00
 -12  -6  -3    8.50    3.30
  12   6   3   13.30    5.30
   9  -7  -3   30.00    3.90
  -9   7   3   31.30    5.20
   7  -7  -3   53.39    4.50
  -7   7   3   47.30    4.00
   5  -7  -3  175.38    7.40
  -5   7   3  161.48   16.90
   3  -7  -3   29.30    3.50
  -3   7   3   33.30    9.10
   1  -7  -3  362.16   11.40
  -1   7   3  292.17   23.80
  -1  -7  -3    4.50    2.10
   1   7   3    3.50    5.70
  -3  -7  -3  162.38    6.60
   3   7   3  151.68   10.90
  -5  -7  -3    9.80    1.80
   5   7   3    9.10    3.30
  -7  -7  -3  154.08    9.20
   7   7   3  134.49   10.00
  -9  -7  -3   48.50   11.30
   9   7   3   38.20    6.60
   6  -8  -3   11.80    3.10
  -6   8   3   16.80    8.40
   4  -8  -3   79.89    5.40
  -4   8   3   77.69   15.00
   2  -8  -3   18.40    3.10
  -2   8   3    9.30    8.30
   0  -8  -3   73.09    5.10
   0   8   3   63.99   14.10
  -2  -8  -3  124.79    6.30
   2   8   3  125.49   15.20
  -4  -8  -3   17.30    2.60
   4   8   3   23.10    8.60
  -6  -8  -3   76.19    7.50
   6   8   3   72.59   14.10
 -16   0   4   58.99    6.30
 -14   0   4  200.08   10.40
 -12   0   4   24.10    3.60
 -10   0   4 1186.98   26.80
  -8   0   4   74.39    3.30
  -6   0   4  698.03   13.60
  -4   0   4  255.97    5.70
  -2   0   4  605.64   10.60
   0   0   4  347.57    6.90
   2   0   4 1096.09   21.10
   4   0   4  742.63   15.00
   6   0   4  207.28    6.60
   8   0   4  352.06   10.40
  10   0   4   90.99    4.90
  12   0   4  156.68    6.40
  14   0   4    4.40    2.40
  16   0   4   87.19    6.60
  17  -1  -4   86.09    7.70
 -17   1   4   88.79    9.90
  15  -1  -4   22.30    4.00
 -15   1   4   22.50    4.20
  13  -1  -4  274.87   10.30
 -13   1   4  254.87   11.50
  11  -1  -4   16.20    2.60
 -11   1   4   15.50    2.80
   9  -1  -4  607.34   14.90
  -9   1   4  606.24   13.70
   7  -1  -4  676.43   14.40
  -7   1   4  675.33   14.50
   5  -1  -4  754.82   15.50
  -5   1   4  758.32   14.40
   3  -1  -4 1980.90   34.60
  -3   1   4 1951.00   34.60
   1  -1  -4  126.49    3.20
  -1   1   4  122.89    3.80
  -1  -1  -4  710.93   14.10
   1   1   4  708.33   14.20
  -3  -1  -4  505.35   10.50
   3   1   4  504.95    9.80
  -5  -1  -4 1520.05   29.50
   5   1   4 1570.64   27.80
  -7  -1  -4   20.10    2.20
   7   1   4   18.00    2.00
  -9  -1  -4  885.81   23.00
   9   1   4  906.41   23.10
 -11  -1  -4  170.98    7.10
  11   1   4  160.78    6.80
 -13  -1  -4  136.19    7.20
  13   1   4  148.29    7.70
 -15  -1  -4   38.30    5.70
  15   1   4   34.10    4.50
  16  -2  -4   56.29    6.70
 -16   2   4   55.99    6.70
  14  -2  -4  177.18    8.40
 -14   2   4  184.58   11.10
  12  -2  -4   16.00    2.80
 -12   2   4   20.00    3.70
  10  -2  -4  995.30   23.20
 -10   2   4 1002.80   23.40
   8  -2  -4   62.69    3.10
  -8   2   4   59.79    3.40
   6  -2  -4  634.14   13.40
  -6   2   4  617.04   14.90
   4  -2  -4  187.38    4.80
  -4   2   4  178.88    5.00
   2  -2  -4  557.64   10.80
  -2   2   4  542.55   12.80
   0  -2  -4  233.18    5.70
   0   2   4  250.77    5.80
  -2  -2  -4  880.51   16.10
   2   2   4  894.31   16.30
  -4  -2  -4  543.85   11.50
   4   2   4  553.24   10.60
  -6  -2  -4  186.68    5.60
   6   2   4  189.58    4.50
  -8  -2  -4  277.67    8.90
   8   2   4  290.17    7.00
 -10  -2  -4   85.99    5.50
  10   2   4   77.59    4.00
 -12  -2  -4  151.98    8.20
  12   2   4  132.79    9.90
 -14  -2  -4    4.10    3.10
  14   2   4    2.50    3.60
 -16  -2  -4   81.29    7.20
  16   2   4   70.39    8.40
  15  -3  -4   14.50    5.50
 -15   3   4    6.00    6.20
  13  -3  -4  192.78   12.50
 -13   3   4  191.88    8.70
  11  -3  -4    9.60    3.30
 -11   3   4   10.70    2.60
   9  -3  -4  458.15   13.70
  -9   3   4  458.35   12.00
   7  -3  -4  444.86   12.80
  -7   3   4  440.46   11.40
   5  -3  -4  473.15   13.00
  -5   3   4  468.55   11.60
   3  -3  -4 1170.88   25.10
  -3   3   4 1159.18   25.50
   1  -3  -4   72.49    3.00
  -1   3   4   75.59    2.80
  -1  -3  -4  494.35   11.40
   1   3   4  494.95   15.60
  -3  -3  -4  240.78    6.00
   3   3   4  244.78    7.40
  -5  -3  -4 1044.40   22.70
   5   3   4 1035.90   25.90
  -7  -3  -4    8.30    1.70
   7   3   4    6.70    2.00
  -9  -3  -4  676.43   21.20
   9   3   4  672.83   22.10
 -11  -3  -4  121.39    7.10
  11   3   4  128.29    9.60
 -13  -3  -4  116.79    7.10
  13   3   4  118.69    9.70
 -15  -3  -4   31.10    6.20
  15   3   4   20.40    5.80
  14  -4  -4  113.69   10.30
 -14   4   4  119.79   11.10
  12  -4  -4   20.00    4.30
 -12   4   4    8.60    4.50
  10  -4  -4  642.74   21.70
 -10   4   4  663.73   22.00
   8  -4  -4   42.20    3.80
  -8   4   4   42.50    4.80
   6  -4  -4  423.36   11.20
  -6   4   4  424.86   14.70
   4  -4  -4   95.09    4.10
  -4   4   4   96.29    3.10
   2  -4  -4  348.97    9.30
  -2   4   4  380.36    9.00
   0  -4  -4  117.89    4.70
   0   4   4  114.99    5.60
  -2  -4  -4  488.15   13.00
   2   4   4  486.05   15.90
  -4  -4  -4  298.97    8.70
   4   4   4  282.77   10.90
  -6  -4  -4  124.89    5.70
   6   4   4  124.89    6.70
  -8  -4  -4  164.78    8.60
   8   4   4  172.98   10.90
 -10  -4  -4   55.39    5.60
  10   4   4   50.99    5.70
 -12  -4  -4   96.29    6.80
  12   4   4   83.59    7.60
 -14  -4  -4    1.20    2.90
  14   4   4    0.00    6.60
  13  -5  -4  103.29    9.80
 -13   5   4   97.39    9.80
  11  -5  -4    4.30    3.30
 -11   5   4   11.10    4.60
   9  -5  -4  271.67   10.00
  -9   5   4  264.77   11.50
   7  -5  -4  235.78    7.80
  -7   5   4  218.88    9.80
   5  -5  -4  250.27    7.80
  -5   5   4  250.87    9.90
   3  -5  -4  565.14   15.50
  -3   5   4  582.24   33.30
   1  -5  -4   47.60    3.40
  -1   5   4   53.19    3.50
  -1  -5  -4  285.97    9.00
   1   5   4  296.67   10.80
  -3  -5  -4  110.89    4.80
   3   5   4  106.79    6.20
  -5  -5  -4  515.15   15.90
   5   5   4  506.35   17.40
  -7  -5  -4    1.60    1.70
   7   5   4    2.60    2.70
  -9  -5  -4  415.86   16.90
   9   5   4  390.76   19.60
 -11  -5  -4   75.99    5.90
  11   5   4   72.29    9.10
 -13  -5  -4   72.19    6.40
  13   5   4   57.89    9.00
  12  -6  -4    2.90    5.00
  10  -6  -4  343.87   11.00
 -10   6   4  335.47   17.50
   8  -6  -4   27.70    3.60
  -8   6   4   24.20    4.20
   6  -6  -4  210.48    8.20
  -6   6   4  201.88    8.90
   4  -6  -4   38.80    3.80
  -4   6   4   45.10   10.10
   2  -6  -4  174.08    7.00
  -2   6   4  169.68   16.00
   0  -6  -4   67.49    4.40
   0   6   4   57.39   10.30
  -2  -6  -4  224.18    8.00
   2   6   4  227.08   11.30
  -4  -6  -4  149.69    6.00
   4   6   4  153.98    8.00
  -6  -6  -4   68.39    4.20
   6   6   4   60.49    5.80
  -8  -6  -4   85.19    4.70
   8   6   4   84.19    7.10
 -10  -6  -4   25.70    3.90
  10   6   4   25.00    6.10
   9  -7  -4  131.49    7.00
  -9   7   4  119.89    7.50
   7  -7  -4  100.09    6.00
  -7   7   4   85.69   10.00
   5  -7  -4  118.79    6.30
  -5   7   4  110.89   14.80
   3  -7  -4  256.37    9.60
  -3   7   4  262.47   22.10
   1  -7  -4   26.50    3.50
  -1   7   4   33.60    9.60
  -1  -7  -4  130.99    6.30
   1   7   4  127.49   14.20
  -3  -7  -4   52.49    4.00
   3   7   4   58.59   11.00
  -5  -7  -4  231.58    9.10
   5   7   4  228.88   12.40
  -7  -7  -4    0.20    1.20
   7   7   4    4.30    4.10
  -9  -7  -4  191.98    9.70
   9   7   4  200.58   19.20
  -6   8   4   56.09   15.50
   4  -8  -4   13.10    3.10
  -4   8   4   11.50    8.20
   2  -8  -4   72.79    5.30
  -2   8   4   72.39   14.30
   0  -8  -4   24.90    3.60
   0   8   4   18.20    8.30
  -2  -8  -4   86.59    5.40
   2   8   4   96.09   13.90
  -4  -8  -4   61.99    4.70
   4   8   4   69.99   12.50
 -16   0   5  102.39    8.00
 -14   0   5  109.19    8.10
 -12   0   5  248.38    9.60
 -10   0   5   10.40    2.30
  -8   0   5  455.35   11.80
  -6   0   5   21.70    1.90
  -4   0   5  746.83   14.30
  -2   0   5  121.99    3.00
   0   0   5  899.61   16.60
   2   0   5  504.75    9.90
   4   0   5  639.44   13.30
   6   0   5  144.59    5.40
   8   0   5  239.98    9.30
  10   0   5   58.49    4.20
  12   0   5   47.40    4.50
  14   0   5   78.19    5.10
  16   0   5   11.50    6.60
  15  -1  -5   57.79    8.40
 -15   1   5   48.80    5.80
  13  -1  -5   20.30    3.60
 -13   1   5   10.70    3.70
  11  -1  -5  233.38    8.00
 -11   1   5  224.58    8.80
   9  -1  -5   39.00    3.10
  -9   1   5   37.10    3.40
   7  -1  -5  724.83   15.40
  -7   1   5  703.83   15.60
   5  -1  -5  164.58    4.40
  -5   1   5  157.28    4.80
   3  -1  -5  628.04   11.30
  -3   1   5  635.64   12.30
   1  -1  -5  946.01   17.50
  -1   1   5  943.21   17.30
  -1  -1  -5  635.04   12.20
   1   1   5  634.34   13.00
  -3  -1  -5  303.77    7.10
   3   1   5  307.27    7.10
  -5  -1  -5   67.59    2.90
   5   1   5   67.79    2.70
  -7  -1  -5  377.06   11.00
   7   1   5  383.96   11.00
  -9  -1  -5    0.20    1.60
   9   1   5    0.90    1.70
 -11  -1  -5  230.38    8.60
  11   1   5  210.28    8.20
 -13  -1  -5    0.20    2.60
  13   1   5    1.50    2.30
 -15  -1  -5   27.80    4.50
  15   1   5   25.40    3.90
  16  -2  -5   84.69    9.20
 -16   2   5   83.29    8.50
  14  -2  -5   86.89    9.50
 -14   2   5   89.49    6.80
  12  -2  -5  205.88   10.20
 -12   2   5  209.78    9.90
  10  -2  -5    5.20    2.80
 -10   2   5    6.40    2.10
   8  -2  -5  394.66   12.00
  -8   2   5  390.06   10.80
   6  -2  -5   26.30    2.80
  -6   2   5   21.10    2.30
   4  -2  -5  648.24   15.00
  -4   2   5  641.04   15.30
   2  -2  -5   93.39    3.20
  -2   2   5   85.59    3.50
   0  -2  -5  766.32   15.60
   0   2   5  758.62   17.30
  -2  -2  -5  343.57    7.90
   2   2   5  346.57    7.90
  -4  -2  -5  511.65   11.20
   4   2   5  529.75   10.40
  -6  -2  -5  118.69    4.90
   6   2   5  124.39    3.70
  -8  -2  -5  198.28    8.20
   8   2   5  189.78    7.50
 -10  -2  -5   44.80    4.50
  10   2   5   49.40    3.30
 -12  -2  -5   42.80    5.10
  12   2   5   29.00    5.80
 -14  -2  -5   66.59    6.00
  14   2   5   58.99    7.70
  15  -3  -5   45.00    7.50
 -15   3   5   35.20    4.40
  13  -3  -5    5.20    3.50
 -13   3   5    8.10    2.80
  11  -3  -5  160.28    8.90
 -11   3   5  164.08    7.30
   9  -3  -5   27.50    4.10
  -9   3   5   26.30    3.00
   7  -3  -5  502.95   14.50
  -7   3   5  508.35   13.00
   5  -3  -5  119.69    4.70
  -5   3   5  128.29    4.80
   3  -3  -5  415.56   10.40
  -3   3   5  408.46   10.50
   1  -3  -5  637.14   14.80
  -1   3   5  650.43   17.00
  -1  -3  -5  398.96    9.90
   1   3   5  405.36    9.80
  -3  -3  -5  277.17    7.30
   3   3   5  260.87   10.20
  -5  -3  -5   62.39    4.00
   5   3   5   60.99    4.60
  -7  -3  -5  300.97   13.00
   7   3   5  302.27   14.90
  -9  -3  -5    0.50    2.50
   9   3   5    0.70    3.30
 -11  -3  -5  158.58    8.30
  11   3   5  167.98   16.20
 -13  -3  -5    0.40    3.00
  13   3   5    0.00    4.30
 -15  -3  -5   17.50    8.30
  14  -4  -5   65.09    9.00
 -14   4   5   67.79    9.00
  12  -4  -5  165.38    9.60
 -12   4   5  158.08   11.90
  10  -4  -5    5.30    3.30
 -10   4   5    3.80    3.20
   8  -4  -5  261.17    9.40
  -8   4   5  249.78    8.50
   6  -4  -5   18.40    2.50
  -6   4   5   21.80    2.30
   4  -4  -5  419.56   11.00
  -4   4   5  423.66   10.90
   2  -4  -5   36.70    2.70
  -2   4   5   39.60    2.70
   0  -4  -5  500.35   13.60
   0   4   5  490.85   16.30
  -2  -4  -5  170.08    6.20
   2   4   5  172.48    7.80
  -4  -4  -5  286.97    8.90
   4   4   5  286.57   11.30
  -6  -4  -5   78.79    4.80
   6   4   5   80.79    5.80
  -8  -4  -5  118.09    7.40
   8   4   5  112.79    9.30
 -10  -4  -5   29.50    4.70
  10   4   5   27.30    6.20
 -12  -4  -5   32.30    5.50
  12   4   5   35.70   10.00
  13  -5  -5    8.60    4.30
 -13   5   5   10.50    7.10
  11  -5  -5   87.69    7.30
 -11   5   5   99.89    8.90
   9  -5  -5   17.90    3.10
  -9   5   5   16.60    4.00
   7  -5  -5  298.47    9.40
  -7   5   5  296.77   12.20
   5  -5  -5   80.49    4.90
  -5   5   5   74.19    5.30
   3  -5  -5  232.78    8.20
  -3   5   5  223.58    7.70
   1  -5  -5  323.77   10.20
  -1   5   5  325.47   11.80
  -1  -5  -5  195.78    7.20
   1   5   5  192.98    8.60
  -3  -5  -5  182.78    6.90
   3   5   5  185.78    8.70
  -5  -5  -5   34.80    3.60
   5   5   5   41.90    4.80
  -7  -5  -5  178.68    9.20
   7   5   5  181.28    9.30
  -9  -5  -5    0.50    2.20
   9   5   5    1.70    4.10
 -11  -5  -5  104.99    7.70
  11   5   5   98.59   10.10
  13   5   5    0.00    6.00
  10  -6  -5    1.20    2.70
 -10   6   5    3.80    3.10
   8  -6  -5  132.89    7.10
  -8   6   5  132.19    7.80
   6  -6  -5    6.40    2.70
  -6   6   5    6.50    2.40
   4  -6  -5  221.58    8.50
  -4   6   5  193.78   18.70
   2  -6  -5   10.40    2.60
  -2   6   5   11.30    7.00
   0  -6  -5  264.07    9.30
   0   6   5  269.17   12.20
  -2  -6  -5   90.99    5.00
   2   6   5   86.69    7.30
  -4  -6  -5  148.09    6.90
   4   6   5  141.49    8.00
  -6  -6  -5   43.80    3.90
   6   6   5   44.90    5.50
  -8  -6  -5   70.39    5.50
   8   6   5   59.69    8.10
 -10  -6  -5   23.70    4.10
  10   6   5   16.00    5.60
   9  -7  -5    8.40    6.00
  -9   7   5    2.80    3.10
   7  -7  -5  152.98    7.60
  -7   7   5  138.09   11.90
   5  -7  -5   37.30    4.30
  -5   7   5   26.30   10.10
   3  -7  -5  119.19    6.50
  -3   7   5  114.19   15.30
   1  -7  -5  157.28    7.20
  -1   7   5  138.19   16.00
  -1  -7  -5   81.59    5.20
   1   7   5   88.39   12.80
  -3  -7  -5   89.09    5.20
   3   7   5   89.99    6.80
  -5  -7  -5   19.30    3.00
   5   7   5   13.20    4.70
  -7  -7  -5   89.49    5.40
   7   7   5   83.39    8.80
   2  -8  -5    7.60    5.60
   0  -8  -5  112.49    6.60
   0   8   5   91.79   16.50
  -2  -8  -5   28.00    4.10
  -4  -8  -5   59.99    7.20
 -16   0   6  147.29   12.60
 -14   0   6   95.49    9.40
 -12   0   6  232.28    9.40
 -10   0   6  430.26   13.60
  -8   0   6  125.39    5.20
  -6   0   6  670.63   14.70
  -4   0   6   76.69    2.60
  -2   0   6 1187.88   21.90
   0   0   6   89.29    2.90
   2   0   6  967.30   19.60
   4   0   6   15.80    1.80
   6   0   6  694.83   18.30
   8   0   6   83.79    4.60
  10   0   6  238.18    8.70
  12   0   6   12.20    3.00
  14   0   6   83.19    5.30
  15  -1  -6   11.90    5.40
 -15   1   6   16.10    4.20
  13  -1  -6  204.98   10.90
 -13   1   6  203.08   10.40
  11  -1  -6   13.30    3.20
 -11   1   6   14.70    3.10
   9  -1  -6  672.43   19.10
  -9   1   6  671.23   17.00
   7  -1  -6   46.00    3.90
  -7   1   6   39.80    3.10
   5  -1  -6  860.71   17.90
  -5   1   6  840.32   19.90
   3  -1  -6  235.68    5.70
  -3   1   6  226.28    6.80
   1  -1  -6  502.45   10.20
  -1   1   6  495.35   12.30
  -1  -1  -6  731.03   14.90
   1   1   6  706.83   16.70
  -3  -1  -6  265.87    7.30
   3   1   6  267.57    7.20
  -5  -1  -6  351.06   10.20
   5   1   6  342.97    8.40
  -7  -1  -6   48.50    3.60
   7   1   6   48.10    3.40
  -9  -1  -6  136.19    6.20
   9   1   6  140.09    6.00
 -11  -1  -6    4.80    2.60
  11   1   6    9.30    2.80
 -13  -1  -6  145.79    8.50
  13   1   6  129.29    7.50
 -15  -1  -6    0.00    3.00
  15   1   6    0.00    2.20
  14  -2  -6  100.09   10.10
 -14   2   6   82.69    7.00
  12  -2  -6  198.38   10.40
 -12   2   6  203.68    8.60
  10  -2  -6  353.56   14.20
 -10   2   6  362.26   10.80
   8  -2  -6  121.29    6.90
  -8   2   6  105.79    5.10
   6  -2  -6  574.64   14.00
  -6   2   6  546.25   14.10
   4  -2  -6   71.99    3.50
  -4   2   6   68.99    3.60
   2  -2  -6  932.31   20.40
  -2   2   6  884.91   23.40
   0  -2  -6   68.29    2.90
   0   2   6   64.89    3.60
  -2  -2  -6  770.52   15.90
   2   2   6  747.13   19.80
  -4  -2  -6   17.80    2.20
   4   2   6   16.00    2.10
  -6  -2  -6  557.54   15.20
   6   2   6  560.04   18.00
  -8  -2  -6   77.99    5.20
   8   2   6   68.19    5.10
 -10  -2  -6  212.18    9.60
  10   2   6  206.48    9.90
 -12  -2  -6   18.60    4.10
  12   2   6    9.60    6.40
 -14  -2  -6   70.09    7.00
  14   2   6   55.99   11.00
  15  -3  -6   10.50    6.30
 -15   3   6   12.10    3.50
  13  -3  -6  154.68    9.70
 -13   3   6  159.58    8.90
  11  -3  -6    9.60    3.70
 -11   3   6    6.70    2.50
   9  -3  -6  499.35   18.20
  -9   3   6  524.25   13.90
   7  -3  -6   32.90    3.30
  -7   3   6   36.30    3.30
   5  -3  -6  584.44   14.40
  -5   3   6  577.34   14.60
   3  -3  -6  171.28    5.80
  -3   3   6  170.88    6.50
   1  -3  -6  401.46   10.40
  -1   3   6  404.86   11.80
  -1  -3  -6  505.45   12.40
   1   3   6  517.35   16.90
  -3  -3  -6  216.78    7.30
   3   3   6  208.58    9.00
  -5  -3  -6  261.27   11.80
   5   3   6  257.57   10.60
  -7  -3  -6   31.30    4.50
   7   3   6   36.20    5.80
  -9  -3  -6   95.29    7.30
   9   3   6  106.19   12.70
 -11  -3  -6    2.00    2.90
  11   3   6    0.00    4.90
 -13  -3  -6  104.99    8.10
  13   3   6  119.89   15.30
  14  -4  -6   60.69   15.40
 -14   4   6   52.79   12.00
  12  -4  -6  136.19    9.10
 -12   4   6  146.09   11.30
  10  -4  -6  251.37   11.60
 -10   4   6  244.08    9.00
   8  -4  -6   65.89    4.60
  -8   4   6   67.79    4.60
   6  -4  -6  367.96   10.50
  -6   4   6  359.46   10.20
   4  -4  -6   47.20    3.50
  -4   4   6   50.19    3.30
   2  -4  -6  531.45   13.30
  -2   4   6  538.55   14.90
   0  -4  -6   37.40    3.40
   0   4   6   37.40    4.30
  -2  -4  -6  471.75   13.60
   2   4   6  489.55   16.60
  -4  -4  -6   15.00    2.60
   4   4   6   15.10    3.40
  -6  -4  -6  368.06   15.90
   6   4   6  390.26   14.60
  -8  -4  -6   51.09    5.50
   8   4   6   56.79    7.50
 -10  -4  -6  148.19    9.40
  10   4   6  136.89   11.70
 -12  -4  -6    6.00    3.80
  12   4   6   11.90    8.40
  11  -5  -6    8.10    3.60
 -11   5   6    2.40    2.80
   9  -5  -6  296.07   10.10
  -9   5   6  303.67   13.10
   7  -5  -6   18.70    3.10
  -7   5   6   16.70    3.80
   5  -5  -6  319.97   11.00
  -5   5   6  323.47   10.10
   3  -5  -6   93.89    5.30
  -3   5   6   94.09    4.60
   1  -5  -6  248.78    8.80
  -1   5   6  234.98   10.10
  -1  -5  -6  253.17    8.90
   1   5   6  265.67   11.00
  -3  -5  -6  120.79    5.70
   3   5   6  129.89    7.50
  -5  -5  -6  153.98    7.30
   5   5   6  151.18    8.50
  -7  -5  -6    8.10    3.10
   7   5   6   21.00    5.60
  -9  -5  -6   64.09    6.30
   9   5   6   63.39    8.70
 -11  -5  -6    5.00    3.30
  11   5   6    1.80    4.10
  10  -6  -6  127.99    9.90
 -10   6   6  112.49    9.60
   8  -6  -6   32.60    4.50
  -8   6   6   34.90    4.90
   6  -6  -6  198.38    8.70
  -6   6   6  187.38   10.20
   4  -6  -6   36.90    4.20
  -4   6   6   19.50    8.60
   2  -6  -6  254.97    9.50
  -2   6   6  255.77   11.20
   0  -6  -6   15.50    3.00
   0   6   6   17.20    3.90
  -2  -6  -6  258.97    9.40
   2   6   6  244.88   11.10
  -4  -6  -6    5.00    2.40
   4   6   6    5.80    3.30
  -6  -6  -6  204.18   10.70
   6   6   6  204.68   10.30
  -8  -6  -6   29.60    4.40
   8   6   6   25.70    5.70
   7  -7  -6    9.30    5.90
  -7   7   6    9.80    7.90
   5  -7  -6  146.79    7.70
  -5   7   6  146.69   18.00
   3  -7  -6   46.90    4.90
  -3   7   6   40.80   11.80
   1  -7  -6  109.89    6.20
  -1   7   6   92.99   13.40
  -1  -7  -6  107.19    6.10
   1   7   6  110.49   14.60
  -3  -7  -6   51.59    4.90
   3   7   6   56.29    6.80
  -5  -7  -6   69.09    5.40
   5   7   6   83.09    8.40
  -7  -7  -6    6.50    3.40
 -14   0   7  142.09   11.60
 -12   0   7    2.00    2.80
 -10   0   7  198.98   10.30
  -8   0   7  241.78   11.00
  -6   0   7  269.87    9.70
  -4   0   7  334.27   10.90
  -2   0   7  251.47    7.60
   0   0   7  127.39    4.80
   2   0   7  280.77    8.10
   4   0   7  653.93   15.40
   6   0   7   31.40    3.10
   8   0   7  418.16   12.70
  10   0   7    6.90    2.50
  12   0   7   84.69    5.60
  14   0   7    6.20    3.80
  15  -1  -7   65.99   11.60
 -15   1   7   41.50   11.40
  13  -1  -7    9.50    4.20
 -13   1   7    9.70    3.60
  11  -1  -7  349.27   14.80
 -11   1   7  348.37   13.00
   9  -1  -7   40.60    4.30
  -9   1   7   46.10    4.20
   7  -1  -7  430.46   13.60
  -7   1   7  439.56   12.10
   5  -1  -7    6.20    1.80
  -5   1   7    4.40    1.70
   3  -1  -7  582.74   12.70
  -3   1   7  554.04   16.20
   1  -1  -7  245.98    6.40
  -1   1   7  224.78    8.20
  -1  -1  -7  356.96    9.40
   1   1   7  342.87    9.40
  -3  -1  -7   82.19    3.80
   3   1   7   85.69    3.80
  -5  -1  -7  169.48    6.50
   5   1   7  180.58    7.70
  -7  -1  -7   96.19    5.20
   7   1   7  108.99    6.10
  -9  -1  -7   91.19    5.40
   9   1   7   91.29    7.30
 -11  -1  -7  162.88    8.60
  11   1   7  154.48    9.90
 -13  -1  -7    3.00    3.00
  13   1   7    4.20    3.30
  14  -2  -7  124.09   18.30
 -14   2   7  134.39    8.50
  12  -2  -7    3.00    3.20
 -12   2   7    2.50    2.40
  10  -2  -7  177.68    9.50
 -10   2   7  177.58    7.30
   8  -2  -7  209.88    9.90
  -8   2   7  214.28    7.70
   6  -2  -7  243.28    7.80
  -6   2   7  235.38    7.90
   4  -2  -7  288.47    8.50
  -4   2   7  292.97    8.80
   2  -2  -7  208.18    6.60
  -2   2   7  198.58    7.60
   0  -2  -7  119.79    4.60
   0   2   7  114.59    5.20
  -2  -2  -7  220.28    6.80
   2   2   7  220.08    7.70
  -4  -2  -7  556.14   15.40
   4   2   7  559.14   15.60
  -6  -2  -7   24.20    3.00
   6   2   7   21.80    3.70
  -8  -2  -7  367.16   13.40
   8   2   7  352.76   15.60
 -10  -2  -7    4.30    2.90
  10   2   7    8.30    2.40
 -12  -2  -7   82.89    6.90
  12   2   7   90.99   13.60
 -14  -2  -7    3.70    3.60
  13  -3  -7   10.40    4.40
 -13   3   7   13.60    3.90
  11  -3  -7  249.38   12.20
 -11   3   7  261.87    9.10
   9  -3  -7   27.50    4.00
  -9   3   7   28.00    3.50
   7  -3  -7  333.87   10.10
  -7   3   7  346.57   10.30
   5  -3  -7    3.80    1.80
  -5   3   7    2.30    1.80
   3  -3  -7  429.56   11.50
  -3   3   7  436.66   13.20
   1  -3  -7  164.48    5.90
  -1   3   7  169.58    6.70
  -1  -3  -7  266.87    7.80
   1   3   7  258.67    8.70
  -3  -3  -7   61.59    4.70
   3   3   7   63.19    3.60
  -5  -3  -7  117.79    7.70
   5   3   7  135.49    7.50
  -7  -3  -7   67.59    6.30
   7   3   7   71.09    7.80
  -9  -3  -7   66.29    6.80
   9   3   7   66.89   10.90
 -11  -3  -7  123.89    9.50
  11   3   7  131.39   15.80
 -13  -3  -7    2.70    3.60
  12  -4  -7    2.90    3.50
 -12   4   7    3.10    2.00
  10  -4  -7  114.79    7.20
 -10   4   7  120.69    6.30
   8  -4  -7  131.99    6.30
  -8   4   7  128.99    6.60
   6  -4  -7  140.19    6.10
  -6   4   7  137.69    5.90
   4  -4  -7  177.68    6.60
  -4   4   7  181.68    7.30
   2  -4  -7  115.89    5.80
  -2   4   7  117.99    5.40
   0  -4  -7   85.79    4.90
   0   4   7   78.09    3.80
  -2  -4  -7  147.89    6.40
   2   4   7  150.98    8.20
  -4  -4  -7  345.97   15.50
   4   4   7  372.36   14.20
  -6  -4  -7   18.70    4.00
   6   4   7   20.50    5.30
  -8  -4  -7  238.98   12.60
   8   4   7  248.68   15.00
 -10  -4  -7    2.30    3.60
  10   4   7    2.60    6.50
  11  -5  -7  158.88    8.70
 -11   5   7  147.09    9.80
   9  -5  -7   16.50    3.90
  -9   5   7   13.40    3.80
   7  -5  -7  217.68    8.40
  -7   5   7  206.98    7.90
   5  -5  -7    0.20    2.40
  -5   5   7    1.00    2.10
   3  -5  -7  255.97    9.50
  -3   5   7  254.37    8.50
   1  -5  -7   96.19    5.70
  -1   5   7   93.39    6.60
  -1  -5  -7  148.99    6.90
   1   5   7  157.18    8.50
  -3  -5  -7   45.80    4.60
   3   5   7   46.60    5.50
  -5  -5  -7   69.59    6.30
   5   5   7   71.99    6.40
  -7  -5  -7   33.70    5.00
   7   5   7   45.10    7.30
  -9  -5  -7   48.10    5.90
   9   5   7   37.70    7.30
  11   5   7   79.29   14.50
   8  -6  -7   77.09    6.30
  -8   6   7   60.49    6.40
   6  -6  -7   65.29    5.70
  -6   6   7   74.09    5.90
   4  -6  -7   88.19    6.20
  -4   6   7   88.49   14.30
   2  -6  -7   65.99    5.50
  -2   6   7   66.49    6.20
   0  -6  -7   45.20    4.70
   0   6   7   50.09    6.50
  -2  -6  -7   82.79    5.50
   2   6   7   76.39    6.60
  -4  -6  -7  200.28    9.20
   4   6   7  189.98   10.20
  -6  -6  -7   10.30    3.30
   6   6   7    5.20    4.10
  -8  -6  -7  130.19   12.30
   8   6   7  132.89   12.40
   3  -7  -7  126.69    7.40
  -3   7   7  117.39   16.70
   1  -7  -7   51.19    5.30
  -1   7   7   65.89   13.30
  -1  -7  -7   63.89    5.30
   1   7   7   72.59    6.50
  -3  -7  -7   26.20    4.20
   3   7   7   25.30    5.50
   5   7   7   42.30   11.40
 -14   0   8    3.50    4.40
 -12   0   8  232.58   12.00
 -10   0   8    1.70    3.30
  -8   0   8  237.28   11.30
  -6   0   8   74.89    5.30
  -4   0   8  350.36   11.80
  -2   0   8  183.08    8.80
   0   0   8  743.83   20.10
   2   0   8  426.86   12.80
   4   0   8   53.39    4.60
   6   0   8  337.77   12.60
   8   0   8    0.40    2.40
  10   0   8  114.49    7.20
  12   0   8   13.30    4.20
  13  -1  -8  174.18   10.80
 -13   1   8  171.88   10.20
  11  -1  -8    5.40    4.80
 -11   1   8   11.10    4.20
   9  -1  -8  260.57   15.40
  -9   1   8  277.57   12.50
   7  -1  -8  127.89    9.90
  -7   1   8  135.19    7.00
   5  -1  -8  770.52   30.70
  -5   1   8  761.72   21.50
   3  -1  -8    3.90    2.00
  -3   1   8   10.30    2.60
   1  -1  -8  892.31   23.40
  -1   1   8  877.21   23.80
  -1  -1  -8  337.77   10.80
   1   1   8  333.67   10.90
  -3  -1  -8  371.36   10.10
   3   1   8  356.76   13.10
  -5  -1  -8   80.09    4.70
   5   1   8   80.69    6.60
  -7  -1  -8  146.59    6.60
   7   1   8  155.68    9.50
  -9  -1  -8   55.39    4.70
   9   1   8   58.99    6.40
 -11  -1  -8   39.10    5.00
  11   1   8   33.20    5.60
 -13  -1  -8   75.09    7.30
  13   1   8   76.29    7.10
  14  -2  -8    0.20    5.90
 -14   2   8    0.00    4.80
  12  -2  -8  205.08   14.40
 -12   2   8  218.78   11.10
  10  -2  -8    7.60    4.70
 -10   2   8    3.70    2.80
   8  -2  -8  211.98    8.70
  -8   2   8  207.38    7.90
   6  -2  -8   67.59    4.80
  -6   2   8   64.49    4.40
   4  -2  -8  291.47    8.90
  -4   2   8  301.17   10.50
   2  -2  -8  156.58    6.70
  -2   2   8  149.79    6.80
   0  -2  -8  645.64   17.20
   0   2   8  591.74   17.40
  -2  -2  -8  387.66   10.50
   2   2   8  356.46   11.60
  -4  -2  -8   50.49    4.00
   4   2   8   53.39    3.90
  -6  -2  -8  314.87   12.00
   6   2   8  298.77   14.10
  -8  -2  -8    0.40    2.30
   8   2   8    0.00    2.10
 -10  -2  -8  108.39    7.40
  10   2   8  104.99    6.70
 -12  -2  -8    6.50    3.40
  12   2   8    3.80    7.10
  13  -3  -8  147.99   11.80
 -13   3   8  139.49   11.80
  11  -3  -8    3.50    3.10
 -11   3   8    8.10    2.80
   9  -3  -8  212.58    9.30
  -9   3   8  214.88    8.20
   7  -3  -8  118.19    6.60
  -7   3   8  114.29    5.80
   5  -3  -8  588.94   15.20
  -5   3   8  579.34   17.40
   3  -3  -8    6.10    2.00
  -3   3   8    3.80    2.20
   1  -3  -8  653.93   16.00
  -1   3   8  643.74   18.40
  -1  -3  -8  243.68    8.70
   1   3   8  228.48    8.50
  -3  -3  -8  263.17   12.60
   3   3   8  252.37    8.80
  -5  -3  -8   57.59    6.20
   5   3   8   57.29    7.10
  -7  -3  -8  111.29    8.50
   7   3   8  118.69   13.60
  -9  -3  -8   45.50    6.50
   9   3   8   42.00    9.90
 -11  -3  -8   25.80    5.90
  11   3   8   29.60    9.40
  12  -4  -8  134.59   10.90
 -12   4   8  122.59    7.90
  10  -4  -8    2.10    3.00
 -10   4   8    2.70    2.70
   8  -4  -8  144.29    7.70
  -8   4   8  140.39    7.30
   6  -4  -8   45.00    4.10
  -6   4   8   48.80    4.20
   4  -4  -8  206.48    7.50
  -4   4   8  194.08    8.10
   2  -4  -8   98.89    5.60
  -2   4   8   93.29    5.20
   0  -4  -8  392.76   12.40
   0   4   8  379.66   11.90
  -2  -4  -8  256.17   10.90
   2   4   8  247.18   11.50
  -4  -4  -8   41.90    5.70
   4   4   8   40.90    5.20
  -6  -4  -8  217.08   11.80
   6   4   8  211.18   13.70
  -8  -4  -8    0.00    3.20
   8   4   8    0.00    4.00
 -10  -4  -8   68.49    8.10
  10   4   8   84.69   14.30
   9  -5  -8  132.69    8.00
  -9   5   8  123.89    8.40
   7  -5  -8   69.79    5.80
  -7   5   8   72.49    5.70
   5  -5  -8  353.36   12.20
  -5   5   8  328.07   13.00
   3  -5  -8    4.00    2.70
  -3   5   8    4.10    1.80
   1  -5  -8  400.66   13.10
  -1   5   8  384.66   15.30
  -1  -5  -8  133.89    6.80
   1   5   8  133.99    8.30
  -3  -5  -8  132.69    9.40
   3   5   8  149.19    8.90
  -5  -5  -8   34.90    5.40
   5   5   8   35.60    5.50
  -7  -5  -8   64.89    6.60
   7   5   8   74.99    9.00
   9   5   8   32.70   10.70
   6  -6  -8   26.70    4.30
  -6   6   8   25.20    4.20
   4  -6  -8  100.99    6.70
  -4   6   8   90.69    6.90
   2  -6  -8   51.39    5.20
  -2   6   8   49.50    6.60
   0  -6  -8  219.18    9.20
   0   6   8  197.38   12.80
  -2  -6  -8  133.59    7.70
   2   6   8  124.09    8.50
  -4  -6  -8   21.10    4.50
   4   6   8   16.30    4.10
   6   6   8   88.89   13.00
   1  -7  -8  186.68   14.80
  -1  -7  -8   57.59   10.90
 -12   0   9   53.89    7.10
 -10   0   9  274.07   13.30
  -8   0   9   27.40    5.20
  -6   0   9  195.78   12.80
  -4   0   9   17.40    3.90
  -2   0   9  269.07   11.70
   0   0   9   26.50    4.20
   2   0   9  299.87   10.50
   4   0   9  131.79    7.40
   6   0   9   65.59    5.50
   8   0   9   88.39    6.90
  10   0   9    9.10    3.80
  12   0   9   37.70   11.40
  13  -1  -9  104.19   14.60
 -13   1   9   95.59   10.90
  11  -1  -9  111.69   11.10
 -11   1   9  112.19    8.60
   9  -1  -9  206.58   14.00
  -9   1   9  208.28   11.20
   7  -1  -9  291.67   16.70
  -7   1   9  326.77   12.00
   5  -1  -9   85.49    8.50
  -5   1   9   83.39    5.90
   3  -1  -9  474.55   21.30
  -3   1   9  445.46   14.60
   1  -1  -9    0.90    2.00
  -1   1   9    2.00    2.30
  -1  -1  -9  227.48    8.70
   1   1   9  231.28   10.20
  -3  -1  -9    4.30    2.60
   3   1   9    4.60    3.50
  -5  -1  -9  247.08   10.50
   5   1   9  234.28   12.70
  -7  -1  -9    3.60    2.80
   7   1   9    4.00    3.00
  -9  -1  -9  120.29    9.30
   9   1   9  129.69    9.30
 -11  -1  -9   11.20    4.40
  11   1   9    7.50    3.90
  12  -2  -9   50.39    9.30
 -12   2   9   44.60    6.10
  10  -2  -9  263.97   16.20
 -10   2   9  231.48   10.40
   8  -2  -9   19.80    5.90
  -8   2   9   26.40    4.20
   6  -2  -9  169.18   12.10
  -6   2   9  171.38    8.20
   4  -2  -9   14.00    3.70
  -4   2   9   11.30    3.00
   2  -2  -9  234.68   10.70
  -2   2   9  224.88    9.20
   0  -2  -9   24.70    4.10
   0   2   9   27.60    3.60
  -2  -2  -9  284.17   11.40
   2   2   9  265.07    9.80
  -4  -2  -9  116.09    6.90
   4   2   9  103.99    7.70
  -6  -2  -9   67.69    5.90
   6   2   9   55.49    5.90
  -8  -2  -9   82.29    6.60
   8   2   9   77.79    6.50
 -10  -2  -9    9.00    3.60
  10   2   9    4.50    2.40
  11  -3  -9   87.29   10.10
 -11   3   9   87.89    6.60
   9  -3  -9  152.28   12.80
  -9   3   9  170.58    8.50
   7  -3  -9  242.08   11.90
  -7   3   9  245.98   10.20
   5  -3  -9   68.19    5.40
  -5   3   9   64.49    5.40
   3  -3  -9  337.77   11.60
  -3   3   9  337.37   11.90
   1  -3  -9    0.90    2.10
  -1   3   9    1.70    2.20
  -1  -3  -9  178.48    8.90
   1   3   9  170.68    9.40
  -3  -3  -9    0.20    2.90
   3   3   9    1.50    2.00
  -5  -3  -9  190.98   11.10
   5   3   9  177.78    7.90
  -7  -3  -9    2.30    3.30
   7   3   9    0.50    5.00
  -9  -3  -9   93.49    8.60
   9   3   9  103.79   13.60
  10  -4  -9  179.38   10.30
 -10   4   9  170.38   11.40
   8  -4  -9   12.80    3.50
  -8   4   9   12.00    2.90
   6  -4  -9  116.39    6.00
  -6   4   9  106.89    6.40
   4  -4  -9    9.10    2.80
  -4   4   9    6.60    2.60
   2  -4  -9  157.58    8.10
  -2   4   9  146.89    6.90
   0  -4  -9   14.80    3.70
   0   4   9   16.80    2.60
  -2  -4  -9  179.68   10.90
   2   4   9  188.08   10.10
  -4  -4  -9   89.49    8.10
   4   4   9   73.29    6.80
  -6  -4  -9   35.90    6.10
   6   4   9   39.20    7.30
  -8  -4  -9   63.79    7.90
   8   4   9   78.49   13.60
   7  -5  -9  163.28    8.50
  -7   5   9  151.88    8.50
   5  -5  -9   52.89    5.40
  -5   5   9   40.80    5.00
   3  -5  -9  209.98    9.10
  -3   5   9  187.08    7.80
   1  -5  -9    0.90    2.50
  -1   5   9    1.50    2.90
  -1  -5  -9  113.79    7.70
   1   5   9  107.99    7.80
  -3  -5  -9    2.40    3.60
   3   5   9    0.00    2.80
  -5  -5  -9  102.79    8.90
   5   5   9  113.69   10.40
  -7  -5  -9    0.00    5.80
   7   5   9    8.80    6.60
   4  -6  -9    3.70    3.50
  -4   6   9    2.50    3.70
   2  -6  -9   90.89    6.60
  -2   6   9   80.89    9.50
   0  -6  -9    4.20    3.00
   0   6   9    6.80    5.10
  -2  -6  -9   96.49   13.90
   2   6   9   92.69    9.40
   4   6   9   50.09    7.90
 -12   0  10  181.28   19.40
 -10   0  10   39.10    6.90
  -8   0  10  184.68   16.80
  -6   0  10    3.10    3.80
  -4   0  10  380.86   15.60
  -2   0  10   42.90    5.50
   0   0  10  408.66   15.80
   2   0  10   42.00    5.10
   4   0  10  191.48   11.70
   6   0  10  123.19    9.40
   8   0  10   49.90    6.80
  10   0  10  176.68   17.90
  11  -1 -10   81.59   14.60
 -11   1  10   89.79    8.30
   9  -1 -10   94.79    9.90
  -9   1  10   92.09    8.30
   7  -1 -10  251.77   15.50
  -7   1  10  248.88   10.80
   5  -1 -10  211.38   13.70
  -5   1  10  202.78    9.40
   3  -1 -10  173.48   12.30
  -3   1  10  172.08    9.70
   1  -1 -10  208.18   10.70
  -1   1  10  217.78   10.60
  -1  -1 -10   35.90    4.20
   1   1  10   40.10    5.20
  -3  -1 -10  280.37   11.90
   3   1  10  278.47   21.60
  -5  -1 -10   16.80    3.70
   5   1  10   22.10    4.80
  -7  -1 -10  161.98    8.80
   7   1  10  162.98   10.60
  -9  -1 -10    0.60    4.70
   9   1  10    0.00    3.20
  10  -2 -10   25.70    6.90
 -10   2  10   28.70    4.70
   8  -2 -10  186.58   13.50
  -8   2  10  176.18    9.10
   6  -2 -10    4.20    4.30
  -6   2  10    0.80    2.70
   4  -2 -10  348.67   18.00
  -4   2  10  317.77   12.20
   2  -2 -10   46.90    5.70
  -2   2  10   43.90    4.90
   0  -2 -10  357.86   14.10
   0   2  10  334.37   12.20
  -2  -2 -10   38.80    5.90
   2   2  10   42.00    6.80
  -4  -2 -10  167.88   14.70
   4   2  10  164.98   10.20
  -6  -2 -10  123.79    9.30
   6   2  10  109.09    8.30
  -8  -2 -10   51.49    7.00
   8   2  10   45.80    5.70
 -10  -2 -10  109.39   10.60
  10   2  10  119.19    8.40
   9  -3 -10   67.89    9.70
  -9   3  10   68.29    6.10
   7  -3 -10  200.98   13.90
  -7   3  10  199.38    9.40
   5  -3 -10  159.28   12.00
  -5   3  10  158.78    8.10
   3  -3 -10  134.09    8.40
  -3   3  10  125.89    7.20
   1  -3 -10  172.68    9.40
  -1   3  10  157.88    7.80
  -1  -3 -10   28.90    5.90
   1   3  10   26.80    4.90
  -3  -3 -10  224.48   17.20
   3   3  10  213.18    8.60
  -5  -3 -10   14.80    6.30
   5   3  10    9.60    2.60
  -7  -3 -10  131.89   14.00
   7   3  10  149.09   16.00
   8  -4 -10  108.49   14.70
  -8   4  10  115.39   14.60
   6  -4 -10    0.00    4.50
  -6   4  10    0.90    2.40
   4  -4 -10  225.48   14.30
  -4   4  10  224.78    9.60
   2  -4 -10   28.90    4.90
  -2   4  10   27.80    3.90
   0  -4 -10  211.58   10.80
   0   4  10  221.18    8.70
  -2  -4 -10   24.60    5.40
   2   4  10   26.70    5.10
  -4  -4 -10  112.19    9.30
   4   4  10  101.09   10.10
  -6  -4 -10   64.59    7.80
   6   4  10   73.59    9.50
   5  -5 -10   77.09   10.00
   3  -5 -10   85.09    8.70
  -3   5  10   76.09    4.90
   1  -5 -10   98.99    7.90
  -1   5  10  102.59    8.10
  -1  -5 -10   18.30    5.20
   1   5  10   13.30    4.10
  -3  -5 -10  130.19   15.50
   3   5  10  131.89    9.20
  -8   0  11   91.39   10.80
  -6   0  11  262.17   16.30
  -4   0  11   14.90    4.30
  -2   0  11  308.77   14.00
   0   0  11    7.20    3.60
   2   0  11  277.47   15.10
   4   0  11   24.20    5.30
   6   0  11   90.79    8.40
   8   0  11   46.30   11.20
  -9   1  11   87.49   13.80
   7  -1 -11    6.70    4.80
  -7   1  11    4.40    3.60
   5  -1 -11  177.58   13.10
  -5   1  11  176.98   10.70
   3  -1 -11   29.50    6.90
  -3   1  11   28.90    5.20
   1  -1 -11  259.17   15.90
  -1   1  11  269.87   12.60
  -1  -1 -11  126.29    8.60
   1   1  11  133.29    8.30
  -3  -1 -11   14.90    4.60
   3   1  11   14.50    4.50
  -5  -1 -11   52.99    7.00
   5   1  11   49.00    6.40
  -7  -1 -11   12.10    6.60
   7   1  11   15.60    4.80
   8  -2 -11  102.49   14.60
  -8   2  11   78.49    7.70
   6  -2 -11  233.88   15.20
  -6   2  11  220.28   10.40
   4  -2 -11   15.80    5.70
  -4   2  11   12.00    3.60
   2  -2 -11  269.67   16.30
  -2   2  11  259.47   10.90
   0  -2 -11    5.00    4.40
   0   2  11    4.20    3.40
  -2  -2 -11  241.58   13.70
   2   2  11  231.78   11.00
  -4  -2 -11   18.90    6.80
   4   2  11   17.90    4.60
  -6  -2 -11   90.29    8.80
   6   2  11   83.49    7.70
   7  -3 -11    7.30    7.10
  -7   3  11    4.20    6.70
   5  -3 -11  147.69   11.80
  -5   3  11  123.79    7.50
   3  -3 -11   19.30    6.00
  -3   3  11   17.50    3.70
   1  -3 -11  192.28   13.00
  -1   3  11  192.58    9.00
  -1  -3 -11  109.99   13.30
   1   3  11  105.89    6.50
  -3  -3 -11   10.90    6.10
   3   3  11   13.30    3.80
  -5  -3 -11   38.10    8.60
   5   3  11   37.70    4.60
   4  -4 -11   10.50    9.80
  -4   4  11   14.40    7.10
   2  -4 -11  187.38   13.20
  -2   4  11  171.08    8.30
   0  -4 -11    5.10    4.40
   0   4  11    3.80    2.40
  -2  -4 -11  161.38   15.90
   2   4  11  166.58   10.80
   4   4  11   18.20    8.10
  -4   0  12  234.58   16.60
  -2   0  12    0.00    4.90
   0   0  12  153.08    9.70
   2   0  12   30.40    5.90
   4   0  12  232.78   14.20
   5  -1 -12    6.90    5.20
  -5   1  12    3.50    4.90
   3  -1 -12  172.38   13.30
  -3   1  12  169.58   10.40
   1  -1 -12   26.40    6.50
  -1   1  12   34.20    6.50
  -1  -1 -12   68.59    8.30
   1   1  12   71.39    8.60
  -3  -1 -12   21.20    8.10
   3   1  12   35.50    6.20
  -5  -1 -12   44.80    7.80
   4  -2 -12  215.88   15.00
  -4   2  12  204.58   14.40
   2  -2 -12    1.40    4.10
  -2   2  12    1.20    3.20
   0  -2 -12  143.49   12.40
   0   2  12  119.99    8.30
   3  -3 -12  134.19   20.60
  -3   3  12  116.19   21.80
   1  -3 -12   40.10   12.80
  -1   3  12   11.50    5.90
  -1  -3 -12   53.49   11.20
   1   3  12   52.69   13.00
;
_shelx_hkl_checksum              14967
_shelx_res_file
;
    lk141_a.res created by SHELXL-2014/7
TITL lk141_a.res in C2/m
CELL  0.71073  13.3039   6.5892   9.3753   90.000   92.419   90.000
ZERR    4.000   0.0012   0.0006   0.0008    0.000    0.001    0.000
LATT 7
SYMM -X, Y, -Z
SFAC C  H  N  Br
UNIT 28  28  8  4
REM Old TITL lk141 in C2
REM SHELXT solution in C2/m
REM R1 0.074,  Rweak 0.015,  Alpha 0.019,  Orientation as input
REM Formula found by SHELXT:  C7 N2 Br
L.S. 5
ACTA 57
BOND $H
FMAP 2
PLAN 5
CONF
EQIV $1 -x+1/2, -y+1/2, -z+1
HTAB C1 Br1_$1
HTAB C2 Br1_$1
EQIV $3 x-1/2, y-1/2, z
HTAB C3 Br1_$3
EQIV $4 -x+1, -y, -z
HTAB C5 N2_$4
SIZE 0.064 0.149 0.197
TEMP -123
WGHT    0.023400
FVAR       0.38278
N1    3    0.298732    0.000000    0.328682    10.50000    0.02066    0.01761 =
         0.01516    0.00000    0.00331    0.00000
N2    3    0.535297    0.000000    0.190013    10.50000    0.02915    0.04843 =
         0.04310    0.00000    0.01387    0.00000
C1    1    0.363217    0.000000    0.461561    10.50000    0.02609    0.02712 =
         0.01823    0.00000   -0.00248    0.00000
AFIX 137
H1A   2    0.321165    0.017720    0.543995    10.50000   -1.50000
H1B   2    0.411763    0.111603    0.458400    10.50000   -1.50000
H1C   2    0.399350   -0.129322    0.470128    10.50000   -1.50000
AFIX   0
C2    1    0.198531    0.000000    0.336897    10.50000    0.02198    0.02449 =
         0.01957    0.00000    0.00765    0.00000
AFIX  43
H2    2    0.169847    0.000000    0.427990    10.50000   -1.20000
AFIX   0
C3    1    0.136186    0.000000    0.215705    10.50000    0.02193    0.03374 =
         0.02510    0.00000    0.00185    0.00000
AFIX  43
H3    2    0.065173    0.000000    0.222909    10.50000   -1.20000
AFIX   0
C4    1    0.178627    0.000000    0.082958    10.50000    0.02999    0.03145 =
         0.02025    0.00000   -0.00216    0.00000
AFIX  43
H4    2    0.136834    0.000000   -0.001746    10.50000   -1.20000
AFIX   0
C5    1    0.281910    0.000000    0.074924    10.50000    0.03151    0.02322 =
         0.01703    0.00000    0.00854    0.00000
AFIX  43
H5    2    0.312000    0.000000   -0.015186    10.50000   -1.20000
AFIX   0
C6    1    0.340898    0.000000    0.199430    10.50000    0.02073    0.01777 =
         0.02163    0.00000    0.00797    0.00000
C7    1    0.449854    0.000000    0.196919    10.50000    0.02744    0.02936 =
         0.02795    0.00000    0.01041    0.00000
BR1   4    0.365320    0.500000    0.295276    10.50000    0.02982    0.02142 =
         0.01687    0.00000    0.00747    0.00000
HKLF 4
REM  lk141_a.res in C2/m
REM R1 =  0.0225 for    1084 Fo > 4sig(Fo)  and  0.0258 for all    1179 data
REM     62 parameters refined using      0 restraints
END
WGHT      0.0234      0.0000
REM Highest difference peak  0.514,  deepest hole -0.438,  1-sigma level  0.087
Q1    1   0.3521  0.5000  0.2008  10.50000  0.05    0.51
Q2    1   0.3609  0.5000  0.3858  10.50000  0.05    0.43
Q3    1   0.3296  0.0000  0.3953  10.50000  0.05    0.35
Q4    1   0.3823  0.3716  0.3000  11.00000  0.05    0.35
Q5    1   0.4009  0.3996  0.3127  11.00000  0.05    0.32
;
_shelx_res_checksum              68520
loop_
_space_group_symop_operation_xyz
'x, y, z'
'-x, y, -z'
'x+1/2, y+1/2, z'
'-x+1/2, y+1/2, -z'
'-x, -y, -z'
'x, -y, z'
'-x+1/2, -y+1/2, -z'
'x+1/2, -y+1/2, z'
loop_
_atom_site_type_symbol
_atom_site_label
_atom_site_fract_x
_atom_site_fract_y
_atom_site_fract_z
_atom_site_U_iso_or_equiv
_atom_site_adp_type
_atom_site_calc_flag
_atom_site_occupancy
N N1 0.29873(14) 0.0000 0.32868(18) 0.0177(4) Uani d 1
N N2 0.53530(17) 0.0000 0.1900(3) 0.0399(6) Uani d 1
C C1 0.36322(18) 0.0000 0.4616(2) 0.0239(5) Uani d 1
H H1A 0.3212 0.0177 0.5440 0.036 Uiso calc 0.5
H H1B 0.4118 0.1116 0.4584 0.036 Uiso calc 0.5
H H1C 0.3993 -0.1293 0.4701 0.036 Uiso calc 0.5
C C2 0.19853(17) 0.0000 0.3369(2) 0.0218(5) Uani d 1
H H2 0.1698 0.0000 0.4280 0.026 Uiso calc 1
C C3 0.13619(18) 0.0000 0.2157(2) 0.0269(5) Uani d 1
H H3 0.0652 0.0000 0.2229 0.032 Uiso calc 1
C C4 0.17863(19) 0.0000 0.0830(3) 0.0273(5) Uani d 1
H H4 0.1368 0.0000 -0.0017 0.033 Uiso calc 1
C C5 0.28191(18) 0.0000 0.0749(2) 0.0237(5) Uani d 1
H H5 0.3120 0.0000 -0.0152 0.028 Uiso calc 1
C C6 0.34090(17) 0.0000 0.1994(2) 0.0198(4) Uani d 1
C C7 0.44985(19) 0.0000 0.1969(3) 0.0280(5) Uani d 1
Br Br1 0.36532(2) 0.5000 0.29528(2) 0.02252(9) Uani d 1
loop_
_atom_site_aniso_label
_atom_site_aniso_U_11
_atom_site_aniso_U_22
_atom_site_aniso_U_33
_atom_site_aniso_U_12
_atom_site_aniso_U_13
_atom_site_aniso_U_23
N1 0.0207(9) 0.0176(8) 0.0152(9) 0.000 0.0033(7) 0.000
N2 0.0292(12) 0.0484(15) 0.0431(14) 0.000 0.0139(10) 0.000
C1 0.0261(12) 0.0271(12) 0.0182(11) 0.000 -0.0025(9) 0.000
C2 0.0220(11) 0.0245(11) 0.0196(11) 0.000 0.0076(8) 0.000
C3 0.0219(11) 0.0337(13) 0.0251(12) 0.000 0.0018(9) 0.000
C4 0.0300(13) 0.0314(13) 0.0203(11) 0.000 -0.0022(9) 0.000
C5 0.0315(13) 0.0232(11) 0.0170(10) 0.000 0.0085(9) 0.000
C6 0.0207(11) 0.0178(10) 0.0216(11) 0.000 0.0080(8) 0.000
C7 0.0274(13) 0.0294(13) 0.0280(13) 0.000 0.0104(10) 0.000
Br1 0.02982(14) 0.02142(12) 0.01687(12) 0.000 0.00747(8) 0.000
loop_
_atom_type_symbol
_atom_type_description
_atom_type_scat_dispersion_real
_atom_type_scat_dispersion_imag
_atom_type_scat_source
C C 0.0033 0.0016 'International Tables Vol C Tables 4.2.6.8 and 6.1.1.4'
H H 0.0000 0.0000 'International Tables Vol C Tables 4.2.6.8 and 6.1.1.4'
N N 0.0061 0.0033 'International Tables Vol C Tables 4.2.6.8 and 6.1.1.4'
Br Br -0.2901 2.4595 'International Tables Vol C Tables 4.2.6.8 and 6.1.1.4'
loop_
_geom_angle_atom_site_label_1
_geom_angle_atom_site_label_2
_geom_angle_atom_site_label_3
_geom_angle
C2 N1 C6 120.12(19)
C2 N1 C1 119.61(18)
C6 N1 C1 120.28(18)
N1 C1 H1A 109.5
N1 C1 H1B 109.5
H1A C1 H1B 109.5
N1 C1 H1C 109.5
H1A C1 H1C 109.5
H1B C1 H1C 109.5
N1 C2 C3 121.25(19)
N1 C2 H2 119.4
C3 C2 H2 119.4
C2 C3 C4 119.1(2)
C2 C3 H3 120.5
C4 C3 H3 120.5
C5 C4 C3 119.5(2)
C5 C4 H4 120.2
C3 C4 H4 120.2
C6 C5 C4 119.1(2)
C6 C5 H5 120.4
C4 C5 H5 120.4
N1 C6 C5 120.9(2)
N1 C6 C7 117.8(2)
C5 C6 C7 121.3(2)
N2 C7 C6 177.7(3)
loop_
_geom_bond_atom_site_label_1
_geom_bond_atom_site_label_2
_geom_bond_distance
N1 C2 1.339(3)
N1 C6 1.357(3)
N1 C1 1.482(3)
N2 C7 1.141(3)
C1 H1A 0.9800
C1 H1B 0.9800
C1 H1C 0.9800
C2 C3 1.378(3)
C2 H2 0.9500
C3 C4 1.388(3)
C3 H3 0.9500
C4 C5 1.379(3)
C4 H4 0.9500
C5 C6 1.379(3)
C5 H5 0.9500
C6 C7 1.451(3)
loop_
_geom_hbond_atom_site_label_D
_geom_hbond_atom_site_label_H
_geom_hbond_atom_site_label_A
_geom_hbond_site_symmetry_A
_geom_hbond_distance_DH
_geom_hbond_distance_HA
_geom_hbond_distance_DA
_geom_hbond_angle_DHA
C5 H5 N2 5_655 0.95 2.66 3.549(3) 155
C1 H1A Br1 7_556 0.98 2.96 3.876(2) 156
C2 H2 Br1 7_556 0.95 2.66 3.586(2) 166
C3 H3 Br1 3_445 0.95 2.77 3.711(2) 170
loop_
_geom_torsion_atom_site_label_1
_geom_torsion_atom_site_label_2
_geom_torsion_atom_site_label_3
_geom_torsion_atom_site_label_4
_geom_torsion
C6 N1 C2 C3 0.000000
C1 N1 C2 C3 180.000000
N1 C2 C3 C4 0.000000
C2 C3 C4 C5 0.000000
C3 C4 C5 C6 0.000000
C2 N1 C6 C5 0.000000
C1 N1 C6 C5 180.000000
C2 N1 C6 C7 180.000000
C1 N1 C6 C7 0.000000
C4 C5 C6 N1 0.000000
C4 C5 C6 C7 180.0
