#------------------------------------------------------------------------------
#$Date: 2017-04-06 11:28:47 +0300 (Thu, 06 Apr 2017) $
#$Revision: 195238 $
#$URL: file:///home/coder/svn-repositories/cod/cif/2/31/10/2311082.cif $
#------------------------------------------------------------------------------
#
# This file is available in the Crystallography Open Database (COD),
# http://www.crystallography.net/. The original data for this entry
# were provided by IUCr Journals, http://journals.iucr.org/.
#
# The file may be used within the scientific community so long as
# proper attribution is given to the journal article from which the
# data were obtained.
#
data_2311082
loop_
_publ_author_name
'van Genderen, E.'
'Clabbers, M. T. B.'
'Das, P. P.'
'Stewart, A.'
'Nederlof, I.'
'Barentsen, K. C.'
'Portillo, Q.'
'Pannu, N. S.'
'Nicolopoulos, S.'
'Gruene, T.'
'Abrahams, J. P.'
_publ_section_title
;
 <i>Ab initio</i> structure determination of nanocrystals of organic
 pharmaceutical compounds by electron diffraction at room temperature
 using a Timepix quantum area direct electron detector
;
_journal_issue                   2
_journal_name_full               'Acta Crystallographica Section A'
_journal_page_first              236
_journal_page_last               242
_journal_paper_doi               10.1107/S2053273315022500
_journal_volume                  72
_journal_year                    2016
_chemical_formula_sum            'C6 H5 N O2'
_chemical_formula_weight         123.12
_space_group_crystal_system      monoclinic
_space_group_IT_number           14
_space_group_name_Hall           '-P 2ybc'
_space_group_name_H-M_alt        'P 1 21/c 1'
_symmetry_space_group_name_Hall  '-P 2ybc'
_symmetry_space_group_name_H-M   'P 1 21/c 1'
_atom_sites_solution_hydrogens   geom
_audit_creation_method           SHELXL-2014/8
_cell_angle_alpha                90
_cell_angle_beta                 113.68(14)
_cell_angle_gamma                90
_cell_formula_units_Z            4
_cell_length_a                   7.303(11)
_cell_length_b                   11.693(2)
_cell_length_c                   7.33(3)
_cell_measurement_temperature    293(2)
_cell_volume                     573(3)
_computing_structure_refinement  'SHELXL-2014/8 (Sheldrick, 2014)'
_diffrn_ambient_temperature      293(2)
_diffrn_measured_fraction_theta_full 0.353
_diffrn_measured_fraction_theta_max 0.360
_diffrn_measurement_device_type
;
 Philips EM30 LaB6 Electron Microscope with Timepix Detector
;
_diffrn_radiation_type           electron
_diffrn_radiation_wavelength     0.02508
_diffrn_reflns_av_R_equivalents  0.0707
_diffrn_reflns_limit_h_max       5
_diffrn_reflns_limit_h_min       -5
_diffrn_reflns_limit_k_max       15
_diffrn_reflns_limit_k_min       -15
_diffrn_reflns_limit_l_max       8
_diffrn_reflns_limit_l_min       -8
_diffrn_reflns_number            953
_diffrn_reflns_theta_full        0.862
_diffrn_reflns_theta_max         0.952
_diffrn_reflns_theta_min         0.123
_exptl_absorpt_coefficient_mu    0.109
_exptl_absorpt_correction_type   empirical
_exptl_crystal_density_diffrn    1.426
_exptl_crystal_description       nanocrystal
_exptl_crystal_F_000             256
_refine_diff_density_max         0.606
_refine_diff_density_min         -0.606
_refine_ls_extinction_method     none
_refine_ls_goodness_of_fit_ref   2.270
_refine_ls_hydrogen_treatment    constr
_refine_ls_matrix_type           full
_refine_ls_number_parameters     39
_refine_ls_number_reflns         503
_refine_ls_number_restraints     0
_refine_ls_restrained_S_all      2.270
_refine_ls_R_factor_all          0.3459
_refine_ls_R_factor_gt           0.3026
_refine_ls_shift/su_max          0.828
_refine_ls_shift/su_mean         0.103
_refine_ls_structure_factor_coef Fsqd
_refine_ls_weighting_details
'w=1/[\s^2^(Fo^2^)+(0.2000P)^2^] where P=(Fo^2^+2Fc^2^)/3'
_refine_ls_weighting_scheme      calc
_refine_ls_wR_factor_gt          0.6088
_refine_ls_wR_factor_ref         0.6385
_reflns_number_gt                302
_reflns_number_total             503
_reflns_threshold_expression     'I > 2\s(I)'
_cod_data_source_file            td5026sup1.cif
_cod_data_source_block           nicotinic_acid_single
_cod_depositor_comments
;
Adding full bibliography for 2311081--2311085.cif.

2017-03-30
Z value and formula fixed to values more according to usual
chemical conventions.                 miguel
;
_cod_original_formula_sum            'C H0.83 N0.17 O0.33'
_cod_original_formula_weight         20.52
_cod_original_formula_units_Z            24
_cod_original_cell_volume        573(2)
_cod_database_code               2311082
_cod_database_fobs_code          2311082
_shelx_space_group_comment
;
The symmetry employed for this shelxl refinement is uniquely defined
by the following loop, which should always be used as a source of
symmetry information in preference to the above space-group names.
They are only intended as comments.
;
_shelx_hkl_file
;
   0   1  -1   67.11   15.47
   0  -1   1   20.13   14.98
   0   1  -2 7012.27  583.97
   0  -1   2 5673.58  472.93
   0   2  -1  396.20   38.57
   0  -2   1  396.74   39.54
   0   2  -2  319.75   32.29
   0  -2   2  228.70   25.96
   0   2  -3  151.83   22.56
   0  -2   3  144.55   21.64
   0   2  -4 1080.14   95.01
   0  -2   4  947.63   83.16
   0   2  -5   21.90   15.02
   0   3  -1  222.22   26.83
   0  -3   1  259.49   30.39
   0   3  -2   30.61   14.91
   0  -3   2   63.73   17.53
   0   3  -3  199.79   26.19
   0  -3   3  243.29   28.96
   0   3  -4  343.80   36.82
   0  -3   4  260.57   29.72
   0   3  -5   34.04   17.79
   0  -3   5   45.04   17.02
   0   3  -6  111.24   20.90
   0  -3   6   65.07   18.18
   0   3  -7   17.72   13.58
   0   3  -8    0.24   11.49
   0   4  -1 2178.92  185.34
   0  -4   1 2450.45  208.17
   0   4  -2  945.19   84.31
   0  -4   2 1024.22   90.75
   0   4  -3 1034.89   92.33
   0  -4   3 1251.30  109.85
   0   4  -4   84.12   19.97
   0  -4   4   60.46   18.14
   0   4  -5  416.20   43.74
   0  -4   5  378.64   40.50
   0   4  -6   -6.74   15.86
   0  -4   6   -8.17   15.05
   0   4  -7   17.07   14.22
   0  -4   7   17.24   12.79
   0   4  -8   15.39   12.98
   0  -4   8   -4.89   11.66
   0   5  -1  609.23   57.91
   0  -5   1  694.34   65.38
   0   5  -2  586.81   56.28
   0  -5   2  436.06   44.94
   0   5  -3 1377.86  121.35
   0  -5   3 1434.61  125.50
   0   5  -4  348.39   38.81
   0  -5   4  271.11   32.33
   0   5  -5  143.33   25.31
   0  -5   5  149.41   25.21
   0   5  -6  -16.14   15.79
   0  -5   6   -3.60   15.04
   0   5  -7   14.05   14.40
   0  -5   7   -6.86   13.22
   0   5  -8   31.77   13.55
   0  -5   8   14.48   11.85
   0   6  -1   59.86   20.86
   0  -6   1   53.28   21.42
   0   6  -2  347.85   38.88
   0  -6   2  341.09   38.04
   0   6  -3   63.06   18.45
   0  -6   3   90.07   20.29
   0   6  -5  123.70   24.02
   0  -6   5   96.34   21.96
   0   6  -6   51.94   19.18
   0  -6   6   49.54   17.10
   0   6  -7   47.59   16.25
   0  -6   7   20.53   14.44
   0   6  -8   -3.59   13.42
   0  -6   8  -19.03   12.67
   0   7  -1  144.68   23.92
   0  -7   1  129.20   24.30
   0   7  -2  151.43   25.34
   0  -7   2  168.31   25.65
   0   7  -4   76.09   21.11
   0  -7   4   91.53   21.96
   0   7  -5   49.74   19.71
   0  -7   5   28.37   18.56
   0   7  -6    2.73   16.18
   0  -7   6   41.35   17.01
   0   7  -7   -2.25   14.33
   0  -7   7   18.53   14.58
   0   8  -1  100.13   23.23
   0  -8   1  152.10   25.56
   0   8  -2  103.92   24.37
   0  -8   2  112.54   24.15
   0   8  -4   41.12   20.60
   0  -8   4   17.34   20.48
   0   8  -5   86.32   22.07
   0  -8   5   80.85   21.30
   0   8  -6   12.31   16.14
   0  -8   6    4.66   16.18
   0   8  -7   -4.29   15.43
   0  -8   7    2.37   15.17
   0   9  -1 1315.19  120.75
   0  -9   1  938.98   88.68
   0   9  -2  823.08   80.15
   0  -9   2  817.54   79.93
   0   9  -3 1766.92  156.96
   0  -9   3 1734.49  154.94
   0   9  -4  438.62   49.52
   0  -9   4  474.69   51.49
   0   9  -5   64.44   20.90
   0  -9   5   97.63   21.60
   0   9  -6   21.32   18.17
   0  -9   6   47.87   18.67
   0   9  -7   22.29   16.87
   0  -9   7    5.40   15.90
   0  10  -2 1799.33  160.75
   0 -10   2 2061.40  182.09
   0  10  -3  350.55   44.47
   0 -10   3  360.00   44.86
   0  10  -4  117.09   25.77
   0 -10   4  106.52   23.99
   0  10  -5   32.03   18.09
   0 -10   5   47.21   18.60
   0  10  -6   35.05   18.24
   0 -10   6   32.66   17.12
   0  11  -2   40.08   23.60
   0 -11   2   80.81   26.81
   0  11  -3  654.36   68.15
   0 -11   3  653.95   66.41
   0  11  -4   99.53   21.07
   0 -11   4   36.14   19.80
   0  11  -5   31.46   17.94
   0 -11   5   37.80   17.97
   0  11  -6   11.33   15.70
   0 -11   6   11.75   15.37
   0  12  -1    9.18   20.67
   0 -12   1   15.98   20.78
   0  12  -2   26.77   18.40
   0 -12   2   62.68   20.10
   0  12  -3   60.41   21.72
   0 -12   3   48.28   20.37
   0  12  -5  -12.47   15.86
   0 -12   5   22.71   16.52
   0 -13   1   45.19   20.45
   0  13  -2   -0.75   15.59
   0 -13   2   -2.55   13.41
   0  13  -3   38.80   19.22
   0 -13   3   78.70   21.76
   0  13  -4   29.75   15.26
   0 -13   4    3.32   16.28
   0 -14   1  106.23   23.94
   0  14  -3   87.90   22.68
   0 -14   3   96.42   23.06
   0 -15   1   13.79   17.22
   0  15  -2   58.21   21.87
   0 -15   2  132.60   24.40
  -1   0  -4   36.01   10.40
   1   0   4   34.15    9.33
  -1   0  -6    2.80   10.69
  -1  -1  -3  632.20   53.57
  -1   1  -3  641.79   56.83
   1  -1   3  582.62   51.60
  -1   1  -4  158.86   19.49
   1  -1   4  114.66   15.70
  -1   1  -5   20.78   13.56
   1  -1   5   23.26   12.50
  -1   1  -6   46.55   13.32
   1  -1   6   37.49   11.71
  -1   1  -7    3.12   10.42
   1  -1   7    3.67    8.85
  -1   1  -8    5.95    9.99
   1   2   1 1079.87   91.63
  -1  -2  -1 1375.16  116.00
   1   2   2  114.99   12.68
  -1  -2  -2   96.73   12.14
  -1   2  -3  546.56   50.71
   1  -2   3  687.45   61.65
  -1   2  -4  108.11   18.24
   1  -2   4  115.39   17.17
  -1   2  -5   90.66   17.45
   1  -2   5   37.51   14.40
  -1   2  -6   -1.67   12.86
   1  -2   6    7.39   11.76
  -1   2  -7   12.25   11.86
   1  -2   7    8.28   10.22
  -1   2  -8    7.74   10.81
   1  -2   8   -1.64    9.88
   1   3  -1  917.77   81.05
  -1  -3   1  837.13   75.24
   1   3   0  923.98   81.01
  -1  -3   0  931.55   81.71
   1   3   1 1168.89   99.85
  -1  -3  -1 1238.19  105.72
   1   3   2  176.28   18.75
  -1  -3  -2  114.90   16.18
  -1   3  -4   80.42   18.10
   1  -3   4  109.45   18.45
  -1   3  -5   99.76   19.11
   1  -3   5  118.77   20.15
  -1   3  -6   24.54   14.08
   1  -3   6   18.26   12.96
  -1   3  -7   21.84   13.01
   1  -3   7    8.38   10.63
  -1   3  -8   24.59   11.88
   1  -3   8  -10.91   10.13
   1   4  -4   58.84   19.49
  -1  -4   4   77.58   19.83
   1   4  -3  259.36   30.54
  -1  -4   3  336.64   37.69
   1   4  -2  191.55   27.46
  -1  -4   2  160.07   26.44
   1   4  -1 3993.11  335.55
  -1  -4   1 3660.81  308.40
   1   4   0  504.95   48.23
  -1  -4   0  467.80   45.42
   1   4   1 9999.00  833.21
  -1  -4  -1 9781.51  814.97
   1   4   2  906.83   78.82
  -1  -4  -2  898.04   78.39
   1  -4   3 4838.75  406.61
  -1   4  -4   -3.33   17.01
   1  -4   4    4.93   15.76
  -1   4  -5   54.09   18.79
   1  -4   5   76.92   19.37
  -1   4  -6   35.35   15.14
   1  -4   6   20.20   13.71
  -1   4  -7    1.17   12.54
   1  -4   7    6.96   11.23
  -1   4  -8   19.87   12.15
   1  -4   8   -0.85   11.16
   1   5  -7    9.97   14.21
   1   5  -6   -3.19   17.66
  -1  -5   6   -9.00   16.70
   1   5  -5   29.21   20.94
  -1  -5   5   68.76   21.79
   1   5  -4   15.94   18.24
  -1  -5   4    8.65   17.51
   1   5  -3  649.49   61.49
  -1  -5   3  887.78   80.86
   1   5  -2 1176.99  104.75
  -1  -5   2 1299.52  114.69
   1   5  -1 6993.36  585.19
  -1  -5   1 6700.22  561.14
   1   5   0 3106.96  262.87
  -1  -5   0 3547.34  299.21
   1   5   1 3421.70  288.54
  -1  -5  -1 3496.00  294.48
   1   5   2   33.69   15.31
  -1  -5  -2   39.03   16.52
   1  -5   3  346.77   38.78
  -1   5  -4  333.80   37.86
   1  -5   4  317.59   36.00
  -1   5  -5  431.19   45.06
   1  -5   5  397.96   42.31
  -1   5  -6   31.61   15.74
   1  -5   6    8.38   14.22
  -1   5  -7   29.45   14.24
   1  -5   7   27.91   13.30
   1   6  -8  -24.06   13.58
  -1  -6   8    6.53   12.63
   1   6  -7   -8.83   14.82
  -1  -6   7   26.73   14.91
   1   6  -6   -1.15   16.93
  -1  -6   6    3.13   16.76
   1   6  -5   34.73   21.05
  -1  -6   5   29.81   20.67
   1   6  -4   32.50   18.67
  -1  -6   4   39.19   18.47
   1   6  -2   91.11   22.61
  -1  -6   2   72.64   21.71
   1   6  -1  283.14   33.91
  -1  -6   1  212.35   29.45
   1   6   0 1367.06  120.03
  -1  -6   0 1347.48  118.20
   1   6   1 2886.76  244.91
  -1  -6  -1 2909.73  246.67
   1   6   2 2143.80  182.77
  -1  -6  -2 2228.90  189.93
   1  -6   3 1029.49   93.55
  -1   6  -4  252.47   32.89
   1  -6   4  279.89   34.55
  -1   6  -5   27.41   17.91
   1  -6   5   32.70   17.90
  -1   6  -6    8.42   15.05
   1  -6   6   -5.03   13.71
  -1   6  -7    2.82   13.64
   1  -6   7    7.25   12.98
   1   7  -8   -3.05   13.71
  -1  -7   8   12.28   13.95
   1   7  -7  -14.56   14.63
  -1  -7   7   -7.47   13.93
   1   7  -6   -9.60   16.33
  -1  -7   6  -12.76   15.80
   1   7  -5   32.89   20.07
  -1  -7   5   18.32   20.60
   1   7  -4   39.90   21.14
  -1  -7   4   -3.46   19.57
   1   7  -3  190.87   28.23
  -1  -7   3  223.16   30.25
   1   7  -2   75.86   20.61
  -1  -7   2  119.34   23.36
   1   7  -1  163.72   25.23
  -1  -7   1  119.27   21.32
   1   7   0   24.72   17.74
  -1  -7   0   57.49   18.95
   1   7   1   -0.20   15.90
  -1  -7  -1  -11.45   15.63
   1   7   2   89.71   18.59
  -1  -7  -2   80.46   18.32
   1  -7   3   30.73   18.72
  -1   7  -4   27.69   19.75
   1  -7   4   31.34   19.84
  -1   7  -5    6.90   17.40
   1  -7   5   18.39   16.35
  -1   7  -6    8.91   14.91
   1  -7   6   -7.02   13.47
  -1   7  -7    6.34   14.02
   1  -7   7   19.03   13.19
   1   8  -7   -7.12   15.21
  -1  -8   7   -6.91   14.86
   1   8  -6   53.03   18.22
  -1  -8   6   18.14   16.83
   1   8  -5  126.62   23.99
  -1  -8   5   98.88   22.37
   1   8  -4  198.71   28.83
  -1  -8   4  123.61   26.84
   1   8  -3  -15.35   20.52
  -1  -8   3   -3.37   20.36
   1   8  -2  518.73   53.68
  -1  -8   2  610.99   60.83
   1   8  -1 1494.04  131.97
  -1  -8   1 1757.46  154.13
   1   8   0  617.61   59.83
  -1  -8   0  685.15   65.39
   1   8   1 1391.37  122.43
  -1  -8  -1 1446.76  127.14
   1   8   2  196.41   26.40
  -1  -8  -2  150.22   24.17
   1  -8   3   50.22   21.09
  -1   8  -4   27.33   18.90
   1  -8   4    1.78   18.06
  -1   8  -5   -3.80   16.90
   1  -8   5   26.52   17.10
  -1   8  -6   17.57   15.79
   1  -8   6    3.76   15.04
  -1   8  -7   13.27   14.58
   1  -8   7    9.61   13.48
   1   9  -7   42.40   19.75
  -1  -9   7   47.94   18.02
   1   9  -6   67.76   19.90
  -1  -9   6   35.04   18.61
   1   9  -5    0.19   18.37
  -1  -9   5   10.31   18.43
   1   9  -3 1198.20  111.04
  -1  -9   3 1499.44  135.22
   1   9  -2  562.63   59.19
  -1  -9   2  622.61   63.17
   1   9  -1 3113.71  267.06
  -1  -9   1 3598.66  307.86
   1   9   0 1865.53  162.91
  -1  -9   0 1935.77  169.39
   1   9   1  313.26   37.27
  -1  -9  -1  343.66   39.67
  -1  -9  -2 1048.26   95.78
   1  -9   3    1.51   19.59
  -1   9  -4  167.23   26.25
   1  -9   4  180.74   27.35
  -1   9  -5   36.81   18.43
   1  -9   5   64.88   19.07
  -1   9  -6  -11.60   15.31
   1  -9   6    3.81   15.66
   1  10  -7    8.54   18.55
  -1 -10   7   21.26   17.93
   1  10  -6   63.65   20.84
  -1 -10   6   98.99   22.40
   1  10  -5  897.10   87.97
  -1 -10   5  850.91   82.19
   1  10  -3 2209.99  194.66
  -1 -10   3 2077.60  183.44
   1  10  -2 1150.52  107.41
  -1 -10   2 1159.71  106.80
   1  10  -1  251.67   35.97
  -1 -10   1  305.02   41.15
   1  10   0  394.72   44.82
  -1 -10   0  343.53   42.12
   1  10   1  218.16   30.46
  -1 -10  -1  226.68   33.04
  -1 -10  -2   -7.20   17.52
   1 -10   3   -7.58   16.87
  -1  10  -4   25.95   17.79
   1 -10   4   40.15   17.59
  -1  10  -5   -3.23   15.32
   1 -10   5    0.75   16.39
  -1  10  -6  -11.47   16.18
   1 -10   6   28.95   16.99
   1  11  -6  -24.95   15.86
  -1 -11   6   -9.70   15.74
   1  11  -5   44.16   20.92
  -1 -11   5   35.50   20.72
   1  11  -4  105.37   24.52
  -1 -11   4   68.64   22.22
   1  11  -3  169.66   29.42
  -1 -11   3  165.88   29.91
   1  11  -1  714.47   71.04
  -1 -11   1  730.81   73.77
   1  11   0    3.54   17.66
  -1 -11   0   29.12   21.25
   1  11   1    0.48   16.47
  -1 -11  -1   25.99   19.64
  -1 -11  -2    2.00   16.44
   1 -11   3    5.61   15.99
  -1  11  -4   54.61   19.65
   1 -11   4   43.85   17.79
  -1  11  -5   -5.54   14.85
   1 -11   5   17.97   16.94
   1  12  -5   42.63   17.26
  -1 -12   5    2.55   17.68
   1  12  -4  -11.70   18.34
  -1 -12   4   14.14   17.72
   1  12  -3   44.74   18.91
  -1 -12   3   57.88   20.09
   1  12  -2   96.41   22.98
  -1 -12   2  176.96   27.53
   1  12  -1  160.34   28.03
  -1 -12   1  148.06   28.12
   1  12   0  228.03   31.38
  -1 -12   0  232.35   33.26
   1  12   1   -3.16   14.36
  -1 -12  -1  -22.56   17.17
  -1 -12  -2   75.62   19.86
   1 -12   3   18.30   16.17
  -1  12  -4   28.21   17.79
   1 -12   4   65.62   20.01
  -1  12  -5   33.72   16.51
   1 -12   5   29.54   17.55
   1  13  -5  -11.15   12.32
  -1 -13   5    2.42   17.47
   1  13  -4   10.40   16.66
  -1 -13   4   13.38   16.94
   1  13  -3   33.93   18.76
  -1 -13   3   33.78   19.29
   1  13  -2   18.33   16.32
  -1 -13   2   57.72   19.87
   1  13  -1  140.09   24.94
  -1 -13   1  137.52   25.88
   1  13   0   94.96   21.92
  -1 -13   0  141.84   25.31
   1  13   1  145.22   24.22
  -1 -13  -1   89.66   22.95
  -1 -13  -2   85.05   20.67
   1 -13   3  -26.56   15.70
  -1  13  -4   51.49   19.52
   1 -13   4  101.52   23.80
   1  14  -4   55.03   20.14
  -1 -14   4    9.35   19.10
   1  14  -3   36.82   18.30
  -1 -14   3  103.52   20.95
   1  14  -2   14.78   17.10
  -1 -14   2   12.99   18.64
   1  14  -1   29.76   17.10
  -1 -14   1   57.41   19.51
   1  14   0  118.81   23.63
  -1 -14   0  166.96   28.65
   1  14   1   65.72   19.22
  -1 -14  -1   18.87   18.67
  -1 -14  -2   96.23   22.18
   1 -14   3   12.71   18.33
   1  15  -2  149.27   27.73
  -1 -15   2  183.98   31.72
   1  15  -1   10.54   16.14
  -1 -15   1   12.38   18.44
   1  15   0  183.04   29.35
  -1 -15   0  232.75   33.89
   1  15   1   43.01   17.79
  -1 -15  -1   53.39   19.06
  -2   0  -6   41.43   10.17
   2   0   6   76.20   11.34
   2   1   6   90.68   10.74
  -2  -1  -6   85.70   10.94
  -2   1  -6   93.37   14.56
   2  -1   6   97.48   14.20
   2   1   7    4.74    6.02
  -2  -1  -7   11.58    7.31
  -2   1  -7   -6.41    9.70
   2  -1   7  -11.06    8.49
  -2  -2  -6    8.73    4.71
  -2   2  -6    2.77   10.86
   2  -2   6    0.94   10.26
  -2  -2  -7    0.22    5.21
  -2   2  -7   -4.68   11.11
   2  -2   7   -6.59    9.55
   2   3   4   30.21    7.41
  -2   3  -6   -4.45   12.40
   2  -3   6  -14.64   11.08
  -2   3  -7    5.94   12.04
   2  -3   7   -5.72   10.29
   2   4   2  668.94   59.34
  -2  -4  -2  627.88   56.24
   2   4   3   80.66   12.29
  -2  -4  -3   57.06   12.23
   2   4   4   98.04   12.13
  -2  -4  -4   89.10   13.38
  -2  -4  -5    4.55    7.57
  -2   4  -6   10.11   14.20
   2  -4   6   -0.05   12.15
  -2   4  -7   -2.47   12.52
   2  -4   7  -13.28   11.15
   2   5  -1  435.52   45.29
  -2  -5   1  558.84   56.63
   2   5   0  980.31   87.71
  -2  -5   0  712.17   65.99
   2   5   1 1634.53  140.49
  -2  -5  -1 1585.90  136.44
   2   5   2  272.06   28.31
  -2  -5  -2  278.41   29.11
   2   5   3  222.08   24.37
  -2  -5  -3  240.32   25.96
   2   5   4   99.54   14.47
  -2  -5  -4   49.78   13.00
  -2  -5  -5   30.61    9.99
   2  -5   6   -2.91   12.80
  -2   5  -7   20.40   13.59
   2  -5   7  -11.36   12.26
   2   6  -3  620.85   60.91
  -2  -6   3  583.16   57.37
   2   6  -2  794.57   74.07
  -2  -6   2  825.37   76.53
   2   6  -1 1057.45   94.78
  -2  -6   1 1049.35   94.48
   2   6   0 1111.75   98.75
  -2  -6   0 1191.04  104.92
   2   6   1   48.46   15.98
  -2  -6  -1   49.85   16.47
   2   6   2   49.35   14.29
  -2  -6  -2  103.27   17.90
   2   6   3  165.88   21.48
  -2  -6  -3  156.02   21.22
   2   6   4    1.99   11.61
  -2  -6  -4   12.68   12.95
  -2  -6  -5    1.27    9.85
   2  -6   6   54.32   16.08
  -2   6  -7   -7.74   13.04
   2  -6   7   -0.21   13.01
   2   7  -7   31.68   15.93
   2   7  -6    1.97   16.25
   2   7  -5   39.32   20.33
  -2  -7   5   40.74   21.75
   2   7  -3   71.66   21.60
  -2  -7   3   84.05   21.83
   2   7  -2   24.61   18.70
  -2  -7   2   -8.18   14.90
   2   7  -1  630.44   60.34
  -2  -7   1  578.97   57.06
   2   7   0   11.99   15.70
  -2  -7   0   -7.56   15.10
   2   7   1  423.22   42.97
  -2  -7  -1  396.07   40.94
   2   7   2   55.53   15.85
  -2  -7  -2  102.83   19.03
   2   7   3   -3.59   13.15
  -2  -7  -3   46.24   15.37
   2   7   4   44.58   13.94
  -2  -7  -4   81.79   16.08
  -2  -7  -5   29.88   11.23
   2  -7   6   28.29   14.98
   2   8  -8    8.00   15.66
   2   8  -7   29.93   16.17
  -2  -8   7    3.66   15.37
   2   8  -6   49.78   18.02
  -2  -8   6   64.89   18.71
   2   8  -5   66.45   22.23
  -2  -8   5   72.72   21.67
   2   8  -4  125.15   26.99
  -2  -8   4  147.65   28.98
   2   8  -3  272.73   36.08
  -2  -8   3  294.08   38.11
   2   8  -1  102.34   21.57
  -2  -8   1  102.96   22.63
   2   8   0  233.97   29.73
  -2  -8   0  199.12   27.35
   2   8   1   60.72   17.37
  -2  -8  -1   39.05   17.47
   2   8   3  116.49   19.09
  -2  -8  -3  111.95   19.63
   2   8   4   31.29   13.03
  -2  -8  -4   23.69   13.45
  -2  -8  -5   29.84   12.05
   2  -8   6   39.67   15.79
   2   9  -7   42.38   17.37
  -2  -9   7   69.26   18.47
   2   9  -6    3.22   15.52
  -2  -9   6   21.21   15.62
   2   9  -5  239.91   32.83
  -2  -9   5  177.50   28.67
   2   9  -4  198.44   31.83
  -2  -9   4  218.30   33.06
   2   9  -3   94.52   25.44
  -2  -9   3   71.45   24.73
   2   9  -2  721.90   71.15
  -2  -9   2  779.98   75.40
   2   9  -1   81.43   22.45
  -2  -9   1   68.87   22.65
   2   9   0  422.01   44.56
  -2  -9   0  318.26   38.01
   2   9   1  307.86   35.43
  -2  -9  -1  256.25   32.89
   2   9   2   37.22   15.66
  -2  -9  -2   14.62   17.78
   2   9   3  188.85   24.41
  -2  -9  -3  184.52   24.44
   2   9   4   22.36   12.59
  -2  -9  -4   52.60   14.35
  -2  -9  -5    0.91   11.66
   2  -9   6   37.73   16.24
   2  10  -7   43.38   17.41
  -2 -10   7   23.96   16.79
   2  10  -6   26.98   17.21
  -2 -10   6   18.94   16.10
   2  10  -4   -3.16   18.17
  -2 -10   4   53.86   19.87
   2  10  -3   75.54   22.57
  -2 -10   3   67.76   22.46
   2  10  -2   45.65   21.84
  -2 -10   2   71.24   24.53
   2  10  -1    8.14   18.86
  -2 -10   1   12.90   20.97
   2  10   0  197.63   28.54
  -2 -10   0  187.77   29.91
   2  10   1  291.92   34.19
  -2 -10  -1  194.93   28.96
   2  10   2   82.21   17.78
  -2 -10  -2   75.09   19.40
   2  10   3  245.72   28.91
  -2 -10  -3  232.75   28.87
   2  10   4   18.86   12.89
  -2 -10  -4   14.99   13.15
  -2 -10  -5   53.72   15.29
   2  11  -6   56.80   18.76
  -2 -11   6   37.68   16.75
   2  11  -5   -3.02   13.71
  -2 -11   5    1.25   16.09
   2  11  -4  -16.36   16.91
  -2 -11   4   -4.55   17.30
   2  11  -3   37.34   19.01
  -2 -11   3   82.93   19.67
   2  11  -2   58.52   20.95
  -2 -11   2   88.14   24.11
   2  11  -1   39.04   18.45
  -2 -11   1   37.95   20.90
   2  11   0   62.26   19.13
  -2 -11   0   72.86   22.32
   2  11   1   32.99   16.16
  -2 -11  -1   51.74   18.97
   2  11   2   27.64   14.62
  -2 -11  -2   30.27   15.91
   2  11   3    4.76   12.93
  -2 -11  -3    2.56   13.36
   2  11   4   12.34   12.47
  -2 -11  -4   27.25   14.28
  -2 -11  -5   11.11   11.77
   2  12  -6   27.56   17.12
  -2 -12   6   21.01   17.12
   2  12  -4   34.92   18.79
  -2 -12   4   55.06   20.01
   2  12  -2   34.00   17.07
  -2 -12   2   39.15   19.45
   2  12  -1  153.45   25.69
  -2 -12   1  115.90   24.94
   2  12   1  134.52   22.07
  -2 -12  -1  149.54   25.30
   2  12   2   33.57   14.21
  -2 -12  -2   38.11   16.35
   2  12   3    7.43   13.00
  -2 -12  -3   28.73   14.20
   2  12   4   12.47   12.22
  -2 -12  -4   40.01   14.47
   2  13  -5   26.77   18.13
  -2 -13   5    1.35   16.97
   2  13  -4    9.98   15.41
  -2 -13   4   20.41   17.55
   2  13  -3   45.71   18.01
  -2 -13   3   43.58   16.47
   2  13  -2  236.40   33.26
  -2 -13   2  267.33   36.27
   2  13  -1   22.84   16.93
  -2 -13   1   55.82   20.51
   2  13   0  460.10   50.74
  -2 -13   0  466.04   51.70
   2  13   1    3.49   14.52
  -2 -13  -1   17.43   17.52
   2  13   2  108.97   19.53
  -2 -13  -2  135.05   23.13
   2  13   3   -9.42   12.60
  -2 -13  -3   -5.22   13.51
   2  14  -4   58.15   20.91
  -2 -14   4   53.59   22.09
   2  14  -3   52.14   18.88
  -2 -14   3   73.54   20.78
   2  14  -2  339.34   41.94
  -2 -14   2  265.71   36.64
   2  14  -1  194.52   29.92
  -2 -14   1  111.73   24.46
   2  14   0  103.45   23.06
  -2 -14   0   62.23   21.09
   2  14   1  191.41   27.90
  -2 -14  -1  124.83   24.46
   2  14   2   18.80   14.52
  -2 -14  -2   -4.26   15.10
   2  15  -2   56.83   21.29
  -2 -15   2   31.97   23.40
   2  15  -1   37.23   19.47
  -2 -15   1   59.53   20.74
   2  15   0   40.17   18.14
  -2 -15   0   15.60   18.16
   3   5   6   10.76    6.84
  -3  -5  -6   -1.54    6.39
   3   6   2   31.85   14.24
   3   6   3   33.58   14.76
  -3  -6  -3    1.32   13.70
   3   6   4   24.65   11.15
  -3  -6  -4   30.34   11.73
   3   6   5   57.10   11.08
  -3  -6  -5   52.43   11.01
   3   7   0  182.63   26.03
  -3  -7   0  233.30   29.79
   3   7   1   60.32   17.41
  -3  -7  -1   90.87   20.37
   3   7   2   73.78   17.89
  -3  -7  -2   43.56   17.12
   3   7   3   17.05   13.45
  -3  -7  -3   10.10   14.31
   3   7   4   -4.42   10.61
  -3  -7  -4   -6.17   11.40
   3   7   5    7.17    9.50
  -3  -7  -5   15.51   10.19
   3   7   6   10.76    8.71
  -3  -7  -6   -5.22    8.90
   3   8  -3   29.85   20.98
   3   8  -2    9.45   19.34
  -3  -8   2   34.85   20.94
   3   8  -1   94.65   21.40
  -3  -8   1  102.71   23.19
   3   8   0   46.89   18.79
  -3  -8   0   21.99   19.05
   3   8   1   38.22   17.39
  -3  -8  -1   27.68   18.53
   3   8   2   61.03   16.33
  -3  -8  -2   27.38   16.62
   3   8   3   16.89   12.20
  -3  -8  -3   -8.57   12.36
   3   8   4    9.62   11.04
  -3  -8  -4   14.05   12.54
   3   8   5   14.36   10.03
  -3  -8  -5   25.79   11.45
   3   9  -6    3.42   15.60
   3   9  -5  -15.17   16.06
   3   9  -4   46.27   20.11
  -3  -9   4   33.23   20.40
   3   9  -2   17.55   20.63
  -3  -9   2    4.93   21.95
   3   9  -1  151.43   25.87
  -3  -9   1  145.90   27.64
   3   9   0  173.58   26.77
  -3  -9   0  213.17   31.23
   3   9   1    9.42   15.55
  -3  -9  -1   14.90   17.49
   3   9   2  278.41   31.46
  -3  -9  -2  263.82   31.20
   3   9   3   37.34   13.68
  -3  -9  -3   73.51   15.67
   3   9   4   59.63   13.90
  -3  -9  -4   47.51   14.68
   3   9   5    6.88   10.57
  -3  -9  -5    9.40   11.32
   3  10  -7   -7.04   14.05
  -3 -10   7   -1.19   14.70
   3  10  -6   41.93   16.16
  -3 -10   6   -3.50   15.13
   3  10  -5   11.73   17.94
  -3 -10   5    0.79   15.93
   3  10  -4   17.17   17.68
  -3 -10   4   41.54   18.71
   3  10  -3   53.51   21.33
  -3 -10   3  110.12   21.99
   3  10  -2  172.23   28.60
  -3 -10   2  135.06   27.67
   3  10  -1  563.03   57.18
  -3 -10   1  616.53   63.07
   3  10   0  153.05   24.94
  -3 -10   0  160.34   27.08
   3  10   1  394.18   41.81
  -3 -10  -1  464.42   49.18
   3  10   2   13.11   13.60
  -3 -10  -2   32.77   14.68
   3  10   3   11.03   12.30
  -3 -10  -3    0.96   12.49
   3  10   4   17.49   11.56
  -3 -10  -4   19.03   12.55
  -3 -10  -5   10.50   13.22
   3  11  -6  -19.64   11.34
  -3 -11   6   18.88   16.56
   3  11  -5   24.99   16.44
  -3 -11   5  -17.64   15.93
   3  11  -4   12.16   15.76
  -3 -11   4    6.84   16.94
   3  11  -3   20.48   15.86
  -3 -11   3   20.63   18.67
   3  11  -2  151.30   25.81
  -3 -11   2  104.73   24.41
   3  11  -1   28.64   16.95
  -3 -11   1   11.22   18.01
   3  11   0   36.05   15.55
  -3 -11   0   24.90   18.51
   3  11   1  267.60   32.10
  -3 -11  -1  283.14   35.01
   3  11   2   13.26   12.75
  -3 -11  -2   17.03   13.89
   3  11   3  136.03   20.72
  -3 -11  -3  132.26   21.53
   3  11   4    3.87   12.04
  -3 -11  -4   25.45   12.79
   3  12  -5   -2.29   16.43
  -3 -12   5   32.79   17.18
   3  12  -4    7.73   16.24
  -3 -12   4   18.83   14.81
   3  12  -3   12.87   16.36
  -3 -12   3    9.01   16.87
   3  12  -2   15.90   15.78
  -3 -12   2   17.20   16.80
   3  12  -1  -10.89   14.55
  -3 -12   1    7.79   16.52
   3  12   0   30.34   15.52
  -3 -12   0   46.60   18.97
   3  12   1   12.64   13.33
  -3 -12  -1   28.21   16.37
   3  12   2   -4.13   12.52
  -3 -12  -2    1.03   12.89
   3  12   3    9.75   13.60
  -3 -12  -3   25.23   14.31
   3  13  -5   28.49   17.41
  -3 -13   5   -2.90   17.28
   3  13  -3   -6.02   14.68
  -3 -13   3   19.94   17.05
   3  13  -2   65.66   20.09
  -3 -13   2  111.39   23.84
   3  13  -1  -10.62   14.35
  -3 -13   1   30.16   16.93
   3  13   0   18.11   13.93
  -3 -13   0   26.72   17.62
   3  13   1   18.52   13.28
  -3 -13  -1    0.58   14.74
   3  13   2   70.45   16.52
  -3 -13  -2   42.55   15.63
   3  14  -3   26.04   17.37
  -3 -14   3   44.70   18.82
   3  14  -2   29.68   17.14
  -3 -14   2   33.45   18.36
   3  14  -1   41.47   16.36
  -3 -14   1   33.56   17.43
   3  14   0   18.22   15.04
  -3 -14   0    7.22   15.80
   3  14   1   42.39   15.21
  -3 -14  -1    9.10   15.56
   4   7   5   -0.07    8.59
   4   8   3    0.67   10.41
   4   8   4   16.64   10.46
  -4  -8  -4    2.53   10.90
   4   8   5    8.80   10.36
  -4  -8  -5    1.28   10.18
   4   9   0  180.20   25.73
   4   9   1   -3.47   12.64
  -4  -9  -1   34.49   16.78
   4   9   2   78.09   16.57
  -4  -9  -2   79.48   17.26
   4   9   3   34.92   12.43
  -4  -9  -3   20.68   12.31
   4   9   4    2.92   10.87
  -4  -9  -4  -12.76   11.40
   4  10  -3  113.11   23.42
   4  10  -2   -6.19   16.51
   4  10  -1    0.39   15.25
  -4 -10   1   35.80   18.78
   4  10   0   22.45   15.59
  -4 -10   0   32.87   18.02
   4  10   1   54.34   15.39
  -4 -10  -1   91.28   18.37
   4  10   2    8.04   12.50
  -4 -10  -2   17.53   13.47
   4  10   3   14.64   11.76
  -4 -10  -3   26.90   12.19
   4  10   4   -0.44   10.71
  -4 -10  -4    3.53   11.53
   4  11  -6   -8.21   15.10
   4  11  -5   28.83   16.59
   4  11  -4   13.98   15.17
  -4 -11   4   49.28   16.18
   4  11  -3   85.73   20.13
  -4 -11   3  126.63   24.26
   4  11  -2   -2.94   15.35
  -4 -11   2   26.54   17.40
   4  11  -1  142.52   24.02
  -4 -11   1  120.73   23.19
   4  11   0   21.06   14.76
  -4 -11   0   21.59   16.29
   4  11   1   55.41   15.33
  -4 -11  -1   27.83   14.32
   4  11   2   21.86   12.85
  -4 -11  -2   19.56   13.79
   4  11   3   -9.36   12.02
  -4 -11  -3   -3.84   12.12
   4  12  -5   15.51   16.18
  -4 -12   5    2.94   15.90
   4  12  -4    4.09   15.39
  -4 -12   4   22.30   15.95
   4  12  -3   -0.01   15.28
  -4 -12   3   47.78   18.49
   4  12  -2   -7.30   13.51
  -4 -12   2   10.53   15.20
   4  12  -1   14.01   14.25
  -4 -12   1   24.19   16.78
   4  12   0   28.60   14.51
  -4 -12   0   12.01   15.86
   4  12   1    8.27   12.69
  -4 -12  -1    1.42   13.37
   4  12   2  -22.50   12.04
  -4 -12  -2   18.98   13.93
   4  13  -4    2.48   14.97
  -4 -13   4   18.26   15.79
   4  13  -3    8.32   15.13
  -4 -13   3  -10.68   15.52
   4  13  -2   12.46   14.78
  -4 -13   2   17.52   15.80
   4  13  -1   36.74   15.66
  -4 -13   1   22.67   16.97
   4  13   0    5.78   13.29
  -4 -13   0    3.82   15.12
   4  13   1   40.69   15.33
  -4 -13  -1   43.97   16.24
   4  14  -2   93.14   23.07
  -4 -14   2   87.49   22.56
   4  14  -1   11.47   17.20
  -4 -14   1   40.35   17.79
   5  11   0   -8.32   13.05
   5  11   1    4.83   12.39
   5  11   2    0.18   12.54
   5  12  -2  -20.14   13.34
   5  12  -1    3.88   13.00
   5  12   0  -17.90   12.40
  -5 -12   0  -11.35   12.77
   5  12   1   11.52   13.28
  -5 -12  -1    4.92   12.96
   5  13  -3   -1.36   14.41
  -5 -13   3    2.69   17.25
   5  13  -2   16.93   15.09
  -5 -13   2    9.50   16.16
   5  13  -1    9.39   13.75
  -5 -13   1   23.76   16.87
   0   0   0    0.00    0.00
_computing_structure_solution     'SHELXT 2014/5 (Sheldrick, 2014)'
;
_shelx_hkl_checksum              26146
_shelx_res_file
;
    nicotinic_acid_single.res created by SHELXL-2014/8
TITL na_b004_a.res in P2(1)/c
REM Old TITL na_b004 in P2(1)_c
REM SHELXT solution in P2(1)/c
REM R1 0.378,  Rweak 0.078,  Alpha 0.150,  Orientation as input
REM Formula found by SHELXT:  C6 N2 O
CELL  0.02508   7.3030  11.6930   7.3310   90.000  113.679   90.000
ZERR   24.000   0.0110   0.0020   0.0250    0.000    0.140    0.000
LATT  1
SYMM -X, 1/2+Y, 1/2-Z
SFAC  C   2.31000  20.84392   1.02000  10.20751   1.58860   0.56870   0.86500 =
         51.65125   0.21560   0.00330   0.00160    11.500   0.68000  12.01000
SFAC  H   0.49300  10.51091   0.32291  26.12573   0.14019   3.14236   0.04081 =
         57.79977   0.00304   0.00000   0.00000     0.624   0.35000   1.00800
SFAC  N  12.21261   0.00570   3.13220   9.89331   2.01250  28.99754   1.16630 =
          0.58260 -11.52901   0.00610   0.00330    19.600   0.68000  14.01000
SFAC  O   3.04850  13.27711   2.28680   5.70111   1.54630   0.32390   0.86700 =
         32.90894   0.25080   0.01060   0.00600    32.500   0.68000  16.00000
UNIT 24 20 4 8
L.S. 100
BOND $H
LIST 6
FMAP 2
EQIV $2 -x+2, y-1/2, -z+3/2
HTAB O2 N1_$2
ACTA
PLAN 20
WGHT    0.200000
FVAR       2.40057
N1    3    0.735999    0.889610    0.707726    11.00000    0.04811
C1    1    0.847509    0.792454    0.719991    11.00000    0.04824
AFIX  43
H1    2    0.982761    0.797772    0.745897    11.00000   -1.20000
AFIX   0
O1    4    0.801550    0.485407    0.696866    11.00000    0.08429
C2    1    0.750530    0.682444    0.691905    11.00000    0.04835
O2    4    1.055467    0.587049    0.746274    11.00000    0.07078
AFIX 148
H2    2    1.115209    0.528633    0.799311    11.00000   -1.50000
AFIX   0
C3    1    0.546744    0.675979    0.651578    11.00000    0.04589
AFIX  43
H3    2    0.482551    0.605603    0.633862    11.00000   -1.20000
AFIX   0
C4    1    0.442367    0.777061    0.638580    11.00000    0.06561
AFIX  43
H4    2    0.308128    0.778545    0.617876    11.00000   -1.20000
AFIX   0
C5    1    0.559779    0.880169    0.659929    11.00000    0.05288
AFIX  43
H5    2    0.488047    0.948299    0.632670    11.00000   -1.20000
AFIX   0
C6    1    0.865960    0.575113    0.705927    11.00000    0.04264
HKLF 4
REM  na_b004_a.res in P2(1)/c
REM R1 =  0.3026 for     302 Fo > 4sig(Fo)  and  0.3459 for all     503 data
REM     39 parameters refined using      0 restraints
END
WGHT      0.2000      0.0000
REM Highest difference peak  0.606,  deepest hole -0.606,  1-sigma level  0.164
Q1    1   0.8771  0.7944  0.8029  11.00000  0.05    0.61
Q2    1   0.8354  0.5789  0.7911  11.00000  0.05    0.47
Q3    1   0.3843  0.7235  0.8519  11.00000  0.05    0.43
Q4    1   0.4255  0.8824  0.3912  11.00000  0.05    0.35
Q5    1   0.8601  0.7431  0.8893  11.00000  0.05    0.35
Q6    1   0.6510  0.8344  0.8515  11.00000  0.05    0.35
Q7    1   0.6073  0.6373  0.8450  11.00000  0.05    0.35
Q8    1   1.2625  0.5264  0.8347  11.00000  0.05    0.31
Q9    1   0.3386  0.9593  0.4187  11.00000  0.05    0.31
Q10   1   0.5783  0.6610  0.7480  11.00000  0.05    0.31
Q11   1   1.1756  0.6362  0.8919  11.00000  0.05    0.30
Q12   1   0.4078  1.0382  0.6582  11.00000  0.05    0.30
Q13   1   1.0051  0.7237  0.8724  11.00000  0.05    0.29
Q14   1   1.0577  0.5999  0.8804  11.00000  0.05    0.29
Q15   1   1.0135  0.4405  0.5865  11.00000  0.05    0.27
Q16   1   0.3227  0.8353  0.7917  11.00000  0.05    0.27
Q17   1   0.7039  0.5523  0.4780  11.00000  0.05    0.24
Q18   1   0.7824  0.8859  0.8017  11.00000  0.05    0.23
Q19   1   0.8238  0.4804  0.6150  11.00000  0.05    0.20
Q20   1   0.9160  0.4445  0.9592  11.00000  0.05    0.20
;
_shelx_res_checksum              70393
loop_
_space_group_symop_operation_xyz
'x, y, z'
'-x, y+1/2, -z+1/2'
'-x, -y, -z'
'x, -y-1/2, z-1/2'
loop_
_atom_site_type_symbol
_atom_site_label
_atom_site_fract_x
_atom_site_fract_y
_atom_site_fract_z
_atom_site_U_iso_or_equiv
_atom_site_adp_type
_atom_site_calc_flag
_atom_site_occupancy
N N1 0.736(4) 0.8896(10) 0.708(2) 0.048(4) Uiso d 1
C C1 0.848(5) 0.7925(11) 0.720(2) 0.048(4) Uiso d 1
H H1 0.9828 0.7978 0.7459 0.058 Uiso calc 1
O O1 0.802(5) 0.4854(12) 0.697(2) 0.084(5) Uiso d 1
C C2 0.751(5) 0.6824(11) 0.692(2) 0.048(4) Uiso d 1
O O2 1.055(5) 0.5870(11) 0.746(2) 0.071(5) Uiso d 1
H H2 1.115(16) 0.529(17) 0.80(3) 0.106 Uiso calc 1
C C3 0.547(5) 0.6760(12) 0.652(2) 0.046(4) Uiso d 1
H H3 0.4826 0.6056 0.6339 0.055 Uiso calc 1
C C4 0.442(6) 0.7771(15) 0.639(3) 0.066(5) Uiso d 1
H H4 0.3081 0.7785 0.6179 0.079 Uiso calc 1
C C5 0.560(6) 0.8802(13) 0.660(3) 0.053(4) Uiso d 1
H H5 0.4880 0.9483 0.6327 0.063 Uiso calc 1
C C6 0.866(5) 0.5751(11) 0.706(2) 0.043(4) Uiso d 1
loop_
_atom_type_symbol
_atom_type_description
_atom_type_scat_dispersion_real
_atom_type_scat_dispersion_imag
_atom_type_scat_source
C C 0.0033 0.0016 'International Tables Vol C Tables 4.2.6.8 and 6.1.1.4'
H H 0.0000 0.0000 'International Tables Vol C Tables 4.2.6.8 and 6.1.1.4'
N N 0.0061 0.0033 'International Tables Vol C Tables 4.2.6.8 and 6.1.1.4'
O O 0.0106 0.0060 'International Tables Vol C Tables 4.2.6.8 and 6.1.1.4'
loop_
_geom_angle_atom_site_label_1
_geom_angle_atom_site_label_2
_geom_angle_atom_site_label_3
_geom_angle
C5 N1 C1 118.7(16)
N1 C1 C2 119(3)
N1 C1 H1 120.6
C2 C1 H1 120.6
C3 C2 C1 120(2)
C3 C2 C6 119.5(16)
C1 C2 C6 121(3)
C6 O2 H2 109.3
C4 C3 C2 118(2)
C4 C3 H3 120.6
C2 C3 H3 120.9
C3 C4 C5 115(3)
C3 C4 H4 122.8
C5 C4 H4 122.7
N1 C5 C4 129(2)
N1 C5 H5 115.6
C4 C5 H5 115.5
O1 C6 O2 119(2)
O1 C6 C2 124(3)
O2 C6 C2 116.4(17)
loop_
_geom_bond_atom_site_label_1
_geom_bond_atom_site_label_2
_geom_bond_distance
N1 C5 1.20(5)
N1 C1 1.38(3)
C1 C2 1.44(3)
C1 H1 0.9300
O1 C6 1.14(3)
C2 C3 1.40(5)
C2 C6 1.49(3)
O2 C6 1.30(4)
O2 H2 0.82(19)
C3 C4 1.39(4)
C3 H3 0.9300
C4 C5 1.45(4)
C4 H4 0.9300
C5 H5 0.9300
loop_
_geom_hbond_atom_site_label_D
_geom_hbond_atom_site_label_H
_geom_hbond_atom_site_label_A
_geom_hbond_site_symmetry_A
_geom_hbond_distance_DH
_geom_hbond_distance_HA
_geom_hbond_distance_DA
_geom_hbond_angle_DHA
O2 H2 N1 2_746 0.82 1.97 2.71(3) 150.4
