#------------------------------------------------------------------------------
#$Date: 2019-12-26 22:07:41 +0200 (Thu, 26 Dec 2019) $
#$Revision: 246146 $
#$URL: file:///home/coder/svn-repositories/cod/cif/2/31/18/2311867.cif $
#------------------------------------------------------------------------------
#
# This file is available in the Crystallography Open Database (COD),
# http://www.crystallography.net/. The original data for this entry
# were provided by IUCr Journals, http://journals.iucr.org/.
#
# The file may be used within the scientific community so long as
# proper attribution is given to the journal article from which the
# data were obtained.
#
data_2311867
loop_
_publ_author_name
'Jalil, AbdelAziz'
'Clymer, Rebecca N.'
'Hamilton, Clifton R.'
'Vaddypally, Shivaiah'
'Gau, Michael R.'
'Zdilla, Michael J.'
_publ_section_title
;
 Structure of salts of lithium chloride and lithium hexafluorophosphate as
 solvates with pyridine and vinylpyridine and structural comparisons:
 (C<sub>5</sub>H<sub>5</sub>N)LiPF<sub>6</sub>,
 [p-(CH<sub>2</sub>=CH)C<sub>5</sub>H<sub>4</sub>N]LiPF<sub>6</sub>,
 [(C<sub>5</sub>H<sub>5</sub>N)LiCl]<sub>n</sub>, and
 [p-(CH<sub>2</sub>=CH)C<sub>5</sub>H<sub>4</sub>N]<sub>2</sub>Li(\m-Cl)<sub>2</sub>Li[p-(CH<sub>2</sub>=CH)C<sub>5</sub>H<sub>4</sub>N]<sub>2</sub>.
;
_journal_coeditor_code           KY3111
_journal_issue                   'Pt 3'
_journal_name_full
'Acta crystallographica. Section C, Structural chemistry'
_journal_page_first              264
_journal_page_last               269
_journal_paper_doi               10.1107/S205322961700064X
_journal_volume                  73
_journal_year                    2017
_chemical_formula_iupac          '[Li Cl (C5 H5 N)]'
_chemical_formula_moiety         'C5 H5 Cl Li N'
_chemical_formula_sum            'C5 H5 Cl Li N'
_chemical_formula_weight         121.49
_chemical_name_common            'lithium chloride-pyridine solvate'
_chemical_name_systematic
;
<i>catena</i>-Poly[[(pyridine-\k<i>N</i>)lithium]-\m~3~-chlorido]
;
_space_group_crystal_system      orthorhombic
_space_group_IT_number           19
_space_group_name_Hall           'P 2ac 2ab'
_space_group_name_H-M_alt        'P 21 21 21'
_atom_sites_solution_hydrogens   geom
_audit_creation_method
;
OLEX2 1.2
(compiled 2016.09.09 svn.r3337 for OlexSys, GUI svn.r5227)
;
_cell_angle_alpha                90
_cell_angle_beta                 90
_cell_angle_gamma                90
_cell_formula_units_Z            4
_cell_length_a                   3.9329(17)
_cell_length_b                   8.615(4)
_cell_length_c                   17.836(7)
_cell_measurement_reflns_used    1105
_cell_measurement_temperature    100(2)
_cell_measurement_theta_max      28.03
_cell_measurement_theta_min      3.29
_cell_volume                     604.3(5)
_computing_cell_refinement
;
APEX2 (Bruker, 2008)
;
_computing_data_collection
;
SAINT (Bruker, 2008)
;
_computing_data_reduction
;
SAINT (Bruker, 2008)
;
_computing_molecular_graphics
;
OLEX2 (Dolomanov <i>et al.</i>,  2009)
;
_computing_publication_material
;
OLEX2 (Dolomanov <i>et al.</i>,  2009)
;
_computing_structure_refinement
;
SHELXL2014 (Sheldrick, 2015)
;
_computing_structure_solution
;
SHELXS97 (Sheldrick, 2008)
;
_diffrn_ambient_temperature      100.02
_diffrn_measured_fraction_theta_full 0.984
_diffrn_measured_fraction_theta_max 0.985
_diffrn_measurement_device_type  'Bruker APEXII CCD'
_diffrn_measurement_method       '\f and \w scans'
_diffrn_radiation_monochromator  graphite
_diffrn_radiation_type           MoK\a
_diffrn_radiation_wavelength     0.71073
_diffrn_reflns_av_R_equivalents  0.0222
_diffrn_reflns_limit_h_max       2
_diffrn_reflns_limit_h_min       -5
_diffrn_reflns_limit_k_max       7
_diffrn_reflns_limit_k_min       -11
_diffrn_reflns_limit_l_max       19
_diffrn_reflns_limit_l_min       -23
_diffrn_reflns_number            2313
_diffrn_reflns_theta_full        25.242
_diffrn_reflns_theta_max         28.056
_diffrn_reflns_theta_min         2.626
_diffrn_standards_number         0
_exptl_absorpt_coefficient_mu    0.503
_exptl_absorpt_correction_T_max  0.7456
_exptl_absorpt_correction_T_min  0.5464
_exptl_absorpt_correction_type   multi-scan
_exptl_absorpt_process_details
;
(SADABS; Bruker, 2008)
;
_exptl_crystal_colour            colourless
_exptl_crystal_density_diffrn    1.335
_exptl_crystal_description       prism
_exptl_crystal_F_000             248
_exptl_crystal_size_max          0.25
_exptl_crystal_size_mid          0.09
_exptl_crystal_size_min          0.045
_refine_diff_density_max         0.271
_refine_diff_density_min         -0.222
_refine_ls_abs_structure_details
;
Refined as an inversion twin
;
_refine_ls_abs_structure_Flack   0.68(12)
_refine_ls_extinction_method     none
_refine_ls_goodness_of_fit_ref   1.058
_refine_ls_hydrogen_treatment    constr
_refine_ls_matrix_type           full
_refine_ls_number_parameters     74
_refine_ls_number_reflns         1328
_refine_ls_number_restraints     0
_refine_ls_restrained_S_all      1.058
_refine_ls_R_factor_all          0.0342
_refine_ls_R_factor_gt           0.0293
_refine_ls_shift/su_max          0.001
_refine_ls_shift/su_mean         0.000
_refine_ls_structure_factor_coef Fsqd
_refine_ls_weighting_details
'w=1/[\s^2^(Fo^2^)+(0.0293P)^2^+0.1143P] where P=(Fo^2^+2Fc^2^)/3'
_refine_ls_weighting_scheme      calc
_refine_ls_wR_factor_gt          0.0652
_refine_ls_wR_factor_ref         0.0672
_reflns_number_gt                1220
_reflns_number_total             1328
_reflns_threshold_expression     'I > 2\s(I)'
_cod_data_source_file            ky3111sup1.cif
_cod_data_source_block           LiCl.Py
_cod_original_cell_volume        604.3(4)
_cod_database_code               2311867
_shelx_space_group_comment
;
The symmetry employed for this shelxl refinement is uniquely defined
by the following loop, which should always be used as a source of
symmetry information in preference to the above space-group names.
They are only intended as comments.
;
_shelx_estimated_absorpt_t_min   0.884
_shelx_estimated_absorpt_t_max   0.978
_shelx_hkl_file
;
  -1   0   0    0.37    0.38
  -2   0   0  328.82    7.96
  -3   0   0   -0.35    0.55
  -4   0   0   99.83    3.31
  -5   0   0    0.75    0.92
   0  -1   0   -0.41    0.15
  -1  -1   0  272.94    6.30
  -1  -1   0  257.51    5.60
  -2  -1   0   25.57    1.19
  -2   1   0   25.63    1.19
  -2  -1   0   22.69    0.84
  -3   1   0   10.24    0.94
  -3  -1   0    9.68    0.97
  -4  -1   0   57.00    2.31
  -4   1   0   57.93    2.30
  -5  -1   0   23.08    1.81
  -5   1   0   22.85    1.75
   0  -2   0  257.07    7.44
   0  -2   0  267.23    5.61
  -1  -2   0  403.73    8.55
  -2  -2   0  102.41    2.45
  -2  -2   0  104.41    2.91
  -3  -2   0   37.24    1.67
  -3   2   0   33.20    1.62
  -4   2   0   18.52    1.39
  -4  -2   0   19.45    1.52
  -5  -2   0    9.76    1.41
  -5   2   0    8.71    1.23
   0  -3   0   -1.13    0.46
   0  -3   0   -0.81    0.29
  -1  -3   0   11.78    0.78
  -2  -3   0    1.03    0.56
  -2  -3   0    0.50    0.50
  -3   3   0   11.84    1.09
  -3  -3   0   11.94    1.13
  -4   3   0   -0.70    0.70
  -4  -3   0    0.92    0.87
  -5   3   0   24.11    1.82
  -5  -3   0   28.83    2.07
   0  -4   0   30.22    1.22
   1  -4   0  516.38   10.84
  -1  -4   0  502.79   10.95
  -2  -4   0   59.78    1.85
   2  -4   0   61.20    1.65
  -3  -4   0   25.63    1.21
  -4   4   0   14.37    1.34
   0  -5   0   -0.22    0.58
  -1  -5   0   25.48    0.82
  -1  -5   0   28.26    1.41
   1  -5   0   27.54    1.22
   2  -5   0   81.51    2.15
  -2  -5   0   77.99    2.40
  -3  -5   0    7.06    0.89
  -4   5   0   32.92    1.92
   0  -6   0  680.38   14.65
  -1  -6   0   14.75    0.71
  -1  -6   0   14.48    1.17
   1  -6   0   13.73    0.99
   2  -6   0  102.16    2.71
  -2  -6   0  102.74    3.03
  -3  -6   0    1.31    0.81
  -4   6   0   28.60    1.90
   0  -7   0   -1.08    0.75
   1  -7   0   36.66    1.63
  -1  -7   0   34.47    1.83
   2  -7   0    0.57    0.70
  -2  -7   0    1.27    0.93
  -3  -7   0   11.97    1.25
   0  -8   0   13.28    1.30
   1  -8   0   16.29    1.29
  -1  -8   0   12.84    1.42
   2  -8   0    0.17    0.77
  -2  -8   0   -0.62    1.00
  -3  -8   0   15.11    1.46
   0  -9   0    0.21    0.94
  -1  -9   0    9.63    1.38
   1  -9   0    8.53    1.18
  -2  -9   0    2.70    1.17
   2  -9   0    0.99    0.93
  -3  -9   0    4.98    1.31
   0 -10   0   11.02    1.47
   1 -10   0   44.52    2.23
  -1 -10   0   47.87    2.45
  -2 -10   0   15.35    1.78
   0 -11   0    2.29    1.26
   1 -11   0    0.60    1.15
  -1 -11   0    1.28    1.28
  -1   0   1   57.06    1.65
  -1   0   1   58.33    2.07
  -1   0  -1   58.57    1.65
  -2   0   1  151.29    3.93
  -2   0  -1  150.89    3.93
  -3   0   1    9.89    0.95
  -3   0  -1   11.79    0.98
  -4   0   1   55.32    2.24
  -4   0  -1   47.25    2.14
  -5   0  -1    0.07    0.85
  -5   0   1    0.27    0.90
   0   1  -1    4.35    0.34
   0  -1  -1    4.00    0.30
  -1  -1  -1  675.66   13.62
  -1  -1  -1  672.14   15.18
  -1   1   1  664.50   18.53
  -1  -1   1  611.53   18.64
  -1  -1   1  650.40   13.58
  -1  -1   1  654.93   15.16
  -2  -1  -1   71.77    2.18
  -2   1   1   72.05    2.20
  -2  -1   1   75.00    2.20
  -2   1  -1   69.16    2.16
  -3  -1  -1   32.92    1.54
  -3   1   1   29.38    1.48
  -3   1  -1   31.85    1.50
  -3  -1   1   30.49    1.53
  -4   1   1    7.42    1.02
  -4  -1  -1    6.48    1.01
  -4   1  -1    5.68    0.95
  -4  -1   1    8.13    1.06
  -5   1   1    7.29    1.24
  -5  -1  -1    6.31    1.18
  -5   1  -1    6.33    1.17
  -5  -1   1    4.50    1.13
   0  -2  -1  246.51    5.29
  -1  -2  -1   30.33    1.07
  -1  -2   1   28.38    1.51
   1  -2  -1   30.80    0.90
  -1  -2   1   30.70    1.04
  -2  -2  -1   10.69    0.75
  -2  -2  -1   10.97    0.84
  -2  -2   1    9.31    0.61
  -2  -2   1   10.25    0.82
  -3  -2  -1   62.73    2.30
  -3   2   1   67.55    2.29
  -3  -2   1   62.95    2.29
  -3   2  -1   67.35    2.28
  -4   2   1   18.89    1.44
  -4  -2  -1   21.09    1.57
  -4  -2   1   23.58    1.59
  -4   2  -1   21.33    1.46
  -5  -2  -1   28.12    1.98
  -5   2   1   25.24    1.78
  -5   2  -1   25.78    1.83
  -5  -2   1   27.71    1.96
   0  -3   1    0.44    0.39
   0  -3  -1   -0.16    0.46
  -1  -3  -1  203.21    4.57
   1  -3  -1  201.08    4.43
  -1  -3   1  208.81    4.57
  -1  -3   1  196.47    6.19
  -2  -3  -1  109.08    2.68
   2  -3  -1  110.54    2.46
  -2  -3   1  105.19    2.67
  -2  -3   1  108.68    3.10
  -3  -3  -1  109.53    2.73
  -3  -3  -1  108.49    3.39
  -3   3   1  110.33    3.34
  -3  -3   1  108.29    2.68
  -3   3  -1  111.77    3.33
  -3  -3   1  108.54    3.37
  -4   3   1    3.98    0.90
  -4  -3  -1    3.55    1.00
  -4  -3   1    4.42    1.03
  -4   3  -1    5.87    0.96
  -5   3   1    9.18    1.27
  -5  -3  -1   11.33    1.54
  -5   3  -1   10.02    1.31
  -5  -3   1   12.39    1.55
   0  -4   1    3.81    0.48
   0  -4  -1    2.79    0.59
  -1  -4  -1  116.44    2.94
  -1  -4   1  106.08    3.78
   1  -4  -1  114.43    2.76
  -1  -4   1  119.71    2.93
  -2  -4  -1   10.66    0.84
   2  -4  -1   10.34    0.73
  -2  -4   1   10.07    0.87
  -3  -4  -1   46.84    1.62
  -3  -4   1   42.90    1.55
  -4   4   1    8.26    1.10
  -4   4  -1    8.42    1.12
  -4  -4   1    8.21    1.24
   0  -5   1  162.12    3.94
   0  -5  -1  162.38    3.93
   0  -5   1  161.76    4.87
   0  -5   1  164.36    3.66
  -1  -5  -1   30.01    1.48
  -1  -5  -1   29.70    0.91
   1  -5  -1   29.02    1.26
  -1  -5   1   29.21    0.90
  -1  -5   1   33.54    1.47
  -2  -5  -1   67.19    2.16
   2  -5   1   66.84    1.92
  -2  -5   1   69.08    2.19
   2  -5  -1   65.94    1.88
  -3  -5  -1    7.34    0.88
  -3  -5   1    5.60    0.86
  -4   5   1   12.55    1.37
  -4   5  -1   14.56    1.37
   0  -6   1   13.34    1.07
   0  -6  -1   13.45    1.08
   0  -6   1   12.67    0.84
  -1  -6  -1    9.31    1.06
  -1  -6  -1    8.88    0.63
   1  -6   1    9.70    0.89
  -1  -6   1    8.35    0.62
  -1  -6   1    8.75    1.01
   1  -6  -1    9.67    0.87
   2  -6   1   60.06    1.91
  -2  -6  -1   60.04    2.17
   2  -6  -1   60.63    1.89
  -2  -6   1   59.60    2.20
  -3  -6  -1   10.76    1.09
  -3  -6   1   10.85    1.09
  -4   6   1   32.24    1.99
  -4   6  -1   32.13    2.00
   0  -7   1   28.45    1.56
   0  -7  -1   30.43    1.60
  -1  -7  -1  208.37    5.24
   1  -7   1  202.64    5.00
  -1  -7   1  208.25    5.20
   1  -7  -1  205.41    5.02
  -2  -7  -1   59.07    2.31
   2  -7   1   56.98    2.00
  -2  -7   1   61.96    2.34
   2  -7  -1   60.85    2.01
  -3  -7  -1   36.37    1.85
  -3  -7   1   33.50    1.83
  -4   7  -1   10.77    1.38
   0  -8   1  173.54    4.59
   0  -8  -1  174.56    4.64
   1  -8   1    2.30    0.87
  -1  -8  -1    2.09    1.05
  -1  -8   1    3.26    1.04
   1  -8  -1    1.82    0.87
   2  -8   1   10.59    1.11
  -2  -8  -1    9.39    1.34
  -2  -8   1   11.14    1.44
   2  -8  -1   11.11    1.11
  -3  -8  -1   19.13    1.59
  -3  -8   1   19.14    1.60
   0  -9  -1    2.49    1.06
   0  -9   1    1.53    1.02
  -1  -9  -1   63.26    2.66
   1  -9   1   65.58    2.44
   1  -9  -1   64.09    2.47
  -1  -9   1   67.41    2.70
  -2  -9  -1    8.70    1.40
   2  -9   1    7.47    1.11
   2  -9  -1    7.57    1.09
  -2  -9   1    7.13    1.39
  -3  -9  -1   34.35    2.17
  -3  -9   1   36.46    2.17
   0 -10  -1    1.61    1.13
   0 -10   1    2.87    1.16
  -1 -10  -1   33.70    2.15
   1 -10   1   28.87    1.85
   1 -10  -1   29.41    1.88
  -1 -10   1   28.69    2.08
   2 -10   1    3.39    1.11
  -2 -10  -1    7.93    1.49
  -2 -10   1    4.78    1.37
   0 -11   1   80.18    3.20
   0 -11  -1   82.77    3.18
  -1 -11  -1    4.50    1.42
   1 -11   1    3.15    1.23
   1 -11  -1    4.46    1.25
  -1 -11   1    0.90    1.32
  -1   0   2  249.45    5.99
  -1   0  -2  252.03    6.00
  -1   0   2  255.08    7.41
  -2   0   2  531.16   15.68
  -2   0  -2  547.35   12.78
  -2   0   2  543.30   12.78
  -3   0  -2   28.67    1.48
  -3   0   2   32.28    1.52
  -4   0  -2    7.46    1.06
  -4   0   2   10.00    1.15
  -5   0  -2   14.75    1.51
  -5   0   2   10.94    1.39
   0   1  -2   79.94    1.82
   0  -1  -2   79.99    1.83
  -1   1   2  943.72   26.00
  -1  -1  -2  946.19   21.25
  -1  -1  -2  950.01   19.11
  -1  -1   2  920.42   21.22
  -1  -1   2  844.74   26.10
  -2  -1  -2   79.69    2.34
  -2   1   2   82.58    2.36
  -2   1  -2   81.28    2.33
  -2  -1   2   79.23    2.35
  -2  -1   2   73.11    2.91
  -3  -1  -2   84.65    2.72
  -3   1   2   82.52    2.68
  -3  -1   2   87.56    2.73
  -3   1  -2   85.18    2.67
  -4   1   2   18.17    1.42
  -4  -1  -2   17.43    1.44
  -4  -1   2   17.87    1.44
  -4   1  -2   18.85    1.40
  -5  -1  -2   11.04    1.39
  -5   1   2   13.45    1.49
  -5   1  -2    9.55    1.32
  -5  -1   2   12.81    1.44
   0  -2  -2   42.36    1.25
  -1  -2  -2   74.08    1.98
  -1   2   2   87.04    2.45
   1  -2  -2   77.07    1.83
  -1  -2   2   77.36    2.15
  -1  -2   2   74.98    2.78
  -2  -2  -2   38.49    1.52
  -2  -2  -2   38.55    1.25
  -2  -2   2   37.71    1.99
  -2  -2   2   38.08    1.48
  -2   2  -2   40.83    1.48
  -2  -2   2   35.50    1.19
  -3   2   2   46.30    1.87
  -3  -2  -2   43.77    1.87
  -3  -2   2   45.02    1.87
  -3   2  -2   47.22    1.84
  -4   2   2   29.38    1.68
  -4  -2  -2   28.71    1.75
  -4   2  -2   30.28    1.69
  -4  -2   2   29.64    1.74
  -5  -2  -2    9.88    1.42
  -5   2   2   13.49    1.42
  -5  -2   2   11.31    1.44
  -5   2  -2   13.75    1.47
   0  -3  -2 1000.00   20.86
  -1  -3  -2    3.73    0.60
   1  -3  -2    3.65    0.48
  -1  -3   2    3.72    0.73
  -2  -3  -2   95.13    2.45
  -2  -3   2   91.16    3.58
  -2  -3   2   98.67    2.83
  -2  -3   2   96.74    2.45
   2  -3  -2   98.52    2.22
  -3   3   2   16.92    1.28
  -3  -3  -2   15.81    1.31
  -3  -3  -2   16.59    1.01
  -3  -3   2   17.37    1.32
  -3   3  -2   16.91    1.28
  -4  -3  -2    9.49    1.22
  -4   3   2    6.51    1.06
  -4  -3   2    9.29    1.22
  -4   3  -2    8.15    1.06
  -5   3   2    6.37    1.15
  -5  -3  -2    7.09    1.30
  -5   3  -2    5.32    1.13
  -5  -3   2    7.91    1.37
   0  -4   2   74.21    1.85
   0  -4  -2   72.44    2.10
   0  -4   2   76.88    2.53
  -1  -4  -2  106.99    2.75
  -1  -4  -2  108.64    2.35
  -1  -4   2  104.44    2.35
   1  -4  -2  104.43    2.60
  -1  -4   2  101.56    3.59
  -1  -4   2  106.77    2.75
  -2  -4  -2   27.62    1.22
  -2  -4   2   23.02    1.19
  -2  -4   2   23.11    1.77
   2  -4  -2   24.48    0.96
  -3  -4  -2   78.97    2.24
  -3  -4   2   77.12    2.19
  -4   4   2   23.95    1.64
  -4   4  -2   22.61    1.59
  -4  -4   2   21.24    1.71
   0  -5   2    6.18    0.66
   0  -5   2    6.60    0.53
   0  -5  -2    6.58    0.78
  -1  -5  -2  115.30    2.60
  -1  -5  -2  115.85    3.05
   1  -5  -2  114.27    2.87
  -1  -5   2  109.19    3.89
  -1  -5   2  109.52    2.60
  -1  -5   2  118.57    3.06
  -2  -5  -2   27.65    1.40
   2  -5  -2   27.39    1.13
  -2  -5   2   25.26    1.37
  -3  -5  -2   70.80    2.26
  -3  -5   2   74.25    2.25
  -4   5   2   26.32    1.80
  -4   5  -2   26.33    1.75
   0  -6   2   41.07    1.65
   0  -6   2   40.47    1.67
   0  -6  -2   39.79    1.71
   0  -6   2   37.57    1.31
  -1  -6  -2    5.26    0.92
  -1  -6  -2    5.52    0.47
  -1  -6   2    5.70    0.92
  -1  -6   2    5.19    0.46
   1  -6  -2    6.00    0.80
  -1  -6   2    4.93    0.85
  -2  -6  -2   98.11    2.91
   2  -6  -2   97.28    2.64
  -2  -6   2  101.52    2.95
  -3  -6  -2   14.76    1.21
  -3  -6   2   16.25    1.27
  -4   6   2    3.07    1.06
  -4   6  -2    4.46    1.08
   0  -7  -2    7.14    1.01
   0  -7   2    7.63    1.03
   1  -7   2   76.16    2.43
  -1  -7  -2   78.20    2.60
  -1  -7   2   77.26    2.61
   1  -7  -2   74.76    2.42
  -2  -7  -2   11.26    1.23
   2  -7   2   11.62    1.02
   2  -7  -2   13.20    1.02
  -2  -7   2   11.35    1.29
  -3  -7  -2   12.03    1.27
  -3  -7   2   12.66    1.32
  -4   7  -2    4.34    1.16
   0  -8  -2    0.45    0.93
   0  -8   2    1.47    0.94
  -1  -8  -2   13.78    1.37
   1  -8   2   15.03    1.26
   1  -8  -2   15.18    1.26
  -1  -8   2   14.13    1.40
   2  -8   2   28.27    1.59
  -2  -8   2   27.83    1.98
   2  -8  -2   30.95    1.56
  -3  -8  -2    5.47    1.20
  -3  -8   2    6.36    1.22
   0  -9  -2   41.72    2.06
   0  -9   2   42.12    2.07
  -1  -9  -2   17.70    1.62
   1  -9   2   15.29    1.39
  -1  -9   2   18.75    1.63
   1  -9  -2   18.38    1.44
   2  -9   2   34.41    1.80
  -2  -9  -2   33.93    2.09
  -2  -9   2   35.54    2.19
   2  -9  -2   36.12    1.76
  -3  -9  -2   15.30    1.66
  -3  -9   2   15.50    1.61
   0 -10   2   15.36    1.56
   0 -10  -2   14.77    1.54
   1 -10   2   16.00    1.55
  -1 -10  -2   21.42    1.84
  -1 -10   2   17.10    1.73
   1 -10  -2   18.72    1.58
   2 -10   2    9.46    1.30
  -2 -10  -2   12.13    1.62
  -2 -10   2    9.73    1.58
   0 -11  -2    0.52    1.21
   0 -11   2    1.27    1.25
  -1 -11  -2    9.82    1.59
   1 -11   2   14.06    1.53
   1 -11  -2   12.90    1.52
  -1 -11   2   11.09    1.71
  -1   0   3    8.79    0.70
  -1   0   3    7.88    0.75
  -1   0  -3    8.71    0.71
  -2   0  -3   40.48    1.52
  -2   0   3   39.72    1.91
  -2   0   3   42.06    1.52
  -3   0   3   11.67    1.01
  -3   0  -3   11.86    1.02
  -4   0  -3    2.85    0.87
  -4   0   3    3.62    0.90
  -5   0  -3    3.46    1.07
  -5   0   3    6.11    1.16
   0  -1  -3  478.44    9.97
   0   1  -3  474.29   10.07
  -1  -1  -3   16.74    0.88
  -1  -1  -3   16.71    0.84
  -1   1   3   17.90    1.03
  -1  -1   3   15.98    1.26
  -1  -1   3   15.29    0.78
  -1   1  -3   15.26    0.82
  -2   1   3    2.43    0.57
  -2  -1  -3    2.14    0.55
  -2   1   3    1.74    0.61
  -2   1  -3    1.61    0.50
  -2  -1   3    2.58    0.73
  -2  -1   3    2.86    0.55
  -3  -1  -3   42.90    1.78
  -3   1   3   40.46    1.75
  -3  -1   3   41.39    1.78
  -3   1  -3   43.10    1.75
  -4  -1  -3   11.04    1.18
  -4   1   3    9.81    1.11
  -4  -1   3    8.51    1.12
  -4   1  -3    8.98    1.10
  -5   1   3   11.72    1.41
  -5  -1  -3   15.37    1.55
  -5  -1   3   12.70    1.45
  -5   1  -3   15.12    1.50
   0  -2  -3  411.15    8.81
   0   2  -3  421.46    8.89
  -1  -2  -3   48.13    1.48
  -1   2   3   51.00    1.69
   1  -2  -3   47.93    1.27
  -1  -2   3   51.00    1.50
  -1  -2   3   43.66    2.06
  -2  -2  -3  237.97    5.24
  -2   2   3  247.67    7.11
  -2  -2  -3  235.03    5.95
  -2  -2   3  238.56    7.44
  -2   2  -3  231.11    5.90
  -2  -2   3  236.37    5.14
  -2  -2   3  229.01    5.89
  -3   2   3   -0.01    0.62
  -3  -2  -3    0.57    0.68
  -3  -2   3    1.24    0.69
  -3   2  -3    1.19    0.65
  -4  -2  -3   19.10    1.51
  -4   2   3   18.00    1.43
  -4   2  -3   17.38    1.43
  -4  -2   3   19.06    1.48
  -5   2   3    5.65    1.12
  -5  -2  -3    6.18    1.27
  -5   2  -3    5.56    1.16
  -5  -2   3    8.77    1.34
   0  -3  -3    9.14    0.69
  -1   3   3  154.90    4.40
  -1  -3  -3  147.75    3.55
  -1  -3   3  150.49    4.87
   1  -3  -3  149.23    3.41
  -2  -3  -3   71.95    2.05
  -2  -3   3   71.27    3.01
  -2  -3   3   72.28    2.00
   2  -3  -3   75.36    1.77
  -2  -3   3   76.31    2.33
  -3  -3  -3    1.33    0.62
  -3   3   3    0.43    0.69
  -3  -3  -3    1.96    0.79
  -3   3  -3    1.08    0.68
  -3  -3   3    2.41    0.75
  -4  -3  -3   75.47    2.97
  -4   3   3   79.70    2.89
  -4  -3   3   81.30    2.99
  -4   3  -3   79.77    2.85
   0  -4  -3   30.22    1.25
   0  -4   3   30.16    1.02
  -1  -4  -3  147.65    3.57
   1  -4  -3  144.54    3.41
  -1  -4   3  145.03    4.77
  -2  -4  -3   71.56    2.13
  -2  -4   3   72.03    3.10
  -2  -4   3   72.07    2.11
   2  -4  -3   73.16    1.86
  -3  -4  -3   27.99    1.34
  -3   4  -3   25.83    1.53
  -3  -4   3   26.38    1.25
  -4   4   3    8.08    1.17
  -4  -4   3    6.21    1.18
  -4   4  -3    5.34    1.01
   0  -5  -3    1.39    0.63
   0  -5   3    1.27    0.38
   0  -5   3    1.75    0.54
  -1  -5  -3    6.07    0.82
  -1  -5   3    6.26    0.83
  -1  -5   3    6.07    0.88
  -1  -5   3    5.71    0.42
   1  -5  -3    6.90    0.71
  -2  -5  -3    3.70    0.80
  -2  -5   3    3.87    1.04
  -2  -5   3    5.14    0.85
   2  -5  -3    5.15    0.61
  -3  -5  -3   22.51    1.35
  -3  -5   3   20.00    1.27
  -4   5   3   -0.15    0.84
  -4   5  -3    1.44    0.92
   0  -6   3   66.22    1.87
   0  -6   3   70.60    2.50
   0  -6  -3   67.18    2.21
  -1  -6  -3   50.62    1.42
  -1  -6  -3   48.96    1.95
  -1  -6   3   53.15    2.40
  -1  -6   3   49.04    1.44
  -1  -6   3   52.51    1.97
   1  -6  -3   50.24    1.77
  -2  -6  -3   38.59    1.78
   2  -6  -3   40.31    1.48
  -2  -6   3   36.34    1.74
  -3  -6  -3   39.43    1.79
  -3  -6   3   43.38    1.84
  -4   6   3   10.85    1.38
  -4   6  -3   16.60    1.53
   0  -7   3   67.72    2.34
   0  -7  -3   67.26    2.33
  -1  -7  -3    4.70    1.03
   1  -7  -3    4.59    0.85
  -1  -7   3    4.45    1.00
  -1  -7   3    4.43    0.92
  -2  -7  -3    7.23    1.12
  -2  -7   3    7.32    1.15
   2  -7  -3    6.87    0.86
  -3  -7  -3   35.32    1.81
  -3  -7   3   30.34    1.80
  -4   7  -3   10.38    1.40
   0  -8  -3  193.90    4.90
   0  -8   3  182.54    4.85
  -1  -8  -3   37.54    1.97
   1  -8   3   36.29    1.76
   1  -8  -3   35.69    1.71
  -1  -8   3   37.44    1.92
   2  -8   3  177.09    4.58
  -2  -8   3  186.11    4.91
   2  -8  -3  177.05    4.52
  -3  -8  -3    0.93    1.05
  -3  -8   3    1.47    1.04
   0  -9   3   -0.48    0.96
   0  -9  -3    1.43    1.00
   1  -9   3    2.49    1.01
  -1  -9  -3    3.49    1.17
   1  -9  -3    2.81    0.97
  -1  -9   3    2.54    1.14
   2  -9   3   19.24    1.46
  -2  -9  -3   18.02    1.71
  -2  -9   3   18.86    1.79
  -3  -9  -3    3.32    1.26
  -3  -9   3    4.79    1.29
   0 -10  -3   10.13    1.44
   0 -10   3   10.89    1.42
  -1 -10  -3   55.49    2.63
   1 -10   3   60.09    2.46
  -1 -10   3   55.83    2.56
   1 -10  -3   57.19    2.40
  -2 -10  -3   24.47    2.03
   2 -10   3   23.92    1.72
  -2 -10   3   23.77    1.99
   0 -11  -3   10.54    1.54
   0 -11   3    7.93    1.42
  -1 -11  -3    1.32    1.27
   1 -11   3   -0.75    1.10
   1 -11  -3    2.61    1.16
  -1 -11   3    2.97    1.37
   0   0  -4  701.06   14.70
   0   0  -4  693.23   14.31
  -1   0  -4  538.53   12.30
  -1   0   4  519.56   12.29
  -2   0   4  185.63    5.85
  -2   0   4  188.10    4.72
  -2   0  -4  181.62    4.72
  -3   0   4    1.77    0.68
  -3   0  -4    0.92    0.65
  -4   0  -4    4.44    0.90
  -4   0   4    4.11    0.93
  -5   0   4   34.99    2.05
  -5   0  -4   31.02    2.02
   0   1  -4  150.15    3.36
  -1  -1  -4  402.56    9.39
  -1  -1  -4  397.92    8.43
  -1   1  -4  405.76    9.34
  -1  -1   4  390.55    9.32
  -2   1   4    2.31    0.57
  -2  -1  -4    2.35    0.54
  -2   1   4    2.32    0.61
  -2  -1   4    2.35    0.73
  -2  -1   4    2.73    0.55
  -2   1  -4    2.39    0.52
  -3   1   4  126.29    3.63
  -3  -1  -4  122.43    3.65
  -3  -1   4  128.54    3.66
  -3  -1   4  129.14    4.58
  -3   1  -4  122.45    3.60
  -4   1   4   22.53    1.55
  -4  -1  -4   26.37    1.64
  -4   1  -4   24.75    1.61
  -4  -1   4   26.17    1.62
  -5   1   4   11.23    1.40
  -5  -1  -4   12.53    1.48
  -5  -1   4   10.39    1.40
  -5   1  -4   10.54    1.35
   0  -2  -4    3.02    0.52
   0   2  -4    3.56    0.42
  -1  -2  -4   46.58    1.12
  -1  -2  -4   45.74    1.43
   1  -2  -4   45.92    1.25
  -1  -2   4   44.84    1.42
  -2   2   4   56.08    2.17
  -2  -2  -4   58.07    1.93
  -2  -2  -4   56.47    1.68
  -2  -2   4   55.71    2.51
  -2   2  -4   59.14    1.89
  -2  -2   4   59.44    1.89
  -3   2   4   30.02    1.57
  -3  -2  -4   31.10    1.60
  -3  -2   4   26.15    1.98
  -3   2  -4   31.99    1.52
  -3  -2   4   31.59    1.57
  -4  -2  -4   17.34    1.46
  -4   2   4   15.53    1.37
  -4  -2   4   15.96    1.42
  -4   2  -4   14.34    1.29
  -5   2   4    1.65    0.95
  -5  -2  -4    2.82    1.11
  -5  -2   4    1.97    1.09
  -5   2  -4    1.74    1.00
   0  -3  -4  113.36    2.82
   0   3  -4  119.58    2.79
  -1  -3  -4   83.04    1.86
  -1  -3  -4   79.37    2.17
   1  -3  -4   80.51    2.01
  -1  -3   4   76.49    2.98
  -2   3   4  122.44    3.80
  -2  -3  -4  122.80    2.99
  -2  -3   4  118.23    3.32
  -2  -3   4  114.23    4.25
   2  -3  -4  119.21    2.70
  -2  -3   4  120.13    2.93
  -3  -3  -4    1.43    0.75
  -3   3  -4    0.65    0.69
  -3  -3   4    1.11    0.75
  -3  -3   4    1.81    0.94
  -4   3   4   13.21    1.34
  -4  -3  -4   15.20    1.49
  -4   3  -4   16.55    1.39
   0  -4  -4   39.29    1.45
   0  -4   4   42.25    1.24
  -1  -4  -4   69.38    2.02
  -1  -4   4   63.58    2.65
   1  -4  -4   66.93    1.85
  -2  -4  -4   37.13    1.51
  -2  -4   4   37.68    1.45
  -2  -4   4   36.57    2.20
   2  -4  -4   37.35    1.21
  -3  -4  -4   49.73    1.76
  -3   4  -4   53.38    2.12
  -4   4   4    1.98    0.92
  -4  -4   4    1.87    1.02
  -4   4  -4    3.60    0.92
   0  -5  -4   12.40    0.92
   0  -5   4   11.70    0.75
  -1  -5  -4  231.41    5.33
  -1  -5   4  230.59    7.13
  -1  -5   4  213.97    4.97
   1  -5  -4  229.42    5.17
  -2  -5  -4    6.23    0.90
   2  -5  -4    7.68    0.67
  -2  -5   4    7.43    0.91
  -2  -5   4    5.53    1.20
  -3  -5  -4   53.85    1.95
  -3  -5   4   56.24    1.94
  -4   5   4   21.41    1.74
  -4   5  -4   25.55    1.73
   0  -6  -4   48.52    1.87
   0  -6   4   54.80    2.18
  -1  -6  -4   30.03    1.56
   1  -6  -4   32.70    1.44
  -1  -6   4   32.91    1.61
  -1  -6   4   32.12    1.91
  -2  -6  -4   26.30    1.55
  -2  -6   4   28.62    1.62
   2  -6  -4   30.06    1.32
  -2  -6   4   29.73    2.15
  -3  -6  -4    7.94    1.05
  -3  -6   4    7.30    1.05
  -4   6  -4    2.59    1.01
   0  -7  -4   59.94    2.16
  -1  -7  -4   40.06    1.90
  -1  -7   4   40.41    2.18
  -1  -7   4   36.76    1.86
   1  -7  -4   38.64    1.68
  -2  -7  -4    4.87    1.08
  -2  -7   4    2.81    1.05
   2  -7  -4    4.01    0.78
  -3  -7  -4   40.43    1.96
  -3  -7   4   36.96    1.96
  -4   7  -4    5.32    1.22
   0  -8  -4    2.10    0.95
   0  -8   4    1.96    0.90
   1  -8   4    4.84    1.01
  -1  -8  -4    4.72    1.12
   1  -8  -4    5.77    0.95
  -1  -8   4    5.60    1.10
   2  -8   4    8.98    1.11
  -2  -8  -4    7.44    1.30
   2  -8  -4    8.58    1.01
  -2  -8   4   10.27    1.33
  -3  -8  -4    0.85    1.08
  -3  -8   4    3.00    1.10
   0  -9   4   90.45    3.07
   0  -9  -4   96.93    3.10
   1  -9   4   38.00    1.92
  -1  -9  -4   43.87    2.17
   1  -9  -4   36.81    1.85
  -1  -9   4   36.16    2.06
  -2  -9  -4   23.19    1.85
   2  -9   4   21.52    1.56
  -2  -9   4   24.86    1.84
  -3  -9  -4    6.43    1.38
  -3  -9   4    7.07    1.35
   0 -10  -4    1.37    1.10
   0 -10   4    2.62    1.15
   1 -10   4    6.89    1.27
  -1 -10  -4    5.57    1.32
  -1 -10   4    7.63    1.39
   1 -10  -4    5.14    1.16
  -2 -10  -4   10.23    1.60
   2 -10   4    6.49    1.22
  -2 -10   4    8.36    1.53
   0 -11   4    1.21    1.21
   0 -11  -4   -0.80    1.13
   1 -11   4   54.61    2.53
  -1 -11  -4   57.68    2.75
   1 -11  -4   51.14    2.44
  -1 -11   4   53.84    2.65
   0   0  -5   -0.54    0.33
   0   0  -5   -0.49    0.32
  -1   0   5  148.08    3.82
  -1   0  -5  159.15    3.83
  -1   0  -5  161.97    3.49
  -2   0   5   42.88    2.06
  -2   0  -5   46.67    1.59
  -2   0   5   44.44    1.58
  -3   0   5    1.48    0.82
  -3   0  -5    1.06    0.64
  -3   0   5    1.92    0.67
  -4   0   5   51.36    2.21
  -4   0  -5   51.27    2.20
  -5   0  -5    1.75    1.00
  -5   0   5    5.79    1.14
   0   1  -5  249.76    5.45
  -1  -1  -5  252.13    6.12
  -1  -1  -5  263.04    5.50
  -1  -1   5  250.56    6.05
  -1   1  -5  254.76    6.06
  -2  -1  -5   18.62    1.09
  -2   1   5   21.92    1.13
  -2   1   5   18.38    1.31
  -2  -1   5   20.45    1.55
  -2  -1   5   20.39    1.08
  -2   1  -5   20.55    1.05
  -3  -1  -5   16.28    1.24
  -3   1   5   16.88    1.21
  -3   1   5   13.50    1.29
  -3  -1   5   14.20    1.12
  -3   1  -5   13.62    1.09
  -3  -1   5   15.85    1.54
  -4   1   5   10.57    1.18
  -4  -1  -5   10.16    1.22
  -4  -1   5   10.10    1.19
  -4   1  -5   11.53    1.23
  -5  -1  -5    8.41    1.36
  -5   1   5    8.80    1.34
  -5   1  -5    9.78    1.33
  -5  -1   5   10.19    1.37
   0  -2  -5  447.74    9.46
   0   2  -5  442.32    9.55
  -1  -2  -5   33.35    0.94
  -1  -2  -5   32.58    1.24
   1  -2  -5   31.28    1.06
  -1  -2   5   32.41    1.14
  -2   2   5   80.99    2.82
  -2  -2  -5   79.37    2.43
  -2  -2   5   84.65    3.21
  -2  -2   5   76.58    2.34
  -2   2  -5   76.24    2.34
  -3  -2  -5    9.14    1.02
  -3   2   5    9.84    1.00
  -3  -2   5    8.13    1.27
  -3  -2   5    7.97    0.94
  -3   2  -5    8.82    0.94
  -4  -2  -5   12.03    1.35
  -4   2   5   13.80    1.29
  -4  -2   5   13.00    1.30
  -4   2  -5   12.20    1.23
  -5   2   5   29.27    1.94
  -5  -2  -5   29.22    2.09
  -5  -2   5   32.60    2.09
  -5   2  -5   29.51    1.95
   0   3  -5    2.31    0.43
   0  -3  -5    1.30    0.55
  -1  -3  -5   91.34    2.10
  -1  -3  -5   87.72    2.37
   1  -3  -5   87.49    2.21
  -2   3   5    2.57    0.54
  -2  -3  -5    2.40    0.62
  -2  -3   5    2.32    0.83
   2  -3  -5    1.66    0.38
  -2  -3   5    2.24    0.58
  -3  -3  -5   17.28    1.39
  -3   3  -5   15.49    1.26
  -3  -3   5   16.88    1.71
  -3  -3   5   16.74    1.33
  -4  -3  -5   21.59    1.69
  -4   3   5   21.97    1.59
  -4  -3   5   19.96    1.63
  -4   3  -5   21.18    1.50
   0  -4   5  267.58    5.82
   0  -4  -5  271.00    6.04
  -1  -4  -5    9.65    0.86
  -1  -4   5   12.33    1.17
   1  -4  -5   10.53    0.73
  -2  -4  -5    9.97    0.92
  -2   4   5   11.12    0.89
   2  -4  -5   10.27    0.77
  -2  -4   5   11.51    1.36
  -3  -4  -5   29.23    1.43
  -3  -4   5   27.76    2.21
  -3   4  -5   31.15    1.62
  -4   4   5    8.50    1.16
  -4  -4   5   10.52    1.32
  -4   4  -5    8.87    1.13
   0  -5   5  134.26    3.12
   0  -5  -5  129.91    3.36
  -1  -5  -5   44.63    1.68
  -1  -5   5   45.72    2.21
   1  -5  -5   42.30    1.53
  -2  -5  -5   42.78    1.77
  -2  -5   5   44.87    2.55
  -2  -5   5   48.22    1.83
   2  -5  -5   46.99    1.49
  -3  -5  -5    4.71    0.86
  -3  -5   5    1.47    1.16
  -3  -5   5    4.10    0.83
  -3   5  -5    6.04    0.97
  -4   5   5    8.18    1.26
  -4   5  -5    7.12    1.15
   0  -6  -5   25.63    1.39
  -1  -6  -5   59.83    2.13
   1  -6  -5   57.50    1.92
  -1  -6   5   59.18    2.66
  -2  -6  -5   33.96    1.69
  -2  -6   5   33.55    1.69
   2  -6  -5   34.25    1.40
  -2  -6   5   32.61    2.32
  -3  -6  -5   15.25    1.26
  -3  -6   5   16.55    1.31
  -4   6  -5   30.17    1.93
   0  -7  -5   79.31    2.54
  -1  -7  -5  109.58    3.23
   1  -7  -5  108.26    3.01
  -1  -7   5  107.41    3.99
  -1  -7   5  104.15    3.18
  -2  -7  -5   24.39    1.63
  -2  -7   5   22.66    2.11
   2  -7  -5   21.96    1.32
  -2  -7   5   24.17    1.64
  -3  -7  -5   48.21    2.12
  -3  -7   5   48.40    2.17
   0  -8  -5   36.59    1.83
  -1  -8  -5   22.05    1.68
  -1  -8   5   21.05    1.61
   1  -8  -5   22.16    1.44
  -2  -8  -5   48.73    2.27
  -2  -8   5   51.89    2.26
  -3  -8  -5   -0.62    1.00
  -3  -8   5    0.81    1.06
   0  -9   5   -0.93    0.94
   0  -9  -5    0.65    0.96
  -1  -9  -5   45.88    2.24
   1  -9   5   39.70    1.98
  -1  -9   5   41.43    2.13
   1  -9  -5   41.75    1.95
   2  -9   5    5.36    1.09
  -2  -9  -5    4.83    1.30
  -2  -9   5    4.21    1.21
  -3  -9  -5   25.04    1.95
  -3  -9   5   29.34    2.05
   0 -10  -5   18.28    1.64
   0 -10   5   20.40    1.68
   1 -10   5    7.11    1.28
  -1 -10  -5    7.95    1.44
  -1 -10   5   13.42    1.56
   1 -10  -5    9.68    1.30
  -2 -10  -5    1.70    1.34
   2 -10   5    0.81    1.05
  -2 -10   5    1.03    1.21
   0 -11   5   35.12    2.21
   0 -11  -5   36.92    2.21
   0   0  -6  894.58   18.57
   0   0  -6  863.05   18.06
  -1   0  -6   35.40    1.15
  -1   0   6   32.66    1.14
  -1   0  -6   35.82    1.08
  -2   0   6  695.76   19.86
  -2   0   6  679.10   16.08
  -2   0  -6  680.22   16.09
  -3   0   6   61.33    2.73
  -3   0  -6   55.87    2.11
  -3   0   6   58.38    2.14
  -4   0   6   47.93    2.13
  -4   0  -6   43.98    2.06
  -5   0  -6   -0.51    0.94
  -5   0   6    2.90    1.06
   0   1  -6    2.62    0.41
   0   1  -6    1.42    0.37
  -1  -1  -6    1.99    0.32
  -1  -1  -6    1.18    0.32
  -1  -1   6    1.63    0.35
  -1   1  -6    1.59    0.40
  -1   1  -6    2.38    0.38
  -2  -1  -6  115.42    3.25
  -2   1   6  118.29    4.01
  -2   1   6  118.82    3.24
  -2  -1   6  121.21    4.20
  -2   1  -6  123.91    3.23
  -2  -1   6  114.57    3.20
  -3   1   6   49.16    1.91
  -3   1   6   47.55    2.36
  -3  -1  -6   46.26    1.94
  -3   1  -6   46.45    1.91
  -3  -1   6   51.20    2.59
  -3  -1   6   49.06    1.95
  -4   1   6   27.54    1.67
  -4  -1  -6   30.43    1.77
  -4   1  -6   28.76    1.68
  -4  -1   6   26.48    1.68
  -5   1   6    3.44    1.10
  -5  -1  -6    4.28    1.18
  -5  -1   6    4.50    1.10
  -5   1  -6    3.86    1.07
   0   2  -6  147.90    3.41
   0  -2  -6  146.16    3.43
  -1  -2  -6  167.26    3.56
  -1  -2  -6  172.08    3.74
  -1  -2   6  162.45    4.09
  -2  -2  -6   29.27    1.36
  -2   2   6   30.63    1.56
  -2  -2   6   27.27    1.80
  -2   2  -6   28.90    1.26
  -2  -2   6   30.88    1.30
  -3  -2  -6   51.69    2.12
  -3   2   6   55.26    2.40
  -3   2   6   54.10    2.08
  -3  -2   6   54.19    2.78
  -3  -2   6   51.76    2.04
  -3   2  -6   53.31    2.01
  -4   2   6   38.11    1.93
  -4  -2  -6   36.79    2.02
  -4  -2   6   38.02    1.96
  -4   2  -6   35.60    1.87
   0  -3  -6   71.96    2.01
   0   3  -6   72.65    1.93
  -1  -3  -6   97.88    2.64
  -1  -3  -6  104.17    2.25
  -1  -3  -6  105.01    2.41
   1  -3  -6   99.47    2.50
  -2  -3  -6    0.44    0.63
  -2   3   6    0.70    0.49
  -2  -3   6    1.56    0.84
  -2  -3   6    1.28    0.57
  -2   3  -6    0.80    0.56
  -3   3  -6   14.19    1.13
  -3  -3   6   13.48    1.20
  -3  -3   6    9.58    1.48
  -4  -3  -6    1.67    0.96
  -4   3   6    0.76    0.82
  -4  -3   6   -0.26    0.83
  -4   3  -6   -0.33    0.76
   0   4  -6  166.07    3.94
   0  -4   6  168.69    3.80
   0  -4  -6  166.79    3.99
  -1  -4  -6  136.54    3.44
   1  -4  -6  135.24    3.28
  -2   4   6   20.74    1.16
  -2  -4  -6   22.93    1.30
  -2  -4   6   20.70    1.86
   2  -4  -6   21.29    0.97
  -3  -4   6   79.55    3.66
  -3   4  -6   75.59    2.65
  -4   4   6   25.40    1.77
  -4   4  -6   26.29    1.69
  -4  -4   6   29.28    1.91
   0  -5  -6    0.55    0.63
   0  -5   6    0.27    0.38
  -1  -5  -6   40.74    1.67
   1  -5  -6   39.16    1.48
  -1  -5   6   41.25    2.20
  -2  -5  -6   27.84    1.50
   2  -5  -6   31.54    1.24
  -2  -5   6   27.28    2.14
  -3  -5  -6   31.12    1.58
  -3   5  -6   37.15    1.82
  -3  -5   6   33.50    2.45
  -4   5   6   52.06    2.46
  -4   5  -6   49.24    2.29
   0  -6  -6  196.30    4.80
  -1  -6  -6    0.41    0.79
   1  -6  -6    1.20    0.66
  -1  -6   6    0.31    0.79
  -2  -6  -6  141.93    3.88
  -2  -6   6  150.27    3.87
  -2  -6   6  144.86    5.33
   2  -6  -6  140.15    3.55
  -3  -6  -6   26.18    1.56
  -3  -6   6   25.28    1.52
  -3  -6   6   22.71    2.27
  -4   6  -6   20.40    1.72
   0  -7  -6   21.46    1.45
  -1  -7  -6    0.13    0.89
   1  -7  -6    1.00    0.74
  -1  -7   6    0.09    0.79
  -2  -7  -6   44.32    2.08
   2  -7  -6   41.62    1.71
  -2  -7   6   46.10    2.04
  -2  -7   6   47.48    2.74
  -3  -7  -6   13.06    1.34
  -3  -7   6   14.05    1.35
   0  -8  -6   -0.45    0.85
  -1  -8  -6   41.28    2.04
   1  -8  -6   42.38    1.84
  -1  -8   6   38.85    1.98
  -2  -8  -6    3.54    1.13
  -2  -8   6    1.84    1.08
  -2  -8   6    1.15    1.02
  -3  -8  -6    5.98    1.24
  -3  -8   6    5.28    1.27
   0  -9  -6   -1.53    0.92
   0  -9   6    0.19    0.96
  -1  -9  -6    6.53    1.26
   1  -9  -6    6.23    1.10
  -1  -9   6    5.87    1.23
  -2  -9  -6   12.57    1.54
   2  -9   6   11.92    1.31
  -2  -9   6   13.18    1.48
   0 -10  -6   43.21    2.22
   0 -10   6   43.09    2.19
  -1 -10  -6   22.74    1.90
   1 -10   6   22.22    1.76
   1 -10  -6   25.57    1.72
  -1 -10   6   23.38    1.85
  -2 -10  -6   14.52    1.73
   2 -10   6   16.14    1.56
  -2 -10   6   14.69    1.65
   0 -11   6    1.35    1.21
   0 -11  -6    1.74    1.22
   0   0  -7    0.14    0.36
   0   0  -7   -0.25    0.36
  -1   0  -7    8.09    0.52
  -1   0   7    7.42    0.53
  -1   0  -7    8.27    0.55
  -1   0  -7    6.99    0.52
  -2   0   7   12.29    1.19
  -2   0   7   18.64    1.04
  -2   0  -7   17.32    1.02
  -3   0   7    9.91    1.25
  -3   0   7    9.64    0.98
  -3   0  -7   10.03    1.01
  -4   0   7   41.72    2.01
  -4   0  -7   40.84    2.02
   0   1  -7   94.87    2.35
   0   1  -7   94.11    2.26
  -1  -1  -7  139.94    3.19
  -1  -1  -7  138.64    3.06
  -1   1  -7  136.17    3.23
  -1   1  -7  141.10    3.42
  -1  -1   7  136.94    3.40
  -2  -1  -7  154.57    4.16
  -2   1   7  151.11    5.09
  -2   1   7  155.70    4.13
  -2  -1   7  166.89    5.34
  -2   1  -7  156.80    4.10
  -2  -1   7  162.37    4.10
  -3   1   7   50.02    2.42
  -3   1   7   47.10    1.93
  -3  -1  -7   49.17    2.00
  -3   1  -7   46.09    1.94
  -3  -1   7   51.27    2.54
  -3  -1   7   51.00    1.98
  -4   1   7    5.46    1.01
  -4  -1  -7    6.16    1.10
  -4   1  -7    7.25    1.04
  -4  -1   7    7.02    1.06
   0   2  -7   29.82    1.07
   0   2  -7   27.90    1.02
  -1  -2  -7   27.10    0.88
   1   2  -7   28.25    1.07
  -1  -2  -7   27.74    0.97
  -1   2  -7   27.48    1.02
  -2   2   7   14.96    1.22
  -2  -2   7   12.10    1.33
  -2  -2   7   14.62    0.97
  -2   2  -7   15.37    0.99
  -3   2   7   71.73    2.50
  -3  -2  -7   73.49    2.58
  -3   2   7   71.67    2.91
  -3  -2   7   70.36    3.27
  -3  -2   7   71.59    2.47
  -3   2  -7   71.02    2.44
  -4   2   7   12.23    1.29
  -4  -2  -7    9.99    1.28
  -4  -2   7   11.00    1.28
  -4   2  -7   14.13    1.28
   0  -3  -7    1.72    0.58
   0   3  -7    0.84    0.41
  -1  -3  -7  406.54    8.31
  -1  -3  -7  402.28    8.62
   1   3  -7  389.92    8.69
  -1  -3  -7  398.60    8.74
   1  -3  -7  400.76    8.60
  -2   3   7    7.54    0.79
  -2  -3   7    7.33    1.20
  -2  -3   7    8.10    0.80
  -2   3  -7    7.79    0.77
  -3   3   7  119.60    3.99
  -3  -3   7  110.52    3.49
  -3  -3   7  118.99    4.61
  -3   3  -7  107.53    3.39
  -4   3   7   27.34    1.74
  -4   3  -7   25.40    1.66
  -4  -3   7   27.40    1.81
   0  -4  -7   28.97    1.32
   0   4  -7   28.41    1.19
   0  -4   7   30.62    1.13
  -1  -4  -7   38.55    1.55
  -1  -4  -7   37.15    1.21
  -1  -4  -7   38.78    1.06
   1  -4  -7   36.09    1.35
  -2  -4  -7    8.49    0.93
  -2   4   7   10.04    0.94
  -2  -4   7   10.47    1.38
  -3   4  -7   56.39    2.16
  -3  -4   7   51.44    2.99
  -4   4   7   12.75    1.38
  -4   4  -7    9.62    1.17
  -4  -4   7   12.12    1.38
   0  -5  -7   42.73    1.65
  -1  -5  -7   32.64    1.55
  -1  -5  -7   33.87    1.01
   1  -5  -7   35.08    1.40
  -1  -5   7   29.78    1.95
  -2  -5  -7   89.39    2.71
   2  -5  -7   90.23    2.41
  -2  -5   7   90.84    3.83
  -3  -5   7   11.15    1.63
  -3   5  -7    9.00    1.10
  -4   5   7    4.19    1.12
  -4   5  -7    5.48    1.05
   0  -6  -7   -0.33    0.73
  -1  -6  -7    2.41    0.88
  -1  -6   7    2.71    0.93
   1  -6  -7    2.34    0.71
  -2  -6  -7    7.15    1.10
  -2  -6   7    9.45    1.43
   2  -6  -7    8.14    0.84
  -3  -6  -7    1.78    0.92
  -3   6  -7    2.39    0.92
  -3  -6   7    2.43    1.26
  -4   6  -7   38.08    2.12
   0  -7  -7   57.97    2.17
  -1  -7  -7   66.45    2.38
  -1  -7   7   56.53    2.84
   1  -7  -7   64.78    2.15
  -2  -7  -7   63.19    2.41
  -2  -7   7   59.20    2.34
  -2  -7   7   63.85    3.25
  -3  -7  -7   40.85    2.00
  -3  -7   7   43.37    2.92
   0  -8  -7    4.63    1.03
  -1  -8  -7   11.63    1.36
   1  -8  -7    8.85    1.08
  -2  -8  -7   35.47    1.99
  -2  -8   7   29.70    1.85
  -2  -8   7   33.24    2.49
  -3  -8  -7   24.17    1.81
   0  -9  -7   -0.09    0.98
  -1  -9  -7   64.14    2.63
  -1  -9   7   60.28    2.54
   1  -9  -7   62.65    2.37
  -2  -9  -7    4.11    1.30
  -2  -9   7    5.84    1.24
   0 -10   7    7.19    1.36
   0 -10  -7    8.92    1.38
  -1 -10  -7    4.74    1.33
   1 -10   7    2.87    1.19
   1 -10  -7    5.36    1.13
  -1 -10   7    3.31    1.21
   0   0  -8  691.15   14.70
   0   0  -8  686.50   14.29
  -1   0  -8   -0.51    0.34
  -1   0  -8    0.80    0.37
  -1   0  -8    0.36    0.35
  -1   0   8    0.00    0.34
  -2   0   8   25.35    1.66
  -2   0   8   23.75    1.16
  -2   0  -8   22.75    1.18
  -3   0   8   17.08    1.24
  -3   0  -8   13.66    1.13
  -3   0   8   14.08    1.44
  -4   0   8   45.84    2.51
  -4   0  -8   35.67    1.94
  -4   0   8   38.73    1.98
   0   1  -8   -0.08    0.39
   0   1  -8    0.81    0.40
  -1  -1  -8  194.21    4.26
  -1  -1  -8  197.32    4.43
  -1   1  -8  199.75    4.73
  -1  -1   8  192.01    4.70
  -1   1  -8  198.32    4.48
  -2   1   8   16.73    1.07
  -2   1   8   13.19    1.32
  -2  -1  -8   17.15    1.07
  -2  -1   8   14.70    1.38
  -2  -1   8   15.71    0.99
  -2   1  -8   15.55    1.02
  -3   1   8   85.83    3.32
  -3  -1  -8   81.41    2.74
  -3   1   8   78.36    2.66
  -3   1  -8   80.79    2.68
  -3  -1   8   83.94    3.50
  -3  -1   8   82.19    2.69
  -4  -1  -8   51.36    2.29
  -4   1   8   48.81    2.17
  -4  -1   8   49.47    2.76
  -4   1  -8   48.31    2.17
  -4  -1   8   46.89    2.17
   0   2  -8   95.49    2.32
   0   2  -8   92.93    2.39
  -1  -2  -8   86.44    2.09
  -1  -2  -8   90.35    2.22
   1   2  -8   91.15    2.30
  -1   2  -8   86.88    2.29
  -1   2  -8   86.50    2.30
  -2   2   8   55.15    2.33
  -2  -2   8   55.26    2.69
  -2  -2   8   56.57    1.87
  -2   2  -8   59.57    1.87
  -3  -2  -8   43.40    1.98
  -3   2   8   44.15    1.92
  -3   2   8   45.66    2.23
  -3   2  -8   49.79    1.92
  -3  -2   8   46.29    2.59
  -3  -2   8   45.84    1.91
  -4   2   8   12.43    1.30
  -4  -2  -8   13.91    1.44
  -4  -2   8   12.73    1.68
  -4   2  -8   12.87    1.30
  -4  -2   8   13.29    1.33
   0  -3  -8   58.06    1.82
   0   3  -8   59.30    1.64
   0   3  -8   56.49    1.71
  -1  -3  -8    0.55    0.32
  -1  -3  -8    0.67    0.37
   1   3  -8    0.59    0.38
  -2   3   8  168.65    5.28
  -2   3  -8  164.42    4.36
  -2  -3   8  167.11    5.81
  -2  -3   8  168.29    4.40
  -3   3   8   57.16    2.46
  -3   3  -8   58.37    2.17
  -3  -3   8   57.38    3.01
  -3  -3   8   59.25    2.27
  -4   3   8    0.83    0.88
  -4  -3   8    1.60    1.08
  -4   3  -8    1.45    0.83
  -4  -3   8    2.81    1.01
   0   4  -8  111.67    2.90
   0  -4  -8  117.09    2.99
   0  -4   8  117.47    2.80
   0   4  -8  109.38    2.78
  -1  -4  -8   58.80    1.52
  -1  -4  -8   58.56    1.95
  -1  -4  -8   59.17    1.68
   1  -4  -8   59.60    1.80
  -2  -4  -8  106.04    2.98
  -2   4   8  109.79    3.52
  -2  -4   8  102.04    4.15
  -2   4  -8  104.84    3.05
  -3  -4   8   38.01    2.56
  -3   4  -8   37.62    1.77
  -4   4   8   11.08    1.36
  -4  -4   8    8.62    1.58
  -4   4  -8   11.97    1.28
   0  -5  -8    0.66    0.69
  -1  -5  -8   46.82    1.33
  -1  -5  -8   46.14    1.84
   1  -5  -8   49.63    1.68
  -2  -5  -8   27.93    1.57
   2  -5  -8   32.43    1.31
  -2  -5   8   31.61    2.26
  -3  -5   8   25.64    2.33
  -3   5  -8   25.05    1.59
  -4   5   8   18.03    1.67
  -4   5  -8   20.68    1.66
   0  -6  -8  117.68    3.28
  -1  -6  -8   -0.70    0.81
  -1  -6  -8    0.44    0.38
   1  -6  -8   -0.24    0.67
  -1  -6   8   -0.36    0.82
  -2  -6  -8   38.09    1.85
  -2  -6   8   36.81    2.50
  -3  -6  -8    9.14    1.20
  -3  -6   8   11.09    1.71
  -3   6  -8   13.12    1.30
  -4   6  -8   23.59    1.77
   0  -7  -8    1.37    0.87
  -1  -7  -8   31.91    1.77
  -1  -7   8   31.42    2.23
   1  -7  -8   29.17    1.55
  -2  -7  -8    5.90    1.13
  -2  -7   8    4.29    1.03
  -2  -7   8    5.35    1.28
  -3  -7  -8   19.17    1.57
  -3  -7   8   22.91    2.33
   0  -8  -8   11.80    1.27
  -1  -8  -8   41.65    2.10
   1  -8  -8   39.14    1.83
  -2  -8  -8    3.63    1.18
  -2  -8   8    4.46    1.30
  -2  -8   8    4.23    1.12
  -3  -8  -8   28.81    1.92
   0  -9  -8   10.16    1.29
  -1  -9  -8   13.52    1.49
   1  -9  -8   11.75    1.26
  -1  -9   8   11.06    1.39
  -2  -9  -8   23.80    1.93
  -2  -9   8   24.02    1.80
   0 -10   8   25.80    1.90
   0 -10  -8   31.47    1.97
  -1 -10  -8   19.66    1.82
  -1 -10   8   13.96    1.58
   1 -10  -8   17.63    1.53
   0   0  -9    0.61    0.40
   0   0  -9    1.23    0.42
  -1   0  -9   48.27    1.48
  -1   0  -9   50.20    1.41
  -1   0   9   49.18    1.46
  -2   0  -9    3.65    0.63
  -2   0   9    4.71    0.64
  -3   0  -9   34.54    1.70
  -3   0   9   36.30    1.68
  -3   0   9   36.91    2.20
  -4   0   9    1.85    0.88
  -4   0  -9    1.37    0.89
  -4   0   9    2.89    1.09
   0   1  -9  101.01    2.48
   0   1  -9   99.98    2.58
   0  -1  -9  100.31    2.47
  -1  -1  -9   39.24    1.26
  -1  -1  -9   38.98    1.20
  -1  -1   9   37.10    1.15
  -1   1  -9   39.35    1.19
  -1   1  -9   37.51    1.28
  -1   1  -9   37.79    1.21
  -2   1   9   49.58    1.73
  -2  -1  -9   48.78    1.76
  -2   1  -9   46.39    1.67
  -2  -1   9   47.02    1.65
  -3   1   9   14.80    1.21
  -3   1   9   12.92    1.36
  -3  -1  -9   16.64    1.29
  -3  -1   9   15.40    1.24
  -3   1  -9   16.12    1.25
  -3  -1   9   15.64    1.66
  -4   1   9   27.63    2.03
  -4  -1  -9   25.59    1.77
  -4   1   9   26.79    1.71
  -4   1  -9   25.90    1.67
  -4  -1   9   28.80    1.71
  -4  -1   9   29.30    2.20
   0   2  -9  249.63    5.62
   0   2  -9  247.11    5.45
   1   2  -9   39.91    1.35
  -1  -2  -9   39.68    1.29
  -1  -2  -9   38.52    1.19
  -1   2  -9   37.84    1.33
  -1   2  -9   38.76    1.22
  -2  -2   9  136.92    4.85
  -2  -2   9  131.25    3.56
  -2   2  -9  134.46    3.59
  -3   2   9   13.27    1.31
  -3  -2  -9   12.85    1.20
  -3   2   9   14.63    1.23
  -3  -2   9   12.33    1.55
  -3  -2   9   14.89    1.18
  -3   2  -9   13.36    1.13
  -4  -2  -9   38.17    2.12
  -4   2   9   38.70    2.00
  -4  -2   9   41.72    2.62
  -4   2  -9   36.58    1.95
  -4  -2   9   38.85    2.00
   0   3  -9    7.01    0.60
   0   3  -9    6.82    0.62
  -1  -3  -9  149.78    3.35
   1   3  -9  146.22    3.60
  -1  -3  -9  150.59    3.53
  -1   3  -9  150.40    3.73
  -2   3   9   44.41    2.02
  -2  -3   9   40.95    2.40
  -2   3  -9   46.52    1.65
  -3   3   9   50.81    2.26
  -3  -3   9   44.87    2.68
  -3   3  -9   45.38    1.92
  -3  -3   9   48.87    2.05
  -4   3   9   28.07    1.81
  -4   3  -9   30.55    1.81
  -4  -3   9   26.25    2.30
  -4  -3   9   27.78    1.86
   0   4  -9   90.18    2.51
   0  -4  -9   96.52    2.61
  -1  -4  -9   76.82    2.34
  -1  -4  -9   72.56    2.02
  -1  -4  -9   72.37    1.86
  -2   4   9   72.56    2.63
  -2  -4   9   69.61    3.26
  -2   4  -9   70.56    2.30
  -3   4  -9    5.91    0.91
  -3  -4   9    4.26    1.22
  -4   4   9   19.49    1.69
  -4  -4   9   27.18    2.34
  -4   4  -9   23.17    1.67
   0  -5  -9   20.89    1.33
   0   5  -9   21.00    1.16
  -1  -5  -9    5.01    0.52
  -1  -5  -9    3.87    0.89
   1  -5  -9    6.37    0.79
  -2  -5  -9    4.46    0.97
  -2  -5   9    5.96    1.25
  -3  -5   9   29.31    2.37
  -3   5  -9   31.89    1.72
  -4   5   9    8.09    1.37
  -4  -5   9    7.41    1.58
  -4   5  -9    7.20    1.15
   0  -6  -9   15.05    1.21
  -1  -6  -9   63.02    1.71
  -1  -6  -9   65.02    2.32
   1  -6  -9   65.39    2.13
  -1  -6   9   63.88    2.97
  -2  -6  -9   13.81    1.32
  -2  -6   9   16.14    1.77
  -3   6  -9   26.60    1.73
  -3  -6   9   30.42    2.53
   0  -7  -9   13.26    1.23
  -1  -7  -9   10.26    1.25
   1  -7  -9   11.49    1.11
  -1  -7   9   13.34    1.49
  -2  -7  -9   20.22    1.59
  -2  -7   9   22.00    2.11
  -3  -7  -9    4.28    1.14
  -3  -7   9    6.66    1.55
  -1  -8  -9    8.31    1.30
  -1  -8   9    7.00    1.28
   1  -8  -9    6.70    1.05
  -2  -8  -9   52.28    2.39
  -2  -8   9   48.71    2.98
  -2  -8   9   49.84    2.24
  -3  -8  -9   14.51    1.58
  -3  -8   9   12.87    1.97
   0  -9  -9   -0.55    0.99
  -1  -9  -9    8.28    1.39
   1  -9  -9    8.03    1.20
  -2  -9  -9   10.07    1.51
  -2  -9   9    8.26    1.35
   0 -10  -9   15.87    1.59
  -1 -10  -9   28.71    2.05
  -1 -10   9   23.01    1.83
   1 -10  -9   21.58    1.69
   0   0 -10  161.41    3.80
   0   0 -10  156.62    3.66
  -1   0 -10    0.06    0.38
  -1   0  10    0.08    0.34
  -1   0 -10   -0.77    0.37
  -2   0 -10    0.63    0.54
  -2   0  10    0.49    0.50
  -3   0  10   77.26    2.58
  -3   0  10   76.62    3.36
  -3   0 -10   76.13    2.62
  -4   0  10    1.64    1.06
  -4   0  10    1.59    0.87
  -4   0 -10    1.78    0.92
   0   1 -10   44.73    1.54
   0   1 -10   47.15    1.46
   0  -1 -10   47.43    1.46
  -1  -1 -10  208.30    4.61
  -1  -1 -10  208.99    4.78
  -1  -1  10  206.72    4.97
  -1   1 -10  210.43    4.65
  -1   1 -10  209.97    4.81
  -1   1 -10  208.15    5.00
  -2   1  10   35.99    1.50
  -2  -1  10   36.96    1.43
  -2   1 -10   36.86    1.43
  -3   1  10   24.31    1.44
  -3  -1 -10   24.59    1.54
  -3   1  10   24.39    1.81
  -3   1 -10   25.70    1.46
  -3  -1  10   24.29    2.00
  -3  -1  10   22.56    1.41
  -4   1  10    0.18    0.89
  -4   1  10    0.63    0.80
  -4  -1 -10   -1.32    0.83
  -4  -1  10    0.72    0.80
  -4   1 -10   -0.10    0.82
  -4  -1  10    1.51    1.10
   0   2 -10    1.55    0.45
   0   2 -10    1.73    0.45
  -1  -2 -10    5.24    0.54
  -1  -2 -10    7.52    0.62
   1   2 -10    6.87    0.63
  -1   2 -10    6.87    0.48
  -1   2 -10    5.71    0.60
  -2   2 -10   11.60    0.97
  -2  -2  10   11.99    0.95
  -3   2  10    1.11    0.73
  -3   2  10    1.44    0.84
  -3   2 -10    0.32    0.70
  -3  -2  10    1.17    0.72
  -3  -2  10    1.39    1.06
  -4   2  10   20.40    1.80
  -4   2  10   21.09    1.61
  -4   2 -10   23.84    1.62
  -4  -2  10   21.48    2.10
  -4  -2  10   20.98    1.63
   0   3 -10  228.09    5.25
   0   3 -10  222.71    5.05
  -1  -3 -10    9.90    0.71
  -1  -3 -10    9.31    0.70
  -1   3 -10   10.12    0.78
  -1   3 -10   10.92    0.71
  -2   3 -10    2.75    0.61
  -2  -3  10    2.81    1.01
  -3   3  10   17.35    1.50
  -3  -3  10   17.25    1.83
  -3   3 -10   17.96    1.31
  -3  -3  10   16.18    1.30
  -4   3  10   19.55    1.62
  -4  -3  10   23.17    2.24
  -4   3 -10   21.89    1.65
   0   4 -10    7.63    0.72
  -1  -4 -10   23.12    1.09
  -1  -4 -10   25.73    0.99
  -2   4 -10    9.75    0.88
  -2  -4  10    6.44    1.25
  -3  -4  10    1.51    1.06
  -3   4 -10    1.98    0.80
  -4   4  10   27.63    1.91
  -4   4 -10   30.76    1.85
  -4  -4  10   28.29    2.44
   0  -5 -10   35.36    1.59
   0   5 -10   32.35    1.44
  -1  -5 -10  186.71    4.59
  -1  -5 -10  177.59    4.05
  -1  -5 -10  175.08    4.27
   1  -5 -10  182.88    4.41
  -2   5 -10    9.96    0.98
  -2  -5  10    9.60    1.45
  -3   5 -10   61.91    2.35
  -3  -5  10   58.16    3.23
  -4   5  10   -1.92    0.85
  -4   5 -10    0.42    0.90
  -4  -5  10    0.51    1.23
   0  -6 -10   10.25    1.10
  -1  -6 -10    8.29    0.63
  -1  -6 -10    8.25    1.11
   1  -6 -10    4.48    0.85
  -2  -6 -10    2.67    1.01
  -2  -6  10    5.51    1.29
  -3  -6  10   30.51    2.50
   0  -7 -10   33.23    1.75
  -1  -7 -10   46.19    2.11
   1  -7 -10   44.13    1.90
  -1  -7  10   48.15    2.70
  -2  -7 -10   32.73    1.90
  -2  -7  10   32.98    2.42
  -3  -7  10    8.46    1.71
   0  -8 -10    0.91    0.96
  -1  -8 -10    1.96    1.11
  -1  -8  10    1.91    1.06
   1  -8 -10    3.08    0.96
  -2  -8 -10   12.95    1.50
  -2  -8  10   14.38    1.79
  -2  -8  10   12.62    1.39
   0  -9 -10   61.22    2.52
  -1  -9 -10   12.43    1.52
   1  -9 -10   11.93    1.32
  -2  -9 -10   25.00    1.99
  -2  -9  10   24.16    1.83
   0 -10 -10    0.48    1.10
  -1 -10 -10    5.15    1.37
  -1 -10  10    3.78    1.21
   1 -10 -10    4.02    1.19
   0   0 -11    0.17    0.42
   0   0 -11   -0.09    0.41
  -1   0  11  146.29    3.62
  -1   0 -11  149.03    3.57
  -1   0 -11  145.46    3.41
  -2   0  11   29.74    1.30
  -2   0 -11   28.88    1.34
  -3   0 -11   44.80    1.97
  -3   0  11   44.17    1.87
  -3   0  11   49.74    2.61
  -4   0  11    1.39    0.86
  -4   0 -11    0.90    0.95
  -4   0  11    2.03    1.13
   0   1 -11    0.31    0.42
   0   1 -11    0.68    0.42
   0  -1 -11    0.25    0.43
   0  -1 -11    0.16    0.44
   1   1 -11   25.24    1.14
  -1  -1 -11   22.04    1.04
  -1  -1 -11   22.26    0.99
  -1   1 -11   21.83    1.07
  -1  -1  11   22.51    0.80
  -1   1 -11   22.23    1.01
  -2   1  11   24.99    1.31
  -2   1 -11   26.36    1.25
  -2  -1  11   25.89    1.23
  -3  -1 -11   18.23    1.46
  -3   1  11   18.11    1.80
  -3   1  11   19.13    1.37
  -3  -1  11   21.45    1.39
  -3   1 -11   21.61    1.41
  -3  -1  11   19.00    1.90
  -4   1  11   22.63    1.62
  -4  -1 -11   21.89    1.76
  -4   1  11   23.96    2.02
  -4  -1  11   24.90    2.17
  -4  -1  11   23.69    1.62
  -4   1 -11   24.81    1.67
   0   2 -11  106.83    2.78
   0   2 -11  105.76    2.67
   0  -2 -11  106.74    2.67
   1   2 -11   11.71    0.81
  -1  -2 -11   11.15    0.85
  -1  -2 -11   10.63    0.80
  -1   2 -11   10.69    0.62
  -1   2 -11   11.16    0.83
  -1   2 -11   10.91    0.78
  -2  -2 -11  126.51    3.00
  -2  -2  11  123.37    3.40
  -2   2 -11  129.76    3.44
  -3   2  11   18.29    1.65
  -3   2  11   17.41    1.35
  -3   2 -11   17.07    1.33
  -3  -2  11   18.79    1.34
  -3  -2  11   16.85    1.84
  -4   2  11   20.66    1.83
  -4   2  11   19.02    1.57
  -4  -2  11   23.31    2.17
  -4   2 -11   19.66    1.55
   0   3 -11    1.34    0.50
  -1  -3 -11   12.26    0.81
  -1  -3 -11   11.63    0.81
  -1   3 -11   12.45    0.87
  -1   3 -11   10.92    0.70
  -2  -3 -11    5.53    0.51
  -2   3 -11    5.74    0.70
  -3   3  11   23.38    1.70
  -3  -3  11   24.00    2.10
  -3   3 -11   26.97    1.53
  -4   3  11   11.98    1.33
  -4  -3  11    9.72    1.68
  -4   3 -11   10.94    1.26
   0   4 -11   48.10    1.70
  -1  -4 -11   25.18    1.16
  -1  -4 -11   26.23    1.08
  -2  -4  11  100.35    4.20
  -2   4 -11  103.00    2.95
  -3   4 -11    2.93    0.85
  -3  -4  11    3.13    1.25
  -4   4  11   10.90    1.36
  -4  -4  11   10.92    1.80
   0  -5 -11   66.23    2.27
  -1  -5 -11   -0.09    0.45
  -1  -5 -11   -0.19    0.48
  -2  -5  11    9.27    1.45
  -3  -5  11   28.01    2.40
  -4   5  11   11.55    1.50
  -4  -5  11   12.30    1.91
   0  -6 -11   12.30    1.17
  -1  -6 -11   57.67    1.66
  -1  -6 -11   56.90    1.83
  -1  -6 -11   56.78    2.23
   1  -6 -11   54.75    2.05
  -2  -6  11   18.66    1.91
  -3  -6  11   24.06    2.31
   0  -7 -11    0.87    0.93
  -1  -7 -11   40.34    1.34
  -1  -7 -11   44.28    2.05
  -1  -7  11   38.75    2.50
   1  -7 -11   42.77    1.85
  -2  -7 -11   22.24    1.70
  -2  -7  11   25.95    2.29
  -3  -7  11    8.84    1.71
   0  -8 -11   33.32    1.88
  -1  -8 -11   -0.38    1.01
   1  -8 -11    1.84    0.93
  -1  -8  11    0.31    1.01
  -2  -8 -11   30.64    2.01
  -2  -8  11   31.50    2.51
   0  -9 -11    1.06    1.07
  -1  -9 -11   17.84    1.69
   1  -9 -11   17.99    1.51
  -2  -9 -11    2.93    1.31
  -2  -9  11    3.01    1.16
   0 -10 -11    1.02    1.13
   0   0 -12  175.28    4.22
   0   0 -12  173.29    4.06
  -1   0  12   40.83    1.27
  -1   0 -12   42.32    1.38
  -1   0 -12   40.41    1.45
  -2   0  12   93.77    2.69
  -3   0  12   17.32    1.30
  -3   0  12   16.14    1.72
  -3   0 -12   18.76    1.42
  -4   0 -12   17.27    1.57
  -4   0  12   16.91    1.88
   0  -1 -12   48.67    1.56
   0  -1 -12   48.74    1.65
   0   1 -12   46.38    1.63
   0   1 -12   46.19    1.53
  -1  -1 -12    1.37    0.50
   1   1 -12    1.20    0.53
  -1  -1 -12    1.06    0.47
  -1   1 -12    1.29    0.51
  -1   1 -12    1.61    0.49
  -2  -1 -12    7.08    0.64
  -2   1  12    7.97    0.82
  -2   1 -12    7.40    0.77
  -3   1  12    7.92    0.96
  -3   1  12    8.55    1.29
  -3   1 -12    8.64    1.02
  -3  -1  12   10.43    1.49
  -4   1  12   31.46    2.31
  -4   1  12   33.01    1.84
  -4  -1 -12   32.57    2.05
  -4  -1  12   32.46    2.45
  -4   1 -12   34.57    1.96
   0   2 -12   17.41    1.01
   0  -2 -12   18.83    1.04
   0   2 -12   18.80    1.07
  -1  -2 -12   59.52    1.79
  -1  -2 -12   57.20    1.70
  -1   2 -12   56.65    1.81
  -1   2 -12   56.14    1.73
  -2  -2 -12   40.40    1.35
  -2   2 -12   42.26    1.56
  -3   2  12   16.01    1.64
  -3   2  12   12.50    1.18
  -3  -2  12   13.60    1.70
  -3   2 -12   13.35    1.16
  -4   2  12    2.81    0.96
  -4   2  12    3.65    1.13
  -4  -2  12    2.72    1.26
  -4   2 -12    2.63    0.92
   0   3 -12   30.35    1.35
  -1  -3 -12   20.20    1.00
  -1  -3 -12   19.77    1.10
  -1   3 -12   20.91    1.17
  -2  -3 -12    8.50    0.63
  -3   3  12   53.89    2.21
  -3   3  12   49.27    2.51
  -3  -3  12   54.19    3.03
  -4   3  12    0.23    0.86
  -4  -3  12    1.81    1.26
   0   4 -12   40.08    1.56
  -1  -4 -12   42.91    1.40
  -1  -4 -12   40.73    1.51
  -2  -4 -12   88.49    2.23
  -2  -4  12   92.46    3.92
  -3  -4  12    7.81    1.50
  -4   4  12    5.36    1.16
  -4  -4  12    5.87    1.54
  -1  -5 -12   55.64    1.67
  -1  -5 -12   54.91    1.81
  -2  -5  12    8.69    1.45
  -3  -5  12   20.82    2.18
   0  -6 -12   70.52    2.47
  -1  -6 -12    4.61    0.69
  -1  -6 -12    5.19    0.63
  -2  -6  12   55.83    3.16
  -3  -6  12   13.82    1.88
   0  -7 -12   51.41    2.14
  -1  -7 -12    2.10    0.64
  -1  -7 -12    1.36    0.49
  -1  -7 -12    1.72    1.05
   1  -7 -12    1.32    0.91
  -2  -7  12   16.62    1.93
  -3  -7  12    6.41    1.54
   0  -8 -12    1.53    1.01
  -1  -8 -12   29.06    1.38
  -1  -8 -12   29.90    1.92
   1  -8 -12   26.93    1.69
  -1  -8  12   28.88    2.33
  -2  -8 -12    2.02    1.24
  -2  -8  12    1.50    1.16
   0  -9 -12    9.45    1.37
  -1  -9 -12    9.93    0.94
  -1  -9 -12    9.68    1.46
   1  -9 -12    8.37    1.26
   0   0 -13    1.39    0.51
   0   0 -13    0.80    0.52
  -1   0 -13   14.73    0.97
  -1   0 -13   15.39    1.00
  -3   0  13    6.63    1.30
  -3   0 -13    4.15    0.94
  -4   0 -13   12.79    1.44
  -4   0  13   13.65    1.75
   0   1 -13  132.94    3.33
   0  -1 -13  128.00    3.19
   0  -1 -13  129.06    3.32
   0   1 -13  123.87    3.17
  -1  -1 -13   31.57    1.25
  -1  -1 -13   29.59    1.30
  -1   1 -13   33.71    1.35
  -1   1 -13   31.23    1.26
  -2   1  13   50.80    1.81
  -2  -1 -13   50.32    1.62
  -3   1  13   31.19    2.17
  -3   1 -13   27.73    1.64
  -3  -1  13   29.60    2.28
  -4   1  13   12.72    1.67
  -4  -1  13   12.73    1.79
   0  -2 -13    6.59    0.71
   0   2 -13    6.64    0.72
   0  -2 -13    7.01    0.71
  -1  -2 -13    5.69    0.68
  -1  -2 -13    4.83    0.63
  -1   2 -13    5.67    0.66
  -1   2 -13    5.10    0.67
  -2  -2 -13   12.70    0.86
  -3   2  13   33.78    2.20
  -3   2  13   34.12    1.72
  -3  -2  13   32.68    2.43
  -4   2  13   12.34    1.57
  -4  -2  13   10.67    1.72
   0  -3 -13    0.48    0.54
   0   3 -13    0.24    0.52
  -1  -3 -13  259.69    5.95
  -1  -3 -13  252.11    5.68
  -1   3 -13  255.94    5.99
  -2  -3 -13    9.07    0.68
  -3   3  13   63.45    2.48
  -3  -3  13   64.25    3.32
  -4   3  13    1.71    0.93
  -4  -3  13    0.22    1.16
   0   4 -13   37.88    1.57
  -1  -4 -13    3.22    0.64
  -1  -4 -13    2.50    0.55
  -2  -4 -13   23.60    1.02
  -3  -4  13   12.07    1.79
  -1  -5 -13   14.25    1.05
  -1  -5 -13   17.21    0.97
  -2  -5  13   30.40    2.39
  -3  -5  13    9.15    1.64
  -1  -6 -13    1.65    0.53
  -1  -6 -13    1.75    0.61
  -2  -6  13    2.98    1.22
  -3  -6  13    3.62    1.36
  -1  -7 -13   19.57    1.02
  -1  -7 -13   22.27    1.25
  -2  -7  13   34.25    2.63
   0  -8 -13    2.30    1.11
  -1  -8 -13    8.63    0.90
  -1  -8 -13    9.23    1.40
  -1  -8  13    8.82    1.54
  -2  -8  13    2.97    1.28
   0  -9 -13   -1.18    1.02
  -1  -9 -13   43.59    2.35
   1  -9 -13   44.05    2.20
   0   0 -14   32.55    1.44
   0   0 -14   29.05    1.30
  -1   0 -14    4.71    0.68
  -1   0 -14    4.46    0.64
  -2   0 -14   65.69    1.99
  -3   0  14   10.97    1.57
  -4   0  14   26.03    2.19
   0  -1 -14   11.31    0.83
   0   1 -14    8.47    0.83
   0   1 -14    9.31    0.77
   0  -1 -14    8.55    0.83
  -1  -1 -14   46.94    1.64
  -1  -1 -14   46.63    1.58
  -1   1 -14   44.62    1.56
  -1   1 -14   42.54    1.64
  -2  -1 -14   39.68    1.44
  -3   1  14   13.24    1.62
  -3  -1  14   13.14    1.70
  -4   1  14   10.97    1.57
  -4  -1  14   13.40    1.80
   0  -2 -14   68.07    2.13
   0  -2 -14   65.68    2.04
   0   2 -14   66.88    2.12
  -1  -2 -14   34.73    1.44
  -1  -2 -14   35.93    1.36
  -1   2 -14   35.83    1.41
  -1   2 -14   34.77    1.47
  -2  -2 -14    4.29    0.61
  -3   2  14   13.97    1.59
  -3  -2  14   10.98    1.68
  -4  -2  14    9.91    1.70
   0  -3 -14   36.51    1.47
   0   3 -14   35.29    1.55
  -1  -3 -14   75.08    2.08
  -1  -3 -14   72.13    2.23
  -1   3 -14   73.20    2.27
  -2  -3 -14   11.10    0.78
  -3   3  14   12.53    1.46
  -3  -3  14   11.93    1.77
   0  -4 -14  206.16    4.89
  -1  -4 -14    9.88    0.88
  -1  -4 -14    9.50    0.78
  -1   4 -14   11.62    0.97
  -2  -4 -14   33.03    1.23
  -3  -4  14   16.55    2.00
  -1  -5 -14   21.22    1.08
  -1  -5 -14   20.23    1.19
  -2  -5 -14   12.96    0.84
  -2  -5  14   12.97    1.73
  -3  -5  14    5.79    1.48
  -1  -6 -14    2.13    0.57
  -1  -6 -14    1.97    0.63
  -2  -6  14   36.72    2.71
  -3  -6  14    4.07    1.40
  -1  -7 -14   11.37    0.78
  -1  -7 -14   10.16    0.95
  -2  -7  14   21.31    2.25
  -1  -8 -14   57.58    2.04
  -1  -8  14   59.72    3.30
  -2  -8  14    0.29    1.22
   0   0 -15    0.57    0.55
   0   0 -15   -1.22    0.56
  -1   0 -15  123.81    3.27
  -1   0 -15  121.83    3.12
  -2   0 -15    0.24    0.53
  -3   0  15    7.76    1.43
  -4   0  15    6.31    1.44
   0  -1 -15   55.62    1.87
   0   1 -15   58.03    1.97
   0  -1 -15   57.89    1.95
  -1  -1 -15   12.34    0.87
  -1  -1 -15   10.68    0.89
  -1   1 -15   12.04    0.89
  -1   1 -15   10.39    0.90
  -2  -1 -15   43.50    1.54
  -3   1  15   15.42    1.77
  -3  -1  15   13.98    1.78
   0  -2 -15  146.61    3.82
   0   2 -15  147.80    3.82
   0  -2 -15  146.88    3.67
  -1  -2 -15   13.20    0.99
  -1  -2 -15   13.29    0.97
  -1   2 -15   12.05    0.96
  -1   2 -15   14.76    0.98
  -2  -2 -15   45.37    1.56
  -3   2  15   17.51    1.82
  -3  -2  15   15.28    1.94
   0  -3 -15   -0.11    0.59
   0  -3 -15    1.24    0.60
   0   3 -15    1.38    0.63
  -1  -3 -15  107.04    2.81
  -1  -3 -15  106.36    2.96
  -1   3 -15  111.53    3.04
  -2  -3 -15    3.25    0.59
  -3  -3  15   23.11    2.30
   0  -4 -15  160.71    4.01
  -1  -4 -15    2.24    0.60
  -1  -4 -15    2.34    0.66
  -1   4 -15    2.72    0.72
  -2  -4 -15   21.90    1.07
  -3  -4  15    9.06    1.66
   0  -5 -15    3.88    0.75
  -1  -5 -15   20.93    1.24
  -1  -5 -15   19.44    1.10
  -2  -5 -15   14.39    0.91
  -2  -5  15   13.18    1.76
  -3  -5  15    5.27    1.51
   0  -6 -15   -0.21    0.68
  -1  -6 -15   48.63    1.59
  -1  -6 -15   44.65    1.75
  -2  -6  15    1.19    1.21
  -1  -7 -15    2.38    0.67
  -1  -7 -15    2.54    0.59
  -2  -7  15   20.59    2.26
   0  -8 -15    9.21    1.03
  -1  -8 -15   10.98    0.76
  -1  -8 -15   11.03    0.99
  -1  -8  15   10.14    1.68
   0   0 -16    9.29    0.93
  -1   0 -16   32.71    1.38
  -1   0 -16   29.53    1.42
  -2   0 -16    4.72    0.72
  -3   0  16   48.19    2.94
   0  -1 -16   48.56    1.84
   0   1 -16   51.19    1.84
   0  -1 -16   47.79    1.75
  -1  -1 -16   48.91    1.71
  -1  -1 -16   49.73    1.79
  -1   1 -16   49.84    1.83
  -1   1 -16   52.72    1.75
  -2  -1 -16   10.31    0.85
  -3   1  16   44.23    2.73
  -3  -1  16   39.00    2.73
   0  -2 -16    0.65    0.59
   0  -2 -16   -0.83    0.55
   0   2 -16    0.47    0.58
  -1  -2 -16    4.53    0.68
  -1  -2 -16    3.77    0.69
  -1   2 -16    2.13    0.66
  -1   2 -16    4.79    0.71
  -2  -2 -16   10.68    0.87
  -3   2  16    7.67    1.40
  -3  -2  16    8.41    1.61
   0  -3 -16   -0.36    0.62
   0   3 -16    0.36    0.67
   0  -3 -16   -0.44    0.59
  -1  -3 -16   10.78    0.89
  -1  -3 -16   11.32    0.93
  -1   3 -16   12.66    1.02
  -2  -3 -16   48.65    1.65
  -3  -3  16    9.29    1.73
   0  -4 -16    0.54    0.66
  -1  -4 -16    5.13    0.76
  -1  -4 -16    4.89    0.70
  -1   4 -16    5.63    0.84
  -2  -4 -16   28.41    1.24
  -3  -4  16    5.08    1.52
   0  -5 -16    9.34    0.95
  -1  -5 -16   95.66    2.79
  -1  -5 -16   92.18    2.55
  -2  -5 -16    7.67    0.74
  -3  -5  16   37.61    2.86
   0  -6 -16    1.24    0.73
  -1  -6 -16    9.61    0.81
  -1  -6 -16    7.54    0.89
  -2  -6  16    5.08    1.49
   0  -7 -16   46.46    1.91
  -1  -7 -16   11.62    1.03
  -1  -7 -16   12.54    0.88
  -2  -7  16   12.09    1.90
   0  -8 -16   -0.82    0.73
  -1  -8 -16   -0.46    0.66
   0   0 -17    0.45    0.64
  -1   0 -17   93.66    2.74
  -1   0 -17   92.85    2.60
  -2   0 -17    7.88    0.84
  -3   0  17   36.74    2.63
   0   1 -17    4.64    0.76
   0  -1 -17    4.09    0.77
  -1  -1 -17    0.86    0.59
  -1  -1 -17   -0.28    0.57
  -1   1 -17   -0.98    0.56
  -1   1 -17    0.85    0.61
  -2  -1 -17   10.67    0.89
  -3   1  17   15.59    1.92
  -3  -1  17   11.85    1.80
   0   2 -17   86.12    2.62
   0  -2 -17   80.33    2.55
   0  -2 -17   83.73    2.48
  -1  -2 -17   10.21    0.87
  -1  -2 -17    9.85    0.93
  -1   2 -17    9.72    0.93
  -1   2 -17   10.27    0.92
  -2  -2 -17   84.27    2.44
  -3   2  17   12.35    1.68
  -3  -2  17   14.45    1.95
   0  -3 -17    1.24    0.68
   0  -3 -17   -0.60    0.59
  -1  -3 -17   15.05    1.13
  -1  -3 -17   17.32    1.12
  -1   3 -17   15.91    1.21
  -2  -3 -17    3.20    0.65
  -3  -3  17   -1.03    1.11
   0  -4 -17   62.89    2.23
   0  -4 -17   64.90    2.19
  -1  -4 -17   12.19    1.02
  -1  -4 -17   13.49    0.97
  -1   4 -17   13.20    1.10
  -2  -4 -17   68.30    2.08
  -3  -4  17    6.30    1.61
   0  -5 -17    0.99    0.73
  -1  -5 -17   -0.41    0.56
  -1  -5 -17    0.18    0.63
  -2  -5 -17   11.77    0.88
   0  -6 -17    3.37    0.82
  -1  -6 -17   42.67    1.58
  -2  -6 -17    4.61    0.63
  -2  -6  17    3.19    1.41
   0  -7 -17    7.95    1.01
  -1  -7 -17   -0.47    0.57
  -1  -7 -17    0.97    0.69
   0   0 -18    0.34    0.64
  -1   0 -18    1.02    0.62
  -1   0 -18    0.07    0.57
  -2   0 -18   19.86    1.21
  -3   0  18   16.18    1.98
   0  -1 -18    6.71    0.92
   0   1 -18    4.81    0.83
  -1  -1 -18   37.50    1.53
  -1  -1 -18   35.65    1.56
  -1   1 -18   34.73    1.53
  -1   1 -18   36.11    1.60
  -2  -1 -18   11.32    0.93
  -2   1 -18   11.62    1.01
  -3   1  18    2.70    1.33
  -3  -1  18    4.40    1.43
   0   2 -18    8.38    0.96
   0  -2 -18    8.69    0.97
  -1  -2 -18   10.29    0.96
  -1  -2 -18    8.82    0.86
  -1   2 -18    8.22    0.94
  -1   2 -18   11.23    0.96
  -2  -2 -18    5.01    0.73
  -3   2  18    6.87    1.51
  -3  -2  18    5.89    1.57
   0  -3 -18   51.38    1.98
   0  -3 -18   51.26    1.91
  -1  -3 -18    5.72    0.81
  -1  -3 -18    8.20    0.84
  -1   3 -18    8.86    0.99
  -2  -3 -18    0.14    0.55
  -3  -3  18   19.64    2.28
   0  -4 -18   48.09    1.97
   0  -4 -18   48.28    1.88
  -1  -4 -18    8.42    0.87
  -1  -4 -18    9.37    0.93
  -1   4 -18    8.41    1.01
  -2  -4 -18   22.74    1.22
   0  -5 -18    5.94    0.94
   0  -5 -18    6.77    0.92
  -1  -5 -18   41.30    1.76
  -1  -5 -18   40.39    1.59
  -2  -5 -18    2.70    0.64
   0  -6 -18    3.19    0.85
  -1  -6 -18    2.31    0.75
  -1  -6 -18    3.74    0.71
   0  -7 -18    4.88    0.94
  -1  -7 -18   10.74    0.88
  -1  -7 -18   12.70    1.10
   0   0 -19    0.03    0.63
  -1   0 -19   -0.16    0.60
  -1   0 -19   -0.45    0.61
  -2   0 -19    2.95    0.72
  -3   0  19    2.67    1.34
   0   1 -19   43.52    1.84
   0  -1 -19   42.27    1.86
  -1  -1 -19   15.35    1.14
  -1  -1 -19   13.62    1.11
  -1   1 -19   16.10    1.18
  -1   1 -19   13.63    1.04
  -2  -1 -19   15.61    1.13
  -2   1 -19   15.18    1.17
  -3   1  19    9.12    1.70
  -3  -1  19    8.06    1.75
   0  -2 -19    7.33    0.96
  -1  -2 -19    8.37    0.89
  -1  -2 -19    8.96    0.91
  -1   2 -19    8.84    0.97
  -2  -2 -19    9.04    0.89
   0  -3 -19   -0.17    0.64
   0  -3 -19    1.68    0.74
  -1  -3 -19   92.80    2.61
  -1  -3 -19   88.73    2.73
  -1   3 -19   89.19    2.82
  -2  -3 -19    6.44    0.79
   0  -4 -19   -0.38    0.65
   0  -4 -19    0.36    0.70
  -1  -4 -19   11.50    0.97
  -1  -4 -19   14.00    1.11
  -1   4 -19   15.46    1.27
  -2  -4 -19    8.40    0.86
   0  -5 -19   29.78    1.65
   0  -5 -19   29.42    1.60
  -1  -5 -19    1.54    0.67
  -1  -5 -19    1.07    0.68
  -2  -5 -19    3.44    0.71
   0  -6 -19    2.50    0.84
   0  -6 -19    1.26    0.82
  -1  -6 -19    1.07    0.73
  -1  -6 -19    0.45    0.64
   0   0 -20   91.09    2.87
  -1   0 -20    4.86    0.83
  -1   0 -20    6.18    0.84
  -2   0 -20   16.09    1.18
   0   1 -20    7.19    0.99
   0  -1 -20    6.97    1.00
  -1  -1 -20    3.18    0.75
  -1  -1 -20    2.73    0.71
  -1   1 -20    2.80    0.77
  -1   1 -20    2.79    0.78
  -2  -1 -20    1.69    0.70
  -2   1 -20    2.16    0.74
   0  -2 -20    5.59    0.94
  -1  -2 -20   17.82    1.24
  -1  -2 -20   17.98    1.25
  -1   2 -20   19.76    1.33
  -2  -2 -20   10.97    0.95
   0  -3 -20    2.98    0.81
  -1  -3 -20    1.17    0.65
  -1  -3 -20    1.07    0.67
  -1   3 -20   -0.11    0.66
  -2  -3 -20    4.35    0.75
   0  -4 -20   24.15    1.51
   0  -4 -20   29.00    1.59
  -1  -4 -20   15.93    1.11
  -1  -4 -20   14.58    1.15
  -1   4 -20   14.56    1.26
  -2  -4 -20   39.73    1.61
   0  -5 -20    5.01    0.95
   0  -5 -20    6.05    0.96
  -1  -5 -20    2.70    0.76
  -1  -5 -20    2.33    0.71
   0  -6 -20   51.87    2.21
   0  -6 -20   50.35    2.10
   0   0 -21    0.30    0.70
  -1   0 -21   33.98    1.58
  -1   0 -21   32.04    1.61
  -2   0 -21    4.77    0.83
   0  -1 -21    3.09    0.80
  -1  -1 -21   17.07    1.17
  -1  -1 -21   13.20    1.14
  -1   1 -21   14.68    1.20
  -2  -1 -21   21.71    1.29
  -2   1 -21   18.58    1.32
   0  -2 -21   20.28    1.47
  -1  -2 -21    3.52    0.77
  -1  -2 -21    2.59    0.74
  -1   2 -21    2.83    0.80
  -2  -2 -21   18.35    1.22
   0  -3 -21    0.12    0.73
  -1  -3 -21   27.65    1.43
  -1  -3 -21   26.79    1.46
  -1   3 -21   25.79    1.55
   0  -4 -21   10.96    1.15
  -1  -4 -21    0.68    0.68
  -1  -4 -21   -0.16    0.66
  -1   4 -21   -0.32    0.69
   0  -5 -21    4.38    0.93
   0  -5 -21    5.50    0.99
   0   0 -22   15.74    1.30
  -1   0 -22    0.42    0.66
  -1   0 -22    1.00    0.74
   0  -1 -22    4.36    0.87
  -1  -1 -22   28.60    1.54
  -1  -1 -22   26.79    1.47
  -1   1 -22   27.63    1.53
   0  -2 -22    0.33    0.75
  -1  -2 -22    2.21    0.74
  -1  -2 -22    2.37    0.77
  -1   2 -22    2.40    0.79
   0  -3 -22   14.20    1.28
  -1  -3 -22    2.43    0.78
  -1  -3 -22    3.80    0.81
  -1   3 -22    2.63    0.84
   0  -4 -22    4.26    0.96
  -1   0 -23   30.95    1.63
  -1   0 -23   31.84    1.63
   0  -1 -23    0.67    0.76
  -1  -1 -23    2.40    0.80
  -1  -1 -23    4.27    0.86
  -1   1 -23    2.41    0.74
   0  -2 -23   54.59    2.23
   0   0   0    0.00    0.00
;
_shelx_hkl_checksum              74161
_shelx_res_file
;
TITL solve_19 in P2(1)2(1)2(1)
CELL 0.71073 3.9329 8.6153 17.8362 90 90 90
ZERR 4 0.0017 0.0038 0.007 0 0 0
LATT -1
SYMM 0.5-X,-Y,0.5+Z
SYMM -X,0.5+Y,0.5-Z
SYMM 0.5+X,0.5-Y,-Z
SFAC C H Li N Cl
UNIT 20 20 4 4 4
L.S. 16
PLAN  20
SIZE 0.045 0.09 0.25
TEMP -173.13
CONF
BOND
MORE -1
BOND $H
fmap 2
acta
TWIN -1 0 0 0 -1 0 0 0 -1 2
REM <olex2.extras>
REM <HklSrc "%.\\solve_19.hkl">
REM </olex2.extras>
WGHT    0.029300    0.114300
BASF   0.67529
FVAR       0.44604
C2    1    0.727950    0.472126    0.323609    11.00000    0.02374    0.01869 =
         0.02215    0.00368    0.00090   -0.00073
AFIX  43
H2    2    0.806264    0.563182    0.299027    11.00000   -1.20000
AFIX   0
C3    1    0.769750    0.331545    0.287486    11.00000    0.02880    0.02899 =
         0.02170   -0.00311    0.00048    0.00386
AFIX  43
H3    2    0.869894    0.326474    0.239078    11.00000   -1.20000
AFIX   0
C4    1    0.661842    0.198359    0.323708    11.00000    0.03070    0.01786 =
         0.03340   -0.00827   -0.00955    0.00374
AFIX  43
H4    2    0.691136    0.099476    0.301039    11.00000   -1.20000
AFIX   0
C5    1    0.511092    0.211380    0.393233    11.00000    0.02697    0.01579 =
         0.03066    0.00241   -0.00597   -0.00397
AFIX  43
H5    2    0.431880    0.121923    0.419015    11.00000   -1.20000
AFIX   0
C6    1    0.477592    0.357363    0.424655    11.00000    0.02533    0.01834 =
         0.02166    0.00122   -0.00003   -0.00205
AFIX  43
H6    2    0.373694    0.365584    0.472574    11.00000   -1.20000
AFIX   0
N1    4    0.583771    0.487699    0.391142    11.00000    0.02071    0.01473 =
         0.02137    0.00010   -0.00197   -0.00050
CL1   5    0.535115    0.661187    0.576352    11.00000    0.01816    0.01374 =
         0.02089    0.00202    0.00009    0.00031
LI1   3    0.537557    0.696053    0.442352    11.00000    0.02547    0.01724 =
         0.02481   -0.00128    0.00135    0.00051
HKLF 4
REM  solve_19 in P2(1)2(1)2(1)
REM R1 =  0.0293 for    1220 Fo > 4sig(Fo)  and  0.0342 for all    1328 data
REM     74 parameters refined using      0 restraints
END
WGHT      0.0293      0.1143
REM Highest difference peak  0.271,  deepest hole -0.222,  1-sigma level  0.051
Q1    1   0.3875  0.6628  0.6158  11.00000  0.05    0.27
Q2    1   0.6916  0.6789  0.5400  11.00000  0.05    0.27
Q3    1   0.3721  0.6644  0.5405  11.00000  0.05    0.26
Q4    1   0.6915  0.6475  0.6071  11.00000  0.05    0.24
Q5    1   0.5100  0.2160  0.3569  11.00000  0.05    0.24
Q6    1   0.6634  0.3961  0.3006  11.00000  0.05    0.19
Q7    1   0.4343  0.4732  0.4216  11.00000  0.05    0.19
Q8    1   0.3082  0.7270  0.5757  11.00000  0.05    0.19
Q9    1   0.6481  0.8263  0.4214  11.00000  0.05    0.17
Q10   1   0.4298  0.2844  0.4035  11.00000  0.05    0.17
Q11   1   0.6551  0.5785  0.5759  11.00000  0.05    0.17
Q12   1   0.6749  0.2753  0.3040  11.00000  0.05    0.16
Q13   1   0.9037  0.6352  0.5786  11.00000  0.05    0.16
Q14   1   0.7108  0.5023  0.4204  11.00000  0.05    0.15
Q15   1   0.3058  0.3312  0.2904  11.00000  0.05    0.15
Q16   1   0.6695  0.4688  0.3563  11.00000  0.05    0.15
Q17   1   0.9004  0.7262  0.3192  11.00000  0.05    0.15
Q18   1   0.4881  0.4347  0.4033  11.00000  0.05    0.14
Q19   1   0.3460  0.1490  0.3173  11.00000  0.05    0.14
Q20   1   0.5072  0.5028  0.3597  11.00000  0.05    0.14
;
_shelx_res_checksum              83866
_shelxl_version_number           2014/6
loop_
_space_group_symop_operation_xyz
'x, y, z'
'-x+1/2, -y, z+1/2'
'-x, y+1/2, -z+1/2'
'x+1/2, -y+1/2, -z'
loop_
_atom_site_type_symbol
_atom_site_label
_atom_site_fract_x
_atom_site_fract_y
_atom_site_fract_z
_atom_site_U_iso_or_equiv
_atom_site_adp_type
_atom_site_calc_flag
_atom_site_occupancy
C C2 0.7280(7) 0.4721(3) 0.32361(15) 0.0215(6) Uani d 1
H H2 0.8063 0.5632 0.2990 0.026 Uiso calc 1
C C3 0.7698(6) 0.3315(3) 0.28749(14) 0.0265(5) Uani d 1
H H3 0.8699 0.3265 0.2391 0.032 Uiso calc 1
C C4 0.6618(7) 0.1984(3) 0.32371(16) 0.0273(6) Uani d 1
H H4 0.6911 0.0995 0.3010 0.033 Uiso calc 1
C C5 0.5111(7) 0.2114(3) 0.39323(14) 0.0245(5) Uani d 1
H H5 0.4319 0.1219 0.4190 0.029 Uiso calc 1
C C6 0.4776(6) 0.3574(2) 0.42465(13) 0.0218(5) Uani d 1
H H6 0.3737 0.3656 0.4726 0.026 Uiso calc 1
N N1 0.5838(5) 0.4877(2) 0.39114(11) 0.0189(4) Uani d 1
Cl Cl1 0.53512(13) 0.66119(6) 0.57635(3) 0.01760(14) Uani d 1
Li Li1 0.5376(11) 0.6961(4) 0.4424(2) 0.0225(8) Uani d 1
loop_
_atom_site_aniso_label
_atom_site_aniso_U_11
_atom_site_aniso_U_22
_atom_site_aniso_U_33
_atom_site_aniso_U_12
_atom_site_aniso_U_13
_atom_site_aniso_U_23
C2 0.0237(12) 0.0187(13) 0.0221(12) -0.0007(11) 0.0009(10) 0.0037(12)
C3 0.0288(12) 0.0290(14) 0.0217(11) 0.0039(14) 0.0005(10) -0.0031(13)
C4 0.0307(14) 0.0179(12) 0.0334(14) 0.0037(11) -0.0095(12) -0.0083(12)
C5 0.0270(13) 0.0158(10) 0.0307(11) -0.0040(11) -0.0060(12) 0.0024(9)
C6 0.0253(11) 0.0183(10) 0.0217(9) -0.0021(11) 0.0000(12) 0.0012(10)
N1 0.0207(10) 0.0147(9) 0.0214(9) -0.0005(9) -0.0020(9) 0.0001(8)
Cl1 0.0182(2) 0.0137(2) 0.0209(2) 0.0003(2) 0.0001(2) 0.0020(2)
Li1 0.025(2) 0.0172(18) 0.0248(18) 0.0005(17) 0.0013(18) -0.0013(15)
loop_
_atom_type_symbol
_atom_type_description
_atom_type_scat_dispersion_real
_atom_type_scat_dispersion_imag
_atom_type_scat_source
C C 0.0033 0.0016 'International Tables Vol C Tables 4.2.6.8 and 6.1.1.4'
H H 0.0000 0.0000 'International Tables Vol C Tables 4.2.6.8 and 6.1.1.4'
Li Li -0.0003 0.0001 'International Tables Vol C Tables 4.2.6.8 and 6.1.1.4'
N N 0.0061 0.0033 'International Tables Vol C Tables 4.2.6.8 and 6.1.1.4'
Cl Cl 0.1484 0.1585 'International Tables Vol C Tables 4.2.6.8 and 6.1.1.4'
loop_
_geom_angle_atom_site_label_1
_geom_angle_atom_site_label_2
_geom_angle_atom_site_label_3
_geom_angle_site_symmetry_1
_geom_angle_site_symmetry_3
_geom_angle
C3 C2 H2 . . 118.0
N1 C2 H2 . . 118.0
N1 C2 C3 . . 123.9(2)
C2 C3 H3 . . 120.9
C2 C3 C4 . . 118.2(2)
C4 C3 H3 . . 120.9
C3 C4 H4 . . 120.5
C5 C4 C3 . . 119.0(2)
C5 C4 H4 . . 120.5
C4 C5 H5 . . 120.7
C4 C5 C6 . . 118.6(2)
C6 C5 H5 . . 120.7
C5 C6 H6 . . 118.2
N1 C6 C5 . . 123.5(2)
N1 C6 H6 . . 118.2
C2 N1 C6 . . 116.7(2)
C2 N1 Li1 . . 122.3(2)
C6 N1 Li1 . . 120.98(19)
Li1 Cl1 Li1 4_466 4_566 114.11(16)
Li1 Cl1 Li1 4_466 . 78.22(13)
Li1 Cl1 Li1 4_566 . 77.91(13)
N1 Li1 Cl1 . 4_566 109.13(19)
N1 Li1 Cl1 . . 109.74(17)
N1 Li1 Cl1 . 4_466 118.4(2)
N1 Li1 Li1 . 4_466 130.2(2)
N1 Li1 Li1 . 4_566 121.80(19)
Cl1 Li1 Cl1 4_566 4_466 114.11(16)
Cl1 Li1 Cl1 4_566 . 102.17(16)
Cl1 Li1 Cl1 4_466 . 101.69(15)
Cl1 Li1 Li1 4_466 4_566 119.2(2)
Cl1 Li1 Li1 . 4_466 49.79(14)
Cl1 Li1 Li1 4_466 4_466 51.90(7)
Cl1 Li1 Li1 . 4_566 50.19(15)
Cl1 Li1 Li1 4_566 4_566 51.98(7)
Cl1 Li1 Li1 4_566 4_466 119.0(2)
Li1 Li1 Li1 4_566 4_466 82.14(19)
loop_
_geom_bond_atom_site_label_1
_geom_bond_atom_site_label_2
_geom_bond_site_symmetry_2
_geom_bond_distance
C2 H2 . 0.9500
C2 C3 . 1.382(4)
C2 N1 . 1.338(3)
C3 H3 . 0.9500
C3 C4 . 1.384(4)
C4 H4 . 0.9500
C4 C5 . 1.379(4)
C5 H5 . 0.9500
C5 C6 . 1.383(3)
C6 H6 . 0.9500
C6 N1 . 1.339(3)
N1 Li1 . 2.022(4)
Cl1 Li1 4_566 2.351(4)
Cl1 Li1 4_466 2.335(4)
Cl1 Li1 . 2.409(4)
Li1 Cl1 4_566 2.335(4)
Li1 Cl1 4_466 2.351(4)
Li1 Li1 4_566 2.993(6)
Li1 Li1 4_466 2.993(6)
loop_
_geom_torsion_atom_site_label_1
_geom_torsion_atom_site_label_2
_geom_torsion_atom_site_label_3
_geom_torsion_atom_site_label_4
_geom_torsion
C2 C3 C4 C5 1.4(4)
C3 C2 N1 C6 0.4(4)
C3 C2 N1 Li1 178.7(2)
C3 C4 C5 C6 -0.9(4)
C4 C5 C6 N1 0.0(4)
C5 C6 N1 C2 0.2(4)
C5 C6 N1 Li1 -178.2(3)
N1 C2 C3 C4 -1.2(4)
