#------------------------------------------------------------------------------
#$Date: 2019-12-26 21:58:51 +0200 (Thu, 26 Dec 2019) $
#$Revision: 246129 $
#$URL: file:///home/coder/svn-repositories/cod/cif/2/31/18/2311833.cif $
#------------------------------------------------------------------------------
#
# This file is available in the Crystallography Open Database (COD),
# http://www.crystallography.net/. The original data for this entry
# were provided by IUCr Journals, http://journals.iucr.org/.
#
# The file may be used within the scientific community so long as
# proper attribution is given to the journal article from which the
# data were obtained.
#
data_2311833
loop_
_publ_author_name
'Buist, Amanda R.'
'Dennany, Lynn'
'Kennedy, Alan R.'
'Manzie, Craig'
'McPhie, Katherine'
'Walker, Brandon'
_publ_section_title
;
 Eight salt forms of sulfadiazine.
;
_journal_coeditor_code           LG3144
_journal_issue                   'Pt 9'
_journal_name_full
'Acta crystallographica. Section C, Structural chemistry'
_journal_page_first              900
_journal_page_last               907
_journal_paper_doi               10.1107/S2053229614018725
_journal_volume                  70
_journal_year                    2014
_chemical_formula_iupac          'C10 H11 N4 O2 S +, N O3 -'
_chemical_formula_moiety         'C10 H11 N4 O2 S +, N O3 -'
_chemical_formula_sum            'C10 H11 N5 O5 S'
_chemical_formula_weight         313.30
_chemical_name_systematic
;
2-{[(4-Azaniumylphenyl)sulfonyl]azanidyl}pyrimidin-1-ium nitrate
;
_space_group_IT_number           2
_space_group_name_Hall           '-P 1'
_space_group_name_H-M_alt        'P -1'
_symmetry_cell_setting           triclinic
_symmetry_space_group_name_Hall  '-P 1'
_symmetry_space_group_name_H-M   'P -1'
_atom_sites_solution_hydrogens   geom
_atom_sites_solution_primary     direct
_atom_sites_solution_secondary   difmap
_audit_creation_method           SHELXL-97
_cell_angle_alpha                86.708(6)
_cell_angle_beta                 85.489(6)
_cell_angle_gamma                74.394(7)
_cell_formula_units_Z            2
_cell_length_a                   5.4705(4)
_cell_length_b                   10.1235(7)
_cell_length_c                   11.9956(8)
_cell_measurement_reflns_used    3307
_cell_measurement_temperature    123(2)
_cell_measurement_theta_max      29.3491
_cell_measurement_theta_min      3.4029
_cell_volume                     637.40(8)
_computing_cell_refinement       'CrysAlis PRO (Oxford Diffraction, 2010)'
_computing_data_collection       'CrysAlis PRO (Oxford Diffraction, 2010)'
_computing_data_reduction        'CrysAlis PRO (Oxford Diffraction, 2010)'
_computing_molecular_graphics
;
ORTEP-3 for Windows (Farrugia, 2012) and Mercury (Macrae <i>et al.</i>,
2008)
;
_computing_publication_material  'SHELXL97 (Sheldrick, 2008)'
_computing_structure_refinement  'SHELXL97 (Sheldrick, 2008)'
_computing_structure_solution    'SHELXS97 (Sheldrick, 2008)'
_diffrn_ambient_temperature      123(2)
_diffrn_measured_fraction_theta_full 0.995
_diffrn_measured_fraction_theta_max 0.967
_diffrn_measurement_device_type  'Oxford Diffraction Xcalibur E'
_diffrn_measurement_method       'omega scans'
_diffrn_radiation_monochromator  graphite
_diffrn_radiation_source         'fine-focus sealed tube'
_diffrn_radiation_type           MoK\a
_diffrn_radiation_wavelength     0.71073
_diffrn_reflns_av_R_equivalents  0.0259
_diffrn_reflns_av_sigmaI/netI    0.0429
_diffrn_reflns_limit_h_max       7
_diffrn_reflns_limit_h_min       -6
_diffrn_reflns_limit_k_max       13
_diffrn_reflns_limit_k_min       -13
_diffrn_reflns_limit_l_max       15
_diffrn_reflns_limit_l_min       -15
_diffrn_reflns_number            7390
_diffrn_reflns_theta_full        27.00
_diffrn_reflns_theta_max         28.00
_diffrn_reflns_theta_min         3.41
_exptl_absorpt_coefficient_mu    0.287
_exptl_absorpt_correction_T_max  1.00000
_exptl_absorpt_correction_T_min  0.89676
_exptl_absorpt_correction_type   multi-scan
_exptl_absorpt_process_details
;
(CrysAlis PRO; Oxford Diffraction, 2010)
;
_exptl_crystal_colour            'light yellow'
_exptl_crystal_density_diffrn    1.632
_exptl_crystal_density_method    'not measured'
_exptl_crystal_description       fragment
_exptl_crystal_F_000             324
_exptl_crystal_size_max          0.26
_exptl_crystal_size_mid          0.15
_exptl_crystal_size_min          0.06
_refine_diff_density_max         0.776
_refine_diff_density_min         -0.377
_refine_ls_extinction_method     none
_refine_ls_goodness_of_fit_ref   1.037
_refine_ls_hydrogen_treatment    mixed
_refine_ls_matrix_type           full
_refine_ls_number_parameters     206
_refine_ls_number_reflns         2977
_refine_ls_number_restraints     0
_refine_ls_restrained_S_all      1.037
_refine_ls_R_factor_all          0.0591
_refine_ls_R_factor_gt           0.0451
_refine_ls_shift/su_max          0.000
_refine_ls_shift/su_mean         0.000
_refine_ls_structure_factor_coef Fsqd
_refine_ls_weighting_details
'calc w=1/[\s^2^(Fo^2^)+(0.0489P)^2^+0.4298P] where P=(Fo^2^+2Fc^2^)/3'
_refine_ls_weighting_scheme      calc
_refine_ls_wR_factor_gt          0.1032
_refine_ls_wR_factor_ref         0.1095
_reflns_number_gt                2429
_reflns_number_total             2977
_reflns_threshold_expression     I>2\s(I)
_iucr_refine_instructions_details
;
TITL craigsulfno3 in P -1
CELL  0.71073   5.4705  10.1235  11.9956   86.708   85.489   74.394
ZERR     2.00   0.0004   0.0007   0.0008    0.006    0.006    0.007
LATT   1
SFAC  S    O    N    C    H
UNIT  2    10   10   20   22
MERG   2
OMIT    -3.00  56.00
eqiv $1  x+1, y, z
htab n1 o5_$1
htab n1 o4_$1
htab n1 o3
htab n1 o5
eqiv $2 -x+1, -y, -z+1
htab n1 o1_$2
eqiv $3 -x+1, -y, -z+2
htab n3 n2_$3
htab n3 o1_$3
FMAP   2
PLAN   20
ACTA    54.00
HTAB    2.00000
BOND   $H
CONF
LIST   4
L.S.   4
TEMP  -150.00
WGHT    0.048900    0.429800
FVAR       5.89617
S1    1    0.316112   -0.071608    0.773903    11.00000    0.01652    0.01742 =
         0.01022    0.00136   -0.00247   -0.00517
O1    2    0.549003   -0.182129    0.765933    11.00000    0.02219    0.01688 =
         0.01393    0.00019   -0.00275   -0.00222
O2    2    0.087559   -0.109722    0.756777    11.00000    0.02392    0.02643 =
         0.01805    0.00607   -0.00563   -0.01349
O3    2    0.027785    0.519697    0.263814    11.00000    0.02252    0.06332 =
         0.05930    0.03482    0.00464   -0.01074
O4    2   -0.352099    0.503540    0.246885    11.00000    0.03426    0.03562 =
         0.02152    0.00522   -0.01094   -0.00498
O5    2   -0.181888    0.453616    0.406616    11.00000    0.02550    0.02169 =
         0.01472    0.00205   -0.00345   -0.00597
N1    3    0.388786    0.351382    0.414824    11.00000    0.02097    0.01489 =
         0.01387    0.00085   -0.00038   -0.00335
N2    3    0.324551   -0.008440    0.891796    11.00000    0.01701    0.01998 =
         0.00927    0.00067   -0.00333   -0.00199
N3    3    0.201498    0.163233    1.015765    11.00000    0.01585    0.02052 =
         0.01168    0.00257   -0.00230   -0.00184
N4    3   -0.050679    0.171783    0.864566    11.00000    0.01662    0.02345 =
         0.01359    0.00247   -0.00323   -0.00122
N5    3   -0.168985    0.493959    0.303389    11.00000    0.01884    0.02127 =
         0.02226    0.00404    0.00164    0.00027
C1    4    0.376552    0.249108    0.503952    11.00000    0.01596    0.01385 =
         0.01145    0.00032    0.00192    0.00012
C2    4    0.202734    0.173237    0.497779    11.00000    0.01635    0.01914 =
         0.01219    0.00166   -0.00330   -0.00439
AFIX  43
H2    5    0.097857    0.186915    0.436397    11.00000   -1.20000
AFIX   0
C3    4    0.183910    0.076844    0.582620    11.00000    0.01355    0.01997 =
         0.01381    0.00011   -0.00066   -0.00671
AFIX  43
H3    5    0.062256    0.025512    0.581036    11.00000   -1.20000
AFIX   0
C4    4    0.343967    0.055850    0.669866    11.00000    0.01205    0.01453 =
         0.01147    0.00023   -0.00017   -0.00119
C5    4    0.521932    0.130263    0.674572    11.00000    0.01380    0.01941 =
         0.01397   -0.00151   -0.00417   -0.00310
AFIX  43
H5    5    0.632320    0.113870    0.734105    11.00000   -1.20000
AFIX   0
C6    4    0.536062    0.229185    0.590760    11.00000    0.01459    0.01656 =
         0.01755   -0.00209   -0.00045   -0.00502
AFIX  43
H6    5    0.654168    0.282545    0.593136    11.00000   -1.20000
AFIX   0
C7    4    0.153955    0.108362    0.921340    11.00000    0.01544    0.02054 =
         0.01029    0.00261    0.00067   -0.00613
C8    4    0.048533    0.279108    1.056592    11.00000    0.02397    0.01927 =
         0.01353    0.00005    0.00100   -0.00496
AFIX  43
H8    5    0.084635    0.313902    1.123522    11.00000   -1.20000
AFIX   0
C9    4   -0.159692    0.346649    1.001042    11.00000    0.02314    0.02020 =
         0.02046    0.00038   -0.00007    0.00113
AFIX  43
H9    5   -0.272435    0.429345    1.027316    11.00000   -1.20000
AFIX   0
C10   4   -0.198915    0.288586    0.904101    11.00000    0.01916    0.02544 =
         0.02037    0.00468   -0.00254   -0.00050
AFIX  43
H10   5   -0.340990    0.335394    0.863356    11.00000   -1.20000
AFIX   0
H1N   5    0.528137    0.392147    0.418545    11.00000    0.04094
H2N   5    0.253313    0.417172    0.415218    11.00000    0.04134
H3N   5    0.408228    0.306536    0.346252    11.00000    0.03525
H4N   5    0.336055    0.118786    1.046366    11.00000    0.02583
HKLF 4
REM  craigsulfno3 in P -1
REM R1 =  0.0451 for   2429 Fo > 4sig(Fo)  and  0.0591 for all   2977 data
REM    206 parameters refined using      0 restraints
END
WGHT      0.0489      0.4298
REM Highest difference peak  0.776,  deepest hole -0.377,  1-sigma level  0.068
Q1    1   0.7496  0.3282  0.6317  11.00000  0.05    0.78
Q2    1   0.0395  0.1928  0.3791  11.00000  0.05    0.70
Q3    1   0.3421 -0.0395  0.8380  11.00000  0.05    0.46
Q4    1   0.3680 -0.1678  0.7606  11.00000  0.05    0.35
Q5    1   0.0706  0.5779  0.3072  11.00000  0.05    0.34
Q6    1   0.2332  0.0948  0.6409  11.00000  0.05    0.32
Q7    1   0.5859  0.1466  0.6005  11.00000  0.05    0.31
Q8    1   0.1152 -0.0428  0.7752  11.00000  0.05    0.29
Q9    1   0.1446 -0.0431  0.7435  11.00000  0.05    0.29
Q10   1   0.4862 -0.1131  0.7848  11.00000  0.05    0.28
Q11   1   0.2209  0.1135  0.5377  11.00000  0.05    0.28
Q12   1   0.4739  0.0849  0.6495  11.00000  0.05    0.28
Q13   1   0.3083  0.0181  0.7353  11.00000  0.05    0.28
Q14   1  -0.0690  0.1246  0.8201  11.00000  0.05    0.27
Q15   1  -0.1927  0.2827  0.9709  11.00000  0.05    0.27
Q16   1   0.3252  0.0432  0.6061  11.00000  0.05    0.27
Q17   1   0.3123  0.1973  0.4996  11.00000  0.05    0.26
Q18   1   0.5131  0.2054  0.5180  11.00000  0.05    0.26
Q19   1   0.0644  0.1493  0.8879  11.00000  0.05    0.25
Q20   1   0.2828  0.0644  0.8816  11.00000  0.05    0.25
;
_cod_data_source_file            lg3144sup1.cif
_cod_data_source_block           VI
_cod_database_code               2311833
loop_
_symmetry_equiv_pos_as_xyz
'x, y, z'
'-x, -y, -z'
loop_
_atom_site_type_symbol
_atom_site_label
_atom_site_fract_x
_atom_site_fract_y
_atom_site_fract_z
_atom_site_U_iso_or_equiv
_atom_site_adp_type
_atom_site_calc_flag
_atom_site_refinement_flags
_atom_site_occupancy
_atom_site_symmetry_multiplicity
S S1 0.31611(10) -0.07161(5) 0.77390(4) 0.01458(14) Uani d . 1 1
O O1 0.5490(3) -0.18213(14) 0.76593(12) 0.0182(3) Uani d . 1 1
O O2 0.0876(3) -0.10972(16) 0.75678(12) 0.0215(3) Uani d . 1 1
O O3 0.0278(3) 0.5197(2) 0.26381(18) 0.0504(6) Uani d . 1 1
O O4 -0.3521(3) 0.50354(18) 0.24688(14) 0.0311(4) Uani d . 1 1
O O5 -0.1819(3) 0.45362(15) 0.40662(12) 0.0207(3) Uani d . 1 1
N N1 0.3888(4) 0.35138(19) 0.41482(15) 0.0169(4) Uani d . 1 1
N N2 0.3246(3) -0.00844(18) 0.89180(14) 0.0159(4) Uani d . 1 1
N N3 0.2015(3) 0.16323(19) 1.01576(14) 0.0166(4) Uani d . 1 1
N N4 -0.0507(3) 0.17178(19) 0.86457(14) 0.0187(4) Uani d . 1 1
N N5 -0.1690(4) 0.49396(19) 0.30339(16) 0.0222(4) Uani d . 1 1
C C1 0.3766(4) 0.2491(2) 0.50395(16) 0.0147(4) Uani d . 1 1
C C2 0.2027(4) 0.1732(2) 0.49778(17) 0.0159(4) Uani d . 1 1
H H2 0.0979 0.1869 0.4364 0.019 Uiso calc R 1 1
C C3 0.1839(4) 0.0768(2) 0.58262(16) 0.0154(4) Uani d . 1 1
H H3 0.0623 0.0255 0.5810 0.018 Uiso calc R 1 1
C C4 0.3440(4) 0.0559(2) 0.66987(16) 0.0132(4) Uani d . 1 1
C C5 0.5219(4) 0.1303(2) 0.67457(17) 0.0158(4) Uani d . 1 1
H H5 0.6323 0.1139 0.7341 0.019 Uiso calc R 1 1
C C6 0.5361(4) 0.2292(2) 0.59076(17) 0.0160(4) Uani d . 1 1
H H6 0.6542 0.2825 0.5931 0.019 Uiso calc R 1 1
C C7 0.1540(4) 0.1084(2) 0.92134(16) 0.0154(4) Uani d . 1 1
C C8 0.0485(4) 0.2791(2) 1.05659(17) 0.0192(4) Uani d . 1 1
H H8 0.0846 0.3139 1.1235 0.023 Uiso calc R 1 1
C C9 -0.1597(4) 0.3466(2) 1.00104(19) 0.0227(5) Uani d . 1 1
H H9 -0.2724 0.4293 1.0273 0.027 Uiso calc R 1 1
C C10 -0.1989(4) 0.2886(2) 0.90410(19) 0.0229(5) Uani d . 1 1
H H10 -0.3410 0.3354 0.8634 0.027 Uiso calc R 1 1
H H1N 0.528(6) 0.392(3) 0.419(2) 0.041(8) Uiso d . 1 1
H H2N 0.253(6) 0.417(3) 0.415(2) 0.041(9) Uiso d . 1 1
H H3N 0.408(5) 0.307(3) 0.346(2) 0.035(8) Uiso d . 1 1
H H4N 0.336(5) 0.119(3) 1.046(2) 0.026(7) Uiso d . 1 1
loop_
_atom_site_aniso_label
_atom_site_aniso_U_11
_atom_site_aniso_U_22
_atom_site_aniso_U_33
_atom_site_aniso_U_12
_atom_site_aniso_U_13
_atom_site_aniso_U_23
S1 0.0165(3) 0.0174(3) 0.0102(2) -0.00517(19) -0.00247(18) 0.00136(18)
O1 0.0222(8) 0.0169(7) 0.0139(7) -0.0022(6) -0.0027(6) 0.0002(6)
O2 0.0239(9) 0.0264(8) 0.0180(8) -0.0135(7) -0.0056(6) 0.0061(6)
O3 0.0225(10) 0.0633(14) 0.0593(14) -0.0107(9) 0.0046(9) 0.0348(11)
O4 0.0343(10) 0.0356(10) 0.0215(9) -0.0050(8) -0.0109(7) 0.0052(7)
O5 0.0255(9) 0.0217(8) 0.0147(7) -0.0060(6) -0.0035(6) 0.0020(6)
N1 0.0210(10) 0.0149(9) 0.0139(9) -0.0034(8) -0.0004(7) 0.0008(7)
N2 0.0170(9) 0.0200(9) 0.0093(8) -0.0020(7) -0.0033(6) 0.0007(7)
N3 0.0158(9) 0.0205(9) 0.0117(8) -0.0018(7) -0.0023(7) 0.0026(7)
N4 0.0166(9) 0.0235(9) 0.0136(8) -0.0012(7) -0.0032(7) 0.0025(7)
N5 0.0188(10) 0.0213(9) 0.0223(10) 0.0003(8) 0.0016(8) 0.0040(8)
C1 0.0160(10) 0.0138(9) 0.0114(9) 0.0001(8) 0.0019(8) 0.0003(7)
C2 0.0163(11) 0.0191(10) 0.0122(9) -0.0044(8) -0.0033(8) 0.0017(8)
C3 0.0135(10) 0.0200(10) 0.0138(10) -0.0067(8) -0.0007(8) 0.0001(8)
C4 0.0121(10) 0.0145(9) 0.0115(9) -0.0012(7) -0.0002(7) 0.0002(7)
C5 0.0138(10) 0.0194(10) 0.0140(10) -0.0031(8) -0.0042(8) -0.0015(8)
C6 0.0146(10) 0.0166(10) 0.0176(10) -0.0050(8) -0.0004(8) -0.0021(8)
C7 0.0154(10) 0.0205(10) 0.0103(9) -0.0061(8) 0.0007(8) 0.0026(8)
C8 0.0240(12) 0.0193(10) 0.0135(10) -0.0050(9) 0.0010(8) 0.0001(8)
C9 0.0231(12) 0.0202(11) 0.0205(11) 0.0011(9) -0.0001(9) 0.0004(9)
C10 0.0192(11) 0.0254(11) 0.0204(11) -0.0005(9) -0.0025(9) 0.0047(9)
loop_
_atom_type_symbol
_atom_type_description
_atom_type_scat_dispersion_real
_atom_type_scat_dispersion_imag
_atom_type_scat_source
S S 0.1246 0.1234 'International Tables Vol C Tables 4.2.6.8 and 6.1.1.4'
O O 0.0106 0.0060 'International Tables Vol C Tables 4.2.6.8 and 6.1.1.4'
N N 0.0061 0.0033 'International Tables Vol C Tables 4.2.6.8 and 6.1.1.4'
C C 0.0033 0.0016 'International Tables Vol C Tables 4.2.6.8 and 6.1.1.4'
H H 0.0000 0.0000 'International Tables Vol C Tables 4.2.6.8 and 6.1.1.4'
loop_
_geom_angle_atom_site_label_1
_geom_angle_atom_site_label_2
_geom_angle_atom_site_label_3
_geom_angle
O2 S1 O1 115.35(9)
O2 S1 N2 115.72(9)
O1 S1 N2 103.48(9)
O2 S1 C4 107.13(9)
O1 S1 C4 107.81(9)
N2 S1 C4 106.87(9)
C1 N1 H1N 113.7(17)
C1 N1 H2N 112(2)
H1N N1 H2N 107(3)
C1 N1 H3N 107.0(17)
H1N N1 H3N 109(2)
H2N N1 H3N 109(2)
C7 N2 S1 120.20(14)
C8 N3 C7 122.28(19)
C8 N3 H4N 122.6(17)
C7 N3 H4N 115.1(17)
C10 N4 C7 117.29(19)
O3 N5 O4 122.2(2)
O3 N5 O5 118.7(2)
O4 N5 O5 119.15(19)
C2 C1 C6 121.87(19)
C2 C1 N1 117.73(18)
C6 C1 N1 120.40(19)
C1 C2 C3 118.92(18)
C1 C2 H2 120.5
C3 C2 H2 120.5
C2 C3 C4 119.55(19)
C2 C3 H3 120.2
C4 C3 H3 120.2
C3 C4 C5 121.34(19)
C3 C4 S1 117.43(15)
C5 C4 S1 121.22(15)
C4 C5 C6 118.94(18)
C4 C5 H5 120.5
C6 C5 H5 120.5
C1 C6 C5 119.34(19)
C1 C6 H6 120.3
C5 C6 H6 120.3
N2 C7 N4 124.84(19)
N2 C7 N3 114.98(18)
N4 C7 N3 120.18(19)
N3 C8 C9 119.2(2)
N3 C8 H8 120.4
C9 C8 H8 120.4
C8 C9 C10 116.7(2)
C8 C9 H9 121.7
C10 C9 H9 121.7
N4 C10 C9 124.3(2)
N4 C10 H10 117.8
C9 C10 H10 117.8
loop_
_geom_bond_atom_site_label_1
_geom_bond_atom_site_label_2
_geom_bond_distance
S1 O2 1.4365(15)
S1 O1 1.4527(15)
S1 N2 1.5941(17)
S1 C4 1.771(2)
O3 N5 1.228(3)
O4 N5 1.233(2)
O5 N5 1.284(2)
N1 C1 1.455(3)
N1 H1N 0.96(3)
N1 H2N 0.85(3)
N1 H3N 0.95(3)
N2 C7 1.341(3)
N3 C8 1.338(3)
N3 C7 1.362(3)
N3 H4N 0.85(3)
N4 C10 1.330(3)
N4 C7 1.346(3)
C1 C2 1.382(3)
C1 C6 1.382(3)
C2 C3 1.386(3)
C2 H2 0.9500
C3 C4 1.388(3)
C3 H3 0.9500
C4 C5 1.388(3)
C5 C6 1.390(3)
C5 H5 0.9500
C6 H6 0.9500
C8 C9 1.363(3)
C8 H8 0.9500
C9 C10 1.389(3)
C9 H9 0.9500
C10 H10 0.9500
loop_
_geom_hbond_atom_site_label_D
_geom_hbond_atom_site_label_H
_geom_hbond_atom_site_label_A
_geom_hbond_site_symmetry_A
_geom_hbond_distance_DH
_geom_hbond_distance_HA
_geom_hbond_distance_DA
_geom_hbond_angle_DHA
N1 H1N O5 1_655 0.96(3) 1.85(3) 2.803(3) 171(3)
N1 H1N O4 1_655 0.96(3) 2.42(3) 2.968(3) 116(2)
N1 H2N O3 . 0.85(3) 2.31(3) 2.912(3) 128(3)
N1 H2N O5 . 0.85(3) 2.32(3) 3.021(3) 140(3)
N1 H3N O1 2_656 0.95(3) 1.85(3) 2.784(2) 166(3)
N3 H4N N2 2_657 0.85(3) 2.06(3) 2.911(3) 176(2)
N3 H4N O1 2_657 0.85(3) 2.55(3) 3.085(2) 122(2)
loop_
_geom_torsion_atom_site_label_1
_geom_torsion_atom_site_label_2
_geom_torsion_atom_site_label_3
_geom_torsion_atom_site_label_4
_geom_torsion
O2 S1 N2 C7 -61.49(19)
O1 S1 N2 C7 171.35(16)
C4 S1 N2 C7 57.69(18)
C6 C1 C2 C3 1.6(3)
N1 C1 C2 C3 -178.85(18)
C1 C2 C3 C4 -1.8(3)
C2 C3 C4 C5 0.5(3)
C2 C3 C4 S1 -178.48(15)
O2 S1 C4 C3 -11.74(19)
O1 S1 C4 C3 112.98(16)
N2 S1 C4 C3 -136.34(16)
O2 S1 C4 C5 169.27(16)
O1 S1 C4 C5 -66.01(18)
N2 S1 C4 C5 44.67(19)
C3 C4 C5 C6 1.0(3)
S1 C4 C5 C6 179.99(15)
C2 C1 C6 C5 -0.1(3)
N1 C1 C6 C5 -179.59(18)
C4 C5 C6 C1 -1.2(3)
S1 N2 C7 N4 8.6(3)
S1 N2 C7 N3 -170.79(14)
C10 N4 C7 N2 -178.8(2)
C10 N4 C7 N3 0.6(3)
C8 N3 C7 N2 -179.64(19)
C8 N3 C7 N4 1.0(3)
C7 N3 C8 C9 -1.3(3)
N3 C8 C9 C10 0.2(3)
C7 N4 C10 C9 -1.8(3)
C8 C9 C10 N4 1.4(4)
