#------------------------------------------------------------------------------
#$Date: 2018-07-06 05:01:24 +0300 (Fri, 06 Jul 2018) $
#$Revision: 208875 $
#$URL: file:///home/coder/svn-repositories/cod/cif/2/31/10/2311095.cif $
#------------------------------------------------------------------------------
#
# This file is available in the Crystallography Open Database (COD),
# http://www.crystallography.net/. The original data for this entry
# were provided by IUCr Journals, http://journals.iucr.org/.
#
# The file may be used within the scientific community so long as
# proper attribution is given to the journal article from which the
# data were obtained.
#
data_2311095
loop_
_publ_author_name
'Tanaka, Kiyoaki'
_publ_section_title
;
 X-ray molecular orbital analysis. I. Quantum mechanical and
 crystallographic framework
;
_journal_coeditor_code           KX5062
_journal_issue                   4
_journal_name_full               'Acta Crystallographica Section A'
_journal_page_first              345
_journal_page_last               356
_journal_paper_doi               10.1107/S2053273318005478
_journal_volume                  74
_journal_year                    2018
_chemical_formula_moiety         'N2 H4 C2 O2'
_chemical_formula_sum            'C2 H4 N2 O2'
_chemical_formula_weight         88.066
_chemical_name_common            diformohydrazide
_chemical_name_systematic        diformohydrazide
_space_group_IT_number           14
_symmetry_cell_setting           monoclinic
_symmetry_space_group_name_Hall  '-P 2yab'
_symmetry_space_group_name_H-M   'P 1 21/a 1'
_atom_sites_solution_primary     other
_atom_sites_solution_secondary   other
_audit_creation_method           ????-??-??
_cell_angle_alpha                90.00
_cell_angle_beta                 112.190(10)
_cell_angle_gamma                90.00
_cell_formula_units_Z            2
_cell_length_a                   8.9520(13)
_cell_length_b                   6.1946(5)
_cell_length_c                   3.4927(5)
_cell_measurement_reflns_used    24
_cell_measurement_temperature    100.0
_cell_measurement_theta_max      39.28
_cell_measurement_theta_min      35.80
_cell_volume                     179.34(4)
_computing_cell_refinement
;
RSLC-3 UNICS system (Sakurai, T. & Kobayashi, K. (1979), Rep. Inst. Phys. Chem.
Res. 55, 69-77)
;
_computing_data_collection
;
MXC (MAC Science) and a program IUANGLE by Tanaka
(Tanaka, K.,Kumazawa S., Tsubokawa, M., Maruno, S. &
Shirotani, I. (Acta Cryst., A50, 246-252(1994))
;
_computing_data_reduction        'RDEDIT (K. Tanaka)'
_computing_structure_refinement  'QNTMO (K. Tanaka, 2018)'
_diffrn_ambient_temperature      100.00(10)
_diffrn_detector_area_resol_mean '1.25x1.25 degrees'
_diffrn_measured_fraction_theta_full 1.0
_diffrn_measured_fraction_theta_max 0.547
_diffrn_measurement_device_type  'four-circle diffractometer'
_diffrn_measurement_method
'integrated intensities data from \w/2\q scans'
_diffrn_radiation_monochromator  graphite
_diffrn_radiation_source         'fine-focus rotating anode'
_diffrn_radiation_type           ' Mo K\a'
_diffrn_radiation_wavelength     0.71073
_diffrn_reflns_av_R_equivalents  0.0067
_diffrn_reflns_limit_h_max       23
_diffrn_reflns_limit_h_min       -24
_diffrn_reflns_limit_k_max       16
_diffrn_reflns_limit_k_min       -16
_diffrn_reflns_limit_l_max       8
_diffrn_reflns_limit_l_min       -5
_diffrn_reflns_number            4692
_diffrn_reflns_theta_full        15.00
_diffrn_reflns_theta_max         74.68
_diffrn_reflns_theta_min         4.11
_diffrn_standards_decay_%        0
_diffrn_standards_interval_count 50
_diffrn_standards_number         3
_exptl_absorpt_coefficient_mu    0.1355
_exptl_absorpt_correction_T_max  1.0000
_exptl_absorpt_correction_T_min  0.9840
_exptl_absorpt_correction_type   sphere
_exptl_absorpt_process_details
;
Transmission cefficient for spheres tabulated in International Table
II(1972) Table 5.3.6B was interpolated with Lagrange's method (four point
interpolation)
;
_exptl_crystal_colour            transparent
_exptl_crystal_density_diffrn    1.631
_exptl_crystal_description       sphere
_exptl_crystal_F_000             88
_exptl_crystal_size_rad          0.079
_refine_diff_density_max         0.002
_refine_diff_density_min         -0.076
_refine_ls_extinction_method     'B-C type 2 Gaussian anisotropic'
_refine_ls_goodness_of_fit_ref   0.8288
_refine_ls_hydrogen_treatment    refall
_refine_ls_matrix_type           full
_refine_ls_number_constraints    0
_refine_ls_number_parameters     842
_refine_ls_number_reflns         2423
_refine_ls_number_restraints     0
_refine_ls_R_factor_gt           0.0129
_refine_ls_shift/su_max          1.98
_refine_ls_shift/su_mean         0.403
_refine_ls_structure_factor_coef F
_refine_ls_weighting_scheme      sigma
_refine_ls_wR_factor_gt          0.0114
_reflns_number_gt                3035
_reflns_number_total             2423
_reflns_threshold_expression     F>3.0\s(F)
_cod_data_source_file            kx5062sup1.cif
_cod_data_source_block           global
_cod_original_cell_volume        179.30(10)
_cod_original_sg_symbol_H-M      'P 21/a  (origin at the center of N-N bond)'
_cod_original_formula_sum        'N2 H4 C2 O2'
_cod_database_code               2311095
loop_
_symmetry_equiv_pos_as_xyz
x,y,z
-x,-y,-z
1/2+x,1/2-y,z
1/2-x,1/2+y,-z
loop_
_atom_site_aniso_label
_atom_site_aniso_U_11
_atom_site_aniso_U_22
_atom_site_aniso_U_33
_atom_site_aniso_U_12
_atom_site_aniso_U_13
_atom_site_aniso_U_23
_atom_site_aniso_type_symbol
C 0.00812(3) 0.00804(6) 0.01054(15) -0.00093(2) 0.00084(3) -0.00005(5) C
N 0.007060(10) 0.00854(4) 0.009770(10) -0.00024(4) 0.00021(4) 0.00051(12) N
O 0.00832(4) 0.01041(3) 0.01331(9) -0.00108(4) -0.001050(10) -0.00065(5) O
H(N) 0.0162(16) 0.010(4) 0.0213(10) 0.0001(8) 0.0007(19) 0.006(2) H
H(C) 0.0341(9) 0.0215(11) 0.038(3) -0.005(2) 0.0084(18) 0.007(2) H
loop_
_atom_site_type_symbol
_atom_site_label
_atom_site_fract_x
_atom_site_fract_y
_atom_site_fract_z
_atom_site_occupancy
C C 0.138600(10) 0.218020(10) 0.10721(6) 1.0
N N 0.00323(2) 0.10455(2) -0.06475(6) 1.0
O O 0.261980(10) 0.14612(3) 0.38062(2) 1.0
H H(N) -0.0944(7) 0.1643(9) -0.2824(15) 1.0
H H(C) 0.1298(5) 0.3720(9) -0.0129(7) 1.0
loop_
_atom_type_symbol
_atom_type_description
_atom_type_scat_dispersion_real
_atom_type_scat_dispersion_imag
_atom_type_scat_source
C carbon 0.002 0.002
;
Calculated for each molecular orbital with a program QNTMO
by Kiyoaki Tanaka (Acta Cryst. A. (2018);submitted)
;
N nitrogen 0.004 0.003
;
Calculated for each molecular orbital with a program QNTMO
by Kiyoaki Tanaka (Acta Cryst. A. (2018);submitted)
;
O oxygen 0.008 0.003
;
Calculated for each molecular orbital with a program QNTMO
by Kiyoaki Tanaka (Acta Cryst. A. (2018);submitted)
;
H hydrogen 0.000 0.006
;
Calculated for each molecular orbital with a program QNTMO
by Kiyoaki Tanaka (Acta Cryst. A. (2018);submitted)
;
loop_
_diffrn_standard_refln_index_h
_diffrn_standard_refln_index_k
_diffrn_standard_refln_index_l
-4 0 0
-1 -2 0
0 0 1
loop_
_geom_angle_atom_site_label_1
_geom_angle_atom_site_label_2
_geom_angle_atom_site_label_3
_geom_angle_site_symmetry_1
_geom_angle_site_symmetry_2
_geom_angle_site_symmetry_3
_geom_angle
_geom_angle_publ_flag
C N N 1_555 1_555 3_555 119.410(10) n
N N H(N) 3_555 1_555 1_555 118.0(3) n
C N H(N) 1_555 1_555 1_555 122.6(3) n
N C O 1_555 1_555 1_555 123.550(10) n
N C H(C) 1_555 1_555 1_555 112.8(3) n
O C H(C) 1_555 1_555 1_555 123.7(3) n
loop_
_geom_bond_atom_site_label_1
_geom_bond_atom_site_label_2
_geom_bond_site_symmetry_1
_geom_bond_site_symmetry_2
_geom_bond_distance
_geom_bond_publ_flag
N N 1_555 2_555 1.3804(2) n
N C 1_555 1_555 1.3318(2) n
C O 1_555 1_555 1.2383(2) n
N H(N) 1_555 1_555 0.988(5) n
C H(C) 1_555 1_555 1.033(5) n
loop_
_geom_hbond_atom_site_label_D
_geom_hbond_atom_site_label_H
_geom_hbond_atom_site_label_A
_geom_hbond_site_symmetry_D
_geom_hbond_site_symmetry_H
_geom_hbond_site_symmetry_A
_geom_hbond_distance_DH
_geom_hbond_distance_HA
_geom_hbond_distance_DA
_geom_hbond_angle_DHA
_geom_hbond_publ_flag
N H(N) O 1_555 1_555 3_454 0.988(5) 1.810(5) 2.7644(17) 161.4(4) n
loop_
_geom_torsion_atom_site_label_1
_geom_torsion_atom_site_label_2
_geom_torsion_atom_site_label_3
_geom_torsion_atom_site_label_4
_geom_torsion_site_symmetry_1
_geom_torsion_site_symmetry_2
_geom_torsion_site_symmetry_3
_geom_torsion_site_symmetry_4
_geom_torsion
_geom_torsion_publ_flag
O C N N 1_555 1_555 1_555 2_555 0.31 n
O C N H(N) 1_555 1_555 1_555 1_555 179.86 n
C N N H(N) 2_555 2_555 1_555 1_555 0.43 n
H(C) C N N 1_555 1_555 1_555 2_555 -179.97 n
H(C) C N H(N) 1_555 1_555 1_555 1_555 -0.42 n
loop_
_refln_index_h
_refln_index_k
_refln_index_l
3 1 0
-3 -1 0
3 -1 0
-3 1 0
-2 0 1
2 0 -1
-4 1 2
4 -1 -2
-4 -1 2
4 1 -2
-2 0 2
2 0 -2
2 0 -2
1 4 0
-1 -4 0
1 -4 0
-1 4 0
0 4 0
0 4 0
0 -4 0
0 -4 0
3 2 0
-3 -2 0
3 -2 0
-3 2 0
2 2 0
-2 -2 0
2 -2 0
-2 2 0
1 2 0
-1 -2 0
1 -2 0
-1 2 0
0 2 0
0 2 0
0 -2 0
0 -2 0
2 1 0
-2 -1 0
2 -1 0
-2 1 0
1 1 0
-1 -1 0
1 -1 0
-1 1 0
-4 0 0
-4 0 0
4 0 0
4 0 0
-2 0 0
-2 0 0
2 0 0
2 0 0
-1 3 1
1 -3 -1
-1 -3 1
1 3 -1
-3 2 1
3 -2 -1
1 2 1
-1 -2 -1
1 -2 1
-1 2 -1
-4 2 1
4 -2 -1
-4 -2 1
4 2 -1
-2 4 1
2 -4 -1
-2 -4 1
2 4 -1
-5 1 1
5 -1 -1
-5 -1 1
5 1 -1
-2 1 1
2 -1 -1
-2 -1 1
2 1 -1
-1 1 1
1 -1 -1
-1 -1 1
1 1 -1
3 1 1
-3 -1 -1
3 -1 1
-3 1 -1
-6 0 1
6 0 -1
6 0 -1
0 0 1
0 0 1
0 0 -1
0 0 -1
2 0 1
2 0 1
-2 0 -1
-2 0 -1
-3 2 2
3 -2 -2
-3 -2 2
-3 -2 2
3 2 -2
-3 1 2
3 -1 -2
-3 -1 2
3 1 -2
8 0 0
8 0 0
-8 0 0
-8 0 0
2 4 1
-2 -4 -1
2 -4 1
2 -4 1
-2 4 -1
-6 3 1
6 -3 -1
6 3 -1
6 0 1
6 0 1
-6 0 -1
-3 3 2
3 -3 -2
-3 -3 2
-3 -3 2
3 3 -2
0 3 2
0 3 2
0 -3 -2
0 -3 2
0 3 -2
4 1 2
-4 -1 -2
4 -1 2
4 -1 2
-4 1 -2
-5 2 3
5 -2 -3
-5 -2 3
-5 -2 3
5 2 -3
-4 -4 0
4 -4 0
2 3 0
2 3 0
-2 -3 0
-2 -3 0
2 -3 0
2 -3 0
-2 3 0
-2 3 0
1 3 0
-1 -3 0
1 -3 0
-1 3 0
5 2 0
-5 -2 0
5 -2 0
-5 2 0
4 2 0
-4 -2 0
4 -2 0
-4 2 0
-6 0 0
-6 0 0
-6 0 0
6 0 0
6 0 0
6 0 0
-3 3 1
3 -3 -1
-3 -3 1
3 3 -1
2 3 1
-2 -3 -1
2 -3 1
-2 3 -1
2 2 1
-2 -2 -1
2 -2 1
-2 2 -1
3 2 1
-3 -2 -1
3 -2 1
-3 2 -1
-4 0 1
-4 0 1
4 0 -1
4 0 -1
4 0 1
4 0 1
-4 0 -1
-4 0 -1
0 1 2
0 -1 -2
0 -1 2
0 1 -2
1 1 2
-1 -1 -2
1 -1 2
-1 1 -2
0 0 2
0 0 2
0 0 -2
0 0 -2
7 1 0
-7 -1 0
-7 -1 0
7 -1 0
7 -1 0
-7 1 0
6 1 0
-6 -1 0
-6 -1 0
6 -1 0
6 -1 0
-6 1 0
1 6 1
-1 -6 -1
1 -6 1
1 -6 1
-1 6 -1
-5 5 1
5 -5 -1
-5 -5 1
-5 -5 1
5 5 -1
3 5 1
-3 -5 -1
3 -5 1
3 -5 1
-3 5 -1
-5 3 1
5 -3 -1
-5 -3 1
-5 -3 1
5 3 -1
4 2 1
-4 -2 -1
4 -2 1
4 -2 1
-4 2 -1
-10 1 1
10 -1 -1
-10 -1 1
-10 -1 1
10 1 -1
-8 0 1
-8 0 1
8 0 -1
0 5 2
0 -5 -2
0 -5 2
0 -5 2
0 5 -2
-5 3 2
5 -3 -2
-5 -3 2
-5 -3 2
5 3 -2
2 2 2
-2 -2 -2
2 -2 2
2 -2 2
-2 2 -2
3 2 2
-3 -2 -2
3 -2 2
3 -2 2
-3 2 -2
-6 1 2
6 -1 -2
-6 -1 2
-6 -1 2
6 1 -2
4 0 2
4 0 2
-4 0 -2
2 1 3
2 1 3
-2 -1 -3
2 -1 3
-2 1 -3
-6 0 3
-6 0 3
6 0 -3
-4 0 3
-4 0 3
4 0 -3
4 -3 0
-3 -3 0
3 -3 0
-5 -1 0
5 -1 0
-4 -1 0
4 -1 0
-1 -4 1
0 -4 1
-4 -3 1
-2 -3 1
0 -3 1
1 -3 1
-5 -2 1
-2 -2 1
0 -2 1
-4 -1 1
-3 -1 1
1 -1 1
4 -1 1
-4 -2 2
-2 -2 2
-1 -2 2
0 -2 2
0 -2 2
-2 -1 2
-2 -1 2
-1 -1 2
-4 0 2
-2 -8 0
-2 -8 0
-2 -8 0
2 -8 0
-1 -8 0
-1 -8 0
-1 -8 0
1 -8 0
0 -8 0
0 -8 0
-4 -8 0
-4 -8 0
4 -8 0
-3 -8 0
-3 -8 0
3 -8 0
5 -7 0
-3 -7 0
3 -7 0
-2 -7 0
-1 -7 0
1 -7 0
-8 -6 0
8 -6 0
-7 -6 0
7 -6 0
-6 -6 0
6 -6 0
-5 -6 0
5 -6 0
-4 -6 0
-3 -6 0
3 -6 0
-2 -6 0
2 -6 0
0 -6 0
-9 -5 0
9 -5 0
-8 -5 0
8 -5 0
-7 -5 0
7 -5 0
-5 -5 0
5 -5 0
-4 -5 0
4 -5 0
-3 -5 0
3 -5 0
-2 -5 0
2 -5 0
-1 -5 0
1 -5 0
-10 -4 0
10 -4 0
-9 -4 0
9 -4 0
-8 -4 0
8 -4 0
-7 -4 0
7 -4 0
-6 -4 0
6 -4 0
-3 -4 0
3 -4 0
-10 -3 0
10 -3 0
-9 -3 0
9 -3 0
-7 -3 0
7 -3 0
6 -3 0
-5 -3 0
5 -3 0
-11 -2 0
11 -2 0
-10 -2 0
10 -2 0
-9 -2 0
9 -2 0
-8 -2 0
8 -2 0
-7 -2 0
7 -2 0
-6 -2 0
-11 -1 0
11 -1 0
-10 -1 0
10 -1 0
-9 -1 0
-8 -1 0
8 -1 0
-10 0 0
10 0 0
10 0 0
-4 -8 1
-3 -8 1
-2 -8 1
-1 -8 1
0 -8 1
1 -8 1
2 -8 1
-7 -7 1
-6 -7 1
-5 -7 1
-4 -7 1
-3 -7 1
-2 -7 1
-1 -7 1
0 -7 1
1 -7 1
2 -7 1
3 -7 1
4 -7 1
5 -7 1
-9 -6 1
-8 -6 1
-7 -6 1
-6 -6 1
-5 -6 1
-4 -6 1
-2 -6 1
-1 -6 1
0 -6 1
3 -6 1
4 -6 1
5 -6 1
6 -6 1
7 -6 1
-10 -5 1
-9 -5 1
-8 -5 1
-7 -5 1
-6 -5 1
-4 -5 1
-3 -5 1
-2 -5 1
-1 -5 1
1 -5 1
2 -5 1
4 -5 1
5 -5 1
6 -5 1
7 -5 1
8 -5 1
-10 -4 1
-9 -4 1
-8 -4 1
-7 -4 1
-6 -4 1
-5 -4 1
-4 -4 1
-3 -4 1
1 -4 1
3 -4 1
4 -4 1
5 -4 1
6 -4 1
7 -4 1
8 -4 1
-11 -3 1
-10 -3 1
-9 -3 1
-7 -3 1
3 -3 1
4 -3 1
5 -3 1
6 -3 1
7 -3 1
8 -3 1
-12 -2 1
-11 -2 1
-10 -2 1
-9 -2 1
-8 -2 1
-7 -2 1
-6 -2 1
5 -2 1
6 -2 1
7 -2 1
8 -2 1
9 -2 1
10 -2 1
-12 -1 1
-11 -1 1
-9 -1 1
5 -1 1
6 -1 1
7 -1 1
8 -1 1
-12 0 1
-10 0 1
8 0 1
10 0 1
-6 -7 2
-4 -7 2
-3 -7 2
-2 -7 2
-1 -7 2
0 -7 2
1 -7 2
2 -7 2
3 -7 2
-8 -6 2
-7 -6 2
-6 6 2
-4 -6 2
-3 -6 2
-2 -6 2
-1 -6 2
0 -6 2
1 -6 2
2 -6 2
3 -6 2
4 -6 2
5 -6 2
-10 -5 2
-9 -5 2
-8 -5 2
-7 -5 2
-6 -5 2
-5 -5 2
-3 -5 2
-2 -5 2
-1 -5 2
1 -5 2
2 -5 2
3 -5 2
4 -5 2
5 -5 2
6 -5 2
-11 -4 2
-10 -4 2
-9 -4 2
-8 -4 2
-7 -4 2
-6 4 2
-5 4 2
-4 4 2
-3 4 2
-2 4 2
-1 4 2
0 -4 2
1 -4 2
2 -4 2
3 -4 2
4 -4 2
5 -4 2
6 -4 2
7 -4 2
-11 -3 2
-10 -3 2
-9 -3 2
-8 -3 2
-7 3 2
-6 -3 2
-4 -3 2
-2 -3 2
-1 -3 2
1 -3 2
2 -3 2
3 -3 2
4 -3 2
5 -3 2
6 -3 2
7 -3 2
-12 -2 2
-11 -2 2
-10 -2 2
-9 -2 2
-8 2 2
-7 -2 2
-6 -2 2
-5 -2 2
5 -2 2
6 -2 2
7 -2 2
8 -2 2
-12 -1 2
-11 -1 2
-10 -1 2
-8 -1 2
-7 -1 2
2 -1 2
3 -1 2
5 -1 2
6 -1 2
8 -1 2
-12 0 2
-10 0 2
-8 0 2
-6 0 2
2 0 2
6 0 2
8 0 2
-7 -6 3
-6 -6 3
-5 -6 3
-4 -6 3
-3 -6 3
-2 -6 3
-1 -6 3
0 -6 3
1 -6 3
-9 -5 3
-8 5 3
-7 5 3
-6 5 3
-5 5 3
-4 5 3
-3 5 3
-2 5 3
-1 -5 3
0 -5 3
1 -5 3
2 -5 3
3 -5 3
-10 4 3
-8 -4 3
-7 -4 3
-5 -4 3
-3 -4 3
-2 -4 3
-1 4 3
0 4 3
1 -4 3
2 -4 3
3 -4 3
-11 3 3
-10 3 3
-9 -3 3
-8 -3 3
-7 -3 3
-6 -3 3
-5 -3 3
-4 -3 3
-1 -3 3
0 -3 3
1 3 3
2 -3 3
3 -3 3
5 -3 3
-11 -2 3
-10 -2 3
-9 -2 3
-8 -2 3
-7 -2 3
-6 -2 3
-4 -2 3
-3 -2 3
-2 -2 3
-1 -2 3
0 -2 3
1 -2 3
2 -2 3
3 -2 3
4 -2 3
5 -2 3
-12 -1 3
-11 -1 3
-10 -1 3
-9 -1 3
-8 -1 3
-7 -1 3
-6 -1 3
-4 -1 3
-2 -1 3
-1 -1 3
0 -1 3
1 -1 3
3 -1 3
5 -1 3
6 -1 3
-12 0 3
-8 0 3
-2 0 3
0 0 3
2 0 3
4 0 3
6 0 3
-4 -5 4
-3 5 4
-8 -4 4
-8 -4 4
-7 -4 4
-7 4 4
-6 -4 4
-5 -4 4
-4 -4 4
-2 -4 4
-1 -4 4
0 4 4
-9 -3 4
-8 -3 4
-7 -3 4
-6 -3 4
-5 -3 4
-4 -3 4
-3 -3 4
-2 -3 4
-1 -3 4
0 -3 4
0 -3 4
-4 -10 0
-4 -10 0
-4 -10 0
-4 10 0
4 -10 0
-10 -2 4
-8 -2 4
-7 -2 4
-6 -2 4
-5 -2 4
-4 -2 4
-3 -2 4
-2 -2 4
-1 -2 4
0 -2 4
1 -2 4
-10 -1 4
-9 -1 4
-7 -1 4
-6 -1 4
-4 -1 4
-2 -1 4
-1 -1 4
0 -1 4
2 1 4
-10 0 4
-8 0 4
-4 0 4
-2 0 4
0 0 4
2 0 4
-3 -10 0
3 -10 0
-2 -10 0
2 -10 0
-1 -10 0
1 -10 0
0 -10 0
-7 -9 0
7 -9 0
-6 -9 0
6 -9 0
-5 -9 0
5 -9 0
-4 -9 0
4 -9 0
-3 -9 0
3 -9 0
-2 -9 0
2 -9 0
-1 -9 0
1 -9 0
-9 -8 0
9 -8 0
-8 -8 0
8 -8 0
-7 -8 0
7 -8 0
-5 -8 0
5 -8 0
-10 -7 0
10 -7 0
-9 -7 0
9 -7 0
-8 7 0
8 -7 0
-7 -7 0
7 -7 0
-11 -6 0
-10 -6 0
10 -6 0
-9 -6 0
-12 5 0
12 -5 0
-11 -5 0
11 -5 0
-10 -5 0
10 -5 0
-13 -4 0
13 -4 0
-12 -4 0
12 -4 0
-11 -4 0
11 -4 0
-13 -3 0
13 -3 0
-12 -3 0
12 -3 0
-11 -3 0
11 -3 0
-13 -2 0
13 -2 0
-12 -2 0
12 -2 0
-14 -1 0
14 -1 0
-13 -1 0
13 -1 0
-14 0 0
14 0 0
-12 0 0
12 0 0
-5 -10 1
-4 -10 1
-3 -10 1
-2 -10 1
0 -10 1
1 -10 1
2 10 1
-8 -9 1
-7 -9 1
-6 -9 1
-5 -9 1
-4 -9 1
-3 -9 1
-2 -9 1
-1 -9 1
0 -9 1
1 -9 1
2 -9 1
3 9 1
4 -9 1
5 -9 1
-9 -8 1
-8 8 1
-7 -8 1
-6 -8 1
-5 -8 1
3 -8 1
5 -8 1
6 -8 1
7 -8 1
-11 -7 1
-10 -7 1
9 7 -1
-8 -7 1
6 -7 1
7 -7 1
8 -7 1
9 -7 1
-12 -6 1
-10 -6 1
8 -6 1
9 -6 1
10 -6 1
-13 -5 1
-12 -5 1
-11 -5 1
9 -5 1
11 -5 1
-13 -4 1
-12 -4 1
10 -4 1
11 -4 1
-14 -3 1
-13 -3 1
12 -3 -1
12 -3 1
-14 -2 1
-13 -2 1
11 -2 1
12 -2 1
-14 -1 1
-13 -1 1
11 -1 1
12 -1 1
-14 0 1
-6 -9 2
-4 -9 2
-3 -9 2
-2 -9 2
-1 -9 2
0 -9 2
1 -9 2
2 -9 2
3 -9 2
-9 -8 2
-7 -8 2
-6 -8 2
-5 -8 2
-4 -8 2
-3 -8 2
-2 -8 2
-1 8 2
0 -8 2
2 8 2
3 -8 2
4 -8 2
5 -8 2
-11 -7 2
-10 -7 2
-9 -7 2
-8 -7 2
-7 -7 2
4 -7 2
6 -7 2
7 -7 2
-12 -6 2
-11 -6 2
6 -6 2
7 -6 2
-13 -5 2
-12 -5 2
-11 -5 2
7 -5 2
8 -5 2
9 -5 2
-14 -4 2
-13 -4 2
-12 -4 2
8 -4 2
9 -4 2
10 -4 2
-14 -3 2
-13 -3 2
-12 -3 2
8 -3 2
9 -3 2
10 3 2
-15 -2 2
9 -2 2
10 -2 2
11 -2 2
-15 -1 2
-14 -1 2
-13 -1 2
9 -1 2
10 -1 2
11 1 2
-14 0 2
10 0 2
-5 9 3
-4 -9 3
-3 -9 3
-2 -9 3
-1 -9 3
-8 -8 3
-7 -8 3
-6 -8 3
-4 -8 3
-3 -8 3
-2 -8 3
-1 -8 3
0 -8 3
1 -8 3
3 -8 3
-10 -7 3
-9 -7 3
-8 -7 3
-7 -7 3
-6 -7 3
-5 -7 3
-4 -7 3
-3 -7 3
-2 -7 3
-1 7 3
0 -7 3
2 -7 3
3 -7 3
4 -7 3
5 -7 3
-12 -6 3
-11 6 3
-10 -6 3
-9 -6 3
-8 -6 3
2 6 3
4 -6 3
4 -6 3
5 -6 3
6 -6 3
-13 -5 3
4 -5 3
5 -5 3
6 -5 3
7 -5 3
-12 -4 3
-11 -4 3
5 -4 3
7 -4 3
8 -4 3
-14 -3 3
-13 -3 3
-13 -3 3
-12 -3 3
6 -3 3
7 -3 3
8 -3 3
-14 -2 3
-13 -2 3
-12 -2 3
6 -2 3
7 -2 3
8 -2 3
9 -2 3
-15 -1 3
-13 -1 3
7 -1 3
8 -1 3
9 1 3
-14 0 3
8 0 3
-8 -7 4
-7 -7 4
-6 -7 4
-5 -7 4
-4 -7 4
-3 -7 4
-2 -7 4
-1 -7 4
0 -7 4
-10 -6 4
-9 6 4
-8 -6 4
-7 6 4
-6 6 4
-5 6 4
-4 6 4
-3 6 4
-2 -6 4
-1 -6 4
0 -6 4
1 -6 4
2 -6 4
-12 5 4
-11 -5 4
-10 5 4
-9 -5 4
-8 -5 4
-7 -5 4
-6 -5 4
-2 5 4
0 -5 4
1 -5 4
2 -5 4
3 -5 4
4 -5 4
-12 4 4
-11 -4 4
1 -4 4
2 -4 4
3 -4 4
4 4 4
5 4 4
-11 -3 4
-10 -3 4
4 -3 4
5 -3 4
-14 2 4
-13 -2 4
-11 -2 4
3 -2 4
4 -2 4
5 -2 4
-14 -1 4
-12 -1 4
-11 -1 4
3 -1 4
4 -1 4
5 -1 4
6 -1 4
-14 0 4
-12 0 4
6 0 4
-8 -5 5
-7 -5 5
-6 -5 5
-5 -5 5
-4 -5 5
-3 -5 5
-10 -4 5
-9 -4 5
-8 -4 5
-7 -4 5
-6 -4 5
-5 -4 5
-4 -4 5
-3 -4 5
-2 -4 5
-1 -4 5
0 4 5
-11 -3 5
-10 -3 5
-9 -3 5
-8 -3 5
-6 -3 5
-5 -3 5
-4 -3 5
-3 -3 5
-2 -3 5
-1 -3 5
0 -3 5
-12 -2 5
-11 -2 5
-10 -2 5
-9 -2 5
-8 -2 5
-7 -2 5
-6 -2 5
-5 -2 5
-4 -2 5
-1 -2 5
0 -2 5
1 2 5
-12 -1 5
-10 -1 5
-9 -1 5
-8 -1 5
-6 -1 5
-5 -1 5
-4 -1 5
-3 -1 5
-2 -1 5
-1 -1 5
0 -1 5
2 -1 5
-8 0 5
-6 0 5
-4 0 5
-2 0 5
0 0 5
2 0 5
-3 -12 0
3 12 0
-1 12 0
1 -12 0
0 -12 0
-7 -11 0
-5 -11 0
5 -11 0
-4 -11 0
4 -11 0
-3 -11 0
3 -11 0
-2 -11 0
2 -11 0
-9 -10 0
9 -10 0
-8 -10 0
8 -10 0
7 10 0
7 -10 0
-6 -10 0
6 -10 0
-5 -10 0
5 -10 0
-10 -9 0
10 -9 0
-9 -9 0
9 -9 0
-8 -9 0
8 9 0
-12 -8 0
12 -8 0
-11 -8 0
11 -8 0
10 -8 0
-13 -7 0
13 -7 0
-11 -7 0
11 -7 0
-14 -6 0
14 -6 0
-13 -6 0
13 -6 0
-15 -5 0
15 -5 0
-14 -5 0
14 -5 0
-13 -5 0
13 -5 0
-15 -3 0
15 -3 0
-14 2 0
-14 2 0
-16 -1 0
16 -1 0
-15 -1 0
15 -1 0
-16 0 0
16 0 0
-3 -12 1
-1 -12 1
0 12 1
-7 -11 1
-6 11 1
-5 -11 1
-4 -11 1
-3 -11 1
2 11 -1
-1 -11 1
0 11 -1
1 -11 1
2 -11 1
3 -11 1
4 -11 1
5 -11 1
-10 -10 1
-9 -10 1
-9 -10 1
-8 -10 1
-8 -10 1
-7 -10 1
-7 -10 1
-6 -10 1
-6 -10 1
4 -10 1
5 -10 1
5 -10 1
6 -10 1
7 -10 1
7 -10 1
8 -10 1
8 -10 1
-11 -9 1
-11 -9 1
-10 -9 1
-10 -9 1
-9 -9 1
-9 -9 1
7 -9 1
7 -9 1
9 -9 1
9 -9 1
-13 -8 1
-13 -8 1
-12 -8 1
-12 -8 1
-11 -8 1
-11 -8 1
-10 -8 1
-10 -8 1
9 -8 1
9 -8 1
9 -8 1
10 -8 1
10 -8 1
10 -8 1
11 -8 1
-14 -7 1
-14 -7 1
-13 -7 1
-13 -7 1
-12 -7 1
-12 -7 1
11 -7 1
11 -7 1
12 -7 1
-15 6 1
-15 6 1
-12 -9 1
-14 -6 1
-13 -6 1
11 -6 1
12 -6 1
13 6 1
-14 -5 1
12 -5 1
13 -5 1
-16 -4 1
-15 -4 1
-14 -4 1
13 -4 1
14 -4 1
13 -3 1
-17 2 1
-16 -2 1
-15 -2 1
13 -2 1
14 -2 1
15 -2 1
-17 -1 1
13 -1 1
14 -1 1
15 -1 1
-16 0 1
14 0 1
-7 -11 2
-6 -11 2
-5 -11 2
4 -11 -2
-3 -11 2
-2 -11 2
-1 -11 2
0 -11 2
2 -11 2
3 -11 2
-8 -10 2
-7 -10 2
-4 -10 2
-3 -10 2
0 -10 2
1 -10 2
2 -10 2
3 -10 2
4 -10 2
5 -10 2
6 -10 2
-10 -9 2
-9 -9 2
-8 -9 2
-4 9 -2
5 -9 2
6 -9 2
7 -9 2
8 9 2
-13 -8 2
-11 -8 2
-10 8 2
7 -8 2
8 -8 2
9 -8 2
-14 -7 2
-12 -7 2
8 -7 2
9 -7 2
10 -7 2
-15 -6 2
-14 -6 2
-13 -6 2
10 -6 2
-16 -5 2
10 -5 2
11 -5 2
12 5 2
-16 -4 2
-15 -4 2
11 -4 2
12 -4 2
-16 -3 2
-15 -3 2
11 -3 2
12 -3 2
13 -3 2
-17 -2 2
-16 -2 2
12 2 2
13 -2 2
-16 -1 2
12 -1 2
13 -1 2
-16 0 2
12 0 2
-4 -11 3
-1 -11 3
-8 10 3
-7 -10 3
-6 -10 3
-5 -10 3
-4 -10 3
-3 -10 3
-2 -10 3
-1 -10 3
0 -10 3
2 -10 3
3 -10 3
-11 -9 3
-10 -9 3
-9 -9 3
-8 -9 3
0 -9 3
4 -9 3
5 -9 3
-12 -8 3
-11 -8 3
-9 -8 3
4 -8 3
5 -8 3
7 -8 3
-14 -7 3
-13 -7 3
-12 -7 3
-11 -7 3
6 -7 3
7 -7 3
8 -7 3
-15 -6 3
-13 -6 3
7 -6 3
9 -6 3
-16 -5 3
-16 -5 3
-14 -5 3
8 -5 3
9 -5 3
10 -5 3
-16 -4 3
-15 -4 3
10 -4 3
-16 -3 3
-15 -3 3
9 -3 3
10 -3 3
11 -3 3
-17 -2 3
-16 -2 3
10 -2 3
11 -2 3
-16 -1 3
10 -1 3
11 -1 3
-16 0 3
-10 0 -3
-5 -10 4
-4 -10 4
-3 -10 4
3 -10 -4
-8 -9 4
-7 -9 4
-5 -9 4
-4 -9 4
-3 -9 4
1 -9 4
2 -9 4
-11 -8 4
-9 8 4
-8 -8 4
-6 8 4
-5 -8 4
-4 -8 4
-2 8 4
-1 -8 4
0 -8 4
1 -8 4
2 -8 4
3 -8 4
4 -8 4
4 -8 4
-13 -7 4
-12 -7 4
-11 -7 4
-10 -7 4
2 -7 4
3 -7 4
4 -7 4
-14 -6 4
-12 -6 4
-11 -6 4
3 -6 4
4 -6 4
5 -6 4
6 -6 4
-13 5 4
5 -5 4
7 -5 4
-16 -4 4
-15 -4 4
-14 -4 4
6 -4 4
7 -4 4
-16 -3 4
-15 -3 4
-14 -3 4
6 -3 4
7 -3 4
8 -3 4
9 -3 4
-17 2 4
-15 -2 4
8 -2 4
9 -2 4
-17 -1 4
-16 1 4
-15 -1 4
7 1 4
8 -1 4
9 1 4
-16 0 4
8 0 4
-6 -8 5
-3 -8 5
-2 -8 5
-10 7 5
-8 7 5
-7 7 5
-6 7 5
-5 7 5
-4 7 5
-2 -7 5
-1 -7 5
0 -7 5
1 -7 5
-11 6 5
-9 6 5
-8 -6 5
-6 6 5
-4 6 5
-3 6 5
-1 -6 5
0 -6 5
1 -6 5
2 -6 5
3 -6 5
-14 5 5
-13 5 5
-12 -5 5
-11 -5 5
-10 5 5
-9 -5 5
0 -5 5
2 -5 5
3 -5 5
4 -5 5
-13 4 5
-12 -4 5
-11 -4 5
-11 4 5
1 -4 5
2 -4 5
5 -4 5
-13 -3 5
-12 -3 5
-12 3 5
4 -3 5
5 -3 5
-15 -2 5
-14 -2 5
-13 -2 5
3 -2 5
4 -2 5
5 -2 5
6 -2 5
-15 1 5
-14 -1 5
-13 -1 5
3 -1 5
4 -1 5
6 -1 5
-16 0 5
-14 0 5
4 0 5
6 0 5
-8 -6 6
-8 -6 6
-7 -6 6
-6 -6 6
-5 -6 6
-4 6 6
-10 -5 6
-8 -5 6
-7 -5 6
-7 5 6
-6 -5 6
-5 -5 6
-3 -5 6
-2 5 6
-12 -4 6
-11 -4 6
-10 -4 6
-9 -4 6
-6 -4 6
-4 -4 6
-3 -4 6
-1 4 6
0 4 6
-11 -3 6
-10 -3 6
-7 -3 6
-5 -3 6
-4 -3 6
-3 -3 6
-2 -3 6
0 -3 6
1 -3 6
-13 -2 6
-12 -2 6
-9 -2 6
-8 -2 6
-7 -2 6
-6 -2 6
-5 -2 6
-4 -2 6
-3 -2 6
-2 -2 6
-1 -2 6
0 2 6
-14 -1 6
-11 -1 6
-9 -1 6
-7 -1 6
-6 -1 6
-4 -1 6
-3 -1 6
-2 -1 6
-1 -1 6
0 -1 6
0 -1 6
2 -1 6
-14 0 6
-12 0 6
-10 0 6
-8 0 6
-6 0 6
-2 0 6
0 0 6
-6 -13 0
6 -13 0
-2 -13 0
2 13 0
2 13 0
-1 13 0
1 -13 0
-8 12 0
10 -10 0
10 -10 0
-10 -10 0
-10 -10 0
-5 -13 0
5 -13 0
-3 -13 0
3 -13 0
-9 -12 0
9 -12 0
-7 -12 0
7 12 0
-11 11 0
11 -11 0
11 -11 0
-10 11 0
10 -11 0
10 -11 0
10 -11 0
-9 -11 0
9 -11 0
-14 -9 0
-14 -9 0
14 -9 0
14 -9 0
-13 -9 0
13 -9 0
-12 -9 0
12 -9 0
-15 -8 0
15 -8 0
14 -8 0
-13 -8 0
13 -8 0
14 -7 0
14 -7 0
-16 -7 0
-16 -6 0
16 -6 0
-15 -6 0
15 -6 0
-17 -5 0
17 -5 0
-16 -5 0
16 5 0
16 -5 0
-17 -4 0
17 -4 0
-16 -4 0
16 -4 0
-17 -3 0
17 -3 0
-18 -2 0
18 -2 0
-17 2 0
-17 2 0
17 -2 0
-17 -2 0
-18 -1 0
18 -1 0
-6 -13 1
-5 -13 1
-4 -13 1
-3 -13 1
-2 -13 1
1 -13 -1
0 -13 1
1 -13 1
2 -13 1
3 -13 1
5 -13 1
-9 -12 1
-8 -12 1
-7 -12 1
-5 -12 1
3 -12 1
4 -12 1
5 -12 1
6 -12 1
7 -12 1
-11 -11 1
-10 -11 1
-9 -11 1
9 11 1
9 -11 1
-13 -10 1
13 -10 -1
-12 -10 1
-11 10 1
-11 -10 1
9 -10 1
10 -10 1
11 -10 1
14 -9 -1
-14 -9 1
-11 9 -1
11 -9 1
-15 -8 1
13 -8 1
-16 -7 1
-16 -7 1
-15 -7 1
-15 -7 1
13 -7 1
13 -7 1
-16 -6 1
-16 -6 1
14 -6 1
14 6 1
14 6 1
-18 -5 1
18 5 -1
18 -5 -1
-17 -5 1
-17 -5 1
-16 -5 1
-16 -5 1
14 -5 1
15 -5 1
15 -5 1
16 -5 1
16 -5 1
-18 -4 1
-17 -4 1
15 -4 1
15 -4 1
16 -4 1
16 -4 1
-18 3 1
-18 -3 1
-17 -3 1
-17 -3 1
15 -3 1
16 -3 1
16 -3 1
-18 -2 1
-18 -2 1
16 -2 1
16 -2 1
17 -2 1
17 -2 1
-18 -1 1
-18 -1 1
16 -1 1
17 -1 1
-18 0 1
18 0 -1
-6 -13 2
-5 -13 2
-4 13 2
-4 13 2
-2 -13 2
-1 13 2
0 -13 2
2 -13 2
-9 -12 2
-8 -12 2
-7 -12 2
-6 -12 2
6 12 -2
6 -12 -2
-5 -12 2
-4 12 2
2 -12 -2
-1 -12 2
1 -12 2
2 -12 2
4 -12 2
5 -12 2
6 -12 2
-6 -12 -2
-12 -11 2
-10 -11 2
4 -11 2
5 -11 2
6 -11 2
7 11 2
8 -11 2
1 2 6
2 -2 6
1 1 6
2 0 6
-6 -12 0
6 12 0
-4 -12 0
4 -12 0
-13 -10 2
-12 -10 2
-11 -10 2
7 -10 2
9 -10 2
15 9 -2
-14 9 2
9 -9 2
10 -9 2
11 -9 2
15 -8 -2
-14 8 2
11 -8 2
12 -8 2
-17 -7 2
-16 -7 2
11 -7 2
12 -7 2
13 -7 2
-17 6 2
-16 6 2
12 -6 2
14 -6 2
-18 -5 2
-18 -4 2
-17 -4 2
13 -4 2
14 4 2
15 4 2
14 -3 2
-15 -3 -2
-19 -2 2
15 -2 2
-18 -1 2
14 1 2
-15 1 -2
-18 0 2
14 0 2
-7 -12 3
-6 -12 3
-3 -12 3
-2 -12 3
-1 -12 3
1 -12 3
-2 12 -3
-11 -11 3
-10 -11 3
-9 -11 3
-8 11 3
-7 -11 3
-6 -11 3
0 -11 3
1 -11 3
2 -11 3
3 -11 3
4 -11 3
-5 11 -3
-13 10 3
-12 -10 3
-11 -10 3
-10 -10 3
4 -10 3
6 -10 3
7 -10 3
-13 -9 3
-12 9 3
6 -9 3
8 -9 3
-16 -8 3
-15 -8 3
-15 8 3
-14 -8 3
8 -8 3
9 -8 3
10 -8 3
-17 -7 3
-16 -7 3
-9 -7 -3
10 -7 3
11 -7 3
-17 -6 3
-16 -6 3
16 6 -3
12 -6 3
-18 5 3
-17 -5 3
12 -5 3
-19 -4 3
-18 -4 3
13 -4 3
12 -3 3
13 -3 3
-19 -2 3
12 -2 3
13 -2 3
-18 -1 3
-12 1 -3
14 -1 3
-18 0 3
12 0 3
14 0 3
-9 -11 4
9 -11 -4
-8 11 4
-7 -11 4
-6 -11 4
-5 -11 4
-4 -11 4
-3 -11 4
2 -11 -4
0 -11 4
1 -11 4
-1 -11 -4
2 -11 4
-11 -10 4
-10 -10 4
-9 -10 4
-7 -10 4
7 10 -4
-6 -10 4
2 -10 -4
-1 -10 4
0 -10 4
1 -10 4
2 -10 4
3 -10 4
4 -10 4
-13 -9 4
-12 -9 4
-11 -9 4
3 -9 4
5 -9 4
6 -9 4
-13 -8 4
5 8 4
6 -8 4
7 -8 4
-16 -7 4
-14 -7 4
6 -7 4
8 -7 4
-17 -6 4
-15 -6 4
7 -6 4
9 -6 4
-18 5 4
-17 -5 4
8 -5 4
9 -5 4
-9 -5 -4
-9 -5 -4
10 -5 4
-18 -4 4
-17 -4 4
9 4 4
10 -4 4
11 -4 4
-19 -3 4
-18 -3 4
-17 -3 4
-11 3 -4
-19 -2 4
-18 2 4
10 2 4
11 2 4
-19 -1 4
-18 -1 4
10 -1 4
-11 1 -4
-18 0 4
10 0 4
-9 -10 5
-8 -10 5
-7 -10 5
7 -10 -5
-5 -10 5
-4 -10 5
-3 -10 5
-12 -9 5
-10 -9 5
-9 -9 5
-8 -9 5
-7 -9 5
-6 -9 5
-2 -9 5
-1 -9 5
1 -9 5
2 -9 5
-13 -8 5
-11 -8 5
-10 -8 5
1 -8 5
2 8 5
3 -8 5
4 -8 5
-15 -7 5
-14 -7 5
-13 -7 5
-12 -7 5
2 -7 5
3 -7 5
4 -7 5
-16 -6 5
-15 -6 5
-14 -6 5
4 -6 5
5 -6 5
-6 6 -5
-17 -5 5
-17 5 5
-17 5 5
-17 5 5
-16 5 5
5 -5 5
6 5 5
7 -5 5
-17 -4 5
-16 -4 5
-15 -4 5
6 -4 5
8 -4 5
-18 -3 5
-17 -3 5
-16 -3 5
6 -3 5
7 -3 5
8 -3 5
-18 -2 5
7 -2 5
-17 -1 5
7 -1 5
8 -1 5
9 -1 5
-7 -8 6
-5 -8 6
-1 8 6
-12 -7 6
-11 -7 6
-9 -7 6
-8 -7 6
-6 -7 6
-4 -7 6
-3 -7 6
-1 7 6
0 -7 6
1 -7 6
-12 -6 6
-11 -6 6
-10 -6 6
-9 -6 6
-3 -6 6
-2 -6 6
-1 6 6
0 -6 6
2 -6 6
-13 -5 6
-11 -5 6
0 -5 6
1 -5 6
2 -5 6
3 -5 6
-14 -4 6
-13 4 6
2 -4 6
3 -4 6
4 -4 6
-16 -3 6
-15 -3 6
2 -3 6
3 -3 6
4 -3 6
5 -3 6
5 2 6
-17 -1 6
-15 1 6
4 -1 6
5 -1 6
-16 0 6
-16 0 6
4 0 6
6 0 6
-8 -6 7
-6 -6 7
-11 -5 7
-7 -5 7
-6 -5 7
-5 -5 7
-4 -5 7
-12 -4 7
-8 4 7
-7 -4 7
-6 -4 7
-5 -4 7
-4 -4 7
-3 4 7
-10 -3 7
-9 -3 7
-5 -3 7
-4 -3 7
-1 -3 7
-14 -2 7
-13 -2 7
-12 -2 7
-9 -2 7
-8 -2 7
-7 -2 7
-6 -2 7
-5 -2 7
-3 -2 7
-14 -1 7
-13 -1 7
-12 1 7
-11 1 7
-10 -1 7
-9 -1 7
-8 -1 7
-7 -1 7
-5 -1 7
-4 -1 7
-3 -1 7
-2 -1 7
-1 1 7
0 1 7
-12 0 7
-10 0 7
-8 0 7
-4 0 7
-2 0 7
0 0 7
-6 -15 0
6 -15 0
-5 -15 0
5 -15 0
-3 -15 0
3 -15 0
-2 -15 0
2 -15 0
-1 -15 0
1 -15 0
9 14 0
9 14 0
-6 -14 0
6 -14 0
-4 -14 0
4 -14 0
-2 -14 0
2 -14 0
-1 14 0
1 -14 0
0 -14 0
-11 -13 0
11 -13 0
-9 -13 0
-9 -13 0
-8 -13 0
8 -13 0
12 -12 0
-11 -12 0
11 12 0
10 12 0
-15 -11 0
15 11 0
-14 11 0
14 -11 0
-13 -11 0
13 11 0
12 -11 0
12 -11 0
15 10 0
15 -10 0
-14 -10 0
14 -10 0
-13 -10 0
13 -10 0
-17 -9 0
17 -9 0
16 -9 0
16 -9 0
16 -9 0
-15 -9 0
15 -9 0
-18 -8 0
-17 -8 0
17 -8 0
-16 -8 0
16 -8 0
-18 -7 0
18 -7 0
17 -7 0
-19 -6 0
19 -6 0
-18 -6 0
18 -6 0
-20 -5 0
20 -5 0
-19 -5 0
19 -5 0
-18 -5 0
18 -5 0
-20 -4 0
20 -4 0
-19 -4 0
19 -4 0
-18 4 0
18 -4 0
20 -3 0
-19 -3 0
19 -3 0
-4 14 1
-4 14 1
-3 14 1
0 -14 1
0 -14 1
2 -14 1
2 -14 1
4 -14 1
5 -14 1
6 -14 1
6 -14 1
7 -14 1
8 -14 1
8 -14 1
-12 -13 1
-11 -13 1
-10 -13 1
-8 -13 1
-7 -13 1
21 -1 0
20 1 0
-19 -1 0
19 -1 0
-20 0 0
20 0 0
-7 -15 1
-4 -15 1
-3 -15 1
-2 -15 1
-1 -15 1
0 -15 1
3 -15 1
5 -15 1
-6 -14 1
8 -13 1
9 -13 1
10 -13 1
-13 -12 1
10 -12 1
11 -12 1
14 -11 -1
-12 11 1
11 -11 1
12 -11 1
-17 -10 1
-14 -10 1
12 -10 1
13 -10 1
15 -10 1
-16 -9 1
-15 -9 1
13 -9 1
15 -9 1
16 9 1
-19 -8 1
-17 -8 1
-16 -8 1
14 8 1
17 -8 1
-18 -7 1
-17 -7 1
15 -7 1
17 -7 1
-18 -6 1
16 -6 1
17 -6 1
-20 -5 1
-19 -5 1
17 -5 1
18 5 1
-21 -4 1
-20 -4 1
-19 -4 1
17 -4 1
18 -4 1
-21 -3 1
-20 -3 1
-19 -3 1
17 -3 1
18 -3 1
-21 -2 1
-20 -2 1
18 2 1
19 -2 1
-21 -1 1
-20 1 1
19 -1 1
-20 0 1
18 0 1
20 0 1
-6 -15 2
6 15 -2
5 -15 -2
-4 -15 2
4 -15 -2
2 -15 -2
1 -15 -2
2 -15 2
-2 -15 -2
8 -14 -2
-6 -14 2
6 -14 -2
-4 -14 2
4 -14 -2
-3 -14 2
-3 -14 2
0 -14 -2
2 -14 2
-2 -14 -2
6 -14 2
-6 -14 -2
-9 -13 2
9 13 -2
-8 -13 2
8 -13 -2
3 -13 2
-3 -13 -2
4 -13 2
-4 -13 -2
5 -13 2
5 -13 2
6 -13 2
-6 -13 -2
7 -13 2
-7 -13 -2
8 -13 2
-8 -13 -2
-13 -12 2
13 -12 -2
-12 -12 2
-10 -12 2
7 -12 2
-14 -11 2
-14 -11 2
9 -12 2
-9 -12 -2
10 -12 2
-10 -12 -2
-15 -11 2
-13 -11 2
13 -11 -2
9 -11 2
-9 -11 -2
10 -11 2
-10 -11 -2
11 -11 2
-11 -11 -2
12 11 2
12 11 2
-16 -10 2
16 -10 -2
10 -10 2
-10 -10 -2
11 -10 2
-11 -10 -2
-12 -10 -2
18 -9 -2
-17 -9 2
17 -9 -2
13 -9 2
-13 -9 -2
-14 -9 -2
19 -8 -2
-18 -8 2
18 -8 -2
-17 -8 2
17 -8 -2
13 -8 2
-13 -8 -2
15 -8 2
-15 -8 -2
-20 -7 2
19 -7 -2
-18 -7 2
14 -7 2
-16 -7 -2
-20 -6 2
-19 -6 2
-18 -6 2
15 -6 2
-16 -6 -2
17 -6 2
-21 -5 2
-19 -5 2
15 -5 2
16 -5 2
17 -5 2
-21 -4 2
16 -4 2
17 -4 2
-20 -3 2
16 -3 2
-22 -2 2
-20 -2 2
16 -2 2
17 -2 2
-20 1 2
18 0 2
3 14 3
3 14 3
17 -1 2
18 -1 2
-22 0 2
-20 0 2
20 0 -2
20 0 -2
16 0 2
-8 -14 3
-6 -14 3
-5 -14 3
-8 13 3
-7 -13 3
-6 -13 3
4 13 -3
-2 -13 3
-1 -13 3
0 -13 3
1 13 3
3 -13 3
4 -13 3
5 -13 3
6 -13 3
-11 -12 3
-10 -12 3
5 -12 3
6 -12 3
7 -12 3
8 -12 3
-13 -11 3
-12 -11 3
8 -11 3
9 -11 3
-17 -10 3
14 10 -3
9 -10 3
11 -10 3
18 -9 -3
18 -9 -3
17 -9 -3
-11 -8 -3
11 8 3
-19 8 3
-14 -7 -3
14 -7 3
-13 -7 -3
13 -7 3
-12 -7 -3
12 -7 3
-18 -7 3
-18 -7 3
-19 -7 3
-19 -7 3
20 -7 -3
20 -7 -3
-20 -7 3
-20 -7 3
-15 -6 -3
15 6 3
-14 -6 -3
14 -6 3
-13 -6 -3
13 -6 3
19 -6 -3
-20 -6 3
-20 -6 3
-15 -5 -3
15 -5 3
15 -5 3
-14 -5 -3
14 -5 3
-20 -5 3
21 -5 -3
-16 -4 -3
16 -4 3
-15 -4 -3
15 -4 3
14 -4 3
-20 4 3
-20 4 3
-21 -4 3
-21 -4 3
-22 -4 3
-15 -3 -3
15 -3 3
-14 -3 -3
14 -3 3
-20 -3 3
-21 -3 3
22 -3 -3
-22 -3 3
-16 -2 -3
16 -2 3
-20 2 3
-21 -2 3
-21 -2 3
-15 -1 -3
15 -1 3
-20 -1 3
-20 -1 3
21 -1 -3
-16 0 -3
-16 0 -3
-22 0 3
13 -13 -2
-11 -12 -2
-10 9 -3
-11 -9 -3
12 -9 3
13 -9 3
2 -14 -4
-10 13 4
-8 -13 4
-7 -13 4
-3 -13 4
0 -13 4
-2 -13 -4
-13 -12 4
-13 12 4
-10 -12 4
-9 -12 4
-7 -12 4
-5 -12 4
-4 -12 4
-1 -12 4
3 -12 4
4 -12 4
5 12 4
-15 -11 4
-12 -11 4
-10 -11 4
4 11 4
5 -11 4
6 11 4
7 11 4
8 -11 4
-14 -10 4
-13 -10 4
6 -10 4
8 -10 4
-16 -9 4
-15 -9 4
7 -9 4
10 -9 4
-19 -8 4
-19 8 4
-17 -8 4
-16 -8 4
8 -8 4
-8 -8 -4
-9 -8 -4
10 -8 4
11 -8 4
-20 -7 4
-20 7 4
-19 -7 4
-18 -7 4
10 -7 4
11 -7 4
12 -7 4
12 -6 4
13 -6 4
-20 -5 4
11 -5 4
12 -5 4
-12 4 -4
13 -4 4
-22 -3 4
12 -3 4
13 -3 4
14 -3 4
-21 -2 4
12 -2 4
13 -2 4
14 -2 4
-22 -1 4
-20 -1 4
12 -1 4
13 -1 4
14 -1 4
-20 0 4
-7 -13 5
-11 -12 5
-11 12 5
-11 12 5
-4 -12 5
-1 -12 5
-14 -11 5
-5 -11 5
2 -11 5
3 -11 5
-3 -11 -5
1 -10 5
2 -10 5
3 -10 5
3 -9 5
5 -9 5
7 -9 5
5 -8 5
6 -7 5
7 -7 5
-17 -6 5
7 -6 5
8 -6 5
9 -6 5
-21 -5 5
11 -5 5
-19 -2 5
-19 2 5
10 -2 5
12 0 5
-11 -11 6
-1 -11 6
2 -10 6
-8 -9 6
-7 -9 6
-5 -9 6
-4 -9 6
-3 -9 6
4 -9 6
0 -8 6
2 -7 6
4 -7 6
3 -6 6
8 -5 6
5 -4 6
9 -3 6
6 -2 6
6 2 6
6 -1 6
-18 0 6
-10 -6 7
-3 -6 7
-14 -4 7
0 -4 7
5 -4 7
-14 -3 7
1 -3 7
1 3 7
-15 -2 7
-15 -1 7
2 -1 7
6 0 7
3 16 0
-3 16 0
-1 -16 0
1 -16 0
0 -16 0
-8 -15 0
8 -15 0
-7 -15 0
7 -15 0
-10 -14 0
10 -14 0
-13 -13 0
13 -13 0
-14 -12 0
14 -12 0
-17 -10 0
17 -10 0
-18 -9 0
18 -9 0
-19 -7 0
19 -7 0
-21 -4 0
21 4 0
21 -4 0
21 -3 0
-5 -16 1
-4 -16 1
-2 -16 1
0 -16 1
-12 -14 1
10 -14 1
-14 -13 1
11 -13 1
12 -13 1
-15 -12 1
13 -12 1
13 12 1
-17 -11 1
-18 10 1
16 -10 1
18 -8 1
18 8 1
-21 -6 1
-21 -6 1
19 -6 1
-21 5 1
-22 0 4
-3 -13 5
3 -13 -5
-9 -12 5
-7 -12 5
-3 -12 5
1 -12 5
1 12 5
-12 -11 5
-11 -11 5
-6 -11 5
-3 -11 5
-1 -11 5
0 -11 5
-14 -10 5
-13 -10 5
4 -10 5
5 10 5
-15 -9 5
-14 -9 5
6 -8 5
-18 -7 5
8 -7 5
10 7 5
-18 -6 5
-10 -6 -5
-19 -5 5
9 -5 5
10 -4 5
-21 -3 5
10 -3 5
11 -3 5
-21 -2 5
11 -2 5
-12 -2 -5
-21 1 5
-20 -1 5
10 -1 5
-22 0 5
10 0 5
-8 11 6
-6 -11 6
-5 -11 6
-12 -10 6
-10 -10 6
-8 -10 6
-7 10 6
-4 -10 6
-2 -10 6
1 -10 6
-9 -9 6
-1 -9 6
0 -9 6
2 9 6
-13 -8 6
1 -8 6
4 8 6
5 -8 6
6 -7 6
-17 -6 6
5 -6 6
6 -6 6
-19 -5 6
-17 -5 6
5 -5 6
6 5 6
-18 -4 6
6 -4 6
7 -4 6
8 -4 6
-18 3 6
6 -3 6
-20 -2 6
7 -2 6
9 -2 6
8 -1 6
9 -1 6
8 0 6
-7 9 7
-12 -8 7
-11 -8 7
-4 8 7
-1 -8 7
-3 -7 7
-14 -6 7
-11 -6 7
-2 6 7
-1 -6 7
0 6 7
-13 -5 7
1 -5 7
3 -5 7
4 -5 7
-15 -4 7
2 -4 7
3 -4 7
4 4 7
-18 3 7
-15 -3 7
3 -3 7
4 -3 7
2 -2 7
5 -2 7
-18 -1 7
3 -1 7
-16 0 7
4 0 7
-8 6 8
-7 -5 8
-5 -5 8
-9 -4 8
-6 -4 8
-2 4 8
-14 -3 8
-9 3 8
-9 -2 8
-7 -2 8
-6 2 8
-1 -2 8
-9 -1 8
-6 -1 8
-5 -1 8
-4 -1 8
-3 -1 8
-1 -1 8
-14 0 8
-10 0 8
-6 0 8
-2 0 8
-1 -16 1
-9 -15 1
19 -5 1
-22 -3 1
-22 -2 1
-2 -16 2
-1 -16 2
3 -15 2
4 -15 2
5 -15 2
-11 -14 2
-16 12 2
-15 -12 2
12 -12 2
13 -11 2
18 -10 -2
14 -10 2
-19 -9 2
15 -9 2
16 -8 2
-17 -7 -2
22 -5 -2
19 -2 2
19 -1 2
-8 -15 3
-3 -15 3
3 15 -3
0 -15 3
4 -14 3
-14 -13 3
8 -13 3
-15 -12 3
9 -12 3
11 -11 3
-18 10 3
12 -10 3
14 9 3
-20 -8 3
15 -7 3
16 -5 3
17 -2 3
-10 -14 4
-1 -14 -4
4 -13 4
-15 12 4
-15 12 4
7 12 4
-11 13 5
-10 -13 5
-2 -13 5
4 -12 5
6 -11 5
7 10 5
8 9 5
11 -6 5
13 -3 5
13 -1 5
-8 -12 6
-3 -12 6
-3 12 6
-13 -11 6
-12 -11 6
0 -11 6
0 11 6
-17 -9 6
5 -9 6
-18 -8 6
7 8 6
7 -7 6
7 -7 6
8 7 6
-20 -6 6
-21 -5 6
9 -5 6
9 -5 6
10 -3 6
10 -3 6
10 -2 6
10 -2 6
10 -1 6
10 -1 6
-22 0 6
10 0 6
10 0 6
-2 -10 7
-1 -9 7
0 -9 7
3 -7 7
7 -3 7
7 -3 7
7 2 7
7 -1 7
3 -1 8
7 -16 0
6 -16 0
-9 -15 0
9 -15 0
-12 -14 0
-14 -13 0
14 -13 0
-15 -12 0
15 -12 0
17 -11 0
-21 -5 0
22 -2 0
-22 0 0
22 0 0
4 -16 1
-11 -15 1
-10 -15 1
9 15 1
-15 -13 1
-16 -12 1
14 -12 1
20 8 -1
19 -7 1
-22 -5 1
21 3 1
21 -2 1
21 -1 1
-5 -16 2
-1 -16 -2
6 -15 2
7 15 2
-17 -12 2
13 -12 2
-18 -11 2
14 -11 2
-19 -10 2
-21 -8 2
17 -8 2
18 -7 2
18 -6 2
19 -4 2
9 -13 3
-18 -11 3
12 -11 3
-19 -10 3
15 -8 3
-22 -7 3
16 -7 3
-23 -4 3
-24 -2 3
-24 -1 3
18 -1 3
-24 0 3
-2 -15 4
0 -15 -4
6 -13 4
8 -12 4
-18 -11 4
10 -11 4
11 -10 4
-20 -9 4
12 -9 4
-21 -8 4
14 -7 4
15 -5 4
-23 4 4
16 -3 4
16 2 4
16 -1 4
16 0 4
-5 -14 5
-4 -14 5
-15 -12 5
5 -12 5
8 -10 5
12 6 5
13 -4 5
14 -2 5
14 -1 5
-24 0 5
14 0 5
-5 -13 6
-4 -13 6
-11 -12 6
3 -11 6
-16 -10 6
8 -8 6
9 -7 6
10 -5 6
11 -3 6
-14 10 7
-1 -10 7
2 -9 7
5 7 7
6 -6 7
6 -5 7
8 -2 7
8 -1 7
-9 9 8
-2 8 8
2 -4 8
4 -1 8
4 0 8
-10 -4 4
-10 -4 4
-19 3 5
-10 9 6
