#------------------------------------------------------------------------------
#$Date: 2019-12-26 20:46:06 +0200 (Thu, 26 Dec 2019) $
#$Revision: 246074 $
#$URL: file:///home/coder/svn-repositories/cod/cif/2/31/16/2311664.cif $
#------------------------------------------------------------------------------
#
# This file is available in the Crystallography Open Database (COD),
# http://www.crystallography.net/. The original data for this entry
# were provided by IUCr Journals, http://journals.iucr.org/.
#
# The file may be used within the scientific community so long as
# proper attribution is given to the journal article from which the
# data were obtained.
#
data_2311664
loop_
_publ_author_name
'Jarzembska, Katarzyna N.'
'Kami\'nski, Rados\/law'
'Dobrzycki, Lukasz'
'Cyra\'nski, Micha\/l K'
_publ_section_title
;
 First experimental charge density study using a Bruker CMOS-type PHOTON
 100 detector: the case of ammonium tetraoxalate dihydrate.
;
_journal_coeditor_code           PI5019
_journal_issue                   'Pt 5'
_journal_name_full
'Acta crystallographica Section B, Structural science, crystal engineering and materials'
_journal_page_first              847
_journal_page_last               855
_journal_paper_doi               10.1107/S2052520614017570
_journal_volume                  70
_journal_year                    2014
_chemical_formula_moiety         'C2 H2 O4, C2 H O4, 2(H2 O), H4 N'
_chemical_formula_sum            'C4 H11 N O10'
_chemical_formula_weight         233.14
_space_group_IT_number           2
_space_group_name_Hall           '-P 1'
_space_group_name_H-M_alt        'P -1'
_symmetry_cell_setting           triclinic
_symmetry_space_group_name_Hall  '-P 1'
_symmetry_space_group_name_H-M   'P -1'
_cell_angle_alpha                94.5207(18)
_cell_angle_beta                 99.8882(18)
_cell_angle_gamma                96.7177(19)
_cell_formula_units_Z            2
_cell_length_a                   6.2372(4)
_cell_length_b                   7.1935(5)
_cell_length_c                   10.4745(7)
_cell_measurement_reflns_used    50285
_cell_measurement_temperature    100
_cell_measurement_theta_max      62.67
_cell_measurement_theta_min      2.87
_cell_volume                     457.45(5)
_diffrn_ambient_temperature      100
_diffrn_measured_fraction_theta_full 0.98
_diffrn_measured_fraction_theta_max 0.95
_diffrn_measurement_device_type  'Bruker AXS CMOS-type PHOTON 100 detector'
_diffrn_measurement_method       \w-scans
_diffrn_radiation_monochromator  'Bruker AXS TRIUMPH monochromator'
_diffrn_radiation_source         'Mo sealed tube'
_diffrn_radiation_type           'Mo K\a'
_diffrn_radiation_wavelength     0.71073
_diffrn_reflns_av_R_equivalents  0.0274
_diffrn_reflns_limit_h_max       15
_diffrn_reflns_limit_h_min       -15
_diffrn_reflns_limit_k_max       17
_diffrn_reflns_limit_k_min       -17
_diffrn_reflns_limit_l_max       26
_diffrn_reflns_limit_l_min       -26
_diffrn_reflns_number            50285
_diffrn_reflns_reduction_process
;
Blessing, R. H. (1987). Cryst. Rev. 1, 3,
Blessing, R. H. (1997). J. Appl. Cryst. 30, 421.
;
_diffrn_reflns_theta_full        51.2
_diffrn_reflns_theta_max         62.67
_diffrn_reflns_theta_min         2.87
_exptl_absorpt_coefficient_mu    0.174
_exptl_absorpt_correction_T_max  0.985
_exptl_absorpt_correction_T_min  0.966
_exptl_absorpt_correction_type   multi-scan
_exptl_absorpt_process_details
;
Blessing, R. H. (1995). Acta Cryst. A51, 33.
;
_exptl_crystal_colour            colourless
_exptl_crystal_density_diffrn    1.693
_exptl_crystal_description       block
_exptl_crystal_F_000             244
_exptl_crystal_size_max          0.24
_exptl_crystal_size_mid          0.21
_exptl_crystal_size_min          0.09
_refine_diff_density_max         0.21
_refine_diff_density_min         -0.22
_refine_ls_extinction_method     none
_refine_ls_goodness_of_fit_ref   0.891
_refine_ls_hydrogen_treatment    mixed
_refine_ls_number_constraints    0
_refine_ls_number_parameters     349
_refine_ls_number_reflns         9995
_refine_ls_number_restraints     11
_refine_ls_R_factor_all          0.0353
_refine_ls_R_factor_gt           0.0181
_refine_ls_shift/su_max          -0.001
_refine_ls_shift/su_mean         0.000
_refine_ls_structure_factor_coef F
_refine_ls_weighting_scheme      sigma
_refine_ls_wR_factor_gt          0.0190
_refine_ls_wR_factor_ref         0.0190
_reflns_number_gt                9995
_reflns_number_total             14225
_reflns_threshold_expression     I>3\s(I)
_iucr_refine_instructions_details
;
#CELL 6.2372 7.1935 10.4745 94.5207 99.8882 96.7177 0.71073
#ZERR 0.0004 0.0005 0.0007 0.0018 0.0018 0.0019
#
#SYMM 1 P CENTRO
# X , Y, Z
#
#SCALE 1 2.730323
#
#DUMMY 2
#DUMY 0.75184 0.09312 0.10304 D1 0 ! atom # 27
#DUMY 0.47063 0.25923 0.42524 D2 0 ! atom # 28
#
#KAPPA 10
# 1.012633 0.864000 ! # 1 1 MOL C1 3x
# 0.994033 1.191000 ! # 2 1 MOL O1 3x
# 0.990630 1.157000 ! # 3 1 MOL O2 3x
# 1.159000 1.488000 ! # 4 1 MOL H1 3x
# 1.009641 0.872000 ! # 5 1 MOL C4 1x
# 0.988424 1.162000 ! # 6 1 MOL O7 2x
# 1.048570 1.000000 ! # 7 1 MOL N1 1x
# 1.000000 1.000000 ! # 8 1 MOL H4 4x
# 0.978525 1.116000 ! # 9 1 MOL O9 2x
# 1.163000 1.517000 ! # 10 1 MOL H8 4x
#
#ATOMS 26
#
#ATOM 1 C1 MOL 1 0.919073 0.990608 0.434750 1.0000 1 C
# XY O2 O1 OCT K1 V0 M0 Q0
#UANI 0.008148 0.009183 0.006764 0.000345 0.000269 0.001619
# 3.96526 0. 0.095 0.015 0. -.337 0. 0. 0.100 -.047
# 0. 0.013 0.012 0. 0. 0.441 -.065
#
#ATOM 2 O1 MOL 1 0.998468 1.078060 0.347080 1.0000 1 O
# XY C1 H1 OCT K2 V0 M0 Q0
#UANI 0.010420 0.014785 0.007874 -.000839 0.000407 0.004037
# 6.19033 0. -.044 -.049 0. -.001 0. 0. -.033 0.025
# 0. -.002 -.009 0. 0. 0.043 0.003
#
#ATOM 3 O2 MOL 1 0.737297 0.898958 0.422253 1.0000 1 O
# XY C1 O1 OCT K3 V0 M0 Q0
#UANI 0.009021 0.013848 0.008837 -.001946 -.000707 0.002868
# 6.21447 0. -.062 -.001 0. -.072 0. 0. -.045 -.002
# 0. -.014 -.012 0. 0. 0.029 0.008
#
#ATOM 4 H1 MOL 1 0.886371 1.073724 0.263523 1.0000 1 H
# ZY O1 C1 QUA K4 V0 M0 Q0
#UANI 0.019339 0.029645 0.015597 -.000942 -.001200 0.006674
# 0.71441 0. 0. 0. 0.037 0.146 0. 0. 0. 0.
#
#ATOM 5 C2 MOL 1 0.005266 0.548310 0.436891 1.0000 1 C
# XY O4 O3 OCT K1 V0 M0 Q0
#UANI 0.009435 0.007600 0.006380 -.000486 0.000572 0.001896
# 3.96930 0. 0.110 0.003 0. -.334 0. 0. 0.096 -.057
# 0. 0.004 0.001 0. 0. 0.468 -.021
#
#ATOM 6 O3 MOL 1 -0.160338 0.491582 0.345256 1.0000 1 O
# XY C2 H2 OCT K2 V0 M0 Q0
#UANI 0.013189 0.011804 0.007789 -.003141 -.002041 0.003646
# 6.19405 0. -.042 -.064 0. -.009 0. 0. -.049 0.023
# 0. 0.016 -.010 0. 0. 0.038 0.013
#
#ATOM 7 O4 MOL 1 0.160826 0.667357 0.432415 1.0000 1 O
# XY C2 O3 OCT K3 V0 M0 Q0
#UANI 0.010670 0.011199 0.008332 -.002267 0.000920 0.003466
# 6.22338 0. -.073 0. 0. -.080 0. 0. -.058 0.006
# 0. 0.004 -.003 0. 0. 0.024 -.004
#
#ATOM 8 H2 MOL 1 -0.159716 0.560636 0.264114 1.0000 1 H
# ZY O3 C2 QUA K4 V0 M0 Q0
#UANI 0.025482 0.023984 0.015829 -.003690 -.001135 0.008268
# 0.69491 0. 0. 0. 0.032 0.159 0. 0. 0. 0.
#
#ATOM 9 C3 MOL 1 0.255996 0.322599 0.079880 1.0000 1 C
# XY O6 O5 OCT K1 V0 M0 Q0
#UANI 0.011586 0.006849 0.006164 0.001188 0.000812 0.001650
# 4.00455 0. 0.091 0.001 0. -.327 0. 0. 0.089 -.028
# 0. 0.004 -.023 0. 0. 0.450 -.027
#
#ATOM 10 C4 MOL 1 0.227037 0.434230 -0.041301 1.0000 1 C
# ZX C3 O7 OCT K5 V0 M0 Q0
#UANI 0.011601 0.006883 0.006152 0.001129 0.000615 0.001673
# 3.97197 0. 0. 0. -.064 0.065 0. 0. 0.323 0.
# 0.348 0. 0. -.263 0. 0. 0.
#
#ATOM 11 O5 MOL 1 0.317015 0.429128 0.188972 1.0000 1 O
# XY C3 H3 OCT K2 V0 M0 Q0
#UANI 0.024029 0.008605 0.006257 0.001905 -.000066 0.000995
# 6.25734 0. -.037 -.049 0. 0.002 0. 0. -.040 0.018
# 0. 0.027 -.007 0. 0. 0.052 0.006
#
#ATOM 12 O6 MOL 1 0.223968 0.150780 0.068753 1.0000 1 O
# XY C3 O5 OCT K3 V0 M0 Q0
#UANI 0.019073 0.006804 0.008109 0.000646 0.000616 0.002038
# 6.24286 0. -.055 -.002 0. -.079 0. 0. -.045 0.002
# 0. 0.007 -.014 0. 0. 0.018 -.003
#
#ATOM 13 O7 MOL 1 0.263317 0.608668 -0.021946 1.0000 1 O
# XY C4 O8 OCT K6 V0 M0 Q0
#UANI 0.022449 0.006644 0.008272 0.001649 0.001226 0.001949
# 6.33311 0. -.059 -.003 0. -.062 0. 0. -.045 -.003
# 0. -.007 -.002 0. 0. 0.034 -.002
#
#ATOM 14 O8 MOL 1 0.170552 0.334756 -0.149168 1.0000 1 O
# XY C4 O7 OCT K6 V0 M0 Q0
#UANI 0.019215 0.008643 0.005922 -.000112 -.000501 0.001437
# 6.32623 0. -.049 -.014 0. -.051 0. 0. -.049 0.003
# 0. 0.012 0. 0. 0. 0.039 0.010
#
#ATOM 15 H3 MOL 1 0.358252 0.352629 0.265075 1.0000 1 H
# ZY O5 C3 QUA K4 V0 M0 Q0
#UANI 0.039610 0.017936 0.014058 0.004532 0.000117 0.004188
# 0.71558 0. 0. 0. 0.085 0.104 0. 0. 0. 0.
#
#ATOM 16 N1 MOL 1 0.342646 0.843525 0.224738 1.0000 1 N
#bZX H4 H5 OCT K7 V0 M0 Q0
#UANI 0.011768 0.008844 0.008704 0.000041 0.001293 0.001653
# 4.11580 0. 0. 0. 0. 0. 0. 0. 0. 0.
# 0. 0. 0. 0.241 0. 0. 0.
#
#ATOM 17 H4 MOL 1 0.238708 0.792370 0.284851 1.0000 1 H
# ZY N1 H5 QUA K8 V0 M0 Q0
#UANI 0.022439 0.026986 0.019909 -.000783 0.006739 0.006508
# 0.95712 0. 0. 0. 0.320 0.237 0. 0. 0. 0.
#
#ATOM 18 H5 MOL 1 0.501536 0.868131 0.277319 1.0000 1 H
# ZY N1 H4 QUA K8 V0 M0 Q0
#UANI 0.018093 0.027808 0.020637 -.000290 -.000664 0.003925
# 0.94601 0. 0. 0. 0.299 0.236 0. 0. 0. 0.
#
#ATOM 19 H6 MOL 1 0.300463 0.968941 0.192140 1.0000 1 H
# ZY N1 H4 QUA K8 V0 M0 Q0
#UANI 0.030671 0.016710 0.021614 0.005426 0.002744 0.005355
# 0.97225 0. 0. 0. 0.312 0.213 0. 0. 0. 0.
#
#ATOM 20 H7 MOL 1 0.330180 0.741836 0.147153 1.0000 1 H
# ZY N1 H4 QUA K8 V0 M0 Q0
#UANI 0.031159 0.018911 0.017384 0.003126 0.002952 -.001735
# 1.01015 0. 0. 0. 0.305 0.321 0. 0. 0. 0.
#
#ATOM 21 O9 MOL 1 0.731769 0.073486 0.144464 1.0000 1 O
# ZY D1 H9 OCT K9 V0 M0 Q0
#UANI 0.013330 0.010786 0.007745 0.002028 0.000706 0.002412
# 6.45499 0. 0. 0. -.056 0.001 0. 0. 0.044 0.
# -.030 0. 0. -.060 0. 0. 0.
#
#ATOM 22 H8 MOL 1 0.734235 0.193052 0.110015 1.0000 1 H
# ZY O9 H9 QUA K10 V0 M0 Q0
#UANI 0.030648 0.018464 0.022283 0.004329 0.004270 0.007508
# 0.74500 0. 0. 0. 0.120 0.070 0. 0. 0. 0.
#
#ATOM 23 H9 MOL 1 0.763698 -0.013563 0.078468 1.0000 1 H
# ZY O9 H8 QUA K10 V0 M0 Q0
#UANI 0.030226 0.022267 0.018540 0.005821 0.005690 -.000569
# 0.76949 0. 0. 0. 0.111 0.088 0. 0. 0. 0.
#
#ATOM 24 O10 MOL 1 0.445797 0.251163 0.375889 1.0000 1 O
# ZY D2 H10 OCT K9 V0 M0 Q0
#UANI 0.011348 0.017270 0.010196 -.001678 -.000476 0.006028
# 6.40125 0. 0. 0. -.063 -.013 0. 0. 0.082 0.
# -.040 0. 0. -.060 0. 0. 0.
#
#ATOM 25 H10 MOL 1 0.357796 0.203287 0.435541 1.0000 1 H
# ZY O10 H11 QUA K10 V0 M0 Q0
#UANI 0.023969 0.033055 0.021729 -.002076 0.005996 0.010197
# 0.80294 0. 0. 0. 0.141 0.077 0. 0. 0. 0.
#
#ATOM 26 H11 MOL 1 0.589462 0.297733 0.424085 1.0000 1 H
# ZY O10 H10 QUA K10 V0 M0 Q0
#UANI 0.018597 0.033124 0.023194 -.003280 -.002546 0.006022
# 0.80729 0. 0. 0. 0.137 0.087 0. 0. 0. 0.
#
#ANHAR 1 3 ! number_of_anharmonic_atoms max_order
# 24 ! O10 1 ! atom_number
#-1.96E-04 1.71E-03 9.20E-05 5.90E-04-1.76E-03 1.13E-04-2.75E-04 2.16E-03
# 9.28E-04-1.53E-03
#
#STOP
;
_cod_data_source_file            pi5019sup1.cif
_cod_data_source_block           CCDC994769
_cod_database_code               2311664
loop_
_symmetry_equiv_pos_as_xyz
x,y,z
-x,-y,-z
loop_
_atom_site_type_symbol
_atom_site_label
_atom_site_fract_x
_atom_site_fract_y
_atom_site_fract_z
_atom_site_U_iso_or_equiv
_atom_site_adp_type
_atom_site_calc_flag
_atom_site_occupancy
C C1 0.91907(3) 0.99061(2) 0.434750(16) 0.008183(18) Uani d 1
O O1 0.99847(3) 1.07806(2) 0.347080(18) 0.01122(2) Uani d 1
O O2 0.73730(3) 0.89896(2) 0.422253(18) 0.011035(19) Uani d 1
H H1 0.8864(7) 1.0737(8) 0.2635(3) 0.02215 Uani d 1
C C2 0.00527(3) 0.54831(2) 0.436891(15) 0.007976(18) Uani d 1
O O3 -0.16034(3) 0.49158(2) 0.345256(18) 0.011645(19) Uani d 1
O O4 0.16083(3) 0.66736(2) 0.432415(18) 0.010331(18) Uani d 1
H H2 -0.1597(10) 0.5606(6) 0.2641(3) 0.02258 Uani d 1
C C3 0.25600(3) 0.32260(2) 0.079880(15) 0.008246(19) Uani d 1
C C4 0.22704(3) 0.43423(2) -0.041301(15) 0.008285(19) Uani d 1
O O5 0.31702(3) 0.42913(3) 0.188972(19) 0.01331(3) Uani d 1
O O6 0.22397(3) 0.15078(3) 0.068753(19) 0.01157(2) Uani d 1
O O7 0.26332(3) 0.60867(3) -0.021946(19) 0.01260(3) Uani d 1
O O8 0.17055(3) 0.33476(3) -0.149168(18) 0.01172(3) Uani d 1
H H3 0.3583(11) 0.3526(6) 0.2651(3) 0.02424 Uani d 1
N N1 0.34265(3) 0.84352(2) 0.224738(15) 0.009907(18) Uani d 1
H H4 0.2387(7) 0.7924(8) 0.2849(4) 0.02287 Uani d 1
H H5 0.5015(4) 0.8681(8) 0.2773(5) 0.02287 Uani d 1
H H6 0.3005(9) 0.9689(4) 0.1921(5) 0.02287 Uani d 1
H H7 0.3302(10) 0.7418(5) 0.1472(3) 0.02287 Uani d 1
O O9 0.73177(3) 0.07349(2) 0.144464(17) 0.01065(2) Uani d 1
H H8 0.7342(10) 0.1931(4) 0.1100(5) 0.02348 Uani d 1
H H9 0.7637(9) -0.0136(6) 0.0785(4) 0.02348 Uani d 1
O O10 0.44580(7) 0.25116(5) 0.37589(9) 0.01327(2) Uani d 1
H H10 0.3578(7) 0.2033(7) 0.4355(4) 0.02610 Uani d 1
H H11 0.5895(4) 0.2977(8) 0.4241(5) 0.02610 Uani d 1
loop_
_atom_site_aniso_label
_atom_site_aniso_U_11
_atom_site_aniso_U_22
_atom_site_aniso_U_33
_atom_site_aniso_U_12
_atom_site_aniso_U_13
_atom_site_aniso_U_23
C1 0.00815(5) 0.00918(4) 0.00676(4) 0.00034(3) 0.00027(3) 0.00162(3)
O1 0.01042(5) 0.01478(5) 0.00787(5) -0.00084(4) 0.00041(4) 0.00404(4)
O2 0.00902(5) 0.01385(5) 0.00884(5) -0.00195(4) -0.00071(4) 0.00287(3)
H1 0.01934 0.02964 0.01560 -0.00094 -0.00120 0.00667
C2 0.00944(5) 0.00760(4) 0.00638(4) -0.00049(3) 0.00057(3) 0.00190(3)
O3 0.01319(5) 0.01180(5) 0.00779(4) -0.00314(4) -0.00204(4) 0.00365(4)
O4 0.01067(5) 0.01120(4) 0.00833(4) -0.00227(4) 0.00092(4) 0.00347(3)
H2 0.02548 0.02398 0.01583 -0.00369 -0.00114 0.00827
C3 0.01159(5) 0.00685(4) 0.00616(4) 0.00119(3) 0.00081(3) 0.00165(3)
C4 0.01160(5) 0.00688(4) 0.00615(4) 0.00113(3) 0.00062(3) 0.00167(3)
O5 0.02403(9) 0.00861(5) 0.00626(5) 0.00190(4) -0.00007(4) 0.00100(4)
O6 0.01907(7) 0.00680(5) 0.00811(5) 0.00065(3) 0.00062(4) 0.00204(3)
O7 0.02245(8) 0.00664(5) 0.00827(5) 0.00165(3) 0.00123(4) 0.00195(4)
O8 0.01921(7) 0.00864(5) 0.00592(4) -0.00011(3) -0.00050(3) 0.00144(3)
H3 0.03961 0.01794 0.01406 0.00453 0.00012 0.00419
N1 0.01177(5) 0.00884(4) 0.00870(4) 0.00004(3) 0.00129(3) 0.00165(3)
H4 0.02244 0.02699 0.01991 -0.00078 0.00674 0.00651
H5 0.01809 0.02781 0.02064 -0.00029 -0.00066 0.00392
H6 0.03067 0.01671 0.02161 0.00543 0.00274 0.00536
H7 0.03116 0.01891 0.01738 0.00313 0.00295 -0.00174
O9 0.01333(6) 0.01079(5) 0.00774(4) 0.00203(3) 0.00071(4) 0.00241(3)
H8 0.03065 0.01846 0.02228 0.00433 0.00427 0.00751
H9 0.03023 0.02227 0.01854 0.00582 0.00569 -0.00057
O10 0.01135(5) 0.01727(6) 0.01020(5) -0.00168(4) -0.00048(4) 0.00603(4)
H10 0.02397 0.03306 0.02173 -0.00208 0.00600 0.01020
H11 0.01860 0.03312 0.02319 -0.00328 -0.00255 0.00602
loop_
_atom_type_symbol
_atom_type_description
_atom_type_scat_dispersion_real
_atom_type_scat_dispersion_imag
_atom_type_scat_source
C Carbon 0.0033 0.0016
;
Su, Z. & Coppens, P. (1997). Acta Cryst. A53, 749,
Su, Z. & Coppens, P. (1998). Acta Cryst. A54, 646.
;
H Hydrogen 0.0000 0.0000
;
Su, Z. & Coppens, P. (1997). Acta Cryst. A53, 749,
Su, Z. & Coppens, P. (1998). Acta Cryst. A54, 646.
;
N Nitrogen 0.0061 0.0033
;
Su, Z. & Coppens, P. (1997). Acta Cryst. A53, 749,
Su, Z. & Coppens, P. (1998). Acta Cryst. A54, 646.
;
O Oxygen 0.0106 0.0060
;
Su, Z. & Coppens, P. (1997). Acta Cryst. A53, 749,
Su, Z. & Coppens, P. (1998). Acta Cryst. A54, 646.
;
loop_
_geom_angle_atom_site_label_1
_geom_angle_atom_site_label_2
_geom_angle_atom_site_label_3
_geom_angle
C1 O1 H1 112.3(3)
O1 C1 O2 126.76(3)
C2 O3 H2 113.9(3)
O3 C2 O4 126.67(2)
C3 O5 H3 111.7(3)
C3 C4 O7 117.271(16)
C3 C4 O8 115.096(19)
C4 C3 O5 113.458(16)
C4 C3 O6 121.13(2)
O5 C3 O6 125.41(2)
O7 C4 O8 127.63(3)
H4 N1 H7 107.4(4)
H4 N1 H5 108.7(4)
H4 N1 H6 110.9(5)
H5 N1 H7 110.7(5)
H5 N1 H6 108.5(4)
H6 N1 H7 110.7(4)
H8 O9 H9 106.6(5)
H10 O10 H11 108.1(5)
loop_
_geom_bond_atom_site_label_1
_geom_bond_atom_site_label_2
_geom_bond_distance
C1 O1 1.2879(3)
C1 O2 1.2238(3)
O1 H1 1.0180(9)
C2 O3 1.2860(3)
C2 O4 1.2266(3)
O3 H2 1.0180(9)
C3 O5 1.2970(3)
C3 O6 1.2217(3)
C3 C4 1.5506(2)
C4 O7 1.2428(3)
C4 O8 1.2608(3)
O5 H3 1.0180(9)
N1 H7 1.0358(9)
N1 H5 1.0358(9)
N1 H6 1.0359(9)
N1 H4 1.0359(9)
O9 H9 0.9580(9)
O9 H8 0.9581(9)
O10 H10 0.9580(9)
O10 H11 0.9580(9)
loop_
_geom_torsion_atom_site_label_1
_geom_torsion_atom_site_label_2
_geom_torsion_atom_site_label_3
_geom_torsion_atom_site_label_4
_geom_torsion_site_symmetry_4
O2 C1 O1 H1 5.1(3)
O4 C2 O3 H2 -3.2(3)
C4 C3 O5 H3 -170.87(15)
O5 C3 C4 O7 -0.260(14)
O5 C3 C4 O8 179.107(11)
O6 C3 O5 H3 8.6(3)
O6 C3 C4 O7 -179.793(16)
O6 C3 C4 O8 -0.427(14)
