#------------------------------------------------------------------------------
#$Date: 2019-10-28 09:23:29 +0200 (Mon, 28 Oct 2019) $
#$Revision: 219800 $
#$URL: file:///home/coder/svn-repositories/cod/cif/2/31/10/2311086.cif $
#------------------------------------------------------------------------------
#
# This file is available in the Crystallography Open Database (COD),
# http://www.crystallography.net/. The original data for this entry
# were provided by IUCr Journals, http://journals.iucr.org/.
#
# The file may be used within the scientific community so long as
# proper attribution is given to the journal article from which the
# data were obtained.
#
data_2311086
loop_
_publ_author_name
'Hoser, Anna A.'
'Madsen, Anders \/O.'
_publ_section_title
;
 Dynamic quantum crystallography: lattice-dynamical models refined against
 diffraction data. I. Theory
;
_journal_issue                   2
_journal_name_full               'Acta Crystallographica Section A'
_journal_page_first              206
_journal_page_last               214
_journal_paper_doi               10.1107/S2053273315024699
_journal_volume                  72
_journal_year                    2016
_chemical_formula_sum            'C H4 N2 O'
_chemical_formula_weight         60.08
_chemical_name_systematic
; 
 ? 
;
_space_group_IT_number           113
_symmetry_space_group_name_Hall  'P -4 2ab'
_symmetry_space_group_name_H-M   'P -4 21 m'
_atom_sites_solution_hydrogens   geom
_atom_sites_solution_primary     direct
_atom_sites_solution_secondary   difmap
_audit_creation_method           SHELXL-97
_cell_angle_alpha                90.00
_cell_angle_beta                 90.00
_cell_angle_gamma                90.00
_cell_formula_units_Z            2
_cell_length_a                   5.5780(6)
_cell_length_b                   5.5780(6)
_cell_length_c                   4.6860(7)
_cell_measurement_temperature    293(2)
_cell_volume                     145.80(3)
_computing_structure_refinement  'SHELXL-97 (Sheldrick, 1997)'
_computing_structure_solution    'SHELXS-97 (Sheldrick, 1990)'
_diffrn_ambient_temperature      293(2)
_diffrn_measured_fraction_theta_full 0.938
_diffrn_measured_fraction_theta_max 0.938
_diffrn_radiation_monochromator  graphite
_diffrn_radiation_source         'fine-focus sealed tube'
_diffrn_radiation_wavelength     0.59960
_diffrn_reflns_av_R_equivalents  0.0000
_diffrn_reflns_av_sigmaI/netI    0.0153
_diffrn_reflns_limit_h_max       15
_diffrn_reflns_limit_h_min       -15
_diffrn_reflns_limit_k_max       0
_diffrn_reflns_limit_k_min       -15
_diffrn_reflns_limit_l_max       0
_diffrn_reflns_limit_l_min       -13
_diffrn_reflns_number            1045
_diffrn_reflns_theta_full        59.82
_diffrn_reflns_theta_max         59.82
_diffrn_reflns_theta_min         3.67
_exptl_absorpt_coefficient_mu    0.071
_exptl_crystal_density_diffrn    1.368
_exptl_crystal_density_method    'not measured'
_exptl_crystal_F_000             64
_refine_diff_density_max         0.803
_refine_diff_density_min         -0.615
_refine_diff_density_rms         0.067
_refine_ls_abs_structure_details 'Flack H D (1983), Acta Cryst. A39, 876-881'
_refine_ls_abs_structure_Flack   -1(2)
_refine_ls_extinction_method     none
_refine_ls_goodness_of_fit_ref   1.267
_refine_ls_hydrogen_treatment    mixed
_refine_ls_matrix_type           full
_refine_ls_number_parameters     6
_refine_ls_number_reflns         1045
_refine_ls_number_restraints     0
_refine_ls_restrained_S_all      1.267
_refine_ls_R_factor_all          0.0512
_refine_ls_R_factor_gt           0.0406
_refine_ls_shift/su_max          0.000
_refine_ls_shift/su_mean         0.000
_refine_ls_structure_factor_coef Fsqd
_refine_ls_weighting_details
'calc w=1/[\s^2^(Fo^2^)+(0.1000P)^2^+0.0000P] where P=(Fo^2^+2Fc^2^)/3'
_refine_ls_weighting_scheme      calc
_refine_ls_wR_factor_gt          0.1580
_refine_ls_wR_factor_ref         0.1581
_reflns_number_gt                817
_reflns_number_total             1045
_reflns_threshold_expression     >2sigma(I)
_cod_data_source_file            urea_4_631g.cif
_cod_data_source_block           test
_cod_depositor_comments
;
The following automatic conversions were performed:
'_atom_site_symetry_multiplicity' tag replaced with
'_atom_site_symmetry_multiplicity' tag as specified in the
replacement file
'/usr/data/users/saulius/crontab/automatic-downloads/rss-feeds/IUCr/lib/lists/replacement-tags.lst'.

Automatic conversion script
Id: cif_correct_tags 4268 2015-11-12 08:31:59Z antanas 

2019-10-02
Z value and formula fixed to values more according to usual
chemical conventions.                 miguel
;
_cod_original_formula_weight         15.02
_cod_original_formula_units_Z            8
_cod_original_formula_sum        'C0.25 H N0.50 O0.25'
_cod_database_code               2311086
loop_
_symmetry_equiv_pos_as_xyz
'x, y, z'
'-x, -y, z'
'-y, x, -z'
'y, -x, -z'
'-x+1/2, y+1/2, -z'
'x+1/2, -y+1/2, -z'
'y+1/2, x+1/2, z'
'-y+1/2, -x+1/2, z'
loop_
_atom_site_label
_atom_site_type_symbol
_atom_site_fract_x
_atom_site_fract_y
_atom_site_fract_z
_atom_site_U_iso_or_equiv
_atom_site_adp_type
_atom_site_occupancy
_atom_site_symmetry_multiplicity
_atom_site_calc_flag
_atom_site_refinement_flags
C C 0.0000 0.5000 0.32797(11) 0.012 Uani 1 4 d S
O O 0.0000 0.5000 0.59634(8) 0.015 Uani 1 4 d S
N N 0.14499(7) 0.64499(7) 0.17840(9) 0.024 Uani 1 2 d S
H1 H 0.2557 0.7557 0.2841 0.033 Uani 1 2 d S
H2 H 0.1431 0.6431 -0.0348 0.032 Uani 1 2 d S
loop_
_atom_site_aniso_label
_atom_site_aniso_U_11
_atom_site_aniso_U_22
_atom_site_aniso_U_33
_atom_site_aniso_U_23
_atom_site_aniso_U_13
_atom_site_aniso_U_12
C 0.01509 0.01509 0.00685 -0.00000 -0.00000 -0.00040
O 0.01851 0.01851 0.00699 -0.00000 -0.00000 -0.00024
N 0.03147 0.03147 0.00887 0.00055 0.00055 -0.01672
H1 0.03946 0.03946 0.02155 -0.00192 -0.00192 -0.01859
H2 0.04187 0.04187 0.01309 0.00155 0.00155 -0.01186
loop_
_atom_type_symbol
_atom_type_description
_atom_type_scat_dispersion_real
_atom_type_scat_dispersion_imag
_atom_type_scat_source
C C 0.0015 0.0009 'International Tables Vol C Tables 4.2.6.8 and 6.1.1.4'
H H 0.0000 0.0000 'International Tables Vol C Tables 4.2.6.8 and 6.1.1.4'
N N 0.0030 0.0019 'International Tables Vol C Tables 4.2.6.8 and 6.1.1.4'
O O 0.0056 0.0036 'International Tables Vol C Tables 4.2.6.8 and 6.1.1.4'
loop_
_geom_angle_atom_site_label_1
_geom_angle_atom_site_label_2
_geom_angle_atom_site_label_3
_geom_angle
_geom_angle_site_symmetry_1
_geom_angle_site_symmetry_3
O C N 121.50(3) . 2_565
O C N 121.50(3) . .
N C N 117.00(6) 2_565 .
loop_
_geom_bond_atom_site_label_1
_geom_bond_atom_site_label_2
_geom_bond_distance
_geom_bond_site_symmetry_2
C O 1.2576(7) .
C N 1.3415(6) 2_565
C N 1.3415(6) .
loop_
_refln_index_h
_refln_index_k
_refln_index_l
_refln_F_squared_calc
_refln_F_squared_meas
_refln_F_squared_sigma
_refln_observed_status
1 1 0 1004.18 981.69 1.87 o
0 2 0 133.82 151.82 0.29 o
1 2 0 198.90 220.92 0.28 o
2 2 0 232.03 221.39 0.41 o
1 3 0 28.99 28.35 0.07 o
2 3 0 13.59 16.95 0.05 o
3 3 0 216.68 213.71 0.60 o
0 4 0 6.36 5.37 0.06 o
1 4 0 6.75 6.95 0.04 o
2 4 0 91.41 90.93 0.21 o
3 4 0 5.24 3.18 0.03 o
4 4 0 79.62 80.84 0.38 o
1 5 0 41.83 41.17 0.15 o
2 5 0 21.95 20.87 0.08 o
3 5 0 42.63 42.06 0.16 o
4 5 0 2.07 2.81 0.03 o
5 5 0 6.94 6.59 0.07 o
0 6 0 56.79 59.94 0.40 o
1 6 0 5.36 5.19 0.04 o
2 6 0 23.56 22.86 0.11 o
3 6 0 0.04 0.04 0.22 o
4 6 0 2.93 2.41 0.03 o
5 6 0 2.92 4.06 0.04 o
6 6 0 9.13 8.29 0.10 o
1 7 0 29.52 30.66 0.17 o
2 7 0 0.14 0.27 0.01 o
3 7 0 1.85 1.34 0.03 o
4 7 0 0.63 0.98 0.03 o
5 7 0 6.36 5.68 0.06 o
6 7 0 0.74 0.51 0.02 o
0 8 0 16.64 16.76 0.13 o
1 8 0 1.10 1.46 0.03 o
2 8 0 5.05 4.56 0.05 o
3 8 0 0.74 1.10 0.03 o
4 8 0 4.54 4.05 0.05 o
5 8 0 1.12 0.96 0.03 o
6 8 0 7.95 8.20 0.08 o
7 8 0 0.16 0.14 0.02 o
8 8 0 0.98 0.86 0.05 o
1 9 0 3.94 3.50 0.04 o
2 9 0 0.96 1.36 0.03 o
3 9 0 5.11 5.13 0.06 o
4 9 0 0.48 0.41 0.02 o
5 9 0 5.83 6.13 0.07 o
6 9 0 0.22 0.17 0.01 o
7 9 0 0.83 0.79 0.03 o
8 9 0 0.34 0.56 0.02 o
9 9 0 0.18 0.11 0.02 o
0 10 0 1.29 0.90 0.04 o
1 10 0 0.07 0.10 0.01 o
2 10 0 3.38 3.28 0.05 o
3 10 0 0.08 0.07 0.02 o
4 10 0 4.60 4.96 0.07 o
5 10 0 0.10 0.06 0.02 o
6 10 0 0.71 0.57 0.02 o
7 10 0 0.22 0.36 0.02 o
8 10 0 0.16 0.10 0.02 o
9 10 0 0.00 0.01 0.20 o
10 10 0 0.55 0.58 0.04 o
1 11 0 1.39 1.29 0.03 o
2 11 0 0.09 0.11 0.02 o
3 11 0 2.70 2.72 0.04 o
4 11 0 0.02 0.02 0.27 o
5 11 0 0.70 0.61 0.03 o
6 11 0 0.14 0.25 0.01 o
7 11 0 0.16 0.12 0.02 o
8 11 0 0.00 0.00 0.27 o
9 11 0 0.50 0.52 0.02 o
10 11 0 0.06 0.05 0.27 o
0 12 0 0.99 0.97 0.04 o
1 12 0 0.05 0.05 0.28 o
2 12 0 1.19 1.14 0.03 o
3 12 0 0.02 0.03 0.28 o
4 12 0 0.52 0.45 0.02 o
5 12 0 0.07 0.12 0.02 o
6 12 0 0.18 0.14 0.01 o
7 12 0 0.00 -0.01 0.28 o
8 12 0 0.39 0.42 0.02 o
9 12 0 0.05 0.05 0.27 o
1 13 0 0.65 0.65 0.03 o
2 13 0 0.01 0.01 0.28 o
3 13 0 0.31 0.23 0.01 o
4 13 0 0.02 0.02 0.20 o
5 13 0 0.15 0.12 0.01 o
6 13 0 0.00 0.01 0.27 o
7 13 0 0.27 0.26 0.01 o
8 13 0 0.03 0.01 0.26 o
0 14 0 0.34 0.33 0.02 o
1 14 0 0.00 0.01 0.27 o
2 14 0 0.20 0.17 0.01 o
3 14 0 0.00 0.01 0.27 o
4 14 0 0.10 0.07 0.01 o
5 14 0 0.00 -0.03 0.27 o
6 14 0 0.16 0.16 0.01 o
1 15 0 0.12 0.07 0.27 o
2 15 0 0.00 0.02 0.27 o
3 15 0 0.07 0.06 0.26 o
4 15 0 0.00 0.01 0.18 o
0 0 1 11.15 13.08 0.05 o
0 1 1 139.44 145.96 0.17 o
1 1 1 260.65 275.98 0.50 o
-2 2 1 179.39 194.57 0.38 o
0 2 1 179.50 192.49 0.26 o
1 2 1 46.09 48.27 0.07 o
-2 3 1 4.38 5.00 0.03 o
0 3 1 80.67 90.95 0.17 o
1 3 1 130.39 138.60 0.22 o
3 3 1 8.02 7.91 0.05 o
-4 4 1 5.38 4.63 0.05 o
-2 4 1 25.29 25.04 0.08 o
0 4 1 90.06 95.03 0.23 o
1 4 1 11.01 11.35 0.04 o
3 4 1 19.05 20.06 0.07 o
-4 5 1 0.48 0.47 0.02 o
-2 5 1 5.94 7.02 0.04 o
0 5 1 0.21 0.10 0.01 o
1 5 1 28.61 29.55 0.10 o
3 5 1 11.82 11.55 0.06 o
5 5 1 15.19 15.24 0.13 o
-6 6 1 2.96 2.66 0.05 o
-4 6 1 13.12 13.13 0.06 o
-2 6 1 13.17 13.41 0.07 o
0 6 1 4.91 4.36 0.04 o
1 6 1 4.78 5.54 0.04 o
3 6 1 0.87 0.86 0.02 o
5 6 1 0.94 0.84 0.03 o
-7 7 1 1.17 1.26 0.05 o
-6 7 1 1.86 2.15 0.04 o
-4 7 1 1.23 1.32 0.03 o
-2 7 1 0.04 0.01 0.17 o
0 7 1 7.04 8.31 0.07 o
1 7 1 3.52 3.11 0.03 o
3 7 1 10.30 10.44 0.07 o
5 7 1 3.27 3.10 0.04 o
-7 8 1 0.47 0.54 0.02 o
-5 8 1 1.02 1.31 0.03 o
-4 8 1 3.03 2.85 0.04 o
-2 8 1 6.27 6.39 0.06 o
0 8 1 2.54 2.22 0.04 o
1 8 1 0.77 0.94 0.03 o
3 8 1 0.40 0.38 0.01 o
6 8 1 1.43 1.46 0.03 o
8 8 1 0.93 0.84 0.04 o
-8 9 1 0.19 0.16 0.01 o
-7 9 1 0.88 0.88 0.03 o
-6 9 1 0.28 0.41 0.02 o
-5 9 1 1.29 1.32 0.03 o
-3 9 1 1.75 1.59 0.03 o
-2 9 1 0.21 0.23 0.01 o
0 9 1 0.00 -0.02 0.29 o
1 9 1 3.50 3.53 0.04 o
4 9 1 0.81 1.04 0.03 o
9 9 1 0.56 0.64 0.04 o
-9 10 1 0.02 0.04 0.27 o
-8 10 1 0.52 0.50 0.02 o
-3 10 1 0.65 0.85 0.03 o
-1 10 1 0.03 0.02 0.27 o
0 10 1 2.19 2.20 0.04 o
2 10 1 1.18 1.04 0.03 o
4 10 1 0.64 0.59 0.02 o
5 10 1 0.23 0.33 0.01 o
6 10 1 0.73 0.68 0.03 o
7 10 1 0.15 0.12 0.02 o
10 10 1 0.09 0.12 0.02 o
-9 11 1 0.09 0.10 0.01 o
-6 11 1 0.07 0.08 0.01 o
-5 11 1 0.50 0.50 0.02 o
-4 11 1 0.17 0.22 0.01 o
-3 11 1 0.44 0.42 0.02 o
-2 11 1 0.18 0.24 0.01 o
-1 11 1 0.92 0.90 0.03 o
0 11 1 0.01 -0.00 0.32 o
7 11 1 0.40 0.40 0.02 o
8 11 1 0.01 -0.01 0.28 o
10 11 1 0.09 0.11 0.01 o
-9 12 1 0.07 0.06 0.02 o
-7 12 1 0.01 0.01 0.20 o
-6 12 1 0.27 0.27 0.01 o
-5 12 1 0.03 0.02 0.28 o
0 12 1 0.42 0.36 0.02 o
1 12 1 0.06 0.08 0.02 o
2 12 1 0.36 0.35 0.01 o
3 12 1 0.06 0.09 0.01 o
4 12 1 0.32 0.28 0.01 o
8 12 1 0.07 0.06 0.02 o
-7 13 1 0.05 0.05 0.02 o
-5 13 1 0.16 0.16 0.01 o
0 13 1 0.06 0.08 0.02 o
1 13 1 0.18 0.15 0.01 o
2 13 1 0.02 0.02 0.28 o
3 13 1 0.19 0.19 0.01 o
4 13 1 0.01 0.03 0.27 o
6 13 1 0.01 0.01 0.27 o
8 13 1 0.05 0.06 0.02 o
-6 14 1 0.03 -0.01 0.19 o
-5 14 1 0.01 -0.02 0.19 o
-3 14 1 0.00 0.00 0.27 o
-1 14 1 0.02 0.03 0.27 o
0 14 1 0.08 0.01 0.33 o
2 14 1 0.10 0.10 0.02 o
4 14 1 0.09 0.07 0.02 o
0 15 1 0.01 -0.01 0.31 o
1 15 1 0.04 0.03 0.19 o
2 15 1 0.00 -0.00 0.26 o
3 15 1 0.04 -0.02 0.27 o
0 0 2 108.19 131.27 0.80 o
-1 1 2 40.74 51.53 0.12 o
0 1 2 123.98 149.15 0.27 o
0 2 2 8.37 8.08 0.03 o
1 2 2 24.63 29.44 0.07 o
2 2 2 45.99 53.34 0.15 o
-3 3 2 8.57 7.75 0.05 o
-2 3 2 11.50 10.72 0.04 o
-1 3 2 13.83 14.49 0.05 o
0 3 2 13.55 17.36 0.06 o
0 4 2 7.17 7.48 0.04 o
1 4 2 1.94 2.68 0.03 o
2 4 2 5.41 5.30 0.03 o
3 4 2 18.43 18.25 0.07 o
4 4 2 3.89 3.90 0.05 o
-5 5 2 3.89 4.87 0.04 o
-4 5 2 0.83 0.68 0.02 o
-3 5 2 2.17 2.20 0.03 o
-2 5 2 8.17 7.23 0.04 o
-1 5 2 7.39 8.05 0.04 o
0 5 2 0.25 0.09 0.02 o
0 6 2 2.45 2.50 0.03 o
1 6 2 4.75 4.58 0.04 o
2 6 2 2.57 2.77 0.03 o
3 6 2 0.47 0.89 0.02 o
4 6 2 2.21 2.56 0.03 o
5 6 2 1.33 1.53 0.03 o
6 6 2 0.31 0.42 0.02 o
-5 7 2 0.04 0.10 0.02 o
-4 7 2 1.31 1.77 0.03 o
-3 7 2 1.23 1.41 0.03 o
-2 7 2 0.08 0.16 0.01 o
-1 7 2 1.29 1.41 0.02 o
0 7 2 4.63 5.01 0.04 o
6 7 2 1.08 1.07 0.03 o
7 7 2 1.30 1.35 0.05 o
-8 8 2 0.08 0.15 0.02 o
-6 8 2 1.17 1.16 0.03 o
-5 8 2 0.70 0.70 0.03 o
0 8 2 0.66 0.79 0.03 o
1 8 2 0.60 0.61 0.02 o
2 8 2 1.10 1.52 0.03 o
3 8 2 0.62 0.85 0.03 o
4 8 2 0.02 0.03 0.25 o
7 8 2 0.21 0.21 0.01 o
-9 9 2 0.11 0.16 0.02 o
-8 9 2 0.30 0.39 0.02 o
-6 9 2 0.13 0.15 0.01 o
0 9 2 0.02 0.09 0.02 o
1 9 2 0.44 0.62 0.02 o
2 9 2 0.33 0.40 0.01 o
3 9 2 0.13 0.19 0.01 o
4 9 2 0.44 0.47 0.02 o
5 9 2 0.84 0.95 0.03 o
7 9 2 0.05 0.05 0.20 o
-10 10 2 0.08 0.07 0.39 o
-9 10 2 0.00 0.00 0.27 o
-6 10 2 0.03 0.03 0.20 o
-4 10 2 0.44 0.49 0.02 o
-2 10 2 0.07 0.08 0.03 o
-1 10 2 0.10 0.20 0.01 o
0 10 2 0.05 0.05 0.31 o
3 10 2 0.27 0.31 0.01 o
5 10 2 0.09 0.10 0.02 o
7 10 2 0.23 0.32 0.01 o
8 10 2 0.09 0.16 0.01 o
-7 11 2 0.06 0.09 0.01 o
-4 11 2 0.05 0.04 0.16 o
-2 11 2 0.07 0.03 0.20 o
0 11 2 0.06 0.08 0.02 o
1 11 2 0.01 0.03 0.19 o
3 11 2 0.20 0.22 0.01 o
5 11 2 0.02 0.07 0.28 o
6 11 2 0.13 0.20 0.01 o
8 11 2 0.00 -0.02 0.28 o
9 11 2 0.07 0.06 0.02 o
10 11 2 0.05 0.06 0.02 o
-9 12 2 0.04 -0.00 0.27 o
-8 12 2 0.05 0.08 0.02 o
-7 12 2 0.00 -0.00 0.28 o
-6 12 2 0.03 0.05 0.20 o
-5 12 2 0.06 0.09 0.02 o
-2 12 2 0.07 0.12 0.02 o
0 12 2 0.01 0.00 0.21 o
1 12 2 0.02 0.04 0.28 o
3 12 2 0.01 0.03 0.19 o
4 12 2 0.01 0.01 0.28 o
-7 13 2 0.03 0.02 0.16 o
-3 13 2 0.00 -0.00 0.28 o
-1 13 2 0.02 0.00 0.28 o
0 13 2 0.01 0.03 0.21 o
2 13 2 0.00 0.00 0.27 o
4 13 2 0.02 0.04 0.28 o
5 13 2 0.01 -0.01 0.28 o
6 13 2 0.00 -0.00 0.27 o
8 13 2 0.02 0.05 0.25 o
-5 14 2 0.00 -0.00 0.27 o
-4 14 2 0.00 -0.01 0.27 o
-3 14 2 0.01 0.02 0.27 o
-2 14 2 0.00 -0.01 0.27 o
-1 14 2 0.00 -0.05 0.28 o
0 14 2 0.01 0.01 0.21 o
6 14 2 0.01 -0.00 0.26 o
-3 15 2 0.00 0.01 0.25 o
-1 15 2 0.00 0.03 0.26 o
0 15 2 0.00 -0.04 0.31 o
2 15 2 0.00 -0.01 0.26 o
0 0 3 11.15 13.27 0.08 o
0 1 3 78.56 85.42 0.18 o
1 1 3 11.09 11.30 0.05 o
-2 2 3 28.12 26.82 0.11 o
0 2 3 47.17 48.36 0.13 o
1 2 3 67.49 66.84 0.15 o
-2 3 3 25.91 24.97 0.09 o
0 3 3 11.47 11.31 0.05 o
1 3 3 64.64 64.46 0.17 o
3 3 3 0.19 0.50 0.03 o
-4 4 3 0.22 0.16 0.01 o
-2 4 3 4.17 4.12 0.03 o
0 4 3 69.53 70.02 0.25 o
1 4 3 13.16 12.78 0.06 o
3 4 3 18.44 16.37 0.08 o
-4 5 3 5.99 5.59 0.03 o
-2 5 3 20.93 20.80 0.10 o
0 5 3 9.00 8.30 0.06 o
1 5 3 9.97 9.96 0.06 o
3 5 3 3.49 3.29 0.03 o
5 5 3 10.07 10.00 0.11 o
-6 6 3 1.81 1.72 0.05 o
-4 6 3 13.72 14.41 0.10 o
-2 6 3 6.10 6.04 0.04 o
0 6 3 0.33 0.23 0.01 o
1 6 3 10.77 10.25 0.07 o
3 6 3 2.99 2.80 0.03 o
5 6 3 4.25 3.94 0.04 o
-7 7 3 0.04 0.00 0.38 o
-5 7 3 2.72 2.78 0.04 o
-4 7 3 1.94 1.65 0.03 o
-2 7 3 2.85 2.65 0.03 o
0 7 3 5.93 5.13 0.05 o
1 7 3 0.72 0.59 0.02 o
3 7 3 12.87 13.66 0.10 o
6 7 3 2.27 2.09 0.04 o
-5 8 3 2.16 2.15 0.04 o
-2 8 3 4.82 5.01 0.05 o
0 8 3 0.86 0.78 0.03 o
1 8 3 3.19 3.09 0.04 o
3 8 3 1.92 1.79 0.03 o
4 8 3 2.80 2.88 0.04 o
6 8 3 0.08 0.02 0.28 o
7 8 3 0.74 0.76 0.03 o
8 8 3 0.91 0.93 0.05 o
-8 9 3 0.43 0.37 0.02 o
-7 9 3 0.94 0.97 0.03 o
-6 9 3 0.67 0.75 0.03 o
-5 9 3 0.15 0.06 0.02 o
-3 9 3 1.19 1.11 0.03 o
-1 9 3 2.84 3.05 0.04 o
0 9 3 1.15 0.99 0.04 o
2 9 3 1.89 1.86 0.03 o
4 9 3 1.45 1.36 0.03 o
9 9 3 0.62 0.77 0.04 o
-9 10 3 0.10 0.07 0.02 o
-8 10 3 0.59 0.72 0.03 o
-1 10 3 0.68 0.60 0.02 o
0 10 3 2.74 3.05 0.05 o
2 10 3 0.84 0.83 0.03 o
3 10 3 0.88 0.83 0.03 o
4 10 3 0.08 0.02 0.27 o
5 10 3 0.50 0.47 0.02 o
6 10 3 0.80 0.84 0.03 o
7 10 3 0.32 0.31 0.01 o
10 10 3 0.01 -0.02 0.39 o
-9 11 3 0.01 -0.02 0.27 o
-5 11 3 0.48 0.51 0.02 o
-4 11 3 0.33 0.31 0.01 o
-3 11 3 0.11 0.09 0.02 o
-2 11 3 0.51 0.49 0.02 o
-1 11 3 0.89 0.94 0.03 o
0 11 3 0.35 0.32 0.02 o
6 11 3 0.23 0.23 0.01 o
7 11 3 0.47 0.50 0.02 o
8 11 3 0.08 0.06 0.02 o
10 11 3 0.08 0.08 0.02 o
-9 12 3 0.07 0.07 0.02 o
-7 12 3 0.07 0.06 0.01 o
-5 12 3 0.15 0.13 0.01 o
-4 12 3 0.30 0.31 0.01 o
-3 12 3 0.20 0.17 0.01 o
0 12 3 0.36 0.33 0.02 o
1 12 3 0.27 0.27 0.01 o
2 12 3 0.19 0.17 0.01 o
6 12 3 0.29 0.37 0.02 o
8 12 3 0.01 0.00 0.27 o
-5 13 3 0.17 0.18 0.01 o
-3 13 3 0.20 0.21 0.01 o
0 13 3 0.14 0.12 0.02 o
1 13 3 0.11 0.09 0.01 o
2 13 3 0.11 0.09 0.02 o
4 13 3 0.08 0.06 0.02 o
6 13 3 0.05 0.06 0.27 o
7 13 3 0.01 -0.00 0.18 o
-5 14 3 0.03 0.04 0.26 o
-4 14 3 0.10 0.11 0.02 o
-3 14 3 0.04 0.04 0.27 o
-1 14 3 0.06 0.02 0.27 o
0 14 3 0.05 -0.01 0.32 o
2 14 3 0.09 0.09 0.02 o
0 15 3 0.03 0.04 0.29 o
1 15 3 0.04 0.03 0.18 o
0 0 4 38.93 29.04 0.17 o
-1 1 4 46.41 42.33 0.18 o
0 1 4 2.22 2.16 0.03 o
0 2 4 19.51 19.61 0.08 o
1 2 4 47.60 44.15 0.14 o
2 2 4 45.48 42.32 0.21 o
-3 3 4 14.98 15.37 0.11 o
-2 3 4 13.98 13.31 0.07 o
-1 3 4 14.38 14.14 0.07 o
0 3 4 106.99 102.18 0.37 o
0 4 4 5.57 5.77 0.05 o
1 4 4 42.58 41.88 0.17 o
2 4 4 15.45 16.17 0.09 o
3 4 4 0.44 0.30 0.02 o
4 4 4 8.34 8.47 0.06 o
-5 5 4 6.99 6.78 0.09 o
-4 5 4 8.94 8.24 0.07 o
-3 5 4 7.94 8.29 0.06 o
-2 5 4 7.64 7.39 0.05 o
-1 5 4 14.43 15.07 0.09 o
0 5 4 17.89 17.51 0.11 o
-6 6 4 1.80 1.89 0.05 o
0 6 4 6.99 7.57 0.07 o
1 6 4 3.17 2.84 0.03 o
2 6 4 7.14 7.38 0.06 o
3 6 4 15.08 14.81 0.11 o
4 6 4 3.76 3.35 0.04 o
5 6 4 9.25 9.09 0.08 o
-3 7 4 2.10 1.79 0.03 o
-2 7 4 8.33 8.12 0.07 o
-1 7 4 4.28 4.48 0.05 o
0 7 4 0.35 0.18 0.01 o
4 7 4 11.18 11.28 0.10 o
5 7 4 1.41 1.39 0.03 o
6 7 4 0.43 0.35 0.01 o
7 7 4 1.83 1.88 0.06 o
-8 8 4 0.44 0.34 0.02 o
-6 8 4 1.81 1.93 0.04 o
-5 8 4 0.86 0.77 0.03 o
-4 8 4 1.14 1.10 0.03 o
-3 8 4 6.80 6.85 0.07 o
-2 8 4 2.93 2.98 0.04 o
-1 8 4 2.97 2.84 0.04 o
0 8 4 2.73 2.67 0.04 o
7 8 4 0.46 0.34 0.02 o
-6 9 4 0.59 0.49 0.02 o
-4 9 4 0.64 0.53 0.02 o
0 9 4 3.68 3.78 0.06 o
1 9 4 1.67 1.62 0.03 o
2 9 4 3.06 3.05 0.04 o
3 9 4 1.05 1.03 0.03 o
5 9 4 1.43 1.55 0.04 o
7 9 4 0.37 0.29 0.01 o
8 9 4 1.31 1.39 0.04 o
9 9 4 0.20 0.22 0.02 o
-10 10 4 0.11 0.13 0.02 o
-9 10 4 0.16 0.17 0.01 o
-8 10 4 0.17 0.16 0.01 o
-7 10 4 1.17 1.25 0.03 o
-6 10 4 0.29 0.23 0.01 o
-4 10 4 0.85 0.99 0.03 o
-2 10 4 0.71 0.75 0.03 o
0 10 4 0.57 0.46 0.02 o
1 10 4 2.55 2.64 0.04 o
3 10 4 0.38 0.30 0.01 o
5 10 4 0.46 0.37 0.02 o
-9 11 4 0.10 0.13 0.02 o
-5 11 4 0.24 0.22 0.01 o
-4 11 4 0.31 0.27 0.01 o
-3 11 4 0.50 0.52 0.03 o
-2 11 4 0.51 0.41 0.02 o
0 11 4 1.52 1.51 0.04 o
1 11 4 0.38 0.37 0.01 o
6 11 4 0.81 0.85 0.03 o
7 11 4 0.13 0.12 0.01 o
8 11 4 0.15 0.16 0.01 o
-7 12 4 0.12 0.13 0.01 o
-6 12 4 0.10 0.07 0.02 o
-5 12 4 0.48 0.54 0.02 o
-3 12 4 0.29 0.27 0.01 o
-1 12 4 0.41 0.36 0.02 o
0 12 4 0.22 0.19 0.01 o
2 12 4 0.28 0.28 0.01 o
4 12 4 0.16 0.14 0.01 o
8 12 4 0.08 0.09 0.02 o
-7 13 4 0.05 0.04 0.26 o
0 13 4 0.16 0.11 0.01 o
1 13 4 0.13 0.12 0.01 o
2 13 4 0.20 0.16 0.01 o
3 13 4 0.09 0.05 0.28 o
4 13 4 0.28 0.29 0.01 o
5 13 4 0.06 0.00 0.28 o
6 13 4 0.08 0.08 0.02 o
-3 14 4 0.14 0.11 0.02 o
-2 14 4 0.05 0.04 0.27 o
-1 14 4 0.09 0.06 0.27 o
0 14 4 0.06 0.08 0.02 o
4 14 4 0.03 -0.01 0.18 o
0 0 5 43.09 47.78 0.35 o
0 1 5 24.42 18.58 0.10 o
1 1 5 16.68 16.56 0.11 o
-2 2 5 10.49 9.53 0.08 o
0 2 5 0.55 0.55 0.03 o
1 2 5 13.33 13.23 0.07 o
-2 3 5 7.79 7.44 0.05 o
0 3 5 0.33 0.36 0.02 o
1 3 5 1.74 1.63 0.03 o
3 3 5 12.77 13.03 0.08 o
-4 4 5 5.12 5.43 0.07 o
-2 4 5 5.18 5.17 0.03 o
0 4 5 2.37 2.54 0.04 o
1 4 5 1.56 1.48 0.03 o
3 4 5 13.17 12.92 0.09 o
-4 5 5 2.49 2.53 0.04 o
-2 5 5 9.09 8.93 0.07 o
0 5 5 1.90 1.84 0.03 o
1 5 5 3.16 3.31 0.04 o
3 5 5 2.23 2.36 0.03 o
5 5 5 1.38 1.63 0.05 o
-5 6 5 1.19 1.50 0.03 o
-2 6 5 1.43 1.51 0.03 o
0 6 5 4.35 4.27 0.05 o
1 6 5 6.09 6.28 0.06 o
3 6 5 0.45 0.32 0.01 o
4 6 5 0.83 0.85 0.03 o
6 6 5 0.37 0.28 0.02 o
-7 7 5 1.14 1.08 0.05 o
-6 7 5 1.80 1.82 0.04 o
-5 7 5 0.10 0.07 0.02 o
-3 7 5 0.57 0.63 0.03 o
0 7 5 5.56 6.12 0.07 o
1 7 5 1.91 2.01 0.03 o
2 7 5 0.89 0.84 0.03 o
4 7 5 0.25 0.34 0.01 o
-8 8 5 0.02 0.01 0.40 o
-3 8 5 0.41 0.51 0.02 o
-1 8 5 1.79 1.92 0.03 o
0 8 5 0.90 0.88 0.03 o
2 8 5 0.41 0.55 0.02 o
4 8 5 0.04 0.02 0.27 o
5 8 5 1.38 1.31 0.03 o
6 8 5 0.92 1.00 0.03 o
7 8 5 0.63 0.63 0.03 o
-9 9 5 0.05 0.06 0.39 o
-6 9 5 0.48 0.44 0.02 o
-5 9 5 0.62 0.63 0.03 o
-4 9 5 1.00 1.01 0.03 o
-3 9 5 0.17 0.11 0.01 o
-2 9 5 0.70 0.77 0.03 o
-1 9 5 0.18 0.25 0.01 o
0 9 5 0.42 0.34 0.02 o
7 9 5 0.01 -0.04 0.28 o
8 9 5 0.14 0.19 0.01 o
-10 10 5 0.06 0.05 0.37 o
-9 10 5 0.04 0.02 0.27 o
-7 10 5 0.09 0.13 0.01 o
-6 10 5 0.01 -0.01 0.28 o
0 10 5 0.02 0.06 0.32 o
1 10 5 0.18 0.12 0.01 o
2 10 5 0.10 0.06 0.02 o
3 10 5 0.69 0.76 0.03 o
4 10 5 0.41 0.39 0.02 o
5 10 5 0.37 0.35 0.02 o
8 10 5 0.04 0.03 0.20 o
-7 11 5 0.02 0.08 0.02 o
-2 11 5 0.32 0.36 0.01 o
-1 11 5 0.01 0.02 0.27 o
0 11 5 0.08 0.02 0.32 o
3 11 5 0.19 0.18 0.01 o
4 11 5 0.26 0.25 0.01 o
5 11 5 0.01 -0.01 0.28 o
6 11 5 0.07 0.09 0.02 o
8 11 5 0.04 0.06 0.19 o
9 11 5 0.05 0.05 0.18 o
-7 12 5 0.03 0.00 0.19 o
-5 12 5 0.05 0.06 0.27 o
-3 12 5 0.14 0.14 0.02 o
-2 12 5 0.06 0.01 0.28 o
-1 12 5 0.15 0.16 0.01 o
0 12 5 0.02 0.01 0.32 o
4 12 5 0.00 0.00 0.27 o
6 12 5 0.01 0.03 0.19 o
-4 13 5 0.02 -0.02 0.32 o
-3 13 5 0.00 0.01 0.27 o
-1 13 5 0.02 0.01 0.19 o
0 13 5 0.09 0.09 0.02 o
2 13 5 0.07 0.02 0.28 o
5 13 5 0.00 0.04 0.26 o
6 13 5 0.02 -0.01 0.26 o
-3 14 5 0.01 -0.02 0.25 o
-2 14 5 0.00 -0.02 0.26 o
-1 14 5 0.04 0.02 0.26 o
0 14 5 0.01 0.00 0.30 o
0 0 6 17.44 15.38 0.18 o
-1 1 6 2.96 2.89 0.03 o
0 1 6 0.44 0.52 0.03 o
0 2 6 1.33 1.43 0.02 o
1 2 6 13.42 13.56 0.09 o
2 2 6 2.38 2.69 0.05 o
-3 3 6 5.30 5.44 0.07 o
-2 3 6 2.78 2.96 0.04 o
-1 3 6 4.92 5.10 0.05 o
0 3 6 9.55 10.60 0.09 o
0 4 6 7.42 7.59 0.07 o
1 4 6 5.10 5.60 0.05 o
2 4 6 1.07 1.10 0.03 o
3 4 6 1.04 1.12 0.03 o
4 4 6 2.36 2.51 0.05 o
-3 5 6 0.47 0.56 0.02 o
-2 5 6 5.62 6.03 0.06 o
-1 5 6 0.79 0.75 0.03 o
0 5 6 1.80 1.94 0.04 o
4 5 6 1.70 1.54 0.03 o
5 5 6 0.94 0.80 0.04 o
-6 6 6 0.03 0.04 0.22 o
-5 6 6 2.04 2.04 0.04 o
-4 6 6 1.36 1.27 0.03 o
-3 6 6 1.88 1.72 0.03 o
-2 6 6 0.25 0.30 0.01 o
-1 6 6 1.73 1.87 0.03 o
0 6 6 1.66 1.91 0.04 o
-6 7 6 0.26 0.31 0.01 o
-4 7 6 1.50 1.43 0.03 o
0 7 6 0.05 0.05 0.30 o
1 7 6 0.76 0.99 0.03 o
2 7 6 1.06 0.93 0.03 o
3 7 6 1.31 1.32 0.03 o
5 7 6 0.01 0.01 0.19 o
7 7 6 0.64 0.86 0.05 o
-7 8 6 0.13 0.14 0.02 o
-6 8 6 0.46 0.57 0.02 o
-4 8 6 0.04 0.08 0.03 o
-2 8 6 0.27 0.25 0.01 o
0 8 6 0.35 0.49 0.02 o
1 8 6 0.73 0.76 0.03 o
3 8 6 1.03 1.07 0.03 o
5 8 6 0.44 0.58 0.03 o
8 8 6 0.03 0.00 0.39 o
-7 9 6 0.03 0.04 0.27 o
-4 9 6 0.21 0.28 0.01 o
-2 9 6 0.69 0.81 0.03 o
0 9 6 0.48 0.43 0.02 o
1 9 6 0.09 0.05 0.20 o
3 9 6 0.01 0.04 0.19 o
5 9 6 0.28 0.37 0.01 o
6 9 6 0.16 0.16 0.01 o
8 9 6 0.29 0.28 0.01 o
9 9 6 0.05 0.06 0.22 o
-9 10 6 0.01 0.03 0.18 o
-8 10 6 0.05 0.05 0.19 o
-7 10 6 0.23 0.18 0.01 o
-6 10 6 0.02 -0.00 0.28 o
-5 10 6 0.10 0.09 0.02 o
-2 10 6 0.01 0.01 0.28 o
0 10 6 0.13 0.18 0.01 o
1 10 6 0.33 0.32 0.01 o
3 10 6 0.06 0.10 0.02 o
4 10 6 0.21 0.30 0.01 o
-3 11 6 0.09 0.15 0.01 o
-1 11 6 0.01 0.03 0.27 o
0 11 6 0.17 0.13 0.02 o
2 11 6 0.09 0.10 0.02 o
4 11 6 0.05 0.05 0.20 o
5 11 6 0.01 0.04 0.27 o
6 11 6 0.15 0.16 0.01 o
7 11 6 0.03 0.06 0.26 o
8 11 6 0.01 0.03 0.25 o
-5 12 6 0.09 0.08 0.27 o
-4 12 6 0.00 -0.01 0.27 o
-3 12 6 0.04 0.07 0.02 o
-2 12 6 0.02 -0.00 0.28 o
-1 12 6 0.06 0.01 0.28 o
0 12 6 0.00 0.04 0.31 o
6 12 6 0.01 0.01 0.26 o
-3 13 6 0.00 0.01 0.26 o
0 13 6 0.02 0.00 0.31 o
1 13 6 0.01 0.01 0.19 o
2 13 6 0.03 0.05 0.26 o
4 13 6 0.04 0.05 0.18 o
0 0 7 0.37 0.26 0.03 o
0 1 7 41.46 42.14 0.33 o
1 1 7 5.82 5.55 0.07 o
-2 2 7 9.90 9.83 0.11 o
0 2 7 0.23 0.26 0.01 o
1 2 7 9.89 10.52 0.08 o
-3 3 7 0.13 0.15 0.02 o
-2 3 7 15.41 15.72 0.13 o
0 3 7 0.36 0.49 0.02 o
1 3 7 1.41 1.50 0.03 o
-3 4 7 23.42 23.47 0.20 o
-1 4 7 3.33 3.32 0.03 o
0 4 7 0.13 0.15 0.01 o
2 4 7 1.81 1.65 0.03 o
4 4 7 0.14 0.11 0.02 o
-5 5 7 1.99 2.37 0.06 o
-3 5 7 0.86 0.78 0.03 o
-1 5 7 3.03 2.96 0.04 o
0 5 7 6.26 6.20 0.07 o
2 5 7 10.24 9.98 0.09 o
4 5 7 4.80 4.97 0.06 o
-3 6 7 1.84 1.74 0.03 o
-1 6 7 10.67 10.63 0.10 o
0 6 7 0.06 0.03 0.32 o
2 6 7 1.33 1.27 0.03 o
4 6 7 0.79 0.89 0.03 o
5 6 7 1.25 1.25 0.03 o
6 6 7 0.06 0.16 0.02 o
-6 7 7 3.44 3.46 0.05 o
-5 7 7 0.01 0.01 0.28 o
-4 7 7 0.53 0.44 0.02 o
-3 7 7 0.27 0.31 0.01 o
-2 7 7 2.54 2.53 0.04 o
-1 7 7 0.06 0.08 0.02 o
0 7 7 11.20 11.67 0.14 o
7 7 7 0.31 0.28 0.02 o
-7 8 7 1.25 1.23 0.03 o
-6 8 7 0.37 0.31 0.02 o
0 8 7 0.05 0.06 0.32 o
1 8 7 3.39 3.44 0.05 o
2 8 7 0.61 0.81 0.03 o
3 8 7 0.84 0.79 0.03 o
4 8 7 0.02 0.03 0.16 o
5 8 7 2.39 2.30 0.04 o
8 8 7 0.05 0.03 0.40 o
-7 9 7 0.03 0.03 0.28 o
-3 9 7 0.02 0.03 0.20 o
-2 9 7 1.21 1.15 0.03 o
-1 9 7 0.26 0.32 0.01 o
0 9 7 1.23 1.12 0.04 o
4 9 7 1.97 1.98 0.04 o
5 9 7 0.30 0.27 0.01 o
6 9 7 0.95 0.92 0.03 o
8 9 7 0.05 0.03 0.19 o
9 9 7 0.05 0.07 0.37 o
-8 10 7 0.04 0.05 0.01 o
-7 10 7 0.05 0.02 0.19 o
-5 10 7 0.77 0.76 0.03 o
-3 10 7 1.52 1.51 0.04 o
-2 10 7 0.01 0.02 0.28 o
-1 10 7 0.56 0.49 0.02 o
0 10 7 0.01 0.00 0.32 o
4 10 7 0.10 0.08 0.02 o
6 10 7 0.02 0.03 0.19 o
-5 11 7 0.02 0.05 0.27 o
-3 11 7 0.04 0.03 0.28 o
-1 11 7 0.01 0.04 0.27 o
0 11 7 0.31 0.26 0.01 o
2 11 7 0.72 0.72 0.03 o
4 11 7 0.58 0.52 0.03 o
6 11 7 0.06 0.04 0.19 o
7 11 7 0.02 0.06 0.25 o
-5 12 7 0.07 0.03 0.26 o
-4 12 7 0.01 0.03 0.26 o
-3 12 7 0.31 0.28 0.01 o
-1 12 7 0.34 0.35 0.02 o
0 12 7 0.00 0.03 0.31 o
2 12 7 0.03 0.05 0.27 o
0 13 7 0.22 0.20 0.01 o
1 13 7 0.00 0.03 0.25 o
0 0 8 15.86 14.36 0.25 o
0 1 8 5.18 5.98 0.07 o
1 1 8 4.61 4.38 0.07 o
-2 2 8 2.03 1.80 0.05 o
-1 2 8 14.63 14.55 0.13 o
0 2 8 0.04 0.04 0.20 o
0 3 8 15.14 15.17 0.16 o
1 3 8 0.50 0.46 0.02 o
2 3 8 6.90 6.87 0.07 o
3 3 8 5.89 5.48 0.09 o
-4 4 8 2.80 2.90 0.06 o
-2 4 8 1.92 1.81 0.04 o
-1 4 8 9.83 9.86 0.10 o
0 4 8 1.09 1.09 0.04 o
3 4 8 2.78 2.96 0.04 o
-4 5 8 3.52 3.53 0.05 o
-2 5 8 6.13 6.45 0.07 o
0 5 8 5.96 5.82 0.08 o
1 5 8 0.82 0.81 0.03 o
3 5 8 1.07 1.04 0.03 o
5 5 8 0.27 0.25 0.02 o
-4 6 8 0.21 0.16 0.01 o
-2 6 8 0.51 0.59 0.02 o
0 6 8 2.32 2.29 0.05 o
1 6 8 3.26 3.22 0.05 o
3 6 8 3.85 4.23 0.06 o
5 6 8 3.14 3.06 0.05 o
6 6 8 0.27 0.22 0.02 o
-5 7 8 0.10 0.09 0.02 o
-4 7 8 2.87 2.97 0.05 o
-2 7 8 2.71 2.87 0.04 o
0 7 8 1.29 1.20 0.04 o
1 7 8 1.16 1.21 0.03 o
3 7 8 0.18 0.18 0.01 o
6 7 8 0.78 0.69 0.03 o
7 7 8 0.63 0.68 0.04 o
-8 8 8 0.01 0.01 0.38 o
-7 8 8 0.32 0.35 0.01 o
-6 8 8 0.49 0.54 0.02 o
-5 8 8 0.90 0.86 0.03 o
-3 8 8 2.09 2.03 0.04 o
-2 8 8 0.09 0.12 0.01 o
0 8 8 0.60 0.65 0.03 o
1 8 8 1.64 1.61 0.04 o
4 8 8 0.05 0.05 0.02 o
-3 9 8 0.14 0.12 0.01 o
-1 9 8 0.06 0.03 0.28 o
0 9 8 1.21 1.30 0.04 o
2 9 8 1.29 1.22 0.03 o
4 9 8 0.64 0.61 0.03 o
5 9 8 0.33 0.37 0.02 o
6 9 8 0.34 0.39 0.01 o
7 9 8 0.00 0.01 0.27 o
8 9 8 0.38 0.36 0.02 o
-7 10 8 0.32 0.33 0.01 o
-5 10 8 0.27 0.26 0.01 o
-4 10 8 0.25 0.26 0.01 o
-3 10 8 0.39 0.28 0.01 o
-2 10 8 0.09 0.08 0.01 o
-1 10 8 0.82 0.87 0.03 o
0 10 8 0.00 0.04 0.31 o
6 10 8 0.00 -0.00 0.26 o
-5 11 8 0.01 -0.02 0.26 o
0 11 8 0.49 0.49 0.02 o
1 11 8 0.02 0.03 0.27 o
2 11 8 0.31 0.28 0.01 o
3 11 8 0.13 0.11 0.01 o
4 11 8 0.18 0.15 0.01 o
-1 12 8 0.20 0.18 0.01 o
0 12 8 0.02 0.05 0.30 o
2 12 8 0.04 0.06 0.01 o
0 0 9 3.88 3.56 0.09 o
-1 1 9 1.36 1.28 0.05 o
0 1 9 0.03 -0.01 0.31 o
0 2 9 0.45 0.35 0.02 o
1 2 9 3.37 3.22 0.05 o
2 2 9 1.76 1.62 0.05 o
-3 3 9 0.98 0.97 0.05 o
-2 3 9 0.56 0.67 0.03 o
-1 3 9 1.61 1.45 0.03 o
0 3 9 4.09 4.15 0.06 o
0 4 9 2.26 2.08 0.04 o
1 4 9 1.70 1.82 0.04 o
2 4 9 0.39 0.38 0.02 o
3 4 9 0.31 0.20 0.01 o
4 4 9 0.42 0.44 0.02 o
-4 5 9 0.43 0.45 0.02 o
-3 5 9 0.13 0.18 0.01 o
-2 5 9 1.32 1.33 0.03 o
-1 5 9 0.58 0.58 0.02 o
0 5 9 0.48 0.53 0.03 o
5 5 9 0.60 0.49 0.03 o
-5 6 9 0.63 0.74 0.03 o
-4 6 9 0.62 0.61 0.03 o
0 6 9 0.23 0.26 0.01 o
1 6 9 0.38 0.37 0.02 o
2 6 9 0.20 0.25 0.01 o
3 6 9 0.68 0.58 0.02 o
6 6 9 0.01 0.05 0.38 o
-7 7 9 0.13 0.16 0.02 o
-5 7 9 0.03 0.04 0.27 o
0 7 9 0.02 0.05 0.31 o
1 7 9 0.09 0.10 0.01 o
2 7 9 0.32 0.27 0.01 o
3 7 9 0.54 0.56 0.03 o
4 7 9 0.56 0.53 0.02 o
6 7 9 0.05 -0.01 0.28 o
-7 8 9 0.02 -0.00 0.26 o
-5 8 9 0.09 0.08 0.02 o
-3 8 9 0.34 0.36 0.02 o
-2 8 9 0.21 0.19 0.01 o
-1 8 9 0.16 0.21 0.01 o
0 8 9 0.03 0.01 0.32 o
4 8 9 0.05 0.05 0.19 o
6 8 9 0.11 0.13 0.01 o
-5 9 9 0.07 0.05 0.19 o
-3 9 9 0.01 0.02 0.27 o
-1 9 9 0.08 0.07 0.01 o
0 9 9 0.14 0.11 0.02 o
2 9 9 0.19 0.22 0.01 o
4 9 9 0.04 0.05 0.27 o
6 9 9 0.03 0.03 0.26 o
-5 10 9 0.02 0.00 0.25 o
-4 10 9 0.03 -0.02 0.19 o
-3 10 9 0.01 0.05 0.26 o
-1 10 9 0.10 0.07 0.02 o
0 10 9 0.08 0.10 0.02 o
2 10 9 0.00 -0.02 0.27 o
0 11 9 0.05 -0.01 0.30 o
1 11 9 0.02 0.05 0.26 o
2 11 9 0.01 0.03 0.25 o
0 0 10 2.65 2.83 0.09 o
0 1 10 0.25 0.18 0.01 o
1 1 10 3.22 3.17 0.07 o
-2 2 10 3.90 3.57 0.07 o
0 2 10 0.94 1.05 0.04 o
1 2 10 1.29 1.17 0.03 o
-2 3 10 0.16 0.12 0.02 o
0 3 10 5.27 4.71 0.07 o
1 3 10 1.01 1.05 0.03 o
3 3 10 1.42 1.47 0.05 o
-3 4 10 0.26 0.25 0.01 o
-2 4 10 1.45 1.40 0.03 o
0 4 10 0.46 0.41 0.02 o
1 4 10 1.91 1.77 0.04 o
4 4 10 0.76 0.72 0.04 o
-3 5 10 0.76 0.84 0.03 o
-1 5 10 1.54 1.53 0.04 o
0 5 10 0.60 0.52 0.03 o
2 5 10 0.13 0.12 0.01 o
4 5 10 0.27 0.25 0.01 o
5 5 10 0.82 0.79 0.04 o
-6 6 10 0.26 0.20 0.02 o
-5 6 10 0.50 0.48 0.02 o
-4 6 10 0.41 0.39 0.02 o
-3 6 10 0.75 0.76 0.03 o
-1 6 10 0.01 -0.01 0.27 o
0 6 10 0.77 0.72 0.03 o
2 6 10 0.77 0.82 0.03 o
-7 7 10 0.21 0.20 0.02 o
0 7 10 0.08 0.09 0.02 o
1 7 10 0.44 0.40 0.02 o
2 7 10 0.34 0.38 0.01 o
3 7 10 0.22 0.26 0.01 o
4 7 10 0.71 0.76 0.03 o
5 7 10 0.20 0.15 0.01 o
6 7 10 0.01 -0.03 0.27 o
-7 8 10 0.00 -0.05 0.49 o
-6 8 10 0.22 0.24 0.02 o
-5 8 10 0.01 0.02 0.26 o
-4 8 10 0.16 0.16 0.01 o
-3 8 10 0.38 0.39 0.02 o
-2 8 10 0.34 0.38 0.02 o
-1 8 10 0.06 0.02 0.28 o
0 8 10 0.26 0.24 0.01 o
-3 9 10 0.14 0.09 0.02 o
-1 9 10 0.18 0.19 0.01 o
0 9 10 0.15 0.19 0.01 o
2 9 10 0.13 0.11 0.01 o
4 9 10 0.01 -0.03 0.26 o
5 9 10 0.17 0.19 0.02 o
6 9 10 0.01 0.02 0.19 o
-4 10 10 0.10 0.10 0.02 o
-3 10 10 0.00 -0.01 0.35 o
-2 10 10 0.09 0.04 0.36 o
-1 10 10 0.13 0.17 0.02 o
0 10 10 0.06 0.09 0.50 o
0 0 11 0.02 0.07 0.25 o
0 1 11 1.50 1.40 0.04 o
1 1 11 1.41 1.61 0.05 o
-2 2 11 2.73 2.71 0.06 o
-1 2 11 2.05 1.86 0.04 o
0 2 11 4.29 4.23 0.07 o
-3 3 11 0.23 0.30 0.02 o
0 3 11 0.35 0.40 0.02 o
1 3 11 5.42 5.28 0.07 o
2 3 11 0.92 0.93 0.03 o
-3 4 11 0.97 1.03 0.03 o
-1 4 11 0.54 0.56 0.02 o
0 4 11 5.94 5.85 0.08 o
2 4 11 1.09 1.17 0.03 o
4 4 11 0.34 0.34 0.02 o
-5 5 11 1.43 1.38 0.05 o
-3 5 11 0.86 0.80 0.03 o
-1 5 11 1.61 1.72 0.04 o
0 5 11 0.40 0.44 0.02 o
2 5 11 1.24 1.22 0.03 o
4 5 11 0.46 0.47 0.02 o
-5 6 11 0.28 0.27 0.01 o
-4 6 11 1.78 1.67 0.04 o
-3 6 11 0.25 0.22 0.01 o
-1 6 11 0.66 0.71 0.03 o
0 6 11 0.35 0.43 0.02 o
2 6 11 1.10 1.15 0.03 o
6 6 11 0.38 0.36 0.03 o
-5 7 11 0.48 0.47 0.02 o
-1 7 11 0.35 0.35 0.01 o
0 7 11 0.42 0.47 0.02 o
2 7 11 0.23 0.22 0.01 o
3 7 11 1.63 1.59 0.03 o
4 7 11 0.13 0.14 0.01 o
6 7 11 0.16 0.19 0.01 o
-3 8 11 0.13 0.14 0.01 o
-2 8 11 0.75 0.77 0.03 o
-1 8 11 0.27 0.27 0.01 o
0 8 11 0.30 0.28 0.01 o
4 8 11 0.46 0.47 0.02 o
-1 9 11 0.48 0.45 0.02 o
0 9 11 0.11 0.09 0.01 o
2 9 11 0.14 0.13 0.01 o
0 0 12 3.93 3.71 0.10 o
0 1 12 1.20 1.23 0.04 o
1 1 12 2.39 2.41 0.06 o
-2 2 12 1.65 1.71 0.05 o
-1 2 12 0.41 0.41 0.02 o
0 2 12 0.87 1.04 0.04 o
0 3 12 0.10 0.04 0.16 o
1 3 12 0.47 0.57 0.02 o
2 3 12 0.39 0.40 0.02 o
3 3 12 1.82 1.93 0.05 o
-3 4 12 0.77 0.72 0.03 o
-1 4 12 0.03 0.03 0.27 o
0 4 12 0.18 0.22 0.01 o
2 4 12 1.20 1.20 0.03 o
4 4 12 1.16 1.15 0.04 o
-3 5 12 0.80 0.69 0.03 o
-2 5 12 0.39 0.40 0.01 o
-1 5 12 0.83 0.79 0.03 o
0 5 12 0.08 0.08 0.02 o
4 5 12 0.07 0.11 0.01 o
5 5 12 0.36 0.37 0.03 o
-4 6 12 0.19 0.18 0.01 o
-3 6 12 0.00 -0.05 0.25 o
-2 6 12 0.56 0.54 0.03 o
0 6 12 0.91 0.99 0.03 o
1 6 12 0.33 0.31 0.01 o
0 7 12 0.34 0.30 0.02 o
1 7 12 0.59 0.64 0.03 o
2 7 12 0.02 0.03 0.24 o
0 0 13 0.20 0.17 0.02 o
-1 1 13 0.29 0.23 0.02 o
0 1 13 0.10 0.00 0.30 o
-1 2 13 0.20 0.21 0.01 o
0 2 13 0.01 -0.03 0.29 o
2 2 13 0.48 0.38 0.02 o
-3 3 13 0.07 0.07 0.34 o
-1 3 13 0.09 0.05 0.18 o
0 3 13 0.72 0.64 0.03 o
2 3 13 0.01 0.06 0.24 o
-1 4 13 0.25 0.23 0.01 o
0 4 13 0.04 0.00 0.28 o
