#------------------------------------------------------------------------------
#$Date: 2020-05-08 11:07:35 +0300 (Fri, 08 May 2020) $
#$Revision: 251905 $
#$URL: file:///home/coder/svn-repositories/cod/cif/3/50/01/3500104.cif $
#------------------------------------------------------------------------------
#
# This file is available in the Crystallography Open Database (COD),
# http://www.crystallography.net/
#
# All data on this site have been placed in the public domain by the
# contributors.
#
data_3500104
loop_
_publ_author_name
'Thierry Maris'
_publ_section_references
;
Dolomanov, O.V., Bourhis, L.J., Gildea, R.J, Howard, J.A.K. & Puschmann, H.
 (2009), J. Appl. Cryst. 42, 339-341.

Sheldrick, G.M. (2008). Acta Cryst. A64, 112-122.
;
_journal_name_full               'Personal communication to COD'
_journal_year                    2020
_chemical_formula_moiety         'C8 H9 Cl O2'
_chemical_formula_sum            'C8 H9 Cl O2'
_chemical_formula_weight         172.60
_chemical_name_common            1-chloro-3,5-dimethoxybenzene
_chemical_name_systematic        1-chloro-3,5-dimethoxybenzene
_space_group_crystal_system      orthorhombic
_space_group_IT_number           62
_space_group_name_Hall           '-P 2ac 2n'
_space_group_name_H-M_alt        'P n m a'
_atom_sites_solution_hydrogens   difmap
_atom_sites_solution_primary     dual
_audit_creation_date             2019-09-06
_audit_creation_method
;
Olex2 1.2
(compiled 2018.05.29 svn.r3508 for OlexSys, GUI svn.r5506)
;
_cell_angle_alpha                90
_cell_angle_beta                 90
_cell_angle_gamma                90
_cell_formula_units_Z            4
_cell_length_a                   12.0723(6)
_cell_length_b                   13.3794(7)
_cell_length_c                   4.8987(2)
_cell_measurement_reflns_used    6920
_cell_measurement_temperature    100
_cell_measurement_theta_max      60.525
_cell_measurement_theta_min      3.186
_cell_volume                     791.24(7)
_computing_cell_refinement
;
SAINT (2013) V8.34A; Integration Software for Single Crystal Data. 
Bruker AXS Inc., Madison, WI 53719-1173.'
;
_computing_data_collection
;
APEX 2 (2013) Bruker AXS Inc., Madison, WI 53719-1173.
;
_computing_data_reduction
;
SAINT (2013) V8.34A; Integration Software for Single Crystal Data. 
Bruker AXS Inc., Madison, WI 53719-1173.'
;
_computing_molecular_graphics    'Olex2 (Dolomanov et al., 2009)'
_computing_publication_material  'Olex2 (Dolomanov et al., 2009)'
_computing_structure_refinement  'XL (Sheldrick, 2008)'
_computing_structure_solution    'SHELXT 2014/4 (Sheldrick, 2014)'
_diffrn_ambient_temperature      100
_diffrn_detector                 'CMOS Area detector'
_diffrn_detector_area_resol_mean 10.24
_diffrn_detector_type            'Bruker Photon 100 CMOS Detector'
_diffrn_measured_fraction_theta_full 0.992
_diffrn_measured_fraction_theta_max 0.994
_diffrn_measurement_device       'k-geometry diffractometer'
_diffrn_measurement_device_type  'Bruker Venture Metaljet'
_diffrn_measurement_method       '\w and \f scans'
_diffrn_radiation_collimation    'Focusing mirrors'
_diffrn_radiation_monochromator  'Helios MX Mirror Optics'
_diffrn_radiation_probe          x-ray
_diffrn_radiation_type           GaK\a
_diffrn_radiation_wavelength     1.34139
_diffrn_reflns_av_R_equivalents  0.0307
_diffrn_reflns_av_unetI/netI     0.0185
_diffrn_reflns_Laue_measured_fraction_full 0.992
_diffrn_reflns_Laue_measured_fraction_max 0.994
_diffrn_reflns_limit_h_max       14
_diffrn_reflns_limit_h_min       -15
_diffrn_reflns_limit_k_max       17
_diffrn_reflns_limit_k_min       -17
_diffrn_reflns_limit_l_max       6
_diffrn_reflns_limit_l_min       -6
_diffrn_reflns_number            8149
_diffrn_reflns_point_group_measured_fraction_full 0.992
_diffrn_reflns_point_group_measured_fraction_max 0.994
_diffrn_reflns_theta_full        53.594
_diffrn_reflns_theta_max         60.589
_diffrn_reflns_theta_min         7.002
_diffrn_source                   'Metal Jet'
_diffrn_source_target            Ga
_diffrn_source_type              'Gallium Liquid Metal Jet Source'
_exptl_absorpt_coefficient_mu    2.533
_exptl_absorpt_correction_T_max  0.7519
_exptl_absorpt_correction_T_min  0.6037
_exptl_absorpt_correction_type   multi-scan
_exptl_absorpt_process_details
;   
SADABS-2014/5 (Bruker,2014/5) was used for absorption correction. 
wR2(int) was 0.1063 before and 0.0470 after correction. 
The Ratio of minimum to maximum transmission is 0.8029. 
The \l/2 correction factor is 0.00150.'
;
_exptl_crystal_colour            'clear light colourless'
_exptl_crystal_colour_lustre     clear
_exptl_crystal_colour_modifier   light
_exptl_crystal_colour_primary    colourless
_exptl_crystal_density_diffrn    1.449
_exptl_crystal_description       Block
_exptl_crystal_F_000             360
_exptl_crystal_size_max          0.22
_exptl_crystal_size_mid          0.13
_exptl_crystal_size_min          0.08
_exptl_special_details
;
X-ray crystallographic data for I were collected from a single crystal
sample, which was mounted on a loop fiber. Data were collected using
a Bruker Venture diffractometer equipped with a Photon 100 CMOS Detector,
a Helios MX optics and a Kappa goniometer. The crystal-to-detector distance 
was 4.0 cm, and the data collection was carried out in 1024 x 1024 pixel mode.
;
_geom_special_details
;
 All esds (except the esd in the dihedral angle between two l.s. planes)
 are estimated using the full covariance matrix.  The cell esds are taken
 into account individually in the estimation of esds in distances, angles
 and torsion angles; correlations between esds in cell parameters are only
 used when they are defined by crystal symmetry.  An approximate (isotropic)
 treatment of cell esds is used for estimating esds involving l.s. planes.
;
_refine_diff_density_max         0.297
_refine_diff_density_min         -0.192
_refine_diff_density_rms         0.045
_refine_ls_extinction_coef       .
_refine_ls_extinction_method     none
_refine_ls_goodness_of_fit_ref   1.065
_refine_ls_hydrogen_treatment    refall
_refine_ls_matrix_type           full
_refine_ls_number_parameters     74
_refine_ls_number_reflns         945
_refine_ls_number_restraints     0
_refine_ls_restrained_S_all      1.065
_refine_ls_R_factor_all          0.0264
_refine_ls_R_factor_gt           0.0251
_refine_ls_shift/su_max          0.000
_refine_ls_shift/su_mean         0.000
_refine_ls_structure_factor_coef Fsqd
_refine_ls_weighting_details
'w=1/[\s^2^(Fo^2^)+(0.0376P)^2^+0.2559P] where P=(Fo^2^+2Fc^2^)/3'
_refine_ls_weighting_scheme      calc
_refine_ls_wR_factor_gt          0.0656
_refine_ls_wR_factor_ref         0.0667
_reflns_Friedel_coverage         0.000
_reflns_Friedel_fraction_full    .
_reflns_Friedel_fraction_max     .
_reflns_number_gt                899
_reflns_number_total             945
_reflns_special_details
;
 Reflections were merged by SHELXL according to the crystal
 class for the calculation of statistics and refinement.
 
 _reflns_Friedel_fraction is defined as the number of unique
 Friedel pairs measured divided by the number that would be
 possible theoretically, ignoring centric projections and
 systematic absences.
;
_reflns_threshold_expression     'I > 2\s(I)'
_cod_data_source_file            35phcl.cif
_cod_data_source_block           35phcl
_cod_database_code               3500104
loop_
_space_group_symop_id
_space_group_symop_operation_xyz
1 'x, y, z'
2 '-x+1/2, -y, z+1/2'
3 '-x, y+1/2, -z'
4 'x+1/2, -y+1/2, -z+1/2'
5 '-x, -y, -z'
6 'x-1/2, y, -z-1/2'
7 'x, -y-1/2, z'
8 '-x-1/2, y-1/2, z-1/2'
loop_
_atom_site_label
_atom_site_type_symbol
_atom_site_fract_x
_atom_site_fract_y
_atom_site_fract_z
_atom_site_U_iso_or_equiv
_atom_site_adp_type
_atom_site_occupancy
_atom_site_site_symmetry_order
_atom_site_calc_flag
_atom_site_refinement_flags_posn
_atom_site_refinement_flags_adp
_atom_site_refinement_flags_occupancy
_atom_site_disorder_assembly
_atom_site_disorder_group
Cl1 Cl 0.32500(3) 0.750000 0.86262(7) 0.02001(13) Uani 1 2 d S T P . .
O1 O 0.58251(6) 0.56816(5) 0.23077(16) 0.0244(2) Uani 1 1 d . . . . .
C1 C 0.42752(11) 0.750000 0.6100(3) 0.0172(3) Uani 1 2 d S T P . .
C2 C 0.46629(8) 0.65914(7) 0.5148(2) 0.0183(2) Uani 1 1 d . . . . .
C3 C 0.54807(8) 0.66072(7) 0.3131(2) 0.0180(2) Uani 1 1 d . . . . .
C4 C 0.58997(11) 0.750000 0.2088(3) 0.0173(3) Uani 1 2 d S T P . .
C5 C 0.66407(9) 0.56238(8) 0.0205(2) 0.0233(2) Uani 1 1 d . . . . .
H2 H 0.4402(11) 0.5965(10) 0.581(3) 0.022(3) Uiso 1 1 d . . . . .
H4 H 0.6425(17) 0.750000 0.074(4) 0.022(4) Uiso 1 2 d S T P . .
H5A H 0.6360(12) 0.5902(11) -0.149(3) 0.032(4) Uiso 1 1 d . . . . .
H5B H 0.7323(12) 0.5940(10) 0.076(3) 0.026(3) Uiso 1 1 d . . . . .
H5C H 0.6786(11) 0.4935(12) -0.002(4) 0.033(4) Uiso 1 1 d . . . . .
loop_
_atom_site_aniso_label
_atom_site_aniso_U_11
_atom_site_aniso_U_22
_atom_site_aniso_U_33
_atom_site_aniso_U_23
_atom_site_aniso_U_13
_atom_site_aniso_U_12
Cl1 0.0184(2) 0.0239(2) 0.0177(2) 0.000 0.00268(11) 0.000
O1 0.0291(4) 0.0147(3) 0.0295(4) 0.0009(3) 0.0111(3) 0.0028(3)
C1 0.0146(6) 0.0222(7) 0.0149(6) 0.000 -0.0011(5) 0.000
C2 0.0183(4) 0.0177(5) 0.0188(5) 0.0022(3) 0.0001(4) -0.0006(3)
C3 0.0184(5) 0.0162(5) 0.0195(5) -0.0002(4) -0.0015(4) 0.0022(3)
C4 0.0159(6) 0.0189(6) 0.0172(6) 0.000 0.0003(5) 0.000
C5 0.0259(5) 0.0209(5) 0.0230(5) 0.0011(4) 0.0062(4) 0.0056(4)
loop_
_atom_type_symbol
_atom_type_description
_atom_type_scat_dispersion_real
_atom_type_scat_dispersion_imag
_atom_type_scat_source
C C 0.0137 0.0057 'International Tables Vol C Tables 4.2.6.8 and 6.1.1.4'
H H 0.0000 0.0000 'International Tables Vol C Tables 4.2.6.8 and 6.1.1.4'
Cl Cl 0.3281 0.5435 'International Tables Vol C Tables 4.2.6.8 and 6.1.1.4'
O O 0.0389 0.0241 'International Tables Vol C Tables 4.2.6.8 and 6.1.1.4'
loop_
_geom_angle_atom_site_label_1
_geom_angle_atom_site_label_2
_geom_angle_atom_site_label_3
_geom_angle
_geom_angle_site_symmetry_1
_geom_angle_site_symmetry_3
C3 O1 C5 118.16(8) . .
C2 C1 Cl1 118.53(6) 7_575 .
C2 C1 Cl1 118.53(6) . .
C2 C1 C2 122.94(13) 7_575 .
C1 C2 C3 117.66(9) . .
C1 C2 H2 123.1(8) . .
C3 C2 H2 119.3(8) . .
O1 C3 C2 114.20(8) . .
O1 C3 C4 123.88(9) . .
C4 C3 C2 121.92(9) . .
C3 C4 C3 117.91(13) 7_575 .
C3 C4 H4 121.04(7) . .
C3 C4 H4 121.04(7) 7_575 .
O1 C5 H5A 110.8(8) . .
O1 C5 H5B 111.3(8) . .
O1 C5 H5C 105.3(10) . .
H5A C5 H5B 111.7(12) . .
H5A C5 H5C 110.0(14) . .
H5B C5 H5C 107.5(11) . .
loop_
_geom_bond_atom_site_label_1
_geom_bond_atom_site_label_2
_geom_bond_distance
_geom_bond_site_symmetry_2
Cl1 C1 1.7500(14) .
O1 C3 1.3673(11) .
O1 C5 1.4269(13) .
C1 C2 1.3837(12) 7_575
C1 C2 1.3837(12) .
C2 C3 1.3968(14) .
C2 H2 0.953(14) .
C3 C4 1.3943(12) .
C4 H4 0.91(2) .
C5 H5A 0.971(14) .
C5 H5B 0.964(15) .
C5 H5C 0.944(16) .
loop_
_geom_hbond_atom_site_label_D
_geom_hbond_atom_site_label_H
_geom_hbond_atom_site_label_A
_geom_hbond_distance_DH
_geom_hbond_distance_HA
_geom_hbond_distance_DA
_geom_hbond_angle_DHA
_geom_hbond_site_symmetry_A
_geom_hbond_publ_flag
C2 H2 O1 0.953(14) 2.403(14) 3.3390(12) 167.2(11) 5_666 yes
loop_
_geom_torsion_atom_site_label_1
_geom_torsion_atom_site_label_2
_geom_torsion_atom_site_label_3
_geom_torsion_atom_site_label_4
_geom_torsion
_geom_torsion_site_symmetry_1
_geom_torsion_site_symmetry_2
_geom_torsion_site_symmetry_3
_geom_torsion_site_symmetry_4
Cl1 C1 C2 C3 179.98(8) . . . .
O1 C3 C4 C3 -179.41(7) . . . 7_575
C1 C2 C3 O1 179.65(10) . . . .
C1 C2 C3 C4 -0.11(16) . . . .
C2 C1 C2 C3 -0.1(2) 7_575 . . .
C2 C3 C4 C3 0.3(2) . . . 7_575
C5 O1 C3 C2 178.53(9) . . . .
C5 O1 C3 C4 -1.72(16) . . . .

_cod_database_fobs_code 3500104
