#------------------------------------------------------------------------------
#$Date: 2016-12-21 18:59:10 +0200 (Wed, 21 Dec 2016) $
#$Revision: 189308 $
#$URL: file:///home/coder/svn-repositories/cod/cif/3/50/00/3500063.cif $
#------------------------------------------------------------------------------
#
# This file is available in the Crystallography Open Database (COD),
# http://www.crystallography.net/
#
# All data on this site have been placed in the public domain by the
# contributors.
#
data_3500063
loop_
_publ_author_name
'Armel Le Bail'
_publ_section_title
;
 Rietveld refinement of the crystal structure of manganese(III) triacetate
 dihydrate from x-ray powder diffraction data
;
_journal_name_full               'Personal communication to COD'
_journal_year                    2016
_chemical_formula_moiety         'C4 H7 Mn O5, C2 H4 O2, H2 O'
_chemical_formula_sum            'C6 H13 Mn O8'
_chemical_formula_weight         268.1
_space_group_IT_number           11
_symmetry_cell_setting           monoclinic
_symmetry_Int_Tables_number      11
_symmetry_space_group_name_Hall  '-P 2yb'
_symmetry_space_group_name_H-M   'P 1 21/m 1'
_cell_angle_alpha                90.00000
_cell_angle_beta                 106.406(3)
_cell_angle_gamma                90.00000
_cell_formula_units_Z            2
_cell_length_a                   7.9489(4)
_cell_length_b                   6.7664(3)
_cell_length_c                   10.9689(5)
_cell_measurement_temperature    295
_cell_volume                     565.95(5)
_computing_structure_refinement  FULLPROF
_diffrn_ambient_temperature      295
_diffrn_radiation_monochromator  graphite
_diffrn_radiation_probe          x-ray
_diffrn_radiation_type           CuK\a
_diffrn_radiation_wavelength     1.54184
_exptl_absorpt_coefficient_mu    9.746
_exptl_crystal_density_diffrn    1.573
_exptl_crystal_F_000             276
_pd_meas_2theta_range_inc        0.020000
_pd_meas_2theta_range_max        110.00000
_pd_meas_2theta_range_min        5.00000
_pd_meas_number_of_points        5251
_pd_proc_2theta_range_inc        0.020000
_pd_proc_2theta_range_max        110.0059
_pd_proc_2theta_range_min        5.0059
_pd_proc_ls_prof_R_factor        7.1509
_pd_proc_ls_prof_wR_expected     1.6478
_pd_proc_ls_prof_wR_factor       9.7887
_pd_proc_wavelength              1.540560
_refine_ls_number_parameters     66
_refine_ls_number_reflns         1742
_refine_ls_number_restraints     0
_refine_ls_R_I_factor            4.1934
_refine_special_details
; 
H atom coordinates fixed from single crystal results in
A. J. Tasiopoulos et al., Polyhedron 22 (2003) 133-143.
;
_iucr_refine_instructions_details
;
Fullprof .pcr file, modified to fit inside 80 columns
followed by the .dat file





COMM C6H13MnO8
! Current global Chi2 (Bragg contrib.) =      35.29    
! Files => DAT-file: mn004-1.dat,  PCR-file: mn004-1
!Job Npr Nph Nba Nex Nsc Nor Dum Iwg Ilo Ias Res Ste Nre Cry Uni Cor Opt Aut
   0   5   1  16   2   0   1   1   0   0   1   0   0   0   0   0   0   0   0
!
!Ipr Ppl Ioc Mat Pcr Ls1 Ls2 Ls3 NLI Prf Ins Rpa Sym Hkl Fou Sho Ana
   0   0   1   0   2   0   4   0   0  -3   0  -1   1   0   2   1   1
!
! Lambda1  Lambda2    Ratio    Bkpos    Wdt    Cthm     muR   AsyLim   Rpolarz
  2nd-muR -> Patt# 1
 1.540560 1.544330  0.50000   50.000 15.0000  0.0000  0.0000   90.00    0.0000
  0.0000
!
!NCY  Eps  R_at  R_an  R_pr  R_gl     Thmin       Step       Thmax    PSD    
Sent0
 40  0.01  0.20  0.20  0.20  0.60      5.0000   0.020000   110.0000   0.000  
 0.000
!
!2Theta/TOF/E(Kev)   Background  for Pattern#  1
         5.0400      6888.7388        411.00
         5.5360      5978.0908        421.00
         6.2500      5273.7881        431.00
        10.0890      1948.5714        441.00
        13.9290      1628.7493        451.00
        19.4640      1281.2745        461.00
        23.7500       956.7435        471.00
        30.2680      1378.8494        481.00
        40.2680      1503.1049        491.00
        45.6250      1327.7485        501.00
        56.2500      1176.0958        511.00
        72.4110       872.5903        521.00
        83.6610       705.7162        531.00
        88.2140       768.6564        541.00
        97.6790       742.8667        551.00
       109.9600       711.7639        561.00
! 
! Excluded regions (LowT  HighT) for Pattern#  1
        0.00        5.00
      110.00      180.00
! 
!
      66    !Number of refined parameters
!
!  Zero    Code    SyCos    Code   SySin    Code  Lambda     Code MORE ->Patt# 1
 -0.00588  111.0  0.00000    0.0  0.00000    0.0 0.000000    0.00   0
!-------------------------------------------------------------------------------
!  Data for PHASE number:   1  ==> Current R_Bragg for Pattern#  1:     4.19
!-------------------------------------------------------------------------------
C6H13MnO8
!
!Nat Dis Ang Pr1 Pr2 Pr3 Jbt Irf Isy Str Furth       ATZ    Nvk Npr More
  22   0   0 1.0 0.0 0.0   0   0   0   0   0        536.206   0   5   0
!
P 21/M                   <--Space group symbol
!Atom   Typ       X        Y        Z     Biso       Occ     In Fin N_t Spc 
/Codes
Mn     Mn      0.50000  0.00000  0.00000  3.90874   0.50000   0   0   0    0  
                  0.00     0.00     0.00   381.00      0.00
O1     O       0.58209  0.25000  0.06820  4.97761   0.50000   0   0   0    0  
                181.00     0.00   191.00   581.00      0.00
O2     O       0.52780  0.09645 -0.19027  5.93824   1.00000   0   0   0    0  
                121.00   131.00   141.00   391.00      0.00
O3     O       0.26559  0.09116 -0.04039  3.38777   1.00000   0   0   0    0  
                151.00   161.00   171.00   571.00      0.00
O4     O       1.35962  0.25000  0.28983  6.25386   0.50000   0   0   0    0  
                281.00     0.00   291.00   621.00      0.00
O5     O       0.92551  0.25000  0.22992  5.72694   0.50000   0   0   0    0  
                301.00     0.00   311.00   631.00      0.00
O6     O       1.12322  0.25000  0.39657 10.15379   0.50000   0   0   0    0  
                261.00     0.00   271.00   611.00      0.00
C1     C       0.52045  0.25000 -0.24756  9.57112   0.50000   0   0   0    0  
                201.00     0.00   211.00   401.00      0.00
C2     C       0.16868  0.25000 -0.06374  6.33093   0.50000   0   0   0    0  
                221.00     0.00   231.00   591.00      0.00
C3     C      -0.00187  0.25000 -0.09364  7.42263   0.50000   0   0   0    0  
                241.00     0.00   251.00   601.00      0.00
C4     C       0.55963  0.25000 -0.37759  8.20654   0.50000   0   0   0    0  
                321.00     0.00   331.00   641.00      0.00
C5     C       0.95954  0.25000  0.34685 16.20944   0.50000   0   0   0    0  
                341.00     0.00   351.00   651.00      0.00
C6     C       0.87906  0.25000  0.42067 18.35538   0.50000   0   0   0    0  
                361.00     0.00   371.00   661.00      0.00
H1     H       0.68200  0.25000  0.10400  6.00000   0.50000   0   0   0    0  
                  0.00     0.00     0.00     0.00      0.00
H2     H       1.39900  0.15800  0.25400  6.00000   1.00000   0   0   0    0  
                  0.00     0.00     0.00     0.00      0.00
H3     H       1.19900  0.25000  0.34500  6.00000   0.50000   0   0   0    0  
                  0.00     0.00     0.00     0.00      0.00
H4     H      -0.04400  0.25000 -0.01000  6.00000   0.50000   0   0   0    0  
                  0.00     0.00     0.00     0.00      0.00
H5     H      -0.05200  0.14700 -0.13000  6.00000   1.00000   0   0   0    0  
                  0.00     0.00     0.00     0.00      0.00
H6     H       0.45700  0.25000 -0.42000  6.00000   0.50000   0   0   0    0  
                  0.00     0.00     0.00     0.00      0.00
H7     H       0.62100  0.15800 -0.37800  6.00000   1.00000   0   0   0    0  
                  0.00     0.00     0.00     0.00      0.00
H8     H       0.90650  0.25000  0.51650  6.00000   0.50000   0   0   0    0  
                  0.00     0.00     0.00     0.00      0.00
H9     H       0.76560  0.13530  0.39350  6.00000   1.00000   0   0   0    0  
                  0.00     0.00     0.00     0.00      0.00
!-------> Profile Parameters for Pattern #  1
!  Scale        Shape1      Bov      Str1      Str2      Str3   Strain-Model
 0.34154E-01   0.69073   0.00000   0.00000   0.00000   0.00000       0
    11.00000    21.000     0.000     0.000     0.000     0.000
!       U         V          W           X          Y        GauSiz   LorSiz 
Size-Model
   0.400000  -0.258584   0.069582   0.000000   0.000000   0.000000   0.000000 
   0
      0.000    101.000     31.000      0.000      0.000      0.000      0.000
!     a          b         c        alpha      beta       gamma      #Cell Info
   7.948853   6.766387  10.968940  90.000000 106.405807  90.000000   
   41.00000   51.00000   61.00000    0.00000   71.00000    0.00000
!  Pref1    Pref2      Asy1     Asy2     Asy3     Asy4  
  1.00000  0.00000  0.04690  0.03131  0.00000  0.00000
     0.00     0.00    81.00    91.00     0.00     0.00
!  2Th1/TOF1    2Th2/TOF2  Pattern to plot
       5.000     110.000       1



Fullprof .dat file


  5.00  0.02  110.00
     7194      7100      7048      6943      6919      6985      6845      6768
     6823      6707      6794      6586      6606      6571      6530      6482
     6569      6590      6549      6479      6413      6317      6382      6420
     6386      6284      6351      6147      6115      6246      6020      6129
     6115      6106      6021      6060      6050      6084      5860      6027
     5991      5959      5970      5889      5864      5825      5719      5780
     5783      5691      5573      5598      5659      5635      5659      5744
     5526      5567      5577      5595      5596      5512      5538      5425
     5459      5340      5488      5268      5417      5408      5274      5302
     5305      5254      5175      5130      5081      5164      5177      5096
     5129      5043      5038      5067      5071      5023      5059      5145
     4956      4949      5042      5048      4975      5004      4867      4943
     5075      5010      4973      4955      4806      4962      4973      4916
     5035      5103      4889      5090      5038      5153      5078      5161
     5362      5227      5341      5402      5385      5442      5558      5641
     5806      6017      5973      6256      6393      6543      6900      6943
     7337      7590      7960      8262      8685      8938      9562      9929
    10472     10987     11548     12361     13240     14224     15038     16064
    17072     17947     19259     20984     22768     24578     26413     28871
    31584     34616     37602     41000     45276     49492     54923     60505
    67415     73472     78435     82951     88174     95267    104785    118738
   136033    157040    179093    195150    200772    193724    173061    142289
   108290     76647     50695     31494     18877     12018      8916      7675
     6930      6388      6020      5825      5636      5345      5352      5081
     5031      4944      5057      4878      4843      4661      4869      4842
     4749      4712      4787      4762      4729      4876      4777      4765
     4785      4732      4749      4509      4686      4507      4338      4128
     4168      3940      3901      3911      3897      3759      3650      3706
     3578      3562      3587      3562      3421      3535      3478      3456
     3376      3353      3430      3218      3271      3328      3280      3247
     3171      3285      3359      3220      3187      3218      3135      3259
     3161      3093      3235      3131      3165      3086      3080      3181
     3105      3215      3138      3142      3173      3127      3105      2997
     3076      3051      3002      2970      2978      3073      2956      3064
     3039      2945      2958      2931      2991      3007      3038      2957
     2944      2941      3001      2868      2998      3045      3030      3091
     3007      3223      3270      3128      3192      3359      3460      3408
     3565      3527      3823      3844      4044      4176      4548      4775
     5078      5397      5738      6099      6514      7059      7610      8297
     9148      9771     10768     11492     12612     13982     15508     17101
    19252     21742     24417     27618     31562     36342     42451     48570
    56232     62975     70213     72634     71518     65348     56402     44269
    33251     23259     15697     10716      8282      7204      6862      7150
     7696      8293      8958      9444     10429     11032     12138     13323
    14848     16327     18353     20834     24172     27816     32631     37689
    43914     50458     55968     61160     61962     58850     52284     43101
    33544     24286     16835     11174      7468      5307      4055      3613
     3441      3242      3190      3161      2977      2970      2960      2824
     2815      2813      2668      2810      2758      2649      2661      2644
     2543      2641      2533      2610      2598      2607      2553      2438
     2466      2531      2375      2431      2453      2361      2399      2366
     2301      2356      2332      2321      2282      2312      2384      2276
     2208      2195      2217      2226      2160      2206      2166      2117
     2245      2175      2186      2218      2126      2196      2146      2139
     2192      2165      2108      2099      2118      2025      2132      2155
     2113      2059      2062      2154      2070      2047      2096      2197
     2097      2052      2122      2011      2095      2075      2074      2017
     2022      1930      1944      1978      2042      1996      2049      2024
     1970      1952      1998      2068      1932      1942      1952      1938
     1959      1957      2011      2031      1906      2007      2004      1931
     1886      1942      1956      1920      1966      1966      1985      2004
     1843      1935      1968      1948      1923      1885      1935      1933
     1960      1921      1934      1910      1954      1965      1919      2012
     1941      1992      2003      2014      2046      2019      2045      2179
     2233      2166      2308      2303      2354      2384      2512      2608
     2787      2995      3131      3398      3682      4028      4515      4908
     5099      5382      5487      5324      4827      4476      3982      3617
     3374      3301      3335      3459      3665      4079      4307      4984
     5493      6254      6814      7700      8675     10080     11484     13137
    15569     18450     21899     26280     31305     35780     39064     40307
    38413     35230     29632     23551     17726     12580      8440      5642
     4120      3397      2977      2836      2764      2741      2781      2791
     2967      3116      3216      3563      3632      4083      4362      4820
     5462      6399      7074      8134      9521     11121     12853     14951
    16394     17652     17740     16834     15090     12504     10027      7405
     5555      4186      3364      2762      2580      2454      2405      2510
     2543      2687      2756      2955      3124      3387      3694      4116
     4431      4854      5570      6399      7241      8302      9701     11514
    13837     16385     18798     21484     23469     24276     23813     22080
    18819     15434     11861      8842      6687      5198      4391      4173
     3930      4250      4730      5213      6034      6949      7658      8305
     8948      9290      9105      8362      7190      6018      4983      3977
     3285      2701      2424      2220      2213      2146      2025      2022
     2009      1939      1879      2054      1999      1940      1931      1926
     1897      1886      1858      1842      1793      1883      1763      1815
     1853      1790      1695      1750      1743      1723      1712      1723
     1736      1699      1656      1646      1656      1667      1673      1613
     1613      1677      1588      1598      1639      1645      1669      1585
     1600      1629      1639      1645      1635      1588      1661      1620
     1564      1621      1670      1568      1681      1624      1627      1552
     1624      1717      1639      1632      1587      1591      1599      1613
     1604      1533      1603      1604      1674      1613      1576      1640
     1604      1589      1578      1619      1550      1624      1681      1574
     1566      1614      1667      1577      1681      1573      1671      1637
     1672      1558      1698      1606      1555      1574      1634      1742
     1669      1630      1711      1772      1779      1828      1772      1829
     1841      1890      1940      2035      2105      2228      2328      2509
     2601      2826      2995      3477      3966      4391      5058      5908
     6948      8204      9651     11913     14140     16825     20318     23062
    25868     27726     26975     25321     22261     18251     14245     10473
     7590      5572      4377      3696      3461      3515      3703      3858
     4399      4839      5573      6344      7430      8726     10429     12447
    14640     17274     19757     21876     22775     22302     21041     18396
    15403     11710      8846      6591      4893      3947      3280      3116
     3044      3182      3396      3515      3893      4308      4885      5699
     6659      7804      9480     11408     13767     16316     18991     21506
    23397     23870     23111     21073     18071     14856     11410      8465
     6185      4446      3475      2885      2536      2440      2222      2196
     2124      2033      2042      2031      2057      2061      2033      1959
     1980      1905      1927      2004      1990      1784      1908      1796
     1793      1870      1945      1847      1816      1806      1833      1839
     1873      1873      1919      1892      2041      2115      2044      2125
     2259      2457      2580      2867      3133      3539      3900      4525
     5033      5803      6382      7050      7992      9163     11055     13372
    15796     19214     22798     26101     28707     29466     28588     26105
    22773     18328     14198     10311      7185      5383      4007      3216
     2734      2486      2303      2142      2085      2032      1935      1931
     1827      1875      1767      1777      1779      1855      1790      1733
     1793      1754      1709      1719      1695      1735      1731      1754
     1777      1775      1732      1709      1809      1790      1730      1718
     1769      1801      1847      1795      1890      1853      1863      1937
     1960      2027      2035      2227      2274      2498      2677      2888
     3123      3618      4055      4777      5523      6583      7839      9558
    11285     13227     15088     17278     18769     19403     18717     17030
    14781     12245      9601      7310      5498      4056      3324      2883
     2641      2645      2538      2550      2653      2719      2896      3037
     3294      3760      4357      4884      5601      6733      7660      9275
    10851     12378     14172     15704     15998     16320     15608     14176
    12136     10039      7647      5862      4703      3701      3214      2576
     2390      2277      2141      2111      2112      2111      2091      2130
     2151      2184      2355      2388      2691      2798      3027      3365
     3900      4553      5055      5757      6279      6675      7055      6623
     6561      5969      5399      4880      4650      4620      4616      4983
     5594      6251      6569      6618      6796      6403      5884      5158
     4654      3993      3545      3540      3528      3755      3903      4163
     4527      4736      4816      4740      4653      4395      4161      3767
     3432      3421      3402      3501      4122      4488      5230      6144
     7406      8573     10132     11795     13285     14210     14450     13881
    12881     11558      9357      7630      6162      4674      3809      3276
     2827      2540      2436      2437      2381      2389      2346      2490
     2529      2706      3006      3305      3712      4453      5059      5896
     7113      8651     10460     12329     14353     16154     17458     17952
    17558     16525     14829     12658     10292      8244      6802      5978
     5562      5530      6010      6701      7322      8405      9465     10639
    11549     12277     12700     12621     12241     11341     10305      8855
     7348      6055      4790      4054      3470      2999      2855      2667
     2617      2540      2557      2607      2526      2713      2618      2785
     2750      2811      2952      3224      3302      3649      4153      4530
     5070      5843      6835      8031      9458     11587     13443     15607
    17557     18893     19212     18672     17522     15873     13672     11802
    10418      9612      9520     10051     11095     12572     13910     14624
    14967     14594     13604     12502     11002      9564      8593      7544
     6870      6357      5810      5116      4639      4050      3505      3003
     2610      2357      2276      2047      1884      1860      1897      1841
     1786      1753      1680      1747      1678      1652      1705      1647
     1612      1629      1710      1638      1595      1597      1609      1614
     1536      1629      1582      1644      1674      1561      1724      1708
     1657      1709      1755      1686      1665      1702      1660      1588
     1672      1622      1646      1605      1636      1575      1624      1626
     1628      1575      1535      1600      1631      1592      1599      1598
     1643      1690      1612      1640      1621      1677      1654      1755
     1848      1979      2044      2137      2410      2721      2991      3469
     3922      4512      5142      5816      6513      7294      7738      7873
     7659      7416      6700      6123      5348      4622      4253      4169
     4138      4690      5227      6103      6983      8204      9524     10711
    11782     12191     12547     12029     11318      9850      8302      6814
     5562      4331      3619      3086      2660      2484      2442      2565
     2602      2896      3070      3342      3458      3625      3658      3776
     3485      3323      2987      2682      2430      2175      1968      1945
     1792      1774      1764      1700      1733      1821      1794      1851
     1833      1833      1868      1879      1911      1934      1981      1990
     1968      2055      2121      2278      2412      2691      2929      3468
     3877      4442      5060      6020      7117      8243      9617     10649
    11973     12837     13112     12654     11834     10827      9410      8030
     6416      5301      4183      3455      2906      2537      2266      2080
     1987      1860      1996      1897      1774      1828      1744      1775
     1735      1733      1682      1683      1707      1624      1684      1644
     1607      1627      1712      1645      1706      1611      1665      1661
     1681      1680      1716      1629      1694      1698      1725      1764
     1764      1797      1782      1848      1864      1937      1935      1961
     2209      2253      2404      2511      2504      2657      2832      2988
     3152      3441      3651      4008      4183      4177      4197      4140
     3931      3800      3478      3097      2758      2541      2263      2083
     1986      1920      1920      1927      2000      1989      2155      2386
     2411      2632      2836      3180      3373      3764      3819      4019
     4097      4197      4051      3967      3985      4058      4318      4648
     5084      5818      6622      7421      8068      8488      8513      8268
     7799      7177      6493      5750      5249      4689      4558      4483
     4743      5233      5907      6736      8151      9660     11727     13652
    16153     18460     20598     22456     23218     23657     23150     22075
    20026     18113     15507     13709     11433      9838      8128      7062
     6313      5473      4964      4323      4012      3508      3279      2944
     2613      2494      2392      2213      2205      2052      2118      2130
     2014      2022      1956      1865      1947      1965      1895      1930
     1958      1908      1933      2056      2043      2113      2222      2422
     2688      2981      3279      3757      4428      5134      6005      6898
     8018      8800      9838      9973     10100      9899      9254      8563
     7639      6560      5563      4719      3973      3492      3004      2756
     2588      2479      2410      2342      2302      2275      2377      2402
     2520      2547      2549      2578      2592      2522      2580      2506
     2463      2423      2420      2457      2438      2393      2388      2448
     2369      2380      2332      2217      2255      2230      2248      2148
     2214      2257      2199      2164      2175      2240      2253      2238
     2277      2302      2463      2423      2485      2554      2903      3081
     3344      3643      3890      4475      5088      5590      6154      6622
     6983      6912      7145      7157      7329      7202      7489      7860
     8501      9199      9883      9758     10020      9856      9185      8553
     7547      6648      5640      4719      3973      3412      2981      2648
     2329      2302      2126      1983      1939      1908      1901      1882
     1907      1958      1964      1979      2164      2157      2337      2535
     2677      2887      3091      3247      3462      3525      3563      3369
     3257      3141      2914      2683      2494      2223      2128      1941
     1782      1737      1718      1634      1632      1639      1699      1654
     1616      1777      1719      1846      1859      1979      1972      1965
     2074      2033      2052      2059      1996      2081      1961      2065
     2030      2078      2148      2240      2284      2295      2375      2344
     2422      2453      2392      2474      2556      2618      2671      2703
     2855      2799      2843      2741      2679      2520      2426      2287
     2137      1956      1915      1739      1733      1611      1606      1509
     1542      1498      1509      1514      1477      1392      1503      1493
     1477      1552      1485      1520      1592      1541      1521      1589
     1552      1609      1640      1615      1654      1617      1653      1777
     1695      1796      1812      1890      1937      1862      2020      2093
     2369      2454      2718      2857      3335      3657      4020      4448
     5128      5682      6402      6703      6894      7288      7339      7697
     7844      7957      8286      8283      8521      8714      8607      8303
     7760      7161      6535      5730      5066      4397      3854      3491
     3027      2776      2627      2644      2622      2725      2868      2954
     3123      3298      3384      3324      3362      3397      3255      3120
     3176      3108      3153      3121      3226      3264      3240      3091
     3080      3180      3087      3066      2798      2888      2686      2533
     2461      2355      2281      2150      2154      2079      2038      2039
     2075      2175      2124      2254      2329      2488      2720      2982
     3129      3489      3866      4474      4722      5107      5476      5562
     5568      5487      5318      4987      4734      4255      4053      3727
     3461      3341      3207      3170      3156      3275      3570      3856
     4078      4380      4434      4738      4908      5111      5361      5487
     5445      5598      5522      5188      5058      4778      4324      4078
     3786      3530      3167      3107      3042      3145      3359      3526
     3894      4175      4643      5208      5393      5912      5876      6244
     6148      6155      6162      6291      6012      6011      5818      5955
     5677      5552      5286      5138      4829      4540      4194      3848
     3677      3284      3043      2810      2748      2513      2383      2371
     2334      2394      2303      2314      2250      2209      2305      2198
     2102      1929      1945      1895      1809      1760      1672      1665
     1697      1550      1615      1574      1549      1608      1689      1672
     1800      1917      2049      2061      2375      2459      2644      2928
     3109      3187      3333      3525      3410      3614      3635      3644
     3648      3625      3756      3704      3629      3655      3462      3428
     3252      2896      2783      2544      2296      2228      1979      1954
     1775      1657      1635      1615      1520      1562      1430      1496
     1454      1449      1457      1426      1439      1361      1366      1406
     1360      1356      1401      1381      1413      1401      1435      1393
     1434      1527      1562      1490      1624      1671      1717      1855
     1874      2154      2372      2592      2859      3019      3330      3466
     3738      3761      3822      3984      4000      3851      3876      3518
     3304      3157      2988      2777      2572      2453      2356      2190
     2073      2163      2180      2130      2251      2218      2283      2398
     2254      2263      2256      2265      2225      2278      2379      2308
     2471      2551      2796      2941      3279      3625      3724      4169
     4263      4466      4471      4261      4269      3994      3720      3410
     3251      2910      2617      2456      2325      2049      1918      2003
     1889      1783      1834      1934      1931      1918      1944      2020
     2059      2150      2132      2223      2404      2532      2657      2922
     3161      3651      4075      4452      4838      5247      5584      5895
     6159      6185      6097      6041      6048      6030      5889      5926
     6095      6147      6241      6421      6287      6441      6316      5957
     5827      5707      5357      5091      4934      4992      4811      4706
     4641      4503      4330      4356      4173      4223      4274      4204
     4086      4049      3911      3666      3593      3322      3225      2997
     2741      2653      2426      2310      2166      1979      1976      1900
     1782      1777      1630      1639      1719      1622      1591      1630
     1599      1572      1551      1537      1519      1549      1540      1547
     1504      1553      1635      1603      1555      1674      1708      1738
     1776      1740      1801      1780      1762      1758      1793      1695
     1633      1768      1747      1841      1729      1824      1801      1810
     1833      1954      1962      2050      2209      2245      2449      2570
     2878      3050      3211      3452      3489      3654      3821      3983
     3868      4057      3874      3670      3555      3345      3099      2812
     2885      2714      2734      2652      2728      2828      2789      3217
     3253      3579      3655      3819      3970      4117      4077      3959
     3935      3788      3739      3590      3488      3278      3274      3029
     2965      2795      2823      2673      2652      2469      2553      2507
     2470      2443      2482      2486      2534      2433      2633      2616
     2763      2882      3007      3149      3181      3174      3339      3339
     3315      3448      3344      3414      3472      3579      3582      3610
     3724      3724      3887      4127      4397      4712      5059      5306
     5608      5911      6043      6172      6368      6060      6079      5686
     5367      5159      4761      4469      4267      3891      3595      3310
     3108      2901      2625      2617      2530      2373      2232      2232
     2162      2105      2034      2098      2120      2091      2068      2162
     2228      2366      2519      2764      2915      3116      3114      3371
     3341      3363      3390      3295      3273      3117      3068      2939
     2782      2625      2489      2394      2131      2089      2009      1863
     1884      1833      1788      1629      1650      1636      1619      1597
     1651      1587      1617      1543      1493      1677      1613      1669
     1720      1768      1794      1907      1844      1949      1973      1873
     1842      1856      1891      1778      1776      1667      1688      1645
     1707      1598      1646      1653      1740      1713      1843      1820
     1896      1890      1808      1812      1814      1755      1697      1717
     1677      1549      1515      1543      1502      1449      1470      1456
     1366      1433      1363      1426      1384      1334      1386      1380
     1468      1350      1367      1437      1499      1488      1477      1624
     1695      1831      1938      2068      2189      2332      2393      2388
     2514      2595      2564      2573      2570      2555      2539      2499
     2442      2400      2309      2318      2176      2135      2016      2077
     2117      2217      2151      2218      2326      2563      2766      2899
     3019      2996      3038      2888      2714      2629      2483      2366
     2247      2116      2031      1981      1850      1697      1568      1636
     1618      1615      1642      1596      1493      1549      1588      1598
     1649      1606      1674      1685      1772      1830      1906      1999
     1978      2138      2161      2394      2419      2517      2664      2737
     2823      2911      2971      3127      3151      3316      3378      3357
     3332      3413      3547      3398      3570      3664      3851      3781
     3998      4066      4041      3781      3920      3863      3918      3940
     3906      4122      4006      4023      3946      4016      3768      3732
     3796      3709      3586      3430      3404      3185      3153      3134
     2957      2919      2743      2577      2341      2318      2130      2090
     2005      1969      1700      1786      1632      1615      1587      1546
     1530      1423      1435      1425      1336      1381      1344      1386
     1396      1289      1369      1326      1325      1284      1271      1331
     1405      1318      1284      1316      1332      1338      1373      1456
     1363      1379      1371      1409      1339      1458      1462      1505
     1524      1576      1775      1787      1886      2061      2098      2226
     2268      2448      2584      2506      2582      2532      2572      2596
     2588      2621      2724      2738      2778      3003      2821      2891
     2860      3058      3153      3328      3286      3304      3330      3369
     3505      3347      3373      3133      3149      2941      2735      2612
     2452      2254      2219      2089      1960      1891      1817      1679
     1680      1706      1683      1731      1668      1700      1867      1845
     1964      2024      2050      2164      2152      2109      2347      2256
     2464      2347      2431      2505      2458      2350      2374      2258
     2295      2276      2258      2211      2166      2139      2110      2057
     2090      2013      1962      1876      1822      1843      1825      1821
     1790      1671      1753      1781      1761      1706      1736      1791
     1790      1774      1788      1840      1847      1852      1869      1901
     1930      1973      1928      1960      1950      1935      2004      1993
     2011      2082      2098      2090      2252      2323      2305      2304
     2615      2756      2734      2958      3077      3251      3341      3470
     3486      3501      3587      3603      3471      3376      3206      3156
     3066      3027      2778      2754      2677      2544      2571      2576
     2486      2544      2599      2700      2871      2888      2856      3011
     3010      2939      2875      2782      2708      2621      2619      2496
     2407      2270      2262      2124      2106      2080      1850      1885
     1811      1868      1791      1869      1910      1900      1991      2051
     2085      2381      2529      2673      2876      3040      3258      3396
     3394      3361      3423      3443      3233      3241      3201      3128
     3061      3086      3085      3082      2977      3026      2934      2877
     2986      2994      2987      2995      2882      2844      2896      2906
     2870      2839      2842      2883      3008      2829      2782      2728
     2542      2587      2457      2367      2224      2185      2170      2138
     1973      1875      1854      1886      1916      1848      1861      1821
     1815      1889      2024      2132      2189      2350      2439      2573
     2571      2635      2555      2474      2413      2359      2295      2334
     2220      2048      1961      1888      1780      1758      1633      1651
     1614      1520      1547      1442      1487      1535      1623      1611
     1587      1605      1638      1601      1571      1641      1640      1576
     1610      1594      1622      1703      1692      1749      1764      1810
     1880      1959      1975      1999      2047      2037      2083      2196
     2203      2186      2367      2294      2365      2503      2495      2714
     2674      2786      2887      2845      3004      3075      3055      3007
     2828      2778      2726      2633      2396      2438      2299      2215
     2176      1956      1917      1766      1787      1594      1615      1624
     1549      1613      1560      1528      1556      1579      1595      1635
     1607      1555      1643      1686      1753      1762      1760      1758
     1834      1818      1907      1884      1863      1936      1935      2118
     2085      2107      2081      2230      2321      2199      2297      2429
     2225      2420      2434      2445      2430      2398      2411      2467
     2372      2283      2290      2208      2190      2001      2013      1944
     1978      1926      1822      1767      1760      1758      1621      1643
     1686      1701      1762      1800      1860      1978      1962      2014
     2053      2179      2330      2346      2429      2467      2482      2581
     2595      2648      2608      2668      2781      2848      2871      2886
     2836      2701      2728      2744      2606      2533      2603      2468
     2457      2440      2399      2416      2383      2224      2251      2129
     2100      2142      2053      2010      1945      1949      1853      2103
     1966      1936      2002      2072      2209      2173      2268      2436
     2512      2587      2653      2680      2747      2771      2727      2777
     2713      2801      2668      2569      2586      2523      2467      2541
     2432      2523      2510      2500      2495      2720      2751      2881
     2789      2917      2980      2888      2750      2803      2750      2782
     2646      2622      2495      2435      2340      2208      2143      2141
     1958      1910      1869      1846      1851      1785      1757      1733
     1683      1781      1690      1625      1663      1637      1693      1615
     1593      1617      1543      1527      1540      1442      1424      1449
     1376      1340      1296      1313      1266      1271      1203      1224
     1220      1273      1204      1217      1216      1212      1164      1169
     1140      1190      1206      1231      1196      1199      1248      1273
     1330      1294      1396      1438      1477      1436      1504      1584
     1557      1692      1670      1717      1666      1674      1730      1810
     1829      1788      1899      1929      2035      2074      2002      2061
     2082      2049      2084      2042      1969      1905      1878      1860
     1790      1758      1673      1608      1729      1649      1726      1690
     1653      1630      1631      1670      1759      1777      1857      1986
     1984      1966      2035      2013      2023      2083      2032      2009
     1915      1975      1981      1854      1885      1843      1809      1777
     1790      1695      1691      1735      1661      1601      1605      1581
     1610      1574      1560      1547      1583      1539      1517      1524
     1560      1537      1598      1589      1536      1574      1518      1579
     1569      1590      1596      1648      1624      1621      1713      1637
     1586      1569      1632      1658      1598      1486      1494      1615
     1563      1457      1479      1473      1488      1438      1366      1431
     1351      1353      1323      1230      1206      1206      1222      1181
     1285      1168      1153      1194      1203      1147      1130      1211
     1127      1094      1124      1103      1100      1115      1139      1036
     1066      1159      1075      1118      1046      1055      1060      1033
     1118      1092      1092      1097      1080      1105      1106      1185
     1133      1117      1208      1178      1198      1199      1182      1218
     1243      1266      1338      1412      1415      1464      1500      1498
     1629      1619      1626      1675      1636      1672      1745      1756
     1763      1758      1803      1787      1781      1768      1670      1666
     1702      1669      1682      1634      1528      1529      1455      1382
     1388      1329      1385      1357      1349      1292      1210      1276
     1243      1232      1207      1232      1222      1230      1218      1254
     1264      1296      1300      1267      1246      1338      1264      1235
     1285      1287      1230      1252      1195      1194      1217      1195
     1139      1156      1107      1199      1101      1071      1150      1138
     1187      1211      1140      1106      1191      1112      1095      1175
     1159      1181      1150      1152      1134      1173      1197      1194
     1167      1158      1142      1119      1105      1099      1146      1037
     1094      1139      1054      1053      1020      1023      1025      1015
     1059      1002      1034      1001      1069       991       981      1077
     1059      1038      1118      1038       991      1059      1154      1103
     1100      1074      1128      1067      1146      1094      1122      1156
     1158      1207      1231      1130      1174      1202      1175      1180
     1189      1099      1127      1154      1099      1105      1114      1117
     1113      1049      1108      1106      1094      1102      1159      1132
     1196      1235      1280      1245      1308      1317      1369      1435
     1377      1510      1534      1539      1548      1594      1579      1630
     1626      1662      1621      1637      1593      1646      1586      1590
     1556      1499      1480      1465      1454      1452      1338      1307
     1318      1279      1243      1338      1181      1253      1186      1138
     1112      1110      1137      1083      1105      1110      1098      1069
     1140      1149      1122      1138      1149      1211      1215      1233
     1237      1295      1336      1406      1436      1435      1500      1562
     1560      1652      1636      1611      1771      1708      1719      1713
     1703      1917      1821      1944      1893      1883      1926      1843
     1926      1933      1930      1931      1949      1909      1954      1878
     1853      1823      1812      1785      1765      1659      1674      1703
     1604      1623      1597      1554      1487      1485      1467      1469
     1455      1405      1378      1326      1302      1383      1324      1294
     1253      1254      1258      1218      1206      1186      1152      1208
     1153      1201      1118      1130      1062      1092      1109      1062
     1120      1078      1102      1045      1081      1045       972      1071
     1006      1074      1084       997      1070      1033      1011      1068
     1058      1059      1024      1007       977      1055       939       975
     1021      1017      1013      1015      1081      1131      1094      1046
     1149      1129      1099      1137      1078      1086      1116      1150
     1133      1187      1153      1103      1137      1106      1128      1154
     1096      1108      1050      1139      1077      1037      1138      1089
     1079      1063      1039      1081      1164      1062      1087      1101
     1052      1132      1084      1129      1162      1079      1026      1136
     1144      1095      1113      1116      1089      1159      1139      1135
     1037      1181      1111      1092      1090      1100      1065      1082
     1076      1121      1072      1051      1059      1088      1059      1010
     1026       992      1077      1002      1031      1022      1021      1051
      995       948       969      1066      1002      1013      1015      1049
     1040      1015      1095      1089      1114      1069      1107      1088
     1082      1061      1111      1140      1135      1080      1132      1059
     1076      1054      1021      1020      1059      1056       948      1009
     1049      1013      1050      1025       989      1041      1049      1048
      950      1051      1017      1031      1034      1029      1028       998
     1019      1016      1044      1031      1040       982      1019      1003
      974       985       965       982      1005      1033       931       959
     1011       938       930      1018       963      1029      1043       985
     1043       997      1067      1084      1087      1103      1113      1086
     1070      1077      1126      1200      1166      1174      1139      1175
     1216      1297      1274      1240      1228      1259      1281      1253
     1321      1231      1278      1234      1188      1212      1197      1181
     1187      1152      1202      1157      1114      1090      1170      1134
     1137      1116      1075      1188      1096      1211      1207      1123
     1103      1122      1104      1162      1052      1121      1096      1087
     1021      1049      1080      1073      1083      1097       997      1029
     1044      1111      1083      1070      1042      1088      1043      1032
     1028      1087      1067      1031       958      1001      1022       969
     1032      1013      1074       979       975       948      1011       982
     1010       986       983      1018       988       977       994      1015
      975      1045       947       968      1013      1027       943      1026
      999       998      1026      1016       980       977       949       962
      960      1007       948       959       923       924       904       934
      975       936      1090       949       961       995       997       975
     1026      1006      1062      1070      1067      1037      1057      1029
     1113      1093      1092      1051      1088       993      1025      1053
     1011      1065      1036      1007      1076      1019      1080      1015
     1041      1052       983       989      1024       971       960       981
      964       901       898       956       956       922       946       897
      880       943       875       952       882       870       875       931
      915       917       870       927       881       862       812       902
      870       862       845       861       896       900       928       897
      895       901       884       831       884       818       844       888
      809       858       802       855       839       886       864       791
      799       825       899       834       832       869       867       897
      856       865       884       874       846       829       900       901
      869       860       922       895       906       906       911       911
      988       925       924       915       983       995       969       985
      962       955       926      1039      1007       963      1058      1026
      961       978       987       962       930       930      1002       942
     1037       997       958       977      1027       983      1012       953
     1021      1028       994      1000       978      1000      1029      1020
     1101      1020      1011       979      1060      1036       997      1050
      969      1011       995       999      1016      1005      1041      1007
     1000       957       977       960       989       967       940       932
      959       944       957       947       972       975       952       974
     1004       975      1001      1052      1022      1059       959      1010
      996      1008      1098      1062      1034      1046      1101      1053
     1034      1084      1015      1101      1065      1042      1063      1102
     1023      1080      1059      1016       992      1012       989      1030
      982       992       978       967       991       946       931       956
      956       897       974       949       945       908       965       957
      942       912       911       931       905       920       900       920
      942       938       907       944       905       893       926       949
      975       925       961       942       960       935       917       934
      929       882       942       886       922       887       899       939
      891       994       909       867       953       902       973       894
      974       939       959       915       921       903       913       921
      920       852       889       891       868       865       840       855
      860       932       866       886       842       826       850       830
      876       788       826       800       872       794       769       832
      751       833       809       829       807       832       828       826
      819       885       815       790       873       860       880       891
      869       967       952       837       929       955       971       969
      883       953       972       959       935       968       992       983
      935       980      1076      1045       989       924       997      1010
     1008      1092      1058      1044      1038      1002      1019       978
      992      1020       995      1037       993       997       989       996
     1011      1062      1106       991       977      1015      1076      1125
     1038       992      1023      1005       982      1046       927       948
      953       956      1012       911       941       941       940       949
      912       893       934       920       911       897       875       942
      917       921       850       927       891       883       860       901
      860       873       851       866       911       889       936       884
      905       915       907       930       941       999       943       870
      890      1006       970       943      1055       979      1017      1052
     1040      1090      1163      1105      1195      1170      1233      1139
     1118      1137      1166      1188      1147      1109      1214      1214
     1164      1221      1220      1226      1147      1158      1169      1098
     1134      1107      1037      1071      1091      1087      1003      1049
     1049      1003      1047      1034      1039       989       996       957
     1024      1025      1058      1034       969      1089      1065      1088
     1051      1126      1098      1050      1097      1109      1075      1009
     1067      1027      1081      1027      1029      1054      1018      1073
     1131      1062      1094      1074      1052      1055      1065      1031
      988       978      1047       999       927       948      1001       928
      934       969       942       954       939       861       883       920
      891       915       926       842       871       901       893       829
      916       874       903       895       845       865       836       855
      826       862       887       844       875       850       841       836
      938       893       876       912       893       894       845       881
      875       883       926       898       828       907       899       828
      904       828       888       910       822       915       910       914
      890       884       896       913       879       898       837       878
      871       895       918       930       926       924       936       942
     1002       993       962       934       989       896       885       916
      845       893       887       900       932       987       935       861
      935       964       978       936       938       985       900       919
      927       927       969       951       924       984       924       904
      988       983       921       943       967      1005       993       976
     1068      1038      1019       977      1011       986       986       991
      975       985       875       953       957       923       963       974
      894       979      1023       925       907       967       924       913
      929       988       954      1001       967       968       968       896
      941       972       934       978       984       930       966      1053
     1006       932      1059      1044      1040      1086      1053      1067
     1145      1117      1089      1032      1075      1063       997       998
      998      1028       962      1039      1025      1029      1106      1034
     1023      1086      1028      1082       977      1053      1003      1002
      958       979      1021      1086      1004      1048      1018       977
     1072      1033      1015      1018      1083      1034       999       953
     1025      1051      1013      1067      1015      1022      1102      1054
     1027      1093      1076      1080      1056      1115      1078      1051
     1069      1068      1046      1052       989      1014      1029       964
     1029       981       944       941      1017       969      1059       982
      979       992       956       935       946       959       970       956
      937       989       946       979       923       951       921       897
      893       953       894       883       891       897       874       881
      875       860       858       865       899       869       883       806
      814       845       788       814       839       819       818       824
      806       832       803       779       820       840       822       801
      817       888       777       721       816       813       831       821
      789       870       841       887       840       855       875       896
      845       882       920       827       870       887       875       845
      863       862       894       863       866       842       851       865
      852       851       856       830       806       862       841       837
      844       912       853       883       809       844       881       867
      905       921       873       915       871       881       890       883
      860       874       857       847       863       904       927       919
      878       964       933       911       996       983       951       932
      998      1038      1004      1040      1070      1043      1014      1103
     1091      1071      1061      1067      1096      1102      1021      1061
     1029      1072      1013      1029       987      1032      1066       975
     1029      1017      1063       987      1023       990       985      1052
      952       942       952       887       966       932       943       920
      917       920       922       900       939       905       899       951
      957       933       939       858       906       872       872       919
      879       939       877       839       852       902       879       843
      822       840       834       820       825       794       892       882
      798       894       816       889       928       851       869       877
      842       861       829       906       914       899       866       897
      840       911       875       906       895       834       906       900
      902       880       840       923       875       858       885       818
      864       854       843       850       820       836       835       803
      852       777       793       817       812       833       833       846
      787       797       864       804       863       834       822       837
      786       760       808       788       831       753       722       712
      784       774       856       763       804       798       828       831
      795       765       798       825       811       839       810       842
      789       807       815       851       865       868       830       926
      825       826       834       871       819       787       847       841
      791       872       806       812       777       839       797       844
      817       812       826       825       826       824       808       807
      818       757       763       721       781       782       783       844
      768       775       798       770       760       741       755       764
      784       758       775       810       729       790       779       745
      751       820       757       713       753       752       748       732
      816       764       759       727       752       765       753       803
      743       782       784       795       803       775       824       812
      809       773       784       792       835       783       787       786
      817       761       782       789       841       824       801       774
      771       777       776       719       764       781       791       752
      774       745       807       753       844       718       772       793
      776       775       766       743       807       842       770       797
      817       804       780       822       802       801       847       793
      873       837       820       854       904       855       773       854
      901       796       864       866       911       866       891       893
      817       855       853       902       853       874       853       868
      856       929       888       928       891       850       848       856
      895       943       870       913       865       915       887       895
      899       863       878       876       826       849       868       887
      879       848       874       800       835       826       847       847
      823       853       861       862       856       838       882       821
      871       908       888       826       830       850       872       826
      847       816       889       875       864       855       850       843
      824       822       827       840       841       789       825       850
      832       857       800       819       817       862       824       825
      834       831       811       824       856       836       758       828
      868       849       815       834       805       822       897       832
      846       804       809       768       809       818       882       815
      789       847       870       814       867       840       890       845
      823       846       852       828       846       796       872       850
      821       880       840       923       844       890       823       874
      828       802       817       820       883       820       837       836
      854       903       894       876       862       837       898       819
      887       852       919       859       890       913       863       828
      896       858       823       871       885       860       853       866
      892       884       898       869       905       875       824       834
      908       886       914       895       873       823       849       853
      889       847       939       803       871       820       833       879
      879       888       903       900       833       832       863       837
      841       836       872       833       839       766       856       894
      831       858       829       825       882       843       808       835
      832       823       871       854       811       779       821       807
      847       778       842       822       791       817       804       814
      821       806       833       843       808       812       850       839
      808       810       769       777       838       776       832       766
      790       771       847       818       835       822       833       799
      836       830       825       804       875       819       835       899
      819       837       839


;
_cod_data_source_file            MnC2H3O23-2H2O.cif
_cod_data_source_block           C6H13MnO8
_cod_original_cell_volume        565.94(5)
_cod_original_sg_symbol_H-M      'P 21/m'
_cod_original_formula_sum        'H13 C6 Mn O8'
_cod_database_code               3500063
_pd_proc_ls_prof_cr_factor       10.7909
_pd_proc_ls_prof_cwr_factor      13.4579
_pd_proc_ls_prof_cwr_expected    2.2655
_pd_proc_ls_prof_chi2            35.2875
_pd_proc_ls_prof_echi2           35.2875
loop_
_publ_manuscript_incl_extra_item
_publ_manuscript_incl_extra_info
_publ_manuscript_incl_extra_defn
'_pd_proc_ls_prof_cR_factor' 'Prof. R-factor CORRECTED for background' no
'_pd_proc_ls_prof_cwR_factor' 'wProf.R-factor CORRECTED for background' no
'_pd_proc_ls_prof_cwR_expected' 'wProf.Expected CORRECTED for background' no
'_pd_proc_ls_prof_chi2' 'Chi-square for all considered points' no
'_pd_proc_ls_prof_echi2' 'Chi-2 for points with Bragg contribution' no
loop_
_symmetry_equiv_pos_as_xyz
x,y,z
-x,y+1/2,-z
-x,-y,-z
x,-y+1/2,z
loop_
_atom_site_label
_atom_site_type_symbol
_atom_site_thermal_displace_type
_atom_site_fract_x
_atom_site_fract_y
_atom_site_fract_z
_atom_site_occupancy
_atom_site_U_iso_or_equiv
_atom_site_calc_flag
_atom_site_refinement_flags
_atom_site_disorder_assembly
_atom_site_disorder_group
Mn Mn Uiso 0.50000 0.00000 0.00000 1.000 0.0495(11) . . . .
O1 O Uiso 0.5821(14) 0.25000 0.0682(9) 1.000 0.063(4) . . . .
O2 O Uiso 0.5278(12) 0.0965(10) -0.1903(7) 1.000 0.075(3) . . . .
O3 O Uiso 0.2656(8) 0.0912(9) -0.0404(7) 1.000 0.043(3) . . . .
C1 C Uiso 0.520(3) 0.25000 -0.248(2) 1.000 0.121(11) . . . .
C2 C Uiso 0.169(3) 0.25000 -0.0637(19) 1.000 0.080(8) . . . .
C3 C Uiso -0.002(3) 0.25000 -0.0936(18) 1.000 0.094(8) . . . .
C4 C Uiso 0.560(3) 0.25000 -0.3776(18) 1.000 0.104(8) . . . .
O5 O Uiso 0.9255(17) 0.25000 0.2299(10) 1.000 0.073(5) . . . .
O6 O Uiso 1.1232(19) 0.25000 0.3966(14) 1.000 0.129(7) . . . .
C5 C Uiso 0.960(5) 0.25000 0.347(3) 1.000 0.205(19) . . . .
C6 C Uiso 0.879(3) 0.25000 0.421(2) 1.000 0.232(17) . . . .
O4 O Uiso 1.3596(14) 0.25000 0.2898(9) 1.000 0.079(5) . . . .
H1 H Uiso 0.68200 0.25000 0.10400 1.000 0.0760 . . . .
H4 H Uiso -0.04400 0.25000 -0.01000 1.000 0.0760 . . . .
H5 H Uiso -0.05200 0.14700 -0.13000 1.000 0.0760 . . . .
H6 H Uiso 0.45700 0.25000 -0.42000 1.000 0.0760 . . . .
H7 H Uiso 0.62100 0.15800 -0.37800 1.000 0.0760 . . . .
H3 H Uiso 1.19900 0.25000 0.34500 1.000 0.0760 . . . .
H8 H Uiso 0.90650 0.25000 0.51650 1.000 0.0760 . . . .
H9 H Uiso 0.76560 0.13530 0.39350 1.000 0.0760 . . . .
H2 H Uiso 1.39900 0.15800 0.25400 1.000 0.0760 . . . .
loop_
_atom_type_symbol
_atom_type_scat_Cromer_Mann_a1
_atom_type_scat_Cromer_Mann_b1
_atom_type_scat_Cromer_Mann_a2
_atom_type_scat_Cromer_Mann_b2
_atom_type_scat_Cromer_Mann_a3
_atom_type_scat_Cromer_Mann_b3
_atom_type_scat_Cromer_Mann_a4
_atom_type_scat_Cromer_Mann_b4
_atom_type_scat_Cromer_Mann_c
_atom_type_scat_dispersion_real
_atom_type_scat_dispersion_imag
_atom_type_scat_source
Mn 11.28190 5.34090 7.35730 0.34320 3.01930 17.86740 2.24410 83.75430 1.08960
-0.56800 2.80800
International_Tables_for_Crystallography_Vol.C(1991)_Tables_6.1.1.4_and_6.1.1.5
O 3.04850 13.27710 2.28680 5.70110 1.54630 0.32390 0.86700 32.90890 0.25080
0.04700 0.03200
International_Tables_for_Crystallography_Vol.C(1991)_Tables_6.1.1.4_and_6.1.1.5
C 2.31000 20.84390 1.02000 10.20750 1.58860 0.56870 0.86500 51.65120 0.21560
0.01700 0.00900
International_Tables_for_Crystallography_Vol.C(1991)_Tables_6.1.1.4_and_6.1.1.5
H 0.49300 10.51090 0.32291 26.12570 0.14019 3.14236 0.04081 57.79970 0.00304
0.00000 0.00000
International_Tables_for_Crystallography_Vol.C(1991)_Tables_6.1.1.4_and_6.1.1.5
loop_
_geom_angle_atom_site_label_1
_geom_angle_atom_site_label_2
_geom_angle_atom_site_label_3
_geom_angle
_geom_angle_site_symmetry_1
_geom_angle_site_symmetry_2
_geom_angle_site_symmetry_3
_geom_angle_publ_flag
O1 Mn O2 89.7(3) . . . yes
O1 Mn O3 90.5(4) . . . yes
O1 Mn O1 180.00 . . 2_645 yes
O1 Mn O2 90.3(3) . . 3_655 yes
O1 Mn O3 89.6(4) . . 3_655 yes
O2 Mn O3 92.1(3) . . . yes
O1 Mn O2 90.3(3) 2_645 . . yes
O2 Mn O2 180.00 . . 3_655 yes
O2 Mn O3 87.9(3) . . 3_655 yes
O1 Mn O3 89.6(4) 2_645 . . yes
O2 Mn O3 87.9(3) 3_655 . . yes
O3 Mn O3 180.00 . . 3_655 yes
O1 Mn O2 89.7(3) 2_645 . 3_655 yes
O1 Mn O3 90.5(4) 2_645 . 3_655 yes
O2 Mn O3 92.1(3) 3_655 . 3_655 yes
Mn O1 Mn 127.1(5) . . 2_655 yes
Mn O2 C1 136.8(10) . . . yes
Mn O3 C2 143.3(10) . . . yes
Mn O1 H1 113.00 2_655 . . no
Mn O1 H1 113.00 . . . no
C5 O6 H3 120.00 . . . no
H2 O4 H2 95.00 . . 4_555 no
O2 C1 C4 119.3(10) 4_555 . . yes
O2 C1 O2 118.5(18) . . 4_555 yes
O2 C1 C4 119.3(10) . . . yes
O3 C2 O3 111.1(18) . . 4_555 yes
O3 C2 C3 124.3(10) 4_555 . . yes
O3 C2 C3 124.3(10) . . . yes
C2 C3 H5 116.00 . . 4_555 no
H4 C3 H5 101.00 . . . no
C2 C3 H5 116.00 . . . no
H5 C3 H5 111.00 . . 4_555 no
H4 C3 H5 101.00 . . 4_555 no
C2 C3 H4 110.00 . . . no
C1 C4 H6 95.00 . . . no
H6 C4 H7 121.00 . . . no
H6 C4 H7 121.00 . . 4_555 no
H7 C4 H7 104.00 . . 4_555 no
C1 C4 H7 107.00 . . 4_555 no
C1 C4 H7 107.00 . . . no
O6 C5 C6 114(3) . . . yes
O5 C5 O6 110(3) . . . yes
O5 C5 C6 136(4) . . . yes
C5 C6 H9 111.00 . . . no
C5 C6 H9 111.00 . . 4_555 no
C5 C6 H8 136.00 . . . no
H8 C6 H9 101.00 . . 4_555 no
H9 C6 H9 84.00 . . 4_555 no
H8 C6 H9 101.00 . . . no
loop_
_geom_bond_atom_site_label_1
_geom_bond_atom_site_label_2
_geom_bond_distance
_geom_bond_site_symmetry_1
_geom_bond_site_symmetry_2
_geom_bond_publ_flag
Mn O1 1.890(5) . . yes
Mn O2 2.257(8) . . yes
Mn O3 1.893(7) . . yes
Mn O1 1.890(4) . 2_645 yes
Mn O2 2.257(8) . 3_655 yes
Mn O3 1.893(7) . 3_655 yes
O2 C1 1.209(13) . . yes
O3 C2 1.303(15) . . yes
O1 H1 0.7800 . . no
O5 C5 1.24(3) . . yes
O6 C5 1.26(4) . . yes
O6 H3 0.9400 . . no
O4 H2 0.8400 . . no
O4 H2 0.8400 . 4_555 no
C1 C4 1.54(3) . . no
C2 C3 1.31(3) . . no
C3 H4 1.0600 . . no
C3 H5 0.8400 . 4_555 no
C3 H5 0.8400 . . no
C4 H7 0.7900 . 4_555 no
C4 H6 0.8200 . . no
C4 H7 0.7900 . . no
C5 C6 1.17(4) . . no
C6 H9 1.1600 . 4_555 no
C6 H8 1.0100 . . no
C6 H9 1.1600 . . no
loop_
_geom_hbond_atom_site_label_D
_geom_hbond_atom_site_label_H
_geom_hbond_atom_site_label_A
_geom_hbond_distance_DH
_geom_hbond_distance_HA
_geom_hbond_distance_DA
_geom_hbond_angle_DHA
_geom_hbond_site_symmetry_A
_geom_hbond_publ_flag
O1 H1 O5 0.7800 2.0400 2.804(17) 168.00 . yes
O4 H2 O2 0.8400 2.0100 2.836(10) 168.00 3_755 yes
O6 H3 O4 0.9400 1.5600 2.479(19) 166.00 . yes
loop_
_geom_torsion_atom_site_label_1
_geom_torsion_atom_site_label_2
_geom_torsion_atom_site_label_3
_geom_torsion_atom_site_label_4
_geom_torsion
_geom_torsion_site_symmetry_1
_geom_torsion_site_symmetry_2
_geom_torsion_site_symmetry_3
_geom_torsion_site_symmetry_4
_geom_torsion_publ_flag
O1 Mn O2 C1 -29.4(19) . . . . no
O3 Mn O2 C1 61.1(19) . . . . no
O3 Mn O2 C1 -118.9(19) 3_655 . . . no
O1 Mn O3 C2 23.6(17) . . . . no
O2 Mn O3 C2 -66.1(17) . . . . no
O2 Mn O3 C2 114.0(17) 3_655 . . . no
Mn O2 C1 C4 176.2(12) . . . . no
Mn O2 C1 O2 16(3) . . . 4_555 no
Mn O3 C2 C3 177.6(13) . . . . no
Mn O3 C2 O3 -9(3) . . . 4_555 no
