#------------------------------------------------------------------------------
#$Date: 2016-03-21 01:21:50 +0200 (Mon, 21 Mar 2016) $
#$Revision: 178377 $
#$URL: svn://www.crystallography.net/cod/cif/4/00/15/4001514.cif $
#------------------------------------------------------------------------------
#
# This file is available in the Crystallography Open Database (COD),
# http://www.crystallography.net/
#
# All data on this site have been placed in the public domain by the
# contributors.
#
data_4001514
loop_
_publ_author_name
'Prakash, M. Jaya'
'Radhakrishnan, T. P.'
_publ_section_title
;
 Second Harmonic Generation from a Homologous Series of Molecular
 Crystals: Impact of Supramolecular Interactions
;
_journal_issue                   13
_journal_name_full               'Chemistry of Materials'
_journal_page_first              2943
_journal_paper_doi               10.1021/cm052607q
_journal_volume                  18
_journal_year                    2006
_chemical_formula_sum            'C10 H15 N3 O4'
_chemical_formula_weight         241.25
_chemical_name_systematic
'N-(2-aminoethyl)-4-nitroaniline acetic acid (salt)'
_space_group_IT_number           7
_symmetry_cell_setting           monoclinic
_symmetry_space_group_name_Hall  'P -2yc'
_symmetry_space_group_name_H-M   'P 1 c 1'
_atom_sites_solution_hydrogens   geom
_atom_sites_solution_primary     direct
_atom_sites_solution_secondary   difmap
_audit_creation_method           SHELXL-97
_cell_angle_alpha                90.00
_cell_angle_beta                 101.784(8)
_cell_angle_gamma                90.00
_cell_formula_units_Z            2
_cell_length_a                   5.608(3)
_cell_length_b                   11.314(5)
_cell_length_c                   9.573(5)
_cell_measurement_temperature    298(2)
_cell_volume                     594.6(5)
_computing_structure_refinement  'SHELXL-97 (Sheldrick, 1997)'
_computing_structure_solution    'SHELXS-97 (Sheldrick, 1990)'
_diffrn_ambient_temperature      298(2)
_diffrn_measured_fraction_theta_full 0.931
_diffrn_measured_fraction_theta_max 0.931
_diffrn_radiation_monochromator  graphite
_diffrn_radiation_source         'fine-focus sealed tube'
_diffrn_radiation_type           MoK\a
_diffrn_radiation_wavelength     0.71073
_diffrn_reflns_av_R_equivalents  0.0399
_diffrn_reflns_av_sigmaI/netI    0.0910
_diffrn_reflns_limit_h_max       7
_diffrn_reflns_limit_h_min       -6
_diffrn_reflns_limit_k_max       14
_diffrn_reflns_limit_k_min       -14
_diffrn_reflns_limit_l_max       12
_diffrn_reflns_limit_l_min       -11
_diffrn_reflns_number            3317
_diffrn_reflns_theta_full        28.37
_diffrn_reflns_theta_max         28.37
_diffrn_reflns_theta_min         1.80
_exptl_absorpt_coefficient_mu    0.105
_exptl_absorpt_correction_T_max  0.9979
_exptl_absorpt_correction_T_min  0.5359
_exptl_absorpt_correction_type   multi-scan
_exptl_absorpt_process_details
'SADABS-Bruker Nonius area detector scaling and absorption correction - V2.10'
_exptl_crystal_colour            Yellow
_exptl_crystal_density_diffrn    1.348
_exptl_crystal_density_method    'not measured'
_exptl_crystal_description       Plate
_exptl_crystal_F_000             256
_exptl_crystal_size_max          0.33
_exptl_crystal_size_mid          0.08
_exptl_crystal_size_min          0.02
_refine_diff_density_max         0.122
_refine_diff_density_min         -0.131
_refine_diff_density_rms         0.032
_refine_ls_abs_structure_details 'Flack H D (1983), Acta Cryst. A39, 876-881'
_refine_ls_abs_structure_Flack   0(2)
_refine_ls_extinction_method     none
_refine_ls_goodness_of_fit_ref   0.985
_refine_ls_hydrogen_treatment    mixed
_refine_ls_matrix_type           full
_refine_ls_number_parameters     171
_refine_ls_number_reflns         1923
_refine_ls_number_restraints     2
_refine_ls_restrained_S_all      0.985
_refine_ls_R_factor_all          0.1355
_refine_ls_R_factor_gt           0.0542
_refine_ls_shift/su_max          0.000
_refine_ls_shift/su_mean         0.000
_refine_ls_structure_factor_coef Fsqd
_refine_ls_weighting_details
'calc w=1/[\s^2^(Fo^2^)+(0.0316P)^2^+0.0000P] where P=(Fo^2^+2Fc^2^)/3'
_refine_ls_weighting_scheme      calc
_refine_ls_wR_factor_gt          0.0813
_refine_ls_wR_factor_ref         0.0997
_reflns_number_gt                978
_reflns_number_total             1923
_reflns_threshold_expression     >2sigma(I)
_cod_data_source_file            cm052607qsi20051126_120337.cif
_cod_data_source_block           AENA-ace
_cod_depositor_comments
;
The following automatic conversions were performed:

'_symmetry_cell_setting' value 'Monoclinic' changed to 'monoclinic'
according to /home/saulius/struct/CIF-dictionaries/cif_core.dic
dictionary named 'cif_core.dic' version 2.4.1 from
2010-06-29.

'_exptl_absorpt_correction_type' value 'Multi-scan'
changed to 'multi-scan' according to
/home/saulius/struct/CIF-dictionaries/cif_core.dic dictionary named
'cif_core.dic' version 2.4.1 from 2010-06-29.

Automatic conversion script
Id: cif_fix_values 1715 2011-07-08 13:25:40Z adriana 
;
_cod_original_sg_symbol_H-M      Pc
_cod_database_code               4001514
loop_
_symmetry_equiv_pos_as_xyz
'x, y, z'
'x, -y, z+1/2'
loop_
_atom_site_label
_atom_site_type_symbol
_atom_site_fract_x
_atom_site_fract_y
_atom_site_fract_z
_atom_site_U_iso_or_equiv
_atom_site_adp_type
_atom_site_occupancy
_atom_site_symmetry_multiplicity
_atom_site_calc_flag
_atom_site_refinement_flags
C3 C 0.3660(8) 0.0429(5) 1.0996(5) 0.0531(11) Uani 1 1 d .
N1 N 0.6593(7) 0.4598(3) 0.6573(4) 0.0497(9) Uani 1 1 d .
O1 O 0.1285(5) 0.4559(3) 0.1940(3) 0.0649(8) Uani 1 1 d .
C6 C 0.6841(7) 0.1422(4) 0.9474(4) 0.0491(11) Uani 1 1 d .
N2 N 0.8441(7) 0.1883(3) 0.8740(4) 0.0594(11) Uani 1 1 d .
C5 C 0.6623(8) 0.0203(4) 0.9575(5) 0.0543(12) Uani 1 1 d .
H5 H 0.7577 -0.0287 0.9132 0.065 Uiso 1 1 calc R
C7 C 0.8590(8) 0.3094(4) 0.8321(5) 0.0550(11) Uani 1 1 d .
H7A H 1.0220 0.3262 0.8178 0.066 Uiso 1 1 calc R
H7B H 0.8264 0.3610 0.9070 0.066 Uiso 1 1 calc R
O4 O 0.0845(6) 0.0545(3) 1.2444(4) 0.0875(12) Uani 1 1 d .
O2 O 0.4438(5) 0.4473(3) 0.3699(3) 0.0708(9) Uani 1 1 d .
O3 O 0.1801(7) -0.1191(4) 1.1772(4) 0.0928(12) Uani 1 1 d .
C9 C 0.2271(8) 0.4242(4) 0.3163(4) 0.0472(10) Uani 1 1 d .
N3 N 0.1998(7) -0.0096(5) 1.1792(4) 0.0706(12) Uani 1 1 d .
C2 C 0.3798(8) 0.1641(4) 1.0906(4) 0.0613(12) Uani 1 1 d .
H2 H 0.2840 0.2117 1.1361 0.074 Uiso 1 1 calc R
C4 C 0.5045(8) -0.0284(4) 1.0309(5) 0.0586(12) Uani 1 1 d .
H4 H 0.4896 -0.1101 1.0348 0.070 Uiso 1 1 calc R
C8 C 0.6761(8) 0.3329(4) 0.6955(4) 0.0531(11) Uani 1 1 d .
H8A H 0.7222 0.2885 0.6185 0.064 Uiso 1 1 calc R
H8B H 0.5172 0.3051 0.7063 0.064 Uiso 1 1 calc R
C1 C 0.5354(8) 0.2143(4) 1.0141(5) 0.0596(11) Uani 1 1 d .
H11 H 0.5427 0.2961 1.0062 0.072 Uiso 1 1 calc R
C10 C 0.0844(9) 0.3504(5) 0.4015(5) 0.0778(15) Uani 1 1 d .
H10A H 0.1460 0.2710 0.4087 0.117 Uiso 1 1 calc R
H10B H -0.0843 0.3499 0.3548 0.117 Uiso 1 1 calc R
H10C H 0.1004 0.3834 0.4954 0.117 Uiso 1 1 calc R
H19 H 0.924(7) 0.136(3) 0.831(4) 0.035(11) Uiso 1 1 d .
H3 H 0.566(7) 0.498(3) 0.722(4) 0.054(12) Uiso 1 1 d .
H20 H 0.799(9) 0.507(4) 0.658(5) 0.079(16) Uiso 1 1 d .
H1 H 0.560(8) 0.461(3) 0.557(5) 0.068(14) Uiso 1 1 d .
loop_
_atom_site_aniso_label
_atom_site_aniso_U_11
_atom_site_aniso_U_22
_atom_site_aniso_U_33
_atom_site_aniso_U_23
_atom_site_aniso_U_13
_atom_site_aniso_U_12
C3 0.055(3) 0.061(3) 0.043(2) 0.009(2) 0.009(2) -0.002(3)
N1 0.049(2) 0.056(3) 0.045(2) 0.003(2) 0.011(2) 0.000(2)
O1 0.0571(18) 0.089(2) 0.0497(18) 0.0154(18) 0.0131(15) 0.0106(17)
C6 0.045(3) 0.057(3) 0.045(3) 0.006(3) 0.009(2) 0.006(2)
N2 0.065(3) 0.049(3) 0.069(3) 0.013(2) 0.026(2) 0.010(2)
C5 0.064(3) 0.046(3) 0.053(3) 0.008(2) 0.014(2) 0.014(2)
C7 0.056(3) 0.054(3) 0.057(3) 0.009(2) 0.014(2) 0.001(2)
O4 0.081(3) 0.124(4) 0.066(2) 0.001(2) 0.033(2) -0.001(3)
O2 0.0507(19) 0.111(3) 0.0508(18) 0.0163(18) 0.0112(16) -0.007(2)
O3 0.085(3) 0.092(3) 0.105(3) 0.029(3) 0.028(2) -0.013(2)
C9 0.045(3) 0.055(3) 0.044(3) 0.005(2) 0.018(2) 0.004(2)
N3 0.061(3) 0.095(4) 0.052(3) 0.012(3) 0.002(2) -0.007(3)
C2 0.066(3) 0.066(3) 0.055(3) -0.003(3) 0.019(3) 0.008(3)
C4 0.067(3) 0.052(3) 0.055(3) 0.014(3) 0.007(2) -0.001(3)
C8 0.061(3) 0.048(3) 0.048(2) 0.004(2) 0.008(2) -0.006(2)
C1 0.065(3) 0.052(3) 0.064(3) 0.001(3) 0.020(2) -0.002(3)
C10 0.075(4) 0.090(4) 0.072(3) 0.019(3) 0.022(3) -0.001(3)
loop_
_atom_type_symbol
_atom_type_description
_atom_type_scat_dispersion_real
_atom_type_scat_dispersion_imag
_atom_type_scat_source
C C 0.0033 0.0016 'International Tables Vol C Tables 4.2.6.8 and 6.1.1.4'
H H 0.0000 0.0000 'International Tables Vol C Tables 4.2.6.8 and 6.1.1.4'
N N 0.0061 0.0033 'International Tables Vol C Tables 4.2.6.8 and 6.1.1.4'
O O 0.0106 0.0060 'International Tables Vol C Tables 4.2.6.8 and 6.1.1.4'
loop_
_geom_angle_atom_site_label_1
_geom_angle_atom_site_label_2
_geom_angle_atom_site_label_3
_geom_angle
C2 C3 C4 120.6(4)
C2 C3 N3 119.5(4)
C4 C3 N3 119.9(4)
N2 C6 C5 119.7(4)
N2 C6 C1 122.0(4)
C5 C6 C1 118.3(4)
C6 N2 C7 126.6(4)
C4 C5 C6 121.0(4)
N2 C7 C8 110.0(4)
O1 C9 O2 122.5(4)
O1 C9 C10 119.2(4)
O2 C9 C10 118.3(4)
O4 N3 O3 122.9(5)
O4 N3 C3 119.3(4)
O3 N3 C3 117.8(5)
C1 C2 C3 119.7(4)
C5 C4 C3 120.1(4)
N1 C8 C7 112.4(3)
C2 C1 C6 120.1(4)
loop_
_geom_bond_atom_site_label_1
_geom_bond_atom_site_label_2
_geom_bond_distance
C3 C2 1.376(6)
C3 C4 1.377(5)
C3 N3 1.446(5)
N1 C8 1.481(5)
O1 C9 1.241(5)
C6 N2 1.352(5)
C6 C5 1.390(6)
C6 C1 1.409(5)
N2 C7 1.435(5)
C5 C4 1.354(6)
C7 C8 1.511(6)
O4 N3 1.224(5)
O2 C9 1.247(5)
O3 N3 1.244(5)
C9 C10 1.507(6)
C2 C1 1.371(5)
