#------------------------------------------------------------------------------
#$Date: 2016-03-21 01:21:50 +0200 (Mon, 21 Mar 2016) $
#$Revision: 178377 $
#$URL: svn://www.crystallography.net/cod/cif/4/00/15/4001551.cif $
#------------------------------------------------------------------------------
#
# This file is available in the Crystallography Open Database (COD),
# http://www.crystallography.net/
#
# All data on this site have been placed in the public domain by the
# contributors.
#
data_4001551
loop_
_publ_author_name
'Ballabh, Amar'
'Trivedi, Darshak R.'
'Dastidar, Parthasarathi'
_publ_section_title
;
 New Series of Organogelators Derived from a Combinatorial Library of
 Primary Ammonium Monocarboxylate Salts
;
_journal_issue                   16
_journal_name_full               'Chemistry of Materials'
_journal_page_first              3795
_journal_paper_doi               10.1021/cm0605015
_journal_volume                  18
_journal_year                    2006
_chemical_formula_sum            'C13 H18 Br N O2'
_chemical_formula_weight         300.19
_chemical_name_systematic
; 
 ? 
;
_space_group_IT_number           2
_symmetry_cell_setting           triclinic
_symmetry_space_group_name_Hall  '-P 1'
_symmetry_space_group_name_H-M   'P -1'
_atom_sites_solution_hydrogens   geom
_atom_sites_solution_primary     direct
_atom_sites_solution_secondary   difmap
_audit_creation_method           SHELXL-97
_cell_angle_alpha                82.4490(10)
_cell_angle_beta                 88.7850(10)
_cell_angle_gamma                71.4810(10)
_cell_formula_units_Z            2
_cell_length_a                   5.5628(4)
_cell_length_b                   7.5055(5)
_cell_length_c                   16.4604(11)
_cell_measurement_temperature    100(2)
_cell_volume                     645.86(8)
_computing_cell_refinement       'BRUKER AXS SMART 3'
_computing_data_collection       'BRUKER AXS SMART 3'
_computing_data_reduction        'BRUKER AXS SMART 3'
_computing_molecular_graphics    'PLATON, MERCURY 1.1.1'
_computing_structure_refinement  'SHELXL-97 (Sheldrick, 1997)'
_computing_structure_solution    'SHELXS-97 (Sheldrick, 1997)'
_diffrn_ambient_temperature      100(2)
_diffrn_measured_fraction_theta_full 0.885
_diffrn_measured_fraction_theta_max 0.885
_diffrn_measurement_device_type  'BRUKER SMART CCD AREA DETECTOR'
_diffrn_measurement_method       PHI-OMEGA
_diffrn_radiation_monochromator  graphite
_diffrn_radiation_source         'fine-focus sealed tube'
_diffrn_radiation_type           MoK\a
_diffrn_radiation_wavelength     0.71073
_diffrn_reflns_av_R_equivalents  0.0129
_diffrn_reflns_av_sigmaI/netI    0.0271
_diffrn_reflns_limit_h_max       7
_diffrn_reflns_limit_h_min       -7
_diffrn_reflns_limit_k_max       9
_diffrn_reflns_limit_k_min       -9
_diffrn_reflns_limit_l_max       21
_diffrn_reflns_limit_l_min       -17
_diffrn_reflns_number            3902
_diffrn_reflns_theta_full        28.27
_diffrn_reflns_theta_max         28.27
_diffrn_reflns_theta_min         2.89
_diffrn_standards_decay_%        '<10 %'
_exptl_absorpt_coefficient_mu    3.173
_exptl_absorpt_correction_type   SADABS
_exptl_crystal_colour            COLORLESS
_exptl_crystal_density_diffrn    1.544
_exptl_crystal_density_method    'not measured'
_exptl_crystal_description       PLATE
_exptl_crystal_F_000             308
_exptl_crystal_size_max          1.19mm
_exptl_crystal_size_mid          0.27mm
_exptl_crystal_size_min          0.11mm
_refine_diff_density_max         0.674
_refine_diff_density_min         -0.572
_refine_diff_density_rms         0.074
_refine_ls_extinction_method     none
_refine_ls_goodness_of_fit_ref   1.079
_refine_ls_hydrogen_treatment    mixed
_refine_ls_matrix_type           full
_refine_ls_number_parameters     226
_refine_ls_number_reflns         2826
_refine_ls_number_restraints     0
_refine_ls_restrained_S_all      1.079
_refine_ls_R_factor_all          0.0237
_refine_ls_R_factor_gt           0.0235
_refine_ls_shift/su_max          0.000
_refine_ls_shift/su_mean         0.000
_refine_ls_structure_factor_coef Fsqd
_refine_ls_weighting_details
'calc w=1/[\s^2^(Fo^2^)+(0.0371P)^2^+0.3622P] where P=(Fo^2^+2Fc^2^)/3'
_refine_ls_weighting_scheme      calc
_refine_ls_wR_factor_gt          0.0637
_refine_ls_wR_factor_ref         0.0639
_reflns_number_gt                2782
_reflns_number_total             2826
_reflns_threshold_expression     >2sigma(I)
_cod_data_source_file            cm0605015si20060301_110349.cif
_cod_data_source_block           ab0598rm
_cod_depositor_comments
;
The following automatic conversions were performed:

'_symmetry_cell_setting' value 'TRICLINIC' changed to 'triclinic'
according to /home/saulius/struct/CIF-dictionaries/cif_core.dic
dictionary named 'cif_core.dic' version 2.4.1 from 2010-06-29.

Automatic conversion script
Id: cif_fix_values 1715 2011-07-08 13:25:40Z adriana 
;
_cod_database_code               4001551
loop_
_symmetry_equiv_pos_as_xyz
'x, y, z'
'-x, -y, -z'
loop_
_atom_site_label
_atom_site_type_symbol
_atom_site_fract_x
_atom_site_fract_y
_atom_site_fract_z
_atom_site_U_iso_or_equiv
_atom_site_adp_type
_atom_site_occupancy
_atom_site_symmetry_multiplicity
_atom_site_calc_flag
Br1 Br 0.88817(3) 0.22588(2) 0.051472(8) 0.01545(7) Uani 1 1 d
N1 N 0.4973(3) 0.6624(2) 0.40072(9) 0.0149(3) Uani 1 1 d
O1 O -0.1851(2) 0.29770(17) 0.46748(7) 0.0160(2) Uani 1 1 d
O2 O 0.1202(2) 0.20021(19) 0.56438(8) 0.0187(3) Uani 1 1 d
C1 C 0.0456(3) 0.2397(2) 0.49070(10) 0.0136(3) Uani 1 1 d
C2 C 0.2449(3) 0.2175(2) 0.42639(10) 0.0150(3) Uani 1 1 d
C3 C 0.1889(3) 0.2888(2) 0.34813(10) 0.0128(3) Uani 1 1 d
C4 C 0.3646(3) 0.2751(2) 0.27961(10) 0.0118(3) Uani 1 1 d
C5 C 0.6231(3) 0.1672(2) 0.28786(10) 0.0125(3) Uani 1 1 d
C6 C 0.7774(3) 0.1540(2) 0.21998(10) 0.0133(3) Uani 1 1 d
C7 C 0.6759(3) 0.2486(2) 0.14388(9) 0.0123(3) Uani 1 1 d
C8 C 0.4227(3) 0.3574(2) 0.13388(10) 0.0133(3) Uani 1 1 d
C9 C 0.2692(3) 0.3691(2) 0.20208(10) 0.0131(3) Uani 1 1 d
C13 C 0.6565(3) 0.7795(2) 0.10061(10) 0.0178(3) Uani 1 1 d
C12 C 0.4622(3) 0.8178(2) 0.16858(10) 0.0138(3) Uani 1 1 d
C11 C 0.5727(3) 0.7092(2) 0.25156(10) 0.0129(3) Uani 1 1 d
C10 C 0.3787(3) 0.7483(2) 0.31897(10) 0.0134(3) Uani 1 1 d
H1NA H 0.574(5) 0.539(4) 0.4044(16) 0.026(6) Uiso 1 1 d
H1NB H 0.381(5) 0.688(4) 0.4388(17) 0.029(6) Uiso 1 1 d
H1NC H 0.617(6) 0.719(4) 0.4114(18) 0.040(7) Uiso 1 1 d
H2 H 0.419(5) 0.147(4) 0.4426(18) 0.036(7) Uiso 1 1 d
H3 H 0.010(5) 0.355(4) 0.3332(17) 0.034(7) Uiso 1 1 d
H5 H 0.689(4) 0.100(3) 0.3372(14) 0.013(5) Uiso 1 1 d
H6 H 0.951(4) 0.078(3) 0.2265(13) 0.014(5) Uiso 1 1 d
H8 H 0.358(4) 0.419(3) 0.0817(14) 0.018(5) Uiso 1 1 d
H9 H 0.101(5) 0.437(3) 0.1960(15) 0.022(6) Uiso 1 1 d
H12A H 0.310(4) 0.784(3) 0.1561(13) 0.013(5) Uiso 1 1 d
H12B H 0.407(4) 0.951(3) 0.1719(13) 0.013(5) Uiso 1 1 d
H11A H 0.635(4) 0.577(3) 0.2484(13) 0.014(5) Uiso 1 1 d
H11B H 0.719(4) 0.749(3) 0.2654(13) 0.017(5) Uiso 1 1 d
H10A H 0.244(4) 0.700(3) 0.3104(13) 0.012(5) Uiso 1 1 d
H10B H 0.297(4) 0.885(3) 0.3198(13) 0.012(5) Uiso 1 1 d
H13A H 0.710(4) 0.653(3) 0.0937(13) 0.015(5) Uiso 1 1 d
H13B H 0.580(5) 0.855(4) 0.0476(17) 0.031(7) Uiso 1 1 d
H13C H 0.801(4) 0.820(3) 0.1141(13) 0.014(5) Uiso 1 1 d
loop_
_atom_site_aniso_label
_atom_site_aniso_U_11
_atom_site_aniso_U_22
_atom_site_aniso_U_33
_atom_site_aniso_U_23
_atom_site_aniso_U_13
_atom_site_aniso_U_12
Br1 0.01351(11) 0.01823(11) 0.01236(10) -0.00172(6) 0.00187(6) -0.00208(7)
N1 0.0108(6) 0.0171(7) 0.0125(7) 0.0017(5) -0.0005(5) 0.0002(5)
O1 0.0105(5) 0.0194(6) 0.0148(6) 0.0004(4) -0.0010(4) -0.0009(4)
O2 0.0136(6) 0.0256(6) 0.0133(6) 0.0023(5) -0.0016(4) -0.0031(5)
C1 0.0125(7) 0.0118(7) 0.0143(7) 0.0001(6) 0.0001(6) -0.0013(6)
C2 0.0088(7) 0.0176(8) 0.0151(8) 0.0003(6) -0.0011(6) -0.0002(6)
C3 0.0086(7) 0.0125(7) 0.0149(7) -0.0011(6) -0.0001(6) -0.0001(6)
C4 0.0114(7) 0.0108(7) 0.0123(7) -0.0006(5) -0.0011(5) -0.0023(6)
C5 0.0103(7) 0.0127(7) 0.0120(7) 0.0009(6) -0.0030(6) -0.0012(6)
C6 0.0088(7) 0.0121(7) 0.0165(8) -0.0009(6) -0.0018(6) 0.0001(6)
C7 0.0132(7) 0.0132(7) 0.0104(7) -0.0021(5) 0.0010(5) -0.0037(6)
C8 0.0122(7) 0.0132(7) 0.0125(7) 0.0013(6) -0.0028(6) -0.0022(6)
C9 0.0085(7) 0.0125(7) 0.0153(7) 0.0002(6) -0.0026(6) 0.0000(6)
C13 0.0180(8) 0.0175(8) 0.0150(8) 0.0003(6) 0.0002(6) -0.0027(6)
C12 0.0123(7) 0.0130(7) 0.0131(7) 0.0009(6) -0.0021(6) -0.0006(6)
C11 0.0111(7) 0.0121(7) 0.0127(7) -0.0003(5) -0.0013(6) -0.0003(6)
C10 0.0105(7) 0.0141(7) 0.0122(7) 0.0010(6) -0.0021(6) -0.0002(6)
loop_
_atom_type_symbol
_atom_type_description
_atom_type_scat_dispersion_real
_atom_type_scat_dispersion_imag
_atom_type_scat_source
C C 0.0033 0.0016 'International Tables Vol C Tables 4.2.6.8 and 6.1.1.4'
H H 0.0000 0.0000 'International Tables Vol C Tables 4.2.6.8 and 6.1.1.4'
Br Br -0.2901 2.4595 'International Tables Vol C Tables 4.2.6.8 and 6.1.1.4'
N N 0.0061 0.0033 'International Tables Vol C Tables 4.2.6.8 and 6.1.1.4'
O O 0.0106 0.0060 'International Tables Vol C Tables 4.2.6.8 and 6.1.1.4'
loop_
_geom_angle_atom_site_label_1
_geom_angle_atom_site_label_2
_geom_angle_atom_site_label_3
_geom_angle
O2 C1 O1 124.40(15)
O2 C1 C2 117.31(14)
O1 C1 C2 118.29(14)
C3 C2 C1 122.15(14)
C2 C3 C4 127.43(15)
C9 C4 C5 118.52(14)
C9 C4 C3 118.54(14)
C5 C4 C3 122.91(14)
C6 C5 C4 120.15(14)
C5 C6 C7 119.76(14)
C8 C7 C6 121.49(15)
C8 C7 Br1 119.30(12)
C6 C7 Br1 119.20(12)
C7 C8 C9 118.39(15)
C8 C9 C4 121.68(14)
C11 C12 C13 112.16(13)
C10 C11 C12 111.90(13)
N1 C10 C11 111.21(13)
loop_
_geom_bond_atom_site_label_1
_geom_bond_atom_site_label_2
_geom_bond_distance
Br1 C7 1.8978(16)
N1 C10 1.484(2)
O1 C1 1.267(2)
O2 C1 1.257(2)
C1 C2 1.502(2)
C2 C3 1.331(2)
C3 C4 1.469(2)
C4 C9 1.401(2)
C4 C5 1.407(2)
C5 C6 1.389(2)
C6 C7 1.390(2)
C7 C8 1.386(2)
C8 C9 1.391(2)
C13 C12 1.529(2)
C12 C11 1.527(2)
C11 C10 1.522(2)
loop_
_geom_hbond_atom_site_label_D
_geom_hbond_atom_site_label_H
_geom_hbond_atom_site_label_A
_geom_hbond_distance_DH
_geom_hbond_distance_HA
_geom_hbond_distance_DA
_geom_hbond_angle_DHA
_geom_hbond_site_symmetry_A
N1 H1NA O1 0.88(3) 2.04(3) 2.8355(19) 149(2) 1_655
N1 H1NB O1 0.89(3) 1.86(3) 2.7375(19) 168(3) 2_566
N1 H1NB O2 0.89(3) 2.64(3) 3.3190(19) 134(2) 2_566
N1 H1NC O2 0.93(3) 1.82(3) 2.743(2) 173(3) 2_666
