#------------------------------------------------------------------------------
#$Date: 2016-03-21 01:21:50 +0200 (Mon, 21 Mar 2016) $
#$Revision: 178377 $
#$URL: svn://www.crystallography.net/cod/cif/4/00/12/4001260.cif $
#------------------------------------------------------------------------------
#
# This file is available in the Crystallography Open Database (COD),
# http://www.crystallography.net/
#
# All data on this site have been placed in the public domain by the
# contributors.
#
data_4001260
loop_
_publ_author_name
'Manson, Jamie L.'
'Conner, Marianne M.'
'Schlueter, John A.'
'McConnell, Amber C.'
'Southerland, Heather I.'
'Malfant, Isabelle'
'Lancaster, Tom'
'Blundell, Stephen J.'
'Brooks, Michael L.'
'Pratt, Francis L.'
'Singleton, John'
'McDonald, Ross D.'
'Lee, Changhoon'
'Whangbo, Myung-Hwan'
_publ_section_title
;
 Experimental and Theoretical Characterization of the Magnetic Properties
 of CuF2(H2O)2(pyz) (pyz = pyrazine): A Two-Dimensional Quantum Magnet
 Arising from Supersuperexchange Interactions through Hydrogen Bonded
 Paths
;
_journal_issue                   24
_journal_name_full               'Chemistry of Materials'
_journal_page_first              7408
_journal_paper_doi               10.1021/cm8016566
_journal_volume                  20
_journal_year                    2008
_chemical_formula_moiety         'Cu 2+, 2(F 1-), C4 H4 N2, 2(H2 O)'
_chemical_formula_sum            'C4 H8 Cu F2 N2 O2'
_chemical_formula_weight         217.66
_chemical_name_common
; 
Copper(II) fluoride pyrazine hydrate 
;
_chemical_name_systematic
; 
 ? 
;
_space_group_IT_number           14
_symmetry_cell_setting           monoclinic
_symmetry_Int_Tables_number      14
_symmetry_space_group_name_Hall  '-P 2ybc'
_symmetry_space_group_name_H-M   'P 1 21/c 1'
_atom_sites_solution_hydrogens   geom
_atom_sites_solution_primary     direct
_atom_sites_solution_secondary   difmap
_audit_creation_method           'manual editing of SHELXL-97 cif file'
_cell_angle_alpha                90.00
_cell_angle_beta                 111.966(6)
_cell_angle_gamma                90.00
_cell_formula_units_Z            2
_cell_length_a                   7.6617(12)
_cell_length_b                   7.5402(13)
_cell_length_c                   6.8674(11)
_cell_measurement_reflns_used    1496
_cell_measurement_temperature    150(2)
_cell_measurement_theta_max      28.291
_cell_measurement_theta_min      2.702
_cell_volume                     367.93(11)
_computing_cell_refinement       'SAINT (Bruker, 2001)'
_computing_data_collection       'SMART (Siemens, 1995)'
_computing_data_reduction        'SAINT (Bruker, 2001)'
_computing_molecular_graphics    'SHELXTL (Sheldrick, 2001)'
_computing_publication_material  'SHELXTL (Sheldrick, 2001)'
_computing_structure_refinement  'SHELXTL (Sheldrick, 2001)'
_computing_structure_solution    'SHELXTL (Sheldrick, 2001)'
_diffrn_ambient_temperature      150(2)
_diffrn_measured_fraction_theta_full 0.963
_diffrn_measured_fraction_theta_max 0.963
_diffrn_measurement_device_type  'Siemens SMART CCD area detector'
_diffrn_measurement_method       'area detector \w scans'
_diffrn_radiation_monochromator  graphite
_diffrn_radiation_source         'fine-focus sealed tube'
_diffrn_radiation_type           MoK\a
_diffrn_radiation_wavelength     0.71073
_diffrn_reflns_av_R_equivalents  0.0286
_diffrn_reflns_av_sigmaI/netI    0.0270
_diffrn_reflns_limit_h_max       10
_diffrn_reflns_limit_h_min       -10
_diffrn_reflns_limit_k_max       9
_diffrn_reflns_limit_k_min       -10
_diffrn_reflns_limit_l_max       8
_diffrn_reflns_limit_l_min       -9
_diffrn_reflns_number            3260
_diffrn_reflns_theta_full        28.29
_diffrn_reflns_theta_max         28.29
_diffrn_reflns_theta_min         3.94
_diffrn_standards_number         0
_exptl_absorpt_coefficient_mu    2.956
_exptl_absorpt_correction_T_max  0.480
_exptl_absorpt_correction_T_min  0.218
_exptl_absorpt_correction_type   integration
_exptl_absorpt_process_details
;
(Sheldrick, 2001)
;
_exptl_crystal_colour            'pale blue'
_exptl_crystal_density_diffrn    1.965
_exptl_crystal_density_method    'not measured'
_exptl_crystal_description       rod
_exptl_crystal_F_000             218
_exptl_crystal_size_max          0.56
_exptl_crystal_size_mid          0.44
_exptl_crystal_size_min          0.28
_refine_diff_density_max         0.437
_refine_diff_density_min         -0.447
_refine_diff_density_rms         0.109
_refine_ls_extinction_coef       0.219(15)
_refine_ls_extinction_expression Fc^*^=kFc[1+0.001xFc^2^\l^3^/sin(2\q)]^-1/4^
_refine_ls_extinction_method     SHELXL
_refine_ls_goodness_of_fit_ref   1.219
_refine_ls_hydrogen_treatment    mixed
_refine_ls_matrix_type           full
_refine_ls_number_parameters     59
_refine_ls_number_reflns         875
_refine_ls_number_restraints     2
_refine_ls_restrained_S_all      1.221
_refine_ls_R_factor_all          0.0239
_refine_ls_R_factor_gt           0.0234
_refine_ls_shift/su_max          0.003
_refine_ls_shift/su_mean         0.000
_refine_ls_structure_factor_coef Fsqd
_refine_ls_weighting_details
'calc w=1/[\s^2^(Fo^2^)+(0.0500P)^2^+0.1181P] where P=(Fo^2^+2Fc^2^)/3'
_refine_ls_weighting_scheme      calc
_refine_ls_wR_factor_gt          0.0831
_refine_ls_wR_factor_ref         0.0838
_reflns_number_gt                845
_reflns_number_total             875
_reflns_threshold_expression     >2sigma(I)
_cod_data_source_file            cm8016566_si_002.cif
_cod_data_source_block           CuF2(H2O)2(pyz)150K
_cod_original_cell_volume        367.93(10)
_cod_original_sg_symbol_H-M      P21/c
_cod_database_code               4001260
loop_
_symmetry_equiv_pos_as_xyz
'x, y, z'
'-x, y+1/2, -z+1/2'
'-x, -y, -z'
'x, -y-1/2, z-1/2'
loop_
_atom_site_label
_atom_site_type_symbol
_atom_site_fract_x
_atom_site_fract_y
_atom_site_fract_z
_atom_site_U_iso_or_equiv
_atom_site_adp_type
_atom_site_occupancy
_atom_site_symmetry_multiplicity
_atom_site_calc_flag
_atom_site_refinement_flags
Cu Cu 0.0000 0.0000 0.0000 0.0119(2) Uani 1 2 d S
F F -0.02403(15) -0.25241(18) -0.01314(13) 0.0179(3) Uani 1 1 d .
O O -0.1126(3) 0.00884(13) -0.3105(3) 0.0157(4) Uani 1 1 d D
H3 H -0.091(4) -0.079(3) -0.361(4) 0.019 Uiso 1 1 d D
H4 H -0.069(4) 0.088(3) -0.352(4) 0.019 Uiso 1 1 d D
N N -0.3165(3) 0.01325(18) 0.0042(3) 0.0197(4) Uani 1 1 d .
C1 C -0.3717(2) 0.1025(2) 0.1390(3) 0.0214(4) Uani 1 1 d .
H1 H -0.2842 0.1771 0.2405 0.026 Uiso 1 1 calc R
C2 C -0.4459(2) -0.0891(2) -0.1345(3) 0.0233(4) Uani 1 1 d .
H2 H -0.4124 -0.1549 -0.2333 0.028 Uiso 1 1 calc R
loop_
_atom_site_aniso_label
_atom_site_aniso_U_11
_atom_site_aniso_U_22
_atom_site_aniso_U_33
_atom_site_aniso_U_23
_atom_site_aniso_U_13
_atom_site_aniso_U_12
Cu 0.0139(3) 0.0086(3) 0.0143(3) 0.00035(6) 0.00665(17) 0.00049(6)
F 0.0248(5) 0.0095(5) 0.0222(6) 0.0005(3) 0.0120(4) 0.0003(3)
O 0.0178(8) 0.0116(7) 0.0189(8) 0.0001(3) 0.0083(6) 0.0003(3)
N 0.0139(8) 0.0221(9) 0.0235(11) -0.0016(5) 0.0073(7) -0.0016(4)
C1 0.0167(7) 0.0246(7) 0.0232(8) -0.0057(6) 0.0080(6) -0.0048(5)
C2 0.0184(8) 0.0277(8) 0.0262(9) -0.0096(6) 0.0112(6) -0.0038(6)
loop_
_atom_type_symbol
_atom_type_description
_atom_type_scat_dispersion_real
_atom_type_scat_dispersion_imag
_atom_type_scat_source
C C 0.0033 0.0016 'International Tables Vol C Tables 4.2.6.8 and 6.1.1.4'
H H 0.0000 0.0000 'International Tables Vol C Tables 4.2.6.8 and 6.1.1.4'
N N 0.0061 0.0033 'International Tables Vol C Tables 4.2.6.8 and 6.1.1.4'
O O 0.0106 0.0060 'International Tables Vol C Tables 4.2.6.8 and 6.1.1.4'
F F 0.0171 0.0103 'International Tables Vol C Tables 4.2.6.8 and 6.1.1.4'
Cu Cu 0.3201 1.2651 'International Tables Vol C Tables 4.2.6.8 and 6.1.1.4'
loop_
_geom_angle_atom_site_label_1
_geom_angle_atom_site_label_2
_geom_angle_atom_site_label_3
_geom_angle
_geom_angle_site_symmetry_1
_geom_angle_site_symmetry_3
F Cu F 180.00(6) 3 .
F Cu O 89.27(4) . .
O Cu O 180.0 . 3
F Cu N 87.86(4) . .
O Cu N 88.66(7) . .
N Cu N 180.0 3 .
Cu O H3 111(2) . .
Cu O H4 110(2) . .
H3 O H4 107(4) . .
C2 N C1 116.30(18) . .
C2 N Cu 116.41(13) . .
C1 N Cu 127.13(14) . .
N C1 C2 121.67(16) . 3_455
N C1 H1 119.2 . .
C2 C1 H1 119.2 3_455 .
N C2 C1 122.03(16) . 3_455
N C2 H2 119.0 . .
C1 C2 H2 119.0 3_455 .
loop_
_geom_bond_atom_site_label_1
_geom_bond_atom_site_label_2
_geom_bond_distance
_geom_bond_site_symmetry_2
Cu F 1.9110(14) .
Cu O 1.9794(19) .
Cu N 2.438(2) .
O H3 0.796(17) .
O H4 0.787(16) .
N C2 1.334(2) .
N C1 1.335(3) .
C1 C2 1.389(2) 3_455
C1 H1 0.9500 .
C2 H2 0.9500 .
loop_
_geom_torsion_atom_site_label_1
_geom_torsion_atom_site_label_2
_geom_torsion_atom_site_label_3
_geom_torsion_atom_site_label_4
_geom_torsion
_geom_torsion_site_symmetry_1
_geom_torsion_site_symmetry_4
F Cu N C2 134.39(14) 3 .
F Cu N C2 -45.61(14) . .
O Cu N C2 43.70(14) . .
O Cu N C2 -136.30(14) 3 .
F Cu N C1 -50.44(15) 3 .
F Cu N C1 129.56(15) . .
O Cu N C1 -141.12(15) . .
O Cu N C1 38.88(15) 3 .
C2 N C1 C2 0.0(3) . 3_455
Cu N C1 C2 -175.17(13) . 3_455
C1 N C2 C1 0.0(3) . 3_455
Cu N C2 C1 175.70(13) . 3_455
