#------------------------------------------------------------------------------
#$Date: 2023-12-06 14:42:42 +0200 (Wed, 06 Dec 2023) $
#$Revision: 288070 $
#$URL: file:///home/coder/svn-repositories/cod/cif/4/00/22/4002212.cif $
#------------------------------------------------------------------------------
#
# This file is available in the Crystallography Open Database (COD),
# http://www.crystallography.net/
#
# All data on this site have been placed in the public domain by the
# contributors.
#
data_4002212
loop_
_publ_author_name
'S\"ollradl, Stefan'
'Greiwe, Magnus'
'Bukas, Vanessa J.'
'Buchner, Magnus R.'
'Widenmeyer, Marc'
'Kandemir, Timur'
'Zweifel, Tobias'
'Senyshyn, Anatoliy'
'G\"unther, Sebastian'
'Nilges, Tom'
'T\"urler, Andreas'
'Niewa, Rainer'
_publ_section_title
;
 Nitrogen-Doping in ZnO via Combustion Synthesis?
;
_journal_issue                   12
_journal_name_full               'Chemistry of Materials'
_journal_page_first              4188
_journal_paper_doi               10.1021/cm504200q
_journal_volume                  27
_journal_year                    2015
_chemical_formula_sum            'C3 H3 N3 O3'
_chemical_formula_weight         129.1
_space_group_IT_number           15
_symmetry_cell_setting           monoclinic
_symmetry_Int_Tables_number      15
_symmetry_space_group_name_Hall  '-C 2yc'
_symmetry_space_group_name_H-M   'C 1 2/c 1'
_cell_angle_alpha                90
_cell_angle_beta                 90.737(7)
_cell_angle_gamma                90
_cell_formula_units_Z            4
_cell_length_a                   7.9160(7)
_cell_length_b                   6.7366(3)
_cell_length_c                   9.0780(8)
_cell_measurement_reflns_used    8367
_cell_measurement_temperature    293
_cell_measurement_theta_max      32.11
_cell_measurement_theta_min      3.97
_cell_volume                     484.06(6)
_computing_cell_refinement       'X-Area (STOE, 2011)'
_computing_data_collection       'X-Area (STOE, 2011)'
_computing_data_reduction        'X-Area (STOE, 2011)'
_computing_molecular_graphics    'DIAMOND (Brandenburg, 2005)'
_computing_publication_material  'publCIF (Westrip, 2010)'
_computing_structure_refinement
;
'Jana2006 (Petricek, V., Dusek, M. & Palatinus L., 2006)'
;
_computing_structure_solution
;
'Jana2006 (Petricek, V., Dusek, M. & Palatinus L., 2006)'
;
_diffrn_ambient_temperature      293(2)
_diffrn_detector                 'image plate (34 cm diameter)'
_diffrn_measured_fraction_theta_full 0.99
_diffrn_measured_fraction_theta_max 0.99
_diffrn_measurement_device       'four-cycle diffractometer'
_diffrn_measurement_device_type  'IPDS Stoe 2T'
_diffrn_measurement_method       '??integration method??'
_diffrn_radiation_monochromator  'plane graphite'
_diffrn_radiation_probe          x-ray
_diffrn_radiation_source         X-ray
_diffrn_radiation_type           'Mo K\a'
_diffrn_radiation_wavelength     0.71073
_diffrn_reflns_av_R_equivalents  0
_diffrn_reflns_av_sigmaI/netI    0.0267
_diffrn_reflns_limit_h_max       11
_diffrn_reflns_limit_h_min       -11
_diffrn_reflns_limit_k_max       9
_diffrn_reflns_limit_k_min       0
_diffrn_reflns_limit_l_max       13
_diffrn_reflns_limit_l_min       0
_diffrn_reflns_number            828
_diffrn_reflns_theta_full        32.01
_diffrn_reflns_theta_max         32.01
_diffrn_reflns_theta_min         3.99
_diffrn_source                   'sealed X-ray tube'
_diffrn_source_current           40
_diffrn_source_voltage           50
_exptl_absorpt_coefficient_mu    0.151
_exptl_absorpt_correction_T_max  0.9678
_exptl_absorpt_correction_T_min  0.8556
_exptl_absorpt_correction_type   numerical
_exptl_crystal_colour            colourless
_exptl_crystal_density_diffrn    1.7706
_exptl_crystal_description       plate
_exptl_crystal_F_000             264
_exptl_crystal_size_max          0.40
_exptl_crystal_size_mid          0.23
_exptl_crystal_size_min          0.08
_refine_diff_density_max         0.18
_refine_diff_density_min         -0.20
_refine_ls_extinction_coef       0.16
_refine_ls_extinction_method     none
_refine_ls_goodness_of_fit_gt    2.18
_refine_ls_goodness_of_fit_ref   1.64
_refine_ls_hydrogen_treatment    refall
_refine_ls_number_constraints    0
_refine_ls_number_parameters     49
_refine_ls_number_reflns         828
_refine_ls_number_restraints     0
_refine_ls_R_factor_all          0.0539
_refine_ls_R_factor_gt           0.0313
_refine_ls_shift/su_max          0.0035
_refine_ls_shift/su_mean         0.0009
_refine_ls_structure_factor_coef Fsqd
_refine_ls_weighting_details     w=1/(\s^2^(I)+0.0004I^2^)
_refine_ls_weighting_scheme      sigma
_refine_ls_wR_factor_gt          0.0777
_refine_ls_wR_factor_ref         0.0790
_reflns_number_gt                478
_reflns_number_total             828
_reflns_threshold_expression     I>3\s(I)
_cod_data_source_file            cm504200q_si_002.cif
_cod_data_source_block           CHNO
_cod_depositor_comments
;
The following automatic conversions were performed:

'_diffrn_radiation_probe' value 'X-ray' changed to 'x-ray' according
to
/usr/data/users/saulius/crontab/automatic-downloads/rss-feeds/ACS/lib/dictionaries/cif_core.dic
dictionary named 'cif_core.dic' version 2.4.2 from 2011-04-26.

Automatic conversion script
Id: cif_fix_values 3271 2015-04-21 07:52:19Z andrius 

 Adding full bibliography for 4002212.cif.

The following automatic conversions were performed:

data name '_atom_site_site_symmetry_mutiplicity' was replaced with
'_atom_site_site_symmetry_multiplicity' as specified in the
replacement file 'data/replacement-values/replacement_tags.lst'.

Automatic conversion script
Id: cif_correct_tags 9268 2022-04-12 08:56:07Z antanas 
;
_cod_database_code               4002212
loop_
_symmetry_equiv_pos_site_id
_symmetry_equiv_pos_as_xyz
1 x,y,z
2 -x,y,-z+1/2
3 -x,-y,-z
4 x,-y,z+1/2
5 x+1/2,y+1/2,z
6 -x+1/2,y+1/2,-z+1/2
7 -x+1/2,-y+1/2,-z
8 x+1/2,-y+1/2,z+1/2
loop_
_atom_site_label
_atom_site_type_symbol
_atom_site_fract_x
_atom_site_fract_y
_atom_site_fract_z
_atom_site_adp_type
_atom_site_U_iso_or_equiv
_atom_site_site_symmetry_multiplicity
_atom_site_occupancy
_atom_site_calc_flag
O1 O 0 0.40153(19) 0.25 Uani 0.0464(5) 4 1 d
O2 O 0.31485(13) 0.51505(13) 0.55765(10) Uani 0.0352(3) 8 1 d
N1 N 0 0.9871(2) 0.25 Uani 0.0284(4) 4 1 d
N2 N 0.59303(16) 0.19032(16) 0.34880(13) Uani 0.0305(3) 8 1 d
C3 C 0 0.5811(3) 0.25 Uani 0.0297(5) 4 1 d
C4 C 0.40101(17) 0.39325(16) 0.14637(14) Uani 0.0259(3) 8 1 d
H1 H 0.1491(19) 0.625(2) 0.4108(17) Uiso 0.038(5) 8 1 d
H2 H 0 0.123(4) 0.25 Uiso 0.050(7) 4 1 d
loop_
_atom_site_aniso_label
_atom_site_aniso_type_symbol
_atom_site_aniso_U_11
_atom_site_aniso_U_22
_atom_site_aniso_U_33
_atom_site_aniso_U_12
_atom_site_aniso_U_13
_atom_site_aniso_U_23
O1 O 0.0588(10) 0.0190(6) 0.0610(10) 0 -0.0155(8) 0
O2 O 0.0418(5) 0.0269(5) 0.0365(4) 0.0006(4) -0.0183(4) -0.0030(4)
N1 N 0.0380(8) 0.0177(7) 0.0292(7) 0 -0.0127(6) 0
N2 N 0.0365(5) 0.0220(5) 0.0327(5) 0.0034(5) -0.0139(4) 0.0030(5)
C3 C 0.0335(10) 0.0203(8) 0.0351(10) 0 -0.0064(8) 0
C4 C 0.0284(6) 0.0231(5) 0.0259(6) -0.0019(5) -0.0055(5) 0.0000(5)
loop_
_atom_type_symbol
_atom_type_scat_dispersion_real
_atom_type_scat_dispersion_imag
_atom_type_scat_source
C 0.0034 0.0017 'International Tables Vol C tables 4.2.6.8 and 6.1.1.1'
H 0.0000 0.0000 'International Tables Vol C tables 4.2.6.8 and 6.1.1.1'
N 0.0067 0.0035 'International Tables Vol C tables 4.2.6.8 and 6.1.1.1'
O 0.0115 0.0063 'International Tables Vol C tables 4.2.6.8 and 6.1.1.1'
loop_
_geom_angle_atom_site_label_1
_geom_angle_atom_site_label_2
_geom_angle_atom_site_label_3
_geom_angle_site_symmetry_1
_geom_angle_site_symmetry_3
_geom_angle
C4 N1 C4 5_455 6_555 125.06(13)
C4 N1 H2 5_455 1_565 117.47(7)
C4 N1 H2 6_555 1_565 117.47(7)
C3 N2 C4 5_545 2_655 125.20(12)
C3 N2 H1 5_545 5_545 115.8(11)
C4 N2 H1 2_655 5_545 118.9(11)
O1 C3 N2 . 5_455 122.55(8)
O1 C3 N2 . 6_555 122.55(8)
N2 C3 N2 5_455 6_555 114.91(14)
O2 C4 N1 4_564 5_545 122.03(11)
O2 C4 N2 4_564 2_655 123.16(12)
N1 C4 N2 5_545 2_655 114.81(12)
loop_
_geom_bond_atom_site_label_1
_geom_bond_atom_site_label_2
_geom_bond_site_symmetry_2
_geom_bond_distance
O1 C3 . 1.210(2)
O2 C4 4_565 1.2171(16)
N1 C4 5_455 1.3712(14)
N1 C4 6_555 1.3712(14)
N1 H2 1_565 0.92(3)
N2 C3 5_545 1.3680(15)
N2 C4 2_655 1.3686(15)
N2 H1 5_545 0.837(15)
loop_
_geom_hbond_atom_site_label_D
_geom_hbond_atom_site_label_H
_geom_hbond_atom_site_label_A
_geom_hbond_site_symmetry_D
_geom_hbond_distance_DH
_geom_hbond_distance_HA
_geom_hbond_distance_DA
_geom_hbond_angle_DHA
N2 H1 O2 5_455 0.837(15) 2.001(15) 2.8260(16) 168.7(15)
N1 H2 O1 1_545 0.92(3) 1.87(3) 2.792(2) **
loop_
_refln_index_h
_refln_index_k
_refln_index_l
_refln_F_squared_calc
_refln_F_squared_meas
_refln_F_squared_sigma
_refln_observed_status
2 0 0 3582.78 3293.23 10.44 o
4 0 0 0.03 1.70 2.25 <
6 0 0 99.82 99.66 2.58 o
8 0 0 15.11 14.61 2.40 o
10 0 0 264.17 252.10 3.65 o
1 1 0 266.82 148.44 4.00 o
3 1 0 2201.33 2283.64 7.12 o
5 1 0 87.25 79.00 2.57 o
7 1 0 37.19 39.35 2.53 o
9 1 0 1.08 2.82 2.76 <
11 1 0 13.11 13.03 3.63 o
2 2 0 23.70 26.12 2.58 o
4 2 0 628.01 650.78 3.91 o
6 2 0 740.76 773.74 4.07 o
8 2 0 0.46 1.53 2.52 <
10 2 0 14.93 13.97 3.11 o
1 3 0 2297.49 2494.29 7.40 o
3 3 0 187.04 178.78 2.98 o
5 3 0 228.31 237.29 3.11 o
7 3 0 0.33 0.80 2.52 <
9 3 0 0.61 2.42 2.96 <
11 3 0 23.46 24.06 4.03 o
0 4 0 18.36 14.82 2.45 o
2 4 0 556.19 544.89 4.02 o
4 4 0 20.60 19.92 2.54 o
6 4 0 137.59 138.50 2.89 o
8 4 0 41.82 43.75 2.94 o
10 4 0 1.93 4.29 3.63 <
1 5 0 56.58 48.20 2.57 o
3 5 0 115.99 118.96 2.92 o
5 5 0 1459.90 1459.02 5.43 o
7 5 0 143.33 149.43 3.31 o
9 5 0 5.49 6.39 3.58 <
0 6 0 48.82 43.85 2.67 o
2 6 0 137.61 141.11 3.04 o
4 6 0 15.92 18.53 2.89 o
6 6 0 0.57 1.11 3.00 <
8 6 0 40.91 37.29 3.68 o
1 7 0 291.31 250.97 3.55 o
3 7 0 4.28 5.01 2.99 <
5 7 0 69.14 72.71 3.33 o
7 7 0 6.65 8.27 3.69 <
0 8 0 21.34 19.84 3.24 o
2 8 0 7.63 7.77 3.40 <
4 8 0 8.70 12.23 3.78 o
6 8 0 27.86 30.64 4.11 o
1 9 0 46.44 49.95 4.16 o
3 9 0 14.03 19.62 4.47 o
5 9 0 3.99 7.57 4.80 <
-11 1 1 26.27 22.51 3.63 o
-9 1 1 0.27 0.26 2.68 <
-7 1 1 136.10 141.12 2.73 o
-5 1 1 406.26 398.32 3.34 o
-3 1 1 105.62 110.11 2.91 o
1 1 1 106.96 96.56 3.97 o
3 1 1 1659.16 1630.72 6.06 o
5 1 1 492.98 519.53 3.50 o
7 1 1 0.23 1.14 2.40 <
9 1 1 88.43 89.78 2.90 o
11 1 1 13.01 12.43 3.58 o
-10 2 1 2.06 0.70 3.19 <
-8 2 1 0.08 1.20 2.56 <
-6 2 1 0.89 0.87 2.44 <
-4 2 1 0.15 0.80 2.38 <
-2 2 1 119.09 141.87 2.98 o
0 2 1 161.80 185.33 3.82 o
2 2 1 4.17 10.02 2.60 o
4 2 1 54.64 46.77 2.51 o
6 2 1 3.07 2.31 2.53 <
8 2 1 7.72 6.95 2.56 <
10 2 1 2.23 3.72 3.19 <
-11 3 1 10.93 9.56 3.96 <
-9 3 1 1.78 2.06 2.88 <
-7 3 1 0.25 0.62 2.51 <
-5 3 1 25.95 23.28 2.56 o
-3 3 1 24.92 24.93 2.45 o
-1 3 1 258.92 248.33 3.41 o
1 3 1 102.36 124.73 3.01 o
3 3 1 75.73 64.75 2.72 o
5 3 1 0.49 2.42 2.49 <
7 3 1 0.11 0.64 2.46 <
9 3 1 24.83 23.39 3.04 o
11 3 1 2.44 3.79 3.97 <
-10 4 1 3.49 4.71 3.67 <
-8 4 1 21.87 22.23 2.89 o
-6 4 1 75.13 82.36 2.81 o
-4 4 1 52.85 52.55 2.62 o
-2 4 1 847.28 915.95 4.68 o
0 4 1 997.10 1129.39 5.33 o
2 4 1 114.75 112.55 2.90 o
4 4 1 127.19 133.40 3.04 o
6 4 1 46.99 48.06 2.73 o
8 4 1 18.65 18.09 2.89 o
10 4 1 33.33 31.81 3.72 o
-9 5 1 0.58 0.37 3.61 <
-7 5 1 62.39 58.89 3.14 o
-5 5 1 39.28 41.33 2.76 o
-3 5 1 2.19 2.97 2.55 <
-1 5 1 48.83 49.56 2.71 o
1 5 1 4.68 4.18 2.53 <
3 5 1 102.60 103.88 3.02 o
5 5 1 147.10 137.06 2.87 o
7 5 1 0.13 0.63 3.05 <
9 5 1 1.37 0.66 3.67 <
-8 6 1 8.47 9.40 3.65 <
-6 6 1 143.74 142.65 3.53 o
-4 6 1 9.40 7.62 2.77 <
-2 6 1 120.87 107.21 2.90 o
0 6 1 150.07 126.77 2.94 o
2 6 1 12.79 11.22 2.71 o
4 6 1 307.97 308.98 3.48 o
6 6 1 9.23 10.26 2.98 o
8 6 1 37.76 39.77 3.54 o
-7 7 1 16.58 15.91 3.96 o
-5 7 1 17.56 16.91 3.55 o
-3 7 1 6.49 7.37 3.13 <
-1 7 1 147.25 151.94 3.31 o
1 7 1 7.77 9.37 2.81 o
3 7 1 40.41 40.86 3.18 o
5 7 1 37.94 37.41 3.15 o
7 7 1 4.46 6.14 3.69 <
-6 8 1 37.72 40.92 4.62 o
-4 8 1 2.54 2.68 3.76 <
-2 8 1 0.02 0.66 3.46 <
0 8 1 0.51 2.93 3.32 <
2 8 1 5.91 3.93 3.45 <
4 8 1 66.59 75.41 3.80 o
6 8 1 2.01 5.69 3.93 <
-5 9 1 16.06 16.73 4.60 o
-3 9 1 9.68 12.48 4.33 <
-1 9 1 0.99 5.07 4.14 <
1 9 1 12.26 16.59 4.12 o
3 9 1 38.59 42.92 4.28 o
5 9 1 58.51 58.01 4.87 o
-10 0 2 4.16 4.48 3.09 <
-8 0 2 4.47 5.33 2.51 <
-6 0 2 3.27 3.98 2.44 <
-4 0 2 1045.25 1079.76 4.75 o
0 0 2 2924.38 2623.30 10.34 o
2 0 2 8.43 19.87 2.79 o
4 0 2 483.69 488.37 3.54 o
6 0 2 46.58 45.02 2.56 o
8 0 2 959.86 946.96 4.30 o
10 0 2 121.39 121.25 3.46 o
-11 1 2 0.00 0.27 3.61 <
-9 1 2 6.57 6.12 2.73 <
-7 1 2 3.69 3.97 2.34 <
-5 1 2 490.31 508.67 3.58 o
-3 1 2 158.03 172.90 3.02 o
-1 1 2 107.40 106.46 3.50 o
1 1 2 3419.49 3324.35 9.23 o
3 1 2 348.04 381.63 3.54 o
5 1 2 165.25 162.10 2.83 o
7 1 2 8.95 9.83 2.45 o
9 1 2 45.14 48.54 2.91 o
11 1 2 21.73 20.77 3.79 o
-10 2 2 0.22 1.17 3.14 <
-8 2 2 159.95 160.38 2.96 o
-6 2 2 111.09 112.55 2.66 o
-4 2 2 3.26 2.94 2.27 <
-2 2 2 2004.38 2047.55 6.56 o
0 2 2 37.35 45.17 2.84 o
2 2 2 1690.40 1847.01 6.08 o
4 2 2 2107.72 2273.84 5.79 o
6 2 2 12.99 14.45 2.52 o
8 2 2 62.94 59.83 2.76 o
10 2 2 4.12 5.35 3.30 <
-11 3 2 0.01 1.42 3.97 <
-9 3 2 0.02 1.92 2.92 <
-7 3 2 49.95 49.77 2.69 o
-5 3 2 39.76 42.05 2.65 o
-3 3 2 1042.84 1091.24 4.82 o
-1 3 2 1482.79 1581.56 5.61 o
1 3 2 291.63 289.39 3.62 o
3 3 2 589.42 596.74 3.82 o
5 3 2 4.65 3.20 2.48 <
7 3 2 6.41 6.28 2.59 <
9 3 2 110.40 109.69 3.23 o
11 3 2 0.01 0.07 3.88 <
-10 4 2 6.57 6.03 3.80 <
-8 4 2 52.66 54.71 2.98 o
-6 4 2 9.38 9.36 2.59 o
-4 4 2 193.55 197.39 3.14 o
-2 4 2 8.76 5.30 2.44 <
0 4 2 604.89 589.73 4.30 o
2 4 2 49.23 45.22 2.56 o
4 4 2 242.03 241.67 3.05 o
6 4 2 156.85 156.21 2.94 o
8 4 2 0.88 2.08 2.89 <
10 4 2 1.13 2.40 3.84 <
-9 5 2 49.33 46.37 3.62 o
-7 5 2 468.99 480.91 4.09 o
-5 5 2 39.66 39.44 2.79 o
-3 5 2 18.71 17.04 2.61 o
-1 5 2 37.65 33.64 2.65 o
1 5 2 198.25 197.93 3.20 o
3 5 2 2793.50 2802.00 6.40 o
5 5 2 273.54 270.87 3.22 o
7 5 2 11.05 11.99 2.90 o
9 5 2 0.90 2.12 3.52 <
-8 6 2 0.61 1.81 3.82 <
-6 6 2 3.96 5.23 3.16 <
-4 6 2 52.91 55.50 3.23 o
-2 6 2 30.01 28.27 2.77 o
0 6 2 165.51 167.85 3.25 o
2 6 2 23.92 27.18 2.88 o
4 6 2 0.22 1.26 2.71 <
6 6 2 109.27 106.97 3.22 o
8 6 2 0.43 -0.01 3.65 <
-7 7 2 22.93 24.95 3.78 o
-5 7 2 3.72 4.18 3.20 <
-3 7 2 196.59 178.72 3.26 o
-1 7 2 234.74 208.33 3.60 o
1 7 2 3.76 4.49 3.07 <
3 7 2 124.29 132.65 3.30 o
5 7 2 13.28 14.33 3.19 o
7 7 2 26.40 27.06 3.86 o
-6 8 2 1.92 4.49 4.19 <
-4 8 2 3.84 5.40 3.69 <
-2 8 2 15.58 15.20 3.42 o
0 8 2 8.19 9.23 3.53 <
2 8 2 17.65 22.85 3.51 o
4 8 2 58.56 64.07 3.76 o
6 8 2 1.81 3.12 4.10 <
-3 9 2 39.82 42.14 4.35 o
-1 9 2 38.52 39.92 4.20 o
1 9 2 21.10 29.60 4.09 o
3 9 2 5.30 10.42 4.07 <
-11 1 3 0.11 1.24 3.70 <
-9 1 3 31.40 30.07 2.85 o
-7 1 3 65.13 61.73 2.63 o
-5 1 3 54.00 60.52 2.56 o
-3 1 3 1200.98 1252.16 5.08 o
-1 1 3 12.71 15.84 2.37 o
1 1 3 2126.04 2072.20 6.51 o
3 1 3 969.01 1044.81 4.72 o
5 1 3 0.43 1.12 2.39 <
7 1 3 214.72 213.97 2.96 o
9 1 3 28.79 27.09 2.94 o
11 1 3 10.32 10.93 3.88 <
-10 2 3 0.87 0.07 3.33 <
-8 2 3 4.39 4.26 2.64 <
-6 2 3 4.16 5.16 2.35 <
-4 2 3 33.00 36.65 2.46 o
-2 2 3 58.24 62.09 2.68 o
0 2 3 5.10 7.72 2.66 <
2 2 3 114.88 126.28 2.91 o
4 2 3 14.71 11.78 2.42 o
6 2 3 23.24 23.26 2.56 o
8 2 3 5.71 7.55 2.68 <
10 2 3 10.19 9.29 3.32 <
-9 3 3 0.00 0.46 3.11 <
-7 3 3 4.65 5.11 2.60 <
-5 3 3 0.30 2.57 2.47 <
-3 3 3 129.90 141.49 2.82 o
-1 3 3 63.60 64.79 2.49 o
1 3 3 66.93 54.54 2.50 o
3 3 3 0.19 2.57 2.19 <
5 3 3 3.05 5.83 2.70 <
7 3 3 39.54 33.45 2.64 o
9 3 3 2.46 2.47 3.12 <
-10 4 3 7.16 8.59 3.84 <
-8 4 3 32.16 36.59 3.08 o
-6 4 3 16.89 15.67 2.64 o
-4 4 3 298.77 304.82 3.40 o
-2 4 3 409.36 437.96 3.53 o
0 4 3 124.67 123.99 2.82 o
2 4 3 150.02 153.44 2.76 o
4 4 3 70.54 72.18 2.67 o
6 4 3 64.45 58.59 2.71 o
8 4 3 102.32 95.97 3.18 o
10 4 3 2.99 3.65 4.18 <
-9 5 3 17.71 13.58 3.79 o
-7 5 3 10.50 11.73 3.13 o
-5 5 3 0.27 1.28 2.76 <
-3 5 3 20.28 18.85 2.42 o
-1 5 3 2.39 2.53 2.50 <
1 5 3 144.99 145.26 3.06 o
3 5 3 203.69 189.42 2.99 o
5 5 3 0.25 1.62 2.53 <
7 5 3 5.32 3.73 2.86 <
9 5 3 0.00 2.24 3.59 <
-8 6 3 46.04 42.17 4.03 o
-6 6 3 2.70 1.79 2.99 <
-4 6 3 59.57 57.11 2.87 o
-2 6 3 101.12 93.90 2.84 o
0 6 3 3.18 2.37 2.92 <
2 6 3 406.60 401.42 3.32 o
4 6 3 4.20 4.96 2.85 <
6 6 3 82.80 81.05 3.21 o
8 6 3 17.02 21.51 3.66 o
-7 7 3 5.09 3.29 3.92 <
-5 7 3 1.78 1.25 3.23 <
-3 7 3 58.44 62.02 3.10 o
-1 7 3 2.59 3.00 2.92 <
1 7 3 51.63 50.80 3.06 o
3 7 3 50.74 52.04 3.02 o
5 7 3 5.84 4.97 3.42 <
7 7 3 14.10 14.73 3.88 o
-6 8 3 0.13 1.15 4.31 <
-4 8 3 0.10 1.44 3.61 <
-2 8 3 0.65 1.86 3.48 <
0 8 3 2.86 3.35 3.29 <
2 8 3 82.82 99.99 3.42 o
4 8 3 0.46 2.20 3.38 <
6 8 3 2.81 5.23 3.91 <
-3 9 3 1.75 4.73 4.37 <
-1 9 3 10.60 13.04 3.95 o
1 9 3 51.44 58.20 4.12 o
3 9 3 79.16 86.38 4.29 o
-10 0 4 0.23 0.02 3.12 <
-8 0 4 3.21 3.80 2.61 <
-6 0 4 240.31 245.99 3.10 o
-2 0 4 461.45 488.88 3.61 o
0 0 4 10.31 15.08 2.18 o
2 0 4 612.55 620.77 3.92 o
4 0 4 111.44 108.11 2.60 o
6 0 4 2361.25 2347.19 5.75 o
8 0 4 278.99 288.78 3.28 o
10 0 4 17.53 21.11 3.43 o
-11 1 4 1.24 2.04 3.94 <
-9 1 4 0.49 0.80 2.92 <
-7 1 4 72.32 70.31 2.71 o
-5 1 4 54.95 62.10 2.47 o
-3 1 4 17.74 17.94 2.25 o
-1 1 4 1291.90 1365.63 5.51 o
1 1 4 365.12 396.21 3.52 o
3 1 4 330.70 308.65 3.19 o
5 1 4 17.33 20.83 2.40 o
7 1 4 107.65 112.10 2.75 o
9 1 4 78.44 76.58 3.16 o
11 1 4 0.93 2.29 4.10 <
-10 2 4 25.64 24.29 3.48 o
-8 2 4 15.98 14.94 2.63 o
-6 2 4 0.08 0.54 2.43 <
-4 2 4 392.76 408.01 3.47 o
-2 2 4 15.62 16.12 2.33 o
0 2 4 1306.57 1409.45 5.05 o
2 2 4 2405.77 2664.96 6.20 o
4 2 4 43.52 37.33 2.50 o
6 2 4 173.65 162.21 2.85 o
8 2 4 8.69 13.16 2.73 o
10 2 4 1.04 1.27 3.67 <
-9 3 4 8.72 8.32 3.22 <
-7 3 4 3.77 4.54 2.53 <
-5 3 4 221.22 229.36 3.12 o
-3 3 4 330.13 344.00 3.20 o
-1 3 4 129.47 123.72 2.62 o
1 3 4 581.15 589.21 3.93 o
3 3 4 14.10 11.95 2.41 o
5 3 4 27.90 18.78 2.40 o
7 3 4 306.80 289.09 3.37 o
9 3 4 0.43 0.94 3.25 <
-10 4 4 14.60 14.22 3.99 o
-8 4 4 4.16 3.41 3.12 <
-6 4 4 40.55 40.28 2.79 o
-4 4 4 0.16 0.76 2.41 <
-2 4 4 232.86 238.42 3.04 o
0 4 4 74.09 71.36 2.82 o
2 4 4 238.97 236.16 2.78 o
4 4 4 297.56 293.63 3.24 o
6 4 4 0.12 0.91 2.62 <
8 4 4 3.19 2.97 2.97 <
10 4 4 0.01 1.21 3.95 <
-9 5 4 107.92 97.07 4.10 o
-7 5 4 9.93 8.50 3.18 <
-5 5 4 0.39 -0.47 2.67 <
-3 5 4 5.16 6.08 2.51 <
-1 5 4 170.38 173.21 3.09 o
1 5 4 2680.58 2758.67 5.96 o
3 5 4 296.02 296.14 3.03 o
5 5 4 15.49 16.98 2.67 o
7 5 4 8.72 8.86 2.98 <
9 5 4 6.95 8.19 3.66 <
-8 6 4 0.32 0.84 3.88 <
-6 6 4 11.76 11.85 3.11 o
-4 6 4 7.05 8.05 2.75 <
-2 6 4 90.41 92.78 2.91 o
0 6 4 11.87 13.12 2.50 o
2 6 4 0.06 0.94 2.54 <
4 6 4 166.11 156.01 2.98 o
6 6 4 4.09 4.76 3.10 <
8 6 4 0.44 1.07 3.67 <
-7 7 4 2.22 -0.53 4.00 <
-5 7 4 78.80 72.75 3.60 o
-3 7 4 106.22 100.83 3.25 o
-1 7 4 2.74 3.67 2.70 <
1 7 4 121.60 130.80 3.19 o
3 7 4 16.51 17.69 2.97 o
5 7 4 50.35 54.70 3.34 o
7 7 4 107.57 117.30 3.91 o
-6 8 4 1.01 1.15 4.42 <
-4 8 4 6.52 7.34 3.74 <
-2 8 4 4.88 4.82 3.34 <
0 8 4 16.81 21.86 3.36 o
2 8 4 64.49 70.44 3.56 o
4 8 4 3.43 5.57 3.44 <
6 8 4 2.48 3.28 4.09 <
-3 9 4 22.93 23.02 4.64 o
-1 9 4 16.18 23.32 4.00 o
1 9 4 4.79 8.62 3.81 <
3 9 4 8.13 9.15 4.30 <
-9 1 5 9.51 7.88 3.01 <
-7 1 5 23.43 23.26 2.62 o
-5 1 5 240.05 251.98 3.06 o
-3 1 5 1.43 4.47 2.32 <
-1 1 5 745.91 759.26 4.18 o
1 1 5 642.07 697.23 4.00 o
3 1 5 4.35 2.66 2.33 <
5 1 5 352.16 343.92 3.19 o
7 1 5 41.16 36.56 2.57 o
9 1 5 31.45 36.30 3.19 o
-10 2 5 4.47 4.05 3.60 <
-8 2 5 3.15 3.35 2.78 <
-6 2 5 8.01 7.33 2.47 <
-4 2 5 9.78 9.25 2.50 o
-2 2 5 0.07 0.87 2.38 <
0 2 5 39.51 33.09 2.40 o
2 2 5 10.47 7.90 2.48 o
4 2 5 39.10 42.46 2.65 o
6 2 5 9.88 12.44 2.50 o
8 2 5 18.52 16.47 2.90 o
10 2 5 2.19 3.05 3.75 <
-9 3 5 0.75 0.69 3.36 <
-7 3 5 5.25 6.82 2.56 <
-5 3 5 61.03 60.07 2.66 o
-3 3 5 5.35 4.13 2.33 <
-1 3 5 16.19 15.03 2.56 o
1 3 5 0.04 0.37 2.25 <
3 3 5 5.19 6.83 2.38 <
5 3 5 50.43 34.98 2.54 o
7 3 5 0.89 0.32 2.90 <
9 3 5 4.00 5.90 3.49 <
-8 4 5 4.09 4.69 3.35 <
-6 4 5 68.35 68.43 3.03 o
-4 4 5 83.63 81.56 2.63 o
-2 4 5 71.03 73.24 2.67 o
0 4 5 112.92 122.61 2.99 o
2 4 5 65.17 69.28 2.59 o
4 4 5 121.38 108.18 2.73 o
6 4 5 188.96 168.75 3.03 o
8 4 5 8.42 9.45 3.20 <
-9 5 5 2.13 2.60 4.13 <
-7 5 5 0.01 1.37 3.20 <
-5 5 5 4.46 3.67 2.73 <
-3 5 5 0.10 -0.06 2.50 <
-1 5 5 102.17 103.26 2.70 o
1 5 5 146.57 140.69 3.05 o
3 5 5 1.14 2.74 2.43 <
5 5 5 11.10 9.11 2.62 o
7 5 5 0.02 0.25 3.08 <
9 5 5 1.34 4.35 4.04 <
-8 6 5 0.47 0.78 4.00 <
-6 6 5 21.71 21.63 3.28 o
-4 6 5 40.62 40.76 2.90 o
-2 6 5 0.57 1.87 2.69 <
0 6 5 307.49 300.74 3.26 o
2 6 5 0.47 2.10 2.65 <
4 6 5 108.17 122.58 2.94 o
6 6 5 24.16 30.85 3.13 o
8 6 5 0.70 1.44 4.13 <
-7 7 5 0.10 1.40 4.26 <
-5 7 5 8.90 9.78 3.46 <
-3 7 5 0.08 1.62 3.16 <
-1 7 5 35.75 36.42 2.97 o
1 7 5 35.65 38.24 2.82 o
3 7 5 5.38 4.05 3.08 <
5 7 5 33.77 31.50 3.31 o
7 7 5 12.99 9.01 4.07 <
-4 8 5 0.28 0.68 4.10 <
-2 8 5 0.00 1.03 3.42 <
0 8 5 71.07 80.05 3.64 o
2 8 5 0.03 -0.36 3.63 <
4 8 5 2.67 4.45 3.70 <
-1 9 5 38.02 42.00 4.36 o
1 9 5 59.83 62.35 4.03 o
-10 0 6 1.15 1.99 3.65 <
-8 0 6 57.96 54.66 3.03 o
-6 0 6 734.07 737.42 4.18 o
-4 0 6 54.61 57.13 2.55 o
-2 0 6 0.11 0.14 2.33 <
0 0 6 195.20 187.29 2.83 o
2 0 6 133.74 132.38 2.64 o
4 0 6 3152.68 3119.75 6.40 o
6 0 6 387.00 387.34 3.30 o
8 0 6 35.61 37.58 2.96 o
10 0 6 3.50 4.78 3.85 <
-9 1 6 8.81 6.49 3.15 <
-7 1 6 16.91 18.03 2.66 o
-5 1 6 4.55 5.14 2.50 <
-3 1 6 219.51 228.43 2.93 o
-1 1 6 106.50 106.30 2.54 o
1 1 6 219.55 217.37 2.90 o
3 1 6 4.95 6.13 2.31 <
5 1 6 151.05 154.20 2.77 o
7 1 6 167.28 167.01 3.07 o
9 1 6 0.01 0.57 3.37 <
-10 2 6 1.90 3.33 3.89 <
-8 2 6 0.47 1.83 2.93 <
-6 2 6 58.82 56.81 2.69 o
-4 2 6 0.82 1.32 2.48 <
-2 2 6 394.51 407.16 3.45 o
0 2 6 978.57 1045.60 4.64 o
2 2 6 38.59 35.74 2.52 o
4 2 6 249.38 232.75 2.97 o
6 2 6 10.47 11.90 2.67 o
8 2 6 3.92 4.79 3.06 <
10 2 6 106.19 110.20 4.35 o
-9 3 6 0.16 0.28 3.54 <
-7 3 6 32.75 36.40 2.95 o
-5 3 6 44.29 46.14 2.70 o
-3 3 6 19.92 18.90 2.55 o
-1 3 6 225.91 232.09 3.21 o
1 3 6 13.01 11.30 2.50 o
3 3 6 50.23 37.20 2.77 o
5 3 6 458.72 419.65 3.50 o
7 3 6 3.26 5.92 3.07 <
9 3 6 7.84 10.20 3.87 <
-8 4 6 7.42 6.48 3.49 <
-6 4 6 1.03 0.68 2.69 <
-4 4 6 43.93 46.21 2.69 o
-2 4 6 60.53 59.99 2.67 o
0 4 6 128.57 127.34 3.03 o
2 4 6 250.34 248.07 3.01 o
4 4 6 2.21 4.16 2.35 <
6 4 6 6.23 5.16 2.85 <
8 4 6 0.13 0.51 3.46 <
-7 5 6 0.88 3.39 3.20 <
-5 5 6 0.00 -0.60 2.84 <
-3 5 6 89.03 88.85 2.81 o
-1 5 6 1316.50 1321.67 4.78 o
1 5 6 165.37 170.52 3.14 o
3 5 6 16.51 18.39 2.54 o
5 5 6 18.45 21.94 2.62 o
7 5 6 13.85 17.15 3.41 o
-6 6 6 0.44 2.50 3.34 <
-4 6 6 27.06 29.31 3.07 o
-2 6 6 1.45 2.53 2.72 <
0 6 6 0.10 0.78 2.66 <
2 6 6 131.69 128.51 2.91 o
4 6 6 9.31 8.98 2.86 o
6 6 6 0.25 1.17 3.22 <
-5 7 6 30.05 30.32 3.81 o
-3 7 6 1.57 2.78 3.09 <
-1 7 6 65.40 70.11 3.22 o
1 7 6 12.98 15.25 2.84 o
3 7 6 58.84 63.59 3.42 o
5 7 6 142.86 162.78 3.84 o
-4 8 6 1.74 3.44 4.02 <
-2 8 6 7.80 10.26 3.70 <
0 8 6 37.34 41.12 3.39 o
2 8 6 3.34 5.44 3.47 <
4 8 6 3.40 6.50 4.04 <
-9 1 7 7.14 6.46 3.44 <
-7 1 7 52.70 50.41 3.00 o
-5 1 7 0.91 1.94 2.53 <
-3 1 7 152.64 153.93 2.81 o
-1 1 7 178.76 196.28 2.91 o
1 1 7 13.86 14.16 2.39 o
3 1 7 336.61 327.80 3.13 o
5 1 7 36.82 32.78 2.55 o
7 1 7 59.32 71.59 2.95 o
9 1 7 39.64 40.74 3.70 o
-8 2 7 2.42 3.34 3.24 <
-6 2 7 1.59 3.51 2.62 <
-4 2 7 4.17 4.34 2.47 <
-2 2 7 0.11 0.85 2.53 <
0 2 7 0.76 1.43 2.36 <
2 2 7 30.14 30.10 2.58 o
4 2 7 8.14 9.11 2.49 o
6 2 7 23.64 22.36 2.83 o
8 2 7 0.66 3.85 3.28 <
-9 3 7 3.29 4.63 3.83 <
-7 3 7 23.24 19.72 3.04 o
-5 3 7 0.21 1.80 2.69 <
-3 3 7 2.08 1.95 2.53 <
-1 3 7 0.04 0.52 2.63 <
1 3 7 0.03 0.82 2.71 <
3 3 7 54.66 40.20 2.76 o
5 3 7 0.10 1.18 2.81 <
7 3 7 5.77 8.12 3.09 <
9 3 7 2.88 1.66 3.97 <
-8 4 7 12.43 10.64 3.82 <
-6 4 7 12.49 11.87 2.96 o
-4 4 7 28.37 27.95 2.70 o
-2 4 7 61.96 69.06 2.74 o
0 4 7 35.71 37.89 2.77 o
2 4 7 113.01 103.64 2.86 o
4 4 7 189.30 166.42 2.95 o
6 4 7 15.85 17.22 3.03 o
8 4 7 34.92 35.42 3.72 o
-7 5 7 0.62 1.76 3.57 <
-5 5 7 0.14 1.87 2.97 <
-3 5 7 43.10 42.83 2.93 o
-1 5 7 59.37 54.88 2.58 o
1 5 7 0.71 1.67 2.77 <
3 5 7 11.40 11.01 2.64 o
5 5 7 0.12 -0.80 2.86 <
7 5 7 3.32 7.23 3.50 <
-6 6 7 10.94 10.37 3.64 <
-4 6 7 3.58 3.75 3.24 <
-2 6 7 142.38 137.70 3.17 o
0 6 7 0.00 -1.38 2.86 <
2 6 7 82.48 92.27 3.17 o
4 6 7 23.11 31.81 3.17 o
6 6 7 0.48 1.32 3.45 <
-5 7 7 0.07 1.07 4.10 <
-3 7 7 15.45 14.00 3.37 o
-1 7 7 13.77 13.42 3.36 o
1 7 7 3.94 3.63 3.09 <
3 7 7 33.99 31.31 3.70 o
5 7 7 13.45 9.42 3.85 <
-2 8 7 41.08 43.81 4.07 o
0 8 7 0.07 0.43 3.60 <
2 8 7 1.05 2.92 3.66 <
-8 0 8 114.20 96.69 3.59 o
-6 0 8 8.56 6.44 2.63 <
-4 0 8 2.69 1.12 2.40 <
-2 0 8 18.83 16.76 2.40 o
0 0 8 90.71 92.20 2.60 o
2 0 8 2056.50 2044.36 5.66 o
4 0 8 288.64 282.78 3.14 o
6 0 8 45.81 51.90 2.90 o
8 0 8 11.35 15.82 3.42 o
-9 1 8 4.30 5.18 3.85 <
-7 1 8 1.49 0.95 2.90 <
-5 1 8 32.26 29.26 2.76 o
-3 1 8 8.87 11.51 2.44 o
-1 1 8 61.14 65.28 2.52 o
1 1 8 0.87 1.50 2.34 <
3 1 8 110.68 113.14 2.75 o
5 1 8 189.74 186.57 3.12 o
7 1 8 1.51 2.25 3.09 <
9 1 8 5.27 4.32 4.02 <
-8 2 8 8.21 6.74 3.41 <
-6 2 8 0.11 0.99 2.87 <
-4 2 8 81.54 82.98 2.84 o
-2 2 8 210.13 209.99 3.06 o
0 2 8 10.03 11.23 2.48 o
2 2 8 169.16 161.38 2.85 o
4 2 8 7.03 9.24 2.63 o
6 2 8 9.41 11.72 3.01 o
8 2 8 186.80 202.76 4.08 o
-7 3 8 4.59 4.11 3.36 <
-5 3 8 1.12 2.45 2.91 <
-3 3 8 51.52 50.52 2.81 o
-1 3 8 4.50 3.94 2.60 <
1 3 8 38.66 33.64 2.59 o
3 3 8 341.77 309.55 3.50 o
5 3 8 5.82 8.43 3.01 <
7 3 8 14.55 19.43 3.25 o
-8 4 8 1.23 1.11 3.93 <
-6 4 8 5.11 6.06 3.19 <
-4 4 8 30.92 31.48 2.83 o
-2 4 8 46.24 45.72 2.68 o
0 4 8 102.72 104.39 2.84 o
2 4 8 1.84 3.84 2.71 <
4 4 8 6.22 5.41 2.71 <
6 4 8 0.01 1.21 3.41 <
8 4 8 66.01 71.07 4.07 o
-7 5 8 0.31 0.70 3.91 <
-5 5 8 33.12 31.37 3.25 o
-3 5 8 408.24 408.93 3.97 o
-1 5 8 52.90 55.25 2.85 o
1 5 8 13.96 12.83 3.04 o
3 5 8 13.63 15.71 2.83 o
5 5 8 19.10 21.46 3.16 o
7 5 8 276.11 302.55 4.30 o
-6 6 8 5.27 4.91 3.97 <
-4 6 8 0.01 1.18 3.43 <
-2 6 8 0.21 1.71 3.10 <
0 6 8 56.08 53.89 2.99 o
2 6 8 8.53 9.68 3.35 <
4 6 8 0.06 2.21 3.22 <
6 6 8 4.95 8.00 3.84 <
-3 7 8 21.30 22.39 3.76 o
-1 7 8 6.91 5.01 3.61 <
1 7 8 41.67 44.08 3.33 o
3 7 8 111.83 126.57 4.15 o
0 8 8 1.60 1.47 3.92 <
-7 1 9 0.27 1.42 3.33 <
-5 1 9 30.49 29.25 2.92 o
-3 1 9 35.52 34.85 2.72 o
-1 1 9 15.95 17.98 2.53 o
1 1 9 190.53 186.40 2.94 o
3 1 9 20.47 18.28 2.59 o
5 1 9 65.49 74.93 3.04 o
7 1 9 48.32 50.34 3.57 o
-8 2 9 0.34 1.15 3.88 <
-6 2 9 3.75 3.44 3.18 <
-4 2 9 3.96 4.24 2.84 <
-2 2 9 0.23 1.56 2.63 <
0 2 9 13.33 12.87 2.58 o
2 2 9 2.89 3.84 2.64 <
4 2 9 21.92 20.48 2.91 o
6 2 9 0.12 1.39 3.28 <
8 2 9 3.62 4.58 4.07 <
-7 3 9 0.56 1.64 3.71 <
-5 3 9 0.53 1.13 3.17 <
-3 3 9 0.01 1.69 2.81 <
-1 3 9 3.25 5.00 2.66 <
1 3 9 44.92 41.20 2.94 o
3 3 9 0.09 0.56 3.00 <
5 3 9 4.51 5.75 3.20 <
7 3 9 4.19 3.99 3.76 <
-6 4 9 8.32 7.44 3.55 <
-4 4 9 24.84 26.97 3.11 o
-2 4 9 12.60 11.71 2.78 o
0 4 9 57.52 53.29 3.01 o
2 4 9 101.40 90.73 3.19 o
4 4 9 18.77 22.13 2.87 o
6 4 9 36.50 38.13 3.50 o
-5 5 9 12.46 11.59 3.68 o
-3 5 9 16.01 15.45 3.19 o
-1 5 9 0.13 2.65 2.85 <
1 5 9 5.83 6.39 3.22 <
3 5 9 0.13 0.26 3.12 <
5 5 9 5.66 10.89 3.56 o
-4 6 9 44.31 37.97 3.94 o
-2 6 9 0.05 -1.13 3.12 <
0 6 9 39.58 44.17 3.41 o
2 6 9 14.69 19.85 3.69 o
4 6 9 0.00 0.59 3.69 <
-3 7 9 3.47 6.44 4.19 <
-1 7 9 2.33 2.81 3.95 <
1 7 9 15.29 12.29 3.71 o
-8 0 10 1.17 5.32 3.83 <
-6 0 10 2.93 1.48 3.29 <
-4 0 10 0.36 0.73 2.95 <
-2 0 10 45.96 46.72 2.96 o
0 0 10 773.41 781.57 4.24 o
2 0 10 117.88 116.18 2.93 o
4 0 10 37.44 39.30 3.10 o
6 0 10 13.36 18.48 3.46 o
-7 1 10 4.85 4.64 3.76 <
-5 1 10 0.01 0.88 3.10 <
-3 1 10 10.16 11.81 2.85 o
-1 1 10 5.60 6.45 2.60 <
1 1 10 45.86 50.58 2.87 o
3 1 10 112.60 111.13 3.14 o
5 1 10 3.86 3.98 3.23 <
7 1 10 5.40 3.69 3.89 <
-6 2 10 13.28 13.68 3.59 o
-4 2 10 33.44 34.39 3.16 o
-2 2 10 0.64 1.18 2.86 <
0 2 10 62.62 65.85 2.98 o
2 2 10 3.11 4.78 2.88 <
4 2 10 12.79 16.03 3.21 o
6 2 10 189.70 204.02 4.06 o
-7 3 10 0.00 1.64 4.27 <
-5 3 10 9.25 8.83 3.57 <
-3 3 10 0.74 0.63 3.13 <
-1 3 10 15.30 16.69 2.98 o
1 3 10 135.22 130.39 3.40 o
3 3 10 3.58 6.03 3.25 <
5 3 10 15.93 22.91 3.72 o
-6 4 10 10.39 8.96 3.83 <
-4 4 10 12.47 12.02 3.49 o
-2 4 10 26.68 27.10 3.21 o
0 4 10 0.17 0.13 3.19 <
2 4 10 2.78 4.35 3.13 <
4 4 10 1.40 4.86 3.36 <
6 4 10 68.09 77.31 3.99 o
-5 5 10 90.84 80.22 4.28 o
-3 5 10 11.18 9.61 3.63 <
-1 5 10 8.87 8.84 3.21 <
1 5 10 3.81 5.34 3.56 <
3 5 10 18.28 20.85 3.44 o
5 5 10 258.41 278.43 4.47 o
-2 6 10 14.51 12.03 3.70 o
0 6 10 3.51 5.32 3.78 <
2 6 10 0.02 3.45 3.75 <
-5 1 11 5.93 5.88 3.53 <
-3 1 11 9.09 9.31 3.14 <
-1 1 11 72.64 71.43 3.15 o
1 1 11 7.36 6.95 2.99 <
3 1 11 43.22 47.69 3.35 o
5 1 11 35.95 37.97 3.77 o
-6 2 11 3.27 2.33 4.00 <
-4 2 11 0.33 1.18 3.42 <
-2 2 11 4.93 4.70 3.20 <
0 2 11 0.58 0.35 3.07 <
2 2 11 14.75 13.81 3.30 o
4 2 11 0.27 2.08 3.52 <
6 2 11 2.94 1.33 4.22 <
-5 3 11 0.00 0.20 3.93 <
-3 3 11 4.34 5.78 3.47 <
-1 3 11 24.88 23.08 3.46 o
1 3 11 0.26 1.52 3.36 <
3 3 11 2.10 4.49 3.63 <
5 3 11 3.44 4.81 4.32 <
-4 4 11 2.90 3.77 3.85 <
-2 4 11 18.93 16.97 3.67 o
0 4 11 31.96 26.08 3.55 o
2 4 11 13.65 14.48 3.61 o
4 4 11 26.57 27.38 3.77 o
-3 5 11 0.01 -0.08 3.86 <
-1 5 11 1.61 3.08 3.67 <
1 5 11 0.02 1.26 3.97 <
3 5 11 5.91 9.96 4.08 <
-4 0 12 16.69 13.56 3.72 o
-2 0 12 201.91 187.52 3.92 o
0 0 12 29.88 27.44 3.29 o
2 0 12 20.60 23.01 3.51 o
4 0 12 6.66 10.28 3.79 <
-5 1 12 1.11 0.66 4.13 <
-3 1 12 4.42 4.15 3.69 <
-1 1 12 12.76 12.54 3.46 o
1 1 12 38.89 34.96 3.54 o
3 1 12 2.64 4.45 3.68 <
5 1 12 3.32 4.16 4.28 <
-4 2 12 0.01 2.01 4.08 <
-2 2 12 15.33 13.45 3.73 o
0 2 12 1.14 1.96 3.58 <
2 2 12 9.56 10.10 3.80 <
4 2 12 111.32 117.01 4.46 o
-3 3 12 3.48 5.15 4.12 <
-1 3 12 32.23 29.22 4.00 o
1 3 12 0.74 2.13 4.02 <
3 3 12 10.26 15.42 4.42 o
-2 4 12 0.08 0.23 4.19 <
0 4 12 0.50 2.44 4.11 <
2 4 12 3.81 6.17 4.24 <
-3 1 13 19.37 17.06 4.42 o
-1 1 13 1.69 1.56 4.04 <
1 1 13 18.52 19.35 4.04 o
-2 2 13 0.12 1.32 4.46 <
0 2 13 7.09 6.75 4.24 <
