#------------------------------------------------------------------------------
#$Date: 2017-12-05 15:02:39 +0200 (Tue, 05 Dec 2017) $
#$Revision: 203982 $
#$URL: file:///home/coder/svn-repositories/cod/cif/4/00/28/4002872.cif $
#------------------------------------------------------------------------------
#
# This file is available in the Crystallography Open Database (COD),
# http://www.crystallography.net/
#
# All data on this site have been placed in the public domain by the
# contributors.
#
data_4002872
loop_
_publ_author_name
'Xu, Jian-Gang'
'Sun, Cai'
'Zhang, Ming-Jian'
'Liu, Bin-Wen'
'Li, Xiao-Zhen'
'Lu, Jian'
'Wang, Shuai-Hua'
'Zheng, Fa-Kun'
'Guo, Guo-Cong'
_publ_section_title
;
 Coordination Polymerization of Metal Azides and Powerful Nitrogen-Rich
 Ligand toward Primary Explosives with Excellent Energetic Performances
;
_journal_issue                   22
_journal_name_full               'Chemistry of Materials'
_journal_page_first              9725
_journal_paper_doi               10.1021/acs.chemmater.7b03453
_journal_volume                  29
_journal_year                    2017
_chemical_formula_moiety         'C4 H4 Co N14'
_chemical_formula_sum            'C4 H4 Co N14'
_chemical_formula_weight         307.14
_chemical_melting_point          ?
_chemical_name_common            '[Co(N3)2(atrz)]n'
_space_group_crystal_system      triclinic
_space_group_IT_number           2
_space_group_name_Hall           '-P 1'
_space_group_name_H-M_alt        'P -1'
_symmetry_space_group_name_Hall  '-P 1'
_symmetry_space_group_name_H-M   'P -1'
_atom_sites_solution_hydrogens   difmap
_atom_sites_solution_primary     direct
_atom_sites_solution_secondary   difmap
_audit_creation_method           SHELXL-2013
_cell_angle_alpha                71.411(18)
_cell_angle_beta                 74.31(2)
_cell_angle_gamma                79.01(2)
_cell_formula_units_Z            1
_cell_length_a                   5.2315(16)
_cell_length_b                   6.0448(19)
_cell_length_c                   8.497(3)
_cell_measurement_reflns_used    723
_cell_measurement_temperature    293(2)
_cell_measurement_theta_max      27.4
_cell_measurement_theta_min      3.6
_cell_volume                     243.58(14)
_computing_molecular_graphics    'SHELXL-2013 (Sheldrick, 2013)'
_computing_structure_refinement  'SHELXL-2013 (Sheldrick, 2013)'
_computing_structure_solution    'SHELXS-97 (Sheldrick, 1990)'
_diffrn_ambient_temperature      293(2)
_diffrn_measured_fraction_theta_full 0.979
_diffrn_measured_fraction_theta_max 0.971
_diffrn_measurement_device_type  'Rigaku Pilatus'
_diffrn_measurement_method       CCD_Profile_fitting
_diffrn_radiation_type           MoK\a
_diffrn_radiation_wavelength     0.71073
_diffrn_reflns_av_R_equivalents  0.0471
_diffrn_reflns_av_unetI/netI     0.0600
_diffrn_reflns_Laue_measured_fraction_full 0.979
_diffrn_reflns_Laue_measured_fraction_max 0.971
_diffrn_reflns_limit_h_max       6
_diffrn_reflns_limit_h_min       -6
_diffrn_reflns_limit_k_max       7
_diffrn_reflns_limit_k_min       -6
_diffrn_reflns_limit_l_max       10
_diffrn_reflns_limit_l_min       -10
_diffrn_reflns_number            2625
_diffrn_reflns_point_group_measured_fraction_full 0.979
_diffrn_reflns_point_group_measured_fraction_max 0.971
_diffrn_reflns_theta_full        25.242
_diffrn_reflns_theta_max         27.444
_diffrn_reflns_theta_min         3.580
_diffrn_source                   'fine-focus sealed tube'
_exptl_absorpt_coefficient_mu    1.779
_exptl_absorpt_correction_T_max  1.000
_exptl_absorpt_correction_T_min  0.807
_exptl_absorpt_correction_type   multi-scan
_exptl_absorpt_process_details   'Sphere (Rigaku CrystalClear)'
_exptl_crystal_colour            'Red brown'
_exptl_crystal_density_diffrn    2.094
_exptl_crystal_density_method    'not measured'
_exptl_crystal_description       Prism
_exptl_crystal_F_000             153
_exptl_crystal_size_max          0.10
_exptl_crystal_size_mid          0.08
_exptl_crystal_size_min          0.07
_refine_diff_density_max         0.951
_refine_diff_density_min         -0.610
_refine_diff_density_rms         0.133
_refine_ls_extinction_method     none
_refine_ls_goodness_of_fit_ref   1.027
_refine_ls_hydrogen_treatment    refU
_refine_ls_matrix_type           full
_refine_ls_number_parameters     90
_refine_ls_number_reflns         1081
_refine_ls_number_restraints     0
_refine_ls_restrained_S_all      1.027
_refine_ls_R_factor_all          0.0517
_refine_ls_R_factor_gt           0.0432
_refine_ls_shift/su_max          0.000
_refine_ls_shift/su_mean         0.000
_refine_ls_structure_factor_coef Fsqd
_refine_ls_weighting_details
;
 w=1/[\s^2^(Fo^2^)+(0.0652P)^2^]
 where P=(Fo^2^+2Fc^2^)/3
;
_refine_ls_weighting_scheme      calc
_refine_ls_wR_factor_gt          0.1071
_refine_ls_wR_factor_ref         0.1102
_reflns_Friedel_coverage         0.000
_reflns_number_gt                929
_reflns_number_total             1081
_reflns_threshold_expression     'I > 2\s(I)'
_cod_data_source_file            cm7b03453_si_002.cif
_cod_data_source_block           a
_cod_depositor_comments
;
The following automatic conversions were performed:

'_chemical_melting_point' value 'not measured' was changed to '?' -
the value is undefined or not given.

'_exptl_absorpt_correction_type' value 'Multi-scan' changed to
'multi-scan' according to
/home/data/users/saulius/crontab/automatic-downloads/rss-feeds/ACS/lib/dictionaries/cif_core.dic
dictionary named 'cif_core.dic' version 2.4.2 from 2011-04-26.

Automatic conversion script
Id: cif_fix_values 4973 2017-02-22 13:04:09Z antanas 

 Adding full bibliography for 4002871--4002872.cif.
;
_cod_database_code               4002872
_shelx_space_group_comment
;
The symmetry employed for this shelxl refinement is uniquely defined
by the following loop, which should always be used as a source of
symmetry information in preference to the above space-group names.
They are only intended as comments.
;
_shelxl_version_number           2013-2
_shelx_res_file
;
TITL a                                P-1
CELL  0.71073    5.2315    6.0448    8.4970    71.411    74.310    79.010
ZERR 1           0.0016    0.0019    0.0030     0.018     0.020     0.020
LATT   1
SFAC  C   2.31000  20.84392   1.02000  10.20751   1.58860   0.56870   0.86500 =
         51.65125   0.21560   0.00330   0.00160    11.500   0.68000  12.01000
SFAC  H   0.49300  10.51091   0.32291  26.12573   0.14019   3.14236   0.04081 =
         57.79977   0.00304   0.00000   0.00000     0.624   0.35000   1.00800
SFAC Co  12.28411   4.27910   7.34091   0.27840   4.00340  13.53591   2.34880 =
         71.16927   1.01180   0.34940   0.97210  4010.000   1.23000  58.93000
SFAC  N  12.21261   0.00570   3.13220   9.89331   2.01250  28.99754   1.16630 =
          0.58260 -11.52901   0.00610   0.00330    19.600   0.68000  14.01000
UNIT     4    4   1  14
L.S. 50
PLAN 5
BOND $h
FMAP 2
acta

omit 1 2 4
WGHT    0.065200
FVAR       0.27504
CO1   3    1.000000    0.500000    0.000000    10.50000    0.01784    0.02409 =
         0.01716   -0.01355   -0.00435   -0.00446
N1    4    0.712572    0.253233    0.155653    11.00000    0.02370    0.03115 =
         0.02874   -0.00666   -0.00881   -0.00781
N2    4    0.513862    0.253140    0.114983    11.00000    0.02444    0.01670 =
         0.01797   -0.00780   -0.00181   -0.00184
N3    4    0.318124    0.244888    0.074914    11.00000    0.02230    0.02907 =
         0.03974   -0.01259   -0.01258   -0.00443
N11   4    1.047644    0.365031   -0.211673    11.00000    0.02196    0.02622 =
         0.02278   -0.01505   -0.00242   -0.00590
N12   4    1.285841    0.376146   -0.336495    11.00000    0.02471    0.04148 =
         0.02713   -0.02450    0.00171   -0.01292
N13   4    1.022690    0.179192   -0.386466    11.00000    0.02061    0.02363 =
         0.01827   -0.01416   -0.00377   -0.00384
N14   4    0.914289    0.038282   -0.445722    11.00000    0.02401    0.02583 =
         0.02059   -0.01511   -0.00587   -0.00574
C11   1    0.895197    0.246972   -0.244280    11.00000    0.02148    0.03022 =
         0.02135   -0.01778   -0.00158   -0.00703
AFIX   3
H11A  2    0.724847    0.213972   -0.180230    11.00000    0.02547
AFIX   0
C12   1    1.267426    0.262530   -0.437763    11.00000    0.02297    0.03280 =
         0.02316   -0.01722   -0.00106   -0.00606
AFIX   3
H12A  2    1.400026    0.239630   -0.531012    11.00000    0.03889

AFIX   0
HKLF 4 1  1.0000  0.0000  0.0000  0.0000  1.0000  0.0000  0.0000  0.0000  1.0000

REM  a                                P-1
REM R1 =  0.0432 for     929 Fo > 4sig(Fo)  and  0.0517 for all    1081 data
REM     90 parameters refined using      0 restraints

END

WGHT      0.0624      0.0000

REM Highest difference peak  0.951,  deepest hole -0.610,  1-sigma level  0.133
Q1    1   1.1878  0.5341 -0.0605  11.00000  0.05    0.95
Q2    1   1.0506  0.6478 -0.0798  11.00000  0.05    0.90
Q3    1   1.1808  0.3976  0.0181  11.00000  0.05    0.89
Q4    1   1.1491  0.3636  0.0380  11.00000  0.05    0.89
Q5    1   1.1669  0.1575 -0.3816  11.00000  0.05    0.45
;
_shelx_res_checksum              9050
_shelx_hkl_file
;
   0   0  -2   25.93    1.13
   0   0   2   25.74    1.26
   0   0   2   26.17    0.91
   0   0   2   36.46    1.62
   0   0  -3    2.64    0.56
   0   0   3    2.10    0.62
   0   0   3    2.90    0.47
   0   0  -3    2.89    0.44
   0   0   3    2.05    0.33
   0   0  -4    2.21    0.38
   0   0   4    1.45    0.38
   0   0   4    1.63    0.47
   0   0  -4    1.45    0.44
   0   0   4    1.52    0.44
   0   0  -5   26.87    2.03
   0   0   5   27.33    1.84
   0   0   5   24.49    2.06
   0   0  -5   26.91    1.91
   0   0   5   29.81    1.95
   0   0  -6    2.63    0.51
   0   0   6    2.91    0.65
   0   0  -6    2.66    0.65
   0   0   6    2.65    0.54
   0   0  -7    8.29    0.80
   0   0   7    5.92    0.95
   0   0   7    6.65    0.97
   0   0  -8    3.83    0.80
   0   0   8    3.98    0.77
   0   0   8    4.74    0.85
   0   0  -9   11.02    1.31
   0   0   9   10.61    1.25
   0   0   9   11.16    1.34
   0   0 -10    0.44    0.70
   0   0  10    1.13    0.76
   0   1  -9    4.38    0.83
   0  -1   9    4.30    0.92
   0   1  -8    2.33    0.68
   0  -1   8    2.52    0.61
   0  -1   8    2.59    0.70
   0   1  -7    1.80    0.59
   0  -1   7    1.69    0.56
   0  -1   7    3.44    0.67
   0   1  -6   39.15    2.14
   0  -1   6   35.48    2.03
   0  -1   6   32.84    2.46
   0  -1   6   38.75    2.58
   0   1  -5   34.75    2.25
   0  -1   5   28.65    1.89
   0  -1   5   27.41    1.70
   0  -1   5   28.99    1.88
   0   1  -4    3.25    0.59
   0  -1   4    2.46    0.59
   0  -1   4    2.47    0.72
   0  -1   4    2.56    0.70
   0   1  -3    6.65    0.99
   0  -1   3    6.10    0.66
   0  -1   3    5.82    1.10
   0  -1   3    6.02    0.76
   0  -1   2   99.98    2.57
   0   1  -2  106.70    2.21
   0  -1   2   99.84    3.86
   0   1   0   47.18    2.75
   0   1   0   47.83    1.62
   0  -1   0   46.40    1.39
   0  -1  -1   27.88    2.00
   0   1   1   29.25    1.54
   0  -1  -1   31.46    1.63
   0   1   1   34.81    2.27
   0  -1  -1   30.88    2.21
   0   1   2  269.00    2.97
   0  -1  -3  190.14    2.92
   0   1   3  170.46    3.69
   0   1   3  169.03    2.39
   0  -1  -3  181.57    2.36
   0   1   3  174.94    2.42
   0  -1  -3  178.30    2.39
   0  -1  -4   94.03    2.85
   0   1   4   94.11    3.15
   0   1   4  111.32    1.84
   0  -1  -4  111.75    2.03
   0   1   4  113.94    2.19
   0  -1  -5    3.54    0.47
   0   1   5    2.94    0.71
   0   1   5    2.74    0.41
   0  -1  -5    2.77    0.49
   0   1   5    2.69    0.41
   0  -1  -6    8.38    0.64
   0   1   6    6.29    0.76
   0  -1  -6    6.23    0.91
   0   1   6    6.95    0.71
   0  -1  -7    3.47    0.63
   0   1   7    2.05    0.65
   0   1   7    3.22    0.72
   0  -1  -8   12.58    0.90
   0   1   8   12.06    1.41
   0   1   8   11.48    1.32
   0  -1  -9    6.85    1.11
   0   1   9    6.73    1.08
   0   1   9    6.36    1.01
   0  -1 -10    1.65    0.68
   0   1  10    1.85    0.75
   0   1  10    1.78    0.79
   0   2  -9    0.88    0.69
   0  -2   9    0.91    0.77
   0   2  -8    0.16    0.62
   0  -2   8   -0.02    0.66
   0   2  -7    7.50    1.01
   0  -2   7    7.30    0.72
   0   2  -6   16.62    1.55
   0  -2   6   16.76    1.08
   0   2  -5    9.28    1.19
   0  -2   5    7.96    1.02
   0  -2   5   10.03    1.03
   0  -2   5    9.51    0.81
   0   2  -4   41.65    2.10
   0  -2   4   37.50    2.21
   0  -2   4   40.46    2.70
   0  -2   4   40.98    2.24
   0  -2   3   12.94    1.17
   0   2  -3   12.42    1.31
   0  -2   3   12.25    1.22
   0  -2   3   12.75    1.27
   0   2  -2   56.67    2.66
   0  -2   2   45.28    1.85
   0   2  -1   10.11    1.11
   0   2  -1   12.00    1.34
   0  -2   1   11.29    0.74
   0   2   0   39.47    1.84
   0  -2   0   32.45    1.89
   0   2   0   38.34    1.76
   0  -2   0   38.09    1.31
   0   2   1    3.97    0.70
   0  -2  -1    4.24    0.58
   0   2   1    3.97    0.61
   0  -2  -1    4.03    0.52
   0  -2  -2   33.47    1.82
   0   2   2   35.48    2.16
   0   2   2   37.02    1.93
   0  -2  -2   33.54    2.02
   0  -2  -2   34.11    1.95
   0  -2  -3  134.41    3.65
   0   2   3  162.33    3.22
   0  -2  -3  150.99    2.13
   0   2   3  149.39    5.00
   0  -2  -3  133.02    4.77
   0  -2  -4   65.03    2.27
   0   2   4   57.38    2.51
   0  -2  -4   65.69    1.45
   0  -2  -5   31.37    1.15
   0   2   5   33.44    1.87
   0   2   5   38.54    1.33
   0  -2  -5   37.98    1.36
   0   2   5   39.08    1.63
   0  -2  -5   38.65    1.57
   0  -2  -6   30.03    1.54
   0   2   6   26.93    1.22
   0   2   6   27.44    1.41
   0  -2  -7    5.47    0.58
   0   2   7    3.90    0.77
   0   2   7    4.07    0.57
   0  -2  -8   10.85    1.15
   0   2   8    9.97    1.30
   0   2   8   10.56    1.06
   0  -2  -9    8.97    0.74
   0   2   9    7.86    0.85
   0   2   9    7.75    1.23
   0  -2 -10    1.72    0.63
   0   2  10    1.15    0.69
   0   2  10    0.47    0.56
   0   3  -8    2.78    0.75
   0  -3   8    2.47    0.73
   0   3  -7    3.96    0.80
   0  -3   7    5.20    0.80
   0   3  -6    1.24    0.51
   0  -3   6    1.09    0.56
   0   3  -5    0.61    0.52
   0  -3   5    1.55    0.50
   0  -3   5    1.46    0.50
   0  -3   4    6.35    0.83
   0  -3   4    6.34    0.73
   0  -3   4    5.75    0.98
   0   3  -3   42.92    2.23
   0  -3   3   43.88    1.35
   0  -3   3   44.77    1.60
   0   3  -2   57.69    2.88
   0  -3   2   60.59    1.80
   0   3  -1   61.59    3.27
   0  -3   1   53.67    2.26
   0   3  -1   55.77    2.75
   0  -3   1   60.75    1.79
   0   3   0    5.87    0.91
   0  -3   0    4.77    0.65
   0   3   0    4.24    0.77
   0  -3   0    4.82    0.43
   0   3   1    2.93    0.70
   0  -3  -1    2.30    0.73
   0   3   1    2.24    0.45
   0  -3  -1    1.47    0.34
   0   3   2    1.13    0.40
   0   3   2    1.14    0.41
   0   3   2    1.05    0.44
   0  -3  -2    1.29    0.45
   0  -3  -2    1.12    0.49
   0   3   3    6.71    0.77
   0   3   3    9.08    1.11
   0  -3  -3    6.70    0.92
   0  -3  -3    7.59    0.69
   0  -3  -4    1.62    0.49
   0   3   4    2.36    0.40
   0  -3  -4    2.21    0.46
   0   3   4    1.68    0.59
   0  -3  -4    1.64    0.42
   0  -3  -5   63.27    2.11
   0   3   5   62.86    1.67
   0   3   5   49.20    2.34
   0  -3  -5   48.52    2.83
   0  -3  -6   15.97    0.88
   0   3   6   22.13    0.92
   0   3   6   18.18    1.19
   0  -3  -6   21.08    0.95
   0  -3  -7    5.93    0.64
   0   3   7    4.98    0.60
   0   3   7    4.80    0.69
   0  -3  -8   39.11    1.53
   0   3   8   33.32    1.91
   0   3   8   32.41    2.05
   0  -3  -9    0.49    0.46
   0   3   9    0.69    0.62
   0   3   9    0.18    0.58
   0  -3 -10    7.33    0.72
   0   3  10    5.65    1.09
   0   4  -7    1.92    0.74
   0  -4   7    3.26    0.80
   0   4  -6    1.61    0.53
   0  -4   6    2.06    0.62
   0  -4   5    0.44    0.65
   0  -4   4    3.66    0.61
   0  -4   4    3.51    0.60
   0   4  -3    0.45    0.41
   0  -4   3    1.03    0.45
   0   4  -2   15.72    1.65
   0   4  -2   14.90    1.59
   0  -4   2   17.47    0.84
   0   4  -1   25.87    1.81
   0   4  -1   25.31    1.94
   0  -4   1   25.12    1.03
   0   4   0   55.97    2.57
   0   4   0   53.61    2.67
   0  -4   0   53.35    1.41
   0   4   1   26.73    2.33
   0  -4  -1   24.49    1.93
   0   4   1   26.80    1.81
   0  -4  -1   26.83    1.35
   0   4   2   42.28    2.60
   0   4   2   46.61    2.90
   0   4   2   44.99    2.77
   0  -4  -2   46.73    2.78
   0   4   3    0.56    0.39
   0   4   3    0.27    0.38
   0   4   3    0.36    0.32
   0  -4  -3    0.66    0.49
   0  -4  -3    0.33    0.39
   0   4   4    3.28    0.49
   0   4   4    4.23    0.80
   0  -4  -4    3.80    0.50
   0  -4  -5   15.81    1.76
   0   4   5   15.04    0.76
   0  -4  -5   13.75    1.26
   0  -4  -6    0.89    0.49
   0   4   6    1.12    0.45
   0  -4  -7   56.41    2.03
   0   4   7   55.43    1.38
   0   4   7   56.51    2.13
   0  -4  -8    4.35    0.59
   0   4   8    3.80    0.56
   0  -4  -9    6.04    0.71
   0   4   9    4.60    0.84
   0  -4 -10    1.62    0.69
   0   4  10    1.32    0.78
   0  -5   5    5.39    0.82
   0  -5   4    1.66    0.64
   0   5  -3    1.41    0.54
   0  -5   3    0.00    0.55
   0   5  -2    0.89    0.63
   0   5  -2    0.10    0.49
   0  -5   2    0.06    0.56
   0   5  -1    2.06    0.57
   0   5  -1    1.82    0.59
   0   5   0    1.29    0.56
   0   5   0    1.69    0.52
   0  -5   0    1.61    0.54
   0   5   1   31.71    2.04
   0   5   1   32.79    1.96
   0  -5  -1   31.34    1.22
   0   5   2   37.68    2.77
   0   5   2   38.45    1.92
   0   5   3   11.58    1.33
   0   5   3   11.29    1.44
   0  -5  -3   10.42    0.72
   0   5   4   27.73    1.77
   0   5   4   30.09    2.40
   0   5   5    0.42    0.50
   0   5   5    0.54    0.43
   0   5   6   19.31    1.14
   0   5   6   15.91    0.78
   0  -5  -7    8.20    1.29
   0   5   7   11.55    1.05
   0  -5  -8    3.87    0.71
   0  -5  -9    1.88    0.68
   0   5   9    2.16    0.62
   0   6  -4    4.07    0.83
   0  -6   4    4.28    0.82
   0   6  -3    4.41    0.70
   0  -6   3    4.69    0.76
   0   6  -2    3.10    0.86
   0  -6   2    4.20    0.67
   0   6  -1   -0.28    0.63
   0  -6   1    0.44    0.57
   0   6   0   -0.35    0.63
   0   6   0    0.07    0.46
   0  -6   0   -0.19    0.53
   0   6   1    4.89    1.23
   0   6   1    4.70    0.76
   0   6   2    2.53    0.74
   0   6   2    2.66    0.70
   0   6   3   12.89    1.38
   0   6   3   14.20    1.47
   0   6   4    3.02    0.83
   0   6   4    3.01    0.71
   0   6   5   13.25    1.51
   0   6   5   15.33    1.27
   0   6   6   12.16    1.43
   0   6   6   14.51    1.17
   0   6   7    3.21    0.72
   0   6   7    4.31    0.79
   0   6   8    1.52    0.58
   0   6   8    1.23    0.69
   0   7  -1    4.29    0.96
   0   7   0    4.37    0.90
   0   7   1    1.81    0.71
   0   7   2    0.08    0.56
   0   7   3    0.07    0.61
   0   7   3    0.02    0.53
   0   7   4    5.10    0.86
   0   7   4    5.12    0.85
   0   7   5    6.95    1.21
   0   7   5    7.33    0.95
   0   7   6    6.63    1.24
   0   7   6    5.31    1.18
  -1   7   5    6.54    1.13
  -1   7   5    4.34    0.98
  -1   7   4    4.17    1.03
  -1   7   4    4.46    0.90
  -1   7   3    1.96    0.74
  -1   7   3    1.40    0.62
  -1   7   2   12.72    1.33
  -1   7   1    1.25    0.67
  -1   7   0    3.47    0.88
  -1   6   7    2.69    0.77
  -1   6   7    4.03    0.90
  -1   6   6    4.55    1.11
  -1   6   6    3.68    0.92
  -1   6   5    4.43    0.87
  -1   6   5    4.06    1.03
  -1   6   4    4.40    0.96
  -1   6   4    4.64    0.74
  -1   6   3    8.28    0.97
  -1   6   3    8.48    0.87
  -1   6   2    2.90    0.65
  -1   6   2    1.99    0.60
  -1   6   1   10.32    1.27
  -1   6   1    9.61    1.19
  -1   6   0   12.18    1.19
  -1   6  -1    3.21    0.75
   1  -6   3    0.83    0.73
   1  -5  -8    6.31    1.15
  -1   5   8    5.75    0.79
   1  -5  -7    7.37    1.10
  -1   5   7    6.40    1.00
  -1   5   6   40.25    2.33
  -1   5   6   40.18    2.03
  -1   5   5    0.35    0.49
  -1   5   5    0.71    0.55
  -1   5   4   10.23    1.62
  -1   5   4    8.72    1.08
  -1   5   3    0.38    0.48
  -1   5   3    1.00    0.51
  -1   5   2   -0.27    0.44
  -1   5   2    0.25    0.46
  -1   5   1    6.64    0.96
  -1   5   1    6.31    0.63
   1  -5  -1    7.05    0.68
   1  -5  -1    6.81    0.58
  -1   5   0    5.39    0.94
  -1   5   0    5.10    0.62
   1  -5   0    5.18    0.61
  -1   5  -1    7.98    1.21
   1  -5   1    9.08    0.68
   1  -5   2    4.85    0.72
  -1   5  -3    7.36    0.93
   1  -5   3    6.87    0.79
  -1   5  -4    3.61    0.80
   1  -5   4    3.81    0.67
  -1   5  -5    2.26    0.80
   1  -5   5    3.73    0.73
   1  -4  -9    3.03    0.70
  -1   4   9    3.07    0.85
   1  -4  -8   -0.29    0.50
   1  -4  -7   14.60    1.60
   1  -4  -6    8.83    1.39
  -1   4   6    9.28    0.99
   1  -4  -5   25.53    1.80
  -1   4   5   22.42    1.25
  -1   4   4   40.89    2.15
  -1   4   3   12.05    1.21
  -1   4   3   11.79    1.29
  -1   4   2   11.08    1.44
  -1   4   2   11.64    0.83
   1  -4  -2   11.67    0.84
   1  -4  -2   12.05    1.53
   1  -4  -2   12.36    0.85
  -1   4   1    6.69    0.80
  -1   4   1    6.70    0.56
   1  -4  -1    7.19    0.59
   1  -4  -1    7.31    0.58
  -1   4   0    1.47    0.44
   1  -4   0    1.35    0.47
   1  -4   0    1.65    0.43
  -1   4  -1    1.00    0.37
   1  -4   1    1.12    0.45
   1  -4   1    1.04    0.50
  -1   4  -2    5.41    0.73
  -1   4  -2    4.74    0.81
   1  -4   2    5.56    0.58
   1  -4   2    5.29    0.65
  -1   4  -3   15.73    1.64
  -1   4  -3   14.48    0.86
   1  -4   3   14.91    0.87
  -1   4  -4    6.82    0.91
   1  -4   4    6.15    0.70
  -1   4  -5    0.97    0.62
   1  -4   5    1.15    0.63
  -1   4  -6    1.94    0.80
   1  -4   6    2.32    0.67
  -1   4  -7    0.94    0.69
   1  -4   7    0.81    0.73
   1  -3  -9    2.05    0.61
  -1   3   9    2.01    0.72
   1  -3  -8    4.08    0.66
  -1   3   8    1.22    0.81
   1  -3  -7    4.35    0.73
  -1   3   7    4.16    0.77
  -1   3   7    4.02    0.85
   1  -3  -6    0.88    0.58
  -1   3   6    0.92    0.51
   1  -3  -5    2.87    0.81
  -1   3   5    2.83    0.54
  -1   3   5    2.66    0.55
   1  -3  -4   23.48    1.53
  -1   3   4   20.96    1.78
   1  -3  -3   41.60    2.49
  -1   3   3   43.45    2.52
  -1   3   3   50.21    3.17
   1  -3  -3   45.25    2.36
  -1   3   2  112.73    4.48
  -1   3   2  111.05    5.09
  -1   3   2  118.88    3.73
   1  -3  -2  117.68    3.05
  -1   3   1   34.87    1.41
   1  -3  -1   35.21    1.33
   1  -3  -1   34.75    1.25
   1  -3   0   11.11    1.10
  -1   3   0   11.15    0.79
   1  -3   0   12.28    0.71
   1  -3   0   12.08    0.73
  -1   3  -1    0.06    0.29
   1  -3   1    0.17    0.33
  -1   3  -1   -0.11    0.27
   1  -3   1    0.09    0.35
   1  -3   1    0.09    0.33
  -1   3  -2   27.65    2.50
   1  -3   2   28.26    1.74
  -1   3  -2   25.44    1.90
   1  -3   2   26.95    1.19
   1  -3   2   26.67    1.15
  -1   3  -3   21.83    1.91
   1  -3   3   19.87    0.91
   1  -3   3   20.02    0.96
   1  -3   3   19.73    0.94
  -1   3  -4    0.32    0.43
   1  -3   4    0.05    0.39
   1  -3   4    0.15    0.37
   1  -3   4   -0.17    0.50
  -1   3  -5    8.18    1.13
   1  -3   5    8.61    1.34
  -1   3  -6    0.95    0.54
   1  -3   6    0.58    0.61
  -1   3  -7    5.42    0.91
   1  -3   7    5.25    0.80
  -1   3  -8    1.99    0.71
   1  -3   8    3.15    0.73
   1  -2 -10    2.89    0.62
  -1   2  10    2.69    0.70
   1  -2  -9    7.49    0.94
  -1   2   9    5.53    0.87
  -1   2   9    6.37    0.88
   1  -2  -8   11.35    1.29
  -1   2   8   11.44    1.40
  -1   2   8   10.20    1.36
   1  -2  -7   29.90    2.12
  -1   2   7   24.61    1.81
  -1   2   7   25.27    2.00
   1  -2  -6    0.00    0.36
  -1   2   6    0.07    0.49
  -1   2   6    0.05    0.43
   1  -2  -5    0.08    0.37
  -1   2   5    0.41    0.34
  -1   2   5    0.05    0.36
   1  -2  -4    0.29    0.32
  -1   2   4    0.15    0.37
   1  -2  -4    0.11    0.48
  -1   2   4    0.06    0.25
  -1   2   3   39.01    2.14
  -1   2   3   39.54    1.97
   1  -2  -3   34.88    1.94
  -1   2   3   36.86    1.16
  -1   2   2   18.74    1.79
   1  -2  -2   20.00    1.59
  -1   2   1   86.79    2.08
   1  -2  -1   87.19    2.21
   1  -2   0   23.85    1.42
  -1   2   0   23.09    0.96
   1  -2   0   24.43    0.97
   1  -2   0   24.44    0.98
  -1   2  -1   56.68    2.31
   1  -2   1   52.79    1.95
  -1   2  -1   49.11    1.44
   1  -2   1   57.40    1.43
   1  -2   1   59.16    1.56
  -1   2  -2  165.32    5.00
   1  -2   2  150.30    4.01
  -1   2  -2  170.58    6.48
   1  -2   2  167.57    3.26
   1  -2   2  160.55    2.63
  -1   2  -3    5.67    0.87
   1  -2   3    5.50    0.84
   1  -2   3    5.96    1.26
   1  -2   3    6.00    1.31
   1  -2   3    6.98    0.62
  -1   2  -4   22.84    1.44
   1  -2   4   24.03    1.81
   1  -2   4   20.71    1.02
   1  -2   4   21.41    0.91
   1  -2   4   22.83    1.03
  -1   2  -5    7.18    0.91
   1  -2   5    5.27    0.62
   1  -2   5    5.69    0.56
   1  -2   5    5.22    0.86
  -1   2  -6   12.94    1.44
   1  -2   6   11.52    0.81
   1  -2   6   12.75    1.58
  -1   2  -7    7.08    0.99
   1  -2   7    6.57    0.94
  -1   2  -8    0.04    0.62
  -1   2  -9    1.32    0.72
   1  -1  -9    1.10    0.63
  -1   1   9    0.01    0.74
  -1   1   9    0.08    0.67
   1  -1  -8   23.69    1.30
  -1   1   8   22.94    1.77
  -1   1   8   24.37    1.98
   1  -1  -7   17.97    1.39
  -1   1   7   14.63    1.70
  -1   1   7   15.25    1.64
   1  -1  -6   17.24    1.68
  -1   1   6   16.96    1.38
  -1   1   6   19.23    1.65
   1  -1  -5   15.18    1.34
  -1   1   5   14.91    1.47
  -1   1   5   16.34    1.36
  -1   1   4   63.34    3.01
  -1   1   4   59.47    2.45
   1  -1  -4   61.83    2.91
  -1   1   4   71.93    3.48
  -1   1   3    3.43    0.50
   1  -1  -2    2.69    0.37
   1  -1  -2    2.23    0.52
   1  -1  -1    2.36    0.61
  -1   1   1    2.13    0.34
  -1   1   1    2.60    0.53
   1  -1  -1    2.44    0.56
  -1   1   1    2.29    0.33
  -1   1   0    0.96    0.29
  -1   1   0    0.76    0.26
  -1   1   0    0.68    0.25
   1  -1   0    0.68    0.26
   1  -1   0    0.76    0.22
  -1   1   0    0.80    0.23
  -1   1  -1  525.26   10.68
   1  -1   1  516.26    8.49
  -1   1  -1  519.75    6.12
   1  -1   1  482.62    4.25
  -1   1  -1  485.67    4.22
  -1   1  -2    0.01    0.20
   1  -1   2    0.02    0.32
   1  -1   2   -0.01    0.21
  -1   1  -2    0.04    0.27
  -1   1  -3   15.58    0.94
   1  -1   3   15.49    1.18
   1  -1   3   15.40    1.70
   1  -1   3   15.91    0.88
   1  -1   3   16.07    1.23
  -1   1  -3   14.40    1.08
  -1   1  -4   23.26    1.64
   1  -1   4   19.27    1.64
   1  -1   4   18.47    1.69
   1  -1   4   19.49    1.06
   1  -1   4   19.11    1.73
  -1   1  -4   18.14    0.90
  -1   1  -5   25.81    2.07
   1  -1   5   24.80    1.91
   1  -1   5   22.66    1.71
   1  -1   5   23.52    1.04
   1  -1   5   21.33    1.86
  -1   1  -6   21.40    1.78
   1  -1   6   19.26    1.62
   1  -1   6   20.92    0.99
  -1   1  -7    2.47    0.73
   1  -1   7    2.84    0.52
  -1   1  -8    5.79    0.97
   1  -1   8    4.53    0.81
  -1   1  -9    1.49    0.59
   1  -1   9    1.44    0.67
   1   0  -9    2.15    0.78
  -1   0   9    2.23    0.66
  -1   0   9    2.79    0.84
   1   0  -8    4.58    0.92
  -1   0   8    2.76    0.67
  -1   0   8    3.58    0.64
   1   0  -7    1.05    0.50
  -1   0   7    0.99    0.58
  -1   0   7    0.80    0.57
   1   0  -6    4.83    0.82
  -1   0   6    3.04    0.65
  -1   0   6    4.65    0.98
  -1   0   5  105.85    3.84
  -1   0   5  107.71    3.46
  -1   0   5  112.25    3.48
  -1   0   4   66.94    2.70
  -1   0   4   69.51    3.91
  -1   0   4   71.05    3.04
  -1   0   3   21.25    1.61
  -1   0   3   24.16    2.33
   1   0  -2   29.78    1.53
  -1   0   2   35.44    1.51
  -1   0   2   33.00    1.72
   1   0  -1   17.57    0.82
  -1   0   1   18.66    0.84
  -1   0   0  126.59    2.21
  -1   0   0  141.30    2.87
  -1   0  -1   10.13    0.80
   1   0   1    9.94    0.67
   1   0   1   14.22    0.79
  -1   0  -1   11.12    1.16
   1   0   1   10.55    0.79
  -1   0  -1    9.27    0.62
  -1   0  -2    0.76    0.28
   1   0   2    0.58    0.30
   1   0   2    0.62    0.23
  -1   0  -2    0.28    0.24
   1   0   2    0.42    0.18
   1   0   3   37.75    2.10
   1   0   3   32.73    1.39
  -1   0  -3   31.84    1.25
   1   0   4   36.81    2.38
   1   0   4   38.34    1.46
  -1   0  -4   34.46    1.64
  -1   0  -4   33.91    1.64
  -1   0  -5   32.99    1.72
   1   0   5   26.49    1.92
   1   0   5   26.27    1.26
  -1   0  -5   24.43    1.49
   1   0   5   24.89    2.26
  -1   0  -5   21.63    1.38
  -1   0  -6    3.39    0.61
   1   0   6    3.31    0.64
   1   0   6    2.97    0.47
  -1   0  -6    3.11    0.67
   1   0   6    3.25    0.80
  -1   0  -7   11.90    1.39
   1   0   7   11.59    1.07
  -1   0  -7   11.35    1.39
   1   0   7   11.66    1.36
  -1   0  -8    6.88    0.81
   1   0   8    7.34    0.73
   1   0   8    7.06    1.06
  -1   0  -9    4.05    0.86
   1   0   9    4.11    0.70
   1   0   9    3.27    0.88
  -1   0 -10    3.47    0.89
   1   0  10    3.84    1.00
   1   1  -9    6.02    1.06
  -1  -1   9    5.58    0.87
  -1  -1   9    5.47    0.95
   1   1  -8    1.79    0.59
  -1  -1   8    0.87    0.60
  -1  -1   8    1.59    0.77
   1   1  -7    1.80    0.51
  -1  -1   7    1.64    0.73
  -1  -1   7    1.26    0.67
  -1  -1   6    8.99    1.21
  -1  -1   6    7.20    1.32
  -1  -1   5   11.10    1.27
  -1  -1   5   10.82    1.45
  -1  -1   5   13.20    1.42
  -1  -1   4   13.30    1.42
  -1  -1   4   12.76    1.32
   1   1  -3   63.92    2.93
  -1  -1   3   61.82    3.06
  -1  -1   3   63.46    3.54
   1   1  -2   94.29    2.77
  -1  -1   2   91.74    3.13
  -1  -1   2   98.22    3.76
   1   1  -1  144.63    2.31
  -1  -1   1  138.18    2.83
  -1  -1   1  137.95    3.02
   1   1   0   50.78    1.32
  -1  -1   0   51.62    1.99
  -1  -1   0   54.21    1.67
   1   1   1    3.71    0.71
  -1  -1  -1    4.14    0.67
   1   1   1    4.92    0.44
  -1  -1  -1    3.75    0.61
  -1  -1  -2    4.13    0.63
   1   1   2    3.86    0.44
   1   1   2    5.47    0.49
  -1  -1  -2    5.46    0.47
   1   1   2    4.85    0.65
  -1  -1  -2    4.46    0.48
  -1  -1  -3   71.81    2.00
   1   1   3   72.67    1.55
   1   1   3   74.84    1.87
  -1  -1  -3   68.93    2.40
  -1  -1  -3   73.33    1.94
   1   1   4   68.78    1.82
   1   1   4   60.49    3.10
   1   1   4   57.66    2.77
  -1  -1  -4   55.67    2.19
  -1  -1  -5   14.95    0.74
   1   1   5   12.10    1.07
   1   1   5   10.07    1.45
  -1  -1  -5   13.45    1.12
   1   1   5   11.91    1.31
  -1  -1  -5   10.68    0.68
  -1  -1  -6    5.46    0.51
   1   1   6    3.89    0.51
   1   1   6    4.08    0.97
  -1  -1  -6    4.99    0.51
   1   1   6    3.43    0.46
  -1  -1  -6    3.98    0.58
  -1  -1  -7   21.82    1.45
   1   1   7   16.43    1.43
  -1  -1  -7   18.37    1.40
   1   1   7   19.95    1.57
  -1  -1  -8    0.85    0.48
   1   1   8    1.20    0.51
   1   1   8    0.92    0.46
  -1  -1  -9    7.94    0.98
   1   1   9    7.05    1.26
   1   1   9    7.61    1.14
  -1  -1 -10    7.82    1.14
   1   1  10    8.22    0.97
   1   1  10    8.15    1.10
   1   2  -8    1.05    0.82
  -1  -2   8    0.56    0.69
   1   2  -7   10.82    0.77
  -1  -2   7   12.91    1.10
  -1  -2   7   13.75    1.18
  -1  -2   6    3.57    0.90
  -1  -2   6    4.05    0.82
  -1  -2   5    0.72    0.49
  -1  -2   5    0.89    0.49
   1   2  -4    1.54    0.52
  -1  -2   4    1.70    0.46
  -1  -2   4    1.29    0.52
   1   2  -3    2.38    0.58
  -1  -2   3    2.55    0.68
   1   2  -3    3.08    0.63
  -1  -2   3    2.71    0.62
   1   2  -2   66.72    2.55
  -1  -2   2   69.92    2.86
   1   2  -2   75.91    2.73
  -1  -2   2   64.58    2.53
   1   2  -1   42.47    1.53
  -1  -2   1   41.55    2.12
   1   2  -1   50.40    2.27
  -1  -2   1   39.80    1.96
   1   2   0  152.09    4.19
  -1  -2   0  139.82    4.30
   1   2   0  161.45    4.09
  -1  -2   0  146.13    3.91
   1   2   1   21.01    1.27
  -1  -2  -1   23.49    1.70
   1   2   1   17.71    1.04
  -1  -2  -1   24.79    1.21
   1   2   2   50.47    1.30
   1   2   2   52.40    1.41
  -1  -2  -2   46.48    1.39
  -1  -2  -3   35.63    1.07
   1   2   3   32.19    0.96
   1   2   3   32.85    0.99
  -1  -2  -3   35.55    1.16
   1   2   3   33.05    1.03
  -1  -2  -3   35.30    1.00
  -1  -2  -4  106.00    1.93
   1   2   4  104.35    1.84
   1   2   4  106.87    1.81
  -1  -2  -4  101.04    1.90
   1   2   4  103.75    1.91
  -1  -2  -4  101.26    1.84
  -1  -2  -5    6.39    0.49
   1   2   5    6.43    0.53
   1   2   5    7.44    0.59
  -1  -2  -5    6.54    0.56
   1   2   5    6.33    0.52
  -1  -2  -5    6.01    0.54
  -1  -2  -6   59.05    1.36
   1   2   6   59.52    1.44
   1   2   6   56.51    2.06
  -1  -2  -6   59.75    1.35
   1   2   6   59.13    1.49
  -1  -2  -6   57.16    1.38
  -1  -2  -7    7.05    0.57
   1   2   7    7.02    0.79
   1   2   7    6.98    0.61
  -1  -2  -8    0.97    0.43
   1   2   8    0.83    0.54
   1   2   8    0.69    0.40
  -1  -2  -9   29.14    1.61
   1   2   9   25.55    1.94
   1   2   9   26.83    1.68
  -1  -2 -10   -0.35    0.62
   1   2  10    0.79    0.67
   1   2  10    0.89    0.53
  -1  -3   6   13.56    1.30
   1   3  -5    7.18    1.10
  -1  -3   5    6.72    0.95
  -1  -3   5    7.01    0.64
   1   3  -4    0.68    0.47
  -1  -3   4   -0.03    0.49
   1   3  -3   10.93    1.13
   1   3  -3   10.80    1.27
  -1  -3   3   10.66    1.10
   1   3  -2    0.80    0.43
  -1  -3   2    1.20    0.49
   1   3  -2    0.93    0.39
  -1  -3   2    1.18    0.44
   1   3  -1   16.68    1.63
  -1  -3   1   15.27    1.33
   1   3  -1   16.28    1.64
  -1  -3   1   14.92    1.41
   1   3   0   21.63    1.66
  -1  -3   0   22.41    1.99
   1   3   0   23.42    1.28
  -1  -3   0   22.08    1.89
   1   3   1   37.62    2.29
  -1  -3  -1   35.44    2.18
   1   3   1   41.64    2.41
  -1  -3  -1   36.34    2.14
   1   3   2    7.91    1.03
   1   3   2    6.58    0.92
  -1  -3  -2    7.19    1.05
   1   3   3  110.48    2.16
   1   3   3  120.65    2.97
  -1  -3  -3  114.30    3.19
  -1  -3  -3  106.92    2.56
  -1  -3  -4    8.82    0.60
   1   3   4   10.03    0.61
   1   3   4   10.00    0.62
  -1  -3  -4    9.48    0.63
  -1  -3  -5   28.87    1.06
   1   3   5   28.85    1.06
   1   3   5   29.86    1.11
  -1  -3  -5   29.70    1.11
   1   3   5   29.32    1.10
  -1  -3  -5   29.78    1.10
  -1  -3  -6   46.84    1.23
   1   3   6   44.46    1.19
   1   3   6   45.54    1.29
   1   3   6   45.90    1.22
  -1  -3  -6   46.57    1.21
  -1  -3  -7    0.21    0.41
   1   3   7    0.74    0.59
   1   3   7    0.35    0.40
  -1  -3  -8   60.20    1.37
   1   3   8   63.38    1.50
   1   3   8   60.49    1.50
  -1  -3  -9    3.41    0.67
   1   3   9    2.99    0.65
   1   3   9    3.18    0.57
  -1  -3 -10    3.89    0.65
   1   3  10    3.72    0.93
   1   3  10    3.37    0.71
   1   4  -6    8.11    0.69
  -1  -4   6    6.58    0.83
   1   4  -5    3.37    0.82
  -1  -4   5    4.16    0.60
  -1  -4   5    2.90    0.66
   1   4  -4   21.25    1.52
   1   4  -4   20.27    1.41
   1   4  -3   10.23    1.17
   1   4  -3   10.04    1.10
  -1  -4   3    9.88    0.73
   1   4  -2    4.94    0.74
   1   4  -2    3.81    0.68
  -1  -4   2    4.58    0.57
   1   4  -1    5.57    0.81
   1   4  -1    5.18    0.97
  -1  -4   1    5.99    0.59
   1   4   0    4.90    0.91
  -1  -4   0    4.18    0.87
   1   4   0    4.16    0.79
  -1  -4   0    4.51    0.58
   1   4   1   -0.40    0.41
  -1  -4  -1    0.07    0.35
   1   4   1   -0.06    0.39
  -1  -4  -1    0.16    0.51
   1   4   2   40.70    2.26
  -1  -4  -2   38.35    2.50
   1   4   2   44.83    2.97
  -1  -4  -2   40.19    2.39
   1   4   3   33.29    2.24
   1   4   3   32.53    2.00
   1   4   3   43.54    1.78
  -1  -4  -3   42.09    1.97
  -1  -4  -3   31.43    2.24
   1   4   4    3.91    0.69
   1   4   4    4.32    0.67
   1   4   4    4.67    0.70
  -1  -4  -4    4.26    0.85
   1   4   5   21.57    1.11
   1   4   5   22.71    1.31
  -1  -4  -5   20.45    1.63
  -1  -4  -6    0.86    0.39
   1   4   6    1.12    0.52
   1   4   6    0.53    0.41
  -1  -4  -6    0.39    0.43
  -1  -4  -7   41.91    1.29
   1   4   7   40.62    1.14
   1   4   7   43.18    1.18
  -1  -4  -8   16.40    0.85
   1   4   8   16.34    0.94
   1   4   8   17.73    0.82
  -1  -4  -9    5.34    0.66
   1   4   9    5.06    0.69
   1   4   9    6.19    0.62
  -1  -4 -10    1.34    0.62
   1   4  10    0.73    0.55
   1   5  -5    0.68    0.76
  -1  -5   5    0.52    0.80
   1   5  -4    6.34    0.88
  -1  -5   4    5.40    0.72
   1   5  -3    8.61    1.00
   1   5  -3    7.95    1.04
   1   5  -2   16.67    1.33
   1   5  -2   15.63    1.44
   1   5  -1   15.09    1.51
   1   5  -1   15.43    1.56
   1   5   0    0.79    0.56
   1   5   0    0.11    0.44
   1   5   1    7.93    1.17
   1   5   1    8.35    1.11
   1   5   2   18.82    1.86
   1   5   2   19.87    1.77
   1   5   3    8.98    1.38
   1   5   3    9.32    0.74
  -1  -5  -3    8.77    1.09
   1   5   4    5.75    0.89
   1   5   4    6.33    0.60
  -1  -5  -4    4.59    0.80
   1   5   5    2.66    0.54
   1   5   5    3.05    0.51
   1   5   6   20.77    1.31
   1   5   6   20.76    0.85
   1   5   7   11.58    0.84
  -1  -5  -8    6.64    0.76
   1   5   8    5.86    0.69
  -1  -5  -9    1.06    0.62
   1   5   9    1.25    0.57
  -1  -5 -10    2.60    0.72
   1   5  10    2.52    0.78
   1   6  -3    0.52    0.73
  -1  -6   3    1.16    0.69
   1   6  -2    6.09    0.98
   1   6  -1    2.17    0.62
   1   6  -1    0.83    0.53
   1   6   0   10.73    1.19
   1   6   0   11.26    1.54
   1   6   1    9.40    1.14
   1   6   1    9.49    1.21
   1   6   2   12.92    1.36
   1   6   2   13.50    1.60
   1   6   3    1.26    0.44
   1   6   3    1.42    0.60
   1   6   4    0.83    0.52
   1   6   4    0.31    0.46
   1   6   5   19.50    1.54
   1   6   5   26.60    1.38
   1   6   6    7.83    1.44
   1   6   6    9.10    0.81
   1   6   7    5.58    0.84
   1   6   7    7.04    0.68
   1   6   8    1.60    0.60
   1   6   9    3.72    0.75
   1   6   9    2.56    0.58
   1   7  -1    2.82    0.77
   1   7   0    2.34    0.79
   1   7   1    7.30    1.14
   1   7   1    7.81    1.18
   1   7   2    4.41    0.99
   1   7   2    5.01    0.84
   1   7   3    0.16    0.56
   1   7   3   -0.21    0.59
   1   7   4   11.04    1.24
   1   7   4   11.67    1.41
   1   7   5    5.02    1.03
   1   7   5    5.02    0.97
   1   7   6    4.39    0.89
   1   7   6    5.09    1.02
   1   7   7    1.73    0.67
   1   7   7    1.24    0.77
  -2   6   6    1.82    0.92
  -2   6   6    2.40    0.63
  -2   6   5   17.43    1.62
  -2   6   5   14.00    1.66
  -2   6   4    2.04    0.75
  -2   6   4    0.95    0.65
  -2   6   3    6.34    1.22
  -2   6   3    6.72    0.79
  -2   6   2    2.55    0.58
  -2   6   0    4.50    0.98
  -2   6  -1    2.85    0.96
  -2   6  -2    1.71    0.77
  -2   6  -3    0.27    0.79
   2  -5  -7    0.30    0.72
  -2   5   7    0.33    0.65
  -2   5   6    3.24    0.67
  -2   5   5    3.87    0.95
  -2   5   5    2.40    0.74
  -2   5   4    5.27    0.90
  -2   5   4    5.62    0.87
  -2   5   3    8.08    0.98
  -2   5   2    5.39    0.68
  -2   5   1    7.14    0.64
  -2   5   1    6.89    0.64
  -2   5   0    8.93    1.21
  -2   5   0    7.46    0.62
  -2   5  -1    3.64    0.79
  -2   5  -2    3.76    0.73
   2  -5   2    3.37    0.58
  -2   5  -3    3.18    0.68
   2  -5   3    1.91    0.59
  -2   5  -4    7.52    1.08
   2  -5   4    5.21    0.75
  -2   5  -5    0.31    0.65
   2  -5   5    0.78    0.66
   2  -4  -8    6.34    1.05
  -2   4   8    5.87    1.02
   2  -4  -7    3.73    0.92
  -2   4   7    3.60    0.64
   2  -4  -6    6.29    1.00
  -2   4   6    5.76    1.02
  -2   4   5    3.60    0.67
  -2   4   4    0.02    0.51
  -2   4   3    5.90    0.69
  -2   4   2    9.27    0.78
   2  -4  -2    8.99    0.88
  -2   4   1   22.56    1.62
  -2   4   1   19.52    1.18
   2  -4  -1   20.54    1.00
   2  -4  -1   20.80    1.69
  -2   4   0    1.71    0.54
  -2   4   0    1.81    0.48
   2  -4   0    2.20    0.54
   2  -4   0    2.13    0.45
  -2   4  -1    6.97    1.25
  -2   4  -1    5.23    0.50
   2  -4   1    7.59    0.64
  -2   4  -2    1.91    0.46
   2  -4   2    1.51    0.52
  -2   4  -3   18.44    1.54
   2  -4   3   19.61    0.93
  -2   4  -4   10.47    1.19
   2  -4   4    9.82    0.82
  -2   4  -5   -0.37    0.52
   2  -4   5    0.12    0.56
  -2   4  -6    3.97    0.83
   2  -4   6    3.51    0.70
   2  -3  -9    1.47    0.61
  -2   3   9    1.94    0.92
   2  -3  -8    7.30    1.17
  -2   3   8    7.42    0.84
   2  -3  -7   10.83    1.35
  -2   3   6   36.37    2.02
  -2   3   5    2.81    0.73
  -2   3   5    1.95    0.49
  -2   3   4    3.57    0.71
   2  -3  -3    9.37    0.98
  -2   3   3    8.32    1.06
  -2   3   2   34.64    1.74
  -2   3   2   38.24    1.42
   2  -3  -2   33.94    1.87
  -2   3   1    1.63    0.47
  -2   3   1    1.54    0.39
   2  -3  -1    1.53    0.39
  -2   3   0   12.77    1.40
  -2   3   0   12.46    0.69
   2  -3   0   12.85    0.70
   2  -3   0   12.93    0.70
  -2   3  -1    1.84    0.53
  -2   3  -1    1.21    0.36
   2  -3   1    1.74    0.40
   2  -3   1    1.66    0.34
  -2   3  -2   10.16    1.27
   2  -3   2    9.19    0.72
  -2   3  -3   34.23    2.54
   2  -3   3   34.51    1.16
  -2   3  -4    0.87    0.48
   2  -3   4    0.03    0.54
  -2   3  -5   11.54    1.18
   2  -3   5   11.61    0.80
  -2   3  -6    2.73    0.66
   2  -3   6    2.81    0.68
  -2   3  -7    4.28    0.75
   2  -3   7    4.66    0.75
  -2   3  -8    1.37    0.74
   2  -3   8    1.10    0.73
   2  -2  -9    1.44    0.68
  -2   2   9    1.55    0.81
   2  -2  -8    0.04    0.46
  -2   2   8    0.20    0.66
  -2   2   7   15.00    1.26
  -2   2   7   15.65    1.37
  -2   2   6   10.01    1.13
  -2   2   5    7.26    0.78
   2  -2  -4   21.56    1.51
  -2   2   4   21.97    2.05
  -2   2   4   20.19    1.36
   2  -2  -3   84.60    2.65
  -2   2   3   76.62    2.53
  -2   2   3   83.24    3.84
   2  -2  -3   73.18    2.99
  -2   2   3   73.48    2.53
   2  -2  -2    3.15    0.47
  -2   2   2    2.11    0.43
  -2   2   2    2.70    0.57
   2  -2  -2    2.13    0.47
  -2   2   2    2.52    0.43
   2  -2  -1   14.32    0.72
  -2   2   1   14.39    0.84
  -2   2   1   13.59    0.91
   2  -2  -1   14.20    1.28
  -2   2   1   13.99    0.75
  -2   2   0   26.45    0.99
  -2   2   0   24.06    1.63
  -2   2   0   24.36    1.10
   2  -2   0   23.96    1.31
   2  -2   0   25.27    1.05
  -2   2   0   24.65    1.07
  -2   2  -1   12.69    0.68
  -2   2  -1   13.54    1.16
  -2   2  -1   12.15    1.06
  -2   2  -1   12.21    0.71
   2  -2   1   11.59    0.72
  -2   2  -1   12.62    0.76
  -2   2  -2   83.02    3.87
   2  -2   2   72.55    2.46
   2  -2   2   78.33    2.17
  -2   2  -2   74.60    2.11
  -2   2  -3    0.34    0.40
   2  -2   3    0.09    0.42
   2  -2   3    0.36    0.37
  -2   2  -3    0.16    0.40
  -2   2  -4    4.50    0.64
   2  -2   4    3.72    0.49
  -2   2  -5    6.85    1.02
   2  -2   5    7.34    0.71
  -2   2  -6    8.74    1.25
   2  -2   6    9.94    1.23
  -2   2  -7    4.87    0.95
   2  -2   7    5.29    0.82
  -2   2  -8    0.04    0.65
   2  -2   8   -0.03    0.55
  -2   2  -9    1.27    0.66
   2  -2   9    1.75    0.71
   2  -1  -9    3.73    0.96
  -2   1   9    4.02    0.91
  -2   1   9    4.04    0.97
   2  -1  -8    2.36    0.78
  -2   1   8    2.21    0.67
  -2   1   8    1.96    0.71
  -2   1   7    3.18    0.70
  -2   1   7    3.56    0.74
  -2   1   6   -0.06    0.57
  -2   1   6   -0.06    0.49
   2  -1  -5    1.65    0.52
  -2   1   5    2.31    0.51
  -2   1   5    1.24    0.67
   2  -1  -4   77.60    2.30
   2  -1  -3   21.63    1.10
  -2   1   3   20.12    1.22
  -2   1   3   18.84    1.56
  -2   1   3   18.31    1.61
   2  -1  -2    7.76    0.56
  -2   1   2    7.98    0.72
  -2   1   2    8.52    0.96
  -2   1   2    8.88    1.13
   2  -1  -1   22.39    0.96
  -2   1   1   22.31    0.93
  -2   1   1   23.15    1.63
  -2   1   1   23.95    1.79
  -2   1   1   21.13    0.94
   2  -1   0   26.62    1.14
  -2   1   0   25.75    0.99
  -2   1   0   26.87    2.17
  -2   1   0   28.04    2.35
  -2   1   0   25.44    0.96
  -2   1  -1   97.19    2.01
  -2   1  -1   97.83    2.55
  -2   1  -1   89.52    3.73
  -2   1  -1  101.34    2.10
   2  -1   1   93.44    1.92
  -2   1  -1   95.64    1.87
  -2   1  -2   35.74    1.99
   2  -1   2   32.87    1.13
  -2   1  -2   31.02    1.14
  -2   1  -2   33.69    1.17
   2  -1   2   35.05    1.14
  -2   1  -2   33.23    1.20
  -2   1  -3   17.58    1.68
   2  -1   3   16.16    1.41
   2  -1   3   15.58    0.84
  -2   1  -3   14.77    0.91
  -2   1  -4   14.09    1.62
   2  -1   4   11.59    1.07
   2  -1   4   11.14    1.18
   2  -1   4   12.59    0.91
  -2   1  -4   13.10    0.81
  -2   1  -5   14.53    1.58
   2  -1   5   14.65    1.37
   2  -1   5   14.01    1.59
   2  -1   5   13.96    0.81
   2  -1   5   15.99    1.18
  -2   1  -6    8.45    1.01
   2  -1   6    9.45    0.71
   2  -1   6    9.97    1.16
  -2   1  -7    3.37    0.75
   2  -1   7    3.23    0.66
  -2   1  -8    5.33    0.89
  -2   1  -9    3.53    0.78
  -2   0   9    7.46    1.29
  -2   0   8   10.21    0.90
  -2   0   8   10.41    1.40
  -2   0   7    3.72    0.64
  -2   0   7    4.34    0.82
   2   0  -6    0.44    0.44
  -2   0   6    0.13    0.61
  -2   0   6    0.10    0.40
   2   0  -5   19.16    1.47
  -2   0   5   19.84    1.51
   2   0  -4    7.46    0.81
  -2   0   4    7.92    1.01
   2   0  -3    9.36    0.78
  -2   0   3    9.39    0.78
  -2   0   3    8.07    1.10
  -2   0   3    9.27    1.01
   2   0  -2    5.08    0.53
  -2   0   2    5.08    0.62
   2   0  -1   46.18    1.46
  -2   0   1   45.54    1.31
   2   0  -1   43.24    2.38
  -2   0   1   44.67    2.64
   2   0   0   34.25    1.27
  -2   0   0   34.40    1.17
   2   0   0   35.91    2.24
  -2   0   0   33.42    1.65
  -2   0   0   32.05    1.21
  -2   0  -1    8.30    0.57
  -2   0  -1    8.33    0.63
   2   0   1    8.67    0.90
  -2   0  -1    8.39    1.12
   2   0   1    8.85    0.64
  -2   0  -1    8.38    0.59
  -2   0  -2   42.93    2.12
   2   0   2   42.32    1.32
   2   0   2   44.66    1.97
  -2   0  -2   44.87    2.39
   2   0   2   42.06    1.64
  -2   0  -2   46.07    1.31
  -2   0  -3   23.07    1.29
   2   0   3   19.82    1.19
   2   0   3   19.31    1.78
  -2   0  -3   19.33    0.97
   2   0   3   20.86    1.29
  -2   0  -3   18.19    0.96
  -2   0  -4   49.42    2.31
   2   0   4   42.31    2.18
   2   0   4   41.62    1.61
  -2   0  -4   43.13    1.52
   2   0   4   44.08    2.48
  -2   0  -4   43.36    1.98
  -2   0  -5   26.06    1.68
   2   0   5   25.33    1.74
   2   0   5   24.46    1.18
  -2   0  -5   24.13    1.02
   2   0   5   24.36    2.03
  -2   0  -6   12.83    1.44
   2   0   6   12.19    1.22
   2   0   6   12.17    0.79
  -2   0  -6   12.12    1.30
  -2   0  -7    2.51    0.80
   2   0   7    3.03    0.54
  -2   0  -7    2.93    0.76
  -2   0  -8   15.59    1.52
   2   0   8   16.34    0.90
   2   0   8   13.78    1.50
  -2   0  -9    1.39    0.66
   2   0   9    2.17    0.57
  -2   0 -10    5.24    1.00
   2   0  10    5.80    1.06
  -2  -1   8    6.96    0.94
  -2  -1   8    9.73    1.23
   2   1  -7    2.57    0.63
  -2  -1   7    2.38    0.71
  -2  -1   7    2.22    0.71
   2   1  -6   29.12    1.77
  -2  -1   6   27.17    1.78
  -2  -1   6   30.95    1.96
   2   1  -5    8.44    1.17
  -2  -1   5    7.45    1.12
   2   1  -4   15.35    0.84
  -2  -1   4   14.57    1.37
   2   1  -3    0.04    0.29
  -2  -1   3    0.29    0.33
  -2  -1   3    0.44    0.32
  -2  -1   3    0.03    0.47
   2   1  -2   14.96    0.81
  -2  -1   2   14.23    0.82
   2   1  -2   17.43    1.45
  -2  -1   2   16.21    1.03
   2   1  -1   85.72    1.72
  -2  -1   1   83.91    1.73
   2   1   0    1.12    0.32
  -2  -1   0    1.10    0.32
   2   1   0    1.39    0.30
  -2  -1   0    1.01    0.31
   2   1   1   56.10    1.46
  -2  -1  -1   53.95    1.36
   2   1   1   55.43    2.36
  -2  -1  -1   55.50    2.46
  -2  -1  -1   55.71    2.38
   2   1   2    0.95    0.47
  -2  -1  -2    0.79    0.33
   2   1   2    1.14    0.25
  -2  -1  -3    8.92    0.61
   2   1   3    9.77    1.00
   2   1   3   11.17    1.10
  -2  -1  -3    8.39    1.25
  -2  -1  -4   13.76    1.18
   2   1   4   14.88    1.59
   2   1   4   15.08    1.51
  -2  -1  -4   15.49    1.42
  -2  -1  -4   13.56    1.34
  -2  -1  -5   71.03    2.81
   2   1   5   64.27    2.88
   2   1   5   61.84    3.18
  -2  -1  -5   65.12    3.53
   2   1   5   70.61    3.79
  -2  -1  -5   77.74    2.92
  -2  -1  -6    2.37    0.54
   2   1   6    2.21    0.50
   2   1   6    1.91    0.55
  -2  -1  -6    1.93    0.48
   2   1   6    2.67    0.60
  -2  -1  -7   19.73    1.70
   2   1   7   17.68    1.40
   2   1   7   17.48    1.46
  -2  -1  -7   16.23    1.36
   2   1   7   18.48    1.18
  -2  -1  -8    2.88    0.78
   2   1   8    3.23    0.61
   2   1   8    3.49    0.88
  -2  -1  -9    2.13    0.75
   2   1   9    2.50    0.56
   2   1   9    2.72    0.66
  -2  -1 -10   21.08    1.83
   2   1  10   19.26    1.51
   2   2  -8    0.75    0.63
  -2  -2   8   -0.32    0.77
  -2  -2   8   -0.18    0.73
   2   2  -7    7.81    0.98
  -2  -2   7    8.03    1.18
  -2  -2   7    8.71    0.90
   2   2  -6    5.17    0.71
  -2  -2   6    4.46    0.68
  -2  -2   6    4.27    0.79
   2   2  -5   19.70    1.54
  -2  -2   5   18.34    1.61
   2   2  -4   13.29    1.00
  -2  -2   4   13.32    1.64
   2   2  -3    2.27    0.44
   2   2  -3    1.44    0.50
   2   2  -2   55.62    1.83
  -2  -2   2   53.02    1.89
   2   2  -2   52.69    2.52
  -2  -2   2   53.90    1.99
   2   2  -1    7.03    0.69
  -2  -2   1    7.15    0.67
   2   2  -1    8.03    0.94
  -2  -2   1    6.80    0.59
   2   2   0   51.67    1.46
  -2  -2   0   51.69    2.43
  -2  -2   0   51.06    2.68
   2   2   1   52.02    1.33
  -2  -2  -1   53.97    3.45
   2   2   2   13.89    0.74
  -2  -2  -2   13.67    1.49
   2   2   2   15.00    1.36
  -2  -2  -2   12.58    1.18
  -2  -2  -2   17.31    1.17
   2   2   3    0.08    0.25
   2   2   3    0.15    0.26
   2   2   3    0.12    0.26
  -2  -2  -3    0.12    0.31
   2   2   3   -0.06    0.19
  -2  -2  -3    0.03    0.30
  -2  -2  -4   75.39    3.54
   2   2   4   99.20    2.69
  -2  -2  -4   88.17    3.65
   2   2   4  101.38    2.91
  -2  -2  -4  105.32    2.53
  -2  -2  -5    6.77    0.91
   2   2   5    9.25    0.69
   2   2   5    7.50    0.78
  -2  -2  -5    8.21    0.99
   2   2   5    7.72    0.83
  -2  -2  -5    9.00    0.63
  -2  -2  -6   11.03    1.00
   2   2   6   11.91    1.02
   2   2   6   12.49    1.21
  -2  -2  -6   11.21    0.72
   2   2   6   13.55    0.93
  -2  -2  -7   13.77    1.05
   2   2   7   12.82    1.41
   2   2   7   12.52    1.57
   2   2   7   15.36    0.81
  -2  -2  -8    0.93    0.43
   2   2   8    0.69    0.51
   2   2   8    0.85    0.44
  -2  -2  -9   18.88    1.56
   2   2   9   19.51    2.03
   2   2   9   19.29    1.00
  -2  -2 -10    0.27    0.69
   2   2  10    0.82    0.70
   2   2  10    0.49    0.58
   2   3  -7    0.49    0.59
  -2  -3   7    0.21    0.75
  -2  -3   7    0.44    0.76
   2   3  -6    0.54    0.64
  -2  -3   6    0.05    0.66
  -2  -3   6    1.09    0.62
   2   3  -5    9.26    1.21
  -2  -3   5    8.64    1.05
   2   3  -4    1.61    0.58
   2   3  -4    1.89    0.51
   2   3  -3   16.23    1.54
   2   3  -3   14.94    1.18
   2   3  -2   16.93    1.11
   2   3  -2   15.62    1.36
   2   3  -1    7.87    0.87
  -2  -3   1    7.39    1.05
   2   3  -1    7.12    1.05
  -2  -3   1    7.21    0.68
   2   3   0   32.03    1.39
  -2  -3   0   32.76    2.13
   2   3   0   32.60    1.93
  -2  -3   0   31.72    1.80
   2   3   1   24.06    1.25
  -2  -3  -1   23.98    2.12
   2   3   1   25.39    1.58
  -2  -3  -1   24.87    1.43
   2   3   2    4.95    0.95
  -2  -3  -2    5.39    0.82
  -2  -3  -2    4.69    0.54
  -2  -3  -2    4.13    0.57
   2   3   3   96.53    3.67
   2   3   3   90.76    4.03
   2   3   3   90.78    3.20
  -2  -3  -3   90.22    3.38
   2   3   4   37.62    2.25
   2   3   4   52.00    1.80
   2   3   4   50.34    2.30
  -2  -3  -4   39.75    2.37
  -2  -3  -4   46.91    1.97
  -2  -3  -5    7.46    0.57
   2   3   5    4.42    0.66
   2   3   5    7.30    0.59
   2   3   5    7.16    0.58
  -2  -3  -5    7.24    0.63
  -2  -3  -6   11.00    0.71
   2   3   6   10.39    0.66
   2   3   6   10.92    0.69
   2   3   6   11.13    0.64
  -2  -3  -7   11.86    0.70
   2   3   7   11.09    0.66
   2   3   7   10.88    0.69
   2   3   7   11.78    0.69
  -2  -3  -8   33.37    1.27
   2   3   8   30.12    1.03
   2   3   8   35.47    1.08
  -2  -3  -9    6.01    0.67
   2   3   9    5.52    0.77
   2   3   9    5.29    0.63
  -2  -3 -10    0.78    0.64
   2   3  10    1.01    0.69
   2   3  10    1.61    0.61
   2   4  -6    2.73    0.73
   2   4  -5    0.83    0.64
  -2  -4   5    1.35    0.66
   2   4  -4    0.09    0.63
   2   4  -4    0.33    0.60
   2   4  -3   10.82    0.88
   2   4  -3    8.51    1.01
   2   4  -2    7.49    0.79
   2   4  -2    7.36    0.95
   2   4  -1   12.12    0.76
   2   4  -1   11.75    1.29
   2   4   0   10.11    1.06
  -2  -4   0    9.01    1.23
   2   4   0   10.32    1.28
   2   4   1    0.03    0.39
  -2  -4  -1   -0.33    0.49
   2   4   1   -0.12    0.35
   2   4   2   31.28    2.29
  -2  -4  -2   28.38    2.29
   2   4   2   34.19    1.77
   2   4   3   32.49    1.95
   2   4   3   31.96    2.38
   2   4   3   35.94    1.51
  -2  -4  -3   31.79    2.23
   2   4   4   28.25    1.85
   2   4   4   29.84    2.21
  -2  -4  -4   29.08    2.17
   2   4   5    1.38    0.47
   2   4   5    1.82    0.44
   2   4   5    1.36    0.45
  -2  -4  -5    0.94    0.39
   2   4   6   13.51    0.78
   2   4   6   12.32    0.67
   2   4   6   13.85    0.73
   2   4   6   14.43    0.80
  -2  -4  -7   43.56    1.25
   2   4   7   42.48    1.19
   2   4   7   42.70    1.25
  -2  -4  -8   13.46    0.73
   2   4   8   15.25    0.80
   2   4   8   13.59    0.73
  -2  -4  -9   12.53    0.72
   2   4   9   12.14    0.83
   2   4   9   11.45    0.77
   2   4  10    3.52    0.75
   2   4  10    2.57    0.67
   2   5  -4    2.17    0.70
   2   5  -4    2.18    0.52
   2   5  -3    3.54    0.68
   2   5  -3    4.31    0.71
   2   5  -2    4.89    0.79
   2   5  -2    3.51    0.73
   2   5  -1   10.17    1.09
   2   5  -1    9.90    1.11
   2   5   0   -0.13    0.44
   2   5   0    0.34    0.44
   2   5   1   17.38    1.50
   2   5   1   18.42    1.34
   2   5   2    4.09    0.77
   2   5   2    3.40    0.85
   2   5   3   18.05    1.69
   2   5   3   21.88    1.61
   2   5   3   21.88    1.76
   2   5   4    0.40    0.52
   2   5   4    0.64    0.43
   2   5   4    0.10    0.40
   2   5   5    2.42    0.58
   2   5   5    2.52    0.73
   2   5   6   35.51    1.81
   2   5   7    4.51    0.57
   2   5   7    6.53    0.59
   2   5   8    6.20    0.66
   2   5   8    6.45    0.68
   2   5   9    4.18    0.73
   2   5   9    4.61    0.65
   2   5  10   12.68    0.93
   2   6  -3    1.94    0.65
   2   6  -2    4.95    0.78
   2   6  -2    3.83    0.76
   2   6  -1    0.27    0.54
   2   6  -1   -0.05    0.59
   2   6   0   13.74    0.99
   2   6   0   12.39    1.21
   2   6   1    5.02    0.86
   2   6   1    4.68    0.97
   2   6   2    9.81    1.25
   2   6   2   10.81    1.16
   2   6   3    4.80    0.93
   2   6   3    5.26    0.89
   2   6   4   -0.31    0.45
   2   6   4    0.23    0.57
   2   6   5   17.92    1.76
   2   6   5   21.15    1.69
   2   6   6    7.11    1.26
   2   6   6    9.61    0.75
   2   6   7    2.72    0.73
   2   6   8    1.05    0.65
   2   6   9    7.15    0.76
   2   7   0    4.51    0.82
   2   7   0    3.07    0.77
   2   7   1    1.96    0.73
   2   7   1    1.82    0.72
   2   7   2    8.05    1.04
   2   7   2    9.15    1.15
   2   7   3    0.84    0.67
   2   7   3    0.27    0.62
   2   7   4    6.12    1.07
   2   7   4    6.10    0.99
   2   7   5    7.29    1.07
   2   7   5    8.43    1.11
   2   7   6    2.42    0.88
   2   7   7    2.66    0.70
  -3   6   3    1.82    0.92
  -3   6   2    0.43    0.73
  -3   6   1    1.00    0.54
  -3   6   0    2.18    0.72
  -3   6  -1    2.49    0.63
  -3   5   6    1.59    0.66
  -3   5   5    6.43    1.01
  -3   5   4    8.03    1.06
  -3   5   4    7.29    1.08
  -3   5   3    1.09    0.69
  -3   5   3    0.17    0.61
  -3   5   2    4.59    0.88
  -3   5   2    4.29    0.64
  -3   5   1    4.64    0.91
  -3   5   0    5.74    0.90
  -3   5  -1    0.51    0.66
  -3   5  -2    3.65    0.80
  -3   5  -3    1.69    0.74
  -3   5  -4    4.78    1.22
  -3   4   7    4.09    0.84
   3  -4  -6    4.64    0.73
  -3   4   6    4.01    0.94
   3  -4  -5   13.26    1.25
  -3   4   5   14.05    1.50
  -3   4   4    0.64    0.64
  -3   4   3    3.45    0.70
  -3   4   3    2.96    0.60
  -3   4   2   11.84    1.09
  -3   4   2   12.01    0.94
  -3   4   1   19.30    1.49
  -3   4   1   17.99    0.90
  -3   4   0    1.19    0.44
  -3   4   0    0.76    0.45
  -3   4  -1    5.92    0.90
  -3   4  -2    2.12    0.65
   3  -4   2    2.09    0.50
  -3   4  -3    7.27    0.97
   3  -4   3    6.17    0.69
  -3   4  -4   10.08    1.23
   3  -4   4   10.91    0.76
  -3   4  -5   -0.29    0.70
   3  -4   5   -0.11    0.64
  -3   4  -6    4.47    0.77
   3  -4   6    3.82    0.80
   3  -3  -7    1.75    0.55
  -3   3   7    1.52    0.76
   3  -3  -6    6.68    0.94
  -3   3   6    7.37    1.39
   3  -3  -5    4.38    0.64
  -3   3   5    4.76    0.84
   3  -3  -4   -0.23    0.58
  -3   3   4    0.49    0.60
   3  -3  -3    8.16    0.71
  -3   3   3    8.33    1.04
  -3   3   2   26.64    1.49
  -3   3   2   26.04    1.78
  -3   3   1    1.49    0.47
  -3   3   1    0.93    0.48
  -3   3   1    1.09    0.47
  -3   3   0    6.83    1.19
  -3   3   0    7.30    1.06
  -3   3   0    6.55    0.60
   3  -3   0    7.05    0.56
  -3   3   0    6.69    0.59
  -3   3  -1   10.75    1.09
  -3   3  -1    9.76    1.26
  -3   3  -1    8.46    0.62
   3  -3   1    9.80    0.63
  -3   3  -1    9.48    0.67
  -3   3  -2    8.09    1.09
  -3   3  -2    7.14    0.58
   3  -3   2    8.93    0.66
  -3   3  -2    7.47    0.62
  -3   3  -3   12.56    1.24
   3  -3   3   10.75    0.70
  -3   3  -4    1.35    0.58
   3  -3   4    1.39    0.59
  -3   3  -5    6.00    0.93
   3  -3   5    6.74    0.68
  -3   3  -6    6.45    0.98
   3  -3   6    7.65    0.74
  -3   3  -7    7.24    0.94
   3  -3   7    7.64    0.76
   3  -2  -8    9.21    1.22
  -3   2   8   10.34    1.02
   3  -2  -7    1.79    0.68
   3  -2  -6    7.69    1.15
  -3   2   6    8.88    0.78
   3  -2  -5    0.73    0.55
  -3   2   5    1.57    0.61
  -3   2   5    0.87    0.55
   3  -2  -4    6.27    1.12
  -3   2   4    6.63    1.10
   3  -2  -3   43.65    1.70
  -3   2   3   44.65    2.80
  -3   2   3   41.10    1.49
   3  -2  -2    3.39    0.49
  -3   2   2    3.40    0.86
  -3   2   2    3.40    0.49
   3  -2  -1    3.27    0.49
  -3   2   1    3.00    0.63
  -3   2   1    3.14    0.53
  -3   2   1    3.43    0.51
  -3   2   0    4.18    0.56
  -3   2   0    4.36    0.54
  -3   2   0    4.75    0.79
  -3   2   0    4.22    0.52
  -3   2   0    4.39    0.53
  -3   2  -1   20.87    0.85
  -3   2  -1   21.01    1.46
  -3   2  -1   20.46    1.58
  -3   2  -1   20.57    0.87
   3  -2   1   19.49    0.83
  -3   2  -1   22.09    0.90
  -3   2  -2   14.11    0.73
  -3   2  -2   14.69    1.44
  -3   2  -2   13.38    1.42
  -3   2  -2   13.50    0.77
   3  -2   2   14.18    0.72
  -3   2  -2   14.27    0.82
  -3   2  -3    4.65    0.84
   3  -2   3    4.69    0.60
   3  -2   3    4.65    0.53
  -3   2  -3    4.95    0.61
  -3   2  -4    3.73    0.80
   3  -2   4    4.03    0.52
  -3   2  -5    2.31    0.52
   3  -2   5    2.65    0.59
  -3   2  -6    6.74    0.87
   3  -2   6    6.52    0.76
  -3   2  -7    6.87    1.19
   3  -2   7    7.12    0.80
  -3   2  -8    6.08    0.85
   3  -2   8    6.59    0.87
   3  -1  -8    3.79    0.86
  -3   1   8    3.12    0.77
   3  -1  -7    5.22    0.79
  -3   1   7    5.63    0.81
  -3   1   7    5.83    0.95
   3  -1  -6    3.02    0.85
  -3   1   6    3.36    0.65
  -3   1   6    3.06    0.80
   3  -1  -5    2.21    0.54
   3  -1  -4   34.14    1.24
  -3   1   4   36.85    1.45
   3  -1  -3   11.19    0.81
  -3   1   3   10.58    1.09
   3  -1  -2   25.48    1.01
  -3   1   2   23.88    0.96
  -3   1   2   23.19    1.93
  -3   1   2   22.72    1.26
   3  -1  -1    1.57    0.41
  -3   1   1    1.72    0.42
  -3   1   1    1.83    0.54
  -3   1   1    1.73    0.60
  -3   1   1    2.15    0.41
   3  -1   0   34.47    1.45
  -3   1   0   35.19    1.30
  -3   1   0   34.11    2.07
  -3   1   0   34.57    2.60
  -3   1   0   37.09    1.35
  -3   1  -1   19.17    0.96
  -3   1  -1   20.18    0.96
  -3   1  -1   18.11    1.71
  -3   1  -1   18.83    1.28
   3  -1   1   20.07    0.93
  -3   1  -1   19.92    0.90
  -3   1  -2    5.42    0.51
  -3   1  -2    5.62    0.67
  -3   1  -2    5.27    0.86
  -3   1  -2    5.63    0.51
   3  -1   2    5.74    0.54
  -3   1  -2    5.94    0.53
  -3   1  -3   29.63    2.11
   3  -1   3   28.48    1.00
  -3   1  -3   27.94    1.01
  -3   1  -3   29.43    1.07
   3  -1   3   28.30    1.00
  -3   1  -3   29.75    1.05
  -3   1  -4    4.50    0.82
   3  -1   4    4.11    0.51
  -3   1  -4    4.60    0.54
  -3   1  -4    4.52    0.56
   3  -1   4    4.63    0.52
  -3   1  -5    5.09    0.88
   3  -1   5    4.98    0.59
   3  -1   5    4.41    0.59
  -3   1  -6    1.52    0.55
   3  -1   6    1.85    0.54
  -3   1  -7    2.77    0.72
   3  -1   7    2.97    0.68
  -3   1  -8    0.67    0.60
   3  -1   8    0.24    0.73
  -3   1  -9    8.24    1.27
   3  -1   9    7.71    0.99
   3   0  -8    0.69    0.71
  -3   0   8    0.40    0.58
  -3   0   8    0.86    0.78
   3   0  -7    4.05    0.66
  -3   0   7    5.02    0.77
  -3   0   7    4.28    0.84
   3   0  -6    1.10    0.65
  -3   0   6    1.43    0.66
   3   0  -5   21.55    1.66
  -3   0   5   23.10    1.19
   3   0  -4    1.69    0.50
   3   0  -3   23.92    1.01
   3   0  -2    2.37    0.45
  -3   0   2    2.73    0.49
  -3   0   2    3.16    1.02
   3   0  -1   25.73    1.18
  -3   0   1   25.52    1.10
  -3   0   1   24.18    1.58
  -3   0   1   24.83    2.02
   3   0   0   74.29    2.29
  -3   0   0   75.81    2.13
   3   0   0   73.35    3.33
  -3   0   0   74.20    3.04
  -3   0   0   78.04    2.48
   3   0   1    2.82    0.42
  -3   0  -1    2.63    0.39
   3   0   1    2.67    0.68
  -3   0  -1    3.03    0.55
  -3   0  -1    3.20    0.46
  -3   0  -2   42.63    1.41
  -3   0  -2   46.04    1.78
   3   0   2   42.00    2.90
  -3   0  -2   42.60    2.60
   3   0   2   45.18    1.70
  -3   0  -2   44.36    1.51
  -3   0  -3   13.89    0.81
  -3   0  -3   15.20    1.40
   3   0   3   14.52    1.45
  -3   0  -3   13.74    1.31
   3   0   3   16.02    0.97
  -3   0  -3   13.60    0.91
  -3   0  -4   18.09    1.69
   3   0   4   16.57    0.81
   3   0   4   17.80    1.66
  -3   0  -4   18.07    0.92
   3   0   4   17.53    1.15
  -3   0  -4   16.05    1.11
  -3   0  -5   15.83    1.60
   3   0   5   15.32    0.78
   3   0   5   15.35    1.62
  -3   0  -5   16.20    0.80
   3   0   5   15.94    1.17
  -3   0  -6   27.69    2.28
   3   0   6   29.91    1.25
   3   0   6   28.15    1.55
  -3   0  -6   28.64    1.09
   3   0   6   29.59    2.02
  -3   0  -7    0.03    0.42
   3   0   7   -0.16    0.44
  -3   0  -8    0.93    0.55
  -3   0  -9   -0.14    0.55
   3   0  10    1.80    0.77
   3   1  -7    0.46    0.63
  -3  -1   7   -0.13    0.66
  -3  -1   7    1.18    0.70
   3   1  -6   13.25    1.39
  -3  -1   6   13.75    0.85
   3   1  -5    0.97    0.52
  -3  -1   5    0.92    0.56
   3   1  -4   11.26    0.89
  -3  -1   4   11.84    0.78
   3   1  -3    7.96    0.61
  -3  -1   3    9.09    0.81
   3   1  -2    0.04    0.41
  -3  -1   2    0.49    0.45
   3   1  -1   41.06    1.40
  -3  -1   1   40.95    1.39
   3   1  -1   40.58    2.71
  -3  -1   1   39.89    1.41
   3   1   0   14.52    0.79
  -3  -1   0   13.81    0.73
   3   1   0   13.22    1.12
  -3  -1   0   13.81    1.15
   3   1   1   24.08    1.01
  -3  -1  -1   24.11    0.99
   3   1   1   24.47    1.70
  -3  -1  -1   24.72    1.60
  -3  -1  -1   26.71    1.59
  -3  -1  -2   30.45    1.18
  -3  -1  -2   31.68    1.24
   3   1   2   32.58    2.25
  -3  -1  -2   31.62    2.07
  -3  -1  -2   32.27    1.90
   3   1   3    5.09    0.86
  -3  -1  -3    4.57    0.80
   3   1   3    4.69    0.75
  -3  -1  -3    4.84    0.69
  -3  -1  -4    5.22    0.49
  -3  -1  -4    5.98    0.93
   3   1   4    6.07    1.10
  -3  -1  -4    5.35    0.92
   3   1   4    6.10    0.93
  -3  -1  -4    5.49    0.85
  -3  -1  -5   69.23    1.98
   3   1   5   68.02    2.67
   3   1   5   74.79    3.28
  -3  -1  -5   77.30    2.43
   3   1   5   62.34    3.25
  -3  -1  -6   21.86    1.40
   3   1   6   19.84    1.68
   3   1   6   23.57    2.14
  -3  -1  -6   23.44    1.05
  -3  -1  -7   13.05    1.42
   3   1   7   11.96    1.07
  -3  -1  -7   13.37    1.07
  -3  -1  -8    5.44    1.05
   3   1   8    6.32    0.86
   3   1   8    6.88    0.98
   3   1   9    2.14    0.57
   3   1  10    3.59    0.60
   3   2  -7    4.64    0.72
  -3  -2   7    3.70    0.74
  -3  -2   7    5.21    0.82
   3   2  -6    0.92    0.64
  -3  -2   6    2.09    0.57
   3   2  -5    1.90    0.67
  -3  -2   5    3.56    0.64
   3   2  -4   19.80    1.44
  -3  -2   4   19.86    1.06
   3   2  -3    2.60    0.52
   3   2  -3    2.72    0.46
   3   2  -2    7.43    0.57
   3   2  -2    6.81    1.01
   3   2  -1   21.31    0.88
  -3  -2   1   20.81    1.20
   3   2   0    4.84    0.47
  -3  -2   0    4.56    0.56
   3   2   0    4.18    0.67
   3   2   1   28.06    1.14
  -3  -2  -1   30.32    1.28
   3   2   1   27.73    2.19
  -3  -2  -1   28.88    1.23
  -3  -2  -1   30.02    1.53
   3   2   2    9.12    0.63
  -3  -2  -2    9.02    1.34
   3   2   2    9.35    1.02
  -3  -2  -2    7.73    0.95
   3   2   3    1.43    0.55
  -3  -2  -3    1.70    0.47
   3   2   4   35.76    2.19
  -3  -2  -4   31.99    2.14
   3   2   5   11.68    1.43
  -3  -2  -5   11.14    1.13
   3   2   5   11.66    1.29
  -3  -2  -6    6.58    0.54
   3   2   6    6.68    1.14
   3   2   6    7.70    1.03
  -3  -2  -6    6.63    1.06
   3   2   6    7.92    0.85
  -3  -2  -7    5.78    0.58
   3   2   7    5.37    0.61
   3   2   7    4.85    0.52
  -3  -2  -8   26.93    2.06
   3   2   8   26.68    1.98
   3   2   8   34.25    1.97
   3   2   9   24.52    1.93
   3   2   9   27.90    2.11
   3   2  10    3.41    0.62
   3   3  -6    0.64    0.79
  -3  -3   6    1.54    0.70
   3   3  -5    5.47    0.78
  -3  -3   5    5.70    0.70
   3   3  -4    6.88    0.83
  -3  -3   4    6.96    0.67
   3   3  -3    0.94    0.43
   3   3  -3    0.74    0.38
   3   3  -2   22.52    0.95
   3   3  -2   24.14    1.65
   3   3  -1   14.99    0.74
  -3  -3   1   14.17    1.00
   3   3  -1   13.63    1.22
   3   3   0   14.83    0.76
  -3  -3   0   14.84    1.26
   3   3   0   15.97    1.39
   3   3   1   10.36    0.64
  -3  -3  -1    9.05    1.15
   3   3   2    1.64    0.41
  -3  -3  -2    2.09    0.63
   3   3   2    1.98    0.56
   3   3   3   54.51    1.44
   3   3   3   50.96    1.34
   3   3   3   55.70    2.86
   3   3   4   12.98    1.60
   3   3   5   16.59    1.06
   3   3   5   16.07    1.79
   3   3   5   20.37    1.36
   3   3   6    4.57    1.00
   3   3   6    4.05    0.76
   3   3   6    4.60    0.98
   3   3   6    4.22    0.90
  -3  -3  -7    5.59    0.95
   3   3   7    6.31    0.70
   3   3   7    7.23    0.72
   3   3   8   25.85    0.98
   3   3   8   26.13    1.24
   3   3   9    5.57    0.68
   3   3   9    8.16    0.69
   3   3  10    9.20    1.37
   3   3  10   14.37    0.81
   3   4  -5    5.85    0.94
  -3  -4   5    4.46    0.74
   3   4  -4    0.26    0.65
   3   4  -4    0.31    0.46
   3   4  -3    4.15    0.74
   3   4  -3    3.09    0.77
   3   4  -2   12.47    0.77
   3   4  -2   12.01    1.21
   3   4  -1   12.43    0.75
   3   4  -1   12.11    1.08
   3   4   0   10.20    0.69
  -3  -4   0    9.89    1.22
   3   4   0    9.28    1.01
   3   4   1    0.56    0.45
  -3  -4  -1    0.00    0.40
   3   4   1    0.15    0.41
   3   4   2   42.74    1.18
  -3  -4  -2   44.28    2.85
   3   4   3    6.13    0.96
   3   4   3    6.82    0.59
   3   4   4   46.81    2.29
   3   4   4   47.52    1.60
   3   4   4   48.84    2.75
   3   4   5    3.89    0.92
   3   4   5    3.57    0.78
   3   4   6    4.32    0.85
   3   4   6    4.21    0.79
   3   4   7   27.46    1.78
   3   4   7   35.17    1.31
   3   4   8   -0.21    0.59
   3   4   8    0.54    0.53
   3   4   9    0.01    0.59
   3   4   9    0.09    0.50
   3   4  10    1.45    0.68
   3   4  10    2.05    0.64
   3   5  -4    0.86    0.78
   3   5  -4    0.36    0.57
   3   5  -3    3.04    0.70
   3   5  -3    3.87    0.67
   3   5  -2    4.19    0.59
   3   5  -2    4.38    0.72
   3   5  -1    3.70    0.70
   3   5  -1    4.23    0.73
   3   5   0   -0.14    0.47
   3   5   0    1.01    0.49
   3   5   1   25.75    0.97
   3   5   1   24.09    1.47
   3   5   2    3.58    0.80
  -3  -5  -2    3.97    0.72
   3   5   2    4.49    0.96
   3   5   3    8.34    0.70
   3   5   3    9.30    0.96
   3   5   4    9.14    1.13
   3   5   5    1.63    0.59
   3   5   5    1.96    0.54
   3   5   6   40.72    2.12
   3   5   7   19.13    1.44
   3   5   8    4.67    0.66
   3   5   9    1.76    0.67
   3   5  10    3.68    0.81
   3   5  10    4.05    0.74
   3   6  -2    3.23    0.69
   3   6  -2    3.83    0.68
   3   6  -1    0.55    0.63
   3   6  -1   -0.05    0.74
   3   6   0    5.83    0.70
   3   6   0    6.02    0.81
   3   6   1    8.35    0.79
   3   6   1    8.43    1.13
   3   6   2    1.96    0.58
   3   6   2    1.64    0.63
   3   6   3    5.68    0.72
   3   6   3    5.28    0.93
   3   6   4    0.18    0.53
   3   6   4    0.11    0.54
   3   6   5    3.31    0.77
   3   6   7    5.89    0.91
   3   6   8   10.55    1.11
   3   6   9   15.05    0.92
   3   7   1    2.78    0.72
   3   7   1    2.62    0.66
   3   7   2    3.11    0.69
   3   7   3    5.93    0.86
   3   7   4    0.59    0.62
   3   7   5    3.27    0.79
   3   7   6    0.86    0.55
  -4   5   3    1.55    0.77
  -4   5   2    2.06    0.72
  -4   5   1    5.71    1.05
  -4   5   0    3.73    0.82
  -4   5  -1   -0.72    0.72
  -4   5  -2    0.94    0.68
   4  -4  -5    2.45    0.72
  -4   4   5    2.27    0.78
  -4   4   4    3.00    0.80
  -4   4   4    2.66    0.78
  -4   4   3    0.96    0.72
  -4   4   3    0.35    0.67
  -4   4   2    8.29    1.17
  -4   4   2    8.05    0.81
  -4   4   1   13.53    1.09
  -4   4   1   11.95    0.82
  -4   4   0    1.52    0.68
  -4   4  -1    3.90    1.03
  -4   4  -2    2.14    0.59
  -4   4  -3    1.12    0.66
  -4   4  -4    0.63    0.71
   4  -3  -6    0.52    0.62
  -4   3   6    0.19    0.81
   4  -3  -5    5.52    0.71
  -4   3   5    5.84    1.00
   4  -3  -4    1.81    0.68
  -4   3   4    1.07    0.74
   4  -3  -3    5.34    0.66
  -4   3   3    5.03    1.05
  -4   3   2   13.64    1.29
  -4   3   2   13.06    1.00
  -4   3   1    1.44    0.65
  -4   3   1    1.35    0.54
  -4   3   0    7.53    1.22
  -4   3   0    8.01    0.67
  -4   3  -1    6.18    0.90
  -4   3  -1    4.89    0.62
  -4   3  -2   24.89    2.01
   4  -3   2   22.73    0.97
  -4   3  -3    6.35    0.90
   4  -3   3    5.54    0.60
  -4   3  -4    1.87    0.68
   4  -3   4    1.56    0.60
  -4   3  -5    0.49    0.76
   4  -3   5    0.37    0.58
  -4   3  -6   -0.38    0.68
   4  -3   6   -0.24    0.77
   4  -2  -6    2.52    0.69
  -4   2   6    1.81    0.82
   4  -2  -5    1.89    0.71
  -4   2   5    2.43    0.66
   4  -2  -4    4.08    0.70
  -4   2   4    3.68    0.70
   4  -2  -3   19.91    0.92
  -4   2   3   17.84    1.48
   4  -2  -2    1.42    0.50
  -4   2   2    1.55    0.55
  -4   2   1   11.08    1.13
  -4   2   1    9.14    0.91
  -4   2   0    0.07    0.39
  -4   2   0    0.09    0.45
  -4   2   0   -0.19    0.43
  -4   2  -1   12.61    1.00
  -4   2  -1   11.99    1.34
  -4   2  -1   11.76    0.76
  -4   2  -1   12.49    0.78
  -4   2  -2   11.72    1.21
  -4   2  -2   11.49    0.73
   4  -2   2   11.21    0.75
  -4   2  -2   12.40    0.78
  -4   2  -3    8.29    1.10
   4  -2   3    9.45    0.67
  -4   2  -4   25.23    2.02
   4  -2   4   24.91    1.03
  -4   2  -5    5.57    1.04
   4  -2   5    6.35    0.66
  -4   2  -6    2.97    0.67
   4  -2   6    2.67    0.62
  -4   2  -7    0.92    0.60
   4  -2   7    0.75    0.67
   4  -1  -6    2.04    0.72
   4  -1  -5    1.64    0.56
  -4   1   5    1.85    0.54
   4  -1  -4   16.35    0.85
  -4   1   4   16.83    0.97
   4  -1  -3    0.75    0.54
  -4   1   3    0.30    0.50
   4  -1  -2   24.20    1.19
  -4   1   2   22.69    1.85
  -4   1   2   21.06    0.90
   4  -1  -1    3.61    0.53
  -4   1   1    2.83    0.73
  -4   1   1    3.29    0.55
   4  -1   0    5.30    0.58
  -4   1   0    4.44    0.52
  -4   1   0    4.81    0.78
  -4   1   0    4.56    0.58
  -4   1  -1   11.83    0.72
  -4   1  -1   12.36    0.75
  -4   1  -1   11.59    1.05
  -4   1  -1   12.16    1.07
  -4   1  -1   12.56    0.80
  -4   1  -2   -0.01    0.45
  -4   1  -2    0.14    0.46
  -4   1  -2   -0.11    0.34
  -4   1  -2    0.10    0.43
   4  -1   2    0.20    0.39
  -4   1  -2    0.25    0.45
  -4   1  -3    6.46    0.51
  -4   1  -3    7.00    0.95
  -4   1  -3    6.39    0.71
  -4   1  -3    7.14    0.63
   4  -1   3    6.97    0.60
  -4   1  -4    6.83    0.67
  -4   1  -4    7.25    1.02
  -4   1  -4    7.76    0.60
   4  -1   4    7.55    0.63
  -4   1  -5   10.46    1.48
   4  -1   5   12.23    0.71
  -4   1  -6   15.05    1.57
   4  -1   6   16.80    0.94
  -4   1  -7   16.40    1.47
   4  -1   7   19.92    1.82
   4  -1   8    1.42    0.74
   4   0  -6    1.50    0.67
  -4   0   6    1.29    0.70
   4   0  -5   13.06    0.79
   4   0  -4    1.28    0.60
  -4   0   4    0.98    0.52
   4   0  -3   10.63    0.72
  -4   0   3   11.88    0.79
   4   0  -2   14.88    0.80
  -4   0   2   14.25    0.82
   4   0  -1    3.11    0.47
  -4   0   1    3.23    0.58
  -4   0   1    3.29    0.73
  -4   0   1    4.06    0.63
   4   0   0   35.93    1.21
  -4   0   0   37.49    1.31
   4   0   0   33.62    1.08
  -4   0   0   30.84    1.14
  -4   0  -1   21.15    0.96
   4   0   1   21.82    1.74
  -4   0  -1   20.51    1.68
  -4   0  -1   22.30    0.96
  -4   0  -2    5.99    0.67
  -4   0  -2    6.49    0.60
   4   0   2    6.82    0.72
  -4   0  -2    5.55    0.93
  -4   0  -3    3.16    0.48
  -4   0  -3    3.19    0.61
   4   0   3    4.05    0.54
  -4   0  -3    3.13    0.70
   4   0   3    3.24    0.45
  -4   0  -4    0.56    0.41
  -4   0  -4    1.02    0.55
   4   0   4    0.67    0.48
  -4   0  -4    0.67    0.46
   4   0   4    0.34    0.46
  -4   0  -5    1.16    0.51
   4   0   5    1.01    0.41
   4   0   5    1.09    0.43
  -4   0  -6   18.84    1.67
   4   0   6   18.04    1.25
   4   0   7    9.34    0.83
   4   0   8    7.86    1.42
   4   0   9    3.78    0.82
   4   1  -6    3.78    0.82
  -4  -1   6    5.25    0.82
   4   1  -5    3.27    0.65
  -4  -1   5    2.27    0.69
   4   1  -4    4.47    0.60
  -4  -1   4    5.23    0.78
   4   1  -3   14.48    0.80
   4   1  -2    2.19    0.46
  -4  -1   2    2.03    0.52
   4   1  -1    1.74    0.45
  -4  -1   1    1.89    0.53
   4   1  -1    2.24    0.48
   4   1   0   38.61    1.25
  -4  -1   0   37.13    1.11
   4   1   0   37.20    2.02
   4   1   1   23.30    0.98
  -4  -1  -1   21.95    0.90
   4   1   1   21.60    1.42
  -4  -1  -2   46.63    1.32
  -4  -1  -2   46.20    1.27
   4   1   2   46.91    2.50
  -4  -1  -2   45.80    2.39
  -4  -1  -3   11.97    0.74
  -4  -1  -3   11.71    1.41
   4   1   3   11.34    1.25
  -4  -1  -3   11.22    1.16
   4   1   4    6.10    1.04
  -4  -1  -4    4.94    0.87
   4   1   4    5.98    0.88
  -4  -1  -5    9.76    0.79
  -4  -1  -5   10.35    1.73
   4   1   5    9.65    1.31
  -4  -1  -5   10.69    0.89
   4   1   5   10.70    1.10
   4   1   6    0.37    0.41
   4   1   6   -0.04    0.39
   4   1   7    1.41    0.57
   4   1   7    1.25    0.52
   4   1  10    6.92    1.31
   4   2  -5    1.70    0.61
  -4  -2   5    2.53    0.79
   4   2  -4    5.68    0.73
  -4  -2   4    5.21    0.67
   4   2  -3    9.05    0.73
  -4  -2   3    9.22    0.74
   4   2  -2    0.17    0.47
   4   2  -1   12.56    0.69
  -4  -2   1   13.67    0.75
   4   2  -1   13.50    1.02
   4   2   0    6.58    0.56
  -4  -2   0    6.79    0.67
   4   2   0    5.96    0.72
   4   2   1    8.30    0.60
  -4  -2  -1    8.14    0.58
   4   2   1    7.45    1.00
   4   2   2    6.95    0.56
  -4  -2  -2    7.50    0.99
   4   2   2    5.93    0.96
   4   2   3   20.93    1.45
   4   2   4   86.83    3.71
   4   2   5   12.87    1.47
   4   2   5   12.07    1.33
   4   2   6   21.55    2.21
   4   2   7    2.19    0.67
   4   2   8    3.72    0.77
   4   2   8    3.13    0.94
   4   2   9    5.84    0.99
   4   2  10    1.11    0.67
   4   3  -5    1.54    0.72
  -4  -3   5    1.61    0.84
   4   3  -4    5.78    0.70
  -4  -3   4    5.52    0.79
   4   3  -3    0.16    0.60
   4   3  -3    0.36    0.51
   4   3  -2    8.59    0.70
   4   3  -2    9.51    1.00
   4   3  -1   16.81    0.81
   4   3  -1   15.32    0.75
   4   3   0    9.47    0.64
  -4  -3   0    9.04    0.96
   4   3   1    0.08    0.31
  -4  -3  -1   -0.06    0.49
   4   3   1    0.12    0.41
   4   3   2    1.45    0.41
  -4  -3  -2    1.73    0.56
   4   3   2    1.91    0.44
   4   3   3   30.55    1.86
   4   3   4    3.05    0.75
   4   3   5   45.21    2.92
   4   3   6   12.91    1.23
   4   3   6   12.75    1.51
   4   3   7   11.40    1.37
   4   3   7   11.15    1.05
   4   3   8   24.12    1.87
   4   3   8   29.38    1.66
   4   3   9    1.25    0.61
   4   3   9    0.50    0.62
   4   3  10    1.15    0.60
   4   4  -4    1.06    0.68
  -4  -4   4    0.30    0.73
   4   4  -3    1.88    0.63
   4   4  -3    1.16    0.59
   4   4  -2    7.14    0.63
   4   4  -2    7.61    0.73
   4   4  -1   14.83    0.80
   4   4  -1   14.96    1.14
   4   4   0    9.52    0.67
   4   4   0    7.96    0.81
   4   4   1    0.44    0.48
   4   4   2   27.42    1.07
   4   4   2   25.98    1.80
   4   4   3    0.34    0.58
   4   4   4    0.37    0.42
   4   4   5    2.82    0.79
   4   4   7   27.54    2.21
   4   4   8   16.78    1.72
   4   4   8   17.68    1.98
   4   4   9    4.86    0.95
   4   4   9    7.74    0.70
   4   4  10    4.97    0.92
   4   4  10    4.27    0.98
   4   5  -2    3.01    0.66
   4   5  -2    3.91    0.66
   4   5  -1    3.03    0.69
   4   5  -1    2.78    0.60
   4   5   0    0.17    0.54
   4   5   0   -0.01    0.50
   4   5   1   19.58    0.89
   4   5   1   19.75    1.04
   4   5   2   25.69    1.79
   4   5   4    6.24    0.97
   4   5   5    0.43    0.46
   4   5   6    0.43    0.58
   4   5   7    4.58    0.96
   4   5   8    3.00    0.72
   4   5   9    8.20    1.30
   4   6   0    0.66    0.57
   4   6   1    2.71    0.67
   4   6   2    6.04    0.78
   4   6   3    6.58    0.96
   4   6   4   22.68    1.01
   4   6   6    7.23    0.96
   4   6   7    1.42    0.55
   4   6   8    2.32    0.80
   4   7   3    1.20    0.83
   4   7   4    1.17    0.79
   4   7   5    7.82    1.06
  -5   4   1    1.00    0.74
  -5   4   0    0.17    0.62
  -5   4  -1    2.31    0.80
  -5   3   3    7.35    0.82
  -5   3   3    6.12    1.01
  -5   3   2   13.84    0.99
  -5   3   2   12.05    0.92
  -5   3   1    1.24    0.64
  -5   3   1    0.88    0.66
  -5   3   0    5.92    0.92
  -5   3  -1    0.77    0.69
  -5   3  -2    0.79    0.66
  -5   3  -3    1.58    0.67
  -5   3  -4    1.34    0.81
   5  -2  -4    0.76    0.69
  -5   2   4    1.41    0.77
   5  -2  -3    7.96    0.90
  -5   2   3    9.72    1.09
   5  -2  -2    2.18    0.79
  -5   2   2    1.04    0.66
  -5   2   1   24.93    1.36
  -5   2   1   22.38    1.08
  -5   2   0    8.11    1.11
  -5   2   0    7.70    0.74
  -5   2  -1    3.96    0.76
  -5   2  -1    4.06    0.58
  -5   2  -2    6.08    1.05
  -5   2  -3   -0.07    0.48
   5  -2   3   -0.22    0.57
  -5   2  -4    0.55    0.56
   5  -2   4    1.04    0.53
   5  -2   5    0.86    0.51
   5  -2   6    1.50    0.60
   5  -1  -4    4.91    0.71
  -5   1   4    4.42    0.89
   5  -1  -3    0.35    0.54
  -5   1   3   -0.83    0.71
   5  -1  -2    2.64    0.50
  -5   1   2    1.57    0.51
   5  -1  -1    6.36    0.73
  -5   1   1    5.13    0.68
  -5   1   0    2.71    0.55
  -5   1   0    2.88    0.58
  -5   1  -1   21.30    1.00
  -5   1  -1   19.68    1.16
  -5   1  -2   25.39    1.77
  -5   1  -2   22.56    1.07
  -5   1  -3    7.99    1.15
  -5   1  -3    7.46    0.66
   5  -1   4    4.44    0.62
   5  -1   5   -0.22    0.59
   5  -1   6    2.99    0.62
   5  -1   7    3.76    0.71
   5   0  -4    4.81    0.61
  -5   0   4    6.71    0.76
   5   0  -3    5.29    0.65
  -5   0   3    4.81    0.66
   5   0  -2    4.13    0.65
  -5   0   2    4.35    0.73
   5   0  -1   -0.15    0.51
  -5   0   1   -0.01    0.58
   5   0   0    0.95    0.45
  -5   0   0    0.31    0.42
  -5   0  -1   16.00    0.85
  -5   0  -1   14.22    1.27
  -5   0  -2    9.55    0.71
   5   0   2    7.95    0.83
  -5   0  -3   18.42    1.58
   5   0   3   19.08    1.07
   5   0   4    5.72    0.59
   5   0   4    5.50    0.66
   5   0   5   11.77    0.89
   5   0   6    9.17    0.85
   5   0   7    0.70    0.63
   5   0   8    3.49    0.79
   5   1  -4    8.97    0.77
   5   1  -3    8.68    0.74
  -5  -1   3    7.53    0.88
   5   1  -2   16.24    0.92
  -5  -1   2   15.83    0.88
   5   1  -1    0.44    0.52
  -5  -1   1    0.12    0.47
   5   1   0    9.44    0.71
   5   1   0    9.45    0.95
   5   1   1    1.65    0.52
   5   1   1    1.69    0.52
  -5  -1  -2    0.84    0.40
   5   1   2    0.59    0.51
   5   1   3    0.23    0.46
   5   1   4    8.53    0.78
   5   1   5   32.48    1.53
   5   1   5   33.11    2.32
   5   1   6    2.24    0.62
   5   1   7   11.16    1.47
   5   1   8    0.73    0.61
   5   1   9    6.53    1.05
   5   2  -4    0.37    0.60
  -5  -2   4    0.07    0.67
   5   2  -3    1.69    0.65
   5   2  -2    3.87    0.60
   5   2  -1   20.29    0.91
   5   2  -1   19.69    0.98
   5   2   0   27.09    1.07
   5   2   0   28.24    1.36
   5   2   1   16.86    1.35
   5   2   2   -0.08    0.48
   5   2   3   -0.08    0.46
   5   2   4   19.55    1.52
   5   2   5   -0.07    0.49
   5   2   6    9.85    1.15
   5   2   6   10.35    1.33
   5   2   7    3.80    0.75
   5   2   7    2.72    0.62
   5   3  -3   -0.17    0.62
  -5  -3   3   -0.49    0.70
   5   3  -2    1.74    0.53
   5   3  -1    3.34    0.57
   5   3   0   15.61    0.98
   5   3   1    9.86    0.92
   5   3   2    7.71    0.72
   5   3   4    4.32    0.66
   5   3   5    1.09    0.58
   5   3   6    4.18    0.83
   5   3   7    2.50    0.69
   5   3   8    7.78    1.00
   5   3   8    5.96    0.96
   5   3   9    4.73    1.22
   5   4  -2    0.71    0.65
   5   4  -1    1.66    0.62
   5   4   1    0.39    0.55
   5   4   2   15.06    1.20
   5   4   3   20.44    1.53
   5   4   4    8.91    1.19
   5   4   5    7.02    0.93
   5   4   6    7.62    1.23
   5   4   7    0.87    0.63
   5   4   8    7.12    1.17
   5   4   9    3.40    1.06
   5   5   0    0.65    0.55
   5   5   1    0.59    0.65
   5   5   3    4.82    0.80
   5   5   4    1.65    0.66
   5   5   5   14.46    1.38
   5   5   6    3.29    0.69
   5   5   7    8.63    1.16
   5   5   8    3.15    0.72
   5   6   2    5.12    0.80
   5   6   4    1.67    0.69
   5   6   5    1.62    0.66
   5   6   6    4.83    0.83
  -6   1   1    3.32    0.91
  -6   1   0    0.91    0.64
  -6   1  -1   -0.04    0.63
   6  -1   5   -0.34    0.70
  -6   0   2    4.01    0.75
  -6   0   1    6.49    0.86
  -6   0   0    2.98    0.71
  -6   0  -1   10.39    1.00
  -6   0  -2    3.79    0.68
  -6   0  -3    3.08    0.72
   6   0   6    7.84    0.88
  -6  -1   2   -0.12    0.62
  -6  -1   1    1.49    0.73
  -6  -1   0    8.05    0.79
   6   1   1    7.99    1.16
   6   1   2    9.11    1.13
   6   1   3    0.54    0.54
   6   1   4    3.70    0.56
   6   1   7    3.90    0.99
   6   2   0    0.39    0.63
   6   2   1    7.24    0.85
   6   2   2    1.44    0.59
   6   2   3    2.93    0.61
   6   2   4   10.76    0.97
   6   2   5    3.70    0.65
   6   3   0    3.37    0.70
   6   3   1    0.06    0.66
   6   3   2    1.80    0.62
   6   3   3    5.78    0.71
   6   3   4    5.41    0.88
   6   3   5    2.94    0.74
   6   3   6    1.28    0.81
   6   3   7    3.99    0.98
   6   4   1    2.61    0.72
   6   4   2    2.92    0.75
   6   4   3    1.90    0.67
   6   4   4   11.02    1.07
   6   4   5    1.68    0.67
   6   4   6    4.99    0.90
   0   0   0    0.00    0.00
;
_shelx_hkl_checksum              32563
loop_
_space_group_symop_operation_xyz
'x, y, z'
'-x, -y, -z'
loop_
_atom_site_label
_atom_site_type_symbol
_atom_site_fract_x
_atom_site_fract_y
_atom_site_fract_z
_atom_site_U_iso_or_equiv
_atom_site_adp_type
_atom_site_occupancy
_atom_site_site_symmetry_order
_atom_site_calc_flag
_atom_site_refinement_flags_posn
_atom_site_refinement_flags_occupancy
Co1 Co 1.0000 0.5000 0.0000 0.0174(2) Uani 1 2 d S P
N1 N 0.7126(6) 0.2532(6) 0.1557(4) 0.0271(7) Uani 1 1 d . .
N2 N 0.5139(6) 0.2531(5) 0.1150(3) 0.0197(6) Uani 1 1 d . .
N3 N 0.3181(6) 0.2449(6) 0.0749(4) 0.0283(7) Uani 1 1 d . .
N11 N 1.0476(6) 0.3650(5) -0.2117(3) 0.0218(6) Uani 1 1 d . .
N12 N 1.2858(6) 0.3761(6) -0.3365(4) 0.0277(7) Uani 1 1 d . .
N13 N 1.0227(5) 0.1792(5) -0.3865(3) 0.0188(6) Uani 1 1 d . .
N14 N 0.9143(5) 0.0383(5) -0.4457(3) 0.0208(6) Uani 1 1 d . .
C11 C 0.8952(7) 0.2470(6) -0.2443(4) 0.0219(7) Uani 1 1 d . .
H11A H 0.7248 0.2140 -0.1802 0.025(10) Uiso 1 1 d R .
C12 C 1.2674(7) 0.2625(7) -0.4378(4) 0.0245(8) Uani 1 1 d . .
H12A H 1.4000 0.2396 -0.5310 0.039(12) Uiso 1 1 d R .
loop_
_atom_site_aniso_label
_atom_site_aniso_U_11
_atom_site_aniso_U_22
_atom_site_aniso_U_33
_atom_site_aniso_U_23
_atom_site_aniso_U_13
_atom_site_aniso_U_12
Co1 0.0178(4) 0.0241(4) 0.0172(3) -0.0135(3) -0.0044(2) -0.0045(3)
N1 0.0237(16) 0.0312(17) 0.0287(15) -0.0067(13) -0.0088(13) -0.0078(13)
N2 0.0244(16) 0.0167(14) 0.0180(13) -0.0078(11) -0.0018(12) -0.0018(12)
N3 0.0223(16) 0.0291(17) 0.0397(18) -0.0126(14) -0.0126(14) -0.0044(13)
N11 0.0220(15) 0.0262(16) 0.0228(14) -0.0151(13) -0.0024(12) -0.0059(12)
N12 0.0247(16) 0.0415(19) 0.0271(15) -0.0245(14) 0.0017(13) -0.0129(14)
N13 0.0206(14) 0.0236(16) 0.0183(13) -0.0142(12) -0.0038(11) -0.0038(12)
N14 0.0240(15) 0.0258(16) 0.0206(13) -0.0151(12) -0.0059(12) -0.0057(12)
C11 0.0215(17) 0.030(2) 0.0214(16) -0.0178(15) -0.0016(13) -0.0070(14)
C12 0.0230(18) 0.033(2) 0.0232(17) -0.0172(15) -0.0011(14) -0.0061(15)
loop_
_atom_type_symbol
_atom_type_description
_atom_type_scat_dispersion_real
_atom_type_scat_dispersion_imag
_atom_type_scat_source
C C 0.0033 0.0016 'International Tables Vol C Tables 4.2.6.8 and 6.1.1.4'
H H 0.0000 0.0000 'International Tables Vol C Tables 4.2.6.8 and 6.1.1.4'
Co Co 0.3494 0.9721 'International Tables Vol C Tables 4.2.6.8 and 6.1.1.4'
N N 0.0061 0.0033 'International Tables Vol C Tables 4.2.6.8 and 6.1.1.4'
loop_
_geom_angle_atom_site_label_1
_geom_angle_atom_site_label_2
_geom_angle_atom_site_label_3
_geom_angle
_geom_angle_site_symmetry_1
_geom_angle_site_symmetry_3
N3 Co1 N3 180.00(18) 2_665 1_655
N3 Co1 N11 88.14(12) 2_665 2_765
N3 Co1 N11 91.86(12) 1_655 2_765
N3 Co1 N11 91.86(12) 2_665 .
N3 Co1 N11 88.14(12) 1_655 .
N11 Co1 N11 180.0 2_765 .
N3 Co1 N1 90.10(12) 2_665 2_765
N3 Co1 N1 89.90(12) 1_655 2_765
N11 Co1 N1 90.51(11) 2_765 2_765
N11 Co1 N1 89.49(11) . 2_765
N3 Co1 N1 89.90(12) 2_665 .
N3 Co1 N1 90.10(12) 1_655 .
N11 Co1 N1 89.49(11) 2_765 .
N11 Co1 N1 90.51(11) . .
N1 Co1 N1 180.0 2_765 .
N2 N1 Co1 121.2(2) . .
N3 N2 N1 177.7(3) . .
N2 N3 Co1 133.8(3) . 1_455
C11 N11 N12 107.9(3) . .
C11 N11 Co1 131.0(2) . .
N12 N11 Co1 120.8(2) . .
C12 N12 N11 107.2(3) . .
C11 N13 C12 105.7(3) . .
C11 N13 N14 122.3(3) . .
C12 N13 N14 131.9(3) . .
N14 N14 N13 110.4(3) 2_754 .
N11 C11 N13 109.5(3) . .
N11 C11 H11A 125.2 . .
N13 C11 H11A 125.3 . .
N12 C12 N13 109.8(3) . .
N12 C12 H12A 125.2 . .
N13 C12 H12A 125.0 . .
loop_
_geom_bond_atom_site_label_1
_geom_bond_atom_site_label_2
_geom_bond_distance
_geom_bond_site_symmetry_2
Co1 N3 2.126(3) 2_665
Co1 N3 2.126(3) 1_655
Co1 N11 2.140(3) 2_765
Co1 N11 2.140(3) .
Co1 N1 2.181(3) 2_765
Co1 N1 2.181(3) .
N1 N2 1.181(4) .
N2 N3 1.177(4) .
N3 Co1 2.126(3) 1_455
N11 C11 1.298(4) .
N11 N12 1.398(4) .
N12 C12 1.292(4) .
N13 C11 1.359(4) .
N13 C12 1.374(4) .
N13 N14 1.383(4) .
N14 N14 1.239(5) 2_754
C11 H11A 0.9308 .
C12 H12A 0.9296 .
