#------------------------------------------------------------------------------
#$Date: 2017-12-05 15:02:39 +0200 (Tue, 05 Dec 2017) $
#$Revision: 203982 $
#$URL: file:///home/coder/svn-repositories/cod/cif/4/00/28/4002871.cif $
#------------------------------------------------------------------------------
#
# This file is available in the Crystallography Open Database (COD),
# http://www.crystallography.net/
#
# All data on this site have been placed in the public domain by the
# contributors.
#
data_4002871
loop_
_publ_author_name
'Xu, Jian-Gang'
'Sun, Cai'
'Zhang, Ming-Jian'
'Liu, Bin-Wen'
'Li, Xiao-Zhen'
'Lu, Jian'
'Wang, Shuai-Hua'
'Zheng, Fa-Kun'
'Guo, Guo-Cong'
_publ_section_title
;
 Coordination Polymerization of Metal Azides and Powerful Nitrogen-Rich
 Ligand toward Primary Explosives with Excellent Energetic Performances
;
_journal_issue                   22
_journal_name_full               'Chemistry of Materials'
_journal_page_first              9725
_journal_paper_doi               10.1021/acs.chemmater.7b03453
_journal_volume                  29
_journal_year                    2017
_chemical_formula_moiety         'C4 H4 Cd N14'
_chemical_formula_sum            'C4 H4 Cd N14'
_chemical_formula_weight         360.62
_chemical_melting_point          ?
_chemical_name_common            '[Cd(N3)2(atrz)]n'
_space_group_crystal_system      triclinic
_space_group_IT_number           2
_space_group_name_Hall           '-P 1'
_space_group_name_H-M_alt        'P -1'
_symmetry_space_group_name_Hall  '-P 1'
_symmetry_space_group_name_H-M   'P -1'
_atom_sites_solution_hydrogens   geom
_atom_sites_solution_primary     direct
_atom_sites_solution_secondary   difmap
_audit_creation_method           SHELXL-2013
_cell_angle_alpha                70.500(18)
_cell_angle_beta                 73.152(18)
_cell_angle_gamma                79.38(2)
_cell_formula_units_Z            1
_cell_length_a                   5.3664(12)
_cell_length_b                   6.2313(14)
_cell_length_c                   8.7401(18)
_cell_measurement_reflns_used    1067
_cell_measurement_temperature    293(2)
_cell_measurement_theta_max      27.5
_cell_measurement_theta_min      3.5
_cell_volume                     262.43(11)
_computing_molecular_graphics    'SHELXL-2013 (Sheldrick, 2013)'
_computing_structure_refinement  'SHELXL-2013 (Sheldrick, 2013)'
_computing_structure_solution    'SHELXS-97 (Sheldrick, 1990)'
_diffrn_ambient_temperature      293(2)
_diffrn_measured_fraction_theta_full 0.983
_diffrn_measured_fraction_theta_max 0.968
_diffrn_measurement_device_type  'Rigaku Pilatus'
_diffrn_measurement_method       CCD_Profile_fitting
_diffrn_radiation_type           MoK\a
_diffrn_radiation_wavelength     0.71073
_diffrn_reflns_av_R_equivalents  0.0276
_diffrn_reflns_av_unetI/netI     0.0293
_diffrn_reflns_Laue_measured_fraction_full 0.983
_diffrn_reflns_Laue_measured_fraction_max 0.968
_diffrn_reflns_limit_h_max       6
_diffrn_reflns_limit_h_min       -6
_diffrn_reflns_limit_k_max       6
_diffrn_reflns_limit_k_min       -8
_diffrn_reflns_limit_l_max       11
_diffrn_reflns_limit_l_min       -11
_diffrn_reflns_number            2799
_diffrn_reflns_point_group_measured_fraction_full 0.983
_diffrn_reflns_point_group_measured_fraction_max 0.968
_diffrn_reflns_theta_full        25.242
_diffrn_reflns_theta_max         27.475
_diffrn_reflns_theta_min         3.485
_diffrn_source                   'fine-focus sealed tube'
_exptl_absorpt_coefficient_mu    2.097
_exptl_absorpt_correction_T_max  1.000
_exptl_absorpt_correction_T_min  0.810
_exptl_absorpt_correction_type   multi-scan
_exptl_absorpt_process_details   'Sphere (Rigaku CrystalClear)'
_exptl_crystal_colour            Colourless
_exptl_crystal_density_diffrn    2.282
_exptl_crystal_density_method    'not measured'
_exptl_crystal_description       Prism
_exptl_crystal_F_000             174
_exptl_crystal_size_max          0.12
_exptl_crystal_size_mid          0.10
_exptl_crystal_size_min          0.09
_refine_diff_density_max         0.773
_refine_diff_density_min         -1.281
_refine_diff_density_rms         0.097
_refine_ls_extinction_method     none
_refine_ls_goodness_of_fit_ref   1.049
_refine_ls_hydrogen_treatment    constr
_refine_ls_matrix_type           full
_refine_ls_number_parameters     88
_refine_ls_number_reflns         1167
_refine_ls_number_restraints     0
_refine_ls_restrained_S_all      1.049
_refine_ls_R_factor_all          0.0214
_refine_ls_R_factor_gt           0.0213
_refine_ls_shift/su_max          0.000
_refine_ls_shift/su_mean         0.000
_refine_ls_structure_factor_coef Fsqd
_refine_ls_weighting_details
;
 w=1/[\s^2^(Fo^2^)+(0.0324P)^2^]
 where P=(Fo^2^+2Fc^2^)/3
;
_refine_ls_weighting_scheme      calc
_refine_ls_wR_factor_gt          0.0509
_refine_ls_wR_factor_ref         0.0510
_reflns_Friedel_coverage         0.000
_reflns_number_gt                1162
_reflns_number_total             1167
_reflns_threshold_expression     'I > 2\s(I)'
_cod_data_source_file            cm7b03453_si_003.cif
_cod_data_source_block           a
_cod_depositor_comments
;
The following automatic conversions were performed:

'_chemical_melting_point' value 'not measured' was changed to '?' -
the value is undefined or not given.

'_exptl_absorpt_correction_type' value 'Multi-scan' changed to
'multi-scan' according to
/home/data/users/saulius/crontab/automatic-downloads/rss-feeds/ACS/lib/dictionaries/cif_core.dic
dictionary named 'cif_core.dic' version 2.4.2 from 2011-04-26.

Automatic conversion script
Id: cif_fix_values 4973 2017-02-22 13:04:09Z antanas 

 Adding full bibliography for 4002871--4002872.cif.
;
_cod_database_code               4002871
_shelx_space_group_comment
;
The symmetry employed for this shelxl refinement is uniquely defined
by the following loop, which should always be used as a source of
symmetry information in preference to the above space-group names.
They are only intended as comments.
;
_shelxl_version_number           2013-2
_shelx_res_file
;
TITL a                                P-1
CELL  0.71073    5.3664    6.2313    8.7401    70.500    73.152    79.380
ZERR 1           0.0012    0.0014    0.0018     0.018     0.018     0.020
LATT   1
SFAC  C   2.31000  20.84392   1.02000  10.20751   1.58860   0.56870   0.86500 =
         51.65125   0.21560   0.00330   0.00160    11.500   0.68000  12.01000
SFAC  H   0.49300  10.51091   0.32291  26.12573   0.14019   3.14236   0.04081 =
         57.79977   0.00304   0.00000   0.00000     0.624   0.35000   1.00800
SFAC Cd  19.22142   0.59460  17.64442   6.90891   4.46100  24.70084   1.60290 =
         87.48257   5.06941  -0.80750   1.20240  5180.000   1.69000 112.41000
SFAC  N  12.21261   0.00570   3.13220   9.89331   2.01250  28.99754   1.16630 =
          0.58260 -11.52901   0.00610   0.00330    19.600   0.68000  14.01000
UNIT     4    4   1  14

L.S. 50
PLAN 5
BOND $h
FMAP 2
acta
omit 0 2 0
omit -1 0 1

WGHT    0.032400
FVAR       0.60035
CD1   3    0.000000    0.500000    0.000000    10.50000    0.01982    0.02990 =
         0.02091   -0.01519   -0.00580   -0.00582
N1    4    0.306531    0.765326   -0.175252    11.00000    0.03287    0.04038 =
         0.03309   -0.00527   -0.01150   -0.01436
N2    4    0.482692    0.763225   -0.120066    11.00000    0.02307    0.02419 =
         0.02283   -0.00813   -0.00244   -0.00546
N3    4    0.655418    0.768960   -0.064707    11.00000    0.02998    0.03602 =
         0.04605   -0.01555   -0.01567   -0.00179
N12   4    0.272661    0.374898   -0.346408    11.00000    0.03159    0.04569 =
         0.03051   -0.02299   -0.00060   -0.01438
N11   4    0.034024    0.363237   -0.225214    11.00000    0.03182    0.03501 =
         0.02355   -0.01812   -0.00495   -0.01047
N13   4    0.019541    0.175598   -0.391078    11.00000    0.02606    0.02835 =
         0.02128   -0.01554   -0.00719   -0.00536
N14   4   -0.084416    0.034811   -0.446051    11.00000    0.02725    0.03075 =
         0.02453   -0.01694   -0.00742   -0.00625
C12   1    0.259684    0.260255   -0.443145    11.00000    0.02808    0.03889 =
         0.02570   -0.01784   -0.00362   -0.00964
AFIX  43
H12A  2    0.392596    0.238566   -0.533957    11.00000   -1.20000
AFIX   0
C11   1   -0.113175    0.244548   -0.254497    11.00000    0.02728    0.03576 =
         0.02554   -0.01891   -0.00286   -0.00737
AFIX  43
H11A  2   -0.281821    0.212096   -0.192152    11.00000   -1.20000

AFIX   0
HKLF 4 1  1.0000  0.0000  0.0000  0.0000  1.0000  0.0000  0.0000  0.0000  1.0000

REM  a                                P-1
REM R1 =  0.0213 for    1162 Fo > 4sig(Fo)  and  0.0214 for all    1167 data
REM     88 parameters refined using      0 restraints

END

WGHT      0.0310      0.0000

REM Highest difference peak  0.773,  deepest hole -1.281,  1-sigma level  0.097
Q1    1   0.0813  0.3709  0.0569  11.00000  0.05    0.77
Q2    1   0.1146  0.5578 -0.0893  11.00000  0.05    0.53
Q3    1   0.2204  0.7557 -0.0882  11.00000  0.05    0.30
Q4    1   0.8093  0.7722 -0.0983  11.00000  0.05    0.30
Q5    1   0.1164  0.2360 -0.4427  11.00000  0.05    0.29
;
_shelx_res_checksum              86205
_shelx_hkl_file
;
   0   0   2  520.86   15.40
   0   0  -2  537.22   15.07
   0   0  -2  487.59   17.64
   0   0   2  480.84   17.85
   0   0   2  527.87   17.13
   0   0   3  230.70    8.24
   0   0  -3  216.31    7.26
   0   0  -3  207.64   12.87
   0   0   3  202.84   10.60
   0   0   3  227.93    9.09
   0   0   4  221.02    8.43
   0   0  -4  210.24    7.08
   0   0  -4  197.99   10.45
   0   0   4  200.04   10.22
   0   0  -4  213.25   10.61
   0   0   4  201.11    9.69
   0   0   5  420.94   11.76
   0   0  -5  408.07   11.48
   0   0   5  393.26   13.99
   0   0  -5  403.85   15.46
   0   0   5  406.21   13.03
   0   0   6   82.46    4.76
   0   0  -6   77.54    4.44
   0   0  -6   81.14    6.19
   0   0   6   76.46    4.89
   0   0  -6   88.14    4.82
   0   0   7  118.22    5.28
   0   0  -7  118.18    6.79
   0   0   7  113.82    6.05
   0   0  -7  124.25    6.49
   0   0   8   88.40    4.00
   0   0  -8   83.23    5.34
   0   0  -8   96.56    4.44
   0   0   9  106.88    4.94
   0   0  -9  102.32    6.23
   0   0  10   16.04    2.71
   0   0 -10   18.17    2.93
   0  -1   9   71.06    4.42
   0   1  -9   75.04    4.20
   0  -1   8   62.00    3.95
   0   1  -8   71.01    4.02
   0  -1   7   25.43    3.10
   0   1  -7   22.30    2.89
   0  -1   6  253.54    8.63
   0   1  -6  247.82    8.07
   0   1  -6  232.20    9.68
   0  -1   5  345.27    9.48
   0   1  -5  322.40    9.46
   0   1  -5  350.13   11.20
   0   1  -5  321.36   11.38
   0  -1   4  179.07    6.40
   0   1  -4  168.61    5.88
   0   1  -4  170.63    8.58
   0   1  -4  154.71    8.14
   0  -1   3  292.55    9.50
   0   1  -3  292.57    9.00
   0   1  -3  275.16    9.89
   0   1  -3  265.48   13.33
   0   1  -3  257.18   12.26
   0   1  -2  151.99    5.54
   0   1  -2  135.33    5.78
   0   1  -2  150.89    7.39
   0  -1   1 1299.42   35.19
   0   1  -1 1246.64   31.64
   0  -1   0  530.48   15.08
   0  -1   0  537.51   15.70
   0   1   0  504.23   14.30
   0   1   1  529.68   16.44
   0  -1  -1  527.70   15.81
   0  -1  -1  482.64   18.02
   0   1   1  478.84   15.70
   0   1   2 1791.74   46.95
   0  -1  -2 1767.78   46.51
   0  -1  -2 1954.03   49.91
   0   1   2 2005.60   49.70
   0  -1  -2 1857.81   47.96
   0   1   2 1956.66   51.39
   0   1   3 1210.24   33.47
   0  -1  -3 1261.53   33.20
   0  -1  -3 1221.92   34.13
   0   1   3 1274.40   34.17
   0  -1  -3 1257.40   33.13
   0   1   3 1178.63   33.62
   0   1   4  815.88   22.81
   0  -1  -4  859.67   23.56
   0  -1  -4  763.34   24.90
   0   1   4  805.95   23.40
   0  -1  -4  768.36   24.37
   0   1   4  827.81   23.44
   0   1   5  126.31    5.78
   0  -1  -5  127.54    4.85
   0  -1  -5  123.56    7.16
   0   1   5  127.62    6.91
   0  -1  -5  115.51    6.88
   0   1   5  124.15    5.60
   0   1   6  217.95    7.64
   0  -1  -6  211.30    6.81
   0  -1  -6  217.57    9.77
   0   1   6  203.04    8.75
   0  -1  -6  219.25    8.31
   0   1   7  142.21    5.74
   0  -1  -7  148.55    6.89
   0   1   7  131.73    6.02
   0  -1  -7  146.83    6.73
   0   1   8  194.48    6.65
   0  -1  -8  193.88    6.61
   0  -1  -8  186.78    7.17
   0   1   9   65.52    3.84
   0  -1  -9   61.04    4.40
   0  -1  -9   73.03    4.76
   0   1  10   44.25    3.40
   0  -1 -10   44.12    3.19
   0  -2   9   43.17    4.54
   0  -2   8   14.51    2.42
   0  -2   7   72.34    5.17
   0   2  -7   71.05    5.48
   0  -2   6  153.77    5.98
   0   2  -6  134.08    6.81
   0   2  -6  168.53    6.28
   0  -2   5  105.63    6.07
   0   2  -5  108.28    4.53
   0   2  -5  109.75    5.34
   0   2  -5  111.72    7.02
   0  -2   4  317.26    9.22
   0   2  -4  321.80    7.96
   0   2  -4  320.87   10.37
   0   2  -4  328.28   12.18
   0   2  -3  224.87    7.25
   0  -2   3  233.13   11.18
   0   2  -3  221.02    6.48
   0   2  -3  213.87   10.01
   0  -2   2  618.59   18.90
   0   2  -2  600.49   16.67
   0  -2   1  364.89   11.00
   0  -2   1  363.07   11.08
   0   2  -1  355.31   10.53
   0  -2   0   16.02    1.43
   0   2   0   15.23    1.51
   0  -2   0   16.36    1.65
   0   2   0   15.47    1.81
   0  -2  -1   21.89    1.79
   0   2   1   20.45    1.88
   0  -2  -1   24.65    2.20
   0   2   1   24.13    2.08
   0  -2  -2  508.36   15.85
   0  -2  -2  509.10   16.09
   0   2   2  482.96   14.70
   0   2   3 1141.46   32.25
   0  -2  -3 1060.17   28.81
   0  -2  -3 1112.61   28.77
   0   2   3 1153.06   30.67
   0  -2  -3 1121.72   32.35
   0   2   3 1077.44   28.88
   0   2   4  405.99   14.02
   0  -2  -4  407.97   14.00
   0  -2  -4  401.99   13.19
   0   2   4  423.46   12.36
   0  -2  -4  407.10   13.11
   0   2   4  411.43   14.16
   0   2   5  366.19   12.71
   0  -2  -5  342.03    9.58
   0  -2  -5  350.20   11.04
   0   2   5  381.70   10.80
   0  -2  -5  342.02   12.83
   0   2   5  336.29    9.51
   0   2   6  272.38    9.03
   0  -2  -6  288.22    8.07
   0  -2  -6  288.76    8.85
   0   2   6  283.21    9.06
   0  -2  -6  283.22    8.95
   0   2   6  280.09    9.22
   0   2   7  151.75    6.03
   0  -2  -7  140.55    5.18
   0  -2  -7  140.11    5.46
   0  -2  -7  153.95    6.97
   0   2   8  187.92    6.77
   0  -2  -8  199.79    6.26
   0  -2  -8  186.54    6.02
   0   2   9  100.65    4.49
   0  -2  -9   95.53    4.29
   0  -2  -9  100.45    4.94
   0   2  10   44.89    3.25
   0  -2 -10   41.81    3.11
   0  -2 -10   45.19    3.67
   0  -3   8   26.07    3.08
   0   3  -8   32.52    3.01
   0  -3   7   56.13    4.21
   0   3  -7   56.11    5.23
   0  -3   6   59.40    4.37
   0   3  -6   61.46    4.33
   0  -3   5   45.27    4.89
   0   3  -5   44.88    3.40
   0   3  -5   45.25    4.48
   0   3  -4   61.73    3.60
   0   3  -4   64.03    4.94
   0   3  -4   66.95    4.56
   0  -3   3  288.41    9.06
   0   3  -3  279.96    7.89
   0  -3   2  485.08   12.49
   0   3  -2  480.41   11.91
   0  -3   2  486.78   13.17
   0   3  -2  460.98   12.05
   0  -3   1  672.76   16.32
   0   3  -1  706.29   16.70
   0  -3   1  683.39   16.72
   0   3  -1  679.28   16.81
   0  -3   0  254.67    8.26
   0   3   0  270.67    8.32
   0  -3   0  263.70    8.27
   0   3   0  251.63    8.78
   0  -3  -1  221.77    7.37
   0   3   1  215.51    7.13
   0  -3  -1  228.01    7.93
   0   3   1  213.04    7.69
   0  -3  -2  157.49    6.11
   0  -3  -2  163.46    6.16
   0  -3  -2  169.69    6.89
   0   3   2  162.60    6.31
   0   3   2  148.09    7.65
   0  -3  -3  187.86    7.19
   0  -3  -3  183.15    7.10
   0   3   3  182.03    7.12
   0   3   4  124.34    6.10
   0  -3  -4  115.16    6.24
   0  -3  -4  114.88    4.69
   0   3   4  120.46    4.65
   0  -3  -4  127.29    5.99
   0   3   4  111.85    4.88
   0   3   5  467.82   12.78
   0  -3  -5  486.35   13.54
   0  -3  -5  473.26   11.78
   0   3   5  505.23   11.71
   0  -3  -5  481.65   13.19
   0   3   5  484.95   12.34
   0   3   6  158.71    6.87
   0  -3  -6  165.97    6.86
   0  -3  -6  172.46    6.04
   0  -3  -6  174.69    6.94
   0   3   6  168.19    6.29
   0   3   7  132.35    5.50
   0  -3  -7  135.65    5.47
   0  -3  -7  131.53    4.75
   0  -3  -7  139.73    5.54
   0   3   8  258.70    7.17
   0  -3  -8  264.65    7.05
   0  -3  -8  255.80    7.75
   0   3   9   28.87    2.79
   0  -3  -9   24.86    2.60
   0  -3  -9   25.42    2.75
   0  -3 -10  107.13    4.42
   0  -3 -10  119.47    4.79
   0  -4   7   29.35    3.97
   0   4  -7   32.86    3.51
   0  -4   6   34.94    3.16
   0   4  -6   41.35    3.20
   0   4  -5   19.12    2.55
   0  -4   4   73.92    5.18
   0   4  -4   74.36    4.79
   0  -4   3   26.02    2.79
   0  -4   3   22.82    2.50
   0   4  -3   21.88    2.50
   0  -4   2  128.64    5.46
   0  -4   2  114.43    5.10
   0   4  -2  117.35    5.66
   0  -4   1  191.38    6.23
   0  -4   1  185.53    6.80
   0   4  -1  186.62    5.97
   0  -4   0  442.04   11.13
   0   4   0  446.51   10.75
   0  -4   0  431.28   10.42
   0   4   0  430.66   11.04
   0  -4  -1  361.87    9.18
   0   4   1  367.62    9.34
   0  -4  -1  366.31    9.76
   0   4   1  368.49    9.71
   0  -4  -2  587.09   13.04
   0  -4  -2  587.60   13.42
   0   4   2  569.92   13.30
   0  -4  -3   93.30    4.13
   0  -4  -3   95.76    4.21
   0  -4  -3   94.66    4.06
   0   4   3   94.17    4.09
   0   4   3   91.15    3.93
   0  -4  -4  214.75    7.04
   0  -4  -4  194.11    6.19
   0   4   4  213.73    6.94
   0  -4  -5  206.48    9.02
   0  -4  -5  201.15    5.78
   0  -4  -5  213.53    6.62
   0   4   5  213.77    6.51
   0   4   6   39.99    2.90
   0  -4  -6   39.35    2.76
   0  -4  -6   41.45    3.00
   0  -4  -6   44.97    2.94
   0   4   7  416.97    9.93
   0  -4  -7  444.73   10.85
   0  -4  -7  428.62   12.23
   0   4   8   39.66    3.56
   0  -4  -8   37.38    2.88
   0  -4  -8   36.54    2.57
   0  -4  -9   88.78    4.14
   0  -4  -9   89.30    4.50
   0  -4 -10   53.45    3.26
   0  -4 -10   59.02    3.54
   0   5  -6   12.25    2.76
   0   5  -5   58.66    4.20
   0  -5   4   39.91    3.78
   0   5  -4   39.07    3.07
   0  -5   3   38.17    2.95
   0  -5   3   39.66    3.16
   0  -5   2   28.85    2.70
   0  -5   2   29.91    2.82
   0  -5   1   38.68    2.81
   0  -5   1   35.39    2.76
   0  -5   0   18.92    2.06
   0  -5   0   17.00    2.32
   0  -5  -1  236.46    7.78
   0  -5  -1  245.13    8.41
   0  -5  -2  279.38    8.33
   0  -5  -2  277.99    9.03
   0  -5  -3  174.57    6.45
   0  -5  -3  182.86    6.60
   0  -5  -3  175.40    6.11
   0   5   3  188.00    6.41
   0  -5  -4  305.49    8.74
   0  -5  -4  292.61    8.10
   0  -5  -4  297.23    8.44
   0   5   4  310.72    8.71
   0  -5  -5   26.74    2.66
   0  -5  -5   23.25    2.10
   0  -5  -6  296.05    7.51
   0  -5  -6  291.35    7.14
   0  -5  -7  106.34    3.91
   0  -5  -7  104.35    4.39
   0  -5  -8   66.45    3.59
   0  -5  -9   65.18    3.43
   0  -5  -9   67.35    4.07
   0  -5 -10   75.50    3.78
   0  -5 -10   79.39    4.51
   0  -6   4   25.97    3.36
   0   6  -4   29.67    3.11
   0  -6   3   58.45    3.71
   0   6  -3   56.18    4.96
   0  -6   2   74.64    4.47
   0  -6   2   65.90    4.66
   0  -6   1   13.54    2.28
   0  -6   1   11.82    2.10
   0  -6   0   24.57    2.70
   0  -6   0   24.51    2.52
   0  -6  -1   54.56    3.31
   0  -6  -1   57.72    4.23
   0  -6  -2   31.13    2.91
   0  -6  -2   32.23    2.56
   0  -6  -3  105.06    4.16
   0  -6  -3  115.21    4.53
   0  -6  -4   55.44    2.95
   0  -6  -4   53.98    3.17
   0  -6  -5  162.94    5.12
   0  -6  -5  175.28    5.62
   0  -6  -6  115.84    4.27
   0  -6  -7   54.96    3.08
   0  -6  -8   47.94    3.03
   0  -6  -9   64.07    4.07
   0  -7   2   21.50    3.26
   0  -7   1   47.18    3.65
   0  -7   0   63.76    4.96
   0  -7   0   61.00    4.77
   0  -7  -1   44.26    3.97
   0  -7  -1   45.08    3.71
   0  -7  -2   17.60    2.81
   0  -7  -2   20.48    2.66
   0  -7  -3    8.63    2.35
   0  -7  -3    7.41    2.15
   0  -7  -4   67.63    3.80
   0  -7  -4   69.62    3.54
   0  -7  -5   64.60    4.26
   0  -7  -6   53.31    3.66
   1  -7  -5   73.34    3.87
   1  -7  -4   86.33    5.23
   1  -7  -3   31.55    2.99
   1  -7  -2   83.50    4.81
   1  -7  -2   91.98    5.36
   1  -7  -1   18.39    3.56
   1  -7  -1   20.01    2.51
   1  -7   0   29.16    3.37
   1  -7   0   31.47    2.92
   1  -7   1   11.66    2.66
   1  -7   1   11.39    2.46
   1  -6  -8   44.67    3.20
   1  -6  -7   40.74    3.29
   1  -6  -6   45.88    3.13
   1  -6  -4    1.06    2.10
   1  -6  -3  128.02    5.28
   1  -6  -3  138.20    5.04
   1  -6  -2   73.02    5.33
   1  -6  -2   75.60    4.17
   1  -6  -1  109.97    6.29
   1  -6  -1  113.03    5.66
   1  -6   0   95.52    4.94
   1  -6   0   97.22    5.25
   1  -6   1   27.83    3.64
   1  -6   1   30.01    2.54
   1  -6   2   33.35    3.51
   1  -6   2   34.62    3.48
   1  -6   3   23.69    2.89
   1  -6   3   19.90    2.48
   1  -6   4   21.73    3.25
   1  -5  -9   53.43    3.30
   1  -5  -9   52.47    3.21
   1  -5  -8   87.51    3.97
   1  -5  -7   57.68    3.49
   1  -5  -6  300.77    7.61
   1  -5  -5   27.15    2.41
   1  -5  -5   29.08    2.53
   1  -5  -4   92.44    4.15
   1  -5  -3   51.38    3.85
   1  -5  -3   50.10    3.46
   1  -5  -3   55.08    3.57
   1  -5  -2   19.67    2.76
  -1   5   2   22.78    2.74
   1  -5  -2   24.08    2.21
   1  -5  -1  133.39    6.00
   1  -5  -1  131.97    5.84
   1  -5   0   96.97    4.66
   1  -5   0  108.08    5.08
   1  -5   1  115.55    5.62
   1  -5   1  108.21    5.48
   1  -5   2   58.46    4.23
   1  -5   2   59.01    4.02
   1  -5   3   60.16    4.05
   1  -5   3   62.24    4.31
   1  -5   4   37.73    3.52
   1  -5   4   36.58    3.53
   1  -5   5   41.07    4.60
  -1   5  -5   36.50    3.14
   1  -5   6   11.68    3.25
  -1   5  -6   12.02    2.91
   1  -4  -9   89.03    3.96
   1  -4  -9   96.93    4.46
   1  -4  -8   30.70    2.88
   1  -4  -8   29.22    2.62
   1  -4  -7  175.15    5.44
   1  -4  -7  192.61    6.71
   1  -4  -6  159.48    6.19
   1  -4  -6  176.41    5.85
   1  -4  -6  175.52    8.39
   1  -4  -5  238.60    9.48
   1  -4  -5  224.98    5.59
   1  -4  -5  225.16    6.93
   1  -4  -4  384.43   13.19
   1  -4  -4  371.23    9.77
   1  -4  -4  376.80    9.97
   1  -4  -3  144.26    7.35
   1  -4  -3  147.17    5.66
  -1   4   3  163.49    5.91
   1  -4  -2  121.72    5.05
  -1   4   2  118.76    4.82
   1  -4  -2  119.79    4.58
  -1   4   2  123.18    6.50
   1  -4  -1  105.00    5.55
  -1   4   1  100.87    4.03
   1  -4  -1  102.90    5.32
   1  -4   0   67.24    3.51
  -1   4   0   65.87    3.37
   1  -4   0   61.28    3.37
   1  -4   1   66.96    3.62
   1  -4   1   65.96    3.46
   1  -4   2  110.25    5.09
   1  -4   2  113.18    4.65
   1  -4   3  129.44    5.25
   1  -4   3  127.94    5.50
   1  -4   4   60.37    4.17
   1  -4   4   61.07    4.76
   1  -4   5   27.38    2.50
  -1   4  -5   25.30    3.33
  -1   4  -5   26.90    3.25
   1  -4   6   45.75    3.41
  -1   4  -6   43.31    4.28
  -1   4  -7   28.04    2.89
   1  -3 -10   74.54    4.73
   1  -3  -9   63.90    3.73
   1  -3  -9   62.46    4.35
   1  -3  -8   69.58    3.81
   1  -3  -8   77.48    4.36
  -1   3   7  108.96    5.19
   1  -3  -7  122.31    4.50
   1  -3  -7  127.85    4.84
  -1   3   6  114.04    6.62
   1  -3  -6  120.99    5.02
   1  -3  -6  115.42    4.45
   1  -3  -6  124.65    5.20
  -1   3   5  133.02    6.73
   1  -3  -5  137.44    7.93
   1  -3  -5  139.46    5.55
   1  -3  -5  143.16    6.89
   1  -3  -4  312.02   11.62
   1  -3  -4  321.94   11.16
   1  -3  -4  341.70    9.52
   1  -3  -4  336.33   13.83
  -1   3   4  330.22   11.38
   1  -3  -3  505.28   13.43
   1  -3  -3  517.37   13.08
  -1   3   3  539.99   13.24
  -1   3   3  538.04   15.50
   1  -3  -2  976.00   24.05
   1  -3  -2  967.36   21.71
  -1   3   2  978.27   24.61
   1  -3  -1  353.68    9.58
  -1   3   1  348.05    9.55
   1  -3  -1  341.75    9.75
  -1   3   1  362.89   10.16
   1  -3   0  148.79    5.30
  -1   3   0  152.32    5.22
   1  -3   0  150.24    5.18
  -1   3   0  145.21    5.41
   1  -3   1   42.73    2.58
  -1   3  -1   43.37    2.57
   1  -3   1   38.95    2.80
  -1   3  -1   38.91    2.55
   1  -3   2  322.42    8.99
  -1   3  -2  309.20    8.05
   1  -3   2  307.56    9.13
  -1   3  -2  308.36    8.57
   1  -3   3  204.89    7.11
   1  -3   3  197.95    6.72
  -1   3  -3  190.84    6.10
   1  -3   4   23.17    2.94
   1  -3   4   22.62    2.67
  -1   3  -4   21.37    2.09
   1  -3   5  105.90    4.53
  -1   3  -5  101.22    4.67
  -1   3  -5   99.65    5.84
  -1   3  -5  103.65    6.05
  -1   3  -6   35.14    3.70
  -1   3  -6   33.65    2.85
   1  -3   7   65.59    5.10
  -1   3  -7   64.34    3.42
   1  -3   8   24.64    3.54
   1  -2 -10   50.65    3.43
   1  -2  -9   64.02    3.54
   1  -2  -9   70.93    4.11
  -1   2   8   93.49    5.14
   1  -2  -8   96.26    4.23
   1  -2  -8   91.78    4.00
  -1   2   7  287.18   10.55
   1  -2  -7  300.11    8.54
   1  -2  -7  313.35    8.81
  -1   2   6   77.37    5.41
   1  -2  -6   81.11    3.78
   1  -2  -6   80.73    4.25
  -1   2   6   86.62    4.53
   1  -2  -6   82.34    4.85
  -1   2   5   61.39    4.44
   1  -2  -5   67.23    3.78
   1  -2  -5   70.34    3.96
  -1   2   5   73.82    4.50
   1  -2  -5   70.90    4.82
  -1   2   4   39.06    4.10
   1  -2  -4   45.34    4.12
   1  -2  -4   46.91    3.24
  -1   2   4   45.96    2.88
   1  -2  -4   44.88    4.10
  -1   2   4   46.95    3.31
   1  -2  -3  529.30   20.26
   1  -2  -3  577.56   16.68
  -1   2   3  563.97   15.61
   1  -2  -3  586.84   19.88
  -1   2   3  535.84   17.88
   1  -2  -2  457.06   13.72
   1  -2  -2  480.09   14.78
  -1   2   2  472.46   13.83
  -1   2   2  486.71   15.22
   1  -2  -1  946.02   25.89
  -1   2   1  992.37   26.67
   1  -2   0  436.21   12.87
  -1   2   0  433.76   12.48
   1  -2   0  392.48   11.30
  -1   2   0  407.96   11.78
   1  -2   1  601.38   16.68
  -1   2  -1  604.49   16.45
   1  -2   1  605.97   16.44
  -1   2  -1  590.19   16.26
   1  -2   2 1001.24   26.40
  -1   2  -2 1031.52   26.54
   1  -2   2 1006.43   25.88
  -1   2  -2 1014.20   25.87
   1  -2   3    1.28    1.14
  -1   2  -3    0.79    1.60
   1  -2   3    0.76    1.37
  -1   2  -3    0.93    1.11
   1  -2   4  339.44    8.80
  -1   2  -4  333.97    8.43
  -1   2  -4  328.77   11.34
  -1   2  -5  120.62    4.38
  -1   2  -5  129.74    6.73
   1  -2   6  127.00    6.68
  -1   2  -6  131.53    4.43
  -1   2  -6  134.83    7.20
   1  -2   7   56.64    4.58
  -1   2  -7   59.00    4.44
   1  -2   8   16.70    2.79
  -1   2  -8   19.97    2.72
   1  -2   9   40.75    3.80
  -1   2  -9   47.65    2.98
   1  -1 -10   50.42    4.30
  -1   1   9   26.09    2.96
   1  -1  -9   26.37    2.98
  -1   1   8  182.86    6.95
   1  -1  -8  185.46    6.42
   1  -1  -8  194.69    7.11
  -1   1   7  191.36    7.61
   1  -1  -7  176.90    6.60
   1  -1  -7  179.75    6.39
  -1   1   7  182.46    7.09
   1  -1  -7  205.29    7.31
  -1   1   6  212.39    8.78
   1  -1  -6  193.71    7.06
   1  -1  -6  195.91    8.94
  -1   1   6  201.47    8.95
   1  -1  -6  215.61    8.59
  -1   1   5  190.09    7.73
   1  -1  -5  183.40    5.95
   1  -1  -5  199.16    7.39
  -1   1   5  179.66    7.72
   1  -1  -5  178.85    9.35
  -1   1   4  622.07   17.27
   1  -1  -4  645.07   15.60
  -1   1   4  649.32   19.54
   1  -1  -4  581.02   16.11
  -1   1   4  594.92   15.43
  -1   1   3   28.47    4.11
   1  -1  -3   30.73    2.25
   1  -1  -3   32.26    2.63
  -1   1   3   32.46    2.97
  -1   1   3   29.30    3.66
  -1   1   2   23.41    3.44
   1  -1  -2   25.05    2.21
  -1   1   2   24.85    2.01
  -1   1   2   23.81    3.18
   1  -1  -1  170.40   10.77
   1  -1  -1  189.59    6.84
  -1   1   1  201.67    6.99
   1  -1   0  194.85    7.51
  -1   1   0  203.60    7.51
   1  -1   1 3757.44   76.84
  -1   1  -1 3540.34   86.01
  -1   1  -1 3601.67   72.42
   1  -1   2   26.55    2.02
  -1   1  -2   23.43    2.13
   1  -1   2   25.73    2.13
  -1   1  -2   24.88    1.95
   1  -1   3  317.55    9.82
  -1   1  -3  324.31   10.03
  -1   1  -4  318.01    9.18
  -1   1  -4  364.89   10.55
  -1   1  -4  340.27   13.09
   1  -1   5  278.89    8.55
  -1   1  -5  315.56    9.39
  -1   1  -5  306.73   12.28
  -1   1  -5  285.76   11.89
   1  -1   6  211.45    7.17
  -1   1  -6  223.76    7.35
  -1   1  -6  210.74    9.73
  -1   1  -6  241.87    9.05
   1  -1   7   53.83    3.64
  -1   1  -7   53.35    3.60
  -1   1  -7   55.59    4.29
   1  -1   8   82.93    4.77
  -1   1  -8   81.41    5.37
  -1   1  -8   93.82    5.01
   1  -1   9   42.29    3.46
  -1   1  -9   44.98    2.98
   1  -1  10   52.89    3.91
  -1   1 -10   60.79    3.83
  -1   0   9   50.77    4.03
   1   0  -9   60.60    4.32
  -1   0   8   96.64    4.87
   1   0  -8   99.03    6.33
  -1   0   7   57.23    3.99
   1   0  -7   53.14    3.43
  -1   0   6   56.77    3.82
   1   0  -6   52.73    3.23
   1   0  -6   60.75    4.81
  -1   0   6   50.95    4.13
  -1   0   5  744.41   17.39
   1   0  -5  681.96   16.11
   1   0  -5  655.36   18.72
  -1   0   5  714.34   17.40
  -1   0   4  777.24   19.61
   1   0  -4  741.92   18.40
   1   0  -4  717.03   23.83
  -1   0   4  708.36   19.32
  -1   0   3  435.87   12.77
   1   0  -3  408.01   11.94
   1   0  -3  375.13   17.23
  -1   0   3  403.35   13.83
   1   0  -3  357.06   15.45
  -1   0   2  512.80   13.84
   1   0  -2  489.40   14.64
   1   0  -2  457.68   14.82
  -1   0   2  460.22   19.06
   1   0  -2  475.47   17.44
  -1   0   1    1.29    0.92
   1   0  -1    1.42    1.04
   1   0  -1    1.61    0.89
  -1   0   1    1.28    0.98
   1   0  -1    1.46    1.08
  -1   0   1    2.17    1.07
  -1   0   0 1123.11   33.08
   1   0   0 1170.93   29.31
   1   0   0 1076.82   36.90
  -1   0   0 1064.39   30.63
   1   0   1  239.18    9.81
  -1   0  -1  235.65   10.14
   1   0   2  156.47    6.26
  -1   0  -2  152.65    5.92
  -1   0  -2  156.00    5.86
  -1   0  -3  558.27   15.64
  -1   0  -3  572.24   17.05
   1   0   3  631.47   18.87
   1   0   4  452.55   13.26
  -1   0  -4  449.99   12.76
  -1   0  -4  464.51   14.38
   1   0   4  474.00   14.68
  -1   0  -4  480.27   16.25
   1   0   5  289.47    8.52
  -1   0  -5  279.08    8.26
  -1   0  -5  293.86   11.71
   1   0   5  296.56    9.92
  -1   0  -5  286.98   11.75
   1   0   6   98.56    4.53
  -1   0  -6   94.15    6.14
  -1   0  -6  103.89    4.91
   1   0   7  196.62    7.82
  -1   0  -7  196.40    6.69
  -1   0  -7  204.32    9.58
  -1   0  -7  204.57    7.31
   1   0   8  101.41    4.63
  -1   0  -8   98.36    5.99
  -1   0  -8  102.60    5.32
   1   0   9   64.43    3.68
  -1   0  -9   65.87    4.42
  -1   0  -9   75.78    4.01
   1   0  10   45.22    3.42
  -1   0 -10   45.12    3.15
  -1  -1   9   64.32    4.16
  -1  -1   8   62.09    5.21
  -1  -1   7    5.01    1.92
   1   1  -7    6.31    2.16
  -1  -1   6  102.08    4.95
   1   1  -6  109.57    5.70
   1   1  -6  116.36    6.17
  -1  -1   5  158.06    6.30
   1   1  -5  151.01    6.45
   1   1  -5  149.08    7.55
   1   1  -5  141.85    6.78
   1   1  -5  161.95    6.74
  -1  -1   4  186.55    7.34
   1   1  -4  176.76    6.30
   1   1  -4  175.99    9.32
   1   1  -4  178.85    7.75
   1   1  -4  176.63    7.88
  -1  -1   4  197.83    8.72
   1   1  -3  542.13   14.05
   1   1  -3  543.82   14.96
   1   1  -3  558.74   20.04
  -1  -1   3  604.17   18.79
  -1  -1   2 1064.32   27.05
   1   1  -2  992.26   25.38
   1   1  -2 1012.21   31.90
  -1  -1   2 1011.21   31.49
  -1  -1   1 1562.04   38.67
   1   1  -1 1542.79   38.57
  -1  -1   1 1416.58   42.44
  -1  -1   0  734.22   21.38
   1   1   0  733.59   20.89
  -1  -1   0  679.78   21.36
   1   1   0  677.14   23.98
  -1  -1   0  697.03   22.95
   1   1   1  181.28    6.88
  -1  -1  -1  199.21    8.55
   1   1   1  189.98    9.11
  -1  -1  -1  171.36    9.36
  -1  -1  -2  311.09   10.22
   1   1   2  317.69   10.50
  -1  -1  -2  322.60   10.97
   1   1   3  925.14   24.90
  -1  -1  -3  907.34   24.31
  -1  -1  -3  873.46   23.23
  -1  -1  -3  925.61   25.09
   1   1   4  652.55   18.09
  -1  -1  -4  646.89   18.05
  -1  -1  -4  614.92   17.72
   1   1   4  645.96   19.37
  -1  -1  -4  642.84   18.42
   1   1   5  177.88    6.67
  -1  -1  -5  176.14    5.88
  -1  -1  -5  177.43    7.41
   1   1   5  165.50    6.00
  -1  -1  -5  172.94    7.43
   1   1   6  163.13    5.53
  -1  -1  -6  160.34    5.64
  -1  -1  -6  158.70    7.74
   1   1   6  166.80    6.40
  -1  -1  -6  165.91    6.61
   1   1   7  225.36    7.55
  -1  -1  -7  228.38    8.58
  -1  -1  -7  233.99    8.47
   1   1   8   78.59    3.92
  -1  -1  -8   77.89    4.10
  -1  -1  -8   81.69    3.98
   1   1   9  123.33    4.80
  -1  -1  -9  126.73    5.71
  -1  -1  -9  123.61    4.53
   1   1  10   48.88    3.21
  -1  -1 -10   45.68    2.89
  -1  -1 -10   51.57    2.98
  -1  -2   8   14.93    2.47
   1   2  -8   13.85    2.79
  -1  -2   7  100.12    5.21
   1   2  -7  105.83    4.80
  -1  -2   6   96.63    5.97
   1   2  -6   95.98    6.51
  -1  -2   5   77.82    4.45
   1   2  -5   79.86    3.83
   1   2  -5   81.52    5.79
  -1  -2   4    8.75    1.70
   1   2  -4   10.26    3.18
   1   2  -4    7.95    1.83
  -1  -2   3   61.87    3.46
   1   2  -3   57.49    3.13
   1   2  -3   59.64    4.82
  -1  -2   2  535.15   13.78
   1   2  -2  503.42   12.62
   1   2  -2  522.23   18.91
  -1  -2   1  502.40   14.78
   1   2  -1  521.35   14.23
  -1  -2   1  498.52   14.48
   1   2  -1  457.80   13.01
   1   2  -1  474.74   18.15
   1   2   0 1341.46   34.03
  -1  -2   0 1333.84   40.85
   1   2   0 1327.05   41.02
   1   2   0 1321.73   40.31
  -1  -2  -1  448.34   12.72
  -1  -2  -1  420.76   12.73
  -1  -2  -1  436.12   14.98
   1   2   1  431.70   15.81
   1   2   2  662.67   18.58
  -1  -2  -2  622.96   16.81
  -1  -2  -2  650.19   18.65
   1   2   2  657.36   18.95
   1   2   2  648.70   19.40
   1   2   3  580.53   16.20
  -1  -2  -3  568.78   16.17
   1   2   3  558.36   15.93
  -1  -2  -3  572.47   16.94
   1   2   3  525.06   15.61
   1   2   4  794.87   21.25
  -1  -2  -4  780.41   20.91
  -1  -2  -4  781.40   21.27
  -1  -2  -4  774.10   22.78
   1   2   4  757.14   20.91
   1   2   5  216.06    7.21
  -1  -2  -5  216.05    7.04
  -1  -2  -5  205.75    7.69
   1   2   5  212.32    6.72
  -1  -2  -5  202.22    6.85
   1   2   5  210.49    7.30
   1   2   6  523.70   12.12
  -1  -2  -6  523.40   12.41
  -1  -2  -6  532.95   13.37
   1   2   6  534.37   12.38
  -1  -2  -6  492.79   12.19
   1   2   6  491.89   11.50
   1   2   7  111.82    4.97
  -1  -2  -7  117.67    5.02
  -1  -2  -7  109.09    4.97
   1   2   8  126.40    4.61
  -1  -2  -8  131.36    4.84
  -1  -2  -8  132.45    5.41
   1   2   9  249.59    6.90
  -1  -2  -9  255.83    6.42
  -1  -2  -9  259.83    6.60
   1   2  10   18.18    2.42
  -1  -2 -10   18.10    2.49
  -1  -2 -10   16.93    2.55
   1   2  11   78.83    3.93
  -1  -2 -11   74.19    4.71
  -1  -2 -11   78.27    4.01
  -1  -3   7   46.20    3.79
   1   3  -7   39.24    2.81
  -1  -3   6  115.11    5.67
   1   3  -6  115.27    6.36
  -1  -3   5  119.21    5.94
   1   3  -5  128.39    6.17
  -1  -3   4   49.83    3.55
   1   3  -4   48.44    3.01
   1   3  -4   51.69    4.06
  -1  -3   3  168.38    6.20
   1   3  -3  164.05    6.04
   1   3  -3  158.85    6.06
   1   3  -3  163.33    8.75
  -1  -3   2    8.05    1.51
   1   3  -2    6.69    1.55
  -1  -3   2    7.79    1.78
   1   3  -2    8.20    1.73
   1   3  -2    8.08    1.89
   1   3  -1  162.52    5.76
  -1  -3   1  164.07    5.89
   1   3  -1  164.69    7.74
   1   3  -1  155.99    9.95
  -1  -3   0  241.89    7.89
  -1  -3   0  262.38    8.79
   1   3   0  247.05    7.65
  -1  -3  -1  449.36   13.75
   1   3   1  441.52   12.52
  -1  -3  -1  442.63   13.49
   1   3   1  469.13   14.63
  -1  -3  -2  253.64    8.28
  -1  -3  -2  264.43    8.65
  -1  -3  -2  263.59    9.08
   1   3   2  274.34    8.99
  -1  -3  -3  936.47   20.98
  -1  -3  -3  929.29   21.27
  -1  -3  -3  952.63   22.03
   1   3   3  933.99   22.17
   1   3   3  933.46   22.20
   1   3   4  152.92    5.58
  -1  -3  -4  154.36    5.43
   1   3   4  149.35    5.65
  -1  -3  -4  148.34    5.90
   1   3   4  146.03    5.68
   1   3   5  404.62   11.09
  -1  -3  -5  422.47   11.17
  -1  -3  -5  394.88   11.21
  -1  -3  -5  392.65   10.72
   1   3   5  404.18   11.09
   1   3   6  358.87    9.60
  -1  -3  -6  350.94    9.28
  -1  -3  -6  335.46    9.05
  -1  -3  -6  341.30   10.04
   1   3   6  341.27    9.73
   1   3   7   92.45    4.49
  -1  -3  -7   94.15    4.02
  -1  -3  -7   86.86    4.68
   1   3   7   92.27    4.32
   1   3   8  444.62   10.50
  -1  -3  -8  450.92   10.53
  -1  -3  -8  464.45    9.16
   1   3   9   35.03    2.66
  -1  -3  -9   36.14    2.94
  -1  -3  -9   33.53    2.98
   1   3  10  106.65    4.79
  -1  -3 -10   99.63    5.28
  -1  -3 -10  107.75    4.89
   1   3  11   75.93    4.21
  -1  -3 -11   74.19    3.97
  -1  -3 -11   75.48    4.04
  -1  -4   6   46.00    4.54
   1   4  -6   45.78    3.11
  -1  -4   5   33.68    2.97
   1   4  -5   33.42    3.00
  -1  -4   4  165.28    7.05
   1   4  -4  166.93    7.89
  -1  -4   3  159.79    7.58
  -1  -4   3  154.97    7.56
   1   4  -3  170.59    7.47
  -1  -4   2  116.81    6.11
   1   4  -2  118.07    6.28
   1   4  -2  125.38    6.66
  -1  -4   1  122.20    4.72
  -1  -4   1  124.68    5.27
   1   4  -1  118.67    4.50
   1   4  -1  121.60    7.18
  -1  -4   0   87.83    4.48
  -1  -4   0   87.88    3.86
   1   4   0   95.21    5.01
  -1  -4  -1   32.20    2.38
   1   4   1   27.87    2.08
  -1  -4  -1   30.40    2.28
   1   4   1   29.47    2.92
  -1  -4  -2  492.39   12.28
  -1  -4  -2  502.13   12.59
  -1  -4  -2  523.85   14.09
   1   4   2  522.12   13.39
  -1  -4  -3  328.19    8.27
  -1  -4  -3  322.57    8.46
  -1  -4  -3  332.05    9.49
   1   4   3  331.66    9.51
   1   4   3  311.84    8.80
  -1  -4  -4  124.11    4.62
  -1  -4  -4  118.73    4.83
  -1  -4  -4  120.52    4.68
   1   4   4  116.31    4.26
   1   4   5  267.47    8.16
  -1  -4  -5  265.66    7.63
   1   4   5  257.77    7.71
   1   4   6   73.09    3.61
  -1  -4  -6   73.86    3.81
  -1  -4  -6   75.03    4.11
   1   4   6   73.16    3.33
   1   4   7  410.69    9.36
  -1  -4  -7  399.98    9.59
  -1  -4  -7  416.24    9.88
   1   4   7  417.43    9.17
   1   4   8  101.34    4.34
  -1  -4  -8  101.35    3.88
  -1  -4  -8   99.97    4.42
   1   4   9   64.65    3.75
  -1  -4  -9   64.06    3.62
  -1  -4  -9   59.32    3.61
   1   4  10   62.08    3.36
  -1  -4 -10   58.37    3.60
  -1  -4 -10   65.39    3.64
  -1  -4 -11   98.92    4.01
  -1  -4 -11  100.07    4.12
  -1  -5   5    6.41    2.58
   1   5  -5    5.76    2.51
  -1  -5   4   35.25    2.96
   1   5  -4   37.67    3.45
   1   5  -3   63.78    5.18
  -1  -5   2  144.86    5.20
  -1  -5   2  144.17    6.19
   1   5  -2  159.22    6.74
  -1  -5   1  189.75    6.14
  -1  -5   1  186.49    6.85
   1   5  -1  186.14    7.50
  -1  -5   0   51.22    3.20
  -1  -5   0   47.16    2.99
   1   5   0   47.48    3.42
  -1  -5  -1  163.45    5.97
  -1  -5  -1  159.45    5.43
   1   5   1  166.16    6.15
  -1  -5  -2  225.61    7.43
  -1  -5  -2  227.25    7.22
  -1  -5  -3  124.37    4.67
  -1  -5  -3  125.89    5.00
   1   5   3  127.61    4.88
  -1  -5  -4  130.94    4.95
  -1  -5  -4  131.73    5.03
   1   5   4  129.93    4.91
  -1  -5  -5  127.10    4.02
  -1  -5  -5  125.45    4.52
   1   5   5  128.46    3.84
  -1  -5  -6  264.58    6.83
  -1  -5  -7  114.10    3.94
  -1  -5  -7  109.05    3.97
   1   5   8   76.95    3.55
  -1  -5  -8   77.67    3.84
  -1  -5  -8   81.28    3.70
   1   5   9   63.19    3.47
  -1  -5  -9   59.53    3.57
  -1  -5  -9   53.87    3.33
  -1  -5 -10   84.99    3.89
   1   6  -4    9.47    2.76
  -1  -6   3    9.16    2.38
   1   6  -3   12.69    2.36
  -1  -6   2   42.68    3.39
   1   6  -2   50.34    3.86
  -1  -6   1   22.53    2.50
  -1  -6   1   21.26    2.48
   1   6  -1   23.53    2.92
  -1  -6   0  116.40    4.60
  -1  -6   0  124.71    5.42
  -1  -6  -1  124.94    4.84
  -1  -6  -2  140.88    4.87
  -1  -6  -2  141.37    4.64
  -1  -6  -3   41.89    2.88
  -1  -6  -3   44.00    2.65
  -1  -6  -4   81.57    3.84
  -1  -6  -4   78.37    3.75
  -1  -6  -5  242.59    5.63
  -1  -6  -5  238.74    6.35
  -1  -6  -6  100.30    3.74
  -1  -6  -6   93.98    4.19
  -1  -6  -7   78.81    3.15
  -1  -6  -8   54.88    2.92
  -1  -6  -9  100.01    4.00
  -1  -7   1   20.36    2.69
  -1  -7   0   21.81    2.76
  -1  -7  -1   71.31    4.82
  -1  -7  -1   72.38    4.18
  -1  -7  -2   46.11    3.26
  -1  -7  -2   49.82    3.37
  -1  -7  -3   19.58    2.86
  -1  -7  -3   20.84    2.60
  -1  -7  -4  136.86    5.16
  -1  -7  -4  137.54    4.60
  -1  -7  -5   54.10    3.28
  -1  -7  -5   58.46    3.21
  -1  -7  -6   53.85    3.43
  -1  -7  -6   57.89    3.70
  -1  -7  -7   40.27    2.93
  -1  -7  -7   41.39    3.08
  -1  -7  -8   76.36    3.70
  -1  -8  -3   52.93    4.50
  -1  -8  -3   58.69    3.70
  -1  -8  -4   46.99    3.18
  -1  -8  -4   45.33    3.33
  -1  -8  -5   25.96    3.05
  -1  -8  -5   31.53    3.03
   2  -7  -4   42.81    4.56
   2  -7  -3    0.80    2.66
   2  -7  -2   40.92    3.50
   2  -7  -1   16.01    2.87
   2  -7   0   22.21    2.79
   2  -6  -7   50.96    3.97
   2  -6  -6   49.51    3.27
   2  -6  -5  150.44    5.77
   2  -6  -3   67.43    4.36
   2  -6  -2   39.55    4.14
   2  -6  -1   21.00    3.00
   2  -6  -1   21.83    2.80
   2  -6   0   47.45    3.52
   2  -6   0   46.92    3.92
   2  -6   1   28.23    3.61
   2  -6   1   24.70    3.01
   2  -6   2   21.81    2.84
   2  -6   2   23.55    2.50
   2  -6   3   13.75    2.74
   2  -6   3   13.42    2.58
   2  -5  -8   41.58    3.45
   2  -5  -7   14.24    2.62
   2  -5  -6   56.57    3.48
   2  -5  -5   83.49    4.71
   2  -5  -4  116.44    4.97
   2  -5  -2   91.93    6.31
   2  -5  -2   96.42    4.88
   2  -5  -1   87.27    5.60
   2  -5  -1   96.71    5.14
   2  -5   0   91.19    5.06
   2  -5   0   92.09    5.66
   2  -5   1   48.48    3.65
   2  -5   1   44.95    3.78
   2  -5   2   44.34    3.90
   2  -5   2   44.60    3.48
   2  -5   3   33.27    3.44
   2  -5   3   34.21    3.60
   2  -5   4   47.25    4.81
   2  -5   4   47.20    4.38
   2  -5   5   16.86    2.74
   2  -5   5   14.45    2.64
   2  -4  -8   72.78    4.18
   2  -4  -8   89.27    3.91
   2  -4  -7   54.92    3.32
   2  -4  -7   57.17    4.08
   2  -4  -6   70.22    3.85
   2  -4  -5   72.74    3.73
   2  -4  -4   32.13    2.61
   2  -4  -3  105.93    5.05
   2  -4  -3  114.76    4.56
   2  -4  -2  144.48    6.90
  -2   4   2  144.89    6.32
   2  -4  -1  244.04    9.43
  -2   4   1  239.33    8.01
   2  -4   0   79.35    5.05
  -2   4   0   74.90    4.45
   2  -4   0   72.01    4.52
   2  -4   1  109.52    5.99
   2  -4   1  104.27    4.50
   2  -4   2   58.66    3.71
   2  -4   2   61.06    4.10
   2  -4   3  169.68    7.40
   2  -4   3  158.83    7.25
   2  -4   4   73.10    4.01
   2  -4   5    6.84    2.54
   2  -4   5    9.38    2.19
   2  -4   6   58.00    4.19
  -2   4  -6   59.19    4.44
   2  -4   7   20.69    3.52
  -2   4  -7   20.32    3.19
   2  -3  -9   47.11    3.69
   2  -3  -8   85.58    4.75
   2  -3  -8   85.46    3.93
   2  -3  -7  120.47    4.85
   2  -3  -7  132.62    5.74
   2  -3  -6  324.44    7.48
   2  -3  -6  328.54    8.27
   2  -3  -5   79.76    4.53
   2  -3  -5   88.85    6.18
   2  -3  -4   72.47    4.41
   2  -3  -3   95.90    4.81
   2  -3  -2  299.41   10.61
   2  -3  -2  296.84   10.60
   2  -3  -2  307.65    8.57
   2  -3  -1   70.71    4.83
  -2   3   1   75.70    3.89
  -2   3   1   74.88    3.78
   2  -3   0  190.37    6.37
  -2   3   0  197.69    6.21
   2  -3   1   86.25    4.17
  -2   3  -1   87.95    3.95
   2  -3   1   80.13    4.03
   2  -3   2  172.54    5.95
  -2   3  -2  165.44    5.71
   2  -3   2  156.07    6.90
   2  -3   3  269.79    8.63
   2  -3   3  265.62    7.93
   2  -3   4    8.71    2.12
   2  -3   4    7.93    1.66
   2  -3   5  147.07    6.00
   2  -3   6   44.27    3.97
  -2   3  -6   41.08    3.69
   2  -3   7   48.10    4.07
  -2   3  -7   44.80    3.54
  -2   3  -8   25.28    3.15
   2  -2  -9   43.11    3.64
   2  -2  -8   21.63    2.39
   2  -2  -8   24.03    2.65
   2  -2  -7  168.63    5.66
   2  -2  -7  171.16    7.77
  -2   2   6  182.79    8.71
   2  -2  -6  187.81    6.50
   2  -2  -6  217.19    7.78
  -2   2   5  173.58    7.63
   2  -2  -5  184.41    6.88
  -2   2   5  175.85    7.06
   2  -2  -5  191.79    6.81
   2  -2  -4  290.00    9.35
  -2   2   4  284.76    8.35
   2  -2  -4  278.67    9.10
   2  -2  -3  727.27   16.34
  -2   2   3  745.94   16.54
  -2   2   3  735.42   19.02
   2  -2  -2   96.77    4.32
  -2   2   2  100.32    4.31
  -2   2   2   99.37    4.69
   2  -2  -1  174.26    8.29
  -2   2   1  183.39    6.46
   2  -2  -1  188.57    6.53
  -2   2   1  193.92    6.65
   2  -2   0  283.83   11.28
  -2   2   0  300.68    8.22
   2  -2   0  277.03    8.46
   2  -2   1  234.16    8.71
  -2   2  -1  209.85    6.36
  -2   2  -1  195.16    6.32
   2  -2   2  632.24   15.93
  -2   2  -2  646.55   15.39
   2  -2   2  622.86   15.46
  -2   2  -2  614.49   15.04
   2  -2   3    8.24    1.68
  -2   2  -3    7.79    1.75
   2  -2   3    7.26    1.55
  -2   2  -3    8.24    1.70
   2  -2   4  134.97    5.13
   2  -2   4  142.52    5.54
  -2   2  -4  130.19    4.94
   2  -2   5  148.95    5.51
  -2   2  -5  149.81    6.25
   2  -2   6  108.75    5.27
  -2   2  -6  119.65    5.54
  -2   2  -7   49.50    4.05
  -2   2  -7   48.45    3.34
  -2   2  -8   12.41    2.44
  -2   2  -8   12.84    2.38
   2  -2   9   31.17    3.45
  -2   2  -9   34.47    3.32
   2  -1  -9   63.83    4.06
   2  -1  -8   53.36    3.62
  -2   1   7   79.20    5.17
   2  -1  -7   80.74    4.31
  -2   1   6   21.09    2.41
   2  -1  -6   20.81    2.20
  -2   1   6   21.85    3.10
  -2   1   5   44.33    4.35
   2  -1  -5   39.25    3.13
   2  -1  -5   44.88    2.92
  -2   1   5   42.65    2.82
  -2   1   4  685.64   21.73
   2  -1  -4  625.09   17.48
   2  -1  -4  711.41   16.42
  -2   1   4  675.24   17.93
  -2   1   3  420.46   16.22
   2  -1  -3  437.79   12.36
  -2   1   3  430.75   13.00
   2  -1  -3  388.93   16.05
   2  -1  -2  309.54    9.30
  -2   1   2  301.32    9.08
   2  -1  -2  290.02   13.20
  -2   1   1  425.61   22.46
   2  -1  -1  456.85   13.79
  -2   1   1  442.07   12.90
  -2   1   1  410.81   13.46
   2  -1   0  348.78   12.15
  -2   1   0  359.08   13.54
   2  -1   0  383.09   11.78
  -2   1   0  390.48   11.62
  -2   1   0  387.05   15.11
   2  -1   1  952.05   28.58
  -2   1  -1  864.81   23.58
   2  -1   1  852.82   22.80
   2  -1   2  354.13   14.21
  -2   1  -2  348.32   11.33
  -2   1  -2  354.19   10.76
   2  -1   3  255.58    9.06
  -2   1  -3  250.46    7.26
   2  -1   3  247.42    7.74
  -2   1  -3  243.63    6.98
   2  -1   4  244.86    7.53
  -2   1  -4  262.08    7.86
  -2   1  -4  256.93    7.53
  -2   1  -4  264.86    8.17
   2  -1   5  238.92    7.55
  -2   1  -5  229.51    6.42
  -2   1  -5  231.52    7.79
  -2   1  -6  155.28    6.17
  -2   1  -6  141.32    6.20
  -2   1  -7   82.29    5.20
  -2   1  -7   74.70    4.60
   2  -1   8   80.01    4.48
  -2   1  -8   91.90    5.00
  -2   1  -8   96.68    4.95
   2  -1   9   34.25    2.88
  -2   1  -9   33.28    3.33
  -2   1  -9   34.92    3.58
   2  -1  10   10.55    3.01
  -2   1 -10   14.53    2.59
  -2   0   7   93.07    5.30
   2   0  -7  102.06    4.99
  -2   0   6   12.46    2.41
   2   0  -6   14.52    2.14
   2   0  -6   14.99    2.67
  -2   0   5  160.08    6.99
   2   0  -5  154.87    6.59
   2   0  -5  171.98    6.65
  -2   0   5  163.09    6.74
   2   0  -5  176.56    9.04
  -2   0   4  107.44    5.69
   2   0  -4   99.49    5.13
   2   0  -4  113.93    4.44
  -2   0   4  103.57    5.02
   2   0  -4  113.67    7.52
  -2   0   3  160.41    5.36
   2   0  -3  142.17    7.66
   2   0  -3  161.47    5.28
  -2   0   3  143.05    6.82
   2   0  -3  148.72    7.61
  -2   0   3  156.09    7.56
  -2   0   2  209.63    7.16
   2   0  -2  178.91   10.23
   2   0  -2  219.27    7.04
  -2   0   2  198.42    9.27
   2   0  -2  212.79   11.21
  -2   0   2  221.29    9.78
  -2   0   1  667.10   21.82
   2   0  -1  688.55   18.36
  -2   0   1  690.30   18.84
   2   0  -1  650.99   25.76
  -2   0   1  670.51   24.07
   2   0   0  534.74   21.74
  -2   0   0  563.21   20.99
   2   0   0  578.69   15.42
  -2   0   0  599.38   17.08
  -2   0   0  552.06   19.85
   2   0   1  294.75   12.73
  -2   0  -1  292.35   12.34
   2   0   1  301.97    9.74
  -2   0  -1  295.14    9.65
   2   0   2  544.35   18.98
  -2   0  -2  592.75   17.57
   2   0   2  583.58   17.15
   2   0   3  420.33   14.50
  -2   0  -3  396.23   11.53
  -2   0  -3  401.15   11.82
  -2   0  -3  397.99   11.85
   2   0   4  604.31   15.66
  -2   0  -4  589.01   14.40
  -2   0  -4  589.83   13.91
  -2   0  -4  592.44   14.34
  -2   0  -5  320.22    8.33
  -2   0  -5  328.64    9.55
  -2   0  -6  163.69    6.94
  -2   0  -6  156.15    6.66
   2   0   7  127.31    4.52
  -2   0  -7  128.41    5.88
  -2   0  -7  130.68    5.33
   2   0   8  209.68    6.07
  -2   0  -8  191.48    6.24
  -2   0  -8  218.73    6.43
   2   0   9   56.63    3.34
  -2   0  -9   64.81    3.76
  -2   0  -9   66.82    3.54
   2   0  10   77.34    4.01
  -2   0 -10   88.72    4.59
  -2   0 -10   88.24    3.86
  -2  -1   8   67.15    4.24
   2   1  -8   81.93    5.47
  -2  -1   7   36.83    4.98
   2   1  -7   44.84    4.10
  -2  -1   6  252.03    9.48
   2   1  -6  275.58   10.83
  -2  -1   5  147.86    6.09
   2   1  -5  146.19    6.32
   2   1  -5  172.90    5.93
   2   1  -5  167.71    9.28
  -2  -1   4  210.47    6.96
   2   1  -4  200.11    7.19
   2   1  -4  218.20    8.19
  -2  -1   4  226.95    8.70
   2   1  -4  207.81   10.00
  -2  -1   3   26.34    2.19
   2   1  -3   23.04    2.44
   2   1  -3   28.46    2.65
  -2  -1   3   27.90    4.26
   2   1  -3   23.92    3.63
  -2  -1   3   26.26    2.75
  -2  -1   2  194.95    6.30
   2   1  -2  177.75    7.14
   2   1  -2  171.93   10.88
  -2  -1   2  166.53    9.38
   2   1  -2  170.92   10.73
  -2  -1   2  174.13    8.64
  -2  -1   1  746.04   22.57
   2   1  -1  711.96   22.17
  -2  -1   1  773.24   20.23
  -2  -1   1  657.55   24.55
   2   1  -1  695.38   24.99
  -2  -1   1  734.16   25.15
  -2  -1   0  152.58    7.85
  -2  -1   0  148.89    8.16
  -2  -1   0  154.64    5.63
  -2  -1   0  140.54    7.60
   2   1   0  151.70   11.10
  -2  -1   0  151.68    8.88
  -2  -1  -1  721.28   23.98
  -2  -1  -1  754.37   20.18
  -2  -1  -1  769.25   21.44
  -2  -1  -1  694.10   25.12
   2   1   2  125.92    6.10
  -2  -1  -2  117.07    6.98
  -2  -1  -2  122.08    5.01
   2   1   2  119.11    4.59
   2   1   3  336.72   11.95
  -2  -1  -3  316.56   10.63
   2   1   3  331.80   10.33
  -2  -1  -4  390.91   10.80
  -2  -1  -5  590.25   14.84
  -2  -1  -5  610.36   15.21
   2   1   5  586.24   14.67
  -2  -1  -5  586.37   14.46
   2   1   6   81.75    4.13
  -2  -1  -6   84.60    3.93
  -2  -1  -6   79.08    4.09
   2   1   7  245.43    7.34
  -2  -1  -7  239.87    7.31
  -2  -1  -7  249.99    7.72
   2   1   8   75.96    3.57
  -2  -1  -8   74.77    4.38
  -2  -1  -8   71.88    3.61
   2   1   9  127.56    5.41
  -2  -1  -9  122.99    6.03
  -2  -1  -9  122.21    4.77
   2   1  10  180.45    5.78
  -2  -1 -10  182.32    7.47
  -2  -1 -10  188.32    5.48
   2   1  11   19.18    3.21
  -2  -1 -11   19.99    3.10
  -2  -1 -11   17.41    3.00
  -2  -2   8    1.45    2.68
   2   2  -8    3.58    2.33
  -2  -2   7   55.94    4.88
   2   2  -7   66.67    4.09
  -2  -2   6   51.61    4.12
   2   2  -6   66.35    4.04
  -2  -2   5  189.92    8.23
   2   2  -5  211.18    9.55
  -2  -2   4  225.40    7.83
   2   2  -4  241.56   10.49
  -2  -2   3  114.23    4.58
   2   2  -3  101.54    5.07
   2   2  -3  113.54    7.61
  -2  -2   3  110.79    6.47
  -2  -2   2  507.36   13.41
   2   2  -2  490.61   13.07
   2   2  -2  509.51   20.19
  -2  -2   2  501.14   18.37
  -2  -2   1  128.34    4.67
   2   2  -1  124.04    4.53
  -2  -2   1  118.96    8.98
   2   2  -1  123.43    7.84
  -2  -2   1  117.91    6.94
  -2  -2   0  560.30   16.98
   2   2   0  512.36   13.81
  -2  -2   0  503.83   17.83
   2   2   0  530.09   21.49
  -2  -2   0  539.48   20.03
  -2  -2  -1  548.42   17.25
  -2  -2  -1  599.88   17.15
  -2  -2  -1  584.56   20.88
   2   2   1  576.60   20.84
   2   2   1  533.06   21.24
  -2  -2  -1  559.91   20.57
   2   2   2  334.23   10.22
  -2  -2  -2  356.98   12.01
   2   2   2  357.41   11.66
  -2  -2  -3  183.88    7.33
   2   2   3  182.01    7.31
  -2  -2  -3  179.62    7.96
  -2  -2  -4  884.92   20.22
   2   2   4  917.12   21.40
  -2  -2  -4  860.60   20.77
   2   2   5  124.08    5.00
  -2  -2  -5  124.46    4.71
  -2  -2  -5  121.12    5.17
   2   2   6  264.96    8.17
  -2  -2  -6  264.48    7.39
  -2  -2  -6  243.52    7.33
   2   2   7  194.24    6.70
  -2  -2  -7  189.97    6.84
  -2  -2  -7  191.55    6.33
   2   2   8   62.37    3.49
  -2  -2  -8   55.29    3.76
  -2  -2  -8   60.59    3.32
   2   2   9  185.14    5.59
  -2  -2  -9  193.82    5.82
  -2  -2  -9  188.30    5.78
   2   2  10   14.40    2.52
  -2  -2 -10   14.94    3.10
  -2  -2 -10   15.06    2.24
   2   2  11   78.53    3.73
  -2  -2 -11   78.89    4.35
  -2  -2 -11   79.21    4.08
  -2  -3   7   14.19    2.98
   2   3  -7   12.80    3.00
  -2  -3   6    9.58    2.36
   2   3  -6   10.18    2.45
  -2  -3   5   73.49    4.60
   2   3  -5   74.18    4.49
  -2  -3   4   39.75    3.30
   2   3  -4   46.55    4.05
  -2  -3   3  215.58    8.34
   2   3  -3  225.58   11.41
  -2  -3   2  266.81    8.72
   2   3  -2  261.07   11.10
  -2  -3   1  183.48    6.00
   2   3  -1  181.82    6.01
  -2  -3   1  178.81    5.72
   2   3  -1  165.56    6.42
   2   3  -1  179.53    8.54
  -2  -3   0  368.16   10.22
   2   3   0  352.32    9.57
  -2  -3   0  364.31   14.51
   2   3   0  333.40   13.00
   2   3   0  339.19   13.33
  -2  -3  -1  249.19    8.85
   2   3   1  282.98   12.67
   2   3   1  249.34   11.76
  -2  -3  -2  225.05    8.43
   2   3   2  234.01    8.37
  -2  -3  -3 1019.74   23.28
  -2  -3  -3 1037.53   21.40
   2   3   3 1049.39   22.65
   2   3   4  397.75   11.05
  -2  -3  -4  390.73   10.61
  -2  -3  -4  396.95   11.91
   2   3   4  399.17   10.99
   2   3   5  142.02    5.72
  -2  -3  -5  140.94    5.09
  -2  -3  -5  145.56    5.32
   2   3   6  284.24    8.43
  -2  -3  -6  278.04    7.95
   2   3   7  240.01    6.95
  -2  -3  -7  233.37    7.12
  -2  -3  -7  238.28    7.39
   2   3   8  329.76    7.79
  -2  -3  -8  317.76    7.88
  -2  -3  -8  319.29    7.48
   2   3   9   48.57    2.83
  -2  -3  -9   47.12    3.30
  -2  -3  -9   50.16    2.89
   2   3  10   35.43    2.89
  -2  -3 -10   33.44    3.50
  -2  -3 -10   34.97    2.75
   2   3  11   37.32    3.00
  -2  -3 -11   37.28    3.12
  -2  -3 -11   35.78    3.05
  -2  -4   6   40.11    3.91
   2   4  -6   39.81    3.11
  -2  -4   5   21.16    2.90
   2   4  -5   19.46    2.70
  -2  -4   4    6.96    1.87
   2   4  -4    7.74    2.11
  -2  -4   3   75.55    4.37
   2   4  -3   80.70    4.88
  -2  -4   2   96.18    5.01
   2   4  -2   98.60    6.31
  -2  -4   1  188.99    6.39
  -2  -4   1  181.99    6.06
   2   4  -1  180.44    6.51
   2   4  -1  202.26   10.29
  -2  -4   0  167.26    6.59
   2   4   0  164.00    7.81
   2   4   0  169.85    8.40
  -2  -4  -1   49.45    4.43
   2   4   1   47.96    2.91
   2   4   1   49.10    4.84
  -2  -4  -2  410.37   10.66
  -2  -4  -2  435.13   11.92
   2   4   2  431.80   11.43
   2   4   2  386.36   13.70
  -2  -4  -3  367.48    9.74
  -2  -4  -3  386.36   10.70
   2   4   3  362.84   10.31
   2   4   3  335.19   16.65
  -2  -4  -4  264.93    7.54
  -2  -4  -4  252.24    7.26
   2   4   5  112.03    4.44
  -2  -4  -5  110.08    4.71
   2   4   5  105.63    5.34
   2   4   6  302.17    8.27
  -2  -4  -6  270.05    8.68
  -2  -4  -6  296.86    8.33
   2   4   6  287.76    8.33
   2   4   7  349.87    8.01
  -2  -4  -7  345.66    8.21
   2   4   8  131.24    4.26
  -2  -4  -8  134.38    4.18
  -2  -4  -8  132.34    4.24
   2   4   9  151.03    4.60
  -2  -4  -9  146.09    4.66
  -2  -4  -9  147.29    5.27
   2   4  10   93.93    3.67
  -2  -4 -10   99.31    3.77
   2   4  11   91.97    4.18
  -2  -4 -11   89.85    3.94
  -2  -5   5   17.45    2.71
   2   5  -5   20.45    3.29
  -2  -5   4   36.40    3.72
   2   5  -4   37.32    3.10
  -2  -5   3   37.31    3.30
   2   5  -3   42.55    3.54
  -2  -5   2   45.37    3.72
   2   5  -2   49.63    4.25
  -2  -5   1   81.58    4.04
   2   5  -1   91.71    5.89
  -2  -5   0   29.32    2.20
   2   5   0   30.24    3.69
  -2  -5  -1  231.71    7.19
  -2  -5  -1  241.70    7.67
   2   5   1  220.40    6.69
   2   5   1  245.34    9.87
  -2  -5  -2  105.21    4.43
  -2  -5  -2  103.93    5.12
   2   5   2   97.26    5.47
   2   5   2   97.92    5.87
  -2  -5  -3  222.31    7.02
  -2  -5  -3  219.75    6.80
   2   5   3  206.23    6.13
  -2  -5  -4   37.88    2.69
  -2  -5  -4   37.40    2.79
  -2  -5  -5  161.18    5.50
  -2  -5  -5  167.65    5.56
  -2  -5  -6  343.89    7.93
  -2  -5  -6  337.86    8.85
   2   5   7   52.34    2.82
  -2  -5  -7   50.89    3.29
   2   5   8   84.01    3.40
   2   5   9   96.57    3.79
  -2  -5  -9   96.66    3.84
   2   5  10  173.15    4.78
  -2  -5 -10  162.24    5.36
  -2  -6   3   38.91    4.09
   2   6  -3   47.43    3.25
   2   6  -2   54.18    3.98
   2   6  -1    5.87    2.28
  -2  -6   0  110.63    5.27
   2   6   0  123.14    6.29
  -2  -6  -1   68.72    3.70
  -2  -6  -1   65.94    3.32
  -2  -6  -2  144.54    5.15
  -2  -6  -2  146.17    4.86
  -2  -6  -3   69.89    3.49
  -2  -6  -3   68.99    3.54
  -2  -6  -4   38.02    2.80
  -2  -6  -5  277.05    6.33
  -2  -6  -5  285.70    6.19
  -2  -6  -6   79.32    3.29
  -2  -6  -6   81.78    3.49
  -2  -6  -7   65.55    3.17
  -2  -6  -7   65.71    3.64
  -2  -6  -8   51.32    3.07
  -2  -6  -8   52.08    3.80
  -2  -6  -9   82.66    3.66
  -2  -7   1   44.69    3.81
  -2  -7   0   37.98    3.55
  -2  -7  -1   34.82    2.92
  -2  -7  -2   70.45    3.72
  -2  -7  -2   69.81    3.59
  -2  -7  -3   22.45    2.65
  -2  -7  -3   24.22    2.65
  -2  -7  -4  122.98    4.71
  -2  -7  -4  124.87    4.18
  -2  -7  -5   93.43    3.84
  -2  -7  -5   93.01    3.88
  -2  -7  -6   53.17    3.19
  -2  -7  -6   55.74    3.44
  -2  -7  -7   68.42    3.29
  -2  -7  -7   73.44    3.56
  -2  -7  -8  111.64    4.36
  -2  -7  -8  109.78    4.13
  -2  -8  -4   58.86    3.77
  -2  -8  -4   58.36    3.73
   3  -6  -4   35.04    3.49
   3  -6  -1   30.91    3.30
   3  -6   0   33.87    4.07
   3  -6   1   30.83    3.13
   3  -6   2   13.69    2.34
   3  -5  -6   54.81    3.74
   3  -5  -5   56.62    4.43
   3  -5  -4   66.81    4.73
   3  -5  -3   20.84    2.76
   3  -5  -2   57.37    2.97
   3  -5   0   62.01    4.51
   3  -5   1   19.07    3.15
   3  -5   1   17.11    2.77
   3  -5   2   50.39    3.37
   3  -5   2   38.31    3.08
   3  -5   3   21.22    3.00
   3  -5   3   22.61    2.51
   3  -5   4   34.49    4.07
   3  -5   4   33.26    3.35
   3  -4  -7   54.39    3.96
   3  -4  -6   62.93    3.93
   3  -4  -5  167.30    6.43
   3  -4  -4   52.70    3.54
   3  -4  -3   64.77    3.72
   3  -4  -2  127.81    5.37
   3  -4  -1  190.83    8.22
   3  -4  -1  167.32    5.77
   3  -4   0   35.30    3.06
   3  -4   1   84.90    5.24
   3  -4   1   79.78    4.14
   3  -4   2   50.92    3.82
   3  -4   2   47.87    4.13
   3  -4   3   82.31    5.46
   3  -4   3   75.15    4.09
   3  -4   4   75.02    4.82
   3  -4   4   76.74    4.92
   3  -4   5    8.34    2.66
   3  -4   5    7.26    2.18
   3  -4   6   40.52    3.91
  -3   4  -6   37.11    3.89
   3  -3  -8   43.06    3.42
   3  -3  -7   26.60    2.94
   3  -3  -7   32.78    2.95
   3  -3  -6   79.08    4.22
   3  -3  -6   98.16    4.29
   3  -3  -5   87.02    4.05
   3  -3  -4   44.99    3.38
   3  -3  -3  129.20    5.82
   3  -3  -2  278.44    9.55
   3  -3  -1   60.89    3.56
  -3   3   1   53.40    3.91
   3  -3  -1   51.42    3.26
   3  -3   0  136.81    7.18
  -3   3   0  129.62    5.07
   3  -3   0  138.81    5.93
   3  -3   1  156.36    8.04
  -3   3  -1  151.19    5.88
   3  -3   2  119.48    5.31
  -3   3  -2  112.88    3.90
   3  -3   2  119.48    5.58
   3  -3   3  146.15    6.02
   3  -3   3  148.49    6.01
   3  -3   4   33.90    2.96
   3  -3   4   33.05    2.71
   3  -3   5  100.82    5.81
   3  -3   5  106.05    5.77
   3  -3   6   82.04    5.43
  -3   3  -6   85.79    4.83
   3  -3   7   46.77    3.74
  -3   3  -7   45.87    3.65
   3  -2  -8  102.53    4.59
   3  -2  -6   85.93    5.61
   3  -2  -5   26.76    2.63
   3  -2  -4   67.91    3.64
   3  -2  -3  344.00    9.90
   3  -2  -2   88.72    4.32
   3  -2  -1   93.83    4.71
  -3   2   1   95.58    4.42
   3  -2  -1   95.30    4.22
   3  -2   0  135.12    5.71
  -3   2   0  125.31    4.54
   3  -2   0  128.82    4.83
   3  -2   1  244.68   11.41
  -3   2  -1  255.05    7.41
   3  -2   1  253.62    7.79
   3  -2   2  205.48    9.73
  -3   2  -2  202.93    6.19
   3  -2   3   93.45    4.54
  -3   2  -3   88.43    3.70
   3  -2   3   95.73    4.86
   3  -2   4   94.10    4.29
   3  -2   4   86.73    4.23
   3  -2   5   78.92    4.30
  -3   2  -5   80.84    3.86
   3  -2   6  107.24    5.42
  -3   2  -6  111.23    4.56
   3  -2   7   90.06    6.08
  -3   2  -7   96.88    4.89
   3  -2   8   55.87    4.21
  -3   2  -8   62.10    4.17
  -3   2  -8   62.17    4.18
   3  -2   9   47.48    4.16
  -3   2  -9   42.05    3.76
  -3   2  -9   54.94    3.68
   3  -1  -8   72.98    4.21
   3  -1  -7  110.12    4.61
   3  -1  -6  114.39    5.08
   3  -1  -5   46.76    2.91
   3  -1  -5   56.50    3.72
  -3   1   4  280.81    9.67
  -3   1   4  297.81    9.35
   3  -1  -4  270.09    7.52
  -3   1   4  281.70    8.52
   3  -1  -4  283.22   11.83
   3  -1  -3  135.95    5.53
  -3   1   3  131.25    5.64
   3  -1  -3  138.19    8.07
   3  -1  -2  245.03    7.45
  -3   1   2  241.42    7.72
   3  -1  -2  253.26   12.20
  -3   1   1  101.14    6.96
  -3   1   1   93.13    6.36
   3  -1  -1  109.67    4.16
  -3   1   1  102.64    4.37
  -3   1   1  111.38    6.08
   3  -1   0  372.27   11.95
  -3   1   0  355.70   14.56
   3  -1   0  391.92   10.83
  -3   1   0  390.92   10.57
  -3   1   0  395.40   13.49
   3  -1   1  231.75   11.76
  -3   1  -1  207.77    9.78
   3  -1   1  219.26    7.29
  -3   1  -1  230.37    7.43
   3  -1   2  136.81    8.29
  -3   1  -2  132.53    5.67
   3  -1   2  129.78    5.48
  -3   1  -2  125.55    4.63
   3  -1   3  313.49   10.28
  -3   1  -3  322.23    8.66
   3  -1   4  111.39    5.94
   3  -1   5  118.39    4.96
  -3   1  -5  113.57    4.38
   3  -1   6   62.17    3.41
  -3   1  -6   59.45    3.06
   3  -1   7   59.40    3.45
  -3   1  -7   56.87    3.37
  -3   1  -7   60.81    3.16
   3  -1   8   44.78    2.85
  -3   1  -8   47.77    3.59
  -3   1  -8   46.52    3.04
  -3   1  -9  107.98    5.16
  -3   1  -9  114.40    4.48
   3   0  -8   19.26    2.82
   3   0  -7   64.26    4.37
   3   0  -6   52.41    4.04
  -3   0   5  248.35   10.72
   3   0  -5  288.74   10.57
  -3   0   4   91.09    4.37
   3   0  -4   86.39    5.29
   3   0  -4   90.47    5.02
  -3   0   4   89.98    4.44
   3   0  -4   94.85    6.65
  -3   0   3  253.35   10.03
  -3   0   3  274.12    8.76
   3   0  -3  263.59    9.33
  -3   0   3  275.11   10.29
   3   0  -3  270.63   10.17
  -3   0   2   84.95    5.03
  -3   0   2   93.10    5.33
   3   0  -2   88.91    3.97
  -3   0   2   82.60    4.70
   3   0  -2  101.14    6.57
  -3   0   2   97.07    5.90
  -3   0   1  330.92   11.20
  -3   0   1  324.46   13.85
   3   0  -1  357.92    9.31
  -3   0   1  358.78    9.69
   3   0  -1  358.15   14.94
  -3   0   1  357.41   12.71
   3   0   0  675.29   21.31
  -3   0   0  722.07   20.05
   3   0   0  728.44   17.50
  -3   0   0  740.05   17.34
  -3   0   0  669.60   18.91
   3   0   1  136.14    8.13
  -3   0  -1  134.07    8.28
   3   0   1  143.00    4.90
  -3   0  -1  138.88    5.11
  -3   0  -1  120.64    7.47
   3   0   2  554.00   19.66
  -3   0  -2  482.90   16.48
   3   0   2  545.73   14.33
  -3   0  -2  517.36   12.68
   3   0   3  181.55    7.52
  -3   0  -3  218.42    7.40
  -3   0  -3  193.78    6.53
   3   0   4  330.04    9.43
  -3   0  -4  306.62    8.02
   3   0   5  285.27    8.21
  -3   0  -5  269.59    7.23
   3   0   6  252.74    7.67
  -3   0  -6  249.87    7.30
   3   0   7   12.01    2.09
  -3   0  -7   11.50    2.01
  -3   0  -7   12.12    2.49
  -3   0  -8   62.94    3.59
  -3   0  -8   57.15    3.68
   3   0   9   25.36    2.61
  -3   0  -9   26.07    2.82
  -3   0  -9   28.26    2.79
   3   0  10   59.01    3.93
  -3   0 -10   59.66    3.89
  -3   0 -10   55.98    3.35
   3   1  -7    7.74    2.72
  -3  -1   6   86.96    5.16
   3   1  -6   95.47    6.55
  -3  -1   5   37.40    3.66
  -3  -1   4  171.85    7.49
   3   1  -4  159.43    7.86
   3   1  -4  174.19    9.07
  -3  -1   3  170.36    7.63
   3   1  -3  156.73    7.66
   3   1  -3  149.35    8.47
  -3  -1   3  152.25    5.09
   3   1  -3  173.66    9.58
  -3  -1   2   56.44    5.42
  -3  -1   2   62.74    3.45
   3   1  -2   57.65    6.28
  -3  -1   2   52.36    4.30
   3   1  -2   56.55    5.44
  -3  -1   2   61.74    5.42
  -3  -1   1  479.87   17.73
  -3  -1   1  466.12   16.09
  -3  -1   1  457.42   11.85
   3   1  -1  495.28   19.29
  -3  -1   1  486.39   16.91
  -3  -1   0  204.32    9.60
  -3  -1   0  193.89    8.57
  -3  -1   0  223.18    6.52
  -3  -1   0  221.79   10.87
   3   1   0  222.44   10.97
  -3  -1   0  212.74   10.60
   3   1   1  438.70   17.58
  -3  -1  -1  475.34   16.16
  -3  -1  -1  474.70   11.57
  -3  -1  -1  478.73   14.51
  -3  -1  -1  429.13   15.54
   3   1   2  477.13   16.54
  -3  -1  -2  419.51   13.05
  -3  -1  -2  446.15   11.41
  -3  -1  -2  464.19   13.52
   3   1   3  174.57    7.03
  -3  -1  -3  191.60    8.60
  -3  -1  -3  179.34    6.10
  -3  -1  -3  200.16    7.52
   3   1   4  271.73    9.03
  -3  -1  -4  260.55    7.37
  -3  -1  -4  253.88    7.40
  -3  -1  -4  247.71    7.65
   3   1   5  674.93   15.61
   3   1   6  212.93    6.79
  -3  -1  -6  200.23    6.14
  -3  -1  -6  200.07    6.37
  -3  -1  -7  215.71    6.82
  -3  -1  -7  219.45    6.98
   3   1   8  125.82    4.31
  -3  -1  -8  133.93    5.04
   3   1   9   51.24    2.94
  -3  -1  -9   57.51    3.41
  -3  -1  -9   57.06    3.71
   3   1  10   58.83    3.64
  -3  -1 -10   59.71    3.47
  -3  -1 -10   58.80    3.13
   3   2  -7   63.30    3.95
  -3  -2   6   28.11    3.61
   3   2  -6   29.91    3.38
  -3  -2   5   28.29    3.27
   3   2  -5   35.05    4.31
  -3  -2   4  147.00    5.24
   3   2  -4  156.94    6.49
  -3  -2   3   65.09    4.01
   3   2  -3   60.31    4.40
  -3  -2   2  165.81    6.01
   3   2  -2  157.11    6.74
   3   2  -2  151.45    7.69
  -3  -2   2  159.26    8.09
  -3  -2   1  257.34    9.25
  -3  -2   1  259.24    7.38
  -3  -2   1  253.73    9.18
   3   2  -1  251.68   12.68
  -3  -2   1  272.06   12.10
  -3  -2   0  111.71    4.64
  -3  -2   0  121.58    4.91
  -3  -2   0  122.82    5.13
  -3  -2   0  114.44    8.46
   3   2   0  115.18    7.32
  -3  -2   0  112.74    7.20
  -3  -2  -1  365.89   11.22
  -3  -2  -1  358.60   11.26
  -3  -2  -1  349.07   11.34
  -3  -2  -1  346.39   14.24
   3   2   1  333.19   13.36
  -3  -2  -1  336.77   12.11
   3   2   2  196.36    6.92
  -3  -2  -2  214.70    8.75
  -3  -2  -2  191.86    5.91
  -3  -2  -2  218.45    9.68
  -3  -2  -2  182.94    9.79
   3   2   3  198.67    8.76
  -3  -2  -3  208.53    7.08
  -3  -2  -3  199.79    6.57
   3   2   3  210.01    7.76
  -3  -2  -3  182.73   10.83
   3   2   4  560.92   13.15
  -3  -2  -4  548.40   13.40
  -3  -2  -4  574.03   14.58
   3   2   4  534.41   12.57
   3   2   5  136.95    5.49
  -3  -2  -5  140.78    5.57
  -3  -2  -5  139.18    5.05
  -3  -2  -6  126.99    4.88
   3   2   7  231.46    6.91
  -3  -2  -7  239.56    6.54
  -3  -2  -7  234.53    6.26
   3   2   8  347.78    7.32
  -3  -2  -8  362.76    6.96
  -3  -2  -8  345.79    6.61
   3   2   9  200.35    5.39
  -3  -2  -9  206.05    5.21
  -3  -2  -9  200.50    5.22
   3   2  10   40.04    3.17
  -3  -2 -10   41.49    3.07
  -3  -2 -10   37.61    2.78
   3   2  11   37.86    3.23
  -3  -2 -11   37.76    3.45
  -3  -2 -11   37.91    3.06
  -3  -3   6   35.13    3.49
   3   3  -6   41.81    3.37
  -3  -3   5   67.49    4.15
   3   3  -5   74.73    5.17
  -3  -3   4   73.08    4.96
   3   3  -4   76.48    5.64
  -3  -3   3   24.30    2.53
   3   3  -3   27.06    2.87
  -3  -3   2  228.63    6.87
   3   3  -2  225.60    9.89
  -3  -3   1  190.29    6.82
  -3  -3   1  187.49    7.54
   3   3  -1  179.65    8.54
  -3  -3   1  173.63    8.02
  -3  -3   0  232.47    6.66
  -3  -3   0  203.06    9.51
  -3  -3   0  212.21    6.33
   3   3   0  212.63   10.56
  -3  -3   0  196.27    8.91
  -3  -3  -1  149.27    5.41
  -3  -3  -1  158.14    4.95
  -3  -3  -1  151.00    9.01
   3   3   1  154.07    7.36
   3   3   1  145.80    8.11
  -3  -3  -2  123.11    4.72
  -3  -3  -2  130.01    4.92
  -3  -3  -2  113.48    5.76
   3   3   2  131.23    5.73
   3   3   3  655.83   14.87
  -3  -3  -3  648.67   17.91
   3   3   3  647.15   15.96
   3   3   4  224.41    7.63
  -3  -3  -4  236.93    7.86
   3   3   4  238.75    7.73
  -3  -3  -5  197.96    7.40
  -3  -3  -5  201.92    8.51
   3   3   6   14.20    1.97
  -3  -3  -6   14.46    2.39
  -3  -3  -6   13.13    2.02
   3   3   7  222.20    6.72
  -3  -3  -7  216.41    6.66
   3   3   8  186.58    5.19
  -3  -3  -8  183.65    5.26
  -3  -3  -8  176.85    4.60
   3   3   9   76.10    3.53
  -3  -3  -9   72.00    3.47
  -3  -3  -9   67.96    3.11
   3   3  10  141.14    4.65
  -3  -3 -10  141.96    4.54
   3   3  11   93.64    4.05
  -3  -3 -11   93.97    4.12
  -3  -4   5   68.55    4.20
   3   4  -5   78.65    6.43
  -3  -4   4   16.03    3.04
   3   4  -4   17.46    2.67
  -3  -4   3   59.16    3.83
   3   4  -3   66.41    5.07
  -3  -4   2  111.46    5.81
   3   4  -2  122.41    7.14
  -3  -4   1  128.34    4.99
   3   4  -1  136.47    7.98
  -3  -4   0  143.80    5.21
  -3  -4   0  144.39    7.64
   3   4   0  135.09    7.16
  -3  -4  -1   76.15    3.82
  -3  -4  -1   74.45    5.25
   3   4   1   69.02    5.53
   3   4   1   74.47    5.08
  -3  -4  -2  472.19   11.47
  -3  -4  -2  470.38   14.16
   3   4   2  440.55   11.88
   3   4   2  472.87   16.09
  -3  -4  -3  120.60    5.79
   3   4   3  129.18    5.89
  -3  -4  -4  461.66   12.20
   3   4   5  106.76    4.33
  -3  -4  -5  102.86    4.95
   3   4   6  282.04    8.27
  -3  -4  -6  279.53    7.33
   3   4   7  286.58    7.93
  -3  -4  -7  287.16    7.47
   3   4   8    9.83    2.14
   3   4   9   54.89    3.14
  -3  -4  -9   54.43    3.07
   3   4  10   76.46    3.63
  -3  -4 -10   76.83    3.83
   3   4  11  107.23    4.24
  -3  -4 -11  108.55    4.08
  -3  -5   4   21.51    2.94
   3   5  -4   22.17    3.19
  -3  -5   3   56.74    4.56
   3   5  -3   64.79    5.55
  -3  -5   2   58.05    3.97
   3   5  -2   63.93    4.25
  -3  -5   1   55.34    3.40
   3   5  -1   49.52    3.62
  -3  -5   0   15.20    2.10
   3   5   0   14.43    2.63
  -3  -5  -1  289.18    8.05
  -3  -5  -1  253.50    7.69
   3   5   1  266.19    9.27
  -3  -5  -2   89.45    4.54
   3   5   2   82.59    5.29
  -3  -5  -3  145.25    5.21
  -3  -5  -3  155.51    6.29
  -3  -5  -4  106.86    3.78
  -3  -5  -4  110.19    4.43
  -3  -5  -5  111.62    4.83
  -3  -5  -5  109.90    4.37
  -3  -5  -6  479.95    8.71
  -3  -5  -6  489.21    9.11
   3   5   7  160.83    4.83
  -3  -5  -7  151.83    5.33
   3   5   8  110.71    3.97
  -3  -5  -8  108.69    4.15
   3   5   9   87.95    3.45
   3   5  10   75.62    3.37
  -3  -5 -10   79.49    4.11
  -3  -6   2   37.03    3.83
  -3  -6   1    3.72    2.33
  -3  -6   0   85.73    5.38
  -3  -6  -2   54.28    3.15
  -3  -6  -2   52.55    3.57
  -3  -6  -3  107.57    5.03
  -3  -6  -3  107.52    4.23
  -3  -6  -4   33.65    2.68
  -3  -6  -4   31.49    2.84
  -3  -6  -5  111.90    3.95
  -3  -6  -5  113.63    4.27
  -3  -6  -6  105.46    4.21
  -3  -6  -6  104.88    3.79
  -3  -6  -7   78.63    3.56
  -3  -6  -7   78.75    3.56
  -3  -6  -8  139.71    4.36
  -3  -6  -8  143.69    4.71
  -3  -6  -9  154.79    5.04
  -3  -7  -1   33.54    3.66
  -3  -7  -2   43.13    3.17
  -3  -7  -3   66.78    3.78
  -3  -7  -3   68.51    3.36
  -3  -7  -4   54.15    3.39
  -3  -7  -4   52.15    3.05
  -3  -7  -5   87.22    3.94
  -3  -7  -5   95.54    4.19
  -3  -7  -6   27.74    2.98
  -3  -7  -6   28.01    2.85
  -3  -7  -7   38.17    3.03
  -3  -7  -7   39.61    3.27
  -3  -7  -8   44.34    3.05
  -3  -7  -8   46.74    3.23
   4  -5  -4   49.86    3.90
   4  -5  -3   19.62    2.80
   4  -5  -2   26.28    3.01
   4  -5  -1   50.84    4.12
   4  -5   1    6.86    2.11
   4  -5   2   25.84    2.96
   4  -5   3   21.14    2.82
   4  -4  -5   41.85    4.49
   4  -4  -4   47.68    4.30
   4  -4  -3   24.16    2.94
   4  -4  -2   72.22    5.47
   4  -4  -1   87.94    4.69
   4  -4   0   23.48    2.95
   4  -4   2   31.11    3.16
   4  -4   2   31.23    3.57
   4  -4   3   26.61    3.03
   4  -4   3   21.70    2.69
   4  -4   4   16.46    2.64
   4  -4   4   15.97    2.41
   4  -4   5   16.59    2.83
   4  -4   5   14.63    2.46
   4  -3  -6   33.01    3.11
   4  -3  -5   69.58    4.94
   4  -3  -4   35.89    3.27
   4  -3  -3   77.16    5.59
   4  -3  -2  148.65    7.82
   4  -3  -1   40.69    3.42
   4  -3   0   88.61    4.79
   4  -3   1   90.17    5.05
   4  -3   1   83.94    5.22
   4  -3   2  161.22    6.09
   4  -3   3   49.56    4.21
   4  -3   3   50.98    4.50
   4  -3   4   24.15    2.78
   4  -3   4   22.43    3.00
   4  -3   5   20.70    2.93
   4  -3   5   14.31    2.29
   4  -3   6   12.01    2.31
  -4   3  -6   11.30    2.52
   4  -3   7   25.75    3.31
  -4   3  -7   26.59    3.47
   4  -2  -6   53.68    4.30
   4  -2  -5   49.85    3.70
   4  -2  -5   56.18    3.97
   4  -2  -4   51.92    4.25
   4  -2  -3  167.48    6.06
   4  -2  -2   53.19    3.27
   4  -2  -1  138.99    5.58
   4  -2   0   46.56    3.03
   4  -2   0   41.67    3.03
   4  -2   1  211.67    8.17
  -4   2  -1  195.72    5.76
   4  -2   1  190.88    6.55
   4  -2   2  139.92    7.08
  -4   2  -2  142.43    5.28
   4  -2   2  133.16    5.26
   4  -2   3  130.70    7.30
   4  -2   4  210.26    8.39
   4  -2   4  192.17    6.42
   4  -2   5   63.64    3.55
  -4   2  -5   60.76    3.58
   4  -2   6   41.55    3.72
  -4   2  -6   42.61    2.92
   4  -2   7   23.84    2.74
  -4   2  -7   21.68    3.02
   4  -2   8   17.34    3.17
  -4   2  -8   18.95    3.03
   4  -1  -7   24.58    2.88
   4  -1  -6   48.05    4.21
   4  -1  -5   46.08    3.41
   4  -1  -4  142.67    6.03
   4  -1  -4  172.96    6.52
   4  -1  -3   27.82    2.80
   4  -1  -3   34.76    3.43
   4  -1  -2  184.67    6.47
  -4   1   1   71.54    5.32
  -4   1   1   63.25    5.06
   4  -1  -1   65.45    3.56
   4  -1   0  144.36    7.26
  -4   1   0  147.30    7.53
   4  -1   0  135.05    6.38
   4  -1   1  189.10    8.42
  -4   1  -1  182.26    7.16
   4  -1   1  190.05    6.85
   4  -1   2   30.69    3.62
  -4   1  -2   31.14    2.48
   4  -1   2   31.05    2.68
   4  -1   3  183.73    7.99
  -4   1  -3  176.76    5.88
   4  -1   3  177.11    5.98
   4  -1   4  132.41    7.63
   4  -1   5  181.51    5.92
  -4   1  -5  181.75    6.38
  -4   1  -6  181.91    5.81
   4  -1   7  127.86    5.31
  -4   1  -7  115.97    4.48
   4  -1   8   14.58    2.58
  -4   1  -8   17.00    2.73
  -4   1  -8   15.65    2.73
   4  -1   9   32.85    3.14
  -4   1  -9   33.18    3.15
  -4   1  -9   32.67    2.98
   4   0  -6   32.83    3.09
   4   0  -5  124.79    5.32
   4   0  -4   46.83    4.10
  -4   0   3  137.73    6.25
   4   0  -3  132.05    7.02
   4   0  -3  144.26    8.06
  -4   0   2  136.61    5.98
  -4   0   2  142.54    6.27
   4   0  -2  134.37    6.49
  -4   0   2  135.68    6.31
   4   0  -2  143.42    8.13
  -4   0   1   66.79    5.12
  -4   0   1   59.92    4.91
   4   0  -1   65.93    3.61
  -4   0   1   57.21    3.76
  -4   0   0  298.81   11.91
  -4   0   0  284.02   11.84
  -4   0   0  311.48    9.53
   4   0   1  194.46    9.84
  -4   0  -1  203.01    9.27
   4   0   1  194.40    6.37
  -4   0  -1  174.03    8.32
   4   0   2  135.67    7.37
  -4   0  -2  138.15    6.91
   4   0   2  151.53    5.19
  -4   0  -2  132.03    7.05
   4   0   3   90.69    6.93
  -4   0  -3   90.21    5.69
  -4   0  -3   95.38    4.25
   4   0   4   26.03    2.56
  -4   0  -4   28.53    2.43
   4   0   5  107.60    4.38
   4   0   6  222.98    6.49
  -4   0  -6  234.93    6.96
   4   0   7   97.72    4.34
  -4   0  -7   98.95    3.90
   4   0   8  109.92    4.27
  -4   0  -8  107.12    4.47
  -4   0  -8  107.83    4.44
   4   0   9   73.62    3.54
  -4   0  -9   74.85    3.98
  -4   0  -9   70.14    3.86
   4   1  -6   68.52    4.30
   4   1  -5   45.63    3.36
   4   1  -4   72.67    5.13
  -4  -1   3  183.78    7.31
   4   1  -3  176.61    6.61
  -4  -1   2   77.05    5.64
  -4  -1   2   81.19    4.03
  -4  -1   2   73.22    4.09
   4   1  -2   74.74    5.87
  -4  -1   1  104.04    6.07
  -4  -1   1  104.33    6.13
  -4  -1   1  102.73    5.05
  -4  -1   1  112.05    7.76
   4   1  -1  123.68    7.72
  -4  -1   0  321.12   11.72
  -4  -1   0  305.06   10.88
  -4  -1   0  329.23    9.57
  -4  -1   0  321.96   10.21
  -4  -1   0  360.12   13.34
  -4  -1  -1  212.77    9.38
  -4  -1  -1  198.37    6.42
  -4  -1  -1  204.82    8.24
  -4  -1  -1  201.79    9.47
   4   1   2  391.91   14.73
  -4  -1  -2  388.06   13.45
  -4  -1  -2  389.58    9.83
  -4  -1  -2  422.39   11.31
  -4  -1  -2  375.89   13.53
   4   1   3  175.78    7.56
  -4  -1  -3  184.38    6.54
  -4  -1  -3  191.99    6.50
  -4  -1  -3  167.43    7.38
   4   1   4  169.78    8.05
  -4  -1  -4  180.62    6.19
   4   1   5  174.26    6.29
  -4  -1  -5  162.84    5.72
   4   1   6   27.38    2.54
   4   1   7   62.12    3.33
  -4  -1  -7   59.28    3.16
  -4  -1  -7   49.13    3.02
   4   1   8   78.20    3.47
  -4  -1  -8   80.61    3.59
  -4  -1  -8   72.79    3.39
  -4  -1  -9  176.90    5.12
  -4  -1  -9  169.02    4.82
  -4  -1 -10   55.85    3.66
  -4  -1 -10   50.66    3.46
   4   2  -5   47.14    4.18
  -4  -2   4   62.79    6.23
   4   2  -4   71.88    5.08
  -4  -2   3   96.30    5.05
   4   2  -3   91.46    6.23
  -4  -2   2   34.23    2.48
   4   2  -2   30.21    3.78
  -4  -2   1  272.63    8.41
  -4  -2   1  257.99    9.52
   4   2  -1  264.86   11.54
  -4  -2   1  265.42   10.60
  -4  -2   0  161.03    6.89
  -4  -2   0  153.78    7.78
  -4  -2   0  147.58    5.77
  -4  -2   0  149.03    8.99
   4   2   0  154.78    7.40
  -4  -2   0  145.59    7.30
  -4  -2  -1  157.67    7.07
  -4  -2  -1  145.08    6.80
  -4  -2  -1  151.56    5.46
  -4  -2  -1  145.54    8.32
  -4  -2  -1  150.00    6.79
  -4  -2  -2  142.64    4.81
  -4  -2  -2  146.53    7.68
  -4  -2  -2  142.53    8.01
  -4  -2  -3  325.28    9.35
  -4  -2  -3  325.59   11.84
   4   2   4  711.95   19.17
  -4  -2  -4  725.18   10.69
   4   2   5  173.44    7.07
  -4  -2  -5  192.93    6.47
   4   2   6  194.82    6.56
  -4  -2  -6  203.24    6.01
  -4  -2  -6  192.28    5.92
   4   2   7   16.05    2.14
  -4  -2  -7   13.79    2.17
  -4  -2  -8  164.61    4.84
  -4  -2  -8  161.35    4.51
  -4  -2  -9   75.10    3.55
  -4  -2  -9   68.78    3.30
   4   2  10   28.32    2.86
  -4  -2 -10   31.10    3.46
   4   3  -5   36.48    4.48
  -4  -3   4   65.04    4.74
   4   3  -4   77.38    5.40
  -4  -3   3   16.32    2.27
   4   3  -3   15.50    2.85
  -4  -3   2   98.84    4.20
   4   3  -2  104.91    6.09
  -4  -3   1  174.52    6.25
   4   3  -1  161.35    6.26
  -4  -3   0  139.88    4.90
  -4  -3   0  138.59    6.02
   4   3   0  139.89    7.55
  -4  -3   0  148.73    7.42
  -4  -3  -1   62.57    3.39
  -4  -3  -1   54.47    3.41
  -4  -3  -1   60.48    4.88
   4   3   1   53.76    4.12
  -4  -3  -1   59.57    4.60
  -4  -3  -2   50.32    3.02
  -4  -3  -2   44.78    2.65
  -4  -3  -2   47.57    4.29
  -4  -3  -2   47.69    4.14
  -4  -3  -3  383.17    9.22
  -4  -3  -3  390.93   12.36
  -4  -3  -3  338.44   12.06
   4   3   4   67.15    3.80
  -4  -3  -4   75.47    4.28
   4   3   5  450.64    9.79
  -4  -3  -5  454.89   10.48
  -4  -3  -5  473.32   10.07
  -4  -3  -5  462.07    9.29
   4   3   6  171.83    5.64
  -4  -3  -6  174.99    5.92
  -4  -3  -6  157.57    6.27
  -4  -3  -7  303.09    6.21
   4   3   9   16.12    2.69
  -4  -3  -9   17.82    3.17
   4   3  10   70.59    3.56
  -4  -3 -10   69.85    3.95
  -4  -4   4   18.94    2.89
   4   4  -4   26.53    3.18
  -4  -4   3   43.42    3.20
   4   4  -3   46.18    3.94
  -4  -4   2   80.16    4.59
   4   4  -2   83.50    5.97
  -4  -4   1  107.86    4.47
   4   4  -1  110.52    5.80
  -4  -4   0   81.13    3.81
   4   4   0   77.15    5.78
  -4  -4  -1   67.16    3.21
  -4  -4  -1   68.27    5.33
  -4  -4  -2  373.36    8.37
  -4  -4  -2  354.64   11.13
  -4  -4  -3   39.03    2.78
  -4  -4  -3   42.53    3.40
  -4  -4  -4   66.64    3.24
  -4  -4  -4   65.48    4.15
   4   4   5   73.19    3.29
  -4  -4  -5   72.43    4.33
  -4  -4  -6   98.03    4.73
  -4  -4  -7  343.85    7.67
   4   4   8  121.56    4.49
  -4  -4  -8  128.33    4.80
   4   4   9   91.75    3.87
   4   4  10   98.84    4.32
  -4  -4 -10   91.79    3.92
  -4  -5   2   61.12    4.33
  -4  -5   1   46.02    3.10
  -4  -5   0   19.06    2.36
  -4  -5  -1  186.19    5.41
  -4  -5  -2  173.72    5.32
  -4  -5  -2  158.65    6.71
  -4  -5  -3  114.80    4.40
  -4  -5  -3  106.43    4.60
  -4  -5  -4  163.06    5.59
  -4  -5  -5   64.16    4.04
  -4  -5  -6   70.34    3.48
  -4  -5  -6   70.13    4.20
   4   5   7   90.53    4.40
  -4  -5  -7   88.51    4.56
   4   5   8   57.53    3.08
  -4  -5  -8   60.11    4.17
   4   5   9  113.48    4.88
  -4  -5  -9  114.36    4.91
   4   5  10   89.36    4.05
  -4  -6   1   12.56    2.70
  -4  -6   0   38.87    2.95
  -4  -6  -1   52.97    3.67
  -4  -6  -2   46.57    3.21
  -4  -6  -3   73.52    3.75
  -4  -6  -4  185.13    6.96
  -4  -6  -5  112.44    4.50
  -4  -6  -5  110.61    4.51
  -4  -6  -6  161.38    5.18
  -4  -6  -6  168.73    6.07
  -4  -6  -7   50.06    3.15
  -4  -6  -7   54.83    3.25
  -4  -6  -8   60.88    3.37
  -4  -6  -8   63.83    4.08
   4   6   9   38.39    3.02
  -4  -6  -9   37.38    3.51
  -4  -7  -4   25.33    2.78
  -4  -7  -5   89.55    4.12
  -4  -7  -5   97.59    4.00
  -4  -7  -6  104.01    4.28
  -4  -7  -6  104.75    4.66
  -4  -7  -7  122.01    4.52
  -4  -7  -7  132.20    4.69
   5  -4  -2   28.89    2.85
   5  -4  -1   30.10    3.58
   5  -4   0    8.91    2.77
   5  -4   1   47.68    4.66
   5  -4   3   75.54    4.40
   5  -3  -4   31.59    3.32
   5  -3  -3   47.86    4.15
   5  -3  -2   76.83    5.24
   5  -3  -1   16.14    2.46
   5  -3   0   53.84    4.03
   5  -3   1    4.33    2.00
   5  -3   2   42.08    4.16
   5  -3   4   47.19    3.16
   5  -3   4   41.98    4.34
   5  -3   5   70.40    5.04
   5  -2  -3   82.75    5.11
   5  -2  -2   27.76    3.56
   5  -2  -1  149.66    7.34
   5  -2   0   65.29    4.32
   5  -2   1   59.30    4.32
   5  -2   2   56.40    3.85
   5  -2   3    9.66    2.56
   5  -2   3   10.03    2.16
   5  -2   4   36.21    3.26
   5  -2   5   33.93    3.68
  -5   2  -5   29.04    3.23
   5  -2   6   42.52    3.83
  -5   2  -6   45.02    3.60
   5  -2   7   48.60    3.65
  -5   2  -7   49.88    4.08
   5  -1  -5   39.32    3.20
   5  -1  -3   25.50    3.34
   5  -1  -2   69.50    4.67
   5  -1  -1   90.76    5.43
   5  -1   0   70.22    4.24
   5  -1   1  242.74    7.93
   5  -1   1  223.05    7.72
   5  -1   2  183.47    8.37
   5  -1   3   86.05    5.62
   5  -1   3   81.01    4.24
   5  -1   4   58.21    5.27
  -5   1  -4   58.35    3.59
   5  -1   5   19.56    2.61
   5  -1   6   52.66    4.40
  -5   1  -6   59.41    3.63
   5  -1   7   53.64    3.47
  -5   1  -7   48.21    3.46
   5  -1   8   20.10    3.04
  -5   1  -8   21.79    3.41
   5   0  -5   53.16    3.77
   5   0  -4   52.77    4.92
   5   0  -3   78.60    3.33
   5   0  -2   83.89    5.35
   5   0  -1   25.47    2.84
  -5   0   0   30.65    3.62
   5   0   0   30.26    2.91
   5   0   1  200.01    8.52
   5   0   1  190.73    6.70
   5   0   2  118.60    6.12
  -5   0  -2  118.65    4.94
  -5   0  -2  128.09    5.40
   5   0   3  229.78   10.05
  -5   0  -3  228.51    6.85
   5   0   4  125.66    5.74
  -5   0  -4  137.68    4.82
   5   0   5  164.69    6.99
  -5   0  -5  160.92    4.98
   5   0   6  100.09    4.47
   5   0   7   27.37    3.12
  -5   0  -7   23.75    2.90
   5   0   8   55.39    3.50
  -5   0  -8   55.40    3.54
   5   0   9   29.22    3.19
  -5   0  -9   30.31    2.98
  -5   0  -9   25.28    3.09
   5   1  -4   70.39    4.91
   5   1  -3   71.98    5.31
   5   1  -2  111.76    4.84
  -5  -1   1   42.49    3.45
  -5  -1   1   39.48    3.86
  -5  -1   0  168.68    6.57
  -5  -1   0  163.43    7.63
  -5  -1  -1   48.28    4.14
  -5  -1  -1   45.94    4.74
  -5  -1  -1   47.23    3.38
   5   1   2   36.24    3.30
  -5  -1  -2   37.28    3.11
   5   1   3   42.49    4.14
  -5  -1  -3   46.05    3.27
  -5  -1  -3   40.92    4.21
   5   1   4  212.69    8.65
  -5  -1  -4  204.17    6.29
   5   1   5  282.68    9.27
  -5  -1  -5  280.67    7.36
   5   1   6   59.83    4.31
  -5  -1  -6   59.74    3.37
   5   1   7  141.85    5.55
   5   1   8   27.37    2.86
  -5  -1  -8   29.35    3.05
  -5  -1  -8   26.99    2.65
   5   1   9  116.07    4.42
  -5  -1  -9  117.18    4.49
   5   2  -4   33.67    3.50
   5   2  -3   47.94    3.35
  -5  -2   2   41.40    3.29
   5   2  -2   42.54    3.70
  -5  -2   1  177.45    6.30
   5   2  -1  164.14    7.93
  -5  -2   0  205.30    5.37
  -5  -2   0  221.41    8.57
  -5  -2  -1  143.71    7.21
  -5  -2  -1  154.43    7.99
  -5  -2  -2   35.56    2.56
  -5  -2  -2   34.90    2.99
   5   2   3   56.16    4.02
  -5  -2  -3   56.15    4.02
   5   2   4  190.26    7.13
  -5  -2  -4  196.18    6.92
   5   2   5   15.80    2.30
  -5  -2  -5   15.78    2.41
   5   2   6  181.91    5.45
  -5  -2  -6  183.00    5.38
   5   2   7   70.96    3.50
  -5  -2  -7   70.91    3.79
   5   2   8  118.91    4.40
   5   2   9   93.84    4.12
  -5  -2  -9   94.95    4.13
   5   3  -3   26.38    2.96
  -5  -3   2   47.31    3.64
   5   3  -2   54.89    3.98
  -5  -3   1   64.74    4.08
   5   3  -1   60.31    5.45
  -5  -3   0  126.03    5.11
  -5  -3  -1  118.32    4.84
  -5  -3  -1  105.32    5.84
  -5  -3  -2  167.18    7.23
  -5  -3  -2  165.88    8.23
  -5  -3  -3  372.73    7.06
  -5  -3  -3  386.14    8.38
   5   3   4   60.92    3.06
  -5  -3  -4   53.68    3.11
   5   3   5   64.74    3.48
  -5  -3  -5   68.69    3.50
   5   3   6   88.36    3.94
  -5  -3  -6   87.11    4.32
   5   3   7   78.48    4.02
  -5  -3  -7   79.09    3.57
   5   3   8  140.54    4.81
  -5  -3  -8  135.81    4.64
   5   3   9   55.11    3.48
  -5  -4   2   31.36    3.14
  -5  -4   1   54.64    3.55
  -5  -4   0   15.15    2.34
  -5  -4  -1   22.75    2.32
  -5  -4  -2  192.66    5.05
  -5  -4  -2  176.05    7.46
  -5  -4  -3  193.15    4.81
  -5  -4  -3  176.55    6.61
  -5  -4  -4  152.62    4.74
  -5  -4  -4  146.36    7.49
  -5  -4  -5  175.49    6.27
   5   4   6  124.30    4.18
  -5  -4  -6  117.29    4.28
   5   4   7   78.09    3.38
  -5  -4  -7   81.80    4.43
   5   4   8  110.10    4.09
  -5  -4  -8  106.38    4.39
  -5  -4  -9   59.04    3.81
  -5  -5   1   43.93    4.16
  -5  -5   0   35.44    2.82
  -5  -5  -1   40.73    3.12
  -5  -5  -2   33.55    2.98
  -5  -5  -3   43.80    3.13
  -5  -5  -4   60.33    3.54
  -5  -5  -4   54.74    3.78
  -5  -5  -5  188.73    5.46
  -5  -5  -5  181.60    5.72
  -5  -5  -6   90.70    3.57
  -5  -5  -6   83.53    4.40
   5   5   7  143.32    4.16
  -5  -5  -7  142.83    4.77
  -5  -5  -8   61.91    3.67
   5   5   9   92.03    4.24
  -5  -5  -9   90.57    4.33
  -5  -6  -2   84.33    3.49
  -5  -6  -3   15.19    2.64
  -5  -6  -4   41.03    3.04
  -5  -6  -5   26.79    2.84
  -5  -6  -5   28.48    2.77
  -5  -6  -6   88.96    4.47
  -5  -6  -7   78.25    4.37
   6  -2  -1   24.35    3.21
   6  -2   0   24.63    2.82
   6  -2   1   26.62    3.06
   6  -2   2   66.31    4.55
   6  -2   3   65.18    4.87
  -6   2  -4   32.40    3.88
   6  -1  -1   43.04    3.98
   6  -1   0   17.91    2.46
   6  -1   1   15.00    2.69
   6  -1   2   67.94    4.79
  -6   1  -3   28.28    3.44
  -6   1  -4   53.37    3.99
   6  -1   5   33.64    3.14
  -6   1  -5   35.99    3.74
   6  -1   6   65.10    4.68
  -6   0   0   67.99    5.00
  -6   0  -1  132.75    7.11
  -6   0  -2   39.99    3.80
  -6   0  -3   35.93    3.52
   6   0   4   30.80    3.69
  -6   0  -4   30.54    3.13
   6   0   5   90.67    5.55
  -6   0  -5   86.88    4.72
   6   0   6   63.39    3.96
  -6   0  -6   63.96    3.78
   6   0   7   11.57    3.00
  -6  -1  -1  126.77    8.28
  -6  -1  -2   95.92    6.77
  -6  -1  -2  110.39    5.65
   6   1   3   49.20    4.37
  -6  -1  -3   45.51    4.06
   6   1   4   98.04    5.65
  -6  -1  -4   95.41    4.46
   6   1   5  127.89    5.97
  -6  -1  -5  129.05    6.06
   6   1   6   21.29    2.67
  -6  -1  -6   19.55    2.67
   6   1   7   89.43    3.97
  -6  -1  -7   81.73    3.84
  -6  -2  -1   73.35    4.53
  -6  -2  -2   51.15    4.21
  -6  -2  -2   52.67    5.19
  -6  -2  -3  109.80    6.83
  -6  -2  -3  119.99    5.68
   6   2   4  185.11    6.90
  -6  -2  -4  174.64    6.88
   6   2   5   47.74    3.84
  -6  -2  -5   46.21    3.05
   6   2   6   62.91    3.48
  -6  -2  -6   65.83    3.55
   6   2   7   89.11    4.21
  -6  -2  -7   92.82    4.58
   6   2   8   66.33    3.55
  -6  -2  -8   67.29    4.03
  -6  -3   0   52.26    3.46
  -6  -3  -1   15.00    2.58
  -6  -3  -2   39.65    3.53
  -6  -3  -3  100.91    4.18
  -6  -3  -3   89.99    4.84
  -6  -3  -4   82.40    3.53
  -6  -3  -4   81.25    4.93
   6   3   5   64.05    3.21
  -6  -3  -5   66.93    3.90
   6   3   6   68.23    3.41
  -6  -3  -6   74.75    4.58
   6   3   7   79.41    3.79
  -6  -3  -7   72.41    3.80
   6   3   8   53.02    3.63
  -6  -3  -8   46.49    3.79
  -6  -4  -1   74.19    3.77
  -6  -4  -2   56.85    2.93
  -6  -4  -3   42.75    3.49
  -6  -4  -4   81.29    3.62
  -6  -4  -4   83.81    4.74
  -6  -4  -5   44.33    3.01
  -6  -4  -5   47.81    3.76
   6   4   6  100.69    3.75
  -6  -4  -6   98.77    4.95
   6   4   7   42.06    3.08
  -6  -4  -7   41.34    3.42
  -6  -5  -3  107.44    4.03
  -6  -5  -4   38.72    3.12
  -6  -5  -5   61.30    3.40
  -6  -5  -5   52.49    4.03
  -6  -5  -6   75.26    3.81
  -6  -5  -6   66.06    3.67
   0   0   0    0.00    0.00
;
_shelx_hkl_checksum              30894
loop_
_space_group_symop_operation_xyz
'x, y, z'
'-x, -y, -z'
loop_
_atom_site_label
_atom_site_type_symbol
_atom_site_fract_x
_atom_site_fract_y
_atom_site_fract_z
_atom_site_U_iso_or_equiv
_atom_site_adp_type
_atom_site_occupancy
_atom_site_site_symmetry_order
_atom_site_calc_flag
_atom_site_refinement_flags_posn
_atom_site_refinement_flags_adp
_atom_site_refinement_flags_occupancy
Cd1 Cd 0.0000 0.5000 0.0000 0.02092(10) Uani 1 2 d S . P
N1 N 0.3065(5) 0.7653(4) -0.1753(3) 0.0347(5) Uani 1 1 d . . .
N2 N 0.4827(4) 0.7632(3) -0.1201(3) 0.0233(4) Uani 1 1 d . . .
N3 N 0.6554(5) 0.7690(4) -0.0647(3) 0.0353(5) Uani 1 1 d . . .
N12 N 0.2727(5) 0.3749(4) -0.3464(3) 0.0330(5) Uani 1 1 d . . .
N11 N 0.0340(5) 0.3632(4) -0.2252(3) 0.0271(5) Uani 1 1 d . . .
N13 N 0.0195(4) 0.1756(4) -0.3911(2) 0.0224(4) Uani 1 1 d . . .
N14 N -0.0844(4) 0.0348(4) -0.4461(3) 0.0245(4) Uani 1 1 d . . .
C12 C 0.2597(5) 0.2603(5) -0.4431(3) 0.0285(5) Uani 1 1 d . . .
H12A H 0.3926 0.2386 -0.5340 0.034 Uiso 1 1 calc R U .
C11 C -0.1132(5) 0.2445(5) -0.2545(3) 0.0272(5) Uani 1 1 d . . .
H11A H -0.2818 0.2121 -0.1922 0.033 Uiso 1 1 calc R U .
loop_
_atom_site_aniso_label
_atom_site_aniso_U_11
_atom_site_aniso_U_22
_atom_site_aniso_U_33
_atom_site_aniso_U_23
_atom_site_aniso_U_13
_atom_site_aniso_U_12
Cd1 0.01982(15) 0.02990(15) 0.02091(13) -0.01519(10) -0.00580(10) -0.00582(10)
N1 0.0329(13) 0.0404(13) 0.0331(12) -0.0053(10) -0.0115(10) -0.0144(11)
N2 0.0231(11) 0.0242(10) 0.0228(10) -0.0081(8) -0.0024(8) -0.0055(8)
N3 0.0300(13) 0.0360(12) 0.0461(14) -0.0156(11) -0.0157(11) -0.0018(10)
N12 0.0316(13) 0.0457(13) 0.0305(11) -0.0230(10) -0.0006(10) -0.0144(11)
N11 0.0318(12) 0.0350(11) 0.0236(10) -0.0181(9) -0.0050(9) -0.0105(10)
N13 0.0261(11) 0.0284(10) 0.0213(9) -0.0155(8) -0.0072(8) -0.0054(9)
N14 0.0273(12) 0.0307(11) 0.0245(9) -0.0169(8) -0.0074(8) -0.0062(9)
C12 0.0281(14) 0.0389(14) 0.0257(12) -0.0178(11) -0.0036(10) -0.0096(11)
C11 0.0273(13) 0.0358(13) 0.0255(12) -0.0189(10) -0.0029(10) -0.0074(11)
loop_
_atom_type_symbol
_atom_type_description
_atom_type_scat_dispersion_real
_atom_type_scat_dispersion_imag
_atom_type_scat_source
C C 0.0033 0.0016 'International Tables Vol C Tables 4.2.6.8 and 6.1.1.4'
H H 0.0000 0.0000 'International Tables Vol C Tables 4.2.6.8 and 6.1.1.4'
Cd Cd -0.8075 1.2024 'International Tables Vol C Tables 4.2.6.8 and 6.1.1.4'
N N 0.0061 0.0033 'International Tables Vol C Tables 4.2.6.8 and 6.1.1.4'
loop_
_geom_angle_atom_site_label_1
_geom_angle_atom_site_label_2
_geom_angle_atom_site_label_3
_geom_angle
_geom_angle_site_symmetry_1
_geom_angle_site_symmetry_3
N3 Cd1 N3 180.0 2_665 1_455
N3 Cd1 N11 87.67(9) 2_665 .
N3 Cd1 N11 92.33(9) 1_455 .
N3 Cd1 N11 92.33(9) 2_665 2_565
N3 Cd1 N11 87.67(9) 1_455 2_565
N11 Cd1 N11 180.0 . 2_565
N3 Cd1 N1 90.81(9) 2_665 2_565
N3 Cd1 N1 89.19(9) 1_455 2_565
N11 Cd1 N1 90.35(8) . 2_565
N11 Cd1 N1 89.65(8) 2_565 2_565
N3 Cd1 N1 89.19(9) 2_665 .
N3 Cd1 N1 90.81(9) 1_455 .
N11 Cd1 N1 89.65(8) . .
N11 Cd1 N1 90.35(8) 2_565 .
N1 Cd1 N1 180.0 2_565 .
N2 N1 Cd1 114.60(18) . .
N3 N2 N1 177.6(3) . .
N2 N3 Cd1 131.41(19) . 1_655
C12 N12 N11 106.8(2) . .
C11 N11 N12 108.4(2) . .
C11 N11 Cd1 133.12(18) . .
N12 N11 Cd1 117.68(15) . .
C11 N13 C12 106.0(2) . .
C11 N13 N14 121.7(2) . .
C12 N13 N14 132.1(2) . .
N14 N14 N13 110.4(3) 2_554 .
N12 C12 N13 109.8(2) . .
N12 C12 H12A 125.1 . .
N13 C12 H12A 125.1 . .
N11 C11 N13 109.0(2) . .
N11 C11 H11A 125.5 . .
N13 C11 H11A 125.5 . .
loop_
_geom_bond_atom_site_label_1
_geom_bond_atom_site_label_2
_geom_bond_distance
_geom_bond_site_symmetry_2
Cd1 N3 2.319(3) 2_665
Cd1 N3 2.319(3) 1_455
Cd1 N11 2.3427(19) .
Cd1 N11 2.3427(19) 2_565
Cd1 N1 2.374(2) 2_565
Cd1 N1 2.374(2) .
N1 N2 1.176(3) .
N2 N3 1.174(3) .
N3 Cd1 2.319(3) 1_655
N12 C12 1.298(3) .
N12 N11 1.401(3) .
N11 C11 1.302(3) .
N13 C11 1.361(3) .
N13 C12 1.377(3) .
N13 N14 1.389(3) .
N14 N14 1.238(4) 2_554
C12 H12A 0.9300 .
C11 H11A 0.9300 .
