#------------------------------------------------------------------------------
#$Date: 2020-02-06 01:18:50 +0200 (Thu, 06 Feb 2020) $
#$Revision: 247899 $
#$URL: file:///home/coder/svn-repositories/cod/cif/4/00/34/4003471.cif $
#------------------------------------------------------------------------------
#
# This file is available in the Crystallography Open Database (COD),
# http://www.crystallography.net/
#
# All data on this site have been placed in the public domain by the
# contributors.
#
data_4003471
loop_
_publ_author_name
'M\,aczka, Mirosl&#x0337;aw'
'Ptak, Maciej'
'G\,agor, Anna'
'Stefa\'nska, Dagmara'
'Zar\,eba, Jan K.'
'Sieradzki, Adam'
_publ_section_title
;
 Methylhydrazinium Lead Bromide: Noncentrosymmetric Three-Dimensional
 Perovskite with Exceptionally Large Framework Distortion and Green
 Photoluminescence
;
_journal_name_full               'Chemistry of Materials'
_journal_paper_doi               10.1021/acs.chemmater.9b05273
_journal_year                    2020
_chemical_formula_sum            'C H7 Br3 N2 Pb'
_chemical_formula_weight         494.01
_space_group_crystal_system      cubic
_space_group_IT_number           221
_space_group_name_Hall           '-P 4 2 3'
_space_group_name_H-M_alt        'P m -3 m'
_audit_creation_method           SHELXL-2018/3
_cell_angle_alpha                90
_cell_angle_beta                 90
_cell_angle_gamma                90
_cell_formula_units_Z            1
_cell_length_a                   6.0354(4)
_cell_length_b                   6.0354(4)
_cell_length_c                   6.0354(4)
_cell_measurement_reflns_used    407
_cell_measurement_temperature    430.01(10)
_cell_measurement_theta_max      22.1610
_cell_measurement_theta_min      3.3470
_cell_volume                     219.85(3)
_computing_cell_refinement       'CrysAlisPro 1.171.38.43 (Rigaku OD, 2015)'
_computing_data_collection       'CrysAlisPro 1.171.38.43 (Rigaku OD, 2015)'
_computing_data_reduction        'CrysAlisPro 1.171.38.43 (Rigaku OD, 2015)'
_computing_structure_refinement  'SHELXL-2018/3 (Sheldrick, 2018)'
_computing_structure_solution    'SHELXT 2018/2 (Sheldrick, 2018)'
_diffrn_ambient_environment      air
_diffrn_ambient_temperature      430.01(10)
_diffrn_detector                 'CCD plate'
_diffrn_detector_area_resol_mean 10.6249
_diffrn_detector_type            Atlas
_diffrn_measured_fraction_theta_full 1.000
_diffrn_measured_fraction_theta_max 1.000
_diffrn_measurement_device       'four-circle diffractometer'
_diffrn_measurement_device_type  'Xcalibur, Atlas'
_diffrn_radiation_monochromator  graphite
_diffrn_radiation_probe          x-ray
_diffrn_radiation_type           'Mo K\a'
_diffrn_radiation_wavelength     0.71073
_diffrn_reflns_av_R_equivalents  0.0602
_diffrn_reflns_av_unetI/netI     0.0212
_diffrn_reflns_Laue_measured_fraction_full 1.000
_diffrn_reflns_Laue_measured_fraction_max 1.000
_diffrn_reflns_limit_h_max       7
_diffrn_reflns_limit_h_min       -7
_diffrn_reflns_limit_k_max       6
_diffrn_reflns_limit_k_min       -7
_diffrn_reflns_limit_l_max       7
_diffrn_reflns_limit_l_min       -5
_diffrn_reflns_number            873
_diffrn_reflns_point_group_measured_fraction_full 1.000
_diffrn_reflns_point_group_measured_fraction_max 1.000
_diffrn_reflns_theta_full        25.638
_diffrn_reflns_theta_max         25.638
_diffrn_reflns_theta_min         3.376
_diffrn_source                   'fine-focus sealed X-ray tube'
_diffrn_source_type              'Enhance (Mo) X-ray Source'
_exptl_absorpt_coefficient_mu    32.730
_exptl_absorpt_correction_T_max  0.340
_exptl_absorpt_correction_T_min  0.022
_exptl_absorpt_correction_type   gaussian
_exptl_absorpt_process_details
;
CrysAlisPro 1.171.38.46 (Rigaku Oxford Diffraction, 2015)
Numerical absorption correction based on gaussian integration over
			a multifaceted crystal model
CrysAlisPro 1.171.38.43 (Rigaku Oxford Diffraction, 2015)
Empirical absorption correction using spherical harmonics,
 implemented in SCALE3 ABSPACK scaling algorithm.
;
_exptl_crystal_colour            yellow
_exptl_crystal_density_diffrn    3.731
_exptl_crystal_description       plate
_exptl_crystal_F_000             214
_exptl_crystal_size_max          0.189
_exptl_crystal_size_mid          0.113
_exptl_crystal_size_min          0.034
_refine_diff_density_max         0.571
_refine_diff_density_min         -0.437
_refine_diff_density_rms         0.123
_refine_ls_extinction_method     'SHELXL-2018/3 (Sheldrick 2018)'
_refine_ls_goodness_of_fit_ref   1.135
_refine_ls_hydrogen_treatment    undef
_refine_ls_matrix_type           full
_refine_ls_number_parameters     6
_refine_ls_number_reflns         68
_refine_ls_number_restraints     0
_refine_ls_restrained_S_all      1.135
_refine_ls_R_factor_all          0.0282
_refine_ls_R_factor_gt           0.0267
_refine_ls_shift/su_max          0.000
_refine_ls_shift/su_mean         0.000
_refine_ls_structure_factor_coef Fsqd
_refine_ls_weighting_details
'w=1/[\s^2^(Fo^2^)+(0.0365P)^2^] where P=(Fo^2^+2Fc^2^)/3'
_refine_ls_weighting_scheme      calc
_refine_ls_wR_factor_gt          0.0618
_refine_ls_wR_factor_ref         0.0637
_reflns_Friedel_coverage         0.000
_reflns_number_gt                67
_reflns_number_total             68
_reflns_threshold_expression     'I > 2\s(I)'
_cod_data_source_file            cm9b05273_si_002.cif
_cod_data_source_block           pm3m
_cod_original_cell_volume        219.85(4)
_cod_database_code               4003471
_shelx_shelxl_version_number     2018/3
_shelx_space_group_comment
;
The symmetry employed for this shelxl refinement is uniquely defined
by the following loop, which should always be used as a source of
symmetry information in preference to the above space-group names.
They are only intended as comments.
;
_oxdiff_exptl_absorpt_empirical_full_min 0.396
_oxdiff_exptl_absorpt_empirical_full_max 1.732
_oxdiff_exptl_absorpt_empirical_details
;
Empirical correction (ABSPACK) includes:
- Absorption correction using spherical harmonics
- Frame scaling
;
_shelx_res_file
;

TITL mhypbbr3_430k_a.res in Pm-3m
    pm3m.res
    created by SHELXL-2018/3 at 10:48:07 on 21-Oct-2019

REM SHELXT solution in Pm-3m
REM R1 0.136, Rweak 0.246, Alpha 0.088, Orientation as input
REM Formula found by SHELXT: Br3 Pb
CELL 0.71073 6.0354 6.0354 6.0354 90 90 90
ZERR 1 0.0004 0.0004 0.0004 0 0 0
LATT 1
SYMM -X,-Y,+Z
SYMM -X,+Y,-Z
SYMM +X,-Y,-Z
SYMM +Z,+X,+Y
SYMM +Z,-X,-Y
SYMM -Z,-X,+Y
SYMM -Z,+X,-Y
SYMM +Y,+Z,+X
SYMM -Y,+Z,-X
SYMM +Y,-Z,-X
SYMM -Y,-Z,+X
SYMM +Y,+X,-Z
SYMM -Y,-X,-Z
SYMM +Y,-X,+Z
SYMM -Y,+X,+Z
SYMM +X,+Z,-Y
SYMM -X,+Z,+Y
SYMM -X,-Z,-Y
SYMM +X,-Z,+Y
SYMM +Z,+Y,-X
SYMM +Z,-Y,+X
SYMM -Z,+Y,+X
SYMM -Z,-Y,-X
SFAC C H N Br Pb
UNIT 1 7 2 3 1

L.S. 6 0 0
PLAN  20
BOND $H
list 4
fmap 2 53
ACTA 56
shel 10 0.82

eadp c1 n2
exyz c1 n2
WGHT    0.036500
EXTI    0.009880
FVAR       0.79483
PB1   5    0.500000    0.500000    0.500000    10.02083    0.06344    0.06344 =
         0.06344    0.00000    0.00000    0.00000
BR1   4    0.500000    0.500000    0.000000    10.06250    0.19702    0.19702 =
         0.05808    0.00000    0.00000    0.00000
C1    1    0.103735    0.896265    0.000000    10.02083    0.15442
N2    3    0.103735    0.896265    0.000000    10.04167    0.15442
HKLF 4




REM  mhypbbr3_430k_a.res in Pm-3m
REM wR2 = 0.0637, GooF = S = 1.135, Restrained GooF = 1.135 for all data
REM R1 = 0.0267 for 67 Fo > 4sig(Fo) and 0.0282 for all 68 data
REM 7 parameters refined using 0 restraints

END

WGHT      0.0382      0.0000

REM Highest difference peak  0.571,  deepest hole -0.437,  1-sigma level  0.123
Q1    1   0.5000  0.5000  0.3528  10.12500  0.05    0.57
Q2    1   0.5000  0.3833  0.0000  10.25000  0.05    0.47
Q3    1   0.3826  0.5000  0.0707  10.50000  0.05    0.34
Q4    1   0.1060  0.7348  0.0000  10.50000  0.05    0.33
Q5    1   0.1786  0.8214  0.1786  10.16667  0.05    0.32
Q6    1   0.2647  0.7353 -0.2647  10.16667  0.05    0.21
Q7    1   0.5000  0.5000 -0.1830  10.12500  0.05    0.20
Q8    1   0.2463  0.5000 -0.2463  10.25000  0.05    0.17
Q9    1   0.3515  0.7610  0.2390  10.50000  0.05    0.17
Q10   1   0.3011  0.8212  0.1788  10.50000  0.05    0.17
Q11   1   0.1728  1.0000  0.0000  10.12500  0.05    0.11
Q12   1   0.4493  0.7668 -0.2332  10.50000  0.05    0.08
Q13   1   0.7556  0.5000  0.0000  10.25000  0.05    0.08
Q14   1   0.3961  1.0000  0.0000  10.12500  0.05    0.08
Q15   1   0.0719  0.5000  0.0000  10.25000  0.05    0.08
;
_shelx_res_checksum              22269
_shelx_hkl_file
;
   0   0  -1 4160.19   51.85
  -1   0   0 4250.77   63.52
   0  -1   0 4017.44  113.28
   1   0   0 4121.76   61.24
   1  -1   1  122.39   20.52
   1   1  -1  162.06   16.96
   1   1  -1  152.19   20.70
   0   1  -1 1633.95   58.13
  -1   0   1 1469.40   50.40
  -1   0   1 1616.98   44.27
   0  -1   1 1653.32   60.67
   1   1   0 1630.93   48.89
  -1  -1   0 1671.32   50.03
   1   0  -1 1546.38   45.09
   1  -1   0 1687.01   46.23
   0  -1  -1 1681.63   37.47
   0   1   1 1591.77   39.42
  -1   1   0 1581.26   47.68
   1   1   1  150.70   18.43
  -1   1  -1  122.87   22.96
  -1  -1   1  145.90   16.23
   0   0  -2 9416.40  109.04
   0  -2   0 9999.00  245.96
   0   2   0 9137.46  247.00
  -2   0   0 9457.96  109.99
   0   0   2 8724.02  100.65
   2   0   0 9626.59  131.51
  -1   2   1 1203.78   53.62
   2  -1   1 1222.58   42.71
   1  -1   2 1211.99   72.65
   1   2  -1 1211.26   67.26
   1  -2   1 1239.78   86.26
   1   1  -2 1185.64   51.71
   1   1  -2 1209.42   63.94
   2   1  -1 1230.13   51.78
  -1  -2  -1 1104.87   71.54
   2   1  -1 1235.19   67.28
  -2  -1  -1 1333.62   45.00
   0   1  -2 3593.14   87.13
   1   0   2 3616.06   57.93
   0  -1   2 3538.80   87.22
   0   1  -2 3596.35   91.03
   1  -2   0 3413.27  116.11
  -1   2   0 3749.70  121.63
   2   1   0 3548.63   75.21
  -2   0   1 3553.04   82.49
  -1  -2   0 4134.70  144.47
   1   0  -2 3533.63   84.44
   0  -2  -1 3667.94  101.74
  -2   0   1 3446.43   97.34
  -2   1   0 3825.81   72.88
   0  -1   2 3403.29   83.08
   0   2  -1 3381.33  134.40
  -1   0  -2 3469.20   49.35
   0   2   1 3681.87  110.16
  -2   0  -1 3578.35   48.42
   0  -2   1 3970.18  154.59
  -2  -1   0 3509.85   72.30
  -1   0   2 3543.91   82.71
   1   2   0 3481.41  122.43
   1   1   2 1217.69   36.07
  -2  -1   1 1168.58   47.22
  -2   1  -1 1227.19   58.43
  -1  -1   2 1136.31   50.63
  -1  -1   2 1157.80   57.56
  -1   1  -2 1202.95   51.78
   1  -2  -1 1278.02   53.18
   2   1   1 1038.19   29.84
   1   2   1 1064.18   77.55
  -1  -2   1 1263.69   67.63
  -1   2  -1 1058.08   90.09
   2   2  -2 2901.82  131.54
   2   2  -2 2877.01  105.34
   2  -2   2 2673.37  118.26
  -2  -2  -2 2606.82   77.38
  -2   2   2 2822.43   76.51
  -1  -2  -2 2443.95   65.37
   2   1  -2 2605.86   88.99
  -1   2   2 2570.73   70.64
   2  -1   2 2507.98   77.95
   2   2  -1 2580.32   93.36
   2  -2   1 2534.99   93.18
   1   2  -2 2441.55  111.18
   1  -2   2 2608.66  142.61
   1   2  -2 2564.16   97.91
   2   1  -2 2546.79  108.24
  -2  -2  -1 2773.07  124.61
  -2   2   1 2672.06   76.72
   0   2  -2 5127.91  146.75
   2   2   0 5218.86  124.53
  -2   2   0 5465.52  132.71
  -2   0   2 5042.01  133.33
   0  -2   2 5512.52  161.34
   0   2   2 5297.87  109.07
  -2  -2   0 5207.98  132.36
  -2   0   2 5094.25  112.86
  -2  -1   2 2279.21   75.76
   2   2   1 2389.40   81.44
  -1  -2   2 2378.47   89.92
  -2   1  -2 2258.23   95.20
  -2   2  -1 2420.83  119.55
  -1   2  -2 2203.18  111.07
  -2  -2   1 2374.56   84.68
   1   2   2 2185.99   93.39
   2   2   2 2505.21   87.08
  -2   2  -2 2486.16  144.80
  -2   2  -2 2604.14   55.51
  -2  -2   2 2600.42   93.72
   3   0   0 1432.74   61.95
   0   0  -3 1417.55   53.51
   0   3   0 1533.38  117.72
  -3   0   0 1402.45   52.26
   0   0   3 1365.18   51.07
  -1   1   3   76.42   15.61
   1  -1   3   68.03   11.11
  -3  -1  -1   88.52   11.52
   1  -1   3   81.63   17.99
   1   3  -1   50.43   19.26
   3   1  -1   67.90   18.12
  -1   3   1   76.44   19.33
   3   1  -1   78.65   15.45
  -1  -3  -1   15.76   15.02
   1  -3   1   79.92   22.47
  -3   1   1   74.59   16.91
   1   1  -3   71.35   15.87
  -1  -3   0  475.67   64.78
   3   1   0  472.70   44.56
  -3   1   0  442.88   34.76
  -1   3   0  468.03   58.22
  -3   0  -1  439.25   23.94
  -3   0   1  433.37   39.83
   3   0   1  425.99   28.48
   3   1   0  446.77   31.78
  -3   0   1  452.11   34.04
  -1   0   3  326.86   30.64
   0   3   1  488.96   56.47
   0  -1   3  433.64   34.49
   1  -3   0  427.58   51.09
   0  -3   1  517.29   69.96
   1   3   0  417.83   55.83
   0  -1   3  446.33   34.18
  -3  -1   0  411.87   28.23
   0   1  -3  420.10   32.27
   0   3  -1  424.65   61.84
   1   0   3  439.69   26.16
   0  -3  -1  391.94   47.49
  -3   1   0  466.45   27.56
   0   1   3  422.00   30.44
  -1   0  -3  429.17   23.87
  -3  -1   1   70.44   12.86
  -3   1  -1   80.18   13.47
   1   1   3   68.31    7.94
   1  -3  -1   83.91   19.18
  -1  -1   3   65.05   11.95
  -1  -1   3   63.99   15.19
  -1   3  -1   56.13   24.05
  -1  -3   1   78.38   23.08
   1   3   1   68.69   22.18
  -1   1  -3   66.43   12.07
   1   1   3   56.62    9.63
   2  -3   2  806.56   79.73
  -2  -3  -2  623.66   55.42
   3   2  -2  708.42   71.41
   3  -2   2  778.73   47.09
   2  -2   3  696.69   74.49
   2   2  -3  794.13   72.98
  -3  -2  -2  564.91   44.20
  -1   3   2  487.11   42.20
  -3   2   1  485.22   35.39
  -1  -3  -2  437.74   41.02
   3   1  -2  503.63   53.53
   3   2  -1  474.69   42.39
   2  -3   1  377.15   52.73
   1   2  -3  518.57   46.12
   1  -3   2  610.82   78.47
  -2   1   3  487.10   42.03
  -3  -2  -1  536.26   46.06
  -3   1   2  444.23   42.06
   2   1  -3  527.95   45.79
   1   2  -3  480.05   51.42
   3   2  -1  459.34   55.42
  -1   2   3  484.11   30.62
  -2  -3  -1  592.77   70.22
   3   1  -2  501.85   44.12
  -3   1   2  485.49   48.35
   1  -2   3  500.71   59.24
   2  -1   3  374.21   42.80
   2   3  -1  474.59   51.03
  -2   0   3  978.20   54.32
   0   3  -2  967.32   81.79
   0  -3  -2 1025.94   59.38
   2   0   3  770.71   33.20
  -3   0   2 1030.16   68.44
   0   2  -3 1086.86   65.59
  -3   2   0 1078.61   56.95
   0  -2   3 1059.43   68.98
   0   2   3 1024.95   44.51
   3   2   0  978.92   52.87
  -3   0   2 1004.44   57.45
  -3  -2   0 1014.80   55.13
   2   3   0  923.94   70.87
  -2  -3   0 1127.89   87.26
  -3   0  -2  763.12   42.92
   2  -3   0  975.75   65.69
  -2   0   3  990.60   68.04
   0  -3   2 1136.58   95.91
   0   2  -3  962.38   64.99
  -2   3   0 1047.67   75.74
   0   3   2  729.39   57.19
  -2  -3   1  503.17   51.64
   3   2   1  428.77   30.70
  -2  -1   3  454.68   45.58
  -3  -2   1  424.17   37.00
  -2   3  -1  464.64   67.68
   2   3   1  403.31   47.03
  -2   1  -3  515.10   31.92
  -1  -2   3  467.12   42.06
   1   2   3  475.46   35.27
  -3  -1   2  450.25   36.56
  -2  -1   3  424.12   36.94
  -1   3  -2  408.11   61.90
  -1  -3   2  537.80   56.50
  -3   1  -2  398.71   49.09
  -1   2  -3  476.15   44.59
   1   3   2  491.49   59.27
  -3  -2   2  713.01   50.30
  -2   2  -3  685.61   58.64
   2   2   3  607.01   49.27
   2   3   2  658.07   64.71
   3   2   2  641.85   29.43
  -2  -2   3  655.05   51.16
  -2  -3   2  732.97   59.09
  -2   3  -2  626.43   87.33
  -3   2  -2  703.38   81.84
   3   3  -3  138.61   35.22
   3  -3   3   99.29   24.59
  -3  -3  -3  119.42   14.97
   3   3  -2  215.87   43.34
  -3  -3  -2  233.07   37.90
   3  -2   3  236.79   29.36
   3   2  -3  293.64   49.63
   3  -3   2  237.42   35.73
   2  -3   3  273.22   53.46
   2   3  -3  237.15   45.46
  -3  -3  -1  139.20   29.50
   3  -3   1  145.27   25.37
   3  -1   3  162.34   14.43
   1   3  -3  129.69   29.99
  -3   1   3  146.07   25.30
   1  -3   3  114.69   29.41
   0   3   3  234.32   30.42
  -3   0   3  221.45   28.59
   3   3   0  204.47   31.22
  -3  -3   0  249.71   38.00
   0   3  -3  217.37   36.62
   0  -3   3  247.73   42.28
  -3  -3   1  117.18   22.59
  -3   1  -3  129.07   16.62
  -3  -1   3  129.66   22.36
  -1   3  -3  134.71   24.74
   3   3   1  131.16   22.72
   1   3   3  121.15   25.18
  -1  -3   3  129.67   29.50
  -3  -2   3  260.60   32.85
  -2  -3   3  232.62   33.55
   3   3   2  239.19   28.82
  -3  -3   2  237.45   33.41
  -2   3  -3  210.10   43.13
  -3   2  -3  206.61   35.30
   2   3   3  208.36   37.23
  -3   3  -2  258.01   58.59
  -2   3  -3  234.99   25.58
   3   3   3  132.84   19.05
  -3  -3   3  104.17   23.05
  -4   0   0 1838.40   68.94
   0   0   4 1806.20   70.11
   0  -4   0 1948.66  139.37
   1  -4   1  924.61   97.26
  -1  -4  -1  949.58   92.45
  -4   1   1  710.20   52.90
  -1   1   4  724.41   52.21
   1  -1   4  661.69   42.80
  -4  -1  -1  717.75   37.88
   1  -1   4  758.44   55.41
   4   1  -1  717.50   65.16
  -4   1   1  720.94   59.84
  -4   0  -1 1143.24   47.06
   1  -4   0 1242.74  101.56
   0  -4  -1 1252.54   98.38
   0  -1   4 1069.20   62.43
   4   1   0 1189.54   77.03
   0  -4   1 1433.26  124.13
   0   1  -4 1225.92   63.79
   0   1   4 1193.25   58.07
  -1   0   4 1087.15   58.21
  -4  -1   0 1125.70   52.70
   1   0   4 1190.48   52.74
   0  -1   4 1199.39   63.14
  -4   1   0 1156.62   50.17
  -4   1   0 1152.17   67.94
  -4   0   1 1144.16   61.21
  -1  -4   0 1445.34  121.27
   4   0   1 1185.97   56.38
   1   1   4  638.95   35.09
  -1   1  -4  663.95   42.42
  -4  -1   1  712.17   45.81
  -1  -1   4  677.66   49.17
  -1  -4   1  794.95   91.45
  -4   1  -1  750.59   45.27
   1  -4  -1  669.77   64.96
   2  -4   2  738.38   87.77
  -2  -4  -2  608.33   66.33
   4   2  -2  733.16   78.73
  -4  -2  -2  686.04   60.79
   2  -2   4  615.62   76.85
  -2   2   4  662.25   59.55
   4   1  -2  754.59   70.32
  -1  -4  -2  659.30   63.72
  -4  -1  -2  659.25   22.59
   2  -1   4  705.51   36.47
  -2   1   4  785.13   59.93
  -4   1   2  714.90   56.33
   2  -4   1  802.39   80.95
   4   2  -1  772.75   76.59
  -4  -2  -1  809.00   53.66
  -4  -1  -2  596.54   34.21
   1  -2   4  856.05   76.64
   2  -1   4  753.79   71.48
   1  -4   2 1012.99  107.91
  -2  -4  -1  988.88   97.95
  -4   0  -2 1003.67   49.75
   4   0   2 1140.28   47.01
   2  -4   0 1054.75   83.24
   0  -4  -2  965.73   72.01
   0  -2   4 1125.21   74.54
   4   2   0 1143.36   65.73
  -2   0   4  999.68   60.54
  -4   0  -2 1016.99   33.04
  -4  -2   0 1141.14   61.27
   2   0   4 1008.64   58.28
  -4   2   0 1097.22   66.78
   0   2   4 1081.83   49.18
  -2  -4   0 1295.63  115.61
   0  -4   2 1269.90  119.96
  -4   0   2 1156.94   68.29
   1   2   4  751.52   44.65
   2   1   4  712.31   29.28
  -4   2  -1  823.82   63.27
   1   2   4  753.41   41.52
  -4   2  -1  731.02   43.04
   2  -4  -1  807.75   63.46
  -4  -1   2  674.24   50.22
   4   2   1  734.53   45.74
   1  -4  -2  740.21   58.39
  -2   1  -4  651.35   35.29
  -1   2  -4  747.32   55.84
  -2  -1   4  696.06   53.37
  -4  -2   1  750.88   51.72
   2   1   4  722.71   28.45
  -1  -2   4  749.45   58.46
  -2  -4   1  770.36   79.99
  -1  -4   2  784.28   84.62
   1   4   2  834.85   90.85
  -4   1  -2  688.69   62.23
   2   2   4  601.37   29.71
  -2   2  -4  612.19   49.09
  -4  -2   2  623.86   50.42
  -2  -2   4  628.07   54.49
  -2  -4   2  620.86   67.46
   2   4   2  617.23   74.73
   2   2   4  524.59   45.62
  -4   2  -2  555.45   72.46
   3  -4   3  129.01   35.59
   3   4  -3  162.39   45.10
   4   3  -3  121.15   35.48
  -3  -4  -3  108.09   20.75
   4  -3   3  153.94   25.37
  -4  -3  -3  115.90   12.62
   3  -3   4  147.25   34.40
   3   3  -4  176.50   45.59
  -3  -4  -2  312.75   51.00
   3  -2   4  255.24   35.19
   4   2  -3  268.57   53.22
  -3   2   4  260.12   39.93
   3  -4   2  283.46   44.89
   2   4  -3  193.65   45.39
   4   3  -2  263.28   53.76
  -4   2   3  253.52   40.88
   2  -4   3  118.31   34.41
  -2  -4  -3  241.95   31.60
   2   3  -4  257.62   50.30
   2  -3   4  305.91   59.62
  -4  -3  -2  358.95   51.75
   1   3  -4  291.98   49.79
   3  -1   4  336.17   23.18
   3  -4   1  282.19   41.88
  -1  -4  -3  255.91   33.27
  -4   1   3  351.59   43.60
  -3   1   4  293.53   40.92
   1   4  -3  242.84   48.79
  -4  -3  -1  364.36   50.38
   1  -3   4  307.65   55.31
  -3  -4  -1  332.90   58.60
   1  -4   3  331.33   66.24
   0   3  -4  411.73   52.90
   4   0   3  382.72   23.75
  -4   0   3  411.74   42.53
   3  -4   0  414.32   45.99
  -3   0   4  412.82   41.44
  -4  -3   0  423.08   46.77
   0  -3   4  419.35   56.54
  -3  -4   0  428.84   61.62
   0  -4   3  449.61   69.89
  -3   1  -4  241.40   19.07
  -3  -4   1  298.44   47.39
   4   3   1  268.11   30.60
  -4  -1   3  282.78   35.24
  -3  -1   4  261.22   35.06
  -4  -3   1  249.49   34.01
  -4   1  -3  298.80   29.54
  -1  -3   4  282.89   41.20
  -1  -4   3  276.79   48.51
   1   3   4  238.40   33.60
   4   3   2  269.03   27.95
  -3  -2   4  259.81   35.72
  -4  -2   3  286.19   37.66
  -3   2  -4  281.30   33.69
   3   4   2  218.86   36.85
  -4  -3   2  227.53   33.57
  -2  -3   4  234.75   36.15
  -3  -4   2  313.50   46.41
  -2  -4   3  277.19   45.48
  -4   2  -3  230.85   45.73
   2   4   3  241.96   46.90
   2   3   4  244.20   41.93
  -3   4  -3  106.75   17.94
  -3  -4   3  156.77   34.42
  -4  -3   3  140.96   28.35
  -3  -3   4  134.60   27.36
   4   4  -4   44.88   30.26
   4  -4   4   44.62   17.11
   4   3  -4  102.40   38.70
   3   4  -4   99.34   38.12
   4   4  -3  105.05   38.51
  -4   3   4   77.66   25.81
   4  -3   4   84.28   19.93
   4  -4   3  100.12   25.60
   3  -4   4  105.28   33.51
   4   4  -2   93.82   29.12
   2  -4   4  209.23   51.98
   2   4  -4  186.03   47.39
  -4  -4  -2  154.86   36.44
  -4   2   4  157.04   33.41
   4  -4   2  162.87   33.76
  -4   1   4  248.75   39.42
   1  -4   4  263.41   59.00
  -4  -4  -1  297.63   56.80
   1   4  -4  228.40   49.66
   0   4  -4  257.15   47.98
  -4   0   4  268.15   37.60
   0  -4   4  272.13   52.95
  -4  -4   0  290.75   48.37
  -1   4  -4  213.53   39.43
  -4  -1   4  217.78   33.35
  -4  -4   1  242.65   41.72
  -1  -4   4  273.65   48.09
  -2  -4   4  176.78   38.22
  -2   4  -4  138.66   27.03
  -4  -2   4  217.70   34.69
  -4  -4   2  182.41   35.68
  -4  -4   3   79.45   22.49
  -3  -4   4   86.94   24.26
  -4  -3   4   97.11   23.22
  -4  -4   4   39.22   15.44
  -5   0   0  164.91   23.01
   0   0   5  164.62   23.55
   1  -1   5   69.74   18.18
   5   1  -1   79.84   24.52
   1  -1   5   60.18   15.08
  -5   1   1   88.33   19.97
  -1   1   5   70.92   17.42
  -5  -1  -1   79.09   14.98
   1  -5   1  118.35   38.92
  -1  -5  -1  122.40   38.19
   1  -5   0  109.82   36.29
  -5   0  -1  103.38   16.28
   0  -5  -1  137.24   37.38
  -1  -5   0  140.44   44.53
   5   1   0  125.72   27.41
  -5   1   0   81.03   17.80
  -5   0   1   95.13   19.14
   0   1   5  101.54   18.48
   0  -5   1  149.44   46.51
   1   0   5  115.55   19.51
  -1   0   5  109.48   20.34
  -5   0  -1   99.62   15.88
  -5  -1   0   89.52   16.94
   0  -1   5  123.31   23.16
  -1   1  -5   67.14   15.33
  -5   1  -1   70.73   15.47
   5   1   1   68.89   18.96
  -5  -1   1   73.26   16.41
   1   1   5   81.74   14.31
   1  -5  -1   89.50   26.20
  -1  -1   5   85.29   20.25
  -1  -5   1   61.37   27.98
  -5   1  -1   87.61   16.43
  -2  -5  -2  130.69   34.65
  -2   2   5  132.92   28.46
  -5   2   2  109.52   26.51
  -5  -2  -2  112.74   23.10
   5   2  -2  138.40   38.47
   2  -2   5   98.90   30.36
   2  -5   2  160.31   42.96
  -5  -2  -1  102.61   19.59
   2  -1   5  115.20   18.12
  -5  -1  -2  124.98   13.51
   5   2  -1  117.07   31.96
   2  -5   1  165.82   41.17
   1  -5   2  141.42   41.33
  -2  -5  -1   32.75    9.40
  -1   2   5   87.10   22.72
  -5   1   2  108.80   24.30
  -1  -5  -2   95.10   29.51
   2  -1   5   81.42   26.27
  -2   1   5  112.68   23.29
  -5  -1  -2  105.81   14.84
   1  -2   5  118.25   31.29
  -5   0  -2  151.65   21.75
   0  -2   5  156.90   30.09
  -5   2   0  133.76   26.54
   0  -5  -2  103.54   27.82
   0   2   5  149.19   26.36
  -5   0  -2  131.73   14.86
  -5   0   2  135.69   24.56
   5   2   0  144.83   34.24
  -5  -2   0  130.45   22.69
  -2   0   5  131.11   24.17
   2  -5   0  106.44   29.83
   2   0   5  145.16   24.84
   0  -5   2  176.22   47.25
  -2  -5   0  149.53   42.52
   1   2   5   98.00   16.09
  -2   1  -5  118.30   17.30
   2  -5  -1  116.58   29.38
  -5   1  -2  111.75   16.84
  -5   1  -2   92.89   22.38
   1   2   5  107.50   19.00
   5   1   2  113.44   22.86
   1  -5  -2  116.27   27.30
   2   1   5   99.08   13.73
  -5  -1   2   98.61   20.58
  -2  -5   1  106.01   32.43
  -1  -5   2  112.93   35.99
  -2  -1   5  108.54   22.94
  -5  -2   1   92.49   20.22
  -1  -2   5  123.64   24.67
   2   2   5   99.72   13.79
  -2  -5   2   93.61   31.68
  -5  -2   2  104.34   22.93
  -2  -2   5  106.83   24.41
  -3  -5  -3   19.35   10.18
   5   3  -3   85.61   36.64
   3  -5   3   74.50   27.17
   3   5  -3   18.87   14.68
  -3   3   5   56.43   21.92
   3  -3   5   59.85   24.15
   5   3  -2   47.80   21.84
  -2   3   5   89.00   25.73
   2   5  -3   26.80    8.64
  -5   2   3   61.23   21.16
  -3   2   5   77.77   24.72
   2  -5   3   96.80   37.55
   3  -5   2   66.58   25.62
   3  -2   5   79.21   23.26
  -2  -5  -3   45.77   16.26
  -3  -5  -2   95.40   33.06
  -5  -3  -2   68.90   23.47
   2  -3   5   63.52   28.91
   1  -5   3   67.69   34.28
  -3  -5  -1   91.72   32.86
   3  -5   1   66.38   22.16
   5   3  -1   57.20   25.87
  -1   3   5   55.34   18.83
  -1  -5  -3   58.69   17.90
  -5  -3  -1   69.50   20.51
  -5   1   3   69.97   20.38
   1  -3   5   75.73   26.95
  -3   1   5   78.07   21.29
  -5  -3   0   54.47   14.30
  -5   3   0   57.04   19.65
   0  -3   5   94.58   29.80
   0   3   5   80.23   21.06
  -5   0   3   44.32   15.31
  -3   0   5   68.10   19.65
  -3  -5   0   28.50   14.65
   0  -5   3  106.54   38.85
   3  -5   0   80.40   25.25
  -5  -3   1   65.67   18.08
  -1  -3   5   49.06   16.16
   1   3   5   69.81   16.84
  -5   1  -3   64.17   10.80
  -3  -5   1   54.73   22.82
  -1  -5   3   71.10   24.64
  -5  -1   3   63.43   16.93
  -3  -1   5   62.49   19.07
  -2  -3   5   56.52   17.50
  -3  -5   2   66.85   24.57
  -2  -5   3   45.80   19.13
  -5  -2   3   83.14   21.79
  -3  -2   5   89.93   22.22
  -5  -3   2   63.49   18.41
  -3  -5   3   43.88   20.12
  -5  -3   3   52.60   18.65
  -3  -3   5   52.86   18.31
   5   4  -4   31.96   29.75
   4   5  -4   53.28   32.12
  -4   4   5   -2.86    4.97
   4  -5   4    6.76    6.36
   3   4  -5   48.76   28.23
   5   4  -3   79.94   39.39
   3   5  -4   -8.88   13.55
   4   5  -3   12.55   16.65
  -5   3   4   41.02   20.99
  -4   3   5   38.47   18.03
   4  -5   3   27.85   14.59
   3  -4   5   46.06   24.49
   3  -5   4   38.21   23.20
   2  -4   5   64.08   32.55
   4  -5   2   37.04   17.00
   2   4  -5   94.98   41.49
   5   4  -2   50.22   27.96
  -4   2   5   34.67   17.90
   4   5  -2   14.50   20.97
   2  -5   4   -1.53   11.07
  -5   2   4   39.20   15.88
  -4  -5  -2   91.25   31.64
   2   5  -4   37.71   23.89
   1   4  -5   77.36   30.30
   1   5  -4   42.86   23.16
   5   4  -1   77.60   30.74
  -5   1   4   74.28   23.03
  -4   1   5   62.01   22.59
  -5  -4  -1   51.98   19.72
   1  -4   5   38.66   17.69
   4  -5   1   41.43   18.65
   1  -5   4   40.08   21.90
  -4  -5  -1   50.98   26.61
   0   5  -4   38.03   20.29
  -5  -4   0   58.58   22.17
   0  -4   5   62.29   24.35
  -5   0   4   66.35   21.66
  -4   0   5   90.54   23.74
  -4  -5   0   63.89   24.75
   0  -5   4   41.77   21.12
  -5  -4   1   70.04   24.19
  -1   5  -4   57.23   22.53
  -1  -4   5   85.58   30.68
  -4  -5   1   49.17   18.48
  -1  -5   4   84.58   32.09
  -5  -1   4   72.63   21.17
  -4  -1   5   71.43   21.78
  -5  -4   2   38.66   14.97
  -2  -4   5   71.23   26.15
  -4  -5   2   44.20   20.18
  -2  -5   4   46.70   21.69
  -5  -2   4   56.25   19.90
  -4  -2   5   45.76   18.60
  -5  -4   3   25.22   12.30
  -3  -4   5   12.57    8.34
  -3  -5   4   38.82   19.00
  -4  -5   3   45.62   18.57
  -5  -3   4   45.07   17.04
  -4  -3   5   30.76   15.54
  -5  -4   4   -4.60    8.93
  -4  -5   4   12.20   10.22
   3   5  -5    3.15   18.31
   3  -5   5   27.77   21.09
   2   5  -5   54.00   27.26
   2  -5   5   71.44   33.87
   5   5  -2  -10.32   23.20
  -5   2   5   24.53   13.39
   1   5  -5   24.69   19.19
  -5   1   5   20.29   12.47
  -5  -5  -1   54.33   26.08
   1  -5   5   20.34   12.47
   0   5  -5   19.12   19.08
  -5  -5   0   10.16    1.40
  -5   0   5   35.15   14.69
  -5  -5   1   13.80    2.07
  -1  -5   5   26.67   17.79
  -5  -1   5   31.57   15.53
  -5  -5   2   12.98   15.05
  -2  -5   5   18.60   13.75
  -5  -2   5   18.42   10.92
  -5  -5   3   14.62   10.74
  -6   0   0  220.76   28.79
   0   0   6  276.93   36.76
   1  -1   6  179.04   34.25
  -6   1   1  157.34   30.29
  -6  -1  -1  183.16   25.27
  -1   1   6  170.54   28.25
  -1  -6  -1  238.92   54.36
  -1  -6   0  301.69   63.92
   6   1   0  225.40   39.57
   1  -6   0  278.58   57.83
   0  -6  -1  281.61   55.71
  -6   1   0  210.29   32.17
  -6   0   1  192.65   29.20
   0  -6   1  349.64   68.04
  -6   0  -1  212.98   25.86
   0   1   6  201.14   30.34
  -1   0   6  193.73   32.71
  -6  -1   0  221.26   29.06
   1   0   6  214.82   31.01
   0  -1   6  204.71   34.31
  -1  -6   1  219.95   54.03
   6   1   1  189.90   34.16
  -6   1  -1  191.10   28.38
  -6  -1   1  168.31   27.21
   1   1   6  207.45   27.69
  -1  -1   6  199.53   33.70
   1  -6  -1  177.82   43.42
   6   2  -2  111.65   38.91
  -2  -6  -2  116.66   37.30
  -6   2   2  101.85   28.20
  -2   2   6  116.23   28.26
   2  -6   2  171.73   47.90
   6   2  -1  156.19   41.52
   1  -2   6  158.98   38.74
  -6   2   1  140.80   30.54
   2  -6   1  182.45   46.03
  -6   1   2  149.21   31.48
  -1   2   6  143.49   29.33
   1  -6   2  279.32   64.26
  -2   1   6  141.05   28.66
  -2  -6  -1  232.56   57.45
  -1  -6  -2  146.92   39.17
  -6  -2  -1  154.71   26.29
   0  -2   6  147.36   31.54
   0  -6   2  217.46   55.55
  -2  -6   0  207.36   51.55
   6   2   0  161.65   38.11
  -6   2   0  128.03   27.63
   0  -6  -2  158.65   39.46
   0   2   6  169.74   29.08
  -6   0   2  153.23   29.13
  -2   0   6  177.80   32.20
  -6  -2   0  170.28   28.71
   2  -6   0  169.91   41.83
  -1  -2   6  122.31   27.80
   1  -6  -2   94.84   33.14
   6   1   2  139.02   27.25
   2  -6  -1  121.34   32.19
   6   2   1  106.71   29.13
  -6   1  -2  138.72   20.57
  -6  -1   2  154.45   28.21
  -2  -1   6  156.54   31.85
  -6  -2   1  131.75   25.91
  -2  -6   1  135.01   41.22
  -1  -6   2  185.82   51.93
   6   2   2   97.11   29.26
  -2  -6   2  103.86   34.09
  -6  -2   2   98.02   24.15
  -2  -2   6  101.64   24.94
   6   3  -3   78.60   37.75
   3   6  -3    0.35   17.05
  -6   3   3   64.07   26.17
   3  -6   3   50.17   26.19
  -3   3   6   53.90   24.14
   6   3  -2   88.58   34.77
  -6   3   2   47.98   20.56
  -2   3   6   46.13   19.04
  -6   2   3   66.62   23.60
  -3   2   6   65.13   24.38
   3  -6   2   67.54   29.77
   2  -6   3  127.04   41.39
  -2  -6  -3   38.22   15.40
  -3  -6  -2   88.45   30.27
   6   3  -1   62.71   26.01
   1  -6   3  105.50   31.74
   3  -6   1   79.67   30.16
  -1   3   6   62.56   20.82
  -3  -6  -1  120.95   38.50
   1  -3   6   81.80   31.80
  -6   1   3   81.62   24.37
  -3   1   6   68.00   20.94
  -1  -6  -3   36.40   19.86
  -6  -3   0   74.37   21.15
   0  -3   6  106.50   31.96
   6   3   0   92.74   34.89
   0   3   6   95.42   24.52
   3  -6   0   73.03   25.41
  -6   0   3   79.56   21.87
  -3   0   6  100.59   26.87
   0  -6   3  107.19   38.56
  -3  -6   0  100.68   36.71
  -6  -3   1   57.20   17.47
  -1  -3   6   76.57   25.05
   6   3   1   49.01   24.40
  -6  -1   3   95.24   24.05
  -3  -6   1   95.63   36.86
  -3  -1   6   67.39   22.02
  -1  -6   3   88.81   35.73
  -2  -3   6   36.60   15.81
  -3  -6   2   51.42   21.10
  -2  -6   3   16.01    6.43
  -6  -2   3   75.48   22.69
  -3  -2   6   69.98   22.45
  -6  -3   2   60.82   20.36
  -3  -3   6   39.45   18.13
  -3  -6   3   50.59   25.42
  -6  -3   3   57.70   20.25
   3  -6   4    5.13   10.74
  -3   4   6    7.65    7.74
   4  -6   3    8.22   10.49
   4  -6   2   35.26   18.07
   6   4  -2   20.30   14.96
   2   6  -4    5.59   14.80
  -2   4   6   18.03   11.63
  -6   2   4   53.87   24.77
  -4   2   6   17.94   14.23
   2  -6   4   64.67   32.72
   1  -6   4   73.27   33.29
  -4  -6  -1   57.16   27.79
   6   4  -1   17.26   12.38
   1   6  -4   25.37   21.27
  -1   4   6   39.35   19.54
  -6   1   4   46.33   18.62
  -4   1   6   25.52   13.65
   1  -4   6   -3.41   15.02
   4  -6   1   34.51   17.29
   0   6  -4    3.69   10.37
   6   4   0   21.99   17.36
   0   4   6   50.09   18.38
  -6  -4   0   55.48   21.77
   0  -4   6   17.04   10.98
  -6   0   4   48.52   20.28
  -4   0   6   55.83   18.45
  -4  -6   0   33.40   21.28
   0  -6   4   73.85   32.41
  -6  -4   1   53.60   21.21
  -1  -4   6   42.99   20.99
  -4  -6   1   18.14    8.36
  -6  -1   4   57.89   19.83
  -1  -6   4   39.01   22.18
  -4  -1   6   68.71   21.99
  -6  -4   2   14.74    5.12
  -4  -6   2    4.99    5.67
  -6  -2   4   27.63   15.19
  -4  -2   6   25.96   14.21
  -6  -4   3   10.59    9.19
   2   6  -5    0.07   16.44
   2  -6   5   19.52   21.63
   1  -6   5    2.90    4.17
   1   6  -5    5.13    6.75
   1  -5   6   25.72   24.66
   6   5   0  -19.98   20.01
   0  -5   6   10.23   12.58
  -5  -6   0  -14.69   17.93
  -6  -5   1   -2.19    6.22
  -5  -6   1   12.77    7.97
  -6  -5   2    8.90    9.46
   0  -7   0   11.02   16.22
  -7   0   0    8.58    5.17
   0   0   7   21.06   11.46
   1  -7   1   12.54   13.40
  -1  -7  -1   35.58   24.99
  -7   1   1    5.85    5.14
  -1   1   7   20.76    8.95
   0  -1   7    6.30    4.01
   1  -7   0   24.18   21.17
  -7   1   0    9.35    7.41
   0  -7  -1   25.15   18.38
  -7   0   1   16.14   10.79
   0  -7   1   33.13   28.12
  -1  -7   0   57.75   31.58
  -7  -1   0   17.64   10.64
  -1   0   7   26.00   12.72
   1  -7  -1    3.92    6.32
  -7  -1   1   16.75   10.32
  -1  -1   7    7.82    4.94
   2  -7   2   46.71   26.01
  -7   2   2   17.89   10.63
  -2  -7  -2   31.20   19.11
  -2   2   7   -4.43    6.53
  -7   2   1   17.37    9.98
  -7   1   2   24.91   12.72
  -1   2   7   10.97    3.78
   2  -7   1   31.58   18.14
  -2   1   7   17.32   12.21
   1  -7   2   73.07   33.93
  -1  -7  -2   30.28   18.30
  -2  -7  -1   55.95   31.21
   2  -7   0   23.52   18.02
   0  -2   7   51.90   23.17
   7   2   0   16.34   15.41
  -7   2   0   19.47    9.68
   0  -7   2   48.22   31.22
  -2  -7   0   43.60   29.28
  -7   0   2    5.66    4.18
  -2   0   7   32.57   14.58
   0  -7  -2   14.97   16.46
  -1  -2   7    5.76    4.09
  -1  -7   2   21.04   13.55
  -2  -7   1   19.14   14.71
   7   2   1   13.14   13.00
   1  -7  -2   11.57    6.69
   2  -7  -1   17.76   12.86
  -7  -1   2    4.87    2.63
  -2  -1   7   24.17   13.05
  -7  -2   1   22.30   12.19
  -7  -2   2   20.43    8.32
  -2  -7   2   13.27   15.18
  -2  -2   7   13.82   10.50
   7   3  -2   41.07   27.38
  -3  -7  -2   50.17   27.06
  -2   3   7    8.57    6.82
  -3   2   7   12.90    8.02
  -2  -7  -3   16.68   12.03
   7   3  -1   20.46   25.35
  -7   3   1  -11.59   14.58
  -1   3   7   14.99   10.63
  -7   1   3   33.24   16.60
  -3   1   7    5.89    5.20
  -3  -7  -1   20.45   22.22
  -1  -7  -3   -4.20    9.07
   7   3   0   11.29   11.43
  -3  -7   0   18.78   20.50
  -7   3   0   -1.19    9.75
   0  -3   7    0.76    7.86
  -7   0   3    1.00    5.61
  -3   0   7    8.52    6.61
  -7  -3   1   -2.91    8.33
  -1  -3   7   23.78   16.47
   7   3   1    4.41    5.74
  -7  -1   3   19.58   10.31
  -3  -1   7   36.34   18.03
  -3  -7   1    5.84   16.84
  -2  -3   7    3.23    7.17
  -7  -2   3   22.98   14.38
  -7  -3   2   15.15   10.41
  -2   4   7   -0.08    2.99
   1   7  -4    0.14   10.52
  -4  -7  -1  -10.66   13.65
  -4  -7   0   17.06   14.55
   7   4   0  -15.53   16.08
   0  -4   7  -25.89   19.39
   7   4   1  -33.82   23.36
  -8   1   1   15.10   11.02
  -8   2   1   24.99   16.41
  -8   0   2   23.01   15.79
  -2   0   8   32.20   17.81
  -8  -1   2   13.55   11.91
   0   0   0    0.00    0.00







TITL MHyPbBr3_430K in P-43m
REM P-43m (#215 in standard setting)
CELL 0.71073   6.035438   6.035438   6.035438  90.0000  90.0000  90.0000
ZERR    1.00   0.000380   0.000380   0.000380   0.0000   0.0000   0.0000
LATT -1
SYMM -x,-y, z
SYMM -x, y,-z
SYMM  x,-y,-z
SYMM  z, x, y
SYMM  z,-x,-y
SYMM -z,-x, y
SYMM -z, x,-y
SYMM  y, z, x
SYMM -y, z,-x
SYMM  y,-z,-x
SYMM -y,-z, x
SYMM  y, x, z
SYMM -y,-x, z
SYMM  y,-x,-z
SYMM -y, x,-z
SYMM  x, z, y
SYMM -x, z,-y
SYMM -x,-z, y
SYMM  x,-z,-y
SYMM  z, y, x
SYMM  z,-y,-x
SYMM -z, y,-x
SYMM -z,-y, x
SFAC C H N Br Pb
UNIT 2.00 14.00 4.00 3.00 1.00
TREF
HKLF 4
END
_computing_structure_solution     'SHELXT 2014/5 (Sheldrick, 2014)'
_computing_structure_solution     'SHELXT 2018/2 (Sheldrick, 2018)'
_computing_structure_solution     'SHELXT 2018/2 (Sheldrick, 2018)'
_computing_structure_solution     'SHELXT 2018/2 (Sheldrick, 2018)'
_computing_structure_solution     'SHELXT 2018/2 (Sheldrick, 2018)'
_computing_structure_solution     'SHELXT 2018/2 (Sheldrick, 2018)'
;
_shelx_hkl_checksum              17956
loop_
_space_group_symop_operation_xyz
'x, y, z'
'-x, -y, z'
'-x, y, -z'
'x, -y, -z'
'z, x, y'
'z, -x, -y'
'-z, -x, y'
'-z, x, -y'
'y, z, x'
'-y, z, -x'
'y, -z, -x'
'-y, -z, x'
'y, x, -z'
'-y, -x, -z'
'y, -x, z'
'-y, x, z'
'x, z, -y'
'-x, z, y'
'-x, -z, -y'
'x, -z, y'
'z, y, -x'
'z, -y, x'
'-z, y, x'
'-z, -y, -x'
'-x, -y, -z'
'x, y, -z'
'x, -y, z'
'-x, y, z'
'-z, -x, -y'
'-z, x, y'
'z, x, -y'
'z, -x, y'
'-y, -z, -x'
'y, -z, x'
'-y, z, x'
'y, z, -x'
'-y, -x, z'
'y, x, z'
'-y, x, -z'
'y, -x, -z'
'-x, -z, y'
'x, -z, -y'
'x, z, y'
'-x, z, -y'
'-z, -y, x'
'-z, y, -x'
'z, -y, -x'
'z, y, x'
loop_
_atom_site_label
_atom_site_type_symbol
_atom_site_fract_x
_atom_site_fract_y
_atom_site_fract_z
_atom_site_U_iso_or_equiv
_atom_site_adp_type
_atom_site_occupancy
_atom_site_site_symmetry_order
_atom_site_calc_flag
_atom_site_refinement_flags_posn
_atom_site_refinement_flags_adp
_atom_site_refinement_flags_occupancy
Pb1 Pb 0.500000 0.500000 0.500000 0.0634(8) Uani 1 48 d S T P
Br1 Br 0.500000 0.500000 0.000000 0.1507(16) Uani 1 16 d S T P
C1 C 0.104(5) 0.896(5) 0.000000 0.15(4) Uiso 0.0833 4 d S . P
N2 N 0.104(5) 0.896(5) 0.000000 0.15(4) Uiso 0.1667 4 d S . P
loop_
_atom_site_aniso_label
_atom_site_aniso_U_11
_atom_site_aniso_U_22
_atom_site_aniso_U_33
_atom_site_aniso_U_23
_atom_site_aniso_U_13
_atom_site_aniso_U_12
Pb1 0.0634(8) 0.0634(8) 0.0634(8) 0.000 0.000 0.000
Br1 0.197(3) 0.197(3) 0.0581(17) 0.000 0.000 0.000
loop_
_atom_type_symbol
_atom_type_description
_atom_type_scat_dispersion_real
_atom_type_scat_dispersion_imag
_atom_type_scat_source
C C 0.0033 0.0016 'International Tables Vol C Tables 4.2.6.8 and 6.1.1.4'
H H 0.0000 0.0000 'International Tables Vol C Tables 4.2.6.8 and 6.1.1.4'
N N 0.0061 0.0033 'International Tables Vol C Tables 4.2.6.8 and 6.1.1.4'
Br Br -0.2901 2.4595 'International Tables Vol C Tables 4.2.6.8 and 6.1.1.4'
Pb Pb -3.3944 10.1111 'International Tables Vol C Tables 4.2.6.8 and 6.1.1.4'
loop_
_geom_angle_atom_site_label_1
_geom_angle_atom_site_label_2
_geom_angle_atom_site_label_3
_geom_angle
_geom_angle_site_symmetry_1
_geom_angle_site_symmetry_3
Br1 Pb1 Br1 90.0 9_565 .
Br1 Pb1 Br1 90.0 9_565 1_556
Br1 Pb1 Br1 180.0 . 1_556
Br1 Pb1 Br1 90.0 9_565 5
Br1 Pb1 Br1 90.0 . 5
Br1 Pb1 Br1 90.0 1_556 5
Br1 Pb1 Br1 90.0 9_565 5_655
Br1 Pb1 Br1 90.0 . 5_655
Br1 Pb1 Br1 90.0 1_556 5_655
Br1 Pb1 Br1 180.0 5 5_655
Br1 Pb1 Br1 180.0 9_565 9
Br1 Pb1 Br1 90.0 . 9
Br1 Pb1 Br1 90.0 1_556 9
Br1 Pb1 Br1 90.0 5 9
Br1 Pb1 Br1 90.0 5_655 9
Pb1 Br1 Pb1 180.0 1_554 .
C1 C1 C1 120.00(2) 35_665 7_564
C1 C1 C1 89.999(3) 35_665 33_665
C1 C1 C1 59.999(3) 7_564 33_665
C1 C1 C1 59.999(5) 35_665 29_566
C1 C1 C1 89.999(11) 7_564 29_566
C1 C1 C1 120.00(2) 33_665 29_566
C1 C1 C1 44.999(1) 35_665 27_575
C1 C1 C1 89.999(5) 7_564 27_575
C1 C1 C1 44.999(1) 33_665 27_575
C1 C1 C1 89.999(5) 29_566 27_575
C1 C1 C1 89.999(12) 35_665 3
C1 C1 C1 44.999(18) 7_564 3
C1 C1 C1 89.999(1) 33_665 3
C1 C1 C1 45.000(14) 29_566 3
C1 C1 C1 89.999(8) 27_575 3
C1 C1 C1 89.999(9) 35_665 11_465
C1 C1 C1 30.0 7_564 11_465
C1 C1 C1 54.735(3) 33_665 11_465
C1 C1 C1 73.220(1) 29_566 11_465
C1 C1 C1 65.904(9) 27_575 11_465
C1 C1 C1 35.264(1) 3 11_465
C1 C1 C1 29.999(12) 35_665 31_566
C1 C1 C1 89.999(12) 7_564 31_566
C1 C1 C1 73.220(1) 33_665 31_566
C1 C1 C1 54.735(1) 29_566 31_566
C1 C1 C1 35.264(7) 27_575 31_566
C1 C1 C1 65.904(8) 3 31_566
C1 C1 C1 59.999(5) 11_465 31_566
C1 C1 C1 54.735(14) 35_665 9_465
C1 C1 C1 73.220(1) 7_564 9_465
C1 C1 C1 89.999(9) 33_665 9_465
C1 C1 C1 29.999(1) 29_566 9_465
C1 C1 C1 65.904(16) 27_575 9_465
C1 C1 C1 35.264(1) 3 9_465
C1 C1 C1 48.189(3) 11_465 9_465
C1 C1 C1 33.557(3) 31_566 9_465
C1 C1 C1 73.2 35_665 5_564
C1 C1 C1 54.735(1) 7_564 5_564
C1 C1 C1 29.999(11) 33_665 5_564
C1 C1 C1 89.999(14) 29_566 5_564
C1 C1 C1 35.264(4) 27_575 5_564
C1 C1 C1 65.904(5) 3 5_564
C1 C1 C1 33.557(1) 11_465 5_564
C1 C1 C1 48.189(3) 31_566 5_564
C1 C1 C1 59.999(5) 9_465 5_564
C1 C1 C1 59.999(11) 35_665 25_575
C1 C1 C1 59.999(3) 7_564 25_575
C1 C1 C1 59.999(9) 33_665 25_575
C1 C1 C1 59.999(4) 29_566 25_575
C1 C1 C1 44.999(8) 27_575 25_575
C1 C1 C1 45.000(1) 3 25_575
C1 C1 C1 30.0 11_465 25_575
C1 C1 C1 30.000(1) 31_566 25_575
C1 C1 C1 30.0 9_465 25_575
C1 C1 C1 30.000(5) 5_564 25_575
loop_
_geom_bond_atom_site_label_1
_geom_bond_atom_site_label_2
_geom_bond_distance
_geom_bond_site_symmetry_2
Pb1 Br1 3.0177(2) 9_565
Pb1 Br1 3.0177(2) .
Pb1 Br1 3.0177(2) 1_556
Pb1 Br1 3.0177(2) 5
Pb1 Br1 3.0177(2) 5_655
Pb1 Br1 3.0177(2) 9
C1 C1 0.89(5) 35_665
C1 C1 0.89(5) 7_564
C1 C1 0.89(5) 33_665
C1 C1 0.89(5) 29_566
C1 C1 1.25(7) 27_575
C1 C1 1.25(7) 3
C1 C1 1.53(8) 11_465
C1 C1 1.53(8) 31_566
C1 C1 1.53(8) 9_465
C1 C1 1.53(8) 5_564
C1 C1 1.77(9) 25_575
