#------------------------------------------------------------------------------
#$Date: 2019-11-25 00:04:17 +0200 (Mon, 25 Nov 2019) $
#$Revision: 239741 $
#$URL: file:///home/coder/svn-repositories/cod/cif/4/00/34/4003421.cif $
#------------------------------------------------------------------------------
#
# This file is available in the Crystallography Open Database (COD),
# http://www.crystallography.net/
#
# All data on this site have been placed in the public domain by the
# contributors.
#
data_4003421
loop_
_publ_author_name
'Ovens, Jeffrey S.'
'Leznoff, Daniel B.'
_publ_section_title
;
 Raman Detected Sensing of Volatile Organic Compounds by Vapochromic
 Cu[AuX2(CN)2]2 (X = Cl, Br) Coordination Polymer Materials
;
_journal_issue                   5
_journal_name_full               'Chemistry of Materials'
_journal_page_first              1465
_journal_paper_doi               10.1021/cm502998w
_journal_volume                  27
_journal_year                    2015
_chemical_formula_sum            'C16 H28 Au2 Br4 Cu N8 O4'
_chemical_formula_weight         1173.58
_space_group_crystal_system      triclinic
_space_group_IT_number           2
_space_group_name_Hall           '-P 1'
_space_group_name_H-M_alt        'P -1'
_atom_sites_solution_hydrogens   geom
_atom_sites_solution_primary     direct
_cell_angle_alpha                90.153(2)
_cell_angle_beta                 92.457(2)
_cell_angle_gamma                92.4630(10)
_cell_formula_units_Z            1
_cell_length_a                   8.3765(2)
_cell_length_b                   8.4243(2)
_cell_length_c                   10.8307(3)
_cell_measurement_reflns_used    9921
_cell_measurement_temperature    150(2)
_cell_measurement_theta_max      36.27
_cell_measurement_theta_min      3.06
_cell_volume                     762.86(3)
_computing_cell_refinement       'Bruker SAINT'
_computing_data_collection       'Bruker APEX2'
_computing_data_reduction        'Bruker SAINT'
_computing_structure_refinement  'SHELXL-2013 (Sheldrick, 2013)'
_computing_structure_solution
; 
Bruker Intrinsic Phasing (Sheldrick, 2012) 
;
_diffrn_ambient_temperature      150(2)
_diffrn_measured_fraction_theta_full 0.992
_diffrn_measured_fraction_theta_max 0.993
_diffrn_measurement_device_type  'Bruker APEX-II DUO CCD'
_diffrn_measurement_method       '\w scans'
_diffrn_radiation_monochromator  graphite
_diffrn_radiation_type           'Mo K\a'
_diffrn_radiation_wavelength     0.71073
_diffrn_reflns_av_R_equivalents  0.0248
_diffrn_reflns_av_unetI/netI     0.0305
_diffrn_reflns_Laue_measured_fraction_full 0.992
_diffrn_reflns_Laue_measured_fraction_max 0.993
_diffrn_reflns_limit_h_max       13
_diffrn_reflns_limit_h_min       -13
_diffrn_reflns_limit_k_max       13
_diffrn_reflns_limit_k_min       -12
_diffrn_reflns_limit_l_max       16
_diffrn_reflns_limit_l_min       -17
_diffrn_reflns_number            16849
_diffrn_reflns_point_group_measured_fraction_full 0.992
_diffrn_reflns_point_group_measured_fraction_max 0.993
_diffrn_reflns_theta_full        25.242
_diffrn_reflns_theta_max         34.337
_diffrn_reflns_theta_min         1.882
_exptl_absorpt_coefficient_mu    15.556
_exptl_absorpt_correction_T_max  0.7471
_exptl_absorpt_correction_T_min  0.5084
_exptl_absorpt_correction_type   multi-scan
_exptl_crystal_colour            yellow-green
_exptl_crystal_density_diffrn    2.555
_exptl_crystal_description       block
_exptl_crystal_F_000             539
_exptl_crystal_size_max          0.218
_exptl_crystal_size_mid          0.142
_exptl_crystal_size_min          0.067
_refine_diff_density_max         2.792
_refine_diff_density_min         -1.780
_refine_diff_density_rms         0.180
_refine_ls_extinction_method     none
_refine_ls_goodness_of_fit_ref   1.065
_refine_ls_hydrogen_treatment    constr
_refine_ls_matrix_type           full
_refine_ls_number_parameters     167
_refine_ls_number_reflns         6359
_refine_ls_number_restraints     9
_refine_ls_restrained_S_all      1.084
_refine_ls_R_factor_all          0.0354
_refine_ls_R_factor_gt           0.0266
_refine_ls_shift/su_max          0.002
_refine_ls_shift/su_mean         0.000
_refine_ls_structure_factor_coef Fsqd
_refine_ls_weighting_details
;
 w=1/[\s^2^(Fo^2^)+(0.0312P)^2^+0.7763P]
 where P=(Fo^2^+2Fc^2^)/3
;
_refine_ls_weighting_scheme      calc
_refine_ls_wR_factor_gt          0.0633
_refine_ls_wR_factor_ref         0.0656
_reflns_number_gt                5336
_reflns_number_total             6359
_reflns_threshold_expression     'I > 2\s(I)'
_cod_data_source_file            cm502998w_si_002.cif
_cod_data_source_block           Cu_DMF_Au3Br
_cod_database_code               4003421
_shelx_space_group_comment
;
The symmetry employed for this shelxl refinement is uniquely defined
by the following loop, which should always be used as a source of
symmetry information in preference to the above space-group names.
They are only intended as comments.
;
_shelxl_version_number           2013-2
_shelx_res_file
;
TITL Cu-DMF-AuBr in P-1
CELL  0.71073   8.3765   8.4243  10.8307   90.153   92.457   92.463
ZERR    1.00   0.0002   0.0002   0.0003   0.002   0.002   0.001
LATT  1
SFAC C H N O CU BR AU
UNIT 16 28 8 4 1 4 2
TEMP -123.140
SHEL 999 0.600
L.S. 10
FMAP 2
PLAN 20
EQIV $1 x, y+1, z
BIND Au1 Br2
BIND Au2 Br1_$1
BIND Cu1 N1
BOND
DELU 0.001 Au2 C2 N2
SIMU 0.001 Au2 C2 N2
LIST 4
ACTA
WGHT    0.031200    0.776300
FVAR       0.42473
AU1   7    0.000000    0.500000    0.500000    10.50000    0.01762    0.01599 =
         0.01223   -0.00125   -0.00072    0.00045
AU2   7    0.500000    1.000000    0.500000    10.50000    0.02036    0.01711 =
         0.02416    0.00235    0.00122    0.00010
BR1   6    0.204148    0.313149    0.457711    11.00000    0.03105    0.03191 =
         0.02530   -0.00455   -0.00109    0.01290
BR2   6    0.289249    0.810725    0.555303    11.00000    0.03760    0.03818 =
         0.04445    0.00567    0.00472   -0.01575
CU1   5    0.000000    0.500000    0.000000    10.50000    0.01508    0.01513 =
         0.01678    0.00221   -0.00263   -0.00021
O1    4    0.084776    0.719687   -0.026737    11.00000    0.02081    0.01838 =
         0.02203    0.00308   -0.00180   -0.00099
O2    4    0.216009    0.437543    0.052106    11.00000    0.01645    0.02153 =
         0.02319    0.00124   -0.00211    0.00112
N1    3   -0.046788    0.552044    0.214404    11.00000    0.02976    0.02354 =
         0.01856    0.00019   -0.00012    0.00126
N2    3    0.390282    0.948639    0.229674    11.00000    0.04448    0.03929 =
         0.03603    0.00712   -0.00640   -0.00743
N3    3    0.443166    0.472289    0.170194    11.00000    0.01615    0.02413 =
         0.03065    0.00614   -0.00412   -0.00037
N4    3    0.095662    0.944820   -0.141254    11.00000    0.02879    0.01604 =
         0.02424    0.00033    0.00649    0.00033
C1    1   -0.031396    0.534469    0.318145    11.00000    0.02140    0.01716 =
         0.01825   -0.00213   -0.00004    0.00094
C2    1    0.425829    0.968332    0.317382    11.00000    0.03942    0.02804 =
         0.03162    0.00352    0.00353   -0.00776
C3    1    0.034977    0.804058   -0.114867    11.00000    0.02386    0.01601 =
         0.02021    0.00035    0.00064    0.00005
AFIX  43
H3    2   -0.052511    0.762670   -0.165551    11.00000   -1.20000
AFIX   0
C4    1    0.230218    1.018044   -0.070084    11.00000    0.02703    0.02375 =
         0.04293   -0.00378    0.00389   -0.00758
AFIX 137
H4A   2    0.242727    0.963835    0.009470    11.00000   -1.50000
H4B   2    0.210859    1.130384   -0.055812    11.00000   -1.50000
H4C   2    0.327885    1.009334   -0.115875    11.00000   -1.50000
AFIX   0
C5    1    0.028318    1.037671   -0.243898    11.00000    0.05830    0.02214 =
         0.02810    0.00889    0.00098    0.00341
AFIX 137
H5A   2   -0.047283    0.969950   -0.294143    11.00000   -1.50000
H5B   2    0.114743    1.077666   -0.295164    11.00000   -1.50000
H5C   2   -0.027464    1.127387   -0.210914    11.00000   -1.50000
AFIX   0
C6    1    0.301102    0.516294    0.131197    11.00000    0.01701    0.02098 =
         0.02913   -0.00192   -0.00264    0.00185
AFIX  43
H6    2    0.261205    0.610843    0.163825    11.00000   -1.20000
AFIX   0
C7    1    0.534091    0.561474    0.267570    11.00000    0.03092    0.03962 =
         0.07116   -0.01340   -0.02854    0.00200
AFIX 137
H7A   2    0.565554    0.488976    0.334023    11.00000   -1.50000
H7B   2    0.467699    0.643260    0.300572    11.00000   -1.50000
H7C   2    0.630009    0.612009    0.233433    11.00000   -1.50000
AFIX   0
C8    1    0.512249    0.330310    0.124645    11.00000    0.02528    0.03634 =
         0.03908    0.00579    0.00037    0.01152
AFIX 137
H8A   2    0.627517    0.349870    0.116684    11.00000   -1.50000
H8B   2    0.462284    0.301762    0.043697    11.00000   -1.50000
H8C   2    0.493780    0.243045    0.182673    11.00000   -1.50000
AFIX   0
HKLF 4

REM  Cu-DMF-AuBr in P-1
REM R1 =  0.0266 for    5336 Fo > 4sig(Fo)  and  0.0354 for all    6359 data
REM    167 parameters refined using      9 restraints

END

WGHT      0.0312      0.7763

REM Highest difference peak  2.792,  deepest hole -1.780,  1-sigma level  0.180
Q1    1   0.3869  0.9749  0.2788  11.00000  0.05    2.79
Q2    1   0.1028  0.5101  0.5035  11.00000  0.05    2.35
Q3    1   0.0441  0.4665  0.4541  11.00000  0.05    2.10
Q4    1   0.3979  0.9911  0.4977  11.00000  0.05    2.02
Q5    1   0.4572  1.0239  0.5515  11.00000  0.05    1.55
Q6    1   0.4475  0.9809  0.3432  11.00000  0.05    1.52
Q7    1   0.3995  0.9146  0.1974  11.00000  0.05    1.04
Q8    1   0.2002  0.3246  0.5433  11.00000  0.05    1.01
Q9    1   0.3575  0.7601  0.5335  11.00000  0.05    0.86
Q10   1  -0.0857  0.5380  0.2786  11.00000  0.05    0.84
Q11   1   0.0186  0.5218  0.3798  11.00000  0.05    0.84
Q12   1   0.2456  0.5252  0.4986  11.00000  0.05    0.80
Q13   1   0.4693  1.0668  0.4689  11.00000  0.05    0.79
Q14   1   0.0967  0.2995  0.5484  11.00000  0.05    0.78
Q15   1   0.0200  0.4924 -0.0820  11.00000  0.05    0.74
Q16   1   0.2083  0.3035  0.3771  11.00000  0.05    0.70
Q17   1   0.3009  0.7835  0.4752  11.00000  0.05    0.68
Q18   1   0.5201  1.0202  0.3790  11.00000  0.05    0.68
Q19   1  -0.0600  0.5031  0.3387  11.00000  0.05    0.68
Q20   1   0.0712  0.6205  0.3955  11.00000  0.05    0.67
;
_shelx_res_checksum              24554
loop_
_space_group_symop_operation_xyz
'x, y, z'
'-x, -y, -z'
loop_
_atom_site_label
_atom_site_type_symbol
_atom_site_fract_x
_atom_site_fract_y
_atom_site_fract_z
_atom_site_U_iso_or_equiv
_atom_site_adp_type
_atom_site_occupancy
_atom_site_site_symmetry_order
_atom_site_calc_flag
_atom_site_refinement_flags_posn
_atom_site_refinement_flags_adp
_atom_site_refinement_flags_occupancy
Au1 Au 0.0000 0.5000 0.5000 0.01533(4) Uani 1 2 d S . P
Au2 Au 0.5000 1.0000 0.5000 0.02055(4) Uani 1 2 d S U P
Br1 Br 0.20415(4) 0.31315(4) 0.45771(3) 0.02916(7) Uani 1 1 d . . .
Br2 Br 0.28925(5) 0.81072(5) 0.55530(4) 0.04048(10) Uani 1 1 d . . .
Cu1 Cu 0.0000 0.5000 0.0000 0.01578(9) Uani 1 2 d S . P
O1 O 0.0848(3) 0.7197(3) -0.0267(2) 0.0205(4) Uani 1 1 d . . .
O2 O 0.2160(3) 0.4375(3) 0.0521(2) 0.0205(4) Uani 1 1 d . . .
N1 N -0.0468(4) 0.5520(3) 0.2144(3) 0.0240(5) Uani 1 1 d . . .
N2 N 0.3903(5) 0.9486(5) 0.2297(3) 0.0404(7) Uani 1 1 d . U .
N3 N 0.4432(3) 0.4723(3) 0.1702(3) 0.0238(5) Uani 1 1 d . . .
N4 N 0.0957(4) 0.9448(3) -0.1413(3) 0.0229(5) Uani 1 1 d . . .
C1 C -0.0314(4) 0.5345(3) 0.3181(3) 0.0190(5) Uani 1 1 d . . .
C2 C 0.4258(5) 0.9683(5) 0.3174(4) 0.0332(6) Uani 1 1 d . U .
C3 C 0.0350(4) 0.8041(3) -0.1149(3) 0.0201(5) Uani 1 1 d . . .
H3 H -0.0525 0.7627 -0.1656 0.024 Uiso 1 1 calc R U .
C4 C 0.2302(5) 1.0180(4) -0.0701(4) 0.0314(7) Uani 1 1 d . . .
H4A H 0.2427 0.9638 0.0095 0.047 Uiso 1 1 calc R U .
H4B H 0.2109 1.1304 -0.0558 0.047 Uiso 1 1 calc R U .
H4C H 0.3279 1.0093 -0.1159 0.047 Uiso 1 1 calc R U .
C5 C 0.0283(6) 1.0377(5) -0.2439(4) 0.0361(9) Uani 1 1 d . . .
H5A H -0.0473 0.9699 -0.2941 0.054 Uiso 1 1 calc R U .
H5B H 0.1147 1.0777 -0.2952 0.054 Uiso 1 1 calc R U .
H5C H -0.0275 1.1274 -0.2109 0.054 Uiso 1 1 calc R U .
C6 C 0.3011(4) 0.5163(4) 0.1312(3) 0.0224(6) Uani 1 1 d . . .
H6 H 0.2612 0.6108 0.1638 0.027 Uiso 1 1 calc R U .
C7 C 0.5341(5) 0.5615(5) 0.2676(5) 0.0481(12) Uani 1 1 d . . .
H7A H 0.5656 0.4890 0.3340 0.072 Uiso 1 1 calc R U .
H7B H 0.4677 0.6433 0.3006 0.072 Uiso 1 1 calc R U .
H7C H 0.6300 0.6120 0.2334 0.072 Uiso 1 1 calc R U .
C8 C 0.5122(5) 0.3303(5) 0.1246(4) 0.0333(8) Uani 1 1 d . . .
H8A H 0.6275 0.3499 0.1167 0.050 Uiso 1 1 calc R U .
H8B H 0.4623 0.3018 0.0437 0.050 Uiso 1 1 calc R U .
H8C H 0.4938 0.2430 0.1827 0.050 Uiso 1 1 calc R U .
loop_
_atom_site_aniso_label
_atom_site_aniso_U_11
_atom_site_aniso_U_22
_atom_site_aniso_U_33
_atom_site_aniso_U_23
_atom_site_aniso_U_13
_atom_site_aniso_U_12
Au1 0.01762(7) 0.01599(7) 0.01223(6) -0.00125(5) -0.00072(5) 0.00045(5)
Au2 0.02036(8) 0.01711(7) 0.02416(8) 0.00235(6) 0.00122(6) 0.00010(5)
Br1 0.03105(17) 0.03191(17) 0.02530(15) -0.00455(12) -0.00109(12) 0.01290(13)
Br2 0.0376(2) 0.0382(2) 0.0445(2) 0.00567(17) 0.00472(16) -0.01575(16)
Cu1 0.0151(2) 0.0151(2) 0.0168(2) 0.00221(16) -0.00263(16) -0.00021(16)
O1 0.0208(10) 0.0184(9) 0.0220(10) 0.0031(8) -0.0018(8) -0.0010(8)
O2 0.0164(9) 0.0215(10) 0.0232(10) 0.0012(8) -0.0021(8) 0.0011(8)
N1 0.0298(14) 0.0235(12) 0.0186(11) 0.0002(10) -0.0001(10) 0.0013(10)
N2 0.0445(16) 0.0393(15) 0.0360(10) 0.0071(12) -0.0064(12) -0.0074(13)
N3 0.0161(11) 0.0241(12) 0.0307(14) 0.0061(11) -0.0041(10) -0.0004(9)
N4 0.0288(14) 0.0160(11) 0.0242(12) 0.0003(9) 0.0065(10) 0.0003(10)
C1 0.0214(13) 0.0172(12) 0.0183(12) -0.0021(10) 0.0000(10) 0.0009(10)
C2 0.0394(16) 0.0280(14) 0.0316(9) 0.0035(12) 0.0035(12) -0.0078(13)
C3 0.0239(14) 0.0160(12) 0.0202(13) 0.0003(10) 0.0006(10) 0.0001(10)
C4 0.0270(16) 0.0238(15) 0.043(2) -0.0038(14) 0.0039(14) -0.0076(13)
C5 0.058(3) 0.0221(15) 0.0281(17) 0.0089(13) 0.0010(16) 0.0034(16)
C6 0.0170(13) 0.0210(13) 0.0291(15) -0.0019(11) -0.0026(11) 0.0018(10)
C7 0.031(2) 0.040(2) 0.071(3) -0.013(2) -0.029(2) 0.0020(16)
C8 0.0253(16) 0.0363(19) 0.039(2) 0.0058(15) 0.0004(14) 0.0115(14)
loop_
_atom_type_symbol
_atom_type_description
_atom_type_scat_dispersion_real
_atom_type_scat_dispersion_imag
_atom_type_scat_source
C C 0.0033 0.0016 'International Tables Vol C Tables 4.2.6.8 and 6.1.1.4'
H H 0.0000 0.0000 'International Tables Vol C Tables 4.2.6.8 and 6.1.1.4'
N N 0.0061 0.0033 'International Tables Vol C Tables 4.2.6.8 and 6.1.1.4'
O O 0.0106 0.0060 'International Tables Vol C Tables 4.2.6.8 and 6.1.1.4'
Cu Cu 0.3201 1.2651 'International Tables Vol C Tables 4.2.6.8 and 6.1.1.4'
Br Br -0.2901 2.4595 'International Tables Vol C Tables 4.2.6.8 and 6.1.1.4'
Au Au -2.0133 8.8022 'International Tables Vol C Tables 4.2.6.8 and 6.1.1.4'
loop_
_geom_angle_atom_site_label_1
_geom_angle_atom_site_label_2
_geom_angle_atom_site_label_3
_geom_angle
_geom_angle_site_symmetry_1
_geom_angle_site_symmetry_3
C1 Au1 C1 180.0 2_566 .
C1 Au1 Br1 91.03(9) 2_566 .
C1 Au1 Br1 88.97(9) . .
C1 Au1 Br1 88.97(9) 2_566 2_566
C1 Au1 Br1 91.03(9) . 2_566
Br1 Au1 Br1 180.0 . 2_566
C1 Au1 Br2 83.21(9) 2_566 .
C1 Au1 Br2 96.79(9) . .
Br1 Au1 Br2 91.812(13) . .
Br1 Au1 Br2 88.188(13) 2_566 .
C2 Au2 C2 180.0 2_676 .
C2 Au2 Br2 91.53(10) 2_676 .
C2 Au2 Br2 88.47(10) . .
C2 Au2 Br2 88.47(10) 2_676 2_676
C2 Au2 Br2 91.53(10) . 2_676
Br2 Au2 Br2 180.0 . 2_676
C2 Au2 Br1 101.88(12) 2_676 1_565
C2 Au2 Br1 78.12(12) . 1_565
Br2 Au2 Br1 90.336(13) . 1_565
Br2 Au2 Br1 89.664(13) 2_676 1_565
Au2 Br2 Au1 155.191(18) . .
O2 Cu1 O2 180.0 . 2_565
O2 Cu1 O1 89.68(9) . .
O2 Cu1 O1 90.32(9) 2_565 .
O2 Cu1 O1 90.32(9) . 2_565
O2 Cu1 O1 89.68(9) 2_565 2_565
O1 Cu1 O1 180.0 . 2_565
O2 Cu1 N1 91.93(10) . 2_565
O2 Cu1 N1 88.07(10) 2_565 2_565
O1 Cu1 N1 87.50(10) . 2_565
O1 Cu1 N1 92.50(10) 2_565 2_565
O2 Cu1 N1 88.07(10) . .
O2 Cu1 N1 91.93(10) 2_565 .
O1 Cu1 N1 92.50(10) . .
O1 Cu1 N1 87.50(10) 2_565 .
N1 Cu1 N1 180.0 2_565 .
C3 O1 Cu1 122.4(2) . .
C6 O2 Cu1 121.8(2) . .
C1 N1 Cu1 155.4(3) . .
C6 N3 C8 122.1(3) . .
C6 N3 C7 120.7(3) . .
C8 N3 C7 117.1(3) . .
C3 N4 C4 122.1(3) . .
C3 N4 C5 121.1(3) . .
C4 N4 C5 116.8(3) . .
N1 C1 Au1 178.6(3) . .
N2 C2 Au2 177.8(4) . .
O1 C3 N4 124.3(3) . .
O2 C6 N3 122.3(3) . .
loop_
_geom_bond_atom_site_label_1
_geom_bond_atom_site_label_2
_geom_bond_distance
_geom_bond_site_symmetry_2
Au1 C1 2.000(3) 2_566
Au1 C1 2.000(3) .
Au1 Br1 2.4303(3) .
Au1 Br1 2.4303(3) 2_566
Au1 Br2 3.5218(4) .
Au2 C2 2.061(4) 2_676
Au2 C2 2.061(4) .
Au2 Br2 2.4231(4) .
Au2 Br2 2.4232(4) 2_676
Au2 Br1 3.7124(3) 1_565
Cu1 O2 1.966(2) .
Cu1 O2 1.966(2) 2_565
Cu1 O1 1.980(2) .
Cu1 O1 1.980(2) 2_565
Cu1 N1 2.414(3) 2_565
Cu1 N1 2.414(3) .
O1 C3 1.259(4) .
O2 C6 1.259(4) .
N1 C1 1.136(4) .
N2 C2 0.995(5) .
N3 C6 1.314(4) .
N3 C8 1.446(5) .
N3 C7 1.461(5) .
N4 C3 1.307(4) .
N4 C4 1.452(5) .
N4 C5 1.468(5) .
