#------------------------------------------------------------------------------
#$Date: 2019-11-25 00:04:17 +0200 (Mon, 25 Nov 2019) $
#$Revision: 239741 $
#$URL: file:///home/coder/svn-repositories/cod/cif/4/00/34/4003422.cif $
#------------------------------------------------------------------------------
#
# This file is available in the Crystallography Open Database (COD),
# http://www.crystallography.net/
#
# All data on this site have been placed in the public domain by the
# contributors.
#
data_4003422
loop_
_publ_author_name
'Ovens, Jeffrey S.'
'Leznoff, Daniel B.'
_publ_section_title
;
 Raman Detected Sensing of Volatile Organic Compounds by Vapochromic
 Cu[AuX2(CN)2]2 (X = Cl, Br) Coordination Polymer Materials
;
_journal_issue                   5
_journal_name_full               'Chemistry of Materials'
_journal_page_first              1465
_journal_paper_doi               10.1021/cm502998w
_journal_volume                  27
_journal_year                    2015
_chemical_formula_sum            'C12 H24 Au2 Br4 Cu N4 O4 S4'
_chemical_formula_weight         1193.70
_space_group_crystal_system      triclinic
_space_group_IT_number           2
_space_group_name_Hall           '-P 1'
_space_group_name_H-M_alt        'P -1'
_atom_sites_solution_hydrogens   geom
_atom_sites_solution_primary     direct
_cell_angle_alpha                80.1800(19)
_cell_angle_beta                 79.306(2)
_cell_angle_gamma                86.8250(19)
_cell_formula_units_Z            1
_cell_length_a                   8.2802(7)
_cell_length_b                   8.5080(7)
_cell_length_c                   11.2279(9)
_cell_measurement_reflns_used    5564
_cell_measurement_temperature    296(2)
_cell_measurement_theta_max      26.39
_cell_measurement_theta_min      2.43
_cell_volume                     765.63(11)
_computing_cell_refinement       'Bruker SAINT'
_computing_data_collection       'Bruker APEX2'
_computing_data_reduction        'Bruker SAINT'
_computing_structure_refinement  'SHELXL-2013 (Sheldrick, 2013)'
_computing_structure_solution
; 
Bruker Intrinsic Phasing (Sheldrick, 2012) 
;
_diffrn_ambient_temperature      296(2)
_diffrn_measured_fraction_theta_full 1.000
_diffrn_measured_fraction_theta_max 1.000
_diffrn_measurement_device_type  'Bruker APEX-II DUO CCD'
_diffrn_measurement_method       '\w scans'
_diffrn_radiation_monochromator  graphite
_diffrn_radiation_type           'Mo K\a'
_diffrn_radiation_wavelength     0.71073
_diffrn_reflns_av_R_equivalents  0.0432
_diffrn_reflns_av_unetI/netI     0.0372
_diffrn_reflns_Laue_measured_fraction_full 1.000
_diffrn_reflns_Laue_measured_fraction_max 1.000
_diffrn_reflns_limit_h_max       10
_diffrn_reflns_limit_h_min       -9
_diffrn_reflns_limit_k_max       10
_diffrn_reflns_limit_k_min       -10
_diffrn_reflns_limit_l_max       14
_diffrn_reflns_limit_l_min       -14
_diffrn_reflns_number            13944
_diffrn_reflns_point_group_measured_fraction_full 1.000
_diffrn_reflns_point_group_measured_fraction_max 1.000
_diffrn_reflns_theta_full        25.242
_diffrn_reflns_theta_max         26.371
_diffrn_reflns_theta_min         1.871
_exptl_absorpt_coefficient_mu    15.761
_exptl_absorpt_correction_T_max  0.6410
_exptl_absorpt_correction_T_min  0.3986
_exptl_absorpt_correction_type   numerical
_exptl_crystal_colour            yellow
_exptl_crystal_density_diffrn    2.589
_exptl_crystal_description       plate
_exptl_crystal_F_000             547
_exptl_crystal_size_max          0.096
_exptl_crystal_size_mid          0.094
_exptl_crystal_size_min          0.040
_refine_diff_density_max         3.417
_refine_diff_density_min         -1.570
_refine_diff_density_rms         0.220
_refine_ls_extinction_method     none
_refine_ls_goodness_of_fit_ref   1.037
_refine_ls_hydrogen_treatment    constr
_refine_ls_matrix_type           full
_refine_ls_number_parameters     149
_refine_ls_number_reflns         3131
_refine_ls_number_restraints     16
_refine_ls_restrained_S_all      1.080
_refine_ls_R_factor_all          0.0631
_refine_ls_R_factor_gt           0.0422
_refine_ls_shift/su_max          0.000
_refine_ls_shift/su_mean         0.000
_refine_ls_structure_factor_coef Fsqd
_refine_ls_weighting_details
;
 w=1/[\s^2^(Fo^2^)+(0.0589P)^2^+4.3433P]
 where P=(Fo^2^+2Fc^2^)/3
;
_refine_ls_weighting_scheme      calc
_refine_ls_wR_factor_gt          0.1043
_refine_ls_wR_factor_ref         0.1138
_reflns_number_gt                2358
_reflns_number_total             3131
_reflns_threshold_expression     'I > 2\s(I)'
_cod_data_source_file            cm502998w_si_002.cif
_cod_data_source_block           Cu_DMSO_Au3Br
_cod_database_code               4003422
_shelx_space_group_comment
;
The symmetry employed for this shelxl refinement is uniquely defined
by the following loop, which should always be used as a source of
symmetry information in preference to the above space-group names.
They are only intended as comments.
;
_shelx_estimated_absorpt_t_min   0.313
_shelx_estimated_absorpt_t_max   0.571
_shelxl_version_number           2013-2
_shelx_res_file
;
TITL Cu_DMSO_Au3Br in P-1
CELL  0.71073   8.2802   8.5080  11.2279   80.180   79.306   86.825
ZERR    1.00   0.00070   0.00070   0.00090   0.0019   0.0020   0.0019
LATT  1
SFAC C H N O S CU BR AU
UNIT 12 24 4 4 4 1 4 2
TEMP 23.000
SIZE 0.040 0.094 0.096
SHEL 999 0.800
L.S. 10
BOND $H
LIST 4
FMAP 2
PLAN 20
EQIV $1 -1+x, +y, +z
BIND Au2 Br1_$1
BIND Cu1 N1
BIND Au1 Br2
DFIX 2.00 0.01 Au1 C1 Au2 C2
DFIX 1.10 0.01 C1 N1 C2 N2
DELU 0.001 Au2 C2 N2 Au1 C1 N1
SIMU 0.001 Au1 C1 N1
ACTA
WGHT    0.058900    4.343300
FVAR       0.41360
AU1   8    0.500000    0.500000    0.500000    10.50000    0.03172    0.03715 =
         0.03273   -0.00949   -0.00363    0.00543
AU2   8    0.000000    1.000000    0.500000    10.50000    0.03597    0.03235 =
         0.04287   -0.00253   -0.00061    0.00429
BR1   7    0.710303    0.696675    0.480139    11.00000    0.06591    0.07349 =
         0.07019   -0.01305   -0.00369   -0.01537
BR2   7    0.226852    0.810553    0.519494    11.00000    0.06619    0.07261 =
         0.07630   -0.00359   -0.00581    0.03323
CU1   6    0.500000    0.500000    0.000000    10.50000    0.02606    0.04478 =
         0.04956    0.00526    0.00154   -0.00166
S1    5    0.621599    0.183791    0.132262    11.00000    0.03812    0.04786 =
         0.04269   -0.00628   -0.00997   -0.00231
S2    5    0.178819    0.425348    0.179878    11.00000    0.03354    0.05270 =
         0.03674    0.00365   -0.00235    0.00215
O1    4    0.494071    0.267452    0.059406    11.00000    0.03900    0.04228 =
         0.05035    0.00140   -0.01176   -0.00722
O2    4    0.262693    0.520997    0.058604    11.00000    0.02704    0.06242 =
         0.04739    0.01230   -0.00136    0.00260
N1    3    0.551365    0.544539    0.217776    11.00000    0.04327    0.05944 =
         0.03421    0.00346   -0.00629    0.00245
N2    3    0.031929    0.969380    0.237679    11.00000    0.06405    0.04788 =
         0.04300   -0.00145   -0.00195    0.00394
C1    1    0.538948    0.534836    0.313146    11.00000    0.04252    0.05868 =
         0.03397    0.00212   -0.00744    0.00256
C2    1    0.022785    0.978577    0.321899    11.00000    0.04272    0.02773 =
         0.04740   -0.00322   -0.01264    0.00316
C11   1    0.505648    0.054275    0.254627    11.00000    0.09818    0.07894 =
         0.04375    0.02531    0.00220   -0.00995
AFIX 137
H11A  2    0.434661   -0.006850    0.222580    11.00000   -1.50000
H11B  2    0.440611    0.116004    0.310971    11.00000   -1.50000
H11C  2    0.578802   -0.016552    0.296677    11.00000   -1.50000
AFIX   0
C12   1    0.719111    0.042122    0.043748    11.00000    0.06597    0.09946 =
         0.08422   -0.04048   -0.02784    0.03103
AFIX 137
H12A  2    0.776339    0.096016   -0.033415    11.00000   -1.50000
H12B  2    0.638174   -0.025523    0.029298    11.00000   -1.50000
H12C  2    0.796027   -0.021430    0.087063    11.00000   -1.50000
AFIX   0
C21   1    0.091212    0.571034    0.267390    11.00000    0.10455    0.10259 =
         0.07723   -0.02288   -0.00003    0.03400
AFIX 137
H21A  2    0.004577    0.627702    0.230581    11.00000   -1.50000
H21B  2    0.173895    0.644461    0.270115    11.00000   -1.50000
H21C  2    0.047236    0.520639    0.349349    11.00000   -1.50000
AFIX   0
C22   1    0.000568    0.357801    0.146333    11.00000    0.07759    0.11377 =
         0.09563    0.04371   -0.03398   -0.04707
AFIX 137
H22A  2   -0.071864    0.446992    0.127631    11.00000   -1.50000
H22B  2   -0.053083    0.285859    0.215993    11.00000   -1.50000
H22C  2    0.028259    0.303268    0.076859    11.00000   -1.50000
AFIX   0
HKLF 4

REM  Cu_DMSO_Au3Br in P-1
REM R1 =  0.0422 for    2358 Fo > 4sig(Fo)  and  0.0631 for all    3131 data
REM    149 parameters refined using     16 restraints

END

WGHT      0.0589      4.3433

REM Highest difference peak  3.417,  deepest hole -1.570,  1-sigma level  0.220
Q1    1   0.0322  0.9898  0.2821  11.00000  0.05    3.42
Q2    1   0.5541  0.5373  0.2748  11.00000  0.05    3.09
Q3    1   0.5179  0.5051  0.3721  11.00000  0.05    1.12
Q4    1   0.7868  0.8038  0.5261  11.00000  0.05    1.05
Q5    1   0.0227  1.0414  0.4812  11.00000  0.05    0.85
Q6    1   0.4972  0.4887  0.1966  11.00000  0.05    0.81
Q7    1   0.4931  0.4274  0.4976  11.00000  0.05    0.77
Q8    1  -0.0297  0.9349  0.4121  11.00000  0.05    0.74
Q9    1   0.4697  0.4178  0.4192  11.00000  0.05    0.68
Q10   1   0.5895  0.4835  0.1814  11.00000  0.05    0.68
Q11   1   0.0271  1.0184  0.3802  11.00000  0.05    0.64
Q12   1   0.0417  1.0254  0.1816  11.00000  0.05    0.60
Q13   1  -0.0127  0.9136  0.1961  11.00000  0.05    0.55
Q14   1   0.1952  0.7267  0.4249  11.00000  0.05    0.51
Q15   1   0.4560  0.1802  0.1039  11.00000  0.05    0.51
Q16   1   0.1428  0.7110  0.5226  11.00000  0.05    0.51
Q17   1   0.5393  0.1281  0.2006  11.00000  0.05    0.51
Q18   1   0.7795  0.6774  0.5634  11.00000  0.05    0.51
Q19   1   0.0211  1.1222  0.4138  11.00000  0.05    0.47
Q20   1  -0.0285  1.0158  0.1145  11.00000  0.05    0.46
;
_shelx_res_checksum              13433
loop_
_space_group_symop_operation_xyz
'x, y, z'
'-x, -y, -z'
loop_
_atom_site_label
_atom_site_type_symbol
_atom_site_fract_x
_atom_site_fract_y
_atom_site_fract_z
_atom_site_U_iso_or_equiv
_atom_site_adp_type
_atom_site_occupancy
_atom_site_site_symmetry_order
_atom_site_calc_flag
_atom_site_refinement_flags_posn
_atom_site_refinement_flags_adp
_atom_site_refinement_flags_occupancy
Au1 Au 0.5000 0.5000 0.5000 0.03394(16) Uani 1 2 d DS U P
Au2 Au 0.0000 1.0000 0.5000 0.03853(17) Uani 1 2 d DS U P
Br1 Br 0.71030(17) 0.69667(18) 0.48014(13) 0.0703(4) Uani 1 1 d . . .
Br2 Br 0.22685(17) 0.81055(18) 0.51949(14) 0.0750(4) Uani 1 1 d . . .
Cu1 Cu 0.5000 0.5000 0.0000 0.0427(4) Uani 1 2 d S . P
S1 S 0.6216(3) 0.1838(3) 0.1323(2) 0.0426(6) Uani 1 1 d . . .
S2 S 0.1788(3) 0.4253(3) 0.1799(2) 0.0429(6) Uani 1 1 d . . .
O1 O 0.4941(8) 0.2675(8) 0.0594(7) 0.0442(17) Uani 1 1 d . . .
O2 O 0.2627(8) 0.5210(9) 0.0586(7) 0.0490(19) Uani 1 1 d . . .
N1 N 0.5514(11) 0.5445(11) 0.2178(7) 0.0472(15) Uani 1 1 d D U .
N2 N 0.0319(13) 0.9694(12) 0.2377(8) 0.054(2) Uani 1 1 d D U .
C1 C 0.5389(13) 0.5348(14) 0.3131(6) 0.0463(15) Uani 1 1 d D U .
C2 C 0.0228(13) 0.9786(11) 0.3219(7) 0.039(2) Uani 1 1 d D U .
C11 C 0.5056(19) 0.0543(18) 0.2546(12) 0.079(4) Uani 1 1 d . . .
H11A H 0.4347 -0.0069 0.2226 0.119 Uiso 1 1 calc R U .
H11B H 0.4406 0.1160 0.3110 0.119 Uiso 1 1 calc R U .
H11C H 0.5788 -0.0166 0.2967 0.119 Uiso 1 1 calc R U .
C12 C 0.7191(17) 0.0421(19) 0.0437(14) 0.080(4) Uani 1 1 d . . .
H12A H 0.7763 0.0960 -0.0334 0.119 Uiso 1 1 calc R U .
H12B H 0.6382 -0.0255 0.0293 0.119 Uiso 1 1 calc R U .
H12C H 0.7960 -0.0214 0.0871 0.119 Uiso 1 1 calc R U .
C21 C 0.091(2) 0.571(2) 0.2674(15) 0.097(6) Uani 1 1 d . . .
H21A H 0.0046 0.6277 0.2306 0.146 Uiso 1 1 calc R U .
H21B H 0.1739 0.6445 0.2701 0.146 Uiso 1 1 calc R U .
H21C H 0.0472 0.5206 0.3493 0.146 Uiso 1 1 calc R U .
C22 C 0.0006(19) 0.358(2) 0.1463(15) 0.099(6) Uani 1 1 d . . .
H22A H -0.0719 0.4470 0.1276 0.148 Uiso 1 1 calc R U .
H22B H -0.0531 0.2859 0.2160 0.148 Uiso 1 1 calc R U .
H22C H 0.0283 0.3033 0.0769 0.148 Uiso 1 1 calc R U .
loop_
_atom_site_aniso_label
_atom_site_aniso_U_11
_atom_site_aniso_U_22
_atom_site_aniso_U_33
_atom_site_aniso_U_23
_atom_site_aniso_U_13
_atom_site_aniso_U_12
Au1 0.0317(3) 0.0372(3) 0.0327(3) -0.0095(2) -0.0036(2) 0.0054(2)
Au2 0.0360(3) 0.0324(3) 0.0429(3) -0.0025(2) -0.0006(2) 0.0043(2)
Br1 0.0659(8) 0.0735(9) 0.0702(9) -0.0130(7) -0.0037(7) -0.0154(7)
Br2 0.0662(8) 0.0726(8) 0.0763(9) -0.0036(7) -0.0058(7) 0.0332(7)
Cu1 0.0261(8) 0.0448(10) 0.0496(11) 0.0053(8) 0.0015(7) -0.0017(7)
S1 0.0381(13) 0.0479(15) 0.0427(14) -0.0063(12) -0.0100(11) -0.0023(11)
S2 0.0335(13) 0.0527(15) 0.0367(14) 0.0037(12) -0.0023(10) 0.0021(11)
O1 0.039(4) 0.042(4) 0.050(4) 0.001(3) -0.012(3) -0.007(3)
O2 0.027(3) 0.062(5) 0.047(4) 0.012(4) -0.001(3) 0.003(3)
N1 0.043(3) 0.059(4) 0.0342(9) 0.003(4) -0.006(3) 0.002(3)
N2 0.064(6) 0.048(5) 0.043(3) -0.001(5) -0.002(5) 0.004(5)
C1 0.043(4) 0.059(4) 0.0340(9) 0.002(4) -0.007(3) 0.003(3)
C2 0.043(5) 0.028(5) 0.047(3) -0.003(5) -0.013(5) 0.003(4)
C11 0.098(11) 0.079(10) 0.044(7) 0.025(7) 0.002(7) -0.010(8)
C12 0.066(9) 0.099(11) 0.084(10) -0.040(9) -0.028(8) 0.031(8)
C21 0.105(13) 0.103(13) 0.077(11) -0.023(9) 0.000(9) 0.034(10)
C22 0.078(10) 0.114(13) 0.096(12) 0.044(10) -0.034(9) -0.047(10)
loop_
_atom_type_symbol
_atom_type_description
_atom_type_scat_dispersion_real
_atom_type_scat_dispersion_imag
_atom_type_scat_source
C C 0.0033 0.0016 'International Tables Vol C Tables 4.2.6.8 and 6.1.1.4'
H H 0.0000 0.0000 'International Tables Vol C Tables 4.2.6.8 and 6.1.1.4'
N N 0.0061 0.0033 'International Tables Vol C Tables 4.2.6.8 and 6.1.1.4'
O O 0.0106 0.0060 'International Tables Vol C Tables 4.2.6.8 and 6.1.1.4'
S S 0.1246 0.1234 'International Tables Vol C Tables 4.2.6.8 and 6.1.1.4'
Cu Cu 0.3201 1.2651 'International Tables Vol C Tables 4.2.6.8 and 6.1.1.4'
Br Br -0.2901 2.4595 'International Tables Vol C Tables 4.2.6.8 and 6.1.1.4'
Au Au -2.0133 8.8022 'International Tables Vol C Tables 4.2.6.8 and 6.1.1.4'
loop_
_geom_angle_atom_site_label_1
_geom_angle_atom_site_label_2
_geom_angle_atom_site_label_3
_geom_angle
_geom_angle_site_symmetry_1
_geom_angle_site_symmetry_3
C1 Au1 C1 180.0 2_666 .
C1 Au1 Br1 93.3(3) 2_666 .
C1 Au1 Br1 86.7(3) . .
C1 Au1 Br1 86.7(3) 2_666 2_666
C1 Au1 Br1 93.3(3) . 2_666
Br1 Au1 Br1 180.0 . 2_666
C1 Au1 Br2 86.4(3) 2_666 .
C1 Au1 Br2 93.6(3) . .
Br1 Au1 Br2 85.80(5) . .
Br1 Au1 Br2 94.20(5) 2_666 .
C2 Au2 C2 180.0 2_576 .
C2 Au2 Br2 89.7(3) 2_576 2_576
C2 Au2 Br2 90.3(3) . 2_576
C2 Au2 Br2 90.3(3) 2_576 .
C2 Au2 Br2 89.7(3) . .
Br2 Au2 Br2 180.00(4) 2_576 .
C2 Au2 Br1 107.5(3) 2_576 1_455
C2 Au2 Br1 72.5(3) . 1_455
Br2 Au2 Br1 85.76(5) 2_576 1_455
Br2 Au2 Br1 94.24(5) . 1_455
Au2 Br2 Au1 165.66(7) . .
O2 Cu1 O2 180.0 2_665 .
O2 Cu1 O1 90.8(3) 2_665 2_665
O2 Cu1 O1 89.2(3) . 2_665
O2 Cu1 O1 89.2(3) 2_665 .
O2 Cu1 O1 90.8(3) . .
O1 Cu1 O1 180.0 2_665 .
O2 Cu1 N1 90.9(3) 2_665 .
O2 Cu1 N1 89.1(3) . .
O1 Cu1 N1 90.7(3) 2_665 .
O1 Cu1 N1 89.3(3) . .
O1 S1 C12 104.6(6) . .
O1 S1 C11 104.4(6) . .
C12 S1 C11 99.4(8) . .
O2 S2 C22 104.5(6) . .
O2 S2 C21 104.2(7) . .
C22 S2 C21 99.1(9) . .
S1 O1 Cu1 121.0(4) . .
S2 O2 Cu1 121.5(4) . .
C1 N1 Cu1 160.4(10) . .
N1 C1 Au1 174.8(11) . .
N2 C2 Au2 179.1(12) . .
loop_
_geom_bond_atom_site_label_1
_geom_bond_atom_site_label_2
_geom_bond_distance
_geom_bond_site_symmetry_2
Au1 C1 2.035(7) 2_666
Au1 C1 2.035(7) .
Au1 Br1 2.4358(14) .
Au1 Br1 2.4359(14) 2_666
Au1 Br2 3.3906(13) .
Au2 C2 2.012(7) 2_576
Au2 C2 2.012(7) .
Au2 Br2 2.4230(13) 2_576
Au2 Br2 2.4230(13) .
Au2 Br1 3.6803(15) 1_455
Cu1 O2 1.961(6) 2_665
Cu1 O2 1.961(6) .
Cu1 O1 1.977(7) 2_665
Cu1 O1 1.977(7) .
Cu1 N1 2.650(8) .
S1 O1 1.526(7) .
S1 C12 1.759(13) .
S1 C11 1.771(12) .
S2 O2 1.527(7) .
S2 C22 1.739(14) .
S2 C21 1.755(15) .
N1 C1 1.046(7) .
N2 C2 0.951(7) .
