#------------------------------------------------------------------------------
#$Date: 2019-11-22 22:48:53 +0200 (Fri, 22 Nov 2019) $
#$Revision: 231485 $
#$URL: file:///home/coder/svn-repositories/cod/cif/4/00/32/4003280.cif $
#------------------------------------------------------------------------------
#
# This file is available in the Crystallography Open Database (COD),
# http://www.crystallography.net/
#
# All data on this site have been placed in the public domain by the
# contributors.
#
data_4003280
loop_
_publ_author_name
'Takai, Atsuro'
'Chen, Zhihua'
'Yu, Xinge'
'Zhou, Nanjia'
'Marks, Tobin J.'
'Facchetti, Antonio'
_publ_section_title
;
 Annulated Thienyl-Vinylene-Thienyl Building Blocks for \p-Conjugated
 Copolymers: Ring Dimensions and Isomeric Structure Effects on
 \p-Conjugation Length and Charge Transport
;
_journal_issue                   16
_journal_name_full               'Chemistry of Materials'
_journal_page_first              5772
_journal_paper_doi               10.1021/acs.chemmater.6b02007
_journal_volume                  28
_journal_year                    2016
_chemical_formula_moiety         'C14 H12 S2'
_chemical_formula_sum            'C14 H12 S2'
_chemical_formula_weight         244.36
_space_group_crystal_system      monoclinic
_space_group_IT_number           14
_space_group_name_Hall           '-P 2ybc'
_space_group_name_H-M_alt        'P 1 21/c 1'
_atom_sites_solution_hydrogens   difmap
_atom_sites_solution_primary     dual
_audit_creation_date             2014-02-03
_audit_creation_method
;
Olex2 1.2
(compiled 2013.12.10 svn.r2850 for OlexSys, GUI svn.r4736)
;
_cell_angle_alpha                90
_cell_angle_beta                 98.038(8)
_cell_angle_gamma                90
_cell_formula_units_Z            2
_cell_length_a                   10.5548(13)
_cell_length_b                   8.0291(10)
_cell_length_c                   6.8298(9)
_cell_measurement_reflns_used    1156
_cell_measurement_temperature    100(2)
_cell_measurement_theta_max      65.037
_cell_measurement_theta_min      4.230
_cell_volume                     573.11(13)
_computing_cell_refinement       'SAINT V7.23A (Bruker, 2005)'
_computing_data_collection       'APEX2 V2.1-4 (Bruker, 2007)'
_computing_data_reduction        'Bruker SAINT'
_computing_molecular_graphics    'Olex2 (Dolomanov et al., 2009)'
_computing_publication_material  'Olex2 (Dolomanov et al., 2009)'
_computing_structure_refinement  'ShelXL (Sheldrick, 2008)'
_computing_structure_solution    'ShelXD (Sheldrick, 2008)'
_diffrn_ambient_temperature      99.99
_diffrn_detector_area_resol_mean 8
_diffrn_measured_fraction_theta_full 0.918
_diffrn_measured_fraction_theta_max 0.964
_diffrn_measurement_device_type  'Bruker Kappa APEX CCD area detector'
_diffrn_measurement_method       '\w and \f scans'
_diffrn_radiation_monochromator  'MX optics'
_diffrn_radiation_type           CuK\a
_diffrn_radiation_wavelength     1.54178
_diffrn_reflns_av_R_equivalents  0.0252
_diffrn_reflns_av_unetI/netI     0.0320
_diffrn_reflns_Laue_measured_fraction_full 0.918
_diffrn_reflns_Laue_measured_fraction_max 0.964
_diffrn_reflns_limit_h_max       10
_diffrn_reflns_limit_h_min       -12
_diffrn_reflns_limit_k_max       9
_diffrn_reflns_limit_k_min       -9
_diffrn_reflns_limit_l_max       8
_diffrn_reflns_limit_l_min       -5
_diffrn_reflns_number            2017
_diffrn_reflns_point_group_measured_fraction_full 0.918
_diffrn_reflns_point_group_measured_fraction_max 0.964
_diffrn_reflns_theta_full        67.679
_diffrn_reflns_theta_max         65.032
_diffrn_reflns_theta_min         4.230
_diffrn_source                   microsource
_exptl_absorpt_coefficient_mu    3.911
_exptl_absorpt_correction_T_max  0.7526
_exptl_absorpt_correction_T_min  0.5850
_exptl_absorpt_correction_type   multi-scan
_exptl_absorpt_process_details
;
SADABS-2012/1 (Bruker,2012) was used for absorption correction.
wR2(int) was 0.0632 before and 0.0336 after correction.
The Ratio of minimum to maximum transmission is 0.7773.
The \l/2 correction factor is 0.0015.
;
_exptl_crystal_colour            yellow
_exptl_crystal_density_diffrn    1.416
_exptl_crystal_description       block
_exptl_crystal_F_000             256
_exptl_crystal_size_max          0.107
_exptl_crystal_size_mid          0.085
_exptl_crystal_size_min          0.028
_refine_diff_density_max         0.398
_refine_diff_density_min         -0.206
_refine_diff_density_rms         0.069
_refine_ls_extinction_method     none
_refine_ls_goodness_of_fit_ref   1.126
_refine_ls_hydrogen_treatment    refall
_refine_ls_matrix_type           full
_refine_ls_number_parameters     97
_refine_ls_number_reflns         946
_refine_ls_number_restraints     0
_refine_ls_restrained_S_all      1.126
_refine_ls_R_factor_all          0.0437
_refine_ls_R_factor_gt           0.0378
_refine_ls_shift/su_max          0.001
_refine_ls_shift/su_mean         0.000
_refine_ls_structure_factor_coef Fsqd
_refine_ls_weighting_details
'w=1/[\s^2^(Fo^2^)+(0.0611P)^2^+0.1304P] where P=(Fo^2^+2Fc^2^)/3'
_refine_ls_weighting_scheme      calc
_refine_ls_wR_factor_gt          0.0965
_refine_ls_wR_factor_ref         0.1005
_reflns_Friedel_coverage         0.000
_reflns_number_gt                826
_reflns_number_total             946
_reflns_threshold_expression     'I > 2\s(I)'
_cod_data_source_file            cm6b02007_si_001.cif
_cod_data_source_block           n3294
_cod_database_code               4003280
_shelxl_version_number           2013-4
_shelx_space_group_comment
;
The symmetry employed for this shelxl refinement is uniquely defined
by the following loop, which should always be used as a source of
symmetry information in preference to the above space-group names.
They are only intended as comments.
;
_shelx_estimated_absorpt_t_max   0.898
_shelx_estimated_absorpt_t_min   0.680
_olex2_refinement_description
;
;
_shelx_res_file
;
TITL n3294 in P2(1)/c
CELL 1.54178 10.5548 8.0291 6.8298 90 98.038 90
ZERR 2 0.0013 0.001 0.0009 0 0.008 0
LATT 1
SYMM -X,0.5+Y,0.5-Z

SFAC C H S
UNIT 28 24 4

L.S. 5
PLAN  20
SIZE 0.028 0.085 0.107
TEMP -173.16
REM Best SHELXD solution FINAL CC 86.94
REM Fragments: 8
fmap 2 53
ACTA
BOND $H
CONF
WPDB -2
REM <HKL>Y:/Amy/n3294/n3294.hkl</HKL>

WGHT    0.061100    0.130400
FVAR       0.35079
S1    3    0.798150    0.858965    0.156689    11.00000    0.03976    0.03124 =
         0.02018   -0.00621   -0.00236    0.00087
C2    1    0.635834    0.888644    0.145587    11.00000    0.03917    0.03629 =
         0.02362    0.00114   -0.00610   -0.00645
H2    2    0.581237    0.843592    0.043456    11.00000    0.04390
C3    1    0.604859    0.982621    0.298269    11.00000    0.02966    0.03901 =
         0.02671    0.00578    0.00004   -0.00233
H3    2    0.520227    1.009711    0.300369    11.00000    0.04931
C4    1    0.714978    1.030963    0.429050    11.00000    0.03076    0.02927 =
         0.02013    0.00335    0.00251    0.00038
C5    1    0.742993    1.130009    0.617295    11.00000    0.03422    0.05005 =
         0.02542   -0.00925    0.00422    0.00224
H5A   2    0.707673    1.084186    0.725402    11.00000    0.06211
H5B   2    0.713270    1.241149    0.592837    11.00000    0.05533
C6    1    0.889765    1.123014    0.667547    11.00000    0.03494    0.03405 =
         0.02077   -0.00640    0.00246    0.00355
H6A   2    0.927048    1.229363    0.674017    11.00000    0.02988
H6B   2    0.913731    1.070744    0.794536    11.00000    0.04254
C7    1    0.938732    1.019600    0.505305    11.00000    0.03171    0.02107 =
         0.01534    0.00152    0.00226    0.00148
C8    1    0.826406    0.974319    0.371392    11.00000    0.03268    0.02121 =
         0.01621    0.00142    0.00166   -0.00023
HKLF 4

REM  n3294 in P2(1)/c
REM R1 =  0.0378 for     826 Fo > 4sig(Fo)  and  0.0437 for all     946 data
REM     97 parameters refined using      0 restraints

END

WGHT      0.0611      0.1304

REM Highest difference peak  0.398,  deepest hole -0.206,  1-sigma level  0.069
Q1    1   0.8055  0.9747  0.1433  11.00000  0.05    0.40
Q2    1   0.8079  0.7339  0.1465  11.00000  0.05    0.39
Q3    1   0.7143  0.8445  0.1494  11.00000  0.05    0.37
Q4    1   0.8181  1.1583  0.6375  11.00000  0.05    0.28
Q5    1   0.7654  0.9602  0.4057  11.00000  0.05    0.23
Q6    1   0.6608  1.0259  0.3656  11.00000  0.05    0.23
Q7    1   0.8012  0.8731  0.3335  11.00000  0.05    0.21
Q8    1   0.7023  0.9608  0.1189  11.00000  0.05    0.21
Q9    1   0.9930  0.9622  0.5231  11.00000  0.05    0.21
Q10   1   0.7278  1.0947  0.3526  11.00000  0.05    0.21
Q11   1   0.6225  1.0043  0.1567  11.00000  0.05    0.21
Q12   1   0.8836  0.9797  0.4338  11.00000  0.05    0.21
Q13   1   0.7765  1.0479  0.3821  11.00000  0.05    0.20
Q14   1   0.8995  0.8600  0.2018  11.00000  0.05    0.20
Q15   1   0.7193  1.0449  0.6244  11.00000  0.05    0.17
Q16   1   0.9189  1.0852  0.5894  11.00000  0.05    0.17
Q17   1   0.7461  1.2870  0.5856  11.00000  0.05    0.16
Q18   1   0.7177  1.1753  0.6628  11.00000  0.05    0.16
Q19   1   0.6149  0.8842  0.2821  11.00000  0.05    0.15
Q20   1   0.6267  0.7804  0.1480  11.00000  0.05    0.15
;
_shelx_res_checksum              13018
_shelx_hkl_file
;
   0   0   1   -0.01    0.09
   0   0   2   72.90    2.77
   0   0   3   -0.29    0.20
   0   0   4  236.41    8.83
   0   0   5    0.00    0.34
   0   0   5    0.14    0.12
   0   0   6  121.61    3.06
   0   0   7    0.06    0.20
   0   0   7   -0.19    0.15
   0   1   0    0.01    0.07
   0  -1   0   -0.02    0.06
   0  -1   1  258.74    7.81
   0   1   2   45.29    1.82
   0  -1   2   48.42    1.82
   0   1   3   26.02    1.15
   0  -1   3   25.40    1.12
   0   1   4   27.40    1.29
   0  -1   4   27.43    1.27
   0   1   5    0.05    0.12
   0   1   5    0.14    0.15
   0   1   5    0.38    0.38
   0  -1   5    0.09    0.12
   0   1   6    2.00    0.21
   0  -1   6    1.95    0.18
   0  -1   6    2.12    0.24
   0  -1   7   10.45    0.46
   0  -1   7   10.98    0.40
   0  -2   1 1000.00   30.08
   0   2   3   29.61    1.31
   0   2   4    3.66    0.49
   0   2   5  204.37    5.82
   0   2   5  200.96    7.76
   0  -2   5  201.60    5.56
   0  -2   5  208.92    5.07
   0   2   6   -0.15    0.18
   0  -2   6    0.09    0.15
   0  -2   6    0.13    0.19
   0   2   7   13.34    0.52
   0  -2   7   13.49    0.46
   0  -2   7   13.32    0.50
   0  -3   3   67.26    1.99
   0   3   4    0.32    0.39
   0   3   4    0.62    0.21
   0  -3   4    0.43    0.17
   0  -3   4    0.52    0.13
   0  -3   4    0.51    0.20
   0   3   5   15.45    1.04
   0   3   5   14.25    0.57
   0  -3   5   14.33    0.48
   0  -3   5   13.66    0.52
   0   3   6    1.86    0.25
   0  -3   6    1.42    0.18
   0  -3   6    1.23    0.19
   0   3   7   17.92    0.64
   0  -3   7   18.61    0.56
   0  -4   2   52.35    1.57
   0  -4   3    3.78    0.34
   0   4   4  101.14    4.15
   0   4   4  106.55    3.02
   0  -4   4  100.65    2.61
   0  -4   4  106.58    3.06
   0   4   5    0.74    0.25
   0  -4   5    0.43    0.16
   0   4   6   43.44    1.33
   0  -4   6   42.58    1.15
   0   4   7    2.76    0.23
   0  -5   0   -0.03    0.18
   0  -5   1   46.51    1.41
   0  -5   2   52.13    1.58
   0   5   3    5.87    0.39
   0  -5   3    4.72    0.43
   0  -5   3    5.22    0.44
   0   5   4   44.08    2.24
   0   5   4   51.18    1.51
   0  -5   4   49.65    1.57
   0  -5   4   51.45    1.56
   0   5   5    0.57    0.25
   0   5   6    4.11    0.29
   0   5   6    4.42    0.39
   0  -6   0   73.82    2.24
   0  -6   0   76.91    2.28
   0   6   1   56.44    1.63
   0  -6   1   57.71    1.77
   0  -6   1   58.25    1.75
   0   6   2    0.41    0.21
   0  -6   2    0.10    0.22
   0  -6   2   -0.17    0.24
   0   6   3   14.69    0.66
   0  -6   3   17.27    0.70
   0  -6   3   17.25    0.72
   0   6   4    2.67    0.30
   0  -6   4    2.50    0.29
   0  -6   4    2.54    0.31
   0   6   5   35.97    1.20
   0   6   5   35.24    1.12
   0   6   6   10.68    0.47
   0   6   6   10.31    0.49
   0  -7   0   -0.19    0.23
   0  -7   0   -0.34    0.26
   0   7   1    0.49    0.26
   0  -7   1    0.03    0.23
   0  -7   1    0.51    0.29
   0  -7  -1    0.07    0.27
   0   7   2    1.58    0.27
   0  -7   2    1.65    0.30
   0  -7   2    1.79    0.28
   0  -7   3   23.25    0.90
   0  -7   3   23.89    0.89
   0   7   4    1.28    0.30
   0  -7   4    1.18    0.28
   0  -7   4    1.56    0.32
   0   7   5    0.49    0.25
   0   7   5    0.14    0.22
   0   8   0   88.07    2.37
   0  -8   0   86.67    2.58
   0  -8   0   79.21    2.54
   0   8   1   18.38    0.70
   0   8  -1   19.24    0.76
   0  -8   1   17.18    0.77
   0  -8   1   18.42    0.77
   0   8   2    3.30    0.29
   0  -8   2    2.90    0.32
   0  -8   2    3.02    0.31
   0  -8   3   -0.34    0.26
   0  -8   3    0.20    0.27
   0   8   4   13.41    0.69
   0  -8   4   15.53    0.62
   0   9   0    0.70    0.27
   0   9   1    0.74    0.25
   0   9  -1    0.73    0.26
   0  -9   1    0.31    0.26
   0   9  -2    4.46    0.29
   0  -9   2    3.83    0.31
  -1   0   7   -0.23    0.19
  -1   0   7    0.06    0.15
  -1   0   6  104.14    2.63
  -1   0   5   -0.52    0.32
  -1   0   5   -0.15    0.12
  -1   0   4  103.22    3.97
  -1   0   3    0.05    0.20
   1   0  -3   -0.33    0.17
  -1   0   2  209.82    6.59
  -1   0   2  224.12    8.03
  -1   0   1   -0.07    0.09
   1   0   0   97.37    3.52
  -1   0   0   94.90    3.51
   1   0   1   -0.18    0.12
   1   0   2  531.64   19.48
   1   0   3    0.19    0.23
   1   0   4  146.29    5.55
   1   0   5   -0.25    0.38
   1   0   5    0.11    0.11
   1   0   5   -0.04    0.15
   1   0   6    0.39    0.15
   1   0   7    0.14    0.20
  -1   1   7   28.27    0.78
  -1  -1   7   26.10    0.85
  -1  -1   7   28.16    0.78
  -1   1   6   34.08    0.94
  -1   1   6   33.76    1.07
  -1  -1   6   34.96    0.94
  -1  -1   6   34.22    1.03
  -1   1   5   24.10    0.83
  -1   1   5   28.14    1.31
  -1   1   5   25.61    0.73
  -1  -1   5   26.72    0.73
  -1   1   4   21.84    1.09
  -1  -1   4   22.63    1.07
  -1   1   3  131.33    4.93
  -1  -1   3  130.48    4.93
  -1   1   2   67.57    2.57
  -1  -1   2   70.15    2.57
  -1  -1   2   64.81    2.10
  -1   1   1  740.73   26.62
   1  -1   0   72.03    1.79
   1  -1   1  105.83    2.62
   1   1   2   11.42    0.59
   1  -1   2   11.43    0.57
   1   1   3    2.89    0.38
   1  -1   3    2.52    0.33
   1   1   4   18.33    1.00
   1  -1   4   18.79    0.99
   1   1   5   28.02    1.37
   1   1   5   26.38    0.87
   1  -1   5   27.38    0.76
   1   1   6   32.96    1.06
   1  -1   6   34.37    1.03
   1  -1   6   34.18    0.93
   1   1   7    2.68    0.25
   1  -1   7    2.04    0.18
   1  -1   7    2.71    0.24
  -1   2   7   61.19    1.87
  -1  -2   7   66.35    1.64
  -1   2   6    0.72    0.20
  -1  -2   6    0.60    0.16
  -1  -2   6    0.80    0.19
  -1   2   5    4.94    0.36
  -1   2   5    7.36    0.71
  -1  -2   5    6.38    0.30
  -1  -2   5    5.86    0.35
  -1   2   4    1.48    0.38
  -1  -2   4    1.36    0.19
  -1   2   3  297.43   11.03
  -1   2   2  448.19   16.64
  -1  -2   2  474.23   13.94
   1  -2  -1  629.18   15.53
  -1  -2   1  642.34   19.15
   1  -2   0   -0.16    0.13
   1  -2   1  194.45    4.79
   1   2   3  290.59   10.43
   1  -2   3  270.77    8.06
   1   2   4    5.32    0.56
   1   2   5   10.46    0.84
   1   2   5    9.73    0.45
   1  -2   5   10.19    0.38
   1  -2   5    9.81    0.43
   1   2   6    1.83    0.23
   1  -2   6    1.83    0.22
   1  -2   6    1.91    0.18
   1   2   7   19.20    0.67
   1  -2   7   19.17    0.64
   1  -2   7   20.09    0.59
  -1   3   7    0.53    0.20
  -1  -3   7    0.48    0.16
  -1   3   6   15.36    0.60
  -1  -3   6   14.95    0.51
  -1   3   5   35.96    1.11
  -1   3   5   33.39    1.71
  -1  -3   5   35.16    0.96
  -1   3   4   17.87    1.04
  -1  -3   4   17.74    0.64
  -1  -3   4   17.65    0.54
  -1   3   3   44.10    1.81
  -1  -3   3   41.37    1.29
  -1   3   2   34.41    1.46
  -1  -3   2   37.24    1.21
   1  -3  -1    4.61    0.28
  -1  -3   1    4.40    0.30
   1  -3   0   17.20    0.53
   1  -3   3   -0.13    0.17
   1   3   4   14.21    0.93
   1   3   4   13.82    0.53
   1  -3   4   13.62    0.49
   1  -3   4   13.70    0.45
   1   3   5   33.77    1.06
   1   3   5   32.31    1.64
   1  -3   5   32.95    1.00
   1  -3   5   33.94    0.92
   1   3   6    7.56    0.43
   1  -3   6    7.24    0.38
   1  -3   6    6.99    0.37
   1   3   7   48.64    1.45
  -1   4   7    6.60    0.37
  -1   4   6   26.43    0.89
  -1  -4   6   27.10    0.77
  -1   4   5    0.02    0.24
  -1  -4   5    0.07    0.15
  -1   4   4   21.09    1.22
  -1   4   4   20.58    0.72
  -1  -4   4   20.58    0.76
  -1  -4   4   19.03    0.60
  -1  -4   3   45.41    1.39
  -1  -4   2  651.52   18.64
  -1  -4   1    6.05    0.38
   1  -4   2  165.44    4.78
   1  -4   3   18.00    0.65
   1   4   4   74.06    2.10
   1   4   4   67.59    2.97
   1  -4   4   72.84    2.15
   1  -4   4   69.72    1.83
   1   4   5    5.28    0.40
   1  -4   5    4.60    0.33
   1   4   6   12.37    0.57
   1   4   6   12.60    0.54
   1   4   7    1.92    0.21
  -1   5   6   10.20    0.48
  -1   5   5    2.12    0.28
  -1  -5   5    1.47    0.19
  -1   5   4    4.61    0.43
  -1   5   4    4.44    0.71
  -1  -5   4    3.82    0.31
  -1  -5   4    4.89    0.36
  -1  -5   4    4.97    0.34
  -1  -5   3   19.58    0.75
  -1  -5   3   20.38    0.74
  -1  -5   2    0.70    0.20
  -1  -5   1    7.50    0.40
   1  -5   0   50.89    1.53
   1  -5   1    0.39    0.19
   1   5   2    5.88    0.37
   1  -5   2    5.83    0.39
   1  -5   2    6.32    0.40
   1   5   3    9.70    0.48
   1  -5   3   10.01    0.50
   1  -5   3   10.56    0.53
   1   5   4    6.28    0.42
   1  -5   4    6.02    0.53
   1  -5   4    6.25    0.50
   1   5   5    3.51    0.34
   1   5   5    4.02    0.31
   1   5   6   27.24    0.93
   1   5   6   27.28    0.89
  -1   6   6    3.91    0.38
  -1   6   6    4.48    0.37
  -1   6   5    1.26    0.28
  -1   6   4    3.24    0.33
  -1  -6   4    2.85    0.34
  -1  -6   4    2.99    0.31
  -1   6   3  152.53    4.33
  -1  -6   3  150.03    4.40
  -1  -6   3  149.02    4.48
  -1   6   2    0.28    0.21
  -1  -6   2    0.08    0.25
  -1  -6   2    0.41    0.23
  -1  -6   1   47.84    1.49
  -1  -6   1   47.86    1.50
   1  -6   0    4.91    0.40
  -1  -6   0    4.37    0.28
   1  -6   0    4.12    0.40
  -1  -6   0    4.40    0.31
   1   6   1    9.78    0.51
   1  -6   1   11.64    0.55
   1  -6   1   10.66    0.50
   1   6   2    6.96    0.43
   1  -6   2    7.26    0.49
   1  -6   2    6.97    0.46
   1  -6   3   86.86    2.62
   1  -6   3   85.88    2.59
   1   6   4    7.94    0.45
   1   6   4    7.99    0.56
   1  -6   4    8.16    0.59
   1  -6   4    7.60    0.52
   1   6   5    2.61    0.30
   1   6   5    2.24    0.27
   1   6   6    2.38    0.22
   1   6   6    2.66    0.28
  -1   7   5   20.72    0.76
  -1   7   5   19.35    0.69
  -1   7   4    5.85    0.41
  -1  -7   4    6.64    0.54
  -1  -7   4    5.99    0.54
  -1  -7   3   10.36    0.61
  -1  -7   3    9.90    0.60
  -1   7   2    3.31    0.29
  -1  -7   2    3.01    0.31
  -1  -7   2    2.78    0.32
  -1   7   1   37.30    1.16
  -1  -7   1   38.34    1.26
  -1  -7   1   38.73    1.25
   1   7   0    0.14    0.29
   1  -7   0    0.11    0.23
   1  -7   0   -0.16    0.27
  -1  -7   0    0.03    0.27
  -1  -7   0   -0.16    0.25
   1   7   1   26.93    0.89
  -1  -7  -1   27.80    0.98
   1  -7   1   27.29    0.96
   1  -7   1   27.55    0.97
   1   7   2    7.33    0.48
   1  -7   2    9.32    0.55
   1  -7   2    8.35    0.57
   1   7   3    3.52    0.31
   1  -7   3    3.03    0.34
   1  -7   3    2.55    0.31
   1   7   4    2.95    0.32
   1  -7   4    2.21    0.30
   1   7   5   19.40    0.73
  -1   8   4    2.45    0.36
  -1  -8   4    3.22    0.28
   1   8  -3    0.34    0.23
  -1  -8   3    0.09    0.27
  -1  -8   3    0.16    0.29
   1   8  -2   18.40    0.71
  -1   8   2   18.61    0.70
  -1  -8   2   19.28    0.77
  -1  -8   2   19.11    0.79
   1   8  -1   16.10    0.68
  -1   8   1   15.89    0.65
  -1  -8   1   15.08    0.72
  -1  -8   1   15.80    0.69
   1   8   0    4.08    0.33
  -1  -8   0    3.09    0.34
  -1  -8   0    3.48    0.35
   1   8   1    1.61    0.29
   1  -8   1    1.33    0.28
  -1  -8  -1    1.24    0.31
   1  -8   2   31.50    1.04
   1  -8   2   27.89    1.03
   1  -8   3    6.89    0.54
   1  -8   3    7.25    0.52
   1  -8   4    5.31    0.44
   1   9  -2    8.46    0.47
  -1  -9   2    7.69    0.54
  -1   9   1    0.46    0.26
   1   9  -1    0.87    0.25
  -1  -9   1    0.36    0.25
  -1   9   0   13.26    0.59
   1   9   0   13.32    0.59
  -1   9  -1    2.26    0.29
   1  -9   1    2.47    0.28
  -1   9  -2   10.94    0.55
   1  -9   2   10.29    0.59
  -2   0   8    5.69    0.32
  -2   0   7    0.11    0.15
  -2   0   6   30.08    0.85
  -2   0   5    0.19    0.34
  -2   0   5    0.00    0.13
  -2   0   4  491.87   18.13
  -2   0   3    0.03    0.15
  -2   0   3    0.01    0.18
  -2   0   2   13.53    0.62
   2   0  -2   15.00    0.66
  -2   0   2   14.02    0.52
   2   0  -1   -0.10    0.16
  -2   0   1   -0.07    0.10
   2   0   0  821.61   29.51
   2   0   1   -0.13    0.15
   2   0   2  123.79    4.62
   2   0   3    0.00    0.25
   2   0   4   57.51    2.34
   2   0   5    0.16    0.17
   2   0   5    0.36    0.41
   2   0   6    0.99    0.24
   2   0   6    0.93    0.21
   2   0   7   -0.06    0.20
  -2   1   7    4.91    0.30
  -2  -1   7    5.21    0.30
  -2   1   6    1.65    0.18
  -2  -1   6    1.37    0.18
  -2   1   5   14.13    0.46
  -2   1   5   13.25    0.52
  -2   1   5   14.15    0.89
  -2  -1   5   14.95    0.47
  -2   1   4   17.73    0.92
  -2   1   3    0.50    0.23
  -2  -1   3    0.17    0.18
  -2   1   2   36.59    1.42
  -2   1   2   34.62    1.14
  -2  -1   2   36.45    1.17
  -2   1   1   42.49    1.60
   2  -1  -1   40.41    1.10
   2  -1   0    1.77    0.21
   2  -1   1   39.18    1.05
   2   1   2   38.40    1.54
   2  -1   2   38.22    1.52
   2   1   3   32.57    1.40
   2  -1   3   31.43    1.37
   2   1   4   58.67    2.43
   2  -1   4   59.99    2.43
   2   1   5   78.10    2.27
   2   1   5   76.39    3.14
   2  -1   5   77.90    2.17
   2  -1   5   77.97    1.98
   2   1   6    0.39    0.19
   2  -1   6   -0.01    0.22
   2  -1   6   -0.19    0.15
   2   1   7   29.93    0.92
   2   1   7   29.09    0.94
   2  -1   7   30.79    0.91
  -2  -2   7    1.24    0.18
  -2   2   6   -0.05    0.16
  -2   2   6   -0.09    0.19
  -2  -2   6   -0.18    0.14
  -2   2   5  148.85    3.81
  -2   2   5  149.89    4.38
  -2   2   5  156.97    5.89
  -2  -2   5  156.08    3.82
  -2   2   4    6.57    0.61
  -2  -2   4    5.48    0.36
  -2   2   3  109.16    4.09
  -2  -2   3  105.33    3.36
  -2   2   2    0.69    0.23
  -2  -2   2    0.76    0.19
  -2   2   1  141.60    5.13
   2  -2  -1  138.16    3.48
   2  -2   0    1.57    0.18
   2  -2   1  269.62    6.64
   2  -2   2    7.95    0.40
   2   2   3    5.76    0.59
   2   2   4   13.09    0.50
   2   2   4   13.71    0.87
   2  -2   4   13.19    0.43
   2  -2   4   12.81    0.48
   2   2   5   27.56    1.40
   2   2   5   27.37    0.91
   2  -2   5   28.39    0.79
   2  -2   5   28.35    0.86
   2   2   6   51.94    1.59
   2  -2   6   52.25    1.52
   2  -2   6   54.47    1.39
   2   2   7    9.89    0.46
   2   2   7   10.81    0.45
   2  -2   7   10.16    0.42
  -2   3   7   19.36    0.67
  -2  -3   7   19.03    0.58
  -2   3   6    2.29    0.26
  -2  -3   6    2.08    0.19
  -2   3   5    1.44    0.24
  -2   3   5    0.31    0.46
  -2  -3   5    0.85    0.15
  -2   3   4    0.01    0.22
  -2   3   4    0.63    0.38
  -2  -3   4    0.29    0.13
  -2  -3   4    0.57    0.19
  -2   3   3  130.73    4.84
  -2  -3   3  128.86    3.96
  -2  -3   3  121.16    3.68
  -2  -3   2    4.43    0.37
   2  -3  -1   65.14    1.68
   2  -3   0    7.47    0.37
   2  -3   1    0.17    0.19
   2   3   3   54.51    2.26
   2  -3   3   55.73    1.66
   2   3   4    6.78    0.37
   2   3   4    6.02    0.72
   2  -3   4    6.81    0.32
   2  -3   4    7.07    0.36
   2   3   5    0.51    0.23
   2   3   5    0.55    0.24
   2  -3   5    0.64    0.21
   2  -3   5    0.51    0.16
   2   3   6    0.63    0.23
   2  -3   6    0.53    0.19
   2   3   7   -0.05    0.19
  -2   4   7   -0.18    0.19
  -2  -4   7   -0.19    0.15
  -2   4   6    8.06    0.47
  -2  -4   6    9.03    0.38
  -2   4   5    1.34    0.26
  -2  -4   5    0.69    0.17
  -2   4   4   40.68    1.87
  -2  -4   4   38.76    1.07
  -2  -4   4   41.05    1.27
  -2  -4   4   39.71    1.30
  -2  -4   3   30.14    0.97
  -2  -4   2    2.68    0.31
  -2  -4   2    2.45    0.21
  -2  -4   1    1.07    0.22
  -2  -4   1    0.62    0.17
   2  -4  -1    0.65    0.19
   2  -4   0  109.83    2.78
   2   4   3    6.57    0.37
   2  -4   3    6.96    0.43
   2   4   4    0.10    0.20
   2   4   4    0.25    0.45
   2   4   5    5.17    0.41
   2   4   5    5.00    0.46
   2   4   6   76.40    2.18
   2   4   6   71.91    2.26
  -2   5   6   23.16    0.80
  -2   5   5    0.21    0.26
  -2  -5   5   -0.13    0.17
  -2   5   4   44.51    2.22
  -2  -5   4   49.96    1.53
  -2  -5   4   50.02    1.55
  -2  -5   3   14.15    0.63
  -2  -5   3   14.74    0.62
  -2  -5   2   42.04    1.29
  -2  -5   2   40.53    1.31
  -2  -5   1   -0.14    0.18
   2  -5   1    1.89    0.21
   2   5   2    8.34    0.43
   2  -5   2    8.43    0.46
   2  -5   2    8.24    0.45
   2   5   3    1.89    0.24
   2  -5   3    1.82    0.27
   2  -5   3    2.20    0.24
   2   5   4   29.43    1.01
   2   5   4   29.54    0.94
   2  -5   4   26.49    0.99
   2   5   5   17.83    0.73
   2   5   5   17.79    0.67
   2   5   6    0.39    0.19
   2   5   6    0.62    0.22
  -2   6   6    2.94    0.26
  -2   6   5    3.12    0.31
  -2   6   4   41.84    1.31
  -2  -6   4   42.31    1.37
  -2  -6   4   40.59    1.37
  -2  -6   3   59.63    1.83
  -2  -6   3   58.73    1.86
  -2  -6   2    1.40    0.25
  -2  -6   2    0.47    0.26
  -2  -6   1    8.80    0.51
  -2  -6   1   10.36    0.53
   2   6   0   12.13    0.54
   2  -6   0   11.37    0.54
  -2  -6   0   11.94    0.55
  -2  -6   0   12.36    0.58
   2   6   1   56.34    1.58
   2  -6   1   55.31    1.72
   2  -6   1   56.03    1.71
   2   6   2   22.13    0.81
   2   6   2   22.10    0.73
   2  -6   2   22.34    0.80
   2  -6   2   21.38    0.81
   2   6   3    2.34    0.29
   2  -6   3    2.32    0.31
   2  -6   3    2.28    0.28
   2   6   4    1.56    0.29
   2   6   4    1.25    0.24
   2  -6   4    0.94    0.26
   2   6   5   15.75    0.66
   2   6   5   14.81    0.58
  -2   7   5    0.26    0.23
  -2   7   4   18.47    0.68
  -2  -7   4   18.84    0.76
  -2  -7   4   17.73    0.78
   2   7  -3    7.71    0.50
  -2  -7   3    7.35    0.56
  -2  -7   3    8.69    0.59
   2   7  -2    0.85    0.28
  -2  -7   2    0.74    0.30
  -2  -7   2    1.14    0.28
  -2   7   1   18.90    0.73
   2   7  -1   20.32    0.73
  -2  -7   1   18.97    0.80
  -2  -7   1   19.19    0.77
   2   7   0    5.16    0.34
  -2  -7   0    4.92    0.38
  -2  -7   0    5.31    0.50
   2  -7   0    5.65    0.47
   2   7   1    1.44    0.27
   2  -7   1    1.06    0.26
  -2  -7  -1    1.13    0.32
   2   7   2    0.68    0.26
   2  -7   2    0.41    0.28
   2  -7   2    0.54    0.27
   2   7   3   24.46    0.90
   2  -7   3   23.77    0.92
   2  -7   3   25.18    0.91
   2   7   4    3.80    0.30
   2  -7   4    3.59    0.30
   2   7   5   25.50    0.88
  -2  -8   4   32.84    1.09
  -2  -8   3    2.18    0.28
  -2  -8   3    1.63    0.30
   2   8  -2    1.48    0.24
  -2  -8   2    1.02    0.31
  -2  -8   2    0.76    0.27
   2   8  -1    2.80    0.29
  -2   8   1    2.55    0.31
  -2  -8   1    2.06    0.30
  -2  -8   1    2.15    0.35
   2   8   0   10.95    0.57
  -2   8   0   12.04    0.64
  -2  -8   0   10.74    0.65
   2  -8   0   10.16    0.59
   2   8   1   17.08    0.68
   2  -8   1   17.61    0.73
  -2  -8  -1   17.07    0.75
  -2  -8  -2   10.38    0.62
   2  -8   2   11.88    0.61
   2  -8   3    2.58    0.30
   2   9  -2   12.88    0.56
  -2  -9   2   13.28    0.67
  -2   9   1    2.61    0.27
   2   9  -1    2.65    0.25
  -2  -9   1    2.43    0.29
   2   9   0    5.05    0.42
  -2   9   0    5.40    0.47
  -2   9  -1    5.89    0.49
   2  -9   1    4.86    0.33
  -3   0   7   -0.23    0.14
  -3   0   6   61.61    1.60
  -3   0   5    0.02    0.15
  -3   0   5    0.33    0.31
  -3   0   4    4.13    0.44
  -3   0   3    0.10    0.17
  -3   0   3   -0.01    0.18
  -3   0   2  163.40    6.19
   3   0  -2  171.78    6.14
   3   0  -1   -0.14    0.19
   3   0   0   56.81    2.12
   3   0   1    0.14    0.17
   3   0   1    0.32    0.25
   3   0   2    1.80    0.27
   3   0   3   -0.16    0.27
   3   0   4  189.04    7.06
   3   0   4  186.09    5.35
   3   0   5   -0.22    0.43
   3   0   5   -0.29    0.19
   3   0   6   16.02    0.60
   3   0   6   14.41    0.59
   3   0   7    0.02    0.19
  -3   1   7    7.80    0.35
  -3  -1   7    7.27    0.34
  -3   1   6   18.18    0.58
  -3  -1   6   17.93    0.57
  -3   1   5   17.62    0.55
  -3   1   5   18.34    0.99
  -3   1   5   16.95    0.68
  -3  -1   5   17.41    0.55
  -3   1   4   21.34    1.01
  -3   1   3    6.86    0.44
  -3   1   3    6.20    0.35
  -3  -1   3    6.19    0.40
  -3   1   2    0.28    0.15
   3  -1  -2    0.60    0.23
  -3   1   1    6.15    0.47
   3  -1  -1    6.11    0.42
  -3   1   0   18.93    0.82
   3  -1   0   18.21    0.63
   3  -1   1   30.43    0.88
   3   1   2   77.82    2.81
   3  -1   2   68.27    2.77
   3   1   3   19.78    0.97
   3  -1   3   19.30    0.95
   3   1   4    3.42    0.30
   3   1   4    3.10    0.45
   3  -1   4    3.64    0.32
   3  -1   4    2.44    0.22
   3   1   5    0.10    0.40
   3   1   5    0.77    0.20
   3  -1   5    1.15    0.23
   3  -1   5    0.68    0.15
   3  -1   5    0.57    0.20
   3   1   6   29.46    0.93
   3   1   6   28.85    0.96
   3  -1   6   30.56    0.93
   3   1   7    3.81    0.34
   3   1   7    4.05    0.31
   3  -1   7    3.92    0.25
  -3   2   7   16.22    0.52
  -3  -2   7   17.01    0.53
  -3   2   6    4.72    0.32
  -3   2   6    3.76    0.36
  -3  -2   6    4.06    0.30
  -3   2   5   52.51    1.66
  -3   2   5   52.02    2.21
  -3   2   5   50.25    1.56
  -3   2   5   53.85    1.37
  -3  -2   5   52.68    1.37
  -3   2   4    1.34    0.36
  -3   2   3   10.81    0.64
  -3  -2   3   12.14    0.57
  -3   2   2    1.54    0.23
   3  -2  -2    1.71    0.23
  -3   2   1  174.22    6.37
   3  -2  -1  172.83    4.32
   3  -2   0   14.99    0.56
   3  -2   1   15.47    0.56
   3  -2   2   13.72    0.54
   3   2   3   58.31    2.37
   3   2   4   28.44    1.37
   3   2   4   28.71    0.91
   3   2   4   26.57    0.95
   3  -2   4   29.01    0.86
   3  -2   4   28.82    0.79
   3   2   5   15.16    1.05
   3   2   5   17.51    0.65
   3  -2   5   18.27    0.62
   3  -2   5   17.13    0.55
   3   2   6   -0.20    0.23
   3  -2   6    0.14    0.22
   3   2   7    2.35    0.21
   3   2   7    2.12    0.21
  -3   3   7   -0.02    0.21
  -3  -3   7   -0.02    0.15
  -3   3   6   11.13    0.52
  -3  -3   6   10.93    0.42
  -3   3   5   19.38    0.61
  -3   3   5   19.73    0.70
  -3   3   5   19.43    1.16
  -3  -3   5   19.84    0.60
  -3   3   4    2.26    0.19
  -3   3   4    2.26    0.27
  -3   3   4    2.36    0.45
  -3  -3   4    1.97    0.22
  -3  -3   4    1.95    0.17
  -3   3   3    8.46    0.64
  -3  -3   3    8.62    0.54
  -3  -3   3    8.08    0.42
   3  -3  -2    4.60    0.35
  -3  -3   2    4.86    0.40
   3  -3  -1   18.47    0.62
   3  -3   0    0.16    0.21
   3  -3   1   81.38    2.11
   3  -3   2    0.31    0.18
   3  -3   2    0.35    0.22
   3   3   3  127.14    4.01
   3   3   3  137.35    5.15
   3  -3   3  138.63    3.68
   3   3   4    1.55    0.23
   3   3   4    2.18    0.25
   3   3   4    1.51    0.47
   3  -3   4    1.81    0.21
   3   3   5   33.24    1.04
   3   3   5   30.82    1.08
   3  -3   5   32.64    0.98
   3   3   6    8.98    0.47
   3   3   7   49.49    1.41
   3   3   7   45.62    1.35
  -3   4   7   17.41    0.61
  -3  -4   7   17.05    0.53
  -3   4   6   46.91    1.41
  -3  -4   6   44.94    1.22
  -3   4   5    0.81    0.25
  -3  -4   5    0.88    0.18
  -3   4   4    5.57    0.45
  -3  -4   4    6.02    0.43
  -3  -4   4    5.26    0.32
  -3  -4   4    5.31    0.47
  -3   4   3    8.83    0.51
  -3   4   3    9.66    0.76
  -3  -4   3   10.20    0.48
  -3  -4   3   10.89    0.60
  -3  -4   2   38.12    1.29
  -3  -4   2   35.30    1.14
   3  -4  -1   10.25    0.46
   3  -4   0   50.72    1.39
   3  -4   1    0.32    0.23
   3   4   2    9.31    0.44
   3  -4   2    8.56    0.44
   3   4   3    0.22    0.20
   3   4   3   -0.10    0.40
   3   4   3    0.15    0.20
   3  -4   3    0.01    0.21
   3   4   4    0.63    0.25
   3   4   4    0.26    0.23
   3   4   4   -0.23    0.44
   3   4   5    9.32    0.48
   3   4   5    8.77    0.52
   3   4   6    1.49    0.25
   3   4   6    1.44    0.21
  -3   5   6   -0.02    0.24
  -3   5   5    0.26    0.25
  -3  -5   5   -0.04    0.30
  -3  -5   4   25.31    0.93
  -3  -5   4   25.60    0.92
  -3  -5   3    1.55    0.25
  -3  -5   3    1.63    0.26
  -3  -5   2    8.52    0.48
  -3  -5   2    8.55    0.48
  -3  -5   1    5.24    0.40
   3   5   1    0.99    0.21
   3   5   1    1.34    0.23
   3  -5   1    0.95    0.23
   3   5   2  100.38    2.97
   3  -5   2   94.45    2.89
   3  -5   2  100.43    2.95
   3   5   3   11.29    0.56
   3  -5   3   11.19    0.54
   3  -5   3   10.82    0.59
   3   5   4    0.13    0.23
   3   5   4    0.37    0.27
   3   5   5    8.27    0.44
   3   5   5    7.40    0.49
   3   5   6   18.61    0.67
   3   5   6   19.69    0.66
  -3   6   6    4.61    0.36
  -3   6   5    9.76    0.51
  -3  -6   4   -0.10    0.29
  -3  -6   4   -0.57    0.27
  -3  -6   3    5.12    0.37
  -3  -6   3    6.80    0.54
   3   6  -2   24.65    0.84
  -3  -6   2   25.66    0.93
  -3  -6   2   26.02    0.92
   3   6  -1   17.66    0.66
  -3  -6   1   17.91    0.74
  -3  -6   1   18.35    0.71
   3   6   0   13.50    0.57
  -3  -6   0   14.18    0.65
  -3  -6   0   14.08    0.62
   3  -6   0   13.72    0.60
   3   6   1    0.46    0.24
   3  -6   1    0.10    0.23
   3   6   2    0.53    0.26
   3  -6   2    0.95    0.25
   3   6   3   -0.09    0.27
   3  -6   3    0.16    0.25
   3   6   4   49.24    1.50
   3  -6   4   44.00    1.47
   3   6   5    5.79    0.43
   3   6   5    5.75    0.37
  -3   7   5   19.01    0.66
  -3  -7   5   16.58    0.70
  -3   7   4    1.78    0.28
  -3  -7   4    1.24    0.30
  -3  -7   4    1.18    0.29
  -3  -7   3   15.58    0.71
  -3  -7   3   16.31    0.75
   3   7  -2    0.19    0.24
  -3  -7   2    0.32    0.27
  -3  -7   2   -0.46    0.30
   3   7  -1    0.13    0.25
  -3  -7   1    0.08    0.29
  -3  -7   1   -0.31    0.26
   3   7   0    0.06    0.26
  -3  -7   0    0.16    0.27
  -3  -7   0    0.08    0.31
   3  -7   0    0.17    0.23
   3   7   1   25.21    0.83
   3  -7   1   24.58    0.89
  -3  -7  -1   24.13    0.95
   3   7   2    4.89    0.45
   3  -7   2    4.53    0.34
   3   7   3    5.46    0.47
   3  -7   3    5.83    0.52
   3   7   4    5.18    0.43
   3  -7   4    4.70    0.44
  -3  -8   4    1.56    0.27
  -3  -8   3    2.16    0.30
  -3  -8   3    2.44    0.29
   3   8  -2    8.32    0.47
  -3  -8   2    8.45    0.55
  -3  -8   2    9.49    0.60
   3   8  -1   29.07    0.91
  -3   8   1   26.65    0.94
  -3  -8   1   29.88    1.02
  -3  -8   1   29.17    1.06
   3   8   0    5.59    0.46
   3  -8   0    5.20    0.51
  -3  -8   0    6.14    0.59
   3  -8   1    5.68    0.36
  -3  -8  -1    5.55    0.39
   3  -8   2    0.55    0.26
  -3  -8  -2    0.13    0.30
   3  -8   3   34.88    1.15
  -3  -9   1   -0.36    0.36
  -3   9   0    6.21    0.44
  -3   9  -1    2.34    0.28
   3  -9   1    2.29    0.33
  -4   0   7   -0.09    0.15
  -4   0   6    7.19    0.37
  -4   0   5   -0.42    0.16
  -4   0   4   12.97    0.62
  -4   0   3   -0.09    0.18
   4   0  -1    0.03    0.22
   4   0   1   -0.09    0.28
   4   0   4    0.48    0.20
   4   0   5    0.30    0.21
   4   0   5    0.29    0.23
   4   0   6    1.16    0.24
   4   0   6    0.55    0.21
   4   0   7   -0.15    0.17
  -4   1   7    6.47    0.33
  -4  -1   7    6.17    0.32
  -4   1   6   13.86    0.49
  -4  -1   6   13.62    0.49
  -4   1   5    9.27    0.39
  -4   1   5    8.47    0.49
  -4  -1   5    8.80    0.38
  -4  -1   4    3.07    0.36
  -4   1   3   19.51    0.73
  -4  -1   3   19.35    0.77
   4  -1  -2   17.88    0.68
   4   1  -1  114.47    4.33
   4  -1  -1  119.60    2.98
  -4   1   0  265.93    9.61
   4   1   0  257.56    9.59
   4  -1   0  271.31    6.57
   4  -1   1  214.78    5.34
   4   1   2    5.36    0.48
   4  -1   2    6.44    0.43
   4   1   3   16.72    0.88
   4   1   4   57.76    1.71
   4  -1   4   56.40    1.70
   4  -1   4   58.07    1.63
   4   1   5  108.54    3.15
   4  -1   5  105.53    3.14
   4  -1   5  111.37    3.01
   4   1   6   35.91    1.13
   4   1   6   35.85    1.08
   4  -1   6   35.81    1.08
   4   1   7    2.17    0.20
   4   1   7    1.64    0.19
   4  -1   7    1.76    0.18
  -4   2   7   20.95    0.62
  -4  -2   7   20.86    0.62
  -4   2   6    0.28    0.17
  -4   2   6    0.68    0.26
  -4  -2   6    0.43    0.17
  -4   2   5    4.97    0.33
  -4   2   5    5.21    0.44
  -4  -2   5    4.90    0.31
  -4   2   4   20.34    0.77
  -4   2   4   20.30    0.62
  -4  -2   4   21.06    0.89
  -4  -2   3   67.91    2.21
   4  -2  -2    0.40    0.23
   4  -2  -1   14.18    0.57
   4  -2   0   16.42    0.64
  -4   2  -1    0.31    0.26
   4  -2   1    1.02    0.27
   4   2   2   53.45    2.17
   4  -2   2   55.61    1.48
   4   2   3   33.16    1.48
   4   2   4    8.11    0.47
   4   2   4    7.56    0.76
   4   2   4    8.45    0.42
   4  -2   4    8.49    0.41
   4  -2   4    8.37    0.42
   4   2   5    0.23    0.24
   4  -2   5    0.33    0.23
   4   2   6    7.11    0.41
   4   2   6    7.20    0.44
   4  -2   6    7.24    0.39
  -4  -3   7   12.61    0.45
  -4   3   6    0.80    0.19
  -4   3   6    1.06    0.26
  -4  -3   6    0.98    0.18
  -4   3   5    9.38    0.53
  -4   3   5    8.81    0.40
  -4  -3   5    8.72    0.38
  -4   3   4    2.58    0.30
  -4   3   4    2.60    0.21
  -4  -3   4    2.21    0.40
  -4  -3   4    2.39    0.18
  -4  -3   3    3.24    0.38
  -4  -3   2    2.39    0.22
   4  -3  -2    2.64    0.26
   4  -3  -1   33.85    0.99
   4  -3   0  106.24    2.73
   4  -3   1   25.88    0.84
   4  -3   2   -0.19    0.25
   4   3   3    5.62    0.66
   4   3   3    5.35    0.40
   4  -3   3    5.63    0.32
   4   3   4   13.17    0.53
   4   3   4   10.81    0.92
   4   3   4   12.38    0.58
   4  -3   4   13.41    0.49
   4   3   5   24.30    0.89
   4   3   5   26.33    0.87
   4   3   6   17.04    0.64
  -4   4   7    0.89    0.20
  -4  -4   7    1.00    0.16
  -4   4   6    3.44    0.32
  -4  -4   6    3.11    0.23
  -4   4   5    3.19    0.23
  -4  -4   5    2.80    0.23
  -4   4   4   42.40    1.41
  -4   4   4   43.37    1.15
  -4  -4   4   41.88    1.39
  -4  -4   4   42.88    1.36
  -4   4   3   12.75    0.63
  -4   4   3   14.01    0.50
  -4  -4   3   14.41    0.59
  -4  -4   3   14.36    0.76
  -4  -4   3   14.07    0.61
   4  -4  -2   35.25    1.07
  -4  -4   2   35.89    1.29
  -4  -4   2   35.40    1.12
   4  -4  -1    2.69    0.28
   4  -4   0    3.88    0.33
   4   4   2   75.55    2.25
   4  -4   2   71.76    2.24
   4   4   3    2.84    0.26
   4   4   3    2.86    0.51
   4   4   3    3.25    0.28
   4  -4   3    2.66    0.26
   4   4   4   15.45    0.62
   4   4   4   16.83    0.68
   4   4   5    0.26    0.24
   4   4   5   -0.06    0.22
   4   4   6    6.00    0.38
  -4   5   6   18.56    0.68
  -4   5   5   -0.10    0.26
  -4  -5   4    1.06    0.29
  -4  -5   4    0.76    0.28
  -4   5   3    6.05    0.41
  -4   5   3    5.58    0.48
  -4  -5   3    5.65    0.50
  -4  -5   3    4.92    0.49
  -4  -5   3    5.90    0.49
  -4  -5   2   15.77    0.65
  -4  -5   2   15.77    0.66
   4   5  -1    0.38    0.20
  -4  -5   1    0.10    0.22
  -4  -5   1    0.13    0.21
   4  -5  -1   -0.06    0.23
   4   5   0    6.53    0.40
   4  -5   0    6.18    0.47
  -4  -5   0    6.03    0.44
   4   5   1    1.54    0.23
   4   5   1    1.51    0.24
   4  -5   1    1.52    0.25
   4   5   2   17.72    0.69
   4  -5   2   16.98    0.70
   4   5   3    0.51    0.26
   4  -5   3    0.20    0.24
   4   5   4   41.33    1.35
   4   5   5    0.60    0.22
   4   5   5    0.46    0.23
  -4   6   5   -0.37    0.26
  -4  -6   5    0.26    0.27
  -4  -6   4    8.69    0.60
  -4  -6   4    9.04    0.60
  -4  -6   3   28.51    1.02
  -4  -6   3   27.91    1.01
  -4  -6   2    6.67    0.51
  -4  -6   2    6.37    0.54
   4   6  -1   15.68    0.61
  -4  -6   1   17.10    0.73
  -4  -6   1   15.83    0.68
   4  -6  -1   15.88    0.66
   4   6   0    2.54    0.27
   4  -6   0    2.72    0.27
  -4  -6   0    2.41    0.28
   4   6   1   58.28    1.83
   4  -6   1   58.86    1.82
   4   6   2    5.37    0.47
   4  -6   2    4.94    0.35
   4   6   3    4.67    0.33
   4  -6   3    4.21    0.31
   4   6   4    0.17    0.24
   4  -6   4    0.31    0.22
   4   6   5    0.42    0.20
  -4   7   5    7.93    0.48
  -4   7   4    0.03    0.26
  -4  -7   4    0.14    0.27
  -4  -7   4   -0.40    0.27
  -4  -7   3    2.76    0.34
  -4  -7   3    2.62    0.31
   4   7  -2    0.51    0.25
  -4  -7   2    0.50    0.28
  -4  -7   2    0.61    0.33
   4   7  -1   41.03    1.23
  -4  -7   1   42.28    1.38
  -4  -7   1   41.76    1.38
   4   7   0   12.03    0.55
   4  -7   0   11.14    0.59
  -4  -7   0   11.94    0.70
   4  -7   1   20.59    0.79
  -4  -7  -1   19.93    0.86
   4   7   2   14.06    0.63
   4  -7   2   14.26    0.65
   4   7   3   13.46    0.61
   4  -7   3   13.95    0.64
   4   7   4    0.73    0.22
   4  -7   4    0.23    0.20
  -4  -8   3    9.23    0.56
  -4  -8   2    4.87    0.37
  -4  -8   2    5.70    0.52
  -4  -8   1    3.00    0.36
  -4  -8   1    2.28    0.32
  -4  -8   0    0.60    0.32
   4  -8   0    0.07    0.25
  -4  -8  -1    0.17    0.30
   4  -8   1   -0.30    0.26
   4  -8   2    0.81    0.26
  -5   0   7   -0.11    0.14
  -5   0   6   65.54    1.71
  -5   0   5    0.07    0.17
  -5   0   4   48.54    1.68
  -5   0   4   49.02    1.28
  -5   0   3   -0.09    0.20
   5   0   0   80.54    2.13
   5   0   1   -0.12    0.30
   5   0   3    0.50    0.21
   5   0   4   34.01    1.07
   5   0   4   33.04    1.02
   5   0   5   -0.11    0.24
   5   0   5   -0.18    0.22
   5   0   6   24.92    0.82
   5   0   6   24.47    0.78
  -5   1   7    2.86    0.21
  -5  -1   7    3.12    0.21
  -5   1   6    3.71    0.26
  -5  -1   6    3.80    0.25
  -5   1   5    6.52    0.36
  -5   1   5    5.92    0.47
  -5  -1   5    6.66    0.36
  -5   1   4   15.56    0.50
  -5   1   4   15.09    0.67
  -5  -1   4   15.55    0.77
  -5  -1   4   15.79    0.51
  -5   1   3    2.80    0.28
   5  -1  -3    2.61    0.34
  -5  -1   3    2.98    0.34
   5  -1  -2  103.54    2.69
   5  -1  -1  176.62    4.46
   5  -1   0   30.39    0.96
   5   1   1   13.12    0.64
   5  -1   1   13.01    0.60
   5   1   3   33.34    1.13
   5   1   3   35.88    1.09
   5  -1   3   35.89    1.08
   5  -1   3   33.81    1.02
   5   1   4   63.96    1.89
   5  -1   4   62.20    1.88
   5  -1   4   63.68    1.79
   5   1   5    6.11    0.42
   5   1   5    5.97    0.44
   5  -1   5    5.92    0.40
   5  -1   5    5.84    0.41
   5   1   6    5.47    0.38
   5   1   6    5.94    0.40
   5  -1   6    5.63    0.37
   5  -1   6    6.10    0.37
  -5   2   7    3.56    0.29
  -5  -2   7    3.71    0.29
  -5   2   6    0.66    0.19
  -5  -2   6    0.41    0.18
  -5   2   5   47.74    1.27
  -5   2   5   47.78    1.55
  -5  -2   5   47.17    1.27
  -5   2   4   -0.12    0.17
  -5   2   4   -0.19    0.26
  -5  -2   4   -0.09    0.16
  -5  -2   4   -0.04    0.32
  -5  -2   3   14.89    0.72
   5  -2  -2   15.64    0.64
   5  -2  -1  109.78    2.83
   5  -2   0    0.85    0.30
   5  -2   1   34.26    1.06
   5  -2   2    9.15    0.52
   5   2   3    2.22    0.25
   5   2   3    2.50    0.26
   5  -2   3    2.35    0.23
   5  -2   3    2.36    0.21
   5   2   4    1.06    0.24
   5   2   4    1.58    0.26
   5  -2   4    1.38    0.22
   5  -2   4    1.29    0.23
   5   2   5   21.98    0.75
   5   2   5   24.01    0.81
   5  -2   5   21.89    0.78
   5  -2   5   23.25    0.75
   5   2   6    1.22    0.23
   5   2   6    0.72    0.20
  -5   3   7   10.37    0.39
  -5  -3   7   10.71    0.39
  -5   3   6    5.09    0.34
  -5   3   6    4.87    0.44
  -5  -3   6    5.18    0.34
  -5   3   5    9.99    0.44
  -5   3   5   10.63    0.58
  -5  -3   5    9.87    0.42
  -5   3   4    4.44    0.36
  -5   3   4    4.41    0.35
  -5  -3   4    4.76    0.50
  -5  -3   4    3.64    0.30
  -5   3   3  126.76    3.84
  -5   3   3  125.63    3.17
  -5  -3   3  129.34    4.01
  -5  -3   3  122.21    3.76
   5  -3  -2    9.38    0.52
   5  -3  -1   31.43    0.99
   5  -3   0   31.14    0.98
   5  -3   1   25.68    0.88
   5   3   2   24.95    0.87
   5  -3   2   25.53    0.82
   5   3   3  171.06    5.08
   5   3   3  164.67    4.87
   5  -3   3  175.36    4.88
   5   3   4   28.13    0.98
   5   3   4   28.57    0.94
   5   3   5    4.39    0.42
   5   3   5    4.15    0.40
   5   3   6    2.27    0.24
  -5   4   6    6.80    0.46
  -5   4   6    6.59    0.34
  -5   4   5    4.65    0.35
  -5   4   4   23.47    0.72
  -5   4   4   23.60    0.90
  -5  -4   4   23.04    0.89
  -5   4   3    5.49    0.38
  -5   4   3    5.22    0.50
  -5  -4   3    5.61    0.53
  -5  -4   3    6.34    0.49
  -5   4   2    4.65    0.38
  -5  -4   2    4.89    0.44
  -5  -4   2    5.76    0.54
  -5  -4   2    6.12    0.43
   5   4   1    5.54    0.44
   5   4   2    0.17    0.22
   5  -4   2   -0.02    0.23
   5  -4   2    0.25    0.27
   5   4   3    0.48    0.24
   5   4   3    0.64    0.25
   5  -4   3    0.23    0.24
   5   4   4    2.98    0.29
   5   4   4    3.25    0.30
   5   4   5    3.15    0.29
   5   4   5    2.99    0.26
  -5   5   6   -0.14    0.24
  -5   5   4   13.08    0.52
  -5  -5   4   14.10    0.70
  -5   5   3   25.48    0.78
  -5   5   3   25.58    0.96
  -5  -5   3   25.99    0.93
  -5  -5   3   26.13    0.96
  -5  -5   2  114.04    3.32
  -5  -5   2  111.60    3.39
   5   5  -1    7.37    0.43
  -5  -5   1    7.46    0.52
  -5  -5   1    6.91    0.49
   5   5   0    5.26    0.49
   5  -5   0    5.74    0.50
  -5  -5   0    5.12    0.47
   5   5   1    2.12    0.27
   5  -5   1    1.81    0.28
   5   5   2   77.26    2.34
   5  -5   2   74.77    2.32
   5   5   3   40.91    1.31
   5  -5   3   38.46    1.30
   5   5   4   29.76    0.99
   5   5   4   27.45    0.93
   5   5   5    1.00    0.20
   5   5   5    1.23    0.22
  -5   6   5   20.53    0.75
  -5  -6   5   20.99    0.82
  -5  -6   4    2.01    0.32
  -5  -6   3    0.30    0.29
  -5  -6   3    0.07    0.28
  -5  -6   2   24.35    0.93
  -5  -6   2   25.29    0.94
   5   6  -1    1.51    0.23
  -5  -6   1    0.77    0.31
  -5  -6   1    1.30    0.28
   5  -6  -1    1.50    0.27
   5  -6   0   18.63    0.76
  -5  -6   0   19.58    0.82
   5   6   1   13.13    0.64
   5  -6   1   14.65    0.66
   5   6   2    2.62    0.30
   5  -6   2    2.30    0.30
   5   6   3   -0.15    0.25
   5  -6   3    0.00    0.24
   5   6   4    6.27    0.45
  -5   7   4    0.56    0.27
  -5  -7   4    0.69    0.27
  -5  -7   3   11.15    0.63
  -5  -7   3   10.55    0.63
  -5  -7   2   31.25    1.13
  -5  -7   2   31.46    1.12
  -5  -7   1   16.74    0.79
   5  -7  -1   16.94    0.70
  -5  -7   1   16.14    0.77
   5  -7   0    2.69    0.29
  -5  -7   0    2.32    0.37
  -5  -7  -1    9.05    0.65
   5  -7   1    8.58    0.55
   5   7   2    6.36    0.47
   5  -7   2    7.11    0.49
   5   7   3   24.30    0.85
   5  -7   3   24.64    0.86
  -5  -8   3    0.58    0.26
  -5  -8   2    2.18    0.29
  -5  -8   1   51.99    1.63
  -5  -8   1   51.79    1.65
   5  -8   0    8.73    0.51
  -5  -8   0    8.27    0.59
   5  -8   1    1.80    0.26
   5  -8   2    1.64    0.25
  -6   0   7    0.23    0.16
  -6   0   6    6.23    0.37
  -6   0   5    1.06    0.27
  -6   0   5    0.29    0.19
  -6   0   4    4.37    0.35
  -6   0   4    4.67    0.32
  -6   0   4    3.97    0.44
   6   0  -3    0.08    0.33
   6   0  -2   91.93    2.46
   6   0  -1    0.13    0.33
   6   0   0   12.40    0.66
   6   0   1    0.15    0.31
   6   0   2   43.31    1.31
   6   0   3   -0.44    0.22
   6   0   4   27.16    0.89
   6   0   4   24.77    0.85
   6   0   5    0.56    0.25
   6   0   5    0.42    0.22
   6   0   6    3.15    0.25
   6   0   6    2.74    0.21
  -6   1   7    2.58    0.20
  -6  -1   7    2.73    0.21
  -6   1   6   12.69    0.48
  -6   1   6   11.90    0.60
  -6  -1   6   12.23    0.48
  -6   1   5  100.81    3.18
  -6   1   5  105.81    2.64
  -6  -1   5  104.43    2.63
  -6   1   4   57.44    1.79
  -6   1   4   55.59    1.46
  -6  -1   4   53.77    1.45
  -6  -1   4   55.35    1.95
   6  -1  -3   -0.35    0.31
   6  -1  -2    0.43    0.32
   6  -1  -1   32.50    1.05
   6  -1   0  159.30    4.05
   6   1   1  176.73    4.54
   6  -1   1  181.51    4.53
   6   1   2   60.68    1.93
   6   1   2   64.60    1.87
   6  -1   2   64.78    1.87
   6   1   3    5.01    0.40
   6   1   3    4.62    0.39
   6  -1   3    5.12    0.38
   6   1   4   18.32    0.68
   6  -1   4   17.44    0.66
   6  -1   4   17.19    0.62
   6   1   5   29.32    0.97
   6  -1   5   28.71    0.90
   6  -1   5   30.30    0.96
   6   1   6   35.58    1.07
   6  -1   6   33.76    1.06
  -6   2   7   27.71    0.75
  -6  -2   7   25.75    0.74
  -6   2   6    1.98    0.22
  -6   2   6    1.71    0.30
  -6  -2   6    1.80    0.22
  -6   2   5    0.29    0.30
  -6   2   5    0.08    0.20
  -6  -2   5   -0.02    0.19
  -6   2   4   62.09    1.94
  -6   2   4   60.81    1.58
  -6  -2   4   57.45    2.11
  -6   2   3   40.23    1.33
  -6   2   3   40.05    1.07
  -6  -2   3   38.68    1.29
  -6  -2   3   37.88    1.45
   6  -2  -2   -0.20    0.28
   6  -2  -1   12.23    0.61
   6  -2   0    2.12    0.33
   6   2   1   15.94    0.63
   6  -2   1   15.45    0.71
   6   2   2    2.13    0.24
   6   2   2    2.05    0.26
   6  -2   2    2.38    0.24
   6   2   3   41.17    1.36
   6   2   3   43.06    1.32
   6  -2   3   42.84    1.30
   6   2   4    1.15    0.23
   6   2   4    1.32    0.28
   6  -2   4    0.57    0.24
   6   2   5    4.84    0.41
   6  -2   5    4.73    0.38
   6   2   6    0.75    0.21
  -6   3   7    0.25    0.20
  -6  -3   7    0.06    0.15
  -6   3   6    4.31    0.32
  -6   3   6    4.40    0.34
  -6  -3   6    3.54    0.24
  -6   3   5    3.99    0.37
  -6   3   5    3.85    0.27
  -6   3   4   37.06    1.04
  -6   3   4   37.18    1.27
  -6  -3   4   35.63    1.25
  -6   3   3   82.13    2.06
  -6   3   3   80.73    2.51
  -6  -3   3   77.51    2.67
  -6  -3   3   79.38    2.44
  -6   3   2    0.70    0.33
  -6  -3   2    0.66    0.24
   6   3   0   88.52    2.68
   6   3   1   81.95    2.43
   6  -3   1   77.32    2.32
   6   3   2   26.49    0.91
   6  -3   2   25.65    0.86
   6   3   3    1.43    0.28
   6   3   3    1.73    0.26
   6  -3   3    1.70    0.25
   6   3   4   10.06    0.52
   6   3   4   10.19    0.52
   6  -3   4   10.35    0.48
   6   3   5   58.29    1.74
  -6   4   6   14.20    0.48
  -6   4   6   14.29    0.59
  -6   4   5    0.30    0.20
  -6   4   5   -0.31    0.29
  -6   4   4   65.13    2.05
  -6   4   4   63.73    1.69
  -6  -4   4   62.86    2.01
  -6   4   3   22.28    0.88
  -6   4   3   21.91    0.71
  -6  -4   3   21.65    0.85
  -6   4   2   26.15    1.02
  -6  -4   2   28.30    0.98
  -6  -4   1    3.69    0.30
   6   4   0    0.75    0.24
  -6  -4   0    0.22    0.40
  -6  -4   0    0.72    0.26
   6   4   1    5.38    0.46
   6   4   2   34.00    1.13
   6  -4   2   32.76    1.15
   6  -4   2   33.56    1.07
   6   4   3    2.94    0.30
   6   4   3    2.45    0.31
   6  -4   3    3.07    0.29
   6   4   4    8.73    0.49
   6   4   4    7.39    0.46
   6   4   5    0.36    0.17
   6   4   5    0.45    0.22
  -6   5   6   10.21    0.46
  -6   5   5    0.05    0.18
  -6  -5   5   -0.36    0.31
  -6   5   4   17.83    0.77
  -6   5   4   16.74    0.61
  -6  -5   4   18.82    0.80
  -6   5   3   27.30    0.85
  -6  -5   3   28.69    1.04
  -6  -5   2    3.16    0.33
  -6  -5   1    4.12    0.33
  -6  -5   1    4.77    0.35
   6   5   1   15.30    0.69
   6  -5   1   16.07    0.73
   6   5   2   41.11    1.32
   6  -5   2   38.99    1.32
   6   5   3    0.47    0.25
   6  -5   3    0.54    0.26
   6   5   4    7.05    0.46
  -6   6   5    0.60    0.26
  -6  -6   5    0.75    0.27
  -6  -6   4    0.54    0.31
  -6   6   3   37.40    1.11
  -6  -6   3   42.38    1.35
  -6  -6   2    8.36    0.62
  -6  -6   2    9.11    0.62
  -6  -6   1    7.80    0.60
  -6  -6   1    7.74    0.57
   6  -6  -1    7.58    0.55
   6  -6   0    0.07    0.28
  -6  -6   0    0.69    0.33
  -6  -6   0   -0.11    0.32
   6   6   1   13.16    0.60
   6  -6   1   13.25    0.65
   6   6   2    1.83    0.27
   6  -6   2    1.67    0.29
   6   6   3   10.12    0.53
   6  -6   3   10.46    0.52
   6   6   4    5.69    0.38
  -6   7   4    0.87    0.29
  -6  -7   4    0.70    0.27
  -6  -7   3    3.45    0.33
  -6   7   2    5.28    0.38
  -6  -7   2    6.30    0.55
  -6  -7   2    6.16    0.58
  -6  -7   1    8.89    0.63
  -6  -7   1    9.08    0.63
   6  -7  -1    9.48    0.54
   6  -7   0    1.32    0.27
  -6  -7   0    1.63    0.32
  -6  -7  -1   45.71    1.50
   6  -7   1   47.70    1.48
   6  -7   2    5.27    0.43
  -6  -7  -2    4.63    0.35
   6  -7   3    0.56    0.20
  -6  -8   2    4.47    0.38
  -6  -8   1    1.74    0.35
   6  -8   0    0.60    0.24
   6  -8   1    0.26    0.25
  -7   0   7    0.03    0.16
  -7   0   6  108.07    2.73
  -7   0   5    0.05    0.29
  -7   0   5    0.19    0.20
  -7   0   4   20.40    0.64
  -7   0   4   20.31    0.82
  -7   0   3   -0.09    0.19
  -7   0   3   -0.15    0.34
  -7   0   2   19.86    0.87
  -7   0  -1    0.75    0.40
   7   0   1   -0.20    0.23
   7   0   2    3.59    0.29
  -7   0  -2    3.83    0.47
  -7   0  -3    2.25    0.46
   7   0   4    0.78    0.27
   7   0   5    0.32    0.24
  -7   1   7    0.11    0.16
  -7  -1   7    0.04    0.15
  -7   1   6   19.24    0.63
  -7   1   6   20.22    0.77
  -7  -1   6   19.19    0.61
  -7   1   5   42.74    1.43
  -7   1   5   42.93    1.17
  -7  -1   5   42.16    1.16
  -7   1   4    0.16    0.32
  -7   1   4    0.13    0.20
  -7  -1   4   -0.20    0.29
  -7  -1   4    0.22    0.40
  -7  -1   4   -0.34    0.18
  -7   1   3   14.65    0.54
  -7   1   3   15.02    0.73
  -7  -1   3   14.68    0.74
  -7   1   2   66.91    2.13
  -7  -1   2   64.83    2.14
   7  -1   0   36.17    1.12
   7   1   1    0.43    0.24
  -7   1  -1   -0.11    0.36
  -7  -1  -1    0.56    0.38
   7  -1   1    0.37    0.22
   7   1   2   21.81    0.77
   7  -1   2   22.03    0.77
  -7  -1  -2   22.93    0.97
   7   1   3  107.30    3.13
   7  -1   3  107.75    3.13
   7   1   4   60.93    1.79
   7  -1   4   59.29    1.79
  -7  -1  -4   57.66    1.97
   7   1   5    5.96    0.42
   7  -1   5    6.47    0.41
  -7   2   6   15.86    0.69
  -7   2   6   15.81    0.54
  -7  -2   6   15.19    0.53
  -7   2   5   41.97    1.38
  -7   2   5   41.00    1.12
  -7  -2   5   38.94    1.10
  -7   2   4    5.59    0.45
  -7   2   4    4.98    0.32
  -7   2   3    2.87    0.27
  -7   2   3    3.36    0.39
  -7  -2   3    2.54    0.31
  -7  -2   3    2.18    0.44
  -7   2   2    0.66    0.37
  -7  -2   2    0.53    0.37
  -7  -2   2    0.53    0.27
  -7   2   1   51.22    1.74
  -7  -2   1   51.73    1.67
  -7  -2   1   53.85    1.75
  -7  -2   0    3.27    0.46
   7  -2   0    2.88    0.27
   7  -2   1   35.57    1.11
  -7  -2  -1   35.97    1.31
   7   2   2    7.83    0.46
   7   2   2    8.13    0.45
   7  -2   2    7.90    0.44
   7   2   3    2.88    0.30
   7  -2   3    2.55    0.28
   7   2   4    8.50    0.48
   7  -2   4    8.17    0.47
   7   2   5   11.67    0.52
  -7  -2  -5   12.29    0.67
   7  -2   5   11.66    0.50
  -7   3   6   12.46    0.47
  -7   3   5    0.40    0.22
  -7   3   5   -0.06    0.31
  -7   3   4   -0.14    0.22
  -7   3   4    0.32    0.33
  -7  -3   4    0.33    0.30
  -7   3   3   19.76    0.87
  -7   3   3   21.03    0.69
  -7  -3   3   20.75    0.85
  -7   3   2   22.16    0.92
  -7  -3   2   21.87    0.88
  -7   3   1   67.44    2.27
  -7  -3   1   71.48    2.21
  -7  -3   1   74.43    2.30
  -7  -3   0   14.43    0.84
   7   3   1    1.54    0.25
  -7  -3  -1    2.21    0.47
   7  -3   1    1.32    0.25
   7   3   2    8.86    0.51
   7  -3   2    9.05    0.47
   7   3   3   16.01    0.66
   7   3   3   17.77    0.69
   7  -3   3   17.82    0.66
   7   3   4   37.48    1.20
   7  -3   4   39.14    1.19
   7   3   5   18.78    0.67
  -7  -3  -5   19.86    0.83
  -7   4   6    0.08    0.17
  -7   4   6    0.16    0.23
  -7   4   5    3.03    0.25
  -7   4   5    3.19    0.35
  -7   4   4   25.96    0.80
  -7   4   4   26.28    1.00
  -7  -4   4   24.53    1.01
  -7   4   3    1.02    0.26
  -7   4   3    0.82    0.35
  -7  -4   3    0.55    0.31
  -7   4   2    6.15    0.60
  -7  -4   2    7.56    0.60
  -7  -4   1    0.67    0.30
  -7  -4   0   37.54    1.41
   7   4   1    4.19    0.33
  -7  -4  -1    4.39    0.50
   7   4   2   10.97    0.58
   7  -4   2   10.05    0.60
   7   4   3   10.23    0.53
   7  -4   3    8.87    0.52
   7   4   4   23.34    0.78
  -7   5   5    0.13    0.18
  -7   5   4    0.33    0.32
  -7   5   4    0.37    0.23
  -7  -5   4    0.21    0.33
  -7   5   3    3.37    0.39
  -7   5   3    3.34    0.30
  -7  -5   3    3.48    0.37
  -7  -5   2   53.40    1.74
  -7  -5   1   19.52    0.85
   7  -5   1   -0.07    0.30
  -7  -5  -1    0.16    0.41
   7   5   2   16.00    0.66
   7  -5   2   15.41    0.68
  -7  -5  -2   14.26    0.86
   7   5   3    0.36    0.22
   7  -5   3    0.62    0.23
  -7  -5  -4    9.97    0.67
  -7   6   4    2.96    0.21
  -7  -6   4    3.31    0.35
  -7   6   3    0.41    0.23
  -7  -6   3    0.92    0.32
  -7   6   2    0.90    0.23
  -7  -6   2    0.55    0.32
  -7  -6   1    9.49    0.67
   7  -6  -1    9.96    0.59
   7  -6   0    4.79    0.35
  -7  -6   0    4.50    0.37
   7  -6   1   10.30    0.57
  -7  -6  -2    2.22    0.41
   7  -6   2    1.95    0.27
  -7  -6  -3    0.74    0.35
   7  -6   3    0.79    0.19
  -7  -7   3    6.67    0.54
  -7   7   2    4.99    0.34
  -7  -7   2    5.89    0.57
  -7  -7   1   18.35    0.82
   7  -7  -1   19.31    0.71
   7  -7   0    1.07    0.25
  -7  -7   0    1.13    0.28
   7  -7   1    0.55    0.23
   7  -7   2    2.24    0.22
  -8   0   6   11.05    0.44
  -8   0   5    0.00    0.20
  -8   0   5   -0.03    0.31
  -8   0   4   13.23    0.51
  -8   0   4   13.60    0.70
  -8   0   3    0.93    0.39
  -8   0   3    0.35    0.20
  -8   0   2   49.50    1.68
  -8   0   1   -0.49    0.37
   8   0   0   15.97    0.62
  -8   0   0   16.31    0.80
  -8   0  -1   -0.13    0.38
   8   0   1   -0.50    0.25
   8   0   2   94.04    2.72
  -8   0  -2   91.61    2.94
  -8   0  -3    0.27    0.45
   8   0   3    0.46    0.28
   8   0   4   19.54    0.72
   8   0   5   -0.22    0.22
  -8   1   6    0.27    0.19
  -8   1   6   -0.24    0.26
  -8  -1   6    0.09    0.18
  -8   1   5    7.71    0.57
  -8   1   5    7.44    0.40
  -8  -1   5    7.38    0.39
  -8   1   4   22.16    0.68
  -8   1   4   22.11    0.90
  -8  -1   4   19.89    0.88
  -8   1   3   23.33    0.73
  -8   1   3   24.20    0.98
  -8  -1   3   22.69    1.00
  -8   1   2   15.66    0.80
  -8   1   2   15.75    0.57
  -8  -1   2   16.07    0.82
  -8   1   1   -0.25    0.38
  -8  -1   1    0.27    0.39
  -8   1   0   14.04    0.76
   8  -1   0   14.48    0.58
  -8  -1   0   14.07    0.78
   8   1   1    0.58    0.27
  -8   1  -1    0.78    0.40
  -8  -1  -1    1.95    0.46
   8  -1   1    0.45    0.25
   8   1   2   26.20    0.89
   8  -1   2   25.28    0.89
  -8  -1  -2   26.26    1.10
   8   1   3   23.59    0.84
  -8  -1  -3   23.53    1.05
   8  -1   3   24.54    0.84
   8   1   4   -0.38    0.24
   8  -1   4    0.20    0.25
  -8  -1  -4    0.16    0.39
   8   1   5    4.84    0.35
   8  -1   5    4.91    0.35
  -8   2   6    0.32    0.18
  -8   2   6    0.03    0.27
  -8   2   5   -0.19    0.21
  -8   2   5   -0.11    0.31
  -8   2   4   -0.06    0.36
  -8   2   4    0.49    0.23
  -8   2   3   39.76    1.40
  -8   2   3   42.38    1.14
  -8  -2   3   38.34    1.44
  -8   2   2    1.52    0.25
  -8   2   2    1.80    0.42
  -8  -2   2    1.08    0.40
  -8   2   1   14.92    0.79
  -8  -2   1   13.21    0.79
  -8   2   0    0.38    0.41
  -8  -2   0    1.07    0.43
   8  -2   0    1.07    0.27
   8  -2   1    2.26    0.28
  -8  -2  -1    1.98    0.47
   8   2   2   25.44    0.89
   8  -2   2   25.77    0.89
  -8  -2  -2   27.92    1.10
   8   2   3   30.45    1.02
   8  -2   3   31.58    1.02
  -8  -2  -3   31.12    1.20
   8   2   4    1.92    0.27
   8  -2   4    2.29    0.27
  -8  -2  -4    1.79    0.41
   8   2   5    8.78    0.43
   8  -2   5    8.63    0.39
  -8   3   6    0.17    0.18
  -8   3   5    6.41    0.40
  -8   3   5    6.27    0.53
  -8   3   4    9.28    0.61
  -8   3   4    8.92    0.48
  -8   3   3   25.60    1.02
  -8   3   3   26.08    0.83
  -8   3   2    8.54    0.63
  -8   3   1   -0.01    0.38
  -8  -3   1   -0.36    0.39
  -8  -3   0    5.21    0.54
  -8  -3  -1  114.93    3.60
  -8  -3  -2    2.98    0.48
   8  -3   2    2.04    0.28
   8   3   3    1.40    0.26
  -8  -3  -3    1.44    0.44
   8  -3   3    1.62    0.27
   8   3   4    0.13    0.22
   8  -3   4    0.34    0.22
  -8  -3  -4    0.58    0.37
  -8   4   5    1.03    0.30
  -8   4   5    0.92    0.21
  -8   4   4    6.75    0.44
  -8   4   4    6.86    0.56
  -8   4   3    1.18    0.35
  -8   4   3    0.74    0.27
  -8  -4   3    0.61    0.33
  -8   4   2   20.47    0.90
  -8  -4   2   21.69    0.91
  -8  -4   0    1.63    0.47
  -8  -4  -1   -0.01    0.45
   8  -4   2    0.34    0.27
  -8  -4  -2    0.57    0.43
  -8  -4  -3   -0.12    0.40
  -8  -4  -4   11.10    0.67
  -8   5   5    0.69    0.21
  -8   5   4   17.20    0.71
  -8   5   4   17.93    0.58
  -8   5   3    2.57    0.28
  -8   5   3    2.79    0.36
  -8  -5   3    2.26    0.36
  -8   5   2    5.79    0.42
  -8  -5   2    5.32    0.41
  -8  -5   1    0.06    0.32
   8  -5   0   12.44    0.67
  -8  -5  -1   20.88    1.00
   8  -5   1   23.06    0.85
  -8  -5  -2   44.16    1.60
   8  -5   2   48.24    1.47
  -8  -5  -3    0.68    0.39
   8  -5   3    0.86    0.19
  -8   6   4    0.14    0.20
  -8   6   3    6.72    0.38
  -8  -6   3    7.83    0.59
  -8   6   2    4.63    0.36
  -8  -6   2    4.94    0.38
   8  -6  -1    6.83    0.51
   8  -6   0   10.59    0.56
   8  -6   1    3.43    0.28
  -8  -6  -2    6.09    0.53
   8  -6   2    6.12    0.40
  -8   7   2   -0.30    0.23
  -8   7   1   -0.42    0.18
   8  -7  -1    0.09    0.25
   8  -7   0    0.18    0.22
  -9   0   6    4.47    0.29
  -9   0   5    0.31    0.30
  -9   0   5    0.08    0.19
  -9   0   4   19.14    0.62
  -9   0   4   19.59    0.86
  -9   0   3    0.16    0.40
  -9   0   2    2.01    0.43
  -9   0   1    1.56    0.43
   9   0   0   11.53    0.56
  -9   0   0   12.06    0.74
   9   0   1    0.10    0.27
  -9   0  -1    0.65    0.41
  -9   0  -2   16.24    0.84
   9   0   2   16.15    0.66
   9   0   3   -0.02    0.26
   9   0   4    1.71    0.25
  -9   1   6    6.46    0.43
  -9   1   6    6.57    0.32
  -9   1   5    3.96    0.37
  -9   1   5    3.05    0.24
  -9   1   4    4.79    0.35
  -9   1   4    4.60    0.44
  -9  -1   4    6.04    0.58
  -9   1   3    0.47    0.39
  -9   1   3    0.86    0.22
  -9  -1   3    0.27    0.42
  -9   1   2    6.08    0.45
  -9   1   2    6.52    0.55
  -9  -1   2    7.61    0.67
  -9   1   1   72.11    2.33
  -9  -1   1   72.53    2.36
  -9   1   0   18.66    0.89
  -9  -1   0   19.19    0.91
   9  -1   0   17.86    0.72
  -9   1  -1    1.21    0.43
   9   1   1    1.65    0.30
  -9  -1  -1    1.94    0.45
   9  -1   1    1.42    0.29
   9   1   2   -0.20    0.28
   9  -1   2   -0.02    0.28
  -9  -1  -2   -0.16    0.42
   9   1   3    4.93    0.42
  -9  -1  -3    5.10    0.47
   9  -1   3    5.29    0.43
   9   1   4    9.60    0.46
   9  -1   4    9.64    0.46
  -9   2   6    0.57    0.17
  -9   2   6    0.93    0.24
  -9   2   5   12.08    0.47
  -9   2   5   11.93    0.63
  -9   2   4    0.91    0.22
  -9   2   4    0.94    0.37
  -9   2   3    7.31    0.45
  -9   2   3    8.13    0.61
  -9  -2   3    7.30    0.56
  -9   2   2    9.36    0.46
  -9   2   2   10.57    0.69
  -9  -2   2    8.22    0.75
  -9   2   1    0.62    0.43
  -9  -2   1    0.07    0.42
  -9   2   0   35.85    1.30
  -9  -2   0   34.43    1.33
   9  -2   1   13.36    0.58
  -9  -2  -1   12.41    0.82
   9   2   2    2.08    0.29
  -9  -2  -2    2.09    0.46
   9  -2   2    2.54    0.30
   9   2   3    5.64    0.41
  -9  -2  -3    5.92    0.50
   9  -2   3    6.42    0.44
   9   2   4    1.11    0.22
   9  -2   4    1.16    0.23
  -9  -2  -4    0.99    0.34
  -9   3   5   16.02    0.67
  -9   3   5   14.80    0.53
  -9   3   4    1.56    0.24
  -9   3   4    1.57    0.34
  -9   3   3   -0.05    0.25
  -9   3   3   -0.26    0.35
  -9   3   2    1.88    0.27
  -9   3   2    2.27    0.38
  -9  -3   2    1.41    0.44
  -9   3   1   -0.42    0.37
  -9  -3   1   -0.05    0.42
  -9  -3   0    3.89    0.49
  -9  -3  -1   26.65    1.12
  -9  -3  -2    0.65    0.42
  -9  -3  -3    1.95    0.41
  -9  -3  -4    4.45    0.46
  -9   4   5    5.27    0.44
  -9   4   5    4.85    0.33
  -9   4   4    9.08    0.55
  -9   4   4    9.65    0.44
  -9   4   3    3.43    0.37
  -9   4   3    4.17    0.30
  -9   4   2    3.74    0.41
  -9   4   2    4.34    0.30
  -9  -4   1    0.06    0.42
  -9  -4   0   37.37    1.38
  -9  -4  -1    5.52    0.51
   9  -4   2   10.17    0.52
  -9  -4  -2    9.59    0.72
  -9  -4  -3    7.40    0.62
  -9   5   4    6.62    0.33
  -9   5   3    0.86    0.23
  -9   5   2    1.57    0.23
   9  -5  -2    1.54    0.28
   9  -5  -1    7.15    0.54
   9  -5   0   20.94    0.82
   9  -5   1    4.89    0.43
  -9  -5  -1    3.60    0.41
  -9  -5  -2   -0.06    0.32
   9  -5   2    0.03    0.19
  -9   6   2    0.41    0.19
  -9   6   1    2.97    0.23
   9  -6  -1    4.89    0.40
   9  -6   0    2.21    0.25
   9  -6   1    7.37    0.43
 -10   0   5    0.52    0.27
 -10   0   4    5.00    0.44
 -10   0   3    0.42    0.40
 -10   0   2   37.74    1.40
 -10   0   1    0.40    0.40
 -10   0   0   33.86    1.27
 -10   0  -1    0.70    0.41
  10   0   1    0.61    0.28
 -10   0  -2    6.25    0.61
  10   0   2    5.23    0.44
  10   0   3    0.15    0.24
 -10   1   5    0.49    0.28
 -10   1   5    0.68    0.18
 -10   1   4    0.58    0.19
 -10   1   4    1.10    0.37
 -10  -1   4    0.62    0.34
 -10   1   3    0.59    0.38
 -10  -1   3    0.83    0.41
 -10   1   2   17.31    0.85
 -10  -1   2   16.47    0.88
 -10   1   1   16.65    0.84
 -10  -1   1   15.57    0.85
 -10   1   0    0.05    0.39
 -10  -1   0    0.59    0.42
 -10   1  -1    0.33    0.40
 -10  -1  -1   -0.08    0.40
  10  -1   1    1.00    0.29
  10   1   2    6.33    0.44
 -10  -1  -2    7.49    0.64
  10  -1   2    7.45    0.46
  10   1   3    3.39    0.26
  10  -1   3    3.44    0.28
 -10  -1  -3    2.84    0.37
 -10   2   5    5.86    0.45
 -10   2   5    6.07    0.32
 -10   2   4    0.52    0.32
 -10   2   4    0.21    0.20
 -10   2   3    2.04    0.25
 -10   2   3    2.30    0.36
 -10  -2   3    3.02    0.43
 -10   2   2    9.49    0.46
 -10   2   2   10.01    0.65
 -10  -2   2   10.18    0.76
 -10   2   1   10.56    0.68
 -10  -2   1    9.82    0.77
 -10   2   0   -0.37    0.38
 -10  -2   0   -0.07    0.41
 -10  -2  -1   21.58    0.97
 -10  -2  -2    1.21    0.38
  10   2   3    0.27    0.21
 -10  -2  -3   -0.19    0.32
 -10   3   4    1.38    0.30
 -10   3   4    1.12    0.20
 -10   3   3   33.89    0.95
 -10   3   3   32.59    1.18
 -10   3   2    9.05    0.46
 -10   3   2    8.38    0.58
 -10  -3   2    8.99    0.72
 -10   3   1    0.06    0.33
 -10   3   1    0.66    0.22
 -10  -3   1   -0.35    0.42
 -10  -3   0   -0.01    0.42
 -10  -3  -1   12.16    0.75
  10  -3   2    0.43    0.23
 -10  -3  -2    0.79    0.36
 -10  -3  -3    8.84    0.62
 -10   4   4   -0.08    0.17
 -10   4   4    0.33    0.29
 -10   4   3    2.77    0.30
 -10   4   3    2.82    0.25
 -10   4   2    0.91    0.24
 -10   4   1    2.77    0.25
 -10  -4   1    3.07    0.42
 -10  -4   0    7.01    0.65
  10  -4   1    0.17    0.25
 -10  -4  -1    0.09    0.36
  10  -4   2    5.19    0.37
 -10  -4  -2    4.88    0.41
 -10   5   3    4.14    0.31
 -10   5   2    2.71    0.23
  10  -5  -2    3.20    0.27
 -10   5   1    0.21    0.19
  10  -5  -1    0.18    0.24
  10  -5   0   -0.21    0.22
 -10  -5  -1    0.70    0.28
  10  -5   1    0.17    0.20
 -11   0   4   -0.05    0.31
 -11   0   3   -0.76    0.34
 -11   0   2   10.88    0.70
 -11   0   1    0.51    0.38
 -11   0   0   13.02    0.72
 -11   0  -1    0.90    0.37
 -11   0  -2    8.64    0.57
 -11  -1   4    4.43    0.36
 -11   1   3    1.95    0.33
 -11  -1   3    1.54    0.38
 -11   1   2    0.34    0.35
 -11  -1   2   -0.15    0.41
 -11   1   1   11.36    0.69
 -11  -1   1   11.25    0.72
 -11   1   0   10.46    0.67
 -11  -1   0   11.31    0.70
 -11   1  -1    7.57    0.57
 -11  -1  -1    6.93    0.62
 -11  -1  -2    2.16    0.35
 -11   2   4    3.17    0.29
 -11   2   4    2.65    0.19
 -11   2   3   10.36    0.42
 -11   2   3   10.69    0.59
 -11  -2   3    9.85    0.61
 -11   2   2    2.17    0.33
 -11  -2   2    1.93    0.43
 -11   2   1   18.28    0.79
 -11  -2   1   18.52    0.88
 -11   2   0    0.92    0.34
 -11  -2   0    0.10    0.38
 -11  -2  -1    0.65    0.37
 -11  -2  -2    0.51    0.35
 -11   3   3    3.55    0.30
 -11   3   3    3.10    0.21
 -11   3   2    0.24    0.29
 -11   3   2    0.27    0.19
 -11  -3   2   -0.01    0.34
 -11  -3   1    2.01    0.39
 -11  -3   0    2.30    0.40
 -11  -3  -1    6.90    0.58
 -11   4   2   13.77    0.46
 -11   4   1    0.35    0.18
 -11   4   0    2.42    0.19
 -11  -4   0    2.58    0.33
 -12   0   3   -0.14    0.26
 -12   0   2    4.19    0.37
 -12   0   1    0.72    0.33
 -12   0   0   11.80    0.65
 -12   1   2   10.26    0.54
 -12  -1   2    9.90    0.58
 -12   1   1    1.87    0.31
 -12  -1   1    1.85    0.37
 -12   1   0    0.41    0.33
 -12  -1   0   -0.08    0.32
 -12   2   2    0.79    0.33
 -12  -2   2    0.59    0.28
 -12   2   1   -0.23    0.31
 -12  -2   1   -0.34    0.32
 -12  -2   0    0.00    0.32
   0   0   0    0.00    0.00
;
_shelx_hkl_checksum              79899
loop_
_space_group_symop_operation_xyz
'x, y, z'
'-x, y+1/2, -z+1/2'
'-x, -y, -z'
'x, -y-1/2, z-1/2'
loop_
_atom_site_label
_atom_site_type_symbol
_atom_site_fract_x
_atom_site_fract_y
_atom_site_fract_z
_atom_site_U_iso_or_equiv
_atom_site_adp_type
_atom_site_occupancy
_atom_site_site_symmetry_order
_atom_site_calc_flag
S1 S 0.79815(5) 0.85896(6) 0.15669(7) 0.0310(3) Uani 1 1 d
C2 C 0.6358(2) 0.8886(3) 0.1456(3) 0.0340(6) Uani 1 1 d
H2 H 0.581(3) 0.844(3) 0.043(5) 0.044(8) Uiso 1 1 d
C3 C 0.6049(2) 0.9826(3) 0.2983(3) 0.0322(5) Uani 1 1 d
H3 H 0.520(3) 1.010(4) 0.300(4) 0.049(8) Uiso 1 1 d
C4 C 0.7150(2) 1.0310(3) 0.4290(3) 0.0268(5) Uani 1 1 d
C5 C 0.7430(2) 1.1300(3) 0.6173(4) 0.0366(6) Uani 1 1 d
H5A H 0.708(3) 1.084(4) 0.725(5) 0.062(9) Uiso 1 1 d
H5B H 0.713(3) 1.241(4) 0.593(4) 0.055(9) Uiso 1 1 d
C6 C 0.8898(2) 1.1230(3) 0.6675(3) 0.0301(5) Uani 1 1 d
H6A H 0.927(2) 1.229(4) 0.674(4) 0.030(6) Uiso 1 1 d
H6B H 0.914(3) 1.071(4) 0.795(4) 0.043(7) Uiso 1 1 d
C7 C 0.9387(2) 1.0196(2) 0.5053(3) 0.0228(4) Uani 1 1 d
C8 C 0.8264(2) 0.9743(2) 0.3714(3) 0.0235(5) Uani 1 1 d
loop_
_atom_site_aniso_label
_atom_site_aniso_U_11
_atom_site_aniso_U_22
_atom_site_aniso_U_33
_atom_site_aniso_U_23
_atom_site_aniso_U_13
_atom_site_aniso_U_12
S1 0.0398(4) 0.0312(4) 0.0202(3) -0.00621(18) -0.0024(2) 0.0009(2)
C2 0.0392(13) 0.0363(11) 0.0236(11) 0.0011(9) -0.0061(9) -0.0065(10)
C3 0.0297(12) 0.0390(12) 0.0267(11) 0.0058(9) 0.0000(8) -0.0023(10)
C4 0.0308(11) 0.0293(11) 0.0201(10) 0.0033(8) 0.0025(8) 0.0004(9)
C5 0.0342(13) 0.0500(16) 0.0254(11) -0.0092(10) 0.0042(10) 0.0022(11)
C6 0.0349(12) 0.0341(12) 0.0208(11) -0.0064(9) 0.0025(9) 0.0036(10)
C7 0.0317(10) 0.0211(9) 0.0153(9) 0.0015(7) 0.0023(7) 0.0015(8)
C8 0.0327(11) 0.0212(9) 0.0162(9) 0.0014(7) 0.0017(8) -0.0002(8)
loop_
_atom_type_symbol
_atom_type_description
_atom_type_scat_dispersion_real
_atom_type_scat_dispersion_imag
_atom_type_scat_source
C C 0.0181 0.0091 'International Tables Vol C Tables 4.2.6.8 and 6.1.1.4'
H H 0.0000 0.0000 'International Tables Vol C Tables 4.2.6.8 and 6.1.1.4'
S S 0.3331 0.5567 'International Tables Vol C Tables 4.2.6.8 and 6.1.1.4'
loop_
_geom_angle_atom_site_label_1
_geom_angle_atom_site_label_2
_geom_angle_atom_site_label_3
_geom_angle
_geom_angle_site_symmetry_1
C2 S1 C8 90.91(10) .
S1 C2 H2 119.7(19) .
C3 C2 S1 112.75(17) .
C3 C2 H2 127.5(19) .
C2 C3 H3 118.6(19) .
C2 C3 C4 111.7(2) .
C4 C3 H3 129.6(19) .
C3 C4 C5 136.8(2) .
C8 C4 C3 112.9(2) .
C8 C4 C5 110.31(19) .
C4 C5 H5A 114(2) .
C4 C5 H5B 108.9(18) .
C4 C5 C6 104.03(18) .
H5A C5 H5B 110(3) .
C6 C5 H5A 108(2) .
C6 C5 H5B 111.7(19) .
C5 C6 H6A 112.3(15) .
C5 C6 H6B 110.2(16) .
H6A C6 H6B 107(2) .
C7 C6 C5 106.81(17) .
C7 C6 H6A 110.2(15) .
C7 C6 H6B 110.0(17) .
C7 C7 C6 126.2(2) 3_776
C7 C7 C8 128.4(2) 3_776
C8 C7 C6 105.40(18) .
C4 C8 S1 111.69(16) .
C4 C8 C7 113.44(18) .
C7 C8 S1 134.84(17) .
loop_
_geom_bond_atom_site_label_1
_geom_bond_atom_site_label_2
_geom_bond_distance
_geom_bond_site_symmetry_2
S1 C2 1.721(3) .
S1 C8 1.7247(19) .
C2 H2 0.91(3) .
C2 C3 1.363(3) .
C3 H3 0.92(3) .
C3 C4 1.417(3) .
C4 C5 1.505(3) .
C4 C8 1.369(3) .
C5 H5A 0.95(4) .
C5 H5B 0.95(3) .
C5 C6 1.540(3) .
C6 H6A 0.94(3) .
C6 H6B 0.96(3) .
C6 C7 1.531(3) .
C7 C7 1.343(4) 3_776
C7 C8 1.439(3) .
loop_
_geom_torsion_atom_site_label_1
_geom_torsion_atom_site_label_2
_geom_torsion_atom_site_label_3
_geom_torsion_atom_site_label_4
_geom_torsion
_geom_torsion_site_symmetry_1
_geom_torsion_site_symmetry_4
S1 C2 C3 C4 -0.5(3) . .
C2 S1 C8 C4 0.21(17) . .
C2 S1 C8 C7 177.9(2) . .
C2 C3 C4 C5 -179.5(3) . .
C2 C3 C4 C8 0.7(3) . .
C3 C4 C5 C6 179.5(2) . .
C3 C4 C8 S1 -0.6(2) . .
C3 C4 C8 C7 -178.74(16) . .
C4 C5 C6 C7 -0.1(2) . .
C5 C4 C8 S1 179.62(15) . .
C5 C4 C8 C7 1.4(3) . .
C5 C6 C7 C7 -178.7(3) . 3_776
C5 C6 C7 C8 0.9(2) . .
C6 C7 C8 S1 -179.09(17) . .
C6 C7 C8 C4 -1.5(2) . .
C7 C7 C8 S1 0.5(4) 3_776 .
C7 C7 C8 C4 178.1(2) 3_776 .
C8 S1 C2 C3 0.19(18) . .
C8 C4 C5 C6 -0.7(3) . .
