#------------------------------------------------------------------------------
#$Date: 2019-11-25 00:04:17 +0200 (Mon, 25 Nov 2019) $
#$Revision: 239741 $
#$URL: file:///home/coder/svn-repositories/cod/cif/4/00/34/4003420.cif $
#------------------------------------------------------------------------------
#
# This file is available in the Crystallography Open Database (COD),
# http://www.crystallography.net/
#
# All data on this site have been placed in the public domain by the
# contributors.
#
data_4003420
loop_
_publ_author_name
'Ovens, Jeffrey S.'
'Leznoff, Daniel B.'
_publ_section_title
;
 Raman Detected Sensing of Volatile Organic Compounds by Vapochromic
 Cu[AuX2(CN)2]2 (X = Cl, Br) Coordination Polymer Materials
;
_journal_issue                   5
_journal_name_full               'Chemistry of Materials'
_journal_page_first              1465
_journal_paper_doi               10.1021/cm502998w
_journal_volume                  27
_journal_year                    2015
_chemical_formula_sum            'C16 H28 Au2 Cl4 Cu N8 O4'
_chemical_formula_weight         995.74
_space_group_crystal_system      triclinic
_space_group_IT_number           2
_space_group_name_Hall           '-P 1'
_space_group_name_H-M_alt        'P -1'
_atom_sites_solution_hydrogens   geom
_atom_sites_solution_primary     direct
_cell_angle_alpha                86.0560(10)
_cell_angle_beta                 81.8950(10)
_cell_angle_gamma                86.0630(10)
_cell_formula_units_Z            1
_cell_length_a                   8.47180(10)
_cell_length_b                   8.61200(10)
_cell_length_c                   10.66120(10)
_cell_measurement_reflns_used    9281
_cell_measurement_temperature    296(2)
_cell_measurement_theta_max      34.11
_cell_measurement_theta_min      2.97
_cell_volume                     766.869(15)
_computing_cell_refinement       'Bruker SAINT'
_computing_data_collection       'Bruker APEX2'
_computing_data_reduction        'Bruker SAINT'
_computing_structure_refinement  'SHELXL-2013 (Sheldrick, 2013)'
_computing_structure_solution
; 
Bruker Intrinsic Phasing (Sheldrick, 2012) 
;
_diffrn_ambient_temperature      296(2)
_diffrn_measured_fraction_theta_full 0.999
_diffrn_measured_fraction_theta_max 0.992
_diffrn_measurement_device_type  'Bruker APEX-II DUO CCD'
_diffrn_measurement_method       '\w scans'
_diffrn_radiation_monochromator  graphite
_diffrn_radiation_type           'Mo K\a'
_diffrn_radiation_wavelength     0.71073
_diffrn_reflns_av_R_equivalents  0.0221
_diffrn_reflns_av_unetI/netI     0.0259
_diffrn_reflns_Laue_measured_fraction_full 0.999
_diffrn_reflns_Laue_measured_fraction_max 0.992
_diffrn_reflns_limit_h_max       13
_diffrn_reflns_limit_h_min       -12
_diffrn_reflns_limit_k_max       13
_diffrn_reflns_limit_k_min       -13
_diffrn_reflns_limit_l_max       15
_diffrn_reflns_limit_l_min       -16
_diffrn_reflns_number            17417
_diffrn_reflns_theta_full        25.242
_diffrn_reflns_theta_max         33.141
_diffrn_reflns_theta_min         1.933
_exptl_absorpt_coefficient_mu    10.612
_exptl_absorpt_correction_T_max  0.7476
_exptl_absorpt_correction_T_min  0.5359
_exptl_absorpt_correction_type   multi-scan
_exptl_crystal_colour            blue
_exptl_crystal_density_diffrn    2.156
_exptl_crystal_description       block
_exptl_crystal_F_000             467
_exptl_crystal_size_max          0.188
_exptl_crystal_size_mid          0.184
_exptl_crystal_size_min          0.141
_refine_diff_density_max         1.107
_refine_diff_density_min         -0.773
_refine_diff_density_rms         0.121
_refine_ls_extinction_method     none
_refine_ls_goodness_of_fit_ref   1.059
_refine_ls_hydrogen_treatment    constr
_refine_ls_matrix_type           full
_refine_ls_number_parameters     167
_refine_ls_number_reflns         5805
_refine_ls_number_restraints     1
_refine_ls_restrained_S_all      1.060
_refine_ls_R_factor_all          0.0368
_refine_ls_R_factor_gt           0.0263
_refine_ls_shift/su_max          0.000
_refine_ls_shift/su_mean         0.000
_refine_ls_structure_factor_coef Fsqd
_refine_ls_weighting_details
;
 w=1/[\s^2^(Fo^2^)+(0.0339P)^2^]
 where P=(Fo^2^+2Fc^2^)/3
;
_refine_ls_weighting_scheme      calc
_refine_ls_wR_factor_gt          0.0642
_refine_ls_wR_factor_ref         0.0674
_reflns_number_gt                4646
_reflns_number_total             5805
_reflns_threshold_expression     'I > 2\s(I)'
_cod_data_source_file            cm502998w_si_002.cif
_cod_data_source_block           Cu_DMF_Au3Cl
_cod_database_code               4003420
_shelx_space_group_comment
;
The symmetry employed for this shelxl refinement is uniquely defined
by the following loop, which should always be used as a source of
symmetry information in preference to the above space-group names.
They are only intended as comments.
;
_shelxl_version_number           2013-2
_shelx_res_file
;
TITL Cu_DMF_Au3Cl in P-1
CELL  0.71073   8.4718   8.6120  10.6612   86.056   81.895   86.063
ZERR    1.00   0.0001   0.0001   0.0001   0.001   0.001   0.001
LATT  1
SFAC C H N O CL CU AU
UNIT 16 28 8 4 4 1 2
LIST 4
TEMP 23.000
SHEL 999 0.650
L.S. 4
ACTA
DELU 0.001 C2 N2
EQIV $1 x, y+1, z
BIND Au1 N2
BIND Au2 Cl1_$1
BIND Cu1 N1
BOND
FMAP 2
PLAN 20
WGHT    0.033900
FVAR       0.48642
AU1   7    0.000000    0.500000    0.500000    10.50000    0.03037    0.03784 =
         0.02523    0.00391   -0.00207   -0.00331
AU2   7    0.500000    1.000000    0.500000    10.50000    0.04684    0.04682 =
         0.05063    0.00507   -0.00809    0.00093
CU1   6    0.000000    0.500000    0.000000    10.50000    0.03206    0.03811 =
         0.02875    0.00618    0.00197   -0.00105
CL1   5    0.167623    0.281002    0.486708    11.00000    0.06115    0.05343 =
         0.06341    0.01122    0.00821    0.01624
CL2   5    0.543875    0.952391    0.290631    11.00000    0.12682    0.08360 =
         0.06829    0.00060   -0.00980   -0.01507
O1    4    0.089309    0.282092    0.028617    11.00000    0.04604    0.04369 =
         0.04215    0.00797    0.00248    0.00224
O2    4    0.214704    0.563086   -0.070133    11.00000    0.03796    0.05036 =
         0.04011    0.00267    0.00449   -0.00631
N1    3    0.047894    0.553139    0.205818    11.00000    0.05876    0.05441 =
         0.03264   -0.00045   -0.00590   -0.00474
N2    3    0.265461    0.736708    0.557356    11.00000    0.07813    0.08342 =
         0.11910   -0.00915   -0.00983   -0.02107
N3    3    0.105167    0.057689    0.148101    11.00000    0.05827    0.03951 =
         0.05582    0.00559   -0.00921   -0.00219
N4    3    0.448822    0.527812   -0.197022    11.00000    0.03495    0.04846 =
         0.05443    0.00400    0.00576   -0.00384
C1    1    0.032869    0.534094    0.312632    11.00000    0.03742    0.04580 =
         0.03006    0.00377   -0.00332   -0.00361
C2    1    0.341553    0.826106    0.537481    11.00000    0.05067    0.05052 =
         0.04665   -0.00162   -0.00492    0.00737
C3    1    0.048499    0.199191    0.126934    11.00000    0.04500    0.03717 =
         0.04598    0.00465   -0.00308   -0.00185
AFIX  43
H3    2   -0.027378    0.241639    0.188933    11.00000   -1.20000
AFIX   0
C4    1    0.221622   -0.018373    0.056427    11.00000    0.07810    0.06072 =
         0.08242   -0.01248   -0.01617    0.02103
AFIX 137
H4A   2    0.191986   -0.122426    0.048213    11.00000   -1.50000
H4B   2    0.324787   -0.022387    0.084364    11.00000   -1.50000
H4C   2    0.225515    0.039125   -0.024242    11.00000   -1.50000
AFIX   0
C5    1    0.051981   -0.033344    0.267274    11.00000    0.10652    0.05482 =
         0.07939    0.02925    0.00336    0.00215
AFIX 137
H5A   2   -0.012196   -0.114827    0.249810    11.00000   -1.50000
H5B   2   -0.009956    0.034019    0.326174    11.00000   -1.50000
H5C   2    0.143530   -0.078388    0.303289    11.00000   -1.50000
AFIX   0
C6    1    0.301706    0.495230   -0.156482    11.00000    0.03485    0.04336 =
         0.04616    0.00120   -0.00047   -0.00285
AFIX  43
H6    2    0.258960    0.416546   -0.194259    11.00000   -1.20000
AFIX   0
C7    1    0.538607    0.448880   -0.305909    11.00000    0.05493    0.08059 =
         0.10087   -0.02484    0.02987   -0.00722
AFIX 137
H7A   2    0.472232    0.376893   -0.335150    11.00000   -1.50000
H7B   2    0.632031    0.393338   -0.280185    11.00000   -1.50000
H7C   2    0.569979    0.525049   -0.373241    11.00000   -1.50000
AFIX   0
C8    1    0.524913    0.647810   -0.143730    11.00000    0.05058    0.07479 =
         0.07827   -0.00563   -0.00054   -0.02399
AFIX 137
H8A   2    0.524619    0.740698   -0.198927    11.00000   -1.50000
H8B   2    0.633050    0.612838   -0.134849    11.00000   -1.50000
H8C   2    0.467696    0.669736   -0.061955    11.00000   -1.50000
AFIX   0
HKLF 4

REM  Cu_DMF_Au3Cl in P-1
REM R1 =  0.0263 for    4646 Fo > 4sig(Fo)  and  0.0368 for all    5805 data
REM    167 parameters refined using      1 restraints

END

WGHT      0.0339      0.0000

REM Highest difference peak  1.107,  deepest hole -0.773,  1-sigma level  0.121
Q1    1   0.4355  1.0628  0.5430  11.00000  0.05    0.94
Q2    1   0.0423  0.4390  0.4526  11.00000  0.05    0.91
Q3    1   0.4369  0.9392  0.4875  11.00000  0.05    0.89
Q4    1   0.3151  0.8270  0.5006  11.00000  0.05    0.81
Q5    1   0.3802  0.7848  0.5400  11.00000  0.05    0.80
Q6    1   0.3354  0.8179  0.5850  11.00000  0.05    0.77
Q7    1   0.4528  1.0223  0.4392  11.00000  0.05    0.76
Q8    1   0.0497  0.4853  0.5585  11.00000  0.05    0.76
Q9    1   0.0563  0.5655  0.4908  11.00000  0.05    0.67
Q10   1   0.5492  0.9227  0.2047  11.00000  0.05    0.62
Q11   1   0.4954  0.7034 -0.0964  11.00000  0.05    0.41
Q12   1   0.4209  0.4772 -0.1620  11.00000  0.05    0.40
Q13   1   0.4727  0.5856 -0.1800  11.00000  0.05    0.39
Q14   1   0.2089  0.5854 -0.1011  11.00000  0.05    0.37
Q15   1   0.2631 -0.0591  0.0653  11.00000  0.05    0.37
Q16   1   0.2505  0.6209 -0.0291  11.00000  0.05    0.36
Q17   1   0.2558  0.0135  0.0755  11.00000  0.05    0.35
Q18   1   0.3942  0.7061 -0.0805  11.00000  0.05    0.34
Q19   1   0.2141  0.3480  0.4663  11.00000  0.05    0.34
Q20   1   0.1864 -0.1344  0.1851  11.00000  0.05    0.34
;
_shelx_res_checksum              38103
loop_
_space_group_symop_operation_xyz
'x, y, z'
'-x, -y, -z'
loop_
_atom_site_label
_atom_site_type_symbol
_atom_site_fract_x
_atom_site_fract_y
_atom_site_fract_z
_atom_site_U_iso_or_equiv
_atom_site_adp_type
_atom_site_occupancy
_atom_site_site_symmetry_order
_atom_site_calc_flag
_atom_site_refinement_flags_posn
_atom_site_refinement_flags_adp
_atom_site_refinement_flags_occupancy
Au1 Au 0.0000 0.5000 0.5000 0.03153(5) Uani 1 2 d S . P
Au2 Au 0.5000 1.0000 0.5000 0.04851(6) Uani 1 2 d S . P
Cu1 Cu 0.0000 0.5000 0.0000 0.03399(10) Uani 1 2 d S . P
Cl1 Cl 0.16762(11) 0.28100(11) 0.48671(9) 0.0625(2) Uani 1 1 d . . .
Cl2 Cl 0.54388(19) 0.95239(17) 0.29063(13) 0.0931(4) Uani 1 1 d . . .
O1 O 0.0893(2) 0.2821(2) 0.0286(2) 0.0455(5) Uani 1 1 d . . .
O2 O 0.2147(3) 0.5631(3) -0.0701(2) 0.0438(5) Uani 1 1 d . . .
N1 N 0.0479(3) 0.5531(3) 0.2058(2) 0.0487(6) Uani 1 1 d . . .
N2 N 0.2655(5) 0.7367(5) 0.5574(6) 0.0930(12) Uani 1 1 d . U .
N3 N 0.1052(4) 0.0577(3) 0.1481(3) 0.0515(7) Uani 1 1 d . . .
N4 N 0.4488(3) 0.5278(3) -0.1970(3) 0.0474(6) Uani 1 1 d . . .
C1 C 0.0329(4) 0.5341(4) 0.3126(3) 0.0381(6) Uani 1 1 d . . .
C2 C 0.3416(4) 0.8261(4) 0.5375(3) 0.0500(7) Uani 1 1 d . U .
C3 C 0.0485(4) 0.1992(3) 0.1269(3) 0.0434(6) Uani 1 1 d . . .
H3 H -0.0274 0.2416 0.1889 0.052 Uiso 1 1 calc R U .
C4 C 0.2216(6) -0.0184(5) 0.0564(5) 0.0740(12) Uani 1 1 d . . .
H4A H 0.1920 -0.1224 0.0482 0.111 Uiso 1 1 calc R U .
H4B H 0.3248 -0.0224 0.0844 0.111 Uiso 1 1 calc R U .
H4C H 0.2255 0.0391 -0.0242 0.111 Uiso 1 1 calc R U .
C5 C 0.0520(7) -0.0333(6) 0.2673(5) 0.0837(15) Uani 1 1 d . . .
H5A H -0.0122 -0.1148 0.2498 0.125 Uiso 1 1 calc R U .
H5B H -0.0100 0.0340 0.3262 0.125 Uiso 1 1 calc R U .
H5C H 0.1435 -0.0784 0.3033 0.125 Uiso 1 1 calc R U .
C6 C 0.3017(4) 0.4952(4) -0.1565(3) 0.0421(6) Uani 1 1 d . . .
H6 H 0.2590 0.4165 -0.1943 0.051 Uiso 1 1 calc R U .
C7 C 0.5386(5) 0.4489(6) -0.3059(5) 0.0816(14) Uani 1 1 d . . .
H7A H 0.4722 0.3769 -0.3351 0.122 Uiso 1 1 calc R U .
H7B H 0.6320 0.3933 -0.2802 0.122 Uiso 1 1 calc R U .
H7C H 0.5700 0.5250 -0.3732 0.122 Uiso 1 1 calc R U .
C8 C 0.5249(4) 0.6478(5) -0.1437(4) 0.0677(10) Uani 1 1 d . . .
H8A H 0.5246 0.7407 -0.1989 0.102 Uiso 1 1 calc R U .
H8B H 0.6331 0.6128 -0.1348 0.102 Uiso 1 1 calc R U .
H8C H 0.4677 0.6697 -0.0620 0.102 Uiso 1 1 calc R U .
loop_
_atom_site_aniso_label
_atom_site_aniso_U_11
_atom_site_aniso_U_22
_atom_site_aniso_U_33
_atom_site_aniso_U_23
_atom_site_aniso_U_13
_atom_site_aniso_U_12
Au1 0.03037(7) 0.03784(8) 0.02523(7) 0.00391(5) -0.00207(5) -0.00331(5)
Au2 0.04684(10) 0.04682(10) 0.05063(10) 0.00507(7) -0.00809(8) 0.00093(7)
Cu1 0.0321(2) 0.0381(2) 0.0287(2) 0.00618(17) 0.00197(17) -0.00105(18)
Cl1 0.0611(5) 0.0534(5) 0.0634(5) 0.0112(4) 0.0082(4) 0.0162(4)
Cl2 0.1268(11) 0.0836(8) 0.0683(7) 0.0006(6) -0.0098(7) -0.0151(8)
O1 0.0460(11) 0.0437(12) 0.0421(11) 0.0080(9) 0.0025(9) 0.0022(9)
O2 0.0380(11) 0.0504(13) 0.0401(11) 0.0027(9) 0.0045(9) -0.0063(9)
N1 0.0588(16) 0.0544(16) 0.0326(12) -0.0004(11) -0.0059(11) -0.0047(13)
N2 0.078(3) 0.083(3) 0.119(3) -0.009(2) -0.010(2) -0.0211(19)
N3 0.0583(17) 0.0395(15) 0.0558(17) 0.0056(12) -0.0092(14) -0.0022(12)
N4 0.0349(13) 0.0485(16) 0.0544(16) 0.0040(12) 0.0058(12) -0.0038(11)
C1 0.0374(14) 0.0458(17) 0.0301(13) 0.0038(11) -0.0033(11) -0.0036(12)
C2 0.0507(18) 0.0505(18) 0.0467(17) -0.0016(14) -0.0049(14) 0.0074(12)
C3 0.0450(16) 0.0372(15) 0.0460(16) 0.0046(12) -0.0031(13) -0.0018(12)
C4 0.078(3) 0.061(3) 0.082(3) -0.012(2) -0.016(2) 0.021(2)
C5 0.107(4) 0.055(2) 0.079(3) 0.029(2) 0.003(3) 0.002(2)
C6 0.0349(14) 0.0434(16) 0.0462(16) 0.0012(13) -0.0005(12) -0.0028(12)
C7 0.055(2) 0.081(3) 0.101(3) -0.025(3) 0.030(2) -0.007(2)
C8 0.051(2) 0.075(3) 0.078(3) -0.006(2) -0.0005(19) -0.0240(18)
loop_
_atom_type_symbol
_atom_type_description
_atom_type_scat_dispersion_real
_atom_type_scat_dispersion_imag
_atom_type_scat_source
C C 0.0033 0.0016 'International Tables Vol C Tables 4.2.6.8 and 6.1.1.4'
H H 0.0000 0.0000 'International Tables Vol C Tables 4.2.6.8 and 6.1.1.4'
N N 0.0061 0.0033 'International Tables Vol C Tables 4.2.6.8 and 6.1.1.4'
O O 0.0106 0.0060 'International Tables Vol C Tables 4.2.6.8 and 6.1.1.4'
Cl Cl 0.1484 0.1585 'International Tables Vol C Tables 4.2.6.8 and 6.1.1.4'
Cu Cu 0.3201 1.2651 'International Tables Vol C Tables 4.2.6.8 and 6.1.1.4'
Au Au -2.0133 8.8022 'International Tables Vol C Tables 4.2.6.8 and 6.1.1.4'
loop_
_geom_angle_atom_site_label_1
_geom_angle_atom_site_label_2
_geom_angle_atom_site_label_3
_geom_angle
_geom_angle_site_symmetry_1
_geom_angle_site_symmetry_3
C1 Au1 C1 180.0 . 2_566
C1 Au1 Cl1 89.60(9) . 2_566
C1 Au1 Cl1 90.41(9) 2_566 2_566
C1 Au1 Cl1 90.40(9) . .
C1 Au1 Cl1 89.60(9) 2_566 .
Cl1 Au1 Cl1 180.0 2_566 .
C1 Au1 N2 96.97(13) . .
C1 Au1 N2 83.03(13) 2_566 .
Cl1 Au1 N2 83.47(8) 2_566 .
Cl1 Au1 N2 96.53(8) . .
C2 Au2 C2 180.00(13) . 2_676
C2 Au2 Cl2 88.59(10) . 2_676
C2 Au2 Cl2 91.41(10) 2_676 2_676
C2 Au2 Cl2 91.41(10) . .
C2 Au2 Cl2 88.59(10) 2_676 .
Cl2 Au2 Cl2 180.00(10) 2_676 .
C2 Au2 Cl1 89.11(9) . 1_565
C2 Au2 Cl1 90.89(9) 2_676 1_565
Cl2 Au2 Cl1 82.47(4) 2_676 1_565
Cl2 Au2 Cl1 97.53(4) . 1_565
O2 Cu1 O2 180.0 . 2_565
O2 Cu1 O1 89.58(9) . .
O2 Cu1 O1 90.42(9) 2_565 .
O2 Cu1 O1 90.42(9) . 2_565
O2 Cu1 O1 89.58(9) 2_565 2_565
O1 Cu1 O1 180.0 . 2_565
O2 Cu1 N1 90.04(9) . .
O2 Cu1 N1 89.96(9) 2_565 .
O1 Cu1 N1 89.19(9) . .
O1 Cu1 N1 90.81(9) 2_565 .
O2 Cu1 N1 89.96(9) . 2_565
O2 Cu1 N1 90.04(9) 2_565 2_565
O1 Cu1 N1 90.81(9) . 2_565
O1 Cu1 N1 89.19(9) 2_565 2_565
N1 Cu1 N1 180.0 . 2_565
C3 O1 Cu1 122.9(2) . .
C6 O2 Cu1 123.4(2) . .
C1 N1 Cu1 153.8(2) . .
C2 N2 Au1 156.1(5) . .
C3 N3 C4 121.7(3) . .
C3 N3 C5 121.2(3) . .
C4 N3 C5 117.1(4) . .
C6 N4 C8 121.8(3) . .
C6 N4 C7 120.1(3) . .
C8 N4 C7 118.1(3) . .
N1 C1 Au1 178.4(3) . .
N2 C2 Au2 178.0(4) . .
O1 C3 N3 124.1(3) . .
O2 C6 N4 124.0(3) . .
loop_
_geom_bond_atom_site_label_1
_geom_bond_atom_site_label_2
_geom_bond_distance
_geom_bond_site_symmetry_2
Au1 C1 1.982(3) .
Au1 C1 1.982(3) 2_566
Au1 Cl1 2.2816(8) 2_566
Au1 Cl1 2.2817(8) .
Au1 N2 3.283(4) .
Au2 C2 2.061(4) .
Au2 C2 2.061(4) 2_676
Au2 Cl2 2.2715(13) 2_676
Au2 Cl2 2.2715(13) .
Au2 Cl1 3.5965(8) 1_565
Cu1 O2 1.964(2) .
Cu1 O2 1.964(2) 2_565
Cu1 O1 1.995(2) .
Cu1 O1 1.995(2) 2_565
Cu1 N1 2.367(3) .
Cu1 N1 2.367(3) 2_565
O1 C3 1.248(3) .
O2 C6 1.247(4) .
N1 C1 1.130(4) .
N2 C2 1.030(5) .
N3 C3 1.296(4) .
N3 C4 1.444(5) .
N3 C5 1.477(5) .
N4 C6 1.303(4) .
N4 C8 1.443(5) .
N4 C7 1.475(5) .
