#------------------------------------------------------------------------------
#$Date: 2021-12-04 01:11:43 +0200 (Sat, 04 Dec 2021) $
#$Revision: 271063 $
#$URL: file:///home/coder/svn-repositories/cod/cif/4/00/40/4004050.cif $
#------------------------------------------------------------------------------
#
# This file is available in the Crystallography Open Database (COD),
# http://www.crystallography.net/
#
# All data on this site have been placed in the public domain by the
# contributors.
#
data_4004050
loop_
_publ_author_name
'Wang, Yiran'
'Ziebel, Michael E.'
'Sun, Lei'
'Gish, J. Tyler'
'Pearson, Tyler J.'
'Lu, Xue-Zeng'
'Thorarinsdottir, Agnes E.'
'Hersam, Mark C.'
'Long, Jeffrey R.'
'Freedman, Danna E.'
'Rondinelli, James M.'
'Puggioni, Danilo'
'Harris, T. David'
_publ_section_title
;
 Strong Magnetocrystalline Anisotropy Arising from Metal--Ligand Covalency
 in a Metal--Organic Candidate for 2D Magnetic Order
;
_journal_issue                   22
_journal_name_full               'Chemistry of Materials'
_journal_page_first              8712
_journal_page_last               8721
_journal_paper_doi               10.1021/acs.chemmater.1c02670
_journal_volume                  33
_journal_year                    2021
_chemical_formula_moiety         '0.33(C18 Cl6 Fe2 O12), 0.67(C4 H12 N1)'
_chemical_formula_sum            'C14 H24 Cl2 Fe2 N2 O4'
_chemical_formula_weight         466.95
_chemical_name_common            2
_space_group_crystal_system      trigonal
_space_group_IT_number           162
_space_group_name_Hall           '-P 3 2'
_space_group_name_H-M_alt        'P -3 1 m'
_atom_sites_solution_hydrogens   geom
_atom_sites_solution_primary     dual
_audit_creation_date             2018-04-13
_audit_creation_method
;
Olex2 1.2
(compiled 2017.08.10 svn.r3458 for OlexSys, GUI svn.r5381)
;
_cell_angle_alpha                90
_cell_angle_beta                 90
_cell_angle_gamma                120
_cell_formula_units_Z            3
_cell_length_a                   13.5717(18)
_cell_length_b                   13.5717(18)
_cell_length_c                   9.9759(18)
_cell_measurement_reflns_used    939
_cell_measurement_temperature    250(2)
_cell_measurement_theta_max      50.11
_cell_measurement_theta_min      3.76
_cell_volume                     1591.3(4)
_computing_cell_refinement       'SAINT V8.38A (?, 2016)'
_computing_data_reduction        'SAINT V8.38A (?, 2016)'
_computing_molecular_graphics    'Olex2 (Dolomanov et al., 2009)'
_computing_publication_material  'Olex2 (Dolomanov et al., 2009)'
_computing_structure_refinement  'XL (Sheldrick, 2008)'
_computing_structure_solution    'XT (Sheldrick, 2015)'
_diffrn_ambient_temperature      250.0
_diffrn_measured_fraction_theta_full 0.989
_diffrn_measured_fraction_theta_max 0.989
_diffrn_measurement_device_type  'Bruker APEX-II CCD'
_diffrn_measurement_method       '\f and \w scans'
_diffrn_radiation_type           CuK\a
_diffrn_radiation_wavelength     1.54178
_diffrn_reflns_av_R_equivalents  0.0705
_diffrn_reflns_av_unetI/netI     0.0669
_diffrn_reflns_Laue_measured_fraction_full 0.989
_diffrn_reflns_Laue_measured_fraction_max 0.989
_diffrn_reflns_limit_h_max       9
_diffrn_reflns_limit_h_min       -9
_diffrn_reflns_limit_k_max       13
_diffrn_reflns_limit_k_min       -7
_diffrn_reflns_limit_l_max       9
_diffrn_reflns_limit_l_min       -9
_diffrn_reflns_number            2180
_diffrn_reflns_point_group_measured_fraction_full 0.989
_diffrn_reflns_point_group_measured_fraction_max 0.989
_diffrn_reflns_theta_full        50.358
_diffrn_reflns_theta_max         50.358
_diffrn_reflns_theta_min         3.761
_diffrn_standards_number         0
_exptl_absorpt_coefficient_mu    13.445
_exptl_absorpt_correction_T_max  0.7499
_exptl_absorpt_correction_T_min  0.4603
_exptl_absorpt_correction_type   multi-scan
_exptl_absorpt_process_details
;
SADABS-2016/2 (Bruker,2016/2) was used for absorption correction.
wR2(int) was 0.1033 before and 0.0593 after correction.
The Ratio of minimum to maximum transmission is 0.6138.
The \l/2 correction factor is Not present.
;
_exptl_crystal_colour            black
_exptl_crystal_density_diffrn    1.462
_exptl_crystal_description       plate
_exptl_crystal_F_000             720
_exptl_crystal_size_max          0.306
_exptl_crystal_size_mid          0.157
_exptl_crystal_size_min          0.014
_refine_diff_density_max         0.768
_refine_diff_density_min         -0.583
_refine_diff_density_rms         0.105
_refine_ls_extinction_method     none
_refine_ls_goodness_of_fit_ref   1.090
_refine_ls_hydrogen_treatment    constr
_refine_ls_matrix_type           full
_refine_ls_number_parameters     47
_refine_ls_number_reflns         606
_refine_ls_number_restraints     16
_refine_ls_restrained_S_all      1.075
_refine_ls_R_factor_all          0.1294
_refine_ls_R_factor_gt           0.1011
_refine_ls_shift/su_max          0.001
_refine_ls_shift/su_mean         0.000
_refine_ls_structure_factor_coef Fsqd
_refine_ls_weighting_details
'w=1/[\s^2^(Fo^2^)+(0.2000P)^2^] where P=(Fo^2^+2Fc^2^)/3'
_refine_ls_weighting_scheme      calc
_refine_ls_wR_factor_gt          0.2595
_refine_ls_wR_factor_ref         0.2916
_reflns_Friedel_coverage         0.000
_reflns_number_gt                397
_reflns_number_total             606
_reflns_threshold_expression     'I > 2\s(I)'
_cod_data_source_file            cm1c02670_si_002.cif
_cod_data_source_block           NMe4_Fe2_Cl2dhbq3
_cod_original_cell_volume        1591.3(5)
_cod_database_code               4004050
_shelx_shelxl_version_number     2016/6
_shelx_space_group_comment
;
The symmetry employed for this shelxl refinement is uniquely defined
by the following loop, which should always be used as a source of
symmetry information in preference to the above space-group names.
They are only intended as comments.
;
_shelx_estimated_absorpt_t_max   0.834
_shelx_estimated_absorpt_t_min   0.105
_olex2_refinement_description
;
1. Fixed Uiso
 At 1.5 times of:
  All C(H,H,H) groups
2. Restrained distances
 N1-C3 \\sim N1-C4
 with sigma of 0.002
3. Rigid bond restraints
 C3, N1, C4
 with sigma for 1-2 distances of 0.002 and sigma for 1-3 distances of 0.002
4. Uiso/Uaniso restraints and constraints
C3 \\sim N1 \\sim C4: within 2A with sigma of 0.002 and sigma for terminal
atoms of 0.002
5. Others
 Fixed Sof: C3(0.16667) H3A(0.16667) H3B(0.16667) H3C(0.16667) C4(0.5)
 H4A(0.5) H4B(0.5) H4C(0.5)
6.a Me refined with riding coordinates:
 C3(H3A,H3B,H3C), C4(H4A,H4B,H4C)
;
_shelx_res_file
;
TITL p-31m_a.res in P-31m
    p-31m.res
    created by SHELXL-2016/6 at 14:25:11 on 13-Apr-2018
REM Old TITL P-31m in P-31m
REM SHELXT solution in P-31m
REM R1 0.257, Rweak 0.006, Alpha 0.035, Orientation as input
REM Formula found by SHELXT: C6 N3 O6 Cl3 Fe
CELL 1.54178 13.5717 13.5717 9.9759 90 90 120
ZERR 3 0.0018 0.0018 0.0018 0 0 0
LATT 1
SYMM -Y,+X-Y,+Z
SYMM +Y-X,-X,+Z
SYMM -Y,-X,-Z
SYMM +Y-X,+Y,-Z
SYMM +X,+X-Y,-Z
SFAC C H N O Cl Fe
UNIT 42 72 6 12 6 6
SADI 0.002 N1 C3 N1 C4
DELU 0.002 0.002 C3 N1 C4
SIMU 0.002 0.002 2 C3 N1 C4

L.S. 4
PLAN  20
SIZE 0.014 0.157 0.306
TEMP -23.15
BOND $H
list 4
ABIN
fmap 2
acta
OMIT 1 2 1
OMIT -1 3 1
OMIT 1 1 1
OMIT 0 2 0
OMIT -1 3 0
OMIT -1 2 1
OMIT 0 1 2
REM <olex2.extras>
REM <HklSrc "%.\\P-31m.hkl">
REM </olex2.extras>

WGHT    0.200000
FVAR       0.64094
FE1   6    0.333333    0.666667    0.500000    10.16667    0.06065    0.06065 =
         0.08421    0.00000    0.00000    0.03033
CL1   5    0.392000    0.392000    0.221105    10.50000    0.12110    0.12110 =
         0.10559   -0.03876   -0.03876    0.08143
O1    4    0.355393    0.556064    0.385811    11.00000    0.06715    0.07083 =
         0.07711   -0.00641   -0.00845    0.03717
C1    1    0.423185    0.525069    0.432849    11.00000    0.05830    0.05213 =
         0.07015    0.00201   -0.00245    0.02223
C2    1    0.449760    0.449760    0.368887    10.50000    0.06514    0.06514 =
         0.05972   -0.01509   -0.01509    0.03651
N1    3    0.333333    0.666667    0.000000    10.16667    0.19791    0.19791 =
         0.15737    0.00000    0.00000    0.09895
C3    1    0.333333    0.666667   -0.147577    10.16667    0.19807    0.19807 =
         0.15743    0.00000    0.00000    0.09903
PART -1
AFIX  33
H3A   2    0.263056    0.660450   -0.179989    10.16667   -1.50000
H3B   2    0.397394    0.736944   -0.179989    10.16667   -1.50000
H3C   2    0.339550    0.602606   -0.179989    10.16667   -1.50000
AFIX   0
C4    1    0.432344    0.675425    0.071436    10.50000    0.19793    0.19758 =
         0.15735    0.00003    0.00015    0.09914
AFIX  33
H4A   2    0.488101    0.680356    0.006903    10.50000   -1.50000
H4B   2    0.466003    0.743014    0.127232    10.50000   -1.50000
H4C   2    0.408157    0.608676    0.127234    10.50000   -1.50000
AFIX   0
HKLF 4




REM  p-31m_a.res in P-31m
REM R1 =  0.1011 for     397 Fo > 4sig(Fo)  and  0.1294 for all     606 data
REM     47 parameters refined using     16 restraints

END

WGHT      0.2000      0.0000

REM Highest difference peak  0.768,  deepest hole -0.583,  1-sigma level  0.105
Q1    1   0.3619  0.3619  0.3320  10.50000  0.05    0.77
Q2    1   0.3333  0.6667  0.5870  10.33333  0.05    0.39
Q3    1   0.0000  0.0000  0.5000  10.08333  0.05    0.35
Q4    1   0.3701  0.3701  0.0825  10.50000  0.05    0.32
Q5    1   0.0601  0.0601  0.3824  10.50000  0.05    0.24
Q6    1   0.0000  0.0000  0.2729  10.16667  0.05    0.20
Q7    1   0.2110  0.4194  0.3082  11.00000  0.05    0.19
Q8    1   0.7419  0.7419  0.0452  10.50000  0.05    0.18
Q9    1   0.1788  0.4358  0.3240  11.00000  0.05    0.17
Q10   1   0.5616  0.6011  0.1914  11.00000  0.05    0.16
Q11   1   0.0000  0.0000  0.0656  10.16667  0.05    0.16
Q12   1   0.0921  0.0921  0.0250  10.50000  0.05    0.15
Q13   1   0.1904  0.1904  0.0640  10.50000  0.05    0.15
Q14   1   0.5817  0.7218  0.0944  11.00000  0.05    0.15
Q15   1   0.6121  0.6369  0.3255  11.00000  0.05    0.14
Q16   1   0.6770  0.7887  0.2798  11.00000  0.05    0.14
Q17   1   0.6781  0.6781  0.3157  10.50000  0.05    0.13
Q18   1   0.5775  0.6514  0.1640  11.00000  0.05    0.13
Q19   1   0.7497  0.7497  0.1531  10.50000  0.05    0.13
Q20   1   0.3624  0.5423  0.3144  11.00000  0.05    0.13
;
_shelx_res_checksum              18019
_shelx_hkl_file
;
   0  -1   0 2798.02  132.59
   0   1   0 2651.63  132.19
   1   1   0 1360.66   77.99
  -1   2   0 1171.58   75.39
  -1  -1   0 1265.87   76.29
   0   2   0  191.98   51.49
  -2   3   0 4758.52  229.48
   1   2   0 4177.38  234.98
  -1   3   0 5093.89  234.58
   0   3   0 5374.16  267.17
  -2   4   0  439.46   82.79
   2   2   0  460.05   69.59
  -1   4   0   -3.90   47.20
   1   3   0  -13.90   56.59
   0   4   0  196.58   57.09
   2   3   0   74.49   55.69
   1   4   0   25.80   63.49
  -1   5   0   10.60    2.40
   0   5   0  669.63   31.20
  -3   6   0  383.36   17.50
   3   3   0  342.57   18.20
  -4   6   0  281.37   13.70
   2   4   0  242.58   14.80
   2   4   0  310.87   14.40
  -2   6   0  279.07   13.70
  -5   6   0  245.08   12.70
   1   5   0  263.17   12.80
  -1   6   0  247.08   12.80
   1   5   0  246.28   14.10
  -1   6   0  268.37   14.50
  -6   6   0  252.57   13.10
   0   6   0  269.47   13.40
   0   6   0  261.87   15.10
  -4   7   0  143.69    8.20
   4   3   0  124.09    9.30
  -3   7   0  132.99    8.30
   3   4   0  127.79    9.50
  -5   7   0  828.92   37.80
   5   2   0  781.82   38.20
  -2   7   0  779.62   39.10
   2   5   0  817.72   37.90
  -2   7   0  807.82   37.80
   2   5   0  847.42   38.70
   6   1   0  490.35   23.90
  -6   7   0  466.35   23.30
  -1   7   0  486.65   25.20
   1   6   0  507.25   24.80
  -1   7   0  490.05   23.50
   1   6   0  490.85   23.50
  -7   7   0   11.00    4.60
   0   7   0    6.20    3.90
   0   7   0    0.30    5.70
  -4   8   0    2.20    3.70
   4   4   0    0.30    4.60
  -5   8   0   66.69    7.00
   5   3   0   49.00    8.40
   3   5   0   59.09    9.20
  -3   8   0   53.39    7.10
   6   2   0  133.09   11.10
  -6   8   0  143.39    9.40
  -2   8   0  150.08    9.90
   2   6   0  136.89   12.10
  -2   8   0  147.19   12.60
   2   6   0  139.69    9.70
  -7   8   0  534.05   26.20
  -1   8   0  561.24   26.50
   1   7   0  559.94   26.30
  -1   8   0  516.45   28.40
   1   7   0  553.94   28.30
   0   8   0   -1.40    4.60
   0   8   0    2.90    6.90
  -5   9   0   36.60    7.60
   5   4   0   28.90    6.10
   4   5   0   41.40   10.30
  -4   9   0   42.00    7.80
  -6   9   0   56.19    8.00
   6   3   0   36.10   10.10
   3   6   0   57.09   11.60
  -3   9   0   55.29    8.60
   7   2   0   64.99   10.00
  -7   9   0   72.89    8.70
  -2   9   0   77.19   13.00
  -2   9   0   84.39    9.30
   2   7   0   69.49   11.90
   2   7   0   76.69    8.90
   1   8   0  376.16   21.90
   1   8   0  354.36   19.20
  -1   9   0  364.26   22.30
  -1   9   0  361.66   19.20
   0   9   0  520.95   26.60
   0   9   0  537.45   29.60
   5   5   0  272.07   17.90
  -5  10   0  276.07   16.10
   6   4   0  152.08   13.70
  -6  10   0  138.99   11.70
   4   6   0  145.19   14.40
  -4  10   0  135.99   11.40
  -7  10   0   -3.00    5.90
   7   3   0    0.60    6.50
  -3  10   0    0.10    5.50
   3   7   0    6.50    7.60
  -8  10   0  351.56   18.90
  -2  10   0  323.07   22.40
   2   8   0  361.26   19.30
   2   8   0  363.36   22.30
  -2  10   0  336.87   18.90
  -1  10   0  172.98   13.30
   1   9   0  174.58   17.70
  -1  10   0  163.18   17.70
   1   9   0  165.28   13.00
   0  10   0    5.20    6.50
   0  10   0    9.20    9.10
  -6  11   0    3.00    6.10
   6   5   0    4.90    7.70
  -5  11   0    6.40    6.10
   5   6   0    5.40    7.90
   7   4   0   34.80    7.50
  -7  11   0   44.10   10.50
  -4  11   0   33.50    6.70
   4   7   0   39.30    9.00
  -8  11   0   26.30    6.30
   3   8   0   30.50    9.30
  -3  11   0   27.20    6.30
  -2  11   0   -4.40    6.50
   2   9   0   -0.20    9.00
  -2  11   0   -2.90    9.10
  -1  11   0    5.40    9.20
   1  10   0   12.00    6.60
  -1  11   0    9.10    6.70
   1  10   0    6.00    9.20
   0  11   0   27.70    7.10
   0  11   0   24.40    9.10
   6   6   0    4.40    7.90
  -6  12   0   -3.50    6.00
  -7  12   0   16.60    6.30
   7   5   0   25.10    8.80
  -5  12   0   12.20    6.20
   5   7   0   22.30    8.90
  -8  12   0   -1.10    6.00
  -4  12   0    3.50    6.60
   4   8   0    8.10    9.00
   3   9   0    6.80    9.30
  -3  12   0    5.30    6.30
   2  10   0    6.60    8.80
  -2  12   0   -7.60    6.40
  -1  12   0   61.99   10.50
  -1  12   0   38.00    9.60
   1  11   0   59.89   13.90
  -7  13   0   -1.20    6.50
   7   6   0   -4.60    7.80
   6   7   0   -7.50    9.00
  -6  13   0    1.00    6.40
  -8  13   0   64.19   11.30
   5   8   0   77.79   15.00
  -5  13   0   42.90   10.40
  -4  13   0   16.80    6.10
   4   9   0   14.90    9.20
   0   0   1 4383.26  197.58
   0   0  -1 4013.00  197.18
  -1   1  -1  780.42   51.09
   0  -1   1  907.21   55.79
   1   0  -1  972.70   53.19
  -1   1   1  926.71   51.09
   1   0   1  961.20   56.29
   1  -1   1  920.91   53.49
  -1   0   1  900.11   52.49
   0   1  -1  813.92   56.19
  -1   0  -1  974.10   53.49
   0   1   1  752.72   53.19
  -1   2  -1  105.99   40.80
   1   1   1  122.49   29.00
   1  -2   1  117.39   36.70
  -1  -1   1 1533.25   85.29
   1   1  -1 1447.86   85.09
   0  -2   1  338.77   56.09
   0   2  -1  291.97   60.29
   1  -3   1 1076.49   85.69
  -2   3  -1 1128.79  136.99
  -1   3  -1 1118.99   95.59
   2  -3   1 1113.89   81.19
   2  -4   1 1368.36   98.19
  -1  -2   1 7346.56  351.56
   1   2  -1 7369.66  351.46
  -2  -1   1 7252.57  347.37
   0  -3   1  364.16   68.99
   0   3  -1  333.47   76.39
   1  -4   1  550.54   75.29
   1   3   1  422.46   64.89
  -1   4  -1  510.25   88.69
   2   3   1   39.60   46.70
   3   3   1   87.99    8.10
  -2  -2   1  393.86   67.59
   2   2  -1  279.27   68.19
  -1  -3   1 3473.65  192.48
   1   3  -1 3693.23  193.28
   0  -4   1  228.28   56.19
   0   4   1  119.29   46.60
   0   4  -1  196.88   68.79
   1   4   1  -38.40   51.29
   4   2   1  243.48   13.50
  -2   6  -1  245.38   12.40
   2   4   1  247.98   12.60
   2   4   1  239.58   13.80
   4   3   1   93.69    9.60
  -4   7  -1  128.19    7.70
   3   4   1  100.19    9.70
  -3   7  -1  126.49    7.80
   4   4   1  216.88   13.50
  -4   8  -1  208.08   11.90
   2   3  -1  665.73   89.29
  -2   5   1  442.56   21.40
  -1   5   1  562.74   26.30
   0   5   1   40.90    5.20
   0   5  -1   36.30    4.70
   1   5   1   11.90    4.80
   1   5   1   21.70    3.60
  -1   6  -1   24.50    5.00
  -1   6  -1   18.70    4.30
   5   2   1  353.86   19.20
  -5   7  -1  381.66   18.10
   2   5   1  379.76   18.40
  -2   7  -1  381.26   18.20
  -2   7  -1  369.36   19.90
   2   5   1  360.76   19.90
  -5   8  -1  176.38   10.60
   5   3   1  196.88   12.30
  -3   8  -1  170.18   10.70
   3   5   1  185.18   12.90
   3   5   1  164.68   10.80
   5   4   1    5.90    5.70
  -5   9  -1   14.50    4.60
   4   5   1    9.60    5.90
  -4   9  -1    9.40    4.60
  -5  10  -1   44.40    8.90
   5   5   1   42.50   11.50
  -3   6   1 2631.54  121.79
   3   3  -1 2684.33  121.99
   4   2  -1  641.24   31.20
  -4   6   1  681.43   31.00
   2   4  -1  657.23   31.50
  -2   6   1  674.93   31.00
  -5   6   1  149.49    8.10
   5   1  -1  125.39    8.10
  -1   6   1  141.79   11.10
   1   5  -1  134.49    8.10
  -1   6   1  132.39    8.40
   1   5  -1  134.79    9.30
  -6   6   1  161.18   12.70
   0   6   1  209.28   13.30
   0   6   1  202.88   10.80
   0   6  -1  202.48   12.10
   0   6  -1  194.58   10.60
  -6   7  -1  676.03   31.30
   6   1   1  593.44   32.00
   1   6   1  669.03   32.90
   1   6   1  670.13   31.50
  -1   7  -1  714.33   32.80
  -1   7  -1  681.83   31.40
  -6   8  -1    4.20    4.00
   2   6   1   -1.10    4.60
  -2   8  -1   -3.50    5.80
   2   6   1  -10.90    6.10
  -2   8  -1   -0.80    4.10
  -6   9  -1   50.09    7.80
   6   3   1   24.60    6.30
  -3   9  -1   36.60    7.90
   3   6   1   25.40    6.90
   6   4   1  187.98   15.20
  -6  10  -1  206.88   13.00
  -4  10  -1  217.38   13.20
   4   6   1  182.58   15.30
   6   5   1    3.70    8.20
  -6  11  -1   -0.70    5.80
   5   6   1   -1.20    7.80
  -5  11  -1    1.80    6.20
  -6  12  -1    3.30    6.50
   6   6   1    4.00    8.00
   4   3  -1   48.30    6.50
  -4   7   1   31.70    6.30
   3   4  -1   41.00    6.90
  -3   7   1   42.00    6.20
   5   2  -1   67.09    6.80
  -5   7   1   66.59    6.80
  -2   7   1   83.89    6.90
   2   5  -1   62.39    8.00
  -2   7   1   55.19    7.30
   2   5  -1   64.29    6.60
  -6   7   1  117.79    8.20
   6   1  -1   99.99    7.90
  -1   7   1   92.69   11.90
   1   6  -1  109.89    8.20
  -1   7   1  117.79    8.10
   1   6  -1  122.29    9.90
  -7   7  -1   92.99    7.30
   0   7   1   91.09    8.20
   0   7  -1   84.39    7.90
   0   7  -1   97.29   10.70
   0   7   1   95.49   12.00
  -7   8  -1  486.45   22.90
  -1   8  -1  475.85   23.20
  -1   8  -1  448.36   24.90
   1   7   1  485.05   23.10
   1   7   1  446.46   25.50
  -7   9  -1   -4.40    4.80
   2   7   1   -0.30    5.10
   2   7   1    2.20    7.00
  -2   9  -1    4.80    7.00
  -2   9  -1   -2.90    5.00
   7   3   1   19.30    7.00
  -7  10  -1   41.80    9.10
  -3  10  -1   21.40    5.90
   3   7   1   24.30    7.80
   7   4   1  345.87   21.30
  -7  11  -1  373.96   19.90
  -4  11  -1  371.56   20.10
   4   7   1  363.86   22.10
   7   5   1   74.19   13.20
  -7  12  -1   76.59   11.40
   5   7   1   76.49   15.50
  -5  12  -1   77.39   11.00
  -7  13  -1    1.50    6.00
   7   6   1    8.50    7.40
  -6  13  -1    0.50    5.90
   6   7   1   -0.60    8.20
  -4   8   1   -1.90    4.10
   4   4  -1    3.90    4.60
   5   3  -1   15.00    4.70
  -5   8   1   12.40    4.30
   3   5  -1   12.40    5.10
  -3   8   1   15.40    4.20
   6   2  -1  406.26   22.10
  -6   8   1  447.56   21.80
   2   6  -1  450.85   23.20
  -2   8   1  439.86   21.80
   2   6  -1  426.86   21.60
  -2   8   1  481.55   24.10
  -7   8   1  269.27   14.70
   1   7  -1  241.58   14.20
   1   7  -1  268.17   16.50
  -1   8   1  265.57   14.30
  -1   8   1  232.48   17.60
  -8   8  -1  170.48   14.30
   0   8   1  165.28   14.60
   0   8  -1  155.68   13.90
   0   8   1  154.58   11.00
   0   8  -1  157.28   11.20
  -8   9  -1  204.98   12.40
   1   8   1  197.68   16.50
   1   8   1  196.48   13.20
  -1   9  -1  187.98   13.20
  -1   9  -1  197.98   16.10
  -8  10  -1  171.48   12.40
  -2  10  -1  175.28   16.70
   2   8   1  183.88   12.50
  -2  10  -1  159.68   12.90
   2   8   1  167.58   16.50
  -8  11  -1  218.78   14.60
   3   8   1  231.08   17.40
  -3  11  -1  208.38   15.00
  -8  12  -1    7.50    6.50
  -4  12  -1   10.80    6.40
   4   8   1    5.00    9.20
  -8  13  -1    4.50    6.20
  -5  13  -1   -3.10    5.80
   5   8   1    2.20    8.60
  -5   9   1   66.09    8.40
   5   4  -1   49.90    9.90
  -4   9   1   63.89    8.50
   4   5  -1   52.89   10.30
  -6   9   1  347.97   18.60
   6   3  -1  365.06   19.50
   3   6  -1  373.16   20.50
  -3   9   1  336.17   18.40
   7   2  -1   72.89   10.20
  -7   9   1   78.99    8.90
  -2   9   1   71.49   13.10
  -2   9   1   72.39    9.10
   2   7  -1   74.29   11.90
  -1   9   1   11.90    5.50
   1   8  -1   11.60    5.30
  -1   9   1   -5.40    8.10
   1   8  -1    4.90    7.40
   0   9  -1  366.86   20.10
   0   9  -1  391.46   22.90
   0   9   1  380.56   19.70
   0   9   1  332.07   23.10
   1   9   1  130.19   15.80
   1   9   1  133.19   11.60
  -1  10  -1  129.29   16.10
  -1  10  -1  111.79   12.20
  -9  11  -1   69.19   14.60
   2   9   1   71.89   14.40
  -2  11  -1   62.79   16.40
  -2  11  -1   55.39   10.80
  -9  12  -1    3.30    6.70
  -3  12  -1   -4.90    6.00
   3   9   1   -2.80    9.40
  -9  13  -1   -2.70    6.10
   4   9   1    4.10    8.70
  -4  13  -1   -1.70    6.20
   5   5  -1    4.50    6.80
  -5  10   1    0.30    5.40
  -6  10   1   -2.10    5.40
   6   4  -1    1.10    6.60
  -4  10   1   -2.80    5.20
   4   6  -1    2.80    7.10
  -7  10   1    7.10    5.40
   7   3  -1   -0.60    6.80
   3   7  -1   11.90    7.70
  -3  10   1    8.00    5.90
   2   8  -1   35.00    8.50
  -2  10   1   29.30    6.10
  -2  10   1    4.40    8.50
   1   9  -1   16.20    8.70
  -1  10   1    8.10    6.10
  -1  10   1   -8.20    8.50
   1   9  -1   10.30    6.30
   0  10   1   17.20    8.90
   0  10   1   23.50    6.60
   0  10  -1   17.30    9.20
   0  10  -1   18.10    6.80
  -1  11  -1   -0.30    9.50
   1  10   1    2.90    9.30
  -1  11  -1    6.10    6.70
  -2  12  -1   -4.20    6.50
   2  10   1    3.50    9.20
   6   5  -1    1.20    8.00
  -6  11   1    1.20    5.80
  -5  11   1   -1.00    6.30
   5   6  -1   -5.10    8.00
   7   4  -1    1.40    7.90
  -7  11   1   -5.10    5.80
   4   7  -1   -2.50    8.40
  -4  11   1   -2.80    6.40
  -8  11   1   -0.50    6.40
  -3  11   1    5.10    6.20
   3   8  -1    5.60    8.80
   2   9  -1   21.80    9.30
  -2  11   1   17.70    9.60
  -2  11   1   12.80    6.40
  -1  11   1   19.10    6.70
  -1  11   1   18.10    9.70
   1  10  -1   16.70   10.00
   0  11  -1    7.60    6.60
   0  11   1    0.70    9.60
   0  11  -1   -1.20    9.10
  -1  12  -1   14.50    9.10
  -1  12  -1   31.60    6.70
   1  11   1   13.90    8.80
   6   6  -1   86.29   15.40
  -6  12   1   67.59   11.00
  -7  12   1   23.40    6.70
   7   5  -1   28.40    8.60
   5   7  -1   33.00    9.90
  -5  12   1   32.00    6.70
  -8  12   1    2.90    6.60
   4   8  -1    4.60    9.70
  -4  12   1    1.90    6.40
  -3  12   1   57.99   10.60
   3   9  -1   57.49   16.40
  -2  12   1   12.40    6.40
   2  10  -1   14.20    9.50
  -1  12   1   -8.50    8.60
   1  11  -1    3.90    8.90
   7   6  -1   -2.60    8.20
  -7  13   1    7.40    6.20
  -6  13   1   -1.00    6.20
   6   7  -1   -4.10    8.60
  -8  13   1   16.00    6.30
  -5  13   1   16.60    6.50
   5   8  -1   16.30    9.20
  -4  13   1   17.80    6.30
   4   9  -1   11.10    9.00
   0   0   2  210.28   54.69
   0   0  -2  185.58   50.09
   1   0  -2 1137.19   81.39
   0  -1   2 1414.86   79.39
  -1   1   2 1113.89   75.89
  -1   1  -2 1214.38   76.49
   1   0   2 1024.90   83.69
   0  -1  -2 1296.77   78.49
   1  -1   2 1362.86   78.99
  -1   0   2 1055.89   80.89
   0   1   2 1296.57   81.79
   1  -1  -2 1229.98   76.09
   0   1  -2 1333.77   77.19
  -2   1   2 2595.94  146.29
   1   1   2 2792.62  142.09
  -1  -1  -2 2817.42  141.29
   2  -1  -2 2837.82  138.29
  -1   2  -2 2539.45  142.49
   1  -2   2 2744.73  142.89
  -1  -1   2 9420.86  448.86
   1   1  -2 9348.76  447.86
   2  -1   2 9999.00  447.26
   0  -2   2  385.76   58.59
   2   0  -2  385.96   61.49
  -2   2   2  434.56   50.69
  -2   0   2  296.17   55.39
   0   2  -2  404.56   60.89
   2  -2   2  368.86   56.89
   0   2   2  459.85   50.59
   1  -3   2   24.60   41.70
   2   1   2   20.50   41.00
   2  -3   2   27.50   41.80
   1   2   2   21.70   33.50
  -1   3  -2    2.70   57.29
   2  -4   2   43.50   44.00
   2   2   2   49.20   38.40
  -1  -2   2  940.01   79.89
  -2   3   2 1000.50   73.39
   2   1  -2 1073.99   76.39
   1   2  -2 1163.28   80.89
  -1   3   2 1049.09   74.09
  -2  -1   2  983.30   78.49
  -3   3   2  106.29   42.50
   0  -3   2  162.98   46.70
   0   3   2  100.29   40.10
   0   3  -2  176.08   62.29
   1  -4   2  293.17   62.69
  -1   4  -2  322.87   85.29
   3  -4   2  321.77   65.39
   1   3   2  199.48   58.39
   2  -5   2   12.50   49.30
   2   3   2   33.80   44.30
   3  -5   2   44.40   48.00
   2   3   2   28.20   44.80
   3   3   2   14.50    4.60
   2   2  -2 3708.83  189.48
  -2  -2   2 3651.53  191.98
  -3   4   2   38.80   43.60
  -1  -3   2  -13.80   45.20
   1   3  -2   34.50   57.99
   0  -4   2  164.28   51.69
   0   4   2  111.99    7.30
   1   4   2  249.18   62.29
   4  -5   2  217.88   13.00
   1   4   2  202.38   12.60
   1   4   2  223.68   11.40
   4   2   2   53.89    7.90
   2   4   2   64.89    8.00
   2   4   2   32.40   56.79
   4   3   2  233.58   14.20
   3   4   2  231.88   13.90
   4   4   2   42.30    9.70
  -4   8  -2   45.90    7.00
  -3   5   2 2239.88  103.09
  -2   5   2 2245.08  103.09
   2   3  -2 2270.17  141.09
  -4   5   2 1672.83   83.39
  -1   5   2 1889.51   83.09
   1   4  -2 1869.21   83.49
   0   5  -2 1218.88   60.59
   0   5   2 1401.26   60.99
   0   5   2 1324.67   60.19
   5  -5   2 1281.17   60.59
   6  -1  -2   21.40    5.10
   5   1   2   25.70    6.60
  -1   6  -2   20.30    4.50
   1   5   2    9.80    4.00
   1   5   2   25.30    5.20
  -1   6  -2   24.70    5.60
   5   2   2   15.90    5.00
  -2   7  -2   14.60    4.80
  -2   7  -2   13.10    3.90
   2   5   2   14.40    5.20
  -5   8  -2  475.45   23.20
   5   3   2  500.85   24.40
   3   5   2  467.55   24.40
  -3   8  -2  470.95   23.30
   3   5   2  401.56   99.99
   5   4   2    1.30    6.10
  -5   9  -2    1.90    4.80
  -4   9  -2    0.10    4.80
   4   5   2    1.20    6.70
   5   5   2    1.80    7.00
  -5  10  -2   -5.90    5.40
  -3   6   2 2566.94  113.89
   3   3  -2 2403.66  114.19
  -4   6   2   -0.80    3.20
   4   2  -2    3.40    3.60
  -2   6   2    0.70    3.40
   2   4  -2    0.50    3.70
   5   1  -2   14.30    3.60
  -5   6   2   11.50    3.30
  -1   6   2   11.40    3.60
   1   5  -2   11.70    4.20
  -1   6   2    8.30    5.30
   1   5  -2   15.90    3.40
   6   0   2  166.68   11.30
   6   0  -2  177.18   10.10
   0   6  -2  181.48   11.40
   0   6  -2  173.18   10.30
   0   6   2  172.18   10.30
   0   6   2  185.78   12.40
   6   1   2   10.00    5.00
   1   6   2   13.90    5.70
  -1   7  -2   22.10    4.20
  -1   7  -2   15.40    5.00
   1   6   2   17.60    4.30
   6   2   2   58.99    9.50
  -2   8  -2   58.49   10.30
   2   6   2   68.59   10.20
  -2   8  -2   37.30    7.70
   6   3   2  468.35   24.30
  -6   9  -2  456.05   23.00
  -3   9  -2  451.45   23.20
   3   6   2  472.45   24.70
  -6  10  -2   39.90    9.30
   6   4   2   42.20   11.80
   4   6   2   43.70   12.60
  -4  10  -2   46.80    8.90
  -6  11  -2   11.70    6.00
   6   5   2   15.10    7.80
   5   6   2   17.10    8.10
  -5  11  -2   14.10    6.10
   6   6   2  237.58   16.70
  -6  12  -2  204.88   14.70
  -4   7   2  584.94   28.80
   4   3  -2  621.54   29.20
   3   4  -2  599.14   29.40
  -3   7   2  627.74   28.80
  -5   7   2  104.79    8.20
   5   2  -2  123.29    8.90
   2   5  -2  110.99    9.70
  -2   7   2  117.99   11.80
  -2   7   2  121.89    8.40
   6   1  -2    5.20    3.90
  -6   7   2    2.70    4.50
   1   6  -2   11.80    3.80
  -1   7   2    4.40    4.00
  -1   7   2    7.40    6.00
   1   6  -2   11.30    4.60
   0   7  -2  168.18   10.40
   0   7   2  150.08   10.60
   0   7   2  162.08   13.20
   0   7  -2  169.88   11.90
   1   7   2  254.17   16.70
  -1   8  -2  246.88   16.30
   1   7   2  260.37   14.10
  -1   8  -2  244.88   14.10
  -7   9  -2   64.99    8.80
   7   2   2   77.69   11.30
   2   7   2   70.79   12.00
  -2   9  -2   64.59   12.50
  -2   9  -2   59.09    9.20
  -7  10  -2   74.49    9.70
   7   3   2   58.49   12.10
   3   7   2   65.09   13.40
  -3  10  -2   39.00    9.60
  -7  11  -2  206.08   13.60
   7   4   2  188.98   15.70
  -4  11  -2  169.08   13.70
   4   7   2  196.38   16.50
  -7  12  -2  107.79   11.80
   7   5   2  117.59   14.10
   5   7   2  100.69   14.30
  -5  12  -2   96.19   12.10
   7   6   2    2.40    8.20
  -7  13  -2    4.10    6.40
  -6  13  -2   -4.20    6.10
   6   7   2   11.20    8.30
  -4   8   2  751.22   36.00
   4   4  -2  772.92   36.60
   5   3  -2   49.50    8.00
  -5   8   2   45.50    7.80
   3   5  -2   44.30    8.70
  -3   8   2   48.30    7.60
  -6   8   2  222.28   12.60
   6   2  -2  197.58   12.50
  -2   8   2  211.58   12.20
  -2   8   2  212.78   15.60
   2   6  -2  194.78   13.60
   7   1  -2  332.37   17.70
   1   7  -2  349.37   19.10
  -1   8   2  327.47   17.50
  -1   8   2  362.96   20.30
   1   7  -2  319.17   17.70
  -8   8  -2  317.87   17.20
   0   8  -2  333.07   20.00
   0   8  -2  327.87   17.80
   0   8   2  337.97   17.50
   0   8   2  333.87   20.30
  -8   9  -2    2.20    5.30
  -1   9  -2  -13.70    5.60
   1   8   2  -11.20    5.70
  -1   9  -2    1.40    7.30
   1   8   2   -4.50    8.00
  -8  10  -2   76.99   10.40
  -2  10  -2   56.39   10.50
   2   8   2   80.89   14.60
  -2  10  -2   77.09   14.70
  -8  11  -2  134.49   12.10
   3   8   2  121.09   15.20
  -3  11  -2  123.29   12.50
  -8  12  -2   -1.50    6.50
   4   8   2    2.20    8.20
  -4  12  -2    8.30    6.40
  -8  13  -2   -0.70    6.40
  -5  13  -2   -1.10    6.00
   5   8   2    1.40    7.70
   5   4  -2   22.70    5.80
  -5   9   2   16.30    5.50
   4   5  -2   25.10    6.20
  -4   9   2   15.50    5.20
   6   3  -2   41.80    9.70
  -6   9   2   40.60    9.00
  -3   9   2   37.80    8.40
   3   6  -2   31.90    6.90
  -7   9   2   54.89    9.40
   7   2  -2   44.90   10.10
  -2   9   2   45.60    8.50
   2   7  -2   43.80   12.00
  -2   9   2   28.30    8.70
   1   8  -2   29.80    6.00
  -1   9   2   33.20    5.90
  -1   9   2   29.40    9.00
   1   8  -2   32.10    7.80
   0   9   2  169.98   16.70
   0   9  -2  167.48   15.70
   0   9  -2  161.28   12.90
   0   9   2  183.48   12.30
  -9  10  -2    7.30    6.40
  -1  10  -2    2.20    6.30
  -1  10  -2   11.50    8.60
   1   9   2    6.80    8.90
  -9  11  -2   10.70    6.40
   2   9   2    4.50    8.60
  -2  11  -2   -9.30    6.50
  -9  12  -2   10.90    6.50
   3   9   2   16.60    8.60
  -3  12  -2   14.50    6.50
  -5  10   2    3.40    5.90
   5   5  -2    8.50    7.30
  -6  10   2   21.90    6.20
   6   4  -2   27.60    7.30
   4   6  -2   19.90    7.90
  -4  10   2   25.10    5.90
   7   3  -2   80.19   12.30
  -7  10   2   67.39   10.00
   3   7  -2   84.49   13.70
  -3  10   2   73.79    9.80
   2   8  -2    6.50    8.10
  -2  10   2   -2.70    8.80
  -2  10   2   -4.00    5.90
  -1  10   2    1.30    9.00
  -1  10   2    4.20    6.10
   1   9  -2    1.40    8.40
   0  10  -2   89.39   15.80
   0  10   2   57.29   15.20
   0  10  -2   66.79   11.00
   1  10   2   10.10    9.00
  -1  11  -2   12.60    9.40
  -1  11  -2    9.30    6.20
   2  10   2   -3.80    7.90
  -2  12  -2   -4.50    6.00
  -6  11   2    7.40    6.30
   6   5  -2   16.50    8.20
  -5  11   2   14.30    6.30
   5   6  -2    8.70    8.40
  -7  11   2   62.39   10.60
   7   4  -2   72.19   13.80
  -4  11   2   70.19   10.90
   4   7  -2   79.39   15.20
   3   8  -2   22.40    9.10
  -3  11   2   15.00    6.60
  -2  11   2   -5.60    9.20
   2   9  -2    8.00    9.00
  -2  11   2    1.20    6.10
  -1  11   2   54.59   15.10
   1  10  -2   80.39   15.40
   0  11  -2   14.40    9.40
   0  11   2    0.80    8.70
  -6  12   2    3.40    6.60
   6   6  -2    8.00    9.10
   7   5  -2   -2.80    8.30
  -7  12   2    0.20    6.50
   5   7  -2   -2.10    9.00
  -5  12   2    2.10    6.50
  -8  12   2   10.40   10.10
   4   8  -2   12.10    9.40
  -4  12   2   10.60    6.30
  -3  12   2   26.00    6.40
   3   9  -2   32.70    9.90
   2  10  -2   15.50    9.40
  -7  13   2   -0.20    6.00
   7   6  -2    4.40    8.30
   6   7  -2   -1.10    8.80
  -6  13   2   -2.80    6.00
  -8  13   2    1.10    7.30
  -5  13   2    4.90    6.00
   5   8  -2    1.70    9.20
   0   0  -3  197.98   43.80
   0   0   3  240.68   70.69
   1   0  -3   21.50   41.80
  -1   1   3   17.20   48.80
  -1   1  -3   -6.30   38.80
   1   0   3  -28.60   50.69
   0  -1  -3   25.60   38.10
   0  -1   3   16.60   46.40
   1  -1   3   38.80   47.50
  -1   0   3   24.20   36.90
  -1   0  -3   -2.60   40.60
   1  -1  -3   16.30   36.70
   0   1  -3   28.70   38.60
   0   1   3  -14.00   47.80
   1   1   3  381.96   72.69
  -2   1   3  277.17   74.69
  -1  -1  -3  299.57   65.99
   2  -1  -3  295.77   56.19
  -1   2  -3  283.87   67.39
   1  -2   3  398.66   68.59
  -1   2   3   88.59   47.50
  -1  -1   3   20.30   32.60
   1   1  -3   82.39   42.40
   2  -1   3  109.69   49.70
   2   0   3  -24.20   51.69
   0  -2   3    2.80   47.00
  -2   2   3   23.10   52.79
   2   0  -3  -19.30   44.30
   2  -2   3    3.90   49.80
  -2   0   3  -63.69   49.70
   0   2   3   -3.60   42.70
   0   2  -3  -44.00   46.90
   1  -3   3   44.50   51.79
   3  -1  -3   52.09   41.30
   2   1   3   -7.30   52.69
  -3   2   3   47.20   62.39
   2  -3   3   51.89   54.49
   1   2   3   68.69   47.30
   2  -4   3  278.87   76.29
   2   2   3  279.57   80.59
  -2   3   3   35.40   40.10
  -1  -2   3  -10.30   37.00
   2   1  -3   13.40   46.20
  -2  -1   3  -19.10   55.69
  -1   3   3    7.30   38.50
   1   2  -3    4.70   50.79
   0  -3   3  603.44   79.89
   0   3   3  641.64   69.99
   3  -3   3  828.82   87.99
   1  -4   3  -10.20   50.39
   1   3   3   15.00    7.10
   1   3   3  -31.80   48.80
   3  -4   3   10.60    4.60
   3  -4   3   51.59   56.89
   3   2   3  163.08   10.50
   2  -5   3  161.78   11.60
   2  -5   3  275.07   76.29
   3  -5   3  178.98   61.49
   2   3   3  159.38   10.90
   3  -5   3  153.28   11.20
   2   3   3  139.79   62.59
   3  -6   3  187.98   64.29
   3   3   3  189.08   12.20
   3  -6   3  194.98   12.70
   2   2  -3 2297.07  139.89
   3   1  -3 1044.90   46.80
   3   1  -3  746.83   90.59
   4   0   3  212.98   12.70
   0   4  -3  199.08   12.10
   0   4   3  201.58   13.00
   4  -4   3  222.68   12.40
   1  -5   3  631.24   29.60
   4   1   3  587.64   28.90
   4  -5   3  626.04   29.10
  -1   5  -3  547.65   28.80
   1   4   3  487.55   94.99
   1   4   3  609.84   29.20
   4   2   3 1419.06   64.09
   2   4   3 1231.38  115.59
  -2   6  -3 1350.86   64.19
   2   4   3 1452.15   64.19
   4  -6   3 1263.37  121.59
   4  -6   3 1372.06   64.29
   4   3   3   68.39    9.20
   3   4   3   68.59    9.40
   4   4   3   20.30    6.10
  -3   5   3  366.76   17.60
   5  -2   3  337.17   18.80
   3   2  -3  370.06   18.10
  -2   5   3  351.56   17.70
   5  -3   3  378.16   18.60
   2   3  -3  366.26   18.10
   5  -1   3  293.47   16.60
  -4   5   3  292.67   15.40
   4   1  -3  313.17   15.90
  -1   5   3  323.67   17.30
  -1   5   3  325.57   15.40
   5  -4   3  309.37   16.40
   1   4  -3  303.67   16.20
   5   0  -3   47.30    7.10
   5   0   3   61.69    8.40
   0   5  -3   49.90    7.70
   5  -5   3   57.49    8.50
   0   5   3   35.10    9.50
   5   1   3    6.20    5.20
   6  -1  -3    2.80    3.80
   1   5   3   -3.80    5.60
   5  -6   3   13.40    5.50
  -1   6  -3   -0.30    4.60
   5   2   3  129.39   11.40
   7  -2  -3  130.59    9.30
   2   5   3  149.59   11.90
  -2   7  -3  146.99   11.40
   5   3   3   16.30    6.50
   3   5   3   18.40    6.50
  -5   9  -3   19.00    5.30
   5   4   3   21.90    7.00
   4   5   3   18.90    6.80
  -4   9  -3   18.70    5.60
   5   5   3  199.78   15.30
  -5  10  -3  166.88   12.90
   3   3  -3 1026.70   48.80
  -3   6   3 1046.20   48.30
   6  -3   3 1052.69   48.90
   6  -2   3   -6.00    4.70
   4   2  -3    5.50    4.20
  -4   6   3    1.40    3.80
   2   4  -3    2.00    4.20
  -2   6   3    1.70    3.70
  -2   6   3    0.40    5.70
   6  -1   3   -6.60    5.10
   5   1  -3   11.60    4.10
  -5   6   3    0.50    3.90
   6  -5   3    5.60    5.40
   1   5  -3    0.50    4.40
  -1   6   3   -0.70    6.10
  -1   6   3    3.70    3.90
   6   0  -3   38.80    6.90
   6   0   3   40.10    8.90
   0   6  -3   39.40    8.30
   0   6   3   25.00    6.60
   6   1   3    5.50    6.00
   7  -1  -3    4.50    4.00
  -1   7  -3   -0.10    4.40
  -1   7  -3    4.50    5.30
   1   6   3   -4.10    6.30
   6   2   3   31.70    7.50
  -2   8  -3   41.10    8.20
  -2   8  -3   54.69   10.60
   2   6   3   39.50   10.60
   6   3   3  162.58   14.80
   3   6   3  165.88   14.40
  -3   9  -3  179.78   12.10
  -6  10  -3   22.80    6.20
   6   4   3   26.80    8.40
  -4  10  -3   20.00    6.00
   4   6   3   24.50    7.40
   6   5   3   26.40    8.80
  -6  11  -3   22.20    6.50
   5   6   3   29.40    8.50
  -5  11  -3   17.80    6.30
   6   6   3  182.38   16.80
  -6  12  -3  177.38   13.90
   4   3  -3  696.63   34.30
  -4   7   3  738.93   33.70
   3   4  -3  695.53   34.40
  -3   7   3  732.83   33.60
   7  -4   3  701.73   36.20
  -5   7   3  318.57   17.40
   5   2  -3  364.86   18.20
  -2   7   3  336.57   19.60
   7  -5   3  340.47   18.90
   2   5  -3  347.77   18.50
  -2   7   3  344.47   17.30
   1   6  -3  285.07   16.20
   1   6  -3  262.67   14.90
  -1   7   3  284.37   17.70
  -1   7   3  292.57   15.00
   7   0  -3    4.60    4.70
   7   0   3  -13.00    9.80
   0   7  -3    2.10    5.40
   0   7  -3   -7.20    4.60
   0   7   3    0.80    6.90
   7   1   3   60.69   11.30
  -1   8  -3   51.29   10.70
   1   7   3   45.70   12.10
  -1   8  -3   38.20    8.80
   7   2   3  149.29   14.60
  -2   9  -3  132.39   11.70
  -2   9  -3  147.89   14.70
   2   7   3  122.79   13.80
   7   3   3   -7.00    8.00
  -7  10  -3   -3.40    6.20
   3   7   3    1.10    7.40
  -3  10  -3   -2.70    5.90
  -7  11  -3    9.30    6.60
   7   4   3   14.70    8.80
  -4  11  -3    2.70    6.20
   4   7   3   12.40    7.80
   7   5   3   52.99   14.00
  -7  12  -3   20.90    6.80
  -5  12  -3   18.00    6.60
   5   7   3   32.20    8.70
   4   4  -3  272.97   16.00
  -4   8   3  266.17   14.90
  -5   8   3   69.49    8.60
   5   3  -3   66.79   10.00
  -3   8   3   72.69    8.40
   3   5  -3   77.59   10.30
  -6   8   3   18.90    5.00
   6   2  -3   21.30    5.60
  -2   8   3   14.80    7.20
  -2   8   3   14.40    4.90
   2   6  -3   18.60    5.80
   7   1  -3   50.49    9.20
   1   7  -3   53.29   10.30
   1   7  -3   50.79    8.40
  -1   8   3   40.90    8.30
  -1   8   3   28.20    8.00
   0   8  -3    5.90    5.40
   0   8  -3   12.80    6.70
   0   8   3    6.20    7.70
  -8   9  -3    8.30    6.30
  -1   9  -3   -1.70    5.70
  -1   9  -3    9.10    8.00
   1   8   3    6.60    8.00
  -8  10  -3  102.89   11.90
  -2  10  -3  111.79   11.40
  -2  10  -3  122.29   17.00
   2   8   3  114.49   14.10
  -8  11  -3    9.20    7.10
  -3  11  -3   12.90    6.60
   3   8   3   24.30    7.90
  -8  12  -3   -7.10    6.70
  -4  12  -3   -2.30    6.60
   4   8   3    5.40    8.20
  -5   9   3   52.29    9.10
   5   4  -3   60.39   10.90
  -4   9   3   50.59    8.90
   4   5  -3   65.09   11.00
   6   3  -3   36.70   10.10
  -6   9   3   21.00    5.60
   3   6  -3   29.80    6.90
  -3   9   3   19.00    5.40
   7   2  -3   53.29   10.40
   2   7  -3   58.69   11.70
  -2   9   3   29.90    8.30
  -2   9   3   51.89    8.90
   1   8  -3   74.49   12.80
  -1   9   3   35.20    8.60
  -9   9  -3    8.60    6.50
   0   9  -3    8.70    6.00
   0   9   3    0.90    8.10
   0   9  -3    4.60    8.20
  -9  10  -3   10.90    6.90
  -1  10  -3    4.90    8.50
   1   9   3    3.30    8.00
  -1  10  -3   -0.10    6.50
  -9  11  -3   69.19   11.70
  -2  11  -3   48.70   11.40
   2   9   3   34.70    8.40
  -9  12  -3   50.89   11.80
  -3  12  -3   22.40    6.80
   3   9   3   29.10    8.60
  -5  10   3  209.48   14.40
   5   5  -3  248.18   16.90
   6   4  -3    5.80    7.20
  -6  10   3    5.30    5.80
  -4  10   3    7.70    5.90
   4   6  -3    3.00    7.60
  -7  10   3   23.90    6.80
   7   3  -3   18.70    7.30
  -3  10   3   23.40    6.10
   3   7  -3   18.40    8.30
   2   8  -3   61.99   14.70
  -2  10   3   36.20    8.70
  -1  10   3   56.69   14.20
   1   9  -3   62.89   15.00
   0  10  -3    1.10    9.30
   0  10  -3    4.70    8.90
   0  10   3    2.90    8.10
  -1  11  -3    9.90    9.40
   1  10   3    1.60    8.00
  -1  11  -3   -0.30    6.30
  -2  12  -3   -2.20    6.20
   2  10   3    6.10    8.30
  -6  11   3   27.00    6.60
   6   5  -3   33.80    8.60
  -5  11   3   21.90    6.50
   5   6  -3   26.20    8.80
  -7  11   3   19.00    6.60
   7   4  -3   21.40    8.00
   4   7  -3   19.40    8.90
  -4  11   3   26.40    6.60
   8   3  -3    0.70   13.00
   3   8  -3   10.90    8.90
   2   9  -3   24.80    9.20
  -2  11   3    6.40    8.90
   1  10  -3  103.59   16.20
  -1  11   3   91.99   14.70
   0  11  -3   25.00    9.50
   0  11   3   23.10    9.00
   6   6  -3    5.20    8.70
   7   5  -3   19.10    8.60
   5   7  -3   24.80    9.30
   4   8  -3   59.49   15.60
   3   9  -3   13.10    9.30
   2  10  -3    0.10    9.10
   0   0   4  118.39   58.69
   0  -1   4   -7.90   58.69
   1   0   4   28.30   58.69
   0   1   4    4.60   55.39
   1  -1   4    5.20   56.49
   1   1   4  731.43   89.99
   1  -2   4  775.92   94.79
   2  -1   4  260.57   16.10
   2  -1   4  210.48   68.69
   2   0   4   43.00    8.50
   2   0   4   28.00   63.49
   2  -2   4   42.70    8.80
   0   2   4 -101.59   58.89
   2  -2   4   22.60   68.69
   3  -1  -4   32.40   56.99
   2   1   4   65.29   66.09
   2  -3   4   40.10   69.49
   1   2   4  -50.49   60.89
   2   2   4  -31.00   67.39
   3  -1   4  208.78   76.39
   3  -1   4  213.78   14.30
   3  -2   4  161.88   79.19
   3  -2   4  242.98   14.10
   0  -3   4 1008.10   48.40
   3   0   4 1035.80   48.10
   3   0   4 1248.18  112.49
   3  -3   4  947.11   48.20
   3  -3   4  990.20  115.59
   0   3  -4 1015.30   48.00
   0   3   4 1063.09   48.40
   3   1   4  922.81   44.10
   3   1   4  981.10  110.79
   1  -4   4  960.30   44.40
   1   3   4  958.80   44.30
  -1   4  -4  882.51   43.90
   3  -4   4  921.21   44.20
   3  -4   4  977.40  115.49
   3   2   4  -37.30   72.89
   2  -5   4   35.20    9.80
   3   2   4   15.50    5.80
   3  -5   4   25.20    6.00
   2   3   4   76.09   85.89
   3  -5   4  -32.60   83.19
   2   3   4    1.50    6.00
  -2   5  -4   26.20    5.40
   3  -6   4  214.28   14.90
   3   3   4   41.40   86.49
   3   3   4  230.08   14.80
   2   2  -4  447.66   22.50
   4  -2   4  451.65   23.00
  -1  -3   4  108.19   11.50
   4  -1   4   74.49    9.90
  -1   4   4   91.39   11.40
   1   3  -4   87.89    8.70
   0  -4   4  186.58   14.00
   4   0   4  188.58   12.90
   0   4  -4  175.48   12.10
   4  -4   4  209.78   13.10
   0   4   4  214.58   13.80
   1  -5   4  401.36   21.30
   4   1   4  350.46   20.70
   4  -5   4  391.36  108.59
   4  -5   4  415.76   20.80
   1   4   4  398.26   20.90
  -1   5  -4  377.96   20.30
   2  -6   4  218.18   15.20
   4   2   4  217.08   14.70
   4  -6   4  222.78   14.70
   4  -6   4   17.10   90.09
  -2   6  -4  213.58   14.10
   2   4   4  218.48   14.50
   4   3   4   85.19   11.70
   3   4   4   79.89   11.80
   4   4   4   74.19   12.50
   5  -2   4   99.79   10.90
   3   2  -4   97.69    9.50
   5  -3   4   85.49   11.30
   2   3  -4  121.99    9.10
  -2   5   4  118.09   12.40
  -1  -4   4  463.65   25.10
   4   1  -4  467.55   23.50
   5  -1   4  487.45   24.10
  -1   5   4  462.25   24.80
   5  -4   4  481.05   24.20
   1   4  -4  452.95   23.50
   0  -5   4   55.09   11.40
   5   0   4   24.10    6.00
   5   0  -4   12.10    4.70
   0   5   4   22.20    6.50
   5  -5   4   37.70    9.80
   0   5  -4   38.60    8.40
   5   1   4   -5.20    6.20
   5  -6   4    4.70    6.60
   1   5   4    6.00    6.20
  -1   6  -4    3.10    5.60
   5   2   4  151.88   14.00
   2   5   4  150.48   13.20
  -2   7  -4  162.58   12.90
   5   3   4   18.80    8.10
   3   5   4   10.40    7.40
   5   4   4   23.00    8.60
  -4   9  -4   16.70    6.10
   4   5   4   33.30    8.40
  -5  10  -4  170.88   13.30
   5   5   4  160.28   16.10
   6  -3   4 1329.27   66.69
   3   3  -4 1513.35   66.29
   6  -2   4  612.04   29.40
   4   2  -4  588.44   28.70
   6  -4   4  539.45   29.90
   2   4  -4  601.04   28.90
  -2   6   4  583.14   30.10
   6  -1   4   11.20    6.40
   5   1  -4   21.30    5.00
  -1   6   4   12.90    7.00
   6  -5   4   41.30   11.10
   1   5  -4   20.80    5.60
   6   0   4  100.99   11.90
   6   0  -4  111.49    9.60
   6  -6   4  128.49   13.00
   0   6  -4  103.19   11.00
   0   6   4  105.79   12.20
   7  -1  -4  305.57   16.50
   6   1   4  303.37   18.60
  -1   7  -4  317.57   18.00
   1   6   4  294.97   18.40
   8  -2  -4    8.60    5.00
   6   2   4   -8.70    8.00
  -2   8  -4    3.30    6.70
   2   6   4    6.40    7.40
   6   3   4   -3.50    8.80
  -3   9  -4   -3.70    5.90
   3   6   4    2.80    7.70
  -6  10  -4   17.50    6.70
   6   4   4   19.70    9.10
  -4  10  -4    9.40    6.40
   4   6   4   20.00    8.50
   6   5   4   -9.50    9.00
  -6  11  -4   -7.10    6.90
   5   6   4   11.50    8.80
  -5  11  -4    4.50    6.80
   6   6   4    7.60    8.80
  -6  12  -4    8.70    6.70
   7  -3   4  108.39   12.60
   4   3  -4  112.89   10.90
   7  -4   4  128.29   12.70
   3   4  -4  111.39   11.20
   5   2  -4  171.38   12.50
   7  -2   4  151.28   14.30
   2   5  -4  174.48   13.00
   7  -5   4  183.58   14.50
  -2   7   4  164.18   14.90
   6   1  -4    5.30    5.50
   7  -1   4  -12.20    7.10
   1   6  -4    3.20    5.30
   7  -6   4   13.80    7.60
   1   6  -4    8.40    6.10
  -1   7   4    0.30    7.40
   7   0   4   -5.10    7.00
   7   0  -4    2.50    5.40
   0   7   4    2.70    7.50
   0   7  -4   -1.90    5.20
   0   7  -4   -2.20    6.40
   8  -1  -4  102.59   10.60
   7   1   4   65.79   12.80
  -1   8  -4  101.59   12.60
   1   7   4   89.59   13.10
  -1   8  -4   68.49   10.00
   7   2   4    1.90    8.10
   2   7   4    3.30    8.00
  -2   9  -4    0.80    9.50
  -2   9  -4   -1.90    6.10
   7   3   4    5.20    8.60
  -7  10  -4    3.50    7.00
   3   7   4   -3.00    8.30
  -3  10  -4    0.40    6.40
  -7  11  -4   74.49   12.30
   7   4   4   75.69   14.90
  -4  11  -4   77.89   11.20
   4   7   4   64.19   14.30
   7   5   4   18.50    8.30
  -7  12  -4    3.90    7.00
  -5  12  -4    4.40    6.40
   5   7   4    6.50    8.30
   4   4  -4   86.29   11.40
   5   3  -4   15.50    6.20
   3   5  -4   19.80    6.70
   6   2  -4   14.40    6.30
  -2   8   4    8.40    8.10
   2   6  -4   18.40    6.80
   7   1  -4   17.50    5.90
   1   7  -4   20.00    7.20
  -1   8   4   13.80    8.30
   8   0  -4   75.99   11.00
   0   8  -4   91.09   13.10
   0   8   4   56.69   14.20
   0   8  -4   80.09   10.20
   1   8   4  111.09   14.70
  -1   9  -4   99.69   11.10
  -1   9  -4  116.49   14.90
  -8  10  -4   57.49   12.30
   2   8   4   66.99   13.40
  -2  10  -4   56.99   11.00
  -8  11  -4    3.40    7.50
   3   8   4    0.20    8.50
  -3  11  -4    3.50    6.40
  -8  12  -4   13.00    7.30
   4   8   4   15.50    8.40
  -4  12  -4   13.00    6.50
   5   4  -4  160.58   14.70
   4   5  -4  163.18   15.60
   6   3  -4  117.89   13.40
   3   6  -4  101.59   13.50
   7   2  -4  113.79   12.80
   2   7  -4  102.39   13.80
  -2   9   4   87.69   15.40
   8   1  -4   25.40    6.20
  -1   9   4   27.50    9.00
   1   8  -4   24.50    8.10
   0   9   4    6.10    8.70
   0   9  -4    7.50    8.10
   0   9  -4    2.80    8.50
  -9  10  -4    4.50    7.90
  -1  10  -4    2.00    6.40
   1   9   4    4.20    8.80
  -1  10  -4   -0.60    9.10
  -9  11  -4   11.10    7.90
  -2  11  -4    0.30    6.40
   2   9   4    3.80    8.50
   5   5  -4  306.57   20.00
   6   4  -4    3.50    7.30
   4   6  -4    7.90    8.00
   7   3  -4   11.80    7.10
   3   7  -4   11.50    8.30
   8   2  -4   72.79   11.90
  -2  10   4   63.79   15.00
   2   8  -4   63.89   15.10
   1   9  -4   63.19   15.80
  -1  10   4   36.50    9.80
   0  10   4    9.30    9.20
   0  10  -4   10.10    9.20
  -1  11  -4   -1.70    9.60
   1  10   4   -0.20    8.40
   6   5  -4   23.10    8.60
   5   6  -4   21.10    8.70
   7   4  -4   17.50    8.10
   4   7  -4   17.90    9.10
   8   3  -4   29.80    7.80
   3   8  -4   27.20    9.40
   2   9  -4  104.59   16.40
   1  10  -4   73.89   15.90
  -1  11   4   74.09   15.20
   6   6  -4   30.60    8.60
   7   5  -4    2.50    7.80
   5   7  -4    1.70    8.60
   4   8  -4   17.60    9.00
   0   0   5 1622.94   75.89
   0  -1   5   51.89    7.90
   1   0   5   70.09   10.70
  -1   1   5   40.50   11.40
  -1   0   5   64.09   11.90
   0   1   5   51.09   11.00
   1  -1   5   64.99   11.50
   1   1   5   43.80   10.40
   1  -2   5   50.49    7.90
  -2   1   5   40.60    9.10
  -1   2   5  537.55   28.20
   2  -1   5  561.64   28.30
  -1  -1   5  551.04   28.80
  -2   2   5  554.84   29.90
   0  -2   5  574.74   30.00
   2   0   5  609.64   29.40
   0   2   5  586.04   29.50
   2  -2   5  596.74   29.90
   2   1   5    1.00    5.70
   1  -3   5   -1.40    6.70
  -1   3  -5   -3.70    6.10
   2  -3   5  -10.70    6.40
   1   2   5    0.50    6.00
   2   2   5  441.36   23.30
   2  -4   5  433.46   23.80
  -1  -2   5   16.80    7.20
   3  -1   5   22.70   94.59
  -2   3   5   20.40    6.90
   3  -1   5   14.40    6.30
  -1   3   5   25.80    6.80
   3  -2   5   23.00    6.80
   3  -2   5 -107.99  101.29
   0  -3   5  110.19   13.30
   3   0   5  123.49   11.50
   3   0   5  -11.10   90.49
   0   3  -5  117.69   11.60
   3  -3   5  119.29   13.20
   3  -3   5    6.60  101.59
   0   3   5  140.89   12.60
   3   1   5  156.48   13.10
   3   1   5  128.09   90.69
   1  -4   5  162.98   14.50
   3  -4   5  138.59   14.30
  -1   4  -5  177.48   12.60
   1   3   5  177.68   13.90
   3   2   5  226.28   16.00
   2  -5   5  233.78   17.30
   2   3   5  248.88   16.80
   3  -5   5  275.47   16.90
  -2   5  -5  250.57   21.30
   3  -6   5  445.16   24.50
   3   3   5  426.56   24.10
   2   2  -5    9.10    5.90
   4  -2   5   24.10    7.00
  -2   4   5   28.00    7.30
   4  -1   5   -3.50    6.20
  -1  -3   5    1.20    7.70
  -1   4   5   -5.30    7.20
   1   3  -5   -6.30    5.50
   4  -3   5  -11.80    6.70
   4   0   5    4.50    6.20
   0  -4   5   11.30    7.40
   0   4   5    1.80    7.20
   4  -4   5  -10.50    7.00
   4  -4   5  -26.50  102.39
   0   4  -5    9.30    5.70
   4   1   5  288.37   17.50
   1  -5   5  293.37   18.80
   4  -5   5  265.37   18.60
   1   4   5  281.07   18.50
  -1   5  -5  292.97   17.40
   2  -6   5    8.60    7.90
   4   2   5   -7.80    7.10
  -2   6  -5   14.80    9.10
   4  -6   5   12.10    7.90
   2   4   5    0.00    7.60
   4   3   5   54.69   13.70
   3   4   5   61.59   13.50
   4  -7   5   88.79   13.60
   4   4   5   84.49   14.70
   5  -2   5   66.69   12.60
   3   2  -5   70.39   10.60
  -2   5   5   84.49   13.80
   2   3  -5   85.39   10.10
   5  -3   5   61.99   13.10
  -1  -4   5  367.76   21.70
   4   1  -5  334.07   19.40
   5  -1   5  372.36   20.40
   5  -4   5  293.97   20.90
  -1   5   5  346.47   21.10
   1   4  -5  363.26   19.50
   0  -5   5  548.85   28.70
   5   0  -5  474.65   26.60
   5   0   5  555.84   27.70
   0   5   5  520.65   28.20
   5  -5   5  526.45   28.50
   0   5  -5  558.34   27.40
   1  -6   5   47.00   13.40
   5   1   5   20.80    7.40
   1   5   5   16.10    8.10
   5  -6   5   21.30    8.60
  -1   6  -5   32.30    7.30
   5   2   5   28.80    8.20
   5  -7   5   72.49   14.40
   2   5   5   48.10   13.50
   5   3   5    1.40    8.70
   3   5   5    8.70    8.50
   5   4   5  -15.80    9.10
   4   5   5   -5.30    8.90
  -5  10  -5  -12.80    6.90
   5   5   5   -8.60    9.40
   3   3  -5   55.59   10.30
   6  -3   5   31.80    9.20
   6  -2   5    9.00    8.00
   4   2  -5    7.20    5.80
  -2   6   5   17.10    8.80
   6  -4   5   -1.80    8.20
   2   4  -5   14.60    6.50
   6  -1   5    4.50    8.30
  -1  -5   5   28.70   11.20
   5   1  -5   11.40    5.90
   6  -5   5   61.79   14.20
  -1   6   5   20.20    8.50
   1   5  -5   17.30    6.70
   6   0  -5   95.29   10.80
   6   0   5  102.79   14.40
   6  -6   5  152.48   15.90
   0   6   5  102.29   15.00
   0   6  -5  117.89   13.00
   6   1   5   62.69   13.30
   7  -1  -5   39.80    9.30
  -1   7  -5   53.59   12.90
   1   6   5   33.20    9.00
   6  -7   5   76.19   15.10
   8  -2  -5   11.30    5.30
   6   2   5   23.70    8.90
   2   6   5   21.70    8.80
   6   3   5    2.90    8.80
  -3   9  -5   10.00    6.60
   3   6   5   12.40    8.80
   6   4   5   -1.40    8.90
  -6  10  -5  -14.90    7.30
   4   6   5   -8.50    8.90
  -4  10  -5   -4.00    6.90
  -6  11  -5  -11.10    7.30
   6   5   5   -9.70    8.50
   5   6   5   -7.80    8.70
  -5  11  -5   -8.20    6.90
   4   3  -5    9.50    6.60
   7  -3   5   -3.50    8.50
   3   4  -5   11.90    6.70
   7  -4   5   -0.90    9.10
   7  -2   5   11.80    8.90
   5   2  -5   24.70    6.80
   2   5  -5   29.60    7.40
   7  -5   5   71.89   15.50
  -2   7   5   23.40    9.40
   6   1  -5  113.59   11.40
   7  -1   5  104.69   15.20
   7  -6   5  161.48   17.00
  -1   7   5   96.29   15.80
   1   6  -5  102.79   13.50
   7   0  -5   52.59    9.70
   7   0   5   31.40    8.80
   0   7  -5   26.70    5.90
   0   7   5   24.80    9.20
   0   7  -5   55.59   13.00
   8  -1  -5   65.49    9.90
   7   1   5   53.59   14.70
  -1   8  -5   67.59   14.40
   1   7   5   51.69   14.90
  -1   8  -5   33.50    6.60
   7   2   5   19.90    8.90
  -2   9  -5   14.30    6.70
   2   7   5   26.20    9.20
   7   3   5   37.00    9.30
   3   7   5   30.30    9.10
  -3  10  -5   28.90    7.10
   7   4   5   62.89   14.10
  -7  11  -5   52.19   12.70
  -4  11  -5   60.09   11.60
   4   7   5   59.99   14.60
   8  -4   5  275.47   22.10
   4   4  -5  306.67   19.00
   5   3  -5  184.18   14.90
   8  -5   5  165.28   17.60
   3   5  -5  187.48   15.60
   6   2  -5    8.40    6.90
   8  -6   5   17.60   10.00
  -2   8   5    6.80    9.60
   2   6  -5   14.00    8.00
   7   1  -5    8.80    6.50
   1   7  -5    9.40    8.20
  -1   8   5   -0.30    9.30
   8   0  -5   13.60    6.20
   0   8  -5    9.60    8.10
   0   8   5    9.70    9.40
   1   8   5    5.40    9.10
  -1   9  -5   10.40    8.90
  -1   9  -5    5.80    6.50
  -8  10  -5  -14.50    8.30
   2   8   5    0.00    8.70
  -2  10  -5   -4.50    6.40
  -8  11  -5  -13.50    7.90
   3   8   5   -4.60    8.40
  -3  11  -5   -0.60    6.50
   5   4  -5   73.19   13.30
   4   5  -5   72.09   14.10
   6   3  -5  208.98   16.20
   3   6  -5  211.58   18.00
   7   2  -5  128.89   13.10
   2   7  -5  109.39   15.20
  -2   9   5  103.99   17.50
   8   1  -5   63.89   11.20
  -1   9   5   35.40   10.40
   1   8  -5   60.09   14.60
   0   9   5    3.50    9.50
   0   9  -5   -0.80    8.70
  -9  10  -5    1.60    8.40
  -1  10  -5    0.90    9.10
  -1  10  -5   -3.00   10.20
   1   9   5    7.60    8.80
  -9  11  -5    1.40    8.30
  -2  11  -5   -1.00    6.30
   2   9   5   11.60    8.40
   5   5  -5    8.10    7.60
   6   4  -5   15.90    7.30
   4   6  -5   12.40    8.10
   7   3  -5   21.20    6.90
   3   7  -5   22.90    8.80
   8   2  -5    7.20    6.30
   2   8  -5    6.40    8.70
  -2  10   5   15.90   17.40
   1   9  -5    1.30    9.10
  -1  10   5   -0.90    9.40
   0  10  -5   14.90    9.70
   0  10   5   22.30    9.20
   6   5  -5   24.00    7.80
   5   6  -5   20.90    8.20
   7   4  -5   10.90    7.30
   4   7  -5   14.90    8.70
   8   3  -5    3.20    7.00
   3   8  -5    7.70    9.20
   2   9  -5    3.90    9.10
   0   0   6  479.85   26.60
   0  -1   6   -7.60    8.60
   1   0   6   -7.80    7.80
  -1   1   6    6.30    8.20
  -1   0   6   12.00    8.40
   0   1   6   -4.30    7.40
   1  -1   6    2.60    8.10
   1  -2   6  766.72   37.10
  -2   1   6  695.33   39.90
   1   1   6  680.23   36.00
  -1   2   6    2.20    7.90
   2  -1   6    2.90    7.80
  -1  -1   6    9.50    8.80
   0  -2   6  149.69   16.00
   2   0   6  111.79   13.60
  -2   2   6  115.49   15.60
   2  -2   6  119.69   15.80
   0   2   6  141.29   14.10
   2   1   6  162.08   15.30
   1  -3   6  198.98   18.20
   2  -3   6  230.08   17.50
  -1   3  -6  190.78   15.70
   1   2   6  190.28   15.60
   2   2   6  212.48   15.80
   2  -4   6  181.78   17.80
  -1  -2   6   26.50    9.40
  -2   3   6   21.00    8.50
   3  -1   6   22.20    8.00
   1   2  -6   26.30    8.10
  -1   3   6   25.90    8.10
   3  -2   6   24.20    8.60
   0  -3   6   99.69   15.80
   3   0   6   95.89   13.10
   3  -3   6   97.19   14.60
   0   3  -6   80.39   13.40
   0   3   6   75.49   13.80
   3   1   6   -2.00    7.30
   1  -4   6  -18.10    9.10
   1   3   6   -4.70    7.70
  -1   4  -6   -6.80    7.10
   3  -4   6  -18.10    9.10
   3   2   6  143.59   14.50
   2  -5   6   77.99   16.70
   3  -5   6   89.99   16.40
   2   3   6  133.59   14.10
   3  -6   6  315.27   23.30
   3   3   6  385.26   21.70
  -2   4   6  274.07   20.40
   2   2  -6  300.07   18.60
   4  -2   6  294.77   20.60
   4  -1   6  374.46   21.60
  -1  -3   6  328.87   23.30
   1   3  -6  352.06   20.70
  -1   4   6  327.67   21.80
   4  -3   6  341.67   22.80
   0  -4   6  -13.60    9.40
   4   0   6   -2.70    7.70
   0   4  -6   -6.90    7.20
   0   4   6   -7.70    8.00
   4  -4   6  -22.70    9.30
   4   1   6  259.87   17.50
   1  -5   6  191.28   19.80
   1   4   6  222.38   17.10
   4  -5   6  229.28   19.80
  -1   5  -6  216.08   17.40
   4   2   6  200.88   16.40
   2  -6   6  144.89   18.10
   4  -6   6  113.89   18.00
   2   4   6  158.48   15.90
   4   3   6    0.20    8.90
   3  -7   6  -10.20    9.80
   3   4   6   -0.90    8.50
   4  -7   6  -11.10   10.20
   4   4   6   -8.80    8.70
   3   2  -6    3.30    7.20
   5  -2   6   -1.60    9.10
   2   3  -6   -3.30    7.10
   5  -3   6   -3.90    9.60
  -2   5   6    6.30    9.20
   5  -1   6   83.99   15.00
   4   1  -6  111.99   12.80
  -1  -4   6   51.09   11.40
   5  -4   6   76.29   16.80
   1   4  -6   60.49   13.10
  -1   5   6   84.19   14.50
   0  -5   6   33.80   10.90
   5   0   6   85.39   14.30
   5  -5   6   36.00   10.80
   0   5  -6   42.90    8.70
   0   5   6   68.69   15.00
   5   1   6   56.19   14.80
   1  -6   6   29.00   10.80
   1   5   6   39.50    9.40
   5  -6   6   23.70   10.70
  -1   6  -6   41.80    9.20
   5   2   6  154.38   16.30
   7  -2  -6  136.19   11.50
   5  -7   6   87.59   18.50
   2   5   6  100.59   16.10
   5   3   6   21.30    9.40
   8  -3  -6   37.50    9.80
   3   5   6    6.30    9.10
   9  -4  -6    2.80    6.20
   5   4   6   -5.20    9.30
   4   5   6    0.80    8.70
  -5  10  -6  -15.90    7.40
   5   5   6    1.50    8.70
   3   3  -6  125.59   14.10
   6  -3   6  155.78   18.00
   6  -2   6  165.68   17.80
   4   2  -6  122.39   13.20
   2   4  -6  100.89   14.40
  -2   6   6  150.58   16.30
   6  -4   6  112.99   19.10
   6  -1   6   70.09   16.00
   5   1  -6   42.00   11.30
  -1   6   6   41.80    9.90
   1   5  -6   36.90    8.60
   6  -5   6   20.90   11.70
   6   0  -6   48.90   11.00
   6   0   6   70.79   15.90
   0   6   6   43.20   10.00
   6  -6   6   18.30   11.30
   0   6  -6   44.90    9.40
   6   1   6    7.30    9.40
   7  -1  -6    5.20    6.00
   1   6   6    4.30    9.60
  -1   7  -6    2.20    9.00
   6  -7   6    0.40   11.20
   8  -2  -6   86.19   10.30
   2   6   6   91.59   15.30
   6   3   6   64.09   15.80
  -3   9  -6   24.00    7.60
   3   6   6   41.70    9.50
   6   4   6   -0.70    9.10
   4   6   6   -6.40    8.10
  -4  10  -6  -19.10    7.10
   7  -3   6    7.90   10.30
   4   3  -6   -3.00    7.60
   3   4  -6   -1.40    7.90
   7  -4   6   -5.10   11.30
   5   2  -6   10.30    7.30
   7  -2   6   22.20   11.00
  -2   7   6   32.50   10.10
   7  -5   6   -0.60   11.50
   2   5  -6   16.50    8.70
   6   1  -6   12.20    6.80
   7  -1   6   65.49   16.50
   7  -6   6    5.70   11.50
   1   6  -6   22.00    8.60
  -1   7   6   32.30   10.20
   7   0   6    5.30    9.40
   7   0  -6  -13.20    6.00
   0   7  -6   -4.00    9.00
   0   7   6    0.50    9.90
   7  -7   6   -5.60   10.90
   8  -1  -6   -5.20    5.90
   7   1   6   -2.10    9.70
  -1   8  -6    1.00    6.30
  -1   8  -6   -1.10    9.40
   1   7   6    7.70    9.50
   7   2   6   -2.20    9.40
  -2   9  -6   -7.30    6.70
   2   7   6   -5.00    8.90
   7   3   6   -9.50    9.30
  -3  10  -6  -15.10    6.70
   3   7   6   -4.70    8.30
   4   4  -6  399.46   22.90
   8  -4   6  330.57   25.80
   8  -3   6  204.78   19.60
   5   3  -6  165.88   15.50
   3   5  -6  179.88   16.80
   6   2  -6   15.00    7.20
   8  -2   6   32.30    9.50
  -2   8   6   27.30   10.60
   8  -6   6    2.70   11.20
   2   6  -6   15.40    9.10
   8  -1   6    7.30   11.40
   7   1  -6   -1.70    6.60
  -1   8   6    8.90   10.10
   1   7  -6    7.50    9.30
   8   0  -6    6.30    6.20
   0   8  -6   14.30    9.10
   0   8   6   19.90    9.80
  -1   9  -6   -7.00    9.70
   1   8   6   -1.70    9.10
  -2  10  -6    5.10    6.30
   2   8   6    0.60    8.30
   5   4  -6   -2.40    7.90
   4   5  -6   -6.30    8.30
   6   3  -6    4.90    7.20
   3   6  -6    9.30    8.80
   7   2  -6   -3.10    6.80
   2   7  -6   -4.10    8.90
   8   1  -6   -2.00    6.00
   1   8  -6  -10.10    8.60
  -1   9   6    3.50    9.60
   0   9   6    1.80    9.00
   0   9  -6   -8.30    9.10
   5   5  -6   24.90    7.80
   6   4  -6    0.90    7.20
   4   6  -6   -3.70    7.90
   7   3  -6   -3.40    6.30
   3   7  -6   -4.40    8.20
   8   2  -6    3.90    5.80
   2   8  -6   -7.40    8.70
   0   0   7  597.24   33.40
   0  -1   7   21.20   11.20
   1   0   7   44.70   10.10
  -1   1   7   63.09   16.50
   1  -1   7   48.30   10.80
   0   1   7   43.30   10.10
  -1   0   7   69.49   17.60
   1   1   7   49.90   10.10
   1  -2   7   51.69   10.90
  -1   2   7   -4.90    9.80
  -1  -1   7   12.60   10.40
   2  -1   7    3.10    9.60
   2   0   7    1.80    9.10
   0  -2   7  -10.00   10.70
   2  -2   7   -7.30   10.10
   0   2   7   -4.90    8.90
   0   2  -7   13.50    8.50
   1  -3   7   29.10   11.80
   2   1   7   32.40    9.30
  -1   3  -7   59.49   13.70
   2  -3   7   40.70   11.20
   1   2   7   35.90    9.30
   2  -4   7   57.09   12.20
   2   2   7   68.09   15.90
  -1  -2   7    1.40   11.40
  -2   3   7   -1.10   14.10
   3  -1   7   -0.30    9.60
   1   2  -7   18.30    8.10
   3  -2   7  -10.20   10.30
  -1   3   7   -1.30    9.40
   0  -3   7  322.27   24.30
   3   0   7  281.37   21.40
   3  -3   7  327.87   23.10
   0   3  -7  293.77   20.40
   0   3   7  318.77   21.90
   1  -4   7  128.79   20.60
   3   1   7  125.39   16.40
   3  -4   7  107.99   19.60
   1   3   7  116.59   16.50
  -1   4  -7  109.79   15.20
   3   2   7   13.90    9.60
   2  -5   7  -12.10   11.70
   2   3   7   10.10    9.30
   3  -5   7  -13.40   11.50
   3   3   7   28.10    9.70
   3  -6   7    2.60   12.00
   2   2  -7   17.10    8.80
   4  -2   7   -9.10   10.60
  -2   4   7    1.60   11.00
   3   1  -7  165.48   14.70
  -1  -3   7  120.59   20.60
   4  -1   7  116.89   17.60
   4  -3   7   99.19   18.70
   1   3  -7  133.19   15.30
  -1   4   7  117.89   17.80
   0  -4   7   -0.60   12.00
   4   0   7    8.20    9.50
   0   4  -7    1.60    8.60
   0   4   7   14.50    9.60
   4  -4   7    7.30   11.60
   4   1   7   30.00    9.70
   1  -5   7   12.90   12.50
  -1   5  -7   19.00    9.40
   4  -5   7   20.10   12.00
   1   4   7   35.30   10.20
   2  -6   7    9.70   12.40
   4   2   7   30.90   10.10
   4  -6   7   11.70   12.10
   2   4   7   24.70   10.10
   3  -7   7  -11.60   11.60
   4   3   7   12.30    9.70
   4  -7   7   -4.20   12.00
   3   4   7    6.10    9.60
   4   4   7   14.40    9.60
   3   2  -7   59.79   13.70
   5  -2   7   45.70   11.70
   5  -3   7   39.40   11.10
  -2   5   7   37.80   11.80
   2   3  -7   63.89   13.70
   4   1  -7   14.50    8.20
   5  -1   7   18.70   10.50
   5  -4   7    6.90   11.70
  -1   5   7   13.50   10.30
   1   4  -7   11.00    8.90
   5   0   7  132.19   17.90
   0  -5   7   84.19   21.50
   5   0  -7  145.59   14.70
   0   5   7  126.19   17.50
   5  -5   7   91.69   20.80
   0   5  -7   94.19   16.30
   1  -6   7   66.09   13.70
   5  -6   7   72.79   20.00
   1   5   7  116.09   16.40
  -1   6  -7   81.49   16.70
   7  -2  -7  149.79   13.30
   5   2   7  139.49   17.80
   2   5   7  101.49   16.60
   5  -7   7   92.79   21.10
   5   3   7   -1.60   10.00
   8  -3  -7   12.00    6.80
   3   5   7    0.30    9.10
   9  -4  -7    8.80    5.90
   5   4   7    7.50    9.70
   4   5   7    9.20    8.80
   9  -5  -7   11.90    5.90
   3   3  -7   77.19   14.40
   6  -3   7   55.69   12.30
   4   2  -7    0.80    7.80
   6  -2   7    5.60   11.50
   6  -4   7  -24.00   12.10
   2   4  -7   -5.80    8.90
  -2   6   7    3.60   12.80
   5   1  -7   23.90    7.60
   6  -1   7   28.80   11.00
   6  -5   7   23.30   12.50
  -1   6   7   23.60   10.60
   1   5  -7   22.10    9.50
   6   0  -7   46.90   11.70
   6   0   7   29.90   10.80
   0   6   7   35.50   10.40
   0   6  -7   23.70   10.20
   6  -6   7   25.80   12.80
   6   1   7   14.60   10.50
   7  -1  -7   14.50    6.50
   1   6   7   10.50    9.70
  -1   7  -7    1.00   10.00
   6  -7   7  -17.10   12.50
   8  -2  -7    8.30    5.80
   6   2   7    6.20   10.20
   2   6   7    0.10    9.10
   6   3   7   -2.80    9.40
   9  -3  -7    1.10    6.20
  -3   9  -7   17.00    6.90
   3   6   7    5.50    8.50
   7  -3   7  -11.80   11.50
   4   3  -7   -5.80    8.30
   3   4  -7   -3.90    8.50
   7  -4   7  -13.90   12.10
   5   2  -7   57.79   12.90
   7  -2   7   76.09   18.30
   2   5  -7   67.19   16.10
   7  -5   7   53.19   13.20
   6   1  -7   50.59   12.10
   7  -1   7   88.59   19.00
   1   6  -7   49.30   10.30
   7  -6   7   44.40   13.50
  -1   7   7   67.29   16.50
   7   0  -7   -7.00    6.50
   7   0   7    2.70   10.30
   0   7   7   -2.30    9.60
   0   7  -7  -12.60    9.70
   8  -1  -7   10.60    6.30
   7   1   7   24.40   10.00
  -1   8  -7   10.70   16.00
   1   7   7   13.90    9.20
   7   2   7    8.00    9.10
  -2   9  -7   18.90    6.60
   2   7   7    3.20    8.40
   8  -4   7   -6.20   11.30
   4   4  -7    1.70    8.90
   5   3  -7   -3.20    7.90
   8  -3   7   11.90   10.70
   8  -5   7   -4.60   11.40
   3   5  -7    0.50    8.70
   8  -2   7    4.40    9.90
   6   2  -7   -3.70    7.10
   8  -6   7  -17.70   11.70
   2   6  -7  -14.10    9.20
   8  -1   7   13.80    9.40
   7   1  -7   -5.20    6.50
  -1   8   7    6.80    9.80
   1   7  -7   -2.70    9.70
   8   0  -7   -8.40    6.20
   0   8  -7  -12.90    9.00
   0   8   7   -0.10    9.00
   5   4  -7  -14.30    7.50
   4   5  -7   -1.30    8.30
   6   3  -7    5.80    7.20
   3   6  -7    9.40    8.90
   7   2  -7    3.50    6.40
   2   7  -7   -0.40    9.00
   0   0   8  140.99   21.80
   0  -1   8   24.20   11.80
   1   0   8   17.90   11.40
  -1   1   8   16.80   12.60
   0   1   8   24.30   11.80
  -1   0   8   18.50   12.60
   1  -1   8   30.50   12.00
   1  -2   8   13.90   12.20
   1   1   8   14.40   10.90
   2  -1   8  337.97   26.00
  -1   2   8  339.17   25.60
   1   1  -8  352.46   21.60
  -1  -1   8  361.66   27.60
   2   0   8   25.60   11.30
   0  -2   8   37.40   13.50
   2  -2   8   17.30   11.60
   0   2  -8   32.10    8.90
   0   2   8   37.30   11.30
   1  -3   8  -13.30   12.40
   2   1   8   -0.90   10.60
   2  -3   8  -13.60   12.40
   1   2   8    3.50   10.60
   2  -4   8  192.88   23.70
   2   2   8  164.18   20.20
   3  -1   8   21.40   11.90
  -1  -2   8   39.90   15.10
   1   2  -8   35.60    9.40
   3  -2   8   23.20   11.20
  -1   3   8   33.90   11.80
   3   0   8   92.89   18.60
   0  -3   8   91.19   22.40
   0   3  -8   98.69   14.70
   0   3   8   95.19   19.30
   3  -3   8   79.39   20.60
   1  -4   8  147.59   22.80
   3   1   8  127.59   18.70
   1   3   8  124.49   18.90
   3  -4   8  109.09   21.80
   3   2   8    2.20   10.80
   2  -5   8   -2.50   13.10
   2   3   8    4.50   10.00
   3  -5   8   -1.30   12.70
   3   3   8    6.80   10.20
   3  -6   8    2.00   12.90
   2   2  -8    4.30    8.60
   4  -2   8    2.20   10.80
   3   1  -8   19.70    9.10
   4  -1   8    2.40   11.50
   4  -3   8    4.10   11.90
  -1   4   8    3.90   11.30
   1   3  -8   10.00    8.60
   4   0   8    6.20   10.80
   0  -4   8   10.80   13.90
   4   0  -8   21.80    8.60
   0   4   8    7.00   10.80
   0   4  -8   14.10    9.00
   4  -4   8    7.00   12.30
   5  -1  -8   19.70    7.60
   4   1   8   14.40   10.80
   1  -5   8    3.30   13.50
   4  -5   8    3.50   12.50
   1   4   8    8.60   10.20
   6  -2  -8   64.09   12.00
   2  -6   8   29.10   13.60
   4   2   8   36.40   11.20
   2   4   8   23.00   10.10
   4  -6   8   22.40   13.30
   7  -3  -8   67.09   11.50
   4   3   8   36.70   10.70
   4  -7   8   31.10   12.80
   3   4   8   62.49   16.10
   8  -4  -8   92.09   12.00
   4   4   8   77.89   15.90
   3   2  -8    4.20    8.30
   5  -2   8   -2.50   10.90
   5  -3   8   -0.70   11.90
   2   3  -8   -4.60    8.50
   4   1  -8    9.20    8.10
   5  -1   8   12.50   11.90
   5  -4   8  -10.40   12.00
  -1   5   8   -7.40   10.80
   1   4  -8   -3.80    9.00
   5   0   8    3.60   10.90
   5   0  -8    5.70    7.90
   0  -5   8   -2.80   13.70
   0   5   8   15.30   11.00
   5  -5   8    4.70   12.40
   0   5  -8   10.10    9.20
   6  -1  -8   45.70   11.90
   1  -6   8   19.90   13.30
   5   1   8   28.00   11.00
   5  -6   8   28.20   13.00
   1   5   8   30.50   10.50
   7  -2  -8   25.90    7.00
   5   2   8   29.10   10.60
   2   5   8   19.40    9.90
   5  -7   8    5.80   12.30
   8  -3  -8    2.50    6.00
   5   3   8   10.00    9.90
   3   5   8    6.00    9.10
   6  -3   8   -3.30   12.20
   3   3  -8    1.00    8.70
   6  -2   8    4.40   11.00
   4   2  -8    3.60    8.00
   6  -4   8   -3.90   12.50
   2   4  -8   11.60    9.20
   6  -1   8   12.90   11.70
   5   1  -8   16.50    7.60
   6  -5   8   30.90   12.60
  -1   6   8   17.40   11.30
   1   5  -8   25.60    9.60
   6   0   8   94.69   19.20
   6   0  -8   75.39   12.10
   0   6  -8   65.29   16.40
   0   6   8   63.29   17.50
   6  -6   8   60.69   13.90
   7  -1  -8   44.10   11.10
   6   1   8   75.09   17.80
   1   6   8   35.90   10.20
   4   3  -8    1.70    7.90
   7  -3   8    5.30   11.70
   3   4  -8    2.60    8.60
   7  -4   8   -1.30   12.00
   5   2  -8    5.70    7.60
   7  -2   8    4.00   10.90
   2   5  -8    7.40    9.40
   7  -5   8   -4.00   12.20
   7  -1   8    7.40   10.00
   6   1  -8   -5.50    6.90
   1   6  -8  -12.30    9.00
  -1   7   8   -7.90   10.20
   7  -6   8  -10.90   12.80
   7   0   8   21.60   10.50
   7   0  -8   11.30    6.40
   0   7  -8   10.60    9.40
   0   7   8   10.70    9.50
   8  -4   8    8.20   10.50
   4   4  -8   -4.50    7.60
   5   3  -8    8.00    7.40
   8  -3   8   10.30   10.40
   8  -5   8    8.30   11.20
   3   5  -8   11.70    8.50
   0   0   9   -0.30   11.70
   1   0   9  -14.40   11.90
   0  -1   9    3.30   13.10
  -1   1   9    7.50   13.20
   0   1  -9    2.60    8.10
   1  -1   9    8.10   12.10
  -1   0   9   12.70   19.00
   0   1   9    8.70   12.80
   1  -2   9  138.59   22.00
   1   1   9  107.09   20.80
  -1   2   9  129.69   22.70
   2  -1   9  104.49   19.60
   1   1  -9  100.89   14.80
   2   0  -9   62.19   13.10
   2   0   9   38.90   12.30
   0  -2   9   45.40   13.80
   0   2  -9   54.19   13.70
   0   2   9   71.59   20.30
   2  -2   9   25.80   12.90
   1  -3   9   -0.10   13.50
   2   1   9   19.20   11.30
   1   2   9   19.80   11.40
   2  -3   9  -13.30   12.40
   2  -4   9   19.00   12.80
   2   2   9   22.10   10.90
   3  -1   9    1.60   10.70
   2   1  -9    5.70    8.10
   3  -2   9   -0.80   11.50
   1   2  -9    2.80    7.90
  -1   3   9    2.70   12.40
   3   0  -9   11.00    8.40
   0  -3   9    2.90   13.30
   3   0   9   -3.20   11.10
   0   3   9   12.20   11.00
   0   3  -9    0.60    7.80
   3  -3   9   -2.20   11.80
   1  -4   9   10.60   13.40
   3   1   9    7.50   10.70
   4  -1  -9    9.80    7.90
   1   3   9    6.30   10.80
   3  -4   9   -5.50   12.20
   2  -5   9   -1.30   12.80
   5  -2  -9   22.10    7.60
   3   2   9   14.90   10.40
   3  -5   9    9.00   12.40
   2   3   9   16.00   10.40
   4  -2   9    4.80   11.40
   2   2  -9    6.40    7.60
   4  -1   9   -2.90   10.40
   3   1  -9    7.10    7.80
  -1   4   9    6.00   11.80
   1   3  -9    0.90    7.80
   4  -3   9   -1.40   11.40
   0  -4   9   -2.50   13.70
   4   0  -9    2.40    7.60
   4   0   9   -0.70   11.00
   0   4   9    6.60   10.90
   4  -4   9  -17.30   11.60
   0   4  -9   -3.40    8.10
   5  -1  -9    2.80    7.70
   1  -5   9   -2.00   13.20
   4   1   9   -3.70   10.50
   4  -5   9  -11.10   11.80
   1   4   9    1.70   10.10
   3   2  -9    3.50    7.70
   5  -2   9    3.80   11.20
   2   3  -9    5.30    8.10
   5  -3   9    3.60   11.40
   5  -1   9   10.20   10.40
   4   1  -9    5.90    7.30
   5  -4   9   12.50   11.60
  -1   5   9   19.30   11.50
   1   4  -9   10.50    8.30
   5   0   9   11.70   10.90
   5   0  -9   15.60    7.20
   0   5  -9   10.40    8.50
   5  -5   9    4.30   11.60
   0   5   9    6.20   10.40
   0   0   0    0.00    0.00

_computing_structure_solution     'SHELXT 2014/5 (Sheldrick, 2014)'
;
_shelx_hkl_checksum              7291
_shelx_fab_file
;
0 0 1 15.7879 5.2384
0 0 2 -34.5454 -0.4761
0 0 3 -8.4657 1.9064
0 0 4 -9.3910 -4.4560
0 0 5 5.6067 1.5527
0 0 6 -10.5643 -0.0197
0 0 7 -2.8993 1.8634
0 0 8 1.0697 -1.7777
0 0 9 0.3811 0.0467
1 0 0 48.0588 0.7304
1 0 1 0.8360 -1.5738
1 0 3 -0.0535 0.8358
1 0 4 -3.5961 0.0456
1 0 5 1.9464 -1.3029
1 0 6 -3.7343 0.1936
1 0 7 0.0809 0.3897
1 0 8 0.8072 0.3467
1 0 9 -0.8504 -0.3024
1 1 -9 -0.2922 1.2108
1 1 -8 1.3258 -1.9009
1 1 -7 0.5043 1.0037
1 1 -6 0.8537 -1.4273
1 1 -5 1.7906 3.8726
1 1 -4 4.7084 -3.2580
1 1 -3 -2.1419 1.2394
1 1 -2 29.0260 -4.1931
1 1 0 -19.3261 -1.6650
1 1 2 -5.7278 -5.0541
1 1 3 1.3314 3.0358
1 1 4 -6.7401 -0.9345
1 1 5 0.0112 2.4256
1 1 6 0.8499 -2.7443
1 1 7 1.3443 1.0586
1 1 8 1.0586 -0.7930
1 1 9 -0.5171 1.3255
2 0 1 8.4889 -4.5109
2 0 2 14.5190 4.2814
2 0 3 -1.7473 -1.8248
2 0 4 -0.1865 2.3628
2 0 5 -0.3129 -3.3191
2 0 6 1.3444 1.9131
2 0 7 0.8932 -0.9877
2 0 8 1.5110 1.4743
2 0 9 -0.6247 -1.2262
2 1 -9 -0.0288 0.3722
2 1 -8 2.3898 -0.3125
2 1 -7 0.2928 0.7622
2 1 -6 -0.5295 -1.0823
2 1 -5 0.1836 0.7520
2 1 -4 3.0597 -0.7980
2 1 -3 -6.1646 1.5647
2 1 -2 -0.7040 -1.4081
2 1 2 2.5401 -1.3176
2 1 3 -2.6697 1.0894
2 1 4 -9.8775 -1.2128
2 1 5 2.3604 0.9818
2 1 6 -0.8145 -0.6680
2 1 7 -1.4277 0.6142
2 1 8 0.2218 -0.5002
2 1 9 0.2965 0.3207
2 2 -9 -0.1296 0.4211
2 2 -8 0.7222 -0.2155
2 2 -7 1.8868 0.7370
2 2 -6 1.8695 -1.4468
2 2 -5 0.3054 0.7922
2 2 -4 -0.5995 -0.6696
2 2 -3 4.8992 2.3385
2 2 -2 -12.2530 -2.3821
2 2 -1 -16.2911 0.6996
2 2 0 -15.3933 -1.7330
2 2 1 -16.3264 2.9794
2 2 2 1.9298 -1.6327
2 2 3 3.4269 1.0571
2 2 4 -6.1442 -1.9305
2 2 5 3.6671 1.8812
2 2 6 -1.4090 -0.9570
2 2 7 2.4164 0.8184
2 2 8 1.4281 -0.9593
2 2 9 -0.7782 0.6641
3 0 0 18.4987 -0.7699
3 0 1 16.9242 0.5786
3 0 2 -8.4577 0.0115
3 0 3 -3.9627 0.3338
3 0 4 -1.3665 -0.6822
3 0 5 -1.4369 0.2877
3 0 6 -1.4229 -0.0727
3 0 7 -1.2292 0.2572
3 0 8 0.1363 -0.2963
3 0 9 -1.5195 -0.1057
3 1 -9 -1.2635 -0.1392
3 1 -8 -0.3539 0.1173
3 1 -7 0.5496 -0.5588
3 1 -6 -0.3512 0.6306
3 1 -5 -1.4971 -0.3958
3 1 -4 0.3305 0.5626
3 1 -3 4.6226 -1.0571
3 1 -2 -15.4892 0.6598
3 1 -1 -12.0746 -0.2168
3 1 0 22.1728 0.9613
3 1 1 4.1152 -0.9151
3 1 2 -3.4955 0.2163
3 1 3 -1.5379 -0.3977
3 1 4 -2.1088 0.7233
3 1 5 1.9680 -0.4730
3 1 6 -0.8246 0.2283
3 1 7 0.0819 -0.3146
3 1 8 -0.2872 0.3317
3 1 9 -1.2959 0.0382
3 2 -9 -0.4093 0.0424
3 2 -8 -1.7957 -0.1524
3 2 -7 0.9118 0.2395
3 2 -6 2.1520 -0.2810
3 2 -5 -0.2105 0.2691
3 2 -4 -0.4520 -0.5600
3 2 -3 0.2560 0.3896
3 2 -2 9.8581 -0.3017
3 2 -1 -18.8657 0.4653
3 2 0 5.6322 -0.1888
3 2 1 0.3773 -0.0229
3 2 2 3.3318 -0.2425
3 2 3 -1.8806 0.2551
3 2 4 -1.1420 0.0094
3 2 5 -0.1093 0.0654
3 2 6 -0.6697 -0.2220
3 2 7 4.5531 -0.0379
3 2 8 1.7439 -0.0016
3 2 9 0.2556 0.0245
3 3 -8 -0.6781 -1.1946
3 3 -7 1.2396 0.9684
3 3 -6 2.4892 -0.6756
3 3 -5 -1.1562 1.6884
3 3 -4 -2.5667 -2.5200
3 3 -3 -0.6256 1.6540
3 3 -2 -1.7242 -1.8431
3 3 -1 6.5498 3.3795
3 3 0 -2.5186 -2.8569
3 3 1 3.0591 1.6224
3 3 2 14.5746 -2.3296
3 3 3 -2.0873 2.6051
3 3 4 -2.7078 -1.7311
3 3 5 1.2282 1.4948
3 3 6 0.4006 -1.6135
3 3 7 -0.0030 1.1485
3 3 8 -2.2739 -0.6395
4 0 0 25.6335 -1.0260
4 0 1 -0.9288 0.5970
4 0 2 -6.5754 -1.1799
4 0 3 3.6160 1.1644
4 0 4 0.4304 -0.6791
4 0 5 1.0557 0.6160
4 0 6 1.0211 -0.6893
4 0 7 -0.7648 0.5825
4 0 8 -1.5281 -0.2957
4 0 9 -0.8044 0.2323
4 1 -9 -0.5654 0.0412
4 1 -8 -1.4539 0.6002
4 1 -7 -0.5861 -0.5992
4 1 -6 0.5792 0.7341
4 1 -5 0.6273 -0.7244
4 1 -4 0.3225 0.9440
4 1 -3 1.4534 -1.2496
4 1 -2 7.1198 1.4227
4 1 -1 -6.8290 -1.2604
4 1 0 4.7473 1.4024
4 1 1 5.3698 -1.6601
4 1 2 -5.0175 1.4343
4 1 3 -2.2726 -0.9913
4 1 4 2.4638 1.1043
4 1 5 -1.0833 -1.1468
4 1 6 0.2385 0.6925
4 1 7 0.4648 -0.5158
4 1 8 0.9263 0.6113
4 1 9 1.3764 -0.1990
4 2 -8 -0.1134 0.2524
4 2 -7 0.9860 -0.0046
4 2 -6 0.5717 0.1144
4 2 -5 0.1823 -0.3563
4 2 -4 0.9521 0.2945
4 2 -3 -1.6645 -0.3082
4 2 -2 -2.2850 0.3250
4 2 -1 6.0714 -0.3879
4 2 0 2.0339 0.2285
4 2 1 0.0003 -0.1292
4 2 2 1.4818 0.2330
4 2 3 -1.1851 -0.2687
4 2 4 1.3130 0.2521
4 2 5 -2.1310 -0.1875
4 2 6 0.3663 0.1829
4 2 7 -0.8225 -0.2259
4 2 8 -0.2529 0.0634
4 3 -8 0.3123 0.0377
4 3 -7 -0.5806 -0.0130
4 3 -6 2.6869 -0.0903
4 3 -5 0.2220 0.2866
4 3 -4 -1.4422 -0.0210
4 3 -3 4.0665 0.2274
4 3 -2 -1.9194 -0.4995
4 3 -1 -1.1983 0.1317
4 3 0 -2.1840 -0.0595
4 3 1 0.2117 0.4727
4 3 2 4.1672 -0.4238
4 3 3 1.6256 0.1900
4 3 4 0.5398 -0.2898
4 3 5 -0.5871 0.2637
4 3 6 1.2927 -0.1612
4 3 7 -3.0851 0.1722
4 3 8 -1.8675 -0.2277
4 4 -8 0.7140 -0.5736
4 4 -7 -1.5396 1.0860
4 4 -6 2.3549 -1.8399
4 4 -5 -0.5675 1.6821
4 4 -4 2.6113 -1.2667
4 4 -3 -0.3008 2.1284
4 4 -2 -1.7387 -2.8255
4 4 -1 1.3670 1.8109
4 4 0 6.7947 -1.6890
4 4 1 1.6722 2.7435
4 4 2 0.7201 -2.1757
4 4 3 0.4880 1.2870
4 4 4 0.7170 -1.7727
4 4 5 -1.1107 1.7520
4 4 6 -1.5698 -0.9359
4 4 7 -1.5211 0.9035
4 4 8 1.1141 -1.0729
5 0 0 -17.5811 -0.0682
5 0 1 0.5650 0.6299
5 0 2 4.3498 -0.8831
5 0 3 1.9033 0.2964
5 0 4 -1.2647 -0.1138
5 0 5 0.6190 0.5339
5 0 6 1.3823 -0.4148
5 0 7 -1.0937 0.0569
5 0 8 0.3904 -0.1495
5 0 9 1.2409 0.0986
5 1 -8 0.4690 -0.2553
5 1 -7 0.1703 0.2573
5 1 -6 0.0372 -0.2479
5 1 -5 -0.2644 0.2398
5 1 -4 1.1729 -0.2368
5 1 -3 -2.2294 0.5153
5 1 -2 -1.7053 -0.5457
5 1 -1 -1.1451 0.2514
5 1 0 -1.2967 -0.4327
5 1 1 4.3376 0.7845
5 1 2 -0.9758 -0.3429
5 1 3 2.3318 0.1388
5 1 4 0.3865 -0.4980
5 1 5 -1.4368 0.4737
5 1 6 -0.6065 -0.1346
5 1 7 -1.9355 0.3049
5 1 8 0.9409 -0.3803
5 2 -8 -0.4616 -0.0553
5 2 -7 -0.0016 -0.2371
5 2 -6 0.0570 0.1703
5 2 -5 1.5732 -0.1645
5 2 -4 0.5630 0.3194
5 2 -3 -0.0556 -0.2805
5 2 -2 -1.9006 0.0655
5 2 -1 1.5134 -0.2323
5 2 0 1.0166 0.4121
5 2 1 -4.4355 -0.1989
5 2 2 -1.1244 0.0303
5 2 3 2.4071 -0.2782
5 2 4 0.1638 0.3548
5 2 5 -1.3506 -0.1056
5 2 6 1.1250 0.1197
5 2 7 -2.5409 -0.1809
5 2 8 -0.5494 0.0538
5 3 -8 -0.5161 0.1167
5 3 -7 -1.4296 -0.3554
5 3 -6 0.2593 0.5655
5 3 -5 0.1932 -0.4547
5 3 -4 0.4563 0.5915
5 3 -3 -1.5078 -0.9621
5 3 -2 -0.9728 1.0480
5 3 -1 0.6764 -0.8520
5 3 0 0.8077 1.1123
5 3 1 0.2736 -1.2279
5 3 2 0.8676 0.8976
5 3 3 0.8359 -0.8325
5 3 4 1.6382 0.9298
5 3 5 -0.7512 -0.6373
5 3 6 0.0646 0.5130
5 3 7 -2.2701 -0.4735
5 3 8 0.7386 0.3675
5 4 -7 0.4015 0.1845
5 4 -6 2.2939 -0.2955
5 4 -5 0.8536 0.1263
5 4 -4 0.2515 -0.2355
5 4 -3 0.6213 0.5152
5 4 -2 -0.7176 -0.4643
5 4 -1 2.3708 0.3788
5 4 0 -0.3426 -0.6403
5 4 1 -0.0397 0.7047
5 4 2 -1.2438 -0.4407
5 4 3 -2.0203 0.4541
5 4 4 -0.0944 -0.5312
5 4 5 0.3088 0.5070
5 4 6 -0.4158 -0.2469
5 4 7 -0.4166 0.1279
5 5 -6 1.0923 -0.4465
5 5 -5 0.6752 0.6213
5 5 -4 2.2789 -1.5412
5 5 -3 -1.1733 1.2815
5 5 -2 3.4349 -0.3780
5 5 -1 0.1930 1.0838
5 5 0 -0.9028 -1.8550
5 5 1 0.6638 0.9572
5 5 2 -2.1905 -0.6908
5 5 3 -0.8672 1.4864
5 5 4 2.5135 -1.1801
5 5 5 -2.1103 0.5368
5 5 6 0.4796 -0.7504
6 0 0 -2.9736 0.3359
6 0 1 0.9548 -0.6451
6 0 2 1.6444 0.9477
6 0 3 0.3236 -0.5864
6 0 4 1.0015 0.2774
6 0 5 -0.5947 -0.5819
6 0 6 -0.0428 0.4873
6 0 7 -0.4445 -0.2941
6 0 8 0.7715 0.1672
6 1 -8 -0.3175 -0.0914
6 1 -7 0.4809 0.4241
6 1 -6 0.5209 -0.4689
6 1 -5 -1.0949 0.1483
6 1 -4 2.3850 -0.4078
6 1 -3 -0.1041 0.9068
6 1 -2 0.0953 -0.3386
6 1 -1 3.3450 0.2398
6 1 0 1.6513 -0.9209
6 1 1 -0.5989 0.7994
6 1 2 0.9649 -0.2172
6 1 3 0.4548 0.4909
6 1 4 -0.3539 -0.8798
6 1 5 0.3126 0.2990
6 1 6 -1.7232 -0.1395
6 1 7 -0.7669 0.3654
6 1 8 -0.8446 -0.0221
6 2 -7 -0.3929 0.0034
6 2 -6 -0.8870 -0.0069
6 2 -5 0.5210 -0.1558
6 2 -4 -1.0435 -0.2079
6 2 -3 -0.1625 0.0572
6 2 -2 0.2716 0.2736
6 2 -1 1.4387 -0.0041
6 2 0 -2.3570 -0.2383
6 2 1 -0.2935 -0.2089
6 2 2 1.0694 0.2408
6 2 3 -0.4114 0.0408
6 2 4 0.7352 0.0131
6 2 5 0.0283 -0.0931
6 2 6 -1.7031 -0.0258
6 2 7 -0.7913 -0.0793
6 3 -7 -0.4317 0.1959
6 3 -6 0.9172 0.1433
6 3 -5 0.1150 -0.0690
6 3 -4 -0.4902 0.2059
6 3 -3 0.6913 -0.1206
6 3 -2 0.4163 0.0725
6 3 -1 -3.8309 -0.1249
6 3 0 -2.7424 0.0041
6 3 1 0.5307 -0.0327
6 3 2 0.0098 0.2081
6 3 3 -0.1492 -0.1876
6 3 4 0.9363 0.0550
6 3 5 -0.0303 -0.1825
6 3 6 0.1802 -0.0444
6 3 7 -1.1994 0.2374
6 4 -6 1.8898 0.3907
6 4 -5 0.2501 -0.3753
6 4 -4 2.3827 0.4946
6 4 -3 -0.8224 -0.3538
6 4 -2 2.0124 0.2357
6 4 -1 -0.5223 -0.5418
6 4 0 0.4876 0.5412
6 4 1 0.8237 -0.2842
6 4 2 -0.5753 0.3499
6 4 3 -0.1677 -0.5398
6 4 4 1.4735 0.3112
6 4 5 -1.8061 -0.2566
6 4 6 0.9353 0.2492
6 5 -5 -1.6426 0.3052
6 5 -4 1.1368 -0.3910
6 5 -3 0.9245 0.3234
6 5 -2 -1.0239 -0.3673
6 5 -1 -1.7638 0.3436
6 5 0 2.8910 -0.2322
6 5 1 0.0660 0.2446
6 5 2 1.1583 -0.4303
6 5 3 0.1828 0.3919
6 5 4 3.9721 -0.2447
6 5 5 -1.8507 0.0540
6 6 -4 -2.3271 -0.7591
6 6 -3 -0.1400 0.5626
6 6 -2 0.1077 -1.2893
6 6 -1 -0.0633 1.4259
6 6 0 0.6802 -0.7887
6 6 1 0.2118 0.9665
6 6 2 1.1021 -1.4974
6 6 3 -1.8796 1.0982
6 6 4 -0.0989 -0.6559
7 0 0 0.3747 0.8158
7 0 1 1.5736 -0.3686
7 0 2 -0.6762 0.2800
7 0 3 -0.1415 -0.6731
7 0 4 2.9947 0.4747
7 0 5 -1.7016 -0.0786
7 0 6 0.5682 0.1867
7 0 7 0.8306 -0.3236
7 0 8 -0.1570 0.6371
7 1 -7 0.6073 0.1864
7 1 -6 0.1033 -0.0067
7 1 -5 -0.5443 0.0651
7 1 -4 0.7821 -0.1340
7 1 -3 -0.1074 0.1377
7 1 -2 -2.3215 -0.1857
7 1 -1 -0.6275 0.2812
7 1 0 1.2303 -0.1685
7 1 1 1.6097 0.1910
7 1 2 0.6967 -0.2963
7 1 3 -0.6926 0.3046
7 1 4 1.3440 -0.1037
7 1 5 0.0050 0.1785
7 1 6 -1.9494 -0.0780
7 1 7 0.7601 0.1779
7 2 -7 -0.4883 -0.0011
7 2 -6 -0.0892 -0.0695
7 2 -5 0.6057 0.3427
7 2 -4 -0.3343 -0.3395
7 2 -3 -0.1553 0.0101
7 2 -2 0.3300 -0.2100
7 2 -1 -3.4966 0.4837
7 2 0 -0.3596 -0.1777
7 2 1 0.1471 0.0699
7 2 2 1.0920 -0.3127
7 2 3 -0.3174 0.4573
7 2 4 0.5546 -0.0736
7 2 5 -0.3599 0.0631
7 2 6 -1.1171 -0.0501
7 2 7 0.8343 0.0835
7 3 -6 1.3976 0.0582
7 3 -5 -0.8444 0.3305
7 3 -4 0.9101 -0.3723
7 3 -3 -0.8310 0.2060
7 3 -2 -0.0337 -0.3655
7 3 -1 2.2829 0.5765
7 3 0 2.1090 -0.2589
7 3 1 -1.2634 0.2324
7 3 2 0.8503 -0.5147
7 3 3 0.5600 0.3947
7 3 4 -0.1369 -0.2290
7 3 5 -0.9057 0.0930
7 3 6 1.5160 -0.0482
7 4 -5 -1.9094 0.1034
7 4 -4 -0.3961 0.4850
7 4 -3 1.3588 -0.5005
7 4 -2 -0.4068 0.5784
7 4 -1 0.1770 -0.6184
7 4 0 0.9488 0.7034
7 4 1 -0.1728 -0.6849
7 4 2 -0.0610 0.8091
7 4 3 0.1053 -0.5662
7 4 4 2.5896 0.2921
7 4 5 -0.4236 0.1275
7 5 -4 -1.5914 0.2479
7 5 -3 0.6925 -0.2276
7 5 -2 0.8857 0.3949
7 5 -1 -0.0860 -0.2329
7 5 0 0.2121 0.0492
7 5 1 0.4179 -0.2096
7 5 2 -0.4716 0.2444
7 5 3 -1.1647 -0.1708
7 5 4 0.7075 0.2207
7 6 -2 1.4784 0.0375
7 6 -1 -0.4417 -0.0512
7 6 0 -0.8782 -0.0553
7 6 1 0.4131 0.0850
7 6 2 -0.6319 0.0940
8 0 0 2.6949 -0.2817
8 0 1 -1.1076 0.4052
8 0 2 -1.4010 -0.6539
8 0 3 -1.1512 0.2150
8 0 4 0.8707 -0.1129
8 0 5 0.7322 0.2489
8 0 6 0.2957 -0.2470
8 0 7 0.7887 0.3521
8 1 -6 -0.6550 0.3888
8 1 -5 1.3971 -0.2348
8 1 -4 -0.0304 0.3808
8 1 -3 -0.5404 -0.4552
8 1 -2 1.0688 0.5970
8 1 -1 -1.5170 -0.6001
8 1 0 -0.4478 0.5291
8 1 1 0.2627 -0.7459
8 1 2 0.5852 0.7815
8 1 3 -1.7037 -0.3588
8 1 4 0.7271 0.3676
8 1 5 0.8175 -0.4747
8 1 6 -1.1743 0.1971
8 2 -6 -0.7435 -0.4928
8 2 -5 -1.4034 -0.2891
8 2 -4 -0.8344 -0.0215
8 2 -3 -0.2960 -0.0333
8 2 -2 -1.2621 0.2038
8 2 -1 3.2833 -0.2446
8 2 0 1.2986 0.0156
8 2 1 0.2589 -0.0368
8 2 2 -0.3536 0.0399
8 2 3 -1.0012 -0.1272
8 2 4 0.4705 -0.1060
8 2 5 -0.6897 0.0557
8 2 6 -0.2950 -0.2690
8 3 -5 -2.5198 -0.0881
8 3 -4 -1.9244 0.0613
8 3 -3 -0.0873 0.2487
8 3 -2 -0.8546 -0.1911
8 3 -1 -0.0503 0.0390
8 3 0 -0.3154 -0.1480
8 3 1 -1.0197 0.2577
8 3 2 -2.0170 -0.1840
8 3 3 0.5452 0.0736
8 3 4 1.1442 0.1359
8 3 5 0.4509 0.0631
8 4 -4 -0.2194 0.3716
8 4 -3 -0.4091 0.0792
8 4 -2 0.6486 -0.3288
8 4 -1 -1.9812 0.0868
8 4 0 -0.5373 -0.2389
8 4 1 -0.9109 0.3284
8 4 2 -2.1641 -0.2386
8 4 3 0.5638 -0.0817
8 4 4 0.9092 0.2119
8 5 -2 0.6909 -0.3647
8 5 -1 -0.0712 0.1540
8 5 0 0.1278 -0.2682
8 5 1 0.5315 0.2691
8 5 2 0.0809 -0.2596
9 0 0 -2.7731 -0.0380
9 0 1 -0.2217 0.3260
9 0 2 1.1002 -0.2050
9 0 3 -0.4209 -0.0070
9 0 4 0.1363 -0.0295
9 0 5 1.2065 0.3331
9 0 6 -0.9220 -0.3493
9 1 -5 -1.1448 -0.1586
9 1 -4 -0.5332 0.1971
9 1 -3 1.7155 0.0168
9 1 -2 -0.8037 0.1766
9 1 -1 0.5674 -0.2188
9 1 0 -0.3348 0.0349
9 1 1 0.7127 0.0593
9 1 2 -0.9198 0.2141
9 1 3 -1.5770 -0.2549
9 1 4 1.0564 -0.0350
9 1 5 -0.0534 -0.1568
9 2 -5 -2.3980 -0.3366
9 2 -4 -1.5012 0.2246
9 2 -3 -0.7918 0.0037
9 2 -2 -1.6558 -0.2619
9 2 -1 -1.7992 0.2272
9 2 0 0.6533 -0.1215
9 2 1 0.6653 0.2430
9 2 2 -1.3139 -0.1748
9 2 3 -0.3982 -0.0425
9 2 4 0.5276 0.1617
9 2 5 0.2950 -0.1445
9 3 -3 -2.1984 0.0163
9 3 -2 -0.1437 0.0279
9 3 -1 -1.4601 0.1320
9 3 0 0.7508 0.1390
9 3 1 -0.5116 -0.1617
9 3 2 -1.4496 -0.2289
9 3 3 0.9032 0.3605
9 4 -1 0.6306 0.3527
9 4 0 0.8543 -0.1569
9 4 1 -0.1547 0.1284
10 0 0 2.0660 -0.2950
10 0 1 -0.6683 0.1461
10 0 2 -0.2935 -0.0490
10 0 3 0.1272 0.1321
10 0 4 -0.0693 -0.1796
10 0 5 -0.2982 -0.5593
10 1 -4 -0.0250 -0.4923
10 1 -3 -0.3992 0.2589
10 1 -2 0.1979 -0.2034
10 1 -1 -0.7589 0.1087
10 1 0 0.7084 -0.2566
10 1 1 -1.1466 0.2018
10 1 2 0.7694 -0.1695
10 1 3 -1.2770 0.3033
10 1 4 -0.9993 -0.5314
10 2 -3 -1.2482 0.1113
10 2 -2 0.0597 -0.0568
10 2 -1 -0.2399 -0.1086
10 2 0 -0.8021 0.1986
10 2 1 1.4089 -0.2656
10 2 2 1.4165 0.2413
10 2 3 0.4501 -0.0874
11 0 0 1.4998 0.6131
11 0 1 0.0950 -0.5116
11 0 2 0.7151 0.1894
11 0 3 -1.2387 -0.2284
11 1 -1 -0.0816 -0.3316
11 1 0 -0.9258 0.5734
11 1 1 0.9487 -0.4879
0 0 0 0.0 0.0
;
_shelx_fab_checksum              55080
_olex2_submission_special_instructions 'No special instructions were received'
loop_
_space_group_symop_operation_xyz
'x, y, z'
'-y, x-y, z'
'-x+y, -x, z'
'-y, -x, -z'
'-x+y, y, -z'
'x, x-y, -z'
'-x, -y, -z'
'y, -x+y, -z'
'x-y, x, -z'
'y, x, z'
'x-y, -y, z'
'-x, -x+y, z'
loop_
_atom_site_label
_atom_site_type_symbol
_atom_site_fract_x
_atom_site_fract_y
_atom_site_fract_z
_atom_site_U_iso_or_equiv
_atom_site_adp_type
_atom_site_occupancy
_atom_site_site_symmetry_order
_atom_site_calc_flag
_atom_site_refinement_flags_posn
_atom_site_refinement_flags_adp
_atom_site_refinement_flags_occupancy
_atom_site_disorder_assembly
_atom_site_disorder_group
Fe1 Fe 0.333333 0.666667 0.500000 0.0685(15) Uani 1 6 d S T P . .
Cl1 Cl 0.3920(3) 0.3920(3) 0.2211(4) 0.1066(18) Uani 1 2 d S T P . .
O1 O 0.3554(5) 0.5561(5) 0.3858(6) 0.071(2) Uani 1 1 d . . . . .
C1 C 0.4232(7) 0.5251(7) 0.4328(9) 0.063(2) Uani 1 1 d . . . . .
C2 C 0.4498(8) 0.4498(8) 0.3689(12) 0.062(3) Uani 1 2 d S T P . .
N1 N 0.333333 0.666667 0.000000 0.184(9) Uani 1 6 d DS TU P . .
C3 C 0.333333 0.666667 -0.148(3) 0.185(9) Uani 0.5 3 d DS TU P B .
H3A H 0.263056 0.660450 -0.179989 0.277 Uiso 0.1667 1 calc R . . A -1
H3B H 0.397394 0.736944 -0.179989 0.277 Uiso 0.1667 1 calc R . . A -1
H3C H 0.339550 0.602606 -0.179989 0.277 Uiso 0.1667 1 calc R . . A -1
C4 C 0.432(3) 0.675(3) 0.071(4) 0.184(9) Uani 0.5 1 d D U . B -1
H4A H 0.488101 0.680356 0.006903 0.276 Uiso 0.5 1 calc R . . B -1
H4B H 0.466003 0.743014 0.127232 0.276 Uiso 0.5 1 calc R . . B -1
H4C H 0.408157 0.608676 0.127234 0.276 Uiso 0.5 1 calc R . . B -1
loop_
_atom_site_aniso_label
_atom_site_aniso_U_11
_atom_site_aniso_U_22
_atom_site_aniso_U_33
_atom_site_aniso_U_23
_atom_site_aniso_U_13
_atom_site_aniso_U_12
Fe1 0.0607(17) 0.0607(17) 0.084(3) 0.000 0.000 0.0303(9)
Cl1 0.121(3) 0.121(3) 0.106(3) -0.039(2) -0.039(2) 0.081(3)
O1 0.067(3) 0.071(4) 0.077(4) -0.006(3) -0.008(3) 0.037(3)
C1 0.058(5) 0.052(5) 0.070(5) 0.002(4) -0.002(4) 0.022(4)
C2 0.065(5) 0.065(5) 0.060(7) -0.015(5) -0.015(5) 0.037(6)
N1 0.198(14) 0.198(14) 0.157(18) 0.000 0.000 0.099(7)
C3 0.198(14) 0.198(14) 0.157(18) 0.000 0.000 0.099(7)
C4 0.198(14) 0.198(14) 0.157(18) 0.000(2) 0.0001(17) 0.099(7)
loop_
_atom_type_symbol
_atom_type_description
_atom_type_scat_dispersion_real
_atom_type_scat_dispersion_imag
_atom_type_scat_source
C C 0.0181 0.0091 'International Tables Vol C Tables 4.2.6.8 and 6.1.1.4'
H H 0.0000 0.0000 'International Tables Vol C Tables 4.2.6.8 and 6.1.1.4'
N N 0.0311 0.0180 'International Tables Vol C Tables 4.2.6.8 and 6.1.1.4'
O O 0.0492 0.0322 'International Tables Vol C Tables 4.2.6.8 and 6.1.1.4'
Cl Cl 0.3639 0.7018 'International Tables Vol C Tables 4.2.6.8 and 6.1.1.4'
Fe Fe -1.1336 3.1974 'International Tables Vol C Tables 4.2.6.8 and 6.1.1.4'
loop_
_geom_angle_atom_site_label_1
_geom_angle_atom_site_label_2
_geom_angle_atom_site_label_3
_geom_angle
_geom_angle_site_symmetry_1
_geom_angle_site_symmetry_3
_geom_angle_publ_flag
O1 Fe1 O1 100.0(3) 6_566 3_565 ?
O1 Fe1 O1 91.4(2) 2_665 . ?
O1 Fe1 O1 100.0(3) 2_665 4_666 ?
O1 Fe1 O1 91.4(2) 6_566 5_556 ?
O1 Fe1 O1 165.3(3) 3_565 4_666 ?
O1 Fe1 O1 79.1(3) 3_565 5_556 ?
O1 Fe1 O1 91.4(2) 3_565 . ?
O1 Fe1 O1 79.1(3) 6_566 2_665 ?
O1 Fe1 O1 91.4(2) 6_566 4_666 ?
O1 Fe1 O1 91.4(2) 3_565 2_665 ?
O1 Fe1 O1 91.4(2) 5_556 4_666 ?
O1 Fe1 O1 165.3(3) 5_556 2_665 ?
O1 Fe1 O1 79.1(3) . 4_666 ?
O1 Fe1 O1 165.3(3) 6_566 . ?
O1 Fe1 O1 100.0(3) 5_556 . ?
C1 O1 Fe1 115.8(5) . . ?
O1 C1 C1 114.6(4) . 4_666 ?
O1 C1 C2 124.4(8) . . ?
C2 C1 C1 121.0(5) . 4_666 ?
C1 C2 Cl1 121.0(5) . . ?
C1 C2 Cl1 121.0(5) 10 . ?
C1 C2 C1 118.1(10) . 10 ?
C3 N1 C3 180.0 4_665 . ?
C3 N1 C4 118.9(15) . . ?
C3 N1 C4 61.1(15) 4_665 . ?
N1 C3 H3A 109.5 . . ?
N1 C3 H3B 109.5 . . ?
N1 C3 H3C 109.5 . . ?
H3A C3 H3B 109.5 . . ?
H3A C3 H3C 109.5 . . ?
H3B C3 H3C 109.5 . . ?
N1 C4 H4A 109.5 . . ?
N1 C4 H4B 109.5 . . ?
N1 C4 H4C 109.5 . . ?
H4A C4 H4B 109.5 . . ?
H4A C4 H4C 109.5 . . ?
H4B C4 H4C 109.5 . . ?
loop_
_geom_bond_atom_site_label_1
_geom_bond_atom_site_label_2
_geom_bond_distance
_geom_bond_site_symmetry_2
_geom_bond_publ_flag
Fe1 O1 2.022(6) 6_566 ?
Fe1 O1 2.022(6) 4_666 ?
Fe1 O1 2.022(6) . ?
Fe1 O1 2.022(6) 3_565 ?
Fe1 O1 2.022(6) 5_556 ?
Fe1 O1 2.022(6) 2_665 ?
Cl1 C2 1.670(12) . ?
O1 C1 1.277(9) . ?
C1 C1 1.513(17) 4_666 ?
C1 C2 1.397(10) . ?
N1 C3 1.47(3) 4_665 ?
N1 C3 1.47(3) . ?
N1 C4 1.47(3) . ?
C3 H3A 0.9700 . ?
C3 H3B 0.9700 . ?
C3 H3C 0.9700 . ?
C4 H4A 0.9700 . ?
C4 H4B 0.9700 . ?
C4 H4C 0.9700 . ?
loop_
_smtbx_masks_void_nr
_smtbx_masks_void_average_x
_smtbx_masks_void_average_y
_smtbx_masks_void_average_z
_smtbx_masks_void_volume
_smtbx_masks_void_count_electrons
_smtbx_masks_void_content
1 0.000 0.000 -0.440 847.1 169.5 ?
