#------------------------------------------------------------------------------
#$Date: 2017-10-13 14:42:48 +0300 (Fri, 13 Oct 2017) $
#$Revision: 201982 $
#$URL: file:///home/coder/svn-repositories/cod/cif/4/02/17/4021783.cif $
#------------------------------------------------------------------------------
#
# This file is available in the Crystallography Open Database (COD),
# http://www.crystallography.net/
#
# All data on this site have been placed in the public domain by the
# contributors.
#
data_4021783
loop_
_publ_author_name
'Agnese Abate'
'Elisabetta Brenna'
'Alessia Costantini'
'Claudio Fuganti'
'Francesco G. Gatti'
'Luciana Malpezzi'
'Stefano Serra'
_publ_section_title
;
 Enzymatic Approach to Enantiomerically Pure 5-Alken-2,4-diols and
 4-Hydroxy-5-alken-2-ones: Application to the Synthesis of
 Chiral Synthons
;
_journal_name_full               'Journal of Organic Chemistry'
_journal_page_first              5228
_journal_page_last               5240
_journal_paper_doi               10.1021/jo060581w
_journal_volume                  71
_journal_year                    2006
_chemical_formula_moiety         C15H18O3
_chemical_formula_sum            'C15 H18 O3'
_chemical_formula_weight         246.29
_chemical_name_systematic
;
 4-methyl-5-oxo-1-phenylhex-1-en-3-yl acetate
;
_space_group_IT_number           4
_symmetry_cell_setting           monoclinic
_symmetry_space_group_name_Hall  'P 2yb'
_symmetry_space_group_name_H-M   'P 1 21 1'
_atom_sites_solution_hydrogens   geom
_atom_sites_solution_primary     direct
_atom_sites_solution_secondary   difmap
_audit_creation_method           SHELXL-97
_audit_update_record
;
2006-03-16  Received for J. Org. Chem. manuscript jo060581w
            Minor syntax errors corrected (JOC/pH)
;
_cell_angle_alpha                90.00
_cell_angle_beta                 92.390(3)
_cell_angle_gamma                90.00
_cell_formula_units_Z            2
_cell_length_a                   5.439(5)
_cell_length_b                   8.1730(10)
_cell_length_c                   15.782(2)
_cell_measurement_reflns_used    52
_cell_measurement_temperature    293(2)
_cell_measurement_theta_max      22.1
_cell_measurement_theta_min      6.1
_cell_volume                     700.9(7)
_computing_cell_refinement       'XSCANS (Siemens, 1996)'
_computing_data_collection       'XSCANS (Siemens, 1996)'
_computing_data_reduction        'XSCANS (Siemens, 1996)'
_computing_molecular_graphics    'SHELXTL/NT (Sheldrick, 1999)'
_computing_publication_material  'SHELXL-97 (Sheldrick, 1997)'
_computing_structure_refinement  'SHELXL-97 (Sheldrick, 1997)'
_computing_structure_solution    'SIR97 (Altomare et al., 1999)'
_diffrn_ambient_temperature      293(2)
_diffrn_measured_fraction_theta_full 0.942
_diffrn_measured_fraction_theta_max 0.942
_diffrn_measurement_device_type  'Siemens P4'
_diffrn_measurement_method       |q/2\q
_diffrn_radiation_monochromator  graphite
_diffrn_radiation_source         'fine-focus sealed tube'
_diffrn_radiation_type           CuK\a
_diffrn_radiation_wavelength     1.54179
_diffrn_reflns_av_R_equivalents  0.0385
_diffrn_reflns_av_sigmaI/netI    0.0382
_diffrn_reflns_limit_h_max       5
_diffrn_reflns_limit_h_min       -6
_diffrn_reflns_limit_k_max       9
_diffrn_reflns_limit_k_min       -9
_diffrn_reflns_limit_l_max       18
_diffrn_reflns_limit_l_min       -18
_diffrn_reflns_number            2622
_diffrn_reflns_theta_full        67.93
_diffrn_reflns_theta_max         67.93
_diffrn_reflns_theta_min         2.80
_diffrn_standards_decay_%        13
_diffrn_standards_interval_count 250
_diffrn_standards_number         3
_exptl_absorpt_coefficient_mu    0.648
_exptl_absorpt_correction_type   'not applied'
_exptl_crystal_colour            colourless
_exptl_crystal_density_diffrn    1.167
_exptl_crystal_density_method    'not measured'
_exptl_crystal_description       rod
_exptl_crystal_F_000             264
_exptl_crystal_size_max          0.6
_exptl_crystal_size_mid          0.3
_exptl_crystal_size_min          0.2
_refine_diff_density_max         0.111
_refine_diff_density_min         -0.115
_refine_diff_density_rms         0.030
_refine_ls_abs_structure_details 'Flack H D (1983), Acta Cryst. A39, 876-881'
_refine_ls_abs_structure_Flack   0.4(4)
_refine_ls_extinction_coef       0.018(2)
_refine_ls_extinction_expression Fc^*^=kFc[1+0.001xFc^2^\l^3^/sin(2\q)]^-1/4^
_refine_ls_extinction_method     SHELXL
_refine_ls_goodness_of_fit_ref   1.098
_refine_ls_hydrogen_treatment    mixed
_refine_ls_matrix_type           full
_refine_ls_number_parameters     180
_refine_ls_number_reflns         2195
_refine_ls_number_restraints     1
_refine_ls_restrained_S_all      1.097
_refine_ls_R_factor_all          0.0601
_refine_ls_R_factor_gt           0.0490
_refine_ls_shift/su_max          0.003
_refine_ls_shift/su_mean         0.000
_refine_ls_structure_factor_coef Fsqd
_refine_ls_weighting_details
'calc w=1/[\s^2^(Fo^2^)+(0.0561P)^2^+0.2235P] where P=(Fo^2^+2Fc^2^)/3'
_refine_ls_weighting_scheme      calc
_refine_ls_wR_factor_gt          0.1231
_refine_ls_wR_factor_ref         0.1359
_reflns_number_gt                1922
_reflns_number_total             2195
_reflns_threshold_expression     >2sigma(I)
_cod_data_source_file            jo060581wsi20060316_024902.cif
_cod_original_sg_symbol_H-M      'P 21'
_cod_database_code               4021783
loop_
_symmetry_equiv_pos_as_xyz
'x, y, z'
'-x, y+1/2, -z'
loop_
_atom_site_label
_atom_site_type_symbol
_atom_site_fract_x
_atom_site_fract_y
_atom_site_fract_z
_atom_site_U_iso_or_equiv
_atom_site_adp_type
_atom_site_occupancy
_atom_site_symmetry_multiplicity
_atom_site_calc_flag
_atom_site_refinement_flags
O1 O 0.1653(5) 0.4215(4) 0.06192(16) 0.0850(9) Uani 1 1 d .
O2 O 0.2276(4) 0.7598(2) 0.19403(13) 0.0514(6) Uani 1 1 d .
O3 O 0.4480(5) 0.9900(3) 0.19943(18) 0.0723(7) Uani 1 1 d .
C1 C 0.4939(10) 0.5978(6) 0.0333(2) 0.0964(15) Uani 1 1 d .
H1A H 0.4289 0.5897 -0.0240 0.145 Uiso 1 1 calc R
H1B H 0.6592 0.5563 0.0366 0.145 Uiso 1 1 calc R
H1C H 0.4940 0.7102 0.0509 0.145 Uiso 1 1 calc R
C2 C 0.3386(7) 0.5003(4) 0.0898(2) 0.0588(8) Uani 1 1 d .
C3 C 0.4056(6) 0.4965(4) 0.18332(19) 0.0492(7) Uani 1 1 d .
H3 H 0.270(5) 0.453(4) 0.2093(19) 0.045(8) Uiso 1 1 d .
C4 C 0.4453(6) 0.6658(4) 0.22100(19) 0.0447(7) Uani 1 1 d .
H4 H 0.584(5) 0.717(4) 0.1984(18) 0.042(8) Uiso 1 1 d .
C5 C 0.4747(6) 0.6652(4) 0.31561(19) 0.0496(7) Uani 1 1 d .
H5 H 0.332(6) 0.620(5) 0.345(2) 0.066(10) Uiso 1 1 d .
C6 C 0.6698(6) 0.7213(4) 0.3576(2) 0.0503(7) Uani 1 1 d .
H6 H 0.803(6) 0.775(4) 0.327(2) 0.060 Uiso 1 1 d .
C7 C 0.7192(5) 0.7206(4) 0.44984(18) 0.0470(7) Uani 1 1 d .
C8 C 0.9208(6) 0.8035(4) 0.4841(2) 0.0598(9) Uani 1 1 d .
H8 H 1.0233 0.8589 0.4481 0.063(10) Uiso 1 1 calc R
C9 C 0.9740(7) 0.8064(5) 0.5699(2) 0.0709(11) Uani 1 1 d .
H9 H 1.1104 0.8638 0.5914 0.085 Uiso 1 1 calc R
C10 C 0.8254(8) 0.7246(5) 0.6237(2) 0.0712(10) Uani 1 1 d .
H10 H 0.8613 0.7254 0.6819 0.085 Uiso 1 1 calc R
C11 C 0.6224(7) 0.6409(5) 0.5912(2) 0.0709(10) Uani 1 1 d .
H11 H 0.5200 0.5861 0.6275 0.085 Uiso 1 1 calc R
C12 C 0.5708(6) 0.6382(5) 0.5046(2) 0.0607(9) Uani 1 1 d .
H12 H 0.4349 0.5804 0.4831 0.073 Uiso 1 1 calc R
C13 C 0.6325(7) 0.3893(5) 0.1996(3) 0.0716(11) Uani 1 1 d .
H13A H 0.6030 0.2828 0.1756 0.107 Uiso 1 1 calc R
H13B H 0.6659 0.3793 0.2596 0.107 Uiso 1 1 calc R
H13C H 0.7713 0.4384 0.1739 0.107 Uiso 1 1 calc R
C14 C 0.2558(6) 0.9219(4) 0.18348(18) 0.0488(7) Uani 1 1 d .
C15 C 0.0272(6) 1.0008(5) 0.1514(2) 0.0709(10) Uani 1 1 d .
H15A H 0.0551 1.1159 0.1445 0.106 Uiso 1 1 calc R
H15B H -0.0996 0.9842 0.1910 0.106 Uiso 1 1 calc R
H15C H -0.0230 0.9538 0.0977 0.106 Uiso 1 1 calc R
loop_
_atom_site_aniso_label
_atom_site_aniso_U_11
_atom_site_aniso_U_22
_atom_site_aniso_U_33
_atom_site_aniso_U_23
_atom_site_aniso_U_13
_atom_site_aniso_U_12
O1 0.094(2) 0.095(2) 0.0649(16) -0.0061(15) -0.0163(14) -0.0202(18)
O2 0.0464(12) 0.0473(12) 0.0601(13) 0.0036(10) -0.0038(9) 0.0006(10)
O3 0.0594(16) 0.0536(14) 0.104(2) 0.0066(14) 0.0001(13) -0.0023(13)
C1 0.139(4) 0.102(3) 0.050(2) 0.005(2) 0.017(2) -0.035(3)
C2 0.073(2) 0.0513(17) 0.0521(18) -0.0046(16) 0.0015(16) -0.0021(19)
C3 0.0551(19) 0.0458(16) 0.0467(16) 0.0020(14) 0.0025(14) -0.0014(16)
C4 0.0409(17) 0.0446(16) 0.0482(15) 0.0036(13) -0.0017(13) -0.0002(15)
C5 0.0501(18) 0.0528(17) 0.0458(16) 0.0002(13) 0.0007(14) -0.0041(16)
C6 0.0521(18) 0.0498(17) 0.0489(16) 0.0048(13) 0.0024(14) -0.0001(15)
C7 0.0459(16) 0.0463(16) 0.0484(16) -0.0012(13) -0.0025(13) 0.0013(15)
C8 0.059(2) 0.063(2) 0.0571(19) -0.0023(16) -0.0055(15) -0.0073(17)
C9 0.081(3) 0.069(3) 0.060(2) -0.0089(18) -0.0175(19) -0.003(2)
C10 0.092(3) 0.072(2) 0.0480(19) -0.0080(18) -0.0116(19) 0.013(2)
C11 0.083(3) 0.077(2) 0.0531(19) 0.0053(18) 0.0073(17) -0.001(2)
C12 0.064(2) 0.064(2) 0.0534(18) 0.0038(16) -0.0004(15) -0.0101(18)
C13 0.077(2) 0.055(2) 0.083(3) -0.0007(18) -0.006(2) 0.0123(18)
C14 0.051(2) 0.0465(17) 0.0490(17) 0.0013(13) 0.0029(13) 0.0027(16)
C15 0.062(2) 0.067(2) 0.082(3) 0.009(2) -0.0069(17) 0.017(2)
loop_
_atom_type_symbol
_atom_type_description
_atom_type_scat_dispersion_real
_atom_type_scat_dispersion_imag
_atom_type_scat_source
C C 0.0181 0.0091 'International Tables Vol C Tables 4.2.6.8 and 6.1.1.4'
H H 0.0000 0.0000 'International Tables Vol C Tables 4.2.6.8 and 6.1.1.4'
O O 0.0492 0.0322 'International Tables Vol C Tables 4.2.6.8 and 6.1.1.4'
loop_
_geom_angle_atom_site_label_1
_geom_angle_atom_site_label_2
_geom_angle_atom_site_label_3
_geom_angle
C14 O2 C4 117.3(2)
O1 C2 C1 121.4(4)
O1 C2 C3 119.9(3)
C1 C2 C3 118.6(3)
C2 C3 C4 112.9(3)
C2 C3 C13 109.8(3)
C4 C3 C13 110.9(3)
O2 C4 C5 110.1(2)
O2 C4 C3 105.4(2)
C5 C4 C3 113.3(2)
C6 C5 C4 123.7(3)
C5 C6 C7 127.6(3)
C8 C7 C12 118.0(3)
C8 C7 C6 119.7(3)
C12 C7 C6 122.3(3)
C9 C8 C7 121.7(3)
C10 C9 C8 119.8(3)
C9 C10 C11 119.6(3)
C10 C11 C12 120.1(4)
C7 C12 C11 120.7(3)
O3 C14 O2 122.2(3)
O3 C14 C15 125.7(3)
O2 C14 C15 112.0(3)
loop_
_geom_bond_atom_site_label_1
_geom_bond_atom_site_label_2
_geom_bond_distance
O1 C2 1.209(4)
O2 C14 1.345(4)
O2 C4 1.460(4)
O3 C14 1.202(4)
C1 C2 1.485(5)
C2 C3 1.505(4)
C3 C4 1.518(4)
C3 C13 1.527(5)
C4 C5 1.495(4)
C5 C6 1.310(4)
C6 C7 1.469(4)
C7 C8 1.380(4)
C7 C12 1.382(4)
C8 C9 1.373(5)
C9 C10 1.371(5)
C10 C11 1.380(5)
C11 C12 1.383(5)
C14 C15 1.472(5)
loop_
_geom_hbond_atom_site_label_D
_geom_hbond_atom_site_label_H
_geom_hbond_atom_site_label_A
_geom_hbond_distance_DH
_geom_hbond_distance_HA
_geom_hbond_distance_DA
_geom_hbond_angle_DHA
_geom_hbond_site_symmetry_A
C15 H15B O3 0.96 2.47 3.272(5) 141.0 1_455
C15 H15C O1 0.96 2.62 3.543(5) 162.2 2
C13 H13A O3 0.96 2.57 3.414(5) 146.8 1_545
loop_
_geom_torsion_atom_site_label_1
_geom_torsion_atom_site_label_2
_geom_torsion_atom_site_label_3
_geom_torsion_atom_site_label_4
_geom_torsion
O1 C2 C3 C4 -131.6(4)
C1 C2 C3 C4 50.4(5)
O1 C2 C3 C13 104.1(4)
C1 C2 C3 C13 -73.9(4)
C14 O2 C4 C5 87.3(3)
C14 O2 C4 C3 -150.2(2)
C2 C3 C4 O2 50.9(3)
C13 C3 C4 O2 174.5(3)
C2 C3 C4 C5 171.4(3)
C13 C3 C4 C5 -65.0(4)
O2 C4 C5 C6 -121.0(3)
C3 C4 C5 C6 121.3(3)
C4 C5 C6 C7 -177.6(3)
C5 C6 C7 C8 -171.8(3)
C5 C6 C7 C12 8.6(5)
C12 C7 C8 C9 -0.5(5)
C6 C7 C8 C9 179.9(3)
C7 C8 C9 C10 0.4(5)
C8 C9 C10 C11 -0.5(6)
C9 C10 C11 C12 0.7(6)
C8 C7 C12 C11 0.7(5)
C6 C7 C12 C11 -179.7(3)
C10 C11 C12 C7 -0.8(6)
C4 O2 C14 O3 -3.7(4)
C4 O2 C14 C15 176.6(3)
loop_
_cod_related_entry_id
_cod_related_entry_database
_cod_related_entry_code
1 ChemSpider 9689085
