#------------------------------------------------------------------------------
#$Date: 2017-10-13 14:42:48 +0300 (Fri, 13 Oct 2017) $
#$Revision: 201982 $
#$URL: file:///home/coder/svn-repositories/cod/cif/4/02/14/4021469.cif $
#------------------------------------------------------------------------------
#
# This file is available in the Crystallography Open Database (COD),
# http://www.crystallography.net/
#
# All data on this site have been placed in the public domain by the
# contributors.
#
data_4021469
loop_
_publ_author_name
'Konstantin Karaghiosoff'
'Thomas M. Klap\"otke'
'Peter Mayer'
'Holger Piotrowski'
'Kurt Polborn'
'Rodney L. Willer'
'Jan J. Weigand'
_publ_contact_author_address
;
Department Chemie
Ludwig-Maximilians Universit\"at
Butenandtstrasse 5-13 (Haus D)
D-81377 M\"unchen
Bundesrepublik Deutschland
;
_publ_contact_author_email       tmk@cup.uni-muenchen.de
_publ_contact_author_fax         +49-89-2180-77492
_publ_contact_author_name        'Thomas M. Klap\"otke '
_publ_contact_author_phone       +49-89-2180-77491
_publ_section_title
;
 N-Nitroso- and N-Nitraminotetrazoles
;
_journal_name_full               'Journal of Organic Chemistry'
_journal_page_first              1295
_journal_page_last               1305
_journal_paper_doi               10.1021/jo0513820
_journal_volume                  71
_journal_year                    2006
_chemical_formula_moiety         'C3 H5 N5'
_chemical_formula_sum            'C3 H5 N5'
_chemical_formula_weight         111.12
_chemical_name_systematic
;
5,6-Dihydro-7H-imidazolo[1,2-d]tetrazole
;
_space_group_IT_number           14
_symmetry_cell_setting           monoclinic
_symmetry_space_group_name_Hall  '-P 2yn'
_symmetry_space_group_name_H-M   'P 1 21/n 1'
_atom_sites_solution_hydrogens   geom
_atom_sites_solution_primary     direct
_atom_sites_solution_secondary   difmap
_audit_creation_date             8-March-05
_audit_creation_method           SHELXL-97
_audit_update_record             ' ?'
_cell_angle_alpha                90.00
_cell_angle_beta                 110.613(9)
_cell_angle_gamma                90.00
_cell_formula_units_Z            4
_cell_length_a                   7.4471(9)
_cell_length_b                   6.8100(6)
_cell_length_c                   10.2003(11)
_cell_measurement_reflns_used    25
_cell_measurement_temperature    295(2)
_cell_measurement_theta_max      18
_cell_measurement_theta_min      9
_cell_volume                     484.19(9)
_computing_cell_refinement       'CAD-4 Operations Manual'
_computing_data_collection       'CAD-4 Operations Manual (Nonius, 1994)'
_computing_data_reduction        'OpenMoleN (Nonius, 1997)'
_computing_molecular_graphics    ZORTEP(Zsolnai,Huttner,_1994)
_computing_publication_material  'SHELXL-97 (Sheldrick, 1997)'
_computing_structure_refinement  'SHELXL-97 (Sheldrick, 1997)'
_computing_structure_solution    'SHELXS-86 (Sheldrick, 1990)'
_diffrn_ambient_temperature      295(2)
_diffrn_measured_fraction_theta_full 1.000
_diffrn_measured_fraction_theta_max 1.000
_diffrn_measurement_device       Nonius_MACH3
_diffrn_measurement_method       \o-2\T-scan
_diffrn_radiation_monochromator  graphite
_diffrn_radiation_source         'fine-focus sealed tube'
_diffrn_radiation_type           MoK\a
_diffrn_radiation_wavelength     0.71073
_diffrn_reflns_av_R_equivalents  0.0029
_diffrn_reflns_av_sigmaI/netI    0.0086
_diffrn_reflns_limit_h_max       8
_diffrn_reflns_limit_h_min       -8
_diffrn_reflns_limit_k_max       0
_diffrn_reflns_limit_k_min       -8
_diffrn_reflns_limit_l_max       0
_diffrn_reflns_limit_l_min       -12
_diffrn_reflns_number            897
_diffrn_reflns_theta_full        24.96
_diffrn_reflns_theta_max         24.96
_diffrn_reflns_theta_min         2.95
_diffrn_standards_decay_%        2.4
_diffrn_standards_interval_time  7200
_diffrn_standards_number         3
_exptl_absorpt_coefficient_mu    0.112
_exptl_absorpt_correction_T_max  0.9997
_exptl_absorpt_correction_T_min  0.9415
_exptl_absorpt_correction_type   psi-scan
_exptl_absorpt_process_details   OpenMolEN(Nonius,_1997)
_exptl_crystal_colour            pale_yellow
_exptl_crystal_density_diffrn    1.524
_exptl_crystal_density_method    'not measured'
_exptl_crystal_description       plate
_exptl_crystal_F_000             232
_exptl_crystal_size_max          0.53
_exptl_crystal_size_mid          0.47
_exptl_crystal_size_min          0.27
_refine_diff_density_max         0.160
_refine_diff_density_min         -0.150
_refine_diff_density_rms         0.036
_refine_ls_extinction_coef       0.069(9)
_refine_ls_extinction_expression Fc^*^=kFc[1+0.001xFc^2^\l^3^/sin(2\q)]^-1/4^
_refine_ls_extinction_method     SHELXL
_refine_ls_goodness_of_fit_ref   1.097
_refine_ls_hydrogen_treatment    constr
_refine_ls_matrix_type           full
_refine_ls_number_parameters     78
_refine_ls_number_reflns         847
_refine_ls_number_restraints     0
_refine_ls_restrained_S_all      1.097
_refine_ls_R_factor_all          0.0417
_refine_ls_R_factor_gt           0.0357
_refine_ls_shift/su_max          0.000
_refine_ls_shift/su_mean         0.000
_refine_ls_structure_factor_coef Fsqd
_refine_ls_weighting_details
'calc w=1/[\s^2^(Fo^2^)+(0.0507P)^2^+0.1298P] where P=(Fo^2^+2Fc^2^)/3'
_refine_ls_weighting_scheme      calc
_refine_ls_wR_factor_gt          0.0955
_refine_ls_wR_factor_ref         0.1023
_reflns_number_gt                743
_reflns_number_total             847
_reflns_threshold_expression     >2sigma(I)
_cod_data_source_file            jo0513820rom20050704_032956.cif
_cod_original_sg_symbol_H-M      'P 21/n'
_cod_database_code               4021469
loop_
_symmetry_equiv_pos_as_xyz
'x, y, z'
'-x+1/2, y+1/2, -z+1/2'
'-x, -y, -z'
'x-1/2, -y-1/2, z-1/2'
loop_
_atom_site_label
_atom_site_type_symbol
_atom_site_fract_x
_atom_site_fract_y
_atom_site_fract_z
_atom_site_U_iso_or_equiv
_atom_site_adp_type
_atom_site_occupancy
_atom_site_symmetry_multiplicity
_atom_site_calc_flag
_atom_site_refinement_flags
N4 N 0.2993(2) 0.10524(19) 1.16879(13) 0.0477(4) Uani 1 1 d .
N3 N 0.3428(2) 0.2608(2) 1.09865(15) 0.0565(5) Uani 1 1 d .
N2 N 0.3179(2) 0.21675(19) 0.97060(15) 0.0541(4) Uani 1 1 d .
N1 N 0.26015(17) 0.02794(17) 0.95531(12) 0.0400(4) Uani 1 1 d .
N5 N 0.1705(2) -0.2162(2) 1.05987(14) 0.0511(4) Uani 1 1 d .
H5 H 0.190(3) -0.290(3) 1.135(2) 0.064(5) Uiso 1 1 d .
C1 C 0.2456(2) -0.0348(2) 1.07409(14) 0.0364(4) Uani 1 1 d .
C2 C 0.1845(2) -0.1107(2) 0.84077(15) 0.0473(4) Uani 1 1 d .
H2A H 0.2726 -0.1314 0.7911 0.057 Uiso 1 1 calc R
H2B H 0.0607 -0.0697 0.7752 0.057 Uiso 1 1 calc R
C3 C 0.1678(3) -0.2940(2) 0.92433(17) 0.0505(5) Uani 1 1 d .
H3A H 0.0492 -0.3637 0.8766 0.061 Uiso 1 1 calc R
H3B H 0.2748 -0.3824 0.9373 0.061 Uiso 1 1 calc R
loop_
_atom_site_aniso_label
_atom_site_aniso_U_11
_atom_site_aniso_U_22
_atom_site_aniso_U_33
_atom_site_aniso_U_23
_atom_site_aniso_U_13
_atom_site_aniso_U_12
N4 0.0684(9) 0.0416(7) 0.0348(7) -0.0038(5) 0.0201(6) -0.0019(6)
N3 0.0809(10) 0.0399(8) 0.0507(9) -0.0051(6) 0.0255(7) -0.0085(7)
N2 0.0783(10) 0.0388(8) 0.0508(8) 0.0036(6) 0.0298(7) -0.0061(7)
N1 0.0600(8) 0.0342(7) 0.0308(6) 0.0022(5) 0.0222(5) 0.0005(5)
N5 0.0819(10) 0.0384(8) 0.0356(7) 0.0031(6) 0.0238(7) -0.0076(6)
C1 0.0471(8) 0.0352(7) 0.0284(7) 0.0026(6) 0.0152(6) 0.0037(6)
C2 0.0645(10) 0.0478(9) 0.0309(8) -0.0037(6) 0.0183(7) 0.0035(7)
C3 0.0690(10) 0.0402(9) 0.0410(9) -0.0076(7) 0.0178(7) -0.0027(7)
loop_
_atom_type_symbol
_atom_type_description
_atom_type_scat_dispersion_real
_atom_type_scat_dispersion_imag
_atom_type_scat_source
C C 0.0033 0.0016 'International Tables Vol C Tables 4.2.6.8 and 6.1.1.4'
H H 0.0000 0.0000 'International Tables Vol C Tables 4.2.6.8 and 6.1.1.4'
N N 0.0061 0.0033 'International Tables Vol C Tables 4.2.6.8 and 6.1.1.4'
loop_
_geom_angle_atom_site_label_1
_geom_angle_atom_site_label_2
_geom_angle_atom_site_label_3
_geom_angle
C1 N4 N3 104.00(12)
N2 N3 N4 111.78(12)
N3 N2 N1 105.39(12)
C1 N1 N2 109.12(12)
C1 N1 C2 113.11(13)
N2 N1 C2 136.97(12)
C1 N5 C3 107.43(12)
C1 N5 H5 119.8(12)
C3 N5 H5 123.4(12)
N4 C1 N1 109.66(13)
N4 C1 N5 138.90(13)
N1 C1 N5 111.28(13)
N1 C2 C3 99.52(11)
N1 C2 H2A 111.9
C3 C2 H2A 111.9
N1 C2 H2B 111.9
C3 C2 H2B 111.9
H2A C2 H2B 109.6
N5 C3 C2 104.53(12)
N5 C3 H3A 110.8
C2 C3 H3A 110.8
N5 C3 H3B 110.8
C2 C3 H3B 110.8
H3A C3 H3B 108.9
loop_
_geom_bond_atom_site_label_1
_geom_bond_atom_site_label_2
_geom_bond_distance
N4 C1 1.3155(18)
N4 N3 1.3791(18)
N3 N2 1.288(2)
N2 N1 1.3475(18)
N1 C1 1.3245(18)
N1 C2 1.4529(18)
N5 C1 1.343(2)
N5 C3 1.474(2)
N5 H5 0.88(2)
C2 C3 1.540(2)
C2 H2A 0.9700
C2 H2B 0.9700
C3 H3A 0.9700
C3 H3B 0.9700
loop_
_geom_torsion_atom_site_label_1
_geom_torsion_atom_site_label_2
_geom_torsion_atom_site_label_3
_geom_torsion_atom_site_label_4
_geom_torsion
C1 N4 N3 N2 -0.34(19)
N4 N3 N2 N1 -1.04(19)
N3 N2 N1 C1 2.06(18)
N3 N2 N1 C2 170.62(17)
N3 N4 C1 N1 1.64(17)
N3 N4 C1 N5 -173.16(18)
N2 N1 C1 N4 -2.37(18)
C2 N1 C1 N4 -173.91(11)
N2 N1 C1 N5 173.97(12)
C2 N1 C1 N5 2.43(19)
C3 N5 C1 N4 -174.11(18)
C3 N5 C1 N1 11.14(18)
C1 N1 C2 C3 -13.83(17)
N2 N1 C2 C3 177.92(16)
C1 N5 C3 C2 -19.20(18)
N1 C2 C3 N5 18.99(16)
loop_
_cod_related_entry_id
_cod_related_entry_database
_cod_related_entry_code
1 ChemSpider 4511973
