#------------------------------------------------------------------------------
#$Date: 2018-06-07 07:44:05 +0300 (Thu, 07 Jun 2018) $
#$Revision: 208160 $
#$URL: file:///home/coder/svn-repositories/cod/cif/4/02/14/4021488.cif $
#------------------------------------------------------------------------------
#
# This file is available in the Crystallography Open Database (COD),
# http://www.crystallography.net/
#
# All data on this site have been placed in the public domain by the
# contributors.
#
data_4021488
loop_
_publ_author_name
'Fraser F. Fleming'
'Zhiyu Zhang'
'Guoqing Wei'
'Omar W. Steward'
_publ_contact_author_address
;
 Department of Chemistry and Biochemistry
 Duquesne University
 Pittsburgh, PA 15282 USA
;
_publ_contact_author_email       ' steward@duq.edu '
_publ_contact_author_fax         ' (412) 396 5683 '
_publ_contact_author_name        'Omar W. Steward'
_publ_contact_author_phone       ' (412) 396 6338 '
_publ_section_title
;
 C-Metalated Nitriles: Electrophile-Dependent Alkylations and Acylations
;
_journal_name_full               'Journal of Organic Chemistry'
_journal_page_first              1430
_journal_page_last               1435
_journal_paper_doi               10.1021/jo052102j
_journal_volume                  71
_journal_year                    2006
_chemical_formula_moiety         'C13 H19 N O5 '
_chemical_formula_sum            'C13 H19 N O5'
_chemical_formula_weight         269.30
_space_group_crystal_system      triclinic
_space_group_IT_number           2
_space_group_name_Hall           '-P 1'
_space_group_name_H-M_alt        'P -1'
_audit_creation_date             'Thurs. Apr. 29, 2004'
_audit_creation_method           'by teXsan v1.8'
_audit_update_record             '6/15/04 update Omar W. Steward'
_cell_angle_alpha                93.83(4)
_cell_angle_beta                 96.96(3)
_cell_angle_gamma                105.74(2)
_cell_formula_units_Z            2
_cell_length_a                   7.647(2)
_cell_length_b                   12.894(5)
_cell_length_c                   7.616(4)
_cell_measurement_reflns_used    10
_cell_measurement_temperature    29
_cell_measurement_theta_max      17.3
_cell_measurement_theta_min      15.0
_cell_volume                     713.6(5)
_computing_cell_refinement       'MSC/AFC Diffractometer Control'
_computing_data_collection       'MSC/AFC Diffractometer Control'
_computing_data_reduction        'teXsan (MSC, 1992-1997)'
_computing_publication_material  'teXsan (MSC, 1992-1997)'
_computing_structure_refinement  'teXsan (MSC, 1992-1997)'
_diffrn_ambient_temperature      294.2
_diffrn_measurement_device_type  'Rigaku AFC7R'
_diffrn_measurement_method       ' \w-2\q'
_diffrn_orient_matrix_UB_11      0.11691
_diffrn_orient_matrix_UB_12      0.04160
_diffrn_orient_matrix_UB_13      0.07674
_diffrn_orient_matrix_UB_21      0.06159
_diffrn_orient_matrix_UB_22      -0.05433
_diffrn_orient_matrix_UB_23      -0.04192
_diffrn_orient_matrix_UB_31      0.03734
_diffrn_orient_matrix_UB_32      0.04338
_diffrn_orient_matrix_UB_33      -0.10021
_diffrn_radiation_detector       'scintillation counter'
_diffrn_radiation_monochromator  ' graphite'
_diffrn_radiation_source         'Rigaku rotating anode'
_diffrn_radiation_type           'Mo K\a'
_diffrn_radiation_wavelength     0.7107
_diffrn_reflns_av_R_equivalents  0.04289
_diffrn_reflns_av_sigmaI/netI    0.150
_diffrn_reflns_limit_h_max       9
_diffrn_reflns_limit_h_min       -9
_diffrn_reflns_limit_k_max       16
_diffrn_reflns_limit_k_min       -16
_diffrn_reflns_limit_l_max       0
_diffrn_reflns_limit_l_min       -9
_diffrn_reflns_number            3501
_diffrn_reflns_reduction_process 'Lp corrections applied'
_diffrn_reflns_theta_max         27.50
_diffrn_reflns_theta_min         2.71
_diffrn_standards_decay_%        -0.59
_diffrn_standards_interval_count 150
_diffrn_standards_number         3
_exptl_absorpt_coefficient_mu    0.096
_exptl_absorpt_correction_T_max  1.000
_exptl_absorpt_correction_T_min  0.977
_exptl_absorpt_correction_type
;
\y scans (North,Phillips & Matthews, 1968)
;
_exptl_crystal_colour            colorless
_exptl_crystal_density_diffrn    1.253
_exptl_crystal_density_meas      ?
_exptl_crystal_description       plate
_exptl_crystal_F_000             288.00
_exptl_crystal_size_max          0.40
_exptl_crystal_size_mid          0.30
_exptl_crystal_size_min          0.10
_refine_diff_density_max         0.26
_refine_diff_density_min         -0.21
_refine_ls_extinction_method     none
_refine_ls_goodness_of_fit_ref   1.353
_refine_ls_hydrogen_treatment    noref
_refine_ls_matrix_type           full
_refine_ls_number_constraints    0
_refine_ls_number_parameters     172
_refine_ls_number_reflns         1178
_refine_ls_number_restraints     0
_refine_ls_R_factor_gt           0.0571
_refine_ls_shift/su_max          0.0010
_refine_ls_shift/su_mean         0.0000
_refine_ls_structure_factor_coef F
_refine_ls_weighting_details     'w = 1/[\s^2^(Fo) + 0.00063|Fo|^2^]'
_refine_ls_weighting_scheme      sigma
_refine_ls_wR_factor_ref         0.0615
_reflns_number_gt                1178
_reflns_number_total             3257
_reflns_threshold_expression     '  I>3.00\s(I)'
_cod_data_source_file            jo052102jsi20051214_105650_12.cif
_cod_depositor_comments
;
 Updating space group information.

 Antanas Vaitkus,
 2018-06-07
;
_cod_original_formula_sum        'C13 H19 N O5 '
_cod_database_code               4021488
loop_
_space_group_symop_id
_space_group_symop_operation_xyz
1 x,y,z
2 -x,-y,-z
loop_
_atom_site_label
_atom_site_fract_x
_atom_site_fract_y
_atom_site_fract_z
_atom_site_U_iso_or_equiv
_atom_site_occupancy
_atom_site_adp_type
_atom_site_calc_flag
O(1) 0.7554(6) 0.5090(3) 0.0740(5) 0.087(2) 1.000 Uani d
O(2) 0.6561(5) 0.4933(3) 0.3342(4) 0.066(1) 1.000 Uani d
O(3) 0.7428(4) 0.1287(2) 0.2287(4) 0.050(1) 1.000 Uani d
O(4) 0.6980(5) 0.0111(3) 0.4129(5) 0.069(1) 1.000 Uani d
O(5) 0.8653(6) -0.0118(3) 0.2001(5) 0.084(1) 1.000 Uani d
N(1) 0.7291(7) 0.3007(3) 0.5464(6) 0.074(2) 1.000 Uani d
C(1) 0.8052(6) 0.3638(3) 0.2384(6) 0.045(2) 1.000 Uani d
C(2) 0.7201(6) 0.2774(4) 0.0782(6) 0.047(2) 1.000 Uani d
C(3) 0.8066(6) 0.1828(3) 0.0737(6) 0.044(1) 1.000 Uani d
C(4) 1.0150(7) 0.2229(4) 0.0998(7) 0.058(2) 1.000 Uani d
C(5) 1.0953(6) 0.3043(4) 0.2625(8) 0.065(2) 1.000 Uani d
C(6) 1.0178(7) 0.3994(4) 0.2545(7) 0.057(2) 1.000 Uani d
C(7) 0.7561(6) 0.3256(4) 0.4101(7) 0.048(2) 1.000 Uani d
C(8) 0.7381(7) 0.4634(4) 0.2049(7) 0.051(2) 1.000 Uani d
C(9) 0.5114(7) 0.2415(4) 0.0622(7) 0.063(2) 1.000 Uani d
C(10) 0.7356(8) 0.1071(4) -0.0952(7) 0.071(2) 1.000 Uani d
C(11) 0.5863(9) 0.5867(5) 0.3104(8) 0.093(2) 1.000 Uani d
C(12) 0.7809(7) 0.0377(4) 0.2722(7) 0.053(2) 1.000 Uani d
C(13) 0.7123(9) -0.0876(4) 0.4827(8) 0.088(2) 1.000 Uani d
H(1) 0.7475 0.3146 -0.0278 0.061 1.000 Uiso c
H(2) 1.0627 0.1617 0.1061 0.071 1.000 Uiso c
H(3) 1.0526 0.2577 -0.0034 0.071 1.000 Uiso c
H(4) 1.0629 0.2677 0.3674 0.082 1.000 Uiso c
H(5) 1.2265 0.3256 0.2741 0.082 1.000 Uiso c
H(6) 1.0548 0.4382 0.1535 0.073 1.000 Uiso c
H(7) 1.0686 0.4516 0.3590 0.073 1.000 Uiso c
H(8) 0.4606 0.3015 0.0576 0.080 1.000 Uiso c
H(9) 0.4578 0.1926 -0.0441 0.080 1.000 Uiso c
H(10) 0.4746 0.2041 0.1618 0.080 1.000 Uiso c
H(11) 0.6027 0.0839 -0.1129 0.087 1.000 Uiso c
H(12) 0.7749 0.1400 -0.1963 0.087 1.000 Uiso c
H(13) 0.7760 0.0427 -0.0872 0.087 1.000 Uiso c
H(14) 0.6823 0.6486 0.2958 0.114 1.000 Uiso c
H(15) 0.4965 0.5716 0.2022 0.114 1.000 Uiso c
H(16) 0.5269 0.6018 0.4064 0.114 1.000 Uiso c
H(17) 0.6490 -0.1004 0.5860 0.110 1.000 Uiso c
H(18) 0.6599 -0.1494 0.3973 0.110 1.000 Uiso c
H(19) 0.8382 -0.0853 0.5213 0.110 1.000 Uiso c
loop_
_atom_site_aniso_label
_atom_site_aniso_U_11
_atom_site_aniso_U_22
_atom_site_aniso_U_33
_atom_site_aniso_U_12
_atom_site_aniso_U_13
_atom_site_aniso_U_23
O(1) 0.141(4) 0.077(3) 0.078(3) 0.061(3) 0.063(3) 0.045(2)
O(2) 0.099(3) 0.067(2) 0.054(2) 0.051(2) 0.031(2) 0.021(2)
O(3) 0.062(2) 0.042(2) 0.051(2) 0.020(2) 0.016(2) 0.012(2)
O(4) 0.093(3) 0.053(2) 0.067(2) 0.024(2) 0.020(2) 0.023(2)
O(5) 0.114(3) 0.072(3) 0.092(3) 0.061(3) 0.038(3) 0.017(2)
N(1) 0.121(4) 0.064(3) 0.060(3) 0.048(3) 0.042(3) 0.023(2)
C(1) 0.057(3) 0.041(3) 0.045(3) 0.018(2) 0.023(3) 0.014(2)
C(2) 0.052(3) 0.045(3) 0.047(3) 0.015(2) 0.015(3) 0.012(2)
C(3) 0.054(3) 0.044(3) 0.038(3) 0.013(2) 0.014(2) 0.007(2)
C(4) 0.054(3) 0.062(3) 0.065(4) 0.022(3) 0.024(3) 0.001(3)
C(5) 0.039(3) 0.068(4) 0.086(4) 0.012(3) 0.014(3) 0.000(3)
C(6) 0.051(4) 0.052(3) 0.063(3) 0.004(3) 0.018(3) 0.000(3)
C(7) 0.058(3) 0.043(3) 0.055(3) 0.024(3) 0.022(3) 0.011(3)
C(8) 0.065(4) 0.045(3) 0.048(3) 0.017(3) 0.020(3) 0.011(3)
C(9) 0.048(3) 0.070(4) 0.074(4) 0.020(3) 0.004(3) 0.015(3)
C(10) 0.095(4) 0.068(4) 0.052(3) 0.028(3) 0.014(3) -0.004(3)
C(11) 0.156(6) 0.084(4) 0.076(4) 0.087(4) 0.028(4) 0.021(3)
C(12) 0.055(3) 0.048(3) 0.051(3) 0.013(3) -0.001(3) 0.001(3)
C(13) 0.123(5) 0.057(4) 0.087(5) 0.025(4) 0.006(4) 0.034(3)
loop_
_atom_type_symbol
_atom_type_oxidation_number
_atom_type_number_in_cell
_atom_type_scat_dispersion_real
_atom_type_scat_dispersion_imag
_atom_type_scat_source
C 0 26 0.003 0.002
;International Tables for Crystallography
(1992, Vol. C, Tables 4.2.6.8 and 6.1.1.1)
;
H 0 38 0.000 0.000
;International Tables for Crystallography
(1992, Vol. C, Table 6.1.1.2)
;
N 0 2 0.006 0.003
;International Tables for Crystallography
(1992, Vol. C, Tables 4.2.6.8 and 6.1.1.1)
;
O 0 10 0.011 0.006
;International Tables for Crystallography
(1992, Vol. C, Tables 4.2.6.8 and 6.1.1.1)
;
loop_
_geom_angle_atom_site_label_1
_geom_angle_atom_site_label_2
_geom_angle_atom_site_label_3
_geom_angle
_geom_angle_publ_flag
C(8) O(2) C(11) 116.5(4) yes
C(3) O(3) C(12) 122.3(4) yes
C(12) O(4) C(13) 116.7(4) yes
C(2) C(1) C(6) 110.8(4) yes
C(2) C(1) C(7) 113.1(4) yes
C(2) C(1) C(8) 107.8(4) yes
C(6) C(1) C(7) 107.8(4) yes
C(6) C(1) C(8) 107.7(4) yes
C(7) C(1) C(8) 109.6(4) yes
C(1) C(2) C(3) 113.5(4) yes
C(1) C(2) C(9) 111.1(4) yes
C(1) C(2) H(1) 105.7 no
C(3) C(2) C(9) 113.7(4) yes
C(3) C(2) H(1) 106.7 no
C(9) C(2) H(1) 105.5 no
O(3) C(3) C(2) 101.4(3) yes
O(3) C(3) C(4) 110.4(4) yes
O(3) C(3) C(10) 110.6(4) yes
C(2) C(3) C(4) 111.6(4) yes
C(2) C(3) C(10) 111.9(4) yes
C(4) C(3) C(10) 110.7(4) yes
C(3) C(4) C(5) 113.4(4) yes
C(3) C(4) H(2) 108.6 no
C(3) C(4) H(3) 108.5 no
C(5) C(4) H(2) 110.6 no
C(5) C(4) H(3) 107.9 no
H(2) C(4) H(3) 107.6 no
C(4) C(5) C(6) 110.7(5) yes
C(4) C(5) H(4) 107.8 no
C(4) C(5) H(5) 110.0 no
C(6) C(5) H(4) 109.3 no
C(6) C(5) H(5) 112.3 no
H(4) C(5) H(5) 106.6 no
C(1) C(6) C(5) 111.7(4) yes
C(1) C(6) H(6) 109.6 no
C(1) C(6) H(7) 109.4 no
C(5) C(6) H(6) 109.6 no
C(5) C(6) H(7) 110.9 no
H(6) C(6) H(7) 105.5 no
N(1) C(7) C(1) 175.6(6) yes
O(1) C(8) O(2) 123.0(4) yes
O(1) C(8) C(1) 123.7(4) yes
O(2) C(8) C(1) 113.4(4) yes
C(2) C(9) H(8) 112.0 no
C(2) C(9) H(9) 111.0 no
C(2) C(9) H(10) 110.0 no
H(8) C(9) H(9) 107.7 no
H(8) C(9) H(10) 108.4 no
H(9) C(9) H(10) 107.7 no
C(3) C(10) H(11) 110.2 no
C(3) C(10) H(12) 112.1 no
C(3) C(10) H(13) 110.5 no
H(11) C(10) H(12) 108.3 no
H(11) C(10) H(13) 106.9 no
H(12) C(10) H(13) 108.7 no
O(2) C(11) H(14) 110.9 no
O(2) C(11) H(15) 109.4 no
O(2) C(11) H(16) 111.5 no
H(14) C(11) H(15) 107.1 no
H(14) C(11) H(16) 110.1 no
H(15) C(11) H(16) 107.7 no
O(3) C(12) O(4) 105.6(4) yes
O(3) C(12) O(5) 128.3(5) yes
O(4) C(12) O(5) 126.1(5) yes
O(4) C(13) H(17) 111.2 no
O(4) C(13) H(18) 112.1 no
O(4) C(13) H(19) 111.7 no
H(17) C(13) H(18) 107.1 no
H(17) C(13) H(19) 106.5 no
H(18) C(13) H(19) 107.9 no
loop_
_geom_bond_atom_site_label_1
_geom_bond_atom_site_label_2
_geom_bond_distance
_geom_bond_publ_flag
O(1) C(8) 1.194(5) yes
O(2) C(8) 1.320(5) yes
O(2) C(11) 1.456(5) yes
O(3) C(3) 1.478(5) yes
O(3) C(12) 1.336(5) yes
O(4) C(12) 1.327(6) yes
O(4) C(13) 1.438(6) yes
O(5) C(12) 1.177(5) yes
N(1) C(7) 1.133(5) yes
C(1) C(2) 1.544(6) yes
C(1) C(6) 1.551(6) yes
C(1) C(7) 1.482(6) yes
C(1) C(8) 1.533(6) yes
C(2) C(3) 1.538(6) yes
C(2) C(9) 1.523(6) yes
C(2) H(1) 0.98 no
C(3) C(4) 1.519(7) yes
C(3) C(10) 1.510(6) yes
C(4) C(5) 1.519(7) yes
C(4) H(2) 0.96 no
C(4) H(3) 0.97 no
C(5) C(6) 1.502(7) yes
C(5) H(4) 0.98 no
C(5) H(5) 0.96 no
C(6) H(6) 0.97 no
C(6) H(7) 0.97 no
C(9) H(8) 0.96 no
C(9) H(9) 0.97 no
C(9) H(10) 0.96 no
C(10) H(11) 0.97 no
C(10) H(12) 0.95 no
C(10) H(13) 0.96 no
C(11) H(14) 0.95 no
C(11) H(15) 0.98 no
C(11) H(16) 0.94 no
C(13) H(17) 0.97 no
C(13) H(18) 0.96 no
C(13) H(19) 0.96 no
loop_
_geom_contact_atom_site_label_1
_geom_contact_atom_site_label_2
_geom_contact_distance
_geom_contact_site_symmetry_2
_geom_contact_publ_flag
O(1) C(6) 3.316(6) 2_765 no
O(1) C(11) 3.583(8) 2_665 no
O(2) C(11) 3.518(7) 2_666 no
O(4) O(4) 3.401(7) 2_656 no
N(1) C(11) 3.383(7) 2_666 no
loop_
_geom_torsion_atom_site_label_1
_geom_torsion_atom_site_label_2
_geom_torsion_atom_site_label_3
_geom_torsion_atom_site_label_4
_geom_torsion
_geom_torsion_publ_flag
O(1) C(8) O(2) C(11) -0.2(8) no
O(1) C(8) C(1) C(2) -54.5(6) no
O(1) C(8) C(1) C(6) 65.1(6) no
O(1) C(8) C(1) C(7) -178.0(5) no
O(2) C(8) C(1) C(2) 124.4(4) no
O(2) C(8) C(1) C(6) -116.0(4) no
O(2) C(8) C(1) C(7) 0.9(6) no
O(3) C(3) C(2) C(1) 68.7(4) no
O(3) C(3) C(2) C(9) -59.5(5) no
O(3) C(3) C(4) C(5) -60.3(5) no
O(3) C(12) O(4) C(13) 177.7(4) no
O(4) C(12) O(3) C(3) -178.1(4) no
O(5) C(12) O(3) C(3) -0.2(8) no
O(5) C(12) O(4) C(13) -0.3(8) no
N(1) C(7) C(1) C(2) 149(6) no
N(1) C(7) C(1) C(6) 26(6) no
N(1) C(7) C(1) C(8) -91(6) no
C(1) C(2) C(3) C(4) -48.8(5) no
C(1) C(2) C(3) C(10) -173.4(4) no
C(1) C(6) C(5) C(4) 57.5(5) no
C(1) C(8) O(2) C(11) -179.1(5) no
C(2) C(1) C(6) C(5) -54.5(5) no
C(2) C(3) O(3) C(12) 177.4(4) no
C(2) C(3) C(4) C(5) 51.7(5) no
C(3) C(2) C(1) C(6) 50.1(5) no
C(3) C(2) C(1) C(7) -71.0(5) no
C(3) C(2) C(1) C(8) 167.7(4) no
C(3) C(4) C(5) C(6) -56.6(5) no
C(4) C(3) O(3) C(12) -64.2(5) no
C(4) C(3) C(2) C(9) -177.0(4) no
C(5) C(4) C(3) C(10) 177.0(4) no
C(5) C(6) C(1) C(7) 69.7(5) no
C(5) C(6) C(1) C(8) -172.2(4) no
C(6) C(1) C(2) C(9) 179.7(4) no
C(7) C(1) C(2) C(9) 58.5(5) no
C(8) C(1) C(2) C(9) -62.8(4) no
C(9) C(2) C(3) C(10) 58.4(5) no
C(10) C(3) O(3) C(12) 58.6(6) no
