#------------------------------------------------------------------------------
#$Date: 2016-03-21 02:28:57 +0200 (Mon, 21 Mar 2016) $
#$Revision: 178392 $
#$URL: svn://www.crystallography.net/cod/cif/4/02/14/4021456.cif $
#------------------------------------------------------------------------------
#
# This file is available in the Crystallography Open Database (COD),
# http://www.crystallography.net/
#
# All data on this site have been placed in the public domain by the
# contributors.
#
data_4021456
loop_
_publ_author_name
'Natalia P\'erez-Hern\'andez'
'Mart\'in Febles'
'Cirilo P\'erez'
'Mat\'ias L. Rodr\'iguez'
'Concepci\'on Foces-Foces'
'Julio D. Mart\'in'
_publ_section_title
;
 Synthesis and Structure of Hydroxyl Acids of General Structure
 7,7-Alkenyl/alkynyl-5-hydroxymethyl-6-oxabicyclo[3.2.1]octane-
 1-carboxylic Acid
;
_journal_name_full               'Journal of Organic Chemistry'
_journal_page_first              1139
_journal_page_last               1151
_journal_paper_doi               10.1021/jo052237p
_journal_volume                  71
_journal_year                    2006
_chemical_formula_moiety         'C13 H14 O4'
_chemical_formula_sum            'C13 H14 O4'
_chemical_formula_weight         234.24
_chemical_name_systematic
;
 (1R*, 5R*)-7,7-diethylnyl-5-hydroxymethyl-6-
oxabicyclo[3.2.1]octane-1-carboxylic acid

;
_space_group_IT_number           2
_symmetry_cell_setting           triclinic
_symmetry_space_group_name_Hall  '-P 1'
_symmetry_space_group_name_H-M   'P -1'
_atom_sites_solution_hydrogens   geom
_atom_sites_solution_primary     direct
_atom_sites_solution_secondary   difmap
_audit_creation_method           SHELXL-97
_cell_angle_alpha                88.642(7)
_cell_angle_beta                 100.505(10)
_cell_angle_gamma                105.620(12)
_cell_formula_units_Z            2
_cell_length_a                   7.2000(11)
_cell_length_b                   8.0090(16)
_cell_length_c                   11.1220(19)
_cell_measurement_reflns_used    2545
_cell_measurement_temperature    170(2)
_cell_measurement_theta_max      27.5
_cell_measurement_theta_min      1.86
_cell_volume                     607.09(18)
_computing_cell_refinement
'HKL Denzo and Scalepack (Otwinowski & Minor 1997)'
_computing_data_collection       'Collect (Nonius BV, 2000)'
_computing_data_reduction
'HKL Denzo and Scalepak (Otwinowski & Minor, 1997)'
_computing_molecular_graphics    'PLATON (Spek, 2003)'
_computing_publication_material
'SHELXL-97, WinGX (Farrugia, 1999) and PLATON'
_computing_structure_refinement  'SHELXL-97 (Sheldrick, 1997)'
_computing_structure_solution    'SIR97 (Altomare et al., 1999)'
_diffrn_ambient_temperature      170(2)
_diffrn_detector_area_resol_mean 9
_diffrn_measured_fraction_theta_full 0.990
_diffrn_measured_fraction_theta_max 0.990
_diffrn_measurement_device       '95mm CCD camera on \k-goniostat'
_diffrn_measurement_device_type  KappaCCD
_diffrn_measurement_method       '\f and \w'
_diffrn_radiation_monochromator  'horizontally mounted graphite crystal'
_diffrn_radiation_source         'fine-focus sealed tube'
_diffrn_radiation_type           MoK\a
_diffrn_radiation_wavelength     0.71073
_diffrn_reflns_av_R_equivalents  0.0000
_diffrn_reflns_av_sigmaI/netI    0.0211
_diffrn_reflns_limit_h_max       0
_diffrn_reflns_limit_h_min       -9
_diffrn_reflns_limit_k_max       10
_diffrn_reflns_limit_k_min       -9
_diffrn_reflns_limit_l_max       14
_diffrn_reflns_limit_l_min       -14
_diffrn_reflns_number            2759
_diffrn_reflns_theta_full        27.50
_diffrn_reflns_theta_max         27.50
_diffrn_reflns_theta_min         1.86
_exptl_absorpt_coefficient_mu    0.095
_exptl_absorpt_correction_T_max  0.9906
_exptl_absorpt_correction_T_min  0.9630
_exptl_absorpt_correction_type   none
_exptl_crystal_colour            colourless
_exptl_crystal_density_diffrn    1.281
_exptl_crystal_density_method    'not measured'
_exptl_crystal_description       rhombohedral-plate
_exptl_crystal_F_000             248
_exptl_crystal_size_max          0.40
_exptl_crystal_size_mid          0.40
_exptl_crystal_size_min          0.10
_refine_diff_density_max         0.358
_refine_diff_density_min         -0.300
_refine_diff_density_rms         0.108
_refine_ls_extinction_coef       0.30(3)
_refine_ls_extinction_expression Fc^*^=kFc[1+0.001xFc^2^\l^3^/sin(2\q)]^-1/4^
_refine_ls_extinction_method     SHELXL
_refine_ls_goodness_of_fit_ref   1.025
_refine_ls_hydrogen_treatment    riding
_refine_ls_matrix_type           full
_refine_ls_number_parameters     157
_refine_ls_number_reflns         2759
_refine_ls_number_restraints     0
_refine_ls_restrained_S_all      1.025
_refine_ls_R_factor_all          0.0515
_refine_ls_R_factor_gt           0.0485
_refine_ls_shift/su_max          0.001
_refine_ls_shift/su_mean         0.000
_refine_ls_structure_factor_coef Fsqd
_refine_ls_weighting_details
'calc w=1/[\s^2^(Fo^2^)+(0.0823P)^2^+0.3143P] where P=(Fo^2^+2Fc^2^)/3'
_refine_ls_weighting_scheme      calc
_refine_ls_wR_factor_gt          0.1290
_refine_ls_wR_factor_ref         0.1378
_reflns_number_gt                2612
_reflns_number_total             2759
_reflns_threshold_expression     >2sigma(I)
_cod_data_source_file            jo052237psi20051102_104042_1.cif
_cod_depositor_comments
;
The following automatic conversions were performed:
'_symmetry_cell_setting' value 'Triclinic' changed to 'triclinic'
according to '/home/saulius/struct/CIF-dictionaries/cif_core.dic'
dictionary named 'cif_core.dic' version 2.4.1 from 2010-06-29.

Automatic conversion script
Id: cif_fix_enum 1527 2010-12-29 10:47:43Z saulius 
;
_cod_database_code               4021456
loop_
_symmetry_equiv_pos_as_xyz
'x, y, z'
'-x, -y, -z'
loop_
_atom_site_label
_atom_site_type_symbol
_atom_site_fract_x
_atom_site_fract_y
_atom_site_fract_z
_atom_site_U_iso_or_equiv
_atom_site_adp_type
_atom_site_occupancy
_atom_site_symmetry_multiplicity
_atom_site_calc_flag
_atom_site_refinement_flags
O1 O 0.31964(14) 0.37276(12) 0.35294(8) 0.0178(3) Uani 1 1 d .
O2 O 0.67203(16) 0.66379(15) 0.39117(10) 0.0288(3) Uani 1 1 d .
H2 H 0.6784 0.6405 0.4656 0.035 Uiso 1 1 calc R
O3 O 0.52877(16) 0.20808(13) 0.02657(10) 0.0258(3) Uani 1 1 d .
O4 O 0.31935(17) -0.01662(13) 0.09495(10) 0.0282(3) Uani 1 1 d .
H4 H 0.3726 -0.0737 0.0562 0.042 Uiso 1 1 calc R
C1 C 0.3533(2) 0.51697(16) 0.26830(12) 0.0181(3) Uani 1 1 d .
C2 C 0.1537(2) 0.54170(18) 0.20928(14) 0.0248(3) Uani 1 1 d .
H2A H 0.1705 0.6265 0.1432 0.030 Uiso 1 1 calc R
H2B H 0.0967 0.5884 0.2712 0.030 Uiso 1 1 calc R
C3 C 0.0140(2) 0.3689(2) 0.15638(14) 0.0256(3) Uani 1 1 d .
H3A H -0.0978 0.3924 0.0989 0.031 Uiso 1 1 calc R
H3B H -0.0390 0.3004 0.2238 0.031 Uiso 1 1 calc R
C4 C 0.1115(2) 0.26060(18) 0.08915(13) 0.0219(3) Uani 1 1 d .
H4A H 0.1185 0.3055 0.0059 0.026 Uiso 1 1 calc R
H4B H 0.0295 0.1390 0.0807 0.026 Uiso 1 1 calc R
C5 C 0.32045(18) 0.26449(16) 0.15657(11) 0.0153(3) Uani 1 1 d .
C6 C 0.4470(2) 0.45176(16) 0.17373(12) 0.0175(3) Uani 1 1 d .
H6A H 0.5865 0.4582 0.2053 0.021 Uiso 1 1 calc R
H6B H 0.4358 0.5162 0.0969 0.021 Uiso 1 1 calc R
C7 C 0.40202(19) 0.14936(16) 0.08735(11) 0.0169(3) Uani 1 1 d .
C8 C 0.4811(2) 0.67781(18) 0.34119(13) 0.0259(3) Uani 1 1 d .
H8A H 0.4922 0.7789 0.2874 0.031 Uiso 1 1 calc R
H8B H 0.4168 0.6992 0.4086 0.031 Uiso 1 1 calc R
C9 C 0.32505(18) 0.21478(16) 0.29412(11) 0.0159(3) Uani 1 1 d .
C10 C 0.1586(2) 0.07119(17) 0.31627(12) 0.0205(3) Uani 1 1 d .
C11 C 0.0280(2) -0.04779(19) 0.33319(14) 0.0270(3) Uani 1 1 d .
H11 H -0.0768 -0.1433 0.3468 0.032 Uiso 1 1 calc R
C12 C 0.5115(2) 0.17358(17) 0.34644(12) 0.0200(3) Uani 1 1 d .
C13 C 0.6609(2) 0.1425(2) 0.38762(15) 0.0318(4) Uani 1 1 d .
H13 H 0.7813 0.1174 0.4208 0.038 Uiso 1 1 calc R
loop_
_atom_site_aniso_label
_atom_site_aniso_U_11
_atom_site_aniso_U_22
_atom_site_aniso_U_33
_atom_site_aniso_U_23
_atom_site_aniso_U_13
_atom_site_aniso_U_12
O1 0.0260(5) 0.0152(5) 0.0151(5) 0.0015(3) 0.0083(4) 0.0077(4)
O2 0.0313(6) 0.0296(6) 0.0188(5) -0.0009(4) 0.0063(4) -0.0046(4)
O3 0.0345(6) 0.0182(5) 0.0294(6) 0.0004(4) 0.0189(4) 0.0063(4)
O4 0.0374(6) 0.0149(5) 0.0366(6) -0.0030(4) 0.0223(5) 0.0035(4)
C1 0.0252(7) 0.0143(6) 0.0160(6) 0.0020(5) 0.0066(5) 0.0058(5)
C2 0.0315(7) 0.0214(7) 0.0261(7) 0.0027(5) 0.0062(6) 0.0146(6)
C3 0.0214(7) 0.0271(7) 0.0302(8) 0.0013(6) 0.0022(5) 0.0118(6)
C4 0.0216(6) 0.0223(7) 0.0209(6) -0.0007(5) -0.0014(5) 0.0079(5)
C5 0.0186(6) 0.0141(6) 0.0143(6) 0.0006(4) 0.0047(4) 0.0050(5)
C6 0.0238(6) 0.0141(6) 0.0153(6) 0.0013(4) 0.0072(5) 0.0038(5)
C7 0.0208(6) 0.0153(6) 0.0143(6) -0.0004(4) 0.0031(5) 0.0047(5)
C8 0.0377(8) 0.0172(7) 0.0221(7) -0.0024(5) 0.0069(6) 0.0051(6)
C9 0.0198(6) 0.0144(6) 0.0156(6) 0.0016(4) 0.0064(5) 0.0062(5)
C10 0.0234(7) 0.0195(7) 0.0215(7) 0.0033(5) 0.0082(5) 0.0083(5)
C11 0.0273(7) 0.0220(7) 0.0334(8) 0.0055(6) 0.0131(6) 0.0051(6)
C12 0.0262(7) 0.0190(6) 0.0170(6) 0.0023(5) 0.0068(5) 0.0081(5)
C13 0.0319(8) 0.0395(9) 0.0292(8) 0.0010(6) 0.0026(6) 0.0201(7)
loop_
_atom_type_symbol
_atom_type_description
_atom_type_scat_dispersion_real
_atom_type_scat_dispersion_imag
_atom_type_scat_source
C C 0.0033 0.0000 'International Tables Vol C Tables 4.2.6.8 and 6.1.1.4'
H H 0.0000 0.0000 'International Tables Vol C Tables 4.2.6.8 and 6.1.1.4'
O O 0.0106 0.0000 'International Tables Vol C Tables 4.2.6.8 and 6.1.1.4'
loop_
_geom_angle_atom_site_label_1
_geom_angle_atom_site_label_2
_geom_angle_atom_site_label_3
_geom_angle
C9 O1 C1 109.73(9)
C8 O2 H2 109.5
C7 O4 H4 109.5
O1 C1 C8 108.11(11)
O1 C1 C6 103.46(10)
C8 C1 C6 115.03(12)
O1 C1 C2 107.93(11)
C8 C1 C2 111.32(11)
C6 C1 C2 110.45(11)
C1 C2 C3 110.49(11)
C1 C2 H2A 109.6
C3 C2 H2A 109.6
C1 C2 H2B 109.6
C3 C2 H2B 109.6
H2A C2 H2B 108.1
C2 C3 C4 113.45(12)
C2 C3 H3A 108.9
C4 C3 H3A 108.9
C2 C3 H3B 108.9
C4 C3 H3B 108.9
H3A C3 H3B 107.7
C3 C4 C5 112.49(11)
C3 C4 H4A 109.1
C5 C4 H4A 109.1
C3 C4 H4B 109.1
C5 C4 H4B 109.1
H4A C4 H4B 107.8
C7 C5 C6 113.81(10)
C7 C5 C4 109.01(10)
C6 C5 C4 109.68(10)
C7 C5 C9 112.49(10)
C6 C5 C9 99.45(10)
C4 C5 C9 112.18(10)
C1 C6 C5 100.00(10)
C1 C6 H6A 111.8
C5 C6 H6A 111.8
C1 C6 H6B 111.8
C5 C6 H6B 111.8
H6A C6 H6B 109.5
O3 C7 O4 123.77(12)
O3 C7 C5 122.20(12)
O4 C7 C5 113.98(11)
O2 C8 C1 112.97(12)
O2 C8 H8A 109.0
C1 C8 H8A 109.0
O2 C8 H8B 109.0
C1 C8 H8B 109.0
H8A C8 H8B 107.8
O1 C9 C10 109.59(10)
O1 C9 C12 108.83(10)
C10 C9 C12 109.48(11)
O1 C9 C5 103.39(9)
C10 C9 C5 114.69(11)
C12 C9 C5 110.60(10)
C11 C10 C9 177.89(15)
C10 C11 H11 180.0
C13 C12 C9 179.29(16)
C12 C13 H13 180.0
loop_
_geom_bond_atom_site_label_1
_geom_bond_atom_site_label_2
_geom_bond_distance
O1 C9 1.4509(15)
O1 C1 1.4696(15)
O2 C8 1.4188(19)
O2 H2 0.8400
O3 C7 1.2206(17)
O4 C7 1.3097(17)
O4 H4 0.8400
C1 C8 1.5173(19)
C1 C6 1.5192(18)
C1 C2 1.5296(19)
C2 C3 1.532(2)
C2 H2A 0.9900
C2 H2B 0.9900
C3 C4 1.534(2)
C3 H3A 0.9900
C3 H3B 0.9900
C4 C5 1.5462(18)
C4 H4A 0.9900
C4 H4B 0.9900
C5 C7 1.5093(17)
C5 C6 1.5265(17)
C5 C9 1.5684(17)
C6 H6A 0.9900
C6 H6B 0.9900
C8 H8A 0.9900
C8 H8B 0.9900
C9 C10 1.4736(18)
C9 C12 1.4816(18)
C10 C11 1.184(2)
C11 H11 0.9500
C12 C13 1.178(2)
C13 H13 0.9500
loop_
_geom_hbond_atom_site_label_D
_geom_hbond_atom_site_label_H
_geom_hbond_atom_site_label_A
_geom_hbond_distance_DH
_geom_hbond_distance_HA
_geom_hbond_distance_DA
_geom_hbond_angle_DHA
_geom_hbond_site_symmetry_A
O2 H2 O1 0.84 2.02 2.8455(15) 169.2 2_666
O4 H4 O3 0.84 1.79 2.6294(14) 175.9 2_655
loop_
_geom_torsion_atom_site_label_1
_geom_torsion_atom_site_label_2
_geom_torsion_atom_site_label_3
_geom_torsion_atom_site_label_4
_geom_torsion
C9 O1 C1 C8 -141.14(11)
C9 O1 C1 C6 -18.73(13)
C9 O1 C1 C2 98.34(11)
O1 C1 C2 C3 -51.10(14)
C8 C1 C2 C3 -169.59(12)
C6 C1 C2 C3 61.35(15)
C1 C2 C3 C4 -42.28(16)
C2 C3 C4 C5 41.02(16)
C3 C4 C5 C7 177.68(11)
C3 C4 C5 C6 -57.10(15)
C3 C4 C5 C9 52.42(15)
O1 C1 C6 C5 41.76(12)
C8 C1 C6 C5 159.44(11)
C2 C1 C6 C5 -73.53(12)
C7 C5 C6 C1 -167.42(10)
C4 C5 C6 C1 70.17(12)
C9 C5 C6 C1 -47.60(11)
C6 C5 C7 O3 -16.49(18)
C4 C5 C7 O3 106.29(14)
C9 C5 C7 O3 -128.63(13)
C6 C5 C7 O4 166.01(11)
C4 C5 C7 O4 -71.21(14)
C9 C5 C7 O4 53.87(15)
O1 C1 C8 O2 65.26(14)
C6 C1 C8 O2 -49.76(16)
C2 C1 C8 O2 -176.36(11)
C1 O1 C9 C10 -134.33(11)
C1 O1 C9 C12 105.98(11)
C1 O1 C9 C5 -11.61(12)
C7 C5 C9 O1 157.74(10)
C6 C5 C9 O1 36.95(11)
C4 C5 C9 O1 -78.93(12)
C7 C5 C9 C10 -83.00(13)
C6 C5 C9 C10 156.21(11)
C4 C5 C9 C10 40.33(14)
C7 C5 C9 C12 41.40(14)
C6 C5 C9 C12 -79.39(12)
C4 C5 C9 C12 164.72(11)
O1 C9 C10 C11 -160(4)
C12 C9 C10 C11 -41(4)
C5 C9 C10 C11 84(4)
O1 C9 C12 C13 -60(13)
C10 C9 C12 C13 180(100)
C5 C9 C12 C13 53(13)
