#------------------------------------------------------------------------------
#$Date: 2018-06-07 07:44:05 +0300 (Thu, 07 Jun 2018) $
#$Revision: 208160 $
#$URL: file:///home/coder/svn-repositories/cod/cif/4/02/14/4021480.cif $
#------------------------------------------------------------------------------
#
# This file is available in the Crystallography Open Database (COD),
# http://www.crystallography.net/
#
# All data on this site have been placed in the public domain by the
# contributors.
#
data_4021480
loop_
_publ_author_name
'Fraser F. Fleming'
'Zhiyu Zhang'
'Guoqing Wei'
'Omar W. Steward'
_publ_contact_author_address
;
 Department of Chemistry and Biochemistry
 Duquesne University
 Pittsburgh, PA 15282 USA
;
_publ_contact_author_email       ' steward@duq.edu '
_publ_contact_author_fax         ' (412) 396 5683 '
_publ_contact_author_name        'Omar W. Steward'
_publ_contact_author_phone       ' (412) 396 6338 '
_publ_section_title
;
 C-Metalated Nitriles: Electrophile-Dependent Alkylations and Acylations
;
_journal_name_full               'Journal of Organic Chemistry'
_journal_page_first              1430
_journal_page_last               1435
_journal_paper_doi               10.1021/jo052102j
_journal_volume                  71
_journal_year                    2006
_chemical_formula_moiety         'C12 H19 N O '
_chemical_formula_sum            'C12 H19 N O'
_chemical_formula_weight         193.29
_space_group_crystal_system      triclinic
_space_group_IT_number           2
_space_group_name_Hall           '-P 1'
_space_group_name_H-M_alt        'P -1'
_audit_creation_date             'Wed. Jan. 8, 2003'
_audit_creation_method           'by teXsan v1.8'
_audit_update_record             '6/14/04 update Omar W. Steward'
_cell_angle_alpha                95.95(2)
_cell_angle_beta                 105.14(2)
_cell_angle_gamma                83.64(2)
_cell_formula_units_Z            2
_cell_length_a                   7.605(2)
_cell_length_b                   13.704(3)
_cell_length_c                   6.018(2)
_cell_measurement_reflns_used    22
_cell_measurement_temperature    294
_cell_measurement_theta_max      17.4
_cell_measurement_theta_min      15.3
_cell_volume                     599.8(3)
_computing_cell_refinement       'MSC/AFC Diffractometer Control'
_computing_data_collection       'MSC/AFC Diffractometer Control'
_computing_data_reduction        'teXsan (MSC, 1992-1997)'
_computing_publication_material  'teXsan (MSC, 1992-1997)'
_computing_structure_refinement  'teXsan (MSC, 1992-1997)'
_diffrn_ambient_temperature      294.2
_diffrn_measurement_device_type  'Rigaku AFC7R'
_diffrn_measurement_method       ' \w-2\q'
_diffrn_orient_matrix_UB_11      0.03520
_diffrn_orient_matrix_UB_12      -0.01670
_diffrn_orient_matrix_UB_13      0.16459
_diffrn_orient_matrix_UB_21      0.00926
_diffrn_orient_matrix_UB_22      0.07137
_diffrn_orient_matrix_UB_23      0.05216
_diffrn_orient_matrix_UB_31      -0.13180
_diffrn_orient_matrix_UB_32      0.00722
_diffrn_orient_matrix_UB_33      0.00239
_diffrn_radiation_detector       'scintillation counter'
_diffrn_radiation_monochromator  ' graphite'
_diffrn_radiation_source         'Rigaku rotating anode'
_diffrn_radiation_type           'Mo K\a'
_diffrn_radiation_wavelength     0.7107
_diffrn_reflns_av_R_equivalents  0.03519
_diffrn_reflns_av_sigmaI/netI    0.090
_diffrn_reflns_limit_h_max       0
_diffrn_reflns_limit_h_min       -9
_diffrn_reflns_limit_k_max       17
_diffrn_reflns_limit_k_min       -17
_diffrn_reflns_limit_l_max       7
_diffrn_reflns_limit_l_min       -7
_diffrn_reflns_number            2949
_diffrn_reflns_reduction_process 'Lp corrections applied'
_diffrn_reflns_theta_max         27.50
_diffrn_reflns_theta_min         2.79
_diffrn_standards_decay_%        -14.84
_diffrn_standards_interval_count 150
_diffrn_standards_number         3
_exptl_absorpt_coefficient_mu    0.067
_exptl_absorpt_correction_T_max  0.998
_exptl_absorpt_correction_T_min  0.928
_exptl_absorpt_correction_type
;
\y scans (North,Phillips & Matthews, 1968)
;
_exptl_crystal_colour            colorless
_exptl_crystal_density_diffrn    1.070
_exptl_crystal_density_meas      ?
_exptl_crystal_description       plate
_exptl_crystal_F_000             212.00
_exptl_crystal_size_max          0.69
_exptl_crystal_size_mid          0.50
_exptl_crystal_size_min          0.10
_refine_diff_density_max         0.22
_refine_diff_density_min         -0.24
_refine_ls_extinction_method     none
_refine_ls_goodness_of_fit_ref   1.885
_refine_ls_hydrogen_treatment    noref
_refine_ls_matrix_type           full
_refine_ls_number_constraints    0
_refine_ls_number_parameters     0
_refine_ls_number_reflns         1242
_refine_ls_number_restraints     0
_refine_ls_R_factor_gt           0.0681
_refine_ls_shift/su_max          0.0000
_refine_ls_shift/su_mean         0.0000
_refine_ls_structure_factor_coef F
_refine_ls_weighting_details     'w = 1/[\s^2^(Fo) + 0.00070|Fo|^2^]'
_refine_ls_weighting_scheme      sigma
_refine_ls_wR_factor_ref         0.0848
_reflns_number_gt                1242
_reflns_number_total             2741
_reflns_threshold_expression     ' I>3.00\s(I)'
_cod_data_source_file            jo052102jsi20051214_105650_04.cif
_cod_depositor_comments
;
 Updating space group information.

 Antanas Vaitkus,
 2018-06-07

The following automatic conversions were performed:
'_refine_ls_hydrogen_treatment' value ' noref' changed to 'noref'
according to '/home/saulius/struct/CIF-dictionaries/cif_core.dic'
dictionary named 'cif_core.dic' version 2.4.1 from 2010-06-29.

Automatic conversion script
Id: cif_fix_enum 1527 2010-12-29 10:47:43Z saulius 

The following automatic conversions were performed:
data name '_geom_bond_atom_site_label_D' replaced with
'_geom_hbond_atom_site_label_D' as specified in the replacement file
'/home/antanas/src/cod-tools/trunk/data/replacement-values/replacement_tags.lst'.

data
name '_geom_bond_atom_site_label_H' replaced with
'_geom_hbond_atom_site_label_H' as specified in the replacement file
'/home/antanas/src/cod-tools/trunk/data/replacement-values/replacement_tags.lst'.

data
name '_geom_bond_atom_site_label_A' replaced with
'_geom_hbond_atom_site_label_A' as specified in the replacement file
'/home/antanas/src/cod-tools/trunk/data/replacement-values/replacement_tags.lst'.

data
name '_geom_bond_distance_DH' replaced with '_geom_hbond_distance_DH'
as specified in the replacement file
'/home/antanas/src/cod-tools/trunk/data/replacement-values/replacement_tags.lst'.

data
name '_geom_contact_distance_HA' replaced with
'_geom_hbond_distance_HA' as specified in the replacement file
'/home/antanas/src/cod-tools/trunk/data/replacement-values/replacement_tags.lst'.

data
name '_geom_contact_distance_DA' replaced with
'_geom_hbond_distance_DA' as specified in the replacement file
'/home/antanas/src/cod-tools/trunk/data/replacement-values/replacement_tags.lst'.

data
name '_geom_angle_DHA' replaced with '_geom_hbond_angle_DHA' as
specified in the replacement file
'/home/antanas/src/cod-tools/trunk/data/replacement-values/replacement_tags.lst'.

data
name '_geom_contact_site_symmetry_A' replaced with
'_geom_hbond_site_symmetry_A' as specified in the replacement file
'/home/antanas/src/cod-tools/trunk/data/replacement-values/replacement_tags.lst'.

Automatic conversion script
Id: cif_correct_tags 5005 2017-03-03 11:38:54Z antanas 
;
_cod_original_formula_sum        'C12 H19 N O '
_cod_database_code               4021480
loop_
_space_group_symop_id
_space_group_symop_operation_xyz
1 x,y,z
2 -x,-y,-z
loop_
_atom_site_label
_atom_site_fract_x
_atom_site_fract_y
_atom_site_fract_z
_atom_site_U_iso_or_equiv
_atom_site_occupancy
_atom_site_adp_type
_atom_site_calc_flag
O(1) 1.1952(3) 0.2161(2) 1.0107(4) 0.0663(8) 1.000 Uani d
N(1) 0.5815(4) 0.2353(3) 0.2843(6) 0.094(1) 1.000 Uani d
C(1) 0.8873(4) 0.2672(2) 0.5911(5) 0.050(1) 1.000 Uani d
C(2) 0.9884(4) 0.1650(3) 0.6547(5) 0.057(1) 1.000 Uani d
C(3) 1.1918(4) 0.1699(3) 0.7850(5) 0.059(1) 1.000 Uani d
C(4) 1.2865(5) 0.2293(4) 0.6630(7) 0.087(1) 1.000 Uani d
C(5) 1.1911(6) 0.3301(4) 0.6124(7) 0.091(2) 1.000 Uani d
C(6) 0.9979(5) 0.3218(3) 0.4677(6) 0.074(1) 1.000 Uani d
C(7) 0.7131(5) 0.2489(3) 0.4195(6) 0.065(1) 1.000 Uani d
C(8) 0.8404(5) 0.3301(3) 0.8006(6) 0.063(1) 1.000 Uani d
C(9) 0.7327(9) 0.4249(5) 0.7467(9) 0.132(2) 1.000 Uani d
C(10) 0.673(1) 0.4876(6) 0.812(1) 0.220(4) 1.000 Uani d
C(11) 0.8848(5) 0.1075(3) 0.7758(7) 0.080(1) 1.000 Uani d
C(12) 1.2901(6) 0.0674(4) 0.8080(9) 0.106(2) 1.000 Uani d
H(1) 0.9874 0.1265 0.5103 0.070 1.000 Uiso c
H(2) 1.2963 0.1956 0.5191 0.100 1.000 Uiso c
H(3) 1.4106 0.2375 0.7555 0.100 1.000 Uiso c
H(4) 1.2611 0.3636 0.5374 0.114 1.000 Uiso c
H(5) 1.1922 0.3662 0.7590 0.114 1.000 Uiso c
H(6) 0.9344 0.3852 0.4361 0.095 1.000 Uiso c
H(7) 0.9971 0.2858 0.3198 0.095 1.000 Uiso c
H(8) 0.7727 0.2932 0.8713 0.076 1.000 Uiso c
H(9) 0.9520 0.3442 0.9131 0.076 1.000 Uiso c
H(10) 0.7004 0.4251 0.5779 0.158 1.000 Uiso c
H(11) 0.6994 0.5015 0.9737 0.250 1.000 Uiso c
H(12) 0.6116 0.5379 0.7124 0.250 1.000 Uiso c
H(13) 0.7652 0.0983 0.6836 0.095 1.000 Uiso c
H(14) 0.9487 0.0458 0.8144 0.095 1.000 Uiso c
H(15) 0.8736 0.1451 0.9184 0.095 1.000 Uiso c
H(16) 1.2328 0.0277 0.8891 0.130 1.000 Uiso c
H(17) 1.2907 0.0333 0.6622 0.130 1.000 Uiso c
H(18) 1.4161 0.0693 0.8972 0.130 1.000 Uiso c
H(19) 1.3237 0.2223 1.0955 0.109 1.000 Uiso c
loop_
_atom_site_aniso_label
_atom_site_aniso_U_11
_atom_site_aniso_U_22
_atom_site_aniso_U_33
_atom_site_aniso_U_12
_atom_site_aniso_U_13
_atom_site_aniso_U_23
O(1) 0.047(1) 0.105(2) 0.041(1) -0.006(1) -0.001(1) 0.008(1)
N(1) 0.052(2) 0.152(4) 0.062(2) -0.008(2) -0.013(2) 0.006(2)
C(1) 0.039(2) 0.073(2) 0.033(2) -0.004(2) 0.002(1) 0.007(2)
C(2) 0.050(2) 0.071(2) 0.043(2) -0.005(2) 0.003(1) 0.000(2)
C(3) 0.045(2) 0.085(3) 0.042(2) 0.005(2) 0.007(2) 0.006(2)
C(4) 0.043(2) 0.160(5) 0.059(2) -0.010(2) 0.008(2) 0.021(3)
C(5) 0.071(3) 0.134(4) 0.078(3) -0.042(3) 0.010(2) 0.041(3)
C(6) 0.068(2) 0.103(3) 0.052(2) -0.012(2) 0.009(2) 0.026(2)
C(7) 0.046(2) 0.100(3) 0.045(2) 0.000(2) 0.004(2) 0.011(2)
C(8) 0.060(2) 0.079(3) 0.045(2) 0.007(2) 0.010(2) 0.007(2)
C(9) 0.192(6) 0.124(5) 0.063(3) 0.080(4) 0.038(3) 0.013(3)
C(10) 0.37(1) 0.151(7) 0.090(5) 0.132(8) 0.045(6) -0.001(5)
C(11) 0.071(3) 0.076(3) 0.090(3) -0.020(2) 0.005(2) 0.019(2)
C(12) 0.079(3) 0.114(4) 0.105(4) 0.033(3) 0.003(3) 0.007(3)
loop_
_atom_type_symbol
_atom_type_oxidation_number
_atom_type_number_in_cell
_atom_type_scat_dispersion_real
_atom_type_scat_dispersion_imag
_atom_type_scat_source
C 0 24 0.003 0.002
;International Tables for Crystallography
(1992, Vol. C, Tables 4.2.6.8 and 6.1.1.1)
;
H 0 38 0.000 0.000
;International Tables for Crystallography
(1992, Vol. C, Table 6.1.1.2)
;
N 0 2 0.006 0.003
;International Tables for Crystallography
(1992, Vol. C, Tables 4.2.6.8 and 6.1.1.1)
;
O 0 2 0.011 0.006
;International Tables for Crystallography
(1992, Vol. C, Tables 4.2.6.8 and 6.1.1.1)
;
loop_
_geom_angle_atom_site_label_1
_geom_angle_atom_site_label_2
_geom_angle_atom_site_label_3
_geom_angle
_geom_angle_publ_flag
C(3) O(1) H(19) 108.4 no
C(2) C(1) C(6) 110.0(3) yes
C(2) C(1) C(7) 107.2(3) yes
C(2) C(1) C(8) 112.9(2) yes
C(6) C(1) C(7) 106.1(3) yes
C(6) C(1) C(8) 112.4(3) yes
C(7) C(1) C(8) 107.7(3) yes
C(1) C(2) C(3) 113.6(3) yes
C(1) C(2) C(11) 112.3(3) yes
C(1) C(2) H(1) 106.5 no
C(3) C(2) C(11) 112.8(3) yes
C(3) C(2) H(1) 106.2 no
C(11) C(2) H(1) 104.6 no
O(1) C(3) C(2) 106.8(2) yes
O(1) C(3) C(4) 109.8(3) yes
O(1) C(3) C(12) 109.0(3) yes
C(2) C(3) C(4) 110.9(3) yes
C(2) C(3) C(12) 111.0(3) yes
C(4) C(3) C(12) 109.3(3) yes
C(3) C(4) C(5) 113.9(3) yes
C(3) C(4) H(2) 110.4 no
C(3) C(4) H(3) 109.8 no
C(5) C(4) H(2) 107.3 no
C(5) C(4) H(3) 108.1 no
H(2) C(4) H(3) 107.0 no
C(4) C(5) C(6) 110.5(4) yes
C(4) C(5) H(4) 108.8 no
C(4) C(5) H(5) 107.1 no
C(6) C(5) H(4) 111.8 no
C(6) C(5) H(5) 111.0 no
H(4) C(5) H(5) 107.5 no
C(1) C(6) C(5) 111.1(3) yes
C(1) C(6) H(6) 107.9 no
C(1) C(6) H(7) 107.9 no
C(5) C(6) H(6) 111.7 no
C(5) C(6) H(7) 110.9 no
H(6) C(6) H(7) 107.1 no
N(1) C(7) C(1) 178.5(4) yes
C(1) C(8) C(9) 115.2(3) yes
C(1) C(8) H(8) 109.3 no
C(1) C(8) H(9) 109.2 no
C(9) C(8) H(8) 107.6 no
C(9) C(8) H(9) 107.6 no
H(8) C(8) H(9) 107.8 no
C(8) C(9) C(10) 145.6(6) yes
C(8) C(9) H(10) 105.9 no
C(10) C(9) H(10) 108.3 no
C(9) C(10) H(11) 119.0 no
C(9) C(10) H(12) 120.3 no
H(11) C(10) H(12) 119.5 no
C(2) C(11) H(13) 111.3 no
C(2) C(11) H(14) 111.1 no
C(2) C(11) H(15) 108.6 no
H(13) C(11) H(14) 110.0 no
H(13) C(11) H(15) 107.8 no
H(14) C(11) H(15) 107.9 no
C(3) C(12) H(16) 111.0 no
C(3) C(12) H(17) 112.3 no
C(3) C(12) H(18) 111.7 no
H(16) C(12) H(17) 107.6 no
H(16) C(12) H(18) 106.1 no
H(17) C(12) H(18) 107.7 no
loop_
_geom_bond_atom_site_label_1
_geom_bond_atom_site_label_2
_geom_bond_distance
_geom_bond_publ_flag
O(1) C(3) 1.433(4) yes
O(1) H(19) 0.99 no
N(1) C(7) 1.133(4) yes
C(1) C(2) 1.555(4) yes
C(1) C(6) 1.550(5) yes
C(1) C(7) 1.479(4) yes
C(1) C(8) 1.550(4) yes
C(2) C(3) 1.546(4) yes
C(2) C(11) 1.527(5) yes
C(2) H(1) 0.97 no
C(3) C(4) 1.500(5) yes
C(3) C(12) 1.518(5) yes
C(4) C(5) 1.509(6) yes
C(4) H(2) 0.96 no
C(4) H(3) 0.97 no
C(5) C(6) 1.510(5) yes
C(5) H(4) 0.96 no
C(5) H(5) 0.96 no
C(6) H(6) 0.96 no
C(6) H(7) 0.97 no
C(8) C(9) 1.475(6) yes
C(8) H(8) 0.96 no
C(8) H(9) 0.96 no
C(9) C(10) 1.017(7) yes
C(9) H(10) 0.98 no
C(10) H(11) 0.94 no
C(10) H(12) 0.96 no
C(11) H(13) 0.95 no
C(11) H(14) 0.95 no
C(11) H(15) 0.97 no
C(12) H(16) 0.97 no
C(12) H(17) 0.95 no
C(12) H(18) 0.97 no
loop_
_geom_contact_atom_site_label_1
_geom_contact_atom_site_label_2
_geom_contact_distance
_geom_contact_site_symmetry_2
_geom_contact_publ_flag
O(1) N(1) 2.995(4) 1_656 no
O(1) C(6) 3.572(5) 1_556 no
loop_
_geom_hbond_atom_site_label_D
_geom_hbond_atom_site_label_H
_geom_hbond_atom_site_label_A
_geom_hbond_distance_DH
_geom_hbond_distance_HA
_geom_hbond_distance_DA
_geom_hbond_angle_DHA
_geom_hbond_site_symmetry_A
O(1) H(19) N(1) 0.99 2.01 2.995(4) 176.9 1_656
loop_
_geom_torsion_atom_site_label_1
_geom_torsion_atom_site_label_2
_geom_torsion_atom_site_label_3
_geom_torsion_atom_site_label_4
_geom_torsion
_geom_torsion_publ_flag
O(1) C(3) C(2) C(1) 70.4(3) no
O(1) C(3) C(2) C(11) -58.9(4) no
O(1) C(3) C(4) C(5) -65.3(4) no
N(1) C(7) C(1) C(2) -97.7(2) no
N(1) C(7) C(1) C(6) 19.8(2) no
N(1) C(7) C(1) C(8) 140.5(2) no
C(1) C(2) C(3) C(4) -49.3(4) no
C(1) C(2) C(3) C(12) -170.9(3) no
C(1) C(6) C(5) C(4) 58.4(5) no
C(1) C(8) C(9) C(10) -179(2) no
C(2) C(1) C(6) C(5) -55.1(4) no
C(2) C(1) C(8) C(9) -175.8(4) no
C(2) C(3) C(4) C(5) 52.5(4) no
C(3) C(2) C(1) C(6) 50.8(3) no
C(3) C(2) C(1) C(7) 165.8(3) no
C(3) C(2) C(1) C(8) -75.7(3) no
C(3) C(4) C(5) C(6) -57.9(4) no
C(4) C(3) C(2) C(11) -178.5(3) no
C(5) C(4) C(3) C(12) 175.1(3) no
C(5) C(6) C(1) C(7) -170.8(4) no
C(5) C(6) C(1) C(8) 71.7(4) no
C(6) C(1) C(2) C(11) -179.7(3) no
C(6) C(1) C(8) C(9) 59.0(5) no
C(7) C(1) C(2) C(11) -64.7(3) no
C(7) C(1) C(8) C(9) -57.6(5) no
C(8) C(1) C(2) C(11) 53.8(4) no
C(11) C(2) C(3) C(12) 59.9(4) no
