#------------------------------------------------------------------------------
#$Date: 2017-10-13 14:42:48 +0300 (Fri, 13 Oct 2017) $
#$Revision: 201982 $
#$URL: file:///home/coder/svn-repositories/cod/cif/4/02/14/4021438.cif $
#------------------------------------------------------------------------------
#
# This file is available in the Crystallography Open Database (COD),
# http://www.crystallography.net/
#
# All data on this site have been placed in the public domain by the
# contributors.
#
data_4021438
loop_
_publ_author_name
'Ibrahim Eryazici'
'Charles N. Moorefield'
'Semih Durmus'
'George R. Newkome'
_publ_section_title
;
 Synthesis and Single-Crystal X-ray Characterization of
 4,4' '-Functionalized 4'-(4-Bromophenyl)-2,2':6',2' '-terpyridines
;
_journal_name_full               'Journal of Organic Chemistry'
_journal_page_first              1009
_journal_page_last               1014
_journal_paper_doi               10.1021/jo052036l
_journal_volume                  71
_journal_year                    2006
_chemical_formula_moiety         'C15 H9 Br N2 O'
_chemical_formula_sum            'C15 H9 Br N2 O'
_chemical_formula_weight         313.15
_chemical_name_systematic
; 
 ? 
;
_space_group_IT_number           2
_symmetry_cell_setting           triclinic
_symmetry_space_group_name_Hall  '-P 1'
_symmetry_space_group_name_H-M   'P -1'
_atom_sites_solution_hydrogens   geom
_atom_sites_solution_primary     direct
_atom_sites_solution_secondary   difmap
_audit_creation_method           SHELXL-97
_cell_angle_alpha                88.535(2)
_cell_angle_beta                 78.534(2)
_cell_angle_gamma                87.202(2)
_cell_formula_units_Z            2
_cell_length_a                   6.1683(9)
_cell_length_b                   8.3056(12)
_cell_length_c                   12.5311(17)
_cell_measurement_reflns_used    3622
_cell_measurement_temperature    100(2)
_cell_measurement_theta_max      28.21
_cell_measurement_theta_min      2.46
_cell_volume                     628.34(15)
_computing_cell_refinement       'Bruker SMART'
_computing_data_collection       'Bruker SMART'
_computing_data_reduction        'Bruker SAINT'
_computing_molecular_graphics    'Bruker SHELXTL'
_computing_publication_material  'Bruker SHELXTL'
_computing_structure_refinement  'SHELXL-97 (Sheldrick, 1997)'
_computing_structure_solution    'SHELXS-97 (Sheldrick, 1990)'
_diffrn_ambient_temperature      100(2)
_diffrn_measured_fraction_theta_full 0.920
_diffrn_measured_fraction_theta_max 0.920
_diffrn_measurement_device_type  'CCD area detector'
_diffrn_measurement_method       'phi and omega scans'
_diffrn_radiation_monochromator  graphite
_diffrn_radiation_source         'fine-focus sealed tube'
_diffrn_radiation_type           MoK\a
_diffrn_radiation_wavelength     0.71073
_diffrn_reflns_av_R_equivalents  0.0405
_diffrn_reflns_av_sigmaI/netI    0.0580
_diffrn_reflns_limit_h_max       7
_diffrn_reflns_limit_h_min       -8
_diffrn_reflns_limit_k_max       10
_diffrn_reflns_limit_k_min       -11
_diffrn_reflns_limit_l_max       16
_diffrn_reflns_limit_l_min       -16
_diffrn_reflns_number            5310
_diffrn_reflns_theta_full        28.25
_diffrn_reflns_theta_max         28.25
_diffrn_reflns_theta_min         1.66
_exptl_absorpt_coefficient_mu    3.262
_exptl_absorpt_correction_type   multi-scan
_exptl_absorpt_process_details   SADABS
_exptl_crystal_colour            colorless
_exptl_crystal_density_diffrn    1.655
_exptl_crystal_density_meas      0
_exptl_crystal_density_method    'not measured'
_exptl_crystal_description       block
_exptl_crystal_F_000             312
_exptl_crystal_size_max          0.43
_exptl_crystal_size_mid          0.15
_exptl_crystal_size_min          0.10
_refine_diff_density_max         0.849
_refine_diff_density_min         -0.402
_refine_diff_density_rms         0.118
_refine_ls_extinction_method     none
_refine_ls_goodness_of_fit_ref   1.014
_refine_ls_hydrogen_treatment    mixed
_refine_ls_matrix_type           full
_refine_ls_number_parameters     208
_refine_ls_number_reflns         2854
_refine_ls_number_restraints     0
_refine_ls_restrained_S_all      1.014
_refine_ls_R_factor_all          0.0410
_refine_ls_R_factor_gt           0.0375
_refine_ls_shift/su_max          0.001
_refine_ls_shift/su_mean         0.000
_refine_ls_structure_factor_coef Fsqd
_refine_ls_weighting_details
'calc w=1/[\s^2^(Fo^2^)+(0.0543P)^2^+0.0000P] where P=(Fo^2^+2Fc^2^)/3'
_refine_ls_weighting_scheme      calc
_refine_ls_wR_factor_gt          0.0932
_refine_ls_wR_factor_ref         0.0943
_reflns_number_gt                2571
_reflns_number_total             2854
_reflns_threshold_expression     >2sigma(I)
_cod_data_source_file            jo052036lsi20050928_013349.cif
_cod_depositor_comments
;
The following automatic conversions were performed:
'_symmetry_cell_setting' value 'Triclinic' changed to 'triclinic'
according to '/home/saulius/struct/CIF-dictionaries/cif_core.dic'
dictionary named 'cif_core.dic' version 2.4.1 from
2010-06-29.

'_exptl_absorpt_correction_type' value 'MULTI-SCAN' changed
to 'multi-scan' according to
'/home/saulius/struct/CIF-dictionaries/cif_core.dic' dictionary named
'cif_core.dic' version 2.4.1 from 2010-06-29.

Automatic conversion script
Id: cif_fix_enum 1527 2010-12-29 10:47:43Z saulius 
;
_cod_database_code               4021438
loop_
_symmetry_equiv_pos_as_xyz
'x, y, z'
'-x, -y, -z'
loop_
_atom_site_label
_atom_site_type_symbol
_atom_site_fract_x
_atom_site_fract_y
_atom_site_fract_z
_atom_site_U_iso_or_equiv
_atom_site_adp_type
_atom_site_occupancy
_atom_site_symmetry_multiplicity
_atom_site_calc_flag
Br1 Br 0.15525(4) -0.20899(3) 0.072235(19) 0.02113(11) Uani 1 1 d
O1 O 0.9041(3) 0.3129(2) 0.48493(16) 0.0260(4) Uani 1 1 d
N1 N 0.3891(4) 0.3725(3) 0.66366(18) 0.0195(5) Uani 1 1 d
N2 N 0.8752(4) 0.7052(3) 0.8854(2) 0.0312(6) Uani 1 1 d
C1 C 0.3052(4) -0.1033(3) 0.1672(2) 0.0186(5) Uani 1 1 d
C2 C 0.5236(5) -0.0684(3) 0.1308(2) 0.0204(5) Uani 1 1 d
C3 C 0.6272(4) 0.0185(3) 0.1981(2) 0.0194(5) Uani 1 1 d
C4 C 0.5150(4) 0.0690(3) 0.3004(2) 0.0185(5) Uani 1 1 d
C5 C 0.2942(5) 0.0283(3) 0.3355(2) 0.0200(5) Uani 1 1 d
C6 C 0.1896(5) -0.0587(3) 0.2695(2) 0.0206(5) Uani 1 1 d
C7 C 0.6352(4) 0.1594(3) 0.3666(2) 0.0187(5) Uani 1 1 d
C8 C 0.5540(5) 0.2271(3) 0.4634(2) 0.0200(5) Uani 1 1 d
C9 C 0.7048(4) 0.3095(3) 0.5189(2) 0.0196(5) Uani 1 1 d
C10 C 0.6049(4) 0.3921(3) 0.6244(2) 0.0185(5) Uani 1 1 d
C11 C 0.7393(4) 0.4797(3) 0.6763(2) 0.0196(5) Uani 1 1 d
C12 C 0.6428(4) 0.5492(3) 0.7754(2) 0.0198(5) Uani 1 1 d
C13 C 0.4199(5) 0.5293(3) 0.8178(2) 0.0221(6) Uani 1 1 d
C14 C 0.3018(5) 0.4411(3) 0.7593(2) 0.0234(6) Uani 1 1 d
C15 C 0.7735(5) 0.6385(3) 0.8358(2) 0.0231(6) Uani 1 1 d
H2 H 0.598(5) -0.094(4) 0.058(3) 0.031(9) Uiso 1 1 d
H3 H 0.766(6) 0.051(4) 0.173(3) 0.034(9) Uiso 1 1 d
H5 H 0.226(5) 0.060(4) 0.397(2) 0.022(8) Uiso 1 1 d
H6 H 0.038(5) -0.081(4) 0.295(2) 0.019(7) Uiso 1 1 d
H7 H 0.785(5) 0.174(4) 0.336(3) 0.026(8) Uiso 1 1 d
H8 H 0.414(5) 0.226(3) 0.493(2) 0.016(7) Uiso 1 1 d
H11 H 0.885(5) 0.493(4) 0.647(2) 0.024(8) Uiso 1 1 d
H13 H 0.345(5) 0.579(4) 0.881(2) 0.019(7) Uiso 1 1 d
H14 H 0.146(5) 0.430(3) 0.786(2) 0.012(7) Uiso 1 1 d
loop_
_atom_site_aniso_label
_atom_site_aniso_U_11
_atom_site_aniso_U_22
_atom_site_aniso_U_33
_atom_site_aniso_U_23
_atom_site_aniso_U_13
_atom_site_aniso_U_12
Br1 0.02320(16) 0.02262(17) 0.01902(16) -0.00604(10) -0.00588(11) -0.00554(10)
O1 0.0242(10) 0.0308(11) 0.0228(10) -0.0085(8) -0.0021(8) -0.0057(8)
N1 0.0219(11) 0.0182(11) 0.0192(11) -0.0028(9) -0.0056(9) -0.0025(9)
N2 0.0317(14) 0.0305(14) 0.0331(14) -0.0141(11) -0.0090(11) -0.0017(11)
C1 0.0235(13) 0.0163(12) 0.0180(12) -0.0040(9) -0.0089(10) -0.0008(10)
C2 0.0245(13) 0.0205(13) 0.0166(13) -0.0048(10) -0.0049(10) 0.0019(10)
C3 0.0204(13) 0.0194(13) 0.0186(13) -0.0020(10) -0.0040(10) -0.0018(10)
C4 0.0244(13) 0.0153(12) 0.0172(12) -0.0015(9) -0.0076(10) 0.0007(10)
C5 0.0256(14) 0.0202(13) 0.0139(12) -0.0033(10) -0.0032(10) -0.0004(10)
C6 0.0223(13) 0.0195(13) 0.0207(13) 0.0004(10) -0.0057(11) -0.0019(10)
C7 0.0224(13) 0.0182(13) 0.0160(12) 0.0002(10) -0.0050(10) -0.0021(10)
C8 0.0220(14) 0.0210(13) 0.0178(13) -0.0021(10) -0.0050(11) -0.0041(10)
C9 0.0254(14) 0.0161(12) 0.0182(13) -0.0006(10) -0.0058(10) -0.0035(10)
C10 0.0229(13) 0.0168(12) 0.0160(12) -0.0009(9) -0.0042(10) -0.0025(10)
C11 0.0209(13) 0.0186(13) 0.0199(13) -0.0015(10) -0.0047(10) -0.0031(10)
C12 0.0244(13) 0.0164(12) 0.0204(13) -0.0035(10) -0.0086(10) -0.0011(10)
C13 0.0243(14) 0.0211(13) 0.0202(13) -0.0071(10) -0.0024(11) 0.0013(11)
C14 0.0207(14) 0.0255(14) 0.0239(14) -0.0043(11) -0.0030(11) -0.0033(11)
C15 0.0259(14) 0.0225(14) 0.0207(13) -0.0041(11) -0.0047(11) 0.0015(11)
loop_
_atom_type_symbol
_atom_type_description
_atom_type_scat_dispersion_real
_atom_type_scat_dispersion_imag
_atom_type_scat_source
C C 0.0033 0.0016 'International Tables Vol C Tables 4.2.6.8 and 6.1.1.4'
H H 0.0000 0.0000 'International Tables Vol C Tables 4.2.6.8 and 6.1.1.4'
N N 0.0061 0.0033 'International Tables Vol C Tables 4.2.6.8 and 6.1.1.4'
O O 0.0106 0.0060 'International Tables Vol C Tables 4.2.6.8 and 6.1.1.4'
Br Br -0.2901 2.4595 'International Tables Vol C Tables 4.2.6.8 and 6.1.1.4'
loop_
_geom_angle_atom_site_label_1
_geom_angle_atom_site_label_2
_geom_angle_atom_site_label_3
_geom_angle
C10 N1 C14 116.9(2)
C2 C1 C6 122.0(2)
C2 C1 Br1 118.9(2)
C6 C1 Br1 119.1(2)
C1 C2 C3 118.4(2)
C2 C3 C4 121.4(3)
C3 C4 C5 118.6(2)
C3 C4 C7 118.2(2)
C5 C4 C7 123.2(2)
C6 C5 C4 120.6(2)
C5 C6 C1 119.1(2)
C8 C7 C4 127.4(2)
C7 C8 C9 119.0(2)
O1 C9 C8 123.6(2)
O1 C9 C10 119.0(2)
C8 C9 C10 117.4(2)
N1 C10 C11 123.9(2)
N1 C10 C9 116.8(2)
C11 C10 C9 119.3(2)
C10 C11 C12 117.5(2)
C13 C12 C11 119.4(2)
C13 C12 C15 119.8(2)
C11 C12 C15 120.8(2)
C14 C13 C12 118.2(3)
N1 C14 C13 124.0(3)
N2 C15 C12 178.1(3)
loop_
_geom_bond_atom_site_label_1
_geom_bond_atom_site_label_2
_geom_bond_distance
Br1 C1 1.900(2)
O1 C9 1.219(3)
N1 C10 1.341(3)
N1 C14 1.341(3)
N2 C15 1.137(4)
C1 C2 1.376(4)
C1 C6 1.387(4)
C2 C3 1.390(4)
C3 C4 1.395(4)
C4 C5 1.400(4)
C4 C7 1.460(3)
C5 C6 1.383(4)
C7 C8 1.342(4)
C8 C9 1.470(3)
C9 C10 1.510(4)
C10 C11 1.392(4)
C11 C12 1.392(4)
C12 C13 1.388(4)
C12 C15 1.451(4)
C13 C14 1.378(4)
loop_
_cod_related_entry_id
_cod_related_entry_database
_cod_related_entry_code
1 ChemSpider 9791361
