#------------------------------------------------------------------------------
#$Date: 2017-10-13 14:42:48 +0300 (Fri, 13 Oct 2017) $
#$Revision: 201982 $
#$URL: file:///home/coder/svn-repositories/cod/cif/4/02/27/4022764.cif $
#------------------------------------------------------------------------------
#
# This file is available in the Crystallography Open Database (COD),
# http://www.crystallography.net/
#
# All data on this site have been placed in the public domain by the
# contributors.
#
data_4022764
loop_
_publ_author_name
'Kathryn M. Evans'
'Alexandra M. Z. Slawin'
'Tomas Lebl'
'Douglas Philp'
'Nicholas J. Westwood'
_publ_section_title
;
 An Improved Understanding of the Reaction of Bis(bromomethyl)quinoxaline
 1-N-Oxides with Amines Using Substituent Effects
;
_journal_name_full               'Journal of Organic Chemistry'
_journal_page_first              3186
_journal_page_last               3193
_journal_paper_doi               10.1021/jo062380y
_journal_volume                  72
_journal_year                    2007
_chemical_formula_moiety         'C10 H7 Br2 N3 O3'
_chemical_formula_sum            'C10 H7 Br2 N3 O3'
_chemical_formula_weight         377.01
_chemical_name_systematic
; 
 ? 
;
_space_group_IT_number           2
_symmetry_cell_setting           triclinic
_symmetry_space_group_name_Hall  '-P 1'
_symmetry_space_group_name_H-M   'P -1'
_atom_sites_solution_hydrogens   geom
_atom_sites_solution_primary     direct
_atom_sites_solution_secondary   difmap
_audit_creation_method           SHELXL-97
_cell_angle_alpha                87.946(15)
_cell_angle_beta                 89.412(13)
_cell_angle_gamma                72.355(10)
_cell_formula_units_Z            2
_cell_length_a                   7.3140(13)
_cell_length_b                   7.7055(11)
_cell_length_c                   11.226(3)
_cell_measurement_reflns_used    2313
_cell_measurement_temperature    93(2)
_cell_measurement_theta_max      25.3491
_cell_measurement_theta_min      2.7787
_cell_volume                     602.5(2)
_computing_cell_refinement       'CrystalClear (Rigaku Corp., 2004)'
_computing_data_collection       'CrystalClear (Rigaku Corp., 2004)'
_computing_data_reduction        'CrystalClear (Rigaku Corp., 2004)'
_computing_molecular_graphics    'Bruker SHELXTL'
_computing_publication_material  'Bruker SHELXTL'
_computing_structure_refinement  'SHELXL-97 (Sheldrick, 1997)'
_computing_structure_solution    'SHELXS-97 (Sheldrick, 1990)'
_diffrn_ambient_temperature      93(2)
_diffrn_detector_area_resol_mean 0.83
_diffrn_measured_fraction_theta_full 0.974
_diffrn_measured_fraction_theta_max 0.974
_diffrn_measurement_device_type  CCD
_diffrn_measurement_method       dtprofit.ref
_diffrn_radiation_monochromator  confocal
_diffrn_radiation_source         'rotating anode'
_diffrn_radiation_type           MoK\a
_diffrn_radiation_wavelength     0.71073
_diffrn_reflns_av_R_equivalents  0.0291
_diffrn_reflns_av_sigmaI/netI    0.0334
_diffrn_reflns_limit_h_max       8
_diffrn_reflns_limit_h_min       -7
_diffrn_reflns_limit_k_max       9
_diffrn_reflns_limit_k_min       -7
_diffrn_reflns_limit_l_max       8
_diffrn_reflns_limit_l_min       -13
_diffrn_reflns_number            3971
_diffrn_reflns_theta_full        25.34
_diffrn_reflns_theta_max         25.34
_diffrn_reflns_theta_min         2.78
_exptl_absorpt_coefficient_mu    6.730
_exptl_absorpt_correction_T_max  1.0000
_exptl_absorpt_correction_T_min  0.5135
_exptl_absorpt_correction_type   multi-scan
_exptl_crystal_colour            Colorless
_exptl_crystal_density_diffrn    2.078
_exptl_crystal_density_method    'not measured'
_exptl_crystal_description       Platelet
_exptl_crystal_F_000             364
_exptl_crystal_size_max          0.1000
_exptl_crystal_size_mid          0.0300
_exptl_crystal_size_min          0.0100
_refine_diff_density_max         0.795
_refine_diff_density_min         -0.636
_refine_diff_density_rms         0.103
_refine_ls_extinction_method     none
_refine_ls_goodness_of_fit_ref   1.048
_refine_ls_hydrogen_treatment    constr
_refine_ls_matrix_type           full
_refine_ls_number_parameters     164
_refine_ls_number_reflns         2144
_refine_ls_number_restraints     0
_refine_ls_restrained_S_all      1.048
_refine_ls_R_factor_all          0.0314
_refine_ls_R_factor_gt           0.0270
_refine_ls_shift/su_max          0.003
_refine_ls_shift/su_mean         0.001
_refine_ls_structure_factor_coef Fsqd
_refine_ls_weighting_details
'calc w=1/[\s^2^(Fo^2^)+(0.0441P)^2^+0.1981P] where P=(Fo^2^+2Fc^2^)/3'
_refine_ls_weighting_scheme      calc
_refine_ls_wR_factor_gt          0.0709
_refine_ls_wR_factor_ref         0.0739
_reflns_number_gt                1895
_reflns_number_total             2144
_reflns_threshold_expression     >2sigma(I)
_cod_data_source_file            jo062380ysi20061119_054638.cif
_cod_data_source_block           24
_cod_depositor_comments
;
The following automatic conversions were performed:
'_symmetry_cell_setting' value 'Triclinic' changed to 'triclinic'
according to '/home/saulius/struct/CIF-dictionaries/cif_core.dic'
dictionary named 'cif_core.dic' version 2.4.1 from 2010-06-29.

Automatic conversion script
Id: cif_fix_enum 1527 2010-12-29 10:47:43Z saulius 
;
_cod_database_code               4022764
loop_
_symmetry_equiv_pos_as_xyz
'x, y, z'
'-x, -y, -z'
loop_
_atom_site_label
_atom_site_type_symbol
_atom_site_fract_x
_atom_site_fract_y
_atom_site_fract_z
_atom_site_U_iso_or_equiv
_atom_site_adp_type
_atom_site_occupancy
_atom_site_symmetry_multiplicity
_atom_site_calc_flag
_atom_site_refinement_flags
C1A C 0.7664(4) -0.7303(4) 0.4936(3) 0.0123(6) Uani 1 1 d .
N1 N 0.7916(3) -0.8803(3) 0.4200(2) 0.0136(5) Uani 1 1 d .
O1 O 0.7966(3) -1.0339(3) 0.4697(2) 0.0204(5) Uani 1 1 d .
C2 C 0.8077(4) -0.8575(4) 0.3014(3) 0.0141(6) Uani 1 1 d .
C3 C 0.8038(4) -0.6825(4) 0.2535(3) 0.0144(6) Uani 1 1 d .
N4 N 0.7815(4) -0.5375(3) 0.3196(2) 0.0133(5) Uani 1 1 d .
C4A C 0.7617(4) -0.5609(4) 0.4391(3) 0.0133(6) Uani 1 1 d .
C5 C 0.7320(4) -0.4102(4) 0.5131(3) 0.0161(6) Uani 1 1 d .
H5A H 0.7297 -0.2950 0.4788 0.019 Uiso 1 1 calc R
C6 C 0.7064(4) -0.4276(4) 0.6332(3) 0.0161(6) Uani 1 1 d .
H6A H 0.6849 -0.3257 0.6825 0.019 Uiso 1 1 calc R
C7 C 0.7126(4) -0.5991(4) 0.6818(3) 0.0135(6) Uani 1 1 d .
N7 N 0.6831(3) -0.6187(3) 0.8112(2) 0.0155(5) Uani 1 1 d .
O7 O 0.6048(3) -0.4794(3) 0.8648(2) 0.0219(5) Uani 1 1 d .
O8 O 0.7384(3) -0.7724(3) 0.8582(2) 0.0209(5) Uani 1 1 d .
C8 C 0.7431(4) -0.7517(4) 0.6159(3) 0.0145(6) Uani 1 1 d .
H8A H 0.7481 -0.8665 0.6520 0.017 Uiso 1 1 calc R
C9 C 0.8271(4) -1.0191(4) 0.2279(3) 0.0168(6) Uani 1 1 d .
H9A H 0.8965 -1.1316 0.2737 0.020 Uiso 1 1 calc R
H9B H 0.9020 -1.0109 0.1551 0.020 Uiso 1 1 calc R
Br9 Br 0.57240(4) -1.02959(4) 0.18345(3) 0.02119(12) Uani 1 1 d .
C10 C 0.8198(4) -0.6541(4) 0.1220(3) 0.0179(7) Uani 1 1 d .
H10A H 0.7713 -0.5224 0.1004 0.022 Uiso 1 1 calc R
H10B H 0.7411 -0.7168 0.0798 0.022 Uiso 1 1 calc R
Br10 Br 1.08874(4) -0.75108(4) 0.07345(3) 0.02089(12) Uani 1 1 d .
loop_
_atom_site_aniso_label
_atom_site_aniso_U_11
_atom_site_aniso_U_22
_atom_site_aniso_U_33
_atom_site_aniso_U_23
_atom_site_aniso_U_13
_atom_site_aniso_U_12
C1A 0.0087(15) 0.0152(14) 0.0130(16) -0.0016(11) -0.0025(12) -0.0034(11)
N1 0.0121(13) 0.0116(12) 0.0169(14) 0.0008(10) -0.0022(10) -0.0034(9)
O1 0.0277(13) 0.0132(10) 0.0223(13) 0.0016(9) -0.0009(10) -0.0094(9)
C2 0.0060(15) 0.0207(15) 0.0152(17) -0.0023(12) -0.0008(12) -0.0036(11)
C3 0.0054(14) 0.0212(15) 0.0156(17) 0.0022(12) -0.0011(12) -0.0026(11)
N4 0.0125(13) 0.0158(12) 0.0112(14) 0.0015(10) -0.0027(10) -0.0038(10)
C4A 0.0075(15) 0.0175(14) 0.0149(16) 0.0022(12) -0.0015(12) -0.0042(11)
C5 0.0169(16) 0.0128(14) 0.0195(17) 0.0011(12) -0.0024(13) -0.0059(11)
C6 0.0105(15) 0.0162(14) 0.0215(18) -0.0043(12) -0.0009(13) -0.0039(11)
C7 0.0091(15) 0.0226(15) 0.0094(15) -0.0009(12) -0.0021(12) -0.0057(12)
N7 0.0095(13) 0.0232(14) 0.0146(14) -0.0012(11) -0.0023(11) -0.0059(10)
O7 0.0205(13) 0.0259(12) 0.0175(13) -0.0078(9) 0.0045(10) -0.0035(9)
O8 0.0225(13) 0.0241(11) 0.0158(12) 0.0051(9) -0.0036(10) -0.0072(9)
C8 0.0111(15) 0.0152(14) 0.0175(16) 0.0029(12) -0.0028(12) -0.0045(11)
C9 0.0092(15) 0.0227(15) 0.0178(17) -0.0042(12) 0.0003(13) -0.0033(12)
Br9 0.01459(19) 0.0236(2) 0.0272(2) -0.00508(14) -0.00145(14) -0.00800(13)
C10 0.0114(16) 0.0238(15) 0.0183(17) 0.0004(13) 0.0013(13) -0.0051(12)
Br10 0.01429(19) 0.0277(2) 0.0211(2) -0.00032(13) 0.00420(14) -0.00721(14)
loop_
_atom_type_symbol
_atom_type_description
_atom_type_scat_dispersion_real
_atom_type_scat_dispersion_imag
_atom_type_scat_source
C C 0.0033 0.0016 'International Tables Vol C Tables 4.2.6.8 and 6.1.1.4'
H H 0.0000 0.0000 'International Tables Vol C Tables 4.2.6.8 and 6.1.1.4'
N N 0.0061 0.0033 'International Tables Vol C Tables 4.2.6.8 and 6.1.1.4'
O O 0.0106 0.0060 'International Tables Vol C Tables 4.2.6.8 and 6.1.1.4'
Br Br -0.2901 2.4595 'International Tables Vol C Tables 4.2.6.8 and 6.1.1.4'
loop_
_geom_angle_atom_site_label_1
_geom_angle_atom_site_label_2
_geom_angle_atom_site_label_3
_geom_angle
C8 C1A N1 119.7(2)
C8 C1A C4A 122.1(3)
N1 C1A C4A 118.2(3)
O1 N1 C2 122.6(2)
O1 N1 C1A 118.0(2)
C2 N1 C1A 119.5(2)
N1 C2 C3 118.9(3)
N1 C2 C9 117.0(2)
C3 C2 C9 124.0(3)
N4 C3 C2 123.6(3)
N4 C3 C10 116.6(2)
C2 C3 C10 119.7(3)
C3 N4 C4A 117.1(2)
N4 C4A C1A 122.7(3)
N4 C4A C5 119.4(2)
C1A C4A C5 117.9(3)
C6 C5 C4A 121.0(3)
C6 C5 H5A 119.5
C4A C5 H5A 119.5
C5 C6 C7 118.4(3)
C5 C6 H6A 120.8
C7 C6 H6A 120.8
C8 C7 C6 123.8(3)
C8 C7 N7 117.4(2)
C6 C7 N7 118.8(2)
O7 N7 O8 124.4(3)
O7 N7 C7 117.4(2)
O8 N7 C7 118.2(2)
C7 C8 C1A 116.8(3)
C7 C8 H8A 121.6
C1A C8 H8A 121.6
C2 C9 Br9 109.78(19)
C2 C9 H9A 109.7
Br9 C9 H9A 109.7
C2 C9 H9B 109.7
Br9 C9 H9B 109.7
H9A C9 H9B 108.2
C3 C10 Br10 109.6(2)
C3 C10 H10A 109.8
Br10 C10 H10A 109.8
C3 C10 H10B 109.8
Br10 C10 H10B 109.8
H10A C10 H10B 108.2
loop_
_geom_bond_atom_site_label_1
_geom_bond_atom_site_label_2
_geom_bond_distance
C1A C8 1.392(4)
C1A N1 1.410(4)
C1A C4A 1.413(4)
N1 O1 1.280(3)
N1 C2 1.346(4)
C2 C3 1.426(4)
C2 C9 1.488(4)
C3 N4 1.331(4)
C3 C10 1.494(4)
N4 C4A 1.359(4)
C4A C5 1.413(4)
C5 C6 1.367(4)
C5 H5A 0.9500
C6 C7 1.399(4)
C6 H6A 0.9500
C7 C8 1.371(4)
C7 N7 1.475(4)
N7 O7 1.229(3)
N7 O8 1.231(3)
C8 H8A 0.9500
C9 Br9 1.959(3)
C9 H9A 0.9900
C9 H9B 0.9900
C10 Br10 1.960(3)
C10 H10A 0.9900
C10 H10B 0.9900
loop_
_geom_torsion_atom_site_label_1
_geom_torsion_atom_site_label_2
_geom_torsion_atom_site_label_3
_geom_torsion_atom_site_label_4
_geom_torsion
C8 C1A N1 O1 -1.6(4)
C4A C1A N1 O1 179.7(2)
C8 C1A N1 C2 177.8(3)
C4A C1A N1 C2 -0.9(4)
O1 N1 C2 C3 -179.0(2)
C1A N1 C2 C3 1.6(4)
O1 N1 C2 C9 1.5(4)
C1A N1 C2 C9 -177.9(2)
N1 C2 C3 N4 -1.2(4)
C9 C2 C3 N4 178.2(3)
N1 C2 C3 C10 -179.5(2)
C9 C2 C3 C10 0.0(4)
C2 C3 N4 C4A 0.0(4)
C10 C3 N4 C4A 178.3(2)
C3 N4 C4A C1A 0.8(4)
C3 N4 C4A C5 -178.1(3)
C8 C1A C4A N4 -179.0(3)
N1 C1A C4A N4 -0.3(4)
C8 C1A C4A C5 -0.1(4)
N1 C1A C4A C5 178.5(3)
N4 C4A C5 C6 178.2(3)
C1A C4A C5 C6 -0.7(4)
C4A C5 C6 C7 0.7(4)
C5 C6 C7 C8 0.1(4)
C5 C6 C7 N7 -179.3(3)
C8 C7 N7 O7 -160.3(3)
C6 C7 N7 O7 19.1(4)
C8 C7 N7 O8 19.9(4)
C6 C7 N7 O8 -160.7(3)
C6 C7 C8 C1A -0.8(4)
N7 C7 C8 C1A 178.6(2)
N1 C1A C8 C7 -177.8(3)
C4A C1A C8 C7 0.9(4)
N1 C2 C9 Br9 88.7(3)
C3 C2 C9 Br9 -90.8(3)
N4 C3 C10 Br10 102.9(3)
C2 C3 C10 Br10 -78.7(3)
loop_
_cod_related_entry_id
_cod_related_entry_database
_cod_related_entry_code
1 ChemSpider 17344403
