#------------------------------------------------------------------------------
#$Date: 2017-10-13 14:42:48 +0300 (Fri, 13 Oct 2017) $
#$Revision: 201982 $
#$URL: file:///home/coder/svn-repositories/cod/cif/4/02/23/4022345.cif $
#------------------------------------------------------------------------------
#
# This file is available in the Crystallography Open Database (COD),
# http://www.crystallography.net/
#
# All data on this site have been placed in the public domain by the
# contributors.
#
data_4022345
loop_
_publ_author_name
'Luisa Benati'
'Gianluca Calestani'
'Rino Leardini'
'Matteo Minozzi'
'Daniele Nanni'
'Piero Spagnolo'
'Samantha Strazzari'
'Giuseppe Zanardi'
_publ_contact_author
;
     Prof. Gianluca Calestani
     Universit\',chr(39),'a di Parma')
     Dipartimento di Chimica Generale ed Inorganica
     Chimica Analitica, Chimica Fisica
     Viale delle Scienze 17/A
     I-43100 Parma
     Italy
;
_publ_contact_author_email       calestg@at@ipruniv.cce.unipr.it
_publ_contact_author_fax         '[039]521 905 556'
_publ_contact_author_phone       '[039]521 905 447'
_publ_section_title
;
 Cascade Radical Reactions via \a-(Arylsulfanyl)imidoyl Radicals:
 Competitive [4 + 2] and [4 + 1] Radical Annulations
 of Alkynyl Isothiocyanates with Aryl Radicals
;
_journal_name_full               'Journal of Organic Chemistry'
_journal_page_first              3454
_journal_page_last               3464
_journal_paper_doi               10.1021/jo0267504
_journal_volume                  68
_journal_year                    2003
_chemical_formula_sum            'C22 H15 N O S'
_chemical_formula_weight         341.43
_space_group_IT_number           2
_symmetry_cell_setting           triclinic
_symmetry_space_group_name_Hall  '-P 1'
_symmetry_space_group_name_H-M   'P -1'
_atom_sites_solution_hydrogens   difmap
_atom_sites_solution_primary     direct
_atom_sites_solution_secondary   difmap
_audit_creation_date             04/09/2002
_audit_creation_method           'ModiCIF v1.02'
_cell_angle_alpha                113.26(3)
_cell_angle_beta                 105.57(4)
_cell_angle_gamma                102.19(3)
_cell_formula_units_Z            2.00
_cell_length_a                   10.788(2)
_cell_length_b                   9.720(2)
_cell_length_c                   9.567(1)
_cell_measurement_reflns_used    30
_cell_measurement_temperature    22
_cell_measurement_theta_max      36.1
_cell_measurement_theta_min      24.64
_cell_volume                     828.9(5)
_computing_cell_refinement       'Belletti et al., 1993'
_computing_data_collection       'Belletti, Cantoni & Pasquinelli,1993'
_computing_data_reduction        'DIFAU (Belletti et al.)'
_computing_publication_material  'PARST (Nardelli, 1983)'
_computing_structure_refinement  'SHELXS-93 (Sheldrick, 1993)'
_computing_structure_solution    'SIR97 (Altomare et al., 1998)'
_diffrn_ambient_temperature      22
_diffrn_measurement_device       'Siemens AED'
_diffrn_measurement_method       theta/2theta
_diffrn_radiation_monochromator  graphite
_diffrn_radiation_source         fine-focussealedtube
_diffrn_radiation_type           CuK\a
_diffrn_radiation_wavelength     1.54178
_diffrn_reflns_av_R_equivalents  0.0000
_diffrn_reflns_av_sigmaI/netI    0.0279
_diffrn_reflns_limit_h_max       12
_diffrn_reflns_limit_h_min       -13
_diffrn_reflns_limit_k_max       7
_diffrn_reflns_limit_k_min       -11
_diffrn_reflns_limit_l_max       11
_diffrn_reflns_limit_l_min       0
_diffrn_reflns_number            3138
_diffrn_reflns_theta_max         69.98
_diffrn_reflns_theta_min         4.56
_diffrn_standards_decay_%        .09
_diffrn_standards_interval_count 100
_diffrn_standards_number         3
_exptl_absorpt_coefficient_mu    1.7939
_exptl_absorpt_correction_T_max  1.00
_exptl_absorpt_correction_T_min  0.95
_exptl_absorpt_correction_type   none
_exptl_crystal_colour            red
_exptl_crystal_density_diffrn    1.3680
_exptl_crystal_density_meas      ?
_exptl_crystal_density_method    not_measured
_exptl_crystal_description       prism
_exptl_crystal_F_000             356.0
_exptl_crystal_size_max          .38
_exptl_crystal_size_mid          .14
_exptl_crystal_size_min          .12
_refine_diff_density_max         0.982
_refine_diff_density_min         -0.436
_refine_diff_density_rms         0.076
_refine_ls_extinction_coef       0.0028(17)
_refine_ls_extinction_method     SHELXL
_refine_ls_goodness_of_fit_all   1.067
_refine_ls_goodness_of_fit_obs   1.181
_refine_ls_hydrogen_treatment    not_refined
_refine_ls_matrix_type           full
_refine_ls_number_parameters     242
_refine_ls_number_reflns         2941
_refine_ls_number_restraints     0
_refine_ls_restrained_S_all      1.033
_refine_ls_restrained_S_obs      1.181
_refine_ls_R_factor_all          0.1074
_refine_ls_R_factor_obs          0.0747
_refine_ls_shift/esd_max         0.000
_refine_ls_shift/esd_mean        0.000
_refine_ls_structure_factor_coef Fsqd
_refine_ls_weighting_details
'w=1/[\s^2^(Fo^2^)+(0.1768P)^2^+0.0000P] where P=(Fo^2^+2Fc^2^)/3'
_refine_ls_weighting_scheme      calc
_refine_ls_wR_factor_all         0.2366
_refine_ls_wR_factor_obs         0.2045
_reflns_number_observed          1882
_reflns_number_total             3138
_reflns_threshold_expression     '>2 sigma(I)'
_cod_data_source_file            jo0267504si20021122_042738_5.cif
_cod_data_source_block           dnredome
_cod_depositor_comments
;
The following automatic conversions were performed:

'_exptl_crystal_density_meas' value 'not_measured' was changed to '?'
- the value is perceived as not measured.

Automatic conversion script
Id: cif_fix_values 3008 2015-01-20 13:52:24Z robertas 

The following automatic conversions were performed:

'_refine_ls_weighting_scheme' value 'calc
w=1/[\s^2^(Fo^2^)+(0.1768P)^2^+0.0000P] where P=(Fo^2^+2Fc^2^)/3' was
changed to 'calc'. New tag '_refine_ls_weighting_details' was
created. The value of the new tag was set to
'w=1/[\s^2^(Fo^2^)+(0.1768P)^2^+0.0000P] where P=(Fo^2^+2Fc^2^)/3'.

Automatic conversion script
Id: cif_fix_values 3143 2015-03-26 13:38:13Z robertas 
;
_cod_original_formula_sum        'C22 H15 N1 O1 S1'
_cod_database_code               4022345
loop_
_symmetry_equiv_pos_as_xyz
'x, y, z'
'-x, -y, -z'
loop_
_atom_site_aniso_label
_atom_site_aniso_U_11
_atom_site_aniso_U_22
_atom_site_aniso_U_33
_atom_site_aniso_U_23
_atom_site_aniso_U_13
_atom_site_aniso_U_12
S1 0.0471(5) 0.0796(7) 0.0752(7) 0.0441(5) 0.0338(4) 0.0294(4)
O1 0.0667(17) 0.1038(23) 0.0760(18) 0.0551(17) 0.0333(15) 0.0481(17)
N1 0.0463(15) 0.0658(18) 0.0640(18) 0.0316(15) 0.0288(14) 0.0215(14)
C1 0.0429(17) 0.0536(19) 0.0570(19) 0.0242(16) 0.0223(15) 0.0207(14)
C2 0.0481(19) 0.0651(22) 0.0622(21) 0.0289(18) 0.0257(17) 0.0261(17)
C3 0.0577(20) 0.0574(21) 0.0575(20) 0.0262(17) 0.0237(17) 0.0264(17)
C4 0.0551(20) 0.0645(22) 0.0631(21) 0.0334(18) 0.0273(17) 0.0235(17)
C5 0.0498(19) 0.0573(20) 0.0628(21) 0.0297(17) 0.0273(16) 0.0200(15)
C6 0.0484(18) 0.0481(17) 0.0537(18) 0.0239(15) 0.0241(15) 0.0180(14)
C7 0.0429(17) 0.0499(18) 0.0589(19) 0.0236(15) 0.0285(15) 0.0177(14)
C8 0.0400(16) 0.0517(18) 0.0560(19) 0.0229(16) 0.0208(15) 0.0171(14)
C9 0.0495(18) 0.0553(19) 0.0580(20) 0.0266(16) 0.0255(16) 0.0214(15)
C10 0.0466(18) 0.0677(22) 0.0660(22) 0.0336(19) 0.0246(17) 0.0219(16)
C11 0.0532(20) 0.0721(25) 0.0714(24) 0.0361(20) 0.0245(19) 0.0292(18)
C12 0.0625(23) 0.0680(23) 0.0573(21) 0.0303(19) 0.0179(18) 0.0243(19)
C13 0.0633(22) 0.0652(23) 0.0631(22) 0.0340(19) 0.0337(19) 0.0246(18)
C14 0.0492(18) 0.0534(19) 0.0571(19) 0.0225(16) 0.0271(16) 0.0203(15)
C15 0.0420(17) 0.0570(19) 0.0598(19) 0.0271(16) 0.0268(15) 0.0193(14)
C16 0.0375(16) 0.0624(20) 0.0611(19) 0.0360(17) 0.0234(15) 0.0205(15)
C17 0.0521(21) 0.0677(24) 0.0722(24) 0.0309(20) 0.0319(19) 0.0239(18)
C18 0.0563(22) 0.0794(27) 0.0812(26) 0.0364(23) 0.0380(21) 0.0344(20)
C19 0.0398(17) 0.0811(26) 0.0831(26) 0.0451(22) 0.0297(18) 0.0241(18)
C20 0.0428(19) 0.0670(24) 0.0851(27) 0.0329(22) 0.0226(19) 0.0143(17)
C21 0.0463(18) 0.0587(21) 0.0734(23) 0.0271(18) 0.0270(17) 0.0200(16)
C22 0.0828(34) 0.1310(46) 0.0860(33) 0.0717(34) 0.0385(28) 0.0538(35)
loop_
_atom_site_label
_atom_site_fract_x
_atom_site_fract_y
_atom_site_fract_z
_atom_site_U_iso_or_equiv
_atom_site_thermal_displace_type
_atom_site_aniso_ratio
_atom_site_occupancy
S1 -0.12196(9) 0.2080(1) 0.5837(1) 0.0612(5) aniso 2.23 1.0000
O1 -0.2227(3) 0.3389(4) 0.1243(4) 0.0734(17) aniso 2.20 1.0000
N1 0.0093(3) 0.1366(4) 0.8075(4) 0.0565(15) aniso 1.70 1.0000
C1 -0.0619(3) 0.2600(4) 0.4534(4) 0.0508(16) aniso 1.58 1.0000
C2 -0.1562(4) 0.2830(4) 0.3423(5) 0.0570(17) aniso 1.65 1.0000
C3 -0.1205(4) 0.3212(4) 0.2288(5) 0.0567(18) aniso 1.32 1.0000
C4 0.0107(4) 0.3377(5) 0.2274(5) 0.0585(17) aniso 1.30 1.0000
C5 0.1050(4) 0.3186(4) 0.3400(5) 0.0549(17) aniso 1.43 1.0000
C6 0.0735(3) 0.2791(4) 0.4572(4) 0.0492(16) aniso 1.29 1.0000
C7 0.1764(3) 0.2590(4) 0.5722(4) 0.0493(17) aniso 1.93 1.0000
C8 0.1484(3) 0.2127(4) 0.6818(4) 0.0497(16) aniso 1.59 1.0000
C9 0.2314(4) 0.1788(4) 0.8035(4) 0.0529(17) aniso 1.35 1.0000
C10 0.3655(4) 0.1792(5) 0.8526(5) 0.0587(19) aniso 1.56 1.0000
C11 0.4081(4) 0.1340(5) 0.9720(5) 0.0637(20) aniso 1.55 1.0000
C12 0.3190(4) 0.0849(5) 1.0392(5) 0.0637(19) aniso 1.34 1.0000
C13 0.1846(4) 0.0842(5) 0.9919(5) 0.0603(19) aniso 1.46 1.0000
C14 0.1431(4) 0.1323(4) 0.8752(4) 0.0528(17) aniso 1.59 1.0000
C15 0.0148(3) 0.1819(4) 0.6979(5) 0.0513(16) aniso 1.77 1.0000
C16 0.3200(3) 0.2930(4) 0.5763(4) 0.0499(16) aniso 1.98 1.0000
C17 0.3554(4) 0.1768(5) 0.4733(5) 0.0627(20) aniso 1.74 1.0000
C18 0.4923(4) 0.2100(5) 0.4879(6) 0.0686(20) aniso 2.08 1.0000
C19 0.5910(4) 0.3582(5) 0.6027(5) 0.0642(22) aniso 2.54 1.0000
C20 0.5554(4) 0.4745(5) 0.7021(6) 0.0678(21) aniso 2.17 1.0000
C21 0.4192(4) 0.4426(5) 0.6894(5) 0.0601(18) aniso 1.87 1.0000
C22 -0.1958(6) 0.3693(8) -0.0014(7) 0.0887(32) aniso 2.29 1.0000
H2 -0.2436(4) 0.2728(4) 0.3433(5) 0.084(14) iso 1.00 1.0000
H4 0.0341(4) 0.3616(5) 0.1507(5) 0.071(12) iso 1.00 1.0000
H5 0.1928(4) 0.3320(4) 0.3395(5) 0.102(17) iso 1.00 1.0000
H10 0.4246(4) 0.2091(5) 0.8062(5) 0.078(13) iso 1.00 1.0000
H11 0.4980(4) 0.1363(5) 1.0082(5) 0.069(12) iso 1.00 1.0000
H12 0.3497(4) 0.0519(5) 1.1169(5) 0.063(11) iso 1.00 1.0000
H13 0.1254(4) 0.0526(5) 1.0375(5) 0.094(16) iso 1.00 1.0000
H17 0.2886(4) 0.0769(5) 0.3945(5) 0.098(17) iso 1.00 1.0000
H18 0.5167(4) 0.1313(5) 0.4195(6) 0.078(14) iso 1.00 1.0000
H19 0.6820(4) 0.3792(5) 0.6125(5) 0.069(12) iso 1.00 1.0000
H20 0.6219(4) 0.5753(5) 0.7785(6) 0.121(21) iso 1.00 1.0000
H21 0.3953(4) 0.5222(5) 0.7572(5) 0.073(13) iso 1.00 1.0000
H221 -0.2752(6) 0.3792(8) -0.0659(7) 0.129(22) iso 1.00 1.0000
H222 -0.1760(6) 0.2821(8) -0.0719(7) 0.136(25) iso 1.00 1.0000
H223 -0.1181(6) 0.4671(8) 0.0492(7) 0.147(28) iso 1.00 1.0000
loop_
_atom_type_symbol
_atom_type_description
_atom_type_scat_dispersion_real
_atom_type_scat_dispersion_imag
_atom_type_scat_source
C C 0.0181 0.0091 'International Tables Vol C Tables 4.2.6.8 and 6.1.1.4'
H H 0.0000 0.0000 'International Tables Vol C Tables 4.2.6.8 and 6.1.1.4'
N N 0.0311 0.0180 'International Tables Vol C Tables 4.2.6.8 and 6.1.1.4'
O O 0.0492 0.0322 'International Tables Vol C Tables 4.2.6.8 and 6.1.1.4'
S S 0.3331 0.5567 'International Tables Vol C Tables 4.2.6.8 and 6.1.1.4'
loop_
_geom_angle_atom_site_label_1
_geom_angle_atom_site_label_2
_geom_angle_atom_site_label_3
_geom_angle
_geom_angle_publ_flag
C1 S1 C15 103.5(2) yes
C3 O1 C22 117.8(4) yes
C14 N1 C15 105.0(3) yes
S1 C1 C2 115.2(3) yes
S1 C1 C6 124.0(3) yes
C2 C1 C6 120.9(3) yes
C1 C2 C3 120.2(4) yes
O1 C3 C2 114.8(4) yes
O1 C3 C4 125.0(4) yes
C2 C3 C4 120.2(4) yes
C3 C4 C5 119.5(4) yes
C4 C5 C6 122.4(4) yes
C1 C6 C5 116.8(3) yes
C1 C6 C7 123.1(3) yes
C5 C6 C7 120.1(3) yes
C6 C7 C8 122.1(3) yes
C6 C7 C16 119.7(3) yes
C8 C7 C16 118.1(3) yes
C7 C8 C9 132.3(3) yes
C7 C8 C15 124.6(3) yes
C9 C8 C15 103.1(3) yes
C8 C9 C10 134.8(4) yes
C8 C9 C14 105.3(3) yes
C10 C9 C14 119.9(4) yes
C9 C10 C11 118.2(4) yes
C10 C11 C12 121.3(4) yes
C11 C12 C13 121.2(4) yes
C12 C13 C14 117.4(4) yes
N1 C14 C9 111.9(4) yes
N1 C14 C13 126.1(4) yes
C9 C14 C13 121.9(4) yes
S1 C15 N1 122.6(3) yes
S1 C15 C8 122.6(3) yes
N1 C15 C8 114.8(4) yes
C7 C16 C17 121.3(3) yes
C7 C16 C21 119.0(3) yes
C17 C16 C21 119.6(4) yes
C16 C17 C18 119.6(4) yes
C17 C18 C19 120.4(4) yes
C18 C19 C20 120.0(4) yes
C19 C20 C21 120.2(4) yes
C16 C21 C20 120.2(4) yes
loop_
_geom_bond_atom_site_label_1
_geom_bond_atom_site_label_2
_geom_bond_distance
_geom_bond_publ_flag
S1 C1 1.738(5) yes
S1 C15 1.717(4) yes
O1 C3 1.367(6) yes
O1 C22 1.432(9) yes
N1 C14 1.432(6) yes
N1 C15 1.298(7) yes
C1 C2 1.385(6) yes
C1 C6 1.422(5) yes
C2 C3 1.396(8) yes
C3 C4 1.395(7) yes
C4 C5 1.371(7) yes
C5 C6 1.418(7) yes
C6 C7 1.445(5) yes
C7 C8 1.371(6) yes
C7 C16 1.501(5) yes
C8 C9 1.461(6) yes
C8 C15 1.471(5) yes
C9 C10 1.395(6) yes
C9 C14 1.413(7) yes
C10 C11 1.382(8) yes
C11 C12 1.395(7) yes
C12 C13 1.396(6) yes
C13 C14 1.378(7) yes
C16 C17 1.378(6) yes
C16 C21 1.382(4) yes
C17 C18 1.399(6) yes
C18 C19 1.375(5) yes
C19 C20 1.364(7) yes
C20 C21 1.397(6) yes
loop_
_cod_related_entry_id
_cod_related_entry_database
_cod_related_entry_code
1 ChemSpider 9221278
