#------------------------------------------------------------------------------
#$Date: 2016-03-21 03:42:19 +0200 (Mon, 21 Mar 2016) $
#$Revision: 178439 $
#$URL: svn://www.crystallography.net/cod/cif/4/02/60/4026036.cif $
#------------------------------------------------------------------------------
#
# This file is available in the Crystallography Open Database (COD),
# http://www.crystallography.net/
#
# All data on this site have been placed in the public domain by the
# contributors.
#
data_4026036
loop_
_publ_author_name
'Tula B. Bisol'
'Adailton J. Bortoluzzi'
'Marcus M. S\'a'
_publ_contact_author_address
;
    Depto. de Qu\'imica - UFSC
    88040 - 900 Florian\'opolis, SC
    Brazil
;
_publ_contact_author_email       msa@qmc.ufsc.br
_publ_contact_author_fax         55(48)37216888
_publ_contact_author_name        'Marcus M. S\'a'
_publ_contact_author_phone       55(48)37216844
_publ_section_title
;
 Nucleophilic Ring-Opening of Epoxide and Aziridine Acetates for the
 Stereodivergent Synthesis of \b-Hydroxy and \b-Amino \g-Lactams
;
_journal_name_full               'Journal of Organic Chemistry'
_journal_page_first              948
_journal_page_last               962
_journal_paper_doi               10.1021/jo102267h
_journal_volume                  76
_journal_year                    2011
_chemical_formula_sum            'C6 H11 N O2'
_chemical_formula_weight         129.16
_chemical_name_systematic
;
 ?
;
_space_group_IT_number           14
_symmetry_cell_setting           monoclinic
_symmetry_space_group_name_Hall  '-P 2yn'
_symmetry_space_group_name_H-M   'P 1 21/n 1'
_atom_sites_solution_hydrogens   geom
_atom_sites_solution_primary     direct
_atom_sites_solution_secondary   difmap
_audit_creation_method           'SHELXL97 and manual editing'
_cell_angle_alpha                90.00
_cell_angle_beta                 96.511(9)
_cell_angle_gamma                90.00
_cell_formula_units_Z            4
_cell_length_a                   4.5881(7)
_cell_length_b                   14.0647(9)
_cell_length_c                   10.4202(6)
_cell_measurement_reflns_used    25
_cell_measurement_temperature    293(2)
_cell_measurement_theta_max      13.62
_cell_measurement_theta_min      6.58
_cell_volume                     668.08(12)
_computing_structure_refinement  'SHELXL-97 (Sheldrick, 2008)'
_diffrn_ambient_temperature      293(2)
_diffrn_measured_fraction_theta_full 0.997
_diffrn_measured_fraction_theta_max 0.997
_diffrn_measurement_method       \w--2\q
_diffrn_radiation_monochromator  graphite
_diffrn_radiation_source         'fine-focus sealed tube'
_diffrn_radiation_type           MoK\a
_diffrn_radiation_wavelength     0.71069
_diffrn_reflns_av_R_equivalents  0.0212
_diffrn_reflns_av_sigmaI/netI    0.0234
_diffrn_reflns_limit_h_max       5
_diffrn_reflns_limit_h_min       -5
_diffrn_reflns_limit_k_max       0
_diffrn_reflns_limit_k_min       -17
_diffrn_reflns_limit_l_max       0
_diffrn_reflns_limit_l_min       -13
_diffrn_reflns_number            1514
_diffrn_reflns_theta_full        26.96
_diffrn_reflns_theta_max         26.96
_diffrn_reflns_theta_min         2.44
_diffrn_standards_decay_%        1
_diffrn_standards_interval_count 200
_diffrn_standards_number         3
_exptl_absorpt_coefficient_mu    0.096
_exptl_absorpt_correction_type   none
_exptl_crystal_colour            colorless
_exptl_crystal_density_diffrn    1.284
_exptl_crystal_description       prism
_exptl_crystal_F_000             280
_exptl_crystal_size_max          0.50
_exptl_crystal_size_mid          0.30
_exptl_crystal_size_min          0.16
_refine_diff_density_max         0.222
_refine_diff_density_min         -0.151
_refine_diff_density_rms         0.035
_refine_ls_extinction_method     none
_refine_ls_goodness_of_fit_ref   1.024
_refine_ls_hydrogen_treatment    constr
_refine_ls_matrix_type           full
_refine_ls_number_parameters     82
_refine_ls_number_reflns         1443
_refine_ls_number_restraints     0
_refine_ls_restrained_S_all      1.024
_refine_ls_R_factor_all          0.0539
_refine_ls_R_factor_gt           0.0384
_refine_ls_shift/su_max          0.000
_refine_ls_shift/su_mean         0.000
_refine_ls_structure_factor_coef Fsqd
_refine_ls_weighting_details
'calc w=1/[\s^2^(Fo^2^)+(0.0491P)^2^+0.1820P] where P=(Fo^2^+2Fc^2^)/3'
_refine_ls_weighting_scheme      calc
_refine_ls_wR_factor_gt          0.0983
_refine_ls_wR_factor_ref         0.1052
_reflns_number_gt                1178
_reflns_number_total             1443
_reflns_threshold_expression     >2\s(I)
_cod_data_source_file            jo102267h_si_004.cif
_cod_data_source_block           10b_anti
_cod_original_sg_symbol_H-M      'P 21/n'
_cod_database_code               4026036
loop_
_symmetry_equiv_pos_as_xyz
'x, y, z'
'-x+1/2, y+1/2, -z+1/2'
'-x, -y, -z'
'x-1/2, -y-1/2, z-1/2'
loop_
_atom_site_label
_atom_site_type_symbol
_atom_site_fract_x
_atom_site_fract_y
_atom_site_fract_z
_atom_site_U_iso_or_equiv
_atom_site_adp_type
_atom_site_occupancy
_atom_site_symmetry_multiplicity
_atom_site_calc_flag
_atom_site_refinement_flags
C1 C 0.7932(3) 0.13088(9) 0.50038(12) 0.0325(3) Uani 1 1 d .
C2 C 0.6319(3) 0.22076(10) 0.52668(14) 0.0396(3) Uani 1 1 d .
H2A H 0.4455 0.2244 0.4727 0.047 Uiso 1 1 calc R
H2B H 0.7477 0.2765 0.5115 0.047 Uiso 1 1 calc R
C3 C 0.5865(3) 0.21247(9) 0.66876(13) 0.0328(3) Uani 1 1 d .
H3 H 0.7532 0.2414 0.7218 0.039 Uiso 1 1 calc R
C4 C 0.5862(3) 0.10463(9) 0.69309(12) 0.0316(3) Uani 1 1 d .
H4 H 0.3856 0.0805 0.6744 0.038 Uiso 1 1 calc R
C5 C 0.7077(4) 0.07499(11) 0.82835(13) 0.0428(4) Uani 1 1 d .
H5A H 0.9126 0.0933 0.8430 0.051 Uiso 1 1 calc R
H5B H 0.6039 0.1094 0.8899 0.051 Uiso 1 1 calc R
C6 C 0.6834(5) -0.03050(12) 0.85391(17) 0.0593(5) Uani 1 1 d .
H6A H 0.7642 -0.0441 0.9410 0.089 Uiso 1 1 calc R
H6B H 0.7899 -0.0652 0.7950 0.089 Uiso 1 1 calc R
H6C H 0.4808 -0.0491 0.8419 0.089 Uiso 1 1 calc R
N1 N 0.7639(2) 0.06935(8) 0.59483(10) 0.0324(3) Uani 1 1 d .
H1 H 0.8399 0.0131 0.5919 0.039 Uiso 1 1 d R
O1 O 0.9317(2) 0.11586(7) 0.40630(9) 0.0457(3) Uani 1 1 d .
O3 O 0.3227(2) 0.25538(8) 0.69826(11) 0.0481(3) Uani 1 1 d .
H3O H 0.3593 0.2980 0.7649 0.058 Uiso 1 1 d R
loop_
_atom_site_aniso_label
_atom_site_aniso_U_11
_atom_site_aniso_U_22
_atom_site_aniso_U_33
_atom_site_aniso_U_23
_atom_site_aniso_U_13
_atom_site_aniso_U_12
C1 0.0377(7) 0.0295(6) 0.0314(6) -0.0005(5) 0.0084(5) 0.0008(5)
C2 0.0480(8) 0.0325(7) 0.0400(7) 0.0041(6) 0.0130(6) 0.0078(6)
C3 0.0313(7) 0.0304(6) 0.0377(7) -0.0044(5) 0.0086(5) 0.0023(5)
C4 0.0318(6) 0.0306(6) 0.0339(7) -0.0040(5) 0.0112(5) -0.0019(5)
C5 0.0570(9) 0.0409(8) 0.0324(7) -0.0004(6) 0.0130(6) 0.0013(7)
C6 0.0900(14) 0.0449(9) 0.0465(9) 0.0085(7) 0.0223(9) 0.0045(9)
N1 0.0418(6) 0.0257(5) 0.0316(6) -0.0011(4) 0.0123(5) 0.0044(4)
O1 0.0647(7) 0.0390(6) 0.0379(5) 0.0044(4) 0.0253(5) 0.0103(5)
O3 0.0382(6) 0.0480(6) 0.0598(7) -0.0164(5) 0.0130(5) 0.0087(5)
loop_
_atom_type_symbol
_atom_type_description
_atom_type_scat_dispersion_real
_atom_type_scat_dispersion_imag
_atom_type_scat_source
C C 0.0033 0.0016 'International Tables Vol C Tables 4.2.6.8 and 6.1.1.4'
H H 0.0000 0.0000 'International Tables Vol C Tables 4.2.6.8 and 6.1.1.4'
N N 0.0061 0.0033 'International Tables Vol C Tables 4.2.6.8 and 6.1.1.4'
O O 0.0106 0.0060 'International Tables Vol C Tables 4.2.6.8 and 6.1.1.4'
loop_
_geom_angle_atom_site_label_1
_geom_angle_atom_site_label_2
_geom_angle_atom_site_label_3
_geom_angle
O1 C1 N1 125.18(12)
O1 C1 C2 126.23(12)
N1 C1 C2 108.59(11)
C1 C2 C3 103.71(11)
O3 C3 C2 113.11(11)
O3 C3 C4 111.57(11)
C2 C3 C4 103.80(10)
N1 C4 C5 112.45(11)
N1 C4 C3 102.00(10)
C5 C4 C3 114.70(11)
C6 C5 C4 114.02(13)
C1 N1 C4 114.07(11)
loop_
_geom_bond_atom_site_label_1
_geom_bond_atom_site_label_2
_geom_bond_distance
C1 O1 1.2454(15)
C1 N1 1.3288(17)
C1 C2 1.5056(18)
C2 C3 1.5227(19)
C3 O3 1.4170(16)
C3 C4 1.5377(18)
C4 N1 1.4657(16)
C4 C5 1.5141(19)
C5 C6 1.514(2)
loop_
_geom_hbond_atom_site_label_D
_geom_hbond_atom_site_label_H
_geom_hbond_atom_site_label_A
_geom_hbond_distance_DH
_geom_hbond_distance_HA
_geom_hbond_distance_DA
_geom_hbond_angle_DHA
_geom_hbond_site_symmetry_A
_geom_hbond_publ_flag
N1 H1 O1 0.87 2.09 2.9563(15) 174 3_756 y
O3 H3O O1 0.92 1.91 2.8255(15) 178 4_566 y
