#------------------------------------------------------------------------------
#$Date: 2016-03-21 03:42:19 +0200 (Mon, 21 Mar 2016) $
#$Revision: 178439 $
#$URL: svn://www.crystallography.net/cod/cif/4/02/60/4026009.cif $
#------------------------------------------------------------------------------
#
# This file is available in the Crystallography Open Database (COD),
# http://www.crystallography.net/
#
# All data on this site have been placed in the public domain by the
# contributors.
#
data_4026009
loop_
_publ_author_name
'Claudia J. Exner'
'Sylvain Laclef'
'Florent Poli'
'Maris Turks'
'Pierre Vogel'
_publ_section_title
;
 Total Asymmetric Syntheses of \b-Hydroxy-\d-lactones via Umpolung with
 Sulfur Dioxide
;
_journal_name_full               'Journal of Organic Chemistry'
_journal_page_first              840
_journal_page_last               845
_journal_paper_doi               10.1021/jo102035d
_journal_volume                  76
_journal_year                    2011
_chemical_absolute_configuration syn
_chemical_formula_moiety         'C9 H16 O3'
_chemical_formula_sum            'C9 H16 O3'
_chemical_formula_weight         172.22
_chemical_name_systematic
; 
 ? 
;
_space_group_IT_number           4
_symmetry_cell_setting           monoclinic
_symmetry_space_group_name_Hall  'P 2yb'
_symmetry_space_group_name_H-M   'P 1 21 1'
_atom_sites_solution_hydrogens   geom
_atom_sites_solution_primary     direct
_atom_sites_solution_secondary   difmap
_audit_creation_method           SHELXL-97
_cell_angle_alpha                90.00
_cell_angle_beta                 100.92(6)
_cell_angle_gamma                90.00
_cell_formula_units_Z            2
_cell_length_a                   4.751(3)
_cell_length_b                   11.952(5)
_cell_length_c                   8.898(5)
_cell_measurement_reflns_used    1047
_cell_measurement_temperature    140(2)
_cell_measurement_theta_max      26.0241
_cell_measurement_theta_min      2.8607
_cell_volume                     496.1(5)
_computing_cell_refinement
; 
CrysAlisPro, Oxford Diffraction Ltd., 
Version 1.171.33.41 (release 06-05-2009 CrysAlis171 .NET) 
(compiled May  6 2009,17:20:42) 
;
_computing_data_collection
; 
CrysAlisPro, Oxford Diffraction Ltd., 
Version 1.171.33.41 (release 06-05-2009 CrysAlis171 .NET) 
(compiled May  6 2009,17:20:42) 
;
_computing_data_reduction
; 
CrysAlisPro, Oxford Diffraction Ltd., 
Version 1.171.33.41 (release 06-05-2009 CrysAlis171 .NET) 
(compiled May  6 2009,17:20:42) 
;
_computing_molecular_graphics    'Bruker SHELXTL'
_computing_publication_material  'Bruker SHELXTL'
_computing_structure_refinement  'SHELXL-97 (Sheldrick, 1997)'
_computing_structure_solution    'SHELXS-97 (Sheldrick, 1990)'
_diffrn_ambient_temperature      140(2)
_diffrn_detector_area_resol_mean 8.2812
_diffrn_measured_fraction_theta_full 0.989
_diffrn_measured_fraction_theta_max 0.989
_diffrn_measurement_device_type  'Oxford Diffraction, KM4/Sapphire CCD'
_diffrn_measurement_method       'phi and omega scans'
_diffrn_radiation_monochromator  graphite
_diffrn_radiation_source         'fine-focus sealed tube'
_diffrn_radiation_type           MoK\a
_diffrn_radiation_wavelength     0.71073
_diffrn_reflns_av_R_equivalents  0.0540
_diffrn_reflns_av_sigmaI/netI    0.0887
_diffrn_reflns_limit_h_max       5
_diffrn_reflns_limit_h_min       -5
_diffrn_reflns_limit_k_max       14
_diffrn_reflns_limit_k_min       -12
_diffrn_reflns_limit_l_max       9
_diffrn_reflns_limit_l_min       -10
_diffrn_reflns_number            2937
_diffrn_reflns_theta_full        24.99
_diffrn_reflns_theta_max         24.99
_diffrn_reflns_theta_min         2.89
_exptl_absorpt_coefficient_mu    0.085
_exptl_absorpt_correction_T_max  1.00000
_exptl_absorpt_correction_T_min  0.38216
_exptl_absorpt_correction_type   multi-scan
_exptl_absorpt_process_details
; 
CrysAlisPro, Oxford Diffraction Ltd., 
Version 1.171.33.41 (release 06-05-2009 CrysAlis171 .NET) 
(compiled May  6 2009,17:20:42) 
empirical absorption correction using spherical harmonics, 
 implemented in SCALE3 ABSPACK scaling algorithm. 
;
_exptl_crystal_colour            orange
_exptl_crystal_density_diffrn    1.153
_exptl_crystal_description       prismatic
_exptl_crystal_F_000             188
_exptl_crystal_size_max          0.20
_exptl_crystal_size_mid          0.16
_exptl_crystal_size_min          0.11
_refine_diff_density_max         0.288
_refine_diff_density_min         -0.230
_refine_diff_density_rms         0.053
_refine_ls_abs_structure_details 'Flack H D (1983), Acta Cryst. A39, 876-881'
_refine_ls_abs_structure_Flack   2(3)
_refine_ls_extinction_method     none
_refine_ls_goodness_of_fit_ref   1.015
_refine_ls_hydrogen_treatment    constr
_refine_ls_matrix_type           full
_refine_ls_number_parameters     109
_refine_ls_number_reflns         1472
_refine_ls_number_restraints     1
_refine_ls_restrained_S_all      1.015
_refine_ls_R_factor_all          0.1124
_refine_ls_R_factor_gt           0.0729
_refine_ls_shift/su_max          0.000
_refine_ls_shift/su_mean         0.000
_refine_ls_structure_factor_coef Fsqd
_refine_ls_weighting_details
'calc w=1/[\s^2^(Fo^2^)+(0.0783P)^2^+0.0000P] where P=(Fo^2^+2Fc^2^)/3'
_refine_ls_weighting_scheme      calc
_refine_ls_wR_factor_gt          0.1418
_refine_ls_wR_factor_ref         0.1565
_reflns_number_gt                990
_reflns_number_total             1472
_reflns_threshold_expression     >2sigma(I)
_cod_data_source_file            jo102035d_si_002.cif
_cod_data_source_block           ce735
_cod_original_cell_volume        496.1(4)
_cod_original_sg_symbol_H-M      'P 21'
_cod_database_code               4026009
loop_
_symmetry_equiv_pos_as_xyz
'x, y, z'
'-x, y+1/2, -z'
loop_
_atom_site_label
_atom_site_type_symbol
_atom_site_fract_x
_atom_site_fract_y
_atom_site_fract_z
_atom_site_U_iso_or_equiv
_atom_site_adp_type
_atom_site_occupancy
_atom_site_symmetry_multiplicity
_atom_site_calc_flag
_atom_site_refinement_flags
O1 O 0.6227(7) 0.3496(3) 0.3971(4) 0.0409(10) Uani 1 1 d .
O2 O 0.5870(7) 0.5947(3) 0.4938(4) 0.0452(10) Uani 1 1 d .
H2 H 0.5599 0.6536 0.4415 0.068 Uiso 1 1 calc R
O3 O 0.5685(8) 0.3092(3) 0.6285(4) 0.0449(11) Uani 1 1 d .
C1 C 0.7165(12) 0.4205(4) 0.2813(6) 0.0369(14) Uani 1 1 d .
H1 H 0.5405 0.4559 0.2204 0.044 Uiso 1 1 calc R
C2 C 0.9220(11) 0.5154(4) 0.3423(6) 0.0363(14) Uani 1 1 d .
H2A H 1.1218 0.4854 0.3576 0.044 Uiso 1 1 calc R
C3 C 0.8681(10) 0.5553(4) 0.4965(6) 0.0348(13) Uani 1 1 d .
H3 H 1.0083 0.6157 0.5361 0.042 Uiso 1 1 calc R
C4 C 0.9058(11) 0.4584(4) 0.6091(6) 0.0365(13) Uani 1 1 d .
H4 H 1.0991 0.4256 0.6082 0.044 Uiso 1 1 calc R
C5 C 0.6823(11) 0.3675(3) 0.5445(6) 0.0300(12) Uani 1 1 d .
C6 C 0.8356(11) 0.3432(4) 0.1743(6) 0.0419(14) Uani 1 1 d .
H6A H 0.9945 0.2994 0.2347 0.050 Uiso 1 1 calc R
H6B H 0.9167 0.3892 0.1003 0.050 Uiso 1 1 calc R
C7 C 0.6156(13) 0.2618(5) 0.0851(7) 0.0594(18) Uani 1 1 d .
H7A H 0.5300 0.2172 0.1571 0.089 Uiso 1 1 calc R
H7B H 0.7111 0.2122 0.0229 0.089 Uiso 1 1 calc R
H7C H 0.4651 0.3042 0.0183 0.089 Uiso 1 1 calc R
C8 C 0.8965(13) 0.6106(4) 0.2238(7) 0.0500(16) Uani 1 1 d .
H8A H 0.7098 0.6473 0.2158 0.075 Uiso 1 1 calc R
H8B H 0.9137 0.5797 0.1239 0.075 Uiso 1 1 calc R
H8C H 1.0496 0.6653 0.2562 0.075 Uiso 1 1 calc R
C9 C 0.8968(14) 0.4862(5) 0.7740(7) 0.0518(17) Uani 1 1 d .
H9A H 1.0399 0.5438 0.8109 0.078 Uiso 1 1 calc R
H9B H 0.9389 0.4187 0.8369 0.078 Uiso 1 1 calc R
H9C H 0.7056 0.5139 0.7811 0.078 Uiso 1 1 calc R
loop_
_atom_site_aniso_label
_atom_site_aniso_U_11
_atom_site_aniso_U_22
_atom_site_aniso_U_33
_atom_site_aniso_U_23
_atom_site_aniso_U_13
_atom_site_aniso_U_12
O1 0.051(3) 0.0281(19) 0.045(2) -0.0051(19) 0.012(2) -0.0055(16)
O2 0.046(3) 0.0208(17) 0.069(3) 0.0031(17) 0.011(2) 0.0061(16)
O3 0.057(3) 0.031(2) 0.049(2) 0.0011(19) 0.016(2) -0.0021(18)
C1 0.040(3) 0.034(3) 0.040(3) 0.005(3) 0.015(3) 0.000(2)
C2 0.032(3) 0.036(3) 0.039(3) 0.000(3) 0.002(3) -0.004(2)
C3 0.025(3) 0.027(3) 0.048(3) 0.003(2) -0.003(3) -0.004(2)
C4 0.025(3) 0.046(3) 0.033(3) 0.005(3) -0.011(3) -0.001(3)
C5 0.039(3) 0.016(2) 0.040(3) -0.001(2) 0.021(3) 0.005(2)
C6 0.041(3) 0.039(3) 0.044(3) 0.001(3) 0.003(3) 0.001(3)
C7 0.066(5) 0.051(4) 0.059(4) -0.015(3) 0.005(4) -0.005(3)
C8 0.065(4) 0.033(3) 0.054(4) 0.007(3) 0.017(3) -0.015(3)
C9 0.077(5) 0.036(3) 0.038(4) -0.003(3) 0.001(3) -0.018(3)
loop_
_atom_type_symbol
_atom_type_description
_atom_type_scat_dispersion_real
_atom_type_scat_dispersion_imag
_atom_type_scat_source
C C 0.0033 0.0016 'International Tables Vol C Tables 4.2.6.8 and 6.1.1.4'
H H 0.0000 0.0000 'International Tables Vol C Tables 4.2.6.8 and 6.1.1.4'
O O 0.0106 0.0060 'International Tables Vol C Tables 4.2.6.8 and 6.1.1.4'
loop_
_geom_angle_atom_site_label_1
_geom_angle_atom_site_label_2
_geom_angle_atom_site_label_3
_geom_angle
C5 O1 C1 125.0(4)
C3 O2 H2 109.5
O1 C1 C6 106.8(4)
O1 C1 C2 116.0(4)
C6 C1 C2 112.8(4)
O1 C1 H1 106.9
C6 C1 H1 106.9
C2 C1 H1 106.9
C3 C2 C1 110.4(4)
C3 C2 C8 112.4(4)
C1 C2 C8 110.0(4)
C3 C2 H2A 107.9
C1 C2 H2A 107.9
C8 C2 H2A 107.9
O2 C3 C2 114.2(4)
O2 C3 C4 104.9(4)
C2 C3 C4 109.7(4)
O2 C3 H3 109.3
C2 C3 H3 109.3
C4 C3 H3 109.3
C9 C4 C3 116.8(4)
C9 C4 C5 111.7(4)
C3 C4 C5 107.6(4)
C9 C4 H4 106.7
C3 C4 H4 106.7
C5 C4 H4 106.7
O3 C5 O1 119.0(4)
O3 C5 C4 121.6(5)
O1 C5 C4 119.3(4)
C1 C6 C7 114.4(5)
C1 C6 H6A 108.7
C7 C6 H6A 108.7
C1 C6 H6B 108.7
C7 C6 H6B 108.7
H6A C6 H6B 107.6
C6 C7 H7A 109.5
C6 C7 H7B 109.5
H7A C7 H7B 109.5
C6 C7 H7C 109.5
H7A C7 H7C 109.5
H7B C7 H7C 109.5
C2 C8 H8A 109.5
C2 C8 H8B 109.5
H8A C8 H8B 109.5
C2 C8 H8C 109.5
H8A C8 H8C 109.5
H8B C8 H8C 109.5
C4 C9 H9A 109.5
C4 C9 H9B 109.5
H9A C9 H9B 109.5
C4 C9 H9C 109.5
H9A C9 H9C 109.5
H9B C9 H9C 109.5
loop_
_geom_bond_atom_site_label_1
_geom_bond_atom_site_label_2
_geom_bond_distance
O1 C5 1.306(6)
O1 C1 1.467(6)
O2 C3 1.412(6)
O2 H2 0.8400
O3 C5 1.221(5)
C1 C6 1.511(7)
C1 C2 1.528(7)
C1 H1 1.0000
C2 C3 1.519(7)
C2 C8 1.540(7)
C2 H2A 1.0000
C3 C4 1.520(7)
C3 H3 1.0000
C4 C9 1.513(7)
C4 C5 1.551(7)
C4 H4 1.0000
C6 C7 1.535(7)
C6 H6A 0.9900
C6 H6B 0.9900
C7 H7A 0.9800
C7 H7B 0.9800
C7 H7C 0.9800
C8 H8A 0.9800
C8 H8B 0.9800
C8 H8C 0.9800
C9 H9A 0.9800
C9 H9B 0.9800
C9 H9C 0.9800
loop_
_geom_hbond_atom_site_label_D
_geom_hbond_atom_site_label_H
_geom_hbond_atom_site_label_A
_geom_hbond_distance_DH
_geom_hbond_distance_HA
_geom_hbond_distance_DA
_geom_hbond_angle_DHA
_geom_hbond_site_symmetry_A
O2 H2 O3 0.84 2.02 2.828(5) 162.0 2_656
loop_
_geom_torsion_atom_site_label_1
_geom_torsion_atom_site_label_2
_geom_torsion_atom_site_label_3
_geom_torsion_atom_site_label_4
_geom_torsion
C5 O1 C1 C6 132.7(4)
C5 O1 C1 C2 6.0(7)
O1 C1 C2 C3 -29.9(6)
C6 C1 C2 C3 -153.4(4)
O1 C1 C2 C8 -154.5(4)
C6 C1 C2 C8 81.9(6)
C1 C2 C3 O2 -59.0(5)
C8 C2 C3 O2 64.3(5)
C1 C2 C3 C4 58.5(5)
C8 C2 C3 C4 -178.2(4)
O2 C3 C4 C9 -64.3(6)
C2 C3 C4 C9 172.5(5)
O2 C3 C4 C5 62.2(5)
C2 C3 C4 C5 -61.0(5)
C1 O1 C5 O3 172.7(4)
C1 O1 C5 C4 -10.2(7)
C9 C4 C5 O3 -16.2(6)
C3 C4 C5 O3 -145.6(5)
C9 C4 C5 O1 166.7(4)
C3 C4 C5 O1 37.3(6)
O1 C1 C6 C7 63.4(6)
C2 C1 C6 C7 -168.0(5)
