#------------------------------------------------------------------------------
#$Date: 2016-02-16 22:30:59 +0200 (Tue, 16 Feb 2016) $
#$Revision: 176467 $
#$URL: svn://www.crystallography.net/cod/cif/4/02/65/4026514.cif $
#------------------------------------------------------------------------------
#
# This file is available in the Crystallography Open Database (COD),
# http://www.crystallography.net/
#
# All data on this site have been placed in the public domain by the
# contributors.
#
data_4026514
loop_
_publ_author_name
'Martin \<Stefko'
'Lenka Slav\<et\'insk\'a'
'Blanka Klepet\'a\<rov\'a'
'Michal Hocek'
_publ_contact_author_address
;Institute of Organic Chemistry and Biochemistry
Academy of Sciences of the Czech Republic
Flemingovo nam. 2
16010 Prague 6
Czech Republic
;
_publ_contact_author_email       hocek@uochb.cas.cz
_publ_contact_author_fax         '+420 220183559'
_publ_contact_author_name        'Hocek Michal'
_publ_contact_author_phone       '+420 220183324'
_publ_section_title
;
 General and Modular Synthesis of Isomeric 5-Substituted Pyridin-2-yl and
 6-Substituted Pyridin-3-yl C-Ribonucleosides Bearing Diverse Alkyl, Aryl,
 Hetaryl, Amino, Carbamoyl, and Hydroxy Groups
;
_journal_name_full               'Journal of Organic Chemistry'
_journal_page_first              6619
_journal_page_last               6635
_journal_paper_doi               10.1021/jo200949c
_journal_volume                  76
_journal_year                    2011
_chemical_absolute_configuration ad
_chemical_formula_moiety         'C11 H15 N1 O4'
_chemical_formula_sum            'C11 H15 N O4'
_chemical_formula_weight         225.24
_chemical_name_systematic
1\b-(5-Methylpyridin-2-yl)-1-deoxy-D-ribofuranose
_space_group_IT_number           4
_symmetry_cell_setting           monoclinic
_symmetry_Int_Tables_number      4
_symmetry_space_group_name_Hall  'P 2yb'
_symmetry_space_group_name_H-M   'P 1 21 1'
_atom_sites_solution_hydrogens   geom
_atom_sites_solution_primary     direct
_cell_angle_alpha                90
_cell_angle_beta                 97.824(2)
_cell_angle_gamma                90
_cell_formula_units_Z            2
_cell_length_a                   5.03627(13)
_cell_length_b                   10.7538(3)
_cell_length_c                   10.1690(3)
_cell_measurement_reflns_used    3629
_cell_measurement_temperature    150
_cell_measurement_theta_max      77
_cell_measurement_theta_min      4
_cell_volume                     545.62(3)
_computing_cell_refinement       'CrysAlis RED, (Oxford Diffraction, 2002)'
_computing_data_collection       'Xcalibur, (Oxford Diffraction, 2002)'
_computing_data_reduction        'CrysAlis RED, (Oxford Diffraction, 2002)'
_computing_molecular_graphics    'CAMERON (Watkin et al., 1996)'
_computing_publication_material  'CRYSTALS (Betteridge et al., 2003)'
_computing_structure_refinement  'CRYSTALS (Betteridge et al., 2003)'
_computing_structure_solution    'SIR92 (Altomare et al., 1994)'
_diffrn_ambient_temperature      150
_diffrn_measured_fraction_theta_full 0.996
_diffrn_measured_fraction_theta_max 0.983
_diffrn_measurement_device       Area
_diffrn_measurement_device_type  'Oxford Diffraction XCALIBUR'
_diffrn_measurement_method       '\f & \w scans'
_diffrn_radiation_monochromator  graphite
_diffrn_radiation_probe          x-ray
_diffrn_radiation_type           'Cu K\a'
_diffrn_radiation_wavelength     1.54184
_diffrn_reflns_av_R_equivalents  0.024
_diffrn_reflns_limit_h_max       6
_diffrn_reflns_limit_h_min       -6
_diffrn_reflns_limit_k_max       13
_diffrn_reflns_limit_k_min       -13
_diffrn_reflns_limit_l_max       12
_diffrn_reflns_limit_l_min       -11
_diffrn_reflns_number            4227
_diffrn_reflns_theta_full        75.417
_diffrn_reflns_theta_max         77.750
_diffrn_reflns_theta_min         4.389
_diffrn_standards_number         0
_exptl_absorpt_coefficient_mu    0.875
_exptl_absorpt_correction_T_max  0.97
_exptl_absorpt_correction_T_min  0.67
_exptl_absorpt_correction_type   analytical
_exptl_absorpt_process_details
; 
 Analytical Absorption (De Meulenaer & Tompa, 1965) 
;
_exptl_crystal_colour            colourless
_exptl_crystal_density_diffrn    1.371
_exptl_crystal_description       plate
_exptl_crystal_F_000             240
_exptl_crystal_size_max          0.690
_exptl_crystal_size_mid          0.440
_exptl_crystal_size_min          0.040
_refine_diff_density_max         0.17
_refine_diff_density_min         -0.24
_refine_ls_abs_structure_details 'Flack (1983), 0 Friedel-pairs'
_refine_ls_abs_structure_Flack   0.07(18)
_refine_ls_extinction_method     none
_refine_ls_goodness_of_fit_ref   1.0250
_refine_ls_hydrogen_treatment    constr
_refine_ls_matrix_type           full
_refine_ls_number_parameters     146
_refine_ls_number_reflns         2110
_refine_ls_number_restraints     1
_refine_ls_R_factor_all          0.0413
_refine_ls_R_factor_gt           0.0395
_refine_ls_shift/su_max          0.0001571
_refine_ls_shift/su_mean         0.0001903
_refine_ls_structure_factor_coef F
_refine_ls_weighting_details
;
 Method, part 1, Chebychev polynomial, (Watkin, 1994, Prince, 1982) 
 [weight] = 1.0/[A~0~*T~0~(x)+A~1~*T~1~(x) ... +A~n-1~]*T~n-1~(x)] 
 where A~i~ are the Chebychev coefficients listed below and x= Fcalc/Fmax 
 Method = Robust Weighting (Prince, 1982) 
 W = [weight] * [1-(deltaF/6*sigmaF)^2^]^2^ 
 A~i~ are: 
 7.78 1.55 5.34 
;
_refine_ls_weighting_scheme      calc
_refine_ls_wR_factor_all         0.0509
_refine_ls_wR_factor_gt          0.0475
_refine_ls_wR_factor_ref         0.0475
_reflns_limit_h_max              6
_reflns_limit_h_min              -6
_reflns_limit_k_max              13
_reflns_limit_k_min              -13
_reflns_limit_l_max              12
_reflns_limit_l_min              0
_reflns_number_gt                2110
_reflns_number_total             2208
_reflns_threshold_expression     I>2.0\s(I)
_oxford_diffrn_Wilson_B_factor   2.60
_oxford_diffrn_Wilson_scale      0.01
_oxford_refine_ls_r_factor_ref   0.0395
_oxford_refine_ls_scale          12.02(3)
_oxford_reflns_number_all        2208
_oxford_reflns_threshold_expression_ref I>2.0\s(I)
_cod_data_source_file            jo200949c_si_002.cif
_cod_data_source_block           1
_cod_original_cell_volume        545.62(2)
_cod_original_sg_symbol_H-M      'P 21'
_cod_original_formula_sum        'C11 H15 N1 O4'
_cod_database_code               4026514
loop_
_symmetry_equiv_pos_as_xyz
x,y,z
-x,y+1/2,-z
loop_
_atom_site_label
_atom_site_type_symbol
_atom_site_fract_x
_atom_site_fract_y
_atom_site_fract_z
_atom_site_U_iso_or_equiv
_atom_site_occupancy
_atom_site_adp_type
_atom_site_refinement_flags_posn
C1 C 0.6748(3) 0.52317(17) 0.69041(17) 0.0243 1.0000 Uani .
C2 C 0.7438(3) 0.47271(17) 0.55657(16) 0.0238 1.0000 Uani .
C3 C 0.6050(3) 0.34577(17) 0.54779(16) 0.0245 1.0000 Uani .
C4 C 0.6481(3) 0.30378(17) 0.69193(17) 0.0242 1.0000 Uani .
C5 C 0.9113(4) 0.23498(19) 0.73067(18) 0.0281 1.0000 Uani .
O6 O 0.6493(3) 0.41591(14) 0.77064(12) 0.0298 1.0000 Uani .
O7 O 0.8859(3) 0.11416(14) 0.67197(15) 0.0359 1.0000 Uani .
O8 O 0.3290(2) 0.36555(14) 0.50182(13) 0.0290 1.0000 Uani .
O9 O 0.6634(3) 0.55121(14) 0.44637(12) 0.0295 1.0000 Uani .
C10 C 0.8875(3) 0.60897(17) 0.75896(17) 0.0248 1.0000 Uani .
N11 N 0.9023(3) 0.72133(16) 0.70419(15) 0.0281 1.0000 Uani .
C12 C 1.0981(4) 0.79875(19) 0.75757(18) 0.0311 1.0000 Uani .
C13 C 1.2845(4) 0.77027(18) 0.86669(19) 0.0306 1.0000 Uani .
C14 C 1.2612(4) 0.6544(2) 0.9235(2) 0.0345 1.0000 Uani .
C15 C 1.0608(4) 0.57283(18) 0.87034(19) 0.0329 1.0000 Uani .
C16 C 1.5000(4) 0.8613(2) 0.9199(2) 0.0398 1.0000 Uani .
H31 H 0.6907 0.2893 0.4843 0.0282 1.0000 Uiso R
H21 H 0.9429 0.4601 0.5608 0.0262 1.0000 Uiso R
H11 H 0.4957 0.5664 0.6755 0.0278 1.0000 Uiso R
H41 H 0.4927 0.2513 0.7130 0.0274 1.0000 Uiso R
H52 H 0.9576 0.2280 0.8291 0.0316 1.0000 Uiso R
H51 H 1.0625 0.2808 0.6974 0.0344 1.0000 Uiso R
H121 H 1.1067 0.8801 0.7124 0.0375 1.0000 Uiso R
H141 H 1.3787 0.6298 0.9990 0.0414 1.0000 Uiso R
H151 H 1.0464 0.4913 0.9098 0.0381 1.0000 Uiso R
H161 H 1.6779 0.8226 0.9371 0.0587 1.0000 Uiso R
H163 H 1.5129 0.9293 0.8562 0.0586 1.0000 Uiso R
H162 H 1.4592 0.8960 1.0008 0.0574 1.0000 Uiso R
H71 H 1.0286 0.0968 0.6437 0.0523 1.0000 Uiso R
H91 H 0.5062 0.5391 0.4285 0.0424 1.0000 Uiso R
H81 H 0.2731 0.3107 0.4425 0.0442 1.0000 Uiso R
loop_
_atom_site_aniso_label
_atom_site_aniso_U_11
_atom_site_aniso_U_22
_atom_site_aniso_U_33
_atom_site_aniso_U_23
_atom_site_aniso_U_13
_atom_site_aniso_U_12
C1 0.0253(7) 0.0193(7) 0.0285(8) 0.0002(6) 0.0044(6) 0.0007(6)
C2 0.0253(7) 0.0218(7) 0.0248(7) 0.0024(6) 0.0047(6) 0.0014(6)
C3 0.0223(7) 0.0234(8) 0.0283(8) -0.0025(6) 0.0047(6) 0.0007(6)
C4 0.0258(8) 0.0186(8) 0.0291(8) -0.0010(6) 0.0065(6) -0.0010(6)
C5 0.0273(8) 0.0259(8) 0.0310(9) -0.0006(7) 0.0036(7) 0.0007(6)
O6 0.0421(7) 0.0213(5) 0.0280(6) -0.0012(5) 0.0114(5) -0.0029(5)
O7 0.0359(7) 0.0252(7) 0.0475(8) -0.0030(6) 0.0081(6) 0.0055(5)
O8 0.0229(6) 0.0263(6) 0.0361(6) -0.0051(5) -0.0017(5) 0.0014(5)
O9 0.0312(6) 0.0272(6) 0.0295(6) 0.0045(5) 0.0020(5) -0.0019(5)
C10 0.0271(8) 0.0210(8) 0.0269(7) -0.0008(6) 0.0058(6) 0.0021(7)
N11 0.0327(8) 0.0215(7) 0.0294(8) -0.0005(6) 0.0014(6) -0.0021(6)
C12 0.0397(10) 0.0245(8) 0.0291(8) -0.0024(7) 0.0046(7) -0.0075(7)
C13 0.0303(9) 0.0312(10) 0.0305(9) -0.0081(7) 0.0053(7) -0.0013(7)
C14 0.0361(10) 0.0326(9) 0.0327(9) -0.0019(7) -0.0035(7) 0.0029(8)
C15 0.0377(10) 0.0259(9) 0.0333(9) 0.0029(7) -0.0014(7) 0.0007(7)
C16 0.0391(11) 0.0449(11) 0.0355(10) -0.0123(9) 0.0054(8) -0.0109(9)
loop_
_atom_type_symbol
_atom_type_scat_dispersion_real
_atom_type_scat_dispersion_imag
_atom_type_scat_Cromer_Mann_a1
_atom_type_scat_Cromer_Mann_b1
_atom_type_scat_Cromer_Mann_a2
_atom_type_scat_Cromer_Mann_b2
_atom_type_scat_Cromer_Mann_a3
_atom_type_scat_Cromer_Mann_b3
_atom_type_scat_Cromer_Mann_a4
_atom_type_scat_Cromer_Mann_b4
_atom_type_scat_Cromer_Mann_c
_atom_type_scat_source
C 0.0181 0.0091 2.3100 20.8439 1.0200 10.2075 1.5886 0.5687 0.8650 51.6512
0.2156 'International Tables Vol C 4.2.6.8 and 6.1.1.4'
H 0.0000 0.0000 0.4930 10.5109 0.3229 26.1257 0.1402 3.1424 0.0408 57.7998
0.0030 'International Tables Vol C 4.2.6.8 and 6.1.1.4'
N 0.0311 0.0180 12.2126 0.0057 3.1322 9.8933 2.0125 28.9975 1.1663 0.5826
-11.5290 'International Tables Vol C 4.2.6.8 and 6.1.1.4'
O 0.0492 0.0322 3.0485 13.2771 2.2868 5.7011 1.5463 0.3239 0.8670 32.9089
0.2508 'International Tables Vol C 4.2.6.8 and 6.1.1.4'
loop_
_geom_angle_atom_site_label_1
_geom_angle_atom_site_label_2
_geom_angle_atom_site_label_3
_geom_angle
_geom_angle_publ_flag
C2 C1 O6 105.52(12) yes
C2 C1 C10 112.95(14) yes
O6 C1 C10 110.05(13) yes
C2 C1 H11 109.4 no
O6 C1 H11 108.1 no
C10 C1 H11 110.6 no
C1 C2 C3 102.03(13) yes
C1 C2 O9 114.33(13) yes
C3 C2 O9 113.94(13) yes
C1 C2 H21 110.6 no
C3 C2 H21 109.1 no
O9 C2 H21 106.8 no
C2 C3 C4 101.80(13) yes
C2 C3 O8 107.72(13) yes
C4 C3 O8 111.50(14) yes
C2 C3 H31 109.7 no
C4 C3 H31 114.5 no
O8 C3 H31 111.0 no
C3 C4 C5 113.51(14) yes
C3 C4 O6 105.96(13) yes
C5 C4 O6 108.91(14) yes
C3 C4 H41 110.9 no
C5 C4 H41 110.2 no
O6 C4 H41 107.0 no
C4 C5 O7 107.99(14) yes
C4 C5 H52 111.8 no
O7 C5 H52 110.2 no
C4 C5 H51 110.4 no
O7 C5 H51 109.5 no
H52 C5 H51 106.9 no
C4 O6 C1 110.54(12) yes
C5 O7 H71 108.5 no
C3 O8 H81 109.8 no
C2 O9 H91 104.5 no
C1 C10 N11 115.85(15) yes
C1 C10 C15 122.23(15) yes
N11 C10 C15 121.92(16) yes
C10 N11 C12 118.03(15) yes
N11 C12 C13 124.38(18) yes
N11 C12 H121 115.7 no
C13 C12 H121 119.9 no
C12 C13 C14 116.49(16) yes
C12 C13 C16 121.33(18) yes
C14 C13 C16 122.19(18) yes
C13 C14 C15 120.26(18) yes
C13 C14 H141 120.9 no
C15 C14 H141 118.8 no
C14 C15 C10 118.89(17) yes
C14 C15 H151 120.0 no
C10 C15 H151 121.1 no
C13 C16 H161 112.6 no
C13 C16 H163 110.8 no
H161 C16 H163 107.0 no
C13 C16 H162 109.6 no
H161 C16 H162 108.1 no
H163 C16 H162 108.6 no
loop_
_geom_bond_atom_site_label_1
_geom_bond_atom_site_label_2
_geom_bond_distance
_geom_bond_publ_flag
C1 C2 1.548(2) yes
C1 O6 1.429(2) yes
C1 C10 1.510(2) yes
C1 H11 1.008 no
C2 C3 1.531(2) yes
C2 O9 1.417(2) yes
C2 H21 1.007 no
C3 C4 1.521(2) yes
C3 O8 1.421(2) yes
C3 H31 1.023 no
C4 C5 1.522(2) yes
C4 O6 1.447(2) yes
C4 H41 1.011 no
C5 O7 1.428(2) yes
C5 H52 0.999 no
C5 H51 1.004 no
O7 H71 0.830 no
O8 H81 0.863 no
O9 H91 0.798 no
C10 N11 1.337(2) yes
C10 C15 1.388(2) yes
N11 C12 1.347(2) yes
C12 C13 1.387(3) yes
C12 H121 0.992 no
C13 C14 1.385(3) yes
C13 C16 1.506(3) yes
C14 C15 1.390(3) yes
C14 H141 0.942 no
C15 H151 0.970 no
C16 H161 0.982 no
C16 H163 0.984 no
C16 H162 0.951 no
loop_
_geom_hbond_atom_site_label_D
_geom_hbond_atom_site_label_H
_geom_hbond_atom_site_label_A
_geom_hbond_site_symmetry_A
_geom_hbond_angle_DHA
_geom_hbond_distance_DH
_geom_hbond_distance_HA
_geom_hbond_distance_DA
_geom_hbond_publ_flag
C2 H21 O8 1_655 155 1.01 2.34 3.282(3) yes
C16 H162 O6 2_757 162 0.95 2.47 3.385(3) yes
O7 H71 O9 2_746 172 0.83 1.97 2.793(3) yes
O9 H91 O7 2_656 146 0.80 2.25 2.942(3) yes
O8 H81 N11 2_646 166 0.86 1.89 2.736(3) yes
O8 H81 C12 2_646 136 0.86 2.57 3.249(3) yes
