#------------------------------------------------------------------------------
#$Date: 2016-02-16 22:30:59 +0200 (Tue, 16 Feb 2016) $
#$Revision: 176467 $
#$URL: svn://www.crystallography.net/cod/cif/4/02/64/4026416.cif $
#------------------------------------------------------------------------------
#
# This file is available in the Crystallography Open Database (COD),
# http://www.crystallography.net/
#
# All data on this site have been placed in the public domain by the
# contributors.
#
data_4026416
loop_
_publ_author_name
'Takahisa Machiguchi'
'Toshio Hasegawa'
'Hideki Saitoh'
'Shinichi Yamabe'
'Shoko Yamazaki'
_publ_contact_author_address
;Department of Chemistry
Faculty of Science
Saitama University
Sakura-ku
Saitama 338-8570
Japan
;
_publ_contact_author_email       machiguc@chem.saitama-u.ac.jp
_publ_contact_author_fax         +81-48-686-2347
_publ_contact_author_name        'Professor Takahisa Machiguchi'
_publ_contact_author_phone       +81-48-686-2347
_publ_section_title
;
 Solid-State Thiotropolone: An Extremely Rapid Intramolecular Proton
 Transfer
;
_journal_name_full               'Journal of Organic Chemistry'
_journal_page_first              5457
_journal_page_last               5460
_journal_paper_doi               10.1021/jo2005796
_journal_volume                  76
_journal_year                    2011
_chemical_compound_source        'Local laboratory'
_chemical_formula_moiety         'C8 H8 O1 S1'
_chemical_formula_sum            'C8 H8 O S'
_chemical_formula_weight         152.22
_space_group_IT_number           14
_symmetry_cell_setting           monoclinic
_symmetry_space_group_name_Hall  '-P 2ybc'
_symmetry_space_group_name_H-M   'P 1 21/c 1'
_atom_type_scat_source           'International Tables (1974)'
_cell_angle_alpha                90
_cell_angle_beta                 109.45(5)
_cell_angle_gamma                90
_cell_formula_units_Z            4
_cell_length_a                   8.186(6)
_cell_length_b                   8.136(5)
_cell_length_c                   11.660(5)
_cell_measurement_reflns_used    22
_cell_measurement_temperature    123
_cell_measurement_theta_max      42
_cell_measurement_theta_min      19
_cell_volume                     732.3(8)
_computing_cell_refinement       MOLEN/VAX
_computing_data_collection       MOLEN/VAX
_computing_data_reduction        MOLEN/VAX
_computing_molecular_graphics    MOLEN/VAX
_computing_publication_material  MOLEN/VAX
_computing_structure_refinement  MOLEN/VAX
_computing_structure_solution    MOLEN/VAX
_diffrn_measurement_device_type  'Enraf-Nonius CAD4'
_diffrn_measurement_method       '\w-2\q scan'
_diffrn_radiation_monochromator  graphite
_diffrn_radiation_type           'Cu K\a'
_diffrn_radiation_wavelength     1.54184
_diffrn_reflns_av_R_equivalents  0.042
_diffrn_reflns_limit_h_max       7
_diffrn_reflns_limit_h_min       -7
_diffrn_reflns_limit_k_max       7
_diffrn_reflns_limit_k_min       -7
_diffrn_reflns_limit_l_max       0
_diffrn_reflns_limit_l_min       -10
_diffrn_reflns_number            1700
_diffrn_reflns_theta_max         54.6
_exptl_absorpt_coefficient_mu    3.22
_exptl_absorpt_correction_type   none
_exptl_crystal_colour            'Pale Yellow'
_exptl_crystal_density_diffrn    1.38
_exptl_crystal_description       Plate
_exptl_crystal_size_max          0.28
_exptl_crystal_size_mid          0.22
_exptl_crystal_size_min          0.08
_refine_diff_density_max         0.52
_refine_diff_density_min         -0.49
_refine_ls_extinction_method     none
_refine_ls_goodness_of_fit_obs   2.005
_refine_ls_hydrogen_treatment    refxyz
_refine_ls_matrix_type           full
_refine_ls_number_parameters     115
_refine_ls_number_reflns         742
_refine_ls_R_factor_obs          0.054
_refine_ls_shift/esd_max         0.34
_refine_ls_structure_factor_coef F
_refine_ls_weighting_details     w=1/(\s^2^(F))
_refine_ls_weighting_scheme      calc
_refine_ls_wR_factor_obs         0.067
_reflns_number_observed          742
_reflns_number_total             926
_reflns_observed_criterion       'I > 3 \s(I)'
_cod_data_source_file            jo2005796_si_004.cif
_cod_data_source_block           a-(Methylthio)tropone
_cod_original_cell_volume        732.2
_cod_original_sg_symbol_H-M      'P 21/c'
_cod_original_formula_sum        'C8 H8 O1 S1'
_cod_database_code               4026416
loop_
_symmetry_equiv_pos_as_xyz
x,y,z
-x,y+1/2,-z+1/2
-x,-y,-z
x,-y+1/2,z+1/2
loop_
_atom_site_aniso_label
_atom_site_aniso_U_11
_atom_site_aniso_U_22
_atom_site_aniso_U_33
_atom_site_aniso_U_12
_atom_site_aniso_U_13
_atom_site_aniso_U_23
Sl 0.0418(5) 0.0360(5) 0.0248(4) -0.0001(5) 0.0156(3) -0.0024(4)
O2 0.044(1) 0.044(2) 0.024(1) 0.004(1) 0.0203(8) 0.001(1)
C1 0.028(2) 0.041(2) 0.024(2) 0.010(2) 0.012(1) 0.009(2)
C2 0.027(2) 0.045(2) 0.018(2) 0.008(2) 0.010(1) 0.004(2)
C3 0.033(2) 0.045(3) 0.022(2) 0.001(2) 0.014(1) 0.002(2)
C4 0.031(2) 0.036(2) 0.032(2) 0.001(2) 0.009(1) 0.004(2)
C5 0.036(2) 0.038(2) 0.027(2) 0.005(2) 0.013(1) -0.003(2)
C6 0.038(2) 0.038(3) 0.022(2) 0.005(2) 0.017(1) -0.003(2)
C7 0.033(2) 0.040(2) 0.026(2) 0.003(2) 0.015(1) 0.002(2)
C8 0.037(2) 0.040(3) 0.032(2) 0.001(2) 0.016(1) 0.007(2)
loop_
_atom_site_label
_atom_site_fract_x
_atom_site_fract_y
_atom_site_fract_z
_atom_site_B_iso_or_equiv
_atom_site_thermal_displace_type
S1 0.1837(1) 0.2024(1) 0.29828(8) 2.61(2) Bani
O2 0.3343(3) 0.4282(4) 0.2007(2) 2.78(6) Bani
C1 0.2364(5) 0.3940(6) 0.3648(3) 2.35(8) Bani
C2 0.3238(4) 0.4936(6) 0.2950(3) 2.33(8) Bani
C3 0.3901(5) 0.6567(6) 0.3277(3) 2.52(9) Bani
C4 0.3880(5) 0.7585(5) 0.4189(4) 2.64(9) Bani
C5 0.3167(5) 0.7307(5) 0.5128(4) 2.62(9) Bani
C6 0.2434(5) 0.5909(5) 0.5354(3) 2.46(9) Bani
C7 0.2089(5) 0.4417(6) 0.4708(3) 2.49(8) Bani
C8 0.0906(5) 0.0976(5) 0.3975(3) 2.79(9) Bani
H3 0.445(4) 0.712(5) 0.271(3) 2.5 Biso
H4 0.428(4) 0.879(5) 0.415(3) 2.6 Biso
H5 0.330(4) 0.816(5) 0.568(3) 2.6 Biso
H6 0.225(4) 0.587(5) 0.616(3) 2.5 Biso
H7 0.160(4) 0.345(5) 0.509(3) 2.5 Biso
H8A 0.060(4) -0.028(5) 0.366(3) 2.8 Biso
H8B 0.000(4) 0.158(5) 0.395(3) 2.8 Biso
H8C 0.175(4) 0.084(5) 0.480(3) 2.8 Biso
loop_
_geom_angle_atom_site_label_1
_geom_angle_atom_site_label_2
_geom_angle_atom_site_label_3
_geom_angle
_geom_angle_publ_flag
C1 S1 C8 103.6(2) yes
S1 C1 C2 109.8(3) yes
S1 C1 C7 124.2(3) yes
C2 C1 C7 125.9(4) yes
O2 C2 C1 115.8(4) yes
O2 C2 C3 119.8(4) yes
C1 C2 C3 124.4(4) yes
C2 C3 C4 132.2(4) yes
C3 C4 C5 128.7(4) yes
C4 C5 C6 127.4(4) yes
C5 C6 C7 130.1(4) yes
C1 C7 C6 131.1(4) yes
C2 C3 H3 116.(2) yes
C4 C3 H3 111.(2) yes
C3 C4 H4 117.(2) yes
C5 C4 H4 114.(2) yes
C4 C5 H5 115.(3) yes
C6 C5 H5 117.(3) yes
C5 C6 H6 115.(2) yes
C7 C6 H6 114.(2) yes
C1 C7 H7 112.(2) yes
C6 C7 H7 117.(2) yes
S1 C8 H8B 104.(3) yes
S1 C8 H8C 112.(2) yes
S1 C8 H8A 109.(2) yes
H8B C8 H8C 114.(3) yes
H8B C8 H8A 115.(3) yes
H8C C8 H8A 104.(3) yes
loop_
_geom_bond_atom_site_label_1
_geom_bond_atom_site_label_2
_geom_bond_distance
_geom_bond_publ_flag
S1 C1 1.731(4) yes
S1 C8 1.799(5) yes
O2 C2 1.249(5) yes
C1 C2 1.490(6) yes
C1 C7 1.384(6) yes
C2 C3 1.436(6) yes
C3 C4 1.353(6) yes
C4 C5 1.420(7) yes
C5 C6 1.352(6) yes
C6 C7 1.407(6) yes
C3 H3 1.02(4) yes
C4 H4 1.04(4) yes
C5 H5 0.93(4) yes
C6 H6 1.00(4) yes
C7 H7 1.05(4) yes
C8 H8B 0.88(4) yes
C8 H8C 0.99(3) yes
C8 H8A 1.09(4) yes
