#------------------------------------------------------------------------------
#$Date: 2017-10-13 14:42:48 +0300 (Fri, 13 Oct 2017) $
#$Revision: 201982 $
#$URL: file:///home/coder/svn-repositories/cod/cif/4/02/73/4027369.cif $
#------------------------------------------------------------------------------
#
# This file is available in the Crystallography Open Database (COD),
# http://www.crystallography.net/
#
# All data on this site have been placed in the public domain by the
# contributors.
#
data_4027369
loop_
_publ_author_name
'A. Stephen K. Hashmi'
'Maria Camila Blanco Jaimes'
'Andreas M. Schuster'
'Frank Rominger'
_publ_section_title
;
 From Propargylic Amides to Functionalized Oxazoles: Domino Gold
 Catalysis/Oxidation by Dioxygen
;
_journal_name_full               'Journal of Organic Chemistry'
_journal_page_first              6394
_journal_page_last               6408
_journal_paper_doi               10.1021/jo301288w
_journal_volume                  77
_journal_year                    2012
_chemical_formula_sum            'C13 H15 N O4'
_chemical_formula_weight         249.26
_chemical_name_systematic
; 
 ? 
;
_space_group_IT_number           2
_symmetry_cell_setting           triclinic
_symmetry_space_group_name_Hall  '-P 1'
_symmetry_space_group_name_H-M   'P -1'
_atom_sites_solution_hydrogens   geom
_atom_sites_solution_primary     direct
_atom_sites_solution_secondary   difmap
_audit_creation_method           SHELXL-97
_cell_angle_alpha                91.258(11)
_cell_angle_beta                 101.305(11)
_cell_angle_gamma                96.017(11)
_cell_formula_units_Z            2
_cell_length_a                   7.459(4)
_cell_length_b                   8.165(4)
_cell_length_c                   10.383(5)
_cell_measurement_reflns_used    642
_cell_measurement_temperature    200(2)
_cell_measurement_theta_max      24.64
_cell_measurement_theta_min      2.51
_cell_volume                     616.1(5)
_computing_cell_refinement       'Bruker SAINT'
_computing_data_collection       'Bruker APEX'
_computing_data_reduction        'Bruker SAINT'
_computing_molecular_graphics    'Bruker SHELXTL'
_computing_publication_material  'Bruker SHELXTL'
_computing_structure_refinement  'SHELXL-97 (Sheldrick, 2008)'
_computing_structure_solution    'SHELXS-97 (Sheldrick, 2008)'
_diffrn_ambient_temperature      200(2)
_diffrn_measured_fraction_theta_full 0.986
_diffrn_measured_fraction_theta_max 0.986
_diffrn_measurement_device_type  'Bruker APEX'
_diffrn_measurement_method       '\w scans'
_diffrn_radiation_monochromator  graphite
_diffrn_radiation_source         'fine-focus sealed tube'
_diffrn_radiation_type           MoK\a
_diffrn_radiation_wavelength     0.71073
_diffrn_reflns_av_R_equivalents  0.0478
_diffrn_reflns_av_sigmaI/netI    0.0676
_diffrn_reflns_limit_h_max       8
_diffrn_reflns_limit_h_min       -8
_diffrn_reflns_limit_k_max       9
_diffrn_reflns_limit_k_min       -9
_diffrn_reflns_limit_l_max       12
_diffrn_reflns_limit_l_min       -12
_diffrn_reflns_number            5110
_diffrn_reflns_theta_full        25.10
_diffrn_reflns_theta_max         25.10
_diffrn_reflns_theta_min         2.00
_exptl_absorpt_coefficient_mu    0.100
_exptl_absorpt_correction_T_max  0.9980
_exptl_absorpt_correction_T_min  0.9735
_exptl_absorpt_correction_type   multi-scan
_exptl_absorpt_process_details
;
Sheldrick, G. M. (2008). <i>SADABS</i>. University of G\"ottingen, Germany.
;
_exptl_crystal_colour            colourless
_exptl_crystal_density_diffrn    1.344
_exptl_crystal_description       platte
_exptl_crystal_F_000             264
_exptl_crystal_size_max          0.27
_exptl_crystal_size_mid          0.16
_exptl_crystal_size_min          0.02
_refine_diff_density_max         0.232
_refine_diff_density_min         -0.220
_refine_diff_density_rms         0.059
_refine_ls_extinction_method     none
_refine_ls_goodness_of_fit_ref   1.105
_refine_ls_hydrogen_treatment    constr
_refine_ls_matrix_type           full
_refine_ls_number_parameters     166
_refine_ls_number_reflns         2171
_refine_ls_number_restraints     0
_refine_ls_restrained_S_all      1.105
_refine_ls_R_factor_all          0.1154
_refine_ls_R_factor_gt           0.0763
_refine_ls_shift/su_max          0.000
_refine_ls_shift/su_mean         0.000
_refine_ls_structure_factor_coef Fsqd
_refine_ls_weighting_details
'calc w=1/[\s^2^(Fo^2^)+(0.0573P)^2^+0.4152P] where P=(Fo^2^+2Fc^2^)/3'
_refine_ls_weighting_scheme      calc
_refine_ls_wR_factor_gt          0.1510
_refine_ls_wR_factor_ref         0.1659
_reflns_number_gt                1474
_reflns_number_total             2171
_reflns_threshold_expression     >2sigma(I)
_cod_data_source_file            jo301288w_si_005.cif
_cod_data_source_block           cab5
_cod_database_code               4027369
loop_
_symmetry_equiv_pos_as_xyz
'x, y, z'
'-x, -y, -z'
loop_
_atom_site_label
_atom_site_type_symbol
_atom_site_fract_x
_atom_site_fract_y
_atom_site_fract_z
_atom_site_U_iso_or_equiv
_atom_site_adp_type
_atom_site_occupancy
_atom_site_symmetry_multiplicity
_atom_site_calc_flag
_atom_site_refinement_flags
C1 C 0.2518(4) 0.9822(4) 0.9371(3) 0.0244(8) Uani 1 1 d .
N2 N 0.3015(4) 1.0523(3) 0.8407(3) 0.0288(7) Uani 1 1 d .
O3 O 0.1983(3) 0.8134(3) 0.9209(2) 0.0320(6) Uani 1 1 d .
C4 C 0.2154(5) 0.7702(4) 0.7937(3) 0.0313(9) Uani 1 1 d .
C5 C 0.2836(5) 0.9239(4) 0.7363(3) 0.0308(8) Uani 1 1 d .
H5A H 0.4039 0.9135 0.7120 0.037 Uiso 1 1 calc R
H5B H 0.1950 0.9494 0.6571 0.037 Uiso 1 1 calc R
C6 C 0.1708(5) 0.6168(5) 0.7464(4) 0.0456(11) Uani 1 1 d .
H6A H 0.1265 0.5345 0.7993 0.055 Uiso 1 1 calc R
H6B H 0.1830 0.5886 0.6595 0.055 Uiso 1 1 calc R
C11 C 0.2438(4) 1.0544(4) 1.0654(3) 0.0262(8) Uani 1 1 d .
C12 C 0.1909(4) 0.9595(4) 1.1635(3) 0.0273(8) Uani 1 1 d .
H12 H 0.1545 0.8447 1.1471 0.033 Uiso 1 1 calc R
C13 C 0.1910(4) 1.0318(4) 1.2851(3) 0.0291(8) Uani 1 1 d .
C14 C 0.2425(5) 1.2013(4) 1.3082(3) 0.0296(8) Uani 1 1 d .
C15 C 0.2929(5) 1.2963(4) 1.2091(3) 0.0289(8) Uani 1 1 d .
C16 C 0.2945(4) 1.2231(4) 1.0877(3) 0.0282(8) Uani 1 1 d .
H16 H 0.3299 1.2877 1.0200 0.034 Uiso 1 1 calc R
O17 O 0.1429(3) 0.9498(3) 1.3887(2) 0.0374(7) Uani 1 1 d .
C17 C 0.0681(5) 0.7817(4) 1.3648(4) 0.0405(10) Uani 1 1 d .
H17A H -0.0319 0.7719 1.2873 0.061 Uiso 1 1 calc R
H17B H 0.0202 0.7424 1.4414 0.061 Uiso 1 1 calc R
H17C H 0.1644 0.7152 1.3494 0.061 Uiso 1 1 calc R
O18 O 0.2377(3) 1.2734(3) 1.4279(2) 0.0380(7) Uani 1 1 d .
C18 C 0.4039(6) 1.2725(6) 1.5221(4) 0.0520(12) Uani 1 1 d .
H18A H 0.4342 1.1590 1.5325 0.078 Uiso 1 1 calc R
H18B H 0.3883 1.3186 1.6067 0.078 Uiso 1 1 calc R
H18C H 0.5036 1.3392 1.4922 0.078 Uiso 1 1 calc R
O19 O 0.3374(3) 1.4601(3) 1.2418(2) 0.0351(6) Uani 1 1 d .
C19 C 0.3944(6) 1.5605(4) 1.1435(4) 0.0415(10) Uani 1 1 d .
H19A H 0.5036 1.5213 1.1194 0.062 Uiso 1 1 calc R
H19B H 0.4237 1.6750 1.1777 0.062 Uiso 1 1 calc R
H19C H 0.2949 1.5542 1.0657 0.062 Uiso 1 1 calc R
loop_
_atom_site_aniso_label
_atom_site_aniso_U_11
_atom_site_aniso_U_22
_atom_site_aniso_U_33
_atom_site_aniso_U_23
_atom_site_aniso_U_13
_atom_site_aniso_U_12
C1 0.0182(18) 0.0207(18) 0.034(2) 0.0001(15) 0.0042(15) 0.0036(14)
N2 0.0322(17) 0.0274(16) 0.0283(16) 0.0012(13) 0.0105(13) 0.0016(13)
O3 0.0385(15) 0.0263(14) 0.0316(14) -0.0012(11) 0.0084(11) 0.0039(11)
C4 0.026(2) 0.039(2) 0.027(2) -0.0053(16) 0.0008(15) 0.0090(16)
C5 0.036(2) 0.031(2) 0.0263(19) -0.0036(16) 0.0082(16) 0.0056(16)
C6 0.052(3) 0.035(2) 0.047(2) -0.0089(19) 0.004(2) 0.006(2)
C11 0.0222(19) 0.029(2) 0.0280(19) -0.0002(15) 0.0074(15) 0.0032(15)
C12 0.0178(17) 0.0264(19) 0.036(2) 0.0005(16) 0.0039(15) -0.0002(14)
C13 0.0197(18) 0.041(2) 0.028(2) 0.0060(17) 0.0081(15) 0.0013(16)
C14 0.0231(19) 0.039(2) 0.027(2) -0.0076(16) 0.0071(15) 0.0038(16)
C15 0.0265(19) 0.029(2) 0.030(2) -0.0046(16) 0.0039(16) 0.0029(15)
C16 0.028(2) 0.031(2) 0.028(2) 0.0048(15) 0.0092(15) 0.0044(15)
O17 0.0380(15) 0.0430(16) 0.0310(15) 0.0019(12) 0.0116(12) -0.0054(12)
C17 0.045(2) 0.035(2) 0.043(2) 0.0077(18) 0.0174(19) -0.0026(18)
O18 0.0365(15) 0.0479(17) 0.0291(14) -0.0098(12) 0.0079(12) 0.0020(12)
C18 0.052(3) 0.063(3) 0.032(2) -0.011(2) -0.006(2) -0.002(2)
O19 0.0424(15) 0.0260(14) 0.0374(15) -0.0053(11) 0.0123(12) -0.0005(11)
C19 0.061(3) 0.026(2) 0.038(2) 0.0002(17) 0.010(2) 0.0045(19)
loop_
_atom_type_symbol
_atom_type_description
_atom_type_scat_dispersion_real
_atom_type_scat_dispersion_imag
_atom_type_scat_source
C C 0.0033 0.0016 'International Tables Vol C Tables 4.2.6.8 and 6.1.1.4'
H H 0.0000 0.0000 'International Tables Vol C Tables 4.2.6.8 and 6.1.1.4'
N N 0.0061 0.0033 'International Tables Vol C Tables 4.2.6.8 and 6.1.1.4'
O O 0.0106 0.0060 'International Tables Vol C Tables 4.2.6.8 and 6.1.1.4'
loop_
_geom_angle_atom_site_label_1
_geom_angle_atom_site_label_2
_geom_angle_atom_site_label_3
_geom_angle
N2 C1 O3 116.6(3)
N2 C1 C11 128.6(3)
O3 C1 C11 114.8(3)
C1 N2 C5 106.5(3)
C1 O3 C4 105.6(3)
C6 C4 O3 120.7(3)
C6 C4 C5 132.8(3)
O3 C4 C5 106.6(3)
N2 C5 C4 104.8(3)
N2 C5 H5A 110.8
C4 C5 H5A 110.8
N2 C5 H5B 110.8
C4 C5 H5B 110.8
H5A C5 H5B 108.9
C4 C6 H6A 120.0
C4 C6 H6B 120.0
H6A C6 H6B 120.0
C12 C11 C16 120.4(3)
C12 C11 C1 121.9(3)
C16 C11 C1 117.7(3)
C13 C12 C11 120.0(3)
C13 C12 H12 120.0
C11 C12 H12 120.0
O17 C13 C12 124.9(3)
O17 C13 C14 115.4(3)
C12 C13 C14 119.8(3)
O18 C14 C15 120.4(3)
O18 C14 C13 119.6(3)
C15 C14 C13 120.0(3)
O19 C15 C16 124.9(3)
O19 C15 C14 115.0(3)
C16 C15 C14 120.1(3)
C15 C16 C11 119.7(3)
C15 C16 H16 120.2
C11 C16 H16 120.2
C13 O17 C17 117.2(3)
O17 C17 H17A 109.5
O17 C17 H17B 109.5
H17A C17 H17B 109.5
O17 C17 H17C 109.5
H17A C17 H17C 109.5
H17B C17 H17C 109.5
C14 O18 C18 113.7(3)
O18 C18 H18A 109.5
O18 C18 H18B 109.5
H18A C18 H18B 109.5
O18 C18 H18C 109.5
H18A C18 H18C 109.5
H18B C18 H18C 109.5
C15 O19 C19 116.5(3)
O19 C19 H19A 109.5
O19 C19 H19B 109.5
H19A C19 H19B 109.5
O19 C19 H19C 109.5
H19A C19 H19C 109.5
H19B C19 H19C 109.5
loop_
_geom_bond_atom_site_label_1
_geom_bond_atom_site_label_2
_geom_bond_distance
C1 N2 1.262(4)
C1 O3 1.391(4)
C1 C11 1.459(5)
N2 C5 1.468(4)
O3 C4 1.393(4)
C4 C6 1.320(5)
C4 C5 1.485(5)
C5 H5A 0.9900
C5 H5B 0.9900
C6 H6A 0.9500
C6 H6B 0.9500
C11 C12 1.386(4)
C11 C16 1.391(5)
C12 C13 1.382(5)
C12 H12 0.9500
C13 O17 1.366(4)
C13 C14 1.400(5)
C14 O18 1.371(4)
C14 C15 1.388(5)
C15 O19 1.363(4)
C15 C16 1.386(4)
C16 H16 0.9500
O17 C17 1.423(4)
C17 H17A 0.9800
C17 H17B 0.9800
C17 H17C 0.9800
O18 C18 1.422(4)
C18 H18A 0.9800
C18 H18B 0.9800
C18 H18C 0.9800
O19 C19 1.424(4)
C19 H19A 0.9800
C19 H19B 0.9800
C19 H19C 0.9800
loop_
_geom_torsion_atom_site_label_1
_geom_torsion_atom_site_label_2
_geom_torsion_atom_site_label_3
_geom_torsion_atom_site_label_4
_geom_torsion
O3 C1 N2 C5 0.5(4)
C11 C1 N2 C5 180.0(3)
N2 C1 O3 C4 -0.6(4)
C11 C1 O3 C4 179.9(3)
C1 O3 C4 C6 -178.6(3)
C1 O3 C4 C5 0.4(3)
C1 N2 C5 C4 -0.2(4)
C6 C4 C5 N2 178.6(4)
O3 C4 C5 N2 -0.1(3)
N2 C1 C11 C12 -178.1(3)
O3 C1 C11 C12 1.5(4)
N2 C1 C11 C16 0.9(5)
O3 C1 C11 C16 -179.6(3)
C16 C11 C12 C13 -1.0(5)
C1 C11 C12 C13 177.9(3)
C11 C12 C13 O17 -179.4(3)
C11 C12 C13 C14 0.8(5)
O17 C13 C14 O18 -1.5(4)
C12 C13 C14 O18 178.3(3)
O17 C13 C14 C15 -179.7(3)
C12 C13 C14 C15 0.1(5)
O18 C14 C15 O19 0.8(5)
C13 C14 C15 O19 178.9(3)
O18 C14 C15 C16 -178.9(3)
C13 C14 C15 C16 -0.7(5)
O19 C15 C16 C11 -179.1(3)
C14 C15 C16 C11 0.5(5)
C12 C11 C16 C15 0.4(5)
C1 C11 C16 C15 -178.6(3)
C12 C13 O17 C17 -7.3(5)
C14 C13 O17 C17 172.4(3)
C15 C14 O18 C18 -93.1(4)
C13 C14 O18 C18 88.7(4)
C16 C15 O19 C19 -1.9(5)
C14 C15 O19 C19 178.5(3)
loop_
_cod_related_entry_id
_cod_related_entry_database
_cod_related_entry_code
1 ChemSpider 30659517
