#------------------------------------------------------------------------------
#$Date: 2016-03-21 04:17:15 +0200 (Mon, 21 Mar 2016) $
#$Revision: 178464 $
#$URL: svn://www.crystallography.net/cod/cif/4/02/85/4028550.cif $
#------------------------------------------------------------------------------
#
# This file is available in the Crystallography Open Database (COD),
# http://www.crystallography.net/
#
# All data on this site have been placed in the public domain by the
# contributors.
#
data_4028550
loop_
_publ_author_name
'Simon J. Shaw'
'Dane A. Goff'
'Luke A. Boralsky'
'Mark Irving'
'Rajinder Singh'
_publ_contact_author_name
;
;
_publ_section_title
;
 Enantioselective Synthesis of cis-3-Fluoropiperidin-4-ol, a Building
 Block for Medicinal Chemistry
;
_journal_name_full               'Journal of Organic Chemistry'
_journal_page_first              8892
_journal_page_last               8897
_journal_paper_doi               10.1021/jo401352z
_journal_volume                  78
_journal_year                    2013
_chemical_absolute_configuration ad
_chemical_formula_moiety         'C10 H18 F N O3'
_chemical_formula_sum            'C10 H18 F N O3'
_chemical_formula_weight         219.25
_chemical_name_systematic
;
 ? 
;
_space_group_crystal_system      monoclinic
_space_group_IT_number           4
_space_group_name_Hall           'P 2yb'
_space_group_name_H-M_alt        'P 1 21 1'
_symmetry_space_group_name_Hall  'P 2yb'
_symmetry_space_group_name_H-M   'P 1 21 1'
_atom_sites_solution_hydrogens   geom
_atom_sites_solution_primary     direct
_atom_sites_solution_secondary   difmap
_audit_creation_date             2011-10-11
_audit_creation_method
;
  Olex2 1.1
  (compiled Aug 18 2011 06:34:35, GUI svn.r3819)
;
_cell_angle_alpha                90.00
_cell_angle_beta                 98.013(3)
_cell_angle_gamma                90.00
_cell_formula_units_Z            2
_cell_length_a                   7.7639(4)
_cell_length_b                   8.7343(5)
_cell_length_c                   8.4835(4)
_cell_measurement_reflns_used    2823
_cell_measurement_temperature    100
_cell_measurement_theta_max      70.04
_cell_measurement_theta_min      5.27
_cell_volume                     569.67(5)
_computing_data_reduction        'SAINT v7.68A (Bruker, 2009)'
_computing_molecular_graphics
;
O. V. Dolomanov, L. J. Bourhis, R. J. Gildea, J. A. K. Howard and H. Puschmann,
OLEX2: a complete structure solution, refinement and analysis program.
J. Appl. Cryst. (2009). 42, 339-341.
;
_computing_publication_material
;
O. V. Dolomanov, L. J. Bourhis, R. J. Gildea, J. A. K. Howard and H. Puschmann,
OLEX2: a complete structure solution, refinement and analysis program.
J. Appl. Cryst. (2009). 42, 339-341.
;
_computing_structure_refinement
;
XL, G.M. Sheldrick, Acta Cryst.
(2008). A64, 112-122
;
_computing_structure_solution
;
olex2.solve (L.J. Bourhis, O.V. Dolomanov, R.J. Gildea, J.A.K. Howard,
H. Puschmann, in preparation, 2011)
;
_diffrn_ambient_temperature      100
_diffrn_detector_area_resol_mean 8
_diffrn_measured_fraction_theta_full 0.960
_diffrn_measured_fraction_theta_max 0.954
_diffrn_measurement_device_type  'Bruker SMART APEX CCD area detector'
_diffrn_measurement_method       '\w and \f scans'
_diffrn_radiation_monochromator  graphite
_diffrn_radiation_type           CuK\a
_diffrn_radiation_wavelength     1.54184
_diffrn_reflns_av_R_equivalents  0.0298
_diffrn_reflns_av_unetI/netI     0.0351
_diffrn_reflns_limit_h_max       9
_diffrn_reflns_limit_h_min       -9
_diffrn_reflns_limit_k_max       10
_diffrn_reflns_limit_k_min       -10
_diffrn_reflns_limit_l_max       9
_diffrn_reflns_limit_l_min       -8
_diffrn_reflns_number            4730
_diffrn_reflns_theta_full        66.50
_diffrn_reflns_theta_max         70.13
_diffrn_reflns_theta_min         5.27
_diffrn_source                   'sealed tube'
_diffrn_standards_number         0
_exptl_absorpt_coefficient_mu    0.876
_exptl_absorpt_correction_T_max  0.9582
_exptl_absorpt_correction_T_min  0.8521
_exptl_absorpt_correction_type   multi-scan
_exptl_absorpt_process_details
;
"SADABS-2008/1 (Bruker,2008) was used for absorption correction.
R(int) was 0.0561 before and 0.0454 after correction.
The Ratio of minimum to maximum transmission is 0.8893.
The \l/2 correction factor is 0.00.
{Info from C:\structures\rigel\x1110004-II\x1110004_II.abs}
;
_exptl_crystal_colour            'clear colourless'
_exptl_crystal_colour_lustre     clear
_exptl_crystal_colour_primary    colourless
_exptl_crystal_density_diffrn    1.278
_exptl_crystal_description       plate
_exptl_crystal_F_000             236
_exptl_crystal_size_max          0.236
_exptl_crystal_size_mid          0.224
_exptl_crystal_size_min          0.068
_refine_diff_density_max         0.202
_refine_diff_density_min         -0.179
_refine_diff_density_rms         0.040
_refine_ls_abs_structure_details 'Flack H D (1983), Acta Cryst. A39, 876-881'
_refine_ls_abs_structure_Flack   0.13(16)
_refine_ls_extinction_method     none
_refine_ls_goodness_of_fit_ref   1.041
_refine_ls_hydrogen_treatment    constr
_refine_ls_matrix_type           full
_refine_ls_number_parameters     140
_refine_ls_number_reflns         2036
_refine_ls_number_restraints     1
_refine_ls_restrained_S_all      1.041
_refine_ls_R_factor_all          0.0383
_refine_ls_R_factor_gt           0.0363
_refine_ls_shift/su_max          0.000
_refine_ls_shift/su_mean         0.000
_refine_ls_structure_factor_coef Fsqd
_refine_ls_weighting_details
'calc w=1/[\s^2^(Fo^2^)+(0.0596P)^2^+0.0473P] where P=(Fo^2^+2Fc^2^)/3'
_refine_ls_weighting_scheme      calc
_refine_ls_wR_factor_gt          0.0910
_refine_ls_wR_factor_ref         0.0925
_reflns_number_gt                1944
_reflns_number_total             2036
_reflns_threshold_expression     >2sigma(I)
_cod_data_source_file            jo401352z_si_003.cif
_cod_data_source_block           x1110004-ii
_cod_database_code               4028550
loop_
_space_group_symop_id
_space_group_symop_operation_xyz
1 'x, y, z'
2 '-x, y+1/2, -z'
loop_
_atom_site_label
_atom_site_type_symbol
_atom_site_fract_x
_atom_site_fract_y
_atom_site_fract_z
_atom_site_U_iso_or_equiv
_atom_site_adp_type
_atom_site_occupancy
_atom_site_symmetry_multiplicity
_atom_site_calc_flag
_atom_site_refinement_flags
F1 F -0.26043(15) -0.72505(13) -0.65406(13) 0.0335(3) Uani 1 1 d .
O1 O -0.05985(17) -0.69903(16) -0.35801(16) 0.0297(3) Uani 1 1 d .
H1 H -0.1368 -0.7668 -0.3595 0.045 Uiso 1 1 calc R
O2 O -0.69908(16) -0.43947(15) -0.67306(15) 0.0278(3) Uani 1 1 d .
O3 O -0.55727(15) -0.47961(15) -0.88767(14) 0.0248(3) Uani 1 1 d .
N1 N -0.4041(2) -0.42206(18) -0.65395(18) 0.0245(3) Uani 1 1 d .
C1 C -0.3824(2) -0.3838(2) -0.4852(2) 0.0271(4) Uani 1 1 d .
H1A H -0.4970 -0.3593 -0.4530 0.032 Uiso 1 1 calc R
H1B H -0.3071 -0.2924 -0.4655 0.032 Uiso 1 1 calc R
C2 C -0.3005(2) -0.5182(2) -0.3863(2) 0.0243(4) Uani 1 1 d .
H2A H -0.2769 -0.4878 -0.2729 0.029 Uiso 1 1 calc R
H2B H -0.3830 -0.6053 -0.3951 0.029 Uiso 1 1 calc R
C3 C -0.1311(2) -0.5683(2) -0.4432(2) 0.0242(4) Uani 1 1 d .
H3 H -0.0457 -0.4828 -0.4202 0.029 Uiso 1 1 calc R
C4 C -0.1552(2) -0.5959(2) -0.6207(2) 0.0263(4) Uani 1 1 d .
H4 H -0.0392 -0.6150 -0.6555 0.032 Uiso 1 1 calc R
C5 C -0.2430(2) -0.4621(2) -0.7148(2) 0.0251(4) Uani 1 1 d .
H5A H -0.1638 -0.3727 -0.7056 0.030 Uiso 1 1 calc R
H5B H -0.2689 -0.4903 -0.8286 0.030 Uiso 1 1 calc R
C6 C -0.5652(2) -0.44785(19) -0.7335(2) 0.0221(3) Uani 1 1 d .
C7 C -0.7092(2) -0.5387(2) -0.9923(2) 0.0234(4) Uani 1 1 d .
C8 C -0.7615(3) -0.6912(2) -0.9266(3) 0.0363(5) Uani 1 1 d .
H8A H -0.6600 -0.7589 -0.9092 0.054 Uiso 1 1 calc R
H8B H -0.8523 -0.7387 -1.0028 0.054 Uiso 1 1 calc R
H8C H -0.8059 -0.6742 -0.8254 0.054 Uiso 1 1 calc R
C9 C -0.8556(3) -0.4235(3) -1.0126(2) 0.0414(5) Uani 1 1 d .
H9A H -0.9037 -0.4133 -0.9122 0.062 Uiso 1 1 calc R
H9B H -0.9470 -0.4583 -1.0964 0.062 Uiso 1 1 calc R
H9C H -0.8112 -0.3241 -1.0423 0.062 Uiso 1 1 calc R
C10 C -0.6374(2) -0.5623(2) -1.1482(2) 0.0267(4) Uani 1 1 d .
H10A H -0.5952 -0.4644 -1.1844 0.040 Uiso 1 1 calc R
H10B H -0.7295 -0.6019 -1.2287 0.040 Uiso 1 1 calc R
H10C H -0.5412 -0.6359 -1.1323 0.040 Uiso 1 1 calc R
loop_
_atom_site_aniso_label
_atom_site_aniso_U_11
_atom_site_aniso_U_22
_atom_site_aniso_U_33
_atom_site_aniso_U_23
_atom_site_aniso_U_13
_atom_site_aniso_U_12
F1 0.0420(7) 0.0255(6) 0.0341(7) -0.0064(4) 0.0092(5) -0.0061(5)
O1 0.0242(6) 0.0272(7) 0.0365(8) 0.0088(5) 0.0003(5) 0.0022(5)
O2 0.0254(7) 0.0312(7) 0.0267(7) -0.0050(5) 0.0028(5) 0.0033(5)
O3 0.0216(6) 0.0320(7) 0.0201(7) -0.0021(5) 0.0010(4) -0.0047(5)
N1 0.0257(8) 0.0250(8) 0.0217(8) -0.0010(5) 0.0000(5) 0.0010(6)
C1 0.0295(10) 0.0251(9) 0.0249(10) -0.0050(7) -0.0021(7) 0.0039(7)
C2 0.0258(9) 0.0258(9) 0.0203(9) -0.0024(6) -0.0002(6) 0.0007(7)
C3 0.0213(8) 0.0208(9) 0.0297(10) 0.0026(7) 0.0005(6) -0.0006(7)
C4 0.0203(8) 0.0270(9) 0.0320(10) 0.0013(7) 0.0054(7) -0.0004(8)
C5 0.0237(8) 0.0296(10) 0.0217(9) 0.0029(7) 0.0018(6) -0.0051(8)
C6 0.0257(8) 0.0185(8) 0.0213(9) 0.0005(6) 0.0004(6) 0.0012(7)
C7 0.0210(8) 0.0271(9) 0.0210(9) -0.0027(7) -0.0009(6) -0.0009(8)
C8 0.0434(12) 0.0338(12) 0.0339(11) -0.0062(8) 0.0136(8) -0.0121(9)
C9 0.0375(12) 0.0571(15) 0.0275(11) -0.0041(9) -0.0031(7) 0.0207(11)
C10 0.0266(9) 0.0300(10) 0.0232(9) -0.0013(7) 0.0019(6) -0.0008(8)
loop_
_atom_type_symbol
_atom_type_description
_atom_type_scat_dispersion_real
_atom_type_scat_dispersion_imag
_atom_type_scat_source
C C 0.0181 0.0091 'International Tables Vol C Tables 4.2.6.8 and 6.1.1.4'
H H 0.0000 0.0000 'International Tables Vol C Tables 4.2.6.8 and 6.1.1.4'
F F 0.0727 0.0534 'International Tables Vol C Tables 4.2.6.8 and 6.1.1.4'
N N 0.0311 0.0180 'International Tables Vol C Tables 4.2.6.8 and 6.1.1.4'
O O 0.0492 0.0322 'International Tables Vol C Tables 4.2.6.8 and 6.1.1.4'
loop_
_geom_angle_atom_site_label_1
_geom_angle_atom_site_label_2
_geom_angle_atom_site_label_3
_geom_angle
C3 O1 H1 109.5
C6 O3 C7 121.23(13)
C1 N1 C5 114.50(15)
C6 N1 C1 120.02(16)
C6 N1 C5 124.10(16)
N1 C1 H1A 109.6
N1 C1 H1B 109.6
N1 C1 C2 110.19(15)
H1A C1 H1B 108.1
C2 C1 H1A 109.6
C2 C1 H1B 109.6
C1 C2 H2A 109.5
C1 C2 H2B 109.5
H2A C2 H2B 108.0
C3 C2 C1 110.93(15)
C3 C2 H2A 109.5
C3 C2 H2B 109.5
O1 C3 C2 111.12(14)
O1 C3 H3 107.5
O1 C3 C4 111.38(15)
C2 C3 H3 107.5
C4 C3 C2 111.60(14)
C4 C3 H3 107.5
F1 C4 C3 108.55(14)
F1 C4 H4 109.2
F1 C4 C5 107.87(14)
C3 C4 H4 109.2
C3 C4 C5 112.64(15)
C5 C4 H4 109.2
N1 C5 C4 109.98(15)
N1 C5 H5A 109.7
N1 C5 H5B 109.7
C4 C5 H5A 109.7
C4 C5 H5B 109.7
H5A C5 H5B 108.2
O2 C6 O3 125.14(16)
O2 C6 N1 124.06(17)
O3 C6 N1 110.77(15)
O3 C7 C8 108.63(15)
O3 C7 C9 111.29(16)
O3 C7 C10 102.29(14)
C9 C7 C8 112.97(18)
C9 C7 C10 110.67(16)
C10 C7 C8 110.47(15)
C7 C8 H8A 109.5
C7 C8 H8B 109.5
C7 C8 H8C 109.5
H8A C8 H8B 109.5
H8A C8 H8C 109.5
H8B C8 H8C 109.5
C7 C9 H9A 109.5
C7 C9 H9B 109.5
C7 C9 H9C 109.5
H9A C9 H9B 109.5
H9A C9 H9C 109.5
H9B C9 H9C 109.5
C7 C10 H10A 109.5
C7 C10 H10B 109.5
C7 C10 H10C 109.5
H10A C10 H10B 109.5
H10A C10 H10C 109.5
H10B C10 H10C 109.5
loop_
_geom_bond_atom_site_label_1
_geom_bond_atom_site_label_2
_geom_bond_distance
F1 C4 1.399(2)
O1 H1 0.8400
O1 C3 1.421(2)
O2 C6 1.224(2)
O3 C6 1.346(2)
O3 C7 1.468(2)
N1 C1 1.457(2)
N1 C5 1.461(2)
N1 C6 1.354(2)
C1 H1A 0.9900
C1 H1B 0.9900
C1 C2 1.529(3)
C2 H2A 0.9900
C2 H2B 0.9900
C2 C3 1.527(2)
C3 H3 1.0000
C3 C4 1.510(3)
C4 H4 1.0000
C4 C5 1.521(2)
C5 H5A 0.9900
C5 H5B 0.9900
C7 C8 1.521(3)
C7 C9 1.510(3)
C7 C10 1.519(3)
C8 H8A 0.9800
C8 H8B 0.9800
C8 H8C 0.9800
C9 H9A 0.9800
C9 H9B 0.9800
C9 H9C 0.9800
C10 H10A 0.9800
C10 H10B 0.9800
C10 H10C 0.9800
loop_
_geom_torsion_atom_site_label_1
_geom_torsion_atom_site_label_2
_geom_torsion_atom_site_label_3
_geom_torsion_atom_site_label_4
_geom_torsion
F1 C4 C5 N1 67.31(18)
O1 C3 C4 F1 56.59(18)
O1 C3 C4 C5 175.98(14)
N1 C1 C2 C3 54.2(2)
C1 N1 C5 C4 57.22(19)
C1 N1 C6 O2 0.9(3)
C1 N1 C6 O3 179.31(14)
C1 C2 C3 O1 -176.51(15)
C1 C2 C3 C4 -51.52(19)
C2 C3 C4 F1 -68.25(18)
C2 C3 C4 C5 51.14(19)
C3 C4 C5 N1 -52.47(19)
C5 N1 C1 C2 -58.6(2)
C5 N1 C6 O2 166.74(17)
C5 N1 C6 O3 -14.9(2)
C6 O3 C7 C8 -61.1(2)
C6 O3 C7 C9 63.9(2)
C6 O3 C7 C10 -177.89(15)
C6 N1 C1 C2 108.47(18)
C6 N1 C5 C4 -109.30(19)
C7 O3 C6 O2 -12.8(3)
C7 O3 C6 N1 168.82(15)
