#------------------------------------------------------------------------------
#$Date: 2016-03-21 04:08:19 +0200 (Mon, 21 Mar 2016) $
#$Revision: 178459 $
#$URL: svn://www.crystallography.net/cod/cif/4/02/80/4028035.cif $
#------------------------------------------------------------------------------
#
# This file is available in the Crystallography Open Database (COD),
# http://www.crystallography.net/
#
# All data on this site have been placed in the public domain by the
# contributors.
#
data_4028035
loop_
_publ_author_name
'Koichi Mitsudo'
'Jyunji Harada'
'Yo Tanaka'
'Hiroki Mandai'
'Chie Nishioka'
'Hideo Tanaka'
'Atsushi Wakamiya'
'Yasujiro Murata'
'Seiji Suga'
_publ_contact_author_address
;
Graduate School of Natural Science and Technology, Okayama University,
3-1-1 Tsushima-naka, Okayama 700-8530, Japan
;
_publ_contact_author_email       suga@cc.okayama-u.ac.jp
_publ_contact_author_fax         +81-86-251-8081
_publ_contact_author_name        'Seiji Suga'
_publ_contact_author_phone       +81-86-251-8081
_publ_section_title
;
 Synthesis of Hexa(furan-2-yl)benzenes and Their \p-Extended Derivatives
;
_journal_name_full               'Journal of Organic Chemistry'
_journal_page_first              2763
_journal_page_last               2768
_journal_paper_doi               10.1021/jo302652r
_journal_volume                  78
_journal_year                    2013
_chemical_formula_moiety         'C30 H18 O6'
_chemical_formula_sum            'C30 H18 O6'
_chemical_formula_weight         474.44
_chemical_name_systematic
;
 hexa(furan-2-yl)benzene
;
_space_group_IT_number           2
_symmetry_cell_setting           triclinic
_symmetry_space_group_name_Hall  '-P 1'
_symmetry_space_group_name_H-M   'P -1'
_atom_sites_solution_hydrogens   geom
_atom_sites_solution_primary     direct
_atom_sites_solution_secondary   difmap
_audit_creation_method           SHELXL-97
_cell_angle_alpha                108.22(3)
_cell_angle_beta                 100.96(3)
_cell_angle_gamma                104.09(4)
_cell_formula_units_Z            1
_cell_length_a                   5.765(3)
_cell_length_b                   9.629(4)
_cell_length_c                   11.290(6)
_cell_measurement_reflns_used    1958
_cell_measurement_temperature    93.1500
_cell_measurement_theta_max      27.4083
_cell_measurement_theta_min      3.6071
_cell_volume                     552.8(5)
_computing_cell_refinement       'CrystalClear (Rigaku Inc., 2008)'
_computing_data_collection       'CrystalClear (Rigaku Inc., 2008)'
_computing_data_reduction        'CrystalClear (Rigaku Inc., 2008)'
_computing_molecular_graphics
'Yadokari-XG 2009 (Wakita Nemoto et al., 2009)'
_computing_publication_material
'Yadokari-XG 2009 (Wakita,Nemoto et al., 2009)'
_computing_structure_refinement  'SHELXL-97 (Sheldrick, 1997)'
_computing_structure_solution    'SIR2004 (Burla, et al., 2005)'
_diffrn_ambient_temperature      93.1500
_diffrn_detector_area_resol_mean 28.5714
_diffrn_measured_fraction_theta_full 0.993
_diffrn_measured_fraction_theta_max 0.993
_diffrn_measurement_device_type  'Rigaku Saturn724'
_diffrn_measurement_method       dtprofit.ref
_diffrn_radiation_monochromator  Confocal
_diffrn_radiation_source         'Rotating Anode'
_diffrn_radiation_type           MoK\a
_diffrn_radiation_wavelength     0.71075
_diffrn_reflns_av_R_equivalents  0.0277
_diffrn_reflns_av_sigmaI/netI    0.0298
_diffrn_reflns_limit_h_max       7
_diffrn_reflns_limit_h_min       -7
_diffrn_reflns_limit_k_max       12
_diffrn_reflns_limit_k_min       -12
_diffrn_reflns_limit_l_max       14
_diffrn_reflns_limit_l_min       -14
_diffrn_reflns_number            8683
_diffrn_reflns_theta_full        27.41
_diffrn_reflns_theta_max         27.41
_diffrn_reflns_theta_min         3.61
_exptl_absorpt_coefficient_mu    0.100
_exptl_absorpt_correction_T_max  1.0000
_exptl_absorpt_correction_T_min  0.8801
_exptl_absorpt_correction_type   multi-scan
_exptl_absorpt_process_details   'REQAB (Rigaku, 1998)'
_exptl_crystal_colour            Yellow
_exptl_crystal_density_diffrn    1.425
_exptl_crystal_description       Block
_exptl_crystal_F_000             246
_exptl_crystal_size_max          0.2400
_exptl_crystal_size_mid          0.1800
_exptl_crystal_size_min          0.0800
_refine_diff_density_max         0.302
_refine_diff_density_min         -0.291
_refine_diff_density_rms         0.048
_refine_ls_extinction_method     none
_refine_ls_goodness_of_fit_ref   1.081
_refine_ls_hydrogen_treatment    constr
_refine_ls_matrix_type           full
_refine_ls_number_parameters     163
_refine_ls_number_reflns         2499
_refine_ls_number_restraints     0
_refine_ls_restrained_S_all      1.081
_refine_ls_R_factor_all          0.0454
_refine_ls_R_factor_gt           0.0388
_refine_ls_shift/su_max          0.000
_refine_ls_shift/su_mean         0.000
_refine_ls_structure_factor_coef Fsqd
_refine_ls_weighting_details
'calc w=1/[\s^2^(Fo^2^)+(0.0661P)^2^+0.0859P] where P=(Fo^2^+2Fc^2^)/3'
_refine_ls_weighting_scheme      calc
_refine_ls_wR_factor_gt          0.1083
_refine_ls_wR_factor_ref         0.1121
_reflns_number_gt                2091
_reflns_number_total             2499
_reflns_threshold_expression     >2sigma(I)
_iucr_refine_instructions_details
;
TITL
REM  Yadorkari-X generated
CELL 0.71075 5.7654 9.6287 11.2896 108.2166 100.9647 104.0885
ZERR 1.0 0.0027 0.0041 0.0055 0.0263 0.0294 0.0436
LATT 1
REM  SPGR P-1 triclinic
SFAC C H O
UNIT 30 18 6
SIZE 0.24 0.18 0.08
TEMP -179.8
L.S. 4
FMAP 2
PLAN -25
ACTA
CONF
BOND $H
MERG 2
 
WGHT    0.066100    0.085900
FVAR      18.60937
C1    1    0.132511    0.914783    0.547963    11.00000    0.01243    0.01502 =
         0.01451    0.00588    0.00405    0.00427
C2    1    0.032505    0.869650    0.412426    11.00000    0.01400    0.01399 =
         0.01415    0.00413    0.00478    0.00374
C3    1   -0.100370    0.955637    0.363961    11.00000    0.01398    0.01466 =
         0.01268    0.00437    0.00284    0.00266
O1    3    0.517023    0.866417    0.625578    11.00000    0.01742    0.02402 =
         0.02267    0.00922    0.00441    0.00817
O2    3   -0.142294    0.628378    0.224687    11.00000    0.02111    0.01584 =
         0.01515    0.00206    0.00295    0.00443
O3    3   -0.029064    0.886453    0.151626    11.00000    0.01927    0.02121 =
         0.01227    0.00504    0.00470    0.00681
C4    1    0.261963    0.818576    0.596367    11.00000    0.01489    0.01723 =
         0.01132    0.00391    0.00328    0.00682
C5    1    0.176826    0.683330    0.611611    11.00000    0.02207    0.01634 =
         0.01883    0.00486    0.00813    0.00608
AFIX  43
H5    2    0.007832    0.626329    0.597643    11.00000   -1.20000
AFIX   0
C6    1    0.396284    0.643142    0.653639    11.00000    0.03876    0.02360 =
         0.01949    0.01105    0.01021    0.01868
AFIX  43
H6    2    0.399907    0.554199    0.672708    11.00000   -1.20000
AFIX   0
C7    1    0.592590    0.756075    0.660243    11.00000    0.02567    0.03309 =
         0.02078    0.01044    0.00544    0.01896
AFIX  43
H7    2    0.761479    0.759645    0.685470    11.00000   -1.20000
AFIX   0
C8    1    0.068010    0.732590    0.323027    11.00000    0.01862    0.01419 =
         0.01154    0.00453    0.00259    0.00454
C9    1    0.270023    0.687417    0.310347    11.00000    0.02324    0.02144 =
         0.01523    0.00637    0.00585    0.01051
AFIX  43
H9    2    0.436183    0.738289    0.365987    11.00000   -1.20000
AFIX   0
C10   1    0.184154    0.548180    0.196820    11.00000    0.03341    0.02184 =
         0.01853    0.00726    0.01124    0.01614
AFIX  43
H10   2    0.282262    0.488904    0.161890    11.00000   -1.20000
AFIX   0
C11   1   -0.062769    0.517706    0.149270    11.00000    0.03535    0.01470 =
         0.01526    0.00205    0.00825    0.00816
AFIX  43
H11   2   -0.168140    0.431273    0.073684    11.00000   -1.20000
AFIX   0
C12   1   -0.195207    0.915138    0.222204    11.00000    0.02018    0.01287 =
         0.01347    0.00439    0.00606    0.00616
C13   1   -0.417716    0.894527    0.141423    11.00000    0.02099    0.02119 =
         0.01495    0.00599    0.00357    0.00872
AFIX  43
H13   2   -0.562454    0.907541    0.165576    11.00000   -1.20000
AFIX   0
C14   1   -0.391715    0.849147    0.012137    11.00000    0.02647    0.01903 =
         0.01217    0.00487    0.00100    0.00709
AFIX  43
H14   2   -0.515932    0.826088   -0.066153    11.00000   -1.20000
AFIX   0
C15   1   -0.156696    0.845692    0.023660    11.00000    0.02855    0.01840 =
         0.01112    0.00462    0.00535    0.00665
AFIX  43
H15   2   -0.088403    0.818687   -0.047216    11.00000   -1.20000
 
HKLF 4 1 1 0 0 0 1 0 0 0 1
 
REM
REM R1 =  0.0388 for   2091 Fo > 4sig(Fo)  and  0.0454 for all   2499 data
REM    163 parameters refined using      0 restraints
 
END  
     
WGHT      0.0661      0.0859 
REM Highest difference peak  0.302,  deepest hole -0.291,  1-sigma level  0.048
Q1    1   0.2594  0.6287  0.6215  11.00000  0.05    0.30
Q2    1  -0.0072  0.8327 -0.0138  11.00000  0.05    0.25
Q3    1  -0.2483  0.4462  0.0727  11.00000  0.05    0.25
Q4    1   0.2091  0.7653  0.6361  11.00000  0.05    0.23
Q5    1   0.1828  0.7122  0.5657  11.00000  0.05    0.23
Q6    1   0.1411  1.0573  0.7053  11.00000  0.05    0.23
Q7    1   0.0450  1.0825  0.6136  11.00000  0.05    0.23
Q8    1   0.1421  0.9946  0.5985  11.00000  0.05    0.23
Q9    1   0.8090  0.8162  0.6895  11.00000  0.05    0.23
Q10   1   0.2051  0.8715  0.5817  11.00000  0.05    0.22
Q11   1   0.1462  0.6792  0.3471  11.00000  0.05    0.21
Q12   1   0.0386  0.8059  0.3705  11.00000  0.05    0.20
Q13   1  -0.2520  0.9024  0.0169  11.00000  0.05    0.19
Q14   1   0.2423  0.6233  0.2546  11.00000  0.05    0.19
Q15   1  -0.3252  0.8589  0.1776  11.00000  0.05    0.19
Q16   1   0.1064  0.5717  0.1579  11.00000  0.05    0.19
Q17   1   0.4966  0.6647  0.6155  11.00000  0.05    0.19
Q18   1  -0.4033  0.9093  0.0737  11.00000  0.05    0.18
Q19   1  -0.3093  0.7967  0.0127  11.00000  0.05    0.18
Q20   1   0.1809  0.7411  0.2972  11.00000  0.05    0.18
Q21   1  -0.2938  0.9489  0.1842  11.00000  0.05    0.17
Q22   1   0.0466  0.8769  0.4794  11.00000  0.05    0.17
Q23   1   0.0655  0.5105  0.1993  11.00000  0.05    0.16
Q24   1   0.0963  0.9029  0.4762  11.00000  0.05    0.16
Q25   1   0.4095  0.5232  0.1545  11.00000  0.05    0.14
;
_cod_data_source_file            jo302652r_si_002_3.cif
_cod_data_source_block           2a
_cod_original_cell_volume        552.8(4)
_cod_database_code               4028035
loop_
_symmetry_equiv_pos_as_xyz
'x, y, z'
'-x, -y, -z'
loop_
_atom_site_label
_atom_site_type_symbol
_atom_site_fract_x
_atom_site_fract_y
_atom_site_fract_z
_atom_site_U_iso_or_equiv
_atom_site_adp_type
_atom_site_occupancy
_atom_site_symmetry_multiplicity
_atom_site_calc_flag
_atom_site_refinement_flags
C1 C 0.1325(2) 0.91478(14) 0.54796(11) 0.0139(3) Uani 1 1 d .
C2 C 0.0325(2) 0.86965(14) 0.41243(11) 0.0144(3) Uani 1 1 d .
C3 C -0.1004(2) 0.95564(14) 0.36396(11) 0.0145(3) Uani 1 1 d .
O1 O 0.51702(17) 0.86642(11) 0.62558(9) 0.0212(2) Uani 1 1 d .
O2 O -0.14229(16) 0.62838(10) 0.22469(8) 0.0190(2) Uani 1 1 d .
O3 O -0.02906(16) 0.88645(10) 0.15163(8) 0.0178(2) Uani 1 1 d .
C4 C 0.2620(2) 0.81858(14) 0.59637(11) 0.0146(3) Uani 1 1 d .
C5 C 0.1768(3) 0.68333(15) 0.61161(12) 0.0192(3) Uani 1 1 d .
H5 H 0.0078 0.6263 0.5976 0.023 Uiso 1 1 calc R
C6 C 0.3963(3) 0.64314(16) 0.65364(13) 0.0246(3) Uani 1 1 d .
H6 H 0.3999 0.5542 0.6727 0.030 Uiso 1 1 calc R
C7 C 0.5926(3) 0.75607(17) 0.66024(13) 0.0248(3) Uani 1 1 d .
H7 H 0.7615 0.7596 0.6855 0.030 Uiso 1 1 calc R
C8 C 0.0680(2) 0.73259(14) 0.32303(11) 0.0153(3) Uani 1 1 d .
C9 C 0.2700(2) 0.68742(16) 0.31035(12) 0.0194(3) Uani 1 1 d .
H9 H 0.4362 0.7383 0.3660 0.023 Uiso 1 1 calc R
C10 C 0.1842(3) 0.54818(16) 0.19682(13) 0.0227(3) Uani 1 1 d .
H10 H 0.2823 0.4889 0.1619 0.027 Uiso 1 1 calc R
C11 C -0.0628(3) 0.51771(16) 0.14927(13) 0.0225(3) Uani 1 1 d .
H11 H -0.1681 0.4313 0.0737 0.027 Uiso 1 1 calc R
C12 C -0.1952(2) 0.91514(14) 0.22220(11) 0.0153(3) Uani 1 1 d .
C13 C -0.4177(2) 0.89453(15) 0.14142(12) 0.0191(3) Uani 1 1 d .
H13 H -0.5625 0.9075 0.1656 0.023 Uiso 1 1 calc R
C14 C -0.3917(3) 0.84915(15) 0.01214(12) 0.0202(3) Uani 1 1 d .
H14 H -0.5159 0.8261 -0.0662 0.024 Uiso 1 1 calc R
C15 C -0.1567(3) 0.84569(15) 0.02366(12) 0.0198(3) Uani 1 1 d .
H15 H -0.0884 0.8187 -0.0472 0.024 Uiso 1 1 calc R
loop_
_atom_site_aniso_label
_atom_site_aniso_U_11
_atom_site_aniso_U_22
_atom_site_aniso_U_33
_atom_site_aniso_U_23
_atom_site_aniso_U_13
_atom_site_aniso_U_12
C1 0.0124(6) 0.0150(6) 0.0145(6) 0.0059(5) 0.0041(4) 0.0043(5)
C2 0.0140(6) 0.0140(6) 0.0141(6) 0.0041(5) 0.0048(4) 0.0037(5)
C3 0.0140(6) 0.0147(6) 0.0127(5) 0.0044(5) 0.0028(4) 0.0027(5)
O1 0.0174(5) 0.0240(5) 0.0227(5) 0.0092(4) 0.0044(4) 0.0082(4)
O2 0.0211(5) 0.0158(5) 0.0151(4) 0.0021(4) 0.0029(4) 0.0044(4)
O3 0.0193(5) 0.0212(5) 0.0123(4) 0.0050(4) 0.0047(3) 0.0068(4)
C4 0.0149(6) 0.0172(6) 0.0113(5) 0.0039(5) 0.0033(4) 0.0068(5)
C5 0.0221(6) 0.0163(6) 0.0188(6) 0.0049(5) 0.0081(5) 0.0061(5)
C6 0.0388(8) 0.0236(7) 0.0195(6) 0.0110(6) 0.0102(6) 0.0187(6)
C7 0.0257(7) 0.0331(8) 0.0208(7) 0.0104(6) 0.0054(5) 0.0190(6)
C8 0.0186(6) 0.0142(6) 0.0115(5) 0.0045(5) 0.0026(4) 0.0045(5)
C9 0.0232(7) 0.0214(7) 0.0152(6) 0.0064(5) 0.0058(5) 0.0105(5)
C10 0.0334(8) 0.0218(7) 0.0185(6) 0.0073(5) 0.0112(6) 0.0161(6)
C11 0.0353(8) 0.0147(6) 0.0153(6) 0.0021(5) 0.0082(5) 0.0082(6)
C12 0.0202(6) 0.0129(6) 0.0135(6) 0.0044(5) 0.0061(5) 0.0062(5)
C13 0.0210(6) 0.0212(7) 0.0149(6) 0.0060(5) 0.0036(5) 0.0087(5)
C14 0.0265(7) 0.0190(6) 0.0122(6) 0.0049(5) 0.0010(5) 0.0071(5)
C15 0.0285(7) 0.0184(6) 0.0111(6) 0.0046(5) 0.0054(5) 0.0066(5)
loop_
_atom_type_symbol
_atom_type_description
_atom_type_scat_dispersion_real
_atom_type_scat_dispersion_imag
_atom_type_scat_source
C C 0.0033 0.0016 'International Tables Vol C Tables 4.2.6.8 and 6.1.1.4'
H H 0.0000 0.0000 'International Tables Vol C Tables 4.2.6.8 and 6.1.1.4'
O O 0.0106 0.0060 'International Tables Vol C Tables 4.2.6.8 and 6.1.1.4'
loop_
_geom_angle_atom_site_label_1
_geom_angle_atom_site_label_2
_geom_angle_atom_site_label_3
_geom_angle
_geom_angle_site_symmetry_1
C3 C1 C2 120.68(11) 2_576
C3 C1 C4 120.57(11) 2_576
C2 C1 C4 118.68(11) .
C1 C2 C3 119.82(11) .
C1 C2 C8 119.23(11) .
C3 C2 C8 120.95(11) .
C1 C3 C2 119.50(11) 2_576
C1 C3 C12 119.80(11) 2_576
C2 C3 C12 120.64(11) .
C4 O1 C7 106.29(11) .
C11 O2 C8 105.88(11) .
C15 O3 C12 106.10(10) .
C5 C4 O1 110.62(12) .
C5 C4 C1 132.52(12) .
O1 C4 C1 116.74(11) .
C4 C5 C6 105.88(13) .
C4 C5 H5 127.1 .
C6 C5 H5 127.1 .
C7 C6 C5 106.37(13) .
C7 C6 H6 126.8 .
C5 C6 H6 126.8 .
C6 C7 O1 110.85(12) .
C6 C7 H7 124.6 .
O1 C7 H7 124.6 .
C9 C8 O2 110.10(11) .
C9 C8 C2 133.82(12) .
O2 C8 C2 115.96(11) .
C8 C9 C10 106.60(13) .
C8 C9 H9 126.7 .
C10 C9 H9 126.7 .
C11 C10 C9 106.49(13) .
C11 C10 H10 126.8 .
C9 C10 H10 126.8 .
C10 C11 O2 110.92(12) .
C10 C11 H11 124.5 .
O2 C11 H11 124.5 .
C13 C12 O3 110.11(11) .
C13 C12 C3 134.14(12) .
O3 C12 C3 115.72(11) .
C12 C13 C14 106.47(12) .
C12 C13 H13 126.8 .
C14 C13 H13 126.8 .
C15 C14 C13 106.48(12) .
C15 C14 H14 126.8 .
C13 C14 H14 126.8 .
C14 C15 O3 110.84(12) .
C14 C15 H15 124.6 .
O3 C15 H15 124.6 .
loop_
_geom_bond_atom_site_label_1
_geom_bond_atom_site_label_2
_geom_bond_distance
_geom_bond_site_symmetry_2
C1 C3 1.4095(18) 2_576
C1 C2 1.4104(18) .
C1 C4 1.4872(17) .
C2 C3 1.4157(18) .
C2 C8 1.4763(18) .
C3 C1 1.4096(18) 2_576
C3 C12 1.4783(18) .
O1 C4 1.3690(17) .
O1 C7 1.3756(18) .
O2 C11 1.3747(17) .
O2 C8 1.3816(17) .
O3 C15 1.3723(16) .
O3 C12 1.3821(16) .
C4 C5 1.3518(19) .
C5 C6 1.449(2) .
C5 H5 0.9500 .
C6 C7 1.337(2) .
C6 H6 0.9500 .
C7 H7 0.9500 .
C8 C9 1.3555(19) .
C9 C10 1.431(2) .
C9 H9 0.9500 .
C10 C11 1.345(2) .
C10 H10 0.9500 .
C11 H11 0.9500 .
C12 C13 1.3545(19) .
C13 C14 1.4353(19) .
C13 H13 0.9500 .
C14 C15 1.346(2) .
C14 H14 0.9500 .
C15 H15 0.9500 .
loop_
_geom_torsion_atom_site_label_1
_geom_torsion_atom_site_label_2
_geom_torsion_atom_site_label_3
_geom_torsion_atom_site_label_4
_geom_torsion
_geom_torsion_site_symmetry_1
_geom_torsion_site_symmetry_4
C3 C1 C2 C3 0.37(19) 2_576 .
C4 C1 C2 C3 177.46(11) . .
C3 C1 C2 C8 -179.52(11) 2_576 .
C4 C1 C2 C8 -2.43(17) . .
C1 C2 C3 C1 -0.37(19) . 2_576
C8 C2 C3 C1 179.52(11) . 2_576
C1 C2 C3 C12 176.79(11) . .
C8 C2 C3 C12 -3.32(18) . .
C7 O1 C4 C5 0.03(13) . .
C7 O1 C4 C1 -176.47(10) . .
C3 C1 C4 C5 98.60(17) 2_576 .
C2 C1 C4 C5 -78.50(18) . .
C3 C1 C4 O1 -85.84(14) 2_576 .
C2 C1 C4 O1 97.07(14) . .
O1 C4 C5 C6 -0.06(14) . .
C1 C4 C5 C6 175.71(13) . .
C4 C5 C6 C7 0.07(14) . .
C5 C6 C7 O1 -0.05(15) . .
C4 O1 C7 C6 0.01(15) . .
C11 O2 C8 C9 -0.80(14) . .
C11 O2 C8 C2 175.86(10) . .
C1 C2 C8 C9 -51.3(2) . .
C3 C2 C8 C9 128.77(16) . .
C1 C2 C8 O2 133.01(12) . .
C3 C2 C8 O2 -46.88(16) . .
O2 C8 C9 C10 0.83(14) . .
C2 C8 C9 C10 -175.00(13) . .
C8 C9 C10 C11 -0.54(15) . .
C9 C10 C11 O2 0.05(16) . .
C8 O2 C11 C10 0.45(15) . .
C15 O3 C12 C13 -0.58(14) . .
C15 O3 C12 C3 177.68(10) . .
C1 C3 C12 C13 -50.7(2) 2_576 .
C2 C3 C12 C13 132.12(16) . .
C1 C3 C12 O3 131.55(12) 2_576 .
C2 C3 C12 O3 -45.60(16) . .
O3 C12 C13 C14 0.41(15) . .
C3 C12 C13 C14 -177.40(13) . .
C12 C13 C14 C15 -0.08(15) . .
C13 C14 C15 O3 -0.28(15) . .
C12 O3 C15 C14 0.53(14) . .
