#------------------------------------------------------------------------------
#$Date: 2016-03-21 04:23:00 +0200 (Mon, 21 Mar 2016) $
#$Revision: 178467 $
#$URL: svn://www.crystallography.net/cod/cif/4/02/88/4028881.cif $
#------------------------------------------------------------------------------
#
# This file is available in the Crystallography Open Database (COD),
# http://www.crystallography.net/
#
# All data on this site have been placed in the public domain by the
# contributors.
#
data_4028881
loop_
_publ_author_name
'Nared Phetrak'
'Thanya Rukkijakan'
'Jakkapan Sirijaraensre'
'Samran Prabpai'
'Palangpon Kongsaeree'
'Chayada Klinchan'
'Pitak Chuawong'
_publ_contact_author_address
;Department of Chemistry, Faculty of Science
Mahidol University
Bangkok 10400, Thailand    
;
_publ_contact_author_email       palangpon.kon@mahidol.ac.th
_publ_contact_author_fax         +662-354-7151
_publ_contact_author_name        'Palangpon Kongsaeree'
_publ_contact_author_phone       +662-201-5190
_publ_section_title
;
 Regioselectivity of Larock Heteroannulation: A Contribution from
 Electronic Properties of Diarylacetylenes
;
_journal_name_full               'Journal of Organic Chemistry'
_journal_page_first              12703
_journal_page_last               12709
_journal_paper_doi               10.1021/jo402304s
_journal_volume                  78
_journal_year                    2013
_chemical_compound_source        Synthesis
_chemical_formula_moiety         'C20 H16 N2'
_chemical_formula_sum            'C20 H16 N2'
_chemical_formula_weight         284.35
_space_group_crystal_system      monoclinic
_space_group_IT_number           4
_space_group_name_Hall           'P 2yb'
_space_group_name_H-M_alt        'P 1 21 1'
_symmetry_space_group_name_Hall  'P 2yb'
_symmetry_space_group_name_H-M   'P 1 21 1'
_atom_sites_solution_hydrogens   difmap
_audit_creation_method           SHELXL-2013
_cell_angle_alpha                90
_cell_angle_beta                 117.66(4)
_cell_angle_gamma                90
_cell_formula_units_Z            2
_cell_length_a                   10.244(9)
_cell_length_b                   8.151(3)
_cell_length_c                   10.261(10)
_cell_measurement_temperature    293(2)
_cell_volume                     758.9(11)
_computing_molecular_graphics
;
O. V. Dolomanov, L. J. Bourhis, R. J. Gildea, J. A. K. Howard and H. Puschmann,
OLEX2: a complete structure solution, refinement and analysis program.
J. Appl. Cryst. (2009). 42, 339-341.
;
_computing_publication_material
;
O. V. Dolomanov, L. J. Bourhis, R. J. Gildea, J. A. K. Howard and H. Puschmann,
OLEX2: a complete structure solution, refinement and analysis program.
J. Appl. Cryst. (2009). 42, 339-341.
;
_computing_structure_refinement  'SHELXL-2013 (Sheldrick, 2013)'
_diffrn_ambient_temperature      298(2)
_diffrn_measured_fraction_theta_full 0.661
_diffrn_measured_fraction_theta_max 0.834
_diffrn_orient_matrix_type       X=UH
_diffrn_orient_matrix_UB_11      0.02837
_diffrn_orient_matrix_UB_12      -0.09738
_diffrn_orient_matrix_UB_13      0.04310
_diffrn_orient_matrix_UB_21      -0.10247
_diffrn_orient_matrix_UB_22      0.00000
_diffrn_orient_matrix_UB_23      0.06746
_diffrn_orient_matrix_UB_31      -0.03421
_diffrn_orient_matrix_UB_32      -0.09076
_diffrn_orient_matrix_UB_33      -0.05196
_diffrn_radiation_probe          x-ray
_diffrn_radiation_type           MoK\a
_diffrn_radiation_wavelength     0.71073
_diffrn_reflns_av_unetI/netI     0.0326
_diffrn_reflns_Laue_measured_fraction_max 0.834
_diffrn_reflns_limit_h_max       11
_diffrn_reflns_limit_h_min       0
_diffrn_reflns_limit_k_max       8
_diffrn_reflns_limit_k_min       0
_diffrn_reflns_limit_l_max       9
_diffrn_reflns_limit_l_min       -10
_diffrn_reflns_number            4295
_diffrn_reflns_point_group_measured_fraction_max 0.451
_diffrn_reflns_theta_full        25.242
_diffrn_reflns_theta_max         23.154
_diffrn_reflns_theta_min         3.840
_exptl_absorpt_coefficient_mu    0.074
_exptl_crystal_colour            Colorless
_exptl_crystal_density_diffrn    1.244
_exptl_crystal_description       Block
_exptl_crystal_F_000             300
_exptl_crystal_size_max          0.20
_exptl_crystal_size_mid          0.15
_exptl_crystal_size_min          0.10
_refine_diff_density_max         0.180
_refine_diff_density_min         -0.152
_refine_diff_density_rms         0.038
_refine_ls_abs_structure_details
;
No quotients, so Flack parameter determined by classical intensity fit
;
_refine_ls_abs_structure_Flack   0(8)
_refine_ls_extinction_coef       0.094(16)
_refine_ls_extinction_expression Fc^*^=kFc[1+0.001xFc^2^\l^3^/sin(2\q)]^-1/4^
_refine_ls_extinction_method     SHELXL
_refine_ls_goodness_of_fit_ref   1.034
_refine_ls_hydrogen_treatment    mixed
_refine_ls_matrix_type           full
_refine_ls_number_parameters     206
_refine_ls_number_reflns         977
_refine_ls_number_restraints     3
_refine_ls_restrained_S_all      1.032
_refine_ls_R_factor_all          0.0506
_refine_ls_R_factor_gt           0.0400
_refine_ls_shift/su_max          0.000
_refine_ls_shift/su_mean         0.000
_refine_ls_structure_factor_coef Fsqd
_refine_ls_weighting_details
'w=1/[\s^2^(Fo^2^)+(0.0631P)^2^+0.3196P] where P=(Fo^2^+2Fc^2^)/3'
_refine_ls_weighting_scheme      calc
_refine_ls_wR_factor_gt          0.0953
_refine_ls_wR_factor_ref         0.1032
_reflns_Friedel_coverage         0.000
_reflns_number_gt                861
_reflns_number_total             977
_reflns_threshold_expression     'I > 2\s(I)'
_cod_data_source_file            jo402304s_si_002_1.cif
_cod_data_source_block           9a
_cod_database_code               4028881
#BEGIN Tags that were not found in dictionaries:
_olex2_refinement_description
;
1. Fixed Uiso
 At 1.2 times of:
  All C(H) groups, All C(H,H,H) groups, All N(H) groups
2. Restrained distances
 N18-H18A
 0.96 with sigma of 0.02
 N18-H18B
 0.96 with sigma of 0.02
3.a Riding coordinates:
 N1(H1), C19(H19), C16(H16), C17(H17), C5(H5), C20(H20), C2(H2), C10(H10),
 C14(H14), C12(H12), C13(H13), C11(H11), C4(H4), C3(H3)
;
_shelx_res_file
;
TITL PKP1213B1
CELL 0.71073 10.244 8.151 10.261 90 117.657 90
ZERR 2 0.0092 0.0029 0.0097 0 0.0404 0
LATT -1
SYMM -X,0.5+Y,-Z

SFAC C H n
DISP C 0.0033 0.0016
DISP H 0 0
DISP N 0.0061 0.0033
UNIT 40 32 4
DFIX 0.96 N18 H18a
DFIX 0.96 N18 H18b

L.S. 8
PLAN  -20
LIST 4
BOND $H
fmap 2
acta
MERG 0
OMIT -3 180
OMIT 4 7 -5
OMIT 2 0 -2
OMIT 0 7 1
REM <HKL>C:/Users/Palangpon/Dropbox/01_Manuscripts-Working/Pitak-Sept2013/PKP-
REM pitak/PKP1213B1-9atest/maxus/shelxl.hkl</HKL>

WGHT    0.063100    0.319600
EXTI    0.094113
FVAR       2.31523
C7    1    0.306719    0.287681    0.079131    11.00000    0.02075    0.03951 =
         0.03195    0.00425    0.01361    0.00302
C9    1    0.543798    0.256422    0.326588    11.00000    0.02065    0.04165 =
         0.03676   -0.00152    0.01348   -0.00503
N1    3    0.519120    0.225128    0.077842    11.00000    0.02864    0.06250 =
         0.04357   -0.00171    0.02167    0.00356
AFIX   3
H1    2    0.619020    0.239648    0.095582    11.00000   -1.20000
AFIX   0
C19   1    0.064810    0.220769    0.261196    11.00000    0.03155    0.05265 =
         0.02412   -0.00015    0.01261   -0.00841
AFIX   3
H19   2    0.060850    0.148609    0.333246    11.00000   -1.20000
AFIX   0
C6    1    0.282168    0.278431   -0.070835    11.00000    0.02756    0.04352 =
         0.03117    0.00152    0.01425   -0.00233
C15   1    0.189584    0.309882    0.122845    11.00000    0.02640    0.03449 =
         0.02711    0.00069    0.01318    0.00256
C18   1   -0.043668    0.336603    0.194666    11.00000    0.01934    0.04696 =
         0.03520   -0.00752    0.01054   -0.00143
C16   1    0.080129    0.426700    0.057570    11.00000    0.03652    0.04097 =
         0.04020    0.00631    0.02168    0.00593
AFIX   3
H16   2    0.083529    0.502520   -0.012380    11.00000   -1.20000
AFIX   0
N18   3   -0.163013    0.345469    0.226718    11.00000    0.03686    0.06656 =
         0.06252   -0.00737    0.03286    0.00023
C8    1    0.452890    0.258207    0.166101    11.00000    0.03322    0.04485 =
         0.03760   -0.00199    0.02228   -0.00080
C17   1   -0.036109    0.436233    0.091030    11.00000    0.02726    0.05011 =
         0.04315    0.01022    0.01446    0.01496
AFIX   3
H17   2   -0.113439    0.514193    0.039640    11.00000   -1.20000
AFIX   0
C1    1    0.417533    0.236936   -0.066109    11.00000    0.03427    0.04781 =
         0.03786   -0.00398    0.01853   -0.00334
C5    1    0.159129    0.293330   -0.207110    11.00000    0.03733    0.05717 =
         0.03402    0.00144    0.01870   -0.00404
AFIX   3
H5    2    0.066139    0.324120   -0.212870    11.00000   -1.20000
AFIX   0
C20   1    0.179277    0.206835    0.225251    11.00000    0.02259    0.04075 =
         0.03064    0.00405    0.00736    0.00286
AFIX   3
H20   2    0.254357    0.125535    0.273301    11.00000   -1.20000
AFIX   0
C2    1    0.431780    0.209392   -0.192432    11.00000    0.05651    0.06634 =
         0.05149   -0.00563    0.04050   -0.00140
AFIX   3
H2    2    0.524900    0.177512   -0.185772    11.00000   -1.20000
AFIX   0
C10   1    0.665558    0.151317    0.392465    11.00000    0.03353    0.04762 =
         0.04863    0.00372    0.02215    0.00409
AFIX   3
H10   2    0.689448    0.081007    0.331525    11.00000   -1.20000
AFIX   0
C14   1    0.512399    0.354802    0.418489    11.00000    0.02555    0.04105 =
         0.04444   -0.00086    0.01379   -0.00062
AFIX   3
H14   2    0.429940    0.428432    0.376229    11.00000   -1.20000
AFIX   0
C12   1    0.716091    0.247674    0.630711    11.00000    0.03932    0.06840 =
         0.03820   -0.00044    0.01009   -0.01323
AFIX   3
H12   2    0.776211    0.246844    0.735561    11.00000   -1.20000
AFIX   0
C13   1    0.595924    0.349290    0.568264    11.00000    0.03956    0.05314 =
         0.04538   -0.01072    0.01904   -0.00552
AFIX   3
H13   2    0.568754    0.415920    0.628994    11.00000   -1.20000
AFIX   0
C11   1    0.750691    0.148217    0.542955    11.00000    0.03270    0.05857 =
         0.05063    0.01163    0.01358    0.00332
AFIX   3
H11   2    0.834241    0.076087    0.585085    11.00000   -1.20000
AFIX   0
C4    1    0.172810    0.266665   -0.332381    11.00000    0.04769    0.06770 =
         0.03584    0.00049    0.01715   -0.01113
AFIX   3
H4    2    0.087370    0.270245   -0.427081    11.00000   -1.20000
AFIX   0
C3    1    0.308449    0.224528   -0.323581    11.00000    0.06294    0.07723 =
         0.03475   -0.00391    0.02842   -0.00722
AFIX   3
H3    2    0.314129    0.213568   -0.413961    11.00000   -1.20000
AFIX   0
H18A  2   -0.139575    0.310969    0.324564    11.00000   -1.20000
H18B  2   -0.206797    0.453024    0.203222    11.00000   -1.20000
HKLF 4

REM  PKP1213B1
REM R1 =  0.0400 for     861 Fo > 4sig(Fo)  and  0.0506 for all     977 data
REM    206 parameters refined using      3 restraints

END

WGHT      0.0572      0.2978

REM Highest difference peak  0.180,  deepest hole -0.152,  1-sigma level  0.038
Q1    1  -0.1604  0.3355  0.0211  11.00000  0.05    0.18
Q2    1   0.1853  0.2186  0.4116  11.00000  0.05    0.15
Q3    1   0.5262  0.3387  0.6509  11.00000  0.05    0.15
Q4    1   0.0486  0.1619  0.1317  11.00000  0.05    0.14
Q5    1   0.2024  0.0097  0.1962  11.00000  0.05    0.13
Q6    1   0.7217  0.2391  0.7494  11.00000  0.05    0.13
Q7    1   0.0445  0.6551  0.0542  11.00000  0.05    0.12
Q8    1   0.3382  0.2603 -0.0769  11.00000  0.05    0.12
Q9    1   0.0740  0.2331  0.4248  11.00000  0.05    0.12
Q10   1  -0.0630  0.1790  0.0793  11.00000  0.05    0.12
Q11   1  -0.0238  0.2907 -0.5656  11.00000  0.05    0.12
Q12   1   0.3183  0.1090  0.0831  11.00000  0.05    0.12
Q13   1   0.6196  0.1459  0.6004  11.00000  0.05    0.11
Q14   1   0.3648  0.4578  0.1128  11.00000  0.05    0.11
Q15   1   0.4224  0.2549 -0.1172  11.00000  0.05    0.11
Q16   1   0.5818  0.1175  0.5018  11.00000  0.05    0.11
Q17   1   0.4933  0.3954  0.1397  11.00000  0.05    0.11
Q18   1  -0.2338  0.3451  0.0784  11.00000  0.05    0.11
Q19   1   0.2771  0.2907 -0.2341  11.00000  0.05    0.11
Q20   1   0.3954  0.3545  0.2614  11.00000  0.05    0.11
;
_shelx_res_checksum              10450
_shelx_space_group_comment
;
The symmetry employed for this shelxl refinement is uniquely defined
by the following loop, which should always be used as a source of
symmetry information in preference to the above space-group names.
They are only intended as comments.
;
_shelxl_version_number           2013-4
#END Tags that were not found in dictionaries
loop_
_space_group_symop_operation_xyz
'x, y, z'
'-x, y+1/2, -z'
loop_
_atom_site_label
_atom_site_type_symbol
_atom_site_fract_x
_atom_site_fract_y
_atom_site_fract_z
_atom_site_U_iso_or_equiv
_atom_site_adp_type
_atom_site_occupancy
_atom_site_site_symmetry_order
_atom_site_calc_flag
_atom_site_refinement_flags_posn
_atom_site_refinement_flags_adp
C7 C 0.3067(4) 0.2877(6) 0.0791(4) 0.0302(12) Uani 1 1 d . .
C9 C 0.5438(4) 0.2564(6) 0.3266(4) 0.0330(12) Uani 1 1 d . .
N1 N 0.5191(4) 0.2251(6) 0.0778(4) 0.0430(11) Uani 1 1 d . .
H1 H 0.6190 0.2396 0.0956 0.052 Uiso 1 1 d R U
C19 C 0.0648(4) 0.2208(7) 0.2612(4) 0.0362(12) Uani 1 1 d . .
H19 H 0.0609 0.1486 0.3332 0.043 Uiso 1 1 d R U
C6 C 0.2822(4) 0.2784(6) -0.0708(4) 0.0338(12) Uani 1 1 d . .
C15 C 0.1896(4) 0.3099(5) 0.1228(4) 0.0290(11) Uani 1 1 d . .
C18 C -0.0437(4) 0.3366(6) 0.1947(5) 0.0347(12) Uani 1 1 d . .
C16 C 0.0801(5) 0.4267(6) 0.0576(5) 0.0377(12) Uani 1 1 d . .
H16 H 0.0835 0.5025 -0.0124 0.045 Uiso 1 1 d R U
N18 N -0.1630(4) 0.3455(6) 0.2267(5) 0.0515(12) Uani 1 1 d D .
C8 C 0.4529(4) 0.2582(6) 0.1661(4) 0.0363(12) Uani 1 1 d . .
C17 C -0.0361(4) 0.4362(6) 0.0910(5) 0.0409(13) Uani 1 1 d . .
H17 H -0.1134 0.5142 0.0396 0.049 Uiso 1 1 d R U
C1 C 0.4175(4) 0.2369(7) -0.0661(5) 0.0393(12) Uani 1 1 d . .
C5 C 0.1591(5) 0.2933(6) -0.2071(5) 0.0420(13) Uani 1 1 d . .
H5 H 0.0661 0.3241 -0.2129 0.050 Uiso 1 1 d R U
C20 C 0.1793(4) 0.2068(6) 0.2253(4) 0.0333(11) Uani 1 1 d . .
H20 H 0.2544 0.1255 0.2733 0.040 Uiso 1 1 d R U
C2 C 0.4318(5) 0.2094(7) -0.1924(5) 0.0520(15) Uani 1 1 d . .
H2 H 0.5249 0.1775 -0.1858 0.062 Uiso 1 1 d R U
C10 C 0.6656(5) 0.1513(7) 0.3925(5) 0.0420(13) Uani 1 1 d . .
H10 H 0.6894 0.0810 0.3315 0.050 Uiso 1 1 d R U
C14 C 0.5124(4) 0.3548(7) 0.4185(5) 0.0380(12) Uani 1 1 d . .
H14 H 0.4299 0.4284 0.3762 0.046 Uiso 1 1 d R U
C12 C 0.7161(5) 0.2477(8) 0.6307(5) 0.0518(14) Uani 1 1 d . .
H12 H 0.7762 0.2468 0.7356 0.062 Uiso 1 1 d R U
C13 C 0.5959(5) 0.3493(7) 0.5683(5) 0.0463(13) Uani 1 1 d . .
H13 H 0.5688 0.4159 0.6290 0.056 Uiso 1 1 d R U
C11 C 0.7507(5) 0.1482(7) 0.5430(6) 0.0496(14) Uani 1 1 d . .
H11 H 0.8342 0.0761 0.5851 0.059 Uiso 1 1 d R U
C4 C 0.1728(5) 0.2667(8) -0.3324(5) 0.0513(14) Uani 1 1 d . .
H4 H 0.0874 0.2702 -0.4271 0.062 Uiso 1 1 d R U
C3 C 0.3084(6) 0.2245(8) -0.3236(5) 0.0560(15) Uani 1 1 d . .
H3 H 0.3141 0.2136 -0.4140 0.067 Uiso 1 1 d R U
H18A H -0.140(5) 0.311(7) 0.325(3) 0.067 Uiso 1 1 d D U
H18B H -0.207(5) 0.453(4) 0.203(6) 0.067 Uiso 1 1 d D U
loop_
_atom_site_aniso_label
_atom_site_aniso_U_11
_atom_site_aniso_U_22
_atom_site_aniso_U_33
_atom_site_aniso_U_23
_atom_site_aniso_U_13
_atom_site_aniso_U_12
C7 0.021(2) 0.040(3) 0.032(2) 0.004(2) 0.0136(19) 0.003(2)
C9 0.021(2) 0.042(3) 0.037(2) -0.002(3) 0.0135(19) -0.005(2)
N1 0.0286(19) 0.062(3) 0.044(2) -0.002(2) 0.0217(19) 0.004(2)
C19 0.032(2) 0.053(3) 0.024(2) 0.000(2) 0.0126(19) -0.008(3)
C6 0.028(2) 0.044(3) 0.031(3) 0.002(2) 0.014(2) -0.002(2)
C15 0.026(2) 0.034(3) 0.027(2) 0.001(2) 0.0132(18) 0.003(2)
C18 0.019(2) 0.047(3) 0.035(2) -0.008(2) 0.0105(19) -0.001(2)
C16 0.037(2) 0.041(3) 0.040(3) 0.006(2) 0.022(2) 0.006(2)
N18 0.037(2) 0.067(3) 0.063(3) -0.007(3) 0.033(2) 0.000(2)
C8 0.033(2) 0.045(3) 0.038(2) -0.002(3) 0.022(2) -0.001(3)
C17 0.027(2) 0.050(3) 0.043(3) 0.010(3) 0.014(2) 0.015(2)
C1 0.034(2) 0.048(3) 0.038(3) -0.004(3) 0.019(2) -0.003(3)
C5 0.037(3) 0.057(4) 0.034(3) 0.001(3) 0.019(2) -0.004(2)
C20 0.023(2) 0.041(3) 0.031(2) 0.004(2) 0.0074(18) 0.003(2)
C2 0.057(3) 0.066(4) 0.051(3) -0.006(3) 0.041(3) -0.001(3)
C10 0.034(3) 0.048(3) 0.049(3) 0.004(3) 0.022(2) 0.004(3)
C14 0.026(2) 0.041(3) 0.044(3) -0.001(2) 0.014(2) -0.001(2)
C12 0.039(3) 0.068(4) 0.038(3) 0.000(3) 0.010(2) -0.013(3)
C13 0.040(3) 0.053(3) 0.045(3) -0.011(3) 0.019(2) -0.006(3)
C11 0.033(3) 0.059(4) 0.051(4) 0.012(3) 0.014(3) 0.003(3)
C4 0.048(3) 0.068(4) 0.036(3) 0.000(3) 0.017(2) -0.011(3)
C3 0.063(3) 0.077(4) 0.035(3) -0.004(3) 0.028(3) -0.007(3)
loop_
_atom_type_symbol
_atom_type_description
_atom_type_scat_dispersion_real
_atom_type_scat_dispersion_imag
_atom_type_scat_source
C C 0.0033 0.0016 'International Tables Vol C Tables 4.2.6.8 and 6.1.1.4'
H H 0.0000 0.0000 'International Tables Vol C Tables 4.2.6.8 and 6.1.1.4'
N N 0.0061 0.0033 'International Tables Vol C Tables 4.2.6.8 and 6.1.1.4'
loop_
_geom_angle_atom_site_label_1
_geom_angle_atom_site_label_2
_geom_angle_atom_site_label_3
_geom_angle
C6 C7 C15 124.6(3)
C8 C7 C6 106.5(3)
C8 C7 C15 128.7(4)
C10 C9 C8 120.4(4)
C14 C9 C8 122.1(4)
C14 C9 C10 117.5(4)
C8 N1 H1 130.8
C1 N1 H1 114.1
C1 N1 C8 109.6(3)
C18 C19 H19 119.3
C18 C19 C20 120.8(4)
C20 C19 H19 119.8
C1 C6 C7 107.2(3)
C5 C6 C7 134.3(4)
C5 C6 C1 118.4(4)
C16 C15 C7 121.9(4)
C16 C15 C20 117.0(4)
C20 C15 C7 121.0(4)
C19 C18 N18 120.6(4)
C17 C18 C19 118.0(4)
C17 C18 N18 121.3(4)
C15 C16 H16 120.2
C15 C16 C17 121.0(4)
C17 C16 H16 118.9
C18 N18 H18A 114(3)
C18 N18 H18B 110(3)
H18A N18 H18B 113(5)
C7 C8 C9 132.0(3)
C7 C8 N1 109.2(3)
N1 C8 C9 118.9(3)
C18 C17 C16 121.6(4)
C18 C17 H17 119.3
C16 C17 H17 119.1
N1 C1 C6 107.5(3)
N1 C1 C2 130.1(4)
C2 C1 C6 122.4(4)
C6 C5 H5 119.8
C4 C5 C6 119.3(4)
C4 C5 H5 120.9
C19 C20 H20 119.6
C15 C20 C19 121.5(4)
C15 C20 H20 118.8
C1 C2 H2 120.6
C3 C2 C1 117.3(4)
C3 C2 H2 122.1
C9 C10 H10 119.3
C11 C10 C9 120.7(4)
C11 C10 H10 120.0
C9 C14 H14 119.2
C13 C14 C9 121.6(4)
C13 C14 H14 119.2
C13 C12 H12 119.9
C13 C12 C11 119.9(5)
C11 C12 H12 120.2
C14 C13 C12 120.1(5)
C14 C13 H13 119.4
C12 C13 H13 120.4
C10 C11 H11 119.0
C12 C11 C10 120.1(5)
C12 C11 H11 120.9
C5 C4 H4 120.1
C5 C4 C3 120.7(4)
C3 C4 H4 119.1
C2 C3 C4 121.9(4)
C2 C3 H3 120.2
C4 C3 H3 117.8
loop_
_geom_bond_atom_site_label_1
_geom_bond_atom_site_label_2
_geom_bond_distance
C7 C6 1.441(6)
C7 C15 1.474(5)
C7 C8 1.362(6)
C9 C8 1.468(6)
C9 C10 1.401(6)
C9 C14 1.385(6)
N1 H1 0.9599
N1 C8 1.387(5)
N1 C1 1.359(5)
C19 H19 0.9602
C19 C18 1.374(6)
C19 C20 1.388(5)
C6 C1 1.406(6)
C6 C5 1.387(6)
C15 C16 1.384(6)
C15 C20 1.387(6)
C18 N18 1.408(5)
C18 C17 1.368(7)
C16 H16 0.9600
C16 C17 1.386(6)
N18 H18A 0.96(2)
N18 H18B 0.96(2)
C17 H17 0.9600
C1 C2 1.388(6)
C5 H5 0.9600
C5 C4 1.373(6)
C20 H20 0.9601
C2 H2 0.9600
C2 C3 1.358(7)
C10 H10 0.9599
C10 C11 1.377(7)
C14 H14 0.9601
C14 C13 1.369(6)
C12 H12 0.9601
C12 C13 1.371(8)
C12 C11 1.375(8)
C13 H13 0.9601
C11 H11 0.9600
C4 H4 0.9600
C4 C3 1.393(7)
C3 H3 0.9600
