#------------------------------------------------------------------------------
#$Date: 2016-03-21 04:15:30 +0200 (Mon, 21 Mar 2016) $
#$Revision: 178463 $
#$URL: svn://www.crystallography.net/cod/cif/4/02/84/4028436.cif $
#------------------------------------------------------------------------------
#
# This file is available in the Crystallography Open Database (COD),
# http://www.crystallography.net/
#
# All data on this site have been placed in the public domain by the
# contributors.
#
data_4028436
loop_
_publ_author_name
'Tristan A. Reekie'
'Martin G. Banwell'
'Anthony C. Willis'
_publ_contact_author_address
;
Research School of Chemistry,
Australian National University,
Canberra, A. C. T. 0200, Australia
;
_publ_contact_author_email       'mgb@rsc.anu.edu.au '
_publ_contact_author_fax         ' 61 2 6125 8114 '
_publ_contact_author_name        'Martin G. Banwell'
_publ_contact_author_phone       ' 61 2 6125 8202 '
_publ_section_title
;
 Intramolecular Cycloaddition Reactions of cis-1,2-Dihydrocatechol
 Derivatives Incorporating C3-Tethered Diazoketones, Nitrile Oxides, and
 Azides: Stereocontrolled Routes to Enantiomerically Pure
 Spiro[5.5]undecanes and Related Systems
;
_journal_name_full               'Journal of Organic Chemistry'
_journal_page_first              7100
_journal_page_last               7111
_journal_paper_doi               10.1021/jo400952u
_journal_volume                  78
_journal_year                    2013
_chemical_absolute_configuration syn
_chemical_compound_source        local
_chemical_formula_moiety         'C13 H19 N3 O2'
_chemical_formula_sum            'C13 H19 N3 O2'
_chemical_formula_weight         249.31
_space_group_IT_number           4
_symmetry_cell_setting           monoclinic
_symmetry_space_group_name_Hall  'P 2yb'
_symmetry_space_group_name_H-M   'P 1 21 1'
_atom_sites_solution_hydrogens   geom
_atom_sites_solution_primary     direct
_audit_creation_date             09-10-19
_audit_creation_method           CRYSTALS_ver_12.85
_audit_update_record
;
2009-10-19 - Report on C13 H19 N3 O2
             by Anthony C. Willis
             for  Tristan Reekie and Martin Banwell

2009-10-19 - passes checkcif tests with minor warnings  

;
_cell_angle_alpha                90
_cell_angle_beta                 105.4814(13)
_cell_angle_gamma                90
_cell_formula_units_Z            2
_cell_length_a                   6.2161(1)
_cell_length_b                   11.6949(2)
_cell_length_c                   9.3974(2)
_cell_measurement_reflns_used    11017
_cell_measurement_temperature    200
_cell_measurement_theta_max      30
_cell_measurement_theta_min      2.6
_cell_volume                     658.37(2)
_computing_cell_refinement       'DENZO/SCALEPACK (Otwinowski & Minor, 1997)'
_computing_data_collection       'COLLECT (Nonius, 1997-2001).'
_computing_data_reduction        'DENZO/SCALEPACK (Otwinowski & Minor, 1997)'
_computing_molecular_graphics
; 
ORTEP-II (Johnson 1976) in teXsan (MSC, 1992-1997)
;
_computing_publication_material  'CRYSTALS (Betteridge et al., 2003)'
_computing_structure_refinement  'CRYSTALS (Betteridge et al., 2003)'
_computing_structure_solution    'SIR92 (Altomare et al., 1994)'
_diffrn_ambient_temperature      200
_diffrn_measured_fraction_theta_full 0.996
_diffrn_measured_fraction_theta_max 0.996
_diffrn_measurement_device       'Nonius KappaCCD'
_diffrn_measurement_device_type  Area
_diffrn_measurement_method       ' \f and \w scans with CCD '
_diffrn_radiation_monochromator  graphite
_diffrn_radiation_type           'Mo K\a'
_diffrn_radiation_wavelength     0.71073
_diffrn_reflns_av_R_equivalents  0.033
_diffrn_reflns_limit_h_max       8
_diffrn_reflns_limit_h_min       -8
_diffrn_reflns_limit_k_max       16
_diffrn_reflns_limit_k_min       -14
_diffrn_reflns_limit_l_max       13
_diffrn_reflns_limit_l_min       -13
_diffrn_reflns_number            16915
_diffrn_reflns_theta_full        29.995
_diffrn_reflns_theta_max         29.995
_diffrn_reflns_theta_min         3.948
_diffrn_standards_number         0
_exptl_absorpt_coefficient_mu    0.087
_exptl_absorpt_correction_T_max  0.990
_exptl_absorpt_correction_T_min  0.973
_exptl_absorpt_correction_type   integration
_exptl_absorpt_process_details
;
via gaussian method (Coppens, 1970) implemented in maXus (2000)
;
_exptl_crystal_colour            colourless
_exptl_crystal_density_diffrn    1.258
_exptl_crystal_description       block
_exptl_crystal_F_000             268
_exptl_crystal_size_max          0.40
_exptl_crystal_size_mid          0.22
_exptl_crystal_size_min          0.14
_refine_diff_density_max         0.19
_refine_diff_density_min         -0.16
_refine_ls_abs_structure_details
;
The enantiomer has been assigned by reference to an unchanging chiral
centre in the synthetic procedure.
;
_refine_ls_extinction_method     none
_refine_ls_goodness_of_fit_ref   0.8683
_refine_ls_hydrogen_treatment    refxyz
_refine_ls_matrix_type           full
_refine_ls_number_parameters     220
_refine_ls_number_reflns         1994
_refine_ls_number_restraints     1
_refine_ls_R_factor_all          0.0380
_refine_ls_R_factor_gt           0.0295
_refine_ls_shift/su_max          0.008518
_refine_ls_structure_factor_coef Fsqd
_refine_ls_weighting_details
;
 Method= Modified Sheldrick 
 w=1/[\s^2^(F^2^) + ( 0.02P)^2^ + 0.00P] 
 ,where P=(max(Fo^2^,0) + 2Fc^2^)/3 
;
_refine_ls_weighting_scheme      calc
_refine_ls_wR_factor_all         0.0677
_refine_ls_wR_factor_gt          0.0658
_refine_ls_wR_factor_ref         0.0677
_reflns_limit_h_max              8
_reflns_limit_h_min              -8
_reflns_limit_k_max              16
_reflns_limit_k_min              0
_reflns_limit_l_max              13
_reflns_limit_l_min              0
_reflns_number_gt                1607
_reflns_number_total             1994
_reflns_threshold_expression     I>2.0\s(I)
_oxford_diffrn_Wilson_B_factor   2.72
_oxford_diffrn_Wilson_scale      0.38
_oxford_refine_ls_r_factor_ref   0.0380
_oxford_refine_ls_scale          1.764(11)
_oxford_reflns_number_all        1994
_oxford_reflns_threshold_expression_ref I>-10.0\s(I)
_oxford_structure_analysis_title '10191128 ban0922'
_cod_data_source_file            jo400952u_si_005.cif
_cod_data_source_block           ban0922
_cod_original_sg_symbol_H-M      'P 1 21 1 '
_cod_database_code               4028436
loop_
_symmetry_equiv_pos_as_xyz
x,y,z
-x,y+1/2,-z
loop_
_atom_site_label
_atom_site_type_symbol
_atom_site_fract_x
_atom_site_fract_y
_atom_site_fract_z
_atom_site_U_iso_or_equiv
_atom_site_occupancy
_atom_site_adp_type
C1 C 0.4014(3) 0.44144(16) 0.25471(17) 0.0366 1.0000 Uani
C2 C 0.5147(3) 0.40398(19) 0.14071(18) 0.0427 1.0000 Uani
C3 C 0.5675(3) 0.2970(2) 0.12225(18) 0.0419 1.0000 Uani
C4 C 0.5069(2) 0.19845(17) 0.20548(17) 0.0364 1.0000 Uani
O5 O 0.38992(19) 0.11177(14) 0.10517(13) 0.0467 1.0000 Uani
C6 C 0.1534(3) 0.13261(17) 0.07630(17) 0.0362 1.0000 Uani
O7 O 0.13073(16) 0.22307(14) 0.17405(10) 0.0340 1.0000 Uani
C8 C 0.3359(2) 0.22878(16) 0.28843(15) 0.0290 1.0000 Uani
C9 C 0.3572(2) 0.34788(16) 0.35589(15) 0.0283 1.0000 Uani
C10 C 0.1624(3) 0.37738(19) 0.42113(19) 0.0424 1.0000 Uani
C11 C 0.1739(3) 0.3120(2) 0.5633(2) 0.0557 1.0000 Uani
C12 C 0.3948(3) 0.3358(2) 0.6782(2) 0.0539 1.0000 Uani
C13 C 0.5885(3) 0.30259(18) 0.61662(17) 0.0357 1.0000 Uani
N14 N 0.57130(18) 0.35478(14) 0.47218(12) 0.0276 1.0000 Uani
N15 N 0.6495(2) 0.46470(15) 0.47651(15) 0.0385 1.0000 Uani
N16 N 0.5629(3) 0.51902(15) 0.35970(17) 0.0480 1.0000 Uani
C17 C 0.0583(3) 0.17397(18) -0.08033(19) 0.0414 1.0000 Uani
C18 C 0.0443(4) 0.0247(2) 0.1115(2) 0.0533 1.0000 Uani
H11 H 0.267(3) 0.4800(16) 0.213(2) 0.0416 1.0000 Uiso
H21 H 0.552(3) 0.4696(19) 0.079(2) 0.0517 1.0000 Uiso
H31 H 0.645(3) 0.2819(18) 0.046(2) 0.0523 1.0000 Uiso
H41 H 0.643(3) 0.1599(15) 0.267(2) 0.0412 1.0000 Uiso
H81 H 0.334(3) 0.1740(15) 0.3617(18) 0.0324 1.0000 Uiso
H101 H 0.173(3) 0.4629(19) 0.440(2) 0.0504 1.0000 Uiso
H102 H 0.025(3) 0.3613(17) 0.351(2) 0.0505 1.0000 Uiso
H111 H 0.057(4) 0.336(2) 0.605(2) 0.0679 1.0000 Uiso
H112 H 0.157(3) 0.227(2) 0.543(2) 0.0669 1.0000 Uiso
H121 H 0.405(4) 0.419(2) 0.704(2) 0.0660 1.0000 Uiso
H122 H 0.406(3) 0.290(2) 0.770(3) 0.0655 1.0000 Uiso
H131 H 0.727(3) 0.3305(15) 0.683(2) 0.0392 1.0000 Uiso
H132 H 0.591(3) 0.2192(18) 0.6041(18) 0.0400 1.0000 Uiso
H171 H -0.114(3) 0.1860(19) -0.097(2) 0.0602 1.0000 Uiso
H172 H 0.125(4) 0.242(2) -0.094(2) 0.0605 1.0000 Uiso
H173 H 0.091(3) 0.119(2) -0.147(2) 0.0604 1.0000 Uiso
H181 H -0.123(4) 0.033(2) 0.089(3) 0.0745 1.0000 Uiso
H182 H 0.095(4) 0.007(2) 0.221(3) 0.0736 1.0000 Uiso
H183 H 0.083(4) -0.035(2) 0.060(2) 0.0749 1.0000 Uiso
loop_
_atom_site_aniso_label
_atom_site_aniso_U_11
_atom_site_aniso_U_22
_atom_site_aniso_U_33
_atom_site_aniso_U_23
_atom_site_aniso_U_13
_atom_site_aniso_U_12
C1 0.0420(8) 0.0290(7) 0.0347(8) 0.0057(6) 0.0029(7) 0.0042(7)
C2 0.0434(9) 0.0538(10) 0.0283(7) 0.0083(7) 0.0048(7) -0.0084(8)
C3 0.0339(7) 0.0618(11) 0.0312(8) -0.0043(8) 0.0106(6) -0.0003(8)
C4 0.0319(7) 0.0397(8) 0.0328(8) -0.0096(6) 0.0005(6) 0.0077(6)
O5 0.0415(6) 0.0453(7) 0.0459(7) -0.0189(5) -0.0010(5) 0.0093(5)
C6 0.0386(8) 0.0338(8) 0.0314(7) -0.0053(6) 0.0010(6) 0.0011(7)
O7 0.0292(5) 0.0378(5) 0.0306(5) -0.0062(5) 0.0003(4) 0.0008(5)
C8 0.0285(6) 0.0298(7) 0.0249(7) 0.0004(6) 0.0006(5) 0.0006(6)
C9 0.0265(6) 0.0307(7) 0.0250(6) -0.0018(6) 0.0022(5) 0.0045(6)
C10 0.0276(7) 0.0600(11) 0.0373(8) -0.0109(8) 0.0046(6) 0.0072(8)
C11 0.0321(8) 0.1005(17) 0.0386(9) -0.0043(10) 0.0165(7) -0.0036(10)
C12 0.0421(9) 0.0927(16) 0.0279(8) -0.0035(10) 0.0112(7) -0.0047(10)
C13 0.0324(7) 0.0460(9) 0.0254(7) 0.0023(7) 0.0020(6) -0.0039(7)
N14 0.0272(6) 0.0277(6) 0.0264(6) -0.0003(5) 0.0047(4) -0.0015(5)
N15 0.0438(7) 0.0306(6) 0.0391(7) -0.0035(6) 0.0073(6) -0.0046(6)
N16 0.0643(10) 0.0291(7) 0.0448(8) 0.0012(6) 0.0048(7) -0.0042(6)
C17 0.0487(10) 0.0428(9) 0.0296(8) -0.0012(7) 0.0050(7) -0.0019(8)
C18 0.0684(13) 0.0391(9) 0.0430(10) 0.0028(8) -0.0017(9) -0.0094(9)
loop_
_atom_type_symbol
_atom_type_scat_dispersion_real
_atom_type_scat_dispersion_imag
_atom_type_scat_Cromer_Mann_a1
_atom_type_scat_Cromer_Mann_b1
_atom_type_scat_Cromer_Mann_a2
_atom_type_scat_Cromer_Mann_b2
_atom_type_scat_Cromer_Mann_a3
_atom_type_scat_Cromer_Mann_b3
_atom_type_scat_Cromer_Mann_a4
_atom_type_scat_Cromer_Mann_b4
_atom_type_scat_Cromer_Mann_c
_atom_type_scat_source
C 0.0033 0.0016 2.3100 20.8439 1.0200 10.2075 1.5886 0.5687 0.8650 51.6512
0.2156 'International Tables Vol C 4.2.6.8 and 6.1.1.4'
H 0.0000 0.0000 0.4930 10.5109 0.3229 26.1257 0.1402 3.1424 0.0408 57.7998
0.0030 'International Tables Vol C 4.2.6.8 and 6.1.1.4'
N 0.0061 0.0033 12.2126 0.0057 3.1322 9.8933 2.0125 28.9975 1.1663 0.5826
-11.5290 'International Tables Vol C 4.2.6.8 and 6.1.1.4'
O 0.0106 0.0060 3.0485 13.2771 2.2868 5.7011 1.5463 0.3239 0.8670 32.9089
0.2508 'International Tables Vol C 4.2.6.8 and 6.1.1.4'
loop_
_exptl_crystal_face_index_h
_exptl_crystal_face_index_k
_exptl_crystal_face_index_l
_exptl_crystal_face_perp_dist
1 0 0 0.070
-1 0 0 0.080
0 1 0 0.210
0 -1 0 0.190
0 0 1 0.100
0 0 -1 0.110
-1 0 1 0.080
1 0 -1 0.060
loop_
_geom_angle_atom_site_label_1
_geom_angle_atom_site_label_2
_geom_angle_atom_site_label_3
_geom_angle
_geom_angle_publ_flag
C2 C1 C9 115.76(13) yes
C2 C1 N16 106.61(14) yes
C9 C1 N16 102.90(12) yes
C2 C1 H11 112.5(11) no
C9 C1 H11 108.4(11) no
N16 C1 H11 110.2(11) no
C1 C2 C3 123.64(15) yes
C1 C2 H21 114.1(11) no
C3 C2 H21 122.3(11) no
C2 C3 C4 123.85(15) yes
C2 C3 H31 117.1(13) no
C4 C3 H31 119.0(13) no
C3 C4 O5 110.68(13) yes
C3 C4 C8 113.37(14) yes
O5 C4 C8 101.52(12) yes
C3 C4 H41 111.1(10) no
O5 C4 H41 105.2(10) no
C8 C4 H41 114.2(10) no
C4 O5 C6 108.37(11) yes
O5 C6 O7 105.90(11) yes
O5 C6 C17 110.57(14) yes
O7 C6 C17 107.95(13) yes
O5 C6 C18 108.20(14) yes
O7 C6 C18 110.45(14) yes
C17 C6 C18 113.51(14) yes
C6 O7 C8 107.16(10) yes
C4 C8 O7 102.06(11) yes
C4 C8 C9 115.64(12) yes
O7 C8 C9 108.43(11) yes
C4 C8 H81 111.2(10) no
O7 C8 H81 109.6(10) no
C9 C8 H81 109.6(10) no
C1 C9 C8 114.09(12) yes
C1 C9 C10 112.38(13) yes
C8 C9 C10 112.44(13) yes
C1 C9 N14 98.37(12) yes
C8 C9 N14 108.57(11) yes
C10 C9 N14 110.00(11) yes
C9 C10 C11 112.33(14) yes
C9 C10 H101 105.5(11) no
C11 C10 H101 110.9(11) no
C9 C10 H102 109.8(11) no
C11 C10 H102 109.4(12) no
H101 C10 H102 108.8(17) no
C10 C11 C12 110.55(17) yes
C10 C11 H111 110.2(13) no
C12 C11 H111 107.3(13) no
C10 C11 H112 110.2(13) no
C12 C11 H112 109.8(12) no
H111 C11 H112 108.7(18) no
C11 C12 C13 109.82(15) yes
C11 C12 H121 109.6(13) no
C13 C12 H121 109.8(13) no
C11 C12 H122 110.8(12) no
C13 C12 H122 108.4(13) no
H121 C12 H122 108.3(18) no
C12 C13 N14 112.14(14) yes
C12 C13 H131 108.7(10) no
N14 C13 H131 106.9(10) no
C12 C13 H132 109.6(10) no
N14 C13 H132 107.6(10) no
H131 C13 H132 111.9(14) no
C9 N14 C13 119.31(11) yes
C9 N14 N15 108.33(11) yes
C13 N14 N15 115.17(12) yes
N14 N15 N16 112.43(13) yes
C1 N16 N15 108.79(13) yes
C6 C17 H171 107.9(11) no
C6 C17 H172 110.0(13) no
H171 C17 H172 109.8(18) no
C6 C17 H173 108.7(13) no
H171 C17 H173 112.4(16) no
H172 C17 H173 108.0(18) no
C6 C18 H181 112.0(16) no
C6 C18 H182 111.0(14) no
H181 C18 H182 105.0(20) no
C6 C18 H183 109.1(16) no
H181 C18 H183 111(2) no
H182 C18 H183 108.7(19) no
loop_
_geom_bond_atom_site_label_1
_geom_bond_atom_site_label_2
_geom_bond_distance
_geom_bond_publ_flag
C1 C2 1.496(2) yes
C1 C9 1.522(2) yes
C1 N16 1.509(2) yes
C1 H11 0.938(19) no
C2 C3 1.316(3) yes
C2 H21 1.03(2) no
C3 C4 1.496(3) yes
C3 H31 0.981(19) no
C4 O5 1.4420(18) yes
C4 C8 1.518(2) yes
C4 H41 0.995(18) no
O5 C6 1.4426(19) yes
C6 O7 1.4326(18) yes
C6 C17 1.512(2) yes
C6 C18 1.511(2) yes
O7 C8 1.4335(15) yes
C8 C9 1.5214(19) yes
C8 H81 0.943(18) no
C9 C10 1.536(2) yes
C9 N14 1.4816(17) yes
C10 C11 1.524(3) yes
C10 H101 1.02(2) no
C10 H102 0.949(19) no
C11 C12 1.529(3) yes
C11 H111 0.96(2) no
C11 H112 1.01(3) no
C12 C13 1.519(2) yes
C12 H121 1.00(3) no
C12 H122 1.00(2) no
C13 N14 1.4660(19) yes
C13 H131 0.974(19) no
C13 H132 0.98(2) no
N14 N15 1.3711(17) yes
N15 N16 1.258(2) yes
C17 H171 1.05(2) no
C17 H172 0.93(2) no
C17 H173 0.96(2) no
C18 H181 1.01(3) no
C18 H182 1.02(2) no
C18 H183 0.92(3) no
loop_
_geom_contact_atom_site_label_1
_geom_contact_atom_site_label_2
_geom_contact_distance
_geom_contact_site_symmetry_2
_geom_contact_publ_flag
O5 C2 3.511(2) 2_645 no
O7 C3 3.512(2) 1_455 no
N15 C10 3.516(2) 1_655 no
N16 C13 3.471(3) 2_656 no
loop_
_geom_torsion_atom_site_label_1
_geom_torsion_atom_site_label_2
_geom_torsion_atom_site_label_3
_geom_torsion_atom_site_label_4
_geom_torsion
_geom_torsion_publ_flag
O5 C4 C3 C2 126.1(2) no
O5 C4 C8 O7 -37.8(2) no
O5 C4 C8 C9 -155.3(1) no
O5 C6 O7 C8 -18.4(2) no
O7 C6 O5 C4 -7.0(2) no
O7 C8 C4 C3 81.0(2) no
O7 C8 C9 N14 -178.9(1) no
O7 C8 C9 C1 -70.4(1) no
O7 C8 C9 C10 59.2(2) no
N14 N15 N16 C1 -0.2(2) no
N14 C9 C1 N16 -27.2(2) no
N14 C9 C1 C2 88.7(2) no
N14 C9 C8 C4 -65.1(2) no
N14 C9 C10 C11 -48.9(2) no
N14 C13 C12 C11 52.1(2) no
N15 N14 C9 C1 28.8(2) no
N15 N14 C9 C8 147.8(1) no
N15 N14 C9 C10 -88.8(2) no
N15 N14 C13 C12 83.1(2) no
N15 N16 C1 C2 -103.5(2) no
N15 N16 C1 C9 18.8(2) no
N16 N15 N14 C9 -19.5(2) no
N16 N15 N14 C13 -156.0(2) no
N16 C1 C2 C3 116.3(2) no
N16 C1 C9 C8 -141.9(1) no
N16 C1 C9 C10 88.5(2) no
C1 C2 C3 C4 4.4(3) no
C1 C9 N14 C13 163.2(2) no
C1 C9 C8 C4 43.5(2) no
C1 C9 C10 C11 -157.4(1) no
C2 C1 C9 C8 -26.1(2) no
C2 C1 C9 C10 -155.6(1) no
C2 C3 C4 C8 12.8(2) no
C3 C2 C1 C9 2.5(2) no
C3 C4 O5 C6 -93.0(2) no
C3 C4 C8 C9 -36.5(2) no
C4 O5 C6 C17 109.7(2) no
C4 O5 C6 C18 -125.5(2) no
C4 C8 O7 C6 35.0(2) no
C4 C8 C9 C10 173.0(1) no
C6 O5 C4 C8 27.7(2) no
C6 O7 C8 C9 157.5(1) no
C8 O7 C6 C17 -136.8(1) no
C8 O7 C6 C18 98.5(2) no
C8 C9 N14 C13 -77.8(2) no
C8 C9 C10 C11 72.3(2) no
C9 N14 C13 C12 -48.3(2) no
C9 C10 C11 C12 57.5(2) no
C10 C9 N14 C13 45.6(2) no
C10 C11 C12 C13 -57.9(2) no
