#------------------------------------------------------------------------------
#$Date: 2016-03-21 04:34:33 +0200 (Mon, 21 Mar 2016) $
#$Revision: 178473 $
#$URL: svn://www.crystallography.net/cod/cif/4/02/94/4029470.cif $
#------------------------------------------------------------------------------
#
# This file is available in the Crystallography Open Database (COD),
# http://www.crystallography.net/
#
# All data on this site have been placed in the public domain by the
# contributors.
#
data_4029470
loop_
_publ_author_name
'Kelley, Brandon T.'
'Carroll, Patrick'
'Joulli\'e, Madeleine M'
_publ_section_title
;
 Possible Reason for the Unusual Regioselectivity in Nucleophilic Ring
 Opening of Trisubstituted Aziridines under Mildly Basic Conditions.
;
_journal_issue                   11
_journal_name_full               'The Journal of organic chemistry'
_journal_page_first              5121
_journal_page_last               5133
_journal_paper_doi               10.1021/jo5006685
_journal_volume                  79
_journal_year                    2014
_chemical_formula_sum            'C16 H16 N2 O4 S'
_chemical_formula_weight         332.37
_space_group_IT_number           4
_symmetry_cell_setting           monoclinic
_symmetry_Int_Tables_number      4
_symmetry_space_group_name_Hall  'P 2yb'
_symmetry_space_group_name_H-M   'P 1 21 1'
_atom_sites_solution_hydrogens   geom
_atom_sites_solution_primary     direct
_audit_creation_method           SHELXL-97
_cell_angle_alpha                90.00
_cell_angle_beta                 94.525(3)
_cell_angle_gamma                90.00
_cell_formula_units_Z            2
_cell_length_a                   7.6048(5)
_cell_length_b                   7.3949(5)
_cell_length_c                   13.9958(11)
_cell_measurement_temperature    100(1)
_cell_volume                     784.62(10)
_computing_data_collection       'Bruker APEX2'
_computing_data_reduction        'Bruker SAINT'
_computing_structure_refinement  'SHELXL-97 (Sheldrick, 2008)'
_computing_structure_solution    'SHELXS-97 (Sheldrick, 2008)'
_diffrn_ambient_temperature      100(1)
_diffrn_measured_fraction_theta_full 0.994
_diffrn_measured_fraction_theta_max 0.994
_diffrn_measurement_device       'CCD Area Detector'
_diffrn_measurement_device_type  'Bruker APEXII'
_diffrn_measurement_method       'phi and omega scans'
_diffrn_radiation_monochromator  graphite
_diffrn_radiation_source         'sealed tube'
_diffrn_radiation_type           MoK\a
_diffrn_radiation_wavelength     0.71073
_diffrn_reflns_av_R_equivalents  0.0166
_diffrn_reflns_av_sigmaI/netI    0.0183
_diffrn_reflns_limit_h_max       9
_diffrn_reflns_limit_h_min       -9
_diffrn_reflns_limit_k_max       8
_diffrn_reflns_limit_k_min       -8
_diffrn_reflns_limit_l_max       16
_diffrn_reflns_limit_l_min       -16
_diffrn_reflns_number            8337
_diffrn_reflns_theta_full        25.34
_diffrn_reflns_theta_max         25.34
_diffrn_reflns_theta_min         1.46
_exptl_absorpt_coefficient_mu    0.228
_exptl_absorpt_correction_T_max  0.7452
_exptl_absorpt_correction_T_min  0.6978
_exptl_absorpt_correction_type   multi-scan
_exptl_absorpt_process_details   '(SADABS; Sheldrick, 2007)'
_exptl_crystal_density_diffrn    1.407
_exptl_crystal_density_method    'not measured'
_exptl_crystal_F_000             348
_exptl_crystal_size_max          0.45
_exptl_crystal_size_mid          0.18
_exptl_crystal_size_min          0.06
_refine_diff_density_max         0.150
_refine_diff_density_min         -0.200
_refine_diff_density_rms         0.031
_refine_ls_abs_structure_details 'Flack H D (1983), Acta Cryst. A39, 876-881'
_refine_ls_abs_structure_Flack   -0.01(4)
_refine_ls_extinction_method     none
_refine_ls_goodness_of_fit_ref   1.036
_refine_ls_hydrogen_treatment    constr
_refine_ls_matrix_type           full
_refine_ls_number_parameters     211
_refine_ls_number_reflns         2847
_refine_ls_number_restraints     1
_refine_ls_restrained_S_all      1.036
_refine_ls_R_factor_all          0.0204
_refine_ls_R_factor_gt           0.0199
_refine_ls_shift/su_max          0.001
_refine_ls_shift/su_mean         0.000
_refine_ls_structure_factor_coef Fsqd
_refine_ls_weighting_details
'calc w=1/[\s^2^(Fo^2^)+(0.0284P)^2^+0.1631P] where P=(Fo^2^+2Fc^2^)/3'
_refine_ls_weighting_scheme      calc
_refine_ls_wR_factor_gt          0.0522
_refine_ls_wR_factor_ref         0.0525
_reflns_number_gt                2795
_reflns_number_total             2847
_reflns_threshold_expression     >2sigma(I)
_cod_data_source_file            jo5006685_si_009.cif
_cod_data_source_block           shelxl
_cod_depositor_comments
;
The following automatic conversions were performed:
'_atom_site_symetry_multiplicity' tag replaced with
'_atom_site_symmetry_multiplicity'.

Automatic conversion script
Id: cif_correct_tags 1440 2010-10-19 06:21:57Z saulius 

 Adding full bibliography for 4029464--4029472.cif.
;
_cod_original_sg_symbol_H-M      'P 21     '
_cod_database_code               4029470
loop_
_symmetry_equiv_pos_as_xyz
'x, y, z'
'-x, y+1/2, -z'
loop_
_atom_site_label
_atom_site_type_symbol
_atom_site_fract_x
_atom_site_fract_y
_atom_site_fract_z
_atom_site_U_iso_or_equiv
_atom_site_adp_type
_atom_site_occupancy
_atom_site_symmetry_multiplicity
_atom_site_calc_flag
_atom_site_refinement_flags
C1 C 0.29213(17) 0.36942(18) 0.12042(10) 0.0146(3) Uani 1 1 d .
C2 C 0.46947(17) 0.3553(2) 0.15414(10) 0.0152(3) Uani 1 1 d .
C3 C 0.58708(18) 0.4947(2) 0.14153(10) 0.0186(3) Uani 1 1 d .
H3 H 0.7041 0.4847 0.1658 0.025 Uiso 1 1 calc R
C4 C 0.52914(19) 0.64922(17) 0.09251(10) 0.0192(3) Uani 1 1 d .
H4 H 0.6080 0.7423 0.0826 0.025 Uiso 1 1 calc R
C5 C 0.35302(18) 0.66506(18) 0.05807(10) 0.0191(3) Uani 1 1 d .
H5 H 0.3141 0.7687 0.0252 0.025 Uiso 1 1 calc R
C6 C 0.23589(17) 0.52656(19) 0.07269(9) 0.0170(3) Uani 1 1 d .
H6 H 0.1180 0.5387 0.0503 0.023 Uiso 1 1 calc R
C7 C 0.10183(17) -0.06652(19) 0.26320(10) 0.0159(3) Uani 1 1 d .
C8 C 0.07020(17) 0.10933(19) 0.31222(10) 0.0159(3) Uani 1 1 d .
H8 H -0.0461 0.1636 0.2966 0.021 Uiso 1 1 calc R
C9 C 0.23283(19) -0.19961(19) 0.30833(10) 0.0209(3) Uani 1 1 d .
H9a H 0.3238 -0.1357 0.3459 0.031 Uiso 1 1 calc R
H9b H 0.2843 -0.2673 0.2591 0.031 Uiso 1 1 calc R
H9c H 0.1740 -0.2808 0.3488 0.031 Uiso 1 1 calc R
C10 C -0.04793(18) -0.1474(2) 0.19968(10) 0.0197(3) Uani 1 1 d .
H10a H -0.1096 -0.2342 0.2356 0.030 Uiso 1 1 calc R
H10b H -0.0015 -0.2060 0.1459 0.030 Uiso 1 1 calc R
H10c H -0.1278 -0.0533 0.1772 0.030 Uiso 1 1 calc R
C11 C 0.15637(17) 0.15740(18) 0.40862(10) 0.0170(3) Uani 1 1 d .
C12 C 0.27743(19) 0.2985(2) 0.41978(11) 0.0211(3) Uani 1 1 d .
H12 H 0.3083 0.3626 0.3664 0.028 Uiso 1 1 calc R
C13 C 0.3523(2) 0.3440(2) 0.51043(12) 0.0270(3) Uani 1 1 d .
H13 H 0.4317 0.4394 0.5178 0.036 Uiso 1 1 calc R
C14 C 0.30820(19) 0.2467(2) 0.58984(11) 0.0267(4) Uani 1 1 d .
H14 H 0.3582 0.2770 0.6505 0.036 Uiso 1 1 calc R
C15 C 0.1899(2) 0.1045(2) 0.57894(11) 0.0259(3) Uani 1 1 d .
H15 H 0.1619 0.0382 0.6321 0.034 Uiso 1 1 calc R
C16 C 0.11301(18) 0.0607(2) 0.48857(11) 0.0215(3) Uani 1 1 d .
H16 H 0.0322 -0.0336 0.4815 0.029 Uiso 1 1 calc R
N1 N 0.18850(14) 0.10540(15) 0.23215(8) 0.0148(2) Uani 1 1 d .
N2 N 0.54416(13) 0.1922(2) 0.20164(8) 0.0178(2) Uani 1 1 d .
O1 O 0.15147(12) 0.06838(13) 0.05369(7) 0.0186(2) Uani 1 1 d .
O2 O -0.03830(12) 0.28946(14) 0.12798(7) 0.0202(2) Uani 1 1 d .
O3 O 0.62525(12) 0.21097(18) 0.28024(7) 0.0252(2) Uani 1 1 d .
O4 O 0.52603(13) 0.04796(14) 0.15842(8) 0.0230(2) Uani 1 1 d .
S1 S 0.12891(4) 0.19805(5) 0.12786(2) 0.01450(8) Uani 1 1 d .
loop_
_atom_site_aniso_label
_atom_site_aniso_U_11
_atom_site_aniso_U_22
_atom_site_aniso_U_33
_atom_site_aniso_U_23
_atom_site_aniso_U_13
_atom_site_aniso_U_12
C1 0.0153(6) 0.0148(7) 0.0137(6) -0.0023(5) 0.0012(5) -0.0004(5)
C2 0.0156(6) 0.0138(7) 0.0163(7) -0.0026(5) 0.0020(5) 0.0033(5)
C3 0.0146(6) 0.0209(8) 0.0205(7) -0.0062(6) 0.0021(5) 0.0000(6)
C4 0.0216(7) 0.0141(8) 0.0227(7) -0.0029(5) 0.0076(6) -0.0028(5)
C5 0.0249(7) 0.0162(8) 0.0165(6) 0.0013(6) 0.0042(5) 0.0052(5)
C6 0.0167(6) 0.0202(7) 0.0141(7) -0.0021(6) 0.0005(5) 0.0038(6)
C7 0.0149(6) 0.0172(7) 0.0158(7) 0.0018(5) 0.0014(5) -0.0013(5)
C8 0.0131(6) 0.0161(7) 0.0184(6) 0.0014(6) 0.0017(5) 0.0006(5)
C9 0.0229(7) 0.0191(8) 0.0205(7) 0.0005(6) 0.0006(6) 0.0032(6)
C10 0.0185(6) 0.0201(7) 0.0204(7) -0.0010(6) 0.0015(5) -0.0023(6)
C11 0.0133(6) 0.0208(8) 0.0169(6) -0.0032(5) 0.0005(5) 0.0040(5)
C12 0.0205(7) 0.0235(8) 0.0193(7) 0.0006(6) 0.0025(5) -0.0008(6)
C13 0.0201(7) 0.0341(9) 0.0266(8) -0.0066(7) 0.0010(6) -0.0071(6)
C14 0.0209(7) 0.0420(11) 0.0169(7) -0.0063(6) -0.0016(6) -0.0018(6)
C15 0.0245(7) 0.0357(9) 0.0179(7) 0.0023(7) 0.0042(6) 0.0002(7)
C16 0.0187(7) 0.0228(8) 0.0232(7) -0.0023(6) 0.0034(6) -0.0027(6)
N1 0.0138(5) 0.0147(6) 0.0158(6) 0.0002(5) 0.0003(4) -0.0005(5)
N2 0.0117(5) 0.0188(6) 0.0231(6) 0.0013(6) 0.0018(4) 0.0032(6)
O1 0.0196(5) 0.0200(5) 0.0158(5) -0.0013(4) -0.0016(4) -0.0028(4)
O2 0.0126(5) 0.0244(6) 0.0232(5) 0.0045(4) -0.0019(4) 0.0023(4)
O3 0.0210(5) 0.0295(6) 0.0236(5) 0.0022(6) -0.0074(4) 0.0030(5)
O4 0.0207(5) 0.0164(5) 0.0318(6) -0.0025(5) 0.0018(4) 0.0036(4)
S1 0.01198(14) 0.01613(15) 0.01500(15) 0.00037(15) -0.00139(10) -0.00009(14)
loop_
_atom_type_symbol
_atom_type_description
_atom_type_scat_dispersion_real
_atom_type_scat_dispersion_imag
_atom_type_scat_source
C C 0.0033 0.0016 'International Tables Vol C Tables 4.2.6.8 and 6.1.1.4'
H H 0.0000 0.0000 'International Tables Vol C Tables 4.2.6.8 and 6.1.1.4'
N N 0.0061 0.0033 'International Tables Vol C Tables 4.2.6.8 and 6.1.1.4'
O O 0.0106 0.0060 'International Tables Vol C Tables 4.2.6.8 and 6.1.1.4'
S S 0.1246 0.1234 'International Tables Vol C Tables 4.2.6.8 and 6.1.1.4'
loop_
_geom_angle_atom_site_label_1
_geom_angle_atom_site_label_2
_geom_angle_atom_site_label_3
_geom_angle
C6 C1 C2 118.47(12)
C6 C1 S1 115.65(10)
C2 C1 S1 125.81(11)
C3 C2 C1 121.14(13)
C3 C2 N2 115.97(12)
C1 C2 N2 122.86(12)
C2 C3 C4 119.55(13)
C3 C4 C5 120.01(13)
C6 C5 C4 119.98(13)
C5 C6 C1 120.84(12)
C8 C7 C9 120.04(12)
C8 C7 N1 59.41(9)
C9 C7 N1 112.44(11)
C8 C7 C10 118.15(12)
C9 C7 C10 115.57(12)
N1 C7 C10 119.28(11)
N1 C8 C11 115.79(11)
N1 C8 C7 60.73(8)
C11 C8 C7 123.00(12)
C16 C11 C12 119.49(13)
C16 C11 C8 119.30(12)
C12 C11 C8 121.21(13)
C13 C12 C11 120.20(14)
C14 C13 C12 119.91(14)
C15 C14 C13 120.10(14)
C14 C15 C16 120.01(14)
C11 C16 C15 120.27(14)
C8 N1 C7 59.86(9)
C8 N1 S1 121.25(9)
C7 N1 S1 120.66(9)
O3 N2 O4 124.67(14)
O3 N2 C2 117.55(13)
O4 N2 C2 117.74(10)
O1 S1 O2 118.10(6)
O1 S1 N1 108.90(6)
O2 S1 N1 112.10(6)
O1 S1 C1 108.03(6)
O2 S1 C1 106.57(6)
N1 S1 C1 101.76(6)
loop_
_geom_bond_atom_site_label_1
_geom_bond_atom_site_label_2
_geom_bond_distance
C1 C6 1.3908(19)
C1 C2 1.3972(19)
C1 S1 1.7827(13)
C2 C3 1.385(2)
C2 N2 1.469(2)
C3 C4 1.387(2)
C4 C5 1.392(2)
C5 C6 1.383(2)
C7 C8 1.499(2)
C7 C9 1.5036(19)
C7 N1 1.5115(17)
C7 C10 1.5116(19)
C8 N1 1.4917(18)
C8 C11 1.4956(19)
C11 C16 1.389(2)
C11 C12 1.392(2)
C12 C13 1.390(2)
C13 C14 1.387(2)
C14 C15 1.385(2)
C15 C16 1.389(2)
N1 S1 1.6434(11)
N2 O3 1.2258(14)
N2 O4 1.2289(17)
O1 S1 1.4334(10)
O2 S1 1.4402(10)
