#------------------------------------------------------------------------------
#$Date: 2016-03-21 04:43:23 +0200 (Mon, 21 Mar 2016) $
#$Revision: 178478 $
#$URL: svn://www.crystallography.net/cod/cif/4/02/99/4029989.cif $
#------------------------------------------------------------------------------
#
# This file is available in the Crystallography Open Database (COD),
# http://www.crystallography.net/
#
# All data on this site have been placed in the public domain by the
# contributors.
#
data_4029989
loop_
_publ_author_name
'Koyioni, Maria'
'Manoli, Maria'
'Koutentis, Panayiotis A.'
_publ_section_title
;
 Synthesis of fused 1,2,4-dithiazines and 1,2,3,5-trithiazepines.
;
_journal_issue                   20
_journal_name_full               'The Journal of organic chemistry'
_journal_page_first              9717
_journal_page_last               9727
_journal_paper_doi               10.1021/jo501881y
_journal_volume                  79
_journal_year                    2014
_chemical_formula_moiety         'C7 H6 N4 S3'
_chemical_formula_sum            'C7 H6 N4 S3'
_chemical_formula_weight         242.34
_chemical_name_systematic
; 
 ? 
;
_space_group_IT_number           4
_symmetry_cell_setting           monoclinic
_symmetry_space_group_name_Hall  'P 2yb'
_symmetry_space_group_name_H-M   'P 1 21 1'
_atom_sites_solution_hydrogens   geom
_atom_sites_solution_primary     direct
_atom_sites_solution_secondary   difmap
_audit_creation_method           SHELXL-97
_cell_angle_alpha                90.00
_cell_angle_beta                 92.324(10)
_cell_angle_gamma                90.00
_cell_formula_units_Z            2
_cell_length_a                   3.8380(4)
_cell_length_b                   7.3609(8)
_cell_length_c                   16.2830(17)
_cell_measurement_reflns_used    626
_cell_measurement_temperature    100.05(10)
_cell_measurement_theta_max      27.9330
_cell_measurement_theta_min      3.7250
_cell_volume                     459.63(8)
_computing_structure_refinement  'SHELXL-97 (Sheldrick, 1997)'
_computing_structure_solution    'SHELXS-97 (Sheldrick, 1990)'
_diffrn_ambient_temperature      100(2)
_diffrn_detector_area_resol_mean 10.4223
_diffrn_measured_fraction_theta_full 0.998
_diffrn_measured_fraction_theta_max 0.998
_diffrn_measurement_device_type  'SuperNova, Dual, Cu at zero, Atlas'
_diffrn_measurement_method       '\w scans'
_diffrn_radiation_monochromator  mirror
_diffrn_radiation_source         'SuperNova (Mo) X-ray Source'
_diffrn_radiation_type           MoK\a
_diffrn_radiation_wavelength     0.71073
_diffrn_reflns_av_R_equivalents  0.0304
_diffrn_reflns_av_sigmaI/netI    0.0661
_diffrn_reflns_limit_h_max       4
_diffrn_reflns_limit_h_min       -4
_diffrn_reflns_limit_k_max       6
_diffrn_reflns_limit_k_min       -8
_diffrn_reflns_limit_l_max       19
_diffrn_reflns_limit_l_min       -10
_diffrn_reflns_number            1598
_diffrn_reflns_theta_full        24.99
_diffrn_reflns_theta_max         24.99
_diffrn_reflns_theta_min         3.04
_exptl_absorpt_coefficient_mu    0.765
_exptl_absorpt_correction_T_max  1.00000
_exptl_absorpt_correction_T_min  0.69901
_exptl_absorpt_correction_type   multi-scan
_exptl_absorpt_process_details
'Empirical absorption correction (CrysAlis RED, Oxford Diffraction)'
_exptl_crystal_colour            red
_exptl_crystal_density_diffrn    1.751
_exptl_crystal_density_method    'not measured'
_exptl_crystal_description       rectangles
_exptl_crystal_F_000             248
_exptl_crystal_size_max          0.20
_exptl_crystal_size_mid          0.05
_exptl_crystal_size_min          0.01
_refine_diff_density_max         0.433
_refine_diff_density_min         -0.353
_refine_diff_density_rms         0.090
_refine_ls_abs_structure_details 'Flack H D (1983), Acta Cryst. A39, 876-881'
_refine_ls_abs_structure_Flack   0.7(2)
_refine_ls_extinction_method     none
_refine_ls_goodness_of_fit_ref   1.062
_refine_ls_hydrogen_treatment    constr
_refine_ls_matrix_type           full
_refine_ls_number_parameters     127
_refine_ls_number_reflns         1131
_refine_ls_number_restraints     1
_refine_ls_restrained_S_all      1.061
_refine_ls_R_factor_all          0.0473
_refine_ls_R_factor_gt           0.0432
_refine_ls_shift/su_max          0.000
_refine_ls_shift/su_mean         0.000
_refine_ls_structure_factor_coef Fsqd
_refine_ls_weighting_details
'calc w=1/[\s^2^(Fo^2^)+(0.0521P)^2^+0.1160P] where P=(Fo^2^+2Fc^2^)/3'
_refine_ls_weighting_scheme      calc
_refine_ls_wR_factor_gt          0.1010
_refine_ls_wR_factor_ref         0.1051
_reflns_number_gt                1061
_reflns_number_total             1131
_reflns_threshold_expression     >2sigma(I)
_cod_data_source_file            jo501881y_si_005.cif
_cod_data_source_block           shelxl
_cod_depositor_comments
;
The following automatic conversions were performed:

'_symmetry_cell_setting' value 'Monoclinic' changed to 'monoclinic'
according to
/home/saulius/struct/COD-crude-data--automatic-downloads/rss-feeds/ACS/lib/dictionaries/cif_core.dic
dictionary named 'cif_core.dic' version 2.4.2 from 2011-04-26.

Automatic conversion script
Id: cif_fix_values 2281 2013-09-26 08:29:07Z andrius 

 Adding full bibliography for 4029989--4029993.cif.
;
_cod_database_code               4029989
loop_
_symmetry_equiv_pos_as_xyz
'x, y, z'
'-x, y+1/2, -z'
loop_
_atom_site_label
_atom_site_type_symbol
_atom_site_fract_x
_atom_site_fract_y
_atom_site_fract_z
_atom_site_U_iso_or_equiv
_atom_site_adp_type
_atom_site_occupancy
_atom_site_symmetry_multiplicity
_atom_site_calc_flag
_atom_site_refinement_flags
C1 C 0.8998(15) 0.3079(9) 0.8170(3) 0.0130(13) Uani 1 1 d .
C2 C 0.7469(15) 0.4459(8) 0.8719(3) 0.0122(13) Uani 1 1 d .
C3 C 0.6491(14) 0.6226(9) 0.7305(3) 0.0128(12) Uani 1 1 d .
C4 C 0.8015(15) 0.4661(9) 0.6997(3) 0.0140(14) Uani 1 1 d .
C5 C 0.5800(14) 0.7350(9) 0.6633(3) 0.0157(13) Uani 1 1 d .
C6 C 0.4325(16) 0.9218(9) 0.6619(4) 0.0179(14) Uani 1 1 d .
H6A H 0.4157 0.9652 0.6063 0.027 Uiso 1 1 calc R
H6B H 0.5819 1.0008 0.6944 0.027 Uiso 1 1 calc R
H6C H 0.2047 0.9200 0.6842 0.027 Uiso 1 1 calc R
C7 C 0.9639(17) 0.3697(8) 0.5570(3) 0.0171(14) Uani 1 1 d .
H7A H 0.9407 0.4238 0.5034 0.026 Uiso 1 1 calc R
H7B H 0.8406 0.2562 0.5569 0.026 Uiso 1 1 calc R
H7C H 1.2060 0.3489 0.5708 0.026 Uiso 1 1 calc R
N1 N 0.7451(12) 0.4192(7) 0.9497(3) 0.0144(12) Uani 1 1 d .
N2 N 0.6850(12) 0.6541(8) 0.5937(3) 0.0163(12) Uani 1 1 d .
N3 N 0.8182(12) 0.4916(7) 0.6173(3) 0.0134(11) Uani 1 1 d .
N4 N 0.9267(12) 0.3124(7) 0.7385(3) 0.0138(11) Uani 1 1 d .
S1 S 1.0683(4) 0.1238(2) 0.87342(8) 0.0155(4) Uani 1 1 d .
S2 S 0.9180(4) 0.2275(2) 0.98552(8) 0.0154(4) Uani 1 1 d .
S3 S 0.5686(4) 0.6514(2) 0.83394(8) 0.0151(4) Uani 1 1 d .
loop_
_atom_site_aniso_label
_atom_site_aniso_U_11
_atom_site_aniso_U_22
_atom_site_aniso_U_33
_atom_site_aniso_U_23
_atom_site_aniso_U_13
_atom_site_aniso_U_12
C1 0.012(3) 0.013(3) 0.014(3) 0.001(3) -0.001(2) -0.002(3)
C2 0.014(3) 0.006(3) 0.016(3) -0.003(3) 0.000(2) -0.001(3)
C3 0.014(3) 0.012(3) 0.012(2) -0.005(3) -0.003(2) -0.004(3)
C4 0.013(3) 0.008(3) 0.021(3) -0.003(3) -0.004(2) -0.005(3)
C5 0.012(3) 0.019(3) 0.016(3) 0.000(3) 0.000(2) -0.002(3)
C6 0.019(3) 0.018(4) 0.017(3) -0.001(3) -0.003(2) -0.003(3)
C7 0.025(3) 0.013(4) 0.014(3) -0.001(3) 0.003(2) 0.006(3)
N1 0.018(3) 0.012(3) 0.014(2) -0.001(2) 0.001(2) -0.002(3)
N2 0.014(2) 0.017(3) 0.018(2) 0.006(3) -0.0022(19) -0.003(3)
N3 0.015(3) 0.012(3) 0.013(2) -0.001(2) 0.0013(19) -0.001(2)
N4 0.013(2) 0.011(3) 0.018(2) 0.000(2) 0.002(2) 0.000(2)
S1 0.0177(7) 0.0134(8) 0.0153(6) 0.0022(8) 0.0015(5) 0.0032(8)
S2 0.0188(8) 0.0127(8) 0.0149(6) 0.0003(7) 0.0019(6) 0.0003(7)
S3 0.0174(7) 0.0150(8) 0.0131(6) -0.0006(7) 0.0029(5) 0.0036(7)
loop_
_atom_type_symbol
_atom_type_description
_atom_type_scat_dispersion_real
_atom_type_scat_dispersion_imag
_atom_type_scat_source
C C 0.0033 0.0016 'International Tables Vol C Tables 4.2.6.8 and 6.1.1.4'
H H 0.0000 0.0000 'International Tables Vol C Tables 4.2.6.8 and 6.1.1.4'
N N 0.0061 0.0033 'International Tables Vol C Tables 4.2.6.8 and 6.1.1.4'
S S 0.1246 0.1234 'International Tables Vol C Tables 4.2.6.8 and 6.1.1.4'
loop_
_geom_angle_atom_site_label_1
_geom_angle_atom_site_label_2
_geom_angle_atom_site_label_3
_geom_angle
N4 C1 C2 128.9(5)
N4 C1 S1 119.9(5)
C2 C1 S1 111.1(4)
N1 C2 C1 120.5(5)
N1 C2 S3 117.4(4)
C1 C2 S3 122.1(4)
C5 C3 C4 106.1(5)
C5 C3 S3 130.9(5)
C4 C3 S3 122.9(5)
N3 C4 N4 122.6(5)
N3 C4 C3 106.2(5)
N4 C4 C3 131.2(5)
N2 C5 C3 110.1(5)
N2 C5 C6 121.3(5)
C3 C5 C6 128.6(5)
C2 N1 S2 117.4(4)
N3 N2 C5 105.8(4)
N2 N3 C4 111.8(5)
N2 N3 C7 120.3(4)
C4 N3 C7 127.9(5)
C1 N4 C4 116.0(5)
C1 S1 S2 93.8(2)
N1 S2 S1 97.21(17)
C3 S3 C2 98.9(3)
loop_
_geom_bond_atom_site_label_1
_geom_bond_atom_site_label_2
_geom_bond_distance
C1 N4 1.287(7)
C1 C2 1.489(8)
C1 S1 1.746(6)
C2 N1 1.282(7)
C2 S3 1.762(6)
C3 C5 1.389(8)
C3 C4 1.395(9)
C3 S3 1.738(5)
C4 N3 1.358(7)
C4 N4 1.374(8)
C5 N2 1.357(7)
C5 C6 1.487(9)
C7 N3 1.459(7)
N1 S2 1.655(5)
N2 N3 1.351(7)
S1 S2 2.081(2)
