#------------------------------------------------------------------------------
#$Date: 2016-03-21 04:43:23 +0200 (Mon, 21 Mar 2016) $
#$Revision: 178478 $
#$URL: svn://www.crystallography.net/cod/cif/4/02/99/4029993.cif $
#------------------------------------------------------------------------------
#
# This file is available in the Crystallography Open Database (COD),
# http://www.crystallography.net/
#
# All data on this site have been placed in the public domain by the
# contributors.
#
data_4029993
loop_
_publ_author_name
'Koyioni, Maria'
'Manoli, Maria'
'Koutentis, Panayiotis A.'
_publ_section_title
;
 Synthesis of fused 1,2,4-dithiazines and 1,2,3,5-trithiazepines.
;
_journal_issue                   20
_journal_name_full               'The Journal of organic chemistry'
_journal_page_first              9717
_journal_page_last               9727
_journal_paper_doi               10.1021/jo501881y
_journal_volume                  79
_journal_year                    2014
_chemical_formula_moiety         'C7 H6 N4 S3'
_chemical_formula_sum            'C7 H6 N4 S3'
_chemical_formula_weight         242.32
_chemical_name_systematic
; 
 ? 
;
_space_group_IT_number           2
_symmetry_cell_setting           triclinic
_symmetry_space_group_name_Hall  '-P 1'
_symmetry_space_group_name_H-M   'P -1'
_atom_sites_solution_hydrogens   geom
_atom_sites_solution_primary     direct
_atom_sites_solution_secondary   difmap
_audit_creation_method           SHELXL-97
_cell_angle_alpha                113.381(11)
_cell_angle_beta                 99.470(8)
_cell_angle_gamma                97.678(8)
_cell_formula_units_Z            2
_cell_length_a                   7.8861(6)
_cell_length_b                   8.2893(10)
_cell_length_c                   8.3398(9)
_cell_measurement_reflns_used    962
_cell_measurement_temperature    100.05(10)
_cell_measurement_theta_max      28.1290
_cell_measurement_theta_min      3.9890
_cell_volume                     481.53(10)
_computing_structure_refinement  'SHELXL-97 (Sheldrick, 1997)'
_computing_structure_solution    'SHELXS-97 (Sheldrick, 1990)'
_diffrn_ambient_temperature      100(2)
_diffrn_detector_area_resol_mean 10.4223
_diffrn_measured_fraction_theta_full 0.996
_diffrn_measured_fraction_theta_max 0.996
_diffrn_measurement_device_type  'SuperNova, Dual, Cu at zero, Atlas'
_diffrn_measurement_method       '\w scans'
_diffrn_radiation_monochromator  mirror
_diffrn_radiation_source         'SuperNova (Mo) X-ray Source'
_diffrn_radiation_type           MoK\a
_diffrn_radiation_wavelength     0.71073
_diffrn_reflns_av_R_equivalents  0.0343
_diffrn_reflns_av_sigmaI/netI    0.0649
_diffrn_reflns_limit_h_max       9
_diffrn_reflns_limit_h_min       -9
_diffrn_reflns_limit_k_max       9
_diffrn_reflns_limit_k_min       -7
_diffrn_reflns_limit_l_max       9
_diffrn_reflns_limit_l_min       -9
_diffrn_reflns_number            2833
_diffrn_reflns_theta_full        25.00
_diffrn_reflns_theta_max         25.00
_diffrn_reflns_theta_min         3.35
_exptl_absorpt_coefficient_mu    0.730
_exptl_absorpt_correction_T_max  1.00000
_exptl_absorpt_correction_T_min  0.81034
_exptl_absorpt_correction_type   multi-scan
_exptl_absorpt_process_details
'Empirical absorption correction (CrysAlis RED, Oxford Diffraction)'
_exptl_crystal_colour            yellow
_exptl_crystal_density_diffrn    1.671
_exptl_crystal_density_method    'not measured'
_exptl_crystal_description       rectangles
_exptl_crystal_F_000             248
_exptl_crystal_size_max          0.15
_exptl_crystal_size_mid          0.08
_exptl_crystal_size_min          0.04
_refine_diff_density_max         0.418
_refine_diff_density_min         -0.395
_refine_diff_density_rms         0.086
_refine_ls_extinction_method     none
_refine_ls_goodness_of_fit_ref   1.036
_refine_ls_hydrogen_treatment    constr
_refine_ls_matrix_type           full
_refine_ls_number_parameters     128
_refine_ls_number_reflns         1697
_refine_ls_number_restraints     0
_refine_ls_restrained_S_all      1.036
_refine_ls_R_factor_all          0.0602
_refine_ls_R_factor_gt           0.0442
_refine_ls_shift/su_max          0.000
_refine_ls_shift/su_mean         0.000
_refine_ls_structure_factor_coef Fsqd
_refine_ls_weighting_details
'calc w=1/[\s^2^(Fo^2^)+(0.0428P)^2^+0.0000P] where P=(Fo^2^+2Fc^2^)/3'
_refine_ls_weighting_scheme      calc
_refine_ls_wR_factor_gt          0.0965
_refine_ls_wR_factor_ref         0.1059
_reflns_number_gt                1339
_reflns_number_total             1697
_reflns_threshold_expression     >2sigma(I)
_cod_data_source_file            jo501881y_si_004.cif
_cod_data_source_block           shelxl
_cod_depositor_comments
;
The following automatic conversions were performed:

'_symmetry_cell_setting' value 'Triclinic' changed to 'triclinic'
according to
/home/saulius/struct/COD-crude-data--automatic-downloads/rss-feeds/ACS/lib/dictionaries/cif_core.dic
dictionary named 'cif_core.dic' version 2.4.2 from 2011-04-26.

Automatic conversion script
Id: cif_fix_values 2281 2013-09-26 08:29:07Z andrius 

 Adding full bibliography for 4029989--4029993.cif.
;
_cod_original_cell_volume        481.53(9)
_cod_original_sg_symbol_H-M      P-1
_cod_database_code               4029993
loop_
_symmetry_equiv_pos_as_xyz
'x, y, z'
'-x, -y, -z'
loop_
_atom_site_label
_atom_site_type_symbol
_atom_site_fract_x
_atom_site_fract_y
_atom_site_fract_z
_atom_site_U_iso_or_equiv
_atom_site_adp_type
_atom_site_occupancy
_atom_site_symmetry_multiplicity
_atom_site_calc_flag
_atom_site_refinement_flags
S1 S 0.85044(10) 0.31802(11) 0.48657(11) 0.0215(2) Uani 1 1 d .
S2 S 0.94232(10) 0.44293(12) 0.75882(11) 0.0235(3) Uani 1 1 d .
S3 S 0.71530(11) 0.44938(12) 0.84934(12) 0.0245(3) Uani 1 1 d .
N1 N 0.6761(3) 0.0758(4) 0.7233(3) 0.0182(6) Uani 1 1 d .
N2 N 0.7064(3) -0.1589(4) 0.4724(4) 0.0176(6) Uani 1 1 d .
N3 N 0.7557(3) -0.2061(4) 0.3165(4) 0.0200(6) Uani 1 1 d .
N4 N 0.5579(4) 0.2418(4) 1.1187(4) 0.0281(7) Uani 1 1 d .
C1 C 0.7940(4) 0.0960(4) 0.4556(4) 0.0165(7) Uani 1 1 d .
C2 C 0.7243(4) 0.0232(4) 0.5634(4) 0.0178(7) Uani 1 1 d .
C3 C 0.6666(4) 0.2292(5) 0.8371(4) 0.0205(8) Uani 1 1 d .
C4 C 0.6057(4) 0.2331(4) 0.9935(5) 0.0211(8) Uani 1 1 d .
C5 C 0.8099(4) -0.0512(4) 0.3058(4) 0.0178(7) Uani 1 1 d .
C6 C 0.8753(4) -0.0509(5) 0.1476(4) 0.0220(8) Uani 1 1 d .
H6A H 0.9291 -0.1517 0.1006 0.033 Uiso 1 1 calc R
H6B H 0.9605 0.0589 0.1843 0.033 Uiso 1 1 calc R
H6C H 0.7782 -0.0597 0.0561 0.033 Uiso 1 1 calc R
C7 C 0.6551(4) -0.2954(4) 0.5346(5) 0.0210(7) Uani 1 1 d .
H7A H 0.6532 -0.4123 0.4440 0.031 Uiso 1 1 calc R
H7B H 0.5399 -0.2918 0.5575 0.031 Uiso 1 1 calc R
H7C H 0.7383 -0.2719 0.6434 0.031 Uiso 1 1 calc R
loop_
_atom_site_aniso_label
_atom_site_aniso_U_11
_atom_site_aniso_U_22
_atom_site_aniso_U_33
_atom_site_aniso_U_23
_atom_site_aniso_U_13
_atom_site_aniso_U_12
S1 0.0268(5) 0.0154(5) 0.0173(5) 0.0037(4) 0.0040(4) 0.0005(4)
S2 0.0257(5) 0.0200(5) 0.0168(5) 0.0034(4) 0.0007(3) -0.0009(4)
S3 0.0319(5) 0.0181(5) 0.0190(5) 0.0026(4) 0.0073(4) 0.0066(4)
N1 0.0168(14) 0.0182(16) 0.0143(15) 0.0023(13) 0.0029(11) 0.0028(12)
N2 0.0204(14) 0.0138(15) 0.0146(15) 0.0026(12) 0.0047(11) 0.0010(11)
N3 0.0191(14) 0.0187(16) 0.0150(16) 0.0007(13) 0.0044(11) 0.0009(12)
N4 0.0319(16) 0.0278(19) 0.0186(17) 0.0052(15) 0.0056(13) 0.0031(14)
C1 0.0178(16) 0.0114(17) 0.0146(18) 0.0010(14) 0.0026(13) 0.0005(13)
C2 0.0154(16) 0.0159(19) 0.0158(18) 0.0028(15) -0.0005(13) 0.0017(13)
C3 0.0182(17) 0.019(2) 0.0175(18) 0.0029(16) 0.0008(13) 0.0002(14)
C4 0.0202(18) 0.021(2) 0.0163(19) 0.0044(16) -0.0005(14) 0.0024(14)
C5 0.0155(16) 0.0187(19) 0.0159(18) 0.0047(15) 0.0033(13) 0.0019(14)
C6 0.0215(17) 0.024(2) 0.0147(18) 0.0036(16) 0.0026(14) 0.0017(14)
C7 0.0240(17) 0.0164(19) 0.0211(19) 0.0067(16) 0.0066(14) 0.0022(14)
loop_
_atom_type_symbol
_atom_type_description
_atom_type_scat_dispersion_real
_atom_type_scat_dispersion_imag
_atom_type_scat_source
C C 0.0030 0.0020 'International Tables Vol C Tables 4.2.6.8 and 6.1.1.4'
H H 0.0000 0.0000 'International Tables Vol C Tables 4.2.6.8 and 6.1.1.4'
N N 0.0060 0.0030 'International Tables Vol C Tables 4.2.6.8 and 6.1.1.4'
S S 0.1250 0.1230 'International Tables Vol C Tables 4.2.6.8 and 6.1.1.4'
loop_
_geom_angle_atom_site_label_1
_geom_angle_atom_site_label_2
_geom_angle_atom_site_label_3
_geom_angle
C1 S1 S2 99.99(11)
S1 S2 S3 102.93(5)
C3 S3 S2 100.21(11)
C3 N1 C2 131.8(3)
N3 N2 C2 113.0(3)
N3 N2 C7 119.9(3)
C2 N2 C7 126.9(3)
C5 N3 N2 105.5(3)
C5 C1 C2 105.7(3)
C5 C1 S1 123.8(2)
C2 C1 S1 130.6(2)
N1 C2 N2 114.4(3)
N1 C2 C1 140.7(3)
N2 C2 C1 104.8(3)
N1 C3 C4 116.3(3)
N1 C3 S3 133.3(3)
C4 C3 S3 110.4(2)
N4 C4 C3 177.9(4)
N3 C5 C1 111.0(3)
N3 C5 C6 120.8(3)
C1 C5 C6 128.2(3)
C5 C6 H6A 109.5
C5 C6 H6B 109.5
H6A C6 H6B 109.5
C5 C6 H6C 109.5
H6A C6 H6C 109.5
H6B C6 H6C 109.5
N2 C7 H7A 109.5
N2 C7 H7B 109.5
H7A C7 H7B 109.5
N2 C7 H7C 109.5
H7A C7 H7C 109.5
H7B C7 H7C 109.5
loop_
_geom_bond_atom_site_label_1
_geom_bond_atom_site_label_2
_geom_bond_distance
S1 C1 1.737(3)
S1 S2 2.0358(13)
S2 S3 2.0533(11)
S3 C3 1.773(3)
N1 C3 1.271(4)
N1 C2 1.365(4)
N2 N3 1.341(3)
N2 C2 1.368(4)
N2 C7 1.458(4)
N3 C5 1.340(4)
N4 C4 1.147(4)
C1 C5 1.396(4)
C1 C2 1.407(4)
C3 C4 1.452(4)
C5 C6 1.494(4)
C6 H6A 0.9600
C6 H6B 0.9600
C6 H6C 0.9600
C7 H7A 0.9600
C7 H7B 0.9600
C7 H7C 0.9600
