#------------------------------------------------------------------------------
#$Date: 2015-09-06 02:42:17 +0300 (Sun, 06 Sep 2015) $
#$Revision: 154687 $
#$URL: svn://www.crystallography.net/cod/cif/4/03/12/4031293.cif $
#------------------------------------------------------------------------------
#
# This file is available in the Crystallography Open Database (COD),
# http://www.crystallography.net/
#
# All data on this site have been placed in the public domain by the
# contributors.
#
data_4031293
loop_
_publ_author_name
'Lee, Mijoon'
'Rucil, Tomas'
'Hesek, Dusan'
'Oliver, Allen G.'
'Fisher, Jed F.'
'Mobashery, Shahriar'
_publ_section_title
;
 Regioselective Control of the SNAr Amination of
 5-Substituted-2,4-Dichloropyrimidines Using Tertiary Amine Nucleophiles.
;
_journal_issue                   15
_journal_name_full               'The Journal of organic chemistry'
_journal_page_first              7757
_journal_page_last               7763
_journal_paper_doi               10.1021/acs.joc.5b01044
_journal_volume                  80
_journal_year                    2015
_chemical_formula_moiety         'C7 H9 Cl N4 O2'
_chemical_formula_sum            'C7 H9 Cl N4 O2'
_chemical_formula_weight         216.63
_chemical_name_common
;
4-Chloro-N-ethyl-N-methyl-5-nitro-2-pyrimidinamine 
;
_space_group_crystal_system      triclinic
_space_group_IT_number           2
_space_group_name_Hall           '-P 1'
_space_group_name_H-M_alt        'P -1'
_symmetry_space_group_name_Hall  '-P 1'
_symmetry_space_group_name_H-M   'P -1'
_atom_sites_solution_hydrogens   geom
_atom_sites_solution_primary     direct
_atom_sites_solution_secondary   difmap
_audit_creation_method           SHELXL-2014/7
_cell_angle_alpha                99.743(3)
_cell_angle_beta                 106.984(3)
_cell_angle_gamma                100.825(3)
_cell_formula_units_Z            2
_cell_length_a                   6.0855(3)
_cell_length_b                   7.9433(4)
_cell_length_c                   10.3049(5)
_cell_measurement_reflns_used    3874
_cell_measurement_temperature    120(2)
_cell_measurement_theta_max      65.46
_cell_measurement_theta_min      4.62
_cell_volume                     454.42(4)
_computing_cell_refinement       'Bruker SAINT v7.68A'
_computing_data_collection       'Bruker APEX-II v2010-3'
_computing_data_reduction        'Bruker SAINT v7.68A'
_computing_structure_refinement  'SHELXL-2014/7 (Sheldrick, 2014)'
_computing_structure_solution    'SHELXS-97 (Sheldrick, 2008)'
_diffrn_ambient_temperature      120(2)
_diffrn_detector_area_resol_mean 8.33
_diffrn_measured_fraction_theta_full 0.854
_diffrn_measured_fraction_theta_max 0.854
_diffrn_measurement_device_type  'Bruker APEX-II'
_diffrn_measurement_method       'combination of \w and \f-scans '
_diffrn_radiation_monochromator  graphite
_diffrn_radiation_source         'fine-focus sealed tube'
_diffrn_radiation_type           CuK\a
_diffrn_radiation_wavelength     1.54178
_diffrn_reflns_av_R_equivalents  0.0239
_diffrn_reflns_av_unetI/netI     0.0206
_diffrn_reflns_laue_measured_fraction_full 0.854
_diffrn_reflns_laue_measured_fraction_max 0.854
_diffrn_reflns_limit_h_max       6
_diffrn_reflns_limit_h_min       -5
_diffrn_reflns_limit_k_max       9
_diffrn_reflns_limit_k_min       -8
_diffrn_reflns_limit_l_max       11
_diffrn_reflns_limit_l_min       -11
_diffrn_reflns_number            5048
_diffrn_reflns_point_group_measured_fraction_full 0.854
_diffrn_reflns_point_group_measured_fraction_max 0.854
_diffrn_reflns_theta_full        65.460
_diffrn_reflns_theta_max         65.460
_diffrn_reflns_theta_min         4.620
_exptl_absorpt_coefficient_mu    3.598
_exptl_absorpt_correction_T_max  0.7526
_exptl_absorpt_correction_T_min  0.5441
_exptl_absorpt_correction_type   multi-scan
_exptl_absorpt_process_details   'SADABS (Sheldrick, 2008)'
_exptl_crystal_colour            colorless
_exptl_crystal_density_diffrn    1.583
_exptl_crystal_description       rod
_exptl_crystal_F_000             224
_exptl_crystal_size_max          0.230
_exptl_crystal_size_mid          0.140
_exptl_crystal_size_min          0.130
_refine_diff_density_max         0.694
_refine_diff_density_min         -0.263
_refine_diff_density_rms         0.063
_refine_ls_extinction_method     none
_refine_ls_goodness_of_fit_ref   1.056
_refine_ls_hydrogen_treatment    constr
_refine_ls_matrix_type           full
_refine_ls_number_parameters     129
_refine_ls_number_reflns         1336
_refine_ls_number_restraints     0
_refine_ls_restrained_S_all      1.056
_refine_ls_R_factor_all          0.0402
_refine_ls_R_factor_gt           0.0389
_refine_ls_shift/su_max          0.000
_refine_ls_shift/su_mean         0.000
_refine_ls_structure_factor_coef Fsqd
_refine_ls_weighting_details
'w=1/[\s^2^(Fo^2^)+(0.0567P)^2^+0.4546P] where P=(Fo^2^+2Fc^2^)/3'
_refine_ls_weighting_scheme      calc
_refine_ls_wR_factor_gt          0.1022
_refine_ls_wR_factor_ref         0.1033
_reflns_Friedel_coverage         0.000
_reflns_number_gt                1279
_reflns_number_total             1336
_reflns_threshold_expression     'I > 2\s(I)'
_cod_data_source_file            jo5b01044_si_002.cif
_cod_data_source_block           3i
_cod_depositor_comments
'Adding full bibliography for 4031286--4031299.cif.'
_cod_database_code               4031293
_shelx_shelxl_version_number     2014/7
_shelx_space_group_comment
;
The symmetry employed for this shelxl refinement is uniquely defined
by the following loop, which should always be used as a source of
symmetry information in preference to the above space-group names.
They are only intended as comments.
;
_shelx_estimated_absorpt_t_min   0.492
_shelx_estimated_absorpt_t_max   0.652
loop_
_space_group_symop_operation_xyz
'x, y, z'
'-x, -y, -z'
loop_
_atom_site_label
_atom_site_type_symbol
_atom_site_fract_x
_atom_site_fract_y
_atom_site_fract_z
_atom_site_U_iso_or_equiv
_atom_site_adp_type
_atom_site_occupancy
_atom_site_site_symmetry_order
_atom_site_calc_flag
_atom_site_refinement_flags_posn
_atom_site_refinement_flags_adp
Cl1 Cl 0.22237(10) 0.91232(7) -0.15920(6) 0.0300(2) Uani 1 1 d . .
O1 O -0.5265(3) 0.6304(2) -0.32190(19) 0.0381(5) Uani 1 1 d . .
O2 O -0.2708(3) 0.8611(3) -0.32105(19) 0.0385(5) Uani 1 1 d . .
N1 N -0.1802(4) 0.6376(2) 0.0770(2) 0.0246(5) Uani 1 1 d . .
N2 N 0.1902(3) 0.6902(2) 0.2470(2) 0.0245(5) Uani 1 1 d . .
N3 N 0.1807(3) 0.7926(2) 0.0508(2) 0.0241(5) Uani 1 1 d . .
N5 N -0.3368(4) 0.7444(3) -0.2664(2) 0.0279(5) Uani 1 1 d . .
C2 C 0.0595(4) 0.7070(3) 0.1230(2) 0.0227(5) Uani 1 1 d . .
C4 C 0.0558(4) 0.8070(3) -0.0726(2) 0.0230(5) Uani 1 1 d . .
C5 C -0.1899(4) 0.7386(3) -0.1297(2) 0.0237(5) Uani 1 1 d . .
C6 C -0.2982(4) 0.6530(3) -0.0480(2) 0.0247(5) Uani 1 1 d . .
H6 H -0.4650 0.6035 -0.0844 0.030 Uiso 1 1 calc R U
C7 C 0.0784(4) 0.6216(3) 0.3429(2) 0.0263(6) Uani 1 1 d . .
H7A H 0.1753 0.5509 0.3936 0.032 Uiso 1 1 calc R U
H7B H -0.0811 0.5433 0.2884 0.032 Uiso 1 1 calc R U
C8 C 0.0559(5) 0.7707(3) 0.4467(3) 0.0336(6) Uani 1 1 d . .
H8A H 0.2142 0.8455 0.5031 0.050 Uiso 1 1 calc R U
H8B H -0.0221 0.7220 0.5078 0.050 Uiso 1 1 calc R U
H8C H -0.0389 0.8412 0.3964 0.050 Uiso 1 1 calc R U
C9 C 0.4476(5) 0.7674(3) 0.3019(3) 0.0312(6) Uani 1 1 d . .
H9A H 0.5189 0.7251 0.2329 0.047 Uiso 1 1 calc R U
H9B H 0.5162 0.7322 0.3886 0.047 Uiso 1 1 calc R U
H9C H 0.4795 0.8963 0.3209 0.047 Uiso 1 1 calc R U
loop_
_atom_site_aniso_label
_atom_site_aniso_U_11
_atom_site_aniso_U_22
_atom_site_aniso_U_33
_atom_site_aniso_U_23
_atom_site_aniso_U_13
_atom_site_aniso_U_12
Cl1 0.0324(4) 0.0321(4) 0.0279(4) 0.0113(3) 0.0149(3) 0.0025(3)
O1 0.0316(11) 0.0439(11) 0.0315(11) 0.0081(8) 0.0037(8) 0.0040(8)
O2 0.0403(11) 0.0499(11) 0.0321(11) 0.0222(9) 0.0140(9) 0.0137(9)
N1 0.0271(11) 0.0220(10) 0.0241(11) 0.0054(8) 0.0095(9) 0.0036(8)
N2 0.0255(11) 0.0254(10) 0.0230(11) 0.0085(8) 0.0092(9) 0.0034(8)
N3 0.0268(11) 0.0212(10) 0.0240(11) 0.0053(8) 0.0105(9) 0.0025(8)
N5 0.0298(12) 0.0318(11) 0.0256(12) 0.0082(9) 0.0115(9) 0.0115(9)
C2 0.0306(14) 0.0168(11) 0.0223(13) 0.0039(9) 0.0121(10) 0.0056(9)
C4 0.0317(14) 0.0172(11) 0.0240(13) 0.0045(9) 0.0158(11) 0.0050(9)
C5 0.0277(13) 0.0226(12) 0.0220(13) 0.0050(10) 0.0089(10) 0.0082(10)
C6 0.0254(13) 0.0226(12) 0.0256(14) 0.0043(10) 0.0095(10) 0.0047(10)
C7 0.0285(14) 0.0288(12) 0.0234(13) 0.0116(10) 0.0095(10) 0.0049(10)
C8 0.0347(15) 0.0410(15) 0.0273(14) 0.0084(11) 0.0136(11) 0.0090(11)
C9 0.0293(14) 0.0336(14) 0.0307(14) 0.0085(11) 0.0111(11) 0.0057(11)
loop_
_atom_type_symbol
_atom_type_description
_atom_type_scat_dispersion_real
_atom_type_scat_dispersion_imag
_atom_type_scat_source
C C 0.0181 0.0091 'International Tables Vol C Tables 4.2.6.8 and 6.1.1.4'
H H 0.0000 0.0000 'International Tables Vol C Tables 4.2.6.8 and 6.1.1.4'
N N 0.0311 0.0180 'International Tables Vol C Tables 4.2.6.8 and 6.1.1.4'
O O 0.0492 0.0322 'International Tables Vol C Tables 4.2.6.8 and 6.1.1.4'
Cl Cl 0.3639 0.7018 'International Tables Vol C Tables 4.2.6.8 and 6.1.1.4'
loop_
_geom_angle_atom_site_label_1
_geom_angle_atom_site_label_2
_geom_angle_atom_site_label_3
_geom_angle
C6 N1 C2 116.1(2)
C2 N2 C9 120.6(2)
C2 N2 C7 121.3(2)
C9 N2 C7 117.27(19)
C4 N3 C2 117.0(2)
O2 N5 O1 123.2(2)
O2 N5 C5 119.5(2)
O1 N5 C5 117.3(2)
N2 C2 N3 116.1(2)
N2 C2 N1 119.0(2)
N3 C2 N1 124.9(2)
N3 C4 C5 122.5(2)
N3 C4 Cl1 114.29(18)
C5 C4 Cl1 123.19(19)
C4 C5 C6 116.3(2)
C4 C5 N5 125.4(2)
C6 C5 N5 118.3(2)
N1 C6 C5 123.1(2)
N1 C6 H6 118.4
C5 C6 H6 118.4
N2 C7 C8 110.90(19)
N2 C7 H7A 109.5
C8 C7 H7A 109.5
N2 C7 H7B 109.5
C8 C7 H7B 109.5
H7A C7 H7B 108.0
C7 C8 H8A 109.5
C7 C8 H8B 109.5
H8A C8 H8B 109.5
C7 C8 H8C 109.5
H8A C8 H8C 109.5
H8B C8 H8C 109.5
N2 C9 H9A 109.5
N2 C9 H9B 109.5
H9A C9 H9B 109.5
N2 C9 H9C 109.5
H9A C9 H9C 109.5
H9B C9 H9C 109.5
loop_
_geom_bond_atom_site_label_1
_geom_bond_atom_site_label_2
_geom_bond_distance
Cl1 C4 1.728(2)
O1 N5 1.235(3)
O2 N5 1.228(3)
N1 C6 1.317(3)
N1 C2 1.365(3)
N2 C2 1.337(3)
N2 C9 1.467(3)
N2 C7 1.474(3)
N3 C4 1.313(3)
N3 C2 1.364(3)
N5 C5 1.445(3)
C4 C5 1.396(3)
C5 C6 1.398(3)
C6 H6 0.9500
C7 C8 1.511(3)
C7 H7A 0.9900
C7 H7B 0.9900
C8 H8A 0.9800
C8 H8B 0.9800
C8 H8C 0.9800
C9 H9A 0.9800
C9 H9B 0.9800
C9 H9C 0.9800
loop_
_geom_torsion_atom_site_label_1
_geom_torsion_atom_site_label_2
_geom_torsion_atom_site_label_3
_geom_torsion_atom_site_label_4
_geom_torsion
C9 N2 C2 N3 2.4(3)
C7 N2 C2 N3 171.86(19)
C9 N2 C2 N1 -178.2(2)
C7 N2 C2 N1 -8.8(3)
C4 N3 C2 N2 178.56(18)
C4 N3 C2 N1 -0.7(3)
C6 N1 C2 N2 -177.69(19)
C6 N1 C2 N3 1.6(3)
C2 N3 C4 C5 -0.1(3)
C2 N3 C4 Cl1 -178.54(15)
N3 C4 C5 C6 0.1(3)
Cl1 C4 C5 C6 178.35(16)
N3 C4 C5 N5 -177.8(2)
Cl1 C4 C5 N5 0.5(3)
O2 N5 C5 C4 -25.6(3)
O1 N5 C5 C4 155.1(2)
O2 N5 C5 C6 156.6(2)
O1 N5 C5 C6 -22.7(3)
C2 N1 C6 C5 -1.6(3)
C4 C5 C6 N1 0.9(3)
N5 C5 C6 N1 178.88(19)
C2 N2 C7 C8 -94.1(3)
C9 N2 C7 C8 75.6(3)
