#------------------------------------------------------------------------------
#$Date: 2016-04-04 08:16:17 +0300 (Mon, 04 Apr 2016) $
#$Revision: 181338 $
#$URL: svn://www.crystallography.net/cod/cif/4/03/19/4031935.cif $
#------------------------------------------------------------------------------
#
# This file is available in the Crystallography Open Database (COD),
# http://www.crystallography.net/
#
# All data on this site have been placed in the public domain by the
# contributors.
#
data_4031935
loop_
_publ_author_name
'Li, Yuanzhen'
'Yang, Shuang'
'Wen, Genfa'
'Lin, Qiqiao'
'Zhang, Guoxiang'
'Qiu, Lin'
'Zhang, Xiaoyan'
'Du, Guangfen'
'Fang, Xinqiang'
_publ_section_title
;
 Asymmetric Desymmetrization of 1,3-Diketones via Intramolecular Benzoin
 Reaction.
;
_journal_issue                   7
_journal_name_full               'The Journal of organic chemistry'
_journal_page_first              2763
_journal_page_last               2769
_journal_paper_doi               10.1021/acs.joc.5b02829
_journal_volume                  81
_journal_year                    2016
_chemical_formula_sum            'C14 H15 F O3'
_chemical_formula_weight         250.26
_chemical_name_systematic
;
 ?
;
_space_group_crystal_system      monoclinic
_space_group_IT_number           4
_space_group_name_Hall           'P 2yb'
_space_group_name_H-M_alt        'P 1 21 1'
_symmetry_space_group_name_Hall  'P 2yb'
_symmetry_space_group_name_H-M   'P 1 21 1'
_atom_sites_solution_hydrogens   geom
_audit_creation_method           SHELXL-2014
_cell_angle_alpha                90
_cell_angle_beta                 92.156(3)
_cell_angle_gamma                90
_cell_formula_units_Z            2
_cell_length_a                   7.0830(2)
_cell_length_b                   7.1796(2)
_cell_length_c                   11.8698(3)
_cell_measurement_reflns_used    1525
_cell_measurement_temperature    100(2)
_cell_measurement_theta_max      72.7870
_cell_measurement_theta_min      3.7230
_cell_volume                     603.19(3)
_computing_cell_refinement
;
CrysAlisPro, Agilent Technologies,
Version 1.171.37.35 (release 13-08-2014 CrysAlis171 .NET)
(compiled Aug 13 2014,18:06:01)
;
_computing_data_collection
;
CrysAlisPro, Agilent Technologies,
Version 1.171.37.35 (release 13-08-2014 CrysAlis171 .NET)
(compiled Aug 13 2014,18:06:01)
;
_computing_data_reduction
;
CrysAlisPro, Agilent Technologies,
Version 1.171.37.35 (release 13-08-2014 CrysAlis171 .NET)
(compiled Aug 13 2014,18:06:01)
;
_computing_structure_refinement  'SHELXL-2014 (Sheldrick, 2014)'
_computing_structure_solution    'SHELXT-2014 (Sheldrick, 2014)'
_diffrn_ambient_temperature      100(2)
_diffrn_detector_area_resol_mean 10.5594
_diffrn_measured_fraction_theta_full 0.998
_diffrn_measured_fraction_theta_max 0.973
_diffrn_measurement_device_type  'SuperNova, Dual, Cu at zero, Atlas'
_diffrn_measurement_method       '\w scans'
_diffrn_radiation_type           CuK\a
_diffrn_radiation_wavelength     1.54184
_diffrn_reflns_av_R_equivalents  0.0121
_diffrn_reflns_av_unetI/netI     0.0180
_diffrn_reflns_laue_measured_fraction_full 0.998
_diffrn_reflns_laue_measured_fraction_max 0.973
_diffrn_reflns_limit_h_max       8
_diffrn_reflns_limit_h_min       -8
_diffrn_reflns_limit_k_max       8
_diffrn_reflns_limit_k_min       -5
_diffrn_reflns_limit_l_max       13
_diffrn_reflns_limit_l_min       -14
_diffrn_reflns_number            2236
_diffrn_reflns_point_group_measured_fraction_full 0.661
_diffrn_reflns_point_group_measured_fraction_max 0.637
_diffrn_reflns_theta_full        67.684
_diffrn_reflns_theta_max         73.027
_diffrn_reflns_theta_min         3.727
_diffrn_source                   'sealed X-ray tube'
_exptl_absorpt_coefficient_mu    0.888
_exptl_absorpt_correction_T_max  1.00000
_exptl_absorpt_correction_T_min  0.95238
_exptl_absorpt_correction_type   multi-scan
_exptl_absorpt_process_details
;
CrysAlisPro, Agilent Technologies,
Version 1.171.37.35 (release 13-08-2014 CrysAlis171 .NET)
(compiled Aug 13 2014,18:06:01)
Empirical absorption correction using spherical harmonics,
 implemented in SCALE3 ABSPACK scaling algorithm.
;
_exptl_crystal_colour            colorless
_exptl_crystal_density_diffrn    1.378
_exptl_crystal_description       prism
_exptl_crystal_F_000             264
_exptl_crystal_size_max          0.240
_exptl_crystal_size_mid          0.230
_exptl_crystal_size_min          0.200
_refine_diff_density_max         0.257
_refine_diff_density_min         -0.211
_refine_diff_density_rms         0.038
_refine_ls_abs_structure_details
;
 Flack x determined using 252 quotients [(I+)-(I-)]/[(I+)+(I-)]
 (Parsons, Flack and Wagner, Acta Cryst. B69 (2013) 249-259).
;
_refine_ls_abs_structure_Flack   0.11(13)
_refine_ls_extinction_method     none
_refine_ls_goodness_of_fit_ref   1.058
_refine_ls_hydrogen_treatment    constr
_refine_ls_matrix_type           full
_refine_ls_number_parameters     167
_refine_ls_number_reflns         1535
_refine_ls_number_restraints     1
_refine_ls_restrained_S_all      1.058
_refine_ls_R_factor_all          0.0313
_refine_ls_R_factor_gt           0.0295
_refine_ls_shift/su_max          0.000
_refine_ls_shift/su_mean         0.000
_refine_ls_structure_factor_coef Fsqd
_refine_ls_weighting_details
'w=1/[\s^2^(Fo^2^)+(0.0517P)^2^+0.0980P] where P=(Fo^2^+2Fc^2^)/3'
_refine_ls_weighting_scheme      calc
_refine_ls_wR_factor_gt          0.0808
_refine_ls_wR_factor_ref         0.0827
_reflns_Friedel_coverage         0.209
_reflns_friedel_fraction_full    0.259
_reflns_friedel_fraction_max     0.240
_reflns_number_gt                1472
_reflns_number_total             1535
_reflns_threshold_expression     'I > 2\s(I)'
_cod_data_source_file            jo5b02829_si_001.cif
_cod_data_source_block           compound-2
_cod_database_code               4031935
_shelx_space_group_comment
;
The symmetry employed for this shelxl refinement is uniquely defined
by the following loop, which should always be used as a source of
symmetry information in preference to the above space-group names.
They are only intended as comments.
;
_shelx_estimated_absorpt_t_min   0.815
_shelx_estimated_absorpt_t_max   0.842
_shelxl_version_number           2014-3
_shelx_res_file
;
TITL FXQ-02_a.res in P2(1)
CELL 1.54184 7.0830 7.1796 11.8698 90.000 92.156 90.000
ZERR 2.0000 0.0002 0.0002 0.0003 0.000 0.003 0.000
LATT -1
SYMM -X, 0.5+Y, -Z
SFAC C H O F
UNIT 28 30 6 2
MERG 2
FMAP 2
GRID
PLAN 20
TEMP -173
SIZE 0.2 0.23 0.24
BOND $H
OMIT      4   0   0
L.S. 20
ACTA
WGHT    0.051700    0.098000
FVAR       1.62171
F1    4    0.015962    0.466223    0.666627    11.00000    0.03044    0.05134 =
         0.01493    0.00080    0.00743   -0.00628
O1    3   -0.060902    0.489122    0.051538    11.00000    0.01737    0.04346 =
         0.01831    0.00011   -0.00131    0.00510
O2    3    0.524017    0.521943    0.101658    11.00000    0.01190    0.02838 =
         0.01791   -0.00190    0.00404    0.00078
AFIX 147
H2    2    0.633063    0.527097    0.131857    11.00000   -1.20000
AFIX   0
O3    3    0.652153    0.534669    0.312533    11.00000    0.01247    0.04765 =
         0.02277    0.00028    0.00014    0.00168
C1    1    0.212113    0.448131   -0.054045    11.00000    0.02047    0.04011 =
         0.01553   -0.00257    0.00093    0.00214
AFIX 137
H1A   2    0.121080    0.440681   -0.118134    11.00000   -1.50000
H1B   2    0.291156    0.336063   -0.051963    11.00000   -1.50000
H1C   2    0.292116    0.558314   -0.062206    11.00000   -1.50000
AFIX   0
C2    1    0.107510    0.462490    0.053873    11.00000    0.01633    0.01999 =
         0.01648   -0.00122    0.00082   -0.00047
C3    1    0.215727    0.431908    0.168269    11.00000    0.01394    0.02017 =
         0.01464   -0.00029    0.00043    0.00100
C4    1    0.388739    0.564514    0.183080    11.00000    0.01314    0.02014 =
         0.01442   -0.00068    0.00361    0.00000
C5    1    0.480577    0.536519    0.301283    11.00000    0.01496    0.01888 =
         0.02009   -0.00191   -0.00002    0.00040
C6    1    0.355535    0.522014    0.397458    11.00000    0.01723    0.01692 =
         0.01660    0.00064   -0.00012    0.00093
C7    1    0.431864    0.542401    0.508080    11.00000    0.01860    0.02635 =
         0.02023    0.00003   -0.00193   -0.00037
AFIX  43
H7    2    0.562676    0.567957    0.520081    11.00000   -1.20000
AFIX   0
C8    1    0.317997    0.525496    0.598670    11.00000    0.02694    0.03154 =
         0.01419    0.00071   -0.00369    0.00146
AFIX  43
H8    2    0.367351    0.542019    0.673532    11.00000   -1.20000
AFIX   0
C9    1    0.129126    0.483652    0.577612    11.00000    0.02573    0.02496 =
         0.01551    0.00133    0.00752   -0.00092
C10   1    0.049047    0.462688    0.471074    11.00000    0.01697    0.02172 =
         0.01941    0.00028    0.00183   -0.00042
AFIX  43
H10   2   -0.081502    0.434680    0.460493    11.00000   -1.20000
AFIX   0
C11   1    0.163585    0.483420    0.378821    11.00000    0.01750    0.01451 =
         0.01537    0.00113    0.00175    0.00174
C12   1    0.075778    0.470096    0.261314    11.00000    0.01180    0.02216 =
         0.01484   -0.00108    0.00157    0.00115
AFIX  23
H12A  2    0.008890    0.588242    0.243729    11.00000   -1.20000
H12B  2   -0.019749    0.369385    0.260059    11.00000   -1.20000
AFIX   0
C13   1    0.281727    0.228045    0.172760    11.00000    0.02409    0.01901 =
         0.02046   -0.00076   -0.00038    0.00011
AFIX 137
H13A  2    0.330460    0.198639    0.249059    11.00000   -1.50000
H13B  2    0.381825    0.209510    0.119078    11.00000   -1.50000
H13C  2    0.174981    0.145984    0.153007    11.00000   -1.50000
AFIX   0
C14   1    0.331518    0.769756    0.173306    11.00000    0.02625    0.01594 =
         0.02134    0.00178    0.00393   -0.00062
AFIX 137
H14A  2    0.443678    0.848438    0.184685    11.00000   -1.50000
H14B  2    0.240200    0.799026    0.230737    11.00000   -1.50000
H14C  2    0.274062    0.793135    0.098241    11.00000   -1.50000
AFIX   0
HKLF 4

REM  FXQ-02_a.res in P2(1)
REM R1 =  0.0295 for    1472 Fo > 4sig(Fo)  and  0.0313 for all    1535 data
REM    167 parameters refined using      1 restraints

END

WGHT      0.0517      0.0969

REM Highest difference peak  0.257,  deepest hole -0.211,  1-sigma level  0.038
Q1    1   0.2951  0.5014  0.1755  11.00000  0.05    0.26
Q2    1   0.4282  0.5338  0.2442  11.00000  0.05    0.17
Q3    1   0.3960  0.4993  0.4517  11.00000  0.05    0.16
Q4    1   0.1735  0.4623 -0.0012  11.00000  0.05    0.16
Q5    1   0.4129  0.5130  0.3517  11.00000  0.05    0.15
Q6    1   0.2582  0.4816  0.3835  11.00000  0.05    0.15
Q7    1   0.1563  0.4474  0.2201  11.00000  0.05    0.15
Q8    1   0.1755  0.4548  0.1160  11.00000  0.05    0.15
Q9    1   0.1234  0.4800  0.3243  11.00000  0.05    0.15
Q10   1   0.3995  0.2411  0.1812  11.00000  0.05    0.15
Q11   1   0.2323  0.4649  0.5880  11.00000  0.05    0.14
Q12   1   0.0922  0.4971  0.5281  11.00000  0.05    0.13
Q13   1   0.0999  0.4958  0.4264  11.00000  0.05    0.12
Q14   1   0.3504  0.4363 -0.0451  11.00000  0.05    0.11
Q15   1   0.0012  0.5313  0.2506  11.00000  0.05    0.11
Q16   1   0.4207  0.4154  0.1750  11.00000  0.05    0.11
Q17   1   0.7562  0.5000  0.3884  11.00000  0.05    0.11
Q18   1   0.3724  0.5059  0.5530  11.00000  0.05    0.11
Q19   1   0.3313  0.5040  0.6251  11.00000  0.05    0.10
Q20   1   0.2281  0.5409 -0.0610  11.00000  0.05    0.10
;
_shelx_res_checksum              4061
_shelx_hkl_file
;
   0  -2  -9  170.12    6.04
   0  -2  -9  144.40    9.11
   0  -2 -10  511.08   10.49
   0  -2 -11  531.39   10.48
   0  -2 -12    2.32    1.54
   0  -1  -7   17.39    3.15
   0  -1  -8  155.85    8.32
   0  -1  -9   78.04    6.80
   0  -1  -9   90.04    4.81
   0  -1 -10  703.15   12.99
   0  -1 -11  324.99    8.89
   0  -1 -12    6.64    1.93
   0  -1 -13    0.80    1.23
   0  -1 -14  146.36    4.04
   0   0  -1   16.53    0.57
   0   0  -2    0.79    0.44
   0   0  -3    8.44    0.92
   0   0  -4 1050.57    8.75
   0   0  -5  240.40    4.68
   0   0  -5  229.95    7.29
   0   0  -6  259.51    8.68
   0   0  -7  144.20    7.32
   0   0  -8 1396.68   24.44
   0   0  -9 1343.19   17.54
   0   0  -9 1348.22   17.61
   0   0  -9 1339.70   25.93
   0   0 -10   13.60    2.41
   0   0 -10    9.29    2.03
   0   0 -11  148.92    6.17
   0   0 -11  146.78    6.26
   0   0 -12  202.27    7.02
   0   0 -13   19.32    2.43
   0   0 -14  688.43    9.43
   0   1   0    0.67    0.45
   0   1   1 6132.84   12.36
   0   1   2 1364.32    4.90
   0   1  -2 1373.84   11.73
   0   1  -3    1.13    1.37
   0   1  -3    2.37    1.03
   0   1   3    2.39    0.43
   0   1  -4  769.58    9.94
   0   1  -4  764.98   11.89
   0   1  -5  312.61    6.94
   0   1  -5  310.11    8.64
   0   1  -6   36.28    3.68
   0   1  -6   41.29    2.93
   0   1  -7   14.61    2.90
   0   1  -8  145.65    8.13
   0   1  -9   88.35    7.03
   0   1  -9   90.73    4.79
   0   1  -9   82.99    4.62
   0   1 -10  694.63   13.42
   0   1 -10  713.02   13.51
   0   1 -11  328.66    9.30
   0   1 -11  331.44    9.33
   0   1 -12    7.67    2.03
   0   1 -12    6.92    1.93
   0   1 -13    2.02    1.61
   0   1 -14  153.54    4.53
   0   2   1 1914.43   12.73
   0   2  -2 1579.87   15.05
   0   2  -3 3714.35   24.76
   0   2   3 3680.61   13.71
   0   2  -4  185.04    6.09
   0   2  -5  996.83   14.96
   0   2  -6  253.60    8.16
   0   2  -7  243.69    8.43
   0   2  -8  196.40    6.57
   0   2  -8  196.84    6.81
   0   2  -9  182.06    6.95
   0   2  -9  164.41    6.40
   0   2 -10  494.11   11.67
   0   2 -10  490.35   11.17
   0   2 -11  533.64   11.91
   0   2 -11  534.23   11.52
   0   2 -12    1.53    1.66
   0   2 -12   -0.21    1.49
   0   2 -13   17.52    2.08
   0   2 -14  153.51    4.06
   0   3   0   -0.77    1.23
   0   3   1 3243.75   20.48
   0   3   1 3186.68   22.09
   0   3   2 1292.67   13.13
   0   3   2 1285.29   13.69
   0   3  -3  131.39    5.83
   0   3   3  135.23    3.83
   0   3   3  128.52    4.80
   0   3  -4  816.33   14.96
   0   3  -5  326.95   10.12
   0   3  -6   16.65    2.77
   0   3  -7   35.32    3.20
   0   3  -7   32.23    4.02
   0   3  -8   79.18    4.31
   0   3  -8   70.74    6.06
   0   3  -8   84.10    4.90
   0   3  -9  330.79    9.60
   0   3  -9  339.01    8.87
   0   3 -10  619.87   11.97
   0   3 -10  629.47   13.24
   0   3 -11  164.76    6.72
   0   3 -11  158.73    5.96
   0   3  12   20.42    2.24
   0   3 -12   19.56    2.22
   0   3 -12   18.83    2.44
   0   3 -13    1.98    1.07
   0   3 -13    1.41    1.21
   0   3  13   -0.87    0.99
   0   4   0 9999.00   50.26
   0   4   1  227.93    7.36
   0   4  -1  222.26    8.08
   0   4   2  168.91    5.92
   0   4   2  181.14    6.04
   0   4  -2  174.36    7.44
   0   4  -3  225.25    8.93
   0   4   3  241.58    7.33
   0   4   4  354.59    9.47
   0   4  -4  350.80   11.50
   0   4  -5   48.33    4.95
   0   4  -6   20.34    3.51
   0   4  -6   12.67    2.07
   0   4  -7   39.94    4.98
   0   4  -7   41.34    3.62
   0   4   8  125.25    6.17
   0   4  -8  121.79    6.00
   0   4   9  268.63    8.79
   0   4  -9  260.51    8.64
   0   4  10  965.41   15.68
   0   4 -10  963.11   15.91
   0   4 -11   58.67    4.03
   0   4  11   63.56    3.96
   0   4  12   21.58    2.20
   0   4 -12   21.32    2.33
   0   4 -13    8.28    1.25
   0   5   0    0.09    1.53
   0   5   1  192.02    7.96
   0   5  -1  213.65    9.29
   0   5  -2   46.21    4.75
   0   5   2   50.52    3.64
   0   5   2   42.17    3.11
   0   5   3  142.15    5.96
   0   5  -3  153.98    8.53
   0   5   3  151.31    5.80
   0   5  -3  153.96    5.65
   0   5   4  980.71   15.80
   0   5  -4 1000.29   21.98
   0   5   4  980.76   14.58
   0   5   5  413.26   10.71
   0   5   5  404.46    9.43
   0   5  -5  402.61   14.59
   0   5   6   40.71    3.32
   0   5  -6   49.29    3.84
   0   5   6   39.41    3.77
   0   5  -7  127.73    6.22
   0   5   7  122.53    6.19
   0   5   8   22.63    3.20
   0   5  -8   20.14    2.86
   0   5  -9  451.06   10.75
   0   5   9  461.73   11.02
   0   5  10  244.76    7.45
   0   5 -10  251.22    7.52
   0   5  11  133.56    4.86
   0   5 -11  140.32    4.99
   0   5 -12   60.77    2.76
   0   6   0  223.40    7.57
   0   6  -1  175.60    9.45
   0   6  -1  168.43    6.57
   0   6   1  172.06    6.74
   0   6  -2  193.38    6.92
   0   6   2  180.15    6.85
   0   6   2  185.37    6.70
   0   6   3  471.64   10.90
   0   6  -3  485.86   10.50
   0   6  -4   78.12    4.39
   0   6   4   64.10    4.33
   0   6  -5   38.28    3.57
   0   6   5   49.24    4.13
   0   6   5   48.72    3.52
   0   6  -6  442.91   10.76
   0   6   6  456.89    9.78
   0   6   6  444.53   11.29
   0   6  -7   48.39    3.83
   0   6   7   46.02    3.86
   0   6  -8   89.97    4.74
   0   6   8   88.35    4.85
   0   6  -9   21.15    2.35
   0   6 -10  673.10    9.83
   0   7   0    1.65    1.78
   0   7   1   56.13    4.09
   0   7  -1   55.22    3.91
   0   7  -2   20.39    2.58
   0   7   2   17.26    2.75
   0   7   3   38.63    3.37
   0   7  -3   39.76    3.18
   0   7  -4  124.77    5.48
   0   7   4  126.78    5.45
   0   7  -5  115.36    5.19
   0   7   5  110.66    4.77
   0   7  -6   63.53    3.75
   0   7   6   61.13    3.34
   0   7  -7   18.18    2.09
   0   7  -8    2.88    1.33
   0   7  -9  264.49    5.07
   0   8   0    4.09    1.75
   0   8  -1   14.28    2.05
   0   8   1   14.07    2.26
   0   8   2   11.84    2.00
   0   8  -2   14.06    1.62
   0   8   3   28.73    2.41
   0   8  -3   27.38    2.19
   0   8  -4   77.29    3.33
   0   8   4   83.82    3.61
   0   8   5   27.51    1.98
   0   8  -5   30.71    2.11
  -1  -4 -11   33.07    2.40
   1  -2 -12   17.92    2.14
   1  -2 -11   31.95    2.92
   1  -2 -10 2360.65   22.18
   1  -2  -9   68.01    3.94
   1  -2  -9   66.78    6.31
   1  -2  -8  298.11   11.61
  -1  -2  -8   89.63    4.27
  -1  -2  -9  426.72    9.55
  -1  -2  -9  401.95   15.11
  -1  -2 -10  741.34   12.60
  -1  -2 -11   77.48    4.13
  -1  -2 -12   24.42    2.43
   1  -1 -14   21.87    1.84
   1  -1 -13   44.44    2.91
   1  -1 -12  232.68    7.14
   1  -1 -11   11.01    2.07
   1  -1 -10  653.69   12.51
   1  -1  -9 3791.54   42.88
   1  -1  -9 3787.36   28.94
   1  -1  -8  205.12    9.43
   1  -1  -7   19.47    2.98
   1  -1  -6 1676.33   21.84
  -1  -1  -2 2542.96    8.05
  -1  -1  -8  245.26   10.70
  -1  -1  -9   77.16    6.74
  -1  -1  -9   65.31    4.12
  -1  -1 -10  738.92   13.34
  -1  -1 -11   13.79    2.32
  -1  -1 -12   33.36    2.95
  -1  -1 -13  147.54    4.97
  -1  -1 -14  192.56    4.34
   1   0 -14  167.11    4.70
   1   0 -13   10.27    1.90
   1   0 -12   83.14    4.65
   1   0 -11   81.38    4.83
   1   0 -10 5674.32   37.93
   1   0  -9  114.17    7.83
   1   0  -9   99.77    4.97
   1   0  -8   12.61    3.25
   1   0  -7  135.40    6.91
   1   0  -6    5.67    1.74
   1   0  -5  567.79   11.07
   1   0  -5  577.80    6.46
   1   0  -4 1612.22   16.10
   1   0  -4 1636.76   10.33
   1   0  -3  365.31    6.50
   1   0  -2 5382.65   19.77
   1   0  -1 1762.04    7.79
  -1   0   0   48.01    1.45
  -1   0   0   49.61    1.77
  -1   0  -1 1755.85    9.60
  -1   0  -2  269.15    4.86
  -1   0  -2  277.56    4.12
  -1   0  -3 5500.60   23.72
  -1   0  -4 7656.21   30.73
  -1   0  -5 2269.43   17.88
  -1   0  -5 2240.53   23.14
  -1   0  -6  719.13   14.71
  -1   0  -7  330.84   11.19
  -1   0  -8  258.88   10.97
  -1   0  -9   68.94    6.30
  -1   0  -9   72.57    4.36
  -1   0  -9   68.17    4.31
  -1   0 -10  216.66    7.67
  -1   0 -10  206.04    7.42
  -1   0 -11   16.00    2.50
  -1   0 -12  196.12    6.84
  -1   0 -13  278.13    7.17
  -1   0 -14   52.99    2.69
   1   1 -14   22.56    1.89
   1   1 -13   51.21    3.37
   1   1 -12  224.08    6.89
   1   1 -12  227.56    7.49
   1   1 -11   10.19    2.34
   1   1 -11   11.54    2.14
   1   1 -10  648.45   12.53
   1   1 -10  642.91   13.01
   1   1  -9 3764.65   29.94
   1   1  -9 3782.70   29.05
   1   1  -8  203.25    9.51
   1   1  -7   21.75    3.30
   1   1  -6 1730.06   22.32
   1   1  -6 1705.14   16.84
  -1   1   5  345.49    6.61
   1   1  -5  330.93    7.05
   1   1  -5  343.14    8.99
   1   1  -4    9.03    1.82
  -1   1   4    9.99    1.28
  -1   1   3  145.41    3.69
  -1   1   2  188.91    3.98
  -1   1   1  189.09    3.87
  -1   1   1  197.13    3.41
  -1   1   0 7589.39   24.19
  -1   1  -1 4286.02   19.34
  -1   1  -2 2525.77   15.68
  -1   1  -2 2493.94   16.21
  -1   1  -3   12.60    1.74
  -1   1  -3   12.72    1.73
  -1   1  -4 1469.46   16.62
  -1   1  -4 1462.59   15.42
  -1   1  -5 8946.66   41.19
  -1   1  -5 8953.85   46.51
  -1   1  -6   91.43    5.55
  -1   1  -6   89.22    4.52
  -1   1  -7   52.59    3.90
  -1   1  -7   57.73    4.83
  -1   1  -8  255.38   10.84
  -1   1  -8  235.92    7.13
  -1   1  -8  246.50    7.55
  -1   1  -9   74.17    4.43
  -1   1  -9   72.85    4.52
  -1   1  -9   79.12    6.90
  -1   1 -10  729.85   13.67
  -1   1 -10  727.61   14.10
  -1   1 -11   14.08    2.54
  -1   1 -11    9.85    2.24
  -1   1 -12   28.32    2.89
  -1   1 -13  160.36    5.48
  -1   1 -14  201.45    4.92
   1   2 -14    9.42    1.36
   1   2 -13  112.01    4.45
   1   2 -12   14.03    2.26
   1   2 -12   15.87    2.34
   1   2 -11   32.38    3.10
   1   2 -11   31.10    3.07
   1   2 -10 2331.52   24.49
   1   2 -10 2346.23   24.48
   1   2  -9   66.31    4.32
   1   2  -9   62.24    4.12
   1   2  -8  308.54    8.24
   1   2  -8  288.97    8.10
   1   2  -7  793.32   14.75
   1   2  -6   80.74    4.72
   1   2  -5  755.75   12.93
  -1   2   4   29.02    1.83
  -1   2   3   37.94    2.04
  -1   2   2   16.96    1.27
  -1   2   2   14.52    1.73
  -1   2   2   17.16    1.52
  -1   2   1  238.12    5.11
  -1   2   1  246.91    4.98
  -1   2   1  248.57    5.72
  -1   2   0 5278.88   24.72
  -1   2   0 5248.37   25.10
  -1   2  -1 1741.39   15.26
  -1   2  -1 1704.04   15.53
   1   2   1 1717.21    8.26
  -1   2  -2  668.94   10.53
  -1   2  -3  894.74   13.10
  -1   2  -4  401.97    9.45
  -1   2  -5  480.93   11.16
  -1   2  -6  202.75    7.78
  -1   2  -7   55.41    4.43
  -1   2  -8   98.60    5.06
  -1   2  -8   99.34    4.85
  -1   2  -9  405.95   10.48
  -1   2  -9  400.30    9.86
  -1   2 -10  755.05   14.54
  -1   2 -10  734.23   13.54
  -1   2 -11   69.40    4.32
  -1   2 -11   82.45    5.03
  -1   2 -12   28.49    2.80
  -1   2 -12   25.31    2.89
  -1   2 -13   44.52    2.84
  -1   2 -14   99.30    3.09
  -1   3  13   66.08    3.19
   1   3 -13   65.45    2.90
   1   3 -13   63.65    2.95
   1   3 -12  159.17    5.64
   1   3 -12  146.92    5.17
   1   3 -11   77.36    4.29
   1   3 -11   79.00    4.61
   1   3 -10  369.58    9.91
   1   3 -10  372.07    9.42
   1   3  -9 1757.06   20.28
   1   3  -9 1813.79   21.80
   1   3  -8  181.23    6.98
   1   3  -8  176.07    6.32
   1   3  -7    8.00    2.55
   1   3  -7    4.04    1.65
   1   3  -6  913.77   17.56
   1   3  -5  394.25   11.08
  -1   3   4   57.47    3.99
   1   3  -4   62.02    4.36
  -1   3   3  223.96    7.12
  -1   3   3  223.87    5.20
  -1   3   2  204.78    5.34
  -1   3   2  208.76    6.52
  -1   3   2  220.60    5.46
  -1   3   1  160.90    5.06
  -1   3   1  150.96    5.00
  -1   3   1  151.90    5.44
  -1   3   0 3260.22   24.44
  -1   3  -1 2953.89   24.77
  -1   3  -2  378.08    9.48
   1   3   2  400.28    6.08
   1   3   3  114.40    3.86
  -1   3  -3  119.99    5.88
  -1   3  -4  436.94   11.40
  -1   3  -5 3273.60   33.04
  -1   3  -6   71.90    5.46
  -1   3  -7    4.63    1.70
  -1   3  -7    2.71    1.83
  -1   3  -8  157.30    5.93
  -1   3  -8  152.20    6.47
  -1   3  -8  157.13    8.73
  -1   3  -9   51.81    3.71
   1   3   9   47.98    3.77
  -1   3  -9   48.57    4.06
  -1   3 -10  544.91   12.42
  -1   3 -10  534.70   10.98
   1   3  10  561.61   11.62
  -1   3 -11   28.06    2.58
   1   3  11   33.39    2.92
  -1   3 -11   27.88    3.21
  -1   3 -12    5.51    1.95
  -1   3 -12    9.87    1.70
  -1   3 -13   90.10    3.17
   1   4 -12   -0.03    1.11
  -1   4  12    1.29    1.46
   1   4 -11   10.70    1.93
  -1   4  11    9.42    1.96
   1   4 -10 1286.08   17.94
   1   4  -9   28.63    3.21
   1   4  -8   60.67    4.48
   1   4  -7   96.83    5.28
  -1   4   7   93.05    6.81
   1   4  -7   92.26    6.98
   1   4  -6   31.51    4.61
  -1   4   6   42.91    4.41
  -1   4   5  487.31   13.09
   1   4  -5  496.85   14.28
   1   4  -4    4.20    2.37
  -1   4   4    7.53    2.04
   1   4  -3  119.05    6.59
  -1   4   3  109.09    5.60
   1   4  -2  327.91   10.27
  -1   4   2  339.52    9.49
  -1   4   1   34.73    3.23
  -1   4   0 4576.24   34.99
  -1   4  -1  539.60   12.67
  -1   4  -2   72.12    5.24
  -1   4  -3  432.68   12.56
  -1   4  -4  474.02   13.71
  -1   4  -5  330.83    8.58
  -1   4  -5  343.24   12.32
   1   4   5  348.74    9.10
  -1   4  -6  352.86   13.17
   1   4   6  335.78    9.20
  -1   4  -6  336.53    9.08
   1   4   7   99.10    5.42
  -1   4  -7  115.98    5.67
  -1   4  -7  109.41    8.09
   1   4   8  189.79    7.33
  -1   4  -8  198.93    7.54
  -1   4  -9  175.83    7.15
   1   4   9  188.51    7.12
  -1   4 -10  104.38    5.41
   1   4  10  102.89    5.03
  -1   4 -11   36.05    3.21
   1   4  11   39.57    2.94
  -1   4 -12   82.70    3.82
  -1   5  12    3.15    1.09
   1   5 -11   78.92    3.75
  -1   5  11   73.20    3.68
   1   5 -10  253.62    7.39
  -1   5  10  259.88    7.67
   1   5  -9  116.40    5.57
  -1   5   9  106.02    5.39
   1   5  -8  173.50    7.02
  -1   5   8  177.06    7.23
  -1   5   7   37.53    3.60
   1   5  -7   45.75    3.89
  -1   5   6  823.26   15.25
  -1   5   5  257.06    7.37
  -1   5   5  259.66    8.52
   1   5  -5  265.20   11.91
   1   5  -4   10.22    2.73
  -1   5   4    4.99    1.54
  -1   5   4    7.69    1.97
  -1   5   3  215.33    6.93
   1   5  -3  230.50   10.32
  -1   5   3  217.62    6.91
  -1   5   3  228.18    7.36
   1   5  -3  220.39    6.57
  -1   5   2  159.22    5.95
  -1   5   2  152.69    5.96
  -1   5   2  141.51    5.64
   1   5  -2  164.25    8.56
   1   5  -2  152.83    5.60
   1   5  -1  411.26   12.86
  -1   5   1  439.21    9.67
   1   5   0  189.75    8.55
  -1   5   0  192.90    8.47
   1   5   0  185.34    6.22
  -1   5   0  189.54    6.63
  -1   5   0  179.91    6.30
   1   5   1 1168.75   19.91
  -1   5  -1 1173.22   16.44
   1   5   1 1172.79   15.48
  -1   5  -1 1159.65   15.58
  -1   5  -1 1140.82   21.31
  -1   5  -2  425.84   13.65
  -1   5  -2  408.93    9.94
  -1   5  -2  437.76    9.70
   1   5   2  424.85    9.57
   1   5   3  192.88    6.60
  -1   5  -3  199.71    6.60
  -1   5  -3  206.70    7.17
  -1   5  -3  196.05    9.74
  -1   5  -4   86.41    4.50
   1   5   4   87.21    4.60
  -1   5  -4   83.02    6.85
  -1   5  -4   84.42    4.59
   1   5   4   81.17    4.83
  -1   5  -5  229.18   11.43
   1   5   5  227.71    8.15
  -1   5  -5  234.13    7.77
   1   5   5  230.39    7.26
   1   5   6   21.98    2.45
  -1   5  -6   20.02    2.76
   1   5   6   23.37    3.17
   1   5   7   49.68    3.32
  -1   5  -7   41.56    3.66
   1   5   7   43.90    3.88
  -1   5  -8  294.62    8.86
   1   5   8  297.72    9.08
  -1   5  -9   92.92    4.97
   1   5   9   94.00    5.07
  -1   5 -10  481.36   10.02
   1   5  10  467.38    9.65
  -1   5 -11  106.58    4.23
  -1   5 -12   26.62    1.75
   1   6 -10   21.29    2.07
   1   6  -9   10.09    1.93
  -1   6   9    5.08    1.81
   1   6  -8  160.07    6.08
  -1   6   8  166.05    6.36
  -1   6   7  222.32    7.68
   1   6  -7  226.77    7.66
   1   6  -6   35.76    3.50
  -1   6   6   34.81    3.56
  -1   6   5  344.19    8.78
  -1   6   5  355.45   10.04
  -1   6   4  247.57    7.78
  -1   6   4  236.13    8.12
   1   6  -3   25.67    2.76
  -1   6   3   23.60    2.80
  -1   6   3   23.33    2.86
  -1   6   2  129.77    5.89
  -1   6   2  123.40    5.77
   1   6  -2  131.75    5.60
  -1   6   1   79.85    4.81
   1   6  -1   81.41    7.03
   1   6  -1   78.15    4.54
  -1   6   1   79.69    4.92
  -1   6   0 2177.84   23.41
  -1   6   0 2139.13   23.81
   1   6   0 2135.02   22.87
  -1   6  -1  296.12    9.11
  -1   6  -1  287.03    8.57
  -1   6  -1  290.85   12.46
   1   6   1  278.44    8.47
  -1   6  -2  162.36    6.50
   1   6   2  165.51    6.59
  -1   6  -3   40.76    3.47
   1   6   3   45.44    3.75
   1   6   4   52.06    3.76
  -1   6  -4   48.11    3.63
   1   6   5  110.25    5.32
  -1   6  -5  118.92    5.62
   1   6   6   29.06    2.89
  -1   6  -6   32.12    3.09
  -1   6  -7   97.15    4.95
   1   6   7  103.81    4.46
  -1   6  -8    7.13    1.86
  -1   6  -9  265.53    6.83
  -1   6 -10  137.82    4.27
   1   7  -9    8.03    1.23
   1   7  -8   35.86    2.49
   1   7  -7    2.74    1.43
   1   7  -6  119.26    5.16
  -1   7   5  174.38    5.74
   1   7  -5  185.68    6.59
  -1   7   4  112.90    5.08
   1   7  -3   22.51    2.58
  -1   7   3   25.80    2.81
  -1   7   2   19.81    2.77
   1   7  -2   22.46    2.73
   1   7  -1  110.57    5.30
  -1   7   1  111.13    5.48
  -1   7   0   66.72    4.37
   1   7   0   60.93    4.12
   1   7   1  291.86    8.58
  -1   7  -1  297.30    8.64
  -1   7  -2    5.75    1.96
   1   7   2    7.22    2.19
   1   7   3   45.39    3.57
   1   7   4   86.59    4.66
  -1   7  -4   83.11    4.17
   1   7   5   82.75    4.19
  -1   7  -5   88.50    4.22
   1   7   6   22.81    2.25
  -1   7  -6   18.37    2.13
  -1   7  -7   31.88    2.44
   1   7   7   30.29    2.00
  -1   7  -8   34.81    2.21
   1   8  -6   16.01    1.52
   1   8  -5   52.82    2.74
   1   8  -4   48.08    2.81
   1   8  -3   16.41    1.96
   1   8  -2   16.73    2.01
   1   8  -1   12.21    1.88
   1   8   0  690.34   10.97
   1   8   1   90.29    4.16
   1   8   2   22.31    2.37
   1   8   3   23.70    2.23
   1   8   4   10.10    1.65
   1   8   5   56.07    2.63
  -2  -4  -5  673.59   11.22
  -2  -4  -6  129.33    5.24
  -2  -4  -7   11.98    2.14
  -2  -4  -8   70.59    4.19
  -2  -4  -9   49.02    3.36
  -2  -4 -10   64.15    3.72
  -2  -4 -11  111.49    4.07
  -2  -4 -12   17.98    1.53
  -2  -3 -12   17.39    1.95
  -2  -3 -13   94.18    3.03
   2  -2 -11  108.24    4.79
   2  -2 -10  404.74    9.29
   2  -2  -7   63.29    4.61
   2  -2  -6   84.32    5.09
  -2  -2  -2  203.99    4.15
  -2  -2  -8    8.79    1.86
  -2  -2  -9   17.94    2.31
  -2  -2 -10  132.33    5.51
  -2  -2 -11    1.62    1.43
  -2  -2 -12   98.63    4.02
   2  -1 -13   83.76    3.69
   2  -1 -12   36.21    3.04
   2  -1 -11   46.06    3.54
   2  -1 -10    9.56    2.10
   2  -1  -9  379.74    9.45
   2  -1  -9  352.31   12.81
   2  -1  -8  185.25    6.35
   2  -1  -8  180.34    8.50
   2  -1  -7  454.98   12.24
   2  -1  -6   22.27    2.78
   2  -1  -5 6312.79   35.55
   2  -1  -4  589.06    9.38
   2  -1  -3  367.68    6.12
   2  -1  -2 3292.79   13.51
  -2  -1   1  363.13    4.23
  -2  -1  -1  378.30    6.18
  -2  -1  -2  638.39    7.54
  -2  -1  -3 2303.71   13.31
  -2  -1  -8   39.18    3.08
  -2  -1  -8   39.31    4.82
  -2  -1  -9   88.81    4.78
  -2  -1  -9   89.62    7.40
  -2  -1 -10  317.16    8.81
  -2  -1 -11  142.36    5.83
  -2  -1 -12    8.26    1.94
  -2  -1 -13   54.41    2.93
  -2  -1 -14   59.57    2.45
   2   0 -14   19.19    1.73
   2   0 -13  108.63    4.53
   2   0 -12  132.31    5.62
   2   0 -11   66.87    4.44
   2   0 -10    8.21    2.40
   2   0  -9 1554.89   19.38
   2   0  -9 1542.99   26.59
   2   0  -8   32.64    4.26
   2   0  -8   37.01    2.89
   2   0  -7  829.83   16.53
   2   0  -6  368.88    9.95
   2   0  -5 3692.38   27.58
   2   0  -4 3926.68   24.54
   2   0  -3  155.87    4.20
  -2   0   2  233.82    5.87
  -2   0   1  282.97    5.10
  -2   0   1  293.34    6.18
  -2   0   0 1031.56   10.96
  -2   0   0 1027.03    9.30
  -2   0  -1  403.61    6.70
  -2   0  -2 1708.59   13.66
  -2   0  -3 1110.17   11.31
  -2   0  -4   44.16    2.53
  -2   0  -5 3871.63   31.51
  -2   0  -6  317.17   10.19
  -2   0  -7   20.88    3.42
  -2   0  -8  291.59    8.04
  -2   0  -8  295.70   11.84
  -2   0  -8  284.15    8.37
  -2   0  -9  118.54    5.51
  -2   0  -9  122.66    8.28
  -2   0  -9  118.98    5.75
  -2   0 -10    7.60    1.98
  -2   0 -11  183.37    6.82
  -2   0 -12   50.78    3.58
  -2   0 -13   92.30    3.99
  -2   0 -14    6.72    1.20
   2   1 -14   30.50    2.03
   2   1 -13   88.96    4.13
   2   1 -12   35.22    3.33
   2   1 -11   46.55    3.87
   2   1 -10   12.35    2.35
   2   1  -9  366.92    9.62
   2   1  -8  178.43    6.46
  -2   1   6   26.39    2.57
  -2   1   5 6233.69   34.75
  -2   1   4  597.57   10.19
  -2   1   3  364.75    7.60
  -2   1   2 3276.93   21.95
  -2   1   2 3252.43   21.92
  -2   1   1  370.98    6.98
  -2   1   1  359.10    7.07
  -2   1   0 1816.23   15.46
  -2   1   0 1838.53   15.66
  -2   1   0 1836.10   15.72
  -2   1  -1  362.87    7.46
  -2   1  -1  356.30    7.09
  -2   1  -2  631.24    9.64
  -2   1  -2  657.30   10.62
  -2   1  -2  644.34    7.95
  -2   1  -3 2276.96   20.99
  -2   1  -3 2268.69   19.16
  -2   1  -3 2279.15   18.14
  -2   1  -4  281.61    7.54
  -2   1  -4  285.00    7.99
  -2   1  -5 1496.56   19.44
  -2   1  -5 1460.29   19.17
  -2   1  -6   61.21    4.75
  -2   1  -6   70.70    4.69
  -2   1  -7   42.75    4.36
  -2   1  -8   45.61    5.28
  -2   1  -8   43.65    3.40
  -2   1  -8   37.10    3.26
  -2   1  -9   94.81    5.04
  -2   1  -9   81.91    6.88
  -2   1  -9   97.54    5.26
  -2   1 -10  308.20    8.93
  -2   1 -10  318.84    9.56
  -2   1 -11  132.81    5.86
  -2   1 -11  147.80    6.44
  -2   1 -12    6.54    1.79
  -2   1 -13   55.60    3.14
  -2   1 -14   64.75    2.58
   2   2 -14    4.10    0.99
   2   2 -13    1.36    1.17
   2   2 -12   27.77    2.81
   2   2 -11  116.33    5.52
   2   2 -10  405.70   10.30
   2   2  -9  391.78    9.96
   2   2  -9  395.06    9.56
   2   2  -8  121.11    5.41
   2   2  -8  125.08    5.57
   2   2  -6   82.40    4.95
  -2   2   5 2418.78   20.99
  -2   2   4  462.06    9.02
  -2   2   3  490.84    9.12
  -2   2   3  476.28   10.30
  -2   2   2   21.30    2.31
  -2   2   2   21.72    2.23
  -2   2   1 1702.99   15.77
  -2   2   1 1741.96   16.99
  -2   2   1 1712.66   17.67
  -2   2   0 3964.36   25.54
  -2   2   0 3921.68   25.99
  -2   2   0 3940.48   26.42
  -2   2  -1  696.80   11.46
  -2   2  -1  692.48   11.28
  -2   2  -2  203.52    6.67
  -2   2  -2  202.86    6.46
  -2   2  -3  266.21    7.72
  -2   2  -3  239.92    7.75
  -2   2  -4  148.81    6.47
  -2   2  -5  536.84   12.83
  -2   2  -6  725.16   15.78
  -2   2  -7  124.45    5.52
  -2   2  -7  125.48    5.17
  -2   2  -7  119.30    6.85
  -2   2  -8   13.54    2.41
  -2   2  -8   11.73    2.20
  -2   2  -9   19.02    2.81
  -2   2  -9   14.82    2.35
  -2   2 -10  127.66    5.78
  -2   2 -10  128.04    6.13
  -2   2 -11    1.05    1.80
  -2   2 -11    0.79    1.40
  -2   2 -12   88.16    4.19
  -2   2 -13  216.51    5.38
  -2   3  13   21.49    1.98
   2   3 -13   22.00    1.75
   2   3 -12   48.86    2.98
   2   3 -11   24.60    2.65
   2   3 -11   23.65    2.71
   2   3 -10   30.65    3.05
   2   3 -10   27.69    2.96
   2   3  -9  581.70   11.99
   2   3  -9  599.49   11.99
  -2   3   8   33.07    4.40
   2   3  -8   38.69    3.33
   2   3  -8   29.28    3.06
   2   3  -7  229.02    7.06
   2   3  -7  228.20    7.34
   2   3  -7  224.86    9.57
  -2   3   7  251.43   10.48
  -2   3   6   20.57    3.54
   2   3  -6   25.02    3.47
  -2   3   5 2125.76   27.11
  -2   3   4  157.74    7.15
  -2   3   3  132.17    6.13
  -2   3   3  123.85    4.95
  -2   3   2  777.53   14.05
  -2   3   2  771.74   11.27
  -2   3   2  783.89   12.53
  -2   3   1  133.29    5.17
  -2   3   1  134.67    5.97
  -2   3   1  135.87    5.45
  -2   3   0 1319.48   17.20
  -2   3   0 1342.71   17.26
  -2   3  -1  452.47   10.68
  -2   3  -1  446.10   10.35
  -2   3  -2  263.37    8.35
  -2   3  -2  244.83    8.35
  -2   3  -3 1023.95   17.90
  -2   3  -4  138.10    6.98
  -2   3  -5 1135.27   20.96
  -2   3  -6   58.32    5.17
  -2   3  -6   64.98    4.06
  -2   3  -7   11.00    2.22
   2   3   7   16.76    2.42
  -2   3  -7   14.77    2.14
  -2   3  -7   20.00    3.92
  -2   3  -8   10.37    3.49
  -2   3  -8    8.46    2.30
  -2   3  -8    7.28    1.97
   2   3   8    7.96    1.96
  -2   3  -9   71.35    4.22
  -2   3  -9   63.23    4.44
  -2   3 -10  132.63    5.32
  -2   3 -10  134.65    6.19
  -2   3 -11   86.23    4.10
  -2   3 -11   86.77    4.76
  -2   3 -12   19.12    1.90
  -2   3 -12   12.15    2.04
   2   4 -12   35.37    2.26
  -2   4  12   32.35    2.51
   2   4 -11   41.37    3.02
   2   4 -11   45.22    2.77
  -2   4  11   43.95    3.36
   2   4 -10  422.40    8.67
   2   4 -10  424.36    9.71
   2   4  -9  511.63   11.36
   2   4  -8  148.23    6.42
   2   4  -7  183.33    6.98
   2   4  -7  186.52   10.05
  -2   4   6   88.92    4.52
   2   4  -6   90.23    6.61
  -2   4   6   96.43    6.73
  -2   4   5  676.67   16.69
   2   4  -5  694.32   17.21
  -2   4   5  672.80   11.78
  -2   4   4  552.92   14.51
  -2   4   3  116.41    6.46
  -2   4   2   98.33    5.07
  -2   4   2  100.16    6.01
  -2   4   1  147.88    6.36
  -2   4   1  139.37    6.25
  -2   4   0  237.20    8.57
  -2   4  -1  391.93   11.57
  -2   4  -2  388.54   12.04
  -2   4  -3  569.91   15.30
  -2   4  -4  244.86   10.63
   2   4   4  258.69    7.85
  -2   4  -5  682.93   18.34
  -2   4  -5  655.36   11.97
   2   4   5  679.86   12.78
  -2   4  -6  136.59    8.94
  -2   4  -6  129.42    5.72
   2   4   6  132.27    6.00
   2   4   7    7.23    2.02
  -2   4  -7    7.31    2.03
  -2   4  -8   67.66    4.51
   2   4   8   75.83    4.65
  -2   4  -9   40.83    3.71
   2   4   9   40.46    3.54
  -2   4 -10   72.62    4.38
  -2   4 -11  109.09    4.75
  -2   4 -12   19.25    1.88
   2   5 -11   56.49    2.81
  -2   5  11   62.86    3.29
   2   5 -10   25.13    2.53
  -2   5  10   29.10    2.81
  -2   5   9  727.68   13.20
   2   5  -9  758.53   12.91
  -2   5   8   56.15    4.15
   2   5  -8   52.21    4.06
   2   5  -7   31.48    3.29
  -2   5   7   22.85    2.90
  -2   5   6   40.37    3.63
  -2   5   5  105.09    5.05
  -2   5   5  105.15    5.39
   2   5  -4    1.48    1.98
  -2   5   4    3.61    1.61
  -2   5   4    6.92    1.90
  -2   5   4    7.77    1.91
  -2   5   3  192.75    6.63
  -2   5   3  183.36    6.74
  -2   5   2  671.92   12.32
   2   5  -2  698.42   11.70
  -2   5   2  691.96   12.82
  -2   5   1  188.19    6.69
   2   5  -1  193.53    6.41
  -2   5   1  190.62    6.94
  -2   5   0 1132.53   16.05
  -2   5   0 1127.53   20.91
   2   5   0 1139.23   15.42
  -2   5   0 1129.59   16.47
  -2   5  -1  487.24   10.66
  -2   5  -1  475.30   14.44
  -2   5  -1  475.43   10.84
  -2   5  -2  123.52    7.87
  -2   5  -2  142.25    5.87
  -2   5  -2  139.85    6.15
  -2   5  -3   40.31    5.21
  -2   5  -3   41.26    3.67
  -2   5  -4    5.65    3.54
  -2   5  -5  894.42   14.48
  -2   5  -6   -1.56    1.58
   2   5   7   24.78    2.63
  -2   5  -7   24.32    2.82
  -2   5  -8    5.09    1.90
  -2   5  -9   41.08    3.23
  -2   5 -10   53.86    3.34
  -2   5 -11   47.16    2.60
   2   6 -10  426.51    6.89
   2   6  -9   88.26    3.89
  -2   6   9   81.40    3.90
   2   6  -8   85.38    4.42
  -2   6   8   88.77    4.47
   2   6  -7   12.77    2.41
  -2   6   7   12.78    2.33
   2   6  -6  102.69    5.38
  -2   6   6   98.19    5.07
  -2   6   5  181.96    6.20
  -2   6   5  203.36    6.84
  -2   6   5  186.50    6.92
  -2   6   4   15.47    2.31
  -2   6   4   20.54    2.77
  -2   6   4   18.13    2.51
  -2   6   3  114.96    5.53
  -2   6   3  118.13    5.72
  -2   6   2    7.74    1.99
   2   6  -2    9.23    2.20
  -2   6   2    7.82    2.29
  -2   6   1  418.76   10.51
   2   6  -1  442.58   10.24
  -2   6   1  432.27   10.98
  -2   6   0  187.71    7.11
   2   6   0  195.39    7.07
  -2   6   0  194.87    7.50
  -2   6  -1  161.89    6.73
   2   6   1  168.63    6.72
  -2   6  -1  176.85    7.29
  -2   6  -2   54.85    4.47
   2   6   2   45.45    3.76
   2   6   3   55.09    4.08
   2   6   4   24.47    2.81
   2   6   5    7.80    2.10
  -2   6  -6   33.06    2.87
   2   6   6   29.80    2.96
  -2   6  -7   11.58    1.94
   2   6   7   12.87    2.03
  -2   6  -8   43.24    2.99
  -2   6  -9   22.13    2.08
   2   7  -8   20.38    1.81
   2   7  -7   46.04    2.90
   2   7  -6   69.62    3.86
   2   7  -5   29.81    2.89
  -2   7   4   30.04    2.80
  -2   7   3    1.69    1.61
   2   7  -2   22.55    2.40
  -2   7   2   12.66    2.44
   2   7  -1   35.79    3.11
  -2   7   1   38.86    3.57
   2   7   0  340.91    8.91
  -2   7   0  337.72    9.45
   2   7   1  284.30    8.32
   2   7   2  100.41    5.06
   2   7   3    6.52    1.92
   2   7   4   29.29    2.92
   2   7   5  277.53    7.26
   2   7   6   42.31    2.76
   2   7   7   10.47    1.39
   2   8  -5   50.75    2.55
   2   8  -4    5.38    1.37
   2   8  -3    6.19    1.43
   2   8  -2    0.14    0.94
   2   8  -1   57.69    3.02
   2   8   0    0.15    1.15
   2   8   1  109.31    4.24
   2   8   2    3.62    1.39
   2   8   3   15.53    1.90
   2   8   4    4.58    1.21
   2   8   5    5.91    1.10
  -3  -5  -5  199.86    6.53
  -3  -5  -6  404.46    8.95
  -3  -5  -7   78.92    4.11
  -3  -5  -8   47.38    3.06
  -3  -4  -3   71.66    3.88
  -3  -4  -4   57.53    3.72
  -3  -4  -5 1309.48   16.88
  -3  -4  -6  335.83    8.81
  -3  -4  -7   86.26    4.64
  -3  -4  -8  285.42    8.02
  -3  -4  -9  130.25    5.27
  -3  -4 -10    1.74    1.39
  -3  -4 -11   41.37    2.45
  -3  -3  -5  246.51    7.18
  -3  -3 -10   24.75    2.77
  -3  -3 -11   41.79    2.91
  -3  -3 -12    0.16    1.12
  -3  -2   0  106.47    4.77
  -3  -2  -1 1636.57   16.79
  -3  -2  -2   29.02    2.33
  -3  -2  -7   -0.01    1.47
  -3  -2  -8  148.53    5.82
  -3  -2  -9   34.18    3.07
  -3  -2 -10  143.63    5.58
  -3  -2 -12   23.92    2.25
  -3  -2 -13    1.14    0.99
   3  -1 -13   21.23    1.91
   3  -1 -12  208.80    6.14
   3  -1 -11   53.52    3.69
   3  -1 -10   20.73    2.80
   3  -1  -9   58.32    4.08
   3  -1  -8   72.01    4.24
   3  -1  -7  137.25    5.49
  -3  -1   2  148.33    3.98
  -3  -1   1  795.88    7.98
  -3  -1   1  769.76   12.60
  -3  -1   0  440.55    9.07
  -3  -1  -1 3690.41   24.94
  -3  -1  -2   79.44    3.65
  -3  -1  -3  570.70    9.12
  -3  -1  -7  222.59    6.90
  -3  -1  -7  224.27   10.03
  -3  -1  -8  339.80    8.89
  -3  -1  -8  314.93   12.82
  -3  -1  -9  102.85    5.18
  -3  -1 -10   27.18    2.94
  -3  -1 -11    2.85    1.65
  -3  -1 -12   15.90    2.06
  -3  -1 -13   94.28    3.40
   3   0 -13   14.47    1.81
   3   0 -12   85.43    4.34
   3   0 -11    2.62    1.87
   3   0 -10  199.40    7.31
   3   0  -9   34.19    3.49
   3   0  -8  110.24    5.33
  -3   0   8  102.30    6.52
   3   0  -7   69.29    4.05
  -3   0   7   66.49    5.08
  -3   0   6 1221.12   19.88
  -3   0   5  935.47   16.48
  -3   0   4   -0.26    1.28
  -3   0   3    8.60    2.09
  -3   0   2 1708.04   16.16
  -3   0   2 1709.41   19.15
  -3   0   1  976.09   11.58
  -3   0   1  979.05   13.89
  -3   0   0 1002.91   13.70
  -3   0  -1  430.09    8.86
  -3   0  -2  245.57    6.64
  -3   0  -3  644.37   10.81
  -3   0  -4    1.47    1.56
  -3   0  -4    1.69    1.32
  -3   0  -5   77.79    4.81
  -3   0  -6  337.67   10.80
  -3   0  -7   80.39    4.33
  -3   0  -7   82.94    4.53
  -3   0  -8  295.79    8.44
  -3   0  -8  287.91   11.70
  -3   0  -9   26.46    3.16
  -3   0 -10   34.55    3.25
  -3   0 -11  127.24    5.47
  -3   0 -12  208.89    6.25
  -3   0 -13   41.27    2.35
   3   1 -13   20.83    2.00
   3   1 -12  207.38    6.60
   3   1 -11   47.41    3.78
   3   1 -10   24.69    3.14
   3   1  -9   55.22    4.13
   3   1  -8   80.77    4.64
   3   1  -7  141.81    5.76
  -3   1   6  103.81    5.70
  -3   1   5 1333.29   19.21
  -3   1   4 1267.49   17.96
  -3   1   3  110.26    5.19
  -3   1   3  108.58    5.29
  -3   1   2  150.20    5.61
  -3   1   2  151.85    5.96
  -3   1   1  768.94   12.09
  -3   1   1  796.32   13.06
  -3   1   0  440.93    9.63
  -3   1  -1 3704.31   27.37
  -3   1  -2   75.92    4.17
  -3   1  -3  544.04   10.97
  -3   1  -4   24.88    2.47
  -3   1  -4   25.71    2.81
  -3   1  -5  633.27   12.84
  -3   1  -6  202.36    8.34
  -3   1  -7  219.93    7.04
  -3   1  -7  218.33    9.50
  -3   1  -7  218.27    7.26
  -3   1  -8  341.78    9.10
  -3   1  -8  329.94    9.33
  -3   1  -9  101.92    5.24
  -3   1  -9   98.24    5.41
  -3   1 -10   28.00    3.02
  -3   1 -11    1.51    1.63
  -3   1 -12   19.09    2.21
   3   2 -13   29.22    2.13
   3   2 -12   17.69    2.18
   3   2 -11  200.64    6.89
   3   2 -10  261.32    8.24
   3   2  -9  406.82   10.37
   3   2  -8   21.77    2.53
   3   2  -7   37.52    3.20
  -3   2   6  245.86   10.08
  -3   2   5   44.32    4.43
  -3   2   5   47.40    3.86
  -3   2   4  256.75    9.00
  -3   2   4  259.37    8.26
  -3   2   3  322.40    9.07
  -3   2   3  315.64    9.43
  -3   2   2   51.56    3.74
  -3   2   2   53.56    4.00
  -3   2   1  586.13   12.09
  -3   2   1  595.73   11.98
  -3   2   0  110.99    5.31
  -3   2  -1 1581.05   20.33
  -3   2  -1 1586.37   19.92
  -3   2  -2   28.03    3.02
  -3   2  -2   30.09    3.42
  -3   2  -3 1812.33   23.83
  -3   2  -3 1828.31   22.60
  -3   2  -4  324.89   10.68
  -3   2  -4  304.21    9.57
  -3   2  -5  718.30   16.72
  -3   2  -6   28.05    2.72
  -3   2  -6   26.20    2.88
  -3   2  -6   21.21    3.64
  -3   2  -7    1.35    1.57
  -3   2  -7   -0.73    1.35
  -3   2  -8  151.31    6.13
  -3   2  -8  158.21    6.61
  -3   2  -9   35.29    3.27
  -3   2  -9   30.98    3.28
  -3   2 -10  140.54    5.84
  -3   2 -10  138.74    6.15
  -3   2 -11  195.36    6.31
  -3   2 -12   20.26    2.14
  -3   3  13   26.08    1.88
   3   3 -12   75.98    3.36
   3   3 -11   26.50    2.58
   3   3 -10    9.76    2.07
   3   3  -9   62.82    4.20
   3   3  -8   18.88    2.62
   3   3  -7  185.24    6.52
   3   3  -7  180.52    6.55
  -3   3   7  187.23    9.74
   3   3  -6    9.90    1.88
  -3   3   6    6.75    2.76
  -3   3   5  693.14   16.83
  -3   3   4  650.51   15.58
  -3   3   4  674.65   13.81
  -3   3   3    2.19    1.39
  -3   3   3    3.80    2.08
  -3   3   2  133.49    6.82
  -3   3   2  132.99    6.25
  -3   3   1  401.34   11.47
  -3   3   1  390.15   10.10
  -3   3   1  400.26   10.83
  -3   3   0  105.28    5.59
  -3   3   0   88.58    5.32
  -3   3  -1 1406.10   21.09
  -3   3  -1 1385.14   20.75
  -3   3  -2   44.73    4.20
  -3   3  -2   44.99    4.28
  -3   3  -3  306.36   10.82
  -3   3  -3  320.19   10.59
  -3   3  -4    2.11    2.06
  -3   3  -5  248.62   10.79
  -3   3  -6  146.17    5.89
  -3   3  -6  158.38    9.32
  -3   3  -7  202.21    7.17
  -3   3  -7  204.10    6.57
  -3   3  -7  188.83   10.39
  -3   3  -8  246.26    7.31
  -3   3  -8  245.99    7.99
  -3   3  -9   44.25    3.33
  -3   3  -9   47.56    3.82
  -3   3 -10   21.82    2.50
  -3   3 -10   19.30    2.54
  -3   3 -11   37.05    2.62
  -3   4  12   55.91    2.77
   3   4 -11   38.86    2.33
  -3   4  11   40.98    2.97
   3   4 -10   67.79    3.48
   3   4  -9  634.85   11.39
   3   4  -9  627.71   10.91
   3   4  -8   57.69    3.97
  -3   4   8   61.55    3.78
   3   4  -7  112.75    5.48
  -3   4   7  112.14    5.29
  -3   4   6  208.57    7.16
  -3   4   5  146.30    6.07
  -3   4   5  153.47    8.97
  -3   4   4  516.88   11.14
  -3   4   4  505.79   15.16
  -3   4   3   92.75    4.82
  -3   4   3   93.95    6.69
  -3   4   2  334.44   10.75
  -3   4   2  322.82    8.54
  -3   4   2  316.48   11.53
  -3   4   1  175.27    7.95
  -3   4   0  233.95    9.27
  -3   4   0  222.18    9.08
  -3   4  -1    3.14    1.84
  -3   4  -1    4.93    2.51
  -3   4  -2    0.36    2.12
  -3   4  -2    0.25    1.36
  -3   4  -3   68.41    5.77
  -3   4  -3   63.03    4.02
  -3   4  -4   47.74    5.56
  -3   4  -4   65.77    4.29
  -3   4  -5 1315.56   26.61
  -3   4  -7   83.52    4.64
  -3   4  -8  282.54    8.28
  -3   4  -9  121.30    5.28
  -3   4 -10    1.07    1.06
  -3   5  11   43.43    2.39
   3   5 -10   66.82    3.07
  -3   5  10   68.36    3.46
   3   5  -9  115.91    4.65
  -3   5   9  124.83    5.07
   3   5  -8   41.34    3.29
  -3   5   8   35.14    3.09
   3   5  -7  133.82    5.85
  -3   5   7  125.57    5.59
  -3   5   7  130.06    5.42
  -3   5   6   32.79    3.18
  -3   5   6   31.92    3.16
  -3   5   5  535.18   11.65
  -3   5   4   35.93    3.42
  -3   5   3   31.80    3.23
   3   5  -2   17.78    2.34
  -3   5   2   20.58    2.76
  -3   5   1   24.04    2.93
  -3   5   0   48.93    3.87
  -3   5  -1  564.82   12.18
  -3   5  -1  530.98   16.01
  -3   5  -2   93.33    5.18
  -3   5  -2   97.55    7.43
  -3   5  -3  311.29    9.14
  -3   5  -4    5.53    2.05
   3   5   8   47.74    3.04
  -3   5  -8   42.33    2.99
  -3   5  -9   98.30    4.04
  -3   5 -10   16.18    1.58
   3   6  -9  331.89    6.13
   3   6  -8   12.81    1.70
  -3   6   8   11.44    1.83
   3   6  -7    2.37    1.64
  -3   6   7    4.78    1.63
   3   6  -6   30.24    3.04
  -3   6   6   24.76    2.55
  -3   6   5   80.03    4.43
  -3   6   4  150.11    6.29
  -3   6   3    6.66    2.37
   3   6  -2    4.66    1.83
  -3   6   2    4.94    2.22
   3   6  -1    5.97    1.80
  -3   6   1    4.86    2.12
   3   6   0   30.94    3.02
  -3   6   0   30.22    3.40
   3   6   1   19.76    2.66
  -3   6  -1   11.36    2.47
   3   6   2   68.85    4.39
  -3   6  -2   69.28    4.66
   3   6   3  169.76    6.60
   3   6   4   81.20    4.66
   3   6   5  669.43   12.18
   3   6   6   93.70    4.50
   3   6   7   10.12    1.78
   3   6   8   33.98    2.18
   3   7  -7   23.30    1.98
   3   7  -6   13.16    1.86
   3   7  -5   73.78    3.85
  -3   7   5   71.35    3.52
  -3   7   4   40.98    2.98
  -3   7   3   25.41    2.65
   3   7  -2   92.78    4.01
  -3   7   2   83.16    4.60
   3   7  -1   57.61    3.57
  -3   7   1   57.28    4.05
   3   7   0   54.94    3.65
  -3   7   0   56.01    4.01
   3   7   1    1.53    1.71
   3   7   2   33.57    3.02
   3   7   3   12.66    2.22
   3   7   4   72.62    3.82
   3   7   5   32.82    2.57
   3   7   6  167.80    4.62
   3   8  -4   91.82    3.17
   3   8  -3   41.63    2.39
   3   8  -1   29.08    1.88
   3   8   0   10.44    1.53
   3   8   1   48.33    2.57
   3   8   2   41.06    2.39
   3   8   3   11.42    1.40
  -4  -5   0   13.48    2.27
  -4  -5  -1  168.30    6.20
  -4  -5  -2   38.41    3.21
  -4  -5  -3   25.04    2.73
  -4  -5  -4   56.40    3.81
  -4  -5  -5  547.13   10.54
  -4  -5  -6  251.35    6.99
  -4  -5  -7   25.36    2.41
  -4  -5  -8   52.78    2.91
  -4  -5  -9    3.06    1.23
  -4  -4   2  300.28   11.21
  -4  -4   1  187.44    6.52
  -4  -4   0  102.27    4.92
  -4  -4  -1  138.50    5.28
  -4  -4  -1  129.74    5.55
  -4  -4  -2  332.02    8.18
  -4  -4  -2  341.45    8.85
  -4  -4  -3    4.27    1.74
  -4  -4  -4  283.28    8.27
  -4  -4  -5  207.02    7.11
  -4  -4  -6  678.29   12.65
  -4  -4  -7   44.77    3.59
  -4  -4  -8  122.49    5.09
  -4  -4  -9   44.48    3.08
  -4  -4 -10   53.26    2.84
  -4  -3   5  125.70    5.17
  -4  -3   4  856.57   12.78
  -4  -3   3  183.10    5.92
  -4  -3   2  396.12    8.97
  -4  -3   2  374.14   12.04
  -4  -3   1   81.45    5.39
  -4  -3  -1  550.53   10.57
  -4  -3  -2   98.52    4.68
  -4  -3  -3   55.33    3.73
  -4  -3  -4  250.93    7.68
  -4  -3  -5  319.60    8.77
  -4  -3  -6  594.20   12.07
  -4  -3  -7    6.96    2.16
  -4  -3  -8   41.56    3.67
  -4  -3  -9    3.28    1.72
  -4  -3 -10   19.80    2.22
  -4  -3 -11  117.03    4.05
  -4  -2   6  114.10    5.04
  -4  -2   6  129.79    8.03
  -4  -2   5  135.08    5.31
  -4  -2   5  132.16    7.97
  -4  -2   4    3.65    2.22
  -4  -2   3    6.09    2.30
  -4  -2   2  115.65    6.42
  -4  -2   1   72.37    4.92
  -4  -2   0  172.55    7.00
  -4  -2  -1 1322.84   18.21
  -4  -2  -4   38.74    3.10
  -4  -2  -5 1859.76   20.15
  -4  -2  -6  670.70   12.59
  -4  -2  -7  123.63    5.69
  -4  -2  -8  271.04    8.26
  -4  -2  -9    0.01    1.60
  -4  -2 -10    8.69    2.09
  -4  -2 -11    5.03    1.53
  -4  -2 -12   47.26    2.44
   4  -1 -12   15.38    1.74
   4  -1 -11    2.33    1.51
   4  -1 -10   58.96    3.87
   4  -1  -9  389.13    9.76
   4  -1  -8  257.63    7.99
   4  -1  -7  592.78   11.71
  -4  -1   7  563.39   16.63
  -4  -1   6   34.21    4.56
  -4  -1   6   28.84    2.71
   4  -1  -6   27.61    2.87
  -4  -1   5  106.46    4.69
  -4  -1   5  104.49    6.86
  -4  -1   4  683.15   16.07
  -4  -1   3  106.63    6.25
  -4  -1   2  563.89   13.35
  -4  -1   1  151.79    6.75
  -4  -1   0  132.47    5.97
  -4  -1  -1  951.26   15.42
  -4  -1  -2  214.27    7.26
  -4  -1  -5  244.72    7.08
  -4  -1  -7   69.91    4.28
  -4  -1  -8  205.55    7.18
  -4  -1 -10   49.41    3.54
  -4  -1 -11  122.07    4.67
  -4  -1 -12  167.66    4.59
   4   0 -13   79.66    2.98
   4   0 -12   96.05    4.08
   4   0 -11   18.65    2.46
   4   0 -10  264.50    8.16
   4   0  -9  521.98   11.64
   4   0  -8   43.19    3.71
  -4   0   7  264.30   10.88
  -4   0   7  291.99   11.10
   4   0  -7  283.62    8.40
  -4   0   6   -0.94    1.67
   4   0  -6    4.11    1.67
  -4   0   6    1.96    1.43
  -4   0   6   -0.70    1.22
  -4   0   5   78.87    5.23
  -4   0   5   78.10    5.75
  -4   0   4  284.13   10.06
  -4   0   4  292.04    8.81
  -4   0   3    1.56    1.42
  -4   0   3   -0.22    1.19
  -4   0   2  278.16    7.60
  -4   0   2  276.57    9.25
  -4   0   1   74.62    4.79
  -4   0   0   27.13    2.95
  -4   0  -1  784.13   14.41
  -4   0  -2  837.71   14.73
  -4   0  -3    2.02    1.25
  -4   0  -4  237.98    7.79
  -4   0  -5 1542.92   17.74
  -4   0  -6  535.08   11.00
  -4   0  -7    1.48    1.40
  -4   0  -8   75.22    4.64
  -4   0  -9    3.40    1.83
  -4   0 -10   28.14    2.97
  -4   0 -11   55.09    3.18
  -4   0 -12   19.44    1.74
   4   1 -13   49.62    2.38
   4   1 -12   15.79    2.05
   4   1 -11    2.32    1.76
   4   1 -10   61.14    4.15
   4   1  -9  373.89   10.00
   4   1  -8  276.65    8.63
   4   1  -7  610.93   12.42
  -4   1   7  627.84   17.15
  -4   1   7  602.70   15.83
  -4   1   6   24.99    3.48
   4   1  -6   30.30    2.98
  -4   1   6   24.68    3.66
  -4   1   5  107.03    6.43
  -4   1   5   93.29    6.19
  -4   1   4  683.33   14.78
  -4   1   4  669.64   15.37
  -4   1   3  107.73    5.75
  -4   1   3  113.61    6.19
  -4   1   2  557.98   12.31
  -4   1   2  567.02   13.38
  -4   1   1  172.80    7.43
  -4   1   0  126.81    6.26
  -4   1  -1  928.82   16.48
  -4   1  -2  212.32    7.97
  -4   1  -3   -0.30    1.52
  -4   1  -4  554.34   13.24
  -4   1  -5  263.31    7.42
  -4   1  -6 1565.74   18.79
  -4   1  -7   69.72    4.29
  -4   1  -8  208.98    7.29
  -4   1  -9  136.97    5.96
  -4   1 -10   42.79    3.47
  -4   1 -10   45.81    3.06
   4   2 -12   16.75    1.86
   4   2 -11   66.97    3.87
   4   2 -10    7.20    2.05
   4   2  -9  607.29   12.48
   4   2  -8  159.67    6.56
   4   2  -7  583.61   12.09
   4   2  -6  126.61    5.58
  -4   2   6  112.27    7.60
  -4   2   5  136.37    7.90
  -4   2   5  120.29    6.99
  -4   2   4    2.48    2.02
  -4   2   4    5.51    2.11
  -4   2   3    7.51    2.04
  -4   2   3    7.39    2.23
  -4   2   2  106.91    6.29
  -4   2   2  115.18    6.46
  -4   2   1   69.68    5.07
  -4   2   0  183.94    7.91
  -4   2  -1 1295.17   20.98
  -4   2  -2   81.86    5.52
  -4   2  -3    7.79    2.47
  -4   2  -4   42.00    4.25
  -4   2  -6  664.83   12.15
  -4   2  -7  120.50    5.52
  -4   2  -7  120.48    5.54
  -4   2  -8  263.85    8.03
  -4   2  -9    1.62    1.56
   4   3 -12    1.23    0.88
   4   3 -11   25.69    2.23
   4   3 -10    5.84    1.62
  -4   3  10    8.92    1.73
   4   3  -9  177.84    6.40
   4   3  -8  102.08    5.16
   4   3  -7  208.82    7.16
   4   3  -6  166.44    6.32
   4   3  -5  131.48    5.49
  -4   3   5  136.32    8.33
  -4   3   4  886.63   20.10
  -4   3   4  852.77   18.04
  -4   3   3  188.22    9.15
  -4   3   3  178.91    8.48
  -4   3   2  404.15   12.87
  -4   3   2  386.45   12.09
  -4   3   1   70.47    5.39
  -4   3   0   14.15    3.03
  -4   3  -1  523.99   14.47
  -4   3  -2   98.63    6.64
  -4   3  -3   50.80    5.15
  -4   3  -8   33.87    2.94
  -4   4  11   13.93    1.57
   4   4 -10   62.12    2.96
  -4   4  10   59.29    3.26
   4   4  -9  160.54    5.21
  -4   4   9  150.72    5.25
   4   4  -8   28.86    2.76
  -4   4   8   27.24    2.89
   4   4  -7   16.78    2.28
  -4   4   7   17.26    2.54
  -4   4   6  284.92    8.69
  -4   4   5  598.62   12.68
  -4   4   4  198.42    7.42
  -4   4   3  128.88    6.04
  -4   4   2  290.87    8.70
  -4   4   2  293.94   11.26
  -4   4   1  184.30    6.90
  -4   4   1  178.16    9.15
  -4   4   0  109.43    5.39
  -4   4   0  110.65    7.38
  -4   4  -1  130.04    5.69
  -4   4  -1  139.72    8.40
  -4   4  -2  355.17    9.12
  -4   4  -3    5.88    1.80
  -4   5   9  144.50    4.29
  -4   5   8   81.95    3.85
   4   5  -7   63.45    3.71
  -4   5   7   62.70    3.81
   4   5  -6   75.53    4.17
  -4   5   6   87.27    4.74
  -4   5   5   93.69    5.14
  -4   5   4 1525.60   20.21
  -4   5   3   52.38    4.14
  -4   5   2  110.92    5.85
  -4   5   1  146.85    6.51
  -4   5   0   15.90    2.58
  -4   5  -1  177.56    7.01
  -4   5  -2   35.58    3.43
  -4   5  -3   19.54    2.78
   4   5   8   48.09    2.81
   4   6  -7   66.30    3.15
  -4   6   7   61.76    3.01
   4   6  -6   35.35    2.78
  -4   6   6   31.82    2.61
  -4   6   5  178.84    6.15
  -4   6   4    2.48    1.85
  -4   6   3   59.54    4.18
  -4   6   2   24.06    3.09
   4   6  -1   20.24    2.44
  -4   6   1   18.88    2.81
   4   6   0   17.06    2.49
  -4   6   0   18.18    2.89
   4   6   1  219.27    7.05
  -4   6  -1  201.74    7.39
   4   6   2   17.00    2.45
  -4   6  -2   18.39    2.69
   4   6   3   26.47    2.88
   4   6   4   40.68    3.26
   4   6   5   95.00    4.36
   4   6   6  255.86    6.40
   4   6   7   28.68    2.15
   4   7  -5  107.32    3.69
  -4   7   5  103.27    3.66
  -4   7   4  544.70    8.99
  -4   7   3  157.44    5.32
  -4   7   2  103.74    4.60
   4   7  -1    5.10    1.37
  -4   7   1    4.40    1.87
   4   7   0  111.46    4.24
  -4   7   0  104.42    4.74
   4   7   1  164.93    5.25
   4   7   2   94.27    4.03
   4   7   3  101.76    4.07
   4   7   4   14.15    1.84
   4   7   5  163.26    4.34
  -5  -5  -1   50.50    3.66
  -5  -5  -2  276.62    7.74
  -5  -5  -3  159.39    5.87
  -5  -5  -4   72.41    4.02
  -5  -5  -5  124.85    4.25
  -5  -5  -5  132.07    4.97
  -5  -5  -6  305.14    6.20
  -5  -5  -6  317.38    6.97
  -5  -5  -7    8.65    1.45
  -5  -5  -8   10.69    1.31
  -5  -4   4  809.62   12.38
  -5  -4   3  175.97    6.00
  -5  -4   2   90.09    4.38
  -5  -4   1  107.28    4.79
  -5  -4   1  109.70    5.44
  -5  -4   0  274.84    7.65
  -5  -4   0  289.71    8.49
  -5  -4  -1   49.93    3.60
  -5  -4  -1   57.31    4.08
  -5  -4  -2  241.87    7.35
  -5  -4  -2  225.35    7.51
  -5  -4  -3  391.42    9.30
  -5  -4  -3  375.40    9.60
  -5  -4  -4  101.45    4.87
  -5  -4  -4   94.79    5.01
  -5  -4  -5   53.53    3.81
  -5  -4  -6  443.17    9.78
  -5  -4  -7  123.88    4.96
  -5  -4  -8   42.57    2.83
  -5  -4  -9   80.15    3.04
  -5  -4  -9   80.99    3.24
  -5  -3   5  276.94    7.86
  -5  -3   4 1872.33   20.20
  -5  -3   3   19.62    2.46
  -5  -3   2   29.15    2.74
  -5  -3   2   26.50    3.08
  -5  -3   1   16.90    2.37
  -5  -3   1   13.97    2.46
  -5  -3   0   33.71    3.10
  -5  -3   0   36.53    3.37
  -5  -3  -1  458.14   10.16
  -5  -3  -1  439.57   10.31
  -5  -3  -2  587.82   11.67
  -5  -3  -2  587.42   12.01
  -5  -3  -3   24.57    2.94
  -5  -3  -4   82.65    4.81
  -5  -3  -5  740.88   13.54
  -5  -3  -6  814.22   14.09
  -5  -3  -7   50.88    3.77
  -5  -3  -8   25.32    2.74
  -5  -3  -9   23.04    2.32
  -5  -3 -10   16.39    1.76
  -5  -2   6   51.05    3.79
  -5  -2   5  112.66    5.27
  -5  -2   4  535.83   11.01
  -5  -2   4  532.47   16.30
  -5  -2   3 1074.08   15.35
  -5  -2   3 1064.82   22.33
  -5  -2   2  453.84    9.87
  -5  -2   2  441.42    9.98
  -5  -2   2  455.23   14.06
  -5  -2   1    4.22    1.48
  -5  -2   1    6.14    2.04
  -5  -2   0    9.72    2.60
  -5  -2   0   10.68    2.11
  -5  -2   0   15.32    2.02
  -5  -2  -1   50.78    3.45
  -5  -2  -1   52.22    3.64
  -5  -2  -2   90.95    4.73
  -5  -2  -3  100.62    5.11
  -5  -2  -4   45.70    3.63
  -5  -2  -5  111.74    5.54
  -5  -2  -6 2269.15   23.63
  -5  -2  -7  258.02    7.97
  -5  -2  -8   37.75    3.29
  -5  -2  -9    5.58    1.77
  -5  -2 -10   85.50    3.76
  -5  -2 -11   82.69    2.99
   5  -1 -11   27.71    2.16
   5  -1 -10    8.07    1.81
   5  -1  -9  125.89    5.33
   5  -1  -8  276.72    8.14
   5  -1  -7  111.70    5.45
  -5  -1   6  598.64   12.13
   5  -1  -6  612.69   12.22
  -5  -1   5  280.64    8.26
  -5  -1   5  263.93   11.64
  -5  -1   4 4320.00   30.95
  -5  -1   4 4387.03   45.53
  -5  -1   3   83.59    4.37
  -5  -1   3   82.86    6.29
  -5  -1   2  253.41    7.27
  -5  -1   2  259.74    7.32
  -5  -1   2  269.72   10.70
  -5  -1   1   80.52    4.14
  -5  -1   1   74.26    4.07
  -5  -1   1   81.68    5.79
  -5  -1   0   46.41    3.08
  -5  -1   0   44.16    3.34
  -5  -1   0   53.95    4.54
  -5  -1  -1  510.60   10.23
  -5  -1  -1  507.85   10.05
  -5  -1  -1  482.40   13.00
  -5  -1  -2  531.25   10.41
  -5  -1  -3  107.04    5.03
  -5  -1  -4  284.17    8.03
  -5  -1  -5 1650.13   19.55
  -5  -1  -6 1042.57   15.76
  -5  -1  -7   16.77    2.36
  -5  -1  -8   63.06    3.98
  -5  -1  -9   20.74    2.50
  -5  -1 -10   66.70    3.39
  -5  -1 -11   64.42    2.80
   5   0 -12    1.59    0.97
   5   0 -11    0.63    1.27
   5   0 -10    1.07    1.54
   5   0  -9   -0.53    1.61
   5   0  -8   14.85    2.60
   5   0  -7   30.55    3.13
   5   0  -6    1.74    1.63
  -5   0   6    0.55    1.45
  -5   0   5   58.51    3.90
  -5   0   5   60.18    5.75
  -5   0   4  117.09    5.17
  -5   0   4  115.99    7.55
  -5   0   3  689.10   11.93
  -5   0   3  677.73   17.23
  -5   0   2  433.35    9.28
  -5   0   2  450.14   13.70
  -5   0   1   59.97    5.17
  -5   0   0   71.10    5.45
  -5   0  -1  138.12    5.27
  -5   0  -1  128.25    6.91
  -5   0  -2  120.27    4.98
  -5   0  -2  129.80    6.82
  -5   0  -3  431.44    9.10
  -5   0  -3  451.02   12.54
  -5   0  -4   58.56    3.70
  -5   0  -5   13.70    2.07
  -5   0  -6 2182.51   21.81
  -5   0  -7  313.71    8.36
  -5   0  -8   -0.54    1.43
  -5   0  -9   46.58    3.21
  -5   0 -10   81.28    3.51
  -5   0 -11   11.64    1.51
   5   1 -12   19.67    1.70
   5   1 -11   30.91    2.56
   5   1 -10    9.67    2.07
   5   1  -9  149.12    6.22
   5   1  -8  276.12    8.60
   5   1  -7  113.41    5.68
   5   1  -6  608.24   12.60
  -5   1   5  286.90    7.99
  -5   1   5  269.14   10.91
  -5   1   5  292.34   11.85
  -5   1   4 4318.08   29.94
  -5   1   4 4345.54   40.62
  -5   1   4 4325.02   44.29
  -5   1   3   86.24    4.24
  -5   1   3   79.13    5.63
  -5   1   3   84.52    6.48
  -5   1   2  267.50    7.19
  -5   1   2  270.03   10.84
  -5   1   1   74.90    5.97
  -5   1   0   45.74    4.61
  -5   1  -1  497.95   14.11
  -5   1  -2  526.25    9.81
  -5   1  -2  539.66   14.71
  -5   1  -3  104.36    4.42
  -5   1  -3  100.16    6.58
  -5   1  -4  297.31   10.92
   5   2 -11    8.19    1.48
   5   2 -10   34.30    2.86
   5   2  -9   78.52    4.40
   5   2  -8    9.28    2.32
   5   2  -7    7.45    2.01
   5   2  -6   48.97    3.92
  -5   2   4  526.00   15.74
  -5   2   4  522.51   15.61
  -5   2   4  526.15   10.08
  -5   2   3 1059.48   21.55
  -5   2   3 1022.74   21.62
  -5   2   2  436.29   13.98
  -5   2   1    6.94    2.93
  -5   2   0   12.52    3.11
  -5   2  -1   45.23    4.78
  -5   2  -2   90.55    6.64
  -5   2  -3  101.84    7.36
  -5   2  -4   56.41    5.81
   5   3 -11   13.14    1.34
   5   3 -10   14.58    1.83
  -5   3  10   15.07    1.81
   5   3  -9   92.01    4.27
   5   3  -8  103.86    4.89
   5   3  -7  124.55    5.52
   5   3  -6  250.28    7.82
   5   3  -5  257.18    7.94
  -5   3   2   27.39    4.07
  -5   3   1   17.52    4.00
  -5   3   1   14.45    2.15
  -5   3   0   26.79    3.92
  -5   3   0   41.95    3.40
  -5   3  -1  466.53   10.05
  -5   3  -1  457.57   15.10
   5   4  -9   69.22    2.94
  -5   4   9   73.65    3.38
   5   4  -8   37.59    2.65
  -5   4   8   39.98    2.99
   5   4  -7    7.85    1.66
  -5   4   7   10.68    2.13
   5   4  -6   38.18    3.06
  -5   4   6   45.36    3.71
   5   4  -5    6.46    1.84
  -5   4   5    6.22    2.14
  -5   4   4  826.64   14.92
  -5   4   3  166.27    6.86
  -5   4   2   88.35    4.96
  -5   4   1  111.58    5.58
  -5   4   0  276.60    8.41
  -5   4  -1   55.04    3.88
  -5   4  -2  230.32    7.28
  -5   5   8   40.38    2.47
  -5   5   7   57.08    3.33
  -5   5   6  176.39    6.03
  -5   5   5  239.59    7.47
  -5   5   4  472.14   10.80
  -5   5   3  108.46    5.49
  -5   5   2    4.15    1.74
  -5   5   1   80.68    4.85
  -5   5   0  133.04    5.94
  -5   5  -1   47.08    3.73
  -5   5  -2  257.70    7.68
  -5   5  -3  154.23    5.64
   5   5   8    8.89    1.21
  -5   6   6    3.06    1.26
  -5   6   5   25.12    2.42
  -5   6   4  334.71    7.82
  -5   6   3   88.78    4.39
  -5   6   2   10.81    2.15
  -5   6   1   56.51    3.75
   5   6   0   80.10    3.72
  -5   6   0   80.30    4.34
   5   6   1   16.43    2.11
  -5   6  -1   13.92    2.17
   5   6   2   25.17    2.40
  -5   6  -2   27.92    2.62
   5   6   3   94.45    4.16
   5   6   4   11.86    1.90
   5   6   5   95.62    3.67
   5   6   6  155.00    4.07
  -5   7   3   31.98    2.14
  -5   7   2   51.10    2.73
  -5   7   1   92.83    3.63
   5   7   1   43.44    2.18
   5   7   2  239.53    4.78
   5   7   3   21.76    1.58
  -6  -5  -2   15.57    2.06
  -6  -5  -3   24.89    2.30
  -6  -5  -4   10.69    1.72
  -6  -5  -5  214.54    5.09
  -6  -5  -6  169.04    3.95
  -6  -4   4  774.39   11.29
  -6  -4   3  326.15    7.70
  -6  -4   2  163.67    5.67
  -6  -4   1  179.97    6.00
  -6  -4   0  228.00    6.81
  -6  -4   0  244.61    7.66
  -6  -4  -1   31.78    2.82
  -6  -4  -1   27.39    3.10
  -6  -4  -2   98.75    4.60
  -6  -4  -2   85.87    4.65
  -6  -4  -3   14.80    2.37
  -6  -4  -3   13.52    2.07
  -6  -4  -4   41.76    2.99
  -6  -4  -4   43.59    3.34
  -6  -4  -5   19.79    2.26
  -6  -4  -5   19.14    2.02
  -6  -4  -6  407.18    7.54
  -6  -4  -6  417.41    8.04
  -6  -4  -7  327.06    6.04
  -6  -4  -7  343.62    6.54
  -6  -4  -8   43.99    2.12
  -6  -3   5   35.42    2.97
  -6  -3   4  330.58    8.51
  -6  -3   3   86.00    4.55
  -6  -3   2   99.20    4.92
  -6  -3   1    0.09    1.68
  -6  -3   1    4.67    1.76
  -6  -3   0   98.64    4.88
  -6  -3   0  103.63    5.30
  -6  -3  -1   79.87    4.60
  -6  -3  -1   84.12    4.81
  -6  -3  -2   40.39    3.45
  -6  -3  -2   34.33    3.33
  -6  -3  -3   23.48    2.84
  -6  -3  -3   19.70    2.73
  -6  -3  -4  138.25    5.72
  -6  -3  -4  132.23    5.73
  -6  -3  -5  263.29    7.51
  -6  -3  -5  268.07    7.74
  -6  -3  -6  347.99    8.16
  -6  -3  -6  342.16    8.21
  -6  -3  -7   39.10    2.78
  -6  -3  -7   42.59    2.95
  -6  -3  -8   24.65    2.02
  -6  -3  -8   25.18    2.15
  -6  -3  -9   29.53    1.75
  -6  -3  -9   31.86    1.89
  -6  -2   5   51.02    3.82
   6  -2  -5   45.78    3.45
  -6  -2   4 2976.27   26.55
  -6  -2   3  815.16   14.01
  -6  -2   2   23.40    2.82
  -6  -2   1   79.81    4.63
  -6  -2   1   78.37    4.62
  -6  -2   0   89.02    4.91
  -6  -2   0   73.44    4.52
  -6  -2  -1  373.86    9.62
  -6  -2  -1  369.13    9.53
  -6  -2  -2  140.59    6.09
  -6  -2  -2  144.77    6.05
  -6  -2  -3  166.00    6.54
  -6  -2  -3  166.68    6.52
  -6  -2  -4  128.65    5.73
  -6  -2  -4  125.97    5.68
  -6  -2  -5   66.78    4.17
  -6  -2  -5   67.38    4.23
  -6  -2  -6  241.49    7.28
  -6  -2  -7  266.60    7.15
  -6  -2  -8    1.87    1.33
  -6  -2  -8    0.88    1.37
  -6  -2  -9  156.13    4.42
  -6  -2  -9  162.22    4.41
   6  -1 -10   21.26    1.86
   6  -1  -9   81.59    3.75
   6  -1  -8   64.56    3.74
   6  -1  -7   63.20    3.92
   6  -1  -6  248.70    7.72
  -6  -1   5  163.94    6.46
  -6  -1   4  102.73    5.17
  -6  -1   3  302.10    8.62
  -6  -1   2   18.75    2.45
  -6  -1   1   55.03    3.79
  -6  -1   1   45.67    3.56
  -6  -1   0   37.12    3.24
  -6  -1   0   35.81    3.15
  -6  -1  -1  139.07    5.95
  -6  -1  -1  139.85    5.72
  -6  -1  -2  155.66    6.35
  -6  -1  -2  154.28    6.08
  -6  -1  -3  199.19    7.09
  -6  -1  -3  194.72    6.79
  -6  -1  -4   21.06    2.74
  -6  -1  -4   20.78    2.55
  -6  -1  -5   45.54    3.54
  -6  -1  -6   13.85    2.18
  -6  -1  -7  141.07    5.34
  -6  -1  -8    2.42    1.24
  -6  -1  -9   19.34    1.91
  -6  -1  -9   19.31    1.84
   6   0 -10   90.61    3.66
   6   0  -9   97.59    4.34
   6   0  -8   13.16    2.29
   6   0  -7  128.52    5.72
   6   0  -6   41.84    3.59
  -6   0   5    4.93    1.65
  -6   0   4 3571.06   29.33
  -6   0   3  763.89   13.44
  -6   0   2  177.48    6.58
  -6   0   1  197.87    6.77
  -6   0   0  176.19    6.45
  -6   0   0  155.60    5.72
  -6   0  -1  170.99    6.36
  -6   0  -1  163.72    5.78
  -6   0  -2  167.41    6.27
  -6   0  -2  162.79    5.83
  -6   0  -3  136.28    5.76
  -6   0  -3  130.86    5.31
  -6   0  -4   46.46    3.44
  -6   0  -4   46.54    3.38
  -6   0  -5   14.89    2.22
  -6   0  -5   15.27    1.84
  -6   0  -6  120.18    5.18
  -6   0  -6  119.98    4.88
  -6   0  -7  577.71   10.50
  -6   0  -7  563.28    9.75
  -6   0  -8    0.53    1.29
  -6   0  -9  105.37    3.56
   6   1 -11   34.84    1.94
   6   1 -10   20.60    2.05
   6   1  -9   82.42    4.06
   6   1  -8   70.79    4.24
   6   1  -7   60.65    4.13
   6   1  -6  266.45    8.32
  -6   1   4  113.76    5.15
  -6   1   3  278.16    7.89
  -6   1   2   21.99    2.52
  -6   1   1   55.90    3.57
  -6   1   0   43.02    3.09
  -6   1  -1  136.81    5.42
  -6   1  -2  144.44    5.60
  -6   1  -3  195.52    6.38
  -6   1  -4   17.31    2.11
   6   2 -10   39.43    2.36
  -6   2  10   42.25    2.43
   6   2  -9   92.07    4.01
   6   2  -8   13.90    2.18
   6   2  -7   57.26    3.87
   6   2  -6   68.59    4.35
  -6   2   1   80.13    4.30
   6   3  -9  133.02    4.03
  -6   3   9  136.66    4.29
   6   3  -8  135.60    4.64
  -6   3   8  134.42    4.93
   6   3  -7    5.81    1.65
  -6   3   7    3.96    1.72
   6   3  -6   43.43    3.30
   6   3  -5   32.55    3.11
  -6   3   4  344.54    9.36
  -6   3   3   75.80    4.65
  -6   3   2   98.03    5.03
  -6   3   1    1.20    1.31
  -6   3   0   98.13    4.81
  -6   4   8   48.45    2.63
   6   4  -7  184.09    4.67
  -6   4   7  192.01    5.66
   6   4  -6   47.20    2.83
  -6   4   6   58.06    3.51
   6   4  -5   49.37    3.08
  -6   4   5   46.16    3.46
   6   4  -4  758.81   11.42
  -6   4   4  751.29   13.04
  -6   4   3  313.65    8.63
  -6   4   2  162.65    6.25
  -6   4   1  180.35    6.56
  -6   4   0  236.52    7.21
  -6   4  -1   30.97    2.71
  -6   5   7   66.88    2.68
  -6   5   6    0.16    1.13
  -6   5   5   60.83    3.36
  -6   5   4  214.42    6.29
  -6   5   3   34.97    2.89
  -6   5   2    1.49    1.47
  -6   5   1   29.45    2.70
  -6   5   0   30.68    2.66
  -6   5  -1  399.77    8.22
   6   5   6  179.06    4.27
  -6   6   4  164.63    4.28
  -6   6   3  323.05    6.32
  -6   6   2   28.62    2.20
  -6   6   1   32.75    2.33
  -6   6   0   75.76    3.17
   6   6   1   26.73    1.84
   6   6   2   45.38    2.28
   6   6   3   14.21    1.45
  -7  -4   3  232.13    5.30
  -7  -4   2   86.61    3.46
  -7  -4   1   46.91    2.65
  -7  -4   0   49.57    2.77
  -7  -4  -1   44.88    2.71
  -7  -4  -2   74.54    3.28
  -7  -4  -3   28.05    2.00
  -7  -4  -3   29.02    2.33
  -7  -4  -4   26.04    1.79
  -7  -4  -4   23.63    1.98
  -7  -4  -5   87.15    2.74
  -7  -4  -5   85.37    3.03
  -7  -3   4  219.78    6.05
  -7  -3   3  175.34    5.65
  -7  -3   2   99.11    4.46
  -7  -3   1   24.13    2.52
  -7  -3   0   55.57    3.52
  -7  -3  -1  862.34   12.81
  -7  -3  -1  849.44   12.98
  -7  -3  -2  132.04    5.04
  -7  -3  -2  120.16    4.96
  -7  -3  -3   13.46    1.93
  -7  -3  -3   14.22    2.10
  -7  -3  -4   90.27    3.92
  -7  -3  -4   91.65    3.99
  -7  -3  -5   31.11    2.29
  -7  -3  -5   34.95    2.48
  -7  -3  -6  203.57    4.81
  -7  -3  -6  209.24    4.91
  -7  -2   5   56.75    3.44
  -7  -2   4  278.07    7.52
  -7  -2   3  174.01    6.14
  -7  -2   2   57.94    3.76
  -7  -2   1  521.62   10.73
  -7  -2   0  398.46    9.48
  -7  -2  -1   47.18    3.58
  -7  -2  -1   45.41    3.46
  -7  -2  -2  335.45    8.62
  -7  -2  -2  330.86    8.29
  -7  -2  -3   48.46    3.47
  -7  -2  -3   55.64    3.55
  -7  -2  -4   28.57    2.73
  -7  -2  -4   26.12    2.42
  -7  -2  -5   16.15    1.91
  -7  -2  -5   14.89    2.04
  -7  -2  -6  100.49    3.98
  -7  -2  -6  101.83    3.83
  -7  -2  -7    9.27    1.26
  -7  -2  -7    6.76    1.29
   7  -1  -8  168.53    4.32
   7  -1  -7   93.94    3.85
   7  -1  -6   17.83    2.13
  -7  -1   5    8.94    2.01
   7  -1  -5    7.26    1.77
  -7  -1   4   14.07    2.33
  -7  -1   3   94.45    4.78
  -7  -1   2   60.70    3.89
  -7  -1   1   52.00    3.71
  -7  -1   0   23.24    2.76
  -7  -1  -1 1809.44   20.27
  -7  -1  -1 1840.52   19.26
  -7  -1  -2   32.54    2.96
  -7  -1  -2   26.83    2.66
  -7  -1  -3   12.92    2.09
  -7  -1  -3   12.36    2.19
  -7  -1  -4   13.24    2.13
  -7  -1  -4   12.49    2.18
  -7  -1  -5   20.02    2.18
  -7  -1  -5   18.83    2.21
  -7  -1  -6  189.97    5.53
  -7  -1  -6  183.61    5.04
  -7  -1  -7   30.17    2.21
  -7  -1  -7   32.84    2.10
   7   0  -9  281.72    5.14
   7   0  -8  130.53    4.31
   7   0  -7   38.32    2.85
   7   0  -6    0.90    1.45
   7   0  -5   36.39    3.13
  -7   0   4  233.20    7.05
  -7   0   3  143.88    5.65
  -7   0   2   33.24    3.04
  -7   0   1  474.95   10.23
  -7   0   0  372.90    9.04
  -7   0  -1   19.11    2.38
  -7   0  -2  212.94    6.74
  -7   0  -3   -0.04    1.50
  -7   0  -4   67.14    3.82
  -7   0  -5   58.31    3.43
  -7   0  -6  179.11    5.10
  -7   0  -7    8.14    1.39
   7   1  -9  103.18    3.28
   7   1  -8  184.33    5.12
   7   1  -7   99.91    4.27
   7   1  -6   18.89    2.42
   7   1  -5    5.60    1.84
  -7   1   3   81.82    4.15
  -7   1   2   64.25    3.67
  -7   1   1   51.65    3.40
  -7   1   0   16.72    2.08
  -7   1  -1 1810.60   18.17
  -7   1  -2   30.25    2.66
   7   2  -8   71.93    3.00
  -7   2   8   70.66    3.08
   7   2  -7   78.79    3.61
  -7   2   7   76.59    3.54
   7   2  -6    7.34    1.67
   7   2  -5   51.54    3.45
  -7   2   4  285.34    7.65
  -7   2   3  182.47    6.12
  -7   2   2   57.61    3.58
   7   3  -7   12.81    1.36
  -7   3   7   12.65    1.58
   7   3  -6   76.74    3.32
  -7   3   6   79.58    3.60
   7   3  -5   77.34    3.62
  -7   3   5   75.05    3.74
   7   3  -4  219.97    6.22
  -7   3   4  229.81    6.51
  -7   3   3  169.59    5.67
  -7   3   2  103.39    4.36
  -7   4   6   33.66    2.05
  -7   4   5    9.04    1.50
  -7   4   4  519.08    8.55
  -7   4   3  232.71    5.94
  -7   4   2   81.75    3.62
  -7   4   1   44.79    2.72
  -8  -3   2    5.39    1.08
  -8  -3   1    8.77    1.30
  -8  -3   0  141.62    3.98
  -8  -3  -1  466.35    6.95
  -8  -3  -2   43.64    2.17
  -8  -3  -3   77.58    2.57
  -8  -2   3  101.85    3.69
  -8  -2   2   33.43    2.40
  -8  -2   1  102.28    3.98
  -8  -2   0   15.44    2.02
  -8  -2  -1   20.41    2.10
  -8  -2  -2  161.70    4.63
  -8  -2  -3   17.14    1.70
  -8  -2  -4  115.74    3.38
   8  -1  -5   21.70    1.64
   8  -1  -4   23.49    1.92
   8  -1  -3    9.67    1.60
  -8  -1   3    9.71    1.62
  -8  -1   2   39.38    2.76
  -8  -1   1   56.22    3.22
  -8  -1   0   12.52    1.88
  -8  -1  -1   48.51    2.96
  -8  -1  -2    5.69    1.43
  -8  -1  -3    8.68    1.44
  -8  -1  -4   46.76    2.43
   8   0  -6    0.06    0.94
   8   0  -5    1.21    1.08
   8   0  -4   77.62    3.53
  -8   0   3  175.49    5.02
  -8   0   2   20.05    2.11
  -8   0   1    2.72    1.29
  -8   0   0    4.00    1.44
  -8   0  -1   -0.13    1.04
  -8   0  -2  104.75    3.81
  -8   0  -3    1.56    0.99
  -8   0  -4   96.07    3.03
   8   1  -6   32.88    2.01
   8   1  -5   24.01    1.99
   8   1  -4   29.18    2.40
   8   2  -5   23.83    1.75
   8   2  -4   68.98    3.06
   8   2  -3  101.37    3.83
   8   3  -2    6.41    0.98
   8   3  -1    9.63    1.27

TITL FXQ-02 in P2(1)/m
REM P2(1)/m (#11 in standard setting)
CELL 1.54184   7.082952   7.179583  11.869793  90.0000  92.1558  90.0000
ZERR    8.00   0.000186   0.000202   0.000309   0.0000   0.0026   0.0000
LATT  1
SYMM -x, y+1/2,-z
SFAC C H N O F
UNIT 8.00 8.00 8.00 8.00 8.00
TREF
HKLF 4
END
_computing_structure_solution     'SHELXT 2014/4 (Sheldrick, 2014)'
;
_shelx_hkl_checksum              82807
loop_
_space_group_symop_operation_xyz
'x, y, z'
'-x, y+1/2, -z'
loop_
_atom_site_label
_atom_site_type_symbol
_atom_site_fract_x
_atom_site_fract_y
_atom_site_fract_z
_atom_site_U_iso_or_equiv
_atom_site_adp_type
_atom_site_occupancy
_atom_site_site_symmetry_order
_atom_site_calc_flag
_atom_site_refinement_flags_posn
_atom_site_refinement_flags_adp
F1 F 0.01596(16) 0.4662(2) 0.66663(9) 0.0321(4) Uani 1 1 d . .
O1 O -0.06090(18) 0.4891(3) 0.05154(10) 0.0264(4) Uani 1 1 d . .
O2 O 0.52402(16) 0.5219(2) 0.10166(10) 0.0193(3) Uani 1 1 d . .
H2 H 0.6331 0.5271 0.1319 0.023 Uiso 1 1 calc R U
O3 O 0.65215(18) 0.5347(3) 0.31253(11) 0.0276(4) Uani 1 1 d . .
C1 C 0.2121(3) 0.4481(4) -0.05405(15) 0.0254(5) Uani 1 1 d . .
H1A H 0.1211 0.4407 -0.1181 0.038 Uiso 1 1 calc R U
H1B H 0.2912 0.3361 -0.0520 0.038 Uiso 1 1 calc R U
H1C H 0.2921 0.5583 -0.0622 0.038 Uiso 1 1 calc R U
C2 C 0.1075(2) 0.4625(3) 0.05387(14) 0.0176(4) Uani 1 1 d . .
C3 C 0.2157(2) 0.4319(3) 0.16827(15) 0.0163(4) Uani 1 1 d . .
C4 C 0.3887(2) 0.5645(3) 0.18308(14) 0.0158(4) Uani 1 1 d . .
C5 C 0.4806(2) 0.5365(3) 0.30128(16) 0.0180(4) Uani 1 1 d . .
C6 C 0.3555(2) 0.5220(3) 0.39746(15) 0.0169(4) Uani 1 1 d . .
C7 C 0.4319(3) 0.5424(3) 0.50808(16) 0.0218(4) Uani 1 1 d . .
H7 H 0.5627 0.5680 0.5201 0.026 Uiso 1 1 calc R U
C8 C 0.3180(3) 0.5255(4) 0.59867(15) 0.0243(5) Uani 1 1 d . .
H8 H 0.3674 0.5420 0.6735 0.029 Uiso 1 1 calc R U
C9 C 0.1291(3) 0.4837(3) 0.57761(15) 0.0219(4) Uani 1 1 d . .
C10 C 0.0490(3) 0.4627(3) 0.47107(15) 0.0193(4) Uani 1 1 d . .
H10 H -0.0815 0.4347 0.4605 0.023 Uiso 1 1 calc R U
C11 C 0.1636(2) 0.4834(3) 0.37882(14) 0.0158(4) Uani 1 1 d . .
C12 C 0.0758(2) 0.4701(3) 0.26131(13) 0.0162(4) Uani 1 1 d . .
H12A H 0.0089 0.5882 0.2437 0.019 Uiso 1 1 calc R U
H12B H -0.0197 0.3694 0.2601 0.019 Uiso 1 1 calc R U
C13 C 0.2817(3) 0.2280(3) 0.17276(16) 0.0212(4) Uani 1 1 d . .
H13A H 0.3305 0.1986 0.2491 0.032 Uiso 1 1 calc R U
H13B H 0.3818 0.2095 0.1191 0.032 Uiso 1 1 calc R U
H13C H 0.1750 0.1460 0.1530 0.032 Uiso 1 1 calc R U
C14 C 0.3315(3) 0.7698(3) 0.17331(16) 0.0211(4) Uani 1 1 d . .
H14A H 0.4437 0.8484 0.1847 0.032 Uiso 1 1 calc R U
H14B H 0.2402 0.7990 0.2307 0.032 Uiso 1 1 calc R U
H14C H 0.2741 0.7931 0.0982 0.032 Uiso 1 1 calc R U
loop_
_atom_site_aniso_label
_atom_site_aniso_U_11
_atom_site_aniso_U_22
_atom_site_aniso_U_33
_atom_site_aniso_U_23
_atom_site_aniso_U_13
_atom_site_aniso_U_12
F1 0.0304(6) 0.0513(9) 0.0149(5) 0.0008(6) 0.0074(4) -0.0063(6)
O1 0.0174(6) 0.0435(10) 0.0183(6) 0.0001(7) -0.0013(5) 0.0051(7)
O2 0.0119(5) 0.0284(8) 0.0179(6) -0.0019(6) 0.0040(4) 0.0008(6)
O3 0.0125(6) 0.0477(11) 0.0228(6) 0.0003(8) 0.0001(5) 0.0017(7)
C1 0.0205(8) 0.0401(14) 0.0155(8) -0.0026(10) 0.0009(7) 0.0021(10)
C2 0.0163(8) 0.0200(11) 0.0165(8) -0.0012(8) 0.0008(7) -0.0005(8)
C3 0.0139(8) 0.0202(11) 0.0146(8) -0.0003(7) 0.0004(7) 0.0010(8)
C4 0.0131(8) 0.0201(11) 0.0144(8) -0.0007(7) 0.0036(7) 0.0000(7)
C5 0.0150(8) 0.0189(10) 0.0201(8) -0.0019(8) 0.0000(7) 0.0004(8)
C6 0.0172(8) 0.0169(10) 0.0166(8) 0.0006(8) -0.0001(7) 0.0009(8)
C7 0.0186(8) 0.0263(11) 0.0202(9) 0.0000(9) -0.0019(7) -0.0004(9)
C8 0.0269(10) 0.0315(13) 0.0142(8) 0.0007(9) -0.0037(7) 0.0015(10)
C9 0.0257(9) 0.0250(11) 0.0155(8) 0.0013(9) 0.0075(7) -0.0009(9)
C10 0.0170(8) 0.0217(11) 0.0194(8) 0.0003(9) 0.0018(7) -0.0004(8)
C11 0.0175(8) 0.0145(9) 0.0154(8) 0.0011(8) 0.0017(6) 0.0017(8)
C12 0.0118(7) 0.0222(11) 0.0148(8) -0.0011(8) 0.0016(6) 0.0012(8)
C13 0.0241(10) 0.0190(11) 0.0205(10) -0.0008(8) -0.0004(7) 0.0001(9)
C14 0.0263(9) 0.0159(10) 0.0213(10) 0.0018(8) 0.0039(7) -0.0006(8)
loop_
_atom_type_symbol
_atom_type_description
_atom_type_scat_dispersion_real
_atom_type_scat_dispersion_imag
_atom_type_scat_source
C C 0.0181 0.0091 'International Tables Vol C Tables 4.2.6.8 and 6.1.1.4'
H H 0.0000 0.0000 'International Tables Vol C Tables 4.2.6.8 and 6.1.1.4'
O O 0.0492 0.0322 'International Tables Vol C Tables 4.2.6.8 and 6.1.1.4'
F F 0.0727 0.0534 'International Tables Vol C Tables 4.2.6.8 and 6.1.1.4'
loop_
_geom_angle_atom_site_label_1
_geom_angle_atom_site_label_2
_geom_angle_atom_site_label_3
_geom_angle
C4 O2 H2 109.5
C2 C1 H1A 109.5
C2 C1 H1B 109.5
H1A C1 H1B 109.5
C2 C1 H1C 109.5
H1A C1 H1C 109.5
H1B C1 H1C 109.5
O1 C2 C1 120.54(15)
O1 C2 C3 119.89(15)
C1 C2 C3 119.49(15)
C12 C3 C13 110.41(16)
C12 C3 C2 107.06(14)
C13 C3 C2 107.77(16)
C12 C3 C4 109.65(15)
C13 C3 C4 109.97(15)
C2 C3 C4 111.94(15)
O2 C4 C14 109.82(16)
O2 C4 C5 108.66(14)
C14 C4 C5 107.25(16)
O2 C4 C3 109.88(15)
C14 C4 C3 112.02(15)
C5 C4 C3 109.11(15)
O3 C5 C6 122.71(16)
O3 C5 C4 119.20(16)
C6 C5 C4 118.03(14)
C11 C6 C7 120.35(17)
C11 C6 C5 120.05(15)
C7 C6 C5 119.58(16)
C8 C7 C6 120.29(17)
C8 C7 H7 119.9
C6 C7 H7 119.9
C7 C8 C9 118.01(16)
C7 C8 H8 121.0
C9 C8 H8 121.0
F1 C9 C10 118.12(16)
F1 C9 C8 118.35(16)
C10 C9 C8 123.52(16)
C9 C10 C11 118.58(16)
C9 C10 H10 120.7
C11 C10 H10 120.7
C10 C11 C6 119.22(16)
C10 C11 C12 119.16(15)
C6 C11 C12 121.59(16)
C11 C12 C3 114.91(14)
C11 C12 H12A 108.5
C3 C12 H12A 108.5
C11 C12 H12B 108.5
C3 C12 H12B 108.5
H12A C12 H12B 107.5
C3 C13 H13A 109.5
C3 C13 H13B 109.5
H13A C13 H13B 109.5
C3 C13 H13C 109.5
H13A C13 H13C 109.5
H13B C13 H13C 109.5
C4 C14 H14A 109.5
C4 C14 H14B 109.5
H14A C14 H14B 109.5
C4 C14 H14C 109.5
H14A C14 H14C 109.5
H14B C14 H14C 109.5
loop_
_geom_bond_atom_site_label_1
_geom_bond_atom_site_label_2
_geom_bond_distance
F1 C9 1.356(2)
O1 C2 1.207(2)
O2 C4 1.420(2)
O2 H2 0.8400
O3 C5 1.218(2)
C1 C2 1.507(2)
C1 H1A 0.9800
C1 H1B 0.9800
C1 H1C 0.9800
C2 C3 1.550(2)
C3 C12 1.536(2)
C3 C13 1.537(3)
C3 C4 1.557(2)
C4 C14 1.532(3)
C4 C5 1.537(2)
C5 C6 1.475(2)
C6 C11 1.397(2)
C6 C7 1.409(2)
C7 C8 1.374(3)
C7 H7 0.9500
C8 C9 1.385(3)
C8 H8 0.9500
C9 C10 1.375(3)
C10 C11 1.395(2)
C10 H10 0.9500
C11 C12 1.509(2)
C12 H12A 0.9900
C12 H12B 0.9900
C13 H13A 0.9800
C13 H13B 0.9800
C13 H13C 0.9800
C14 H14A 0.9800
C14 H14B 0.9800
C14 H14C 0.9800
