#------------------------------------------------------------------------------
#$Date: 2016-01-06 12:23:39 +0200 (Wed, 06 Jan 2016) $
#$Revision: 173591 $
#$URL: svn://www.crystallography.net/cod/cif/4/03/17/4031750.cif $
#------------------------------------------------------------------------------
#
# This file is available in the Crystallography Open Database (COD),
# http://www.crystallography.net/
#
# All data on this site have been placed in the public domain by the
# contributors.
#
data_4031750
loop_
_publ_author_name
'Chang, Deng-Hsiang'
'Ou, Chun-Lin'
'Hsu, Hung-Yu'
'Huang, Guan-Jhih'
'Kao, Chen-Yi'
'Liu, Yi-Hung'
'Peng, Shie-Ming'
'Diau, Eric Wei-Guang'
'Yang, Jye-Shane'
_publ_section_title
;
 Cooperativity and Site-Selectivity of Intramolecular Hydrogen Bonds on
 the Fluorescence Quenching of Modified GFP Chromophores.
;
_journal_issue                   24
_journal_name_full               'The Journal of organic chemistry'
_journal_page_first              12431
_journal_page_last               12443
_journal_paper_doi               10.1021/acs.joc.5b02303
_journal_volume                  80
_journal_year                    2015
_chemical_formula_sum            'C15 H19 N3 O2'
_chemical_formula_weight         273.33
_chemical_name_systematic
; 
 ? 
;
_space_group_IT_number           4
_symmetry_cell_setting           monoclinic
_symmetry_space_group_name_Hall  'P 2yb'
_symmetry_space_group_name_H-M   'P 1 21 1'
_atom_sites_solution_hydrogens   geom
_atom_sites_solution_primary     direct
_atom_sites_solution_secondary   difmap
_audit_creation_method           SHELXL-97
_cell_angle_alpha                90.00
_cell_angle_beta                 95.575(2)
_cell_angle_gamma                90.00
_cell_formula_units_Z            2
_cell_length_a                   9.4598(2)
_cell_length_b                   7.61760(10)
_cell_length_c                   10.0179(2)
_cell_measurement_reflns_used    4574
_cell_measurement_temperature    295(2)
_cell_measurement_theta_max      77.4365
_cell_measurement_theta_min      4.4385
_cell_volume                     718.48(2)
_computing_cell_refinement
; 
CrysAlisPro, Oxford Diffraction Ltd., 
Version 1.171.33.41 (release 06-05-2009 CrysAlis171 .NET) 
(compiled May  6 2009,17:20:42) 
Empirical absorption correction using spherical harmonics, 
 implemented in SCALE3 ABSPACK scaling algorithm. 
;
_computing_data_collection
; 
CrysAlisPro, Oxford Diffraction Ltd., 
Version 1.171.33.41 (release 06-05-2009 CrysAlis171 .NET) 
(compiled May  6 2009,17:20:42) 
Empirical absorption correction using spherical harmonics, 
 implemented in SCALE3 ABSPACK scaling algorithm. 
;
_computing_data_reduction
; 
CrysAlisPro, Oxford Diffraction Ltd., 
Version 1.171.33.41 (release 06-05-2009 CrysAlis171 .NET) 
(compiled May  6 2009,17:20:42) 
Empirical absorption correction using spherical harmonics, 
 implemented in SCALE3 ABSPACK scaling algorithm. 
;
_computing_molecular_graphics    SHELXTL
_computing_publication_material  SHELXTL
_computing_structure_refinement  'SHELXL-97 (Sheldrick, 1997)'
_computing_structure_solution    'SHELXS-97 (Sheldrick, 1990)'
_diffrn_ambient_temperature      295(2)
_diffrn_measured_fraction_theta_full 1.000
_diffrn_measured_fraction_theta_max 1.001
_diffrn_measurement_device_type  'Oxford Diffraction Gemini A'
_diffrn_measurement_method       CCD
_diffrn_radiation_monochromator  graphite
_diffrn_radiation_source         'fine-focus sealed tube'
_diffrn_radiation_type           CuK\a
_diffrn_radiation_wavelength     1.54178
_diffrn_reflns_av_R_equivalents  0.0143
_diffrn_reflns_av_sigmaI/netI    0.0127
_diffrn_reflns_limit_h_max       11
_diffrn_reflns_limit_h_min       -10
_diffrn_reflns_limit_k_max       9
_diffrn_reflns_limit_k_min       -9
_diffrn_reflns_limit_l_max       12
_diffrn_reflns_limit_l_min       -11
_diffrn_reflns_number            4668
_diffrn_reflns_theta_full        67.97
_diffrn_reflns_theta_max         67.97
_diffrn_reflns_theta_min         4.43
_exptl_absorpt_coefficient_mu    0.693
_exptl_absorpt_correction_T_max  1.00000
_exptl_absorpt_correction_T_min  0.75593
_exptl_absorpt_correction_type   multi-scan
_exptl_absorpt_process_details
; 
CrysAlisPro, Oxford Diffraction Ltd., 
Version 1.171.33.41 (release 06-05-2009 CrysAlis171 .NET) 
(compiled May  6 2009,17:20:42) 
Empirical absorption correction using spherical harmonics, 
 implemented in SCALE3 ABSPACK scaling algorithm. 
;
_exptl_crystal_density_diffrn    1.263
_exptl_crystal_density_method    'not measured'
_exptl_crystal_description       plate
_exptl_crystal_F_000             292
_exptl_crystal_size_max          0.25
_exptl_crystal_size_mid          0.20
_exptl_crystal_size_min          0.15
_refine_diff_density_max         0.183
_refine_diff_density_min         -0.161
_refine_diff_density_rms         0.036
_refine_ls_abs_structure_details 'Flack H D (1983), Acta Cryst. A39, 876-881'
_refine_ls_abs_structure_Flack   0.0(2)
_refine_ls_extinction_coef       0.018(2)
_refine_ls_extinction_expression Fc^*^=kFc[1+0.001xFc^2^\l^3^/sin(2\q)]^-1/4^
_refine_ls_extinction_method     SHELXL
_refine_ls_goodness_of_fit_ref   0.786
_refine_ls_hydrogen_treatment    mixed
_refine_ls_matrix_type           full
_refine_ls_number_parameters     185
_refine_ls_number_reflns         2566
_refine_ls_number_restraints     1
_refine_ls_restrained_S_all      0.786
_refine_ls_R_factor_all          0.0373
_refine_ls_R_factor_gt           0.0365
_refine_ls_shift/su_max          0.036
_refine_ls_shift/su_mean         0.003
_refine_ls_structure_factor_coef Fsqd
_refine_ls_weighting_details
'calc w=1/[\s^2^(Fo^2^)+(0.1254P)^2^+0.0645P] where P=(Fo^2^+2Fc^2^)/3'
_refine_ls_weighting_scheme      calc
_refine_ls_wR_factor_gt          0.1129
_refine_ls_wR_factor_ref         0.1146
_reflns_number_gt                2491
_reflns_number_total             2566
_reflns_threshold_expression     >2sigma(I)
_cod_data_source_file            jo5b02303_si_002.cif
_cod_data_source_block           ic13896
_cod_depositor_comments
;
The following automatic conversions were performed:

'_symmetry_cell_setting' value 'Monoclinic' changed to 'monoclinic'
according to
/usr/data/users/saulius/crontab/automatic-downloads/rss-feeds/ACS/lib/dictionaries/cif_core.dic
dictionary named 'cif_core.dic' version 2.4.2 from 2011-04-26.

Automatic conversion script
Id: cif_fix_values 4268 2015-11-12 08:31:59Z antanas 

 Adding full bibliography for 4031750--4031752.cif.
;
_cod_original_sg_symbol_H-M      P2(1)
_cod_database_code               4031750
loop_
_symmetry_equiv_pos_as_xyz
'x, y, z'
'-x, y+1/2, -z'
loop_
_atom_site_label
_atom_site_type_symbol
_atom_site_fract_x
_atom_site_fract_y
_atom_site_fract_z
_atom_site_U_iso_or_equiv
_atom_site_adp_type
_atom_site_occupancy
_atom_site_symmetry_multiplicity
_atom_site_calc_flag
_atom_site_refinement_flags
O1 O 0.93058(13) 0.4399(2) 0.50132(13) 0.0567(4) Uani 1 1 d .
O2 O 0.58987(19) 0.5950(2) 0.68085(19) 0.0726(5) Uani 1 1 d .
H2 H 0.525(4) 0.683(5) 0.680(3) 0.109 Uiso 1 1 d .
N1 N 0.61358(14) 0.37750(19) 0.28846(14) 0.0421(3) Uani 1 1 d .
N2 N 0.71657(13) 0.57541(18) 0.43322(13) 0.0400(3) Uani 1 1 d .
N3 N 0.9060(2) -0.4163(2) 0.13598(19) 0.0625(5) Uani 1 1 d .
C1 C 0.60089(16) 0.5286(2) 0.34697(15) 0.0410(3) Uani 1 1 d .
C2 C 0.81512(16) 0.4423(2) 0.43443(15) 0.0403(3) Uani 1 1 d .
C3 C 0.74816(15) 0.3127(2) 0.33797(14) 0.0377(3) Uani 1 1 d .
C4 C 0.81357(15) 0.1634(2) 0.30872(14) 0.0386(3) Uani 1 1 d .
H4A H 0.9003 0.1442 0.3587 0.046 Uiso 1 1 calc R
C5 C 0.77138(15) 0.0262(2) 0.21165(13) 0.0355(3) Uani 1 1 d .
C6 C 0.85373(15) -0.1259(2) 0.21637(15) 0.0377(3) Uani 1 1 d .
H6A H 0.9311 -0.1347 0.2808 0.045 Uiso 1 1 calc R
C7 C 0.82404(17) -0.2655(2) 0.12759(16) 0.0418(3) Uani 1 1 d .
C8 C 0.70571(18) -0.2489(2) 0.03183(16) 0.0452(4) Uani 1 1 d .
H8A H 0.6816 -0.3400 -0.0279 0.054 Uiso 1 1 calc R
C9 C 0.62504(17) -0.0965(2) 0.02658(15) 0.0460(4) Uani 1 1 d .
H9A H 0.5479 -0.0870 -0.0381 0.055 Uiso 1 1 calc R
C10 C 0.65525(16) 0.0414(2) 0.11388(15) 0.0408(3) Uani 1 1 d .
H10A H 0.5998 0.1425 0.1081 0.049 Uiso 1 1 calc R
C11 C 0.4729(2) 0.6429(3) 0.3246(2) 0.0616(5) Uani 1 1 d .
H11A H 0.4041 0.5879 0.2613 0.092 Uiso 1 1 calc R
H11B H 0.4995 0.7545 0.2902 0.092 Uiso 1 1 calc R
H11C H 0.4327 0.6600 0.4081 0.092 Uiso 1 1 calc R
C12 C 0.73436(18) 0.7277(2) 0.52190(16) 0.0451(4) Uani 1 1 d .
H12A H 0.6636 0.8156 0.4933 0.054 Uiso 1 1 calc R
H12B H 0.8275 0.7789 0.5160 0.054 Uiso 1 1 calc R
C13 C 0.7191(2) 0.6761(3) 0.66619(18) 0.0546(4) Uani 1 1 d .
H13A H 0.7957 0.5968 0.6970 0.066 Uiso 1 1 calc R
H13B H 0.7277 0.7802 0.7221 0.066 Uiso 1 1 calc R
C14 C 1.0486(2) -0.4121(3) 0.2040(3) 0.0740(6) Uani 1 1 d .
H14A H 1.0557 -0.3189 0.2687 0.111 Uiso 1 1 calc R
H14B H 1.1158 -0.3927 0.1395 0.111 Uiso 1 1 calc R
H14C H 1.0688 -0.5221 0.2486 0.111 Uiso 1 1 calc R
C15 C 0.8795(3) -0.5512(3) 0.0346(2) 0.0750(7) Uani 1 1 d .
H15A H 0.7829 -0.5434 -0.0043 0.113 Uiso 1 1 calc R
H15B H 0.8957 -0.6646 0.0750 0.113 Uiso 1 1 calc R
H15C H 0.9425 -0.5349 -0.0340 0.113 Uiso 1 1 calc R
loop_
_atom_site_aniso_label
_atom_site_aniso_U_11
_atom_site_aniso_U_22
_atom_site_aniso_U_33
_atom_site_aniso_U_23
_atom_site_aniso_U_13
_atom_site_aniso_U_12
O1 0.0468(6) 0.0632(8) 0.0558(7) -0.0181(6) -0.0174(5) 0.0041(6)
O2 0.0835(10) 0.0509(8) 0.0900(11) -0.0012(8) 0.0427(9) -0.0027(7)
N1 0.0386(6) 0.0388(7) 0.0465(7) -0.0066(5) -0.0072(5) 0.0033(5)
N2 0.0463(6) 0.0345(7) 0.0389(7) -0.0071(5) 0.0023(5) -0.0016(5)
N3 0.0766(11) 0.0423(9) 0.0683(10) -0.0058(8) 0.0058(8) 0.0167(8)
C1 0.0419(7) 0.0377(7) 0.0426(7) -0.0006(6) -0.0002(6) 0.0033(6)
C2 0.0400(7) 0.0429(8) 0.0369(7) -0.0056(6) -0.0023(6) -0.0019(6)
C3 0.0372(7) 0.0389(7) 0.0351(7) -0.0023(6) -0.0053(5) 0.0009(6)
C4 0.0376(7) 0.0399(8) 0.0367(7) -0.0019(6) -0.0044(5) 0.0017(6)
C5 0.0372(6) 0.0357(7) 0.0333(7) -0.0006(6) 0.0018(5) 0.0012(5)
C6 0.0380(6) 0.0393(7) 0.0354(7) 0.0033(6) 0.0015(5) 0.0044(6)
C7 0.0491(8) 0.0370(8) 0.0409(7) 0.0014(6) 0.0116(6) 0.0024(6)
C8 0.0559(9) 0.0403(8) 0.0394(7) -0.0089(6) 0.0038(6) -0.0051(7)
C9 0.0473(8) 0.0502(11) 0.0385(7) -0.0049(7) -0.0061(6) -0.0016(7)
C10 0.0415(7) 0.0379(8) 0.0413(7) -0.0032(6) -0.0046(6) 0.0044(6)
C11 0.0543(10) 0.0494(11) 0.0780(13) -0.0127(9) -0.0098(9) 0.0155(8)
C12 0.0537(8) 0.0367(8) 0.0452(8) -0.0113(7) 0.0067(6) -0.0093(6)
C13 0.0626(10) 0.0564(11) 0.0460(9) -0.0117(8) 0.0113(7) -0.0040(9)
C14 0.0711(13) 0.0598(13) 0.0914(16) 0.0127(12) 0.0089(11) 0.0301(11)
C15 0.1138(19) 0.0455(11) 0.0683(13) -0.0096(9) 0.0221(13) 0.0220(12)
loop_
_atom_type_symbol
_atom_type_description
_atom_type_scat_dispersion_real
_atom_type_scat_dispersion_imag
_atom_type_scat_source
C C 0.0181 0.0091 'International Tables Vol C Tables 4.2.6.8 and 6.1.1.4'
H H 0.0000 0.0000 'International Tables Vol C Tables 4.2.6.8 and 6.1.1.4'
N N 0.0311 0.0180 'International Tables Vol C Tables 4.2.6.8 and 6.1.1.4'
O O 0.0492 0.0322 'International Tables Vol C Tables 4.2.6.8 and 6.1.1.4'
loop_
_geom_angle_atom_site_label_1
_geom_angle_atom_site_label_2
_geom_angle_atom_site_label_3
_geom_angle
C1 N1 C3 105.71(13)
C1 N2 C2 108.16(12)
C1 N2 C12 128.77(13)
C2 N2 C12 122.80(13)
C7 N3 C15 119.25(18)
C7 N3 C14 120.02(18)
C15 N3 C14 115.67(19)
N1 C1 N2 114.19(13)
N1 C1 C11 123.91(15)
N2 C1 C11 121.90(15)
O1 C2 N2 125.65(15)
O1 C2 C3 130.51(16)
N2 C2 C3 103.84(12)
C4 C3 N1 129.81(14)
C4 C3 C2 122.10(13)
N1 C3 C2 108.09(14)
C3 C4 C5 130.70(13)
C6 C5 C10 119.28(14)
C6 C5 C4 117.22(13)
C10 C5 C4 123.48(14)
C5 C6 C7 122.26(14)
N3 C7 C6 121.09(16)
N3 C7 C8 121.32(16)
C6 C7 C8 117.57(15)
C9 C8 C7 119.94(15)
C10 C9 C8 122.28(14)
C9 C10 C5 118.65(14)
N2 C12 C13 110.91(14)
O2 C13 C12 112.43(16)
loop_
_geom_bond_atom_site_label_1
_geom_bond_atom_site_label_2
_geom_bond_distance
O1 C2 1.2248(19)
O2 C13 1.390(2)
N1 C1 1.302(2)
N1 C3 1.4099(19)
N2 C1 1.3739(19)
N2 C2 1.377(2)
N2 C12 1.4612(19)
N3 C7 1.383(2)
N3 C15 1.450(3)
N3 C14 1.452(3)
C1 C11 1.490(2)
C2 C3 1.480(2)
C3 C4 1.341(2)
C4 C5 1.456(2)
C5 C6 1.394(2)
C5 C10 1.404(2)
C6 C7 1.397(2)
C7 C8 1.407(2)
C8 C9 1.388(3)
C9 C10 1.379(2)
C12 C13 1.518(2)
