#------------------------------------------------------------------------------
#$Date: 2016-04-04 08:24:45 +0300 (Mon, 04 Apr 2016) $
#$Revision: 181357 $
#$URL: svn://www.crystallography.net/cod/cif/4/03/19/4031954.cif $
#------------------------------------------------------------------------------
#
# This file is available in the Crystallography Open Database (COD),
# http://www.crystallography.net/
#
# All data on this site have been placed in the public domain by the
# contributors.
#
data_4031954
loop_
_publ_author_name
'Li, Yanan'
'Hu, Yanbin'
'Zhang, Sheng'
'Sun, Jianan'
'Li, Lijun'
'Zha, Zhenggen'
'Wang, Zhiyong'
_publ_section_title
;
 Copper-Catalyzed Enantioselective Hetero-Diels-Alder Reaction of
 Danishefsky's Diene with Glyoxals.
;
_journal_issue                   7
_journal_name_full               'The Journal of organic chemistry'
_journal_page_first              2993
_journal_page_last               2999
_journal_paper_doi               10.1021/acs.joc.5b02780
_journal_volume                  81
_journal_year                    2016
_chemical_absolute_configuration ad
_chemical_formula_sum            'C12 H9 Br O3'
_chemical_formula_weight         281.10
_chemical_name_systematic
;
 ?
;
_space_group_crystal_system      monoclinic
_space_group_IT_number           4
_space_group_name_Hall           'P 2yb'
_space_group_name_H-M_alt        'P 1 21 1'
_symmetry_space_group_name_Hall  'P 2yb'
_symmetry_space_group_name_H-M   'P 1 21 1'
_atom_sites_solution_hydrogens   geom
_audit_creation_method           SHELXL-2013
_cell_angle_alpha                90
_cell_angle_beta                 91.708(5)
_cell_angle_gamma                90
_cell_formula_units_Z            2
_cell_length_a                   5.3040(3)
_cell_length_b                   6.0907(3)
_cell_length_c                   16.9947(10)
_cell_measurement_reflns_used    1328
_cell_measurement_temperature    290(2)
_cell_measurement_theta_max      69.0880
_cell_measurement_theta_min      5.2000
_cell_volume                     548.77(5)
_computing_cell_refinement       'CrysAlisPro (Agilent Technologies)'
_computing_data_collection       'CrysAlisPro (Agilent Technologies)'
_computing_data_reduction        'CrysAlisPro (Agilent Technologies)'
_computing_molecular_graphics    'Ortep-3 (L. J. Farrugia, 2001)'
_computing_publication_material  SHELXL-2013
_computing_structure_refinement  'SHELXL-2013 (Sheldrick, 2013)'
_computing_structure_solution    'SHELXS-97 (Sheldrick, 1997)'
_diffrn_ambient_temperature      290(2)
_diffrn_detector_area_resol_mean 15.9149
_diffrn_measured_fraction_theta_full 0.967
_diffrn_measured_fraction_theta_max 0.958
_diffrn_measurement_device_type  'Gemini S Ultra, Agilent Technologies'
_diffrn_measurement_method       '\w scans'
_diffrn_radiation_type           CuK\a
_diffrn_radiation_wavelength     1.54184
_diffrn_reflns_av_R_equivalents  0.0562
_diffrn_reflns_av_unetI/netI     0.0525
_diffrn_reflns_laue_measured_fraction_full 0.967
_diffrn_reflns_laue_measured_fraction_max 0.958
_diffrn_reflns_limit_h_max       6
_diffrn_reflns_limit_h_min       -6
_diffrn_reflns_limit_k_max       7
_diffrn_reflns_limit_k_min       -3
_diffrn_reflns_limit_l_max       19
_diffrn_reflns_limit_l_min       -20
_diffrn_reflns_number            1854
_diffrn_reflns_point_group_measured_fraction_full 0.679
_diffrn_reflns_point_group_measured_fraction_max 0.669
_diffrn_reflns_theta_full        67.684
_diffrn_reflns_theta_max         69.220
_diffrn_reflns_theta_min         5.208
_diffrn_source                   'Enhance Ultra (Cu) X-ray Source'
_exptl_absorpt_coefficient_mu    5.028
_exptl_absorpt_correction_T_max  1.00000
_exptl_absorpt_correction_T_min  0.64716
_exptl_absorpt_correction_type   multi-scan
_exptl_absorpt_process_details
;
CrysAlisPro, Agilent Technologies,
Version 1.171.37.35 (release 13-08-2014 CrysAlis171 .NET)
(compiled Aug 13 2014,18:06:01)
Empirical absorption correction using spherical harmonics,
 implemented in SCALE3 ABSPACK scaling algorithm.
;
_exptl_crystal_density_diffrn    1.701
_exptl_crystal_description       block
_exptl_crystal_F_000             280
_exptl_crystal_size_max          0.320
_exptl_crystal_size_mid          0.310
_exptl_crystal_size_min          0.280
_refine_diff_density_max         0.813
_refine_diff_density_min         -0.893
_refine_diff_density_rms         0.129
_refine_ls_abs_structure_details
;
 Flack x determined using 266 quotients [(I+)-(I-)]/[(I+)+(I-)]
 (Parsons and Flack (2004), Acta Cryst. A60, s61).
;
_refine_ls_abs_structure_Flack   -0.01(4)
_refine_ls_extinction_method     none
_refine_ls_goodness_of_fit_ref   1.027
_refine_ls_hydrogen_treatment    constr
_refine_ls_matrix_type           full
_refine_ls_number_parameters     145
_refine_ls_number_reflns         1377
_refine_ls_number_restraints     1
_refine_ls_restrained_S_all      1.026
_refine_ls_R_factor_all          0.0667
_refine_ls_R_factor_gt           0.0661
_refine_ls_shift/su_max          0.000
_refine_ls_shift/su_mean         0.000
_refine_ls_structure_factor_coef Fsqd
_refine_ls_weighting_details
'w=1/[\s^2^(Fo^2^)+(0.0851P)^2^+2.0456P] where P=(Fo^2^+2Fc^2^)/3'
_refine_ls_weighting_scheme      calc
_refine_ls_wR_factor_gt          0.1676
_refine_ls_wR_factor_ref         0.1681
_reflns_Friedel_coverage         0.268
_reflns_friedel_fraction_full    0.324
_reflns_friedel_fraction_max     0.315
_reflns_number_gt                1325
_reflns_number_total             1377
_reflns_threshold_expression     'I > 2\s(I)'
_cod_data_source_file            jo5b02780_si_002.cif
_cod_data_source_block           shelxl
_cod_database_code               4031954
_shelx_space_group_comment
;
The symmetry employed for this shelxl refinement is uniquely defined
by the following loop, which should always be used as a source of
symmetry information in preference to the above space-group names.
They are only intended as comments.
;
_shelx_estimated_absorpt_t_min   0.296
_shelx_estimated_absorpt_t_max   0.333
_shelxl_version_number           2013-4
_shelx_res_file
;
TITL LYN15101201 in P2(1)
CELL  1.54184   5.3040   6.0907  16.9947   90.000   91.708   90.000
ZERR     2.00   0.0003   0.0003   0.0010    0.000    0.005    0.000
LATT  -1
SYMM  - X, 1/2 + Y, - Z
SFAC  C    H    O    BR
UNIT  24  18   6    2
MERG   2
FMAP   2
PLAN   25
L.S.   4
acta
bond $H
conf
size 0.32 0.31 0.28
WGHT    0.085100    2.045600
FVAR      14.65634
BR1   4    1.921856    2.319463    0.440551    11.00000    0.07666    0.05513 =
         0.06176   -0.01022    0.00108   -0.00695
O2    3    1.642284    1.628349    0.121614    11.00000    0.06218    0.05001 =
         0.05638    0.00156    0.00950   -0.01380
O3    3    1.130656    1.123611    0.098549    11.00000    0.05363    0.05793 =
         0.11146   -0.00907   -0.00867   -0.00929
C11   1    1.248091    1.488811    0.072158    11.00000    0.05026    0.05575 =
         0.05937    0.00105   -0.00218    0.01495
AFIX  43
H11   2    1.096524    1.520309    0.045618    11.00000   -1.20000
AFIX   0
C4    1    1.620612    1.723072    0.292850    11.00000    0.03501    0.04958 =
         0.04243    0.00804   -0.00010   -0.00248
O1    3    1.332813    1.435385    0.272132    11.00000    0.07790    0.07774 =
         0.07825   -0.01925    0.02851   -0.04347
C9    1    1.538859    1.238644    0.144462    11.00000    0.04385    0.03453 =
         0.07587   -0.00980   -0.00662    0.01190
AFIX  23
H9A   2    1.652919    1.176219    0.106908    11.00000   -1.20000
H9B   2    1.522011    1.134149    0.187057    11.00000   -1.20000
AFIX   0
C10   1    1.285431    1.273998    0.104773    11.00000    0.04284    0.04533 =
         0.06103   -0.00948    0.00210    0.00457
C1    1    1.796999    2.076885    0.380433    11.00000    0.04742    0.04150 =
         0.04434    0.01137   -0.00537    0.00769
C2    1    1.925019    2.017836    0.314953    11.00000    0.04153    0.04698 =
         0.05065    0.00060    0.00394   -0.00041
AFIX  43
H2    2    2.066838    2.094989    0.299758    11.00000   -1.20000
AFIX   0
C6    1    1.588811    1.969392    0.405127    11.00000    0.05436    0.05773 =
         0.04471   -0.01853    0.00558   -0.00387
AFIX  43
H6    2    1.506677    2.017081    0.449595    11.00000   -1.20000
AFIX   0
C5    1    1.498807    1.785251    0.362739    11.00000    0.04680    0.04457 =
         0.05071   -0.00711    0.01121   -0.00828
AFIX  43
H5    2    1.361764    1.705631    0.380243    11.00000   -1.20000
AFIX   0
C8    1    1.650536    1.449454    0.176987    11.00000    0.03873    0.03560 =
         0.05857   -0.00173    0.00225   -0.00189
AFIX  13
H8    2    1.827953    1.421291    0.191291    11.00000   -1.20000
AFIX   0
C12   1    1.420253    1.642170    0.078484    11.00000    0.07798    0.04615 =
         0.05099    0.01251    0.01786    0.00765
AFIX  43
H12   2    1.389207    1.772314    0.051264    11.00000   -1.20000
AFIX   0
C3    1    1.834998    1.837500    0.271762    11.00000    0.03953    0.05155 =
         0.04958    0.01732    0.00743    0.00052
AFIX  43
H3    2    1.921000    1.792763    0.227643    11.00000   -1.20000
AFIX   0
C7    1    1.518282    1.528415    0.252037    11.00000    0.04102    0.03943 =
         0.05231    0.00284   -0.00088   -0.00373
HKLF    4

REM  LYN15101201 in P2(1)
REM R1 =  0.0661 for    1325 Fo > 4sig(Fo)  and  0.0667 for all    1377 data
REM    145 parameters refined using      1 restraints

END

WGHT      0.1392      0.1017

REM Highest difference peak  0.813,  deepest hole -0.893,  1-sigma level  0.129
Q1    1   1.9108  2.3229  0.5056  11.00000  0.05    0.81
Q2    1   1.9383  2.3172  0.3738  11.00000  0.05    0.69
Q3    1   2.0491  2.3204  0.2554  11.00000  0.05    0.51
Q4    1   1.6891  2.3321  0.4560  11.00000  0.05    0.50
Q5    1   1.0877  1.8286  0.4021  11.00000  0.05    0.48
Q6    1   1.9264  2.5731  0.4336  11.00000  0.05    0.45
Q7    1   1.7767  1.8239  0.4402  11.00000  0.05    0.43
Q8    1   1.4010  1.8180  0.4418  11.00000  0.05    0.43
Q9    1   1.2231  1.2857  0.3227  11.00000  0.05    0.42
Q10   1   1.1965  1.7062  0.4540  11.00000  0.05    0.41
Q11   1   1.8895  2.2336  0.2942  11.00000  0.05    0.40
Q12   1   2.1370  2.3385  0.4319  11.00000  0.05    0.40
Q13   1   1.1728  1.3939  0.3184  11.00000  0.05    0.39
Q14   1   1.9445  1.9861  0.3628  11.00000  0.05    0.37
Q15   1   1.5062  1.4060  0.2827  11.00000  0.05    0.36
Q16   1   1.2746  1.8148  0.3649  11.00000  0.05    0.36
Q17   1   0.9573  1.6960  0.3825  11.00000  0.05    0.36
Q18   1   2.1246  2.4821  0.4666  11.00000  0.05    0.35
Q19   1   1.4271  1.8087  0.1169  11.00000  0.05    0.35
Q20   1   1.8158  2.1119  0.4144  11.00000  0.05    0.34
Q21   1   1.7418  1.7129  0.4014  11.00000  0.05    0.34
Q22   1   1.6112  1.3231  0.3125  11.00000  0.05    0.34
Q23   1   1.7538  1.3266  0.2424  11.00000  0.05    0.34
Q24   1   1.9163  1.3615  0.2796  11.00000  0.05    0.34
Q25   1   1.5108  1.2506  0.2976  11.00000  0.05    0.32
;
_shelx_res_checksum              37019
_shelx_hkl_file
;
   0  -2   0 208580. 4597.51  15
   0  -2  -1 737557. 14142.4  15
   0  -2  -2 230469. 4667.43  17
   0  -2  -2 198621. 5189.59  15
   0  -2  -3 87369.5 3149.77  15
   0  -2  -3 114743. 3125.13  17
   0  -2  -4 190802. 5030.69  17
   0  -2  -4 151121. 5192.88  15
   0  -2  -5 108990. 4804.92  15
   0  -2  -5 102077. 3860.36  17
   0  -2  -6 45796.9 3110.15  15
   0  -2  -6 30599.7 2169.63  17
   0  -2  -7 292747. 8845.30  17
   0  -2  -7 323803. 9899.69  15
   0  -2  -8 252849. 8728.85  15
   0  -2  -8 237091. 8025.76  17
   0  -2  -9 195183. 7484.59  17
   0  -2  -9 197002. 7955.70  15
   0  -2 -10 155402. 6887.14  17
   0  -2 -11 71194.0 4757.10  17
   0  -2 -12 31561.2 2092.20   9
   0  -2 -13 17230.8 1565.20   9
   0  -2 -14 40594.1 2493.98   9
   0  -2 -15 31350.1 2144.37   9
   0  -2 -16 4810.29 785.212   9
   0  -2 -17 12360.4 1212.82   9
   0  -1   0 38.2653 33.2957  15
   0  -1  -1 178309. 3479.57  17
   0  -1  -1 157608. 3701.93  15
   0  -1   2 216463. 4684.83  19
   0  -1  -2 216045. 4820.29  15
   0  -1   3 362177. 9579.06  19
   0  -1  -3 654671. 10347.7  15
   0  -1  -4 707201. 15350.7  15
   0  -1   5 563859. 12206.3  19
   0  -1  -5 572550. 12200.2  17
   0  -1  -6 438819. 11367.4  15
   0  -1  -6 432712. 10486.3  17
   0  -1   6 415548. 10345.1  19
   0  -1  -7 103197. 4390.65  17
   0  -1   7 96968.1 4182.29  19
   0  -1  -8 16574.3 1763.92  17
   0  -1  -8 16625.7 1873.95  15
   0  -1  -9 22696.1 2277.23  17
   0  -1 -10 86881.3 4973.26  17
   0  -1 -11 182682. 7989.68  17
   0  -1 -12 147100. 7318.74  17
   0  -1 -13 51465.9 2872.88   9
   0  -1 -14 56363.2 3087.33   9
   0  -1 -15 28266.5 2125.50   9
   0  -1 -16 4516.48 813.835   9
   0  -1 -17 3166.29 660.451   9
   0  -1 -18 7227.72 929.519   9
   0   0  -2 14534.3 888.367  15
   0   0  -3 64112.5 2419.36  15
   0   0  -4 303384. 7442.76  15
   0   0  -5 203438. 5927.11  15
   0   0  -6 999999. 20955.5  15
   0   0   7 570739. 13572.2  19
   0   0  -7 560072. 13489.9  17
   0   0   8 186088. 6539.83  19
   0   0  -8 178791. 6489.00  17
   0   0  -9 117187. 5424.58  17
   0   0 -10 75476.0 4573.69  17
   0   0 -11 185459. 8093.73  17
   0   0 -12 9842.61 1787.73  17
   0   0 -13 3648.00 730.477   9
   0   0 -14 11623.3 1361.70   9
   0   0 -15 23697.4 1972.10   9
   0   0 -16 47478.8 2813.21   9
   0   0 -17 19993.0 1711.97   9
   0   0 -18 8918.18 1063.70   9
   0   0 -19 4204.57 646.660   9
   0   0 -20 152.231 100.273   3
   0   1   1 181912. 3682.54  19
   0   1   2 157682. 3902.88  19
   0   1   3 436554. 9385.46  19
   0   1   4 904046. 18329.3  19
   0   1   5 639204. 13554.4  19
   0   1  -5 603760. 13253.0  17
   0   1  -6 438149. 10501.1  17
   0   1   6 416346. 10472.4  19
   0   1   7 114496. 4647.78  19
   0   1  -7 112226. 4594.54  17
   0   1  -8 16282.0 1776.25  17
   0   1  -9 22402.5 2270.82  17
   0   1 -10 77763.8 4732.52  17
   0   1 -11 186639. 8059.07  17
   0   1 -12 163952. 7832.83  17
   0   1 -13 56392.2 3027.99   9
   0   1 -14 62556.7 3272.56   9
   0   1 -15 30700.7 2231.35   9
   0   1 -16 4498.99 801.049   9
   0   1 -17 2778.75 617.133   9
   0   1 -18 7331.52 931.886   9
   0   1 -20 8322.73 851.482   3
   0   2   0 186718. 5154.50  18
   0   2  -1 722527. 14710.2  18
   0   2  -2 197513. 3980.57  17
   0   2   2 193119. 5599.51  18
   0   2  -2 193352. 5220.82  18
   0   2   3 104976. 4036.83  18
   0   2  -3 118851. 3124.66  17
   0   2  -4 207914. 5364.84  17
   0   2   4 209439. 6414.20  18
   0   2  -5 132152. 4439.21  17
   0   2  -6 27254.0 2008.16  17
   0   2  -7 265488. 8147.58  17
   0   2  -8 241437. 8064.41  17
   0   2  -9 174698. 7004.93  17
   0   2 -10 130627. 6322.13  17
   0   2 -11 70177.7 4733.00  17
   0   2  12 37552.0 2293.21  13
   0   2 -13 16464.2 1549.61   9
   0   2  13 20210.9 1659.75  13
   0   2 -14 40985.0 2521.12   9
   0   2 -15 32012.7 2169.69   9
   0   2 -16 6077.01 894.866   9
   0   2 -17 13407.0 1254.93   9
   0   2  18 17870.4 1583.48  12
   0   2 -19 2113.77 442.218   3
   0   2  19 2375.17 460.441  12
   0   3   0 33.4864 88.0542  18
   0   3  -1 27251.6 1980.99  18
   0   3   1 26599.9 2075.86  18
   0   3   2 242611. 7538.83  18
   0   3  -2 239783. 7079.70  18
   0   3   3 436103. 11493.0  18
   0   3   4 271155. 8480.83  18
   0   3   5 105430. 5004.17  18
   0   3   6 224059. 8085.74  18
   0   3   7 42589.7 3318.86  18
   0   3   8 4815.65 1146.90  18
   0   3   9 14824.3 2107.85  18
   0   3  10 161588. 5566.86  13
   0   3  11 23085.5 1895.61  13
   0   3  12 29532.7 2180.52  13
   0   3  13 50170.2 2874.34  13
   0   3  14 34613.8 2296.44  13
   0   3  16 5074.53 968.568  12
   0   3  17 714.061 312.644  12
   0   3 -18 557.297 222.588   3
   0   3  18 1051.38 324.660  12
   0   4   0 143987. 6174.14  18
   0   4  -1 185054. 7069.52  18
   0   4   1 185342. 7257.56  18
   0   4   2 105152. 5366.37  18
   0   4   3 13291.6 1872.41  18
   0   4   4 4137.72 1070.11  18
   0   4   5 9695.41 1691.04  18
   0   4   6 55865.0 3221.15   7
   0   4  -6 71310.2 2962.95  10
   0   4   7 48428.4 3103.34  12
   0   4  -7 39944.9 2168.22  10
   0   4   7 30480.2 2190.74  13
   0   4   7 20676.6 1945.54   7
   0   4   8 27138.1 2405.53  12
   0   4   8 27266.2 2253.70   7
   0   4   8 27144.9 2098.82  13
   0   4   9 112091. 4498.80  13
   0   4   9 117754. 4823.53   7
   0   4  10 57667.3 3784.13  12
   0   4  10 70637.5 3740.19   7
   0   4  10 64240.0 3453.35  13
   0   4  11 23024.9 1985.86  13
   0   4  11 24179.1 2106.76   7
   0   4  11 24875.9 2443.68  12
   0   4  12 6967.10 1076.32   7
   0   4  12 6530.47 1021.94  13
   0   4  12 7770.04 1313.73  12
   0   4  13 7592.38 1068.68   7
   0   4  13 8604.46 1341.05  12
   0   4  14 5244.63 815.539   7
   0   4  14 5404.67 990.762  12
   0   4  15 15437.7 1546.22  12
   0   4  16 20387.3 1607.68  12
   0   4  17 17668.8 1289.12  12
   0   5   0-58.4008 163.170  11
   0   5   1 5800.43 946.448  11
   0   5  -1 6291.09 976.536  11
   0   5  -1 6745.94 947.779  10
   0   5   1 6933.51 1016.00   7
   0   5  -2 72747.9 3499.79  11
   0   5  -2 72538.8 3369.49  10
   0   5   2 74619.4 3682.44   7
   0   5  -3 65607.0 3330.81  11
   0   5   3 68484.3 3582.45   7
   0   5  -3 68997.5 3238.65  10
   0   5  -4 70471.9 3287.54  10
   0   5   4 75728.7 3859.83   7
   0   5  -5 103606. 4079.85  10
   0   5   5 106512. 4785.47   7
   0   5   6 19053.2 1920.75   7
   0   5  -6 22603.5 1743.77  10
   0   5   7 2823.32 717.984   7
   0   5   8 3688.96 837.602   7
   0   5   9 3730.27 775.381  12
   0   5   9 7069.15 1143.08   7
   0   5  10 17903.4 1769.43   7
   0   5  10 8128.65 1164.99  12
   0   5  11 17504.8 1684.03   7
   0   5  11 13489.6 1471.25  12
   0   5  12 14591.6 1462.38  12
   0   5  12 15925.6 1511.12   7
   0   5  13 9284.32 1085.48  12
   0   5  13 10288.3 1099.17   7
   0   5  14 15785.0 1228.37   7
   0   5  14 15507.4 1294.96  12
   0   6   0 59416.3 3257.30  11
   0   6   0 59867.2 3035.26  10
   0   6   1 23094.1 1963.80  11
   0   6  -1 24050.5 1984.18  11
   0   6   1 21093.5 1736.50  10
   0   6  -1 22715.0 1787.90  10
   0   6  -2 32373.7 2136.51  10
   0   6  -2 33531.6 2360.87  11
   0   6   2 31957.8 2339.15  11
   0   6   2 30630.2 2098.88  10
   0   6   3 9129.10 1218.48  11
   0   6  -3 9159.93 1090.21  10
   0   6   3 7754.98 995.738  10
   0   6   4 8402.33 1171.30  11
   0   6  -4 8811.26 1057.63  10
   0   6   4 6461.01 888.865  10
   0   6   5 1547.16 506.387  11
   0   6   6 23559.7 1956.08  11
   0   6   7 6799.53 1001.34  11
   0   6   7 3353.60 719.037   7
   0   6   8 18748.3 1637.22  11
   0   6  11 5581.07 721.171  11
   0   7   0 292.373 167.930  10
   0   7   1 163.949 53.0939  10
   0   7   2 2982.35 466.924  10
   0   7   3 10153.5 1040.20  11
   0   7   4 8250.77 903.129  11
   0   7   5 5700.99 724.508  11
   0   7   6 4508.83 600.947  11
   1  -3  -9 26996.9 3288.63  15
   1  -3  -8 23899.7 2919.26  15
   1  -3  -7 216409. 8269.70  15
   1  -3  -6 115223. 4974.05  15
   1  -3  -5 60966.0 3266.20  15
   1  -3  -4 240059. 7288.04  15
   1  -3  -3 32182.1 2181.15  15
   1  -3  -2 75923.9 3396.37  15
   1  -3  -1 434.635 232.819  15
   1  -3   0 132846. 4536.91  15
   1  -2 -19 4864.03 562.425   9
   1  -2 -18 8706.40 883.479   9
   1  -2 -17 11016.6 1116.73   9
   1  -2 -16 7981.59 1008.90   9
   1  -2 -15 5916.83 904.717   9
   1  -2 -14 3424.93 684.452   9
   1  -2 -13 8998.41 1136.95   9
   1  -2 -12 21141.6 1733.12   9
   1  -2 -11 140367. 6779.83  17
   1  -2 -10 104851. 5425.35  17
   1  -2 -10 100472. 6281.35  15
   1  -2  -9 124630. 6837.20  15
   1  -2  -8 88586.6 4812.26  15
   1  -2  -7 39801.1 2658.87  15
   1  -2  -6 54722.9 2946.32  15
   1  -2  -5 61962.2 3030.96  15
   1  -2  -4 183519. 5722.81  15
   1  -2  -3 289372. 7447.07  15
   1  -2  -2 272194. 6945.81  15
   1  -2  -1 347397. 8183.49  15
  -1  -2   0 265865. 5769.68  16
   1  -2   1 173411. 4278.64  14
  -1  -2  -1 179830. 4526.46  17
  -1  -2  -2 82457.1 2887.33  17
  -1  -2  -3 110268. 3729.05  17
  -1  -2  -4 115881. 4231.93  17
  -1  -2  -5 547991. 13016.0  17
  -1  -2  -6 591347. 13722.1  17
   1  -2   6 486128. 12772.5  19
   1  -2   7 392951. 10466.2  19
  -1  -2  -7 345471. 10668.1  17
   1  -2   8 174292. 6596.06  19
  -1  -2  -8 99059.0 5417.06  17
  -1  -2  -9 25455.9 2770.74  17
  -1  -2 -10 65414.2 4728.35  17
  -1  -2 -11 10805.3 1957.89  17
  -1  -2 -12 20868.2 1696.05   9
  -1  -2 -13 48918.3 2766.04   9
   1  -1 -20 1275.65 287.845   9
   1  -1 -19 276.496 159.843   9
   1  -1 -18 221.144 164.400   9
   1  -1 -17 1784.63 477.959   9
   1  -1 -16 11447.0 1319.76   9
   1  -1 -15 37886.0 2491.35   9
   1  -1 -14 80074.4 3777.15   9
   1  -1 -13 75669.4 3627.17   9
   1  -1 -12 84453.1 5313.29  17
   1  -1 -11 29916.0 3156.12  15
   1  -1 -11 29799.9 2866.49  17
   1  -1 -10 14683.4 2143.16  15
   1  -1  -9 39724.3 3517.87  15
   1  -1  -8 243621. 8942.56  15
   1  -1  -7 91317.7 3946.00  15
   1  -1  -6 137353. 4670.05  15
   1  -1  -4 516780. 11360.6  15
   1  -1  -3 430963. 9492.08  15
   1  -1  -2 96145.0 3071.16  15
   1  -1  -1 108171. 3055.98  14
   1  -1   0 22751.9 1156.55  14
  -1  -1   0 22988.1 1221.78  17
  -1  -1  -4 323074. 8376.88  17
  -1  -1  -5 9440.75 1143.34  17
  -1  -1  -6 145386. 5412.73  17
  -1  -1  -7 8086.83 1240.46  17
  -1  -1  -8 12261.7 1664.54  17
   1  -1   8 25267.9 2263.32  19
   1  -1   9 171743. 6758.06  19
  -1  -1  -9 133485. 6372.30  17
  -1  -1 -10 179409. 7994.85  17
   1  -1  10 240521. 8935.98  19
  -1  -1 -11 61377.7 4594.72  17
   1  -1  11 78752.9 4833.58  19
  -1  -1 -12 79629.0 3561.80   9
  -1  -1 -13 104100. 4293.62   9
  -1  -1 -14 24334.0 1959.98   9
  -1  -1 -15 14321.5 1493.04   9
  -1  -1 -16 12152.9 1382.20   3
  -1  -1 -17 20441.4 1695.41   3
  -1  -1 -18 1887.77 447.040   3
   1   0 -20 1884.44 375.983   9
   1   0 -19 4012.24 623.698   9
   1   0 -18 21528.0 1646.98   9
   1   0 -17 40041.1 2464.98   9
   1   0 -16 21669.1 1852.85   9
   1   0 -15 1223.43 438.963   9
   1   0 -14 502.244 287.486   9
   1   0 -13 27631.5 2117.07   9
   1   0 -12 33258.5 3243.28  17
   1   0 -10 178863. 7487.50  15
   1   0  -9 289799. 9700.58  15
   1   0  -8 705672. 17871.2  15
   1   0  -7 14262.0 1700.40  15
   1   0  -6 607.264 261.535  15
   1   0  -5 26545.1 1589.35  15
   1   0  -3 62433.8 2213.38  15
  -1   0   0 1345.76 272.689  17
  -1   0  -1 164112. 4277.27  17
  -1   0  -2 1095.30 293.323  17
  -1   0  -3 2582.92 490.131  17
  -1   0  -4 265412. 7071.41  17
  -1   0  -5 16267.8 1470.63  17
  -1   0  -6 266439. 7880.86  17
  -1   0  -7 246026. 7928.14  17
  -1   0  -8 96642.8 4903.26  17
   1   0   8 121662. 5326.13  19
   1   0   9 312195. 9718.00  19
  -1   0  -9 261695. 9480.86  17
  -1   0 -10 1922.11 761.312  17
   1   0  10 2512.78 819.067  19
  -1   0 -11 14797.8 2194.11  17
   1   0  11 19879.1 2547.80  19
  -1   0 -12 1177.86 635.405  17
   1   0  12 1930.37 800.490  19
  -1   0 -13 30799.3 2208.23   9
  -1   0 -14 20600.7 1834.47   9
  -1   0 -15 78322.1 3760.43   9
  -1   0 -16 24474.9 1963.93   9
  -1   0 -17 32221.2 2297.77   3
  -1   0 -18 18195.9 1578.73   3
  -1   0 -19 430.182 208.488   3
  -1   0 -20 1021.03 273.271   3
   1   1 -20 1200.02 272.469   9
   1   1 -19 57.0839 103.178   9
   1   1 -18 387.249 196.011   9
   1   1 -17 1324.67 425.192   9
   1   1 -16 10703.8 1279.70   9
   1   1 -15 37438.5 2490.36   9
   1   1 -14 71214.4 3551.44   9
   1   1 -13 86842.8 3950.31   9
   1   1 -12 82188.2 5291.69  17
   1   1 -11 31552.2 2986.15  17
   1   1  -7 161281. 5488.00  15
  -1   1   7 116150. 4152.85  18
   1   1  -6 117196. 4431.28  15
  -1   1   6 102365. 3579.03  18
  -1   1   5 872614. 18378.2  18
   1   1  -5 960279. 19916.3  15
   1   1  -4 403193. 10300.8  15
  -1   1   4 532236. 9999.28  18
   1   1  -3 424804. 8620.22  15
  -1   1   3 435742. 8965.30  18
   1   1  -2 93940.6 2342.01  15
  -1   1   2 95749.5 2793.66  18
   1   1  -2 91753.1 2227.82  18
   1   1  -1 113495. 2488.44  15
  -1   1   1 115884. 3166.81  18
   1   1  -1 108964. 3094.86  14
   1   1   0 16346.7 975.556  14
  -1   1  -4 357839. 8909.76  17
  -1   1  -5 16482.8 1529.90  17
  -1   1  -6 136376. 5181.49  17
  -1   1  -7 9489.15 1332.53  17
   1   1   8 24583.1 2303.99  19
  -1   1  -8 12409.6 1662.52  17
  -1   1  -9 138164. 6560.85  17
   1   1   9 199322. 7311.85  19
  -1   1 -10 168796. 7738.71  17
   1   1  10 229458. 8748.35  19
   1   1  11 82191.4 4970.51  19
  -1   1 -11 64966.4 4835.29  17
  -1   1 -12 75582.7 3491.08   9
  -1   1 -13 99670.7 4219.79   9
  -1   1 -14 24910.9 2002.58   9
  -1   1 -15 14058.2 1485.36   9
  -1   1 -17 21394.1 1881.63   3
  -1   1 -18 2033.06 521.570   3
  -1   1 -19 9452.99 1001.05   3
  -1   1 -20 5087.09 611.391   3
  -1   2  19 10960.4 1090.71  12
   1   2 -18 7795.88 823.731   9
   1   2 -17 10409.5 1082.69   9
   1   2 -16 9302.31 1099.80   9
  -1   2  15 6600.86 897.224  13
   1   2 -15 6071.87 936.113   9
   1   2 -14 3437.15 719.507   9
  -1   2  14 3057.97 622.538  13
  -1   2  13 9122.38 1100.11  13
   1   2 -13 9001.12 1145.00   9
   1   2 -12 26377.2 1981.54   9
  -1   2  12 28046.0 1960.53  13
   1   2 -10 113155. 5737.15  17
  -1   2   7 37399.5 2441.88  18
  -1   2   6 55304.0 2896.75  18
  -1   2   5 64428.6 3083.55  18
  -1   2   4 177046. 5509.74  18
  -1   2   3 304833. 7667.56  18
   1   2  -3 281473. 6595.69  18
   1   2  -2 250756. 6155.37  18
  -1   2   2 276741. 7063.48  18
   1   2  -1 333114. 7894.33  18
  -1   2   1 377701. 8655.79  18
   1   2   0 266455. 6699.31  18
  -1   2   0 278691. 7057.25  18
   1   2   0 276221. 5944.18  14
   1   2   1 174801. 5198.78  18
   1   2   1 165023. 4232.56  14
  -1   2  -2 78952.0 2696.39  17
  -1   2  -3 109867. 3613.97  17
  -1   2  -4 131496. 4419.24  17
  -1   2  -5 515028. 12308.4  17
  -1   2  -6 559130. 13018.8  17
   1   2   6 454627. 12414.3  19
  -1   2  -7 355220. 10580.4  17
   1   2   7 375622. 10501.8  19
   1   2   8 170059. 6590.07  19
  -1   2  -8 116208. 5760.79  17
  -1   2  -9 23768.4 2654.87  17
   1   2   9 82543.1 4813.98  19
  -1   2 -10 59200.5 4470.70  17
   1   2  10 85564.4 4936.90  19
   1   2  11 7911.19 1523.96  19
  -1   2 -12 19580.8 1660.08   9
  -1   2 -13 42827.9 2563.74   9
   1   2  14 48490.5 3316.12  12
   1   2  15 8456.19 1287.64  12
   1   2  16 40087.1 2676.55  12
   1   2  17 14552.0 1396.66  12
  -1   2 -17 10779.6 1257.56   3
  -1   2 -18 8354.83 986.866   3
  -1   2 -19 2287.62 443.939   3
  -1   3  18 1916.22 454.463  12
  -1   3  16 7199.23 877.184  13
  -1   3  15 33476.8 2142.60  13
  -1   3  14 57677.1 3027.46  13
  -1   3  13 46420.3 2750.61  13
  -1   3  12 31556.7 2234.96  13
  -1   3  11 69311.3 3417.22  13
  -1   3  10 34411.1 2290.01  13
  -1   3   9 41794.8 2493.93  13
  -1   3   8 29351.4 2688.55  18
  -1   3   7 220867. 8051.95  18
  -1   3   6 132031. 5797.76  18
  -1   3   5 69829.1 3942.55  18
  -1   3   4 265947. 8447.16  18
  -1   3   3 41408.8 2791.01  18
   1   3  -3 36447.0 2171.09  18
   1   3  -2 68427.1 3134.05  18
  -1   3   2 73684.5 3743.02  18
  -1   3   1 465.554 308.565  18
   1   3  -1 294.580 157.650  18
  -1   3   0 145768. 5468.65  18
   1   3   0 134872. 4988.77  18
   1   3   1 125333. 4854.24  18
   1   3   2 493798. 12537.4  18
   1   3   3 63343.2 3666.13  18
   1   3   4 165751. 6651.12  18
   1   3   5 147959. 6522.73  18
   1   3   6 5140.20 1167.20  18
   1   3   7 16423.0 2191.81  18
   1   3   8 4935.38 1272.85  18
   1   3   9 16494.1 1844.60  12
   1   3  10 70293.1 3473.23   7
   1   3  10 67547.6 3998.59  12
   1   3  11 82112.3 4499.57  12
   1   3  12 84845.0 4623.72  12
   1   3  13 39375.2 3009.75  12
  -1   3 -14 12882.4 1425.50   3
   1   3  14 15697.1 1774.65  12
  -1   3 -15 10417.9 1237.96   3
   1   3  15 12502.8 1494.85  12
  -1   3 -16 4869.42 778.118   3
   1   3  16 5697.62 910.707  12
  -1   3 -17 5557.78 736.904   3
   1   3  17 7249.70 916.515  12
   1   3  18 8680.68 854.217  12
  -1   4  17 6963.42 796.289  12
  -1   4  16 93.0429 41.8285   7
  -1   4  16 109.756 96.3649  12
  -1   4  15 924.102 370.509  12
  -1   4  15 904.667 303.843  13
  -1   4  15 1141.45 363.662   7
  -1   4  14 5372.46 849.061   7
  -1   4  14 5856.31 1019.77  12
  -1   4  14 4987.08 791.377  13
  -1   4  13 8324.74 1111.26  13
  -1   4  12 15109.9 1554.87  13
  -1   4  11 36654.8 2507.37  13
  -1   4  10 19628.1 1824.60  13
  -1   4   9 17312.4 1693.62  13
   1   4  -8 78104.7 3343.40   4
  -1   4   8 86175.9 3888.18  13
   1   4  -8 77542.0 3168.78  10
   1   4  -7 118647. 4148.23   4
  -1   4   7 107707. 4439.03  13
   1   4  -7 113615. 3972.50  10
   1   4  -6 7354.16 896.941   4
  -1   4   6 4596.13 802.676  13
   1   4  -6 7151.75 864.574  10
  -1   4   5 19718.4 2393.37  18
  -1   4   4 11659.0 1786.40  18
  -1   4   3 79762.3 4761.65  18
   1   4  -2 144114. 5843.59  18
  -1   4   2 156046. 6791.31  18
   1   4  -1 157342. 6198.53  18
   1   4   0 195869. 7321.98  18
   1   4   1 40097.8 3125.23  18
   1   4   2 463.163 278.850  18
   1   4   3 5309.94 1170.19  18
   1   4   4 10512.0 1730.71  18
   1   4   5 98921.1 4328.92   7
  -1   4  -5 96693.7 3654.66  10
   1   4   6 102737. 4435.66  12
   1   4   6 82461.2 4037.95   7
   1   4   7 106364. 4478.97  12
   1   4   7 47680.7 3101.88   7
   1   4   8 76459.9 4023.96  12
   1   4   8 69698.5 3720.33   7
   1   4   9 23178.0 2221.58  12
   1   4   9 40558.0 2748.49   7
   1   4  10 7628.40 1267.03  12
   1   4  10 12350.7 1479.83   7
   1   4  11 424.874 282.061   7
   1   4  11 359.397 381.675  12
   1   4  12 8481.42 1279.07  12
   1   4  12 8841.14 1156.99   7
   1   4  13 20159.2 1937.72  12
   1   4  14 12230.0 1406.30  12
   1   4  15 16664.4 1519.16  12
   1   4  16 17501.0 1396.44  12
  -1   5  14 10922.5 1009.17  12
  -1   5  14 13796.6 1140.99   7
  -1   5  13 10955.3 1108.74  12
  -1   5  13 12449.7 1222.03   7
  -1   5  12 11903.3 1250.14  12
  -1   5  12 14148.5 1405.80   7
  -1   5  11 6609.50 1021.29   7
  -1   5  11 6290.77 936.576  13
  -1   5  10 2202.59 556.256  13
  -1   5  10 2766.40 667.227   7
  -1   5   9 1726.90 555.912   7
  -1   5   9 1394.39 456.568  13
  -1   5   8 18042.8 1871.12   7
  -1   5   8 17894.9 1690.68  13
   1   5  -7 21116.1 1603.69  10
   1   5  -7 22532.9 1659.99   4
  -1   5   7 12770.5 1424.26  13
  -1   5   7 8898.24 1301.13   7
   1   5  -6 60988.3 2804.97   4
   1   5  -6 59321.0 2844.13  10
  -1   5   5 44024.8 2909.17   7
   1   5  -5 43608.8 2486.10  10
   1   5  -4 32256.8 2266.17  11
  -1   5   4 34400.2 2469.70   7
   1   5  -4 31058.2 2096.24  10
  -1   5   3 125954. 4938.52   7
   1   5  -3 117482. 4636.77  11
  -1   5   3 113835. 4643.65  11
   1   5  -3 116749. 4461.91  10
   1   5  -2 21552.3 1823.51  11
  -1   5   2 22070.7 1860.28  11
   1   5  -1 9016.49 1166.29  11
  -1   5   1 9337.71 1175.59  11
  -1   5   0 4345.83 789.073  11
  -1   5   0 4351.89 725.996  10
   1   5   0 4509.48 832.093  11
  -1   5  -1 91401.8 3944.96  11
  -1   5  -1 91123.9 3709.30  10
   1   5   1 83856.8 3950.37  11
  -1   5  -2 25634.7 1979.49  11
  -1   5  -2 24305.4 1778.16  10
  -1   5  -3 120344. 4420.59  10
  -1   5  -4 102479. 4077.99  10
   1   5   5 5965.11 1056.97   7
   1   5   6 8891.14 1301.71   7
   1   5   7 894.286 372.071   6
   1   5   7 425.421 213.867   7
   1   5   8 3304.34 697.312   6
   1   5   8 3728.65 820.144   7
   1   5   9 8398.74 1120.30   6
   1   5   9 12563.5 1493.98   7
   1   5  10 6181.02 937.665   6
   1   5  11 10995.1 1217.67   6
   1   5  12 18638.2 1517.07   6
   1   5  13 14631.5 1239.21   6
   1   5  14 865.847 262.047   6
  -1   6  11 5533.76 722.456   7
  -1   6  10 20872.4 1558.03   7
  -1   6   9 6371.23 899.521   7
  -1   6   9 2609.32 508.082  11
  -1   6   8 10544.7 1201.79   7
  -1   6   8 7000.53 904.183  11
  -1   6   7 8016.67 1089.45   7
  -1   6   7 12428.2 1252.95  11
  -1   6   6 2869.32 608.540  11
  -1   6   6 3200.04 678.632   7
   1   6  -6 3767.44 642.142  10
   1   6  -5 4805.12 752.365  10
  -1   6   5 4262.45 789.559   7
  -1   6   5 4518.24 783.980  11
  -1   6   4 33270.8 2279.52   7
  -1   6   4 32729.5 2218.70  11
   1   6  -4 34106.3 2136.14  10
  -1   6   3 9842.94 1198.74  11
   1   6  -3 10863.2 1197.11  10
   1   6  -2 16733.5 1614.36  11
  -1   6   2 16439.7 1563.04  11
   1   6  -2 16118.8 1503.99  10
   1   6  -1 29046.9 2163.07  11
  -1   6   1 28820.0 2096.16  11
   1   6  -1 26092.2 1967.91  10
   1   6   0 33711.3 2142.70   8
  -1   6   0 34064.0 2297.67  11
   1   6   0 33062.9 2342.78  11
   1   6   0 31553.1 2178.01  10
   1   6   1 14803.5 1464.89   8
   1   6   1 13961.5 1493.28  11
  -1   6  -1 13784.9 1291.01  10
   1   6   2 394.551 213.485  11
   1   6   3 1581.77 499.615  11
   1   6   4 3956.49 784.538  11
   1   6   5 8357.45 1141.68  11
   1   6   6 18413.7 1693.87  11
   1   6   7 29691.0 2117.72  11
   1   6   8 9429.82 1120.35  11
   1   6  11 565.172 218.237  11
   1   7  -2 1131.27 301.712  10
   1   7  -1 987.534 289.276  10
   1   7   0 3131.43 514.229  10
   1   7   1 5801.63 706.752  10
   1   7   2 10619.5 946.041  10
   1   7   3 9884.87 882.921  10
   1   7   3 12094.2 930.442   8
   1   7   4 4189.30 533.123   8
   1   7   4 5357.62 695.199  11
   1   7   5 6086.81 719.237  11
   2  -3  -7 37366.5 2996.44  15
   2  -3  -6 83088.4 4553.59  15
   2  -3  -5 86001.2 4513.41  15
   2  -3  -4 26859.2 2386.69  15
   2  -3  -3 4518.02 943.810  15
   2  -3  -2 22708.4 2096.29  15
   2  -3  -1 17640.1 1819.00  15
   2  -3   0 109489. 4849.97  15
   2  -2 -18 2807.20 435.887   9
   2  -2 -17 314.453 134.454   9
   2  -2 -16 3607.27 645.463   9
   2  -2 -15 1808.61 502.612   9
   2  -2 -14 4822.23 834.420   9
   2  -2 -13 31105.9 2204.20   9
   2  -2 -12 163476. 5676.06   9
   2  -2 -11 80318.9 3616.25   9
   2  -2  -9 15496.7 1952.15  15
   2  -2  -8 6305.64 1159.08  15
   2  -2  -7 15753.5 1792.42  15
   2  -2  -6 152350. 5936.53  15
   2  -2  -5 51581.4 3121.60  15
   2  -2  -4 87831.1 4085.53  15
   2  -2  -3 251540. 7567.87  15
   2  -2  -2 135018. 5007.33  15
  -2  -2   1 381281. 9174.63  16
   2  -2  -1 361350. 9731.47  15
  -2  -2   0 119994. 4245.36  16
   2  -2   0 120616. 4283.81  14
  -2  -2  -1 8108.16 948.143  16
   2  -2   1 9016.49 1041.60  14
  -2  -2  -2 38244.3 2453.38  17
   2  -2   2 36098.3 2262.12  14
  -2  -2  -3 115103. 4809.11  17
  -2  -2  -4 347384. 9973.72  17
  -2  -2  -5 334642. 10103.5  17
  -2  -2  -6 271896. 9238.06  17
  -2  -2  -7 16948.5 2119.76  17
  -2  -2  -8 50391.0 3944.60  17
  -2  -2  -9 11113.6 1901.51  17
   2  -1 -19 294.558 168.523   9
   2  -1 -18 2737.52 517.043   9
   2  -1 -17 3493.59 645.985   9
   2  -1 -16 29953.8 2109.65   9
   2  -1 -15 31194.7 2276.27   9
   2  -1 -14 32313.2 2328.41   9
   2  -1 -13 42782.0 2696.49   9
   2  -1 -12 17521.8 1632.39   9
   2  -1 -11 4920.65 820.071   9
   2  -1 -10 197.254 242.060  15
   2  -1  -9 85264.8 4736.28  15
   2  -1  -8 38167.9 2719.08  15
   2  -1  -7 358979. 9969.52  15
   2  -1  -6 342604. 9484.14  15
   2  -1  -5 119544. 4623.72  15
   2  -1  -4 124661. 4605.23  15
   2  -1  -3 1114.74 362.983  15
   2  -1  -2 31957.9 2006.23  15
   2  -1  -1 329311. 8360.20  14
   2  -1   0 229763. 6471.72  14
  -2  -1  -1 358501. 9383.51  17
  -2  -1  -1 383517. 9111.57  16
   2  -1   1 352815. 9083.60  14
  -2  -1  -2 311610. 8037.05  16
  -2  -1  -2 329014. 8880.79  17
  -2  -1  -3 68907.9 3481.64  17
  -2  -1  -3 64512.6 2992.32  16
  -2  -1  -4 221613. 7365.94  17
  -2  -1  -5 37249.5 2802.43  17
  -2  -1  -6 102165. 5133.12  17
  -2  -1  -7 67390.2 4354.41  17
  -2  -1  -8 130074. 6621.85  17
  -2  -1  -9 74004.5 5139.36  17
   2  -1  10 85644.8 5282.67  19
  -2  -1 -10 40964.9 4035.39  17
  -2  -1 -11 47746.8 2844.26   3
  -2  -1 -12 46294.1 2863.42   3
  -2  -1 -13 8951.63 1229.41   3
  -2  -1 -14 714.843 340.642   3
  -2  -1 -15 7561.95 1076.47   3
  -2  -1 -16 4601.04 773.455   3
  -2  -1 -17 3273.22 600.519   3
  -2  -1 -18 9779.20 923.998   3
   2   0 -19 9495.63 890.345   9
   2   0 -18 6536.71 831.248   9
   2   0 -17 3572.07 681.085   9
   2   0 -16 1670.86 493.929   9
   2   0 -15 739.046 337.662   9
   2   0 -14 7527.68 1102.65   9
   2   0 -13 64976.6 3403.21   9
   2   0 -12 51605.9 2913.18   9
   2   0 -11 78497.0 5266.39  15
   2   0 -10 62601.0 4793.35  15
   2   0  -9 63978.2 4524.83  15
   2   0  -8 24355.7 2085.01  15
   2   0  -7 155.399 163.588  15
   2   0  -6 27898.6 1985.22  15
   2   0  -5 204078. 6156.60  15
   2   0  -4 98005.9 3682.89  15
   2   0  -3 61985.4 2675.61  15
   2   0  -2 648757. 14218.5  14
   2   0  -2 645056. 13621.2  15
   2   0  -1 360526. 8899.50  14
   2   0   0 131800. 4504.43  14
  -2   0  -1 138967. 4587.31  16
  -2   0  -1 149710. 5083.94  17
  -2   0  -2 282623. 7384.73  16
  -2   0  -2 273018. 7864.24  17
  -2   0  -3 4554.08 719.265  16
  -2   0  -3 4271.76 820.859  17
  -2   0  -4 69855.3 3664.84  17
  -2   0  -5 707470. 16983.2  17
  -2   0  -6 73772.8 4268.36  17
  -2   0  -7 239810. 8941.84  17
  -2   0  -8 89159.0 5361.49  17
  -2   0  -9 37646.1 3601.11  17
   2   0  10 24137.1 2724.69  19
  -2   0 -10 18258.8 2637.03  17
  -2   0 -11 65998.7 3471.44   3
  -2   0 -12 53634.7 3194.89   3
  -2   0 -13 39378.6 2773.71   3
  -2   0 -14 66071.4 3644.10   3
  -2   0 -15 35138.5 2539.89   3
  -2   0 -16 40672.0 2615.41   3
  -2   0 -17 2030.60 531.741   3
  -2   0 -18 14432.0 1255.56   3
  -2   0 -19 1530.84 342.614   3
   2   1 -19 153.418 98.1562   9
   2   1 -18 2289.74 473.289   9
   2   1 -17 4220.88 707.385   9
   2   1 -16 26367.6 1974.25   9
   2   1 -15 30076.7 2216.70   9
   2   1 -14 38383.0 2557.11   9
   2   1 -13 38815.9 2577.53   9
   2   1 -12 21056.8 1816.59   9
   2   1 -11 4489.58 792.929   9
   2   1  -6 310638. 8094.35  15
   2   1  -5 125979. 4164.20  15
   2   1  -4 150439. 4456.35  15
   2   1  -3 898.992 264.880  15
   2   1  -2 34955.7 1682.73  15
   2   1  -1 337744. 8537.94  14
   2   1   0 218480. 6264.87  14
  -2   1  -1 341429. 8938.76  17
  -2   1  -1 345762. 8626.03  16
  -2   1  -2 287607. 8409.20  17
  -2   1  -2 332697. 8123.05  16
  -2   1  -3 63262.5 2929.87  16
  -2   1  -3 57045.1 3139.58  17
  -2   1  -4 225200. 7345.58  17
  -2   1  -5 40660.3 2912.25  17
  -2   1  -6 114090. 5421.05  17
  -2   1  -7 65343.5 4257.16  17
  -2   1  -8 124138. 6411.59  17
  -2   1  -9 66584.5 4868.16  17
   2   1  10 73942.4 4943.72  19
  -2   1 -10 41775.5 4060.53  17
  -2   1 -11 63524.5 3464.38   3
  -2   1 -12 45511.8 2976.93   3
  -2   1 -13 9557.61 1348.00   3
  -2   1 -14 789.445 395.524   3
  -2   1 -15 7023.32 1124.86   3
  -2   1 -16 4029.24 799.574   3
  -2   1 -17 5391.87 854.637   3
  -2   1 -18 11523.0 1110.43   3
  -2   1 -19 7572.34 758.419   3
   2   2 -17 229.991 137.296   9
   2   2 -16 3045.48 593.218   9
  -2   2  16 3291.27 565.443  13
   2   2 -15 1047.72 366.326   9
  -2   2  15 1381.29 391.347  13
   2   2 -14 6197.48 947.276   9
  -2   2  14 6568.61 921.301  13
   2   2 -13 37114.7 2439.90   9
  -2   2  13 34113.5 2238.69  13
   2   2 -12 180147. 6077.13   9
  -2   2  12 179408. 5891.02  13
   2   2 -11 73716.6 3504.33   9
   2   2 -10 97191.6 3831.10   5
   2   2   0 116529. 4031.83  18
  -2   2   0 110727. 4092.25  16
   2   2   0 110727. 4136.18  14
  -2   2  -1 7603.02 917.134  16
   2   2   1 8097.40 1010.85  14
  -2   2  -2 40366.6 2276.61  16
   2   2   2 38402.3 2389.73  14
  -2   2  -3 107351. 4524.66  17
  -2   2  -4 325733. 9499.83  17
  -2   2  -5 347468. 10238.5  17
  -2   2  -6 284649. 9360.85  17
  -2   2  -7 14980.3 1951.71  17
  -2   2  -8 45768.8 3709.35  17
   2   2   9 14792.6 2112.36  19
  -2   2 -10 7665.79 1120.39   3
   2   2  10 12911.1 1523.09  12
   2   2  11 4268.55 871.314  12
  -2   2 -11 3533.18 767.436   3
  -2   2 -12 38378.0 2714.57   3
   2   2  12 40695.9 2788.06  12
  -2   2 -13 30676.6 2425.84   3
   2   2  13 34218.6 2513.65  12
  -2   2 -14 33193.8 2481.84   3
   2   2  14 38807.2 2608.10  12
  -2   2 -15 22854.0 1966.34   3
   2   2  15 26327.6 2000.58  12
  -2   2 -16 11392.1 1272.74   3
  -2   2 -17 6752.63 872.591   3
  -2   2 -18 696.012 241.259   3
  -2   3  17 7848.37 751.916  13
  -2   3  16 27263.2 1659.66  13
  -2   3  15 25363.7 1758.67  13
  -2   3  14 9472.19 1118.93  13
  -2   3  13 2507.06 589.685  13
  -2   3  12 11980.6 1344.81  13
  -2   3  11 1267.83 422.167  13
   2   3 -10 13240.2 1348.59   5
   2   3 -10 12969.6 1273.97   4
   2   3  -9 20443.3 1640.82   5
   2   3  -9 18612.0 1509.83   4
   2   3  -8 116896. 4235.25   5
   2   3  -8 117697. 4135.74   4
   2   3   1 107459. 4659.71  18
   2   3   2 190161. 6977.92  18
   2   3   3 148617. 6356.05  18
   2   3   4 30574.6 2832.09  18
   2   3   5 59092.4 4216.75  18
   2   3   7 1109.43 433.560  12
   2   3   8 156165. 5935.74  12
   2   3   9 100196. 4664.67  12
   2   3  10 27208.3 2332.18  12
   2   3  11 74333.2 4020.38  12
   2   3  12 2860.34 733.081  12
   2   3  13 17677.2 1806.85  12
  -2   3 -14 1193.80 375.568   3
   2   3  14 1842.64 544.350  12
  -2   3 -15 9242.50 1022.93   3
   2   3  16 6186.02 798.629   6
  -2   3 -16 6227.12 757.936   3
   2   3  17 9165.30 847.333   6
  -2   4  16 2533.93 412.405  13
  -2   4  15 3600.92 571.192  13
  -2   4  15 3927.10 700.586  12
  -2   4  15 3429.08 587.445   7
  -2   4  14 2724.19 556.637  13
  -2   4  13 4816.85 781.459  13
  -2   4  12 14476.3 1458.35  13
  -2   4  11 41197.1 2606.20  13
  -2   4  10 48922.3 2898.65  13
   2   4  -9 26985.7 1983.93   5
   2   4  -9 31472.5 2077.54   4
   2   4  -8 51212.8 2764.08   5
  -2   4   8 54855.9 3068.57  13
   2   4  -8 52446.6 2719.59   4
   2   4  -7 4401.24 748.981   5
   2   4  -7 4450.26 741.960   4
  -2   4   7 4454.70 823.623  13
   2   4  -6 17536.3 1481.15   5
  -2   4   6 14356.7 1477.30  13
   2   4  -6 18097.3 1510.43   4
   2   4  -6 17004.0 1346.83  10
   2   4  -5 39260.0 2234.46   5
   2   4  -5 40132.9 2275.34   4
   2   4  -5 36959.1 2082.56   8
   2   4  -5 34940.4 2002.36  10
   2   4  -4 120622. 4307.90   5
   2   4  -4 130240. 4314.98   8
   2   4  -4 123219. 4393.65   4
   2   4  -3 99527.8 3737.02   8
   2   4  -3 93188.4 3693.71   4
   2   4  -2 134980. 4683.21   8
   2   4  -1 160145. 5404.11   8
   2   4   0 42147.8 2490.57   8
   2   4   0 37413.1 2353.48   6
   2   4   1 10024.1 1173.00   6
   2   4   2 18582.9 1637.72   6
   2   4   3 37258.5 2381.68   6
   2   4   4 36742.4 2424.15   6
   2   4   5 61063.1 3234.58   6
   2   4   6 52142.9 3028.13   6
   2   4   7 42982.4 2762.15   6
   2   4   8 16720.6 1701.11   6
   2   4   9 2284.15 627.728   6
   2   4  10 1925.65 562.875   6
   2   4  11 1561.65 501.803   6
   2   4  12 11524.0 1334.45   6
   2   4  13 16414.9 1507.07   6
   2   4  14 15812.6 1375.91   6
   2   4  15 11768.7 1061.23   6
  -2   5  13 2707.53 482.946  13
  -2   5  13 3215.38 564.584   7
  -2   5  12 3862.61 634.728  13
  -2   5  12 4897.90 757.555   7
  -2   5  11 515.910 220.851  13
  -2   5  11 481.110 243.006   7
  -2   5  10 7352.29 980.353  13
  -2   5  10 8566.54 1167.82   7
  -2   5   9 21873.2 1767.75  13
   2   5  -8 6470.52 876.385   4
  -2   5   8 7219.59 1009.16  13
   2   5  -7 15724.2 1418.72   4
   2   5  -7 15004.0 1257.24  10
   2   5  -6 26672.0 1893.19   4
   2   5  -6 24724.1 1718.95  10
   2   5  -5 87964.2 3681.38   4
   2   5  -5 81875.9 3450.12  10
   2   5  -4 42216.4 2274.18   8
   2   5  -4 41072.3 2425.76   4
   2   5  -4 39752.4 2340.89  10
   2   5  -3 20667.4 1590.98   8
   2   5  -3 21375.5 1702.45   4
   2   5  -3 20826.4 1740.96  11
   2   5  -2 13540.3 1321.91   8
   2   5  -2 13003.6 1327.79   4
   2   5  -2 12565.9 1338.12  11
   2   5  -1 19786.0 1669.86   8
   2   5  -1 17753.9 1613.11  11
   2   5  -1 20446.0 1668.09   4
   2   5   0 13098.0 1415.38   8
   2   5   0 11456.2 1300.50  11
   2   5   1 51459.3 2980.17   8
   2   5   1 44110.7 2668.60  11
   2   5   2 92400.7 4174.53   8
   2   5   2 79315.4 3764.94  11
   2   5   2 87391.6 3972.62   6
   2   5   3 39524.1 2554.80  11
   2   5   3 41324.3 2660.89   6
   2   5   4 8618.21 1180.27   6
   2   5   5 1696.25 527.794   6
   2   5   6 1703.42 531.650   6
   2   5   7 15325.3 1566.82   6
   2   5   8 11638.9 1335.65   6
   2   5   9 11885.7 1323.81   6
   2   5  10 11180.1 1232.81   6
   2   5  11 6218.30 870.898   6
   2   5  11 8796.19 947.105   8
   2   5  12 12039.4 1137.55   6
   2   5  13 1408.78 341.472   6
  -2   6  10 1886.71 395.302   7
  -2   6   9 7559.29 860.101   7
  -2   6   8 1051.50 330.501   7
  -2   6   7 1118.09 354.767   7
   2   6  -6 2373.35 461.176  10
   2   6  -5 4383.35 645.710   4
   2   6  -5 4879.14 686.539  10
   2   6  -4 4365.57 657.297   4
   2   6  -4 4040.71 640.058  10
   2   6  -3 8288.64 927.053   4
   2   6  -3 7846.77 938.942  10
   2   6  -2 24647.9 1628.65   8
   2   6  -2 25509.2 1793.31  10
   2   6  -1 26021.9 1736.66   8
   2   6  -1 26722.0 1857.79  10
   2   6   0 7997.54 973.310   8
   2   6   0 8694.49 1059.44  11
   2   6   1 8075.37 990.382   8
   2   6   1 8449.92 1060.63  11
   2   6   2 826.203 297.229   8
   2   6   2 633.375 272.760  11
   2   6   3 5598.45 849.027   8
   2   6   3 5477.20 840.528  11
   2   6   4 11567.0 1245.87   8
   2   6   4 10687.4 1173.69  11
   2   6   5 21126.2 1702.53   8
   2   6   5 23338.2 1727.80  11
   2   6   6 11108.0 1189.24   8
   2   6   6 20541.2 1557.12  11
   2   6   7 9061.30 1013.42   8
   2   6   7 8479.28 967.742  11
   2   6   8 3519.71 589.616   8
   2   6   8 1238.68 335.741  11
   2   6   9 1875.10 378.383   8
   2   6   9 1137.51 314.137  11
   2   7  -1 5865.23 615.862  10
   2   7   0 4154.76 524.406  10
   2   7   1 4518.19 544.000  10
   3  -2 -17 1122.51 266.072   9
   3  -2 -16 1460.24 343.379   9
   3  -2 -15 617.664 245.698   9
   3  -2 -14 32390.9 2117.74   9
   3  -2 -13 42820.7 2554.38   9
   3  -2 -12 28679.0 2088.66   9
   3  -2 -11 26564.0 2007.84   9
   3  -2 -10 2686.09 612.737   9
   3  -2  -9 5145.78 841.986   9
   3  -2  -8 764.459 301.834   9
   3  -2  -6 18167.2 2186.51  15
   3  -2  -5 56702.0 3794.43  15
   3  -2  -4 119629. 5663.55  15
   3  -2  -3 150235. 6354.47  15
  -3  -2   2 51989.0 3317.60  16
   3  -2  -2 45607.7 3278.44  15
  -3  -2   1 22478.3 2138.19  16
   3  -2  -1 21049.6 2196.47  15
  -3  -2   0 4195.27 892.850  16
   3  -2   1 18087.2 1984.72  14
  -3  -2  -1 20101.7 1967.32  16
   3  -2   2 19096.4 2048.75  14
   3  -2   3 134834. 6035.93  14
  -3  -2  -4 96754.0 5405.45  17
  -3  -2  -5 80529.5 5131.36  17
  -3  -2  -8 6903.97 995.961   1
  -3  -2  -9 18778.7 1697.69   1
  -3  -2 -10 8014.33 1125.82   1
  -3  -2 -11 4566.86 850.175   1
  -3  -2 -12 27436.1 2097.11   1
  -3  -2 -13 13445.7 1381.32   1
  -3  -2 -14 6777.04 910.055   1
  -3  -2 -15 5457.17 753.466   1
  -3  -2 -16 592.051 214.458   1
   3  -1 -18 1526.30 318.634   9
   3  -1 -17 11824.3 1061.95   9
   3  -1 -16 10951.1 1138.98   9
   3  -1 -15 7782.86 1024.65   9
   3  -1 -14 3694.86 740.212   9
   3  -1 -13 3488.18 720.797   9
   3  -1 -12 11559.2 1346.21   9
   3  -1 -11 16810.3 1609.94   9
   3  -1 -10 93783.3 4044.60   9
   3  -1  -9 91632.0 3857.31   9
   3  -1  -8 67369.3 4154.70  15
   3  -1  -7 32002.9 2715.85  15
   3  -1  -6 58716.1 3756.13  15
   3  -1  -5 37016.3 2810.17  15
   3  -1  -4 663.098 351.750  15
   3  -1  -3 65497.6 3652.42  15
   3  -1  -2 59459.0 3453.96  15
  -3  -1   1 71346.9 3864.13  16
   3  -1  -1 76877.7 4113.33  14
  -3  -1   0 168962. 6350.08  16
   3  -1   0 155723. 6238.30  14
  -3  -1  -1 141432. 5629.78  16
   3  -1   1 130518. 5656.39  14
  -3  -1  -2 175976. 6570.96  16
   3  -1   2 206587. 7413.38  14
  -3  -1  -3 65505.5 4207.49  17
  -3  -1  -3 69354.3 3825.83  16
   3  -1   3 63022.6 3995.91  14
  -3  -1  -4 642.738 404.081  17
  -3  -1  -5 3944.85 1082.10  17
  -3  -1  -6 45138.0 3887.87  17
  -3  -1  -7 47561.2 4140.83  17
  -3  -1  -8 67073.0 3312.64   3
  -3  -1  -9 49503.5 2881.31   3
  -3  -1 -10 17881.5 1720.03   3
  -3  -1 -11 15933.7 1645.59   3
  -3  -1 -12 11952.7 1398.90   3
  -3  -1 -13 266.448 142.880   3
  -3  -1 -14 6335.05 948.965   3
  -3  -1 -15 5537.90 828.703   3
  -3  -1 -16 8686.94 995.001   1
  -3  -1 -17 5541.86 696.170   1
   3   0 -18 1757.66 361.504   9
   3   0 -17 1290.55 361.412   9
   3   0 -16 98.2931 133.285   9
   3   0 -15 8474.28 1096.98   9
   3   0 -14 15576.6 1568.07   9
   3   0 -13 8267.52 1149.16   9
   3   0 -12 23573.0 1972.63   9
   3   0 -11 9818.65 1229.01   9
   3   0 -10 16457.1 1560.41   9
   3   0  -9 25114.7 1869.62   9
   3   0  -8 12592.4 1631.13  15
   3   0  -7 574.646 329.345  15
   3   0  -6 150360. 5819.63  15
   3   0  -5 143367. 5591.74  15
   3   0  -4 144103. 5452.81  15
   3   0  -3 170785. 5964.73  15
   3   0  -2 68192.2 3456.38  15
   3   0  -1 105248. 4857.00  14
  -3   0   0 247.257 215.166  16
   3   0   0 167.713 222.597  14
  -3   0  -1 174712. 6399.04  16
   3   0   1 149040. 6116.06  14
  -3   0  -2 68695.9 4135.49  17
  -3   0  -2 66313.9 3653.01  16
   3   0   2 65332.4 3961.82  14
  -3   0  -3 64203.7 4143.72  17
  -3   0  -3 59721.3 3525.95  16
  -3   0  -4 117549. 6031.00  17
  -3   0  -5 68334.4 4637.93  17
  -3   0  -6 123865. 6662.49  17
  -3   0  -7 80414.8 5456.23  17
  -3   0  -8 12528.7 1385.75   3
  -3   0  -9 2036.17 546.056   3
  -3   0 -10 37341.3 2585.86   3
  -3   0 -11 20343.8 1912.66   3
  -3   0 -12 11485.8 1429.57   3
  -3   0 -13 34430.3 2496.89   3
  -3   0 -14 7453.44 1090.97   3
  -3   0 -15 11060.5 1256.66   3
  -3   0 -16 245.423 147.919   3
  -3   0 -16 116.548 82.8660   1
  -3   0 -17 2991.69 528.764   1
   3   1 -18 1727.52 325.101   9
   3   1 -17 12493.3 1078.22   9
   3   1 -16 11231.4 1154.34   9
   3   1 -15 8189.92 1048.93   9
   3   1 -14 3429.80 715.070   9
   3   1 -13 4423.80 835.763   9
   3   1 -12 11091.0 1329.82   9
   3   1 -11 18141.8 1700.03   9
   3   1 -10 100130. 3913.19   5
   3   1 -10 99201.2 4200.36   9
   3   1  -9 82583.1 3401.83   5
   3   1  -9 89332.6 3820.76   9
   3   1  -1 62708.3 3720.80  14
  -3   1   0 178809. 6581.24  16
   3   1   0 169418. 6564.26  14
  -3   1  -1 139803. 5731.16  16
   3   1   1 135178. 5754.63  14
  -3   1  -2 210682. 7187.50  16
   3   1   2 203257. 7587.64  14
  -3   1  -3 74124.7 4506.44  17
  -3   1  -3 72072.0 3971.15  16
   3   1   3 77859.3 4455.73  14
  -3   1  -4 535.523 405.110  17
  -3   1  -5 5954.03 1333.19  17
  -3   1  -6 45213.5 3879.93  17
  -3   1  -7 49667.3 4255.44  17
  -3   1  -8 69300.7 3455.40   3
  -3   1  -9 47018.6 2867.37   3
  -3   1 -10 16354.2 1714.37   3
  -3   1 -11 19669.2 1894.36   3
  -3   1 -12 13731.7 1575.01   3
  -3   1 -13 278.182 188.234   3
  -3   1 -14 7050.93 1065.16   3
  -3   1 -15 6299.32 927.275   3
  -3   1 -16 10422.2 1108.95   1
  -3   1 -16 12485.2 1216.44   3
  -3   1 -17 6486.35 774.787   1
   3   2 -16 1387.42 344.141   9
  -3   2  16 1480.70 338.613  13
   3   2 -15 145.080 66.7323   9
  -3   2  15 627.307 250.657  13
   3   2 -14 33818.5 2161.41   9
  -3   2  14 35143.1 2122.34  13
   3   2 -13 41680.4 2551.64   9
  -3   2  13 44485.4 2533.50  13
   3   2 -12 24919.5 1953.00   9
   3   2 -11 30907.3 2208.61   9
   3   2 -10 3785.34 710.259   5
   3   2 -10 2200.44 569.984   9
   3   2  -9 5075.67 847.371   9
   3   2  -9 7589.31 971.356   5
   3   2  -9 6780.05 862.525   4
   3   2  -8 650.024 270.220   5
   3   2  -8 712.357 303.963   9
   3   2  -8 1146.61 343.009   4
   3   2  -7 13147.3 1230.14   5
   3   2  -7 12598.6 1138.38   4
  -3   2   2 45896.0 3181.75  16
  -3   2   1 24283.7 2279.94  16
  -3   2   0 4003.94 887.026  16
   3   2   0 3830.03 891.373  14
  -3   2  -1 17346.4 1849.96  16
   3   2   1 16884.1 1926.06  14
  -3   2  -2 24190.5 2220.38  16
   3   2   2 22845.9 2280.99  14
   3   2   3 134625. 6109.28  14
   3   2   4 91847.9 5152.52  14
  -3   2  -5 88381.7 5305.03  17
   3   2   6 125906. 4686.81   6
   3   2   7 5598.73 890.005   6
  -3   2  -7 5888.77 891.263   1
  -3   2  -7 5967.60 915.412   3
   3   2   8 8397.49 1118.07   6
  -3   2  -8 6786.45 995.427   1
  -3   2  -8 7932.60 1094.77   3
   3   2   9 18997.7 1738.71   6
  -3   2  -9 21053.1 1821.44   1
  -3   2  -9 20967.9 1848.65   3
  -3   2 -10 7651.20 1132.81   3
   3   2  10 5950.70 962.178   6
  -3   2 -10 7556.01 1096.53   1
  -3   2 -11 6764.58 1060.39   3
  -3   2 -11 4935.69 890.845   1
  -3   2 -12 35386.1 2468.10   3
   3   2  12 35647.6 2335.13   6
  -3   2 -12 31842.2 2280.13   1
   3   2  13 14888.1 1415.61   6
  -3   2 -13 13124.7 1378.92   1
  -3   2 -13 13908.5 1469.75   3
  -3   2 -14 8345.16 1045.19   1
  -3   2 -14 8866.33 1108.80   3
  -3   2 -15 6998.95 861.693   1
  -3   2 -15 7807.02 961.579   3
  -3   2 -16 1127.25 301.640   1
  -3   3  16 3326.75 466.643  13
  -3   3  15 8907.16 893.912  13
  -3   3  14 307.953 179.253  13
  -3   3  13 4072.59 711.826  13
  -3   3  12 867.667 355.842  13
  -3   3  11 4758.56 853.530  13
   3   3 -10 3620.20 708.315   5
   3   3 -10 3525.50 644.649   4
   3   3  -9 84882.0 3628.06   5
   3   3  -9 71831.9 3245.72   4
   3   3  -8 48754.4 2663.12   5
   3   3  -8 46539.3 2501.94   4
   3   3  -7 37057.2 2285.15   5
   3   3  -7 38459.2 2222.23   4
   3   3  -6 37298.9 2256.86   5
   3   3  -6 36506.3 2152.41   4
   3   3  -5 8181.63 983.105   4
   3   3  -4 6157.57 869.632   8
   3   3  -4 5847.39 813.856   4
   3   3  -3 23411.0 1726.62   8
   3   3  -2 52670.9 2686.21   8
   3   3  -1 49579.9 2592.82   8
   3   3   0 148216. 4941.05   8
   3   3   0 138956. 5119.08   6
   3   3   1 240608. 6856.42   8
   3   3   1 225828. 7025.66   6
   3   3   2 58986.1 2961.93   8
   3   3   2 54592.5 3003.19   6
  -3   3  -3 92878.1 3929.82   2
   3   3   3 98218.1 4203.22   6
  -3   3  -4 13758.4 1397.31   2
   3   3   4 12441.7 1354.00   8
   3   3   4 13428.8 1446.95   6
   3   3   5 2491.48 620.580   6
   3   3   5 1203.64 401.574   8
   3   3   6 7022.06 1071.36   6
   3   3   6 3943.26 763.416   8
   3   3   7 117329. 4860.36   6
   3   3   8 53564.8 3133.38   6
   3   3   9 30045.9 2308.14   6
   3   3  10 4447.43 840.066   6
   3   3  11 1347.38 457.930   6
   3   3  12 9830.00 1192.32   6
   3   3  13 865.937 309.773   6
   3   3  14 2725.18 535.542   6
   3   3  15 7663.49 804.313   6
  -3   4  14 4473.93 598.743  13
  -3   4  13 10939.7 1053.44  13
  -3   4  12 14958.1 1328.62  13
  -3   4  11 2453.86 552.444  13
  -3   4  10 19886.8 1688.39  13
   3   4  -9 12758.1 1317.71   5
   3   4  -9 12304.3 1242.17   4
  -3   4   9 14706.3 1478.72  13
   3   4  -8 3377.82 681.115   5
  -3   4   8 3321.80 721.818  13
   3   4  -8 2988.85 601.468   4
   3   4  -7 12434.3 1301.56   5
   3   4  -7 11369.9 1221.69   4
  -3   4   7 11576.7 1326.57  13
   3   4  -6 27117.5 1958.67   5
   3   4  -6 26973.1 1928.55   4
  -3   4   6 24532.4 1970.45  13
   3   4  -5 47039.4 2615.44   5
   3   4  -5 43322.6 2508.59   4
   3   4  -4 34623.6 2228.53   5
   3   4  -4 37253.4 2278.47   8
   3   4  -4 34936.7 2241.22   4
   3   4  -3 60304.1 3002.79   8
   3   4  -3 57718.9 2940.63   4
   3   4  -2 67637.6 3241.50   8
   3   4  -1 19195.8 1660.09   8
   3   4   0 12954.2 1367.07   8
   3   4   1 15974.5 1543.27   8
   3   4   1 14926.2 1607.95   6
   3   4   2 7154.77 1040.50   8
   3   4   2 7397.44 1127.16   6
   3   4   3 15227.7 1551.02   8
   3   4   3 15659.1 1675.66   6
   3   4   4 69302.3 3496.09   8
   3   4   4 70415.7 3721.30   6
   3   4   5 33496.1 2407.50   8
   3   4   5 40676.7 2747.23   6
   3   4   6 15820.9 1600.78   8
   3   4   6 29478.8 2297.31   6
   3   4   7 9188.53 1171.15   8
   3   4   7 8925.03 1241.84   6
   3   4   8 22449.1 1763.90   8
   3   4   8 17945.8 1784.30   6
   3   4   9 1749.77 516.800   6
   3   4  10 3440.98 711.564   6
   3   4  11 27638.1 1992.43   6
   3   4  12 17071.8 1441.21   6
   3   4  13 4348.11 649.718   6
   3   4  14 8560.12 818.826   6
  -3   5  11 3443.32 522.374  13
  -3   5  11 3422.35 577.318   7
  -3   5  10 7375.88 826.071  13
  -3   5  10 8860.19 1022.95   7
  -3   5   9 3970.60 629.497  13
   3   5  -8 11051.7 1090.37   4
  -3   5   8 10227.5 1064.28  13
   3   5  -7 13197.9 1239.84   5
   3   5  -7 14530.4 1301.52   4
   3   5  -6 15561.3 1368.45   5
   3   5  -6 15765.6 1389.12   4
   3   5  -5 4906.64 756.043   5
   3   5  -5 4529.01 748.805   4
   3   5  -4 2470.32 530.272   5
   3   5  -4 2575.21 575.240   4
   3   5  -3 2657.82 564.262   5
   3   5  -3 2247.25 531.611   8
   3   5  -3 2353.37 545.489   4
   3   5  -3 2016.20 454.420  10
   3   5  -2 5810.32 843.758   5
   3   5  -2 4431.98 754.871   8
   3   5  -2 4356.85 764.095   4
   3   5  -1 39806.2 2403.74   8
   3   5  -1 39000.8 2383.35   4
   3   5   0 24462.0 1878.34   8
   3   5   0 22288.0 1776.47   4
   3   5   1 21811.7 1795.70   8
   3   5   2 31573.2 2182.31   8
   3   5   3 4595.23 791.792   8
   3   5   4 4353.84 772.503   8
   3   5   4 4705.41 878.886   6
   3   5   5 4423.86 760.793   8
   3   5   5 7687.31 1101.88   6
   3   5   6 7599.70 985.765   8
   3   5   6 13953.8 1467.54   6
   3   5   7 3428.24 616.555   8
   3   5   7 3489.93 708.916   6
   3   5   8 24490.9 1593.38   8
   3   5   8 17658.1 1576.30   6
   3   5   9 6443.12 729.768   8
   3   5   9 2746.65 579.875   6
   3   5  10 5713.91 776.049   6
   3   5  11 7750.00 831.610   6
   3   6  -5 4227.26 579.319   4
   3   6  -4 6605.93 745.835   4
   3   6  -3 15765.4 1197.80   4
   3   6  -3 15324.2 1081.49  10
   3   6  -2 15784.9 1217.26   4
   3   6  -2 15823.5 1154.37  10
   3   6  -1 2642.22 490.916   8
   3   6  -1 2981.64 527.750   4
   3   6  -1 2540.52 464.791  10
   3   6   0 3113.93 542.263   8
   3   6   0 2808.82 499.403   4
   3   6   0 2747.06 490.005  10
   3   6   1 1739.63 398.306   8
   3   6   1 1787.53 402.745   4
   3   6   1 1369.48 353.817  10
   3   6   2 6292.88 787.469   8
   3   6   2 5999.16 728.360   4
   3   6   3 5572.80 734.319   8
   3   6   3 5014.46 642.566   4
   3   6   4 14063.0 1149.37   8
   3   6   4 14171.9 1072.43   4
   3   6   5 7828.78 819.003   8
   3   6   5 8549.92 786.376   4
   3   6   6 1227.09 295.541   8
   4  -2 -14 8102.96 833.232   9
   4  -2 -13 6183.98 808.738   9
   4  -2 -12 7285.30 940.227   9
   4  -2 -11 2699.18 586.427   9
   4  -2 -10 391.454 250.024   9
   4  -2  -9 1301.36 432.273   9
   4  -2  -8 8421.47 1088.07   9
   4  -2  -7 35561.3 2305.95   9
   4  -2  -6 23720.6 1855.28   9
   4  -2  -5 67096.3 3238.95   9
   4  -2  -4 11428.6 1238.24   9
   4  -2  -3 29943.5 2054.48   9
  -4  -2  -5 51499.2 2917.44   1
  -4  -2  -6 3981.99 780.161   1
  -4  -2  -7 519.685 285.211   1
  -4  -2  -8 3362.99 709.996   1
  -4  -2  -9 261.852 205.928   1
  -4  -2 -10 4355.70 778.328   1
  -4  -2 -11 8558.00 1040.07   1
  -4  -2 -12 5704.23 792.660   1
  -4  -2 -13 7010.97 807.901   1
   4  -1 -16 1989.64 371.170   9
   4  -1 -15 556.759 205.724   9
   4  -1 -14 37.0378 89.6630   9
   4  -1 -13 2277.00 551.384   9
   4  -1 -12 8180.03 1077.47   9
   4  -1 -11 11828.1 1337.84   9
   4  -1 -10 10227.3 1249.83   9
   4  -1  -9 11672.9 1331.86   9
   4  -1  -8 20456.0 1765.33   9
   4  -1  -7 13511.3 1411.19   9
   4  -1  -6 23236.4 1851.57   9
   4  -1  -5 26694.7 1957.87   9
   4  -1  -4 43484.7 2523.20   9
  -4  -1  -3 2609.32 622.552   1
  -4  -1  -4 32539.9 2293.11   1
  -4  -1  -5 20744.5 1834.10   1
  -4  -1  -6 12630.2 1445.85   1
  -4  -1  -7 49599.0 3005.54   1
  -4  -1  -8 54362.7 3177.52   1
  -4  -1  -9 12958.0 1502.90   1
  -4  -1 -10 4027.73 825.163   1
  -4  -1 -11 1468.71 460.919   1
  -4  -1 -12 2290.14 569.088   1
  -4  -1 -13 4435.25 746.211   1
  -4  -1 -14 5230.88 737.238   1
  -4  -1 -15 4044.09 568.128   1
   4   0 -16-12.6946 89.7143   9
   4   0 -15 5569.57 749.765   9
   4   0 -14 13659.6 1302.86   9
   4   0 -13 17088.0 1544.61   9
   4   0 -12 751.327 294.687   9
   4   0 -11 5101.83 889.795   9
   4   0 -10 32723.6 2300.70   9
   4   0  -9 3039.79 673.548   9
   4   0  -8 65318.8 3322.86   9
   4   0  -7 193015. 6275.06   9
   4   0  -6 43268.9 2578.71   9
   4   0  -5 11799.6 1285.46   9
  -4   0   4 46996.7 2687.58   2
  -4   0   3 35772.1 2298.20   2
  -4   0   2 6168.63 906.338   2
   4   0  -1 2723.34 785.245  15
  -4   0   1 4180.77 743.948   2
   4   0   0 30463.5 2798.51  15
  -4   0   0 40416.6 2404.31   2
  -4   0  -1 2819.71 612.096   2
  -4   0  -2 16877.1 1565.58   2
  -4   0  -3 95649.7 4107.69   1
  -4   0  -4 37681.6 2480.90   1
  -4   0  -5 52927.0 3028.25   1
  -4   0  -6 10201.1 1306.95   1
  -4   0  -7 2335.92 648.054   1
  -4   0  -8 163.282 118.852   1
  -4   0  -9 22899.2 2047.85   1
  -4   0 -10 2251.59 613.424   1
  -4   0 -11 11697.1 1420.40   1
  -4   0 -12 13010.1 1424.61   1
  -4   0 -13 2939.63 625.793   1
  -4   0 -14 8387.80 991.843   1
  -4   0 -15 634.517 236.928   1
   4   1 -16 2105.89 372.058   9
   4   1 -15 266.979 150.639   9
  -4   1  15 401.387 161.864  13
   4   1 -14 124.234 155.356   9
   4   1 -13 2637.03 578.203   9
   4   1 -12 8886.33 1125.76   9
   4   1 -11 10777.4 1288.68   9
   4   1 -10 10615.7 1289.06   9
   4   1  -9 7357.03 943.400   5
   4   1  -9 9195.42 1185.51   9
   4   1  -8 21762.4 1638.81   5
   4   1  -8 21627.8 1835.81   9
   4   1  -7 11404.8 1313.35   9
   4   1  -7 11722.9 1171.16   5
   4   1  -6 21136.0 1768.77   9
   4   1  -6 20545.0 1559.45   5
   4   1  -5 27936.2 2006.22   9
   4   1  -5 25571.0 1723.48   5
   4   1  -4 41476.1 2479.02   9
  -4   1   4 46322.8 2762.50   2
  -4   1   3 34078.5 2328.48   2
  -4   1   2 86057.0 3849.43   2
  -4   1   1 80352.3 3679.74   2
  -4   1   0 45064.0 2678.17   2
  -4   1  -1 84076.0 3819.34   2
  -4   1  -2 11142.6 1317.46   2
  -4   1  -4 36214.7 2425.42   1
  -4   1  -5 21607.4 1869.77   1
  -4   1  -6 15902.7 1631.45   1
  -4   1  -7 54050.0 3149.53   1
  -4   1  -8 49541.0 3036.87   1
  -4   1  -9 12662.2 1487.67   1
  -4   1 -10 4960.35 911.543   1
  -4   1 -11 1915.29 536.711   1
  -4   1 -12 2200.08 552.640   1
  -4   1 -13 4502.78 754.317   1
  -4   1 -14 6192.99 813.803   1
  -4   1 -15 4158.25 583.412   1
  -4   2  15 2179.60 372.129  13
   4   2 -14 8023.28 821.177   9
  -4   2  14 8196.77 852.873  13
   4   2 -13 5928.18 785.496   9
  -4   2  13 7096.05 854.307  13
   4   2 -12 6906.16 910.426   9
   4   2 -11 2441.25 582.241   9
   4   2 -10 393.894 225.391   5
   4   2 -10 313.454 177.437   9
   4   2  -9 1024.91 365.500   5
   4   2  -9 1107.90 409.880   9
   4   2  -8 9460.46 1175.89   9
   4   2  -8 9548.18 1107.38   5
   4   2  -7 38590.2 2421.26   9
   4   2  -7 37529.8 2268.91   5
   4   2  -6 18000.1 1614.93   9
   4   2  -6 17524.5 1514.92   5
   4   2  -5 58159.0 3024.52   9
   4   2  -5 61205.9 2945.03   5
   4   2  -4 12845.1 1320.59   9
   4   2  -3 29936.8 2054.36   9
  -4   2   3 30394.4 2288.70   2
  -4   2   2 56721.4 3177.08   2
  -4   2   1 17199.2 1668.94   2
  -4   2   0 2499.36 634.038   2
  -4   2  -1 28820.2 2196.76   2
  -4   2  -2 53310.8 3078.04   2
  -4   2  -3 40945.0 2701.45   2
   4   2   3 40255.1 2617.69   6
  -4   2  -4 165045. 6046.90   2
   4   2   4 169470. 5954.73   6
  -4   2  -5 45030.9 2945.95   2
   4   2   5 56203.4 3095.83   6
  -4   2  -6 5018.72 853.811   1
   4   2   6 5291.51 904.549   6
   4   2   7 901.745 379.347   6
  -4   2  -7 516.584 255.516   1
  -4   2  -8 3144.59 675.304   1
  -4   2  -9 123.228 75.3771   1
  -4   2 -10 5229.84 864.291   1
  -4   2 -11 8267.35 1034.19   1
  -4   2 -12 5265.80 772.230   1
  -4   2 -13 8792.68 913.073   1
  -4   3  14 561.083 195.832  13
  -4   3  13 2752.45 481.327  13
  -4   3  12 994.415 300.651  13
  -4   3  11 12003.7 1198.04  13
   4   3 -10 11926.5 1203.51   5
   4   3  -9 7943.91 996.768   5
   4   3  -9 6588.77 828.565   4
   4   3  -8 16055.1 1453.64   5
   4   3  -8 13636.1 1243.98   4
   4   3  -7 16662.4 1498.15   5
   4   3  -7 15963.0 1366.29   4
   4   3  -6 13297.0 1346.45   5
   4   3  -6 12312.0 1212.76   4
   4   3  -5 8679.89 1079.47   5
   4   3  -5 8530.71 1016.42   4
   4   3  -4 11461.3 1188.07   4
   4   3  -3 11281.8 1193.11   4
  -4   3   2 30681.4 2331.89   2
  -4   3   1 63130.6 3411.01   2
   4   3   0 64755.9 3256.37   8
  -4   3   0 63463.4 3430.83   2
   4   3   1 30303.2 2147.09   8
  -4   3  -1 30713.4 2299.55   2
  -4   3  -2 577.827 305.398   2
   4   3   2 502.041 254.331   8
   4   3   3 5645.96 888.073   8
  -4   3  -3 6765.47 1044.51   2
   4   3   4 926.435 415.202   6
  -4   3  -4 1178.61 463.500   2
   4   3   4 495.774 234.757   8
   4   3   5 2679.48 685.084   6
  -4   3  -5 2506.77 624.431   2
  -4   3  -6 26546.5 2109.20   2
   4   3   6 25090.5 2104.46   6
  -4   3  -7 24394.6 2005.10   2
   4   3   7 21510.2 1899.04   6
  -4   3  -8 12673.9 1401.90   2
   4   3   8 10419.7 1284.70   6
  -4   3  -9 5765.13 912.416   2
   4   3   9 5922.28 921.502   6
  -4   3 -10 3504.87 684.003   2
   4   3  10 4152.37 722.831   6
   4   3  11 1245.30 364.352   6
  -4   3 -11 996.302 321.656   2
   4   3  12 2758.17 492.040   6
  -4   4  11 3395.21 528.172  13
  -4   4  10 1474.08 367.543  13
   4   4  -9 1926.27 442.660   5
  -4   4   9 2704.02 528.178  13
   4   4  -8 3066.73 576.792   5
   4   4  -8 2889.71 539.059   4
  -4   4   8 2819.45 557.740  13
   4   4  -7 10984.3 1140.13   5
   4   4  -7 9877.09 1027.41   4
  -4   4   7 9216.12 1058.31  13
   4   4  -6 30832.7 1993.98   5
   4   4  -6 28457.8 1852.31   4
   4   4  -5 13170.4 1300.08   5
   4   4  -5 12058.1 1206.84   4
   4   4  -4 16842.0 1491.80   5
   4   4  -4 16818.8 1455.57   4
   4   4  -3 5150.74 826.811   5
   4   4  -3 4956.55 785.732   4
   4   4  -2 6874.50 936.290   4
   4   4  -1 5331.00 835.155   4
   4   4   0 19814.4 1702.77   8
   4   4   1 4198.26 762.274   8
   4   4   2 27762.2 2002.11   8
   4   4   3 27646.8 1968.37   8
   4   4   4 12405.1 1271.81   8
   4   4   5 11377.3 1178.72   8
   4   4   6 9515.49 1024.07   8
   4   4   7 2330.46 578.502   6
   4   4   8 844.263 319.778   6
   4   4   9 4347.32 722.411   6
   4   5  -6 627.567 210.531   5
   4   5  -6 592.783 202.265   4
   4   5  -5 3186.14 538.641   5
   4   5  -5 3533.67 564.704   4
   4   5  -4 3546.89 579.914   5
   4   5  -4 3432.16 572.173   4
   4   5  -3 14140.2 1189.96   5
   4   5  -3 13272.8 1171.39   4
   4   5  -2 12444.2 1130.08   5
   4   5  -2 10607.6 1056.90   4
   4   5  -1 7980.09 911.770   5
   4   5  -1 8178.60 928.076   4
   4   5   0 6886.06 838.952   5
   4   5   0 6441.13 829.237   4
   4   5   1 7869.70 917.654   4
   4   5   2 1665.84 412.546   4
   4   5   3 2660.96 516.411   8
   4   5   4 129.442 107.758   8
   4   5   5 1138.79 288.967   8
   5  -2 -10 551.907 214.490   9
   5  -2  -9 2607.92 525.183   9
   5  -2  -8 2175.30 499.517   9
   5  -2  -7 3891.42 668.941   9
   5  -2  -6 7801.23 989.051   9
   5  -2  -5 13050.0 1301.34   9
   5  -2  -4 45055.4 2557.54   9
   5  -2  -3 4146.26 760.345   9
   5  -2  -2 17706.3 1583.83   9
   5  -2  -1 10807.0 1228.00   9
   5  -1 -13 1175.35 287.458   9
   5  -1 -12 6635.98 768.495   9
   5  -1 -11 3645.78 614.099   9
   5  -1 -10 5426.66 801.576   9
   5  -1  -9 6738.05 918.551   9
   5  -1  -8 1714.86 470.386   9
   5  -1  -7 13272.6 1374.72   9
   5  -1  -6 8960.04 1137.81   9
   5  -1  -5 28602.8 2114.53   9
   5  -1  -4 30810.8 2191.19   9
   5  -1  -3 19186.1 1716.88   9
   5  -1  -2 5042.46 864.769   9
   5   0 -13 1837.89 386.648   9
   5   0 -12 159.456 127.791   9
   5   0 -11-27.9301 112.977   9
   5   0 -10 511.084 258.157   9
   5   0  -9 20255.8 1662.90   9
   5   0  -8 3024.11 654.076   9
   5   0  -7 6992.02 998.411   9
   5   0  -6 11856.5 1335.42   9
   5   0  -5 3414.33 710.448   9
   5   0  -4 10118.6 1236.10   9
   5   0  -3-86.3724 45.1327   9
  -5   0   2 4248.81 815.201   2
  -5   0   1 3553.09 748.438   2
  -5   0   0 24882.1 2027.51   2
  -5   0  -1 7923.29 1133.60   2
  -5   0  -2 28319.2 2189.99   2
  -5   0  -3 19321.4 1791.17   2
  -5   0  -4 12706.2 1446.17   2
  -5   0  -5 5970.10 972.176   2
  -5   0  -6 527.036 347.377   2
  -5   0  -7 460.838 250.258   2
  -5   0  -8 1530.26 472.344   2
  -5   0  -9 6441.46 941.397   2
  -5   0 -10 16063.1 1424.55   2
  -5   0 -11 7369.04 886.791   2
  -5   0 -12 51.2650 44.1803   2
   5   1 -12 6127.97 735.954   9
   5   1 -11 4753.93 704.771   9
   5   1 -10 4898.99 771.660   9
   5   1  -9 6267.20 887.265   9
   5   1  -8 1530.66 438.401   9
   5   1  -7 15439.9 1481.94   9
   5   1  -6 7603.91 1055.82   9
   5   1  -5 29089.3 2128.39   9
   5   1  -4 37045.5 2424.04   9
   5   1  -3 17277.6 1622.37   9
  -5   1   2 6715.88 1061.16   2
  -5   1   1 37852.5 2618.03   2
  -5   1   0 30513.5 2345.39   2
  -5   1  -1 2603.04 662.837   2
  -5   1  -2 7414.73 1139.93   2
  -5   1  -3 4706.91 897.139   2
  -5   1  -4 3005.15 713.642   2
  -5   1  -5 16977.6 1709.70   2
  -5   1  -6 38941.8 2627.17   2
  -5   1  -7 13854.9 1507.18   2
  -5   1  -8 3335.29 700.466   2
  -5   1  -9 734.656 306.565   2
  -5   1 -10 1596.03 447.001   2
  -5   1 -11 288.567 154.877   2
  -5   1 -12 926.121 279.585   2
  -5   2  12 117.292 72.2547  13
   5   2 -10 231.686 146.538   9
   5   2  -9 2068.17 457.420   9
   5   2  -8 2438.22 474.250   5
   5   2  -8 1880.64 462.958   9
   5   2  -7 3652.96 603.145   5
   5   2  -7 3389.46 636.721   9
   5   2  -6 9397.79 1085.26   9
   5   2  -6 9520.30 1018.49   5
   5   2  -5 12463.1 1285.06   9
   5   2  -5 12819.0 1211.99   5
   5   2  -4 43520.7 2508.24   9
   5   2  -4 41034.7 2287.32   5
   5   2  -3 4485.27 771.548   9
   5   2  -3 3836.80 659.796   5
   5   2  -2 18250.0 1595.41   9
   5   2  -1 10638.1 1209.74   9
  -5   2   1 10896.8 1370.92   2
  -5   2   0 12992.8 1500.97   2
  -5   2  -1 13427.3 1533.28   2
  -5   2  -2 24020.7 2064.56   2
  -5   2  -3 26733.6 2168.67   2
  -5   2  -4 1140.52 424.972   2
  -5   2  -5 2288.65 591.718   2
  -5   2  -6 660.811 307.437   2
  -5   2  -7 3826.91 739.944   2
  -5   2  -8 1523.75 449.629   2
  -5   2  -9 1818.33 455.535   2
  -5   2 -10 6371.79 827.053   2
  -5   2 -11 9095.03 890.146   2
  -5   3  10 5670.26 643.109  13
  -5   3   9 1623.24 364.050  13
   5   3  -8 3367.94 539.902   5
   5   3  -7 1226.57 347.278   5
   5   3  -6 3250.38 566.655   5
   5   3  -5 1848.06 435.372   5
   5   3  -4 8644.76 974.204   5
   5   3  -3 4659.56 724.538   5
   5   3  -2 7135.12 908.252   5
   5   3  -1 7559.87 866.914   4
   5   3   0 6993.72 841.048   4
  -5   3  -1 9771.77 1217.22   2
   5   3   1 8110.44 919.631   4
  -5   3  -2 663.059 311.454   2
  -5   3  -3 3789.42 751.406   2
  -5   3  -4 3755.25 731.679   2
  -5   3  -5 10649.0 1192.93   2
  -5   3  -6 6890.12 922.344   2
  -5   3  -7 6338.20 832.173   2
  -5   3  -8 6321.32 781.084   2
   5   4  -7 4514.52 557.377   5
   5   4  -6 3153.01 489.351   5
   5   4  -5 2922.10 477.088   5
   5   4  -5 2550.55 411.922   4
   5   4  -4 4151.40 598.681   5
   5   4  -4 3579.00 512.253   4
   5   4  -3 1286.04 328.584   5
   5   4  -3 1234.70 310.570   4
   5   4  -2 2684.06 493.109   5
   5   4  -2 2377.21 437.953   4
   5   4  -1 3376.17 561.114   5
   5   4  -1 2949.75 504.080   4
   5   4   0 9100.74 930.716   5
   5   4   0 7047.49 779.960   4
   5   4   1 5578.16 687.298   4
   5   4   2 4343.77 600.256   4
   5   4   3 5663.94 676.569   4
   5   4   4 2799.74 463.860   4
   6  -1  -7 608.589 208.871   9
   6  -1  -6 509.026 204.075   9
   6  -1  -5 2590.90 483.988   9
   6  -1  -4 1030.73 302.506   9
   6  -1  -3 8417.88 929.710   9
   6  -1  -2 7316.51 887.942   9
   6  -1  -1 3481.10 604.417   9
   6  -1   0 289.925 142.272   9
   6  -1   1 871.245 306.709   9
   6  -1   2 503.943 240.571   9
   6  -1   3 1209.68 360.967   9
   6   0  -8 6873.34 725.870   9
   6   0  -7 353.241 178.268   9
   6   0  -6 5548.37 725.003   9
   6   0  -5 25.1777 65.9863   9
   6   0  -4-24.5627 78.6182   9
   6   0  -3 1253.14 369.111   9
   6   0  -2 11440.3 1138.88   9
   6   0  -1 203.125 102.244   9
   6   0   0 2020.94 470.148   9
   6   0   1 14259.7 1279.56   9
  -6   0  -3 3508.50 601.026   2
  -6   0  -4 719.175 251.983   2
  -6   0  -5 149.640 112.804   2
   6   1  -7 512.729 191.530   9
   6   1  -6 777.305 258.065   9
   6   1  -5 3077.65 532.389   9
   6   1  -4 1511.72 380.257   9
   6   1  -3 10088.5 1013.43   9
   6   1  -2 8476.13 943.451   9
   6   1  -1 3019.43 561.001   9
   6   1   0-11.0161 136.054   9
   6   1   1 1167.37 331.614   9
   6   1   2 543.187 201.869   9
  -6   1  -2 808.016 322.094   2
  -6   1  -3 2283.22 502.573   2
  -6   1  -4 3280.84 586.704   2
  -6   1  -5 4865.62 688.606   2
  -6   1  -6 3794.50 572.664   2
   6   2  -1 3019.32 479.083   9
   6   2   0 996.455 266.942   9
   0   0   0    0.00    0.00   0
TITL LYN15101201 in P2(1)
REM P2(1) (#4 in standard setting)
CELL 1.54184   5.304039   6.090695  16.994667  90.0000  91.7083  90.0000
ZERR    2.00   0.000270   0.000274   0.000974   0.0000   0.0049   0.0000
LATT -1
SYMM -x, y+1/2,-z
SFAC C H O Br
UNIT 30.00 40.00 6.00 2.00
TREF
HKLF 4
END
;
_shelx_hkl_checksum              32945
loop_
_space_group_symop_operation_xyz
'x, y, z'
'-x, y+1/2, -z'
loop_
_atom_site_label
_atom_site_type_symbol
_atom_site_fract_x
_atom_site_fract_y
_atom_site_fract_z
_atom_site_U_iso_or_equiv
_atom_site_adp_type
_atom_site_occupancy
_atom_site_site_symmetry_order
_atom_site_calc_flag
_atom_site_refinement_flags_posn
_atom_site_refinement_flags_adp
Br1 Br 1.9219(2) 2.3195(3) 0.44055(6) 0.0645(5) Uani 1 1 d . .
O2 O 1.6423(15) 1.6283(15) 0.1216(5) 0.056(2) Uani 1 1 d . .
O3 O 1.1307(17) 1.1236(18) 0.0985(7) 0.075(3) Uani 1 1 d . .
C11 C 1.248(2) 1.489(2) 0.0722(7) 0.055(3) Uani 1 1 d . .
H11 H 1.0965 1.5203 0.0456 0.066 Uiso 1 1 calc R U
C4 C 1.6206(18) 1.723(2) 0.2929(6) 0.042(2) Uani 1 1 d . .
O1 O 1.3328(18) 1.4354(18) 0.2721(6) 0.077(3) Uani 1 1 d . .
C9 C 1.539(2) 1.2386(19) 0.1445(8) 0.052(3) Uani 1 1 d . .
H9A H 1.6529 1.1762 0.1069 0.062 Uiso 1 1 calc R U
H9B H 1.5220 1.1341 0.1871 0.062 Uiso 1 1 calc R U
C10 C 1.2854(19) 1.2740(19) 0.1048(7) 0.050(3) Uani 1 1 d . .
C1 C 1.7970(19) 2.0769(19) 0.3804(6) 0.045(2) Uani 1 1 d . .
C2 C 1.9250(19) 2.018(2) 0.3150(6) 0.046(2) Uani 1 1 d . .
H2 H 2.0668 2.0950 0.2998 0.056 Uiso 1 1 calc R U
C6 C 1.589(2) 1.969(2) 0.4051(6) 0.052(3) Uani 1 1 d . .
H6 H 1.5067 2.0171 0.4496 0.063 Uiso 1 1 calc R U
C5 C 1.4988(18) 1.785(2) 0.3627(6) 0.047(3) Uani 1 1 d . .
H5 H 1.3618 1.7056 0.3802 0.057 Uiso 1 1 calc R U
C8 C 1.651(2) 1.4495(18) 0.1770(7) 0.044(2) Uani 1 1 d . .
H8 H 1.8280 1.4213 0.1913 0.053 Uiso 1 1 calc R U
C12 C 1.420(3) 1.642(2) 0.0785(7) 0.058(3) Uani 1 1 d . .
H12 H 1.3892 1.7723 0.0513 0.070 Uiso 1 1 calc R U
C3 C 1.8350(16) 1.837(3) 0.2718(5) 0.047(2) Uani 1 1 d . .
H3 H 1.9210 1.7928 0.2276 0.056 Uiso 1 1 calc R U
C7 C 1.5183(18) 1.528(2) 0.2520(6) 0.044(2) Uani 1 1 d . .
loop_
_atom_site_aniso_label
_atom_site_aniso_U_11
_atom_site_aniso_U_22
_atom_site_aniso_U_33
_atom_site_aniso_U_23
_atom_site_aniso_U_13
_atom_site_aniso_U_12
Br1 0.0767(8) 0.0551(7) 0.0618(7) -0.0102(8) 0.0011(5) -0.0070(8)
O2 0.062(5) 0.050(5) 0.056(4) 0.002(4) 0.010(4) -0.014(4)
O3 0.054(5) 0.058(6) 0.111(8) -0.009(6) -0.009(5) -0.009(5)
C11 0.050(6) 0.056(8) 0.059(7) 0.001(6) -0.002(5) 0.015(6)
C4 0.035(4) 0.050(6) 0.042(5) 0.008(5) 0.000(4) -0.002(4)
O1 0.078(6) 0.078(7) 0.078(6) -0.019(5) 0.029(5) -0.043(5)
C9 0.044(6) 0.035(5) 0.076(7) -0.010(6) -0.007(5) 0.012(5)
C10 0.043(5) 0.045(9) 0.061(6) -0.009(5) 0.002(4) 0.005(5)
C1 0.047(5) 0.041(6) 0.044(5) 0.011(5) -0.005(4) 0.008(5)
C2 0.042(5) 0.047(6) 0.051(5) 0.001(5) 0.004(4) 0.000(5)
C6 0.054(6) 0.058(8) 0.045(5) -0.019(6) 0.006(4) -0.004(6)
C5 0.047(5) 0.045(8) 0.051(5) -0.007(6) 0.011(4) -0.008(5)
C8 0.039(5) 0.036(6) 0.059(6) -0.002(5) 0.002(4) -0.002(4)
C12 0.078(8) 0.046(7) 0.051(6) 0.013(6) 0.018(6) 0.008(7)
C3 0.040(4) 0.052(7) 0.050(4) 0.017(7) 0.007(3) 0.001(7)
C7 0.041(5) 0.039(6) 0.052(5) 0.003(5) -0.001(4) -0.004(5)
loop_
_atom_type_symbol
_atom_type_description
_atom_type_scat_dispersion_real
_atom_type_scat_dispersion_imag
_atom_type_scat_source
C C 0.0181 0.0091 'International Tables Vol C Tables 4.2.6.8 and 6.1.1.4'
H H 0.0000 0.0000 'International Tables Vol C Tables 4.2.6.8 and 6.1.1.4'
O O 0.0492 0.0322 'International Tables Vol C Tables 4.2.6.8 and 6.1.1.4'
Br Br -0.6763 1.2805 'International Tables Vol C Tables 4.2.6.8 and 6.1.1.4'
loop_
_geom_angle_atom_site_label_1
_geom_angle_atom_site_label_2
_geom_angle_atom_site_label_3
_geom_angle
C12 O2 C8 113.9(9)
C12 C11 C10 122.2(11)
C12 C11 H11 118.9
C10 C11 H11 118.9
C3 C4 C5 118.6(11)
C3 C4 C7 125.2(10)
C5 C4 C7 116.0(9)
C10 C9 C8 112.2(9)
C10 C9 H9A 109.2
C8 C9 H9A 109.2
C10 C9 H9B 109.2
C8 C9 H9B 109.2
H9A C9 H9B 107.9
O3 C10 C11 124.2(11)
O3 C10 C9 121.1(11)
C11 C10 C9 114.6(10)
C6 C1 C2 123.4(11)
C6 C1 Br1 118.7(8)
C2 C1 Br1 117.8(8)
C1 C2 C3 117.6(10)
C1 C2 H2 121.2
C3 C2 H2 121.2
C1 C6 C5 119.4(10)
C1 C6 H6 120.3
C5 C6 H6 120.3
C6 C5 C4 119.0(10)
C6 C5 H5 120.5
C4 C5 H5 120.5
O2 C8 C9 113.6(9)
O2 C8 C7 107.3(9)
C9 C8 C7 112.5(9)
O2 C8 H8 107.8
C9 C8 H8 107.8
C7 C8 H8 107.8
C11 C12 O2 125.9(12)
C11 C12 H12 117.1
O2 C12 H12 117.1
C4 C3 C2 121.9(10)
C4 C3 H3 119.1
C2 C3 H3 119.1
O1 C7 C4 122.9(10)
O1 C7 C8 119.0(11)
C4 C7 C8 118.0(9)
loop_
_geom_bond_atom_site_label_1
_geom_bond_atom_site_label_2
_geom_bond_distance
Br1 C1 1.904(12)
O2 C12 1.371(16)
O2 C8 1.440(14)
O3 C10 1.232(15)
C11 C12 1.308(19)
C11 C10 1.432(18)
C11 H11 0.9300
C4 C3 1.390(14)
C4 C5 1.420(14)
C4 C7 1.469(16)
O1 C7 1.194(13)
C9 C10 1.501(15)
C9 C8 1.512(15)
C9 H9A 0.9700
C9 H9B 0.9700
C1 C6 1.361(15)
C1 C2 1.369(15)
C2 C3 1.397(19)
C2 H2 0.9300
C6 C5 1.409(16)
C6 H6 0.9300
C5 H5 0.9300
C8 C7 1.550(15)
C8 H8 0.9800
C12 H12 0.9300
C3 H3 0.9300
loop_
_geom_torsion_atom_site_label_1
_geom_torsion_atom_site_label_2
_geom_torsion_atom_site_label_3
_geom_torsion_atom_site_label_4
_geom_torsion
C12 C11 C10 O3 -178.2(12)
C12 C11 C10 C9 -1.6(17)
C8 C9 C10 O3 -155.3(12)
C8 C9 C10 C11 27.9(14)
C6 C1 C2 C3 0.0(17)
Br1 C1 C2 C3 179.0(9)
C2 C1 C6 C5 1.0(17)
Br1 C1 C6 C5 -178.0(9)
C1 C6 C5 C4 -3.1(17)
C3 C4 C5 C6 4.3(16)
C7 C4 C5 C6 179.5(10)
C12 O2 C8 C9 41.7(12)
C12 O2 C8 C7 -83.3(11)
C10 C9 C8 O2 -48.4(13)
C10 C9 C8 C7 73.7(13)
C10 C11 C12 O2 -6.4(19)
C8 O2 C12 C11 -14.7(16)
C5 C4 C3 C2 -3.4(17)
C7 C4 C3 C2 -178.1(11)
C1 C2 C3 C4 1.2(17)
C3 C4 C7 O1 -179.8(12)
C5 C4 C7 O1 5.4(17)
C3 C4 C7 C8 -3.2(16)
C5 C4 C7 C8 -178.0(10)
O2 C8 C7 O1 118.1(12)
C9 C8 C7 O1 -7.5(15)
O2 C8 C7 C4 -58.7(12)
C9 C8 C7 C4 175.7(9)
