#------------------------------------------------------------------------------
#$Date: 2017-03-04 16:18:21 +0200 (Sat, 04 Mar 2017) $
#$Revision: 193577 $
#$URL: file:///home/coder/svn-repositories/cod/cif/4/03/21/4032128.cif $
#------------------------------------------------------------------------------
#
# This file is available in the Crystallography Open Database (COD),
# http://www.crystallography.net/
#
# All data on this site have been placed in the public domain by the
# contributors.
#
data_4032128
loop_
_publ_author_name
'Zhu, Qiuhua'
'Ye, Ziwei'
'Yang, Weijie'
'Cai, Xiaotie'
'Tang, Ben Zhong'
_publ_section_title
;
 One-Pot Synthesis and Structure-Property Relationship of Aminomaleimides:
 Fluorescence Efficiencies in Monomers and Aggregates Easily Tuned by
 Switch of Aryl and Alkyl.
;
_journal_issue                   2
_journal_name_full               'The Journal of organic chemistry'
_journal_page_first              1096
_journal_page_last               1104
_journal_paper_doi               10.1021/acs.joc.6b02706
_journal_volume                  82
_journal_year                    2017
_chemical_formula_moiety         'C12 H20 N2 O2'
_chemical_formula_sum            'C12 H20 N2 O2'
_chemical_formula_weight         224.30
_space_group_crystal_system      triclinic
_space_group_IT_number           2
_space_group_name_Hall           '-P 1'
_space_group_name_H-M_alt        'P -1'
_symmetry_space_group_name_Hall  '-P 1'
_symmetry_space_group_name_H-M   'P -1'
_atom_sites_solution_hydrogens   geom
_audit_creation_date             2015-10-11
_audit_creation_method
;
Olex2 1.2-beta
(compiled 2015.09.30 svn.r3233 for OlexSys, GUI svn.r5103)
;
_cell_angle_alpha                97.898(6)
_cell_angle_beta                 91.398(6)
_cell_angle_gamma                102.640(6)
_cell_formula_units_Z            2
_cell_length_a                   4.9314(3)
_cell_length_b                   9.9036(7)
_cell_length_c                   13.2788(10)
_cell_measurement_temperature    173.15
_cell_volume                     625.80(8)
_computing_molecular_graphics    'Olex2 (Dolomanov et al., 2009)'
_computing_publication_material  'Olex2 (Dolomanov et al., 2009)'
_computing_structure_refinement  'ShelXL (Sheldrick, 2015)'
_diffrn_ambient_temperature      173.15
_diffrn_measured_fraction_theta_full 0.952
_diffrn_measured_fraction_theta_max 0.926
_diffrn_measurement_device_type  'CCD Area Detector'
_diffrn_radiation_type           CuK\a
_diffrn_radiation_wavelength     1.54178
_diffrn_reflns_av_R_equivalents  0.0325
_diffrn_reflns_av_unetI/netI     0.0352
_diffrn_reflns_Laue_measured_fraction_full 0.952
_diffrn_reflns_Laue_measured_fraction_max 0.926
_diffrn_reflns_limit_h_max       4
_diffrn_reflns_limit_h_min       -6
_diffrn_reflns_limit_k_max       12
_diffrn_reflns_limit_k_min       -12
_diffrn_reflns_limit_l_max       16
_diffrn_reflns_limit_l_min       -16
_diffrn_reflns_number            3499
_diffrn_reflns_point_group_measured_fraction_full 0.952
_diffrn_reflns_point_group_measured_fraction_max 0.926
_diffrn_reflns_theta_full        67.679
_diffrn_reflns_theta_max         71.498
_diffrn_reflns_theta_min         9.901
_exptl_absorpt_coefficient_mu    0.654
_exptl_absorpt_correction_type   none
_exptl_crystal_colour            colourless
_exptl_crystal_colour_primary    colourless
_exptl_crystal_density_diffrn    1.190
_exptl_crystal_description       block
_exptl_crystal_F_000             244
_exptl_crystal_size_max          0.2
_exptl_crystal_size_mid          0.2
_exptl_crystal_size_min          0.2
_refine_diff_density_max         0.202
_refine_diff_density_min         -0.280
_refine_diff_density_rms         0.054
_refine_ls_extinction_method     none
_refine_ls_goodness_of_fit_ref   1.034
_refine_ls_hydrogen_treatment    constr
_refine_ls_matrix_type           full
_refine_ls_number_parameters     147
_refine_ls_number_reflns         2253
_refine_ls_number_restraints     0
_refine_ls_restrained_S_all      1.034
_refine_ls_R_factor_all          0.0508
_refine_ls_R_factor_gt           0.0459
_refine_ls_shift/su_max          0.000
_refine_ls_shift/su_mean         0.000
_refine_ls_structure_factor_coef Fsqd
_refine_ls_weighting_details
'w=1/[\s^2^(Fo^2^)+(0.0856P)^2^+0.0644P] where P=(Fo^2^+2Fc^2^)/3'
_refine_ls_weighting_scheme      calc
_refine_ls_wR_factor_gt          0.1284
_refine_ls_wR_factor_ref         0.1364
_reflns_Friedel_coverage         0.000
_reflns_number_gt                1977
_reflns_number_total             2253
_reflns_threshold_expression     'I > 2\s(I)'
_iucr_refine_instructions_details
;

    zhu1cult.res created by SHELXL-2014/7

TITL zhu1CuLT in P-1 #2
REM reset to P-1 #2
CELL 1.54178 4.9314 9.9036 13.2788 97.898 91.398 102.64
ZERR 2 0.0003 0.0007 0.001 0.006 0.006 0.006
LATT 1
SFAC C H N O
UNIT 24 40 4 4
EQIV $1 2-X,1-Y,1-Z
 
L.S. 4
PLAN  20
TEMP -100
HTAB N10 O1_$1
HTAB
CONF
BOND
MORE -1
BOND $H
fmap 2
acta
REM <olex2.extras>
REM <HklSrc "%.\\zhu1CuLT.hkl">
REM </olex2.extras>
 
WGHT    0.085600    0.064400
FVAR       0.32612
O1    4    0.758768    0.493080    0.586214    11.00000    0.03203    0.02901 =
         0.03914    0.00242    0.00614   -0.00509
O2    4    0.003648    0.153003    0.631206    11.00000    0.02738    0.03800 =
         0.04337    0.01132    0.00728   -0.00252
N1    3    0.367221    0.345181    0.631987    11.00000    0.02547    0.03021 =
         0.03050    0.00590    0.00451    0.00061
C2    1    0.583966    0.383714    0.572895    11.00000    0.02275    0.02912 =
         0.03044    0.00834    0.00162    0.00289
C3    1    0.564085    0.262690    0.488163    11.00000    0.02156    0.02760 =
         0.02771    0.00772   -0.00181    0.00293
C4    1    0.341349    0.160545    0.501369    11.00000    0.02469    0.02794 =
         0.03034    0.00631   -0.00055    0.00152
AFIX  43
H4    2    0.282032    0.072783    0.459116    11.00000   -1.20000
AFIX   0
C5    1    0.209567    0.208926    0.591423    11.00000    0.02210    0.02810 =
         0.03328    0.00975   -0.00101    0.00058
C6    1    0.314225    0.427085    0.725796    11.00000    0.03304    0.03357 =
         0.03704    0.00649    0.01000    0.00990
AFIX  23
H6A   2    0.123855    0.388001    0.745467    11.00000   -1.20000
H6B   2    0.322693    0.524321    0.713702    11.00000   -1.20000
AFIX   0
C7    1    0.521588    0.428996    0.813327    11.00000    0.03427    0.03556 =
         0.03257    0.00224    0.00683    0.00376
AFIX  23
H7A   2    0.708566    0.478321    0.796690    11.00000   -1.20000
H7B   2    0.469443    0.483090    0.875315    11.00000   -1.20000
AFIX   0
C8    1    0.537819    0.285048    0.836487    11.00000    0.04449    0.04325 =
         0.04297    0.01195    0.00364    0.01017
AFIX  23
H8A   2    0.600035    0.232328    0.775931    11.00000   -1.20000
H8B   2    0.349648    0.233664    0.850179    11.00000   -1.20000
AFIX   0
C9    1    0.735746    0.291157    0.927262    11.00000    0.05389    0.07285 =
         0.04334    0.01901    0.00519    0.01958
AFIX 137
H9A   2    0.923851    0.339065    0.913233    11.00000   -1.50000
H9B   2    0.736861    0.195910    0.939476    11.00000   -1.50000
H9C   2    0.674259    0.342438    0.987659    11.00000   -1.50000
AFIX   0
N10   3    0.754202    0.274312    0.418219    11.00000    0.02561    0.02790 =
         0.02956    0.00451    0.00376   -0.00020
AFIX  43
H10   2    0.877035    0.353985    0.420258    11.00000   -1.20000
AFIX   0
C11   1    0.764412    0.159015    0.338596    11.00000    0.02757    0.02789 =
         0.02915    0.00364    0.00040    0.00134
AFIX  23
H11A  2    0.577751    0.122545    0.303708    11.00000   -1.20000
H11B  2    0.817426    0.082313    0.369424    11.00000   -1.20000
AFIX   0
C12   1    0.973404    0.206881    0.261681    11.00000    0.02992    0.03165 =
         0.02996    0.00503    0.00228    0.00382
AFIX  23
H12A  2    1.155993    0.250245    0.297969    11.00000   -1.20000
H12B  2    0.912317    0.279280    0.228059    11.00000   -1.20000
AFIX   0
C13   1    1.008212    0.088326    0.180691    11.00000    0.03537    0.03588 =
         0.03283    0.00175    0.00279    0.00428
AFIX  23
H13A  2    1.069971    0.015793    0.213945    11.00000   -1.20000
H13B  2    0.826306    0.044989    0.143897    11.00000   -1.20000
AFIX   0
C14   1    1.219197    0.139692    0.104903    11.00000    0.03985    0.05443 =
         0.03129    0.00291    0.00461    0.00904
AFIX 137
H14A  2    1.243885    0.060028    0.056254    11.00000   -1.50000
H14B  2    1.397718    0.185714    0.141390    11.00000   -1.50000
H14C  2    1.151905    0.206424    0.068242    11.00000   -1.50000
AFIX   0
HKLF 4
 
REM  zhu1CuLT in P-1 #2
REM R1 =  0.0459 for    1977 Fo > 4sig(Fo)  and  0.0508 for all    2253 data
REM    147 parameters refined using      0 restraints
 
END  
     
WGHT      0.0856      0.0643 

REM Instructions for potential hydrogen bonds
EQIV $2 -x, -y, -z+1
HTAB C4 O2_$2
HTAB N10 O1_$1

REM Highest difference peak  0.202,  deepest hole -0.280,  1-sigma level  0.054
Q1    1   0.9993  0.3193  0.4414  11.00000  0.05    0.20
Q2    1   0.1547  0.3441  0.5518  11.00000  0.05    0.19
Q3    1   0.6238  0.5628  0.5358  11.00000  0.05    0.19
Q4    1   1.1169  0.3061  0.4319  11.00000  0.05    0.18
Q5    1   0.9515  0.2772  0.4974  11.00000  0.05    0.17
Q6    1   0.3122  0.3833  0.5183  11.00000  0.05    0.17
Q7    1   0.7715  0.5720  0.5069  11.00000  0.05    0.17
Q8    1   0.4153  0.4282  0.7755  11.00000  0.05    0.16
Q9    1   0.1197  0.2158  0.4799  11.00000  0.05    0.16
Q10   1   0.6249 -0.0189  0.3915  11.00000  0.05    0.16
Q11   1   1.1534  0.1980  0.3398  11.00000  0.05    0.15
Q12   1   1.3550  0.3209  0.3946  11.00000  0.05    0.15
Q13   1   0.2147  0.2494  0.4261  11.00000  0.05    0.15
Q14   1   0.2899  0.2382  0.7978  11.00000  0.05    0.15
Q15   1   0.5034  0.3539  0.8355  11.00000  0.05    0.14
Q16   1   0.9681  0.1914  0.4242  11.00000  0.05    0.14
Q17   1   0.6067  0.1790  0.5738  11.00000  0.05    0.14
Q18   1   0.4142  0.2183  0.4775  11.00000  0.05    0.14
Q19   1   0.6081  0.1047  0.5421  11.00000  0.05    0.14
Q20   1   0.1427  0.3593  0.7320  11.00000  0.05    0.14

  REM The information below was added by Olex2.
  REM
  REM R1 = 0.0459 for 1977 Fo > 4sig(Fo) and 0.0508 for all 3499 data
  REM n/a parameters refined using n/a restraints
  REM Highest difference peak 0.20, deepest hole -0.28
  REM Mean Shift 0, Max Shift 0.000.
  
  REM +++ Tabular Listing of Refinement Information +++
  REM R1_all = 0.0508
  REM R1_gt = 0.0459
  REM wR_ref = 0.1364
  REM GOOF = 1.034
  REM Shift_max = 0.000
  REM Shift_mean = 0
  REM Reflections_all = 3499
  REM Reflections_gt = 1977
  REM Parameters = n/a
  REM Hole = -0.28
  REM Peak = 0.20
  REM Flack = n/a
  
  
;
_cod_data_source_file            jo6b02706_si_002.cif
_cod_data_source_block           zhu1cult
_cod_depositor_comments          'Adding full bibliography for 4032128.cif.'
_cod_database_code               4032128
_shelx_space_group_comment
;
The symmetry employed for this shelxl refinement is uniquely defined
by the following loop, which should always be used as a source of
symmetry information in preference to the above space-group names.
They are only intended as comments.
;
_olex2_refinement_description
;
1. Fixed Uiso
 At 1.2 times of:
  All C(H) groups, All C(H,H) groups, All N(H) groups
 At 1.5 times of:
  All C(H,H,H) groups
2.a Secondary CH2 refined with riding coordinates:
 C6(H6A,H6B), C7(H7A,H7B), C8(H8A,H8B), C11(H11A,H11B), C12(H12A,H12B),
 C13(H13A,H13B)
2.b Aromatic/amide H refined with riding coordinates:
 C4(H4), N10(H10)
2.c Idealised Me refined as rotating group:
 C9(H9A,H9B,H9C), C14(H14A,H14B,H14C)
;
_shelx_shelxl_version_number     2014/7
_olex2_submission_special_instructions 'No special instructions were received'
loop_
_space_group_symop_operation_xyz
'x, y, z'
'-x, -y, -z'
loop_
_atom_site_label
_atom_site_type_symbol
_atom_site_fract_x
_atom_site_fract_y
_atom_site_fract_z
_atom_site_U_iso_or_equiv
_atom_site_adp_type
_atom_site_occupancy
_atom_site_site_symmetry_order
_atom_site_calc_flag
_atom_site_refinement_flags_posn
O1 O 0.7588(2) 0.49308(11) 0.58621(8) 0.0354(3) Uani 1 1 d .
O2 O 0.00365(19) 0.15300(11) 0.63121(8) 0.0372(3) Uani 1 1 d .
N1 N 0.3672(2) 0.34518(12) 0.63199(8) 0.0294(3) Uani 1 1 d .
C2 C 0.5840(3) 0.38371(15) 0.57290(10) 0.0275(3) Uani 1 1 d .
C3 C 0.5641(3) 0.26269(14) 0.48816(9) 0.0257(3) Uani 1 1 d .
C4 C 0.3413(3) 0.16055(14) 0.50137(10) 0.0282(3) Uani 1 1 d .
H4 H 0.2820 0.0728 0.4591 0.034 Uiso 1 1 calc R
C5 C 0.2096(3) 0.20893(14) 0.59142(10) 0.0281(3) Uani 1 1 d .
C6 C 0.3142(3) 0.42709(16) 0.72580(11) 0.0339(3) Uani 1 1 d .
H6A H 0.1239 0.3880 0.7455 0.041 Uiso 1 1 calc R
H6B H 0.3227 0.5243 0.7137 0.041 Uiso 1 1 calc R
C7 C 0.5216(3) 0.42900(16) 0.81333(10) 0.0349(3) Uani 1 1 d .
H7A H 0.7086 0.4783 0.7967 0.042 Uiso 1 1 calc R
H7B H 0.4694 0.4831 0.8753 0.042 Uiso 1 1 calc R
C8 C 0.5378(3) 0.28505(18) 0.83649(12) 0.0430(4) Uani 1 1 d .
H8A H 0.6000 0.2323 0.7759 0.052 Uiso 1 1 calc R
H8B H 0.3496 0.2337 0.8502 0.052 Uiso 1 1 calc R
C9 C 0.7357(4) 0.2912(2) 0.92726(13) 0.0548(5) Uani 1 1 d .
H9A H 0.9239 0.3391 0.9132 0.082 Uiso 1 1 calc GR
H9B H 0.7369 0.1959 0.9395 0.082 Uiso 1 1 calc GR
H9C H 0.6743 0.3424 0.9877 0.082 Uiso 1 1 calc GR
N10 N 0.7542(2) 0.27431(12) 0.41822(8) 0.0286(3) Uani 1 1 d .
H10 H 0.8770 0.3540 0.4203 0.034 Uiso 1 1 calc R
C11 C 0.7644(3) 0.15902(14) 0.33860(10) 0.0290(3) Uani 1 1 d .
H11A H 0.5778 0.1225 0.3037 0.035 Uiso 1 1 calc R
H11B H 0.8174 0.0823 0.3694 0.035 Uiso 1 1 calc R
C12 C 0.9734(3) 0.20688(15) 0.26168(10) 0.0309(3) Uani 1 1 d .
H12A H 1.1560 0.2502 0.2980 0.037 Uiso 1 1 calc R
H12B H 0.9123 0.2793 0.2281 0.037 Uiso 1 1 calc R
C13 C 1.0082(3) 0.08833(16) 0.18069(11) 0.0356(4) Uani 1 1 d .
H13A H 1.0700 0.0158 0.2139 0.043 Uiso 1 1 calc R
H13B H 0.8263 0.0450 0.1439 0.043 Uiso 1 1 calc R
C14 C 1.2192(3) 0.13969(19) 0.10490(11) 0.0424(4) Uani 1 1 d .
H14A H 1.2439 0.0600 0.0563 0.064 Uiso 1 1 calc GR
H14B H 1.3977 0.1857 0.1414 0.064 Uiso 1 1 calc GR
H14C H 1.1519 0.2064 0.0682 0.064 Uiso 1 1 calc GR
loop_
_atom_site_aniso_label
_atom_site_aniso_U_11
_atom_site_aniso_U_22
_atom_site_aniso_U_33
_atom_site_aniso_U_23
_atom_site_aniso_U_13
_atom_site_aniso_U_12
O1 0.0320(5) 0.0290(6) 0.0391(5) 0.0024(4) 0.0061(4) -0.0051(4)
O2 0.0274(5) 0.0380(6) 0.0434(6) 0.0113(4) 0.0073(4) -0.0025(4)
N1 0.0255(6) 0.0302(7) 0.0305(6) 0.0059(5) 0.0045(4) 0.0006(5)
C2 0.0227(6) 0.0291(7) 0.0304(7) 0.0083(5) 0.0016(5) 0.0029(5)
C3 0.0216(6) 0.0276(7) 0.0277(6) 0.0077(5) -0.0018(4) 0.0029(5)
C4 0.0247(6) 0.0279(7) 0.0303(6) 0.0063(5) -0.0006(5) 0.0015(5)
C5 0.0221(6) 0.0281(7) 0.0333(7) 0.0097(5) -0.0010(5) 0.0006(5)
C6 0.0330(7) 0.0336(8) 0.0370(8) 0.0065(6) 0.0100(5) 0.0099(6)
C7 0.0343(7) 0.0356(8) 0.0326(7) 0.0022(5) 0.0068(5) 0.0038(6)
C8 0.0445(8) 0.0432(10) 0.0430(8) 0.0119(7) 0.0036(6) 0.0102(7)
C9 0.0539(10) 0.0728(14) 0.0433(9) 0.0190(8) 0.0052(7) 0.0196(9)
N10 0.0256(5) 0.0279(6) 0.0296(6) 0.0045(4) 0.0038(4) -0.0002(4)
C11 0.0276(6) 0.0279(7) 0.0291(7) 0.0036(5) 0.0004(5) 0.0013(5)
C12 0.0299(7) 0.0317(8) 0.0300(7) 0.0050(5) 0.0023(5) 0.0038(5)
C13 0.0354(7) 0.0359(8) 0.0328(7) 0.0017(6) 0.0028(5) 0.0043(6)
C14 0.0399(8) 0.0544(10) 0.0313(7) 0.0029(6) 0.0046(6) 0.0090(7)
loop_
_atom_type_symbol
_atom_type_description
_atom_type_scat_dispersion_real
_atom_type_scat_dispersion_imag
_atom_type_scat_source
C C 0.0181 0.0091 'International Tables Vol C Tables 4.2.6.8 and 6.1.1.4'
H H 0.0000 0.0000 'International Tables Vol C Tables 4.2.6.8 and 6.1.1.4'
N N 0.0311 0.0180 'International Tables Vol C Tables 4.2.6.8 and 6.1.1.4'
O O 0.0492 0.0322 'International Tables Vol C Tables 4.2.6.8 and 6.1.1.4'
loop_
_geom_angle_atom_site_label_1
_geom_angle_atom_site_label_2
_geom_angle_atom_site_label_3
_geom_angle
C2 N1 C5 109.92(11)
C2 N1 C6 124.93(12)
C5 N1 C6 125.06(11)
O1 C2 N1 126.78(13)
O1 C2 C3 127.21(12)
N1 C2 C3 106.00(11)
C4 C3 C2 108.69(11)
N10 C3 C2 118.17(11)
N10 C3 C4 133.14(13)
C3 C4 H4 126.1
C3 C4 C5 107.80(12)
C5 C4 H4 126.1
O2 C5 N1 121.72(13)
O2 C5 C4 130.70(13)
N1 C5 C4 107.58(11)
N1 C6 H6A 109.0
N1 C6 H6B 109.0
N1 C6 C7 112.83(11)
H6A C6 H6B 107.8
C7 C6 H6A 109.0
C7 C6 H6B 109.0
C6 C7 H7A 108.7
C6 C7 H7B 108.7
H7A C7 H7B 107.6
C8 C7 C6 114.19(12)
C8 C7 H7A 108.7
C8 C7 H7B 108.7
C7 C8 H8A 109.0
C7 C8 H8B 109.0
C7 C8 C9 112.72(14)
H8A C8 H8B 107.8
C9 C8 H8A 109.0
C9 C8 H8B 109.0
C8 C9 H9A 109.5
C8 C9 H9B 109.5
C8 C9 H9C 109.5
H9A C9 H9B 109.5
H9A C9 H9C 109.5
H9B C9 H9C 109.5
C3 N10 H10 119.0
C3 N10 C11 121.92(11)
C11 N10 H10 119.0
N10 C11 H11A 109.5
N10 C11 H11B 109.5
N10 C11 C12 110.66(11)
H11A C11 H11B 108.1
C12 C11 H11A 109.5
C12 C11 H11B 109.5
C11 C12 H12A 109.0
C11 C12 H12B 109.0
C11 C12 C13 113.02(12)
H12A C12 H12B 107.8
C13 C12 H12A 109.0
C13 C12 H12B 109.0
C12 C13 H13A 109.3
C12 C13 H13B 109.3
H13A C13 H13B 107.9
C14 C13 C12 111.71(13)
C14 C13 H13A 109.3
C14 C13 H13B 109.3
C13 C14 H14A 109.5
C13 C14 H14B 109.5
C13 C14 H14C 109.5
H14A C14 H14B 109.5
H14A C14 H14C 109.5
H14B C14 H14C 109.5
loop_
_geom_bond_atom_site_label_1
_geom_bond_atom_site_label_2
_geom_bond_distance
O1 C2 1.2161(17)
O2 C5 1.2155(17)
N1 C2 1.3596(16)
N1 C5 1.4269(18)
N1 C6 1.4522(17)
C2 C3 1.5115(19)
C3 C4 1.3537(19)
C3 N10 1.3340(17)
C4 H4 0.9500
C4 C5 1.4487(19)
C6 H6A 0.9900
C6 H6B 0.9900
C6 C7 1.525(2)
C7 H7A 0.9900
C7 H7B 0.9900
C7 C8 1.517(2)
C8 H8A 0.9900
C8 H8B 0.9900
C8 C9 1.519(2)
C9 H9A 0.9800
C9 H9B 0.9800
C9 H9C 0.9800
N10 H10 0.8800
N10 C11 1.4561(17)
C11 H11A 0.9900
C11 H11B 0.9900
C11 C12 1.5168(18)
C12 H12A 0.9900
C12 H12B 0.9900
C12 C13 1.5215(19)
C13 H13A 0.9900
C13 H13B 0.9900
C13 C14 1.521(2)
C14 H14A 0.9800
C14 H14B 0.9800
C14 H14C 0.9800
loop_
_geom_hbond_atom_site_label_D
_geom_hbond_atom_site_label_H
_geom_hbond_atom_site_label_A
_geom_hbond_distance_DH
_geom_hbond_distance_HA
_geom_hbond_distance_DA
_geom_hbond_angle_DHA
_geom_hbond_site_symmetry_A
N10 H10 O1 0.88 2.09 2.9498(15) 164.4 2_766
loop_
_geom_torsion_atom_site_label_1
_geom_torsion_atom_site_label_2
_geom_torsion_atom_site_label_3
_geom_torsion_atom_site_label_4
_geom_torsion
O1 C2 C3 C4 179.40(14)
O1 C2 C3 N10 -0.9(2)
N1 C2 C3 C4 -0.17(14)
N1 C2 C3 N10 179.57(10)
N1 C6 C7 C8 -56.19(16)
C2 N1 C5 O2 -179.35(12)
C2 N1 C5 C4 0.44(14)
C2 N1 C6 C7 -71.80(17)
C2 C3 C4 C5 0.43(14)
C2 C3 N10 C11 175.09(11)
C3 C4 C5 O2 179.23(14)
C3 C4 C5 N1 -0.54(14)
C3 N10 C11 C12 172.21(11)
C4 C3 N10 C11 -5.2(2)
C5 N1 C2 O1 -179.74(13)
C5 N1 C2 C3 -0.17(14)
C5 N1 C6 C7 104.26(15)
C6 N1 C2 O1 -3.2(2)
C6 N1 C2 C3 176.39(11)
C6 N1 C5 O2 4.1(2)
C6 N1 C5 C4 -176.12(12)
C6 C7 C8 C9 -177.20(13)
N10 C3 C4 C5 -179.25(13)
N10 C11 C12 C13 175.91(11)
C11 C12 C13 C14 -179.93(11)
loop_
_refln_index_h
_refln_index_k
_refln_index_l
_refln_F_squared_meas
_refln_F_squared_sigma
-6 2 -1 0.78 0.06
-6 2 0 0.13 0.03
-6 2 1 1.73 0.09
-6 3 -1 1.35 0.08
-6 3 0 1.82 0.1
-6 3 1 1.63 0.09
-6 3 2 0.77 0.06
-6 4 0 0.6 0.05
-6 4 1 -0.01 0.01
-5 -4 -1 0.17 0.03
-5 -4 0 1.07 0.08
-5 -4 1 0.35 0.05
-5 -4 2 0.68 0.07
-5 -4 3 0.44 0.05
-5 -4 4 0.04 0.02
-5 -4 5 0.5 0.05
-5 -3 -4 -0.03 0.02
-5 -3 -3 0.87 0.07
-5 -3 -3 0.86 0.08
-5 -3 -2 0.28 0.05
-5 -3 -1 1.59 0.11
-5 -3 0 4.26 0.19
-5 -3 1 2.88 0.16
-5 -3 2 0.02 0.02
-5 -3 3 1.59 0.11
-5 -3 4 3.24 0.16
-5 -3 5 1.82 0.11
-5 -3 6 2.23 0.12
-5 -3 7 0.82 0.06
-5 -2 -5 6.04 0.2
-5 -2 -5 4.63 0.17
-5 -2 -4 3.61 0.17
-5 -2 -4 6.36 0.22
-5 -2 -3 0.98 0.09
-5 -2 -3 1.85 0.13
-5 -2 -2 3.02 0.17
-5 -2 -2 2.44 0.14
-5 -2 -1 0.2 0.05
-5 -2 -1 0.27 0.05
-5 -2 0 7.37 0.27
-5 -2 0 6.13 0.22
-5 -2 1 4.39 0.21
-5 -2 2 0.94 0.1
-5 -2 3 0.53 0.07
-5 -2 4 0.08 0.03
-5 -2 5 0.01 0.01
-5 -2 6 0.17 0.04
-5 -2 7 0.64 0.06
-5 -2 8 0.04 0.02
-5 -1 -7 3.07 0.13
-5 -1 -6 6.29 0.22
-5 -1 -5 0.52 0.06
-5 -1 -4 0.62 0.08
-5 -1 -4 0.54 0.07
-5 -1 -3 2.34 0.15
-5 -1 -3 2.31 0.16
-5 -1 -2 18.57 0.43
-5 -1 -2 19.15 0.44
-5 -1 -1 0 0.02
-5 -1 -1 0.03 0.03
-5 -1 0 29.57 0.55
-5 -1 0 30.3 0.55
-5 -1 1 5.39 0.24
-5 -1 1 5.68 0.23
-5 -1 1 5.39 0.23
-5 -1 2 8.26 0.27
-5 -1 2 8.16 0.29
-5 -1 2 7.88 0.27
-5 -1 3 8.01 0.28
-5 -1 3 8.24 0.27
-5 -1 4 1.88 0.13
-5 -1 4 1.74 0.13
-5 -1 5 -0.01 0.02
-5 -1 5 0 0.01
-5 -1 6 0.24 0.04
-5 -1 7 -0.03 0.02
-5 -1 8 0.15 0.03
-5 0 -7 0.03 0.02
-5 0 -6 1.9 0.13
-5 0 -5 3.31 0.16
-5 0 -5 3.21 0.18
-5 0 -4 2.09 0.15
-5 0 -4 2.03 0.13
-5 0 -3 0 0.02
-5 0 -3 0.1 0.05
-5 0 -2 0.12 0.03
-5 0 -2 0.16 0.04
-5 0 -1 9.38 0.33
-5 0 -1 9.32 0.3
-5 0 0 9.97 0.34
-5 0 0 10.02 0.32
-5 0 0 10.33 0.34
-5 0 1 1.82 0.14
-5 0 1 1.76 0.13
-5 0 1 1.7 0.14
-5 0 2 4.02 0.2
-5 0 2 3.88 0.21
-5 0 3 3.16 0.19
-5 0 3 3.16 0.17
-5 0 4 8.78 0.28
-5 0 4 8.79 0.31
-5 0 5 0.92 0.1
-5 0 6 0.06 0.02
-5 0 7 0.11 0.03
-5 0 8 1.36 0.09
-5 0 9 0.11 0.02
-5 1 -8 0.24 0.04
-5 1 -7 1.52 0.11
-5 1 -6 0.59 0.07
-5 1 -5 0.72 0.09
-5 1 -4 0.21 0.05
-5 1 -3 0.22 0.05
-5 1 -2 1.71 0.14
-5 1 -1 23.61 0.53
-5 1 0 6.23 0.27
-5 1 1 0.7 0.09
-5 1 2 9.77 0.34
-5 1 3 2.14 0.16
-5 1 4 0.69 0.09
-5 1 5 0.03 0.02
-5 1 6 0.36 0.06
-5 1 7 0.08 0.03
-5 1 8 0.43 0.06
-5 1 9 0.53 0.06
-5 2 -8 5.65 0.17
-5 2 -7 1.4 0.1
-5 2 -6 0.7 0.08
-5 2 -5 0.06 0.03
-5 2 -4 0.24 0.05
-5 2 -3 0.66 0.09
-5 2 -2 7.68 0.3
-5 2 0 0.05 0.03
-5 2 1 6.71 0.28
-5 2 2 4.56 0.24
-5 2 3 0.3 0.06
-5 2 4 7.02 0.29
-5 2 5 6.13 0.26
-5 2 6 0.12 0.03
-5 2 7 0.08 0.03
-5 2 8 0.01 0.01
-5 2 9 0.03 0.02
-5 3 -8 0.55 0.06
-5 3 -7 0.06 0.02
-5 3 -7 0 0.03
-5 3 -6 0.05 0.03
-5 3 -5 0.19 0.05
-5 3 -4 0.01 0.02
-5 3 -3 4.27 0.22
-5 3 0 0.08 0.03
-5 3 1 0.01 0.02
-5 3 2 0.01 0.02
-5 3 3 1.27 0.12
-5 3 4 7.6 0.29
-5 3 5 1.7 0.13
-5 3 6 0.84 0.09
-5 3 7 0.03 0.02
-5 3 8 1.68 0.11
-5 3 9 2.33 0.11
-5 4 -8 0.56 0.06
-5 4 -7 0.02 0.02
-5 4 -5 0.58 0.07
-5 4 -4 1.98 0.14
-5 4 -3 2.01 0.14
-5 4 -1 0.25 0.05
-5 4 0 0.65 0.08
-5 4 1 0.29 0.06
-5 4 2 0.01 0.02
-5 4 3 6.8 0.26
-5 4 4 20.97 0.45
-5 4 5 1.66 0.12
-5 4 6 -0.01 0.01
-5 4 7 0.6 0.06
-5 4 8 0.02 0.01
-5 5 -8 0.82 0.07
-5 5 -7 0.22 0.04
-5 5 -6 0.34 0.06
-5 5 -4 1.15 0.11
-5 5 -3 3.96 0.22
-5 5 -3 4.12 0.19
-5 5 -2 0 0.02
-5 5 -1 0.56 0.08
-5 5 0 0 0.02
-5 5 1 12.45 0.32
-5 5 1 11.58 0.39
-5 5 2 1.39 0.14
-5 5 2 1.56 0.11
-5 5 3 2.22 0.13
-5 5 3 2.16 0.17
-5 5 4 0.28 0.06
-5 5 4 0.29 0.05
-5 5 5 0.34 0.05
-5 5 5 0.27 0.05
-5 5 6 1.14 0.08
-5 5 6 1.07 0.1
-5 5 7 0.1 0.03
-5 5 7 0.08 0.02
-5 6 -7 0.25 0.04
-5 6 -6 0.08 0.03
-5 6 -5 0.29 0.05
-5 6 -4 0.21 0.05
-5 6 -3 4.81 0.23
-5 6 -2 0.7 0.09
-5 6 -1 1.27 0.13
-5 6 0 4.23 0.23
-5 6 1 0.03 0.02
-5 6 2 1.68 0.14
-5 6 3 11.5 0.37
-5 6 4 6.21 0.26
-5 6 5 0.97 0.1
-5 6 6 0.01 0.02
-5 7 -6 0.04 0.02
-5 7 -4 0.43 0.06
-5 7 -3 1.33 0.12
-5 7 -2 0.93 0.1
-5 7 -1 0.22 0.05
-5 7 0 3.03 0.18
-5 7 1 0.22 0.05
-5 7 2 12.72 0.37
-5 7 3 1.7 0.13
-5 7 4 0.01 0.01
-5 7 5 0.53 0.06
-5 8 -5 0.02 0.02
-5 8 -4 0.01 0.01
-5 8 -3 0.75 0.08
-5 8 -2 0.08 0.03
-5 8 -1 0.44 0.06
-5 8 0 0.17 0.04
-5 8 1 0.05 0.02
-5 8 2 0.91 0.08
-5 8 3 0.35 0.05
-4 -7 3 0.02 0.03
-4 -7 4 0.06 0.04
-4 -6 -2 0.11 0.03
-4 -6 -1 5.1 0.18
-4 -6 0 1.31 0.09
-4 -6 0 1.42 0.18
-4 -6 1 -0.01 0.02
-4 -6 1 -0.04 0.05
-4 -6 2 0.07 0.03
-4 -6 2 -0.01 0.03
-4 -6 3 -0.02 0.04
-4 -6 3 0.01 0.02
-4 -6 4 0.07 0.06
-4 -6 4 0.01 0.01
-4 -6 5 0.14 0.08
-4 -6 5 0.09 0.03
-4 -6 6 0 0.01
-4 -6 6 -0.01 0.03
-4 -6 7 0.47 0.11
-4 -5 -4 0.47 0.06
-4 -5 -3 1.16 0.1
-4 -5 -2 0.33 0.06
-4 -5 -1 0.69 0.08
-4 -5 0 2.9 0.17
-4 -5 0 2.86 0.3
-4 -5 1 2.02 0.26
-4 -5 1 2.1 0.15
-4 -5 2 1.32 0.22
-4 -5 2 1.51 0.12
-4 -5 3 7.08 0.5
-4 -5 3 6.2 0.25
-4 -5 4 0.07 0.03
-4 -5 4 0.05 0.06
-4 -5 5 0.93 0.18
-4 -5 5 0.7 0.08
-4 -5 6 2.35 0.28
-4 -5 7 4.7 0.37
-4 -4 -7 1.07 0.08
-4 -4 -6 4.02 0.18
-4 -4 -6 5.44 0.21
-4 -4 -5 0.15 0.04
-4 -4 -5 0.27 0.06
-4 -4 -4 9.71 0.3
-4 -4 -4 9.73 0.32
-4 -4 -3 6.49 0.27
-4 -4 -3 6.42 0.25
-4 -4 -2 8.77 0.32
-4 -4 -1 10.52 0.35
-4 -4 0 2.36 0.17
-4 -4 1 0.66 0.09
-4 -4 1 0.72 0.16
-4 -4 2 0.22 0.05
-4 -4 2 0.29 0.11
-4 -4 3 7.72 0.55
-4 -4 3 7.27 0.3
-4 -4 4 3.3 0.36
-4 -4 5 0.13 0.08
-4 -4 6 0.42 0.13
-4 -4 7 0.92 0.11
-4 -4 7 1.04 0.19
-4 -4 8 0.14 0.04
-4 -4 8 0.21 0.09
-4 -4 9 2.82 0.18
-4 -4 10 0.01 0.01
-4 -3 -9 0.32 0.04
-4 -3 -8 0.52 0.06
-4 -3 -7 1.07 0.1
-4 -3 -6 7.46 0.28
-4 -3 -6 7.5 0.29
-4 -3 -5 7.57 0.3
-4 -3 -5 7.39 0.3
-4 -3 -4 3.12 0.2
-4 -3 -4 2.65 0.18
-4 -3 -3 9.44 0.34
-4 -3 -3 9.82 0.35
-4 -3 -2 0.06 0.04
-4 -3 -2 0.04 0.03
-4 -3 -2 0.07 0.04
-4 -3 -1 6.26 0.29
-4 -3 -1 6.21 0.33
-4 -3 -1 6.57 0.27
-4 -3 0 27.63 0.69
-4 -3 0 27.97 0.61
-4 -3 1 7.53 0.32
-4 -3 1 7.38 0.36
-4 -3 2 18.69 0.85
-4 -3 2 16.25 0.53
-4 -3 3 14.56 0.49
-4 -3 3 16.25 0.81
-4 -3 4 21.25 0.93
-4 -3 4 19.5 0.57
-4 -3 5 8.08 0.36
-4 -3 5 8.06 0.37
-4 -3 5 8.61 0.6
-4 -3 6 4.49 0.43
-4 -3 6 3.98 0.26
-4 -3 7 0.65 0.17
-4 -3 7 0.54 0.1
-4 -3 8 1.41 0.15
-4 -3 9 0.01 0.02
-4 -3 10 0.06 0.03
-4 -3 11 2 0.14
-4 -2 -9 -0.04 0.04
-4 -2 -8 0.07 0.04
-4 -2 -7 0.22 0.06
-4 -2 -7 0.06 0.02
-4 -2 -6 0.07 0.05
-4 -2 -5 2.75 0.19
-4 -2 -5 3.08 0.2
-4 -2 -4 0.45 0.08
-4 -2 -4 0.41 0.07
-4 -2 -3 2.27 0.2
-4 -2 -3 2.57 0.18
-4 -2 -3 2.59 0.18
-4 -2 -2 24.75 0.56
-4 -2 -2 25.1 0.58
-4 -2 -2 24.31 0.64
-4 -2 -1 0.14 0.04
-4 -2 -1 0.1 0.04
-4 -2 -1 0.05 0.03
-4 -2 0 0.9 0.12
-4 -2 0 0.99 0.11
-4 -2 0 1.03 0.11
-4 -2 0 0.99 0.1
-4 -2 1 -0.01 0.02
-4 -2 1 -0.02 0.02
-4 -2 1 -0.02 0.02
-4 -2 1 -0.01 0.04
-4 -2 2 21.1 0.59
-4 -2 2 20.4 0.47
-4 -2 3 17.18 0.43
-4 -2 3 18.22 0.55
-4 -2 4 0.08 0.08
-4 -2 4 0.08 0.04
-4 -2 4 0.17 0.06
-4 -2 4 0.08 0.03
-4 -2 5 0.38 0.08
-4 -2 5 0.36 0.14
-4 -2 5 0.31 0.06
-4 -2 5 0.3 0.08
-4 -2 6 3.34 0.37
-4 -2 6 2.62 0.23
-4 -2 6 2.8 0.21
-4 -2 7 10.31 0.45
-4 -2 7 12.64 0.72
-4 -2 8 1.82 0.19
-4 -2 9 0.52 0.1
-4 -2 10 1.12 0.13
-4 -2 11 0.04 0.02
-4 -1 -10 3.05 0.14
-4 -1 -9 3.4 0.17
-4 -1 -8 0.14 0.05
-4 -1 -7 -0.02 0.04
-4 -1 -6 1.58 0.14
-4 -1 -6 1.46 0.14
-4 -1 -5 0.03 0.04
-4 -1 -5 0.06 0.04
-4 -1 -4 0.85 0.11
-4 -1 -4 0.79 0.1
-4 -1 -3 9.91 0.35
-4 -1 -3 10.24 0.36
-4 -1 -2 0.3 0.06
-4 -1 -2 0.31 0.06
-4 -1 -2 0.33 0.07
-4 -1 -1 0.68 0.09
-4 -1 -1 0.66 0.09
-4 -1 -1 0.65 0.09
-4 -1 -1 0.57 0.09
-4 -1 0 0.66 0.1
-4 -1 0 0.73 0.1
-4 -1 0 0.72 0.09
-4 -1 1 20.76 0.49
-4 -1 1 21.6 0.56
-4 -1 2 19.41 0.48
-4 -1 2 19.61 0.54
-4 -1 3 9.63 0.34
-4 -1 3 10.76 0.63
-4 -1 3 10.47 0.39
-4 -1 4 12.31 0.49
-4 -1 4 11.88 0.42
-4 -1 4 13.39 0.72
-4 -1 5 1.26 0.23
-4 -1 5 1.13 0.13
-4 -1 5 1.23 0.16
-4 -1 6 8 0.41
-4 -1 6 8.27 0.35
-4 -1 7 0.35 0.07
-4 -1 7 0.36 0.07
-4 -1 7 0.41 0.09
-4 -1 8 3.83 0.27
-4 -1 8 3.81 0.22
-4 -1 9 0.72 0.09
-4 -1 9 0.67 0.11
-4 -1 10 0.09 0.03
-4 -1 10 0.1 0.04
-4 -1 11 0.4 0.05
-4 0 -11 0.18 0.05
-4 0 -10 -0.04 0.03
-4 0 -9 0.26 0.06
-4 0 -8 0.33 0.06
-4 0 -7 -0.03 0.04
-4 0 -7 -0.02 0.04
-4 0 -6 5.38 0.27
-4 0 -6 5.09 0.25
-4 0 -5 8.29 0.33
-4 0 -5 7.89 0.31
-4 0 -4 8.55 0.33
-4 0 -4 8.32 0.32
-4 0 -3 0.61 0.09
-4 0 -3 0.56 0.08
-4 0 -2 0.13 0.04
-4 0 -2 0.09 0.03
-4 0 -1 3.1 0.35
-4 0 -1 3.2 0.19
-4 0 -1 3.01 0.19
-4 0 0 34.59 1.16
-4 0 0 36.38 0.66
-4 0 0 36.15 0.64
-4 0 1 5.58 0.26
-4 0 1 5.55 0.48
-4 0 2 2.27 0.17
-4 0 2 2.08 0.31
-4 0 3 0.86 0.2
-4 0 3 0.88 0.22
-4 0 4 7.5 0.39
-4 0 4 6.94 0.58
-4 0 4 6.56 0.63
-4 0 5 5.16 0.28
-4 0 5 4.75 0.49
-4 0 5 6.32 0.49
-4 0 5 4.7 0.54
-4 0 5 5.06 0.32
-4 0 6 0.38 0.08
-4 0 6 0.38 0.09
-4 0 7 2.3 0.19
-4 0 7 2.3 0.22
-4 0 8 9.23 0.43
-4 0 8 9.01 0.36
-4 0 9 0.14 0.04
-4 0 9 0.21 0.07
-4 0 10 1.2 0.12
-4 0 10 1.41 0.15
-4 0 11 1.2 0.1
-4 0 12 0.01 0.01
-4 1 -11 0.5 0.06
-4 1 -10 0.14 0.04
-4 1 -9 0.16 0.05
-4 1 -8 0 0.04
-4 1 -7 6.46 0.28
-4 1 -7 6.56 0.27
-4 1 -6 7.11 0.28
-4 1 -6 7.3 0.31
-4 1 -5 0.68 0.09
-4 1 -5 0.65 0.09
-4 1 -4 0.63 0.08
-4 1 -4 0.61 0.09
-4 1 -3 0.22 0.05
-4 1 -3 0.2 0.09
-4 1 -3 0.23 0.05
-4 1 -2 0.06 0.05
-4 1 -2 0.1 0.04
-4 1 -1 6.11 0.51
-4 1 -1 7.61 0.3
-4 1 0 8.91 0.33
-4 1 0 7.72 0.57
-4 1 1 2.35 0.33
-4 1 1 2.37 0.17
-4 1 2 0.03 0.03
-4 1 3 -0.05 0.06
-4 1 4 0.5 0.17
-4 1 4 0.55 0.17
-4 1 4 0.79 0.11
-4 1 5 0.99 0.12
-4 1 5 0.75 0.2
-4 1 5 0.72 0.21
-4 1 6 18.38 0.61
-4 1 6 17.79 0.52
-4 1 7 0.78 0.11
-4 1 7 0.89 0.13
-4 1 8 6.38 0.31
-4 1 9 1.45 0.14
-4 1 10 5.53 0.25
-4 1 11 1.97 0.14
-4 1 12 0.69 0.07
-4 2 -11 0.14 0.03
-4 2 -10 0.31 0.05
-4 2 -9 2.73 0.17
-4 2 -8 -0.01 0.04
-4 2 -8 -0.08 0.03
-4 2 -7 0.5 0.08
-4 2 -6 4.73 0.24
-4 2 -5 0.65 0.09
-4 2 -5 0.24 0.11
-4 2 -4 0.65 0.16
-4 2 -3 1.72 0.27
-4 2 -2 9.04 0.33
-4 2 -2 7.79 0.58
-4 2 -1 0.38 0.07
-4 2 -1 0.17 0.08
-4 2 0 9.08 0.33
-4 2 0 8.92 0.63
-4 2 1 0.34 0.12
-4 2 1 0.42 0.07
-4 2 2 2.23 0.33
-4 2 3 0.11 0.06
-4 2 4 1.17 0.13
-4 2 4 1.23 0.26
-4 2 5 1.68 0.16
-4 2 5 1.08 0.26
-4 2 6 20.24 0.56
-4 2 7 14.96 0.48
-4 2 8 0.17 0.05
-4 2 9 3.93 0.23
-4 2 10 0.61 0.08
-4 2 11 0.75 0.08
-4 2 12 0.75 0.07
-4 3 -11 1.19 0.09
-4 3 -10 0.34 0.06
-4 3 -9 2.24 0.16
-4 3 -9 2.25 0.15
-4 3 -8 3.02 0.2
-4 3 -7 9.65 0.36
-4 3 -6 0.57 0.09
-4 3 -6 0.57 0.08
-4 3 -5 3.82 0.23
-4 3 -5 3.87 0.21
-4 3 -4 5.37 0.27
-4 3 -4 4.35 0.43
-4 3 -3 0.04 0.05
-4 3 -3 0.02 0.02
-4 3 -2 0.13 0.04
-4 3 -2 0.15 0.04
-4 3 -2 0.1 0.07
-4 3 -1 4.83 0.23
-4 3 -1 4.22 0.25
-4 3 -1 4.83 0.47
-4 3 0 5.74 0.26
-4 3 0 5.78 0.51
-4 3 0 5.31 0.28
-4 3 1 3.33 0.2
-4 3 1 3.16 0.22
-4 3 1 3.47 0.41
-4 3 2 0.22 0.06
-4 3 2 0.22 0.1
-4 3 3 7.05 0.59
-4 3 3 6.61 0.33
-4 3 4 13.89 0.84
-4 3 4 14.12 0.45
-4 3 4 13.71 0.49
-4 3 5 0.22 0.11
-4 3 5 0.17 0.05
-4 3 5 0.14 0.05
-4 3 6 2.64 0.22
-4 3 6 2.69 0.2
-4 3 7 0.2 0.06
-4 3 7 0.22 0.06
-4 3 8 3.58 0.22
-4 3 8 3.17 0.23
-4 3 9 0.33 0.06
-4 3 9 0.32 0.07
-4 3 10 0.01 0.01
-4 3 10 -0.01 0.01
-4 3 11 0.15 0.03
-4 3 11 0.01 0.01
-4 4 -11 1.15 0.09
-4 4 -11 1.11 0.08
-4 4 -10 0.06 0.03
-4 4 -10 0.04 0.02
-4 4 -9 1.17 0.12
-4 4 -9 1.19 0.11
-4 4 -8 0.94 0.12
-4 4 -7 6.85 0.31
-4 4 -6 0.32 0.07
-4 4 -5 0.04 0.03
-4 4 -4 6.62 0.32
-4 4 -3 1.18 0.13
-4 4 -3 1.14 0.22
-4 4 -2 1.32 0.14
-4 4 -2 1.45 0.25
-4 4 -2 1.46 0.12
-4 4 -1 2.99 0.22
-4 4 -1 3.18 0.18
-4 4 -1 3.04 0.37
-4 4 0 4.3 0.44
-4 4 0 4.35 0.22
-4 4 0 4.36 0.27
-4 4 1 7.92 0.37
-4 4 1 8.17 0.61
-4 4 1 8.15 0.3
-4 4 2 8.46 0.63
-4 4 2 8.41 0.39
-4 4 3 0.09 0.07
-4 4 3 0.09 0.04
-4 4 4 0.43 0.08
-4 4 4 0.41 0.09
-4 4 4 0.45 0.15
-4 4 5 19.14 0.5
-4 4 5 18.25 0.59
-4 4 6 26.83 0.59
-4 4 6 26.16 0.7
-4 4 7 2.21 0.17
-4 4 7 2.13 0.19
-4 4 8 1.11 0.14
-4 4 8 1.14 0.11
-4 4 9 0.13 0.05
-4 4 9 0.15 0.04
-4 4 10 0.85 0.08
-4 4 10 0.56 0.08
-4 4 11 4.44 0.18
-4 4 11 4.35 0.15
-4 5 -11 0.73 0.07
-4 5 -11 1.08 0.09
-4 5 -10 0.5 0.07
-4 5 -10 0.53 0.07
-4 5 -9 0.01 0.02
-4 5 -8 5.59 0.28
-4 5 -6 0.05 0.03
-4 5 -5 0.49 0.09
-4 5 -4 1.71 0.17
-4 5 -3 0.99 0.2
-4 5 -3 0.99 0.13
-4 5 -2 5.95 0.32
-4 5 -2 5.96 0.5
-4 5 -1 0.76 0.12
-4 5 -1 0.79 0.18
-4 5 0 1.46 0.17
-4 5 0 1.47 0.25
-4 5 1 1.97 0.19
-4 5 1 1.95 0.29
-4 5 2 2.17 0.31
-4 5 2 2.17 0.2
-4 5 3 1.96 0.19
-4 5 4 3.06 0.24
-4 5 5 13.61 0.51
-4 5 6 2.59 0.22
-4 5 6 2.64 0.17
-4 5 7 0.04 0.03
-4 5 7 0.06 0.03
-4 5 8 0.35 0.06
-4 5 8 0.37 0.08
-4 5 9 0.29 0.06
-4 5 9 0.34 0.05
-4 5 10 0.23 0.05
-4 6 -11 0.01 0.01
-4 6 -11 0.02 0.02
-4 6 -10 5.93 0.22
-4 6 -10 5.94 0.22
-4 6 -9 16.16 0.4
-4 6 -8 1.27 0.13
-4 6 -7 0.02 0.02
-4 6 -6 1.05 0.13
-4 6 -5 0.43 0.08
-4 6 -4 2.49 0.2
-4 6 -3 8.72 0.39
-4 6 -2 0.5 0.09
-4 6 -1 0.36 0.08
-4 6 0 2.57 0.22
-4 6 1 0 0.02
-4 6 2 0.5 0.1
-4 6 3 2.58 0.22
-4 6 4 2.3 0.21
-4 6 5 0.41 0.09
-4 6 6 5.33 0.3
-4 6 7 0.05 0.03
-4 6 8 0.2 0.05
-4 6 9 2.25 0.15
-4 6 10 0.23 0.04
-4 7 -10 1.78 0.1
-4 7 -10 1.8 0.11
-4 7 -9 1.45 0.11
-4 7 -9 1.43 0.11
-4 7 -8 0 0.02
-4 7 -8 0.03 0.02
-4 7 -6 0.99 0.12
-4 7 -5 0.98 0.12
-4 7 -4 3.38 0.23
-4 7 -3 0.17 0.06
-4 7 -2 -0.01 0.02
-4 7 -1 2.16 0.19
-4 7 0 0.59 0.1
-4 7 1 0.05 0.03
-4 7 2 1.58 0.17
-4 7 3 6.55 0.34
-4 7 4 12.3 0.45
-4 7 5 1.39 0.15
-4 7 6 1.59 0.15
-4 7 7 2.57 0.17
-4 7 8 0.02 0.02
-4 7 9 0.09 0.03
-4 8 -9 8.24 0.23
-4 8 -8 1.37 0.09
-4 8 -7 0.02 0.02
-4 8 -7 0.02 0.02
-4 8 -6 0.65 0.09
-4 8 -5 0.25 0.06
-4 8 -4 0.1 0.04
-4 8 -3 3.72 0.23
-4 8 -2 0.21 0.06
-4 8 -1 11 0.41
-4 8 0 3.7 0.24
-4 8 1 0.33 0.07
-4 8 2 5.23 0.28
-4 8 3 7.97 0.34
-4 8 4 0.69 0.1
-4 8 5 1.16 0.12
-4 8 6 0.34 0.06
-4 8 7 1.68 0.12
-4 9 -7 0 0.01
-4 9 -6 0.02 0.02
-4 9 -5 0.5 0.07
-4 9 -4 12.99 0.36
-4 9 -3 3.07 0.18
-4 9 -2 1.59 0.13
-4 9 -1 0.1 0.04
-4 9 0 0.58 0.08
-4 9 1 0.63 0.08
-4 9 2 0.37 0.06
-4 9 3 1.43 0.12
-4 9 4 0.75 0.08
-4 9 5 0.25 0.04
-4 10 -4 1.88 0.1
-4 10 -3 0.17 0.03
-4 10 -2 0.38 0.05
-4 10 -1 0.1 0.03
-4 10 0 -0.01 0.01
-4 10 1 0.84 0.07
-3 -9 2 0.57 0.1
-3 -9 3 1.16 0.14
-3 -8 -2 0.53 0.11
-3 -8 -1 6.08 0.39
-3 -8 0 0.49 0.13
-3 -8 1 1.78 0.24
-3 -8 2 1.78 0.25
-3 -8 3 3.17 0.31
-3 -8 4 0.37 0.11
-3 -8 5 0.82 0.15
-3 -8 6 2.2 0.23
-3 -8 7 0.06 0.05
-3 -7 -3 1.31 0.19
-3 -7 -2 4.63 0.38
-3 -7 -1 2.02 0.27
-3 -7 0 3.88 0.38
-3 -7 1 0.55 0.17
-3 -7 2 0.59 0.17
-3 -7 3 1.74 0.31
-3 -7 4 0.33 0.12
-3 -7 5 0.15 0.09
-3 -7 6 4.96 0.42
-3 -7 7 0.12 0.07
-3 -7 8 6.85 0.42
-3 -7 9 1.18 0.15
-3 -6 -7 0.15 0.03
-3 -6 -6 0.04 0.02
-3 -6 -5 0.99 0.09
-3 -6 -4 9.83 0.29
-3 -6 -3 4.55 0.38
-3 -6 -3 4.19 0.2
-3 -6 -2 5.23 0.44
-3 -6 -2 4.81 0.21
-3 -6 -1 8.94 0.58
-3 -6 -1 8.49 0.29
-3 -6 0 9.66 0.31
-3 -6 0 10.68 0.66
-3 -6 1 17.79 0.54
-3 -6 1 17.9 0.43
-3 -6 2 3.36 0.19
-3 -6 2 3.43 0.23
-3 -6 3 0.37 0.08
-3 -6 3 0.59 0.17
-3 -6 3 0.4 0.06
-3 -6 4 2.19 0.18
-3 -6 4 2.84 0.37
-3 -6 5 8.05 0.6
-3 -6 6 5.11 0.47
-3 -6 7 0.74 0.12
-3 -6 7 1.03 0.2
-3 -6 8 2.13 0.18
-3 -6 8 2.3 0.2
-3 -6 8 2.4 0.29
-3 -6 9 1.84 0.16
-3 -6 9 2.1 0.25
-3 -6 10 0.03 0.02
-3 -5 -9 0.11 0.03
-3 -5 -8 7.72 0.24
-3 -5 -7 0.7 0.08
-3 -5 -6 0 0.03
-3 -5 -6 -0.01 0.04
-3 -5 -5 1.61 0.13
-3 -5 -5 1.72 0.14
-3 -5 -4 9.44 0.31
-3 -5 -4 9.39 0.33
-3 -5 -3 8.92 0.32
-3 -5 -2 2.48 0.29
-3 -5 -2 2.4 0.21
-3 -5 -2 2.39 0.16
-3 -5 -1 22.18 0.91
-3 -5 -1 20.69 0.49
-3 -5 -1 20.94 0.61
-3 -5 0 1.67 0.14
-3 -5 0 1.73 0.17
-3 -5 0 2.02 0.28
-3 -5 1 4.48 0.23
-3 -5 1 4.73 0.44
-3 -5 1 4.41 0.28
-3 -5 2 19.09 0.9
-3 -5 2 17.85 0.55
-3 -5 3 27.91 0.69
-3 -5 3 29.94 1.15
-3 -5 4 0.52 0.17
-3 -5 4 0.31 0.08
-3 -5 5 17.03 0.54
-3 -5 5 19.74 0.95
-3 -5 6 28.2 0.79
-3 -5 6 27.04 0.67
-3 -5 7 5.19 0.32
-3 -5 7 5.4 0.35
-3 -5 7 5.31 0.29
-3 -5 7 6.07 0.51
-3 -5 8 6.74 0.53
-3 -5 8 6.41 0.38
-3 -5 8 6.22 0.35
-3 -5 9 6.06 0.36
-3 -5 9 5.84 0.33
-3 -5 9 6.57 0.49
-3 -5 10 3.7 0.27
-3 -5 10 3.72 0.25
-3 -5 11 0.41 0.08
-3 -4 -10 0.11 0.03
-3 -4 -9 2.27 0.14
-3 -4 -8 0.19 0.05
-3 -4 -7 0.09 0.05
-3 -4 -7 -0.01 0.03
-3 -4 -6 1.01 0.11
-3 -4 -6 1.14 0.12
-3 -4 -5 0 0.02
-3 -4 -5 0.01 0.03
-3 -4 -4 0.01 0.03
-3 -4 -3 0.25 0.06
-3 -4 -3 0.27 0.06
-3 -4 -3 0.25 0.08
-3 -4 -2 4.85 0.24
-3 -4 -2 4.81 0.3
-3 -4 -1 6.9 0.34
-3 -4 -1 6.7 0.47
-3 -4 -1 7.15 0.29
-3 -4 0 21.12 0.86
-3 -4 0 20.99 0.6
-3 -4 0 20.98 0.49
-3 -4 1 6.57 0.49
-3 -4 1 6.51 0.33
-3 -4 2 0.53 0.1
-3 -4 2 0.69 0.18
-3 -4 3 1.21 0.14
-3 -4 3 1.42 0.25
-3 -4 4 8.55 0.38
-3 -4 4 10.46 0.67
-3 -4 5 26.89 1.09
-3 -4 5 24.92 0.74
-3 -4 5 24.61 0.66
-3 -4 6 1.26 0.17
-3 -4 6 1.31 0.15
-3 -4 6 1.39 0.25
-3 -4 7 0.08 0.08
-3 -4 7 0.02 0.03
-3 -4 8 0.6 0.12
-3 -4 8 0.7 0.18
-3 -4 9 11.22 0.49
-3 -4 9 11.9 0.53
-3 -4 10 4.02 0.3
-3 -4 10 4.1 0.28
-3 -4 11 0.11 0.05
-3 -4 12 0.27 0.06
-3 -4 13 0.03 0.02
-3 -3 -11 0.04 0.03
-3 -3 -11 0.3 0.07
-3 -3 -10 0.35 0.06
-3 -3 -9 23.49 0.52
-3 -3 -8 14.73 0.43
-3 -3 -7 0.89 0.11
-3 -3 -7 1.04 0.12
-3 -3 -6 8.53 0.33
-3 -3 -6 8.59 0.34
-3 -3 -5 0.22 0.05
-3 -3 -5 0.23 0.06
-3 -3 -4 0.83 0.1
-3 -3 -4 0.72 0.1
-3 -3 -4 0.84 0.13
-3 -3 -3 0.4 0.07
-3 -3 -3 0.31 0.06
-3 -3 -3 0.4 0.09
-3 -3 -2 1.82 0.14
-3 -3 -2 1.48 0.16
-3 -3 -1 3.71 0.24
-3 -3 0 0.53 0.09
-3 -3 1 1.79 0.17
-3 -3 2 12.57 0.44
-3 -3 3 10 0.39
-3 -3 4 61.06 0.99
-3 -3 4 64.76 1.58
-3 -3 5 9.59 0.63
-3 -3 5 8.16 0.39
-3 -3 5 8.3 0.42
-3 -3 5 8.49 0.73
-3 -3 6 19.34 0.67
-3 -3 6 17.44 1.1
-3 -3 7 9.93 0.5
-3 -3 7 8.82 0.8
-3 -3 8 7.75 0.45
-3 -3 8 8.79 0.62
-3 -3 9 0.17 0.07
-3 -3 9 0.29 0.13
-3 -3 10 3.92 0.3
-3 -3 10 4.05 0.29
-3 -3 11 0.24 0.07
-3 -3 12 -0.02 0.03
-3 -3 13 0.61 0.08
-3 -2 -12 0.44 0.07
-3 -2 -12 0.37 0.05
-3 -2 -11 0.75 0.08
-3 -2 -10 14.39 0.39
-3 -2 -9 4.93 0.25
-3 -2 -8 1.54 0.16
-3 -2 -8 1.16 0.13
-3 -2 -7 0.18 0.06
-3 -2 -6 0.58 0.09
-3 -2 -6 1.25 0.14
-3 -2 -5 4.43 0.23
-3 -2 -5 4.62 0.24
-3 -2 -4 12.08 0.37
-3 -2 -4 12.2 0.37
-3 -2 -4 11.83 0.44
-3 -2 -3 19.82 0.55
-3 -2 -2 5.72 0.29
-3 -2 -1 5.5 0.27
-3 -2 0 0.47 0.08
-3 -2 1 0.13 0.04
-3 -2 2 12.99 0.41
-3 -2 3 26.15 0.61
-3 -2 3 24.81 1.11
-3 -2 4 7.11 0.63
-3 -2 5 2.17 0.37
-3 -2 6 9.05 0.45
-3 -2 6 10.55 0.65
-3 -2 7 2.54 0.18
-3 -2 7 3.1 0.27
-3 -2 7 3.23 0.37
-3 -2 8 1.44 0.19
-3 -2 8 1.05 0.27
-3 -2 8 1.85 0.28
-3 -2 8 1.48 0.14
-3 -2 9 2.38 0.23
-3 -2 9 2.3 0.17
-3 -2 9 2.38 0.24
-3 -2 10 3.27 0.2
-3 -2 10 3.49 0.27
-3 -2 11 0.1 0.04
-3 -2 11 0.14 0.06
-3 -2 12 0.03 0.02
-3 -2 13 0.03 0.02
-3 -1 -13 4.8 0.18
-3 -1 -12 2.52 0.13
-3 -1 -12 3.18 0.19
-3 -1 -11 1.26 0.11
-3 -1 -10 0.85 0.1
-3 -1 -9 0.3 0.07
-3 -1 -8 3.22 0.21
-3 -1 -8 3.29 0.21
-3 -1 -7 0.02 0.03
-3 -1 -7 0.12 0.05
-3 -1 -6 1.16 0.12
-3 -1 -6 1.14 0.12
-3 -1 -5 0.07 0.02
-3 -1 -5 0.1 0.03
-3 -1 -4 26.26 0.61
-3 -1 -3 22.6 0.56
-3 -1 -2 0.11 0.06
-3 -1 -2 0.2 0.06
-3 -1 -1 0.56 0.12
-3 -1 -1 0.54 0.08
-3 -1 0 6.3 0.41
-3 -1 0 6.73 0.28
-3 -1 1 0.13 0.06
-3 -1 1 0.18 0.05
-3 -1 2 0.88 0.1
-3 -1 2 0.8 0.16
-3 -1 2 0.75 0.18
-3 -1 3 62.13 1.74
-3 -1 3 62.94 1.52
-3 -1 4 1.26 0.26
-3 -1 5 2.7 0.4
-3 -1 6 6.64 0.65
-3 -1 7 0.64 0.11
-3 -1 7 0.63 0.22
-3 -1 7 0.69 0.1
-3 -1 7 0.78 0.13
-3 -1 7 0.85 0.2
-3 -1 8 6.31 0.3
-3 -1 8 6.37 0.37
-3 -1 9 10.67 0.48
-3 -1 9 10.48 0.4
-3 -1 10 6.93 0.38
-3 -1 10 6.89 0.32
-3 -1 11 1.8 0.18
-3 -1 11 1.57 0.15
-3 -1 12 0.12 0.04
-3 -1 12 0.09 0.03
-3 -1 13 1.07 0.11
-3 -1 13 0.83 0.08
-3 -1 14 5.18 0.16
-3 0 -13 0.21 0.04
-3 0 -12 2.98 0.19
-3 0 -11 11.91 0.33
-3 0 -10 8.66 0.3
-3 0 -10 8.55 0.31
-3 0 -9 0.02 0.03
-3 0 -8 0.7 0.09
-3 0 -8 0.64 0.09
-3 0 -7 13.45 0.41
-3 0 -7 13 0.41
-3 0 -7 12.06 0.64
-3 0 -6 0.27 0.09
-3 0 -6 0.43 0.07
-3 0 -6 0.22 0.05
-3 0 -5 0.11 0.06
-3 0 -4 18.99 0.48
-3 0 -4 19.28 0.73
-3 0 -3 7.86 0.47
-3 0 -3 8.47 0.31
-3 0 -2 0.04 0.04
-3 0 -2 0.08 0.03
-3 0 -1 10.9 0.56
-3 0 -1 11.63 0.33
-3 0 0 11.82 0.6
-3 0 0 13.42 0.66
-3 0 0 13.27 0.35
-3 0 1 3.39 0.33
-3 0 1 3.94 0.19
-3 0 1 3.55 0.37
-3 0 2 10.95 0.62
-3 0 2 12.31 0.35
-3 0 2 11.25 0.69
-3 0 3 4.61 0.47
-3 0 4 2.35 0.35
-3 0 5 4.05 0.48
-3 0 6 0.06 0.07
-3 0 7 0.04 0.03
-3 0 7 0.04 0.06
-3 0 7 0.07 0.03
-3 0 8 27.78 0.66
-3 0 8 29.08 0.76
-3 0 8 27.1 1.36
-3 0 9 15.13 0.55
-3 0 9 14.8 1.01
-3 0 9 14.36 0.48
-3 0 10 0.52 0.09
-3 0 11 0.2 0.06
-3 0 11 0.2 0.06
-3 0 12 0.03 0.02
-3 0 12 0.04 0.02
-3 0 13 0.05 0.03
-3 0 14 0.18 0.03
-3 1 -13 0.99 0.09
-3 1 -12 1.81 0.15
-3 1 -11 0.28 0.06
-3 1 -10 0.19 0.05
-3 1 -9 3.04 0.2
-3 1 -9 3.18 0.2
-3 1 -8 0.38 0.07
-3 1 -8 0.28 0.06
-3 1 -7 1.69 0.14
-3 1 -7 1.77 0.25
-3 1 -7 1.85 0.15
-3 1 -6 0.07 0.06
-3 1 -5 23.6 0.86
-3 1 -4 25.46 0.88
-3 1 -3 9.05 0.53
-3 1 -2 28.8 0.93
-3 1 -1 1.4 0.21
-3 1 0 0.75 0.16
-3 1 1 0.72 0.17
-3 1 1 0.6 0.14
-3 1 2 33.66 1.1
-3 1 2 33.22 1.2
-3 1 3 23.27 1.05
-3 1 4 0.06 0.06
-3 1 5 0.56 0.18
-3 1 6 24.35 1.2
-3 1 7 19.36 0.53
-3 1 7 17.1 1.03
-3 1 8 16.57 0.56
-3 1 8 15.14 0.99
-3 1 8 15.88 0.5
-3 1 9 1.8 0.18
-3 1 9 1.8 0.34
-3 1 9 1.65 0.17
-3 1 10 0.36 0.08
-3 1 10 0.35 0.08
-3 1 11 1.08 0.13
-3 1 11 0.9 0.12
-3 1 12 0.07 0.03
-3 1 13 1.36 0.11
-3 1 14 0.34 0.05
-3 2 -13 -0.08 0.05
-3 2 -12 1.68 0.13
-3 2 -12 1.58 0.13
-3 2 -12 1.43 0.11
-3 2 -11 4.65 0.24
-3 2 -11 4.89 0.26
-3 2 -11 4.57 0.22
-3 2 -10 3.47 0.21
-3 2 -10 3.57 0.2
-3 2 -9 4.27 0.24
-3 2 -9 4.06 0.22
-3 2 -8 1.37 0.24
-3 2 -7 0.22 0.1
-3 2 -7 0.38 0.07
-3 2 -6 3.88 0.37
-3 2 -4 7.95 0.51
-3 2 -3 0.04 0.06
-3 2 -2 22.18 0.83
-3 2 -1 0.09 0.06
-3 2 0 0.01 0.03
-3 2 1 6.46 0.48
-3 2 2 11.6 0.66
-3 2 2 12.02 0.73
-3 2 3 12.86 0.72
-3 2 3 13.25 0.78
-3 2 4 24.36 1.11
-3 2 5 1.66 0.3
-3 2 6 7.99 0.68
-3 2 7 11.11 0.43
-3 2 7 10.88 0.4
-3 2 7 10.01 0.78
-3 2 8 49.93 0.91
-3 2 8 46.38 0.85
-3 2 8 47.58 1.69
-3 2 9 5.9 0.31
-3 2 9 5.21 0.29
-3 2 10 5.82 0.3
-3 2 11 0.38 0.07
-3 2 12 1.7 0.14
-3 2 12 1.58 0.15
-3 2 13 1.97 0.13
-3 2 13 1.82 0.14
-3 2 14 1.9 0.1
-3 3 -13 0.4 0.05
-3 3 -12 1.31 0.12
-3 3 -12 1.19 0.11
-3 3 -11 0.01 0.02
-3 3 -11 0.03 0.03
-3 3 -10 0.92 0.11
-3 3 -10 1 0.11
-3 3 -9 0.45 0.08
-3 3 -8 5.7 0.29
-3 3 -7 9.59 0.36
-3 3 -7 9.13 0.6
-3 3 -6 15.78 0.75
-3 3 -4 0.11 0.07
-3 3 -3 1.35 0.21
-3 3 -2 2.99 0.31
-3 3 -1 0.82 0.17
-3 3 0 5.51 0.43
-3 3 1 5.09 0.42
-3 3 2 6.11 0.48
-3 3 3 4.24 0.42
-3 3 3 4.3 0.45
-3 3 4 3.94 0.44
-3 3 5 9.38 0.71
-3 3 6 1.97 0.19
-3 3 6 2.01 0.16
-3 3 6 1.99 0.33
-3 3 7 30.51 0.65
-3 3 7 30.25 1.31
-3 3 8 15.15 0.47
-3 3 8 15.2 0.91
-3 3 9 0.39 0.08
-3 3 10 2.61 0.19
-3 3 11 0.81 0.1
-3 3 11 0.81 0.12
-3 3 12 0.03 0.02
-3 3 12 0.01 0.02
-3 3 13 0.96 0.08
-3 3 13 0.87 0.09
-3 4 -13 0.03 0.02
-3 4 -12 0.02 0.02
-3 4 -12 0.03 0.03
-3 4 -11 0.05 0.03
-3 4 -11 0.06 0.03
-3 4 -10 0.04 0.03
-3 4 -10 0.04 0.03
-3 4 -9 1.82 0.16
-3 4 -8 3.73 0.24
-3 4 -7 17.09 0.5
-3 4 -7 16.43 0.82
-3 4 -6 39.27 0.74
-3 4 -6 37.49 1.18
-3 4 -4 0.46 0.13
-3 4 -3 0.66 0.15
-3 4 -2 2.97 0.32
-3 4 -1 13.4 0.67
-3 4 0 2.73 0.31
-3 4 1 4.47 0.41
-3 4 2 0.17 0.08
-3 4 3 0.56 0.15
-3 4 4 0.28 0.11
-3 4 5 0.42 0.14
-3 4 5 0.5 0.1
-3 4 6 11.87 0.48
-3 4 6 12.2 0.39
-3 4 7 0.02 0.03
-3 4 7 -0.01 0.01
-3 4 8 1.82 0.16
-3 4 8 1.72 0.19
-3 4 9 1.22 0.13
-3 4 9 1.15 0.16
-3 4 10 0.4 0.09
-3 4 10 0.45 0.07
-3 4 11 2.67 0.16
-3 4 11 2.51 0.2
-3 4 12 0.04 0.02
-3 4 12 0.02 0.02
-3 4 13 0.21 0.04
-3 5 -13 0.06 0.02
-3 5 -12 1.78 0.13
-3 5 -12 1.69 0.13
-3 5 -11 0.01 0.02
-3 5 -11 0.01 0.02
-3 5 -10 2.96 0.2
-3 5 -10 2.8 0.19
-3 5 -9 7.23 0.32
-3 5 -9 7.77 0.34
-3 5 -7 13.42 0.45
-3 5 -7 13.5 0.73
-3 5 -6 3.16 0.22
-3 5 -6 3.08 0.34
-3 5 -5 26.45 0.62
-3 5 -5 27.67 0.97
-3 5 -4 0.04 0.04
-3 5 -3 1.31 0.21
-3 5 -2 0.93 0.18
-3 5 -1 3.54 0.35
-3 5 0 0.43 0.13
-3 5 1 0.33 0.11
-3 5 2 0.04 0.05
-3 5 3 0.53 0.14
-3 5 4 0.3 0.08
-3 5 4 0.11 0.07
-3 5 5 6.71 0.51
-3 5 5 6.27 0.35
-3 5 6 36.61 0.87
-3 5 7 6.53 0.37
-3 5 8 1.29 0.16
-3 5 9 0.92 0.13
-3 5 10 1.96 0.18
-3 5 11 0.53 0.08
-3 5 12 0.57 0.07
-3 6 -13 0.43 0.05
-3 6 -12 0.28 0.05
-3 6 -12 0.24 0.05
-3 6 -11 0.55 0.08
-3 6 -11 0.51 0.08
-3 6 -10 0.54 0.08
-3 6 -10 0.53 0.08
-3 6 -9 6.66 0.29
-3 6 -9 6.97 0.32
-3 6 -7 61.91 0.97
-3 6 -6 25.79 0.63
-3 6 -6 25.6 0.96
-3 6 -5 0.77 0.16
-3 6 -5 0.74 0.11
-3 6 -4 0.82 0.16
-3 6 -4 0.76 0.11
-3 6 -3 1 0.12
-3 6 -3 1.15 0.19
-3 6 -2 6.67 0.46
-3 6 -2 6.25 0.31
-3 6 1 7.25 0.35
-3 6 2 7.54 0.37
-3 6 3 11.22 0.46
-3 6 4 0.76 0.12
-3 6 5 10.87 0.47
-3 6 6 18.98 0.61
-3 6 7 0.07 0.04
-3 6 8 0.73 0.12
-3 6 9 0.06 0.03
-3 6 10 0.05 0.03
-3 6 11 0.53 0.07
-3 7 -12 0.77 0.07
-3 7 -11 0.37 0.05
-3 7 -11 0.38 0.06
-3 7 -10 0.88 0.1
-3 7 -10 0.89 0.09
-3 7 -9 0.51 0.07
-3 7 -8 0.02 0.03
-3 7 -8 0.02 0.02
-3 7 -7 2.72 0.2
-3 7 -6 4.82 0.27
-3 7 -5 0.49 0.09
-3 7 -4 2.06 0.18
-3 7 -3 2.2 0.19
-3 7 -2 23.88 0.63
-3 7 -1 35.32 0.77
-3 7 0 2.72 0.22
-3 7 1 0.73 0.12
-3 7 2 0.03 0.03
-3 7 3 2.21 0.2
-3 7 4 0.74 0.12
-3 7 5 7.69 0.38
-3 7 6 0.54 0.1
-3 7 7 0 0.02
-3 7 8 4.13 0.25
-3 7 9 0 0.02
-3 7 10 0.02 0.02
-3 8 -11 0 0.01
-3 8 -10 0.1 0.03
-3 8 -9 1.69 0.13
-3 8 -8 3.97 0.22
-3 8 -7 0.27 0.06
-3 8 -6 0.14 0.04
-3 8 -5 0.08 0.04
-3 8 -4 3.54 0.22
-3 8 -3 1.8 0.16
-3 8 -2 0.97 0.12
-3 8 -1 0.93 0.12
-3 8 0 0.26 0.07
-3 8 1 0.25 0.07
-3 8 2 0.28 0.07
-3 8 3 0.71 0.11
-3 8 4 0.48 0.09
-3 8 5 7.27 0.34
-3 8 6 0.13 0.04
-3 8 7 0.71 0.09
-3 8 8 0.87 0.09
-3 8 9 0.54 0.06
-3 9 -9 0.05 0.02
-3 9 -8 0.06 0.03
-3 9 -7 3.57 0.18
-3 9 -6 2.51 0.16
-3 9 -5 2.3 0.16
-3 9 -4 0.22 0.05
-3 9 -3 0.74 0.1
-3 9 -2 10.63 0.37
-3 9 -1 1.2 0.12
-3 9 0 0.85 0.11
-3 9 1 0.58 0.09
-3 9 2 1.6 0.15
-3 9 3 3.23 0.2
-3 9 4 1.86 0.15
-3 9 5 0.28 0.05
-3 9 6 0.29 0.05
-2 -10 -1 0.96 0.14
-2 -10 0 0.48 0.11
-2 -10 1 0.57 0.12
-2 -10 2 6.48 0.37
-2 -10 3 0.74 0.13
-2 -10 4 2.65 0.22
-2 -9 -4 0.06 0.03
-2 -9 -3 0.03 0.04
-2 -9 -2 0.05 0.06
-2 -9 -1 0.08 0.06
-2 -9 0 1.74 0.24
-2 -9 1 2.36 0.28
-2 -9 2 0.02 0.06
-2 -9 3 0.27 0.12
-2 -9 4 3.07 0.32
-2 -9 5 0.58 0.13
-2 -9 6 -0.04 0.04
-2 -9 7 0.46 0.1
-2 -8 -5 5.8 0.36
-2 -8 -4 -0.08 0.07
-2 -8 -3 2.26 0.26
-2 -8 -2 1.21 0.2
-2 -8 -1 7.85 0.52
-2 -8 0 2.07 0.28
-2 -8 1 17.3 0.82
-2 -8 2 12.91 0.72
-2 -8 3 2.48 0.33
-2 -8 4 17.95 0.86
-2 -8 5 2.11 0.29
-2 -8 6 0.05 0.05
-2 -8 7 0.03 0.04
-2 -8 8 1.22 0.14
-2 -8 9 0.44 0.08
-2 -8 10 0.13 0.04
-2 -8 11 0.09 0.03
-2 -7 -8 1.01 0.08
-2 -7 -7 1 0.08
-2 -7 -5 1.02 0.16
-2 -7 -4 0.02 0.03
-2 -7 -3 2.21 0.25
-2 -7 -2 5.36 0.41
-2 -7 -1 7.56 0.33
-2 -7 -1 6.91 0.49
-2 -7 0 5.82 0.46
-2 -7 0 6.24 0.3
-2 -7 1 13.25 0.43
-2 -7 1 11.77 0.67
-2 -7 2 1.74 0.27
-2 -7 3 0.51 0.15
-2 -7 4 7.74 0.57
-2 -7 5 50.57 1.47
-2 -7 6 0.78 0.22
-2 -7 7 9.31 0.46
-2 -7 7 10.53 0.65
-2 -7 8 9.74 0.58
-2 -7 8 9.29 0.46
-2 -7 9 11.91 0.51
-2 -7 10 7.66 0.38
-2 -7 11 1.82 0.17
-2 -7 12 0.03 0.03
-2 -6 -10 1.26 0.09
-2 -6 -9 0.07 0.03
-2 -6 -8 1.52 0.12
-2 -6 -7 1.4 0.12
-2 -6 -6 3.67 0.19
-2 -6 -5 0.11 0.05
-2 -6 -5 0.17 0.04
-2 -6 -4 0.93 0.15
-2 -6 -3 0.17 0.07
-2 -6 -2 0.07 0.04
-2 -6 -2 0.21 0.06
-2 -6 -1 2.44 0.19
-2 -6 -1 2.09 0.24
-2 -6 0 5.96 0.29
-2 -6 0 4.83 0.38
-2 -6 1 17.79 0.76
-2 -6 1 19.25 0.53
-2 -6 2 8.09 0.34
-2 -6 2 7.89 0.53
-2 -6 3 21.39 0.55
-2 -6 3 21.72 0.9
-2 -6 4 4.78 0.26
-2 -6 4 4.91 0.44
-2 -6 5 11.52 0.41
-2 -6 5 12.95 0.74
-2 -6 6 1.99 0.22
-2 -6 6 1.79 0.16
-2 -6 6 2.14 0.32
-2 -6 7 7.16 0.43
-2 -6 7 6.32 0.31
-2 -6 7 7.62 0.57
-2 -6 8 11.51 0.41
-2 -6 8 12.5 0.57
-2 -6 9 0.22 0.08
-2 -6 9 0.31 0.12
-2 -6 10 2.81 0.26
-2 -6 11 2.14 0.21
-2 -6 12 1.52 0.16
-2 -6 13 6.38 0.28
-2 -5 -11 0.11 0.04
-2 -5 -10 0.38 0.07
-2 -5 -10 0.57 0.08
-2 -5 -9 0.09 0.04
-2 -5 -8 -0.02 0.04
-2 -5 -7 13.14 0.39
-2 -5 -6 34.07 0.64
-2 -5 -6 34.6 0.61
-2 -5 -5 6.62 0.27
-2 -5 -5 6.59 0.26
-2 -5 -4 11.87 0.35
-2 -5 -3 3.32 0.23
-2 -5 -3 2.48 0.23
-2 -5 -2 0.19 0.06
-2 -5 -1 0.38 0.08
-2 -5 0 0.01 0.02
-2 -5 1 6.78 0.3
-2 -5 2 0.78 0.1
-2 -5 3 2.93 0.2
-2 -5 4 9.99 0.37
-2 -5 5 0.23 0.12
-2 -5 5 0.15 0.11
-2 -5 6 52.07 1.42
-2 -5 6 43.99 1.76
-2 -5 7 10.06 0.5
-2 -5 7 11.09 0.67
-2 -5 7 9.96 0.88
-2 -5 8 18.44 0.7
-2 -5 8 20.76 0.91
-2 -5 8 17.78 1.19
-2 -5 9 21.44 0.76
-2 -5 9 23.74 0.95
-2 -5 10 4.71 0.35
-2 -5 11 0.35 0.1
-2 -5 12 0.57 0.11
-2 -5 13 0.8 0.11
-2 -5 14 0.03 0.02
-2 -4 -12 1.89 0.11
-2 -4 -12 1.61 0.11
-2 -4 -11 0.46 0.07
-2 -4 -11 0.42 0.08
-2 -4 -10 0.52 0.08
-2 -4 -9 4.1 0.23
-2 -4 -8 20.63 0.52
-2 -4 -7 25.29 0.55
-2 -4 -7 27.13 0.58
-2 -4 -6 1.24 0.12
-2 -4 -6 1.01 0.11
-2 -4 -5 1.85 0.14
-2 -4 -5 1.68 0.13
-2 -4 -4 0.21 0.07
-2 -4 -3 0.25 0.06
-2 -4 -2 5.23 0.26
-2 -4 -1 13.13 0.4
-2 -4 0 15.89 0.44
-2 -4 1 8.68 0.32
-2 -4 2 0.16 0.05
-2 -4 3 1.5 0.14
-2 -4 4 0.52 0.16
-2 -4 5 30.74 1.36
-2 -4 6 18.5 1.11
-2 -4 7 1.16 0.16
-2 -4 7 1.42 0.23
-2 -4 8 2.96 0.27
-2 -4 8 3.33 0.36
-2 -4 9 0.97 0.27
-2 -4 9 1.42 0.19
-2 -4 9 1.53 0.25
-2 -4 10 1.56 0.2
-2 -4 11 1.89 0.22
-2 -4 12 0.73 0.13
-2 -4 13 0.14 0.05
-2 -4 14 1.25 0.12
-2 -3 -13 0.07 0.03
-2 -3 -13 0.17 0.04
-2 -3 -12 2.1 0.13
-2 -3 -12 2.16 0.16
-2 -3 -11 3.3 0.19
-2 -3 -10 4.51 0.23
-2 -3 -9 0.58 0.08
-2 -3 -8 0.98 0.12
-2 -3 -7 0.13 0.05
-2 -3 -7 0.09 0.03
-2 -3 -4 0.45 0.08
-2 -3 -3 0.11 0.04
-2 -3 -2 23.36 0.51
-2 -3 -1 13.68 0.37
-2 -3 0 19.2 0.43
-2 -3 1 9.19 0.3
-2 -3 2 0.11 0.06
-2 -3 3 14.86 0.79
-2 -3 4 0.82 0.2
-2 -3 5 23.9 1.15
-2 -3 6 7.53 0.69
-2 -3 7 1.75 0.35
-2 -3 8 2.54 0.24
-2 -3 8 2.18 0.4
-2 -3 9 0.04 0.04
-2 -3 9 -0.03 0.06
-2 -3 10 3.2 0.29
-2 -3 11 7.58 0.43
-2 -3 12 5.93 0.36
-2 -3 13 3.55 0.25
-2 -3 14 0.36 0.07
-2 -2 -13 4.25 0.21
-2 -2 -13 4 0.16
-2 -2 -12 2.49 0.15
-2 -2 -12 2.58 0.2
-2 -2 -11 0.07 0.03
-2 -2 -10 0.31 0.06
-2 -2 -9 18.97 0.49
-2 -2 -8 60.47 0.88
-2 -2 -8 65.53 0.89
-2 -2 -4 44.44 0.73
-2 -2 -3 0.02 0.02
-2 -2 -2 0.43 0.06
-2 -2 -1 0.05 0.03
-2 -2 0 0.23 0.04
-2 -2 1 4.72 0.28
-2 -2 1 5.27 0.21
-2 -2 1 5.25 0.37
-2 -2 2 63.89 1.44
-2 -2 4 44.23 1.4
-2 -2 5 13.83 0.83
-2 -2 6 0.01 0.03
-2 -2 7 0.66 0.2
-2 -2 9 3.68 0.23
-2 -2 9 2.64 0.24
-2 -2 9 3.63 0.51
-2 -2 10 6.35 0.31
-2 -2 10 6.47 0.39
-2 -2 10 6.11 0.67
-2 -2 11 15.63 0.6
-2 -2 11 14.97 0.47
-2 -2 12 5.66 0.34
-2 -2 12 5.49 0.28
-2 -2 13 0.24 0.07
-2 -2 13 0.29 0.06
-2 -2 14 0.18 0.04
-2 -1 -14 1.98 0.14
-2 -1 -13 0.45 0.08
-2 -1 -12 0.1 0.04
-2 -1 -12 0.37 0.1
-2 -1 -11 0.7 0.09
-2 -1 -10 0.01 0.03
-2 -1 -9 1.6 0.14
-2 -1 -8 3.07 0.19
-2 -1 -8 3.32 0.19
-2 -1 -6 0.03 0.03
-2 -1 -5 13.01 0.51
-2 -1 -4 0.01 0.02
-2 -1 -4 0.05 0.03
-2 -1 -3 61.62 0.72
-2 -1 -3 61.29 0.98
-2 -1 -2 70.36 0.73
-2 -1 -2 66.04 1.02
-2 -1 -1 0.43 0.08
-2 -1 -1 0.23 0.04
-2 -1 0 5.95 0.32
-2 -1 0 5.82 0.2
-2 -1 1 70.9 1.17
-2 -1 1 73 1.35
-2 -1 2 6.3 0.43
-2 -1 3 1.12 0.2
-2 -1 4 0.65 0.16
-2 -1 5 85.35 1.97
-2 -1 6 11.15 0.76
-2 -1 7 0.19 0.11
-2 -1 8 12.05 0.87
-2 -1 9 19.93 0.64
-2 -1 9 20.28 0.55
-2 -1 9 19.15 1.13
-2 -1 10 2.13 0.22
-2 -1 10 2.27 0.19
-2 -1 10 2.09 0.38
-2 -1 11 1.48 0.18
-2 -1 11 1.46 0.15
-2 -1 12 5.56 0.31
-2 -1 12 5.65 0.3
-2 -1 13 1.03 0.12
-2 -1 14 0.02 0.02
-2 -1 15 0.01 0.01
-2 0 -14 1.59 0.13
-2 0 -13 1.64 0.15
-2 0 -12 2.77 0.22
-2 0 -11 1.71 0.15
-2 0 -10 0.15 0.05
-2 0 -10 0.11 0.05
-2 0 -9 17.99 0.45
-2 0 -9 17.12 0.44
-2 0 -7 3.02 0.29
-2 0 -6 50.19 1.12
-2 0 -5 9.33 0.44
-2 0 -4 0.46 0.06
-2 0 -4 0.59 0.11
-2 0 -3 23.69 0.65
-2 0 -3 21.61 0.39
-2 0 -2 34.94 0.46
-2 0 -2 41.99 0.84
-2 0 -1 9.21 0.4
-2 0 -1 10.18 0.42
-2 0 0 11.47 0.46
-2 0 0 12.36 0.51
-2 0 1 13.91 0.6
-2 0 2 82.87 1.56
-2 0 3 44.3 1.21
-2 0 4 58.38 1.49
-2 0 5 0.45 0.15
-2 0 6 67.47 1.8
-2 0 7 12.3 0.81
-2 0 8 -0.01 0.04
-2 0 9 0.13 0.09
-2 0 10 18.49 0.57
-2 0 10 19.37 1.1
-2 0 11 38.78 0.82
-2 0 12 3.49 0.24
-2 0 13 0.12 0.04
-2 0 14 0.81 0.1
-2 0 15 1.17 0.09
-2 1 -14 0.86 0.1
-2 1 -13 0.07 0.05
-2 1 -13 0.03 0.02
-2 1 -12 0.62 0.08
-2 1 -12 0.83 0.13
-2 1 -11 0.32 0.07
-2 1 -11 0.33 0.06
-2 1 -10 5.16 0.24
-2 1 -10 5.01 0.26
-2 1 -9 0.08 0.04
-2 1 -9 0.09 0.03
-2 1 -7 1.37 0.2
-2 1 -6 17.94 0.67
-2 1 -5 61.52 1.17
-2 1 -4 15.87 0.56
-2 1 -3 20.21 0.62
-2 1 -3 19.63 0.33
-2 1 -2 0.63 0.05
-2 1 -2 0.71 0.12
-2 1 -1 8.38 0.39
-2 1 0 10.07 0.44
-2 1 0 10.57 0.49
-2 1 1 0.35 0.1
-2 1 2 0.24 0.09
-2 1 3 33.61 1.05
-2 1 4 17.96 0.81
-2 1 5 0.51 0.15
-2 1 6 9.51 0.65
-2 1 7 26.22 1.15
-2 1 8 11.37 0.79
-2 1 9 11.46 0.81
-2 1 10 16.61 0.97
-2 1 11 2.08 0.19
-2 1 12 5.53 0.3
-2 1 13 0.06 0.03
-2 1 14 1.37 0.12
-2 1 15 0.01 0.01
-2 2 -13 2.02 0.17
-2 2 -13 2.09 0.15
-2 2 -13 2.06 0.18
-2 2 -12 1.98 0.17
-2 2 -12 2.15 0.19
-2 2 -12 2.01 0.2
-2 2 -12 1.98 0.15
-2 2 -11 1.7 0.15
-2 2 -11 1.93 0.18
-2 2 -11 1.71 0.15
-2 2 -10 0.4 0.08
-2 2 -10 0.4 0.07
-2 2 -9 0.08 0.03
-2 2 -9 0.07 0.03
-2 2 -7 2.16 0.27
-2 2 -6 5.57 0.38
-2 2 -5 7.89 0.43
-2 2 -4 165.53 1.89
-2 2 -3 8.21 0.41
-2 2 -2 7.34 0.37
-2 2 -1 1.83 0.19
-2 2 0 0.92 0.14
-2 2 1 43.93 0.98
-2 2 1 45.25 1.1
-2 2 2 17.03 0.7
-2 2 3 36.7 1.09
-2 2 4 1.28 0.21
-2 2 5 1.39 0.23
-2 2 6 3.22 0.37
-2 2 7 29.09 1.16
-2 2 8 14.15 0.83
-2 2 10 1.32 0.15
-2 2 11 1.47 0.16
-2 2 12 1.2 0.14
-2 2 13 0.09 0.04
-2 2 14 0.13 0.04
-2 2 15 1.03 0.08
-2 2 15 0.61 0.07
-2 3 -13 2.05 0.15
-2 3 -13 2.22 0.19
-2 3 -13 1.88 0.15
-2 3 -12 5.31 0.27
-2 3 -12 5.22 0.27
-2 3 -12 5.52 0.33
-2 3 -12 5.02 0.25
-2 3 -11 10.16 0.37
-2 3 -11 10.63 0.38
-2 3 -10 9.01 0.35
-2 3 -10 8 0.32
-2 3 -9 0.9 0.11
-2 3 -8 0.19 0.09
-2 3 -7 22.81 0.85
-2 3 -6 18.42 0.71
-2 3 -5 4.1 0.32
-2 3 -4 22.92 0.71
-2 3 -3 20.82 0.66
-2 3 -2 15.36 0.56
-2 3 -1 5.74 0.34
-2 3 0 0.73 0.12
-2 3 1 0.2 0.07
-2 3 2 0.96 0.18
-2 3 3 0.5 0.13
-2 3 4 1.05 0.2
-2 3 5 0.13 0.07
-2 3 6 3.85 0.4
-2 3 7 1.61 0.27
-2 3 9 22.65 0.59
-2 3 10 0.06 0.03
-2 3 11 0.78 0.11
-2 3 12 2.7 0.19
-2 3 13 2.8 0.17
-2 3 14 0.95 0.08
-2 4 -14 0.54 0.07
-2 4 -14 0.48 0.07
-2 4 -13 1.51 0.16
-2 4 -13 1.42 0.13
-2 4 -12 2.47 0.18
-2 4 -12 2.39 0.21
-2 4 -12 2.19 0.17
-2 4 -11 1.49 0.14
-2 4 -11 1.51 0.14
-2 4 -11 1.48 0.18
-2 4 -10 8.8 0.34
-2 4 -10 8.69 0.34
-2 4 -9 0.01 0.02
-2 4 -7 0.13 0.08
-2 4 -6 113.01 1.79
-2 4 -5 253.14 2.5
-2 4 -4 128.99 1.73
-2 4 -3 13.87 0.55
-2 4 -2 0.8 0.13
-2 4 -1 41.48 0.92
-2 4 0 9.83 0.45
-2 4 1 6.64 0.39
-2 4 2 26.26 0.8
-2 4 8 54.24 0.83
-2 4 9 0.59 0.09
-2 4 10 1.55 0.14
-2 4 11 0.36 0.07
-2 4 12 0.44 0.07
-2 4 13 0.02 0.01
-2 4 14 2.15 0.13
-2 5 -14 0.05 0.02
-2 5 -13 0.01 0.02
-2 5 -12 2.85 0.18
-2 5 -12 2.87 0.23
-2 5 -12 2.66 0.18
-2 5 -11 0.2 0.05
-2 5 -11 0.19 0.06
-2 5 -11 0.18 0.05
-2 5 -10 0.74 0.1
-2 5 -10 0.79 0.13
-2 5 -10 0.71 0.1
-2 5 -9 0.06 0.03
-2 5 -9 0.04 0.03
-2 5 -7 22.5 0.87
-2 5 -6 3.55 0.33
-2 5 -5 0.11 0.06
-2 5 -4 1.16 0.16
-2 5 -3 14.61 0.57
-2 5 -2 1.84 0.2
-2 5 -1 0.3 0.08
-2 5 0 29.56 0.79
-2 5 12 0.02 0.03
-2 5 13 1.87 0.13
-2 6 -13 5.71 0.27
-2 6 -13 5.64 0.22
-2 6 -12 0.9 0.09
-2 6 -12 0.88 0.12
-2 6 -12 0.81 0.1
-2 6 -11 0.19 0.05
-2 6 -11 0.09 0.04
-2 6 -11 0.1 0.05
-2 6 -10 0.66 0.09
-2 6 -10 0.61 0.11
-2 6 -10 0.57 0.09
-2 6 -9 1.13 0.12
-2 6 -9 1.04 0.12
-2 6 -9 1.1 0.15
-2 6 -8 5.77 0.25
-2 6 -8 6.04 0.29
-2 6 -7 2 0.16
-2 6 5 0.31 0.07
-2 6 6 4.9 0.3
-2 6 7 5.52 0.32
-2 6 8 0.16 0.05
-2 6 9 0.01 0.02
-2 6 10 0.7 0.11
-2 6 11 0.1 0.04
-2 6 12 2.73 0.16
-2 7 -13 1.24 0.09
-2 7 -13 0.77 0.09
-2 7 -12 1.85 0.16
-2 7 -12 2.33 0.14
-2 7 -11 1.39 0.12
-2 7 -11 1.29 0.15
-2 7 -10 0.61 0.09
-2 7 -10 0.77 0.12
-2 7 -9 2.28 0.17
-2 7 -9 2.29 0.22
-2 7 -8 0.08 0.04
-2 7 -8 0.11 0.04
-2 7 -7 0.17 0.05
-2 7 -6 5.47 0.26
-2 7 3 2.17 0.18
-2 7 4 1.19 0.14
-2 7 5 14.81 0.5
-2 7 6 0.21 0.06
-2 7 7 0.57 0.1
-2 7 8 1.6 0.16
-2 7 9 0.06 0.03
-2 7 10 0.12 0.04
-2 7 11 0.02 0.02
-2 8 -12 1.95 0.11
-2 8 -12 2.02 0.14
-2 8 -11 0.92 0.11
-2 8 -11 1.26 0.1
-2 8 -10 1.65 0.12
-2 8 -10 1.65 0.17
-2 8 -9 -0.01 0.03
-2 8 -9 0.01 0.02
-2 8 -8 0 0.02
-2 8 -7 0.84 0.13
-2 8 -6 1.09 0.15
-2 9 -11 0.75 0.08
-2 9 -10 0.47 0.08
-2 9 -9 0.65 0.1
-2 9 -8 2.56 0.21
-2 9 -7 3.9 0.27
-2 9 -6 2.34 0.21
-2 10 -9 2.04 0.14
-2 10 -8 2.4 0.17
-2 10 -7 2.61 0.2
-2 10 -6 0.9 0.12
-2 10 -5 0.49 0.09
-2 11 -7 0.04 0.02
-2 11 -6 1.26 0.11
-2 11 -5 0.01 0.02
-2 11 -4 -0.01 0.02
-1 -11 0 0.09 0.04
-1 -11 1 0.01 0.03
-1 -11 2 0.11 0.06
-1 -10 -4 2.49 0.21
-1 -10 -3 1.78 0.19
-1 -10 -2 0.85 0.14
-1 -10 -1 0 0.06
-1 -10 0 2.45 0.26
-1 -10 1 4.35 0.36
-1 -10 2 3.87 0.34
-1 -10 3 2.96 0.29
-1 -10 4 13.22 0.59
-1 -9 -7 1.69 0.15
-1 -9 -6 0.02 0.02
-1 -9 -5 0.16 0.06
-1 -9 -4 0.05 0.04
-1 -9 -3 1.64 0.2
-1 -9 -2 0.75 0.14
-1 -9 -1 0.19 0.08
-1 -9 0 2.12 0.26
-1 -9 1 17.52 0.74
-1 -9 2 0.61 0.14
-1 -9 3 2.78 0.31
-1 -9 4 10.65 0.55
-1 -9 4 11.92 0.64
-1 -9 5 0.57 0.14
-1 -9 9 0.2 0.06
-1 -9 10 4.64 0.26
-1 -9 11 3.76 0.2
-1 -8 -8 6.08 0.28
-1 -8 -7 0.08 0.04
-1 -8 -6 2.21 0.21
-1 -8 -5 0.61 0.12
-1 -8 -4 1.83 0.21
-1 -8 -3 0.22 0.08
-1 -8 -2 0.52 0.12
-1 -8 0 1.7 0.28
-1 -8 0 1.24 0.19
-1 -8 1 0.03 0.05
-1 -8 1 0.14 0.08
-1 -8 2 0.18 0.08
-1 -8 3 6.37 0.42
-1 -8 3 6.06 0.46
-1 -8 4 21.8 0.88
-1 -8 4 21.08 0.8
-1 -8 5 16.35 0.72
-1 -8 5 18.38 0.81
-1 -8 6 3.3 0.33
-1 -8 11 0.19 0.06
-1 -8 12 0.06 0.03
-1 -7 -10 0.08 0.03
-1 -7 -9 0.39 0.06
-1 -7 -8 3.98 0.19
-1 -7 -8 2.97 0.22
-1 -7 -7 0.05 0.04
-1 -7 -6 1.12 0.11
-1 -7 -6 0.82 0.13
-1 -7 -5 0.79 0.14
-1 -7 -4 17.59 0.64
-1 -7 -3 17.95 0.64
-1 -7 -2 9.12 0.66
-1 -7 -1 3.42 0.39
-1 -7 -1 2.25 0.22
-1 -7 0 8.86 0.61
-1 -7 0 5.96 0.36
-1 -7 1 0.34 0.09
-1 -7 1 0.65 0.16
-1 -7 2 3.61 0.31
-1 -7 3 18.55 0.69
-1 -7 3 17.19 0.7
-1 -7 4 1.07 0.18
-1 -7 4 1.27 0.19
-1 -7 5 0.69 0.16
-1 -7 5 0.64 0.14
-1 -7 6 0.13 0.1
-1 -7 6 0.1 0.06
-1 -7 7 3.49 0.52
-1 -7 7 3.78 0.36
-1 -7 12 12.64 0.49
-1 -7 13 3.22 0.21
-1 -6 -11 0.74 0.08
-1 -6 -10 0.34 0.06
-1 -6 -9 1.12 0.12
-1 -6 -8 0.46 0.08
-1 -6 -7 8.26 0.31
-1 -6 -7 6.55 0.37
-1 -6 -6 3.27 0.19
-1 -6 -6 2.74 0.25
-1 -6 -5 25.18 1.11
-1 -6 -5 27.84 0.79
-1 -6 -4 7.96 0.61
-1 -6 -4 5.46 0.34
-1 -6 -3 5.59 0.5
-1 -6 -2 4.82 0.44
-1 -6 -2 4.61 0.23
-1 -6 -1 0.1 0.07
-1 -6 -1 0.06 0.03
-1 -6 0 1.05 0.19
-1 -6 0 1.04 0.1
-1 -6 1 5.72 0.43
-1 -6 1 6.08 0.24
-1 -6 2 24.95 0.87
-1 -6 2 26.29 0.5
-1 -6 4 0.17 0.1
-1 -6 5 5.26 0.58
-1 -6 6 0.38 0.17
-1 -6 6 0.49 0.12
-1 -6 7 16.33 1.12
-1 -6 7 15.56 0.69
-1 -6 8 11.25 0.96
-1 -6 12 0.88 0.14
-1 -6 13 0.4 0.09
-1 -6 14 2.43 0.17
-1 -5 -12 0.68 0.07
-1 -5 -11 0.41 0.07
-1 -5 -10 1.48 0.14
-1 -5 -9 3.44 0.21
-1 -5 -8 12.48 0.39
-1 -5 -7 7.2 0.57
-1 -5 -7 6.56 0.28
-1 -5 -6 4.87 0.47
-1 -5 -6 4.87 0.23
-1 -5 -6 3.9 0.28
-1 -5 -5 0.76 0.18
-1 -5 -4 0.02 0.03
-1 -5 -3 3.68 0.36
-1 -5 -3 3.53 0.2
-1 -5 -2 0.08 0.06
-1 -5 -2 0.13 0.04
-1 -5 -1 2.87 0.29
-1 -5 -1 2.99 0.17
-1 -5 0 11 0.55
-1 -5 0 11.95 0.32
-1 -5 1 1.36 0.19
-1 -5 1 1.43 0.11
-1 -5 2 22.67 0.73
-1 -5 2 23.73 0.44
-1 -5 3 26.11 1.08
-1 -5 3 27.19 0.49
-1 -5 4 1.79 0.3
-1 -5 5 24.63 1.2
-1 -5 6 1.01 0.26
-1 -5 7 0.04 0.06
-1 -5 8 16.38 1.12
-1 -5 9 0.95 0.28
-1 -5 12 3.95 0.31
-1 -5 13 0.36 0.09
-1 -5 14 2.98 0.2
-1 -4 -13 0.05 0.03
-1 -4 -12 3.24 0.18
-1 -4 -12 2.81 0.17
-1 -4 -11 0.42 0.08
-1 -4 -11 0.38 0.08
-1 -4 -10 6.77 0.29
-1 -4 -10 7.43 0.32
-1 -4 -9 4.12 0.3
-1 -4 -9 3.84 0.22
-1 -4 -8 0.08 0.05
-1 -4 -8 0.03 0.03
-1 -4 -7 4.51 0.42
-1 -4 -7 4.51 0.22
-1 -4 -7 4.63 0.3
-1 -4 -6 70.19 1.62
-1 -4 -5 20.19 0.83
-1 -4 -4 2.07 0.25
-1 -4 -3 8.65 0.49
-1 -4 -3 8.75 0.29
-1 -4 -2 37.21 0.96
-1 -4 -2 40.8 0.58
-1 -4 -1 15.67 0.6
-1 -4 -1 18.08 0.37
-1 -4 0 7.23 0.39
-1 -4 0 8.33 0.24
-1 -4 1 1.52 0.17
-1 -4 1 1.61 0.1
-1 -4 2 3.67 0.34
-1 -4 2 3.48 0.25
-1 -4 3 4.15 0.39
-1 -4 3 3.97 0.26
-1 -4 4 15.74 0.83
-1 -4 5 53.89 1.65
-1 -4 6 1.1 0.25
-1 -4 7 24.06 1.22
-1 -4 8 1.42 0.32
-1 -4 9 0.39 0.17
-1 -4 12 0.38 0.1
-1 -4 13 8.32 0.4
-1 -3 -14 0.69 0.06
-1 -3 -13 0.09 0.04
-1 -3 -13 -0.03 0.05
-1 -3 -12 0.17 0.06
-1 -3 -12 0.28 0.08
-1 -3 -12 0.29 0.06
-1 -3 -11 3.63 0.21
-1 -3 -11 4.27 0.26
-1 -3 -11 3.75 0.29
-1 -3 -10 4.59 0.24
-1 -3 -10 4.8 0.33
-1 -3 -9 9.4 0.44
-1 -3 -9 8.89 0.33
-1 -3 -8 0.98 0.1
-1 -3 -7 16.43 0.73
-1 -3 -6 4.15 0.36
-1 -3 -5 0.12 0.07
-1 -3 -4 9.56 0.48
-1 -3 -3 0.8 0.13
-1 -3 -3 0.74 0.08
-1 -3 -2 1.3 0.16
-1 -3 -2 1.41 0.1
-1 -3 -1 4.27 0.27
-1 -3 -1 5.21 0.18
-1 -3 0 137.11 1.47
-1 -3 0 150.51 0.92
-1 -3 1 14.13 0.54
-1 -3 1 13.17 0.44
-1 -3 2 4.16 0.33
-1 -3 2 4.25 0.24
-1 -3 3 38.28 1.09
-1 -3 3 35.93 0.67
-1 -3 3 38.01 0.88
-1 -3 4 5.99 0.47
-1 -3 5 0.08 0.06
-1 -3 6 6.1 0.55
-1 -3 7 53.85 1.74
-1 -3 8 19.07 1.1
-1 -3 9 0.54 0.2
-1 -3 10 0.47 0.19
-1 -3 11 12.9 0.54
-1 -3 11 12.39 0.96
-1 -3 12 0.11 0.05
-1 -2 -14 7.67 0.29
-1 -2 -13 2.95 0.16
-1 -2 -13 2.88 0.2
-1 -2 -13 3.07 0.24
-1 -2 -12 0.11 0.07
-1 -2 -12 0.08 0.04
-1 -2 -12 0.05 0.03
-1 -2 -11 1 0.11
-1 -2 -11 1.16 0.16
-1 -2 -11 1 0.15
-1 -2 -10 26.44 0.55
-1 -2 -10 27.03 0.76
-1 -2 -9 1.25 0.12
-1 -2 -9 2.12 0.2
-1 -2 -6 67.44 1.27
-1 -2 -5 16.24 0.59
-1 -2 -4 37.6 0.84
-1 -2 -3 0 0.02
-1 -2 -3 0.01 0.01
-1 -2 -2 0.04 0.03
-1 -2 -2 0.03 0.02
-1 -2 -1 0.07 0.03
-1 -2 -1 0.05 0.02
-1 -2 0 12.17 0.39
-1 -2 1 11.76 0.45
-1 -2 1 10.55 0.35
-1 -2 2 77.25 1.29
-1 -2 3 17.27 0.67
-1 -2 4 61.63 1.38
-1 -2 5 12.51 0.68
-1 -2 6 50.35 1.46
-1 -2 7 13.17 0.8
-1 -2 8 14.39 0.9
-1 -2 9 17.87 1.05
-1 -2 10 2.37 0.4
-1 -2 11 0.03 0.06
-1 -2 14 5.93 0.27
-1 -2 15 0.41 0.06
-1 -1 -15 2.26 0.15
-1 -1 -14 0.29 0.07
-1 -1 -14 0.38 0.09
-1 -1 -13 0.28 0.07
-1 -1 -13 0.4 0.09
-1 -1 -12 1.19 0.15
-1 -1 -12 1.38 0.17
-1 -1 -11 4.7 0.22
-1 -1 -11 5.09 0.31
-1 -1 -11 4.84 0.33
-1 -1 -10 0.41 0.07
-1 -1 -10 0.54 0.11
-1 -1 -5 30.39 0.71
-1 -1 -4 19.64 0.54
-1 -1 -4 19.36 0.48
-1 -1 -3 59.1 0.89
-1 -1 -3 61.03 0.57
-1 -1 -3 59.94 0.72
-1 -1 -2 156.15 1.36
-1 -1 -2 166.58 1.09
-1 -1 -1 57.15 0.78
-1 -1 0 202.41 1.4
-1 -1 1 73.08 1.02
-1 -1 2 35.85 0.81
-1 -1 3 72.38 1.27
-1 -1 4 9.33 0.5
-1 -1 5 71.61 1.52
-1 -1 5 71.65 1.23
-1 -1 6 5.34 0.45
-1 -1 6 5.6 0.4
-1 -1 8 14.49 0.86
-1 -1 9 1.5 0.29
-1 -1 15 0.98 0.1
-1 -1 16 0.42 0.05
-1 0 -15 2.34 0.17
-1 0 -14 8.25 0.35
-1 0 -14 8.35 0.38
-1 0 -13 0.18 0.06
-1 0 -12 0.45 0.1
-1 0 -12 0.35 0.09
-1 0 -11 1.88 0.15
-1 0 -11 2.12 0.2
-1 0 -11 1.9 0.21
-1 0 -10 3.16 0.19
-1 0 -10 2.96 0.25
-1 0 -10 3.05 0.18
-1 0 -5 2.3 0.19
-1 0 -4 5.74 0.26
-1 0 -3 8.74 0.29
-1 0 -2 371.27 1.77
-1 0 2 77.9 1.13
-1 0 3 206.96 2.07
-1 0 4 6.6 0.41
-1 0 5 33.51 0.85
-1 0 5 35.22 1.02
-1 0 6 28.85 0.91
-1 0 6 28.64 1
-1 0 7 0.01 0.03
-1 0 7 0.03 0.03
-1 0 8 0.09 0.07
-1 0 9 4.71 0.48
-1 0 15 0.04 0.02
-1 0 16 0.21 0.04
-1 1 -15 1.71 0.15
-1 1 -14 3.47 0.25
-1 1 -14 3.27 0.22
-1 1 -13 -0.02 0.07
-1 1 -13 0.01 0.02
-1 1 -12 1.01 0.11
-1 1 -12 0.94 0.14
-1 1 -12 0.98 0.15
-1 1 -11 0.27 0.06
-1 1 -11 0.3 0.09
-1 1 -11 0.26 0.06
-1 1 -10 11.89 0.37
-1 1 -10 12.3 0.44
-1 1 -10 12.3 0.5
-1 1 -10 12.18 0.37
-1 1 -6 12.88 0.5
-1 1 -5 15.11 0.49
-1 1 -4 161.48 1.41
-1 1 -3 2.92 0.18
-1 1 -2 34.48 0.57
-1 1 -1 59.79 0.72
-1 1 1 108.88 1.21
-1 1 2 54.16 0.93
-1 1 3 22.83 0.66
-1 1 4 19.23 0.66
-1 1 5 8.12 0.47
-1 1 6 0.73 0.16
-1 1 7 7.89 0.55
-1 1 7 7.87 0.53
-1 1 8 0.04 0.04
-1 1 8 0.07 0.07
-1 1 9 0.52 0.18
-1 1 15 1.39 0.11
-1 2 -14 2.59 0.22
-1 2 -13 0.04 0.03
-1 2 -13 -0.04 0.05
-1 2 -13 0 0.03
-1 2 -12 3.84 0.26
-1 2 -12 3.86 0.23
-1 2 -12 4.05 0.31
-1 2 -11 7.57 0.32
-1 2 -11 7.62 0.36
-1 2 -11 7.63 0.42
-1 2 -11 7.71 0.31
-1 2 -10 0.95 0.11
-1 2 -10 1.08 0.11
-1 2 -10 0.93 0.14
-1 2 -6 8.68 0.42
-1 2 -5 1.47 0.16
-1 2 -4 139.02 1.35
-1 2 -3 699.2 2.81
-1 2 -2 1000 3.22
-1 2 -1 40.66 0.62
-1 2 0 20.29 0.45
-1 2 1 95.27 1.18
-1 2 2 31.84 0.72
-1 2 3 0.88 0.13
-1 2 4 129.02 1.68
-1 2 5 10.02 0.5
-1 2 6 41.4 1.09
-1 2 8 2.86 0.38
-1 2 9 5.91 0.6
-1 2 14 0.29 0.06
-1 2 15 0.36 0.05
-1 3 -15 0.03 0.02
-1 3 -14 0.04 0.03
-1 3 -13 0 0.02
-1 3 -13 0 0.03
-1 3 -12 4.62 0.28
-1 3 -12 4.96 0.34
-1 3 -12 4.64 0.25
-1 3 -11 2.71 0.19
-1 3 -11 2.44 0.2
-1 3 -11 2.57 0.25
-1 3 -11 2.8 0.19
-1 3 -10 3.84 0.21
-1 3 -10 3.34 0.22
-1 3 -10 3.79 0.28
-1 3 -6 0.03 0.03
-1 3 -5 47.46 0.91
-1 3 -4 2.02 0.17
-1 3 -3 1.04 0.11
-1 3 -2 0.64 0.08
-1 3 -1 61.42 0.78
-1 3 0 3.04 0.17
-1 3 3 138.54 1.63
-1 3 4 255.27 2.33
-1 3 5 35.12 0.9
-1 3 9 7.12 0.68
-1 3 10 2.72 0.45
-1 3 14 0.89 0.09
-1 4 -15 0.06 0.03
-1 4 -13 0.02 0.02
-1 4 -13 0.01 0.03
-1 4 -12 1.88 0.21
-1 4 -12 1.83 0.16
-1 4 -11 1.61 0.14
-1 4 -11 1.46 0.19
-1 4 -11 1.53 0.14
-1 4 -10 2.48 0.17
-1 4 -10 2.26 0.17
-1 4 -10 2.32 0.22
-1 4 -5 1.23 0.15
-1 4 -4 10.54 0.4
-1 4 -3 123.64 1.25
-1 4 -2 3.63 0.2
-1 4 -1 7.06 0.27
-1 4 10 5.15 0.61
-1 4 13 0.04 0.02
-1 5 -15 1.98 0.15
-1 5 -14 0.96 0.13
-1 5 -13 3.17 0.19
-1 5 -13 3.39 0.27
-1 5 -12 0.4 0.07
-1 5 -12 0.24 0.08
-1 5 -11 0.34 0.06
-1 5 -11 0.3 0.09
-1 5 -11 0.32 0.07
-1 5 -10 28.35 0.6
-1 5 -10 27.62 0.8
-1 5 -9 2.04 0.21
-1 5 -9 1.96 0.15
-1 6 -15 0.11 0.03
-1 6 -14 1.73 0.16
-1 6 -13 1.69 0.13
-1 6 -13 1.67 0.18
-1 6 -12 4.1 0.21
-1 6 -12 4.25 0.31
-1 6 -11 2.33 0.23
-1 6 -11 2.68 0.18
-1 6 -10 0.02 0.03
-1 6 -10 -0.01 0.04
-1 6 -9 3.08 0.19
-1 6 -9 2.87 0.26
-1 6 -8 19.3 0.64
-1 6 11 0.15 0.04
-1 7 -14 0.02 0.02
-1 7 -13 1.52 0.15
-1 7 -12 5.32 0.21
-1 7 -12 5.08 0.32
-1 7 -11 0.57 0.11
-1 7 -10 0.68 0.13
-1 7 -9 5.27 0.35
-1 7 -8 6.01 0.37
-1 7 -7 0.51 0.11
-1 8 -13 0.13 0.04
-1 8 -12 9.43 0.38
-1 8 -11 0.14 0.06
-1 8 -10 3.08 0.26
-1 8 -9 2.14 0.22
-1 8 -8 0.47 0.11
-1 8 -7 3.91 0.31
-1 9 -12 0.24 0.05
-1 9 -11 0.17 0.05
-1 9 -10 1.55 0.16
-1 9 -9 1.94 0.2
-1 9 -8 1.79 0.2
-1 9 -7 6.15 0.37
-1 10 -11 1.75 0.12
-1 10 -10 0.03 0.03
-1 10 -9 0.21 0.06
-1 10 -8 0.09 0.04
-1 10 -7 0 0.03
-1 10 -6 3.5 0.27
-1 11 -8 0.71 0.09
-1 11 -7 0.44 0.08
-1 11 -6 0.02 0.03
-1 11 -5 3 0.22
-1 12 -4 0.07 0.03
-1 12 -3 0.02 0.02
0 -11 -3 0.54 0.09
0 -11 -2 -0.01 0.03
0 -11 -1 0.65 0.11
0 -11 0 0.21 0.06
0 -11 1 0.01 0.04
0 -11 3 11.6 0.45
0 -11 4 2.1 0.2
0 -10 -6 3.07 0.19
0 -10 -2 1.16 0.16
0 -10 -1 2.82 0.25
0 -10 0 0.12 0.05
0 -10 1 -0.03 0.03
0 -10 2 0.01 0.06
0 -10 2 0.03 0.04
0 -10 3 0.09 0.06
0 -10 4 0.71 0.14
0 -10 5 4.49 0.35
0 -10 6 13.39 0.61
0 -10 7 8.23 0.46
0 -9 -8 0.35 0.06
0 -9 -6 0.68 0.11
0 -9 -5 0.26 0.07
0 -9 -4 0.14 0.06
0 -9 -3 0.38 0.09
0 -9 -1 5.66 0.36
0 -9 0 6.76 0.34
0 -9 0 7.43 0.41
0 -9 1 6.27 0.38
0 -9 2 3.44 0.31
0 -9 2 2.65 0.25
0 -9 3 1.02 0.17
0 -9 4 2.25 0.26
0 -9 5 0.83 0.16
0 -9 6 3.57 0.34
0 -9 7 0.4 0.11
0 -9 8 0.17 0.07
0 -9 12 8.58 0.32
0 -8 -10 1.99 0.1
0 -8 -9 2.09 0.12
0 -8 -9 1.48 0.14
0 -8 -8 0.95 0.09
0 -8 -8 0.82 0.12
0 -8 -7 1.95 0.13
0 -8 -7 1.75 0.19
0 -8 -6 1.14 0.16
0 -8 -5 0.31 0.09
0 -8 -4 1.59 0.2
0 -8 -3 6.52 0.4
0 -8 -2 36.5 1.24
0 -8 -2 26.36 0.78
0 -8 -1 2.57 0.32
0 -8 -1 1.91 0.2
0 -8 0 0.48 0.1
0 -8 0 0.37 0.08
0 -8 0 0.67 0.16
0 -8 1 11.24 0.62
0 -8 1 7.91 0.4
0 -8 2 -0.02 0.02
0 -8 5 0.25 0.09
0 -8 6 1.58 0.34
0 -8 6 1.32 0.21
0 -8 7 0.27 0.1
0 -8 8 0.69 0.15
0 -8 9 0.64 0.15
0 -8 13 0.21 0.05
0 -7 -11 2.09 0.12
0 -7 -10 0.67 0.08
0 -7 -10 0.6 0.09
0 -7 -9 0 0.02
0 -7 -9 0.02 0.03
0 -7 -8 0.05 0.04
0 -7 -8 0.08 0.04
0 -7 -7 3.78 0.21
0 -7 -7 3.36 0.3
0 -7 -6 13.01 0.37
0 -7 -6 13.28 0.61
0 -7 -5 8.8 0.62
0 -7 -5 11.3 0.56
0 -7 -4 0.41 0.11
0 -7 -4 0.58 0.15
0 -7 -3 0.1 0.05
0 -7 -3 0.06 0.06
0 -7 -2 0.65 0.15
0 -7 -1 4.78 0.41
0 -7 0 5.48 0.42
0 -7 1 0.16 0.07
0 -7 2 0.19 0.07
0 -7 3 9.45 0.69
0 -7 4 2.77 0.4
0 -7 5 7.51 0.69
0 -7 6 3.81 0.52
0 -7 6 3.75 0.32
0 -7 7 5.34 0.64
0 -7 7 6.28 0.43
0 -7 7 6.41 0.66
0 -7 8 0.16 0.11
0 -7 8 0.23 0.09
0 -7 9 0.48 0.13
0 -7 13 0.54 0.09
0 -7 14 0.5 0.07
0 -6 -12 0.06 0.02
0 -6 -11 0.18 0.04
0 -6 -10 3.78 0.21
0 -6 -10 3.64 0.26
0 -6 -9 0.09 0.06
0 -6 -9 0.12 0.05
0 -6 -8 5.68 0.26
0 -6 -8 5.39 0.39
0 -6 -7 9.83 0.34
0 -6 -7 10.21 0.65
0 -6 -7 10.19 0.55
0 -6 -6 0.36 0.1
0 -6 -6 0.45 0.08
0 -6 -6 0.41 0.12
0 -6 -5 0.1 0.06
0 -6 -4 36.14 1.12
0 -6 -3 74.27 1.56
0 -6 -2 1.99 0.25
0 -6 -1 17.92 0.71
0 -6 0 4.21 0.33
0 -6 1 8.15 0.44
0 -6 2 42.75 1.26
0 -6 2 41.39 0.95
0 -6 3 1.06 0.21
0 -6 4 6.98 0.58
0 -6 4 7.11 0.62
0 -6 5 0.44 0.16
0 -6 5 0.54 0.17
0 -6 6 0.43 0.17
0 -6 6 0.42 0.16
0 -6 7 4.36 0.55
0 -6 7 4.48 0.54
0 -6 8 14.12 1.05
0 -6 8 13.47 0.61
0 -6 8 14.13 1
0 -6 9 11.91 0.59
0 -5 -13 -0.01 0.03
0 -5 -12 0.02 0.02
0 -5 -11 0.04 0.04
0 -5 -10 0.35 0.08
0 -5 -9 2.97 0.2
0 -5 -9 3.26 0.3
0 -5 -8 2.26 0.17
0 -5 -8 2.52 0.27
0 -5 -7 1.29 0.12
0 -5 -7 1.21 0.21
0 -5 -6 5.06 0.4
0 -5 -5 2.94 0.3
0 -5 -4 28.21 0.89
0 -5 -3 1.25 0.18
0 -5 -2 11.09 0.52
0 -5 -1 1.56 0.18
0 -5 0 3.78 0.27
0 -5 1 1.86 0.22
0 -5 1 1.66 0.17
0 -5 2 109.01 1.82
0 -5 2 104.87 1.3
0 -5 3 40.87 1.19
0 -5 3 42.29 0.78
0 -5 3 43.4 1.34
0 -5 4 5.35 0.46
0 -5 4 5.54 0.5
0 -5 5 1.74 0.29
0 -5 5 2.26 0.34
0 -5 6 3.32 0.41
0 -5 6 3.54 0.44
0 -5 7 0.27 0.13
0 -5 7 0.18 0.12
0 -5 8 2.56 0.42
0 -5 8 2.55 0.41
0 -5 9 10.41 0.9
0 -5 9 9.95 0.5
0 -5 10 6.54 0.73
0 -5 13 9.08 0.41
0 -4 -14 1.56 0.09
0 -4 -13 -0.02 0.03
0 -4 -12 1.45 0.13
0 -4 -11 18 0.47
0 -4 -11 18.34 0.63
0 -4 -10 1.09 0.12
0 -4 -10 1.05 0.16
0 -4 -9 1.12 0.12
0 -4 -9 1.16 0.16
0 -4 -8 17.8 0.44
0 -4 -8 16.55 0.57
0 -4 -7 10.5 0.54
0 -4 -6 23.94 0.78
0 -4 -5 0.02 0.02
0 -4 -4 103.05 1.51
0 -4 -3 26.04 0.72
0 -4 -2 29.41 0.73
0 -4 -2 28.5 0.39
0 -4 2 1.88 0.21
0 -4 2 1.72 0.14
0 -4 2 1.8 0.24
0 -4 3 10.74 0.54
0 -4 3 10.24 0.32
0 -4 3 11.59 0.64
0 -4 4 19.65 0.79
0 -4 4 21.39 0.92
0 -4 5 10.99 0.64
0 -4 6 9.49 0.64
0 -4 7 20.86 1.03
0 -4 8 0.69 0.21
0 -4 9 25.34 1.33
0 -4 10 2 0.38
0 -4 11 3.61 0.52
0 -3 -14 0.47 0.05
0 -3 -13 2.9 0.16
0 -3 -13 3.1 0.24
0 -3 -12 -0.04 0.05
0 -3 -12 0.06 0.04
0 -3 -12 0.05 0.04
0 -3 -11 1.15 0.12
0 -3 -11 0.98 0.12
0 -3 -11 0.99 0.15
0 -3 -10 3.42 0.2
0 -3 -10 3.33 0.23
0 -3 -10 3.09 0.26
0 -3 -9 0.38 0.07
0 -3 -9 0.32 0.08
0 -3 -8 0.83 0.2
0 -3 -7 2.2 0.31
0 -3 -6 1.43 0.17
0 -3 -6 1.3 0.23
0 -3 -5 46.33 0.91
0 -3 -5 42.62 1.18
0 -3 -4 0.76 0.15
0 -3 -4 0.72 0.11
0 -3 -3 11.9 0.52
0 -3 -3 13.1 0.44
0 -3 -2 55.41 0.86
0 -3 -1 78.61 0.98
0 -3 0 98.27 1.05
0 -3 1 8.03 0.27
0 -3 1 6.84 0.38
0 -3 2 119.75 0.96
0 -3 2 111.28 1.64
0 -3 3 0.85 0.14
0 -3 4 12.15 0.56
0 -3 5 12.61 0.62
0 -3 6 3.64 0.37
0 -3 8 18.82 1
0 -3 9 0.22 0.12
0 -3 10 5.13 0.57
0 -3 11 0.59 0.2
0 -2 -14 0.16 0.06
0 -2 -13 0.79 0.09
0 -2 -13 0.97 0.13
0 -2 -13 0.79 0.13
0 -2 -12 26.28 0.54
0 -2 -12 25.99 0.67
0 -2 -12 26.34 0.76
0 -2 -11 6.12 0.26
0 -2 -11 5.91 0.32
0 -2 -11 5.58 0.35
0 -2 -10 4.29 0.22
0 -2 -10 3.85 0.45
0 -2 -10 4.46 0.26
0 -2 -10 4.07 0.29
0 -2 -9 7.31 0.6
0 -2 -8 7.5 0.57
0 -2 -7 1.7 0.25
0 -2 -6 1.18 0.13
0 -2 -6 1.16 0.19
0 -2 -5 17.96 0.48
0 -2 -5 17.32 0.66
0 -2 -4 0.04 0.03
0 -2 -4 0.01 0.02
0 -2 -3 0.04 0.03
0 -2 -2 131.18 1.31
0 -2 -2 130.55 1.09
0 -2 -1 116.95 1.1
0 -2 -1 121.91 1.01
0 -2 3 0.12 0.05
0 -2 4 3.25 0.26
0 -2 5 10.48 0.51
0 -2 5 5.41 0.4
0 -2 6 4.07 0.36
0 -2 6 3.87 0.38
0 -2 7 30.86 1.1
0 -2 7 32.06 1.2
0 -2 8 12.96 0.78
0 -2 8 13.07 0.84
0 -2 9 0.39 0.15
0 -2 9 0.44 0.17
0 -2 10 0.82 0.21
0 -2 16 0.02 0.01
0 -1 -15 0.16 0.05
0 -1 -14 0.75 0.12
0 -1 -13 3 0.24
0 -1 -13 2.7 0.24
0 -1 -12 0.56 0.11
0 -1 -12 0.67 0.13
0 -1 -11 -0.08 0.07
0 -1 -11 -0.01 0.03
0 -1 -10 12.64 0.44
0 -1 -10 11.84 0.75
0 -1 -10 11.88 0.49
0 -1 -9 1.35 0.24
0 -1 -8 21.77 0.89
0 -1 -7 39.49 1.09
0 -1 -6 163.98 1.99
0 -1 -5 77.83 0.8
0 -1 -5 83.79 1.28
0 -1 -4 4.19 0.17
0 -1 -4 4.58 0.27
0 -1 -3 35.53 0.65
0 -1 3 48.8 0.77
0 -1 4 0.61 0.1
0 -1 4 0.5 0.1
0 -1 5 1.04 0.17
0 -1 6 0.72 0.14
0 -1 6 0.66 0.15
0 -1 7 22.21 0.87
0 -1 7 21.88 0.98
0 -1 8 0.81 0.18
0 -1 8 0.7 0.19
0 -1 9 0.72 0.21
0 -1 10 6.52 0.69
0 -1 11 0.47 0.21
0 -1 12 -0.12 0.11
0 -1 16 0.03 0.02
0 0 -16 0.37 0.06
0 0 -15 0.89 0.12
0 0 -13 21.33 0.69
0 0 -12 21.66 0.64
0 0 -12 20.85 0.69
0 0 -11 0.89 0.12
0 0 -11 1.08 0.15
0 0 -9 31.32 1.06
0 0 -8 0.4 0.11
0 0 -7 0.57 0.12
0 0 -6 13.81 0.53
0 0 4 59.43 0.94
0 0 4 70.3 1.18
0 0 5 34.57 0.81
0 0 5 30.65 0.91
0 0 6 13.09 0.55
0 0 6 12.25 0.66
0 0 7 0.44 0.11
0 0 7 0.5 0.15
0 0 8 0.4 0.14
0 0 9 31.17 1.42
0 0 10 5.75 0.65
0 0 11 1.02 0.29
0 0 12 21.91 1.34
0 0 16 0.34 0.05
0 1 -16 -0.01 0.02
0 1 -14 13.19 0.51
0 1 -13 10.02 0.48
0 1 -12 0.07 0.07
0 1 -11 0.46 0.08
0 1 -11 0.75 0.2
0 1 -11 0.56 0.11
0 1 -8 0.92 0.15
0 1 7 37.69 1.31
0 1 8 20.5 1.08
0 1 9 1.61 0.33
0 1 10 11.76 0.96
0 1 11 -0.1 0.1
0 2 -16 0.01 0.02
0 2 -15 -0.01 0.02
0 2 -14 3.28 0.26
0 2 -12 0.76 0.13
0 2 -11 0.21 0.05
0 2 -11 0.29 0.09
0 2 -11 0.24 0.08
0 2 8 6.89 0.64
0 2 9 7.51 0.74
0 2 10 3.8 0.56
0 2 11 5.63 0.7
0 3 -15 2.76 0.21
0 3 -13 9.98 0.48
0 3 -12 8.07 0.33
0 3 -12 7.82 0.43
0 3 -11 0.46 0.08
0 3 -11 0.41 0.1
0 3 -10 4.79 0.31
0 3 9 0.24 0.14
0 3 10 3.68 0.57
0 4 -16 5.15 0.21
0 4 -15 3.88 0.23
0 4 -14 1.63 0.18
0 4 -13 0.93 0.15
0 4 -12 9.66 0.35
0 4 -12 9.57 0.48
0 4 -11 3.74 0.21
0 4 -11 3.55 0.29
0 4 -10 2.51 0.23
0 4 -10 2.53 0.17
0 4 10 0.71 0.25
0 5 -15 1.74 0.15
0 5 -14 0.81 0.12
0 5 -13 8.68 0.43
0 5 -12 1.52 0.19
0 5 -11 1.61 0.14
0 5 -11 1.5 0.19
0 5 -10 6.6 0.27
0 5 -10 5.7 0.36
0 5 -9 10.07 0.46
0 6 -14 2.59 0.19
0 6 -13 0.08 0.04
0 6 -12 0.31 0.09
0 6 -11 2.07 0.22
0 6 -10 17.8 0.65
0 6 -9 11.6 0.51
0 6 -8 13.59 0.54
0 7 -14 0.57 0.08
0 7 -13 0.48 0.09
0 7 -12 1.13 0.15
0 7 -11 0.42 0.1
0 7 -10 4.61 0.33
0 7 -9 0.52 0.11
0 7 -8 0.2 0.07
0 8 -13 0.16 0.04
0 8 -12 0.19 0.06
0 8 -11 1.05 0.14
0 8 -10 14.89 0.56
0 8 -9 0.48 0.11
0 8 -8 0.54 0.11
0 9 -12 8.04 0.28
0 9 -11 6 0.28
0 9 -10 -0.02 0.03
0 9 -9 1.87 0.19
0 9 -8 0.1 0.05
0 9 -7 0.39 0.1
0 10 -10 0.3 0.06
0 10 -9 0 0.02
0 10 -8 6.19 0.31
0 10 -7 7.79 0.37
0 11 -8 0.35 0.06
0 11 -7 1.27 0.12
0 11 -6 3.84 0.22
0 11 -5 0.03 0.03
1 -11 -4 0.11 0.04
1 -11 -3 1.35 0.13
1 -11 -2 0.1 0.04
1 -11 1 4.04 0.27
1 -11 2 5.73 0.34
1 -11 3 5.38 0.34
1 -11 4 2.15 0.22
1 -11 5 3.29 0.26
1 -11 6 0.06 0.05
1 -11 7 0.58 0.11
1 -10 -6 0.27 0.06
1 -10 -5 0.19 0.06
1 -10 -4 0.08 0.04
1 -10 -3 1.19 0.12
1 -10 -3 1.43 0.16
1 -10 -2 1.21 0.14
1 -10 -2 1.36 0.15
1 -10 -1 0.7 0.11
1 -10 -1 0.79 0.12
1 -10 2 0.72 0.12
1 -10 5 0.79 0.15
1 -10 6 3.65 0.32
1 -10 7 0.04 0.04
1 -10 8 0.06 0.05
1 -9 -9 0.05 0.02
1 -9 -8 0.09 0.04
1 -9 -7 2.48 0.21
1 -9 -6 0.03 0.04
1 -9 -5 4.37 0.32
1 -9 -4 0.5 0.11
1 -9 -3 13.91 0.49
1 -9 -3 14.16 0.57
1 -9 -2 3.91 0.27
1 -9 -2 4.36 0.31
1 -9 -1 3.27 0.25
1 -9 -1 3.61 0.27
1 -9 0 0.04 0.04
1 -9 1 0 0.02
1 -9 2 0.02 0.03
1 -9 6 0.38 0.11
1 -9 7 6.06 0.42
1 -9 8 1.94 0.24
1 -9 9 1.91 0.22
1 -8 -10 -0.02 0.02
1 -8 -9 0.03 0.03
1 -8 -9 -0.01 0.01
1 -8 -8 1.24 0.11
1 -8 -8 1.37 0.17
1 -8 -7 4.29 0.21
1 -8 -7 4.5 0.35
1 -8 -6 1.45 0.12
1 -8 -6 1.51 0.21
1 -8 -5 1.76 0.23
1 -8 -4 3.35 0.31
1 -8 -3 0.26 0.08
1 -8 -2 22.19 0.94
1 -8 -2 19.87 0.71
1 -8 -1 33.21 1.13
1 -8 -1 28.17 0.79
1 -8 0 6.8 0.35
1 -8 0 8.15 0.54
1 -8 1 -0.01 0.03
1 -8 1 0.14 0.07
1 -8 2 2.29 0.21
1 -8 2 3.05 0.31
1 -8 3 5.91 0.59
1 -8 4 4.65 0.54
1 -8 5 1.68 0.34
1 -8 6 0.08 0.07
1 -8 7 3.95 0.34
1 -8 7 4.04 0.55
1 -8 8 0.44 0.11
1 -8 9 1.97 0.23
1 -7 -11 0.15 0.05
1 -7 -11 0.13 0.03
1 -7 -10 0.42 0.09
1 -7 -10 0.44 0.07
1 -7 -9 0.44 0.07
1 -7 -9 0.57 0.12
1 -7 -8 1.16 0.12
1 -7 -8 1.42 0.21
1 -7 -7 2.57 0.17
1 -7 -7 3.09 0.31
1 -7 -6 -0.03 0.03
1 -7 -6 0.03 0.03
1 -7 -5 0.85 0.1
1 -7 -5 0.61 0.16
1 -7 -4 4.98 0.44
1 -7 -3 14.07 0.73
1 -7 -2 39.39 1.18
1 -7 0 2.1 0.26
1 -7 1 12.81 0.62
1 -7 2 0.28 0.09
1 -7 3 1.39 0.27
1 -7 4 8.45 0.7
1 -7 4 8.65 0.76
1 -7 5 11.8 0.85
1 -7 5 12.71 0.94
1 -7 6 9 0.76
1 -7 6 8.85 0.81
1 -7 7 0.52 0.2
1 -7 7 0.48 0.18
1 -7 8 6.23 0.41
1 -7 8 5.82 0.68
1 -7 9 5.9 0.4
1 -7 9 5.36 0.66
1 -6 -12 0.15 0.04
1 -6 -12 0.18 0.04
1 -6 -11 0.11 0.05
1 -6 -11 0.1 0.03
1 -6 -10 0.44 0.11
1 -6 -10 0.36 0.06
1 -6 -9 10.54 0.37
1 -6 -8 2.24 0.17
1 -6 -7 0.54 0.09
1 -6 -7 0.58 0.14
1 -6 -6 7.28 0.29
1 -6 -6 7.77 0.52
1 -6 -5 15.5 0.73
1 -6 -3 3.24 0.33
1 -6 -2 27.86 0.94
1 -6 -1 12.73 0.62
1 -6 0 36.07 1.04
1 -6 1 13.67 0.61
1 -6 2 8.57 0.47
1 -6 3 0.04 0.05
1 -6 3 0.01 0.02
1 -6 4 1.72 0.32
1 -6 5 1.95 0.33
1 -6 5 1.97 0.36
1 -6 6 0.08 0.08
1 -6 6 0.03 0.05
1 -6 7 0.2 0.11
1 -6 7 0.01 0.04
1 -6 8 17.58 1.1
1 -6 8 18.65 1.24
1 -6 9 2.92 0.46
1 -6 9 2.88 0.49
1 -6 10 -0.03 0.06
1 -5 -13 0.15 0.03
1 -5 -12 0.46 0.09
1 -5 -12 0.51 0.07
1 -5 -11 0.16 0.05
1 -5 -10 1.14 0.12
1 -5 -9 1.74 0.15
1 -5 -8 2.19 0.17
1 -5 -7 5.53 0.25
1 -5 -7 4.84 0.51
1 -5 -7 5.53 0.41
1 -5 -6 1.47 0.27
1 -5 -6 1.44 0.21
1 -5 -5 1.92 0.29
1 -5 -5 2.18 0.26
1 -5 -4 4.61 0.41
1 -5 -4 4.78 0.37
1 -5 -3 24.44 0.87
1 -5 -3 26.69 0.89
1 -5 -2 30.46 0.93
1 -5 -1 29.9 0.93
1 -5 0 14.63 0.63
1 -5 1 81.81 1.48
1 -5 2 8.05 0.44
1 -5 2 6.96 0.54
1 -5 3 25.97 0.75
1 -5 3 24.13 1.07
1 -5 4 4.85 0.5
1 -5 5 11.58 0.74
1 -5 5 11.19 0.8
1 -5 6 4.54 0.48
1 -5 7 0.12 0.08
1 -5 8 6.87 0.65
1 -5 9 1.64 0.33
1 -5 10 27 1.39
1 -4 -13 0.02 0.02
1 -4 -12 0.25 0.05
1 -4 -11 0.15 0.04
1 -4 -11 0.2 0.07
1 -4 -10 5.04 0.25
1 -4 -10 5.52 0.34
1 -4 -9 8.09 0.32
1 -4 -9 8.19 0.69
1 -4 -9 8.03 0.4
1 -4 -8 2.17 0.16
1 -4 -8 2.06 0.33
1 -4 -7 0.5 0.16
1 -4 -6 1.46 0.19
1 -4 -6 0.08 0.07
1 -4 -5 23.52 0.92
1 -4 -5 25.49 0.81
1 -4 -4 10.3 0.55
1 -4 -4 11.12 0.54
1 -4 -3 0.02 0.02
1 -4 -3 0 0.03
1 -4 -2 17.52 0.6
1 -4 -2 19.96 0.73
1 -4 -1 0.13 0.05
1 -4 -1 0.1 0.07
1 -4 0 45.55 1.21
1 -4 1 6.71 0.46
1 -4 1 7.01 0.46
1 -4 2 3.36 0.35
1 -4 2 3.36 0.31
1 -4 3 119.36 2.14
1 -4 3 108.84 1.7
1 -4 6 0.01 0.03
1 -4 7 -0.02 0.04
1 -4 8 0.54 0.17
1 -4 9 12.34 0.85
1 -4 10 1.82 0.34
1 -3 -13 1.44 0.11
1 -3 -13 1.51 0.16
1 -3 -12 1.04 0.11
1 -3 -12 1.14 0.15
1 -3 -11 10.16 0.35
1 -3 -11 10.31 0.46
1 -3 -10 2.46 0.18
1 -3 -10 2.48 0.22
1 -3 -9 5.6 0.25
1 -3 -9 6.93 0.6
1 -3 -9 6.87 0.35
1 -3 -8 3.29 0.4
1 -3 -7 0.72 0.17
1 -3 -6 5.31 0.34
1 -3 -6 5.24 0.43
1 -3 -5 35.56 0.87
1 -3 -5 33.87 1
1 -3 -4 264.23 2.43
1 -3 -4 252.65 2.48
1 -3 -3 137.68 1.9
1 -3 -3 137.3 1.67
1 -3 -2 5 0.28
1 -3 -2 4.48 0.37
1 -3 -1 5.14 0.25
1 -3 0 3.22 0.26
1 -3 1 65.15 1.26
1 -3 6 0.03 0.03
1 -3 7 0.63 0.16
1 -3 8 0.49 0.15
1 -2 -14 0.27 0.07
1 -2 -13 -0.02 0.04
1 -2 -12 5.91 0.34
1 -2 -11 11.31 0.36
1 -2 -11 11.13 0.79
1 -2 -11 10.99 0.47
1 -2 -10 34.83 0.61
1 -2 -10 31.68 0.71
1 -2 -10 32.22 1.31
1 -2 -10 34.34 0.8
1 -2 -9 5.62 0.52
1 -2 -8 2.89 0.35
1 -2 -7 8.51 0.56
1 -2 -5 11.18 0.44
1 -2 -4 126.43 1.7
1 -2 4 142.96 2.07
1 -2 5 1.6 0.25
1 -2 6 8.81 0.63
1 -2 6 8.65 0.48
1 -2 7 3.99 0.46
1 -2 7 3.38 0.33
1 -2 8 18.18 1.06
1 -2 9 0.24 0.13
1 -2 10 1.02 0.29
1 -1 -15 1.41 0.13
1 -1 -14 0.07 0.04
1 -1 -13 6 0.34
1 -1 -12 7.9 0.4
1 -1 -11 52.49 1.03
1 -1 -11 51.19 1.62
1 -1 -10 0.06 0.04
1 -1 -10 0.03 0.04
1 -1 -9 0.5 0.15
1 -1 -5 8.36 0.36
1 -1 3 3.05 0.26
1 -1 4 158.6 2.07
1 -1 5 14.39 0.5
1 -1 5 14.17 0.7
1 -1 6 13.06 0.76
1 -1 7 0.81 0.2
1 -1 8 47.99 1.74
1 -1 9 39.72 1.7
1 -1 10 11.76 0.98
1 -1 11 0.1 0.1
1 0 -15 0.01 0.02
1 0 -14 -0.01 0.03
1 0 -13 0.48 0.1
1 0 -12 1.65 0.18
1 0 -11 2.73 0.23
1 0 -11 2.26 0.32
1 0 -10 0.46 0.14
1 0 3 11.2 0.47
1 0 4 6 0.4
1 0 5 1.75 0.25
1 0 6 17.06 0.87
1 0 7 0.52 0.17
1 0 8 5.65 0.6
1 0 9 15.85 1.08
1 0 10 2.82 0.49
1 0 11 2.21 0.44
1 1 -15 0.83 0.1
1 1 -14 2.16 0.19
1 1 -13 2.54 0.23
1 1 -11 1.94 0.2
1 1 6 5.19 0.48
1 1 7 0.01 0.04
1 1 8 33.66 1.51
1 1 9 0.85 0.26
1 1 10 0.55 0.22
1 1 11 4.98 0.67
1 2 -15 0.37 0.07
1 2 -14 5.35 0.3
1 2 -12 4.13 0.29
1 2 -11 0.05 0.03
1 2 7 1.98 0.34
1 2 8 0.3 0.15
1 2 9 1.99 0.4
1 2 10 28.18 1.59
1 3 -15 1.03 0.11
1 3 -14 6.99 0.34
1 3 -13 1.23 0.16
1 3 -12 0.1 0.05
1 3 -11 12 0.5
1 3 -10 0.32 0.08
1 3 8 1.12 0.29
1 3 9 9.26 0.9
1 3 10 4.98 0.67
1 4 -15 0.4 0.07
1 4 -13 7.37 0.37
1 4 -12 0.33 0.08
1 4 -11 5.77 0.35
1 4 -10 0.09 0.04
1 4 -9 0.43 0.09
1 4 8 0.06 0.08
1 4 9 3.32 0.54
1 5 -14 2.6 0.18
1 5 -13 0.31 0.07
1 5 -12 3.93 0.28
1 5 -11 0.25 0.07
1 5 -10 0.07 0.04
1 5 -9 0.71 0.12
1 5 -8 15.48 0.53
1 5 8 11.97 0.99
1 6 -14 2.1 0.14
1 6 -13 0.35 0.07
1 6 -12 0.88 0.12
1 6 -11 3.33 0.25
1 6 -10 0.06 0.04
1 6 -9 0.02 0.03
1 6 -8 13.51 0.52
1 6 -7 14.94 0.54
1 7 -13 2.78 0.17
1 7 -12 12.07 0.41
1 7 -11 4.7 0.28
1 7 -10 12.78 0.49
1 7 -9 22.32 0.68
1 7 -8 2.16 0.21
1 7 -7 3.6 0.27
1 8 -12 0.02 0.02
1 8 -11 0.21 0.05
1 8 -10 3.91 0.25
1 8 -9 5.83 0.32
1 8 -8 0.33 0.08
1 8 -7 1.2 0.16
1 9 -10 7.25 0.28
1 9 -9 0.34 0.07
1 9 -8 6.95 0.33
1 9 -7 10.24 0.42
1 9 -6 2.02 0.2
1 10 -8 0.02 0.02
1 10 -7 2.17 0.16
1 10 -6 7.17 0.31
1 10 -5 2.23 0.18
1 11 -3 1.67 0.12
2 -12 2 1.44 0.13
2 -12 3 3.86 0.21
2 -12 4 2.87 0.18
2 -11 1 0.09 0.04
2 -11 5 0.01 0.04
2 -11 6 1.58 0.17
2 -11 7 0.11 0.05
2 -10 -7 0.42 0.06
2 -10 -6 2.3 0.16
2 -10 -5 2.05 0.15
2 -10 -5 2.21 0.17
2 -10 -4 0.21 0.06
2 -10 -4 0.16 0.05
2 -10 -3 1.87 0.17
2 -10 -3 1.97 0.17
2 -10 -2 1.51 0.16
2 -10 -1 0.03 0.03
2 -10 0 0.5 0.1
2 -10 2 9.87 0.43
2 -10 6 0.99 0.15
2 -10 7 2.64 0.24
2 -10 8 2.55 0.22
2 -10 9 2.13 0.17
2 -9 -9 0.31 0.05
2 -9 -8 0.09 0.03
2 -9 -7 0.25 0.07
2 -9 -6 1.08 0.15
2 -9 -5 0.83 0.14
2 -9 -4 4.2 0.31
2 -9 -3 0.45 0.1
2 -9 0 1.81 0.19
2 -9 1 7.66 0.39
2 -9 2 0.48 0.1
2 -9 7 4 0.32
2 -9 8 2.6 0.24
2 -8 -10 1.2 0.12
2 -8 -9 0.35 0.08
2 -8 -8 2.09 0.22
2 -8 -7 0.7 0.14
2 -8 -6 2.58 0.27
2 -8 -5 8.39 0.49
2 -8 -4 6.58 0.43
2 -8 -3 12.93 0.58
2 -8 -1 11.98 0.71
2 -8 0 0.09 0.06
2 -8 1 24.26 0.97
2 -8 2 4.36 0.29
2 -8 2 5.8 0.46
2 -8 3 0.76 0.12
2 -8 5 2.72 0.42
2 -8 6 1.03 0.28
2 -7 -11 0.03 0.03
2 -7 -10 0.12 0.06
2 -7 -8 1.52 0.13
2 -7 -7 0.44 0.08
2 -7 -6 1.85 0.18
2 -7 -5 14.45 0.41
2 -7 -5 11.04 0.65
2 -7 -4 1.12 0.11
2 -7 -4 1.01 0.2
2 -7 -3 2.29 0.32
2 -7 -2 0 0.03
2 -7 -1 0.85 0.19
2 -7 0 8.14 0.59
2 -7 1 0.34 0.12
2 -7 2 0.32 0.12
2 -7 3 4.23 0.38
2 -7 4 11.24 0.87
2 -7 5 16.48 1.09
2 -7 6 5.57 0.63
2 -7 6 5.36 0.63
2 -7 7 0.22 0.14
2 -7 7 0.15 0.11
2 -7 8 0.12 0.09
2 -6 -12 1.97 0.16
2 -6 -10 0.61 0.08
2 -6 -9 0.01 0.03
2 -6 -8 0.17 0.05
2 -6 -7 5.5 0.27
2 -6 -7 5.69 0.54
2 -6 -6 4.76 0.24
2 -6 -6 5.03 0.49
2 -6 -6 5.16 0.43
2 -6 -5 0.32 0.06
2 -6 -5 0.22 0.1
2 -6 -5 0.25 0.1
2 -6 -4 1.15 0.22
2 -6 -3 20.24 0.94
2 -6 -2 0.39 0.13
2 -6 -1 14.5 0.84
2 -6 0 13.84 0.82
2 -6 1 1.64 0.29
2 -6 2 0.06 0.06
2 -6 2 -0.01 0.04
2 -6 3 6.32 0.54
2 -6 3 6.93 0.63
2 -6 4 0.2 0.11
2 -6 5 0.15 0.11
2 -6 6 32.62 1.58
2 -6 7 1.82 0.34
2 -6 7 1.93 0.4
2 -6 8 5.25 0.58
2 -6 8 5.47 0.68
2 -6 9 0.92 0.24
2 -6 9 0.95 0.28
2 -5 -13 1.76 0.14
2 -5 -11 0.61 0.08
2 -5 -10 0.43 0.07
2 -5 -9 1.1 0.12
2 -5 -8 3.97 0.23
2 -5 -8 4.12 0.46
2 -5 -7 -0.03 0.05
2 -5 -7 0.05 0.06
2 -5 -6 2.78 0.35
2 -5 -6 2.72 0.31
2 -5 -5 1.59 0.25
2 -5 -5 1.76 0.26
2 -5 -4 2.87 0.32
2 -5 -4 3.02 0.36
2 -5 -3 6.43 0.43
2 -5 -3 5.96 0.53
2 -5 -2 54.67 1.7
2 -5 0 22.87 1.09
2 -5 1 0.2 0.09
2 -5 2 1.87 0.29
2 -5 3 14.44 0.84
2 -5 4 1.08 0.25
2 -5 5 0.11 0.1
2 -5 7 22.59 1.13
2 -5 8 0.26 0.13
2 -5 9 0 0.04
2 -4 -11 0.32 0.06
2 -4 -10 1.33 0.13
2 -4 -9 0.58 0.09
2 -4 -9 0.46 0.16
2 -4 -8 50.36 0.8
2 -4 -8 53.3 1.64
2 -4 -7 10.31 0.69
2 -4 -6 0.64 0.16
2 -4 -6 0.68 0.15
2 -4 -5 18.69 0.87
2 -4 -5 18.14 0.81
2 -4 -4 23.76 0.87
2 -4 -4 22.71 1.06
2 -4 -3 11.09 0.76
2 -4 -3 14.43 0.61
2 -4 -2 28.05 0.76
2 -4 1 41.76 1.18
2 -4 2 0.88 0.18
2 -4 3 13.08 0.75
2 -4 7 0.05 0.05
2 -4 8 0.21 0.1
2 -3 -11 0.77 0.09
2 -3 -10 0.02 0.03
2 -3 -9 27.29 0.58
2 -3 -9 28.56 1.21
2 -3 -8 36.23 1.34
2 -3 -6 4.3 0.39
2 -3 -5 0.06 0.08
2 -3 0 0.78 0.13
2 -3 1 6.08 0.4
2 -2 -10 0.95 0.1
2 -2 -9 11.93 0.36
2 -2 -9 13.24 0.81
2 -2 6 5.73 0.55
2 -2 7 2.28 0.38
2 -2 8 0.41 0.18
2 -1 3 19.98 0.74
2 -1 4 15.71 0.74
2 -1 5 62.19 1.62
2 -1 6 18.53 0.98
2 -1 7 1.46 0.3
2 -1 8 0.7 0.22
2 -1 9 0.06 0.07
2 -1 10 4.77 0.64
2 0 3 23.78 0.8
2 0 4 0.48 0.13
2 0 5 9.67 0.65
2 0 6 51.49 1.67
2 0 7 3.08 0.44
2 0 8 8.73 0.8
2 0 9 17.72 1.2
2 0 10 0.08 0.09
2 1 3 58.6 1.29
2 1 4 0 0.03
2 1 5 12.81 0.77
2 1 6 0 0.03
2 1 7 0.44 0.18
2 1 8 3.13 0.49
2 1 9 1.4 0.34
2 1 10 -0.1 0.1
2 2 4 41.7 1.31
2 2 5 4.26 0.46
2 2 6 1.78 0.33
2 2 7 1.6 0.34
2 2 8 63.71 2.25
2 2 9 19.55 1.28
2 3 5 0.61 0.18
2 3 6 0.18 0.11
2 3 7 0.09 0.09
2 3 8 1.06 0.29
3 -11 -3 0.06 0.02
3 -11 -2 1.35 0.11
3 -11 1 2.47 0.17
3 -11 4 3.27 0.22
3 -11 5 0.17 0.05
3 -10 -5 0.81 0.09
3 -10 -4 0.89 0.1
3 -10 -3 0.66 0.09
3 -10 -2 0 0.02
3 -10 -1 1.94 0.17
3 -10 0 1.96 0.17
3 -10 1 0.93 0.12
3 -10 2 0.49 0.09
3 -10 3 1.89 0.17
3 -9 -7 1.65 0.14
3 -9 -6 0.28 0.06
3 -9 -5 0.28 0.07
3 -9 0 0.78 0.12
3 -9 1 0.88 0.13
3 -9 2 7.83 0.37
3 -8 -9 0.58 0.09
3 -8 -8 0.87 0.12
3 -8 2 0.82 0.12
3 -8 3 1.35 0.15
3 -7 -1 0.73 0.2
3 -7 0 2.54 0.39
3 -7 1 33.08 1.39
3 -7 2 21.54 1.1
3 -7 3 1.9 0.32
3 -7 5 0.5 0.17
3 -6 -5 11.13 0.7
3 -6 -4 0.61 0.18
3 -6 -3 10.31 0.8
3 -6 -2 6.55 0.68
3 -6 -1 5.66 0.65
3 -6 1 4.45 0.56
3 -6 3 0.99 0.25
3 -6 4 0.89 0.22
3 -6 5 0.65 0.21
3 -6 6 23.44 1.27
3 -6 7 57.24 2.03
3 -5 -6 36.57 1.24
3 -5 -5 6.45 0.58
3 -5 -4 0.14 0.1
3 -5 5 26.88 1.29
3 -5 6 2.78 0.43
3 -5 7 12.04 0.94
3 -5 8 -0.23 0.14
3 -4 -7 -0.02 0.05
3 -4 -6 12.32 0.73
3 -4 -5 0.44 0.17
4 -10 -3 0.42 0.06
4 -10 -2 1.31 0.1
4 -10 0 0 0.01
4 -9 -1 0.49 0.08
4 -9 0 0.44 0.07
