#------------------------------------------------------------------------------
#$Date: 2017-05-06 02:12:24 +0300 (Sat, 06 May 2017) $
#$Revision: 196533 $
#$URL: file:///home/coder/svn-repositories/cod/cif/4/03/24/4032480.cif $
#------------------------------------------------------------------------------
#
# This file is available in the Crystallography Open Database (COD),
# http://www.crystallography.net/
#
# All data on this site have been placed in the public domain by the
# contributors.
#
data_4032480
loop_
_publ_author_name
'Centore, Roberto'
'Manfredi, Carla'
'Capobianco, Amedeo'
'Volino, Sabato'
'Ferrara, Maria Vittoria'
'Carella, Antonio'
'Fusco, Sandra'
'Peluso, Andrea'
_publ_section_title
;
 Solid State Separation and Isolation of Tautomers of Fused-Ring
 Triazolotriazoles.
;
_journal_name_full               'The Journal of organic chemistry'
_journal_paper_doi               10.1021/acs.joc.7b00380
_journal_year                    2017
_chemical_formula_moiety
;          
C10 H7 D3 N5 O1 1+, C2 D6 O1 S1, Cl1 1-
;
_chemical_formula_sum            'C12 H7 Cl D9 N5 O2 S'
_chemical_formula_weight         338.83
_chemical_name_systematic
;
 4-methyl-7-(4-deureroxyphenyl)-2D-3D-[1,2,4]triazolo
[3,2-c][1,2,4]triazolium chloride D6-dimethylsulphoxide 
solvate 
;
_space_group_IT_number           2
_space_group_name_Hall           '-P 1'
_space_group_name_H-M_alt        'P -1'
_symmetry_cell_setting           triclinic
_symmetry_space_group_name_Hall  '-P 1'
_symmetry_space_group_name_H-M   'P -1'
_atom_sites_solution_hydrogens   geom
_atom_sites_solution_primary     direct
_atom_sites_solution_secondary   difmap
_audit_creation_method           SHELXL-97
_cell_angle_alpha                86.48(2)
_cell_angle_beta                 74.24(5)
_cell_angle_gamma                85.21(3)
_cell_formula_units_Z            2
_cell_length_a                   7.440(4)
_cell_length_b                   7.7130(8)
_cell_length_c                   13.610(6)
_cell_measurement_reflns_used    125
_cell_measurement_temperature    173(2)
_cell_measurement_theta_max      23.358
_cell_measurement_theta_min      3.758
_cell_volume                     748.4(6)
_computing_cell_refinement       '<i>CELLFITW</i> (Centore, 2004)'
_computing_data_collection       'COLLECT (Nonius, 1999)'
_computing_data_reduction
;
EvalCCD (Duisenberg, Kroon-Batenburg & Schreurs 2003) and 
SADABS (Bruker, 2001)
;
_computing_molecular_graphics
;
Ortep-3 for Windows (Farrugia, 2012) and
<i>MERCURY</i> (Macrae et al., 2006)
;
_computing_publication_material
;
WinGX (Farrugia, 2012)
;
_computing_structure_refinement  'SHELXL-97 (Sheldrick, 2008)'
_computing_structure_solution    'SIR97 (Altomare et al., 1999)'
_diffrn_ambient_temperature      173(2)
_diffrn_detector                 'CCD plate'
_diffrn_detector_area_resol_mean 9
_diffrn_detector_type
;
Bruker-Nonius 95mm CCD camera on \k-goniostat
;
_diffrn_measured_fraction_theta_full 0.968
_diffrn_measured_fraction_theta_max 0.968
_diffrn_measurement_device       'four-circle diffractometer'
_diffrn_measurement_device_type  'Bruker-Nonius KappaCCD'
_diffrn_measurement_method
;
CCD rotation images, thick slices
;
_diffrn_radiation_monochromator  graphite
_diffrn_radiation_probe          x-ray
_diffrn_radiation_source         'fine-focus sealed tube'
_diffrn_radiation_type           MoK\a
_diffrn_radiation_wavelength     0.71073
_diffrn_reflns_av_R_equivalents  0.0289
_diffrn_reflns_av_sigmaI/netI    0.0262
_diffrn_reflns_limit_h_max       9
_diffrn_reflns_limit_h_min       -9
_diffrn_reflns_limit_k_max       8
_diffrn_reflns_limit_k_min       -10
_diffrn_reflns_limit_l_max       17
_diffrn_reflns_limit_l_min       -17
_diffrn_reflns_number            11886
_diffrn_reflns_theta_full        27.82
_diffrn_reflns_theta_max         27.82
_diffrn_reflns_theta_min         3.02
_exptl_absorpt_coefficient_mu    0.406
_exptl_absorpt_correction_T_max  0.8878
_exptl_absorpt_correction_T_min  0.8543
_exptl_absorpt_correction_type   multi-scan
_exptl_absorpt_process_details
;
SADABS (Bruker, 2001)
;
_exptl_crystal_colour            colourless
_exptl_crystal_density_diffrn    1.504
_exptl_crystal_density_method    'not measured'
_exptl_crystal_description       prism
_exptl_crystal_F_000             344
_exptl_crystal_size_max          0.40
_exptl_crystal_size_mid          0.30
_exptl_crystal_size_min          0.30
_refine_diff_density_max         0.284
_refine_diff_density_min         -0.371
_refine_diff_density_rms         0.045
_refine_ls_extinction_method     none
_refine_ls_goodness_of_fit_ref   1.093
_refine_ls_hydrogen_treatment    mixed
_refine_ls_matrix_type           full
_refine_ls_number_parameters     202
_refine_ls_number_reflns         3439
_refine_ls_number_restraints     0
_refine_ls_restrained_S_all      1.093
_refine_ls_R_factor_all          0.0367
_refine_ls_R_factor_gt           0.0304
_refine_ls_shift/su_max          0.000
_refine_ls_shift/su_mean         0.000
_refine_ls_structure_factor_coef Fsqd
_refine_ls_weighting_details
'calc w=1/[\s^2^(Fo^2^)+(0.0312P)^2^+0.3818P] where P=(Fo^2^+2Fc^2^)/3'
_refine_ls_weighting_scheme      calc
_refine_ls_wR_factor_gt          0.0787
_refine_ls_wR_factor_ref         0.0828
_reflns_number_gt                3040
_reflns_number_total             3439
_reflns_threshold_expression     I>2sigma(I)
_cod_data_source_file            jo7b00380_si_005.cif
_cod_data_source_block           TT5DCl
_cod_original_formula_sum        'C12 H7 Cl1 D9 N5 O2 S1'
_cod_database_code               4032480
loop_
_symmetry_equiv_pos_as_xyz
'x, y, z'
'-x, -y, -z'
loop_
_atom_site_label
_atom_site_type_symbol
_atom_site_fract_x
_atom_site_fract_y
_atom_site_fract_z
_atom_site_U_iso_or_equiv
_atom_site_adp_type
_atom_site_occupancy
_atom_site_symmetry_multiplicity
_atom_site_calc_flag
_atom_site_refinement_flags
C1 C 0.3978(2) 0.15588(19) -0.16290(10) 0.0229(3) Uani 1 1 d .
C2 C 0.2515(2) 0.12123(19) -0.07853(10) 0.0234(3) Uani 1 1 d .
H2 H 0.1423 0.0742 -0.0862 0.028 Uiso 1 1 calc R
C3 C 0.2665(2) 0.15591(19) 0.01651(10) 0.0231(3) Uani 1 1 d .
H3 H 0.1659 0.1336 0.0749 0.028 Uiso 1 1 calc R
C4 C 0.42740(19) 0.22360(18) 0.02891(10) 0.0207(3) Uani 1 1 d .
C5 C 0.5730(2) 0.25813(19) -0.05625(11) 0.0242(3) Uani 1 1 d .
H5 H 0.6826 0.3048 -0.0488 0.029 Uiso 1 1 calc R
C6 C 0.5580(2) 0.2246(2) -0.15137(11) 0.0259(3) Uani 1 1 d .
H6 H 0.6577 0.2484 -0.2099 0.031 Uiso 1 1 calc R
C7 C 0.44597(19) 0.25572(17) 0.12826(10) 0.0204(3) Uani 1 1 d .
C8 C 0.5396(2) 0.34125(18) 0.25562(10) 0.0219(3) Uani 1 1 d .
C9 C 0.8037(2) 0.45119(18) 0.18607(11) 0.0235(3) Uani 1 1 d .
C10 C 0.9807(2) 0.5337(2) 0.17794(13) 0.0310(3) Uani 1 1 d .
H10A H 1.0571 0.5338 0.1068 0.047 Uiso 1 1 calc R
H10B H 1.0500 0.4680 0.2216 0.047 Uiso 1 1 calc R
H10C H 0.9520 0.6538 0.2000 0.047 Uiso 1 1 calc R
C11 C 0.6067(3) 0.1738(2) 0.51014(13) 0.0368(4) Uani 1 1 d .
H11A D 0.6766 0.1320 0.4430 0.055 Uiso 1 1 calc R
H11B D 0.4785 0.2127 0.5089 0.055 Uiso 1 1 calc R
H11C D 0.6035 0.0792 0.5619 0.055 Uiso 1 1 calc R
C12 C 0.9479(3) 0.2458(3) 0.52313(17) 0.0474(5) Uani 1 1 d .
H12A D 1.0342 0.3307 0.5301 0.071 Uiso 1 1 calc R
H12B D 0.9906 0.1981 0.4549 0.071 Uiso 1 1 calc R
H12C D 0.9447 0.1512 0.5749 0.071 Uiso 1 1 calc R
N1 N 0.32776(18) 0.22189(16) 0.21771(9) 0.0229(2) Uani 1 1 d .
H1N D 0.225(3) 0.167(2) 0.2283(14) 0.027 Uiso 1 1 d .
N2 N 0.38012(18) 0.27421(17) 0.30025(9) 0.0256(3) Uani 1 1 d .
N3 N 0.67894(17) 0.42138(16) 0.27695(9) 0.0238(3) Uani 1 1 d .
H3N D 0.694(3) 0.439(2) 0.3378(15) 0.029 Uiso 1 1 d .
N4 N 0.75440(16) 0.40027(16) 0.10751(9) 0.0234(3) Uani 1 1 d .
N5 N 0.58505(16) 0.33083(15) 0.15348(9) 0.0206(2) Uani 1 1 d .
O1 O 0.39146(16) 0.12429(16) -0.25782(8) 0.0312(3) Uani 1 1 d .
H1O D 0.289(3) 0.078(3) -0.2545(15) 0.037 Uiso 1 1 d .
O2 O 0.73172(17) 0.48250(15) 0.45319(8) 0.0316(3) Uani 1 1 d .
S1 S 0.71820(6) 0.35052(5) 0.54040(3) 0.03353(12) Uani 1 1 d .
Cl1 Cl -0.03460(5) 0.03555(5) 0.26372(3) 0.02883(11) Uani 1 1 d .
loop_
_atom_site_aniso_label
_atom_site_aniso_U_11
_atom_site_aniso_U_22
_atom_site_aniso_U_33
_atom_site_aniso_U_23
_atom_site_aniso_U_13
_atom_site_aniso_U_12
C1 0.0267(7) 0.0238(7) 0.0173(6) -0.0013(5) -0.0049(5) 0.0005(5)
C2 0.0238(7) 0.0260(7) 0.0208(6) -0.0006(5) -0.0061(5) -0.0042(5)
C3 0.0234(7) 0.0263(7) 0.0178(6) -0.0002(5) -0.0019(5) -0.0037(5)
C4 0.0237(7) 0.0197(6) 0.0183(6) -0.0011(5) -0.0049(5) -0.0002(5)
C5 0.0219(7) 0.0270(7) 0.0230(7) -0.0001(5) -0.0043(5) -0.0045(5)
C6 0.0238(7) 0.0313(8) 0.0202(6) 0.0000(6) -0.0014(5) -0.0036(6)
C7 0.0215(6) 0.0187(6) 0.0203(6) -0.0010(5) -0.0046(5) -0.0002(5)
C8 0.0255(7) 0.0217(7) 0.0183(6) -0.0031(5) -0.0057(5) 0.0002(5)
C9 0.0224(7) 0.0206(7) 0.0271(7) -0.0006(5) -0.0068(5) 0.0004(5)
C10 0.0253(7) 0.0320(8) 0.0376(8) -0.0023(7) -0.0104(6) -0.0048(6)
C11 0.0445(10) 0.0351(9) 0.0283(8) -0.0069(7) 0.0006(7) -0.0183(7)
C12 0.0578(12) 0.0399(10) 0.0556(12) 0.0147(9) -0.0337(10) -0.0163(9)
N1 0.0241(6) 0.0264(6) 0.0178(5) -0.0024(5) -0.0035(4) -0.0058(5)
N2 0.0283(6) 0.0298(6) 0.0190(6) -0.0043(5) -0.0051(5) -0.0058(5)
N3 0.0255(6) 0.0253(6) 0.0220(6) -0.0039(5) -0.0081(5) -0.0023(5)
N4 0.0202(6) 0.0242(6) 0.0246(6) -0.0002(5) -0.0035(5) -0.0037(5)
N5 0.0225(6) 0.0203(6) 0.0179(5) -0.0015(4) -0.0034(4) -0.0020(4)
O1 0.0307(6) 0.0466(7) 0.0161(5) -0.0042(4) -0.0037(4) -0.0091(5)
O2 0.0421(6) 0.0287(6) 0.0274(5) -0.0017(4) -0.0126(5) -0.0104(5)
S1 0.0517(3) 0.0311(2) 0.01860(18) -0.00445(14) -0.00601(16) -0.01627(18)
Cl1 0.02815(19) 0.0361(2) 0.02162(17) -0.00033(14) -0.00349(13) -0.00994(15)
loop_
_atom_type_symbol
_atom_type_description
_atom_type_scat_dispersion_real
_atom_type_scat_dispersion_imag
_atom_type_scat_source
C C 0.0033 0.0016 'International Tables Vol C Tables 4.2.6.8 and 6.1.1.4'
H H 0.0000 0.0000 'International Tables Vol C Tables 4.2.6.8 and 6.1.1.4'
N N 0.0061 0.0033 'International Tables Vol C Tables 4.2.6.8 and 6.1.1.4'
O O 0.0106 0.0060 'International Tables Vol C Tables 4.2.6.8 and 6.1.1.4'
S S 0.1246 0.1234 'International Tables Vol C Tables 4.2.6.8 and 6.1.1.4'
Cl Cl 0.1484 0.1585 'International Tables Vol C Tables 4.2.6.8 and 6.1.1.4'
loop_
_geom_angle_atom_site_label_1
_geom_angle_atom_site_label_2
_geom_angle_atom_site_label_3
_geom_angle
_geom_angle_publ_flag
O1 C1 C2 121.62(14) no
O1 C1 C6 117.99(13) no
C2 C1 C6 120.39(13) no
C3 C2 C1 118.89(14) no
C3 C2 H2 120.6 no
C1 C2 H2 120.6 no
C2 C3 C4 121.13(13) no
C2 C3 H3 119.4 no
C4 C3 H3 119.4 no
C5 C4 C3 119.45(13) no
C5 C4 C7 119.15(13) no
C3 C4 C7 121.39(13) no
C6 C5 C4 119.56(14) no
C6 C5 H5 120.2 no
C4 C5 H5 120.2 no
C5 C6 C1 120.57(14) no
C5 C6 H6 119.7 no
C1 C6 H6 119.7 no
N1 C7 N5 103.25(12) no
N1 C7 C4 127.74(13) no
N5 C7 C4 128.99(13) no
N2 C8 N5 112.22(13) no
N2 C8 N3 141.48(13) no
N5 C8 N3 106.29(13) no
N4 C9 N3 114.08(13) no
N4 C9 C10 123.97(14) no
N3 C9 C10 121.96(14) no
C9 C10 H10A 109.5 no
C9 C10 H10B 109.5 no
H10A C10 H10B 109.5 no
C9 C10 H10C 109.5 no
H10A C10 H10C 109.5 no
H10B C10 H10C 109.5 no
S1 C11 H11A 109.5 no
S1 C11 H11B 109.5 no
H11A C11 H11B 109.5 no
S1 C11 H11C 109.5 no
H11A C11 H11C 109.5 no
H11B C11 H11C 109.5 no
S1 C12 H12A 109.5 no
S1 C12 H12B 109.5 no
H12A C12 H12B 109.5 no
S1 C12 H12C 109.5 no
H12A C12 H12C 109.5 no
H12B C12 H12C 109.5 no
C7 N1 N2 114.53(12) no
C7 N1 H1N 126.3(12) no
N2 N1 H1N 119.1(12) no
C8 N2 N1 101.62(12) no
C9 N3 C8 105.74(12) no
C9 N3 H3N 126.1(12) no
C8 N3 H3N 127.7(12) no
C9 N4 N5 102.27(12) no
C8 N5 C7 108.35(12) no
C8 N5 N4 111.60(12) no
C7 N5 N4 140.04(12) no
C1 O1 H1O 109.0(14) no
O2 S1 C11 105.96(8) no
O2 S1 C12 106.11(9) no
C11 S1 C12 98.24(10) no
loop_
_geom_bond_atom_site_label_1
_geom_bond_atom_site_label_2
_geom_bond_distance
_geom_bond_publ_flag
C1 O1 1.3432(18) no
C1 C2 1.381(2) no
C1 C6 1.394(2) no
C2 C3 1.372(2) no
C2 H2 0.9500 no
C3 C4 1.400(2) no
C3 H3 0.9500 no
C4 C5 1.384(2) no
C4 C7 1.4343(19) no
C5 C6 1.371(2) no
C5 H5 0.9500 no
C6 H6 0.9500 no
C7 N1 1.3196(19) no
C7 N5 1.3571(19) no
C8 N2 1.310(2) no
C8 N5 1.3444(18) no
C8 N3 1.354(2) no
C9 N4 1.3118(19) no
C9 N3 1.350(2) no
C9 C10 1.484(2) no
C10 H10A 0.9800 no
C10 H10B 0.9800 no
C10 H10C 0.9800 no
C11 S1 1.7775(17) no
C11 H11A 0.9800 no
C11 H11B 0.9800 no
C11 H11C 0.9800 no
C12 S1 1.790(2) no
C12 H12A 0.9800 no
C12 H12B 0.9800 no
C12 H12C 0.9800 no
N1 N2 1.3771(17) no
N1 H1N 0.877(19) no
N3 H3N 0.886(19) no
N4 N5 1.3816(18) no
O1 H1O 0.86(2) no
O2 S1 1.5030(13) no
loop_
_geom_torsion_atom_site_label_1
_geom_torsion_atom_site_label_2
_geom_torsion_atom_site_label_3
_geom_torsion_atom_site_label_4
_geom_torsion
_geom_torsion_publ_flag
O1 C1 C2 C3 179.83(14) no
C6 C1 C2 C3 0.1(2) no
C1 C2 C3 C4 -0.7(2) no
C2 C3 C4 C5 0.8(2) no
C2 C3 C4 C7 -178.30(13) no
C3 C4 C5 C6 -0.4(2) no
C7 C4 C5 C6 178.72(13) no
C4 C5 C6 C1 -0.1(2) no
O1 C1 C6 C5 -179.45(14) no
C2 C1 C6 C5 0.3(2) no
C5 C4 C7 N1 -175.85(14) no
C3 C4 C7 N1 3.2(2) no
C5 C4 C7 N5 5.8(2) no
C3 C4 C7 N5 -175.13(14) no
N5 C7 N1 N2 1.29(16) no
C4 C7 N1 N2 -177.41(13) no
N5 C8 N2 N1 -0.50(16) no
N3 C8 N2 N1 178.78(19) no
C7 N1 N2 C8 -0.54(16) no
N4 C9 N3 C8 1.41(17) no
C10 C9 N3 C8 -178.27(14) no
N2 C8 N3 C9 179.24(19) no
N5 C8 N3 C9 -1.47(15) no
N3 C9 N4 N5 -0.71(16) no
C10 C9 N4 N5 178.97(14) no
N2 C8 N5 C7 1.32(17) no
N3 C8 N5 C7 -178.21(12) no
N2 C8 N5 N4 -179.35(12) no
N3 C8 N5 N4 1.12(16) no
N1 C7 N5 C8 -1.51(15) no
C4 C7 N5 C8 177.17(14) no
N1 C7 N5 N4 179.46(16) no
C4 C7 N5 N4 -1.9(3) no
C9 N4 N5 C8 -0.28(15) no
C9 N4 N5 C7 178.73(17) no
