#------------------------------------------------------------------------------
#$Date: 2017-03-04 16:10:29 +0200 (Sat, 04 Mar 2017) $
#$Revision: 193545 $
#$URL: file:///home/coder/svn-repositories/cod/cif/4/03/21/4032107.cif $
#------------------------------------------------------------------------------
#
# This file is available in the Crystallography Open Database (COD),
# http://www.crystallography.net/
#
# All data on this site have been placed in the public domain by the
# contributors.
#
data_4032107
loop_
_publ_author_name
'D'yakonov, Vladimir A.'
'Kadikova, Gulnara N.'
'Dzhemileva, Lilya U.'
'Gazizullina, Guzel F.'
'Ramazanov, Ilfir R.'
'Dzhemilev, Usein M.'
_publ_section_title
;
 Cobalt-Catalyzed [6 + 2] Cycloaddition of Alkynes with
 1,3,5,7-Cyclooctatetraene as a Key Element in the Direct Construction of
 Substituted Bicyclo[4.3.1]decanes.
;
_journal_issue                   1
_journal_name_full               'The Journal of organic chemistry'
_journal_page_first              471
_journal_page_last               480
_journal_paper_doi               10.1021/acs.joc.6b02540
_journal_volume                  82
_journal_year                    2017
_chemical_formula_moiety         'C16 H16 O2'
_chemical_formula_sum            'C16 H16 O2'
_chemical_formula_weight         240.29
_chemical_name_systematic
;
 ?
;
_space_group_crystal_system      monoclinic
_space_group_IT_number           7
_space_group_name_Hall           'P -2yac'
_space_group_name_H-M_alt        'P 1 n 1'
_symmetry_space_group_name_Hall  'P -2yac'
_symmetry_space_group_name_H-M   'P 1 n 1'
_atom_sites_solution_hydrogens   difmap
_atom_sites_solution_primary     direct
_audit_creation_date             2016-10-19
_audit_creation_method
;
Olex2 1.2
(compiled 2016.09.09 svn.r3337 for OlexSys, GUI svn.r5227)
;
_cell_angle_alpha                90
_cell_angle_beta                 107.515(15)
_cell_angle_gamma                90
_cell_formula_units_Z            2
_cell_length_a                   6.4258(10)
_cell_length_b                   9.9859(7)
_cell_length_c                   10.2112(12)
_cell_measurement_reflns_used    912
_cell_measurement_temperature    293(2)
_cell_measurement_theta_max      30.8410
_cell_measurement_theta_min      2.9120
_cell_volume                     624.85(14)
_computing_cell_refinement
;
CrysAlisPro, Agilent Technologies,
Version 1.171.37.24t (release 05-11-2013 CrysAlis171 .NET)
(compiled Nov  5 2013,16:35:47)
;
_computing_data_collection
;
CrysAlisPro, Agilent Technologies,
Version 1.171.37.24t (release 05-11-2013 CrysAlis171 .NET)
(compiled Nov  5 2013,16:35:47)
;
_computing_data_reduction
;
CrysAlisPro, Agilent Technologies,
Version 1.171.37.24t (release 05-11-2013 CrysAlis171 .NET)
(compiled Nov  5 2013,16:35:47)
;
_computing_molecular_graphics    'Olex2 (Dolomanov et al., 2009)'
_computing_publication_material  'Olex2 (Dolomanov et al., 2009)'
_computing_structure_refinement  'ShelXL (Sheldrick, 2015)'
_computing_structure_solution    'ShelXS (Sheldrick, 2008)'
_diffrn_ambient_temperature      293(2)
_diffrn_detector                 'CCD plate'
_diffrn_detector_area_resol_mean 16.1709
_diffrn_detector_type            Eos
_diffrn_measured_fraction_theta_full 1.000
_diffrn_measured_fraction_theta_max 1.000
_diffrn_measurement_details
;
#__ type_ start__ end____ width___ exp.time_
  1 omega  -63.00   42.00   1.0000    3.0100
omega____ theta____ kappa____ phi______ frames
    -      -23.6098   19.0000  -60.0000 105

#__ type_ start__ end____ width___ exp.time_
  2 omega   18.00   62.00   1.0000    3.0100
omega____ theta____ kappa____ phi______ frames
    -       24.2348  -99.0000 -120.0000 44
;
_diffrn_measurement_device       'four-circle diffractometer'
_diffrn_measurement_device_type  'Xcalibur, Eos'
_diffrn_measurement_method       '\w scans'
_diffrn_orient_matrix_UB_11      0.0176804000
_diffrn_orient_matrix_UB_12      0.0160822000
_diffrn_orient_matrix_UB_13      0.0703314000
_diffrn_orient_matrix_UB_21      0.0143296000
_diffrn_orient_matrix_UB_22      -0.0689431000
_diffrn_orient_matrix_UB_23      0.0169417000
_diffrn_orient_matrix_UB_31      0.1131699000
_diffrn_orient_matrix_UB_32      0.0062840000
_diffrn_orient_matrix_UB_33      0.0089179000
_diffrn_radiation_monochromator  graphite
_diffrn_radiation_probe          x-ray
_diffrn_radiation_type           MoK\a
_diffrn_radiation_wavelength     0.71073
_diffrn_reflns_av_R_equivalents  0.0139
_diffrn_reflns_av_unetI/netI     0.0234
_diffrn_reflns_Laue_measured_fraction_full 0.867
_diffrn_reflns_Laue_measured_fraction_max 0.720
_diffrn_reflns_limit_h_max       9
_diffrn_reflns_limit_h_min       -5
_diffrn_reflns_limit_k_max       13
_diffrn_reflns_limit_k_min       -6
_diffrn_reflns_limit_l_max       3
_diffrn_reflns_limit_l_min       -13
_diffrn_reflns_number            2029
_diffrn_reflns_point_group_measured_fraction_full 0.472
_diffrn_reflns_point_group_measured_fraction_max 0.392
_diffrn_reflns_theta_full        25.242
_diffrn_reflns_theta_max         30.999
_diffrn_reflns_theta_min         2.922
_diffrn_source                   'Enhance (Mo) X-ray Source'
_exptl_absorpt_coefficient_mu    0.083
_exptl_absorpt_correction_T_max  1.00000
_exptl_absorpt_correction_T_min  0.89469
_exptl_absorpt_correction_type   multi-scan
_exptl_absorpt_process_details
;
CrysAlisPro, Agilent Technologies,
Version 1.171.37.24t (release 05-11-2013 CrysAlis171 .NET)
(compiled Nov  5 2013,16:35:47)
Empirical absorption correction using spherical harmonics,
 implemented in SCALE3 ABSPACK scaling algorithm.
;
_exptl_crystal_colour
;
;
_exptl_crystal_density_diffrn    1.277
_exptl_crystal_description
;
;
_exptl_crystal_F_000             256.0
_refine_diff_density_max         0.134
_refine_diff_density_min         -0.118
_refine_diff_density_rms         0.028
_refine_ls_abs_structure_details
;
 Flack x determined using 110 quotients [(I+)-(I-)]/[(I+)+(I-)]
 (Parsons and Flack (2004), Acta Cryst. A60, s61).
;
_refine_ls_abs_structure_Flack   -0.8(10)
_refine_ls_extinction_method     none
_refine_ls_goodness_of_fit_ref   0.924
_refine_ls_hydrogen_treatment    refall
_refine_ls_matrix_type           full
_refine_ls_number_parameters     227
_refine_ls_number_reflns         1564
_refine_ls_number_restraints     2
_refine_ls_restrained_S_all      0.923
_refine_ls_R_factor_all          0.0350
_refine_ls_R_factor_gt           0.0328
_refine_ls_shift/su_max          0.001
_refine_ls_shift/su_mean         0.000
_refine_ls_structure_factor_coef Fsqd
_refine_ls_weighting_details
'w=1/[\s^2^(Fo^2^)+(0.0720P)^2^+0.0160P] where P=(Fo^2^+2Fc^2^)/3'
_refine_ls_weighting_scheme      calc
_refine_ls_wR_factor_gt          0.0873
_refine_ls_wR_factor_ref         0.0902
_reflns_Friedel_coverage         0.086
_reflns_Friedel_fraction_full    0.073
_reflns_Friedel_fraction_max     0.062
_reflns_number_gt                1477
_reflns_number_total             1564
_reflns_threshold_expression     'I > 2\s(I)'
_iucr_refine_instructions_details
;
TITL GGF-186 in Pn #7
REM reset to Pn #7
CELL 0.71073 6.425832 9.985856 10.211162 90 107.5148 90
ZERR 2 0.00102 0.000724 0.001151 0 0.0149 0
LATT -1
SYMM 0.5+X,-Y,0.5+Z
SFAC C H O
UNIT 40 44 2
 
L.S. 4
PLAN  20
BOND
fmap 2
ACTA
OMIT -1 1 0
OMIT 1 1 0
OMIT 0 2 0
OMIT -1 0 1
OMIT 1 0 -1
OMIT 1 2 -2
OMIT 0 5 -8
OMIT 1 2 -5
OMIT 2 0 0
OMIT 1 3 -13
OMIT 1 13 -1
OMIT 6 6 -11
OMIT 0 4 -4
OMIT 5 3 -5
OMIT -2 8 -9
OMIT 7 5 -5
OMIT 2 2 -10
OMIT 5 7 -7
OMIT 1 11 -4
OMIT 4 12 -3
OMIT 4 8 -6
OMIT 0 3 -9
OMIT 4 10 -3
OMIT 8 5 -4
OMIT 6 4 -8
OMIT 2 7 -7
OMIT 2 5 -6
OMIT 0 12 -6
OMIT 4 4 -5
OMIT 5 11 -5
OMIT 8 2 -6
OMIT -1 2 -9
OMIT 1 10 -9
OMIT 2 11 0
OMIT 4 7 -4
OMIT 2 6 -1
OMIT 4 12 -5
OMIT 2 3 -4
OMIT 5 8 -8
OMIT 3 5 -2
OMIT 0 0 -2
OMIT 7 5 -6
OMIT 5 11 -7
OMIT 5 5 -5
OMIT 5 3 -13
OMIT -2 3 -4
OMIT -1 2 1
OMIT 1 2 -1
OMIT 1 0 -13
REM <olex2.extras>
REM <HklSrc "%.\\GGF-186.hkl">
REM </olex2.extras>
 
WGHT    0.072000    0.016000
FVAR      19.23361
O0AA  3   -0.361247   -0.928523   -0.516917    11.00000    0.06104    0.02537 =
         0.02508    0.00123    0.00700    0.00735
C0AA  1   -0.434084   -0.693611   -0.471758    11.00000    0.03463    0.02626 =
         0.03141   -0.00533    0.01131    0.00133
C1AA  1   -0.304415   -0.793217   -0.535523    11.00000    0.02909    0.02944 =
         0.02541   -0.00096    0.00560    0.00378
C2AA  1   -0.603200   -0.804893   -0.760830    11.00000    0.04394    0.03789 =
         0.02610    0.00112   -0.00074   -0.00858
C3AA  1   -0.359759   -0.778065   -0.691246    11.00000    0.03372    0.03093 =
         0.02592    0.00072    0.00796    0.00369
O     3   -0.656187   -0.944850   -0.771567    11.00000    0.08681    0.04172 =
         0.03261   -0.00518   -0.00076   -0.02626
C5AA  1   -0.299808   -0.647669   -0.743517    11.00000    0.03448    0.04137 =
         0.03615    0.00730    0.01322    0.00218
C6AA  1   -0.423662   -0.746566   -0.329199    11.00000    0.04732    0.03038 =
         0.03251   -0.00593    0.01802    0.00193
C7AA  1   -0.330849   -0.555196   -0.455813    11.00000    0.06655    0.02846 =
         0.04223   -0.00880    0.01524   -0.00646
C8AA  1   -0.597042   -0.815360   -0.305943    11.00000    0.05730    0.03908 =
         0.05544   -0.00344    0.02936   -0.00243
C9AA  1   -0.664359   -0.681134   -0.563590    11.00000    0.03070    0.04171 =
         0.04979    0.00307    0.01318    0.00914
C0BA  1   -0.254111   -0.489897   -0.545184    11.00000    0.06564    0.03081 =
         0.05272   -0.00431    0.01418   -0.01405
C1BA  1   -0.738784   -0.729888   -0.689613    11.00000    0.02729    0.05243 =
         0.04459    0.00849    0.00121   -0.00032
C2BA  1   -0.389161   -0.853821   -0.070164    11.00000    0.13428    0.05288 =
         0.04010    0.00086    0.04335    0.00567
C3BA  1   -0.252358   -0.529738   -0.680994    11.00000    0.04318    0.03940 =
         0.05195    0.00868    0.01498   -0.00863
C4BA  1   -0.579618   -0.867756   -0.176310    11.00000    0.10018    0.04358 =
         0.06909   -0.00493    0.05722   -0.00839
C5BA  1   -0.233940   -0.731687   -0.220663    11.00000    0.06021    0.05568 =
         0.03223   -0.00847    0.00973   -0.00706
C6BA  1   -0.218047   -0.785868   -0.092543    11.00000    0.10236    0.07292 =
         0.02670   -0.00771    0.00948   -0.00278
H1AA  2   -0.143176   -0.772955   -0.494293    11.00000    0.01605
H9AA  2   -0.760930   -0.630667   -0.531497    11.00000    0.05276
H7AA  2   -0.332924   -0.519305   -0.372262    11.00000    0.06807
H8AA  2   -0.715751   -0.828043   -0.382594    11.00000    0.07043
H2AA  2   -0.656083   -0.771030   -0.861397    11.00000    0.05064
H1BA  2   -0.890745   -0.717077   -0.739637    11.00000    0.07207
H6BA  2   -0.073907   -0.780160   -0.010004    11.00000    0.08573
H3BA  2   -0.214161   -0.454587   -0.732651    11.00000    0.05572
H5AA  2   -0.297413   -0.643947   -0.837843    11.00000    0.03936
H5BA  2   -0.101635   -0.679489   -0.229098    11.00000    0.05923
H4BA  2   -0.701274   -0.912410   -0.160774    11.00000    0.06664
H3AA  2   -0.281040   -0.853413   -0.725206    11.00000    0.05202
H0BA  2   -0.198352   -0.396413   -0.520311    11.00000    0.06296
H0AA  2   -0.310882   -0.942964   -0.442555    11.00000    0.04566
H     2   -0.610146   -0.976561   -0.689839    11.00000    0.05992
H2BA  2   -0.380032   -0.889624    0.015915    11.00000    0.08847
HKLF 4
 
REM  GGF-186 in Pn #7
REM R1 =  0.0328 for    1477 Fo > 4sig(Fo)  and  0.0350 for all    1564 data
REM    227 parameters refined using      2 restraints
 
END  
     
WGHT      0.0543      0.0130 

REM Highest difference peak  0.134,  deepest hole -0.118,  1-sigma level  0.028
Q1    1  -0.4397 -0.7148 -0.3960  11.00000  0.05    0.13
Q2    1  -0.5771 -0.7948 -0.8468  11.00000  0.05    0.13
Q3    1  -0.3915 -0.7388 -0.5137  11.00000  0.05    0.12
Q4    1  -0.2263 -0.7506 -0.1611  11.00000  0.05    0.12
Q5    1  -0.3085 -0.7057 -0.7027  11.00000  0.05    0.11
Q6    1  -0.6389 -0.7626 -0.7094  11.00000  0.05    0.10
Q7    1  -0.3387 -0.7808 -0.6162  11.00000  0.05    0.10
Q8    1  -0.3538 -0.6305 -0.4606  11.00000  0.05    0.10
Q9    1  -0.5875 -0.7363 -0.1643  11.00000  0.05    0.09
Q10   1  -0.7898 -0.8996 -0.7821  11.00000  0.05    0.09
Q11   1  -0.2461 -0.5647 -0.3910  11.00000  0.05    0.09
Q12   1  -0.4741 -0.6572 -0.9092  11.00000  0.05    0.09
Q13   1  -0.3018 -0.5417 -0.5154  11.00000  0.05    0.09
Q14   1  -0.3856 -0.9306 -0.3018  11.00000  0.05    0.09
Q15   1  -0.7123 -0.7413 -0.7912  11.00000  0.05    0.09
Q16   1  -0.2932 -0.8407 -0.1030  11.00000  0.05    0.08
Q17   1  -0.2887 -0.7671 -0.2787  11.00000  0.05    0.08
Q18   1  -0.7589 -0.6734 -0.9173  11.00000  0.05    0.08
Q19   1  -0.2164 -0.5752 -0.4134  11.00000  0.05    0.08
Q20   1  -0.6825 -1.0417 -0.1007  11.00000  0.05    0.08

  REM The information below was added by Olex2.
  REM
  REM R1 = 0.0328 for 1477 Fo > 4sig(Fo) and 0.0350 for all 2175 data
  REM n/a parameters refined using n/a restraints
  REM Highest difference peak 0.13, deepest hole -0.12
  REM Mean Shift 0, Max Shift 0.001.
  
  REM +++ Tabular Listing of Refinement Information +++
  REM R1_all = 0.0350
  REM R1_gt = 0.0328
  REM wR_ref = 0.0902
  REM GOOF = 0.924
  REM Shift_max = 0.001
  REM Shift_mean = 0
  REM Reflections_all = 2175
  REM Reflections_gt = 1477
  REM Parameters = n/a
  REM Hole = -0.12
  REM Peak = 0.13
  REM Flack = -0.8(10)
  
  
;
_cod_data_source_file            jo6b02540_si_002.cif
_cod_data_source_block           ggf-186
_cod_depositor_comments          'Adding full bibliography for 4032107.cif.'
_cod_database_code               4032107
_shelxl_version_number           2013-4
_shelx_space_group_comment
;
The symmetry employed for this shelxl refinement is uniquely defined
by the following loop, which should always be used as a source of
symmetry information in preference to the above space-group names.
They are only intended as comments.
;
_reflns_odcompleteness_completeness 83.48
_reflns_odcompleteness_iscentric 1
_reflns_odcompleteness_theta     28.98
_olex2_refinement_description
;
;
_olex2_date_sample_data_collection 2015-05-27
_olex2_submission_special_instructions 'No special instructions were received'
loop_
_space_group_symop_operation_xyz
'x, y, z'
'x+1/2, -y, z+1/2'
loop_
_atom_site_label
_atom_site_type_symbol
_atom_site_fract_x
_atom_site_fract_y
_atom_site_fract_z
_atom_site_U_iso_or_equiv
_atom_site_adp_type
_atom_site_occupancy
_atom_site_site_symmetry_order
_atom_site_calc_flag
O0AA O -0.3612(3) -0.92852(12) -0.51692(16) 0.0385(4) Uani 1 1 d
C0AA C -0.4341(3) -0.69361(17) -0.4718(2) 0.0305(4) Uani 1 1 d
C1AA C -0.3044(3) -0.79322(17) -0.53552(19) 0.0286(4) Uani 1 1 d
C2AA C -0.6032(4) -0.8049(2) -0.7608(2) 0.0385(5) Uani 1 1 d
C3AA C -0.3598(3) -0.77807(17) -0.69125(19) 0.0304(4) Uani 1 1 d
O O -0.6562(4) -0.94485(17) -0.77157(18) 0.0578(6) Uani 1 1 d
C5AA C -0.2998(3) -0.6477(2) -0.7435(2) 0.0368(4) Uani 1 1 d
C6AA C -0.4237(4) -0.74657(17) -0.3292(2) 0.0354(4) Uani 1 1 d
C7AA C -0.3308(5) -0.55520(19) -0.4558(3) 0.0460(5) Uani 1 1 d
C8AA C -0.5970(5) -0.8154(2) -0.3059(3) 0.0479(6) Uani 1 1 d
C9AA C -0.6644(4) -0.6811(2) -0.5636(3) 0.0405(5) Uani 1 1 d
C0BA C -0.2541(5) -0.4899(2) -0.5452(3) 0.0505(6) Uani 1 1 d
C1BA C -0.7388(4) -0.7299(2) -0.6896(3) 0.0436(5) Uani 1 1 d
C2BA C -0.3892(7) -0.8538(3) -0.0702(3) 0.0720(9) Uani 1 1 d
C3BA C -0.2524(4) -0.5297(2) -0.6810(3) 0.0447(5) Uani 1 1 d
C4BA C -0.5796(6) -0.8678(3) -0.1763(3) 0.0639(8) Uani 1 1 d
C5BA C -0.2339(5) -0.7317(3) -0.2207(2) 0.0503(6) Uani 1 1 d
C6BA C -0.2180(6) -0.7859(3) -0.0925(3) 0.0695(9) Uani 1 1 d
H1AA H -0.143(3) -0.773(2) -0.494(2) 0.016(4) Uiso 1 1 d
H9AA H -0.761(5) -0.631(3) -0.531(4) 0.053(7) Uiso 1 1 d
H7AA H -0.333(6) -0.519(4) -0.372(4) 0.068(9) Uiso 1 1 d
H8AA H -0.716(6) -0.828(4) -0.383(4) 0.070(11) Uiso 1 1 d
H2AA H -0.656(5) -0.771(3) -0.861(3) 0.051(7) Uiso 1 1 d
H1BA H -0.891(7) -0.717(4) -0.740(4) 0.072(10) Uiso 1 1 d
H6BA H -0.074(7) -0.780(4) -0.010(5) 0.086(12) Uiso 1 1 d
H3BA H -0.214(6) -0.455(3) -0.733(4) 0.056(8) Uiso 1 1 d
H5AA H -0.297(4) -0.644(3) -0.838(3) 0.039(7) Uiso 1 1 d
H5BA H -0.102(5) -0.679(3) -0.229(4) 0.059(9) Uiso 1 1 d
H4BA H -0.701(6) -0.912(4) -0.161(4) 0.067(10) Uiso 1 1 d
H3AA H -0.281(5) -0.853(3) -0.725(3) 0.052(8) Uiso 1 1 d
H0BA H -0.198(5) -0.396(4) -0.520(4) 0.063(9) Uiso 1 1 d
H0AA H -0.311(5) -0.943(3) -0.443(4) 0.046(8) Uiso 1 1 d
H H -0.610(5) -0.977(4) -0.690(4) 0.060(9) Uiso 1 1 d
H2BA H -0.380(6) -0.890(4) 0.016(5) 0.088(12) Uiso 1 1 d
loop_
_atom_site_aniso_label
_atom_site_aniso_U_11
_atom_site_aniso_U_22
_atom_site_aniso_U_33
_atom_site_aniso_U_23
_atom_site_aniso_U_13
_atom_site_aniso_U_12
O0AA 0.0610(11) 0.0254(5) 0.0251(6) 0.0012(5) 0.0070(6) 0.0073(6)
C0AA 0.0346(12) 0.0263(7) 0.0314(8) -0.0053(6) 0.0113(9) 0.0013(6)
C1AA 0.0291(11) 0.0294(7) 0.0254(8) -0.0010(6) 0.0056(8) 0.0038(6)
C2AA 0.0439(14) 0.0379(9) 0.0261(8) 0.0011(7) -0.0007(10) -0.0086(8)
C3AA 0.0337(12) 0.0309(7) 0.0259(8) 0.0007(6) 0.0080(9) 0.0037(7)
O 0.0868(16) 0.0417(8) 0.0326(8) -0.0052(7) -0.0008(9) -0.0263(9)
C5AA 0.0345(12) 0.0414(9) 0.0361(10) 0.0073(7) 0.0132(10) 0.0022(7)
C6AA 0.0473(14) 0.0304(7) 0.0325(9) -0.0059(7) 0.0180(10) 0.0019(7)
C7AA 0.0665(16) 0.0285(8) 0.0422(11) -0.0088(8) 0.0152(11) -0.0065(8)
C8AA 0.0573(17) 0.0391(10) 0.0554(14) -0.0034(10) 0.0294(14) -0.0024(9)
C9AA 0.0307(13) 0.0417(9) 0.0498(12) 0.0031(9) 0.0132(12) 0.0091(8)
C0BA 0.0656(18) 0.0308(8) 0.0527(13) -0.0043(9) 0.0142(12) -0.0141(9)
C1BA 0.0273(14) 0.0524(11) 0.0446(12) 0.0085(10) 0.0012(11) -0.0003(9)
C2BA 0.134(3) 0.0529(13) 0.0401(13) 0.0009(11) 0.0434(17) 0.0057(15)
C3BA 0.0432(14) 0.0394(9) 0.0519(12) 0.0087(9) 0.0150(11) -0.0086(8)
C4BA 0.100(2) 0.0436(11) 0.0691(18) -0.0049(11) 0.0572(19) -0.0084(12)
C5BA 0.0602(19) 0.0557(12) 0.0322(10) -0.0085(9) 0.0097(12) -0.0071(11)
C6BA 0.102(3) 0.0729(18) 0.0267(11) -0.0077(11) 0.0095(15) -0.0028(16)
loop_
_atom_type_symbol
_atom_type_description
_atom_type_scat_dispersion_real
_atom_type_scat_dispersion_imag
_atom_type_scat_source
C C 0.0033 0.0016 'International Tables Vol C Tables 4.2.6.8 and 6.1.1.4'
H H 0.0000 0.0000 'International Tables Vol C Tables 4.2.6.8 and 6.1.1.4'
O O 0.0106 0.0060 'International Tables Vol C Tables 4.2.6.8 and 6.1.1.4'
loop_
_geom_angle_atom_site_label_1
_geom_angle_atom_site_label_2
_geom_angle_atom_site_label_3
_geom_angle
C6AA C0AA C1AA 107.49(14)
C7AA C0AA C1AA 110.71(16)
C7AA C0AA C6AA 108.62(16)
C9AA C0AA C1AA 110.02(16)
C9AA C0AA C6AA 112.07(16)
C9AA C0AA C7AA 107.94(18)
O0AA C1AA C0AA 110.97(14)
O0AA C1AA C3AA 104.09(15)
C3AA C1AA C0AA 112.62(15)
O C2AA C3AA 113.01(19)
O C2AA C1BA 111.5(2)
C1BA C2AA C3AA 110.48(18)
C1AA C3AA C2AA 110.48(16)
C5AA C3AA C1AA 116.84(17)
C5AA C3AA C2AA 108.77(17)
C3BA C5AA C3AA 130.06(19)
C8AA C6AA C0AA 121.7(2)
C5BA C6AA C0AA 119.94(19)
C5BA C6AA C8AA 118.3(2)
C0BA C7AA C0AA 127.7(2)
C6AA C8AA C4BA 120.5(3)
C1BA C9AA C0AA 125.26(19)
C7AA C0BA C3BA 129.35(19)
C9AA C1BA C2AA 124.4(2)
C6BA C2BA C4BA 119.2(2)
C5AA C3BA C0BA 129.56(18)
C2BA C4BA C8AA 120.5(3)
C6AA C5BA C6BA 120.5(3)
C2BA C6BA C5BA 121.0(3)
loop_
_geom_bond_atom_site_label_1
_geom_bond_atom_site_label_2
_geom_bond_distance
O0AA C1AA 1.427(2)
C0AA C1AA 1.560(2)
C0AA C6AA 1.531(3)
C0AA C7AA 1.521(3)
C0AA C9AA 1.500(3)
C1AA C3AA 1.529(3)
C2AA C3AA 1.534(3)
C2AA O 1.435(2)
C2AA C1BA 1.493(3)
C3AA C5AA 1.501(3)
C5AA C3BA 1.330(3)
C6AA C8AA 1.389(3)
C6AA C5BA 1.387(3)
C7AA C0BA 1.331(3)
C8AA C4BA 1.396(4)
C9AA C1BA 1.323(4)
C0BA C3BA 1.446(3)
C2BA C4BA 1.376(5)
C2BA C6BA 1.369(5)
C5BA C6BA 1.391(4)
loop_
_refln_index_h
_refln_index_k
_refln_index_l
_refln_F_squared_meas
_refln_F_squared_sigma
_refln_scale_group_code
0 0 1 127.405 19.2781 1
0 0 -2 533537 5714.22 1
0 0 2 552350 5731.05 1
0 0 -3 18.5622 24.8877 1
0 0 -4 705581 7599.79 1
0 0 -5 -1.80403 60.6188 1
0 0 -6 65942.8 1170.9 1
0 0 -7 -128.284 78.9608 1
0 0 -8 22943.1 698.866 1
0 0 -9 -157.616 123.696 1
0 0 -10 5777.34 385.761 1
0 0 -11 -125.755 99.6005 1
0 0 -12 5738.97 435.175 1
0 0 -13 287.017 162.773 1
0 -1 1 327842 3491.34 1
0 1 -1 328103 3489.9 1
0 1 -2 47802.6 709.537 1
0 1 2 50017.4 692.002 1
0 -1 2 48207.6 712.582 1
0 -1 -3 168057 2008.52 1
0 1 -3 169524 2053.45 1
0 1 -4 108837 1526.58 1
0 -1 -4 112345 1499.05 1
0 -1 -5 204388 2574.15 1
0 1 -5 207186 2613.77 1
0 -1 -6 3893.27 237.199 1
0 1 -6 3553.63 232.833 1
0 -1 -7 9176.65 397.414 1
0 1 -7 9118.96 410.513 1
0 -1 -8 32090.7 832.344 1
0 1 -8 31418.9 864.314 1
0 1 -9 28112.6 837.674 1
0 -1 -9 27679.1 819.75 1
0 -1 -10 6201.61 402.521 1
0 1 -10 5488.37 381.831 1
0 -1 -11 1987.9 260.582 1
0 1 -11 2474.76 278.112 1
0 1 -12 7091.93 487.559 1
0 1 -13 14657.1 732.628 1
0 2 0 516034 5337.49 2
0 2 -1 168216 1990.5 1
0 -2 1 173967 1979.36 1
0 2 -2 212691 2481.44 1
0 2 -3 39510.7 715.325 1
0 2 -4 7216.8 294.927 1
0 2 -5 63980.4 1134.26 1
0 2 -6 13484 485.283 1
0 2 -7 34500.9 860.62 1
0 2 -8 52715.4 1162.12 1
0 2 -9 33730.6 963.474 1
0 2 -10 3095.65 299.498 1
0 2 -11 11742.7 603.845 1
0 2 -12 1364.15 234.359 1
0 2 -13 2101.67 300.111 1
0 3 0 225434 2432.02 2
0 3 -1 32212.8 597.349 1
0 -3 -1 32823.1 463.117 2
0 3 -2 58857 941.106 1
0 3 -3 188432 2371.71 1
0 3 -4 39674.3 812.176 1
0 3 -5 28679.6 713.721 1
0 3 -6 9202.78 412.552 1
0 3 -7 10612.5 478.45 1
0 3 -8 28806 863.89 1
0 3 -9 12270.7 570.449 1
0 3 -10 1304.89 214.915 1
0 3 -11 1000.13 204.677 1
0 3 -12 2668.79 311.251 1
0 3 -13 5228.46 468.516 1
0 4 0 231671 2537.71 2
0 4 -1 129883 1738.71 1
0 -4 -1 129637 1509.51 2
0 -4 -2 26025.1 451.327 2
0 4 -2 23788.1 574.601 1
0 4 -3 156908 2127.59 1
0 4 -4 2257.59 183.906 1
0 4 -5 48879.8 1021.77 1
0 4 -6 18571.3 629.559 1
0 4 -7 8431.25 433.574 1
0 4 -8 13867.5 599.59 1
0 4 -9 2507.27 277.04 1
0 4 -10 2087.79 271.086 1
0 4 -11 2898.2 321.734 1
0 4 -12 3146.84 351.834 1
0 4 -13 2091.63 326.374 1
0 5 0 29424.1 476.178 2
0 5 -1 123532 1771.98 1
0 -5 -2 52324.7 763.28 2
0 5 -2 51552.7 994.879 1
0 5 -3 8714.57 381.813 1
0 5 -4 17201.1 568.076 1
0 5 -5 19870.7 646.285 1
0 5 -6 14202.8 578.8 1
0 5 -7 16042.2 641.748 1
0 5 -8 -168.623 143.186 1
0 5 -9 23785.3 864.179 1
0 5 -10 1258.07 236.983 1
0 5 -11 12644 672.725 1
0 5 -12 2806.54 357.332 1
0 6 0 435.267 52.573 2
0 6 -1 89461.6 1204.18 2
0 6 -1 87662.7 1472.66 1
0 6 -2 8338.39 387.561 1
0 6 -3 8068.92 385.471 1
0 6 -4 14941.9 554.255 1
0 6 -5 80385.8 1526.76 1
0 6 -6 19811.5 706.264 1
0 6 -7 4024.99 331.58 1
0 6 -8 833.221 188.101 1
0 6 -9 24918.4 923.838 1
0 6 -10 11769.5 649.577 1
0 6 -11 104.793 141.139 1
0 6 -12 4792.36 439.437 1
0 7 0 67054.1 924.706 2
0 7 -1 46960.6 778.807 2
0 7 -1 51280.4 1092.93 1
0 7 -2 2854.45 247.286 1
0 7 -3 16036.8 592.249 1
0 7 -4 73710.6 1464.55 1
0 7 -5 626.447 151.107 1
0 7 -6 5751.67 401.738 1
0 7 -7 3079.92 303.191 1
0 7 -8 28412.1 993.282 1
0 7 -9 848.307 185.398 1
0 7 -10 2089.59 290.562 1
0 7 -11 4685.04 451.05 1
0 8 0 30054 535.42 2
0 8 -1 35585.9 949.996 1
0 8 -1 34941 643.783 2
0 8 -2 26138 594.126 2
0 8 -2 26842.9 833.558 1
0 8 -3 1317.58 187.028 1
0 8 -4 36332.4 1017.64 1
0 8 -5 15925 677.862 1
0 8 -6 18911.2 761.221 1
0 8 -7 4147.27 367.589 1
0 8 -8 6392.8 474.042 1
0 8 -9 265.302 148.341 1
0 8 -10 2243.07 317.168 1
0 8 -11 372.827 181.527 1
0 9 -1 27467.5 878.637 1
0 9 -2 4228.43 341.094 1
0 9 -2 4297.51 225.026 2
0 9 -3 26412.4 883.462 1
0 9 -4 9605.37 533.453 1
0 9 -5 2997.77 326.534 1
0 9 -6 571.806 190.887 1
0 9 -7 1356.59 227.056 1
0 9 -8 4235.9 410.333 1
0 9 -9 715.028 206.653 1
0 9 -10 721.07 199.955 1
0 10 0 1196.77 194.668 1
0 10 -1 110.152 120.422 1
0 10 -2 11658.3 606.396 1
0 10 -3 2842.6 311.193 1
0 10 -4 1780.51 256.998 1
0 10 -5 1384.89 240.747 1
0 10 -6 325.571 162.069 1
0 10 -7 3855.25 393.906 1
0 10 -8 1138.05 242.478 1
0 10 -9 492.474 183.954 1
0 11 0 730.31 198.132 1
0 11 -1 1690.55 249.852 1
0 11 -2 10372.5 607.366 1
0 11 -3 667.553 188.878 1
0 11 -4 1101.49 228.328 1
0 11 -5 2121.48 304.425 1
0 11 -6 711.58 198.233 1
0 11 -7 1185.57 255.905 1
0 11 -8 1099.47 246.072 1
0 12 0 1272.21 240.914 1
0 12 1 913.309 211.317 1
0 12 -1 859.87 191.922 1
0 12 -2 1380.35 248.26 1
0 12 -3 1058.86 227.881 1
0 12 -4 5347.87 477.027 1
0 12 -5 2115.82 321.086 1
0 12 -6 98.2586 129.731 1
0 13 0 -128.422 133.601 1
0 13 -1 2698.18 351.574 1
0 13 1 3011.7 374.573 1
0 13 -2 7552.52 576.727 1
0 13 2 7081.53 563.06 1
0 13 -3 8231.08 612.577 1
0 13 -4 1164.29 245.02 1
1 0 -13 17593.8 802.94 1
1 0 -12 160.344 117.508 1
1 0 -11 3492.57 322.388 1
1 0 -10 43.42 95.9831 1
1 0 -9 19870 692.793 1
1 0 -8 63.3616 74.4612 1
1 0 -7 30113.1 766.435 1
1 0 -6 -85.1037 83.1416 1
1 0 -5 742429 8086.91 1
1 0 -4 38.5335 39.0832 1
1 0 -3 88994.1 1195 1
1 0 -2 148.92 35.1676 1
-1 0 2 8.72755 21.6723 1
1 0 -1 701692 7232.32 1
-1 0 1 701459 7244.8 1
1 0 0 666.18 53.2833 2
-1 0 0 6318 141.924 2
1 0 1 294184 3080.99 1
-1 0 -1 293200 3074.53 1
-1 0 -2 151.231 27.6839 1
1 0 2 69.2766 25.3377 1
-1 0 -3 235741 2691.37 1
-1 0 -4 -16.2069 36.997 1
-1 0 -5 38051.8 755.28 1
-1 0 -6 -78.6255 73.6894 1
-1 0 -7 113942 1787.08 1
-1 0 -8 37.7858 92.9299 1
-1 0 -9 5422.79 347.906 1
-1 0 -10 -19.1188 84.0065 1
-1 0 -11 16673.8 714.602 1
-1 0 -12 -252.386 145.809 1
1 1 -13 4234.05 401.704 1
1 1 -12 998.27 214.49 1
1 -1 -12 432.132 166.78 1
1 1 -11 2720.68 291.183 1
1 -1 -11 2297.52 280.13 1
1 1 -10 15680.2 654.448 1
1 -1 -10 16605.6 653.023 1
1 -1 -9 43791.6 1065.21 1
1 1 -9 45156.9 1101.25 1
1 1 -8 3895.66 284.087 1
1 -1 -8 3195.63 256.141 1
1 -1 -7 5511.63 302.97 1
1 1 -7 4940.38 306.889 1
1 1 -6 1535.24 156.217 1
1 -1 -6 1747.88 165.744 1
1 1 -5 101981 1537.27 1
1 -1 -5 102934 1491.76 1
1 -1 -4 157517 2001.81 1
1 1 -4 160663 2051.07 1
1 -1 -3 38967.8 643.391 1
1 1 -3 39606.1 683.409 1
1 1 -2 173413 2018.16 1
1 -1 -2 174540 1976.95 1
-1 -1 2 172400 2023.27 1
-1 1 2 174004 1994.73 1
1 1 -1 64456.8 818.348 1
-1 -1 1 65355.8 818.761 1
-1 -1 0 905356 9398.7 2
1 1 0 905625 9380.87 2
1 -1 1 240126 2601.63 1
-1 1 -1 239953 2597.65 1
-1 -1 -1 241688 2670.57 2
-1 1 -2 92725.9 1171.89 1
1 -1 2 94125.4 1176.67 1
1 1 2 92910.1 1154.82 1
-1 -1 -3 124716 1542.44 1
-1 1 -3 123354 1579.35 1
-1 1 -4 20145.4 486.69 1
-1 -1 -4 20976.6 473.243 1
-1 1 -5 2311.88 165.058 1
-1 -1 -5 2674.13 175.372 1
-1 1 -6 33397.7 773.75 1
-1 -1 -6 34058.9 754.107 1
-1 1 -7 42384.1 965.549 1
-1 -1 -7 43655 938.725 1
-1 1 -8 34153 886.471 1
-1 -1 -8 35347.8 890.972 1
-1 1 -9 1635.79 200.758 1
-1 -1 -9 1953.47 219.827 1
-1 1 -10 6014.66 399.333 1
-1 1 -11 12553.3 612.328 1
-1 1 -12 296.977 133.567 1
-1 1 -13 93.6289 116.002 1
1 2 -13 3384.96 374.895 1
1 2 -12 2183.68 276.431 1
1 2 -11 155.947 117.884 1
1 2 -10 2021.96 252.778 1
1 -2 -9 10004.9 484.065 1
1 2 -9 10685.9 523.062 1
1 2 -8 5521.61 345.973 1
1 -2 -8 6660.15 366.257 1
1 -2 -7 7875.08 368.981 1
1 2 -7 7531.31 387.229 1
1 -2 -6 52450.7 1005.64 1
1 2 -6 54324.1 1076.27 1
1 2 -5 41835.9 871.756 1
1 2 -4 48267.9 888.01 1
1 2 -3 31570.7 620.219 1
1 2 -2 999999 10494.4 1
-1 -2 1 596649 6332.22 1
1 2 -1 597874 6331.08 1
-1 -2 0 218671 2467.4 2
1 2 0 217085 2448.18 2
-1 2 -1 255687 2843.92 1
-1 2 -2 289222 3244.9 1
-1 2 -3 115702 1547.39 1
-1 2 -4 147649 1966.31 1
-1 2 -5 30812 709.398 1
-1 2 -6 45474.2 959.873 1
-1 2 -7 53731.4 1096.3 1
-1 2 -8 29716.3 840.489 1
-1 2 -9 1157.57 190.384 1
-1 2 -10 5011.96 395.168 1
-1 2 -11 696.14 164.662 1
-1 2 -12 3207.57 339.333 1
-1 2 -13 2272.7 289.266 1
1 3 -13 90.2868 142.901 1
1 3 -12 2464.72 317.704 1
1 3 -11 2069.63 271.062 1
1 3 -10 1287.51 208.627 1
1 3 -9 3275.68 300.183 1
1 3 -8 8518.83 451.17 1
1 3 -7 65895.9 1328.6 1
1 3 -6 11613.1 470.916 1
1 3 -5 28110.8 737.644 1
1 3 -4 79471.4 1301.33 1
1 3 -3 23108.4 552.451 1
1 3 -2 219373 2641.53 1
1 3 -1 266812 3039.43 2
1 3 -1 269897 3078.11 1
1 3 0 19322.6 393.362 2
-1 3 -1 219562 2573.9 1
-1 3 -2 11193.2 332.652 1
-1 3 -3 13588.3 398.017 1
-1 3 -4 1694.3 152.571 1
-1 3 -5 16706.9 526.118 1
-1 3 -6 8173.69 384.512 1
-1 3 -7 39207.2 968.978 1
-1 3 -8 9810.29 482.362 1
-1 3 -9 18334.2 701.356 1
-1 3 -10 432.382 147.411 1
-1 3 -11 6515.3 459.337 1
-1 3 -12 15.9403 104.821 1
-1 3 -13 6022.3 486.676 1
1 4 -13 2362.11 347.022 1
1 4 -12 3533.47 376.056 1
1 4 -11 1886.83 263.122 1
1 4 -10 9331.72 537.691 1
1 4 -9 35415.5 1055.29 1
1 4 -8 35364.4 1001 1
1 4 -7 17949.1 661.362 1
1 4 -6 7055.89 384.854 1
1 4 -5 2936.81 233.004 1
1 4 -4 27010.2 683.88 1
1 4 -3 193708 2521.93 1
1 -4 -2 270545 2987.93 2
1 4 -2 292255 3419 1
1 4 -1 366449 4191 1
1 4 -1 366935 4092.12 2
1 4 0 62188.6 909.373 2
1 4 1 16034.5 371.261 2
-1 4 -1 16248.1 441.746 1
-1 4 -2 2644.04 177.817 1
-1 4 -3 11894 407.616 1
-1 4 -4 15911.2 509.256 1
-1 4 -5 5752.38 314.23 1
-1 4 -6 4150.59 280.47 1
-1 4 -7 6946.81 394.756 1
-1 4 -8 24528.4 812.19 1
-1 4 -9 8823.89 495.277 1
-1 4 -10 9023.27 527.237 1
-1 4 -11 1084.4 207.046 1
-1 4 -12 2575.18 306.224 1
-1 4 -13 1514.46 261.326 1
1 5 -12 2209 313.289 1
1 5 -11 2961.34 337.619 1
1 5 -10 12110.6 643.419 1
1 5 -9 1468.97 230.354 1
1 5 -8 7983.95 477.341 1
1 5 -7 17594.4 674.717 1
1 5 -6 24484.9 763.21 1
1 5 -5 3131.07 255.301 1
1 5 -4 30338.1 788.025 1
1 5 -3 16718.1 536.543 1
1 5 -2 8974.8 369.127 1
1 5 -1 27515.4 568.525 2
1 5 -1 28859.5 676.816 1
1 5 0 42037.4 713.176 2
-1 5 0 42054.8 521.668 2
-1 5 -1 39067.3 806.93 1
1 5 1 38896 674.421 2
-1 5 -2 130733 1882.29 1
-1 5 -3 56959.2 1089.75 1
-1 5 -4 3190.49 232.307 1
-1 5 -5 689.138 131.149 1
-1 5 -6 39192.3 990.742 1
-1 5 -7 4696.67 338.793 1
-1 5 -8 7415.79 453.026 1
-1 5 -9 5147.19 400.127 1
-1 5 -10 3264.05 332.179 1
-1 5 -11 6098.95 470.824 1
-1 5 -12 2931.05 352.032 1
1 6 -12 3320.78 390.912 1
1 6 -11 8413.88 577.48 1
1 6 -10 7279.59 510.587 1
1 6 -9 2044.6 277.35 1
1 6 -8 3844.9 350.053 1
1 6 -7 3491.62 316.657 1
1 6 -6 44093.4 1118.43 1
1 6 -5 4437.9 319.284 1
1 6 -4 3837.16 283.128 1
1 -6 -3 34699.8 507.591 2
1 6 -3 34796.5 857.227 1
1 6 -2 179604 2512.66 1
1 6 -1 119992 1808.02 1
1 6 -1 113804 1589.51 2
-1 6 0 2897.16 83.7797 2
1 6 0 3013.64 162.596 2
-1 6 -1 40428.2 886.729 1
-1 6 -2 31342.8 788.576 1
-1 6 -3 15254.9 533.698 1
-1 6 -4 45063.1 1043.99 1
-1 6 -5 1030.62 162.518 1
-1 6 -6 14511.5 598.129 1
-1 6 -7 869.572 163.876 1
-1 6 -8 19528.3 776.221 1
-1 6 -9 247.454 128.006 1
-1 6 -10 2830.4 330.715 1
-1 6 -11 2519.07 320.176 1
-1 6 -12 2140.69 316.91 1
1 7 -11 1667.7 295.979 1
1 7 -10 2335.81 312.952 1
1 7 -9 11094.1 629.683 1
1 7 -8 1690.21 264.284 1
1 7 -7 27045.9 913.467 1
1 7 -6 5804.81 398.227 1
1 7 -5 83530.8 1641.64 1
1 7 -4 85728.5 1615.16 1
1 7 -3 10755 484.355 1
1 7 -2 4445.88 308.287 1
1 7 -2 4076.76 230.819 2
1 7 -1 129632 1774.03 2
1 7 -1 132720 2051.1 1
1 7 0 22389.2 509.083 2
-1 7 0 20756.6 296.67 2
-1 7 -1 41683.9 984.307 1
-1 7 -2 12945 522.982 1
-1 7 -3 4894.01 318.616 1
-1 7 -4 4143.61 314.027 1
-1 7 -5 24438.9 796.671 1
-1 7 -6 21444.3 778.822 1
-1 7 -7 36569.1 1081.23 1
-1 7 -8 972.497 189.316 1
-1 7 -9 1388.48 250.08 1
-1 7 -10 4399.92 425.874 1
-1 7 -11 7266.1 550.236 1
1 8 -11 7621.82 590.543 1
1 8 -10 4102.97 412.714 1
1 8 -9 5814.38 473.47 1
1 8 -8 223.859 122.212 1
1 8 -7 709.541 164.175 1
1 8 -6 11601.4 588.697 1
1 8 -5 26733.6 902.819 1
1 8 -4 13520.1 603.98 1
1 8 -3 22674.5 759.556 1
1 8 -3 22297.4 622.18 2
1 8 -2 9622.65 370.549 2
1 8 -2 9407.54 475.997 1
1 8 -1 63612.6 1070.87 2
1 8 -1 64988.1 1353.13 1
1 8 0 36473.6 722.448 2
-1 8 -1 9874.72 479.904 1
-1 8 -1 9473.95 245.105 2
-1 8 -2 8155.29 444.439 1
-1 8 -3 20912 733.078 1
-1 8 -4 5801.91 385.386 1
-1 8 -5 9160.25 502.739 1
-1 8 -6 3103.68 305.486 1
-1 8 -7 3246.61 333.541 1
-1 8 -8 1619.26 254.214 1
-1 8 -9 4293.65 405.427 1
-1 8 -10 282.184 134.351 1
-1 8 -11 2563.08 339.261 1
1 9 -10 282.67 156.436 1
1 9 -9 4121.97 432.721 1
1 9 -8 1449.54 252.09 1
1 9 -7 1553.35 248.602 1
1 9 -6 1824.3 250.386 1
1 9 -5 2172.65 271.666 1
1 9 -4 11261.3 582.518 1
1 9 -3 25888.7 872.092 1
1 9 -3 27303.2 711.933 2
1 9 -2 22346.9 803.918 1
1 9 -2 22969 609.947 2
1 9 -1 6931.57 293.877 2
1 9 -1 6357.42 407.677 1
1 9 0 3649.92 306.535 1
1 9 0 4021.31 216.35 2
-1 9 -1 13646.1 609.174 1
-1 9 -2 40646.4 1113.35 1
-1 9 -3 24161.9 842.797 1
-1 9 -4 7978.22 486.32 1
-1 9 -5 7313.25 480.123 1
-1 9 -6 4447.33 389.011 1
-1 9 -7 4519.7 397.991 1
-1 9 -8 3813.79 387.556 1
-1 9 -9 456.399 157.294 1
-1 9 -10 702.274 189.644 1
1 10 -9 298.023 161.417 1
1 10 -8 5119.56 468.492 1
1 10 -7 10570 650.019 1
1 10 -6 677.003 183.659 1
1 10 -5 1212 236.624 1
1 10 -4 7077.17 492.661 1
1 10 -3 7333.8 482.936 1
1 10 -2 1690.1 247.8 1
1 10 -1 2264.3 267.734 1
-1 10 0 395.551 135.937 1
1 10 0 476.672 155.418 1
-1 10 -1 3405.81 326.693 1
-1 10 -2 4808.3 399.126 1
-1 10 -3 5215.07 407.203 1
-1 10 -4 2191.66 283.027 1
-1 10 -5 1311.08 228.679 1
-1 10 -6 2789.91 321.232 1
-1 10 -7 3202.4 363.874 1
-1 10 -8 1107.65 229.17 1
-1 10 -9 -142.697 186.065 1
1 11 -8 961.891 243.52 1
1 11 -7 1454.51 272.477 1
1 11 -6 241.593 163.596 1
1 11 -5 2155.28 304.549 1
1 11 -4 9392.38 601.923 1
1 11 -3 4845.18 423.073 1
1 11 -2 2115.74 284.805 1
1 11 -1 446.613 148.626 1
-1 11 0 1604.22 252.99 1
1 11 0 1462.32 245.849 1
-1 11 -1 338.152 150.378 1
1 11 1 391.201 139.25 1
-1 11 -2 1884.07 280.237 1
-1 11 -3 2396.46 300.805 1
-1 11 -4 687.782 208.64 1
-1 11 -5 5235.4 456.829 1
-1 11 -6 166.253 140.299 1
-1 11 -7 2382.86 325.125 1
-1 11 -8 409.586 161.697 1
1 12 -6 8249.23 603.37 1
1 12 -5 471.304 176.987 1
1 12 -4 2721.48 338.538 1
1 12 -3 4972.22 458.934 1
1 12 -2 1849.22 295.648 1
1 12 -1 2216.61 299.065 1
-1 12 1 2310.27 317.73 1
1 12 0 1189.95 241.433 1
-1 12 0 1159.3 233.699 1
-1 12 -1 215.679 135.306 1
1 12 1 526.577 187.171 1
-1 12 -2 6179.51 502.636 1
-1 12 -3 946.613 217.461 1
-1 12 -4 256 149.104 1
-1 12 -5 4671.23 464.452 1
-1 12 -6 3118.28 389.06 1
1 13 -4 220.856 144.536 1
1 13 -3 4848.61 484.343 1
1 13 -2 11725.3 713.035 1
-1 13 2 10640.8 693.336 1
1 13 -1 -118.653 145.817 1
-1 13 1 447.06 210.657 1
1 13 0 4799.38 465.669 1
-1 13 0 4469.02 443.221 1
-1 13 -1 3849.7 425.508 1
1 13 1 3798.16 424.307 1
1 13 2 3596.4 419.992 1
-1 13 -2 3871.04 427.64 1
-1 13 -3 576.449 182.163 1
2 0 -13 244.129 154.715 1
2 0 -12 7868.88 509.622 1
2 0 -11 -132.599 121.533 1
2 0 -10 10793.2 538.199 1
2 0 -9 -127.595 109.58 1
2 0 -8 33852 877.057 1
2 0 -7 -99.2278 103.892 1
2 0 -6 13323.5 450.541 1
2 0 -5 -69.928 78.9661 1
2 0 -4 42835.8 771.982 1
2 0 -3 29.2621 35.0685 1
-2 0 2 44050.3 658.119 1
2 0 -2 44456.5 640.271 1
2 0 -1 46.4278 18.7859 1
2 0 -1 -10.3422 25.2878 2
-2 0 1 25.227 13.0062 1
2 0 0 808823 8523.72 2
2 0 2 975766 10062.7 1
-2 0 -2 967956 10045 1
-2 0 -3 -31.5171 25.7406 1
-2 0 -4 94881.8 1319.63 1
-2 0 -5 108.036 62.2459 1
-2 0 -6 228728 2894.02 1
-2 0 -7 -30.5813 83.9492 1
-2 0 -8 876.507 149.535 1
-2 0 -9 23.8946 82.8262 1
-2 0 -10 6484.72 412.833 1
2 1 -13 3653.45 378.216 1
2 -1 -13 4288.36 407.589 1
2 -1 -12 111.869 147.321 1
2 1 -12 27.9192 116.641 1
2 1 -11 9927.49 549.115 1
2 -1 -11 9732.67 537.374 1
2 1 -10 16441 679.822 1
2 -1 -10 16924.1 668.903 1
2 -1 -9 14038.6 564.334 1
2 1 -9 12828.3 563.806 1
2 1 -8 13082.3 539.499 1
2 -1 -8 12635 510.745 1
2 1 -7 40165.6 940.144 1
2 -1 -7 40747.6 907.744 1
2 1 -6 82653.5 1389.81 1
2 -1 -6 85151.2 1370.47 1
2 -1 -5 100009 1473.36 1
2 1 -5 99805.8 1511.7 1
2 -1 -4 39202.3 714.497 1
2 1 -4 39914.2 753.166 1
2 -1 -3 24824.8 481.253 1
2 1 -3 24921.4 513.384 1
-2 -1 2 517378 5522.48 1
2 1 -2 514595 5532.6 1
-2 1 2 517278 5495.15 1
-2 1 1 33975.6 558.94 2
2 1 -1 33589.3 612.334 2
2 -1 -1 33861.4 549.62 2
-2 -1 1 33521 494.602 1
-2 1 1 34194.5 474.453 1
2 1 -1 32516.3 491.259 1
2 1 0 193486 2301.57 2
2 1 0 192921 2076.04 1
-2 1 -1 296813 3137.15 1
2 1 1 295161 3133.49 1
-2 1 -2 80785.1 1027.57 1
2 -1 2 80559 1026.56 1
2 1 2 79784.2 1016.73 1
-2 1 -3 32770.5 579.849 1
-2 1 -4 13321.5 375.894 1
-2 1 -5 70879.5 1164.24 1
-2 1 -6 36690.7 816.038 1
-2 1 -7 34612.4 833.949 1
-2 1 -8 1247.08 166.277 1
-2 1 -9 4318.46 315.661 1
-2 1 -10 3910.12 321.365 1
-2 1 -11 5465.8 397.792 1
2 2 -13 1600.62 269.838 1
2 2 -12 361.482 140.059 1
2 2 -11 9360.14 541.219 1
2 2 -10 2846.33 279.656 1
2 2 -9 2496.74 257.397 1
2 -2 -9 2453.17 250.805 1
2 2 -8 65.0875 84.0127 1
2 -2 -8 -98.9107 99.9253 1
2 2 -7 149639 2278.24 1
2 -2 -7 152711 2188.09 1
2 2 -6 25295.7 700.847 1
2 -2 -6 25581.1 652.402 1
2 2 -5 20124.2 572.591 1
2 2 -4 14822.7 444.053 1
2 2 -3 163944 2077.46 1
2 -2 -2 271221 3012.91 2
2 2 -2 275873 3117.29 1
-2 2 1 26978.5 449.498 2
2 2 -1 26400.7 478.004 1
2 2 -1 26215.8 548.947 2
2 -2 -1 26002.7 427.177 2
-2 2 0 5476.89 173.749 2
2 2 0 5434.94 172.256 1
2 2 0 5240.63 215.082 2
-2 2 -1 6299.41 189.263 1
2 -2 2 7802.35 239.672 1
-2 2 -2 7088.27 228.304 1
-2 2 -3 24792.4 522.481 1
-2 2 -4 3966.51 209.768 1
-2 2 -5 11566.5 403.706 1
-2 2 -6 33201.4 771.886 1
-2 2 -7 21711.3 659.559 1
-2 2 -8 7642.16 406.802 1
-2 2 -9 1665.15 226.386 1
-2 2 -10 5227.77 380.112 1
-2 2 -11 7152.91 467.462 1
2 3 -13 8531.09 592.233 1
2 3 -12 6208.51 474.416 1
2 3 -11 418.292 162.671 1
2 3 -10 643.251 170.436 1
2 3 -9 13746.9 612.941 1
2 3 -8 12420.3 556.499 1
2 3 -7 44409.6 1060.86 1
2 3 -6 66017.3 1286.26 1
2 3 -5 11922.1 456.302 1
2 3 -4 8354.68 345.998 1
2 3 -3 132840 1820.28 1
2 -3 -2 300419 3230.65 2
2 3 -2 300752 3532.11 2
2 3 -2 301804 3483.05 1
2 3 -1 2085.38 148.099 2
2 3 -1 2150.59 136.481 1
2 3 0 8665.2 293.752 2
-2 3 0 8609.1 210.486 2
-2 3 -1 57492 876.57 1
2 3 1 56734.7 936.819 2
-2 3 -2 61172.1 952.624 1
-2 3 -3 6383.53 268.164 1
-2 3 -4 11707.1 395.806 1
-2 3 -5 9423.06 383.834 1
-2 3 -6 801.95 135.791 1
-2 3 -7 14870.2 555.555 1
-2 3 -8 10056.9 481.663 1
-2 3 -9 4364.39 343.618 1
-2 3 -10 308.3 136.936 1
-2 3 -11 1381.96 230.119 1
2 4 -13 1047.77 269.235 1
2 4 -12 2784.49 343.202 1
2 4 -11 2005.32 262.766 1
2 4 -10 6031.08 438.619 1
2 4 -9 10927.4 569.228 1
2 4 -8 23403.2 813.224 1
2 4 -7 20696 717.63 1
2 4 -6 3171.29 258.42 1
2 4 -5 5717.91 317.362 1
2 4 -4 14579.7 495.819 1
2 4 -3 572.631 109.35 1
2 -4 -2 138094 1501.52 2
2 4 -2 139419 1899.7 1
2 4 -1 62783.5 1045.6 2
2 4 -1 64007.8 1043.77 1
2 4 0 78044.4 1186.69 2
-2 4 0 77726 950.003 2
-2 4 -1 24273.8 547.444 1
2 4 1 24286.3 559.661 2
-2 4 -2 49455.8 888.366 1
-2 4 -3 12476.8 409.881 1
-2 4 -4 26537.3 674.866 1
-2 4 -5 62557 1204.43 1
-2 4 -6 49556.1 1084.55 1
-2 4 -7 3086.28 262.536 1
-2 4 -8 9192.9 477.35 1
-2 4 -9 14117.3 623.269 1
-2 4 -10 989.857 186.711 1
-2 4 -11 5889.67 440.235 1
2 5 -12 1613.59 260.614 1
2 5 -11 4434.01 408.687 1
2 5 -10 350.757 146.154 1
2 5 -9 3460.48 335.997 1
2 5 -8 4577.88 366.207 1
2 5 -7 25617.2 832.629 1
2 5 -6 16455.6 649.752 1
2 5 -5 75201.5 1428.55 1
2 5 -4 27573 744.452 1
2 -5 -3 66923.5 779.291 2
2 5 -3 69605.5 1237.5 1
2 5 -2 114130 1646.65 2
2 5 -2 108582 1675.68 1
2 5 -1 137698 1886.52 2
2 5 -1 137190 1930.4 1
-2 5 0 22135.4 334.355 2
2 5 0 23201.2 553.133 2
-2 5 -1 112210 1663.66 1
2 5 1 115114 1620.82 2
-2 5 -2 5209.11 270.992 1
-2 5 -3 15438.5 506.281 1
-2 5 -4 10325.2 423.393 1
-2 5 -5 444.114 117.863 1
-2 5 -6 12460.3 532.837 1
-2 5 -7 113.335 93.795 1
-2 5 -8 16816.9 684.897 1
-2 5 -9 1990.13 255.325 1
-2 5 -10 390.462 142.518 1
-2 5 -11 202.582 126.354 1
2 6 -12 92.1348 142.663 1
2 6 -11 1380.91 248.992 1
2 6 -10 15613.4 756.905 1
2 6 -9 1429.63 235.033 1
2 6 -8 2509.7 304.321 1
2 6 -7 35972 1042.81 1
2 6 -6 30284.8 906.654 1
2 6 -5 20509.5 703.813 1
2 6 -4 41581.3 1013.24 1
2 6 -3 168684 2326.13 2
2 6 -3 163968 2423.99 1
2 6 -2 7573.47 366.274 1
2 6 -2 7755.01 343.652 2
2 6 -1 12944.9 469.082 1
2 6 -1 13007.3 427.089 2
2 6 0 31371 694.642 2
-2 6 -1 2288.17 199.083 1
-2 6 -2 2683.56 219.213 1
-2 6 -3 6579.57 344.301 1
-2 6 -4 6016.05 345.254 1
-2 6 -5 13723.3 557.67 1
-2 6 -6 2542.47 263.361 1
-2 6 -7 20907.5 771.299 1
-2 6 -8 3464.52 324.417 1
-2 6 -9 9864.62 568.037 1
-2 6 -10 205.511 140.645 1
2 7 -11 7723.2 585.194 1
2 7 -10 5712.02 477.905 1
2 7 -9 7828.64 538.395 1
2 7 -8 7882.98 531.247 1
2 7 -7 79.6169 105.306 1
2 7 -6 37875.3 1082.37 1
2 7 -5 21608.7 760.329 1
2 7 -4 6097.7 388.948 1
2 7 -3 27466.2 728.436 2
2 7 -3 26505.1 793.447 1
2 7 -2 40881.2 891.299 2
2 7 -2 39990.5 979.196 1
2 7 -1 2583.36 195.015 2
2 7 -1 2785.2 231.269 1
2 7 0 35330.4 785.873 2
2 7 0 34372.6 863.908 1
-2 7 -1 5380.33 326.897 1
-2 7 -2 8751.74 426.245 1
-2 7 -3 9413.58 448.666 1
-2 7 -4 25085.7 794.206 1
-2 7 -5 14718.1 617.71 1
-2 7 -6 34426.8 998.965 1
-2 7 -7 778.248 186.936 1
-2 7 -8 2096.92 266.51 1
-2 7 -9 3076.41 328.233 1
-2 7 -10 7381.15 528.381 1
2 8 -11 801.814 218.233 1
2 8 -10 16.9279 120.187 1
2 8 -9 959.108 235.52 1
2 8 -8 839.312 192.038 1
2 8 -7 1496.36 238.197 1
2 8 -6 15346 693.792 1
2 8 -5 11322.3 578.137 1
2 8 -4 49565.7 1102.64 2
2 8 -4 48687.9 1209.79 1
2 8 -3 6257.31 339.678 2
2 8 -3 5854.28 388.378 1
2 8 -2 59704.7 1152.01 2
2 8 -2 61059.7 1327.53 1
2 8 -1 12493 440.746 2
2 8 -1 12711.6 540.027 1
2 8 0 1899.82 170.131 2
2 8 0 1646.54 204.747 1
-2 8 -1 14442.2 587.372 1
-2 8 -2 32357.3 919.142 1
-2 8 -3 3268.01 287.98 1
-2 8 -4 14082.2 615.217 1
-2 8 -5 4372.44 349.967 1
-2 8 -6 4558.62 371.331 1
-2 8 -7 426.51 134.012 1
-2 8 -8 893.602 184.032 1
-2 8 -9 275.796 130.291 1
-2 8 -10 1909.98 290.864 1
2 9 -10 1093.06 233.489 1
2 9 -9 1946.93 300.24 1
2 9 -8 113.1 148.049 1
2 9 -7 4610.33 419.537 1
2 9 -6 5605.7 440.536 1
2 9 -5 10750.7 592.775 1
2 9 -4 5441.65 350.832 2
2 9 -4 5965.19 431.799 1
2 9 -3 18069.8 612.556 2
2 9 -3 17500.6 715.185 1
2 9 -2 4008.09 336.91 1
2 9 -2 4283.66 276.597 2
2 9 -1 16593.5 670.122 1
2 9 -1 16922.1 540.505 2
-2 9 0 3196.81 286.962 1
2 9 0 3474.99 307.664 1
2 9 0 3832.21 245.408 2
-2 9 -1 274.937 135.552 1
-2 9 -2 17582.6 711.035 1
-2 9 -3 34000.4 1013.31 1
-2 9 -4 5619.95 416.443 1
-2 9 -5 5348.86 413.696 1
-2 9 -6 1478.12 234.963 1
-2 9 -7 4355.33 395.107 1
-2 9 -8 1086.7 236.022 1
-2 9 -9 3392.98 377.549 1
2 10 -9 4625.01 459.646 1
2 10 -8 813.592 225.09 1
2 10 -7 2050 302.567 1
2 10 -6 2517.17 320.136 1
2 10 -5 3823.2 390.032 1
2 10 -5 4210.43 327.514 2
2 10 -4 21519.7 858.965 1
2 10 -4 21483.9 713.558 2
2 10 -3 11681.7 494.092 2
2 10 -3 10612.5 589.242 1
2 10 -2 9174.85 407.577 2
2 10 -2 9169.81 535.272 1
2 10 -1 2210.28 203.456 2
2 10 -1 1426.1 208.577 1
-2 10 0 2707.57 296.461 1
2 10 0 2799.41 301.707 1
-2 10 -1 1590.99 235.878 1
2 10 1 1603.82 229.817 1
-2 10 -2 2800.28 309.133 1
-2 10 -3 5445.31 416.518 1
-2 10 -4 9465.94 561.643 1
-2 10 -5 4197 393.138 1
-2 10 -6 3638.47 368.229 1
-2 10 -7 710.081 190.381 1
-2 10 -8 3119.53 373.027 1
2 11 -8 3617.44 418.673 1
2 11 -7 6764.59 538.481 1
2 11 -6 543.144 186.889 1
2 11 -5 644.692 203.579 1
2 11 -4 10319.3 624.921 1
2 11 -3 2441.16 308.422 1
2 11 -2 1248.15 228.421 1
2 11 -1 206.915 106.765 1
-2 11 1 222.185 121.835 1
2 11 0 489.695 147.28 1
-2 11 0 817.619 197.837 1
-2 11 -1 1687.43 257.423 1
2 11 1 1874.21 277.148 1
-2 11 -2 1506.81 247.081 1
-2 11 -3 5714.33 460.73 1
-2 11 -4 4562.36 423.881 1
-2 11 -5 3310.48 375.243 1
-2 11 -6 950.159 210.147 1
-2 11 -7 1144.2 244.587 1
2 12 -6 806.448 228.022 1
2 12 -5 4795.77 459.825 1
2 12 -4 1254.77 226.305 1
2 12 -3 3054.32 368.711 1
2 12 -2 2421.56 321.829 1
2 12 -1 868.52 221.436 1
-2 12 1 837.598 210.83 1
-2 12 0 252.063 148.052 1
2 12 0 169.287 143.769 1
-2 12 -1 1326 246.626 1
2 12 1 1503.61 274.03 1
-2 12 -2 2020.21 298.512 1
2 12 2 2213.13 306.077 1
-2 12 -3 1293.16 267.783 1
-2 12 -4 285.162 156.32 1
-2 12 -5 5853.48 513.33 1
-2 12 -6 -39.4806 134.535 1
2 13 -3 741.914 215.624 1
2 13 -2 120.316 158.186 1
-2 13 2 193.34 126.467 1
-2 13 1 5666.13 510.245 1
2 13 -1 6077.59 520.872 1
2 13 0 6033.99 522.54 1
-2 13 0 6841.3 547.348 1
2 13 1 3914.67 428.644 1
-2 13 -1 3594.38 415.574 1
-2 13 -2 302.563 167.421 1
2 13 2 366.095 204.934 1
-2 13 -3 86.193 167.045 1
2 13 3 453.68 188.029 1
3 0 -13 10027.5 609.786 1
3 0 -12 45.1767 120.635 1
3 0 -11 13490.8 629.402 1
3 0 -10 68.932 126.51 1
3 0 -9 46726.6 1130.92 1
3 0 -8 -103.884 105.188 1
3 0 -7 2279.77 201.112 1
3 0 -6 -37.739 58.5615 1
3 0 -5 19967.9 527.783 1
3 0 -4 -8.98767 45.0937 1
3 0 -3 2962.22 186.194 2
3 0 -3 3361.3 159.183 1
3 0 -2 8.11919 42.8187 2
-3 0 2 28.0757 26.6896 1
3 0 -2 4.70796 20.1485 1
3 0 -1 201995 2436.26 2
-3 0 1 198475 2150.73 1
3 0 0 22.6723 61.4266 2
3 0 2 20.9292 15.5551 1
3 0 3 65510.9 910.499 1
-3 0 -5 112263 1563.89 1
-3 0 -6 -13.2229 61.7012 1
3 -1 -13 1114.57 238.966 1
3 1 -13 821.645 203.502 1
3 1 -12 2006.16 291.806 1
3 -1 -12 2015.46 286.379 1
3 1 -11 12250.6 621.8 1
3 -1 -11 13642 635.543 1
3 1 -10 7672.26 464.045 1
3 -1 -10 6923.7 428.098 1
3 1 -9 6217.19 397.076 1
3 -1 -9 6681.23 391.99 1
3 1 -8 43342.6 1042.75 1
3 -1 -8 43488.7 1007.59 1
3 1 -7 91766.5 1579.14 1
3 -1 -7 90622.5 1520.26 1
3 1 -6 2205.24 189.272 1
3 -1 -6 1928.01 173.479 1
3 1 -5 2491.09 178.886 1
3 -1 -5 2607.44 175.93 1
3 1 -4 45780.9 840.001 1
3 -1 -4 49010.1 820.187 1
3 -1 -3 14610.9 411.675 2
3 1 -3 13930.6 370.761 1
3 1 -2 40120.1 778.21 2
3 1 -2 38073.3 612.585 1
-3 1 2 37217 591.01 1
3 -1 -2 39355.3 712.273 2
-3 -1 2 37584.3 615.529 1
3 -1 -1 31177.1 604.851 2
-3 1 1 30303.3 438.259 1
-3 -1 1 30080.9 448.053 1
3 1 -1 29523.1 639.367 2
3 1 -1 30449.6 451.75 1
3 1 0 205621 2567.95 2
3 1 1 53702.4 613.746 1
3 1 1 49510 623.791 1
3 1 2 90682.6 1108.5 1
-3 1 -2 92050.6 1099.12 1
3 1 3 2666.53 135.788 1
-3 1 -3 2656.2 133.282 1
3 -1 3 2811.02 139.949 1
-3 1 -4 44337.2 761.849 1
-3 1 -5 18170.9 487.719 1
-3 1 -6 61176.5 1093.84 1
-3 1 -7 742.511 120.237 1
-3 1 -8 202.745 91.7 1
3 2 -13 4207.78 410.786 1
3 2 -12 1782.96 261.543 1
3 2 -11 2735.28 298.942 1
3 2 -10 9086.47 516.386 1
3 2 -9 22677.5 787.699 1
3 -2 -9 22327.5 742.092 1
3 2 -8 4341.98 314.987 1
3 -2 -8 4693.35 315.976 1
3 2 -7 35970.5 901.498 1
3 2 -6 56813.2 1128.5 1
3 2 -5 7528.4 338.373 1
3 2 -4 26596.1 637.321 1
3 2 -3 240429 2873.08 1
3 -2 -3 237342 2833.66 2
3 2 -3 237997 3010.4 2
3 -2 -2 7466.93 255.07 2
3 2 -2 7545.07 320.84 2
3 2 -2 7777.79 255.644 1
3 2 -1 49874.5 915.075 2
3 2 -1 48969.7 742.298 1
3 -2 -1 51097.1 802.158 2
-3 2 0 27131.2 440.616 1
3 2 0 26393.8 450.249 1
3 2 0 27885.2 640.728 2
-3 2 -1 152204 1753.89 1
3 2 2 1469.16 95.2909 1
-3 2 -2 1643.2 102.61 1
-3 2 -3 13193.9 351.762 1
-3 2 -4 10806.3 341.563 1
-3 2 -5 32045.7 706.333 1
-3 2 -6 143.457 62.1587 1
-3 2 -7 13354.7 497.026 1
-3 2 -8 7891.04 408.445 1
3 3 -13 773.332 205.619 1
3 3 -12 896.565 209.787 1
3 3 -11 1999.05 276.616 1
3 3 -10 2452.7 276.589 1
3 3 -9 5346.83 385.53 1
3 3 -8 34220.7 966.815 1
3 3 -7 1686.16 204.808 1
3 3 -6 3834.91 272.71 1
3 3 -5 3.29735 57.5121 1
3 3 -4 149420 2082.69 1
3 -3 -3 22865.7 475.318 2
3 3 -3 22034.3 617.32 2
3 3 -3 22625.8 568.006 1
3 3 -2 82174.3 1356.82 2
3 3 -2 83823.8 1234.64 1
3 -3 -2 82045.4 1105.74 2
3 3 -1 16543.7 489.596 2
3 3 -1 17480.3 422.59 1
3 3 0 42744.4 719.991 1
3 3 0 44133.3 881.727 2
-3 3 -1 97978 1304.32 1
-3 3 -2 2231.01 139.066 1
-3 3 -3 2562.39 164.68 1
-3 3 -4 8801.36 337.52 1
-3 3 -5 37047.9 812.222 1
-3 3 -6 33247.8 794.65 1
-3 3 -7 790.069 138.201 1
-3 3 -8 4619.39 320.493 1
3 4 -13 7421.54 570.278 1
3 4 -12 7766.72 553.001 1
3 4 -11 1043.79 218.604 1
3 4 -10 1112.02 205.201 1
3 4 -9 16867.8 717.686 1
3 4 -8 16052 672.11 1
3 4 -7 64059.5 1372.13 1
3 4 -6 23501 748.743 1
3 4 -5 9148.95 417.458 1
3 4 -4 8987.23 391.949 1
3 -4 -3 34271.4 561.368 2
3 4 -3 34028.7 818.429 2
3 4 -3 33137.5 762.431 1
3 4 -2 1767.17 168.473 2
3 4 -2 2159.4 168.071 1
3 4 -1 4678.38 263.178 2
-3 4 1 4638.37 178.002 2
3 4 -1 4678.71 234.407 1
3 4 0 84483.5 1265.32 1
3 4 0 83125.2 1392.91 2
-3 4 -1 10638.1 345.828 1
-3 4 -2 8014.43 306.349 1
-3 4 -3 10340.4 372.818 1
-3 4 -4 36205.9 800.285 1
-3 4 -5 868.551 124.409 1
-3 4 -6 3999.51 277.064 1
-3 4 -7 1911.45 206.999 1
-3 4 -8 2259.98 236.655 1
3 5 -12 1905.32 291.263 1
3 5 -11 724.679 197.592 1
3 5 -10 5933.94 454.721 1
3 5 -9 3108.85 321.534 1
3 5 -8 8660.92 501.127 1
3 5 -7 2960.02 292.909 1
3 5 -6 37352.6 1029.01 1
3 5 -5 5996.88 361.344 1
3 -5 -4 30274.3 517.433 2
3 5 -4 29252.8 785.985 1
3 5 -3 7000.91 355.361 2
3 -5 -3 7122.77 175.023 2
3 5 -3 6978.92 353.888 1
3 5 -2 2305.28 191.5 1
3 5 -2 2467.33 203.66 2
3 5 -1 4729.79 275.337 2
3 5 -1 5585.96 290.157 1
3 5 0 26313.4 644.288 1
3 5 0 26332.4 691.68 2
-3 5 -1 1438.18 142.441 1
-3 5 -2 14613.1 467.345 1
-3 5 -3 23008.4 625.019 1
-3 5 -4 2557.45 213.76 1
-3 5 -5 9053.56 422.981 1
-3 5 -6 2034.34 217.402 1
-3 5 -7 8659.87 457.395 1
3 6 -12 1304.36 267.211 1
3 6 -11 1271.64 276.974 1
3 6 -10 896.138 216.739 1
3 6 -9 4497.42 400.261 1
3 6 -8 16809.9 744.447 1
3 6 -7 7054.84 451.007 1
3 6 -6 14818.5 621.607 1
3 6 -5 70461 1452.7 1
3 6 -4 8940.28 433.189 2
3 6 -4 8484 429.825 1
3 6 -3 9357.25 426.183 2
3 6 -3 8678.68 413.502 1
3 6 -2 4732.74 293.376 2
3 6 -2 4776.42 296.493 1
3 6 -1 29817.7 744.73 2
3 6 -1 30594.3 783.62 1
3 6 0 39596.8 899.811 2
3 6 0 40405.6 893.134 1
-3 6 -1 22968 647.521 1
-3 6 -2 18452.9 581.167 1
-3 6 -3 17193 579.533 1
-3 6 -4 44026.2 1020.49 1
-3 6 -5 7268.15 403.642 1
-3 6 -6 11900.4 543.655 1
-3 6 -7 697.23 155.809 1
3 7 -11 4459.09 449.91 1
3 7 -10 3168.49 364.058 1
3 7 -9 1036.78 217.88 1
3 7 -8 3546.98 352.681 1
3 7 -7 2321.43 270.018 1
3 7 -6 1539.37 220.144 1
3 7 -5 42548.6 1109.94 1
3 7 -4 4647.43 318.075 2
3 7 -4 4333.9 329.467 1
3 7 -3 21333.4 681.709 2
3 7 -3 21137.2 712.197 1
3 7 -2 29712.6 788.4 2
3 7 -2 29197.5 821.337 1
3 7 -1 36298.9 867.808 2
3 7 -1 38286.6 959.337 1
-3 7 0 29525.8 793.995 1
3 7 0 30063.9 811.473 1
3 7 0 28785 764.63 2
-3 7 -1 36665.6 914.49 1
-3 7 -2 19796.5 654.361 1
-3 7 -3 494.055 122.69 1
-3 7 -4 8571.53 446.132 1
-3 7 -5 7781.52 437.383 1
-3 7 -6 3415.23 306.331 1
-3 7 -7 1693.98 231.535 1
3 8 -11 3675.46 439.948 1
3 8 -10 -185.387 160.434 1
3 8 -9 6634.84 519.084 1
3 8 -8 513.623 196.263 1
3 8 -7 2104.78 277.179 1
3 8 -6 1797.02 256.952 1
3 8 -5 16938.8 673.012 2
3 8 -5 16009.2 688.022 1
3 8 -4 7324 417.558 2
3 8 -4 7673.9 463.61 1
3 8 -3 43473.2 1037.02 2
3 8 -3 40952.5 1101.21 1
3 8 -2 1782.11 217.749 1
3 8 -2 1904.54 188.882 2
3 8 -1 12128.3 490.737 2
3 8 -1 11816.1 545.623 1
3 8 0 14317.9 530.988 2
-3 8 0 14098.3 566.604 1
3 8 0 13638.3 571.63 1
3 8 1 16231.1 619.004 1
-3 8 -1 16135.2 620.431 1
-3 8 -2 1095.56 170.037 1
-3 8 -3 22315.1 755.818 1
-3 8 -4 3220.32 296.171 1
-3 8 -5 2297.24 263.306 1
-3 8 -6 1840.68 234.566 1
-3 8 -7 63.4706 122.605 1
3 9 -10 1584.91 299.942 1
3 9 -9 2189.78 322.199 1
3 9 -8 656.691 197.604 1
3 9 -7 5013.91 436.578 1
3 9 -6 1347.56 210.617 2
3 9 -6 1065.96 203.568 1
3 9 -5 233.005 124.767 1
3 9 -5 211.131 110.282 2
3 9 -4 19339.4 703.497 2
3 9 -4 18679.6 773.245 1
3 9 -3 2256.17 271.409 1
3 9 -3 2252.32 229.167 2
3 9 -2 11413.3 487.938 2
3 9 -2 11627.4 567.774 1
3 9 -1 2039.65 240.074 1
3 9 -1 1942.43 209.847 2
-3 9 0 3584.68 319.24 1
3 9 0 3678.36 319.97 1
3 9 0 4242.18 299.759 2
3 9 1 5694.06 397.626 1
-3 9 -1 6577.63 425.093 1
-3 9 -2 748.293 165.955 1
-3 9 -3 1926.47 252.965 1
-3 9 -4 25421.7 896.146 1
-3 9 -5 2269.78 280.483 1
-3 9 -6 2851.21 312.142 1
3 10 -9 3806.58 431.162 1
3 10 -8 6954.39 551.229 1
3 10 -7 6286.63 460.266 2
3 10 -7 7333.89 545.924 1
3 10 -6 4588.86 382.142 2
3 10 -6 4617.46 426.594 1
3 10 -5 9003.11 510.862 2
3 10 -5 8437.64 553.996 1
3 10 -4 3338.16 299.152 2
3 10 -4 3921.42 388.584 1
3 10 -3 6216.41 385.587 2
3 10 -3 6350.15 465.234 1
3 10 -2 8231.09 506.323 1
3 10 -2 8241.5 427.201 2
3 10 -1 864.067 179.452 1
3 10 -1 711.257 133.361 2
-3 10 0 190.089 95.3119 1
3 10 0 450.347 146.421 1
-3 10 -1 1421.35 223.338 1
3 10 1 1427.88 240.301 1
-3 10 -2 930.693 180.687 1
-3 10 -3 10932.2 599.484 1
-3 10 -4 350.731 146.509 1
-3 10 -5 3151.32 329.841 1
-3 10 -6 748.261 196.474 1
3 11 -8 1690.45 270.692 2
3 11 -7 1733.42 252.691 2
3 11 -7 1577.62 284.464 1
3 11 -6 4485.8 388.149 2
3 11 -6 3516.51 385.916 1
3 11 -5 4640.78 370.752 2
3 11 -5 4216.5 419.018 1
3 11 -4 4959.84 363.702 2
3 11 -4 4250.08 417.155 1
3 11 -3 4945.39 438.077 1
3 11 -2 1561.66 243.312 1
3 11 -1 1020.73 209.566 1
-3 11 1 1525.98 248.798 1
-3 11 0 4170.63 382.469 1
3 11 0 3823.76 374.458 1
3 11 1 1275.87 234.947 1
-3 11 -1 1141.24 229.355 1
-3 11 -2 1797.47 270.965 1
3 11 2 2548.9 316.581 1
-3 11 -3 76.3336 114.066 1
-3 11 -4 128.412 106.015 1
-3 11 -5 1237.83 231.607 1
3 12 -6 4283.19 451.171 1
3 12 -5 1483.57 286.629 1
3 12 -4 3160.18 378.168 1
3 12 -3 451.104 159.217 1
3 12 -2 478.864 178.639 1
3 12 -1 -107.803 144.789 1
-3 12 1 66.1845 146.379 1
-3 12 0 5247.27 461.931 1
3 12 0 5300.55 474.209 1
-3 12 -1 952.195 224.326 1
3 12 1 633.016 208.052 1
-3 12 -2 1956.95 294.215 1
3 12 2 2724.97 341.465 1
-3 12 -3 250.12 160.05 1
3 12 3 321.18 177.849 1
-3 12 -4 5544.4 494.182 1
3 13 -2 146.404 151.939 1
-3 13 2 409.741 194.865 1
3 13 -1 1852.05 291.707 1
-3 13 1 1822.73 298.93 1
-3 13 0 4162.28 442.514 1
3 13 0 3979.49 432.667 1
3 13 1 1168.53 258.718 1
-3 13 -1 847.008 201.012 1
-3 13 -2 449.771 188.16 1
4 0 -13 71.1523 136.356 1
4 0 -12 1494.4 234.882 1
4 0 -11 -222.306 125.201 1
4 0 -10 9004.18 493.898 1
4 0 -9 -60.8336 118.813 1
4 0 -8 29066.7 812.842 1
4 0 -7 -189.085 107.798 1
4 0 -6 8893.97 374.139 1
4 0 -5 41.322 53.1319 1
4 0 -4 137473 2013.4 2
4 0 -4 135566 1779.37 1
4 0 -3 -8.99261 63.3288 2
4 0 -3 47.8533 36.7695 1
-4 0 2 37045.3 572.117 1
4 0 -2 36787.8 793.699 2
4 0 -1 -55.091 79.5838 2
4 1 -13 8290.92 559.716 1
4 -1 -13 8328.29 569.216 1
4 1 -12 1294.59 249.169 1
4 -1 -12 1467.83 253.673 1
4 1 -11 421.176 168.16 1
4 -1 -11 363.4 139.898 1
4 -1 -10 337.716 121.348 1
4 1 -10 483.206 166.404 1
4 1 -9 20695.4 736.831 1
4 -1 -9 20725.5 714.277 1
4 1 -8 7646 412.503 1
4 -1 -8 7121.58 384.836 1
4 1 -7 29837.7 795.305 1
4 -1 -7 28239.5 744.002 1
4 1 -6 38641.8 876.636 1
4 -1 -6 40034.3 847.644 1
4 1 -5 9518.67 364.755 1
4 -1 -5 9109.2 342.872 1
4 -1 -4 16799.9 514.222 2
4 1 -4 17164.9 560.431 2
4 1 -4 15455.4 436.425 1
4 -1 -3 291.413 87.9889 2
4 1 -3 219.075 75.9977 2
4 1 -3 237.268 51.2594 1
4 -1 -2 46388.2 883.636 2
4 1 -2 48037.5 956.377 2
4 1 -2 46808.2 687.577 1
-4 -1 2 48631.4 714.208 1
-4 1 2 46945.5 703.766 1
4 -1 -1 975.657 117.332 2
4 1 -1 860.888 122.544 2
4 1 -1 917.796 45.1943 1
-4 1 1 1019.46 49.3565 1
4 1 0 85613.8 1402.97 2
4 2 -13 1033.86 252.238 1
4 2 -12 2126.2 288.559 1
4 2 -11 4751.78 403.681 1
4 2 -10 3280.2 309.018 1
4 2 -9 7218.54 447.037 1
4 2 -8 70751.2 1453.58 1
4 2 -7 3935.94 290.108 1
4 2 -6 807.124 132.139 1
4 2 -5 4006.55 251.619 1
4 -2 -4 24518.7 609.679 2
4 2 -4 24076.3 704.473 2
4 2 -4 24658.9 602.207 1
4 -2 -3 39991.5 785.103 2
4 2 -3 39504.6 906.827 2
4 2 -3 39118.2 742.342 1
4 2 -2 20757.4 452.541 1
4 2 -2 20440.1 603.671 2
4 -2 -2 21164.5 527.211 2
4 2 -1 52210 1030.91 2
-4 2 1 51109.9 706.207 1
4 2 -1 51129.6 740.585 1
-4 2 0 9249.41 182.048 1
-4 2 0 9968.69 201.923 1
4 2 0 9496.45 214.743 1
4 2 0 10381.8 419.315 2
4 2 1 4754.76 134.857 1
4 2 1 5268.81 143.757 1
-4 2 -1 4987.4 123.846 1
-4 2 -2 11737.9 244.457 1
-4 2 -3 21827.8 424.912 1
4 3 -13 2286.21 322.873 1
4 3 -12 4075.02 393.423 1
4 3 -11 401.749 154.499 1
4 3 -10 5332.93 413.101 1
4 3 -9 2428.19 272.621 1
4 3 -8 19648 717.328 1
4 3 -7 42917.5 1050.94 1
4 3 -6 1601.62 193.56 1
4 3 -5 2153.22 198.465 1
4 -3 -5 2227.18 175.122 2
4 -3 -4 228.553 64.7348 2
4 3 -4 82.5655 83.6631 2
4 3 -4 186.733 71.9101 1
4 3 -3 42489.8 974.013 2
4 3 -3 43234.3 845.262 1
4 -3 -3 42347.2 783.213 2
4 3 -2 22195.7 646.985 2
4 3 -2 21954.1 525.131 1
4 -3 -2 23166.8 529.007 2
4 3 -1 24124.5 673.803 2
4 3 -1 24942.5 524.375 1
4 3 0 41355.3 915.945 2
-4 3 0 40783.4 662.001 1
4 3 0 39783.1 685.523 1
4 3 1 19347.3 418.088 1
-4 3 -1 18208.2 388.706 1
-4 3 -2 25226.2 499.084 1
-4 3 -3 9617.16 302.8 1
4 4 -13 2365.65 330.399 1
4 4 -12 1453.42 254.872 1
4 4 -11 3450.78 363.998 1
4 4 -10 1211.16 223.477 1
4 4 -9 8115.64 506.512 1
4 4 -8 560.023 152.006 1
4 4 -7 13676.3 595.081 1
4 4 -6 17205.9 629.584 1
4 4 -5 3663.36 277.658 1
4 -4 -5 4301.69 226.161 2
4 4 -5 4025.06 305.341 2
4 -4 -4 387.913 72.7423 2
4 4 -4 284.633 116.646 2
4 4 -4 88.709 83.6639 1
4 4 -3 12580.2 507.266 2
4 -4 -3 13298.2 364.503 2
4 4 -3 12185.4 446.579 1
4 4 -2 5925.92 340.517 2
4 4 -2 5755.39 279.887 1
4 4 -1 27699.7 625.553 1
4 4 -1 27368.4 741.761 2
-4 4 0 21909.4 502.486 1
4 4 0 21572.8 527.159 1
4 4 0 21831 653.218 2
4 4 1 32938.7 662.089 1
-4 4 -1 30794 631.363 1
-4 4 -2 38057.2 732.821 1
-4 4 -3 15692.4 452.168 1
4 5 -12 1206.91 250.865 1
4 5 -11 95.3253 134.849 1
4 5 -10 4216.46 412.303 1
4 5 -9 6408.43 461.597 1
4 5 -8 2587.14 290.59 1
4 5 -7 9412.06 508.526 1
4 -5 -6 940.188 113.226 2
4 5 -6 869.133 166.176 1
4 -5 -5 32919.5 656.481 2
4 5 -5 32487.1 933.311 2
4 5 -5 33622.7 898.227 1
4 -5 -4 1259.59 101.426 2
4 5 -4 999.163 162.888 2
4 5 -3 1598.81 191.31 2
4 5 -3 1532.11 175.69 1
4 5 -2 25986.7 762.666 2
4 5 -2 28937.1 731.88 1
4 5 -1 25125.6 644.508 1
4 5 -1 23929.5 710.533 2
-4 5 0 43021.3 854.9 1
4 5 0 44371.8 894.385 1
4 5 0 43439.1 993.293 2
4 5 1 2680.8 197.951 1
-4 5 -1 2446.94 177.616 1
-4 5 -2 21937.9 584.196 1
-4 5 -3 16247.2 510.163 1
4 6 -12 162.63 154.559 1
4 6 -11 14870.9 785.098 1
4 6 -10 2687.68 339.699 1
4 6 -9 6142.32 462.44 1
4 6 -8 2199.53 275.401 1
4 6 -7 1246.78 205.787 1
4 6 -6 4258.2 341.68 2
4 6 -6 3939.14 331.438 1
4 6 -5 4491.48 348.436 2
4 6 -5 4111.83 321.743 1
4 6 -4 5201.32 359.865 2
4 6 -4 5930.52 371.443 1
4 6 -3 16985.2 630.006 2
4 6 -3 17400.1 614.218 1
4 6 -2 32008 871.565 2
4 6 -2 33582.8 847.028 1
4 6 -1 60046 1186.06 1
4 6 -1 63469.1 1286.02 2
-4 6 0 4725.97 283.693 1
4 6 0 4750.94 290.458 1
4 6 0 4825.84 316.028 2
4 6 1 7563.15 365.605 1
-4 6 -1 6927.31 341.619 1
-4 6 -2 34469.5 823.676 1
-4 6 -3 3088.93 235.72 1
4 7 -11 129.494 170.081 1
4 7 -10 482.645 198.871 1
4 7 -9 5870.89 479.795 1
4 7 -8 2141.64 288.173 1
4 7 -7 1593.68 247.102 1
4 7 -6 1064.93 177.566 2
4 7 -6 962.312 187.076 1
4 7 -5 8402.74 477.44 2
4 7 -5 7996.05 474.352 1
4 7 -4 1071.95 176.591 2
4 7 -4 1330.32 193.229 1
4 7 -3 11079 512.27 2
4 7 -3 11591.7 533.961 1
4 7 -2 9141.02 449.431 2
4 7 -2 9928.5 472.2 1
4 7 -1 4831.61 317.907 1
4 7 -1 5290.92 349.084 2
-4 7 0 13156.9 517.953 1
4 7 0 12546.2 518.572 1
4 7 0 13453.8 553.726 2
-4 7 -1 840.522 137.702 1
4 7 1 1204.45 167.793 1
-4 7 -2 2404.85 226.338 1
-4 7 -3 2870.01 251.549 1
4 8 -10 6353.1 526.357 1
4 8 -9 2318.06 319.401 1
4 8 -8 558.8 202.789 1
4 8 -7 2777.16 306.663 2
4 8 -7 3053.12 325.539 1
4 8 -6 703.92 173.883 2
4 8 -6 709.822 173.78 1
4 8 -5 889.382 176.868 2
4 8 -5 1301.55 213.609 1
4 8 -4 3475.38 314.005 2
4 8 -4 3257.28 307.848 1
4 8 -3 4023.52 320.747 2
4 8 -3 4446.98 343.612 1
4 8 -2 3865.19 295.398 2
4 8 -2 3877.8 319.113 1
4 8 -1 5898.17 381.931 2
4 8 -1 5567.26 368.794 1
-4 8 0 19808.2 693.425 1
4 8 0 19954.5 714.283 1
4 8 0 20045.2 699.783 2
4 8 1 10292.8 492.26 1
-4 8 -1 10512.8 495.193 1
4 8 2 1963.39 231.01 1
-4 8 -2 2029.93 231.728 1
-4 8 -3 593.583 141.569 1
4 9 -10 2182.5 338.408 1
4 9 -9 4285.3 439.88 1
4 9 -8 3382.21 369.408 2
4 9 -8 3672.52 395.804 1
4 9 -7 3808.09 378.231 2
4 9 -7 4364.48 402.016 1
4 9 -6 2156.04 274.242 2
4 9 -6 2541.77 302.818 1
4 9 -5 1409.01 221.008 2
4 9 -5 1554.35 230.681 1
4 9 -4 1377.52 214.356 2
4 9 -4 1811.41 252.18 1
4 9 -3 7116.43 426.385 2
4 9 -3 7185.06 468.557 1
4 9 -2 846.588 174.744 1
4 9 -2 727.426 143.824 2
-4 9 1 9265.79 499.103 1
4 9 -1 9096.42 500.903 1
4 9 -1 10144.1 501.049 2
-4 9 0 4899.28 357.825 1
4 9 0 4967.11 367.684 1
-4 9 -1 1006.11 171.172 1
4 9 1 1170.17 200.043 1
4 9 2 3439.15 324.07 1
-4 9 -2 3723.87 318.617 1
4 10 -9 5909.5 502.645 2
4 10 -8 1800.16 281.668 2
4 10 -8 1629.01 305.753 1
4 10 -7 1361.26 240.22 2
4 10 -7 1815.66 291.447 1
4 10 -6 2840.48 322.64 2
4 10 -6 2324.69 314.329 1
4 10 -5 6238.97 441.959 2
4 10 -5 6368.39 491.575 1
4 10 -4 8846.84 564.544 1
4 10 -4 7472.35 470.312 2
4 10 -3 3765.62 322.467 2
4 10 -3 3506.87 350.774 1
4 10 -2 5615.72 426.591 1
4 10 -2 5548.81 388.234 2
4 10 -1 1634.35 241.963 1
4 10 -1 2286.22 248.886 2
-4 10 1 2375.4 276.144 1
-4 10 0 295.257 111.607 1
4 10 0 476.306 144.551 1
4 10 1 3370.44 331.245 1
-4 10 -1 3155.72 327.128 1
4 10 2 4990.93 409.673 1
-4 10 -2 4357.87 372.332 1
4 11 -8 2128.97 312.73 2
4 11 -7 1838.86 279.72 2
4 11 -7 2009.97 317.551 1
4 11 -6 6153.54 470.079 2
4 11 -6 7033.4 558.319 1
4 11 -5 5173.15 412.623 2
4 11 -5 5736.04 481.685 1
4 11 -4 11895.6 601.394 2
4 11 -4 12228.2 696.338 1
4 11 -3 2314.02 270.626 2
4 11 -3 2682.77 321.544 1
4 11 -2 4515.58 419.037 1
4 11 -2 5162.46 382.524 2
4 11 -1 354.845 158.15 1
4 11 -1 533.979 144.998 2
-4 11 1 411.798 165.662 1
-4 11 0 4439.39 410.845 1
4 11 0 3745.69 369.746 1
4 11 1 1067.79 215.069 1
-4 11 -1 796.304 189.127 1
4 11 2 5173.91 436.678 1
4 12 -5 193.753 114.025 1
4 12 -4 232.573 128.854 1
4 12 -3 375.893 124.356 1
4 12 -2 496.263 155.169 1
-4 12 2 1152.51 249.132 1
4 12 -1 1675.73 273.106 1
-4 12 1 1773.45 283.624 1
-4 12 0 774.037 215.575 1
4 12 0 1393.36 261.124 1
4 12 1 2925.98 356.759 1
-4 12 -1 2409.31 313.634 1
-4 13 1 3292.38 399.186 1
5 0 -13 7738.38 554.45 1
5 0 -12 -222.662 178.805 1
5 0 -11 755.27 166.429 1
5 0 -10 148.506 115.192 1
5 0 -9 25755.1 811.198 1
5 0 -8 -173.452 129.807 1
5 0 -7 17055.4 563.47 1
5 0 -6 166.537 110.821 2
5 0 -6 -82.1988 58.0715 1
5 0 -5 13776.6 539.808 2
5 0 -5 13793.9 424.136 1
5 0 -4 -0.94674 35.4302 1
5 0 -4 54.8602 85.1449 2
5 0 -3 1689.47 175.284 2
5 0 -2 3.26569 72.4362 2
-5 0 2 30.7856 16.2033 1
5 0 -1 33606.8 830.694 2
5 1 -13 279.519 157.976 1
5 1 -12 1779.52 278.449 1
5 1 -11 446.827 152.217 1
5 -1 -11 438.349 151.503 1
5 1 -10 6318.71 433.026 1
5 -1 -10 5597.08 400.497 1
5 1 -9 4554.61 340.804 1
5 -1 -9 3938.42 321.935 1
5 1 -8 28970.5 830.279 1
5 -1 -8 26412.7 780.284 1
5 1 -7 12281 488.69 1
5 -1 -7 11346.9 464.886 1
5 1 -6 198.678 84.6572 1
5 -1 -6 289.954 115.699 2
5 1 -6 368.41 120.588 2
5 -1 -5 11846.2 481.854 2
5 1 -5 11400.9 498.038 2
5 1 -5 11232.2 395.48 1
5 -1 -4 5811.08 323.939 2
5 1 -4 6266.31 359.666 2
5 1 -4 5945.26 250.671 1
5 -1 -3 8586.56 372.065 2
5 1 -3 8534.92 256.481 1
5 -1 -2 27685.9 719.404 2
5 1 -2 25701 727.449 2
5 1 -1 15502.1 551.686 2
5 2 -13 5081.23 459.06 1
5 2 -12 2765.29 331.089 1
5 2 -11 205.918 119.991 1
5 2 -10 390.763 144.536 1
5 2 -9 61.6323 112.054 1
5 2 -8 2825.64 268.478 1
5 2 -7 34712.7 902.87 1
5 -2 -6 16975.7 593.579 2
5 2 -6 16521.6 658.609 2
5 2 -6 16951.6 575.023 1
5 -2 -5 516.844 108.323 2
5 2 -5 520.643 137.445 2
5 2 -5 789.873 124.875 1
5 -2 -4 3996.85 255.308 2
5 2 -4 3630.12 287.083 2
5 2 -4 4050.57 219.815 1
5 2 -3 44373.7 1031.46 2
5 2 -3 42197.8 739.915 1
5 -2 -3 44895.4 917.683 2
5 2 -2 33710.1 863.998 2
5 -2 -2 35263.8 787.845 2
5 2 -1 67972.6 1324.08 2
5 3 -13 162.288 140.7 1
5 3 -12 1583.8 264.047 1
5 3 -11 3621.93 370.49 1
5 3 -10 6637.8 470.245 1
5 3 -9 9840.64 539.046 1
5 3 -8 15214.5 637.976 1
5 -3 -7 12500.2 510.644 2
5 3 -7 12300.8 536.156 1
5 -3 -6 10319.1 432.591 2
5 3 -6 10451.3 523.451 2
5 3 -6 10335.1 458.346 1
5 3 -5 29.3298 62.6274 1
5 -3 -5 134.284 62.0504 2
5 3 -5 52.3896 94.2489 2
5 -3 -4 10773.3 401.514 2
5 3 -4 11220.3 517.412 2
5 3 -4 11304 423.689 1
5 3 -3 3556.67 293.27 2
5 3 -3 2983.38 197.545 1
5 -3 -3 3360.22 230.05 2
5 3 -2 71188.3 1390.93 2
5 3 -2 72316.1 1102.06 1
-5 3 1 6756.63 213.222 1
5 3 -1 6616.38 387.159 2
5 4 -12 10481.8 657.39 1
5 4 -11 1592.87 282.208 1
5 4 -10 12298.7 647.55 1
5 4 -9 2154.52 271.3 1
5 4 -8 2385.91 263.691 1
5 -4 -7 11974.4 474.887 2
5 4 -7 12112.3 597.391 2
5 4 -7 10840.6 524.646 1
5 -4 -6 9260.07 389.607 2
5 4 -6 8145.28 447.464 1
5 4 -6 8172.89 485.829 2
5 -4 -5 8092.12 340.09 2
5 4 -5 7683.62 396.311 1
5 4 -5 7992.83 457.422 2
5 4 -4 8576.67 394.143 1
5 4 -4 8560.39 463.872 2
5 -4 -4 8479.98 334.305 2
5 4 -3 11728 533.072 2
5 -4 -3 12482.5 408.707 2
5 4 -3 12578.4 447.53 1
5 4 -2 18315.1 653.006 2
5 4 -2 18685.6 520.49 1
-5 4 1 6892.15 263.76 1
5 4 -1 6543.62 281.837 1
5 4 -1 7005.22 401.823 2
5 4 0 11214.4 513.969 2
5 5 -12 1803.31 307.062 1
5 5 -11 8087.58 555.269 1
5 5 -10 5037.01 432.951 1
5 5 -9 4215.03 379.212 1
5 5 -8 4047.16 371.982 1
5 5 -7 4062.02 335.833 1
5 5 -7 4303.23 380.661 2
5 5 -6 4023.26 320.164 1
5 5 -6 3883.91 347.012 2
5 5 -5 1268.2 202.761 2
5 5 -5 1320.87 175.315 1
5 5 -4 5928.3 393.228 2
5 5 -4 5910.89 352.863 1
5 5 -3 12572.3 565.501 2
5 5 -3 12302.9 478.251 1
5 5 -2 16699.4 639.424 2
5 5 -2 17953.7 559.388 1
-5 5 1 20648.3 535.826 1
5 5 -1 21169.7 589.789 1
5 5 -1 20143.5 716.163 2
5 5 0 1610.22 211.788 2
5 6 -12 199.674 168.089 1
5 6 -11 150.975 123.496 1
5 6 -10 1490.96 245.871 1
5 6 -9 286.54 131.928 1
5 6 -8 1147.3 215.238 1
5 6 -8 748.989 180.16 2
5 6 -7 4961.83 387.679 1
5 6 -7 4489.38 392.321 2
5 6 -6 3829.7 340.251 1
5 6 -6 4003.62 348.484 2
5 6 -5 12511.3 608.726 2
5 6 -5 12672.2 580.595 1
5 6 -4 641.754 165.696 2
5 6 -4 827.238 158.707 1
5 6 -3 4622.07 341.55 2
5 6 -3 4561.94 315.993 1
5 6 -2 6123.77 346.555 1
5 6 -2 5847.66 386.634 2
-5 6 1 19169.7 581.696 1
5 6 -1 18992.8 613.262 1
5 6 -1 19486 709.905 2
5 7 -11 666.022 231.215 1
5 7 -10 4436.27 443.242 1
5 7 -9 307.213 155.135 1
5 7 -8 2989.78 347.081 2
5 7 -8 3137.08 343.286 1
5 7 -7 4045.33 380.779 1
5 7 -7 4121.65 389.925 2
5 7 -6 3583.73 350.956 2
5 7 -6 3741.8 345.306 1
5 7 -5 1122.34 193.084 2
5 7 -5 953.792 181.43 1
5 7 -4 378.677 128.226 2
5 7 -4 629.189 150.49 1
5 7 -3 2930.9 279.675 2
5 7 -3 3110.67 277.866 1
5 7 -2 2329.54 267.654 2
5 7 -2 1967.25 221.234 1
5 7 -1 1242.94 203.184 2
5 7 -1 1606.12 189.749 1
-5 7 1 1072.88 162.612 1
5 8 -10 313.63 169.528 1
5 8 -9 770.633 216.445 1
5 8 -9 939.835 234.256 2
5 8 -8 -48.8674 151.292 2
5 8 -8 -93.9367 139.641 1
5 8 -7 972.021 217.776 2
5 8 -7 630.802 155.71 1
5 8 -6 250.094 134.133 2
5 8 -6 211.822 112.608 1
5 8 -5 1241.12 225.106 2
5 8 -5 1178.68 210.667 1
5 8 -4 1978.86 252.853 2
5 8 -4 1808.07 238.62 1
5 8 -3 5100.01 377.63 2
5 8 -3 5481.29 387.816 1
5 8 -2 1435.65 203.333 2
5 8 -2 1659.53 217.974 1
5 8 -1 4917.82 354.175 1
5 8 -1 5191.33 383.283 2
5 9 -9 5006.09 484.976 1
5 9 -9 4478.54 460.24 2
5 9 -8 543.812 176.489 2
5 9 -8 692.404 186.735 1
5 9 -7 263.464 159.517 2
5 9 -7 733.769 208.277 1
5 9 -6 2525.64 318.624 2
5 9 -6 1785.19 269.394 1
5 9 -5 2031.93 282.563 2
5 9 -5 1992.62 278.973 1
5 9 -4 2268.67 271.649 2
5 9 -4 2322.83 285.01 1
5 9 -3 216.706 117.942 2
5 9 -3 313.745 125.533 1
5 9 -2 5379.44 401.401 1
5 9 -2 5769.3 423.088 2
5 9 -1 1700.12 237.425 2
5 10 -8 2044.07 299.784 2
5 10 -8 1854.83 316.454 1
5 10 -7 2645.68 333.359 2
5 10 -7 1469.08 277.694 1
5 10 -6 450.122 163.583 2
5 10 -6 125.912 133.208 1
5 10 -5 1674.96 260.654 2
5 10 -5 1479.46 260.758 1
5 10 -4 8549.52 522.868 2
5 10 -4 9129.23 574.306 1
5 10 -3 11365.2 638.893 1
5 10 -3 11579 613.893 2
5 10 -2 3516.92 354.403 1
5 10 -2 3984.48 356.13 2
5 11 -7 589.937 208.252 2
5 11 -6 4908.19 438.441 2
5 11 -6 4860.85 470.909 1
5 11 -5 352.772 151.301 2
5 11 -5 414.031 149.466 1
5 11 -4 3115.07 335.178 2
5 11 -4 2924.05 345.879 1
5 11 -3 6615.59 514.08 1
5 11 -3 6538.68 469.378 2
5 11 -2 2510.68 297.05 2
5 12 -4 1411.66 270.79 1
6 0 -13 227.767 170.898 1
6 0 -12 134.096 121.763 1
6 0 -11 62.1571 118.619 1
6 0 -10 6178.14 423.338 1
6 0 -9 -67.0872 92.4472 1
6 0 -8 9626.47 536.325 2
6 0 -8 8433.32 432.704 1
6 0 -7 -24.438 64.3661 1
6 0 -7 -0.44034 79.554 2
6 0 -6 2436.77 253.375 2
6 0 -5 -7.46902 83.3134 2
6 0 -4 17219.6 626.31 2
6 0 -3 -99.9099 113.244 2
6 0 -2 35740.7 930.039 2
6 1 -13 998.157 230.758 1
6 1 -12 -37.3246 112.601 1
6 1 -11 575.279 147.03 1
6 1 -10 457.089 157.886 1
6 -1 -9 2748.97 298.604 2
6 1 -9 2640.82 259.681 1
6 1 -8 111.713 83.8774 1
6 -1 -8 196.185 131.91 2
6 1 -8 356.292 157.082 2
6 -1 -7 7353.54 435.792 2
6 1 -7 7612.37 467.078 2
6 1 -7 7125.87 366.09 1
6 -1 -6 5848.53 377.767 2
6 1 -6 5357.69 378.563 2
6 1 -6 5914.24 305.425 1
6 -1 -5 16946 623.058 2
6 1 -5 17348.7 669.25 2
6 -1 -4 1535.27 178.895 2
6 1 -4 1449.71 188.165 2
6 -1 -3 15475.7 591.063 2
6 1 -3 15024.2 598.175 2
6 -1 -2 540.286 144.728 2
6 1 -2 499.055 148.217 2
6 2 -13 21.9929 131.733 1
6 2 -12 288.355 148.637 1
6 2 -11 2332.6 288.271 1
6 2 -10 5927.98 435.968 1
6 -2 -9 7336.88 465.792 2
6 2 -9 6572.59 482.228 2
6 2 -9 7207.19 442.574 1
6 -2 -8 14938.8 642.156 2
6 2 -8 14695.3 693.073 2
6 2 -8 14659.1 603.523 1
6 -2 -7 4582.7 339.358 2
6 2 -7 4121.62 355.497 2
6 2 -7 4116.7 289.601 1
6 -2 -6 11926.5 518.645 2
6 2 -6 11616.6 573.883 2
6 2 -6 11540.3 451.988 1
6 -2 -5 8075.06 407.309 2
6 2 -5 7424.16 447.264 2
6 2 -4 18390.8 699.275 2
6 -2 -4 18581.2 616.88 2
6 2 -3 2594.69 255.656 2
6 -2 -3 3455.36 262.248 2
6 2 -2 36190.6 998.58 2
6 2 -1 1804.61 229.856 2
6 3 -12 3313.41 373.252 1
6 3 -11 1743.36 266.795 1
6 3 -10 2469.48 292.095 1
6 3 -9 -86.6534 116.751 1
6 -3 -9 111.916 104.6 2
6 3 -9 69.777 113.22 2
6 -3 -8 5347.76 364.837 2
6 3 -8 5281.83 428.132 2
6 3 -8 4648.53 348.886 1
6 -3 -7 8569.32 443.855 2
6 3 -7 8168.76 508.816 2
6 3 -7 8738.39 443.136 1
6 -3 -6 640.167 131.245 2
6 3 -6 480.339 153.451 2
6 3 -6 763.528 137.287 1
6 -3 -5 5214.65 307.142 2
6 3 -5 5408.88 387.695 2
6 3 -4 9391.01 506.818 2
6 -3 -4 10016.9 438.127 2
6 3 -3 11293.2 538.334 2
6 -3 -3 13226.5 499.351 2
6 3 -2 3080.91 298.057 2
6 3 -1 6149.6 408.242 2
6 4 -12 189.314 140.616 1
6 4 -11 4088.17 410.284 1
6 4 -10 3695.86 371.138 1
6 4 -9 7172.8 520.399 2
6 4 -9 6929.41 475.643 1
6 4 -8 1683.05 271.055 2
6 4 -8 1713.49 233.745 1
6 4 -7 497.358 138.525 2
6 4 -7 508.823 130.154 1
6 4 -6 32.0804 117.914 2
6 4 -6 49.2915 82.0497 1
6 4 -5 7672.06 472.115 2
6 -4 -5 7423.87 357.616 2
6 4 -4 5569.41 402.584 2
6 -4 -4 5003.87 289.053 2
6 4 -3 765.017 148.51 2
6 4 -2 5961.12 409.156 2
6 4 -1 1463.41 222 2
6 5 -12 486.984 181.397 1
6 5 -11 2909.76 348.612 1
6 5 -10 3874.29 392.831 1
6 5 -10 3515.16 394.934 2
6 5 -9 2975.74 365.593 2
6 5 -9 2901.77 323.172 1
6 5 -8 7665.56 540.307 2
6 5 -8 7466.93 493.018 1
6 5 -7 833.746 176.551 1
6 5 -7 853.793 187.058 2
6 5 -6 2205.75 245.524 1
6 5 -6 2703.28 311.407 2
6 5 -5 2433.95 284.818 2
6 5 -4 4990.73 383.507 2
6 5 -3 6142.74 424.827 2
6 5 -2 1313.52 218.484 2
6 5 -1 2903.59 297.697 2
6 6 -11 1182.82 258.336 1
6 6 -10 2245.66 343.002 2
6 6 -10 1819.1 276.569 1
6 6 -9 4398.79 431.517 2
6 6 -9 4569.33 429.444 1
6 6 -8 1167.04 226.469 1
6 6 -8 1235.52 246.37 2
6 6 -7 2084.14 257.974 1
6 6 -7 2174.39 291.067 2
6 6 -6 2725.73 279.683 1
6 6 -6 2932.91 321.956 2
6 6 -5 2975.15 315.686 2
6 6 -4 6197.64 433.938 2
6 6 -3 686.513 172.65 2
6 6 -2 2053.09 255.714 2
6 6 -1 2428.81 284.308 2
6 7 -10 3116.35 394.863 1
6 7 -9 1079.81 233.993 1
6 7 -9 1360.42 267.278 2
6 7 -8 599.972 183 1
6 7 -8 546.163 169.487 2
6 7 -7 3.59413 108.626 1
6 7 -7 145.236 135.109 2
6 7 -6 423.648 166.931 2
6 7 -6 107.121 113.113 1
6 7 -5 6632.67 471.873 2
6 7 -4 400.603 168.694 2
6 7 -3 3811.34 356.323 2
6 7 -2 1182.41 211.353 2
6 7 -1 227.082 123.858 2
6 8 -10 168.469 144.878 1
6 8 -9 1319.47 268.685 1
6 8 -8 1498.16 268.076 1
6 8 -8 1659.64 272.754 2
6 8 -7 98.1489 159.166 2
6 8 -7 -99.4993 127.572 1
6 8 -6 2854.83 342.607 2
6 8 -5 317.622 154.776 2
6 8 -4 1975.46 259.138 2
6 8 -3 402.032 137.182 2
6 8 -2 1254.85 210.467 2
6 9 -9 -39.0888 138.784 1
6 9 -8 3566.5 407.338 1
6 9 -7 1507.31 272.549 2
6 9 -6 655.282 196.165 2
6 9 -5 1383.56 239.501 2
6 9 -4 1351.87 237.154 2
6 9 -3 3675.46 380.636 2
6 9 -2 2796.81 334.087 2
6 10 -5 8.53896 113.161 2
6 10 -4 2724.46 331.115 2
6 10 -3 7358.98 522.258 2
6 10 -2 2659.78 332.392 2
7 0 -12 -172.547 152.555 2
7 0 -11 1947.54 294.839 2
7 0 -10 3.95912 111.766 2
7 0 -9 3032 328.62 2
7 0 -8 23.3211 108.435 2
7 0 -7 10160.5 563.52 2
7 0 -6 221.826 107.83 2
7 0 -5 1893.9 228.987 2
7 0 -4 45.1044 111.089 2
7 0 -3 5824.4 396.227 2
7 -1 -12 2002.12 314.587 2
7 1 -12 1583.21 282.485 2
7 -1 -11 465.578 150.474 2
7 1 -11 399.411 147.657 2
7 -1 -10 1031.38 217.135 2
7 1 -10 1239.42 253.301 2
7 -1 -9 274.554 114.838 2
7 1 -9 603.409 179.409 2
7 -1 -8 2210.71 273.742 2
7 1 -8 2219.51 279.262 2
7 -1 -7 624.996 161.924 2
7 1 -7 384.375 171.762 2
7 -1 -6 4015.71 333.452 2
7 1 -6 3679.1 343.965 2
7 -1 -5 153.657 82.9052 2
7 1 -5 121.189 92.4677 2
7 -1 -4 1431.57 201.921 2
7 1 -4 1147.85 200.206 2
7 -1 -3 3030.23 289.908 2
7 1 -3 2739.59 289.459 2
7 1 -2 465.818 168.327 2
7 -2 -11 78.1422 121.566 2
7 2 -11 86.9805 139.018 2
7 -2 -10 478.097 161.528 2
7 2 -10 503.055 183.885 2
7 -2 -9 1265.32 210.284 2
7 2 -9 1215.42 235.949 2
7 -2 -8 3721.72 329.166 2
7 2 -8 3555.19 368.303 2
7 -2 -7 5477.4 385.218 2
7 2 -7 5634.83 438.079 2
7 -2 -6 235.349 117.237 2
7 2 -6 341.631 155.54 2
7 2 -5 4719 375.057 2
7 -2 -5 5055.46 354.772 2
7 -2 -4 1148.75 182.531 2
7 2 -4 1211.11 212.228 2
7 2 -3 203.887 120.715 2
7 2 -2 1009.71 214.902 2
7 3 -11 465.114 141.683 2
7 3 -10 1402.91 251.547 2
7 3 -9 3713.26 397.082 2
7 3 -8 1907.02 286.566 2
7 3 -7 2108.43 295.908 2
7 -3 -6 4949.28 333.722 2
7 3 -6 5338.77 428.015 2
7 3 -5 4603.44 382.955 2
7 -3 -5 5118.93 350.3 2
7 -3 -4 1866.5 213.246 2
7 3 -4 1715.2 247.327 2
7 3 -3 4391.48 378.683 2
7 3 -2 5346.83 413.286 2
7 4 -10 3606.22 403.499 2
7 4 -9 2361.43 341.346 2
7 4 -8 6273.3 499.281 2
7 4 -7 275.868 148.913 2
7 4 -6 3202.15 344.748 2
7 4 -5 44.3343 134.653 2
7 4 -4 8451.98 523.986 2
7 4 -3 1860.18 259.587 2
7 4 -2 671.444 192.944 2
7 5 -9 10051.4 659.305 2
7 5 -8 1645.03 281.549 2
7 5 -7 1179.91 223.791 2
7 5 -6 -60.5687 145.322 2
7 5 -5 2706.65 308.882 2
7 5 -4 4881.11 415.195 2
7 5 -3 4211.34 400.723 2
7 5 -2 4972.29 419.648 2
7 6 -8 1907.72 301.168 2
7 6 -7 1423.79 254.395 2
7 6 -6 1229.73 240.05 2
7 6 -5 1644.55 249.786 2
7 6 -4 2741.97 322.502 2
7 6 -3 1570.51 244.504 2
7 6 -2 1085.31 234.882 2
7 7 -7 273.244 139.007 2
7 7 -6 1415.85 268.049 2
7 7 -5 633.194 166.403 2
7 7 -4 5387.61 456.077 2
7 7 -3 -44.55 141.728 2
7 7 -2 1246.81 249.612 2
7 8 -5 3144.11 376.05 2
7 8 -4 2920.28 359.697 2
7 8 -3 441.136 156.601 2
7 8 -2 1494.78 268.687 2
8 0 -11 -119.834 145.058 2
8 0 -10 5411.48 478.813 2
8 0 -9 134.033 125.305 2
8 0 -8 1426.98 251.13 2
8 0 -7 -217.109 151.126 2
8 0 -6 5605.43 424.804 2
8 0 -5 -139.292 113.97 2
8 0 -4 4023.9 354.538 2
8 -1 -10 439.127 184.206 2
8 1 -10 123.914 124.129 2
8 -1 -9 117.519 101.221 2
8 1 -9 356.03 148.426 2
8 -1 -8 925.644 197.669 2
8 1 -8 482.322 174.736 2
8 -1 -7 2710.55 291.969 2
8 1 -7 3210.18 350.383 2
8 -1 -6 918.013 193.097 2
8 1 -6 1236.12 214.91 2
8 -1 -5 2393.81 287.012 2
8 1 -5 1728.24 266.388 2
8 1 -4 380.72 140.475 2
8 -1 -4 425.567 146.119 2
8 1 -3 2529.11 304.841 2
8 2 -9 -114.598 129.249 2
8 2 -8 410.872 156.468 2
8 2 -7 3689.23 374.071 2
8 -2 -7 2992.73 309.097 2
8 -2 -6 144.059 109.348 2
8 2 -6 -13.7706 111.766 2
8 -2 -5 898.424 182.772 2
8 2 -5 727.414 183.744 2
8 2 -4 2380.98 288.283 2
8 2 -3 776.4 197.682 2
8 3 -8 1677.57 271.366 2
8 3 -7 828.997 213.386 2
8 3 -6 874.516 197.839 2
8 3 -5 190.544 111.608 2
8 3 -4 -31.8753 125.938 2
8 3 -3 3112.69 345.817 2
8 4 -7 4400.03 422.95 2
8 4 -6 129.007 116.755 2
8 4 -5 454.822 151.106 2
8 4 -4 3068.51 355.395 2
8 4 -3 1855.7 293.288 2
8 5 -6 2285.34 313.925 2
8 5 -5 1004 225.051 2
8 5 -4 -32.8051 140.737 2
8 5 -3 293.617 174.723 2
9 0 -8 -126.3 163.385 2
9 0 -7 765.99 216.611 2
9 0 -6 174.317 156.111 2
9 0 -5 1226.62 244.185 2
9 -1 -6 57.4407 121.274 2
9 1 -6 59.4771 114.823 2
9 1 -5 260.09 167.832 2
