#------------------------------------------------------------------------------
#$Date: 2019-11-04 10:31:58 +0200 (Mon, 04 Nov 2019) $
#$Revision: 222493 $
#$URL: file:///home/coder/svn-repositories/cod/cif/4/03/39/4033917.cif $
#------------------------------------------------------------------------------
#
# This file is available in the Crystallography Open Database (COD),
# http://www.crystallography.net/
#
# All data on this site have been placed in the public domain by the
# contributors.
#
data_4033917
loop_
_publ_author_name
'Lan, Ping'
'Banwell, Martin G.'
'Willis, Anthony C.'
_publ_section_title
;
 Application of Electrocyclic Ring-Opening and Desymmetrizing Nucleophilic
 Trappings of meso-6,6-Dibromobicyclo[3.1.0]hexanes to Total Syntheses of
 Crinine and Haemanthamine Alkaloids.
;
_journal_issue                   6
_journal_name_full               'The Journal of organic chemistry'
_journal_page_first              3431
_journal_page_last               3466
_journal_paper_doi               10.1021/acs.joc.9b00018
_journal_volume                  84
_journal_year                    2019
_chemical_absolute_configuration ad
_chemical_compound_source        local
_chemical_formula_moiety         'C8 H9 Br F3 N O'
_chemical_formula_sum            'C8 H9 Br F3 N O'
_chemical_formula_weight         272.06
_space_group_IT_number           1
_space_group_name_Hall           'P 1'
_space_group_name_H-M_alt        'P 1'
_symmetry_cell_setting           triclinic
_symmetry_space_group_name_H-M   'P 1'
_atom_sites_solution_hydrogens   geom
_atom_sites_solution_primary     direct
_audit_creation_date             12-06-05
_audit_creation_method           CRYSTALS_ver_14.11
_audit_update_record
;
2012-06-05- Report on C8 H9 Br F3 N O
            by Anthony C. Willis
            for  Ping Lan and Martin Banwell


2012-06-05 - passes checkcif tests with few warnings

;
_cell_angle_alpha                101.669(3)
_cell_angle_beta                 91.920(4)
_cell_angle_gamma                107.523(4)
_cell_formula_units_Z            2
_cell_length_a                   5.0260(3)
_cell_length_b                   7.7300(4)
_cell_length_c                   13.7908(8)
_cell_measurement_reflns_used    32748
_cell_measurement_temperature    200
_cell_measurement_theta_max      27.5
_cell_measurement_theta_min      2.6
_cell_volume                     497.80(5)
_computing_cell_refinement       'DENZO/SCALEPACK (Otwinowski & Minor, 1997)'
_computing_data_collection       'COLLECT (Nonius, 2001).'
_computing_data_reduction        'DENZO/SCALEPACK (Otwinowski & Minor, 1997)'
_computing_molecular_graphics
; 
ORTEP-II (Johnson 1976) in teXsan (MSC, 1992-1997)
;
_computing_publication_material  'CRYSTALS (Betteridge et al., 2003)'
_computing_structure_refinement  'CRYSTALS (Betteridge et al., 2003)'
_computing_structure_solution    'SIR92 (Altomare et al., 1994)'
_diffrn_ambient_temperature      200
_diffrn_measured_fraction_theta_full 0.996
_diffrn_measured_fraction_theta_max 0.985
_diffrn_measurement_device       Area
_diffrn_measurement_device_type  'Nonius KappaCCD'
_diffrn_measurement_method       ' \f and \w scans with CCD '
_diffrn_radiation_monochromator  graphite
_diffrn_radiation_type           'Mo K\a'
_diffrn_radiation_wavelength     0.71073
_diffrn_reflns_av_R_equivalents  0.063
_diffrn_reflns_limit_h_max       6
_diffrn_reflns_limit_h_min       -5
_diffrn_reflns_limit_k_max       10
_diffrn_reflns_limit_k_min       -10
_diffrn_reflns_limit_l_max       17
_diffrn_reflns_limit_l_min       -17
_diffrn_reflns_number            9698
_diffrn_reflns_theta_full        27.077
_diffrn_reflns_theta_max         27.629
_diffrn_reflns_theta_min         2.835
_diffrn_standards_number         0
_exptl_absorpt_coefficient_mu    4.140
_exptl_absorpt_correction_T_max  0.81
_exptl_absorpt_correction_T_min  0.45
_exptl_absorpt_correction_type   multi-scan
_exptl_absorpt_process_details   'DENZO/SCALEPACK (Otwinowski & Minor, 1997)'
_exptl_crystal_colour            colourless
_exptl_crystal_density_diffrn    1.815
_exptl_crystal_density_method    'not measured'
_exptl_crystal_description       prism
_exptl_crystal_F_000             268
_exptl_crystal_size_max          0.500
_exptl_crystal_size_mid          0.060
_exptl_crystal_size_min          0.050
_refine_diff_density_max         2.31
_refine_diff_density_min         -1.58
_refine_ls_abs_structure_details 'Flack (1983), 1939 Friedel-pairs'
_refine_ls_abs_structure_Flack   0.07(2)
_refine_ls_extinction_method     None
_refine_ls_goodness_of_fit_ref   0.9860
_refine_ls_hydrogen_treatment    constr
_refine_ls_matrix_type           full
_refine_ls_number_parameters     276
_refine_ls_number_reflns         4224
_refine_ls_number_restraints     21
_refine_ls_R_factor_all          0.0626
_refine_ls_R_factor_gt           0.0537
_refine_ls_shift/su_max          0.0392522
_refine_ls_shift/su_mean         0.0031295
_refine_ls_structure_factor_coef Fsqd
_refine_ls_weighting_details
;
 Method= Modified Sheldrick 
 w=1/[\s^2^(F^2^) + ( 0.11P)^2^ + 0.36P] 
 ,where P=(max(Fo^2^,0) + 2Fc^2^)/3 
;
_refine_ls_weighting_scheme      calc
_refine_ls_wR_factor_all         0.1507
_refine_ls_wR_factor_gt          0.1403
_refine_ls_wR_factor_ref         0.1507
_reflns_limit_h_max              6
_reflns_limit_h_min              -5
_reflns_limit_k_max              10
_reflns_limit_k_min              -10
_reflns_limit_l_max              17
_reflns_limit_l_min              -17
_reflns_number_gt                3590
_reflns_number_total             4224
_reflns_threshold_expression     I>2.0\s(I)
_oxford_diffrn_Wilson_B_factor   4.14
_oxford_diffrn_Wilson_scale      0.92
_oxford_refine_ls_r_factor_ref   0.0626
_oxford_refine_ls_scale          1.079
_oxford_reflns_number_all        4224
_oxford_reflns_threshold_expression_ref I>-10.0\s(I)
_oxford_structure_analysis_title '6041525 ban1220a'
_cod_data_source_file            jo9b00018_si_008.cif
_cod_data_source_block           ban1220
_cod_depositor_comments
;
The following automatic conversions were performed:

data item '_symmetry_cell_setting' value 'Triclinic' was changed to
'triclinic' in accordance with the
/home/data/users/saulius/crontab/automatic-downloads/current/ACS/lib/dictionaries/cif_core.dic
dictionary named 'cif_core.dic' version 2.4.2 last updated on
2011-04-26.

Automatic conversion script
Id: cif_fix_values 6909 2019-04-08 15:41:33Z antanas 
;
_cod_original_sg_symbol_H-M      'P 1 '
_cod_database_code               4033917
_iucr_refine_instruction_details_constraints
;
#
# Punched on 05/06/12 at 14:57:20
#
#LIST     12                                                                    
BLOCK  X'S, BR(14,U'S) UNTIL BR(34) 
CONT F(11,U'S,OCC) UNTIL F(33) F(111,U[ISO],OCC) UNTIL F(133) 
CONT O(9,U'S) UNTIL C(30) 
SUMFIX ELEMENT SCALES 
EQUIV F(11,OCC) UNTIL F(13) F(111,OCC) UNTIL F(113) 
WEIGHT -1 F(111,OCC) UNTIL F(113) 
EQUIV F(31,OCC) UNTIL F(33) F(131,OCC) UNTIL F(133) 
WEIGHT -1 F(131,OCC) UNTIL F(133) 
EQUIV F(111,U[ISO]) UNTIL F(113) 
EQUIV F(131,U[ISO]) UNTIL F(133) 
RIDE N(7,X'S) H(71,X'S) 
RIDE N(27,X'S) H(271,X'S) 
RIDE C   (   2,X'S) H   (  21,X'S) 
RIDE C   (   3,X'S) H   (  31,X'S) H   (  32,X'S) 
RIDE C   (   4,X'S) H   (  41,X'S) H   (  42,X'S) 
RIDE C   (   5,X'S) H   (  51,X'S) H   (  52,X'S) 
RIDE C   (   6,X'S) H   (  61,X'S) 
RIDE C   (  22,X'S) H   ( 221,X'S) 
RIDE C   (  23,X'S) H   ( 231,X'S) H   ( 232,X'S) 
RIDE C   (  24,X'S) H   ( 241,X'S) H   ( 242,X'S) 
RIDE C   (  25,X'S) H   ( 251,X'S) H   ( 252,X'S) 
RIDE C   (  26,X'S) H   ( 261,X'S) 
END                                                                             
;
_iucr_refine_instruction_details_restraints
;
#
# Punched on 05/06/12 at 14:57:20
#
#LIST     16                                                                    
DIST 0.0, .02 = MEAN C(10) TO F(111), C(10) TO F(112), C(10) TO F(113) 
DIST 0.0, .02 = MEAN C(30) TO F(131), C(30) TO F(132), C(30) TO F(133) 
ANGLE 0.0, 2. = MEAN F(111) TO C(10) TO F(112), F(111) TO C(10) TO F(113) 
CONT            F(112) TO C(10) TO F(113) 
ANGLE 0.0, 2. = MEAN F(131) TO C(30) TO F(132), F(131) TO C(30) TO F(133) 
CONT            F(132) TO C(30) TO F(133) 
ANGLE 0.0, 2. = MEAN C(8) TO C(10) TO F(111), C(8) TO C(10) TO F(112) 
CONT            C(8) TO C(10) TO F(113) 
ANGLE 0.0, 2. = MEAN C(28) TO C(30) TO F(131), C(28) TO C(30) TO F(132) 
CONT            C(28) TO C(30) TO F(133) 
NO 
REM   HREST   START (DO NOT REMOVE THIS LINE) 
REM   HREST   END (DO NOT REMOVE THIS LINE) 
END                                                                             
;
loop_
_symmetry_equiv_pos_as_xyz
x,y,z
loop_
_atom_site_label
_atom_site_type_symbol
_atom_site_fract_x
_atom_site_fract_y
_atom_site_fract_z
_atom_site_U_iso_or_equiv
_atom_site_occupancy
_atom_site_adp_type
_atom_site_refinement_flags_posn
_atom_site_refinement_flags_occupancy
Br14 Br 0.9522(4) 0.3096(3) 0.58034(16) 0.0632 1.0000 Uani . .
Br34 Br 0.6973(4) 0.8600(3) 0.40546(16) 0.0597 1.0000 Uani . .
F11 F 0.545(3) 0.1401(9) 0.8830(6) 0.1233 0.835(16) Uani . P
F12 F 0.507(2) 0.3600(14) 0.9956(5) 0.0929 0.835(16) Uani . P
F13 F 0.8956(13) 0.3557(15) 0.9547(7) 0.0971 0.835(16) Uani . P
F31 F 0.394(3) 0.7625(10) -0.0016(6) 0.1202 0.890(13) Uani . P
F32 F 0.1406(15) 0.9379(15) 0.0383(8) 0.1076 0.890(13) Uani . P
F33 F 0.5342(15) 1.0068(10) 0.1103(5) 0.0935 0.890(13) Uani . P
F111 F 0.699(6) 0.415(3) 1.0025(13) 0.056(6) 0.165(16) Uiso D P
F112 F 0.396(4) 0.188(3) 0.9183(19) 0.056(6) 0.165(16) Uiso D P
F113 F 0.818(5) 0.234(3) 0.9012(18) 0.056(6) 0.165(16) Uiso D P
F131 F 0.340(6) 1.029(3) 0.1050(19) 0.044(8) 0.110(13) Uiso D P
F132 F 0.550(4) 0.855(4) 0.052(2) 0.044(8) 0.110(13) Uiso D P
F133 F 0.139(5) 0.804(4) -0.0082(17) 0.044(8) 0.110(13) Uiso D P
O9 O 0.3704(10) 0.4376(9) 0.8208(4) 0.0556 1.0000 Uani . .
O29 O -0.0563(11) 0.7293(9) 0.1636(5) 0.0557 1.0000 Uani . .
N7 N 0.8267(11) 0.4851(8) 0.7936(4) 0.0390 1.0000 Uani . .
N27 N 0.3632(11) 0.6887(8) 0.1948(4) 0.0424 1.0000 Uani . .
C1 C 1.0065(14) 0.5639(9) 0.6390(5) 0.0410 1.0000 Uani . .
C2 C 1.1801(16) 0.6933(11) 0.6021(6) 0.0464 1.0000 Uani . .
C3 C 1.2214(16) 0.8989(11) 0.6404(7) 0.0483 1.0000 Uani . .
C4 C 0.9788(15) 0.9286(9) 0.6986(6) 0.0503 1.0000 Uani . .
C5 C 0.9197(18) 0.8058(10) 0.7730(6) 0.0537 1.0000 Uani . .
C6 C 0.8235(13) 0.5979(8) 0.7206(5) 0.0404 1.0000 Uani . .
C8 C 0.5982(15) 0.4215(10) 0.8383(5) 0.0425 1.0000 Uani D .
C10 C 0.6326(13) 0.3128(9) 0.9179(5) 0.0464 1.0000 Uani D .
C21 C 0.4960(13) 0.6039(9) 0.3475(5) 0.0412 1.0000 Uani . .
C22 C 0.5529(14) 0.4714(11) 0.3822(6) 0.0443 1.0000 Uani . .
C23 C 0.3904(16) 0.2699(12) 0.3470(7) 0.0521 1.0000 Uani . .
C24 C 0.1118(14) 0.2439(9) 0.2893(6) 0.0487 1.0000 Uani . .
C25 C 0.1574(16) 0.3654(10) 0.2124(6) 0.0526 1.0000 Uani . .
C26 C 0.2666(13) 0.5726(8) 0.2665(5) 0.0392 1.0000 Uani . .
C28 C 0.1847(15) 0.7489(9) 0.1489(6) 0.0408 1.0000 Uani D .
C30 C 0.3112(12) 0.8629(8) 0.0709(4) 0.0446 1.0000 Uani D .
H21 H 1.2833 0.6584 0.5521 0.0553 1.0000 Uiso R .
H31 H 1.3961 0.9574 0.6832 0.0582 1.0000 Uiso R .
H32 H 1.2311 0.9559 0.5838 0.0580 1.0000 Uiso R .
H41 H 1.0311 1.0586 0.7344 0.0599 1.0000 Uiso R .
H42 H 0.8117 0.9001 0.6533 0.0598 1.0000 Uiso R .
H51 H 1.0941 0.8326 0.8156 0.0636 1.0000 Uiso R .
H52 H 0.7730 0.8297 0.8126 0.0641 1.0000 Uiso R .
H61 H 0.6297 0.5644 0.6900 0.0480 1.0000 Uiso R .
H71 H 0.9774 0.4609 0.8075 0.0460 1.0000 Uiso R .
H221 H 0.7003 0.5047 0.4315 0.0522 1.0000 Uiso R .
H231 H 0.3563 0.2139 0.4045 0.0619 1.0000 Uiso R .
H232 H 0.5040 0.2127 0.3047 0.0621 1.0000 Uiso R .
H241 H -0.0118 0.2813 0.3366 0.0571 1.0000 Uiso R .
H242 H 0.0276 0.1143 0.2566 0.0571 1.0000 Uiso R .
H251 H -0.0187 0.3423 0.1739 0.0620 1.0000 Uiso R .
H252 H 0.2963 0.3383 0.1694 0.0619 1.0000 Uiso R .
H261 H 0.1123 0.6071 0.2971 0.0459 1.0000 Uiso R .
H271 H 0.5288 0.7070 0.1770 0.0498 1.0000 Uiso R .
loop_
_atom_site_aniso_label
_atom_site_aniso_U_11
_atom_site_aniso_U_22
_atom_site_aniso_U_33
_atom_site_aniso_U_23
_atom_site_aniso_U_13
_atom_site_aniso_U_12
Br14 0.1056(7) 0.0403(4) 0.0433(4) 0.0079(3) 0.0057(4) 0.0234(4)
Br34 0.0826(5) 0.0392(4) 0.0461(4) 0.0087(3) 0.0029(3) 0.0035(3)
F11 0.245(14) 0.042(3) 0.066(5) 0.015(3) -0.036(6) 0.024(5)
F12 0.112(7) 0.150(8) 0.059(4) 0.056(4) 0.043(4) 0.079(6)
F13 0.054(3) 0.150(8) 0.104(6) 0.093(6) 0.003(3) 0.014(4)
F31 0.233(12) 0.068(4) 0.073(5) 0.021(4) 0.080(6) 0.057(6)
F32 0.079(4) 0.160(9) 0.135(8) 0.116(8) 0.033(4) 0.054(5)
F33 0.095(5) 0.082(4) 0.072(4) 0.040(3) -0.011(3) -0.031(3)
O9 0.037(3) 0.073(4) 0.063(3) 0.027(3) 0.013(2) 0.018(2)
O29 0.039(3) 0.069(3) 0.072(4) 0.036(3) 0.012(2) 0.021(2)
N7 0.039(2) 0.044(3) 0.039(3) 0.016(2) 0.0080(19) 0.0158(19)
N27 0.041(2) 0.043(3) 0.045(3) 0.017(2) 0.011(2) 0.010(2)
C1 0.048(3) 0.041(3) 0.035(3) 0.013(2) 0.003(2) 0.013(2)
C2 0.051(4) 0.051(4) 0.045(4) 0.017(3) 0.014(3) 0.022(3)
C3 0.050(4) 0.038(4) 0.059(5) 0.020(4) 0.010(3) 0.012(3)
C4 0.056(4) 0.043(3) 0.059(4) 0.019(3) 0.013(3) 0.020(3)
C5 0.073(4) 0.041(3) 0.055(4) 0.013(3) 0.019(3) 0.027(3)
C6 0.046(3) 0.041(3) 0.040(3) 0.019(2) 0.009(2) 0.017(2)
C8 0.042(3) 0.044(3) 0.041(3) 0.012(3) 0.007(3) 0.010(3)
C10 0.046(3) 0.051(3) 0.045(3) 0.020(3) 0.013(3) 0.013(2)
C21 0.041(3) 0.045(3) 0.038(3) 0.013(2) 0.008(2) 0.011(2)
C22 0.043(3) 0.050(4) 0.043(3) 0.013(3) 0.002(3) 0.018(3)
C23 0.052(4) 0.046(5) 0.065(6) 0.021(4) 0.010(3) 0.018(3)
C24 0.047(3) 0.038(3) 0.061(4) 0.020(3) 0.011(3) 0.007(2)
C25 0.052(3) 0.044(3) 0.053(4) 0.014(3) -0.004(3) 0.001(3)
C26 0.041(3) 0.041(3) 0.038(3) 0.017(2) 0.007(2) 0.011(2)
C28 0.044(4) 0.034(3) 0.043(3) 0.008(2) 0.001(3) 0.011(3)
C30 0.053(3) 0.037(3) 0.041(3) 0.008(2) 0.007(3) 0.009(2)
loop_
_atom_type_symbol
_atom_type_scat_dispersion_real
_atom_type_scat_dispersion_imag
_atom_type_scat_Cromer_Mann_a1
_atom_type_scat_Cromer_Mann_b1
_atom_type_scat_Cromer_Mann_a2
_atom_type_scat_Cromer_Mann_b2
_atom_type_scat_Cromer_Mann_a3
_atom_type_scat_Cromer_Mann_b3
_atom_type_scat_Cromer_Mann_a4
_atom_type_scat_Cromer_Mann_b4
_atom_type_scat_Cromer_Mann_c
_atom_type_scat_source
C 0.0033 0.0016 2.3100 20.8439 1.0200 10.2075 1.5886 0.5687 0.8650 51.6512
0.2156 'International Tables Vol C 4.2.6.8 and 6.1.1.4'
H 0.0000 0.0000 0.4930 10.5109 0.3229 26.1257 0.1402 3.1424 0.0408 57.7998
0.0030 'International Tables Vol C 4.2.6.8 and 6.1.1.4'
Br -0.2901 2.4595 17.1789 2.1723 5.2358 16.5796 5.6377 0.2609 3.9851 41.4328
2.9557 'International Tables Vol C 4.2.6.8 and 6.1.1.4'
F 0.0171 0.0103 3.5392 10.2825 2.6412 4.2944 1.5170 0.2615 1.0243 26.1476
0.2776 'International Tables Vol C 4.2.6.8 and 6.1.1.4'
N 0.0061 0.0033 12.2126 0.0057 3.1322 9.8933 2.0125 28.9975 1.1663 0.5826
-11.5290 'International Tables Vol C 4.2.6.8 and 6.1.1.4'
O 0.0106 0.0060 3.0485 13.2771 2.2868 5.7011 1.5463 0.3239 0.8670 32.9089
0.2508 'International Tables Vol C 4.2.6.8 and 6.1.1.4'
loop_
_geom_angle_atom_site_label_1
_geom_angle_atom_site_label_2
_geom_angle_atom_site_label_3
_geom_angle
_geom_angle_publ_flag
C6 N7 C8 120.2(5) yes
C6 N7 H71 119.4 no
C8 N7 H71 120.4 no
C26 N27 C28 120.0(5) yes
C26 N27 H271 120.3 no
C28 N27 H271 119.3 no
Br14 C1 C2 119.0(5) yes
Br14 C1 C6 115.2(4) yes
C2 C1 C6 125.6(6) yes
C1 C2 C3 122.3(7) yes
C1 C2 H21 119.0 no
C3 C2 H21 118.7 no
C2 C3 C4 111.2(6) yes
C2 C3 H31 110.2 no
C4 C3 H31 109.2 no
C2 C3 H32 108.1 no
C4 C3 H32 109.5 no
H31 C3 H32 108.7 no
C3 C4 C5 110.1(6) yes
C3 C4 H41 108.9 no
C5 C4 H41 108.9 no
C3 C4 H42 110.1 no
C5 C4 H42 109.6 no
H41 C4 H42 109.1 no
C4 C5 C6 111.4(6) yes
C4 C5 H51 108.0 no
C6 C5 H51 108.3 no
C4 C5 H52 110.1 no
C6 C5 H52 108.3 no
H51 C5 H52 110.7 no
C5 C6 C1 110.0(5) yes
C5 C6 N7 109.8(5) yes
C1 C6 N7 111.9(5) yes
C5 C6 H61 108.3 no
C1 C6 H61 108.2 no
N7 C6 H61 108.5 no
N7 C8 O9 126.4(7) yes
N7 C8 C10 115.3(6) yes
O9 C8 C10 118.3(6) yes
C8 C10 F13 112.6(5) yes
C8 C10 F12 110.3(6) yes
F13 C10 F12 103.5(7) yes
C8 C10 F112 108.2(11) yes
C8 C10 F113 112.6(11) yes
F112 C10 F113 108.7(13) yes
C8 C10 F11 111.4(6) yes
F13 C10 F11 107.5(8) yes
F12 C10 F11 111.4(9) yes
C8 C10 F111 112.2(11) yes
F112 C10 F111 108.3(14) yes
F113 C10 F111 106.6(14) yes
Br34 C21 C22 120.1(5) yes
Br34 C21 C26 115.0(4) yes
C22 C21 C26 124.8(6) yes
C21 C22 C23 123.4(6) yes
C21 C22 H221 118.4 no
C23 C22 H221 118.2 no
C22 C23 C24 111.1(6) yes
C22 C23 H231 108.8 no
C24 C23 H231 109.8 no
C22 C23 H232 107.4 no
C24 C23 H232 110.1 no
H231 C23 H232 109.7 no
C23 C24 C25 110.2(6) yes
C23 C24 H241 108.1 no
C25 C24 H241 109.4 no
C23 C24 H242 109.5 no
C25 C24 H242 110.2 no
H241 C24 H242 109.4 no
C24 C25 C26 109.5(6) yes
C24 C25 H251 109.4 no
C26 C25 H251 108.8 no
C24 C25 H252 109.8 no
C26 C25 H252 108.6 no
H251 C25 H252 110.7 no
C25 C26 C21 110.4(5) yes
C25 C26 N27 110.0(5) yes
C21 C26 N27 111.5(5) yes
C25 C26 H261 108.7 no
C21 C26 H261 108.3 no
N27 C26 H261 107.9 no
N27 C28 O29 127.0(7) yes
N27 C28 C30 114.7(6) yes
O29 C28 C30 118.2(6) yes
C28 C30 F33 112.0(5) yes
C28 C30 F31 111.4(6) yes
F33 C30 F31 106.1(8) yes
C28 C30 F32 112.0(6) yes
F33 C30 F32 103.5(7) yes
F31 C30 F32 111.3(8) yes
C28 C30 F133 108.3(13) yes
C28 C30 F132 113.1(12) yes
F133 C30 F132 110.9(14) yes
C28 C30 F131 109.0(12) yes
F133 C30 F131 109.0(15) yes
F132 C30 F131 106.4(15) yes
loop_
_geom_bond_atom_site_label_1
_geom_bond_atom_site_label_2
_geom_bond_distance
_geom_bond_publ_flag
Br14 C1 1.901(6) yes
Br34 C21 1.919(6) yes
F11 C10 1.257(9) yes
F12 C10 1.307(9) yes
F13 C10 1.318(9) yes
F31 C30 1.298(9) yes
F32 C30 1.286(9) yes
F33 C30 1.324(8) yes
F111 C10 1.240(16) yes
F112 C10 1.286(17) yes
F113 C10 1.258(16) yes
F131 C30 1.240(17) yes
F132 C30 1.253(17) yes
F133 C30 1.282(18) yes
O9 C8 1.210(9) yes
O29 C28 1.204(9) yes
N7 C6 1.461(7) yes
N7 C8 1.330(9) yes
N7 H71 0.858 no
N27 C26 1.466(7) yes
N27 C28 1.324(9) yes
N27 H271 0.854 no
C1 C2 1.315(10) yes
C1 C6 1.509(9) yes
C2 C3 1.517(11) yes
C2 H21 0.922 no
C3 C4 1.531(10) yes
C3 H31 0.970 no
C3 H32 0.967 no
C4 C5 1.513(9) yes
C4 H41 0.977 no
C4 H42 0.970 no
C5 C6 1.542(9) yes
C5 H51 0.981 no
C5 H52 0.971 no
C6 H61 0.985 no
C8 C10 1.546(10) yes
C21 C22 1.314(10) yes
C21 C26 1.507(9) yes
C22 C23 1.494(12) yes
C22 H221 0.926 no
C23 C24 1.525(11) yes
C23 H231 0.974 no
C23 H232 0.965 no
C24 C25 1.532(9) yes
C24 H241 0.977 no
C24 H242 0.967 no
C25 C26 1.543(9) yes
C25 H251 0.966 no
C25 H252 0.975 no
C26 H261 0.975 no
C28 C30 1.558(9) yes
loop_
_geom_contact_atom_site_label_1
_geom_contact_atom_site_label_2
_geom_contact_distance
_geom_contact_site_symmetry_2
_geom_contact_publ_flag
F11 F32 3.30(1) 1_546 no
F11 F133 3.43(3) 1_546 no
F11 F131 3.45(3) 1_546 no
F11 C5 3.47(1) 1_445 no
F11 F33 3.49(1) 1_546 no
F11 F31 3.50(1) 1_546 no
F11 C4 3.50(1) 1_445 no
F11 F132 3.52(3) 1_546 no
F11 C3 3.55(1) 1_445 no
F12 F13 3.09(1) 1_455 no
F12 F131 3.14(3) 1_546 no
F12 F31 3.32(2) 1_556 no
F12 O29 3.398(9) 1_656 no
F12 F32 3.41(1) 1_546 no
F12 F113 3.43(3) 1_455 no
F12 F33 3.45(1) 1_546 no
F12 C25 3.52(1) 1_556 no
F12 N27 3.60(1) 1_556 no
F13 O9 3.06(1) 1_655 no
F13 F112 3.17(3) 1_655 no
F13 F133 3.23(3) 1_656 no
F13 F31 3.30(1) 1_656 no
F13 C28 3.51(1) 1_656 no
F13 O29 3.59(1) 1_656 no
F31 O9 3.10(1) 1_554 no
F31 F111 3.48(3) 1_554 no
F31 C8 3.51(1) 1_554 no
F31 F32 3.57(2) 1_655 no
F32 F112 2.84(3) 1_564 no
F32 F132 2.86(2) 1_455 no
F32 F33 3.39(1) 1_455 no
F33 F112 3.38(3) 1_564 no
F33 C24 3.516(9) 1_665 no
F33 C25 3.518(9) 1_665 no
F33 O29 3.55(1) 1_655 no
F111 O29 2.86(2) 1_656 no
F111 F133 3.19(3) 1_656 no
F111 C28 3.23(2) 1_656 no
F111 F131 3.58(3) 1_546 no
F112 F113 3.04(3) 1_455 no
F112 F131 3.06(4) 1_546 no
F112 F133 3.24(4) 1_546 no
F112 C5 3.39(2) 1_445 no
F112 C4 3.49(2) 1_445 no
F112 C30 3.53(3) 1_546 no
F113 O9 3.11(2) 1_655 no
F113 C4 3.56(3) 1_545 no
F131 C25 3.13(3) 1_565 no
F131 C24 3.19(3) 1_565 no
F131 C23 3.44(3) 1_565 no
F132 O29 2.96(3) 1_655 no
F132 F133 3.22(4) 1_655 no
F133 C5 3.18(3) 1_454 no
F133 N7 3.27(2) 1_454 no
F133 C8 3.59(2) 1_454 no
O9 N7 2.887(8) 1_455 no
O9 C1 3.51(1) 1_455 no
O29 N27 2.895(8) 1_455 no
O29 C21 3.535(9) 1_455 no
loop_
_geom_hbond_atom_site_label_D
_geom_hbond_atom_site_label_H
_geom_hbond_atom_site_label_A
_geom_hbond_site_symmetry_A
_geom_hbond_angle_DHA
_geom_hbond_distance_DH
_geom_hbond_distance_HA
_geom_hbond_distance_DA
_geom_hbond_publ_flag
N7 H71 O9 1_655 168 0.86 2.04 2.887(10) yes
N27 H271 O29 1_655 167 0.85 2.06 2.896(10) yes
loop_
_geom_torsion_atom_site_label_1
_geom_torsion_atom_site_label_2
_geom_torsion_atom_site_label_3
_geom_torsion_atom_site_label_4
_geom_torsion
_geom_torsion_publ_flag
Br14 C1 C2 C3 176.1(6) no
Br14 C1 C6 N7 48.6(6) no
Br14 C1 C6 C5 171.0(5) no
Br34 C21 C22 C23 174.8(6) no
Br34 C21 C26 N27 46.9(7) no
Br34 C21 C26 C25 169.5(5) no
F11 C10 C8 O9 81(1) no
F11 C10 C8 N7 -97.6(9) no
F12 C10 C8 O9 -43.5(8) no
F12 C10 C8 N7 138.1(6) no
F13 C10 C8 O9 -158.4(7) no
F13 C10 C8 N7 23.2(9) no
F31 C30 C28 O29 -119.2(9) no
F31 C30 C28 N27 63.0(9) no
F32 C30 C28 O29 6.2(9) no
F32 C30 C28 N27 -171.5(6) no
F33 C30 C28 N27 -55.7(8) no
F111 C10 C8 O9 -89(2) no
F111 C10 C8 N7 92(2) no
F112 C10 C8 O9 30(1) no
F112 C10 C8 N7 -148(1) no
F113 C10 C8 O9 150(1) no
F113 C10 C8 N7 -28(1) no
F131 C30 C28 O29 71(2) no
F131 C30 C28 N27 -107(2) no
F132 C30 C28 O29 -171(1) no
F132 C30 C28 N27 11(1) no
F133 C30 C28 O29 -48(2) no
F133 C30 C28 N27 134(2) no
O9 C8 N7 C6 5(1) no
O29 C28 N27 C26 5(1) no
N7 C6 C1 C2 -136.4(7) no
N7 C6 C5 C4 167.9(6) no
N27 C26 C21 C22 -136.6(7) no
N27 C26 C25 C24 168.9(6) no
C1 C2 C3 C4 -18(1) no
C1 C6 N7 C8 -146.4(5) no
C1 C6 C5 C4 44.3(9) no
C2 C1 C6 C5 -14(1) no
C2 C3 C4 C5 48.1(9) no
C3 C2 C1 C6 1(1) no
C3 C4 C5 C6 -63.1(8) no
C5 C6 N7 C8 91.2(7) no
C6 N7 C8 C10 -176.9(5) no
C21 C22 C23 C24 -15(1) no
C21 C26 N27 C28 -148.8(6) no
C21 C26 C25 C24 45.5(8) no
C22 C21 C26 C25 -14(1) no
C22 C23 C24 C25 47.6(9) no
C23 C22 C21 C26 -2(1) no
C23 C24 C25 C26 -64.1(8) no
C25 C26 N27 C28 88.5(8) no
C26 N27 C28 C30 -177.2(5) no
loop_
_oxford_twin_element_scale_factors
0.839(16)
0.118(5)
0.043(15)
