#------------------------------------------------------------------------------
#$Date: 2019-11-12 04:20:23 +0200 (Tue, 12 Nov 2019) $
#$Revision: 227531 $
#$URL: file:///home/coder/svn-repositories/cod/cif/4/03/35/4033509.cif $
#------------------------------------------------------------------------------
#
# This file is available in the Crystallography Open Database (COD),
# http://www.crystallography.net/
#
# All data on this site have been placed in the public domain by the
# contributors.
#
data_4033509
loop_
_publ_author_name
'Maity, Rajib'
'Naskar, Sandip'
'Das, Indrajit'
_publ_section_title
;
 Copper(II)-Catalyzed Reactions of \a-Keto Thioesters with Azides via C-C
 and C-S Bond Cleavages: Synthesis of N-Acylureas and Amides.
;
_journal_issue                   4
_journal_name_full               'The Journal of organic chemistry'
_journal_page_first              2114
_journal_page_last               2124
_journal_paper_doi               10.1021/acs.joc.7b03054
_journal_volume                  83
_journal_year                    2018
_chemical_formula_moiety         'C9 H8 Cl N O'
_chemical_formula_sum            'C9 H8 Cl N O'
_chemical_formula_weight         181.61
_space_group_crystal_system      monoclinic
_space_group_IT_number           14
_space_group_name_Hall           '-P 2ybc'
_space_group_name_H-M_alt        'P 1 21/c 1'
_symmetry_space_group_name_Hall  '-P 2ybc'
_symmetry_space_group_name_H-M   'P 1 21/c 1'
_atom_sites_solution_hydrogens   geom
_atom_sites_solution_primary     dual
_audit_creation_date             2017-06-02
_audit_creation_method
;
Olex2 1.2
(compiled 2017.03.02 svn.r3394 for OlexSys, GUI svn.r5337)
;
_cell_angle_alpha                90
_cell_angle_beta                 108.10(2)
_cell_angle_gamma                90
_cell_formula_units_Z            4
_cell_length_a                   11.029(15)
_cell_length_b                   9.057(12)
_cell_length_c                   9.072(12)
_cell_measurement_reflns_used    702
_cell_measurement_temperature    296
_cell_measurement_theta_max      26.06
_cell_measurement_theta_min      3.26
_cell_volume                     861(2)
_computing_molecular_graphics    'Olex2 (Dolomanov et al., 2009)'
_computing_publication_material  'Olex2 (Dolomanov et al., 2009)'
_computing_structure_refinement  'ShelXL (Sheldrick, 2015)'
_computing_structure_solution    'ShelXT (Sheldrick, 2015)'
_diffrn_ambient_temperature      296.15
_diffrn_measured_fraction_theta_full 0.706
_diffrn_measured_fraction_theta_max 0.671
_diffrn_measurement_device_type  'Bruker APEX-II CCD'
_diffrn_measurement_method       '\f and \w scans'
_diffrn_radiation_type           MoK\a
_diffrn_radiation_wavelength     0.71073
_diffrn_reflns_av_R_equivalents  0.0191
_diffrn_reflns_av_unetI/netI     0.0242
_diffrn_reflns_Laue_measured_fraction_full 0.706
_diffrn_reflns_Laue_measured_fraction_max 0.671
_diffrn_reflns_limit_h_max       14
_diffrn_reflns_limit_h_min       -14
_diffrn_reflns_limit_k_max       11
_diffrn_reflns_limit_k_min       -10
_diffrn_reflns_limit_l_max       9
_diffrn_reflns_limit_l_min       -8
_diffrn_reflns_number            2272
_diffrn_reflns_point_group_measured_fraction_full 0.706
_diffrn_reflns_point_group_measured_fraction_max 0.671
_diffrn_reflns_theta_full        25.242
_diffrn_reflns_theta_max         27.471
_diffrn_reflns_theta_min         2.972
_diffrn_standards_number         0
_exptl_absorpt_coefficient_mu    0.389
_exptl_absorpt_correction_T_max  0.7456
_exptl_absorpt_correction_T_min  0.5532
_exptl_absorpt_correction_type   multi-scan
_exptl_absorpt_process_details
'SADABS-2014/5 (Bruker,2014/5) was used for absorption correction. wR2(int) was 0.0932 before and 0.0263 after correction. The Ratio of minimum to maximum transmission is 0.7420. The \l/2 correction factor is 0.00150.'
_exptl_crystal_colour            'clear light colourless'
_exptl_crystal_colour_lustre     clear
_exptl_crystal_colour_modifier   light
_exptl_crystal_colour_primary    colourless
_exptl_crystal_density_diffrn    1.400
_exptl_crystal_description       plate
_exptl_crystal_F_000             376
_exptl_crystal_size_max          0.61
_exptl_crystal_size_mid          0.42
_exptl_crystal_size_min          0.06
_refine_diff_density_max         0.180
_refine_diff_density_min         -0.250
_refine_diff_density_rms         0.046
_refine_ls_extinction_method     none
_refine_ls_goodness_of_fit_ref   1.059
_refine_ls_hydrogen_treatment    constr
_refine_ls_matrix_type           full
_refine_ls_number_parameters     109
_refine_ls_number_reflns         1324
_refine_ls_number_restraints     0
_refine_ls_restrained_S_all      1.059
_refine_ls_R_factor_all          0.0747
_refine_ls_R_factor_gt           0.0457
_refine_ls_shift/su_max          0.000
_refine_ls_shift/su_mean         0.000
_refine_ls_structure_factor_coef Fsqd
_refine_ls_weighting_details
'w=1/[\s^2^(Fo^2^)+(0.0840P)^2^+0.0910P] where P=(Fo^2^+2Fc^2^)/3'
_refine_ls_weighting_scheme      calc
_refine_ls_wR_factor_gt          0.1264
_refine_ls_wR_factor_ref         0.1453
_reflns_Friedel_coverage         0.000
_reflns_number_gt                888
_reflns_number_total             1324
_reflns_threshold_expression     'I > 2\s(I)'
_cod_data_source_file            jo7b03054_si_004.cif
_cod_data_source_block           id_pkm36_0m
_cod_depositor_comments          'Adding full bibliography for 4033509.cif.'
_cod_database_code               4033509
_shelx_shelxl_version_number     2016/6
_shelx_space_group_comment
;
The symmetry employed for this shelxl refinement is uniquely defined
by the following loop, which should always be used as a source of
symmetry information in preference to the above space-group names.
They are only intended as comments.
;
_olex2_refinement_description
;
1. Fixed Uiso
 At 1.2 times of:
  All C(H) groups, All N(H,H) groups
2.a Aromatic/amide H refined with riding coordinates:
 C8(H8), C7(H7), C5(H5), C3(H3), C6(H6), C2(H2)
2.b X=CH2 refined with riding coordinates:
 N1(H1A,H1B)
;
_shelx_res_file
;
TITL id_pkm36_0m_a.res in P2(1)/c
    id_pkm36_0m.res
    created by SHELXL-2016/6 at 14:59:40 on 02-Jun-2017
REM Old TITL
REM SHELXT solution in P2(1)/c
REM R1 0.189, Rweak 0.003, Alpha 0.025, Orientation a'=c, b'=-b, c'=a
REM Formula found by SHELXT: C9 Cl N O
CELL 0.71073 11.0291 9.0574 9.072 90 108.102 90
ZERR 4 0.0147 0.0121 0.0123 0 0.02 0
LATT 1
SYMM -X,0.5+Y,0.5-Z
SFAC C H Cl N O
UNIT 36 32 4 4 4

L.S. 20
PLAN  20
TEMP 23
BOND $H
list 4
fmap 2
acta
REM <olex2.extras>
REM <HklSrc "%.\\ID_PKM36_0m.hkl">
REM </olex2.extras>

WGHT    0.084000    0.091000
FVAR       0.51571
CL1   3    0.939254    0.477226    0.144336    11.00000    0.09642    0.06868 =
         0.06384    0.01065    0.05667    0.01704
O1    5    0.574485    0.597162    0.871477    11.00000    0.08272    0.03842 =
         0.05142   -0.00576    0.04157   -0.00683
N1    4    0.486532    0.369890    0.837330    11.00000    0.06591    0.03774 =
         0.05145   -0.00089    0.03650   -0.00468
AFIX  93
H1A   2    0.454300    0.383237    0.911303    11.00000   -1.20000
H1B   2    0.474402    0.287806    0.787208    11.00000   -1.20000
AFIX   0
C4    1    0.753035    0.515474    0.521502    11.00000    0.04514    0.03950 =
         0.03683   -0.00206    0.01948   -0.00107
C8    1    0.609352    0.443820    0.676398    11.00000    0.05429    0.03639 =
         0.03957   -0.00220    0.02098   -0.00132
AFIX  43
H8    2    0.585968    0.356648    0.620614    11.00000   -1.20000
AFIX   0
C7    1    0.691110    0.534369    0.640055    11.00000    0.05200    0.03713 =
         0.03993   -0.00162    0.01936    0.00005
AFIX  43
H7    2    0.711013    0.620693    0.698093    11.00000   -1.20000
AFIX   0
C5    1    0.813240    0.635737    0.477595    11.00000    0.06130    0.03524 =
         0.04364   -0.00396    0.02972   -0.00436
AFIX  43
H5    2    0.814159    0.726034    0.526735    11.00000   -1.20000
AFIX   0
C9    1    0.555369    0.476550    0.800319    11.00000    0.04985    0.03552 =
         0.04580    0.00462    0.01967    0.00354
C3    1    0.755792    0.381336    0.445861    11.00000    0.05965    0.03746 =
         0.04764   -0.00277    0.02438   -0.00869
AFIX  43
H3    2    0.717147    0.298892    0.472970    11.00000   -1.20000
AFIX   0
C1    1    0.869376    0.491267    0.290166    11.00000    0.05076    0.05008 =
         0.03836    0.00538    0.02517    0.00886
C6    1    0.870488    0.624907    0.365356    11.00000    0.05678    0.04005 =
         0.04919    0.00428    0.02448   -0.00207
AFIX  43
H6    2    0.910290    0.706766    0.338989    11.00000   -1.20000
AFIX   0
C2    1    0.813385    0.368128    0.333834    11.00000    0.06874    0.04091 =
         0.05041   -0.00887    0.03368   -0.00284
AFIX  43
H2    2    0.815291    0.277317    0.286763    11.00000   -1.20000
AFIX   0
HKLF 4




REM  id_pkm36_0m_a.res in P2(1)/c
REM R1 =  0.0457 for     888 Fo > 4sig(Fo)  and  0.0747 for all    1324 data
REM    109 parameters refined using      0 restraints

END

WGHT      0.0842      0.0914

REM Highest difference peak  0.180,  deepest hole -0.250,  1-sigma level  0.046
Q1    1   0.9474  0.5867  0.1371  11.00000  0.05    0.18
Q2    1   0.7623  0.5017  0.5669  11.00000  0.05    0.17
Q3    1   0.8599  0.4753  0.1084  11.00000  0.05    0.17
Q4    1   0.8604  0.5813  0.2802  11.00000  0.05    0.16
Q5    1   0.7495  0.7349  0.4804  11.00000  0.05    0.15
Q6    1   0.4881  0.5748  0.9118  11.00000  0.05    0.15
Q7    1   0.4850  0.6120  0.8925  11.00000  0.05    0.15
Q8    1   0.6875  0.5268  0.5422  11.00000  0.05    0.15
Q9    1   0.7636  0.5983  0.5102  11.00000  0.05    0.14
Q10   1   0.7467  0.4691  0.4636  11.00000  0.05    0.14
Q11   1   0.5672  0.5103  0.8798  11.00000  0.05    0.14
Q12   1   0.9453  0.3644  0.1322  11.00000  0.05    0.14
Q13   1   0.8889  0.4777 -0.0972  11.00000  0.05    0.13
Q14   1   1.0392  0.4747  0.1235  11.00000  0.05    0.13
Q15   1   1.0173  0.5746  0.5088  11.00000  0.05    0.13
Q16   1   0.6838  0.4746  0.6748  11.00000  0.05    0.13
Q17   1   0.8640  0.3938  0.2868  11.00000  0.05    0.13
Q18   1   0.8975  0.3966 -0.0597  11.00000  0.05    0.12
Q19   1   0.6011  0.5164  0.6638  11.00000  0.05    0.12
Q20   1   0.6262  0.2913  0.7234  11.00000  0.05    0.12
;
_shelx_res_checksum              49966
_shelx_hkl_file
;
   0   0   1    0.01    0.08
   0   1  -1  169.78    1.73
   0   1   1  171.18    1.68
   0  -1   1  171.21    1.72
   0   1   2    2.45    0.23
   0   1   3  704.38    6.49
   0   1   4    9.17    0.54
   0   1   5  173.49    2.42
   0   2   0 4947.77   42.04
   0   2   1   14.58    0.43
   0  -2   1   16.21    0.52
   0   2   2  250.59    2.58
   0   2  -2  247.27    2.69
   0  -2   2  249.48    2.66
   0   2   3   86.65    1.30
   0   2   4  214.26    2.61
   0   2   5    0.50    0.30
   0   3   0   -0.13    0.18
   0   3  -1  183.37    2.18
   0   3   1  182.04    2.16
   0   3  -2  102.11    1.56
   0   3   2  102.45    1.45
   0  -3   2  103.02    1.55
   0   3   3   57.17    1.07
   0   3   4    1.87    0.31
   0   3   5    8.15    0.62
   0   3   6   73.04    1.56
   0   3   7   13.48    0.97
   0   3   8    0.76    0.64
   0   4   0    4.73    0.44
   0   4   1   89.14    1.46
   0   4  -1   88.83    1.43
   0   4  -2   91.04    1.62
   0   4   2   93.48    1.50
   0  -4   2   90.73    1.60
   0   4  -3  131.98    2.09
   0   4   3  134.25    1.94
   0   4   4   14.47    0.68
   0   4   5   31.50    0.99
   0   4   6    2.21    0.50
   0   4   7    9.71    0.81
   0   4   8    0.53    0.59
   0   4   9   24.81    1.47
   0   5   0    0.07    0.27
   0   5   1    3.28    0.42
   0   5  -1    3.99    0.45
   0   5   2   90.62    1.64
   0   5  -2   91.02    1.60
   0  -5   2   90.49    1.66
   0   5   3   17.53    0.77
   0   5  -3   19.22    0.99
   0  -5   3   19.35    0.96
   0   5   4   33.97    1.04
   0   5   5    0.47    0.37
   0   5   6   11.71    0.91
   0   5   7    1.17    0.58
   0   5   8    5.73    0.79
   0   5   9    6.79    0.99
   0   6   0  113.41    1.97
   0   6   1   24.08    0.95
   0   6  -1   23.72    0.93
   0   6   2    4.48    0.52
   0   6  -2    5.03    0.55
   0   6  -3   40.30    1.38
   0   6   3   41.44    1.21
   0  -6   3   41.39    1.33
   0   6  -4    2.38    0.73
   0   6   4    1.59    0.42
   0   6   5   34.44    1.26
   0   6  -6   20.87    1.41
   0   6   6   20.76    1.14
   0  -6   6   20.47    1.49
   0   6   7    3.34    0.70
   0   6   8    0.00    0.68
   0   6   9   24.44    1.54
   0   7   0   -0.59    0.37
   0   7   1   18.28    0.97
   0   7  -1   18.56    0.97
   0   7  -2    3.25    0.57
   0   7   2    2.62    0.51
   0   7   3   44.63    1.44
   0   7  -3   44.91    1.42
   0  -7   3   44.66    1.52
   0   7   4   -0.50    0.41
   0  -7   4   -0.57    0.71
   0   7   5    0.03    0.47
   0  -7   5   -0.43    0.82
   0   7  -6   -0.15    0.83
   0   7   6   -0.94    0.54
   0   7   7   -0.29    0.61
   0  -7   7    0.53    1.10
   0   7   8    1.39    0.78
   0   8   0  217.46    3.43
   0   8  -1    2.17    0.59
   0   8   1    2.45    0.64
   0   8  -2    0.37    0.51
   0   8   2    0.63    0.50
   0   8  -3    3.36    0.71
   0   8   3    3.22    0.65
   0   8  -3    2.01    0.83
   0   8  -4    0.00    0.84
   0   8   4    0.30    0.53
   0   8  -4    1.00    0.63
   0  -8   4    0.55    0.81
   0   8  -5    8.77    0.97
   0   8   5    8.53    0.89
   0   8   6   17.22    1.33
   0   8   7   -0.42    0.69
   0   8  -7    0.44    1.07
   0   8   8    0.52    0.82
   0   9   0    0.13    0.64
   0   9  -1   -0.02    0.58
   0   9   1   -0.66    0.54
   0   9  -2    5.77    0.89
   0   9   2    6.67    0.89
   0   9  -3   24.93    1.52
   0   9   3   21.38    1.36
   0   9   4    6.40    0.91
   0   9  -4    6.78    1.01
   0   9  -5    0.28    0.81
   0   9  -5    0.55    1.00
   0   9   5   -0.31    0.68
   0   9   6    5.57    0.96
   0   9  -6    5.23    1.09
   0  -9   6    5.95    1.16
   0   9  -7    3.98    1.09
   0   9   7    3.45    0.95
   0  10   0    0.43    0.71
   0  10  -1    4.12    0.90
   0  10   1    3.50    0.87
   0  10  -2    0.14    0.67
   0  10   2   -0.29    0.68
   0  10  -3    2.59    0.84
   0  10   3    2.16    0.84
   0  10  -4    0.27    0.91
   0  10   4    0.49    0.73
   0  10   5   -0.07    0.77
   0  10  -5    0.28    1.12
   0  10  -5    0.17    0.92
   0  11   0   -0.64    0.82
   0  11   1    8.31    1.23
   0  11  -1    7.96    1.17
   0  11  -2    0.52    0.86
   0  11   2    0.62    0.81
   0  11   3    2.13    0.91
   0  11  -3    2.01    0.93
   1   0   1   -1.77    0.14
   1   0   2    1.48    0.26
  -1   1   4    9.49    0.50
  -1   1   3   23.11    0.58
  -1   1   2    1.73    0.17
   1   1  -1   95.63    1.07
  -1  -1   1   96.10    1.06
   1   1   0    2.24    0.18
   1   1   1   24.23    0.49
   1   1   2  145.76    1.77
   1   1   3    0.51    0.25
   1   1   4    9.86    0.62
  -1   2   6   63.66    1.38
  -1   2   5   12.46    0.63
  -1   2   4   56.84    1.06
  -1   2   3    0.07    0.16
   1   2  -2  289.90    2.99
  -1   2   2  291.85    2.83
   1   2  -1  119.56    1.43
  -1   2   1  118.66    1.36
   1   2  -1  119.32    1.40
   1   2   0   87.71    1.16
   1   2   1  141.43    1.70
  -1   2  -1  143.93    1.72
   1  -2   1  144.65    1.69
   1   2   2  144.05    1.77
   1  -2   2  144.85    1.81
   1   2   3  155.89    2.02
   1   2   4   39.71    1.03
   1   2   5   12.49    0.74
   1   2   6    3.50    0.55
  -1   3   8    9.89    0.84
  -1   3   7  378.62    4.43
  -1   3   6    2.80    0.44
  -1   3   5    3.48    0.40
  -1   3   4   -0.03    0.20
  -1   3   3  134.30    1.72
  -1  -3   3  131.39    1.89
  -1   3   2    0.21    0.17
   1   3  -2    0.31    0.33
  -1  -3   2   -0.01    0.33
   1   3  -1  920.54    8.28
  -1   3   1  926.55    8.24
   1   3   0    0.07    0.22
  -1   3   0    0.59    0.21
  -1   3  -1  190.11    2.25
   1   3   1  188.06    2.24
   1  -3   1  189.07    2.21
  -1   3  -2   64.26    1.24
   1   3   2   66.08    1.16
   1  -3   2   64.93    1.21
   1   3   3  687.20    6.62
   1   3   4    5.34    0.48
   1   3   5   35.00    1.06
   1   3   6   -0.07    0.41
   1   3   7   33.82    1.31
   1   3   8   31.26    1.50
  -1   4   9   -0.61    0.64
  -1   4   8   37.64    1.38
  -1   4   7   30.25    1.15
  -1   4   6   46.74    1.26
  -1   4   5   11.95    0.67
  -1   4   4  280.75    3.22
  -1   4   3   13.63    0.58
   1   4  -3   14.21    0.78
   1   4  -2  727.66    6.86
  -1   4   2  713.73    6.83
   1   4  -2  720.85    6.93
  -1   4   1   96.96    1.50
   1   4  -1  101.14    1.57
   1   4   0  320.21    3.50
  -1   4   0  313.56    3.37
   1   4   1   23.42    0.78
   1   4   2  176.36    2.35
   1  -4   2  173.27    2.35
   1   4   3    1.07    0.32
   1   4   4   32.55    1.01
   1   4   5    2.21    0.44
   1   4   6    0.80    0.49
   1   4   7    0.40    0.52
   1   4   8   74.11    1.99
   1   4   9    0.77    0.79
  -1   5   9   -0.60    0.71
  -1   5   8    0.63    0.56
  -1   5   7  165.10    2.74
  -1   5   6    4.00    0.56
  -1   5   5    4.14    0.49
   1   5  -5    2.95    0.68
  -1   5   4   -0.10    0.25
   1   5  -4   -0.94    0.43
  -1  -5   4   -0.56    0.53
   1   5  -3   41.47    1.23
  -1   5   3   40.30    1.07
  -1  -5   3   40.13    1.20
   1   5  -2    1.23    0.37
  -1   5   2    1.26    0.34
  -1   5   1  145.47    2.10
   1   5  -1  142.79    2.12
   1   5   0    8.36    0.60
  -1   5   0    8.02    0.55
   1   5   1  174.43    2.48
  -1   5  -1  171.04    2.35
  -1   5  -2   24.13    1.02
   1   5   2   24.11    0.87
   1  -5   2   24.09    0.95
   1   5   3  213.87    2.89
  -1   5  -3  213.07    3.00
   1  -5   3  205.27    2.90
   1   5   4    0.84    0.39
   1  -5   4    0.78    0.55
   1   5   5   64.60    1.60
   1   5   6    7.94    0.78
   1   5   7   20.26    1.27
   1   5   8   -0.54    0.60
   1   5   9    5.65    0.98
  -1   6   9    0.55    0.73
  -1   6   8    0.81    0.65
  -1   6   7    0.99    0.58
  -1   6   6   31.50    1.24
   1   6  -6   31.20    1.51
  -1  -6   6   30.78    1.49
  -1   6   5   25.01    1.04
   1   6  -5   23.76    1.36
  -1  -6   5   23.90    1.32
  -1   6   4   70.01    1.57
   1   6  -3    6.55    0.63
  -1   6   3    6.37    0.57
  -1  -6   3    8.24    0.74
   1   6  -2   24.96    0.99
  -1   6   2   24.46    0.97
   1   6  -1  217.35    3.01
  -1   6   1  205.18    2.89
   1   6   0  125.04    2.14
  -1   6   0  121.43    2.06
  -1   6  -1    6.08    0.57
   1   6   1    6.53    0.60
  -1   6  -2    0.08    0.34
   1   6   2    0.95    0.36
  -1   6  -3   31.25    1.30
   1   6   3   32.02    1.13
   1  -6   3   30.77    1.28
   1   6   4    6.75    0.69
  -1   6  -4    8.44    0.92
   1   6   5    0.95    0.46
   1   6   6   -0.07    0.46
   1   6   7    2.25    0.68
   1   6   8    7.06    0.93
   1   6   9    3.49    0.87
  -1   7   9    0.58    0.80
  -1   7   8    2.97    0.78
  -1   7   7    0.25    0.57
  -1   7   6    8.29    0.84
  -1  -7   6    9.36    1.08
   1   7  -5    2.94    0.86
  -1   7   5    2.74    0.56
  -1  -7   5    3.00    0.84
   1   7  -4   17.86    1.05
  -1   7   4   20.73    1.03
   1   7  -4   17.84    1.33
  -1   7   3   -0.23    0.38
   1   7  -3   -0.20    0.58
   1   7  -3   -0.14    0.45
   1   7  -2   11.32    0.87
  -1   7   2   11.52    0.89
   1   7  -1   64.75    1.62
  -1   7   1   64.63    1.60
  -1   7   0    3.17    0.57
   1   7   0    3.49    0.57
  -1   7  -1   21.96    1.04
   1   7   1   20.56    1.02
  -1   7  -2  101.78    2.04
   1   7   2  104.07    2.12
  -1   7  -3   12.13    0.90
   1   7   3   12.31    0.90
   1  -7   3   11.63    1.06
  -1   7  -4    0.04    0.75
   1   7   4    0.41    0.46
  -1   7  -5   31.61    1.70
   1   7   5   32.06    1.39
   1  -7   5   32.54    1.65
   1   7   6    8.15    0.93
  -1   7  -6   12.71    1.31
   1   7   7    4.29    0.85
   1   7   8    0.29    0.80
  -1   8   8   -0.02    0.82
   1   8  -7    7.51    1.25
  -1   8   7    7.02    0.93
  -1   8   6    6.17    0.86
   1   8  -6    9.03    1.03
  -1  -8   6    7.38    1.18
  -1   8   5   27.69    1.37
   1   8  -5   30.01    1.64
   1   8  -5   26.05    1.40
  -1  -8   5   29.35    1.54
   1   8  -4    4.42    0.80
  -1   8   4    3.39    0.68
   1   8  -4    3.52    0.91
  -1  -8   4    4.71    0.90
   1   8  -3    0.52    0.60
  -1   8   3    0.11    0.48
  -1  -8   3    0.34    0.70
  -1   8   2   21.53    1.20
   1   8  -2   18.41    1.18
  -1   8   1  209.26    3.31
   1   8  -1  206.76    3.35
  -1   8   0   18.91    1.10
   1   8   0   17.19    1.14
  -1   8  -1    5.09    0.72
   1   8   1    5.82    0.77
   1   8   2   32.96    1.38
  -1   8  -2   34.60    1.36
   1   8   3    6.05    0.77
  -1   8  -3    6.01    0.80
  -1   8  -4   -0.58    0.82
  -1   8  -4    1.36    0.64
   1   8   4    0.25    0.53
   1   8   5   12.99    1.09
   1   8   6   -0.29    0.70
   1  -8   6    0.60    1.07
   1   8   7    2.10    0.82
  -1   8  -7    2.60    1.18
  -1   9   7    0.74    0.88
   1   9  -7    2.17    1.06
   1   9  -7    1.15    1.16
  -1  -9   7    4.07    1.28
  -1   9   6    9.37    1.10
   1   9  -6   10.84    1.27
  -1  -9   6   12.58    1.36
  -1   9   5   -0.25    0.61
   1   9  -5    1.45    0.97
   1   9  -5   -0.40    0.79
  -1   9   4   21.22    1.35
   1   9  -4   23.70    1.58
  -1  -9   4   24.18    1.56
   1   9  -3   10.21    1.02
  -1   9   3   11.91    1.04
   1   9  -2   18.84    1.30
  -1   9   2   18.08    1.26
  -1   9   1   36.96    1.56
   1   9  -1   37.95    1.63
  -1   9   0   -0.56    0.57
   1   9   0   -0.54    0.56
  -1   9  -1   -0.15    0.64
   1   9   1   -0.37    0.58
  -1   9  -2  113.90    2.55
   1   9   2  112.36    2.55
   1   9   3   13.62    1.14
  -1   9  -3   12.38    1.10
   1   9   4    1.03    0.67
  -1   9  -4    0.06    0.98
  -1   9  -4    0.48    0.72
   1  -9   4    0.88    0.95
   1   9   5    2.04    0.76
  -1   9  -5    2.90    0.86
  -1   9  -5    2.14    1.11
   1   9   6    1.50    0.86
  -1   9  -6    2.96    0.97
   1  -9   6    0.19    1.18
  -1  10   6    0.43    0.84
   1  10  -6    0.17    1.05
  -1 -10   6    2.15    1.19
   1  10  -5    3.45    1.13
  -1  10   5    2.65    0.90
   1  10  -5    2.77    1.18
  -1  10   4    0.80    0.75
   1  10  -4    0.78    0.88
  -1  10   3    0.69    0.70
   1  10  -3    0.44    0.87
   1  10  -2    0.77    0.79
  -1  10   2    0.57    0.66
  -1  10   1   46.74    1.88
   1  10  -1   48.77    1.94
   1  10   0   -0.62    0.69
  -1  10   0    0.18    0.72
   1  10   1    1.59    0.77
  -1  10  -1    0.71    0.73
   1  10   2   10.53    1.12
  -1  10  -2    8.77    1.11
  -1  10  -3    1.19    0.83
   1  10   3   -0.03    0.67
   1  10   4    0.47    0.79
  -1  10  -4    3.63    0.98
   1 -10   4    5.08    1.11
  -1  10  -5    1.57    1.26
  -1  10  -5    3.54    1.05
   1  10   5    3.72    0.97
   1  11  -4    1.54    1.14
  -1  11   4    1.62    0.90
  -1  11   3    4.16    0.98
   1  11  -3    5.10    1.08
  -1  11   2    6.40    1.08
   1  11  -2    8.21    1.19
  -1  11   1    0.84    0.84
   1  11  -1   -0.15    0.85
   1  11   0    1.02    0.85
  -1  11   0   -0.18    0.82
  -1  11  -1    0.08    0.86
   1  11   1    0.71    0.77
  -1  11  -2   12.58    1.29
   1  11   2   11.47    1.30
   1  11   3    0.98    0.86
  -1  11  -3    1.03    0.94
  -2   0   0   49.98    0.61
   2   0   0   47.27    0.67
   2   0   0   49.74    0.61
   2   0   1   -2.83    0.20
   2   0   2 1285.11   11.37
  -2   1   4   15.23    0.53
   2   1  -1   62.62    0.80
   2   1  -1   63.05    0.79
  -2  -1   1   62.58    0.79
   2   1   0    0.44    0.16
   2  -1   0    0.42    0.16
   2   1   1 9999.00   84.52
   2   1   2  158.96    2.00
   2   1   3  161.88    2.17
   2   1   4   48.33    1.21
  -2   2   6  160.90    2.25
  -2   2   5   19.71    0.68
  -2   2   4  135.84    1.72
   2   2  -1   37.73    0.71
   2   2  -1   36.98    0.68
  -2  -2   1   37.15    0.69
   2   2   0  178.40    2.01
  -2   2  -1 1029.62    8.89
   2   2   1  967.32    8.88
   2  -2   1 1010.56    8.82
   2   2   2   10.03    0.51
   2   2   3   55.29    1.17
   2   2   4   54.10    1.30
   2   2   5    5.17    0.59
   2   2   6    4.54    0.65
  -2   3   7   10.56    0.75
  -2   3   6   19.27    0.79
  -2   3   5   40.10    0.96
  -2   3   4   82.87    1.28
  -2   3   3    4.15    0.31
   2   3  -3    4.71    0.48
   2   3  -2  170.64    2.11
   2   3  -2  173.33    2.08
  -2   3   2  169.34    1.96
  -2  -3   2  169.46    2.07
  -2   3   1  184.80    2.07
   2   3  -1  186.87    2.22
   2   3   0   74.00    1.25
   2   3   1  308.85    3.38
  -2   3  -2  124.34    1.85
   2   3   2  124.55    1.82
   2  -3   2  125.32    1.82
   2   3   3   90.76    1.56
  -2   3  -3   85.12    1.60
   2  -3   3   86.79    1.58
   2   3   4   72.81    1.49
   2   3   5   15.38    0.89
   2   3   6    4.61    0.64
   2   3   7   15.32    1.15
   2   3   8    0.64    0.73
  -2   4   9   -0.46    0.60
  -2   4   8   70.85    1.72
  -2   4   7    2.07    0.50
  -2   4   6   12.81    0.74
  -2   4   5   63.84    1.28
  -2   4   4    3.00    0.34
  -2   4   3   41.77    0.92
  -2  -4   3   41.86    1.07
  -2   4   2  178.35    2.23
   2   4  -2  178.92    2.32
   2   4  -2  179.49    2.33
  -2  -4   2  176.46    2.29
  -2   4   1   75.10    1.26
   2   4  -1   76.16    1.38
  -2   4   0   46.37    0.96
   2   4   0   47.35    1.09
   2   4   1    7.89    0.56
   2   4   2   52.00    1.18
   2  -4   2   50.45    1.21
   2   4   3   83.36    1.57
  -2   4  -3   80.55    1.64
   2  -4   3   82.37    1.63
  -2   4  -4    2.43    0.57
   2   4   4    2.67    0.46
   2   4   5    3.13    0.52
   2   4   6    0.86    0.55
   2   4   7   16.62    1.17
   2   4   8    1.40    0.72
   2   4   9    2.01    0.89
  -2   5   9    6.07    1.18
  -2   5   8   99.01    2.08
  -2   5   7    1.47    0.50
  -2   5   6   26.98    1.00
  -2  -5   6   22.81    1.28
  -2   5   5   13.07    0.73
   2   5  -4   51.74    1.39
  -2   5   4   52.40    1.17
  -2  -5   4   51.66    1.38
   2   5  -3   13.84    0.75
  -2   5   3   13.70    0.63
  -2  -5   3   13.66    0.85
  -2   5   2  193.02    2.55
   2   5  -2  187.69    2.61
  -2   5   1   14.04    0.64
   2   5  -1   13.77    0.70
   2   5   0   43.50    1.16
  -2   5   0   42.73    1.03
   2   5   1   18.00    0.80
   2   5   2   13.92    0.74
  -2   5  -2   14.17    0.88
   2  -5   2   13.85    0.83
   2   5   3   28.48    1.04
  -2   5  -3   28.36    1.15
   2  -5   3   29.33    1.11
   2   5   4    6.53    0.65
  -2   5  -4    7.80    0.86
   2   5   5    5.49    0.68
   2   5   6    5.86    0.76
   2   5   7    4.92    0.85
   2   5   8    1.86    0.70
   2   5   9    0.24    0.85
  -2   6   8   11.34    0.99
  -2   6   7    1.61    0.53
  -2   6   6    0.75    0.46
   2   6  -6    0.85    0.72
  -2  -6   6    0.30    0.78
  -2   6   5   17.25    0.87
   2   6  -5   15.80    1.15
  -2  -6   5   16.16    1.16
  -2   6   4    0.44    0.28
   2   6  -4    0.63    0.44
  -2  -6   4   -0.06    0.57
   2   6  -3   -0.12    0.40
  -2   6   3    0.58    0.34
   2   6  -2   22.30    0.95
  -2   6   2   20.57    0.89
  -2   6   1    5.41    0.54
   2   6  -1    4.56    0.55
   2   6   0    0.09    0.36
  -2   6   0    0.64    0.40
   2   6   1   20.90    0.94
  -2   6  -1   20.85    0.85
  -2   6  -2   24.14    1.14
   2   6   2   22.47    1.02
   2   6   3   20.59    1.01
  -2   6  -3   20.62    1.20
  -2   6  -4   14.81    1.23
   2   6   4   16.09    0.99
   2   6   5    5.84    0.80
   2  -6   5    6.90    0.99
   2   6   6   -0.16    0.55
  -2   6  -6    0.59    0.84
   2   6   7    0.43    0.70
   2   6   8   -0.09    0.72
  -2   7   7    2.16    0.64
  -2   7   6   10.24    0.87
   2   7  -6    9.93    1.12
  -2   7   5   28.38    1.19
   2   7  -5   27.98    1.31
   2   7  -5   26.66    1.51
   2   7  -4   19.34    1.12
  -2   7   4   21.87    1.02
  -2  -7   4   18.67    1.27
   2   7  -3   15.81    1.03
  -2   7   3   17.31    0.93
  -2  -7   3   17.30    1.09
   2   7  -2   20.19    1.06
  -2   7   2   20.59    1.02
   2   7  -1   16.46    1.00
  -2   7   1   15.17    0.92
   2   7   0    4.61    0.65
  -2   7   0    5.31    0.66
   2   7   1  155.97    2.70
  -2   7  -1  155.37    2.53
   2   7   2    3.00    0.61
  -2   7  -2    3.30    0.59
   2   7   3    7.37    0.79
  -2   7  -4    0.64    0.79
   2   7   4   -0.14    0.53
   2  -7   4    3.33    0.88
   2   7   5    8.68    0.93
  -2   7  -5    9.05    1.17
   2   7   6    6.86    0.89
   2  -7   6    4.97    1.24
   2   7   7    6.90    1.02
   2   7   8    0.83    0.86
  -2   8   7   -0.89    0.70
   2   8  -7    1.11    0.86
  -2  -8   7    1.04    1.12
  -2   8   6    1.88    0.69
   2   8  -6    2.74    0.84
  -2  -8   6    2.77    1.02
   2   8  -5    0.30    0.81
   2   8  -5    0.27    0.69
  -2   8   5    0.26    0.55
  -2  -8   5   -0.56    0.84
   2   8  -4   11.82    1.13
  -2   8   4   11.20    0.92
   2   8  -4   11.55    1.04
  -2   8   3    5.81    0.73
   2   8  -3    5.44    0.77
   2   8  -2   14.41    1.07
  -2   8   2   14.23    1.05
   2   8  -1    2.17    0.65
  -2   8   1    3.73    0.69
  -2   8   0    1.34    0.58
   2   8   0    0.79    0.57
  -2   8  -1    4.15    0.71
   2   8   1    4.49    0.72
   2   8   2   29.52    1.34
  -2   8  -2   28.79    1.32
  -2   8  -3    1.22    0.83
   2   8   3   -0.07    0.53
  -2   8  -3    0.59    0.61
   2   8   4   18.61    1.31
   2   8   5    2.46    0.80
   2   8   6   -0.81    0.75
  -2   8  -6   -1.26    1.07
   2  -8   6   -0.09    1.08
   2   8   7    2.19    0.89
   2  -8   7    0.47    1.63
   2   9  -7    1.02    1.15
   2   9  -7    0.67    0.96
  -2  -9   7    2.78    1.24
   2   9  -6    0.69    1.01
   2   9  -6    0.19    0.89
  -2   9   6   -0.01    0.70
  -2  -9   6    1.14    1.06
  -2   9   5    5.82    0.85
   2   9  -5    5.59    1.10
   2   9  -5    4.88    0.98
   2   9  -4    2.48    0.80
  -2   9   4    4.04    0.77
  -2  -9   4    2.15    0.92
   2   9  -3    1.76    0.80
  -2   9   3    1.63    0.68
  -2   9   2    0.46    0.60
   2   9  -2   -0.55    0.65
   2   9  -1    8.25    1.01
  -2   9   1    6.36    0.87
   2   9   0    1.82    0.74
  -2   9   0    2.34    0.72
  -2   9  -1   36.96    1.59
   2   9   1   37.58    1.56
  -2   9  -2   10.72    1.06
   2   9   2   11.71    1.07
  -2   9  -3    1.50    0.74
   2   9   3    0.78    0.68
  -2   9  -4    7.29    1.01
   2   9   4    6.51    0.98
  -2   9  -4    5.72    1.25
   2  -9   4    7.66    1.14
  -2   9  -5    0.83    1.12
  -2   9  -5    0.92    0.83
   2   9   5   -0.28    0.75
   2   9   6    2.30    0.99
   2  10  -6    3.70    1.19
  -2  10   5    6.00    0.98
   2  10  -5    6.72    1.17
   2  10  -4   -0.12    0.89
  -2  10   4    1.44    0.74
   2  10  -3    0.04    0.81
  -2  10   3   -0.13    0.67
  -2  10   2   12.78    1.19
   2  10  -2   13.48    1.31
   2  10  -1    1.59    0.83
  -2  10   1    1.91    0.80
  -2  10   0    1.69    0.78
   2  10   0    0.63    0.79
  -2  10  -1   13.92    1.20
   2  10   1   12.10    1.20
  -2  10  -2    4.87    0.91
   2  10   2    3.88    0.89
  -2  10  -3   -1.15    0.83
   2  10   3    1.60    0.78
  -2  10  -4    2.00    0.97
   2  10   4    2.26    0.89
   2 -10   4    5.29    1.22
   2  10   5   -0.14    0.89
  -2  10  -5   -0.26    1.20
  -2  10  -5    0.29    0.94
  -2  11   4   -0.30    0.86
   2  11  -4    0.44    0.98
   2  11  -3    4.21    1.18
  -2  11   3    3.02    0.94
  -2  11   2    2.13    0.86
   2  11  -2    2.22    1.07
  -2  11   1   -0.59    0.79
   2  11  -1   -0.14    0.93
  -2  11   0    4.99    1.09
   2  11   0    5.90    1.16
  -2  11  -1    3.91    1.03
   2  11   1    5.00    1.02
  -2  11  -2    6.23    1.14
   2  11   2    7.87    1.22
  -2  11  -3    0.02    0.88
   2  11   3   -0.22    0.85
   3   0  -1   -0.05    0.16
   3   0   0  715.28    6.19
  -3   0   0  708.53    6.21
   3   0   1    0.07    0.25
   3   0   2   80.23    1.41
   3   1  -1    2.08    0.22
  -3  -1   1    1.96    0.21
   3   1   0   96.55    1.24
  -3   1   0   99.08    1.18
  -3  -1   0  101.00    1.12
   3  -1   0   99.27    1.16
   3   1   1  115.48    1.54
   3  -1   1  116.91    1.40
   3   1   2   30.07    0.87
   3   1   3   30.92    0.96
   3   1   4   92.79    1.81
   3   1   5   13.94    0.98
  -3   2   6  377.08    4.03
   3   2  -2   51.16    0.87
   3   2  -2   51.90    0.87
  -3  -2   2   51.17    0.87
   3   2  -1   58.02    0.88
   3   2  -1   56.84    0.96
  -3  -2   1   57.19    0.88
   3   2   0  121.79    1.61
  -3   2   0  123.83    1.51
   3   2   1   52.97    1.01
   3  -2   1   52.28    0.94
   3   2   2   43.62    1.02
   3   2   3    3.93    0.48
   3   2   4  114.33    1.99
   3   2   5    0.17    0.45
   3   2   6    5.15    0.72
  -3   3   7   10.87    0.74
  -3   3   6   48.23    1.10
  -3   3   5   18.20    0.64
   3   3  -3  340.40    3.57
   3   3  -3  338.40    3.64
  -3  -3   3  341.64    3.62
   3   3  -2    8.43    0.51
   3   3  -2    8.06    0.51
  -3  -3   2    9.20    0.53
   3   3  -1  251.52    2.83
   3   3   0    2.40    0.35
   3   3   1   38.03    0.94
  -3   3  -1   38.47    0.93
  -3   3  -2   48.05    1.15
   3   3   2   49.94    1.12
   3  -3   2   49.41    1.12
   3   3   3   22.84    0.90
   3   3   4   50.33    1.36
   3   3   5    1.23    0.52
   3   3   6    0.73    0.53
   3   3   7    0.25    0.62
  -3   4   8    0.75    0.73
  -3   4   7    1.15    0.43
  -3   4   6  647.97    6.45
  -3   4   5   17.72    0.68
  -3  -4   5   18.56    0.95
  -3   4   4   56.99    1.07
   3   4  -4   59.62    1.33
   3   4  -3    2.29    0.46
   3   4  -3    2.98    0.42
  -3   4   3    2.85    0.31
   3   4  -2   24.13    0.80
   3   4  -2   23.32    0.80
  -3   4   2   22.79    0.68
  -3   4   1   -0.10    0.24
   3   4  -1   -0.34    0.28
   3   4   0  441.42    4.70
   3   4   1   12.09    0.67
   3  -4   1   12.04    0.68
  -3   4  -2   40.02    1.15
   3   4   2   40.30    1.12
  -3   4  -3    3.11    0.58
   3   4   3    2.22    0.44
   3   4   4  144.84    2.42
   3   4   5    1.35    0.49
   3   4   6    9.43    0.89
   3   4   7   -0.46    0.58
   3   4   8    4.02    0.86
  -3   5   7    3.26    0.56
  -3   5   6   75.22    1.51
  -3  -5   6   75.85    1.81
  -3   5   5   25.58    0.87
  -3   5   4   30.79    0.88
   3   5  -4   31.95    1.11
   3   5  -4   31.77    1.08
  -3  -5   4   30.74    1.12
   3   5  -3  190.40    2.66
   3   5  -3  193.01    2.69
  -3   5   3  187.86    2.46
  -3  -5   3  189.11    2.60
   3   5  -2   29.09    1.02
  -3   5   2   30.32    0.88
   3   5  -1  131.40    2.12
  -3   5   1  130.03    1.91
  -3   5   0  361.30    3.93
   3   5   0  361.94    4.25
   3   5   1  101.33    1.85
   3   5   2    7.96    0.68
   3  -5   2    9.04    0.70
   3   5   3    8.60    0.74
   3  -5   3    8.88    0.83
   3   5   4   31.70    1.24
  -3   5  -4   35.15    1.40
   3   5   5    1.06    0.53
   3   5   6    4.20    0.77
   3   5   7    0.37    0.67
   3   5   8   -0.75    0.68
   3   5   9   -0.05    0.89
  -3   6   6   66.01    1.58
   3   6  -6   66.78    1.84
  -3  -6   6   69.43    1.84
  -3   6   5   17.77    0.87
   3   6  -5   17.94    1.06
   3   6  -4   11.31    0.88
   3   6  -4   12.95    0.94
  -3   6   4   11.32    0.72
  -3  -6   4   11.02    0.92
  -3   6   3   34.93    1.04
   3   6  -3   32.71    1.19
   3   6  -3   33.07    1.22
  -3  -6   3   34.33    1.19
  -3   6   2   17.26    0.81
   3   6  -2   17.72    0.91
   3   6  -1    0.42    0.40
  -3   6   1    0.51    0.35
   3   6   0    2.71    0.50
  -3   6   0    1.54    0.39
   3   6   1   -0.11    0.36
  -3   6  -1   -0.64    0.33
  -3   6  -2   15.42    1.03
   3   6   2   17.84    0.96
  -3   6  -3   15.89    1.18
   3   6   3   16.85    1.03
   3  -6   3   15.21    1.14
  -3   6  -4    6.87    0.92
   3   6   4    6.48    0.78
   3  -6   4    6.08    0.93
   3   6   5   -0.11    0.55
   3  -6   5    0.00    0.84
   3   6   6   22.46    1.41
   3   6   7    1.65    0.82
   3   6   8    1.18    0.86
   3   7  -7    1.32    0.86
  -3  -7   7    1.86    0.94
   3   7  -6   26.55    1.52
  -3   7   6   28.49    1.34
   3   7  -6   27.35    1.41
  -3   7   5   42.26    1.35
   3   7  -5   43.72    1.58
  -3  -7   5   43.26    1.63
   3   7  -4   70.40    1.88
   3   7  -4   71.83    1.87
  -3   7   4   73.40    1.68
  -3  -7   4   70.85    1.83
  -3   7   3   10.26    0.78
   3   7  -3    8.97    0.85
  -3   7   2    0.72    0.45
   3   7  -2    1.72    0.55
  -3   7   1    0.78    0.45
   3   7  -1    0.52    0.47
   3   7   0  318.03    4.29
  -3   7   0  320.07    4.01
  -3   7  -1   80.27    1.76
   3   7   1   79.61    1.93
   3   7   2    4.69    0.70
  -3   7  -2    4.57    0.67
  -3   7  -2    3.65    0.80
   3   7   3    0.01    0.49
   3  -7   3    0.31    0.71
   3   7   4   19.12    1.23
  -3   7  -4   17.94    1.45
   3   7   5   -0.13    0.66
  -3   7  -5   -0.51    0.89
   3  -7   5    1.17    0.96
   3   7   6    3.32    0.83
   3   7   7    1.71    0.81
   3   8  -8    1.50    1.01
   3   8  -7    8.53    1.18
   3   8  -7    7.45    1.11
   3   8  -6    7.93    1.07
   3   8  -6    9.77    1.10
   3   8  -5   24.74    1.50
   3   8  -5   24.17    1.45
  -3   8   5   23.42    1.20
  -3  -8   5   25.50    1.52
   3   8  -4    2.77    0.86
   3   8  -4    2.82    0.75
  -3   8   4    2.57    0.62
  -3  -8   4    1.16    0.82
  -3   8   3   28.45    1.23
   3   8  -3   26.29    1.42
   3   8  -2    1.03    0.65
  -3   8   2    2.06    0.60
  -3   8   1   26.31    1.23
   3   8  -1   24.95    1.31
   3   8   0   65.78    1.93
  -3   8   0   68.86    1.79
   3   8   1    0.18    0.54
  -3   8  -1    1.28    0.59
   3   8   2    0.57    0.55
  -3   8  -2    1.33    0.62
   3   8   3   49.26    1.73
  -3   8  -3   43.32    1.56
  -3   8  -4    6.77    1.13
   3   8   4    5.36    0.89
   3   8   5   -0.79    0.65
   3  -8   5   -0.90    1.06
   3   8   6    4.07    0.91
  -3   8  -7   -1.64    1.17
   3   8   7    0.04    0.96
   3   9  -7    0.52    0.99
   3   9  -7    1.90    1.15
   3   9  -6    4.31    1.04
  -3  -9   6    8.13    1.26
   3   9  -5    5.22    0.99
  -3  -9   5    5.37    1.10
   3   9  -4   29.08    1.73
  -3   9   4   29.12    1.46
  -3   9   3    0.45    0.60
   3   9  -3    0.13    0.71
   3   9  -2    3.05    0.83
  -3   9   2    3.46    0.77
   3   9  -1    0.11    0.66
  -3   9   1   -0.15    0.59
   3   9   0   45.90    1.81
  -3   9   0   44.17    1.60
   3   9   1    8.09    0.97
  -3   9  -1   10.06    0.98
   3   9   2    5.34    0.86
  -3   9  -2    3.28    0.82
  -3   9  -3    9.96    1.06
   3   9   3    8.88    1.05
   3   9   4    2.66    0.85
  -3   9  -4    1.96    0.84
   3   9   5   -0.95    0.78
  -3   9  -5    0.42    1.14
   3  -9   5   -0.95    1.09
   3  10  -6    0.68    1.02
   3  10  -5   11.09    1.45
   3  10  -5   11.69    1.41
  -3  10   4    1.90    1.01
   3  10  -4    2.48    0.97
  -3  10   3    6.78    0.98
   3  10  -3    5.85    1.11
   3  10  -2   16.72    1.42
  -3  10   2   16.81    1.31
   3  10  -1   24.22    1.75
  -3  10   1   28.01    1.58
  -3  10   0   -0.70    0.69
   3  10   0    0.50    0.77
   3  10   1   -0.42    0.72
  -3  10  -1   -0.10    0.76
   3  10   2    1.04    0.75
  -3  10  -2    2.47    0.88
   3  10   3   17.34    1.42
  -3  10  -3   17.11    1.36
   3  10   4   -0.60    0.84
  -3  10  -4    1.09    0.94
   3 -10   4    1.80    1.08
   3  11  -3    0.11    1.03
  -3  11   3    0.90    0.90
   3  11  -2    0.11    0.98
  -3  11   2    0.38    0.86
   3  11  -1    1.66    1.05
  -3  11   1   -0.32    0.84
  -3  11   0   -0.29    0.88
   3  11   0    1.69    0.94
  -3  11  -1    0.74    0.84
   3  11   1    0.96    0.89
   3  11   2    0.76    0.88
  -3  11  -2   -0.50    0.89
  -4   0   1   -0.03    0.18
   4   0   1    0.40    0.29
   4   0   2 1921.07   16.92
   4   1  -2   72.23    0.99
  -4  -1   2   72.35    0.98
  -4   1   0   37.33    0.70
   4   1   0   36.30    0.78
   4  -1   0   37.48    0.70
  -4   1  -1  103.65    1.33
   4   1   1  102.72    1.56
   4   1   2  326.61    3.68
   4   1   3  206.53    2.83
   4   1   4    1.13    0.54
   4   2  -3  401.32    3.90
   4   2  -2  245.58    2.57
   4   2  -2  244.15    2.61
  -4  -2   2  245.43    2.56
   4   2  -1  130.41    1.53
   4   2  -1  129.88    1.67
  -4  -2   1  129.36    1.52
   4   2   0    8.06    0.48
  -4   2  -1   46.47    0.95
   4   2   1   47.29    1.03
   4  -2   1   47.63    0.92
   4   2   2  665.76    6.54
   4  -2   2  663.15    6.27
   4   2   3  342.86    4.07
   4   2   4   24.58    1.06
   4   2   5   21.52    1.12
   4   2   6    6.38    0.86
   4   3  -4   26.09    0.80
  -4  -3   4   25.74    0.86
   4   3  -3   14.35    0.61
   4   3  -3   14.84    0.62
   4   3  -2  139.22    1.88
   4   3  -2  141.80    1.78
  -4  -3   2  140.99    1.78
   4   3  -1  470.28    4.77
   4   3  -1  469.83    4.49
  -4   3   0   42.32    0.95
   4   3   0   42.58    1.02
  -4   3  -1  104.65    1.65
   4   3   1  104.65    1.71
   4  -3   1  105.19    1.59
  -4   3  -2  206.92    2.68
   4   3   2  214.80    2.80
   4  -3   2  213.56    2.64
   4   3   3    1.29    0.45
  -4   3  -3    0.69    0.41
   4  -3   3    0.20    0.47
   4   3   4   22.33    1.06
   4   3   5    2.38    0.62
   4   3   6    1.03    0.60
   4   3   7   -0.02    0.68
   4   4  -4   47.22    1.18
  -4  -4   4   46.82    1.22
   4   4  -3   80.20    1.45
   4   4  -3   80.97    1.49
  -4  -4   3   80.79    1.45
   4   4  -2    2.38    0.41
   4   4  -2    2.38    0.40
   4   4  -1  142.40    2.12
  -4   4   1  137.02    1.78
   4   4   0    4.21    0.47
   4   4   1   45.58    1.18
   4   4   2   78.46    1.63
   4  -4   2   77.30    1.57
   4   4   3   25.46    1.06
  -4   4  -3   24.81    1.10
   4  -4   3   24.19    1.08
   4   4   4   36.82    1.29
   4  -4   4   33.30    1.32
   4   4   5    1.98    0.63
   4   4   6    0.28    0.61
   4   4   7    0.70    0.70
   4   4   8    2.08    0.87
   4   5  -5   11.92    0.88
   4   5  -4   39.00    1.21
   4   5  -4   38.57    1.24
  -4  -5   4   38.87    1.23
  -4   5   3    2.22    0.36
   4   5  -3    2.44    0.53
   4   5  -3    1.53    0.44
   4   5  -2    1.52    0.44
  -4   5   2    1.47    0.33
  -4   5   1   55.44    1.15
   4   5  -1   55.12    1.38
   4   5   0    0.46    0.38
  -4   5   0    0.31    0.31
   4   5   1   14.79    0.83
   4   5   2    3.42    0.56
   4  -5   2    3.38    0.63
   4   5   3    3.99    0.64
   4  -5   3    3.43    0.70
   4   5   4   17.54    1.12
   4  -5   4   17.60    1.21
  -4   5  -5    0.88    0.73
   4   5   5    1.82    0.66
   4   5   6   -0.05    0.67
   4   5   7    1.26    0.74
   4   5   8    1.65    0.84
  -4  -6   7   66.96    1.93
   4   6  -6    7.15    0.92
   4   6  -6    7.42    0.88
  -4  -6   6    8.63    0.97
   4   6  -5   30.27    1.30
  -4  -6   5   28.77    1.41
   4   6  -4    9.72    0.88
   4   6  -4    7.07    0.76
  -4   6   4    8.77    0.66
  -4  -6   4    8.25    0.83
   4   6  -3    9.03    0.80
  -4   6   3    9.38    0.69
   4   6  -3    8.56    0.81
   4   6  -2    9.08    0.78
  -4   6   2   10.03    0.70
  -4   6   1   19.97    0.82
   4   6  -1   19.92    1.01
  -4   6   0   10.15    0.71
   4   6   0   11.66    0.84
   4   6   1   10.53    0.87
  -4   6  -2   31.73    1.27
   4   6   2   29.61    1.24
   4  -6   2   29.48    1.27
  -4   6  -3    2.61    0.73
   4   6   3    0.65    0.53
   4   6   4   10.13    1.01
   4  -6   4   12.59    1.10
   4   6   5    0.01    0.63
   4   6   6    5.84    0.97
   4   6   7    1.29    0.86
   4   6   8    2.11    0.92
   4   7  -8    0.24    0.89
   4   7  -7    2.43    0.95
   4   7  -7    4.26    0.92
  -4  -7   7    7.43    1.10
   4   7  -6    0.39    0.66
   4   7  -6    0.20    0.83
  -4  -7   6    1.26    0.83
   4   7  -5   -0.12    0.63
  -4  -7   5    0.22    0.78
   4   7  -4   -0.12    0.55
   4   7  -4    0.14    0.73
  -4   7   4    0.83    0.47
  -4  -7   4   -1.11    0.70
  -4   7   3   17.29    0.96
   4   7  -3   17.76    1.11
   4   7  -3   18.43    1.22
  -4  -7   3   16.47    1.14
  -4   7   2   10.60    0.82
   4   7  -2   10.69    0.92
   4   7  -1    0.49    0.52
  -4   7   1   -0.53    0.42
   4   7   0    4.98    0.68
  -4   7   0    7.35    0.71
  -4   7  -1    1.01    0.53
   4   7   1    0.60    0.55
   4   7   2    1.22    0.59
  -4   7  -2    1.03    0.74
   4   7   3   33.86    1.52
  -4   7  -3   34.55    1.58
   4   7   4    0.15    0.64
   4  -7   4    1.17    0.90
   4   7   5    0.33    0.76
  -4   7  -5    0.98    0.95
  -4   7  -6    0.08    0.99
   4   7   6    0.45    0.78
   4  -7   6   -0.19    1.12
   4   7   7   -0.18    0.83
   4   8  -8   18.22    1.51
   4   8  -7   16.21    1.38
   4   8  -7   14.60    1.41
   4   8  -6    1.45    0.83
   4   8  -6    2.03    0.96
  -4  -8   6    3.38    1.01
   4   8  -5    5.95    1.00
   4   8  -5    5.52    0.93
  -4  -8   5    5.83    1.02
   4   8  -4    6.60    0.95
  -4  -8   4    6.25    1.01
  -4   8   3   10.19    0.92
   4   8  -3   10.00    1.00
   4   8  -2    6.89    0.90
  -4   8   2    9.37    0.87
   4   8  -1    0.67    0.63
  -4   8   1    0.10    0.51
   4   8   0   16.56    1.17
  -4   8   0   16.87    1.05
  -4   8  -1    2.46    0.67
   4   8   1    3.60    0.73
  -4   8  -2   22.71    1.59
   4   8   2   21.88    1.38
  -4   8  -2   25.96    1.29
   4   8   3   10.59    1.11
   4   8   4    2.12    0.87
  -4   8  -5    2.44    1.08
   4   8   5    1.95    0.91
   4  -8   5    1.40    1.07
  -4   8  -6    5.14    1.27
   4   8   6    3.38    0.94
   4   9  -7    1.45    1.00
   4   9  -7    2.71    1.17
  -4  -9   7    1.06    1.18
   4   9  -6    1.14    0.92
  -4  -9   6    0.08    1.03
   4   9  -5    0.79    0.87
   4   9  -4    0.11    0.72
  -4   9   3   17.91    1.45
   4   9  -3   15.07    1.30
   4   9  -2   -0.12    0.70
  -4   9   2    0.19    0.64
  -4   9   1    3.97    0.80
   4   9  -1    4.76    0.88
   4   9   0    0.50    0.68
  -4   9   0    0.08    0.70
  -4   9  -1   -0.94    0.67
   4   9   1   -0.08    0.67
  -4   9  -2   16.76    1.20
   4   9   2   15.22    1.29
   4   9   3    1.02    0.81
  -4   9  -3    2.34    0.81
   4  -9   3    2.93    1.06
   4   9   4    0.27    0.82
  -4   9  -4    0.70    0.81
   4  -9   4    0.87    1.09
   4   9   5    0.67    0.92
   4  10  -5    0.19    0.95
   4  10  -4    0.73    0.99
   4  10  -3    0.57    0.96
  -4  10   2   -0.19    0.75
   4  10  -2    1.34    0.94
   4  10  -1    0.22    0.90
  -4  10   1    0.94    0.78
  -4  10   0    1.78    0.79
   4  10   0    1.40    0.88
   4  10   1    4.16    1.02
  -4  10  -1    2.01    0.82
   4  10   2    1.14    0.89
  -4  10  -2    1.00    0.90
   4  10   3   17.71    1.51
  -4  10  -3   19.52    1.47
   4  11  -3    0.67    1.13
   4  11  -2    0.74    1.08
  -4  11   1    9.26    1.18
   4  11  -1    9.53    1.41
  -4  11   0   -0.10    0.86
   4  11   0   -0.37    0.93
   4  11   1    0.84    1.01
  -4  11  -1    0.84    0.92
   5   0  -1    0.01    0.25
  -5   0   1    0.03    0.22
   5   0   0    1.99    0.30
   5   0   1    0.03    0.32
  -5  -1   2  102.24    1.31
   5   1  -1   25.29    0.64
  -5  -1   1   25.32    0.61
   5   1   0    4.22    0.39
  -5   1   0    3.58    0.34
   5  -1   0    3.00    0.34
   5   1   1   13.21    0.70
   5  -1   1   13.39    0.55
   5   1   2    1.37    0.44
   5   1   3   15.83    0.96
   5   1   4    0.91    0.59
  -5  -2   2   75.19    1.12
   5   2  -1    6.25    0.48
  -5   2   0   21.67    0.62
   5   2   0   20.51    0.71
   5   2   1  148.47    2.11
  -5   2  -1  145.43    1.94
   5  -2   1  149.04    1.90
  -5   2  -2   30.71    0.91
   5   2   2   30.91    1.06
   5  -2   2   31.58    0.88
   5   2   3    3.69    0.59
   5   2   4    1.13    0.57
   5   2   5   22.71    1.29
   5   2   6   -0.36    0.69
   5   3  -5  498.42    5.05
   5   3  -4   12.77    0.66
  -5  -3   4   14.12    0.67
   5   3  -3   82.65    1.38
   5   3  -3   83.60    1.36
   5   3  -2   59.09    1.06
   5   3  -2   58.28    1.19
   5   3  -1   -0.06    0.30
   5   3   0   11.45    0.66
   5   3   1   45.54    1.18
   5  -3   1   46.02    1.05
   5   3   2   10.36    0.78
  -5   3  -3    9.70    0.74
   5   3   3    8.37    0.78
   5  -3   3    8.38    0.72
   5   3   4    1.01    0.61
   5   3   5   15.65    1.18
   5   3   6   -0.09    0.64
   5   3   7    1.70    0.84
   5   4  -5   94.38    1.76
   5   4  -4   -0.50    0.38
   5   4  -3    9.81    0.67
   5   4  -3    7.74    0.63
  -5  -4   3    8.61    0.65
   5   4  -2   81.35    1.56
  -5  -4   2   80.59    1.38
   5   4  -1   13.86    0.75
   5   4   0   55.91    1.33
   5   4   1   80.68    1.66
   5  -4   1   77.34    1.48
   5   4   2    7.33    0.70
   5  -4   2    8.07    0.73
  -5   4  -3    4.54    0.68
   5   4   3    3.59    0.63
   5   4   4    4.11    0.76
  -5   4  -4    4.60    0.72
   5   4   5    0.17    0.64
   5   4   6   -0.42    0.70
   5   4   7    1.88    0.90
   5   4   8    0.08    0.88
   5   5  -6    5.50    0.74
   5   5  -5  332.68    4.14
   5   5  -4   80.79    1.72
   5   5  -3   28.79    1.06
   5   5  -2   18.94    0.93
  -5   5   1    6.59    0.53
   5   5  -1    8.72    0.70
   5   5   0    3.72    0.56
   5   5   1   11.42    0.87
   5   5   2   35.05    1.31
   5   5   3    2.69    0.67
   5  -5   3    3.41    0.75
  -5   5  -4    0.66    0.65
   5   5   4    1.22    0.61
   5   5   5    5.28    0.92
   5  -5   5    5.42    0.99
   5   5   6    2.21    0.89
   5   5   7    2.39    0.91
   5   6  -8   19.13    1.30
   5   6  -7    6.19    0.88
   5   6  -6    1.36    0.66
   5   6  -6    1.07    0.69
  -5  -6   6    1.38    0.78
   5   6  -5  142.30    2.49
   5   6  -5  140.15    2.60
   5   6  -4   22.96    1.22
   5   6  -4   24.98    1.18
   5   6  -3   86.49    1.94
   5   6  -3   88.83    1.77
   5   6  -2   24.34    1.15
  -5   6   2   25.41    0.92
  -5   6   1    0.17    0.39
   5   6  -1    0.20    0.47
   5   6   0   15.53    0.95
  -5   6   0   13.90    0.79
   5   6   1  313.91    4.19
   5  -6   1  308.85    3.94
   5   6   2   60.18    1.78
  -5   6  -2   61.32    1.73
   5   6   3    2.15    0.70
  -5   6  -3    2.50    0.74
   5  -6   3    3.36    0.81
   5   6   4    1.30    0.71
  -5   6  -4    0.98    0.76
   5  -6   4    0.75    0.85
   5   6   5   11.72    1.15
   5   6   6    0.01    0.87
   5   6   7    3.21    0.98
   5   7  -8    4.95    1.07
   5   7  -7    3.60    0.91
   5   7  -6   17.62    1.35
   5   7  -6   18.79    1.36
   5   7  -5   13.08    1.05
   5   7  -5   11.08    1.03
   5   7  -4   57.84    1.79
   5   7  -4   55.70    1.70
  -5  -7   4   55.75    1.70
   5   7  -3   10.13    0.94
   5   7  -2   30.79    1.37
  -5   7   2   29.67    1.10
  -5   7   1    6.39    0.70
   5   7  -1    5.22    0.78
  -5   7   0   12.23    0.89
   5   7   0   13.09    1.01
   5   7   1   10.12    0.94
  -5   7  -1   10.81    0.85
   5   7   2   15.08    1.18
   5   7   3   -0.37    0.65
   5  -7   3    0.54    0.82
   5   7   4    4.87    0.95
  -5   7  -4    6.62    1.07
   5   7   5    0.58    0.89
  -5   7  -5    0.32    0.96
   5  -7   5    0.27    1.03
   5   7   6    0.84    0.93
   5   8  -8    1.34    1.09
   5   8  -7    6.76    1.08
   5   8  -7    7.62    1.14
   5   8  -6   -0.24    0.82
   5   8  -5   13.20    1.26
   5   8  -4   30.54    1.52
   5   8  -4   30.68    1.60
   5   8  -3   50.14    1.84
  -5  -8   3   47.24    1.51
   5   8  -2    0.70    0.69
  -5   8   1    1.66    0.59
   5   8  -1    1.20    0.66
   5   8   0    1.36    0.69
  -5   8   0   -0.57    0.57
   5   8   1   50.78    1.79
  -5   8  -1   54.23    1.66
   5   8   2   28.02    1.55
  -5   8  -2   26.22    1.33
   5   8   4    0.57    0.86
   5   8   5   -0.12    0.87
   5   9  -7    0.31    1.01
   5   9  -7    1.01    1.00
  -5  -9   7   -0.67    1.12
   5   9  -6    4.64    1.17
  -5  -9   6    7.53    1.23
   5   9  -5    0.96    0.92
   5   9  -4    8.99    1.19
   5   9  -3    9.14    1.15
   5   9  -2    5.60    1.02
  -5   9   1    4.76    0.91
   5   9  -1    4.13    0.88
   5   9   0   15.54    1.28
  -5   9   0   16.02    1.27
   5   9   1   -0.33    0.68
  -5   9  -1   -0.24    0.69
   5   9   2   -0.33    0.77
  -5   9  -2   -0.12    0.73
  -5   9  -3    1.92    1.19
  -5   9  -3    1.80    0.83
   5   9   3    0.93    0.92
   5   9   4    3.20    1.09
  -5   9  -4    6.38    1.28
   5  10  -5    0.16    1.08
   5  10  -4    1.38    1.06
   5  10  -3    7.14    1.20
   5  10  -2   -0.18    0.89
   5  10  -1   -0.27    0.86
  -5  10   0    1.22    0.79
   5  10   0   -0.10    0.83
  -5  10  -1    0.58    0.77
   5  10   1   -0.68    0.84
  -5  10  -2    0.07    0.83
   5  10   2   -0.85    0.81
  -5  10  -3    0.23    0.96
   5  10   3   -0.21    0.98
   6   0  -1   -0.18    0.24
  -6   0   1   -0.46    0.24
  -6   0   0  133.32    1.76
   6   0   0  134.61    1.73
   6   1  -2  242.97    2.60
  -6  -1   2  235.51    2.56
   6   1  -1  110.61    1.54
   6  -1  -1  108.02    1.55
  -6  -1   1  110.54    1.52
  -6   1   0   60.27    1.08
   6   1   0   60.03    1.21
   6   1   1    2.79    0.48
   6  -1   1    2.75    0.38
   6   1   2    2.37    0.53
   6   1   3  111.57    2.20
   6   2  -3    9.53    0.53
   6   2  -2  188.78    2.20
  -6  -2   2  186.96    2.16
   6   2  -1   30.38    0.77
  -6   2   1   30.17    0.80
   6   2   0  155.84    2.18
   6  -2   0  159.41    2.01
  -6   2  -1   14.57    0.67
   6   2   1   13.95    0.79
   6  -2   1   14.16    0.68
   6   2   2   37.44    1.24
   6   2   3   75.33    1.79
   6   2   4   21.78    1.28
   6   2   5   -0.21    0.72
   6   3  -3   54.88    1.09
   6   3  -2  188.23    2.44
   6   3  -2  189.87    2.27
   6   3  -1   54.32    1.21
  -6  -3   1   55.41    1.01
   6   3   0   95.33    1.70
   6  -3   0   92.43    1.53
   6   3   1   17.43    0.92
  -6   3  -1   17.30    0.81
   6  -3   1   15.82    0.76
   6   3   2   18.11    0.98
   6  -3   2   19.59    0.85
   6   3   3   65.07    1.75
   6   3   4   80.05    2.00
   6   3   5    6.94    0.93
   6   3   6   -0.45    0.76
   6   4  -6  224.54    3.47
   6   4  -5   -0.77    0.46
   6   4  -5   -0.70    0.46
   6   4  -4   61.45    1.38
   6   4  -4   60.67    1.35
  -6  -4   4   61.29    1.31
   6   4  -3   16.85    0.87
   6   4  -3   16.20    0.77
  -6  -4   3   17.37    0.75
   6   4  -2   46.62    1.23
   6   4  -1    9.50    0.72
  -6   4   0   58.18    1.37
   6   4   0   58.52    1.44
   6   4   1    0.05    0.42
   6  -4   1   -0.42    0.43
  -6   4  -2   25.52    1.11
   6   4   2   27.86    1.23
  -6   4  -3   13.45    0.97
   6   4   3   11.61    0.96
   6   4   4   17.40    1.31
   6  -4   4   17.36    1.23
   6   4   5    2.41    0.80
   6   4   6    0.01    0.80
   6   4   7    0.06    0.87
   6   5  -6   25.98    1.22
  -6  -5   6   25.84    1.21
   6   5  -5   56.99    1.54
  -6  -5   5   56.07    1.49
   6   5  -4    8.34    0.78
   6   5  -4    9.26    0.78
   6   5  -3    3.61    0.62
   6   5  -2    7.56    0.74
   6   5  -1   13.43    0.88
   6   5   0    0.22    0.44
   6   5   1   15.24    1.07
   6   5   2   18.88    1.21
   6   5   3   17.08    1.28
  -6   5  -3   17.95    1.24
   6  -5   3   17.37    1.20
   6   5   4   -0.70    0.70
   6   5   5    5.46    1.02
   6   5   6   -0.08    0.82
   6   5   7    1.38    0.93
   6   6  -7   16.39    1.59
   6   6  -6    1.65    0.73
  -6  -6   6    3.21    0.77
   6   6  -5    1.35    0.70
  -6  -6   5    1.30    0.66
   6   6  -4    1.20    0.67
  -6  -6   4    0.77    0.63
   6   6  -3    0.01    0.57
  -6  -6   3    0.61    0.56
   6   6  -2   13.31    1.00
   6   6  -1    5.26    0.71
  -6   6   1    7.50    0.76
  -6   6   0    0.00    0.41
   6   6   0    0.82    0.55
   6   6   1    6.96    0.83
  -6   6  -1    6.30    0.87
   6   6   2    0.65    0.59
  -6   6  -2    0.53    0.71
   6   6   3    0.62    0.74
   6  -6   3    0.83    0.81
   6   6   4    6.33    1.03
  -6   6  -4    9.69    1.07
   6  -6   4    7.85    1.10
   6   6   5    3.16    0.99
   6   6   6   -0.11    0.93
   6   7  -7   11.60    1.21
   6   7  -7   10.66    1.06
  -6  -7   7   12.48    1.18
   6   7  -6    7.46    0.99
   6   7  -6    6.09    0.90
  -6  -7   6    5.82    0.97
   6   7  -5   -0.45    0.66
  -6  -7   5    0.22    0.72
   6   7  -4    6.92    0.90
   6   7  -4    8.93    1.00
  -6  -7   4    7.96    0.92
   6   7  -3    0.78    0.70
   6   7  -2    2.06    0.74
   6   7  -1    2.31    0.68
  -6   7   0    0.33    0.53
   6   7   0    1.42    0.63
  -6   7  -1    6.05    0.71
   6   7   1    5.02    0.82
  -6   7  -2    8.22    1.02
   6   7   2    5.44    0.91
   6  -7   2    6.51    1.00
   6   7   3    3.63    0.94
  -6   7  -3    3.39    0.89
   6   7   4   -0.41    0.87
   6   7   5    1.30    0.94
   6  -7   5    1.49    1.11
   6   7   6    1.09    1.06
   6   8  -7    0.39    0.93
  -6  -8   7   -0.21    0.97
   6   8  -6   12.81    1.34
  -6  -8   6   17.61    1.43
   6   8  -5    0.37    0.83
   6   8  -4    0.65    0.81
   6   8  -4   -0.25    0.77
   6   8  -3   -0.69    0.73
   6   8  -2   15.62    1.27
   6   8  -1    0.64    0.72
   6   8   0    0.03    0.67
   6   8   1    1.36    0.71
  -6   8  -1    0.63    0.68
  -6   8  -2    1.50    0.72
   6   8   2   -0.41    0.76
   6   8   3    2.43    0.98
   6  -8   3    1.65    1.03
  -6   8  -4    2.54    1.10
   6   8   4    2.29    1.10
   6  -8   4    1.48    1.13
   6   8   5    0.14    0.96
  -6   8  -5    0.36    1.10
   6  -8   5   -0.83    1.17
   6   9  -6   21.03    1.62
  -6  -9   6   25.01    1.68
   6   9  -5    0.39    1.02
   6   9  -4    1.78    0.97
  -6  -9   4    1.98    0.84
   6   9  -3    3.10    1.02
   6   9  -2    7.05    1.11
   6   9  -1   -0.03    0.75
   6   9   0    3.86    0.98
  -6   9  -1    0.81    0.97
   6   9   1    0.70    0.81
   6   9   2    0.49    0.90
  -6   9  -2    1.46    0.80
   6   9   3    1.42    1.03
  -6   9  -3    2.09    0.90
   6  10  -5   -1.13    1.08
  -6 -10   5    0.74    0.99
   6  10  -4    1.08    1.10
   6  10  -3    2.80    1.12
   6  10  -2   10.23    1.29
   6  10  -1    0.17    0.91
   6  10   0    6.62    1.15
   6  10   1    0.78    0.98
  -7   0   2  119.51    1.74
   7   0  -2  121.13    1.73
  -7   0   1    0.14    0.30
   7   0  -1    0.03    0.31
  -7   0   0    0.27    0.29
  -7  -1   2    1.04    0.33
   7  -1  -2    1.49    0.37
   7   1  -1   53.05    1.13
  -7  -1   1   50.76    1.10
   7  -1  -1   52.61    1.07
   7   1   0   11.64    0.74
   7  -1   0   10.10    0.60
   7   1   1    1.52    0.49
  -7   1  -1    0.40    0.33
   7   1   2   24.31    1.20
   7   1   3   38.98    1.54
   7   2  -3   29.78    0.81
  -7  -2   3   29.52    0.81
   7   2  -2   55.87    1.10
  -7  -2   2   55.86    1.09
  -7   2   1   20.22    0.78
   7  -2  -1   20.41    0.71
   7   2   0    1.71    0.46
   7   2   1    4.79    0.65
   7   2   2   -0.38    0.50
   7  -2   2   -1.04    0.41
   7   2   3    6.23    0.84
   7   2   4   -0.27    0.74
   7   2   5   -0.21    0.79
   7   3  -4    0.15    0.37
   7   3  -3    0.44    0.36
  -7  -3   3    0.59    0.32
  -7  -3   2    0.01    0.30
   7   3  -1    4.45    0.57
  -7   3   0   10.26    0.71
   7   3   0    9.51    0.73
   7   3   1   17.40    0.99
  -7   3  -1   18.71    0.90
   7  -3   1   18.13    0.85
   7   3   2    3.19    0.67
  -7   3  -2    2.67    0.58
   7   3   3   13.74    1.10
  -7   3  -3   12.45    1.02
   7  -3   3   12.19    0.93
   7   3   4   -0.55    0.67
   7   3   5    1.02    0.79
   7   3   6   -0.12    0.88
   7   4  -5    6.28    0.66
   7   4  -4  171.88    2.37
   7   4  -3   57.88    1.44
   7   4  -2    9.91    0.74
   7   4  -1   -0.68    0.42
   7   4   0   -0.20    0.46
  -7   4  -1    5.78    0.73
   7   4   1    6.56    0.76
   7  -4   1    5.76    0.69
   7   4   2    0.30    0.59
   7  -4   2    0.46    0.60
   7   4   3   19.56    1.42
   7  -4   3   21.00    1.19
   7   4   4    0.57    0.81
  -7   4  -4    0.68    0.69
   7   4   5    0.53    0.82
   7   4   6    0.38    0.93
   7   4   7   -0.65    1.01
  -7  -5   6   13.16    0.95
  -7  -5   5    0.98    0.65
   7   5  -4  103.08    1.92
   7   5  -4  101.31    2.07
  -7  -5   4  100.79    1.87
   7   5  -3   -0.30    0.55
  -7  -5   3    0.67    0.47
   7   5  -2   24.56    1.14
  -7  -5   2   24.78    0.89
   7   5  -1    2.57    0.63
   7   5   0    0.63    0.57
   7  -5   0   -0.53    0.53
  -7   5  -1   10.05    0.94
   7   5   1   11.49    0.95
   7   5   2   82.09    2.15
  -7   5  -2   80.56    1.94
   7  -5   2   79.76    1.94
  -7   5  -3   15.01    1.16
   7   5   3   15.12    1.22
   7  -5   3   14.75    1.17
   7   5   4   -0.96    0.76
   7  -5   4   -0.20    0.83
   7   5   5    1.78    0.98
   7   5   6   -0.52    0.93
   7   6  -5   19.54    1.29
   7   6  -5   18.09    1.14
  -7  -6   5   19.78    1.18
   7   6  -4   80.99    1.84
   7   6  -4   83.07    2.06
   7   6  -3  147.28    2.73
  -7  -6   3  147.61    2.30
   7   6  -2    9.20    0.93
   7   6  -1    6.67    0.81
   7   6   0    5.19    0.78
   7   6   1    5.51    0.84
  -7   6  -2    0.28    0.75
   7   6   2   -0.10    0.68
   7   6   3   44.45    1.91
  -7   6  -3   44.96    1.79
   7  -6   3   45.47    1.79
  -7   6  -4    0.52    0.83
   7   6   4    0.05    0.86
   7  -6   4   -0.69    0.90
   7   6   5    0.87    1.01
  -7   6  -5   -0.60    0.88
   7  -6   5    0.32    1.06
   7   6   6    2.07    1.10
   7   7  -7   18.51    1.39
  -7  -7   7   18.72    1.47
   7   7  -6   16.81    1.29
  -7  -7   6   14.28    1.19
   7   7  -5    4.24    0.91
   7   7  -4   53.35    1.89
   7   7  -3    8.75    1.04
   7   7  -2   32.81    1.56
   7   7  -1    1.85    0.76
   7   7   0    1.64    0.72
   7   7   1   -0.50    0.70
   7  -7   1    0.48    0.83
  -7   7  -2   51.23    1.94
   7   7   2   50.95    1.97
   7  -7   2   52.83    1.90
   7   7   3   10.02    1.27
  -7   7  -3   10.61    1.17
   7  -7   3   12.40    1.25
   7   7   4    0.06    0.93
   7   7   5    0.44    1.11
  -7   7  -5    0.11    1.08
  -7  -8   7    3.47    1.06
   7   8  -6    0.83    1.25
   7   8  -5   13.01    1.32
  -7  -8   5   13.84    1.15
   7   8  -4    5.13    1.02
   7   8  -3   18.33    1.41
   7   8  -2   14.19    1.24
   7   8  -1    3.11    0.92
   7   8   0   -0.16    0.76
   7   8   1    4.03    0.95
   7   8   2    1.86    0.92
  -7   8  -3    0.38    1.01
   7   8   3    1.81    1.05
   7   8   4   -0.73    1.02
   7  -8   4    1.42    1.13
   7   9  -6    2.80    1.30
  -7  -9   6    3.98    1.05
   7   9  -5    0.27    1.09
   7   9  -4    0.26    1.05
   7   9  -3   -2.33    0.90
   7   9  -2   13.35    1.36
   7   9  -1   -0.71    0.93
   7   9   0   -0.45    0.86
   7   9   1    0.51    0.88
   7   9   2   -0.44    0.92
   7  10  -3    0.00    1.07
   7  10  -2    3.63    1.15
   7  10  -1    2.06    1.11
   7  10   0    1.00    1.05
   8   0  -2   16.55    0.73
  -8   0   1   -0.16    0.36
   8   0   1    0.13    0.37
  -8   1   2    6.90    0.60
   8   1  -2    5.89    0.61
   8  -1  -2    7.08    0.61
   8   1  -1   46.36    1.06
  -8   1   1   46.20    1.10
   8  -1  -1   46.93    1.10
  -8   1   0    0.16    0.37
   8   1   0   -0.18    0.46
  -8  -1   0    0.26    0.38
   8   1   1   52.54    1.48
  -8   1  -1   52.71    1.20
   8   1   2    0.30    0.67
  -8   1  -2   -0.15    0.37
   8  -1   2    0.18    0.45
   8   2  -3    0.52    0.40
  -8  -2   3    0.07    0.37
   8   2  -2    5.96    0.55
  -8  -2   2    6.60    0.54
  -8   2   1   71.57    1.41
  -8   2   0   10.46    0.72
   8   2   0   12.21    0.84
   8  -2   0   10.90    0.75
   8   2   1   32.60    1.26
  -8   2  -1   30.91    1.03
   8  -2   1   30.86    1.06
  -8   2  -2   11.82    0.88
   8   2   2   12.39    1.04
   8   2   3    0.51    0.74
   8   2   4    3.64    0.95
   8   3  -5   66.36    1.39
   8   3  -4    5.15    0.60
  -8  -3   4    5.09    0.56
   8   3  -3   49.40    1.16
   8   3  -2   11.04    0.76
  -8  -3   2   11.32    0.72
   8   3  -1   79.82    1.64
   8  -3  -1   79.43    1.53
  -8   3   0    0.28    0.47
   8   3   0    0.79    0.52
   8  -3   0    0.44    0.43
   8   3   1    7.96    0.88
   8  -3   1    8.92    0.75
   8   3   2   -0.37    0.66
  -8   3  -2   -0.36    0.54
   8   3   3    3.47    0.84
   8   3   4    5.13    0.98
   8  -3   4    4.54    1.17
   8   3   5    9.03    1.24
   8   4  -5   36.43    1.15
  -8  -4   4  157.60    2.24
  -8  -4   3   -0.21    0.40
   8   4  -2    0.62    0.53
   8   4  -2   -0.44    0.42
  -8  -4   2   -0.75    0.39
   8   4  -1   25.01    1.17
  -8   4   0    7.55    0.76
   8   4   0    7.24    0.80
   8  -4   0    7.98    0.75
   8   4   1    1.39    0.64
  -8   4  -1    0.78    0.65
   8  -4   1    0.32    0.56
   8   4   2   20.57    1.39
  -8   4  -2   18.98    1.28
  -8   4  -3    7.92    0.94
   8   4   3    6.09    1.02
   8   4   4    3.16    0.96
   8   4   5    5.05    1.11
   8   4   6   -0.97    1.02
  -8  -5   6   22.90    1.21
   8   5  -5   17.29    1.01
   8   5  -4    4.97    0.67
  -8  -5   4    4.22    0.66
   8   5  -3    3.85    0.94
  -8  -5   3    4.60    0.59
   8   5  -2    0.02    0.51
   8   5  -2   -0.43    0.57
   8   5  -1   23.06    1.25
   8   5   0   -0.17    0.63
   8   5   1    0.55    0.69
   8  -5   1   -0.51    0.65
   8   5   2    0.43    0.74
  -8   5  -2   -0.98    0.69
  -8   5  -3    1.09    0.87
   8   5   3    1.48    0.91
   8  -5   3    0.21    0.81
  -8   5  -4   -0.89    0.85
   8   5   4    1.55    1.04
   8  -5   4    2.00    0.94
   8   5   5    6.57    1.17
   8   6  -7    0.59    0.76
   8   6  -6    0.70    0.70
  -8  -6   6    0.36    0.76
   8   6  -5    5.51    0.77
  -8  -6   5    5.83    0.82
  -8  -6   4    8.03    0.83
   8   6  -3   -0.17    0.59
   8   6  -3    0.73    0.73
   8   6  -2   -0.51    0.69
   8   6  -1    2.30    0.74
   8   6   0    0.65    0.76
   8   6   1    3.94    0.91
  -8   6  -2    0.68    0.89
   8   6   2    2.47    0.97
  -8   6  -3    6.10    1.08
   8   6   3    7.49    1.17
   8  -6   3    6.65    1.12
  -8   6  -4    0.35    0.93
   8   6   4    0.57    1.01
   8  -6   4    1.14    1.05
   8   6   5    1.13    1.09
  -8   6  -5    0.43    0.97
   8   7  -8    1.17    0.86
   8   7  -7    0.48    0.82
  -8  -7   7    0.81    0.91
   8   7  -6    3.72    0.91
  -8  -7   5    2.86    0.82
   8   7  -4    1.55    1.47
   8   7  -3    0.56    0.80
   8   7  -2    0.23    0.78
   8   7  -1    4.47    0.91
   8   7   0   -0.29    0.76
   8   7   1   -0.57    0.79
   8  -7   1    0.00    0.88
  -8   7  -2   -0.96    0.95
   8   7   2   -0.20    0.89
   8   7   3    0.75    0.97
  -8   7  -3    0.53    0.94
   8  -7   3   -1.49    1.00
   8   7   4   -0.35    1.06
  -8   7  -4   -0.17    0.92
   8  -7   4   -0.52    1.08
   8   8  -7    1.15    0.93
  -8  -8   7    1.71    1.03
   8   8  -5   11.16    1.15
   8   8  -4   -0.40    1.00
   8   8  -4    0.18    0.81
   8   8  -3    2.18    0.97
   8   8  -2    1.21    0.88
   8   8  -1   -0.60    0.83
   8   8   0   -0.04    0.84
   8   8   1    0.93    0.95
   8   8   2    0.08    0.98
   8  -8   2   -1.49    0.98
  -8   8  -3    0.30    1.05
   8   8   3    0.57    1.11
  -8  -9   5    0.85    0.93
   8   9  -4    1.32    1.14
   8   9  -3    1.43    1.05
   8   9  -2    0.37    0.99
   8   9  -1    8.73    1.25
   8   9   0    0.08    0.99
   8   9   1    1.27    1.08
   9   0  -2    7.13    0.63
  -9   0   2    8.02    0.70
   9   0  -1   -0.24    0.44
   9   0   0    8.35    0.66
  -9  -1   4    1.66    0.50
  -9  -1   3    9.77    0.81
  -9   1   2   24.58    0.99
  -9  -1   2   25.31    1.03
  -9   1   1   51.53    1.28
   9  -1  -1   51.49    1.26
   9  -1   0    0.23    0.45
  -9   1  -1    4.92    0.58
   9   1   1    4.45    0.61
   9   1   1    4.66    1.15
   9   2  -4    6.15    0.63
   9   2  -2   12.34    0.90
   9  -2  -2   12.09    0.79
  -9  -2   2   11.55    0.84
   9   2  -1    1.21    0.57
  -9   2   1    1.48    0.50
  -9   2   0    2.27    0.51
  -9  -2   0    1.97    0.52
   9  -2   0    1.44    0.50
  -9   2  -1    2.28    0.54
   9   2   1    2.62    0.70
   9  -2   1    2.51    0.60
   9   2   2    3.82    0.85
  -9   2  -2    2.25    0.63
  -9   2  -3    3.31    0.68
   9   2   3    2.30    0.91
  -9  -3   5    0.75    0.51
  -9  -3   4    7.18    0.68
   9   3  -3   25.70    1.02
  -9  -3   3   24.96    1.01
   9   3  -2    0.76    0.52
   9   3   0   -0.34    0.72
   9  -3   0    0.15    0.50
  -9   3  -1   -0.51    0.57
   9   3   1    1.31    0.72
   9  -3   1   -0.64    0.55
   9   3   2    3.88    0.84
  -9   3  -3    1.61    0.77
   9   3   3    1.79    0.87
   9  -3   3    1.69    0.73
   9   3   4   -0.62    0.92
   9   3   5   -2.37    1.05
   9   4  -6    4.96    0.66
  -9  -4   6    5.81    0.71
  -9  -4   5    4.07    0.61
   9   4  -4    0.38    0.53
  -9  -4   4   -1.05    0.46
  -9  -4   3    4.36    0.61
  -9  -4   2    4.19    0.59
  -9  -4   1    1.78    0.50
   9   4   0   -0.06    0.66
  -9   4   0    0.18    0.60
   9  -4   0    0.53    0.59
   9   4   1    0.74    0.74
   9   4   2    4.66    0.96
  -9   4  -2    5.13    0.91
   9  -4   2    4.24    0.84
   9   4   3    3.35    0.95
   9  -4   3    2.73    0.86
   9   4   4    9.80    1.26
   9   4   5   -0.19    1.09
  -9  -5   6    8.47    0.88
  -9  -5   5   -0.20    0.55
   9   5  -1    1.04    0.88
   9   5   0    0.37    0.72
  -9   5  -1    1.69    0.83
   9   5   1    2.51    0.88
   9   5   2    2.08    0.93
   9  -5   2   -0.71    0.79
   9   5   3    1.27    1.01
   9   5   4   10.36    1.37
   9   6  -7    9.78    0.94
   9   6  -5   15.10    1.12
  -9  -6   5   16.11    1.17
  -9  -6   4    3.71    0.69
   9   6  -3   27.00    1.26
   9   6  -2   -0.53    0.61
   9   6  -1    2.36    0.88
  -9   6   0   -0.94    0.94
   9   6   0   -0.98    0.78
   9   6   1    1.14    0.94
  -9   6  -1    0.48    0.87
   9  -6   1    2.12    0.95
  -9   6  -2    0.12    0.94
   9   6   2    0.65    0.94
   9  -6   2   -0.83    0.94
  -9   6  -3    8.64    1.20
   9   6   3    9.47    1.37
   9  -6   3   11.54    1.24
   9   6   4    3.53    1.33
   9  -6   4    3.48    1.15
  -9  -7   6    6.51    0.98
   9   7  -5    1.06    0.76
  -9  -7   5    0.90    0.77
   9   7  -4    9.59    0.97
   9   7  -3   15.09    1.23
   9   7  -2   35.49    2.65
   9   7  -1    6.29    1.07
   9   7   0   -0.27    0.85
   9   7   1    1.39    0.98
   9   7   2    0.23    1.06
  -9   7  -3   -0.61    1.06
   9   7   3    1.15    1.13
  -9  -8   5   10.08    1.09
   9   8  -2    1.14    1.02
   9   8  -1    4.72    1.12
   9   8   0    0.65    1.03
   9   8   1   -0.18    1.10
   9   9  -2    0.07    1.06
  10   0  -3    0.36    0.51
 -10   0   3   -0.46    0.54
 -10   0   1    0.25    0.52
  10   0  -1   -0.68    0.51
  10   0   0    7.64    0.72
  10   0   1   -0.57    0.54
 -10   0  -1   -0.19    0.47
 -10  -1   4   46.71    1.38
  10   1  -3  168.02    2.53
 -10   1   3  172.04    2.52
 -10  -1   3  169.15    2.55
  10   1  -2    0.88    0.52
 -10  -1   2   -0.16    0.53
  10  -1  -2    0.22    0.54
  10   1  -1    0.06    0.52
 -10   1   1    1.05    0.54
  10  -1  -1    1.21    0.51
 -10  -1   1    0.28    0.54
  10  -1   1    3.63    0.61
  10   2  -4   16.64    1.04
 -10  -2   4   17.28    1.03
  10   2  -3   32.66    1.25
 -10  -2   3   32.41    1.21
  10   2  -2   13.02    1.08
 -10  -2   2   16.10    1.03
  10   2  -1    2.09    0.57
 -10   2   1    1.64    0.56
  10  -2  -1    2.31    0.60
 -10   2   0   15.14    0.96
 -10   2  -1   -0.22    0.57
  10  -2   1   -0.37    0.57
  10  -2   2    1.85    0.73
 -10  -3   5   -0.09    0.58
  10   3  -4   54.22    1.42
 -10  -3   4   55.82    1.40
  10   3  -2    1.85    0.65
  10   3  -1    1.76    0.73
 -10   3   1    2.57    0.65
 -10  -3   1    3.58    0.68
 -10   3   0    7.46    0.86
  10  -3   0    6.86    0.82
  10  -3   1   -0.52    0.60
 -10   3  -2    1.50    0.74
  10   3   3    2.74    1.07
  10   3   4   -0.03    1.10
  10   4  -6    6.67    0.77
 -10  -4   6    8.50    0.79
 -10  -4   5    5.51    0.72
 -10  -4   4    1.94    0.64
  10   4  -3    1.30    0.64
 -10  -4   3    1.78    0.61
  10   4  -2    1.20    0.64
 -10  -4   2    0.44    0.54
  10   4  -1    1.04    0.69
 -10   4   0   16.03    1.25
 -10   4  -1   -0.38    0.75
  10   4   2    1.20    0.95
 -10   4  -2   -0.19    0.82
  10  -4   2    0.57    0.81
  10   4   3    0.77    1.01
  10   4   4    0.28    1.13
 -10  -5   6    0.98    0.66
 -10  -5   5   -0.31    0.58
 -10  -5   3   24.68    1.18
 -10   5  -2    0.02    0.86
  10   5   2    1.88    1.05
  10  -5   2   -0.53    0.85
  10   5   3    1.71    1.16
 -10   5  -3    0.82    0.99
  10   6  -6    0.69    0.74
  10   6  -5    6.27    0.88
 -10  -6   4   -0.35    0.64
  10   6   1   -0.17    1.00
  10  -6   1   -0.08    0.96
  10   6   2    1.55    1.13
 -10  -7   7    1.70    0.98
  10   7  -6    1.01    0.80
  10   7   1   -1.28    1.12
 -10  -8   5   -0.29    0.84
  11   0  -3   -0.55    0.59
 -11   0   3   -0.22    0.64
  11   0  -1    0.13    0.58
 -11   0   1   -0.15    0.58
  11   0   0   12.90    1.05
  11   0   1   -0.57    0.63
 -11   0  -1   -0.37    0.57
 -11   1   3    0.03    0.66
  11   1  -3    0.80    0.60
 -11  -1   3   -0.33    0.64
  11  -1  -3    0.89    0.67
  11   1  -2    1.93    0.68
  11  -1  -2    1.61    0.65
 -11  -1   2    1.04    0.65
 -11   1   1   -0.11    0.60
  11  -1  -1    0.61    0.62
 -11  -1   1   -0.03    0.62
 -11   1   0    1.19    0.61
  11  -1   0    0.44    0.64
 -11  -1   0    1.19    0.62
 -11   1  -1   -0.07    0.55
  11   2  -4    6.57    0.84
 -11  -2   4    9.06    0.89
  11   2  -3    3.03    0.83
 -11  -2   3    3.65    0.81
 -11  -2   1    2.19    0.69
  11  -2   0    9.43    0.88
 -11   2  -1    0.07    0.66
  11  -2   1   -0.05    0.68
 -11   2  -2   -0.04    0.74
  11   3  -4    7.15    0.80
 -11  -3   4    5.08    0.75
  11   3  -3    0.35    0.72
 -11  -3   3    0.05    0.67
 -11  -3   2    0.13    0.69
 -11   3   0    0.46    0.74
  11  -3   0    1.25    0.73
 -11   3  -1    1.10    0.78
 -11   3  -2   -0.23    0.81
 -11  -4   6    9.48    0.92
  11   4  -5    0.81    0.68
 -11  -4   5   -0.62    0.67
  11   4  -4    0.07    0.65
 -11  -4   4   -0.02    0.62
  11   4  -3    1.40    0.71
 -11  -4   3    1.05    0.67
 -11  -4   1    4.96    0.85
  11  -4   0    1.49    0.83
  11  -4   1   -1.64    0.78
 -11   4  -2   -0.24    0.92
  11  -4   2   -1.19    0.87
 -11  -5   6    2.52    0.80
 -11  -5   5    6.93    0.88
 -11  -5   4    0.58    0.73
  11   5  -3   -0.12    0.72
  11  -5   0    0.13    0.86
 -11   5  -1   -1.26    0.96
  11  -5   1   -1.79    0.90
 -11   5  -2   -0.75    0.95
  11   6  -7    1.73    0.87
  11   6  -6    0.72    0.83
 -11  -6   6   -0.05    0.80
  11   6  -5    8.03    0.94
 -11  -6   4    0.11    0.73
  11   6  -3    1.66    0.83
  11  -6   0    0.00    0.99
 -11   6  -1   -1.31    1.03
  11   7  -5   -1.02    0.87
 -12   0   3   -1.16    0.71
  12   0  -2  108.98    2.16
 -12   0   1   -0.35    0.66
  12   0  -1    0.88    0.71
  12   1  -4   -0.78    0.65
  12   1  -3    7.81    0.98
 -12   1   3    9.60    0.99
 -12  -1   3    8.01    1.01
  12  -1  -3    9.38    0.96
 -12   1   2    4.66    0.82
 -12  -1   2    3.94    0.86
  12  -1  -2    5.57    0.83
 -12   1   1    0.67    0.70
  12   1  -1    1.46    0.78
 -12  -1   1    0.85    0.68
  12   1   0   -0.45    0.69
 -12   1  -1    1.81    0.76
  12   2  -4    1.66    0.84
  12   2  -2   53.83    1.61
 -12  -2   2   52.74    1.72
  12  -2  -2   51.15    1.67
 -12   2   1    2.66    0.74
  12   2  -1    2.10    0.80
  12  -2  -1    4.55    0.83
 -12   2   0    1.73    0.78
 -12   2  -2   -0.78    0.82
  12   3  -5    2.22    0.77
  12   3  -4   -0.10    0.81
 -12  -3   4   -0.79    0.74
  12   3  -3   -2.22    0.79
 -12  -3   3   -1.23    0.80
  12   3  -2    0.73    0.76
 -12   3   0   -0.66    0.86
  12  -3   0   -0.34    0.84
  12  -3   1    1.99    0.88
 -12  -4   6    2.30    0.82
  12   4  -5    1.50    0.80
 -12  -4   5    1.68    0.74
  12   4  -3    0.33    0.84
  12   4  -2    6.77    1.07
 -12   4  -1   -0.14    0.98
 -12  -5   6    5.43    0.98
 -12  -5   5    0.07    0.75
  12   5  -4    2.14    0.86
 -12  -5   3    1.22    0.76
 -12   5   0    0.68    1.15
 -12  -6   5   -0.02    0.87
 -12  -6   4    0.31    0.77
 -13   0   3   -0.01    0.79
 -13   0   2    0.72    0.83
  13   0  -2    1.30    0.82
 -13   0   1    0.96    0.76
  13   0  -1    0.51    0.80
 -13   0   0    0.57    0.81
  13   1  -4    1.88    0.80
 -13   1   3    2.89    0.88
 -13  -1   2    0.00    0.80
  13  -1  -1    0.61    0.82
 -13  -1   0    0.09    0.77
  13  -1   1    2.43    1.13
 -13  -2   5    0.31    1.19
  13   2  -4   -0.65    0.73
 -13  -2   4   -1.18    0.77
  13   2  -3    8.20    0.97
  13  -2  -3    9.17    1.01
  13   2  -2   -0.86    0.81
  13  -2  -2    0.28    0.79
 -13  -2   2   -0.58    0.81
 -13  -2   1    1.58    0.87
 -13   2   0    1.58    0.87
 -13  -2   0    0.92    0.83
 -13  -3   5    2.41    0.96
  13   3  -4    0.42    0.90
 -13  -3   4    1.80    0.90
  13   3  -3    0.00    0.82
  13   3  -2   -0.23    0.85
  13  -3  -1    0.45    0.89
 -13   3   0   -1.37    0.97
 -13  -4   5    1.71    0.92
 -13  -4   4    3.99    0.99
  13   4  -3    0.90    1.02
  14   0  -4    2.79    0.91
  14   1  -5    3.72    0.88
 -14  -1   3   -1.22    0.88
  14   1  -2   -0.09    0.87
  14  -1  -2   -0.73    0.88
  14   2  -3    0.14    0.91
   0   0   0    0.00    0.00


 _exptl_absorpt_process_details 'SADABS 2014/5'
 _exptl_absorpt_correction_type   multi-scan
 _exptl_absorpt_correction_T_max  0.7456
 _exptl_absorpt_correction_T_min  0.5532
 _exptl_special_details
)
 The following wavelength and cell were deduced by SADABS from the
 direction cosines etc. They are given here for emergency use only:
 CELL 0.71112    9.049    9.038   10.964   90.109  108.443   89.949
)

_computing_structure_solution     'SHELXT 2014/5 (Sheldrick, 2014)'
;
_shelx_hkl_checksum              4879
_olex2_submission_special_instructions 'No special instructions were received'
loop_
_space_group_symop_operation_xyz
'x, y, z'
'-x, y+1/2, -z+1/2'
'-x, -y, -z'
'x, -y-1/2, z-1/2'
loop_
_atom_site_label
_atom_site_type_symbol
_atom_site_fract_x
_atom_site_fract_y
_atom_site_fract_z
_atom_site_U_iso_or_equiv
_atom_site_adp_type
_atom_site_occupancy
_atom_site_site_symmetry_order
_atom_site_calc_flag
_atom_site_refinement_flags_posn
Cl1 Cl 0.93925(9) 0.47723(9) 0.14434(12) 0.0690(4) Uani 1 1 d .
O1 O 0.5745(2) 0.59716(18) 0.8715(2) 0.0528(6) Uani 1 1 d .
N1 N 0.4865(2) 0.3699(2) 0.8373(3) 0.0475(7) Uani 1 1 d .
H1A H 0.454300 0.383237 0.911303 0.057 Uiso 1 1 calc R
H1B H 0.474402 0.287806 0.787208 0.057 Uiso 1 1 calc R
C4 C 0.7530(2) 0.5155(2) 0.5215(4) 0.0389(7) Uani 1 1 d .
C8 C 0.6094(3) 0.4438(2) 0.6764(4) 0.0420(7) Uani 1 1 d .
H8 H 0.585968 0.356648 0.620614 0.050 Uiso 1 1 calc R
C7 C 0.6911(3) 0.5344(2) 0.6401(4) 0.0419(7) Uani 1 1 d .
H7 H 0.711013 0.620693 0.698093 0.050 Uiso 1 1 calc R
C5 C 0.8132(3) 0.6357(2) 0.4776(3) 0.0437(8) Uani 1 1 d .
H5 H 0.814159 0.726034 0.526735 0.052 Uiso 1 1 calc R
C9 C 0.5554(3) 0.4765(2) 0.8003(4) 0.0426(8) Uani 1 1 d .
C3 C 0.7558(3) 0.3813(2) 0.4459(4) 0.0465(8) Uani 1 1 d .
H3 H 0.717147 0.298892 0.472970 0.056 Uiso 1 1 calc R
C1 C 0.8694(3) 0.4913(3) 0.2902(4) 0.0438(8) Uani 1 1 d .
C6 C 0.8705(3) 0.6249(3) 0.3654(4) 0.0468(8) Uani 1 1 d .
H6 H 0.910290 0.706766 0.338989 0.056 Uiso 1 1 calc R
C2 C 0.8134(3) 0.3681(3) 0.3338(4) 0.0499(8) Uani 1 1 d .
H2 H 0.815291 0.277317 0.286763 0.060 Uiso 1 1 calc R
loop_
_atom_site_aniso_label
_atom_site_aniso_U_11
_atom_site_aniso_U_22
_atom_site_aniso_U_33
_atom_site_aniso_U_23
_atom_site_aniso_U_13
_atom_site_aniso_U_12
Cl1 0.0964(7) 0.0687(5) 0.0638(8) 0.0106(4) 0.0567(6) 0.0170(4)
O1 0.0827(14) 0.0384(9) 0.0514(17) -0.0058(7) 0.0416(13) -0.0068(8)
N1 0.0659(15) 0.0377(10) 0.0515(18) -0.0009(9) 0.0365(14) -0.0047(9)
C4 0.0451(14) 0.0395(12) 0.037(2) -0.0021(10) 0.0195(14) -0.0011(10)
C8 0.0543(16) 0.0364(12) 0.040(2) -0.0022(10) 0.0210(15) -0.0013(10)
C7 0.0520(15) 0.0371(12) 0.040(2) -0.0016(10) 0.0194(15) 0.0001(10)
C5 0.0613(16) 0.0352(12) 0.044(2) -0.0040(9) 0.0297(17) -0.0044(10)
C9 0.0498(15) 0.0355(12) 0.046(2) 0.0046(10) 0.0197(15) 0.0035(10)
C3 0.0597(16) 0.0375(12) 0.048(2) -0.0028(10) 0.0244(17) -0.0087(11)
C1 0.0508(15) 0.0501(14) 0.038(2) 0.0054(10) 0.0252(15) 0.0089(11)
C6 0.0568(16) 0.0400(13) 0.049(2) 0.0043(10) 0.0245(17) -0.0021(11)
C2 0.0687(18) 0.0409(13) 0.050(2) -0.0089(11) 0.0337(18) -0.0028(11)
loop_
_atom_type_symbol
_atom_type_description
_atom_type_scat_dispersion_real
_atom_type_scat_dispersion_imag
_atom_type_scat_source
C C 0.0033 0.0016 'International Tables Vol C Tables 4.2.6.8 and 6.1.1.4'
H H 0.0000 0.0000 'International Tables Vol C Tables 4.2.6.8 and 6.1.1.4'
Cl Cl 0.1484 0.1585 'International Tables Vol C Tables 4.2.6.8 and 6.1.1.4'
N N 0.0061 0.0033 'International Tables Vol C Tables 4.2.6.8 and 6.1.1.4'
O O 0.0106 0.0060 'International Tables Vol C Tables 4.2.6.8 and 6.1.1.4'
loop_
_geom_angle_atom_site_label_1
_geom_angle_atom_site_label_2
_geom_angle_atom_site_label_3
_geom_angle
H1A N1 H1B 120.0
C9 N1 H1A 120.0
C9 N1 H1B 120.0
C5 C4 C7 119.6(2)
C5 C4 C3 116.9(3)
C3 C4 C7 123.5(2)
C7 C8 H8 118.8
C7 C8 C9 122.4(3)
C9 C8 H8 118.8
C4 C7 H7 115.8
C8 C7 C4 128.3(3)
C8 C7 H7 115.8
C4 C5 H5 119.0
C6 C5 C4 122.0(2)
C6 C5 H5 119.0
O1 C9 N1 121.3(3)
O1 C9 C8 122.1(2)
N1 C9 C8 116.6(2)
C4 C3 H3 119.0
C2 C3 C4 121.9(3)
C2 C3 H3 119.0
C6 C1 Cl1 120.1(2)
C6 C1 C2 119.8(3)
C2 C1 Cl1 120.1(2)
C5 C6 C1 119.8(3)
C5 C6 H6 120.1
C1 C6 H6 120.1
C3 C2 C1 119.6(3)
C3 C2 H2 120.2
C1 C2 H2 120.2
loop_
_geom_bond_atom_site_label_1
_geom_bond_atom_site_label_2
_geom_bond_distance
Cl1 C1 1.730(4)
O1 C9 1.253(3)
N1 H1A 0.8600
N1 H1B 0.8600
N1 C9 1.334(4)
C4 C7 1.452(5)
C4 C5 1.397(4)
C4 C3 1.400(4)
C8 H8 0.9300
C8 C7 1.334(4)
C8 C9 1.457(5)
C7 H7 0.9300
C5 H5 0.9300
C5 C6 1.358(4)
C3 H3 0.9300
C3 C2 1.361(5)
C1 C6 1.388(4)
C1 C2 1.391(4)
C6 H6 0.9300
C2 H2 0.9300
