#------------------------------------------------------------------------------
#$Date: 2019-11-04 13:36:55 +0200 (Mon, 04 Nov 2019) $
#$Revision: 222898 $
#$URL: file:///home/coder/svn-repositories/cod/cif/4/03/43/4034360.cif $
#------------------------------------------------------------------------------
#
# This file is available in the Crystallography Open Database (COD),
# http://www.crystallography.net/
#
# All data on this site have been placed in the public domain by the
# contributors.
#
data_4034360
loop_
_publ_author_name
'Quiquempoix, Lucas'
'Wang, Zhong'
'Graton, J\'er\^ome'
'Latchem, Peter G.'
'Light, Mark'
'Le Questel, Jean-Yves'
'Linclau, Bruno'
_publ_section_title
;
 Synthesis of 2,3,4-Trideoxy-2,3,4-trifluoroglucose.
;
_journal_issue                   9
_journal_name_full               'The Journal of organic chemistry'
_journal_page_first              5899
_journal_page_last               5906
_journal_paper_doi               10.1021/acs.joc.9b00310
_journal_volume                  84
_journal_year                    2019
_chemical_absolute_configuration unk
_chemical_formula_moiety         'C6 H9 F3 O3'
_chemical_formula_sum            'C6 H9 F3 O3'
_chemical_formula_weight         186.13
_space_group_crystal_system      monoclinic
_space_group_IT_number           4
_space_group_name_Hall           'P 2yb'
_space_group_name_H-M_alt        'P 1 21 1'
_atom_sites_solution_hydrogens   geom
_atom_sites_solution_primary     dual
_audit_creation_date             2016-10-31
_audit_creation_method
;
Olex2 1.2-alpha
(compiled 2016.10.10 svn.r3347 for OlexSys, GUI svn.r5252)
;
_cell_angle_alpha                90
_cell_angle_beta                 102.18(3)
_cell_angle_gamma                90
_cell_formula_units_Z            2
_cell_length_a                   5.0898(14)
_cell_length_b                   7.4264(13)
_cell_length_c                   9.842(3)
_cell_measurement_reflns_used    1353
_cell_measurement_temperature    100(2)
_cell_measurement_theta_max      30.0930
_cell_measurement_theta_min      3.4340
_cell_volume                     363.64(17)
_computing_cell_refinement
;
'CrysAlisPro 1.171.38.41 (Rigaku OD, 2015)'
;
_computing_data_collection
'CrystalClear-SM Expert 3.1 b27 (Rigaku, 2013)'
_computing_data_reduction
;
'CrysAlisPro 1.171.38.41 (Rigaku OD, 2015)'
;
_computing_molecular_graphics    'Olex2 (Dolomanov et al., 2009)'
_computing_publication_material  'Olex2 (Dolomanov et al., 2009)'
_computing_structure_refinement  'ShelXL (Sheldrick, 2015)'
_computing_structure_solution    'ShelXT (Sheldrick, 2015)'
_diffrn_ambient_temperature      100(2)
_diffrn_detector                 'CCD area detector'
_diffrn_detector_area_resol_mean 28.5714
_diffrn_detector_type            'Rigaku HG Saturn724+ (2x2 bin mode)'
_diffrn_measured_fraction_theta_full 0.997
_diffrn_measured_fraction_theta_max 0.982
_diffrn_measurement_details
;
List of Runs (angles in degrees, time in seconds):

  # Type    Start    End  Width  t~exp~   \w     \q     \k     \f   Frames
--------------------------------------------------------------------------
  1  \w   -107.00  73.00   1.00   15.00    --  -17.00   0.00 150.00  180
  2  \w    -96.00  13.00   1.00   15.00    --  -17.00 -54.00 120.00  109
  3  \w    -46.00  11.00   1.00   15.00    --  -17.00  72.00-180.00   57
  4  \w    -10.00   0.00   1.00   15.00    --  -17.00  72.00  60.00   10
  5  \w   -107.00 -90.00   1.00   15.00    --  -17.00   0.00-180.00   17
;
_diffrn_measurement_device       'four-circle \k diffractometer'
_diffrn_measurement_device_type  'Rigaku AFC12 FRE-VHF'
_diffrn_measurement_method       'profile data from \w-scans'
_diffrn_measurement_specimen_support 'MiTeGen MicroMesh'
_diffrn_orient_matrix_type
'CrysAlisPro convention (1999,Acta A55,543-557)'
_diffrn_orient_matrix_UB_11      0.0165304000
_diffrn_orient_matrix_UB_12      -0.0240041000
_diffrn_orient_matrix_UB_13      -0.0674562000
_diffrn_orient_matrix_UB_21      -0.1387838000
_diffrn_orient_matrix_UB_22      0.0160010000
_diffrn_orient_matrix_UB_23      -0.0267314000
_diffrn_orient_matrix_UB_31      0.0286746000
_diffrn_orient_matrix_UB_32      0.0909522000
_diffrn_orient_matrix_UB_33      -0.0131505000
_diffrn_radiation_collimation    0.3
_diffrn_radiation_monochromator  'Confocal mirrors, VHF Varimax'
_diffrn_radiation_probe          x-ray
_diffrn_radiation_type           MoK\a
_diffrn_radiation_wavelength     0.71073
_diffrn_reflns_av_R_equivalents  0.1353
_diffrn_reflns_av_unetI/netI     0.0684
_diffrn_reflns_Laue_measured_fraction_full 0.997
_diffrn_reflns_Laue_measured_fraction_max 0.982
_diffrn_reflns_limit_h_max       6
_diffrn_reflns_limit_h_min       -6
_diffrn_reflns_limit_k_max       9
_diffrn_reflns_limit_k_min       -10
_diffrn_reflns_limit_l_max       11
_diffrn_reflns_limit_l_min       -13
_diffrn_reflns_number            2677
_diffrn_reflns_point_group_measured_fraction_full 0.958
_diffrn_reflns_point_group_measured_fraction_max 0.921
_diffrn_reflns_theta_full        26.000
_diffrn_reflns_theta_max         28.699
_diffrn_reflns_theta_min         3.466
_diffrn_source                   'Rotating Anode'
_diffrn_source_current           55.0
_diffrn_source_power             2.475
_diffrn_source_target            Mo
_diffrn_source_type              'Rotating Anode'
_diffrn_source_voltage           45.0
_exptl_absorpt_coefficient_mu    0.180
_exptl_absorpt_correction_T_max  1.642
_exptl_absorpt_correction_T_min  0.736
_exptl_absorpt_correction_type   multi-scan
_exptl_absorpt_process_details   'Empirical correction (ABSPACK)'
_exptl_crystal_colour            'clear colourless'
_exptl_crystal_colour_lustre     clear
_exptl_crystal_colour_primary    colourless
_exptl_crystal_density_diffrn    1.700
_exptl_crystal_description       fragment
_exptl_crystal_F_000             192
_exptl_crystal_recrystallization_method
'The material was recrystallised from a mixture of Et2O and hexane by slow evaporation'
_exptl_crystal_size_max          0.21
_exptl_crystal_size_mid          0.06
_exptl_crystal_size_min          0.02
_refine_diff_density_max         0.835
_refine_diff_density_min         -0.489
_refine_diff_density_rms         0.138
_refine_ls_abs_structure_details
;
 Flack x determined using 536 quotients [(I+)-(I-)]/[(I+)+(I-)]
 (Parsons, Flack and Wagner, Acta Cryst. B69 (2013) 249-259).
;
_refine_ls_abs_structure_Flack   -0.6(10)
_refine_ls_extinction_method     none
_refine_ls_goodness_of_fit_ref   1.113
_refine_ls_hydrogen_treatment    constr
_refine_ls_matrix_type           full
_refine_ls_number_parameters     111
_refine_ls_number_reflns         1718
_refine_ls_number_restraints     1
_refine_ls_restrained_S_all      1.113
_refine_ls_R_factor_all          0.0985
_refine_ls_R_factor_gt           0.0891
_refine_ls_shift/su_max          0.000
_refine_ls_shift/su_mean         0.000
_refine_ls_structure_factor_coef Fsqd
_refine_ls_weighting_details
'w=1/[\s^2^(Fo^2^)+(0.1586P)^2^+0.4121P] where P=(Fo^2^+2Fc^2^)/3'
_refine_ls_weighting_scheme      calc
_refine_ls_wR_factor_gt          0.2450
_refine_ls_wR_factor_ref         0.2599
_reflns_Friedel_coverage         0.748
_reflns_Friedel_fraction_full    0.911
_reflns_Friedel_fraction_max     0.851
_reflns_number_gt                1481
_reflns_number_total             1718
_reflns_threshold_expression     'I > 2\s(I)'
_iucr_refine_instructions_details
;
TITL 2016sot0087_r1_100k_a.res in P2(1)
    2016sot0087_r1_100k.res
    created by SHELXL-2016/6 at 10:29:35 on 31-Oct-2016
REM Old TITL 2016sot0087_R1_100K in P2(1)/m
REM SHELXT solution in P2(1)
REM R1 0.174, Rweak 0.081, Alpha 0.004, Orientation as input
REM Flack x = -0.275 ( 3.090 ) from Parsons' quotients
REM Formula found by SHELXT: C6 O6
CELL 0.71073 5.0898 7.4264 9.8417 90 102.176 90
ZERR 2 0.0014 0.0013 0.0025 0 0.026 0
LATT -1
SYMM -X,0.5+Y,-Z
SFAC C H F O
UNIT 12 18 6 6

L.S. 10
PLAN  20
TEMP -173(2)
BOND $H
list 4
fmap 2
MORE -1
ACTA 52
CONF
SHEL 7 0.74
REM <olex2.extras>
REM <HklSrc "%.\\2016sot0087_R1_100K.hkl">
REM </olex2.extras>

WGHT    0.158600    0.412100
FVAR       1.21428
F1    3   -0.709463   -0.123940   -0.215787    11.00000    0.03910    0.02289 =
         0.05737    0.00132    0.01036    0.00815
F2    3   -0.919743   -0.332949   -0.449898    11.00000    0.03458    0.03959 =
         0.04743    0.01529   -0.01360   -0.00442
F3    3   -0.478965   -0.532234   -0.453663    11.00000    0.04881    0.03169 =
         0.02452    0.00411    0.00903   -0.00368
O1    4   -0.271337   -0.506417   -0.167120    11.00000    0.02864    0.01397 =
         0.02573   -0.00233    0.00159   -0.00113
O2    4   -0.201390   -0.227618   -0.076441    11.00000    0.04569    0.01880 =
         0.03292   -0.00356   -0.00886   -0.00204
AFIX 147
H2    2   -0.143996   -0.246364    0.008832    11.00000   -1.50000
AFIX   0
O3    4   -0.160815   -0.873765   -0.119138    11.00000    0.05192    0.02031 =
         0.03640   -0.00454   -0.00992    0.00713
AFIX 147
H3    2   -0.129827   -0.983856   -0.127520    11.00000   -1.50000
AFIX   0
C2    1   -0.395912   -0.350460   -0.128016    11.00000    0.03316    0.02000 =
         0.02374    0.00060    0.00139    0.00254
AFIX  13
H2A   2   -0.504114   -0.380363   -0.057217    11.00000   -1.20000
AFIX   0
C3    1   -0.573991   -0.268436   -0.257384    11.00000    0.02695    0.02295 =
         0.03288    0.00502    0.00330    0.00379
AFIX  13
H3A   2   -0.461159   -0.226850   -0.323089    11.00000   -1.20000
AFIX   0
C4    1   -0.771890   -0.403268   -0.326127    11.00000    0.02686    0.02729 =
         0.03294    0.00898   -0.00337   -0.00415
AFIX  13
H4    2   -0.896950   -0.432503   -0.263344    11.00000   -1.20000
AFIX   0
C5    1   -0.637324   -0.573027   -0.358010    11.00000    0.03068    0.02608 =
         0.02627    0.00602   -0.00203   -0.00546
AFIX  13
H5    2   -0.774552   -0.666196   -0.396831    11.00000   -1.20000
AFIX   0
C6    1   -0.455990   -0.640661   -0.223656    11.00000    0.03051    0.01818 =
         0.02073    0.00363    0.00137   -0.00731
AFIX  13
H6    2   -0.569067   -0.671623   -0.155301    11.00000   -1.20000
AFIX   0
C7    1   -0.298322   -0.804096   -0.249090    11.00000    0.04119    0.01962 =
         0.02554   -0.00079    0.00158   -0.00366
AFIX  23
H7A   2   -0.421237   -0.896525   -0.299825    11.00000   -1.20000
H7B   2   -0.167517   -0.770981   -0.306388    11.00000   -1.20000
AFIX   0
HKLF 4




REM  2016sot0087_r1_100k_a.res in P2(1)
REM R1 =  0.0891 for    1481 Fo > 4sig(Fo)  and  0.0985 for all    1718 data
REM    111 parameters refined using      1 restraints

END  
     
WGHT      0.1588      0.4154 

REM Highest difference peak  0.835,  deepest hole -0.489,  1-sigma level  0.138
Q1    1  -0.3276 -0.5295 -0.4055  11.00000  0.05    0.84
Q2    1  -0.7927 -0.3201 -0.4304  11.00000  0.05    0.64
Q3    1  -0.3278 -0.8854 -0.1615  11.00000  0.05    0.52
Q4    1  -0.1251 -0.8226 -0.2060  11.00000  0.05    0.51
Q5    1  -0.9229 -0.3248 -0.5180  11.00000  0.05    0.51
Q6    1  -0.3760 -0.2372 -0.1161  11.00000  0.05    0.51
Q7    1  -0.8825 -0.1219 -0.2716  11.00000  0.05    0.49
Q8    1  -0.3866 -0.2656 -0.2239  11.00000  0.05    0.46
Q9    1  -0.0479 -0.2460 -0.0186  11.00000  0.05    0.45
Q10   1  -0.6231 -0.4045 -0.3043  11.00000  0.05    0.43
Q11   1   0.0610 -0.9872 -0.0071  11.00000  0.05    0.43
Q12   1  -1.0020 -0.3767 -0.3815  11.00000  0.05    0.40
Q13   1  -0.0833 -0.4862 -0.1241  11.00000  0.05    0.40
Q14   1  -0.9128 -0.5575 -0.1913  11.00000  0.05    0.39
Q15   1  -0.2627 -0.6650 -0.1800  11.00000  0.05    0.39
Q16   1  -0.7530 -0.6997 -0.4420  11.00000  0.05    0.38
Q17   1  -0.1411 -0.8780 -0.0423  11.00000  0.05    0.37
Q18   1  -0.0131 -0.3448 -0.0129  11.00000  0.05    0.37
Q19   1  -0.5088 -0.1243 -0.1823  11.00000  0.05    0.36
Q20   1  -0.2455 -0.5291 -0.2642  11.00000  0.05    0.36

  REM The information below was added by Olex2.
  REM
  REM R1 = 0.0891 for 1481 Fo > 4sig(Fo) and 0.0985 for all 2756 data
  REM n/a parameters refined using n/a restraints
  REM Highest difference peak 0.84, deepest hole -0.49
  REM Mean Shift 0, Max Shift 0.000.
  
  REM +++ Tabular Listing of Refinement Information +++
  REM R1_all = 0.0985
  REM R1_gt = 0.0891
  REM wR_ref = n/a
  REM GOOF = n/a
  REM Shift_max = 0.000
  REM Shift_mean = 0
  REM Reflections_all = 2756
  REM Reflections_gt = 1481
  REM Parameters = n/a
  REM Hole = -0.49
  REM Peak = 0.84
  REM Flack = -0.6(10)
  
  
;
_cod_data_source_file            jo9b00310_si_004.cif
_cod_data_source_block           2016sot0087_r1_100k
_cod_original_cell_volume        363.64(15)
_cod_database_code               4034360
_shelx_space_group_comment
;
The symmetry employed for this shelxl refinement is uniquely defined
by the following loop, which should always be used as a source of
symmetry information in preference to the above space-group names.
They are only intended as comments.
;
_diffrn_measurement_device_type2 'Rigaku AFC12 (Right)'
_reflns_odcompleteness_completeness 91.86
_reflns_odcompleteness_iscentric 1
_reflns_odcompleteness_theta     29.84
_olex2_refinement_description
;
1. Fixed Uiso
 At 1.2 times of:
  All C(H) groups, All C(H,H) groups
 At 1.5 times of:
  All O(H) groups
2.a Ternary CH refined with riding coordinates:
 C2(H2A), C3(H3A), C4(H4), C5(H5), C6(H6)
2.b Secondary CH2 refined with riding coordinates:
 C7(H7A,H7B)
2.c Idealised tetrahedral OH refined as rotating group:
 O2(H2), O3(H3)
;
_shelx_shelxl_version_number     2016/6
_olex2_date_sample_submission    2016-10-26
_olex2_diffrn_ambient_temperature_device 'Oxford Cryosystems'
_olex2_exptl_crystal_mounting_method
'The crystal was mounted on a MITIGEN holder silicon oil'
_olex2_submission_original_sample_id 'LQ-0096 '
_olex2_submission_special_instructions 'No special instructions were received'
_oxdiff_exptl_absorpt_empirical_details
;
Empirical correction (ABSPACK) includes:
- Frame scaling
- Detector area scaling
;
_oxdiff_exptl_absorpt_empirical_full_max 1.642
_oxdiff_exptl_absorpt_empirical_full_min 0.736
loop_
_space_group_symop_operation_xyz
'x, y, z'
'-x, y+1/2, -z'
loop_
_atom_site_label
_atom_site_type_symbol
_atom_site_fract_x
_atom_site_fract_y
_atom_site_fract_z
_atom_site_U_iso_or_equiv
_atom_site_adp_type
_atom_site_occupancy
_atom_site_site_symmetry_order
_atom_site_calc_flag
_atom_site_refinement_flags_posn
F1 F -0.7095(9) -0.1239(6) -0.2158(5) 0.0398(11) Uani 1 1 d .
F2 F -0.9197(9) -0.3329(7) -0.4499(5) 0.0438(12) Uani 1 1 d .
F3 F -0.4790(9) -0.5322(6) -0.4537(4) 0.0348(10) Uani 1 1 d .
O1 O -0.2713(9) -0.5064(5) -0.1671(4) 0.0234(9) Uani 1 1 d .
O2 O -0.2014(11) -0.2276(6) -0.0764(5) 0.0350(12) Uani 1 1 d .
H2 H -0.143996 -0.246364 0.008832 0.052 Uiso 1 1 calc GR
O3 O -0.1608(12) -0.8738(7) -0.1191(5) 0.0390(13) Uani 1 1 d .
H3 H -0.129827 -0.983856 -0.127520 0.059 Uiso 1 1 calc GR
C2 C -0.3959(13) -0.3505(8) -0.1280(6) 0.0263(13) Uani 1 1 d .
H2A H -0.504114 -0.380363 -0.057217 0.032 Uiso 1 1 calc R
C3 C -0.5740(13) -0.2684(9) -0.2574(7) 0.0280(13) Uani 1 1 d .
H3A H -0.461159 -0.226850 -0.323089 0.034 Uiso 1 1 calc R
C4 C -0.7719(13) -0.4033(9) -0.3261(7) 0.0305(14) Uani 1 1 d .
H4 H -0.896950 -0.432503 -0.263344 0.037 Uiso 1 1 calc R
C5 C -0.6373(13) -0.5730(9) -0.3580(7) 0.0289(13) Uani 1 1 d .
H5 H -0.774552 -0.666196 -0.396831 0.035 Uiso 1 1 calc R
C6 C -0.4560(13) -0.6407(8) -0.2237(6) 0.0237(12) Uani 1 1 d .
H6 H -0.569067 -0.671623 -0.155301 0.028 Uiso 1 1 calc R
C7 C -0.2983(14) -0.8041(9) -0.2491(6) 0.0296(13) Uani 1 1 d .
H7A H -0.421237 -0.896525 -0.299825 0.036 Uiso 1 1 calc R
H7B H -0.167517 -0.770981 -0.306388 0.036 Uiso 1 1 calc R
loop_
_atom_site_aniso_label
_atom_site_aniso_U_11
_atom_site_aniso_U_22
_atom_site_aniso_U_33
_atom_site_aniso_U_23
_atom_site_aniso_U_13
_atom_site_aniso_U_12
F1 0.039(2) 0.0229(19) 0.057(3) 0.0013(18) 0.0104(19) 0.0081(16)
F2 0.035(2) 0.040(2) 0.047(3) 0.0153(19) -0.0136(17) -0.0044(19)
F3 0.049(2) 0.032(2) 0.0245(17) 0.0041(16) 0.0090(15) -0.0037(17)
O1 0.029(2) 0.0140(18) 0.0257(19) -0.0023(14) 0.0016(15) -0.0011(15)
O2 0.046(3) 0.019(2) 0.033(2) -0.0036(17) -0.009(2) -0.0020(19)
O3 0.052(3) 0.020(2) 0.036(3) -0.0045(19) -0.010(2) 0.007(2)
C2 0.033(3) 0.020(3) 0.024(3) 0.001(2) 0.001(2) 0.003(2)
C3 0.027(3) 0.023(3) 0.033(3) 0.005(2) 0.003(2) 0.004(2)
C4 0.027(3) 0.027(3) 0.033(3) 0.009(3) -0.003(2) -0.004(2)
C5 0.031(3) 0.026(3) 0.026(3) 0.006(2) -0.002(2) -0.005(2)
C6 0.031(3) 0.018(3) 0.021(3) 0.004(2) 0.001(2) -0.007(2)
C7 0.041(3) 0.020(3) 0.026(3) -0.001(2) 0.002(2) -0.004(3)
loop_
_atom_type_symbol
_atom_type_description
_atom_type_scat_dispersion_real
_atom_type_scat_dispersion_imag
_atom_type_scat_source
C C 0.0033 0.0016 'International Tables Vol C Tables 4.2.6.8 and 6.1.1.4'
H H 0.0000 0.0000 'International Tables Vol C Tables 4.2.6.8 and 6.1.1.4'
F F 0.0171 0.0103 'International Tables Vol C Tables 4.2.6.8 and 6.1.1.4'
O O 0.0106 0.0060 'International Tables Vol C Tables 4.2.6.8 and 6.1.1.4'
loop_
_geom_angle_atom_site_label_1
_geom_angle_atom_site_label_2
_geom_angle_atom_site_label_3
_geom_angle
C6 O1 C2 112.9(5)
C2 O2 H2 109.5
C7 O3 H3 109.5
O1 C2 H2A 110.6
O1 C2 C3 108.8(5)
O2 C2 O1 108.5(5)
O2 C2 H2A 110.6
O2 C2 C3 107.5(5)
C3 C2 H2A 110.6
F1 C3 C2 108.0(5)
F1 C3 H3A 110.0
F1 C3 C4 109.1(5)
C2 C3 H3A 110.0
C4 C3 C2 109.8(5)
C4 C3 H3A 110.0
F2 C4 C3 109.7(5)
F2 C4 H4 109.0
F2 C4 C5 108.6(6)
C3 C4 H4 109.0
C3 C4 C5 111.6(5)
C5 C4 H4 109.0
F3 C5 C4 108.2(5)
F3 C5 H5 110.4
F3 C5 C6 109.0(5)
C4 C5 H5 110.4
C4 C5 C6 108.3(5)
C6 C5 H5 110.4
O1 C6 C5 110.0(5)
O1 C6 H6 109.2
O1 C6 C7 107.6(5)
C5 C6 H6 109.2
C7 C6 C5 111.5(5)
C7 C6 H6 109.2
O3 C7 C6 108.8(5)
O3 C7 H7A 109.9
O3 C7 H7B 109.9
C6 C7 H7A 109.9
C6 C7 H7B 109.9
H7A C7 H7B 108.3
loop_
_geom_bond_atom_site_label_1
_geom_bond_atom_site_label_2
_geom_bond_distance
F1 C3 1.383(8)
F2 C4 1.391(7)
F3 C5 1.396(8)
O1 C2 1.412(7)
O1 C6 1.402(6)
O2 H2 0.8400
O2 C2 1.363(8)
O3 H3 0.8400
O3 C7 1.420(8)
C2 H2A 1.0000
C2 C3 1.525(8)
C3 H3A 1.0000
C3 C4 1.479(9)
C4 H4 1.0000
C4 C5 1.499(10)
C5 H5 1.0000
C5 C6 1.529(8)
C6 H6 1.0000
C6 C7 1.505(9)
C7 H7A 0.9900
C7 H7B 0.9900
loop_
_geom_torsion_atom_site_label_1
_geom_torsion_atom_site_label_2
_geom_torsion_atom_site_label_3
_geom_torsion_atom_site_label_4
_geom_torsion
F1 C3 C4 F2 66.6(7)
F1 C3 C4 C5 -173.0(5)
F2 C4 C5 F3 57.1(6)
F2 C4 C5 C6 175.1(5)
F3 C5 C6 O1 60.9(6)
F3 C5 C6 C7 -58.4(6)
O1 C2 C3 F1 175.6(5)
O1 C2 C3 C4 56.8(7)
O1 C6 C7 O3 66.6(6)
O2 C2 C3 F1 -67.0(6)
O2 C2 C3 C4 174.2(5)
C2 O1 C6 C5 63.2(6)
C2 O1 C6 C7 -175.1(4)
C2 C3 C4 F2 -175.3(6)
C2 C3 C4 C5 -54.9(7)
C3 C4 C5 F3 -63.9(6)
C3 C4 C5 C6 54.1(7)
C4 C5 C6 O1 -56.6(7)
C4 C5 C6 C7 -176.0(5)
C5 C6 C7 O3 -172.7(5)
C6 O1 C2 O2 -179.1(5)
C6 O1 C2 C3 -62.5(6)
loop_
_refln_index_h
_refln_index_k
_refln_index_l
_refln_F_squared_meas
_refln_F_squared_sigma
0 0 -1 3.95 0.27
0 0 1 -0.21 0.17
0 0 2 1056.36 4.5
0 0 -2 998 4.21
0 0 3 2571.06 10.33
0 0 -3 1621.18 6.6
0 0 -4 0.86 0.77
0 0 4 0.74 0.78
0 0 5 41.88 1.7
0 0 -5 39.7 1.61
0 0 -6 115.52 2.66
0 0 -7 0.71 1
0 0 -7 -0.31 0.76
0 0 -8 5.16 1.29
0 0 -8 3.92 0.93
0 0 -9 130.59 2.58
0 0 -9 218.93 4.46
0 0 -10 122.49 2.55
0 0 -10 128.33 3.77
0 0 -11 8.75 1.8
0 0 -11 -3.51 2.28
0 0 -12 3.05 1.72
0 -1 0 0.43 0.3
0 1 0 0.06 0.37
0 1 0 0.78 0.29
0 -1 0 0.8 0.34
0 1 -1 1258.45 5.4
0 1 -1 990.33 2.43
0 -1 -1 1069.31 3.43
0 1 1 1247.1 3.68
0 -1 1 1312.88 3.24
0 -1 -1 1170.83 3.46
0 1 -2 888.67 3.91
0 1 2 903.96 4.3
0 -1 -3 627.04 4.26
0 1 -3 607.95 3.98
0 1 -4 386.02 3.74
0 -1 -4 404.99 3.97
0 1 -5 200.81 3.07
0 -1 -5 202.32 3.18
0 1 -6 110.24 2.57
0 -1 -6 107.09 2.6
0 -1 -7 365.47 4.94
0 -1 -7 358.34 3.8
0 -1 -8 9.94 1.41
0 1 -8 10.43 1.41
0 1 -8 4.98 0.83
0 -1 -8 6.12 1.12
0 -1 -9 22.44 1.52
0 -1 -9 58.79 2.57
0 1 -9 56.07 2.5
0 1 -9 16.37 1.13
0 1 -10 5.33 1.03
0 -1 -10 6.66 1.3
0 1 -10 10.33 1.65
0 -1 -10 9.42 1.68
0 -1 -11 26.03 2.3
0 1 -11 24.5 2.2
0 -1 -12 5.63 1.88
0 1 -12 3.42 1.73
0 -2 0 280.01 1.96
0 -2 0 334.13 2.7
0 2 0 268.8 1.3
0 2 0 327.17 2.68
0 2 0 287.39 1.99
0 2 1 468.65 3.42
0 2 -1 418.32 1.66
0 -2 -1 369.69 2.01
0 -2 1 408.06 2.05
0 2 -1 412.8 2.07
0 -2 1 518.67 3.47
0 -2 -1 405.6 2.7
0 2 1 457.38 2.49
0 -2 1 367.45 1.6
0 -2 2 339.14 2.39
0 2 -2 337.51 1.66
0 -2 2 388.17 1.72
0 -2 -2 282.37 2.46
0 2 2 316.18 2.77
0 -2 -2 348.4 2.88
0 2 -2 333.56 2.38
0 -2 -3 165.93 2.21
0 -2 -3 146.58 2.15
0 2 3 160.65 2.43
0 -2 3 151.8 1.97
0 2 -3 155.7 2.05
0 -2 -4 394.14 3.93
0 2 4 422.23 4.39
0 2 -4 396.54 3.74
0 2 -4 430.09 1.79
0 -2 4 366.92 3.41
0 2 -5 846.23 2.79
0 -2 -5 703.33 5.81
0 -2 5 671.26 5.12
0 -2 -5 826.39 5.46
0 2 -5 759.81 5.66
0 -2 -6 515.09 5.42
0 2 -6 497.97 2.47
0 -2 -7 263.4 3.59
0 2 -7 279.04 2.13
0 2 -7 383.2 4.89
0 -2 -7 372.34 5.05
0 -2 -8 55.68 2
0 -2 -8 70.58 2.59
0 2 -8 69.59 2.5
0 2 -8 47.19 1.1
0 -2 -9 2.87 1.24
0 2 -9 2.35 1.27
0 -2 -9 0.92 1.9
0 -2 -9 2.57 1.32
0 2 -9 1.69 0.63
0 2 -10 5.47 1.47
0 -2 -10 3.13 1.47
0 -2 -10 1.27 1.28
0 -2 -11 18.09 2.08
0 2 -11 13.79 1.92
0 -2 -12 6.65 1.95
0 2 -12 8.39 1.92
0 -3 0 -0.24 0.67
0 3 0 -0.48 0.84
0 -3 0 0.25 0.79
0 3 0 -0.01 0.38
0 3 0 -0.07 0.28
0 3 -1 665.08 4.73
0 -3 -1 585.68 4.55
0 -3 -1 478.98 3.49
0 3 -1 513.85 2.99
0 -3 1 610.51 4.52
0 -3 -1 539.56 3.13
0 3 1 556.14 4.46
0 3 1 513.25 2.92
0 3 -1 570.38 2.23
0 -3 1 488.82 2.92
0 -3 2 321.95 3.61
0 -3 -2 308.75 2.5
0 3 2 393.33 3.24
0 3 2 239.04 3.39
0 -3 2 289.16 2.04
0 -3 -2 249.24 2.8
0 -3 2 285.62 1.93
0 3 -2 259.51 1.96
0 3 -2 362.85 2.18
0 -3 3 729.5 2.89
0 3 -3 700 4.03
0 -3 -3 621.99 4.39
0 3 -3 612.72 2.63
0 -3 -3 605.29 4.67
0 3 3 714.26 5.15
0 -3 -4 24.2 1.21
0 3 4 29.48 1.44
0 -3 -4 27.36 1.39
0 3 -4 26.06 1.12
0 -3 4 28.97 1.21
0 3 -5 35.49 1.44
0 -3 -5 35.15 1.55
0 -3 -5 39.2 1.6
0 3 -6 32.93 1.53
0 -3 -6 31.29 1.68
0 -3 -6 36.19 1.73
0 -3 -7 23.74 1.62
0 3 -7 23.85 1.54
0 -3 -8 13.51 1.57
0 3 -8 11.33 1.44
0 3 -9 8.57 1.51
0 -3 -9 10.07 1.57
0 -3 -10 48.59 2.63
0 3 -10 52.22 2.58
0 -3 -11 16.81 1.94
0 -3 -11 12.53 1.98
0 3 -11 12.69 1.86
0 -3 -12 6.74 1.86
0 3 -12 7.13 1.92
0 4 0 765.3 3.43
0 4 0 772.49 5.87
0 -4 1 488.95 4.74
0 4 1 425.01 2.91
0 4 -1 457.8 2.07
0 4 -1 361.36 1.69
0 -4 -1 388.55 3.58
0 4 1 445.78 4.65
0 -4 -1 439.95 3.04
0 -4 1 382.89 3.13
0 4 -1 526.16 4.9
0 -4 -1 471.42 4.84
0 -4 -2 172.59 2.7
0 -4 -2 184.09 2.42
0 4 2 177.3 2.36
0 -4 2 189.45 2.07
0 4 -2 173.67 1.54
0 4 -3 153.97 1.84
0 -4 3 164.52 1.74
0 4 3 122.09 3.15
0 -4 -3 142.21 2.3
0 -4 -3 136.54 2.57
0 4 3 156.92 2.63
0 -4 3 130.34 1.76
0 -4 -4 29.31 1.29
0 4 -4 32.76 1.14
0 4 4 36.73 1.97
0 -4 -4 30.92 1.62
0 -4 4 39.09 0.83
0 -4 4 31.58 1.27
0 -4 5 4.41 0.65
0 -4 -5 6.21 0.97
0 -4 -5 7.05 1.26
0 4 -5 6.67 0.88
0 -4 -6 10.55 1.21
0 4 -6 9.49 1.07
0 4 -7 65.09 2.2
0 -4 -7 65.56 2.38
0 4 -8 51.37 2.14
0 -4 -8 49.41 2.34
0 4 -9 141.32 3.51
0 -4 -9 142.77 3.84
0 -4 -10 90.36 3.4
0 4 -10 85.44 3.08
0 -4 -11 92.22 3.67
0 4 -11 82.73 3.23
0 -4 -12 23.07 2.45
0 4 -12 48.29 2.96
0 5 0 0.03 0.29
0 -5 0 0.13 0.83
0 5 0 0.16 0.37
0 5 0 -0.33 1.08
0 5 1 88.95 2.5
0 -5 1 64.56 1.63
0 -5 -1 68.72 1.85
0 5 1 65.85 1.28
0 5 -1 95.87 2.55
0 5 2 243.07 4.02
0 -5 -2 324.72 3.29
0 5 2 319.44 3.26
0 -5 -2 219.38 3.26
0 -5 2 245.81 2.66
0 5 3 75.3 1.97
0 -5 -3 83.43 2.25
0 -5 3 83.78 1.55
0 -5 3 49.49 1.09
0 5 3 100.9 2.87
0 -5 -3 79.88 1.99
0 5 -3 57.49 1.02
0 -5 -4 662.21 6.18
0 5 -4 691.25 4.22
0 -5 -4 785.08 6.24
0 -5 4 943.16 6.22
0 -5 4 858.32 4.06
0 5 4 642.44 7.13
0 -5 -5 4.15 1.26
0 -5 5 1.41 0.85
0 -5 5 1.16 0.45
0 -5 -5 1.41 0.79
0 5 5 4.09 1.6
0 5 -5 0.67 0.71
0 5 -6 67.11 1.97
0 -5 -6 62.14 2.03
0 -5 -7 109.23 2.79
0 5 -7 123.6 2.75
0 5 -8 18.83 1.53
0 -5 -8 15.72 1.49
0 -5 -8 17.86 1.93
0 -5 -9 9.98 1.54
0 5 -9 11.22 1.54
0 -5 -9 12.19 1.92
0 -5 -10 -0.11 1.63
0 -5 -10 0.91 1.71
0 -5 -11 5.06 1.93
0 -5 -11 4.9 1.62
0 6 0 123.2 1.21
0 6 0 118.83 3.19
0 6 1 2.88 0.56
0 6 1 3.01 0.66
0 6 -1 15.64 1.68
0 -6 -1 10.27 1.25
0 -6 1 8.83 1.13
0 6 1 11.06 1.6
0 -6 2 422.77 4
0 6 2 443.05 5.89
0 6 3 402.69 4.35
0 -6 -3 419.3 5.08
0 6 3 463.65 6.24
0 -6 3 470.47 3.92
0 -6 -3 454.95 4.62
0 -6 -4 356.54 4.59
0 -6 4 387.44 3.2
0 6 4 303.27 5.51
0 -6 -4 334.44 4.78
0 6 -5 184.05 2.28
0 -6 -5 158.3 3.67
0 -6 -6 32.33 2.09
0 -6 -6 34.89 2.22
0 -6 -7 75.56 3.06
0 -6 -7 113.49 3.58
0 -6 -8 13.46 2.01
0 -6 -8 9.3 1.74
0 -6 -9 4.11 1.78
0 6 9 -1.78 2.17
0 -6 -9 -0.77 1.79
0 -6 -10 4.11 1.95
0 -6 -10 1.13 1.9
0 -7 0 -0.76 1.16
0 7 0 -0.19 1.51
0 -7 -1 108.22 2.72
0 -7 1 104.24 2.49
0 -7 -2 92.36 2.69
0 -7 2 93.71 2.32
0 7 3 55.16 2.78
0 -7 3 52.2 1.7
0 -7 -3 47.08 2.21
0 7 4 22.14 2.31
0 -7 -4 26.25 1.96
0 -7 -5 65.01 2.47
0 -7 -5 56.36 2.63
0 7 6 13.46 2.43
0 -7 -6 8.88 1.6
0 7 7 2.5 2.13
0 -7 -7 7.31 1.85
0 -7 -7 7.24 1.72
0 -7 -8 4.95 1.89
0 7 8 -0.72 2.13
0 -7 -9 2.97 2
0 -7 -10 1.19 2.18
0 8 0 178.89 4.6
0 -8 0 138.91 3.2
0 -8 -1 131.1 3.28
0 -8 1 139.07 3.06
0 8 2 81.4 3.46
0 -8 -2 79.81 2.81
0 -8 -3 67.14 2.76
0 8 3 60.72 3.29
0 -8 -4 47.83 2.57
0 8 4 29.94 2.9
0 -8 -5 6.14 1.79
0 8 5 7.43 2.24
0 -8 -6 0.13 1.76
0 8 6 5.11 2.24
0 -8 -7 1.34 1.94
0 8 7 1.51 2.31
0 -9 0 1.29 1.5
0 9 0 1.32 1.97
0 -9 -1 9.33 1.75
0 9 1 9.8 2.3
0 -9 1 7.86 1.61
0 -9 -2 2.94 1.7
0 9 2 6.81 2.23
0 9 3 42.79 3.15
0 -9 -3 55.17 2.83
0 9 4 7.94 2.49
0 -9 -4 8.6 1.94
0 9 5 8.68 2.56
0 -9 -5 9.57 2.08
0 -10 -1 -1.44 1.81
0 -10 -2 10.52 2.13
1 0 -12 3.21 1.44
1 0 -11 4.41 1.53
1 0 -10 21.73 1.31
1 0 -10 5.92 1.47
1 0 -9 18.32 1.17
1 0 -9 11.61 1.47
1 0 -8 9.36 1.28
1 0 -8 0.66 1.49
1 0 -7 12.83 0.98
1 0 -7 18.59 1.36
1 0 -6 33.69 1.22
1 0 -6 -0.29 1.27
1 0 -5 181.6 2.77
1 0 -5 169.08 1.93
-1 0 4 85.26 1.84
1 0 -4 31.55 0.89
-1 0 4 15.83 0.79
1 0 -4 84.32 1.8
1 0 -3 771.11 3.19
-1 0 3 978.6 4.89
1 0 -3 1171.94 5.92
-1 0 2 9999 14.99
1 0 -1 311.9 1.91
-1 0 1 160.39 1.99
-1 0 1 278.87 1.8
-1 0 1 173.94 1.11
-1 0 0 1029.86 4.11
1 0 0 983.23 4.65
1 0 1 4.55 0.76
-1 0 -1 4.01 0.71
-1 0 -1 5.24 0.64
-1 0 -2 613.16 4
1 0 2 837.53 5.53
1 0 3 237.4 3.15
-1 0 -3 172.39 2.37
-1 0 -4 273.77 3.3
1 0 4 354.62 4.37
-1 0 -5 8.94 1.68
-1 0 -6 120.68 3.04
-1 0 -7 150.6 3.55
-1 0 -8 116.52 3.46
-1 0 -9 11.03 1.75
-1 0 -10 76.02 3.28
-1 0 -11 1.96 1.76
-1 0 -12 7.61 2.06
1 1 -13 2.37 1.91
1 -1 -12 2.45 1.72
1 1 -12 1.6 1.42
1 -1 -11 15.45 1.74
1 1 -11 15.03 1.81
1 -1 -10 12.77 1.67
1 -1 -10 16.33 1.38
1 1 -10 12.24 1.6
1 1 -9 18.83 1.64
1 -1 -9 19.59 1.75
1 -1 -8 50.56 1.81
1 1 -8 58.37 1.27
1 1 -8 92.18 2.62
1 -1 -8 94.55 2.73
1 1 -7 128.09 2.77
1 -1 -7 127.87 2.88
1 -1 -7 96.59 2
1 1 -7 92.65 1.43
1 1 -6 5.6 0.93
1 1 -6 11.86 0.62
1 -1 -6 6.87 1
1 -1 -6 12.29 0.98
1 1 -5 536.58 2.52
1 1 -5 737.37 5.18
-1 -1 5 195.66 4.63
-1 -1 5 862.77 6.04
1 -1 -5 618.56 4.77
1 -1 -5 429.36 3.68
-1 -1 4 36.04 0.7
1 -1 -4 65.4 1.51
-1 1 4 39.26 1.25
1 -1 -4 60.08 1.38
-1 1 4 73.51 1.8
1 1 -4 66.31 1.42
-1 -1 4 90.23 1.81
1 1 -4 86.26 0.92
-1 -1 3 197.49 2.13
1 -1 -3 228.41 2.86
1 1 -3 231 1.33
-1 1 3 189.27 2.34
-1 1 3 17.94 1.33
1 1 -3 224.96 2.51
1 -1 -3 156.31 1.86
-1 -1 3 46.84 1.62
-1 -1 3 126.86 1.02
-1 1 3 122.24 1.68
1 -1 -2 3050.22 8.94
-1 -1 2 3037.91 7.59
-1 -1 1 1029.9 4.33
1 1 -1 970.55 4.2
-1 1 1 1206.08 5.69
1 -1 -1 1446.5 4.71
-1 1 1 1575.27 5.18
1 -1 -1 1377.75 4.93
-1 -1 1 1834.32 4.42
-1 1 1 1635.1 5.97
-1 1 1 1524.44 4.84
1 -1 0 1140.47 4.16
-1 1 0 713.45 4.24
-1 -1 0 876.08 4.06
1 1 0 1010.77 4.9
-1 1 0 1118.23 4.06
-1 1 0 1304.89 4.84
1 -1 0 1241.28 4.72
1 -1 0 718.5 4.27
1 -1 1 343.44 2.39
1 1 1 232.61 2.51
1 -1 1 195.6 2.31
-1 1 -1 364.42 2.39
-1 1 -1 190.99 2.12
-1 -1 -1 217.49 2.31
-1 1 -2 442.2 3.74
1 1 2 445.62 3.78
-1 1 -3 2302.29 6.76
1 -1 3 2279.8 10.27
1 1 4 1017.72 7.26
1 -1 4 999.68 7.15
-1 1 -5 366.53 4.74
-1 -1 -5 353.73 4.6
-1 -1 -6 100.46 2.76
-1 1 -6 104.77 2.83
-1 -1 -7 11.5 1.51
-1 1 -7 13.42 1.57
-1 -1 -8 91.32 3.11
-1 1 -8 87.78 3.04
-1 -1 -9 143.37 4.03
-1 1 -9 159.4 4.2
-1 -1 -10 1.9 1.58
-1 1 -10 1.69 1.62
-1 1 -11 -0.24 1.68
-1 -1 -11 2.27 1.42
-1 -1 -11 -1.58 1.75
-1 1 -12 -1.33 1.85
1 2 -13 3.86 1.54
1 -2 -12 8.96 1.67
1 2 -12 12.32 1.77
1 2 -11 37.96 2.33
1 -2 -11 43.34 2.71
1 -2 -10 3.73 1.34
1 2 -10 0.92 1.23
1 -2 -10 1.38 1.21
1 -2 -9 171.92 3.7
1 2 -9 184.04 3.79
1 -2 -8 329.6 4.64
1 2 -8 346.8 4.7
1 -2 -7 194.26 3.43
1 2 -7 213.27 3.44
1 2 -6 35.09 1.46
1 -2 -6 39.07 1.77
1 -2 -5 57.67 1.59
-1 -2 5 61.39 1.73
1 -2 -5 48.48 1.58
1 2 -5 47.8 1.43
-1 -2 4 504.43 3.92
1 -2 -4 516.47 4.92
1 -2 -4 422.05 3.66
-1 2 4 448.34 4.31
1 2 -4 424.19 3.46
1 -2 -3 383.03 3.84
-1 2 3 324.6 3.22
-1 -2 3 358.57 2.72
1 2 -3 372.07 2.95
1 -2 -3 355.84 3.14
-1 2 3 321.45 3.18
-1 -2 3 277.52 1.22
-1 2 2 1200.07 5.32
1 -2 -2 1153.24 5.18
-1 -2 2 1621.9 5.49
-1 2 2 1282.04 6.59
1 -2 -2 1617.38 7.01
-1 -2 2 1372.48 4.02
-1 2 2 1713.61 7.21
-1 2 1 261.66 2.97
1 -2 -1 377.69 3.32
-1 -2 1 296.62 2.14
-1 2 1 323 2.67
-1 2 1 252.08 2.59
1 2 -1 429.37 2.6
-1 -2 1 399.55 2.5
1 -2 -1 332.75 2.69
-1 2 1 428.47 3.53
1 -2 0 1230.68 5.96
1 2 0 1498.3 4.99
-1 2 0 1454.75 5.26
1 -2 0 1540.58 6.6
-1 2 0 1692.45 6.9
1 2 0 1266.03 4.23
-1 -2 0 1621.07 4.91
-1 2 0 1256 6.02
1 -2 0 1492.21 5.39
-1 2 -1 2324.7 8.26
1 -2 1 2583.97 6.91
1 -2 1 1834.07 7.53
1 2 1 2210.05 7.18
1 -2 1 2706.04 9.47
-1 2 -1 2408.94 6.67
-1 -2 -1 1803 5.62
1 2 2 1304.82 6.62
1 -2 2 1254.34 6.59
-1 2 -2 1447.18 5.23
-1 2 -2 1367.33 6.79
-1 -2 -2 1208.34 5.75
1 -2 2 1465.37 5.31
1 2 3 174.97 2.8
-1 -2 -3 175.64 2.79
-1 2 -3 140.68 1.73
-1 2 -3 167.86 2.55
1 -2 3 128.09 1.76
1 -2 3 171.9 2.78
-1 2 -4 699.33 5.09
1 -2 4 753.89 5.76
-1 2 -5 138.17 2.73
-1 -2 -5 148.85 3.07
-1 2 -6 28.53 1.76
-1 -2 -6 27.86 1.7
-1 2 -7 136.4 2.25
-1 2 -7 140.83 3.48
-1 -2 -7 131.75 3.38
-1 2 -8 8.25 1.53
-1 -2 -8 4.33 1.42
-1 2 -9 27.04 2.12
-1 -2 -9 28.74 2.19
-1 -2 -10 40.8 2.65
-1 2 -10 40.79 2.64
-1 -2 -10 32.84 2.15
-1 -2 -11 28.69 2.57
-1 2 -11 24.96 2.42
-1 2 -12 18.58 2.44
-1 -2 -12 8.71 1.89
1 3 -13 3.01 1.77
1 3 -12 50.51 2.97
1 -3 -12 55.33 3.41
1 3 -11 10.51 1.55
1 -3 -11 10.55 1.78
1 -3 -11 11.27 1.66
1 -3 -10 57.34 2.65
1 3 -10 63.98 2.54
1 3 -9 81.02 2.61
1 -3 -9 77.19 2.74
1 3 -8 126.63 2.93
1 -3 -8 125.54 3.15
1 -3 -7 339.6 4.62
1 3 -7 340.74 4.26
-1 -3 6 53.92 1.61
1 3 -6 57.92 1.67
1 3 -5 48.28 1.27
-1 -3 5 72.76 1.87
1 -3 -5 73.66 2.28
1 -3 -5 54.61 1.75
1 -3 -4 471.99 4.26
1 3 -4 561.36 3.8
-1 3 3 134.08 2.95
1 -3 -3 259.67 3.35
1 -3 -3 135.87 2.29
-1 -3 3 262.9 2.16
1 3 -3 248.61 2.16
-1 3 3 223.95 2.86
-1 -3 3 98.95 1.16
-1 -3 3 178.56 2.63
-1 -3 2 642.9 4.28
-1 3 2 571.86 4.26
-1 -3 2 875.38 2.68
1 -3 -2 916.62 5.62
-1 3 2 656.1 3.96
1 -3 -2 619.79 4.36
-1 -3 2 459.66 2.25
-1 3 2 564.28 5.03
1 3 -1 871.85 4.79
-1 3 1 663.67 4.92
-1 -3 1 819.43 4.65
-1 3 1 819.1 5.73
1 -3 -1 756.16 5.54
-1 3 1 688.09 4.39
1 -3 -1 704.5 4.44
-1 3 1 742.47 4.71
-1 3 0 1973.59 8.8
-1 3 0 1536.17 6.23
1 -3 0 1578.2 6.33
-1 -3 0 1587.38 4.57
-1 3 0 1359.82 6.7
1 3 0 1755.54 6.92
1 3 0 1059.26 3.58
1 -3 0 1813.37 8.46
1 -3 1 68.94 1.45
1 3 1 44.12 1.52
1 3 1 88.23 1.58
-1 -3 -1 89.65 1.49
-1 3 -1 79.1 1.57
-1 3 -1 58.68 1.34
1 -3 1 58.08 1.59
1 -3 1 53.65 1.78
1 -3 2 1581.54 6.04
-1 3 -2 1584.46 8.17
1 -3 2 1631.46 9.14
-1 3 -2 1333.94 5.79
1 -3 2 1263.52 7.04
-1 -3 -2 1356.63 6.46
1 3 2 1336.36 6.97
1 -3 3 496.01 3.39
1 3 3 331.62 3.81
-1 -3 -3 347.58 3.77
1 -3 3 354.7 4.01
-1 3 -3 504.21 3.42
-1 3 -3 355.22 3.82
-1 -3 -4 67.96 1.98
-1 3 -4 66.84 1.35
1 -3 4 68.29 1.96
-1 3 -5 411.33 4.58
-1 3 -5 405.33 3.09
-1 3 -6 39.4 1.95
-1 -3 -6 37.37 1.88
-1 3 -6 43.46 1.21
-1 3 -7 89.15 2.85
-1 -3 -7 83.47 2.83
-1 -3 -8 13.26 1.7
-1 3 -8 14.44 1.64
-1 -3 -9 11.15 1.78
-1 3 -9 13.93 1.8
-1 3 -10 43.43 2.64
-1 -3 -10 36.15 2.53
-1 -3 -11 34.63 2.7
-1 3 -11 37.16 2.74
-1 3 -12 2.41 1.95
-1 -3 -12 1.69 1.8
1 -4 -12 1.61 1.78
1 -4 -11 68.46 2.97
1 4 -11 57.23 2.41
1 -4 -10 35.89 2.29
1 4 -10 29.41 1.78
1 4 -9 29 1.6
1 -4 -9 41.45 2.71
1 -4 -8 2.64 1.53
1 -4 -8 1.63 1.31
1 4 -8 0.36 0.85
1 4 -7 6.13 0.88
1 -4 -7 10.7 1.47
1 -4 -7 9.69 1.58
1 4 -6 90.74 2.11
-1 -4 6 97.95 2.04
1 -4 -6 93.64 2.58
1 -4 -5 84.07 2.53
1 -4 -5 84.39 2.36
1 4 -5 69.69 1.63
-1 -4 5 70.39 1.55
1 -4 -4 95.75 2.42
1 -4 -4 78.1 2.14
-1 4 4 74.05 2.68
-1 -4 4 86.39 1.35
1 4 -4 87.56 1.49
-1 -4 3 113.43 1.47
1 -4 -3 116.47 2.41
1 -4 -3 126.13 2.48
-1 4 3 146.58 3.18
-1 -4 3 144.72 2.73
-1 -4 3 123.74 1.17
-1 4 3 104.6 2.13
-1 4 2 64.24 1.44
-1 4 2 86.79 2.48
-1 -4 2 72.27 1.39
1 -4 -2 80.35 1.94
-1 -4 2 94.15 2.08
-1 -4 1 1299.02 7.01
-1 -4 1 1054.38 5.25
1 -4 -1 1140.13 6.32
-1 4 1 1404.18 6.83
-1 4 1 1262.66 8.13
1 4 -1 1375.52 7.23
-1 4 1 1124.78 6.79
-1 4 0 145.59 2.18
-1 4 0 127.43 2.1
-1 4 0 125.86 2.27
-1 -4 0 109.84 1.01
-1 4 0 140.72 2.85
1 4 0 131.33 2.41
1 -4 0 129.21 2.15
1 4 1 35.06 1.27
-1 -4 -1 33.79 0.92
-1 4 -1 45.85 1.35
1 -4 1 25.8 1.28
-1 4 -1 36.46 1.33
1 -4 1 43.2 1.36
1 4 1 43.61 1.68
1 -4 2 78.03 2
-1 -4 -2 114.48 1.92
-1 4 -2 142.58 2.61
1 -4 2 112.63 1.95
-1 4 -2 100.39 1.82
1 4 2 85.46 2.43
1 4 2 115.57 2.21
1 -4 3 106.02 1.8
1 -4 3 108.43 2.45
-1 -4 -3 113.37 2.2
-1 4 -3 109.67 2.23
1 4 3 106.38 2.24
-1 4 -4 10.04 0.91
-1 -4 -4 13.01 1.15
1 -4 4 10.79 1.04
-1 4 -5 38.43 1.68
-1 -4 -5 41.87 1.77
-1 4 -6 64.07 2.31
-1 4 -6 8.84 2.69
-1 4 -6 29.66 1.12
-1 -4 -6 59.66 2.29
-1 4 -7 295.12 4.81
-1 -4 -7 274.93 4.8
-1 -4 -8 30.86 2.08
-1 -4 -8 36.25 2.23
-1 4 -9 26.88 2.13
-1 -4 -9 24.49 2.12
-1 4 -10 74.21 3.19
-1 -4 -10 72.85 3.31
-1 4 -11 3.68 1.83
-1 -4 -11 0.25 1.81
-1 -4 -11 1.04 1.76
1 -5 -11 0.47 1.76
1 -5 -11 0.66 2.07
1 -5 -10 1.2 1.68
1 -5 -10 6.04 2.03
1 -5 -9 7.55 1.89
1 -5 -9 10.3 1.71
1 -5 -8 1.62 1.49
-1 5 8 1.96 1.88
1 5 -8 1.62 0.83
1 -5 -8 2.27 1.58
1 5 -7 112.14 2.55
1 -5 -7 121.67 3.22
1 -5 -6 167.93 3.57
1 5 -6 187.02 2.83
1 5 -5 40.61 1.16
-1 5 5 67.78 2.89
1 -5 -5 49.36 2.13
-1 -5 5 33.79 0.86
1 -5 -5 70.65 2.37
1 -5 -4 258.14 3.96
-1 5 4 328.6 5.28
1 -5 -4 316.83 4.35
-1 -5 4 235.28 2.07
-1 5 3 241.57 4.31
1 -5 -3 241.29 3.57
-1 5 2 19.59 1.38
-1 -5 2 20.46 1
-1 5 2 24.79 1.77
1 -5 -2 23.83 1.41
1 5 -1 21.07 1.41
-1 5 1 12.86 1.11
-1 5 1 11.31 0.75
-1 5 1 17.53 1.62
-1 -5 1 15.69 1.03
1 -5 -1 16.21 1.22
-1 5 0 287.27 3.12
1 5 0 228.68 3.51
1 -5 0 213.26 3
-1 -5 0 184.29 2.76
-1 5 0 247.24 4.14
-1 5 0 297.83 3.71
-1 -5 -1 18.56 1.32
-1 5 -1 33.89 1.22
1 5 1 23.17 1.52
-1 5 -1 27.33 1.13
1 -5 1 24.99 1.29
1 5 1 22.79 0.8
-1 -5 -1 27.83 0.81
1 -5 2 16.79 1.18
-1 -5 -2 18.76 1.4
-1 -5 -2 33.46 1.11
-1 5 -2 37.81 1.35
1 5 2 33.8 1.27
1 -5 2 27.37 1.26
1 5 2 19.41 1.55
-1 5 -3 123.64 2.25
1 5 3 141.67 3.28
-1 5 -3 82.94 1.8
-1 -5 -3 132.48 2.87
1 -5 3 80.64 2.24
-1 -5 -3 99.98 2.04
1 -5 3 145.96 2.29
1 5 3 102.51 2.36
1 -5 4 206.51 2.63
-1 5 -4 118.57 2.19
1 5 4 190.66 4.15
-1 -5 -4 200.21 3.66
-1 5 -4 169.26 2.46
-1 -5 -4 142.22 2.74
1 -5 4 120.44 2.87
-1 5 -5 67.42 2.12
1 5 5 46.64 2.63
-1 -5 -5 58.67 2.43
1 -5 5 52.72 1.51
-1 -5 -5 65.26 2.16
-1 5 -6 298.41 4.47
-1 -5 -6 267.44 4.38
-1 -5 -7 29.81 1.93
-1 5 -7 28.49 1.88
-1 -5 -8 3.57 1.67
-1 5 -8 6.78 1.52
-1 -5 -8 8.36 1.59
-1 5 -9 15.1 1.85
-1 -5 -9 17.58 1.97
-1 -5 -10 -1.69 1.81
-1 -5 -10 3.49 1.74
-1 5 -10 3.8 1.7
1 -6 -10 5.61 2.22
-1 6 10 2.3 2.37
1 -6 -10 7.7 2.06
1 -6 -9 17.79 2.32
1 -6 -9 12.98 2.04
1 -6 -8 7.8 1.83
1 -6 -8 9.69 1.91
1 -6 -7 64.42 2.9
1 -6 -7 51.67 2.54
1 -6 -6 24.9 1.95
1 -6 -6 26.76 2.05
1 -6 -5 98.21 2.92
1 -6 -5 103.72 3.04
1 -6 -4 2.15 1.14
1 -6 -4 2.96 1.32
-1 6 4 4.44 1.66
-1 -6 4 2.81 0.71
-1 6 3 44.18 2.43
-1 6 3 32.28 1.87
-1 -6 3 36.65 1.34
1 -6 -3 46.33 2
-1 6 2 15.79 1.34
-1 -6 2 10.76 1.01
1 -6 -2 14.06 1.42
-1 6 2 10.72 1.67
1 6 -1 348.35 4.84
1 -6 -1 293.77 3.97
-1 6 1 277.46 3.79
-1 -6 1 261.2 3.38
-1 6 1 306.27 3.17
-1 6 1 342.58 5.37
-1 -6 0 4.69 1.11
-1 6 0 6.6 1.55
1 6 0 5.62 1.37
-1 6 0 10.8 0.69
-1 6 0 11.75 0.98
1 -6 0 6.49 1.22
-1 6 -1 406.96 3.71
-1 -6 -1 333.47 2.47
1 6 1 289.75 2.43
1 6 1 333.26 4.83
-1 6 -1 400.25 3.92
-1 -6 -1 297.73 4.03
1 -6 1 348.25 4.04
1 6 2 392.97 5.42
-1 -6 -2 607.5 4.5
-1 -6 -2 363.08 4.71
1 6 2 476.42 4.07
1 -6 2 483.18 4.59
-1 6 -2 495.35 3.96
1 -6 3 120.02 2.31
-1 -6 -3 110.32 2.19
-1 -6 -3 98.16 2.76
1 6 3 102 3.16
-1 6 -3 91.78 1.79
1 6 4 62.45 2.91
-1 6 -4 37.83 1.47
-1 -6 -4 62.15 2.47
-1 -6 -4 43.15 1.64
1 -6 4 61.05 1.74
1 -6 5 79.47 1.8
-1 6 -5 100.93 2.48
-1 -6 -5 67.44 2.66
-1 -6 -5 84.68 2.4
1 6 5 56.01 3.07
-1 -6 -6 4.76 1.61
-1 6 -6 7.16 1.23
-1 -6 -6 -0.39 1.6
1 6 6 -0.25 1.71
-1 -6 -6 6.38 1.23
-1 -6 -7 3.11 1.66
-1 -6 -7 0.95 1.89
1 6 7 -0.43 1.95
-1 -6 -7 4.84 1.37
-1 -6 -8 0.47 2.14
1 6 8 0.46 2.15
-1 -6 -9 10.06 2.25
-1 -6 -9 15.21 1.94
-1 -6 -10 10.92 2.03
1 -7 -10 6.26 2.4
1 -7 -9 -0.23 1.88
1 -7 -9 1.7 1.92
1 -7 -8 5.52 2.02
-1 7 8 0.73 2.16
1 -7 -8 6.15 1.94
-1 7 7 17.23 2.68
1 -7 -7 31.96 2.49
1 -7 -6 60.06 2.8
1 -7 -6 79.04 2.99
1 -7 -5 82.42 2.82
1 -7 -5 77.47 2.9
-1 7 4 15.94 1.79
-1 7 4 21.47 2.51
1 -7 -3 4.92 1.46
-1 7 3 4.66 1.81
-1 7 3 3.09 1.27
-1 -7 3 4.75 0.96
-1 7 2 12.33 1.41
-1 7 2 26.78 2.25
-1 -7 2 17.54 1.3
1 -7 -2 20.99 1.72
-1 7 1 78.64 2.15
1 7 -1 88.65 2.97
1 -7 -1 73.85 2.41
-1 7 1 94.46 3.32
1 -7 0 298.59 4.23
1 7 0 357.34 5.42
-1 7 0 309.8 3.53
-1 7 0 388.48 6.28
-1 -7 0 261.53 3.96
1 -7 1 44.82 1.93
-1 -7 -1 40.91 1.97
-1 -7 -2 283.52 4.64
1 7 2 315.55 5.36
-1 -7 -3 11.08 1.64
1 -7 3 13.49 1.32
1 7 4 66.56 3.25
-1 -7 -4 66.62 2.74
1 7 5 23.93 2.59
-1 -7 -5 42.28 2.53
-1 -7 -6 4.4 1.68
-1 -7 -6 2.54 1.12
1 7 6 4.29 2.06
-1 -7 -7 1.69 1.09
-1 -7 -7 1.6 1.77
1 7 7 1.4 2.13
-1 -7 -8 -1.18 1.83
-1 -7 -8 1.84 1.29
1 7 8 0.8 2.21
-1 -7 -9 15.1 1.8
1 -8 -7 2.88 1.98
-1 8 7 3.69 2.34
-1 8 6 5.77 2.48
1 -8 -6 25.29 2.39
-1 8 5 77.82 3.89
1 -8 -5 108.93 3.59
-1 8 4 193.64 5.33
1 -8 -4 201.84 4.5
-1 8 3 189.26 5.15
1 -8 -3 169.3 3.99
-1 -8 2 53.73 2.04
-1 8 2 55.08 3.12
-1 8 1 15.24 2.24
-1 -8 1 9.03 1.38
1 -8 -1 12.82 1.68
1 8 0 66.42 2.98
1 -8 0 62.79 2.37
1 8 1 30.2 2.42
-1 -8 -1 25.18 1.98
-1 -8 -2 0.52 1.51
1 8 2 3.11 1.86
1 -8 2 6.64 1.4
1 8 3 71.44 3.35
-1 -8 -3 69.88 2.94
1 8 4 12.04 2.27
-1 -8 -4 11.78 1.93
1 8 5 16.38 2.55
-1 -8 -5 21.52 2.3
1 8 6 8.06 2.64
-1 -8 -6 26.01 2.56
1 8 7 3.21 2.53
1 -9 -5 130.19 4.24
1 -9 -4 22.25 2.37
-1 9 4 16.35 2.83
1 -9 -3 32.08 2.46
-1 9 3 31.26 3.04
-1 9 2 11.18 2.44
1 -9 -2 11.73 1.89
-1 9 1 10.94 2.47
1 -9 -1 11.02 1.89
-1 -9 0 3.49 1.54
1 -9 0 4.55 1.6
1 9 0 0.91 1.99
1 9 1 14.05 2.33
1 -9 1 18.28 1.84
-1 -9 -1 11.18 1.84
1 9 2 6.6 2.22
-1 -9 -2 7.05 1.88
-1 -9 -3 17.84 2.21
1 9 3 12.69 2.42
-1 -9 -4 4.01 1.95
1 9 4 5.56 2.29
1 9 5 8.49 2.57
1 -10 -2 1.65 1.88
1 -10 -1 6.26 2
-1 -10 -1 1.61 1.81
1 10 1 3.06 2.25
1 10 2 6.33 2.51
-1 -10 -2 8.26 2.11
2 0 -12 21.8 2.65
2 0 -11 5.38 1.93
2 0 -10 38.68 1.58
2 0 -10 82.75 3.39
2 0 -9 30.41 2.26
2 0 -9 11.59 1.1
2 0 -8 13.35 1.69
2 0 -8 7.05 0.93
2 0 -7 2.64 0.78
-2 0 7 0.79 0.74
-2 0 6 26.2 1.16
2 0 -6 17.96 1.52
2 0 -5 135.2 1.94
-2 0 5 113.82 1.83
2 0 -4 1438.03 8.21
-2 0 4 846.61 4.5
-2 0 4 1019.87 5.78
2 0 -4 1246.15 5.39
-2 0 3 9.85 1.03
-2 0 3 17.12 1.4
-2 0 3 30.97 1.1
2 0 -3 33.26 1.11
2 0 -2 1568.64 6.16
-2 0 2 909.41 3.46
-2 0 2 978.07 6.86
-2 0 2 1858.23 8.46
-2 0 2 1350.87 5.59
2 0 -1 810.31 4.49
2 0 -1 452.08 4.65
2 0 -1 533.16 2.61
-2 0 1 488.26 4.77
-2 0 1 751.95 4.3
-2 0 0 409.46 3.29
2 0 0 367.82 3.17
2 0 0 210.83 3.26
-2 0 0 249.63 3.3
2 0 1 983.26 6.12
-2 0 -1 1025.23 5.96
-2 0 -2 112.54 2.1
2 0 2 125.27 2.75
-2 0 -3 10 1.31
-2 0 -4 6.42 1.09
-2 0 -5 56.52 1.93
-2 0 -6 193.65 3.91
-2 0 -7 344.39 7.12
-2 0 -8 4.96 1.72
-2 0 -9 37.76 2.65
-2 0 -10 0.48 1.76
-2 0 -11 1.59 1.98
2 1 -13 9.61 2.52
2 -1 -12 11.11 2.35
2 1 -12 9.04 2.24
2 -1 -11 2.66 1.25
2 1 -11 6.63 1.88
2 -1 -11 6.46 2
2 -1 -10 34.2 2.65
2 1 -10 30.32 2.35
2 1 -9 233.79 4.84
2 -1 -9 233.38 5.08
2 1 -8 278.35 4.92
2 -1 -8 285.43 5.2
2 1 -7 28.52 1.8
2 -1 -7 29.53 1.92
2 -1 -7 9.89 1.04
2 1 -7 17.37 0.84
2 1 -6 85.74 2.47
2 -1 -6 81.82 2.59
2 1 -6 80.12 1.38
2 1 -5 865.13 6.62
2 -1 -5 882.8 7.2
-2 1 5 426.64 3.85
-2 -1 5 424.11 2.89
2 -1 -5 640.43 4.51
2 1 -5 823.53 3.98
2 1 -4 869.67 4.14
-2 -1 4 684.2 4.57
-2 1 4 483.74 3.84
-2 -1 4 502.63 3.12
2 -1 -4 685.94 4.5
2 -1 -4 1009.72 7.16
2 1 -4 998.57 6.56
2 1 -3 447.95 3.08
-2 1 3 366.64 3.34
-2 -1 3 326.53 3.62
-2 1 3 335.98 4.06
-2 -1 3 230.82 3.57
-2 1 3 343.79 3.14
2 -1 -3 438.5 3.52
-2 -1 3 348.85 2.68
-2 -1 2 105.69 1.64
-2 1 2 60.9 2.08
-2 -1 2 52.97 1.87
-2 -1 2 71.51 1.75
-2 1 2 62.5 1.84
-2 1 2 129.77 1.91
-2 1 2 103.45 1.81
2 -1 -2 113.95 1.92
2 -1 -1 373.4 3.25
-2 -1 1 417.32 3.21
2 -1 -1 297.32 2.72
-2 1 1 332.32 2.91
2 -1 -1 250.28 3.58
2 1 -1 229.79 3.29
-2 1 1 225.41 3.5
-2 -1 1 266.5 3.45
-2 1 1 366.91 3.17
2 1 0 438.82 4.42
2 -1 0 751.09 4.76
-2 -1 0 762.77 4.59
2 -1 0 463.34 4.84
-2 1 0 454.92 4.12
-2 -1 0 553.3 4.56
2 -1 0 697.7 4.35
-2 1 0 743.31 4.6
2 -1 1 34.9 1.38
-2 1 -1 34.46 1.61
-2 -1 -1 29.79 1.38
2 1 1 29.39 1.4
2 -1 2 472.64 4.98
-2 1 -2 523.97 4.15
2 1 2 518.25 5.3
-2 1 -2 457.8 4.53
-2 1 -3 646.97 4.68
-2 1 -3 656.27 6.44
-2 -1 -4 220.04 3.39
-2 1 -4 257.09 4.1
-2 1 -5 458.37 5.21
-2 -1 -5 366.81 4.22
-2 1 -6 196.55 3.36
-2 -1 -6 309.28 5.28
-2 1 -7 223.96 4.65
-2 -1 -7 242.34 4.94
-2 1 -8 81.31 3.24
-2 -1 -8 84.86 3.31
-2 1 -9 5.86 1.84
-2 -1 -9 3.53 1.75
-2 1 -10 2.77 1.83
-2 -1 -10 0.32 1.73
-2 1 -11 21.06 2.59
-2 -1 -11 25.24 2.73
2 2 -13 0.12 2.1
2 -2 -12 10.12 2.36
2 2 -12 4.66 2.03
2 2 -11 26.95 2.48
2 -2 -11 34.24 2.82
2 2 -10 10.17 1.87
2 -2 -10 11.24 2.04
2 -2 -10 16.47 1.58
2 2 -9 104.99 3.39
2 -2 -9 111.3 3.82
2 -2 -9 106.31 2.63
2 2 -8 20.43 1.77
2 -2 -8 21.84 2
2 -2 -7 79.07 2.88
2 2 -7 75.51 2.47
2 2 -6 199.38 3.44
2 -2 -6 215.29 4.08
2 -2 -5 212.6 3.78
2 2 -5 209.26 3.2
2 -2 -4 43.89 1.87
-2 -2 4 41.3 1.28
-2 -2 3 103.45 1.51
-2 -2 3 97.08 1.92
-2 2 3 92.49 2.36
-2 2 3 83.19 2.65
-2 -2 3 64.08 1.92
-2 2 3 156.7 2.65
-2 2 3 117.53 2.14
2 -2 -3 139.5 2.3
-2 -2 2 294.95 2.69
-2 -2 2 264.6 2.94
2 -2 -2 284.28 3.33
-2 2 2 216.79 3.65
-2 -2 2 125.44 0.97
-2 -2 2 161.86 2.69
-2 2 2 300.49 3.38
-2 2 2 270.78 3.7
-2 2 2 266.45 2.99
2 -2 -2 309.87 3.27
-2 -2 1 121.26 2.1
2 -2 -1 67.65 2.27
2 -2 -1 70.57 1.82
2 2 -1 72 1.84
-2 2 1 83.96 2.34
2 2 -1 46.64 0.66
-2 2 1 98.4 2.06
-2 2 1 98.97 1.9
2 -2 -1 115.83 2.07
-2 2 0 2.31 1.19
2 2 0 0.97 0.89
-2 2 0 1.84 0.82
2 -2 0 1.64 0.87
-2 -2 0 1.05 0.8
2 -2 0 2.77 0.93
2 -2 0 0.31 0.94
2 -2 1 190.8 2.62
2 -2 1 163.8 2.86
2 -2 1 132.6 2.95
2 2 1 159.33 2.47
-2 2 -1 179.7 2.91
-2 -2 -1 212.77 3.09
-2 2 -1 184.73 2.55
2 -2 2 563.84 4.48
2 2 2 549.46 5.11
-2 -2 -2 577.98 5.06
-2 2 -2 588.77 4.43
-2 -2 -3 8.58 0.95
-2 2 -3 9.27 1.26
-2 -2 -4 71.95 1.84
-2 2 -4 113.09 2.88
-2 -2 -5 84.89 2.67
-2 2 -5 73.9 2.26
-2 2 -6 97.4 2.62
-2 -2 -6 126.42 3.45
-2 2 -7 24.74 2.1
-2 -2 -7 19.08 1.89
-2 2 -8 25.37 2.2
-2 -2 -8 21.83 2.08
-2 2 -9 1.37 1.7
-2 -2 -9 2.06 1.63
-2 2 -10 9.53 2.1
-2 -2 -10 10.46 2.09
-2 2 -11 -2.6 3.39
-2 2 -11 1.8 1.97
2 3 -13 6.17 2.43
2 3 -12 41.14 2.99
2 -3 -12 48.22 3.52
2 3 -11 35.84 2.65
2 -3 -11 30.65 2.89
2 -3 -11 30.69 2.2
2 3 -10 75.28 3.14
2 -3 -10 77.57 3.61
2 3 -9 82.18 3.01
2 -3 -9 75.86 2.6
2 -3 -8 145.05 4.03
2 -3 -8 140.81 3.17
2 -3 -7 56.03 2.57
2 -3 -7 59.75 2.16
2 3 -6 37.39 1.67
2 -3 -6 38.68 2.05
2 -3 -6 39.53 1.77
2 -3 -5 412.67 5.35
2 3 -5 384.3 4.15
-2 3 5 145.26 3.47
-2 -3 5 375.16 3.76
2 -3 -5 255.1 3.55
-2 -3 4 139.42 2.59
-2 -3 4 142.92 2.21
-2 3 4 120.26 2.88
-2 -3 4 287.54 2.9
2 -3 -4 343.42 4.61
2 -3 -4 196.68 3.01
-2 -3 4 167.48 1.67
-2 -3 3 991.82 4.59
-2 3 3 781.72 7.38
-2 3 3 966.59 6.98
2 -3 -3 1023.73 6.38
-2 -3 3 720.38 3.76
-2 -3 3 768.88 4.2
-2 -3 3 676.52 4.91
-2 -3 2 1090.78 5.37
-2 3 2 1112.51 7.56
-2 3 2 785.97 6.88
-2 -3 2 811.69 3.93
-2 -3 2 1334.66 7.04
2 -3 -2 1023.42 6.21
-2 3 2 981.04 6.79
-2 3 1 1037.91 7.07
2 3 -1 578.43 4.47
-2 3 1 767.55 6.65
-2 -3 1 768.16 4.16
2 3 -1 944.76 4.3
2 -3 -1 1012.29 6.12
-2 3 0 798.52 7.03
2 -3 0 414.33 4.99
2 3 0 382.23 3.18
2 3 0 441.32 4.17
-2 -3 0 735.33 4.96
2 -3 0 588.93 4.65
2 3 1 673.67 4.73
-2 3 -1 901.38 6.69
2 -3 1 677.77 6.47
-2 -3 -1 954.95 5.93
2 -3 1 1065.89 6.23
-2 -3 -2 258.53 3.09
2 3 2 258.97 3.4
2 -3 3 102.19 2.14
-2 3 -3 107.24 2.71
-2 -3 -4 229.7 4.02
-2 3 -4 227.62 4.03
-2 -3 -5 17.99 1.62
-2 3 -5 13.82 1.35
-2 3 -6 45.62 1.97
-2 -3 -6 61.5 2.55
-2 3 -7 18.76 1.99
-2 -3 -7 15.28 1.8
-2 3 -8 11.53 1.91
-2 -3 -8 10.27 1.79
-2 3 -9 43.18 2.75
-2 -3 -9 44.09 2.8
-2 3 -10 0.89 1.82
-2 3 -10 0.4 3.18
-2 -3 -10 -0.78 1.77
-2 -3 -11 2 1.84
-2 3 -11 3.36 2.08
2 -4 -12 10.59 2.06
2 4 -11 12.32 2.06
2 -4 -11 11.62 2.38
2 -4 -11 6.86 1.87
2 -4 -10 5 1.63
2 4 -10 3.32 1.6
2 -4 -10 4.87 1.96
2 4 -9 77.96 2.91
2 -4 -9 74 2.8
2 4 -8 55.72 2.3
2 -4 -8 61.57 2.95
-2 4 8 1.69 1.81
2 -4 -8 19.8 1.83
2 -4 -7 3.93 1.37
2 4 -7 7.54 1.21
2 -4 -7 7.45 1.53
-2 4 6 60.61 2.83
-2 -4 6 84.08 2.12
2 4 -6 64.48 2.04
2 -4 -6 79.24 2.85
-2 -4 5 208.88 2.74
2 -4 -5 210.33 4.06
-2 -4 5 109.36 2.66
-2 -4 5 59.66 0.84
-2 4 5 140.81 3.6
2 -4 -5 201.44 3.49
-2 -4 5 66.78 0.84
-2 -4 4 134.05 1.68
-2 -4 4 98.15 2.01
-2 -4 4 160.78 2.05
-2 4 4 122.97 3.14
-2 -4 4 98.41 2.15
2 -4 -4 148.67 2.92
-2 4 3 103.74 3.06
-2 4 3 135.65 3.1
-2 -4 3 143.22 1.63
2 -4 -3 137.81 2.71
-2 -4 3 139.82 1.97
-2 -4 3 110.55 2.03
-2 -4 2 104.3 1.92
-2 -4 2 111.2 1.55
-2 4 2 114.86 2.79
2 -4 -2 105.5 2.31
-2 -4 2 115.07 1.55
2 4 -1 195.71 2.53
-2 -4 1 196.85 2.2
2 -4 0 79.37 2.48
2 4 0 82.48 1.83
-2 4 0 154.34 3.53
-2 4 0 127.99 3.05
2 -4 0 125.85 2.45
2 4 0 99.41 1.99
-2 -4 0 112.11 1.66
-2 -4 -1 125.89 1.78
2 4 1 168.67 2.86
2 4 1 134.04 2.27
-2 4 -1 156.01 2.87
2 -4 2 261.1 3.32
-2 -4 -2 267.44 3.44
-2 4 -2 257.16 3.85
-2 -4 -3 47.74 1.85
-2 4 -3 47.73 2.03
-2 -4 -4 55.6 2.15
-2 4 -4 61.55 2.31
-2 -4 -5 69.62 2.49
-2 4 -5 61.03 2.14
-2 4 -6 40.09 1.84
-2 -4 -6 51.76 2.4
-2 -4 -7 6.09 1.59
-2 4 -7 8 1.7
-2 4 -8 33.61 2.41
-2 -4 -8 32.85 2.37
-2 4 -9 25.19 2.41
-2 -4 -9 25.26 2.35
-2 -4 -10 1.01 1.79
-2 4 -10 3.68 1.94
-2 -4 -10 0.7 1.91
2 -5 -11 2.52 1.89
2 -5 -11 2.87 2.2
-2 5 11 1.73 2.36
2 -5 -10 15.99 2.43
2 -5 -10 12.57 2.04
2 -5 -9 1.48 1.6
-2 5 9 3.29 1.99
2 -5 -9 2.76 1.82
2 -5 -8 64.75 3.14
2 -5 -8 55.54 2.62
2 -5 -7 185.58 4.51
2 -5 -7 180.88 3.87
-2 -5 6 93.35 2.4
-2 5 6 65.08 3.05
-2 -5 5 79.73 1.8
-2 5 5 113.28 3.48
-2 -5 5 40.72 0.84
2 -5 -5 150.26 3.31
-2 -5 4 17.42 0.49
-2 5 4 10.8 1.63
-2 -5 4 12.26 0.48
-2 5 4 4.58 1.57
-2 -5 4 5.02 0.77
2 -5 -4 12.25 1.45
-2 5 3 97.01 3.04
2 -5 -3 104.4 2.62
-2 5 2 69.86 2.61
-2 -5 2 51.84 1.82
-2 5 2 50.76 2.26
2 -5 -2 67.13 2.11
-2 -5 1 25.27 0.63
-2 -5 1 17.38 0.61
-2 5 1 31.21 1.9
2 5 -1 89.11 2.18
-2 5 1 97.45 3
2 -5 -1 66.61 2.12
-2 -5 0 166.83 1.99
2 5 0 85.08 1.76
-2 5 0 117.04 2.46
-2 5 0 199.75 4.19
2 5 0 156.23 2.82
2 -5 0 180.22 3.11
2 5 1 46.7 1.83
-2 -5 -1 76.29 1.67
-2 5 -1 78.83 2.38
2 5 1 44.93 1.32
2 -5 1 56.7 1.92
-2 -5 -2 485.21 4.52
2 5 2 479.53 5.31
-2 -5 -3 656.25 5.82
-2 5 -3 655.23 6.46
-2 -5 -4 170.13 3.36
-2 5 -4 163.73 3.39
-2 -5 -5 140.23 3.32
-2 5 -5 122.02 2.87
-2 5 -6 43.89 1.78
-2 -5 -6 60.43 2.52
-2 5 -7 12.06 1.86
-2 -5 -7 12.14 1.71
-2 5 -8 12.15 1.91
-2 -5 -8 9.57 1.76
-2 -5 -9 -0.29 1.79
-2 5 -9 3.36 1.86
-2 5 -10 4.4 2.07
2 -6 -10 8.29 2.34
2 -6 -10 2.98 1.94
2 -6 -9 4.66 1.85
-2 6 9 2.93 2.17
2 -6 -8 1.27 1.63
2 -6 -8 7.32 1.95
2 -6 -7 9.59 1.83
2 -6 -7 8.06 1.76
2 -6 -6 3.29 1.57
-2 6 6 2.23 1.82
-2 6 5 43.14 2.72
2 -6 -5 53.15 2.41
-2 6 4 86.19 3.25
-2 6 4 91.81 3.42
-2 -6 3 2.68 0.89
2 -6 -3 3.69 1.38
-2 6 3 4.98 1.7
-2 6 3 1.48 1.35
-2 6 2 50.79 2.44
-2 -6 2 50.98 1.7
2 6 -1 227.15 3.83
2 -6 -1 232.07 3.88
2 6 0 24.23 1.64
-2 6 0 9.45 1.15
-2 -6 0 5.14 0.28
2 -6 0 18.65 1.57
2 6 1 74.68 2.48
-2 6 -1 75.09 2.15
-2 -6 -1 78.72 1.5
2 6 2 55.11 2.35
-2 6 -2 51.5 2.07
2 -6 3 100.72 2.49
-2 -6 -3 109.84 2.41
-2 6 -3 105.15 2.62
-2 -6 -4 18.8 1.44
-2 6 -4 17.44 1.39
2 6 4 15.7 2.03
-2 6 -5 13.69 1.35
2 -6 5 15.16 1.39
2 6 5 12.79 2.12
-2 -6 -5 15.62 1.53
2 6 6 7.92 2.06
-2 6 -6 6.96 1.52
-2 -6 -6 6.16 1.42
-2 -6 -6 12.03 1.95
-2 6 -7 33.33 2.34
-2 -6 -7 14.78 2.18
2 6 7 5.82 2.25
-2 -6 -7 28.98 2.12
-2 -6 -8 23.29 2.21
-2 -6 -8 12.06 2.29
-2 -6 -9 55.5 3.09
2 -7 -9 18.87 2.65
2 -7 -8 4.9 2.02
2 -7 -8 4.77 2.04
-2 7 8 2.93 2.28
2 -7 -7 2.52 1.75
-2 7 7 -0.91 2.05
-2 7 6 4.8 2.21
-2 7 6 5.76 1.95
2 -7 -5 1.34 1.57
-2 7 5 1.41 1.85
-2 7 5 2.22 1.65
-2 7 4 37.95 2.76
2 -7 -4 38.58 2.29
-2 7 3 67.56 3.28
-2 7 3 63.29 2.79
2 -7 -3 72.01 2.7
-2 7 2 72.91 2.79
2 -7 -2 74.42 2.66
-2 7 1 32.44 1.65
-2 7 1 43.88 2.79
2 7 -1 44.21 2.16
-2 -7 1 26.43 1.74
2 -7 -1 41.08 2.14
2 7 0 174.23 3.81
-2 7 0 176.65 3.27
2 -7 0 180.38 3.73
2 7 1 34.68 2.11
-2 7 -1 37.19 1.91
2 -7 1 30.99 1.93
-2 -7 -2 2.28 1.46
2 -7 2 4.15 1.33
2 7 2 1.06 1.51
-2 7 -2 6.75 1.28
2 -7 3 9.87 1.5
-2 -7 -3 4.93 1.59
2 7 3 8.26 1.83
2 7 4 3.02 1.71
-2 -7 -4 1.05 1.53
2 -7 4 1.26 1.29
-2 -7 -5 2.15 1.7
2 7 5 4.55 1.94
2 7 6 5.5 2.19
-2 -7 -6 11.13 2.17
-2 -7 -7 2.21 2
2 7 7 3.44 2.32
-2 8 6 92.25 4.45
2 -8 -6 139.23 4.25
-2 8 5 13.65 2.53
2 -8 -5 18.6 2.17
-2 8 4 19.85 2.61
2 -8 -4 17.55 2.08
-2 8 3 15 2.49
2 -8 -3 22.37 2.06
-2 8 2 18.23 2.51
2 -8 -2 15.94 1.92
-2 -8 1 1.39 1.28
2 -8 -1 3.15 1.56
-2 8 1 3.64 2.06
2 8 0 18.15 2.07
2 -8 0 21.15 1.97
2 8 1 22.55 2.19
-2 -8 -1 18.21 1.95
2 8 2 11.18 1.99
-2 -8 -2 7.8 1.8
2 8 3 9.51 2.12
-2 -8 -3 10.21 1.92
2 8 4 15.94 2.4
-2 -8 -4 14.06 2.19
2 8 5 17.41 2.61
-2 -8 -5 16.43 2.35
2 8 6 0.34 2.16
2 -9 -4 1.3 1.96
2 -9 -3 1.33 1.83
-2 9 3 -0.57 2.3
2 -9 -2 4.2 1.84
-2 9 2 2.95 2.36
2 -9 -1 14 2.01
-2 -9 0 2.35 1.61
2 -9 0 1.85 1.75
2 9 0 3.03 1.96
2 9 1 41.71 2.96
-2 -9 -1 30.64 2.38
-2 -9 -2 1.84 1.76
2 9 2 3.22 2.14
-2 -9 -3 13.01 2.33
2 9 3 20.11 2.68
2 9 4 37.07 3.22
3 0 -12 4.4 2.2
3 0 -11 51.09 3.22
3 0 -10 134.86 4.36
3 0 -10 153.7 2.83
3 0 -9 73.91 3.18
3 0 -9 46.93 1.99
3 0 -8 3.47 1.06
3 0 -8 1.51 1.48
3 0 -7 20.73 1.85
3 0 -7 17.22 1.25
3 0 -6 73.83 1.87
-3 0 5 38.73 2.19
-3 0 5 42.29 1.38
-3 0 4 7.95 1.36
-3 0 4 5.7 0.75
3 0 -3 11.29 1.1
-3 0 3 13.54 1.51
3 0 -2 282.01 3.51
-3 0 2 166.28 3.7
3 0 -1 8.11 1.07
-3 0 1 14.1 1.64
3 0 0 60.48 1.52
-3 0 0 72.43 2.18
-3 0 -1 0.11 0.84
-3 0 -2 245.57 4.63
-3 0 -3 80.95 2.91
-3 0 -4 3.14 1.41
-3 0 -5 258.5 4.56
-3 0 -6 4.17 1.27
-3 0 -7 -1.79 1.49
-3 0 -8 83.18 4.7
-3 0 -9 6.06 2.12
3 1 -12 16.2 2.59
3 -1 -12 13.67 2.58
3 1 -11 97.76 4.04
3 -1 -11 100.58 4.26
3 -1 -10 22.32 2.44
3 1 -10 23.04 2.31
3 -1 -10 16.91 1.55
3 1 -9 35.15 1.45
3 -1 -9 25.37 2.36
3 1 -9 22.84 2.1
3 -1 -9 32.5 1.8
3 1 -8 40.23 1.53
3 -1 -8 35.58 2.41
3 1 -8 34.77 2.24
3 -1 -8 40.33 1.82
3 1 -7 26.28 1.28
3 -1 -7 27.93 2.09
3 1 -7 29.56 2.01
3 -1 -7 25.44 1.58
3 1 -6 140.44 2.31
-3 1 6 65.73 2.15
-3 -1 6 73.05 1.74
3 -1 -6 143.3 2.69
3 1 -5 127.85 2.16
-3 1 5 65.59 2.89
-3 -1 5 67.59 2.65
-3 1 5 57.76 1.8
-3 -1 5 71.34 1.68
3 -1 -5 110.26 2.34
3 1 -4 109 2.14
-3 1 4 63.56 2.62
-3 -1 4 66.73 2.47
-3 -1 4 23.72 0.72
-3 1 4 50.69 1.53
-3 -1 4 61.2 1.6
3 -1 -4 98.13 2.2
3 -1 -3 22.99 1.33
3 1 -3 16.35 1.21
-3 1 3 10.89 1.57
-3 -1 3 10.44 1.4
-3 1 3 20.43 1.09
-3 -1 3 16.52 1.09
3 -1 -2 272.06 3.47
3 -1 -2 266.75 2.89
-3 -1 2 146.92 3.4
-3 1 2 296.05 3.03
-3 1 2 152.47 3.67
3 -1 -1 15.9 1.27
-3 1 1 12.18 1.46
3 -1 -1 16.94 1.01
-3 -1 1 10.47 1.03
3 -1 0 78.72 2.08
-3 1 0 78.84 2.35
-3 1 -1 72.59 2.52
-3 -1 -1 76.31 2.53
-3 1 -2 108.68 2.94
-3 -1 -2 108.11 2.93
-3 1 -3 217.9 4.32
-3 -1 -3 226.22 4.41
-3 1 -4 306.18 5.44
-3 -1 -4 243.35 4.24
-3 -1 -5 266.74 4.51
-3 1 -5 279.1 4.81
-3 1 -6 29.74 1.94
-3 -1 -6 23.48 1.57
-3 1 -7 14.52 1.5
-3 -1 -7 22.15 2.17
-3 1 -8 33.98 2.65
-3 -1 -8 31.04 2.66
-3 1 -9 26.63 2.71
-3 -1 -9 25.65 2.72
3 2 -13 9.41 2.52
3 -2 -12 16.65 2.77
3 2 -12 16.57 2.5
3 -2 -11 6.74 1.58
3 -2 -11 4.38 2.11
3 2 -11 3.52 1.87
3 -2 -10 21.07 2.46
3 2 -10 22.42 2.21
3 -2 -9 19.23 2.24
3 2 -9 20.48 2.01
3 -2 -8 46.39 2.68
3 2 -8 43.62 2.35
-3 2 7 12.55 1.72
3 -2 -7 69.1 2.27
-3 2 6 23.42 1.75
-3 -2 6 24.73 1.09
-3 -2 5 438.36 5.85
-3 -2 5 419.33 3.56
-3 -2 4 370.05 5.03
-3 -2 4 378.86 3.5
-3 -2 3 76.44 1.8
-3 2 3 56.84 2.55
-3 -2 3 53.42 2.14
-3 2 3 122.69 2.44
3 -2 -3 103.74 2.36
3 2 -2 103.25 2.8
3 -2 -2 149.9 2.65
-3 2 2 144.05 3.59
-3 -2 2 247.49 4.16
-3 2 2 181.01 2.89
3 -2 -2 202.03 3.15
3 -2 -1 216.4 3.25
3 -2 -1 153.08 2.72
-3 2 1 173.07 3.86
-3 -2 1 202.16 3.18
-3 2 0 31.55 1.79
-3 -2 0 31.71 1.66
-3 2 -1 76.3 2.68
-3 -2 -1 76.39 2.39
3 -2 2 18.8 1.41
-3 2 -2 22.85 1.83
-3 -2 -2 18.47 1.52
-3 2 -3 53.68 2.48
-3 -2 -3 49.63 2.16
-3 2 -4 150.75 3.89
-3 -2 -4 116.85 2.94
-3 -2 -5 329.16 4.87
-3 2 -5 409.7 6.23
-3 2 -6 25.55 1.87
-3 -2 -6 27.59 2.15
-3 -2 -7 4.52 1.72
-3 2 -7 5.7 1.4
-3 2 -8 27.12 2.66
-3 -2 -8 25.22 2.52
-3 2 -9 14.68 2.46
-3 -2 -9 10.49 2.26
3 3 -12 8.7 2.3
3 -3 -12 7.46 1.88
3 3 -11 22.9 2.46
3 -3 -11 18.95 2.04
3 -3 -10 4.81 2
3 3 -10 5.49 1.76
3 -3 -10 7.06 1.66
3 -3 -9 18.8 2.3
3 3 -9 17.13 1.88
3 -3 -8 40.55 2.62
3 3 -8 40.43 2.22
3 -3 -8 34.71 2.07
-3 3 7 2.74 1.54
3 -3 -7 3.77 1.36
3 -3 -7 2.45 1.55
-3 3 6 92 3.09
-3 -3 6 95.69 1.6
-3 3 5 100.23 3.59
-3 -3 5 89.82 2.77
-3 3 5 69.03 2.45
-3 -3 5 77 1.59
-3 3 4 92.1 3.25
-3 -3 4 31.77 0.67
-3 3 4 129.36 2.93
-3 -3 4 79.29 2.48
3 -3 -4 150.88 2.95
-3 -3 4 137.03 2.73
-3 -3 4 89.01 1.81
-3 3 3 203.6 4.35
-3 -3 3 216.83 3.65
-3 3 2 295.84 5.12
-3 3 2 428.74 4.97
-3 -3 2 316.82 3.7
3 -3 -2 444.71 4.74
-3 3 1 309.95 5.16
-3 -3 1 332.41 3.88
3 -3 0 158.29 2.94
3 3 0 106.43 1.59
-3 -3 0 172.51 3.44
-3 3 0 124.74 2.91
-3 3 -1 188.6 3.84
-3 -3 -1 192.86 3.49
3 -3 2 89.47 2.39
-3 -3 -2 86.85 2.48
3 -3 3 155.09 3.09
-3 -3 -3 165.62 3.22
-3 -3 -4 47.47 1.95
-3 3 -4 60.34 2.5
-3 -3 -5 45.08 2.38
-3 3 -5 46.06 2.45
-3 -3 -6 43.94 2.55
-3 3 -6 31.71 2.04
-3 3 -7 27.05 1.98
-3 -3 -7 34.56 2.58
-3 3 -8 18.12 2.41
-3 -3 -8 13.21 2.11
-3 3 -9 10.51 2.35
-3 -3 -9 8.14 2.1
3 -4 -12 8.91 2.15
3 -4 -11 3.8 1.8
3 -4 -11 2.64 2.22
-3 4 11 0.53 2.19
3 -4 -10 5.54 1.74
3 4 -10 1.6 1.53
3 -4 -10 2.8 2.02
-3 4 9 0.19 1.9
3 -4 -9 5.75 2
3 -4 -8 51.85 2.91
3 -4 -8 37.47 2.23
-3 -4 7 30.17 2.08
-3 4 7 18.4 2.16
-3 4 6 6.47 1.86
-3 -4 6 4.81 1.32
-3 4 5 7.39 1.8
-3 -4 5 6.14 1.22
3 -4 -5 7.99 1.43
-3 -4 4 8 0.98
-3 4 4 9.84 1.81
-3 -4 4 9.7 0.74
-3 4 4 21.97 1.83
-3 -4 4 4.91 1.13
-3 -4 4 5.31 0.88
3 -4 -4 17.52 1.62
-3 -4 3 177.24 2.8
-3 4 3 118.51 3.62
-3 4 3 176.12 3.67
-3 -4 3 126.57 2.34
3 -4 -3 172.66 3.35
-3 -4 2 309.79 3.72
-3 4 2 212.9 4.62
-3 4 2 345.62 5
-3 -4 2 218.81 2.87
3 -4 -2 295.57 4.19
-3 4 1 195.4 4.28
3 4 -1 195.74 2.15
-3 -4 1 240.04 3.48
3 -4 -1 256.74 3.91
3 4 0 22.88 1.66
3 4 0 32.53 1.2
-3 4 0 62.9 2.43
-3 -4 0 64.57 2.07
3 -4 0 53.33 2.04
3 -4 1 545.59 5.48
3 4 1 411.73 3.99
-3 4 -1 573.32 6.99
-3 -4 -1 468.45 4.79
-3 -4 -2 199.7 3.27
3 4 2 212.58 3.33
3 -4 3 57.24 2.18
-3 4 -3 58.6 2.67
-3 -4 -4 36.79 2.07
-3 4 -4 34.01 2.1
-3 -4 -5 16.36 1.85
-3 4 -5 19.06 1.95
-3 -4 -6 27.08 2.22
-3 4 -6 25.32 1.95
-3 -4 -7 9.11 1.89
-3 4 -7 4.61 1.44
-3 4 -8 12.69 2.32
-3 -4 -8 12.86 2.15
-3 4 -9 4.94 2.13
-3 -4 -9 2.16 1.97
3 -5 -11 0.14 1.88
3 -5 -10 10.59 2.36
3 -5 -10 8.92 2
3 -5 -9 58.68 3.39
3 -5 -9 33.67 2.48
-3 5 8 6.69 2.05
3 -5 -8 27.98 2.18
-3 5 7 77.81 3.82
-3 5 7 62.77 3.08
-3 5 6 127.33 4.45
-3 5 6 145.58 4.04
-3 5 5 4.65 1.86
3 -5 -5 6.06 1.57
-3 -5 5 2.35 1.01
-3 5 4 9.53 1.85
-3 5 4 7.58 1.75
-3 -5 4 11.11 1.05
3 -5 -4 11.87 1.56
-3 5 3 24.01 2.06
-3 -5 3 21.91 1.15
3 -5 -3 23.44 1.77
-3 5 2 95.38 3.38
-3 5 2 96.31 3.19
3 -5 -1 4.84 1.39
-3 5 1 8.77 1.67
3 5 -1 4.97 0.96
-3 -5 1 9.25 0.98
3 5 0 17.65 1.2
-3 5 0 16.91 1.53
-3 -5 0 14.51 1.03
3 -5 0 19.06 1.66
3 -5 1 208.53 3.76
-3 -5 -1 189.42 2.62
-3 -5 -2 33.89 1.82
-3 5 -2 31.38 2.05
-3 -5 -3 2.5 1.22
3 -5 3 0.76 1.26
-3 5 -3 -0.49 1.38
3 5 3 3.74 1.38
3 -5 4 14.32 1.6
-3 -5 -4 14.45 1.66
-3 5 -4 14.6 1.92
-3 -5 -5 28.13 2.06
-3 5 -5 26.66 1.95
-3 -5 -6 1.55 1.51
-3 5 -6 0.82 1.29
-3 5 -7 8.24 1.45
-3 -5 -7 11.26 1.99
-3 5 -8 9.24 2.16
-3 -5 -8 5.49 1.94
-3 5 -9 15.81 2.6
3 -6 -9 2.1 1.89
-3 6 9 0.25 2.18
-3 6 8 10.32 2.51
3 -6 -8 17.99 2.16
-3 6 7 28.74 2.89
-3 6 7 20.51 2.58
-3 6 6 16.62 2.31
3 -6 -6 19.12 2.11
-3 6 5 10.34 2.05
-3 6 5 10.08 2.04
3 -6 -5 12.42 1.79
-3 6 4 17.19 2.18
3 -6 -4 20.1 1.87
-3 6 3 37.44 2.56
3 -6 -3 36.02 2.16
-3 6 2 37.14 2.62
3 -6 -2 36.13 2.13
-3 6 1 11.42 1.44
3 -6 -1 20.74 1.84
-3 6 0 123.05 3.54
3 -6 0 86.01 2.81
3 6 1 9.53 1.41
-3 6 -1 13.44 1.53
3 -6 1 10.68 1.6
3 -6 2 6.93 1.53
-3 -6 -2 9.68 1.24
-3 6 -2 7.14 1.39
3 6 2 8.89 1.49
3 -6 3 3.43 1.49
-3 -6 -3 13.68 1.45
3 6 3 0.65 1.46
-3 6 -3 16.7 1.87
3 -6 4 15.87 1.76
-3 -6 -4 23.37 1.78
3 6 4 12.43 1.99
-3 6 -4 24.94 2.14
-3 -6 -5 23.18 1.95
-3 6 -5 22.64 1.91
-3 6 -6 71.74 2.79
-3 -6 -6 84.61 3.25
-3 6 -7 67.2 3.14
-3 -6 -7 61.38 3.11
-3 -6 -8 3.41 1.88
-3 7 9 -1.33 2.7
-3 7 8 6.47 2.59
-3 7 8 7.75 2.54
-3 7 7 2.89 2.25
-3 7 7 3.98 2.18
3 -7 -6 6.98 1.94
-3 7 6 4.43 2.07
-3 7 5 4.87 2.15
-3 7 5 5.57 2.07
3 -7 -5 11.84 2
3 -7 -4 1.93 1.67
-3 7 4 -0.8 2.01
-3 7 4 0.53 1.78
-3 7 3 34.11 2.58
-3 7 3 29.96 2.69
3 -7 -3 33.82 2.31
-3 7 2 20.37 2.11
-3 7 2 15.74 2.35
3 -7 -2 15.72 1.92
-3 7 1 46.76 2.36
3 -7 -1 64.56 2.85
-3 7 0 17.84 1.96
3 -7 0 18.04 1.99
3 7 1 16.65 1.75
3 -7 1 15.86 1.88
3 -7 2 38.8 2.28
-3 7 -2 51.66 2.98
3 -7 3 20.77 1.95
-3 7 -3 22.02 1.9
3 -7 4 3.03 1.53
3 7 4 4.08 1.88
3 7 5 0.4 1.92
3 7 6 9.87 2.46
-3 8 7 7.58 2.63
-3 8 6 13.21 2.64
-3 8 5 18.74 2.65
-3 8 5 14.47 2.72
3 -8 -5 21.28 2.45
3 -8 -4 2.46 1.88
-3 8 4 -0.95 2.25
-3 8 3 26.56 2.92
3 -8 -3 29.82 2.47
-3 8 2 22.42 2.81
3 -8 -2 16.85 2.12
-3 -8 1 7.3 1.62
3 -8 -1 16.5 2.12
-3 -8 0 4.91 1.69
3 -8 0 23.32 2.2
-3 -8 -1 6.97 1.83
3 -8 1 19.14 2.12
3 -8 2 38.07 2.46
-3 -8 -2 9.52 2.2
-3 -8 -3 1.59 1.91
3 -9 -2 6.44 2.1
3 -9 -1 8.17 2.15
3 -9 0 15.68 2.26
-3 -9 -1 20.74 2.41
3 -9 1 68.99 3.17
4 0 -12 7.23 2.45
4 0 -11 16.14 2.55
4 0 -9 8.39 1.39
4 0 -8 3.25 1.3
-4 0 8 2.99 1.22
-4 0 8 1.88 1.79
-4 0 7 13.22 2.1
-4 0 7 9.73 1.21
4 0 -6 5.09 1.31
-4 0 6 4.05 1.73
-4 0 6 6.27 0.96
4 0 -5 3.53 1.21
-4 0 5 3.04 0.77
-4 0 5 1.08 1.52
4 0 -4 192.64 3.4
-4 0 4 112.45 3.8
4 0 -3 269.31 3.98
-4 0 3 180.88 4.5
4 0 -2 78.44 2.41
-4 0 2 69.01 2.9
4 0 -1 3.51 0.78
-4 0 1 50.33 2.3
4 0 0 19.23 1.19
-4 0 0 41.87 2.28
4 0 1 36.89 1.72
-4 0 -1 26.82 2.1
-4 0 -2 2.58 1.76
-4 0 -3 75.71 3.13
-4 0 -4 0.84 1.31
-4 0 -5 69.81 2.95
-4 0 -6 1.58 1.4
-4 0 -7 -0.53 1.42
-4 0 -8 245.9 6.71
4 1 -12 7.23 2.38
4 -1 -11 2.03 2.04
-4 1 10 -0.58 1.6
4 -1 -10 14.84 1.72
-4 1 9 1.63 1.5
-4 -1 9 4.28 1.99
4 1 -8 27.39 1.59
-4 1 8 12.86 2.27
-4 -1 8 17.97 2.27
-4 1 8 4.8 1.43
4 -1 -8 21.74 1.73
4 1 -7 69.33 2.14
-4 1 7 43.71 3
-4 -1 7 43.7 2.88
-4 -1 7 25.51 1.32
-4 1 7 39.31 1.88
4 -1 -7 65.69 2.34
4 -1 -6 70.63 2.34
4 1 -6 53.43 2.1
-4 1 6 45.48 2.98
-4 -1 6 47 2.77
-4 -1 6 32.01 1.01
-4 1 6 63.09 1.97
4 -1 -5 14.22 1.5
4 1 -5 8.56 1.33
-4 1 5 9.31 1.92
-4 -1 5 8.22 1.77
-4 1 4 16.82 2.03
-4 -1 4 15.32 1.89
-4 1 4 12.46 1.15
4 -1 -3 15.33 1.53
-4 1 3 19.84 2.09
-4 -1 3 21.5 2.03
-4 1 2 66.61 2.97
-4 -1 2 68.82 2.39
4 -1 -1 32.96 1.8
4 1 -1 11.34 0.44
4 -1 -1 29.53 1.4
-4 1 1 15.47 1.54
-4 -1 1 16.44 1.52
4 -1 0 27.11 1.77
4 -1 0 8.62 1.2
4 1 0 5.92 0.79
-4 1 0 49.68 2.43
-4 -1 0 46.84 2.3
-4 1 -1 82.93 2.69
-4 -1 -1 105.1 3.23
-4 1 -2 33.12 2.08
-4 -1 -2 40.03 2.42
-4 1 -3 18.84 1.97
-4 -1 -3 14.96 1.8
-4 1 -4 73.85 3.34
-4 -1 -4 66.97 2.94
-4 1 -5 15.4 2.05
-4 -1 -5 17.37 1.83
-4 -1 -6 34.11 2.26
-4 1 -6 35.41 2.39
-4 1 -7 18.98 2.05
-4 -1 -7 18.4 2.03
-4 1 -8 6.05 2.1
-4 -1 -8 3.9 2.23
4 -2 -11 5.39 1.7
-4 2 11 2.65 1.97
-4 2 10 -0.61 1.72
-4 -2 10 4.67 2.11
-4 2 9 17.19 2.62
-4 -2 9 17.77 2.42
-4 2 8 28.74 2.82
-4 -2 8 30.21 2.54
-4 2 7 68.44 3.59
-4 -2 7 67.41 3.2
-4 -2 6 147.88 4.24
-4 2 6 136.54 3.08
-4 2 5 28.46 2.6
-4 -2 5 28.7 2.23
-4 2 5 69.04 2.18
4 -2 -5 56.94 2.27
-4 2 4 5.67 1.8
-4 -2 4 7.28 1.64
-4 -2 3 2.01 1.43
4 -2 -3 0.36 1.25
-4 2 3 0.9 1.55
4 -2 -2 31.68 1.84
-4 -2 2 35.44 1.91
4 -2 -1 17.2 1.6
-4 2 1 18.12 1.63
-4 2 0 111.79 3.63
-4 -2 0 115.64 3.36
-4 2 -1 101.19 3.32
-4 -2 -1 103.97 3.31
-4 2 -2 14.8 1.91
-4 -2 -2 13.74 1.89
-4 2 -3 736.05 9.19
-4 -2 -3 663.42 8.15
-4 2 -4 4.52 1.71
-4 -2 -4 5.53 1.46
-4 -2 -5 7.94 1.56
-4 2 -5 14.49 2.14
-4 -2 -6 20.99 1.71
-4 2 -6 26.4 2.24
-4 2 -7 2.36 1.58
-4 -2 -7 7.23 2.25
-4 -2 -8 4.94 2.17
-4 2 -8 4.04 1.81
-4 3 12 -2.19 2.4
4 -3 -11 2.97 1.78
-4 3 11 2.77 2.08
-4 -3 11 2.3 2.17
4 -3 -10 3.78 1.7
-4 3 10 -0.17 1.81
-4 -3 10 3.23 2.02
-4 3 9 6.66 2.46
-4 -3 9 5.86 1.97
4 -3 -9 9.36 1.83
4 -3 -8 6.23 1.62
-4 3 8 3.62 1.68
-4 3 8 2.29 2.04
-4 -3 8 2.77 1.71
4 -3 -7 7.31 1.55
-4 3 7 3.03 1.52
-4 3 7 3.1 1.97
-4 -3 7 1.32 1.52
-4 3 6 26.04 2.7
-4 -3 6 23.42 2.13
-4 3 6 23.8 1.91
4 -3 -5 1.48 1.39
-4 3 5 3.53 1.37
-4 3 5 1.63 1.73
-4 -3 5 -0.13 1.33
-4 -3 4 139.14 3.72
4 -3 -4 140.79 3.42
4 -3 -3 51.53 2.23
-4 3 3 45.24 2.85
-4 3 3 44.82 2.17
-4 3 2 62.87 3.11
-4 -3 2 61.84 2.34
4 -3 -1 86.47 2.66
-4 3 1 82.29 2.81
4 -3 0 13.03 1.58
4 3 0 2.59 0.39
-4 3 0 21.18 1.82
-4 -3 0 29.07 2.15
4 -3 1 38.64 2.15
-4 3 -1 32.07 2.24
-4 -3 -1 32.89 2.08
4 -3 2 4.92 1.48
-4 3 -2 7.69 1.68
-4 -3 -2 8.68 1.39
-4 3 -3 5.39 2.1
-4 -3 -3 1.58 1.32
-4 -3 -4 12.55 1.56
-4 3 -4 14.95 2.07
-4 -3 -5 73.41 2.82
-4 3 -5 98.73 3.91
-4 -3 -6 15.04 2.33
-4 3 -6 11.55 1.86
-4 3 -7 27.1 2.34
-4 -3 -7 31.98 2.83
-4 4 11 -2.23 2.36
4 -4 -11 12.61 2.25
4 -4 -10 0.16 1.81
-4 4 10 -0.14 2.03
-4 4 10 2.7 2.42
4 -4 -9 6.45 1.79
-4 4 9 0.72 1.86
-4 4 9 5.17 2.33
4 -4 -8 2.54 1.64
-4 4 8 0.04 1.67
-4 4 8 0.77 2.08
-4 -4 8 3.15 1.66
-4 4 7 5.18 1.81
-4 4 7 8.48 2.2
-4 -4 7 7.11 1.66
4 -4 -7 12.37 1.87
-4 4 6 12.94 2.33
-4 -4 6 14.23 1.75
-4 4 6 13.12 1.91
-4 4 5 11.77 2.18
-4 -4 5 13.55 1.65
4 -4 -5 15.07 1.84
-4 -4 4 263.02 4.04
4 -4 -4 273.24 4.7
-4 4 3 278.43 4.86
4 -4 -3 282.03 4.64
4 -4 -2 167.53 3.65
-4 -4 2 171.07 3.61
4 -4 -1 115.59 3.16
-4 4 1 109.19 3.25
-4 4 0 60.9 2.99
-4 -4 0 58.36 2.54
-4 4 -1 67.73 2.94
-4 -4 -1 73.69 2.73
4 -4 2 8.09 1.65
4 4 2 9.38 1.27
-4 4 -2 9.46 1.81
-4 -4 -2 5.61 1.3
-4 -4 -3 4.59 1.26
4 -4 3 6.02 1.6
-4 4 -3 6.8 1.91
-4 4 -4 4.03 1.81
-4 -4 -4 3.03 1.09
-4 -4 -5 15.22 2.16
-4 4 -5 15.6 2.3
-4 -4 -6 27.56 2.56
-4 4 -6 26.96 2.31
-4 4 -7 71.75 3.28
-4 -4 -7 89.65 4.08
-4 5 10 0.06 2.32
4 -5 -10 26.22 2.61
-4 5 9 20.05 3.08
-4 5 9 9.65 2.38
4 -5 -8 8.57 1.94
-4 5 8 1.77 1.94
-4 5 8 6.26 2.37
-4 5 7 16.89 2.7
4 -5 -7 21.25 2.16
4 -5 -6 4.37 1.69
-4 5 6 2.21 1.79
-4 5 6 3.04 2
-4 5 5 14.95 2.43
4 -5 -5 15.72 1.93
-4 5 4 10.09 2.19
-4 5 4 13.83 2.01
4 -5 -4 12.23 1.78
-4 5 3 12.58 2.19
-4 -5 3 7.61 1.31
-4 5 2 1.52 1.71
4 -5 -2 5.81 1.66
-4 -5 2 3.07 1.11
4 -5 -1 49.43 2.45
-4 -5 1 53.29 2.25
4 -5 0 29.5 2.11
-4 5 0 25.29 2.22
-4 -5 0 24.66 1.69
4 -5 1 33.65 2.24
-4 5 -1 37.78 2.35
-4 -5 -1 33.48 1.76
4 -5 2 6.29 1.64
-4 5 -2 9.14 1.86
-4 -5 -2 5.19 1.11
4 -5 3 -0.27 1.52
-4 5 -3 2.09 1.76
-4 -5 -3 0.48 1.29
-4 -5 -4 87.78 4.21
-4 5 -4 56.75 2.96
-4 -5 -5 6.99 1.86
-4 5 -5 9.64 2.07
-4 -5 -6 10.09 2.09
-4 5 -6 6.08 1.84
-4 -5 -7 2.45 2.01
-4 5 -7 4.01 1.8
-4 6 9 3.18 2.56
-4 6 8 12.93 2.89
-4 6 8 10.01 2.49
-4 6 7 19.37 2.89
4 -6 -7 20.91 2.38
-4 6 6 44.4 3.5
-4 6 6 40 3.01
-4 6 5 11.46 2.44
-4 6 5 18.34 2.41
4 -6 -5 18.94 2.18
-4 6 4 8.95 2.22
-4 6 4 12.78 2.21
4 -6 -4 9.99 1.96
-4 6 3 9.34 2.1
4 -6 -3 9.68 1.88
-4 6 3 8.1 2.09
-4 6 2 6.76 2.44
4 -6 -2 6.88 1.8
-4 6 1 19.53 1.96
4 -6 -1 15.82 2.02
4 -6 0 9.16 1.84
-4 6 0 8.95 1.88
4 -6 1 3.26 1.71
-4 6 -1 6.94 1.85
4 -6 2 48.61 2.59
-4 6 -2 45.84 2.24
4 -6 3 33.66 2.38
-4 6 -3 38.63 2.79
4 -6 4 8.08 1.88
-4 6 -4 29.36 2.84
-4 6 -5 38.06 2.67
-4 6 -6 13.17 2.07
-4 7 7 -1.07 2.36
-4 7 6 3.46 2.28
-4 7 6 7.62 2.52
-4 7 5 17.66 2.67
4 -7 -5 16.03 2.36
4 -7 -4 3.37 1.92
-4 7 4 3.99 2.21
-4 7 4 2.39 2.16
-4 7 3 3.32 2.1
4 -7 -3 0.32 1.84
-4 7 3 -1 2.13
-4 7 2 3.63 1.69
4 -7 -2 5.4 1.9
-4 7 1 31.76 2.74
4 -7 -1 24.51 2.41
4 -7 0 7 1.96
-4 7 0 11.49 2.18
4 -7 1 13.74 2.07
-4 7 -1 16.08 2.4
4 -7 2 2.81 1.77
-4 7 -2 3.82 2.4
4 -7 3 4.81 1.88
-4 7 -3 4.2 2.28
-4 8 5 6.77 2.53
4 -8 -1 7.4 2.13
4 -8 0 35.98 2.83
4 -8 1 26.43 2.58
4 -8 2 4.2 1.98
-5 0 10 -0.3 2.36
5 0 -9 -1.03 1.52
-5 0 9 -0.48 2.06
5 0 -8 6.67 1.59
-5 0 8 7.81 2.28
5 0 -7 13.22 1.65
-5 0 7 7.69 2.17
5 0 -6 13.43 1.65
-5 0 6 12.38 2.29
5 0 -5 76.21 2.73
-5 0 5 78.08 3.73
5 0 -4 156.56 3.63
-5 0 4 103.33 4.28
-5 0 3 61.67 3.77
-5 0 2 0.35 1.39
-5 0 1 29.16 2.27
-5 0 0 10.25 1.76
-5 0 -1 32.9 2.56
-5 0 -2 0.1 2.16
-5 0 -3 88.22 4.02
-5 0 -4 16.87 2.08
-5 0 -5 18.7 2.3
-5 0 -6 31.68 2.63
-5 -1 11 4.01 2.62
-5 1 10 24.53 3.29
-5 -1 10 22.85 3.05
5 -1 -9 12.39 1.91
-5 1 9 9.53 2.61
-5 -1 9 14.4 2.65
5 1 -8 5.74 1.53
5 -1 -8 6.25 1.68
-5 1 8 4.63 2.28
-5 -1 8 3.54 2.11
5 -1 -7 36.36 2.26
-5 1 7 27.8 3.02
-5 -1 7 27.55 2.77
5 -1 -6 20.37 1.88
-5 1 6 15.54 2.47
-5 -1 6 16.81 2.38
-5 1 5 25.09 2.72
-5 -1 5 25.31 2.73
-5 1 4 72.96 3.73
-5 -1 4 76.98 3.61
-5 1 3 2.5 1.87
-5 -1 3 1.68 1.3
5 -1 -3 0.18 1.46
-5 1 2 2.88 1.43
-5 -1 2 4.36 1.34
5 -1 -2 1.47 1.45
-5 1 1 1.4 1.71
-5 -1 1 0.18 1.6
-5 1 0 90.05 3.76
-5 -1 0 84.07 3.45
-5 1 -1 64.51 3.33
-5 -1 -1 45 2.15
-5 1 -2 48.02 3.34
-5 -1 -2 39.93 2.78
-5 1 -3 64.02 3.52
-5 -1 -3 53.03 2.97
-5 1 -4 6.65 2.17
-5 -1 -4 6.96 1.92
-5 1 -5 -0.49 1.95
-5 -1 -5 -2.55 1.72
-5 -1 -6 7.49 1.88
-5 1 -6 10.03 2.07
-5 -2 11 11.2 2.85
5 -2 -10 2.57 1.83
-5 -2 10 -1.41 2.22
5 -2 -9 16.68 2.07
-5 -2 9 11.43 2.44
-5 2 9 8.07 2.65
5 -2 -8 19.52 2.07
-5 2 8 16.86 2.78
-5 -2 8 15.68 2.45
5 -2 -7 -0.74 1.62
-5 2 7 -0.52 2
-5 -2 7 3.07 1.91
5 -2 -6 4.52 1.67
-5 2 6 6.78 2.19
-5 -2 6 7.54 1.98
5 -2 -5 2.6 1.57
-5 2 5 1.84 2
-5 -2 5 4.39 1.77
-5 -2 4 10.04 2.35
5 -2 -4 4.23 1.69
-5 2 4 4.34 2.06
5 -2 -3 30.54 2.22
-5 2 3 38.25 2.91
-5 -2 3 39.06 2.41
5 -2 -2 9.18 1.74
-5 2 2 8.66 1.61
-5 -2 2 11.82 1.73
-5 2 1 15.27 1.94
-5 -2 1 13.47 1.57
-5 2 0 52.54 3.13
-5 -2 0 47.56 2.68
-5 2 -1 155.8 4.75
-5 -2 -1 162.57 4.69
-5 2 -2 24.84 1.88
-5 -2 -2 42.98 2.97
-5 -2 -3 3.77 1.89
-5 2 -3 10.16 2.24
-5 2 -4 20.1 2.43
-5 -2 -4 15.73 2.1
-5 2 -5 2.52 2.17
-5 -2 -5 3.29 1.71
-5 -2 -6 3.38 1.69
5 -3 -10 4.7 1.93
5 -3 -9 2.53 1.79
-5 3 9 2.72 2.61
-5 -3 9 2.04 2.13
5 -3 -8 3.51 1.77
-5 3 8 5.41 2.45
-5 -3 8 2.08 1.94
5 -3 -7 8.44 1.89
-5 3 7 10.06 2.55
-5 -3 7 5.83 1.98
5 -3 -6 4.55 1.68
-5 3 6 3.32 1.5
-5 3 6 5.51 2.33
-5 -3 6 0.66 1.78
-5 -3 5 7.76 2.1
5 -3 -5 3.03 1.69
-5 3 5 8.69 2.34
-5 3 5 10.12 1.68
5 -3 -4 9.17 1.86
-5 3 4 15.81 2.57
5 -3 -3 33.36 2.33
-5 3 3 36.95 2.97
-5 -3 3 40.11 2.44
-5 3 2 35.76 2.37
-5 -3 2 44.65 2.52
5 -3 -1 49.56 2.62
-5 3 1 44.21 2.52
-5 -3 1 53.73 2.75
5 -3 0 15.02 1.94
-5 3 0 17.44 2.45
-5 3 -1 85.1 3.84
-5 -3 -1 76.59 3.28
-5 3 -2 7.45 1.81
-5 -3 -2 7.94 1.69
-5 3 -3 5.32 2.09
-5 -3 -3 8.57 1.74
-5 3 -4 1.09 1.86
-5 -3 -4 -0.04 1.48
-5 -3 -5 16.6 2.05
-5 3 -5 24.97 2.95
5 -4 -9 -0.07 1.93
5 -4 -8 0.72 1.86
-5 4 8 1.49 2.39
-5 4 7 11.26 2.66
-5 4 7 7.1 1.93
5 -4 -7 9.71 1.99
-5 4 6 55.66 3.86
5 -4 -6 65.91 3.08
5 -4 -5 4.44 1.81
-5 -4 5 10.03 1.79
-5 4 5 4.61 1.75
-5 4 5 6.16 2.35
5 -4 -4 11.85 2.05
-5 4 4 13.52 2.52
-5 -4 4 15.41 1.81
-5 4 3 19.84 2.7
-5 -4 3 15.75 1.72
5 -4 -2 10.25 1.91
-5 4 2 6.61 1.73
-5 -4 2 11.01 1.79
-5 4 1 13.28 2.03
-5 -4 1 16.69 2.33
-5 4 0 22.22 2.57
-5 -4 0 20.89 2.27
5 -4 1 1.97 1.76
-5 4 -1 4.58 2.02
-5 -4 -1 3.25 1.43
5 -4 2 1.13 1.7
-5 -4 -2 5.53 1.56
-5 4 -3 14.76 2.4
-5 -4 -3 9.39 1.68
-5 -4 -4 43.69 2.58
-5 4 -4 52.2 3.24
-5 -4 -5 38.96 2.85
-5 4 -5 42.26 3.46
-5 5 8 7.88 2.51
-5 5 7 40.98 3.68
5 -5 -7 40.96 2.91
-5 5 6 22.68 3.13
-5 5 6 28.33 2.68
5 -5 -6 24.16 2.49
5 -5 -5 9.95 2.11
-5 5 5 12 2.65
-5 5 5 12.75 2.23
5 -5 -4 15.49 2.21
-5 5 4 18.45 2.83
5 -5 -3 4.47 1.83
-5 5 3 16.84 2.87
-5 5 2 1.82 1.64
5 -5 -2 0.99 1.77
5 -5 -1 4.99 1.91
-5 5 1 18.88 2.57
-5 5 0 2.08 2
5 -5 0 0.73 1.79
5 -5 1 7.26 1.99
-5 5 -1 9.99 2.27
5 -5 2 2.2 1.84
-5 5 -2 3.65 1.43
-5 -5 -2 0.25 1.3
-5 -5 -3 11.05 1.5
-5 5 -3 14.29 2.61
-5 5 -4 1.65 2.36
-5 -5 -4 1.5 2.01
-5 -5 -5 38.58 3.22
-5 6 7 5.69 2.4
-5 6 6 7.22 2.37
-5 6 6 5.22 2.59
-5 6 5 7.17 2.28
-5 6 5 0.05 2.41
5 -6 -4 2.82 1.99
-5 6 4 4.62 2.49
5 -6 -3 6.86 2.12
-5 6 3 14.25 2.14
5 -6 -2 19.4 2.42
-5 6 2 39.28 2.9
5 -6 -1 22.68 2.59
-5 6 1 26.39 2.63
5 -6 0 33.39 2.82
-5 6 0 60.44 3.5
5 -6 1 4.56 2.07
-5 6 -1 17.67 2.83
5 -6 2 1.49 1.95
-5 6 -2 5.6 2.39
-5 6 -3 7.61 2.43
-5 7 4 18.55 3.4
-5 7 3 36.03 2.97
-5 7 2 51.3 3.26
-5 7 1 18.51 2.91
-5 7 0 15.2 2.68
-5 7 -1 0.72 2.01
6 0 -8 -1.09 1.74
-6 0 8 -0.94 2.42
6 0 -7 18.56 2.21
-6 0 7 21.02 3.01
-6 0 6 0.97 2.22
-6 0 5 1.5 2.16
-6 0 4 -0.8 1.55
-6 0 3 4 1.82
-6 0 2 50.09 3.12
-6 0 1 5.21 1.99
-6 0 0 11.13 2.43
-6 0 -1 15.24 2.87
-6 0 -2 6.58 2.41
-6 0 -3 0.22 1.99
6 -1 -9 21.66 2.41
-6 -1 9 16.87 3.15
6 -1 -8 13.83 2.18
-6 1 8 12.27 2.86
6 -1 -7 19.86 2.31
-6 1 7 21.22 3.12
-6 -1 7 21.86 3.01
6 -1 -6 41.41 2.79
-6 1 6 36.05 3.52
-6 -1 6 38 3.43
6 -1 -5 23.81 2.33
-6 1 5 19.22 2.87
-6 1 4 1.91 1.74
-6 -1 4 0.4 1.85
6 -1 -4 1.1 1.83
-6 -1 3 5.69 1.85
-6 1 3 10.31 2.29
-6 1 2 56.93 3.58
-6 -1 2 53.21 3.39
-6 1 1 73.49 4.01
-6 -1 1 66.57 3.72
-6 1 0 90.25 4.24
-6 -1 0 90.04 4.04
-6 1 -1 5.37 2.03
-6 -1 -1 2.95 2.57
-6 1 -2 5.58 2.41
-6 -1 -2 3.06 2.21
-6 -1 -3 3.54 2.49
6 -2 -9 1.07 1.95
-6 -2 9 2.86 2.58
6 -2 -8 -0.65 1.97
-6 -2 8 3.15 2.46
6 -2 -7 6.46 2.05
-6 2 7 2.09 2.53
-6 -2 7 1.93 2.3
-6 -2 6 5.07 2.56
6 -2 -6 3.84 1.94
-6 2 6 5.39 2.52
-6 -2 5 4.56 1.69
6 -2 -5 0.34 1.89
-6 2 5 4.39 2.35
-6 2 4 6.81 3.03
-6 -2 4 5.42 1.66
6 -2 -4 5.47 1.96
-6 2 3 7.96 2.28
6 -2 -3 7.02 2
-6 -2 3 8.18 2.13
-6 2 2 0.3 1.77
-6 -2 2 0.35 1.69
6 -2 -2 -0.82 1.85
-6 2 1 36.05 3.33
-6 -2 1 38.95 3.11
-6 2 0 17.54 2.75
-6 -2 0 22.42 2.95
-6 2 -1 12.14 2.41
-6 -2 -1 14.66 2.44
-6 2 -2 7.72 3.05
-6 -2 -2 7.75 2.07
-6 -2 -3 7.29 2.41
-6 -3 7 11.46 2.74
6 -3 -7 6.27 2.15
-6 -3 6 4.02 1.72
6 -3 -6 2.82 2.04
-6 3 6 1.69 2.46
-6 -3 5 0.65 1.58
6 -3 -5 0.42 1.92
-6 3 5 1.09 2.35
-6 3 4 8.04 3.16
-6 -3 4 7.57 1.91
-6 3 3 2.07 1.84
-6 -3 3 4.89 1.84
6 -3 -3 3.82 1.96
-6 3 2 3.04 1.9
6 -3 -2 0.55 1.89
-6 -3 2 2.68 1.99
-6 3 1 8.44 2.58
6 -3 -1 0.93 1.92
-6 -3 1 6.87 2.37
-6 3 0 3.61 1.84
-6 -3 0 5.54 2.22
-6 3 -1 4.47 2.34
-6 -3 -1 4.43 1.9
-6 -3 -2 4.64 2.16
-6 -3 -3 32.13 2.8
-6 4 4 16.07 3.6
-6 4 3 -1.97 2.23
6 -4 -3 -0.68 2
-6 4 2 -2.18 2.48
6 -4 -2 4.07 2.03
-6 -4 2 3.79 2.23
-6 4 1 7.43 2.66
-6 -4 1 5.23 2.07
-6 4 0 -2.18 1.85
-6 -4 0 -0.86 1.72
-6 -4 -1 3.79 2.22
-6 -4 -2 18.82 2.32
