#------------------------------------------------------------------------------
#$Date: 2019-11-11 20:29:11 +0200 (Mon, 11 Nov 2019) $
#$Revision: 227272 $
#$URL: file:///home/coder/svn-repositories/cod/cif/4/03/58/4035860.cif $
#------------------------------------------------------------------------------
#
# This file is available in the Crystallography Open Database (COD),
# http://www.crystallography.net/
#
# All data on this site have been placed in the public domain by the
# contributors.
#
data_4035860
loop_
_publ_author_name
'Bookser, Brett C.'
'Weinhouse, Michael I.'
'Burns, Aaron C.'
'Valiere, Andrew N.'
'Valdez, Lino J.'
'Stanczak, Pawel'
'Na, Jim'
'Rheingold, Arnold L.'
'Moore, Curtis E.'
'Dyck, Brian'
_publ_section_title
;
 Solvent-Controlled, Site-Selective N-Alkylation Reactions of Azolo-Fused
 Ring Heterocycles at N1-, N2-, and N3-Positions, Including Pyrazolo[3,4-
 d]pyrimidines, Purines, [1,2,3]Triazolo[4,5]pyridines, and Related
 Deaza-Compounds.
;
_journal_issue                   12
_journal_name_full               'The Journal of organic chemistry'
_journal_page_first              6334
_journal_page_last               6353
_journal_paper_doi               10.1021/acs.joc.8b00540
_journal_volume                  83
_journal_year                    2018
_chemical_formula_moiety         'C6 H5 Cl N4'
_chemical_formula_sum            'C6 H5 Cl N4'
_chemical_formula_weight         168.59
_space_group_crystal_system      monoclinic
_space_group_IT_number           14
_space_group_name_Hall           '-P 2ybc'
_space_group_name_H-M_alt        'P 1 21/c 1'
_atom_sites_solution_hydrogens   geom
_atom_sites_solution_primary     dual
_atom_sites_solution_secondary   difmap
_audit_creation_date             2016-08-22
_audit_creation_method
;
Olex2 1.2-beta
(compiled 2016.08.19 svn.r3327 for OlexSys, GUI svn.r5215)
;
_cell_angle_alpha                90
_cell_angle_beta                 97.162(3)
_cell_angle_gamma                90
_cell_formula_units_Z            2
_cell_length_a                   3.9913(2)
_cell_length_b                   6.7117(3)
_cell_length_c                   13.3807(7)
_cell_measurement_reflns_used    997
_cell_measurement_temperature    100(2)
_cell_measurement_theta_max      67.868
_cell_measurement_theta_min      6.670
_cell_volume                     355.65(3)
_computing_cell_refinement       'SAINT v8.34A (Bruker, 2013)'
_computing_data_collection       'APEX2 v2013.6-2 (Bruker, 2013)'
_computing_data_reduction        'SAINT v8.34A (Bruker, 2013)'
_computing_molecular_graphics    'Olex2 (Dolomanov et al., 2009)'
_computing_publication_material  'Olex2 (Dolomanov et al., 2009)'
_computing_structure_refinement  'XL (Sheldrick, 2008)'
_computing_structure_solution    'ShelXT (Sheldrick, 2015)'
_diffrn_ambient_temperature      100.0
_diffrn_detector                 'CCD area detector'
_diffrn_detector_area_resol_mean 5.6
_diffrn_detector_type            'Bruker SMART CCD 6000 area detector'
_diffrn_measured_fraction_theta_full 0.939
_diffrn_measured_fraction_theta_max 0.937
_diffrn_measurement_device       'three-circle diffractometer'
_diffrn_measurement_device_type  'Bruker APEX-II CCD'
_diffrn_measurement_method       '\f and \w scans'
_diffrn_radiation_monochromator  graphite
_diffrn_radiation_probe          x-ray
_diffrn_radiation_type           CuK\a
_diffrn_radiation_wavelength     1.54178
_diffrn_reflns_av_R_equivalents  0.0261
_diffrn_reflns_av_unetI/netI     0.0271
_diffrn_reflns_Laue_measured_fraction_full 0.939
_diffrn_reflns_Laue_measured_fraction_max 0.937
_diffrn_reflns_limit_h_max       4
_diffrn_reflns_limit_h_min       -4
_diffrn_reflns_limit_k_max       7
_diffrn_reflns_limit_k_min       -6
_diffrn_reflns_limit_l_max       15
_diffrn_reflns_limit_l_min       -15
_diffrn_reflns_number            2096
_diffrn_reflns_point_group_measured_fraction_full 0.939
_diffrn_reflns_point_group_measured_fraction_max 0.937
_diffrn_reflns_theta_full        67.679
_diffrn_reflns_theta_max         68.210
_diffrn_reflns_theta_min         6.669
_diffrn_source                   'rotating anode'
_diffrn_source_target            Mo
_diffrn_standards_number         0
_exptl_absorpt_coefficient_mu    4.203
_exptl_absorpt_correction_T_max  0.3200
_exptl_absorpt_correction_T_min  0.1847
_exptl_absorpt_correction_type   multi-scan
_exptl_absorpt_process_details
;
SADABS-2014/5 (Bruker,2014/5) was used for absorption correction.
wR2(int) was 0.1021 before and 0.0462 after correction.
The Ratio of minimum to maximum transmission is 0.5772.
The \l/2 correction factor is Not present.
;
_exptl_crystal_colour            colorless
_exptl_crystal_density_diffrn    1.574
_exptl_crystal_description       plate
_exptl_crystal_F_000             172
_exptl_crystal_size_max          0.15
_exptl_crystal_size_mid          0.35
_exptl_crystal_size_min          0.47
_refine_diff_density_max         0.689
_refine_diff_density_min         -0.218
_refine_diff_density_rms         0.097
_refine_ls_extinction_method     none
_refine_ls_goodness_of_fit_ref   1.119
_refine_ls_hydrogen_treatment    constr
_refine_ls_matrix_type           full
_refine_ls_number_parameters     101
_refine_ls_number_reflns         608
_refine_ls_number_restraints     87
_refine_ls_restrained_S_all      1.199
_refine_ls_R_factor_all          0.0850
_refine_ls_R_factor_gt           0.0787
_refine_ls_shift/su_max          0.000
_refine_ls_shift/su_mean         0.000
_refine_ls_structure_factor_coef Fsqd
_refine_ls_weighting_details
'w=1/[\s^2^(Fo^2^)+(0.1567P)^2^+0.1472P] where P=(Fo^2^+2Fc^2^)/3'
_refine_ls_weighting_scheme      calc
_refine_ls_wR_factor_gt          0.2115
_refine_ls_wR_factor_ref         0.2229
_reflns_Friedel_coverage         0.000
_reflns_number_gt                521
_reflns_number_total             608
_reflns_threshold_expression     'I > 2\s(I)'
_cod_data_source_file            jo8b00540_si_006.cif
_cod_data_source_block           Dart170
_cod_database_code               4035860
_shelx_space_group_comment
;
The symmetry employed for this shelxl refinement is uniquely defined
by the following loop, which should always be used as a source of
symmetry information in preference to the above space-group names.
They are only intended as comments.
;
_olex2_refinement_description
;
1. Fixed Uiso
 At 1.2 times of:
  All C(H) groups
 At 1.5 times of:
  All C(H,H,H) groups
2. Rigid body (RIGU) restrains
 All non-hydrogen atoms
 with sigma for 1-2 distances of 0.004 and sigma for 1-3 distances of 0.004
3. Others
 Fixed Sof: Cl1(0.5) C1(0.5) H1(0.5) N4(0.5) N3(0.5) C5(0.5) C3(0.5) C2(0.5)
 H2(0.5) N2(0.5) N1(0.5) C4(0.5) C6(0.5) H6A(0.5) H6B(0.5) H6C(0.5)
4.a Aromatic/amide H refined with riding coordinates:
 C1(H1), C2(H2)
4.b Idealised Me refined as rotating group:
 C6(H6A,H6B,H6C)
;
_shelx_res_file
;
    p21c_a.res created by SHELXL-2014/7

TITL p21c_a.res in P2(1)/c
REM Old TITL p21c in P2(1)/c
REM SHELXT solution in P2(1)/c
REM R1 0.351, Rweak 0.029, Alpha 0.086, Orientation as input
REM Formula found by SHELXT: C7 N6 Cl2
CELL 1.54178 3.9913 6.7117 13.3807 90 97.162 90
ZERR 2 0.0002 0.0003 0.0007 0 0.003 0
LATT 1
SYMM -X,0.5+Y,0.5-Z
SFAC C H Cl N
UNIT 12 10 2 8
RIGU

L.S. 10
PLAN  20
TEMP -173.15
BOND $H
LIST 6
fmap 2
MORE -1
CONF
ACTA
OMIT 0 0 6
REM <olex2.extras>
REM <HklSrc "%.\\dart170_0m.hkl">
REM </olex2.extras>

WGHT    0.156700    0.147200
FVAR       1.34503
PART -1
CL1   3    0.136116    0.193691    0.441646    10.50000    0.04178    0.04518 =
         0.08616   -0.01773    0.01277   -0.00395
C1    1    0.398454    0.679145    0.325830    10.50000    0.04417    0.07210 =
         0.04318    0.01105    0.00762    0.02045
AFIX  43
H1    2    0.359047    0.734342    0.260036    10.50000   -1.20000
AFIX   0
N4    4    0.865144    0.728761    0.594225    10.50000    0.04875    0.06254 =
         0.09318   -0.02376    0.00890   -0.00827
N3    4    0.849916    0.610730    0.649641    10.50000    0.02952    0.07937 =
         0.04232   -0.02383    0.00490    0.00080
C5    1    0.320344    0.420192    0.428432    10.50000    0.02986    0.04795 =
         0.05335   -0.01569    0.00778    0.00353
C3    1    0.672294    0.691626    0.494396    10.50000    0.03367    0.03769 =
         0.06718   -0.00992    0.02152    0.00515
C2    1    0.613333    0.789708    0.402223    10.50000    0.04338    0.04685 =
         0.08041    0.01114    0.02663    0.00719
AFIX  43
H2    2    0.704921    0.916940    0.390362    10.50000   -1.20000
AFIX   0
N2    4    0.645300    0.460301    0.607212    10.50000    0.03761    0.06255 =
         0.03736   -0.00146    0.00476    0.00407
N1    4    0.253672    0.505995    0.342047    10.50000    0.04326    0.08407 =
         0.04239   -0.00868   -0.00019    0.01281
C4    1    0.530242    0.512246    0.507550    10.50000    0.02711    0.03234 =
         0.03385   -0.00143    0.00880    0.00327
C6    1    0.573001    0.272390    0.659103    10.50000    0.06119    0.05839 =
         0.04385    0.01311    0.01761    0.00414
AFIX 137
H6A   2    0.690941    0.273602    0.727873    10.50000   -1.50000
H6B   2    0.651032    0.158728    0.622252    10.50000   -1.50000
H6C   2    0.329326    0.260852    0.661423    10.50000   -1.50000
AFIX   0
HKLF 4

REM  p21c_a.res in P2(1)/c
REM R1 =  0.0787 for     521 Fo > 4sig(Fo)  and  0.0850 for all     608 data
REM    101 parameters refined using     87 restraints

END

WGHT      0.1543      0.1567

REM Highest difference peak  0.689,  deepest hole -0.218,  1-sigma level  0.097
Q1    1   0.2238  0.1835  0.5096  11.00000  0.05    0.69
Q2    1   0.8849  0.7155  0.6435  11.00000  0.05    0.40
Q3    1   0.5855  0.6844  0.4519  11.00000  0.05    0.29
Q4    1   0.7187  0.5772  0.6452  11.00000  0.05    0.26
Q5    1   0.3051  0.5594  0.3341  11.00000  0.05    0.26
Q6    1   0.5133  0.7678  0.3752  11.00000  0.05    0.25
Q7    1  -0.0530  0.2428  0.4263  11.00000  0.05    0.10
Q8    1  -0.0440  0.1302  0.4410  11.00000  0.05    0.09
Q9    1   0.8360  0.2569  0.6757  11.00000  0.05    0.09
Q10   1   0.0967  0.3250  0.7380  11.00000  0.05    0.09
Q11   1   0.8819  0.7040  0.7272  11.00000  0.05    0.08
Q12   1   0.6142  1.1045  0.3875  11.00000  0.05    0.08
Q13   1   0.7857  0.9014  0.3933  11.00000  0.05    0.07
Q14   1   0.9775  0.5873  0.7720  11.00000  0.05    0.07
Q15   1   0.7350  0.1450  0.6728  11.00000  0.05    0.07
Q16   1   0.5071  0.9225  0.4859  11.00000  0.05    0.06
Q17   1   0.9180  1.0405  0.3022  11.00000  0.05    0.05
Q18   1   0.3932  0.7376  0.5439  11.00000  0.05    0.04
Q19   1   0.4236  0.9554  0.2717  11.00000  0.05    0.04
Q20   1   0.2229  0.9606  0.2245  11.00000  0.05    0.04
;
_shelx_res_checksum              26386
_shelx_hkl_file
;
   1   0   0 647.685 18.4277   2
  -1   0   0 677.893 18.4333   2
  -3   0   0 69.6079 2.99361   3
  -4   0   0 251.828 8.07543   5
  -4   0   0 253.278 8.05406   3
   0  -1   0 0.07284 0.16433   2
   0   1   0 0.08120 0.16744   2
   1  -1   0 2975.31 84.0939   2
  -1   1   0 3108.71 84.0373   2
  -3  -1   0 38.8376 2.04393   3
  -3   1   0 33.5686 2.05667   5
  -3   1   0 40.5955 2.29168   3
   3   1   0 34.5380 2.44226   5
  -4  -1   0 0.26422 0.68728   5
  -4  -1   0 0.28401 0.69810   3
  -4   1   0 0.07272 0.85117   3
   0  -2   0 1553.25 43.2627   2
  -1  -2   0 240.226 6.92317   2
  -1  -2   0 237.812 6.91455   2
  -1   2   0 250.298 7.42781   2
   2  -2   0 11.4246 1.17835   2
  -3  -2   0 65.8430 3.10401   3
  -3   2   0 69.7175 3.25092   6
   3   2   0 67.6924 3.50890   5
  -3   2   0 68.7596 3.05119   3
   3   2   0 67.7549 3.53305   1
  -4  -2   0 149.733 5.37668   5
  -4  -2   0 151.567 5.15524   3
  -4   2   0 150.852 5.16225   3
   0  -3   0 -0.0900 0.30882   2
   1  -3   0 106.348 3.92088   2
  -3   3   0 15.7939 1.75042   3
   3   3   0 13.5155 1.87273   1
   3   3   0 15.7138 1.97989   5
  -3   3   0 17.5412 1.77310   6
  -4  -3   0 1.60595 0.61727   3
  -4   3   0 0.38468 0.86638   6
  -4   3   0 1.71084 0.68174   3
   4   3   0 0.02491 1.55701   1
   0  -4   0 422.726 12.6049   2
   2   4   0 11.0307 1.49553   1
  -2   4   0 12.1370 1.31977   3
  -2   4   0 12.6364 1.45454   6
  -2   4   0 15.8016 1.80751   4
   2   4   0 18.8139 1.99355   5
   3   4   0 9.13358 1.61550   5
  -3   4   0 9.99793 1.23474   3
   3   4   0 9.36013 1.40252   1
  -3   4   0 8.15132 1.19329   6
  -3   4   0 9.37867 1.43081   4
  -4  -4   0 0.27089 0.51671   5
  -4   4   0 -0.5996 0.77422   6
  -4   4   0 0.41378 0.47501   3
   4   4   0 1.14898 1.11305   1
   0   5   0 2.92578 1.16941   4
   0   5   0 1.01948 1.06508   6
   1   5   0 5.70976 1.41251   1
   1   5   0 6.72443 1.40102   5
  -1   5   0 5.24411 1.07428   6
  -1   5   0 6.34169 1.30146   4
  -1   5   0 4.61000 1.23345   3
  -2   5   0 -0.1794 0.85852   4
   2   5   0 0.52507 1.21590   1
   2   5   0 0.03402 1.15146   5
  -2   5   0 -0.5158 0.70900   6
  -2   5   0 -0.6741 1.07567   3
   3   5   0 0.08722 0.83804   1
  -3   5   0 0.30262 0.68806   6
   3   5   0 -0.3823 0.99283   5
  -3   5   0 -0.0944 0.67092   3
   0   6   0 33.3641 3.59439   4
   1   6   0 -0.2180 1.31400   1
  -1   6   0 -1.0050 1.07727   4
  -1   6   0 1.02854 1.02880   6
  -2   6   0 -0.7714 1.07506   4
   2   6   0 -0.3467 1.09260   1
  -2   6   0 -0.3107 0.72500   3
  -2   6   0 0.84065 0.80158   6
   2   6   0 0.26509 0.73649   5
  -3   6   0 10.8740 1.38178   6
   3   6   0 4.68197 0.80289   5
   3   6   0 6.46464 0.83978   1
  -1   7   0 7.39894 1.12542   6
  -2   7   0 11.6781 1.11154   6
   2   7   0 10.9815 1.12237   1
  -4   0   1 0.12822 0.92960   5
  -4   0   1 -0.4678 0.57768   3
  -3   0   1 0.11976 0.82575   3
   1   0  -1 0.12210 0.15683   2
   1   0  -1 0.07078 0.11957   2
   0   0  -1 -0.0020 0.10162   2
   0   0   1 -0.0716 0.06346   2
   1   0   1 0.25733 0.19767   2
  -1   0  -1 0.33233 0.20458   2
  -3   0  -1 1.09305 0.90071   3
  -4   0  -1 0.72958 0.67292   5
  -4   0  -1 -0.2836 0.67033   3
  -4  -1   1 2.82806 1.00400   3
  -4  -1   1 1.19924 0.97560   5
  -4   1   1 1.62010 0.94887   5
  -4   1   1 0.50151 0.91100   3
  -3  -1   1 37.7804 2.16968   3
  -3   1   1 36.8647 2.14972   5
   3   1  -1 40.1339 2.54770   5
  -3   1   1 38.2716 2.19791   3
   2  -1  -1 30.9128 1.45484   2
   1  -1  -1 4244.21 112.047   2
   1  -1  -1 3881.98 112.148   2
   0  -1   1 2247.43 64.0161   2
   0  -1  -1 2343.90 64.5665   2
   0   1   1 2362.72 63.9979   2
   0   1  -1 2327.92 63.9973   2
   1  -1   1 25.5465 1.23740   2
  -1  -1  -1 26.6631 0.98529   2
  -1   1  -1 28.5073 1.29315   2
   1   1   1 26.1162 0.96515   2
  -2   1  -1 91.9851 3.30343   2
  -3  -1  -1 20.1715 1.86446   3
   3   1   1 24.0212 2.12022   5
  -3   1  -1 19.7005 1.85083   3
  -3   1  -1 16.4058 2.01653   6
  -4  -1  -1 10.2427 1.21022   3
  -4  -1  -1 5.21667 1.07675   5
  -4   1  -1 7.53798 1.20768   3
  -4  -2   1 26.1908 1.71643   5
  -4  -2   1 25.2704 1.75045   3
  -4   2   1 24.2883 1.67470   3
  -3  -2   1 43.5967 2.45458   3
  -3   2   1 44.7310 2.26085   5
   3   2  -1 45.9840 2.85080   5
   3   2  -1 43.9896 2.94739   1
  -3   2   1 44.2371 2.38101   3
  -3   2   1 45.6855 2.60501   6
   2  -2  -1 121.192 4.28586   2
   1  -2  -1 9.60456 0.84564   2
  -1  -2   1 7.59946 0.41124   2
  -1  -2   1 8.46803 0.41504   2
   0  -2  -1 6.42614 0.66460   2
   0  -2  -1 6.34934 0.52877   2
   0  -2   1 5.35163 0.61076   2
   0   2  -1 5.52450 0.57207   2
  -1  -2  -1 170.151 4.97852   2
  -1  -2  -1 160.783 4.97136   2
  -1   2  -1 167.436 5.32659   2
  -2   2  -1 27.3405 1.66867   2
  -3  -2  -1 13.3858 1.51779   3
   3   2   1 14.2846 1.63024   5
  -3   2  -1 11.3291 1.67608   6
   3   2   1 13.3982 1.75776   1
  -3   2  -1 10.2419 1.30931   3
  -4  -2  -1 5.67896 1.21083   3
  -4   2  -1 5.85031 0.89574   3
  -4  -3   1 19.3387 1.45905   5
  -4   3   1 18.5197 1.38667   3
   4   3  -1 17.1325 1.82059   1
   3   3  -1 34.2832 2.72278   1
   3   3  -1 35.0763 2.58470   5
  -3   3   1 34.4208 2.23196   3
  -3   3   1 36.1060 2.47068   6
   1  -3  -1 3.87121 0.73551   2
   0  -3  -1 900.090 25.3449   2
   0   3  -1 893.915 25.4608   2
  -1   3  -1 82.7406 3.28286   2
   2   3   1 23.9601 2.71099   5
  -3   3  -1 168.523 5.89821   3
  -3   3  -1 169.098 6.26575   6
   3   3   1 171.789 6.46077   1
   3   3   1 176.176 6.68581   5
  -4  -3  -1 0.72901 0.86357   3
  -4   3  -1 2.21473 0.69669   3
  -4   3  -1 1.79113 0.91691   6
  -4  -4   1 34.0806 1.60328   5
  -4   4   1 32.1770 1.56908   3
  -4   4   1 34.7078 1.91492   6
   4   4  -1 36.4695 2.22104   1
  -3   4   1 6.25543 1.19554   4
  -3   4   1 5.59563 1.02192   6
   3   4  -1 6.24789 1.41287   5
   3   4  -1 5.30001 1.20413   1
  -3   4   1 5.72144 1.17429   3
   2   4  -1 123.244 4.76145   1
  -2   4   1 119.033 4.67981   6
   2   4  -1 116.765 4.71750   5
  -2   4   1 122.631 4.46042   3
  -2   4   1 116.505 4.62029   4
   0  -4   1 94.5815 3.65592   2
   0  -4  -1 98.0970 3.84324   2
   2   4   1 108.833 4.40988   3
  -2   4  -1 108.171 4.41120   6
   2   4   1 106.786 4.48489   1
  -2   4  -1 106.161 4.52475   4
  -2   4  -1 104.187 4.10810   3
   2   4   1 106.260 4.43907   5
  -3   4  -1 80.5017 3.85646   4
   3   4   1 92.9502 4.26801   5
   3   4   1 89.8680 4.19004   1
  -3   4  -1 88.8438 3.64849   3
  -3   4  -1 88.2987 3.74987   6
  -4   4  -1 3.18997 0.62657   6
  -4   4  -1 3.98084 0.58650   3
   4   4   1 3.17912 1.06299   1
  -3   5   1 19.4274 1.60593   6
  -3   5   1 20.5474 1.77391   3
   3   5  -1 18.3232 1.72809   1
   3   5  -1 19.7037 1.57151   5
   2   5  -1 109.198 4.53656   5
  -2   5   1 108.251 4.34248   3
  -2   5   1 110.608 4.63363   4
  -2   5   1 109.876 4.25295   6
   2   5  -1 115.976 4.74402   1
  -1   5   1 116.205 4.64574   3
  -1   5   1 130.721 5.01306   4
   1   5  -1 122.202 4.85486   1
  -1   5   1 121.605 4.65524   6
   0   5   1 38.6076 2.22511   6
   0   5  -1 38.7067 2.43831   4
   0   5   1 37.1936 2.43855   4
   0   5   1 34.1669 2.32399   3
   1   5   1 134.826 5.04442   1
  -1   5  -1 136.001 4.87920   6
  -1   5  -1 128.830 4.95424   4
   1   5   1 127.540 4.86141   3
   1   5   1 133.295 5.02845   5
   2   5   1 13.9754 1.56580   1
   2   5   1 13.5700 1.84090   5
  -2   5  -1 9.46106 1.45209   6
   2   5   1 14.1096 1.38844   3
  -2   5  -1 14.0063 1.54028   3
  -2   5  -1 13.1170 1.67625   4
  -3   5  -1 18.9892 1.53333   6
  -3   5  -1 19.4451 1.41582   3
   3   5   1 19.2885 1.56134   5
   3   5   1 20.2478 1.74909   1
   3   6  -1 6.78413 0.91821   1
  -3   6   1 3.74352 0.64395   3
   3   6  -1 4.76779 0.83915   5
  -3   6   1 5.36520 0.79195   6
  -2   6   1 11.6144 1.63763   4
  -2   6   1 18.5511 1.89451   6
  -2   6   1 16.0470 1.43057   3
   2   6  -1 18.2293 2.00531   1
   2   6  -1 15.6126 1.65566   5
  -1   6   1 45.9175 2.63815   3
  -1   6   1 45.5826 2.44088   6
  -1   6   1 45.6675 2.90632   4
   0   6   1 28.3770 2.15495   4
   0   6   1 28.2543 2.01690   3
   0   6   1 29.2175 2.25701   6
   1   6   1 32.7621 2.51339   1
  -1   6  -1 34.2961 2.41225   6
  -1   6  -1 30.5911 2.58321   4
   1   6   1 31.6551 2.26071   5
   2   6   1 14.4160 1.62799   1
  -2   6  -1 19.4673 1.67018   6
  -2   6  -1 17.8802 1.63223   4
   2   6   1 18.1291 1.52950   5
   3   6   1 21.0136 1.34019   1
  -3   6  -1 17.9591 1.35054   6
   3   6   1 20.3570 1.19192   5
  -2   7   1 -0.1399 0.85764   6
   2   7  -1 1.44136 0.98599   1
  -1   7   1 0.85744 1.03624   6
  -1   7  -1 0.02041 0.61454   6
  -2   7  -1 20.4955 1.51332   6
   2   7   1 19.7276 1.35320   1
  -4   0   2 22.9239 1.55495   5
  -4   0   2 21.8800 1.48049   3
  -3   0   2 183.016 6.00476   5
  -3   0   2 170.642 5.82403   3
   1   0  -2 6521.21 181.346   2
   0   0  -2 3404.83 94.1025   2
   0   0   2 3308.39 92.4685   2
  -3   0  -2 8.27026 1.33016   3
  -3   0  -2 5.74825 1.44106   6
  -4   0  -2 55.4366 2.89505   3
  -4  -1   2 34.8377 2.05961   5
  -4  -1   2 31.9261 1.87237   3
  -4   1   2 33.0625 1.91671   5
  -4   1   2 32.7029 1.84573   3
  -3  -1   2 52.0640 2.55689   3
   3   1  -2 47.1544 3.08486   1
   3   1  -2 51.6814 2.98068   5
  -3   1   2 52.8560 2.55084   3
  -3   1   2 56.1765 2.62789   5
   2  -1  -2 74.5763 2.77624   2
   1  -1  -2 9768.98 270.973   2
  -1  -1   2 9647.46 271.363   2
   1  -1  -2 9999.99 273.788   2
   1   1  -2 9970.77 271.334   2
   0  -1   2 73.9873 2.51339   2
   0  -1  -2 79.7406 2.49687   2
   0   1  -2 80.4470 2.52424   2
   0   1   2 76.8975 2.53167   2
  -1  -1  -2 83.3771 2.78130   2
  -1   1  -2 85.9447 2.92589   2
   1   1   2 82.8371 2.76274   2
  -2   1  -2 117.023 4.02665   2
  -3  -1  -2 391.080 12.2091   3
   3   1   2 376.447 12.3601   5
  -3   1  -2 414.746 12.1297   3
  -3   1  -2 385.828 12.3325   6
  -4  -1  -2 18.9137 1.37485   5
  -4  -1  -2 22.1153 2.03392   3
  -4   1  -2 18.7348 1.57446   3
  -4  -2   2 4.57207 0.98858   5
  -4   2   2 2.78455 0.72484   3
  -4   2   2 0.98362 0.91914   5
  -3   2   2 122.841 4.50489   3
   3   2  -2 123.395 4.86101   5
  -3   2   2 119.524 4.57883   5
   3   2  -2 123.565 4.93726   1
   2  -2  -2 1383.18 39.0158   2
   1  -2  -2 851.172 23.9645   2
  -1  -2   2 847.598 23.6043   2
   0  -2  -2 250.632 7.30740   2
   0   2  -2 240.265 7.33678   2
  -1  -2  -2 491.102 13.6488   2
  -1   2  -2 506.954 14.0282   2
   1   2   2 435.616 13.6042   2
  -2   2  -2 62.2570 2.79364   2
  -3   2  -2 28.1287 2.59887   6
   3   2   2 31.7410 2.50668   5
   3   2   2 24.9379 2.63615   1
  -3   2  -2 24.1235 1.95512   3
  -4  -2  -2 85.5017 3.47770   3
  -4   2  -2 86.3091 3.42836   6
  -4   2  -2 89.7182 3.40690   3
  -4  -3   2 15.5053 1.28984   5
  -4   3   2 18.4316 1.34191   3
   4   3  -2 17.6112 2.04872   1
   3   3  -2 2.58220 1.35883   1
  -3   3   2 4.71837 1.18066   6
  -3   3   2 2.60998 0.75331   3
   3   3  -2 3.19072 1.05482   5
   1  -3  -2 675.103 19.4852   2
   0  -3  -2 10.5821 0.84078   2
   0   3  -2 10.6278 1.01795   2
  -1   3  -2 6.61197 0.96408   2
   2   3   2 62.4728 3.19140   5
  -2   3  -2 63.8887 3.53119   6
  -2   3  -2 79.3811 3.97500   4
   2   3   2 65.9257 3.46751   3
   2   3   2 59.4108 3.26203   1
  -3   3  -2 40.2886 2.43827   3
   3   3   2 45.3432 3.19822   5
  -3   3  -2 43.9315 2.87299   6
   3   3   2 43.9628 3.18315   1
  -4  -3  -2 -0.7581 0.89127   3
  -4   3  -2 0.46718 0.66133   6
  -4   3  -2 -0.2493 0.51590   3
  -4  -4   2 0.86422 0.51262   5
   4   4  -2 0.11296 0.71997   1
  -4   4   2 0.52269 0.53969   3
   3   4  -2 16.7089 1.89276   5
   3   4  -2 14.3517 1.65933   1
  -3   4   2 14.4241 1.54948   3
  -3   4   2 13.1954 1.45492   6
  -3   4   2 19.6089 1.91879   4
  -2   4   2 8.34509 1.23165   3
   2   4  -2 9.60939 1.63983   5
  -2   4   2 5.88552 1.20508   6
   2   4  -2 7.75820 1.41432   1
  -2   4   2 9.25093 1.19713   4
   0  -4  -2 48.5999 2.39797   2
  -2   4  -2 24.6514 2.00057   3
   2   4   2 23.6333 2.59702   3
  -2   4  -2 23.3984 1.95284   6
   2   4   2 24.8585 2.42142   5
   2   4   2 19.2127 2.12715   1
  -2   4  -2 25.7999 2.32141   4
   3   4   2 7.34983 1.68941   1
  -3   4  -2 4.31039 1.14901   3
   3   4   2 8.26149 1.91842   5
  -3   4  -2 5.29375 1.06471   6
  -3   4  -2 8.25211 1.48544   4
  -4   4  -2 0.00658 0.38576   3
  -4   4  -2 0.53116 0.54252   6
   3   5  -2 0.03199 0.60618   5
  -3   5   2 -0.7613 0.62237   3
  -3   5   2 -0.1802 0.70015   6
   3   5  -2 1.03366 0.79988   1
  -3   5   2 2.11137 1.04654   4
  -2   5   2 3.89538 1.16394   3
   2   5  -2 5.51757 1.19981   1
  -2   5   2 5.62830 1.05896   6
   2   5  -2 6.64874 1.51059   5
  -2   5   2 6.03763 1.13488   4
   1   5  -2 3.45279 1.29119   1
  -1   5   2 2.74847 1.05225   6
  -1   5   2 2.27054 1.16621   3
  -1   5   2 3.86292 1.19544   4
   0   5   2 12.2255 1.45046   3
   0   5   2 10.1665 1.39902   5
   0   5   2 10.1364 1.32541   6
   0   5  -2 12.5698 1.49191   4
   0   5   2 12.3785 1.58348   4
   1   5   2 24.1857 2.10206   1
   1   5   2 20.7476 2.05679   5
  -1   5  -2 21.7811 2.10781   6
  -1   5  -2 21.4112 2.32057   4
   1   5   2 20.1316 2.14434   3
  -2   5  -2 0.99293 0.81227   6
  -2   5  -2 2.16029 0.93123   4
   2   5   2 2.54956 1.30334   1
   2   5   2 0.48501 0.92195   3
   2   5   2 2.02238 1.37191   5
   3   5   2 0.42556 0.84532   1
  -3   5  -2 -0.2759 1.01936   6
  -3   5  -2 0.22196 0.61598   3
   3   5   2 -0.3602 0.97965   5
  -3   6   2 15.6892 1.09313   3
  -3   6   2 16.9023 1.41377   6
   3   6  -2 15.5904 1.30976   1
  -2   6   2 -0.1516 1.00537   6
  -2   6   2 1.34406 1.08224   3
  -2   6   2 -0.3056 0.80777   4
   2   6  -2 0.42822 0.87476   1
  -1   6   2 1.04111 1.00483   6
  -1   6   2 1.82081 1.26892   4
  -1   6   2 0.52937 1.19482   3
   0   6   2 43.1660 2.52200   3
   0   6   2 42.4433 2.56081   4
   0   6   2 47.7499 2.62861   6
   1   6   2 1.77086 0.95224   1
   1   6   2 1.20100 1.12204   3
  -1   6  -2 1.89906 1.14779   6
   1   6   2 1.16751 1.16078   5
  -1   6  -2 0.92385 1.25735   4
  -2   6  -2 8.18078 1.31708   4
   2   6   2 9.45915 1.22230   5
   2   6   2 7.76589 1.22846   1
  -2   6  -2 8.84231 1.16782   6
   2   6   2 10.1530 1.65320   3
  -3   6  -2 15.0286 1.21423   4
  -3   6  -2 14.8244 1.12987   6
   3   6   2 15.3862 1.20968   1
   3   6   2 14.1568 1.07396   5
  -2   7   2 3.73788 0.73254   3
  -1   7   2 56.5041 2.76797   4
  -1   7   2 57.8006 2.52365   6
  -1   7   2 53.1657 2.38685   3
   0   7   2 -0.8589 1.01576   6
  -1   7  -2 5.05325 1.04226   4
   2   7   2 1.57412 0.54062   5
  -2   7  -2 2.74702 0.67837   6
   2   7   2 0.52911 0.88619   1
  -4   0   3 0.23675 0.59052   3
  -4   0   3 -1.1740 0.62695   5
  -3   0   3 1.15071 0.90686   5
  -3   0   3 -0.1681 0.86579   3
  -1   0   3 0.18899 0.18494   2
   1   0  -3 -0.1550 0.22445   2
   0   0   3 0.04080 0.31786   2
   0   0  -3 0.37480 0.39345   2
  -1   0  -3 -0.1471 0.32096   2
  -3   0  -3 0.58734 1.29393   6
  -3   0  -3 -1.1106 0.94491   3
  -4   0  -3 0.35988 0.69027   3
  -4  -1   3 0.64769 0.59895   3
  -4  -1   3 1.07898 0.99259   5
  -4   1   3 1.85666 0.69539   3
  -4   1   3 1.43374 0.79157   5
  -3  -1   3 7.34894 1.18888   3
  -3   1   3 10.9245 1.21434   5
   3   1  -3 9.41979 1.39016   1
  -3   1   3 9.26417 1.21521   3
   2  -1  -3 967.297 27.3027   2
   1  -1  -3 1122.39 31.1052   2
  -1  -1   3 1106.30 30.9037   2
   1   1  -3 1109.61 30.8501   2
   0  -1   3 654.548 18.8693   2
   0  -1  -3 691.115 18.8364   2
   0   1   3 634.307 18.8645   2
   0   1  -3 688.623 18.8486   2
  -1  -1  -3 1.78954 0.47388   2
   1   1   3 1.33576 0.42694   2
  -1   1  -3 1.68061 0.49885   2
  -2   1  -3 0.63315 0.56002   2
  -3  -1  -3 0.57288 1.03008   3
  -3   1  -3 0.34156 1.03301   3
   3   1   3 1.39557 1.28085   5
  -3   1  -3 2.51488 1.34906   6
  -4  -1  -3 42.6940 2.36374   3
  -4   1  -3 45.1068 2.22293   3
  -4  -2   3 43.5061 2.23479   5
  -4   2   3 44.6255 2.03873   3
   4   2  -3 45.5605 2.89321   1
  -4   2   3 42.5193 2.13244   5
  -3   2   3 37.8567 2.21130   3
  -3   2   3 39.6540 2.39163   5
   3   2  -3 40.2459 2.62089   5
   3   2  -3 39.2524 2.85713   1
   1  -2  -3 175.097 5.37226   2
   1   2  -3 159.941 4.93804   2
   0  -2  -3 0.94134 0.37883   2
   0   2  -3 0.66005 0.40385   2
  -1  -2  -3 61.1746 2.38657   2
  -1   2  -3 62.6240 2.55778   2
  -3   2  -3 35.0993 2.67338   6
   3   2   3 32.0225 2.58271   5
  -3   2  -3 30.5216 2.16597   3
  -4  -2  -3 0.34916 0.62141   5
  -4  -2  -3 0.80262 0.75542   3
  -4   2  -3 0.17133 0.67372   3
  -4   2  -3 0.51821 1.02368   6
  -4  -3   3 9.04497 0.97333   5
   4   3  -3 9.38899 1.25509   1
  -4   3   3 6.91313 1.04582   3
   3   3  -3 227.794 7.83797   1
  -3   3   3 221.112 7.28529   3
  -3   3   3 225.435 7.37059   6
  -3   3   3 217.750 7.48245   5
   3   3  -3 230.427 7.71879   5
  -2   3   3 11.0989 1.26615   3
   2   3  -3 17.5511 2.03351   1
   1  -3  -3 133.205 4.68247   2
   0  -3  -3 189.248 5.95047   2
   0   3  -3 184.513 5.98053   2
  -1   3  -3 201.909 6.72398   2
   2   3   3 231.562 7.95434   5
  -2   3  -3 213.637 7.56596   4
  -2   3  -3 207.448 7.44306   6
   2   3   3 206.298 7.54838   3
   2   3   3 220.222 7.49730   1
  -2   3  -3 219.831 7.13534   3
   3   3   3 55.0418 3.16718   3
   3   3   3 58.3135 3.57053   1
   3   3   3 57.6801 3.80386   5
  -3   3  -3 57.7241 2.88749   3
  -3   3  -3 59.0839 3.32320   6
  -4  -3  -3 15.7915 1.32692   3
  -4   3  -3 16.9071 1.11411   3
  -4   3  -3 15.8947 1.33833   6
  -4  -4   3 10.2555 0.79734   5
   4   4  -3 9.20175 1.27007   1
  -4   4   3 9.54720 0.99720   3
   3   4  -3 41.7530 2.61872   1
  -3   4   3 46.8231 2.34756   3
  -3   4   3 44.4113 2.56894   6
   3   4  -3 42.3657 2.57408   5
  -3   4   3 47.9032 2.46936   4
  -2   4   3 41.0658 2.52885   4
  -2   4   3 39.9349 2.39710   6
   2   4  -3 38.5437 2.56783   5
  -2   4   3 40.9178 2.22059   3
  -2   4   3 43.7402 2.50683   5
   2   4  -3 39.7300 2.72303   1
   0  -4  -3 87.5054 3.45267   2
   0   4  -3 82.5269 3.45365   2
   1   4   3 59.7419 3.17160   5
  -1   4  -3 63.8739 3.33441   4
   1   4   3 63.0162 3.85030   1
   1   4   3 61.0165 3.25321   3
   2   4   3 126.924 5.52745   3
   2   4   3 132.358 5.27592   1
  -2   4  -3 130.549 5.22040   6
  -2   4  -3 135.150 5.49600   4
   2   4   3 132.316 5.62562   5
   3   4   3 31.6334 2.34569   3
  -3   4  -3 34.5736 1.89033   3
   3   4   3 34.3465 2.87532   1
  -3   4  -3 32.6731 2.18981   6
   3   4   3 31.0603 2.87090   5
   3   5  -3 10.7964 1.36341   1
  -3   5   3 12.7014 1.25435   4
  -3   5   3 10.5926 1.15519   6
  -3   5   3 11.7341 1.19669   3
  -2   5   3 142.014 5.57494   4
  -2   5   3 139.833 5.23422   3
   2   5  -3 141.540 5.50474   1
  -2   5   3 149.938 5.42305   6
  -1   5   3 5.53885 1.15873   6
  -1   5   3 6.27488 1.23935   3
  -1   5   3 10.7801 1.40494   5
  -1   5   3 6.36122 1.41686   4
   0   5   3 13.8571 1.58494   4
   0   5  -3 12.7303 1.61088   4
   0   5   3 11.9056 1.42908   6
   0   5   3 17.3353 1.67944   5
   0   5   3 17.3621 1.73152   3
   1   5   3 120.719 4.68326   5
   1   5   3 115.749 4.48452   3
  -1   5  -3 117.976 4.58883   6
   1   5   3 111.397 4.64792   1
   1   5   3 111.519 4.99478   6
  -1   5  -3 117.521 4.89079   4
  -2   5  -3 37.7182 2.32058   6
   2   5   3 31.9248 2.59963   5
  -2   5  -3 35.3469 2.82227   4
   2   5   3 34.0921 2.31977   1
   2   5   3 32.7168 2.64826   3
   3   5   3 0.16603 0.78586   5
   3   5   3 0.51372 0.80729   1
  -3   5  -3 1.48510 1.24987   4
  -3   5  -3 0.81931 0.75116   6
  -3   6   3 15.2218 1.12342   6
  -3   6   3 15.9814 1.22879   4
  -3   6   3 13.0410 1.02443   3
   3   6  -3 15.9245 1.27324   1
  -2   6   3 23.7902 1.82595   4
   2   6  -3 24.5029 1.94554   1
  -2   6   3 26.6782 2.02643   6
  -2   6   3 25.6454 1.79178   3
  -1   6   3 7.52598 1.27660   6
  -1   6   3 5.30814 1.08975   4
  -1   6   3 6.76271 1.33719   3
   0   6   3 40.3323 2.61764   6
   0   6   3 38.2352 2.41690   3
   0   6   3 40.7094 2.24096   5
   0   6   3 40.1592 2.58363   4
   1   6   3 40.2275 2.31406   1
   1   6   3 41.1305 2.48798   5
  -1   6  -3 36.9097 2.57948   6
  -1   6  -3 41.9811 2.74493   4
   1   6   3 39.8387 2.48178   3
   2   6   3 46.2215 2.31913   3
   2   6   3 48.2505 2.44727   5
   2   6   3 47.0317 2.75714   1
  -2   6  -3 51.3456 2.44659   6
  -2   6  -3 48.7594 2.61251   4
  -2   7   3 3.23096 0.96036   6
  -2   7   3 1.33764 0.69138   3
  -2   7   3 1.40327 1.03123   4
  -1   7   3 2.13418 0.97576   4
  -1   7   3 1.62355 0.72305   3
  -1   7   3 1.60152 1.04219   6
   0   7   3 5.61238 0.89814   3
   0   7   3 6.05177 1.04859   6
  -1   7  -3 -0.7892 0.75510   4
   1   7   3 0.53248 0.78709   5
   1   7   3 0.00239 1.00972   3
  -2   7  -3 57.0682 2.35886   4
   2   7   3 54.7070 2.18396   5
   2   7   3 57.4259 2.40075   1
  -4   0   4 13.5435 1.41099   3
  -4   0   4 14.3691 1.47837   5
  -3   0   4 28.3916 1.87387   5
  -3   0   4 27.0802 1.80906   3
  -1   0   4 151.865 4.97192   2
   1   0  -4 164.279 4.91603   2
   0   0  -4 1456.99 40.7059   2
  -1   0  -4 55.5353 2.31082   2
  -3   0  -4 7.23483 1.66324   6
  -3   0  -4 7.62758 1.32047   3
  -4   0  -4 51.6443 2.64230   3
  -4  -1   4 38.1406 2.20507   5
  -4   1   4 39.6134 2.17070   5
  -4   1   4 42.6644 2.09023   3
  -3  -1   4 126.729 4.68928   5
   3   1  -4 128.815 5.23928   1
  -3   1   4 126.745 4.67765   5
  -3   1   4 129.906 4.57584   3
   2  -1  -4 172.010 5.53796   2
  -1  -1   4 112.386 3.91302   2
   1  -1  -4 129.271 4.03084   2
   1   1  -4 123.420 3.86759   2
   0  -1  -4 2293.12 63.0416   2
   0   1  -4 2249.17 63.0383   2
  -1  -1  -4 72.3097 2.73940   2
  -1   1  -4 66.3125 2.72952   2
  -2   1  -4 88.5027 3.67491   2
  -3  -1  -4 45.9530 2.57674   3
  -3  -1  -4 43.5895 3.19723   6
  -3   1  -4 44.8193 3.20916   6
  -3   1  -4 47.4639 2.73397   3
  -4  -1  -4 53.0608 2.73296   3
  -4   1  -4 63.8907 2.78202   3
  -4   1  -4 76.8478 3.22268   6
  -4  -2   4 1.75987 0.88427   5
   4   2  -4 1.09707 1.05617   1
  -4   2   4 2.70420 0.76519   3
  -4   2   4 0.48894 0.88992   5
   3   2  -4 106.998 4.69007   1
  -3   2   4 100.422 3.92659   3
  -3   2   4 104.928 4.18213   5
   1  -2  -4 14.7615 1.00040   2
   1   2  -4 16.3297 0.89127   2
   0  -2  -4 0.82831 0.43925   2
   0   2  -4 0.51491 0.47260   2
  -1  -2  -4 263.974 8.07914   2
  -1   2  -4 258.346 8.28640   2
   2   2   4 85.7602 3.97362   3
  -3   2  -4 40.8420 2.86116   6
  -3   2  -4 39.6120 2.31518   3
   3   2   4 38.5181 2.80873   5
  -4  -2  -4 2.28377 1.05815   3
  -4   2  -4 2.21944 0.67286   3
  -4   2  -4 2.46393 0.84680   6
  -4  -3   4 23.8959 1.33339   5
   4   3  -4 28.3956 2.26969   1
  -4   3   4 19.5185 1.39810   3
  -4   3   4 22.2050 1.52077   5
  -3   3   4 178.694 6.23248   3
   3   3  -4 191.960 7.05444   1
   3   3  -4 184.516 6.71993   5
  -3   3   4 189.441 6.54228   5
  -2   3   4 21.5238 1.97525   6
  -2   3   4 18.0840 1.77189   5
   2   3  -4 18.2881 2.11858   1
  -2   3   4 14.3341 1.92370   4
  -2   3   4 18.8394 1.58567   3
   1  -3  -4 105.956 3.91819   2
   0  -3  -4 276.711 8.50118   2
   0   3  -4 270.468 8.53563   2
   2   3   4 0.31567 1.55814   5
  -2   3  -4 -0.4304 1.19191   4
   2   3   4 -2.0327 1.79657   6
  -2   3  -4 0.77683 1.06166   6
   2   3   4 2.22638 1.27765   1
   2   3   4 -0.8971 1.35191   3
  -3   3  -4 51.4707 2.59533   3
   3   3   4 45.3645 3.20937   1
  -3   3  -4 46.8674 3.12686   6
   3   3   4 44.5476 3.32119   5
   3   3   4 44.9427 3.23980   3
  -4  -3  -4 15.1144 1.22736   3
  -4  -3  -4 14.9579 0.98130   5
  -4   3  -4 14.1130 1.08152   3
  -4   3  -4 14.4134 1.56676   6
  -4  -4   4 7.92931 0.71349   5
  -4   4   4 7.58386 0.81747   3
   4   4  -4 5.63947 0.91778   1
  -3   4   4 30.4839 1.90974   5
  -3   4   4 33.2212 2.22564   6
  -3   4   4 40.6584 2.20166   3
   3   4  -4 32.7000 2.81013   1
  -3   4   4 35.6370 2.11845   4
  -2   4   4 20.4703 1.95772   5
   2   4  -4 15.9759 1.87716   1
  -2   4   4 15.0151 1.81937   6
  -2   4   4 15.4843 1.90942   4
  -1   4   4 1.71957 0.62481   3
  -1   4   4 2.88783 0.97261   6
  -1   4   4 2.76523 1.10380   4
  -1   4   4 1.55782 1.38125   5
   1   4   4 -0.4730 0.99410   3
  -1   4  -4 1.59052 1.17581   6
   1   4   4 0.66210 1.40273   6
   1   4   4 0.55064 1.18306   5
   1   4   4 0.19432 1.01354   1
  -1   4  -4 0.56963 0.92253   4
   2   4   4 76.1289 3.77830   1
  -2   4  -4 72.0865 3.69998   6
  -2   4  -4 73.7405 3.69423   4
   2   4   4 69.4528 4.00454   3
   2   4   4 65.5183 3.69438   5
   3   4   4 0.83318 1.50220   1
  -3   4  -4 0.77293 0.81659   6
   3   4   4 1.61790 1.07116   3
   3   4   4 1.74910 1.13582   5
  -3   4  -4 -0.2431 0.82837   4
  -3   5   4 0.55968 0.86398   3
   3   5  -4 0.77255 1.21100   1
  -3   5   4 0.08643 0.60337   6
  -2   5   4 8.65026 1.44418   4
  -2   5   4 9.08190 1.20543   6
  -2   5   4 6.30334 1.17544   5
   2   5  -4 10.9001 1.47376   1
  -2   5   4 8.90602 1.13051   3
  -1   5   4 2.59335 1.08093   6
  -1   5   4 5.57815 1.16021   3
  -1   5   4 4.30256 1.21921   5
  -1   5   4 3.77311 1.23449   4
   0   5   4 -1.0027 1.18045   1
   0   5   4 1.89990 1.05370   5
   0   5   4 0.63214 1.16349   4
   0   5   4 0.33049 0.99933   6
   0   5  -4 1.13933 1.32041   4
   0   5   4 0.86987 0.70938   3
  -1   5  -4 0.50085 1.18154   6
   1   5   4 1.16387 0.82495   1
   1   5   4 0.22259 1.58831   6
  -1   5  -4 0.86928 1.00154   4
   1   5   4 -0.6710 1.18960   5
   1   5   4 1.02207 1.17320   3
   2   5   4 17.3836 1.98052   5
   2   5   4 11.9419 1.75410   3
  -2   5  -4 12.9838 1.76724   4
  -2   5  -4 9.75738 1.47761   6
   2   5   4 14.1336 1.57173   1
  -3   5  -4 0.55673 0.87722   4
  -3   5  -4 1.51444 1.03589   6
   3   5   4 -0.0525 1.09326   1
   3   5   4 0.45946 0.73956   5
  -3   6   4 17.2399 1.07941   3
   3   6  -4 18.4191 1.49695   1
  -3   6   4 16.0876 1.45430   4
  -3   6   4 17.0658 1.15336   6
  -2   6   4 13.2363 1.41512   3
   2   6  -4 16.9905 1.65136   1
  -2   6   4 11.0787 1.43327   4
  -1   6   4 7.50545 1.11510   3
  -1   6   4 2.23698 1.27266   4
  -1   6   4 3.18731 1.04180   5
  -1   6   4 3.49124 0.93829   6
   0   6   4 56.0166 3.09877   4
   0   6   4 56.8932 2.88600   3
   0   6   4 62.7226 2.89472   5
   0   6   4 60.3497 3.17087   6
  -1   6  -4 2.79124 1.26599   4
   1   6   4 0.49548 1.63728   6
   1   6   4 2.30528 1.21684   1
   1   6   4 1.90068 1.19917   5
   1   6   4 3.10501 1.25122   3
   2   6   4 42.4113 2.18789   3
  -2   6  -4 44.8529 2.42205   4
  -2   6  -4 43.4851 2.20250   6
   2   6   4 46.2485 2.59287   1
  -2   7   4 0.32306 0.44962   3
  -2   7   4 0.41980 0.59544   6
  -2   7   4 -0.0198 0.64406   4
  -1   7   4 62.9610 2.49121   3
  -1   7   4 60.1661 2.71732   6
  -1   7   4 60.7956 2.88113   4
   0   7   4 16.5189 1.33092   3
   0   7   4 16.1009 1.56589   5
   0   7   4 18.0526 2.24776   6
   1   7   4 1.30788 1.09005   1
   1   7   4 0.73205 0.79139   5
  -1   7  -4 0.92186 0.72786   4
   1   7   4 0.32938 0.86562   3
  -4   0   5 10.0968 1.06908   5
  -3   0   5 0.63347 0.93588   5
   1   0  -5 0.47001 0.43328   2
   0   0  -5 0.35883 0.34389   2
  -1   0  -5 0.41882 0.36725   2
  -3   0  -5 -2.6843 1.29991   6
  -3   0  -5 1.39267 1.05371   3
  -4   0  -5 -0.8963 0.57644   3
  -4  -1   5 -0.3402 0.61343   5
  -4   1   5 -0.1752 0.71132   5
  -4   1   5 -0.0256 0.75597   3
  -3  -1   5 18.6817 1.44483   5
  -3   1   5 18.0807 1.59450   5
   3   1  -5 15.2379 1.86464   1
  -3   1   5 19.0193 1.74904   3
   1  -1  -5 222.188 7.05255   2
   1   1  -5 226.925 6.94372   2
   0  -1  -5 57.1594 2.30431   2
   0   1  -5 59.3068 2.36354   2
  -1  -1  -5 598.812 17.8214   2
  -1   1  -5 617.028 17.9950   2
  -3  -1  -5 31.5808 2.46664   3
  -3  -1  -5 29.5868 3.01837   6
  -3   1  -5 28.9754 2.92651   6
  -3   1  -5 33.2898 2.31562   3
  -4  -1  -5 23.4913 1.45583   3
  -4   1  -5 23.1699 1.53450   3
  -4   1  -5 17.2574 1.64684   6
  -4  -2   5 37.3849 1.96713   5
  -4   2   5 39.0480 1.97945   3
  -4   2   5 38.1397 2.11830   5
  -3  -2   5 197.703 6.59111   5
   3   2  -5 193.044 7.12365   1
  -3   2   5 200.294 6.47808   3
  -3   2   5 198.987 6.68666   5
   1  -2  -5 283.537 8.89082   2
   1   2  -5 294.848 8.68076   2
   0  -2  -5 194.443 6.19774   2
   0   2  -5 189.554 6.26460   2
  -1  -2  -5 442.067 13.1194   2
  -1   2  -5 429.198 13.3237   2
   2   2   5 14.5159 1.90803   5
  -2   2  -5 15.7147 1.86577   4
   2   2   5 15.8776 1.72254   3
   2   2   5 16.5642 2.06277   1
  -2   2  -5 16.2882 1.70596   6
  -3  -2  -5 77.1662 4.36202   6
  -3   2  -5 89.8008 3.46039   3
  -3   2  -5 83.3583 3.85634   6
   3   2   5 76.0673 3.75209   5
  -4  -2  -5 12.5232 1.19263   3
  -4   2  -5 12.2878 1.13682   3
  -4   2  -5 10.7319 1.29910   6
  -4  -3   5 101.579 3.50268   5
  -4   3   5 101.971 3.55891   5
   4   3  -5 102.209 4.08884   1
  -4   3   5 97.6486 3.52117   3
  -3   3   5 379.149 11.5025   3
   3   3  -5 373.334 12.3012   1
  -3   3   5 384.004 11.7906   5
  -2   3   5 41.3959 2.43257   6
  -2   3   5 42.8080 2.50813   4
  -2   3   5 43.2255 2.28525   3
   2   3  -5 43.1478 2.70629   1
  -2   3   5 41.2394 2.34344   5
   0  -3  -5 112.676 4.25583   2
   0   3  -5 116.113 4.33919   2
   2   3   5 150.968 5.76606   1
  -2   3  -5 151.047 5.71357   4
   2   3   5 143.518 5.84206   6
  -2   3  -5 142.453 5.53338   6
   2   3   5 144.908 5.41215   3
   2   3   5 125.007 5.76592   5
  -3   3  -5 1.87696 1.09042   6
   3   3   5 2.68863 1.45034   1
   3   3   5 3.44520 1.51536   5
   3   3   5 2.95742 1.19064   3
  -3   3  -5 4.47063 1.62081   4
  -4  -4   5 52.6523 1.92718   5
  -4   4   5 54.4966 1.98352   3
  -3  -4   5 6.15106 0.98800   5
  -3   4   5 9.98761 1.35517   5
   3   4  -5 10.0422 1.53032   1
  -3   4   5 8.77000 1.04873   6
  -3   4   5 7.26855 1.24537   3
  -3   4   5 13.3092 1.73160   4
   2   4  -5 9.98412 1.69124   1
  -2   4   5 7.84047 1.24050   6
  -2   4   5 6.18544 1.30008   5
  -2   4   5 7.80479 1.15153   3
  -2   4   5 8.20617 1.34309   4
  -1   4   5 33.9365 2.20144   5
  -1   4   5 32.6728 1.92994   3
  -1   4   5 31.9166 2.32378   4
  -1   4   5 30.3554 2.12944   6
   0   4   5 146.216 6.33035   4
   0   4   5 155.264 5.53140   6
   0   4   5 173.294 6.03822   1
   0   4   5 160.796 5.71094   5
   0   4   5 162.214 5.54617   3
  -1   4  -5 94.7106 4.19751   6
   1   4   5 104.514 4.04121   3
   1   4   5 97.6178 3.95178   1
   1   4   5 91.6249 4.12185   5
   1   4   5 92.2372 4.31204   6
  -1   4  -5 92.3780 4.37854   4
  -2   4  -5 18.4224 1.95595   4
   2   4   5 20.3582 2.32093   5
   2   4   5 14.1826 1.96324   1
   2   4   5 16.8858 2.04690   3
   2   4   5 13.2877 1.98592   6
  -2   4  -5 13.2368 1.71935   6
   3   4   5 21.2370 2.42008   1
  -3   4  -5 23.7816 1.87665   6
   3   4   5 26.3801 2.04110   3
   3   4   5 29.1588 2.40885   5
  -3   4  -5 23.5487 2.29312   4
  -3   5   5 12.6678 1.47070   6
  -3   5   5 12.1268 1.26724   3
   3   5  -5 13.2196 1.41874   1
  -3   5   5 13.0884 1.62615   4
  -2   5   5 32.1628 2.09617   5
  -2   5   5 30.2817 2.23302   6
  -2   5   5 31.4092 2.44085   4
   2   5  -5 32.0532 2.76038   1
  -2   5   5 34.3731 2.31716   3
  -1   5   5 19.9192 2.28262   4
  -1   5   5 21.7262 1.95172   3
  -1   5   5 19.9261 1.90537   5
  -1   5   5 21.4889 2.05238   6
   0   5   5 135.481 5.15466   1
   0   5  -5 129.631 5.41135   4
   0   5   5 136.057 4.99175   3
   0   5   5 135.457 5.12426   6
   0   5   5 140.170 5.47032   4
   0   5   5 131.802 5.16884   5
   1   5   5 256.460 8.32390   3
   1   5   5 238.304 8.54327   6
   1   5   5 247.407 8.54650   5
   1   5   5 253.586 8.48243   1
  -1   5  -5 248.669 8.75863   4
  -2   5  -5 4.82525 1.24818   4
  -2   5  -5 5.27840 1.13040   6
   2   5   5 6.43578 1.21594   1
   2   5   5 7.58710 1.19675   3
   2   5   5 6.74784 1.42264   5
  -3   5  -5 7.26562 1.29542   4
   3   5   5 4.19815 1.12994   1
  -3   5  -5 7.91379 1.17229   6
   3   5   5 6.25991 1.01801   5
  -3   6   5 23.0465 1.21902   3
  -3   6   5 20.6787 1.63095   4
  -3   6   5 22.2965 1.17422   6
   3   6  -5 22.8600 1.52038   1
  -2   6   5 0.15859 0.72597   6
   2   6  -5 1.94081 1.25231   1
  -2   6   5 1.36656 0.85622   5
  -2   6   5 1.59583 0.97479   3
  -2   6   5 0.25723 1.32785   4
  -1   6   5 -0.0046 0.76385   6
  -1   6   5 1.33411 1.03728   3
  -1   6   5 2.27541 1.03787   5
  -1   6   5 -1.6734 1.32135   4
   0   6   5 10.9379 2.01676   4
   0   6   5 9.78523 1.32985   3
   0   6   5 12.2120 2.73003   1
   0   6   5 8.57373 1.35857   5
   0   6   5 11.8080 1.47617   6
   1   6   5 98.6263 3.93095   3
   1   6   5 96.7245 4.17480   1
   1   6   5 92.7407 3.98385   5
  -1   6  -5 96.4018 4.23488   4
   1   6   5 89.7093 3.97978   6
   2   6   5 7.67159 1.00701   3
  -2   6  -5 5.37734 0.88389   6
  -2   6  -5 5.77163 1.03782   4
   2   6   5 6.99549 1.05269   1
  -2   7   5 1.87931 0.89857   4
  -2   7   5 0.58610 0.46610   3
  -2   7   5 1.73004 0.64631   6
  -1   7   5 11.1174 1.01645   3
  -1   7   5 10.4373 1.41303   4
  -1   7   5 8.44932 1.24902   6
   0   7   5 0.93577 1.02603   6
   0   7   5 0.16905 0.85162   5
   0   7   5 2.36572 0.67984   3
  -1   7  -5 -1.3557 0.89636   4
   1   7   5 0.04932 0.56804   5
   1   7   5 -0.1769 0.99658   1
   1   7   5 -0.4666 0.60222   3
  -4   0   6 117.770 4.29065   5
  -3   0   6 36.3598 2.06565   5
   1   0  -6 599.147 17.4527   2
   0   0  -6 137.099 4.79117   2
  -1   0  -6 224.097 7.41988   2
  -2   0  -6 69.6407 3.98449   6
  -3   0  -6 1.39656 1.44103   6
  -3   0  -6 3.13117 0.86947   3
  -4   0  -6 23.6149 1.77146   6
  -4   0  -6 25.1790 1.48258   3
  -4  -1   6 0.89649 0.50046   1
  -4  -1   6 1.66373 0.65552   5
  -4   1   6 0.64903 0.74235   5
  -3  -1   6 192.873 6.60634   5
   3   1  -6 200.888 7.33997   1
  -3   1   6 199.169 6.74170   5
   1  -1  -6 119.728 4.39295   2
   1   1  -6 127.716 4.36565   2
   0  -1  -6 207.694 6.69819   2
   0   1  -6 208.164 6.73658   2
  -1  -1  -6 174.316 5.97297   2
  -1   1  -6 166.552 6.06716   2
  -2  -1  -6 4.78422 1.67854   6
   2   1   6 4.65789 1.23167   3
  -2   1  -6 3.99335 1.43684   6
  -2   1  -6 2.75905 1.46957   4
  -3  -1  -6 19.4098 1.77676   3
  -3  -1  -6 18.1164 2.17006   6
  -3   1  -6 18.5108 2.17985   6
  -3   1  -6 18.6979 1.89359   3
  -4  -1  -6 24.6327 1.37609   3
  -4   1  -6 23.8252 1.83885   6
  -4   1  -6 21.9157 1.34634   3
  -4  -2   6 1.64776 0.63664   5
  -4  -2   6 3.52392 0.70786   1
  -4   2   6 0.67552 0.67887   3
  -4   2   6 1.94420 0.68214   5
  -3  -2   6 96.5371 3.75263   5
  -3   2   6 95.9861 3.75262   3
   3   2  -6 99.3251 4.54682   1
  -3   2   6 97.7856 4.08088   5
   2   2  -6 13.0527 1.65979   1
  -2   2   6 13.5232 1.27293   5
   1  -2  -6 626.899 18.6542   2
   1   2  -6 640.915 18.3844   2
   0  -2  -6 137.028 4.96602   2
   0   2  -6 150.345 5.17993   2
  -1  -2  -6 5.16225 0.98520   2
  -2   2  -6 14.5036 1.89068   4
   2   2   6 14.9060 1.60066   3
   2   2   6 16.6873 1.81899   5
   2   2   6 14.2365 2.11440   1
  -2   2  -6 13.8010 1.80173   6
  -3  -2  -6 118.772 5.28997   6
  -3   2  -6 113.732 4.19870   3
  -3   2  -6 115.452 4.75748   6
  -4  -2  -6 0.64004 0.55747   3
  -4   2  -6 1.27407 0.72408   6
  -4  -3   6 19.1531 1.09890   5
  -4   3   6 19.2242 1.30055   3
  -4   3   6 18.2767 1.15963   5
  -3  -3   6 217.870 7.06175   5
  -3   3   6 216.376 7.27953   5
  -3   3   6 218.110 7.05462   3
   3   3  -6 220.118 7.78587   1
  -2   3   6 36.5011 2.05815   5
  -2   3   6 34.5408 2.24513   6
  -2   3   6 38.8644 2.24771   4
  -2   3   6 36.8498 2.09830   3
   2   3  -6 34.7087 2.68717   1
   1   3   6 117.497 4.69522   5
   1   3   6 117.302 4.35357   3
   1   3   6 111.692 4.40277   1
  -1   3  -6 113.515 4.72227   4
   1   3   6 114.413 4.74208   6
  -2   3  -6 59.9750 3.36468   6
   2   3   6 62.5496 3.47913   5
  -2   3  -6 54.4149 3.16840   4
   2   3   6 60.1578 3.57698   1
   2   3   6 58.6044 3.12592   3
  -3   3  -6 5.03721 1.37509   4
   3   3   6 5.51502 1.37804   5
  -3   3  -6 5.90754 1.31696   6
  -3   4   6 1.37881 0.67326   3
  -3   4   6 1.70843 0.71588   5
   3   4  -6 1.09053 0.95281   1
  -2   4   6 -0.0562 0.66842   3
  -2   4   6 0.89628 0.78259   4
   2   4  -6 -0.0898 1.36321   1
  -2   4   6 -0.1878 0.93823   6
  -2   4   6 1.08912 0.96514   5
  -1   4   6 45.7012 2.64883   1
  -1   4   6 49.5369 2.52915   3
  -1   4   6 50.9080 2.64367   5
  -1   4   6 52.6329 2.66713   6
  -1   4   6 48.2415 2.84755   4
   0   4   6 1.74338 0.76477   5
   0   4   6 -0.4058 0.85147   1
   0   4   6 1.56705 1.13260   4
   0   4  -6 1.70270 1.36371   4
   0   4   6 0.29388 1.14738   6
   0   4   6 1.64724 0.71188   3
  -1   4  -6 94.8287 4.39733   4
   1   4   6 89.5298 3.82252   3
   1   4   6 95.3484 4.09308   1
  -1   4  -6 80.2928 4.05790   6
   1   4   6 89.7018 4.41961   6
   1   4   6 91.7052 4.21122   5
   2   4   6 20.3198 2.12048   1
   2   4   6 20.9103 2.31355   3
  -2   4  -6 18.6254 2.08518   4
   2   4   6 21.2882 2.49026   5
  -2   4  -6 20.4493 1.93084   6
   3   4   6 4.71734 1.42671   1
  -3   4  -6 5.94785 1.07088   6
  -3   4  -6 4.69860 1.12330   4
   3   4   6 3.77805 1.19233   5
  -3   5   6 5.78167 0.78894   5
  -3   5   6 5.38222 0.91073   3
  -3   5   6 6.38137 0.81276   6
   3   5  -6 6.03562 1.08974   1
  -3   5   6 3.50643 1.28786   4
  -2   5   6 0.88194 0.98950   6
  -2   5   6 0.55675 0.99364   3
  -2   5   6 0.66503 0.66753   5
  -2   5   6 1.83564 1.37896   4
   2   5  -6 1.59061 1.44618   1
  -1   5   6 55.6254 2.93371   3
  -1   5   6 58.1778 2.98327   5
  -1   5   6 58.5252 3.18812   6
  -1   5   6 58.0103 3.53815   4
   0   5   6 5.50575 2.09016   4
   0   5   6 3.26333 1.16495   3
   0   5  -6 3.61453 1.52769   4
   0   5   6 3.35818 1.18610   5
   0   5   6 2.82082 1.26768   1
   0   5   6 5.08781 1.39641   6
   1   5   6 2.31385 1.21957   3
  -1   5  -6 3.82695 1.59752   4
   1   5   6 3.83379 1.48329   5
   1   5   6 1.79397 1.08903   1
   1   5   6 1.23971 1.85432   6
  -2   5  -6 6.13806 1.30732   6
   2   5   6 7.42518 1.32806   5
   2   5   6 5.93729 1.12926   3
  -2   5  -6 4.16108 1.59314   4
   2   5   6 6.42652 1.21494   1
  -3  -5  -6 3.36594 0.59388   3
  -3   5  -6 3.95027 1.06442   4
   3   5   6 3.20264 0.71290   1
  -3   5  -6 3.58268 0.75462   6
   3   5   6 1.07017 0.68470   5
  -2   6   6 19.6499 1.31405   5
  -2   6   6 18.0800 1.41478   3
  -2   6   6 19.6745 1.48533   6
  -2   6   6 20.5058 2.20471   4
  -1   6   6 33.9735 2.71306   4
  -1   6   6 31.8703 1.86102   3
  -1   6   6 32.4135 2.41682   6
  -1   6   6 34.2911 2.20158   5
   0   6   6 32.1586 2.10321   1
   0   6   6 28.5704 3.68340   4
   0   6   6 32.3010 2.17496   3
   0   6   6 30.7280 2.72385   6
   0   6   6 31.7708 2.25664   5
   1   6   6 1.97184 1.00513   1
   1   6   6 0.65399 1.10329   3
   1   6   6 1.64542 1.48274   6
  -1   6  -6 1.04390 0.96879   4
   1   6   6 1.36442 1.12559   5
  -2   6  -6 9.10536 1.15043   4
  -2   6  -6 10.0576 1.19459   6
   2   6   6 10.6681 1.10938   3
   2   6   6 11.0077 1.24198   5
   2   6   6 8.24326 1.06631   1
  -1   7   6 11.3868 1.02254   5
  -1   7   6 9.48354 1.06959   6
  -1   7   6 12.1228 1.01290   3
  -1   7   6 10.8974 1.63861   4
   0   7   6 16.9884 1.16797   3
   0   7   6 18.4093 1.83584   6
  -1   7  -6 5.40689 0.86770   4
   1   7   6 9.40118 1.08560   1
   1   7   6 5.23879 0.86497   5
   1   7   6 9.22983 0.88395   3
  -4   0   7 0.32739 0.71790   5
  -3   0   7 0.63232 0.51145   1
  -3   0   7 -0.3885 0.76412   5
   1   0  -7 0.56026 0.62206   2
   0   0  -7 -0.0274 0.57754   2
  -1   0  -7 -0.0976 0.50710   2
  -2   0  -7 -0.1947 1.46200   6
  -3   0  -7 -0.3093 0.97315   3
  -3   0  -7 -0.8263 1.30229   6
  -4   0  -7 0.85327 0.38157   3
  -4   0  -7 0.12016 1.00256   6
  -4  -1   7 2.10352 0.69603   5
  -4  -1   7 2.10732 0.59998   1
  -4   1   7 1.43660 0.72251   5
  -3  -1   7 30.7341 2.02675   5
  -3   1   7 30.4969 2.18736   5
  -3   1   7 28.6361 1.92690   1
  -2   1   7 2.83260 0.81884   5
   2   1  -7 0.17943 1.21287   1
   1  -1  -7 7.78168 0.96805   2
   1   1  -7 9.72239 1.11900   2
   0  -1  -7 409.558 12.6599   2
   0   1  -7 420.424 12.7179   2
  -1  -1  -7 1.57691 0.90938   2
  -2  -1  -7 1.26585 1.50398   6
  -2   1  -7 0.38038 1.42952   6
  -2   1  -7 0.89420 1.46884   4
   2   1   7 1.54198 1.11815   3
  -3  -1  -7 64.9347 2.88520   3
  -3  -1  -7 68.3758 3.78387   6
  -3   1  -7 68.1879 3.79322   6
  -3   1  -7 58.4914 2.64677   3
  -4  -2   7 1.11974 0.49336   1
  -4  -2   7 0.80568 0.66221   5
  -4   2   7 1.31985 0.65875   5
  -3  -2   7 41.4638 2.28027   5
   3   2  -7 39.4508 3.17604   1
  -3   2   7 45.3441 2.55790   5
  -3   2   7 40.4516 2.01864   3
  -2   2   7 83.3690 3.25427   3
  -2   2   7 80.4924 3.76601   4
  -2   2   7 80.9187 3.39194   5
   2   2  -7 79.6297 3.79614   1
  -2   2   7 77.8570 3.24140   1
   0  -2  -7 108.164 4.24753   2
   0   2  -7 111.947 4.38881   2
  -2  -2  -7 69.8343 3.89570   6
  -2   2  -7 65.3231 3.63341   6
   2   2   7 68.3715 3.29690   3
  -2   2  -7 66.6966 3.71844   4
   2   2   7 56.6709 3.85395   1
  -3  -2  -7 3.47622 1.54645   6
  -3  -2  -7 1.75224 0.95811   3
  -3   2  -7 2.46114 1.00745   6
  -4  -3   7 90.9995 3.05459   5
  -4  -3   7 91.5176 3.08445   1
  -4   3   7 89.5560 2.98115   3
  -4   3   7 88.7599 3.15714   5
  -3  -3   7 0.42453 0.90888   5
  -3   3   7 0.69271 0.83181   5
  -3   3   7 0.45892 0.90660   3
   3   3  -7 -0.0610 1.36575   1
  -2   3   7 51.0731 2.79693   4
  -2   3   7 33.5306 3.01250   6
   2   3  -7 43.0983 2.80634   1
  -2   3   7 46.1019 2.59604   5
  -2   3   7 46.8733 2.36576   3
  -1   3   7 144.405 5.16671   1
  -1   3   7 147.083 5.42465   4
  -1   3   7 147.376 5.14404   5
  -1   3   7 146.040 5.08759   3
  -1   3   7 142.416 5.24519   6
   0   3   7 73.2215 3.84712   6
   0   3   7 62.2420 3.43040   1
   1   3   7 6.43780 1.53661   6
   1   3   7 6.56043 1.32674   1
   1   3   7 6.35537 0.98458   3
   1   3   7 7.06331 1.43669   5
  -1   3  -7 7.25307 1.63019   6
  -1   3  -7 5.08622 1.45498   4
   2   3   7 106.751 4.19538   3
   2   3   7 106.811 4.57985   5
  -2   3  -7 106.801 4.67686   6
   2   3   7 99.2050 4.82994   1
  -2   3  -7 108.627 5.07711   4
  -3  -3  -7 0.67479 1.16509   6
  -3   3  -7 -0.8604 1.16690   6
  -3   3  -7 1.65850 1.12299   4
   3   3   7 0.47245 0.61440   5
  -3   4   7 16.2125 1.32043   5
  -3   4   7 16.9616 1.67368   3
   3   4  -7 16.0528 1.82398   1
  -2   4   7 4.97413 1.09653   6
   2   4  -7 7.69854 1.32129   1
  -2   4   7 5.18399 1.42637   4
  -2   4   7 4.67044 1.19833   3
  -2   4   7 4.38305 1.09416   5
  -1   4   7 138.019 5.01394   1
  -1   4   7 129.415 5.05084   6
  -1   4   7 127.518 5.22184   4
  -1   4   7 135.038 4.91803   3
  -1   4   7 133.732 4.82563   5
   0   4   7 266.695 8.67713   6
   0   4   7 264.199 9.24050   4
   0   4   7 258.367 8.31940   3
   0   4   7 257.395 8.58468   1
   0   4   7 268.470 8.58781   5
   0   4  -7 251.878 8.95835   4
   1   4   7 63.0766 3.75628   6
   1   4   7 58.7659 3.28907   1
   1   4   7 63.3580 2.83233   3
   1   4   7 63.8971 3.40957   5
  -1   4  -7 60.5127 3.67079   4
  -2   4  -7 10.4448 1.94002   4
   2   4   7 15.1249 1.80145   5
   2   4   7 13.2855 1.70412   1
   2   4   7 13.3099 1.66206   3
  -2   4  -7 12.9816 1.53952   6
   3   4   7 1.18385 1.03748   1
   3   4   7 0.24059 0.45234   5
  -3   4  -7 1.12696 0.86966   4
  -3   4  -7 0.34687 1.03194   6
  -3   5   7 -0.4316 0.96896   4
  -3   5   7 0.46396 0.46511   5
  -3   5   7 0.92367 0.60687   3
   3   5  -7 0.79993 0.78640   1
   2   5  -7 10.5451 1.66759   1
  -2   5   7 11.7310 1.21931   5
  -2   5   7 11.5118 1.37763   6
  -2   5   7 8.82203 1.67413   4
  -2   5   7 12.0204 1.33403   3
  -1   5   7 7.32251 1.85981   4
  -1   5   7 9.39194 1.28614   6
  -1   5   7 8.41055 1.33372   3
  -1   5   7 8.44801 1.34497   5
   0   5   7 225.287 7.35365   3
   0   5   7 223.179 7.53594   5
   0   5   7 233.398 7.90661   6
   0   5  -7 206.513 7.79508   4
   0   5   7 230.633 8.51354   4
   0   5   7 223.342 7.52605   1
   1   5   7 32.5402 2.85155   1
   1   5   7 33.2758 2.35055   3
   1   5   7 35.3755 3.31762   6
   1   5   7 32.8767 2.55458   5
  -1   5  -7 32.9690 2.78616   4
  -2  -5  -7 20.1791 1.81685   6
   2   5   7 22.3637 1.83776   1
   2   5   7 24.6221 1.73237   5
  -2   5  -7 21.0905 2.06151   4
  -2   5  -7 22.0281 1.63748   6
   2   5   7 22.8753 1.62224   3
  -2   6   7 9.43993 1.20385   6
  -2   6   7 6.88210 1.93594   4
  -1   6   7 15.7276 2.41084   4
  -1   6   7 14.5271 1.31708   3
  -1   6   7 10.8833 1.51032   6
  -1   6   7 13.6174 1.27778   5
   0   6   7 29.7084 3.53903   4
   0   6   7 29.0968 1.84188   3
   0   6   7 29.9481 1.95844   5
   0   6   7 32.8224 2.93946   6
   0   6   7 31.7303 2.42259   1
   1   6   7 16.8758 1.42668   5
  -1   6  -7 15.7106 1.83017   4
   1   6   7 14.3563 1.62879   1
   1   6   7 16.5365 2.04219   6
   1   6   7 16.4048 1.66036   3
   2   6   7 7.65806 0.92896   1
   2   6   7 7.59824 0.81461   3
  -2   6  -7 6.96867 0.92850   4
   2   6   7 8.10350 0.93693   5
  -1   7   7 29.2509 1.42293   3
  -1   7   7 26.5866 2.08685   6
  -1   7   7 30.8515 2.51921   4
  -1   7   7 26.5405 1.52903   5
   0   7   7 4.04459 1.41899   6
   0   7   7 6.40832 0.88988   5
   0   7   7 3.47931 0.81129   3
  -4   0   8 124.152 4.27957   5
  -3   0   8 0.96925 0.79277   1
  -3   0   8 1.18472 1.01969   5
  -2   0   8 4.98845 1.09947   5
  -2   0   8 4.15125 0.87273   1
   1   0  -8 533.634 16.1459   2
   0   0  -8 27.6699 1.98964   2
  -2   0  -8 14.9494 2.19110   4
  -2   0  -8 19.7538 2.19271   6
  -3   0  -8 11.9236 1.67214   6
  -3   0  -8 12.6386 1.22752   3
  -4  -1   8 0.70187 0.67580   1
  -4  -1   8 0.78796 0.75275   5
  -4   1   8 0.60037 0.66311   5
  -3  -1   8 6.64715 0.99296   1
  -3  -1   8 8.99600 1.03223   5
  -3   1   8 8.72314 1.03522   1
  -3   1   8 12.7810 1.49315   5
  -2   1   8 207.900 6.76074   1
  -2   1   8 205.314 6.85146   5
   1   1  -8 0.96410 0.77915   2
   1   1   8 55.2038 3.57092   6
  -1   1  -8 59.8914 3.49870   4
  -2  -1  -8 44.2096 3.48585   6
   2   1   8 41.6012 2.49827   3
  -2   1  -8 45.0214 3.55643   4
  -2   1  -8 42.6218 3.05376   6
  -3  -1  -8 1.89520 1.29515   6
  -3  -1  -8 -0.0045 0.88293   3
  -3   1  -8 -0.6579 0.81489   6
  -4  -2   8 10.4909 0.86833   5
  -4  -2   8 11.2458 0.90381   1
  -4   2   8 10.9548 0.97557   5
  -3  -2   8 4.77628 0.96516   5
  -3   2   8 8.11690 1.40417   5
  -2   2   8 16.2081 1.67308   5
   2   2  -8 20.4716 2.32264   1
  -2   2   8 14.2352 1.88146   4
  -2   2   8 17.0754 1.53039   1
  -1   2   8 0.70977 0.85180   1
  -1  -2  -8 3.40165 1.57904   4
   1   2   8 2.65050 1.21780   1
   1   2   8 3.26403 0.96283   6
   1   2   8 2.81223 1.03805   3
  -1   2  -8 2.87339 1.40452   6
  -1   2  -8 2.63744 1.51701   4
  -2  -2  -8 99.3444 4.75101   6
  -2   2  -8 102.422 4.63663   6
   2   2   8 98.3782 4.10462   3
  -2   2  -8 97.3276 4.84733   4
  -3  -2  -8 82.1236 3.57844   6
  -3  -2  -8 80.5200 3.14787   3
  -3   2  -8 79.4858 3.46900   6
  -4  -3   8 22.8580 1.16054   1
  -4   3   8 24.8912 1.21561   5
  -3   3   8 6.58310 0.87386   3
  -3   3   8 4.68463 1.18782   5
   2   3  -8 111.834 4.83474   1
  -2   3   8 115.021 4.46476   5
  -2   3   8 114.612 4.33493   3
  -2   3   8 113.207 4.35244   1
  -2   3   8 113.756 4.92664   4
  -1   3   8 0.16102 0.84400   5
  -1   3   8 0.07198 1.50152   4
  -1   3   8 1.08161 0.89413   1
  -1   3   8 2.24724 1.28816   6
  -1   3   8 0.50381 0.72531   3
   0   3   8 89.7422 3.77067   1
   0   3   8 91.4946 3.67835   3
   0   3   8 88.0143 4.24110   6
   0   3   8 86.2241 4.09615   4
   0   3  -8 83.2815 4.40445   4
   0   3   8 89.0211 3.67594   5
  -1  -3  -8 0.15805 1.56947   4
   1   3   8 -0.7641 1.03463   1
   1   3   8 0.63896 1.16022   5
  -1   3  -8 -0.2068 1.32303   4
   1   3   8 -0.5657 0.90449   3
   1   3   8 -0.1277 0.80687   6
  -2  -3  -8 40.4925 2.76535   6
  -2   3  -8 43.8130 2.86586   6
  -2   3  -8 39.0656 3.37681   4
   2   3   8 39.3977 2.47025   5
   2   3   8 39.4945 2.92852   1
   2   3   8 41.6194 2.61156   3
  -3  -3  -8 18.5684 1.47003   3
  -3  -3  -8 17.4838 1.92340   6
  -3   3  -8 16.8984 1.62950   6
  -3   4   8 7.31603 0.87142   3
  -3   4   8 5.30616 0.96457   5
   2   4  -8 50.7603 3.21195   1
  -2   4   8 58.9002 2.72128   5
  -2   4   8 56.7627 2.87982   6
  -2   4   8 58.5629 2.82629   3
  -2   4   8 57.2476 3.60074   4
  -1   4   8 20.1446 1.75932   5
  -1   4   8 20.3629 2.43798   6
  -1   4   8 20.4200 2.20315   4
  -1   4   8 21.3175 1.96743   3
  -1   4   8 18.6914 1.96312   1
   0   4  -8 3.54372 1.46257   4
   0   4   8 6.46780 2.43457   4
   0   4   8 6.37455 1.13959   5
   0   4   8 3.82854 1.73687   6
   0   4   8 4.00392 1.06637   3
   0   4   8 4.96071 1.23207   1
   1   4   8 61.7840 3.64576   6
   1   4   8 61.0572 3.08937   3
  -1   4  -8 64.0145 3.92027   4
   1   4   8 67.6664 3.35011   5
   1   4   8 57.6240 3.09876   1
  -2  -4  -8 10.7398 1.40526   6
   2   4   8 9.13751 1.17459   3
   2   4   8 13.8492 1.61024   5
  -2   4  -8 7.24070 1.76775   4
   2   4   8 8.98619 1.73803   1
  -2   4  -8 10.5831 1.33910   6
  -3  -4  -8 0.26265 0.47466   3
  -3   4  -8 -0.3145 0.56341   6
  -3   4  -8 0.18447 0.64444   4
  -3  -5   8 4.26348 0.77714   1
  -3   5   8 5.86278 0.75938   5
  -3   5   8 6.62294 0.71346   3
  -2   5   8 5.35823 1.55772   4
  -2   5   8 4.25099 1.03888   3
  -2   5   8 6.93532 1.05050   5
  -2   5   8 4.91245 1.21115   6
  -1   5   8 25.2146 2.89097   4
  -1   5   8 23.4791 1.94476   5
  -1   5   8 25.8022 1.95931   3
  -1   5   8 23.9700 2.26726   1
  -1   5   8 23.5221 2.00725   6
   0   5   8 17.4840 2.88883   4
   0   5   8 18.3170 1.85082   3
   0   5   8 18.5049 1.73300   1
   0   5   8 16.9223 2.32358   6
   0   5  -8 19.8330 2.07706   4
   0   5   8 17.8330 1.65414   5
   1   5   8 -0.1270 1.15780   5
  -1   5  -8 -1.4483 0.90773   4
   1   5   8 1.11789 1.35966   6
   1   5   8 -1.1993 1.32002   1
   1   5   8 0.63312 1.09471   3
  -2  -5  -8 0.53595 0.74840   6
   2   5   8 0.71000 0.69509   5
   2   5   8 0.17851 0.79130   1
   2   5   8 0.39159 1.04459   3
  -2   5  -8 1.63919 0.89934   6
  -2   5  -8 -0.2433 1.25269   4
  -2   6   8 2.68966 0.60700   3
  -2   6   8 1.48812 0.71460   5
  -2   6   8 1.57142 0.74702   6
  -2   6   8 1.66818 1.33025   4
  -1   6   8 39.9476 1.91221   3
  -1   6   8 42.2008 3.99072   4
  -1   6   8 37.5877 2.25451   6
   0   6   8 1.21988 0.71509   5
   0   6   8 1.22536 1.32283   6
   0   6   8 2.05742 0.94022   1
   0   6   8 1.21145 0.69697   3
   0   6   8 0.34914 1.57397   4
   1   6   8 0.30334 0.78445   1
   1   6   8 0.94455 0.71110   5
  -1   6  -8 0.19473 0.79709   4
   1   6   8 1.26127 0.68903   3
   1   6   8 0.28408 1.03772   6
   0   7   8 4.70553 0.98105   6
   0   7   8 4.78853 0.66018   5
   0   7   8 4.62169 0.60501   3
  -4   0   9 0.55152 0.73332   5
  -3   0   9 0.34414 0.77668   1
  -3   0   9 0.99310 1.01201   5
  -2   0   9 0.40468 0.95779   5
  -2   0   9 -0.8723 0.70645   1
  -1   0  -9 -0.2473 1.29063   6
  -1   0  -9 -0.5143 1.06187   4
  -2   0  -9 0.29346 1.41389   6
  -2   0  -9 0.29407 1.61104   4
  -3   0  -9 -0.8803 1.06178   6
  -4  -1   9 0.95760 0.39991   1
  -4  -1   9 0.55529 0.42762   5
  -4   1   9 0.21602 0.67750   5
  -3  -1   9 2.60404 0.90246   1
  -3  -1   9 0.83557 0.95960   5
  -3   1   9 3.08555 0.92729   5
  -3   1   9 1.72405 0.76053   1
  -2  -1   9 1.07728 0.60507   1
  -2   1   9 2.06766 1.07627   5
  -2   1   9 0.07961 0.63968   1
  -1  -1   9 13.4162 1.48574   1
  -1   1   9 12.5626 1.37646   1
  -1   1   9 13.2819 1.52823   4
   0  -1  -9 6.80965 1.79393   4
   0   1  -9 6.07236 1.89914   4
  -1  -1  -9 4.26675 1.69662   4
   1   1   9 2.11568 1.15355   1
  -1   1  -9 3.03781 1.08965   4
  -1   1  -9 3.37856 1.49162   6
  -2  -1  -9 70.1677 3.95024   6
  -2   1  -9 65.2820 3.58088   6
   2   1   9 67.7590 3.27067   3
  -2   1  -9 71.5617 4.15219   4
  -3  -1  -9 2.95693 0.66748   3
  -3  -1  -9 2.35947 0.91272   6
  -3   1  -9 3.06755 0.98468   6
  -4  -2   9 3.17074 0.48806   5
  -4  -2   9 2.62994 0.63731   1
  -4   2   9 3.79164 0.57699   5
  -3  -2   9 0.55781 0.57956   1
  -3   2   9 0.54084 0.72021   1
  -3   2   9 0.96297 0.75232   5
  -2   2   9 15.3595 1.75827   4
  -2   2   9 13.1247 1.35945   5
  -2   2   9 11.7119 1.26971   1
  -1  -2   9 33.7084 2.07199   1
  -1   2   9 35.1199 2.82094   4
  -1   2   9 39.0361 2.17862   1
  -1   2   9 35.9565 2.09756   5
   0   2   9 7.24068 1.25503   4
   0   2   9 5.02629 1.06086   5
   0   2   9 7.67839 1.08034   1
   0   2  -9 7.43773 1.72450   4
   0   2   9 4.62648 1.40686   6
  -1  -2  -9 0.89398 1.52084   4
  -1   2  -9 2.86779 1.55270   4
  -1   2  -9 2.70630 1.37439   6
   1   2   9 1.60600 1.18297   6
   1   2   9 0.60347 0.99558   3
   1   2   9 2.08785 0.89508   1
  -2  -2  -9 3.45283 1.15778   6
   2   2   9 3.73559 1.08488   3
  -2   2  -9 5.12085 1.46508   6
  -2   2  -9 5.15924 1.42019   4
  -3  -2  -9 23.8643 1.73830   6
  -3  -2  -9 21.3502 1.31462   3
  -3   2  -9 24.2328 1.79999   6
  -3  -3   9 9.25753 1.09617   1
  -3   3   9 8.83780 1.30108   5
  -2   3   9 122.754 4.64755   5
  -2   3   9 122.565 4.54407   1
  -2   3   9 121.532 4.52212   3
  -2   3   9 119.812 5.15189   4
  -1   3   9 161.874 6.39795   4
  -1   3   9 160.702 5.72214   5
  -1   3   9 170.174 5.82780   1
  -1   3   9 161.147 5.65112   3
  -1   3   9 156.205 5.76291   6
   0   3   9 7.16544 1.21697   5
   0   3   9 6.52058 1.60587   6
   0   3  -9 7.97263 1.84378   4
   0   3   9 4.96397 1.49282   4
   0   3   9 6.73841 1.21698   1
   0   3   9 6.22937 1.15179   3
  -1  -3  -9 99.0424 5.08781   4
   1   3   9 105.926 4.68164   6
   1   3   9 106.241 4.02145   3
   1   3   9 98.0009 4.18924   5
   1   3   9 105.343 4.48974   1
  -1   3  -9 103.126 5.02949   4
  -2  -3  -9 4.84489 1.43021   6
  -2   3  -9 6.07756 1.77179   4
   2   3   9 6.45021 1.46644   1
   2   3   9 2.49419 1.11153   3
  -2   3  -9 3.55503 1.30301   6
  -3  -3  -9 5.64690 0.66190   3
  -3  -3  -9 5.26339 0.96320   6
  -3   3  -9 5.07687 1.06841   6
  -3  -4   9 23.5122 1.44166   1
  -3   4   9 21.9382 1.51735   3
  -2   4   9 7.15187 1.21171   6
  -2   4   9 6.11455 1.48212   4
  -2   4   9 6.25239 1.12195   5
  -1   4   9 159.273 5.54693   3
  -1   4   9 166.304 5.82019   1
  -1   4   9 158.730 6.75072   4
  -1   4   9 155.911 5.74696   6
  -1   4   9 156.039 5.57429   5
   0   4   9 1.08844 1.04258   5
   0   4   9 0.70960 0.97407   3
   0   4  -9 0.02140 1.43377   4
   0   4   9 0.66949 1.06343   1
   0   4   9 1.46132 1.24268   6
   0   4   9 -0.5925 1.89214   4
   1   4   9 88.3376 3.68209   3
   1   4   9 94.6641 4.08587   5
   1   4   9 91.4655 4.19285   1
  -1   4  -9 94.7322 4.64575   4
   1   4   9 89.4695 4.02467   6
  -2  -4  -9 9.65813 1.34947   6
   2   4   9 9.42471 1.27573   1
  -2   4  -9 11.5456 1.53020   4
   2   4   9 8.26623 1.13020   5
   2   4   9 9.37215 1.16711   3
  -2   4  -9 11.3815 1.27462   6
  -2   5   9 5.50522 0.91725   6
  -2   5   9 2.33387 0.80169   5
  -2   5   9 8.01332 1.66511   4
  -2   5   9 3.60929 0.92757   3
  -1   5   9 14.9536 1.35305   5
  -1   5   9 20.1063 2.40594   6
  -1   5   9 17.2440 1.45468   3
  -1   5   9 18.5322 2.30968   4
  -1   5   9 17.2445 1.94173   1
   0   5   9 79.5061 3.57235   1
   0   5  -9 72.7252 3.66334   4
   0   5   9 77.0795 3.93016   4
   0   5   9 77.2502 3.44772   5
   0   5   9 72.4954 3.11932   3
   0   5   9 80.5359 3.87974   6
   1   5   9 21.4632 1.88316   3
  -1   5  -9 18.2292 2.31570   4
   1   5   9 22.4489 2.01002   1
   1   5   9 21.9394 1.66722   5
   1   5   9 21.4586 1.85126   6
  -2  -5  -9 0.89695 0.71970   6
   2   5   9 0.68148 0.58764   3
  -2   5  -9 0.16761 0.78353   4
   2   5   9 0.77118 0.50687   5
   2   5   9 0.32896 0.65667   1
  -2   6   9 20.3776 1.30439   6
  -2   6   9 20.9151 1.08469   3
  -2   6   9 19.1933 1.72635   4
  -2   6   9 19.6176 1.07687   5
  -1   6   9 34.7327 1.88840   3
  -1   6   9 35.6865 2.61934   4
  -1   6   9 40.4589 2.66737   6
  -1   6   9 36.4706 1.84156   5
   0   6   9 1.35903 1.17177   6
   0   6   9 0.32852 0.59136   3
   0   6   9 0.89280 0.61392   5
   0   6   9 0.40849 1.08474   1
   1   6   9 10.3831 1.15408   6
   1   6   9 9.01708 0.98596   3
   1   6   9 7.09578 1.08841   1
   1   6   9 6.44606 1.04560   5
  -1   6  -9 8.83842 1.19900   4
  -4   0  10 5.17363 0.61820   5
  -3   0  10 115.478 4.19241   5
  -3   0  10 114.910 4.17103   1
  -2   0  10 23.8131 1.90596   1
   1   0 -10 3.32332 1.76220   4
  -1   0  10 2.51741 0.83011   1
   0   0  10 28.1912 2.12111   1
   0   0 -10 32.0148 2.72261   4
  -1   0 -10 309.099 10.8016   4
  -1   0 -10 308.450 10.3251   6
  -2   0 -10 9.08397 1.83243   4
  -2   0 -10 10.0383 1.43866   6
  -3   0 -10 14.8478 1.49234   6
  -4  -1  10 5.96113 0.58292   5
  -4  -1  10 5.74813 0.62392   1
  -4   1  10 4.15854 0.56568   5
  -3  -1  10 2.10665 0.95211   5
  -3  -1  10 1.37497 0.62859   1
  -3   1  10 1.28463 0.59116   1
  -3   1  10 1.18422 0.75300   5
  -2  -1  10 65.6184 2.90654   1
  -2   1  10 66.9696 2.98596   1
  -2   1  10 67.8240 3.07465   5
  -1  -1  10 59.8651 2.72756   1
   1  -1 -10 59.3208 4.21337   4
  -1   1  10 57.8197 2.71353   1
   1   1 -10 55.2161 3.91025   4
   0  -1 -10 8.11772 1.81268   4
   0   1 -10 15.0768 2.24039   4
   0   1  10 10.4820 1.28783   1
   0   1  10 7.80545 1.49343   6
  -1  -1 -10 6.86139 1.45030   6
  -1  -1 -10 9.07610 1.90051   4
  -1   1 -10 8.13077 1.63429   6
  -1   1 -10 7.31852 1.48155   4
  -2  -1 -10 86.9443 4.27514   6
  -2   1 -10 89.4954 3.92821   6
  -2   1 -10 93.7922 4.59465   4
  -3  -1 -10 3.67051 1.08431   6
  -3   1 -10 3.90006 0.93414   6
  -3  -2  10 106.550 3.92903   1
  -3   2  10 105.564 3.88276   1
  -3   2  10 108.570 4.12266   5
  -2  -2  10 31.0336 1.82556   1
  -2   2  10 27.7240 2.39022   4
  -2   2  10 29.9943 1.78827   1
  -2   2  10 30.8548 2.08124   5
  -1  -2  10 41.2314 2.39626   1
  -1   2  10 44.8921 2.85493   4
  -1   2  10 44.5631 2.52389   1
  -1   2  10 41.0586 2.35863   5
   0  -2 -10 29.9615 2.70591   4
   0   2  10 28.2430 2.53479   6
   0   2 -10 30.8375 3.06686   4
   0   2  10 30.8798 2.16511   1
  -1  -2 -10 -0.0276 1.02122   4
  -1   2 -10 0.14993 1.56733   4
   1   2  10 0.27737 0.96275   1
  -1   2 -10 1.26014 2.14150   6
   1   2  10 1.63563 1.42640   6
  -2  -2 -10 21.5004 2.14386   6
   2   2  10 25.9106 1.89247   3
  -2   2 -10 23.7156 2.67819   4
  -3  -2 -10 2.33198 0.64873   3
  -3  -2 -10 4.37054 0.83800   6
  -3   2 -10 3.23747 1.14656   6
  -3  -3  10 34.2905 1.96122   1
  -3   3  10 31.2537 1.72109   5
  -2  -3  10 15.0474 1.56727   1
  -2   3  10 14.8984 1.78503   4
  -2   3  10 13.9413 1.36861   5
  -1   3  10 0.21204 0.86331   5
  -1   3  10 -0.3723 1.02738   4
  -1   3  10 -0.6259 1.39102   6
  -1   3  10 1.01637 0.91637   1
   0   3  10 0.14936 1.00910   3
   0   3  10 0.82354 0.96890   1
   0   3  10 -2.6269 1.24334   6
   0   3  10 -0.3746 0.96835   5
   0   3 -10 -0.6871 1.41029   4
  -1  -3 -10 61.6130 4.14063   4
   1   3  10 64.9162 3.56443   6
   1   3  10 67.6648 3.11105   3
   1   3  10 63.6953 3.34618   1
   1   3  10 61.4868 3.08073   5
  -1   3 -10 63.5382 3.64371   4
  -2  -3 -10 9.39429 1.34543   6
  -2   3 -10 6.20401 1.63543   4
   2   3  10 5.77318 1.33412   1
  -2   3 -10 8.59770 1.25587   6
   2   3  10 9.62926 1.09278   3
  -3  -4  10 0.87099 0.53902   1
  -3   4  10 0.03848 0.36688   5
  -2  -4  10 19.9952 1.66123   1
  -2   4  10 19.3012 1.53557   5
  -2   4  10 16.7661 1.65915   1
  -2   4  10 17.1754 2.08872   4
  -2   4  10 19.0432 1.62265   3
  -1   4  10 4.47839 1.15685   1
  -1   4  10 4.51398 1.92834   4
  -1   4  10 4.52407 1.52522   6
  -1   4  10 2.14231 1.02067   3
  -1   4  10 4.66680 1.14727   5
   0   4  10 16.7918 2.05956   6
   0   4  10 14.6489 1.68989   5
   0   4  10 16.9146 1.85862   3
   0   4 -10 13.4461 2.03628   4
   0   4  10 12.0922 1.39059   1
  -1   4 -10 5.78753 1.36337   4
   1   4  10 4.18295 1.35471   6
   1   4  10 5.51915 1.13409   5
   1   4  10 5.17084 1.08501   1
   1   4  10 3.30501 1.09390   3
  -2  -4 -10 3.07383 0.95506   6
   2   4  10 3.82209 1.15072   1
  -2   4 -10 4.29390 0.98842   4
   2   4  10 3.78791 0.77981   3
  -2   5  10 4.55748 0.82718   5
  -2   5  10 6.51762 1.07319   6
  -2   5  10 9.59382 1.28142   4
  -1   5  10 1.28118 1.05696   6
  -1   5  10 0.87384 0.80920   5
  -1   5  10 2.02124 0.64677   3
  -1   5  10 2.73226 1.88934   4
  -1   5  10 2.51975 0.84652   1
   0   5  10 24.3453 2.22696   6
   0   5  10 20.1194 1.71315   1
   0   5  10 22.2896 1.75588   3
   0   5 -10 21.7202 1.81987   4
   0   5  10 18.9727 1.49554   5
   1   5  10 2.01883 1.24681   6
  -1   5 -10 3.99226 1.10988   4
   1   5  10 4.61483 0.96660   1
   1   5  10 2.38217 0.71181   5
   1   5  10 4.17305 0.98919   3
  -1   6  10 29.1804 1.42646   3
  -1   6  10 32.3397 1.52729   5
  -1   6  10 31.6893 1.77652   6
   0  -6 -10 -0.7934 0.88606   4
   0   6  10 0.31242 0.78405   6
   0   6  10 -0.2218 0.56841   3
   0   6  10 0.49994 0.55545   5
   0   6  10 -0.7110 0.84786   1
  -3   0  11 -0.3329 0.48779   1
  -3   0  11 -0.2142 0.56603   5
  -2   0  11 -0.2569 0.49799   1
   1   0 -11 -0.9109 1.65155   4
  -1   0  11 0.61158 0.78493   1
   0   0 -11 0.64907 1.57563   4
   0   0  11 1.20803 0.89634   1
  -1   0 -11 -1.9715 1.28582   6
  -1   0 -11 0.77396 1.32332   4
  -2   0 -11 -0.3078 0.72023   6
  -2   0 -11 -0.4031 0.95735   4
  -3   0 -11 -0.1348 0.69616   6
  -3  -1  11 11.6575 1.11143   1
  -3   1  11 11.3386 1.17404   5
  -3   1  11 12.5954 1.38396   1
  -2  -1  11 9.15680 1.16836   1
  -2   1  11 8.74443 1.35358   5
  -2   1  11 9.48675 1.11661   1
   1  -1 -11 2.13888 1.82265   4
  -1  -1  11 1.70134 0.86090   1
  -1   1  11 3.55373 0.98171   1
   1   1 -11 3.02660 1.39849   4
   0  -1 -11 39.1050 3.01724   4
   0   1 -11 39.7855 3.52228   4
   0   1  11 41.3653 2.40446   1
  -1  -1 -11 45.7550 3.04817   6
  -1  -1 -11 46.6573 3.55425   4
  -1   1 -11 42.1927 3.36418   4
  -1   1 -11 45.1557 3.02147   6
  -2  -1 -11 0.81776 1.08757   6
  -2   1 -11 0.88710 1.13590   6
  -2   1 -11 -0.3204 1.00438   4
  -3  -1 -11 8.01216 1.01388   6
  -3   1 -11 8.82026 0.95749   6
  -3  -2  11 10.9361 1.23230   1
  -3   2  11 13.6853 1.39820   5
  -3   2  11 14.4301 1.33407   1
  -2  -2  11 26.3083 1.95814   1
  -2   2  11 22.3562 1.74916   1
  -2   2  11 24.0264 1.83341   5
  -1  -2  11 0.73476 0.80569   1
  -1   2  11 0.54786 0.85886   1
  -1   2  11 0.73502 0.93539   5
   0  -2 -11 0.16026 1.03747   4
   0   2 -11 -0.2954 1.54228   4
   0   2  11 -0.1519 0.88000   6
   0   2  11 -1.2722 0.59793   1
  -1  -2 -11 3.57694 1.66767   4
  -1   2 -11 1.38635 1.52766   4
   1   2  11 0.64228 1.08517   1
  -2  -2 -11 -0.1903 0.75775   6
  -2   2 -11 -0.4182 1.04741   6
  -2   2 -11 -0.0891 1.00063   4
  -3  -3  11 6.10396 0.87292   1
  -3   3  11 4.90034 0.75854   5
  -2  -3  11 75.4118 2.96974   1
  -2   3  11 74.0780 3.05481   1
  -2   3  11 73.4407 3.19149   5
  -1   3  11 -0.6537 1.26895   6
  -1   3  11 1.50131 0.71229   1
  -1   3  11 -0.2431 0.95918   5
   0  -3 -11 2.22890 1.66229   4
   0   3  11 2.03589 1.34065   6
   0   3  11 2.63188 0.83597   5
   0   3 -11 2.05471 1.14198   4
   0   3  11 2.27482 1.10161   1
  -1  -3 -11 13.9913 2.06030   4
   1   3  11 15.6655 1.38815   3
   1   3  11 13.5099 1.52580   1
  -1   3 -11 17.3081 1.86704   4
  -2  -3 -11 14.5974 1.62890   6
   2   3  11 16.3490 1.29093   3
  -2   3 -11 14.1113 1.68036   6
  -2   3 -11 13.0577 1.70597   4
  -2   4  11 9.07475 1.10533   4
  -2   4  11 9.89939 1.01708   5
  -2   4  11 7.93444 1.10487   1
  -1   4  11 5.48237 1.42047   6
  -1   4  11 9.54692 1.19330   1
  -1   4  11 7.30960 1.15529   4
  -1   4  11 6.45502 1.01091   3
   0  -4 -11 89.2543 4.46800   4
   0   4  11 91.6168 3.45510   3
   0   4  11 94.7062 4.13888   6
   0   4  11 91.2517 3.74229   5
   0   4  11 87.3618 3.68594   1
   0   4 -11 93.5479 4.30824   4
   1   4  11 0.98336 0.90749   5
   1   4  11 1.95394 1.06182   6
   1   4  11 0.69806 1.08265   1
  -1   4 -11 2.82783 1.04796   4
   1   4  11 0.73147 0.97673   3
  -2  -4 -11 11.9953 1.25715   6
   2   4  11 11.8567 1.23266   1
  -2   4 -11 10.1819 1.25216   4
  -2   5  11 14.5763 0.99005   5
  -2   5  11 15.1213 1.08049   3
  -1   5  11 14.4657 1.10325   3
  -1   5  11 15.2640 1.14736   5
  -1   5  11 15.7757 1.52579   1
  -1   5  11 13.3922 1.56113   6
   0  -5 -11 41.6766 2.98048   4
   0   5  11 40.5079 2.00869   5
   0   5  11 39.6489 1.92223   3
   0   5  11 40.5553 2.08862   1
   0   5  11 40.8650 2.51177   6
   1   5  11 5.34269 0.71536   3
  -1   5 -11 7.55150 1.28020   4
   1   5  11 7.11615 1.04105   1
  -3   0  12 3.61542 0.64810   1
  -2   0  12 57.7954 2.59615   1
   1   0 -12 2.34330 1.75708   4
  -1   0  12 1.40319 0.93130   1
   0   0 -12 142.932 6.18094   4
   0   0  12 133.729 4.98087   1
  -1   0 -12 126.790 5.15148   4
  -1   0 -12 126.662 5.03428   6
  -2   0 -12 42.3879 2.40320   6
  -2   0 -12 39.1122 2.30184   4
  -3  -1  12 0.56927 0.48484   1
  -3   1  12 0.69424 0.50906   1
  -3   1  12 0.95767 0.52123   5
  -2  -1  12 8.88405 1.14266   1
  -2   1  12 5.62533 0.98104   1
  -1  -1  12 5.62585 0.86875   1
   1  -1 -12 5.44844 1.94793   4
  -1   1  12 3.88306 1.06410   1
   1   1 -12 7.28681 1.80124   4
   0  -1 -12 88.4551 4.79729   4
   0   1 -12 88.5621 4.59874   4
   0   1  12 89.0887 3.69981   1
  -1  -1 -12 9.18256 1.40402   6
  -1  -1 -12 10.2093 1.68749   4
  -1   1 -12 8.88910 1.63374   4
  -1   1 -12 6.13297 1.40113   6
  -2  -1 -12 1.74318 0.77129   6
  -2   1 -12 0.83742 0.83405   4
  -2   1 -12 0.98281 0.73292   6
  -3  -2  12 51.9022 2.04442   1
  -3   2  12 50.2252 2.02008   1
  -3   2  12 51.6832 2.05678   5
  -2  -2  12 0.17926 0.55932   1
   2  -2 -12 -0.3896 1.68431   4
  -2   2  12 0.13035 0.80858   1
  -2   2  12 1.05135 0.72550   5
  -1  -2  12 11.5796 1.38140   1
   1  -2 -12 8.71286 2.06300   4
  -1   2  12 9.05013 1.20268   1
   0  -2 -12 1.46120 1.48955   4
   0   2  12 0.84185 0.96639   1
   0   2  12 0.62501 1.39171   6
   0   2 -12 0.69392 1.14791   4
  -1  -2 -12 17.0513 1.75070   6
  -1  -2 -12 15.2340 2.02457   4
   1   2  12 15.0754 1.51163   1
  -1   2 -12 16.4714 1.86667   4
  -2  -2 -12 0.15163 0.73634   6
  -2   2 -12 0.78100 0.84863   4
  -2   2 -12 0.44640 0.61333   6
  -3  -3  12 0.13867 0.40322   1
  -3   3  12 0.28056 0.37524   5
   2  -3 -12 -1.0684 1.67425   4
  -2  -3  12 1.50450 0.60715   1
  -2   3  12 2.36952 0.68992   1
  -2   3  12 0.04049 0.75199   5
   1  -3 -12 6.58865 1.78264   4
  -1   3  12 10.8191 1.37600   5
  -1   3  12 7.05144 1.13412   1
   0  -3 -12 4.12236 1.59282   4
   0   3  12 4.77696 0.94156   1
   0   3 -12 4.07305 1.57172   4
   0   3  12 5.35031 1.33055   6
  -1  -3 -12 2.01575 1.46907   4
  -1  -3 -12 1.24022 0.78855   6
   1   3  12 0.32169 1.02297   1
  -1   3 -12 0.26693 1.23558   4
  -2  -3 -12 8.32826 1.04187   6
  -2   3 -12 7.74498 1.30484   4
   2  -4 -12 0.22924 1.05703   4
  -2   4  12 0.66243 0.49142   5
  -2   4  12 0.69206 0.79435   1
   1  -4 -12 1.27816 1.47599   4
  -1   4  12 1.13588 1.02882   6
  -1   4  12 2.13515 0.64584   5
  -1   4  12 1.56832 0.90465   1
   0  -4 -12 28.7526 2.79430   4
   0   4 -12 22.3307 1.78536   4
   0   4  12 25.3060 1.79588   6
   0   4  12 23.8069 1.64390   1
   0   4  12 23.3500 1.67983   5
  -1  -4 -12 0.48461 0.71473   6
   1   4  12 0.49583 0.77020   1
   1   4  12 2.17325 1.09182   3
  -1   4 -12 1.51019 0.99575   4
   1  -5 -12 8.70285 1.24216   4
  -1   5  12 6.21261 0.79299   6
  -1   5  12 6.92751 0.76690   5
  -1   5  12 9.36789 0.89120   1
   0  -5 -12 -0.1514 1.29217   4
   0   5  12 0.65670 0.54005   3
   0   5  12 0.30760 0.58159   1
   0   5  12 0.13262 0.42337   5
   0   5  12 0.15153 0.74337   6
  -3   0  13 0.03511 0.43039   1
  -2   0  13 0.44477 0.61950   1
   1   0 -13 1.63267 1.20756   4
  -1   0  13 0.17005 0.95648   1
   0   0 -13 0.57019 0.97216   4
  -1   0 -13 -0.4513 1.09958   6
  -1   0 -13 -1.0116 1.17218   4
  -2   0 -13 0.16769 1.00613   4
  -2   0 -13 -0.5559 0.86683   6
  -3  -1  13 19.4962 1.15308   1
  -3   1  13 19.3174 1.16779   1
  -2  -1  13 0.39818 0.81381   1
  -2   1  13 -0.1762 0.86063   1
   1  -1 -13 16.3012 2.27027   4
   1   1 -13 21.2721 2.45154   4
  -1   1  13 18.3773 1.72680   1
   0  -1 -13 30.3705 2.86991   4
   0   1  13 32.2613 2.13915   1
   0   1 -13 30.9444 2.82793   4
  -1  -1 -13 9.25554 1.23821   6
  -1  -1 -13 3.88475 1.38558   4
  -1   1 -13 7.60065 1.44044   4
  -2  -1 -13 7.43380 0.90878   6
  -2   1 -13 4.33502 0.90614   6
  -2   1 -13 5.98756 1.13170   4
  -3  -2  13 5.51415 0.60296   1
  -3   2  13 5.71557 0.59083   1
   2  -2 -13 -1.5072 1.53482   4
  -2  -2  13 0.89102 0.60120   1
  -2   2  13 0.23878 0.50315   5
  -2   2  13 0.01326 0.52270   1
   1  -2 -13 53.0261 3.60535   4
  -1   2  13 51.2838 2.48584   1
   0  -2 -13 1.62290 1.13102   6
   0  -2 -13 0.32489 0.90434   4
   0   2 -13 3.14898 1.22728   4
   0   2  13 1.16365 0.82322   1
  -1  -2 -13 0.53731 0.99605   4
  -1  -2 -13 -0.7758 0.76853   6
   1   2  13 -0.2027 0.67827   1
  -1   2 -13 0.68830 0.86106   4
  -2  -2 -13 1.08707 0.66615   6
  -2   2 -13 0.76478 0.64929   4
   2  -3 -13 6.68536 1.55352   4
  -2   3  13 6.61831 0.81079   5
  -2   3  13 5.54474 0.87489   1
   1  -3 -13 1.21385 1.00493   4
  -1   3  13 1.35009 0.62410   1
  -1   3  13 0.64070 0.60818   5
   0  -3 -13 1.07905 1.35711   4
   0   3 -13 0.95591 1.25517   4
   0   3  13 0.91072 0.61663   1
  -1  -3 -13 2.66293 0.88933   6
  -1  -3 -13 4.40477 1.05363   4
  -1   3 -13 3.96595 0.97466   4
   1   3  13 3.36225 0.80867   1
   2  -4 -13 0.93007 1.07958   4
  -2   4  13 0.77041 0.35509   5
   1  -4 -13 0.02213 0.84713   4
  -1   4  13 0.38575 0.58997   5
  -1   4  13 1.32380 0.54875   1
   0  -4 -13 9.16123 1.33983   4
   0   4 -13 6.49358 1.32689   4
   0   4  13 8.87520 0.93387   1
  -1  -4 -13 18.5368 1.41278   6
  -1   4 -13 18.7181 1.27422   4
   1   4  13 18.0449 1.14930   1
  -2   0  14 4.33103 0.86923   1
  -1   0  14 1.67899 0.87361   1
   1   0 -14 1.53539 1.18533   4
   0   0 -14 11.4107 1.60261   4
  -1   0 -14 20.8323 1.86283   4
  -2  -1  14 0.29539 0.77869   1
  -2   1  14 0.45726 0.73539   1
   1  -1 -14 46.9753 2.89610   4
  -1  -1  14 44.8002 2.27405   1
   1   1 -14 46.5235 2.96855   4
  -1   1  14 45.7450 2.27713   1
   0  -1 -14 23.6993 2.13253   4
   0   1 -14 25.4370 2.16333   4
   0   1  14 24.3681 1.89603   1
  -1  -1 -14 11.9164 1.58339   4
  -1  -1 -14 11.5843 1.21473   6
  -1   1 -14 11.3041 1.35529   4
  -2  -2  14 -0.1030 0.50212   1
  -2   2  14 0.54406 0.49118   1
   1  -2 -14 40.7529 2.67685   4
  -1   2  14 40.7830 2.02499   1
   0  -2 -14 0.30569 0.88803   4
   0   2 -14 1.05301 0.90747   4
   0   2  14 0.57958 0.66758   1
  -1  -2 -14 0.51792 0.62040   6
  -1  -2 -14 -0.3479 1.08133   4
  -1   2 -14 0.18595 0.65590   4
   2  -3 -14 6.04109 1.54483   4
  -2   3  14 4.94182 0.73031   1
   1  -3 -14 1.21637 0.88288   4
  -1   3  14 1.13171 0.78966   1
   0  -3 -14 10.0963 1.20090   6
   0  -3 -14 11.4035 1.42291   4
   0   3  14 12.4173 1.22737   1
   0   3 -14 11.9989 1.28875   4
  -1  -3 -14 5.19412 0.77235   6
  -1  -3 -14 1.55640 1.16043   4
  -1   3 -14 6.75963 0.84399   4
   1   3  14 5.23814 1.10391   1
  -2   0  15 -0.6387 0.45497   1
   1   0 -15 0.30657 1.21677   4
  -1   0  15 0.06543 0.81261   1
   0   0 -15 -0.0435 0.74883   4
  -1   0 -15 -0.3088 0.87752   4
  -2  -1  15 0.34004 0.43822   1
  -2   1  15 1.13134 0.50454   1
   1  -1 -15 10.6561 1.35570   4
  -1   1  15 12.5323 1.10909   1
   0  -1 -15 1.15819 0.70339   4
   0   1 -15 2.74813 0.97808   4
  -1  -1 -15 1.78011 0.74572   4
  -1   1 -15 1.27423 0.63386   4
   1  -2 -15 7.23561 1.12562   4
  -1   2  15 8.66516 0.91610   1
   0  -2 -15 17.9663 1.53778   4
   0   2  15 19.1293 1.42381   1
   0   2 -15 19.7274 1.68036   4
   0   0   0    0.00    0.00   0

 _exptl_absorpt_process_details 'SADABS 2014/5'
 _exptl_absorpt_correction_type   multi-scan
 _exptl_absorpt_correction_T_max  0.3200
 _exptl_absorpt_correction_T_min  0.1847
 _exptl_special_details
)
 The following wavelength and cell were deduced by SADABS from the
 direction cosines etc. They are given here for emergency use only:
 CELL 1.54185    3.992    6.714   13.387   90.007   97.184   89.976
)
;
_shelx_hkl_checksum              96531
_shelx_shelxl_version_number     2014/7
_olex2_submission_special_instructions 'No special instructions were received'
loop_
_space_group_symop_operation_xyz
'x, y, z'
'-x, y+1/2, -z+1/2'
'-x, -y, -z'
'x, -y-1/2, z-1/2'
loop_
_atom_site_label
_atom_site_type_symbol
_atom_site_fract_x
_atom_site_fract_y
_atom_site_fract_z
_atom_site_U_iso_or_equiv
_atom_site_adp_type
_atom_site_occupancy
_atom_site_site_symmetry_order
_atom_site_calc_flag
_atom_site_refinement_flags_posn
_atom_site_refinement_flags_adp
_atom_site_refinement_flags_occupancy
_atom_site_disorder_assembly
_atom_site_disorder_group
Cl1 Cl 0.1361(5) 0.1937(3) 0.44165(19) 0.0573(8) Uani 0.5 1 d . U P A -1
C1 C 0.398(5) 0.679(2) 0.3258(14) 0.053(3) Uani 0.5 1 d . U P A -1
H1 H 0.3590 0.7343 0.2600 0.064 Uiso 0.5 1 calc R . P A -1
N4 N 0.865(2) 0.7288(15) 0.5942(9) 0.068(2) Uani 0.5 1 d . U P A -1
N3 N 0.8499(13) 0.6107(14) 0.6496(5) 0.0504(14) Uani 0.5 1 d . U P A -1
C5 C 0.3203(14) 0.4202(10) 0.4284(5) 0.0435(14) Uani 0.5 1 d . U P A -1
C3 C 0.6723(15) 0.6916(8) 0.4944(5) 0.0449(14) Uani 0.5 1 d . U P A -1
C2 C 0.6133(18) 0.7897(10) 0.4022(7) 0.0553(17) Uani 0.5 1 d . U P A -1
H2 H 0.7049 0.9169 0.3904 0.066 Uiso 0.5 1 calc R . P A -1
N2 N 0.6453(14) 0.4603(10) 0.6072(5) 0.0458(13) Uani 0.5 1 d . U P A -1
N1 N 0.2537(19) 0.5060(14) 0.3420(5) 0.0570(16) Uani 0.5 1 d . U P A -1
C4 C 0.530(5) 0.512(3) 0.5075(13) 0.0307(17) Uani 0.5 1 d . U P A -1
C6 C 0.573(5) 0.272(2) 0.6591(13) 0.054(3) Uani 0.5 1 d . U P A -1
H6A H 0.6909 0.2736 0.7279 0.080 Uiso 0.5 1 calc GR . P A -1
H6B H 0.6510 0.1587 0.6223 0.080 Uiso 0.5 1 calc GR . P A -1
H6C H 0.3293 0.2609 0.6614 0.080 Uiso 0.5 1 calc GR . P A -1
loop_
_atom_site_aniso_label
_atom_site_aniso_U_11
_atom_site_aniso_U_22
_atom_site_aniso_U_33
_atom_site_aniso_U_23
_atom_site_aniso_U_13
_atom_site_aniso_U_12
Cl1 0.0418(11) 0.0452(13) 0.0862(16) -0.0177(9) 0.0128(9) -0.0039(7)
C1 0.044(5) 0.072(6) 0.043(5) 0.011(4) 0.008(3) 0.020(4)
N4 0.049(4) 0.063(5) 0.093(5) -0.024(3) 0.009(3) -0.008(3)
N3 0.030(3) 0.079(4) 0.042(3) -0.024(3) 0.005(2) 0.001(3)
C5 0.030(3) 0.048(3) 0.053(3) -0.016(3) 0.008(2) 0.004(2)
C3 0.034(3) 0.038(3) 0.067(3) -0.010(2) 0.022(2) 0.0051(19)
C2 0.043(4) 0.047(3) 0.080(4) 0.011(3) 0.027(3) 0.007(2)
N2 0.038(3) 0.063(3) 0.037(3) -0.001(2) 0.005(2) 0.004(2)
N1 0.043(4) 0.084(5) 0.042(3) -0.009(3) 0.000(2) 0.013(3)
C4 0.027(5) 0.032(4) 0.034(4) -0.001(3) 0.009(3) 0.003(3)
C6 0.061(6) 0.058(6) 0.044(6) 0.013(5) 0.018(5) 0.004(5)
loop_
_atom_type_symbol
_atom_type_description
_atom_type_scat_dispersion_real
_atom_type_scat_dispersion_imag
_atom_type_scat_source
C C 0.0181 0.0091 'International Tables Vol C Tables 4.2.6.8 and 6.1.1.4'
H H 0.0000 0.0000 'International Tables Vol C Tables 4.2.6.8 and 6.1.1.4'
Cl Cl 0.3639 0.7018 'International Tables Vol C Tables 4.2.6.8 and 6.1.1.4'
N N 0.0311 0.0180 'International Tables Vol C Tables 4.2.6.8 and 6.1.1.4'
loop_
_geom_angle_atom_site_label_1
_geom_angle_atom_site_label_2
_geom_angle_atom_site_label_3
_geom_angle
C2 C1 H1 117.9
N1 C1 H1 117.9
N1 C1 C2 124.2(14)
N3 N4 C3 115.1(7)
N4 N3 N2 109.4(6)
N1 C5 Cl1 116.6(6)
N1 C5 C4 121.0(11)
C4 C5 Cl1 122.4(9)
C2 C3 N4 137.1(7)
C4 C3 N4 102.3(9)
C4 C3 C2 120.6(9)
C1 C2 H2 123.2
C3 C2 C1 113.7(9)
C3 C2 H2 123.2
N3 N2 C4 108.5(9)
N3 N2 C6 124.8(9)
C4 N2 C6 126.7(10)
C5 N1 C1 119.5(11)
C3 C4 C5 120.9(14)
C3 C4 N2 104.6(9)
N2 C4 C5 134.5(14)
N2 C6 H6A 109.5
N2 C6 H6B 109.5
N2 C6 H6C 109.5
H6A C6 H6B 109.5
H6A C6 H6C 109.5
H6B C6 H6C 109.5
loop_
_geom_bond_atom_site_label_1
_geom_bond_atom_site_label_2
_geom_bond_distance
Cl1 C5 1.707(8)
C1 H1 0.9500
C1 C2 1.453(17)
C1 N1 1.328(19)
N4 N3 1.092(12)
N4 C3 1.477(13)
N3 N2 1.376(10)
C5 N1 1.289(11)
C5 C4 1.408(12)
C3 C2 1.392(11)
C3 C4 1.352(18)
C2 H2 0.9500
N2 C4 1.399(18)
N2 C6 1.485(16)
C6 H6A 0.9800
C6 H6B 0.9800
C6 H6C 0.9800
loop_
_geom_torsion_atom_site_label_1
_geom_torsion_atom_site_label_2
_geom_torsion_atom_site_label_3
_geom_torsion_atom_site_label_4
_geom_torsion
Cl1 C5 N1 C1 -177.7(10)
Cl1 C5 C4 C3 179.9(12)
Cl1 C5 C4 N2 1(3)
N4 N3 N2 C4 0.2(13)
N4 N3 N2 C6 178.2(11)
N4 C3 C2 C1 179.0(10)
N4 C3 C4 C5 180.0(16)
N4 C3 C4 N2 -0.5(15)
N3 N4 C3 C2 -179.5(7)
N3 N4 C3 C4 0.7(13)
N3 N2 C4 C5 180(2)
N3 N2 C4 C3 0.2(17)
C3 N4 N3 N2 -0.6(9)
C2 C1 N1 C5 -5(2)
C2 C3 C4 C5 0(2)
C2 C3 C4 N2 179.7(8)
N1 C1 C2 C3 3.6(19)
N1 C5 C4 C3 -1(2)
N1 C5 C4 N2 179.4(18)
C4 C5 N1 C1 3.4(17)
C4 C3 C2 C1 -1.2(16)
C6 N2 C4 C5 2(3)
C6 N2 C4 C3 -177.7(12)
