#------------------------------------------------------------------------------
#$Date: 2019-11-11 18:12:28 +0200 (Mon, 11 Nov 2019) $
#$Revision: 226860 $
#$URL: file:///home/coder/svn-repositories/cod/cif/4/03/54/4035402.cif $
#------------------------------------------------------------------------------
#
# This file is available in the Crystallography Open Database (COD),
# http://www.crystallography.net/
#
# All data on this site have been placed in the public domain by the
# contributors.
#
data_4035402
loop_
_publ_author_name
'Kinens, Artis'
'Balkaitis, Simonas'
'Suna, Edgars'
_publ_section_title
;
 Preparative-Scale Synthesis of Vedejs Chiral DMAP Catalysts.
;
_journal_issue                   20
_journal_name_full               'The Journal of organic chemistry'
_journal_page_first              12449
_journal_page_last               12459
_journal_paper_doi               10.1021/acs.joc.8b01687
_journal_volume                  83
_journal_year                    2018
_chemical_formula_moiety         'C8 H18 Cl2 N2 O2 Zn'
_chemical_formula_sum            'C8 H18 Cl2 N2 O2 Zn'
_chemical_formula_weight         310.51
_space_group_IT_number           2
_space_group_name_Hall           '-P 1'
_space_group_name_H-M_alt        'P -1'
_symmetry_cell_setting           triclinic
_symmetry_space_group_name_H-M   'P -1'
_atom_sites_solution_hydrogens   mixed
_atom_sites_solution_primary     direct
_atom_sites_solution_secondary   difmap
_audit_creation_method           SHELXL
_cell_angle_alpha                90.660(2)
_cell_angle_beta                 103.5388(18)
_cell_angle_gamma                100.646(2)
_cell_formula_units_Z            2
_cell_length_a                   8.3177(3)
_cell_length_b                   8.3401(4)
_cell_length_c                   9.5390(4)
_cell_measurement_reflns_used    2144
_cell_measurement_temperature    163(2)
_cell_measurement_theta_max      27.5
_cell_measurement_theta_min      0.9
_cell_volume                     631.22(5)
_computing_structure_refinement  'SHELXL (Sheldrick, 2008)'
_computing_structure_solution    'SHELXS-97 (Sheldrick, 1990)'
_diffrn_ambient_temperature      163(2)
_diffrn_measured_fraction_theta_full 0.98
_diffrn_measured_fraction_theta_max 0.98
_diffrn_measurement_device_type  'Bruker-Nonius KappaCCD'
_diffrn_measurement_method       '\f and \w scan'
_diffrn_radiation_monochromator  graphite
_diffrn_radiation_source         'fine-focus sealed tube'
_diffrn_radiation_type           MoK\a
_diffrn_radiation_wavelength     0.71073
_diffrn_reflns_av_R_equivalents  0.0204
_diffrn_reflns_av_sigmaI/netI    0.0429
_diffrn_reflns_limit_h_max       10
_diffrn_reflns_limit_h_min       -10
_diffrn_reflns_limit_k_max       10
_diffrn_reflns_limit_k_min       -10
_diffrn_reflns_limit_l_max       12
_diffrn_reflns_limit_l_min       -12
_diffrn_reflns_number            4290
_diffrn_reflns_theta_full        28.0
_diffrn_reflns_theta_max         28.0
_diffrn_reflns_theta_min         2.2
_exptl_absorpt_coefficient_mu    2.352
_exptl_absorpt_correction_type   none
_exptl_crystal_colour            'Colourless '
_exptl_crystal_density_diffrn    1.634
_exptl_crystal_density_method    'not measured'
_exptl_crystal_description       Prism
_exptl_crystal_F_000             320
_exptl_crystal_size_max          0.23
_exptl_crystal_size_mid          0.14
_exptl_crystal_size_min          0.12
_refine_diff_density_max         0.381
_refine_diff_density_min         -0.459
_refine_diff_density_rms         0.063
_refine_ls_extinction_method     none
_refine_ls_goodness_of_fit_ref   0.991
_refine_ls_hydrogen_treatment    mixed
_refine_ls_matrix_type           full
_refine_ls_number_parameters     144
_refine_ls_number_reflns         2979
_refine_ls_number_restraints     0
_refine_ls_restrained_S_all      0.991
_refine_ls_R_factor_all          0.0298
_refine_ls_R_factor_gt           0.0265
_refine_ls_shift/su_max          0.013
_refine_ls_shift/su_mean         0.001
_refine_ls_structure_factor_coef Fsqd
_refine_ls_weighting_details
'calc w=1/[\s^2^(Fo^2^)+(0.0101P)^2^+0.4435P] where P=(Fo^2^+2Fc^2^)/3'
_refine_ls_weighting_scheme      calc
_refine_ls_wR_factor_gt          0.0601
_refine_ls_wR_factor_ref         0.0633
_reflns_d_resolution_high        0.7605
_reflns_number_gt                2718
_reflns_number_total             2979
_reflns_threshold_expression     >2sigma(I)
_cod_data_source_file            jo8b01687_si_004.cif
_cod_data_source_block           ak_371
_cod_original_sg_symbol_H-M      'P -1 '
_cod_database_code               4035402
_shelx_title                     ' Compound ak_371'
_shelx_refln_list_code           4
_shelx_f_calc_maximum            99.26
_shelx_f_squared_multiplier      1.000
loop_
_symmetry_equiv_pos_as_xyz
'x, y, z'
'-x, -y, -z'
loop_
_atom_site_label
_atom_site_type_symbol
_atom_site_fract_x
_atom_site_fract_y
_atom_site_fract_z
_atom_site_U_iso_or_equiv
_atom_site_adp_type
_atom_site_occupancy
_atom_site_symmetry_multiplicity
_atom_site_calc_flag
_atom_site_refinement_flags
Zn1 Zn 0.38792(2) 0.33570(3) 0.15347(2) 0.02122(8) Uani 1 1 d .
Cl2 Cl 0.23523(6) 0.23559(7) -0.06612(5) 0.03233(13) Uani 1 1 d .
Cl1 Cl 0.35688(6) 0.58686(6) 0.21418(6) 0.03087(12) Uani 1 1 d .
N4A N 0.29761(19) 0.18750(19) 0.29777(16) 0.0196(3) Uani 1 1 d .
H4A H 0.203(3) 0.209(3) 0.281(2) 0.029(6) Uiso 1 1 d .
N4B N 0.63760(19) 0.34781(19) 0.15753(17) 0.0213(3) Uani 1 1 d .
H4B H 0.651(3) 0.415(3) 0.091(3) 0.048(8) Uiso 1 1 d .
O1B O 0.96983(16) 0.27828(18) 0.24812(15) 0.0290(3) Uani 1 1 d .
O1A O 0.25993(19) -0.03873(18) 0.51760(16) 0.0334(3) Uani 1 1 d .
C5B C 0.7572(2) 0.4207(3) 0.2933(2) 0.0306(4) Uani 1 1 d .
H5BA H 0.7267 0.5247 0.3039 0.037 Uiso 1 1 d R
H5BB H 0.7449 0.3536 0.3715 0.037 Uiso 1 1 d R
C3B C 0.6790(2) 0.1912(3) 0.1176(2) 0.0297(4) Uani 1 1 d .
H3BA H 0.6579 0.1142 0.1882 0.036 Uiso 1 1 d R
H3BB H 0.6095 0.1501 0.0243 0.036 Uiso 1 1 d R
C3A C 0.3775(2) 0.2305(2) 0.4530(2) 0.0265(4) Uani 1 1 d .
H3AA H 0.4954 0.2094 0.4738 0.032 Uiso 1 1 d R
H3AB H 0.3815 0.3480 0.4769 0.032 Uiso 1 1 d R
C5A C 0.2754(3) 0.0091(2) 0.2697(2) 0.0293(4) Uani 1 1 d .
H5AA H 0.2074 -0.0281 0.1652 0.035 Uiso 1 1 d R
H5AB H 0.3886 -0.0259 0.2791 0.035 Uiso 1 1 d R
C6B C 0.9381(2) 0.4341(3) 0.2821(2) 0.0330(5) Uani 1 1 d .
H6BA H 1.0117 0.4768 0.3734 0.040 Uiso 1 1 d R
H6BB H 0.9589 0.5071 0.2085 0.040 Uiso 1 1 d R
C2A C 0.2752(3) 0.1314(3) 0.5464(2) 0.0322(5) Uani 1 1 d .
H2AA H 0.3296 0.1596 0.6475 0.035 Uiso 1 1 calc R
H2AB H 0.1638 0.1585 0.5277 0.035 Uiso 1 1 calc R
C6A C 0.1789(3) -0.0834(3) 0.3701(2) 0.0350(5) Uani 1 1 d .
H6AA H 0.1705 -0.1986 0.3525 0.042 Uiso 1 1 d R
H6AB H 0.0679 -0.0584 0.3504 0.042 Uiso 1 1 d R
C2B C 0.8625(2) 0.2123(3) 0.1124(2) 0.0337(5) Uani 1 1 d .
H2BA H 0.8825 0.2853 0.0386 0.040 Uiso 1 1 d R
H2BB H 0.8864 0.1080 0.0903 0.040 Uiso 1 1 d R
loop_
_atom_site_aniso_label
_atom_site_aniso_U_11
_atom_site_aniso_U_22
_atom_site_aniso_U_33
_atom_site_aniso_U_23
_atom_site_aniso_U_13
_atom_site_aniso_U_12
Zn1 0.01807(12) 0.02547(13) 0.02200(12) 0.00849(9) 0.00583(8) 0.00721(9)
Cl2 0.0321(3) 0.0413(3) 0.0218(2) 0.0045(2) 0.00263(19) 0.0071(2)
Cl1 0.0300(3) 0.0239(2) 0.0401(3) 0.0055(2) 0.0083(2) 0.00880(19)
N4A 0.0165(7) 0.0230(8) 0.0204(7) 0.0048(6) 0.0043(6) 0.0068(6)
N4B 0.0189(7) 0.0239(8) 0.0227(8) 0.0080(6) 0.0055(6) 0.0075(6)
O1B 0.0195(6) 0.0330(8) 0.0341(8) 0.0034(6) 0.0014(5) 0.0107(6)
O1A 0.0406(8) 0.0319(8) 0.0310(8) 0.0148(6) 0.0128(6) 0.0088(6)
C5B 0.0250(10) 0.0332(11) 0.0331(11) -0.0044(9) 0.0047(8) 0.0075(8)
C3B 0.0216(9) 0.0319(11) 0.0342(11) -0.0040(8) 0.0026(8) 0.0076(8)
C3A 0.0294(10) 0.0276(10) 0.0208(9) 0.0038(7) 0.0044(7) 0.0036(8)
C5A 0.0389(11) 0.0219(10) 0.0294(10) 0.0033(8) 0.0128(9) 0.0052(8)
C6B 0.0197(9) 0.0341(11) 0.0426(12) -0.0049(9) 0.0029(8) 0.0049(8)
C2A 0.0400(12) 0.0361(12) 0.0237(10) 0.0085(8) 0.0123(9) 0.0093(9)
C6A 0.0404(12) 0.0266(11) 0.0368(12) 0.0075(9) 0.0119(9) -0.0002(9)
C2B 0.0240(10) 0.0412(12) 0.0367(12) -0.0057(9) 0.0048(8) 0.0120(9)
loop_
_atom_type_symbol
_atom_type_description
_atom_type_scat_dispersion_real
_atom_type_scat_dispersion_imag
_atom_type_scat_source
C C 0.0033 0.0016 'International Tables Vol C Tables 4.2.6.8 and 6.1.1.4'
H H 0.0000 0.0000 'International Tables Vol C Tables 4.2.6.8 and 6.1.1.4'
Cl Cl 0.1484 0.1585 'International Tables Vol C Tables 4.2.6.8 and 6.1.1.4'
N N 0.0061 0.0033 'International Tables Vol C Tables 4.2.6.8 and 6.1.1.4'
O O 0.0106 0.0060 'International Tables Vol C Tables 4.2.6.8 and 6.1.1.4'
Zn Zn 0.2839 1.4301 'International Tables Vol C Tables 4.2.6.8 and 6.1.1.4'
loop_
_geom_angle_atom_site_label_1
_geom_angle_atom_site_label_2
_geom_angle_atom_site_label_3
_geom_angle
N4A Zn1 N4B 115.56(6)
N4A Zn1 Cl2 106.24(5)
N4B Zn1 Cl2 108.08(5)
N4A Zn1 Cl1 105.27(5)
N4B Zn1 Cl1 107.47(5)
Cl2 Zn1 Cl1 114.46(2)
C5A N4A C3A 109.31(15)
C5A N4A Zn1 117.49(11)
C3A N4A Zn1 116.66(11)
C5A N4A H4A 106.9(16)
C3A N4A H4A 107.4(16)
Zn1 N4A H4A 97.5(16)
C3B N4B C5B 109.69(15)
C3B N4B Zn1 114.26(12)
C5B N4B Zn1 115.02(12)
C3B N4B H4B 108.6(18)
C5B N4B H4B 107.0(18)
Zn1 N4B H4B 101.6(18)
C6B O1B C2B 110.26(15)
C2A O1A C6A 110.48(15)
N4B C5B C6B 111.00(16)
N4B C5B H5BA 102.8
C6B C5B H5BA 113.2
N4B C5B H5BB 110.8
C6B C5B H5BB 106.3
H5BA C5B H5BB 112.8
N4B C3B C2B 111.21(17)
N4B C3B H3BA 108.8
C2B C3B H3BA 108.9
N4B C3B H3BB 109.5
C2B C3B H3BB 108.9
H3BA C3B H3BB 109.5
N4A C3A C2A 110.30(16)
N4A C3A H3AA 108.5
C2A C3A H3AA 111.2
N4A C3A H3AB 110.8
C2A C3A H3AB 107.0
H3AA C3A H3AB 109.1
N4A C5A C6A 110.84(16)
N4A C5A H5AA 111.9
C6A C5A H5AA 106.8
N4A C5A H5AB 111.3
C6A C5A H5AB 110.5
H5AA C5A H5AB 105.3
O1B C6B C5B 110.67(16)
O1B C6B H6BA 109.1
C5B C6B H6BA 108.6
O1B C6B H6BB 109.6
C5B C6B H6BB 109.4
H6BA C6B H6BB 109.5
O1A C2A C3A 111.07(16)
O1A C2A H2AA 109.4
C3A C2A H2AA 109.4
O1A C2A H2AB 109.4
C3A C2A H2AB 109.4
H2AA C2A H2AB 108.0
O1A C6A C5A 111.50(17)
O1A C6A H6AA 109.3
C5A C6A H6AA 109.1
O1A C6A H6AB 108.8
C5A C6A H6AB 108.7
H6AA C6A H6AB 109.5
O1B C2B C3B 110.51(16)
O1B C2B H2BA 109.3
C3B C2B H2BA 109.0
O1B C2B H2BB 109.3
C3B C2B H2BB 109.2
H2BA C2B H2BB 109.5
loop_
_geom_bond_atom_site_label_1
_geom_bond_atom_site_label_2
_geom_bond_distance
Zn1 N4A 2.0413(15)
Zn1 N4B 2.0517(15)
Zn1 Cl2 2.2405(5)
Zn1 Cl1 2.2432(5)
N4A C5A 1.479(3)
N4A C3A 1.483(2)
N4A H4A 0.82(2)
N4B C3B 1.479(3)
N4B C5B 1.480(3)
N4B H4B 0.87(3)
O1B C6B 1.422(3)
O1B C2B 1.427(3)
O1A C2A 1.419(3)
O1A C6A 1.423(3)
C5B C6B 1.518(3)
C5B H5BA 0.9581
C5B H5BB 0.9512
C3B C2B 1.516(3)
C3B H3BA 0.9599
C3B H3BB 0.9599
C3A C2A 1.521(3)
C3A H3AA 1.0027
C3A H3AB 0.9965
C5A C6A 1.518(3)
C5A H5AA 1.0363
C5A H5AB 1.0210
C6B H6BA 0.9600
C6B H6BB 0.9601
C2A H2AA 0.9700
C2A H2AB 0.9700
C6A H6AA 0.9600
C6A H6AB 0.9600
C2B H2BA 0.9600
C2B H2BB 0.9600
loop_
_geom_torsion_atom_site_label_1
_geom_torsion_atom_site_label_2
_geom_torsion_atom_site_label_3
_geom_torsion_atom_site_label_4
_geom_torsion
N4B Zn1 N4A C5A -71.59(15)
Cl2 Zn1 N4A C5A 48.24(14)
Cl1 Zn1 N4A C5A 170.01(13)
N4B Zn1 N4A C3A 61.12(15)
Cl2 Zn1 N4A C3A -179.05(12)
Cl1 Zn1 N4A C3A -57.28(13)
N4A Zn1 N4B C3B 63.68(14)
Cl2 Zn1 N4B C3B -55.15(13)
Cl1 Zn1 N4B C3B -179.16(12)
N4A Zn1 N4B C5B -64.51(15)
Cl2 Zn1 N4B C5B 176.66(12)
Cl1 Zn1 N4B C5B 52.66(14)
C3B N4B C5B C6B 53.2(2)
Zn1 N4B C5B C6B -176.37(13)
C5B N4B C3B C2B -53.3(2)
Zn1 N4B C3B C2B 175.87(13)
C5A N4A C3A C2A -55.0(2)
Zn1 N4A C3A C2A 168.67(13)
C3A N4A C5A C6A 54.3(2)
Zn1 N4A C5A C6A -169.78(14)
C2B O1B C6B C5B 60.8(2)
N4B C5B C6B O1B -57.5(2)
C6A O1A C2A C3A -59.6(2)
N4A C3A C2A O1A 58.3(2)
C2A O1A C6A C5A 58.8(2)
N4A C5A C6A O1A -56.7(2)
C6B O1B C2B C3B -60.7(2)
N4B C3B C2B O1B 57.4(2)
loop_
_refln_index_h
_refln_index_k
_refln_index_l
_refln_F_squared_calc
_refln_F_squared_meas
_refln_F_squared_sigma
_refln_observed_status
3 0 0 5375.79 5362.83 164.42 o
4 0 0 909.04 868.15 17.78 o
5 0 0 1441.18 1407.12 32.96 o
6 0 0 274.15 277.13 8.35 o
7 0 0 342.19 367.45 13.27 o
8 0 0 913.51 959.93 33.90 o
9 0 0 291.18 278.89 16.11 o
10 0 0 2.15 -0.07 4.59 o
-10 1 0 41.57 43.66 3.72 o
-9 1 0 1.63 2.84 1.97 o
-8 1 0 11.93 8.39 1.41 o
-7 1 0 190.30 198.88 6.49 o
-6 1 0 312.07 315.20 14.10 o
-5 1 0 296.45 318.36 8.16 o
-4 1 0 302.71 300.56 7.63 o
-3 1 0 1891.50 1894.18 50.94 o
-1 1 0 3639.05 3532.60 188.43 o
1 1 0 13.75 17.88 0.84 o
2 1 0 85.84 83.93 2.92 o
3 1 0 845.69 826.31 17.31 o
4 1 0 4132.51 4089.44 85.97 o
5 1 0 1200.55 1168.63 31.23 o
6 1 0 236.16 254.31 9.00 o
7 1 0 2602.83 2598.52 77.92 o
8 1 0 437.84 455.59 24.13 o
9 1 0 84.51 89.00 5.32 o
10 1 0 78.65 78.29 9.33 o
-10 2 0 3.81 5.39 2.48 o
-9 2 0 129.64 139.59 9.84 o
-8 2 0 868.97 912.71 37.66 o
-7 2 0 419.01 448.26 13.51 o
-6 2 0 12.16 17.66 1.52 o
-5 2 0 183.49 175.22 4.74 o
-4 2 0 2017.37 2053.91 48.50 o
-3 2 0 1630.99 1635.56 52.53 o
-2 2 0 58.60 54.77 5.90 o
-1 2 0 559.82 558.36 25.08 o
0 2 0 2494.56 2371.78 86.01 o
1 2 0 26.37 21.24 1.37 o
2 2 0 80.49 77.76 1.83 o
3 2 0 439.80 415.58 9.04 o
4 2 0 291.49 269.76 5.69 o
5 2 0 744.99 762.99 14.63 o
6 2 0 210.65 213.54 5.39 o
7 2 0 180.30 182.48 5.40 o
8 2 0 17.96 17.14 1.74 o
9 2 0 29.40 30.32 4.59 o
-10 3 0 135.30 157.01 9.99 o
-9 3 0 830.35 927.78 54.60 o
-8 3 0 1501.03 1523.26 60.54 o
-7 3 0 7.74 8.50 1.41 o
-6 3 0 1302.22 1321.99 33.97 o
-5 3 0 1620.54 1654.56 37.20 o
-4 3 0 1270.71 1267.52 35.49 o
-3 3 0 1904.63 1827.54 50.62 o
-2 3 0 1572.98 1541.73 46.92 o
-1 3 0 9852.62 9598.01 384.58 o
0 3 0 1401.64 1342.61 42.66 o
1 3 0 402.57 421.17 13.08 o
2 3 0 21.95 21.35 1.26 o
3 3 0 89.84 91.90 2.62 o
4 3 0 1012.98 984.06 27.19 o
5 3 0 998.23 1022.27 26.35 o
6 3 0 21.75 21.86 1.46 o
7 3 0 231.35 224.89 9.07 o
8 3 0 22.14 17.35 3.13 o
9 3 0 50.79 51.83 8.09 o
-10 4 0 181.37 174.51 17.64 o
-9 4 0 243.53 263.94 14.14 o
-8 4 0 10.74 6.85 3.50 o
-7 4 0 106.59 109.95 5.54 o
-6 4 0 306.81 302.71 9.18 o
-5 4 0 1473.01 1490.37 63.93 o
-4 4 0 1760.75 1750.68 48.17 o
-3 4 0 564.24 572.59 23.36 o
-2 4 0 2853.39 2733.30 78.02 o
-1 4 0 2661.54 2605.81 84.16 o
0 4 0 64.88 56.87 2.50 o
1 4 0 247.14 262.89 7.87 o
2 4 0 723.34 651.71 19.72 o
3 4 0 2749.84 2701.65 67.54 o
4 4 0 1297.95 1294.31 27.11 o
5 4 0 75.93 74.37 3.21 o
6 4 0 472.19 473.27 16.66 o
7 4 0 315.80 321.89 20.48 o
8 4 0 19.76 21.65 3.94 o
-10 5 0 1.55 1.09 3.28 o
-9 5 0 92.50 109.63 8.75 o
-8 5 0 294.37 299.08 18.30 o
-7 5 0 35.99 33.38 3.50 o
-6 5 0 109.31 95.04 5.98 o
-5 5 0 66.97 61.70 3.51 o
-4 5 0 15.87 20.57 2.04 o
-3 5 0 584.35 568.65 17.72 o
-2 5 0 9.57 24.48 1.96 o
-1 5 0 909.78 916.14 26.01 o
0 5 0 432.51 463.84 17.01 o
1 5 0 252.57 255.41 8.70 o
2 5 0 2052.44 2107.84 47.73 o
3 5 0 1047.27 1028.12 22.40 o
4 5 0 34.49 32.13 1.74 o
5 5 0 354.94 348.94 10.57 o
6 5 0 167.72 164.16 18.92 o
7 5 0 122.13 124.50 9.26 o
8 5 0 128.28 133.03 12.97 o
-9 6 0 403.59 416.80 26.90 o
-8 6 0 47.10 47.67 5.32 o
-7 6 0 132.45 129.24 9.04 o
-6 6 0 0.77 2.62 2.55 o
-5 6 0 357.03 379.99 17.79 o
-4 6 0 573.85 549.96 24.75 o
-3 6 0 290.55 293.67 11.54 o
-2 6 0 129.08 120.93 8.56 o
-1 6 0 606.06 615.09 20.55 o
0 6 0 42.50 44.35 2.65 o
1 6 0 484.15 473.41 15.25 o
2 6 0 54.85 60.38 4.92 o
3 6 0 71.77 60.17 2.40 o
4 6 0 239.85 240.19 7.09 o
5 6 0 2.45 2.70 1.97 o
6 6 0 116.43 117.28 9.77 o
7 6 0 69.52 82.00 10.13 o
-9 7 0 31.48 30.25 5.32 o
-8 7 0 3.08 3.43 4.67 o
-7 7 0 61.82 66.77 7.44 o
-6 7 0 402.58 434.00 24.42 o
-5 7 0 938.18 945.35 47.45 o
-4 7 0 154.68 156.36 10.06 o
-3 7 0 998.37 987.88 39.65 o
-2 7 0 433.43 450.46 16.86 o
-1 7 0 395.94 383.15 14.46 o
0 7 0 108.77 95.84 4.69 o
1 7 0 4.64 7.88 1.93 o
2 7 0 506.97 510.52 23.33 o
3 7 0 217.06 224.70 7.78 o
4 7 0 103.70 113.52 9.00 o
5 7 0 1.95 4.81 4.67 o
6 7 0 21.45 12.32 5.39 o
-8 8 0 4.13 12.17 5.25 o
-7 8 0 366.25 347.19 21.21 o
-6 8 0 830.23 873.40 55.40 o
-5 8 0 0.04 7.14 4.08 o
-4 8 0 234.71 232.67 16.77 o
-3 8 0 507.80 523.30 28.79 o
-2 8 0 537.38 591.23 24.56 o
-1 8 0 286.33 317.45 18.00 o
0 8 0 91.38 83.27 4.83 o
1 8 0 684.01 663.55 48.26 o
2 8 0 637.07 651.82 39.95 o
3 8 0 19.28 16.00 5.76 o
4 8 0 77.93 65.96 5.43 o
5 8 0 7.26 19.39 5.98 o
-7 9 0 69.62 75.52 9.55 o
-5 9 0 97.13 97.75 8.60 o
-4 9 0 188.35 192.29 13.56 o
-3 9 0 45.24 44.10 5.76 o
-2 9 0 91.84 79.53 7.22 o
-1 9 0 4.98 -0.22 2.33 o
0 9 0 418.97 415.34 29.74 o
1 9 0 605.31 619.22 58.97 o
2 9 0 6.90 8.22 2.59 o
3 9 0 10.53 9.20 2.37 o
4 9 0 80.03 62.40 8.89 o
-6 10 0 322.37 291.94 32.58 o
-5 10 0 51.09 68.01 8.38 o
-4 10 0 18.05 17.79 4.52 o
-3 10 0 21.05 25.88 5.18 o
-2 10 0 52.46 56.05 6.20 o
-1 10 0 88.84 92.21 8.16 o
0 10 0 16.03 18.30 3.86 o
1 10 0 3.36 4.51 2.77 o
2 10 0 6.28 0.82 8.49 o
-2 -10 1 28.88 35.14 8.35 o
-1 -10 1 1.83 6.15 2.76 o
0 -10 1 0.86 4.67 3.79 o
1 -10 1 0.84 5.61 3.72 o
2 -10 1 6.07 4.74 3.50 o
3 -10 1 7.22 11.81 3.50 o
4 -10 1 120.19 121.66 10.20 o
5 -10 1 21.43 17.20 5.54 o
-4 -9 1 221.91 244.92 24.49 o
-3 -9 1 261.92 240.31 13.38 o
-2 -9 1 86.69 72.35 6.09 o
-1 -9 1 124.84 121.95 11.01 o
0 -9 1 329.90 332.39 21.07 o
1 -9 1 152.93 165.18 13.05 o
2 -9 1 64.64 62.98 7.29 o
3 -9 1 21.75 17.49 4.01 o
4 -9 1 154.73 151.84 10.93 o
5 -9 1 312.20 300.25 20.34 o
6 -9 1 77.13 87.76 9.18 o
7 -9 1 12.61 9.69 4.01 o
-5 -8 1 28.82 29.38 5.10 o
-4 -8 1 688.03 708.88 40.74 o
-3 -8 1 317.41 312.80 12.59 o
-2 -8 1 20.62 22.48 5.76 o
-1 -8 1 701.22 685.89 37.58 o
0 -8 1 424.85 423.60 31.31 o
1 -8 1 756.56 744.02 40.09 o
2 -8 1 71.16 74.13 6.27 o
3 -8 1 564.44 562.95 27.48 o
4 -8 1 1922.21 1953.02 96.73 o
5 -8 1 328.27 333.85 20.26 o
6 -8 1 58.94 63.56 6.05 o
7 -8 1 122.78 127.85 9.55 o
8 -8 1 183.71 175.45 17.28 o
-6 -7 1 27.88 31.20 6.78 o
-5 -7 1 10.87 8.24 3.43 o
-4 -7 1 64.42 60.53 3.73 o
-3 -7 1 66.56 68.38 3.12 o
-2 -7 1 76.80 69.75 8.46 o
-1 -7 1 278.21 288.43 15.13 o
0 -7 1 340.15 342.52 11.77 o
1 -7 1 136.12 136.06 6.43 o
2 -7 1 220.04 218.84 18.48 o
3 -7 1 1457.01 1436.86 71.29 o
4 -7 1 510.67 504.13 22.45 o
5 -7 1 92.13 82.15 6.92 o
6 -7 1 312.24 305.20 20.26 o
7 -7 1 353.78 345.58 26.53 o
8 -7 1 483.69 539.63 36.45 o
9 -7 1 90.71 91.70 9.55 o
-7 -6 1 34.47 44.32 6.71 o
-6 -6 1 30.91 32.86 3.69 o
-5 -6 1 92.36 95.61 3.64 o
-4 -6 1 666.41 704.96 21.90 o
-3 -6 1 540.68 532.27 14.78 o
-2 -6 1 20.59 21.87 1.44 o
-1 -6 1 259.48 233.86 8.83 o
0 -6 1 140.24 136.75 5.35 o
1 -6 1 803.57 820.48 28.02 o
2 -6 1 163.78 166.77 8.20 o
3 -6 1 74.66 75.89 3.78 o
4 -6 1 584.04 565.38 19.34 o
5 -6 1 14.43 18.88 3.13 o
6 -6 1 35.53 35.64 4.59 o
7 -6 1 244.37 235.66 13.12 o
8 -6 1 141.21 143.16 10.28 o
9 -6 1 63.39 56.20 6.12 o
-8 -5 1 72.97 82.08 9.69 o
-7 -5 1 78.33 76.76 6.92 o
-6 -5 1 122.12 119.69 5.80 o
-5 -5 1 1384.48 1424.40 37.83 o
-4 -5 1 1472.25 1474.44 32.94 o
-3 -5 1 36.09 33.88 1.71 o
-2 -5 1 653.11 663.44 18.70 o
-1 -5 1 987.23 974.37 33.81 o
0 -5 1 1059.16 1031.28 28.45 o
1 -5 1 2467.22 2505.73 68.00 o
2 -5 1 630.72 619.55 16.93 o
3 -5 1 2686.60 2749.59 72.25 o
4 -5 1 635.88 618.26 19.54 o
5 -5 1 23.92 20.06 3.10 o
6 -5 1 5.84 8.67 3.28 o
7 -5 1 14.25 13.49 2.11 o
8 -5 1 462.81 514.84 25.80 o
9 -5 1 185.88 197.10 13.05 o
-9 -4 1 5.92 6.20 2.92 o
-8 -4 1 17.70 19.39 4.30 o
-7 -4 1 10.41 7.80 2.48 o
-6 -4 1 623.72 630.30 18.32 o
-5 -4 1 1061.01 1062.61 24.16 o
-4 -4 1 0.02 1.00 0.64 o
-3 -4 1 457.30 443.95 11.04 o
-2 -4 1 813.79 801.11 20.27 o
-1 -4 1 2791.27 2695.77 80.10 o
0 -4 1 776.78 760.76 24.20 o
1 -4 1 1019.46 1014.21 37.45 o
2 -4 1 2188.87 2170.16 53.82 o
3 -4 1 1942.02 1927.76 49.99 o
4 -4 1 110.56 108.27 7.18 o
5 -4 1 7.69 9.28 1.51 o
6 -4 1 388.80 382.43 12.90 o
7 -4 1 658.77 649.62 25.51 o
8 -4 1 786.83 827.55 45.78 o
10 -4 1 76.86 64.58 7.80 o
-9 -3 1 46.67 41.69 5.25 o
-8 -3 1 58.00 61.16 6.12 o
-7 -3 1 578.95 589.17 21.20 o
-6 -3 1 3.72 5.10 0.98 o
-5 -3 1 222.51 233.62 10.10 o
-4 -3 1 296.75 300.02 12.79 o
-3 -3 1 66.16 58.54 5.87 o
-2 -3 1 677.04 622.19 15.69 o
-1 -3 1 342.41 305.83 12.94 o
0 -3 1 2.16 1.66 0.93 o
1 -3 1 2877.11 2782.50 96.12 o
2 -3 1 1657.96 1614.12 51.88 o
3 -3 1 180.36 174.26 6.27 o
4 -3 1 39.61 40.76 2.81 o
5 -3 1 262.23 235.99 7.61 o
6 -3 1 2224.17 2249.69 54.30 o
7 -3 1 597.86 626.88 18.96 o
8 -3 1 37.65 36.37 3.06 o
9 -3 1 287.06 309.36 22.67 o
10 -3 1 156.35 154.53 15.16 o
-10 -2 1 5.07 0.66 3.06 o
-9 -2 1 308.12 299.78 25.62 o
-8 -2 1 204.55 223.46 8.47 o
-7 -2 1 16.85 12.09 1.11 o
-6 -2 1 1107.93 1118.94 24.42 o
-5 -2 1 1491.90 1510.13 27.93 o
-4 -2 1 46.18 49.84 2.95 o
-3 -2 1 33.48 35.97 1.90 o
-2 -2 1 76.94 71.68 3.21 o
-1 -2 1 788.54 747.03 29.40 o
1 -2 1 860.77 848.26 28.13 o
2 -2 1 711.12 710.50 22.67 o
3 -2 1 7.62 10.49 1.44 o
4 -2 1 45.42 56.13 2.15 o
5 -2 1 1370.82 1417.60 33.78 o
6 -2 1 986.50 1057.49 27.27 o
7 -2 1 28.70 30.49 5.69 o
8 -2 1 560.87 547.86 25.97 o
9 -2 1 79.79 96.58 7.14 o
10 -2 1 75.55 79.02 5.32 o
-10 -1 1 114.05 106.06 11.81 o
-9 -1 1 179.37 184.58 9.29 o
-8 -1 1 1.61 2.84 2.95 o
-7 -1 1 1099.95 1115.25 28.39 o
-6 -1 1 1232.71 1290.76 32.87 o
-5 -1 1 251.89 254.16 14.10 o
-4 -1 1 105.89 115.03 3.08 o
-3 -1 1 4.20 9.80 1.28 o
-2 -1 1 6202.56 5964.67 309.50 o
-1 -1 1 75.08 105.31 2.69 o
0 -1 1 547.33 521.99 27.70 o
1 -1 1 402.75 472.56 15.46 o
2 -1 1 118.07 111.50 3.56 o
3 -1 1 1369.94 1370.55 35.61 o
4 -1 1 1650.09 1678.17 40.06 o
5 -1 1 0.05 1.33 2.00 o
6 -1 1 984.66 1049.31 26.85 o
7 -1 1 513.30 529.16 15.61 o
8 -1 1 2.36 4.23 1.38 o
9 -1 1 0.88 -1.17 1.53 o
10 -1 1 13.12 6.78 2.77 o
-10 0 1 205.00 144.62 13.70 o
-9 0 1 5.48 1.53 1.60 o
-8 0 1 521.49 527.89 18.00 o
-7 0 1 993.89 1020.68 21.90 o
-6 0 1 134.20 135.78 8.16 o
-5 0 1 133.72 145.45 5.65 o
-4 0 1 2000.43 2021.35 46.50 o
-3 0 1 2019.22 1895.02 44.16 o
-1 0 1 55.66 64.48 3.83 o
0 0 1 1312.34 1313.02 66.62 o
1 0 1 2632.64 2550.08 121.80 o
2 0 1 5571.69 5396.04 272.91 o
3 0 1 478.78 482.51 10.20 o
4 0 1 210.19 235.47 5.62 o
5 0 1 3244.01 3212.00 79.14 o
6 0 1 568.11 599.62 19.35 o
7 0 1 29.23 30.72 2.59 o
8 0 1 35.06 33.68 2.55 o
9 0 1 12.27 13.78 2.62 o
10 0 1 240.06 186.97 19.32 o
-10 1 1 94.15 87.84 6.56 o
-9 1 1 447.87 473.58 22.38 o
-8 1 1 159.20 146.92 4.91 o
-7 1 1 130.47 137.23 11.12 o
-6 1 1 239.06 234.14 11.37 o
-5 1 1 339.01 387.69 12.25 o
-4 1 1 346.61 359.88 20.23 o
-2 1 1 2172.07 2109.43 63.90 o
-1 1 1 2302.13 2095.45 105.62 o
1 1 1 587.29 559.44 12.03 o
2 1 1 2031.65 2026.06 48.73 o
3 1 1 85.93 79.97 4.59 o
4 1 1 2040.84 2058.08 43.30 o
5 1 1 3567.89 3632.18 65.37 o
6 1 1 24.44 22.35 1.24 o
7 1 1 18.34 27.47 6.56 o
8 1 1 232.31 231.29 10.35 o
9 1 1 505.43 469.28 28.94 o
-10 2 1 443.92 436.77 26.75 o
-9 2 1 23.24 24.85 9.15 o
-8 2 1 287.58 302.39 10.73 o
-7 2 1 523.83 545.54 16.41 o
-6 2 1 169.60 162.34 11.66 o
-5 2 1 737.76 769.48 18.35 o
-4 2 1 217.19 228.17 7.44 o
-3 2 1 772.30 754.75 22.85 o
-2 2 1 6656.57 6408.96 199.65 o
-1 2 1 117.93 91.01 3.68 o
0 2 1 278.32 311.56 9.97 o
1 2 1 23.04 30.53 1.40 o
2 2 1 46.10 52.14 1.57 o
3 2 1 1009.20 1053.00 22.96 o
4 2 1 669.73 657.86 13.08 o
5 2 1 159.24 156.87 3.80 o
6 2 1 2.39 1.38 1.71 o
7 2 1 277.50 280.85 9.75 o
8 2 1 201.71 198.49 12.13 o
9 2 1 432.68 459.95 45.70 o
-10 3 1 25.96 22.89 3.94 o
-9 3 1 272.89 310.96 16.98 o
-8 3 1 734.17 759.42 27.31 o
-7 3 1 628.01 680.23 20.62 o
-6 3 1 863.09 891.58 21.80 o
-5 3 1 21.21 19.84 2.92 o
-4 3 1 3488.21 3454.93 91.59 o
-3 3 1 5908.94 5564.85 246.74 o
-2 3 1 64.18 51.32 2.60 o
-1 3 1 48.79 41.24 4.88 o
0 3 1 1752.96 1721.52 57.09 o
1 3 1 2644.16 2625.85 105.01 o
2 3 1 1737.41 1681.80 38.44 o
3 3 1 9.23 7.46 1.86 o
4 3 1 889.80 881.38 20.39 o
5 3 1 842.61 852.48 19.97 o
6 3 1 15.92 15.08 1.31 o
7 3 1 70.12 68.63 4.48 o
8 3 1 26.73 22.91 2.41 o
9 3 1 40.19 31.42 4.52 o
-10 4 1 143.29 140.97 10.57 o
-9 4 1 166.23 200.53 10.28 o
-8 4 1 361.07 353.82 21.72 o
-7 4 1 237.26 244.33 11.12 o
-6 4 1 185.35 180.40 5.76 o
-5 4 1 2027.42 2110.94 65.84 o
-4 4 1 4031.83 4014.88 104.22 o
-3 4 1 2774.29 2801.98 83.35 o
-2 4 1 1608.13 1638.73 42.91 o
-1 4 1 3802.82 3953.88 120.05 o
0 4 1 1050.19 998.68 29.84 o
1 4 1 1561.34 1461.29 47.46 o
2 4 1 229.35 228.97 9.04 o
3 4 1 1152.06 1132.12 25.45 o
4 4 1 1656.63 1702.15 38.76 o
5 4 1 496.63 522.44 15.23 o
6 4 1 60.52 57.05 2.80 o
7 4 1 96.11 89.70 5.10 o
8 4 1 405.89 419.50 37.32 o
-10 5 1 60.51 62.83 7.58 o
-8 5 1 0.08 8.67 2.92 o
-7 5 1 32.32 20.77 2.99 o
-6 5 1 114.69 117.03 6.82 o
-5 5 1 1018.35 998.31 36.43 o
-4 5 1 2.21 0.52 1.59 o
-3 5 1 717.50 705.14 20.65 o
-2 5 1 48.85 60.67 3.88 o
-1 5 1 118.46 104.77 4.16 o
0 5 1 1055.77 1016.75 30.43 o
1 5 1 1148.93 1160.60 37.93 o
2 5 1 503.32 487.06 11.46 o
3 5 1 1312.31 1320.65 29.92 o
4 5 1 951.26 941.43 24.65 o
5 5 1 3.25 2.18 1.11 o
6 5 1 84.23 91.21 4.80 o
7 5 1 227.76 232.09 21.43 o
8 5 1 177.63 168.67 17.28 o
-10 6 1 0.13 0.95 4.67 o
-9 6 1 162.47 148.26 14.07 o
-8 6 1 450.50 490.93 32.80 o
-7 6 1 968.51 995.72 54.09 o
-6 6 1 40.99 40.89 4.37 o
-5 6 1 2251.33 2224.56 82.84 o
-4 6 1 715.42 733.62 29.51 o
-3 6 1 11.97 12.58 1.75 o
-2 6 1 243.58 245.90 9.75 o
-1 6 1 247.66 258.00 9.97 o
0 6 1 49.76 49.83 3.01 o
1 6 1 463.50 442.39 17.71 o
2 6 1 393.75 383.86 11.42 o
3 6 1 103.15 100.15 9.91 o
4 6 1 34.13 28.17 2.99 o
5 6 1 54.63 57.90 4.15 o
6 6 1 28.64 26.46 3.86 o
7 6 1 111.20 108.97 10.50 o
-9 7 1 297.89 313.95 23.03 o
-8 7 1 415.28 453.98 39.14 o
-7 7 1 6.08 5.39 3.57 o
-6 7 1 93.55 98.19 9.04 o
-5 7 1 972.81 1014.08 52.63 o
-4 7 1 528.83 532.19 27.12 o
-3 7 1 194.19 193.38 10.28 o
-2 7 1 16.71 17.34 2.22 o
-1 7 1 632.66 622.53 24.89 o
0 7 1 1751.17 1806.73 68.45 o
1 7 1 259.54 261.85 11.94 o
2 7 1 538.62 491.77 17.80 o
3 7 1 334.51 343.26 12.30 o
4 7 1 70.55 65.55 4.26 o
5 7 1 2.09 1.18 1.51 o
6 7 1 34.81 36.37 5.18 o
-8 8 1 71.69 86.38 8.60 o
-7 8 1 1.49 4.37 3.86 o
-6 8 1 307.24 350.91 16.77 o
-5 8 1 339.24 343.03 20.41 o
-4 8 1 159.05 161.68 12.03 o
-3 8 1 0.66 0.07 3.35 o
-2 8 1 233.99 254.61 17.71 o
-1 8 1 919.33 963.72 42.64 o
0 8 1 277.45 293.98 17.86 o
1 8 1 0.12 -2.55 2.55 o
2 8 1 247.40 251.93 11.04 o
3 8 1 160.01 167.46 9.84 o
4 8 1 316.30 305.87 20.57 o
5 8 1 6.28 4.59 3.94 o
-7 9 1 19.53 31.05 6.20 o
-6 9 1 4.65 4.45 3.57 o
-5 9 1 2.39 2.99 3.21 o
-4 9 1 29.03 24.05 5.03 o
-3 9 1 9.68 8.53 2.92 o
-2 9 1 329.01 357.69 22.31 o
-1 9 1 135.69 152.93 12.61 o
0 9 1 34.97 30.25 4.45 o
1 9 1 44.61 44.25 5.69 o
2 9 1 51.21 53.58 4.63 o
3 9 1 62.12 61.24 10.75 o
4 9 1 47.12 56.13 8.97 o
-6 10 1 185.66 164.01 15.38 o
-5 10 1 88.93 84.70 11.15 o
-4 10 1 114.98 118.09 11.37 o
-3 10 1 8.52 2.62 3.43 o
-2 10 1 24.81 22.01 4.74 o
-1 10 1 175.76 193.60 12.97 o
0 10 1 44.74 50.81 5.61 o
1 10 1 7.47 11.72 7.47 o
2 10 1 2.40 0.67 2.29 o
-2 -10 2 239.95 225.82 22.16 o
-1 -10 2 162.36 152.61 8.60 o
0 -10 2 17.61 13.70 3.21 o
1 -10 2 13.52 14.51 4.15 o
2 -10 2 33.15 36.96 5.69 o
3 -10 2 8.98 11.52 5.47 o
4 -10 2 148.51 147.83 15.02 o
5 -10 2 18.38 22.82 5.98 o
-4 -9 2 1.16 2.48 3.64 o
-3 -9 2 367.28 374.09 32.29 o
-2 -9 2 196.75 181.45 11.75 o
-1 -9 2 40.96 36.52 4.08 o
0 -9 2 0.22 -1.90 2.99 o
1 -9 2 92.24 113.20 8.02 o
2 -9 2 465.43 484.81 27.12 o
3 -9 2 132.13 136.82 10.93 o
4 -9 2 0.73 0.58 2.84 o
5 -9 2 65.67 65.02 7.00 o
6 -9 2 88.95 88.93 9.11 o
7 -9 2 41.04 27.55 5.83 o
-5 -8 2 5.99 3.35 4.15 o
-4 -8 2 260.30 269.34 21.28 o
-3 -8 2 408.10 386.55 16.27 o
-2 -8 2 106.89 101.69 9.29 o
-1 -8 2 0.06 1.22 1.26 o
0 -8 2 117.64 99.54 11.15 o
1 -8 2 543.29 581.54 30.76 o
2 -8 2 620.47 670.32 35.35 o
3 -8 2 142.48 143.09 8.60 o
4 -8 2 421.29 436.70 26.31 o
5 -8 2 359.93 359.00 23.62 o
6 -8 2 363.86 347.26 22.45 o
7 -8 2 91.92 100.59 10.72 o
8 -8 2 50.68 50.15 6.85 o
-6 -7 2 6.55 12.03 4.30 o
-5 -7 2 151.32 161.68 13.05 o
-4 -7 2 121.47 107.36 5.74 o
-3 -7 2 36.70 31.64 2.55 o
-2 -7 2 10.44 8.53 2.15 o
-1 -7 2 101.55 105.83 12.61 o
0 -7 2 153.34 164.82 10.86 o
1 -7 2 2884.43 2803.31 107.30 o
2 -7 2 66.20 56.06 7.03 o
3 -7 2 427.84 427.95 19.61 o
4 -7 2 962.41 958.61 46.80 o
5 -7 2 301.21 308.99 19.54 o
6 -7 2 144.66 144.62 10.93 o
7 -7 2 3.56 0.44 3.43 o
8 -7 2 297.56 306.44 25.80 o
-7 -6 2 239.99 268.61 19.03 o
-6 -6 2 404.66 438.47 20.00 o
-5 -6 2 3.50 3.86 0.51 o
-4 -6 2 348.43 344.80 11.74 o
-3 -6 2 162.64 144.69 4.65 o
-2 -6 2 8.93 8.35 1.23 o
-1 -6 2 822.23 829.61 27.13 o
0 -6 2 52.58 43.81 2.46 o
1 -6 2 271.27 253.01 8.45 o
2 -6 2 673.15 635.72 21.50 o
3 -6 2 40.30 43.68 3.28 o
4 -6 2 6.52 5.48 1.52 o
5 -6 2 176.27 192.87 10.86 o
6 -6 2 7.44 -0.22 3.43 o
7 -6 2 147.60 158.91 10.79 o
8 -6 2 503.30 554.20 37.69 o
9 -6 2 31.09 31.13 4.52 o
-8 -5 2 263.58 295.22 25.00 o
-7 -5 2 526.85 569.88 38.63 o
-6 -5 2 50.42 54.74 6.20 o
-5 -5 2 128.29 110.29 7.80 o
-4 -5 2 514.03 503.50 11.92 o
-3 -5 2 1820.41 1824.50 40.11 o
-2 -5 2 1498.87 1476.12 33.67 o
-1 -5 2 40.40 40.67 1.91 o
0 -5 2 3250.21 3193.09 87.62 o
1 -5 2 4390.93 4419.75 117.57 o
2 -5 2 35.35 35.67 2.20 o
3 -5 2 168.65 172.87 14.72 o
4 -5 2 513.08 501.78 16.29 o
5 -5 2 269.38 268.80 10.58 o
6 -5 2 822.70 848.55 32.44 o
7 -5 2 1.12 2.26 1.82 o
8 -5 2 104.73 103.00 8.60 o
9 -5 2 145.78 159.12 14.14 o
-9 -4 2 60.17 64.66 7.73 o
-8 -4 2 190.48 219.04 16.84 o
-7 -4 2 322.45 315.19 20.48 o
-6 -4 2 121.08 135.58 8.82 o
-5 -4 2 913.70 946.32 30.11 o
-4 -4 2 913.82 912.42 22.49 o
-3 -4 2 461.52 460.15 17.09 o
-2 -4 2 129.21 125.10 7.07 o
-1 -4 2 2257.43 2221.41 66.01 o
0 -4 2 5255.13 5064.37 155.20 o
1 -4 2 1853.17 1831.39 53.08 o
2 -4 2 211.90 201.78 6.43 o
3 -4 2 651.46 629.36 17.62 o
4 -4 2 1715.09 1740.33 45.86 o
5 -4 2 1964.63 2048.04 60.08 o
6 -4 2 294.09 286.79 9.57 o
7 -4 2 798.90 812.54 26.31 o
8 -4 2 1117.99 1091.50 53.50 o
9 -4 2 201.29 213.72 13.41 o
-9 -3 2 10.60 15.53 4.96 o
-8 -3 2 50.25 62.76 6.05 o
-7 -3 2 365.14 419.57 28.06 o
-6 -3 2 174.09 173.34 10.93 o
-5 -3 2 2.13 5.03 1.24 o
-4 -3 2 7.85 11.23 1.75 o
-3 -3 2 34.26 36.98 1.15 o
-2 -3 2 1345.66 1282.07 38.37 o
-1 -3 2 1975.29 1934.65 59.74 o
0 -3 2 238.96 244.03 7.53 o
1 -3 2 426.71 409.38 11.95 o
2 -3 2 8.22 11.13 1.38 o
3 -3 2 930.25 904.56 25.64 o
4 -3 2 1942.16 1876.54 63.27 o
5 -3 2 287.32 292.61 8.80 o
6 -3 2 506.54 509.64 13.93 o
7 -3 2 669.92 681.55 33.97 o
8 -3 2 604.39 592.04 29.74 o
9 -3 2 29.59 33.02 5.39 o
10 -3 2 0.50 -3.64 4.01 o
-10 -2 2 19.94 17.28 4.59 o
-9 -2 2 341.22 315.18 60.06 o
-8 -2 2 1185.64 1216.61 57.51 o
-7 -2 2 663.33 680.49 23.17 o
-6 -2 2 184.55 160.15 23.44 o
-5 -2 2 408.48 379.82 43.23 o
-4 -2 2 2471.95 2522.34 57.10 o
-3 -2 2 1831.92 1915.30 112.44 o
-2 -2 2 218.59 214.42 5.50 o
-1 -2 2 7802.51 7601.41 410.82 o
0 -2 2 1652.86 1651.86 58.87 o
1 -2 2 6.56 14.36 6.56 o
2 -2 2 8.39 7.74 1.39 o
3 -2 2 268.57 275.76 8.82 o
4 -2 2 0.74 2.14 1.15 o
5 -2 2 966.71 955.97 29.59 o
6 -2 2 614.56 631.39 17.77 o
7 -2 2 3.37 5.40 1.19 o
8 -2 2 0.87 3.21 1.68 o
9 -2 2 5.94 4.52 2.84 o
10 -2 2 151.36 143.16 10.72 o
-10 -1 2 16.05 16.11 5.83 o
-9 -1 2 880.51 904.51 40.03 o
-8 -1 2 495.33 505.09 17.53 o
-7 -1 2 8.19 11.82 2.30 o
-6 -1 2 868.26 875.66 21.25 o
-5 -1 2 812.48 803.32 17.21 o
-4 -1 2 3689.39 3732.39 151.40 o
-3 -1 2 793.24 819.99 61.05 o
-2 -1 2 676.55 670.05 13.15 o
1 -1 2 570.80 576.72 18.53 o
2 -1 2 11.91 10.64 1.20 o
3 -1 2 2183.11 2025.61 54.50 o
4 -1 2 3007.32 3066.72 73.96 o
5 -1 2 776.96 815.19 19.51 o
6 -1 2 581.64 571.24 14.99 o
7 -1 2 233.04 239.96 8.82 o
8 -1 2 154.72 145.06 8.09 o
9 -1 2 30.47 29.52 3.43 o
10 -1 2 10.70 12.83 2.99 o
-10 0 2 190.62 154.17 13.63 o
-9 0 2 82.29 82.15 6.27 o
-8 0 2 128.51 133.23 10.02 o
-7 0 2 225.43 240.50 5.68 o
-6 0 2 188.48 197.29 5.03 o
-5 0 2 350.54 351.49 6.94 o
-4 0 2 559.41 542.03 10.57 o
-3 0 2 27.78 44.99 1.79 o
-2 0 2 6156.94 6098.49 175.05 o
-1 0 2 11.96 17.66 1.42 o
0 0 2 2391.58 2284.68 78.66 o
1 0 2 282.77 292.92 8.56 o
2 0 2 670.82 640.00 19.03 o
3 0 2 6397.48 6345.97 301.63 o
4 0 2 1034.19 1000.53 26.97 o
5 0 2 0.12 1.24 0.82 o
6 0 2 967.28 957.75 21.66 o
7 0 2 667.85 677.43 19.26 o
8 0 2 146.12 143.60 6.78 o
9 0 2 59.05 53.50 4.74 o
-10 1 2 46.83 29.16 5.47 o
-9 1 2 609.34 525.63 34.26 o
-8 1 2 165.07 173.62 6.02 o
-7 1 2 8.35 5.78 1.04 o
-6 1 2 70.11 71.80 4.70 o
-5 1 2 128.03 136.82 4.02 o
-4 1 2 3175.88 3093.38 67.49 o
-3 1 2 545.51 506.49 13.72 o
-2 1 2 8.44 12.83 0.93 o
-1 1 2 15.95 19.43 1.35 o
0 1 2 373.31 413.75 13.96 o
1 1 2 841.27 792.83 19.33 o
2 1 2 2432.71 2419.41 67.50 o
3 1 2 737.32 718.18 13.59 o
4 1 2 623.38 609.11 11.75 o
5 1 2 630.79 635.91 12.85 o
6 1 2 12.43 10.65 1.28 o
7 1 2 504.02 499.61 15.60 o
8 1 2 141.86 117.28 6.05 o
9 1 2 4.28 3.86 1.90 o
-10 2 2 658.31 668.21 41.84 o
-9 2 2 464.34 443.36 29.52 o
-8 2 2 89.98 69.95 5.90 o
-7 2 2 8.69 11.98 1.55 o
-6 2 2 471.71 477.86 11.72 o
-5 2 2 1640.31 1617.60 37.17 o
-4 2 2 1374.12 1333.56 31.72 o
-3 2 2 3.51 3.99 1.42 o
-2 2 2 2721.02 2671.94 96.03 o
-1 2 2 421.62 392.88 12.66 o
0 2 2 8.37 14.24 2.99 o
1 2 2 1306.00 1264.86 33.13 o
2 2 2 138.32 168.31 12.57 o
3 2 2 1700.24 1739.94 47.39 o
4 2 2 210.13 221.12 5.49 o
5 2 2 172.05 182.32 4.43 o
6 2 2 3.50 3.42 1.06 o
7 2 2 90.64 84.35 4.03 o
8 2 2 102.82 106.03 6.67 o
-10 3 2 262.98 280.13 23.76 o
-9 3 2 40.59 41.72 4.92 o
-8 3 2 31.19 21.79 2.59 o
-7 3 2 149.73 152.77 5.22 o
-6 3 2 1016.65 1011.78 29.02 o
-5 3 2 3345.27 3410.23 77.97 o
-4 3 2 3.11 8.20 1.75 o
-3 3 2 1422.23 1344.01 45.14 o
-2 3 2 1745.64 1611.15 52.50 o
-1 3 2 3107.73 2982.67 122.24 o
0 3 2 1168.76 1201.48 49.90 o
1 3 2 605.12 607.52 22.28 o
2 3 2 2426.88 2354.60 61.49 o
3 3 2 1109.60 1132.82 27.26 o
4 3 2 1.39 1.17 2.30 o
5 3 2 12.39 10.15 3.46 o
6 3 2 22.63 19.92 1.97 o
7 3 2 194.21 196.13 8.06 o
8 3 2 155.15 158.71 10.56 o
-10 4 2 0.38 -0.58 2.77 o
-9 4 2 12.32 8.24 2.26 o
-8 4 2 13.68 20.99 4.08 o
-7 4 2 1115.34 1137.07 36.09 o
-6 4 2 561.80 568.36 15.88 o
-5 4 2 248.06 241.93 8.42 o
-4 4 2 406.33 378.76 10.99 o
-3 4 2 779.93 744.80 22.02 o
-2 4 2 549.98 505.80 15.25 o
-1 4 2 2385.24 2426.79 74.57 o
0 4 2 516.22 528.84 16.06 o
1 4 2 3293.17 3183.97 92.34 o
2 4 2 1792.50 1804.08 40.43 o
3 4 2 4.30 4.82 1.13 o
4 4 2 14.56 14.50 2.08 o
5 4 2 145.01 150.27 6.52 o
6 4 2 583.90 612.31 24.24 o
7 4 2 491.05 507.64 34.58 o
8 4 2 8.36 6.27 2.33 o
-10 5 2 61.08 58.17 7.00 o
-9 5 2 48.00 52.41 5.32 o
-8 5 2 160.06 170.50 9.26 o
-7 5 2 38.83 35.72 4.15 o
-6 5 2 2.93 5.32 1.62 o
-5 5 2 1385.58 1386.66 54.41 o
-4 5 2 217.65 218.56 8.67 o
-3 5 2 536.47 570.77 18.91 o
-2 5 2 42.51 61.15 3.79 o
-1 5 2 308.39 327.36 11.94 o
0 5 2 1491.34 1517.10 54.53 o
1 5 2 382.24 352.70 11.41 o
2 5 2 3.76 4.58 1.06 o
3 5 2 12.24 15.72 2.51 o
4 5 2 102.24 103.26 21.32 o
5 5 2 511.29 516.37 30.94 o
6 5 2 559.72 574.99 25.74 o
7 5 2 56.57 51.97 5.98 o
-10 6 2 201.89 202.50 18.66 o
-9 6 2 38.46 19.39 3.79 o
-8 6 2 0.32 0.87 4.15 o
-7 6 2 1011.04 1094.05 63.34 o
-6 6 2 785.66 800.36 35.72 o
-5 6 2 182.07 190.32 11.44 o
-4 6 2 358.77 335.95 13.49 o
-3 6 2 430.51 456.90 17.17 o
-2 6 2 251.92 257.27 9.65 o
-1 6 2 281.38 271.67 10.75 o
0 6 2 12.69 9.50 4.77 o
1 6 2 24.28 31.80 2.24 o
2 6 2 140.14 139.38 5.56 o
3 6 2 79.46 68.29 3.68 o
4 6 2 536.75 517.31 17.27 o
5 6 2 1.49 2.39 1.70 o
6 6 2 94.37 85.08 9.69 o
7 6 2 86.85 84.63 9.99 o
-9 7 2 3.68 1.68 3.43 o
-8 7 2 687.09 715.44 71.80 o
-7 7 2 1105.60 1092.44 64.15 o
-6 7 2 40.59 42.86 5.10 o
-5 7 2 373.70 352.07 19.83 o
-4 7 2 215.93 216.13 13.27 o
-3 7 2 759.44 801.68 46.00 o
-2 7 2 807.92 811.27 28.68 o
-1 7 2 0.30 2.43 2.48 o
0 7 2 1363.03 1383.81 51.90 o
1 7 2 543.87 531.51 23.08 o
2 7 2 200.38 185.99 13.63 o
3 7 2 54.99 37.87 2.24 o
4 7 2 41.02 41.58 3.77 o
5 7 2 107.37 103.93 6.62 o
6 7 2 96.49 101.69 12.10 o
-8 8 2 211.29 213.14 20.56 o
-7 8 2 3.38 4.30 4.37 o
-6 8 2 23.83 21.50 3.94 o
-5 8 2 36.40 39.22 5.10 o
-4 8 2 297.74 303.31 19.32 o
-3 8 2 531.53 471.40 28.79 o
-2 8 2 27.87 24.49 3.57 o
-1 8 2 311.37 289.38 18.44 o
0 8 2 994.32 1025.16 69.47 o
1 8 2 157.57 170.79 13.05 o
2 8 2 0.27 0.82 1.70 o
3 8 2 28.22 23.34 6.05 o
4 8 2 383.72 415.55 18.86 o
5 8 2 217.47 225.82 23.40 o
-7 9 2 20.24 16.33 4.96 o
-6 9 2 46.59 41.18 7.22 o
-5 9 2 1.09 1.53 3.35 o
-4 9 2 25.08 28.21 4.23 o
-3 9 2 0.55 4.01 3.06 o
-2 9 2 95.15 80.98 8.31 o
-1 9 2 64.75 82.44 7.00 o
0 9 2 6.79 10.64 2.77 o
1 9 2 52.64 40.41 3.82 o
2 9 2 7.14 9.04 3.11 o
3 9 2 119.28 107.66 8.56 o
-6 10 2 12.01 13.85 4.37 o
-5 10 2 7.24 1.17 3.35 o
-4 10 2 77.61 64.87 7.95 o
-3 10 2 201.39 191.34 16.04 o
-2 10 2 8.03 8.46 4.67 o
-1 10 2 67.68 60.50 6.71 o
0 10 2 58.01 48.26 5.18 o
1 10 2 13.35 7.30 4.70 o
-2 -10 3 1.03 -2.62 6.05 o
-1 -10 3 80.44 68.68 5.82 o
0 -10 3 174.34 177.06 16.40 o
1 -10 3 101.15 102.78 8.09 o
2 -10 3 34.74 33.46 4.37 o
3 -10 3 47.49 53.58 7.58 o
4 -10 3 89.61 76.54 9.04 o
-4 -9 3 309.41 288.44 26.61 o
-3 -9 3 0.10 -3.57 3.57 o
-2 -9 3 190.19 159.82 19.54 o
-1 -9 3 282.12 277.58 23.84 o
0 -9 3 440.60 473.15 23.62 o
1 -9 3 250.40 222.76 14.36 o
2 -9 3 274.00 316.06 16.84 o
3 -9 3 730.37 693.43 45.92 o
4 -9 3 267.54 274.88 20.85 o
5 -9 3 1.11 -1.17 3.64 o
6 -9 3 2.52 11.52 6.05 o
-5 -8 3 18.35 16.26 4.30 o
-4 -8 3 4.63 8.24 3.57 o
-3 -8 3 34.92 29.04 3.06 o
-2 -8 3 66.69 55.48 2.92 o
-1 -8 3 760.53 782.33 26.15 o
0 -8 3 63.13 64.46 11.74 o
1 -8 3 125.18 125.01 9.11 o
2 -8 3 658.20 661.50 30.83 o
3 -8 3 161.30 178.15 11.74 o
4 -8 3 172.70 155.99 11.59 o
5 -8 3 39.11 28.43 5.76 o
6 -8 3 268.73 278.60 20.77 o
7 -8 3 718.09 759.62 55.33 o
-6 -7 3 0.05 2.31 3.05 o
-5 -7 3 206.54 194.62 13.49 o
-4 -7 3 87.09 81.86 4.03 o
-3 -7 3 188.50 185.16 6.60 o
-2 -7 3 8.41 6.22 1.03 o
-1 -7 3 12.25 12.33 1.72 o
0 -7 3 385.56 382.10 16.36 o
1 -7 3 150.10 154.15 6.57 o
2 -7 3 13.61 13.11 1.89 o
3 -7 3 149.53 153.59 9.04 o
4 -7 3 9.70 6.34 3.13 o
5 -7 3 153.55 144.18 11.66 o
6 -7 3 911.77 922.31 54.23 o
7 -7 3 72.26 80.47 7.65 o
8 -7 3 56.28 66.84 9.62 o
-7 -6 3 12.80 9.55 4.37 o
-6 -6 3 609.34 620.20 28.29 o
-5 -6 3 697.70 716.32 38.05 o
-4 -6 3 2.53 2.12 0.73 o
-3 -6 3 187.83 186.90 6.63 o
-2 -6 3 52.83 58.40 3.13 o
-1 -6 3 143.08 143.96 5.49 o
0 -6 3 407.04 421.38 14.57 o
1 -6 3 368.07 374.66 12.73 o
2 -6 3 292.31 305.61 11.18 o
3 -6 3 120.57 122.79 7.11 o
4 -6 3 473.15 466.22 20.34 o
5 -6 3 172.03 178.15 12.97 o
6 -6 3 8.17 7.51 2.99 o
7 -6 3 229.33 229.69 17.06 o
8 -6 3 20.83 21.50 5.32 o
-8 -5 3 36.68 27.92 5.18 o
-7 -5 3 464.13 491.88 35.94 o
-6 -5 3 352.60 400.47 22.38 o
-5 -5 3 11.06 4.37 2.41 o
-4 -5 3 9.05 9.05 0.54 o
-3 -5 3 33.05 33.78 2.30 o
-2 -5 3 1474.52 1462.37 33.62 o
-1 -5 3 3398.71 3351.60 92.85 o
0 -5 3 67.44 66.73 2.96 o
1 -5 3 1471.39 1462.12 42.48 o
2 -5 3 1203.95 1183.25 35.38 o
3 -5 3 356.60 377.61 13.40 o
4 -5 3 120.64 107.68 10.82 o
5 -5 3 151.13 135.80 7.29 o
6 -5 3 340.83 342.96 22.09 o
7 -5 3 119.74 108.83 6.05 o
8 -5 3 74.15 67.57 7.00 o
9 -5 3 0.49 -4.08 4.08 o
-9 -4 3 77.54 88.05 9.04 o
-8 -4 3 264.91 293.32 22.38 o
-7 -4 3 37.33 47.53 5.90 o
-6 -4 3 8.48 12.25 3.79 o
-5 -4 3 175.88 183.65 6.60 o
-4 -4 3 12.74 12.40 2.08 o
-3 -4 3 2697.09 2672.25 58.27 o
-2 -4 3 2368.91 2286.25 54.50 o
-1 -4 3 117.75 138.78 6.20 o
0 -4 3 918.75 907.99 25.29 o
1 -4 3 1278.17 1240.20 37.10 o
2 -4 3 1122.61 1098.21 36.48 o
3 -4 3 982.56 975.47 28.79 o
4 -4 3 242.83 249.51 12.25 o
5 -4 3 2119.96 2142.45 65.08 o
6 -4 3 1418.69 1423.09 49.06 o
7 -4 3 34.78 31.05 2.62 o
8 -4 3 8.03 6.41 3.43 o
9 -4 3 106.49 86.82 8.31 o
-9 -3 3 241.52 244.85 21.87 o
-8 -3 3 1.62 3.94 3.35 o
-7 -3 3 8.80 13.19 2.70 o
-6 -3 3 130.09 141.05 8.67 o
-5 -3 3 105.00 110.72 4.30 o
-4 -3 3 866.95 879.08 27.12 o
-3 -3 3 238.99 240.30 7.14 o
-2 -3 3 21.76 30.05 3.17 o
-1 -3 3 2242.16 2273.78 75.92 o
0 -3 3 999.65 1002.31 29.86 o
1 -3 3 226.07 225.48 11.44 o
2 -3 3 457.14 437.97 17.75 o
3 -3 3 63.26 56.29 8.05 o
4 -3 3 1805.46 1836.42 48.93 o
5 -3 3 837.93 838.46 20.73 o
6 -3 3 156.72 151.82 7.33 o
7 -3 3 0.75 3.94 1.68 o
8 -3 3 226.02 236.54 18.81 o
9 -3 3 605.78 642.62 56.56 o
-10 -2 3 174.18 166.20 14.36 o
-9 -2 3 17.80 14.65 3.04 o
-8 -2 3 451.44 406.85 70.60 o
-7 -2 3 491.21 484.63 21.14 o
-6 -2 3 449.28 451.07 12.35 o
-5 -2 3 128.83 130.92 5.18 o
-4 -2 3 127.04 129.09 5.10 o
-3 -2 3 2142.04 2176.78 49.07 o
-2 -2 3 6443.30 6305.74 305.13 o
-1 -2 3 17.70 16.30 0.96 o
0 -2 3 102.79 116.45 4.66 o
1 -2 3 310.25 319.81 9.94 o
2 -2 3 190.38 185.79 5.72 o
3 -2 3 1176.02 1111.09 67.97 o
4 -2 3 116.19 103.56 3.18 o
5 -2 3 0.35 1.88 1.12 o
6 -2 3 160.16 151.20 5.06 o
7 -2 3 127.37 127.56 6.56 o
8 -2 3 334.71 338.08 22.82 o
9 -2 3 59.94 50.15 4.52 o
-10 -1 3 9.13 8.39 5.43 o
-9 -1 3 151.39 127.04 16.15 o
-8 -1 3 339.97 339.18 22.01 o
-7 -1 3 652.55 668.88 15.48 o
-6 -1 3 1809.10 1863.20 42.29 o
-5 -1 3 4.33 4.41 1.68 o
-3 -1 3 6109.40 6399.99 337.06 o
-2 -1 3 7.70 5.77 0.52 o
-1 -1 3 5674.96 5655.68 260.52 o
0 -1 3 318.50 306.59 9.69 o
1 -1 3 2619.92 2572.39 67.31 o
2 -1 3 2932.87 2884.74 87.19 o
3 -1 3 201.25 214.39 5.43 o
4 -1 3 2830.14 2874.73 58.09 o
5 -1 3 1533.61 1542.70 35.50 o
6 -1 3 77.66 77.63 3.35 o
7 -1 3 21.62 14.76 3.39 o
8 -1 3 22.56 28.14 2.99 o
9 -1 3 114.96 106.06 7.87 o
-10 0 3 93.68 76.46 8.67 o
-9 0 3 120.43 114.59 7.36 o
-8 0 3 181.58 156.92 5.25 o
-7 0 3 270.97 275.84 6.48 o
-6 0 3 311.50 304.09 9.80 o
-5 0 3 875.57 831.75 16.51 o
-4 0 3 2679.12 2660.83 51.05 o
-3 0 3 16.55 14.21 1.79 o
-2 0 3 56.60 61.36 1.70 o
-1 0 3 159.65 148.68 2.98 o
0 0 3 4356.21 4174.72 113.85 o
2 0 3 397.08 413.38 11.74 o
3 0 3 5161.37 5058.32 140.97 o
4 0 3 3119.64 3192.63 97.79 o
5 0 3 854.95 864.36 19.21 o
6 0 3 50.66 56.71 2.33 o
7 0 3 28.82 30.54 2.19 o
8 0 3 876.18 853.36 32.22 o
9 0 3 289.23 277.79 13.05 o
-10 1 3 179.87 195.21 20.70 o
-9 1 3 7.06 10.28 1.60 o
-8 1 3 399.76 405.94 14.68 o
-7 1 3 435.77 449.41 14.54 o
-6 1 3 481.00 492.84 20.34 o
-5 1 3 25.87 23.18 1.21 o
-4 1 3 535.39 526.12 11.26 o
-3 1 3 235.83 226.34 5.35 o
-2 1 3 50.98 47.46 4.19 o
-1 1 3 424.94 408.16 11.23 o
0 1 3 1386.22 1341.08 57.44 o
1 1 3 374.63 387.43 9.95 o
2 1 3 468.10 417.15 9.26 o
3 1 3 936.27 930.38 18.31 o
4 1 3 20.76 16.69 2.51 o
5 1 3 760.91 782.47 33.79 o
6 1 3 36.61 33.56 2.70 o
7 1 3 639.10 644.96 18.88 o
8 1 3 459.64 400.76 23.62 o
9 1 3 28.91 23.69 2.92 o
-10 2 3 89.73 65.17 6.12 o
-9 2 3 480.25 462.43 36.88 o
-8 2 3 458.66 469.98 19.96 o
-7 2 3 1107.40 1158.85 34.49 o
-6 2 3 20.15 22.30 1.52 o
-5 2 3 1767.16 1795.55 43.16 o
-4 2 3 3534.81 3496.35 111.02 o
-3 2 3 165.64 166.04 4.55 o
-2 2 3 22.97 34.83 1.86 o
-1 2 3 0.29 -1.23 1.23 o
0 2 3 1716.86 1686.24 65.93 o
1 2 3 4325.17 4398.24 117.97 o
2 2 3 12.55 8.69 1.75 o
3 2 3 510.71 528.59 13.76 o
4 2 3 343.21 351.00 8.16 o
5 2 3 20.14 21.24 1.36 o
6 2 3 17.01 16.98 1.37 o
7 2 3 129.82 137.89 17.31 o
8 2 3 16.49 12.97 2.70 o
-10 3 3 33.58 33.97 4.74 o
-9 3 3 267.53 251.72 31.23 o
-8 3 3 761.22 750.52 36.30 o
-7 3 3 308.53 299.91 13.78 o
-6 3 3 555.60 576.53 14.74 o
-5 3 3 3428.52 3395.00 89.49 o
-4 3 3 863.34 853.56 21.24 o
-3 3 3 773.19 763.75 22.57 o
-2 3 3 266.08 302.50 10.90 o
-1 3 3 2515.61 2389.79 75.14 o
0 3 3 4884.26 4773.53 261.17 o
1 3 3 651.75 620.59 19.83 o
2 3 3 865.99 822.92 17.31 o
3 3 3 1621.58 1631.62 34.89 o
4 3 3 157.75 157.16 5.64 o
5 3 3 276.18 302.37 14.94 o
6 3 3 21.08 25.36 5.72 o
7 3 3 172.69 174.18 11.80 o
8 3 3 246.24 250.61 19.75 o
-10 4 3 5.93 1.53 3.50 o
-9 4 3 0.88 -2.92 2.92 o
-8 4 3 15.37 16.91 2.55 o
-7 4 3 196.49 213.39 9.77 o
-6 4 3 6.18 6.67 1.54 o
-5 4 3 560.65 546.16 14.88 o
-4 4 3 175.83 164.90 6.45 o
-3 4 3 305.23 342.03 10.02 o
-2 4 3 935.21 919.56 25.10 o
-1 4 3 3262.05 3261.19 90.17 o
0 4 3 713.97 713.34 20.61 o
1 4 3 269.26 282.30 9.22 o
2 4 3 286.08 271.56 15.93 o
3 4 3 532.03 534.43 12.10 o
4 4 3 1016.28 1061.35 37.43 o
5 4 3 12.37 16.39 3.72 o
6 4 3 264.55 260.00 13.74 o
7 4 3 308.67 311.45 15.50 o
-10 5 3 0.89 3.50 4.08 o
-9 5 3 144.10 153.22 11.95 o
-8 5 3 287.69 328.45 21.94 o
-7 5 3 660.33 700.57 35.94 o
-6 5 3 214.98 227.46 14.58 o
-5 5 3 482.43 479.02 17.13 o
-4 5 3 26.31 26.01 2.14 o
-3 5 3 195.92 181.38 8.24 o
-2 5 3 264.05 245.28 8.11 o
-1 5 3 5.02 6.73 1.64 o
0 5 3 454.69 439.41 14.04 o
1 5 3 7.78 8.91 1.72 o
2 5 3 61.89 67.97 4.85 o
3 5 3 71.15 73.70 3.83 o
4 5 3 357.33 334.91 10.07 o
5 5 3 57.00 54.30 10.57 o
6 5 3 384.42 383.04 23.99 o
-10 6 3 34.04 25.08 5.25 o
-9 6 3 624.95 649.33 59.04 o
-8 6 3 428.33 402.51 30.18 o
-7 6 3 47.99 42.86 4.45 o
-6 6 3 323.29 321.97 17.71 o
-5 6 3 758.54 766.18 31.71 o
-4 6 3 395.10 394.37 15.03 o
-3 6 3 228.06 217.95 9.06 o
-2 6 3 377.52 381.83 14.65 o
-1 6 3 841.33 859.57 31.00 o
0 6 3 932.37 995.23 33.99 o
1 6 3 65.80 59.75 5.39 o
2 6 3 6.07 5.92 1.43 o
3 6 3 16.78 14.43 2.77 o
4 6 3 177.94 161.32 6.21 o
5 6 3 115.10 106.74 7.44 o
6 6 3 0.88 -0.95 1.47 o
-9 7 3 130.91 130.62 13.78 o
-8 7 3 5.70 4.81 3.21 o
-7 7 3 213.16 203.15 14.80 o
-6 7 3 418.32 431.82 31.13 o
-5 7 3 560.04 577.68 33.53 o
-4 7 3 129.03 118.31 9.04 o
-3 7 3 219.88 225.24 11.88 o
-2 7 3 1542.58 1691.91 77.63 o
-1 7 3 303.78 322.99 17.42 o
0 7 3 13.67 23.47 4.01 o
1 7 3 1.93 0.73 1.75 o
2 7 3 216.25 203.86 9.65 o
3 7 3 555.83 571.14 27.47 o
4 7 3 272.72 279.35 17.97 o
5 7 3 89.06 73.92 7.00 o
-8 8 3 139.77 142.51 12.54 o
-7 8 3 1.55 3.57 4.67 o
-6 8 3 61.48 56.56 6.05 o
-5 8 3 121.73 98.70 9.48 o
-4 8 3 50.75 52.77 5.54 o
-3 8 3 570.03 582.34 30.61 o
-2 8 3 260.78 260.30 17.79 o
-1 8 3 13.97 13.41 3.57 o
0 8 3 25.22 22.38 4.01 o
1 8 3 93.64 86.65 9.77 o
2 8 3 545.12 563.74 29.90 o
3 8 3 108.08 123.10 11.70 o
4 8 3 22.93 20.99 6.71 o
-7 9 3 32.31 29.89 6.71 o
-6 9 3 69.38 82.08 9.69 o
-5 9 3 114.86 128.58 10.28 o
-4 9 3 97.84 95.78 8.82 o
-3 9 3 0.35 0.22 2.77 o
-2 9 3 47.90 43.01 4.88 o
-1 9 3 17.50 14.43 4.45 o
0 9 3 21.17 10.35 4.01 o
1 9 3 83.88 70.67 5.08 o
2 9 3 51.33 58.71 6.38 o
3 9 3 14.75 8.54 3.24 o
-5 10 3 56.43 41.33 7.65 o
-4 10 3 8.85 6.27 3.43 o
-3 10 3 180.07 173.85 17.13 o
-2 10 3 69.65 65.97 8.60 o
-1 10 3 63.35 60.14 7.87 o
0 10 3 6.89 4.96 4.37 o
-1 -10 4 67.14 76.95 5.46 o
0 -10 4 4.43 2.04 2.70 o
1 -10 4 218.17 219.70 19.90 o
2 -10 4 160.21 154.75 16.47 o
3 -10 4 1.91 3.13 4.74 o
-4 -9 4 144.19 120.20 12.17 o
-3 -9 4 354.99 356.45 32.00 o
-2 -9 4 197.59 184.82 13.57 o
-1 -9 4 9.91 14.14 2.64 o
0 -9 4 867.31 872.75 65.90 o
1 -9 4 561.12 580.37 38.41 o
2 -9 4 70.29 81.64 6.63 o
3 -9 4 43.79 40.24 5.76 o
4 -9 4 171.43 173.78 13.05 o
5 -9 4 251.47 266.50 21.65 o
-5 -8 4 80.52 74.79 8.24 o
-4 -8 4 69.83 67.13 6.92 o
-3 -8 4 175.47 158.50 10.02 o
-2 -8 4 8.17 6.69 2.26 o
-1 -8 4 222.73 222.07 19.86 o
0 -8 4 1024.38 1109.79 50.51 o
1 -8 4 467.60 452.66 29.23 o
2 -8 4 53.02 37.83 4.45 o
3 -8 4 160.40 133.39 11.15 o
4 -8 4 706.91 751.23 43.88 o
5 -8 4 510.35 518.27 32.36 o
6 -8 4 25.88 22.38 5.98 o
7 -8 4 267.24 281.58 24.49 o
-6 -7 4 49.99 52.20 5.16 o
-5 -7 4 20.22 22.16 5.10 o
-4 -7 4 55.22 51.68 6.20 o
-3 -7 4 61.35 62.15 3.34 o
-2 -7 4 301.60 308.21 12.57 o
-1 -7 4 268.87 257.87 10.40 o
0 -7 4 344.60 340.17 13.94 o
1 -7 4 24.40 23.95 2.62 o
2 -7 4 7.16 12.76 3.35 o
3 -7 4 47.20 50.37 6.12 o
4 -7 4 523.98 536.35 27.41 o
5 -7 4 28.68 23.76 4.45 o
6 -7 4 90.87 98.26 7.65 o
7 -7 4 387.41 400.18 34.70 o
-7 -6 4 125.45 152.42 16.84 o
-6 -6 4 37.13 40.08 3.59 o
-5 -6 4 138.15 149.50 11.30 o
-4 -6 4 562.56 569.87 17.26 o
-3 -6 4 1736.74 1756.02 51.28 o
-2 -6 4 0.89 1.67 0.89 o
-1 -6 4 1115.36 1132.38 33.83 o
0 -6 4 1466.03 1478.17 43.22 o
1 -6 4 73.38 73.36 3.79 o
2 -6 4 24.28 20.95 2.01 o
3 -6 4 9.55 15.67 2.99 o
4 -6 4 244.37 231.51 13.56 o
5 -6 4 876.45 878.50 43.59 o
6 -6 4 145.59 155.70 11.23 o
7 -6 4 242.07 219.12 18.73 o
8 -6 4 12.15 11.81 4.23 o
-8 -5 4 107.16 74.20 10.57 o
-7 -5 4 1.32 4.74 3.28 o
-6 -5 4 179.82 173.05 11.15 o
-5 -5 4 781.22 800.44 37.98 o
-4 -5 4 696.75 766.54 36.30 o
-3 -5 4 62.67 65.76 5.03 o
-2 -5 4 454.65 443.90 10.91 o
-1 -5 4 1666.16 1749.75 48.64 o
0 -5 4 874.00 913.27 27.43 o
1 -5 4 469.43 461.77 15.29 o
2 -5 4 10.73 12.01 1.79 o
3 -5 4 1239.53 1214.05 40.41 o
4 -5 4 2650.57 2599.79 110.00 o
5 -5 4 89.72 85.28 6.78 o
6 -5 4 138.50 144.25 10.13 o
7 -5 4 487.32 501.94 30.18 o
8 -5 4 75.81 59.04 8.53 o
-9 -4 4 3.55 7.07 3.57 o
-8 -4 4 164.67 168.60 13.41 o
-7 -4 4 34.44 31.05 4.45 o
-6 -4 4 14.61 19.32 2.84 o
-5 -4 4 78.83 75.00 3.89 o
-4 -4 4 237.95 227.70 8.79 o
-3 -4 4 300.05 297.08 6.29 o
-2 -4 4 724.24 696.33 16.43 o
-1 -4 4 500.63 504.59 14.59 o
0 -4 4 322.66 339.65 13.09 o
1 -4 4 13.74 6.00 2.95 o
2 -4 4 1347.53 1369.25 38.24 o
3 -4 4 2074.53 2033.79 67.06 o
4 -4 4 310.86 322.26 10.78 o
5 -4 4 216.58 224.44 12.10 o
6 -4 4 163.01 169.84 7.14 o
7 -4 4 231.63 237.19 17.49 o
8 -4 4 362.33 396.32 25.00 o
9 -4 4 15.29 24.05 4.96 o
-9 -3 4 448.56 467.90 40.24 o
-8 -3 4 217.09 234.35 15.02 o
-7 -3 4 4.32 7.29 2.92 o
-6 -3 4 24.05 26.90 4.30 o
-5 -3 4 178.89 196.66 6.49 o
-4 -3 4 1790.47 1812.73 44.05 o
-3 -3 4 378.17 397.41 9.18 o
-2 -3 4 330.68 361.17 8.35 o
-1 -3 4 568.58 622.12 18.37 o
0 -3 4 250.81 237.82 9.95 o
1 -3 4 441.43 409.37 13.70 o
2 -3 4 1152.38 1154.99 40.27 o
3 -3 4 119.03 114.52 4.84 o
4 -3 4 544.76 590.30 19.74 o
5 -3 4 158.95 163.39 5.28 o
6 -3 4 78.04 71.80 4.08 o
7 -3 4 104.03 106.42 9.26 o
8 -3 4 166.49 177.71 14.94 o
9 -3 4 80.85 66.04 7.44 o
-10 -2 4 267.65 244.26 28.94 o
-9 -2 4 206.38 214.69 12.58 o
-8 -2 4 70.32 89.06 5.98 o
-7 -2 4 5.66 5.47 3.57 o
-6 -2 4 548.08 542.29 34.51 o
-5 -2 4 1133.22 1172.86 28.34 o
-4 -2 4 1546.03 1584.47 40.31 o
-3 -2 4 118.16 115.43 3.12 o
-2 -2 4 17.12 12.74 0.89 o
-1 -2 4 2593.39 2690.29 73.01 o
0 -2 4 2048.28 2022.47 50.10 o
1 -2 4 672.20 697.15 24.40 o
2 -2 4 957.88 943.69 26.11 o
3 -2 4 1993.71 1968.37 55.50 o
4 -2 4 253.58 253.91 12.21 o
5 -2 4 66.13 63.34 3.72 o
6 -2 4 34.08 31.56 2.19 o
7 -2 4 101.89 103.29 8.38 o
8 -2 4 277.66 282.75 20.26 o
9 -2 4 242.00 202.86 16.04 o
-10 -1 4 71.29 62.17 5.42 o
-9 -1 4 25.47 29.57 10.24 o
-8 -1 4 10.07 5.64 3.43 o
-7 -1 4 53.71 54.16 4.51 o
-6 -1 4 1450.98 1463.49 39.00 o
-5 -1 4 610.78 637.20 12.91 o
-4 -1 4 216.14 220.50 5.90 o
-3 -1 4 1395.73 1384.99 30.35 o
-2 -1 4 3146.89 3138.82 64.47 o
-1 -1 4 2076.36 2091.70 42.76 o
0 -1 4 444.79 443.80 10.43 o
1 -1 4 1649.01 1597.08 44.54 o
2 -1 4 1997.12 1855.49 52.85 o
3 -1 4 577.17 565.58 14.21 o
4 -1 4 16.96 21.58 1.09 o
5 -1 4 410.91 406.81 13.63 o
6 -1 4 585.32 610.11 24.49 o
7 -1 4 1068.54 1128.60 43.23 o
8 -1 4 249.77 232.97 13.56 o
9 -1 4 77.74 75.59 5.39 o
-10 0 4 83.48 47.67 7.14 o
-9 0 4 8.32 9.79 5.03 o
-8 0 4 6.80 9.40 0.95 o
-7 0 4 737.29 766.52 16.74 o
-6 0 4 1234.79 1248.66 23.16 o
-5 0 4 277.30 277.14 5.54 o
-4 0 4 3314.38 3328.32 65.98 o
-3 0 4 288.96 296.76 5.19 o
-2 0 4 600.42 587.94 11.26 o
-1 0 4 361.54 349.40 6.91 o
0 0 4 65.47 60.11 3.13 o
1 0 4 3887.31 3756.75 92.57 o
2 0 4 937.74 897.01 21.00 o
3 0 4 594.42 616.45 15.26 o
4 0 4 351.19 360.78 7.98 o
5 0 4 463.01 469.86 12.92 o
6 0 4 942.09 938.06 33.57 o
7 0 4 360.04 342.38 13.19 o
8 0 4 104.59 106.57 7.14 o
9 0 4 200.83 190.76 18.88 o
-10 1 4 92.66 104.75 11.81 o
-9 1 4 262.91 254.03 11.44 o
-8 1 4 513.75 514.90 27.63 o
-7 1 4 2.14 3.48 1.13 o
-6 1 4 2420.99 2468.40 54.49 o
-5 1 4 1015.71 1010.10 23.66 o
-4 1 4 6.30 8.86 1.00 o
-3 1 4 89.15 92.08 2.85 o
-2 1 4 119.91 123.31 6.52 o
-1 1 4 116.82 100.01 3.09 o
0 1 4 1590.08 1590.19 35.56 o
1 1 4 3282.11 3452.82 112.68 o
2 1 4 78.87 85.50 2.88 o
3 1 4 472.66 498.06 13.89 o
4 1 4 236.53 229.46 5.76 o
5 1 4 1128.41 1119.85 28.95 o
6 1 4 126.67 109.08 8.67 o
7 1 4 69.32 69.61 4.67 o
8 1 4 429.31 430.29 34.19 o
-10 2 4 368.41 359.36 31.13 o
-9 2 4 203.87 212.77 11.59 o
-8 2 4 260.30 270.83 13.49 o
-7 2 4 1667.64 1738.21 51.47 o
-6 2 4 816.78 846.71 21.19 o
-5 2 4 156.21 148.83 4.64 o
-4 2 4 242.31 233.21 5.89 o
-3 2 4 538.14 498.17 13.30 o
-2 2 4 2737.05 2691.65 64.47 o
-1 2 4 2708.29 2803.91 84.41 o
0 2 4 268.89 253.00 14.25 o
1 2 4 2841.60 2852.87 101.54 o
2 2 4 72.46 62.34 3.27 o
3 2 4 199.56 224.55 7.52 o
4 2 4 144.21 145.19 3.78 o
5 2 4 7.71 5.29 0.91 o
6 2 4 453.73 440.13 25.21 o
7 2 4 99.21 96.00 8.60 o
8 2 4 7.00 8.31 3.86 o
-10 3 4 77.91 82.00 8.31 o
-9 3 4 113.88 104.16 8.82 o
-8 3 4 808.91 829.76 37.75 o
-7 3 4 1736.65 1722.32 67.20 o
-6 3 4 62.64 57.65 2.62 o
-5 3 4 263.14 251.05 7.68 o
-4 3 4 526.53 536.29 13.13 o
-3 3 4 1671.69 1620.72 54.63 o
-2 3 4 2026.19 1952.98 54.98 o
-1 3 4 72.38 74.02 5.14 o
0 3 4 2394.07 2350.29 70.66 o
1 3 4 2207.54 2263.81 66.04 o
2 3 4 479.89 506.59 11.03 o
3 3 4 6.40 8.12 1.66 o
4 3 4 277.44 312.30 29.96 o
5 3 4 1042.91 1072.82 45.07 o
6 3 4 305.89 313.08 10.64 o
7 3 4 38.07 31.78 4.96 o
8 3 4 82.07 66.84 7.80 o
-10 4 4 7.35 5.83 2.48 o
-9 4 4 453.75 468.70 31.13 o
-8 4 4 32.61 30.82 9.62 o
-7 4 4 22.15 19.67 4.99 o
-6 4 4 39.43 29.39 1.98 o
-5 4 4 110.13 107.75 3.79 o
-4 4 4 475.53 502.06 15.30 o
-3 4 4 1856.49 1895.17 52.41 o
-2 4 4 1.87 0.64 1.26 o
-1 4 4 1657.65 1610.09 46.48 o
0 4 4 2719.42 2803.74 87.68 o
1 4 4 60.29 58.28 2.44 o
2 4 4 1.47 0.92 1.08 o
3 4 4 281.29 261.94 6.85 o
4 4 4 510.37 517.42 21.27 o
5 4 4 377.74 383.11 19.67 o
6 4 4 13.24 19.30 3.75 o
7 4 4 75.00 66.99 6.85 o
-10 5 4 114.65 103.51 11.23 o
-9 5 4 117.25 122.97 12.32 o
-8 5 4 422.65 408.27 26.17 o
-7 5 4 256.67 296.82 16.84 o
-6 5 4 39.08 29.61 5.54 o
-5 5 4 158.39 167.11 11.85 o
-4 5 4 4.04 3.99 1.83 o
-3 5 4 251.04 266.24 15.78 o
-2 5 4 1281.65 1339.88 39.96 o
-1 5 4 55.37 55.14 3.68 o
0 5 4 60.40 66.45 3.62 o
1 5 4 15.05 14.48 1.69 o
2 5 4 35.65 26.71 2.11 o
3 5 4 337.77 326.19 9.72 o
4 5 4 452.79 458.64 19.68 o
5 5 4 22.07 17.56 1.75 o
6 5 4 20.03 16.77 3.86 o
-9 6 4 266.65 282.46 27.04 o
-8 6 4 357.70 382.40 27.63 o
-7 6 4 368.04 384.36 23.03 o
-6 6 4 43.94 41.48 5.10 o
-5 6 4 87.10 88.35 5.61 o
-4 6 4 1740.66 1815.03 66.70 o
-3 6 4 1145.61 1198.55 66.59 o
-2 6 4 10.95 7.79 2.15 o
-1 6 4 1007.47 985.32 37.79 o
0 6 4 209.70 227.43 15.56 o
1 6 4 2.51 1.32 1.46 o
2 6 4 196.69 190.24 8.14 o
3 6 4 25.23 17.70 3.79 o
4 6 4 59.07 66.80 7.62 o
5 6 4 75.67 69.32 8.02 o
6 6 4 5.54 6.63 4.08 o
-9 7 4 196.12 191.12 17.42 o
-8 7 4 223.56 219.84 18.51 o
-7 7 4 23.58 22.31 3.64 o
-6 7 4 31.33 32.36 4.30 o
-5 7 4 450.20 465.71 25.22 o
-4 7 4 711.72 739.64 42.50 o
-3 7 4 110.03 85.72 7.95 o
-2 7 4 74.24 77.41 6.20 o
-1 7 4 189.17 194.33 12.90 o
0 7 4 866.33 918.01 53.72 o
1 7 4 165.39 187.58 9.32 o
2 7 4 1.36 1.67 1.98 o
3 7 4 362.90 385.39 18.24 o
4 7 4 283.81 298.96 19.86 o
5 7 4 40.01 38.78 6.92 o
-8 8 4 6.97 8.38 5.90 o
-7 8 4 4.22 10.64 3.72 o
-6 8 4 105.51 111.38 9.69 o
-5 8 4 155.26 164.52 11.74 o
-4 8 4 13.81 24.42 3.79 o
-3 8 4 11.69 15.09 4.01 o
-2 8 4 58.25 58.97 6.20 o
-1 8 4 50.28 47.82 5.76 o
0 8 4 274.54 271.74 17.35 o
1 8 4 78.66 79.12 9.95 o
2 8 4 147.42 155.02 10.39 o
3 8 4 221.53 228.53 16.20 o
-7 9 4 5.62 4.67 4.45 o
-6 9 4 5.02 8.38 4.01 o
-5 9 4 102.67 115.97 11.95 o
-4 9 4 167.73 166.63 14.14 o
-3 9 4 2.94 1.97 4.30 o
-2 9 4 42.51 32.58 6.63 o
-1 9 4 45.53 51.10 5.32 o
0 9 4 6.17 7.29 3.43 o
1 9 4 62.19 59.75 5.25 o
2 9 4 54.77 65.11 14.29 o
-5 10 4 361.44 385.24 41.11 o
-4 10 4 69.93 72.60 8.89 o
-3 10 4 4.05 -0.44 4.59 o
-2 10 4 50.07 52.05 7.07 o
-1 10 4 171.03 178.81 19.75 o
0 -10 5 141.49 132.01 12.83 o
1 -10 5 16.87 15.96 4.01 o
2 -10 5 128.26 114.95 11.95 o
-3 -9 5 31.78 28.21 6.41 o
-2 -9 5 372.91 352.36 31.71 o
-1 -9 5 261.78 265.00 16.22 o
0 -9 5 31.33 32.22 4.59 o
1 -9 5 111.40 113.42 9.77 o
2 -9 5 248.12 248.05 19.46 o
3 -9 5 214.64 243.39 19.46 o
4 -9 5 56.15 59.41 6.12 o
5 -9 5 126.61 120.20 11.15 o
-5 -8 5 21.41 17.35 5.83 o
-4 -8 5 8.90 3.35 5.61 o
-3 -8 5 602.51 591.38 47.38 o
-2 -8 5 154.45 140.43 7.63 o
-1 -8 5 19.23 18.80 1.87 o
0 -8 5 398.03 379.19 27.04 o
1 -8 5 90.30 82.51 6.71 o
2 -8 5 232.59 230.63 14.65 o
3 -8 5 90.88 77.49 7.58 o
4 -8 5 37.20 39.36 4.52 o
5 -8 5 520.52 547.57 36.37 o
6 -8 5 251.36 247.91 18.81 o
-6 -7 5 22.38 18.52 3.27 o
-5 -7 5 171.89 176.33 15.89 o
-4 -7 5 73.29 82.37 7.44 o
-3 -7 5 1.69 0.37 1.49 o
-2 -7 5 335.71 351.15 12.99 o
-1 -7 5 99.15 94.66 3.86 o
0 -7 5 24.55 23.83 2.77 o
1 -7 5 53.98 51.10 4.74 o
2 -7 5 85.26 72.09 6.34 o
3 -7 5 52.49 57.29 6.71 o
4 -7 5 593.33 619.44 39.95 o
5 -7 5 178.07 167.87 12.17 o
6 -7 5 21.31 21.87 5.47 o
7 -7 5 37.79 35.64 5.90 o
-7 -6 5 261.21 277.72 24.13 o
-6 -6 5 373.36 407.98 28.21 o
-5 -6 5 194.30 196.37 13.85 o
-4 -6 5 189.74 189.66 7.43 o
-3 -6 5 1299.76 1322.43 44.31 o
-2 -6 5 749.39 740.98 24.28 o
-1 -6 5 7.29 7.30 1.46 o
0 -6 5 133.62 138.28 5.99 o
1 -6 5 93.54 91.68 4.74 o
2 -6 5 821.24 796.94 35.86 o
3 -6 5 308.16 305.35 15.16 o
4 -6 5 4.77 12.03 2.99 o
5 -6 5 325.34 315.12 18.95 o
6 -6 5 2.32 1.17 3.35 o
7 -6 5 101.10 89.22 10.72 o
-8 -5 5 202.93 222.54 24.42 o
-7 -5 5 135.78 160.44 13.49 o
-6 -5 5 172.79 167.36 11.81 o
-5 -5 5 30.44 31.40 7.87 o
-4 -5 5 1263.19 1301.29 35.19 o
-3 -5 5 1604.60 1658.72 40.55 o
-2 -5 5 29.81 30.00 1.69 o
-1 -5 5 56.54 67.24 2.51 o
0 -5 5 494.14 488.61 16.96 o
1 -5 5 1868.11 1899.26 55.13 o
2 -5 5 1639.70 1677.25 54.91 o
3 -5 5 53.80 54.01 5.47 o
4 -5 5 1156.37 1126.78 49.28 o
5 -5 5 1121.10 1190.05 47.60 o
6 -5 5 175.14 171.15 12.32 o
7 -5 5 11.82 14.00 3.79 o
8 -5 5 54.55 58.17 8.38 o
-9 -4 5 22.27 18.51 5.32 o
-8 -4 5 4.21 -4.15 4.15 o
-7 -4 5 13.52 13.56 4.01 o
-6 -4 5 62.75 54.16 5.98 o
-5 -4 5 619.96 642.19 29.16 o
-4 -4 5 390.49 385.34 12.30 o
-3 -4 5 2.21 3.33 2.59 o
-2 -4 5 1.41 3.22 0.87 o
-1 -4 5 541.66 551.26 16.33 o
0 -4 5 1243.36 1287.54 34.23 o
1 -4 5 1537.53 1508.87 43.64 o
2 -4 5 1.10 3.32 1.48 o
3 -4 5 1177.12 1143.77 38.16 o
4 -4 5 1226.56 1222.78 54.52 o
5 -4 5 183.31 204.97 10.20 o
6 -4 5 162.94 150.67 8.46 o
7 -4 5 141.76 120.56 10.28 o
8 -4 5 605.23 637.67 51.46 o
-9 -3 5 37.89 31.85 5.90 o
-8 -3 5 263.48 289.24 20.41 o
-7 -3 5 409.90 439.98 24.86 o
-6 -3 5 504.07 522.50 27.19 o
-5 -3 5 156.15 137.69 5.39 o
-4 -3 5 406.70 416.62 9.15 o
-3 -3 5 927.34 954.65 19.00 o
-2 -3 5 10.86 13.21 2.00 o
-1 -3 5 143.97 139.95 7.80 o
0 -3 5 212.59 246.09 7.83 o
1 -3 5 446.11 455.24 14.10 o
2 -3 5 1302.33 1320.05 39.20 o
3 -3 5 20.15 22.38 2.01 o
4 -3 5 2.78 2.97 1.77 o
5 -3 5 75.87 70.56 3.64 o
6 -3 5 74.61 73.62 3.64 o
7 -3 5 365.95 385.38 22.23 o
8 -3 5 127.61 129.89 11.81 o
-10 -2 5 34.25 29.81 4.81 o
-9 -2 5 102.93 95.85 9.48 o
-8 -2 5 611.89 636.49 37.18 o
-7 -2 5 722.06 739.39 28.24 o
-6 -2 5 246.90 254.03 11.59 o
-5 -2 5 2353.26 2395.40 66.99 o
-4 -2 5 3029.98 3129.29 72.02 o
-3 -2 5 288.79 303.89 7.73 o
-2 -2 5 19.48 15.17 0.98 o
-1 -2 5 374.45 386.77 9.66 o
0 -2 5 2565.70 2559.49 71.14 o
1 -2 5 2935.74 2981.02 78.43 o
2 -2 5 3.22 4.59 1.75 o
3 -2 5 487.65 483.64 15.38 o
4 -2 5 828.67 855.40 24.93 o
5 -2 5 24.52 22.60 1.75 o
6 -2 5 83.73 67.43 5.83 o
7 -2 5 4.83 2.26 2.99 o
8 -2 5 34.81 32.87 3.43 o
-10 -1 5 39.18 48.80 5.31 o
-9 -1 5 53.25 39.12 3.98 o
-8 -1 5 446.09 437.20 29.05 o
-7 -1 5 6.07 8.77 7.98 o
-6 -1 5 628.76 605.24 46.54 o
-5 -1 5 397.46 415.19 9.91 o
-4 -1 5 801.98 792.56 14.28 o
-3 -1 5 490.19 483.04 11.95 o
-2 -1 5 93.18 119.86 11.63 o
-1 -1 5 3857.20 3928.19 82.73 o
0 -1 5 4563.27 4538.82 107.59 o
1 -1 5 1119.45 1170.80 28.21 o
2 -1 5 2044.85 2057.18 48.69 o
3 -1 5 1055.53 1058.18 30.61 o
4 -1 5 644.90 634.02 22.89 o
5 -1 5 356.93 365.81 13.77 o
6 -1 5 0.30 3.12 2.15 o
7 -1 5 277.63 280.49 11.95 o
8 -1 5 461.58 445.23 29.45 o
-10 0 5 13.92 13.34 4.67 o
-9 0 5 3.12 0.57 2.11 o
-8 0 5 168.97 165.32 15.09 o
-7 0 5 180.34 183.51 11.52 o
-6 0 5 127.07 131.18 3.25 o
-5 0 5 11.60 11.81 0.85 o
-4 0 5 157.74 166.99 7.07 o
-3 0 5 2.93 2.15 0.66 o
-2 0 5 1061.69 1042.88 20.79 o
-1 0 5 2427.42 2362.04 73.69 o
0 0 5 357.66 400.05 10.84 o
1 0 5 454.13 432.91 15.23 o
2 0 5 135.59 164.10 6.56 o
3 0 5 250.02 253.74 11.01 o
4 0 5 1247.94 1234.27 43.70 o
5 0 5 597.44 561.37 32.11 o
6 0 5 834.81 812.89 27.59 o
7 0 5 562.60 530.37 24.20 o
8 0 5 135.16 125.59 10.64 o
-10 1 5 24.13 22.74 6.05 o
-9 1 5 185.59 161.82 8.09 o
-8 1 5 769.12 764.79 27.28 o
-7 1 5 368.54 386.33 12.87 o
-6 1 5 326.77 336.15 7.88 o
-5 1 5 603.80 605.48 11.92 o
-4 1 5 403.69 392.63 7.42 o
-3 1 5 662.20 614.99 13.05 o
-2 1 5 203.12 186.01 6.31 o
-1 1 5 1009.10 1010.02 41.55 o
0 1 5 549.74 505.02 14.47 o
1 1 5 84.35 70.76 3.74 o
2 1 5 25.14 29.33 2.04 o
3 1 5 569.92 578.54 16.79 o
4 1 5 33.88 37.13 2.05 o
5 1 5 306.54 327.38 15.32 o
6 1 5 291.26 281.72 12.53 o
7 1 5 0.37 0.15 3.13 o
8 1 5 0.10 7.07 4.45 o
-10 2 5 57.90 45.56 7.00 o
-9 2 5 1096.52 1108.85 44.97 o
-8 2 5 385.98 413.07 25.77 o
-7 2 5 10.50 14.90 1.51 o
-6 2 5 1025.71 1023.16 28.62 o
-5 2 5 1221.64 1233.34 28.59 o
-4 2 5 1227.43 1241.15 28.20 o
-3 2 5 112.36 113.73 3.75 o
-2 2 5 1114.28 1105.21 28.08 o
-1 2 5 2720.67 2648.35 72.93 o
0 2 5 530.10 548.66 11.44 o
1 2 5 70.92 92.47 5.50 o
2 2 5 64.87 66.81 3.47 o
3 2 5 344.30 340.12 13.19 o
4 2 5 629.56 628.26 23.69 o
5 2 5 243.87 249.44 15.09 o
6 2 5 20.23 27.92 4.96 o
7 2 5 129.05 140.54 14.58 o
-10 3 5 136.94 113.28 7.87 o
-9 3 5 51.51 50.66 5.18 o
-8 3 5 85.17 82.52 4.59 o
-7 3 5 95.65 100.94 7.98 o
-6 3 5 97.82 91.42 4.42 o
-5 3 5 1375.28 1402.06 43.01 o
-4 3 5 266.36 248.99 8.18 o
-3 3 5 622.02 584.73 14.56 o
-2 3 5 2818.17 2798.97 92.87 o
-1 3 5 521.96 514.39 14.70 o
0 3 5 107.95 107.09 4.58 o
1 3 5 2.52 1.97 0.61 o
2 3 5 412.85 414.83 10.77 o
3 3 5 2515.13 2623.56 125.16 o
4 3 5 388.91 401.26 16.82 o
5 3 5 518.14 525.27 21.10 o
6 3 5 407.99 433.49 19.83 o
7 3 5 19.44 8.97 3.28 o
-10 4 5 0.37 3.79 2.92 o
-9 4 5 375.19 438.23 27.85 o
-8 4 5 234.72 243.17 14.51 o
-7 4 5 188.53 172.98 12.25 o
-6 4 5 39.93 35.56 3.57 o
-5 4 5 0.70 2.18 1.14 o
-4 4 5 624.05 634.17 18.54 o
-3 4 5 434.03 415.43 12.62 o
-2 4 5 105.69 98.09 5.39 o
-1 4 5 25.36 20.06 1.93 o
0 4 5 60.93 63.82 3.50 o
1 4 5 465.88 482.08 13.68 o
2 4 5 1715.64 1733.53 46.32 o
3 4 5 54.65 56.47 3.13 o
4 4 5 186.13 201.84 7.58 o
5 4 5 313.34 321.02 15.78 o
6 4 5 60.83 58.46 6.49 o
-10 5 5 322.94 355.94 22.67 o
-9 5 5 524.90 533.87 42.42 o
-8 5 5 15.93 18.66 4.30 o
-7 5 5 99.42 103.51 7.29 o
-6 5 5 183.89 178.08 10.57 o
-5 5 5 298.02 301.01 17.02 o
-4 5 5 404.21 371.29 14.73 o
-3 5 5 0.38 0.35 2.14 o
-2 5 5 122.47 107.90 7.91 o
-1 5 5 436.34 465.30 17.89 o
0 5 5 1134.68 1127.15 43.02 o
1 5 5 1.05 2.59 1.29 o
2 5 5 46.57 46.43 2.57 o
3 5 5 374.07 362.90 19.13 o
4 5 5 27.67 26.97 4.30 o
5 5 5 6.16 3.28 3.94 o
6 5 5 12.08 15.96 4.67 o
-9 6 5 12.13 10.13 3.94 o
-8 6 5 9.51 11.23 4.45 o
-7 6 5 135.14 145.35 11.52 o
-6 6 5 804.20 859.84 52.19 o
-5 6 5 551.05 575.49 27.99 o
-4 6 5 126.91 122.39 9.33 o
-3 6 5 1030.16 1137.20 52.19 o
-2 6 5 999.27 1087.27 51.75 o
-1 6 5 12.27 11.66 3.64 o
0 6 5 8.34 13.56 3.86 o
1 6 5 146.30 160.74 8.59 o
2 6 5 320.33 317.30 14.17 o
3 6 5 137.35 140.85 7.71 o
4 6 5 9.51 7.99 2.25 o
5 6 5 4.54 6.78 4.15 o
-9 7 5 7.55 13.41 5.32 o
-8 7 5 23.92 23.98 4.96 o
-7 7 5 245.46 251.77 17.86 o
-6 7 5 390.01 380.94 24.56 o
-5 7 5 32.66 29.96 4.88 o
-4 7 5 1019.70 1008.47 64.73 o
-3 7 5 221.45 213.79 14.94 o
-2 7 5 50.39 60.43 6.41 o
-1 7 5 5.91 3.57 2.48 o
0 7 5 130.32 137.99 10.72 o
1 7 5 623.90 650.78 33.97 o
2 7 5 225.61 229.96 13.14 o
3 7 5 38.03 36.47 11.74 o
4 7 5 95.84 72.89 6.37 o
-8 8 5 70.71 65.82 8.67 o
-7 8 5 1.14 6.92 3.43 o
-6 8 5 131.46 128.80 12.10 o
-5 8 5 93.80 105.48 10.20 o
-3 8 5 20.03 19.39 5.03 o
-2 8 5 3.67 2.55 2.84 o
-1 8 5 34.73 31.78 4.15 o
0 8 5 191.11 203.30 15.09 o
1 8 5 53.34 51.78 4.86 o
2 8 5 0.86 -0.25 6.20 o
3 8 5 13.40 11.70 5.10 o
-6 9 5 91.36 92.14 11.23 o
-5 9 5 1.84 1.75 2.92 o
-4 9 5 88.68 83.75 10.06 o
-3 9 5 21.32 18.66 4.01 o
-2 9 5 6.46 8.53 3.50 o
-1 9 5 34.37 37.10 4.74 o
0 9 5 0.12 3.64 4.74 o
1 9 5 14.72 15.96 3.97 o
-3 10 5 31.14 28.14 6.20 o
-2 -9 6 129.43 112.18 11.66 o
-1 -9 6 150.07 117.53 8.48 o
0 -9 6 287.89 294.41 25.29 o
1 -9 6 102.08 92.50 10.57 o
2 -9 6 8.14 13.78 5.39 o
3 -9 6 478.51 463.89 35.21 o
-4 -8 6 59.29 66.62 8.60 o
-3 -8 6 29.88 21.72 5.39 o
-2 -8 6 47.84 40.08 3.54 o
-1 -8 6 8.53 7.56 2.47 o
0 -8 6 30.13 27.41 4.15 o
1 -8 6 3.58 2.99 3.57 o
2 -8 6 381.59 391.14 30.10 o
3 -8 6 282.00 298.93 23.91 o
4 -8 6 0.32 2.26 3.50 o
5 -8 6 45.33 42.64 6.78 o
-6 -7 6 9.72 0.87 3.94 o
-5 -7 6 14.72 4.81 3.43 o
-4 -7 6 372.43 385.68 26.97 o
-3 -7 6 328.70 313.22 17.01 o
-2 -7 6 50.52 44.90 2.57 o
-1 -7 6 166.60 150.89 7.58 o
0 -7 6 330.78 345.00 14.51 o
1 -7 6 128.39 136.82 9.04 o
2 -7 6 25.89 17.57 4.59 o
3 -7 6 146.97 150.09 11.66 o
4 -7 6 23.26 18.51 4.15 o
5 -7 6 50.72 48.62 7.00 o
6 -7 6 11.21 9.84 4.52 o
-7 -6 6 46.45 37.03 6.49 o
-6 -6 6 124.94 125.08 10.57 o
-5 -6 6 1085.94 1151.88 52.84 o
-4 -6 6 274.35 255.07 12.04 o
-3 -6 6 83.06 72.87 3.90 o
-2 -6 6 686.78 684.38 23.21 o
-1 -6 6 387.70 408.14 10.92 o
0 -6 6 244.60 263.88 18.44 o
1 -6 6 19.45 24.86 3.94 o
2 -6 6 74.32 66.33 4.81 o
3 -6 6 642.75 677.10 33.31 o
4 -6 6 236.07 252.65 14.80 o
5 -6 6 18.87 20.48 3.79 o
6 -6 6 9.34 10.72 5.76 o
7 -6 6 150.14 142.07 13.34 o
-8 -5 6 17.73 13.85 6.34 o
-7 -5 6 160.45 172.46 14.80 o
-6 -5 6 549.05 596.85 35.43 o
-5 -5 6 91.44 91.60 5.20 o
-4 -5 6 97.34 87.30 3.43 o
-3 -5 6 274.87 266.37 8.79 o
-2 -5 6 111.82 116.78 9.11 o
-1 -5 6 818.58 836.11 21.95 o
0 -5 6 513.75 514.28 17.57 o
1 -5 6 537.27 549.90 17.50 o
2 -5 6 1945.08 2026.06 88.05 o
3 -5 6 228.48 216.93 13.41 o
4 -5 6 17.40 12.46 4.52 o
5 -5 6 27.01 25.22 4.88 o
6 -5 6 134.32 132.01 11.81 o
7 -5 6 627.68 649.55 51.46 o
-8 -4 6 172.29 185.66 16.69 o
-7 -4 6 130.22 149.14 12.32 o
-6 -4 6 12.39 14.72 3.13 o
-5 -4 6 657.02 659.39 34.92 o
-4 -4 6 221.52 249.78 7.17 o
-3 -4 6 52.79 56.86 1.95 o
-2 -4 6 169.26 159.27 4.39 o
-1 -4 6 101.99 90.09 3.06 o
0 -4 6 454.56 446.88 14.15 o
1 -4 6 1076.93 1074.24 46.94 o
2 -4 6 371.82 376.73 21.10 o
3 -4 6 8.90 14.00 4.01 o
4 -4 6 9.05 7.44 2.62 o
5 -4 6 440.95 422.20 20.85 o
6 -4 6 826.25 877.92 38.63 o
7 -4 6 98.05 75.95 8.82 o
-9 -3 6 101.47 85.50 10.64 o
-8 -3 6 192.22 199.36 15.02 o
-7 -3 6 166.35 179.17 11.08 o
-6 -3 6 751.37 880.18 38.20 o
-5 -3 6 475.96 510.91 23.40 o
-4 -3 6 38.50 36.67 1.46 o
-3 -3 6 9.32 12.12 1.64 o
-2 -3 6 51.20 57.62 2.05 o
-1 -3 6 1404.14 1473.77 31.03 o
0 -3 6 820.46 833.02 23.03 o
1 -3 6 43.84 48.69 2.62 o
2 -3 6 329.84 342.67 12.68 o
3 -3 6 124.86 113.64 5.32 o
4 -3 6 405.04 410.46 22.74 o
5 -3 6 217.35 200.82 8.75 o
6 -3 6 20.73 26.68 4.30 o
7 -3 6 142.64 140.46 11.01 o
8 -3 6 130.98 121.00 12.25 o
-9 -2 6 78.24 85.50 8.53 o
-8 -2 6 306.18 323.13 17.28 o
-7 -2 6 1284.74 1428.99 73.11 o
-6 -2 6 663.01 683.59 27.26 o
-5 -2 6 97.56 103.65 2.99 o
-4 -2 6 7.01 9.04 1.02 o
-3 -2 6 672.52 689.20 13.70 o
-2 -2 6 1866.90 1826.47 38.32 o
-1 -2 6 2226.90 2267.89 38.01 o
0 -2 6 559.04 543.56 12.46 o
1 -2 6 1782.34 1796.73 50.37 o
2 -2 6 708.51 676.52 22.60 o
3 -2 6 55.73 66.19 3.79 o
4 -2 6 169.60 166.49 8.89 o
5 -2 6 32.07 36.74 5.10 o
6 -2 6 962.98 980.77 59.70 o
7 -2 6 122.88 120.64 12.61 o
8 -2 6 8.29 11.01 4.30 o
-10 -1 6 0.08 -2.53 2.53 o
-9 -1 6 64.17 55.42 7.40 o
-8 -1 6 565.69 576.19 30.69 o
-7 -1 6 180.13 182.28 8.60 o
-6 -1 6 48.93 46.83 12.94 o
-5 -1 6 78.02 86.46 2.42 o
-4 -1 6 371.87 375.51 7.40 o
-3 -1 6 3234.16 3183.66 72.05 o
-2 -1 6 1693.55 1711.16 33.31 o
-1 -1 6 573.00 585.33 12.25 o
0 -1 6 3668.13 3617.23 161.75 o
1 -1 6 1348.95 1384.45 33.38 o
2 -1 6 167.40 167.95 6.34 o
3 -1 6 124.11 122.75 4.56 o
4 -1 6 990.51 985.19 39.37 o
5 -1 6 870.90 893.30 34.78 o
6 -1 6 302.40 283.45 9.92 o
7 -1 6 43.24 41.48 5.61 o
8 -1 6 52.40 49.64 8.46 o
-10 0 6 155.19 121.29 14.72 o
-9 0 6 129.76 125.12 7.10 o
-8 0 6 2.29 5.63 2.48 o
-7 0 6 160.27 157.92 11.88 o
-6 0 6 167.82 168.52 4.74 o
-5 0 6 114.02 115.22 2.82 o
-4 0 6 605.98 613.82 11.09 o
-3 0 6 83.96 94.04 7.25 o
-2 0 6 428.88 447.09 11.52 o
-1 0 6 977.64 1003.47 26.72 o
0 0 6 195.36 216.52 6.45 o
1 0 6 912.79 921.37 26.68 o
2 0 6 5.56 4.67 1.68 o
3 0 6 182.60 183.06 6.55 o
4 0 6 1367.23 1328.45 47.13 o
5 0 6 368.92 362.93 14.72 o
6 0 6 3.04 6.12 1.75 o
7 0 6 115.47 130.26 11.66 o
-10 1 6 143.81 132.37 12.61 o
-9 1 6 16.28 -0.87 2.70 o
-8 1 6 778.07 728.41 46.14 o
-7 1 6 344.57 340.49 14.65 o
-6 1 6 134.71 139.08 7.36 o
-5 1 6 76.41 74.13 4.12 o
-4 1 6 130.53 124.49 6.38 o
-3 1 6 1888.70 1825.01 39.35 o
-2 1 6 1039.70 1098.59 32.18 o
-1 1 6 8.64 8.73 1.09 o
0 1 6 1193.99 1290.32 33.95 o
1 1 6 7.06 11.35 1.93 o
2 1 6 3.63 3.89 1.60 o
3 1 6 460.37 452.59 17.79 o
4 1 6 34.93 31.71 4.08 o
5 1 6 95.30 96.95 11.59 o
6 1 6 16.60 23.33 4.59 o
7 1 6 2.52 2.41 2.92 o
-10 2 6 1.83 -2.70 5.54 o
-9 2 6 409.00 378.53 20.56 o
-8 2 6 680.08 673.37 41.40 o
-7 2 6 374.53 370.51 12.54 o
-6 2 6 0.78 2.54 1.13 o
-5 2 6 145.37 142.99 4.60 o
-4 2 6 2484.61 2503.52 64.47 o
-3 2 6 2125.58 2082.02 49.83 o
-2 2 6 32.65 40.48 3.64 o
-1 2 6 1477.26 1482.32 29.66 o
0 2 6 260.53 243.22 5.99 o
1 2 6 689.11 720.58 20.55 o
2 2 6 355.38 377.41 16.13 o
3 2 6 42.86 51.51 3.27 o
4 2 6 670.87 744.09 32.29 o
5 2 6 202.43 221.30 13.05 o
6 2 6 10.49 10.64 4.74 o
7 2 6 16.48 24.86 5.18 o
-10 3 6 21.16 21.43 4.74 o
-9 3 6 173.09 153.95 13.05 o
-8 3 6 5.60 4.69 1.40 o
-7 3 6 265.60 250.59 11.00 o
-6 3 6 35.67 32.68 3.10 o
-5 3 6 988.28 1004.39 28.84 o
-4 3 6 1394.22 1385.54 34.06 o
-3 3 6 5.00 2.78 1.64 o
-2 3 6 79.80 69.25 4.70 o
-1 3 6 605.30 616.74 17.71 o
0 3 6 1094.46 1121.83 26.35 o
1 3 6 410.88 409.87 12.15 o
2 3 6 6.74 4.86 1.65 o
3 3 6 748.15 774.19 27.41 o
4 3 6 413.35 444.57 27.99 o
5 3 6 76.39 87.03 7.65 o
6 3 6 8.40 12.32 4.59 o
-10 4 6 8.46 9.84 2.77 o
-9 4 6 63.63 75.81 6.41 o
-8 4 6 48.45 47.89 4.81 o
-7 4 6 17.78 23.73 2.89 o
-6 4 6 184.50 174.90 8.62 o
-5 4 6 53.09 47.50 2.63 o
-4 4 6 121.15 129.73 6.34 o
-3 4 6 105.21 108.71 5.79 o
-2 4 6 2.67 3.55 5.36 o
-1 4 6 5.97 8.38 2.77 o
0 4 6 1151.59 1158.33 42.79 o
1 4 6 72.15 64.45 4.05 o
2 4 6 342.34 366.14 15.41 o
3 4 6 713.84 694.30 46.94 o
4 4 6 53.38 38.56 4.81 o
5 4 6 0.09 -0.58 3.21 o
6 4 6 14.60 8.24 4.96 o
-9 5 6 266.28 281.00 24.13 o
-8 5 6 279.94 301.48 20.63 o
-7 5 6 295.44 318.69 18.00 o
-6 5 6 0.11 -1.31 3.43 o
-5 5 6 629.85 660.19 30.54 o
-4 5 6 1226.37 1231.09 48.84 o
-3 5 6 9.20 17.06 2.99 o
-2 5 6 0.82 8.75 3.21 o
-1 5 6 16.24 16.69 2.77 o
0 5 6 27.64 37.39 3.86 o
1 5 6 579.52 581.32 20.02 o
2 5 6 55.81 56.43 2.77 o
3 5 6 145.01 129.08 8.20 o
4 5 6 17.37 14.65 3.28 o
5 5 6 3.14 0.51 4.81 o
-9 6 6 245.09 273.28 18.30 o
-8 6 6 230.55 246.38 22.52 o
-7 6 6 1.56 0.22 3.86 o
-6 6 6 428.04 485.10 25.29 o
-5 6 6 338.29 350.10 19.90 o
-4 6 6 323.35 312.42 18.08 o
-3 6 6 73.39 76.17 6.34 o
-1 6 6 960.57 986.31 58.39 o
0 6 6 1292.83 1349.97 85.43 o
1 6 6 0.52 -2.41 2.41 o
2 6 6 229.35 240.59 11.52 o
3 6 6 204.83 211.94 15.01 o
4 6 6 29.46 34.62 5.47 o
-8 7 6 32.26 29.52 4.81 o
-7 7 6 72.26 79.60 7.44 o
-6 7 6 306.93 313.22 19.46 o
-5 7 6 105.05 98.11 9.18 o
-4 7 6 17.01 8.82 3.13 o
-3 7 6 6.37 10.42 3.43 o
-2 7 6 488.81 533.65 26.31 o
-1 7 6 433.20 484.59 28.94 o
0 7 6 60.59 69.90 7.07 o
1 7 6 163.49 169.93 10.14 o
2 7 6 139.26 135.91 9.10 o
3 7 6 78.76 83.81 6.51 o
-7 8 6 32.95 27.63 6.05 o
-6 8 6 14.80 5.18 3.50 o
-5 8 6 58.57 50.37 7.00 o
-4 8 6 26.32 27.92 5.54 o
-3 8 6 10.85 15.67 4.96 o
-2 8 6 74.31 82.51 7.58 o
-1 8 6 18.90 18.59 3.79 o
0 8 6 114.37 114.46 7.67 o
1 8 6 87.35 99.07 8.71 o
2 8 6 3.44 1.56 3.40 o
-6 9 6 145.55 135.80 15.60 o
-5 9 6 154.14 141.41 13.34 o
-4 9 6 42.74 51.68 6.71 o
-3 9 6 7.32 4.52 3.50 o
-2 9 6 291.65 334.65 33.38 o
-1 9 6 192.03 217.00 19.75 o
0 9 6 4.12 -0.21 2.59 o
-1 -9 7 12.02 5.47 4.59 o
0 -9 7 194.59 184.68 13.19 o
1 -9 7 402.32 407.76 31.78 o
-4 -8 7 3.91 2.19 5.10 o
-3 -8 7 25.31 27.04 4.88 o
-2 -8 7 9.60 4.43 2.19 o
-1 -8 7 2.25 0.06 1.72 o
0 -8 7 251.09 254.88 13.78 o
1 -8 7 191.87 191.85 14.65 o
2 -8 7 1.50 4.88 4.67 o
3 -8 7 392.69 374.60 34.11 o
4 -8 7 228.12 194.41 20.19 o
-5 -7 7 53.96 61.63 4.97 o
-4 -7 7 464.63 442.46 32.00 o
-3 -7 7 106.62 100.37 7.29 o
-2 -7 7 41.43 34.62 7.76 o
-1 -7 7 57.42 65.95 4.96 o
0 -7 7 0.12 3.50 3.50 o
1 -7 7 735.10 743.94 44.39 o
2 -7 7 455.56 462.94 29.89 o
4 -7 7 133.38 114.15 10.86 o
5 -7 7 0.80 3.94 3.86 o
-6 -6 7 0.22 -2.33 3.57 o
-5 -6 7 218.35 201.44 11.34 o
-4 -6 7 462.26 462.36 28.65 o
-3 -6 7 441.03 458.64 18.22 o
-2 -6 7 144.19 142.79 5.66 o
-1 -6 7 255.29 244.55 8.81 o
0 -6 7 1911.07 1989.75 95.13 o
1 -6 7 728.79 725.79 38.27 o
2 -6 7 26.39 32.95 4.59 o
3 -6 7 413.73 417.60 20.12 o
4 -6 7 56.52 57.80 6.92 o
5 -6 7 296.70 271.16 23.76 o
6 -6 7 87.09 86.16 9.26 o
-7 -5 7 2.87 -0.87 3.86 o
-6 -5 7 83.50 79.82 7.00 o
-5 -5 7 290.13 265.48 19.39 o
-4 -5 7 185.40 183.41 11.19 o
-3 -5 7 95.28 96.53 4.29 o
-2 -5 7 145.72 139.44 5.31 o
-1 -5 7 990.99 1031.11 33.39 o
0 -5 7 543.52 569.44 18.95 o
1 -5 7 4.48 2.11 2.41 o
2 -5 7 9.86 6.78 2.48 o
3 -5 7 252.92 263.07 14.87 o
4 -5 7 566.36 616.96 31.49 o
5 -5 7 390.66 367.67 29.89 o
6 -5 7 0.55 -1.68 3.86 o
-8 -4 7 149.04 178.22 18.15 o
-7 -4 7 387.91 394.20 28.21 o
-6 -4 7 3.27 -2.77 2.77 o
-5 -4 7 199.53 199.14 11.08 o
-4 -4 7 2.68 0.66 0.80 o
-3 -4 7 24.83 25.08 1.93 o
-2 -4 7 131.31 145.20 5.28 o
-1 -4 7 325.54 326.66 8.77 o
0 -4 7 21.85 18.81 1.46 o
1 -4 7 159.77 157.89 6.71 o
2 -4 7 30.03 29.74 2.99 o
3 -4 7 45.56 57.15 5.69 o
4 -4 7 626.42 661.94 29.67 o
5 -4 7 8.38 5.83 4.45 o
6 -4 7 382.83 399.82 34.62 o
7 -4 7 240.42 208.04 20.05 o
-9 -3 7 203.91 201.48 17.79 o
-8 -3 7 588.73 619.66 43.95 o
-7 -3 7 88.34 80.69 7.22 o
-6 -3 7 23.96 23.18 4.30 o
-5 -3 7 793.37 828.65 24.42 o
-4 -3 7 477.17 519.65 13.49 o
-3 -3 7 753.91 762.39 17.93 o
-2 -3 7 5.13 5.50 0.79 o
-1 -3 7 1092.86 1139.69 23.16 o
0 -3 7 991.08 985.94 28.92 o
1 -3 7 28.01 26.10 2.41 o
2 -3 7 10.01 13.56 2.84 o
3 -3 7 96.50 85.72 6.92 o
4 -3 7 131.25 125.74 6.12 o
5 -3 7 362.13 366.94 22.96 o
6 -3 7 93.91 85.94 8.24 o
7 -3 7 15.55 17.57 4.74 o
-9 -2 7 242.48 263.00 19.39 o
-8 -2 7 247.68 275.17 17.42 o
-7 -2 7 105.81 98.26 8.09 o
-6 -2 7 206.96 196.15 8.16 o
-5 -2 7 710.41 751.60 20.85 o
-4 -2 7 802.90 844.54 20.70 o
-3 -2 7 16.50 17.42 1.38 o
-2 -2 7 857.67 875.52 18.95 o
-1 -2 7 799.67 845.19 16.98 o
0 -2 7 564.93 594.33 12.02 o
1 -2 7 645.49 635.53 15.77 o
2 -2 7 155.93 153.73 5.54 o
3 -2 7 1061.10 1042.66 46.58 o
4 -2 7 1589.23 1557.65 71.14 o
5 -2 7 0.94 0.80 2.77 o
6 -2 7 255.53 249.22 20.34 o
7 -2 7 96.44 95.42 9.77 o
-9 -1 7 2.98 -3.15 3.15 o
-8 -1 7 294.36 304.23 23.87 o
-7 -1 7 101.22 102.46 6.23 o
-6 -1 7 40.57 40.27 3.86 o
-5 -1 7 175.09 178.47 4.47 o
-4 -1 7 158.78 158.62 5.21 o
-3 -1 7 313.86 321.38 8.09 o
-2 -1 7 1325.71 1362.80 38.85 o
-1 -1 7 1275.96 1289.98 26.17 o
0 -1 7 27.15 31.27 1.46 o
1 -1 7 2.57 4.30 0.73 o
2 -1 7 979.73 919.83 24.49 o
3 -1 7 1112.36 1188.46 45.76 o
4 -1 7 133.59 119.79 4.59 o
5 -1 7 197.82 191.42 7.95 o
6 -1 7 198.15 193.60 17.42 o
7 -1 7 97.39 93.16 12.03 o
-10 0 7 204.12 150.38 15.67 o
-9 0 7 447.57 445.08 36.81 o
-8 0 7 131.04 162.11 8.20 o
-7 0 7 29.84 28.47 1.71 o
-6 0 7 0.41 1.17 1.31 o
-5 0 7 3.06 6.71 1.75 o
-4 0 7 642.00 663.62 12.92 o
-3 0 7 1796.21 1820.34 33.74 o
-2 0 7 6.44 9.02 3.32 o
-1 0 7 279.09 263.69 7.20 o
0 0 7 181.03 178.65 5.11 o
1 0 7 389.06 383.34 14.80 o
2 0 7 539.85 557.99 19.83 o
3 0 7 32.06 28.87 4.81 o
4 0 7 406.88 393.43 23.51 o
5 0 7 166.63 150.60 13.70 o
6 0 7 111.36 116.12 10.79 o
7 0 7 23.09 22.16 5.32 o
-10 1 7 317.00 278.30 23.25 o
-9 1 7 173.71 178.81 14.51 o
-8 1 7 8.03 4.37 1.75 o
-7 1 7 13.89 8.97 1.60 o
-6 1 7 614.72 608.74 16.46 o
-5 1 7 2090.04 2141.81 44.90 o
-4 1 7 421.98 446.04 9.28 o
-3 1 7 706.67 723.36 30.65 o
-2 1 7 781.38 817.60 17.06 o
-1 1 7 331.75 343.15 10.18 o
0 1 7 224.60 235.36 9.05 o
1 1 7 296.33 278.03 11.28 o
2 1 7 278.42 258.77 13.12 o
3 1 7 529.33 530.66 27.04 o
4 1 7 137.11 144.33 10.57 o
5 1 7 1.12 -1.24 2.19 o
6 1 7 45.95 52.12 6.71 o
-10 2 7 8.92 17.20 6.92 o
-9 2 7 7.25 0.44 2.04 o
-8 2 7 37.03 34.92 3.35 o
-7 2 7 219.73 211.62 8.17 o
-6 2 7 1215.90 1224.68 37.36 o
-5 2 7 337.23 333.94 8.63 o
-4 2 7 292.98 292.80 16.22 o
-3 2 7 1438.02 1439.16 32.48 o
-2 2 7 612.59 615.39 16.66 o
-1 2 7 359.36 365.75 10.16 o
0 2 7 24.64 29.96 1.82 o
1 2 7 690.79 692.16 27.22 o
2 2 7 1416.71 1573.97 90.24 o
3 2 7 196.25 201.99 12.39 o
4 2 7 100.93 100.01 7.51 o
5 2 7 105.71 94.40 9.55 o
6 2 7 13.31 12.83 4.88 o
-10 3 7 41.25 20.99 5.90 o
-9 3 7 34.77 35.64 3.50 o
-8 3 7 131.22 125.23 6.34 o
-7 3 7 383.80 373.80 24.02 o
-6 3 7 74.56 70.70 4.92 o
-5 3 7 312.38 305.59 9.72 o
-4 3 7 1075.69 1117.33 29.79 o
-3 3 7 164.26 188.14 9.73 o
-2 3 7 55.92 60.78 2.80 o
-1 3 7 10.55 11.63 2.11 o
0 3 7 141.70 152.90 5.15 o
1 3 7 1228.60 1311.49 49.35 o
2 3 7 207.03 217.88 14.51 o
3 3 7 41.55 38.12 4.52 o
4 3 7 65.80 63.85 6.27 o
5 3 7 144.18 157.45 13.70 o
6 3 7 237.37 214.38 23.98 o
-9 4 7 72.34 76.03 6.49 o
-8 4 7 23.80 20.41 4.37 o
-7 4 7 16.73 21.94 3.21 o
-6 4 7 610.23 655.67 34.99 o
-5 4 7 111.70 103.07 6.92 o
-4 4 7 0.93 -1.02 1.90 o
-3 4 7 30.24 33.24 2.48 o
-2 4 7 118.55 127.27 5.69 o
-1 4 7 387.74 416.00 15.53 o
0 4 7 602.65 593.13 19.91 o
1 4 7 0.60 2.07 1.33 o
2 4 7 38.44 37.25 2.26 o
3 4 7 35.78 28.94 5.54 o
4 4 7 49.63 55.25 8.75 o
5 4 7 154.07 124.43 13.92 o
-9 5 7 12.94 16.77 4.08 o
-8 5 7 199.39 210.08 16.33 o
-7 5 7 718.14 759.91 49.71 o
-6 5 7 305.53 296.46 17.57 o
-5 5 7 251.76 250.46 15.31 o
-4 5 7 165.62 156.21 14.00 o
-3 5 7 71.42 68.52 4.74 o
-2 5 7 151.15 148.12 10.57 o
-1 5 7 20.39 25.00 3.35 o
0 5 7 0.55 -0.03 1.70 o
1 5 7 263.29 290.32 20.74 o
2 5 7 12.84 18.71 4.01 o
3 5 7 1.53 -2.19 2.19 o
4 5 7 5.56 12.10 4.52 o
-9 6 7 61.62 76.46 8.60 o
-8 6 7 259.79 289.68 24.49 o
-7 6 7 162.12 147.39 13.05 o
-6 6 7 12.18 7.51 4.23 o
-5 6 7 100.55 103.36 7.87 o
-4 6 7 381.28 374.30 23.40 o
-3 6 7 200.47 227.21 14.80 o
-2 6 7 277.68 286.25 19.68 o
-1 6 7 100.88 100.66 8.53 o
0 6 7 515.89 547.46 50.11 o
1 6 7 274.18 292.17 13.15 o
2 6 7 4.53 3.39 2.03 o
3 6 7 2.51 0.36 3.72 o
-8 7 7 46.03 56.35 6.78 o
-7 7 7 4.07 16.18 5.25 o
-6 7 7 25.73 19.68 4.67 o
-5 7 7 2.22 4.30 3.43 o
-4 7 7 216.60 219.33 17.28 o
-3 7 7 249.57 235.30 17.64 o
-2 7 7 19.15 20.26 4.01 o
-1 7 7 266.77 298.35 17.86 o
0 7 7 96.96 103.82 6.86 o
1 7 7 66.40 56.71 4.99 o
2 7 7 13.85 23.00 6.20 o
-6 8 7 8.32 7.51 5.32 o
-5 8 7 14.69 8.31 3.86 o
-4 8 7 8.84 3.64 3.43 o
-3 8 7 4.73 5.03 3.64 o
-2 8 7 106.20 112.47 10.13 o
-1 8 7 41.06 46.14 6.71 o
0 8 7 0.89 -0.22 4.26 o
1 8 7 0.26 11.03 4.05 o
-3 9 7 100.70 118.31 14.51 o
-2 -8 8 30.93 27.41 6.49 o
-1 -8 8 4.60 0.71 2.37 o
0 -8 8 211.93 204.07 14.08 o
1 -8 8 172.05 178.44 15.23 o
2 -8 8 7.10 8.31 5.39 o
-4 -7 8 0.62 1.58 2.74 o
-3 -7 8 4.01 -5.39 5.39 o
-2 -7 8 172.15 169.45 8.98 o
-1 -7 8 343.12 340.33 26.02 o
0 -7 8 95.17 96.26 5.50 o
1 -7 8 26.69 38.92 5.47 o
2 -7 8 13.83 14.51 3.79 o
3 -7 8 186.48 186.24 15.45 o
4 -7 8 125.65 113.64 12.10 o
-6 -6 8 70.73 71.95 7.07 o
-5 -6 8 2.53 4.30 3.06 o
-4 -6 8 12.99 15.21 2.77 o
-3 -6 8 228.01 241.67 11.64 o
-2 -6 8 838.55 883.99 34.06 o
-1 -6 8 377.22 382.43 17.97 o
0 -6 8 95.16 91.20 5.40 o
1 -6 8 1115.37 1104.91 70.20 o
2 -6 8 318.38 336.62 16.40 o
3 -6 8 40.19 57.51 6.85 o
4 -6 8 0.10 -1.38 3.21 o
5 -6 8 162.58 159.42 13.63 o
-7 -5 8 24.48 11.37 4.37 o
-6 -5 8 0.82 -4.45 4.45 o
-5 -5 8 53.22 50.95 6.85 o
-4 -5 8 126.26 137.40 6.62 o
-3 -5 8 733.17 756.45 23.57 o
-2 -5 8 242.59 226.28 12.68 o
-1 -5 8 352.97 344.58 12.61 o
0 -5 8 813.12 818.44 38.15 o
1 -5 8 184.56 183.47 12.76 o
2 -5 8 195.86 192.73 12.39 o
3 -5 8 9.03 11.81 3.21 o
4 -5 8 253.21 262.34 18.95 o
5 -5 8 745.34 791.98 64.80 o
-8 -4 8 2.98 1.17 5.69 o
-7 -4 8 213.17 234.93 19.61 o
-6 -4 8 18.35 19.90 4.08 o
-5 -4 8 123.90 113.64 9.55 o
-4 -4 8 187.01 181.50 6.85 o
-3 -4 8 7.19 4.46 1.00 o
-2 -4 8 696.12 666.04 18.53 o
-1 -4 8 201.93 205.90 6.39 o
0 -4 8 15.72 19.72 2.44 o
1 -4 8 32.07 28.74 2.37 o
2 -4 8 6.25 2.84 3.72 o
3 -4 8 254.92 281.37 16.62 o
4 -4 8 452.31 469.36 31.34 o
5 -4 8 24.21 28.94 5.39 o
6 -4 8 7.79 8.31 4.08 o
-8 -3 8 400.94 433.71 30.83 o
-7 -3 8 343.03 359.22 26.31 o
-6 -3 8 56.42 54.38 5.54 o
-5 -3 8 4.30 5.61 0.95 o
-4 -3 8 253.09 254.54 7.80 o
-3 -3 8 1278.29 1296.76 34.99 o
-2 -3 8 536.66 537.95 14.94 o
-1 -3 8 62.86 62.33 4.45 o
0 -3 8 651.90 650.91 16.44 o
1 -3 8 45.69 40.61 3.39 o
2 -3 8 142.19 137.11 6.49 o
3 -3 8 62.18 63.20 3.28 o
4 -3 8 8.67 4.81 3.50 o
5 -3 8 125.96 126.69 10.20 o
6 -3 8 64.20 58.75 7.44 o
-9 -2 8 111.17 125.52 11.74 o
-8 -2 8 165.37 157.30 14.29 o
-7 -2 8 159.37 164.08 11.15 o
-6 -2 8 154.76 158.10 6.92 o
-5 -2 8 226.39 221.23 8.75 o
-4 -2 8 1768.86 1882.38 64.51 o
-3 -2 8 1443.85 1482.28 39.80 o
-2 -2 8 241.61 238.21 5.90 o
-1 -2 8 574.96 589.63 14.80 o
0 -2 8 524.48 512.14 12.54 o
1 -2 8 241.58 236.97 7.22 o
2 -2 8 481.33 481.31 17.20 o
3 -2 8 73.23 64.66 3.55 o
4 -2 8 908.62 954.39 56.35 o
5 -2 8 248.04 235.88 16.91 o
6 -2 8 4.51 -4.81 4.81 o
-9 -1 8 8.07 7.73 7.51 o
-8 -1 8 24.66 26.18 4.48 o
-7 -1 8 7.54 5.67 3.46 o
-6 -1 8 139.52 139.23 4.59 o
-5 -1 8 817.30 866.19 24.64 o
-4 -1 8 21.19 25.15 1.46 o
-3 -1 8 109.48 106.93 3.64 o
-2 -1 8 2.29 5.10 1.17 o
-1 -1 8 65.43 63.27 2.48 o
0 -1 8 1240.39 1253.61 35.57 o
1 -1 8 1819.14 1787.04 83.90 o
2 -1 8 172.19 148.63 11.08 o
3 -1 8 1085.54 1077.50 67.43 o
4 -1 8 538.71 549.54 36.74 o
5 -1 8 3.89 6.49 4.45 o
6 -1 8 4.39 12.17 5.10 o
-9 0 8 101.84 52.70 8.31 o
-8 0 8 209.77 192.29 9.77 o
-7 0 8 128.19 116.74 10.93 o
-6 0 8 103.11 99.32 4.59 o
-5 0 8 28.60 22.05 1.54 o
-4 0 8 309.90 311.90 9.48 o
-3 0 8 38.38 34.43 2.99 o
-2 0 8 2.80 4.36 3.46 o
-1 0 8 396.42 418.39 13.70 o
0 0 8 24.26 19.75 2.70 o
1 0 8 100.85 93.30 5.76 o
2 0 8 601.50 628.92 32.51 o
3 0 8 9.74 1.31 2.55 o
4 0 8 2.85 1.68 2.77 o
5 0 8 11.10 4.67 2.77 o
6 0 8 33.52 22.89 6.20 o
-9 1 8 223.08 187.48 15.67 o
-8 1 8 356.75 333.56 16.69 o
-7 1 8 170.05 146.66 6.05 o
-6 1 8 7.90 7.35 1.13 o
-5 1 8 598.46 569.90 14.93 o
-4 1 8 900.48 897.58 23.35 o
-3 1 8 353.18 343.67 7.30 o
-2 1 8 13.23 10.16 2.11 o
-1 1 8 113.96 116.39 6.56 o
0 1 8 660.28 667.48 32.36 o
1 1 8 654.19 675.19 24.94 o
2 1 8 1.18 8.46 2.62 o
3 1 8 205.88 212.92 13.63 o
4 1 8 22.84 18.59 3.94 o
5 1 8 39.96 52.92 6.12 o
6 1 8 86.93 65.38 10.57 o
-9 2 8 118.63 114.15 11.44 o
-8 2 8 306.22 282.90 14.65 o
-7 2 8 66.74 55.72 8.05 o
-6 2 8 616.28 602.08 21.80 o
-5 2 8 857.39 831.42 34.48 o
-4 2 8 238.20 236.26 12.72 o
-3 2 8 43.97 41.05 3.32 o
-2 2 8 4.61 5.58 0.73 o
-1 2 8 2012.97 2103.83 71.29 o
0 2 8 1361.96 1398.81 74.28 o
1 2 8 5.46 1.31 2.77 o
2 2 8 466.94 415.18 15.93 o
3 2 8 190.65 164.74 12.46 o
4 2 8 97.52 114.95 10.86 o
5 2 8 91.85 111.82 10.13 o
-9 3 8 13.96 9.04 2.84 o
-8 3 8 34.99 31.27 3.43 o
-7 3 8 175.68 178.95 9.18 o
-6 3 8 148.09 137.04 6.56 o
-5 3 8 9.00 6.76 1.57 o
-4 3 8 83.32 75.08 3.57 o
-3 3 8 49.65 48.47 2.11 o
-2 3 8 574.10 554.79 16.33 o
-1 3 8 630.08 667.43 22.63 o
0 3 8 11.08 14.43 1.60 o
1 3 8 309.04 327.00 14.29 o
2 3 8 111.63 97.46 9.26 o
3 3 8 115.63 110.21 9.62 o
4 3 8 200.78 192.87 16.47 o
5 3 8 7.18 7.58 3.94 o
-9 4 8 98.95 93.45 7.36 o
-8 4 8 306.41 290.99 26.46 o
-7 4 8 75.09 74.72 6.34 o
-6 4 8 7.46 9.40 2.92 o
-5 4 8 456.02 441.73 26.39 o
-4 4 8 415.48 417.60 18.30 o
-3 4 8 57.63 55.91 3.79 o
-2 4 8 1.88 1.97 1.90 o
-1 4 8 335.39 317.01 16.22 o
0 4 8 87.50 94.15 3.67 o
1 4 8 21.67 18.59 4.30 o
2 4 8 1.29 3.28 2.77 o
3 4 8 79.28 95.05 9.55 o
4 4 8 15.67 2.92 3.64 o
-9 5 8 411.67 446.98 37.90 o
-8 5 8 119.55 107.08 10.20 o
-7 5 8 275.74 306.08 21.72 o
-6 5 8 601.92 653.48 42.72 o
-5 5 8 71.42 76.17 7.07 o
-4 5 8 127.15 133.10 8.53 o
-3 5 8 6.71 6.05 1.97 o
-2 5 8 183.76 199.22 10.64 o
-1 5 8 640.19 617.69 26.97 o
0 5 8 38.23 33.51 2.92 o
1 5 8 0.81 2.61 2.19 o
2 5 8 27.41 30.40 4.74 o
3 5 8 96.31 110.21 13.85 o
-8 6 8 180.80 167.58 17.64 o
-7 6 8 149.49 131.94 12.76 o
-6 6 8 57.70 61.30 8.09 o
-5 6 8 24.19 20.34 4.74 o
-4 6 8 25.99 21.28 4.88 o
-3 6 8 246.84 263.14 17.49 o
-2 6 8 580.13 681.91 46.43 o
-1 6 8 63.52 62.76 6.27 o
0 6 8 68.69 69.83 4.33 o
1 6 8 84.08 98.62 10.64 o
2 6 8 58.17 47.67 7.14 o
-7 7 8 0.72 -2.11 4.59 o
-6 7 8 0.88 8.67 5.32 o
-5 7 8 1.80 -1.38 4.08 o
-4 7 8 95.58 101.69 11.15 o
-3 7 8 106.21 123.19 12.39 o
-2 7 8 14.51 10.42 3.64 o
-1 7 8 5.77 5.25 3.86 o
0 7 8 22.28 23.69 4.37 o
1 7 8 71.91 59.70 8.60 o
-5 8 8 74.13 89.15 9.33 o
-4 8 8 22.89 15.60 6.20 o
-3 8 8 19.84 19.46 5.83 o
-2 8 8 96.04 102.92 12.46 o
-1 8 8 1.07 1.90 4.81 o
-3 -7 9 114.25 103.58 8.02 o
-2 -7 9 11.91 5.10 2.70 o
-1 -7 9 318.94 301.13 17.09 o
0 -7 9 308.87 289.71 19.83 o
1 -7 9 69.29 65.81 9.26 o
2 -7 9 1.92 3.35 3.35 o
-5 -6 9 121.56 104.38 11.95 o
-4 -6 9 387.47 381.74 28.28 o
-3 -6 9 10.83 12.12 5.98 o
-2 -6 9 447.84 470.83 21.43 o
-1 -6 9 388.80 401.41 21.08 o
0 -6 9 88.20 86.61 5.90 o
1 -6 9 28.51 25.79 2.60 o
2 -6 9 3.27 3.79 2.84 o
3 -6 9 566.86 560.47 53.87 o
-6 -5 9 5.78 6.34 4.23 o
-5 -5 9 76.83 88.27 9.04 o
-4 -5 9 5.05 0.80 4.01 o
-3 -5 9 252.51 271.95 12.75 o
-2 -5 9 227.26 239.11 8.93 o
-1 -5 9 31.55 31.93 2.22 o
0 -5 9 16.20 15.93 2.33 o
1 -5 9 34.66 29.40 3.11 o
2 -5 9 360.39 374.74 23.62 o
3 -5 9 425.69 424.75 35.64 o
4 -5 9 10.91 8.67 5.83 o
-7 -4 9 28.13 25.15 5.54 o
-6 -4 9 2.22 5.83 5.54 o
-5 -4 9 270.01 296.24 22.82 o
-4 -4 9 517.31 542.61 22.89 o
-3 -4 9 181.71 175.53 6.49 o
-2 -4 9 92.67 80.84 3.35 o
-1 -4 9 169.92 162.99 4.99 o
0 -4 9 123.81 115.34 4.32 o
1 -4 9 121.56 119.57 5.16 o
2 -4 9 216.06 222.61 12.03 o
3 -4 9 62.12 56.35 6.27 o
4 -4 9 202.78 210.22 17.71 o
5 -4 9 39.76 43.59 6.85 o
-8 -3 9 14.66 2.26 5.98 o
-7 -3 9 19.35 30.61 5.10 o
-6 -3 9 243.37 239.89 18.59 o
-5 -3 9 1025.13 1050.46 49.71 o
-4 -3 9 84.23 72.38 3.21 o
-3 -3 9 275.59 274.73 8.02 o
-2 -3 9 522.12 508.94 16.33 o
-1 -3 9 99.04 91.33 4.15 o
0 -3 9 680.52 629.36 24.78 o
1 -3 9 53.45 49.79 2.48 o
2 -3 9 655.43 630.52 27.99 o
3 -3 9 631.88 602.90 38.78 o
4 -3 9 35.60 43.52 5.90 o
5 -3 9 13.84 14.58 5.39 o
-8 -2 9 9.52 2.70 5.83 o
-7 -2 9 262.36 271.09 21.07 o
-6 -2 9 554.09 617.18 36.81 o
-5 -2 9 69.49 61.08 3.50 o
-4 -2 9 497.38 519.65 15.16 o
-3 -2 9 463.69 494.21 15.67 o
-2 -2 9 472.02 494.72 16.55 o
-1 -2 9 222.05 224.58 7.44 o
0 -2 9 63.54 56.78 2.84 o
1 -2 9 442.53 455.73 15.74 o
2 -2 9 833.13 843.59 46.58 o
3 -2 9 20.46 18.08 4.08 o
4 -2 9 6.06 5.90 4.88 o
5 -2 9 34.92 42.79 5.90 o
-8 -1 9 110.53 109.05 10.35 o
-7 -1 9 100.95 97.24 9.11 o
-6 -1 9 7.57 6.85 1.53 o
-5 -1 9 240.48 232.38 7.22 o
-4 -1 9 394.31 414.03 12.83 o
-3 -1 9 189.23 191.05 6.12 o
-2 -1 9 2.59 0.58 1.60 o
-1 -1 9 1.59 3.79 1.68 o
0 -1 9 573.85 625.27 33.82 o
1 -1 9 517.31 538.68 29.67 o
2 -1 9 100.53 106.93 8.82 o
3 -1 9 49.43 63.13 6.85 o
4 -1 9 58.76 53.07 6.71 o
5 -1 9 319.00 286.47 25.37 o
-9 0 9 73.45 72.16 9.91 o
-8 0 9 30.41 25.73 5.25 o
-7 0 9 142.97 121.38 16.84 o
-6 0 9 952.43 945.04 29.80 o
-5 0 9 240.42 218.01 10.64 o
-4 0 9 297.77 296.89 8.02 o
-3 0 9 47.53 47.43 2.92 o
-2 0 9 1.72 3.14 2.48 o
-1 0 9 235.08 233.11 14.07 o
0 0 9 385.17 410.61 22.89 o
1 0 9 9.44 5.90 2.77 o
2 0 9 134.22 129.31 9.48 o
3 0 9 23.15 23.54 4.96 o
4 0 9 51.01 47.82 6.63 o
5 0 9 112.72 101.54 11.52 o
-9 1 9 4.30 -0.66 4.23 o
-8 1 9 273.13 211.32 16.84 o
-7 1 9 676.62 665.22 30.03 o
-6 1 9 108.56 104.75 13.63 o
-5 1 9 137.95 125.32 4.43 o
-4 1 9 91.08 89.99 6.56 o
-3 1 9 192.31 191.37 6.56 o
-2 1 9 427.25 441.44 19.97 o
-1 1 9 231.10 225.09 15.67 o
0 1 9 265.43 299.88 17.28 o
1 1 9 654.49 668.43 42.35 o
2 1 9 89.89 86.31 7.29 o
3 1 9 8.12 11.15 4.37 o
4 1 9 2.21 6.34 4.67 o
5 1 9 32.97 30.25 7.36 o
-9 2 9 80.50 66.55 7.65 o
-8 2 9 358.99 323.94 22.09 o
-7 2 9 73.85 68.08 4.45 o
-6 2 9 0.12 -1.29 1.29 o
-5 2 9 159.05 158.57 5.83 o
-4 2 9 219.57 223.17 7.11 o
-3 2 9 553.02 550.66 15.51 o
-2 2 9 130.72 117.14 6.20 o
-1 2 9 224.56 271.31 15.16 o
0 2 9 520.31 568.64 32.80 o
1 2 9 234.59 239.09 15.74 o
2 2 9 24.73 24.78 4.37 o
3 2 9 0.79 -3.28 4.52 o
4 2 9 120.79 97.02 10.35 o
-9 3 9 52.74 31.71 7.73 o
-8 3 9 0.52 1.82 2.04 o
-7 3 9 108.81 103.22 6.71 o
-6 3 9 3.45 7.87 1.60 o
-5 3 9 6.45 4.08 1.68 o
-4 3 9 301.38 296.09 10.35 o
-3 3 9 283.12 266.13 9.18 o
-2 3 9 17.33 19.24 1.53 o
-1 3 9 941.08 949.36 40.16 o
0 3 9 111.63 105.84 9.40 o
1 3 9 3.70 2.48 3.35 o
2 3 9 1.14 9.48 4.15 o
3 3 9 42.64 45.19 5.90 o
4 3 9 267.86 282.24 26.10 o
-8 4 9 290.21 250.39 19.46 o
-7 4 9 61.39 49.06 4.88 o
-6 4 9 2.33 4.81 1.68 o
-5 4 9 0.74 1.90 1.60 o
-4 4 9 22.62 18.00 2.77 o
-3 4 9 487.33 446.61 17.49 o
-2 4 9 218.31 209.28 8.02 o
-1 4 9 29.64 27.19 3.86 o
0 4 9 104.03 82.73 8.38 o
1 4 9 12.17 10.28 4.74 o
2 4 9 6.90 10.50 3.86 o
3 4 9 78.82 68.59 9.33 o
-8 5 9 173.71 165.18 18.15 o
-7 5 9 112.29 110.43 11.30 o
-6 5 9 85.89 73.84 8.16 o
-5 5 9 294.26 310.45 22.82 o
-4 5 9 912.00 992.65 69.18 o
-3 5 9 208.62 207.02 17.79 o
-2 5 9 73.50 71.80 7.87 o
-1 5 9 240.23 256.87 20.85 o
0 5 9 44.14 52.85 6.12 o
1 5 9 55.66 55.91 8.02 o
2 5 9 45.44 44.10 7.14 o
-7 6 9 0.33 1.75 3.21 o
-6 6 9 93.26 82.30 9.69 o
-5 6 9 234.88 284.43 24.42 o
-4 6 9 219.43 217.22 20.70 o
-3 6 9 7.07 10.42 3.64 o
-2 6 9 87.86 75.81 8.89 o
-1 6 9 57.02 57.80 6.20 o
0 6 9 124.53 132.66 13.05 o
1 6 9 256.28 293.76 30.25 o
-5 7 9 47.30 62.47 7.36 o
-4 7 9 10.23 8.38 4.08 o
-3 7 9 40.45 37.47 7.51 o
-2 7 9 26.13 20.70 4.88 o
-1 7 9 46.86 35.43 8.24 o
-3 -6 10 84.58 56.71 8.02 o
-2 -6 10 10.96 7.65 3.06 o
-1 -6 10 53.46 49.79 4.67 o
0 -6 10 198.08 207.60 11.44 o
1 -6 10 476.89 466.15 27.12 o
-5 -5 10 113.94 105.04 9.91 o
-4 -5 10 29.13 24.49 5.61 o
-3 -5 10 34.49 30.83 3.35 o
-2 -5 10 20.84 14.21 2.84 o
-1 -5 10 10.69 4.96 2.62 o
0 -5 10 315.44 332.39 21.79 o
1 -5 10 98.32 83.17 9.40 o
2 -5 10 86.16 88.71 9.18 o
3 -5 10 260.55 251.63 22.01 o
-6 -4 10 68.09 66.70 7.87 o
-5 -4 10 47.73 46.58 5.90 o
-4 -4 10 418.50 398.72 25.51 o
-3 -4 10 44.54 45.05 3.94 o
-2 -4 10 9.60 9.55 1.97 o
-1 -4 10 5.53 7.87 2.11 o
0 -4 10 0.96 -1.90 1.90 o
1 -4 10 151.88 142.65 9.84 o
2 -4 10 168.16 149.14 11.95 o
3 -4 10 1.58 0.66 4.01 o
-7 -3 10 167.19 153.80 16.62 o
-6 -3 10 16.49 18.00 4.45 o
-5 -3 10 262.53 268.76 19.90 o
-4 -3 10 506.82 509.96 25.73 o
-3 -3 10 247.20 242.51 10.72 o
-2 -3 10 4.48 4.59 1.60 o
-1 -3 10 184.83 185.29 9.33 o
0 -3 10 1096.62 1105.78 41.84 o
1 -3 10 221.56 242.73 16.40 o
2 -3 10 30.20 18.73 4.15 o
3 -3 10 206.43 209.13 17.35 o
4 -3 10 18.90 10.86 5.25 o
-7 -2 10 2.71 9.55 5.98 o
-6 -2 10 288.39 297.55 23.62 o
-5 -2 10 348.16 347.92 20.05 o
-4 -2 10 19.68 13.78 2.19 o
-3 -2 10 56.51 44.39 2.92 o
-2 -2 10 65.34 76.39 4.45 o
-1 -2 10 551.82 579.64 25.22 o
0 -2 10 881.44 892.35 36.74 o
1 -2 10 1.56 0.07 2.99 o
2 -2 10 156.44 163.72 13.56 o
3 -2 10 151.55 144.04 13.85 o
4 -2 10 218.56 199.14 16.98 o
-8 -1 10 65.24 60.06 7.58 o
-7 -1 10 360.79 389.76 24.20 o
-6 -1 10 41.38 40.02 4.01 o
-5 -1 10 40.89 32.36 3.35 o
-4 -1 10 64.56 57.73 3.13 o
-3 -1 10 11.46 8.75 2.11 o
-2 -1 10 350.79 379.41 14.87 o
-1 -1 10 185.45 192.29 11.23 o
0 -1 10 48.11 43.44 5.61 o
1 -1 10 149.93 156.79 11.74 o
2 -1 10 66.22 70.85 7.73 o
3 -1 10 64.03 58.61 7.22 o
4 -1 10 112.64 100.23 10.35 o
-6 0 10 246.63 236.54 20.70 o
-5 0 10 206.09 192.87 15.74 o
-4 0 10 183.12 171.08 12.32 o
-3 0 10 262.74 271.46 13.36 o
-2 0 10 6.85 4.37 2.41 o
-1 0 10 347.81 348.28 26.53 o
0 0 10 370.72 368.91 25.37 o
1 0 10 12.06 11.81 3.50 o
2 0 10 5.95 10.13 4.23 o
3 0 10 1.07 13.41 5.90 o
-8 1 10 16.21 20.26 4.96 o
-7 1 10 176.23 159.27 8.97 o
-6 1 10 233.25 197.25 11.08 o
-5 1 10 265.18 271.02 18.30 o
-4 1 10 192.91 176.18 12.61 o
-3 1 10 0.25 -1.31 3.50 o
-2 1 10 783.28 813.12 42.64 o
-1 1 10 967.45 956.79 56.64 o
0 1 10 2.84 12.32 3.94 o
1 1 10 69.64 74.86 8.38 o
2 1 10 11.35 10.72 4.96 o
3 1 10 194.05 186.75 14.51 o
-8 2 10 165.62 133.98 13.27 o
-7 2 10 101.37 110.29 6.85 o
-6 2 10 13.19 12.32 2.33 o
-5 2 10 27.08 20.63 2.48 o
-4 2 10 9.50 0.87 1.90 o
-3 2 10 541.97 605.23 37.90 o
-2 2 10 287.23 315.26 19.03 o
-1 2 10 19.80 27.12 4.52 o
0 2 10 12.21 17.86 4.45 o
1 2 10 46.39 47.02 6.49 o
2 2 10 240.67 265.84 19.03 o
3 2 10 190.23 183.62 20.63 o
-8 3 10 31.21 24.56 3.64 o
-7 3 10 4.28 -0.07 2.62 o
-6 3 10 15.65 16.62 2.19 o
-5 3 10 164.32 154.24 14.80 o
-4 3 10 203.79 197.54 9.77 o
-3 3 10 70.74 67.86 3.50 o
-2 3 10 34.83 29.67 4.52 o
-1 3 10 40.36 43.81 5.18 o
0 3 10 9.92 10.57 4.67 o
1 3 10 92.72 98.04 10.79 o
2 3 10 116.20 102.85 10.35 o
-7 4 10 99.02 71.07 6.85 o
-6 4 10 25.43 16.62 2.70 o
-5 4 10 99.92 93.38 6.78 o
-4 4 10 60.65 53.21 4.52 o
-3 4 10 86.33 107.95 11.59 o
-2 4 10 114.26 124.06 11.23 o
-1 4 10 28.03 10.72 3.94 o
0 4 10 10.59 15.09 3.94 o
1 4 10 44.38 47.38 5.98 o
2 4 10 71.64 75.30 8.89 o
-7 5 10 36.68 25.95 4.15 o
-6 5 10 215.86 204.17 11.74 o
-5 5 10 33.24 25.73 3.43 o
-4 5 10 105.21 105.18 10.79 o
-3 5 10 368.60 358.27 31.27 o
-2 5 10 43.93 39.58 6.41 o
-1 5 10 0.58 -2.41 3.06 o
0 5 10 39.51 40.67 6.71 o
1 5 10 21.50 30.69 6.34 o
-5 6 10 91.43 99.28 11.01 o
-4 6 10 128.68 131.72 14.72 o
-3 6 10 28.66 28.36 6.71 o
-2 6 10 10.12 3.21 3.72 o
-1 6 10 8.67 10.42 4.30 o
-3 -5 11 3.43 6.92 3.64 o
-2 -5 11 21.15 16.04 2.70 o
-1 -5 11 31.02 30.10 3.72 o
0 -5 11 289.62 276.63 25.80 o
-4 -4 11 46.25 52.34 7.29 o
-3 -4 11 28.29 28.79 3.13 o
-2 -4 11 49.11 43.88 4.23 o
-1 -4 11 155.31 148.56 9.48 o
0 -4 11 150.15 134.49 11.59 o
1 -4 11 87.00 94.25 8.82 o
-5 -3 11 75.04 92.36 9.18 o
-4 -3 11 98.32 106.28 7.36 o
-3 -3 11 46.00 45.92 3.79 o
-2 -3 11 475.35 487.43 22.23 o
-1 -3 11 26.63 29.96 3.28 o
0 -3 11 262.45 263.94 20.70 o
1 -3 11 392.41 413.67 27.77 o
2 -3 11 44.17 47.09 7.44 o
-6 -2 11 5.97 12.68 4.30 o
-5 -2 11 34.24 30.32 3.57 o
-4 -2 11 216.82 234.57 12.10 o
-3 -2 11 681.33 734.10 36.52 o
-2 -2 11 49.84 50.37 3.64 o
-1 -2 11 403.58 411.77 22.38 o
0 -2 11 550.09 575.71 42.35 o
1 -2 11 19.36 19.97 5.18 o
2 -2 11 3.05 2.48 5.25 o
-7 -1 11 17.83 16.04 4.37 o
-6 -1 11 32.25 33.90 5.54 o
-5 -1 11 64.09 69.61 5.03 o
-4 -1 11 58.46 68.30 5.18 o
-3 -1 11 0.31 0.29 2.04 o
-2 -1 11 322.34 290.33 27.85 o
-1 -1 11 71.85 87.33 8.24 o
0 -1 11 12.26 2.92 4.37 o
1 -1 11 6.83 3.21 3.43 o
2 -1 11 141.17 116.48 13.34 o
-6 0 11 9.91 5.18 2.41 o
-5 0 11 1.63 0.51 3.35 o
-4 0 11 141.26 127.20 12.90 o
-3 0 11 357.45 375.91 26.31 o
-2 0 11 50.34 41.18 5.69 o
-1 0 11 32.74 25.51 5.47 o
0 0 11 13.22 9.84 4.08 o
1 0 11 19.58 19.10 4.96 o
2 0 11 64.56 50.37 7.80 o
-6 1 11 8.65 6.41 3.64 o
-5 1 11 263.55 304.11 22.82 o
-4 1 11 582.55 609.89 49.20 o
-3 1 11 229.39 234.50 17.64 o
-2 1 11 64.76 83.90 8.31 o
-1 1 11 162.86 159.27 14.21 o
0 1 11 92.78 104.02 10.06 o
1 1 11 166.99 168.09 16.18 o
2 1 11 106.59 91.70 11.30 o
-7 2 11 0.75 0.66 1.90 o
-6 2 11 5.21 8.16 2.48 o
-5 2 11 356.92 375.69 30.76 o
-4 2 11 180.43 181.87 14.51 o
-3 2 11 14.41 17.86 3.57 o
-2 2 11 106.56 128.36 12.03 o
-1 2 11 98.63 98.11 9.84 o
0 2 11 198.07 191.52 12.92 o
1 2 11 149.64 166.34 15.96 o
-6 3 11 22.48 23.69 3.50 o
-5 3 11 15.27 25.59 5.25 o
-4 3 11 78.25 54.09 6.92 o
-3 3 11 77.11 82.81 8.02 o
-2 3 11 1.58 2.62 3.43 o
-1 3 11 38.34 34.41 5.03 o
0 3 11 11.66 8.60 4.96 o
1 3 11 30.49 26.74 7.76 o
-6 4 11 6.34 5.83 4.88 o
-5 4 11 410.07 420.59 39.14 o
-4 4 11 155.67 147.90 15.31 o
-3 4 11 6.96 5.18 3.72 o
-2 4 11 14.78 16.11 5.76 o
-1 4 11 30.15 31.27 5.69 o
0 4 11 239.03 230.78 25.59 o
-4 5 11 2.26 0.66 4.45 o
-3 5 11 21.40 12.17 5.47 o
-2 5 11 48.36 45.78 6.71 o
-3 -3 12 17.21 18.37 3.35 o
-2 -3 12 308.24 286.47 26.61 o
-1 -3 12 170.44 172.68 14.65 o
-4 -2 12 26.40 14.21 3.43 o
-3 -2 12 137.95 141.27 9.33 o
-2 -2 12 185.21 185.59 15.02 o
-1 -2 12 1.15 3.06 3.35 o
0 -2 12 10.93 9.84 5.98 o
-5 -1 12 23.14 19.61 4.37 o
-4 -1 12 293.43 289.02 18.44 o
-3 -1 12 63.33 72.24 8.38 o
-2 -1 12 81.52 65.90 7.36 o
-1 -1 12 136.90 126.25 13.70 o
0 -1 12 21.92 27.85 6.41 o
-5 0 12 365.07 353.38 27.92 o
-4 0 12 6.26 -4.15 4.15 o
-3 0 12 287.49 301.27 24.05 o
-2 0 12 255.31 267.37 23.18 o
-1 0 12 3.25 2.99 3.28 o
0 0 12 0.70 -1.90 3.94 o
-5 1 12 0.02 2.77 3.43 o
-4 1 12 179.45 220.87 20.34 o
-3 1 12 146.57 155.41 13.70 o
-2 1 12 7.37 9.62 5.61 o
-1 1 12 25.60 22.82 5.76 o
0 1 12 0.40 -3.43 3.43 o
-5 2 12 278.21 261.47 25.29 o
-4 2 12 73.87 76.39 8.46 o
-3 2 12 5.39 4.30 3.79 o
-2 2 12 2.60 1.97 3.64 o
-1 2 12 1.20 5.47 5.69 o
-3 3 12 0.58 4.15 4.15 o
