#------------------------------------------------------------------------------
#$Date: 2019-11-11 18:52:43 +0200 (Mon, 11 Nov 2019) $
#$Revision: 226949 $
#$URL: file:///home/coder/svn-repositories/cod/cif/4/03/54/4035498.cif $
#------------------------------------------------------------------------------
#
# This file is available in the Crystallography Open Database (COD),
# http://www.crystallography.net/
#
# All data on this site have been placed in the public domain by the
# contributors.
#
data_4035498
loop_
_publ_author_name
'Bulut, Safak'
'Queen, Wendy L.'
_publ_section_title
;
 Catalyst-Free Synthesis of Aryl Diamines via a Three-Step Reaction
 Process.
;
_journal_issue                   7
_journal_name_full               'The Journal of organic chemistry'
_journal_page_first              3806
_journal_page_last               3818
_journal_paper_doi               10.1021/acs.joc.8b00151
_journal_volume                  83
_journal_year                    2018
_chemical_formula_sum            'C17 H16 N2 O4'
_chemical_formula_weight         312.32
_chemical_name_common            'CCDC 1540291_Compound 1_SB55_2_a'
_space_group_crystal_system      triclinic
_space_group_IT_number           2
_space_group_name_Hall           '-P 1'
_space_group_name_H-M_alt        'P -1'
_atom_sites_solution_hydrogens   mixed
_audit_creation_method           SHELXL-2014
_cell_angle_alpha                98.937(15)
_cell_angle_beta                 97.255(15)
_cell_angle_gamma                94.801(14)
_cell_formula_units_Z            2
_cell_length_a                   4.6227(8)
_cell_length_b                   11.994(2)
_cell_length_c                   13.207(2)
_cell_measurement_reflns_used    908
_cell_measurement_temperature    100(2)
_cell_measurement_theta_max      25.4530
_cell_measurement_theta_min      2.1390
_cell_volume                     713.6(2)
_computing_structure_refinement  'SHELXL-2014 (Sheldrick, 2014)'
_diffrn_ambient_temperature      100(2)
_diffrn_measured_fraction_theta_full 0.504
_diffrn_measured_fraction_theta_max 0.556
_diffrn_measurement_device_type
'dectris-CrysAlisPro-abstract goniometer imported dectris images'
_diffrn_measurement_method       '\w scans'
_diffrn_radiation_type           synchrotron
_diffrn_radiation_wavelength     0.7153
_diffrn_reflns_av_R_equivalents  0.0375
_diffrn_reflns_av_unetI/netI     0.0523
_diffrn_reflns_Laue_measured_fraction_full 0.504
_diffrn_reflns_Laue_measured_fraction_max 0.556
_diffrn_reflns_limit_h_max       5
_diffrn_reflns_limit_h_min       -5
_diffrn_reflns_limit_k_max       12
_diffrn_reflns_limit_k_min       -12
_diffrn_reflns_limit_l_max       15
_diffrn_reflns_limit_l_min       -15
_diffrn_reflns_number            2535
_diffrn_reflns_point_group_measured_fraction_full 0.504
_diffrn_reflns_point_group_measured_fraction_max 0.556
_diffrn_reflns_theta_full        25.416
_diffrn_reflns_theta_max         24.567
_diffrn_reflns_theta_min         1.587
_diffrn_source                   synchrotron
_exptl_absorpt_coefficient_mu    0.105
_exptl_crystal_colour            colourless
_exptl_crystal_density_diffrn    1.454
_exptl_crystal_description       needle
_exptl_crystal_F_000             328
_refine_diff_density_max         0.234
_refine_diff_density_min         -0.320
_refine_diff_density_rms         0.071
_refine_ls_extinction_method     none
_refine_ls_goodness_of_fit_ref   1.036
_refine_ls_hydrogen_treatment    mixed
_refine_ls_matrix_type           full
_refine_ls_number_parameters     214
_refine_ls_number_reflns         1308
_refine_ls_number_restraints     0
_refine_ls_restrained_S_all      1.036
_refine_ls_R_factor_all          0.0734
_refine_ls_R_factor_gt           0.0663
_refine_ls_shift/su_max          0.000
_refine_ls_shift/su_mean         0.000
_refine_ls_structure_factor_coef Fsqd
_refine_ls_weighting_details
'w=1/[\s^2^(Fo^2^)+(0.1338P)^2^] where P=(Fo^2^+2Fc^2^)/3'
_refine_ls_weighting_scheme      calc
_refine_ls_wR_factor_gt          0.1682
_refine_ls_wR_factor_ref         0.1756
_reflns_Friedel_coverage         0.000
_reflns_number_gt                1050
_reflns_number_total             1308
_reflns_threshold_expression     'I > 2\s(I)'
_cod_data_source_file            jo8b00151_si_002.cif
_cod_data_source_block           SB55_2_a
_cod_database_code               4035498
_shelx_space_group_comment
;
The symmetry employed for this shelxl refinement is uniquely defined
by the following loop, which should always be used as a source of
symmetry information in preference to the above space-group names.
They are only intended as comments.
;
_shelxl_version_number           2014-3
_shelx_res_file
;
TITL SB55_2_a.res in P-1
REM Old TITL SB55_2 in P-1

REM SHELXT solution in P-1
REM R1 0.174,  Rweak 0.003,  Alpha 0.031,  Orientation as input
REM Formula found by SHELXT:  C17 N2 O4

CELL  0.71530   4.6227  11.9945  13.2066   98.937   97.255   94.801
ZERR    2.000   0.0008   0.0021   0.0024    0.015    0.015    0.014
LATT  1
SFAC C H N O
UNIT 34.00 32.00 4.00 8.00
OMIT 1 -2 3
L.S. 10
BOND $H
LIST 6
ACTA
SHEL 100 0.86
FMAP 2
PLAN 20

WGHT    0.133800
FVAR       0.82750
O001  4   -0.468814    0.120087    0.941967    11.00000    0.04099    0.04023 =
         0.02407    0.00592   -0.00184    0.00360
H1    2    0.316416    0.029878    0.566480    11.00000    0.03282
O002  4    1.279075    0.410360    0.186893    11.00000    0.06028    0.03638 =
         0.02378    0.00328    0.00208    0.00014
O003  4    1.432014    0.530135    0.332421    11.00000    0.05365    0.04013 =
         0.02841    0.00624   -0.00433   -0.00422
O004  4   -0.253811    0.295996    0.983063    11.00000    0.05177    0.03930 =
         0.03161   -0.00110    0.00074    0.00192
N005  3    0.323002    0.105401    0.589688    11.00000    0.03806    0.03533 =
         0.02136    0.00522   -0.00617    0.00332
N006  3    0.607205    0.143111    0.468709    11.00000    0.03612    0.03670 =
         0.02019    0.00437   -0.00493    0.00513
C007  1   -0.138436    0.178350    0.837575    11.00000    0.03140    0.03564 =
         0.02008    0.00594   -0.00843    0.00827
C008  1    0.170807    0.133712    0.671709    11.00000    0.03435    0.03708 =
         0.01739    0.00305   -0.00905    0.01014
C009  1   -0.167998    0.071863    0.778239    11.00000    0.03657    0.03699 =
         0.02186    0.00827   -0.00830    0.00211
AFIX  43
H009  2   -0.292656    0.014128    0.794161    11.00000   -1.20000
AFIX   0
C00A  1    0.480236    0.178030    0.545469    11.00000    0.03640    0.03741 =
         0.02124    0.00794   -0.01000    0.00198
AFIX  43
H00A  2    0.496702    0.255293    0.571400    11.00000   -1.20000
AFIX   0
C00B  1    0.199928    0.240911    0.730148    11.00000    0.03631    0.03473 =
         0.02229    0.00645   -0.00377    0.00337
AFIX  43
H00B  2    0.324410    0.298741    0.714290    11.00000   -1.20000
AFIX   0
C00C  1   -0.290089    0.205888    0.926340    11.00000    0.03240    0.02777 =
         0.02478    0.00543   -0.00470    0.01396
C00D  1   -0.016427    0.050075    0.696317    11.00000    0.03717    0.03134 =
         0.02252    0.00311   -0.00710    0.00914
AFIX  43
H00D  2   -0.040164   -0.022162    0.656736    11.00000   -1.20000
AFIX   0
C00E  1    0.921226    0.279452    0.274688    11.00000    0.04324    0.04010 =
         0.01935    0.00362   -0.00457    0.00588
AFIX  43
H00E  2    0.908135    0.268164    0.202909    11.00000   -1.20000
AFIX   0
C00F  1    0.046099    0.261642    0.810911    11.00000    0.03719    0.02941 =
         0.02524    0.00322   -0.00564    0.00846
AFIX  43
H00F  2    0.066119    0.334387    0.849381    11.00000   -1.20000
AFIX   0
C00G  1    1.105348    0.368844    0.333378    11.00000    0.03644    0.02645 =
         0.02374    0.00393   -0.00560    0.00971
C00H  1    1.111732    0.385399    0.439264    11.00000    0.03579    0.03255 =
         0.02398    0.00104   -0.00927    0.00643
AFIX  43
H00H  2    1.231873    0.446151    0.480111    11.00000   -1.20000
AFIX   0
C00I  1    0.945608    0.314534    0.485055    11.00000    0.03747    0.03493 =
         0.01854    0.00269   -0.00610    0.01009
AFIX  43
H00I  2    0.952560    0.327727    0.556643    11.00000   -1.20000
AFIX   0
C00J  1    1.287884    0.444835    0.287036    11.00000    0.03912    0.02996 =
         0.02505    0.00327   -0.00459    0.01214
C00K  1    0.767562    0.223663    0.426896    11.00000    0.03437    0.03300 =
         0.02326    0.00568   -0.00660    0.00862
C00L  1    0.760073    0.208283    0.320226    11.00000    0.04251    0.03954 =
         0.02538    0.00360   -0.01105   -0.00178
AFIX  43
H00L  2    0.640892    0.147363    0.279236    11.00000   -1.20000
AFIX   0
C00M  1   -0.617866    0.142638    1.029734    11.00000    0.04396    0.05043 =
         0.02053    0.00720   -0.00187    0.00202
AFIX 137
H00C  2   -0.698646    0.213868    1.030278    11.00000   -1.50000
H00G  2   -0.482349    0.146065    1.091803    11.00000   -1.50000
H00J  2   -0.773108    0.083189    1.026302    11.00000   -1.50000
AFIX   0
C00N  1    1.451702    0.478364    0.133362    11.00000    0.07283    0.04208 =
         0.03128    0.00566    0.01076   -0.00030
AFIX 137
H00K  2    1.423320    0.446317    0.061104    11.00000   -1.50000
H00M  2    1.654888    0.480896    0.161006    11.00000   -1.50000
H00N  2    1.393656    0.553874    0.141771    11.00000   -1.50000
REM #####
AFIX   0
HKLF 4

REM  SB55_2_a.res in P-1
REM R1 =  0.0663 for    1050 Fo > 4sig(Fo)  and  0.0734 for all    1308 data
REM    214 parameters refined using      0 restraints

END

WGHT      0.1338      0.0000

REM Highest difference peak  0.234,  deepest hole -0.320,  1-sigma level  0.071
Q1    1  -0.4539  0.2242  1.0182  11.00000  0.05    0.23
Q2    1   1.3045  0.5001  0.4781  11.00000  0.05    0.23
Q3    1   0.7647  0.2884  0.4789  11.00000  0.05    0.22
Q4    1   0.8021  0.2854  0.5138  11.00000  0.05    0.21
Q5    1   0.6573  0.2309  0.5627  11.00000  0.05    0.20
Q6    1   0.2453  0.0318  0.4735  11.00000  0.05    0.20
Q7    1   0.8426  0.2973  0.5376  11.00000  0.05    0.19
Q8    1   0.4371  0.0707  0.2903  11.00000  0.05    0.19
Q9    1   1.5421  0.5773  0.1989  11.00000  0.05    0.19
Q10   1  -0.1791 -0.0493  0.5922  11.00000  0.05    0.19
Q11   1   0.3873  0.0783  0.4570  11.00000  0.05    0.19
Q12   1   1.1636  0.4567  0.6225  11.00000  0.05    0.19
Q13   1   1.4390  0.6057  0.4290  11.00000  0.05    0.19
Q14   1  -0.1753  0.1014  0.9557  11.00000  0.05    0.19
Q15   1   1.5803  0.5749  0.3082  11.00000  0.05    0.19
Q16   1   0.3155  0.1836  0.6759  11.00000  0.05    0.19
Q17   1   0.5981  0.0603  0.3885  11.00000  0.05    0.18
Q18   1   0.5144  0.2183  0.7360  11.00000  0.05    0.18
Q19   1   1.4243  0.3774  0.0371  11.00000  0.05    0.17
Q20   1  -0.2381  0.1453  0.8301  11.00000  0.05    0.17
;
_shelx_res_checksum              12165
_shelx_hkl_file
;
   0   0   1  342.36   12.95
   0   0  -1  340.14   12.96
   0   0   2    6.65    0.90
   0   0  -2    7.29    0.89
   0   0  -3  209.95    8.63
   0   0   3  210.03    8.60
   0   0  -4  516.34   19.92
   0   0   4  501.91   19.95
   0   0   6  512.98   20.41
   0   0  -6  504.81   20.24
   0   0   7  180.74    9.29
   0   0  -7  245.39    9.53
   0   0   8 1086.63   42.31
   0   0  -9    6.33    1.53
   0   0   9    6.39    1.68
   0   0  10    4.30    1.75
   0   0 -10    3.38    1.48
   0   0  12   15.54    2.47
   0   0 -12   12.16    2.08
   0   0  14    1.42    2.22
   0   0 -14    0.99    1.49
   0   0  15   48.40    4.12
   0   0 -15   44.98    3.81
   0  -1  15    1.34    2.08
   0   1 -15    0.99    1.45
   0  -1  14   23.99    3.00
   0   1 -14   23.15    2.71
   0  -1  12    1.31    1.64
   0   1 -12    1.58    1.57
   0   1 -11    1.50    1.43
   0  -1  11    2.16    1.86
   0  -1  10    4.70    1.78
   0   1 -10    3.87    1.56
   0  -1   9    4.07    1.65
   0   1  -9    2.87    1.43
   0  -1   8  150.90    7.33
   0   1  -8  148.19    7.25
   0  -1   7    7.65    1.58
   0   1  -7    6.71    1.42
   0  -1   6 1504.39   57.46
   0   1  -6 1507.27   57.40
   0  -1   5   36.79    2.60
   0   1  -5   39.77    2.59
   0  -1   4   39.37    2.51
   0   1  -4   40.08    2.46
   0  -1   3   17.93    1.56
   0   1  -3   21.80    1.59
   0  -1   1  116.71    4.37
   0   1  -1  100.68    4.30
   0  -1  -1  115.21    4.52
   0   1   1  111.50    4.54
   0   1   3  205.61    8.47
   0  -1  -3  203.09    8.39
   0  -1  -4  258.13   10.99
   0   1   4  276.45   11.06
   0   1   6    7.37    1.56
   0  -1  -6    6.82    1.42
   0  -1  -7   82.19    4.49
   0   1   7   79.56    4.56
   0   1   8    2.69    1.44
   0   1   9   38.97    3.24
   0  -1  -9   37.12    2.96
   0   1  10    7.66    2.01
   0  -1 -11  154.60    7.97
   0   1  11  165.52    8.33
   0   1  12   13.18    2.53
   0  -1 -12   13.60    2.24
   0  -1 -13   43.97    3.93
   0   1  13   71.15    4.78
   0   1  14    1.34    2.32
   0  -1 -14    0.81    1.47
   0   1  15    8.54    2.42
   0  -1 -15    5.81    1.91
   0  -2  15    0.35    2.17
   0   2 -15   -0.67    1.41
   0   2 -14   31.28    3.06
   0  -2  14   31.70    3.27
   0   2 -13   45.49    3.74
   0  -2  12   -0.22    1.67
   0   2 -12   -0.05    1.67
   0   2 -11    1.63    1.47
   0  -2  11    1.14    1.51
   0  -2  10   44.08    3.49
   0   2 -10   48.55    3.59
   0   2  -9  557.37   22.53
   0  -2   9  547.69   22.52
   0   2  -8    4.06    1.44
   0  -2   8    5.18    1.64
   0   2  -7  195.73    8.91
   0  -2   7  198.40    8.93
   0  -2   6   32.70    2.53
   0   2  -6   35.24    2.56
   0  -2   5   61.70    3.58
   0   2  -5   67.27    3.64
   0  -2   4  324.35   13.12
   0   2  -4  320.39   13.03
   0   2  -3    6.00    1.16
   0  -2   3    5.11    1.20
   0   2  -2  507.55   19.78
   0  -2   2  524.10   19.84
   0  -2   1 2465.02   90.15
   0   2  -1 2367.41   90.05
   0  -2   0  802.53   29.74
   0   2   0  775.57   29.85
   0  -2  -1 2068.40   78.09
   0   2   1 2109.47   78.11
   0   2   2  618.66   23.90
   0  -2  -2  628.54   23.76
   0  -2  -3   49.20    2.72
   0   2   3   52.34    2.90
   0   2   4  948.17   35.00
   0  -2  -4  869.86   35.06
   0  -2  -5    6.93    1.27
   0   2   5    6.59    1.36
   0  -2  -6   16.69    1.82
   0   2   7    2.47    1.32
   0  -2  -7    1.60    1.19
   0  -2  -8    1.03    1.17
   0   2   8    1.12    1.31
   0   2   9   84.40    4.88
   0  -2  -9   75.59    4.59
   0   2  10    8.85    2.22
   0  -2 -10   10.10    1.90
   0   2  11  389.66   16.87
   0   2  12   90.53    5.63
   0  -2 -12   85.00    5.23
   0  -2 -13    2.93    1.66
   0   2  13    3.44    2.12
   0   2  14    7.45    2.40
   0   2  15    5.20    2.23
   0  -2 -15    5.71    1.75
   0  -3  15   44.84    3.83
   0   3 -15   45.98    3.75
   0  -3  14   37.52    3.56
   0   3 -14   40.48    3.53
   0   3 -13   12.49    2.29
   0  -3  13   13.77    2.44
   0  -3  12  203.46    9.95
   0   3 -12  212.11    9.98
   0   3 -11  101.83    5.68
   0  -3  11   94.49    5.57
   0   3 -10    2.86    1.49
   0  -3  10    3.79    1.60
   0  -3   9   52.92    3.72
   0   3  -9   51.49    3.64
   0   3  -8  276.18   12.01
   0  -3   8  272.06   12.00
   0   3  -6    0.10    1.11
   0  -3   6    5.35    1.60
   0   3  -5  250.89   10.76
   0  -3   5  259.26   10.86
   0   3  -4    3.05    1.09
   0  -3   4    2.75    1.21
   0   3  -3   18.30    1.64
   0  -3   3   18.86    1.71
   0  -3   2  376.98   14.51
   0   3  -2  360.86   14.38
   0  -3   1    2.16    0.94
   0   3   2  954.11   36.42
   0   3   3    1.90    1.00
   0  -3  -3    1.67    0.92
   0   3   4  828.49   34.57
   0  -3  -4  933.65   34.15
   0  -3  -5  113.87    5.27
   0   3   5  101.01    5.32
   0   3   6    0.48    1.14
   0  -3  -6    0.38    1.04
   0  -3  -8   67.82    4.22
   0   3   8   73.78    4.44
   0   3   9   33.38    3.01
   0  -3  -9   32.45    2.83
   0   3  10  537.81   21.94
   0  -3 -10  516.15   21.59
   0   3  12  202.82   10.02
   0  -3 -13   11.70    2.22
   0   3  13   12.37    2.76
   0  -3 -14    2.44    1.50
   0   4 -15    0.22    1.50
   0  -4  15    0.71    1.80
   0   4 -13    0.05    1.67
   0  -4  13    1.23    1.74
   0  -4  12    4.38    1.74
   0   4 -12    4.01    1.70
   0  -4  10   35.98    3.04
   0   4 -10   32.27    2.90
   0  -4   8    1.28    1.20
   0   4  -8    1.86    1.19
   0   4  -7   52.06    3.39
   0  -4   7   51.73    3.47
   0  -4   6   50.68    3.30
   0   4  -6   45.79    3.05
   0   4  -5  304.14   12.73
   0  -4   5  306.85   12.77
   0   4  -3   62.73    3.37
   0  -4   3   65.52    3.60
   0  -4   2  712.72   26.96
   0   4  -2  689.35   26.76
   0  -4   0   54.71    2.56
   0   4   0   35.04    2.75
   0  -4  -1  498.24   18.44
   0   4   1  444.92   18.56
   0   4   2  691.69   24.94
   0  -4  -2  601.08   24.88
   0  -4  -3    0.80    0.76
   0   4   3    0.24    0.89
   0   4   5    3.49    1.35
   0  -4  -5    3.38    1.16
   0   4   6   25.39    2.58
   0  -4  -6   32.00    2.49
   0   4   7  177.32    8.50
   0  -4  -7  172.51    8.02
   0  -4  -8  326.53   14.09
   0   4   8  340.47   14.56
   0  -4 -10  257.03   11.80
   0   4  10  268.27   12.24
   0  -4 -11  202.53    9.87
   0   4  11  220.53   10.45
   0  -4 -12    4.87    1.67
   0   4  12    3.88    2.12
   0   5 -14    1.75    1.50
   0  -5  14    3.68    1.78
   0  -5  13    8.85    2.17
   0   5 -13    4.36    1.83
   0   5 -12    1.57    1.64
   0  -5  12    0.34    1.75
   0  -5  11   13.11    2.27
   0   5 -11   12.14    2.14
   0  -5  10   54.44    4.00
   0   5 -10   49.52    3.74
   0   5  -9    0.85    1.38
   0  -5   9    1.36    1.40
   0   5  -8   30.79    2.72
   0  -5   8   31.93    2.75
   0  -5   7   36.09    2.83
   0   5  -7   39.60    2.98
   0   5  -4  198.21    8.58
   0  -5   4  194.61    8.74
   0  -5   2    3.85    1.08
   0   5  -2    2.91    0.76
   0  -5   1  182.90    6.74
   0   5  -1  125.64    6.47
   0  -5   0  109.10    4.38
   0   5   0   70.61    4.20
   0  -5  -1    8.03    1.08
   0   5   1    5.53    1.19
   0  -5  -2  342.55   13.44
   0   5   2  331.66   13.66
   0   5   3  351.08   14.59
   0  -5  -3  366.54   14.33
   0  -5  -4   54.56    3.03
   0   5   4   51.68    3.30
   0  -5  -5    8.85    1.38
   0   5   5    7.67    1.66
   0   5   6   -0.28    1.19
   0  -5  -6    0.93    1.07
   0  -5  -7   52.55    3.43
   0   5   7   52.11    3.83
   0  -5  -8  527.14   22.05
   0   5   8  572.12   22.76
   0   5   9   42.70    3.72
   0  -5  -9   43.74    3.29
   0  -5 -10    0.89    1.58
   0   5  10    2.23    1.89
   0   5  11  173.41    8.91
   0  -5 -11  174.90    8.53
   0   6 -14   91.05    5.67
   0  -6  14   87.03    5.47
   0  -6  13  223.19   10.55
   0   6 -13  222.09   10.68
   0  -6  12   17.94    2.41
   0  -6   9    6.16    1.73
   0   6  -9    7.57    1.77
   0   6  -8   18.94    2.22
   0  -6   8   17.60    2.27
   0   6  -7   91.86    5.05
   0  -6   7   89.80    5.08
   0   6  -6 1133.22   44.33
   0  -6   6 1161.51   44.42
   0   6  -5  742.98   28.78
   0  -6   5  719.21   28.74
   0   6  -4    0.34    0.83
   0  -6   4    0.65    1.00
   0   6  -3  148.92    6.81
   0  -6   3  161.08    7.11
   0   6  -1    3.93    1.12
   0  -6   1    5.18    1.04
   0   6   0   23.50    2.12
   0  -6   0   27.84    1.94
   0  -6  -1   46.37    2.62
   0   6   1   39.85    2.72
   0   6   3  138.09    7.06
   0  -6  -3  170.50    6.88
   0  -6  -4   66.72    3.66
   0   6   4   69.75    4.09
   0  -6  -5    9.12    1.47
   0   6   5    6.49    1.63
   0   6   7  132.30    6.90
   0  -6  -7  132.41    6.63
   0   6   8   88.76    5.64
   0  -6  -8   88.33    5.12
   0   6   9  132.29    7.65
   0  -6  -9  140.38    7.11
   0  -7  14  227.58   11.06
   0   7 -14  240.85   11.23
   0   7 -13   20.77    2.75
   0  -7  13   23.18    2.77
   0  -7  12  134.07    7.38
   0   7 -12  145.23    7.51
   0  -7  11  223.20   10.74
   0   7 -11  232.22   10.80
   0   7  -9   78.04    4.90
   0  -7   9   76.99    4.82
   0  -7   8   69.57    4.45
   0   7  -7  140.20    6.98
   0  -7   7  137.13    6.96
   0   7  -6  130.64    6.78
   0  -7   6  148.88    6.93
   0   7  -4  301.44   13.60
   0  -7   4  355.08   13.88
   0  -7   3    4.03    1.21
   0   7  -3    4.57    1.15
   0   7  -2  111.29    5.69
   0  -7   2  131.84    5.83
   0   7  -1   16.04    1.85
   0  -7   1   11.62    1.51
   0  -7   0   62.00    3.38
   0  -7  -1  106.31    4.69
   0   7   1   82.26    4.77
   0  -7  -2   12.40    1.45
   0   7   2    9.37    1.51
   0  -7  -3    1.36    0.87
   0   7   3    1.80    1.18
   0   7   4   63.23    4.06
   0  -7  -4   70.13    3.85
   0   7   6   21.15    2.59
   0  -7  -6   22.29    2.10
   0   7   7  119.70    6.76
   0  -8  14   61.98    4.49
   0   8 -14   62.85    4.59
   0  -8  12   13.57    2.24
   0   8 -12   14.33    2.36
   0   8 -11    6.94    1.89
   0  -8  11    5.86    1.86
   0  -8  10  219.63   10.37
   0   8 -10  217.42   10.29
   0  -8   9    0.61    1.65
   0   8  -9    1.69    1.53
   0   8  -8   55.42    4.01
   0  -8   8   52.13    3.81
   0   8  -7    8.81    1.83
   0  -8   7   10.00    1.79
   0  -8   6    0.22    1.18
   0   8  -6    1.26    1.14
   0   8  -5   88.74    4.99
   0  -8   5   97.25    5.05
   0   8  -3   19.22    2.07
   0  -8   3   17.21    1.82
   0  -8   2    2.63    0.99
   0   8  -2    2.51    1.34
   0  -8   1    5.14    1.12
   0   8  -1    7.06    1.56
   0  -8   0    5.19    1.13
   0   8   0    6.27    1.48
   0  -8  -1   40.60    2.72
   0   8   1   32.73    2.71
   0   8   2    2.26    1.28
   0  -8  -2    3.16    1.02
   0   8   3   13.08    1.88
   0  -8  -3   14.36    1.56
   0   8   4   24.37    2.50
   0  -8  -4   29.72    2.24
   0   9 -13   28.40    3.03
   0  -9  13   22.25    2.79
   0  -9  12    8.32    2.03
   0   9 -12    7.87    2.05
   0  -9  11   27.53    2.87
   0  -9  10   22.14    2.65
   0   9 -10   30.24    3.02
   0   9  -8   -0.30    1.54
   0  -9   8    0.20    1.52
   0   9  -7   43.29    3.29
   0  -9   7   43.43    3.36
   0  -9   6   81.03    4.58
   0   9  -6   79.45    4.63
   0  -9   5    7.36    1.62
   0   9  -5    6.97    1.41
   0  -9   4   50.29    3.41
   0   9  -4   73.08    4.12
   0   9  -2   90.31    4.92
   0  -9   2   72.12    4.13
   0   9  -1   35.78    2.81
   0  -9   1   30.74    2.40
   0  -9   0    0.92    0.93
   0   9   0    1.80    1.42
   0   9   1    7.76    1.55
   0  -9  -1    6.32    1.26
   0  10 -13   15.86    2.50
   0 -10  13   15.21    2.40
   0  10 -11    9.03    2.08
   0 -10  11    8.39    1.82
   0 -10  10    0.70    1.41
   0  10 -10   -0.83    1.37
   0 -10   9    0.41    1.28
   0  10  -9    0.25    1.52
   0  10  -8   21.28    2.50
   0 -10   8   19.33    2.37
   0  10  -7   34.70    2.96
   0 -10   7   37.80    3.02
   0 -10   6    0.88    1.39
   0  10  -6    1.17    1.37
   0  10  -5   42.78    3.19
   0 -10   5   31.72    2.67
   0  10  -4  194.15    8.72
   0 -10   4  165.04    8.10
   1  -9   6   90.75    5.06
  -1   9  -7    0.74    1.54
   1  -9   7   -0.51    1.71
  -1   9  -8   74.84    4.68
   1  -9   8   69.59    4.62
   1  -9   9    0.05    1.77
  -1   9  -9    0.32    1.64
   1  -9  10   90.47    5.45
  -1   9 -10   86.67    5.44
   1  -9  12    3.32    1.81
   1  -9  13    6.26    1.71
  -1   8   0    0.41    0.74
   1  -8   0    0.33    0.56
   1  -8   1    0.88    0.69
  -1   8  -1    1.09    0.89
   1  -8   2    9.94    1.24
  -1   8  -2   12.71    1.36
   1  -8   3   20.61    1.92
  -1   8  -3   32.85    2.05
  -1   8  -4  188.76    7.97
   1  -8   4  165.85    7.93
   1  -8   5  122.16    6.28
  -1   8  -5  134.95    6.37
   1  -8   6   17.08    2.11
  -1   8  -6   20.22    2.24
  -1   8  -7  215.35    9.87
   1  -8   7  207.11    9.76
  -1   8  -8   45.37    3.62
   1  -8   8   45.85    3.53
  -1   8  -9  219.50   10.00
   1  -8   9  194.84    9.71
  -1   8 -10   56.08    4.07
   1  -8  10   45.92    3.74
   1  -8  11   39.75    3.50
  -1   8 -11   43.66    3.68
  -1   8 -12   47.84    3.88
   1  -8  12   43.14    3.65
  -1   8 -13   77.85    5.10
   1  -8  13   69.81    4.85
   1  -7  -3   12.39    1.08
  -1   7   3    9.37    1.11
   1  -7  -2    1.02    0.48
   1  -7   0  470.33   18.08
  -1   7  -1    0.97    0.74
   1  -7   1    0.52    0.61
   1  -7   2   54.91    3.18
  -1   7  -2   64.53    2.99
   1  -7   4   17.81    2.00
  -1   7  -4   22.44    1.88
  -1   7  -5   92.83    4.80
   1  -7   5   86.17    4.78
   1  -7   6   38.85    2.99
   1  -7   7    8.11    1.67
  -1   7  -7    6.67    1.66
   1  -7   9    7.53    1.92
  -1   7  -9    7.35    1.78
  -1   7 -11    1.78    1.58
   1  -7  11    1.44    1.54
   1  -7  12   51.93    4.01
  -1   7 -12   51.90    3.94
   1  -7  14    0.83    1.59
  -1   7 -14   -0.68    1.37
  -1   6   6  106.76    5.25
   1  -6  -6   96.40    4.90
   1  -6  -5   30.32    2.03
  -1   6   5   26.59    2.11
  -1   6   4  370.79   14.94
   1  -6  -4  376.16   14.72
   1  -6  -3    1.52    0.61
  -1   6   3    0.05    0.65
   1  -6  -2   49.63    2.13
  -1   6   2   39.97    2.14
   1  -6  -1   38.27    1.84
  -1   6   1   42.33    1.91
   1  -6   0  146.34    6.23
  -1   6   0  165.35    6.31
   1  -6   1    0.08    0.60
  -1   6  -1    0.43    0.56
  -1   6  -2  253.10    9.20
   1  -6   2  194.85    9.05
  -1   6  -3    0.76    0.85
   1  -6   3    1.84    1.00
   1  -6   4  129.93    6.23
  -1   6  -4  141.44    6.38
  -1   6  -5    7.22    1.36
   1  -6   5    7.61    1.52
  -1   6  -7   30.24    2.64
   1  -6   7   27.72    2.59
  -1   6  -8   25.42    2.61
   1  -6   8   25.45    2.58
  -1   6  -9    0.95    1.46
   1  -6   9    1.31    1.48
   1  -6  10   -0.10    1.58
  -1   6 -10    0.53    1.59
   1  -6  11   59.85    4.42
  -1   6 -11   65.20    4.44
   1  -6  12   34.02    3.26
  -1   6 -12   35.12    3.34
  -1   6 -13   12.09    2.29
   1  -6  13   11.56    2.37
  -1   6 -14    9.44    2.17
   1  -6  14   10.53    2.17
  -1   5   7   44.19    3.27
   1  -5  -6    2.45    0.93
  -1   5   6    3.16    1.24
   1  -5  -5   16.44    1.47
  -1   5   5   18.16    1.64
  -1   5   4  401.76   15.24
   1  -5  -4  370.65   15.09
  -1   5   2   66.45    2.81
   1  -5  -2   63.83    2.81
  -1   5   0   21.32    1.18
   1  -5   0   23.59    1.16
  -1   5  -2   84.66    3.85
   1  -5   2   80.54    3.90
  -1   5  -3   36.77    2.25
   1  -5   3   31.78    2.26
   1  -5   5   21.56    2.09
  -1   5  -5   21.92    1.98
  -1   5  -6    1.73    1.18
   1  -5   6    1.66    1.19
   1  -5   7   42.56    3.20
  -1   5  -7   46.74    3.26
   1  -5   8    0.27    1.27
  -1   5  -8    1.29    1.34
  -1   5  -9    1.68    1.50
   1  -5   9    2.68    1.48
   1  -5  10   67.16    4.69
  -1   5 -10   70.19    4.66
   1  -5  11   23.07    2.69
  -1   5 -11   27.05    2.79
   1  -5  13   19.57    2.72
  -1   5 -13   17.29    2.54
   1  -5  14   16.78    2.52
  -1   5 -14   17.69    2.52
   1  -4  -9  231.80   10.70
  -1   4   9  253.66   11.18
   1  -4  -7   19.11    1.88
  -1   4   7   19.19    2.17
  -1   4   6  253.70   10.95
  -1   4   5   69.19    3.68
  -1   4   4    7.08    1.10
  -1   4   2    0.98    0.40
   1  -4   1   70.53    3.30
  -1   4  -1   78.97    3.31
   1  -4   2  895.71   34.57
  -1   4  -2  921.15   34.55
   1  -4   3  158.72    7.07
  -1   4  -3  172.75    7.18
   1  -4   5   10.69    1.71
  -1   4  -5   14.08    1.69
   1  -4   6  177.45    8.26
  -1   4  -6  180.03    8.23
  -1   4  -7   18.52    2.11
   1  -4   7   19.69    2.16
   1  -4   8    7.96    1.70
  -1   4  -8    7.28    1.67
  -1   4 -11    0.37    1.71
   1  -4  11    0.70    1.74
  -1   4 -12   94.46    5.75
   1  -4  12   93.98    5.73
   1  -4  13    4.12    1.76
  -1   4 -13    5.73    1.81
   1  -4  14   57.27    4.39
  -1   4 -14   57.77    4.28
  -1   3  11   45.27    3.70
   1  -3 -11   41.92    3.41
  -1   3  10   65.88    4.45
  -1   3   9   37.59    3.10
   1  -3  -9   36.48    2.87
  -1   3   7  124.25    6.30
   1  -3  -7  131.80    6.21
  -1   3   6    7.91    1.35
   1  -3  -6    8.30    1.26
   1  -3  -5    0.75    0.84
  -1   3   5    0.07    0.94
  -1   3   4   13.90    1.48
   1  -3  -4   13.77    1.33
   1  -3  -2   23.87    1.18
  -1   3   2   21.53    1.25
   1  -3   1  621.27   23.58
  -1   3  -2 3006.31  112.24
   1  -3   2 2993.85  112.27
   1  -3   3  501.68   19.90
  -1   3  -3  516.11   19.86
  -1   3  -5  207.82    9.05
  -1   3  -6  521.01   21.62
   1  -3   6  563.79   21.83
   1  -3   7   42.61    3.17
  -1   3  -8  178.05    8.51
   1  -3   8  180.14    8.56
   1  -3   9    4.56    1.67
  -1   3  -9    5.04    1.66
   1  -3  10   60.68    4.26
  -1   3 -10   59.75    4.22
   1  -3  11  112.23    6.47
  -1   3 -11  116.93    6.43
  -1   3 -12    6.37    1.88
   1  -3  12    5.61    1.90
   1  -3  13   41.82    3.68
  -1   3 -13   42.24    3.61
  -1   3 -14   10.24    2.19
   1  -3  14   11.89    2.42
   1  -2 -13   61.96    4.30
  -1   2  13   68.91    4.67
  -1   2  11    1.47    1.74
   1  -2 -11    0.75    1.44
  -1   2  10   36.00    3.18
  -1   2   9   44.67    3.19
   1  -2  -9   36.88    2.90
  -1   2   7  292.99   12.83
   1  -2  -7  307.64   12.77
   1  -2  -6 1282.02   53.16
  -1   2   6 1547.88   53.47
   1  -2  -5    4.09    1.02
  -1   2   5    3.68    1.10
  -1   2   4   37.18    2.41
   1  -2  -4   44.22    2.41
  -1   2   2    0.53    0.64
   1  -2  -2    1.71    0.56
   1  -2   0 2230.90   83.24
  -1   2  -1 2749.46  103.14
   1  -2   1 2771.02  103.15
  -1   2  -2 5707.43  212.62
   1  -2   2 5691.43  212.65
   1  -2   3 4552.78  171.26
  -1   2  -3 4605.02  171.20
   1  -2   5  174.94    8.03
  -1   2  -5  183.71    8.05
  -1   2  -6  199.20    8.87
   1  -2   6  192.01    8.83
  -1   2  -7   67.28    3.99
   1  -2   7   62.00    4.00
   1  -2   8  401.49   16.75
  -1   2  -8  391.95   16.62
   1  -2   9   45.79    3.46
  -1   2  -9   41.09    3.25
   1  -2  10    5.31    1.70
   1  -2  11   97.06    5.72
  -1   2 -11   91.23    5.52
   1  -2  12   19.14    2.67
  -1   2 -12   19.56    2.61
  -1   2 -13    1.66    1.66
   1  -2  13    0.41    2.12
  -1   2 -14    0.89    1.59
   1  -2  14    0.90    2.41
   1  -1 -15    0.27    1.57
  -1   1  15    1.28    1.89
  -1   1  14   22.41    2.99
   1  -1 -14   19.98    2.71
  -1   1  13   34.93    3.31
   1  -1 -13   31.84    3.06
  -1   1  11    7.75    1.93
   1  -1 -11    7.19    1.76
  -1   1   9   67.26    4.34
   1  -1  -9   66.21    4.10
  -1   1   7    2.94    1.27
   1  -1  -7    3.34    1.18
  -1   1   6  895.97   33.60
   1  -1  -6  835.42   33.38
  -1   1   5  145.53    6.96
   1  -1  -5  174.64    7.05
  -1   1   4  336.88   15.19
   1  -1  -4  429.26   15.34
   1  -1  -2  153.60    5.52
  -1   1   2  110.46    5.63
   1  -1  -1  503.68   19.27
  -1   1   1  507.30   19.20
   1  -1   0  151.57    5.60
  -1   1   0  123.10    5.50
  -1   1  -2 9999.00  371.68
   1  -1   2 9954.17  371.79
   1  -1   3 1038.89   40.17
  -1   1  -3 1065.60   40.14
   1  -1   4  170.30    7.67
  -1   1  -4  175.22    7.71
   1  -1   5   21.87    2.11
  -1   1  -5   21.74    2.05
   1  -1   6   23.75    2.51
  -1   1  -6   24.49    2.30
   1  -1   7  136.88    6.99
  -1   1  -7  147.54    6.98
  -1   1  -8    2.38    1.33
   1  -1   8    1.21    1.39
   1  -1   9   10.52    1.99
  -1   1  -9   10.05    1.84
   1  -1  10   38.38    3.34
  -1   1 -10   41.16    3.23
  -1   1 -11   73.86    4.76
   1  -1  11   77.39    5.17
   1  -1  12    1.63    1.86
   1  -1  13   31.12    3.27
  -1   1 -13   30.55    3.03
   1  -1  14  112.35    6.40
  -1   1 -14   95.03    5.94
  -1   0  15   12.13    2.67
   1   0 -15   10.37    2.27
  -1   0  14   96.60    6.17
   1   0 -14   98.92    5.97
  -1   0  13   33.98    3.39
   1   0 -13   30.01    3.10
   1   0 -12   79.52    5.06
  -1   0  12   90.62    5.45
  -1   0  11   40.46    3.38
   1   0 -11   38.31    3.15
  -1   0   9   32.58    2.59
   1   0  -9    4.45    1.50
   1   0  -8    4.29    1.46
  -1   0   8    4.47    1.58
  -1   0   7  383.61   15.11
   1   0  -7  336.95   14.75
  -1   0   4  229.52   10.10
   1   0  -4  243.90    9.99
   1   0  -3   13.96    1.41
  -1   0   3    4.05    1.52
   1   0  -2    8.21    0.95
  -1   0   2    3.89    1.19
   1   0   0   18.29    1.50
  -1   0   0   19.15    1.37
  -1   0  -1  718.52   27.23
   1   0   1  708.01   27.33
  -1   0  -2 5769.61  215.83
   1   0   2 5800.45  215.96
  -1   0  -3   42.78    2.53
   1   0   3   42.42    2.64
  -1   0  -4    0.47    0.96
   1   0   4    0.63    1.15
   1   0   5    4.73    1.39
  -1   0  -5    5.57    1.35
   1   0   6  173.62    8.05
  -1   0  -6  168.26    7.85
   1   0   7  100.11    5.51
  -1   0  -7   96.46    5.26
  -1   0  -8    1.42    1.29
   1   0   8    0.84    1.37
  -1   0  -9   16.61    2.18
   1   0   9   17.17    2.24
  -1   0 -10   68.18    4.47
   1   0  10   63.83    4.56
  -1   0 -11    0.40    1.42
   1   0  11    1.87    1.72
   1   0  13    0.61    2.22
  -1   0 -14   22.57    2.82
   1   0  14   25.26    3.18
  -1  -1  15    0.49    1.83
   1   1 -15   -0.53    1.37
  -1  -1  14   36.39    3.62
   1   1 -14   28.65    3.11
  -1  -1  13    6.54    1.89
   1   1 -13    4.67    1.57
   1   1 -12    4.01    1.69
  -1  -1  12    5.83    1.92
  -1  -1  11  112.34    6.36
   1   1 -11  114.78    6.19
   1   1 -10    3.46    1.48
  -1  -1  10    2.26    1.53
  -1  -1   8    1.69    1.33
   1   1  -8    0.11    1.08
  -1  -1   7  107.52    5.45
   1   1  -7   98.27    5.25
  -1  -1   6  569.60   21.89
   1   1  -6  520.20   21.67
   1   1  -5  101.85    4.96
  -1  -1   5   99.59    5.25
  -1  -1   4    4.30    1.39
   1   1  -4    5.75    1.26
  -1  -1   3  159.20    7.15
   1   1  -3  160.57    6.83
   1   1  -2   90.81    3.97
  -1  -1   2   79.94    4.30
   1   1  -1   62.38    3.23
  -1  -1   1   57.25    3.02
  -1  -1   0  147.35    6.29
   1   1   0  150.44    6.50
  -1  -1  -1 1472.01   55.74
   1   1   1 1482.57   55.86
  -1  -1  -2  468.63   18.47
   1   1   2  477.68   18.64
   1   1   4  279.60   11.74
  -1  -1  -4  275.26   11.47
  -1  -1  -5  708.19   28.65
   1   1   5  769.65   29.06
   1   1   7  174.08    8.54
  -1  -1  -7  181.28    8.35
   1   1   8   46.88    3.69
  -1  -1  -8   47.96    3.38
  -1  -1  -9    0.05    1.33
   1   1   9    0.67    1.50
  -1  -1 -10   31.49    2.99
   1   1  10   28.26    3.14
  -1  -1 -11    0.71    1.55
   1   1  11    2.05    1.81
   1   1  12   85.36    5.47
  -1  -1 -12   76.82    4.90
  -1  -1 -13  230.68   10.81
   1   1  14    6.57    2.30
  -1  -2  15   99.44    6.16
   1   2 -15   96.75    5.93
  -1  -2  14   43.42    3.74
   1   2 -14   40.63    3.58
   1   2 -13   -0.37    1.75
  -1  -2  13    2.12    1.87
   1   2 -12   33.95    3.12
  -1  -2  12   35.36    3.34
  -1  -2  11   10.88    2.08
   1   2 -11   10.33    1.92
  -1  -2  10   46.26    3.43
   1   2 -10   41.49    3.24
  -1  -2   9   76.58    4.73
   1   2  -9   83.43    4.76
  -1  -2   8  119.55    6.19
   1   2  -8  123.62    6.28
  -1  -2   6  173.00    7.85
   1   2  -6  164.56    7.66
  -1  -2   5   16.36    1.90
   1   2  -5   15.82    1.69
  -1  -2   3  545.84   21.21
   1   2  -3  535.62   21.09
   1   2  -2   11.79    1.38
  -1  -2   2   12.96    1.39
  -1  -2   1  110.89    5.09
   1   2  -1  118.60    5.39
   1   2   0   52.84    3.03
  -1  -2   0   46.39    2.75
  -1  -2  -1  519.86   20.75
   1   2   1  550.47   20.99
  -1  -2  -2    1.35    0.98
   1   2   2    2.01    1.17
   1   2   3   45.75    2.97
  -1  -2  -3   42.91    2.65
   1   2   4  104.37    5.36
  -1  -2  -4  105.55    5.12
   1   2   5   87.73    4.95
  -1  -2  -5   87.96    4.60
   1   2   6   35.56    2.93
  -1  -2  -6   31.71    2.59
  -1  -2  -7    2.39    1.40
   1   2   7    1.76    1.46
   1   2   9  157.83    8.27
  -1  -2  -9  149.73    7.63
   1   2  11   40.43    3.54
  -1  -2 -11   37.13    3.25
   1   2  12   72.07    4.91
  -1  -2 -12   67.22    4.51
  -1  -2 -14   41.03    3.50
   1   2  14   45.92    4.10
  -1  -3  15    0.75    1.66
   1   3 -15    0.62    1.49
  -1  -3  12   50.54    3.89
   1   3 -12   46.23    3.76
   1   3 -11   98.10    5.71
  -1  -3  11  101.34    5.75
  -1  -3  10    0.73    1.41
   1   3 -10    0.68    1.33
  -1  -3   9    6.70    1.63
   1   3  -9    6.26    1.53
   1   3  -8    1.21    1.21
  -1  -3   8    0.74    1.28
   1   3  -7   18.28    1.99
  -1  -3   7   18.23    2.03
  -1  -3   6  108.19    5.43
   1   3  -6   96.80    5.12
   1   3  -5  711.60   28.77
  -1  -3   5  767.13   28.97
   1   3  -4   27.41    2.06
  -1  -3   4   32.78    2.35
   1   3  -2  260.63   11.32
  -1  -3   2  282.18   11.23
   1   3  -1   30.99    2.47
  -1  -3   1   27.93    2.08
   1   3   0  256.14   10.39
  -1  -3   0  225.85   10.01
  -1  -3  -2  511.78   19.90
   1   3   2  494.92   20.09
  -1  -3  -3  316.84   12.97
   1   3   3  318.83   13.33
   1   3   4  335.98   13.71
  -1  -3  -4  314.10   13.30
   1   3   6   75.20    4.69
  -1  -3  -6   72.88    4.28
   1   3   7  284.70   12.86
   1   3   8  126.16    6.92
  -1  -3  -8  129.29    6.72
  -1  -3  -9   45.28    3.43
   1   3   9   40.01    3.76
   1   3  10  335.92   14.86
  -1  -3 -10  323.99   14.32
  -1  -3 -11   29.78    2.97
   1   3  11   31.22    3.27
   1   3  12  164.65    8.39
  -1  -3 -12  149.01    7.82
   1   3  13    3.45    1.93
  -1  -3 -13    1.72    1.49
  -1  -4  15   39.61    3.59
   1   4 -15   39.00    3.48
  -1  -4  14   24.43    3.05
   1   4 -14   24.66    2.95
   1   4 -13    2.64    1.66
  -1  -4  13    2.41    1.89
  -1  -4  12  542.76   22.12
   1   4 -12  516.90   21.92
  -1  -4  10   15.54    2.22
   1   4 -10   14.24    2.09
  -1  -4   9   38.20    3.08
   1   4  -9   39.86    3.07
  -1  -4   8   24.65    2.40
   1   4  -8   24.99    2.39
  -1  -4   7   72.25    4.27
   1   4  -7   66.80    4.06
   1   4  -5   69.83    3.95
  -1  -4   5   81.17    4.34
   1   4  -4 1739.56   67.36
  -1  -4   4 1820.45   67.51
  -1  -4   3   51.22    2.98
   1   4  -3   43.21    2.77
   1   4  -2   93.55    4.67
  -1  -4   2   91.20    4.56
   1   4  -1   92.32    4.54
  -1  -4   1   74.57    4.09
   1   4   0  327.15   12.89
  -1  -4   0  289.35   12.47
  -1  -4  -1  836.24   33.97
   1   4   1  952.30   34.45
  -1  -4  -2    2.62    1.04
   1   4   2    2.48    1.30
   1   4   3  151.41    7.28
  -1  -4  -3  153.40    6.95
   1   4   4  837.24   32.96
  -1  -4  -5  177.94    8.02
   1   4   6   10.57    1.92
  -1  -4  -6   10.05    1.58
  -1  -4  -8    0.50    1.34
   1   4   8    0.38    1.59
   1   4   9  402.60   17.13
  -1  -4  -9  379.84   16.55
   1   4  10  128.80    7.37
  -1  -4 -10  130.22    6.85
   1   4  12   17.39    2.89
  -1  -4 -12   19.88    2.61
   1   4  13   61.11    4.89
  -1  -4 -13   64.69    4.48
   1   5 -15    3.42    1.80
  -1  -5  15    3.80    1.84
   1   5 -14   15.85    2.55
  -1  -5  14   16.18    2.58
  -1  -5  13   39.58    3.47
   1   5 -13   36.80    3.31
  -1  -5  12   97.07    5.67
   1   5 -12   92.59    5.63
  -1  -5  11  449.91   18.46
   1   5 -11  419.53   18.31
  -1  -5  10  338.04   14.38
   1   5 -10  315.11   14.23
   1   5  -9  135.09    6.99
  -1  -5   9  140.48    7.13
  -1  -5   8   67.59    4.25
   1   5  -8   64.63    4.23
  -1  -5   7    0.22    1.20
   1   5  -7    0.53    1.15
   1   5  -6    0.80    1.02
  -1  -5   6    0.32    1.21
  -1  -5   4 1114.34   36.65
   1   5  -4  830.73   35.79
   1   5  -3  737.09   28.18
  -1  -5   3  698.06   27.92
  -1  -5   2   27.61    2.19
   1   5  -2   32.31    2.59
  -1  -5   1   46.67    3.04
   1   5  -1   57.57    3.48
  -1  -5   0  123.00    5.57
   1   5   0  107.41    5.82
   1   5   2   40.51    3.03
  -1  -5  -2   36.01    2.57
   1   5   3  274.87   12.39
  -1  -5  -3  302.99   12.28
   1   5   4   64.44    4.00
  -1  -5  -4   49.81    3.42
   1   5   5  143.29    7.07
  -1  -5  -5  127.54    6.35
  -1  -5  -6    1.95    1.21
   1   5   6    2.07    1.51
  -1  -5  -7    0.53    1.20
   1   5   7    0.77    1.63
   1   5   8   41.84    3.80
  -1  -5  -8   44.91    3.39
   1   5   9  177.21    9.48
  -1  -5  -9  186.41    8.90
  -1  -5 -10    4.34    1.68
   1   5  10    4.70    2.16
   1   5  11   55.90    4.39
  -1  -5 -11   48.80    3.83
   1   5  13   13.72    2.86
  -1  -5 -13   15.61    2.50
  -1  -6  14   19.33    2.68
   1   6 -14   17.27    2.58
  -1  -6  13   17.83    2.44
   1   6 -13   17.80    2.37
  -1  -6  11  220.91   10.46
   1   6 -11  219.86   10.49
   1   6  -9    3.95    1.55
  -1  -6   9    4.44    1.56
   1   6  -8    0.80    1.26
  -1  -6   8    1.10    1.29
   1   6  -7   40.24    3.05
  -1  -6   7   49.01    3.37
  -1  -6   6  146.87    6.71
   1   6  -6  123.12    6.52
  -1  -6   5   17.64    1.95
   1   6  -5   11.54    1.51
  -1  -6   4  416.86   17.01
  -1  -6   1   38.94    2.68
   1   6  -1   39.41    3.08
   1   6   0   43.05    3.27
  -1  -6   0   44.00    2.86
   1   6   1    5.76    1.54
  -1  -6  -1    5.68    1.31
  -1  -6  -3   63.74    3.55
   1   6   3   49.03    3.71
   1   6   4   36.78    3.17
  -1  -6  -4   36.20    2.59
   1   6   5    1.17    1.52
  -1  -6  -5    8.51    1.73
  -1  -6  -7   -0.17    1.35
   1   6   7    1.16    1.80
   1   6   8   45.72    4.16
  -1  -6  -8   54.22    3.77
   1   6   9  114.21    6.67
  -1  -6  -9  109.92    6.22
   1   6  11   24.67    3.11
  -1  -6 -11   14.71    2.61
   1   7 -14    3.44    1.69
  -1  -7  14    2.65    1.81
  -1  -7  12  402.74   16.98
   1   7 -12  383.05   16.99
  -1  -7  11   86.78    5.27
   1   7 -11   85.03    5.40
   1   7 -10   10.90    2.02
  -1  -7  10    8.84    1.80
   1   7  -9    1.29    1.41
  -1  -7   9    0.60    1.51
  -1  -7   8    2.48    1.36
   1   7  -8    2.46    1.29
  -1  -7   6   94.39    5.00
   1   7  -6   80.51    4.62
   1   7  -5   11.80    1.67
  -1  -7   5   12.69    1.77
  -1  -7   4  103.25    5.19
   1   7  -4   95.43    5.42
   1   7  -3   54.66    4.03
  -1  -7   3   74.11    3.98
  -1  -7   2  113.38    5.56
   1   7  -2  107.58    6.05
  -1  -7   1    5.07    1.28
   1   7   0   75.32    4.65
  -1  -7   0   70.56    4.05
  -1  -7  -1    0.56    0.94
   1   7   1    0.05    1.27
   1   7   2   12.25    1.98
  -1  -7  -2   13.20    1.66
  -1  -7  -3    5.61    1.32
   1   7   3    4.28    1.56
  -1  -7  -4    1.60    1.11
   1   7   4    0.80    1.45
  -1  -7  -6    2.51    1.35
   1   7   6    3.73    1.77
  -1  -7  -7   17.95    2.30
   1   7   7   20.43    2.91
  -1  -7  -8    4.06    1.58
   1   7   8    4.99    2.18
  -1  -7  -9    8.36    1.88
   1   7   9   10.13    2.72
   1   8 -12    0.51    1.57
  -1  -8  11   66.45    4.44
   1   8 -11   62.10    4.42
   1   8 -10    3.20    1.53
  -1  -8  10    3.46    1.57
   1   8  -9   50.28    3.67
  -1  -8   9   51.61    3.68
   1   8  -8   37.43    3.20
  -1  -8   8   40.98    3.16
   1   8  -7    0.92    1.16
  -1  -8   7    1.73    1.31
   1   8  -6   35.54    3.00
  -1  -8   6   52.41    3.49
   1   8  -5    0.20    1.37
  -1  -8   5    0.41    1.02
   1   8  -4    1.05    1.33
  -1  -8   4    0.50    1.02
   1   8  -3   17.89    2.33
  -1  -8   3   14.98    1.76
   1   8  -2    0.94    1.47
  -1  -8   2    0.34    0.99
  -1  -8   1  270.55   11.18
   1   8  -1  237.24   11.54
   1   8   0   56.23    4.01
  -1  -8   0   57.93    3.50
   1   8   1   64.90    4.44
  -1  -8  -1   73.51    4.05
   1   8   2    8.26    1.89
  -1  -8  -2   10.66    1.58
  -1  -8  -3    2.62    1.22
   1   8   3    2.05    1.66
  -1  -8  -5    1.27    1.24
   1   8   5    1.79    1.84
  -1  -8  -6    4.11    1.38
   1   8   6    2.95    2.03
   1   8   7  120.22    7.75
  -1  -8  -7  167.50    7.54
   1   9 -13   19.90    2.55
  -1  -9  13   19.30    2.47
   1   9 -12   14.40    2.29
  -1  -9  12   16.73    2.39
  -1  -9  11   -0.53    1.23
   1   9 -11    0.32    1.60
  -1  -9   9    0.23    1.54
   1   9  -9   -0.05    1.75
  -1  -9   8    0.40    1.61
   1   9  -8    0.56    1.38
   1   9  -7   19.24    2.25
  -1  -9   7   22.29    2.42
   1   9  -6   29.15    2.89
  -1  -9   6   26.55    2.49
   1   9  -5    2.39    1.58
  -1  -9   5    1.68    1.28
   1   9  -3  327.40   13.65
  -1  -9   3  278.09   12.58
   1   9  -2   50.00    3.81
  -1  -9   2   40.01    2.98
   1   9  -1  129.09    6.91
  -1  -9   1  121.09    6.16
   1   9   0  235.53   10.81
  -1  -9   0  220.63    9.98
   1   9   1    5.96    1.78
  -1  -9  -1    5.76    1.35
  -1  -9  -3   30.65    2.65
   1   9   3   25.48    2.82
   1   9   4  118.23    7.42
  -1  -9  -4  159.64    7.09
   1  10 -12    5.94    1.91
  -1 -10  12    6.39    1.73
  -1 -10  11   -0.99    1.13
   1  10 -11   -0.44    1.33
   1  10 -10   93.25    5.49
  -1 -10  10  102.39    5.68
   1  10  -9   10.57    1.77
  -1 -10   8    9.75    1.84
   1  10  -8    7.90    1.79
   1  10  -7    0.46    1.80
  -1 -10   7    1.54    1.19
  -1 -10   6   20.40    2.24
   1  10  -6   27.19    2.89
   1  10  -5    5.32    2.05
  -1 -10   5    2.28    1.28
   1  10  -4   29.12    3.07
  -1 -10   4   18.96    2.09
   1  10  -3   35.31    4.46
  -1 -10   3   25.03    2.83
   1  10  -2  819.17   29.82
  -1 -10   2  668.68   28.68
   1  10  -1   54.47    4.11
  -1 -10   1   42.11    3.09
   1  10   0   18.57    2.49
  -1 -10   0   13.32    1.78
  -1 -10  -1   24.48    2.36
   1  10   1   19.69    2.67
   1  11 -11   -0.92    1.09
  -1 -11  11    0.64    1.43
   1  11 -10    0.77    1.31
  -1 -11  10    0.81    1.39
  -1 -11   9   30.94    2.87
   1  11  -9   33.71    3.20
   1  11  -7   28.38    3.02
  -1 -11   7   19.36    2.21
   1  11  -6    2.49    1.94
  -1 -11   6   -0.09    1.16
  -1 -11   5    8.07    1.55
   1  11  -4   62.57    4.70
  -1 -11   4   48.16    3.52
   1  11  -3   44.38    3.99
  -1 -11   3   29.65    2.76
  -2   7  -4   17.38    1.82
  -2   7  -5    3.50    1.30
   2  -7   5    3.40    1.32
   2  -7   6   12.09    1.87
  -2   7  -6    8.19    1.64
  -2   7  -7    3.06    1.48
   2  -7   7    3.75    1.51
  -2   7  -8    0.10    1.57
   2  -7   8    0.49    1.72
  -2   7  -9    1.72    1.77
   2  -7   9    1.05    1.77
  -2   7 -10   12.70    2.19
   2  -7  10   10.38    2.19
   2  -7  12   12.72    2.59
  -2   7 -12   18.52    2.55
  -2   6  -1  205.04    8.15
   2  -6   2   67.34    3.59
  -2   6  -2   80.90    3.67
  -2   6  -3    0.40    0.93
   2  -6   3    0.58    0.94
   2  -6   4  197.59    8.90
  -2   6  -4  209.49    8.98
  -2   6  -5    7.35    1.43
   2  -6   5    6.72    1.42
  -2   6  -6    8.39    1.65
   2  -6   6    8.11    1.70
   2  -6   7    3.93    1.77
  -2   6  -7    2.05    1.46
   2  -6   8    9.76    1.96
  -2   6  -8   10.78    1.96
  -2   6  -9   12.08    2.14
   2  -6   9    9.07    2.05
  -2   6 -10    4.04    1.74
   2  -6  10    4.48    1.88
   2  -6  12   18.25    2.64
  -2   6 -12   21.87    2.77
   2  -6  13   86.46    5.65
  -2   6 -13   97.92    5.81
   2  -5  -4   23.72    1.38
  -2   5   4   34.98    1.56
   2  -5   0  256.84   10.67
  -2   5   0  308.89   10.76
   2  -5   1   86.05    3.88
   2  -5   2  550.57   21.42
   2  -5   4   15.84    1.78
  -2   5  -4   16.88    1.76
  -2   5  -5  907.27   35.52
   2  -5   5  920.99   35.65
   2  -5   6  145.98    7.16
   2  -5   7  125.25    6.56
   2  -5   8  169.67    8.55
  -2   5  -8  182.95    8.67
  -2   5  -9   26.61    2.79
   2  -5   9   22.34    2.76
  -2   5 -10    7.96    1.97
   2  -5  10    8.87    2.16
  -2   5 -11   12.16    2.22
   2  -5  11   10.35    2.22
  -2   5 -12    7.00    1.97
   2  -5  12    5.87    2.04
   2  -5  13   26.17    3.10
  -2   5 -13   12.48    2.29
  -2   4   7   10.45    1.54
   2  -4  -7    0.03    1.13
  -2   4   6  459.04   20.12
   2  -4  -6  540.42   19.82
   2  -4  -5    7.06    0.92
  -2   4   5    6.21    1.01
   2  -4  -4    2.97    0.53
  -2   4   4    3.14    0.74
   2  -4  -3   63.01    2.95
  -2   4   3   68.86    2.90
  -2   4   2   10.38    0.68
   2  -4  -2   13.04    0.73
   2  -4  -1  177.70    6.41
  -2   4   1  148.78    6.36
   2  -4   1 1363.76   52.54
  -2   4  -1 1420.92   52.55
   2  -4   2 1798.82   68.36
  -2   4  -2 1823.76   68.34
   2  -4   4 1059.26   40.84
  -2   4  -4 1059.70   40.81
   2  -4   5  421.96   17.59
  -2   4  -5  439.07   17.65
   2  -4   6   10.75    1.83
  -2   4  -6   11.44    1.79
   2  -4   7  172.96    8.47
  -2   4  -7  179.43    8.48
   2  -4   8   13.42    2.18
  -2   4  -8   14.33    2.11
  -2   4  -9    0.54    1.45
   2  -4   9    1.33    1.54
   2  -4  10   27.64    2.95
   2  -4  11    7.62    2.08
  -2   4 -11    6.49    1.93
  -2   4 -12   30.15    3.11
   2  -4  12   31.66    3.29
  -2   4 -13    1.03    1.61
   2  -4  13    0.06    1.75
  -2   3   9    0.53    1.40
   2  -3  -8    1.71    1.19
  -2   3   8    1.87    1.42
  -2   3   7   57.57    3.90
   2  -3  -7   64.19    3.62
   2  -3  -5  188.71    6.71
  -2   3   5  119.74    6.66
   2  -3  -4  711.63   24.11
  -2   3   4  520.55   24.33
   2  -3  -3    0.83    0.65
  -2   3   3    0.89    0.60
   2  -3   0   21.78    1.52
  -2   3   0   21.80    1.47
   2  -3   1 1608.26   60.87
  -2   3  -1 1616.81   60.77
   2  -3   2   63.97    3.52
  -2   3  -2   69.39    3.49
   2  -3   3  177.43    7.83
  -2   3  -3  174.95    7.83
   2  -3   4 2083.48   77.82
  -2   3  -4 2021.68   77.68
   2  -3   5  548.32   21.28
  -2   3  -5  503.68   21.04
  -2   3  -6   -0.04    1.16
   2  -3   6    0.43    1.26
   2  -3   7   37.02    3.09
  -2   3  -7   39.21    3.06
  -2   3  -8  102.09    5.72
   2  -3   8   98.72    5.74
   2  -3   9    6.84    2.26
  -2   3  -9    1.98    1.62
  -2   3 -10    2.91    1.67
   2  -3  10    3.69    1.80
   2  -3  12   14.17    2.60
   2  -3  13    5.12    1.90
  -2   3 -13    3.72    1.69
   2  -2 -11   -0.05    1.28
   2  -2 -10    0.26    1.37
  -2   2  10   -0.29    1.72
  -2   2   9   11.14    2.07
   2  -2  -9   12.28    1.75
  -2   2   7    0.48    1.09
   2  -2  -7    0.48    0.85
   2  -2  -6    5.20    1.18
  -2   2   6    3.84    1.26
  -2   2   5    0.69    0.94
   2  -2  -5    0.22    0.68
   2  -2  -4   93.87    3.45
  -2   2   4   42.69    3.27
   2  -2  -3  475.86   17.18
  -2   2   3  397.20   17.16
   2  -2  -2    7.59    1.11
  -2   2   2    8.20    1.05
   2  -2  -1   18.25    1.51
  -2   2   1   21.18    1.50
  -2   2   0   20.17    1.53
   2  -2   0   18.05    1.57
   2  -2   1  121.29    5.46
  -2   2  -1  115.12    5.24
   2  -2   3  239.38    9.96
  -2   2  -3  220.22    9.71
   2  -2   4   60.53    3.68
  -2   2  -4   57.29    3.51
   2  -2   6   13.28    2.05
  -2   2  -6   13.31    1.85
  -2   2  -7    2.29    1.34
   2  -2   7    2.04    1.47
  -2   2  -8    1.41    1.42
   2  -2   8    2.18    1.63
   2  -2  12    7.18    2.18
  -2   2 -12    3.93    1.78
   2  -2  13   40.75    3.71
  -2   2 -13   42.52    3.51
  -2   1  11   98.74    5.67
   2  -1 -11   84.72    5.13
  -2   1   9   85.49    5.38
   2  -1  -9   91.11    5.00
  -2   1   8  143.25    7.05
   2  -1  -8  132.40    6.67
   2  -1  -7    1.73    1.04
  -2   1   7    0.94    1.24
  -2   1   6    4.16    1.30
   2  -1  -6    7.17    1.33
   2  -1  -5  196.01    7.80
  -2   1   5  163.26    7.81
   2  -1  -4  128.59    5.09
  -2   1   4   92.52    5.12
   2  -1  -3   35.65    2.08
  -2   1   3   22.38    1.82
   2  -1  -2    0.28    0.92
  -2   1   2    0.02    0.77
   2  -1  -1  484.29   18.45
  -2   1   1  447.89   18.15
  -2   1   0    1.44    0.88
   2  -1   0    2.14    1.00
   2  -1   1  170.00    7.57
  -2   1  -1  173.62    7.44
   2  -1   2   27.30    2.24
  -2   1  -2   25.07    1.94
   2  -1   3   54.35    3.35
  -2   1  -3   51.04    3.09
  -2   1  -5    9.49    1.58
   2  -1   6   31.12    2.82
  -2   1  -6   34.19    2.83
   2  -1   8   66.36    4.68
  -2   1  -8   68.74    4.39
  -2   1 -10    0.77    1.53
   2  -1  10    0.29    1.83
   2  -1  11   34.46    3.51
  -2   1 -11   35.74    3.26
  -2   1 -12    2.99    1.88
   2  -1  12    4.13    1.96
   2  -1  13   27.52    3.34
  -2   1 -13   25.00    2.76
  -2   0  14   22.02    2.99
   2   0 -14   22.24    2.74
   2   0 -13    3.22    1.48
  -2   0  13    1.38    1.76
  -2   0  12  116.60    6.59
   2   0 -12  110.41    6.23
  -2   0  11   22.98    2.66
   2   0 -11   21.45    2.39
  -2   0  10   29.92    3.05
   2   0 -10   35.89    3.02
   2   0  -9    0.93    1.21
  -2   0   9    0.79    1.35
  -2   0   8   12.79    1.98
   2   0  -8   18.30    2.04
  -2   0   7   73.95    4.63
   2   0  -6    2.96    1.02
  -2   0   6    1.21    1.10
   2   0  -5  174.52    6.51
  -2   0   5  109.44    6.14
   2   0  -4  828.76   32.22
  -2   0   4  848.87   32.47
   2   0  -2   18.39    1.84
  -2   0   2   19.23    1.70
   2   0  -1  257.99   11.13
  -2   0   1  268.05   10.89
  -2   0  -1    1.22    0.99
   2   0   1    0.15    1.04
  -2   0  -2  260.58   11.01
   2   0   2  266.62   11.26
   2   0   3  295.96   12.28
  -2   0  -3  278.24   11.96
   2   0   5  262.72   11.60
  -2   0  -5  257.57   11.24
   2   0   6   85.29    5.19
  -2   0  -6   81.52    4.69
   2   0   7   20.89    2.56
  -2   0  -7   20.98    2.48
  -2   0  -8   18.15    2.37
   2   0   8   18.36    2.68
  -2   0  -9    0.29    1.41
   2   0   9    1.09    1.55
   2   0  10   90.82    5.73
  -2   0 -10   87.08    5.31
  -2   0 -11    4.37    1.75
   2   0  11    2.41    1.97
  -2   0 -13    3.94    1.68
   2   0  13    4.58    2.01
  -2  -1  15    6.75    2.15
   2   1 -15    7.61    1.94
  -2  -1  14    2.11    1.84
   2   1 -14    2.76    1.51
  -2  -1  13   22.97    2.96
   2   1 -13   21.40    2.70
  -2  -1  12  101.11    6.27
   2   1 -12   97.95    5.81
  -2  -1  11  104.61    6.30
   2   1 -11  121.90    6.33
   2   1 -10    7.65    1.60
  -2  -1  10    5.09    1.71
  -2  -1   9   19.65    2.35
   2   1  -9   21.36    2.19
   2   1  -8    0.24    1.08
  -2  -1   8   -0.09    1.19
  -2  -1   7    5.76    1.50
   2   1  -7    6.51    1.39
   2   1  -6   22.95    2.04
  -2  -1   6   24.07    2.37
   2   1  -5   53.09    2.94
  -2  -1   5   43.02    3.08
   2   1  -4  162.57    7.70
  -2  -1   4  192.71    7.93
   2   1  -2    5.19    1.36
  -2  -1   2    5.76    1.21
   2   1  -1  454.63   18.93
  -2  -1   1  483.87   18.75
  -2  -1   0    2.44    1.04
   2   1   0    1.38    1.22
   2   1   1   12.19    1.73
  -2  -1  -1   12.88    1.57
   2   1   2    7.41    1.55
  -2  -1  -2    6.42    1.37
  -2  -1  -3    2.62    1.07
   2   1   3    5.32    1.49
  -2  -1  -4  130.30    6.43
   2   1   4  141.41    6.85
  -2  -1  -5   17.43    1.94
   2   1   5   18.74    2.27
  -2  -1  -6    5.26    1.53
   2   1   6    5.42    1.66
   2   1   7  332.90   14.51
  -2  -1  -7  318.05   13.91
  -2  -1  -8    4.07    1.64
   2   1   8    1.88    1.76
   2   1   9  498.84   20.48
  -2  -1  -9  462.02   19.88
   2   1  10  121.15    6.95
  -2  -1 -10  116.26    6.47
  -2  -1 -11    1.77    1.74
   2   1  11    3.42    1.90
  -2  -1 -12    5.21    1.78
   2   1  12    9.37    2.28
  -2  -2  15   -0.30    1.53
   2   2 -15    0.38    1.29
   2   2 -14    1.16    1.37
  -2  -2  14    2.50    1.73
   2   2 -13    5.65    1.74
  -2  -2  12  205.99    9.48
   2   2 -12  165.57    8.74
  -2  -2  10   56.77    4.17
   2   2 -10   70.00    4.26
  -2  -2   9    5.61    1.67
   2   2  -9    9.29    1.66
   2   2  -8    0.51    1.16
  -2  -2   8    1.88    1.28
   2   2  -7   10.79    1.58
  -2  -2   7   11.90    1.88
   2   2  -5   45.74    3.07
  -2  -2   5   75.17    4.01
   2   2  -4  462.54   21.65
  -2  -2   4  652.80   21.99
   2   2  -3  157.17    8.21
  -2  -2   3  213.18    8.36
   2   2  -2   10.58    1.70
  -2  -2   2    8.56    1.45
   2   2  -1  301.06   12.77
  -2  -2   1  296.21   12.46
   2   2   0  343.20   14.15
  -2  -2   0  326.23   13.74
  -2  -2  -1    4.74    1.26
   2   2   1    5.65    1.41
  -2  -2  -2    0.84    1.02
   2   2   2    0.84    1.16
   2   2   3 1190.02   46.36
  -2  -2  -3 1200.09   45.94
  -2  -2  -4    6.35    1.37
   2   2   4    6.77    1.64
   2   2   5   15.67    2.27
  -2  -2  -5   15.18    1.84
   2   2   6   21.18    2.60
  -2  -2  -6   28.05    2.59
   2   2   7  357.94   15.39
  -2  -2  -7  333.64   14.65
   2   2   9  282.12   13.74
  -2  -2  -9  317.18   13.51
   2   2  11  104.59    6.44
  -2  -2 -11  101.64    5.88
  -2  -2 -12   13.41    2.18
   2   2  12   14.00    2.60
  -2  -3  15   41.70    4.00
   2   3 -15   47.58    3.85
   2   3 -13    2.26    1.57
  -2  -3  13    1.02    1.94
   2   3 -12    0.58    1.58
  -2  -3  12    1.90    1.85
  -2  -3  11   94.33    5.69
   2   3 -11   88.24    5.43
  -2  -3  10  636.46   29.96
   2   3 -10  903.54   30.53
  -2  -3   8   51.25    3.66
  -2  -3   7    1.12    1.12
   2   3  -7    2.71    1.26
   2   3  -6   13.39    1.64
  -2  -3   6   12.28    1.84
   2   3  -5   25.17    2.22
  -2  -3   5   30.83    2.57
   2   3  -3   41.36    3.15
  -2  -3   3   48.76    3.03
   2   3  -2 1058.10   39.51
  -2  -3   2  973.81   39.11
  -2  -3   1    5.79    1.34
   2   3  -1    6.66    1.54
  -2  -3   0    0.60    0.93
   2   3   0    1.12    1.28
  -2  -3  -2    0.78    1.07
   2   3   2    1.43    1.21
   2   3   3  150.12    7.33
  -2  -3  -3  144.99    7.00
  -2  -3  -4    0.49    0.90
   2   3   4    0.65    1.39
   2   3   6  110.83    6.35
  -2  -3  -6  109.69    5.70
  -2  -3  -7    0.92    1.26
   2   3   7   -0.41    1.66
   2   3   8   44.27    4.02
  -2  -3  -8   38.59    3.25
   2   3   9   10.80    2.51
  -2  -3  -9   13.33    2.26
   2   3  10   58.22    4.75
  -2  -3 -10   63.17    4.28
  -2  -3 -12    2.13    1.55
   2   3  12    1.25    2.00
   2   4 -14    0.17    1.45
  -2  -4  14    1.63    1.75
   2   4 -13    2.69    1.66
  -2  -4  13    2.36    1.68
   2   4 -11    5.55    1.71
  -2  -4  11    6.93    1.86
   2   4  -9   42.54    3.19
  -2  -4   9   50.68    3.58
   2   4  -8   15.73    1.89
  -2  -4   8   14.63    1.93
   2   4  -7   10.05    1.62
  -2  -4   7   13.37    1.82
   2   4  -6  117.50    6.18
  -2  -4   6  151.91    6.95
   2   4  -5    1.79    1.20
  -2  -4   5    2.04    1.13
   2   4  -4    0.96    1.15
  -2  -4   4    1.61    1.07
   2   4  -3   50.58    3.64
  -2  -4   3   52.50    3.23
   2   4  -2  169.93    8.27
  -2  -4   2  172.36    7.90
   2   4  -1  325.61   14.50
  -2  -4   1  347.26   14.12
   2   4   0   17.16    2.17
  -2  -4   0   14.90    1.79
   2   4   1   80.38    4.99
  -2  -4  -1   90.28    4.68
   2   4   2  156.05    8.04
  -2  -4  -2  169.57    7.76
  -2  -4  -3    0.23    1.03
   2   4   3    0.05    1.34
   2   4   4   10.86    2.13
  -2  -4  -4   12.89    1.71
  -2  -4  -5    4.71    1.41
   2   4   5    2.11    1.60
   2   4   6   12.70    2.42
  -2  -4  -6   14.83    2.00
  -2  -4  -8    0.37    1.43
   2   4   8    1.02    1.81
  -2  -4 -10    0.53    1.81
   2   4  10    1.74    1.95
   2   4  11   43.76    4.17
  -2  -4 -11   47.12    3.68
   2   5 -13    1.42    1.49
  -2  -5  13    2.17    1.51
   2   5 -12    7.93    1.82
  -2  -5  12    7.68    1.86
   2   5 -11   20.22    2.45
  -2  -5  11   24.76    2.69
  -2  -5  10    1.77    1.51
   2   5 -10    0.98    1.42
   2   5  -9  426.48   19.02
  -2  -5   9  498.27   19.30
   2   5  -8   29.90    2.58
  -2  -5   8   34.88    2.77
   2   5  -7    9.53    1.44
  -2  -5   7   16.88    2.12
   2   5  -6   26.61    2.40
  -2  -5   6   27.54    2.46
   2   5  -5   25.62    2.53
  -2  -5   5   27.10    2.33
   2   5  -4   80.15    5.09
  -2  -5   4  100.85    4.99
   2   5  -3   64.87    4.41
  -2  -5   3   71.44    3.99
   2   5  -2  132.15    7.62
  -2  -5   2  174.54    7.51
   2   5  -1  128.57    7.50
  -2  -5   1  178.19    7.53
   2   5   0   46.09    3.68
  -2  -5   0   51.97    3.29
   2   5   1   31.21    3.04
  -2  -5  -1   36.92    2.65
  -2  -5  -2    4.18    1.31
   2   5   2    2.50    1.49
  -2  -5  -4    3.24    1.23
   2   5   4    2.77    1.63
  -2  -5  -5    1.00    1.25
   2   5   5    0.68    1.57
   2   5   7   24.46    2.95
  -2  -5  -7   24.50    2.48
   2   5   8   14.05    2.64
  -2  -5  -8   17.60    2.35
  -2  -5  -9    0.74    1.71
   2   5   9   -0.75    2.32
   2   5  11   14.73    2.89
  -2  -5 -11   16.06    2.29
  -2  -6  14   36.39    3.40
   2   6 -14   33.51    3.25
   2   6 -13    5.02    1.75
  -2  -6  13    6.25    1.98
   2   6 -12    3.75    1.49
  -2  -6  12    3.58    1.79
   2   6 -10  257.14   11.85
  -2  -6  10  265.84   11.79
  -2  -6   9    4.58    1.44
   2   6  -9    3.05    1.29
   2   6  -8   13.23    1.69
  -2  -6   8   18.76    2.21
  -2  -6   7    6.56    1.59
   2   6  -7    4.65    1.38
   2   6  -6   62.08    4.05
  -2  -6   6   57.41    3.77
   2   6  -5    1.05    1.37
  -2  -6   5   -0.08    1.00
   2   6  -4    7.41    1.77
  -2  -6   4    7.61    1.49
   2   6  -3  114.35    6.22
  -2  -6   3   99.52    5.37
   2   6  -2   60.91    4.28
  -2  -6   2   62.70    3.80
   2   6  -1   26.31    2.83
  -2  -6   1   31.96    2.51
   2   6   0   95.72    6.00
  -2  -6   0  119.00    5.71
   2   6   1   39.58    3.40
  -2  -6  -1   41.12    2.95
   2   6   2  106.87    6.58
  -2  -6  -2  134.42    6.34
  -2  -6  -4    0.36    1.19
   2   6   4    1.00    1.53
  -2  -6  -5    1.21    1.18
   2   6   5    1.28    1.83
  -2  -6  -6    6.80    1.53
   2   6   6    4.70    2.01
  -2  -6  -7    5.47    1.60
   2   6   7    5.98    2.17
  -2  -6  -8    0.23    1.69
   2   6   8    1.68    1.95
   2   6   9   13.70    2.77
  -2  -6  -9   14.32    2.28
   2   6  10  111.67    6.75
  -2  -6 -10  104.59    6.08
  -2  -7  13   -0.16    1.46
   2   7 -13   -0.58    1.35
  -2  -7  12    7.27    1.88
   2   7 -12    7.02    1.80
  -2  -7  11    0.73    1.54
   2   7 -11    0.84    1.67
   2   7 -10  127.81    6.87
  -2  -7  10  141.97    7.06
   2   7  -9    2.53    1.24
  -2  -7   9    2.96    1.45
   2   7  -8   28.73    2.70
  -2  -7   8   34.74    2.91
   2   7  -7    7.80    1.74
  -2  -7   7    7.69    1.58
   2   7  -6    8.65    1.82
  -2  -7   6    8.29    1.55
   2   7  -5   23.47    2.68
  -2  -7   5   24.45    2.30
   2   7  -4   24.54    2.78
  -2  -7   4   21.63    2.14
  -2  -7   3    6.86    1.56
   2   7  -3    8.19    2.14
   2   7  -2  252.72   12.00
  -2  -7   2  260.35   11.36
   2   7   1   48.80    4.16
  -2  -7  -1   70.41    3.97
   2   7   2   90.13    6.23
  -2  -7  -2  131.44    6.12
   2   7   3  177.57    9.87
  -2  -7  -3  223.45    9.50
   2   7   4   71.95    4.92
   2   7   5   14.80    2.51
  -2  -7  -5   15.61    2.00
   2   7   6   59.75    4.89
  -2  -7  -6   65.59    4.29
  -2  -7  -7    0.04    1.48
  -2  -7  -8    8.35    1.81
   2   7   8    9.35    2.53
   2   7   9   12.74    2.86
  -2  -7  -9   12.79    2.01
   2   7  10    1.42    2.09
  -2  -7 -10    1.66    1.41
  -2  -8  12    3.17    1.58
   2   8 -12    2.48    1.50
  -2  -8  11   -0.05    1.50
   2   8 -11   -0.05    1.39
  -2  -8  10    2.40    1.66
   2   8 -10    0.95    1.26
  -2  -8   9    1.93    1.47
   2   8  -9    3.37    1.59
   2   8  -8   30.98    3.00
  -2  -8   8   31.40    2.70
   2   8  -7    5.56    1.75
  -2  -8   7    2.79    1.35
   2   8  -4   33.99    3.34
   2   8  -3  195.15    9.47
  -2  -8   3  161.10    8.16
   2   8  -2  255.80   11.51
  -2  -8   2  227.32   10.62
   2   8  -1  121.66    7.02
  -2  -8   1  121.64    6.23
   2   8   0   35.40    3.42
  -2  -8   0   41.90    3.05
   2   8   1  296.43   14.24
  -2  -8  -1  330.88   13.63
   2   8   2   57.73    4.47
  -2  -8  -2   66.89    4.17
  -2  -8  -3    2.80    1.28
   2   8   3    2.35    2.26
   2   8   4   14.21    2.46
  -2  -8  -4   15.13    2.00
  -2  -8  -5    0.59    1.50
   2   8   5    2.09    1.96
   2   8   7   15.34    2.74
  -2  -8  -7   20.20    2.20
   2   8   9   12.35    2.86
  -2  -8  -9    8.07    1.94
  -2  -9  12   -0.27    1.32
   2   9 -12   -0.22    1.07
  -2  -9  11    1.39    1.55
   2   9 -11    1.35    1.33
   2   9  -7   52.34    4.12
  -2  -9   7   47.39    3.50
   2   9  -6   19.60    2.78
  -2  -9   6   14.25    1.95
   2   9  -5    0.62    2.15
  -2  -9   5   -0.13    1.35
   2   9  -4   17.26    2.57
  -2  -9   4   12.80    1.97
   2   9   1  227.55   11.71
  -2  -9  -1  260.56   11.17
   2   9   2   70.09    4.98
  -2  -9  -2   65.88    4.30
  -2  -9  -3    9.57    1.76
   2   9   3    7.49    2.28
  -2  -9  -4    7.93    1.58
   2   9   4    6.74    2.32
   2   9   5   67.73    5.13
  -2  -9  -5   72.07    4.34
  -2  -9  -6   -0.22    1.28
   2   9   6    0.36    1.93
   2  10 -11   -0.06    1.44
  -2 -10  11   -0.05    1.26
   2  10 -10    2.07    1.78
  -2 -10  10    1.25    1.27
   2  10  -9    0.59    1.64
  -2 -10   9    0.14    1.17
   2  10  -8   10.13    2.16
  -2 -10   8    6.94    1.64
   2  10  -7   -0.92    2.26
  -2 -10   7    0.04    1.25
   2  10  -6    5.85    2.22
  -2 -10   6    3.43    1.47
   2  10  -5   14.63    2.65
  -2 -10   5   10.13    1.82
   2  10  -4    0.81    2.48
  -2 -10   4   -0.36    1.32
  -2 -10   3    2.14    1.41
   2  10  -3    0.97    2.35
  -2 -10   2    9.77    1.71
   2  10  -2   14.95    2.75
   2  10  -1   51.59    4.16
  -2 -10   1   32.54    2.82
   2  10   0   49.26    4.08
  -2 -10   0   34.64    2.90
   2  10   1   28.89    3.23
  -2 -10  -1   20.64    2.40
   2  10   2   43.85    3.88
  -2 -10  -2   32.96    2.93
  -2 -10  -4   -0.17    1.20
   2  10   4   -0.07    1.98
   2  11 -10    8.75    2.28
  -2 -11  10    5.13    1.46
   2  11  -9    0.67    1.73
  -2 -11   9    0.05    1.22
   2  11  -7   27.38    3.32
  -2 -11   7   17.70    2.10
   2  11  -6    3.87    2.10
  -2 -11   6    1.03    1.20
   2  11  -5    3.50    2.05
  -2 -11   5    2.97    1.40
   2  11  -4   26.09    3.39
  -2 -11   4   16.91    2.13
   2  11   1   16.86    2.84
  -2 -11  -1   10.15    1.80
   2  12  -8    1.17    2.18
  -2 -12   8   -0.14    1.09
   2  12  -7   17.35    3.10
  -2 -12   7    8.14    1.63
  -2 -12   6    2.99    1.42
   2  12  -5   14.19    2.85
  -2 -12   5    6.04    1.66
  -2 -12   4    1.66    1.38
   2  12  -4    4.81    2.34
  -3   5  -5    0.77    1.41
   3  -5   6   34.05    2.98
  -3   5  -6   30.02    2.87
   3  -5   7  562.35   23.47
  -3   5  -7  576.36   23.44
  -3   5  -9    7.51    1.90
   3  -5   9    8.14    2.13
  -3   5 -10    2.16    1.75
   3  -5  11    7.03    2.11
  -3   4   1  294.17   11.85
   3  -4   0   11.84    1.48
  -3   4   0   14.91    1.42
   3  -4   1   12.22    1.57
  -3   4  -1   11.14    1.45
  -3   4  -2    4.07    1.23
   3  -4   2    4.48    1.36
   3  -4   3   49.53    3.33
  -3   4  -3   48.87    3.30
   3  -4   4   25.85    2.48
  -3   4  -4   25.58    2.48
   3  -4   5   85.98    5.04
  -3   4  -5   83.73    4.89
   3  -4   7  113.23    6.32
  -3   4  -7  107.15    6.09
  -3   4  -9    5.85    1.93
   3  -4   9    5.79    1.97
  -3   4 -10    1.14    1.68
   3  -4  10    2.32    1.81
   3  -4  12    0.88    1.76
  -3   4 -12   -0.22    1.54
  -3   3   3   -0.09    0.81
  -3   3   2  311.26   12.64
   3  -3   0    8.33    1.38
  -3   3   0    8.85    1.25
   3  -3   1   29.00    2.37
  -3   3  -1   29.78    2.25
   3  -3   2   64.71    3.89
  -3   3  -2   63.92    3.66
   3  -3   4   36.58    3.02
  -3   3  -4   32.47    2.76
   3  -3   5  105.93    5.93
  -3   3  -5  110.13    5.90
   3  -3   6  261.21   11.82
  -3   3  -6  254.40   11.60
   3  -3   7  136.99    7.25
  -3   3  -7  127.80    6.83
   3  -3   8   29.03    3.20
  -3   3  -8   29.26    2.90
  -3   3  -9    1.70    1.96
   3  -3   9    0.29    2.01
  -3   3 -10    7.59    1.97
   3  -3  10    6.54    2.14
  -3   3 -12   -0.27    1.51
   3  -3  12    0.06    1.80
   3  -2  -6    0.55    1.14
  -3   2   6   -0.29    1.11
   3  -2  -5   27.39    2.37
  -3   2   5   30.53    2.31
   3  -2  -4    9.56    1.49
  -3   2   4   13.39    1.63
  -3   2   3    7.58    1.24
   3  -2  -3    5.75    1.29
   3  -2  -2   65.86    4.27
  -3   2   2  106.23    4.53
   3  -2  -1   42.03    3.18
  -3   2   1   67.25    3.41
  -3   2   0    1.55    1.00
   3  -2   0    1.09    1.06
   3  -2   1   14.87    1.92
  -3   2  -1   21.31    1.94
  -3   2  -2  106.39    5.34
  -3   2  -3    3.58    1.29
   3  -2   3    3.79    1.40
  -3   2  -4    1.34    1.28
   3  -2   4    1.13    1.31
  -3   2  -5    1.09    1.23
  -3   2  -6    1.81    1.48
   3  -2   6    0.48    1.57
   3  -2   7  164.30    8.65
  -3   2  -7  173.87    8.46
  -3   2  -8   10.48    1.99
   3  -2   8    8.27    2.21
  -3   2  -9    3.14    1.64
   3  -2   9    3.91    1.86
   3  -2  10   81.32    5.33
  -3   2 -10   72.55    4.87
  -3   2 -11   14.04    2.32
   3  -2  11   12.34    2.45
   3  -1  -8   15.90    1.64
  -3   1   8   15.39    2.29
   3  -1  -7    4.21    1.28
  -3   1   7    4.33    1.35
   3  -1  -5   47.67    3.25
  -3   1   5   47.18    3.09
   3  -1  -4   76.64    4.61
  -3   1   4   93.49    4.63
   3  -1  -3   97.36    5.73
  -3   1   3  141.49    6.01
   3  -1  -2  176.29    9.72
  -3   1   2  278.52    9.99
   3  -1  -1   17.63    2.11
  -3   1   1   28.64    2.17
  -3   1   0    2.14    1.14
   3  -1   0    1.22    1.15
   3  -1   2   45.91    3.47
  -3   1  -2   54.38    3.26
   3  -1   3  150.57    7.95
  -3   1  -3  183.11    7.92
   3  -1   4   75.46    4.66
  -3   1  -4   71.20    4.23
   3  -1   5   52.61    3.95
  -3   1  -5   50.22    3.52
   3  -1   6   41.57    3.56
  -3   1  -6   38.62    3.15
   3  -1   8  198.20    9.96
  -3   1  -8  199.11    9.57
  -3   1 -10    2.61    1.81
   3  -1  10    5.04    2.03
   3  -1  11   43.65    3.92
  -3   1 -11   48.05    3.74
   3   0 -10  415.03   17.23
  -3   0  10  406.39   17.39
   3   0  -9   41.43    2.98
  -3   0   9   36.67    3.14
  -3   0   8    1.31    1.42
   3   0  -8    0.71    1.06
   3   0  -7    1.24    1.20
  -3   0   7    0.95    1.22
   3   0  -6    1.80    1.23
  -3   0   6    0.48    1.11
   3   0  -5   22.95    2.32
  -3   0   5   21.56    2.08
   3   0  -3   34.25    3.09
  -3   0   3   35.14    2.62
   3   0  -2   56.40    3.98
  -3   0   2   72.11    3.91
  -3   0   1   13.27    1.69
   3   0   1   17.69    2.17
  -3   0  -1   25.99    2.17
   3   0   2  151.49    7.98
  -3   0  -2  180.54    7.86
   3   0   3   44.72    3.53
  -3   0  -3   51.13    3.27
   3   0   5   78.46    5.05
  -3   0  -5   73.92    4.65
  -3   0  -6    1.31    1.38
   3   0   6    0.91    1.71
  -3   0  -7    2.76    1.57
   3   0   7    1.36    1.93
  -3   0  -8    0.47    1.64
   3   0   8   -0.24    2.10
   3   0   9   25.79    3.11
  -3  -1  12    0.90    1.48
   3   1 -12    0.33    1.31
   3   1 -11   25.71    2.62
  -3  -1  11   21.78    2.90
   3   1 -10   25.45    2.46
  -3  -1  10   23.77    2.53
   3   1  -9   14.46    1.69
  -3  -1   9   11.68    1.97
   3   1  -8   91.59    4.83
  -3  -1   8   85.17    5.10
   3   1  -7   53.15    3.57
  -3  -1   7   56.43    3.63
   3   1  -6    0.88    1.19
  -3  -1   6    1.59    1.26
   3   1  -5    1.18    1.33
  -3  -1   5    0.73    1.03
   3   1  -4    3.22    1.55
  -3  -1   4    2.77    1.17
   3   1  -3  105.35    6.34
  -3  -1   3  141.78    6.33
   3   1  -2   17.64    2.30
  -3  -1   2   23.82    2.17
   3   1  -1   15.33    2.11
  -3  -1   1   23.18    2.12
   3   1   0   14.02    2.09
  -3  -1   0   22.77    2.12
   3   1   1  168.57    9.83
  -3  -1  -1  283.03   10.29
   3   1   2   67.35    4.85
  -3  -1  -2  107.10    5.09
   3   1   4    1.06    1.49
  -3  -1  -7    4.98    1.67
   3   1   7    4.25    1.82
   3   1   9  152.02    8.48
  -3  -1  -9  159.32    8.05
   3   1  10   59.19    4.56
  -3  -1 -10   55.75    4.10
  -3  -1 -11    8.80    1.98
   3   1  11    8.41    2.36
  -3  -2  13    2.64    1.74
   3   2 -13    3.28    1.47
  -3  -2  11    0.30    1.59
   3   2 -11    0.10    1.25
  -3  -2  10    3.20    1.47
   3   2 -10    2.65    1.20
   3   2  -9   72.40    4.37
  -3  -2   9   90.66    5.22
   3   2  -8   63.92    3.80
  -3  -2   8   45.64    3.55
   3   2  -7  259.63   10.06
  -3  -2   7  172.40    9.05
   3   2  -6   -0.14    1.28
  -3  -2   6    0.77    1.19
   3   2  -5    8.36    1.83
  -3  -2   5    6.79    1.44
   3   2  -4   15.92    2.21
  -3  -2   4   14.42    1.83
   3   2  -3   66.16    4.67
  -3  -2   3   88.39    4.63
   3   2  -2   52.85    3.94
  -3  -2   2   62.43    3.70
  -3  -2   1    0.63    1.05
   3   2  -1    0.82    1.35
  -3  -2   0   22.34    2.17
  -3  -2  -3    3.79    1.35
   3   2   3    1.82    1.54
   3   2   4   20.79    2.69
  -3  -2  -4   24.58    2.36
   3   2   5   16.01    2.49
  -3  -2  -5   14.91    2.06
   3   2   6    7.28    2.07
  -3  -2  -6    7.91    1.68
  -3  -2  -7   -0.14    1.54
   3   2   7    0.89    1.96
   3   2   8   26.70    3.16
  -3  -2  -8   23.51    2.62
   3   2   9   63.60    4.85
  -3  -2  -9   59.76    4.22
  -3  -2 -10   15.20    2.33
   3   2  10   15.36    2.67
  -3  -3  14   -0.37    1.39
   3   3 -14    0.51    1.37
  -3  -3  13    2.79    1.69
  -3  -3  12   -0.40    1.34
   3   3 -12    0.35    1.23
  -3  -3  11    1.65    1.72
   3   3 -11    1.50    1.24
   3   3 -10   10.27    1.52
  -3  -3  10   13.79    2.19
   3   3  -8  289.05   11.60
  -3  -3   8  219.97   11.04
   3   3  -7    0.87    1.38
  -3  -3   7    0.50    1.28
   3   3  -6  123.23    6.28
  -3  -3   6  103.99    5.92
   3   3  -4   13.64    2.18
  -3  -3   4   15.15    1.90
   3   3  -2   11.26    2.15
  -3  -3   2   11.99    1.71
  -3  -3   1    0.35    0.99
   3   3  -1    1.05    1.60
   3   3   1   11.79    2.13
  -3  -3  -1   14.93    2.04
   3   3   2   15.68    2.33
  -3  -3  -2   21.52    2.22
  -3  -3  -3    0.62    1.22
   3   3   3    0.78    1.51
  -3  -3  -4    0.88    1.20
   3   3   4    1.27    1.57
   3   3   5   11.17    2.22
  -3  -3  -5   13.92    2.05
   3   3   6   27.24    3.17
  -3  -3  -6   27.86    2.60
  -3  -3  -8   -0.91    1.81
   3   3   8    0.94    1.92
  -3  -3  -9    9.80    2.00
   3   3   9    9.94    2.49
   3   3  10   16.68    2.96
  -3  -3 -10   23.15    2.68
  -3  -4  13    1.51    1.55
   3   4 -13    2.07    1.48
   3   4 -12   19.99    2.30
  -3  -4  12   20.50    2.60
   3   4 -11   12.04    1.80
  -3  -4  11   14.15    2.37
  -3  -4  10    0.48    1.74
   3   4 -10    1.37    1.32
  -3  -4   9    7.35    1.71
   3   4  -9    7.07    1.67
   3   4  -7  120.41    6.35
  -3  -4   7  105.73    5.84
   3   4  -5   95.26    5.67
  -3  -4   5   88.00    5.00
   3   4  -4   14.03    2.24
  -3  -4   4   13.61    1.89
   3   4  -3   -0.18    1.58
  -3  -4   3    0.80    1.17
   3   4  -2   16.57    2.43
  -3  -4   2   13.82    1.88
   3   4  -1   35.16    3.26
  -3  -4   1   39.62    2.89
  -3  -4   0    2.84    1.25
   3   4   0    1.51    1.47
   3   4   1   14.59    2.32
  -3  -4  -1   17.00    2.09
  -3  -4  -2    4.10    1.37
   3   4   2    3.57    1.62
  -3  -4  -3    7.43    1.61
   3   4   3    6.55    1.89
  -3  -4  -4   -0.33    1.23
   3   4   4    1.44    1.83
   3   4   5   27.84    3.20
  -3  -4  -5   37.15    2.98
  -3  -4  -6    4.51    1.62
   3   4   6    4.43    2.04
  -3  -4  -7    0.94    1.46
   3   4   7    2.87    1.98
  -3  -4  -8    1.29    1.61
   3   4   8    0.96    2.17
  -3  -4  -9   -0.59    1.47
   3   4   9   -0.22    2.41
  -3  -5  13    0.95    1.47
   3   5 -13    0.34    1.24
  -3  -5  11   -0.05    1.67
   3   5 -11   -0.29    1.10
  -3  -5  10    1.82    1.56
   3   5 -10    1.18    1.48
   3   5  -8    1.91    1.55
  -3  -5   8    1.47    1.35
   3   5  -7   85.60    5.15
  -3  -5   7   77.33    4.68
   3   5  -6    2.83    1.81
  -3  -5   6    1.97    1.24
   3   5  -5    4.44    1.79
  -3  -5   5    2.11    1.28
   3   5  -4    0.31    1.71
  -3  -5   4    0.04    1.27
   3   5  -3   21.57    2.86
  -3  -5   3   18.25    2.23
   3   5  -2  298.03   14.25
  -3  -5   2  329.84   13.66
   3   5  -1   66.56    4.68
  -3  -5   1   63.32    4.03
  -3  -5   0    1.11    1.19
   3   5   0    0.55    1.60
   3   5   1   44.43    3.90
  -3  -5  -1   57.19    3.72
   3   5   3  249.92   13.16
  -3  -5  -3  328.55   13.03
   3   5   4    7.79    2.06
  -3  -5  -4    9.02    1.76
   3   5   5   40.23    4.00
  -3  -5  -5   52.58    3.62
  -3  -5  -6    9.83    1.79
   3   5   6    8.32    2.21
  -3  -5  -7    1.39    1.40
   3   5   7    2.09    2.06
  -3  -5  -8    6.43    1.68
   3   5   8    5.62    2.28
  -3  -6  12   -0.33    1.33
   3   6 -12   -0.35    1.23
   3   6 -10    5.04    1.82
  -3  -6  10    5.09    1.59
   3   6  -9    1.70    1.73
  -3  -6   9    1.87    1.48
   3   6  -8  195.85    9.22
  -3  -6   8  165.69    8.40
   3   6  -7   11.39    2.26
  -3  -6   7    7.68    1.64
   3   6  -6   11.07    2.34
  -3  -6   6   10.80    1.72
   3   6  -5    3.90    1.94
  -3  -6   5    2.90    1.37
   3   6   0  163.54    8.89
  -3  -6   0  177.22    8.21
   3   6   1  103.10    6.67
  -3  -6  -1  129.11    6.35
   3   6   2   22.48    2.92
  -3  -6  -2   29.82    2.65
   3   6   3   20.47    2.86
  -3  -6  -3   21.31    2.41
   3   6   5  166.32    9.20
  -3  -6  -5  185.23    8.55
   3   6   6   41.12    4.02
  -3  -6  -6   46.99    3.43
   3   6   8   29.61    3.43
  -3  -6  -8   22.68    2.49
   3   7 -11    3.80    1.83
  -3  -7  11    4.13    1.59
  -3  -7  10    0.46    1.30
   3   7  -9   15.83    2.55
  -3  -7   9   12.49    2.01
   3   7  -8   -0.93    2.12
  -3  -7   8   -0.14    1.41
   3   7  -6   76.76    5.07
  -3  -7   6   54.66    3.80
   3   7  -5    2.86    2.09
  -3  -7   5    0.84    1.27
   3   7  -4    8.53    2.33
  -3  -7   4    5.97    1.54
  -3  -7   3    2.78    1.30
   3   7  -3    3.30    2.12
  -3  -7   2    1.11    1.37
   3   7  -2    1.57    1.94
   3   7  -1  256.62   11.38
  -3  -7   1  206.25   10.04
   3   7   0   36.52    3.51
  -3  -7   0   26.85    2.58
  -3  -7  -1    0.87    1.45
   3   7   1    2.82    1.88
   3   7   2   21.76    2.87
  -3  -7  -2   20.82    2.38
   3   7   3   83.30    5.77
  -3  -7  -3   92.44    5.20
  -3  -7  -5    2.94    1.40
   3   7   5    2.94    2.01
  -3  -7  -6    0.62    1.25
   3   7   6   -0.93    1.85
  -3  -7  -7    7.66    1.67
   3   7   7   10.36    2.52
   3   8 -10    5.04    2.09
  -3  -8  10    5.28    1.54
   3   8  -8    5.57    2.18
  -3  -8   8    2.50    1.37
   3   8  -7    4.62    2.17
  -3  -8   7    4.62    1.47
   3   8  -6    4.95    2.22
  -3  -8   6    2.10    1.26
   3   8  -4    3.78    2.28
  -3  -8   4    1.85    1.35
  -3  -8   3    4.88    1.52
   3   8  -3    9.17    2.36
  -3  -8   2    6.05    1.53
   3   8  -2   13.16    2.70
  -3  -8   1    2.64    1.43
   3   8  -1    4.03    2.00
  -3  -8  -2    1.06    1.33
   3   8   2    0.14    2.21
   3   8   3  271.61   12.41
  -3  -8  -3  242.37   11.39
  -3  -8  -5    0.09    1.25
   3   8   5    1.03    1.94
  -3  -8  -6    2.00    1.42
   3   8   6    2.27    2.19
   3   9  -9    8.73    2.55
  -3  -9   9    5.68    1.61
   3   9  -8   10.68    2.75
  -3  -9   8    7.56    1.68
   3   9  -6    0.96    2.03
  -3  -9   6   -0.24    1.41
   3   9  -5    5.50    2.41
  -3  -9   5    3.53    1.36
   3   9  -4   53.57    4.43
  -3  -9   4   36.74    3.11
  -3  -9   2    0.80    1.48
   3   9  -2    0.08    2.39
  -3  -9   1    6.67    1.53
   3   9  -1    9.80    2.48
  -3  -9   0    7.60    1.68
   3   9   0   12.75    2.54
   3   9   1   29.56    3.42
  -3  -9  -1   21.70    2.37
   3   9   2   40.35    3.91
  -3  -9  -3   -0.41    1.20
   3   9   3    0.78    1.93
   3   9   4   21.69    3.04
  -3  -9  -4    6.81    1.70
  -3 -10   8    1.31    1.22
   3  10  -6   13.70    2.89
  -3 -10   6    9.86    1.84
   3  10  -5   -0.16    1.99
  -3 -10   5    0.43    1.21
  -3 -10   0    3.54    1.42
   3  10   0    8.56    2.49
  -3 -10  -1    1.12    1.26
   3  10   1    0.62    2.08
   3  10   2   15.81    2.82
  -3 -10  -2    5.19    1.59
   3  10   3   14.74    2.77
  -3 -10  -3    4.78    1.61
   3  11  -5   32.75    3.58
  -3 -11   5   17.04    2.24
  -3 -11   4    0.28    1.13
   3  11  -4    2.56    2.24
   3  11  -3   11.52    2.89
  -3 -11   3    5.15    1.50
  -3 -11   2   -0.05    1.15
   3  11  -2    2.36    2.20
   3  11  -1   17.16    2.97
  -3 -11   1    4.79    1.50
   3  11   0   36.30    3.61
  -3 -11   0   11.82    2.07
   4  -2   2   23.53    2.59
  -4   2  -3    5.75    1.62
   4  -2   3    6.47    1.79
  -4   2  -4    1.15    1.49
   4  -2   4    1.72    1.87
   4  -2   5   17.30    2.60
  -4   2  -5   18.43    2.35
  -4   2  -6    2.04    1.65
   4  -2   6    0.82    1.92
  -4   2  -7   13.25    2.32
   4  -2   7   14.13    2.61
  -4   2  -8    7.14    2.04
   4  -2   8    7.21    2.25
   4  -2   9   58.81    4.53
  -4   2  -9   56.98    4.14
  -4   1   2    1.47    1.33
   4  -1  -2    2.33    1.56
  -4   1   1    3.93    1.44
   4  -1  -1    4.04    1.55
  -4   1   0   -0.37    1.39
  -4   1  -1    2.10    1.33
   4  -1   1    2.46    1.62
  -4   1  -2    1.10    1.36
   4  -1   2    3.00    1.87
  -4   1  -3    7.12    1.70
   4  -1   3    5.99    1.79
  -4   1  -5   -1.19    1.76
   4  -1   5    0.43    1.72
  -4   1  -6    6.58    1.83
   4  -1   6    4.60    2.03
   4  -1   7   32.83    3.50
  -4   1  -7   30.99    3.12
  -4   1  -9    4.82    1.87
   4  -1   9    3.74    1.98
  -4   0   5    0.40    1.51
   4   0  -5    0.92    1.75
   4   0  -1    7.11    1.85
  -4   0   1    9.97    1.82
   4   0   0   17.88    2.39
  -4   0   0   22.91    2.38
   4   0   1   12.47    2.07
  -4   0  -1   16.38    2.16
   4   0   2   18.40    2.50
  -4   0  -2   21.97    2.24
   4   0   4    5.28    2.07
  -4   0  -4   11.88    2.07
  -4   0  -5    8.38    1.82
   4   0   5    8.74    2.14
  -4   0  -6   11.50    2.04
   4   0   6   11.99    2.36
  -4   0  -7    0.84    1.79
   4   0   7    2.68    2.02
  -4   0  -8    5.35    1.85
   4   0   8    3.66    2.05
   4   1  -7    0.37    1.73
  -4  -1   7    1.07    1.35
   4   1  -6   65.69    4.51
  -4  -1   6   63.60    4.18
   4   1  -5  490.33   20.72
  -4  -1   5  485.18   20.13
  -4  -1   4    4.69    1.49
   4   1  -4    5.88    1.89
  -4  -1   3    9.96    1.70
   4   1  -3   10.62    2.11
  -4  -1   2    0.78    1.39
   4   1  -2    1.19    1.87
   4   1  -1   11.19    2.10
  -4  -1   1   12.97    1.91
  -4  -1   0    2.05    1.29
   4   1   0    1.90    1.72
  -4  -1  -1    6.97    1.62
   4   1   1    7.48    1.95
   4   1   3   70.51    5.05
  -4  -1  -3   82.00    4.64
  -4  -1  -4    2.45    1.47
   4   1   4    1.93    1.83
  -4  -1  -6    2.64    1.55
   4   1   6    0.76    2.01
  -4  -1  -8    5.04    1.74
   4   1   8    6.32    2.24
   4   2  -9   15.70    2.54
  -4  -2   9   14.05    2.11
   4   2  -8   -0.25    1.66
  -4  -2   8    0.41    1.44
   4   2  -7    0.71    2.00
  -4  -2   7    0.22    1.27
   4   2  -5  117.19    6.57
  -4  -2   5  100.25    5.66
   4   2  -4   39.05    3.60
  -4  -2   4   45.01    3.38
  -4  -2   3    7.95    1.67
   4   2  -3    9.16    2.18
   4   2  -2  115.72    6.70
  -4  -2   2  122.20    6.29
  -4  -2   1    0.44    1.43
   4   2  -1   -0.37    1.98
  -4  -2  -1    2.71    1.38
   4   2   1    1.43    2.07
   4   2   2   44.48    3.81
  -4  -2  -2   53.01    3.65
   4   2   3   55.10    4.38
  -4  -2  -3   62.81    3.96
  -4  -2  -5    0.95    1.55
   4   2   5    0.92    1.81
   4   2   6   29.04    3.31
  -4  -2  -6   28.11    2.80
  -4  -2  -7    0.68    1.62
   4   2   7    1.79    1.91
   4   3 -10   13.39    2.36
  -4  -3  10    8.66    1.86
   4   3  -9    1.57    1.85
  -4  -3   9    0.61    1.25
   4   3  -8   32.24    3.62
  -4  -3   8   27.13    2.81
   4   3  -7    0.20    1.68
  -4  -3   7    0.95    1.41
   4   3  -6  235.23   10.81
  -4  -3   6  197.10    9.81
   4   3  -5    2.56    1.84
  -4  -3   5    1.07    1.48
  -4  -3   4    2.81    1.40
   4   3  -4    3.19    2.18
   4   3  -3   21.92    2.82
  -4  -3   3   21.73    2.34
   4   3  -2   57.10    4.43
  -4  -3   2   57.76    3.88
   4   3  -1   29.15    3.20
  -4  -3   1   29.81    2.69
   4   3   0   73.91    5.24
  -4  -3   0   87.20    4.90
   4   3   1   11.47    2.21
  -4  -3  -1   17.31    2.10
  -4  -3  -2    7.32    1.77
   4   3   2    5.35    1.99
  -4  -3  -4   -0.40    1.62
   4   3   4    0.81    1.86
   4   3   5   52.89    4.37
  -4  -3  -5   53.84    3.96
   4   4 -12    1.32    1.70
  -4  -4  12    0.58    1.25
  -4  -4  11   -0.39    1.18
   4   4 -11   -0.37    1.48
   4   4 -10    2.78    1.80
  -4  -4  10    1.70    1.43
   4   4  -9   12.02    2.59
  -4  -4   9    7.97    1.81
   4   4  -8    1.24    1.86
  -4  -4   8    1.40    1.29
   4   4  -6   98.16    5.90
  -4  -4   6   75.05    4.79
   4   4  -5   73.34    5.09
  -4  -4   5   62.58    4.21
  -4  -4   4    1.77    1.45
   4   4  -4    1.16    2.21
   4   4  -3   75.36    5.08
  -4  -4   3   62.15    4.11
  -4  -4   2    0.95    1.55
   4   4  -2    2.42    2.18
   4   4  -1  208.75   10.58
  -4  -4   1  214.25    9.77
   4   4   0  108.23    6.71
  -4  -4   0  118.56    6.23
  -4  -4  -3    3.55    1.48
   4   4   3    3.76    2.03
   4   4   4   15.38    2.69
  -4  -4  -4   17.85    2.18
   4   4   5  151.72    8.41
  -4  -4  -5  154.24    7.66
  -4  -4  -6   13.03    2.05
   4   4   6   15.24    2.66
  -4  -5  11   -0.73    1.26
   4   5 -11    0.44    1.51
   4   5 -10    1.04    1.79
  -4  -5  10    1.36    1.38
   4   5  -8    5.06    2.25
  -4  -5   8    3.85    1.50
   4   5  -7   33.80    3.59
  -4  -5   7   26.88    2.72
   4   5  -6   28.12    3.36
  -4  -5   6   22.31    2.47
  -4  -5   5   14.29    2.04
   4   5  -5   19.39    2.78
   4   5  -1   46.79    3.99
  -4  -5   1   36.44    3.04
  -4  -5   0    1.14    1.67
   4   5   0    0.35    2.05
   4   5   1   91.42    5.91
  -4  -5  -1   91.57    5.49
  -4  -5  -2    0.32    1.54
   4   5   2    1.63    2.19
  -4  -5  -4    2.07    1.64
   4   5   4    3.11    2.01
   4   5   5  103.83    6.26
  -4  -5  -5   84.37    5.16
   4   6 -10    3.14    2.03
  -4  -6  10    0.98    1.29
   4   6  -9    1.39    1.87
  -4  -6   9    1.31    1.33
   4   6  -8    0.30    1.80
  -4  -6   8    0.55    1.25
   4   6  -7    0.36    1.76
  -4  -6   7   -0.24    1.39
   4   6  -6    1.21    2.06
  -4  -6   6   -0.14    1.32
  -4  -6   4    4.92    1.58
   4   6  -4    9.79    2.55
   4   6  -3   21.55    3.13
  -4  -6   3   13.58    2.06
   4   6  -2   28.11    3.29
  -4  -6   2   18.98    2.32
  -4  -6   1    1.05    1.45
   4   6  -1    1.61    2.21
  -4  -6   0    5.27    1.63
   4   6   0    5.70    2.15
  -4  -6  -1    0.05    1.48
   4   6   1   -0.80    1.90
  -4  -6  -2   -0.55    1.61
   4   6   2   -0.51    2.04
  -4  -6  -3   -1.12    1.67
   4   6   3   -0.21    1.90
  -4  -6  -4    3.33    1.38
   4   6   4    5.62    2.33
  -4  -7   7    2.48    1.43
   4   7  -7    6.58    2.44
   4   7  -6    0.08    1.96
  -4  -7   6   -0.43    1.22
  -4  -7   5    5.74    1.58
   4   7  -5    6.54    2.47
   4   7  -1   21.33    3.04
  -4  -7   1   13.07    2.00
  -4  -7   0    2.70    1.46
   4   7   0    2.30    2.00
  -4  -7  -1   -0.48    1.25
   4   7   1   -0.65    1.75
  -4  -7  -2    4.80    1.57
   4   7   2    7.25    2.35
  -4  -8   6    1.55    1.30
   4   8  -6    3.72    2.19
  -4  -8   5    5.57    1.68
   4   8  -5   10.29    2.60
  -4  -8   4    4.84    1.49
   4   8  -4    9.03    2.62
  -4  -8   3    3.54    1.49
   4   8  -3    7.68    2.52
  -4  -8   2    0.88    1.39
   4   8  -2    5.08    2.15
  -4  -8   1    0.05    1.29
   4   8  -1    1.60    2.11
  -4  -8   0    3.14    1.56
   4   8   0    8.07    2.47
   5   1   3   -0.34    1.50
   5   1   4   20.00    2.84
  -5  -1  -4   10.60    2.04
   5   2  -2   10.74    2.29
   5   2  -1  146.19    7.75
  -5  -2   1  116.97    6.79
  -5  -2   0    0.99    1.45
   5   2   0    2.03    1.88
  -5  -2  -2    6.42    1.75
   5   2   2    7.66    2.25
  -5  -2  -3    0.83    1.42
   5   2   3    1.34    1.77
   5   3  -4   27.23    3.20
  -5  -3   4   17.76    2.29
  -5  -3   3    0.33    1.33
   5   3  -3    1.23    2.04
  -5  -3   2    2.43    1.57
   5   3  -2    4.56    2.14
  -5  -3   0    3.11    1.55
   5   3   0    4.89    2.11
   5   3   1   31.94    3.42
  -5  -3  -1   20.81    2.63
  -5  -3  -2    1.21    1.33
   5   3   2    2.97    1.94
   5   4  -7    4.39    2.21
  -5  -4   6    0.14    1.28
   5   4  -6   -0.23    1.87
  -5  -4   5    3.10    1.49
   5   4  -5    6.70    2.32
  -5  -4   4    0.19    1.28
   5   4  -4   -0.29    1.87
   5   4  -3   12.12    2.68
  -5  -4   3    4.05    1.60
  -5  -4   2    0.48    1.27
   5   4  -2    2.73    1.97
   5   4  -1   22.59    3.05
  -5  -4   1   12.08    2.17
   5   4   0   31.04    3.32
  -5  -4   0   14.71    2.28

TITL SB55_2 in P-1
REM P-1 (#2 in standard setting)
CELL 0.71530   4.622702  11.994495  13.206601  98.9366  97.2552  94.8015
ZERR    2.00   0.000761   0.002094   0.002431   0.0151   0.0146   0.0138
LATT  1
SFAC C H N O
UNIT 34.00 32.00 4.00 8.00
TREF
HKLF 4
END
_computing_structure_solution     'SHELXT 2014/4 (Sheldrick, 2014)'
;
_shelx_hkl_checksum              53781
loop_
_space_group_symop_operation_xyz
'x, y, z'
'-x, -y, -z'
loop_
_atom_site_label
_atom_site_type_symbol
_atom_site_fract_x
_atom_site_fract_y
_atom_site_fract_z
_atom_site_U_iso_or_equiv
_atom_site_adp_type
_atom_site_occupancy
_atom_site_site_symmetry_order
_atom_site_calc_flag
_atom_site_refinement_flags_posn
_atom_site_refinement_flags_adp
O001 O -0.4688(5) 0.1201(2) 0.94197(15) 0.0356(9) Uani 1 1 d . .
H1 H 0.316(8) 0.030(4) 0.566(3) 0.033(11) Uiso 1 1 d . .
O002 O 1.2791(6) 0.4104(2) 0.18689(16) 0.0410(9) Uani 1 1 d . .
O003 O 1.4320(5) 0.5301(2) 0.33242(16) 0.0421(9) Uani 1 1 d . .
O004 O -0.2538(5) 0.2960(2) 0.98306(18) 0.0423(9) Uani 1 1 d . .
N005 N 0.3230(6) 0.1054(4) 0.5897(2) 0.0325(11) Uani 1 1 d . .
N006 N 0.6072(6) 0.1431(3) 0.46871(19) 0.0318(10) Uani 1 1 d . .
C007 C -0.1384(7) 0.1783(3) 0.8376(2) 0.0297(12) Uani 1 1 d . .
C008 C 0.1708(7) 0.1337(3) 0.6717(2) 0.0305(11) Uani 1 1 d . .
C009 C -0.1680(8) 0.0719(3) 0.7782(2) 0.0326(11) Uani 1 1 d . .
H009 H -0.2927 0.0141 0.7942 0.039 Uiso 1 1 calc R U
C00A C 0.4802(8) 0.1780(3) 0.5455(2) 0.0327(12) Uani 1 1 d . .
H00A H 0.4967 0.2553 0.5714 0.039 Uiso 1 1 calc R U
C00B C 0.1999(7) 0.2409(3) 0.7301(2) 0.0316(12) Uani 1 1 d . .
H00B H 0.3244 0.2987 0.7143 0.038 Uiso 1 1 calc R U
C00C C -0.2901(7) 0.2059(4) 0.9263(2) 0.0284(11) Uani 1 1 d . .
C00D C -0.0164(7) 0.0501(3) 0.6963(2) 0.0312(12) Uani 1 1 d . .
H00D H -0.0402 -0.0222 0.6567 0.037 Uiso 1 1 calc R U
C00E C 0.9212(8) 0.2795(3) 0.2747(2) 0.0351(11) Uani 1 1 d . .
H00E H 0.9081 0.2682 0.2029 0.042 Uiso 1 1 calc R U
C00F C 0.0461(7) 0.2616(3) 0.8109(2) 0.0314(11) Uani 1 1 d . .
H00F H 0.0661 0.3344 0.8494 0.038 Uiso 1 1 calc R U
C00G C 1.1053(7) 0.3688(3) 0.3334(2) 0.0294(11) Uani 1 1 d . .
C00H C 1.1117(7) 0.3854(3) 0.4393(2) 0.0322(11) Uani 1 1 d . .
H00H H 1.2319 0.4462 0.4801 0.039 Uiso 1 1 calc R U
C00I C 0.9456(7) 0.3145(3) 0.4851(2) 0.0310(11) Uani 1 1 d . .
H00I H 0.9526 0.3277 0.5566 0.037 Uiso 1 1 calc R U
C00J C 1.2879(8) 0.4448(3) 0.2870(2) 0.0318(12) Uani 1 1 d . .
C00K C 0.7676(8) 0.2237(3) 0.4269(2) 0.0307(11) Uani 1 1 d . .
C00L C 0.7601(7) 0.2083(3) 0.3202(2) 0.0377(12) Uani 1 1 d . .
H00L H 0.6409 0.1474 0.2792 0.045 Uiso 1 1 calc R U
C00M C -0.6179(8) 0.1426(4) 1.0297(2) 0.0389(12) Uani 1 1 d . .
H00C H -0.6986 0.2139 1.0303 0.058 Uiso 1 1 calc R U
H00G H -0.4823 0.1461 1.0918 0.058 Uiso 1 1 calc R U
H00J H -0.7731 0.0832 1.0263 0.058 Uiso 1 1 calc R U
C00N C 1.4517(10) 0.4784(3) 0.1334(3) 0.0489(14) Uani 1 1 d . .
H00K H 1.4233 0.4463 0.0611 0.073 Uiso 1 1 calc R U
H00M H 1.6549 0.4809 0.1610 0.073 Uiso 1 1 calc R U
H00N H 1.3937 0.5539 0.1418 0.073 Uiso 1 1 calc R U
loop_
_atom_site_aniso_label
_atom_site_aniso_U_11
_atom_site_aniso_U_22
_atom_site_aniso_U_33
_atom_site_aniso_U_23
_atom_site_aniso_U_13
_atom_site_aniso_U_12
O001 0.0410(16) 0.0402(18) 0.0241(11) 0.0059(11) -0.0018(10) 0.0036(14)
O002 0.0603(18) 0.036(2) 0.0238(12) 0.0033(11) 0.0021(10) 0.0001(15)
O003 0.0537(18) 0.040(2) 0.0284(13) 0.0062(12) -0.0043(11) -0.0042(16)
O004 0.0518(18) 0.039(2) 0.0316(13) -0.0011(14) 0.0007(12) 0.0019(16)
N005 0.038(2) 0.035(3) 0.0214(14) 0.0052(15) -0.0062(13) 0.0033(19)
N006 0.0361(18) 0.037(2) 0.0202(14) 0.0044(14) -0.0049(13) 0.0051(18)
C007 0.031(2) 0.036(3) 0.0201(16) 0.0059(17) -0.0084(14) 0.008(2)
C008 0.034(2) 0.037(3) 0.0174(15) 0.0031(17) -0.0091(14) 0.010(2)
C009 0.037(2) 0.037(3) 0.0219(16) 0.0083(16) -0.0083(14) 0.002(2)
C00A 0.036(2) 0.037(3) 0.0212(17) 0.0079(17) -0.0100(14) 0.002(2)
C00B 0.036(2) 0.035(3) 0.0223(17) 0.0065(17) -0.0038(15) 0.003(2)
C00C 0.032(2) 0.028(3) 0.0248(16) 0.0054(17) -0.0047(14) 0.014(2)
C00D 0.037(2) 0.031(3) 0.0225(16) 0.0031(16) -0.0071(14) 0.009(2)
C00E 0.043(2) 0.040(3) 0.0193(16) 0.0036(16) -0.0046(14) 0.006(2)
C00F 0.037(2) 0.029(3) 0.0252(17) 0.0032(16) -0.0056(14) 0.008(2)
C00G 0.036(2) 0.026(3) 0.0237(15) 0.0039(15) -0.0056(14) 0.010(2)
C00H 0.036(2) 0.033(3) 0.0240(16) 0.0010(16) -0.0093(14) 0.006(2)
C00I 0.037(2) 0.035(3) 0.0185(15) 0.0027(15) -0.0061(14) 0.010(2)
C00J 0.039(2) 0.030(3) 0.0251(17) 0.0033(17) -0.0046(15) 0.012(2)
C00K 0.034(2) 0.033(3) 0.0233(16) 0.0057(15) -0.0066(13) 0.009(2)
C00L 0.043(2) 0.040(3) 0.0254(17) 0.0036(17) -0.0110(15) -0.002(2)
C00M 0.044(2) 0.050(3) 0.0205(16) 0.0072(16) -0.0019(14) 0.002(2)
C00N 0.073(3) 0.042(3) 0.0313(19) 0.0057(19) 0.0108(18) 0.000(3)
loop_
_atom_type_symbol
_atom_type_description
_atom_type_scat_dispersion_real
_atom_type_scat_dispersion_imag
_atom_type_scat_source
C C 0.0033 0.0016 'International Tables Vol C Tables 4.2.6.8 and 6.1.1.4'
H H 0.0000 0.0000 'International Tables Vol C Tables 4.2.6.8 and 6.1.1.4'
N N 0.0061 0.0033 'International Tables Vol C Tables 4.2.6.8 and 6.1.1.4'
O O 0.0106 0.0060 'International Tables Vol C Tables 4.2.6.8 and 6.1.1.4'
loop_
_geom_angle_atom_site_label_1
_geom_angle_atom_site_label_2
_geom_angle_atom_site_label_3
_geom_angle
C00C O001 C00M 115.3(3)
C00J O002 C00N 116.9(3)
C00A N005 C008 126.0(4)
C00A N005 H1 119(2)
C008 N005 H1 115(2)
C00A N006 C00K 117.7(3)
C00F C007 C009 117.8(3)
C00F C007 C00C 119.0(3)
C009 C007 C00C 123.2(3)
C00D C008 N005 117.8(4)
C00D C008 C00B 118.9(3)
N005 C008 C00B 123.2(3)
C00D C009 C007 120.8(3)
C00D C009 H009 119.6
C007 C009 H009 119.6
N006 C00A N005 121.0(4)
N006 C00A H00A 119.5
N005 C00A H00A 119.5
C00F C00B C008 119.7(3)
C00F C00B H00B 120.1
C008 C00B H00B 120.1
O004 C00C O001 122.2(3)
O004 C00C C007 124.3(3)
O001 C00C C007 113.4(4)
C009 C00D C008 120.7(4)
C009 C00D H00D 119.6
C008 C00D H00D 119.6
C00L C00E C00G 120.6(3)
C00L C00E H00E 119.7
C00G C00E H00E 119.7
C00B C00F C007 122.0(4)
C00B C00F H00F 119.0
C007 C00F H00F 119.0
C00E C00G C00H 118.1(3)
C00E C00G C00J 122.0(3)
C00H C00G C00J 119.9(3)
C00I C00H C00G 121.2(3)
C00I C00H H00H 119.4
C00G C00H H00H 119.4
C00H C00I C00K 120.8(3)
C00H C00I H00I 119.6
C00K C00I H00I 119.6
O003 C00J O002 122.6(3)
O003 C00J C00G 125.3(3)
O002 C00J C00G 112.1(3)
C00I C00K C00L 117.7(3)
C00I C00K N006 124.0(3)
C00L C00K N006 118.2(3)
C00E C00L C00K 121.6(3)
C00E C00L H00L 119.2
C00K C00L H00L 119.2
O001 C00M H00C 109.5
O001 C00M H00G 109.5
H00C C00M H00G 109.5
O001 C00M H00J 109.5
H00C C00M H00J 109.5
H00G C00M H00J 109.5
O002 C00N H00K 109.5
O002 C00N H00M 109.5
H00K C00N H00M 109.5
O002 C00N H00N 109.5
H00K C00N H00N 109.5
H00M C00N H00N 109.5
loop_
_geom_bond_atom_site_label_1
_geom_bond_atom_site_label_2
_geom_bond_distance
O001 C00C 1.323(4)
O001 C00M 1.424(4)
O002 C00J 1.317(4)
O002 C00N 1.419(4)
O003 C00J 1.202(4)
O004 C00C 1.202(4)
N005 C00A 1.337(4)
N005 C008 1.379(5)
N005 H1 0.91(4)
N006 C00A 1.268(5)
N006 C00K 1.392(4)
C007 C00F 1.376(5)
C007 C009 1.377(5)
C007 C00C 1.449(5)
C008 C00D 1.374(4)
C008 C00B 1.380(5)
C009 C00D 1.365(5)
C009 H009 0.9300
C00A H00A 0.9300
C00B C00F 1.358(5)
C00B H00B 0.9300
C00D H00D 0.9300
C00E C00L 1.346(4)
C00E C00G 1.377(5)
C00E H00E 0.9300
C00F H00F 0.9300
C00G C00H 1.378(4)
C00G C00J 1.447(5)
C00H C00I 1.359(4)
C00H H00H 0.9300
C00I C00K 1.373(5)
C00I H00I 0.9300
C00K C00L 1.388(4)
C00L H00L 0.9300
C00M H00C 0.9600
C00M H00G 0.9600
C00M H00J 0.9600
C00N H00K 0.9600
C00N H00M 0.9600
C00N H00N 0.9600
