#------------------------------------------------------------------------------
#$Date: 2019-11-23 21:43:48 +0200 (Sat, 23 Nov 2019) $
#$Revision: 235168 $
#$URL: file:///home/coder/svn-repositories/cod/cif/4/03/67/4036745.cif $
#------------------------------------------------------------------------------
#
# This file is available in the Crystallography Open Database (COD),
# http://www.crystallography.net/
#
# All data on this site have been placed in the public domain by the
# contributors.
#
data_4036745
loop_
_publ_author_name
'Mamane, V.'
'Peluso, P.'
'Aubert, E.'
'Cossu, S.'
'Pale, P.'
_publ_section_title
;
 Chiral Hexahalogenated 4,4'-Bipyridines.
;
_journal_issue                   11
_journal_name_full               'The Journal of organic chemistry'
_journal_page_first              4576
_journal_page_last               4587
_journal_paper_doi               10.1021/acs.joc.6b00413
_journal_volume                  81
_journal_year                    2016
_chemical_formula_moiety         'C10 H2 Br2 Cl2 I2 N2'
_chemical_formula_sum            'C10 H2 Br2 Cl2 I2 N2'
_chemical_formula_weight         634.66
_space_group_crystal_system      orthorhombic
_space_group_IT_number           19
_space_group_name_Hall           'P 2ac 2ab'
_space_group_name_H-M_alt        'P 21 21 21'
_atom_sites_solution_hydrogens   geom
_atom_sites_solution_primary     direct
_atom_sites_solution_secondary   difmap
_audit_creation_method           SHELXL-97
_cell_angle_alpha                90.00
_cell_angle_beta                 90.00
_cell_angle_gamma                90.00
_cell_formula_units_Z            4
_cell_length_a                   8.034(2)
_cell_length_b                   11.838(2)
_cell_length_c                   16.278(3)
_cell_measurement_temperature    102(2)
_cell_volume                     1548.1(5)
_computing_structure_refinement  'SHELXL-97 (Sheldrick, 1997)'
_computing_structure_solution    'SHELXT (Sheldrick, 2015)'
_diffrn_ambient_temperature      102(2)
_diffrn_measured_fraction_theta_full 1.000
_diffrn_measured_fraction_theta_max 1.000
_diffrn_measurement_device_type  D8Venture
_diffrn_measurement_method       'omega scans'
_diffrn_radiation_monochromator  'multilayer optics'
_diffrn_radiation_source         'high brilliance Incoatec Microfocus Source '
_diffrn_radiation_type           MoK\a
_diffrn_radiation_wavelength     0.71073
_diffrn_reflns_av_R_equivalents  0.0434
_diffrn_reflns_av_sigmaI/netI    0.0885
_diffrn_reflns_limit_h_max       12
_diffrn_reflns_limit_h_min       -12
_diffrn_reflns_limit_k_max       18
_diffrn_reflns_limit_k_min       -18
_diffrn_reflns_limit_l_max       26
_diffrn_reflns_limit_l_min       -26
_diffrn_reflns_number            57166
_diffrn_reflns_theta_full        34.65
_diffrn_reflns_theta_max         34.65
_diffrn_reflns_theta_min         2.13
_exptl_absorpt_coefficient_mu    9.553
_exptl_absorpt_correction_T_max  0.4524
_exptl_absorpt_correction_T_min  0.2542
_exptl_absorpt_correction_type   numerical
_exptl_absorpt_process_details   'SADABS 2014/5'
_exptl_crystal_colour            colorless
_exptl_crystal_density_diffrn    2.723
_exptl_crystal_density_method    'not measured'
_exptl_crystal_description       block
_exptl_crystal_F_000             1144
_exptl_crystal_size_max          0.195
_exptl_crystal_size_mid          0.182
_exptl_crystal_size_min          0.150
_refine_diff_density_max         0.623
_refine_diff_density_min         -0.738
_refine_diff_density_rms         0.096
_refine_ls_abs_structure_details 'Flack H D (1983), Acta Cryst. A39, 876-881'
_refine_ls_abs_structure_Flack   0.009(4)
_refine_ls_extinction_method     none
_refine_ls_goodness_of_fit_ref   1.081
_refine_ls_hydrogen_treatment    constr
_refine_ls_matrix_type           full
_refine_ls_number_parameters     164
_refine_ls_number_reflns         6621
_refine_ls_number_restraints     0
_refine_ls_restrained_S_all      1.081
_refine_ls_R_factor_all          0.0163
_refine_ls_R_factor_gt           0.0152
_refine_ls_shift/su_max          0.004
_refine_ls_shift/su_mean         0.000
_refine_ls_structure_factor_coef Fsqd
_refine_ls_weighting_details
'calc w=1/[\s^2^(Fo^2^)+(0.0086P)^2^+0.8285P] where P=(Fo^2^+2Fc^2^)/3'
_refine_ls_weighting_scheme      calc
_refine_ls_wR_factor_gt          0.0331
_refine_ls_wR_factor_ref         0.0333
_reflns_number_gt                6447
_reflns_number_total             6621
_reflns_threshold_expression     >2sigma(I)
_cod_data_source_file            jo6b00413_si_005.cif
_cod_data_source_block           hal11a
_cod_database_code               4036745
loop_
_symmetry_equiv_pos_as_xyz
'x, y, z'
'-x+1/2, -y, z+1/2'
'-x, y+1/2, -z+1/2'
'x+1/2, -y+1/2, -z'
loop_
_atom_site_label
_atom_site_type_symbol
_atom_site_fract_x
_atom_site_fract_y
_atom_site_fract_z
_atom_site_U_iso_or_equiv
_atom_site_adp_type
_atom_site_occupancy
_atom_site_symmetry_multiplicity
_atom_site_calc_flag
_atom_site_refinement_flags
I2 I 0.153340(13) 0.404353(9) 0.650699(7) 0.01465(2) Uani 1 1 d .
I1 I 0.323436(15) 0.734704(11) 0.532954(7) 0.01823(2) Uani 1 1 d .
Br2 Br 0.74411(2) 0.695138(16) 0.684703(12) 0.01846(4) Uani 1 1 d .
Br1 Br 0.42454(3) 0.501956(16) 0.848054(12) 0.02053(4) Uani 1 1 d .
Cl2 Cl 0.42269(6) 0.25629(4) 0.53399(3) 0.02008(8) Uani 1 1 d .
Cl1 Cl 0.10894(6) 0.91346(4) 0.65654(3) 0.02297(9) Uani 1 1 d .
C5 C 0.3366(2) 0.62204(14) 0.78595(10) 0.0135(3) Uani 1 1 d .
N1 N 0.1714(2) 0.78993(13) 0.78432(10) 0.0172(3) Uani 1 1 d .
C11 C 0.63649(19) 0.56830(14) 0.63923(10) 0.0119(3) Uani 1 1 d .
C6 C 0.2387(2) 0.70269(16) 0.82462(11) 0.0171(3) Uani 1 1 d .
H6 H 0.2187 0.6957 0.8819 0.020 Uiso 1 1 calc R
C3 C 0.29364(19) 0.72061(14) 0.65972(10) 0.0118(3) Uani 1 1 d .
C10 C 0.46936(18) 0.54678(13) 0.65615(10) 0.0098(2) Uani 1 1 d .
N7 N 0.65670(19) 0.40469(13) 0.55464(9) 0.0155(3) Uani 1 1 d .
C12 C 0.7243(2) 0.49762(16) 0.58727(11) 0.0145(3) Uani 1 1 d .
H12 H 0.8365 0.5157 0.5743 0.017 Uiso 1 1 calc R
C9 C 0.3993(2) 0.44787(14) 0.62393(10) 0.0109(3) Uani 1 1 d .
C8 C 0.5007(2) 0.38051(14) 0.57412(10) 0.0127(3) Uani 1 1 d .
C4 C 0.36594(19) 0.62997(14) 0.70186(10) 0.0111(3) Uani 1 1 d .
C2 C 0.1989(2) 0.79817(14) 0.70431(11) 0.0144(3) Uani 1 1 d .
loop_
_atom_site_aniso_label
_atom_site_aniso_U_11
_atom_site_aniso_U_22
_atom_site_aniso_U_33
_atom_site_aniso_U_23
_atom_site_aniso_U_13
_atom_site_aniso_U_12
I2 0.01059(4) 0.01461(4) 0.01874(5) 0.00129(4) -0.00271(4) -0.00308(3)
I1 0.01876(5) 0.02161(5) 0.01432(4) 0.00454(4) 0.00171(4) 0.00747(4)
Br2 0.01465(7) 0.01512(7) 0.02561(9) -0.00333(6) -0.00336(6) -0.00493(6)
Br1 0.03186(10) 0.01595(7) 0.01379(7) 0.00114(7) -0.00192(7) 0.00493(7)
Cl2 0.0294(2) 0.01193(17) 0.01891(18) -0.00631(15) -0.00549(17) 0.00066(15)
Cl1 0.02225(18) 0.01694(19) 0.0297(2) 0.00171(18) 0.00158(17) 0.01074(15)
C5 0.0169(7) 0.0120(6) 0.0118(6) -0.0020(5) 0.0002(6) 0.0005(6)
N1 0.0163(6) 0.0175(7) 0.0179(7) -0.0057(5) 0.0018(5) 0.0035(5)
C11 0.0097(6) 0.0104(6) 0.0155(7) 0.0005(5) -0.0016(5) 0.0004(5)
C6 0.0189(7) 0.0172(8) 0.0151(7) -0.0045(6) 0.0027(6) 0.0029(6)
C3 0.0107(6) 0.0114(6) 0.0132(6) -0.0009(5) 0.0009(5) 0.0018(5)
C10 0.0093(6) 0.0095(6) 0.0106(6) -0.0007(5) -0.0008(5) 0.0013(5)
N7 0.0164(6) 0.0141(6) 0.0160(6) -0.0009(5) 0.0018(5) 0.0052(6)
C12 0.0122(7) 0.0143(7) 0.0171(7) 0.0010(6) 0.0010(5) 0.0031(6)
C9 0.0111(6) 0.0095(6) 0.0120(6) -0.0002(5) -0.0020(5) -0.0006(5)
C8 0.0175(7) 0.0087(6) 0.0119(7) -0.0021(5) -0.0029(5) 0.0028(5)
C4 0.0102(6) 0.0106(6) 0.0125(6) -0.0025(5) 0.0001(5) 0.0000(5)
C2 0.0116(6) 0.0113(7) 0.0203(7) -0.0014(6) 0.0006(6) 0.0031(5)
loop_
_atom_type_symbol
_atom_type_description
_atom_type_scat_dispersion_real
_atom_type_scat_dispersion_imag
_atom_type_scat_source
C C 0.0033 0.0016 'International Tables Vol C Tables 4.2.6.8 and 6.1.1.4'
Cl Cl 0.1484 0.1585 'International Tables Vol C Tables 4.2.6.8 and 6.1.1.4'
I I -0.4742 1.8119 'International Tables Vol C Tables 4.2.6.8 and 6.1.1.4'
H H 0.0000 0.0000 'International Tables Vol C Tables 4.2.6.8 and 6.1.1.4'
N N 0.0061 0.0033 'International Tables Vol C Tables 4.2.6.8 and 6.1.1.4'
Br Br -0.2901 2.4595 'International Tables Vol C Tables 4.2.6.8 and 6.1.1.4'
loop_
_geom_angle_atom_site_label_1
_geom_angle_atom_site_label_2
_geom_angle_atom_site_label_3
_geom_angle
C6 C5 C4 119.70(16)
C6 C5 Br1 119.25(13)
C4 C5 Br1 121.03(13)
C2 N1 C6 118.14(15)
C12 C11 C10 120.10(16)
C12 C11 Br2 119.23(12)
C10 C11 Br2 120.66(13)
N1 C6 C5 122.53(17)
N1 C6 H6 118.7
C5 C6 H6 118.7
C2 C3 C4 118.40(15)
C2 C3 I1 121.65(12)
C4 C3 I1 119.93(12)
C11 C10 C9 117.76(15)
C11 C10 C4 121.04(14)
C9 C10 C4 121.06(14)
C8 N7 C12 117.85(15)
N7 C12 C11 122.25(16)
N7 C12 H12 118.9
C11 C12 H12 118.9
C8 C9 C10 117.35(15)
C8 C9 I2 122.09(12)
C10 C9 I2 120.55(12)
N7 C8 C9 124.52(16)
N7 C8 Cl2 115.91(13)
C9 C8 Cl2 119.57(14)
C5 C4 C3 117.60(15)
C5 C4 C10 122.79(15)
C3 C4 C10 119.61(15)
N1 C2 C3 123.62(16)
N1 C2 Cl1 115.51(13)
C3 C2 Cl1 120.88(14)
loop_
_geom_bond_atom_site_label_1
_geom_bond_atom_site_label_2
_geom_bond_distance
I2 C9 2.0880(18)
I1 C3 2.0841(17)
Br2 C11 1.8842(17)
Br1 C5 1.8820(18)
Cl2 C8 1.7268(18)
Cl1 C2 1.7289(19)
C5 C6 1.388(2)
C5 C4 1.392(2)
N1 C2 1.325(2)
N1 C6 1.338(2)
C11 C12 1.383(2)
C11 C10 1.394(2)
C6 H6 0.9500
C3 C2 1.396(2)
C3 C4 1.400(2)
C10 C9 1.401(2)
C10 C4 1.488(2)
N7 C8 1.324(2)
N7 C12 1.337(2)
C12 H12 0.9500
C9 C8 1.399(2)
loop_
_geom_torsion_atom_site_label_1
_geom_torsion_atom_site_label_2
_geom_torsion_atom_site_label_3
_geom_torsion_atom_site_label_4
_geom_torsion
C2 N1 C6 C5 0.6(3)
C4 C5 C6 N1 -0.7(3)
Br1 C5 C6 N1 -179.64(14)
C12 C11 C10 C9 4.7(2)
Br2 C11 C10 C9 -176.69(12)
C12 C11 C10 C4 -171.13(16)
Br2 C11 C10 C4 7.5(2)
C8 N7 C12 C11 -0.6(3)
C10 C11 C12 N7 -3.1(3)
Br2 C11 C12 N7 178.24(13)
C11 C10 C9 C8 -2.7(2)
C4 C10 C9 C8 173.06(15)
C11 C10 C9 I2 176.98(12)
C4 C10 C9 I2 -7.2(2)
C12 N7 C8 C9 2.7(3)
C12 N7 C8 Cl2 -177.19(13)
C10 C9 C8 N7 -1.0(3)
I2 C9 C8 N7 179.35(13)
C10 C9 C8 Cl2 178.89(12)
I2 C9 C8 Cl2 -0.8(2)
C6 C5 C4 C3 -0.1(2)
Br1 C5 C4 C3 178.83(12)
C6 C5 C4 C10 -179.95(16)
Br1 C5 C4 C10 -1.1(2)
C2 C3 C4 C5 0.9(2)
I1 C3 C4 C5 -177.45(12)
C2 C3 C4 C10 -179.23(14)
I1 C3 C4 C10 2.4(2)
C11 C10 C4 C5 -97.2(2)
C9 C10 C4 C5 87.1(2)
C11 C10 C4 C3 82.9(2)
C9 C10 C4 C3 -92.7(2)
C6 N1 C2 C3 0.3(3)
C6 N1 C2 Cl1 -179.65(14)
C4 C3 C2 N1 -1.0(3)
I1 C3 C2 N1 177.27(13)
C4 C3 C2 Cl1 178.88(12)
I1 C3 C2 Cl1 -2.8(2)
