#------------------------------------------------------------------------------
#$Date: 2019-11-23 21:43:34 +0200 (Sat, 23 Nov 2019) $
#$Revision: 235167 $
#$URL: file:///home/coder/svn-repositories/cod/cif/4/03/67/4036744.cif $
#------------------------------------------------------------------------------
#
# This file is available in the Crystallography Open Database (COD),
# http://www.crystallography.net/
#
# All data on this site have been placed in the public domain by the
# contributors.
#
data_4036744
loop_
_publ_author_name
'Mamane, V.'
'Peluso, P.'
'Aubert, E.'
'Cossu, S.'
'Pale, P.'
_publ_section_title
;
 Chiral Hexahalogenated 4,4'-Bipyridines.
;
_journal_issue                   11
_journal_name_full               'The Journal of organic chemistry'
_journal_page_first              4576
_journal_page_last               4587
_journal_paper_doi               10.1021/acs.joc.6b00413
_journal_volume                  81
_journal_year                    2016
_chemical_formula_moiety         'C10 H2 Br4 Cl2 N2'
_chemical_formula_sum            'C10 H2 Br4 Cl2 N2'
_chemical_formula_weight         540.68
_space_group_crystal_system      orthorhombic
_space_group_IT_number           19
_space_group_name_Hall           'P 2ac 2ab'
_space_group_name_H-M_alt        'P 21 21 21'
_atom_sites_solution_hydrogens   geom
_atom_sites_solution_primary     direct
_atom_sites_solution_secondary   difmap
_audit_creation_method           SHELXL-97
_cell_angle_alpha                90.00
_cell_angle_beta                 90.00
_cell_angle_gamma                90.00
_cell_formula_units_Z            4
_cell_length_a                   7.659(4)
_cell_length_b                   11.921(6)
_cell_length_c                   15.999(11)
_cell_measurement_temperature    110(2)
_cell_volume                     1460.8(15)
_computing_structure_refinement  'SHELXL-97 (Sheldrick, 1997)'
_computing_structure_solution    'SHELXT (Sheldrick, 2015)'
_diffrn_ambient_temperature      110(2)
_diffrn_measured_fraction_theta_full 1.000
_diffrn_measured_fraction_theta_max 1.000
_diffrn_measurement_device_type  D8Venture
_diffrn_measurement_method       'omega scans'
_diffrn_radiation_monochromator  'multilayer optics'
_diffrn_radiation_source         'high brilliance Incoatec Microfocus Source '
_diffrn_radiation_type           MoK\a
_diffrn_radiation_wavelength     0.71073
_diffrn_reflns_av_R_equivalents  0.0558
_diffrn_reflns_av_sigmaI/netI    0.1079
_diffrn_reflns_limit_h_max       12
_diffrn_reflns_limit_h_min       -12
_diffrn_reflns_limit_k_max       19
_diffrn_reflns_limit_k_min       -19
_diffrn_reflns_limit_l_max       26
_diffrn_reflns_limit_l_min       -26
_diffrn_reflns_number            45174
_diffrn_reflns_theta_full        36.14
_diffrn_reflns_theta_max         36.14
_diffrn_reflns_theta_min         2.13
_exptl_absorpt_coefficient_mu    11.366
_exptl_absorpt_correction_T_max  0.472
_exptl_absorpt_correction_T_min  0.183
_exptl_absorpt_correction_type   numerical
_exptl_absorpt_process_details   'SADABS 2014/5'
_exptl_crystal_colour            colorless
_exptl_crystal_density_diffrn    2.458
_exptl_crystal_density_method    'not measured'
_exptl_crystal_description       block
_exptl_crystal_F_000             1000
_exptl_crystal_size_max          0.240
_exptl_crystal_size_mid          0.184
_exptl_crystal_size_min          0.090
_refine_diff_density_max         1.118
_refine_diff_density_min         -1.121
_refine_diff_density_rms         0.116
_refine_ls_abs_structure_details 'Flack H D (1983), Acta Cryst. A39, 876-881'
_refine_ls_abs_structure_Flack   0.005(5)
_refine_ls_extinction_method     none
_refine_ls_goodness_of_fit_ref   1.042
_refine_ls_hydrogen_treatment    constr
_refine_ls_matrix_type           full
_refine_ls_number_parameters     164
_refine_ls_number_reflns         7010
_refine_ls_number_restraints     0
_refine_ls_restrained_S_all      1.042
_refine_ls_R_factor_all          0.0265
_refine_ls_R_factor_gt           0.0236
_refine_ls_shift/su_max          0.001
_refine_ls_shift/su_mean         0.000
_refine_ls_structure_factor_coef Fsqd
_refine_ls_weighting_details
'calc w=1/[\s^2^(Fo^2^)+(0.0228P)^2^+0.8854P] where P=(Fo^2^+2Fc^2^)/3'
_refine_ls_weighting_scheme      calc
_refine_ls_wR_factor_gt          0.0521
_refine_ls_wR_factor_ref         0.0532
_reflns_number_gt                6632
_reflns_number_total             7010
_reflns_threshold_expression     >2sigma(I)
_cod_data_source_file            jo6b00413_si_002.cif
_cod_data_source_block           hal14a_p2
_cod_original_cell_volume        1460.9(14)
_cod_database_code               4036744
loop_
_symmetry_equiv_pos_as_xyz
'x, y, z'
'-x+1/2, -y, z+1/2'
'-x, y+1/2, -z+1/2'
'x+1/2, -y+1/2, -z'
loop_
_atom_site_label
_atom_site_type_symbol
_atom_site_fract_x
_atom_site_fract_y
_atom_site_fract_z
_atom_site_U_iso_or_equiv
_atom_site_adp_type
_atom_site_occupancy
_atom_site_symmetry_multiplicity
_atom_site_calc_flag
_atom_site_refinement_flags
Br3 Br 0.83095(2) 0.585687(16) 0.351503(13) 0.01676(4) Uani 1 1 d .
Br4 Br 0.24221(3) 0.295645(17) 0.321091(14) 0.02025(4) Uani 1 1 d .
Br2 Br 0.59021(3) 0.492935(17) 0.152431(13) 0.02098(4) Uani 1 1 d .
Br1 Br 0.67246(3) 0.256699(19) 0.459828(12) 0.02229(4) Uani 1 1 d .
Cl2 Cl 0.57419(7) 0.74102(4) 0.46318(3) 0.02014(8) Uani 1 1 d .
Cl1 Cl 0.89403(7) 0.07600(4) 0.34908(4) 0.02431(9) Uani 1 1 d .
N1 N 0.8400(2) 0.20090(15) 0.21891(11) 0.0187(3) Uani 1 1 d .
N7 N 0.3310(2) 0.59041(14) 0.44707(10) 0.0167(3) Uani 1 1 d .
C10 C 0.5290(2) 0.44580(13) 0.34672(11) 0.0111(2) Uani 1 1 d .
C12 C 0.2602(3) 0.49593(16) 0.41619(11) 0.0157(3) Uani 1 1 d .
H12 H 0.1427 0.4782 0.4297 0.019 Uiso 1 1 calc R
C11 C 0.3537(2) 0.42373(15) 0.36526(11) 0.0130(3) Uani 1 1 d .
C2 C 0.8073(2) 0.19211(16) 0.29936(13) 0.0161(3) Uani 1 1 d .
C8 C 0.4930(3) 0.61517(15) 0.42640(11) 0.0137(3) Uani 1 1 d .
C5 C 0.6749(3) 0.37139(15) 0.21612(11) 0.0154(3) Uani 1 1 d .
C3 C 0.7079(2) 0.27099(15) 0.34417(12) 0.0140(3) Uani 1 1 d .
C4 C 0.6380(2) 0.36298(15) 0.30102(11) 0.0123(3) Uani 1 1 d .
C6 C 0.7764(3) 0.28990(17) 0.17749(12) 0.0184(3) Uani 1 1 d .
H6 H 0.8017 0.2974 0.1196 0.022 Uiso 1 1 calc R
C9 C 0.5992(2) 0.54584(15) 0.37742(11) 0.0126(3) Uani 1 1 d .
loop_
_atom_site_aniso_label
_atom_site_aniso_U_11
_atom_site_aniso_U_22
_atom_site_aniso_U_33
_atom_site_aniso_U_23
_atom_site_aniso_U_13
_atom_site_aniso_U_12
Br3 0.01176(7) 0.01733(7) 0.02119(8) -0.00056(6) -0.00149(7) -0.00342(6)
Br4 0.01579(8) 0.01729(8) 0.02768(9) -0.00484(7) -0.00154(7) -0.00514(7)
Br2 0.02925(10) 0.01808(8) 0.01560(7) 0.00125(7) -0.00155(7) 0.00212(7)
Br1 0.02522(10) 0.02515(9) 0.01651(8) 0.00515(7) 0.00262(7) 0.00857(8)
Cl2 0.0281(2) 0.01326(16) 0.01903(18) -0.00517(14) -0.00520(17) -0.00016(16)
Cl1 0.0207(2) 0.01780(18) 0.0344(2) 0.00176(19) -0.0001(2) 0.00747(16)
N1 0.0164(7) 0.0197(7) 0.0200(7) -0.0062(6) 0.0012(6) 0.0033(6)
N7 0.0194(7) 0.0149(6) 0.0159(6) -0.0012(5) 0.0016(6) 0.0041(6)
C10 0.0108(6) 0.0106(6) 0.0118(6) -0.0017(5) 0.0009(5) 0.0002(5)
C12 0.0127(7) 0.0151(7) 0.0195(7) -0.0005(6) 0.0020(6) 0.0023(6)
C11 0.0110(7) 0.0124(6) 0.0156(7) -0.0005(5) -0.0010(5) -0.0012(5)
C2 0.0121(7) 0.0143(7) 0.0220(8) -0.0026(6) -0.0002(6) 0.0014(6)
C8 0.0171(8) 0.0116(6) 0.0124(6) -0.0023(5) -0.0027(6) 0.0012(6)
C5 0.0160(8) 0.0151(7) 0.0152(7) -0.0019(5) 0.0009(6) 0.0009(6)
C3 0.0121(7) 0.0147(7) 0.0152(6) -0.0010(5) 0.0015(5) 0.0005(5)
C4 0.0105(7) 0.0123(6) 0.0142(6) -0.0016(5) -0.0001(5) -0.0004(5)
C6 0.0188(8) 0.0203(8) 0.0160(7) -0.0040(6) 0.0029(6) 0.0018(6)
C9 0.0119(7) 0.0123(6) 0.0137(6) -0.0005(5) -0.0013(5) -0.0013(5)
loop_
_atom_type_symbol
_atom_type_description
_atom_type_scat_dispersion_real
_atom_type_scat_dispersion_imag
_atom_type_scat_source
C C 0.0033 0.0016 'International Tables Vol C Tables 4.2.6.8 and 6.1.1.4'
H H 0.0000 0.0000 'International Tables Vol C Tables 4.2.6.8 and 6.1.1.4'
N N 0.0061 0.0033 'International Tables Vol C Tables 4.2.6.8 and 6.1.1.4'
Cl Cl 0.1484 0.1585 'International Tables Vol C Tables 4.2.6.8 and 6.1.1.4'
Br Br -0.2901 2.4595 'International Tables Vol C Tables 4.2.6.8 and 6.1.1.4'
loop_
_geom_angle_atom_site_label_1
_geom_angle_atom_site_label_2
_geom_angle_atom_site_label_3
_geom_angle
C2 N1 C6 118.46(17)
C8 N7 C12 118.36(17)
C9 C10 C11 117.05(15)
C9 C10 C4 121.61(16)
C11 C10 C4 121.23(15)
N7 C12 C11 121.93(18)
N7 C12 H12 119.0
C11 C12 H12 119.0
C12 C11 C10 120.25(16)
C12 C11 Br4 119.31(14)
C10 C11 Br4 120.44(13)
N1 C2 C3 123.29(18)
N1 C2 Cl1 116.13(15)
C3 C2 Cl1 120.58(16)
N7 C8 C9 123.75(17)
N7 C8 Cl2 116.62(14)
C9 C8 Cl2 119.63(15)
C6 C5 C4 119.85(18)
C6 C5 Br2 119.29(15)
C4 C5 Br2 120.86(14)
C4 C3 C2 118.60(18)
C4 C3 Br1 120.06(13)
C2 C3 Br1 121.33(14)
C5 C4 C3 117.36(16)
C5 C4 C10 123.15(16)
C3 C4 C10 119.49(16)
N1 C6 C5 122.42(19)
N1 C6 H6 118.8
C5 C6 H6 118.8
C10 C9 C8 118.50(17)
C10 C9 Br3 120.02(13)
C8 C9 Br3 121.47(14)
loop_
_geom_bond_atom_site_label_1
_geom_bond_atom_site_label_2
_geom_bond_distance
Br3 C9 1.884(2)
Br4 C11 1.8868(19)
Br2 C5 1.886(2)
Br1 C3 1.878(2)
Cl2 C8 1.7274(19)
Cl1 C2 1.729(2)
N1 C2 1.315(3)
N1 C6 1.343(3)
N7 C8 1.318(3)
N7 C12 1.344(3)
C10 C9 1.397(2)
C10 C11 1.400(2)
C10 C4 1.485(2)
C12 C11 1.385(3)
C12 H12 0.9500
C2 C3 1.406(3)
C8 C9 1.400(3)
C5 C6 1.389(3)
C5 C4 1.391(3)
C3 C4 1.402(3)
C6 H6 0.9500
loop_
_geom_torsion_atom_site_label_1
_geom_torsion_atom_site_label_2
_geom_torsion_atom_site_label_3
_geom_torsion_atom_site_label_4
_geom_torsion
C8 N7 C12 C11 1.4(3)
N7 C12 C11 C10 2.2(3)
N7 C12 C11 Br4 -177.67(14)
C9 C10 C11 C12 -3.8(3)
C4 C10 C11 C12 172.43(17)
C9 C10 C11 Br4 176.08(13)
C4 C10 C11 Br4 -7.7(2)
C6 N1 C2 C3 0.4(3)
C6 N1 C2 Cl1 -179.65(15)
C12 N7 C8 C9 -3.4(3)
C12 N7 C8 Cl2 176.72(14)
N1 C2 C3 C4 0.9(3)
Cl1 C2 C3 C4 -179.08(14)
N1 C2 C3 Br1 -177.71(16)
Cl1 C2 C3 Br1 2.3(2)
C6 C5 C4 C3 0.5(3)
Br2 C5 C4 C3 -179.08(14)
C6 C5 C4 C10 -179.30(18)
Br2 C5 C4 C10 1.2(3)
C2 C3 C4 C5 -1.3(3)
Br1 C3 C4 C5 177.36(14)
C2 C3 C4 C10 178.50(16)
Br1 C3 C4 C10 -2.9(2)
C9 C10 C4 C5 -83.3(2)
C11 C10 C4 C5 100.6(2)
C9 C10 C4 C3 96.9(2)
C11 C10 C4 C3 -79.2(2)
C2 N1 C6 C5 -1.3(3)
C4 C5 C6 N1 0.8(3)
Br2 C5 C6 N1 -179.61(16)
C11 C10 C9 C8 2.0(2)
C4 C10 C9 C8 -174.26(17)
C11 C10 C9 Br3 -177.23(13)
C4 C10 C9 Br3 6.5(2)
N7 C8 C9 C10 1.7(3)
Cl2 C8 C9 C10 -178.44(13)
N7 C8 C9 Br3 -179.14(14)
Cl2 C8 C9 Br3 0.8(2)
