#------------------------------------------------------------------------------
#$Date: 2019-11-23 21:40:15 +0200 (Sat, 23 Nov 2019) $
#$Revision: 235148 $
#$URL: file:///home/coder/svn-repositories/cod/cif/4/03/67/4036734.cif $
#------------------------------------------------------------------------------
#
# This file is available in the Crystallography Open Database (COD),
# http://www.crystallography.net/
#
# All data on this site have been placed in the public domain by the
# contributors.
#
data_4036734
loop_
_publ_author_name
'Mamane, V.'
'Peluso, P.'
'Aubert, E.'
'Cossu, S.'
'Pale, P.'
_publ_section_title
;
 Chiral Hexahalogenated 4,4'-Bipyridines.
;
_journal_issue                   11
_journal_name_full               'The Journal of organic chemistry'
_journal_page_first              4576
_journal_page_last               4587
_journal_paper_doi               10.1021/acs.joc.6b00413
_journal_volume                  81
_journal_year                    2016
_chemical_formula_moiety         'C10 H2 Br4 I2 N2'
_chemical_formula_sum            'C10 H2 Br4 I2 N2'
_chemical_formula_weight         723.58
_space_group_crystal_system      orthorhombic
_space_group_IT_number           19
_space_group_name_Hall           'P 2ac 2ab'
_space_group_name_H-M_alt        'P 21 21 21'
_atom_sites_solution_hydrogens   geom
_atom_sites_solution_primary     direct
_atom_sites_solution_secondary   difmap
_audit_creation_method           SHELXL-97
_cell_angle_alpha                90.00
_cell_angle_beta                 90.00
_cell_angle_gamma                90.00
_cell_formula_units_Z            4
_cell_length_a                   7.888(4)
_cell_length_b                   12.138(5)
_cell_length_c                   16.364(8)
_cell_measurement_temperature    105(2)
_cell_volume                     1566.8(13)
_computing_structure_refinement  'SHELXL-97 (Sheldrick, 1997)'
_computing_structure_solution    'SHELXT (Sheldrick, 2015)'
_diffrn_ambient_temperature      105(2)
_diffrn_measured_fraction_theta_full 1.000
_diffrn_measured_fraction_theta_max 1.000
_diffrn_measurement_device_type  D8Venture
_diffrn_measurement_method       'omega scans'
_diffrn_radiation_monochromator  'multilayer optics'
_diffrn_radiation_source         'high brilliance Incoatec Microfocus Source '
_diffrn_radiation_type           MoK\a
_diffrn_radiation_wavelength     0.71073
_diffrn_reflns_av_R_equivalents  0.0523
_diffrn_reflns_av_sigmaI/netI    0.1189
_diffrn_reflns_limit_h_max       8
_diffrn_reflns_limit_h_min       -11
_diffrn_reflns_limit_k_max       18
_diffrn_reflns_limit_k_min       -18
_diffrn_reflns_limit_l_max       24
_diffrn_reflns_limit_l_min       -24
_diffrn_reflns_number            29605
_diffrn_reflns_theta_full        32.20
_diffrn_reflns_theta_max         32.20
_diffrn_reflns_theta_min         2.49
_exptl_absorpt_coefficient_mu    14.199
_exptl_absorpt_correction_T_max  0.2597
_exptl_absorpt_correction_T_min  0.1142
_exptl_absorpt_correction_type   numerical
_exptl_absorpt_process_details   'SADABS 2014/5'
_exptl_crystal_colour            colorless
_exptl_crystal_density_diffrn    3.068
_exptl_crystal_density_method    'not measured'
_exptl_crystal_description       block
_exptl_crystal_F_000             1288
_exptl_crystal_size_max          0.27
_exptl_crystal_size_mid          0.15
_exptl_crystal_size_min          0.13
_refine_diff_density_max         0.933
_refine_diff_density_min         -1.564
_refine_diff_density_rms         0.167
_refine_ls_abs_structure_details 'Flack H D (1983), Acta Cryst. A39, 876-881'
_refine_ls_abs_structure_Flack   0.100(9)
_refine_ls_extinction_method     none
_refine_ls_goodness_of_fit_ref   1.070
_refine_ls_hydrogen_treatment    constr
_refine_ls_matrix_type           full
_refine_ls_number_parameters     164
_refine_ls_number_reflns         5545
_refine_ls_number_restraints     0
_refine_ls_restrained_S_all      1.070
_refine_ls_R_factor_all          0.0330
_refine_ls_R_factor_gt           0.0296
_refine_ls_shift/su_max          0.001
_refine_ls_shift/su_mean         0.000
_refine_ls_structure_factor_coef Fsqd
_refine_ls_weighting_details
'calc w=1/[\s^2^(Fo^2^)+(0.0253P)^2^+7.0975P] where P=(Fo^2^+2Fc^2^)/3'
_refine_ls_weighting_scheme      calc
_refine_ls_wR_factor_gt          0.0679
_refine_ls_wR_factor_ref         0.0695
_reflns_number_gt                5270
_reflns_number_total             5545
_reflns_threshold_expression     >2sigma(I)
_cod_data_source_file            jo6b00413_si_004.cif
_cod_data_source_block           hal11ep1
_cod_original_cell_volume        1566.7(13)
_cod_database_code               4036734
loop_
_symmetry_equiv_pos_as_xyz
'x, y, z'
'-x+1/2, -y, z+1/2'
'-x, y+1/2, -z+1/2'
'x+1/2, -y+1/2, -z'
loop_
_atom_site_label
_atom_site_type_symbol
_atom_site_fract_x
_atom_site_fract_y
_atom_site_fract_z
_atom_site_U_iso_or_equiv
_atom_site_adp_type
_atom_site_occupancy
_atom_site_symmetry_multiplicity
_atom_site_calc_flag
_atom_site_refinement_flags
I1 I 0.76495(4) 0.70451(3) 0.68456(2) 0.02079(7) Uani 1 1 d .
I2 I 0.39337(5) 0.51748(3) 0.85356(2) 0.02415(7) Uani 1 1 d .
Br2 Br 0.14095(5) 0.44101(4) 0.65399(3) 0.01879(9) Uani 1 1 d .
Br1 Br 0.35701(7) 0.26076(4) 0.54063(3) 0.01874(9) Uani 1 1 d .
Br3 Br 0.11277(6) 0.94842(4) 0.63522(3) 0.02199(9) Uani 1 1 d .
Br4 Br 0.33316(7) 0.74836(4) 0.53815(3) 0.02250(10) Uani 1 1 d .
N7 N 0.1717(5) 0.8208(3) 0.7726(3) 0.0187(8) Uani 1 1 d .
N1 N 0.6235(5) 0.4072(3) 0.5581(2) 0.0167(7) Uani 1 1 d .
C11 C 0.3178(6) 0.6483(4) 0.7800(3) 0.0158(8) Uani 1 1 d .
C5 C 0.6248(5) 0.5742(3) 0.6366(3) 0.0132(7) Uani 1 1 d .
C9 C 0.2938(5) 0.7413(4) 0.6522(3) 0.0146(7) Uani 1 1 d .
C8 C 0.2033(6) 0.8236(4) 0.6929(3) 0.0158(8) Uani 1 1 d .
C6 C 0.7047(5) 0.4964(4) 0.5872(3) 0.0163(8) Uani 1 1 d .
H6 H 0.8207 0.5067 0.5736 0.020 Uiso 1 1 calc R
C12 C 0.2259(6) 0.7344(4) 0.8149(3) 0.0197(8) Uani 1 1 d .
H12 H 0.2009 0.7310 0.8717 0.024 Uiso 1 1 calc R
C3 C 0.3690(5) 0.4679(3) 0.6261(3) 0.0138(7) Uani 1 1 d .
C4 C 0.4514(5) 0.5631(3) 0.6536(3) 0.0132(7) Uani 1 1 d .
C10 C 0.3551(5) 0.6507(4) 0.6968(3) 0.0134(7) Uani 1 1 d .
C2 C 0.4633(6) 0.3923(4) 0.5788(3) 0.0146(8) Uani 1 1 d .
loop_
_atom_site_aniso_label
_atom_site_aniso_U_11
_atom_site_aniso_U_22
_atom_site_aniso_U_33
_atom_site_aniso_U_23
_atom_site_aniso_U_13
_atom_site_aniso_U_12
I1 0.01720(13) 0.01745(13) 0.02771(15) -0.00399(12) -0.00098(12) -0.00475(11)
I2 0.02747(16) 0.02011(14) 0.02487(14) -0.00006(11) -0.00249(13) -0.00099(12)
Br2 0.01112(17) 0.01979(19) 0.0255(2) -0.00369(17) -0.00004(16) -0.00274(15)
Br1 0.0269(2) 0.01212(17) 0.01722(19) -0.00473(14) -0.00123(17) -0.00197(16)
Br3 0.0186(2) 0.0196(2) 0.0278(2) -0.00070(17) 0.00024(18) 0.00578(17)
Br4 0.0267(2) 0.0242(2) 0.01657(19) 0.00209(18) 0.00314(17) 0.00939(19)
N7 0.0169(17) 0.0182(18) 0.0210(19) -0.0055(14) 0.0022(15) 0.0017(14)
N1 0.0166(17) 0.0146(16) 0.0188(17) -0.0021(13) 0.0000(14) 0.0027(14)
C11 0.0153(18) 0.0136(18) 0.0184(19) -0.0011(15) 0.0016(15) -0.0008(15)
C5 0.0104(16) 0.0122(16) 0.0170(17) -0.0002(14) -0.0022(14) -0.0003(13)
C9 0.0146(17) 0.0147(17) 0.0145(17) -0.0032(15) 0.0010(15) 0.0018(14)
C8 0.0157(18) 0.0094(16) 0.022(2) -0.0024(15) -0.0006(16) 0.0040(14)
C6 0.0100(16) 0.0181(19) 0.0208(18) -0.0009(16) 0.0001(14) 0.0009(15)
C12 0.022(2) 0.019(2) 0.0174(19) -0.0050(16) 0.0042(18) 0.0008(17)
C3 0.0095(16) 0.0145(17) 0.0175(17) -0.0017(14) 0.0009(14) -0.0007(14)
C4 0.0115(16) 0.0130(16) 0.0150(17) -0.0013(14) -0.0025(14) 0.0023(14)
C10 0.0094(15) 0.0151(17) 0.0158(17) -0.0032(14) 0.0014(14) -0.0013(14)
C2 0.0146(18) 0.0135(17) 0.0157(19) -0.0032(15) -0.0027(15) 0.0004(14)
loop_
_atom_type_symbol
_atom_type_description
_atom_type_scat_dispersion_real
_atom_type_scat_dispersion_imag
_atom_type_scat_source
C C 0.0033 0.0016 'International Tables Vol C Tables 4.2.6.8 and 6.1.1.4'
H H 0.0000 0.0000 'International Tables Vol C Tables 4.2.6.8 and 6.1.1.4'
N N 0.0061 0.0033 'International Tables Vol C Tables 4.2.6.8 and 6.1.1.4'
Br Br -0.2901 2.4595 'International Tables Vol C Tables 4.2.6.8 and 6.1.1.4'
I I -0.4742 1.8119 'International Tables Vol C Tables 4.2.6.8 and 6.1.1.4'
loop_
_geom_angle_atom_site_label_1
_geom_angle_atom_site_label_2
_geom_angle_atom_site_label_3
_geom_angle
C12 N7 C8 118.2(4)
C2 N1 C6 118.3(4)
C10 C11 C12 119.7(4)
C10 C11 I2 121.4(3)
C12 C11 I2 118.9(3)
C6 C5 C4 119.4(4)
C6 C5 I1 119.5(3)
C4 C5 I1 121.0(3)
C8 C9 C10 119.2(4)
C8 C9 Br4 121.4(3)
C10 C9 Br4 119.4(3)
N7 C8 C9 123.1(4)
N7 C8 Br3 115.6(3)
C9 C8 Br3 121.3(4)
N1 C6 C5 122.4(4)
N1 C6 H6 118.8
C5 C6 H6 118.8
N7 C12 C11 123.1(4)
N7 C12 H12 118.5
C11 C12 H12 118.5
C4 C3 C2 117.9(4)
C4 C3 Br2 120.6(3)
C2 C3 Br2 121.5(3)
C3 C4 C5 117.9(4)
C3 C4 C10 120.4(4)
C5 C4 C10 121.6(4)
C11 C10 C9 116.8(4)
C11 C10 C4 123.9(4)
C9 C10 C4 119.3(4)
N1 C2 C3 123.8(4)
N1 C2 Br1 116.8(3)
C3 C2 Br1 119.4(3)
loop_
_geom_bond_atom_site_label_1
_geom_bond_atom_site_label_2
_geom_bond_distance
I1 C5 2.083(4)
I2 C11 2.080(5)
Br2 C3 1.884(4)
Br1 C2 1.909(4)
Br3 C8 1.922(5)
Br4 C9 1.894(5)
N7 C12 1.328(7)
N7 C8 1.328(6)
N1 C2 1.321(6)
N1 C6 1.345(6)
C11 C10 1.393(6)
C11 C12 1.395(6)
C5 C6 1.394(6)
C5 C4 1.402(6)
C9 C8 1.397(6)
C9 C10 1.405(6)
C6 H6 0.9500
C12 H12 0.9500
C3 C4 1.400(6)
C3 C2 1.412(6)
C4 C10 1.485(6)
loop_
_geom_torsion_atom_site_label_1
_geom_torsion_atom_site_label_2
_geom_torsion_atom_site_label_3
_geom_torsion_atom_site_label_4
_geom_torsion
C12 N7 C8 C9 -1.5(7)
C12 N7 C8 Br3 177.6(4)
C10 C9 C8 N7 0.1(7)
Br4 C9 C8 N7 179.3(4)
C10 C9 C8 Br3 -178.9(3)
Br4 C9 C8 Br3 0.2(5)
C2 N1 C6 C5 -1.4(7)
C4 C5 C6 N1 -3.4(7)
I1 C5 C6 N1 176.3(3)
C8 N7 C12 C11 1.7(7)
C10 C11 C12 N7 -0.5(7)
I2 C11 C12 N7 -179.6(4)
C2 C3 C4 C5 -3.7(6)
Br2 C3 C4 C5 174.9(3)
C2 C3 C4 C10 174.1(4)
Br2 C3 C4 C10 -7.3(6)
C6 C5 C4 C3 5.9(6)
I1 C5 C4 C3 -173.8(3)
C6 C5 C4 C10 -172.0(4)
I1 C5 C4 C10 8.4(6)
C12 C11 C10 C9 -0.9(6)
I2 C11 C10 C9 178.2(3)
C12 C11 C10 C4 -179.7(4)
I2 C11 C10 C4 -0.6(6)
C8 C9 C10 C11 1.1(6)
Br4 C9 C10 C11 -178.1(3)
C8 C9 C10 C4 180.0(4)
Br4 C9 C10 C4 0.8(5)
C3 C4 C10 C11 83.3(6)
C5 C4 C10 C11 -98.9(5)
C3 C4 C10 C9 -95.5(5)
C5 C4 C10 C9 82.3(5)
C6 N1 C2 C3 3.7(7)
C6 N1 C2 Br1 -176.9(3)
C4 C3 C2 N1 -1.1(7)
Br2 C3 C2 N1 -179.7(3)
C4 C3 C2 Br1 179.5(3)
Br2 C3 C2 Br1 0.9(5)
