#------------------------------------------------------------------------------
#$Date: 2019-11-23 21:41:18 +0200 (Sat, 23 Nov 2019) $
#$Revision: 235156 $
#$URL: file:///home/coder/svn-repositories/cod/cif/4/03/67/4036738.cif $
#------------------------------------------------------------------------------
#
# This file is available in the Crystallography Open Database (COD),
# http://www.crystallography.net/
#
# All data on this site have been placed in the public domain by the
# contributors.
#
data_4036738
loop_
_publ_author_name
'Mamane, V.'
'Peluso, P.'
'Aubert, E.'
'Cossu, S.'
'Pale, P.'
_publ_section_title
;
 Chiral Hexahalogenated 4,4'-Bipyridines.
;
_journal_issue                   11
_journal_name_full               'The Journal of organic chemistry'
_journal_page_first              4576
_journal_page_last               4587
_journal_paper_doi               10.1021/acs.joc.6b00413
_journal_volume                  81
_journal_year                    2016
_chemical_formula_moiety         'C10 H2 Br2 Cl2 I2 N2'
_chemical_formula_sum            'C10 H2 Br2 Cl2 I2 N2'
_chemical_formula_weight         634.66
_space_group_crystal_system      orthorhombic
_space_group_IT_number           19
_space_group_name_Hall           'P 2ac 2ab'
_space_group_name_H-M_alt        'P 21 21 21'
_atom_sites_solution_hydrogens   geom
_atom_sites_solution_primary     direct
_atom_sites_solution_secondary   difmap
_audit_creation_method           SHELXL-97
_cell_angle_alpha                90.00
_cell_angle_beta                 90.00
_cell_angle_gamma                90.00
_cell_formula_units_Z            4
_cell_length_a                   7.779(4)
_cell_length_b                   12.148(5)
_cell_length_c                   16.057(7)
_cell_measurement_temperature    105(2)
_cell_volume                     1517.4(12)
_computing_structure_refinement  'SHELXL-97 (Sheldrick, 1997)'
_computing_structure_solution    'SHELXT (Sheldrick, 2015)'
_diffrn_ambient_temperature      105(2)
_diffrn_measured_fraction_theta_full 1.000
_diffrn_measured_fraction_theta_max 1.000
_diffrn_measurement_device_type  D8Venture
_diffrn_measurement_method       'omega scans'
_diffrn_radiation_monochromator  'multilayer optics'
_diffrn_radiation_source         'high brilliance Incoatec Microfocus Source '
_diffrn_radiation_type           MoK\a
_diffrn_radiation_wavelength     0.71073
_diffrn_reflns_av_R_equivalents  0.0403
_diffrn_reflns_av_sigmaI/netI    0.0847
_diffrn_reflns_limit_h_max       12
_diffrn_reflns_limit_h_min       -12
_diffrn_reflns_limit_k_max       20
_diffrn_reflns_limit_k_min       -19
_diffrn_reflns_limit_l_max       26
_diffrn_reflns_limit_l_min       -26
_diffrn_reflns_number            48074
_diffrn_reflns_theta_full        36.15
_diffrn_reflns_theta_max         36.15
_diffrn_reflns_theta_min         2.10
_exptl_absorpt_coefficient_mu    9.747
_exptl_absorpt_correction_T_max  0.471
_exptl_absorpt_correction_T_min  0.232
_exptl_absorpt_correction_type   numerical
_exptl_absorpt_process_details   'SADABS 2014/5'
_exptl_crystal_colour            colorless
_exptl_crystal_density_diffrn    2.778
_exptl_crystal_density_method    'not measured'
_exptl_crystal_description       block
_exptl_crystal_F_000             1144
_exptl_crystal_size_max          0.258
_exptl_crystal_size_mid          0.251
_exptl_crystal_size_min          0.099
_refine_diff_density_max         0.636
_refine_diff_density_min         -0.843
_refine_diff_density_rms         0.112
_refine_ls_abs_structure_details 'Flack H D (1983), Acta Cryst. A39, 876-881'
_refine_ls_abs_structure_Flack   0.010(5)
_refine_ls_extinction_method     none
_refine_ls_goodness_of_fit_ref   1.069
_refine_ls_hydrogen_treatment    constr
_refine_ls_matrix_type           full
_refine_ls_number_parameters     164
_refine_ls_number_reflns         7257
_refine_ls_number_restraints     0
_refine_ls_restrained_S_all      1.069
_refine_ls_R_factor_all          0.0213
_refine_ls_R_factor_gt           0.0197
_refine_ls_shift/su_max          0.003
_refine_ls_shift/su_mean         0.000
_refine_ls_structure_factor_coef Fsqd
_refine_ls_weighting_details
'calc w=1/[\s^2^(Fo^2^)+(0.0136P)^2^+1.5767P] where P=(Fo^2^+2Fc^2^)/3'
_refine_ls_weighting_scheme      calc
_refine_ls_wR_factor_gt          0.0426
_refine_ls_wR_factor_ref         0.0431
_reflns_number_gt                7017
_reflns_number_total             7257
_reflns_threshold_expression     >2sigma(I)
_cod_data_source_file            jo6b00413_si_008.cif
_cod_data_source_block           hal12e_p1
_cod_original_cell_volume        1517.3(12)
_cod_database_code               4036738
loop_
_symmetry_equiv_pos_as_xyz
'x, y, z'
'-x+1/2, -y, z+1/2'
'-x, y+1/2, -z+1/2'
'x+1/2, -y+1/2, -z'
loop_
_atom_site_label
_atom_site_type_symbol
_atom_site_fract_x
_atom_site_fract_y
_atom_site_fract_z
_atom_site_U_iso_or_equiv
_atom_site_adp_type
_atom_site_occupancy
_atom_site_symmetry_multiplicity
_atom_site_calc_flag
_atom_site_refinement_flags
I1 I 0.228541(18) 0.296382(12) 0.683372(10) 0.01915(3) Uani 1 1 d .
I2 I 0.618435(19) 0.478876(12) 0.855251(9) 0.02009(3) Uani 1 1 d .
Br1 Br 0.65905(3) 0.735486(17) 0.544180(14) 0.01889(4) Uani 1 1 d .
Br2 Br 0.87998(3) 0.047540(19) 0.629544(16) 0.02312(4) Uani 1 1 d .
Cl1 Cl 0.85128(6) 0.54605(5) 0.64966(4) 0.02274(10) Uani 1 1 d .
Cl2 Cl 0.65703(9) 0.24478(5) 0.54438(4) 0.02645(11) Uani 1 1 d .
N1 N 0.3825(2) 0.59537(14) 0.56046(11) 0.0162(3) Uani 1 1 d .
N7 N 0.8382(3) 0.17463(16) 0.76909(12) 0.0192(3) Uani 1 1 d .
C8 C 0.7982(3) 0.17068(17) 0.68905(14) 0.0167(3) Uani 1 1 d .
C5 C 0.3751(3) 0.42524(15) 0.63612(12) 0.0144(3) Uani 1 1 d .
C11 C 0.6914(3) 0.34738(16) 0.77984(13) 0.0151(3) Uani 1 1 d .
C4 C 0.5512(2) 0.43331(16) 0.65308(12) 0.0134(3) Uani 1 1 d .
C9 C 0.7031(2) 0.25295(17) 0.64929(13) 0.0158(3) Uani 1 1 d .
C3 C 0.6376(2) 0.52728(17) 0.62566(12) 0.0152(3) Uani 1 1 d .
C12 C 0.7878(3) 0.26167(18) 0.81320(15) 0.0195(4) Uani 1 1 d .
H12 H 0.8193 0.2654 0.8703 0.023 Uiso 1 1 calc R
C6 C 0.2975(3) 0.50718(17) 0.58820(13) 0.0169(3) Uani 1 1 d .
H6 H 0.1791 0.4999 0.5747 0.020 Uiso 1 1 calc R
C10 C 0.6476(2) 0.34387(16) 0.69535(12) 0.0138(3) Uani 1 1 d .
C2 C 0.5465(3) 0.60636(16) 0.58023(12) 0.0140(3) Uani 1 1 d .
loop_
_atom_site_aniso_label
_atom_site_aniso_U_11
_atom_site_aniso_U_22
_atom_site_aniso_U_33
_atom_site_aniso_U_23
_atom_site_aniso_U_13
_atom_site_aniso_U_12
I1 0.01615(5) 0.01558(5) 0.02573(6) 0.00402(5) 0.00043(5) -0.00467(4)
I2 0.02253(6) 0.01607(5) 0.02168(6) -0.00121(5) 0.00113(5) -0.00117(5)
Br1 0.02573(10) 0.01220(8) 0.01874(9) 0.00480(7) 0.00090(7) -0.00275(7)
Br2 0.02019(9) 0.01805(9) 0.03113(11) -0.00137(8) 0.00089(9) 0.00700(8)
Cl1 0.01200(18) 0.0240(2) 0.0322(3) 0.0104(2) -0.00129(18) -0.00361(16)
Cl2 0.0335(3) 0.0280(3) 0.0178(2) -0.00166(19) -0.0043(2) 0.0128(2)
N1 0.0173(7) 0.0135(7) 0.0177(7) 0.0033(5) 0.0001(6) 0.0025(6)
N7 0.0182(7) 0.0172(7) 0.0222(8) 0.0047(6) -0.0033(6) 0.0031(6)
C8 0.0140(8) 0.0140(7) 0.0222(9) 0.0037(7) 0.0001(7) 0.0019(6)
C5 0.0135(7) 0.0124(7) 0.0173(8) 0.0019(6) 0.0012(7) 0.0005(6)
C11 0.0147(8) 0.0125(7) 0.0181(8) 0.0024(6) -0.0013(6) -0.0011(6)
C4 0.0116(7) 0.0127(7) 0.0158(8) 0.0032(6) 0.0005(6) 0.0001(6)
C9 0.0142(8) 0.0171(8) 0.0161(8) 0.0032(7) -0.0010(6) 0.0028(6)
C3 0.0129(7) 0.0147(7) 0.0179(7) 0.0035(6) 0.0019(6) -0.0001(6)
C12 0.0229(9) 0.0168(8) 0.0187(8) 0.0060(7) -0.0041(8) 0.0007(7)
C6 0.0142(8) 0.0166(8) 0.0197(8) 0.0024(7) -0.0005(6) 0.0020(6)
C10 0.0123(7) 0.0125(7) 0.0167(8) 0.0041(6) -0.0007(6) -0.0003(6)
C2 0.0176(8) 0.0114(7) 0.0131(7) 0.0025(6) 0.0015(6) 0.0003(6)
loop_
_atom_type_symbol
_atom_type_description
_atom_type_scat_dispersion_real
_atom_type_scat_dispersion_imag
_atom_type_scat_source
C C 0.0033 0.0016 'International Tables Vol C Tables 4.2.6.8 and 6.1.1.4'
H H 0.0000 0.0000 'International Tables Vol C Tables 4.2.6.8 and 6.1.1.4'
N N 0.0061 0.0033 'International Tables Vol C Tables 4.2.6.8 and 6.1.1.4'
Cl Cl 0.1484 0.1585 'International Tables Vol C Tables 4.2.6.8 and 6.1.1.4'
Br Br -0.2901 2.4595 'International Tables Vol C Tables 4.2.6.8 and 6.1.1.4'
I I -0.4742 1.8119 'International Tables Vol C Tables 4.2.6.8 and 6.1.1.4'
loop_
_geom_angle_atom_site_label_1
_geom_angle_atom_site_label_2
_geom_angle_atom_site_label_3
_geom_angle
C2 N1 C6 118.62(18)
C8 N7 C12 118.45(19)
N7 C8 C9 122.8(2)
N7 C8 Br2 116.20(15)
C9 C8 Br2 120.95(17)
C6 C5 C4 118.73(18)
C6 C5 I1 120.05(15)
C4 C5 I1 121.20(14)
C12 C11 C10 118.8(2)
C12 C11 I2 119.82(17)
C10 C11 I2 121.36(15)
C3 C4 C5 117.83(17)
C3 C4 C10 119.97(17)
C5 C4 C10 122.14(17)
C8 C9 C10 119.13(19)
C8 C9 Cl2 120.99(17)
C10 C9 Cl2 119.87(15)
C4 C3 C2 118.82(18)
C4 C3 Cl1 120.17(15)
C2 C3 Cl1 121.00(15)
N7 C12 C11 123.3(2)
N7 C12 H12 118.4
C11 C12 H12 118.4
N1 C6 C5 122.81(19)
N1 C6 H6 118.6
C5 C6 H6 118.6
C9 C10 C11 117.51(18)
C9 C10 C4 119.51(18)
C11 C10 C4 122.96(18)
N1 C2 C3 123.02(18)
N1 C2 Br1 117.27(15)
C3 C2 Br1 119.71(15)
loop_
_geom_bond_atom_site_label_1
_geom_bond_atom_site_label_2
_geom_bond_distance
I1 C5 2.080(2)
I2 C11 2.083(2)
Br1 C2 1.887(2)
Br2 C8 1.886(2)
Cl1 C3 1.721(2)
Cl2 C9 1.725(2)
N1 C2 1.321(3)
N1 C6 1.335(3)
N7 C8 1.323(3)
N7 C12 1.331(3)
C8 C9 1.398(3)
C5 C6 1.395(3)
C5 C4 1.400(3)
C11 C12 1.390(3)
C11 C10 1.400(3)
C4 C3 1.396(3)
C4 C10 1.484(3)
C9 C10 1.398(3)
C3 C2 1.399(3)
C12 H12 0.9500
C6 H6 0.9500
loop_
_geom_torsion_atom_site_label_1
_geom_torsion_atom_site_label_2
_geom_torsion_atom_site_label_3
_geom_torsion_atom_site_label_4
_geom_torsion
C12 N7 C8 C9 -1.1(3)
C12 N7 C8 Br2 177.97(17)
C6 C5 C4 C3 4.2(3)
I1 C5 C4 C3 -174.22(15)
C6 C5 C4 C10 -173.05(19)
I1 C5 C4 C10 8.5(3)
N7 C8 C9 C10 0.2(3)
Br2 C8 C9 C10 -178.82(15)
N7 C8 C9 Cl2 179.05(17)
Br2 C8 C9 Cl2 0.0(2)
C5 C4 C3 C2 -2.3(3)
C10 C4 C3 C2 175.00(18)
C5 C4 C3 Cl1 176.26(15)
C10 C4 C3 Cl1 -6.4(3)
C8 N7 C12 C11 1.7(3)
C10 C11 C12 N7 -1.4(3)
I2 C11 C12 N7 179.53(17)
C2 N1 C6 C5 -1.0(3)
C4 C5 C6 N1 -2.7(3)
I1 C5 C6 N1 175.79(16)
C8 C9 C10 C11 0.1(3)
Cl2 C9 C10 C11 -178.74(15)
C8 C9 C10 C4 178.12(18)
Cl2 C9 C10 C4 -0.8(3)
C12 C11 C10 C9 0.4(3)
I2 C11 C10 C9 179.49(14)
C12 C11 C10 C4 -177.49(19)
I2 C11 C10 C4 1.6(3)
C3 C4 C10 C9 -96.4(2)
C5 C4 C10 C9 80.8(3)
C3 C4 C10 C11 81.4(3)
C5 C4 C10 C11 -101.3(2)
C6 N1 C2 C3 3.1(3)
C6 N1 C2 Br1 -177.11(15)
C4 C3 C2 N1 -1.4(3)
Cl1 C3 C2 N1 -179.98(16)
C4 C3 C2 Br1 178.82(15)
Cl1 C3 C2 Br1 0.2(2)
