#------------------------------------------------------------------------------
#$Date: 2019-11-23 21:44:18 +0200 (Sat, 23 Nov 2019) $
#$Revision: 235170 $
#$URL: file:///home/coder/svn-repositories/cod/cif/4/03/67/4036746.cif $
#------------------------------------------------------------------------------
#
# This file is available in the Crystallography Open Database (COD),
# http://www.crystallography.net/
#
# All data on this site have been placed in the public domain by the
# contributors.
#
data_4036746
loop_
_publ_author_name
'Mamane, V.'
'Peluso, P.'
'Aubert, E.'
'Cossu, S.'
'Pale, P.'
_publ_section_title
;
 Chiral Hexahalogenated 4,4'-Bipyridines.
;
_journal_issue                   11
_journal_name_full               'The Journal of organic chemistry'
_journal_page_first              4576
_journal_page_last               4587
_journal_paper_doi               10.1021/acs.joc.6b00413
_journal_volume                  81
_journal_year                    2016
_chemical_formula_moiety         'C10 H2 Br2 I4 N2'
_chemical_formula_sum            'C10 H2 Br2 I4 N2'
_chemical_formula_weight         817.56
_space_group_crystal_system      orthorhombic
_space_group_IT_number           19
_space_group_name_Hall           'P 2ac 2ab'
_space_group_name_H-M_alt        'P 21 21 21'
_atom_sites_solution_hydrogens   geom
_atom_sites_solution_primary     direct
_atom_sites_solution_secondary   difmap
_audit_creation_method           SHELXL-97
_cell_angle_alpha                90.00
_cell_angle_beta                 90.00
_cell_angle_gamma                90.00
_cell_formula_units_Z            4
_cell_length_a                   8.177(6)
_cell_length_b                   12.152(8)
_cell_length_c                   16.434(10)
_cell_measurement_temperature    105(2)
_cell_volume                     1633.0(19)
_computing_structure_refinement  'SHELXL-97 (Sheldrick, 1997)'
_computing_structure_solution    'SHELXT (Sheldrick, 2015)'
_diffrn_ambient_temperature      105(2)
_diffrn_measured_fraction_theta_full 1.000
_diffrn_measured_fraction_theta_max 1.000
_diffrn_measurement_device_type  D8Venture
_diffrn_measurement_method       'omega scans'
_diffrn_radiation_monochromator  'multilayer optics'
_diffrn_radiation_source         'high brilliance Incoatec Microfocus Source '
_diffrn_radiation_type           MoK\a
_diffrn_radiation_wavelength     0.71073
_diffrn_reflns_av_R_equivalents  0.0381
_diffrn_reflns_av_sigmaI/netI    0.0813
_diffrn_reflns_limit_h_max       13
_diffrn_reflns_limit_h_min       -13
_diffrn_reflns_limit_k_max       18
_diffrn_reflns_limit_k_min       -20
_diffrn_reflns_limit_l_max       27
_diffrn_reflns_limit_l_min       -26
_diffrn_reflns_number            40413
_diffrn_reflns_theta_full        36.13
_diffrn_reflns_theta_max         36.13
_diffrn_reflns_theta_min         2.48
_exptl_absorpt_coefficient_mu    12.511
_exptl_absorpt_correction_T_max  0.474
_exptl_absorpt_correction_T_min  0.237
_exptl_absorpt_correction_type   numerical
_exptl_absorpt_process_details   'SADABS 2014/5'
_exptl_crystal_colour            colorless
_exptl_crystal_density_diffrn    3.325
_exptl_crystal_density_method    'not measured'
_exptl_crystal_description       block
_exptl_crystal_F_000             1432
_exptl_crystal_size_max          0.164
_exptl_crystal_size_mid          0.151
_exptl_crystal_size_min          0.073
_refine_diff_density_max         0.834
_refine_diff_density_min         -0.984
_refine_diff_density_rms         0.141
_refine_ls_abs_structure_details 'Flack H D (1983), Acta Cryst. A39, 876-881'
_refine_ls_abs_structure_Flack   0.019(5)
_refine_ls_extinction_method     none
_refine_ls_goodness_of_fit_ref   1.082
_refine_ls_hydrogen_treatment    constr
_refine_ls_matrix_type           full
_refine_ls_number_parameters     164
_refine_ls_number_reflns         7819
_refine_ls_number_restraints     0
_refine_ls_restrained_S_all      1.082
_refine_ls_R_factor_all          0.0213
_refine_ls_R_factor_gt           0.0191
_refine_ls_shift/su_max          0.002
_refine_ls_shift/su_mean         0.000
_refine_ls_structure_factor_coef Fsqd
_refine_ls_weighting_details
'calc w=1/[\s^2^(Fo^2^)+(0.0129P)^2^+1.2387P] where P=(Fo^2^+2Fc^2^)/3'
_refine_ls_weighting_scheme      calc
_refine_ls_wR_factor_gt          0.0382
_refine_ls_wR_factor_ref         0.0389
_reflns_number_gt                7513
_reflns_number_total             7819
_reflns_threshold_expression     >2sigma(I)
_cod_data_source_file            jo6b00413_si_006.cif
_cod_data_source_block           hal9br_p1
_cod_original_cell_volume        1633.0(18)
_cod_database_code               4036746
loop_
_symmetry_equiv_pos_as_xyz
'x, y, z'
'-x+1/2, -y, z+1/2'
'-x, y+1/2, -z+1/2'
'x+1/2, -y+1/2, -z'
loop_
_atom_site_label
_atom_site_type_symbol
_atom_site_fract_x
_atom_site_fract_y
_atom_site_fract_z
_atom_site_U_iso_or_equiv
_atom_site_adp_type
_atom_site_occupancy
_atom_site_symmetry_multiplicity
_atom_site_calc_flag
_atom_site_refinement_flags
I1 I 0.869330(18) 0.572268(12) 0.654526(10) 0.01495(3) Uani 1 1 d .
I3 I 0.66560(2) 0.260085(14) 0.528878(9) 0.01716(3) Uani 1 1 d .
I2 I 0.25049(2) 0.301575(13) 0.694894(10) 0.01622(3) Uani 1 1 d .
I4 I 0.60085(2) 0.490592(13) 0.856557(10) 0.01869(3) Uani 1 1 d .
Br2 Br 0.88338(3) 0.06316(2) 0.639933(16) 0.01951(5) Uani 1 1 d .
Br1 Br 0.62354(4) 0.742514(19) 0.537750(15) 0.01826(5) Uani 1 1 d .
C8 C 0.7934(3) 0.18619(19) 0.69620(15) 0.0138(4) Uani 1 1 d .
N1 N 0.3757(3) 0.59304(16) 0.55933(13) 0.0156(3) Uani 1 1 d .
C9 C 0.7052(3) 0.26731(18) 0.65435(14) 0.0122(3) Uani 1 1 d .
N7 N 0.8218(3) 0.18911(18) 0.77558(13) 0.0173(4) Uani 1 1 d .
C11 C 0.6767(3) 0.36009(18) 0.78288(14) 0.0132(4) Uani 1 1 d .
C5 C 0.3813(3) 0.43038(17) 0.64171(13) 0.0119(3) Uani 1 1 d .
C4 C 0.5489(3) 0.44449(17) 0.65697(13) 0.0110(3) Uani 1 1 d .
C6 C 0.3019(3) 0.5046(2) 0.59091(15) 0.0149(4) Uani 1 1 d .
H6 H 0.1902 0.4920 0.5781 0.018 Uiso 1 1 calc R
C10 C 0.6444(3) 0.35706(17) 0.69958(14) 0.0117(3) Uani 1 1 d .
C3 C 0.6250(3) 0.53910(17) 0.62630(13) 0.0116(3) Uani 1 1 d .
C12 C 0.7648(3) 0.2749(2) 0.81796(15) 0.0179(4) Uani 1 1 d .
H12 H 0.7858 0.2776 0.8748 0.022 Uiso 1 1 calc R
C2 C 0.5301(3) 0.61087(18) 0.57878(14) 0.0125(4) Uani 1 1 d .
loop_
_atom_site_aniso_label
_atom_site_aniso_U_11
_atom_site_aniso_U_22
_atom_site_aniso_U_33
_atom_site_aniso_U_23
_atom_site_aniso_U_13
_atom_site_aniso_U_12
I1 0.01144(5) 0.01573(6) 0.01770(6) 0.00089(5) 0.00188(5) -0.00196(5)
I3 0.01964(7) 0.02046(7) 0.01139(6) -0.00188(5) -0.00177(5) 0.00685(5)
I2 0.01520(6) 0.01437(6) 0.01911(7) 0.00134(5) 0.00294(5) -0.00370(5)
I4 0.02747(8) 0.01456(6) 0.01402(6) -0.00146(5) 0.00280(6) -0.00071(5)
Br2 0.02012(10) 0.01661(10) 0.02180(11) 0.00118(9) 0.00068(9) 0.00725(9)
Br1 0.02942(12) 0.01110(9) 0.01426(9) 0.00429(7) 0.00216(9) -0.00113(9)
C8 0.0134(8) 0.0118(9) 0.0160(9) 0.0015(8) 0.0002(7) 0.0026(7)
N1 0.0181(9) 0.0140(8) 0.0146(8) 0.0030(6) -0.0011(7) 0.0037(7)
C9 0.0125(8) 0.0124(8) 0.0118(8) 0.0018(7) -0.0022(7) 0.0002(7)
N7 0.0194(9) 0.0173(9) 0.0153(9) 0.0037(7) -0.0024(7) 0.0035(8)
C11 0.0157(9) 0.0112(9) 0.0126(9) 0.0004(7) -0.0021(7) 0.0003(7)
C5 0.0122(8) 0.0111(8) 0.0123(8) 0.0014(7) 0.0017(7) 0.0009(7)
C4 0.0121(8) 0.0099(8) 0.0109(8) 0.0000(7) 0.0002(7) 0.0009(6)
C6 0.0132(9) 0.0165(10) 0.0151(9) -0.0002(8) -0.0013(7) 0.0026(8)
C10 0.0125(9) 0.0108(8) 0.0117(8) 0.0028(7) -0.0004(7) 0.0010(7)
C3 0.0119(8) 0.0113(8) 0.0118(8) 0.0011(6) 0.0004(7) 0.0009(7)
C12 0.0203(11) 0.0194(10) 0.0141(10) 0.0033(8) -0.0039(8) 0.0033(9)
C2 0.0172(9) 0.0097(8) 0.0107(9) 0.0013(7) 0.0021(7) 0.0008(7)
loop_
_atom_type_symbol
_atom_type_description
_atom_type_scat_dispersion_real
_atom_type_scat_dispersion_imag
_atom_type_scat_source
C C 0.0033 0.0016 'International Tables Vol C Tables 4.2.6.8 and 6.1.1.4'
H H 0.0000 0.0000 'International Tables Vol C Tables 4.2.6.8 and 6.1.1.4'
N N 0.0061 0.0033 'International Tables Vol C Tables 4.2.6.8 and 6.1.1.4'
Br Br -0.2901 2.4595 'International Tables Vol C Tables 4.2.6.8 and 6.1.1.4'
I I -0.4742 1.8119 'International Tables Vol C Tables 4.2.6.8 and 6.1.1.4'
loop_
_geom_angle_atom_site_label_1
_geom_angle_atom_site_label_2
_geom_angle_atom_site_label_3
_geom_angle
N7 C8 C9 123.7(2)
N7 C8 Br2 115.52(17)
C9 C8 Br2 120.82(18)
C2 N1 C6 118.0(2)
C8 C9 C10 117.8(2)
C8 C9 I3 122.31(17)
C10 C9 I3 119.88(16)
C8 N7 C12 118.2(2)
C12 C11 C10 119.1(2)
C12 C11 I4 118.69(18)
C10 C11 I4 122.17(16)
C6 C5 C4 118.9(2)
C6 C5 I2 119.93(17)
C4 C5 I2 121.13(16)
C3 C4 C5 118.0(2)
C3 C4 C10 121.3(2)
C5 C4 C10 120.52(19)
N1 C6 C5 123.0(2)
N1 C6 H6 118.5
C5 C6 H6 118.5
C11 C10 C9 118.10(19)
C11 C10 C4 122.7(2)
C9 C10 C4 119.2(2)
C4 C3 C2 117.6(2)
C4 C3 I1 120.21(16)
C2 C3 I1 122.12(17)
N7 C12 C11 123.1(2)
N7 C12 H12 118.4
C11 C12 H12 118.4
N1 C2 C3 124.1(2)
N1 C2 Br1 115.94(17)
C3 C2 Br1 119.93(18)
loop_
_geom_bond_atom_site_label_1
_geom_bond_atom_site_label_2
_geom_bond_distance
I1 C3 2.090(3)
I3 C9 2.089(3)
I2 C5 2.088(2)
I4 C11 2.090(2)
Br2 C8 1.906(2)
Br1 C2 1.897(2)
C8 N7 1.326(3)
C8 C9 1.402(3)
N1 C2 1.321(3)
N1 C6 1.337(3)
C9 C10 1.410(3)
N7 C12 1.337(3)
C11 C12 1.387(3)
C11 C10 1.395(3)
C5 C6 1.390(3)
C5 C4 1.404(3)
C4 C3 1.401(3)
C4 C10 1.493(3)
C6 H6 0.9500
C3 C2 1.404(3)
C12 H12 0.9500
loop_
_geom_torsion_atom_site_label_1
_geom_torsion_atom_site_label_2
_geom_torsion_atom_site_label_3
_geom_torsion_atom_site_label_4
_geom_torsion
N7 C8 C9 C10 0.3(3)
Br2 C8 C9 C10 -178.94(16)
N7 C8 C9 I3 179.34(19)
Br2 C8 C9 I3 0.1(3)
C9 C8 N7 C12 -0.9(4)
Br2 C8 N7 C12 178.45(19)
C6 C5 C4 C3 5.9(3)
I2 C5 C4 C3 -173.36(16)
C6 C5 C4 C10 -169.8(2)
I2 C5 C4 C10 10.9(3)
C2 N1 C6 C5 -1.2(4)
C4 C5 C6 N1 -3.9(4)
I2 C5 C6 N1 175.36(18)
C12 C11 C10 C9 -0.8(3)
I4 C11 C10 C9 177.95(16)
C12 C11 C10 C4 179.2(2)
I4 C11 C10 C4 -2.0(3)
C8 C9 C10 C11 0.5(3)
I3 C9 C10 C11 -178.53(17)
C8 C9 C10 C4 -179.5(2)
I3 C9 C10 C4 1.4(3)
C3 C4 C10 C11 87.3(3)
C5 C4 C10 C11 -97.1(3)
C3 C4 C10 C9 -92.7(3)
C5 C4 C10 C9 83.0(3)
C5 C4 C3 C2 -3.1(3)
C10 C4 C3 C2 172.6(2)
C5 C4 C3 I1 174.99(16)
C10 C4 C3 I1 -9.3(3)
C8 N7 C12 C11 0.5(4)
C10 C11 C12 N7 0.3(4)
I4 C11 C12 N7 -178.5(2)
C6 N1 C2 C3 4.3(4)
C6 N1 C2 Br1 -176.08(17)
C4 C3 C2 N1 -2.1(3)
I1 C3 C2 N1 179.83(18)
C4 C3 C2 Br1 178.28(16)
I1 C3 C2 Br1 0.2(3)
