#------------------------------------------------------------------------------
#$Date: 2019-11-23 21:41:36 +0200 (Sat, 23 Nov 2019) $
#$Revision: 235158 $
#$URL: file:///home/coder/svn-repositories/cod/cif/4/03/67/4036739.cif $
#------------------------------------------------------------------------------
#
# This file is available in the Crystallography Open Database (COD),
# http://www.crystallography.net/
#
# All data on this site have been placed in the public domain by the
# contributors.
#
data_4036739
loop_
_publ_author_name
'Mamane, V.'
'Peluso, P.'
'Aubert, E.'
'Cossu, S.'
'Pale, P.'
_publ_section_title
;
 Chiral Hexahalogenated 4,4'-Bipyridines.
;
_journal_issue                   11
_journal_name_full               'The Journal of organic chemistry'
_journal_page_first              4576
_journal_page_last               4587
_journal_paper_doi               10.1021/acs.joc.6b00413
_journal_volume                  81
_journal_year                    2016
_chemical_formula_moiety         'C10 H2 Br2 I4 N2'
_chemical_formula_sum            'C10 H2 Br2 I4 N2'
_chemical_formula_weight         817.56
_space_group_crystal_system      orthorhombic
_space_group_IT_number           19
_space_group_name_Hall           'P 2ac 2ab'
_space_group_name_H-M_alt        'P 21 21 21'
_atom_sites_solution_hydrogens   geom
_atom_sites_solution_primary     direct
_atom_sites_solution_secondary   difmap
_audit_creation_method           SHELXL-97
_cell_angle_alpha                90.00
_cell_angle_beta                 90.00
_cell_angle_gamma                90.00
_cell_formula_units_Z            4
_cell_length_a                   7.985(3)
_cell_length_b                   11.766(4)
_cell_length_c                   17.716(7)
_cell_measurement_temperature    105(2)
_cell_volume                     1664.4(11)
_computing_structure_refinement  'SHELXL-97 (Sheldrick, 1997)'
_computing_structure_solution    'SHELXT (Sheldrick, 2015)'
_diffrn_ambient_temperature      105(2)
_diffrn_measured_fraction_theta_full 1.000
_diffrn_measured_fraction_theta_max 1.000
_diffrn_measurement_device_type  D8Venture
_diffrn_measurement_method       'omega scans'
_diffrn_radiation_monochromator  'multilayer optics'
_diffrn_radiation_source         'high brilliance Incoatec Microfocus Source '
_diffrn_radiation_type           MoK\a
_diffrn_radiation_wavelength     0.71073
_diffrn_reflns_av_R_equivalents  0.0641
_diffrn_reflns_av_sigmaI/netI    0.1125
_diffrn_reflns_limit_h_max       13
_diffrn_reflns_limit_h_min       -12
_diffrn_reflns_limit_k_max       19
_diffrn_reflns_limit_k_min       -19
_diffrn_reflns_limit_l_max       29
_diffrn_reflns_limit_l_min       -29
_diffrn_reflns_number            50710
_diffrn_reflns_theta_full        36.15
_diffrn_reflns_theta_max         36.15
_diffrn_reflns_theta_min         2.08
_exptl_absorpt_coefficient_mu    12.275
_exptl_absorpt_correction_T_max  0.273
_exptl_absorpt_correction_T_min  0.124
_exptl_absorpt_correction_type   numerical
_exptl_absorpt_process_details   'SADABS 2014/5'
_exptl_crystal_colour            colorless
_exptl_crystal_density_diffrn    3.263
_exptl_crystal_density_method    'not measured'
_exptl_crystal_description       block
_exptl_crystal_F_000             1432
_exptl_crystal_size_max          0.291
_exptl_crystal_size_mid          0.223
_exptl_crystal_size_min          0.145
_refine_diff_density_max         0.975
_refine_diff_density_min         -2.046
_refine_diff_density_rms         0.247
_refine_ls_abs_structure_details 'Flack H D (1983), Acta Cryst. A39, 876-881'
_refine_ls_abs_structure_Flack   0.027(9)
_refine_ls_extinction_method     none
_refine_ls_goodness_of_fit_ref   1.105
_refine_ls_hydrogen_treatment    constr
_refine_ls_matrix_type           full
_refine_ls_number_parameters     164
_refine_ls_number_reflns         7978
_refine_ls_number_restraints     0
_refine_ls_restrained_S_all      1.105
_refine_ls_R_factor_all          0.0291
_refine_ls_R_factor_gt           0.0287
_refine_ls_shift/su_max          0.002
_refine_ls_shift/su_mean         0.000
_refine_ls_structure_factor_coef Fsqd
_refine_ls_weighting_details
'calc w=1/[\s^2^(Fo^2^)+(0.0350P)^2^+5.2083P] where P=(Fo^2^+2Fc^2^)/3'
_refine_ls_weighting_scheme      calc
_refine_ls_wR_factor_gt          0.0753
_refine_ls_wR_factor_ref         0.0755
_reflns_number_gt                7871
_reflns_number_total             7978
_reflns_threshold_expression     >2sigma(I)
_cod_data_source_file            jo6b00413_si_011.cif
_cod_data_source_block           hal11f_p2
_cod_original_cell_volume        1664.3(11)
_cod_database_code               4036739
loop_
_symmetry_equiv_pos_as_xyz
'x, y, z'
'-x+1/2, -y, z+1/2'
'-x, y+1/2, -z+1/2'
'x+1/2, -y+1/2, -z'
loop_
_atom_site_label
_atom_site_type_symbol
_atom_site_fract_x
_atom_site_fract_y
_atom_site_fract_z
_atom_site_U_iso_or_equiv
_atom_site_adp_type
_atom_site_occupancy
_atom_site_symmetry_multiplicity
_atom_site_calc_flag
_atom_site_refinement_flags
I1 I 0.70876(3) 0.265364(18) 0.528730(12) 0.01275(4) Uani 1 1 d .
I4 I 0.56573(3) 0.54016(2) 0.833445(14) 0.01735(5) Uani 1 1 d .
I3 I 0.92793(3) 0.97962(2) 0.632836(15) 0.01812(5) Uani 1 1 d .
I2 I 0.24515(3) 0.71784(2) 0.665325(16) 0.01874(5) Uani 1 1 d .
Br1 Br 0.87514(4) 0.45821(4) 0.65709(2) 0.01734(7) Uani 1 1 d .
Br2 Br 0.70725(6) 0.75990(4) 0.54307(2) 0.02289(8) Uani 1 1 d .
N1 N 0.4122(4) 0.4093(2) 0.55870(17) 0.0120(5) Uani 1 1 d .
N7 N 0.8237(4) 0.8436(3) 0.7629(2) 0.0157(5) Uani 1 1 d .
C3 C 0.6529(4) 0.4799(3) 0.62408(19) 0.0119(5) Uani 1 1 d .
C6 C 0.3231(4) 0.4974(3) 0.5850(2) 0.0127(5) Uani 1 1 d .
H6 H 0.2075 0.5021 0.5727 0.015 Uiso 1 1 calc R
C12 C 0.7552(5) 0.7579(3) 0.8019(2) 0.0149(5) Uani 1 1 d .
H12 H 0.7665 0.7575 0.8553 0.018 Uiso 1 1 calc R
C9 C 0.7257(4) 0.7587(3) 0.64853(19) 0.0124(5) Uani 1 1 d .
C10 C 0.6505(4) 0.6688(3) 0.68953(19) 0.0111(5) Uani 1 1 d .
C5 C 0.3934(4) 0.5820(3) 0.62963(19) 0.0111(5) Uani 1 1 d .
C2 C 0.5728(4) 0.4000(3) 0.57737(18) 0.0111(5) Uani 1 1 d .
C8 C 0.8099(4) 0.8437(3) 0.6881(2) 0.0122(5) Uani 1 1 d .
C11 C 0.6680(4) 0.6694(3) 0.7676(2) 0.0125(5) Uani 1 1 d .
C4 C 0.5633(4) 0.5752(3) 0.64857(18) 0.0111(5) Uani 1 1 d .
loop_
_atom_site_aniso_label
_atom_site_aniso_U_11
_atom_site_aniso_U_22
_atom_site_aniso_U_33
_atom_site_aniso_U_23
_atom_site_aniso_U_13
_atom_site_aniso_U_12
I1 0.01430(8) 0.00985(8) 0.01410(8) -0.00358(6) 0.00099(7) 0.00163(6)
I4 0.01909(10) 0.01633(9) 0.01663(9) 0.00068(7) 0.00327(8) -0.00338(7)
I3 0.01637(9) 0.01328(9) 0.02471(11) 0.00286(8) -0.00071(8) -0.00342(7)
I2 0.01427(9) 0.01382(9) 0.02813(11) -0.00796(8) -0.00147(8) 0.00498(7)
Br1 0.00930(12) 0.02051(16) 0.02222(16) -0.00877(13) -0.00348(11) 0.00318(11)
Br2 0.0323(2) 0.02325(18) 0.01317(14) 0.00143(12) -0.00216(13) -0.01052(17)
N1 0.0110(11) 0.0090(10) 0.0159(11) -0.0024(8) -0.0011(9) 0.0003(9)
N7 0.0161(13) 0.0124(12) 0.0187(13) -0.0024(10) -0.0043(10) -0.0018(10)
C3 0.0108(11) 0.0121(12) 0.0128(12) -0.0038(10) -0.0008(9) 0.0004(10)
C6 0.0109(12) 0.0106(12) 0.0165(13) -0.0032(10) -0.0024(10) 0.0001(9)
C12 0.0165(13) 0.0137(13) 0.0145(12) -0.0035(10) -0.0022(11) -0.0019(11)
C9 0.0109(11) 0.0130(12) 0.0132(11) -0.0022(9) -0.0004(9) -0.0014(10)
C10 0.0097(11) 0.0109(12) 0.0127(12) -0.0024(9) 0.0003(9) 0.0003(9)
C5 0.0106(11) 0.0089(11) 0.0138(12) -0.0030(9) -0.0003(9) 0.0009(9)
C2 0.0124(12) 0.0088(11) 0.0122(11) -0.0023(9) -0.0013(10) 0.0004(10)
C8 0.0109(12) 0.0102(12) 0.0157(12) -0.0017(9) -0.0015(10) 0.0000(10)
C11 0.0124(12) 0.0117(12) 0.0132(12) -0.0013(10) 0.0012(10) -0.0011(10)
C4 0.0105(11) 0.0104(11) 0.0124(11) -0.0032(9) -0.0006(9) -0.0005(9)
loop_
_atom_type_symbol
_atom_type_description
_atom_type_scat_dispersion_real
_atom_type_scat_dispersion_imag
_atom_type_scat_source
C C 0.0033 0.0016 'International Tables Vol C Tables 4.2.6.8 and 6.1.1.4'
H H 0.0000 0.0000 'International Tables Vol C Tables 4.2.6.8 and 6.1.1.4'
N N 0.0061 0.0033 'International Tables Vol C Tables 4.2.6.8 and 6.1.1.4'
Br Br -0.2901 2.4595 'International Tables Vol C Tables 4.2.6.8 and 6.1.1.4'
I I -0.4742 1.8119 'International Tables Vol C Tables 4.2.6.8 and 6.1.1.4'
loop_
_geom_angle_atom_site_label_1
_geom_angle_atom_site_label_2
_geom_angle_atom_site_label_3
_geom_angle
C2 N1 C6 119.3(3)
C8 N7 C12 118.8(3)
C4 C3 C2 119.1(3)
C4 C3 Br1 119.6(2)
C2 C3 Br1 121.3(3)
N1 C6 C5 122.5(3)
N1 C6 H6 118.8
C5 C6 H6 118.8
N7 C12 C11 122.8(3)
N7 C12 H12 118.6
C11 C12 H12 118.6
C8 C9 C10 118.8(3)
C8 C9 Br2 122.3(3)
C10 C9 Br2 118.9(2)
C11 C10 C9 117.6(3)
C11 C10 C4 122.3(3)
C9 C10 C4 120.0(3)
C6 C5 C4 119.1(3)
C6 C5 I2 119.4(2)
C4 C5 I2 121.4(2)
N1 C2 C3 122.0(3)
N1 C2 I1 117.3(2)
C3 C2 I1 120.6(3)
N7 C8 C9 122.7(3)
N7 C8 I3 115.4(3)
C9 C8 I3 121.9(3)
C10 C11 C12 119.2(3)
C10 C11 I4 121.0(3)
C12 C11 I4 119.8(3)
C3 C4 C5 117.9(3)
C3 C4 C10 120.3(3)
C5 C4 C10 121.7(3)
loop_
_geom_bond_atom_site_label_1
_geom_bond_atom_site_label_2
_geom_bond_distance
I1 C2 2.105(3)
I4 C11 2.083(4)
I3 C8 2.098(4)
I2 C5 2.087(3)
Br1 C3 1.886(3)
Br2 C9 1.874(3)
N1 C2 1.329(5)
N1 C6 1.340(4)
N7 C8 1.328(5)
N7 C12 1.340(5)
C3 C4 1.398(5)
C3 C2 1.407(5)
C6 C5 1.390(5)
C6 H6 0.9500
C12 C11 1.392(5)
C12 H12 0.9500
C9 C8 1.395(5)
C9 C10 1.417(5)
C10 C11 1.390(5)
C10 C4 1.492(5)
C5 C4 1.400(5)
loop_
_geom_torsion_atom_site_label_1
_geom_torsion_atom_site_label_2
_geom_torsion_atom_site_label_3
_geom_torsion_atom_site_label_4
_geom_torsion
C2 N1 C6 C5 2.0(5)
C8 N7 C12 C11 -0.8(6)
C8 C9 C10 C11 -1.3(5)
Br2 C9 C10 C11 179.2(3)
C8 C9 C10 C4 -178.5(3)
Br2 C9 C10 C4 2.1(4)
N1 C6 C5 C4 -0.5(5)
N1 C6 C5 I2 178.4(3)
C6 N1 C2 C3 0.0(5)
C6 N1 C2 I1 -176.3(3)
C4 C3 C2 N1 -3.3(5)
Br1 C3 C2 N1 174.4(3)
C4 C3 C2 I1 172.9(3)
Br1 C3 C2 I1 -9.4(4)
C12 N7 C8 C9 0.5(6)
C12 N7 C8 I3 -178.3(3)
C10 C9 C8 N7 0.6(5)
Br2 C9 C8 N7 -180.0(3)
C10 C9 C8 I3 179.3(2)
Br2 C9 C8 I3 -1.2(4)
C9 C10 C11 C12 1.0(5)
C4 C10 C11 C12 178.1(3)
C9 C10 C11 I4 -179.0(2)
C4 C10 C11 I4 -2.0(5)
N7 C12 C11 C10 0.0(6)
N7 C12 C11 I4 -179.9(3)
C2 C3 C4 C5 4.5(5)
Br1 C3 C4 C5 -173.2(3)
C2 C3 C4 C10 -171.9(3)
Br1 C3 C4 C10 10.4(5)
C6 C5 C4 C3 -2.7(5)
I2 C5 C4 C3 178.4(3)
C6 C5 C4 C10 173.7(3)
I2 C5 C4 C10 -5.2(5)
C11 C10 C4 C3 -89.3(4)
C9 C10 C4 C3 87.7(4)
C11 C10 C4 C5 94.4(4)
C9 C10 C4 C5 -88.6(4)
