#------------------------------------------------------------------------------
#$Date: 2019-12-14 03:15:32 +0200 (Sat, 14 Dec 2019) $
#$Revision: 245171 $
#$URL: file:///home/coder/svn-repositories/cod/cif/4/03/76/4037661.cif $
#------------------------------------------------------------------------------
#
# This file is available in the Crystallography Open Database (COD),
# http://www.crystallography.net/
#
# All data on this site have been placed in the public domain by the
# contributors.
#
data_4037661
loop_
_publ_author_name
'Brunner, Henri'
'Tsuno, Takashi'
'Bal\'azs, G\'abor'
_publ_section_title
;
 Chiral Selectivity in the Achiral Amino Acid Glycine.
;
_journal_name_full               'The Journal of organic chemistry'
_journal_paper_doi               10.1021/acs.joc.9b02726
_journal_year                    2019
_chemical_formula_moiety         'C2 H5 N O2'
_chemical_formula_sum            'C2 H5 N O2'
_chemical_formula_weight         75.07
_space_group_crystal_system      monoclinic
_space_group_IT_number           14
_space_group_name_Hall           '-P 2yn'
_space_group_name_H-M_alt        'P 1 21/n 1'
_atom_sites_solution_hydrogens   geom
_atom_sites_solution_primary     dual
_audit_creation_date             2019-04-18
_audit_creation_method
;
Olex2 1.2
(compiled 2018.05.29 svn.r3508 for OlexSys, GUI svn.r5506)
;
_cell_angle_alpha                90
_cell_angle_beta                 111.883(9)
_cell_angle_gamma                90
_cell_formula_units_Z            4
_cell_length_a                   5.0931(4)
_cell_length_b                   11.8467(8)
_cell_length_c                   5.4611(4)
_cell_measurement_reflns_used    895
_cell_measurement_temperature    173
_cell_measurement_theta_max      29.9450
_cell_measurement_theta_min      3.4300
_cell_volume                     305.76(4)
_computing_cell_refinement       'CrysAlisPro 1.171.39.46e (Rigaku OD, 2018)'
_computing_data_collection       'CrysAlisPro 1.171.39.46e (Rigaku OD, 2018)'
_computing_data_reduction        'CrysAlisPro 1.171.39.46e (Rigaku OD, 2018)'
_computing_molecular_graphics    'Olex2 (Dolomanov et al., 2009)'
_computing_publication_material  'Olex2 (Dolomanov et al., 2009)'
_computing_structure_refinement  'ShelXL (Sheldrick, 2015)'
_computing_structure_solution    'ShelXT (Sheldrick, 2015)'
_diffrn_ambient_temperature      173
_diffrn_detector                 'Rigaku HyPix-3000 area detector'
_diffrn_detector_area_resol_mean 10.0
_diffrn_detector_type            'HPC area detector'
_diffrn_measured_fraction_theta_full 0.998
_diffrn_measured_fraction_theta_max 0.955
_diffrn_measurement_details
;
List of Runs (angles in degrees, time in seconds):

  # Type    Start    End  Width  t~exp~   \w     \q     \k     \f   Frames
--------------------------------------------------------------------------
  1  \w    -71.00 110.00   0.50   10.00    --   20.00  54.00-150.00  362
  2  \w    -68.00 -42.00   0.50   10.00    --   20.00  54.00 -30.00   52
  3  \w     48.00  73.00   0.50   10.00    --   20.00  54.00 -30.00   50
  4  \w    -58.00 -33.00   0.50   10.00    --   20.00  54.00 120.00   50
  5  \w     22.00  84.00   0.50   10.00    --   20.00  54.00 120.00  124
  6  \w    -59.00  68.00   0.50   10.00    --   20.00  54.00 -90.00  254
;
_diffrn_measurement_device       'fixed-chi diffractometer'
_diffrn_measurement_device_type  'Rigaku XtaLAB mini2'
_diffrn_measurement_method       '\w scans'
_diffrn_orient_matrix_type
'CrysAlisPro convention (1999,Acta A55,543-557)'
_diffrn_orient_matrix_UB_11      0.1294602000
_diffrn_orient_matrix_UB_12      0.0211918000
_diffrn_orient_matrix_UB_13      -0.0019003000
_diffrn_orient_matrix_UB_21      0.0096083000
_diffrn_orient_matrix_UB_22      -0.0470104000
_diffrn_orient_matrix_UB_23      -0.0764894000
_diffrn_orient_matrix_UB_31      -0.0753378000
_diffrn_orient_matrix_UB_32      0.0303777000
_diffrn_orient_matrix_UB_33      -0.1173383000
_diffrn_radiation_monochromator  'curved graphite'
_diffrn_radiation_probe          x-ray
_diffrn_radiation_type           MoK\a
_diffrn_radiation_wavelength     0.71073
_diffrn_reflns_av_R_equivalents  0.0235
_diffrn_reflns_av_unetI/netI     0.0369
_diffrn_reflns_Laue_measured_fraction_full 0.998
_diffrn_reflns_Laue_measured_fraction_max 0.955
_diffrn_reflns_limit_h_max       7
_diffrn_reflns_limit_h_min       -6
_diffrn_reflns_limit_k_max       16
_diffrn_reflns_limit_k_min       -16
_diffrn_reflns_limit_l_max       7
_diffrn_reflns_limit_l_min       -7
_diffrn_reflns_number            2326
_diffrn_reflns_point_group_measured_fraction_full 0.998
_diffrn_reflns_point_group_measured_fraction_max 0.955
_diffrn_reflns_theta_full        25.242
_diffrn_reflns_theta_max         30.456
_diffrn_reflns_theta_min         3.439
_diffrn_source                   'Sealed X-ray tube'
_diffrn_source_type              'Sealed X-ray tube'
_exptl_absorpt_coefficient_mu    0.145
_exptl_absorpt_correction_T_max  1.00000
_exptl_absorpt_correction_T_min  0.93513
_exptl_absorpt_correction_type   multi-scan
_exptl_absorpt_process_details
;
CrysAlisPro 1.171.39.46e (Rigaku Oxford Diffraction, 2018)
Empirical absorption correction using spherical harmonics,
 implemented in SCALE3 ABSPACK scaling algorithm.
;
_exptl_crystal_colour            colourless
_exptl_crystal_colour_primary    colourless
_exptl_crystal_density_diffrn    1.631
_exptl_crystal_description       prism
_exptl_crystal_F_000             160
_exptl_crystal_recrystallization_method 'From H2O and EtOH'
_exptl_crystal_size_max          0.445
_exptl_crystal_size_mid          0.155
_exptl_crystal_size_min          0.102
_refine_diff_density_max         0.346
_refine_diff_density_min         -0.214
_refine_diff_density_rms         0.051
_refine_ls_extinction_coef       0.037(10)
_refine_ls_extinction_expression Fc^*^=kFc[1+0.001xFc^2^\l^3^/sin(2\q)]^-1/4^
_refine_ls_extinction_method     'SHELXL-2016/6 (Sheldrick 2016)'
_refine_ls_goodness_of_fit_ref   1.088
_refine_ls_hydrogen_treatment    constr
_refine_ls_matrix_type           full
_refine_ls_number_parameters     48
_refine_ls_number_reflns         893
_refine_ls_number_restraints     0
_refine_ls_restrained_S_all      1.088
_refine_ls_R_factor_all          0.0524
_refine_ls_R_factor_gt           0.0359
_refine_ls_shift/su_max          0.000
_refine_ls_shift/su_mean         0.000
_refine_ls_structure_factor_coef Fsqd
_refine_ls_weighting_details
'w=1/[\s^2^(Fo^2^)+(0.0370P)^2^+0.0760P] where P=(Fo^2^+2Fc^2^)/3'
_refine_ls_weighting_scheme      calc
_refine_ls_wR_factor_gt          0.0871
_refine_ls_wR_factor_ref         0.0936
_reflns_Friedel_coverage         0.000
_reflns_number_gt                696
_reflns_number_total             893
_reflns_threshold_expression     'I > 2\s(I)'
_iucr_refine_instructions_details
;
TITL exp_39_a.res in P2(1)/n
    exp_39.res
    created by SHELXL-2016/6 at 10:52:16 on 18-Apr-2019
REM Old TITL exp_39_a.res in P2(1)/n
REM SHELXT solution in P2(1)/n
REM R1 0.114, Rweak 0.005, Alpha 0.012, Orientation as input
REM Formula found by SHELXT: C2 N O2
CELL 0.71073 5.0931 11.8467 5.4611 90 111.883 90
ZERR 4 0.0004 0.0008 0.0004 0 0.009 0
LATT 1
SYMM 0.5-X,0.5+Y,0.5-Z
SFAC C H N O
UNIT 8 20 4 8

L.S. 20
PLAN  20
BOND $H
list 4
fmap 2
ACTA
OMIT 0 2 1
REM <olex2.extras>
REM <HklSrc "%.\\exp_39.hkl">
REM </olex2.extras>

WGHT    0.037000    0.076000
EXTI    0.036764
FVAR       1.31549
O001  4    0.196868    0.593903    0.264020    11.00000    0.01650    0.02335 =
         0.01080   -0.00147    0.00496   -0.00351
O002  4    0.652728    0.642178    0.393783    11.00000    0.01395    0.02824 =
         0.01600    0.00253    0.00779   -0.00028
N003  3    0.203032    0.589126    0.759397    11.00000    0.01531    0.02013 =
         0.00899   -0.00081    0.00457   -0.00180
AFIX 137
H00A  2    0.039660    0.618066    0.651340    11.00000   -1.20000
H00B  2    0.219993    0.599831    0.925931    11.00000   -1.20000
H00C  2    0.207002    0.515510    0.728437    11.00000   -1.20000
AFIX   0
C004  1    0.428892    0.625042    0.434052    11.00000    0.01534    0.01090 =
         0.01135    0.00184    0.00554    0.00264
C005  1    0.439682    0.645563    0.713680    11.00000    0.01301    0.01745 =
         0.01028   -0.00145    0.00473   -0.00218
AFIX  23
H00E  2    0.617679    0.617472    0.839634    11.00000   -1.20000
H00D  2    0.431433    0.726075    0.742337    11.00000   -1.20000
AFIX   0
HKLF 4




REM  exp_39_a.res in P2(1)/n
REM R1 =  0.0359 for     696 Fo > 4sig(Fo)  and  0.0524 for all     893 data
REM     48 parameters refined using      0 restraints

END  
     
WGHT      0.0358      0.0790 

REM Highest difference peak  0.346,  deepest hole -0.214,  1-sigma level  0.051
Q1    1   0.4352  0.6234  0.5772  11.00000  0.05    0.35
Q2    1   0.3285  0.6195  0.7254  11.00000  0.05    0.28
Q3    1   0.1817  0.6143  0.0879  11.00000  0.05    0.21
Q4    1   0.6599  0.6580  0.9016  11.00000  0.05    0.15
Q5    1   0.7595  0.5882  0.7709  11.00000  0.05    0.15
Q6    1   0.6867  0.6806  0.3125  11.00000  0.05    0.14
Q7    1   0.6683  0.6152  0.2402  11.00000  0.05    0.14
Q8    1   0.1312  0.6062  0.3915  11.00000  0.05    0.14
Q9    1   0.2422  0.5625  0.1639  11.00000  0.05    0.14
Q10   1   0.8626  0.7288  0.4763  11.00000  0.05    0.13
Q11   1   0.7192  0.5898  0.9251  11.00000  0.05    0.13
Q12   1   0.0964  0.4785  0.2404  11.00000  0.05    0.13
Q13   1   0.7573  0.6575  0.5574  11.00000  0.05    0.13
Q14   1   0.6293  0.5955  0.5121  11.00000  0.05    0.13
Q15   1   0.2806  0.6268  0.3136  11.00000  0.05    0.12
Q16   1   0.3069  0.6947  0.8858  11.00000  0.05    0.12
Q17   1   0.1490  0.5581  0.3677  11.00000  0.05    0.12
Q18   1   0.8577  0.6589  0.9151  11.00000  0.05    0.12
Q19   1   0.0324  0.6819  0.9744  11.00000  0.05    0.12
Q20   1   0.7896  0.6336  1.0934  11.00000  0.05    0.12

  REM The information below was added by Olex2.
  REM
  REM R1 = 0.0359 for 696 Fo > 4sig(Fo) and 0.0524 for all 2432 data
  REM n/a parameters refined using n/a restraints
  REM Highest difference peak 0.35, deepest hole -0.21
  REM Mean Shift 0, Max Shift 0.000.

  REM +++ Tabular Listing of Refinement Information +++
  REM R1_all = 0.0524
  REM R1_gt = 0.0359
  REM wR_ref = 0.0936
  REM GOOF = 1.088
  REM Shift_max = 0.000
  REM Shift_mean = 0
  REM Reflections_all = 2432
  REM Reflections_gt = 696
  REM Parameters = n/a
  REM Hole = -0.21
  REM Peak = 0.35
  REM Flack = n/a

  
;
_cod_data_source_file            jo9b02726_si_002.cif
_cod_data_source_block           CCDC1916193
_cod_database_code               4037661
_shelx_shelxl_version_number     2016/6
_shelx_space_group_comment
;
The symmetry employed for this shelxl refinement is uniquely defined
by the following loop, which should always be used as a source of
symmetry information in preference to the above space-group names.
They are only intended as comments.
;
_reflns_odcompleteness_completeness 95.63
_reflns_odcompleteness_iscentric 1
_reflns_odcompleteness_theta     30.39
_olex2_refinement_description
;
1. Others
 Fixed Uiso: H00A(0.018) H00B(0.018) H00C(0.018) H00E(0.016) H00D(0.016)
 Fixed X: H00A(0.03966) H00B(0.219993) H00C(0.207002) H00E(0.617679)
 H00D(0.431433)
 Fixed Y: H00A(0.618066) H00B(0.599831) H00C(0.51551) H00E(0.617472)
 H00D(0.726075)
 Fixed Z: H00A(0.65134) H00B(0.925931) H00C(0.728437) H00E(0.839634)
 H00D(0.742337)
;
_olex2_submission_special_instructions 'No special instructions were received'
_oxdiff_exptl_absorpt_empirical_details
;
Empirical correction (ABSPACK) includes:
- Absorption correction using spherical harmonics
- Frame scaling
;
_oxdiff_exptl_absorpt_empirical_full_max 1.085
_oxdiff_exptl_absorpt_empirical_full_min 0.928
loop_
_space_group_symop_operation_xyz
'x, y, z'
'-x+1/2, y+1/2, -z+1/2'
'-x, -y, -z'
'x-1/2, -y-1/2, z-1/2'
loop_
_atom_site_label
_atom_site_type_symbol
_atom_site_fract_x
_atom_site_fract_y
_atom_site_fract_z
_atom_site_U_iso_or_equiv
_atom_site_adp_type
_atom_site_occupancy
_atom_site_site_symmetry_order
_atom_site_calc_flag
_atom_site_refinement_flags_posn
O001 O 0.19687(18) 0.59390(8) 0.26402(16) 0.0169(2) Uani 1 1 d .
O002 O 0.65273(18) 0.64218(8) 0.39378(17) 0.0188(2) Uani 1 1 d .
N003 N 0.2030(2) 0.58913(9) 0.75940(19) 0.0148(2) Uani 1 1 d .
H00A H 0.039660 0.618066 0.651340 0.018 Uiso 1 1 calc GR
H00B H 0.219993 0.599831 0.925931 0.018 Uiso 1 1 calc GR
H00C H 0.207002 0.515510 0.728437 0.018 Uiso 1 1 calc GR
C004 C 0.4289(2) 0.62504(10) 0.4341(2) 0.0124(2) Uani 1 1 d .
C005 C 0.4397(2) 0.64556(10) 0.7137(2) 0.0135(3) Uani 1 1 d .
H00E H 0.617679 0.617472 0.839634 0.016 Uiso 1 1 calc R
H00D H 0.431433 0.726075 0.742337 0.016 Uiso 1 1 calc R
loop_
_atom_site_aniso_label
_atom_site_aniso_U_11
_atom_site_aniso_U_22
_atom_site_aniso_U_33
_atom_site_aniso_U_23
_atom_site_aniso_U_13
_atom_site_aniso_U_12
O001 0.0165(4) 0.0234(5) 0.0108(4) -0.0015(4) 0.0050(3) -0.0035(4)
O002 0.0140(4) 0.0282(5) 0.0160(4) 0.0025(4) 0.0078(3) -0.0003(4)
N003 0.0153(5) 0.0201(5) 0.0090(4) -0.0008(4) 0.0046(4) -0.0018(4)
C004 0.0153(6) 0.0109(5) 0.0113(5) 0.0018(4) 0.0055(4) 0.0026(4)
C005 0.0130(5) 0.0175(6) 0.0103(5) -0.0014(4) 0.0047(4) -0.0022(4)
loop_
_atom_type_symbol
_atom_type_description
_atom_type_scat_dispersion_real
_atom_type_scat_dispersion_imag
_atom_type_scat_source
C C 0.0033 0.0016 'International Tables Vol C Tables 4.2.6.8 and 6.1.1.4'
H H 0.0000 0.0000 'International Tables Vol C Tables 4.2.6.8 and 6.1.1.4'
N N 0.0061 0.0033 'International Tables Vol C Tables 4.2.6.8 and 6.1.1.4'
O O 0.0106 0.0060 'International Tables Vol C Tables 4.2.6.8 and 6.1.1.4'
loop_
_geom_angle_atom_site_label_1
_geom_angle_atom_site_label_2
_geom_angle_atom_site_label_3
_geom_angle
H00A N003 H00B 109.5
H00A N003 H00C 109.5
H00B N003 H00C 109.5
C005 N003 H00A 109.5
C005 N003 H00B 109.5
C005 N003 H00C 109.5
O001 C004 C005 117.35(10)
O002 C004 O001 125.71(11)
O002 C004 C005 116.93(11)
N003 C005 C004 111.66(9)
N003 C005 H00E 109.3
N003 C005 H00D 109.3
C004 C005 H00E 109.3
C004 C005 H00D 109.3
H00E C005 H00D 107.9
loop_
_geom_bond_atom_site_label_1
_geom_bond_atom_site_label_2
_geom_bond_distance
O001 C004 1.2557(14)
O002 C004 1.2554(15)
N003 H00A 0.8900
N003 H00B 0.8900
N003 H00C 0.8900
N003 C005 1.4786(15)
C004 C005 1.5269(16)
C005 H00E 0.9700
C005 H00D 0.9700
loop_
_refln_index_h
_refln_index_k
_refln_index_l
_refln_F_squared_meas
_refln_F_squared_sigma
_refln_scale_group_code
0 0 -1 -0.19525 2.98118 6
0 0 1 1.24556 2.82704 1
0 0 -1 2.61371 1.90547 3
0 0 1 -0.18374 2.48255 6
0 0 1 -3.8518 2.98633 4
0 0 -1 -2.66869 2.96136 1
0 0 2 10792.8 375.789 1
0 0 2 10545.4 375.27 6
0 0 -2 10308.7 376.236 1
0 0 2 10475.6 375.993 4
0 0 -2 10825.5 375.729 6
0 0 -3 -2.4911 5.41411 6
0 0 3 -4.09128 5.1469 4
0 0 -3 7.13498 4.86589 1
0 0 -4 1062.09 43.1958 1
0 0 4 932.044 42.0909 4
0 0 -5 1.24096 7.27109 1
0 0 5 12.8525 7.92124 4
0 0 -6 2012.67 83.2774 1
0 0 6 2044.64 82.8125 4
0 0 -7 -3.44757 9.92378 1
0 -1 0 0.0868 1.08751 2
0 1 0 -0.42796 1.00895 5
0 -1 1 4668.53 165.666 1
0 1 -1 4425.73 165.789 1
0 1 1 4690.76 165.886 6
0 -1 -1 4795.17 166.101 1
0 -1 -1 4712.16 166.029 6
0 1 1 4745.41 165.947 4
0 1 2 2884.37 106.133 6
0 -1 2 2945.48 105.795 6
0 -1 2 2957.27 106.275 1
0 1 -2 2964.58 106.858 1
0 -1 2 2894.66 104.795 3
0 -1 -2 2999.79 106.746 6
0 1 2 2849.21 106.647 4
0 -1 -2 2984.35 107.167 1
0 -1 -3 348.046 17.9672 1
0 1 -3 370.96 18.0186 1
0 -1 -3 331.586 17.0899 6
0 -1 3 326.922 17.4193 4
0 -1 3 341.019 16.0603 6
0 1 3 337.122 17.4215 4
0 -1 -4 594.275 27.8093 1
0 -1 4 538.323 26.9321 4
0 1 -4 575.112 27.3657 1
0 1 4 534.987 26.714 4
0 -1 -4 557.64 26.6035 6
0 -1 5 8.28858 7.52195 4
0 -1 -5 26.4024 8.37725 1
0 1 5 20.1929 8.07079 4
0 1 -5 13.4589 7.82688 1
0 -1 6 14.0518 8.67992 4
0 -1 -6 19.7188 8.69662 1
0 -1 -7 226.547 19.5689 1
0 1 -7 181.552 17.8085 1
0 -1 7 206.906 18.6358 4
0 2 0 835.347 30.3724 6
0 2 0 834.669 30.7746 5
0 -2 0 821.76 30.4114 6
0 -2 -1 167.099 8.86977 6
0 -2 1 165.556 7.60333 1
0 -2 1 164.914 7.98618 2
0 2 -1 162.557 8.49426 5
0 2 -1 157.649 7.78609 1
0 2 1 167.321 8.26014 1
0 -2 1 171.586 8.16543 5
0 -2 -1 173.179 8.42189 1
0 2 -2 1011.19 40.272 1
0 2 2 1071.98 40.1694 6
0 2 2 1035.36 39.964 1
0 -2 2 1062.12 39.654 1
0 -2 -2 995.389 40.5051 6
0 -2 -2 1046.7 40.6374 1
0 -2 2 1023.85 39.1065 6
0 2 -3 3309.7 126.449 1
0 -2 3 3617.22 124.946 6
0 -2 -3 3432.36 126.756 6
0 2 3 3220.46 126.458 4
0 -2 -3 3546.9 127.183 1
0 -2 4 347.307 19.6411 4
0 -2 -4 360.237 20.0816 1
0 -2 -4 322.581 19.0765 6
0 2 -4 362.72 19.6401 1
0 2 -5 9.63268 7.1386 1
0 -2 -5 23.5781 8.50284 6
0 -2 -5 12.7168 7.90179 1
0 -2 5 28.5881 8.29777 4
0 -2 6 45.4827 10.3527 4
0 -2 -6 56.6936 11.4435 1
0 2 -6 39.304 9.99873 1
0 -2 -7 26.3418 10.6937 1
0 2 -7 38.3728 10.9331 1
0 -2 7 36.974 11.2962 4
0 3 0 1.37538 2.91715 6
0 3 0 0.79742 3.45187 5
0 3 0 0.73464 3.30911 2
0 -3 0 4.04733 3.43445 6
0 3 -1 5212.39 186.521 1
0 -3 1 5344.07 187.638 2
0 3 -1 5267.48 187.668 5
0 -3 -1 5395.36 188.242 6
0 -3 -1 5443.03 187.253 1
0 -3 1 5212.4 186.818 6
0 -3 1 4990.97 186.37 1
0 -3 1 5334.81 187.292 5
0 3 1 5423.36 187.09 1
0 -3 2 2127.56 76.4 1
0 -3 -2 2149.35 77.733 1
0 3 2 2079.74 77.1444 6
0 3 2 2155.15 76.9667 1
0 -3 2 2057.67 76.9076 5
0 -3 -2 2094.75 77.0603 4
0 -3 -2 2065.62 77.9566 6
0 3 -2 2110.2 77.032 1
0 -3 2 1962.14 76.3702 2
0 -3 -3 363.679 18.7416 1
0 3 -3 355.837 17.8009 1
0 -3 3 355.532 16.2658 2
0 -3 -3 354.492 18.5409 6
0 -3 -4 73.9645 9.12627 1
0 3 -4 47.1333 8.37572 1
0 -3 -4 75.9721 9.36657 6
0 -3 5 26.6047 9.15514 4
0 3 -5 46.088 9.52332 1
0 -3 -5 60.3888 10.4734 1
0 -3 -5 40.2576 9.60098 6
0 -3 -6 43.2239 10.599 1
0 3 -6 47.1607 10.0718 1
0 -3 6 55.7554 11.1927 4
0 3 -7 271.719 21.0876 1
0 4 0 34581.3 1215.23 2
0 -4 0 34615.3 1214.78 6
0 4 0 33984.7 1215.34 5
0 4 0 34743.9 1214.48 6
0 -4 -1 28.7456 5.16736 6
0 -4 1 29.4255 4.37383 5
0 -4 1 28.9375 3.70616 6
0 -4 1 28.9736 2.84595 1
0 4 -1 29.9757 4.56891 5
0 4 -1 28.1525 2.84555 1
0 -4 1 36.2116 4.94243 2
0 4 1 24.5713 4.23362 6
0 -4 -1 30.6367 4.01428 1
0 4 1 28.4076 3.5552 1
0 -4 2 1422.43 54.9243 1
0 4 -2 1412.71 55.4346 1
0 -4 -2 1555.23 57.5538 6
0 4 2 1519.46 55.9571 1
0 -4 -2 1570.64 56.7222 1
0 -4 2 1589.02 56.0356 5
0 -4 2 1394.11 55.85 2
0 -4 -3 446.635 21.9201 1
0 -4 -3 477.947 22.6242 6
0 -4 3 439.393 20.0339 2
0 4 -3 442.058 21.0824 1
0 4 -4 123.789 11.4615 1
0 -4 -4 157.68 12.507 1
0 -4 -4 159.525 12.6676 6
0 4 -5 11.5703 7.11257 1
0 -4 5 -3.6805 7.42472 4
0 -4 -5 11.4867 8.31453 6
0 -4 -5 -11.6534 7.83621 1
0 -4 6 1047.12 48.7263 4
0 -4 -6 1078.61 49.4564 6
0 -4 -6 1077.53 49.6468 1
0 5 0 2.78096 4.10999 2
0 5 0 1.25256 3.66907 6
0 -5 0 4.74648 3.84853 6
0 5 0 1.79675 4.29242 5
0 -5 1 588.019 23.9183 1
0 5 -1 666.62 26.7068 5
0 -5 -1 684.508 27.163 6
0 5 1 655.335 24.8311 1
0 -5 1 715.001 26.4542 5
0 5 1 661.398 26.2755 6
0 -5 1 629.221 23.8244 1
0 5 1 673.824 26.1609 2
0 -5 -1 626.997 25.1449 1
0 -5 1 660.931 25.625 6
0 -5 1 678.405 27.1069 2
0 5 -1 664.868 26.4479 2
0 5 2 1132.6 41.6656 1
0 -5 -2 1154.24 42.5144 1
0 -5 -2 1086.89 43.6965 6
0 5 -2 1128.04 43.2165 5
0 -5 2 1011.47 40.5551 1
0 5 -2 1049.16 41.1283 1
0 -5 2 1098.24 42.634 2
0 -5 2 1048.35 41.2561 6
0 -5 3 17.9848 4.77002 2
0 -5 -3 9.81568 5.90667 6
0 5 -3 10.7113 4.60141 1
0 -5 -3 6.9261 5.29703 1
0 -5 -4 1067.52 46.6384 1
0 -5 -4 1131.58 47.8185 6
0 -5 -5 19.5408 8.733 1
0 -5 -5 12.0445 8.05301 6
0 -5 -6 285.361 21.1686 6
0 -5 -6 296.068 21.367 1
0 -5 6 277.323 20.3097 4
0 -6 0 1027.78 40.3284 6
0 6 0 1055 41.1983 5
0 6 0 1024.48 39.479 6
0 -6 1 334.288 16.5183 2
0 -6 -1 319.002 16.2763 6
0 -6 1 318.188 14.9449 6
0 6 1 359.069 15.6585 2
0 -6 -1 348.696 14.0474 1
0 -6 1 296.475 12.433 1
0 6 -1 372.776 14.826 6
0 6 -1 372.202 16.604 5
0 -6 1 353.244 15.5943 5
0 6 -2 2100.65 79.3985 5
0 -6 2 2064.24 77.3774 6
0 -6 -2 2146.5 78.0966 1
0 -6 2 2002.65 78.9886 2
0 -6 -2 2197.85 80.3622 6
0 -6 -3 1135.76 46.2664 1
0 -6 -3 1191.94 48.0644 6
0 -6 3 1095.17 45.4348 2
0 -6 -4 1105.98 50.683 6
0 -6 -4 1265.9 50.5768 1
0 -6 -5 65.3067 10.3526 1
0 -6 -5 61.8922 11.5198 6
0 -6 -6 212.518 18.3735 6
0 -6 -6 202.414 17.7526 1
0 -7 0 2.11788 4.62087 6
0 7 0 0.63336 4.45254 5
0 7 0 -4.2649 3.96968 6
0 -7 -1 1924.55 73.0691 6
0 -7 1 1909.76 71.5472 6
0 7 -1 1943.28 72.9436 5
0 -7 2 353.17 18.4679 2
0 -7 -2 363.988 19.3607 6
0 -7 2 333.388 16.2714 6
0 7 -2 347.688 18.3695 5
0 -7 -2 386.777 17.0126 1
0 -7 -3 150.812 12.925 6
0 -7 3 159 11.6045 2
0 -7 -3 178.547 11.7247 1
0 -7 -4 6.2458 7.00984 1
0 -7 -4 -6.29802 7.31428 6
0 -7 -5 23.6588 9.82817 6
0 -7 -5 39.1201 9.18136 1
0 -7 -6 137.934 14.9841 1
0 -7 -6 128.912 15.7135 6
0 -8 0 2504.24 92.471 6
0 8 0 2455.57 93.3913 5
0 -8 -1 40.114 6.56486 6
0 8 -1 37.5027 6.32881 5
0 -8 1 25.3424 5.34423 6
0 -8 -2 90.9565 10.0854 6
0 -8 2 75.5946 9.23512 2
0 8 -2 78.3951 8.36441 5
0 -8 -3 624.208 29.9808 6
0 -8 3 574.607 27.7941 2
0 -8 -4 73.5211 11.6398 6
0 -8 -5 27.9049 9.65282 6
0 -8 -6 146.182 17.0947 6
0 9 0 -3.32064 5.66232 5
0 -9 0 -2.08385 5.42791 6
0 9 -1 30.1677 6.33607 5
0 -9 1 32.3589 6.17429 6
0 -9 -1 46.3567 7.51561 6
0 9 1 33.7628 7.30031 5
0 9 -2 217.857 13.9154 5
0 -9 -2 178.451 14.0498 6
0 -9 -3 38.2014 8.97276 6
0 -9 -4 821.119 39.9247 6
0 -9 -5 1.62105 9.73246 6
0 -10 0 17.914 6.37917 6
0 10 0 22.4527 7.20274 5
0 -10 -1 50.3551 7.9029 6
0 10 -1 46.0952 7.62195 5
0 10 1 52.0736 8.27419 5
0 10 -2 441.84 22.3701 5
0 -10 -2 382.092 22.4062 6
0 -10 -3 347.37 21.6651 6
0 -10 -4 458.933 27.4749 6
0 -10 -5 98.0662 14.0716 6
0 11 0 2.08409 6.20589 5
0 -11 -1 516.826 26.2087 6
0 11 -1 548.58 26.5087 5
0 11 1 526.778 27.3472 5
0 11 -2 29.7642 7.40599 5
0 -11 -2 26.144 8.41225 6
0 -11 -3 38.0663 9.87016 6
0 -11 -4 1.5725 9.20974 6
0 -11 -5 31.6301 11.3442 6
0 12 0 4.54882 7.04606 5
0 -12 -1 50.9593 9.35758 6
0 12 1 53.4992 9.59782 5
0 12 -1 52.4652 8.9705 5
0 -12 -2 688.613 35.2076 6
0 12 2 729.532 35.9192 5
0 12 -2 768.917 35.1035 5
0 -12 -3 386.32 24.2161 6
0 -12 -4 296.347 22.5525 6
0 13 0 -4.91384 7.25744 5
0 13 -1 9.47863 7.05734 5
0 13 1 -1.28261 7.38489 5
0 13 2 52.5318 11.2325 5
0 -13 -2 48.3313 10.538 6
0 -13 -3 62.28 12.1236 6
0 -13 -4 287.979 22.1383 6
0 14 0 178.673 15.2002 5
0 14 1 78.2979 11.7984 5
0 14 2 -1.48886 8.10723 5
0 14 3 54.8883 12.1342 5
0 -14 -3 49.251 10.7839 6
0 15 1 109.092 13.4708 5
0 15 2 -4.62465 8.87548 5
0 -15 -3 -13.1999 9.9123 6
0 15 3 -6.77578 10.0107 5
0 16 2 491.649 29.9259 5
-1 0 7 65.3506 12.4425 4
1 0 -7 53.0134 12.0955 1
-1 0 6 1.411 8.33443 4
1 0 -6 5.68727 8.25719 1
1 0 -5 3.52739 6.94545 1
-1 0 5 3.50062 6.83509 4
1 0 -4 -4.46441 5.81814 1
-1 0 4 -0.91081 5.81175 4
1 0 -4 -4.60494 4.81279 6
1 0 -3 706.439 30.6046 1
1 0 -3 734.656 29.3474 6
-1 0 3 720.564 28.5378 6
-1 0 2 2.78418 3.68671 1
1 0 -2 4.11302 4.31158 1
-1 0 2 1.16257 2.98798 6
1 0 -2 -1.05812 3.04586 6
1 0 -1 868.946 31.3593 6
1 0 -1 848.252 32.2948 1
-1 0 1 862.155 31.354 6
-1 0 1 835.483 32.0771 1
1 0 0 82.1461 5.64515 1
1 0 1 8708.63 311.167 1
-1 0 -1 8768.43 310.746 3
1 0 1 8814.7 311.073 6
-1 0 -1 8789.81 309.901 4
1 0 1 8722.16 310.729 1
1 0 2 2.78186 3.92209 4
-1 0 -2 4.88047 4.29376 3
-1 0 -2 1.21795 4.52692 1
1 0 3 16.7519 5.28784 4
-1 0 -3 22.9108 5.12473 3
-1 0 -3 19.6592 6.3904 1
1 0 4 6.60396 5.76073 4
-1 0 -4 8.90906 7.05821 1
-1 0 -5 89.4126 11.8647 1
-1 0 -6 1.61833 9.31613 1
1 1 -7 35.9032 10.9624 1
-1 -1 7 24.3809 10.5611 4
1 -1 -7 23.4743 10.7408 1
-1 1 6 101.307 12.8482 4
1 -1 -6 90.7569 12.567 1
-1 -1 6 106.702 13.3375 4
1 1 -6 116.033 13.3378 1
1 -1 -5 298.319 18.4549 1
1 1 -5 282.119 18.0534 1
-1 1 5 223.362 17.2274 4
-1 -1 5 273.317 18.4568 4
1 -1 -4 554 24.7499 6
1 -1 -4 521.838 25.7997 1
-1 1 4 499.898 25.4033 4
1 1 -4 522.782 25.3013 1
-1 -1 3 2211.03 81.9954 6
1 1 -3 2268.08 84.4387 1
1 -1 -3 2362.96 83.6564 6
1 -1 -3 2258.51 84.6722 1
1 1 -3 2175.11 82.4031 6
-1 1 3 2256.53 82.6856 6
-1 1 3 2292.37 84.6497 4
1 1 -2 177.552 7.2312 2
-1 -1 2 182.003 9.31217 1
-1 1 2 164.15 9.71093 4
-1 -1 2 161.404 7.76771 6
1 1 -2 168.647 8.08285 6
1 -1 -2 184.946 10.0632 1
-1 1 2 178.426 8.96992 6
1 1 -2 174.72 9.72658 1
1 -1 -2 173.554 9.22522 6
-1 -1 1 31.9366 3.70029 5
1 -1 -1 30.9176 4.21331 1
-1 1 1 41.3532 3.72844 4
-1 1 1 35.4801 3.93564 6
1 1 -1 37.7635 3.98672 5
1 1 -1 37.0556 4.12818 1
-1 -1 1 39.8615 4.02585 1
1 -1 -1 41.9056 4.19745 6
1 -1 -1 37.6357 3.2134 3
1 1 0 2025.23 72.5355 6
-1 -1 0 2069.66 72.6759 1
1 1 0 2122.87 72.8794 1
1 -1 0 1962.98 72.7283 1
-1 1 0 1957.84 72.5681 1
-1 1 0 1950.37 73.0538 3
1 -1 1 681.844 27.1108 1
-1 -1 -1 635.898 25.8435 4
1 -1 1 668.425 26.6743 1
1 1 1 741.053 27.4637 1
1 -1 1 659.683 25.6775 4
1 -1 1 671.048 26.555 3
-1 1 -1 694.244 26.9518 3
1 -1 2 1029.29 38.2261 6
-1 -1 -2 900.625 37.2257 3
1 -1 2 920.738 37.3808 4
-1 -1 -2 971.837 37.3354 4
-1 1 -2 962.271 38.7091 1
-1 -1 -2 988.895 38.9836 1
-1 -1 -3 1555.18 60.1199 1
-1 1 -3 1572.41 60.076 1
-1 -1 -3 1464.23 57.1806 3
1 -1 3 1453.38 58.415 4
1 -1 4 42.948 8.08203 4
-1 -1 -4 51.815 9.22466 1
-1 1 -4 40.7644 8.75071 1
-1 1 -5 160.573 14.7207 1
1 -1 5 168.661 14.1257 4
-1 -1 -5 141.845 14.3473 1
-1 -1 -6 220.535 19.2756 1
1 -1 6 248.888 20.2964 1
-1 -2 7 1.64936 9.41348 4
1 2 -7 3.20837 8.82294 1
1 -2 -7 15.2402 10.0035 1
1 -2 -6 40.82 10.046 1
1 2 -6 37.0992 9.36413 1
-1 -2 6 45.9769 10.3771 4
-1 -2 5 1.19383 7.67138 4
1 -2 -5 3.62999 7.26591 1
1 2 -5 6.81901 6.98785 1
-1 2 5 3.4865 7.30855 4
1 -2 -5 4.97122 6.94944 6
1 2 -4 705.72 32.5315 1
1 -2 -4 736.181 33.2771 1
1 -2 -4 728.842 32.1764 6
-1 2 4 770.065 33.3079 4
1 -2 -3 121.683 9.65407 1
1 -2 -3 139.328 9.65659 6
1 2 -3 139.159 9.76445 1
-1 2 3 130.811 9.84102 4
1 -2 -2 15837.5 545.181 6
1 2 -2 15187.9 543.412 2
-1 2 2 15608.2 544.912 1
1 -2 -2 15565.5 545.544 1
-1 2 2 15548 544.637 6
1 2 -2 15473.5 545.015 1
-1 -2 2 15405.5 544.533 1
-1 2 2 15731.1 545.345 4
-1 -2 2 15163.8 542.914 6
1 -2 -1 -2.88569 3.77266 6
-1 2 1 -2.53082 3.38659 6
-1 -2 1 -0.60975 3.01703 1
1 2 -1 -0.58404 3.21124 5
-1 -2 1 1.31847 2.7421 5
-1 2 1 2.81608 3.22079 1
1 -2 -1 1.3064 3.31569 1
1 -2 -1 1.17417 2.69412 4
1 2 -1 1.10476 2.82408 1
-1 2 0 7387.85 259.026 1
1 2 0 7353.78 259.428 5
1 2 0 7213.72 258.95 6
1 -2 0 7265.04 259.15 1
1 -2 0 7455.9 259.752 6
-1 -2 0 7355.19 259.001 1
1 2 0 7392.59 259.173 1
-1 2 0 7276.86 257.864 5
-1 -2 0 7316.67 259.18 6
1 -2 1 276.523 12.2458 5
1 2 1 346.347 13.8722 1
1 -2 1 290.168 13.1387 1
1 2 1 295.351 13.957 1
-1 -2 -1 291.218 14.3554 6
1 -2 1 282.309 13.5724 1
1 -2 1 286.87 13.6361 3
-1 -2 -2 1761.29 66.0956 4
-1 -2 -2 1758.38 67.5576 1
-1 -2 -2 1763.08 67.7956 6
1 -2 2 1795.27 65.9153 3
1 -2 2 1770.62 67.3682 1
-1 -2 -3 10.8705 5.78129 6
-1 -2 -3 6.12427 5.54375 1
-1 2 -3 8.31732 5.78002 1
1 -2 3 -0.6999 5.06548 4
-1 -2 -4 6150.9 223.7 1
1 -2 4 6102.64 221.966 4
-1 2 -4 6024.13 223.08 1
-1 2 -5 -8.04732 8.3106 1
1 -2 5 -5.78173 7.83933 4
-1 -2 -5 -4.20729 8.6236 1
1 -2 6 830.331 41.6774 1
-1 -2 -6 838.118 41.9735 1
1 3 -7 39.2832 11.34 1
1 -3 -7 20.4596 10.6804 1
-1 -3 7 19.9371 10.8623 4
-1 -3 6 13.145 8.84819 4
1 -3 -6 4.41532 8.55562 1
1 3 -6 16.1345 8.14686 1
1 -3 -5 26.9707 8.04797 1
1 -3 -5 26.6786 7.95106 6
1 3 -5 30.9528 7.69695 1
1 3 -4 33.384 6.91237 1
1 -3 -4 17.7897 6.40853 1
1 -3 -4 26.6271 6.41284 6
1 3 -3 910.153 36.7842 1
1 -3 -3 876.083 37.3168 1
1 -3 -3 908.035 37.1222 6
-1 3 2 1108.5 41.532 6
-1 -3 2 1040.84 40.7921 1
-1 3 2 1138.01 41.4663 1
1 3 -2 1066.41 40.4235 2
1 -3 -2 1153.15 42.2369 1
-1 -3 2 1048.28 39.031 6
1 3 -2 1073.28 41.2462 1
-1 -3 2 1133.96 41.8526 5
1 -3 -2 1071.36 42.1587 6
1 -3 -2 1131.77 41.5359 4
-1 3 1 125.975 6.83701 1
1 -3 -1 134.012 8.20964 6
1 3 -1 124.426 7.8958 5
1 3 -1 128.68 6.63802 1
1 -3 -1 126.852 7.45473 2
-1 -3 1 125.171 6.48139 1
1 -3 -1 132.884 7.25489 1
-1 3 1 130.225 7.59087 6
1 -3 0 7105.04 253.499 6
-1 3 0 6968.99 251.819 5
1 -3 0 7182.93 252.401 1
1 3 0 7059.53 252.336 1
-1 -3 0 7220.37 252.766 6
-1 -3 0 7160.58 252.256 1
1 3 0 7213.13 252.535 6
-1 3 0 7174.53 252.241 1
1 3 0 7149.24 253.47 5
1 -3 1 0.36691 3.16554 1
1 3 1 6.10475 3.54931 1
1 3 1 -0.40207 4.00918 6
1 -3 1 -0.97279 2.98788 1
1 -3 1 1.90716 2.45275 5
1 3 1 4.04898 3.97796 1
-1 -3 -1 0.95631 4.31405 6
1 -3 2 561.431 22.5639 5
1 -3 2 542.632 23.1746 1
-1 -3 -2 577.259 25.1696 6
1 -3 2 567.487 24.2668 1
1 -3 2 515.685 22.928 3
-1 -3 -2 512.189 24.0912 1
-1 -3 -3 505.867 24.6041 1
-1 -3 -3 529.067 25.4575 6
-1 3 -3 485.716 24.0688 1
1 -3 3 506.39 23.5235 4
-1 3 -4 13.8963 7.15539 1
1 -3 4 -1.89634 5.96574 4
-1 -3 -4 8.02198 7.20886 1
-1 -3 -4 10.6881 7.79246 6
1 -3 5 114.889 13.0425 1
-1 3 -5 114.769 12.7197 1
-1 -3 -5 112.928 13.5247 1
1 -3 6 177.981 17.1281 1
-1 -3 -6 200.229 18.0876 1
-1 -4 7 57.1312 12.1512 4
1 -4 -7 68.5213 12.5171 1
1 -4 -6 638.509 33.4693 1
-1 -4 6 623.453 33.3092 4
1 -4 -5 -2.47855 7.50007 1
1 -4 -5 -1.14095 7.27852 6
1 4 -5 7.56555 7.08901 1
1 -4 -4 726.431 33.8075 6
1 -4 -4 803.018 34.5332 1
1 4 -4 745.419 33.2166 1
1 -4 -3 565.529 26.2985 1
1 4 -3 587.751 25.3719 1
1 -4 -3 593.577 26.592 6
1 -4 -2 1462.29 56.1715 6
1 -4 -2 1528.42 55.2208 4
1 4 -2 1452.54 54.505 1
-1 -4 2 1383.55 52.5016 6
-1 4 2 1520.5 54.8279 1
-1 -4 2 1456.1 52.4866 6
-1 -4 2 1472.24 54.1376 1
-1 4 2 1525.2 55.4826 6
1 4 -2 1539.95 54.6259 2
1 -4 -2 1471.06 55.5734 1
1 4 -2 1535.45 56.7085 5
1 4 -1 1387.9 49.9482 6
1 4 -1 1382.18 52.7932 5
-1 -4 1 1425.65 52.3382 5
1 4 -1 1389.23 50.5342 1
1 -4 -1 1358 51.256 1
-1 4 1 1409.25 51.0109 1
-1 -4 1 1412.83 50.5232 1
1 -4 -1 1387.45 52.727 6
-1 -4 1 1374.22 50.1089 6
1 -4 -1 1362.65 52.1213 2
-1 4 1 1415.52 52.1311 6
1 4 0 6538.57 234.444 5
1 4 0 6582.19 232.98 6
1 -4 0 6578.09 232.527 1
-1 4 0 6584.27 233.636 6
1 4 0 6510.2 232.455 1
-1 4 0 6535.64 232.377 1
-1 4 0 6559.55 232.735 5
1 -4 0 6502.38 234.139 6
-1 -4 0 6634.41 232.436 1
-1 -4 0 6582.93 233.305 6
-1 4 -1 2824.95 105.215 5
1 4 1 3034.21 105.619 1
1 -4 1 2842.26 106.483 6
1 -4 1 2914.41 105.109 1
1 -4 1 2930.4 104.819 5
1 -4 1 2765.61 105.306 1
1 4 1 2843.73 105.926 1
-1 -4 -1 3072.12 107.19 6
1 4 1 3094.07 106.491 6
1 -4 2 1746.7 63.9234 5
1 -4 2 1721.05 64.2991 1
-1 -4 -2 1652.98 66.4771 6
1 -4 2 1731.62 65.2524 1
-1 -4 -2 1720.34 65.7717 1
1 -4 3 46.5604 7.14095 1
-1 -4 -3 47.9245 7.97984 6
-1 -4 -3 40.9206 7.44388 1
-1 -4 -4 153.404 13.1688 1
1 -4 4 135.782 11.8969 4
-1 -4 -4 163.384 14.3296 6
1 -4 4 148.077 12.6931 1
-1 -4 -5 114.834 13.0984 1
1 -4 5 114.084 12.5028 1
-1 -4 -6 169.214 17.3473 1
-1 -5 7 5.10153 9.87566 4
1 -5 -7 3.43206 9.43634 1
1 -5 -6 178.758 16.8953 1
1 -5 -6 211.294 17.1649 6
1 -5 -5 207.547 15.9994 1
1 -5 -5 201.156 15.8189 6
1 -5 -4 476.842 23.5122 6
1 -5 -4 417.363 22.5482 1
1 5 -4 428.889 21.8979 1
1 5 -3 1026.11 41.2171 1
1 -5 -3 1023.15 42.5363 1
1 -5 -3 1093.38 43.7236 6
1 -5 -2 1375.06 51.773 1
-1 -5 2 1313.93 48.8793 6
1 5 -2 1420.08 51.3442 2
-1 5 2 1412.88 50.8168 2
-1 -5 2 1360.55 50.0791 1
-1 5 2 1377.12 50.9163 1
1 -5 -2 1310.43 52.9065 6
1 5 -2 1286.7 50.3708 1
1 5 -2 1428.21 53.2448 5
1 -5 -1 223.155 11.4803 2
-1 -5 1 209.634 11.1968 5
1 -5 -1 177.214 9.662 1
-1 -5 1 205.632 9.07116 6
1 5 -1 203.514 11.7528 5
-1 -5 1 207.182 8.80454 1
1 5 -1 224.427 9.02792 6
-1 5 1 206.524 9.53513 1
1 -5 -1 181.304 11.6616 6
1 5 -1 189.046 8.69137 1
1 5 0 3.15602 3.48442 6
1 5 0 -0.42103 2.31218 1
-1 5 0 0.41161 3.92478 6
-1 -5 0 0.37909 3.99952 6
1 -5 0 2.68556 2.91252 1
1 5 0 1.10377 4.96502 5
1 -5 0 4.37346 4.96106 6
-1 5 0 0.34403 3.33418 5
1 -5 0 0.53971 4.45553 2
-1 5 0 15.9843 2.92711 1
1 5 1 263.312 12.8543 6
1 5 1 253.651 12.231 1
-1 5 -1 257.675 12.2835 5
1 -5 1 242.665 11.7199 1
1 -5 1 264.005 13.4787 6
1 5 1 248.029 12.2835 1
1 -5 1 246.84 11.4281 1
-1 -5 -1 268.678 13.9127 6
1 -5 1 234.266 11.5258 5
-1 -5 -2 315.387 16.4686 1
1 -5 2 350.172 16.287 1
-1 -5 -2 331.943 18.1387 6
-1 -5 -3 1387.21 57.1354 1
-1 -5 -3 1456.69 58.6283 6
1 -5 3 1432.59 56.7632 1
-1 -5 -4 37.092 8.74317 1
1 -5 4 41.9582 8.40735 1
-1 -5 -4 50.5737 9.89751 6
-1 -5 -5 157.035 15.4189 6
-1 -5 -5 105.212 13.7625 1
1 5 6 124.555 15.8548 1
1 -6 -7 27.3679 11.0069 1
-1 -6 7 10.323 9.74852 4
1 -6 -6 11.9163 8.43816 1
1 -6 -6 17.9697 9.83512 6
1 -6 -5 8.74318 7.14155 1
1 -6 -5 19.5093 8.65757 6
1 -6 -4 9.74798 6.08563 1
1 -6 -4 -1.08612 7.50053 6
1 -6 -3 244.138 13.9988 1
1 -6 -3 229.744 15.269 6
1 -6 -2 1733.68 66.1733 6
1 6 -2 1638.6 65.8308 5
1 -6 -2 1688.34 64.0181 1
-1 6 2 1743.47 63.692 2
-1 -6 1 48.2042 4.52926 6
1 -6 -1 61.1658 7.32976 6
1 -6 -1 51.9616 4.71235 1
1 6 -1 56.6314 6.79857 5
1 -6 -1 53.2199 6.34518 2
-1 -6 0 112.567 7.81376 6
1 -6 0 110.388 8.91352 2
1 6 0 118.98 7.42071 6
-1 6 0 100.574 7.5476 5
1 -6 0 105.151 8.58608 6
1 6 0 106.895 8.92532 5
1 6 0 149.53 6.423 1
1 -6 0 106.668 6.07955 1
-1 6 -1 1128.33 43.5694 5
1 -6 1 1185.03 45.8653 2
1 -6 1 1225.08 43.3585 5
1 -6 1 1085.59 42.3708 1
-1 -6 -1 1104.48 45.1023 6
1 6 1 1097.98 43.1537 1
1 -6 1 1110.88 44.6172 6
1 -6 2 36.4745 6.87859 2
1 -6 2 30.4361 5.85126 6
1 6 2 25.7097 5.32907 1
-1 -6 -2 25.7951 6.68362 6
1 -6 2 40.7888 5.38448 1
1 -6 3 34.7901 7.07736 2
-1 -6 -3 46.5955 7.37794 1
-1 -6 -3 45.7387 8.75303 6
-1 -6 -4 1706.67 66.885 1
-1 -6 -4 1538.37 67.3322 6
-1 -6 -5 22.7135 8.69489 1
-1 -6 -5 21.9677 10.1118 6
1 6 6 125.523 15.31 1
1 -7 -6 285.431 20.4224 1
1 -7 -6 242.364 20.0233 6
1 -7 -5 22.1414 9.10051 6
1 -7 -5 16.1725 7.96341 1
1 -7 -4 115.924 12.3386 6
1 -7 -4 116.899 11.5492 1
1 -7 -3 169.251 13.7523 6
1 -7 -3 206.516 12.5718 1
1 7 -2 1334.78 52.9541 5
1 -7 -2 1250.96 52.749 6
1 -7 -2 1342.39 50.4113 1
1 -7 -1 7.63411 5.24139 6
1 -7 -1 5.94155 5.0367 2
1 7 -1 9.41171 5.18132 5
-1 -7 1 2.13847 3.34398 6
-1 7 0 3519.22 126.288 5
1 -7 0 3526.88 127.899 2
-1 -7 0 3287.91 125.821 6
1 7 0 3630.1 128.141 5
1 -7 0 3422.5 127.021 6
1 -7 1 73.1536 7.51561 6
-1 7 -1 77.7194 6.6618 5
1 -7 1 76.1683 8.54702 2
-1 -7 -1 65.6624 7.45727 6
1 -7 2 154.048 12.3723 2
-1 -7 -2 213.806 13.8372 6
1 -7 2 181.15 11.9127 6
-1 -7 -3 107.14 11.6641 6
1 -7 3 100.46 10.2824 2
-1 -7 -3 97.3854 9.8753 1
-1 -7 -4 21.9673 7.19228 1
-1 -7 -4 13.8259 9.09255 6
-1 -7 -5 14.5423 10.1723 6
1 -8 -6 939.06 45.894 6
1 -8 -5 1.46727 8.73788 6
1 -8 -4 683.21 33.7658 6
1 8 -3 27.9743 7.22672 5
1 -8 -3 30.9742 8.74429 6
1 -8 -2 596.91 29.0793 6
1 8 -2 646.923 29.1844 5
1 8 -1 358.139 19.4921 5
-1 8 1 359.769 18.6803 5
1 -8 -1 394.079 19.8778 6
1 8 0 3327.31 124.483 5
1 -8 0 3205.39 123.33 6
-1 8 0 3506.07 122.984 5
1 -8 0 3358.82 124.459 2
-1 -8 0 3306.06 122.479 6
-1 8 -1 718.133 29.8872 5
1 -8 1 671.201 30.5007 6
-1 -8 -1 738.241 31.4693 6
1 -8 1 696.015 32.1245 2
1 -8 2 970.97 41.6643 6
1 -8 2 1027.92 43.5886 2
-1 -8 -2 1032.42 43.6954 6
-1 -8 -3 1.21818 7.77142 6
1 -8 3 -4.18612 6.9108 2
-1 -8 -4 46.245 10.2288 6
-1 -8 -5 97.9934 13.7792 6
1 -9 -6 10.3394 10.5176 6
1 -9 -5 71.159 12.0569 6
1 -9 -4 25.5826 8.9362 6
1 9 -3 418.062 23.1467 5
1 -9 -3 416.645 23.7937 6
1 -9 -2 601.386 28.7696 6
1 9 -2 577.534 28.3773 5
1 -9 -1 44.8182 8.1222 6
-1 9 1 35.941 6.83511 5
1 9 -1 48.8028 7.89644 5
1 -9 0 1.6073 5.65417 6
-1 -9 0 9.4654 4.84148 6
-1 9 0 9.3333 4.68289 5
1 9 0 6.54688 6.34258 5
1 -9 0 3.74417 6.14394 2
-1 -9 -1 61.307 7.87308 6
1 -9 1 38.6653 7.28267 6
1 9 1 48.9921 8.73256 5
1 -9 1 49.3354 8.85502 2
1 -9 2 26.9303 8.30039 2
-1 -9 -2 41.6678 8.51135 6
1 -9 3 759.16 35.6181 2
-1 -9 -3 752.769 36.5911 6
-1 -9 -4 22.6506 9.80197 6
-1 -9 -5 82.4273 13.9732 6
1 -10 -5 -3.2591 10.1708 6
1 -10 -4 317.04 21.5641 6
1 -10 -3 177.483 16.0384 6
1 10 -3 205.202 15.4018 5
1 -10 -2 -5.40023 7.89912 6
1 10 -2 1.05352 5.95772 5
-1 10 1 25.7227 7.37602 5
1 10 -1 38.6588 7.68841 5
1 -10 -1 35.8553 8.27649 6
-1 10 0 197.36 13.2695 5
1 10 0 229.635 15.3293 5
1 -10 0 194.207 13.7303 6
1 10 1 728.593 32.9904 5
1 -10 1 669.937 32.0846 2
-1 -10 -1 649.848 30.8607 6
1 -10 1 635.471 30.1613 6
1 -10 2 774.35 36.619 2
-1 -10 -2 789.745 36.4503 6
1 -10 3 39.3586 9.43292 2
-1 -10 -3 39.3521 9.80384 6
-1 -10 -4 31.5018 10.1798 6
-1 -10 -5 17.7488 10.9284 6
1 -11 -5 102.531 14.7205 6
1 -11 -4 243.621 19.3339 6
1 -11 -3 -1.3726 8.75635 6
1 11 -3 -1.2788 6.8255 5
1 -11 -2 523.269 27.4611 6
1 11 -2 527.543 27.3529 5
1 -11 -1 16.9359 7.03869 6
1 11 -1 -1.11817 6.98141 5
-1 11 1 4.8362 6.261 5
1 -11 0 1236.19 54.4777 6
1 11 0 1473.63 57.2003 5
1 11 1 194.347 15.1915 5
1 -11 1 148.617 14.2385 2
-1 -11 -1 185.612 14.0613 6
-1 -11 -2 4.85429 7.46685 6
1 11 2 9.30168 8.42207 5
1 -11 2 14.056 8.44361 2
1 -11 3 3.96969 8.00986 2
-1 -11 -3 5.71077 8.5731 6
-1 -11 -4 6.54781 9.98769 6
1 -12 -5 8.90999 10.7032 6
1 -12 -4 120.459 15.095 6
1 12 -3 19.1054 8.47262 5
1 -12 -3 13.1726 8.94611 6
1 -12 -2 11.3174 8.2304 6
1 12 -2 16.2311 7.53785 5
1 -12 -1 156.116 14.3128 6
1 12 -1 172.347 14.3912 5
1 12 0 458.473 25.4514 5
1 -12 0 416.658 23.1646 6
1 12 1 96.5945 11.7604 5
1 12 2 88.6504 12.5195 5
-1 -12 -2 65.6311 10.6699 6
1 -12 3 1.41878 8.85612 2
-1 -12 -3 -8.96646 9.25823 6
-1 -12 -4 47.4596 12.3734 6
1 -13 -4 30.3222 11.4659 6
1 -13 -3 116.038 14.2911 6
1 13 -3 114.415 13.4078 5
1 -13 -2 238.313 18.1833 6
1 13 -2 245.308 18.0271 5
1 -13 -1 2.46654 8.03685 6
1 13 -1 9.18195 7.74977 5
1 13 0 -1.35415 7.93094 5
1 13 1 -2.79704 8.05122 5
1 13 2 12.2819 9.59126 5
1 13 3 273.712 21.1547 5
-1 -13 -3 232.123 19.2214 6
-1 -13 -4 29.6682 11.6471 6
1 -14 -4 396.598 27.1394 6
1 -14 -3 35.8035 11.1191 6
1 14 -3 73.2389 11.7271 5
1 14 -2 145.614 14.8132 5
1 -14 -2 167.416 15.9915 6
1 14 -1 47.4442 10.2303 5
1 14 0 180.495 16.2245 5
1 14 1 277.584 20.4642 5
1 14 2 914.349 44.4637 5
1 14 3 32.7868 11.3768 5
1 -15 -3 6.72178 9.50524 6
1 -15 -2 36.4632 11.1458 6
1 15 -2 33.3709 9.95675 5
1 15 -1 5.9219 8.67313 5
1 15 0 294.354 21.4128 5
1 15 1 164.973 16.5376 5
1 15 2 1.65388 9.26686 5
1 16 -2 52.352 11.6845 5
1 16 -1 65.3414 11.6674 5
1 16 0 3.19081 8.42857 5
1 16 1 5.01846 9.54643 5
2 0 -7 -6.60514 9.83375 1
-2 0 7 4.86609 9.8166 4
2 0 -6 309.353 20.9838 1
-2 0 6 315.676 20.9311 4
2 0 -5 -1.14513 6.29624 1
-2 0 5 1.14299 6.69412 4
2 0 -4 34.5183 7.02285 1
-2 0 4 23.9358 6.86963 4
2 0 -3 0.39259 3.38671 6
2 0 -3 -1.33573 4.58309 1
-2 0 3 1.89148 3.2517 6
-2 0 2 34.5259 5.31745 1
2 0 -2 34.2795 4.17764 6
-2 0 2 29.1945 4.38971 5
-2 0 2 37.3696 4.03417 3
2 0 -2 25.2787 5.3439 1
-2 0 2 27.1311 3.6716 6
2 0 -1 0.43398 4.62081 1
2 0 -1 0.92958 3.51232 6
-2 0 1 0.7556 4.2042 1
-2 0 1 0.38191 2.18891 5
-2 0 1 1.10784 4.0413 3
2 0 0 2482.42 89.315 5
2 0 0 2452.54 92.053 1
-2 0 0 2591.89 91.5911 1
-2 0 0 2509.63 92.0308 3
2 0 1 4.98334 5.07124 1
-2 0 -1 -0.27782 2.82629 4
-2 0 -1 1.18137 4.68058 3
-2 0 -2 4770.24 171.295 3
2 0 2 4623.28 172.084 1
2 0 3 -4.3016 6.66212 1
-2 0 -3 -1.63066 5.73229 3
2 0 4 933.475 43.4101 1
2 0 5 -9.49752 9.3548 1
2 -1 -7 -10.0347 9.28579 1
2 1 -7 -4.84337 9.21401 1
-2 1 7 -6.44167 9.5134 4
-2 -1 7 -1.6424 9.37341 4
2 1 -6 232.828 17.3683 1
2 -1 -6 206.319 16.9171 1
-2 1 6 199.647 16.9441 4
-2 -1 6 195.335 16.8546 4
2 1 -5 33.6628 8.27527 1
2 -1 -5 43.0601 8.80108 1
-2 1 5 35.0228 8.37475 4
-2 -1 5 45.2881 8.95899 4
2 -1 -4 79.3402 8.89253 1
-2 1 4 73.4135 8.74753 4
2 1 -4 77.2596 8.86884 1
2 -1 -3 39.4214 5.23503 6
2 -1 -3 40.9734 6.49807 1
2 1 -3 34.0041 6.03386 1
-2 1 3 42.3304 4.90367 6
-2 1 3 50.5515 6.37139 4
-2 -1 2 1065.9 40.6801 5
2 -1 -2 1049.1 41.845 1
2 1 -2 1104.32 41.8638 1
-2 -1 2 1022.25 40.9453 1
2 -1 -2 1087.01 40.6136 6
-2 -1 2 1054.18 39.1021 6
2 1 -2 1057.62 39.1145 6
-2 1 2 1084.81 40.1934 6
-2 1 1 205.854 9.5824 5
2 1 -1 228.201 10.8363 5
-2 -1 1 231.065 10.53 5
2 -1 -1 243.378 12.3403 1
2 1 -1 259.591 12.5123 1
-2 -1 1 253.819 12.0911 1
-2 1 1 246.322 11.8438 3
2 -1 -1 257.562 11.9234 6
-2 -1 0 1294.71 48.114 1
2 1 0 1288.37 46.8238 5
2 -1 0 1211.43 48.4758 1
2 1 0 1271.67 48.7021 1
-2 1 0 1252.65 48.7213 3
-2 -1 -1 921.682 34.7018 4
2 -1 1 874.451 37.0062 1
2 1 1 896.168 37.2217 1
-2 1 -1 932.653 37.2281 3
-2 -1 -2 9.1271 5.64341 3
2 -1 2 5.74322 5.56377 1
-2 1 -2 3.62678 5.61646 3
2 1 2 4.16577 5.43124 1
2 -1 3 12.7706 6.85001 1
2 1 3 11.9026 7.0131 1
-2 -1 -3 11.289 5.68376 3
2 -1 4 346.173 21.8056 1
2 1 4 348.123 22.1366 1
2 1 5 -7.96428 9.2527 1
2 -1 5 -6.27802 8.9587 1
2 -1 6 -5.33328 10.9299 1
2 2 -7 269.483 21.0684 1
2 -2 -7 309.308 22.5508 1
-2 -2 7 300.162 22.2861 4
2 2 -6 34.5768 9.32919 1
2 -2 -6 35.2999 10.126 1
-2 2 6 41.1339 9.78211 4
-2 -2 6 37.355 9.63838 4
2 2 -5 169.61 13.3643 1
2 -2 -5 190.163 14.5969 1
-2 2 5 152.193 13.5367 4
2 2 -4 345.435 18.6738 1
2 -2 -4 323.293 18.8173 1
-2 2 4 320.548 18.4382 4
2 -2 -4 359.057 17.7324 6
2 -2 -3 64.6545 6.45615 6
-2 2 3 69.4222 6.18417 6
2 -2 -3 85.0258 7.93392 1
2 2 -3 63.2213 7.06179 1
-2 2 3 43.7849 6.59776 4
2 -2 -2 1951.66 74.1175 1
2 2 -2 2025.04 73.9012 1
-2 2 2 2028.31 73.4202 1
-2 -2 2 1987.32 73.2083 1
-2 2 2 1957.92 72.8566 4
2 2 -2 1910.03 70.6395 6
2 -2 -2 2009.9 71.8908 3
2 -2 -2 2000.99 73.514 6
-2 2 2 2029.11 72.9897 6
-2 -2 2 2093.87 73.2372 5
-2 2 1 737.493 27.8255 6
2 2 -1 660.985 27.3493 5
2 -2 -1 703.15 28.3463 1
2 2 -1 731.934 28.3832 1
-2 2 1 665.452 27.7995 1
-2 -2 1 710.397 27.6544 1
2 -2 -1 663.76 27.3797 3
2 -2 -1 670.136 28.162 6
-2 -2 1 708.866 27.1333 5
2 2 0 1542 54.898 5
2 -2 0 1411.03 55.6732 1
2 2 0 1478.89 55.9869 1
-2 2 0 1449.77 55.1601 1
-2 -2 0 1551.85 55.377 1
2 2 0 1395.77 54.9541 6
2 -2 1 907.259 34.4657 4
2 -2 1 905.09 37.7589 1
2 2 1 1005.41 38.1911 1
2 -2 2 340.174 18.5359 1
2 2 2 352.276 18.8295 1
-2 -2 -3 406.572 20.596 3
2 -2 3 414.527 22.334 1
2 2 3 377.16 22.1821 1
2 -2 4 217.142 16.8273 1
2 2 4 229.442 17.6122 1
2 2 5 217.693 18.7896 1
2 -2 5 249.343 19.1897 1
2 -2 6 49.1511 12.021 1
2 3 -7 -7.76229 9.01519 1
2 -3 -7 6.81834 8.91064 1
-2 -3 7 -3.36885 9.61136 4
2 3 -6 393.247 23.8778 1
2 -3 -6 439.759 25.4813 1
-2 -3 6 426.699 25.8104 4
2 -3 -5 171.793 14.0349 1
2 3 -5 170.966 13.8222 1
-2 3 5 172.979 14.2206 4
2 -3 -4 1095.32 46.8453 1
-2 3 4 1093.24 46.1986 4
2 -3 -4 1124.86 45.7059 6
2 3 -4 1147.89 46.1648 1
2 -3 -3 -0.62509 5.06723 6
2 -3 -3 5.70296 5.04135 1
2 3 -3 -0.62416 4.28403 1
-2 3 3 6.17054 4.41438 4
2 3 -2 3543.41 133.682 5
2 -3 -2 3577.04 133.247 1
-2 -3 2 3861.43 132.761 5
2 3 -2 3594.55 132.749 1
-2 3 2 3691.57 132.434 6
-2 3 2 3656.06 132.47 1
-2 -3 2 3707.48 132.148 1
2 -3 -2 3704.92 131.388 3
2 -3 -2 3559.81 133.171 6
2 -3 -1 1048.42 42.2398 6
2 3 -1 1073.78 41.7476 5
-2 -3 1 1123.05 41.2849 5
2 -3 -1 1078.66 41.939 1
2 3 -1 1103.43 41.7242 1
-2 3 1 1099.23 41.3038 1
-2 -3 1 1154.83 41.2278 1
2 -3 -1 1106.95 41.3992 3
2 3 -1 979.226 39.6004 6
-2 3 1 1111.92 41.5705 6
2 3 0 2810.96 97.5397 5
2 -3 0 2636.77 97.5054 1
2 3 0 2663.79 97.4955 1
-2 3 0 2655.95 97.0006 1
-2 -3 0 2686.18 97.0316 1
2 3 0 2633.09 96.7636 6
2 -3 0 2517.25 98.0268 6
2 -3 1 1406.82 51.8686 4
2 -3 1 1421.45 54.9578 1
2 3 1 1448.08 55.4132 1
2 -3 2 522.482 24.3293 1
2 3 2 480.581 24.3518 1
-2 -3 -3 22.596 6.84126 3
2 3 3 16.3477 7.02932 1
2 -3 3 13.4908 7.23533 1
2 3 4 14.8865 8.65595 1
2 -3 4 20.6137 8.35896 1
2 3 5 24.0431 10.3227 1
2 -3 5 16.8023 10.0442 1
2 -3 6 -3.4399 10.1589 1
2 -4 -7 39.12 11.273 1
-2 -4 7 18.7989 9.88559 4
2 -4 -6 133.924 14.3731 1
2 -4 -5 341.848 19.8733 1
2 4 -5 260.504 17.6818 1
2 -4 -5 296.246 18.4192 6
2 4 -4 35.5104 6.83545 1
2 -4 -4 30.176 6.72508 1
2 -4 -4 31.0372 7.14948 6
2 -4 -3 17.8138 5.68676 6
2 4 -3 11.5143 4.32902 1
2 -4 -3 6.53273 5.14852 1
2 -4 -2 10.8276 3.73325 2
-2 4 2 18.0627 4.71338 1
-2 -4 2 18.1195 4.47508 1
2 4 -2 28.0438 5.63116 5
2 -4 -2 32.1382 6.33138 6
2 -4 -2 16.3577 4.77443 1
2 -4 -2 12.4043 3.69227 4
2 4 -2 11.7978 4.11879 1
2 -4 -1 6.85551 5.25184 6
2 4 -1 10.9022 4.54289 1
-2 -4 1 3.59588 3.58448 1
2 -4 -1 10.4996 4.7031 1
2 4 -1 6.29054 4.23816 5
-2 -4 1 14.2983 4.32951 5
-2 4 1 5.13892 4.34445 1
2 -4 -1 6.59796 2.47515 4
2 4 0 313.245 15.3158 5
2 -4 0 284.515 14.8486 1
2 4 0 337.622 14.9906 1
-2 4 0 331.974 14.486 1
-2 -4 0 296.141 14.044 1
2 4 0 282.623 13.9682 6
2 -4 0 288.422 15.7244 6
2 -4 1 355.618 17.5783 1
2 4 1 337.126 17.3304 1
-2 -4 -1 378.61 18.4864 6
2 -4 2 1590.3 63.3875 1
2 4 2 1650.35 64.0968 1
2 4 3 5.45277 6.6003 1
2 -4 3 -1.02021 6.50858 1
2 -4 4 402.952 24.1507 1
2 4 4 433.372 24.9164 1
2 -4 5 53.8158 11.2178 1
2 4 5 35.2495 10.901 1
2 -5 -7 10.2346 10.075 1
-2 -5 7 -3.47051 9.54148 4
2 -5 -6 27.7176 9.42293 1
2 -5 -5 2.43281 7.24407 1
2 -5 -5 1.13416 6.9184 6
2 -5 -4 334.682 19.6097 1
2 -5 -4 380.737 20.451 6
2 5 -3 248.244 12.9315 1
2 -5 -3 233.698 13.9047 1
2 -5 -3 202.024 13.8856 6
2 -5 -2 89.8616 8.60647 6
2 5 -2 77.8506 7.93767 5
2 -5 -2 83.3459 7.24489 1
2 5 -2 80.3174 6.3562 1
2 -5 -2 86.5788 6.39406 4
2 -5 -2 81.6011 6.84351 2
2 -5 -1 35.25 6.15514 6
2 5 -1 29.0083 4.63453 1
-2 -5 1 26.4382 4.04682 1
2 5 -1 32.1644 5.6593 5
-2 5 1 32.6549 4.55501 1
2 -5 -1 28.5177 4.87252 1
2 -5 0 4.11537 5.25933 6
-2 -5 0 2.84354 3.49574 1
2 -5 0 6.63248 4.60156 1
2 5 0 0.63903 4.60065 5
2 5 0 14.4757 4.35028 1
-2 -5 0 4.59486 4.64267 6
-2 -5 -1 157.026 11.0544 6
2 -5 1 159.046 10.0301 1
2 5 1 154.858 10.2913 1
2 -5 1 140.879 11.0963 6
2 -5 2 388.264 19.6627 1
2 5 2 369.256 19.9917 1
-2 -5 -2 426.778 21.8899 6
2 5 3 26.075 8.51076 1
2 -5 3 31.9664 7.57221 1
2 -5 4 695.449 34.6499 1
2 5 4 726.272 35.4487 1
2 5 5 30.3406 10.3863 1
2 -6 -7 291.223 22.4271 1
2 -6 -6 143.543 14.8743 1
2 -6 -5 32.9813 8.95471 1
2 -6 -5 50.2374 9.17394 6
2 -6 -4 791.974 35.6218 1
2 -6 -4 804.488 36.6022 6
2 -6 -3 50.4823 7.3906 1
2 6 -3 62.1216 8.5437 5
2 -6 -3 47.3256 8.48928 6
2 6 -2 3535.34 135.889 5
2 -6 -2 3523.71 133.973 1
2 -6 -2 3720.1 135.934 6
2 -6 -2 3944.95 134.637 2
2 6 -1 269.159 15.2574 5
2 -6 -1 264.325 13.5703 1
2 -6 -1 277.513 15.8153 6
2 -6 -1 308.05 15.541 2
-2 -6 0 2088.97 77.1083 6
2 6 0 2121.8 78.5302 5
2 -6 0 1938.33 76.1478 1
2 6 0 2148.86 76.2896 1
2 -6 0 1997.66 78.472 6
-2 -6 -1 182.868 12.4743 6
2 -6 1 186.242 10.8458 1
2 6 1 174.514 11.2758 1
2 -6 1 156.143 12.0855 6
2 -6 2 582.086 28.9217 6
2 -6 2 590.476 27.737 1
2 6 2 634.184 28.6664 1
-2 -6 -2 693.183 30.5941 6
-2 -6 -3 275.561 19.0517 6
2 6 3 270.368 17.5877 1
2 6 4 769.588 37.5371 1
2 6 5 101.212 14.0461 1
2 -7 -7 -1.68327 9.3438 1
2 -7 -6 40.2762 10.6133 1
2 -7 -6 54.0405 11.4484 6
2 -7 -5 214.664 17.0323 6
2 -7 -5 223.226 16.7471 1
2 -7 -4 713.204 33.0185 1
2 -7 -4 713.056 34.142 6
2 -7 -3 23.6442 7.63253 6
2 -7 -3 25.0603 6.23878 1
2 7 -3 22.3985 7.20584 5
2 -7 -2 855.73 37.5028 6
2 7 -2 799.014 36.8676 5
2 -7 -2 857.174 34.9435 1
2 -7 -2 921.407 36.1382 2
2 7 -1 298.797 16.4678 5
2 -7 -1 286.643 16.2516 6
2 -7 -1 257.451 15.5522 2
2 7 0 273.284 15.6872 5
-2 -7 0 254.242 14.1635 6
2 -7 0 266.474 15.7222 6
2 -7 0 264.796 16.3431 2
-2 -7 -1 517.906 24.4257 6
2 -7 1 485.232 24.5715 6
-2 -7 -2 591.054 28.5579 6
2 -7 2 555.946 27.5301 6
2 -7 3 1.09581 7.04167 6
-2 -7 -3 7.86745 7.99954 6
-2 -7 -4 14.0985 9.56815 6
2 -8 -6 1.58761 9.0588 6
2 -8 -5 384.461 23.8702 6
2 -8 -4 326.463 20.7994 6
2 -8 -3 -7.55278 7.54163 6
2 8 -3 -1.09608 7.04373 5
2 -8 -2 82.6749 10.3765 6
2 8 -2 86.178 9.34583 5
2 -8 -2 70.1054 8.11691 2
2 -8 -1 1.81079 6.55015 6
2 8 -1 2.75057 5.72337 5
2 -8 -1 5.26241 6.20272 2
2 8 0 266.811 16.3282 5
2 -8 0 247.33 15.8717 6
2 -8 0 263.879 16.6585 2
2 8 1 298.637 18.6991 5
-2 -8 -1 311.375 17.9101 6
2 -8 1 314.742 18.941 2
2 -8 1 322.78 18.2226 6
2 -8 2 -1.02817 6.36885 6
2 -8 2 -1.15337 7.51371 2
-2 -8 -2 2.2349 7.02596 6
2 -8 3 1.23117 7.33248 2
-2 -8 -3 5.45701 8.76554 6
-2 -8 -4 9.70498 9.55914 6
2 -9 -6 238.455 19.9579 6
2 -9 -5 9.00048 10.3621 6
2 -9 -4 691.939 34.9176 6
2 9 -3 233.01 16.9555 5
2 -9 -3 302.43 18.7033 6
2 9 -2 478.037 25.4835 5
2 -9 -2 527.956 26.4016 6
2 -9 -1 155.524 13.0835 6
2 9 -1 148.031 12.6529 5
2 -9 -1 144.341 12.4313 2
2 9 0 339.14 19.3667 5
2 -9 0 318.953 19.4563 2
2 -9 0 302.485 18.5127 6
2 -9 1 -4.99114 7.98361 6
2 9 1 4.50726 6.65617 5
-2 -9 -1 9.43218 6.14584 6
2 -9 1 5.79653 6.79074 2
-2 -9 -2 407.419 22.2965 6
2 -9 2 354.653 21.8866 2
2 -9 2 334.068 20.5442 6
-2 -9 -3 23.921 9.33352 6
2 -9 3 26.3189 8.79183 2
-2 -9 -4 742.319 38.7281 6
2 -10 -6 73.4326 13.7085 6
2 -10 -5 4.76721 9.30815 6
2 -10 -4 482.589 28.1978 6
2 -10 -3 16.4655 9.29493 6
2 10 -3 26.618 8.62447 5
2 10 -2 1872.04 73.4955 5
2 -10 -2 1762.7 73.1421 6
2 -10 -1 84.9343 10.835 6
2 10 -1 82.6735 10.3898 5
2 -10 -1 82.1495 10.0257 2
2 10 0 703.787 33.3279 5
2 -10 0 735.168 33.6432 2
2 -10 0 638.716 32.5217 6
2 -10 1 -1.05804 7.17033 6
2 10 1 -2.47248 7.42203 5
2 -10 1 5.03973 7.74512 2
2 10 2 172.736 15.1943 5
-2 -10 -2 169.933 14.4948 6
2 -10 2 153.588 15.021 2
-2 -10 -3 169.755 15.9172 6
2 -10 3 134.199 14.9089 2
-2 -10 -4 378.854 25.86 6
2 -11 -5 120.618 15.1137 6
2 -11 -4 67.573 12.5052 6
2 -11 -3 -17.6447 9.71604 6
2 11 -3 -4.07597 7.62265 5
2 -11 -2 16.3122 8.33448 6
2 11 -2 35.7995 8.67362 5
2 -11 -1 34.7946 8.83581 6
2 11 -1 29.2931 8.30575 5
2 -11 -1 38.5721 8.67748 2
2 -11 0 19.2737 8.51997 6
2 11 0 4.99786 7.3248 5
2 -11 0 5.05422 8.23784 2
2 -11 1 144.706 13.6215 6
2 11 1 179.989 15.1648 5
2 -11 1 156.466 15.0269 2
2 11 2 298.95 20.8968 5
2 -11 2 300.282 21.0987 2
-2 -11 -3 -6.06402 9.5354 6
2 -11 3 20.67 9.48914 2
-2 -11 -4 34.5985 11.7125 6
2 -12 -5 182.537 18.493 6
2 -12 -4 338.606 24.0117 6
2 -12 -3 5.79605 9.04362 6
2 12 -3 -7.24832 8.19753 5
2 -12 -2 20.2228 9.33324 6
2 12 -2 18.6337 8.27247 5
2 -12 -1 3.80206 8.19956 6
2 12 -1 -1.31749 7.71616 5
2 12 0 554.149 29.5437 5
2 -12 0 522.052 29.1399 2
2 -12 0 541.854 28.3619 6
2 12 1 134.622 14.4223 5
2 -12 1 182.337 16.3792 2
2 12 2 199.815 17.8138 5
2 -12 2 217.812 18.392 2
2 12 3 -11.4715 9.76296 5
2 -12 3 -12.4436 9.49179 2
-2 -12 -3 1.56385 9.39284 6
2 -13 -4 205.707 19.463 6
2 -13 -3 162.437 16.1424 6
2 13 -3 143.006 15.0479 5
2 -13 -2 189.464 17.1739 6
2 13 -2 195.688 16.6111 5
2 -13 -1 163.494 15.8491 6
2 13 -1 197.56 16.2655 5
2 -13 0 175.294 16.1531 6
2 13 0 248.958 18.4283 5
2 13 1 29.9301 10.0491 5
2 -13 1 18.4948 10.2803 2
2 13 2 94.887 13.6942 5
2 -13 2 99.211 14.2177 2
2 13 3 15.4941 11.6688 5
2 -13 3 -1.62868 10.1668 2
2 -14 -4 84.6064 14.4404 6
2 -14 -3 6.57634 9.71281 6
2 14 -3 6.47985 9.64976 5
2 14 -2 320.314 21.9328 5
2 -14 -2 318.734 22.7392 6
2 -14 -1 4.2936 9.00052 6
2 14 -1 6.01928 8.43347 5
2 14 0 27.7934 9.61427 5
2 14 1 66.6917 12.2124 5
2 14 2 1.66608 9.16093 5
2 -14 2 3.36497 10.1826 2
2 -15 -3 1.74931 10.2464 6
2 15 -3 6.77151 8.94419 5
2 -15 -2 31.7744 11.2686 6
2 15 -2 20.9263 9.14542 5
2 15 -1 7.90483 8.52828 5
2 15 0 108.756 14.6195 5
2 15 1 18.5628 10.0705 5
2 -16 -2 -8.22906 10.5031 6
3 0 -7 27.6505 10.1461 1
-3 0 7 42.9106 11.8096 4
3 0 -6 1.40182 8.41671 1
-3 0 6 4.0821 7.69494 4
3 0 -5 1151.74 49.5954 1
-3 0 5 1129.28 49.0788 4
3 0 -4 1.92345 6.22253 1
3 0 -3 925.165 39.1025 1
3 0 -2 3.03192 3.88139 6
-3 0 2 5.04851 4.30534 3
3 0 -2 1.39366 5.49725 1
3 0 -1 1649.51 64.632 1
-3 0 1 1667.48 64.1677 3
3 0 -1 1709.37 63.5926 6
3 0 0 11.2283 5.71022 1
-3 0 0 0.7421 4.87063 3
3 0 1 0.88303 6.02253 1
-3 0 -1 -5.17453 6.06299 3
3 0 2 18.41 7.74898 1
-3 0 -2 -0.98118 5.989 3
3 0 3 197.672 16.0033 1
-3 0 -3 192.537 15.1613 3
3 0 4 1.53655 8.84536 1
3 0 5 82.2089 13.9039 1
3 1 -7 572.105 31.1547 1
3 -1 -7 548.477 30.8614 1
-3 1 7 502.926 29.8191 4
-3 -1 7 489.947 30.0241 4
3 1 -6 487.403 27.013 1
3 -1 -6 453.184 26.8068 1
-3 1 6 466.772 26.5976 4
-3 -1 6 495.257 27.4075 4
3 1 -5 4.6143 7.04308 1
3 -1 -5 9.51893 7.09226 1
-3 1 5 11.9757 7.24303 4
3 -1 -4 4626.69 169.71 1
3 1 -4 4532.69 169.174 1
-3 1 4 4621.43 168.601 4
3 -1 -3 161.068 12.1308 1
3 1 -3 181.928 12.2243 1
3 -1 -3 177.668 10.358 6
3 -1 -2 3283.18 125.75 1
3 1 -2 3439.92 125.819 1
-3 1 2 3375.31 124.155 3
3 -1 -2 3409.69 124.208 6
3 1 -2 3499.6 123.113 6
3 1 -1 1000.85 38.3642 5
3 -1 -1 1035.83 41.5609 1
3 1 -1 996.426 41.3365 1
-3 1 1 1019.94 40.8992 3
3 -1 -1 1016.81 40.4902 6
3 -1 0 833.399 35.3541 1
3 1 0 836.835 35.4609 1
-3 1 0 844.117 35.7536 3
-3 -1 0 795.597 35.0057 3
3 -1 1 4.41279 6.1676 1
3 1 1 -0.88298 6.35155 1
-3 1 -1 -0.87565 5.66544 3
-3 -1 -1 1.72666 6.10461 3
3 -1 2 750.395 34.0754 1
3 1 2 669.433 33.3708 1
-3 1 -2 697.038 33.0868 3
-3 -1 -2 750.82 33.3657 3
3 1 3 84.0132 11.6767 1
-3 -1 -3 66.1862 9.99138 3
3 -1 3 100.334 12.055 1
3 -1 4 80.9519 13.1351 1
3 1 4 110.98 13.9585 1
3 -1 5 57.3032 11.7052 1
3 1 5 24.5885 11.4521 1
3 2 -7 11.0231 9.9012 1
3 -2 -7 -3.32854 9.49609 1
-3 2 7 1.55663 9.03912 4
-3 -2 7 -4.94117 10.2025 4
3 2 -6 153.036 14.8671 1
3 -2 -6 181.214 16.1875 1
-3 2 6 137.595 13.9871 4
-3 -2 6 146.058 14.8482 4
3 2 -5 -1.13452 6.75624 1
3 -2 -5 -2.41483 7.13117 1
-3 2 5 7.48767 7.11022 4
3 -2 -4 6.94351 6.05098 1
3 2 -4 0.92971 6.26105 1
-3 2 4 -0.8191 5.29991 4
3 -2 -3 67.0034 7.24372 6
3 -2 -3 74.8391 8.21773 1
-3 2 3 51.3024 6.29142 4
3 2 -3 64.4304 7.87044 1
3 2 -2 2445.86 91.815 5
3 -2 -2 2432.66 93.208 1
3 2 -2 2602.68 93.2144 1
3 -2 -2 2459.63 92.052 6
3 2 -1 246.917 12.5495 5
3 -2 -1 286.522 15.2755 1
3 2 -1 264.947 14.9459 1
3 -2 -1 270.104 14.5166 6
3 2 0 13.3604 3.72613 5
3 -2 0 22.4922 6.14686 1
-3 2 0 3.90307 5.37569 3
3 2 0 13.3699 6.1163 1
3 -2 1 21.1543 7.0595 1
3 2 1 22.9143 6.35147 1
3 -2 2 9.6666 7.72808 1
3 2 2 3.25626 6.67486 1
-3 -2 -2 3.9509 6.39299 3
3 2 3 -2.62789 7.95193 1
-3 -2 -3 -2.17669 7.46849 3
3 -2 3 5.17602 8.42989 1
3 -2 4 100.399 13.3078 1
3 2 4 83.3829 12.4274 1
3 -2 5 39.706 11.2831 1
3 2 5 14.0749 10.4307 1
3 3 -7 213.555 18.2364 1
3 -3 -7 199.7 18.1922 1
-3 -3 7 206.309 18.847 4
3 3 -6 4.05389 8.05021 1
3 -3 -6 8.85688 8.11932 1
-3 3 6 6.5758 7.899 4
3 3 -5 27.7973 7.42097 1
3 -3 -5 8.55421 6.87956 1
-3 3 5 23.2665 7.7632 4
3 -3 -4 2174.3 82.7902 1
3 3 -4 2166.1 81.9001 1
-3 3 4 2070.01 80.9236 4
3 -3 -4 2063.81 80.5702 6
3 -3 -3 151.556 11.6898 1
3 3 -3 150.528 10.9823 1
3 -3 -3 172.236 11.0624 6
3 3 -2 651.964 27.3258 5
3 -3 -2 629.956 28.1944 1
3 3 -2 612.015 27.5705 1
3 -3 -2 618.975 27.4001 6
3 3 -1 311.549 15.2983 5
3 -3 -1 332.247 17.0961 1
3 3 -1 319.83 16.735 1
3 -3 -1 316.525 16.9479 6
3 -3 0 100.398 9.44533 6
3 3 0 101.716 7.72834 5
3 -3 0 104.542 9.35913 1
3 3 0 124.878 9.96967 1
3 -3 1 72.0966 9.15883 1
3 3 1 64.1756 8.62724 1
3 -3 2 44.6875 8.71107 1
3 3 2 35.7684 8.23184 1
-3 -3 -2 26.3223 7.93011 3
3 3 3 14.4483 8.62668 1
-3 -3 -3 15.4526 7.68012 3
3 -3 3 7.68205 8.40961 1
3 3 4 -1.54261 8.40081 1
3 -3 4 -6.02139 8.9655 1
3 3 5 5.27012 10.1142 1
3 -3 5 5.11258 9.89761 1
3 -4 -7 5.06113 10.1376 1
-3 -4 7 22.1904 10.5019 4
3 -4 -6 41.6936 10.1971 1
3 4 -5 746.05 34.4275 1
3 -4 -5 730.141 35.5305 1
3 -4 -4 363.347 20.5991 1
3 4 -4 364.845 19.6885 1
3 -4 -4 369.013 19.8853 6
3 -4 -3 784.441 33.5779 1
3 4 -3 756.399 32.6348 1
3 -4 -3 740.918 32.8905 6
3 4 -2 202.877 12.3908 5
3 -4 -2 202.589 13.0664 1
3 4 -2 221.85 12.8461 1
3 -4 -2 223.894 13.5573 6
3 4 -1 786.346 33.0577 5
3 -4 -1 769.528 33.9227 1
3 4 -1 829.275 33.8308 1
3 -4 -1 836.923 34.8154 6
3 4 0 945.106 38.0925 5
3 -4 0 932.091 39.2118 1
3 4 0 950.573 39.0985 1
3 -4 0 923.291 39.8434 6
3 -4 1 5.24828 6.50161 1
3 4 1 1.75212 5.86259 1
3 -4 2 1207.57 50.3614 1
3 4 2 1172.41 50.7134 1
3 4 3 167.704 15.5414 1
3 -4 3 173.338 14.7456 1
3 -4 4 357.265 22.8894 1
3 4 4 316.88 22.0772 1
3 4 5 12.248 11.105 1
3 -4 5 28.447 11.0727 1
3 -5 -7 519.348 30.7043 1
3 -5 -6 442.06 26.4847 1
3 -5 -5 33.5972 8.24655 1
3 -5 -4 2349.89 91.2899 1
3 -5 -4 2357.51 90.8198 6
3 -5 -3 115.045 10.9514 6
3 5 -3 123.169 9.49981 1
3 5 -3 111.349 10.6405 5
3 -5 -3 128.321 10.6694 1
3 5 -2 1165.63 48.253 5
3 -5 -2 1203.58 48.2467 1
3 5 -2 1221.97 47.484 1
3 -5 -2 1190.27 48.9094 6
3 5 -1 876.14 35.2894 5
3 -5 -1 808.342 35.0484 1
3 5 -1 848.928 34.8146 1
3 -5 -1 813.255 36.1374 6
3 5 0 1025.61 41.2755 5
3 -5 0 1045.56 41.7586 1
3 5 0 971.932 41.2636 1
3 -5 0 975.75 42.8288 6
3 -5 1 32.5497 8.32017 6
3 5 1 27.8507 6.95517 1
3 5 1 35.3992 6.84007 5
3 -5 1 31.8193 7.6726 1
3 -5 2 595.856 30.5394 1
3 5 2 689.152 31.6409 1
3 -5 3 112.001 12.2666 1
3 5 3 65.1738 11.0327 1
3 5 4 58.0902 11.3046 1
3 -6 -7 5.05401 9.69949 1
3 -6 -6 179.785 16.6548 1
3 -6 -5 41.8219 9.31863 6
3 -6 -5 28.7304 8.96855 1
3 -6 -4 15.9174 7.73977 6
3 -6 -4 16.7321 6.92923 1
3 -6 -3 32.9186 8.16805 6
3 6 -3 44.7927 7.97062 5
3 -6 -3 24.0806 6.72165 1
3 6 -2 558.037 26.1213 5
3 -6 -2 552.145 25.4208 1
3 -6 -2 528.208 26.4149 6
3 6 -1 433.721 21.5993 5
3 -6 -1 451.33 21.0402 1
3 -6 -1 411.124 22.2948 6
3 6 0 234.427 13.8916 5
3 -6 0 228.432 13.784 1
3 6 0 194.656 13.0702 1
3 -6 0 207.776 14.7211 6
3 6 1 0.86324 6.17859 1
3 -6 1 6.41104 6.52159 6
3 6 1 9.97 6.06841 5
3 -6 1 8.45924 6.19071 1
3 -6 2 23.9081 8.32776 6
3 6 2 12.7868 7.77607 1
3 6 3 6.45842 7.43909 1
3 6 4 9.12517 9.3546 1
3 -7 -7 20.2277 10.6997 1
3 -7 -6 258.251 19.6985 1
3 -7 -5 121.117 13.472 6
3 -7 -5 115.712 12.6773 1
3 -7 -4 224.236 16.0173 1
3 -7 -4 248.773 17.0593 6
3 -7 -3 58.4617 9.28514 6
3 7 -3 70.9058 9.27124 5
3 -7 -3 57.9942 8.42453 1
3 -7 -2 65.7833 8.44485 2
3 -7 -2 67.9155 9.55041 6
3 7 -2 68.9246 8.59641 5
3 -7 -2 52.1959 7.31457 1
3 -7 -1 7.81716 7.41838 6
3 7 -1 8.06302 6.19198 5
3 7 0 831.185 36.065 5
3 -7 0 794.539 36.8349 6
3 -7 1 202.102 15.7126 6
3 7 1 262.88 16.1552 5
3 -7 2 64.3599 10.9135 6
3 -7 3 -4.1016 8.66045 6
3 -8 -5 270.46 20.1605 6
3 -8 -4 309.56 20.4837 6
3 8 -3 415.153 23.4382 5
3 -8 -3 416.784 23.653 6
3 -8 -2 61.9113 10.2201 6
3 8 -2 90.0182 10.0635 5
3 -8 -2 65.3356 8.90131 2
3 -8 -1 106.043 11.1104 2
3 -8 -1 73.206 10.4825 6
3 8 -1 73.8404 9.52092 5
3 8 0 620.841 29.6193 5
3 -8 0 599.803 30.3469 6
3 -8 1 -1.18711 7.29754 6
3 8 1 -1.11749 6.86963 5
3 -8 2 1281.26 55.4543 6
3 -8 3 108.639 13.2178 6
3 -9 -6 32.4992 11.5465 6
3 -9 -5 30.8919 10.3912 6
3 -9 -4 205.151 17.0977 6
3 -9 -3 23.8381 9.34194 6
3 9 -3 11.2339 7.86941 5
3 -9 -2 9.39084 7.95588 6
3 9 -2 -1.11984 6.55932 5
3 -9 -2 3.03222 6.54008 2
3 9 -1 512.685 26.2423 5
3 -9 -1 458.206 26.0399 6
3 -9 -1 533.126 26.7971 2
3 -9 0 196.175 16.0448 2
3 -9 0 187.736 15.6346 6
3 9 0 199.897 14.8934 5
3 -9 1 9.38429 9.34885 2
3 -9 1 27.2072 9.32335 6
3 9 1 32.5557 8.80875 5
3 -9 2 176.351 15.5941 2
3 -9 2 130.837 14.3323 6
3 9 2 159.16 14.8788 5
3 -9 3 21.1706 10.1448 2
3 -10 -6 191.488 18.5105 6
3 -10 -5 53.474 12.2505 6
3 -10 -4 11.5333 9.33608 6
3 -10 -3 45.9213 10.8136 6
3 10 -3 42.6033 9.75399 5
3 -10 -2 11.3483 8.7636 6
3 10 -2 6.08634 6.95135 5
3 10 -1 408.068 22.6335 5
3 -10 -1 349.791 22.34 6
3 -10 -1 358.548 22.0228 2
3 10 0 502.405 26.7541 5
3 -10 0 448.318 26.2373 6
3 -10 0 522.323 27.6147 2
3 -10 1 1.29081 8.64635 6
3 10 1 10.3103 7.623 5
3 -10 1 30.0855 9.46914 2
3 -10 2 41.1152 10.2485 6
3 10 2 59.4494 10.8991 5
3 -10 2 62.2916 12.2373 2
3 -10 3 -7.9121 10.7953 2
3 -11 -5 181.268 18.5246 6
3 -11 -4 -1.5328 10.1216 6
3 11 -4 -1.57113 8.47089 5
3 -11 -3 26.0186 10.0287 6
3 11 -3 29.8918 9.69659 5
3 11 -2 244.531 18.2847 5
3 -11 -2 289.229 20.0323 6
3 -11 -1 10.5917 9.52399 6
3 11 -1 2.60132 7.74624 5
3 -11 -1 -1.30776 8.28343 2
3 11 0 571.615 29.5555 5
3 -11 0 534.86 29.8609 2
3 -11 0 522.211 29.2624 6
3 -11 1 207.973 17.3793 6
3 -11 1 193.602 18.1043 2
3 11 2 103.019 13.3248 5
3 -11 2 94.6107 13.8377 2
3 11 3 35.4235 11.427 5
3 -11 3 21.4679 10.4289 2
3 -12 -5 62.7964 13.3758 6
3 -12 -4 113.232 14.63 6
3 12 -4 105.807 14.1096 5
3 -12 -3 169.027 16.7116 6
3 12 -3 180.227 16.3822 5
3 -12 -2 27.7748 10.2186 6
3 12 -2 -4.23221 7.90838 5
3 -12 -1 28.0882 10.3395 6
3 12 -1 5.60348 8.22059 5
3 -12 -1 15.3809 8.93482 2
3 -12 0 120.101 14.6786 6
3 12 0 141.081 14.682 5
3 -12 0 135.749 15.0527 2
3 -12 1 2.7636 8.81495 6
3 12 1 2.9572 8.43666 5
3 -12 1 -8.06181 9.36272 2
3 12 2 462.694 28.8958 5
3 -12 2 507.933 30.0408 2
3 -13 -4 65.8001 13.0073 6
3 13 -4 65.702 12.7181 5
3 -13 -3 -6.48573 10.6374 6
3 13 -3 -6.40799 8.97884 5
3 13 -2 419.082 25.567 5
3 -13 -2 385.218 25.8599 6
3 -13 -1 203.702 17.8837 6
3 13 -1 199.846 17.3465 5
3 -13 -1 193.14 17.291 2
3 -13 0 -1.46462 9.60656 6
3 13 0 -7.64129 8.79754 5
3 -13 0 11.157 9.94749 2
3 13 1 -9.41481 8.79362 5
3 -13 1 1.68176 9.76723 2
3 13 2 13.1005 10.3756 5
3 -13 2 3.4808 10.1102 2
3 -14 -3 5.09947 10.1294 6
3 14 -3 15.1351 9.25378 5
3 -14 -2 6.51142 10.4594 6
3 14 -2 -9.55962 9.25284 5
3 -14 -1 125.917 15.3673 6
3 14 -1 153.937 15.7867 5
3 -14 0 264.828 20.7572 6
3 14 0 300.951 21.5142 5
3 -14 0 220.756 20.1335 2
3 14 1 -13.2866 9.97278 5
3 -14 1 7.00681 10.0854 2
3 -15 -2 105.152 15.5802 6
3 -15 -1 4.90558 10.7267 6
4 0 -7 8.38149 9.47948 1
-4 0 7 -1.53825 9.00967 4
4 0 -6 -10.3453 8.28868 1
4 0 -5 -12.7582 8.49232 1
4 0 -4 2164.07 84.968 1
4 0 -3 -1.97779 6.53024 1
4 0 -2 33.4571 8.17445 1
-4 0 2 46.7696 7.48624 3
4 0 -1 0.75481 5.05044 6
4 0 -1 -7.56192 7.31467 1
-4 0 1 0.89486 6.89114 3
4 0 0 46.2139 9.08375 1
-4 0 0 58.2461 8.5219 3
-4 0 -1 4.59099 7.92475 3
4 0 1 -1.17278 7.74422 1
4 0 2 950.104 44.1049 1
-4 0 -2 950.062 43.4543 3
4 0 3 -9.29165 10.4334 1
4 0 4 7.03817 10.0427 1
4 1 -7 10.0717 9.83248 1
4 -1 -7 -11.8705 9.84859 1
-4 -1 7 -9.42678 8.64013 4
4 1 -6 1182.11 51.8914 1
4 -1 -6 1061 51.0604 1
-4 -1 6 1178.52 51.0467 4
4 -1 -5 182.739 15.3398 1
4 1 -5 156.588 14.4392 1
4 -1 -4 591.892 29.124 1
4 1 -4 561.628 28.303 1
4 -1 -3 616.208 29.7337 1
4 1 -3 619.019 29.8396 1
4 -1 -2 63.6463 9.03637 1
4 1 -2 58.9692 8.76238 1
4 -1 -2 50.8122 6.86365 6
-4 1 2 60.8207 7.89381 3
-4 -1 2 46.0822 7.54529 3
4 -1 -1 50.63 7.24826 6
4 -1 -1 57.6836 8.91039 1
4 1 -1 55.4415 8.73976 1
-4 1 1 33.4029 7.88681 3
-4 -1 1 51.527 8.44903 3
4 -1 0 2919.95 113.869 1
4 1 0 3033.72 114.292 1
-4 1 0 2999.64 114.207 3
-4 -1 0 3053 114.288 3
4 1 1 116.329 12.6378 1
-4 1 -1 148.514 13.3168 3
-4 -1 -1 105.329 12.3221 3
4 -1 1 133.824 13.0942 1
4 -1 2 653.088 35.0618 1
4 1 2 717.848 35.6899 1
-4 -1 -2 777.008 35.6053 3
4 -1 3 171.405 16.7214 1
4 1 3 156.496 16.7465 1
-4 -1 -3 203.615 17.4154 3
4 -1 4 21.0212 11.4513 1
4 1 4 33.5786 12.0144 1
4 2 -7 1112.39 50.2073 1
4 -2 -7 1000.58 49.4056 1
-4 -2 7 1027.19 48.9691 4
4 2 -6 7.16985 8.33514 1
4 -2 -6 15.1126 9.50938 1
4 -2 -5 -1.30987 7.92738 1
4 2 -5 -1.24297 7.34122 1
4 -2 -4 23.596 7.5042 1
4 2 -4 42.7742 8.46954 1
4 -2 -3 26.1868 7.92035 1
4 2 -3 25.0985 7.34165 1
4 -2 -2 17.8928 7.09711 1
4 2 -2 21.8948 7.01611 1
4 -2 -2 12.9975 5.88905 6
4 -2 -1 1805.27 73.3083 1
4 2 -1 1878.03 73.5968 1
4 -2 -1 1901.23 72.8827 6
4 -2 0 92.4374 10.5679 6
4 -2 0 87.518 11.08 1
4 2 0 91.6297 11.0216 1
-4 -2 0 99.1972 11.1381 3
4 2 1 162.737 14.2294 1
-4 -2 -1 174.614 14.4386 3
4 -2 1 163.449 14.0561 1
4 -2 2 30.9396 9.46275 1
4 2 2 18.8527 8.71923 1
-4 -2 -2 46.9318 10.1091 3
4 -2 3 256.538 19.6305 1
4 2 3 223.457 19.1843 1
-4 -2 -3 222.269 18.2189 3
4 -2 4 38.2351 11.9404 1
4 2 4 44.1285 11.974 1
4 3 -7 42.0271 10.9311 1
4 -3 -7 29.7638 10.8093 1
-4 -3 7 16.4604 9.93314 4
4 3 -6 1494.5 63.5684 1
4 -3 -6 1486.35 64.4577 1
4 3 -5 231.822 16.5897 1
4 -3 -5 195.603 16.4476 1
4 -3 -4 1185.69 51.3342 1
4 3 -4 1219.8 50.8168 1
4 -3 -3 1023.88 44.6796 1
4 3 -3 1058.04 44.3828 1
4 -3 -3 1023.89 43.1675 6
4 -3 -2 557.074 27.1467 1
4 3 -2 587.833 27.2096 1
4 -3 -2 530.003 26.2884 6
4 -3 -1 132.375 11.6425 6
4 -3 -1 153.454 12.3833 1
4 3 -1 129.498 11.9097 1
4 -3 0 2923.51 116.355 1
4 3 0 3156.2 116.821 1
4 -3 0 3146.42 117.007 6
4 3 1 150.325 13.5315 1
4 -3 1 114.095 12.4271 1
-4 -3 -1 118.19 12.7837 3
4 -3 2 725.88 37.5169 1
4 3 2 826.096 38.4483 1
-4 -3 -2 807.991 38.0966 3
4 -3 3 198.066 18.1236 1
4 3 3 241.324 19.454 1
4 -3 4 153.194 17.611 1
4 3 4 170.582 18.135 1
4 -4 -7 10.5471 10.0368 1
4 -4 -6 1.53097 8.8902 1
4 4 -5 -1.19735 7.69301 1
4 -4 -5 8.01141 7.95184 1
4 -4 -4 1331.87 58.4548 1
4 4 -4 1479.8 58.3571 1
4 -4 -3 -1.80535 6.63751 6
4 -4 -3 -3.06326 6.78737 1
4 4 -3 0.93307 6.32358 1
4 4 -2 83.5013 9.68332 1
4 -4 -2 71.6852 9.62849 6
4 -4 -2 86.6534 10.0379 1
4 -4 -1 58.4343 9.0416 6
4 -4 -1 62.3183 9.34236 1
4 4 -1 90.6343 10.0459 1
4 -4 0 72.2516 10.3611 6
4 -4 0 89.038 11.0623 1
4 4 0 97.3771 10.5385 1
4 4 1 9.2294 7.41941 1
4 -4 1 17.2955 8.2722 6
4 -4 1 3.46323 7.42413 1
4 -4 2 529.834 28.9387 1
4 4 2 574.473 29.6697 1
-4 -4 -2 518.083 29.0575 3
4 -4 3 63.3332 11.8166 1
4 4 3 61.2884 12.0003 1
4 -4 4 8.38895 9.82808 1
4 4 4 1.74191 10.8731 1
4 -5 -7 -8.79612 9.86178 1
4 -5 -6 122.923 14.1844 1
4 -5 -5 131.609 13.8286 1
4 -5 -4 7.29074 7.50116 6
4 -5 -4 13.9432 7.52667 1
4 -5 -3 62.3629 9.5028 6
4 5 -3 34.8244 7.36587 5
4 -5 -3 48.2306 8.47078 1
4 5 -3 44.7078 7.78792 1
4 5 -2 611.884 28.7181 5
4 -5 -2 636.702 30.2078 1
4 5 -2 664.488 29.5775 1
4 -5 -2 626.791 30.1327 6
4 -5 -1 24.1391 7.85511 6
4 -5 -1 30.1393 7.65688 1
4 5 -1 25.1755 7.53631 1
4 -5 0 628.407 31.031 1
4 5 0 681.681 31.279 1
4 -5 0 651.813 32.1255 6
4 -5 1 142.307 13.9083 6
4 -5 1 163.093 13.9247 1
4 5 1 126.95 12.9114 1
4 5 2 60.8542 10.9499 1
4 -5 2 39.9895 10.4699 6
-4 -5 -2 28.2244 10.3373 3
4 -5 2 68.0067 10.9649 1
4 -5 3 22.2986 9.79328 1
4 5 3 30.3699 10.5242 1
4 -6 -6 58.2929 11.5236 1
4 -6 -5 10.8015 7.50435 1
4 -6 -4 272.344 18.2457 1
4 -6 -4 267.412 18.1451 6
4 -6 -3 24.8367 8.45283 6
4 6 -3 31.4455 7.21427 5
4 -6 -3 25.7226 7.82697 1
4 -6 -2 23.4506 7.59836 6
4 6 -2 9.98537 5.38611 5
4 -6 -2 15.2841 7.04295 1
4 -6 -1 817.342 37.0857 1
4 -6 -1 861.583 38.62 6
4 -6 0 267.014 17.3731 1
4 -6 0 260.94 18.2336 6
4 -6 1 112.968 12.783 6
4 -6 1 100.618 11.8052 1
4 6 1 136.185 12.5682 1
4 6 2 84.9608 12.0145 1
4 -6 2 68.8672 11.8674 6
4 -6 3 110.227 14.8625 6
4 6 3 107.926 14.3312 1
4 -7 -6 479.02 28.5934 1
4 -7 -5 184.127 16.034 1
4 -7 -4 337.726 21.4768 1
4 -7 -4 409.172 23.0074 6
4 7 -3 822.017 38.5326 5
4 -7 -3 835.943 37.9397 1
4 -7 -3 887.744 39.3961 6
4 -7 -2 150.808 14.1849 6
4 7 -2 136.542 11.942 5
4 -7 -2 150.346 12.5733 1
4 -7 -1 121.009 12.744 6
4 7 -1 132.621 11.6394 5
4 -7 0 734.561 35.9008 6
4 -7 1 40.1588 10.3875 6
4 -7 2 117.05 14.1025 6
4 -7 3 221.354 19.4724 6
4 -8 -5 15.4184 9.08466 6
4 -8 -4 524.971 28.9044 6
4 -8 -3 5.02849 8.30104 6
4 8 -3 -2.43032 7.05622 5
4 -8 -2 108.575 13.0383 6
4 8 -2 112.617 11.6062 5
4 -8 -1 156.622 14.4551 6
4 8 -1 155.667 12.9432 5
4 -8 0 143.721 14.7302 6
4 -8 1 7.20621 9.06534 6
4 -8 2 103.375 13.7962 6
4 -8 3 86.9624 13.3555 6
4 -9 -5 104.635 14.2078 6
4 -9 -4 245.774 19.2072 6
4 -9 -3 1.35603 8.40526 6
4 9 -3 15.6981 7.73218 5
4 9 -2 978.283 44.3525 5
4 -9 -2 1014.43 45.8902 6
4 -9 -1 98.5678 12.6438 2
4 -9 -1 92.4465 12.7012 6
4 9 -1 95.4436 11.4785 5
4 -9 0 30.652 9.89876 6
4 9 0 25.226 8.29941 5
4 -9 1 86.0921 13.108 6
4 -9 2 30.09 10.371 6
4 -9 3 13.2974 10.7641 6
4 -10 -5 33.2738 10.8687 6
4 10 -4 312.114 21.9449 5
4 -10 -4 301.187 21.8911 6
4 -10 -3 46.8249 11.7206 6
4 10 -3 68.155 11.0068 5
4 -10 -2 -7.09493 9.1168 6
4 10 -2 1.28306 7.05492 5
4 -10 -1 234.98 19.4049 6
4 10 -1 252.683 17.9877 5
4 -10 -1 300.873 20.0729 2
4 -10 0 97.4912 13.6971 2
4 -10 0 97.1608 13.3655 6
4 10 0 118.573 12.8682 5
4 -10 1 60.036 12.1516 2
4 -10 1 71.6825 12.6285 6
4 -10 2 1.70363 9.97792 2
4 -10 2 3.21421 10.1791 6
4 -11 -5 64.6339 13.0377 6
4 -11 -4 8.05513 10.4974 6
4 11 -4 4.86076 8.73827 5
4 11 -3 444.568 26.0546 5
4 -11 -3 393.023 26.2312 6
4 -11 -2 46.5775 11.336 6
4 11 -2 44.0684 9.58217 5
4 -11 -1 64.6117 12.3052 6
4 11 -1 80.3432 11.6227 5
4 -11 -1 59.2888 11.3847 2
4 -11 0 1.4972 9.62059 6
4 11 0 4.18219 7.81284 5
4 -11 0 9.61057 9.77191 2
4 -11 1 9.38413 10.1196 6
4 -11 1 -1.7 9.4373 2
4 -11 2 50.3433 12.4466 6
4 -12 -4 105.073 14.6905 6
4 12 -4 81.2983 13.3119 5
4 -12 -3 -4.91492 10.1502 6
4 12 -3 14.1228 9.03536 5
4 -12 -2 83.5169 14.2475 6
4 12 -2 114.924 13.2856 5
4 -12 -1 100.969 14.2416 6
4 12 -1 123.79 13.4601 5
4 -12 -1 101.527 13.7539 2
4 -12 0 61.8895 13.1437 6
4 12 0 69.5522 11.5949 5
4 -12 0 75.2876 13.4156 2
4 -12 1 -4.78691 9.9588 6
4 -12 1 12.4005 11.4615 2
4 -13 -3 25.7548 12.2834 6
4 13 -3 47.8748 11.1254 5
4 13 -2 477.157 28.0818 5
4 -13 -2 444.502 28.7902 6
4 -13 -1 155.795 17.2319 6
4 13 -1 150.271 15.3489 5
4 -13 -1 134.613 15.7538 2
4 -13 0 6.57684 10.7117 6
4 13 0 -3.13384 8.53264 5
4 -13 0 -8.68492 10.3444 2
4 -14 -1 50.5012 12.1026 2
5 0 -7 3.50281 9.15585 1
5 0 -6 -1.59214 9.08462 1
5 0 -5 34.2356 8.98368 1
5 0 -4 -7.75574 8.87448 1
5 0 -3 1432.04 60.2801 1
5 0 -2 -1.18512 8.47988 1
-5 0 2 14.5803 7.57851 3
5 0 -1 45.0928 10.2531 1
-5 0 1 69.5431 10.0107 3
5 0 0 -2.63067 8.57232 1
-5 0 0 15.7192 8.17911 3
5 0 1 5.82089 9.41717 1
-5 0 -1 5.74134 9.22384 3
5 0 2 3.25748 9.77916 1
5 0 3 488.459 30.7099 1
5 1 -7 107.11 14.8068 1
5 -1 -7 109.686 14.7746 1
5 1 -6 206.084 17.9472 1
5 -1 -6 143.203 15.891 1
5 -1 -5 4.32119 8.37013 1
5 1 -5 14.0995 8.53883 1
5 -1 -4 45.7156 10.1531 1
5 1 -4 51.1735 9.70859 1
5 -1 -3 20.8559 8.90198 1
5 1 -3 19.2933 8.40575 1
5 -1 -2 1411.35 59.7642 1
5 1 -2 1399.21 59.297 1
-5 1 2 1402.15 58.1949 3
-5 -1 2 1439.22 58.3661 3
5 -1 -1 301.013 20.7857 1
5 1 -1 364.959 21.7451 1
-5 1 1 348.414 20.6593 3
-5 -1 1 342.885 20.8622 3
5 -1 -1 316.247 19.3834 6
5 -1 0 1055.99 46.9614 1
5 1 0 931.273 46.0081 1
-5 1 0 1078.87 46.996 3
-5 -1 0 1036.43 46.5862 3
5 -1 1 276.787 20.911 1
5 1 1 326.407 21.9612 1
-5 -1 -1 312.009 21.4053 3
-5 -1 -2 80.0293 13.681 3
5 -1 2 85.9073 13.3876 1
5 1 2 78.001 13.2474 1
5 -1 3 98.5213 15.3445 1
5 1 3 111.244 16.3136 1
5 2 -7 18.7061 10.1483 1
5 2 -6 20.1334 9.34099 1
5 -2 -6 32.4244 10.6712 1
5 -2 -5 5.8063 8.78587 1
5 2 -5 -9.72894 8.20967 1
5 -2 -4 51.2704 10.2391 1
5 2 -4 53.064 9.94714 1
5 -2 -3 11.1009 8.40829 1
5 2 -3 45.3509 9.63016 1
5 -2 -2 62.2014 11.3158 1
5 2 -2 41.9601 10.0208 1
-5 -2 2 52.5805 9.60757 3
5 -2 -1 -2.20081 7.45818 6
5 -2 -1 -8.54905 8.58587 1
5 2 -1 -3.61084 8.31097 1
-5 -2 1 3.59907 8.63017 3
5 -2 0 1223.23 54.2835 1
5 2 0 1226.65 54.3227 1
-5 -2 0 1298.82 54.6069 3
5 -2 0 1223.2 53.7083 6
5 -2 1 -11.5846 9.1083 1
5 2 1 7.21647 8.94389 1
-5 -2 -1 -12.9355 9.9269 3
-5 -2 -2 23.0677 10.1003 3
5 -2 2 9.69551 10.3216 1
5 2 2 11.3315 10.4133 1
5 -2 3 -1.77551 11.1637 1
5 3 -6 47.2511 11.2829 1
5 -3 -6 52.3176 11.8234 1
5 -3 -5 5.85759 8.21043 1
5 3 -5 10.9666 7.96574 1
5 -3 -4 185.022 15.8721 1
5 3 -4 219.379 16.7927 1
5 -3 -3 -1.23893 7.96026 1
5 3 -3 -3.53775 7.63003 1
5 -3 -2 303.269 20.309 1
5 3 -2 346.368 21.2146 1
-5 -3 2 382.56 21.0501 3
5 -3 -2 319.367 19.693 6
5 -3 -1 184.88 15.1926 6
5 -3 -1 194.885 16.1465 1
5 3 -1 198.065 15.8255 1
-5 -3 1 210.396 16.2264 3
5 -3 0 120.552 13.1211 6
5 -3 0 115.611 13.6507 1
5 3 0 133.645 13.9632 1
-5 -3 0 139.677 14.8346 3
5 -3 1 62.7778 11.7237 6
5 -3 1 85.118 12.4955 1
5 3 1 84.6128 12.4722 1
-5 -3 -1 52.2603 11.7127 3
-5 -3 -2 49.5793 12.274 3
5 -3 2 20.8224 10.639 1
5 3 2 32.1547 11.0247 1
5 -4 -6 152.552 16.5623 1
5 -4 -5 -13.2212 8.67701 1
5 4 -5 12.091 8.25935 1
5 -4 -4 26.432 8.78905 1
5 4 -4 33.04 8.81476 1
5 -4 -3 837.621 40.3292 1
5 4 -3 903.157 40.2014 1
5 4 -2 87.7163 10.9091 1
5 -4 -2 77.4798 10.5874 6
5 -4 -2 78.0098 11.1954 1
5 -4 -1 28.1428 9.05088 6
5 -4 -1 36.4562 9.98493 1
5 4 -1 21.2341 8.91328 1
5 -4 0 124.328 13.6386 6
5 -4 0 86.0484 12.5055 1
5 4 0 116.42 13.6161 1
-5 -4 0 121.153 14.071 3
5 -4 1 37.5157 10.3804 6
5 -4 1 27.1809 10.7671 1
5 4 1 45.4546 10.5262 1
-5 -4 -1 38.3732 10.7556 3
5 -4 2 -3.30492 10.1593 6
5 -4 2 7.92658 9.36431 1
-5 -4 -2 3.12255 9.45001 3
5 4 2 11.15 10.0163 1
5 -5 -6 411.108 26.7349 1
5 -5 -5 5.90332 8.57238 1
5 -5 -4 170.184 15.1993 1
5 -5 -3 60.8625 10.3864 6
5 -5 -3 58.3071 10.314 1
5 -5 -2 896.322 39.4771 1
5 5 -2 820.459 38.0672 1
5 -5 -2 780.874 38.371 6
5 -5 -1 360.485 22.1957 1
5 5 -1 375.455 22.2485 1
5 -5 -1 347.885 21.9064 6
5 -5 0 874.687 40.6045 1
5 5 0 862.073 40.3792 1
5 -5 0 851.32 41.3493 6
5 -5 1 287.98 21.2943 6
5 -5 1 289.1 21.221 1
5 5 1 259.52 19.7347 1
-5 -5 -1 294.307 21.5842 3
5 -5 2 104.381 14.8555 6
5 -5 2 102.835 14.3263 1
-5 -5 -2 128.184 15.0757 3
5 5 2 103.39 13.8425 1
5 -6 -6 50.8503 12.064 1
5 -6 -5 29.5145 9.7347 1
5 -6 -4 7.95783 8.46551 1
5 -6 -3 170.383 15.4566 6
5 -6 -3 167.028 14.7182 1
5 -6 -2 54.9707 10.9482 6
5 -6 -2 67.0967 10.6749 1
5 -6 -1 14.4079 8.34144 1
5 -6 -1 -5.36483 8.61796 6
5 -6 0 627.856 31.3606 1
5 -6 0 564.725 32.0909 6
5 -6 1 -9.51419 9.90215 6
5 -6 2 6.83539 9.8435 6
-5 -6 -2 14.4889 11.2558 3
5 -7 -6 387.239 25.7618 1
5 -7 -5 1.47325 8.77352 1
5 -7 -4 893.364 42.2633 1
5 -7 -3 18.4764 9.29999 6
5 -7 -2 -3.95738 8.47614 6
5 -7 -1 99.8596 13.3383 6
5 -7 0 60.5406 12.1799 6
5 -7 1 -9.80298 9.81509 6
5 -7 2 307.868 24.2191 6
-5 -7 -2 382.74 25.4378 3
5 -8 -4 20.0222 9.83924 6
5 -8 -3 285.165 20.7266 6
5 -8 -2 141.004 15.2347 6
5 -8 -1 -2.93375 9.42481 6
5 -8 0 245.455 20.1353 6
5 -8 1 50.2448 12.3091 6
5 -9 -4 18.2471 9.99421 6
5 -9 -3 26.7957 10.7494 6
5 -9 -2 49.6999 11.5011 6
5 -9 -1 216.739 18.6132 6
5 -9 0 103.14 14.6782 6
5 -9 1 188.66 18.4709 6
5 -10 -4 -1.60882 9.73666 6
5 -10 -3 213.165 18.9435 6
5 -10 -2 44.4335 12.0794 6
5 -10 -1 3.16418 9.34492 2
5 -10 -1 4.79552 10.2708 6
5 -10 0 143.974 16.8847 6
5 11 -4 757.758 38.7427 5
5 -11 -4 708.542 38.7225 6
5 -11 -3 41.0535 11.9655 6
5 -11 -2 59.5743 12.475 6
5 -11 -1 77.0966 13.9859 6
5 -11 -1 49.4948 11.5887 2
5 -12 -1 5.13115 10.1871 2
6 0 -6 431.568 27.9248 1
6 0 -5 -4.75871 9.13276 1
6 0 -4 123.165 14.856 1
6 0 -3 -1.45667 8.74557 1
6 0 -2 -4.33647 9.08967 1
-6 0 2 -3.94691 8.63051 3
6 0 -1 17.8007 10.4923 1
-6 0 1 -1.45765 9.88206 3
6 0 0 -4.76137 10.1982 1
-6 0 0 -4.7648 10.2771 3
6 0 1 -17.1573 11.7892 1
6 -1 -6 72.8465 12.9915 1
6 1 -6 49.2992 11.4921 1
6 -1 -5 9.59069 9.45384 1
6 1 -5 18.8298 9.35786 1
6 -1 -4 19.6513 9.73973 1
6 1 -4 22.3354 9.92504 1
6 -1 -3 51.2383 11.002 1
6 1 -3 41.9148 11.0316 1
6 -1 -2 -1.45177 9.52221 1
6 1 -2 -4.30567 9.024 1
-6 -1 2 6.60569 8.18363 3
6 -1 -1 -1.48771 9.69206 1
6 1 -1 -7.39904 9.77172 1
-6 -1 1 2.91804 9.57002 3
6 -1 0 11.1339 11.2466 1
6 1 0 -17.3671 10.901 1
-6 -1 0 14.254 10.1753 3
6 -1 1 -4.86938 9.74486 6
6 -1 1 -6.86738 12.556 1
6 1 1 8.54525 11.5823 1
-6 -1 -1 1.69524 10.8915 3
6 -2 -6 3.48824 9.21463 1
6 2 -6 5.02738 9.47719 1
6 -2 -5 17.6663 10.2599 1
6 2 -5 13.9422 8.93437 1
6 -2 -4 25.8272 10.1875 1
6 2 -4 13.2447 9.93329 1
6 -2 -3 11.7541 9.17112 1
6 2 -3 -1.43068 8.65977 1
6 -2 -2 56.7352 11.5668 1
6 2 -2 65.4615 12.2237 1
-6 -2 2 61.5153 11.1896 3
6 -2 -1 -7.4486 9.5711 1
6 2 -1 -4.40483 9.43333 1
-6 -2 1 8.82261 9.3132 3
6 -2 0 4.46407 9.21747 6
6 -2 0 4.76264 10.055 1
6 2 0 -15.6811 10.2156 1
-6 -2 0 3.18327 10.0075 3
6 -2 1 365.153 25.9933 1
6 2 1 322.379 24.8928 1
-6 -2 -1 358.666 25.2051 3
6 -2 1 394.08 25.4699 6
6 3 -6 227.06 19.1258 1
6 -3 -5 137.996 15.5079 1
6 3 -5 143.317 15.0716 1
6 -3 -4 140.279 15.8465 1
6 3 -4 146.543 15.7133 1
6 -3 -3 136.99 15.3901 1
6 3 -3 132.762 14.7784 1
6 -3 -2 343.522 23.3053 1
6 3 -2 360.256 23.1475 1
-6 -3 2 339.187 22.5433 3
6 -3 -1 13.3945 9.90124 1
6 3 -1 7.26583 9.73134 1
-6 -3 1 14.8992 10.3578 3
6 -3 0 121.516 14.5105 6
6 -3 0 107.625 15.7993 1
6 3 0 104.039 15.2934 1
-6 -3 0 129.937 15.428 3
6 -3 1 5.06157 9.79905 6
6 -3 1 6.79152 11.0626 1
6 3 1 8.40166 10.7973 1
-6 -3 -1 1.70006 10.7691 3
6 -4 -5 -3.24791 8.84339 1
6 -4 -4 74.7069 12.5658 1
6 4 -4 85.4891 12.794 1
6 -4 -3 33.8526 10.8316 1
6 4 -3 34.7522 10.1825 1
6 4 -2 12.489 9.10447 1
-6 -4 2 -6.98093 8.84562 3
6 -4 -2 14.537 9.27626 1
6 -4 -1 -7.40612 9.71564 1
6 -4 -1 15.9357 9.3077 6
6 4 -1 -11.4326 9.05142 1
-6 -4 1 -3.03445 10.1515 3
6 -4 0 -4.76821 9.84642 6
6 -4 0 1.56481 10.3338 1
6 4 0 12.2633 10.1232 1
-6 -4 0 8.12201 10.1391 3
6 -4 1 36.2542 11.744 6
6 -4 1 23.4759 11.8316 1
6 4 1 18.2515 11.0034 1
-6 -4 -1 41.0725 12.6248 3
6 -5 -5 -3.25177 9.76201 1
6 -5 -4 111.076 14.735 1
6 -5 -3 -5.86612 9.42427 1
6 -5 -2 303.481 21.5597 1
-6 -5 2 272.166 20.9319 3
6 -5 -1 5.88642 9.38912 1
6 -5 -1 5.98093 9.53983 6
-6 -5 1 1.55501 9.41211 3
6 -5 0 407.066 26.5921 1
6 5 0 453.845 27.2499 1
-6 -5 0 415.912 27.1235 3
6 -5 0 405.293 26.9838 6
6 -5 1 11.5317 10.1359 1
6 5 1 13.0552 10.9975 1
6 -6 -5 21.0107 9.80896 1
6 -6 -4 146.252 15.4225 1
6 -6 -3 -4.36532 8.80755 1
6 -6 -2 232.533 18.7654 6
6 -6 -2 229.507 19.0085 1
6 -6 -1 -7.28685 9.75078 1
6 -6 -1 9.30942 9.23975 6
6 -6 0 11.7951 10.0418 6
-6 -6 0 10.112 10.4467 3
6 -7 -2 366.542 24.4764 6
6 -7 -1 6.43079 10.5474 6
6 -7 0 67.2814 12.9703 6
6 -8 -3 81.9603 13.1807 6
6 -8 -2 -11.0583 10.2988 6
6 -8 -1 -16.558 10.5032 6
6 -9 -3 8.09569 10.1843 6
6 -9 -2 463.411 29.2165 6
7 0 -4 -10.1793 10.4352 1
7 0 -3 30.1688 12.0349 1
7 0 -2 -3.35805 10.6349 1
7 1 -4 11.7713 10.2658 1
7 -1 -3 15.1618 10.0366 1
7 1 -3 1.66339 10.0711 1
7 -1 -2 168.563 18.5893 1
7 1 -2 168.35 17.7326 1
7 2 -4 899.196 45.113 1
7 -2 -3 13.5018 10.216 1
7 2 -3 -1.6452 9.95868 1
7 -2 -2 491.169 30.3024 1
7 2 -2 455.534 29.4604 1
7 3 -4 104.741 15.165 1
7 -3 -3 5.06526 9.97302 1
7 3 -3 3.24423 10.2001 1
7 3 -2 16.2812 11.8559 1
7 4 -2 6.40247 9.91734 1
