#------------------------------------------------------------------------------
#$Date: 2019-11-23 23:25:58 +0200 (Sat, 23 Nov 2019) $
#$Revision: 235585 $
#$URL: file:///home/coder/svn-repositories/cod/cif/4/03/70/4037029.cif $
#------------------------------------------------------------------------------
#
# This file is available in the Crystallography Open Database (COD),
# http://www.crystallography.net/
#
# All data on this site have been placed in the public domain by the
# contributors.
#
data_4037029
loop_
_publ_author_name
'Aitken, R. Alan'
'Harper, Andrew D.'
'Slawin, Alexandra M. Z.'
_publ_section_title
;
 Synthesis, Structure, and Unusual Reactivity of a Stable
 3-(Oxazolidin-2-ylidene)thiophen-2-one.
;
_journal_issue                   21
_journal_name_full               'The Journal of organic chemistry'
_journal_page_first              10527
_journal_page_last               10531
_journal_paper_doi               10.1021/acs.joc.6b01309
_journal_volume                  81
_journal_year                    2016
_chemical_absolute_configuration ad
_chemical_formula_moiety         'C9 H11 N O2 S'
_chemical_formula_sum            'C9 H11 N O2 S'
_chemical_formula_weight         197.25
_space_group_crystal_system      monoclinic
_space_group_IT_number           7
_space_group_name_Hall           'P -2yac'
_space_group_name_H-M_alt        'P 1 n 1'
_atom_sites_solution_hydrogens   geom
_atom_sites_solution_primary     direct
_atom_sites_solution_secondary   difmap
_audit_creation_date             2015-11-24
_audit_creation_method           'by CrystalStructure 4.1'
_cell_angle_alpha                90.0000
_cell_angle_beta                 94.7605(10)
_cell_angle_gamma                90.0000
_cell_formula_units_Z            2
_cell_length_a                   5.641(2)
_cell_length_b                   8.206(3)
_cell_length_c                   10.243(4)
_cell_measurement_reflns_used    1481
_cell_measurement_temperature    93
_cell_measurement_theta_max      27.40
_cell_measurement_theta_min      2.50
_cell_volume                     472.5(3)
_computing_cell_refinement       'CrystalClear-SM Expert 2.1 b45'
_computing_data_collection
'CrystalClear-SM Expert 2.1 b45 (Rigaku, 2015)'
_computing_data_reduction        'CrystalClear-SM Expert 2.1 b45'
_computing_molecular_graphics    'CrystalStructure 4.1'
_computing_publication_material  'CrystalStructure 4.1 (Rigaku, 2014)'
_computing_structure_refinement  'SHELXL2013 (Sheldrick, 2008)'
_computing_structure_solution    'SHELXT (Sheldrick, 2014)'
_diffrn_ambient_temperature      93
_diffrn_detector_area_resol_mean 5.814
_diffrn_measured_fraction_theta_full 0.990
_diffrn_measured_fraction_theta_max 0.990
_diffrn_measurement_device_type  'Rigaku XtaLAB P200'
_diffrn_measurement_method       \w
_diffrn_radiation_type           'Mo K\a'
_diffrn_radiation_wavelength     0.71075
_diffrn_reflns_av_R_equivalents  0.0562
_diffrn_reflns_Laue_measured_fraction_full 0.990
_diffrn_reflns_Laue_measured_fraction_max 0.990
_diffrn_reflns_limit_h_max       6
_diffrn_reflns_limit_h_min       -5
_diffrn_reflns_limit_k_max       9
_diffrn_reflns_limit_k_min       -9
_diffrn_reflns_limit_l_max       12
_diffrn_reflns_limit_l_min       -11
_diffrn_reflns_number            2661
_diffrn_reflns_point_group_measured_fraction_full 0.772
_diffrn_reflns_point_group_measured_fraction_max 0.771
_diffrn_reflns_theta_full        25.242
_diffrn_reflns_theta_max         25.269
_diffrn_reflns_theta_min         2.482
_diffrn_standards_number         0
_exptl_absorpt_coefficient_mu    0.308
_exptl_absorpt_correction_T_max  0.997
_exptl_absorpt_correction_T_min  0.635
_exptl_absorpt_correction_type   multi-scan
_exptl_absorpt_process_details   'REQAB (Rigaku, 1998)'
_exptl_crystal_colour            colorless
_exptl_crystal_density_diffrn    1.386
_exptl_crystal_density_method    'not measured'
_exptl_crystal_description       platelet
_exptl_crystal_F_000             208.00
_exptl_crystal_size_max          0.100
_exptl_crystal_size_mid          0.100
_exptl_crystal_size_min          0.010
_refine_diff_density_max         0.43
_refine_diff_density_min         -0.29
_refine_ls_abs_structure_details
;
 Flack x determined using 435 quotients [(I+)-(I-)]/[(I+)+(I-)]
 (Parsons, Flack and Wagner, Acta Cryst. B69 (2013) 249-259).
;
_refine_ls_abs_structure_Flack   0.11(10)
_refine_ls_extinction_method     none
_refine_ls_goodness_of_fit_ref   0.997
_refine_ls_hydrogen_treatment    mixed
_refine_ls_number_parameters     124
_refine_ls_number_reflns         1326
_refine_ls_number_restraints     3
_refine_ls_R_factor_all          0.0419
_refine_ls_R_factor_gt           0.0410
_refine_ls_shift/su_max          0.000
_refine_ls_structure_factor_coef Fsqd
_refine_ls_weighting_details
'w = 1/[\s^2^(Fo^2^)+(0.0582P)^2^] where P=(Fo^2^+2Fc^2^)/3'
_refine_ls_weighting_scheme      calc
_refine_ls_wR_factor_gt          0.1034
_refine_ls_wR_factor_ref         0.1038
_reflns_number_gt                1270
_reflns_number_total             1326
_reflns_threshold_expression     F^2^>2.0\s(F^2^)
_cod_data_source_file            jo6b01309_si_002.cif
_cod_data_source_block           4
_cod_database_code               4037029
_shelx_res_file
;

    shelxl.res created by SHELXL-2014/7

TITL AHAA12
CELL  0.71075 5.64100 8.20600 10.24300 90.00000 94.76050 90.00000
ZERR  2 0.00200 0.00300 0.00400 0.00000 0.00100 0.00000
LATT -1
SYMM 1/2+X,    -Y, 1/2+Z
SFAC C H N O S
UNIT 18 22 2 4 2
L.S. 20
FMAP 2
PLAN 5
WPDB -2
HTAB
BOND $H
CONF
LIST 4
TEMP -180.0
ACTA
SIZE 0.100 0.100 0.010
DFIX 0.9800 0.0050 N3' H3'
WGHT    0.058200
FVAR       0.86962
S1    5    0.345770    0.532605    0.340220    11.00000    0.02795    0.02877 =
         0.00854    0.00225    0.00648    0.00684
O1'   4    0.676019    0.252697    0.387482    11.00000    0.02574    0.02800 =
         0.00938   -0.00119    0.00309    0.00716
O2    4    0.011393    0.759660    0.347456    11.00000    0.03269    0.02739 =
         0.01385    0.00357    0.00715    0.01071
N3'   3    0.645861    0.211040    0.598284    11.00000    0.02816    0.02391 =
         0.00889   -0.00038    0.00213    0.00271
C2    1    0.124380    0.651652    0.411222    11.00000    0.02362    0.02552 =
         0.01150   -0.00194    0.00383   -0.00133
C2'   1    0.572820    0.300086    0.494718    11.00000    0.02104    0.02428 =
         0.00838   -0.00159    0.00220   -0.00622
C3    1    0.111361    0.599203    0.542340    11.00000    0.02993    0.02608 =
         0.01223    0.00073    0.00769    0.00259
AFIX  43
H3    2    0.002431    0.644664    0.598201    11.00000   -1.20000
AFIX   0
C4'   1    0.779703    0.067390    0.559571    11.00000    0.01739    0.02856 =
         0.01235   -0.00076    0.00033    0.00153
C4D   1    0.266223    0.479237    0.581888    11.00000    0.02426    0.02442 =
         0.01373   -0.00129    0.00570   -0.00118
AFIX  43
H4    2    0.277187    0.436535    0.668385    11.00000   -1.20000
AFIX   0
C5'   1    0.856885    0.132682    0.429280    11.00000    0.02317    0.02741 =
         0.01258   -0.00327    0.00353    0.00669
AFIX  23
H5A   2    1.016032    0.183936    0.441719    11.00000   -1.20000
H5B   2    0.861651    0.043999    0.364022    11.00000   -1.20000
AFIX   0
C5A   1    0.408178    0.423178    0.486244    11.00000    0.02450    0.02481 =
         0.00941    0.00160    0.00225    0.00140
C6'   1    0.613152   -0.077787    0.540096    11.00000    0.02209    0.02964 =
         0.01742   -0.00226    0.00187    0.00402
AFIX 137
H6A   2    0.695442   -0.167219    0.499351    11.00000   -1.20000
H6B   2    0.472315   -0.046333    0.483217    11.00000   -1.20000
H6C   2    0.564321   -0.113405    0.625164    11.00000   -1.20000
AFIX   0
C7'   1    0.989756    0.032090    0.658047    11.00000    0.02703    0.03128 =
         0.01348   -0.00100   -0.00289    0.00246
AFIX 137
H7A   2    1.087686    0.130315    0.671058    11.00000   -1.20000
H7B   2    1.085549   -0.056059    0.624971    11.00000   -1.20000
H7C   2    0.931563   -0.000762    0.741648    11.00000   -1.20000
AFIX   0
H3'   2    0.594064    0.215621    0.687176    11.00000    0.04511
HKLF 4

REM  AHAA12
REM R1 =  0.0410 for    1270 Fo > 4sig(Fo)  and  0.0419 for all    1326 data
REM    124 parameters refined using      3 restraints

END

WGHT      0.0501      0.0000

REM Instructions for potential hydrogen bonds
EQIV $1 x+1, y-1, z
HTAB C5' O2_$1
HTAB C6' O2_$1
EQIV $2 x+1/2, -y+1, z+1/2
HTAB N3' S1_$2
HTAB N3' O2_$2

REM Highest difference peak  0.427,  deepest hole -0.290,  1-sigma level  0.066
Q1    1   0.3451  0.4030  0.3387  11.00000  0.05    0.43
Q2    1   0.2452  0.4425  0.3256  11.00000  0.05    0.36
Q3    1   0.3813  0.6609  0.3534  11.00000  0.05    0.33
Q4    1   0.2101  0.6001  0.3523  11.00000  0.05    0.31
Q5    1   0.2488  0.6148  0.3745  11.00000  0.05    0.28
;
_shelx_res_checksum              32373
_shelx_hkl_file
;
   0   0  -1    0.35    2.17
   0   1   0  262.75   13.98
   0   1   0  262.93   16.16
   0  -1   0  303.06   23.73
   0  -1  -1  498.24   26.16
   0   1  -1  516.49   25.33
   0  -1  -1  495.54   27.21
   0   1   1  523.10   28.42
   0  -1   1  500.02   26.97
   0   1  -1  507.40   28.71
   1   0  -1  619.95   72.03
   0   0   2 2322.77  102.05
   0   0  -2 2264.19   99.57
   0   0  -2 2056.09  182.31
  -1   0  -1   38.18    4.72
   1   0   1   37.12    4.64
  -1   1   0 2193.09   96.84
   1   1   0 2399.59  108.14
   1  -1   0 2176.06  103.34
  -1   1   0 2136.64   93.48
   1  -1   0 2233.05  112.15
   1   1  -1 1989.06   96.03
  -1  -1   1 2022.60   98.18
  -1   1   1 1888.04   82.90
   1   1  -1 1784.35   78.47
   1  -1  -1 1818.44   79.99
   0   1  -2 1009.30   46.27
   0  -1  -2  978.29   44.76
   0   1   2 1002.37   45.81
   0   1  -2  938.08   49.60
   1  -1   1 2620.65  156.07
   1   1   1 2791.85  245.40
   1  -1   1 2630.56  114.64
  -1   1  -1 2604.40  113.49
  -1   1  -1 2573.29  168.56
   0  -2   0  177.45   10.75
   0   2   0  176.26   10.11
   0  -2   0  158.18    9.36
   1   0  -2    0.53    2.22
   0  -2   1  264.96   14.09
   0  -2   1  286.30   15.06
   0   2  -1  267.78   14.13
   0  -2  -1  276.36   14.91
   0   2   1  287.38   15.98
   0   2  -1  233.99   13.09
   1   0   2    0.41    2.79
   1   0   2   -0.34    2.46
  -1   0  -2   -0.06    2.83
  -1   0  -2    0.01    2.36
   1   1  -2  426.17   20.43
   1   1  -2  416.98   21.43
  -1  -1   2  433.55   20.63
  -1  -1   2  432.02   23.15
   1  -1  -2  411.86   20.23
   1  -1  -2  394.67   19.38
   0   0   3   -0.24    2.45
   0   0  -3   -0.01    3.05
   0   0  -3   -0.19    1.71
   0   0   3   -0.07    1.49
   1  -1   2  445.26   22.02
   1   1   2  467.21   33.99
  -1   1  -2  448.92   30.81
  -1   1  -2  446.21   22.00
   1   2   0  739.80   38.37
   1  -2   0  771.88   36.59
   1  -2   0  691.15   32.30
  -1   2   0  748.00   34.58
  -1   2   0  627.62   30.38
  -1  -2   0  789.43   56.29
  -1  -2   1  252.86   12.98
   1  -2  -1  231.14   12.52
   1  -2  -1  208.74   12.59
  -1   2   1  239.22   12.77
   0   2  -2  250.56   13.77
   0  -2  -2  301.55   18.91
   0   2   2  261.34   15.29
   0  -2   2  259.67   14.15
   0   2   2  295.88   15.54
   0   2  -2  299.03   15.77
   0  -2   2  301.80   15.63
   0   1  -3  134.52    8.59
   0  -1   3  127.16    7.90
   0   1   3  135.05    8.73
   0  -1  -3  140.68    9.02
   0   1  -3  148.66    9.58
   0  -1  -3  124.74    7.58
   1   2   1 2659.27  240.59
   1  -2   1 2690.75  203.71
  -1   2  -1 2539.78  110.84
  -1  -2  -1 2619.25  147.61
   1   2   1 2359.22  162.73
  -1  -2  -1 2695.97  209.53
  -1   2  -1 2706.34  204.92
   1   0  -3  272.33   14.51
   1   0  -3  266.03   13.49
   1  -2  -2  225.19   12.16
   1  -2  -2  202.88   12.41
   1   2  -2  205.79   11.24
  -1  -2   2  241.54   12.45
  -1  -2   2  229.11   13.89
   1  -2  -2  239.91   12.91
   1   1  -3 1013.56   45.43
   1  -1  -3 1088.22   49.13
   1   1  -3 1104.30   52.91
  -1  -1   3 1059.18   52.88
  -1   1   3 1028.51   46.58
   2   0   0   80.11    7.25
  -2   0   0   84.78    6.51
   1   0   3  736.08   48.93
   1   0   3  784.95   36.86
  -1   0  -3  818.20   38.09
  -1   0  -3  786.66   38.09
  -2   0   1   -0.23    1.60
   2   0  -1   -0.62    1.69
   0   3   0  185.30   11.32
   0   3   0  179.00   10.07
   0  -3   0  180.14   10.32
   0  -3   0  194.99   11.18
  -1   2  -2  987.68   45.09
  -1   2  -2  821.25   38.70
  -1  -2  -2 1049.09   61.17
   1   2   2  985.51   45.57
   1   2   2  951.69   66.06
  -2  -1   0  342.67   17.35
   2  -1   0  342.64   27.79
   2  -1   0  359.89   19.05
   2   1   0  331.54   17.58
  -1   1  -3   74.20    6.98
   1  -1   3   80.93    6.45
  -1   1  -3   72.21    5.87
   1  -1   3   84.81    6.70
   1   1   3   84.12    6.55
   2   0   1   -0.26    2.32
  -2   0  -1    0.45    2.32
   0  -3   1  173.42   10.09
   0  -3  -1  155.13    9.54
   0  -3   1  146.07    8.81
   0  -3  -1  148.91    8.76
   0   3  -1  147.91    8.73
   0  -3  -1  148.66   10.18
   0   3   1  134.33    9.08
   2   1  -1  168.47    9.77
  -2  -1   1  171.55    9.72
   2  -1  -1  171.86   16.10
   0   2  -3  276.68   16.01
   0   2   3  298.77   15.74
   0   2  -3  281.76   15.59
   0  -2  -3  295.74   16.58
   0  -2   3  310.81   16.74
  -2   0   2  563.73   50.78
   2   0  -2  535.65   60.17
   0   0  -4 1651.79   73.20
   0   0  -4 1764.40   78.36
   0   0   4 1526.80   68.34
   0   0   4 1612.80   70.74
   2  -1   1  147.94   10.26
   2   1   1  156.42   10.76
  -2  -1  -1  149.83    9.89
   1   3   0  832.91   38.54
  -1   3   0  677.06   31.47
  -1  -3   0  722.74   33.06
  -1  -3   0  655.60   31.17
   1  -3   0  716.07   41.09
   2   1  -2  384.75   18.65
   2   1  -2  354.15   17.66
   2  -1  -2  354.60   21.22
   0  -1   4  306.03   15.48
   0  -1  -4  308.78   15.83
   0   1   4  321.36   16.81
   0   1  -4  337.84   17.68
   0  -1  -4  308.65   16.26
   0   1  -4  301.67   15.85
   1   2  -3  561.45   28.87
   1  -2  -3  579.79   27.22
   1   2  -3  638.43   29.92
  -1  -2   3  611.48   30.00
   1  -2  -3  626.57   29.50
  -1  -2   3  631.08   29.08
   1  -3  -1  265.97   15.11
  -1   3   1  238.81   13.97
  -1  -3   1  239.05   13.60
  -1  -3   1  247.92   13.82
  -1   3   1  240.24   12.79
   0   3  -2  132.59    8.31
   0   3   2  125.07    7.99
   0  -3  -2   92.52    6.64
   0  -3   2  124.30    8.15
   0  -3  -2  102.78    7.16
   0  -3   2  100.49    6.82
   0   3   2  116.01    8.34
   0   3  -2  107.77    7.63
  -1   0   4   -0.06    2.10
   1   0  -4   -0.29    2.06
   1   0  -4   -0.16    1.31
   2   0   2  811.28   62.36
   2   0   2  774.22   44.01
   1  -3   1    9.23    2.59
  -1  -3  -1    5.61    2.41
  -1   3  -1    7.33    2.22
   1  -3   1    8.94    2.83
   1   3   1    8.95    2.27
  -1  -3  -1    8.60    1.95
   1   3   1    8.10    2.44
  -1   3  -1    7.26    3.46
   2  -2   0 1619.59   73.23
   2   2   0 1491.72  104.71
   2   2   0 1398.95   66.43
  -2   2   0 1466.69   65.37
   2  -2   0 1530.54   68.23
  -2  -2   0 1415.58   64.35
  -1  -2  -3  157.01    9.99
  -1   2  -3  197.61   11.34
   1   2   3  195.44   10.89
   1   2   3  217.63   12.76
  -1   2  -3  180.79   11.18
  -1  -1   4  608.09   27.97
   1   1  -4  629.56   30.49
   1   1  -4  597.72   27.84
   1  -1  -4  597.19   28.34
  -1  -1   4  611.45   29.63
   2   2  -1   28.32    3.47
   2  -2  -1   32.92    4.70
   2  -2  -1   32.16    3.76
  -2   2   1   32.87    3.61
   2  -1   2   37.40    4.95
  -2  -1  -2   41.64    5.05
  -2   1  -2   40.39    4.27
   2  -1   2   39.25    4.24
   2   1   2   37.43    5.16
   2   0  -3    0.27    1.65
   2   0  -3    0.70    2.05
  -1   0  -4    0.07    2.50
   1   0   4    0.22    2.42
  -1   0  -4    0.75    2.45
   1   0   4   -0.42    1.79
   1  -3  -2  195.92   12.07
  -1  -3   2  239.49   12.47
  -1   3   2  216.31   12.94
   1   3  -2  221.00   12.20
  -1  -3   2  215.14   13.22
   2  -2   1  137.91    9.21
   2   2   1  153.87   12.30
  -2  -2  -1  175.44   10.58
   2  -2   1  178.00   10.32
  -2   2  -1  192.23   10.95
   2   2   1  159.92   10.83
  -2   2  -1  188.82   12.59
   1   3   2  126.55    8.41
  -1   3  -2  106.99    7.83
   1  -3   2  136.04    8.53
  -1  -3  -2  140.11    8.11
  -1  -3  -2  116.49   11.46
   1  -3   2  146.32    9.40
   1   3   2  143.90    8.89
  -1   3  -2  124.96    7.99
   2   1  -3  378.76   19.62
   2   1  -3  370.94   18.43
   2  -1  -3  360.76   17.96
   2   1  -3  379.00   18.98
   2  -1  -3  375.23   18.60
   1   1   4  134.94    8.81
  -1   1  -4  141.01    9.39
  -1   1  -4  151.48    9.43
   1  -1   4  143.38    9.28
   1  -1   4  150.77    9.32
   2  -2  -2  319.34   16.38
   2   2  -2  317.27   16.12
   2   2  -2  310.48   16.42
   2  -2  -2  335.16   19.64
  -2   2   2  354.78   17.76
   2   2  -2  342.12   16.81
   0  -2   4  310.91   15.85
   0  -2   4  314.66   16.84
   0   2   4  309.28   16.25
   0  -2  -4  270.49   13.71
   0   2  -4  315.41   16.72
   0   2  -4  300.22   15.87
   0  -2  -4  328.16   18.24
   0   3   3    6.17    2.66
   0   3  -3    6.28    2.49
   0  -3   3    5.99    2.17
   0  -3   3    5.90    2.45
   0   3  -3    7.52    2.63
   0  -3  -3    6.40    2.46
   0   3   3    6.68    2.40
   0  -3  -3    5.92    2.06
   2   0   3   -0.14    2.43
   2   0   3   -0.40    2.39
  -1   2   4  270.15   14.28
   1  -2  -4  286.51   14.98
   1   2  -4  269.57   16.45
  -1  -2   4  272.39   15.31
   2   2   2  278.18   25.14
  -2  -2  -2  341.81   18.50
  -2   2  -2  322.16   16.67
  -2   2  -2  315.93   17.83
   2  -2   2  315.58   16.44
   0  -4   0  460.84   23.18
   0   4   0  451.21   21.77
   0   4   0  494.00   24.97
   0  -4   0  409.58   20.24
   0   0  -5   -0.35    1.43
   0   0   5   -0.00    1.16
   0   0  -5   -0.69    2.41
   1  -3  -3  394.07   21.36
  -1  -3   3  405.23   26.54
  -1  -3   3  445.80   23.79
   1   3  -3  428.57   22.21
   2   1   3  173.61   10.87
   2  -1   3  174.86   10.55
   2   1   3  145.55   14.02
  -2   1  -3  169.14   10.12
  -2  -1  -3  182.00   12.25
  -2   1  -3  174.81   12.95
   2  -1   3  167.16   10.92
   0   4   1  101.64    7.68
   0  -4   1  111.78    7.31
   0  -4  -1   94.89    6.88
   0  -4  -1  115.45    7.63
   0  -4   1  134.57    8.58
   0  -4  -1  118.38    7.37
   0   4  -1  124.51    7.66
   0  -1  -5  284.23   23.18
   0   1  -5  329.25   17.07
   0  -1   5  335.36   16.60
   0  -1   5  343.94   27.81
   0   1  -5  361.13   29.06
   0   1   5  340.51   17.61
   0  -1  -5  333.15   17.13
   2   2  -3   31.08    3.71
   2  -2  -3   34.45    3.78
   2   2  -3   28.10    2.96
   2   2  -3   34.46    3.53
   2  -2  -3   32.32    3.58
   1   2   4   71.94    7.42
   1  -2   4   83.60    8.07
  -1   2  -4   78.68    8.14
  -1   2  -4   65.46    6.82
  -1  -2  -4   75.01    8.10
   2   0  -4  165.97   14.02
   2   0  -4  177.54   15.07
   2   0  -4  176.07   14.50
   1   0  -5  404.24   32.15
  -1   0   5  391.08   31.16
   1   0  -5  373.93   29.36
   2   3   0  396.96   32.27
   2  -3   0  467.49   36.74
  -2   3   0  501.90   39.25
   2   3   0  448.91   35.13
   2  -3   0  565.26   44.68
  -2   3   0  419.02   37.24
   1   3   3  252.33   20.84
  -1   3  -3  241.14   20.27
  -1  -3  -3  218.32   18.65
   1   3   3  269.30   23.00
  -1   3  -3  210.56   17.73
   1  -3   3  267.42   21.97
   2  -3  -1  189.54   18.09
  -2  -3   1  194.53   16.89
   2  -3  -1  199.96   16.75
  -2   3   1  160.66   13.58
   2   3  -1  216.87   17.68
  -1  -4   0   33.18    4.10
   1   4   0   30.00    4.22
   1  -4   0   30.95    4.50
  -1   4   0   31.35    4.97
  -1   4   0   27.31    3.58
  -1  -4   0   27.92    3.45
   1  -4   0   26.31    3.70
  -1  -4   0   21.93    3.63
   2   1  -4   65.08    6.22
   2  -1  -4   74.10    7.22
   2  -1  -4   69.66    6.79
   2   1  -4   73.63    7.47
   1   1  -5  203.82   17.46
   1  -1  -5  214.45   17.88
   1  -1  -5  205.67   16.70
   1   1  -5  208.33   17.10
  -1  -1   5  180.59   14.77
  -1  -1   5  213.96   17.92
   2  -3   1 1342.16   86.86
  -2   3  -1  995.56   76.54
  -2  -3  -1 1229.45  101.64
   2   3   1 1085.07  100.06
   2   3   1 1398.83   89.92
  -2   3  -1 1281.29   83.81
   1   4  -1  172.37   15.63
  -1   4   1  161.47   13.78
  -1  -4   1  135.42   11.53
  -1  -4   1  135.34   11.84
   1  -4  -1  164.43   13.99
  -1   4   1  138.34   12.78
   1  -4  -1  148.22   17.06
   0   4  -2  293.27   23.67
   0  -4  -2  319.76   27.92
   0  -4  -2  302.36   24.20
   0   4   2  277.02   23.14
   0  -4   2  279.41   23.22
   0  -4  -2  283.94   23.02
   1  -4   1   30.72    4.10
  -1   4  -1   27.58    3.59
  -1  -4  -1   27.94    3.42
   1   4   1   28.39    3.93
  -1  -4  -1   29.81    3.64
   1  -4   1   29.51    4.43
  -1  -4  -1   21.17    3.62
  -3   0   0    0.67    1.68
   3   0   0   -0.32    1.90
  -3   0   1  237.08   23.78
   3   0  -1  240.29   26.20
  -1   0  -5  306.08   25.28
   1   0   5  309.32   25.15
  -1   0  -5  324.21   26.29
   1   0   5  299.52   24.14
   2  -3  -2  318.24   25.69
  -2   3   2  301.60   24.17
   2  -3  -2  366.42   30.60
  -2  -3   2  286.26   29.69
   0   3  -4  398.46   32.25
   0   3  -4  427.41   34.10
   0  -3   4  422.13   34.36
   0  -3  -4  410.69   33.55
   0  -3  -4  384.45   30.70
   0   3   4  398.87   33.32
   2   2   3   41.99    5.51
  -2  -2  -3   44.96    5.40
  -2   2  -3   48.04    6.17
   2  -2   3   51.87    5.85
   2  -2   3   52.08    6.08
  -2   2  -3   47.71    5.47
   0  -2   5  221.82   18.65
   0   2   5  244.69   20.23
   0  -2  -5  219.37   18.21
   0  -2   5  242.59   19.67
   0   2  -5  223.69   18.70
   0   2  -5  223.40   19.04
   3  -1   0   77.09    9.13
  -3   1   0   73.75    8.71
   3   1   0   75.80    7.55
  -3  -1   0   78.94    7.55
   3   1  -1  403.78   32.19
   3  -1  -1  422.20   41.47
  -3  -1   1  408.76   32.11
  -3   1   1  422.93   40.14
  -1   1  -5  732.75   57.06
  -1  -1  -5  837.27   65.27
  -1   1  -5  614.38   47.90
   1   1   5  802.82   62.11
   1  -1   5  764.44   58.98
   1  -4  -2  415.01   37.63
   1   4  -2  453.73   35.50
  -1  -4   2  441.84   35.39
   1  -4  -2  470.44   36.92
   1  -4  -2  393.76   31.95
  -1   4   2  474.23   38.61
  -1  -4   2  507.22   39.70
   3   0   1  911.58   71.04
  -3   0  -1 1000.96   77.91
   2   0   4  181.76   16.37
   2   0   4  173.01   14.99
  -3   0   2   -0.02    1.41
   3   0  -2   -0.61    1.41
   1  -3  -4  477.96   40.23
   1   3  -4  487.55   44.97
  -1  -3   4  559.96   45.85
  -1  -3   4  578.66   44.72
   1   3  -4  391.24   31.06
  -2   3  -2  407.46   33.11
   2   3   2  362.61   35.14
  -2   3  -2  402.94   32.02
   2   3   2  418.12   32.74
   2  -3   2  406.21   32.60
  -2  -3  -2  358.49   35.41
  -1  -4  -2   93.59   10.05
  -1   4  -2  128.60   11.32
  -1   4  -2  102.22    9.89
   1  -4   2  130.92   11.69
   1   4   2  129.94   12.08
   1  -4   2   99.87    9.32
  -1  -4  -2  150.42   12.74
   1   4   2  131.01   12.48
   2  -2  -4 1128.45   86.17
   2   2  -4 1084.57   86.53
   2  -2  -4 1079.55   82.50
  -2  -2   4 1170.20   90.23
   2   2  -4  994.59   81.97
   1   2  -5  108.66   10.74
  -1  -2   5  115.65   10.85
   1  -2  -5  129.25   11.44
  -1   2   5  120.79   10.78
   1   2  -5  127.11   11.18
  -3   1  -1  177.40   17.34
  -3  -1  -1  178.69   15.56
   3  -1   1  182.70   16.80
   3  -1   1  172.13   18.65
   3   1   1  189.12   17.17
  -2   1  -4  680.34   53.76
   2  -1   4  681.96   53.23
   2   1   4  595.79   46.76
  -2  -1  -4  678.15   53.03
   2  -1   4  662.53   51.57
  -2   1  -4  644.03   50.16
   2   1   4  701.21   54.81
   3   1  -2  115.94   10.39
   3  -1  -2  116.69   10.80
  -3   1   2  122.22   10.91
  -3  -1   2  116.38   10.16
   0  -4   3  134.32   12.20
   0   4  -3  122.92   13.97
   0  -4  -3  104.49    9.57
   0  -4   3  159.61   13.54
   0   4  -3  127.16   11.50
   0   4   3  123.03   10.99
   0  -4  -3  116.57   13.30
   0   4   3  128.49   12.30
   2   3  -3  374.69   29.63
   2  -3  -3  319.68   25.62
   2   3  -3  469.40   37.41
   2  -3  -3  372.25   29.55
  -2  -3   3  369.14   31.45
   2  -3  -3  334.67   27.79
   2   3  -3  296.75   23.91
   1  -3   4  131.00   11.59
   1  -3   4  111.98   10.46
  -1   3  -4  105.60   10.10
  -1   3  -4  117.33   11.01
   1   3   4  108.45   11.19
  -1  -3  -4  100.18   10.86
  -2   0   5    0.88    1.95
   2   0  -5   -0.53    1.69
   2   0  -5   -0.32    1.20
  -3   0  -2   -0.18    2.03
   3   0   2   -0.49    2.08
   3   0   2    1.48    2.23
   3   2   0  103.82    9.84
   3  -2   0  108.45   10.48
  -3  -2   0   91.33    8.45
   3  -2   0   97.70    9.21
   3   2  -1   40.19    4.27
  -3  -2   1   32.55    3.83
   3  -2  -1   37.38    5.17
   3   2  -1   36.60    4.50
   3  -2  -1   36.32    4.65
   3   0  -3 1138.98   88.20
   1  -2   5  586.74   46.01
   1   2   5  656.94   51.39
  -1   2  -5  626.94   48.80
  -1   2  -5  591.74   46.45
  -1  -2  -5  629.31   52.09
   1  -2   5  647.82   50.25
   0   0   6  367.74   29.19
   0   0  -6  433.22   34.42
   0   0  -6  405.81   32.31
   1   4  -3   66.11    6.74
   1  -4  -3   57.70    7.39
   1  -4  -3   58.52    6.12
   1  -4  -3   53.20    5.49
   1   4  -3   56.90    5.93
  -1  -4   3   53.77    6.07
  -1  -4   3   52.56    5.96
   2  -1  -5  239.73   19.65
   2   1  -5  199.08   17.04
   2  -1  -5  227.70   18.61
   2   1  -5  244.65   19.70
  -2  -1   5  238.18   19.62
   3  -1   2   10.45    2.80
  -3  -1  -2   10.57    2.70
  -3   1  -2   10.50    2.70
   3   1   2   11.52    3.04
   3  -1   2   11.38    3.32
  -1   0   6   -0.08    1.75
   1   0  -6    0.12    1.61
   3   1  -3  278.00   22.49
   3   1  -3  278.94   22.63
   3  -1  -3  271.84   22.11
  -3   1   3  294.52   23.84
   3   1  -3  322.70   25.46
   0  -1  -6  198.08   16.67
   0  -1   6  170.71   14.54
   0   1  -6  195.97   16.60
   0   1   6  197.52   16.67
   0  -1   6  199.03   16.90
   0  -1  -6  208.92   17.59
   0   1  -6  213.22   17.96
   3   2   1   10.25    2.77
  -3  -2  -1    9.59    2.39
   3  -2   1   10.92    2.55
   2   2   4   86.19    8.64
  -2   2  -4   57.82    6.09
   2  -2   4   70.97    7.16
  -2   2  -4   89.57    9.20
   2  -2   4   89.95    8.78
   2   2   4   85.60    8.57
  -2  -2  -4   93.79    9.09
  -2  -3  -3  489.23   39.57
  -2   3  -3  683.08   53.28
   2   3   3  525.23   43.13
   2   3   3  692.14   53.49
  -2   3  -3  685.47   54.42
  -2   4   0   16.35    2.65
   2   4   0   16.07    2.82
   2  -4   0   16.74    3.67
  -2  -4   0   15.65    2.64
   1   4   3   45.60    5.39
  -1   4  -3   42.92    5.34
  -1   4  -3   52.52    5.73
  -1  -4  -3   38.27    5.01
  -1  -4  -3   55.29    5.37
   1  -4   3   48.36    5.44
   1   4   3   52.88    5.96
   3  -2  -2   44.77    5.11
  -3   2   2   39.18    4.48
  -3  -2   2   39.71    4.25
   3   2  -2   39.93    4.68
  -2   4   1  105.90    9.49
  -2  -4   1   86.18   10.07
   2   4  -1   62.19    6.17
   2  -4  -1   65.73    7.20
  -2   4   1   79.03    8.13
   0   5   0   23.32    3.26
   0   5   0   15.10    5.29
   0  -5   0   26.56    4.59
   0  -5   0   24.89    3.39
   0   3  -5  163.14   14.23
   0  -3  -5  148.65   14.16
   0  -3  -5  154.20   12.80
   0  -3  -5  146.67   12.89
   0   3  -5  163.84   14.28
   0   3   5  165.89   14.33
   0  -3   5  177.27   15.45
   1  -1  -6  245.69   20.25
   1   1  -6  231.67   18.88
  -1  -1   6  243.41   20.21
   1   1  -6  237.84   19.99
  -1  -1   6  238.49   19.08
   1  -1  -6  226.92   18.30
  -2   4  -1   27.60    3.57
   2  -4   1   33.43    4.38
   2   4   1   34.12    4.09
   2  -4   1   21.14    3.62
   2   4   1   28.71    4.01
  -2   4  -1   26.10    4.29
  -2  -4  -1   25.70    3.91
   0  -5   1  195.39   16.41
   0   5  -1  223.83   18.35
   0  -5  -1  214.37   17.60
   0  -5   1  170.10   14.39
   0  -5  -1  161.46   13.78
   0   5   1  199.43   19.88
   0   5  -1  201.03   21.54
   2  -3  -4   45.66    5.18
  -2  -3   4   36.53    4.35
   2   3  -4   46.86    5.07
   2  -3  -4   45.47    5.94
   2   3  -4   40.46    5.09
   2  -3  -4   43.92    4.95
  -2  -3   4   48.64    5.47
   1   3  -5  456.05   38.86
   1  -3  -5  472.58   37.10
   1   3  -5  386.94   30.76
  -1  -3   5  512.44   35.21
   1  -3  -5  474.35   38.58
  -1   3   5  426.52   33.82
  -2  -4   2   35.57    3.97
   2  -4  -2   38.61    5.69
   2   4  -2   37.78    4.53
  -2   4   2   32.89    4.02
   0   4   4  550.75   39.53
   0  -4  -4  550.42   42.60
   0  -4  -4  573.51   38.14
   0   4  -4  554.69   41.09
   0   4  -4  567.95   38.76
   0  -4   4  580.19   40.49
  -1   0  -6   -0.77    2.19
   1   0   6    0.04    1.92
  -1   0  -6    0.11    1.87
   1   0   6   -0.08    1.25
  -2   0  -5    0.21    2.27
   2   0   5   -0.09    1.84
   2   0   5   -0.32    2.39
   2   2  -5   46.87    4.60
   2  -2  -5   46.92    4.79
   2  -2  -5   42.78    4.37
  -2  -2   5   52.69    5.38
   2   2  -5   45.44    5.04
   3   0   3  405.79   31.04
   3   0   3  452.05   40.79
  -3   0  -3  430.79   34.75
  -3  -2  -2  190.57   14.25
   3   2   2  163.42   16.72
   3  -2   2  170.95   12.81
   3  -2   2  177.02   14.48
  -3   2  -2  169.70   12.70
  -1  -5   0   58.19    6.57
  -1  -5   0   75.21    6.35
  -1  -5   0   82.42    6.84
   1   5   0   90.64    8.09
  -1   5   0   83.54    7.10
  -1   5   0   75.91    7.50
   1  -5   0   95.17    8.58
   1  -5   0   90.55    7.57
   3   0  -4    0.04    1.68
   3   0  -4    0.28    1.65
   3   2  -3   30.37    3.70
   3  -2  -3   32.79    3.82
  -3   2   3   32.82    3.66
   3   2  -3   36.98    3.77
   3   2  -3   29.96    3.58
   0  -2  -6  155.37   11.84
   0  -2  -6  165.56   12.53
   0   2  -6  159.17   12.19
   0   2   6  134.90   10.56
   0   2  -6  162.46   12.49
   0  -2   6  156.20   12.30
  -1   1  -6   14.27    2.89
  -1   1  -6   16.10    3.16
  -1  -1  -6   18.33    3.59
   1  -1   6   17.98    2.84
   1   1   6   18.06    3.39
  -1  -1  -6   18.89    3.44
   1  -5  -1   77.85    6.76
   1   5  -1   74.44    8.08
  -1  -5   1   64.57    5.95
  -1  -5   1   69.53    7.36
  -1  -5   1   71.65    6.72
  -1   5   1   55.05    6.32
  -1   5   1   77.33    6.52
   1  -5  -1   49.31    5.77
   0  -5  -2   72.30    6.55
   0   5   2   60.60    6.79
   0  -5  -2   47.74    6.47
   0  -5  -2   61.07    6.73
   0   5  -2   50.27    4.81
   0  -5   2   61.30    5.84
   0  -5   2   63.23    6.86
  -2   1  -5  178.97   13.38
  -2  -1  -5  192.07   14.44
   2  -1   5  186.66   13.96
   2   1   5  207.71   15.48
   2  -1   5  176.97   13.35
  -2   1  -5  191.45   14.83
   2   1   5  199.37   14.85
   1   4  -4  132.71   10.75
   1  -4  -4  163.00   12.80
   1   4  -4  169.84   13.34
  -1  -4   4  172.73   13.55
   1  -4  -4  163.23   12.06
   1  -4  -4  126.72   12.13
   3   1   3   12.44    2.95
   3   1   3   12.12    2.76
  -3  -1  -3   13.54    2.95
   3  -1   3   14.92    3.47
   3  -1   3   10.64    2.53
   2   4   2   23.75    3.67
   2   4   2   30.95    3.65
  -2  -4  -2   26.24    4.00
   2  -4   2   27.09    3.96
  -2   4  -2   27.55    3.64
  -2   4  -2   31.93    4.77
   2  -4   2   27.23    3.60
   1   5   1   16.80    3.37
   1  -5   1   13.51    4.20
  -1  -5  -1   20.41    2.69
  -1   5  -1   20.17    3.64
   1  -5   1   18.72    2.86
  -1  -5  -1   15.78    3.09
  -1  -5  -1   27.34    3.35
  -1   5  -1   19.19    5.41
   3   3   0  106.23   10.23
   3   3   0  126.76    9.48
  -3  -3   0  119.94    9.39
  -3   3   0  121.75    9.44
   3  -3   0  121.77    9.68
   3  -3   0   88.64    8.18
   3  -1  -4   68.50    6.07
   3  -1  -4   66.22    5.91
   3   1  -4   66.75    5.99
   3   1  -4   51.50    4.67
   3   1  -4   62.87    5.83
  -1   2   6   72.69    6.54
  -1  -2   6   69.21    5.78
   1   2  -6   68.26    6.16
   1  -2  -6   65.22    5.47
  -1  -2   6   76.74    7.02
   1  -2  -6   72.28    6.59
   1   2  -6   68.17    6.65
   3  -3  -1   83.42    8.66
  -3   3   1   82.94    6.99
   3  -3  -1   83.54    7.21
   3   3  -1   71.31    7.06
   3   3  -1   91.42    7.21
   1  -3   5  104.73    8.89
  -1  -3  -5   88.90   10.15
  -1   3  -5  110.25    9.41
   1  -3   5   86.11    8.16
   1   3   5  102.68    9.04
  -1   3  -5  104.53    8.68
   2  -4  -3  196.83   15.80
  -2  -4   3  131.99    9.74
  -1   4  -4   59.38    5.93
  -1   4  -4   55.49    6.09
  -1  -4  -4   61.47    6.32
   1   4   4   54.81    6.18
   1  -4   4   57.87    5.79
   1   4   4   54.05    5.79
   1  -5  -2   37.81    5.31
   1   5  -2   42.86    4.83
   1  -5  -2   37.88    4.22
   1  -5  -2   36.46    3.92
   1   5  -2   36.32    3.86
  -1  -5   2   33.75    4.21
  -1   5   2   39.90    5.17
  -1  -5   2   25.17    2.98
  -3   3  -1  273.77   19.20
   3   3   1  279.64   19.84
   3   3   1  211.96   18.55
  -3  -3  -1  274.59   19.42
   3  -3   1  280.57   19.82
   3  -3   1  231.56   22.72
  -2   3  -4   24.43    4.26
  -2  -3  -4   26.23    3.92
  -2   3  -4   23.09    3.56
   2  -3   4   26.08    3.81
   2   3   4   24.42    2.90
   2   3   4   24.26    3.81
  -2   0   6  663.10   44.28
   2   0  -6  668.59   44.83
   2   0  -6  692.90   99.37
   3   3  -2    3.08    1.72
   3  -3  -2    3.36    2.96
   3   3  -2    3.76    1.67
   3   3  -2    2.98    1.80
   3  -3  -2    2.82    2.19
  -3   3   2    3.15    1.89
   1  -5   2  188.81   14.79
   1  -5   2  155.26   12.22
  -1  -5  -2  132.24   15.52
  -1   5  -2  146.99   11.05
  -1  -5  -2  203.29   14.79
  -1  -5  -2  160.82   11.91
   1   5   2  135.71   10.83
   2  -1  -6  380.39   25.86
   2   1  -6  291.00   20.62
   2  -1  -6  352.63   23.53
  -2  -1   6  381.72   26.16
  -2   1   6  380.17   25.74
   2   1  -6  382.23   25.74
  -1  -2  -6  144.27   11.34
   1  -2   6  105.83    8.50
  -1   2  -6  141.72   11.05
  -1   2  -6  136.59   11.03
   1  -2   6  146.09   11.49
   1   2   6  140.32   11.04
   2  -2   5   57.09    5.79
  -2   2  -5   64.89    6.85
  -2  -2  -5   46.22    5.06
   2   2   5   51.81    5.49
   3  -2   3   60.32    6.40
   3   2   3   61.50    6.85
   3  -2   3   51.92    5.48
  -3  -2  -3   47.23    5.07
   0  -5   3   96.72    8.44
   0   5   3   77.63    7.59
   0   5  -3   77.35    7.22
   0  -5  -3   72.72    6.88
   0  -5  -3   86.74    7.13
   0  -5  -3   87.70    7.37
   0   5  -3   86.52    7.56
   3   2  -4   19.49    2.71
   3   2  -4   21.09    3.25
   3  -2  -4   21.85    3.08
   3  -2  -4   20.05    2.91
   3   2  -4   22.21    3.03
   2  -4   3  199.39   14.91
  -2  -4  -3  163.09   12.89
   2   4   3  172.13   15.12
  -2   4  -3  191.79   15.49
   2   4   3  194.78   14.03
  -2   4  -3  190.31   14.24
   0   0   7    0.07    0.97
   2   3  -5    9.03    2.49
   2  -3  -5    9.06    2.16
   2   3  -5    9.83    2.23
  -2  -3   5   10.24    2.55
   2  -3  -5   10.86    2.92
  -3   0  -4    1.03    2.18
   3   0   4   -0.35    2.48
   3   0   4   -0.07    2.22
  -3   3  -2  159.76   12.78
  -3  -3  -2  136.14   10.80
   3  -3   2  171.61   12.94
   3   3   2  143.88   10.46
   3   3   2  177.77   16.49
   0  -4  -5  233.37   16.60
   0   4  -5  193.65   14.46
   0   4  -5  203.16   17.34
   0  -4   5  259.12   18.96
   0  -4  -5  224.89   18.53
   0   4   5  253.40   18.23
   3  -3  -3   93.58   10.13
   3  -3  -3  109.87    8.71
   3   3  -3  101.47    8.46
   3   3  -3   89.08    7.79
   0   3  -6    9.28    2.72
   0  -3   6    8.10    1.95
   0   3  -6   11.73    2.96
   0  -3   6   10.05    2.83
   0   3   6   10.58    2.92
   1  -5  -3  139.79   11.00
   1   5  -3  133.86   10.18
  -1   5   3  123.00   10.38
   1  -5  -3  101.19    9.55
   1  -5  -3  125.79    9.60
  -1  -5   3  131.14   10.86
   3   0  -5  228.93   15.86
   3   0  -5  282.67   19.64
   3   0  -5  238.41   16.94
  -1   0   7  426.07   31.04
   1   0  -7  426.80   29.43
   1   0  -7  399.05   30.55
   0   1  -7   16.67    3.27
   0   1  -7   14.60    2.89
   0  -1   7   15.99    2.30
   0  -1  -7   15.83    2.72
   0  -1   7   17.58    3.37
   0   1   7   14.67    2.90
   3  -1   4   40.95    5.09
   3  -1   4   38.32    4.58
  -3  -1  -4   35.67    4.44
   3   1   4   35.56    4.52
   3   1   4   25.85    4.16
  -1  -3   6   85.56   10.58
  -1  -3   6  130.58   10.55
   1   3  -6  139.54   10.77
   1  -3  -6  113.59   10.33
  -1   3   6  131.97   10.30
   1   3  -6  123.20   10.72
   2   4  -4   73.84    6.76
   2   4  -4   85.68    7.28
   2  -4  -4   65.59    8.28
   1  -4  -5  130.98   11.38
   1   4  -5  115.89    9.28
   1   4  -5  115.91    9.78
  -1  -4   5  155.06   12.33
   3   1  -5   60.23    6.16
   3   1  -5   63.38    6.03
   3  -1  -5   60.26    5.57
   3  -1  -5   61.99    5.75
   3   1  -5   68.36    5.82
   1   1  -7  343.38   31.62
  -1  -1   7  285.59   22.23
   1  -1  -7  329.92   22.21
  -1  -1   7  336.58   23.50
   1   1  -7  375.61   25.86
   2   2  -6   81.11    7.40
   2   2  -6   84.28    7.03
  -2  -2   6   82.54    7.21
   2  -2  -6   79.30    6.84
  -2  -5   0  117.23    9.00
  -2  -5   0  106.77   11.61
  -2   5   0  112.66    9.11
  -2   5   0  123.08   11.61
   2   5   0   81.49    7.81
   2  -5   0  126.22    9.94
  -1  -5  -3  113.47   11.24
   1  -5   3  143.46   11.09
  -1   5  -3  151.07   12.80
   1   5   3  138.00   11.06
   1   5   3  145.27   12.21
  -1  -5  -3  138.57   10.27
  -2   5   1  354.98   26.31
  -2  -5   1  411.62   27.84
   2  -5  -1  343.34   23.57
   4   0  -1   -0.05    1.84
  -4   0   1   -1.12    1.36
  -4   0   0  324.39   25.26
   4   0   0  316.74   25.67
  -2   0  -6  465.88   32.20
   2   0   6  482.88   32.72
   2   0   6  451.79   30.37
   2  -5   1  152.74   11.79
  -2  -5  -1  123.08    9.21
   2   5   1  128.94   10.24
  -2  -5  -1  104.71   10.19
  -2   5  -1  138.30   10.58
  -2  -5  -1  138.58   12.64
   4  -1  -1   28.21    3.70
  -4   1   1   26.61    3.48
  -4  -1   1   28.02    3.29
   4   1  -1   28.86    3.69
  -4  -1   0  124.19    9.55
   4   1   0  119.31    9.67
   4  -1   0  122.51   12.13
  -4   1   0  116.27   11.44
   4   0  -2  185.03   14.37
  -4   0   2  193.79   14.36
  -2   1  -6  242.94   35.87
   2  -1   6  241.12   35.33
   2  -1   6  236.59   34.58
   2   1   6  222.67   32.58
   2   1   6  203.52   30.04
   1   0   7  320.98   46.63
  -1   0  -7  303.84   44.37
   1   0   7  295.40   42.68
   3  -4   0   44.72    7.53
   3   4   0   33.56    5.89
   3   4   0   50.42    8.13
   3  -4  -1  210.48   30.99
   3   4  -1  233.36   33.98
   1  -4   5   10.00    3.10
   1   4   5    7.69    2.76
  -1   4  -5    8.22    2.93
  -1   4  -5    4.13    2.18
  -1  -4  -5   10.12    3.10
   2  -5  -2    7.23    3.78
   2   5  -2    6.22    2.23
   2  -5  -2    6.96    3.59
  -2   5   2    6.88    3.69
   0  -5   4   24.36    4.80
   0  -5  -4   24.60    4.94
   0   5  -4   27.55    5.42
   0   5  -4   26.50    4.98
   0  -5  -4   24.67    4.59
   0  -5  -4   25.03    4.56
   0   5   4   23.72    4.82
  -4   0  -1    0.15    1.51
   4   0   1   -0.86    1.70
  -1   3  -6   70.18   11.10
   1   3   6   53.85    8.81
  -1   3  -6   61.09    9.96
   1  -3   6   78.10   12.33
   1  -3   6   71.06   11.14
   2   3   5   65.70   10.25
   2   3   5   71.94   11.53
   2  -3   5   63.83   10.27
  -2  -3  -5   72.24   11.57
   2   3   5   66.66   10.80
   2  -3   5   68.35   10.87
  -2   3  -5   72.55   11.76
   0  -2   7   83.63   13.08
   0   2  -7   81.67   12.74
   0  -2  -7   79.30   12.31
   0   2   7   81.94   12.78
   0   2  -7   88.13   13.64
   0  -2   7   56.94    9.57
   3   3   3   21.56    4.58
   3  -3   3   20.18    4.38
  -3   3  -3   19.93    4.61
   3   3   3   17.64    3.26
  -3  -3  -3   22.42    4.45
  -3  -2  -4  105.92   16.18
   3  -2   4  103.17   15.77
   3   2   4  108.05   16.66
   3   2   4  127.96   19.28
  -3   2  -4  132.02   20.13
   3  -2   4  123.93   19.26
   0  -6   0   47.80    8.42
   0   6   0   47.45    8.23
   0  -6   0   79.85   12.32
   0  -6   0   62.05    9.75
   4   1  -2  166.43   24.65
  -4   1   2  163.93   24.29
  -4  -1   2  141.87   20.94
   4  -1  -2  166.74   24.75
  -1  -1  -7  120.71   18.56
   1  -1   7  118.10   17.61
  -1   1  -7  107.34   16.77
   1   1   7  102.97   15.29
   1   1   7  123.27   18.64
   3   3  -4  197.63   28.82
   3  -3  -4  176.93   26.70
   3  -3  -4  179.84   26.44
   3   3  -4  163.49   24.14
  -3  -4  -1  692.74   58.49
   3   4   1  697.50   60.05
  -3   4  -1  572.90   85.52
   3   4   1  506.43   74.56
   3   2  -5  148.53   21.99
   3   2  -5  164.40   24.09
   3  -2  -5  144.93   21.47
   3   2  -5  142.09   21.40
   2   4   4  138.98   20.68
   2  -4   4   98.20   15.04
  -2   4  -4  139.06   21.13
   2   4   4  105.78   16.20
  -2  -4  -4   89.00   14.33
   1   2  -7  188.93   28.66
  -1  -2   7  226.57   33.21
  -1   2   7  207.87   30.51
  -1  -2   7  126.95   18.69
   1   2  -7  212.20   31.11
   1  -2  -7  201.18   29.25
  -4  -1  -1   31.35    5.56
   4   1   1   29.74    5.56
   4  -1   1   28.18    5.37
   3   4  -2  175.76   25.77
   3  -4  -2  153.82   22.88
   0   6   1   14.71    4.12
   0  -6  -1    6.55    2.49
   0  -6  -1    7.68    2.96
   0   6  -1    6.20    2.09
   0  -6   1    5.44    2.10
   0  -6  -1    7.08    2.49
   0   6  -1    9.80    3.63
   1  -5  -4  123.71   21.17
   1   5  -4  152.39   22.94
  -1  -5   4  145.70   21.96
   1  -5  -4  147.63   21.81
  -2  -5  -2   14.20    3.51
  -2   5  -2   19.46    4.89
   2  -5   2   18.56    4.02
   2   5   2   14.39    3.98
   2   5   2   15.18    3.87
  -4   0   3    0.24    1.36
   4   0  -3    0.02    1.61
   4  -2  -1   63.62   10.10
  -4  -2   1   61.09    9.51
   4   2  -1   58.91    9.55
   4   2  -1   58.34    9.32
   4  -2   0  107.56   16.38
   4   2   0  108.72   16.66
  -4  -2   0  107.36   16.12
   2  -2   6  131.11   19.75
  -2   2  -6  131.99   20.14
   2   2   6  118.33   18.32
   1   6   0   58.20    9.69
  -1   6   0   36.81    6.75
  -1  -6   0   59.49    9.25
   1  -6   0   47.38    9.71
  -1   6   0   62.02   10.95
  -1  -6   0   38.62    7.05
  -1  -6   0   48.07    7.72
   2  -5  -3  221.01   32.29
   2  -5  -3  169.69   26.00
   2   5  -3  175.62   25.99
   4   0   2  175.03   26.12
   4   0   2  133.88   20.51
   1  -5   4  180.71   26.78
  -1   5  -4  171.55   26.40
   1   5   4  146.26   22.06
  -1   5  -4  160.49   24.33
  -1  -5  -4  152.95   26.15
   1   5   4  175.50   26.43
   3   0   5  314.23   45.94
   3   0   5  220.15   32.55
   2   3  -6  120.87   18.57
   2   3  -6  139.31   20.69
   2  -3  -6  126.77   18.91
  -2  -3   6  131.43   19.74
   2   1  -7   88.13   13.83
   2   1  -7   98.34   14.77
  -2   1   7   96.40   14.67
   2  -1  -7   92.04   13.79
  -2  -1   7   98.87   15.08
  -4  -1   3   43.79    7.02
   4   1  -3   48.48    7.90
   4  -1  -3   48.93    7.92
  -1  -6   1   15.64    4.03
   1  -6  -1   19.34    4.52
  -1   6   1   25.78    5.54
   1  -6  -1   17.56    3.77
   1   6  -1   20.79    5.82
   0   6  -2   37.77    6.50
   0  -6  -2   28.56    5.97
   0  -6  -2   35.10    5.85
   0  -6   2   34.85    6.47
   0   6  -2   33.72    6.66
   0   6   2   36.29    7.03
   0  -6  -2   28.94    5.11
  -2  -4   5  243.96   36.12
   2   4  -5  163.45   24.14
   2  -4  -5  198.89   30.40
   2  -4  -5  245.22   35.72
  -3   4  -2  230.62   34.06
   3   4   2  252.63   38.68
   3   4   2  305.82   44.57
  -3  -4  -2  267.70   39.23
  -1  -6  -1  109.69   17.68
  -1   6  -1  175.35   27.07
   1   6   1  119.33   18.14
   1  -6   1  135.71   20.79
  -1  -6  -1  122.45   20.62
  -1  -6  -1  139.20   20.61
  -1   6  -1  106.93   16.39
   4   2  -2  239.54   37.00
  -4  -2   2  268.42   38.92
   4  -2  -2  288.50   42.07
   4   2  -2  281.13   41.12
  -1   2  -7  259.18   37.99
   1   2   7  252.47   37.00
   1  -2   7  259.53   37.96
   1  -2   7  274.58   39.84
  -4  -1  -2   47.81    8.26
   4   1   2   56.37    9.67
   4  -1   2   49.32    8.49
   3  -4  -3  348.32   50.53
   3   1   5  226.32   33.61
   3  -1   5  216.61   31.88
   3  -1   5  205.33   30.35
   3   1   5  225.18   33.18
   0  -4   6  143.46   21.59
   0   4  -6  166.31   24.75
   0   4   6  131.44   19.69
   0   4  -6  175.12   26.02
   4   2   1   68.71   11.11
   4  -2   1   77.67   12.15
  -4  -2  -1   80.36   12.44
   3   1  -6   90.66   13.95
   3   1  -6   92.95   14.10
   3   1  -6   69.71   10.65
   3  -1  -6   97.79   14.86
  -1   4   6   23.86    4.76
   1   4  -6   16.76    3.60
   1   4  -6   23.30    4.73
  -1  -4   6   26.74    5.14
   1   6  -2  304.74   44.91
   1  -6  -2  261.40   38.00
  -1   6   2  267.32   39.74
  -1  -6   2  251.49   36.93
  -1  -6   2  228.41   34.69
   1  -6  -2  179.93   30.81
   1  -6  -2  197.19   29.36
  -2  -5  -3  207.65   33.55
   2   5   3  244.33   36.42
   2   5   3  239.29   35.17
  -2   5  -3  254.97   37.87
   2  -5   3  238.85   35.05
   0   3  -7   16.71    3.87
   0   3  -7   20.98    4.46
   0  -3   7   24.84    5.07
   0   3   7   21.85    4.43
  -3   3  -4   23.93    5.08
   3   3   4   28.86    4.84
   3  -3   4   25.32    4.88
   3   3   4   32.65    6.13
  -3  -3  -4   26.41    5.12
  -1   6  -2  241.26   35.51
   1   6   2  212.84   31.70
  -1  -6  -2  252.32   36.77
  -1  -6  -2  333.70   48.45
   1  -6   2  214.06   31.42
  -1  -6  -2  252.02   39.85
   0   5  -5  259.31   37.97
   0  -5   5  210.44   31.17
   0   5  -5  153.99   23.01
   0   5   5  237.05   34.68
   4   0  -4  110.72   16.66
   4   0  -4   97.82   14.80
   0   0  -8  134.21   24.01
   0   0   8  120.88   18.29
   0   0   8  121.29   18.60
   3   3  -5   12.92    2.96
   3  -3  -5   12.15    3.14
   3  -3  -5   11.10    3.40
   3   3  -5   12.58    2.96
   1  -3  -7  108.16   16.03
   1   3  -7  115.66   17.42
  -1   3   7  111.32   16.88
  -1  -3   7  117.49   17.83
   1   3  -7   82.18   13.55
   2  -2  -7   38.46    6.22
   2   2  -7   32.05    5.83
  -2  -2   7   35.37    6.21
   2   2  -7   37.73    6.36
   4   2  -3   32.96    5.82
   4  -2  -3   36.19    6.20
   0  -6  -3  276.92   40.20
   0   6   3  239.93   36.61
   0  -6  -3  247.23   39.64
   0  -6   3  225.67   33.40
   1   0  -8    8.98    4.77
   4  -2   2  230.18   33.70
   4   2   2  258.93   38.34
  -4  -2  -2  211.79   31.84
   4   0   3    1.33    2.31
   4   0   3    0.09    2.39
   3   2   5  149.30   22.54
   3  -2   5  132.64   19.98
   3   2   5  135.70   20.47
  -3   2  -5  131.45   20.08
   2  -5  -4  152.14   23.31
   2  -5  -4  157.63   23.29
   1   5  -5   11.42    3.15
   1  -5  -5   14.57    3.18
  -1  -5   5   10.88    3.00
   4   1  -4   88.97   13.45
   4  -1  -4   85.28   13.07
   4   1  -4   80.00   12.36
   4   1  -4   72.03   11.20
   0  -1   8  212.76   34.39
   0  -1   8  319.52   46.57
   0   1  -8  317.10   46.51
   1  -4   6   55.86    9.22
  -1   4  -6   56.95    9.53
   1   4   6   49.05    8.29
  -2  -4  -5   58.43   11.08
  -2   4  -5   65.88   10.72
   2   4   5   75.55   12.29
   2  -4   5   82.60   12.93
  -3  -4  -3  122.34   18.66
   3   4   3  149.59   24.00
  -3   4  -3  178.35   26.87
   3   4   3  206.89   30.22
   2   0   7    0.73    2.67
  -2   0  -7   -0.39    2.55
   2   0   7   -0.23    1.46
  -1   1   8  101.33   15.54
  -1  -1   8   95.06   14.57
  -1  -1   8   96.02   14.30
   1  -1  -8   97.39   14.70
   1   1  -8   94.62   14.37
   3   2  -6  283.86   41.06
   3   2  -6  268.86   39.07
   3  -2  -6  255.46   37.15
   4   3  -1  119.78   17.71
   4  -3  -1  154.08   22.92
  -4  -3   1  149.98   22.14
   4   3   0   50.37    8.31
   4   3   0   59.98    9.94
   4  -3   0   61.12    9.82
  -4  -3   0   61.05    9.62
   2   3   6   19.76    4.32
   2  -3   6   19.78    4.27
  -2   3  -6   20.69    4.85
   3  -4  -4   35.45    6.03
   4   1   3   66.70   11.26
   4  -1   3   63.28   10.23
   4   1   3   52.51    6.00
  -1  -6   3   23.50    3.76
   1  -6  -3   26.84    4.51
  -1   6   3   24.96    4.89
   1   6  -3   21.75    4.02
   1  -6  -3   26.41    5.59
   2   1   7   63.41    7.18
   2  -1   7   49.91    5.58
   2   1   7   53.90    5.76
   2  -1   7   49.67    5.91
  -2   1  -7   60.23    7.13
   4  -3  -2   61.80    6.70
   4   3  -2   65.93    6.58
   1  -3   7  109.31   10.85
   1   3   7  106.98   10.53
  -1   3  -7   96.76    9.84
   3   5   0   40.91    4.83
   3   5  -1    7.38    2.23
  -1   5  -5  153.05   14.73
   1  -5   5  174.40   16.13
   1   5   5  181.12   16.69
  -1   5  -5  192.57   17.75
  -4  -3  -1  141.97   13.13
   4   3   1  137.31   15.69
   4   3   1  143.98   12.94
   4  -3   1  139.02   13.12
  -2   6   0   49.12    6.71
  -2  -6   0   31.47    4.87
  -2  -6   0   47.37    5.42
   2  -6   0   42.93    6.89
   2   6   0   51.89    6.30
   1  -6   3   73.67    7.71
  -1  -6  -3   74.75    7.61
   1   6   3   72.57    8.17
  -1  -6  -3   63.82    8.71
  -1   6  -3   82.31    8.20
  -2   6   1  115.42   13.02
   2  -6  -1  125.67   11.77
   2   6  -1  141.02   13.98
   1   0   8   -0.61    2.51
   4  -2  -4   83.89    8.40
   4   2  -4   63.79    6.36
   4   2  -4   79.40    8.13
   0  -2   8  122.65   13.16
   0  -2   8  175.45   16.37
   0   2   8  168.73   15.37
   0   2  -8  165.67   16.00
   3   5   1  175.49   15.95
  -3  -5  -1  138.17   13.02
  -3   5  -1  153.06   16.87
   3  -5   1  152.82   14.52
   2   5   4  137.12   13.70
   2  -5   4  148.01   13.87
  -2   5  -4  119.86   11.83
   2   5   4  118.22   11.43
  -2  -5  -4  123.70   14.98
   2  -4  -6   40.39    4.82
   2   4  -6   48.27    5.64
  -2  -4   6   38.29    4.80
   2   6   1  121.42   12.37
   2  -6   1   97.10    9.48
  -2  -6  -1   80.86    9.52
  -2   6  -1  124.33   12.79
  -2  -6  -1  115.64   10.63
  -2  -6  -1   84.13    8.06
   3   5  -2   24.68    3.68
  -1  -2   8   59.39    6.77
   1   2  -8   52.28    6.28
   3   0   6    0.10    1.97
   3   0   6   -0.91    2.21
   1  -1   8   53.28    5.57
   1   1   8   51.87    5.30
   1  -1   8   52.10    6.27
  -1   1  -8   52.49    6.34
   1   1   8   49.94    5.96
   4   2   3   76.29    9.06
   4  -2   3   63.22    7.06
  -4  -2  -3   59.44    6.64
   2   6  -2   12.64    2.94
  -2   6   2    7.96    4.93
   2  -6  -2    8.18    3.05
   0   6   4   20.49    3.66
   0   6  -4   20.95    3.75
   0  -6   4   29.59    4.37
   0  -6  -4   25.54    3.43
   2  -3  -7   67.46    6.99
  -2  -3   7   65.61    7.03
   2   3  -7   74.32    7.64
   4  -3  -3  169.02   15.40
   3   0  -7  524.77   46.49
   3   0  -7  555.83   49.35
  -2   0   8  584.46   50.57
   2   0  -8  551.36   46.70
   2   2   7   11.22    3.38
   2   2   7   11.10    1.99
   2  -2   7   12.12    2.57
  -2   2  -7   12.46    3.58
   3  -1   6  109.58   10.92
   3  -1   6  107.17   10.57
   3   1   6  101.52   10.10
   3   1   6   87.91    9.80
   4   3   2  102.87   11.37
   4   3   2   81.10    8.13
   4  -3   2  100.70   10.07
  -4  -3  -2   98.71   10.27
  -3   3  -5  401.91   34.85
   3   3   5  363.35   31.22
   3   3   5  404.84   33.95
   3   3   5  343.58   38.26
   4  -1  -5   24.14    3.56
   4   1  -5   22.58    3.42
   4   1  -5   23.39    3.30
   4   0   4   51.69    6.27
   4   0   4   71.20    8.37
   0   4   7  122.38   11.64
   0   4  -7  104.76   10.45
   0   4  -7  123.48   12.00
   0  -4   7  127.02   12.33
  -1  -6   4   74.32    8.00
   1  -6  -4   85.32    8.30
   2   5  -5  115.73   11.06
  -2  -5   5   83.83    8.56
   3  -1  -7  261.33   22.39
   3  -1  -7  286.08   24.75
   3   1  -7  289.15   34.86
   3   1  -7  232.97   23.70
   3   1  -7  308.21   38.67
  -2  -1   8  337.39   35.14
  -2   1   8  302.90   27.45
   2  -1  -8  291.64   31.64
   2   1  -8  337.49   39.57
   3   4   4  321.44   27.63
  -3  -4  -4  255.66   25.45
   3   4   4  288.86   26.96
  -3   4  -4  295.17   26.25
   2  -6   2   15.34    3.27
  -2  -6  -2   10.55    3.04
   2   6   2   14.84    3.56
  -2  -6  -2   11.57    2.96
  -3  -5  -2  173.30   16.46
   3   5   2  251.76   23.42
   3  -5   2  241.36   21.65
  -3   5  -2  253.11   22.67
   3   3  -6   48.85    5.38
   3  -3  -6   45.42    5.23
   3   5  -3   88.57    8.76
   0   5   6   19.79    3.60
   0  -5   6   16.68    3.46
   0   5  -6   12.12    3.02
   3  -4  -5   99.50    9.65
   3   4  -5  112.79   10.58
  -1   4   7   21.84    3.55
   1   4  -7   17.60    3.19
  -1  -4   7   19.92    3.51
   4   1   4   58.56    7.33
   4  -1   4   59.65    6.91
   4   1   4   55.61    6.37
   0  -7   0   26.66    4.97
   0  -7   0   36.09    4.54
   0   7   0   48.86    6.76
  -1   2  -8  107.21   10.83
   1  -2   8  105.99   10.46
   2   6  -3   28.93    4.04
   2  -6  -3   42.35    4.94
  -1  -5   6   88.26    9.25
   1  -5  -6   82.20    8.20
   1   5  -6   62.89    6.84
  -1  -6  -4  103.35   11.97
  -1   6  -4   97.11   10.05
   1   6   4   91.52    9.46
  -1  -6  -4  104.33    9.79
   1  -6   4   95.37    9.55
   0   7   1  140.99   14.94
   0  -7   1  132.45   12.60
   0  -7  -1  117.74   12.85
   0  -7  -1  132.00   12.13
   0   7  -1  110.96   11.20
   3   2   6   14.60    3.00
  -3   2  -6   17.54    4.25
   3   2   6   11.39    3.17
   3  -2   6   14.14    3.38
   4   4  -1    1.57    1.58
   4  -4  -1    3.30    2.73
   4   4   0   21.90    2.93
   4  -4   0   33.64    4.66
  -4  -4   0   35.90    4.38
   2   4   6  167.17   15.76
   2  -4   6  131.44   12.51
  -2   4  -6  158.35   14.96
   4  -3  -4   76.83    7.94
   4  -2  -5   63.95    6.70
   4   2  -5   52.60    6.29
   0   3   8  322.37   27.91
   0  -3   8  354.02   30.49
   0   3  -8  339.00   29.29
   3   2  -7   72.57    7.35
   3  -2  -7  102.01    9.77
   3   2  -7   95.35   11.35
  -2   2   8  605.32   50.49
   2  -2  -8  606.06   50.21
  -2  -2   8  671.89   62.73
   2   2  -8  563.75   47.77
  -1   3   8  211.28   18.77
  -1  -3   8  188.69   17.02
   1   3  -8  208.78   18.52
   4  -4  -2   26.03    4.23
   4   4  -2   20.08    2.96
  -1   7   0   87.40   10.68
  -1  -7   0   77.98    9.16
   1   7   0   72.75    7.97
  -1  -7   0  111.20   10.61
   1  -7   0  107.27   10.33
  -1   4  -7  193.77   17.81
   1  -4   7  170.41   15.90
   1   4   7  190.97   17.35
   4   3   3   42.45    6.47
   4  -3   3   49.03    5.99
   4   3   3   48.26    5.27
  -4  -3  -3   32.19    4.31
   2   6   3   41.19    5.18
  -2   6  -3   49.22    6.58
  -2  -6  -3   26.48    4.39
   2  -6   3   41.35    5.23
   4   4   1  220.44   19.31
  -4  -4  -1  199.94   17.87
   4  -4   1  214.47   19.12
   4   2   4  266.97   23.24
   4   2   4  244.38   23.21
   4  -2   4  257.43   22.93
  -1   5  -6  103.06   10.49
   1  -5   6  125.12   12.13
   1   5   6  118.43   11.68
  -1  -7   1   16.01    3.13
   1  -7  -1   20.42    3.40
  -1   7   1   25.64    5.11
   1   7  -1   10.20    2.99
  -1  -7   1   14.80    3.31
   0   7  -2   16.93    4.52
   0  -7  -2    6.77    2.70
   0  -7   2    9.94    2.76
   0  -7  -2   12.24    2.88
   0   7   2   11.36    4.36
   2   5   5  133.67   12.90
   2  -5   5  137.31   12.99
   2   5   5  103.66   10.22
  -2   5  -5  132.30   12.98
  -3   5  -3   51.94    6.69
  -3  -5  -3   32.24    4.56
   3  -5   3   49.62    5.95
   3   5   3   56.07    6.10
   2  -3   7  289.21   25.51
   2   3   7  331.54   28.85
  -2   3  -7  314.05   27.52
   1  -7   1   46.50    5.56
  -1  -7  -1   41.72    6.15
   1   7   1   60.94    7.26
  -1   7  -1   38.44    5.61
  -1  -7  -1   51.90    5.77
   0  -6  -5   40.16    4.69
   0  -6   5   51.62    6.21
   0   6  -5   50.67    6.33
   0   0   9   17.11    4.68
   4   0  -6  123.76   17.24
   4   0  -6  103.32   14.54
  -1   0   9  545.75   47.03
   1   0  -9  589.42   49.61
   5   0  -1   99.53   10.00
   2   0   8  129.47   12.69
   2   0   8  160.35   14.91
   5   0   0   -0.09    2.31
   2  -6  -4   98.71    9.46
   1   6  -5   13.83    3.02
   1  -6  -5   20.18    3.15
  -1  -6   5   17.58    3.20
  -1   7   2   85.28    9.13
   1  -7  -2  106.83   10.13
  -1  -7   2  105.40   10.41
  -1  -7   2   90.53    9.69
   1   7  -2  115.92   11.97
   0  -1   9  173.53   15.87
   0   1  -9  162.66   15.06
   0  -1   9  134.51   12.08
  -2  -4   7   17.09    3.13
   2   4  -7   24.37    3.94
   2  -4  -7   19.57    3.27
   4  -4  -3   31.04    4.33
   4   4  -3   33.86    4.07
   4  -1  -6  197.85   17.67
   4   1  -6  196.66   18.04
   4   1  -6  229.63   19.92
  -1  -1   9  413.35   38.46
  -1   1   9  348.54   29.83
   1   1  -9  425.44   39.69
   5   0  -2   -0.47    1.96
  -5  -1   1   28.45    3.80
   5  -1  -1   31.95    4.60
   5   1  -1   29.75    4.22
   2  -1   8  157.28   15.15
   2  -1   8  169.52   15.24
   2   1   8  133.55   12.03
   2   1   8  179.46   16.38
  -2   1  -8  162.14   16.10
   1   3   8   17.63    3.74
  -1   3  -8   16.88    3.70
   1  -3   8   15.98    3.38
  -1  -7  -2   56.67    7.30
  -1   7  -2   71.72    8.21
  -1  -7  -2   79.48    7.72
   1  -7   2   81.64    8.33
   1   7   2   73.78    8.66
   4   0   5   -0.57    2.75
   4   4   2   37.43    4.23
   4  -4   2   49.53    5.87
  -4  -4  -2   50.69    5.89
   3   4   5   70.95    7.40
  -3   4  -5   80.65    8.79
   3   4   5   87.66    8.46
   3   4   5   77.55    9.22
   3  -4   5   81.54    8.62
   5   1   0   36.13    4.70
   5  -1   0   36.08    5.11
  -2  -5   6   19.32    3.20
   2   5  -6   26.15    4.12
   0   7   3  127.30   12.51
   0   7  -3  168.60   16.37
   0  -7   3  132.17   12.68
   0  -7  -3  143.09   12.93
   5   0   1   12.79    3.21
  -5  -1   2   15.42    2.69
   5   1  -2   14.68    2.86
   5  -1  -2   17.11    3.45
   3   0   7  185.22   16.63
   3   0   7  133.84   12.83
   3   4  -6  166.73   14.95
   3   3   6   18.92    2.71
  -3   3  -6   20.55    4.44
   3   3   6   14.62    3.30
   4   1   5   61.27    7.29
   4  -1   5   64.90    7.18
   4   1   5   58.02    6.62
   3  -6   0  172.62   15.92
   3   6   0  112.99   11.12
  -3   6   0  163.29   16.28
   3   6  -1   64.04    6.77
   3  -6  -1   78.11    8.71
   1  -6   5  243.82   21.79
  -1   6  -5  257.56   23.14
   1   6   5  203.11   18.35
   1   6   5  239.92   21.38
   4   3  -5  480.74   20.30
   4  -3  -5  501.09   42.12
   3  -3  -7  274.49   25.20
   3   3  -7  319.38    8.77
   2   3  -8   12.76    3.10
  -2  -3   8   12.99    3.04
   2  -3  -8   12.75    2.76
   3   0  -8   15.88    3.19
   3   0  -8   18.41    3.73
   5  -1   1  248.58   26.66
   5   1   1  262.70   25.20
   3  -1   7   34.85    5.14
   3   1   7   38.01    5.59
   3  -1   7   21.90    3.53
   3   1   7   33.57    4.52
   5   0  -3   16.29    3.16
   1   0   9   20.26    3.90
   0   2  -9  119.60   13.40
   0   2   9  126.30   12.65
   0  -2   9  125.89   13.93
  -1   7   3   21.28    4.69
   1  -7  -3   22.26    3.50
  -1  -7   3   21.41    3.75
   1   7  -3   25.88    4.51
  -3  -6  -1    6.52    2.48
   3   6   1    6.95    2.66
   3  -6   1    4.99    2.87
  -2   6  -4   43.35    6.41
   2   6   4   38.23    5.21
   2   6   4   35.18    4.81
   2  -6   4   36.45    5.03
  -2  -6  -4   32.57    5.26
   4  -3   4   53.32    6.40
   4   3   4   47.59    5.77
   4   3   4   60.66    6.32
   4   3   4   43.93    6.10
   3   6  -2   52.16    6.45
   3  -6  -2   48.62    6.24
   0   5  -7  176.51   17.55
   0   5   7  155.77   15.07
   0  -5   7  198.97   19.20
   4  -2  -6   60.31    6.66
   4   2  -6   43.41    5.15
  -3  -5  -4   54.44    6.52
   3   5   4   81.86    8.53
   3  -5   4   61.38    7.04
  -3   5  -4   78.16    9.03
   3   5   4   62.15    7.60
   3   1  -8   63.95    6.88
   3  -1  -8   68.05    7.53
   3   1  -8   67.34    7.08
   3  -1  -8   63.34    7.41
  -5  -2   1  113.49   11.24
   5  -2  -1  117.63   11.85
  -2   2  -8  109.97   11.68
   2  -2   8   99.63   10.67
   2   2   8  102.82   10.81
  -5  -1   3  190.29   17.92
   5  -1  -3  193.18   18.33
   5   1  -3  178.77   17.13
   1  -1   9  128.47   12.86
   1   1   9  125.28   13.27
   1  -1   9  116.10   11.14
  -5  -2   0   38.71    4.88
   5  -2   0   36.50    5.14
   4  -4  -4   50.01    6.06
   0   4   8  264.06   24.42
   0  -4   8  267.35   25.05
   0   4  -8  252.60   23.65
  -2   0   9    9.98    2.95
   2   0  -9   12.40    2.77
   3  -5  -5  134.75   13.18
   3   5  -5  146.54   14.17
  -1  -5   7  194.69   18.66
   1  -5  -7  178.31   16.95
   1   5  -7  167.56   17.31
   2  -7   0   63.75    7.42
   2   7   0   59.13    7.82
  -2   7   0   65.43    8.45
  -1  -7  -3  105.85   10.38
   1  -7   3  108.31   11.09
  -1  -7  -3   72.92    9.23
   1   7   3  106.69   11.88
   2   7  -1   81.92    8.88
  -2   7   1  124.63   13.65
   2  -7  -1  121.38   12.05
   5   0   2   -0.24    2.39
   5   2  -2    8.71    2.13
  -5  -2   2   10.15    2.28
   5  -2  -2    9.32    2.74
  -1  -4   8   61.35    7.10
   1   4  -8   47.09    5.88
  -1   4   8   55.99    6.48
   4   2   5    8.58    2.57
   4  -2   5    7.80    2.88
   4   2   5    8.64    3.16
   4  -4   3   16.88    3.81
   4   4   3   19.51    2.93
  -4  -4  -3   16.50    3.28
  -2   1   9   57.45    6.81
   2  -1  -9   50.72    5.79
   2   1  -9   52.06    5.88
  -2  -1   9   60.04    6.91
  -2  -7  -1   94.43    9.49
   2   7   1   95.81   10.25
  -2   7  -1   86.26   10.26
   2  -7   1   92.15    9.60
   2  -6  -5  172.97   16.40
   5   1   2   72.98    8.74
   5  -1   2   62.68    8.07
   5  -2   1   34.67    5.10
   5   2   1   30.37    4.84
   2   4   7    0.26    2.14
   2  -4   7    1.20    2.80
  -2   4  -7    3.59    3.23
   3  -6   2   10.76    3.17
  -3   6  -2   10.96    3.95
   3   6   2   12.12    2.70
   3  -2   7   67.44    7.75
  -3   2  -7   56.55    7.10
   3   2   7   67.69    7.99
   4  -5  -1  133.73   13.25
   4   5  -1  158.23   14.95
   4  -5   0   81.70    8.78
   4   5   0   95.33    9.61
  -2   5  -6    0.86    3.40
   2  -5   6   -0.11    2.18
   2   5   6    1.79    2.48
   3   6  -3   73.33    8.10
   3  -6  -3   61.63    6.97
   0   6  -6   54.54    6.86
   0  -6   6   71.07    8.11
   0  -6  -6   69.05    7.37
  -2   7   2   68.57    8.55
   2   7  -2   42.78    6.61
   2  -7  -2   63.73    7.04
   0   7   4  119.20   12.78
   0  -7   4  131.90   13.32
   0  -7  -4  136.94   13.14
   3   2  -8   74.75    8.09
   3   2  -8   82.08    8.95
   3  -2  -8   88.20    8.75
   3  -2  -8   84.78    8.78
   4   5  -2   17.95    2.92
   4  -5  -2   23.91    4.13
  -1   5  -7   11.28    3.79
   1  -5   7   12.09    3.29
   1   5   7   11.19    3.15
   5  -2  -3  184.52   17.65
   1  -6  -6  165.68   15.72
  -1  -6   6  152.39   15.60
   1   6  -6  185.40   18.13
   1  -2   9  294.70   27.49
  -1   2  -9  290.71   27.35
   1   2   9  238.24   22.20
   4   0  -7    7.26    3.47
   4   0  -7    8.85    3.43
   4   5   1   31.86    4.33
   1   7  -4  126.97   13.64
   1  -7  -4  130.94   12.62
  -1  -7   4  119.38   12.48
   5  -1  -4   49.52    6.12
   5   1  -4   37.42    4.66
  -2   7  -2    6.27    4.06
   2   7   2    5.13    2.56
   2  -7   2    5.79    2.89
  -2  -7  -2    5.91    1.88
   1   4   8   25.13    4.10
   1  -4   8   32.12    4.77
  -1   4  -8   32.19    5.31
   4   1  -7   70.37    7.60
   4  -1  -7   71.20    7.69
   4  -1  -7   78.07    7.97
   4   1  -7   76.86    7.95
   0   3  -9   18.06    3.64
   0   3   9   20.46    3.91
   0  -3   9   18.24    3.62
  -2  -2   9   27.09    4.39
   2   2  -9   27.21    4.42
  -2   2   9   26.26    4.08
   4  -3  -6   31.71    4.44
   4   3  -6   26.20    3.81
  -1   3   9   64.18    7.39
  -1  -3   9   61.75    7.08
   1   3  -9   66.71    7.46
   5   2   2   60.97    7.56
   5  -2   2   56.06    6.70
   5   3  -1   56.82    6.10
   5  -3  -1   49.74    6.29
   3   4   6   15.42    3.64
   3  -4   6   18.36    3.68
  -3   4  -6   18.03    4.07
  -2   3  -8   38.72    5.58
   2  -3   8   38.66    5.47
   2   3   8   43.77    5.94
   5   0   3  102.51   10.94
   4   0   6   26.60    4.59
   2  -7  -3   21.50    3.61
   2   7  -3   14.48    3.37
  -1  -7  -4   45.20    5.33
  -1   7  -4   41.47    6.41
   1   7   4   41.37    5.66
   1  -7   4   46.65    5.99
   5  -3   0   58.81    6.78
   5   3   0   56.12    6.66
   4   4  -5   85.46    8.69
   4  -4  -5   79.47    8.41
   2   5  -7    9.17    2.65
  -2  -5   7   14.85    2.90
  -1   6  -6   54.09    6.91
   1   6   6   47.10    5.83
   1  -6   6   62.53    7.34
   4  -5  -3    2.56    2.71
   4   5  -3    3.56    2.06
   2   6   5  181.66   17.83
   2  -6   5  146.20   14.40
  -2   6  -5  160.01   15.84
   3   6   3   14.47    2.81
   3  -6   3   14.25    3.18
  -3   6  -3   13.70    3.66
   3   4  -7   40.18    5.25
   3  -4  -7   31.92    4.58
   2   4  -8   15.71    3.39
  -2  -4   8   12.40    2.76
   2  -4  -8   14.78    3.06
   5   3  -2   39.51    4.78
   5  -3  -2   33.44    4.99
   5  -1   3    7.98    3.04
   5   1   3    7.43    3.16
   4  -1   6  145.89   14.45
   4   1   6  113.61   11.80
   4  -3   5   13.91    3.32
   4   3   5   14.81    2.38
   4   3   5   14.80    3.45
   3  -6  -4   15.72    3.07
   3   6  -4   12.86    2.86
   4   5   2   89.67    9.58
   3  -5   5   26.76    4.19
   3   5   5   28.56    4.59
  -3   5  -5   29.33    4.87
   4   4   4   20.37    3.00
   4  -4   4   21.97    3.98
   5   2  -4   90.58    9.10
   5  -2  -4   77.33    8.28
   5  -3   1   61.14    6.99
   5   3   1   42.32    4.90
   3   3   7   29.40    4.90
  -3   3  -7   26.79    4.99
   3   5  -6   46.88    5.78
   3  -5  -6   69.45    7.50
   4   2  -7    8.98    4.11
   4  -2  -7    7.48    2.32
   2  -7   3  108.19   11.07
   2   7   3  105.81   11.45
  -2  -7  -3  109.25   10.64
   5   0  -5   65.60    7.45
   0   0  10   77.67    8.56
   0   8   1  157.14   15.95
   0   8  -1  148.44   16.19
   0  -8  -1  132.28   12.83
   0  -8   1  142.94   14.14
  -1   0  10   19.33    3.83
   3   3  -8    0.59    2.16
   3  -3  -8    0.24    2.42
   0  -7  -5   15.59    2.92
   0   7  -5   11.48    3.50
   0  -7   5   14.54    3.27
   5   3  -3   74.80    8.69
   5  -3  -3   88.84    9.31
   3   0   8    0.10    2.62
  -1   3  -9  183.59   17.95
   1   3   9  157.54   15.28
   1  -3   9  172.42   16.75
   2   1   9  133.65   13.30
   2   6  -6  100.57   10.70
   2  -6  -6   97.85    9.92
   5   1  -5   20.54    3.24
   5  -1  -5   24.99    4.66
   0  -1  10   28.35    4.62
  -1  -1  10   66.58    7.52
  -1   1  10   61.19    7.38
   5   2   3   90.14   10.44
   5  -2   3   86.10    9.11
   4   2   6  250.45   25.08
   4  -2   6  224.93   21.32
   1   8   0   32.59    5.50
  -1   8   0   28.92    4.91
  -1  -8   0   35.49    4.85
   1  -8   0   34.91    4.68
   3   1   8   21.96    4.15
   3  -1   8   16.81    3.65
   3   0  -9   68.26    7.08
   3   0  -9   90.61    9.40
   2   7  -4   14.98    3.58
   2  -7  -4   17.23    3.31
   1  -7  -5   -0.28    1.71
   4   5  -4   24.46    3.64
   4  -5  -4   22.49    3.79
   0   5   8   19.01    3.57
   0  -5   8   23.46    4.18
   0   5  -8   24.30    4.54
  -2  -3   9   29.98    4.39
   2   3  -9   32.84    4.70
   1  -8  -1   92.91    9.48
   1   8  -1  101.55   11.49
  -1   8   1   83.85    9.40
   0   8   2   62.15    7.98
   0   8  -2   74.53    8.87
   0  -8   2   61.26    7.18
   0  -8  -2   54.03    5.94
   5   3   2   52.10    5.64
   5  -3   2   69.52    7.90
  -1  -5   8   23.81    3.90
   1   5  -8   25.85    4.35
   1  -5  -8   25.42    3.98
  -1   8  -1    4.94    3.21
   1   8   1    5.13    2.94
  -1  -8  -1    6.45    2.10
   1  -8   1    4.40    2.07
   4   5   3  154.78   14.76
   3   1  -9   60.78    7.05
   3  -1  -9   37.36    5.73
   3  -1  -9   33.62    9.15
   5   0   4    1.21    2.88
   0   6  -7  101.18   10.78
   0  -6   7  100.84   10.71
   0   6   7   98.36   10.18
  -3   6  -4   79.04    9.19
   3  -6   4   80.33    8.63
   2  -5   7   28.93    4.62
  -2   5  -7   35.08    5.69
   2   5   7   32.03    4.86
   3   7   0   52.57    6.24
  -3   7   0   41.84    6.17
   3  -7   0   44.79    5.85
   3   7  -1    0.49    1.87
   3  -7  -1    4.99    2.85
  -1  -7  -5   27.36    3.80
   1  -7   5   30.49    4.66
  -1   7  -5   29.98    5.50
  -1   8   2  131.78   14.17
   1  -8  -2  110.31   10.92
   1   8  -2  102.26   10.81
   0   4   9  105.46   10.77
   0  -4   9  124.17   12.57
   0   4  -9  132.56   13.40
   2  -2   9   60.08    7.49
   2   2   9   55.84    6.15
   1  -6  -7   38.14    5.13
  -1  -6   7   29.50    3.38
   1   6  -7   41.72    5.74
   5   1   4   82.14    8.57
   5  -1   4   83.62    8.28
   5  -2  -5  124.98   10.89
   5   2  -5  147.88   12.07
   0  -2  10  235.17   18.90
   0   2  10  209.54   16.99
   4  -4  -6   70.31    6.97
   4   4  -6   79.68    7.28
   5  -3  -4    4.36    2.64
  -1  -4   9   92.53    8.65
   1   4  -9   77.82    7.61
  -1   4   9   88.95    8.39
   1   2 -10   42.11    5.43
  -1  -2  10   44.70    5.86
   5   4  -1   20.19    2.43
   5  -4  -1   19.94    3.28
   2  -4   8   40.80    5.31
  -2   4  -8   46.01    5.83
   2   4   8   44.82    5.48
  -1  -8  -2   22.97    2.56
  -1   8  -2   19.54    3.86
   1   8   2   24.32    3.75
   1  -8   2   19.51    2.77
   3   2   8   84.53    8.31
   3  -2   8  101.53    9.43
   4   0  -8  103.60    8.94
   4   0  -8  100.67    8.97
  -2   0  10  156.32   13.06
   5   4   0  127.48   10.44
   5  -4   0  114.43   10.18
   4  -3  -7   92.68    8.38
   4   3  -7   63.97    6.11
  -3   7  -1   16.64    4.27
   3  -7   1   13.51    3.12
   3   7   1   20.89    3.05
   2  -7   4   21.85    3.12
  -2   7  -4   25.88    4.38
  -2  -7  -4   20.02    2.31
   3   7  -2   62.70    6.80
   3  -7  -2   63.29    6.54
   1  -1  10   21.14    3.42
   1   1  10   17.20    3.25
   0   8   3  111.84   10.45
   0   8  -3  165.95   14.39
   0  -8   3  139.30   12.26
   0  -8  -3  118.12    9.97
   5  -4  -2    6.06    2.70
   5   4  -2    6.35    1.84
   4   6  -1   51.32    5.54
  -1   5  -8   83.96    8.47
   1  -5   8   89.22    8.58
   1   5   8   76.21    7.72
   4   6   0   13.22    2.39
   4  -6   0   13.20    3.15
  -2   6  -6    3.68    3.25
   2  -6   6    3.60    2.72
   2   6   6    2.55    2.34
   4  -1  -8   47.06    5.88
   4   1  -8   74.73    7.09
   4  -1  -8   42.59    6.67
   2   1 -10   69.31    7.63
  -2   1  10   47.02    5.40
  -2  -1  10   80.17    7.85
   3  -2  -9  160.63   13.26
   3   2  -9  133.55   11.18
  -3  -2   9  156.78   13.10
   5   0  -6    0.54    2.10
   5   0  -6   -0.14    1.76
   5   4   1    9.36    1.95
   5  -4   1    8.25    2.96
  -3   4  -7   14.52    3.58
   3   4   7   13.91    3.09
   3  -4   7   17.20    3.61
   3  -5   6  128.66   11.37
   3   5   6  132.11   11.85
  -3   5  -6  134.28   12.13
   5   3   3   14.75    2.10
   5  -3   3   14.71    3.28
   4  -3   6   58.03    6.26
   4   3   6   53.31    6.15
   4   6  -2   29.06    3.09
   1   6   7   18.95    3.04
   1  -6   7   23.76    3.63
  -1   6  -7   25.36    4.71
   4   0   7   -1.20    3.01
   4  -5  -5   16.43    2.94
  -1   8   3   70.71    7.61
   1  -8  -3   72.19    6.67
   1   8  -3   71.77    7.94
   5  -2   4    4.70    2.61
   5   2   4    5.90    3.16
   4   6   1   33.28    3.39
   4  -6   1   24.91    5.62
   5  -1  -6    4.14    2.53
   5   1  -6    7.37    2.35
   2  -7  -5  106.38    9.32
   3   5  -7    4.59    2.76
   3  -5  -7    5.61    2.47
   2   5  -8   85.72    8.12
   3   4  -8    7.84    2.48
   3  -4  -8   12.86    2.96
   3   7   2   48.32    5.32
   3  -7   2   49.40    5.57
   5  -4  -3   13.12    2.99
   5   4  -3   16.32    2.45
   4  -1   7   17.11    3.65
   4   1   7   19.22    3.83
   1  -4   9  131.22   11.57
   1   4   9  153.16   13.04
  -1   4  -9  143.26   12.70
   3  -7  -3   27.63    3.60
   3   7  -3   30.05    3.65
   0  -7   6   53.75    6.03
   0  -7  -6   52.27    5.32
   0   7  -6   42.50    5.40
  -2   8   0    0.70    3.60
   2  -8   0    2.13    2.00
   2   8   0    0.55    2.54
  -1   8  -3   28.09    4.65
   1  -8   3   29.21    3.73
   1   8   3   29.30    3.86
  -1  -8  -3   28.92    2.79
   4  -5   4    6.90    2.62
  -4   5  -4    7.79    3.50
   1   2  10   15.56    3.11
   1  -2  10   12.81    3.04
  -2   8   1   86.44    9.33
   2  -8  -1   90.09    8.21
   2   8  -1   67.58    7.21
   4  -2  -8  102.89    9.11
   4   2  -8   92.14    8.32
   4  -2  -8  120.48    9.97
   1  -7  -6  250.36   19.74
   1   7  -6  265.83   21.88
   2   2 -10   30.43    3.40
  -2   2  10   31.15    3.55
  -2  -2  10   32.92    3.76
   2   4  -9   65.33    6.61
   2  -4  -9   63.35    6.63
  -2  -4   9   59.22    6.05
  -2   3  -9   84.73    8.59
   2   3   9   65.78    6.82
   2  -3   9   82.96    8.24
   2   6  -7  149.44   12.82
   2  -6  -7  129.86   11.10
   5   3  -5   74.01    6.77
   5  -3  -5   98.14    9.01
  -2   8  -1    2.15    3.62
   2  -8   1   -0.16    2.08
   2   8   1   -0.24    2.09
   4   6  -3   59.58    6.18
   0   3 -10   47.58    5.90
   0   3  10   41.12    5.00
   0  -3  10   43.86    5.48
   5  -4   2    2.88    2.48
   5   4   2    2.52    1.27
  -1   3  10  200.28   16.22
  -1  -3  10  208.74   16.96
   1   3 -10  201.30   16.38
   3   3   8   24.95    3.89
  -3   3  -8   25.20    4.14
   3  -3   8   21.07    3.60
   4   6   2  114.71   10.05
   4  -6   2  100.89    9.37
  -3   6  -5   21.04    4.31
   3  -6   5   15.18    3.20
   5   0   5  218.92   19.65
  -2   8   2   17.35    3.87
   2   8  -2   23.46    3.58
   2  -8  -2   21.77    2.92
   0   8  -4   63.73    7.20
   0   8   4   48.64    5.70
   5   2  -6   27.91    3.44
   5  -2  -6   31.19    3.32
   3   6  -6   43.92    5.24
   4  -2   7    7.46    3.22
   4   2   7    4.12    2.79
   3   3  -9   57.12    6.13
  -3  -3   9   56.44    5.85
   3  -3  -9   53.83    5.68
   5   1   5   90.17    9.32
   5  -1   5   82.18    8.00
  -1   7  -6   72.18    7.84
   1  -7   6   59.83    6.33
  -2   7  -5   93.73    9.37
   2  -7   5   83.88    8.11
   1  -8  -4    2.79    1.96
   1   8  -4    3.42    3.04
  -1   8   4    1.98    2.39
   5   4  -4  126.92   10.50
   5  -4  -4  107.27    9.63
  -3   7  -3    3.26    3.64
   3  -7   3    2.82    2.50
  -2   8  -2   -1.39    3.21
   2   8   2   -0.01    2.14
   2  -8   2    0.36    2.36
   3  -7  -4   65.15    6.43
   3   7  -4   86.73    8.20
   6   0  -1   -1.68    2.47
   4   4  -7   78.87    7.35
   4  -4  -7   66.38    6.58
   5   3   4    9.94    1.74
   5  -3   4   13.13    3.20
   6   0   0   43.83    5.26
   3   0   9  149.08   13.23
   6   0  -2  312.06   11.93
   2   0  10   99.59    9.27
   2  -8  -3   14.54    2.56
   2   8  -3   11.84    3.05
   6  -1  -1    0.95    2.29
   1  -8   4  159.44   13.69
  -1  -8  -4  151.14   12.23
   4   6  -4   21.81    3.05
   0   5   9  141.09   12.11
   0  -5   9  159.48   13.67
   0   5  -9  159.03   13.64
   0   6   8   12.23    3.20
   0  -6   8   12.44    3.91
   0   6  -8   12.46    4.10
   4  -5  -6   61.42    6.34
   4   5  -6   50.20    5.27
   1   3  10  133.71   11.77
   1  -3  10  144.61   12.56
   6  -1   0   12.40    2.88
  -1  -5   9    0.39    1.95
  -1   5   9   -0.37    2.27
   1   5  -9   -1.66    2.47
   3   1   9  123.79   11.66
   3  -1   9  134.67   12.21
   1  -6  -8   30.49    3.46
   1   6  -8   28.61    3.82
   5   5  -1   27.81    2.97
   5  -5  -1   30.96    3.71
   6  -1  -2   50.71    5.86
   3   0 -10    1.72    2.02
   3   0 -10    9.58    3.22
  -2   5  -8   43.48    5.72
   2  -5   8   38.38    4.14
   2   5   8   35.50    3.89
   5   4   3   15.37    2.09
  -4   4  -6   50.54    6.16
   4   4   6   41.00    5.32
   2   1  10   42.62    5.23
   5   0  -7  119.93   10.27
  -1   0  11   21.80    3.30
   0   0  11   31.88    4.11
   4  -3  -8   77.38    7.44
   4   3  -8   83.44    7.61
   4   6   3   83.63    8.32
  -4   6  -3  114.67   10.95
   4  -6   3  104.66    9.67
   2   3 -10   62.44    6.34
   5   5   0   20.88    2.56
   5  -5   0   17.57    3.53
   5   2   5   25.42    3.92
   5  -2   5   31.27    3.87
   2   7  -6   23.86    3.77
   2  -7  -6   22.36    3.18
   6   0   1   -0.38    2.65
   5  -5  -2   85.91    8.32
   5   5  -2   79.57    7.36
  -2   6  -7   33.89    4.50
   2   6   7   32.63    3.90
   2  -6   7   31.33    3.73
   3  -1 -10   45.52    4.92
   3   1 -10   51.54    5.25
  -3  -1  10   51.91    5.57
   5   1  -7   82.67    7.83
   5  -1  -7   42.98    7.57
   5  -1  -7   49.04    7.69
  -4   5  -5   23.97    3.94
   4  -5   5   31.30    4.07
  -1  -1  11   21.27    3.60
   0  -1  11  107.86    9.69
   4   0  -9    0.82    2.05
   4   0  -9   11.15    2.69
   2  -8   3   80.68    7.74
  -2   8  -3   90.82    9.51
   6  -1   1   11.90    3.13
   5   3  -6   15.62    2.65
   5  -3  -6   14.23    2.88
   5  -5   1    4.03    2.87
  -3   5  -7    8.99    3.27
   3   5   7    9.93    3.09
   3  -5   7    8.92    2.88
   6  -1  -3   28.84    3.49
   0  -8  -5   36.65    3.15
   6  -2  -1   10.17    2.95
   6   2  -1   11.71    2.35
   4   3   7   10.49    3.10
   4  -3   7   12.38    3.37
   2  -4   9   56.29    6.16
   2   4   9   51.69    5.88
  -2   4  -9   59.59    7.02
   4  -1  -9   42.79    4.42
   4   1  -9   37.94    3.21
   4  -1  -9   35.06    3.61
   5  -4  -5   19.47    3.17
   0   4  10   18.66    4.33
   0  -4  10   22.52    3.60
   0   4 -10   20.31    3.77
   0  -7   7   27.45    3.69
   0  -7  -7   23.48    3.07
   0   7  -7   24.03    4.06
   6  -2   0    2.01    2.46
   3   2   9   54.46    6.14
  -1  -4  10   39.28    4.70
   1   4 -10   39.85    4.91
  -3   7  -4   25.38    4.61
   3  -7   4   22.73    3.13
   3  -5  -8  162.15   13.37
   3   5  -8  148.64   12.45
   6   2  -2   66.20    6.31
   6  -2  -2   52.72    6.03
   0   9   0    2.95    2.86
   2  -2  10   20.75    3.65
   2   2  10   18.12    3.29
  -1   6  -8   90.22    9.20
   1   6   8   68.83    7.08
   1  -6   8   88.94    8.71
   5   5  -3   26.34    2.83
   5  -5  -3   23.58    3.94
  -3   4  -8   74.05    7.88
   3  -4   8   68.22    7.01
   3   4   8   88.13    8.77
  -1   5  -9   75.49    7.95
   1   5   9   65.93    6.74
   1  -5   9   90.59    8.81
   2   8  -4   23.97    3.67
   2  -8  -4   18.22    2.94
   1  -8  -5   36.40    3.39
   1   8  -5   29.56    3.99
   3   7  -5   12.84    2.86
   3  -7  -5   10.64    2.53
   1   7  -7   11.27    3.58
   1  -7  -7   10.50    2.47
   6   0   2  206.53   18.20
   0   9   1   63.21    7.16
   0  -9  -1   49.15    5.43
   0   9  -1   75.81    8.09
   4   0   8   29.92    4.08
   3  -6   6   16.62    3.29
  -3   6  -6   18.68    3.94
   3  -2 -10    6.23    2.12
  -3  -2  10    5.93    2.78
   3   2 -10    4.09    2.44
   5  -2  -7  118.24   10.44
   5   2  -7  139.42   11.74
  -1  -2  11  286.25    9.12
  -1   2  11  264.36   20.85
   0   2  11   37.57    3.94
   0  -2  11   39.43    6.58
   3   4  -9   27.73    3.38
   3  -4  -9   30.03    3.68
   4   6  -5  132.77   11.24
   4  -6  -5  104.94    9.38
   2   5  -9   37.00    3.78
   2  -5  -9   37.49    3.71
   5   0   6    1.61    2.69
  -2   0  11    2.76    2.41
   6  -2   1   43.05    5.12
   6  -1   2   55.61    6.31
   4  -1   8   25.69    3.88
   4   1   8   25.54    3.94
   3   6  -7    8.02    4.26
   2  -6  -8   13.82    2.95
   2   6  -8   14.37    3.12
   5  -5   2   21.54    3.86
   5   5   2   23.59    2.58
   4   7  -1   83.13   10.02
   4  -7  -1   99.43   11.64
   6  -2  -3    3.51    2.68
   6   2  -3    2.53    1.88
   4  -7   0    6.91    2.80
   4   7   0   19.94    3.15
  -2   7  -6   18.44    4.43
   2  -7   6   17.04    3.34
   1  -9   0   58.40    7.38
   1   9   0   46.57    6.94
  -1   9   0   54.55    7.62
   3  -8   0   43.83    6.12
  -3   8   0   43.63    6.59
   3   8   0   52.62    7.09
   3  -8  -1   -0.14    2.26
   3   8  -1    4.03    2.47
  -3   8   1    3.05    2.99
  -1   8  -5    5.51    3.77
  -1  -8  -5    4.30    1.78
   1  -8   5    2.40    2.46
   5  -3   5   22.91    3.50
   6  -1  -4   42.68    5.88
   6   1  -4   58.39    7.40
   5   1   6   39.40    5.92
   5  -1   6   47.39    6.67
   4  -2  -9    9.44    2.67
   4   2  -9    9.24    2.73
  -2   1  11   21.76    3.86
  -2  -1  11   21.79    3.37
   1  -1  11  104.79   12.47
   1   1  11   63.70    8.10
   5  -4   4   17.25    3.39
  -4   6  -4   21.78    4.45
   4  -6   4   19.88    3.29
   1  -9  -1   13.60    2.48
   1   9  -1   15.70    3.65
  -1   9   1   20.53    4.11
   0  -9  -2   24.45    2.84
   0   9   2   26.33    4.86
   0   9  -2   22.03    3.83
  -1   9  -1    3.26    3.37
   1   9   1    0.51    2.68
   1  -9   1    2.29    2.24
   4  -7  -2    0.43    2.58
   4   7  -2    0.87    2.31
  -1   7  -7   18.59    4.29
   1  -7   7   20.83    3.54
   1   7   7   17.24    2.92
  -3   8  -1    7.54    4.04
   3   8   1    6.66    2.46
   3  -8   1    5.60    2.77
   2  -8   4    2.19    2.39
   4   7   1   30.01    4.55
   4  -7   1   21.69    3.39
   3  -8  -2   47.58    6.32
   3   8  -2   61.02    7.95
  -1   4 -10  120.68   14.22
   1  -4  10  118.49   13.74
   1   4  10  127.78   14.70
   5   5  -4  108.84   12.23
   5  -5  -4  107.02   12.49
   6  -3  -1   -0.05    2.43
   6   3  -1    1.73    1.89
   4  -4  -8  154.41   17.26
   4   4  -8  127.86   14.41
  -2  -4  10  112.68   12.88
   2   4 -10  125.39   14.25
   2  -4 -10  115.41   13.33
   4   5  -7   17.52    3.17
   4  -5  -7   14.48    2.97
  -1   9   2  132.63   15.62
   1  -9  -2  120.90   13.63
   1   9  -2  101.45   12.39
   6  -2   2   27.65    4.84
   4  -2   8   16.42    3.50
   4   2   8   17.89    3.47
   6   3   0   52.79    6.51
   6  -3   0   47.55    6.61
   3   3   9   20.66    3.86
   3  -3   9   15.49    3.82
   6   3  -2   51.22    7.00
   6  -3  -2   51.44    6.84
   6   0   3   -1.05    2.42
   2   3  10   60.42    7.98
   2  -3  10   55.05    7.50
  -1   9  -2   96.03   12.25
   1  -9   2   97.84   11.56
   1   9   2   86.98   10.65
   6  -2  -4    3.98    2.68
   5   2   6   21.03    3.80
   5  -2   6   24.43    3.65
  -2   2  11   43.32    5.99
  -2  -2  11   47.68    6.34
   2   7  -7   23.99    3.81
   2  -7  -7   22.81    3.11
   1  -2  11   18.87    4.19
   1   2  11   19.30    3.77
   4   7  -3  105.46   12.22
   4  -7  -3  133.24   15.08
   5  -4  -6   18.63    3.38
   5   4  -6   18.40    2.72
   2  -8  -5   37.96    5.29
   2   8  -5   41.35    6.15
   0  -9  -3   18.26    2.52
   0   9   3   17.12    3.34
   0   9  -3   17.25    3.75
   5   0  -8   -0.20    1.67
   3  -8   2   47.31    6.35
  -3   8  -2   43.41    6.77
   3  -3 -10   24.18    3.41
   3   3 -10   28.27    4.55
  -3  -3  10   24.88    3.03
   5  -5   3   56.28    7.48
   6  -1   3   11.99    2.97
   4  -5   6   22.44    3.76
  -4   5  -6   22.42    4.36
   5  -3  -7   68.41    8.42
   5   3  -7   89.16   10.40
  -1   3  11    5.78    2.70
  -1  -3  11    5.50    2.61
   0  -3  11   27.93    4.60
   0   3  11   27.37    4.86
   4   4   7   64.23    8.58
  -4   4  -7   68.57    9.17
   4  -7   2    7.10    2.95
   3   8  -3   10.73    2.71
   3  -8  -3   10.11    2.81
   3  -7   5    0.96    2.23
  -3   7  -5    2.98    3.73
   0  -8  -6   12.59    2.51
   0   8  -6   11.48    3.50
   6  -3   1   20.42    3.66
   6   3   1   20.10    2.40
   5  -1  -8    7.50    2.23
   5  -1  -8    9.43    2.25
   5   1  -8    7.80    2.34
   3  -7  -6   19.66    3.30
   6   3  -3   16.07    2.47
   6  -3  -3   16.62    3.17
   6   1  -5   84.62    9.87
   6  -1  -5   54.02    7.15
   1  -8  -6  102.98   11.81
   0   6  -9   68.54    8.88
   0  -6   9   74.12    9.25
   0   6   9   70.01    8.72
   1   9  -3    9.76    3.62
  -1   9   3    7.24    2.91
   1  -9  -3    6.34    1.88
   4  -3  -9   72.79    8.86
   4   3  -9   82.70    9.75
   4  -6  -6    3.17    2.54
   1  -6  -9   30.96    4.99
   1   6  -9   32.54    5.19
   5   6  -1   20.19    2.67
   5  -6  -1   17.82    3.44
   2   6   8   40.78    5.77
  -2   6  -8   56.74    8.05
   2  -6   8   51.73    7.01
   5   6   0   54.31    6.85
   5  -6   0   47.91    6.67
   2  -5   9    3.14    2.85
   2   5   9    3.77    2.87
  -2   5  -9    2.83    3.67
  -2   9   0    4.72    3.61
   2   9   0    4.32    2.64
   2  -9   0    6.40    2.22
  -1   9  -3   17.40    4.46
   5  -5  -5   19.29    3.19
   5   5  -5   18.34    2.75
   0   5  10   13.55    3.51
   0  -5  10   13.29    3.15
   0   5 -10   11.57    3.35
   3   0  10   18.23    4.39
   2  -9  -1   35.34    4.90
  -2   9   1   42.31    6.64
   2   9  -1   44.13    6.31
  -1   5  10   17.72    3.42
  -1  -5  10   20.62    3.23
   1   5 -10   19.02    3.60
   5   6  -2   45.81    5.87
   5  -6  -2   45.23    6.40
   6  -2   3    7.43    2.92
   4  -6   5   38.89    5.63
  -4   6  -5   43.18    6.68
  -3   5  -8   47.62    6.91
   3   5   8   59.81    7.93
   3  -5   8   51.38    7.07
   5  -4   5   37.69    5.57
   4  -7  -4   24.32    3.44
   4   7  -4   30.67    4.91
   0   7  -8   21.19    4.63
   0  -7  -8   17.51    2.77
  -2   9  -1   26.82    5.32
   2   9   1   25.61    3.41
   2  -9   1   29.83    4.59
   1  -8   6   28.56    4.76
  -1   8  -6   21.71    4.35
  -1  -8  -6   22.45    2.63
  -2   8  -5   28.48    5.23
   2  -8   5   28.05    4.62
   6   3   2   45.52    5.79
   6  -3   2   49.30    6.83
   3  -1  10  100.80   11.88
   3   1  10  113.17   13.19
   4  -3   8   14.46    3.85
   4   3   8   13.38    3.43
   3  -8   3    7.50    2.59
   5   2  -8   11.58    2.66
   5  -2  -8   12.80    2.35
   5  -2  -8   10.78    2.49
   5   6   1   61.49    7.61
   4   0 -10   35.14    5.30
   1  -7  -8   53.56    6.87
   1   7  -8   55.10    7.57
   3  -6   7   15.48    3.22
  -3   6  -7   18.81    4.46
   2   0  11    1.58    2.70
   6   2  -5    5.92    2.60
   6  -2  -5    3.40    2.35
   3  -8  -4  101.76   11.76
   3   8  -4   98.95   11.77
  -4   7  -3   72.26    9.62
   4  -7   3   70.57    8.74
   3  -5  -9   17.19    3.64
   3   5  -9   17.56    3.18
   2   9  -2    4.22    2.41
  -2   9   2    5.84    2.91
   2  -9  -2    5.47    2.34
   0  -9  -4   17.12    2.42
   0   9  -4   17.07    3.82
   6  -3  -4   30.07    4.96
   6   3  -4   25.02    2.82
   5  -3   6   55.00    7.47
  -2   3  11   52.24    6.96
   2   3 -11   53.47    6.91
  -2  -3  11   55.18    7.05
   1  -3  11   10.86    3.28
   1   3  11    8.81    2.84
   6   0   4   66.56    8.80
   5   0   7   67.46    8.73
   3   6  -8   49.21    6.77
   2  -7   7  137.42   15.64
  -2   7  -7  172.53   19.56
   4  -1 -10  100.17   11.96
   4   1 -10  114.59   12.87
  -3  -1  11  150.77   16.96
   3  -1 -11  131.61   14.79
   2   1  11   12.61    3.31
   5  -6  -3   23.52    3.72
   5   6  -3   20.24    2.67
   6   4  -1   25.81    2.86
   6  -4  -1   29.48    4.90
   1   6   9   15.82    3.15
  -1   6  -9   24.11    4.82
   1  -6   9   18.33    3.61
   5  -5   4   28.68    4.92
   1   9  -4   21.69    3.86
   1  -9  -4   20.21    2.57
   6  -4   0   52.67    7.01
   6   4   0   49.03    6.38
   6   1   4   80.50   10.45
   6  -1   4   68.19    8.84
   5  -1   7   69.02    8.84
   5   1   7   73.20    9.61
   3   4   9   49.58    7.01
   3  -4   9   37.72    5.68
  -1   0  12   -0.42    2.93
   2  -9   2    5.41    2.16
  -2   9  -2    5.66    3.71
   6   4  -2   67.95    8.08
   6  -4  -2   53.12    7.13
   6   0  -6   43.11    6.09
   2   4  10   56.96    7.54
   2  -4  10   62.50    8.19
   0   0  12  168.77   19.06
   2  -6  -9   24.60    3.55
   2   6  -9   24.05    3.65
   2  -8  -6    9.61    2.63
   4   0   9   -0.35    3.23
   3   2  10   15.29    3.28
  -1   5 -10   67.68    8.98
   1  -5  10   75.79    9.37
   1   5  10   57.41    7.48
  -1  -1  12   15.36    3.15
  -1   1  12   13.80    3.26
   3  -4 -10  135.64   15.35
   3   4 -10  126.14   14.26
   6   1  -6   53.38    6.96
   1  -7   8   59.73    7.92
  -1   7  -8   48.35    7.26
   1   7   8   43.18    5.91
   0   1  12   97.02   11.47
   0  -1  12  100.59   13.46
   5   4  -7   47.20    6.15
   5  -4  -7   37.19    5.61
   2   9  -3   34.93    5.69
   2  -9  -3   27.67    4.29
   1   4 -11   28.31    4.76
  -1   4  11   22.14    3.44
  -1  -4  11   28.37    4.61
   0   4  11   28.06    4.64
   0  -4  11   26.23    4.41
   4  -5  -8   18.64    3.48
   4   5  -8   12.86    2.69
  -1   9  -4   13.98    4.07
   2  -5 -10   11.97    3.03
   2   5 -10   11.38    2.82
   4   1   9   25.94    4.73
   4  -1   9   28.16    5.17
   6  -4   1   20.53    3.55
   6   4   1   19.16    2.36
   4  -2 -10  119.94   13.56
   4   2 -10  145.02   16.17
  -3  -2  11   34.80    5.77
   3  -2 -11   31.87    4.67
   3   2 -11   33.55    5.29
  -3   7  -6   40.91    6.51
   3  -7   6   41.39    5.84
   2   2  11   18.62    3.37
   2  -2  11   24.23    3.62
   6   4  -3   38.95    5.19
   6  -4  -3   34.23    5.23
   6  -3   3   11.45    3.30
   6   3   3   10.98    1.94
   4   7  -5   27.09    4.46
   4   4  -9   13.57    2.84
   4  -4  -9   16.20    3.30
   0   8  -7   96.61   11.87
   0  -8  -7   78.60    9.24
   5  -5  -6   87.05   10.54
   5  -6  -4   63.27    8.15
   5   6  -4   71.66    8.76
   6  -2   4    3.60    2.62
   3  -7  -7    9.31    2.87
   3   7  -7    6.70    3.03
   5  -2   7   13.93    3.49
   5   2   7   13.60    3.39
   2   7  -8    9.98    3.33
   2  -7  -8    7.25    3.01
   5  -3  -8   16.08    3.10
   5   3  -8   20.21    2.93
  -3   8  -4    5.75    3.54
   3  -8   4    7.33    2.81
   6  -3  -5    3.70    2.74
  -4   5  -7   33.62    5.61
   4  -5   7   29.45    5.19
   4   6  -7   48.61    6.49
   4  -6  -7   64.19    8.16
   3  -8  -5    9.09    2.60
   3   8  -5    8.24    2.98
   1  -8  -7    4.69    2.38
   1   8  -7    3.18    3.15
   2  -9   3   11.02    2.75
  -2   9  -3   15.20    4.21
  -4   7  -4   -0.21    2.95
   4  -7   4    0.75    2.47
   5   0  -9  151.78   17.44
  -1  -2  12   18.00    3.41
  -1   2  12   16.01    3.73
  -2   0  12  134.96   15.55
   6  -2  -6   44.86    6.10
   6   2  -6   33.30    5.09
   0  -2  12   35.43    5.85
   0   9  -5   57.99    8.29
   0  -9  -5   48.49    6.09
;
_shelx_hkl_checksum              79985
loop_
_space_group_symop_id
_space_group_symop_operation_xyz
1 +X,+Y,+Z
2 1/2+X,-Y,1/2+Z
loop_
_atom_site_label
_atom_site_type_symbol
_atom_site_fract_x
_atom_site_fract_y
_atom_site_fract_z
_atom_site_U_iso_or_equiv
_atom_site_adp_type
_atom_site_occupancy
_atom_site_site_symmetry_order
_atom_site_calc_flag
_atom_site_refinement_flags_posn
_atom_site_refinement_flags_adp
S1 S 0.34577(15) 0.53260(12) 0.34022(10) 0.0215(3) Uani 1 1 d . .
O1' O 0.6760(5) 0.2527(4) 0.3875(3) 0.0209(7) Uani 1 1 d . .
O2 O 0.0114(6) 0.7597(4) 0.3475(3) 0.0244(7) Uani 1 1 d . .
N3' N 0.6459(6) 0.2110(5) 0.5983(3) 0.0203(9) Uani 1 1 d D .
C2 C 0.1244(8) 0.6517(5) 0.4112(4) 0.0201(9) Uani 1 1 d . .
C2' C 0.5728(8) 0.3001(5) 0.4947(4) 0.0178(9) Uani 1 1 d . .
C3 C 0.1114(9) 0.5992(6) 0.5423(4) 0.0224(10) Uani 1 1 d . .
H3 H 0.0024 0.6447 0.5982 0.027 Uiso 1 1 calc R U
C4' C 0.7797(8) 0.0674(5) 0.5596(4) 0.0195(10) Uani 1 1 d . .
C4D C 0.2662(9) 0.4792(5) 0.5819(5) 0.0206(10) Uani 1 1 d . .
H4 H 0.2772 0.4365 0.6684 0.025 Uiso 1 1 calc R U
C5' C 0.8569(8) 0.1327(5) 0.4293(4) 0.0209(10) Uani 1 1 d . .
H5A H 1.0160 0.1839 0.4417 0.025 Uiso 1 1 calc R U
H5B H 0.8617 0.0440 0.3640 0.025 Uiso 1 1 calc R U
C5A C 0.4082(8) 0.4232(5) 0.4862(4) 0.0195(9) Uani 1 1 d . .
C6' C 0.6132(8) -0.0778(6) 0.5401(4) 0.0230(10) Uani 1 1 d . .
H6A H 0.6954 -0.1672 0.4994 0.028 Uiso 1 1 calc R U
H6B H 0.4723 -0.0463 0.4832 0.028 Uiso 1 1 calc R U
H6C H 0.5643 -0.1134 0.6252 0.028 Uiso 1 1 calc R U
C7' C 0.9898(9) 0.0321(6) 0.6580(5) 0.0242(10) Uani 1 1 d . .
H7A H 1.0877 0.1303 0.6711 0.029 Uiso 1 1 calc R U
H7B H 1.0855 -0.0561 0.6250 0.029 Uiso 1 1 calc R U
H7C H 0.9316 -0.0008 0.7416 0.029 Uiso 1 1 calc R U
H3' H 0.594(10) 0.216(7) 0.687(2) 0.045(16) Uiso 1 1 d D .
loop_
_atom_site_aniso_label
_atom_site_aniso_U_11
_atom_site_aniso_U_22
_atom_site_aniso_U_33
_atom_site_aniso_U_23
_atom_site_aniso_U_13
_atom_site_aniso_U_12
S1 0.0280(6) 0.0288(6) 0.0085(5) 0.0023(4) 0.0065(4) 0.0068(5)
O1' 0.0257(17) 0.0280(16) 0.0094(14) -0.0012(12) 0.0031(12) 0.0072(14)
O2 0.0327(19) 0.0274(16) 0.0138(15) 0.0036(13) 0.0071(13) 0.0107(15)
N3' 0.028(2) 0.0239(19) 0.0089(17) -0.0004(14) 0.0021(15) 0.0027(16)
C2 0.024(2) 0.026(2) 0.011(2) -0.0019(17) 0.0038(17) -0.0013(19)
C2' 0.021(2) 0.024(2) 0.0084(17) -0.0016(16) 0.0022(17) -0.0062(18)
C3 0.030(3) 0.026(2) 0.012(2) 0.0007(18) 0.0077(18) 0.003(2)
C4' 0.017(2) 0.029(2) 0.012(2) -0.0008(17) 0.0003(18) 0.0015(18)
C4D 0.024(2) 0.024(2) 0.014(2) -0.0013(18) 0.0057(19) -0.0012(19)
C5' 0.023(2) 0.027(2) 0.013(2) -0.0033(17) 0.0035(18) 0.0067(19)
C5A 0.024(2) 0.025(2) 0.009(2) 0.0016(17) 0.0022(17) 0.001(2)
C6' 0.022(2) 0.030(2) 0.017(2) -0.0023(19) 0.0019(18) 0.004(2)
C7' 0.027(3) 0.031(3) 0.013(2) -0.0010(19) -0.003(2) 0.002(2)
loop_
_atom_type_symbol
_atom_type_description
_atom_type_scat_dispersion_real
_atom_type_scat_dispersion_imag
_atom_type_scat_source
C C 0.0033 0.0016
;
International Tables for Crystallography
(Vol. C, Tables 4.2.6.8 and 6.1.1.4)
;
H H 0.0000 0.0000
;
International Tables for Crystallography
(Vol. C, Table 6.1.1.4)
;
N N 0.0061 0.0033
;
International Tables for Crystallography
(Vol. C, Tables 4.2.6.8 and 6.1.1.4)
;
O O 0.0106 0.0060
;
International Tables for Crystallography
(Vol. C, Tables 4.2.6.8 and 6.1.1.4)
;
S S 0.1246 0.1234
;
International Tables for Crystallography
(Vol. C, Tables 4.2.6.8 and 6.1.1.4)
;
loop_
_geom_angle_atom_site_label_1
_geom_angle_atom_site_label_2
_geom_angle_atom_site_label_3
_geom_angle
C5A S1 C2 91.7(2)
C2' O1' C5' 107.2(3)
C2' N3' C4' 111.0(4)
C2' N3' H3' 129(3)
C4' N3' H3' 119(3)
O2 C2 C3 130.4(4)
O2 C2 S1 121.4(3)
C3 C2 S1 108.2(3)
N3' C2' O1' 111.6(4)
N3' C2' C5A 128.4(4)
O1' C2' C5A 120.0(4)
C4D C3 C2 114.9(4)
C4D C3 H3 122.6
C2 C3 H3 122.6
N3' C4' C7' 111.3(4)
N3' C4' C6' 109.7(4)
C7' C4' C6' 112.2(4)
N3' C4' C5' 98.3(3)
C7' C4' C5' 112.5(4)
C6' C4' C5' 112.1(4)
C3 C4D C5A 115.0(4)
C3 C4D H4 122.5
C5A C4D H4 122.5
O1' C5' C4' 104.4(3)
O1' C5' H5A 110.9
C4' C5' H5A 110.9
O1' C5' H5B 110.9
C4' C5' H5B 110.9
H5A C5' H5B 108.9
C2' C5A C4D 128.7(4)
C2' C5A S1 121.2(3)
C4D C5A S1 110.1(3)
C4' C6' H6A 109.5
C4' C6' H6B 109.5
H6A C6' H6B 109.5
C4' C6' H6C 109.5
H6A C6' H6C 109.5
H6B C6' H6C 109.5
C4' C7' H7A 109.5
C4' C7' H7B 109.5
H7A C7' H7B 109.5
C4' C7' H7C 109.5
H7A C7' H7C 109.5
H7B C7' H7C 109.5
loop_
_geom_bond_atom_site_label_1
_geom_bond_atom_site_label_2
_geom_bond_distance
S1 C5A 1.755(4)
S1 C2 1.787(5)
O1' C2' 1.343(5)
O1' C5' 1.457(5)
O2 C2 1.245(5)
N3' C2' 1.325(6)
N3' C4' 1.472(6)
N3' H3' 0.980(7)
C2 C3 1.418(6)
C2' C5A 1.370(6)
C3 C4D 1.356(7)
C3 H3 0.9500
C4' C7' 1.519(6)
C4' C6' 1.520(6)
C4' C5' 1.534(6)
C4D C5A 1.394(7)
C4D H4 0.9500
C5' H5A 0.9900
C5' H5B 0.9900
C6' H6A 0.9800
C6' H6B 0.9800
C6' H6C 0.9800
C7' H7A 0.9800
C7' H7B 0.9800
C7' H7C 0.9800
loop_
_geom_torsion_atom_site_label_1
_geom_torsion_atom_site_label_2
_geom_torsion_atom_site_label_3
_geom_torsion_atom_site_label_4
_geom_torsion
C5A S1 C2 O2 179.5(4)
C5A S1 C2 C3 -0.3(4)
C4' N3' C2' O1' -11.4(5)
C4' N3' C2' C5A 166.4(4)
C5' O1' C2' N3' -7.4(5)
C5' O1' C2' C5A 174.6(4)
O2 C2 C3 C4D -178.6(5)
S1 C2 C3 C4D 1.3(5)
C2' N3' C4' C7' 141.4(4)
C2' N3' C4' C6' -93.8(4)
C2' N3' C4' C5' 23.3(4)
C2 C3 C4D C5A -1.9(6)
C2' O1' C5' C4' 22.0(4)
N3' C4' C5' O1' -26.1(4)
C7' C4' C5' O1' -143.3(4)
C6' C4' C5' O1' 89.2(4)
N3' C2' C5A C4D -4.2(8)
O1' C2' C5A C4D 173.4(4)
N3' C2' C5A S1 177.2(4)
O1' C2' C5A S1 -5.2(6)
C3 C4D C5A C2' -177.2(4)
C3 C4D C5A S1 1.6(5)
C2 S1 C5A C2' 178.2(4)
C2 S1 C5A C4D -0.6(4)
