#------------------------------------------------------------------------------
#$Date: 2020-03-25 02:29:14 +0200 (Wed, 25 Mar 2020) $
#$Revision: 249679 $
#$URL: file:///home/coder/svn-repositories/cod/cif/4/03/81/4038101.cif $
#------------------------------------------------------------------------------
#
# This file is available in the Crystallography Open Database (COD),
# http://www.crystallography.net/
#
# All data on this site have been placed in the public domain by the
# contributors.
#
data_4038101
loop_
_publ_author_name
'Blahun, Oleksandr P.'
'Rozhenko, Alexander B.'
'Rusanov, Eduard'
'Zhersh, Serhii'
'Tolmachev, Andrey A.'
'Volochnyuk, Dmitriy M.'
'Grygorenko, Oleksandr O.'
_publ_section_title
;
 Twisting and turning the sulfonamide bond: synthetic, quantum chemical
 and crystallographic study.
;
_journal_name_full               'The Journal of organic chemistry'
_journal_paper_doi               10.1021/acs.joc.9b03394
_journal_year                    2020
_chemical_formula_moiety         'C4 H9 N O2 S'
_chemical_formula_sum            'C4 H9 N O2 S'
_chemical_formula_weight         135.18
_space_group_crystal_system      monoclinic
_space_group_IT_number           11
_space_group_name_Hall           '-P 2yb'
_space_group_name_H-M_alt        'P 1 21/m 1'
_atom_sites_solution_hydrogens   mixed
_audit_creation_method           SHELXL-2016/4
_cell_angle_alpha                90
_cell_angle_beta                 101.156(2)
_cell_angle_gamma                90
_cell_formula_units_Z            2
_cell_length_a                   5.4761(2)
_cell_length_b                   8.8259(3)
_cell_length_c                   6.3408(2)
_cell_measurement_reflns_used    2048
_cell_measurement_temperature    173(2)
_cell_measurement_theta_max      26.52
_cell_measurement_theta_min      3.27
_cell_volume                     300.670(18)
_computing_cell_refinement       'Bruker SAINT'
_computing_data_collection       'Bruker APEX2'
_computing_data_reduction        'Bruker SAINT'
_computing_molecular_graphics    'Bruker SHELXTL'
_computing_publication_material  'Bruker SHELXTL'
_computing_structure_refinement  'SHELXL-2016/4 (Sheldrick, 2016)'
_computing_structure_solution    'SHELXS-97 (Sheldrick 2008)'
_diffrn_ambient_temperature      173(2)
_diffrn_measured_fraction_theta_full 1.000
_diffrn_measured_fraction_theta_max 0.997
_diffrn_measurement_device_type  'Bruker APEX-II CCD'
_diffrn_measurement_method       '\f and \w scans'
_diffrn_radiation_type           MoK\a
_diffrn_radiation_wavelength     0.71073
_diffrn_reflns_av_R_equivalents  0.0281
_diffrn_reflns_av_unetI/netI     0.0219
_diffrn_reflns_Laue_measured_fraction_full 1.000
_diffrn_reflns_Laue_measured_fraction_max 0.997
_diffrn_reflns_limit_h_max       6
_diffrn_reflns_limit_h_min       -6
_diffrn_reflns_limit_k_max       10
_diffrn_reflns_limit_k_min       -11
_diffrn_reflns_limit_l_max       7
_diffrn_reflns_limit_l_min       -7
_diffrn_reflns_number            2679
_diffrn_reflns_point_group_measured_fraction_full 1.000
_diffrn_reflns_point_group_measured_fraction_max 0.997
_diffrn_reflns_theta_full        25.242
_diffrn_reflns_theta_max         26.524
_diffrn_reflns_theta_min         3.275
_diffrn_source                   'sealed tube'
_exptl_absorpt_coefficient_mu    0.444
_exptl_absorpt_correction_T_max  0.7454
_exptl_absorpt_correction_T_min  0.6845
_exptl_absorpt_correction_type   multi-scan
_exptl_absorpt_process_details   SADABS
_exptl_crystal_colour            colourless
_exptl_crystal_density_diffrn    1.493
_exptl_crystal_description       block
_exptl_crystal_F_000             144
_exptl_crystal_size_max          0.380
_exptl_crystal_size_mid          0.340
_exptl_crystal_size_min          0.190
_refine_diff_density_max         0.244
_refine_diff_density_min         -0.381
_refine_diff_density_rms         0.058
_refine_ls_extinction_method     none
_refine_ls_goodness_of_fit_ref   1.006
_refine_ls_hydrogen_treatment    constr
_refine_ls_matrix_type           full
_refine_ls_number_parameters     43
_refine_ls_number_reflns         662
_refine_ls_number_restraints     0
_refine_ls_restrained_S_all      1.006
_refine_ls_R_factor_all          0.0311
_refine_ls_R_factor_gt           0.0295
_refine_ls_shift/su_max          0.000
_refine_ls_shift/su_mean         0.000
_refine_ls_structure_factor_coef Fsqd
_refine_ls_weighting_details
'w=1/[\s^2^(Fo^2^)+(0.0460P)^2^+0.1800P] where P=(Fo^2^+2Fc^2^)/3'
_refine_ls_weighting_scheme      calc
_refine_ls_wR_factor_gt          0.0787
_refine_ls_wR_factor_ref         0.0807
_reflns_Friedel_coverage         0.000
_reflns_number_gt                628
_reflns_number_total             662
_reflns_threshold_expression     'I > 2\s(I)'
_cod_data_source_file            jo9b03394_si_003.cif
_cod_data_source_block           xray172
_cod_original_sg_symbol_H-M      'P 21/m'
_cod_database_code               4038101
_shelx_shelxl_version_number     2016/4
_shelx_space_group_comment
;
The symmetry employed for this shelxl refinement is uniquely defined
by the following loop, which should always be used as a source of
symmetry information in preference to the above space-group names.
They are only intended as comments.
;
_shelx_estimated_absorpt_t_min   0.849
_shelx_estimated_absorpt_t_max   0.920
_shelx_res_file
;
TITL xr172 in     New: P21/m
 xray172.res created by SHELXL-2016/4 at 16:09:45 on 03-Jul-2019
CELL  0.71073    5.4761    8.8259    6.3408    90.000   101.156    90.000
ZERR        2    0.0002    0.0003    0.0002     0.000     0.002     0.000
LATT 1
SYMM             - X ,    0.50000 + Y ,            - Z
SFAC C  H  N  O  S
UNIT 8  18  2  4  2
L.S. 5
ACTA
BOND $H
FMAP 2
PLAN -20
WGHT    0.046000    0.180000
FVAR       0.51649
RESI 0
size 0.19 0.34 0.38
CONF
TEMP  -100
S1    5    0.604188    0.250000    0.879810    10.50000    0.01845    0.02003 =
         0.02076    0.00000    0.00406    0.00000
O1    4    0.740182    0.110136    0.894732    11.00000    0.02711    0.02490 =
         0.03685    0.00298    0.00759    0.00742
N1    3    0.418286    0.250000    0.645254    10.50000    0.01924    0.02816 =
         0.02010    0.00000    0.00375    0.00000
C1    1    0.227351    0.128011    0.583398    11.00000    0.02471    0.04223 =
         0.02951   -0.01211    0.00464   -0.00672
AFIX  23
H1A   2    0.174167    0.078676    0.707292    11.00000   -1.20000
H1B   2    0.273011    0.051848    0.483132    11.00000   -1.20000
AFIX   0
C2    1    0.046628    0.250000    0.473568    10.50000    0.02035    0.06862 =
         0.02054    0.00000    0.00440    0.00000
AFIX  23
H2A   2    0.024147    0.250000    0.314846    10.50000   -1.20000
H2B   2   -0.116010    0.250000    0.519788    10.50000   -1.20000
AFIX   0
C4    1    0.417113    0.250000    1.077215    10.50000    0.03019    0.02514 =
         0.02116    0.00000    0.00823    0.00000
AFIX   1
H4A   2    0.323986    0.154890    1.069782    11.00000   -1.50000
H4C   2    0.524020    0.250000    1.220249    10.50000   -1.50000
AFIX   0
HKLF 4




REM  xr172 in     New: P21/m
REM R1 =  0.0295 for     628 Fo > 4sig(Fo)  and  0.0311 for all     662 data
REM     43 parameters refined using      0 restraints

END

WGHT      0.0283      0.1780

REM Highest difference peak  0.244,  deepest hole -0.381,  1-sigma level  0.058
Q1    1   0.4956  0.2500  0.7491  10.50000  0.05    0.24
Q2    1   0.5179  0.2500  0.9779  10.50000  0.05    0.23
Q3    1   0.3528  0.1845  0.6206  11.00000  0.05    0.19
Q4    1   0.7748  0.0997  0.9386  11.00000  0.05    0.18
Q5    1   0.1319  0.1792  0.5177  11.00000  0.05    0.18
Q6    1   0.6865  0.1651  0.9033  11.00000  0.05    0.15
Q7    1   0.2851  0.1956  1.0169  11.00000  0.05    0.14
Q8    1   0.0549  0.1093  0.3345  11.00000  0.05    0.14
Q9    1   0.3085 -0.0043  0.5369  11.00000  0.05    0.13
Q10   1   0.5134  0.2500  0.5858  10.50000  0.05    0.13
Q11   1   0.1007  0.1141  0.8024  11.00000  0.05    0.12
Q12   1   0.1564  0.0495  0.8742  11.00000  0.05    0.11
Q13   1   0.6718 -0.0065  1.0932  11.00000  0.05    0.11
Q14   1   0.2462  0.0989  0.5582  11.00000  0.05    0.11
Q15   1  -0.1480  0.1884  0.5183  11.00000  0.05    0.10
Q16   1   0.8211  0.0463  1.1300  11.00000  0.05    0.10
Q17   1   0.1511 -0.0508  0.7874  11.00000  0.05    0.10
Q18   1   0.8223  0.1297  0.6357  11.00000  0.05    0.10
Q19   1   0.7834  0.0786  1.1028  11.00000  0.05    0.10
Q20   1   0.1853  0.2500  0.3434  10.50000  0.05    0.10
;
_shelx_res_checksum              61183
_shelx_hkl_file
;
   1   0   0  246.69    6.64
   1   0   0  245.97    6.60
   1   0   0  239.21    6.56
  -1   0   0  218.24    6.54
  -1   0   0  222.62    6.53
  -1   0   0  216.28    6.58
  -2   0   0   89.64    2.67
  -2   0   0   92.38    2.64
  -2   0   0   91.51    2.63
   2   0   0   90.08    2.68
   2   0   0   90.99    2.63
   3   0   0   17.13    0.61
   3   0   0   17.60    0.68
  -3   0   0   17.71    0.61
  -4   0   0    0.28    0.09
   4   0   0    0.19    0.12
   4   0   0    0.41    0.10
   5   0   0   71.22    2.34
   5   0   0   69.89    2.20
   6   0   0   65.55    2.28
   0  -1   0   -0.89    0.02
   0  -1   0   -0.90    0.02
   0  -1   0   -0.89    0.02
   0   1   0   -0.91    0.02
   0   1   0   -0.94    0.02
  -1  -1   0    3.87    0.18
  -1  -1   0    3.52    0.14
   1  -1   0    3.93    0.13
   1  -1   0    3.90    0.19
   1  -1   0    3.85    0.18
  -1  -1   0    3.94    0.18
   1   1   0    4.01    0.18
   1   1   0    4.14    0.14
  -1   1   0    4.01    0.13
  -1   1   0    4.03    0.18
  -1   1   0    4.05    0.19
   1   1   0    4.16    0.19
   2  -1   0   55.72    1.62
  -2  -1   0   50.50    1.64
  -2  -1   0   55.50    1.57
   2  -1   0   56.27    1.66
  -2  -1   0   52.66    1.63
   2   1   0   49.38    1.57
  -2   1   0   54.99    1.57
   2   1   0   56.05    1.65
  -2   1   0   53.81    1.62
   3  -1   0    0.37    0.10
   3  -1   0    0.24    0.10
  -3  -1   0    0.39    0.07
   3   1   0    0.17    0.09
  -3   1   0    0.20    0.06
  -3   1   0    0.15    0.07
  -4  -1   0    0.02    0.05
   4  -1   0   -0.09    0.08
   4  -1   0    0.04    0.07
   4   1   0   -0.05    0.09
   4   1   0   -0.02    0.04
   5  -1   0    5.13    0.41
   5  -1   0    7.01    0.39
   5   1   0    6.02    0.43
   6  -1   0    0.59    0.17
   6  -1   0    0.77    0.25
   6   1   0    0.42    0.20
   0  -2   0  669.15   19.12
   0  -2   0  689.49   19.07
   0  -2   0  682.87   19.11
   0   2   0  642.57   19.04
  -1  -2   0  197.60    5.65
  -1  -2   0  191.24    5.64
   1  -2   0  198.67    5.59
   1  -2   0  194.86    5.64
   1  -2   0  198.22    5.66
   1  -2   0  204.68    5.58
   1   2   0  195.71    5.64
  -1   2   0  191.77    5.64
  -1   2   0  204.71    5.66
   2  -2   0  165.85    4.82
  -2  -2   0  166.86    4.70
   2  -2   0  163.59    4.79
   2   2   0  166.51    4.70
   2   2   0  167.81    4.81
  -2   2   0  167.60    4.68
  -2   2   0  162.79    4.79
   3  -2   0   12.44    0.55
   3  -2   0   11.87    0.51
  -3  -2   0   12.44    0.43
  -3   2   0   13.19    0.51
  -3   2   0   12.59    0.42
   3   2   0   12.73    0.54
   3   2   0   12.36    0.43
  -4  -2   0   58.38    1.77
   4  -2   0   60.34    1.97
   4  -2   0   59.90    1.89
  -4   2   0   57.96    1.76
   4   2   0   58.33    1.94
   4   2   0   60.41    1.78
   5  -2   0   68.18    2.24
   5  -2   0   68.46    2.14
   5   2   0   63.70    2.20
   5   2   0   63.70    2.00
   6  -2   0   21.85    1.00
   6  -2   0   19.77    0.87
   6   2   0   19.52    0.94
   0  -3   0   -0.30    0.04
   0  -3   0   -0.39    0.04
   0  -3   0   -0.35    0.03
   0   3   0   -0.36    0.04
  -1  -3   0    1.78    0.15
   1  -3   0    1.76    0.15
  -1  -3   0    1.90    0.10
   1  -3   0    1.85    0.14
   1  -3   0    1.79    0.09
   1   3   0    1.76    0.14
  -1   3   0    1.87    0.14
   2  -3   0    6.65    0.32
  -2  -3   0    6.43    0.22
   2  -3   0    6.63    0.34
   2   3   0    6.11    0.31
  -2   3   0    5.61    0.30
   3  -3   0   16.32    0.64
  -3  -3   0   15.04    0.50
   3  -3   0   16.11    0.67
   3   3   0   16.34    0.65
   4  -3   0   13.94    0.68
  -4  -3   0   14.33    0.48
   4  -3   0   14.64    0.63
   4   3   0   13.81    0.49
  -4   3   0   14.63    0.46
   4   3   0   14.52    0.66
   5  -3   0   17.13    0.77
   5  -3   0   17.56    0.83
   5   3   0   17.69    0.81
   6  -3   0   12.48    0.67
   6  -3   0   12.64    0.74
   6   3   0   12.31    0.71
   0  -4   0   25.71    0.84
   0  -4   0   25.89    0.85
   1  -4   0  129.51    3.65
  -1  -4   0  126.16    3.67
   1  -4   0  128.36    3.74
   1  -4   0  127.57    3.77
  -1   4   0  131.52    3.75
   1   4   0  124.13    3.75
   2  -4   0  341.81    9.59
  -2  -4   0  312.51    9.40
   2  -4   0  339.97    9.55
   2   4   0  341.15    9.56
   3  -4   0   14.12    0.60
   3  -4   0   12.86    0.61
  -3  -4   0   13.99    0.44
   3   4   0   14.28    0.61
   4  -4   0  132.51    3.98
   4  -4   0  126.59    4.03
   4   4   0  134.84    4.01
   5  -4   0   38.63    1.41
   5  -4   0   37.10    1.47
   5   4   0   39.14    1.45
   6  -4   0    3.52    0.41
   6  -4   0    3.14    0.44
   6   4   0    2.87    0.40
   0  -5   0   -0.04    0.05
  -1  -5   0    6.94    0.29
   1  -5   0    7.04    0.34
   1  -5   0    6.55    0.37
   1  -5   0    6.51    0.27
   1   5   0    6.05    0.35
  -1   5   0    6.89    0.34
  -2  -5   0   15.85    0.51
   2  -5   0   14.58    0.65
  -2  -5   0   15.22    0.50
   2  -5   0   14.89    0.62
   2   5   0   14.03    0.62
  -3  -5   0    3.68    0.15
   3  -5   0    3.44    0.32
   3  -5   0    3.40    0.35
  -3  -5   0    4.08    0.16
   3   5   0    3.69    0.30
   4  -5   0    5.60    0.38
   4  -5   0    4.61    0.39
   4   5   0    5.03    0.38
   5  -5   0    5.35    0.42
   5  -5   0    5.05    0.51
   5   5   0    5.54    0.43
   6  -5   0    6.82    0.57
   6   5   0    7.01    0.53
   0  -6   0  257.49    7.40
   1  -6   0   70.42    2.24
  -1  -6   0   70.24    2.11
   1  -6   0   69.55    2.18
   1   6   0   70.06    2.23
   2  -6   0    6.38    0.22
  -2  -6   0    6.20    0.27
   2  -6   0    6.23    0.37
   2  -6   0    5.84    0.39
   2  -6   0    6.25    0.23
   2   6   0    6.51    0.39
   3  -6   0    9.50    0.51
  -3  -6   0    9.89    0.33
   3  -6   0    9.19    0.55
   3   6   0    9.57    0.52
   4  -6   0   11.66    0.62
   4  -6   0   11.73    0.66
   4   6   0   11.46    0.62
   5  -6   0   22.74    1.08
   5  -6   0   22.73    1.02
   5   6   0   25.71    1.08
   0  -7   0    0.01    0.07
  -1  -7   0   29.08    0.97
   1  -7   0   28.16    1.03
   1  -7   0   27.39    1.09
  -2  -7   0   22.32    0.74
   2  -7   0   21.31    0.74
   2  -7   0   23.50    0.89
   2  -7   0   20.53    0.92
   2   7   0   20.70    0.89
   3  -7   0    0.06    0.14
   3  -7   0    0.03    0.11
   3   7   0   -0.05    0.10
   4  -7   0    0.18    0.15
   4  -7   0    0.05    0.15
   4   7   0   -0.03    0.13
   5  -7   0    0.38    0.22
   5   7   0    0.84    0.23
   0  -8   0  173.26    5.11
   1  -8   0   34.27    1.31
   1  -8   0   35.04    1.24
  -1  -8   0   33.52    1.15
   2  -8   0    0.56    0.17
   2  -8   0    0.27    0.16
  -2  -8   0    0.14    0.09
   2   8   0    0.28    0.15
   3  -8   0    1.30    0.24
   3  -8   0    2.21    0.35
   3   8   0    1.88    0.30
   4  -8   0    1.77    0.34
   4   8   0    1.86    0.32
   0  -9   0    0.04    0.11
   1  -9   0    0.41    0.14
  -1  -9   0    0.30    0.12
   1  -9   0    0.25    0.17
   2  -9   0    8.38    0.57
   2  -9   0    8.13    0.51
   3  -9   0    8.41    0.54
   3  -9   0    7.97    0.59
   3   9   0    7.77    0.55
   0 -10   0   20.94    1.01
   0 -10   0   21.74    0.89
   1 -10   0   18.71    0.94
   1 -10   0   18.73    0.84
   2 -10   0   13.05    0.70
   2 -10   0   13.36    0.78
   0 -11   0   -0.14    0.15
   6   0  -1    2.62    0.34
   6   0  -1    1.80    0.25
   5   0  -1    5.55    0.34
   5   0  -1    5.54    0.39
  -4   0   1    6.35    0.37
   4   0  -1    6.38    0.34
   4   0  -1    6.34    0.33
   4   0  -1    6.61    0.37
   3   0  -1   38.53    1.26
   3   0  -1   40.61    1.25
  -3   0   1   39.59    1.24
   3   0  -1   38.60    1.24
  -2   0   1  135.92    3.93
   2   0  -1  134.01    3.93
  -2   0   1  136.99    3.92
  -2   0   1  140.27    3.94
   2   0  -1  137.79    3.94
   2   0  -1  135.44    3.93
  -1   0   1   76.79    2.19
  -1   0   1   76.04    2.23
   1   0  -1   75.97    2.23
   1   0  -1   75.95    2.19
  -1   0   1   76.25    2.23
   1   0  -1   77.37    2.23
   0   0   1   56.33    1.65
   0   0  -1   55.88    1.66
   0   0   1   57.55    1.66
   0   0   1   57.67    1.65
   0   0  -1   57.78    1.65
  -1   0  -1  573.75   14.55
  -1   0  -1  475.72   14.57
   1   0   1  481.17   14.55
   2   0   1   18.29    0.61
   2   0   1   18.74    0.68
  -3   0  -1    2.80    0.17
   3   0   1    2.65    0.17
   3   0   1    2.29    0.25
  -4   0  -1   18.63    0.67
   4   0   1   17.14    0.79
   4   0   1   19.07    0.68
   5   0   1    2.15    0.23
   5   0   1    1.85    0.30
   6   0   1   13.63    0.78
   6  -1  -1   62.36    2.16
   6  -1  -1   65.29    2.08
   6   1  -1   59.87    2.12
   5  -1  -1    1.09    0.20
   5  -1  -1    1.29    0.23
   5   1  -1    0.97    0.17
   5   1  -1    1.15    0.22
  -4  -1   1    0.15    0.08
   4  -1  -1    0.12    0.10
   4  -1  -1    0.18    0.10
   4  -1  -1    0.08    0.07
   4   1  -1    0.18    0.10
   4   1  -1    0.09    0.08
   4   1  -1    0.14    0.09
  -3  -1   1    0.10    0.06
   3  -1  -1    0.07    0.07
   3  -1  -1    0.12    0.05
   3  -1  -1    0.09    0.07
   3   1  -1    0.29    0.08
  -3   1   1    0.10    0.07
  -3   1   1    0.07    0.05
   3   1  -1    0.33    0.09
   3   1  -1    0.20    0.08
  -2  -1   1    0.22    0.06
  -2  -1   1    0.13    0.06
   2  -1  -1    0.17    0.07
   2  -1  -1    0.54    0.09
   2  -1  -1    0.07    0.05
  -2   1   1    0.11    0.05
  -2   1   1    0.27    0.08
   2   1  -1    0.42    0.09
   2   1  -1    0.17    0.06
   2   1  -1    0.21    0.06
  -2   1   1    0.18    0.07
  -1  -1   1  756.56   21.30
  -1  -1   1  889.22   21.32
   1  -1  -1  769.12   21.33
   1  -1  -1  671.52   21.35
   1  -1  -1  706.40   21.28
  -1  -1   1  718.93   21.16
  -1   1   1  793.81   21.29
   1   1  -1  785.59   21.18
  -1   1   1  656.24   21.29
   0  -1   1  395.54   11.12
   0  -1  -1  355.84   11.09
   0  -1  -1  354.27   11.09
   0  -1   1  408.33   11.04
   0  -1  -1  430.47   11.17
   0   1   1  391.20   11.10
   0   1  -1  359.58   11.05
   0   1   1  422.81   11.10
  -1  -1  -1   78.46    2.37
   1  -1   1   79.95    2.38
   1  -1   1   81.33    2.32
   1  -1   1   80.27    2.35
  -1   1  -1   80.44    2.37
   1   1   1   81.58    2.38
  -1   1  -1   81.64    2.32
   2  -1   1   80.51    2.48
   2  -1   1   81.99    2.42
  -2   1  -1   82.35    2.39
   2   1   1   83.00    2.36
  -2   1  -1   83.09    2.42
   2   1   1   81.51    2.48
   3  -1   1    5.66    0.34
   3  -1   1    5.42    0.28
  -3   1  -1    5.98    0.27
   3   1   1    6.03    0.35
   3   1   1    5.43    0.24
  -3   1  -1    5.36    0.28
   4  -1   1   13.40    0.66
   4  -1   1   13.79    0.57
  -4   1  -1   13.67    0.54
   4   1   1   13.18    0.65
   4   1   1   13.78    0.51
   5  -1   1   57.02    2.05
   5  -1   1   57.46    1.89
  -5   1  -1   56.99    1.86
   5   1   1   63.01    1.88
   5   1   1   59.96    2.06
   6  -1   1    0.04    0.17
   6   1   1    0.10    0.17
   6  -2  -1    0.20    0.17
   6  -2  -1    0.39    0.17
   6   2  -1    0.33    0.15
   5  -2  -1    9.12    0.49
   5  -2  -1    8.57    0.51
   5   2  -1    8.77    0.49
  -4  -2   1   44.53    1.42
   4  -2  -1   46.75    1.55
   4  -2  -1   45.35    1.40
   4  -2  -1   46.06    1.51
   4   2  -1   44.76    1.43
   4   2  -1   45.66    1.52
   4   2  -1   46.24    1.51
   3  -2  -1   35.77    1.21
  -3  -2   1   37.56    1.15
   3  -2  -1   38.25    1.13
   3  -2  -1   35.49    1.23
   3   2  -1   36.27    1.23
  -3   2   1   37.78    1.13
  -3   2   1   37.14    1.22
   3   2  -1   35.83    1.15
   3   2  -1   37.20    1.20
   2  -2  -1   16.70    0.53
   2  -2  -1   16.84    0.60
   2  -2  -1   16.66    0.60
  -2  -2   1   16.72    0.55
  -2  -2   1   17.12    0.56
  -2   2   1   16.86    0.53
   2   2  -1   15.11    0.59
   2   2  -1   15.97    0.56
  -2   2   1   16.44    0.60
   2   2  -1   15.64    0.55
  -1  -2   1   83.55    2.39
  -1  -2   1   81.60    2.37
   1  -2  -1   85.13    2.38
   1  -2  -1   82.88    2.41
  -1  -2   1   79.57    2.41
   1   2  -1   82.35    2.37
  -1   2   1   83.52    2.38
   1   2  -1   81.76    2.42
  -1   2   1   80.68    2.41
   0  -2  -1   18.65    0.60
   0  -2   1   18.66    0.58
   0  -2  -1   18.02    0.60
   0  -2  -1   18.17    0.56
   0  -2   1   18.02    0.57
   0   2  -1   17.50    0.57
   0   2   1   17.72    0.56
   0   2   1   17.09    0.60
   1  -2   1  213.71    6.26
   1  -2   1  223.29    6.29
   1  -2   1  215.24    6.19
  -1   2  -1  222.44    6.20
  -1   2  -1  226.86    6.29
   1   2   1  215.67    6.29
   1   2   1  217.93    6.19
   2  -2   1   14.22    0.57
   2  -2   1   14.61    0.54
   2   2   1   14.41    0.57
  -2   2  -1   14.05    0.45
  -2   2  -1   14.09    0.53
   3  -2   1   11.32    0.49
   3  -2   1   12.01    0.55
  -3   2  -1   11.79    0.42
   3   2   1   12.12    0.56
  -3   2  -1   12.44    0.41
   3   2   1   11.79    0.39
  -3   2  -1   11.65    0.49
   4  -2   1   10.85    0.59
   4  -2   1   11.80    0.53
  -4   2  -1   12.37    0.45
   4   2   1   11.36    0.59
   4   2   1   11.11    0.41
   5  -2   1   21.19    0.95
   5  -2   1   19.97    0.82
   5   2   1   20.12    0.93
   6  -2   1   15.65    0.75
   6  -2   1   17.54    0.91
   6   2   1   17.04    0.89
   6  -3  -1   17.54    0.82
   6  -3  -1   16.41    0.84
   6   3  -1   16.87    0.82
   5  -3  -1   43.38    1.59
   5  -3  -1   45.01    1.55
   5   3  -1   41.97    1.39
   5   3  -1   45.72    1.55
  -4  -3   1   40.80    1.26
   4  -3  -1   41.07    1.21
   4  -3  -1   39.90    1.38
   4  -3  -1   39.77    1.41
   4   3  -1   41.01    1.37
   4   3  -1   35.19    1.37
   4   3  -1   41.26    1.27
   3  -3  -1  129.12    3.71
   3  -3  -1  128.88    3.86
   3  -3  -1  131.72    3.88
  -3  -3   1  131.11    3.75
   3   3  -1  126.00    3.82
   3   3  -1  129.78    3.88
  -3   3   1  132.46    3.71
   2  -3  -1  189.92    5.43
   2  -3  -1  188.69    5.41
   2  -3  -1  189.32    5.30
  -2  -3   1  187.76    5.34
  -2  -3   1  170.15    5.36
   2   3  -1  185.92    5.42
  -2   3   1  194.10    5.42
  -2   3   1  190.38    5.31
   2   3  -1  186.95    5.37
   1  -3  -1    1.61    0.12
  -1  -3   1    1.63    0.12
   1  -3  -1    1.39    0.14
   1   3  -1    1.76    0.13
   1   3  -1    1.51    0.15
  -1   3   1    1.66    0.13
   0  -3   1    2.35    0.15
   0  -3   1    1.67    0.12
   0  -3  -1    1.70    0.11
   0  -3  -1    2.00    0.14
   0   3  -1    1.93    0.12
   0   3   1    1.67    0.11
   0   3   1    1.75    0.14
  -1  -3  -1  212.12    6.17
   1  -3   1  219.43    6.26
   1  -3   1  221.06    6.15
   1  -3   1  215.33    6.24
   1   3   1  218.83    6.13
   1   3   1  211.15    6.26
  -1   3  -1  224.19    6.15
   2  -3   1    8.54    0.38
   2  -3   1    7.09    0.39
   2   3   1    9.47    0.42
  -2   3  -1    8.02    0.24
  -2   3  -1    7.78    0.37
   3  -3   1  192.97    5.62
   3  -3   1  185.29    5.54
  -3   3  -1  185.14    5.35
   3   3   1  191.60    5.61
  -3   3  -1  195.37    5.35
   4  -3   1   61.05    2.12
   4  -3   1   65.77    2.05
   4   3   1   62.95    2.12
   5  -3   1    3.04    0.38
   5  -3   1    2.11    0.28
   5   3   1    2.10    0.32
   6  -3   1    1.99    0.31
   6  -3   1    2.70    0.42
   6   3   1    2.48    0.39
   6  -4  -1    2.30    0.35
   6  -4  -1    2.37    0.37
   6   4  -1    2.33    0.33
   5  -4  -1   13.79    0.73
   5  -4  -1   13.96    0.70
   5   4  -1   15.37    0.70
   4  -4  -1   61.73    2.04
  -4  -4   1   61.10    1.83
   4  -4  -1   59.80    1.99
   4   4  -1   60.30    1.96
   3  -4  -1   19.38    0.77
   3  -4  -1   18.79    0.74
   3  -4  -1   18.32    0.56
  -3  -4   1   18.51    0.63
   3   4  -1   17.98    0.71
   3   4  -1   17.57    0.74
   2  -4  -1    0.12    0.08
   2  -4  -1    0.38    0.11
   2  -4  -1    0.16    0.05
  -2  -4   1    0.07    0.05
   2   4  -1    0.11    0.07
   2   4  -1    0.17    0.07
   1  -4  -1   41.06    1.25
   1  -4  -1   40.14    1.28
   1   4  -1   40.79    1.30
  -1   4   1   40.12    1.29
   0  -4  -1    2.33    0.15
   0  -4   1    2.44    0.15
   0  -4   1    2.35    0.18
   0  -4   1    2.28    0.17
   0   4  -1    2.31    0.15
   0   4   1    2.15    0.18
   0   4   1    2.72    0.16
   1  -4   1   57.47    1.68
   1  -4   1   55.12    1.79
  -1  -4  -1   56.29    1.67
   1  -4   1   57.80    1.78
  -1   4  -1   58.84    1.68
   1   4   1   58.11    1.81
   2  -4   1   21.20    0.83
   2  -4   1   21.36    0.80
   2   4   1   21.84    0.83
   3  -4   1   35.96    1.27
   3  -4   1   35.99    1.22
   3   4   1   32.18    1.23
   4  -4   1    6.01    0.43
   4  -4   1    6.29    0.40
   4   4   1    6.77    0.45
   5  -4   1   35.83    1.32
   5  -4   1   34.31    1.40
   5   4   1   34.67    1.39
   6  -4   1   18.00    0.95
   6  -4   1   16.06    0.81
   6   4   1   16.19    0.88
   6  -5  -1   10.30    0.68
   6   5  -1   10.30    0.61
   5  -5  -1   17.77    0.86
   5  -5  -1   17.07    0.81
   5   5  -1   16.58    0.78
   4  -5  -1   24.19    0.97
   4  -5  -1   24.33    1.01
   4   5  -1   23.75    0.94
  -3  -5   1   33.72    1.05
   3  -5  -1   30.49    1.20
   3  -5  -1   33.29    1.18
   3   5  -1   33.47    1.21
   3   5  -1   33.16    1.15
  -2  -5   1   88.03    2.62
   2  -5  -1   88.00    2.58
   2  -5  -1   90.17    2.72
   2  -5  -1   89.57    2.76
   2   5  -1   90.79    2.71
   2   5  -1   87.50    2.74
   1  -5  -1   39.43    1.21
   1  -5  -1   37.78    1.25
   1   5  -1   38.04    1.27
  -1   5   1   38.61    1.26
   0  -5   1   14.95    0.58
   0  -5   1   14.76    0.60
   0  -5  -1   15.38    0.55
   0   5  -1   14.59    0.55
   0   5   1   15.47    0.56
   0   5   1   14.86    0.63
   1  -5   1   32.81    1.13
  -1  -5  -1   32.46    0.99
   1  -5   1   31.32    1.10
   1  -5   1   32.61    0.99
   1   5   1   31.64    1.13
  -2  -5  -1    3.61    0.12
   2  -5   1    3.54    0.29
   2  -5   1    3.67    0.27
   2   5   1    3.58    0.29
   3  -5   1   80.71    2.56
   3  -5   1   81.88    2.62
   3   5   1   81.44    2.61
   4  -5   1   23.03    0.99
   4  -5   1   22.42    0.91
   4   5   1   19.72    0.93
   5  -5   1    3.21    0.43
   5  -5   1    3.12    0.36
   5   5   1    3.80    0.44
   5  -6  -1    8.76    0.57
   5  -6  -1    7.79    0.57
   5   6  -1    9.07    0.55
   4  -6  -1    9.58    0.55
   4  -6  -1    9.97    0.59
   4   6  -1   10.30    0.55
   3  -6  -1   10.54    0.54
   3  -6  -1   11.12    0.59
  -3  -6   1   10.48    0.43
   3   6  -1   10.36    0.53
  -2  -6   1   26.66    0.93
   2  -6  -1   28.00    0.89
   2  -6  -1   28.68    0.90
   2  -6  -1   28.59    1.03
  -2  -6   1   28.08    0.94
   2  -6  -1   29.81    1.09
   2   6  -1   27.89    1.05
   2   6  -1   27.85    1.03
   1  -6  -1    2.44    0.21
   1  -6  -1    2.45    0.24
  -1  -6   1    2.45    0.19
   1   6  -1    2.44    0.25
   0  -6  -1   41.67    1.35
   0  -6   1   42.40    1.43
   0  -6   1   42.68    1.39
   0   6   1   42.83    1.36
   1  -6   1   90.77    2.78
  -1  -6  -1   92.54    2.66
   1  -6   1   88.22    2.81
   1   6   1   90.41    2.83
   2  -6   1    6.21    0.39
   2  -6   1    6.52    0.43
   2  -6   1    6.95    0.22
  -2  -6  -1    7.16    0.25
   2  -6   1    6.91    0.22
   2   6   1    7.74    0.45
   3  -6   1    0.67    0.18
   3  -6   1    0.89    0.21
   3   6   1    1.05    0.22
   4  -6   1    3.15    0.36
   4  -6   1    2.69    0.37
   4   6   1    2.57    0.35
   5  -6   1    6.79    0.49
   5  -6   1    6.02    0.61
   5   6   1    5.80    0.50
   5  -7  -1    0.18    0.20
   5   7  -1    0.21    0.17
   4  -7  -1   -0.18    0.12
   4  -7  -1   -0.05    0.12
   4   7  -1   -0.16    0.10
  -3  -7   1    0.44    0.10
   3  -7  -1    0.48    0.15
   3  -7  -1    0.41    0.17
   3   7  -1    0.60    0.16
   2  -7  -1    3.95    0.31
  -2  -7   1    4.29    0.26
   2  -7  -1    3.91    0.40
   2  -7  -1    4.41    0.23
   1  -7  -1  134.27    3.99
  -1  -7   1  129.34    3.95
   1  -7  -1  137.09    3.94
   0  -7   1   71.94    2.29
   0  -7   1   69.32    2.22
   0  -7  -1   71.60    2.19
   1  -7   1    7.81    0.47
  -1  -7  -1    8.52    0.36
   1  -7   1    7.85    0.44
   1   7   1    7.88    0.48
   2  -7   1   27.26    1.05
  -2  -7  -1   27.21    0.86
   2  -7   1   27.34    1.09
   2   7   1   26.50    1.09
   3  -7   1    3.92    0.38
   3  -7   1    3.69    0.41
   3   7   1    3.54    0.39
   4  -7   1    2.60    0.38
   4  -7   1    3.11    0.37
   4   7   1    3.25    0.41
   5  -7   1   21.85    1.09
   5   7   1   21.51    1.06
   4  -8  -1   10.79    0.64
   4  -8  -1    9.19    0.65
   4   8  -1   10.69    0.61
   3  -8  -1   12.58    0.70
   3  -8  -1   12.47    0.66
   3   8  -1   13.70    0.68
   2  -8  -1    7.65    0.50
  -2  -8   1    7.92    0.39
   2  -8  -1    7.08    0.45
  -1  -8   1    2.60    0.26
   1  -8  -1    2.18    0.24
   1  -8  -1    2.06    0.30
   1  -8  -1    1.90    0.24
   0  -8  -1   18.79    0.77
   0  -8  -1   18.16    0.72
   0  -8   1   17.54    0.74
   0  -8   1   17.65    0.80
   1  -8   1   45.67    1.58
   1  -8   1   46.49    1.64
  -1  -8  -1   44.80    1.45
   2  -8   1   10.29    0.57
   2  -8   1   10.27    0.60
   2   8   1   11.23    0.63
   3  -8   1    0.48    0.18
   3  -8   1    0.38    0.17
   3   8   1    0.63    0.21
   4  -8   1    2.92    0.42
   4   8   1    2.89    0.41
   4  -9  -1    0.09    0.20
   4   9  -1    0.06    0.16
   3  -9  -1    2.52    0.34
   3  -9  -1    2.34    0.36
   2  -9  -1    7.40    0.54
   2  -9  -1    7.82    0.49
   1  -9  -1   33.72    1.19
   1  -9  -1   34.92    1.38
   1  -9  -1   33.40    1.24
   0  -9   1   14.95    0.68
   0  -9  -1   14.76    0.65
   0  -9  -1   14.56    0.68
   0  -9   1   15.69    0.76
   1  -9   1   -0.12    0.12
   1  -9   1    0.19    0.12
   2  -9   1    2.47    0.33
   2  -9   1    2.14    0.34
   2   9   1    2.06    0.34
   3  -9   1    5.62    0.58
   3   9   1    7.46    0.55
   2 -10  -1   -0.09    0.15
   2 -10  -1   -0.09    0.12
  -1 -10   1    5.20    0.36
   1 -10  -1    5.20    0.54
   1 -10  -1    4.79    0.37
   0 -10  -1    1.66    0.24
   0 -10   1    1.57    0.25
   0 -10  -1    1.86    0.28
   0 -10   1    1.85    0.32
   1 -10   1   10.33    0.59
   1 -10   1   10.07    0.65
  -1 -10  -1    9.98    0.60
   2 -10   1   17.76    0.93
   0 -11   1    1.45    0.31
   6   0  -2    1.99    0.26
   6   0  -2    2.08    0.30
   6   0  -2    1.53    0.25
   5   0  -2   29.70    1.11
   5   0  -2   30.44    1.12
   5   0  -2   31.87    1.11
   4   0  -2   22.14    0.82
   4   0  -2   22.25    0.84
   4   0  -2   22.94    0.82
  -3   0   2   10.26    0.44
   3   0  -2    9.64    0.44
   3   0  -2   10.02    0.40
  -3   0   2    9.89    0.39
   3   0  -2    9.85    0.43
  -2   0   2  413.92   11.69
   2   0  -2  421.02   11.70
   2   0  -2  408.20   11.69
   2   0  -2  405.56   11.69
   1   0  -2  929.45   26.11
  -1   0   2  902.87   26.17
  -1   0   2  871.60   26.28
   1   0  -2 1000.00   26.46
   0   0  -2  195.22    5.39
   0   0   2  186.34    5.41
   0   0  -2  189.96    5.42
   0   0   2  187.89    5.38
   0   0   2  185.21    5.39
   1   0   2  657.99   17.97
   1   0   2  573.29   17.63
  -1   0  -2  642.27   17.72
   2   0   2  115.42    3.45
   2   0   2  114.73    3.35
  -2   0  -2  116.21    3.39
  -3   0  -2    0.16    0.09
   3   0   2    0.01    0.08
   3   0   2    0.12    0.06
  -4   0  -2   68.26    2.03
   4   0   2   64.91    2.14
   4   0   2   57.43    1.93
   5   0   2    6.06    0.49
  -5   0  -2    6.98    0.42
   6   0   2   17.38    0.94
   6  -1  -2    0.62    0.16
   6  -1  -2    0.57    0.18
   6  -1  -2    0.32    0.16
   6   1  -2    0.89    0.21
   6   1  -2    0.34    0.17
   6   1  -2    0.29    0.13
   5  -1  -2   12.84    0.62
   5  -1  -2   13.96    0.59
   5  -1  -2   13.78    0.63
   5   1  -2   13.30    0.61
   5   1  -2   14.38    0.64
   5   1  -2   13.63    0.61
   4  -1  -2    3.85    0.27
   4  -1  -2    3.43    0.27
   4  -1  -2    3.93    0.24
   4   1  -2    4.03    0.28
   4   1  -2    3.76    0.25
   4   1  -2    3.62    0.26
   3  -1  -2   48.00    1.52
   3  -1  -2   47.24    1.48
   3  -1  -2   46.82    1.48
  -3  -1   2   45.44    1.49
  -3  -1   2   46.93    1.44
   3   1  -2   47.38    1.45
   3   1  -2   48.48    1.52
   3   1  -2   47.16    1.50
  -3   1   2   49.64    1.58
   2  -1  -2    0.72    0.12
   2  -1  -2    0.58    0.10
  -2  -1   2    0.52    0.10
   2  -1  -2    0.73    0.10
  -2  -1   2    0.60    0.06
   2   1  -2    0.65    0.06
  -2   1   2    0.74    0.12
   2   1  -2    0.69    0.11
   2   1  -2    0.65    0.11
   1  -1  -2    0.86    0.11
  -1  -1   2    0.87    0.11
   1  -1  -2    1.00    0.12
   1   1  -2    0.94    0.12
  -1   1   2    0.91    0.12
   1   1  -2    1.02    0.12
  -1   1   2    1.00    0.12
   0  -1  -2   41.64    1.32
   0  -1  -2   43.91    1.29
   0  -1  -2   42.56    1.30
   0  -1   2   42.38    1.31
   0  -1   2   41.58    1.28
   0  -1   2   43.00    1.31
   0   1   2   43.15    1.29
   0   1  -2   43.77    1.31
   0   1   2   43.34    1.30
   0   1   2   42.44    1.32
   1  -1   2   10.53    0.40
   1  -1   2   10.20    0.42
  -1  -1  -2    9.99    0.42
  -1   1  -2   10.09    0.39
   1   1   2   10.64    0.36
   1   1   2   10.26    0.43
   2  -1   2    5.21    0.31
   2  -1   2    5.52    0.27
  -2  -1  -2    5.42    0.30
   2   1   2    5.36    0.22
   2   1   2    5.34    0.32
  -2   1  -2    5.17    0.26
   3  -1   2   17.98    0.76
  -3  -1  -2   17.79    0.70
   3  -1   2   17.24    0.66
   3   1   2   17.93    0.60
   3   1   2   17.81    0.75
  -3   1  -2   17.58    0.65
   4  -1   2   11.59    0.50
   4  -1   2   10.96    0.61
  -4  -1  -2   11.33    0.54
   4   1   2   11.11    0.61
  -4   1  -2   11.53    0.50
   4   1   2   10.57    0.43
   5  -1   2    0.38    0.14
   5  -1   2    0.21    0.17
  -5  -1  -2    0.51    0.18
  -5   1  -2    0.38    0.17
   5   1   2    0.61    0.21
   6  -1   2    7.01    0.58
   6   1   2    7.19    0.59
   6  -2  -2    6.58    0.47
   6  -2  -2    8.06    0.52
   6   2  -2    5.97    0.44
   6   2  -2    6.00    0.42
   5  -2  -2    0.31    0.15
   5  -2  -2    0.12    0.09
   5  -2  -2    0.07    0.11
   5   2  -2    0.10    0.12
   5   2  -2    0.25    0.11
   5   2  -2    0.16    0.11
   4  -2  -2   58.39    1.87
   4  -2  -2   55.96    1.77
   4  -2  -2   58.29    1.86
   4   2  -2   56.91    1.87
   4   2  -2   58.96    1.80
   4   2  -2   56.32    1.81
   3  -2  -2  162.41    4.85
   3  -2  -2  168.21    4.83
   3  -2  -2  169.78    4.78
  -3  -2   2  163.65    4.74
  -3  -2   2  164.92    4.79
   3   2  -2  164.93    4.80
   3   2  -2  165.11    4.75
   3   2  -2  164.19    4.86
  -2  -2   2  146.38    4.32
   2  -2  -2  146.82    4.31
  -2  -2   2  150.36    4.24
   2  -2  -2  152.61    4.33
   2  -2  -2  152.72    4.36
   2   2  -2  149.96    4.24
   2   2  -2  145.73    4.33
  -2   2   2  149.21    4.36
   2   2  -2  150.41    4.37
   1  -2  -2  112.69    3.28
   1  -2  -2  110.58    3.29
  -1  -2   2  114.78    3.21
  -1  -2   2  113.41    3.21
   1  -2  -2  114.76    3.30
  -1  -2   2  108.69    3.29
  -1   2   2  118.58    3.33
  -1   2   2  113.68    3.29
   1   2  -2  109.02    3.31
   0  -2   2   20.20    0.66
   0  -2  -2   21.27    0.66
   0  -2  -2   21.22    0.71
   0  -2   2   19.71    0.67
   0   2  -2   19.02    0.67
   0   2  -2   20.62    0.66
   0   2   2   19.55    0.69
   0   2   2   20.41    0.66
   1  -2   2   24.05    0.80
   1  -2   2   21.66    0.74
  -1  -2  -2   22.14    0.80
  -1   2  -2   23.52    0.75
   1   2   2   23.30    0.82
   1   2   2   23.73    0.71
   2  -2   2  214.43    6.26
   2  -2   2  210.34    6.20
  -2  -2  -2  213.54    6.24
   2   2   2  220.25    6.07
   2   2   2  216.51    6.27
  -2   2  -2  213.83    6.13
   2   2   2  216.02    6.07
   3  -2   2   90.19    2.87
  -3  -2  -2   91.34    2.83
   3  -2   2   92.14    2.79
  -3   2  -2   93.94    2.71
   3   2   2   92.97    2.64
   3   2   2   90.85    2.88
   4  -2   2   29.36    1.06
   4  -2   2   30.17    1.19
  -4  -2  -2   27.93    1.10
   4   2   2   30.49    0.94
   4   2   2   29.62    1.18
  -4   2  -2   30.04    0.99
  -5  -2  -2    1.45    0.26
   5  -2   2    1.35    0.22
   5  -2   2    1.65    0.31
   5   2   2    1.46    0.29
  -6  -2  -2    8.14    0.54
   6  -2   2    8.00    0.63
   6   2   2    7.54    0.61
   6  -3  -2    0.04    0.15
   6  -3  -2   -0.10    0.15
   5  -3  -2   40.08    1.45
   5  -3  -2   39.05    1.44
   5   3  -2   39.48    1.37
   5   3  -2   41.96    1.47
   5   3  -2   39.71    1.34
   4  -3  -2   21.38    0.87
   4  -3  -2   21.86    0.88
   4  -3  -2   22.71    0.75
   4   3  -2   22.26    0.80
   4   3  -2   20.95    0.79
   4   3  -2   21.80    0.88
   3  -3  -2    7.04    0.37
  -3  -3   2    6.34    0.32
   3  -3  -2    6.58    0.30
   3  -3  -2    6.67    0.36
  -3  -3   2    6.22    0.32
   3   3  -2    6.83    0.33
   3   3  -2    6.59    0.30
   3   3  -2    6.52    0.37
   2  -3  -2   27.00    0.90
  -2  -3   2   25.08    0.85
  -2  -3   2   25.56    0.80
   2  -3  -2   25.23    0.83
   2  -3  -2   24.29    0.87
  -2   3   2   24.84    0.88
   2   3  -2   25.13    0.79
   2   3  -2   24.60    0.89
  -1  -3   2    0.52    0.07
  -1  -3   2    0.52    0.07
  -1  -3   2    0.70    0.11
   1  -3  -2    0.72    0.11
   1  -3  -2    0.58    0.10
   1   3  -2    0.54    0.10
  -1   3   2    0.52    0.10
   0  -3  -2   -0.11    0.04
   0  -3   2   -0.05    0.05
   0  -3  -2   -0.02    0.07
   0   3   2   -0.09    0.04
   0   3  -2   -0.07    0.05
   0   3   2   -0.06    0.06
   0   3  -2   -0.08    0.04
   1  -3   2    0.69    0.09
   1  -3   2    0.68    0.11
  -1  -3  -2    0.74    0.07
  -1  -3  -2    0.50    0.11
   1  -3   2    0.80    0.13
   1   3   2    0.64    0.07
   1   3   2    0.69    0.13
  -1   3  -2    0.57    0.09
   2  -3   2    6.24    0.26
   2  -3   2    5.88    0.33
   2  -3   2    6.57    0.37
  -2  -3  -2    6.27    0.36
  -2   3  -2    6.29    0.26
   2   3   2    6.03    0.36
   3  -3   2    0.25    0.10
  -3  -3  -2    0.39    0.13
   3  -3   2    0.22    0.14
  -3   3  -2    0.20    0.07
   3   3   2    0.08    0.11
   4  -3   2   37.11    1.40
  -4  -3  -2   37.40    1.35
   4  -3   2   37.83    1.31
   4   3   2   34.67    1.39
  -5  -3  -2   12.00    0.65
   5  -3   2   10.64    0.58
   5  -3   2   10.44    0.67
   5   3   2   12.25    0.70
   6  -4  -2    6.21    0.48
   6  -4  -2    5.96    0.48
   5  -4  -2   10.92    0.60
   5  -4  -2   10.71    0.60
   5   4  -2   11.01    0.61
   5   4  -2   10.63    0.53
   4  -4  -2   53.93    1.82
   4  -4  -2   54.95    1.64
   4  -4  -2   52.99    1.82
   4   4  -2   52.46    1.83
   4   4  -2   56.05    1.74
   3  -4  -2  304.33    8.98
   3  -4  -2  316.51    8.85
   3  -4  -2  311.17    8.99
  -3  -4   2  310.94    8.90
   3   4  -2  312.88    9.01
   3   4  -2  312.73    8.89
  -2  -4   2   49.34    1.52
   2  -4  -2   50.78    1.58
  -2  -4   2   45.06    1.48
   2  -4  -2   49.53    1.59
   2  -4  -2   48.96    1.50
   2   4  -2   48.94    1.59
  -1  -4   2    6.09    0.28
   1  -4  -2    5.88    0.30
   1  -4  -2    6.19    0.31
  -1  -4   2    6.09    0.28
   1   4  -2    6.64    0.33
  -1   4   2    6.08    0.30
   0  -4   2    0.87    0.13
   0  -4  -2    0.68    0.13
   0  -4  -2    0.74    0.11
   0   4   2    0.72    0.10
   0   4   2    0.62    0.14
   0   4  -2    0.82    0.12
   1  -4   2   16.65    0.59
  -1  -4  -2   18.96    0.71
   1  -4   2   17.36    0.68
  -1  -4  -2   17.71    0.56
   1  -4   2   17.96    0.68
  -1   4  -2   17.59    0.59
   1   4   2   15.98    0.69
   1   4   2   17.56    0.56
   2  -4   2  223.85    6.43
  -2  -4  -2  216.31    6.42
   2  -4   2  220.03    6.23
   2  -4   2  216.91    6.39
   2   4   2  216.27    6.44
  -2   4  -2  223.59    6.23
   3  -4   2  167.32    4.96
   3  -4   2  164.95    4.88
   3   4   2  158.20    4.94
  -3   4  -2  166.24    4.64
   4  -4   2    7.48    0.51
   4  -4   2    6.81    0.43
   4   4   2    6.72    0.48
   5  -4   2    8.01    0.50
  -5  -4  -2    6.92    0.52
   5  -4   2    7.69    0.57
   5   4   2    8.50    0.59
   6  -5  -2    1.20    0.29
   5  -5  -2   17.43    0.85
   5  -5  -2   19.43    0.89
   5   5  -2   18.94    0.90
   5   5  -2   19.34    0.80
   4  -5  -2    4.36    0.36
   4  -5  -2    4.93    0.38
   4   5  -2    5.23    0.32
   4   5  -2    4.71    0.43
   3  -5  -2   12.15    0.46
  -3  -5   2   12.21    0.51
   3  -5  -2   12.15    0.60
   3  -5  -2   13.02    0.59
   3   5  -2   11.46    0.59
   3   5  -2   12.14    0.51
   2  -5  -2    0.06    0.07
  -2  -5   2    0.07    0.07
   2  -5  -2    0.06    0.10
   2  -5  -2    0.08    0.08
   2   5  -2    0.12    0.08
   1  -5  -2    6.80    0.34
  -1  -5   2    6.43    0.32
   1  -5  -2    6.65    0.33
   1   5  -2    5.98    0.34
  -1   5   2    6.21    0.33
   0  -5  -2   23.49    0.85
   0  -5   2   23.65    0.84
   0  -5  -2   22.57    0.78
   0   5  -2   23.76    0.81
   0   5   2   21.94    0.78
   0   5   2   24.04    0.90
   1  -5   2    1.31    0.20
   1  -5   2    0.98    0.17
  -1  -5  -2    1.39    0.21
  -1  -5  -2    1.42    0.11
  -1   5  -2    1.18    0.13
   1   5   2    1.29    0.10
   1   5   2    0.91    0.18
   2  -5   2    0.10    0.05
   2  -5   2    0.22    0.10
   2  -5   2    0.01    0.11
   2   5   2   -0.08    0.09
  -2   5  -2   -0.02    0.04
   3  -5   2    1.04    0.20
   3  -5   2    0.95    0.22
   3   5   2    0.83    0.21
   4  -5   2   17.89    0.79
   4  -5   2   16.79    0.85
   4   5   2   16.71    0.84
   5  -5   2    7.14    0.54
   5  -5   2    7.33    0.51
  -5  -5  -2    6.72    0.53
   5   5   2    6.36    0.53
   5  -6  -2    1.39    0.28
   5  -6  -2    2.02    0.33
   4  -6  -2   13.74    0.70
   4  -6  -2   13.64    0.72
   4   6  -2   14.35    0.73
   4   6  -2   14.84    0.64
   3  -6  -2   49.13    1.72
   3  -6  -2   50.57    1.69
   3  -6  -2   48.84    1.50
   3   6  -2   47.74    1.61
   3   6  -2   49.51    1.71
   2  -6  -2   68.00    2.14
   2  -6  -2   67.09    2.04
   2  -6  -2   65.95    2.19
   2   6  -2   66.40    2.16
  -1  -6   2   61.88    1.95
   1  -6  -2   63.33    1.95
   1  -6  -2   60.62    1.94
   1   6  -2   61.84    1.97
   0  -6  -2    2.06    0.19
   0  -6  -2    2.41    0.27
   0  -6   2    2.23    0.25
   0  -6   2    2.06    0.23
   0   6  -2    2.36    0.23
   0   6   2    2.21    0.27
   0   6   2    2.28    0.18
   1  -6   2   51.25    1.68
   1  -6   2   49.22    1.68
  -1  -6  -2   49.60    1.69
  -1  -6  -2   50.05    1.51
   1   6   2   49.90    1.72
   1   6   2   49.94    1.52
  -1   6  -2   50.40    1.54
   2  -6   2   90.02    2.81
  -2  -6  -2   88.69    2.81
   2  -6   2   88.65    2.78
   2   6   2   85.49    2.82
   3  -6   2   17.90    0.84
   3  -6   2   18.06    0.80
   3   6   2   17.23    0.84
   4  -6   2   11.49    0.62
   4  -6   2   11.26    0.69
   4   6   2   11.23    0.68
   5  -6   2    0.38    0.20
  -5  -6  -2    0.58    0.26
   5   6   2    0.56    0.24
   5  -7  -2    3.63    0.46
   4  -7  -2    1.87    0.30
   4  -7  -2    1.86    0.32
   4   7  -2    1.87    0.26
   3  -7  -2   14.68    0.70
   3  -7  -2   13.99    0.73
   3   7  -2   14.14    0.71
   2  -7  -2    1.65    0.27
   2  -7  -2    1.40    0.23
   2  -7  -2    1.58    0.19
   2   7  -2    1.08    0.22
   1  -7  -2   10.56    0.49
   1  -7  -2    9.81    0.48
  -1  -7   2   10.07    0.51
  -1  -7   2    9.76    0.48
   1   7  -2    9.57    0.50
   0  -7  -2   42.62    1.43
   0  -7   2   39.12    1.40
   0  -7   2   40.50    1.41
   0   7  -2   40.60    1.35
  -1  -7  -2    3.89    0.23
   1  -7   2    4.03    0.33
  -1  -7  -2    4.41    0.41
   1  -7   2    4.54    0.33
  -1   7  -2    4.10    0.25
   1   7   2    4.10    0.35
  -2  -7  -2    2.37    0.33
   2  -7   2    2.58    0.33
   2  -7   2    3.04    0.33
   2   7   2    3.47    0.38
   3  -7   2    4.30    0.43
   3  -7   2    5.16    0.43
   3   7   2    4.68    0.48
   4  -7   2    3.16    0.44
   4  -7   2    3.72    0.41
   4   7   2    2.64    0.40
   4  -8  -2   10.54    0.68
   3  -8  -2    9.11    0.55
   3  -8  -2    9.58    0.61
   2  -8  -2   45.89    1.50
  -2  -8   2   47.12    1.56
   2  -8  -2   48.06    1.63
   2  -8  -2   45.56    1.71
   2   8  -2   46.12    1.65
  -1  -8   2   60.86    2.04
  -1  -8   2   61.57    2.01
   1  -8  -2   62.34    2.01
   1  -8  -2   62.15    2.00
   1   8  -2   62.69    2.04
   0  -8  -2    5.69    0.34
   0  -8   2    6.01    0.39
   0  -8  -2    5.86    0.40
   0  -8   2    5.86    0.41
  -1  -8  -2   48.84    1.75
   1  -8   2   52.77    1.75
   1  -8   2   48.86    1.76
   1   8   2   50.12    1.82
  -2  -8  -2   27.51    1.13
   2  -8   2   24.09    1.06
   2  -8   2   28.03    1.14
   2   8   2   27.19    1.16
   3  -8   2    6.94    0.53
   3  -8   2    6.60    0.48
  -3  -8  -2    6.80    0.53
   3   8   2    6.49    0.52
   4  -8   2   17.36    0.95
   4   8   2   18.59    0.97
   3  -9  -2    1.71    0.30
   3  -9  -2    1.44    0.30
   2  -9  -2    2.63    0.38
   2  -9  -2    2.68    0.32
  -2  -9   2    2.13    0.26
  -1  -9   2    1.27    0.21
   1  -9  -2    1.82    0.25
  -1  -9   2    1.77    0.27
   1  -9  -2    1.83    0.26
   0  -9   2    3.79    0.38
   0  -9  -2    3.27    0.36
   0  -9   2    4.07    0.42
  -1  -9  -2    5.58    0.45
   1  -9   2    6.79    0.46
   1  -9   2    6.14    0.47
  -2  -9  -2    0.93    0.26
   2  -9   2    0.93    0.23
   2  -9   2    0.77    0.23
   2   9   2    0.83    0.24
   3  -9   2    2.45    0.40
  -3  -9  -2    2.31    0.39
   3   9   2    2.76    0.42
   2 -10  -2   14.94    0.76
  -2 -10   2   14.37    0.77
   2 -10  -2   17.14    0.90
  -1 -10   2    2.46    0.30
  -1 -10   2    1.56    0.28
   1 -10  -2    1.58    0.25
   0 -10  -2    0.41    0.18
   0 -10   2    0.38    0.19
   0 -10   2    0.54    0.17
   1 -10   2    2.16    0.32
   1 -10   2    2.44    0.37
  -1 -10  -2    1.99    0.34
   2 -10   2   23.54    1.11
   2  10   2   23.30    1.15
   6   0  -3    7.16    0.45
   6   0  -3    7.01    0.47
   5   0  -3    0.25    0.13
   5   0  -3    0.32    0.12
   5   0  -3    0.46    0.13
   4   0  -3    0.40    0.13
   4   0  -3    0.67    0.15
   4   0  -3    0.39    0.10
   3   0  -3    2.76    0.22
   3   0  -3    2.46    0.15
   3   0  -3    2.71    0.26
  -2   0   3   59.21    1.87
   2   0  -3   58.12    1.88
   2   0  -3   63.03    1.75
   2   0  -3   60.55    1.74
   2   0  -3   61.21    1.89
  -1   0   3   95.57    2.67
  -1   0   3   92.50    2.75
   1   0  -3   90.59    2.77
   1   0  -3   94.01    2.67
   1   0  -3   89.68    2.75
   0   0  -3   69.33    2.18
   0   0   3   74.09    2.14
   0   0  -3   71.75    2.14
   0   0   3   71.76    2.15
   1   0   3   71.05    2.13
  -1   0  -3   71.24    2.18
   1   0   3   71.30    2.19
   2   0   3   82.13    2.52
  -2   0  -3   78.85    2.46
  -3   0  -3   57.03    1.83
   3   0   3   56.91    1.91
   3   0   3   55.92    1.75
   4   0   3    0.15    0.07
   4   0   3    0.22    0.16
  -4   0  -3    0.76    0.18
  -5   0  -3    4.07    0.39
   5   0   3    4.38    0.49
   6  -1  -3    7.65    0.53
   6  -1  -3    8.54    0.48
   6   1  -3    8.01    0.50
   6   1  -3    8.02    0.50
   5  -1  -3   15.19    0.72
   5  -1  -3   16.24    0.68
   5  -1  -3   17.17    0.70
   5   1  -3   17.10    0.74
   5   1  -3   15.22    0.70
   5   1  -3   16.12    0.64
   4  -1  -3   22.06    0.78
   4  -1  -3   20.72    0.81
   4  -1  -3   21.48    0.86
   4   1  -3   21.65    0.83
   4   1  -3   21.11    0.84
   4   1  -3   21.39    0.73
   3  -1  -3   31.31    1.08
   3  -1  -3   29.70    1.04
   3  -1  -3   30.18    0.98
   3   1  -3   30.48    0.91
   3   1  -3   28.93    1.06
   3   1  -3   30.48    1.06
   2  -1  -3  265.82    7.50
   2  -1  -3  254.38    7.39
  -2  -1   3  268.62    7.49
   2  -1  -3  259.86    7.39
   2  -1  -3  261.72    7.48
   2   1  -3  259.33    7.50
   2   1  -3  253.85    7.48
  -2   1   3  260.18    7.48
   1  -1  -3    3.95    0.25
   1  -1  -3    3.91    0.24
  -1  -1   3    4.73    0.16
  -1  -1   3    3.84    0.24
   1   1  -3    4.35    0.16
   1   1  -3    4.61    0.27
  -1   1   3    4.64    0.22
   1   1  -3    4.08    0.25
  -1   1   3    4.17    0.25
   0  -1   3  176.58    5.08
   0  -1   3  180.97    5.13
   0  -1  -3  176.95    5.10
   0  -1  -3  178.22    5.16
   0   1   3  180.21    5.10
   0   1   3  177.33    5.11
   0   1  -3  178.53    5.14
   0   1  -3  169.88    5.08
   1  -1   3  141.69    4.16
  -1  -1  -3  146.82    4.19
   1   1   3  138.61    4.17
   1   1   3  143.35    4.10
  -1   1  -3  138.52    4.14
   2  -1   3    6.11    0.38
  -2  -1  -3    6.77    0.38
   2  -1   3    6.89    0.33
   2   1   3    6.85    0.29
  -2   1  -3    5.97    0.33
   2   1   3    7.35    0.40
   3  -1   3    8.59    0.42
   3  -1   3    9.18    0.52
  -3  -1  -3    9.30    0.48
   3   1   3    8.98    0.52
   3   1   3    9.07    0.37
  -3   1  -3    8.78    0.43
   4  -1   3    9.78    0.47
   4  -1   3   10.22    0.59
  -4  -1  -3    9.46    0.52
   4   1   3    9.17    0.58
  -4   1  -3    8.81    0.47
  -5  -1  -3   13.43    0.68
   5  -1   3   13.03    0.76
   5   1   3   12.41    0.75
   6  -2  -3   14.51    0.74
   6   2  -3   13.75    0.72
   6   2  -3   14.75    0.69
   5  -2  -3    6.37    0.44
   5  -2  -3    6.43    0.36
   5  -2  -3    6.50    0.40
   5   2  -3    5.63    0.41
   5   2  -3    6.77    0.41
   4  -2  -3    0.00    0.08
   4  -2  -3    0.11    0.11
   4  -2  -3    0.14    0.10
   4   2  -3    0.14    0.12
   4   2  -3    0.06    0.06
   4   2  -3    0.11    0.08
   3  -2  -3   36.22    1.18
  -3  -2   3   34.69    1.03
   3  -2  -3   35.88    1.22
   3  -2  -3   34.43    1.15
   3   2  -3   35.01    1.03
   3   2  -3   33.73    1.22
   3   2  -3   35.59    1.19
  -2  -2   3   77.89    2.40
   2  -2  -3   77.04    2.39
   2  -2  -3   78.04    2.36
   2  -2  -3   82.09    2.43
   2   2  -3   79.64    2.41
   2   2  -3   79.29    2.44
  -1  -2   3    8.78    0.29
   1  -2  -3    8.52    0.40
  -1  -2   3    8.27    0.38
   1  -2  -3    8.79    0.39
   1   2  -3    8.46    0.39
  -1   2   3    8.51    0.37
  -1   2   3    8.68    0.38
   0  -2  -3   15.10    0.58
   0  -2  -3   13.84    0.51
   0  -2   3   14.86    0.55
   0  -2   3   13.76    0.50
   0   2  -3   11.06    0.48
   0   2   3   14.18    0.54
   0   2  -3   13.79    0.54
   0   2   3   14.10    0.51
  -1  -2  -3   15.55    0.65
   1  -2   3   15.90    0.62
   1   2   3   15.94    0.55
  -1   2  -3   15.88    0.60
   1   2   3   15.97    0.64
   2  -2   3   16.90    0.71
  -2  -2  -3   18.46    0.72
   2  -2   3   17.43    0.67
  -2   2  -3   16.55    0.63
   2   2   3   17.00    0.57
   2   2   3   16.47    0.72
  -3  -2  -3   59.96    2.08
   3  -2   3   64.83    2.14
   3  -2   3   64.36    2.03
  -3   2  -3   66.98    1.99
   3   2   3   66.07    1.89
   3   2   3   62.44    1.89
   3   2   3   64.06    2.15
  -4  -2  -3   15.59    0.73
   4  -2   3   16.09    0.68
   4  -2   3   15.98    0.80
   4   2   3   14.96    0.78
  -4   2  -3   15.76    0.63
  -5  -2  -3    3.24    0.38
   5  -2   3    3.18    0.43
   5  -2   3    3.57    0.34
   5   2   3    3.28    0.44
   6  -3  -3    2.21    0.34
   6  -3  -3    2.32    0.32
   6   3  -3    3.21    0.40
   5  -3  -3    2.97    0.32
   5  -3  -3    3.01    0.35
   5  -3  -3    3.00    0.27
   5   3  -3    3.02    0.30
   5   3  -3    2.99    0.35
   4  -3  -3  164.72    4.83
   4  -3  -3  161.23    4.87
   4   3  -3  161.58    4.81
   4   3  -3  164.07    4.69
   4   3  -3  161.54    4.89
   3  -3  -3   71.74    2.20
  -3  -3   3   69.78    2.05
   3  -3  -3   71.76    2.25
   3  -3  -3   71.44    2.17
   3   3  -3   70.90    2.26
   3   3  -3   69.59    2.20
  -2  -3   3    0.25    0.04
  -2  -3   3    0.18    0.03
   2  -3  -3    0.10    0.09
   2  -3  -3    0.22    0.09
   2   3  -3    0.14    0.10
  -1  -3   3    9.26    0.34
   1  -3  -3    9.91    0.43
   1  -3  -3    9.23    0.43
  -1   3   3    9.16    0.42
   1   3  -3    9.30    0.44
  -1   3   3   10.23    0.44
   0  -3  -3    9.16    0.45
   0  -3  -3    9.83    0.39
   0  -3   3    9.36    0.39
   0   3   3    9.42    0.39
   0   3   3    9.31    0.44
   0   3  -3    9.32    0.41
   1  -3   3   40.91    1.36
  -1  -3  -3   42.07    1.26
  -1  -3  -3   40.12    1.40
   1   3   3   41.40    1.40
   1   3   3   42.18    1.26
  -1   3  -3   40.99    1.32
   2  -3   3  171.08    5.00
  -2  -3  -3  162.29    5.03
   2  -3   3  170.29    5.03
  -2   3  -3  170.76    4.90
   2   3   3  173.92    4.82
   2   3   3  167.95    5.06
   3  -3   3   18.38    0.84
  -3  -3  -3   18.58    0.82
   3  -3   3   18.85    0.77
   3   3   3   19.66    0.87
  -3   3  -3   19.69    0.69
   4  -3   3    8.74    0.47
  -4  -3  -3    7.29    0.50
   4  -3   3    8.10    0.55
   4   3   3    7.73    0.54
  -5  -3  -3   13.70    0.75
   5  -3   3   13.91    0.81
   5  -3   3   13.17    0.66
   5   3   3   14.30    0.82
   6  -4  -3   16.14    0.83
   6   4  -3   16.97    0.86
   5  -4  -3    6.83    0.48
   5  -4  -3    7.64    0.49
   5   4  -3    6.84    0.48
   4  -4  -3    0.43    0.16
   4  -4  -3    0.47    0.16
   4  -4  -3    0.49    0.12
   4   4  -3    0.64    0.18
   4   4  -3    0.51    0.10
   3  -4  -3   27.10    1.02
   3  -4  -3   28.55    1.05
   3  -4  -3   28.13    0.96
   3   4  -3   26.87    1.05
   2  -4  -3   49.46    1.62
  -2  -4   3   49.29    1.48
  -2  -4   3   50.42    1.48
   2  -4  -3   51.51    1.59
   2   4  -3   47.03    1.63
   1  -4  -3    5.67    0.33
   1  -4  -3    6.83    0.34
  -1  -4   3    5.82    0.27
  -1   4   3    6.44    0.36
   1   4  -3    5.71    0.33
  -1   4   3    6.09    0.32
   0  -4  -3    3.95    0.29
   0  -4  -3    3.86    0.22
   0  -4   3    3.70    0.23
   0   4   3    3.97    0.28
   0   4   3    3.82    0.22
   0   4  -3    3.50    0.24
  -1  -4  -3    4.51    0.21
  -1  -4  -3    4.40    0.32
   1  -4   3    4.30    0.29
   1   4   3    3.92    0.30
   1   4   3    4.55    0.21
  -1   4  -3    3.73    0.24
  -2  -4  -3    2.56    0.30
   2  -4   3    2.54    0.29
   2  -4   3    3.05    0.30
  -2   4  -3    2.16    0.17
   2   4   3    2.34    0.10
   2   4   3    2.96    0.33
  -3  -4  -3   52.46    1.84
   3  -4   3   51.36    1.78
   3  -4   3   51.31    1.84
  -3   4  -3   56.61    1.67
   3   4   3   54.11    1.88
   4  -4   3   30.41    1.19
  -4  -4  -3   31.70    1.27
   4  -4   3   32.44    1.31
   4   4   3   31.86    1.31
   5  -4   3    2.92    0.35
   5  -4   3    2.49    0.40
  -5  -4  -3    2.03    0.36
   5   4   3    3.07    0.45
   5  -5  -3    1.26    0.27
   5  -5  -3    1.37    0.27
   5   5  -3    1.25    0.28
   4  -5  -3   83.02    2.73
   4  -5  -3   86.82    2.57
   4  -5  -3   87.03    2.75
   4   5  -3   83.36    2.77
   3  -5  -3   56.65    1.72
   3  -5  -3   50.93    1.81
   3  -5  -3   54.38    1.82
   3   5  -3   55.30    1.86
   2  -5  -3    3.82    0.29
  -2  -5   3    3.85    0.22
   2  -5  -3    3.38    0.26
   2   5  -3    3.65    0.29
   1  -5  -3    2.32    0.26
   1  -5  -3    2.69    0.22
  -1  -5   3    2.79    0.20
   1   5  -3    2.55    0.26
   0  -5  -3    0.09    0.08
   0  -5   3    0.00    0.08
   0  -5  -3    0.06    0.11
   0   5   3    0.08    0.09
   0   5   3    0.06    0.06
   0   5  -3   -0.02    0.06
  -1  -5  -3   52.80    1.75
  -1  -5  -3   52.90    1.56
   1  -5   3   50.98    1.72
   1  -5   3   52.29    1.71
   1   5   3   52.35    1.77
   1   5   3   49.87    1.56
  -1   5  -3   51.29    1.61
  -2  -5  -3   70.63    2.37
   2  -5   3   75.20    2.37
   2  -5   3   70.99    2.34
   2   5   3   71.52    2.40
  -2   5  -3   74.72    2.17
   3  -5   3    3.26    0.35
  -3  -5  -3    3.14    0.38
   3  -5   3    3.73    0.40
   3   5   3    3.95    0.43
   4  -5   3    1.90    0.33
  -4  -5  -3    1.99    0.34
   4  -5   3    1.80    0.28
   4   5   3    1.95    0.33
   5  -6  -3    0.13    0.16
   5   6  -3    0.06    0.16
   4  -6  -3    0.16    0.15
   4  -6  -3    0.04    0.14
   4   6  -3    0.19    0.15
   3  -6  -3    0.85    0.14
   3  -6  -3    0.72    0.18
   3  -6  -3    0.93    0.22
   3   6  -3    0.54    0.18
  -2  -6   3   25.20    0.88
   2  -6  -3   26.15    0.98
   2  -6  -3   24.58    0.91
   2   6  -3   24.74    0.99
  -1  -6   3   46.23    1.49
   1  -6  -3   47.38    1.52
   1  -6  -3   46.77    1.55
   1   6  -3   43.76    1.54
   0  -6  -3   13.38    0.54
   0  -6   3   13.23    0.59
   0  -6  -3   12.89    0.63
   0   6   3   14.08    0.55
   0   6  -3   13.66    0.58
   0   6   3   12.84    0.65
  -1  -6  -3   16.64    0.75
   1  -6   3   16.55    0.72
   1  -6   3   16.96    0.72
  -1  -6  -3   15.50    0.56
  -1   6  -3   15.65    0.61
   1   6   3   15.68    0.75
  -2  -6  -3   13.89    0.73
   2  -6   3   14.91    0.72
   2  -6   3   15.95    0.72
   2   6   3   15.84    0.77
   3  -6   3   21.97    0.96
   3  -6   3   23.95    1.04
  -3  -6  -3   22.73    1.02
   3   6   3   23.19    1.05
   4  -6   3    7.10    0.55
  -4  -6  -3    6.23    0.59
   4  -6   3    6.62    0.47
   4   6   3    5.90    0.50
   5  -7  -3    7.30    0.55
   5   7  -3    7.75    0.59
   4  -7  -3    6.31    0.47
   4  -7  -3    5.71    0.47
   4   7  -3    6.00    0.55
   3  -7  -3   14.32    0.71
   3  -7  -3   15.61    0.77
   3   7  -3   14.56    0.75
   2  -7  -3   66.12    2.11
   2  -7  -3   61.36    2.03
  -2  -7   3   64.23    2.02
   2   7  -3   64.48    2.14
  -1  -7   3    0.91    0.17
   1  -7  -3    1.40    0.22
   1  -7  -3    0.87    0.17
   1   7  -3    0.92    0.18
   0  -7   3   54.35    1.77
   0  -7  -3   53.38    1.68
   0  -7  -3   52.72    1.80
   0  -7   3   51.48    1.78
   0   7   3   51.47    1.86
   0   7  -3   52.98    1.72
   1  -7   3   50.85    1.79
   1  -7   3   52.12    1.78
  -1  -7  -3   51.38    1.80
   1   7   3   51.66    1.85
  -1   7  -3   52.83    1.65
  -2  -7  -3    1.60    0.30
   2  -7   3    2.26    0.31
   2  -7   3    1.55    0.27
   2   7   3    0.79    0.22
   3  -7   3    0.66    0.20
  -3  -7  -3    1.21    0.29
   3  -7   3    0.86    0.24
   3   7   3    0.86    0.25
  -4  -7  -3    3.93    0.50
   4  -7   3    4.74    0.54
   4   7   3    4.24    0.52
   4  -8  -3   -0.10    0.15
   4   8  -3    0.00    0.16
   3  -8  -3    4.22    0.43
   3  -8  -3    3.85    0.45
   3   8  -3    4.49    0.46
   2  -8  -3   16.64    0.87
  -2  -8   3   17.95    0.75
   2  -8  -3   18.65    0.75
   2  -8  -3   18.78    0.81
   2   8  -3   17.01    0.82
   1  -8  -3   15.48    0.69
  -1  -8   3   15.17    0.70
  -1  -8   3   15.45    0.72
   1  -8  -3   15.33    0.71
   1   8  -3   16.25    0.73
   0  -8  -3    7.89    0.51
   0  -8   3    9.57    0.53
   0  -8   3    8.72    0.51
   0  -8  -3    8.63    0.43
   0   8  -3    8.15    0.45
   1  -8   3    2.44    0.33
  -1  -8  -3    1.55    0.29
   1  -8   3    2.59    0.34
   1   8   3    2.55    0.36
  -2  -8  -3   13.95    0.77
   2  -8   3   13.85    0.72
   2  -8   3   14.54    0.76
   2   8   3   14.07    0.79
   3  -8   3   17.95    0.94
  -3  -8  -3   19.53    0.98
   3   8   3   19.37    0.99
   3  -9  -3    9.17    0.67
   3  -9  -3   11.44    0.72
   3   9  -3   11.51    0.68
   2  -9  -3   13.18    0.69
  -2  -9   3   14.13    0.67
  -2  -9   3   12.89    0.72
   2  -9  -3   14.32    0.79
   2   9  -3   15.59    0.76
   1  -9  -3   -0.09    0.13
  -1  -9   3    0.03    0.13
   1  -9  -3    0.20    0.15
  -1  -9   3    0.21    0.14
   1   9  -3    0.15    0.14
   0  -9   3   11.81    0.64
   0  -9   3   12.22    0.65
   0  -9  -3   11.88    0.66
   0   9  -3   11.98    0.59
   1  -9   3   11.88    0.66
  -1  -9  -3   11.41    0.67
   1  -9   3   11.15    0.65
   1   9   3   11.67    0.73
   2  -9   3    7.00    0.54
  -2  -9  -3    7.30    0.57
   2   9   3    7.61    0.59
  -1 -10   3    1.95    0.31
  -1 -10   3    1.79    0.28
   0 -10  -3    1.98    0.34
   0 -10   3    1.96    0.32
   6   0  -4   43.21    1.54
   6   0  -4   40.35    1.53
   5   0  -4   18.57    0.81
   5   0  -4   17.30    0.78
   4   0  -4    0.32    0.08
   4   0  -4    0.31    0.13
   4   0  -4    0.28    0.13
   3   0  -4   39.06    1.14
   3   0  -4   38.67    1.34
   3   0  -4   37.92    1.14
   3   0  -4   39.24    1.35
   2   0  -4    3.88    0.27
   2   0  -4    4.53    0.18
   2   0  -4    4.53    0.30
   2   0  -4    4.30    0.17
   1   0  -4  304.08    8.79
   1   0  -4  301.49    8.76
  -1   0   4  305.40    8.65
   1   0  -4  309.93    8.66
   0   0   4  239.91    6.78
   0   0  -4  232.01    6.85
   1   0   4   12.92    0.56
   1   0   4   11.62    0.50
  -1   0  -4   12.67    0.56
  -2   0  -4   20.74    0.83
   2   0   4   21.36    0.87
   3   0   4    1.31    0.25
  -3   0  -4    1.17    0.21
   3   0   4    1.05    0.16
  -4   0  -4   15.84    0.74
   4   0   4   15.75    0.83
   5   0   4   33.36    1.45
   6  -1  -4    7.88    0.49
   6  -1  -4    6.57    0.50
   6   1  -4    7.19    0.50
   6   1  -4    7.38    0.50
   5  -1  -4    0.16    0.13
   5  -1  -4    0.22    0.15
   5   1  -4    0.07    0.12
   5   1  -4    0.13    0.14
   4  -1  -4    0.27    0.09
   4  -1  -4    0.13    0.10
   4  -1  -4    0.22    0.13
   4   1  -4    0.16    0.12
   4   1  -4    0.05    0.10
   3  -1  -4   17.96    0.64
   3  -1  -4   19.43    0.65
   3  -1  -4   20.05    0.78
   3  -1  -4   19.47    0.78
   3   1  -4   19.79    0.79
   3   1  -4   17.76    0.76
   2  -1  -4   10.29    0.39
   2  -1  -4    9.72    0.48
   2  -1  -4   10.32    0.49
   2   1  -4   10.11    0.50
   2   1  -4   10.39    0.49
   1  -1  -4   36.07    1.25
   1  -1  -4   35.77    1.21
  -1  -1   4   36.12    1.09
  -1   1   4   36.74    1.15
   1   1  -4   36.08    1.09
   1   1  -4   36.05    1.24
   0  -1   4    0.42    0.10
   0  -1  -4    0.33    0.11
   0   1  -4    0.55    0.13
   0   1   4    0.40    0.10
   0   1   4    0.40    0.11
  -1  -1  -4   24.97    0.95
   1  -1   4   25.69    0.93
  -1   1  -4   26.13    0.94
   1   1   4   25.56    0.87
   1   1   4   24.80    0.94
  -2  -1  -4   30.61    1.09
   2  -1   4   29.27    1.08
   2   1   4   25.64    1.07
   2   1   4   28.11    0.96
  -2   1  -4   29.22    1.04
  -3  -1  -4    2.48    0.30
   3  -1   4    2.35    0.25
   3  -1   4    3.20    0.36
  -3   1  -4    2.79    0.30
   3   1   4    2.76    0.35
   3   1   4    2.80    0.20
   4  -1   4    0.41    0.21
   4  -1   4    0.49    0.14
  -4  -1  -4    0.33    0.17
   4   1   4    0.33    0.20
  -4   1  -4    0.43    0.16
  -5  -1  -4    0.42    0.20
   5  -1   4    0.34    0.22
   5   1   4   -0.02    0.18
   6  -2  -4   11.09    0.68
   6   2  -4   12.34    0.69
   6   2  -4   12.41    0.65
   5  -2  -4   47.20    1.66
   5  -2  -4   48.87    1.72
   5  -2  -4   50.21    1.65
   5   2  -4   47.24    1.67
   5   2  -4   46.54    1.71
   4  -2  -4   25.04    0.96
   4  -2  -4   25.33    1.01
   4  -2  -4   25.88    0.90
   4   2  -4   23.55    1.00
   4   2  -4   25.24    0.98
   3  -2  -4    1.01    0.18
   3  -2  -4    0.96    0.19
   3  -2  -4    1.43    0.16
   3   2  -4    1.06    0.19
   3   2  -4    1.03    0.20
   2  -2  -4   17.55    0.72
   2  -2  -4   17.85    0.72
   2   2  -4   17.94    0.74
   1  -2  -4  110.82    3.37
  -1  -2   4  114.27    3.19
   1  -2  -4  111.58    3.33
   1   2  -4  110.94    3.19
  -1   2   4  110.79    3.30
   1   2  -4  108.66    3.36
   0  -2  -4   61.41    1.96
   0  -2   4   59.29    1.85
   0  -2  -4   60.52    1.87
   0   2   4   61.92    1.91
   0   2  -4   59.95    1.92
   0   2   4   59.39    1.87
  -1  -2  -4   64.22    2.11
   1  -2   4   66.38    2.06
  -1   2  -4   63.96    2.05
   1   2   4   65.56    2.09
   1   2   4   65.22    1.98
   2  -2   4    0.83    0.19
  -2  -2  -4    0.14    0.14
  -2   2  -4    0.44    0.13
   2   2   4    0.46    0.10
   2   2   4    0.31    0.12
   3  -2   4    3.09    0.37
   3  -2   4    3.72    0.29
  -3  -2  -4    3.29    0.37
  -3   2  -4    3.42    0.27
   3   2   4    2.88    0.36
   4  -2   4   38.80    1.55
   4  -2   4   40.64    1.41
  -4  -2  -4   37.84    1.48
   4   2   4   41.39    1.58
   5  -2   4   15.59    0.88
  -5  -2  -4   14.62    0.80
   5   2   4   14.67    0.87
   6   3  -4   17.09    0.88
   6   3  -4   18.34    0.83
   5  -3  -4    0.34    0.18
   5  -3  -4    0.45    0.16
   5  -3  -4    0.37    0.14
   5   3  -4    0.72    0.21
   5   3  -4    0.42    0.18
   4  -3  -4    2.82    0.28
   4  -3  -4    2.65    0.33
   4  -3  -4    2.69    0.29
   4   3  -4    2.59    0.29
   4   3  -4    2.53    0.31
   3  -3  -4   43.35    1.39
   3  -3  -4   41.93    1.42
   3  -3  -4   41.75    1.46
   3   3  -4   39.29    1.46
   2  -3  -4    2.88    0.29
   2  -3  -4    3.33    0.31
   2   3  -4    3.26    0.32
   1  -3  -4    0.80    0.15
  -1  -3   4    0.67    0.09
   1  -3  -4    0.52    0.15
   1   3  -4    0.59    0.15
  -1   3   4    0.60    0.13
   0  -3  -4    0.07    0.11
   0  -3  -4    0.42    0.10
   0  -3   4    0.27    0.09
   0   3   4    0.33    0.11
   0   3   4    0.34    0.10
   0   3  -4    0.26    0.11
   1  -3   4    0.05    0.09
  -1  -3  -4   -0.09    0.11
   1   3   4    0.04    0.09
  -1   3  -4    0.15    0.09
   1   3   4    0.14    0.08
   2  -3   4   14.59    0.67
   2  -3   4   14.62    0.64
  -2  -3  -4   14.17    0.69
   2   3   4   13.27    0.67
  -2   3  -4   13.56    0.58
  -3  -3  -4   23.02    1.01
   3  -3   4   23.68    0.95
   3  -3   4   23.90    1.02
   3   3   4   23.97    1.04
  -3   3  -4   23.83    0.87
   4  -3   4    0.81    0.25
  -4  -3  -4    1.19    0.28
   4  -3   4    0.99    0.20
   4   3   4    0.98    0.25
   5  -4  -4   57.28    2.00
   5  -4  -4   60.99    2.09
   5   4  -4   61.27    2.12
   4  -4  -4   64.56    2.08
   4  -4  -4   62.57    2.13
   4  -4  -4   63.13    2.03
   4   4  -4   63.83    2.17
   3  -4  -4    3.88    0.31
   3  -4  -4    4.25    0.30
   3  -4  -4    4.93    0.36
   3   4  -4    4.72    0.36
  -2  -4   4   64.15    1.88
   2  -4  -4   68.08    2.12
   2  -4  -4   67.84    2.12
   2   4  -4   63.94    2.14
   1  -4  -4   18.14    0.75
   1  -4  -4   17.69    0.70
  -1  -4   4   17.58    0.61
   1   4  -4   17.26    0.73
  -1   4   4   18.09    0.74
   0  -4  -4    5.83    0.40
   0  -4   4    6.29    0.33
   0  -4  -4    5.79    0.32
   0   4   4    5.65    0.37
   0   4   4    5.94    0.32
   0   4  -4    6.50    0.36
   1  -4   4  123.15    3.64
  -1  -4  -4  120.07    3.72
   1   4   4  117.47    3.52
  -1   4  -4  120.80    3.60
   1   4   4  120.96    3.71
   2  -4   4   12.62    0.60
   2  -4   4   11.00    0.59
  -2  -4  -4   10.61    0.62
   2   4   4   11.93    0.64
  -2   4  -4   12.21    0.52
  -3  -4  -4   19.38    0.89
   3  -4   4   18.83    0.82
   3  -4   4   18.24    0.87
   3   4   4   17.64    0.88
   4  -4   4   45.75    1.68
  -4  -4  -4   47.96    1.78
   4  -4   4   48.34    1.82
   4   4   4   47.71    1.82
   5  -5  -4   -0.19    0.14
   5  -5  -4    0.01    0.12
   5   5  -4   -0.05    0.11
   4  -5  -4    0.27    0.12
   4  -5  -4   -0.11    0.13
   4  -5  -4    0.13    0.12
   4   5  -4   -0.22    0.11
   3  -5  -4   15.59    0.71
   3  -5  -4   15.98    0.73
   3  -5  -4   15.91    0.67
   3   5  -4   14.88    0.74
  -2  -5   4   17.00    0.57
   2  -5  -4   16.94    0.71
   2  -5  -4   16.47    0.72
   2   5  -4   15.78    0.74
   1  -5  -4   10.79    0.51
  -1  -5   4   11.28    0.45
   1  -5  -4   11.60    0.57
   1   5  -4   11.18    0.55
  -1   5   4   10.05    0.55
   0  -5   4    4.87    0.31
   0  -5  -4    4.30    0.41
   0  -5  -4    4.98    0.29
   0   5   4    5.17    0.37
   0   5  -4    4.64    0.32
   1  -5   4    4.93    0.36
  -1  -5  -4    4.82    0.26
  -1  -5  -4    4.80    0.44
  -1   5  -4    4.18    0.29
   1   5   4    5.01    0.39
  -2  -5  -4    6.52    0.48
   2  -5   4    7.84    0.47
   2  -5   4    6.95    0.46
   2   5   4    7.03    0.49
  -2   5  -4    6.90    0.36
   3  -5   4    9.86    0.61
  -3  -5  -4   10.43    0.64
   3  -5   4   10.26    0.58
   3   5   4    9.67    0.63
  -4  -5  -4    0.71    0.28
   4  -5   4    0.89    0.22
   4  -5   4    0.70    0.26
   4   5   4    0.55    0.23
   5  -6  -4   15.07    0.78
   5   6  -4   14.69    0.83
   4  -6  -4    7.86    0.51
   4  -6  -4    8.20    0.53
   4   6  -4    7.83    0.55
   3  -6  -4    2.16    0.27
   3  -6  -4    1.95    0.28
   3  -6  -4    2.00    0.29
   3   6  -4    1.84    0.29
   2  -6  -4    2.21    0.28
   2  -6  -4    3.00    0.32
   2   6  -4    3.06    0.34
  -1  -6   4   48.89    1.58
   1  -6  -4   49.26    1.70
   1  -6  -4   49.63    1.65
   1   6  -4   51.18    1.70
   0  -6   4   65.55    2.03
   0  -6  -4   61.29    1.97
   0  -6  -4   63.56    2.13
   0   6  -4   63.28    2.04
   0   6   4   62.73    2.14
   1  -6   4   32.35    1.21
   1  -6   4   31.65    1.24
  -1  -6  -4   32.64    1.28
  -1   6  -4   32.72    1.14
   1   6   4   33.91    1.30
  -2  -6  -4    1.28    0.28
   2  -6   4    1.16    0.24
   2  -6   4    1.08    0.22
   2   6   4    1.12    0.26
   3  -6   4    2.60    0.35
   3  -6   4    2.84    0.40
  -3  -6  -4    3.43    0.44
   3   6   4    3.42    0.45
   4  -7  -4    0.09    0.15
   4   7  -4    0.07    0.17
   3  -7  -4    6.38    0.47
   3  -7  -4    5.92    0.44
   3  -7  -4    5.72    0.38
   3   7  -4    6.94    0.50
   2  -7  -4   15.69    0.70
   2  -7  -4   13.92    0.69
   2   7  -4   16.12    0.76
   1  -7  -4   14.70    0.66
   1  -7  -4   16.01    0.73
  -1  -7   4   14.79    0.64
   1   7  -4   15.96    0.73
   0  -7   4    1.04    0.20
   0  -7  -4    1.01    0.17
   0  -7  -4    1.54    0.28
   0  -7   4    1.32    0.24
   0   7   4    1.13    0.25
   0   7  -4    1.14    0.19
   1  -7   4   11.54    0.61
  -1  -7  -4   12.11    0.68
   1  -7   4   11.75    0.64
  -1   7  -4   11.37    0.53
   1   7   4   11.16    0.67
  -2  -7  -4    9.58    0.63
   2  -7   4    9.12    0.58
   2  -7   4    9.30    0.58
   2   7   4    9.91    0.64
  -3  -7  -4    1.01    0.29
   3  -7   4    1.62    0.33
   3   7   4    1.36    0.32
   3  -8  -4    4.33    0.49
   3  -8  -4    4.10    0.44
   3   8  -4    4.61    0.49
   2  -8  -4    0.03    0.13
   2  -8  -4    0.09    0.14
   2   8  -4   -0.16    0.15
   1  -8  -4   50.22    1.78
   1  -8  -4   51.56    1.72
   1   8  -4   50.87    1.78
   0  -8  -4   48.55    1.84
   0  -8   4   52.91    1.85
   0  -8   4   52.97    1.79
   0   8  -4   51.72    1.76
   0   8   4   53.42    1.94
   1  -8   4    4.37    0.44
  -1  -8  -4    4.24    0.48
   1  -8   4    4.73    0.47
   1   8   4    4.93    0.53
   2  -8   4    0.94    0.25
  -2  -8  -4    1.05    0.29
   2   8   4    1.02    0.27
  -2  -9   4    2.45    0.32
   2  -9  -4    2.14    0.30
   2  -9  -4    3.05    0.43
   2   9  -4    2.24    0.34
  -1  -9   4    1.16    0.25
   1  -9  -4    2.21    0.32
   1   9  -4    1.82    0.31
   0  -9   4    0.30    0.18
   0  -9  -4    0.18    0.20
  -1  -9  -4    1.33    0.31
   1  -9   4    1.66    0.30
   1   9   4    1.57    0.34
   6   0  -5    3.22    0.39
   5   0  -5    2.25    0.32
   5   0  -5    1.84    0.30
   4   0  -5   14.52    0.71
   4   0  -5   13.89    0.69
   3   0  -5    4.81    0.37
   3   0  -5    5.42    0.38
   2   0  -5    0.22    0.13
   2   0  -5    0.29    0.14
  -1   0   5    2.53    0.18
   1   0  -5    2.19    0.28
   0   0   5   84.19    2.52
   0   0  -5   80.41    2.61
   1   0   5   35.47    1.27
  -1   0  -5   36.08    1.31
  -2   0  -5    5.33    0.38
   2   0   5    4.83    0.38
   3   0   5   14.29    0.63
   3   0   5   16.80    0.81
  -3   0  -5   14.48    0.72
   4   0   5    2.01    0.37
  -4   0  -5    1.78    0.30
   6  -1  -5   22.85    1.00
   6   1  -5   22.44    1.03
   5  -1  -5    8.73    0.54
   5  -1  -5    8.97    0.56
   5   1  -5    9.62    0.58
   5   1  -5    9.29    0.56
   4  -1  -5    2.26    0.29
   4  -1  -5    1.63    0.27
   4   1  -5    1.33    0.25
   4   1  -5    1.38    0.25
   3  -1  -5    9.86    0.42
   3  -1  -5    9.22    0.51
   3  -1  -5    9.65    0.52
   3   1  -5    9.65    0.53
   3   1  -5    9.34    0.53
   2  -1  -5   65.58    2.10
   2  -1  -5   65.29    2.12
   2   1  -5   64.92    2.13
   2   1  -5   63.09    2.10
  -1  -1   5  128.59    3.74
   1  -1  -5  128.99    3.94
   1  -1  -5  134.58    3.90
   1   1  -5  127.67    3.93
  -1   1   5  129.36    3.80
   1   1  -5  127.59    3.75
   0  -1   5   51.48    1.62
   0  -1  -5   51.03    1.73
   0   1  -5   50.92    1.71
   0   1   5   48.83    1.63
  -1  -1  -5    1.72    0.27
   1  -1   5    1.96    0.25
  -1   1  -5    2.07    0.27
   1   1   5    1.46    0.22
  -2  -1  -5    0.29    0.16
   2  -1   5    0.50    0.17
  -2   1  -5    0.75    0.18
   2   1   5    0.42    0.16
   3  -1   5    3.89    0.31
   3  -1   5    3.55    0.42
  -3  -1  -5    3.48    0.40
  -3   1  -5    4.43    0.42
   3   1   5    4.12    0.45
  -4  -1  -5   23.52    1.04
   4  -1   5   23.47    1.11
  -4   1  -5   24.26    1.02
   4   1   5   23.48    1.12
   5  -2  -5    4.64    0.46
   5  -2  -5    4.66    0.44
   5   2  -5    4.98    0.49
   5   2  -5    5.24    0.42
   4  -2  -5   22.44    0.97
   4  -2  -5   23.26    0.95
   4   2  -5   24.39    1.01
   4   2  -5   22.40    0.96
   3  -2  -5    4.68    0.27
   3  -2  -5    4.77    0.34
   3  -2  -5    5.01    0.37
   3   2  -5    4.29    0.41
   3   2  -5    4.49    0.36
   2  -2  -5    2.27    0.27
   2  -2  -5    2.82    0.31
   2   2  -5    2.48    0.30
   1  -2  -5    9.28    0.46
   1  -2  -5    7.35    0.47
  -1  -2   5    7.80    0.32
   1   2  -5    8.71    0.48
  -1   2   5    8.08    0.40
   0  -2   5   34.95    1.17
   0  -2  -5   35.82    1.31
   0   2  -5   34.88    1.26
   0   2   5   35.45    1.24
   1  -2   5   12.57    0.60
  -1  -2  -5   14.65    0.69
  -1   2  -5   13.88    0.64
   1   2   5   13.62    0.64
  -2  -2  -5   14.31    0.73
   2  -2   5   14.90    0.71
   2   2   5   14.91    0.73
  -2   2  -5   14.47    0.66
  -3  -2  -5    2.79    0.37
   3  -2   5    2.73    0.31
   3  -2   5    2.96    0.38
  -3   2  -5    2.79    0.32
   3   2   5    2.11    0.34
   4  -2   5    5.25    0.56
  -4  -2  -5    5.06    0.52
   4   2   5    4.79    0.55
   5  -3  -5   63.82    2.14
   5  -3  -5   64.46    2.23
   5   3  -5   65.52    2.20
   5   3  -5   63.19    2.25
   4  -3  -5    1.03    0.23
   4  -3  -5    1.22    0.22
   4   3  -5    1.10    0.26
   3  -3  -5   22.10    0.82
   3  -3  -5   22.76    0.93
   3  -3  -5   21.07    0.89
   3   3  -5   21.71    0.94
   2  -3  -5   47.39    1.62
   2  -3  -5   47.11    1.64
   2   3  -5   47.79    1.66
   1  -3  -5    5.05    0.33
  -1  -3   5    4.87    0.23
   1  -3  -5    4.63    0.43
  -1   3   5    4.74    0.31
   1   3  -5    5.35    0.37
   0  -3  -5   47.48    1.67
   0  -3  -5   46.05    1.55
   0  -3   5   47.88    1.53
   0   3   5   48.11    1.62
   0   3  -5   48.21    1.62
  -1  -3  -5   24.45    1.05
   1  -3   5   26.81    0.98
  -1   3  -5   24.14    0.97
   1   3   5   25.98    1.03
  -2  -3  -5    1.40    0.28
   2  -3   5    2.08    0.29
   2   3   5    1.43    0.26
  -2   3  -5    1.56    0.22
   3  -3   5   35.82    1.41
  -3  -3  -5   36.93    1.42
   3  -3   5   34.70    1.32
  -3   3  -5   35.03    1.28
   3   3   5   34.87    1.42
   4  -3   5   14.31    0.69
  -4  -3  -5   12.28    0.75
   4  -3   5   12.97    0.79
   4   3   5   12.68    0.77
   5  -4  -5    6.02    0.47
   5   4  -5    5.37    0.55
   4  -4  -5   15.39    0.69
   4  -4  -5   15.39    0.77
   4  -4  -5   15.59    0.72
   4   4  -5   15.54    0.80
   3  -4  -5    5.82    0.37
   3  -4  -5    6.31    0.42
   3  -4  -5    5.84    0.42
   3   4  -5    5.78    0.42
   2  -4  -5    1.26    0.21
   2  -4  -5    1.19    0.23
   2   4  -5    0.80    0.20
   1  -4  -5   13.00    0.66
  -1  -4   5   13.52    0.50
   1  -4  -5   13.55    0.61
   1   4  -5   12.42    0.63
  -1   4   5   14.08    0.64
   0  -4   5   24.43    0.89
   0  -4  -5   23.51    1.01
   0  -4  -5   24.41    0.90
   0   4   5   24.58    0.99
   0   4  -5   25.41    0.97
  -1  -4  -5    5.02    0.48
   1  -4   5    3.84    0.32
  -1   4  -5    3.67    0.35
   1   4   5    4.52    0.39
  -2  -4  -5   16.53    0.80
   2  -4   5   13.54    0.72
   2  -4   5   15.43    0.74
   2   4   5   15.60    0.79
  -2   4  -5   15.40    0.67
  -3  -4  -5    0.00    0.18
   3  -4   5    0.06    0.16
   3  -4   5    0.00    0.12
   3   4   5    0.13    0.16
   5   5  -5   33.90    1.43
   4  -5  -5    1.18    0.24
   4  -5  -5    0.94    0.25
   4  -5  -5    1.19    0.22
   4   5  -5    1.23    0.26
   3  -5  -5    9.79    0.54
   3  -5  -5   10.06    0.58
   3  -5  -5   10.09    0.55
   3   5  -5    8.88    0.57
   2  -5  -5   29.40    1.12
   2  -5  -5   30.40    1.16
   2   5  -5   27.98    1.15
   1  -5  -5   10.41    0.60
   1  -5  -5   11.33    0.54
  -1   5   5   10.59    0.58
   1   5  -5   11.17    0.58
   0  -5  -5   42.04    1.42
   0  -5   5   42.83    1.42
   0  -5  -5   42.57    1.57
   0   5   5   42.22    1.55
   0   5  -5   43.16    1.50
  -1  -5  -5    9.23    0.59
   1  -5   5    9.92    0.54
   1   5   5    9.16    0.58
  -1   5  -5   11.06    0.54
   2  -5   5    4.93    0.40
  -2  -5  -5    4.81    0.51
   2  -5   5    4.69    0.47
   2   5   5    5.59    0.47
   3  -5   5   17.11    0.89
   3  -5   5   18.21    0.87
  -3  -5  -5   16.84    0.91
   3   5   5   18.96    0.96
   4  -6  -5    3.56    0.40
   4   6  -5    3.22    0.43
   3  -6  -5    4.50    0.36
   3  -6  -5    4.53    0.45
   3  -6  -5    4.35    0.44
   3   6  -5    5.12    0.51
   2  -6  -5    1.23    0.25
   2  -6  -5    1.27    0.23
   2   6  -5    1.12    0.23
   1  -6  -5    6.06    0.45
   1  -6  -5    5.97    0.40
   1   6  -5    6.26    0.44
   0  -6   5   36.85    1.30
   0  -6  -5   36.11    1.43
   0  -6  -5   36.49    1.27
   0   6  -5   38.42    1.35
   0   6   5   37.29    1.43
   1  -6   5   11.33    0.64
  -1  -6  -5   12.25    0.70
   1  -6   5   10.71    0.58
  -1   6  -5   10.81    0.55
   1   6   5   11.83    0.68
   2  -6   5    4.84    0.48
   2  -6   5    3.52    0.40
  -2  -6  -5    3.51    0.45
   2   6   5    2.68    0.40
   3  -7  -5    1.89    0.33
   3  -7  -5    2.07    0.32
   3  -7  -5    2.11    0.29
   3   7  -5    2.03    0.34
   2  -7  -5   20.76    0.90
   2  -7  -5   20.97    0.92
   2   7  -5   20.18    0.94
   1  -7  -5   53.02    1.97
   1  -7  -5   57.82    1.89
   1   7  -5   58.26    1.97
   0  -7  -5   20.37    0.96
   0   7   5   19.70    0.97
   0   7  -5   21.37    0.89
  -1  -7  -5    2.20    0.36
   1  -7   5    2.10    0.32
   1   7   5    1.55    0.32
   2  -7   5    1.12    0.26
  -2  -7  -5    1.38    0.33
   2   7   5    0.85    0.27
   2  -8  -5    0.07    0.16
   2  -8  -5    0.04    0.14
   2   8  -5    0.01    0.14
   1  -8  -5    2.39    0.36
   1   8  -5    2.11    0.33
   0  -8  -5   15.03    0.81
   0   8  -5   14.25    0.73
   0   8   5   13.75    0.81
   1  -8   5   15.84    0.77
  -1  -8  -5   12.47    0.79
   1   8   5   13.15    0.81
   5   0  -6    8.15    0.56
   4   0  -6    0.05    0.15
   4   0  -6   -0.20    0.11
   3   0  -6   13.69    0.71
   3   0  -6   14.06    0.71
   2   0  -6   90.18    2.89
   2   0  -6   88.47    2.85
  -1   0   6   17.01    0.63
   1   0  -6   15.53    0.76
   0   0   6   16.64    0.69
   0   0  -6   16.81    0.80
   1   0   6   43.24    1.50
  -1   0  -6   40.45    1.54
   2   0   6    1.18    0.25
  -2   0  -6    1.56    0.28
  -3   0  -6   15.79    0.81
   3   0   6   16.19    0.86
   5  -1  -6    6.85    0.50
   5   1  -6    6.63    0.52
   4  -1  -6   15.53    0.80
   4  -1  -6   16.66    0.80
   4   1  -6   16.20    0.81
   4   1  -6   15.73    0.80
   3  -1  -6    0.37    0.17
   3  -1  -6    0.17    0.15
   3   1  -6    0.20    0.14
   3   1  -6    0.21    0.14
   2  -1  -6    0.26    0.15
   2  -1  -6    0.28    0.15
   2   1  -6    0.43    0.18
   1  -1  -6   21.15    0.95
   1   1  -6   21.64    0.94
  -1   1   6   22.87    0.82
   0  -1  -6   21.01    0.94
   0   1   6   21.68    0.86
   0   1  -6   21.92    0.93
   1  -1   6   14.91    0.69
  -1  -1  -6   15.56    0.77
  -1   1  -6   14.17    0.72
   1   1   6   14.11    0.69
  -2  -1  -6    1.67    0.31
   2  -1   6    2.28    0.32
   2   1   6    2.73    0.36
  -2   1  -6    2.75    0.36
  -3  -1  -6    5.20    0.52
   3  -1   6    4.54    0.51
  -3   1  -6    5.90    0.52
   3   1   6    4.24    0.49
   5  -2  -6    1.09    0.25
   5   2  -6    0.81    0.25
   4  -2  -6   10.35    0.62
   4  -2  -6    9.18    0.57
   4   2  -6    8.80    0.58
   4   2  -6    9.57    0.60
   3  -2  -6   37.06    1.40
   3  -2  -6   35.60    1.38
   3   2  -6   37.13    1.42
   2  -2  -6   21.98    0.98
   2  -2  -6   23.85    0.96
   2   2  -6   22.86    0.99
   1  -2  -6    2.05    0.27
   1  -2  -6    2.77    0.35
   1   2  -6    2.27    0.31
  -1   2   6    2.30    0.25
   0  -2   6    0.24    0.11
   0  -2  -6    1.26    0.27
   0   2   6    0.10    0.12
   0   2  -6    0.10    0.14
  -1  -2  -6   18.07    0.87
   1  -2   6   17.87    0.77
   1   2   6   18.33    0.82
  -1   2  -6   16.89    0.80
  -2  -2  -6   16.34    0.84
   2  -2   6   16.82    0.80
   2   2   6   16.99    0.83
  -2   2  -6   15.69    0.77
   3  -2   6   21.60    0.95
   3  -2   6   22.33    1.05
  -3  -2  -6   21.98    1.05
  -3   2  -6   23.14    0.98
   3   2   6   23.35    1.08
   4  -3  -6   15.63    0.80
   4   3  -6   16.14    0.84
   3  -3  -6    0.02    0.13
   3  -3  -6    0.06    0.14
   3   3  -6    0.22    0.16
   2  -3  -6    2.07    0.31
   2  -3  -6    1.75    0.27
   2   3  -6    1.22    0.24
   1  -3  -6   17.24    0.77
   1  -3  -6   19.18    0.88
  -1   3   6   19.07    0.77
   1   3  -6   16.70    0.81
   0  -3   6    4.03    0.29
   0  -3  -6    3.56    0.42
   0   3  -6    3.25    0.37
   0   3   6    3.60    0.37
   1  -3   6    9.90    0.54
  -1  -3  -6   10.27    0.63
   1   3   6    9.30    0.57
  -1   3  -6    9.70    0.56
   2  -3   6    0.98    0.25
  -2  -3  -6    1.11    0.29
  -2   3  -6    0.79    0.21
   2   3   6    0.82    0.23
   3  -3   6    2.08    0.36
   3  -3   6    1.73    0.29
   3   3   6    2.56    0.41
   4  -4  -6   28.04    1.17
   4   4  -6   29.09    1.25
   3  -4  -6   42.75    1.60
   3  -4  -6   45.48    1.62
   3   4  -6   44.29    1.66
   2  -4  -6    1.57    0.27
   2  -4  -6    1.93    0.31
   2   4  -6    1.69    0.29
   1  -4  -6    0.16    0.17
   1  -4  -6    0.13    0.13
   1   4  -6    0.40    0.17
  -1   4   6    0.09    0.12
   0  -4  -6    6.71    0.50
   0  -4  -6    6.18    0.39
   0   4   6    6.19    0.44
   0   4  -6    6.14    0.44
  -1  -4  -6    9.38    0.62
   1  -4   6    9.20    0.53
  -1   4  -6    9.59    0.55
   1   4   6   10.37    0.61
   2  -4   6   36.19    1.39
   2  -4   6   35.87    1.40
  -2  -4  -6   36.36    1.47
   2   4   6   34.57    1.44
   4  -5  -6    9.92    0.59
   4   5  -6   10.58    0.67
   3  -5  -6    1.15    0.23
   3  -5  -6    0.78    0.22
   3  -5  -6    1.06    0.24
   3   5  -6    0.93    0.25
   2  -5  -6    0.45    0.17
   2  -5  -6    0.77    0.23
   2   5  -6    0.82    0.23
   1  -5  -6   20.54    0.99
   1  -5  -6   22.64    0.91
   1   5  -6   22.92    0.99
  -1   5   6   22.29    0.96
   0  -5  -6    6.34    0.57
   0  -5  -6    5.76    0.41
   0   5  -6    5.45    0.42
   0   5   6    5.69    0.44
   1  -5   6    3.81    0.39
  -1  -5  -6    3.99    0.49
   1   5   6    3.60    0.43
  -1   5  -6    4.07    0.40
   2  -5   6    0.28    0.18
  -2  -5  -6    0.52    0.26
   2   5   6    0.19    0.20
   3  -6  -6   11.98    0.76
   3  -6  -6   12.21    0.66
   3  -6  -6   10.50    0.63
   3   6  -6   11.13    0.70
   2  -6  -6   16.71    0.80
   2  -6  -6   19.13    0.89
   2   6  -6   17.10    0.87
   1  -6  -6    6.50    0.52
   1  -6  -6    6.85    0.45
   1   6  -6    7.35    0.50
   0  -6  -6    0.69    0.24
   0   6  -6    0.64    0.20
   0   6   6    1.05    0.27
  -1  -6  -6   21.41    1.04
   1   6   6   20.28    1.01
   2  -7  -6    0.09    0.19
   2  -7  -6    0.22    0.17
   2   7  -6    0.11    0.18
   1  -7  -6   13.73    0.78
   1   7  -6   14.58    0.77
   0  -7  -6   12.22    0.74
   0   7  -6   11.12    0.64
   0   7   6   11.58    0.73
   4   0  -7    2.95    0.41
   3   0  -7    3.10    0.41
   3   0  -7    3.23    0.40
   2   0  -7    7.31    0.53
   1   0  -7    9.41    0.60
   0   0  -7    0.95    0.25
   1   0   7    5.22    0.40
  -1   0  -7    6.40    0.58
   4  -1  -7    6.45    0.52
   4   1  -7    7.53    0.56
   3  -1  -7   49.64    1.84
   3   1  -7   51.42    1.88
   2  -1  -7   17.93    0.85
   2  -1  -7   17.90    0.89
   2   1  -7   18.31    0.89
   1  -1  -7   -0.19    0.13
   1   1  -7   -0.05    0.14
   0  -1  -7   31.04    1.26
   0   1   7   27.40    1.11
   0   1  -7   29.38    1.22
  -1  -1  -7    6.96    0.63
   1  -1   7    7.17    0.48
  -1   1  -7    7.22    0.53
   1   1   7    6.95    0.48
   4  -2  -7    2.72    0.40
   4   2  -7    2.25    0.38
   3  -2  -7    4.20    0.47
   3  -2  -7    4.83    0.50
   3   2  -7    4.22    0.48
   2  -2  -7    8.21    0.56
   2  -2  -7    9.07    0.56
   2   2  -7    8.71    0.58
   1  -2  -7    5.14    0.54
   1   2  -7    5.00    0.50
   0  -2  -7    0.19    0.19
   0   2  -7   -0.07    0.14
   0   2   7    0.17    0.14
  -1  -2  -7    2.34    0.38
   1   2   7    1.18    0.25
  -1   2  -7    1.33    0.27
   3  -3  -7   21.90    1.03
   3   3  -7   21.90    1.05
   2  -3  -7    0.00    0.15
   2  -3  -7    0.09    0.15
   2   3  -7    0.05    0.16
   1  -3  -7    2.50    0.39
   1  -3  -7    2.36    0.32
   1   3  -7    2.25    0.34
   0  -3  -7    2.25    0.38
   0   3  -7    2.49    0.35
   0   3   7    2.38    0.32
  -1  -3  -7   19.11    0.99
  -1   3  -7   18.46    0.91
   1   3   7   20.67    0.95
   3  -4  -7    4.62    0.50
   3   4  -7    5.48    0.56
   2  -4  -7   13.38    0.77
   2  -4  -7   13.94    0.72
   2   4  -7   12.82    0.74
   1  -4  -7    2.41    0.31
   1  -4  -7    2.55    0.40
   1   4  -7    2.84    0.37
  -1   4   7    2.19    0.30
   0  -4  -7    1.09    0.30
   0   4  -7    0.79    0.22
   0   4   7    0.85    0.22
   2  -5  -7    0.84    0.22
   1  -5  -7    1.69    0.27
   1  -5  -7    2.15    0.37
  -1   5   7    2.15    0.33
   1   5  -7    2.01    0.32
   0   0   0    0.00    0.00
;
_shelx_hkl_checksum              9784
loop_
_space_group_symop_operation_xyz
'x, y, z'
'-x, y+1/2, -z'
'-x, -y, -z'
'x, -y-1/2, z'
loop_
_atom_site_label
_atom_site_type_symbol
_atom_site_fract_x
_atom_site_fract_y
_atom_site_fract_z
_atom_site_U_iso_or_equiv
_atom_site_adp_type
_atom_site_occupancy
_atom_site_site_symmetry_order
_atom_site_calc_flag
_atom_site_refinement_flags_posn
_atom_site_refinement_flags_adp
_atom_site_refinement_flags_occupancy
_atom_site_disorder_assembly
_atom_site_disorder_group
S1 S 0.60419(9) 0.250000 0.87981(8) 0.0197(2) Uani 1 2 d S T P . .
O1 O 0.7402(2) 0.11014(13) 0.89473(18) 0.0294(3) Uani 1 1 d . . . . .
N1 N 0.4183(3) 0.250000 0.6453(3) 0.0225(4) Uani 1 2 d S T P . .
C1 C 0.2274(3) 0.1280(2) 0.5834(3) 0.0322(4) Uani 1 1 d . . . . .
H1A H 0.174167 0.078676 0.707292 0.039 Uiso 1 1 calc R U . . .
H1B H 0.273011 0.051848 0.483132 0.039 Uiso 1 1 calc R U . . .
C2 C 0.0466(4) 0.250000 0.4736(4) 0.0364(6) Uani 1 2 d S T P . .
H2A H 0.024147 0.250000 0.314846 0.044 Uiso 1 2 calc R U P . .
H2B H -0.116010 0.250000 0.519788 0.044 Uiso 1 2 calc R U P . .
C4 C 0.4171(4) 0.250000 1.0772(3) 0.0251(5) Uani 1 2 d S T P . .
H4A H 0.323986 0.154890 1.069782 0.038 Uiso 1 1 d . U . . .
H4C H 0.524020 0.250000 1.220249 0.038 Uiso 1 2 d S U P . .
loop_
_atom_site_aniso_label
_atom_site_aniso_U_11
_atom_site_aniso_U_22
_atom_site_aniso_U_33
_atom_site_aniso_U_23
_atom_site_aniso_U_13
_atom_site_aniso_U_12
S1 0.0185(3) 0.0200(3) 0.0208(3) 0.000 0.00406(19) 0.000
O1 0.0271(6) 0.0249(6) 0.0368(6) 0.0030(5) 0.0076(5) 0.0074(5)
N1 0.0192(9) 0.0282(10) 0.0201(9) 0.000 0.0038(7) 0.000
C1 0.0247(8) 0.0422(10) 0.0295(8) -0.0121(7) 0.0046(6) -0.0067(7)
C2 0.0203(11) 0.0686(18) 0.0205(11) 0.000 0.0044(8) 0.000
C4 0.0302(11) 0.0251(11) 0.0212(10) 0.000 0.0082(8) 0.000
loop_
_atom_type_symbol
_atom_type_description
_atom_type_scat_dispersion_real
_atom_type_scat_dispersion_imag
_atom_type_scat_source
C C 0.0033 0.0016 'International Tables Vol C Tables 4.2.6.8 and 6.1.1.4'
H H 0.0000 0.0000 'International Tables Vol C Tables 4.2.6.8 and 6.1.1.4'
N N 0.0061 0.0033 'International Tables Vol C Tables 4.2.6.8 and 6.1.1.4'
O O 0.0106 0.0060 'International Tables Vol C Tables 4.2.6.8 and 6.1.1.4'
S S 0.1246 0.1234 'International Tables Vol C Tables 4.2.6.8 and 6.1.1.4'
loop_
_geom_angle_atom_site_label_1
_geom_angle_atom_site_label_2
_geom_angle_atom_site_label_3
_geom_angle
_geom_angle_site_symmetry_1
_geom_angle_site_symmetry_3
_geom_angle_publ_flag
O1 S1 O1 118.64(10) 4_565 . ?
O1 S1 N1 106.52(6) 4_565 . ?
O1 S1 N1 106.52(6) . . ?
O1 S1 C4 108.56(6) 4_565 . ?
O1 S1 C4 108.56(6) . . ?
N1 S1 C4 107.53(9) . . ?
C1 N1 C1 91.80(17) 4_565 . ?
C1 N1 S1 121.27(11) 4_565 . ?
C1 N1 S1 121.27(11) . . ?
N1 C1 C2 88.33(13) . . ?
N1 C1 H1A 113.9 . . ?
C2 C1 H1A 113.9 . . ?
N1 C1 H1B 113.9 . . ?
C2 C1 H1B 113.9 . . ?
H1A C1 H1B 111.1 . . ?
C1 C2 C1 89.06(17) 4_565 . ?
C1 C2 H2A 113.8 4_565 . ?
C1 C2 H2A 113.8 . . ?
C1 C2 H2B 113.8 4_565 . ?
C1 C2 H2B 113.8 . . ?
H2A C2 H2B 111.0 . . ?
S1 C4 H4A 109.5 . . ?
S1 C4 H4C 109.4 . . ?
H4A C4 H4C 104.9 . . ?
loop_
_geom_bond_atom_site_label_1
_geom_bond_atom_site_label_2
_geom_bond_distance
_geom_bond_site_symmetry_2
_geom_bond_publ_flag
S1 O1 1.4353(11) 4_565 ?
S1 O1 1.4353(11) . ?
S1 N1 1.6317(18) . ?
S1 C4 1.764(2) . ?
N1 C1 1.499(2) 4_565 ?
N1 C1 1.499(2) . ?
C1 C2 1.535(2) . ?
C1 H1A 0.9900 . ?
C1 H1B 0.9900 . ?
C2 C1 1.535(2) 4_565 ?
C2 H2A 0.9900 . ?
C2 H2B 0.9900 . ?
C4 H4A 0.9786 . ?
C4 H4C 0.9797 . ?
loop_
_geom_torsion_atom_site_label_1
_geom_torsion_atom_site_label_2
_geom_torsion_atom_site_label_3
_geom_torsion_atom_site_label_4
_geom_torsion
_geom_torsion_site_symmetry_1
_geom_torsion_site_symmetry_2
_geom_torsion_site_symmetry_3
_geom_torsion_site_symmetry_4
_geom_torsion_publ_flag
O1 S1 N1 C1 -59.07(15) 4_565 . . 4_565 ?
O1 S1 N1 C1 173.38(12) . . . 4_565 ?
C4 S1 N1 C1 57.16(12) . . . 4_565 ?
O1 S1 N1 C1 -173.38(12) 4_565 . . . ?
O1 S1 N1 C1 59.06(15) . . . . ?
C4 S1 N1 C1 -57.16(12) . . . . ?
C1 N1 C1 C2 12.03(17) 4_565 . . . ?
S1 N1 C1 C2 140.83(13) . . . . ?
N1 C1 C2 C1 -11.74(16) . . . 4_565 ?
