#------------------------------------------------------------------------------
#$Date: 2020-05-04 05:46:13 +0300 (Mon, 04 May 2020) $
#$Revision: 251478 $
#$URL: file:///home/coder/svn-repositories/cod/cif/4/03/82/4038249.cif $
#------------------------------------------------------------------------------
#
# This file is available in the Crystallography Open Database (COD),
# http://www.crystallography.net/
#
# All data on this site have been placed in the public domain by the
# contributors.
#
data_4038249
loop_
_publ_author_name
'Matsubara, Ryosuke'
'Ando, Akihiro'
'Hasebe, Hayu'
'Kim, Hojin'
'Tsuneda, Takao'
'Hayashi, Masahiko'
_publ_section_title
;
 Synthesis and Synthetic Application of Chloro- and Bromofuroxans.
;
_journal_issue                   9
_journal_name_full               'The Journal of organic chemistry'
_journal_page_first              5959
_journal_page_last               5972
_journal_paper_doi               10.1021/acs.joc.0c00326
_journal_volume                  85
_journal_year                    2020
_chemical_formula_sum            'C10 H5 Cl N2 O2'
_chemical_formula_weight         220.61
_chemical_name_common            furoxan
_space_group_crystal_system      triclinic
_space_group_IT_number           2
_space_group_name_Hall           '-P 1'
_space_group_name_H-M_alt        'P -1'
_atom_sites_solution_hydrogens   geom
_cell_angle_alpha                81.39(3)
_cell_angle_beta                 86.15(3)
_cell_angle_gamma                75.78(3)
_cell_formula_units_Z            2
_cell_length_a                   6.6670(13)
_cell_length_b                   6.7899(14)
_cell_length_c                   11.050(2)
_cell_measurement_reflns_used    479
_cell_measurement_temperature    90.(2)
_cell_measurement_theta_max      25.196
_cell_measurement_theta_min      3.14
_cell_volume                     479.18(18)
_computing_cell_refinement       'APEX3 v2017.3-0 (Bruker AXS)'
_computing_data_reduction        'SAINT V8.38A (Bruker AXS Inc., 2017)'
_computing_molecular_graphics    'shelXle (C.B. Huebschle, rev 833)'
_computing_structure_refinement  'SHELXL-2016/6 (Sheldrick, 2016)'
_computing_structure_solution    'SHELXT 2014/5 (Sheldrick, 2014)'
_diffrn_ambient_temperature      90.(2)
_diffrn_detector_area_resol_mean 8.3333
_diffrn_measured_fraction_theta_full 0.982
_diffrn_measured_fraction_theta_max 0.982
_diffrn_measurement_device_type  'Bruker APEXII CCD area detector'
_diffrn_measurement_method       'phi and omega scans'
_diffrn_radiation_monochromator  'Bruker Helios multilayer confocal mirror'
_diffrn_radiation_source         'Bruker TXS fine-focus rotating anode'
_diffrn_radiation_type           MoK\a
_diffrn_radiation_wavelength     0.71073
_diffrn_reflns_av_R_equivalents  0.0458
_diffrn_reflns_av_unetI/netI     0.0888
_diffrn_reflns_limit_h_max       4
_diffrn_reflns_limit_h_min       -7
_diffrn_reflns_limit_k_max       7
_diffrn_reflns_limit_k_min       -7
_diffrn_reflns_limit_l_max       12
_diffrn_reflns_limit_l_min       -11
_diffrn_reflns_number            2171
_diffrn_reflns_theta_full        24.40
_diffrn_reflns_theta_max         24.40
_diffrn_reflns_theta_min         1.86
_diffrn_source                   'rotating-anode X-ray tube'
_diffrn_source_type              'Bruker Turbo X-ray Source'
_exptl_absorpt_coefficient_mu    0.376
_exptl_absorpt_correction_T_max  0.99
_exptl_absorpt_correction_T_min  0.34
_exptl_absorpt_correction_type   multi-scan
_exptl_absorpt_process_details
;
SADABS-2016/2 - Bruker AXS area detector scaling and absorption correction
;
_exptl_crystal_colour            colourless
_exptl_crystal_density_diffrn    1.529
_exptl_crystal_density_method    'not measured'
_exptl_crystal_description       block
_exptl_crystal_F_000             224
_exptl_crystal_size_max          0.154
_exptl_crystal_size_mid          0.028
_exptl_crystal_size_min          0.028
_refine_diff_density_max         2.454
_refine_diff_density_min         -1.035
_refine_ls_extinction_method     none
_refine_ls_goodness_of_fit_ref   1.550
_refine_ls_hydrogen_treatment    constr
_refine_ls_matrix_type           full
_refine_ls_number_parameters     136
_refine_ls_number_reflns         1548
_refine_ls_number_restraints     186
_refine_ls_restrained_S_all      1.579
_refine_ls_R_factor_all          0.2031
_refine_ls_R_factor_gt           0.1618
_refine_ls_shift/su_max          4.284
_refine_ls_shift/su_mean         0.095
_refine_ls_structure_factor_coef Fsqd
_refine_ls_weighting_details
'w=1/[\s^2^(Fo^2^)+(0.2000P)^2^] where P=(Fo^2^+2Fc^2^)/3'
_refine_ls_weighting_scheme      calc
_refine_ls_wR_factor_gt          0.3953
_refine_ls_wR_factor_ref         0.4356
_reflns_number_gt                969
_reflns_number_total             1548
_reflns_threshold_expression     'I > 2\s(I)'
_cod_data_source_file            jo0c00326_si_007.cif
_cod_data_source_block           AA1010
_cod_depositor_comments
;
The following automatic conversions were performed:

data item '_exptl_absorpt_correction_type' value 'Multi-Scan' was
changed to 'multi-scan' in accordance with the
/home/data/users/saulius/crontab/automatic-downloads/rss-feeds/ACS/lib/dictionaries/cif_core.dic
dictionary named 'cif_core.dic' version 2.4.2 last updated on
2011-04-26.

Automatic conversion script
Id: cif_fix_values 7556 2019-12-06 15:28:31Z antanas 

 Adding full bibliography for 4038245--4038253.cif.
;
_cod_database_code               4038249
_shelx_res_file
;

TITL AA1010PTLCa_0bm_a.res in P-1
    AA1010PTLCa_0bm_a.res
    created by SHELXL-2016/6 at 18:50:28 on 20-Nov-2018
REM Old TITL AA1010PTLCa_0bm in P-1
REM SHELXT solution in P-1
REM R1 0.297,  Rweak 0.014,  Alpha 0.053,  Orientation as input
REM Formula found by SHELXT:  C12 Cl N O
CELL  0.71073   6.6670   6.7899  11.0499   81.394   86.147   75.781
ZERR    2.000   0.0013   0.0014   0.0022    0.030    0.030    0.030
LATT  1
SFAC C H CL N O
UNIT 20 10 2 4 4
TEMP -183
ACTA 50
SIZE 0.028 0.028 0.154
L.S. 10
BOND $H
LIST 6
FMAP 2
PLAN 20
simu 0.01
isor 0.01
WGHT    0.200000
FVAR       0.72913
CL1   3    0.605344    0.150393    0.859051    11.00000    0.04714    0.05144 =
         0.03212   -0.00291    0.01803   -0.00435
C1    1    0.373769    0.214692    0.821426    11.00000    0.05555    0.02308 =
         0.01213   -0.00324    0.01207   -0.01044
O1    5    0.038485    0.299801    0.843706    11.00000    0.06142    0.03555 =
         0.02841   -0.00664    0.03779   -0.01190
N1    4    0.082131    0.311958    0.715751    11.00000    0.06057    0.02270 =
         0.03925   -0.00889    0.04977   -0.00937
O2    5   -0.052556    0.363585    0.637621    11.00000    0.00441    0.00433 =
         0.00105    0.00344    0.00336    0.00561
C2    1    0.300414    0.260472    0.706459    11.00000    0.05430    0.01576 =
         0.02692   -0.00363    0.02476   -0.01151
N2    4    0.226921    0.237403    0.908236    11.00000    0.05571    0.02530 =
         0.01593   -0.00875    0.03089   -0.01285
C5    1    0.609986    0.248451    0.381323    11.00000    0.02734    0.01469 =
         0.01743   -0.00021    0.02002   -0.00597
C4    1    0.501882    0.251048    0.494240    11.00000    0.03973    0.01410 =
         0.01649   -0.00190    0.01453   -0.01096
C3    1    0.412455    0.255682    0.592694    11.00000    0.05391    0.01913 =
         0.02158   -0.00412    0.02596   -0.01073
C8    1    0.817417    0.236065    0.157085    11.00000    0.05872    0.02991 =
         0.03072   -0.00822    0.03408   -0.01363
AFIX  43
H8    2    0.889080    0.230661    0.079929    11.00000   -1.20000
AFIX   0
C7    1    0.924070    0.190723    0.258511    11.00000    0.03748    0.04117 =
         0.04998   -0.01463    0.02879   -0.00850
AFIX  43
H7    2    1.070962    0.152886    0.252237    11.00000   -1.20000
AFIX   0
C6    1    0.826721    0.196832    0.375158    11.00000    0.03058    0.03463 =
         0.03492   -0.00413    0.01117   -0.00186
AFIX  43
H6    2    0.905053    0.167044    0.447163    11.00000   -1.20000
AFIX   0
C9    1    0.607272    0.290165    0.161551    11.00000    0.05917    0.03019 =
         0.01973   -0.00295    0.01324   -0.00864
AFIX  43
H9    2    0.533422    0.322780    0.087769    11.00000   -1.20000
AFIX   0
C10   1    0.501057    0.297931    0.272250    11.00000    0.03611    0.02799 =
         0.02038   -0.00171    0.01510   -0.00502
AFIX  43
H10   2    0.354047    0.336740    0.275007    11.00000   -1.20000
AFIX   0
HKLF 4




REM  AA1010PTLCa_0bm_a.res in P-1
REM R1 =  0.1618 for     969 Fo > 4sig(Fo)  and  0.2031 for all    1548 data
REM    136 parameters refined using    186 restraints

END

WGHT      0.2000      0.0000

REM Highest difference peak  2.454,  deepest hole -1.035,  1-sigma level  0.263
Q1    1   0.4719  0.1827  0.8176  11.00000  0.05    1.23
Q2    1   0.1697  0.2807  0.7480  11.00000  0.05    1.09
Q3    1   0.9835  0.1594  0.3065  11.00000  0.05    1.09
Q4    1   0.7194  0.2771  0.1393  11.00000  0.05    1.01
Q5    1   0.6862  0.2414  0.3901  11.00000  0.05    1.00
Q6    1   0.9059  0.2152  0.1960  11.00000  0.05    1.00
Q7    1   0.1450  0.2596  0.8827  11.00000  0.05    0.99
Q8    1   0.4046  0.2195  0.7407  11.00000  0.05    0.99
Q9    1   0.7044  0.0595  0.9391  11.00000  0.05    0.86
Q10   1   0.5326  0.3004  0.1723  11.00000  0.05    0.72
Q11   1   0.3694  0.2095  0.9437  11.00000  0.05    0.72
Q12   1   0.4394  0.2558  0.2777  11.00000  0.05    0.67
Q13   1   0.3456  0.1351  0.9986  11.00000  0.05    0.63
Q14   1   0.2916  0.2161  0.8046  11.00000  0.05    0.61
Q15   1   0.4485  0.2415  0.9253  11.00000  0.05    0.61
Q16   1   0.5368 -0.0166  0.8439  11.00000  0.05    0.60
Q17   1   0.5260  0.2407  0.6097  11.00000  0.05    0.57
Q18   1   0.7786  0.3346  0.0251  11.00000  0.05    0.55
Q19   1   0.0693  0.4232  0.5255  11.00000  0.05    0.53
Q20   1   0.8682  0.1593  0.4077  11.00000  0.05    0.53
;
_shelx_res_checksum              63848
_shelx_hkl_file
;
  -1   0   0  139.49    6.20
  -1   0   0  145.99    5.70
  -2   0   0  856.21   32.20
  -2   0   0  893.01   31.20
  -3   0   0   40.00    4.00
  -3   0   0   41.90    4.60
  -4   0   0   73.89    6.00
  -4   0   0   75.39    6.80
  -5   0   0   60.19    7.10
  -5   0   0   63.69    8.50
  -6   0   0   20.10    5.80
  -7   0   0   20.30    6.40
  -7   1   0    9.70    5.30
  -6   1   0   47.60    8.50
  -5   1   0   33.60    6.90
  -4   1   0   -0.60    1.90
  -4   1   0    1.90    2.80
  -3   1   0  220.08    9.90
  -2   1   0   21.10    2.20
  -1   1   0  525.65   20.50
   0  -1   0    0.60    0.60
   0   1   0    0.50    2.40
   0   1   0    0.20    1.20
  -1  -1   0   74.59    3.00
  -1  -1   0   71.79    3.90
   1   1   0   64.69    5.70
  -2  -1   0  128.49    6.10
  -2  -1   0  127.49    6.40
  -3  -1   0  265.37   12.10
  -3  -1   0  278.27   12.30
  -4  -1   0  213.38   11.40
  -4  -1   0  228.48   11.30
  -5  -1   0   15.50    4.00
  -5  -1   0   12.80    4.00
  -6  -1   0   21.80    5.50
  -6  -1   0   19.80    5.30
  -7  -1   0    0.20    3.40
  -6   2   0   -0.20    4.10
  -5   2   0    2.30    4.10
  -4   2   0   76.29   10.00
  -3   2   0   42.70    6.90
  -2   2   0   18.70    4.20
   1  -2   0    0.30    0.70
  -1   2   0    2.80    2.70
   0  -2   0 9999.00  337.27
   0   2   0 9784.02  339.47
  -1  -2   0  747.63   27.00
   1   2   0  741.93   31.90
  -2  -2   0  237.38    9.10
  -2  -2   0  240.48   10.60
  -3  -2   0  114.69    6.90
  -3  -2   0  101.19    5.70
  -4  -2   0    4.20    2.50
  -4  -2   0    2.70    2.00
  -5  -2   0   73.49    7.80
  -5  -2   0   63.99    6.30
  -6  -2   0    5.80    3.70
  -6  -2   0    3.90    3.70
  -7  -2   0   -0.40    4.00
  -6   3   0    5.60    6.10
  -5   3   0   88.39   12.80
  -4   3   0   13.70    5.60
  -3   3   0    5.80    4.30
  -2   3   0  155.88   11.50
   1  -3   0   34.00    3.00
  -1   3   0   30.30    5.70
  -1   3   0   37.80    8.70
   0  -3   0   -0.10    1.30
   0   3   0    1.60    3.20
   0   3   0   -2.50    4.90
  -1  -3   0  628.54   23.80
   1   3   0  628.74   25.20
   1   3   0  629.04   30.50
  -2  -3   0   91.69    6.30
   2   3   0  110.79   12.80
  -3  -3   0   48.90    5.40
  -3  -3   0   35.40    2.70
  -4  -3   0  313.67   13.60
  -4  -3   0  330.87   15.70
  -5  -3   0    4.70    3.10
  -6  -3   0   21.70    5.50
  -7  -3   0    1.90    4.10
  -5   4   0   15.50    6.90
  -4   4   0    0.10    4.70
  -3   4   0    3.10    4.60
  -2   4   0   -5.40    4.70
  -2   4   0   -2.50    3.40
  -1   4   0    8.70    4.80
  -1   4   0    9.20    6.60
   0  -4   0  228.58   10.50
   0   4   0  214.08   14.10
   0   4   0  217.88   17.80
  -1  -4   0  346.67   14.90
   1   4   0  346.57   17.50
   1   4   0  316.17   22.00
  -2  -4   0  280.17   13.60
   2   4   0  305.27   20.80
  -3  -4   0  241.88   13.00
   3   4   0  279.87   20.20
  -4  -4   0    2.60    2.90
  -5  -4   0    0.00    3.20
  -6  -4   0    4.00    4.00
  -7  -4   0    0.30    4.40
  -4   5   0    9.90    7.50
  -4   5   0   10.50    6.90
  -3   5   0   10.00    8.00
  -3   5   0    9.60    6.50
  -2   5   0   64.99   10.90
  -2   5   0   49.60   12.00
  -1   5   0  114.59   11.90
  -1   5   0   90.89   15.60
   0  -5   0    3.20    2.80
   0   5   0   14.30    8.00
   0   5   0    6.00    5.20
  -1  -5   0   57.49    6.30
   1   5   0   38.70    9.90
  -2  -5   0   -0.10    2.50
   2   5   0   -2.20    5.80
  -3  -5   0   57.29    7.00
   3   5   0   72.39   14.00
  -4  -5   0   20.90    5.10
  -5  -5   0    2.70    3.90
  -6  -5   0   25.00    6.50
  -3   6   0    1.20    5.60
  -3   6   0    6.50    7.70
  -2   6   0   46.60   13.30
  -1   6   0   22.30   10.70
   0   6   0   30.00   10.60
  -1  -6   0   56.99    7.10
   1   6   0   38.10   10.50
  -2  -6   0  306.47   16.00
   2   6   0  298.77   24.50
  -3  -6   0   17.00    4.80
   3   6   0   26.70   10.50
  -4  -6   0   13.60    4.90
  -5  -6   0   15.80    5.60
  -6  -6   0    6.70    5.10
  -1   7   0   57.89   14.70
   0   7   0   35.50   11.80
   1   7   0   11.50   10.00
  -2  -7   0    1.00    6.00
   2   7   0    0.60    7.00
  -3  -7   0   -1.40    3.60
   3   7   0   -2.00    7.90
  -4  -7   0    9.90    5.00
   4   7   0    9.20    9.60
  -4  -7   1   11.60    4.90
   3   7  -1   11.60   10.00
  -3  -7   1    8.40    4.30
   2   7  -1   10.40    9.80
  -2  -7   1    5.20    4.30
   1   7  -1    0.80    7.90
   0   7  -1    7.70    7.60
  -1   7  -1   -2.80    7.50
  -6  -6   1    2.90    4.60
  -5  -6   1    2.10    4.00
  -4  -6   1   60.29    8.00
   3   6  -1   -6.00    7.70
  -3  -6   1    0.30    3.00
   2   6  -1   11.70    8.70
  -2  -6   1   -0.50    2.60
   1   6  -1    2.00    7.30
  -1  -6   1    7.80    3.20
   0   6  -1   26.70   10.60
  -1   6  -1   49.90   12.70
  -2   6  -1   16.90    9.70
  -3   6  -1   12.50    8.70
  -3   6  -1    4.30    7.20
  -6  -5   1   24.50    6.30
  -5  -5   1   88.69   10.00
  -4  -5   1    9.00    3.80
   3   5  -1    7.80    7.50
  -3  -5   1    9.60    3.50
   2   5  -1  134.29   18.70
  -2  -5   1  122.89    8.20
   1   5  -1   39.20   10.30
  -1  -5   1   47.60    5.20
   0   5  -1   17.40    8.10
   0   5  -1   15.40    8.30
   0  -5   1   22.50    3.60
  -1   5  -1    2.90    7.50
  -1   5  -1   -1.50    5.30
  -2   5  -1    1.30    6.70
  -2   5  -1    5.70    6.10
  -3   5  -1   -0.80    5.90
  -3   5  -1    1.40    6.10
  -4   5  -1   49.70   12.00
  -4   5  -1   54.79   12.60
  -7  -4   1    4.20    4.60
  -6  -4   1   40.80    7.20
  -5  -4   1    0.10    3.10
  -4  -4   1    6.70    3.10
  -3  -4   1  246.98   12.50
   2   4  -1    2.90    6.50
  -2  -4   1    0.20    1.80
   1   4  -1  501.15   28.20
   1   4  -1  431.86   23.10
  -1  -4   1  469.15   18.50
   0   4  -1   35.10    8.40
   0   4  -1   32.70    9.10
   0  -4   1   35.80    3.30
  -1   4  -1   97.59   12.90
  -1   4  -1  115.29   15.60
   1  -4   1  121.19    6.40
  -2   4  -1  105.89   12.20
  -2   4  -1  104.09   14.80
  -3   4  -1  115.19   15.20
  -3   4  -1   94.89   14.00
  -4   4  -1   15.10    7.30
  -5   4  -1    3.50    6.00
  -7  -3   1   44.10    8.00
  -6  -3   1   28.10    5.60
  -5  -3   1   26.10    5.00
  -4  -3   1   47.70    4.00
  -4  -3   1   49.20    5.60
  -3  -3   1   53.29    3.40
  -3  -3   1   52.49    4.80
   2   3  -1    0.90    5.30
  -2  -3   1    0.40    1.60
   1   3  -1   63.79    7.90
   1   3  -1  104.89   13.30
  -1  -3   1   82.99    4.80
   0   3  -1  172.08   14.80
   0   3  -1  185.28   14.10
   0  -3   1  186.78    7.80
  -1   3  -1   18.70    6.60
  -1   3  -1   18.40    6.10
   1  -3   1   18.10    1.80
  -2   3  -1  265.37   17.90
  -2   3  -1  252.37   16.90
  -3   3  -1    5.60    5.10
  -4   3  -1   12.90    6.40
  -5   3  -1    6.70    5.80
  -6   3  -1    3.00    5.60
  -7  -2   1    3.10    4.00
  -6  -2   1   57.49    6.70
  -6  -2   1   71.99    8.20
  -5  -2   1   39.20    5.30
  -5  -2   1   26.70    4.50
  -4  -2   1   90.69    6.40
  -4  -2   1   94.69    6.20
  -3  -2   1  329.17   13.20
  -3  -2   1  313.57   13.80
  -2  -2   1  267.27   11.20
   1   2  -1 4605.74  164.28
  -1  -2   1 4730.83  158.28
   0   2  -1   73.19    9.30
   0   2  -1   61.99    8.40
   0  -2   1   51.89    2.90
  -1   2  -1   11.40    4.60
  -1   2  -1   11.00    4.80
   1  -2   1   17.00    1.30
  -2   2  -1  208.18   13.60
   2  -2   1  201.28    7.30
  -3   2  -1  262.57   16.20
  -4   2  -1    7.00    5.00
  -5   2  -1   96.89   11.10
  -6   2  -1    0.40    4.50
  -7  -1   1   73.59    9.90
  -6  -1   1    0.40    2.90
  -6  -1   1    1.00    3.00
  -5  -1   1   55.09    6.20
  -5  -1   1   53.59    5.80
  -4  -1   1   96.89    6.20
  -4  -1   1   91.59    6.60
  -3  -1   1   61.89    4.60
  -3  -1   1   60.19    4.30
  -2  -1   1  847.72   30.00
  -2  -1   1  843.12   30.30
  -1  -1   1  171.98    7.00
   0   1  -1  117.49    8.20
   0   1  -1  106.89    9.20
   0  -1   1  110.39    4.40
  -1   1  -1   43.70    6.20
   1  -1   1   34.00    1.80
  -3   1  -1  112.99    6.40
  -4   1  -1   26.10    3.80
  -5   1  -1   15.60    5.50
  -6   1  -1    5.20    4.70
  -7   1  -1   30.90    8.70
  -7   0   1   -2.00    3.30
  -6   0   1   -1.70    3.00
  -5   0   1   64.79    8.10
  -5   0   1   55.49    6.30
  -4   0   1   16.60    3.70
  -4   0   1   20.50    3.10
  -3   0   1   17.40    2.40
  -3   0   1   14.30    3.30
  -2   0   1  649.93   22.40
  -2   0   1  614.24   23.90
  -1   0   1 2194.18   75.89
  -1   0   1 2167.78   74.79
   0   0   1    5.30    0.60
  -1   0  -1  550.24   20.40
  -2   0  -1   23.20    4.20
  -2   0  -1   18.30    3.30
  -3   0  -1   29.50    5.00
  -3   0  -1   29.00    4.30
  -4   0  -1   11.40    4.00
  -4   0  -1   12.40    3.60
  -5   0  -1   42.20    7.20
  -5   0  -1   30.70    5.90
  -6   0  -1   24.80    6.50
  -7   0  -1   17.20    6.50
  -7   1   1    5.80    4.70
  -6   1   1   20.40    6.30
  -5   1   1   33.20    6.40
  -4   1   1   18.90    4.70
  -4   1   1   14.30    2.80
  -3   1   1  368.66   14.80
  -3   1   1  411.96   17.80
  -2   1   1  182.98    9.20
  -2   1   1  172.58    6.70
  -1   1   1  132.29    6.80
  -1   1   1  139.59    5.00
  -1  -1  -1    3.90    3.40
  -1  -1  -1    1.80    2.30
   1   1   1    2.40    2.50
  -2  -1  -1    3.70    2.10
  -2  -1  -1   -1.00    1.90
  -3  -1  -1  564.44   23.30
  -3  -1  -1  560.44   23.00
  -4  -1  -1   27.30    4.90
  -4  -1  -1   24.60    4.80
  -5  -1  -1   20.70    4.90
  -5  -1  -1   19.00    4.80
  -6  -1  -1   70.19    9.80
  -6  -1  -1   68.39    9.40
  -7  -1  -1    1.70    4.00
  -6   2   1    1.20    4.00
  -5   2   1   -0.40    3.40
  -4   2   1   47.10    7.50
  -3   2   1   38.10    6.10
  -2   2   1   65.79    5.90
   1  -2  -1  187.68    7.50
   0  -2  -1   96.29    6.50
   0   2   1   97.59    5.00
  -1  -2  -1 8459.55  285.07
   1   2   1 7936.31  281.57
  -2  -2  -1   -1.80    1.90
  -2  -2  -1    2.70    2.30
   2   2   1   -1.60    2.80
  -3  -2  -1   10.00    3.30
  -3  -2  -1   13.40    2.80
  -4  -2  -1   15.20    3.40
  -4  -2  -1   17.60    4.20
  -5  -2  -1   18.80    4.70
  -5  -2  -1   25.30    5.10
  -6  -2  -1   17.00    5.10
  -6  -2  -1   20.70    5.90
  -7  -2  -1    3.50    4.90
  -6   3   1   -1.20    5.10
  -5   3   1   10.20    5.30
  -4   3   1   27.90    7.00
  -3   3   1  120.49   10.10
  -2   3   1  211.78   12.50
   1  -3  -1    3.20    2.50
  -1   3   1    9.60    3.20
   0  -3  -1   47.70    5.40
   0   3   1   42.50    4.30
   0   3   1   38.10    8.40
  -1  -3  -1   78.19    6.30
   1   3   1   91.69   11.80
   1   3   1   93.89    5.20
  -2  -3  -1  138.69    8.60
   2   3   1  127.79   11.60
  -3  -3  -1   25.50    3.30
  -3  -3  -1   29.80    4.80
  -4  -3  -1   39.50    5.60
  -4  -3  -1   31.90    4.10
  -5  -3  -1    4.20    3.50
  -6  -3  -1   20.70    5.70
  -7  -3  -1   36.20    7.90
  -5   4   1    9.80    6.50
  -4   4   1   31.60    8.10
  -3   4   1   26.90    7.10
  -2   4   1    9.20    4.50
  -1   4   1  272.87   15.30
  -1   4   1  302.07   21.60
   0  -4  -1   -1.60    2.60
   0   4   1   -1.90    5.80
   0   4   1   -1.30    2.20
  -1  -4  -1 4725.63  169.48
   1   4   1 5030.00  178.38
   1   4   1 4979.70  168.78
  -2  -4  -1  112.09    8.20
   2   4   1  118.49   14.10
  -3  -4  -1   70.79    7.30
   3   4   1   88.49   12.90
  -4  -4  -1   17.80    4.50
  -5  -4  -1   31.40    6.40
  -6  -4  -1   22.30    6.50
  -7  -4  -1   -5.00    3.60
  -4   5   1    7.00    6.00
  -3   5   1    4.90    7.00
  -3   5   1   -0.70    4.20
  -2   5   1  125.69   11.60
  -2   5   1  103.29   16.10
  -1   5   1    3.40    7.20
  -1   5   1    4.20    4.10
   0  -5  -1   95.59   10.70
   0   5   1   71.99    8.40
   0   5   1   88.49   15.20
  -1  -5  -1   25.60    5.40
   1   5   1   33.00   10.80
  -2  -5  -1   13.60    4.20
   2   5   1   11.20    7.50
  -3  -5  -1   40.40    6.50
   3   5   1   37.80   10.20
  -4  -5  -1   18.30    5.40
  -5  -5  -1   44.70    7.60
  -6  -5  -1    5.40    4.90
  -7  -5  -1    2.30    5.50
  -3   6   1   23.80    7.80
  -3   6   1   17.50    9.80
  -2   6   1    9.50    9.00
  -1   6   1    3.10    8.30
   0   6   1    8.30    8.50
  -1  -6  -1  569.94   26.80
   1   6   1  567.44   35.30
  -2  -6  -1  285.07   16.40
   2   6   1  262.77   22.10
  -3  -6  -1    1.70    4.10
   3   6   1   12.40    9.40
  -4  -6  -1   14.20    5.40
   4   6   1   14.80    9.10
  -5  -6  -1    3.60    4.80
  -6  -6  -1   12.90    6.40
  -1   7   1    3.00    8.20
   0   7   1   -1.20    7.90
   1   7   1   -9.90    6.40
   2   7   1   51.29   13.10
  -3  -7  -1   14.40    5.80
   3   7   1    0.80    8.10
  -4  -7  -1   -3.60    3.90
   4   7   1    1.00    8.20
  -5  -7  -1   53.59    9.90
  -4  -7   2    7.00    4.10
   3   7  -2   -0.30    9.30
  -3  -7   2   23.10    5.30
   2   7  -2    4.10    9.50
  -2  -7   2    2.50    3.70
   1   7  -2   28.80   12.40
   0   7  -2   12.90    9.90
  -1   7  -2    2.40    8.00
  -5  -6   2    7.10    4.20
  -4  -6   2   38.40    6.50
   3   6  -2    9.40    9.90
  -3  -6   2    5.30    3.30
   2   6  -2    9.90    9.20
  -2  -6   2    7.90    3.30
   1   6  -2   47.50   12.30
  -1  -6   2   46.40    5.60
   0   6  -2   -6.40    5.70
  -1   6  -2   12.60    9.00
  -2   6  -2    7.30    8.30
  -3   6  -2    1.80    7.70
  -3   6  -2   10.40    8.70
  -6  -5   2   -1.40    3.60
  -5  -5   2    1.90    3.40
  -4  -5   2    1.50    2.90
  -3  -5   2   -0.50    2.20
   2   5  -2   10.40    9.00
  -2  -5   2    5.90    2.60
   1   5  -2  102.59   16.70
  -1  -5   2   81.99    5.90
   0   5  -2   31.30   10.20
   0   5  -2   31.70   10.60
   0  -5   2   37.30    4.10
  -1   5  -2   81.29   14.30
  -1   5  -2   74.79   14.10
  -2   5  -2   -3.20    6.00
  -3   5  -2    1.70    6.90
  -3   5  -2    4.90    6.90
  -4   5  -2    7.70    7.70
  -4   5  -2    5.10    7.40
  -7  -4   2   -0.60    3.90
  -6  -4   2   29.10    6.30
  -5  -4   2  146.29   10.40
  -4  -4   2   38.50    5.40
  -3  -4   2   21.00    3.70
   2   4  -2  172.98   17.70
  -2  -4   2  146.19    8.10
   1   4  -2  139.39   17.20
   1   4  -2   73.49   11.30
  -1  -4   2  109.59    6.00
   0   4  -2  202.38   17.70
   0   4  -2  198.88   17.70
   0  -4   2  204.78    9.00
  -1   4  -2   35.00   10.20
  -1   4  -2   30.10    9.00
   1  -4   2   34.10    2.80
  -2   4  -2   34.90   10.30
  -2   4  -2   32.50    9.10
  -3   4  -2   14.70    7.20
  -3   4  -2   13.90    8.30
  -4   4  -2   93.19   13.90
  -4   4  -2   89.89   15.90
  -5   4  -2   -1.20    6.60
  -7  -3   2    9.50    4.60
  -6  -3   2   47.10    6.90
  -5  -3   2    1.90    2.80
  -4  -3   2   14.40    3.40
  -4  -3   2   22.10    3.40
  -3  -3   2  184.18    9.50
  -2  -3   2   36.30    3.50
   1   3  -2   30.90    7.60
  -1  -3   2   22.20    2.70
   0   3  -2   -0.50    5.90
   0   3  -2    6.40    5.80
   0  -3   2    1.70    1.10
  -1   3  -2  333.97   21.60
  -1   3  -2  358.56   23.20
   1  -3   2  350.66   12.90
  -2   3  -2   27.40    8.30
  -2   3  -2   24.40    7.70
   2  -3   2   27.00    2.00
  -3   3  -2  209.48   16.10
  -3   3  -2  213.68   17.90
  -4   3  -2    9.20    6.70
  -5   3  -2   11.40    7.00
  -6   3  -2   32.50    9.90
  -7  -2   2   32.50    6.30
  -6  -2   2   17.40    4.40
  -6  -2   2   16.60    4.40
  -5  -2   2   57.39    6.40
  -5  -2   2   53.19    5.60
  -4  -2   2   34.40    4.40
  -4  -2   2   37.70    4.80
  -3  -2   2  139.79    7.40
  -3  -2   2  135.69    7.30
  -2  -2   2   10.80    2.00
   1   2  -2  104.59   10.10
  -1  -2   2  110.39    5.30
   0   2  -2  258.37   16.10
   0   2  -2  259.37   18.40
   0  -2   2  275.57   10.20
  -1   2  -2  183.08   14.70
  -1   2  -2  132.69   11.50
   1  -2   2  137.49    5.70
  -2   2  -2  111.49   13.60
   2  -2   2  107.69    4.70
  -3   2  -2   31.30    7.50
   3  -2   2   33.70    2.50
  -4   2  -2   10.60    5.80
  -5   2  -2   77.19   12.50
  -6   2  -2   21.20    8.00
  -7  -1   2    0.90    3.10
  -6  -1   2   17.20    4.20
  -6  -1   2   19.40    5.00
  -5  -1   2  110.19    8.40
  -5  -1   2  109.59    7.50
  -4  -1   2  204.68    9.80
  -4  -1   2  196.78   10.80
  -3  -1   2  101.79    5.70
  -3  -1   2  103.39    6.40
  -2  -1   2    1.30    1.10
  -1  -1   2  874.11   30.60
   0   1  -2  215.68   15.30
   0   1  -2  233.58   12.10
   0  -1   2  247.28    8.90
  -1   1  -2   14.80    6.70
  -1   1  -2   11.20    4.10
   1  -1   2   10.70    1.40
  -2   1  -2   51.89    8.10
  -3   1  -2  134.79   11.70
  -4   1  -2    2.30    2.20
  -4   1  -2    8.70    4.90
  -5   1  -2  101.39   11.30
  -6   1  -2    4.00    5.20
  -7   1  -2    4.10    5.00
  -7   0   2   55.99    9.60
  -6   0   2    2.20    3.30
  -5   0   2   42.80    5.00
  -5   0   2   56.59    7.70
  -4   0   2   44.70    5.90
  -4   0   2   48.00    4.00
  -3   0   2    0.80    1.10
  -3   0   2   -1.00    1.50
  -2   0   2 1923.41   68.29
  -2   0   2 1947.41   66.29
  -1   0   2  139.49    5.80
   0   0   2 1245.08   42.70
  -1   0  -2   59.79    5.30
  -2   0  -2  120.29    7.30
  -3   0  -2  120.09    8.10
  -4   0  -2  136.69    9.50
  -5   0  -2   93.39   10.10
  -5   0  -2   75.69    8.80
  -6   0  -2    1.00    4.10
  -7   0  -2   65.69   11.00
  -7   1   2   -0.40    3.80
  -6   1   2   61.79    9.40
  -5   1   2  107.69    9.60
  -4   1   2   51.99    6.70
  -4   1   2   48.50    4.00
  -3   1   2  192.08    7.90
  -3   1   2  195.88   10.90
  -2   1   2   18.60    1.60
  -2   1   2   19.70    3.60
  -1   1   2    0.40    0.70
  -1   1   2    2.80    1.80
   0  -1  -2  180.38    9.00
   1   1   2  520.15   20.30
  -2  -1  -2   -0.40    2.70
  -2  -1  -2    3.20    3.60
  -3  -1  -2  139.19   10.20
  -3  -1  -2  162.08   10.50
  -4  -1  -2   -2.10    2.70
  -4  -1  -2   -0.10    2.90
  -5  -1  -2   17.20    5.30
  -5  -1  -2   17.10    5.00
  -6  -1  -2   34.70    7.60
  -6  -1  -2   32.80    7.40
  -7  -1  -2   15.70    6.40
  -6   2   2   34.70    8.50
  -5   2   2   65.59    9.70
  -4   2   2   47.30    7.50
  -3   2   2   70.79    6.90
  -2   2   2  551.04   23.80
  -2   2   2  592.84   19.80
   1  -2  -2   53.49    4.10
   0   2   2 4488.05  154.48
  -1  -2  -2   17.80    4.70
   1   2   2   27.80    5.60
  -2  -2  -2   29.40    5.30
  -2  -2  -2   23.90    5.00
   2   2   2   30.50    4.90
  -3  -2  -2  213.38   12.90
  -3  -2  -2  204.68   11.60
  -4  -2  -2  252.67   14.00
  -4  -2  -2  285.97   15.90
  -5  -2  -2    1.80    3.10
  -5  -2  -2    2.40    3.90
  -6  -2  -2   47.50    8.40
  -6  -2  -2   38.20    7.40
  -7  -2  -2    5.20    5.70
  -6   3   2   84.49   14.00
  -5   3   2   -5.20    3.50
  -4   3   2   11.60    5.10
  -3   3   2  124.19   10.00
  -2   3   2   13.80    4.00
   1  -3  -2  153.98    8.00
   0  -3  -2  124.59   10.10
   0   3   2  149.69   13.40
   0   3   2  156.38    7.70
  -1  -3  -2    4.70    4.10
   1   3   2    7.90    1.50
   1   3   2    7.10    5.40
  -2  -3  -2   40.80    6.20
   2   3   2   42.80    7.50
  -3  -3  -2  191.18   11.20
  -3  -3  -2  193.58   12.50
   3   3   2  194.68   13.00
  -4  -3  -2   97.89    7.60
  -4  -3  -2   98.49    9.20
  -5  -3  -2   40.00    7.50
  -6  -3  -2   20.30    6.60
  -7  -3  -2    1.80    4.90
  -5   4   2    2.80    5.10
  -4   4   2   68.69   10.70
  -3   4   2   24.30    6.30
  -2   4   2    9.30    3.90
  -1   4   2   21.50    8.40
  -1   4   2   21.90    4.50
   0  -4  -2  150.68   12.20
   0   4   2  182.68    9.50
   0   4   2  175.98   16.40
  -1  -4  -2  171.18   12.90
   1   4   2  200.48   16.90
   1   4   2  217.18    9.40
  -2  -4  -2  124.19   10.40
   2   4   2  130.49   12.70
  -3  -4  -2   15.40    5.00
   3   4   2   10.20    5.80
  -4  -4  -2   24.80    5.70
  -5  -4  -2   24.90    6.20
  -6  -4  -2    9.60    5.50
  -7  -4  -2   15.30    6.70
  -4   5   2    4.50    5.30
  -3   5   2   -1.10    4.00
  -2   5   2   40.00    7.60
  -2   5   2   23.10    9.10
  -1   5   2   41.30    6.80
  -1   5   2   40.30   11.40
   0  -5  -2    2.20    6.90
   0   5   2    2.20    3.00
   0   5   2    2.80    6.60
  -1  -5  -2  132.89   12.10
   1   5   2  136.39   17.90
  -2  -5  -2    0.90    3.60
   2   5   2   -0.70    5.30
  -3  -5  -2    1.00    3.90
   3   5   2    1.10    5.90
  -4  -5  -2  121.99   11.20
  -5  -5  -2   29.70    7.50
  -6  -5  -2    1.70    5.00
  -7  -5  -2   15.10    6.80
  -3   6   2   11.30    6.00
  -3   6   2    2.00    9.00
  -2   6   2   21.00   11.00
  -1   6   2   -1.30    8.50
   0   6   2   51.29   12.90
  -1  -6  -2   68.49   11.10
   1   6   2   49.90   12.00
  -2  -6  -2  376.16   21.40
   2   6   2  371.06   26.70
  -3  -6  -2    9.60    5.10
   3   6   2    7.80    7.30
  -4  -6  -2   -0.60    4.50
   4   6   2   -2.70    6.20
  -5  -6  -2   -4.40    4.30
  -6  -6  -2   -1.60    4.90
  -1   7   2   26.40   11.50
   0   7   2   -1.40    8.50
   1   7   2    6.40    8.00
   2   7   2   28.50   11.70
  -3  -7  -2    1.60    5.00
   3   7   2    3.00    7.90
  -4  -7  -2    5.50    5.50
   4   7   2    5.00    8.80
  -5  -7  -2    0.30    5.70
  -3  -7   3   75.99    8.60
   2   7  -3   18.20   11.40
  -2  -7   3    9.50    5.00
   1   7  -3   17.80   10.60
   0   7  -3   18.70   10.50
  -5  -6   3    1.50    3.50
  -4  -6   3    5.50    3.50
  -3  -6   3   23.00    4.60
   2   6  -3   20.50   11.10
  -2  -6   3   22.60    4.30
   1   6  -3   73.29   15.80
  -1  -6   3   79.29    6.30
   0   6  -3   -0.60    6.80
  -1   6  -3   47.20   12.70
  -2   6  -3   22.80   10.20
  -6  -5   3    7.90    4.80
  -5  -5   3    2.60    3.30
  -4  -5   3   18.20    4.40
  -3  -5   3  216.48   11.70
   2   5  -3   32.90   12.00
  -2  -5   3   27.10    4.10
   1   5  -3    4.40    7.80
  -1  -5   3    2.00    1.80
   0   5  -3   33.00   11.70
   0   5  -3   41.00   11.60
   0  -5   3   47.00    4.10
  -1   5  -3   20.80    8.90
  -1   5  -3   21.20   11.00
  -2   5  -3  108.69   16.40
  -2   5  -3  105.09   18.20
  -3   5  -3   -3.80    6.20
  -3   5  -3   -1.40    8.00
  -4   5  -3    3.30    8.00
  -6  -4   3  155.98   12.00
  -5  -4   3   20.10    4.60
  -4  -4   3   21.10    4.00
  -3  -4   3    5.70    2.40
  -2  -4   3    7.40    2.40
   1   4  -3  293.07   22.80
  -1  -4   3  306.07   12.90
   0   4  -3    8.90    7.30
   0   4  -3    3.80    7.60
   0  -4   3    4.40    1.70
  -1   4  -3   -0.20    7.50
  -1   4  -3    2.20    6.30
   1  -4   3    1.40    1.30
  -2   4  -3   66.49   12.30
  -2   4  -3   57.69   13.70
  -3   4  -3   38.00   12.30
  -3   4  -3   56.79   12.10
  -4   4  -3   53.29   13.50
  -5   4  -3    6.70    8.10
  -7  -3   3    0.70    3.40
  -6  -3   3   97.19    8.80
  -5  -3   3   18.10    4.40
  -4  -3   3   12.90    3.30
  -4  -3   3   21.50    3.80
  -3  -3   3   80.09    5.70
  -2  -3   3  484.65   19.10
   1   3  -3   21.40    7.70
  -1  -3   3   26.60    2.80
   0   3  -3  127.09   13.10
   0   3  -3  152.88   18.80
   0  -3   3  127.69    6.00
  -1   3  -3   88.19   15.40
  -1   3  -3   82.59   12.30
   1  -3   3   81.19    4.20
  -2   3  -3   82.19   12.30
  -2   3  -3   85.49   15.60
   2  -3   3   74.09    3.90
  -3   3  -3   20.00    7.40
  -3   3  -3   17.70    9.10
  -4   3  -3   15.10    6.70
  -4   3  -3   18.70    8.90
  -5   3  -3    4.30    7.10
  -7  -2   3    2.10    3.30
  -6  -2   3    6.20    3.30
  -6  -2   3    4.60    3.40
  -5  -2   3    7.80    3.30
  -5  -2   3    4.20    2.70
  -4  -2   3   43.90    4.40
  -4  -2   3   41.10    4.70
  -3  -2   3  416.46   17.10
  -2  -2   3   60.79    4.20
  -1  -2   3    2.10    1.20
   0   2  -3  103.89   14.80
   0   2  -3  129.09   10.70
   0  -2   3  112.99    5.30
  -1   2  -3    6.70    5.30
  -1   2  -3   10.10    8.20
   1  -2   3    9.70    1.50
  -2   2  -3   64.09   12.60
  -2   2  -3   63.79    9.10
   2  -2   3   57.79    3.50
  -3   2  -3  103.99   14.90
   3  -2   3  129.39    6.20
  -4   2  -3  132.69   15.20
  -5   2  -3   13.50    7.20
  -6   2  -3   35.10   10.00
  -7  -1   3   61.89    9.20
  -6  -1   3   89.79    8.60
  -6  -1   3   90.59    7.80
  -5  -1   3    2.80    3.00
  -5  -1   3    6.70    2.60
  -4  -1   3   30.50    4.80
  -4  -1   3   23.30    3.30
  -3  -1   3    5.90    2.60
  -3  -1   3    5.40    1.70
  -2  -1   3  133.39    6.40
  -1  -1   3    2.20    1.10
   0  -1   3  884.41   31.00
  -1   1  -3  185.78   16.80
  -1   1  -3  173.28    9.70
   1  -1   3  130.39    6.30
  -2   1  -3  530.35   22.40
  -2   1  -3  470.65   27.60
  -3   1  -3   11.90    3.10
  -3   1  -3   32.50    7.90
  -4   1  -3   13.00    6.20
  -4   1  -3    3.90    2.60
  -5   1  -3   19.20    7.10
  -6   1  -3    8.90    6.50
  -7   1  -3   -4.90    4.50
  -7   0   3    9.00    4.90
  -6   0   3    1.00    3.00
  -5   0   3   45.80    4.70
  -5   0   3   46.60    7.10
  -4   0   3  357.66   14.50
  -4   0   3  347.57   17.40
  -3   0   3  186.98   10.70
  -3   0   3  188.28    8.40
  -2   0   3    2.10    1.10
  -1   0   3  493.25   18.00
   0   0   3  315.67   12.10
  -2   0  -3   39.80    8.60
  -3   0  -3  178.98   14.10
  -4   0  -3    2.80    2.80
  -4   0  -3    9.80    5.50
  -5   0  -3   60.99    7.50
  -6   0  -3   -1.50    4.30
  -7   0  -3    0.50    4.90
  -6   1   3    5.00    3.90
  -5   1   3   38.30    7.10
  -4   1   3    6.70    3.30
  -4   1   3    1.70    1.40
  -3   1   3    7.60    3.30
  -3   1   3    6.40    1.40
  -2   1   3  394.86   14.80
  -2   1   3  399.06   18.10
  -1   1   3   46.80    2.90
   0  -1  -3    0.70    2.60
   1   1   3   59.79    5.00
  -2  -1  -3  972.00   42.50
  -3  -1  -3   11.50    5.30
  -3  -1  -3   10.90    4.00
  -4  -1  -3  200.28   13.70
  -4  -1  -3  246.18   15.40
  -5  -1  -3   22.10    6.10
  -5  -1  -3   18.30    6.10
  -6  -1  -3   13.90    5.70
  -6  -1  -3    5.30    5.10
  -7  -1  -3   44.10    9.90
  -6   2   3   22.00    7.20
  -5   2   3   47.90    8.80
  -4   2   3  109.59    9.80
  -3   2   3  101.09    8.50
  -2   2   3   33.10    2.30
  -2   2   3   23.60    4.50
  -1   2   3   28.70    4.80
   0  -2  -3  111.79    7.70
   1   2   3  591.24   25.90
  -2  -2  -3  103.79    9.90
  -2  -2  -3  108.19   10.00
   2   2   3  106.39    7.40
  -3  -2  -3   39.10    7.10
  -3  -2  -3   31.30    6.70
  -4  -2  -3   -1.20    3.30
  -4  -2  -3   -2.10    3.60
  -5  -2  -3    2.20    4.70
  -5  -2  -3    2.40    4.00
  -6  -2  -3  107.89   13.40
  -6  -2  -3  106.99   10.80
  -7  -2  -3   16.30    7.40
  -6   3   3   13.90    6.90
  -5   3   3    3.00    4.70
  -4   3   3  111.99   10.80
  -3   3   3   63.99    8.40
  -2   3   3   77.89    7.20
   1  -3  -3    1.90    2.60
  -1   3   3   23.50    4.20
   0   3   3  396.46   16.70
  -1  -3  -3   18.40    5.80
   1   3   3   34.40    7.70
  -2  -3  -3    0.60    4.60
   2   3   3    1.80    3.60
  -3  -3  -3   76.19    8.50
  -3  -3  -3   64.99    9.10
   3   3   3   75.99    8.70
  -4  -3  -3   62.29    8.50
  -4  -3  -3  105.09   11.80
  -5  -3  -3   21.40    6.70
  -6  -3  -3   20.80    7.40
  -7  -3  -3    2.30    5.80
  -5   4   3    5.80    5.60
  -4   4   3   -2.60    3.60
  -3   4   3   80.09   10.70
  -2   4   3    0.70    2.80
  -1   4   3  401.96   18.50
   0  -4  -3   31.00    6.80
   0   4   3   54.39    4.70
   0   4   3   64.79   12.00
  -1  -4  -3   43.30    8.40
   1   4   3   68.69    4.30
   1   4   3   59.59   11.00
  -2  -4  -3   55.19    9.30
   2   4   3   65.09   10.40
  -3  -4  -3  114.79   13.10
   3   4   3   91.49   11.50
  -4  -4  -3   34.20    7.80
  -5  -4  -3   61.09   10.40
  -6  -4  -3   70.79   11.20
  -7  -4  -3   -4.60    4.80
  -4   5   3   65.39   11.60
  -3   5   3   22.10    6.60
  -2   5   3   39.80    7.00
  -1   5   3    6.80    3.40
  -1   5   3   -2.80    7.00
   0   5   3    6.30    7.00
   0   5   3    6.20    2.80
  -1  -5  -3   76.49   11.90
   1   5   3  101.29   15.80
  -2  -5  -3   66.09   10.70
   2   5   3   78.19   13.30
  -3  -5  -3    4.00    5.50
   3   5   3    1.00    5.50
  -4  -5  -3    5.20    5.40
   4   5   3   11.80    6.40
  -5  -5  -3   19.30    7.10
  -6  -5  -3    3.60    5.60
  -3   6   3    3.00    8.40
  -3   6   3    1.80    4.60
  -2   6   3    6.80    9.50
  -1   6   3   63.49   14.80
   0   6   3    2.30    7.80
  -1  -6  -3  179.48   24.00
   1   6   3  112.19   17.20
  -2  -6  -3    6.30    6.60
   2   6   3   -0.60    6.60
  -3  -6  -3   31.10    8.30
   3   6   3   40.40   10.50
  -4  -6  -3   44.70    9.30
   4   6   3   45.60   11.30
  -5  -6  -3   37.40    9.60
  -6  -6  -3   -3.80    5.20
  -1   7   3   -1.20    9.20
   0   7   3   25.60   11.80
   1   7   3   13.50    9.90
   2   7   3    2.90    7.80
  -3  -7  -3    3.50    6.60
   3   7   3   11.20    8.30
  -4  -7  -3    2.20    6.20
   4   7   3    6.90    8.20
  -5  -7  -3    3.80    5.90
   2   7  -4    6.40   11.40
  -2  -7   4   -0.70    3.80
   1   7  -4   -0.90    9.00
  -5  -6   4   -0.80    3.50
  -4  -6   4   15.90    4.60
  -3  -6   4   11.70    3.70
   2   6  -4   54.09   15.60
  -2  -6   4   63.09    5.90
   1   6  -4    0.80    8.40
  -1  -6   4    0.50    2.20
   0   6  -4    4.70    8.10
  -1   6  -4    1.50    7.10
  -2   6  -4   -2.50    6.70
  -6  -5   4   -0.10    3.60
  -5  -5   4    1.60    3.60
  -4  -5   4    4.50    3.10
  -3  -5   4  145.79    9.10
  -2  -5   4   21.00    3.60
   1   5  -4   65.59   14.40
  -1  -5   4   47.20    4.50
   0   5  -4   43.70   13.90
   0   5  -4   64.99   14.00
   0  -5   4   62.39    4.70
  -1   5  -4    0.40    6.60
  -1   5  -4   -1.70    9.40
  -2   5  -4    2.30    7.50
  -2   5  -4    5.40   10.30
  -3   5  -4   11.20   11.10
  -6  -4   4   62.39    8.80
  -5  -4   4  109.39    9.00
  -4  -4   4    8.80    3.20
  -3  -4   4   41.30    4.90
  -2  -4   4    0.10    1.60
   1   4  -4   15.30    8.80
  -1  -4   4   15.40    2.60
   0   4  -4   -6.50    8.20
   0   4  -4   -2.20    5.70
   0  -4   4    1.40    1.50
  -1   4  -4    0.90    9.30
  -1   4  -4    2.60    6.10
   1  -4   4    0.80    1.30
  -2   4  -4  189.58   17.80
  -2   4  -4  208.18   27.60
  -3   4  -4   27.90   14.00
  -3   4  -4   32.60   12.90
  -4   4  -4   49.60   14.30
  -6  -3   4    3.70    3.40
  -5  -3   4    1.10    2.60
  -4  -3   4   99.29    7.40
  -4  -3   4   86.59    6.80
  -3  -3   4   88.99    6.10
  -2  -3   4  438.16   17.50
  -1  -3   4  170.78    7.90
   0   3  -4   79.19   11.50
   0   3  -4   80.59   15.40
   0  -3   4   74.39    4.30
  -1   3  -4  296.37   20.10
  -1   3  -4  319.97   27.40
   1  -3   4  329.27   12.60
  -2   3  -4   58.89   10.90
  -2   3  -4   66.49   15.50
   2  -3   4   61.79    3.90
  -3   3  -4   33.90    9.10
  -3   3  -4   16.00    9.90
  -4   3  -4    4.80    8.50
  -5   3  -4   18.70    9.80
  -7  -2   4   22.20    5.60
  -6  -2   4  100.39    8.50
  -6  -2   4   99.99    9.10
  -5  -2   4  698.83   30.10
  -5  -2   4  723.63   28.90
  -4  -2   4    3.10    2.10
  -4  -2   4    1.30    2.60
  -3  -2   4    1.70    1.50
  -2  -2   4  221.18    9.80
  -1  -2   4   15.50    2.20
   0   2  -4  506.35   32.30
   0   2  -4  517.45   25.10
   0  -2   4  550.14   19.70
  -1   2  -4   -2.00    3.40
  -1   2  -4    2.80    8.50
   1  -2   4    1.40    1.10
  -2   2  -4  406.36   21.80
  -2   2  -4  395.06   28.80
   2  -2   4  390.66   15.50
  -3   2  -4  170.78   19.00
  -3   2  -4  211.68   15.00
   3  -2   4  189.78    9.00
  -4   2  -4  337.77   26.20
  -5   2  -4    8.90    8.10
  -6   2  -4    6.40    6.90
  -7  -1   4    6.00    4.50
  -6  -1   4   43.40    7.50
  -6  -1   4   40.80    5.80
  -5  -1   4   15.00    3.50
  -5  -1   4   15.20    4.50
  -4  -1   4   41.30    4.20
  -4  -1   4   48.10    6.80
  -3  -1   4   73.09    4.90
  -2  -1   4 1080.19   38.60
  -1  -1   4  230.58    9.60
   0  -1   4   17.40    2.20
  -1   1  -4  415.76   18.30
  -1   1  -4  468.45   30.70
   1  -1   4  451.85   16.90
  -2   1  -4   45.40   11.50
  -2   1  -4   65.69    7.30
  -3   1  -4  396.26   18.70
  -3   1  -4  352.86   25.40
  -4   1  -4    5.20    3.00
  -4   1  -4    5.90    6.60
  -5   1  -4   -3.30    5.10
  -6   1  -4   52.99   11.50
  -7   0   4    1.20    3.60
  -6   0   4   39.50    7.30
  -5   0   4  461.05   19.30
  -5   0   4  462.45   23.10
  -4   0   4  129.89    9.90
  -4   0   4  132.89    7.30
  -3   0   4   23.90    5.00
  -3   0   4   24.40    3.00
  -2   0   4    0.50    1.20
  -1   0   4    6.80    1.60
   0   0   4 1457.75   50.99
  -1   0  -4    5.40    7.40
  -1   0  -4    1.50    2.80
  -2   0  -4    3.10    3.00
  -2   0  -4    5.60    7.60
  -4   0  -4   29.50    5.30
  -4   0  -4   83.49   12.40
  -5   0  -4   87.79    8.20
  -6   0  -4   12.50    7.00
  -7   0  -4    2.70    5.60
  -6   1   4    6.20    4.40
  -5   1   4  179.68   13.50
  -4   1   4   19.00    5.00
  -4   1   4   19.90    2.70
  -3   1   4   74.19    4.50
  -3   1   4   89.59    8.00
  -2   1   4  271.47   11.50
  -2   1   4  310.17   15.40
  -1   1   4 1870.21   64.79
   0  -1  -4    0.90    2.70
  -1  -1  -4   39.20    5.50
  -2  -1  -4   11.30    8.40
  -2  -1  -4    3.50    3.40
  -3  -1  -4   56.49   10.30
  -4  -1  -4   46.30    7.20
  -4  -1  -4   78.09   11.30
  -5  -1  -4    3.80    4.30
  -5  -1  -4   10.60    5.90
  -6  -1  -4   25.30    7.90
  -6  -1  -4   14.20    5.90
  -7  -1  -4   -0.10    5.20
  -6   2   4    1.70    4.40
  -5   2   4   39.50    8.80
  -4   2   4   90.09    9.60
  -3   2   4   46.50    3.40
  -3   2   4   34.90    6.40
  -2   2   4  440.86   21.00
  -2   2   4  428.66   16.50
  -1   2   4   40.70    3.20
   0  -2  -4   11.80    3.70
  -1  -2  -4    2.80    3.30
   1   2   4   -0.10    3.40
  -2  -2  -4    4.00    3.90
   2   2   4    8.90    2.90
  -3  -2  -4   77.39   11.70
  -3  -2  -4   58.69    8.60
  -4  -2  -4   41.90    8.30
  -4  -2  -4   42.60    8.60
  -5  -2  -4  147.39   13.30
  -5  -2  -4  157.08   14.00
  -6  -2  -4    5.00    5.30
  -6  -2  -4    1.80    4.80
  -7  -2  -4   43.10   10.00
  -5   3   4  106.99   12.10
  -4   3   4   15.50    5.90
  -3   3   4   19.90    5.70
  -2   3   4    1.50    2.80
   0  -3  -4   -0.70    3.10
  -1  -3  -4  172.58   12.80
  -2  -3  -4   19.50    6.40
   2   3   4   49.30    7.50
  -3  -3  -4  141.09   13.60
   3   3   4  163.38   10.40
  -4  -3  -4   72.39   11.20
  -4  -3  -4   89.39   12.00
  -5  -3  -4   -1.20    5.40
  -6  -3  -4    4.10    6.10
  -7  -3  -4   -1.80    5.80
  -5   4   4   -1.70    4.80
  -4   4   4    0.20    4.00
  -3   4   4  126.39   11.40
  -2   4   4   64.19    8.60
  -1   4   4   25.00    4.90
   0   4   4  111.49   14.70
   0   4   4  124.39    7.90
  -1  -4  -4    5.90    5.30
   1   4   4   11.60    6.50
   1   4   4   20.00    3.20
  -2  -4  -4  145.69   15.00
   2   4   4  158.88   13.90
  -3  -4  -4    7.60    6.20
   3   4   4    1.60    4.10
  -4  -4  -4   15.80    6.80
  -5  -4  -4    5.00    5.80
  -6  -4  -4    6.40    6.30
  -7  -4  -4   -3.40    5.60
  -4   5   4    1.00    4.50
  -3   5   4    0.90    4.00
  -2   5   4   -2.30    2.80
  -1   5   4   18.20    4.40
  -1   5   4   17.80    8.90
   0   5   4    2.70    7.00
   0   5   4   -0.80    1.80
  -1  -5  -4   -1.30    6.30
   1   5   4    7.00    7.10
  -2  -5  -4   30.60    9.80
   2   5   4   35.40   10.00
  -3  -5  -4  117.89   15.30
   3   5   4  102.19   13.40
  -4  -5  -4   -0.20    5.90
   4   5   4    0.30    4.70
  -5  -5  -4   43.00   10.00
  -6  -5  -4    3.00    6.70
  -3   6   4   34.10    8.40
  -2   6   4   12.30    9.50
  -1   6   4    2.30    8.40
   0   6   4    8.90    9.10
   1   6   4   50.89   13.70
  -2  -6  -4   87.09   14.30
   2   6   4  106.09   16.90
  -3  -6  -4   11.10    7.60
   3   6   4   18.00    7.70
  -4  -6  -4    9.60    7.30
   4   6   4    4.50    6.50
  -5  -6  -4   -5.10    5.60
  -6  -6  -4    1.50    6.80
  -1   7   4    5.00   10.50
   0   7   4    2.30    9.40
   1   7   4   34.10   12.10
   2   7   4    5.00    7.50
  -3  -7  -4   -7.20    6.30
   3   7   4    8.80    8.10
  -4  -7  -4   16.70    8.40
   4   7   4   28.20   10.80
  -4  -6   5   22.40    5.00
  -3  -6   5   43.40    5.90
  -2  -6   5    1.00    2.40
   1   6  -5   -3.50    8.70
  -1  -6   5   -1.10    2.10
   0   6  -5   10.80    9.70
  -1   6  -5   43.40   13.10
  -5  -5   5  189.08   12.70
  -4  -5   5    3.30    2.80
  -3  -5   5  110.99    7.90
  -2  -5   5   11.50    3.10
   1   5  -5   45.40   13.20
  -1  -5   5   34.70    4.30
   0   5  -5   39.10   14.30
   0   5  -5   44.60   12.70
   0  -5   5   54.79    4.60
  -1   5  -5    3.10    7.70
  -1   5  -5    3.00   11.20
  -2   5  -5   -4.10   10.20
  -3   5  -5    5.20   11.20
  -6  -4   5   94.59    9.60
  -5  -4   5   53.69    6.80
  -4  -4   5    0.10    2.10
  -3  -4   5  269.77   13.00
  -2  -4   5    8.80    2.60
  -1  -4   5  141.89    7.40
   0   4  -5   -2.50    6.20
   0   4  -5   10.60   10.90
   0  -4   5    9.90    2.10
  -1   4  -5   34.40    9.90
  -1   4  -5   27.70   13.20
   1  -4   5   33.60    3.30
  -2   4  -5   35.70   14.70
  -2   4  -5   26.80    8.90
  -3   4  -5   86.99   19.40
  -4   4  -5    9.70   10.10
  -6  -3   5    0.50    3.20
  -5  -3   5  128.39    9.20
  -4  -3   5   65.29    6.10
  -3  -3   5  251.77   12.00
  -2  -3   5  211.58    9.90
  -1  -3   5   23.90    2.90
   0   3  -5   84.69   17.10
   0   3  -5  104.49   13.30
   0  -3   5   84.99    5.00
  -1   3  -5    9.30    5.80
  -1   3  -5   18.10   12.00
   1  -3   5   16.00    2.40
  -2   3  -5  100.49   20.50
  -2   3  -5   98.39   12.80
   2  -3   5   90.09    5.40
  -3   3  -5    2.10    9.50
  -4   3  -5   -5.40    7.60
  -5   3  -5   34.60   12.40
  -6  -2   5   93.79    9.40
  -6  -2   5  100.49    8.80
  -5  -2   5   11.20    3.40
  -5  -2   5   16.20    4.80
  -4  -2   5    5.40    2.60
  -4  -2   5    5.10    3.10
  -3  -2   5  142.89    7.90
  -2  -2   5    4.70    1.70
  -1  -2   5  477.65   18.40
   0   2  -5   37.90   11.70
   0  -2   5   41.40    3.40
  -1   2  -5   80.99   17.80
  -1   2  -5   55.29    7.70
   1  -2   5   61.49    4.20
  -2   2  -5   47.80    7.60
  -2   2  -5   47.30   14.20
   2  -2   5   46.20    4.10
  -3   2  -5    3.10    9.30
   3  -2   5   12.10    2.80
  -4   2  -5    9.20    9.20
  -5   2  -5    0.30    7.30
  -6   2  -5    4.60    8.30
  -6  -1   5   22.30    4.60
  -6  -1   5   11.50    5.00
  -5  -1   5   -0.20    2.10
  -5  -1   5    3.10    3.30
  -4  -1   5   93.59    8.80
  -4  -1   5   89.59    6.50
  -3  -1   5    2.40    1.80
  -2  -1   5 1632.94   57.49
  -1  -1   5  155.28    7.50
   0  -1   5  177.38    8.30
  -1   1  -5   57.49   14.90
   1  -1   5   58.09    4.30
  -2   1  -5    0.50    1.80
  -2   1  -5   -5.60    8.10
   2  -1   5   -0.10    1.60
  -3   1  -5  104.19   17.40
  -4   1  -5   21.70   10.00
  -5   1  -5    9.10    8.50
  -6   1  -5    4.30    7.60
  -6   0   5    7.70    4.60
  -5   0   5    9.20    2.90
  -5   0   5    7.00    4.60
  -4   0   5  226.08   10.70
  -4   0   5  206.18   14.10
  -3   0   5   48.60    4.10
  -2   0   5   23.40    3.00
  -1   0   5   -0.10    1.30
   0   0   5   44.40    3.80
  -1   0  -5   24.30   10.50
  -2   0  -5   -6.20    7.70
  -2   0  -5   -1.40    2.50
  -4   0  -5    0.70    2.90
  -4   0  -5    7.30    7.30
  -5   0  -5   65.69   12.50
  -6   0  -5    9.50    7.60
  -6   1   5    5.90    5.00
  -5   1   5    0.30    3.60
  -4   1   5   -2.20    3.00
  -4   1   5   -0.80    1.60
  -3   1   5  162.68    8.30
  -3   1   5  185.18   12.80
  -2   1   5  567.24   21.60
  -1   1   5  489.65   19.10
  -1  -1  -5   16.40    4.50
  -2  -1  -5  198.78   12.40
  -3  -1  -5   58.49    7.50
  -4  -1  -5    3.80    6.30
  -4  -1  -5    0.10    3.20
  -5  -1  -5   18.60    7.90
  -5  -1  -5    6.80    4.40
  -6  -1  -5   12.50    7.00
  -6  -1  -5   12.90    5.10
  -7  -1  -5   -1.20    5.70
  -6   2   5   35.60    9.10
  -5   2   5   53.59    9.80
  -4   2   5  860.61   39.40
  -3   2   5    7.30    2.00
  -3   2   5    5.00    4.00
  -2   2   5    3.10    1.40
  -2   2   5    4.80    3.40
  -1   2   5  341.17   14.10
   0  -2  -5    0.80    3.40
  -1  -2  -5  112.59    9.50
  -2  -2  -5    6.30    4.00
   2   2   5   11.00    3.20
  -3  -2  -5  100.59   10.20
  -4  -2  -5   90.49   11.80
  -4  -2  -5  143.79   15.10
  -5  -2  -5  174.68   15.70
  -5  -2  -5  112.29   13.50
  -6  -2  -5    2.50    5.30
  -6  -2  -5    9.30    6.60
  -7  -2  -5    8.10    6.20
  -5   3   5    5.90    5.70
  -4   3   5    5.00    5.20
  -3   3   5   40.90    7.80
  -2   3   5   61.19    9.00
  -1   3   5  314.27   16.80
   0  -3  -5   51.09    7.10
   1   3   5  110.79   12.90
   2   3   5  249.97   14.80
  -3  -3  -5    7.60    5.80
   3   3   5    6.80    3.10
  -4  -3  -5   74.19   12.60
  -4  -3  -5   66.89   11.40
  -5  -3  -5    4.10    5.60
  -6  -3  -5   -0.20    5.90
  -7  -3  -5   35.90    9.90
  -4   4   5  336.27   22.10
  -3   4   5  130.59   12.20
  -2   4   5   -3.80    3.00
  -1   4   5   27.70    5.50
   0  -4  -5   -6.60    3.70
   0   4   5    0.30    2.10
   1   4   5  386.96   24.40
  -2  -4  -5    1.50    6.00
   2   4   5    7.20    5.50
  -3  -4  -5   -0.60    5.40
   3   4   5   -0.90    3.20
  -4  -4  -5  157.58   18.50
  -5  -4  -5   43.30   10.70
  -6  -4  -5   94.29   14.60
  -7  -4  -5   -7.90    5.90
  -4   5   5   49.10   10.10
  -3   5   5   -0.10    3.70
  -2   5   5   48.70    8.20
  -1   5   5   49.50    7.20
   0   5   5  451.25   19.80
   0   5   5  376.16   28.40
  -1  -5  -5   -1.20    6.10
   1   5   5    8.30    7.80
  -2  -5  -5   16.60    8.40
   2   5   5   13.80    7.50
  -3  -5  -5   11.30    8.60
   3   5   5    2.70    5.20
  -4  -5  -5    2.30    7.30
   4   5   5    5.50    5.00
  -5  -5  -5   48.10   11.50
  -6  -5  -5    1.70    7.40
  -2   6   5    6.60    8.80
  -1   6   5   38.40   13.50
   0   6   5   -2.50    7.10
   1   6   5    5.10    8.30
  -2  -6  -5   15.50    9.10
   2   6   5   27.60    9.70
  -3  -6  -5   -2.60    7.20
   3   6   5    0.50    5.50
  -4  -6  -5   15.40    9.10
   4   6   5   27.70    8.40
  -5  -6  -5    0.70    7.50
  -1   7   5    0.20   10.50
   0   7   5   42.20   14.50
   1   7   5    5.50    9.10
   2   7   5   22.20   10.30
  -3  -7  -5   12.10    9.30
   3   7   5   -2.40    6.90
  -4  -7  -5    8.00    8.10
   4   7   5   16.30    8.60
  -3  -6   6    2.60    2.70
  -2  -6   6   13.10    3.60
  -1  -6   6   37.30    5.00
   0   6  -6   -0.60    8.90
  -5  -5   6    7.60    3.90
  -4  -5   6    4.50    2.90
  -3  -5   6   18.30    3.90
  -2  -5   6    2.50    2.30
  -1  -5   6    0.80    2.10
   0   5  -6   -6.30    7.00
   0   5  -6   -2.90   10.30
   0  -5   6    1.30    2.00
  -1   5  -6   24.40   14.70
  -2   5  -6    9.60   13.30
  -5  -4   6  115.59    9.30
  -4  -4   6    1.20    2.40
  -3  -4   6    6.50    2.80
  -2  -4   6   14.00    3.00
  -1  -4   6   59.29    4.70
   0   4  -6   51.49   11.40
   0   4  -6   13.30   12.40
   0  -4   6   52.49    4.30
  -1   4  -6    3.00    6.50
  -1   4  -6   12.90   13.40
   1  -4   6    1.50    1.90
  -2   4  -6    3.40   11.70
  -3   4  -6    1.10   11.40
  -4   4  -6   24.10   13.60
  -6  -3   6   42.20    7.10
  -5  -3   6    3.30    3.00
  -4  -3   6  169.78   10.10
  -3  -3   6  206.78   10.60
  -2  -3   6    4.70    2.00
  -1  -3   6   93.59    5.80
   0  -3   6   32.90    3.60
  -1   3  -6    4.50   11.90
  -1   3  -6   13.50    5.80
   1  -3   6   15.00    2.50
  -2   3  -6   18.50   13.20
   2  -3   6   21.60    3.30
  -3   3  -6  122.59   24.00
  -4   3  -6   -6.60    9.40
  -5   3  -6    0.60    9.40
  -6  -2   6    1.30    3.10
  -6  -2   6    2.40    4.00
  -5  -2   6   -1.80    2.30
  -5  -2   6   -2.70    2.90
  -4  -2   6  214.08   11.40
  -3  -2   6    5.20    2.20
  -2  -2   6  191.28    9.40
  -1  -2   6    6.50    1.90
   0  -2   6   52.79    4.10
  -1   2  -6   -4.40   10.30
   1  -2   6   11.40    2.50
  -2   2  -6  133.89   25.20
   2  -2   6  161.08    8.90
  -3   2  -6    6.30   10.50
   3  -2   6    9.90    3.20
  -4   2  -6   14.80   12.00
  -5   2  -6   47.10   14.70
  -6  -1   6   38.30    5.80
  -6  -1   6   27.00    7.00
  -5  -1   6   23.20    4.40
  -5  -1   6   32.10    6.90
  -4  -1   6  591.14   24.20
  -4  -1   6  592.74   28.00
  -3  -1   6   20.90    3.20
  -2  -1   6  175.68    8.80
  -1  -1   6   54.19    4.30
   0  -1   6  105.29    6.30
  -1   1  -6  242.28   26.30
   1  -1   6  257.27   11.90
  -2   1  -6   33.30   14.20
   2  -1   6   33.30    4.20
  -3   1  -6   19.60   11.10
  -4   1  -6   18.50   10.90
  -4   1  -6    6.20    3.90
  -5   1  -6   54.29   14.20
  -6   1  -6   -1.00    7.20
  -6   0   6    4.90    4.60
  -5   0   6  240.38   16.60
  -5   0   6  227.78   12.20
  -4   0   6  183.88    9.90
  -4   0   6  179.38   13.70
  -3   0   6   10.00    2.60
  -2   0   6 1047.20   38.40
  -1   0   6   16.10    2.90
   0   0   6  228.08   10.90
   1   0   6    0.30    1.80
  -2   0  -6  134.79   22.70
  -3   0  -6   91.59   17.90
  -4   0  -6  174.58   20.10
  -5   0  -6    3.00    3.40
  -5   0  -6   10.80    8.80
  -6   0  -6    4.30    6.70
  -6   1   6    1.90    4.60
  -5   1   6   23.70    6.90
  -4   1   6  224.38   11.10
  -4   1   6  233.58   16.30
  -3   1   6  279.67   17.70
  -3   1   6  300.67   13.20
  -2   1   6  161.78    8.40
  -1   1   6  656.33   25.40
   0   1   6  126.59    7.20
  -1  -1  -6   34.90    6.10
  -2  -1  -6    2.20    3.40
  -2  -1  -6   -2.90    7.60
  -3  -1  -6   39.50   12.50
  -4  -1  -6   -0.40    3.30
  -4  -1  -6    9.50    7.90
  -5  -1  -6    3.10    3.80
  -5  -1  -6    7.30    7.50
  -6  -1  -6   45.00   11.00
  -6  -1  -6   25.00    6.70
  -5   2   6  117.19   13.20
  -4   2   6    1.90    4.40
  -3   2   6    4.10    2.00
  -3   2   6    1.20    3.80
  -2   2   6  236.78   11.20
  -1   2   6   32.50    4.00
   0  -2  -6   90.09    9.00
  -1  -2  -6   15.50    5.00
  -2  -2  -6   13.60    4.70
  -3  -2  -6   37.70    7.10
  -3  -2  -6   75.69   14.80
  -4  -2  -6   35.40   11.70
  -5  -2  -6    8.60    5.60
  -5  -2  -6   12.10    8.30
  -6  -2  -6    5.00    6.30
  -6  -2  -6   -0.80    4.60
  -7  -2  -6    6.20    5.90
  -5   3   6   11.00    6.80
  -4   3   6    2.40    4.90
  -3   3   6  225.68   16.70
  -2   3   6    0.10    2.10
  -2   3   6   -2.00    2.90
  -1   3   6  990.00   36.50
   0  -3  -6    9.20    4.70
  -1  -3  -6   11.70    5.00
   1   3   6   29.30    7.30
  -2  -3  -6    5.80    4.80
   2   3   6    5.40    3.90
  -3  -3  -6    2.30    4.70
  -4  -3  -6   47.50   12.00
  -4  -3  -6   35.90    9.20
  -5  -3  -6    4.50    6.20
  -6  -3  -6    3.90    6.10
  -7  -3  -6    9.50    7.50
  -4   4   6   13.70    6.60
  -3   4   6  103.89   11.70
  -2   4   6   23.60    6.50
  -1   4   6   17.20    4.90
   0  -4  -6   -0.30    4.30
   0   4   6    0.00    2.30
   1   4   6   80.69   12.60
  -2  -4  -6    6.80    6.10
   2   4   6   18.30    6.40
  -3  -4  -6    2.80    6.40
   3   4   6   -2.70    3.20
  -4  -4  -6   30.90   10.30
  -5  -4  -6   -3.20    6.30
  -6  -4  -6   11.80    8.10
  -3   5   6   13.70    6.00
  -2   5   6   15.40    5.90
  -1   5   6  194.78   13.00
   0   5   6    6.40    7.60
   0   5   6    9.50    3.50
  -1  -5  -6    8.60    6.80
   1   5   6   13.10    8.20
  -2  -5  -6   10.50    8.40
   2   5   6   14.70    7.60
  -3  -5  -6   54.19   12.70
   3   5   6   85.59   11.80
  -4  -5  -6   40.50   11.60
  -5  -5  -6   -3.50    6.90
  -6  -5  -6   -4.20    6.60
  -1   6   6    0.60    8.10
   0   6   6   78.99   16.30
   1   6   6    8.80    8.70
  -2  -6  -6   20.90    9.80
   2   6   6   44.00   11.10
  -3  -6  -6   -2.10    7.80
   3   6   6    4.70    6.00
  -4  -6  -6   20.20   10.20
  -5  -6  -6   21.90    9.60
   0   7   6    6.10    9.70
   1   7   6   28.10   12.20
   2   7   6   14.10    9.90
  -3  -7  -6   21.70   10.60
   3   7   6   32.40   11.00
  -4  -7  -6   -4.60    7.80
  -4  -5   7   12.20    3.70
  -3  -5   7   88.39    7.10
  -2  -5   7   51.79    5.70
  -1  -5   7   10.80    3.10
   0  -5   7   52.49    5.10
  -1   5  -7   -8.50   11.00
  -2   5  -7   65.69   20.30
  -5  -4   7   16.00    4.60
  -4  -4   7   60.09    7.10
  -3  -4   7   -1.70    1.80
  -2  -4   7    5.60    2.30
  -1  -4   7   31.90    4.00
   0  -4   7    6.20    2.30
  -1   4  -7   33.00   18.50
   1  -4   7   79.69    6.00
  -2   4  -7   -2.00   12.40
  -3   4  -7   -1.40   12.00
  -5  -3   7  108.19    8.90
  -4  -3   7    3.90    2.90
  -3  -3   7   15.30    3.20
  -2  -3   7   64.09    5.10
  -1  -3   7   11.80    2.70
   0  -3   7    3.60    2.20
  -1   3  -7    9.80   14.50
   1  -3   7   -0.10    2.00
  -2   3  -7   11.00   13.30
  -3   3  -7   11.50   13.30
  -4   3  -7   25.50   15.50
  -6  -2   7   78.79    9.10
  -6  -2   7   75.39   11.20
  -5  -2   7   14.00    4.20
  -5  -2   7   11.10    5.40
  -4  -2   7  192.28   11.00
  -3  -2   7   64.79    5.50
  -2  -2   7   31.00    4.00
  -1  -2   7   32.30    4.00
   0  -2   7  113.89    6.90
  -1   2  -7   28.90   16.50
   1  -2   7   45.00    4.60
  -2   2  -7    2.80   13.00
   2  -2   7    4.00    2.70
   3  -2   7  280.57   14.30
  -4   2  -7    7.10   12.50
  -5   2  -7    5.30   10.20
  -6  -1   7   -1.50    3.90
  -6  -1   7    4.00    3.40
  -5  -1   7   15.80    4.20
  -5  -1   7   16.20    5.90
  -4  -1   7  166.28    9.90
  -3  -1   7   28.10    4.20
  -2  -1   7   75.49    5.70
  -1  -1   7    0.70    1.70
   0  -1   7   23.70    3.70
   1  -1   7   17.00    3.40
  -2   1  -7   71.19   19.60
   2  -1   7   84.39    6.90
  -3   1  -7   23.00   14.00
   3  -1   7   11.00    3.40
  -4   1  -7   14.90   11.80
  -5   1  -7   14.90   10.50
  -6   0   7   16.30    6.80
  -5   0   7   30.10    4.90
  -5   0   7   30.80    7.60
  -4   0   7  212.48   15.70
  -4   0   7  211.68   11.40
  -3   0   7   17.70    3.70
  -2   0   7   42.40    5.00
  -1   0   7   86.69    6.20
   0   0   7  235.98   11.80
   1   0   7  148.69    8.80
  -2   0  -7   -6.20   10.20
  -3   0  -7   12.90    5.00
  -3   0  -7   23.10   13.50
  -4   0  -7   -1.40    8.80
  -4   0  -7    3.80    3.60
  -5   0  -7    8.60    4.20
  -5   0  -7   26.60   11.90
  -6   0  -7    6.30    8.00
  -5   1   7   64.09   11.30
  -4   1   7   90.29   12.60
  -4   1   7   78.19    6.30
  -3   1   7  231.68   11.80
  -2   1   7  489.85   20.30
  -1   1   7    2.50    2.20
   0   1   7   99.19    6.80
  -1  -1  -7   -0.60    3.20
  -2  -1  -7    9.50    4.50
  -3  -1  -7    9.60   11.10
  -3  -1  -7    6.20    4.10
  -4  -1  -7  123.69   20.70
  -5  -1  -7    1.60    4.00
  -5  -1  -7   -0.70    6.80
  -6  -1  -7   -4.30    6.40
  -6  -1  -7    3.20    4.20
  -5   2   7   41.50   10.00
  -4   2   7   -1.90    4.30
  -3   2   7  433.46   18.30
  -3   2   7  403.66   24.00
  -2   2   7   12.80    3.20
  -1   2   7  121.59    7.60
  -1  -2  -7   27.50    6.30
  -2  -2  -7   -0.90    3.50
  -3  -2  -7   12.60    5.50
  -4  -2  -7    9.10   10.10
  -4  -2  -7   -1.10    4.10
  -5  -2  -7    6.50    8.20
  -5  -2  -7    0.90    4.70
  -6  -2  -7   31.50    8.10
  -6  -2  -7   31.50   10.20
  -5   3   7   32.50    9.70
  -4   3   7   18.40    7.30
  -3   3   7  342.97   21.90
  -2   3   7    6.70    4.60
  -2   3   7   11.30    3.80
  -1   3   7    0.90    1.90
   0  -3  -7    3.10    5.00
  -1  -3  -7   15.70    5.70
  -2  -3  -7   24.60    6.90
  -3  -3  -7   10.20    6.00
  -4  -3  -7   23.60    8.30
  -5  -3  -7   10.40    7.20
  -6  -3  -7    5.50    6.40
  -4   4   7   81.19   13.90
  -3   4   7  157.08   14.70
  -2   4   7    2.20    4.10
  -1   4   7  420.16   22.00
   0  -4  -7    2.30    5.00
  -1  -4  -7    6.40    5.70
   1   4   7   15.00    7.50
  -2  -4  -7    6.10    6.40
   2   4   7    1.30    5.20
  -3  -4  -7   15.90    8.10
  -4  -4  -7   15.80    8.60
  -5  -4  -7   35.30   10.40
  -6  -4  -7   11.40    8.10
  -3   5   7   83.29   12.50
  -2   5   7  181.68   14.30
  -1   5   7   -1.80    2.70
   0   5   7  141.69   10.80
   0   5   7   82.29   14.50
  -1  -5  -7   13.80    7.60
   1   5   7   47.40   11.70
  -2  -5  -7   33.60   10.30
   2   5   7   65.89   12.00
  -3  -5  -7    1.80    7.40
  -4  -5  -7    2.00    7.70
  -5  -5  -7   12.60    9.00
  -6  -5  -7   -2.80    7.40
  -1   6   7   21.00   10.20
   0   6   7   27.20   11.10
   1   6   7   47.60   12.90
  -2  -6  -7   10.30    9.60
   2   6   7    8.10    7.80
  -4  -6  -7   29.20   11.70
  -5  -6  -7    3.10    8.50
   1   7   7   -1.20    8.30
   2   7   7    0.30    8.30
  -3  -7  -7   -2.90    8.80
  -3  -5   8    7.90    3.20
  -2  -5   8   13.00    3.40
  -1  -5   8    4.20    2.70
   0  -5   8    5.90    2.90
  -4  -4   8   28.40    5.00
  -3  -4   8  196.08   10.90
  -2  -4   8  137.79    8.40
  -1  -4   8  301.07   13.90
   0  -4   8    6.40    2.70
  -1   4  -8    5.60   14.50
   1  -4   8    1.70    2.60
  -2   4  -8   26.90   17.00
  -5  -3   8   82.99    8.20
  -4  -3   8    6.70    3.10
  -3  -3   8   12.60    3.20
  -2  -3   8  136.79    8.20
  -1  -3   8    3.50    2.20
   0  -3   8    5.00    2.50
   1  -3   8  254.07   12.70
  -2   3  -8   -2.30   12.80
   2  -3   8   -2.00    2.50
  -3   3  -8   47.50   19.20
  -4   3  -8   -3.60   12.10
  -5  -2   8   70.59    8.10
  -5  -2   8   73.69   11.30
  -4  -2   8   -0.90    2.30
  -3  -2   8  168.88    9.70
  -2  -2   8  256.67   12.60
  -1  -2   8  343.67   15.40
   0  -2   8  154.78    9.00
   1  -2   8   -0.10    2.60
  -2   2  -8   -2.10   13.30
   2  -2   8    5.10    3.30
  -3   2  -8   10.10   13.60
   3  -2   8   24.00    5.20
  -4   2  -8   38.20   16.50
  -5  -1   8   28.30    5.50
  -5  -1   8   25.30    7.60
  -4  -1   8   18.60    4.20
  -3  -1   8   46.50    5.80
  -2  -1   8  249.68   12.50
  -1  -1   8  184.58   10.10
   0  -1   8    8.50    2.90
   1  -1   8  295.87   14.90
  -2   1  -8   -8.50   10.30
   2  -1   8    5.00    3.10
   3  -1   8  314.77   15.90
  -4   1  -8   -2.70   10.30
   4  -1   8   -0.40    2.80
  -5   1  -8   -5.50    8.60
  -5   0   8    2.70    3.10
  -5   0   8    1.40    4.40
  -4   0   8  132.39   12.70
  -4   0   8  139.49    9.10
  -3   0   8  142.49    9.30
  -2   0   8   19.30    3.90
  -1   0   8   35.40    4.90
   0   0   8  288.27   14.30
   1   0   8   11.80    3.40
  -2   0  -8  120.19   24.30
   2   0   8  145.09    9.20
  -3   0  -8   16.40   13.90
  -4   0  -8    0.30    3.60
  -4   0  -8    7.70   10.30
  -5   0  -8   18.60   11.20
  -5   0  -8    8.10    4.70
  -5   1   8   14.00    6.70
  -4   1   8  110.39    8.00
  -4   1   8   88.39   12.60
  -3   1   8   31.10    4.90
  -2   1   8  105.89    7.60
  -1   1   8  275.27   13.90
   0   1   8   21.60    4.10
   1   1   8    1.00    2.10
  -2  -1  -8   -0.10    4.40
  -3  -1  -8   18.20    5.70
  -3  -1  -8   45.90   15.80
  -4  -1  -8   58.09   15.90
  -5  -1  -8   -2.00    3.90
  -5  -1  -8    3.70    8.50
  -6  -1  -8    2.20    4.80
  -6  -1  -8    6.10    8.50
  -5   2   8   54.69   11.50
  -4   2   8   37.50    9.30
  -3   2   8  149.79   13.80
  -3   2   8  151.58    9.90
  -2   2   8   25.50    4.60
  -1   2   8   30.30    4.70
   0   2   8    2.90    2.20
  -1  -2  -8   13.80    5.90
  -2  -2  -8   12.00    5.90
  -3  -2  -8    4.80    5.20
  -4  -2  -8   97.09   19.00
  -4  -2  -8   34.90    7.90
  -5  -2  -8   14.60   10.00
  -5  -2  -8   -2.40    4.50
  -6  -2  -8    3.50    7.70
  -6  -2  -8    1.30    5.30
  -4   3   8    4.90    6.00
  -3   3   8  276.17   19.60
  -2   3   8   30.40    6.90
  -2   3   8   29.00    6.90
  -1   3   8    2.40    2.40
  -1  -3  -8    3.60    5.60
  -2  -3  -8    1.40    5.30
  -3  -3  -8    8.70    6.60
  -4  -3  -8   11.50    6.60
  -5  -3  -8    5.30    6.30
  -6  -3  -8   11.20    7.40
  -3   4   8   84.09   13.50
  -2   4   8   36.60    7.90
  -1   4   8   54.49    8.50
   0  -4  -8    7.80    5.90
  -1  -4  -8   12.50    6.80
   1   4   8   62.09   11.50
  -2  -4  -8   16.40    7.70
  -3  -4  -8    8.70    7.30
  -4  -4  -8   16.20    8.90
  -5  -4  -8   14.80    9.20
  -6  -4  -8    4.20    8.00
  -2   5   8   22.20    6.80
  -1   5   8   70.59    9.70
   0   5   8    3.00    6.70
   0   5   8    1.20    4.30
  -1  -5  -8    2.00    6.50
   1   5   8    8.60    7.10
  -2  -5  -8   -7.30    6.30
  -3  -5  -8    8.10    8.90
  -4  -5  -8   -2.10    7.50
  -5  -5  -8   17.80    9.30
  -1   6   8    1.00    7.50
   0   6   8    4.80    8.80
   1   6   8   34.00   11.60
  -2  -6  -8   29.10   11.00
  -3  -6  -8   -5.00    8.70
  -4  -6  -8   -2.70    7.90
  -3  -4   9   25.10    4.60
  -2  -4   9    4.20    2.70
  -1  -4   9   -1.40    2.10
   0  -4   9   62.09    6.30
   1  -4   9    2.20    3.10
  -4  -3   9   -1.90    2.40
  -3  -3   9   23.50    4.20
  -2  -3   9   39.90    5.10
  -1  -3   9    1.60    2.40
   0  -3   9  224.78   12.10
   1  -3   9   11.00    3.70
  -2   3  -9   53.99   22.50
   2  -3   9  125.19    9.30
  -3   3  -9    1.40   14.70
  -4  -2   9    0.30    2.60
  -3  -2   9    3.50    2.60
  -2  -2   9   94.79    7.30
  -1  -2   9    1.60    2.30
   0  -2   9  263.87   13.60
   1  -2   9  106.79    8.40
  -2   2  -9   19.50   17.90
   2  -2   9   21.30    4.90
  -3   2  -9   -3.00   13.00
   3  -2   9    1.50    3.60
  -4   2  -9   10.30   14.30
  -5  -1   9    8.40    4.00
  -5  -1   9   12.90    6.50
  -4  -1   9   57.99    7.10
  -3  -1   9   11.90    3.50
  -2  -1   9  181.18   10.70
  -1  -1   9   15.80    3.80
   0  -1   9    7.20    3.30
   1  -1   9    1.00    3.10
  -2   1  -9    4.70   14.10
   2  -1   9   -0.20    2.90
  -3   1  -9   20.10   16.50
   3  -1   9   27.20    5.50
  -4   1  -9   18.10   14.30
   4  -1   9   12.50    4.40
  -5   0   9   11.10    6.20
  -4   0   9   10.30    3.70
  -3   0   9   60.39    7.10
  -2   0   9  394.66   18.50
  -1   0   9  272.27   14.30
   0   0   9  552.24   24.20
   1   0   9    4.40    3.40
   2   0   9    0.50    2.80
  -3   0  -9   56.29   18.80
   3   0   9   79.19    7.40
  -4   0  -9    1.50   10.00
  -5   0  -9    0.90    4.20
  -5   0  -9    6.60   10.10
  -4   1   9  152.38   14.70
  -4   1   9  153.38   12.50
  -3   1   9   40.40    6.00
  -2   1   9   18.20    4.00
  -1   1   9   95.39    8.10
   0   1   9    3.80    3.00
   1   1   9    0.10    2.50
  -3  -1  -9   10.80    5.90
  -4  -1  -9   20.10   13.30
  -4  -1  -9    7.40    5.20
  -5  -1  -9   16.80   11.10
  -5  -1  -9    8.80    5.30
  -4   2   9   55.79   11.20
  -3   2   9    7.10    5.00
  -2   2   9  260.57   14.10
  -1   2   9  488.25   22.00
   0   2   9  302.87   15.20
  -2  -2  -9    8.40    5.80
  -3  -2  -9   -1.50    4.70
  -4  -2  -9    3.30    5.30
  -5  -2  -9    8.40   10.00
  -5  -2  -9    1.10    5.10
  -4   3   9   34.30    9.50
  -3   3   9   -0.50    4.40
  -2   3   9   27.40    6.70
  -1   3   9  108.99    8.40
   0   3   9  121.19    8.30
  -1  -3  -9    3.00    5.40
  -2  -3  -9   55.39   10.10
  -3  -3  -9   14.50    7.10
  -4  -3  -9   47.00   10.60
  -5  -3  -9    5.40    6.60
  -3   4   9  113.49   15.50
  -2   4   9  100.59   11.20
  -1   4   9   74.99    8.50
  -2  -4  -9    7.10    6.90
  -3  -4  -9   34.80   10.60
  -4  -4  -9    3.40    7.20
  -5  -4  -9  -14.00    6.20
  -2   5   9    9.60    5.40
  -1   5   9   49.30    8.50
  -1  -5  -9   -2.80    6.10
  -2  -5  -9   -4.40    7.00
  -3  -5  -9   11.20    8.90
  -4  -5  -9   16.90   10.40
   0   6   9   -1.20    7.20
  -2  -6  -9   -8.80    8.40
  -3  -6  -9   11.00   10.60
  -3  -3  10   71.39    7.00
  -2  -3  10    6.70    3.30
  -1  -3  10   39.00    5.60
   0  -3  10   13.00    3.90
   1  -3  10   19.60    4.90
   2  -3  10    0.30    3.70
  -4  -2  10   10.90    4.10
  -3  -2  10   45.80    6.20
  -2  -2  10   63.19    7.20
  -1  -2  10   82.29    7.40
   0  -2  10   49.99    6.70
   1  -2  10   62.39    7.50
   2  -2  10  114.29   10.00
  -3   2 -10   13.80   17.20
   3  -2  10    7.60    4.50
  -4  -1  10   95.29    8.70
  -3  -1  10   10.70    3.90
  -2  -1  10   10.50    3.70
  -1  -1  10   33.40    5.60
   0  -1  10   23.60    5.10
   1  -1  10  529.35   24.50
   2  -1  10    6.60    4.30
  -3   1 -10   17.60   17.80
   3  -1  10   29.20    6.10
  -4   1 -10    5.20   13.30
   4  -1  10   27.30    5.70
  -4   0  10    6.00    3.80
  -3   0  10   -0.40    3.10
  -2   0  10  174.58   11.40
  -1   0  10   37.80    6.20
   0   0  10   39.20    6.40
   1   0  10  177.68   11.90
   2   0  10    6.70    3.70
   3   0  10   62.69    7.50
  -4   0 -10   31.50   15.60
   4   0  10   66.69    7.90
  -4   1  10   16.90    6.80
  -3   1  10   13.60    4.30
  -2   1  10   11.90    4.30
  -1   1  10  126.09   10.00
   0   1  10    8.10    3.70
   1   1  10  289.17   15.50
   2   1  10   46.00    6.10
  -4  -1 -10   -7.90    9.70
  -4  -1 -10    3.80    5.10
  -5  -1 -10   -1.00    9.10
  -5  -1 -10    4.40    5.00
  -3   2  10    6.50    4.70
  -2   2  10    3.80    3.30
  -1   2  10   26.70    5.50
   0   2  10   18.50    4.60
   1   2  10  149.99   10.00
  -2  -2 -10   11.10    6.90
  -3  -2 -10    5.70    6.10
  -4  -2 -10   -4.90    4.60
  -5  -2 -10   14.30   11.40
  -5  -2 -10    9.80    6.70
  -3   3  10    4.60    5.00
  -1   3  10  218.98   13.10
   0   3  10    8.80    3.50
  -2  -3 -10    7.40    6.60
  -3  -3 -10   -1.90    5.60
  -4  -3 -10   10.20    7.20
  -5  -3 -10   -5.70    5.70
  -2   4  10   15.10    6.00
   0   4  10   78.99    7.20
  -1  -4 -10   46.80   10.80
  -2  -4 -10    2.10    7.30
  -3  -4 -10   -5.20    6.60
  -4  -4 -10    6.40    8.10
  -1   5  10   10.10    4.90
  -1  -5 -10    5.10    7.90
  -2  -5 -10    4.50    8.40
  -3  -5 -10   -1.20    8.10
  -2  -2  11   18.90    4.70
  -1  -2  11   70.39    8.00
   0  -2  11    3.20    3.70
   1  -2  11   -0.30    3.40
   2  -2  11    3.40    4.30
  -3  -1  11   10.80    4.30
  -2  -1  11   59.79    7.70
  -1  -1  11   24.90    5.20
   0  -1  11   21.20    5.30
   1  -1  11   14.70    5.30
   2  -1  11   53.39    7.90
   3  -1  11   -1.80    3.50
  -3   0  11    1.00    3.40
  -2   0  11    1.80    3.10
  -1   0  11   58.39    7.70
   0   0  11   19.20    5.20
   1   0  11  105.29    9.90
   2   0  11   -0.40    3.40
   3   0  11    3.80    3.70
  -3   1  11   48.40    7.60
  -2   1  11  166.58   12.10
  -1   1  11   38.10    6.90
   0   1  11   64.29    8.40
   1   1  11    3.00    3.60
   2   1  11    7.00    3.80
   3   1  11   -1.00    2.90
  -2   2  11   28.20    6.00
  -1   2  11   55.59    7.80
   0   2  11   29.30    5.90
   1   2  11   15.90    4.60
   2   2  11   58.79    7.30
  -3  -2 -11   11.00    6.90
  -4  -2 -11    0.70    6.10
  -1   3  11   12.20    4.70
   0   3  11   30.80    5.70
   1   3  11    8.70    3.60
  -2  -3 -11   34.40    9.70
  -3  -3 -11   -2.20    5.90
  -4  -3 -11   10.80    8.10
   0   4  11   13.90    4.30
  -2  -4 -11   21.10    8.80
  -3  -4 -11    3.30    7.50
  -1  -5 -11   -5.00    7.40
  -1  -1  12   59.89    8.50
   0  -1  12    0.00    3.60
   1  -1  12   12.60    5.10
  -2   0  12   30.30    6.00
  -1   0  12   21.80    5.70
   0   0  12    5.80    4.40
   1   0  12    6.40    4.50
   2   0  12   45.20    8.00
  -2   1  12   13.10    5.20
  -1   1  12   60.19    8.20
   0   1  12    0.20    3.70
   1   1  12   51.79    7.70
   2   1  12    1.00    3.60
   3   1  12    2.80    3.70
  -1   2  12   34.60    6.70
   0   2  12   82.39    9.50
   1   2  12    1.00    3.40
   2   2  12   -0.10    3.10
   3   2  12    7.90    3.90
  -1   3  12   23.30    6.10
   0   3  12   16.70    5.10
   1   3  12    9.50    4.30
   2   3  12   18.40    5.00
   0   0   0    0.00    0.00

_computing_structure_solution     'SHELXT 2014/5 (Sheldrick, 2014)'
;
_shelx_hkl_checksum              81204
loop_
_space_group_symop_operation_xyz
'x, y, z'
'-x, -y, -z'
loop_
_atom_site_type_symbol
_atom_site_label
_atom_site_fract_x
_atom_site_fract_y
_atom_site_fract_z
_atom_site_U_iso_or_equiv
_atom_site_adp_type
_atom_site_calc_flag
_atom_site_refinement_flags_adp
_atom_site_refinement_flags_occupancy
_atom_site_refinement_flags_posn
_atom_site_occupancy
_atom_site_disorder_assembly
_atom_site_disorder_group
Cl Cl1 0.6053(4) 0.1504(5) 0.8591(2) 0.0461(12) Uani d U . . 1 . .
C C1 0.3738(17) 0.2147(15) 0.8214(8) 0.031(2) Uani d U . . 1 . .
O O1 0.0385(13) 0.2998(11) 0.8437(6) 0.043(2) Uani d U . . 1 . .
N N1 0.0821(16) 0.3120(13) 0.7158(9) 0.043(2) Uani d U . . 1 . .
O O2 -0.0526(8) 0.3636(7) 0.6376(4) 0.0050(13) Uani d U . . 1 . .
C C2 0.3004(17) 0.2605(14) 0.7065(9) 0.033(2) Uani d U . . 1 . .
N N2 0.2269(14) 0.2374(12) 0.9082(7) 0.033(2) Uani d U . . 1 . .
C C5 0.6100(14) 0.2485(13) 0.3813(8) 0.021(2) Uani d U . . 1 . .
C C4 0.5019(15) 0.2510(13) 0.4942(8) 0.023(2) Uani d U . . 1 . .
C C3 0.4125(17) 0.2557(15) 0.5927(9) 0.032(2) Uani d U . . 1 . .
C C8 0.8174(18) 0.2361(16) 0.1571(10) 0.040(3) Uani d U . . 1 . .
H H8 0.88908 0.230661 0.079929 0.049 Uiso calc U . R 1 . .
C C7 0.9241(17) 0.1907(18) 0.2585(11) 0.044(3) Uani d U . . 1 . .
H H7 1.070962 0.152886 0.252237 0.052 Uiso calc U . R 1 . .
C C6 0.8267(16) 0.1968(16) 0.3752(10) 0.035(2) Uani d U . . 1 . .
H H6 0.905053 0.167044 0.447163 0.042 Uiso calc U . R 1 . .
C C9 0.6073(18) 0.2902(16) 0.1616(9) 0.037(2) Uani d U . . 1 . .
H H9 0.533422 0.32278 0.087769 0.045 Uiso calc U . R 1 . .
C C10 0.5011(16) 0.2979(15) 0.2723(8) 0.030(2) Uani d U . . 1 . .
H H10 0.354047 0.33674 0.275007 0.035 Uiso calc U . R 1 . .
loop_
_atom_site_aniso_label
_atom_site_aniso_U_11
_atom_site_aniso_U_22
_atom_site_aniso_U_33
_atom_site_aniso_U_12
_atom_site_aniso_U_13
_atom_site_aniso_U_23
Cl1 0.047(2) 0.051(2) 0.0321(17) -0.0043(14) 0.0180(13) -0.0029(13)
C1 0.056(5) 0.023(4) 0.012(4) -0.010(4) 0.012(4) -0.003(3)
O1 0.061(4) 0.036(4) 0.028(4) -0.012(3) 0.038(3) -0.007(3)
N1 0.061(4) 0.023(4) 0.039(4) -0.009(3) 0.050(4) -0.009(3)
O2 0.004(3) 0.004(3) 0.001(3) 0.006(2) 0.003(2) 0.003(2)
C2 0.054(4) 0.016(4) 0.027(4) -0.012(3) 0.025(4) -0.004(3)
N2 0.056(4) 0.025(4) 0.016(3) -0.013(3) 0.031(3) -0.009(3)
C5 0.027(4) 0.015(4) 0.017(4) -0.006(3) 0.020(3) 0.000(3)
C4 0.040(4) 0.014(4) 0.016(4) -0.011(3) 0.015(3) -0.002(3)
C3 0.054(5) 0.019(4) 0.022(4) -0.011(4) 0.026(4) -0.004(3)
C8 0.059(5) 0.030(5) 0.031(4) -0.014(4) 0.034(4) -0.008(4)
C7 0.037(5) 0.041(5) 0.050(5) -0.008(4) 0.029(4) -0.015(4)
C6 0.031(4) 0.035(5) 0.035(4) -0.002(4) 0.011(4) -0.004(4)
C9 0.059(5) 0.030(5) 0.020(4) -0.009(4) 0.013(4) -0.003(4)
C10 0.036(4) 0.028(4) 0.020(4) -0.005(4) 0.015(4) -0.002(4)
loop_
_atom_type_symbol
_atom_type_description
_atom_type_scat_dispersion_real
_atom_type_scat_dispersion_imag
_atom_type_scat_source
C C 0.0033 0.0016 'International Tables Vol C Tables 4.2.6.8 and 6.1.1.4'
H H 0.0000 0.0000 'International Tables Vol C Tables 4.2.6.8 and 6.1.1.4'
Cl Cl 0.1484 0.1585 'International Tables Vol C Tables 4.2.6.8 and 6.1.1.4'
N N 0.0061 0.0033 'International Tables Vol C Tables 4.2.6.8 and 6.1.1.4'
O O 0.0106 0.0060 'International Tables Vol C Tables 4.2.6.8 and 6.1.1.4'
loop_
_geom_angle_atom_site_label_1
_geom_angle_atom_site_label_2
_geom_angle_atom_site_label_3
_geom_angle_site_symmetry_1
_geom_angle_site_symmetry_3
_geom_angle
_geom_angle_publ_flag
N2 C1 C2 . . 113.6(10) ?
N2 C1 Cl1 . . 118.8(8) ?
C2 C1 Cl1 . . 127.5(8) ?
N1 O1 N2 . . 109.9(7) ?
O2 N1 C2 . . 132.3(8) ?
O2 N1 O1 . . 123.9(8) ?
C2 N1 O1 . . 103.8(9) ?
C1 C2 N1 . . 108.1(9) ?
C1 C2 C3 . . 128.9(10) ?
N1 C2 C3 . . 123.0(10) ?
C1 N2 O1 . . 104.5(8) ?
C4 C5 C6 . . 120.9(9) ?
C4 C5 C10 . . 120.0(9) ?
C6 C5 C10 . . 119.2(8) ?
C3 C4 C5 . . 178.3(11) ?
C4 C3 C2 . . 177.8(12) ?
C7 C8 C9 . . 121.1(9) ?
C7 C8 H8 . . 119.5 ?
C9 C8 H8 . . 119.5 ?
C8 C7 C6 . . 122.0(10) ?
C8 C7 H7 . . 119.0 ?
C6 C7 H7 . . 119.0 ?
C5 C6 C7 . . 117.5(11) ?
C5 C6 H6 . . 121.2 ?
C7 C6 H6 . . 121.2 ?
C8 C9 C10 . . 120.3(11) ?
C8 C9 H9 . . 119.9 ?
C10 C9 H9 . . 119.9 ?
C9 C10 C5 . . 119.9(10) ?
C9 C10 H10 . . 120.0 ?
C5 C10 H10 . . 120.1 ?
loop_
_geom_bond_atom_site_label_1
_geom_bond_atom_site_label_2
_geom_bond_site_symmetry_2
_geom_bond_distance
_geom_bond_publ_flag
Cl1 C1 . 1.565(12) ?
C1 N2 . 1.321(11) ?
C1 C2 . 1.357(15) ?
O1 N1 . 1.419(11) ?
O1 N2 . 1.426(12) ?
N1 O2 . 1.238(12) ?
N1 C2 . 1.411(15) ?
C2 C3 . 1.419(12) ?
C5 C4 . 1.399(11) ?
C5 C6 . 1.400(14) ?
C5 C10 . 1.403(14) ?
C4 C3 . 1.206(13) ?
C8 C7 . 1.324(16) ?
C8 C9 . 1.358(16) ?
C8 H8 . 0.95 ?
C7 C6 . 1.405(14) ?
C7 H7 . 0.95 ?
C6 H6 . 0.95 ?
C9 C10 . 1.373(13) ?
C9 H9 . 0.95 ?
C10 H10 . 0.95 ?
