#------------------------------------------------------------------------------
#$Date: 2020-05-27 02:14:20 +0300 (Wed, 27 May 2020) $
#$Revision: 252363 $
#$URL: file:///home/coder/svn-repositories/cod/cif/4/03/84/4038410.cif $
#------------------------------------------------------------------------------
#
# This file is available in the Crystallography Open Database (COD),
# http://www.crystallography.net/
#
# All data on this site have been placed in the public domain by the
# contributors.
#
data_4038410
loop_
_publ_author_name
'Castillo, Juan-Carlos'
'Castro-Agudelo, Brian'
'G\'alvez, Jaime'
'Carissan, Yannick'
'Rodr\'iguez, Jean'
'Coquerel, Yoann'
_publ_section_title
;
 Periselectivity in the aza-Diels-Alder cycloaddition between
 \a-oxoketenes and N-(5-pyrazolyl)imines: a combined experimental and
 theoretical study.
;
_journal_name_full               'The Journal of organic chemistry'
_journal_paper_doi               10.1021/acs.joc.0c00767
_journal_year                    2020
_chemical_formula_moiety         'C12 H12 O4'
_chemical_formula_sum            'C12 H12 O4'
_chemical_formula_weight         220.22
_space_group_crystal_system      triclinic
_space_group_IT_number           2
_space_group_name_Hall           '-P 1'
_space_group_name_H-M_alt        'P -1'
_atom_sites_solution_hydrogens   geom
_audit_creation_date             2020-01-06
_audit_creation_method
;
Olex2 1.2
(compiled 2018.05.29 svn.r3510 for OlexSys, GUI svn.r5506)
;
_cell_angle_alpha                101.487(2)
_cell_angle_beta                 108.498(2)
_cell_angle_gamma                106.224(2)
_cell_formula_units_Z            2
_cell_length_a                   6.7935(2)
_cell_length_b                   8.8102(3)
_cell_length_c                   9.8737(4)
_cell_measurement_reflns_used    5946
_cell_measurement_temperature    295(2)
_cell_measurement_theta_max      28.99
_cell_measurement_theta_min      2.29
_cell_measurement_wavelength     0.71073
_cell_volume                     510.53(3)
_computing_molecular_graphics    'Olex2 (Dolomanov et al., 2009)'
_computing_publication_material  'Olex2 (Dolomanov et al., 2009)'
_computing_structure_refinement  'ShelXL (Sheldrick, 2015)'
_diffrn_ambient_temperature      295(2)
_diffrn_measured_fraction_theta_full 0.986
_diffrn_measured_fraction_theta_max 0.944
_diffrn_measurement_device_type  KappaCCD
_diffrn_measurement_method       'Omega + Phi scan'
_diffrn_radiation_type           MoK\a
_diffrn_radiation_wavelength     0.71073
_diffrn_reflns_av_R_equivalents  0.0454
_diffrn_reflns_av_unetI/netI     0.0383
_diffrn_reflns_Laue_measured_fraction_full 0.986
_diffrn_reflns_Laue_measured_fraction_max 0.944
_diffrn_reflns_limit_h_max       9
_diffrn_reflns_limit_h_min       -9
_diffrn_reflns_limit_k_max       11
_diffrn_reflns_limit_k_min       -11
_diffrn_reflns_limit_l_max       12
_diffrn_reflns_limit_l_min       0
_diffrn_reflns_number            2554
_diffrn_reflns_point_group_measured_fraction_full 0.986
_diffrn_reflns_point_group_measured_fraction_max 0.944
_diffrn_reflns_theta_full        25.242
_diffrn_reflns_theta_max         28.987
_diffrn_reflns_theta_min         2.293
_exptl_absorpt_coefficient_mu    0.108
_exptl_absorpt_correction_type   none
_exptl_crystal_colour            colourless
_exptl_crystal_colour_primary    colourless
_exptl_crystal_density_diffrn    1.433
_exptl_crystal_density_method    'not measured'
_exptl_crystal_description       prism
_exptl_crystal_F_000             232
_exptl_crystal_size_max          0.26
_exptl_crystal_size_mid          0.24
_exptl_crystal_size_min          0.2
_refine_diff_density_max         0.414
_refine_diff_density_min         -0.418
_refine_diff_density_rms         0.151
_refine_ls_extinction_method     none
_refine_ls_goodness_of_fit_ref   1.202
_refine_ls_hydrogen_treatment    constr
_refine_ls_matrix_type           full
_refine_ls_number_parameters     145
_refine_ls_number_reflns         2554
_refine_ls_number_restraints     0
_refine_ls_restrained_S_all      1.202
_refine_ls_R_factor_all          0.0821
_refine_ls_R_factor_gt           0.0563
_refine_ls_shift/su_max          0.000
_refine_ls_shift/su_mean         0.000
_refine_ls_structure_factor_coef Fsqd
_refine_ls_weighting_details
'w=1/[\s^2^(Fo^2^)+(0.1037P)^2^+0.0846P] where P=(Fo^2^+2Fc^2^)/3'
_refine_ls_weighting_scheme      calc
_refine_ls_wR_factor_gt          0.1638
_refine_ls_wR_factor_ref         0.1974
_reflns_Friedel_coverage         0.000
_reflns_number_gt                1954
_reflns_number_total             2554
_reflns_threshold_expression     'I > 2\s(I)'
_iucr_refine_instructions_details
;
TITL yo4140cr in P -1
 yo4140cr.res created by SHELXL-2016/4 at 09:58:24 on 06-Jan-2020
CELL 0.71073 6.7935 8.8102 9.8737 101.487 108.498 106.224
ZERR 2 0.0002 0.0003 0.0004 0.002 0.002 0.002
LATT 1
SFAC C H O
UNIT 24 24 8

L.S. 10
PLAN  25
TEMP 22(2)
BOND $H
fmap 2
acta
MERG 2
REM <olex2.extras>
REM <HklSrc "%./yo4140cr.hkl">
REM </olex2.extras>

WGHT    0.103700    0.084600
FVAR       9.31548
C1    1    0.149141    0.184665    0.420554    11.00000    0.03908    0.03930 =
         0.03696    0.00846    0.01926    0.01611
C2    1    0.248513    0.198541    0.575104    11.00000    0.03951    0.04248 =
         0.03786    0.01434    0.01779    0.01676
C3    1    0.441730    0.158283    0.660998    11.00000    0.04809    0.06349 =
         0.05174    0.02488    0.02039    0.02856
AFIX  23
H3A   2    0.574399    0.213091    0.645666    11.00000   -1.20000
H3B   2    0.407608    0.039073    0.631500    11.00000   -1.20000
AFIX   0
C4    1    0.472917    0.226922    0.826678    11.00000    0.05632    0.07127 =
         0.04726    0.02647    0.01397    0.02645
AFIX  23
H4A   2    0.481365    0.142817    0.876135    11.00000   -1.20000
H4B   2    0.610124    0.323842    0.880750    11.00000   -1.20000
AFIX   0
C5    1    0.271997    0.274477    0.825942    11.00000    0.06105    0.06942 =
         0.03778    0.01749    0.02035    0.02303
AFIX  23
H5A   2    0.174334    0.197605    0.856002    11.00000   -1.20000
H5B   2    0.319436    0.386833    0.892079    11.00000   -1.20000
AFIX   0
C6    1    0.161053    0.261782    0.666435    11.00000    0.04008    0.04416 =
         0.03723    0.01297    0.01589    0.01522
C7    1   -0.107815    0.306464    0.471640    11.00000    0.03519    0.04687 =
         0.04012    0.01048    0.01722    0.01543
C8    1   -0.021040    0.237091    0.368133    11.00000    0.03549    0.04646 =
         0.03568    0.00961    0.01556    0.01551
C9    1   -0.122113    0.227129    0.205309    11.00000    0.03940    0.06919 =
         0.03592    0.01162    0.01251    0.02436
AFIX  23
H9A   2   -0.253210    0.256661    0.188180    11.00000   -1.20000
H9B   2   -0.169831    0.113234    0.142260    11.00000   -1.20000
AFIX   0
C10   1    0.040391    0.341942    0.159365    11.00000    0.05562    0.06909 =
         0.04052    0.02205    0.02327    0.03639
AFIX  23
H10A  2    0.042689    0.454188    0.190957    11.00000   -1.20000
H10B  2   -0.011228    0.305396    0.050558    11.00000   -1.20000
AFIX   0
C11   1    0.277331    0.343851    0.228849    11.00000    0.04681    0.05965 =
         0.04339    0.02004    0.02317    0.02421
AFIX  23
H11A  2    0.365052    0.392859    0.177038    11.00000   -1.20000
H11B  2    0.347154    0.412285    0.333742    11.00000   -1.20000
AFIX   0
C12   1    0.275436    0.172778    0.218160    11.00000    0.03976    0.06158 =
         0.03408    0.00935    0.01541    0.02452
O1    3   -0.013208    0.311445    0.620666    11.00000    0.04615    0.05767 =
         0.03966    0.01346    0.02352    0.02375
O2    3   -0.257769    0.358885    0.441636    11.00000    0.04393    0.07155 =
         0.05547    0.01519    0.02286    0.03187
O3    3    0.230397    0.107657    0.326549    11.00000    0.05518    0.05109 =
         0.04378    0.01382    0.02710    0.03068
O4    3    0.307843    0.085266    0.125280    11.00000    0.07280    0.08319 =
         0.04400    0.00888    0.03088    0.04481
HKLF 4




REM  yo4140cr in P -1
REM R1 =  0.0563 for    1954 Fo > 4sig(Fo)  and  0.0821 for all    2554 data
REM    145 parameters refined using      0 restraints

END  
     
WGHT      0.1037      0.0840 

REM Highest difference peak  0.414,  deepest hole -0.418,  1-sigma level  0.151
Q1    1  -0.0022  0.4028  0.0183  11.00000  0.05    0.41
Q2    1   0.1253  0.4187 -0.0068  11.00000  0.05    0.37
Q3    1   0.0681  0.4801 -0.0237  11.00000  0.05    0.37
Q4    1   0.2174  0.4737  0.9591  11.00000  0.05    0.36
Q5    1   0.2031  0.3659  0.9197  11.00000  0.05    0.34
Q6    1   0.3466  0.4529  1.0391  11.00000  0.05    0.34
Q7    1  -0.1253  0.3814 -0.0524  11.00000  0.05    0.34
Q8    1  -0.0877  0.3923  0.0648  11.00000  0.05    0.33
Q9    1   0.0061  0.4774  0.1000  11.00000  0.05    0.33
Q10   1   0.7340  0.5018  0.9648  11.00000  0.05    0.32
Q11   1   0.6076  0.4212  0.9656  11.00000  0.05    0.32
Q12   1   0.4157  0.5041  0.9653  11.00000  0.05    0.32
Q13   1   0.7896  0.2584  0.9056  11.00000  0.05    0.31
Q14   1   0.0244  0.3567  0.0956  11.00000  0.05    0.31
Q15   1   0.2970  0.4271  0.9538  11.00000  0.05    0.31
Q16   1  -0.1168  0.2645 -0.1187  11.00000  0.05    0.31
Q17   1   0.0481  0.3055 -0.0763  11.00000  0.05    0.31
Q18   1   0.5229  0.3754  1.0036  11.00000  0.05    0.30
Q19   1   0.4354  0.4056  1.0037  11.00000  0.05    0.30
Q20   1   0.7661  0.2471  0.8273  11.00000  0.05    0.30
Q21   1  -0.2100  0.3162  0.0002  11.00000  0.05    0.29
Q22   1   0.3698  0.5526  0.9612  11.00000  0.05    0.29
Q23   1   0.4666  0.4217  0.9418  11.00000  0.05    0.29
Q24   1   0.5877  0.2035  0.9049  11.00000  0.05    0.29
Q25   1  -0.1007  0.2781  0.0213  11.00000  0.05    0.28

  REM The information below was added by Olex2.
  REM
  REM R1 = 0.0563 for 1954 Fo > 4sig(Fo) and 0.0821 for all 2554 data
  REM n/a parameters refined using n/a restraints
  REM Highest difference peak 0.41, deepest hole -0.42
  REM Mean Shift 0, Max Shift 0.000.

  REM +++ Tabular Listing of Refinement Information +++
  REM R1_all = 0.0821
  REM R1_gt = 0.0563
  REM wR_ref = 0.1974
  REM GOOF = 1.202
  REM Shift_max = 0.000
  REM Shift_mean = 0
  REM Reflections_all = 2554
  REM Reflections_gt = 1954
  REM Parameters = n/a
  REM Hole = -0.42
  REM Peak = 0.41
  REM Flack = n/a

  
;
_cod_data_source_file            jo0c00767_si_002.cif
_cod_data_source_block           yo4140cr
_cod_database_code               4038410
_shelx_shelxl_version_number     2016/4
_shelx_space_group_comment
;
The symmetry employed for this shelxl refinement is uniquely defined
by the following loop, which should always be used as a source of
symmetry information in preference to the above space-group names.
They are only intended as comments.
;
_olex2_refinement_description
;
1. Fixed Uiso
 At 1.2 times of:
  All C(H,H) groups
2.a Secondary CH2 refined with riding coordinates:
 C3(H3A,H3B), C4(H4A,H4B), C5(H5A,H5B), C9(H9A,H9B), C10(H10A,H10B), C11(H11A,
 H11B)
;
_olex2_submission_special_instructions 'No special instructions were received'
loop_
_space_group_symop_operation_xyz
'x, y, z'
'-x, -y, -z'
loop_
_atom_site_label
_atom_site_type_symbol
_atom_site_fract_x
_atom_site_fract_y
_atom_site_fract_z
_atom_site_U_iso_or_equiv
_atom_site_adp_type
_atom_site_occupancy
_atom_site_site_symmetry_order
_atom_site_calc_flag
_atom_site_refinement_flags_posn
_atom_site_refinement_flags_adp
_atom_site_refinement_flags_occupancy
_atom_site_disorder_assembly
_atom_site_disorder_group
C1 C 0.1491(3) 0.1847(2) 0.42055(19) 0.0375(4) Uani 1 1 d . . . . .
C2 C 0.2485(3) 0.1985(2) 0.57510(19) 0.0386(4) Uani 1 1 d . . . . .
C3 C 0.4417(4) 0.1583(3) 0.6610(2) 0.0513(5) Uani 1 1 d . . . . .
H3A H 0.574399 0.213091 0.645666 0.062 Uiso 1 1 calc R . . . .
H3B H 0.407608 0.039073 0.631500 0.062 Uiso 1 1 calc R . . . .
C4 C 0.4729(4) 0.2269(3) 0.8267(2) 0.0581(6) Uani 1 1 d . . . . .
H4A H 0.481365 0.142817 0.876135 0.070 Uiso 1 1 calc R . . . .
H4B H 0.610124 0.323842 0.880750 0.070 Uiso 1 1 calc R . . . .
C5 C 0.2720(4) 0.2745(3) 0.8259(2) 0.0560(5) Uani 1 1 d . . . . .
H5A H 0.174334 0.197605 0.856002 0.067 Uiso 1 1 calc R . . . .
H5B H 0.319436 0.386833 0.892079 0.067 Uiso 1 1 calc R . . . .
C6 C 0.1611(3) 0.2618(2) 0.6664(2) 0.0404(4) Uani 1 1 d . . . . .
C7 C -0.1078(3) 0.3065(2) 0.4716(2) 0.0406(4) Uani 1 1 d . . . . .
C8 C -0.0210(3) 0.2371(2) 0.36813(19) 0.0393(4) Uani 1 1 d . . . . .
C9 C -0.1221(3) 0.2271(3) 0.2053(2) 0.0486(5) Uani 1 1 d . . . . .
H9A H -0.253210 0.256661 0.188180 0.058 Uiso 1 1 calc R . . . .
H9B H -0.169831 0.113234 0.142260 0.058 Uiso 1 1 calc R . . . .
C10 C 0.0404(3) 0.3419(3) 0.1594(2) 0.0501(5) Uani 1 1 d . . . . .
H10A H 0.042689 0.454188 0.190957 0.060 Uiso 1 1 calc R . . . .
H10B H -0.011228 0.305396 0.050558 0.060 Uiso 1 1 calc R . . . .
C11 C 0.2773(3) 0.3439(3) 0.2288(2) 0.0469(5) Uani 1 1 d . . . . .
H11A H 0.365052 0.392859 0.177038 0.056 Uiso 1 1 calc R . . . .
H11B H 0.347154 0.412285 0.333742 0.056 Uiso 1 1 calc R . . . .
C12 C 0.2754(3) 0.1728(3) 0.2182(2) 0.0445(5) Uani 1 1 d . . . . .
O1 O -0.0132(2) 0.31144(17) 0.62067(14) 0.0453(4) Uani 1 1 d . . . . .
O2 O -0.2578(2) 0.35889(19) 0.44164(16) 0.0545(4) Uani 1 1 d . . . . .
O3 O 0.2304(2) 0.10766(16) 0.32655(15) 0.0456(4) Uani 1 1 d . . . . .
O4 O 0.3078(3) 0.0853(2) 0.12528(16) 0.0627(5) Uani 1 1 d . . . . .
loop_
_atom_site_aniso_label
_atom_site_aniso_U_11
_atom_site_aniso_U_22
_atom_site_aniso_U_33
_atom_site_aniso_U_23
_atom_site_aniso_U_13
_atom_site_aniso_U_12
C1 0.0391(9) 0.0393(9) 0.0370(9) 0.0085(7) 0.0193(7) 0.0161(7)
C2 0.0395(9) 0.0425(9) 0.0379(9) 0.0143(7) 0.0178(7) 0.0168(7)
C3 0.0481(11) 0.0635(12) 0.0517(11) 0.0249(9) 0.0204(9) 0.0286(10)
C4 0.0563(12) 0.0713(14) 0.0473(11) 0.0265(10) 0.0140(10) 0.0264(11)
C5 0.0610(13) 0.0694(13) 0.0378(10) 0.0175(9) 0.0203(9) 0.0230(11)
C6 0.0401(9) 0.0442(9) 0.0372(9) 0.0130(7) 0.0159(7) 0.0152(8)
C7 0.0352(9) 0.0469(9) 0.0401(9) 0.0105(7) 0.0172(7) 0.0154(8)
C8 0.0355(9) 0.0465(9) 0.0357(9) 0.0096(7) 0.0156(7) 0.0155(7)
C9 0.0394(10) 0.0692(13) 0.0359(9) 0.0116(8) 0.0125(8) 0.0244(9)
C10 0.0556(12) 0.0691(13) 0.0405(10) 0.0220(9) 0.0233(9) 0.0364(10)
C11 0.0468(11) 0.0597(11) 0.0434(10) 0.0200(8) 0.0232(8) 0.0242(9)
C12 0.0398(9) 0.0616(11) 0.0341(9) 0.0094(8) 0.0154(7) 0.0245(9)
O1 0.0461(8) 0.0577(8) 0.0397(7) 0.0135(6) 0.0235(6) 0.0237(6)
O2 0.0439(8) 0.0715(10) 0.0555(9) 0.0152(7) 0.0229(7) 0.0319(7)
O3 0.0552(8) 0.0511(8) 0.0438(7) 0.0138(6) 0.0271(6) 0.0307(7)
O4 0.0728(10) 0.0832(11) 0.0440(8) 0.0089(7) 0.0309(7) 0.0448(9)
loop_
_atom_type_symbol
_atom_type_description
_atom_type_scat_dispersion_real
_atom_type_scat_dispersion_imag
_atom_type_scat_source
C C 0.0033 0.0016 'International Tables Vol C Tables 4.2.6.8 and 6.1.1.4'
H H 0.0000 0.0000 'International Tables Vol C Tables 4.2.6.8 and 6.1.1.4'
O O 0.0106 0.0060 'International Tables Vol C Tables 4.2.6.8 and 6.1.1.4'
loop_
_geom_angle_atom_site_label_1
_geom_angle_atom_site_label_2
_geom_angle_atom_site_label_3
_geom_angle
_geom_angle_site_symmetry_1
_geom_angle_site_symmetry_3
_geom_angle_publ_flag
C8 C1 C2 121.93(15) . . ?
C8 C1 O3 122.17(15) . . ?
O3 C1 C2 115.84(15) . . ?
C1 C2 C3 132.12(16) . . ?
C6 C2 C1 116.81(16) . . ?
C6 C2 C3 111.06(16) . . ?
C2 C3 H3A 111.1 . . ?
C2 C3 H3B 111.1 . . ?
C2 C3 C4 103.09(16) . . ?
H3A C3 H3B 109.1 . . ?
C4 C3 H3A 111.1 . . ?
C4 C3 H3B 111.1 . . ?
C3 C4 H4A 110.1 . . ?
C3 C4 H4B 110.1 . . ?
H4A C4 H4B 108.4 . . ?
C5 C4 C3 107.92(17) . . ?
C5 C4 H4A 110.1 . . ?
C5 C4 H4B 110.1 . . ?
C4 C5 H5A 111.3 . . ?
C4 C5 H5B 111.3 . . ?
H5A C5 H5B 109.2 . . ?
C6 C5 C4 102.37(16) . . ?
C6 C5 H5A 111.3 . . ?
C6 C5 H5B 111.3 . . ?
C2 C6 C5 114.46(17) . . ?
C2 C6 O1 124.29(16) . . ?
O1 C6 C5 121.26(16) . . ?
O1 C7 C8 117.38(15) . . ?
O2 C7 C8 126.65(17) . . ?
O2 C7 O1 115.96(15) . . ?
C1 C8 C7 119.15(16) . . ?
C1 C8 C9 122.02(15) . . ?
C7 C8 C9 118.83(16) . . ?
C8 C9 H9A 109.1 . . ?
C8 C9 H9B 109.1 . . ?
C8 C9 C10 112.61(16) . . ?
H9A C9 H9B 107.8 . . ?
C10 C9 H9A 109.1 . . ?
C10 C9 H9B 109.1 . . ?
C9 C10 H10A 109.2 . . ?
C9 C10 H10B 109.2 . . ?
C9 C10 C11 112.09(16) . . ?
H10A C10 H10B 107.9 . . ?
C11 C10 H10A 109.2 . . ?
C11 C10 H10B 109.2 . . ?
C10 C11 H11A 109.4 . . ?
C10 C11 H11B 109.4 . . ?
H11A C11 H11B 108.0 . . ?
C12 C11 C10 111.20(18) . . ?
C12 C11 H11A 109.4 . . ?
C12 C11 H11B 109.4 . . ?
O3 C12 C11 116.78(15) . . ?
O4 C12 C11 126.62(19) . . ?
O4 C12 O3 116.61(18) . . ?
C6 O1 C7 120.33(13) . . ?
C1 O3 C12 120.81(14) . . ?
loop_
_geom_bond_atom_site_label_1
_geom_bond_atom_site_label_2
_geom_bond_distance
_geom_bond_site_symmetry_2
_geom_bond_publ_flag
C1 C2 1.423(2) . ?
C1 C8 1.353(2) . ?
C1 O3 1.3821(19) . ?
C2 C3 1.497(3) . ?
C2 C6 1.342(2) . ?
C3 H3A 0.9700 . ?
C3 H3B 0.9700 . ?
C3 C4 1.550(3) . ?
C4 H4A 0.9700 . ?
C4 H4B 0.9700 . ?
C4 C5 1.534(3) . ?
C5 H5A 0.9700 . ?
C5 H5B 0.9700 . ?
C5 C6 1.480(3) . ?
C6 O1 1.351(2) . ?
C7 C8 1.449(2) . ?
C7 O1 1.392(2) . ?
C7 O2 1.210(2) . ?
C8 C9 1.508(2) . ?
C9 H9A 0.9700 . ?
C9 H9B 0.9700 . ?
C9 C10 1.525(3) . ?
C10 H10A 0.9700 . ?
C10 H10B 0.9700 . ?
C10 C11 1.530(3) . ?
C11 H11A 0.9700 . ?
C11 H11B 0.9700 . ?
C11 C12 1.486(3) . ?
C12 O3 1.386(2) . ?
C12 O4 1.194(2) . ?
loop_
_refln_index_h
_refln_index_k
_refln_index_l
_refln_F_squared_meas
_refln_F_squared_sigma
_refln_scale_group_code
0 0 1 -1.4 3.3 1
0 0 3 32171.5 813.3 1
0 0 5 30880.1 759 1
0 0 6 10183.5 307.5 1
0 0 7 836.6 39 1
0 0 8 1656.1 76.4 1
0 0 9 2930.9 106.5 1
0 0 10 254.6 64.3 1
0 0 11 238.6 78.5 1
0 0 12 115.4 95.5 1
0 1 -12 364.3 96.7 1
0 1 -11 116.7 65.6 1
0 1 -10 2473.2 116.7 1
0 1 -9 2702.2 100.4 1
0 1 -8 3957.3 100.2 1
0 1 -7 13.1 11.6 1
0 1 -6 35.7 10.8 1
0 1 -5 11492.6 293.2 1
0 1 -3 2612.2 87.3 1
0 1 -2 78.4 6.7 1
0 1 -1 -0.9 2.7 1
0 1 0 -0.5 2.8 1
0 1 1 11346.9 348.3 1
0 1 2 31860.3 1081.2 1
0 1 3 17951.3 423.3 1
0 1 4 1390.2 47.8 1
0 1 5 42913.2 1254.1 1
0 1 6 2944.6 84.4 1
0 1 7 29.1 24.3 1
0 1 8 2933.5 105.6 1
0 1 9 416.3 47.7 1
0 1 10 313.6 61.6 1
0 1 11 2303 133.8 1
0 2 -12 310.4 79 1
0 2 -11 174.3 70.5 1
0 2 -10 619.4 32.8 1
0 2 -9 34 17.6 1
0 2 -8 1529.3 45 1
0 2 -7 105.7 13.8 1
0 2 -6 46.1 13.7 1
0 2 -3 7915.5 253.2 1
0 2 -2 18020.9 590.8 1
0 2 1 26108.8 797 1
0 2 2 5452.9 159.8 1
0 2 3 3638.8 111 1
0 2 4 1662.7 51.7 1
0 2 5 3180.2 102.4 1
0 2 6 4367.1 140.4 1
0 2 7 7556.5 220.2 1
0 2 8 931.9 53.4 1
0 2 9 107.2 56.5 1
0 2 10 180.7 66.4 1
0 2 11 780.3 103 1
0 3 -12 119.5 76.1 1
0 3 -11 238.2 37.2 1
0 3 -10 15.6 27.4 1
0 3 -9 3203.4 84.8 1
0 3 -8 4964.8 130.6 1
0 3 -7 4554.4 150.9 1
0 3 -6 5580.4 181.4 1
0 3 -5 22484.2 729 1
0 3 -4 792.6 28.3 1
0 3 -3 1574.4 47.2 1
0 3 -2 16027.8 473.3 1
0 3 -1 58677.9 1745.7 1
0 3 0 1721.4 43.9 1
0 3 1 57167.8 1305.1 1
0 3 2 2810.4 84.6 1
0 3 3 15924.9 448.4 1
0 3 4 31.2 18.2 1
0 3 5 4730.9 106.3 1
0 3 6 4590.2 137.4 1
0 3 7 993.1 52.4 1
0 3 8 144.5 38.3 1
0 3 9 527.5 217.5 1
0 3 10 1144.8 109.1 1
0 4 -12 -31.7 62.1 1
0 4 -11 52.2 32.6 1
0 4 -10 1539.7 69.7 1
0 4 -9 674.2 35.8 1
0 4 -8 284 28.6 1
0 4 -7 349 25.1 1
0 4 -6 12011 402.5 1
0 4 -5 10218.1 300.4 1
0 4 -4 29.9 10.5 1
0 4 -3 1395 41.2 1
0 4 -2 3488.7 93.7 1
0 4 -1 2183.2 74.5 1
0 4 0 3927.6 93.3 1
0 4 1 48.4 10.8 1
0 4 2 6416.9 146.4 1
0 4 3 802.9 33.4 1
0 4 4 188.6 23.8 1
0 4 5 1226.3 51.2 1
0 4 6 10987 326.2 1
0 4 7 3041.7 104.5 1
0 4 8 48.6 49.1 1
0 4 9 1408.2 134.5 1
0 5 -12 348.9 65.1 1
0 5 -11 1019.6 49.5 1
0 5 -10 4.5 26.7 1
0 5 -9 976 52.8 1
0 5 -8 3813.3 129.3 1
0 5 -7 1547.2 57.9 1
0 5 -6 3028.3 92.1 1
0 5 -5 2862 90 1
0 5 -4 25026.7 731.4 1
0 5 -3 351.4 15.5 1
0 5 -2 317.5 15 1
0 5 -1 8591.5 187.4 1
0 5 0 2129.6 58.3 1
0 5 1 2720 77.4 1
0 5 2 950.5 30.1 1
0 5 3 1958.5 55.5 1
0 5 4 737.6 41 1
0 5 5 8243.6 255.5 1
0 5 6 4251.1 85.1 1
0 5 7 1731.1 162.4 1
0 5 8 360.2 77.8 1
0 5 9 65.9 75.8 1
0 6 -12 51.4 70.8 1
0 6 -11 234.3 39 1
0 6 -10 238.8 42 1
0 6 -9 190.1 33 1
0 6 -8 25.4 24.8 1
0 6 -7 307.9 27.7 1
0 6 -6 371.4 23.2 1
0 6 -5 2062.9 63.4 1
0 6 -4 79.7 12.5 1
0 6 -3 796.8 27 1
0 6 -2 682.9 24.7 1
0 6 -1 396.2 19 1
0 6 0 708.1 26.7 1
0 6 1 7856.6 174.5 1
0 6 2 2013.4 53.1 1
0 6 3 938.1 37.2 1
0 6 4 2728.7 82.7 1
0 6 5 1647.6 72.2 1
0 6 6 4428.6 101.5 1
0 6 7 323 59.7 1
0 6 8 1.7 72.4 1
0 7 -12 45 71.5 1
0 7 -11 34.8 36.9 1
0 7 -10 3.4 36.5 1
0 7 -9 167.4 33 1
0 7 -8 193 27.6 1
0 7 -7 151.1 24 1
0 7 -6 839.2 35.5 1
0 7 -5 77.8 15.9 1
0 7 -4 2764.3 69.2 1
0 7 -3 556.8 24.9 1
0 7 -2 3178.9 85.6 1
0 7 -1 323 28.5 1
0 7 0 2058.1 57.5 1
0 7 1 15.7 20.1 1
0 7 2 1508.6 47.4 1
0 7 3 2267 74.1 1
0 7 4 1330.5 53.5 1
0 7 5 1629.3 65 1
0 7 6 635.8 65.9 1
0 7 7 391.6 94.8 1
0 8 -11 453.7 75.7 1
0 8 -10 673.9 74.8 1
0 8 -9 -6.5 38.3 1
0 8 -8 139.6 35.3 1
0 8 -7 1355.8 48.6 1
0 8 -6 1911.3 67.8 1
0 8 -5 312.2 22.9 1
0 8 -4 456.1 23.9 1
0 8 -3 796.8 37.3 1
0 8 -2 816.9 33.6 1
0 8 -1 1005.3 45.3 1
0 8 0 190.6 32.2 1
0 8 1 4519.1 109.2 1
0 8 2 1134.2 52.1 1
0 8 3 341.9 42.3 1
0 8 4 -21.1 47.4 1
0 8 5 1193.2 79.3 1
0 9 -10 147.3 64.1 1
0 9 -9 36.5 50.6 1
0 9 -8 361.1 33.1 1
0 9 -7 612.4 36.3 1
0 9 -6 750.6 36.8 1
0 9 -5 237.6 32.1 1
0 9 -4 584.4 31.8 1
0 9 -3 13.9 25.9 1
0 9 -2 409.8 35.7 1
0 9 -1 11.9 36.7 1
0 9 0 193.8 36.4 1
0 9 1 66.7 37.1 1
0 9 2 -21.2 38.9 1
0 9 3 -38.1 50.8 1
0 9 4 40.6 80.4 1
0 10 -8 306.1 44.4 1
0 10 -7 1312 72.1 1
0 10 -6 157.5 30 1
0 10 -5 315.3 31.5 1
0 10 -4 241.7 30.4 1
0 10 -3 117 37.5 1
0 10 -2 375.7 44.6 1
0 10 -1 147.7 46.1 1
0 10 0 -15.3 50.4 1
0 10 1 317.5 62 1
0 10 2 308.7 77.5 1
0 11 -4 164.2 88.1 1
0 11 -3 143.3 61.4 1
0 11 -2 57.1 68.1 1
1 -11 3 -26.3 73.2 1
1 -11 4 -48.6 72.3 1
1 -11 5 183.1 87 1
1 -10 -3 126 78.9 1
1 -10 -2 -17.4 16.1 1
1 -10 -1 151.9 35.7 1
1 -10 0 250.1 43.4 1
1 -10 1 132.9 35.8 1
1 -10 2 1289.9 48.4 1
1 -10 3 26.2 24.7 1
1 -10 4 342 25 1
1 -10 5 -17.3 18.9 1
1 -10 6 12.1 22.2 1
1 -10 7 30.6 30.8 1
1 -10 8 1.2 150.9 1
1 -9 -5 45.8 74.6 1
1 -9 -4 1297.7 43.5 1
1 -9 -3 18.5 27.4 1
1 -9 -2 570.3 39.9 1
1 -9 -1 47.3 28.6 1
1 -9 0 4.4 29.4 1
1 -9 1 57.2 23.5 1
1 -9 2 565.5 28.1 1
1 -9 3 1008.5 32.7 1
1 -9 4 504.6 30.5 1
1 -9 5 208.4 22.9 1
1 -9 6 5129.1 121.4 1
1 -9 7 5587.9 131 1
1 -9 8 1261.9 52.9 1
1 -9 9 71.5 50.4 1
1 -8 -6 158.4 86.6 1
1 -8 -5 -19.5 23.8 1
1 -8 -4 35.4 32.6 1
1 -8 -3 58.2 39.8 1
1 -8 -2 329.7 40.7 1
1 -8 -1 211 29.6 1
1 -8 0 357.9 27.4 1
1 -8 1 180 22.9 1
1 -8 2 848.6 28.9 1
1 -8 3 620.4 23.2 1
1 -8 4 85.2 18.6 1
1 -8 5 483.2 22.4 1
1 -8 6 359 27.1 1
1 -8 7 1539.3 58.6 1
1 -8 8 917.5 46 1
1 -8 9 94.3 28.2 1
1 -8 10 225.5 47.8 1
1 -8 11 79.2 62.5 1
1 -7 -7 -28.8 77.1 1
1 -7 -6 104.2 24.4 1
1 -7 -5 1927.2 52.5 1
1 -7 -4 98.6 29.4 1
1 -7 -3 725.2 32.8 1
1 -7 -2 330.9 26.9 1
1 -7 -1 217.3 24.9 1
1 -7 0 39.1 13.5 1
1 -7 1 14 13.2 1
1 -7 2 6139.9 141.6 1
1 -7 3 5204.3 118 1
1 -7 4 4775.7 113.1 1
1 -7 5 1609.9 54.5 1
1 -7 6 16250.5 460.1 1
1 -7 7 1460.8 59.6 1
1 -7 8 43 24.7 1
1 -7 9 182.1 29.9 1
1 -7 10 795.2 46.6 1
1 -7 11 513.7 69.4 1
1 -6 -8 43 77 1
1 -6 -7 1999.5 84.4 1
1 -6 -6 556.2 26.4 1
1 -6 -5 3213 68.8 1
1 -6 -4 191.8 27.1 1
1 -6 -3 22659.5 486.8 1
1 -6 -2 11426.9 254.3 1
1 -6 -1 -4.7 12.7 1
1 -6 0 32.9 11.6 1
1 -6 1 437 17.3 1
1 -6 2 657.1 20.6 1
1 -6 3 547.2 17.2 1
1 -6 4 509.8 20.9 1
1 -6 5 42.1 12.5 1
1 -6 6 8746.4 260.6 1
1 -6 7 3309.1 102.6 1
1 -6 8 2098.2 59.6 1
1 -6 9 1872 62.4 1
1 -6 10 40.2 32.2 1
1 -6 11 14 41.5 1
1 -5 -9 77.8 68.7 1
1 -5 -8 173.7 60.3 1
1 -5 -7 4142.7 143.4 1
1 -5 -6 528.1 35 1
1 -5 -5 134.4 14.9 1
1 -5 -4 997.5 35.2 1
1 -5 -3 1660.9 44.2 1
1 -5 -2 8006.5 176.2 1
1 -5 -1 2398.7 66.3 1
1 -5 0 6050.6 130.8 1
1 -5 1 8749.5 198.4 1
1 -5 2 3171.9 75.7 1
1 -5 3 43.4 8.2 1
1 -5 4 1441.1 67.5 1
1 -5 5 3885.4 118 1
1 -5 6 267.8 20.4 1
1 -5 7 1257.4 42.9 1
1 -5 8 581 34.8 1
1 -5 9 38.9 25.8 1
1 -5 10 13 29.1 1
1 -5 11 923.7 49.1 1
1 -5 12 315.2 69.9 1
1 -4 -10 438.5 111.2 1
1 -4 -9 270.4 65.7 1
1 -4 -8 3440.2 130.3 1
1 -4 -7 12226 371.4 1
1 -4 -6 5709.2 162.5 1
1 -4 -5 564.2 19.5 1
1 -4 -4 5389.4 109.5 1
1 -4 -3 38542.9 798.9 1
1 -4 -2 66675 3185.9 1
1 -4 -1 29.4 7.4 1
1 -4 0 2149.5 46.4 1
1 -4 1 42346.9 1282.4 1
1 -4 2 186.4 10.7 1
1 -4 3 1015.7 32.1 1
1 -4 4 1522.5 50 1
1 -4 5 9625.3 303.4 1
1 -4 6 985.9 30.4 1
1 -4 7 2.6 15.7 1
1 -4 8 744.4 33.1 1
1 -4 9 805.5 42.7 1
1 -4 10 129.7 26.5 1
1 -4 11 50.2 41.4 1
1 -4 12 1529.3 105.1 1
1 -3 -11 8.2 83.6 1
1 -3 -10 314.3 76.5 1
1 -3 -9 123.2 48.1 1
1 -3 -8 3923.3 132.1 1
1 -3 -7 5203.2 161.3 1
1 -3 -6 14754.7 385.2 1
1 -3 -5 10234.8 274.5 1
1 -3 -4 15446.9 329.4 1
1 -3 -3 117.7 10.4 1
1 -3 -2 4531.5 111.4 1
1 -3 -1 7406.9 158.3 1
1 -3 0 72239 3141.7 1
1 -3 1 148.5 6.2 1
1 -3 3 10049.5 329.9 1
1 -3 4 2855.7 78.5 1
1 -3 5 1390 39.9 1
1 -3 6 2046.1 53.2 1
1 -3 7 516.8 27.9 1
1 -3 8 1147 41 1
1 -3 9 137.9 32.1 1
1 -3 10 201.7 35.2 1
1 -3 11 89.2 71.3 1
1 -3 12 721.9 101.4 1
1 -2 -11 530.4 96.5 1
1 -2 -10 158.8 63.4 1
1 -2 -9 3453.9 130 1
1 -2 -8 3721.7 118.1 1
1 -2 -7 28733.6 772.6 1
1 -2 -6 11804.8 318 1
1 -2 -5 13619.9 379.4 1
1 -2 -4 5583.4 160.1 1
1 -2 -3 319.5 11.4 1
1 -2 -1 1383.6 31.3 1
1 -2 0 373.2 24.8 1
1 -2 1 27487 787.5 1
1 -2 2 30579.8 793.9 1
1 -2 3 10102.3 245.1 1
1 -2 4 6285.5 158.2 1
1 -2 5 1899.7 48.1 1
1 -2 6 10597.6 253.8 1
1 -2 7 18.4 14.9 1
1 -2 8 5206.5 131.2 1
1 -2 9 1625.8 56.3 1
1 -2 10 -52.3 39.6 1
1 -2 11 80 65.9 1
1 -2 12 290.9 93.5 1
1 -1 -12 703.4 98.1 1
1 -1 -11 516.3 76.3 1
1 -1 -10 1997.5 125.4 1
1 -1 -9 1841.6 109.4 1
1 -1 -8 3401 114 1
1 -1 -7 2073.8 76.5 1
1 -1 -6 5732.2 159.5 1
1 -1 -5 1687.2 57 1
1 -1 -4 6286.5 203.5 1
1 -1 -3 24005.8 579.5 1
1 -1 -1 4103.6 87.5 1
1 -1 0 22032.1 2199.8 1
1 -1 1 21432.4 513.6 1
1 -1 2 10199.6 240 1
1 -1 3 701.5 18.3 1
1 -1 4 20103.9 526.7 1
1 -1 5 170.6 14.1 1
1 -1 6 2937.8 80.1 1
1 -1 7 3561.5 117.7 1
1 -1 8 230.7 31.5 1
1 -1 9 874.3 57 1
1 -1 10 1075.7 99 1
1 -1 11 2072.5 146.7 1
1 0 -12 2106.2 169.7 1
1 0 -11 816.1 83.7 1
1 0 -10 3360.5 144.3 1
1 0 -9 268.8 33.5 1
1 0 -8 19.7 23.4 1
1 0 -7 18207.9 397.4 1
1 0 -6 78.2 17 1
1 0 -5 2151 71.8 1
1 0 -4 11396.4 402.4 1
1 0 -3 10697 343 1
1 0 -1 39037.5 1852 1
1 0 2 2302.8 68.3 1
1 0 3 32377.2 775.1 1
1 0 4 32936 797.3 1
1 0 5 12891.5 373 1
1 0 6 478.1 30.1 1
1 0 7 2012.2 79.3 1
1 0 8 886.9 55.8 1
1 0 9 827.8 57.6 1
1 0 10 1161.2 96.3 1
1 0 11 19.3 67.4 1
1 1 -12 824.4 93.4 1
1 1 -11 567.3 69.7 1
1 1 -10 398.9 22 1
1 1 -9 851.7 31.6 1
1 1 -8 249.4 19.3 1
1 1 -7 15284.2 486.1 1
1 1 -6 32282.1 1071.5 1
1 1 -5 9852.6 343.2 1
1 1 -4 7746 223.1 1
1 1 -3 16946.4 552.5 1
1 1 2 21200.9 657 1
1 1 3 12943.4 332.1 1
1 1 4 38773.7 881 1
1 1 5 61.1 11.3 1
1 1 6 49.5 22.4 1
1 1 7 4959 183.5 1
1 1 8 294.6 38.6 1
1 1 9 143 54.3 1
1 1 10 146.6 88.5 1
1 2 -13 334.7 86.3 1
1 2 -12 2666.1 164.8 1
1 2 -11 44.7 31.9 1
1 2 -10 57.8 20.3 1
1 2 -9 6475.7 259.1 1
1 2 -8 1021.8 47.1 1
1 2 -7 1630.7 61.7 1
1 2 -6 5747.7 200.1 1
1 2 -5 18009.4 572.7 1
1 2 -4 39750 1143.7 1
1 2 -3 44.9 13.4 1
1 2 1 6739 227.7 1
1 2 2 1841.4 64.1 1
1 2 3 16810.4 464.1 1
1 2 4 10183.8 242.4 1
1 2 5 3052.9 80.4 1
1 2 6 47 12.3 1
1 2 7 1272.1 62.7 1
1 2 8 145.2 51.4 1
1 2 9 314.7 65 1
1 2 10 -2.2 86.9 1
1 3 -13 205.4 97.5 1
1 3 -12 508.6 90.2 1
1 3 -11 99.3 26.9 1
1 3 -10 237.9 38.3 1
1 3 -9 1901.6 75.3 1
1 3 -8 15.7 20.1 1
1 3 -7 3120.1 116.2 1
1 3 -6 5654.5 169.9 1
1 3 -5 2276.9 71.2 1
1 3 -4 5891.5 176.9 1
1 3 -3 8641.3 267.9 1
1 3 -2 6340.5 186.4 1
1 3 -1 48992.2 1004.4 1
1 3 0 8926.1 229 1
1 3 1 2.1 12.2 1
1 3 2 952.6 35.7 1
1 3 3 1604.4 53.3 1
1 3 4 9641.1 263.1 1
1 3 5 2767.6 79.5 1
1 3 6 218.9 17.9 1
1 3 7 696.2 53.4 1
1 3 8 456.6 66.4 1
1 3 9 412.3 90.3 1
1 4 -13 388.7 84.6 1
1 4 -12 335.6 72.8 1
1 4 -11 24.9 27.1 1
1 4 -10 683.5 70.6 1
1 4 -9 4797.7 144.4 1
1 4 -8 583.8 37.4 1
1 4 -7 415.2 26.7 1
1 4 -6 42031.5 1271.3 1
1 4 -5 45003.2 1346.6 1
1 4 -4 321.3 19.6 1
1 4 -3 6775.8 172.5 1
1 4 -2 29818.6 776.4 1
1 4 0 11339 282.7 1
1 4 1 4069 99 1
1 4 2 267.9 22.6 1
1 4 3 621.7 32 1
1 4 4 220.5 28 1
1 4 5 1152.7 57.8 1
1 4 6 207.5 24.6 1
1 4 7 322.6 65.5 1
1 4 8 136.8 84.4 1
1 5 -12 18.1 46.2 1
1 5 -11 8.3 36.4 1
1 5 -10 1119.8 59.9 1
1 5 -9 1368.1 57.6 1
1 5 -8 110 26 1
1 5 -7 1777.3 63.7 1
1 5 -6 359.7 23.5 1
1 5 -5 6594.8 204.5 1
1 5 -4 127.4 14 1
1 5 -3 2684.3 72.5 1
1 5 -2 2642.3 72.5 1
1 5 -1 726.5 28.1 1
1 5 0 2762.9 75.3 1
1 5 1 5131.3 124.3 1
1 5 2 3217.8 90.3 1
1 5 3 295.5 23.1 1
1 5 4 3533 127.6 1
1 5 5 213.7 43.9 1
1 5 6 4424.3 137.4 1
1 5 7 73.6 64.6 1
1 5 8 117.1 76.7 1
1 6 -12 29.9 70.6 1
1 6 -11 65.1 48.4 1
1 6 -10 110.6 36 1
1 6 -9 2421.7 90.7 1
1 6 -8 46.6 24 1
1 6 -7 25.7 22.3 1
1 6 -6 25725.3 702.7 1
1 6 -5 1433.3 45.3 1
1 6 -4 6715 167.4 1
1 6 -3 4667.7 122.8 1
1 6 -2 78.1 18.1 1
1 6 -1 8380.8 278.5 1
1 6 0 336 20.9 1
1 6 1 2005.8 59.7 1
1 6 2 62.2 21.8 1
1 6 3 52.5 24.7 1
1 6 4 284.6 34.2 1
1 6 5 -17.6 41.8 1
1 6 6 683.7 69.9 1
1 6 7 282 76.4 1
1 7 -12 218.3 76.8 1
1 7 -11 -92 42.7 1
1 7 -10 438.2 48.3 1
1 7 -9 1144 66.8 1
1 7 -8 58.7 27.3 1
1 7 -7 326.4 31.2 1
1 7 -6 162.3 21.3 1
1 7 -5 444.8 34.5 1
1 7 -4 948 36.5 1
1 7 -3 2105.8 62.2 1
1 7 -2 278.4 43 1
1 7 -1 446.6 35.3 1
1 7 0 -16.6 20.2 1
1 7 1 410.1 29.5 1
1 7 2 188.3 29.4 1
1 7 3 -24.6 35.6 1
1 7 4 55.9 48.5 1
1 7 5 2826.6 104.8 1
1 7 6 1634.9 125.3 1
1 8 -11 478.9 96.9 1
1 8 -10 -27.1 43.3 1
1 8 -9 597.9 51.4 1
1 8 -8 -24.2 32.3 1
1 8 -7 83.6 27.5 1
1 8 -6 615.2 33.9 1
1 8 -5 22.1 20.1 1
1 8 -4 638.1 31.7 1
1 8 -3 497.2 29.9 1
1 8 -2 1075.1 54.5 1
1 8 -1 141.5 39.2 1
1 8 0 104.9 33.4 1
1 8 1 1413.9 52 1
1 8 2 41.7 34.1 1
1 8 3 57.8 47.3 1
1 8 4 140.7 91.6 1
1 9 -10 84 61.7 1
1 9 -9 394 42.5 1
1 9 -8 56.2 34.2 1
1 9 -7 366.4 34.1 1
1 9 -6 -2.3 27.6 1
1 9 -5 757.6 46.1 1
1 9 -4 11.1 25.3 1
1 9 -3 32.1 38.6 1
1 9 -2 -37 41.5 1
1 9 -1 125.6 44 1
1 9 0 526.1 56.6 1
1 9 1 615.9 59.3 1
1 9 2 128.8 77.4 1
1 9 3 28.2 79 1
1 10 -9 31.2 36.4 1
1 10 -8 73.4 52 1
1 10 -7 285.2 37 1
1 10 -6 90.1 36.2 1
1 10 -5 191.8 38.8 1
1 10 -4 245.9 42.6 1
1 10 -3 39.2 40.6 1
1 10 -2 81 53.2 1
1 10 -1 -35.6 49.7 1
1 10 0 492.1 91.8 1
1 10 1 235.2 89.6 1
1 11 -4 73.5 61.1 1
1 11 -3 111 94.6 1
2 -11 0 1420.8 123.3 1
2 -11 2 14.3 81.5 1
2 -11 3 17 71.2 1
2 -11 4 102.4 90.2 1
2 -11 5 1.9 84.5 1
2 -10 -3 264.7 46.5 1
2 -10 -2 258.4 34.4 1
2 -10 -1 668 37 1
2 -10 0 797.9 38.5 1
2 -10 1 224.9 22.3 1
2 -10 2 57.9 13.1 1
2 -10 3 35.2 60.7 1
2 -10 4 109.4 63 1
2 -10 5 129 76.9 1
2 -10 6 499.5 63.4 1
2 -10 7 112.9 58.5 1
2 -9 -6 103.8 87.8 1
2 -9 -5 466.5 43.9 1
2 -9 -4 49 24.7 1
2 -9 -3 1225.6 44.3 1
2 -9 -2 23.9 24.4 1
2 -9 -1 57.4 24.9 1
2 -9 0 445.2 27.3 1
2 -9 1 834 26.8 1
2 -9 2 -1 10.3 1
2 -9 3 1183.3 97.5 1
2 -9 4 -19.3 53.4 1
2 -9 5 372.3 62.9 1
2 -9 6 2900.4 79.1 1
2 -9 7 379.6 22.3 1
2 -9 8 64.7 29.1 1
2 -9 9 246.6 86.3 1
2 -8 -7 -40.3 74.4 1
2 -8 -6 123.9 46.5 1
2 -8 -5 682.7 40.1 1
2 -8 -4 48.8 21.9 1
2 -8 -3 575.4 27.5 1
2 -8 -2 31 19.7 1
2 -8 -1 57 20.2 1
2 -8 0 86.2 14.8 1
2 -8 1 4067.7 90.7 1
2 -8 2 277.6 10 1
2 -8 3 1223.3 76.9 1
2 -8 4 92.4 39.8 1
2 -8 5 497.9 16.2 1
2 -8 6 1248.3 35.9 1
2 -8 7 182.8 20.4 1
2 -8 8 23.9 31.9 1
2 -8 9 110.2 38.7 1
2 -7 -8 69.7 76.7 1
2 -7 -7 133.7 66.2 1
2 -7 -6 0.8 23.7 1
2 -7 -5 135 22.4 1
2 -7 -4 470 24.8 1
2 -7 -3 1532.8 41 1
2 -7 -2 976.1 28.9 1
2 -7 -1 128.3 14.2 1
2 -7 0 1395.8 36.2 1
2 -7 1 3559.5 77.4 1
2 -7 2 4523.6 175 1
2 -7 3 134.7 30 1
2 -7 4 161.5 8.1 1
2 -7 5 1452.3 36.9 1
2 -7 6 28050.3 609.6 1
2 -7 7 8113.3 191.5 1
2 -7 8 1110.9 44.7 1
2 -7 9 25.3 30 1
2 -7 10 85.9 41.5 1
2 -7 11 1130.7 94.6 1
2 -6 -9 394.2 102.8 1
2 -6 -8 65 58.6 1
2 -6 -7 1487 63.8 1
2 -6 -6 772.4 28.2 1
2 -6 -5 2681.1 62.5 1
2 -6 -4 10674.9 224.9 1
2 -6 -3 378.1 19.5 1
2 -6 -2 7915.3 144.5 1
2 -6 -1 807.4 23.5 1
2 -6 0 1452.5 36.2 1
2 -6 1 2446.6 51.3 1
2 -6 2 97.7 27 1
2 -6 3 244.1 49.8 1
2 -6 4 852.3 25.8 1
2 -6 5 4554 108.7 1
2 -6 6 4934.9 142.1 1
2 -6 7 40.9 19 1
2 -6 8 44.2 23.3 1
2 -6 9 118.2 28 1
2 -6 10 336.5 40.4 1
2 -6 11 285.3 68.7 1
2 -5 -10 363.5 89.3 1
2 -5 -9 748.5 89.1 1
2 -5 -8 1188.3 62.3 1
2 -5 -7 863.9 39.7 1
2 -5 -6 79.6 24 1
2 -5 -5 9582.3 197.1 1
2 -5 -4 58.4 13.3 1
2 -5 -3 18710.5 360.8 1
2 -5 -2 709.8 20.6 1
2 -5 -1 3411.4 64.9 1
2 -5 0 274.7 9.4 1
2 -5 1 30301.5 835.3 1
2 -5 2 56409.5 2321.9 1
2 -5 3 1012.7 24 1
2 -5 4 29.6 8 1
2 -5 5 9828.9 228.7 1
2 -5 6 38737.8 844.3 1
2 -5 7 1844.5 55.1 1
2 -5 8 3134.5 88.9 1
2 -5 9 539.9 39.5 1
2 -5 10 -4.8 34.8 1
2 -5 11 114.5 73.6 1
2 -4 -11 219 98.2 1
2 -4 -10 -31.6 61.5 1
2 -4 -9 2155.4 198.8 1
2 -4 -8 322.7 42.5 1
2 -4 -7 18415 486.4 1
2 -4 -6 53.3 23.9 1
2 -4 -5 769.4 23.2 1
2 -4 -4 365.1 17.9 1
2 -4 -3 37952.7 721.7 1
2 -4 -2 23999 523.2 1
2 -4 -1 1211 26.1 1
2 -4 0 16223 306.4 1
2 -4 1 53.3 16.4 1
2 -4 2 4849.5 99.7 1
2 -4 3 1937.1 50.4 1
2 -4 4 631 20.6 1
2 -4 5 549.2 24.1 1
2 -4 6 1587.9 46.9 1
2 -4 7 1702.6 52.8 1
2 -4 8 1228.5 44.8 1
2 -4 9 367.4 33.6 1
2 -4 10 28 36.1 1
2 -4 11 155.9 79.1 1
2 -3 -11 -33.4 83.8 1
2 -3 -10 2019.3 127.6 1
2 -3 -9 952.3 57.9 1
2 -3 -8 337 36.6 1
2 -3 -7 478.2 34.4 1
2 -3 -6 79.7 38.1 1
2 -3 -5 99 26.9 1
2 -3 -4 2045.6 45.9 1
2 -3 -3 936.2 23.1 1
2 -3 -2 28.8 6.4 1
2 -3 -1 13944.9 276 1
2 -3 0 1755.7 37.8 1
2 -3 1 40683.8 888.5 1
2 -3 2 82.3 7.7 1
2 -3 3 4171.4 104.2 1
2 -3 4 88.2 12 1
2 -3 5 21608.1 491.9 1
2 -3 6 7.9 15.6 1
2 -3 7 447.8 31.5 1
2 -3 8 23.4 22.9 1
2 -3 9 1361.6 53.8 1
2 -3 10 126.8 46.6 1
2 -3 11 38.9 69.3 1
2 -2 -12 258.9 97.7 1
2 -2 -11 130.2 68.6 1
2 -2 -10 1092.8 100.2 1
2 -2 -9 1132.8 68.9 1
2 -2 -8 27378.4 752.6 1
2 -2 -7 17281.3 480.8 1
2 -2 -6 9390.3 265.5 1
2 -2 -5 10266.2 283.1 1
2 -2 -3 50998.2 1197.8 1
2 -2 -2 50978.6 1255.8 1
2 -2 -1 9869.4 194.9 1
2 -2 0 9949.2 209.3 1
2 -2 2 4208 101.4 1
2 -2 3 5644.8 122.1 1
2 -2 4 2983.3 74.2 1
2 -2 5 18599.7 437.7 1
2 -2 6 6032 160.4 1
2 -2 7 2442.1 65.9 1
2 -2 8 138.6 29.5 1
2 -2 9 216.3 44.2 1
2 -2 10 -10.2 63.8 1
2 -2 11 650.8 103.4 1
2 -1 -12 358.3 83.8 1
2 -1 -11 219.1 61.3 1
2 -1 -10 207 42.1 1
2 -1 -9 95.3 32.8 1
2 -1 -8 14566.3 416.3 1
2 -1 -7 3208.3 104.3 1
2 -1 -6 771.7 26.7 1
2 -1 -5 3697 94.7 1
2 -1 -4 4556.6 110.2 1
2 -1 -3 8339.5 215.8 1
2 -1 -2 15859.2 356.5 1
2 -1 -1 8623.2 186.9 1
2 -1 1 78529.9 2952.9 1
2 -1 2 76844.5 3087.7 1
2 -1 3 14901.5 323.1 1
2 -1 4 129.3 16.3 1
2 -1 5 1776.5 48.9 1
2 -1 6 3901.7 132.2 1
2 -1 7 1101 52.8 1
2 -1 8 523.9 49 1
2 -1 9 -44.6 50 1
2 -1 10 1841.8 132.1 1
2 0 -12 167.3 64.7 1
2 0 -11 211.9 62.4 1
2 0 -10 296.3 44.4 1
2 0 -9 29208.5 648.5 1
2 0 -8 35115.6 1048.4 1
2 0 -7 5769.6 175.8 1
2 0 -6 9039.6 282.2 1
2 0 -5 1122.7 41 1
2 0 -4 20426.2 575.2 1
2 0 -3 51766.4 1455.2 1
2 0 -2 5384.8 146.5 1
2 0 -1 3969.7 90.2 1
2 0 0 50701 1942.9 1
2 0 1 11979.3 318.1 1
2 0 2 11611.5 286.1 1
2 0 3 2927.6 74.8 1
2 0 4 7442.1 180.3 1
2 0 5 1016.4 35.6 1
2 0 6 2781.8 81.1 1
2 0 7 812.1 48.2 1
2 0 8 25.8 31.6 1
2 0 9 2152.8 167.7 1
2 0 10 25.6 89.4 1
2 1 -13 925.9 123.7 1
2 1 -12 405.4 81.2 1
2 1 -11 29 18.6 1
2 1 -10 1448.7 47 1
2 1 -9 242.2 33.4 1
2 1 -8 3329.4 105.7 1
2 1 -7 598 32.3 1
2 1 -6 807.7 32.5 1
2 1 -5 5382.1 171 1
2 1 -4 47051.3 1293.9 1
2 1 -3 20883.7 720.5 1
2 1 -2 6478.3 178.7 1
2 1 -1 33011.9 744.7 1
2 1 0 293.6 17.5 1
2 1 1 20535.9 662.3 1
2 1 2 1252.7 47.8 1
2 1 3 11503.5 293.9 1
2 1 4 3695.3 94.3 1
2 1 5 1010.6 33 1
2 1 6 123.1 19.8 1
2 1 7 4319.4 160.1 1
2 1 8 170.1 61 1
2 1 9 51.5 66.6 1
2 1 10 226.6 75.4 1
2 2 -13 1892 153 1
2 2 -12 595.6 73.9 1
2 2 -11 36.4 75.7 1
2 2 -10 207.3 38.9 1
2 2 -9 4635.5 141.9 1
2 2 -8 14723.1 408.3 1
2 2 -7 56.2 18.7 1
2 2 -6 1934.6 69 1
2 2 -5 48245.4 1332.3 1
2 2 -4 252.7 18.9 1
2 2 -3 11918.9 352.5 1
2 2 -2 78108.6 3175.9 1
2 2 -1 2284 54.8 1
2 2 0 1358.9 48.4 1
2 2 1 17174.6 511.5 1
2 2 2 5626.7 180.5 1
2 2 3 5040.5 158.7 1
2 2 4 6070.1 165.8 1
2 2 5 4634.4 127.5 1
2 2 6 1126 54.3 1
2 2 7 299.3 53 1
2 2 8 165.6 72.6 1
2 2 9 343.6 91.9 1
2 3 -13 445.1 106 1
2 3 -12 47.6 73.7 1
2 3 -11 35.4 36.1 1
2 3 -10 2058.9 83.4 1
2 3 -9 144.6 32.1 1
2 3 -8 9878.7 281.5 1
2 3 -7 74.7 19.3 1
2 3 -6 3964.7 125.2 1
2 3 -5 91 15 1
2 3 -4 32810.7 979.4 1
2 3 -3 956.8 36.7 1
2 3 -2 37905.9 1217.7 1
2 3 -1 22746.6 479.9 1
2 3 0 1638 42.8 1
2 3 1 9630 295.8 1
2 3 2 8302 235.8 1
2 3 3 11427.5 336 1
2 3 4 1400.8 57.9 1
2 3 5 120.4 22.5 1
2 3 6 1527.3 59.6 1
2 3 7 991.4 44.9 1
2 3 8 151.5 68.5 1
2 4 -13 368.4 103.6 1
2 4 -12 947.7 95.6 1
2 4 -11 115.8 40 1
2 4 -10 751.9 50.7 1
2 4 -9 438.7 38.4 1
2 4 -8 3616.8 125.9 1
2 4 -7 2444.8 86.7 1
2 4 -6 6361 203.6 1
2 4 -5 170.4 20.4 1
2 4 -4 1498.7 55.3 1
2 4 -3 14341.2 367.9 1
2 4 -2 53586.4 1918.5 1
2 4 -1 24039.7 524.2 1
2 4 0 13844.1 337.4 1
2 4 1 297.3 21.9 1
2 4 2 3608 115.4 1
2 4 3 820.5 43.4 1
2 4 4 294.1 33.8 1
2 4 5 58.5 25.9 1
2 4 6 275.6 36.6 1
2 4 7 103.9 83.7 1
2 5 -13 27.3 84.4 1
2 5 -12 76.7 56.5 1
2 5 -11 8.9 39.8 1
2 5 -10 957.4 63.6 1
2 5 -9 42.3 30.8 1
2 5 -8 5949.2 198.6 1
2 5 -7 246.5 24.2 1
2 5 -6 4421.8 133.1 1
2 5 -5 80.7 21.7 1
2 5 -4 2297.5 61.7 1
2 5 -3 638.1 24.4 1
2 5 -2 23747.9 747 1
2 5 -1 23196 789.2 1
2 5 0 18.5 15.7 1
2 5 1 93.7 20.9 1
2 5 2 1359.1 45.4 1
2 5 3 2561.4 77.1 1
2 5 4 -30.9 36.5 1
2 5 5 330.4 69.6 1
2 5 6 383.6 106.6 1
2 5 7 23.2 82.3 1
2 6 -12 251.6 72.2 1
2 6 -11 150.3 54.1 1
2 6 -10 794.8 60.5 1
2 6 -9 93.4 37 1
2 6 -8 -44 28.2 1
2 6 -7 1260.7 56.7 1
2 6 -6 8274.3 241.2 1
2 6 -5 12988 308.5 1
2 6 -4 44.8 16.9 1
2 6 -3 10653.9 332.3 1
2 6 -2 15097.2 540.9 1
2 6 -1 5473.1 184.4 1
2 6 0 48.2 19.8 1
2 6 1 61 22.5 1
2 6 2 332.9 29.7 1
2 6 3 -9.5 29.1 1
2 6 4 1247.1 71.1 1
2 6 5 39.9 56.5 1
2 6 6 147 94.4 1
2 7 -12 13.4 71.2 1
2 7 -11 722.3 83.6 1
2 7 -10 -24.2 42.1 1
2 7 -9 1009.4 57.2 1
2 7 -8 386.4 64 1
2 7 -7 33.6 20.2 1
2 7 -6 2530.3 71.1 1
2 7 -5 769.7 33.4 1
2 7 -4 663.5 33.1 1
2 7 -3 468.9 36.6 1
2 7 -2 1785.3 75.2 1
2 7 -1 2504 102.5 1
2 7 0 305.1 26.5 1
2 7 1 435 35.9 1
2 7 2 88.6 43.1 1
2 7 3 213.8 55.4 1
2 7 4 173.9 75.9 1
2 8 -11 212.3 72.8 1
2 8 -10 179.8 63.3 1
2 8 -9 46.8 47.9 1
2 8 -8 266.1 33.8 1
2 8 -7 1066.4 52.6 1
2 8 -6 1025.3 44.5 1
2 8 -5 180.6 25.8 1
2 8 -4 -26.3 31.1 1
2 8 -3 787.3 64.9 1
2 8 -2 1274 67.7 1
2 8 -1 98.8 44.2 1
2 8 0 97.2 47.4 1
2 8 1 -46.9 56.5 1
2 8 2 94.2 71.6 1
2 8 3 159.8 92.1 1
2 9 -10 117.2 72.3 1
2 9 -9 89.5 42.9 1
2 9 -8 12.8 34.4 1
2 9 -7 58.7 33.7 1
2 9 -6 11.6 24.1 1
2 9 -5 -13.8 57.5 1
2 9 -4 22.3 46.8 1
2 9 -3 123.7 50.8 1
2 9 -2 84 50.7 1
2 9 -1 132.6 80.8 1
2 9 0 -8.8 79.2 1
2 9 1 4.6 100.1 1
2 10 -8 27.7 61.9 1
2 10 -7 532.4 83.7 1
2 10 -6 75.4 46 1
2 10 -5 46.9 45.8 1
2 10 -4 119.6 65.1 1
2 10 -3 56.4 79.2 1
2 10 -2 49 75.5 1
3 -11 -1 2480.3 264.3 1
3 -11 0 560.2 85 1
3 -11 1 54.6 56.3 1
3 -11 2 5 52.7 1
3 -11 3 2863.7 112 1
3 -11 4 1826.4 99.6 1
3 -11 5 274.2 103.3 1
3 -10 -3 85.7 49.1 1
3 -10 -2 298.3 49.8 1
3 -10 -1 1229.1 40.2 1
3 -10 0 260.1 73.1 1
3 -10 1 376.8 66.8 1
3 -10 2 9.6 57.8 1
3 -10 3 80.2 58.3 1
3 -10 4 397.9 52 1
3 -10 5 58.3 56.5 1
3 -10 6 175.7 66.3 1
3 -10 7 506.9 96.4 1
3 -9 -6 126 75.4 1
3 -9 -5 86.6 34.9 1
3 -9 -4 335.6 29.5 1
3 -9 -3 83.3 23.4 1
3 -9 -2 6393.2 148 1
3 -9 -1 7928.7 175.5 1
3 -9 0 3146.2 125.5 1
3 -9 1 19.9 33.1 1
3 -9 2 143.7 38.2 1
3 -9 3 494.7 48.7 1
3 -9 4 1016.2 58.8 1
3 -9 5 491.3 50.6 1
3 -9 6 212.4 57.8 1
3 -9 7 645.9 84.9 1
3 -9 8 -36.5 88.8 1
3 -8 -7 32.6 70.1 1
3 -8 -6 921.8 44.9 1
3 -8 -5 41 26.1 1
3 -8 -4 1327.8 41.9 1
3 -8 -3 1361.3 41.7 1
3 -8 -2 4093.6 92.5 1
3 -8 -1 921.4 25.8 1
3 -8 0 11 26.5 1
3 -8 1 801.5 42.6 1
3 -8 2 2488.6 83.1 1
3 -8 3 623.7 39.4 1
3 -8 4 2770 93 1
3 -8 5 429.2 41.7 1
3 -8 6 13 50 1
3 -8 7 39.5 24.7 1
3 -8 8 85.3 33.7 1
3 -8 9 53.4 84.1 1
3 -7 -8 316.4 90.9 1
3 -7 -7 636 57 1
3 -7 -6 2378.9 61 1
3 -7 -5 901.7 36.9 1
3 -7 -4 249.2 20 1
3 -7 -3 2770 63.7 1
3 -7 -2 1072.7 28.3 1
3 -7 -1 1588.1 33.6 1
3 -7 0 61.8 22.1 1
3 -7 1 250.4 24.7 1
3 -7 2 955.3 43.9 1
3 -7 3 423.3 32.9 1
3 -7 4 1156.7 50.5 1
3 -7 5 2464.8 52.2 1
3 -7 6 82.9 16.3 1
3 -7 7 1023.5 37.1 1
3 -7 8 789 37.6 1
3 -7 9 418.4 48 1
3 -6 -9 691.3 82.6 1
3 -6 -8 20.6 46.8 1
3 -6 -7 235.2 34.9 1
3 -6 -6 267.6 29.2 1
3 -6 -5 76.4 16.5 1
3 -6 -4 441.7 21 1
3 -6 -3 3004 61.9 1
3 -6 -2 1712 35.3 1
3 -6 -1 2368.3 44.8 1
3 -6 0 6901 188.2 1
3 -6 1 135.9 23.3 1
3 -6 2 719.1 36.2 1
3 -6 3 4094.2 124.4 1
3 -6 4 30.9 7.4 1
3 -6 5 16.6 13.9 1
3 -6 6 9593 227.5 1
3 -6 7 24.4 20.8 1
3 -6 8 2264 75.4 1
3 -6 9 164.1 36.7 1
3 -6 10 886.2 95.9 1
3 -5 -10 679.7 105.7 1
3 -5 -9 10.2 54 1
3 -5 -8 38.9 32.2 1
3 -5 -7 894 40.4 1
3 -5 -6 2648.5 85.9 1
3 -5 -5 192.7 16 1
3 -5 -4 9434.9 190.4 1
3 -5 -3 5352.8 104.8 1
3 -5 -2 3690.9 70.7 1
3 -5 -1 199.4 9.6 1
3 -5 0 22923 630.3 1
3 -5 1 503.3 28.6 1
3 -5 2 1158.7 44.5 1
3 -5 3 2142 49.1 1
3 -5 4 15672.8 329 1
3 -5 5 13572.7 318.5 1
3 -5 6 2265.6 62 1
3 -5 7 3323.8 100.8 1
3 -5 8 509.4 38.4 1
3 -5 9 702.5 46.7 1
3 -5 10 428.1 55.6 1
3 -4 -11 351.9 79.9 1
3 -4 -10 98.4 64 1
3 -4 -9 59.8 36.1 1
3 -4 -8 2002.4 66.1 1
3 -4 -7 145.5 25.4 1
3 -4 -6 172.9 20.6 1
3 -4 -5 235.2 18.5 1
3 -4 -4 14070.3 293.4 1
3 -4 -3 47.2 9.1 1
3 -4 -2 2578 53 1
3 -4 -1 504.4 13.9 1
3 -4 0 18192 354.7 1
3 -4 1 16596.4 312.4 1
3 -4 2 21256.9 456.9 1
3 -4 3 10892.8 247.7 1
3 -4 4 5774.8 140.4 1
3 -4 5 9820.2 231.6 1
3 -4 6 10507.7 251.3 1
3 -4 7 -7.6 20.9 1
3 -4 8 773.2 43.2 1
3 -4 9 267.6 36.5 1
3 -4 10 100 68.1 1
3 -3 -11 46.4 74.8 1
3 -3 -10 12.3 56.4 1
3 -3 -9 1601.7 77.5 1
3 -3 -8 2207.4 82.2 1
3 -3 -7 9840.4 287.1 1
3 -3 -6 289.3 23.3 1
3 -3 -5 2300.5 52.6 1
3 -3 -4 494.2 17 1
3 -3 -3 15662.5 312.1 1
3 -3 -2 5871.6 102.3 1
3 -3 -1 291.8 9.3 1
3 -3 1 52380.1 1249.4 1
3 -3 2 9557.5 191.1 1
3 -3 3 1040.5 28.2 1
3 -3 4 11428.7 279.1 1
3 -3 5 41033.5 975.2 1
3 -3 6 2259.4 62.2 1
3 -3 7 2209.7 71.2 1
3 -3 8 -29.8 34.5 1
3 -3 9 405.8 53.4 1
3 -3 10 146.9 70.5 1
3 -2 -12 49.3 79.1 1
3 -2 -11 207.9 73.8 1
3 -2 -10 271.8 49.1 1
3 -2 -9 135.6 31.7 1
3 -2 -8 2824.7 98.1 1
3 -2 -7 1894.6 51.3 1
3 -2 -6 4452.2 103.9 1
3 -2 -5 1484.1 37.1 1
3 -2 -4 5067.5 115.4 1
3 -2 -3 55833.8 1304.9 1
3 -2 -2 391 12.6 1
3 -2 -1 2774.5 64.9 1
3 -2 0 7569.3 143 1
3 -2 1 3823.8 93.9 1
3 -2 2 280.3 14 1
3 -2 3 7734.7 167 1
3 -2 4 2051.9 49 1
3 -2 5 5832.2 148.5 1
3 -2 6 12.5 26.5 1
3 -2 7 1270.4 73.7 1
3 -2 8 272.2 47.2 1
3 -2 9 195.5 68 1
3 -2 10 75.1 89 1
3 -1 -12 52.2 68.3 1
3 -1 -11 1807.1 138.4 1
3 -1 -10 3692.4 148.5 1
3 -1 -9 1974.2 52.8 1
3 -1 -8 3667.9 87.9 1
3 -1 -7 84.2 18.9 1
3 -1 -6 1418.3 50.8 1
3 -1 -5 6074.3 181.6 1
3 -1 -4 10840.9 258.8 1
3 -1 -3 32.8 8.8 1
3 -1 -2 2926.9 59.4 1
3 -1 -1 35763.6 765.9 1
3 -1 0 77042.5 2291.7 1
3 -1 1 77754.6 2432.8 1
3 -1 2 18318.3 470 1
3 -1 3 69.8 14.4 1
3 -1 4 502.7 24.5 1
3 -1 5 23237.8 583.4 1
3 -1 6 30.7 20 1
3 -1 7 4982.5 193.6 1
3 -1 8 49.2 40.4 1
3 -1 9 167.5 64.3 1
3 -1 10 -53.3 51.6 1
3 0 -12 459.2 80.9 1
3 0 -11 608.2 67.8 1
3 0 -10 1817.3 60.8 1
3 0 -9 7497.2 218.5 1
3 0 -7 1061.7 43.2 1
3 0 -6 12361.2 361.5 1
3 0 -5 16519.8 453.4 1
3 0 -4 81633.2 2278 1
3 0 -3 23827.7 654.3 1
3 0 -2 335.6 15.1 1
3 0 -1 4087.5 102.3 1
3 0 0 4028.8 140 1
3 0 1 28246 676.3 1
3 0 2 39.5 13.5 1
3 0 3 15554.4 396 1
3 0 4 322.9 22.9 1
3 0 5 5.1 19 1
3 0 6 165.9 22.5 1
3 0 7 44.6 35.8 1
3 0 8 85.9 61.9 1
3 0 9 -17.9 69.4 1
3 1 -13 24 78.4 1
3 1 -12 1383.7 101.2 1
3 1 -11 1679.4 114.5 1
3 1 -10 1406.6 72.9 1
3 1 -9 6108.7 202 1
3 1 -8 1115 51.6 1
3 1 -7 5229.5 159.8 1
3 1 -6 410.6 25.3 1
3 1 -5 178.3 20.9 1
3 1 -4 10616.7 322 1
3 1 -3 24991.2 592.3 1
3 1 -2 2768.2 99.4 1
3 1 -1 75 8.2 1
3 1 0 5298.4 179.5 1
3 1 1 3063 103.1 1
3 1 2 7289.2 238.6 1
3 1 3 40.5 16 1
3 1 4 80.8 20 1
3 1 5 335.6 27.7 1
3 1 6 150.5 25.8 1
3 1 7 608.4 44.4 1
3 1 8 133.6 62.1 1
3 1 9 -15.5 89.8 1
3 2 -13 2877.2 180 1
3 2 -12 339 71.6 1
3 2 -11 814.9 78.3 1
3 2 -10 940.5 61.5 1
3 2 -9 22605 600.9 1
3 2 -8 42344.7 1215.4 1
3 2 -7 3568.4 116.3 1
3 2 -6 7625 224.5 1
3 2 -5 5402.6 162.3 1
3 2 -4 418.7 23.1 1
3 2 -3 15504.8 373.7 1
3 2 -2 850.7 40.2 1
3 2 -1 238.7 22.3 1
3 2 0 11610.7 333.2 1
3 2 1 712.9 35.4 1
3 2 2 439.2 31.6 1
3 2 3 80.3 21 1
3 2 4 136.3 24 1
3 2 5 3.5 24.1 1
3 2 6 279.4 31.6 1
3 2 7 504 45.1 1
3 2 8 120.6 91.9 1
3 3 -13 122 90.7 1
3 3 -12 713.1 89.4 1
3 3 -11 144.9 103.8 1
3 3 -10 53.4 34.8 1
3 3 -9 109.8 30.6 1
3 3 -8 200.1 28.8 1
3 3 -7 881.6 42.4 1
3 3 -6 306.8 27.4 1
3 3 -5 1775.4 73.4 1
3 3 -4 23892 798.4 1
3 3 -3 4962.3 171.7 1
3 3 -2 332.6 25.1 1
3 3 -1 5240.8 188.7 1
3 3 0 2649.2 100.9 1
3 3 1 862.6 46 1
3 3 2 5264 170.6 1
3 3 3 849.1 53.6 1
3 3 4 43.1 34.4 1
3 3 5 72.4 33.8 1
3 3 6 29.4 36.2 1
3 3 7 46.3 76.6 1
3 4 -13 496.3 87.3 1
3 4 -12 3892.2 720.4 1
3 4 -11 213.4 53.3 1
3 4 -10 5043.9 175.5 1
3 4 -9 2636.8 92.7 1
3 4 -8 1201.8 60.3 1
3 4 -7 1375.5 59.4 1
3 4 -6 -1.3 20.4 1
3 4 -5 1890.7 63.7 1
3 4 -4 346 29.1 1
3 4 -3 515.1 31.9 1
3 4 -2 3018.1 98 1
3 4 -1 264.8 27.8 1
3 4 0 101.4 16.2 1
3 4 1 1110.1 40.3 1
3 4 2 39.3 30.5 1
3 4 3 2033.2 90.4 1
3 4 4 282 62.4 1
3 4 5 355.2 49 1
3 4 6 459.9 84.3 1
3 5 -13 -25.5 81.7 1
3 5 -12 3.7 35.3 1
3 5 -11 74.9 45.7 1
3 5 -10 -37.5 41.1 1
3 5 -9 275.5 38.6 1
3 5 -8 1266.4 58.7 1
3 5 -7 161.8 27.6 1
3 5 -6 91.5 28.8 1
3 5 -5 2017.2 53.9 1
3 5 -4 841.2 40.6 1
3 5 -3 12346.1 445.4 1
3 5 -2 6581.5 219.8 1
3 5 -1 -9.7 29.2 1
3 5 0 70.6 18.7 1
3 5 1 664.2 34.5 1
3 5 2 5264.6 150.6 1
3 5 3 1279.3 63.5 1
3 5 4 182.6 59.3 1
3 5 5 182.9 78.4 1
3 6 -12 45.2 32.9 1
3 6 -11 370.2 77 1
3 6 -10 485.8 69.6 1
3 6 -9 426.3 45.5 1
3 6 -8 877.3 76.1 1
3 6 -7 587.4 48.8 1
3 6 -6 367.5 23.2 1
3 6 -5 13.5 27.3 1
3 6 -4 36 32 1
3 6 -3 2905.7 118.5 1
3 6 -2 3662.8 142.2 1
3 6 -1 1253.3 58.3 1
3 6 0 -14.9 18.7 1
3 6 1 22.1 25.2 1
3 6 2 233.4 37.8 1
3 6 3 221.7 72.1 1
3 6 4 -24.8 90.6 1
3 7 -11 169.4 69.8 1
3 7 -10 276.6 83.2 1
3 7 -9 436.8 53.6 1
3 7 -8 40.3 28.8 1
3 7 -7 -39.7 20.8 1
3 7 -6 132.6 39 1
3 7 -5 755.6 71.6 1
3 7 -4 1262 92.3 1
3 7 -3 8985.1 314.6 1
3 7 -2 4804.2 192.4 1
3 7 -1 179.1 48.2 1
3 7 0 18.9 63 1
3 7 1 213.3 84.1 1
3 7 2 828.1 91 1
3 7 3 47.8 101.7 1
3 8 -10 69.2 80.8 1
3 8 -9 468.6 46.4 1
3 8 -8 617.3 38.2 1
3 8 -7 1385.9 55.4 1
3 8 -6 274.1 51.5 1
3 8 -5 336 55.3 1
3 8 -4 337.7 55 1
3 8 -3 2291.4 116.6 1
3 8 -2 356 55.1 1
3 8 -1 118 73.1 1
3 8 0 196.6 81.9 1
3 8 1 6.5 80 1
3 9 -9 -118.7 72.6 1
3 9 -8 160.1 84.8 1
3 9 -7 223 68.1 1
3 9 -6 -27.2 68.6 1
3 9 -5 -8.6 59.4 1
3 9 -4 -35.6 79 1
3 9 -3 678.8 108.8 1
3 9 -2 430.4 89.9 1
3 9 -1 90.6 84.7 1
4 -11 0 -4 44.2 1
4 -11 1 406.1 68.8 1
4 -11 2 -143.1 60 1
4 -11 3 -107.4 58 1
4 -10 -3 931.7 95.1 1
4 -10 -2 218.6 58.7 1
4 -10 -1 617.5 79 1
4 -10 0 47.9 36.7 1
4 -10 1 44 46.8 1
4 -10 2 370 53.6 1
4 -10 3 1510.4 83.8 1
4 -10 4 -4.2 49 1
4 -10 5 351.7 58.8 1
4 -10 6 -265.1 88 1
4 -9 -6 -1.3 40.6 1
4 -9 -5 -42.3 28.3 1
4 -9 -4 1 24.7 1
4 -9 -3 354.2 24.8 1
4 -9 -2 7118.6 164.6 1
4 -9 -1 4970.2 204.6 1
4 -9 0 818.4 53.4 1
4 -9 1 87.4 35 1
4 -9 2 6126.4 177.6 1
4 -9 3 2647 89.5 1
4 -9 4 11.2 41.5 1
4 -9 5 244.4 46.2 1
4 -9 6 28.9 47.7 1
4 -9 7 200.6 93.5 1
4 -8 -8 198.5 75.3 1
4 -8 -7 95.2 52.1 1
4 -8 -6 150.5 33.2 1
4 -8 -5 19.4 23.9 1
4 -8 -4 477.6 33.1 1
4 -8 -3 170.7 17.9 1
4 -8 -2 21.9 13.4 1
4 -8 -1 564.3 41.5 1
4 -8 0 118.5 37.7 1
4 -8 1 948.4 48 1
4 -8 2 2160.4 88 1
4 -8 3 672.7 49 1
4 -8 4 154.7 39.7 1
4 -8 5 9.4 37.1 1
4 -8 6 840.1 78.3 1
4 -8 7 -57.7 66.1 1
4 -8 8 205.2 86.1 1
4 -7 -9 -140.9 85.4 1
4 -7 -8 212.1 116 1
4 -7 -7 792.5 57.8 1
4 -7 -6 815.3 42.8 1
4 -7 -5 59.4 21 1
4 -7 -4 3478.3 125.8 1
4 -7 -3 10566.8 227.3 1
4 -7 -2 63153 1070.5 1
4 -7 -1 4430.9 127.5 1
4 -7 0 1310.2 54 1
4 -7 1 1144.7 45.7 1
4 -7 2 10698 310.5 1
4 -7 3 2254 84.8 1
4 -7 4 2276.4 87.8 1
4 -7 5 394.4 14.5 1
4 -7 6 394.4 22 1
4 -7 7 677.1 42.1 1
4 -7 8 298.5 44 1
4 -6 -10 330.1 93.4 1
4 -6 -9 18.4 83.2 1
4 -6 -8 34.6 48.9 1
4 -6 -7 64.1 27.8 1
4 -6 -6 1258.2 48.7 1
4 -6 -5 7 16.8 1
4 -6 -4 2380.5 55.3 1
4 -6 -3 2883.3 63.2 1
4 -6 -2 3623.7 66.3 1
4 -6 -1 1040.3 23.9 1
4 -6 0 2652.8 81.8 1
4 -6 1 3396.3 106.2 1
4 -6 2 543.8 32 1
4 -6 3 4413.9 137.7 1
4 -6 4 75 11.9 1
4 -6 5 719 30.9 1
4 -6 6 1691.5 54.1 1
4 -6 7 1632.4 54 1
4 -6 8 93.9 43.5 1
4 -6 9 2430.7 129.5 1
4 -5 -10 57.9 81.3 1
4 -5 -9 60.4 53.7 1
4 -5 -8 636.7 43.2 1
4 -5 -7 10769.7 264.5 1
4 -5 -6 294 32.2 1
4 -5 -5 280 22.8 1
4 -5 -4 1045.2 33.2 1
4 -5 -3 21782.8 420.1 1
4 -5 -2 24160.1 446.4 1
4 -5 -1 214.7 12.1 1
4 -5 0 3017 59.6 1
4 -5 1 7122.1 132.2 1
4 -5 2 940.6 26.3 1
4 -5 3 2785.4 82.5 1
4 -5 4 8520.1 184.8 1
4 -5 5 4763.7 111.7 1
4 -5 6 540.1 29.8 1
4 -5 7 781.4 40.5 1
4 -5 8 -36.4 35.1 1
4 -5 9 676 59.8 1
4 -4 -11 2295.7 161 1
4 -4 -10 2827.1 200.8 1
4 -4 -9 952.5 61.6 1
4 -4 -8 217.7 31.3 1
4 -4 -7 3385.3 89.8 1
4 -4 -6 1398.6 43.7 1
4 -4 -5 52.3 13.6 1
4 -4 -4 1277.9 32.3 1
4 -4 -3 8360.2 155.8 1
4 -4 -2 3189.9 58.5 1
4 -4 -1 593.1 17.1 1
4 -4 0 1028.8 23.6 1
4 -4 1 24159.9 442.6 1
4 -4 2 2091.3 48.4 1
4 -4 3 606.2 21 1
4 -4 4 13594 341.5 1
4 -4 5 497.6 25.2 1
4 -4 6 -18.7 24 1
4 -4 7 560.5 40.7 1
4 -4 8 521 50.7 1
4 -4 9 2671.1 140.1 1
4 -3 -12 316.9 94.7 1
4 -3 -11 59.4 83.1 1
4 -3 -10 266.2 48.4 1
4 -3 -9 324 37.2 1
4 -3 -8 5440.4 133.7 1
4 -3 -7 871.2 28.8 1
4 -3 -6 156.2 15.5 1
4 -3 -5 1008.3 29 1
4 -3 -4 846.5 24.3 1
4 -3 -3 6284.9 125.8 1
4 -3 -2 47.4 8.5 1
4 -3 -1 9568.3 176.4 1
4 -3 0 26907.4 475.4 1
4 -3 1 6260.4 141.5 1
4 -3 2 225.9 14.8 1
4 -3 3 721.4 24.3 1
4 -3 4 16148.4 332.3 1
4 -3 5 3256.1 88.6 1
4 -3 6 487.5 41 1
4 -3 7 2625.3 116.8 1
4 -3 8 45.7 50.4 1
4 -3 9 481.9 85.8 1
4 -2 -12 78.2 91.4 1
4 -2 -11 1717 123.2 1
4 -2 -10 1882.7 90.7 1
4 -2 -9 805.2 31.2 1
4 -2 -8 5306.1 131.2 1
4 -2 -7 321.3 20.5 1
4 -2 -6 11937.6 240.7 1
4 -2 -5 123.7 12.4 1
4 -2 -4 6458.6 139.2 1
4 -2 -3 3266.9 67.4 1
4 -2 -2 21108.6 446.8 1
4 -2 -1 237.4 18.2 1
4 -2 0 16202.2 329.1 1
4 -2 1 4020.2 104.1 1
4 -2 2 649 30 1
4 -2 3 7743.8 189 1
4 -2 4 17710.7 444.4 1
4 -2 5 12626.4 336.5 1
4 -2 6 100.2 26.9 1
4 -2 7 111.6 43.7 1
4 -2 8 329.2 69.4 1
4 -2 9 1078.7 97.1 1
4 -1 -12 166.9 91.7 1
4 -1 -11 13 60.1 1
4 -1 -10 261.9 24.6 1
4 -1 -9 6.4 23.2 1
4 -1 -8 4364.8 109 1
4 -1 -7 473.4 24.3 1
4 -1 -6 13.3 15 1
4 -1 -5 2885.3 74.2 1
4 -1 -4 5913.3 148.6 1
4 -1 -3 192.3 12.7 1
4 -1 -2 101.8 11.7 1
4 -1 -1 26098.9 514.2 1
4 -1 0 6355.7 153 1
4 -1 1 13742 345.1 1
4 -1 2 7547.4 196.6 1
4 -1 3 11687.7 294.5 1
4 -1 4 11027.8 298 1
4 -1 5 544.6 34.4 1
4 -1 6 61 27.5 1
4 -1 7 -20.3 55.9 1
4 -1 8 67.9 63.3 1
4 0 -12 117.6 81.3 1
4 0 -11 73.2 51.7 1
4 0 -10 -12.3 33.7 1
4 0 -9 868 50.7 1
4 0 -8 357.2 32.3 1
4 0 -7 347.9 29.7 1
4 0 -6 110 17 1
4 0 -5 107.8 14.3 1
4 0 -4 9310.3 244 1
4 0 -3 117.5 17.1 1
4 0 -2 928.6 27.1 1
4 0 -1 2831.9 76.2 1
4 0 0 36190.6 803.8 1
4 0 1 15602.2 412.1 1
4 0 2 7236.9 207.3 1
4 0 3 792.6 33 1
4 0 4 2731.8 81.7 1
4 0 5 5113.8 161.3 1
4 0 6 51.4 29.4 1
4 0 7 39.5 41.7 1
4 0 8 137.1 88.8 1
4 1 -13 1365.4 126.3 1
4 1 -12 215.5 68.4 1
4 1 -11 48.7 49.7 1
4 1 -10 2812 108.1 1
4 1 -9 6448.9 212 1
4 1 -8 11767 338.8 1
4 1 -7 2296.7 76.9 1
4 1 -6 1206.1 41.5 1
4 1 -5 8436.4 206.4 1
4 1 -4 4419.6 108.4 1
4 1 -3 12804.7 349.2 1
4 1 -2 1388.5 37 1
4 1 -1 8444.5 192.1 1
4 1 0 2358.3 84.8 1
4 1 1 5818.6 204.3 1
4 1 2 -3.4 24 1
4 1 3 8382.8 238.2 1
4 1 4 5514.1 166.6 1
4 1 5 63.2 27.8 1
4 1 6 680.9 46.4 1
4 1 7 -39.2 72.3 1
4 2 -13 219 84.8 1
4 2 -12 677.8 97.7 1
4 2 -11 592.7 75.9 1
4 2 -10 2486.4 96.9 1
4 2 -9 5246.3 166.4 1
4 2 -8 5618.3 169.4 1
4 2 -7 345.9 31.3 1
4 2 -6 4065.4 185.8 1
4 2 -5 15470.5 354.2 1
4 2 -4 13903.7 360.5 1
4 2 -3 1589.4 57.2 1
4 2 -2 907.2 42.4 1
4 2 -1 712 22.4 1
4 2 0 349.4 30 1
4 2 1 114.6 25.1 1
4 2 2 40.1 30.5 1
4 2 3 173.1 28.4 1
4 2 4 24.9 30.5 1
4 2 5 114.9 55.6 1
4 2 6 35.5 37.4 1
4 2 7 94.6 103.3 1
4 3 -13 786.2 92.7 1
4 3 -12 1.5 47.8 1
4 3 -11 2 54.1 1
4 3 -10 105.3 38 1
4 3 -9 3564.8 118.9 1
4 3 -8 491.2 40.6 1
4 3 -7 523.3 40.4 1
4 3 -6 2181.1 62.6 1
4 3 -5 5489.9 180.2 1
4 3 -4 4528.4 139.2 1
4 3 -3 956.7 45.7 1
4 3 -2 35.3 26.7 1
4 3 -1 2552.9 88.5 1
4 3 0 685.5 38 1
4 3 1 1284.2 63.9 1
4 3 2 72.7 57.5 1
4 3 3 135.4 36.2 1
4 3 4 1519 77.1 1
4 3 5 53.9 46.3 1
4 3 6 123.2 77.1 1
4 4 -13 21.5 32.3 1
4 4 -12 3.9 34.5 1
4 4 -11 370.3 64 1
4 4 -10 5495.4 199.7 1
4 4 -9 14832.7 410.3 1
4 4 -8 1826.3 79.4 1
4 4 -7 150.3 30.1 1
4 4 -6 1714.7 45.7 1
4 4 -5 1589.4 65.2 1
4 4 -4 59.6 28.1 1
4 4 -3 408.5 39.3 1
4 4 -2 20.8 29 1
4 4 -1 -7.2 33.6 1
4 4 0 2055.2 54.9 1
4 4 1 43.4 34.3 1
4 4 2 674.5 53.6 1
4 4 3 19.4 73 1
4 4 4 77.4 46.1 1
4 4 5 117.2 81.8 1
4 5 -12 -1.1 74.1 1
4 5 -11 12.4 62 1
4 5 -10 1549.9 118.6 1
4 5 -9 342.4 49.5 1
4 5 -8 11.5 33.5 1
4 5 -7 90.6 35.8 1
4 5 -6 -50.1 35.3 1
4 5 -5 401.7 39.4 1
4 5 -4 5418.7 182.3 1
4 5 -3 528.1 45.1 1
4 5 -2 869.9 76.9 1
4 5 -1 406.8 53.8 1
4 5 0 85.3 18.1 1
4 5 1 78 28.7 1
4 5 2 661.9 96.6 1
4 5 3 339.7 87.7 1
4 5 4 55.4 83 1
4 6 -12 142.7 63.5 1
4 6 -11 1813.2 872.2 1
4 6 -10 1363 101 1
4 6 -9 2627.7 153.9 1
4 6 -8 271.8 24.5 1
4 6 -7 319.3 77.3 1
4 6 -6 41.1 35.1 1
4 6 -5 428.6 42.3 1
4 6 -4 4.2 41.3 1
4 6 -3 453.3 46.5 1
4 6 -2 41.7 40.5 1
4 6 -1 506.6 125 1
4 6 0 16 67 1
4 6 1 41.5 50.7 1
4 6 2 3.2 77 1
4 7 -11 -34.7 77.4 1
4 7 -10 304.3 86.7 1
4 7 -9 463.3 84.9 1
4 7 -8 41.2 87.9 1
4 7 -7 80.5 67.2 1
4 7 -6 78.2 63.3 1
4 7 -5 53.4 67.7 1
4 7 -4 -98.9 54.9 1
4 7 -3 1221.7 108.5 1
4 7 -2 785.9 93.4 1
4 7 -1 93.6 69.2 1
4 7 0 381.1 86.8 1
4 7 1 239.2 92.4 1
4 8 -9 53.8 81.9 1
4 8 -8 -146.5 84.5 1
4 8 -7 -5.5 69.6 1
4 8 -6 57.9 66.3 1
4 8 -5 -57.7 77.2 1
4 8 -4 -18.6 78.1 1
4 8 -3 1951 839.6 1
4 8 -2 -41.1 96.1 1
4 8 -1 45 112.3 1
5 -10 -3 120 64.1 1
5 -10 -2 562.3 83.2 1
5 -10 -1 283.8 59.7 1
5 -10 0 187 49.4 1
5 -10 1 -15.2 50.4 1
5 -10 2 4.7 74.2 1
5 -10 3 41.3 55.5 1
5 -10 4 -144.1 63.3 1
5 -9 -5 92.2 66.7 1
5 -9 -4 140.8 40.7 1
5 -9 -3 320.5 33.3 1
5 -9 -2 336.8 51.6 1
5 -9 -1 423.3 64.1 1
5 -9 0 -56.6 38 1
5 -9 1 30.9 41 1
5 -9 2 150.6 43.3 1
5 -9 3 571.6 55.1 1
5 -9 4 556.9 60.8 1
5 -9 5 50.2 56.8 1
5 -8 -8 172.7 85.2 1
5 -8 -7 24.2 42.3 1
5 -8 -6 -39.4 35.4 1
5 -8 -5 1068.6 45.9 1
5 -8 -4 1242.6 40.1 1
5 -8 -3 44.3 17.6 1
5 -8 -2 954.9 29.9 1
5 -8 -1 32.8 33.7 1
5 -8 0 20.8 35.3 1
5 -8 1 875.6 52.4 1
5 -8 2 4175.8 150.4 1
5 -8 3 2.8 35.6 1
5 -8 4 168.3 42.8 1
5 -8 5 134.5 43.9 1
5 -8 6 82.6 85.4 1
5 -7 -9 803.3 99.1 1
5 -7 -8 -43.1 31.9 1
5 -7 -7 43.8 51.9 1
5 -7 -6 29.7 28.6 1
5 -7 -5 520.4 31.6 1
5 -7 -4 930.3 32.6 1
5 -7 -3 1321.8 40.3 1
5 -7 -2 15173.8 304.4 1
5 -7 -1 3809.2 116.9 1
5 -7 0 2122.3 78 1
5 -7 1 543.5 42.7 1
5 -7 2 2433.7 82.7 1
5 -7 3 2517.3 92.8 1
5 -7 4 325.4 48.5 1
5 -7 5 124 21.2 1
5 -7 6 -2.8 30.3 1
5 -7 7 82.5 103.8 1
5 -6 -10 58.6 77.3 1
5 -6 -9 319.9 71.5 1
5 -6 -8 758.7 65.4 1
5 -6 -7 110.1 34.7 1
5 -6 -6 402 33.4 1
5 -6 -5 172.4 23.8 1
5 -6 -4 5283.8 113.8 1
5 -6 -3 12147.3 211.5 1
5 -6 -2 8201.3 167.6 1
5 -6 -1 6860.4 130.6 1
5 -6 0 258.4 10.1 1
5 -6 1 2455.5 92.6 1
5 -6 2 10154.1 178 1
5 -6 3 230.1 16.3 1
5 -6 4 24.4 19.1 1
5 -6 5 376.5 27.7 1
5 -6 6 227.8 37.3 1
5 -6 7 544.6 53.7 1
5 -5 -10 -19.5 86.3 1
5 -5 -9 -62.9 44.8 1
5 -5 -8 -6 31.8 1
5 -5 -7 3237.3 92.9 1
5 -5 -6 4039.7 104.5 1
5 -5 -5 748.5 33.1 1
5 -5 -4 3256.6 70.5 1
5 -5 -3 29570.6 468.7 1
5 -5 -2 61645.8 1208.3 1
5 -5 -1 7657.4 136.6 1
5 -5 0 2320.4 46 1
5 -5 1 4782.7 88.2 1
5 -5 2 183.6 17.4 1
5 -5 3 571 26.3 1
5 -5 4 -15.8 20.2 1
5 -5 5 53 22.8 1
5 -5 6 393.5 35.5 1
5 -5 7 1366.5 95.6 1
5 -5 8 115.6 67.9 1
5 -4 -11 380.6 102.4 1
5 -4 -10 223.5 63.3 1
5 -4 -9 888.1 47.4 1
5 -4 -8 279 33.5 1
5 -4 -7 248.7 22.1 1
5 -4 -6 5099.1 113 1
5 -4 -5 55.3 17.5 1
5 -4 -4 756.3 26.2 1
5 -4 -3 11566.1 211.6 1
5 -4 -2 2003.6 44.5 1
5 -4 -1 41.3 13 1
5 -4 0 478.9 17.5 1
5 -4 1 132.9 14.9 1
5 -4 2 5514.9 123.5 1
5 -4 3 2725.7 67.4 1
5 -4 4 176.7 26.2 1
5 -4 5 872.1 48.8 1
5 -4 6 110.1 43 1
5 -4 7 103.8 49.6 1
5 -4 8 1579.4 107.5 1
5 -3 -12 165 100.9 1
5 -3 -11 1355.6 107.8 1
5 -3 -10 -7 41.2 1
5 -3 -9 431.4 28.6 1
5 -3 -8 7982.3 166.2 1
5 -3 -7 9839.4 204.5 1
5 -3 -6 149.3 18.4 1
5 -3 -5 2684.7 60.3 1
5 -3 -4 12218.6 250.1 1
5 -3 -3 43592.3 777.8 1
5 -3 -2 1001.8 32.8 1
5 -3 -1 1103 30.2 1
5 -3 0 71 13.1 1
5 -3 1 1287.1 38.9 1
5 -3 2 2199.5 56.7 1
5 -3 3 919.6 37 1
5 -3 4 912.1 36.7 1
5 -3 5 1364.4 58.6 1
5 -3 6 174 42.8 1
5 -3 7 -24.3 60.6 1
5 -3 8 35.3 78.9 1
5 -2 -12 1149.4 113 1
5 -2 -11 801 90.9 1
5 -2 -10 470.7 34.6 1
5 -2 -9 1012.1 37.1 1
5 -2 -8 1316.4 42.4 1
5 -2 -7 1478.4 41.8 1
5 -2 -6 165.9 23 1
5 -2 -5 34.7 14.4 1
5 -2 -4 1560.8 43.7 1
5 -2 -3 534 20.6 1
5 -2 -2 1461.6 35.5 1
5 -2 -1 3831.6 83.4 1
5 -2 0 6768.7 140.5 1
5 -2 1 1333.6 49 1
5 -2 2 3354.8 88.6 1
5 -2 3 2917.8 82.9 1
5 -2 4 4507.8 127.5 1
5 -2 5 310.3 31.6 1
5 -2 6 329.5 42.4 1
5 -2 7 46.6 66.7 1
5 -1 -12 193.3 91.7 1
5 -1 -11 999 68.5 1
5 -1 -10 501.7 32.5 1
5 -1 -9 205.1 27.9 1
5 -1 -8 19101.1 399.3 1
5 -1 -7 1698.1 43.8 1
5 -1 -6 4142.9 116.9 1
5 -1 -5 6194.3 148.5 1
5 -1 -4 3197.6 77.9 1
5 -1 -3 2525.8 52.8 1
5 -1 -2 15467.3 313.3 1
5 -1 -1 5011 107.4 1
5 -1 0 953.6 28.9 1
5 -1 1 57.3 19.1 1
5 -1 2 1080.2 42.3 1
5 -1 3 612.4 36.6 1
5 -1 4 2658.2 97.2 1
5 -1 5 712.3 45.2 1
5 -1 6 247.6 46.8 1
5 -1 7 103 77.3 1
5 0 -12 1166 111.3 1
5 0 -11 2190.2 151.9 1
5 0 -10 69.3 58.5 1
5 0 -9 149.2 30.5 1
5 0 -8 1735.5 55.8 1
5 0 -7 81.7 22.2 1
5 0 -6 5392 147.3 1
5 0 -5 2432.6 66.4 1
5 0 -4 172.1 24.8 1
5 0 -3 2136.5 78.7 1
5 0 -2 3812.7 92.6 1
5 0 -1 1121.5 32.2 1
5 0 0 987.5 37.4 1
5 0 1 2444.4 84.9 1
5 0 2 448.1 30.5 1
5 0 3 22904.5 604 1
5 0 4 5478.7 172.9 1
5 0 5 21.2 37.8 1
5 0 6 69.2 42.9 1
5 0 7 117.3 86 1
5 1 -12 751.2 97.8 1
5 1 -11 231.6 61.2 1
5 1 -10 627.7 58.9 1
5 1 -9 301.8 40 1
5 1 -8 998.9 40.3 1
5 1 -7 3484.7 99.1 1
5 1 -6 2631.6 70.9 1
5 1 -5 3801.9 97.2 1
5 1 -4 1684.9 67.8 1
5 1 -3 4582.3 146.6 1
5 1 -2 6417.5 161.6 1
5 1 -1 14883.3 368 1
5 1 0 759.8 43.4 1
5 1 1 474.9 33.9 1
5 1 2 1019.7 48.4 1
5 1 3 2558.9 80.8 1
5 1 4 652.1 56.8 1
5 1 5 4.2 43.9 1
5 1 6 0.3 76.9 1
5 2 -12 330.1 77.4 1
5 2 -11 764.3 80.9 1
5 2 -10 77.3 48.6 1
5 2 -9 1514.1 78.4 1
5 2 -8 250.7 27.9 1
5 2 -7 682.9 33 1
5 2 -6 68.2 16.6 1
5 2 -5 1058.2 43.3 1
5 2 -4 2041.5 73.7 1
5 2 -3 2744.5 90.9 1
5 2 -2 7268.8 247.8 1
5 2 -1 3933 97.4 1
5 2 0 594.7 43.1 1
5 2 1 884.6 59 1
5 2 2 1170.3 55.4 1
5 2 3 7301.9 253.2 1
5 2 4 1495.1 82.1 1
5 2 5 52.6 43.2 1
5 3 -12 1069.8 125.1 1
5 3 -11 59.6 54.8 1
5 3 -10 1883.1 137.7 1
5 3 -9 1433.8 72 1
5 3 -8 37.5 24.1 1
5 3 -7 697.8 33 1
5 3 -6 508.8 33.3 1
5 3 -5 3024.7 118.8 1
5 3 -4 -56.4 29.8 1
5 3 -3 1450.3 66.6 1
5 3 -2 2953.7 107.5 1
5 3 -1 3021.3 117.9 1
5 3 0 53.8 42.9 1
5 3 1 -5.3 37.9 1
5 3 2 548.7 59.6 1
5 3 3 1718.6 87 1
5 3 4 101.1 56.4 1
5 4 -12 115 110.9 1
5 4 -11 211.4 83.5 1
5 4 -10 1035.6 95.8 1
5 4 -9 51 37.5 1
5 4 -8 65.6 23 1
5 4 -7 7.5 29.2 1
5 4 -6 1299 68 1
5 4 -5 542.9 47.2 1
5 4 -4 40.7 36 1
5 4 -3 26.1 34.9 1
5 4 -2 -64.1 38.2 1
5 4 -1 609.7 53.1 1
5 4 0 79.5 70.2 1
5 4 1 -44.7 47.9 1
5 4 2 -29.4 78.6 1
5 4 3 513.5 92.3 1
5 5 -11 210.2 90.2 1
5 5 -10 2311.9 171.1 1
5 5 -9 1356.9 54 1
5 5 -8 116.6 58.7 1
5 5 -7 623 59.4 1
5 5 -6 2612.1 136.3 1
5 5 -5 827.6 78 1
5 5 -4 8.1 65.6 1
5 5 -3 219.9 52.1 1
5 5 -2 629.8 83.5 1
5 5 -1 81.2 68.6 1
5 5 0 -32.9 72.9 1
5 5 1 17.4 78 1
5 5 2 358.2 70.7 1
5 6 -11 1111.1 111.2 1
5 6 -10 1738.6 134.4 1
5 6 -9 560.9 102.4 1
5 6 -8 -66.3 79.5 1
5 6 -7 -59.4 51.3 1
5 6 -6 599 98.9 1
5 6 -5 161.9 77 1
5 6 -4 599.3 86.9 1
5 6 -3 -16.4 73.5 1
5 6 -2 370.7 95.1 1
5 6 -1 -80.2 86.7 1
5 6 0 -37 78.3 1
5 7 -9 192.8 100.5 1
5 7 -8 76.1 83.3 1
5 7 -7 -10.8 79.6 1
5 7 -6 654.2 108 1
5 7 -5 373.1 105.4 1
5 7 -4 -86.6 85.9 1
5 7 -3 15.3 75.4 1
5 7 -2 152.4 107.3 1
6 -10 -2 502.7 100.7 1
6 -10 -1 68.8 44.4 1
6 -10 0 113.7 63.5 1
6 -10 1 -42.3 70.9 1
6 -10 2 -152.6 125 1
6 -9 -4 2136.1 132.9 1
6 -9 -3 280.6 113.9 1
6 -9 -2 11.2 49.4 1
6 -9 -1 2042.4 114.2 1
6 -9 0 -16.9 57.7 1
6 -9 1 12.9 64.1 1
6 -9 2 157.1 54.9 1
6 -9 3 694.1 63.5 1
6 -8 -6 103.4 59 1
6 -8 -5 275.4 37.5 1
6 -8 -4 76.8 25.1 1
6 -8 -3 86 18.1 1
6 -8 -2 858.2 53.8 1
6 -8 -1 281.1 47.1 1
6 -8 0 974.1 60.7 1
6 -8 1 -30.4 51.8 1
6 -8 2 50.8 47.2 1
6 -8 3 -22.6 43.8 1
6 -8 4 291.1 60.3 1
6 -7 -8 133.4 49 1
6 -7 -7 301.6 46.5 1
6 -7 -6 71.5 35.2 1
6 -7 -5 145.1 28.1 1
6 -7 -4 4.9 22.6 1
6 -7 -3 109 19.5 1
6 -7 -2 2078.3 48 1
6 -7 -1 163.1 36.2 1
6 -7 0 52.7 35.3 1
6 -7 1 136.2 38.9 1
6 -7 2 1215.1 68.9 1
6 -7 3 242.8 49.8 1
6 -7 4 103.1 53.8 1
6 -7 5 7.8 66.3 1
6 -6 -9 -26.2 84.2 1
6 -6 -8 50.5 46 1
6 -6 -7 74.6 33.1 1
6 -6 -6 1961.9 81.3 1
6 -6 -5 -1.7 22.8 1
6 -6 -4 297.3 26.6 1
6 -6 -3 935.1 30.4 1
6 -6 -2 2357.3 48.7 1
6 -6 -1 35.1 13.6 1
6 -6 0 2056.5 43.4 1
6 -6 1 1744.2 43.2 1
6 -6 2 782.9 27.3 1
6 -6 3 279.9 22.6 1
6 -6 4 263.4 31.9 1
6 -5 -10 1043.8 104.5 1
6 -5 -9 56.9 62.2 1
6 -5 -8 38.7 36.7 1
6 -5 -7 1956.5 56.4 1
6 -5 -6 352.5 25.9 1
6 -5 -5 607.5 27.6 1
6 -5 -4 11493.8 231.6 1
6 -5 -3 253.5 20.3 1
6 -5 -2 732.2 26.1 1
6 -5 -1 1496.7 37.8 1
6 -5 0 210 18.6 1
6 -5 1 653.2 25.9 1
6 -5 2 4697.4 100.7 1
6 -5 3 1012.8 36.8 1
6 -5 4 199.3 29.1 1
6 -5 5 366.3 59.2 1
6 -5 6 26.3 55.1 1
6 -4 -10 193.7 68.7 1
6 -4 -9 281.6 39 1
6 -4 -8 2942 79.8 1
6 -4 -7 1083.4 38.5 1
6 -4 -6 3454.6 84 1
6 -4 -5 1498.7 44.4 1
6 -4 -4 3057.4 72.6 1
6 -4 -3 6098.9 122.8 1
6 -4 -2 2464.5 60.1 1
6 -4 -1 1583.1 39.1 1
6 -4 0 7310.9 154.9 1
6 -4 1 10621.5 235.6 1
6 -4 2 821.5 36.9 1
6 -4 3 42.5 24.2 1
6 -4 4 808.7 44.4 1
6 -4 5 759.8 54.3 1
6 -3 -11 130.3 85.7 1
6 -3 -10 418.6 55.2 1
6 -3 -9 1000.9 43 1
6 -3 -8 605.5 32.1 1
6 -3 -7 759.4 32.7 1
6 -3 -6 1318.9 41.7 1
6 -3 -5 3654.1 82.6 1
6 -3 -4 19834.8 444.5 1
6 -3 -3 29758.9 591.9 1
6 -3 -2 8225.4 168.1 1
6 -3 -1 46.4 17.2 1
6 -3 0 475.8 23.4 1
6 -3 1 453 25 1
6 -3 2 37.4 27.1 1
6 -3 3 155.2 24.4 1
6 -3 4 12 33.9 1
6 -3 5 93.3 36.5 1
6 -3 6 441.2 78.1 1
6 -2 -12 11.6 84.7 1
6 -2 -11 150.9 88.1 1
6 -2 -10 793.2 45.2 1
6 -2 -9 15.7 26.6 1
6 -2 -8 835 36.4 1
6 -2 -7 337.2 27.9 1
6 -2 -6 55.4 22.4 1
6 -2 -5 51 18.5 1
6 -2 -4 26507.3 681.3 1
6 -2 -3 11346.6 222.1 1
6 -2 -2 125.1 18.8 1
6 -2 -1 1319.5 36.7 1
6 -2 0 1627.4 47.6 1
6 -2 1 3749.2 93.3 1
6 -2 2 288.3 32.8 1
6 -2 3 567.9 50.2 1
6 -2 4 8.4 35.7 1
6 -2 5 5.1 46.4 1
6 -2 6 490.6 83.9 1
6 -1 -12 864.4 111.7 1
6 -1 -11 212.7 60 1
6 -1 -10 56 33.3 1
6 -1 -9 4.9 26.4 1
6 -1 -8 8757.8 198.9 1
6 -1 -7 8738.1 191.3 1
6 -1 -6 479 27.3 1
6 -1 -5 974.4 35 1
6 -1 -4 9539.1 235.2 1
6 -1 -3 18822 382.2 1
6 -1 -2 466.6 25.3 1
6 -1 -1 527.7 25.4 1
6 -1 0 924.5 34.2 1
6 -1 1 119.1 29 1
6 -1 2 2285.1 73.8 1
6 -1 3 37.3 35.8 1
6 -1 4 46.5 43 1
6 -1 5 267.2 83 1
6 0 -12 84.5 94.1 1
6 0 -11 37.9 51.1 1
6 0 -10 811.9 49.2 1
6 0 -9 2223.1 79.1 1
6 0 -8 3265 95.7 1
6 0 -7 6491.1 169.7 1
6 0 -6 46.5 22.2 1
6 0 -5 1721.9 61.6 1
6 0 -4 7036.8 224.8 1
6 0 -3 2527.9 93.4 1
6 0 -2 112 19.9 1
6 0 -1 2123 57.7 1
6 0 0 271.1 24.9 1
6 0 1 146.3 35.8 1
6 0 2 55.8 28.4 1
6 0 3 417.1 53.8 1
6 0 4 360.8 52 1
6 0 5 185.4 103.8 1
6 1 -12 390.7 81.5 1
6 1 -11 434 53.1 1
6 1 -10 43.1 41.3 1
6 1 -9 550.6 45.7 1
6 1 -8 2973.2 91.9 1
6 1 -7 79.2 25.5 1
6 1 -6 513.6 43.3 1
6 1 -5 852.8 54.1 1
6 1 -4 -24.2 28.9 1
6 1 -3 191.9 38.2 1
6 1 -2 118 37.1 1
6 1 -1 430.8 24.3 1
6 1 0 734.6 31.5 1
6 1 1 111.9 35.1 1
6 1 2 21 37.6 1
6 1 3 -22.4 45.6 1
6 1 4 247.4 99.4 1
6 2 -12 18.7 85.7 1
6 2 -11 88.1 46.4 1
6 2 -10 229.7 46.5 1
6 2 -9 273 36.9 1
6 2 -8 317.4 32.4 1
6 2 -7 59.5 38.6 1
6 2 -6 79.8 36.1 1
6 2 -5 1075.4 59 1
6 2 -4 94.7 38.8 1
6 2 -3 307.5 46.4 1
6 2 -2 821.7 60.6 1
6 2 -1 -57.8 41 1
6 2 0 82.3 25.5 1
6 2 1 100.1 52.7 1
6 2 2 2430.1 80.7 1
6 2 3 2822.2 155.4 1
6 3 -11 33.5 82.6 1
6 3 -10 -19.3 73.3 1
6 3 -9 997.4 53.4 1
6 3 -8 571.6 79.9 1
6 3 -7 119.3 62.1 1
6 3 -6 231.8 47.1 1
6 3 -5 163.5 44.1 1
6 3 -4 44.1 44.9 1
6 3 -3 451 53.3 1
6 3 -2 -52.3 51.2 1
6 3 -1 185.9 77.3 1
6 3 0 273.2 81.7 1
6 3 1 -8.2 54.8 1
6 3 2 44.3 64.9 1
6 4 -11 211.7 113.7 1
6 4 -10 65.6 77.2 1
6 4 -9 70.3 73.4 1
6 4 -8 17.7 61.8 1
6 4 -7 465.1 74.2 1
6 4 -6 191.1 73 1
6 4 -5 91.6 68.9 1
6 4 -4 310.3 74 1
6 4 -3 459.1 80.2 1
6 4 -2 1527.5 159.3 1
6 4 -1 215.8 80.4 1
6 4 0 -16.3 90.2 1
6 4 1 -18.2 96.3 1
6 5 -10 297.4 144 1
6 5 -9 201.2 82.4 1
6 5 -8 102.5 84.9 1
6 5 -7 68.9 50.3 1
6 5 -6 1443 127.6 1
6 5 -5 133.7 79.5 1
6 5 -4 421.9 88.9 1
6 5 -3 288.8 95.7 1
6 5 -2 931.7 100.5 1
6 5 -1 127.5 104.5 1
6 6 -8 -57.6 78.6 1
6 6 -7 21.2 74.1 1
6 6 -6 200.5 98.9 1
6 6 -5 135.2 95.9 1
6 6 -4 143.2 86.9 1
6 6 -3 396.2 94.6 1
7 -9 -2 56.4 65.7 1
7 -9 -1 -190.9 62.6 1
7 -9 0 -241 106.1 1
7 -8 -3 346.1 85.9 1
7 -8 -2 1341.6 118.4 1
7 -8 -1 464 65.4 1
7 -8 0 588.6 64.1 1
7 -8 1 185.7 57.4 1
7 -8 2 178.8 67.8 1
7 -7 -7 695.3 62.7 1
7 -7 -6 4460.2 144.4 1
7 -7 -5 1858.3 70.1 1
7 -7 -4 113 37.3 1
7 -7 -3 282.7 38.2 1
7 -7 -2 80.8 24.8 1
7 -7 -1 2137.7 125.2 1
7 -7 0 32.9 58.3 1
7 -7 1 280.5 69 1
7 -7 2 72.6 71.3 1
7 -7 3 152.1 72.7 1
7 -6 -9 370.7 95.1 1
7 -6 -8 93.1 62.2 1
7 -6 -7 97.7 45.9 1
7 -6 -6 1060.4 55.1 1
7 -6 -5 1354.3 60.6 1
7 -6 -4 34.4 24.2 1
7 -6 -3 675.1 30.7 1
7 -6 -2 1808.4 50.2 1
7 -6 -1 1450.5 44.9 1
7 -6 0 1837.3 50.4 1
7 -6 1 310.4 32.3 1
7 -6 2 204.7 61.9 1
7 -6 3 606.8 115.6 1
7 -6 4 -23.6 88.2 1
7 -5 -9 148.7 72.3 1
7 -5 -8 566.1 47.1 1
7 -5 -7 89.8 31.4 1
7 -5 -6 37.7 25 1
7 -5 -5 3918.1 109.6 1
7 -5 -4 218.1 28.6 1
7 -5 -3 10.1 19.4 1
7 -5 -2 3419.5 78.4 1
7 -5 -1 114.2 23.3 1
7 -5 0 24.9 23.4 1
7 -5 1 106.4 26.7 1
7 -5 2 90.6 29.2 1
7 -5 3 151.2 56.9 1
7 -5 4 918.5 111 1
7 -4 -10 74.6 81.7 1
7 -4 -9 867.1 107.7 1
7 -4 -8 165.2 32 1
7 -4 -7 257.3 31.3 1
7 -4 -6 6514 153.2 1
7 -4 -5 269.3 29.2 1
7 -4 -4 627.5 38.9 1
7 -4 -3 1280.1 42.8 1
7 -4 -2 -15.7 21.3 1
7 -4 -1 -10.3 23 1
7 -4 0 714.8 37.4 1
7 -4 1 981.2 38.5 1
7 -4 2 497.3 34.4 1
7 -4 3 186.2 52.1 1
7 -4 4 3303.5 251.3 1
7 -3 -10 3466.2 697.1 1
7 -3 -9 40.2 37.7 1
7 -3 -8 388.8 35.7 1
7 -3 -7 4038.6 102.8 1
7 -3 -6 428.5 32.2 1
7 -3 -5 23.6 27.1 1
7 -3 -4 2808.1 91.8 1
7 -3 -3 135.6 22.8 1
7 -3 -2 -6.8 22.1 1
7 -3 -1 836.4 35.8 1
7 -3 0 35.6 26.7 1
7 -3 1 1427.9 52.7 1
7 -3 2 776.2 43.3 1
7 -3 3 -19.9 25.2 1
7 -3 4 -3.1 16.9 1
7 -2 -11 417.7 97.3 1
7 -2 -10 1024.7 117.8 1
7 -2 -9 -6.6 36.5 1
7 -2 -8 7.5 29.1 1
7 -2 -7 766.1 39.9 1
7 -2 -6 147.7 29.8 1
7 -2 -5 4219.5 109.7 1
7 -2 -4 5874.3 158.3 1
7 -2 -3 1259 40.7 1
7 -2 -2 110.8 23.1 1
7 -2 -1 2392.9 67 1
7 -2 0 6658.4 158.4 1
7 -2 1 1943.8 62.2 1
7 -2 2 23.4 26.2 1
7 -2 3 175.9 99.7 1
7 -2 4 467.9 55.8 1
7 -1 -11 -97.4 83.9 1
7 -1 -10 383.1 41.6 1
7 -1 -9 329.4 41.4 1
7 -1 -8 4.2 31.6 1
7 -1 -7 340.3 31.5 1
7 -1 -6 251.2 34.8 1
7 -1 -5 5932.9 171.4 1
7 -1 -4 5047.9 134.2 1
7 -1 -3 2448.2 83.2 1
7 -1 -2 110.7 34.7 1
7 -1 -1 184.7 27.7 1
7 -1 0 363 32.8 1
7 -1 1 622.5 39.8 1
7 -1 2 -32.9 44.9 1
7 -1 3 773.7 96.4 1
7 -1 4 319.6 87.3 1
7 0 -11 -1.7 88.4 1
7 0 -10 76 43.9 1
7 0 -9 345 39.7 1
7 0 -8 1471.5 56.2 1
7 0 -7 796.6 57.8 1
7 0 -6 3338.7 99 1
7 0 -5 8616.7 261 1
7 0 -4 8416 227 1
7 0 -3 1929.4 76.3 1
7 0 -2 172.5 34.2 1
7 0 -1 307.5 30.4 1
7 0 0 3718.9 103 1
7 0 1 260.8 45.6 1
7 0 2 271.6 100.3 1
7 1 -11 161.5 87.7 1
7 1 -10 1897.7 163.2 1
7 1 -9 617.4 54.9 1
7 1 -8 557.4 79.9 1
7 1 -7 2435.1 158.8 1
7 1 -6 335.9 65.5 1
7 1 -5 4728.2 169.6 1
7 1 -4 2951.2 110.7 1
7 1 -3 138.2 72.9 1
7 1 -2 316.3 55.1 1
7 1 -1 22.1 47.9 1
7 1 0 367.4 99 1
7 1 1 26.4 83.5 1
7 1 2 68.8 94.9 1
7 2 -10 397.5 96.1 1
7 2 -9 71.8 82.6 1
7 2 -8 42.4 64.5 1
7 2 -7 125.2 69.9 1
7 2 -6 412 82.4 1
7 2 -5 3390.1 200 1
7 2 -4 1073.6 90.9 1
7 2 -3 341.5 76.4 1
7 2 -2 779.3 112.7 1
7 2 -1 26.9 76.5 1
7 2 0 253.9 96.2 1
7 2 1 -114.1 104.2 1
7 3 -10 434.9 103.6 1
7 3 -9 730.7 108.7 1
7 3 -8 173.6 80.5 1
7 3 -7 14.1 77.4 1
7 3 -6 64 77.9 1
7 3 -5 584.3 88.4 1
7 3 -4 226.4 86.9 1
7 3 -3 27 84.6 1
7 3 -2 24.7 89.5 1
7 3 -1 189 97.1 1
7 3 0 12.6 101 1
7 4 -8 227.5 104.2 1
7 4 -7 202.7 104.3 1
7 4 -6 60.4 94.4 1
7 4 -5 376.9 93 1
7 4 -4 58.4 111.2 1
7 4 -3 -27.4 90.9 1
8 -7 -3 -119 95.7 1
8 -7 -2 2405 149.7 1
8 -7 -1 -4.1 75.3 1
8 -7 0 127.7 84.1 1
8 -6 -7 1100.8 83.7 1
8 -6 -6 782.9 52.5 1
8 -6 -5 -6.1 48.9 1
8 -6 -4 -40.8 46.5 1
8 -6 -3 -8 39.8 1
8 -6 -2 274.7 82 1
8 -6 -1 1072.1 100.8 1
8 -6 0 6.9 70 1
8 -6 1 1813.2 132.6 1
8 -5 -8 759.2 89.8 1
8 -5 -7 2945.3 94.3 1
8 -5 -6 1035.3 59.4 1
8 -5 -5 38.2 36 1
8 -5 -4 236.3 37.3 1
8 -5 -3 46.8 32.6 1
8 -5 -2 45.3 33.1 1
8 -5 -1 348.2 47.2 1
8 -5 0 79.3 44.9 1
8 -5 1 312.4 96.4 1
8 -4 -9 501.3 83.8 1
8 -4 -8 719.3 51.1 1
8 -4 -7 356.7 46.1 1
8 -4 -6 1661.4 55.9 1
8 -4 -5 807.3 50.3 1
8 -4 -4 48.1 34.4 1
8 -4 -3 764.6 43.5 1
8 -4 -2 60.5 34.6 1
8 -4 -1 415.7 42.2 1
8 -4 0 159.2 40.4 1
8 -4 1 294.5 56.9 1
8 -4 2 262.7 78.8 1
8 -3 -9 317 80.8 1
8 -3 -8 573.4 47.6 1
8 -3 -7 462.6 48.5 1
8 -3 -6 -35 38.1 1
8 -3 -5 181.4 37.5 1
8 -3 -4 8.8 33.9 1
8 -3 -3 48.3 33.1 1
8 -3 -2 1161.5 51.7 1
8 -3 -1 73 37.3 1
8 -3 0 18.9 42 1
8 -3 1 68.7 54.4 1
8 -3 2 -19.3 73.9 1
8 -2 -10 88.6 92.2 1
8 -2 -9 220.9 76.5 1
8 -2 -8 92.8 43.5 1
8 -2 -7 104.4 51.5 1
8 -2 -6 2638.3 101.1 1
8 -2 -5 -2.1 39.7 1
8 -2 -4 29.5 48 1
8 -2 -3 1407 66.9 1
8 -2 -2 7.3 35 1
8 -2 -1 19.6 41.9 1
8 -2 0 1568.2 100.5 1
8 -2 1 461.1 89.2 1
8 -2 2 -51.1 86.6 1
8 -1 -10 17.2 96.7 1
8 -1 -9 1.4 85.2 1
8 -1 -8 198 88.6 1
8 -1 -7 726.3 98.1 1
8 -1 -6 44.2 64.5 1
8 -1 -5 25.5 56.9 1
8 -1 -4 550.8 78.6 1
8 -1 -3 101.2 64.3 1
8 -1 -2 12.1 76.4 1
8 -1 -1 181.8 86 1
8 -1 0 129.9 84.8 1
8 -1 1 361.7 103.1 1
8 0 -10 75.7 88.9 1
8 0 -9 64.3 74.5 1
8 0 -8 155.6 79.5 1
8 0 -7 356.6 92.3 1
8 0 -6 93.7 64.5 1
8 0 -5 4393.8 245.2 1
8 0 -4 1217.7 102.3 1
8 0 -3 308.9 75.2 1
8 0 -2 532 97.4 1
8 0 -1 3090.7 734.6 1
8 1 -9 485.7 91 1
8 1 -8 492.8 102.4 1
8 1 -7 199.2 76.2 1
8 1 -6 55.2 75.4 1
8 1 -5 344.9 92.2 1
8 1 -4 575.5 93.6 1
8 1 -3 182.2 83.9 1
8 1 -2 -25.8 65.1 1
8 1 -1 75.3 54.1 1
8 2 -8 -28.2 91.3 1
8 2 -7 -29.6 109.1 1
8 2 -6 2312.7 172.2 1
8 2 -5 4374 285.2 1
8 2 -4 1235.3 134.9 1
8 2 -3 17.8 60.7 1
9 -4 -6 -109.3 79.6 1
9 -4 -5 506.7 89.8 1
9 -4 -4 314.8 72.3 1
9 -4 -3 332.9 68.7 1
9 -4 -2 8.7 83 1
9 -3 -7 564.3 86.1 1
9 -3 -6 46.9 78.8 1
9 -3 -5 98.7 75.4 1
9 -3 -4 98 63.4 1
9 -3 -3 29.5 66.9 1
9 -3 -2 138.3 88.7 1
9 -2 -7 1123.2 119.4 1
9 -2 -6 69.8 81.7 1
9 -2 -5 164.2 90.6 1
9 -2 -4 -9.5 97.6 1
9 -2 -3 120.7 86.5 1
9 -1 -6 83.5 104.3 1
9 -1 -5 148.4 113.3 1
9 -1 -4 20.5 86.9 1
