#------------------------------------------------------------------------------
#$Date: 2020-05-04 05:46:13 +0300 (Mon, 04 May 2020) $
#$Revision: 251478 $
#$URL: file:///home/coder/svn-repositories/cod/cif/4/03/82/4038250.cif $
#------------------------------------------------------------------------------
#
# This file is available in the Crystallography Open Database (COD),
# http://www.crystallography.net/
#
# All data on this site have been placed in the public domain by the
# contributors.
#
data_4038250
loop_
_publ_author_name
'Matsubara, Ryosuke'
'Ando, Akihiro'
'Hasebe, Hayu'
'Kim, Hojin'
'Tsuneda, Takao'
'Hayashi, Masahiko'
_publ_section_title
;
 Synthesis and Synthetic Application of Chloro- and Bromofuroxans.
;
_journal_issue                   9
_journal_name_full               'The Journal of organic chemistry'
_journal_page_first              5959
_journal_page_last               5972
_journal_paper_doi               10.1021/acs.joc.0c00326
_journal_volume                  85
_journal_year                    2020
_chemical_formula_sum            'C8 H5 Cl N2 O3'
_chemical_formula_weight         212.59
_chemical_name_common            furoxan
_space_group_crystal_system      monoclinic
_space_group_IT_number           4
_space_group_name_Hall           'P 2yb'
_space_group_name_H-M_alt        'P 1 21 1'
_atom_sites_solution_hydrogens   geom
_cell_angle_alpha                90
_cell_angle_beta                 92.046(3)
_cell_angle_gamma                90
_cell_formula_units_Z            2
_cell_length_a                   6.5586(13)
_cell_length_b                   7.4628(14)
_cell_length_c                   8.5758(17)
_cell_measurement_reflns_used    1212
_cell_measurement_temperature    90.(2)
_cell_measurement_theta_max      27.4883
_cell_measurement_theta_min      2.3764
_cell_volume                     419.48(14)
_computing_cell_refinement       'SAINT V8.38A (Bruker AXS Inc., 2017)'
_computing_data_reduction        'SAINT V8.38A (Bruker AXS Inc., 2017)'
_computing_molecular_graphics    'shelXle (C.B. Huebschle, rev 833)'
_computing_structure_refinement  'SHELXL-2016/6 (Sheldrick, 2016)'
_computing_structure_solution    'SHELXT 2014/5 (Sheldrick, 2014)'
_diffrn_ambient_temperature      90.(2)
_diffrn_detector_area_resol_mean 8.3333
_diffrn_measured_fraction_theta_full 0.995
_diffrn_measured_fraction_theta_max 0.995
_diffrn_measurement_device_type  'Bruker APEXII CCD area detector'
_diffrn_measurement_method       'phi and omega scans'
_diffrn_radiation_monochromator  'Bruker Helios multilayer confocal mirror'
_diffrn_radiation_source         'Bruker TXS fine-focus rotating anode'
_diffrn_radiation_type           MoK\a
_diffrn_radiation_wavelength     0.71073
_diffrn_reflns_av_R_equivalents  0.0288
_diffrn_reflns_av_unetI/netI     0.0501
_diffrn_reflns_limit_h_max       8
_diffrn_reflns_limit_h_min       -6
_diffrn_reflns_limit_k_max       6
_diffrn_reflns_limit_k_min       -9
_diffrn_reflns_limit_l_max       11
_diffrn_reflns_limit_l_min       -11
_diffrn_reflns_number            2452
_diffrn_reflns_theta_full        27.47
_diffrn_reflns_theta_max         27.47
_diffrn_reflns_theta_min         2.38
_diffrn_source                   'rotating-anode X-ray tube'
_diffrn_source_type              'Bruker Turbo X-ray Source'
_exptl_absorpt_coefficient_mu    0.434
_exptl_absorpt_correction_T_max  0.99
_exptl_absorpt_correction_T_min  0.89
_exptl_absorpt_correction_type   multi-scan
_exptl_absorpt_process_details
;
SADABS-2016/2 - Bruker AXS area detector scaling and absorption correction
;
_exptl_crystal_colour            colourless
_exptl_crystal_density_diffrn    1.683
_exptl_crystal_density_method    'not measured'
_exptl_crystal_description       block
_exptl_crystal_F_000             216
_exptl_crystal_size_max          0.067
_exptl_crystal_size_mid          0.039
_exptl_crystal_size_min          0.019
_refine_diff_density_max         0.274
_refine_diff_density_min         -0.219
_refine_ls_abs_structure_details
;

Flack x determined using 564 quotients [(I+)-(I-)]/[(I+)+(I-)]
(Parsons, Flack and Wagner, Acta Cryst. B69 (2013) 249-259).
;
_refine_ls_abs_structure_Flack   0.03(6)
_refine_ls_extinction_method     none
_refine_ls_goodness_of_fit_ref   1.030
_refine_ls_hydrogen_treatment    constr
_refine_ls_matrix_type           full
_refine_ls_number_parameters     127
_refine_ls_number_reflns         1663
_refine_ls_number_restraints     1
_refine_ls_restrained_S_all      1.029
_refine_ls_R_factor_all          0.0345
_refine_ls_R_factor_gt           0.0312
_refine_ls_shift/su_max          0.000
_refine_ls_shift/su_mean         0.000
_refine_ls_structure_factor_coef Fsqd
_refine_ls_weighting_details
'w=1/[\s^2^(Fo^2^)+(0.0375P)^2^] where P=(Fo^2^+2Fc^2^)/3'
_refine_ls_weighting_scheme      calc
_refine_ls_wR_factor_gt          0.0734
_refine_ls_wR_factor_ref         0.0760
_reflns_number_gt                1555
_reflns_number_total             1663
_reflns_threshold_expression     'I > 2\s(I)'
_cod_data_source_file            jo0c00326_si_004.cif
_cod_data_source_block           HH121_3a
_cod_depositor_comments
;
The following automatic conversions were performed:

data item '_exptl_absorpt_correction_type' value 'Multi-Scan' was
changed to 'multi-scan' in accordance with the
/home/data/users/saulius/crontab/automatic-downloads/rss-feeds/ACS/lib/dictionaries/cif_core.dic
dictionary named 'cif_core.dic' version 2.4.2 last updated on
2011-04-26.

Automatic conversion script
Id: cif_fix_values 7556 2019-12-06 15:28:31Z antanas 

 Adding full bibliography for 4038245--4038253.cif.
;
_cod_database_code               4038250
_shelx_res_file
;

TITL HH121_3_0am_a.res in P2(1)
    HH121_3_0am_a.res
    created by SHELXL-2016/6 at 17:06:10 on 06-Dec-2019
REM Old TITL HH121_3_0am in P2(1)
REM SHELXT solution in P2(1)
REM R1 0.066,  Rweak 0.028,  Alpha 0.003,  Orientation as input
REM Flack x =  0.047 ( 0.059 ) from Parsons' quotients
REM Formula found by SHELXT:  C10 Cl N O2
CELL  0.71073   6.5586   7.4628   8.5758   90.000   92.046   90.000
ZERR    2.000   0.0013   0.0014   0.0017    0.000    0.003    0.000
LATT -1
SYMM -X, 1/2+Y, -Z
SFAC C CL N O H
UNIT 16 2 4 6 10
TEMP -183
ACTA 50
L.S. 10
SIZE 0.067 0.039 0.019
BOND $H
LIST 6
FMAP 2
PLAN 20
WGHT    0.037500
FVAR       1.08082
CL1   2    0.086256    0.428599    0.131077    11.00000    0.01296    0.02356 =
         0.01833    0.00074   -0.00222   -0.00237
N1    3    0.382637    0.639103    0.044479    11.00000    0.01627    0.01920 =
         0.01361    0.00017   -0.00039    0.00101
O1    4    0.312831    0.700167   -0.080343    11.00000    0.02359    0.02780 =
         0.01241    0.00578   -0.00325    0.00280
C1    1    0.316283    0.526511    0.149497    11.00000    0.01180    0.01523 =
         0.01364    0.00034   -0.00028   -0.00009
O2    4    0.581949    0.696452    0.096191    11.00000    0.01692    0.02158 =
         0.01570    0.00426    0.00033   -0.00262
N2    3    0.629156    0.612958    0.238963    11.00000    0.01794    0.01793 =
         0.01249    0.00197   -0.00098    0.00071
C2    1    0.471561    0.513574    0.268243    11.00000    0.01418    0.01225 =
         0.01257   -0.00039   -0.00029    0.00093
C3    1    0.626962    0.403522    0.497909    11.00000    0.01380    0.01358 =
         0.01555    0.00305   -0.00317   -0.00197
O3    4    0.452510    0.411493    0.394164    11.00000    0.01338    0.01992 =
         0.01370    0.00492   -0.00239   -0.00291
C4    1    0.796995    0.309294    0.453349    11.00000    0.01657    0.01615 =
         0.01408   -0.00023    0.00111   -0.00087
AFIX  43
H4    5    0.800463    0.253225    0.354027    11.00000   -1.20000
AFIX   0
C5    1    0.962883    0.299408    0.558997    11.00000    0.01526    0.01646 =
         0.01711    0.00293   -0.00068    0.00158
AFIX  43
H5    5    1.082769    0.237394    0.531227    11.00000   -1.20000
AFIX   0
C6    1    0.954062    0.379754    0.704849    11.00000    0.01673    0.01748 =
         0.01692    0.00096   -0.00506   -0.00063
AFIX  43
H6    5    1.068072    0.373447    0.776143    11.00000   -1.20000
AFIX   0
C7    1    0.778966    0.468954    0.746071    11.00000    0.02579    0.01340 =
         0.01366   -0.00074   -0.00188    0.00000
AFIX  43
H7    5    0.772941    0.522318    0.846375    11.00000   -1.20000
AFIX   0
C8    1    0.612570    0.481246    0.642748    11.00000    0.01779    0.01162 =
         0.01741    0.00261    0.00336    0.00270
AFIX  43
H8    5    0.491803    0.541612    0.670952    11.00000   -1.20000
AFIX   0
HKLF 4




REM  HH121_3_0am_a.res in P2(1)
REM R1 =  0.0312 for    1555 Fo > 4sig(Fo)  and  0.0345 for all    1663 data
REM    127 parameters refined using      1 restraints

END

WGHT      0.0321      0.0242

REM Highest difference peak  0.274,  deepest hole -0.219,  1-sigma level  0.055
Q1    1   0.6776  0.4383  0.7069  11.00000  0.05    0.27
Q2    1   0.8598  0.4341  0.7034  11.00000  0.05    0.25
Q3    1   0.0359  0.3213  0.0452  11.00000  0.05    0.24
Q4    1   0.7123  0.3440  0.4860  11.00000  0.05    0.23
Q5    1   0.8245  0.5725  0.1455  11.00000  0.05    0.22
Q6    1   0.8575  0.3043  0.3007  11.00000  0.05    0.19
Q7    1   0.6022  0.3525  0.2359  11.00000  0.05    0.19
Q8    1   0.2074  0.4148  0.2804  11.00000  0.05    0.19
Q9    1   0.3860  0.3751  0.4596  11.00000  0.05    0.19
Q10   1   0.2520  0.4915  0.3581  11.00000  0.05    0.18
Q11   1   0.7813  0.5089  0.7818  11.00000  0.05    0.18
Q12   1   0.6178  0.9220  0.1124  11.00000  0.05    0.17
Q13   1   0.3470  0.5401 -0.0729  11.00000  0.05    0.16
Q14   1   0.2621  0.8368 -0.1998  11.00000  0.05    0.16
Q15   1   0.1441  0.6535 -0.1022  11.00000  0.05    0.16
Q16   1   0.4259  0.3321  0.2165  11.00000  0.05    0.16
Q17   1   0.8436  0.4557  1.0062  11.00000  0.05    0.16
Q18   1   0.1112  0.5058  0.3577  11.00000  0.05    0.16
Q19   1   0.4244  0.6237  0.7001  11.00000  0.05    0.16
Q20   1   0.4050  0.4955  0.7324  11.00000  0.05    0.16
;
_shelx_res_checksum              53234
_shelx_hkl_file
;
   1   0   0  860.11   30.30
   2   0   0  669.23   24.80
   3   0   0  429.36   17.60
   4   0   0  362.86   16.40
   4   0   0  372.16   14.40
   5   0   0   -0.40    1.90
   5   0   0    1.40    1.20
   6   0   0  202.18   12.10
   7   0   0  228.08   14.20
   8   0   0   27.10    6.00
   0  -1   0    0.10    0.40
   0   1   0    0.40    0.30
  -1  -1   0  412.76   14.90
   1  -1   0  404.16   14.90
  -1  -1   0  413.26   14.40
   1  -1   0  403.56   15.00
   1   1   0  432.36   15.30
   2  -1   0  237.08    9.70
  -2  -1   0  222.78    9.20
   2  -1   0  232.58    9.30
   2   1   0  231.58   10.10
   3  -1   0  841.72   30.20
   3  -1   0  823.42   31.20
   3   1   0  831.72   31.60
   4  -1   0  287.07   12.20
   4  -1   0  281.07   13.50
   4   1   0  321.37   14.10
   5  -1   0  126.29    8.50
   5  -1   0  134.79    7.00
   5   1   0  133.49    8.80
   6  -1   0  586.04   24.90
   6  -1   0  528.75   22.10
   6   1   0  561.54   25.10
   7  -1   0   96.69    9.60
   7   1   0   72.89    8.50
   8  -1   0  195.98   13.80
   8   1   0  214.88   14.70
   0  -2   0 1560.44   53.99
   0   2   0 1548.74   53.49
   1  -2   0 2214.38   76.79
  -1  -2   0 2177.48   76.59
   1  -2   0 2251.27   76.09
  -1  -2   0 2247.98   75.99
   1   2   0 2165.18   76.69
   2  -2   0  624.44   22.30
  -2  -2   0  619.24   21.10
   2  -2   0  589.54   22.30
  -2  -2   0  589.64   22.20
   2   2   0  578.64   22.70
   3  -2   0  268.77   11.10
   3  -2   0  251.17   11.40
  -3  -2   0  262.27   10.90
   3   2   0  243.98   11.70
   4  -2   0   66.19    4.60
   4  -2   0   73.29    5.40
   4   2   0   61.99    6.20
   5  -2   0  204.68    9.80
   5  -2   0  183.38   10.80
   5   2   0  195.48   11.40
   6  -2   0  186.78   11.10
   6  -2   0  168.78    9.40
   6   2   0  172.78   11.50
   7  -2   0  155.38   11.10
   7   2   0  161.48   11.90
   8  -2   0   39.80    6.90
   8   2   0   35.00    7.20
   0  -3   0    1.30    0.90
   0   3   0    0.10    0.60
  -1  -3   0  108.39    5.50
   1  -3   0   95.49    5.40
  -1  -3   0  113.19    5.00
   1  -3   0  118.49    4.60
   1   3   0  113.49    5.40
   2  -3   0  474.15   19.70
  -2  -3   0  518.65   19.60
   2  -3   0  509.95   19.10
  -2  -3   0  525.05   18.40
   2   3   0  529.95   20.10
   3  -3   0  371.76   16.00
  -3  -3   0  395.66   16.10
   3  -3   0  414.26   16.40
   3   3   0  408.26   17.00
  -4  -3   0  127.09    7.10
   4  -3   0  130.09    7.60
   4  -3   0  131.29    7.40
   4   3   0  113.99    7.90
   5  -3   0  158.98    8.60
   5  -3   0  131.79    8.90
   5   3   0  142.39    9.60
   6  -3   0   53.29    6.20
   6  -3   0   47.10    5.40
   6   3   0   42.40    6.30
   7  -3   0   43.30    6.50
   7  -3   0   56.09    5.90
   7   3   0   43.30    7.40
   8   3   0  116.39   12.60
   0  -4   0 1374.46   47.90
   0   4   0 1318.57   46.70
   1  -4   0   46.10    3.70
   1  -4   0   48.90    2.40
  -1  -4   0   46.80    3.00
  -1  -4   0   48.30    3.60
   1   4   0   46.30    3.20
  -2  -4   0  222.78    9.90
   2  -4   0  236.98   10.20
  -2  -4   0  208.58    8.60
   2  -4   0  212.68    8.80
   2   4   0  206.18   10.00
   3  -4   0   42.80    3.80
   3  -4   0   57.79    4.50
  -3  -4   0   53.19    4.20
   3   4   0   54.29    5.40
   4  -4   0  350.46   15.70
   4  -4   0  351.76   16.00
  -4  -4   0  371.06   15.70
   4   4   0  367.16   17.00
   5  -4   0   77.49    6.10
   5   4   0   79.09    8.10
   6  -4   0  312.07   15.30
   6   4   0  319.67   17.30
   7  -4   0   27.10    4.60
   7   4   0   20.10    5.70
   0  -5   0    0.10    1.00
  -1  -5   0   29.50    3.00
   1  -5   0   30.60    3.60
  -1  -5   0   25.70    3.30
   1   5   0   21.30    2.70
  -2  -5   0  364.36   14.20
   2  -5   0  342.97   15.50
  -2  -5   0  358.26   15.40
   2   5   0  378.16   15.20
   3  -5   0  367.56   16.40
  -3  -5   0  368.86   16.10
   3   5   0  374.06   16.40
   4  -5   0  149.88    9.00
  -4  -5   0  149.39    8.90
   4   5   0  162.48   10.00
  -5  -5   0  179.38   10.10
   5  -5   0  184.48   10.50
   5   5   0  162.18   11.20
   6  -5   0    3.60    2.50
   6   5   0    4.50    3.70
   7  -5   0   56.39    6.70
   7   5   0   48.40    8.00
   0  -6   0   34.90    3.80
  -1  -6   0  218.38    9.90
  -1  -6   0  216.78   10.60
   1  -6   0  196.48   10.30
  -2  -6   0   88.89    6.20
   2  -6   0   83.09    6.20
   3  -6   0    5.00    2.30
  -3  -6   0    7.70    2.20
  -4  -6   0   83.39    6.40
   4  -6   0   81.09    6.70
  -5  -6   0  154.48    9.40
   5  -6   0  125.69    9.20
  -6  -6   0   90.39    8.50
   6  -6   0   99.29    8.30
   6   6   0  111.29   11.00
   0  -7   0    0.40    1.80
   0  -7   0    2.50    1.80
   1  -7   0  112.59    7.40
  -1  -7   0  119.19    7.80
  -2  -7   0  104.39    7.40
   2  -7   0  113.89    7.70
   3  -7   0   60.79    6.50
  -3  -7   0   62.79    6.20
   4  -7   0  103.49    7.90
  -4  -7   0   98.89    7.50
   5  -7   0    8.20    3.50
  -5  -7   0   10.10    3.40
   0  -8   0  110.69    7.90
   0  -8   0  127.59   11.00
   1  -8   0   91.39    7.10
  -1  -8   0  117.89    7.90
   2  -8   0   51.59    6.10
  -2  -8   0   52.49    5.90
   3  -8   0   14.00    3.70
  -3  -8   0    6.80    3.10
   4  -8   0    3.60    2.80
  -4  -8   0    2.40    2.60
   0  -9   0    1.50    2.50
   1  -9   0   65.09    6.90
  -1  -9   0   56.39    6.60
  -2  -9   0    6.10    3.00
   2  -9   0    1.80    2.70
  -3  -9   0  193.38   18.10
   3  -9   0  185.58   12.30
   8   0  -1  176.58   13.30
   7   0  -1    5.00    3.30
   6   0  -1   91.59    8.00
   5   0  -1    1.00    1.10
   5   0  -1    0.70    1.80
   4   0  -1   39.00    2.80
   4   0  -1   42.60    4.70
   3   0  -1 1145.69   41.40
   3   0  -1 1102.59   39.50
   2   0  -1  192.18    7.40
   1   0  -1  509.85   17.70
   1   0  -1  494.25   18.30
   0   0  -1  111.79    4.60
   0   0  -1  113.89    4.40
   2   0   1 1118.19   40.20
   3   0   1   44.50    4.50
   4   0   1  702.93   28.10
   5   0   1 1039.80   40.70
   6   0   1   53.29    6.80
   7   0   1    6.90    3.30
   8   0   1   31.50    6.30
   8  -1  -1    5.50    3.90
   8   1  -1    3.70    3.40
   7  -1  -1   10.80    3.90
   7   1  -1    5.60    3.70
   6  -1  -1  263.27   14.30
   6   1  -1  242.98   14.20
   5  -1  -1  436.36   20.00
   5  -1  -1  485.65   18.20
   5   1  -1  428.76   20.30
   4  -1  -1  949.21   33.70
   4  -1  -1  927.71   35.30
   4   1  -1  948.91   35.80
   4   1  -1  874.01   32.50
   3  -1  -1  816.92   30.40
   3  -1  -1  743.93   29.20
   3   1  -1  810.62   30.90
   3   1  -1  854.71   28.30
   2  -1  -1 1019.20   37.10
   2  -1  -1 1051.29   36.60
   2   1  -1 1020.20   35.50
   2   1  -1 1050.89   37.70
   1  -1  -1 2425.96   83.29
  -1  -1   1 2416.26   83.09
   1  -1  -1 2446.56   83.19
   1   1  -1 2374.16   83.69
   0  -1  -1  974.60   36.00
   0   1  -1 1071.99   36.20
   0   1   1 1053.29   35.70
  -1  -1  -1  480.55   17.00
  -1  -1  -1  467.85   17.00
   1  -1   1  493.65   17.50
   1   1   1  459.05   17.50
  -2  -1  -1  534.45   19.90
   2  -1   1  541.45   20.60
   2   1   1  556.64   20.80
   3  -1   1  144.19    7.60
   3   1   1  142.09    8.00
   4  -1   1  108.49    7.00
   4   1   1   97.09    7.00
   5  -1   1  417.26   17.50
   5  -1   1  430.56   19.60
   5   1   1  440.26   19.90
   6  -1   1   83.59    5.80
   6  -1   1   89.29    7.70
   6   1   1   79.89    8.60
   7  -1   1  121.69    9.80
   7   1   1  107.89    9.50
   8  -1   1   53.79    7.90
   8   1   1   46.70    7.60
   8  -2  -1  141.79   11.70
   8   2  -1  156.18   13.00
   7  -2  -1   78.49    8.80
   7   2  -1   86.89    9.90
   6  -2  -1   24.10    4.60
   6  -2  -1   29.00    3.80
   6   2  -1   26.40    5.10
   5  -2  -1   51.99    4.10
   5  -2  -1   50.99    5.70
   5   2  -1   43.20    5.80
   4  -2  -1  112.99    6.20
   4  -2  -1  108.89    6.90
   4   2  -1  110.99    7.50
   3  -2  -1  233.78   10.20
  -3  -2   1  230.78   10.10
   3  -2  -1  239.48   10.70
   3   2  -1  242.18   11.40
   2  -2  -1   49.90    3.40
   2  -2  -1   60.49    3.50
  -2  -2   1   55.09    3.40
   2   2  -1   48.70    4.10
  -1  -2   1 9438.75  332.47
   1  -2  -1 9310.97  334.97
  -1  -2   1 9893.01  333.77
   1  -2  -1 9984.80  333.37
   1   2  -1 9999.00  335.87
   0  -2   1 2155.58   70.69
   0  -2  -1 1929.81   70.89
   0   2   1 2071.59   70.09
   0   2  -1 2020.30   70.79
   1  -2   1  168.98    7.10
  -1  -2  -1  170.68    6.90
  -1  -2  -1  173.58    7.10
   1   2   1  167.58    7.20
  -2  -2  -1   25.80    2.50
  -2  -2  -1   26.50    1.90
   2  -2   1   23.60    2.60
   2   2   1   19.60    2.60
  -3  -2  -1 1497.05   52.99
   3  -2   1 1434.26   53.59
   3   2   1 1541.15   54.29
   4  -2   1   57.49    4.30
   4  -2   1   45.20    5.10
   4   2   1   49.99    5.70
   5  -2   1  797.32   31.50
   5  -2   1  752.22   29.80
   5   2   1  770.72   31.90
   6  -2   1   78.19    5.90
   6  -2   1   77.59    8.10
   6   2   1   74.19    8.10
   7  -2   1   55.09    7.30
   7  -2   1   35.80    4.70
   7   2   1   50.09    7.50
   8  -2   1   26.20    6.00
   8   2   1   21.90    5.60
   8   3  -1   23.80    7.00
   7  -3  -1   87.29    8.90
   7  -3  -1   63.29    6.40
   7   3  -1   71.89    9.00
   6  -3  -1  280.57   14.60
   6  -3  -1  265.37   13.20
   6   3  -1  274.07   15.80
   5  -3  -1  312.77   14.80
   5  -3  -1  309.67   14.00
   5   3  -1  288.37   15.80
   4  -3  -1  541.05   21.90
   4  -3  -1  565.64   22.20
  -4  -3   1  535.55   21.70
   3  -3  -1  301.77   12.90
  -3  -3   1  311.77   13.00
   3  -3  -1  311.27   13.30
   3   3  -1  308.77   14.20
  -2  -3   1  153.88    7.40
   2  -3  -1  162.28    7.70
  -2  -3   1  166.88    6.00
   2  -3  -1  160.68    6.90
   2   3  -1  153.78    8.00
  -1  -3   1  456.55   18.00
  -1  -3   1  476.55   17.20
   1  -3  -1  483.05   18.30
   1   3  -1  485.25   18.20
   0  -3  -1    1.80    1.10
   0  -3   1   -0.10    0.70
   0   3  -1    0.40    1.00
   0   3   1    0.50    0.50
   1  -3   1  309.57   12.40
  -1  -3  -1  301.77   12.10
  -1  -3  -1  313.17   11.90
   1  -3   1  301.47   11.70
   1   3   1  303.57   11.80
  -2  -3  -1  884.31   30.30
   2  -3   1  874.11   30.90
  -2  -3  -1  807.62   30.90
   2  -3   1  842.12   31.30
   2   3   1  821.22   31.40
   3  -3   1  128.49    6.90
   3  -3   1  128.19    7.00
  -3  -3  -1  121.49    6.50
  -3  -3  -1  115.29    5.50
   3   3   1  134.89    7.60
   4  -3   1  239.78   12.30
   4  -3   1  248.18   11.90
  -4  -3  -1  279.27   12.00
   4   3   1  267.57   13.00
   5  -3   1  394.36   17.40
   5  -3   1  409.56   18.40
   5   3   1  388.46   18.80
   6  -3   1   94.29    8.10
   6  -3   1   98.09    7.00
   6   3   1  100.29    8.70
   7  -3   1   77.39    8.50
   7  -3   1   81.99    6.90
   7   3   1   81.79    9.50
   8  -3   1  130.39   11.40
   7  -4  -1  141.39    9.40
   7   4  -1  131.89   11.40
   6  -4  -1   43.40    5.40
   6   4  -1   44.60    6.90
  -5  -4   1   46.70    5.30
   5  -4  -1   58.09    5.80
   5   4  -1   61.59    7.40
  -4  -4   1    2.50    1.60
   4  -4  -1    0.50    1.60
   4   4  -1    2.40    2.40
   3  -4  -1  180.88    9.20
  -3  -4   1  163.88    8.60
   3   4  -1  178.18    9.50
   2  -4  -1  445.56   17.90
   2  -4  -1  398.36   16.20
  -2  -4   1  455.35   17.60
  -2  -4   1  455.15   16.00
   2   4  -1  439.56   17.90
  -1  -4   1  560.74   20.70
  -1  -4   1  531.95   19.80
   1  -4  -1  520.45   20.80
   1   4  -1  534.55   20.40
   0  -4  -1  637.24   24.00
   0  -4   1  643.74   23.80
   0   4  -1  637.54   23.40
  -1  -4  -1  246.68   11.10
  -1  -4  -1  261.67   10.90
   1  -4   1  262.37   11.30
   1  -4   1  265.67   10.40
   1   4   1  265.27   10.50
  -2  -4  -1  238.18   10.20
   2  -4   1  248.48   11.30
  -2  -4  -1  260.67   11.10
   2  -4   1  247.88   10.50
   2   4   1  259.77   11.10
   3  -4   1   80.09    5.50
   3  -4   1   78.89    5.20
  -3  -4  -1   87.49    5.60
  -3  -4  -1   85.99    4.50
   3   4   1   82.79    5.90
  -4  -4  -1   98.09    6.10
   4  -4   1   88.49    6.30
   4  -4   1   97.09    6.40
   4   4   1   77.79    6.60
   5  -4   1   88.89    6.90
   5  -4   1   66.49    6.00
  -5  -4  -1   82.79    6.10
   5   4   1   79.29    8.00
   6  -4   1  125.29    8.50
   6   4   1  110.89    9.40
   7  -4   1   13.70    3.60
   7   4   1   11.00    4.30
   7  -5  -1   47.20    6.40
   7   5  -1   37.60    6.70
   6  -5  -1  121.59    8.70
   6   5  -1  130.89   10.10
   5  -5  -1   25.20    4.30
  -5  -5   1   18.10    3.40
   5   5  -1   25.60    4.90
  -4  -5   1  166.28    9.60
   4  -5  -1  169.98    9.90
   4   5  -1  200.18   10.90
   3  -5  -1  101.99    7.10
  -3  -5   1  120.99    7.00
   3   5  -1  120.39    7.50
  -2  -5   1   75.49    5.10
   2  -5  -1   73.89    5.40
   2   5  -1   66.49    5.10
  -1  -5   1   37.30    3.90
  -1  -5   1   46.90    3.30
   1  -5  -1   46.90    4.80
   1   5  -1   48.80    3.70
   0  -5  -1  189.88    9.00
   0  -5   1  192.98    8.80
   0   5  -1  175.48    8.60
   1  -5   1  204.38   10.00
  -1  -5  -1  217.88   10.10
  -1  -5  -1  211.48    9.50
  -2  -5  -1  173.68    8.70
  -2  -5  -1  149.59    7.60
   2  -5   1  174.98    9.00
   2   5   1  182.98    8.60
   3  -5   1  384.26   16.90
  -3  -5  -1  374.76   16.40
   3   5   1  375.06   16.60
  -4  -5  -1   43.20    4.80
   4  -5   1   55.29    5.80
   4   5   1   55.29    6.10
  -5  -5  -1   24.30    4.00
   5  -5   1   18.90    3.80
   5   5   1   31.50    5.40
   6  -5   1   33.10    5.30
   6   5   1   21.70    5.20
   7  -5   1  356.36   18.50
   7   5   1  414.96   21.70
  -6  -6   1   63.89    6.90
   6  -6  -1   47.90    6.50
   6   6  -1   63.89    8.20
   5  -6  -1   -1.40    2.00
  -5  -6   1   -0.80    2.10
   5   6  -1    2.10    2.80
  -4  -6   1   46.50    5.40
   4  -6  -1   45.60    5.60
   4   6  -1   57.59    7.10
  -3  -6   1   20.40    3.40
   3  -6  -1   14.10    3.20
  -2  -6   1  182.88    9.70
   2  -6  -1  192.08   10.30
  -1  -6   1  292.27   13.50
   1  -6  -1  284.27   13.40
  -1  -6   1  300.37   12.50
   0  -6   1   25.10    3.30
   0  -6  -1   26.20    3.60
  -1  -6  -1  223.98   11.30
   1  -6   1  240.68   11.30
  -1  -6  -1  232.98   10.80
  -2  -6  -1   90.79    6.40
   2  -6   1  104.89    6.70
   3  -6   1  125.49    8.00
  -3  -6  -1  128.69    8.00
  -4  -6  -1   47.20    5.40
   4  -6   1   49.40    5.80
   5  -6   1  121.79    8.70
  -5  -6  -1  120.49    8.40
  -6  -6  -1   20.20    4.10
   6  -6   1   10.80    3.40
   5  -7  -1   32.90    5.70
  -5  -7   1   35.00    5.30
  -4  -7   1  248.28   13.20
   4  -7  -1  247.48   13.80
   3  -7  -1   17.30    3.80
  -3  -7   1    7.60    2.60
   2  -7  -1   49.60    5.70
  -2  -7   1   55.59    5.90
  -1  -7   1   40.60    5.10
   1  -7  -1   53.79    5.70
   0  -7   1   77.29    6.20
   0  -7  -1   87.09    6.20
   0  -7  -1   93.39    6.50
   0  -7   1   91.39    6.10
  -1  -7  -1  186.98    9.90
   1  -7   1  159.68    9.40
  -1  -7  -1  174.38    9.30
  -2  -7  -1  269.67   13.30
   2  -7   1  266.47   13.50
  -3  -7  -1   51.49    5.80
   3  -7   1   51.99    6.10
   4  -7   1  118.39    8.80
  -4  -7  -1  137.49    8.90
   5  -7   1   37.70    6.00
  -5  -7  -1   31.10    5.10
  -4  -8   1    1.00    2.40
   4  -8  -1    0.70    2.30
   3  -8  -1   78.59    8.00
  -3  -8   1   80.79    8.00
   2  -8  -1  103.69    7.90
  -2  -8   1   95.39    7.40
   1  -8  -1   50.69    5.80
  -1  -8   1   39.40    5.20
   0  -8   1   26.80    4.30
   0  -8  -1   26.20    4.20
   0  -8  -1   22.20    4.00
   1  -8   1    3.60    2.30
  -1  -8  -1   -1.40    1.70
   2  -8   1    6.10    2.60
  -2  -8  -1    6.80    2.60
  -3  -8  -1   47.60    6.00
   3  -8   1   44.70    5.90
  -4  -8  -1  122.99    9.20
   4  -8   1  130.39    9.50
   3  -9  -1   37.50    6.00
   2  -9  -1   11.50    3.90
  -2  -9   1   14.50    4.00
   1  -9  -1   88.59    8.70
  -1  -9   1   97.29    7.80
   1  -9  -1   97.29    7.60
   0  -9  -1  219.18   12.20
   0  -9   1  190.28   11.90
  -1  -9  -1  103.69    8.00
  -2  -9  -1   41.90    5.80
   2  -9   1   37.30    5.70
   3  -9   1   39.40    5.90
   8   0  -2  166.48   13.10
   7   0  -2   35.30    6.30
   6   0  -2    0.50    2.20
   5   0  -2   -0.30    2.00
   4   0  -2  139.49    8.70
   4   0  -2  142.79    6.50
   3   0  -2    9.50    1.40
   3   0  -2    9.30    2.30
   2   0  -2 1492.25   53.39
   2   0  -2 1585.34   54.79
   1   0  -2    5.20    1.00
   1   0  -2    6.50    1.70
   0   0  -2    5.80    1.60
   0   0  -2    5.80    1.20
   1   0   2   86.89    4.60
   2   0   2 2114.69   74.59
   3   0   2  149.19    8.30
   4   0   2  794.02   31.50
   5   0   2  119.09    8.50
   6   0   2   -4.30    2.20
   7   0   2  167.08   12.10
   8   0   2  128.79   11.20
   8  -1  -2   16.50    5.60
   8   1  -2   18.10    5.30
   7  -1  -2   63.19    8.30
   7   1  -2   56.39    7.70
   6  -1  -2  424.96   20.70
   5  -1  -2  535.65   20.50
   5  -1  -2  498.55   22.80
   5   1  -2  531.15   23.60
   4  -1  -2  396.46   15.40
   4  -1  -2  387.46   17.40
   4   1  -2  375.86   15.20
   3  -1  -2  564.84   21.50
   3  -1  -2  603.14   23.00
   3   1  -2  578.54   20.50
   3   1  -2  566.84   23.10
   2  -1  -2  305.97   12.20
  -2  -1   2  313.47   12.00
   2  -1  -2  311.37   12.80
   2   1  -2  323.97   11.30
   2   1  -2  319.27   13.40
   1  -1  -2 3266.17  114.19
   1  -1  -2 3386.96  114.19
  -1  -1   2 3337.47  113.59
   1   1  -2 3367.46  113.49
   1   1  -2 3199.98  114.69
   0  -1  -2 1312.87   53.09
   0  -1  -2 1605.34   52.39
   0  -1  -2 1509.95   53.19
   0   1  -2 1676.03   53.79
  -1  -1  -2 1122.99   40.40
  -1  -1  -2 1201.18   41.10
   1  -1   2 1164.28   41.40
   1   1   2 1171.38   41.40
   2  -1   2  156.68    7.80
   2   1   2  156.68    7.80
   3  -1   2  314.87   14.60
   3   1   2  356.76   15.00
   4  -1   2  323.37   15.10
   4   1   2  326.67   15.30
   5  -1   2  128.89    9.10
   5   1   2  144.29    9.40
   6  -1   2   79.19    8.50
   6   1   2   86.99    9.00
   7  -1   2  151.68   11.20
   7   1   2  146.09   11.30
   8  -1   2   -1.90    3.30
   8   1   2    0.80    3.00
   8  -2  -2    7.80    4.00
   8   2  -2   16.30    5.30
   7   2  -2  100.29   10.50
   6  -2  -2   25.80    4.70
   6  -2  -2   22.50    3.50
   6   2  -2   22.60    4.90
   5  -2  -2    4.70    2.40
   5  -2  -2    7.90    2.10
   5   2  -2    8.20    3.30
   4  -2  -2  286.17   12.20
   4  -2  -2  253.77   13.10
   4   2  -2  298.17   14.20
   3  -2  -2  114.89    6.70
   3  -2  -2  122.69    6.30
   3   2  -2  116.49    7.30
  -2  -2   2  232.18    9.80
   2  -2  -2  253.27   10.30
   2  -2  -2  246.38   10.10
   2   2  -2  230.58   10.90
   1  -2  -2  399.86   14.40
  -1  -2   2  401.26   14.60
   1  -2  -2  353.06   14.90
   1   2  -2  396.96   15.40
   0  -2  -2 1664.63   58.89
   0   2  -2 1645.14   59.19
   0   2   2 1735.13   58.29
   1  -2   2  601.64   22.00
  -1  -2  -2  584.04   21.30
  -1  -2  -2  593.64   21.70
   1   2   2  579.74   21.70
  -2  -2  -2  339.67   13.00
   2  -2   2  341.87   13.90
  -2  -2  -2  332.27   12.90
   2   2   2  314.67   13.70
  -3  -2  -2  105.29    5.50
   3  -2   2   95.89    6.20
   3   2   2   92.89    6.30
   4  -2   2  840.82   32.60
   4   2   2  818.12   32.90
   5  -2   2   30.90    4.70
   5   2   2   26.70    5.00
   6  -2   2   45.80    5.40
   6  -2   2   43.70    6.40
   6   2   2   62.49    7.80
   7  -2   2   49.60    5.80
   7  -2   2   46.70    6.80
   7   2   2   30.90    5.70
   8  -2   2  129.59   12.50
   8   2   2  107.99   11.90
   7   3  -2  280.67   16.90
   6  -3  -2  132.59    8.20
   6  -3  -2  128.19    9.50
   6   3  -2  131.09   10.20
   5  -3  -2  380.26   16.20
   5  -3  -2  359.06   17.10
   5   3  -2  352.76   17.90
   4  -3  -2  135.09    7.70
  -4  -3   2  146.19    7.80
   4  -3  -2  149.69    8.40
   4   3  -2  142.59    9.10
  -3  -3   2  160.78    8.00
   3  -3  -2  167.88    8.40
   3  -3  -2  178.58    8.20
   3   3  -2  154.58    9.10
  -2  -3   2  773.62   25.90
   2  -3  -2  670.73   26.80
   2  -3  -2  730.23   28.00
  -2  -3   2  777.72   27.60
   2   3  -2  776.32   28.70
   1  -3  -2  746.53   29.70
  -1  -3   2  839.32   29.40
   1  -3  -2  828.62   28.30
  -1  -3   2  812.72   28.60
   1   3  -2  804.02   29.90
   0  -3  -2  176.68    8.10
   0   3   2  186.88    7.00
   0   3  -2  169.68    8.10
   1  -3   2  607.74   22.60
  -1  -3  -2  622.64   22.60
  -1  -3  -2  585.64   22.40
   1   3   2  604.34   22.30
  -2  -3  -2  395.66   15.60
  -2  -3  -2  399.86   15.40
   2  -3   2  387.16   16.00
   2   3   2  405.86   16.30
  -3  -3  -2  199.18    9.30
   3  -3   2  194.88    9.90
  -3  -3  -2  199.28    8.70
   3   3   2  212.58   10.40
   4  -3   2  172.88    9.50
  -4  -3  -2  151.98    8.30
   4   3   2  167.28    9.80
   5  -3   2   30.10    5.00
   5  -3   2   40.30    4.70
   5   3   2   32.40    5.40
   6  -3   2  445.76   19.30
   6  -3   2  406.46   20.40
   6   3   2  417.36   20.80
   7  -3   2   23.90    4.40
   7  -3   2   16.90    4.40
   7   3   2   20.10    5.40
   7  -4  -2   95.49    7.60
   7   4  -2   89.39   10.10
   6  -4  -2   26.00    4.40
   6   4  -2   28.50    5.30
   5  -4  -2    1.90    2.20
  -5  -4   2    2.00    1.80
   5   4  -2   -1.50    2.00
   4  -4  -2   91.89    6.30
  -4  -4   2   83.59    5.80
   4   4  -2   88.69    7.00
   3  -4  -2  282.57   13.10
  -3  -4   2  279.67   12.60
   3   4  -2  289.57   13.70
  -2  -4   2 1073.89   39.90
   2  -4  -2 1103.19   40.50
   2   4  -2 1101.79   40.70
  -1  -4   2  832.42   29.80
   1  -4  -2  849.02   31.10
  -1  -4   2  825.82   30.60
   1   4  -2  799.32   31.00
   0  -4  -2   47.50    3.80
   0  -4   2   59.59    3.70
   0   4   2   58.99    2.50
   0   4  -2   62.09    4.20
   1  -4   2  401.46   16.00
   1  -4   2  400.46   16.40
  -1  -4  -2  424.56   16.20
  -1  -4  -2  409.06   16.10
   1   4   2  401.26   15.50
  -2  -4  -2  647.74   24.60
  -2  -4  -2  626.14   24.20
   2  -4   2  655.23   25.10
   2  -4   2  646.74   24.70
   2   4   2  651.63   24.70
   3  -4   2  186.88    9.50
   3  -4   2  180.58    9.50
  -3  -4  -2  183.78    8.40
  -3  -4  -2  194.88    9.30
   3   4   2  181.28    9.80
   4  -4   2  608.24   24.40
  -4  -4  -2  565.84   23.50
   4  -4   2  592.44   24.20
   4   4   2  589.94   25.00
   5  -4   2   40.90    5.50
   5  -4   2   57.99    5.90
   5   4   2   45.20    5.80
   6  -4   2   16.90    4.80
   6  -4   2   17.80    3.70
   6   4   2   13.10    4.20
   7  -4   2  152.08   10.20
   7   4   2  144.89   11.80
   7  -5  -2  196.48   12.10
   7   5  -2  189.18   13.80
   6  -5  -2  148.69    9.70
   6   5  -2  141.09   11.00
  -5  -5   2  251.07   12.60
   5  -5  -2  252.07   13.10
   5   5  -2  227.58   13.80
   4  -5  -2   20.90    4.00
  -4  -5   2   18.90    3.40
   4   5  -2   29.50    4.70
   3  -5  -2   55.59    5.70
  -3  -5   2   51.59    5.00
   3   5  -2   51.69    5.70
   2  -5  -2  173.28    9.10
  -2  -5   2  162.18    8.50
   2   5  -2  161.58    8.80
   1  -5  -2  226.28   10.80
  -1  -5   2  233.18   10.50
  -1  -5   2  216.68    9.40
   1   5  -2  212.38   10.40
   0  -5  -2  148.39    7.90
   0  -5   2  146.09    7.40
   0   5  -2  149.99    7.50
   1  -5   2  662.13   25.90
  -1  -5  -2  652.63   25.80
   1  -5   2  677.43   25.20
  -1  -5  -2  695.13   25.80
  -2  -5  -2   49.00    4.60
  -2  -5  -2   41.60    3.60
   2  -5   2   49.70    4.90
  -3  -5  -2   61.59    5.50
   3  -5   2   50.99    5.40
   3   5   2   60.19    5.20
   4  -5   2  223.98   12.00
  -4  -5  -2  239.98   11.70
   4   5   2  230.78   12.40
  -5  -5  -2   43.50    5.30
   5  -5   2   38.90    5.30
   5   5   2   35.10    5.60
   6  -5   2   59.19    7.00
   6   5   2   54.69    7.30
   7  -5   2   74.19    8.10
   7   5   2   67.29    8.90
  -6  -6   2    4.90    2.70
   6  -6  -2    1.70    2.40
   6   6  -2    9.30    4.20
   5  -6  -2   21.50    4.40
  -5  -6   2   16.20    3.70
   5   6  -2   12.90    4.00
  -4  -6   2  169.18    9.70
   4  -6  -2  154.18    9.90
   4   6  -2  154.08   10.20
   3  -6  -2   94.39    7.00
  -3  -6   2   90.69    6.50
   3   6  -2  100.69    7.40
  -2  -6   2  216.28   11.00
   2  -6  -2  218.08   11.40
   1  -6  -2  155.58    9.00
  -1  -6   2  151.78    8.50
   0  -6  -2    1.60    1.70
   0  -6   2    2.70    1.50
   0  -6  -2    2.60    1.90
  -1  -6  -2  112.79    6.90
   1  -6   2  114.29    7.10
  -1  -6  -2  118.49    6.90
  -2  -6  -2   74.29    5.70
  -2  -6  -2   83.09    5.40
   2  -6   2   74.19    6.00
  -3  -6  -2  254.97   12.70
   3  -6   2  257.47   13.20
   4  -6   2   67.29    7.00
  -4  -6  -2   84.09    6.60
  -5  -6  -2   25.70    4.30
   5  -6   2   34.30    5.30
  -6  -6  -2    6.00    2.90
   6  -6   2    4.60    3.40
  -5  -7   2   72.59    7.50
   5  -7  -2   69.59    7.90
  -4  -7   2   16.00    3.50
   4  -7  -2   12.50    3.60
   3  -7  -2    1.60    2.20
  -3  -7   2    3.80    2.20
  -2  -7   2  186.48   10.40
   2  -7  -2  176.98   10.60
  -1  -7   2  362.86   17.10
   1  -7  -2  392.46   17.60
   0  -7   2   20.60    3.50
   0  -7  -2   20.80    3.50
   0  -7   2   18.30    3.00
   0  -7  -2   16.60    3.30
  -1  -7  -2   88.89    6.50
  -1  -7  -2   79.29    5.90
   1  -7   2   87.39    6.30
   2  -7   2   87.19    6.70
  -2  -7  -2   90.09    6.70
  -3  -7  -2   62.49    6.50
   3  -7   2   61.29    6.80
  -4  -7  -2   21.70    4.20
   4  -7   2   13.30    3.60
  -5  -7  -2   55.89    6.90
   5  -7   2   70.49    7.70
  -4  -8   2   64.19    7.30
   4  -8  -2   65.39    7.70
  -3  -8   2   51.39    6.40
   3  -8  -2   60.09    7.20
  -2  -8   2  175.48   10.30
   2  -8  -2  156.18   10.60
  -1  -8   2   27.50    4.40
   1  -8  -2   27.70    4.60
   0  -8   2  116.29    8.20
   0  -8  -2  126.09    8.50
   0  -8  -2  121.19    8.30
   1  -8   2   68.79    6.70
  -1  -8  -2   76.39    7.30
   2  -8   2   52.29    6.20
  -2  -8  -2   79.39    7.30
   3  -8   2   24.50    4.40
  -3  -8  -2   19.60    3.90
   4  -8   2   71.59    8.00
  -4  -8  -2   64.89    7.30
  -2  -9   2    6.70    3.10
   2  -9  -2    5.20    3.10
   1  -9  -2  201.88   11.70
  -1  -9   2  215.08   12.30
   1  -9  -2  201.58   12.30
   0  -9  -2   17.20    3.90
   0  -9   2   15.80    4.00
  -1  -9  -2    7.80    3.10
  -2  -9  -2   16.30    4.00
   2  -9   2   14.30    3.70
   8   0  -3    6.30    3.90
   7   0  -3    4.00    2.90
   6   0  -3   90.09    8.10
   4   0  -3  434.66   19.40
   4   0  -3  451.25   17.00
   3   0  -3  532.65   18.90
   3   0  -3  471.75   20.70
   2   0  -3   67.59    3.60
   2   0  -3   67.39    4.70
   1   0  -3  749.13   26.90
   1   0  -3  746.63   27.90
   0   0  -3  497.55   18.40
   0   0  -3  450.25   17.50
   1   0   3  350.06   14.10
   2   0   3   23.00    3.10
   3   0   3 1033.80   39.00
   4   0   3    5.80    2.40
   5   0   3  142.19    9.80
   6   0   3   15.00    4.40
   7   0   3  232.18   15.10
   8   0   3   52.99    8.20
   8  -1  -3   82.39    9.40
   8   1  -3   79.69    9.50
   7  -1  -3  162.98   11.70
   6  -1  -3  171.88   11.50
   6   1  -3  202.08   12.50
   5  -1  -3   74.19    7.40
   5  -1  -3   56.99    4.30
   5   1  -3   61.69    6.90
   4  -1  -3  336.57   15.90
   4  -1  -3  349.07   14.30
   4   1  -3  366.06   16.60
   3  -1  -3  117.79    7.00
   3  -1  -3  119.19    5.90
   3   1  -3  105.89    7.00
   3   1  -3  107.79    4.80
  -2  -1   3  491.65   18.30
   2  -1  -3  481.85   19.50
   2  -1  -3  480.35   18.90
   2   1  -3  533.55   20.30
   2   1  -3  515.05   18.10
   1  -1  -3  589.14   22.30
   1  -1  -3  614.04   22.00
  -1  -1   3  604.54   21.00
   1   1  -3  594.24   21.40
   1   1  -3  563.44   22.70
   0  -1  -3  953.20   33.60
   0  -1  -3 1003.40   35.40
   0  -1  -3  975.30   35.00
   0   1  -3  973.90   35.70
  -1  -1  -3   42.90    2.30
   1  -1   3   46.60    3.70
  -1  -1  -3   44.00    3.10
   1   1   3   43.80    3.50
   2  -1   3  471.45   19.10
   2   1   3  474.95   19.10
   3  -1   3  411.96   17.90
   3   1   3  423.56   18.20
   4  -1   3  455.05   20.20
   4   1   3  453.35   20.20
   5  -1   3  170.78   10.80
   5   1   3  184.58   11.40
   6  -1   3   87.99    9.20
   6   1   3  110.09   10.50
   7  -1   3    3.10    3.30
   7   1   3    6.50    4.00
   8  -1   3   21.80    6.20
   8  -2  -3   33.00    6.20
   8   2  -3   20.90    6.50
   7  -2  -3  101.59   10.00
   7   2  -3   80.79    9.20
   6  -2  -3   24.50    4.60
   6   2  -3   37.40    5.80
   5  -2  -3  254.87   13.70
   5  -2  -3  279.97   12.50
   5   2  -3  284.47   14.90
   4  -2  -3  266.77   13.30
   4  -2  -3  287.77   12.40
   4   2  -3  286.77   14.30
   3  -2  -3  182.58    8.60
  -3  -2   3  172.28    8.00
   3  -2  -3  174.48    8.90
   3   2  -3  175.08    9.70
   2  -2  -3   45.10    3.50
   2  -2  -3   50.59    3.60
  -2  -2   3   42.60    2.90
   2   2  -3   45.20    4.70
  -1  -2   3   88.99    4.30
   1  -2  -3   85.49    4.90
   1  -2  -3   92.39    4.80
   1   2  -3   91.19    5.60
   0  -2  -3  272.57   10.90
   0  -2  -3  252.67    9.80
   0   2  -3  267.57   11.50
   0   2   3  247.28   10.40
  -1  -2  -3  820.92   30.50
  -1  -2  -3  829.92   29.70
   1   2   3  858.11   30.80
   2  -2   3  262.87   11.80
  -2  -2  -3  268.37   11.00
  -2  -2  -3  271.57   10.50
   2   2   3  233.28   11.50
   3  -2   3  493.15   21.20
   3   2   3  531.35   21.40
   4  -2   3   54.49    5.90
   4   2   3   42.10    5.30
   5  -2   3  221.08   12.70
   5   2   3  220.48   12.90
   6  -2   3  425.66   21.10
   6   2   3  430.26   21.40
   7  -2   3   82.79    9.50
   7  -2   3   81.09    6.90
   7   2   3   82.19    9.60
   7   3  -3   81.39    9.50
   6  -3  -3  110.99    7.40
   6   3  -3  103.69    9.30
   5  -3  -3  121.79    7.40
   5  -3  -3  116.29    8.30
   5   3  -3  128.59    9.40
   4  -3  -3   74.89    5.50
  -4  -3   3   79.09    5.30
   4  -3  -3   71.99    5.60
   4   3  -3   80.59    7.00
   3  -3  -3  328.97   14.20
  -3  -3   3  336.07   14.00
   3  -3  -3  334.07   14.50
   3   3  -3  345.47   15.80
   2  -3  -3 2053.29   73.29
   2  -3  -3 2157.68   74.49
  -2  -3   3 2081.39   73.59
   2   3  -3 2094.49   75.19
  -1  -3   3 1031.70   37.10
   1  -3  -3 1036.10   36.70
   1  -3  -3 1014.20   37.90
   1   3  -3 1047.30   38.40
   0  -3  -3  957.70   34.90
   0  -3  -3  976.60   34.00
   0   3   3  936.41   34.00
   0   3  -3  943.11   35.50
  -1  -3  -3    5.10    1.40
  -1  -3  -3    5.10    1.60
   1   3   3    5.60    1.50
   2  -3   3    6.60    1.90
  -2  -3  -3   10.30    2.00
  -2  -3  -3    5.60    1.60
   2   3   3    9.60    2.20
   3  -3   3  309.57   14.00
  -3  -3  -3  289.47   12.50
  -3  -3  -3  286.87   12.50
   3   3   3  298.87   13.90
   4  -3   3  170.98   10.10
   4   3   3  167.68   10.10
   5  -3   3  105.69    8.20
   5   3   3   98.39    8.40
   6  -3   3  211.98   12.00
   6  -3   3  219.78   13.50
   6   3   3  223.08   14.00
   7  -3   3    6.30    3.00
   7  -3   3    1.60    3.30
   7   3   3    1.40    3.50
   7  -4  -3    3.10    2.40
   7   4  -3    6.80    4.10
   6  -4  -3   54.39    6.20
   6   4  -3   44.30    7.10
   5  -4  -3  134.59    8.50
  -5  -4   3  133.29    8.20
   5   4  -3  140.49   10.20
   4  -4  -3   28.40    4.10
  -4  -4   3   42.50    4.50
   4   4  -3   34.50    5.40
  -3  -4   3  179.98    8.70
   3  -4  -3  175.28    9.20
   3   4  -3  153.28    9.70
   2  -4  -3   98.29    6.30
  -2  -4   3   99.09    5.60
   2   4  -3   86.59    6.30
  -1  -4   3  357.66   15.20
   1  -4  -3  410.66   16.20
  -1  -4   3  369.06   14.60
   1   4  -3  384.36   16.30
   0  -4  -3   16.30    2.20
   0  -4  -3   14.30    2.50
   0   4   3   18.00    2.00
   0   4  -3   13.10    2.60
   1  -4   3  130.59    6.80
  -1  -4  -3  118.79    6.60
  -1  -4  -3  124.59    6.30
   1   4   3  117.29    6.10
  -2  -4  -3  575.24   22.30
   2  -4   3  553.24   22.80
  -2  -4  -3  576.74   22.20
   2   4   3  592.44   22.70
   3  -4   3   58.89    5.20
  -3  -4  -3   65.79    4.50
  -3  -4  -3   62.19    4.60
   3   4   3   65.99    5.50
   4  -4   3  210.48   11.60
  -4  -4  -3  255.97   11.60
   4  -4   3  234.38   12.50
   4   4   3  231.48   12.60
   5  -4   3   38.40    5.20
   5  -4   3   33.20    5.40
   5   4   3   35.50    5.70
   6  -4   3  177.18   10.50
   6  -4   3  157.08   11.20
   6   4   3  145.89   11.40
   7  -4   3  104.39    8.40
   7   4   3  106.39   11.00
   7  -5  -3   43.90    5.90
   7   5  -3   47.20    7.80
   6  -5  -3   50.39    6.10
   6   5  -3   39.50    6.80
   5  -5  -3   14.10    3.40
  -5  -5   3   12.30    3.00
   5   5  -3   12.80    4.20
   4  -5  -3   70.79    6.10
  -4  -5   3   55.99    5.80
   4   5  -3   77.69    7.90
  -3  -5   3   25.70    3.70
   3  -5  -3   32.10    4.30
   3   5  -3   33.30    4.90
   2  -5  -3 1108.19   42.40
  -2  -5   3 1126.39   41.50
   2   5  -3 1125.69   42.60
  -1  -5   3   14.80    2.60
   1  -5  -3   18.00    3.20
  -1  -5   3   25.30    2.70
   1   5  -3   19.30    3.20
   0  -5  -3  266.57   11.80
   0  -5  -3  266.07   12.50
   0  -5   3  282.87   11.90
   0   5  -3  272.87   12.60
   1  -5   3   26.40    3.60
   1  -5   3   36.70    3.90
  -1  -5  -3   36.30    4.10
  -1  -5  -3   32.70    3.60
  -2  -5  -3   80.49    5.50
   2  -5   3   91.99    6.10
   2  -5   3   80.29    5.70
  -2  -5  -3   76.29    5.30
  -3  -5  -3   98.49    6.50
   3  -5   3  102.69    7.00
  -3  -5  -3   98.99    6.20
   4  -5   3   14.40    3.40
  -4  -5  -3   11.70    2.80
   4   5   3   17.10    3.90
  -5  -5  -3  499.75   21.20
   5  -5   3  475.85   21.60
   5   5   3  459.55   22.00
   6  -5   3   17.90    4.00
   6   5   3   27.70    5.70
  -6  -6   3   18.80    3.90
   6  -6  -3   24.10    4.60
   6   6  -3   25.90    5.90
   5  -6  -3   91.59    7.70
  -5  -6   3   94.19    7.40
   5   6  -3  118.49    9.40
  -4  -6   3   57.39    6.10
   4  -6  -3   76.49    7.50
   4   6  -3   55.19    6.80
  -3  -6   3  403.66   18.50
   3  -6  -3  448.76   19.80
   3   6  -3  433.06   19.50
   2  -6  -3  195.78   10.90
  -2  -6   3  195.58   10.20
   2   6  -3  191.58   10.80
  -1  -6   3   39.30    4.30
   1  -6  -3   36.00    4.50
   0  -6   3   99.99    6.40
   0  -6  -3  114.29    6.70
   0  -6  -3  120.19    7.40
  -1  -6  -3  466.75   19.70
   1  -6   3  498.55   20.00
  -1  -6  -3  462.25   19.80
   2  -6   3   72.09    5.80
  -2  -6  -3   66.39    5.20
  -2  -6  -3   65.49    5.20
  -3  -6  -3  242.58   12.20
   3  -6   3  243.48   12.70
  -4  -6  -3  274.07   14.00
   4  -6   3  297.67   14.90
   5  -6   3   13.40    3.40
  -5  -6  -3   15.60    3.80
   6  -6   3  148.49   10.60
  -5  -7   3    3.40    2.70
   5  -7  -3    8.00    3.30
  -4  -7   3    5.00    2.40
   4  -7  -3    4.70    2.80
  -3  -7   3    8.40    2.70
   3  -7  -3    2.60    2.40
   2  -7  -3  357.96   17.60
  -2  -7   3  372.96   17.00
  -1  -7   3    4.50    2.20
   1  -7  -3    6.30    2.60
   0  -7   3   71.29    5.70
   0  -7  -3   70.59    6.50
   0  -7  -3   68.09    6.70
   1  -7   3   23.10    3.70
  -1  -7  -3   40.90    4.80
  -1  -7  -3   20.20    3.80
  -2  -7  -3   11.10    3.00
   2  -7   3   15.90    3.60
   3  -7   3  249.58   13.90
  -3  -7  -3  275.57   13.60
  -4  -7  -3  149.69    9.60
   4  -7   3  148.29   10.20
  -5  -7  -3   24.40    4.60
   5  -7   3   27.00    5.10
  -4  -8   3   96.59    9.10
   4  -8  -3  105.69   10.40
   3  -8  -3   18.90    4.80
  -3  -8   3   16.10    3.90
  -2  -8   3   34.10    4.90
   2  -8  -3   46.20    6.30
   1  -8  -3   97.39    8.00
  -1  -8   3   94.09    7.40
   1  -8  -3  106.59    7.30
   0  -8   3  188.28   10.80
   0  -8  -3  195.78   10.80
   0  -8  -3  182.28   10.80
  -1  -8  -3   53.09    5.80
   2  -8   3  239.38   12.80
  -2  -8  -3  222.58   12.40
   3  -8   3   71.39    7.40
  -3  -8  -3   66.19    6.80
   4  -8   3   22.20    4.80
  -4  -8  -3   16.40    4.10
  -2  -9   3   13.90    3.90
   2  -9  -3   14.90    4.40
   1  -9  -3    2.10    2.90
  -1  -9   3    4.60    2.90
   1  -9  -3   10.40    3.20
   0  -9  -3   50.99    7.00
   0  -9  -3   39.40    5.60
   0  -9   3   54.79    6.60
   1  -9   3   10.90    3.30
  -1  -9  -3    6.70    2.90
   2  -9   3   42.90    6.30
  -2  -9  -3   53.39    6.40
   8   0  -4   97.39   10.80
   7   0  -4   53.89    7.70
   6   0  -4  556.04   25.70
   5   0  -4  203.38   12.10
   4   0  -4   -0.90    1.70
   4   0  -4   -1.50    0.90
   3   0  -4    1.70    1.10
   3   0  -4    0.20    1.50
   2   0  -4   59.79    4.80
   2   0  -4   60.19    3.70
   1   0  -4   93.29    5.90
   1   0  -4   98.19    5.00
   0   0  -4  295.97   12.60
   0   0  -4  338.37   13.80
   1   0   4    8.30    2.00
   2   0   4  335.27   14.90
   3   0   4    3.40    2.20
   4   0   4  231.88   12.80
   5   0   4  489.05   22.80
   6   0   4   12.10    4.10
   7   0   4   -2.00    2.70
   8  -1  -4   38.60    7.00
   7  -1  -4    4.60    3.70
   7   1  -4    3.50    3.60
   6  -1  -4   53.99    7.10
   6   1  -4   47.60    7.00
   5  -1  -4   63.19    6.80
   5   1  -4   39.60    5.90
   4  -1  -4  244.58   12.10
   4  -1  -4  194.88    9.80
   4   1  -4  231.18   12.40
   3  -1  -4  720.73   28.10
   3  -1  -4  734.73   26.70
   3   1  -4  698.23   25.60
   3   1  -4  685.33   28.50
   2  -1  -4  186.68    8.50
   2  -1  -4  180.78    9.30
   2   1  -4  203.08   10.00
   2   1  -4  191.08    8.00
  -1  -1   4  743.53   25.90
   1  -1  -4  728.63   27.30
   1  -1  -4  720.63   27.90
   1   1  -4  748.63   26.90
   1   1  -4  752.92   28.60
   0  -1  -4  230.18   10.60
   0  -1  -4  230.28    8.10
   0  -1  -4  228.08    9.90
   0   1  -4  221.08   10.70
  -1  -1  -4  765.12   26.80
   1  -1   4  683.43   27.30
   1   1   4  694.83   27.10
   2  -1   4  156.78    8.60
   2   1   4  147.69    8.40
   3  -1   4  267.07   13.40
   3   1   4  276.87   13.30
   4  -1   4  255.67   14.00
   4   1   4  297.57   14.60
   5  -1   4  250.57   14.60
   5   1   4  295.87   15.50
   6  -1   4   29.00    5.40
   6   1   4   24.00    5.50
   7  -1   4   42.90    7.10
   7   1   4   50.29    7.60
   7  -2  -4  121.59   10.00
   7   2  -4   98.29   10.70
   6  -2  -4   94.39    8.30
   6   2  -4   97.59   10.00
   5  -2  -4  195.58   11.80
   5  -2  -4  210.78   10.40
   5   2  -4  212.68   12.70
   4  -2  -4  208.78   10.10
   4  -2  -4  208.38   11.20
   4   2  -4  201.18   11.80
   3  -2  -4   13.50    2.80
  -3  -2   4   11.60    1.90
   3  -2  -4    8.10    2.20
   3   2  -4   14.40    3.20
   2  -2  -4  260.57   11.70
   2  -2  -4  261.67   11.50
  -2  -2   4  259.27   10.50
   2   2  -4  266.67   12.60
   1  -2  -4  100.49    5.90
  -1  -2   4  109.99    4.90
   1  -2  -4  100.79    5.90
   1   2  -4  123.49    7.10
   0  -2  -4  232.28   10.60
   0  -2  -4  252.57    9.10
   0   2  -4  226.98   11.30
  -1  -2  -4  325.37   13.40
  -1  -2  -4  295.07   11.90
   1   2   4  338.37   13.70
   2  -2   4  300.57   13.80
  -2  -2  -4  309.57   12.00
  -2  -2  -4  303.37   12.90
   2   2   4  290.57   13.60
   3  -2   4  227.58   11.80
   3   2   4  222.48   11.80
   4  -2   4   74.79    6.60
   4   2   4   63.89    6.80
   5  -2   4  106.99    8.90
   5   2   4  128.29    9.60
   6  -2   4  104.99    9.40
   6   2   4  123.19   10.20
   7  -2   4    8.50    4.40
   7   2   4    4.60    3.90
   7   3  -4   20.40    5.40
   6  -3  -4    9.50    3.00
   6   3  -4   10.60    4.40
   5  -3  -4  163.68    9.40
   5   3  -4  158.38   11.20
   4  -3  -4  121.69    7.70
   4  -3  -4  109.69    7.20
  -4  -3   4  119.99    6.80
   4   3  -4  117.19    8.80
  -3  -3   4  143.89    7.30
   3  -3  -4  156.98    8.00
   3  -3  -4  147.19    8.10
   3   3  -4  140.29    9.20
  -2  -3   4   62.69    3.90
   2  -3  -4   64.29    4.70
   2  -3  -4   58.39    4.30
   2   3  -4   57.19    5.80
   1  -3  -4   94.69    5.70
   1  -3  -4   80.89    5.00
  -1  -3   4  100.09    4.90
   1   3  -4   93.49    6.40
   0  -3  -4  223.98    9.10
   0  -3  -4  229.88   10.40
   0   3  -4  228.18   11.20
   0   3   4  210.48    9.50
  -1  -3  -4  260.87   10.30
  -1  -3  -4  245.98   11.20
   1   3   4  242.48   11.10
  -1   3  -4  243.08   12.10
  -2  -3  -4  588.84   24.80
   2  -3   4  677.73   26.00
  -2  -3  -4  672.13   24.20
   2   3   4  642.74   25.50
  -3  -3  -4  461.05   18.50
  -3  -3  -4  434.06   17.90
   3  -3   4  467.35   20.10
   3   3   4  445.16   19.70
   4  -3   4  100.09    7.70
   4   3   4   94.19    7.70
   5  -3   4   86.79    8.70
   5   3   4   91.79    9.20
   6  -3   4   24.10    5.00
   6   3   4   29.30    6.10
   7  -3   4   20.90    4.50
   7  -3   4   19.00    5.30
   7   3   4   20.30    5.90
   7   4  -4   11.90    4.60
   6  -4  -4  273.87   14.50
   6   4  -4  291.37   17.10
  -5  -4   4   95.89    6.60
   5  -4  -4   98.99    7.20
   5   4  -4   71.89    8.30
   4  -4  -4  150.88    9.10
  -4  -4   4  156.58    8.40
   4   4  -4  144.79   10.20
   3  -4  -4  345.47   15.80
  -3  -4   4  351.66   14.90
   3   4  -4  352.36   16.80
  -2  -4   4  175.98    8.40
   2  -4  -4  156.48    9.10
   2   4  -4  189.68   10.40
  -1  -4   4  133.79    6.70
   1  -4  -4  130.09    7.50
   1   4  -4  123.89    7.90
   0  -4  -4  518.25   21.90
   0  -4  -4  613.44   23.50
   0   4  -4  648.04   24.30
  -1  -4  -4  203.38    9.60
  -1  -4  -4  182.58    8.60
   1   4   4  185.88    9.00
   2  -4   4  295.47   14.00
  -2  -4  -4  306.17   13.50
  -2  -4  -4  304.57   12.90
   2   4   4  301.77   13.70
  -3  -4  -4  180.48    8.90
  -3  -4  -4  183.38    9.10
   3  -4   4  162.88   10.00
   3   4   4  178.58   10.10
   4  -4   4  329.37   16.40
  -4  -4  -4  334.27   14.90
   4   4   4  336.27   16.60
   5  -4   4  192.68   12.00
   5   4   4  172.28   11.80
   6  -4   4   60.19    7.70
   6  -4   4   74.39    7.90
   6   4   4   81.89    9.30
   7  -4   4   15.00    7.70
   7  -4   4   12.40    4.00
   7   4   4   19.60    5.60
   6  -5  -4   18.30    4.20
   6   5  -4   16.10    5.10
  -5  -5   4   85.89    6.80
   5  -5  -4  101.39    7.80
   5   5  -4   95.29    9.90
   4  -5  -4   20.30    3.90
  -4  -5   4   17.40    3.20
   4   5  -4   17.50    4.60
  -3  -5   4  782.52   30.10
   3  -5  -4  784.22   31.30
   3   5  -4  759.32   31.80
  -2  -5   4  504.15   20.80
   2  -5  -4  505.65   21.90
   2   5  -4  546.25   22.80
  -1  -5   4   41.80    4.30
   1  -5  -4   57.89    5.60
   1   5  -4   41.30    5.00
   0  -5  -4   31.10    4.10
   0  -5  -4   28.60    3.40
   0   5  -4   31.00    4.30
   1  -5   4  137.99    8.10
  -1  -5  -4  152.98    8.40
  -1  -5  -4  136.19    7.40
   2  -5   4  224.58   11.80
  -2  -5  -4  245.38   11.10
  -2  -5  -4  235.28   11.40
   3  -5   4  560.24   23.20
  -3  -5  -4  497.15   21.70
  -3  -5  -4  549.25   22.00
  -4  -5  -4   20.20    3.70
   4  -5   4   22.80    4.30
   5  -5   4   51.29    6.50
   5   5   4   66.59   10.40
   6  -5   4   16.00    4.30
   6   5   4   11.50    4.40
   6  -6  -4   39.60    6.00
  -6  -6   4   53.99    6.40
   6   6  -4   45.50    7.50
  -5  -6   4   55.69    6.00
   5  -6  -4   44.30    6.30
   5   6  -4   54.29    7.50
  -4  -6   4    9.80    2.70
   4  -6  -4   11.40    3.70
   4   6  -4    6.80    3.20
  -3  -6   4   66.69    6.20
   3  -6  -4   68.59    7.20
   3   6  -4   62.79    7.20
   2  -6  -4  417.66   18.90
  -2  -6   4  413.06   17.70
   2   6  -4  387.86   18.80
   1  -6  -4  114.39    7.80
  -1  -6   4  108.89    7.00
   1   6  -4  115.09    8.00
   0  -6   4   98.59    6.20
   0  -6  -4  102.59    7.20
   0  -6  -4  110.09    6.60
   1  -6   4  321.77   14.60
  -1  -6  -4  318.67   14.80
  -1  -6  -4  308.87   14.10
  -2  -6  -4   66.19    5.50
  -2  -6  -4   67.09    5.20
   2  -6   4   60.89    6.20
   3  -6   4  175.58   10.60
  -3  -6  -4  202.88   10.50
   4  -6   4   78.59    7.90
  -4  -6  -4   85.19    7.40
  -5  -6  -4  249.58   13.50
   5  -6   4  258.87   14.30
   5  -7  -4   22.10    5.30
  -5  -7   4   42.30    5.80
   4  -7  -4   43.30    6.10
  -4  -7   4   39.20    5.40
  -3  -7   4  205.18   11.40
   3  -7  -4  199.18   12.20
   2  -7  -4   82.29    8.10
  -2  -7   4   75.69    6.10
   1  -7  -4  125.59    7.90
  -1  -7   4  135.39    8.50
   1  -7  -4  128.39    8.90
   0  -7  -4    9.50    3.10
   0  -7  -4   12.50    2.90
   0  -7   4    6.30    2.30
   1  -7   4   17.70    3.30
  -1  -7  -4   21.70    4.00
  -1  -7  -4   13.40    2.90
  -2  -7  -4    8.60    3.10
   2  -7   4   10.80    3.20
   3  -7   4  173.48   10.80
  -3  -7  -4  167.28   10.00
  -4  -7  -4   47.80    5.90
   4  -7   4   50.39    6.50
   3  -8  -4   81.59    8.80
  -3  -8   4   70.69    7.50
  -2  -8   4    9.40    2.90
   2  -8  -4   12.10    3.70
   1  -8  -4   54.99    5.90
  -1  -8   4   43.60    5.70
   1  -8  -4   61.19    7.10
   0  -8   4  188.48   11.00
   0  -8  -4  167.58   10.80
   0  -8  -4  184.58   10.50
  -1  -8  -4   27.70    4.60
  -1  -8  -4   24.40    4.30
  -2  -8  -4   97.69    7.80
   2  -8   4  128.49    8.90
  -3  -8  -4   69.49    7.20
   3  -8   4   56.59    7.00
   0  -9  -4    2.50    2.60
   0  -9   4    2.80    2.40
   0  -9  -4    7.70    3.30
   7   0  -5   87.59   10.00
   6   0  -5   81.99    9.40
   5   0  -5  113.69    9.10
   4   0  -5   40.30    5.50
   3   0  -5  323.87   15.20
   3   0  -5  309.67   13.00
   2   0  -5    7.20    1.70
   2   0  -5    6.10    2.50
   1   0  -5  665.83   27.30
   1   0  -5  718.33   26.10
   0   0  -5  677.03   25.30
   0   0  -5  660.53   26.60
   1   0   5  160.78    8.70
   2   0   5   -1.90    1.60
   3   0   5   15.10    3.60
   4   0   5  404.06   19.30
   5   0   5   11.60    4.10
   6   0   5    4.90    3.50
   7   0   5    1.50    3.50
   7  -1  -5    9.10    3.80
   7   1  -5    4.10    3.50
   6  -1  -5   70.29    8.50
   6   1  -5   63.59    8.40
   5  -1  -5  193.18   12.00
   5   1  -5  192.58   12.20
   4  -1  -5   37.90    5.30
   4  -1  -5   50.09    4.00
   4   1  -5   55.99    6.70
   3  -1  -5    0.20    1.90
   3  -1  -5    3.70    1.60
   3   1  -5    4.80    2.30
   3   1  -5    3.30    1.20
   2  -1  -5  237.48   10.70
   2  -1  -5  256.97   12.00
   2   1  -5  235.38   10.00
   2   1  -5  230.68   12.10
  -1  -1   5  674.73   23.60
   1  -1  -5  703.63   26.70
   1  -1  -5  648.14   25.50
   1   1  -5  678.73   25.20
   1   1  -5  662.03   27.00
   0  -1  -5  249.88   12.00
   0  -1   5  254.87    9.10
   0  -1  -5  243.68   11.10
   0   1  -5  243.38   12.10
   1  -1   5  649.24   25.60
  -1  -1  -5  640.54   24.70
   1   1   5  629.24   25.20
   2  -1   5  452.55   19.40
   2   1   5  432.16   19.10
   3   1   5   75.09    6.40
   4  -1   5  230.38   13.10
   4   1   5  237.48   13.50
   5  -1   5  266.17   15.40
   5   1   5  264.37   15.20
   6  -1   5  136.09   10.90
   6   1   5  111.19   10.00
   7  -1   5  142.99   12.00
   7   1   5  154.48   12.80
   7  -2  -5  386.66   20.40
   7   2  -5  340.17   20.20
   6  -2  -5    8.60    3.60
   6   2  -5   18.00    4.90
   5  -2  -5   40.40    4.70
   5  -2  -5   34.90    5.30
   5   2  -5   34.20    5.80
   4  -2  -5  211.18   11.10
   4  -2  -5  257.17   12.80
   4   2  -5  248.28   13.70
   3  -2  -5  412.26   18.40
   3  -2  -5  424.36   17.60
   3   2  -5  430.46   19.40
   2  -2  -5  100.79    6.50
  -2  -2   5  104.29    5.00
   2  -2  -5  101.09    6.20
   2   2  -5   97.99    7.40
   1  -2  -5  605.04   24.80
  -1  -2   5  625.34   22.90
   1  -2  -5  663.13   24.80
   1   2  -5  647.44   26.00
   0  -2  -5   23.30    3.10
   0   2  -5   14.30    3.10
  -1  -2  -5  273.67   12.00
  -1  -2  -5  259.07   10.00
   1   2   5  251.77   12.10
  -2  -2  -5   94.59    6.10
   2  -2   5  110.99    7.30
   2   2   5   96.79    6.90
   3  -2   5  311.97   15.90
   3   2   5  344.47   15.90
   4  -2   5  230.48   13.00
   4   2   5  216.48   12.80
   5  -2   5   40.80    6.30
   5   2   5   39.00    6.40
   6  -2   5   18.20    5.10
   6   2   5   18.80    5.00
   7  -2   5   16.20    5.30
   7   2   5   13.60    5.10
   7   3  -5   24.50    6.20
   6   3  -5   44.20    6.90
   5  -3  -5    7.70    2.70
   5   3  -5   13.40    4.20
  -4  -3   5  291.17   13.10
   4  -3  -5  313.27   14.30
   4   3  -5  285.17   15.80
   3  -3  -5  108.09    7.00
  -3  -3   5  103.59    5.90
   3  -3  -5  108.49    7.20
   3   3  -5  134.39    8.80
   2  -3  -5  199.98   10.20
  -2  -3   5  207.38    9.00
   2  -3  -5  207.78   10.10
   2   3  -5  195.88   11.30
   1  -3  -5   23.00    3.30
   1  -3  -5   25.70    3.40
  -1  -3   5   27.80    2.70
   1   3  -5   22.20    3.80
   0  -3  -5  542.15   22.20
   0  -3  -5  555.14   20.30
   0   3  -5  546.75   23.20
   0   3   5  556.94   21.50
  -1  -3  -5   17.50    2.90
  -1  -3  -5   20.10    2.20
  -1   3  -5   22.00    3.80
   1   3   5   17.60    3.00
  -2  -3  -5  402.66   17.10
   2  -3   5  412.36   18.10
  -2  -3  -5  412.76   15.70
   2   3   5  372.56   17.50
  -3  -3  -5  152.88    8.60
   3  -3   5  159.48    9.80
   3   3   5  156.48    9.80
   4  -3   5  105.79    8.60
   4   3   5  106.29    8.30
   5  -3   5  146.29   11.10
   5   3   5  153.48   10.90
   6  -3   5  145.69   11.40
   6   3   5  138.19   11.50
   6  -4  -5   93.19    7.50
   6   4  -5   85.49   10.10
   5  -4  -5   40.90    5.30
   5   4  -5   45.20    7.00
   4  -4  -5   43.00    5.40
  -4  -4   5   38.10    4.20
   4   4  -5   48.20    6.50
  -3  -4   5  582.54   22.80
   3  -4  -5  590.64   24.30
   3   4  -5  565.54   25.60
  -2  -4   5  109.99    6.10
   2  -4  -5   99.99    7.00
   2   4  -5  108.79    8.00
  -1  -4   5  114.49    6.20
   1  -4  -5  119.49    7.30
   1   4  -5  110.19    8.00
   0  -4  -5  231.48   11.30
   0  -4  -5  218.98    9.60
   0   4  -5  225.98   12.00
  -1  -4  -5  136.29    6.80
  -1  -4  -5  138.79    8.10
  -2  -4  -5  117.59    7.30
  -2  -4  -5  109.09    6.20
   2  -4   5  109.39    7.60
   2   4   5  105.99    7.20
  -3  -4  -5   84.79    5.70
   3  -4   5   89.79    7.40
  -3  -4  -5   91.29    6.20
   3   4   5   92.29    7.20
   4  -4   5  389.26   19.20
   4   4   5  397.56   19.20
   5  -4   5  111.49    9.50
   5   4   5  112.09    9.60
   6  -4   5    5.80    3.90
   6   4   5    2.90    3.80
   6  -5  -5   76.89    8.10
   6   5  -5   93.69   10.40
   5  -5  -5   56.69    6.60
  -5  -5   5   56.29    6.10
   5   5  -5   60.69    8.10
   4  -5  -5    5.80    2.60
  -4  -5   5    3.60    2.20
   4   5  -5    4.90    3.10
  -3  -5   5  280.17   13.60
   3  -5  -5  318.97   15.40
   3   5  -5  316.87   16.40
   2  -5  -5   22.40    4.00
  -2  -5   5   20.60    3.00
   2   5  -5   11.50    3.50
  -1  -5   5  120.09    6.80
   1  -5  -5  121.89    7.80
   1   5  -5  112.39    8.30
   0  -5  -5   23.00    3.80
   0  -5  -5   20.70    3.20
   0  -5   5   18.60    2.80
   0   5  -5   16.50    3.50
  -1  -5  -5  215.38    9.80
  -1  -5  -5  189.88   10.70
   1  -5   5  210.08   11.20
  -2  -5  -5  267.27   13.20
  -2  -5  -5  286.47   12.50
   2  -5   5  257.77   13.70
  -3  -5  -5  113.19    7.50
   3  -5   5  109.69    8.40
  -3  -5  -5  121.29    7.20
   4  -5   5  113.39    9.00
  -4  -5  -5  121.59    7.70
   5  -5   5   37.80    5.70
   6  -5   5   55.89   10.60
   5  -6  -5   23.20    4.80
  -5  -6   5   23.00    4.20
   5   6  -5   22.70    5.40
   4  -6  -5    6.10    2.90
  -4  -6   5    5.00    2.40
   4   6  -5    4.40    3.50
  -3  -6   5  178.58   10.00
   3  -6  -5  193.28   11.30
   3   6  -5  164.58   11.60
   2  -6  -5   26.50    4.70
  -2  -6   5   40.40    4.70
   2   6  -5   39.60    5.80
   1  -6  -5  154.28    9.70
  -1  -6   5  175.58    9.20
   1   6  -5  156.78   10.30
   0  -6   5   72.39    5.60
   0  -6  -5   87.59    6.70
   0   6  -5   75.79    7.60
  -1  -6  -5  106.09    7.30
   1  -6   5   99.99    7.00
  -2  -6  -5   78.59    6.10
   2  -6   5   80.79    6.70
  -2  -6  -5   80.99    6.50
  -3  -6  -5  193.48   10.10
   3  -6   5  152.68   10.30
   4  -6   5  125.59    9.00
  -4  -6  -5  112.29    8.00
   5  -6   5   61.69    7.50
  -4  -7   5  317.87   15.80
   4  -7  -5  313.17   17.20
   3  -7  -5  106.59    9.00
  -3  -7   5  139.29    8.70
   2  -7  -5   51.99    6.50
  -2  -7   5   43.10    5.20
   1  -7  -5    1.90    2.10
  -1  -7   5    3.90    2.30
   0  -7  -5  234.38   13.10
   0  -7   5  248.48   12.40
  -1  -7  -5   48.90    6.10
   1  -7   5   58.99    6.50
   2  -7   5  258.17   14.00
  -2  -7  -5  286.97   14.20
   3  -7   5   20.90    4.30
   4  -7   5   29.40    5.10
  -3  -8   5   17.60    4.00
   2  -8  -5   58.79    7.30
  -2  -8   5   66.99    6.90
  -1  -8   5   31.50    4.70
   1  -8  -5   30.40    5.40
   0  -8  -5   20.40    4.30
   0  -8   5   25.10    4.40
  -1  -8  -5   11.70    3.50
   2  -8   5   78.09    7.90
   7   0  -6   15.40    4.70
   6   0  -6    3.10    3.60
   5   0  -6  122.29    9.70
   4   0  -6  993.30   40.00
   3   0  -6   31.70    5.10
   3   0  -6   37.40    3.80
   2   0  -6  605.34   23.30
   2   0  -6  596.54   25.30
   1   0  -6   79.99    6.50
   1   0  -6   81.89    5.20
   0   0  -6  282.87   13.10
   0   0  -6  325.27   15.00
   1   0   6  252.07   12.60
   2   0   6  385.76   17.90
   3   0   6  159.28   10.40
   4   0   6  346.17   17.90
   5   0   6   11.10    4.20
   6   0   6    7.90    4.10
   7  -1  -6   64.29    8.90
   7   1  -6   68.19    9.30
   6  -1  -6   47.10    7.00
   6   1  -6   42.60    7.10
   5  -1  -6  135.99    9.80
   5   1  -6  131.49   10.20
   4  -1  -6    1.20    1.50
   4  -1  -6    6.50    2.80
   4   1  -6    3.60    2.70
   3  -1  -6  145.19    7.90
   3  -1  -6  152.18    9.50
   3   1  -6  142.59    9.70
   2  -1  -6   59.69    4.50
   2  -1  -6   68.39    5.90
   2   1  -6   60.69    4.20
   2   1  -6   61.59    6.70
   1  -1  -6  188.38    9.40
   1  -1  -6  184.48   10.40
   1   1  -6  206.38    9.30
   1   1  -6  185.18   10.80
   0  -1  -6  120.79    8.20
   0  -1  -6  125.39    7.20
   0   1  -6  139.99    8.60
   1  -1   6   33.00    4.60
  -1  -1  -6   32.40    4.00
   1   1   6   30.10    4.20
   2  -1   6  241.78   12.90
   2   1   6  253.77   13.00
   3  -1   6   37.10    5.70
   3   1   6   39.00    5.60
   4  -1   6  436.46   20.70
   4   1   6  390.26   19.90
   5  -1   6  129.39   10.70
   5   1   6  133.29   10.70
   6  -1   6  109.99   11.70
   6   1   6  106.69   11.20
   7   2  -6   17.00    5.20
   6  -2  -6   25.00    5.40
   6   2  -6   29.50    6.20
   5  -2  -6   19.90    4.40
   5   2  -6   26.10    5.40
   4  -2  -6  701.13   27.70
   4  -2  -6  626.24   25.50
   4   2  -6  583.04   27.60
   3  -2  -6   89.69    6.10
   3  -2  -6   77.49    6.60
   3   2  -6   91.49    7.70
   2  -2  -6  226.18   11.40
   2  -2  -6  201.08   10.40
   2   2  -6  201.98   11.90
   1  -2  -6  203.38   10.30
   1  -2  -6  221.78   11.10
   1   2  -6  201.18   11.50
   0  -2  -6  241.48   11.60
   0   2  -6  243.78   13.00
  -1  -2  -6   50.89    5.10
   1   2   6   48.80    5.20
  -2  -2  -6  139.69    8.20
   2  -2   6  153.78    9.40
   2   2   6  146.49    9.20
   3  -2   6  876.31   35.70
   3   2   6  869.91   35.50
   4  -2   6   28.30    5.50
   4   2   6   21.40    4.60
   5  -2   6   28.70    5.80
   5   2   6   32.90    6.00
   6  -2   6   15.90    5.40
   6   2   6    8.80    4.10
   6   3  -6  137.79   11.60
   5  -3  -6   26.30    4.30
   5   3  -6   31.20    5.90
   4  -3  -6  210.58   11.50
   4   3  -6  241.88   14.00
   3  -3  -6   10.80    2.90
   3   3  -6   16.40    4.10
   2  -3  -6  405.86   17.60
   2  -3  -6  389.76   17.50
   2   3  -6  409.06   19.30
   1  -3  -6   21.00    3.50
   1  -3  -6   33.30    4.20
   1   3  -6   14.10    3.50
   0  -3  -6  310.07   14.80
   0   3   6  346.17   14.60
   0   3  -6  323.47   16.20
  -1  -3  -6  265.07   12.80
   1   3   6  264.87   12.80
  -2  -3  -6   86.39    6.10
   2  -3   6   81.79    7.00
   2   3   6   81.49    6.70
  -3  -3  -6  316.57   15.40
   3  -3   6  325.17   16.80
   3   3   6  354.36   16.90
   4  -3   6  194.98   12.60
   4   3   6  191.78   12.30
   5  -3   6  110.59    9.90
   5   3   6  108.29    9.70
   6  -3   6   86.89   10.30
   6   3   6   79.59    9.90
   6  -4  -6   18.50    4.20
   6   4  -6   17.50    5.50
   5  -4  -6   -0.20    2.20
   5   4  -6    3.20    3.00
   4  -4  -6  114.09    8.00
   4   4  -6  111.29   10.90
   3  -4  -6   39.90    5.20
   3   4  -6   43.90    6.50
   2  -4  -6  209.48   11.30
   2   4  -6  203.68   12.50
   1  -4  -6   19.60    3.60
   1   4  -6   26.90    4.90
   0  -4  -6   26.30    4.00
   0   4  -6   17.40    4.10
  -1  -4  -6  165.98    9.50
  -2  -4  -6  581.04   24.50
   2  -4   6  575.04   25.30
   2   4   6  602.54   26.10
  -3  -4  -6    6.00    2.60
   3  -4   6   11.00    3.70
   3   4   6   11.80    3.60
   4  -4   6   90.79    9.50
   4   4   6  112.19    9.20
   5  -4   6   14.30    4.60
   5   4   6    7.10    3.70
   6  -4   6   15.30    5.00
   6   4   6   15.30    5.00
   5  -5  -6  124.49    9.20
   5   5  -6  137.99   11.20
   4  -5  -6   11.90    3.60
   4   5  -6   15.70    4.70
   3  -5  -6   -0.80    1.90
   3   5  -6   -0.90    2.40
   2  -5  -6   83.99    7.00
   2   5  -6   92.89    8.20
   1  -5  -6  368.16   17.70
   1   5  -6  399.26   19.10
   0  -5  -6   55.99    6.20
   0   5  -6   58.39    7.00
   1  -5   6  335.87   16.30
  -1  -5  -6  318.27   15.60
  -2  -5  -6    4.30    2.40
   2  -5   6    0.90    2.20
  -3  -5  -6    3.80    2.40
   3  -5   6   12.90    3.80
   4  -5   6   44.90    6.80
   5  -6  -6   36.20    6.00
   5   6  -6   38.60    7.60
   4  -6  -6   44.10    6.50
   4   6  -6   40.20    6.80
   3  -6  -6  108.69    8.50
   3   6  -6  103.79    9.40
   2  -6  -6   37.20    5.50
   2   6  -6   38.90    6.40
   1  -6  -6   21.10    4.10
   1   6  -6   21.80    4.80
   0  -6  -6   28.00    4.60
   0   6  -6   21.90    5.00
   1  -6   6   97.69   10.80
  -1  -6  -6  100.99    7.70
  -2  -6  -6  128.29    8.70
  -3  -6  -6   57.89    6.40
   4  -6   6   33.40    5.50
   3  -7  -6   20.40    4.60
   2  -7  -6   18.40    4.30
   1  -7  -6   69.49    7.60
   0  -7  -6   68.99    7.50
  -1  -7  -6   99.09    8.00
  -2  -7  -6    6.70    3.10
   2  -7   6    4.30    2.90
   3  -7   6   18.50    4.00
   1  -8  -6    4.60    3.30
   0  -8  -6   30.80    5.40
  -1  -8  -6    8.00    3.50
   6   0  -7    6.50    3.80
   5   0  -7  475.85   23.50
   4   0  -7  139.89   10.50
   3   0  -7   18.80    4.40
   3   0  -7   19.00    3.00
   2   0  -7   32.40    5.30
   2   0  -7   37.70    4.20
   1   0  -7  510.15   20.60
   1   0  -7  493.95   22.50
   0   0  -7   61.39    7.20
   0   0  -7   67.89    5.20
   1   0   7  627.54   26.50
   2   0   7  687.13   29.20
   3   0   7  103.19    8.80
   4   0   7    5.40    3.20
   5   0   7   19.10    4.90
   6   0   7  134.59   12.00
   6  -1  -7   44.00    7.00
   6   1  -7   33.80    6.30
   5  -1  -7  140.69   11.10
   5   1  -7  161.38   11.60
   4  -1  -7   37.00    6.20
   4  -1  -7   24.60    5.20
   4   1  -7   30.60    5.80
   3  -1  -7  165.38    9.00
   3  -1  -7  155.98   10.50
   3   1  -7  167.28   11.20
   2  -1  -7  145.29    8.50
   2  -1  -7  156.38   10.00
   2   1  -7  163.88    8.30
   2   1  -7  164.18   10.50
   1  -1  -7  146.89    8.30
   1  -1  -7  155.48    9.50
   1   1  -7  140.19    9.70
   0  -1  -7  101.39    7.90
   0  -1  -7   98.29    6.70
   0   1  -7  117.69    8.40
   1  -1   7  144.49    9.20
  -1  -1  -7  139.99    8.20
   1   1   7  131.99    8.60
   2  -1   7  328.37   16.30
   2   1   7  303.77   15.90
   3  -1   7  291.27   15.60
   3   1   7  273.57   15.40
   4  -1   7   73.39    8.40
   4   1   7   77.29    8.50
   5  -1   7   41.80    6.90
   5   1   7   52.09    7.70
   6  -1   7   15.20    5.20
   6   1   7   22.20    5.90
   6   2  -7   41.90    7.10
   5  -2  -7  409.76   20.90
   5   2  -7  414.76   21.80
   4  -2  -7    0.10    2.00
   4  -2  -7    4.40    2.90
   4   2  -7   -1.30    2.60
   3  -2  -7  145.19    8.50
   3  -2  -7  127.49    9.10
   3   2  -7  132.79   10.20
   2  -2  -7  176.18    9.50
   2  -2  -7  159.18   10.20
   2   2  -7  175.68   11.20
   1  -2  -7   40.40    4.70
   1  -2  -7   43.90    5.60
   1   2  -7   46.90    6.50
   0  -2  -7  415.36   18.30
   0   2   7  409.96   18.40
   0   2  -7  419.66   19.90
   1  -2   7  646.24   27.40
   1   2   7  645.54   26.80
  -2  -2  -7    1.20    2.00
   2  -2   7    1.90    2.40
   2   2   7   -0.60    2.20
   3  -2   7  181.68   12.20
   3   2   7  228.38   13.00
   4  -2   7   37.40    6.50
   4   2   7   35.10    5.90
   5  -2   7   57.29    8.10
   5   2   7   45.40    7.40
   6  -2   7   44.50    7.60
   6   2   7   51.99    8.20
   6   3  -7   11.70    4.50
   5  -3  -7   -1.00    2.10
   5   3  -7   -1.80    2.80
   4  -3  -7   36.00    4.90
   4   3  -7   34.40    6.10
   3  -3  -7   71.09    6.20
   3   3  -7   74.79    8.50
   2  -3  -7  198.78   11.20
   2   3  -7  225.98   13.30
   1  -3  -7   85.99    6.50
   1  -3  -7   84.29    6.70
   1   3  -7   82.89    8.50
   0  -3  -7   72.49    6.00
   0   3   7   80.09    6.00
   0   3  -7   77.39    8.20
  -1  -3  -7  106.09    7.40
   1  -3   7  109.29    8.30
   1   3   7  112.69    7.80
   2  -3   7   -2.50    2.20
  -2  -3  -7   -1.30    1.90
   2   3   7   -1.00    2.20
   3  -3   7  328.57   17.60
   3   3   7  347.87   17.40
   4  -3   7   74.99    8.80
   4   3   7   85.59    9.30
   5  -3   7   67.89    8.70
   5   3   7   71.19    9.30
   5  -4  -7  137.89    9.50
   5   4  -7  114.59   12.10
   4  -4  -7   80.79    8.00
   4   4  -7   77.49    9.30
   3  -4  -7  106.99    8.00
   3   4  -7  107.59   10.70
   2  -4  -7    2.30    2.10
   2   4  -7    7.40    3.30
   1  -4  -7  223.98   12.20
   1   4  -7  212.98   13.40
   0  -4  -7   15.40    3.60
   0   4  -7   14.00    4.20
  -1  -4  -7  164.18   10.10
   1  -4   7  184.08   11.30
  -2  -4  -7  145.99    9.40
   2  -4   7  166.98   10.80
   3  -4   7   -0.90    2.50
  -3  -4  -7    0.60    2.00
   4  -4   7    5.00    3.80
   4   4   7    4.70    3.40
   5  -4   7   13.50    4.80
   5   4   7   19.70    5.50
   5  -5  -7    7.70    3.60
   5   5  -7   10.10    5.00
   4  -5  -7   28.80    5.00
   4   5  -7   34.50    6.60
   3  -5  -7   77.49    8.00
   3   5  -7   78.29    9.30
   2  -5  -7   84.19    8.10
   2   5  -7   72.09    8.30
   1  -5  -7  114.59    8.20
   1   5  -7  103.99    9.20
   0  -5  -7   55.99    6.40
   0   5  -7   61.29    7.70
  -1  -5  -7    6.30    3.10
   1  -5   7    5.70    3.10
  -2  -5  -7   88.09    7.30
   2  -5   7   98.09    8.30
  -3  -5  -7   82.99    8.10
   3  -5   7   92.79    9.60
   4  -5   7   85.29    9.70
   4  -6  -7   56.79    7.40
   4   6  -7   55.09    8.50
   3  -6  -7   65.79    7.70
   3   6  -7   51.69    7.40
   2  -6  -7   38.60    5.60
   2   6  -7   19.00    5.10
   1  -6  -7   12.80    3.50
   1   6  -7   17.40    4.60
   0  -6  -7   37.20    5.50
   0   6  -7   33.70    6.30
   1  -6   7  122.99    9.60
  -1  -6  -7  136.69    9.50
  -2  -6  -7   31.10    5.20
  -3  -6  -7   65.49    7.10
   2  -7  -7  114.19    9.40
   1  -7  -7    7.90    3.50
   0  -7  -7   73.49    8.00
  -1  -7  -7    6.40    3.30
   2  -7   7   10.90    3.60
  -2  -7  -7    9.90    3.70
   6   0  -8  111.89   12.10
   5   0  -8    1.00    3.00
   4   0  -8   64.99    8.10
   3   0  -8   34.10    5.70
   3   0  -8   35.20    6.50
   2   0  -8    2.70    2.90
   2   0  -8    1.80    1.80
   1   0  -8  230.08   11.30
   1   0  -8  197.28   12.50
   0   0  -8  266.87   15.10
   1   0   8  344.77   17.20
   2   0   8  131.39   10.00
   3   0   8  201.18   13.20
   4   0   8  130.89   11.00
   5   0   8  124.39   11.20
   6  -1  -8  120.29   12.20
   6   1  -8  116.49   12.70
   5  -1  -8  219.18   14.50
   5   1  -8  208.28   14.50
   4  -1  -8  148.69   11.00
   4   1  -8  130.09   11.10
   3  -1  -8  184.38   12.20
   3  -1  -8  190.08   10.30
   3   1  -8  189.18   12.50
   2  -1  -8  130.89    8.20
   2  -1  -8  128.79    9.50
   2   1  -8  132.09   10.10
   1  -1  -8  159.58   10.60
   1  -1  -8  155.78    9.00
   1   1  -8  150.28   10.60
   0  -1  -8  116.29    7.60
   0   1  -8  105.09    9.10
   1  -1   8   75.49    8.00
  -1  -1  -8   80.59    6.40
   1   1   8   80.09    6.90
   2  -1   8  463.15   22.60
   2   1   8  501.35   22.90
   3  -1   8  121.09    9.60
   3   1   8   98.89    9.00
   4  -1   8   58.49    8.00
   4   1   8   58.19    7.90
   5  -1   8   33.90    6.70
   5   1   8   41.70    7.30
   5   2  -8   -2.10    3.10
   4  -2  -8   53.19    7.20
   4  -2  -8   42.40    5.30
   4   2  -8   43.20    7.20
   3  -2  -8    4.40    3.10
   3  -2  -8    3.10    2.50
   3   2  -8    0.90    3.10
   2  -2  -8  186.68   11.90
   2  -2  -8  214.88   11.30
   2   2  -8  197.78   12.80
   1  -2  -8   -0.40    2.40
   1  -2  -8    4.00    2.20
   1   2  -8    8.70    3.70
   0  -2  -8  588.34   24.50
   0   2  -8  573.04   26.50
   0   2   8  571.04   24.80
  -1  -2  -8   33.40    4.80
   1  -2   8   25.60    5.00
   1   2   8   29.70    4.80
   2  -2   8   70.49    8.00
   2   2   8   85.99    8.80
   3  -2   8    7.30    3.80
   3   2   8    4.80    3.40
   4  -2   8   78.79    9.80
   4   2   8   69.99    8.70
   5  -2   8  202.98   14.40
   5   2   8  188.88   14.20
   5   3  -8   47.90    8.00
   4  -3  -8   72.19    7.20
   4   3  -8   62.59    8.70
   3  -3  -8  221.68   12.50
   3   3  -8  232.08   14.70
   2  -3  -8  149.39    9.40
   2   3  -8  139.99   11.00
   1  -3  -8   26.40    4.60
   1   3  -8   16.70    4.60
   0  -3  -8   80.59    6.90
   0   3   8   82.89    6.70
   0   3  -8   91.49    9.70
  -1  -3  -8   11.20    3.20
   1  -3   8    7.90    3.30
   1   3   8    4.00    2.80
  -2  -3  -8   73.89    7.50
   2  -3   8   60.29    7.50
   2   3   8   86.49    7.70
   3  -3   8  105.69   10.80
   3   3   8  125.69    9.80
   4  -3   8   38.40    6.90
   4   3   8   42.40    7.20
   5  -3   8    2.40    4.30
   5   3   8    2.50    3.60
   4  -4  -8   17.20    4.10
   4   4  -8   23.70    6.10
   3  -4  -8   96.89    7.80
   3   4  -8   78.79    9.30
   2  -4  -8   15.10    4.00
   2   4  -8   15.40    4.70
   1  -4  -8  182.88   11.00
   1   4  -8  155.48   11.80
   0  -4  -8  203.08   11.90
   0   4  -8  210.08   13.80
  -1  -4  -8   56.29    6.50
   1  -4   8   52.49    7.10
  -2  -4  -8   42.30    5.80
   2  -4   8   61.09    7.70
   3  -4   8  111.99    9.90
  -3  -4  -8  109.39    8.50
   4  -4   8   35.80    7.00
   4  -5  -8   70.29    7.80
   4   5  -8   83.59   10.50
   3  -5  -8  112.09    8.90
   3   5  -8  117.09   12.00
   2  -5  -8   35.60    5.40
   2   5  -8   32.60    6.20
   1  -5  -8   10.40    3.60
   1   5  -8    7.70    4.10
   0  -5  -8   22.10    4.50
   0   5  -8   19.30    5.50
   1  -5   8    0.50    2.80
  -1  -5  -8    2.30    2.50
  -2  -5  -8  165.38   10.70
   2  -5   8  172.28   12.10
   3  -5   8   59.79    8.30
  -3  -5  -8   41.60    6.00
   2  -6  -8   26.70    5.10
   2   6  -8   19.10    5.90
   1  -6  -8   13.70    4.00
   1   6  -8   12.40    4.50
   0  -6  -8  125.19    9.60
   0   6  -8  117.09   11.90
  -1  -6  -8   49.40    6.60
   1  -6   8   66.59    8.10
   2  -6   8   28.80    6.30
  -2  -6  -8   44.70    6.40
   5   0  -9   19.80    5.70
   4   0  -9   12.60    4.40
   3   0  -9   52.99    7.60
   2   0  -9    0.10    2.00
   2   0  -9   -0.30    3.10
   1   0  -9  564.54   24.30
   1   0  -9  595.74   27.10
   1   0   9   -0.60    1.90
   2   0   9    1.90    2.60
   3   0   9   72.39    8.90
   4   0   9   73.79    9.90
   5  -1  -9   92.29   10.70
   5   1  -9   69.79    9.50
   4  -1  -9  122.99   10.80
   4   1  -9  129.19   11.30
   3  -1  -9  115.99    8.20
   3  -1  -9  123.59   10.20
   3   1  -9  117.09   10.20
   2  -1  -9  128.49   10.20
   2  -1  -9  144.09    8.90
   2   1  -9  153.68   11.60
   1  -1  -9  102.09    9.10
   1  -1  -9   90.89    7.00
   1   1  -9  105.09   10.40
   0  -1  -9  161.98    9.90
   0   1  -9  160.58   11.90
   0   1   9  155.08   10.60
   1  -1   9  138.29   10.20
   1   1   9  152.48   10.60
   2  -1   9  169.68   12.00
   2   1   9  185.98   12.40
   3  -1   9   29.90    6.10
   3   1   9   20.00    5.30
   4  -1   9   12.50    4.70
   4   1   9   16.80    5.60
   4   2  -9    5.90    3.80
   3  -2  -9   32.50    4.90
   3  -2  -9   29.10    5.80
   3   2  -9   38.20    7.10
   2  -2  -9   51.89    6.20
   2  -2  -9   55.59    7.50
   2   2  -9   82.49    9.70
   1  -2  -9  163.68   10.20
   1  -2  -9  182.18   11.90
   1   2  -9  149.59   11.60
   0  -2  -9   47.20    5.90
   0   2  -9   53.89    7.90
   0   2   9   41.30    5.90
   1  -2   9   39.10    6.10
  -1  -2  -9   46.40    6.00
   1   2   9   47.40    6.30
   2  -2   9  161.28   11.90
   2   2   9  169.78   11.80
   3  -2   9   24.00    5.20
   3   2   9   19.80    5.30
   4  -2   9   56.09    8.60
   4   2   9   60.29    8.50
   4  -3  -9   92.99    7.80
   4   3  -9   66.39    9.10
   3  -3  -9   43.40    5.90
   3   3  -9   33.20    6.50
   2  -3  -9   11.70    3.40
   2   3  -9   18.10    4.90
   1  -3  -9   50.59    6.20
   1   3  -9   45.90    7.40
   0  -3  -9   38.90    5.50
   0   3  -9   37.50    6.50
  -1  -3  -9  337.57   17.00
   1  -3   9  346.87   18.50
   1   3   9  319.17   18.30
   2  -3   9   78.29    8.90
  -2  -3  -9   63.19    7.30
   2   3   9   62.99    8.00
   3  -3   9   31.80    6.00
   3   3   9   28.60    5.70
   4  -3   9   21.10    6.80
   4   3   9   17.90    5.50
   3  -4  -9   47.00    6.60
   3   4  -9   42.50    7.40
   2  -4  -9   35.30    5.60
   2   4  -9   29.70    6.80
   1  -4  -9  150.08   10.40
   1   4  -9  170.58   12.60
   0  -4  -9   12.70    3.70
   0   4  -9    9.20    4.00
  -1  -4  -9  100.49    8.20
   1  -4   9   80.49    9.10
  -2  -4  -9   62.09    7.20
   2  -4   9   65.49    8.40
   3  -4   9   73.39    9.40
   2  -5  -9   11.00    3.90
   2   5  -9    6.00    4.40
   1  -5  -9    7.60    3.20
   1   5  -9   12.70    4.60
   0  -5  -9   39.30    6.20
   0   5  -9   45.00    7.80
  -1  -5  -9  117.79    9.20
   1  -5   9  111.09   10.00
   2  -5   9   73.59    9.00
  -2  -5  -9   73.49    8.30
   4   0 -10  129.09   13.30
   3   0 -10   13.70    4.90
   2   0 -10  171.08   12.60
   2   0 -10  160.58   10.10
   1   0 -10    1.70    3.80
   0   0  10   85.69    9.40
   1   0  10   93.19   10.10
   2   0  10    3.30    3.30
   3   0  10   44.00    7.40
   3  -1 -10   84.79    9.90
   3   1 -10   84.69   10.80
   2  -1 -10   26.40    4.60
   2  -1 -10   29.20    6.00
   2   1 -10   28.00    6.20
   1  -1 -10   69.59    7.40
   1  -1 -10   67.79    8.70
   1   1 -10   85.99   10.50
   0   1  10   62.09    7.80
   1  -1  10   88.79    9.40
   1   1  10   91.99    9.60
   2  -1  10    5.10    4.00
   2   1  10    3.60    3.60
   3  -1  10   12.50    5.10
   3   1  10   15.50    5.10
   3  -2 -10   85.29    8.40
   3   2 -10   85.79   10.90
   2  -2 -10  159.38   10.50
   2   2 -10  160.88   12.60
   1  -2 -10   26.50    4.80
   1   2 -10   31.50    6.40
   0  -2 -10   39.30    5.80
   0   2  10   50.79    7.00
   1  -2  10   91.69    9.80
   1   2  10   96.69   10.10
   2  -2  10   35.30    6.60
   2   2  10   41.40    6.70
   3   2  10   23.80    6.10
   2  -3 -10   41.60    6.00
   2   3 -10   44.70    7.40
   1  -3 -10  129.99    9.70
   1   3 -10  144.19   14.10
   0  -3 -10   65.29    7.60
  -1  -3 -10   55.49    7.00
   1  -3  10   52.19    7.70
   2  -3  10    1.90    3.60
   1  -4 -10   -0.20    2.90
   1   4 -10    2.40    3.90
   0  -4 -10   80.69    9.60
   1  -4  10   88.19    9.90
   1   0 -11   10.60    5.20
   0   0  11    8.20    4.30
   1   0  11   21.00    5.40
   1  -1 -11   43.00    6.20
   1   1 -11   45.80    9.10
   0  -1  11   17.90    5.70
   0   1  11   18.20    5.20
   0   0   0    0.00    0.00

_computing_structure_solution     'SHELXT 2014/5 (Sheldrick, 2014)'
;
_shelx_hkl_checksum              92882
loop_
_space_group_symop_operation_xyz
'x, y, z'
'-x, y+1/2, -z'
loop_
_atom_site_type_symbol
_atom_site_label
_atom_site_fract_x
_atom_site_fract_y
_atom_site_fract_z
_atom_site_U_iso_or_equiv
_atom_site_adp_type
_atom_site_calc_flag
_atom_site_refinement_flags_adp
_atom_site_refinement_flags_occupancy
_atom_site_refinement_flags_posn
_atom_site_occupancy
_atom_site_disorder_assembly
_atom_site_disorder_group
Cl Cl1 0.08626(10) 0.42860(10) 0.13108(8) 0.01835(18) Uani d . . . 1 . .
N N1 0.3826(4) 0.6391(4) 0.0445(3) 0.0164(5) Uani d . . . 1 . .
O O1 0.3128(4) 0.7002(3) -0.0803(3) 0.0214(5) Uani d . . . 1 . .
C C1 0.3163(4) 0.5265(4) 0.1495(3) 0.0136(6) Uani d . . . 1 . .
O O2 0.5819(4) 0.6965(3) 0.0962(3) 0.0181(5) Uani d . . . 1 . .
N N2 0.6292(4) 0.6130(3) 0.2390(3) 0.0162(5) Uani d . . . 1 . .
C C2 0.4716(4) 0.5136(4) 0.2682(3) 0.0130(6) Uani d . . . 1 . .
C C3 0.6270(4) 0.4035(4) 0.4979(3) 0.0144(6) Uani d . . . 1 . .
O O3 0.4525(3) 0.4115(3) 0.3942(2) 0.0157(4) Uani d . . . 1 . .
C C4 0.7970(5) 0.3093(4) 0.4533(4) 0.0156(6) Uani d . . . 1 . .
H H4 0.800463 0.253225 0.354027 0.019 Uiso calc U . R 1 . .
C C5 0.9629(5) 0.2994(4) 0.5590(3) 0.0163(6) Uani d . . . 1 . .
H H5 1.082769 0.237394 0.531227 0.02 Uiso calc U . R 1 . .
C C6 0.9541(5) 0.3798(4) 0.7048(3) 0.0172(7) Uani d . . . 1 . .
H H6 1.068072 0.373447 0.776143 0.021 Uiso calc U . R 1 . .
C C7 0.7790(5) 0.4690(4) 0.7461(3) 0.0177(7) Uani d . . . 1 . .
H H7 0.772941 0.522318 0.846375 0.021 Uiso calc U . R 1 . .
C C8 0.6126(5) 0.4812(4) 0.6427(3) 0.0155(7) Uani d . . . 1 . .
H H8 0.491803 0.541612 0.670952 0.019 Uiso calc U . R 1 . .
loop_
_atom_site_aniso_label
_atom_site_aniso_U_11
_atom_site_aniso_U_22
_atom_site_aniso_U_33
_atom_site_aniso_U_12
_atom_site_aniso_U_13
_atom_site_aniso_U_23
Cl1 0.0130(3) 0.0236(4) 0.0183(3) -0.0024(3) -0.0022(2) 0.0007(3)
N1 0.0163(13) 0.0192(13) 0.0136(12) 0.0010(10) -0.0004(10) 0.0002(10)
O1 0.0236(12) 0.0278(13) 0.0124(11) 0.0028(9) -0.0033(9) 0.0058(9)
C1 0.0118(14) 0.0152(14) 0.0136(14) -0.0001(12) -0.0003(11) 0.0003(11)
O2 0.0169(12) 0.0216(12) 0.0157(11) -0.0026(9) 0.0003(9) 0.0043(9)
N2 0.0179(13) 0.0179(13) 0.0125(12) 0.0007(10) -0.0010(10) 0.0020(10)
C2 0.0142(15) 0.0123(14) 0.0126(13) 0.0009(11) -0.0003(11) -0.0004(11)
C3 0.0138(13) 0.0136(15) 0.0156(13) -0.0020(12) -0.0032(11) 0.0030(13)
O3 0.0134(9) 0.0199(11) 0.0137(9) -0.0029(10) -0.0024(7) 0.0049(10)
C4 0.0166(16) 0.0162(14) 0.0141(14) -0.0009(12) 0.0011(12) -0.0002(12)
C5 0.0153(15) 0.0165(15) 0.0171(15) 0.0016(12) -0.0007(12) 0.0029(12)
C6 0.0167(14) 0.0175(17) 0.0169(14) -0.0006(11) -0.0051(12) 0.0010(11)
C7 0.0258(17) 0.0134(17) 0.0137(14) 0.0000(11) -0.0019(12) -0.0007(11)
C8 0.0178(16) 0.0116(14) 0.0174(15) 0.0027(11) 0.0034(13) 0.0026(11)
loop_
_atom_type_symbol
_atom_type_description
_atom_type_scat_dispersion_real
_atom_type_scat_dispersion_imag
_atom_type_scat_source
C C 0.0033 0.0016 'International Tables Vol C Tables 4.2.6.8 and 6.1.1.4'
Cl Cl 0.1484 0.1585 'International Tables Vol C Tables 4.2.6.8 and 6.1.1.4'
N N 0.0061 0.0033 'International Tables Vol C Tables 4.2.6.8 and 6.1.1.4'
O O 0.0106 0.0060 'International Tables Vol C Tables 4.2.6.8 and 6.1.1.4'
H H 0.0000 0.0000 'International Tables Vol C Tables 4.2.6.8 and 6.1.1.4'
loop_
_geom_angle_atom_site_label_1
_geom_angle_atom_site_label_2
_geom_angle_atom_site_label_3
_geom_angle_site_symmetry_1
_geom_angle_site_symmetry_3
_geom_angle
_geom_angle_publ_flag
O1 N1 C1 . . 134.9(3) ?
O1 N1 O2 . . 117.7(2) ?
C1 N1 O2 . . 107.4(2) ?
N1 C1 C2 . . 106.8(3) ?
N1 C1 Cl1 . . 122.1(2) ?
C2 C1 Cl1 . . 131.2(2) ?
N2 O2 N1 . . 108.0(2) ?
C2 N2 O2 . . 105.7(2) ?
N2 C2 O3 . . 125.4(3) ?
N2 C2 C1 . . 112.2(3) ?
O3 C2 C1 . . 122.4(3) ?
C8 C3 C4 . . 123.0(3) ?
C8 C3 O3 . . 117.8(3) ?
C4 C3 O3 . . 119.1(2) ?
C2 O3 C3 . . 115.7(2) ?
C3 C4 C5 . . 117.8(3) ?
C3 C4 H4 . . 121.1 ?
C5 C4 H4 . . 121.1 ?
C6 C5 C4 . . 120.4(3) ?
C6 C5 H5 . . 119.8 ?
C4 C5 H5 . . 119.8 ?
C7 C6 C5 . . 119.9(3) ?
C7 C6 H6 . . 120.0 ?
C5 C6 H6 . . 120.0 ?
C8 C7 C6 . . 120.7(3) ?
C8 C7 H7 . . 119.6 ?
C6 C7 H7 . . 119.6 ?
C3 C8 C7 . . 118.1(3) ?
C3 C8 H8 . . 120.9 ?
C7 C8 H8 . . 120.9 ?
loop_
_geom_bond_atom_site_label_1
_geom_bond_atom_site_label_2
_geom_bond_site_symmetry_2
_geom_bond_distance
_geom_bond_publ_flag
Cl1 C1 . 1.679(3) ?
N1 O1 . 1.236(3) ?
N1 C1 . 1.317(4) ?
N1 O2 . 1.431(3) ?
C1 C2 . 1.418(4) ?
O2 N2 . 1.399(3) ?
N2 C2 . 1.304(4) ?
C2 O3 . 1.331(3) ?
C3 C8 . 1.377(4) ?
C3 C4 . 1.384(4) ?
C3 O3 . 1.425(3) ?
C4 C5 . 1.393(4) ?
C4 H4 . 0.95 ?
C5 C6 . 1.390(4) ?
C5 H5 . 0.95 ?
C6 C7 . 1.384(4) ?
C6 H6 . 0.95 ?
C7 C8 . 1.384(4) ?
C7 H7 . 0.95 ?
C8 H8 . 0.95 ?
