#------------------------------------------------------------------------------
#$Date: 2016-03-21 07:02:50 +0200 (Mon, 21 Mar 2016) $
#$Revision: 178546 $
#$URL: svn://www.crystallography.net/cod/cif/4/06/53/4065319.cif $
#------------------------------------------------------------------------------
#
# This file is available in the Crystallography Open Database (COD),
# http://www.crystallography.net/
#
# All data on this site have been placed in the public domain by the
# contributors.
#
data_4065319
loop_
_publ_author_name
'Holzhacker, Christian'
'Standfest-Hauser, Christina M.'
'Puchberger, Michael'
'Mereiter, Kurt'
'Veiros, Luis F.'
'Calhorda, Maria Jos\'e'
'Carvalho, Maria Deus'
'Ferreira, Liliana P.'
'Godinho, Margarida'
'Hartl, Franti\<sek'
'Kirchner, Karl'
_publ_section_title
;
 Reversible Addition of CO to Coordinatively Unsaturated High-Spin
 Iron(II) Complexes
;
_journal_issue                   24
_journal_name_full               Organometallics
_journal_page_first              6587
_journal_paper_doi               10.1021/om200711q
_journal_volume                  30
_journal_year                    2011
_chemical_formula_moiety         'C11 H19 Br2 Fe N2 P S'
_chemical_formula_sum            'C11 H19 Br2 Fe N2 P S'
_chemical_formula_weight         457.98
_chemical_name_common            '1563 FeBr2(SPN-iPr) at 100K'
_chemical_name_systematic
; 
 ? 
;
_space_group_IT_number           2
_symmetry_cell_setting           triclinic
_symmetry_space_group_name_Hall  '-P 1'
_symmetry_space_group_name_H-M   'P -1'
_atom_sites_solution_hydrogens   geom
_atom_sites_solution_primary     direct
_atom_sites_solution_secondary   difmap
_audit_creation_method           SHELXL-97
_cell_angle_alpha                86.5390(10)
_cell_angle_beta                 70.2550(10)
_cell_angle_gamma                81.9050(10)
_cell_formula_units_Z            2
_cell_length_a                   8.5734(2)
_cell_length_b                   10.1255(2)
_cell_length_c                   10.3010(3)
_cell_measurement_reflns_used    6891
_cell_measurement_temperature    100(2)
_cell_measurement_theta_max      30.00
_cell_measurement_theta_min      2.54
_cell_volume                     833.19(4)
_computing_cell_refinement       'Bruker SAINT'
_computing_data_collection       'Bruker APEX2'
_computing_data_reduction        'Bruker SAINT, SADABS, XPREP'
_computing_molecular_graphics    'Bruker SHELXTL'
_computing_publication_material  'Bruker SHELXTL'
_computing_structure_refinement  'SHELXL-97 (Sheldrick, 2008)'
_computing_structure_solution    'SHELXS-97 (Sheldrick, 2008)'
_diffrn_ambient_temperature      100(2)
_diffrn_measured_fraction_theta_full 0.995
_diffrn_measured_fraction_theta_max 0.995
_diffrn_measurement_device_type  'Bruker Kappa APEX-II CCD'
_diffrn_measurement_method       '\f and \w scans'
_diffrn_radiation_monochromator  graphite
_diffrn_radiation_source         'fine-focus sealed tube'
_diffrn_radiation_type           MoK\a
_diffrn_radiation_wavelength     0.71073
_diffrn_reflns_av_R_equivalents  0.0264
_diffrn_reflns_av_sigmaI/netI    0.0285
_diffrn_reflns_limit_h_max       12
_diffrn_reflns_limit_h_min       -12
_diffrn_reflns_limit_k_max       14
_diffrn_reflns_limit_k_min       -14
_diffrn_reflns_limit_l_max       12
_diffrn_reflns_limit_l_min       -14
_diffrn_reflns_number            14890
_diffrn_reflns_theta_full        30.00
_diffrn_reflns_theta_max         30.00
_diffrn_reflns_theta_min         2.03
_exptl_absorpt_coefficient_mu    5.907
_exptl_absorpt_correction_T_max  0.56
_exptl_absorpt_correction_T_min  0.34
_exptl_absorpt_correction_type   multi-scan
_exptl_absorpt_process_details   'program SADABS'
_exptl_crystal_colour            colourless
_exptl_crystal_density_diffrn    1.826
_exptl_crystal_density_method    'not measured'
_exptl_crystal_description       block
_exptl_crystal_F_000             452
_exptl_crystal_size_max          0.21
_exptl_crystal_size_mid          0.14
_exptl_crystal_size_min          0.11
_refine_diff_density_max         1.184
_refine_diff_density_min         -0.399
_refine_diff_density_rms         0.129
_refine_ls_extinction_method     none
_refine_ls_goodness_of_fit_ref   1.034
_refine_ls_hydrogen_treatment    mixed
_refine_ls_matrix_type           full
_refine_ls_number_parameters     170
_refine_ls_number_reflns         4836
_refine_ls_number_restraints     0
_refine_ls_restrained_S_all      1.034
_refine_ls_R_factor_all          0.0369
_refine_ls_R_factor_gt           0.0281
_refine_ls_shift/su_max          0.000
_refine_ls_shift/su_mean         0.000
_refine_ls_structure_factor_coef Fsqd
_refine_ls_weighting_details
'calc w=1/[\s^2^(Fo^2^)+(0.0461P)^2^+0.0000P] where P=(Fo^2^+2Fc^2^)/3'
_refine_ls_weighting_scheme      calc
_refine_ls_wR_factor_gt          0.0688
_refine_ls_wR_factor_ref         0.0731
_reflns_number_gt                4092
_reflns_number_total             4836
_reflns_threshold_expression     >2sigma(I)
_cod_data_source_file            om200711q_si_001.cif
_cod_data_source_block           8b-1563
_cod_depositor_comments
;
The following automatic conversions were performed:

'_symmetry_cell_setting' value 'Triclinic' changed to 'triclinic'
according to /home/saulius/struct/CIF-dictionaries/cif_core.dic
dictionary named 'cif_core.dic' version 2.4.1 from 2010-06-29.

Automatic conversion script
Id: cif_fix_values 1715 2011-07-08 13:25:40Z adriana 
;
_cod_original_sg_symbol_H-M      P-1
_cod_database_code               4065319
loop_
_symmetry_equiv_pos_as_xyz
'x, y, z'
'-x, -y, -z'
loop_
_atom_site_label
_atom_site_type_symbol
_atom_site_fract_x
_atom_site_fract_y
_atom_site_fract_z
_atom_site_U_iso_or_equiv
_atom_site_adp_type
_atom_site_occupancy
_atom_site_symmetry_multiplicity
_atom_site_calc_flag
_atom_site_refinement_flags
Fe1 Fe 0.04519(4) 0.24575(3) 0.14125(3) 0.01568(7) Uani 1 1 d .
Br1 Br -0.21759(3) 0.16488(2) 0.27116(2) 0.02209(7) Uani 1 1 d .
Br2 Br 0.10356(3) 0.28398(2) -0.10067(2) 0.02241(7) Uani 1 1 d .
S1 S 0.10369(7) 0.42228(5) 0.25070(6) 0.01897(11) Uani 1 1 d .
P1 P 0.27822(6) 0.32453(5) 0.32108(5) 0.01355(10) Uani 1 1 d .
N1 N 0.2183(2) 0.08114(16) 0.16177(17) 0.0146(3) Uani 1 1 d .
N2 N 0.4029(2) 0.20189(16) 0.21806(18) 0.0147(3) Uani 1 1 d .
H2N H 0.493(3) 0.200(3) 0.218(3) 0.018 Uiso 1 1 d .
C1 C 0.3630(2) 0.08167(18) 0.18561(19) 0.0128(3) Uani 1 1 d .
C2 C 0.4783(3) -0.03359(19) 0.1744(2) 0.0159(4) Uani 1 1 d .
H2 H 0.5806 -0.0301 0.1903 0.019 Uiso 1 1 calc R
C3 C 0.4410(3) -0.1518(2) 0.1402(2) 0.0176(4) Uani 1 1 d .
H3 H 0.5178 -0.2309 0.1317 0.021 Uiso 1 1 calc R
C4 C 0.2897(3) -0.1549(2) 0.1179(2) 0.0185(4) Uani 1 1 d .
H4 H 0.2609 -0.2356 0.0953 0.022 Uiso 1 1 calc R
C5 C 0.1837(3) -0.0377(2) 0.1295(2) 0.0167(4) Uani 1 1 d .
H5 H 0.0807 -0.0395 0.1143 0.020 Uiso 1 1 calc R
C6 C 0.1940(3) 0.2549(2) 0.4946(2) 0.0188(4) Uani 1 1 d .
H6 H 0.1422 0.3312 0.5589 0.023 Uiso 1 1 calc R
C7 C 0.0579(3) 0.1673(2) 0.5073(2) 0.0255(5) Uani 1 1 d .
H7A H 0.1077 0.0862 0.4535 0.038 Uiso 1 1 calc R
H7B H -0.0267 0.2166 0.4721 0.038 Uiso 1 1 calc R
H7C H 0.0054 0.1431 0.6044 0.038 Uiso 1 1 calc R
C8 C 0.3333(3) 0.1769(2) 0.5406(2) 0.0269(5) Uani 1 1 d .
H8A H 0.2862 0.1458 0.6361 0.040 Uiso 1 1 calc R
H8B H 0.4178 0.2351 0.5345 0.040 Uiso 1 1 calc R
H8C H 0.3851 0.1001 0.4806 0.040 Uiso 1 1 calc R
C9 C 0.4279(3) 0.43512(19) 0.3224(2) 0.0168(4) Uani 1 1 d .
H9 H 0.5087 0.3850 0.3642 0.020 Uiso 1 1 calc R
C10 C 0.5268(3) 0.4786(2) 0.1762(2) 0.0233(4) Uani 1 1 d .
H10A H 0.4500 0.5283 0.1332 0.035 Uiso 1 1 calc R
H10B H 0.5857 0.3997 0.1215 0.035 Uiso 1 1 calc R
H10C H 0.6082 0.5358 0.1805 0.035 Uiso 1 1 calc R
C11 C 0.3372(3) 0.5559(2) 0.4130(3) 0.0257(5) Uani 1 1 d .
H11A H 0.4181 0.6158 0.4119 0.039 Uiso 1 1 calc R
H11B H 0.2834 0.5255 0.5078 0.039 Uiso 1 1 calc R
H11C H 0.2524 0.6036 0.3771 0.039 Uiso 1 1 calc R
loop_
_atom_site_aniso_label
_atom_site_aniso_U_11
_atom_site_aniso_U_22
_atom_site_aniso_U_33
_atom_site_aniso_U_23
_atom_site_aniso_U_13
_atom_site_aniso_U_12
Fe1 0.01552(14) 0.01291(13) 0.01928(15) 0.00085(11) -0.00762(11) 0.00009(10)
Br1 0.01493(10) 0.02040(11) 0.03107(13) 0.00191(9) -0.00829(9) -0.00207(8)
Br2 0.02551(12) 0.02295(11) 0.02112(11) 0.00389(8) -0.01138(9) -0.00344(8)
S1 0.0216(2) 0.0120(2) 0.0257(3) -0.00133(19) -0.0126(2) 0.00266(18)
P1 0.0161(2) 0.0094(2) 0.0152(2) 0.00053(17) -0.00581(19) -0.00051(17)
N1 0.0150(8) 0.0117(7) 0.0163(8) -0.0006(6) -0.0047(6) -0.0002(6)
N2 0.0128(7) 0.0118(7) 0.0196(9) -0.0016(6) -0.0057(7) -0.0004(6)
C1 0.0155(8) 0.0108(8) 0.0109(8) 0.0017(6) -0.0036(7) -0.0012(7)
C2 0.0178(9) 0.0121(8) 0.0175(10) 0.0024(7) -0.0067(8) 0.0007(7)
C3 0.0207(10) 0.0122(9) 0.0184(10) 0.0027(7) -0.0060(8) 0.0006(7)
C4 0.0210(10) 0.0123(9) 0.0213(10) -0.0003(7) -0.0051(8) -0.0041(7)
C5 0.0175(9) 0.0150(9) 0.0180(10) -0.0002(7) -0.0057(8) -0.0038(7)
C6 0.0228(10) 0.0158(9) 0.0156(10) 0.0003(7) -0.0042(8) -0.0011(8)
C7 0.0274(11) 0.0274(11) 0.0204(11) 0.0039(9) -0.0047(9) -0.0093(9)
C8 0.0294(12) 0.0296(12) 0.0241(12) 0.0113(9) -0.0129(10) -0.0063(10)
C9 0.0202(10) 0.0119(8) 0.0195(10) -0.0003(7) -0.0084(8) -0.0019(7)
C10 0.0303(12) 0.0142(9) 0.0252(11) 0.0043(8) -0.0080(9) -0.0075(8)
C11 0.0331(12) 0.0160(10) 0.0297(12) -0.0058(9) -0.0117(10) -0.0029(9)
loop_
_atom_type_symbol
_atom_type_description
_atom_type_scat_dispersion_real
_atom_type_scat_dispersion_imag
_atom_type_scat_source
C C 0.0033 0.0016 'International Tables Vol C Tables 4.2.6.8 and 6.1.1.4'
H H 0.0000 0.0000 'International Tables Vol C Tables 4.2.6.8 and 6.1.1.4'
N N 0.0061 0.0033 'International Tables Vol C Tables 4.2.6.8 and 6.1.1.4'
P P 0.1023 0.0942 'International Tables Vol C Tables 4.2.6.8 and 6.1.1.4'
S S 0.1246 0.1234 'International Tables Vol C Tables 4.2.6.8 and 6.1.1.4'
Fe Fe 0.3463 0.8444 'International Tables Vol C Tables 4.2.6.8 and 6.1.1.4'
Br Br -0.2901 2.4595 'International Tables Vol C Tables 4.2.6.8 and 6.1.1.4'
loop_
_geom_angle_atom_site_label_1
_geom_angle_atom_site_label_2
_geom_angle_atom_site_label_3
_geom_angle
N1 Fe1 S1 104.19(5)
N1 Fe1 Br2 106.32(5)
S1 Fe1 Br2 112.776(19)
N1 Fe1 Br1 100.91(5)
S1 Fe1 Br1 113.105(19)
Br2 Fe1 Br1 117.567(14)
P1 S1 Fe1 99.88(2)
N2 P1 C9 101.62(9)
N2 P1 C6 108.16(9)
C9 P1 C6 108.24(10)
N2 P1 S1 114.36(7)
C9 P1 S1 110.09(7)
C6 P1 S1 113.57(7)
C1 N1 C5 117.56(16)
C1 N1 Fe1 128.66(13)
C5 N1 Fe1 113.26(13)
C1 N2 P1 129.08(14)
C1 N2 H2N 115.0(19)
P1 N2 H2N 110.0(19)
N1 C1 N2 119.05(16)
N1 C1 C2 122.22(17)
N2 C1 C2 118.70(17)
C3 C2 C1 118.96(19)
C3 C2 H2 120.5
C1 C2 H2 120.5
C2 C3 C4 119.62(18)
C2 C3 H3 120.2
C4 C3 H3 120.2
C5 C4 C3 118.07(18)
C5 C4 H4 121.0
C3 C4 H4 121.0
N1 C5 C4 123.55(19)
N1 C5 H5 118.2
C4 C5 H5 118.2
C7 C6 C8 110.42(18)
C7 C6 P1 112.51(15)
C8 C6 P1 111.03(15)
C7 C6 H6 107.5
C8 C6 H6 107.5
P1 C6 H6 107.5
C6 C7 H7A 109.5
C6 C7 H7B 109.5
H7A C7 H7B 109.5
C6 C7 H7C 109.5
H7A C7 H7C 109.5
H7B C7 H7C 109.5
C6 C8 H8A 109.5
C6 C8 H8B 109.5
H8A C8 H8B 109.5
C6 C8 H8C 109.5
H8A C8 H8C 109.5
H8B C8 H8C 109.5
C10 C9 C11 111.27(17)
C10 C9 P1 111.57(14)
C11 C9 P1 109.85(15)
C10 C9 H9 108.0
C11 C9 H9 108.0
P1 C9 H9 108.0
C9 C10 H10A 109.5
C9 C10 H10B 109.5
H10A C10 H10B 109.5
C9 C10 H10C 109.5
H10A C10 H10C 109.5
H10B C10 H10C 109.5
C9 C11 H11A 109.5
C9 C11 H11B 109.5
H11A C11 H11B 109.5
C9 C11 H11C 109.5
H11A C11 H11C 109.5
H11B C11 H11C 109.5
loop_
_geom_bond_atom_site_label_1
_geom_bond_atom_site_label_2
_geom_bond_distance
Fe1 N1 2.1211(16)
Fe1 S1 2.3654(6)
Fe1 Br2 2.3887(4)
Fe1 Br1 2.4264(4)
S1 P1 1.9934(7)
P1 N2 1.6822(17)
P1 C9 1.822(2)
P1 C6 1.826(2)
N1 C1 1.344(2)
N1 C5 1.364(3)
N2 C1 1.398(2)
N2 H2N 0.77(3)
C1 C2 1.403(3)
C2 C3 1.377(3)
C2 H2 0.9500
C3 C4 1.396(3)
C3 H3 0.9500
C4 C5 1.374(3)
C4 H4 0.9500
C5 H5 0.9500
C6 C7 1.530(3)
C6 C8 1.531(3)
C6 H6 1.0000
C7 H7A 0.9800
C7 H7B 0.9800
C7 H7C 0.9800
C8 H8A 0.9800
C8 H8B 0.9800
C8 H8C 0.9800
C9 C10 1.530(3)
C9 C11 1.533(3)
C9 H9 1.0000
C10 H10A 0.9800
C10 H10B 0.9800
C10 H10C 0.9800
C11 H11A 0.9800
C11 H11B 0.9800
C11 H11C 0.9800
loop_
_geom_hbond_atom_site_label_D
_geom_hbond_atom_site_label_H
_geom_hbond_atom_site_label_A
_geom_hbond_distance_DH
_geom_hbond_distance_HA
_geom_hbond_distance_DA
_geom_hbond_angle_DHA
_geom_hbond_site_symmetry_A
N2 H2N Br1 0.77(3) 2.69(3) 3.4440(17) 167(2) 1_655
loop_
_geom_torsion_atom_site_label_1
_geom_torsion_atom_site_label_2
_geom_torsion_atom_site_label_3
_geom_torsion_atom_site_label_4
_geom_torsion
N1 Fe1 S1 P1 -3.94(6)
Br2 Fe1 S1 P1 -118.81(3)
Br1 Fe1 S1 P1 104.73(3)
Fe1 S1 P1 N2 34.25(7)
Fe1 S1 P1 C9 147.89(7)
Fe1 S1 P1 C6 -90.56(8)
S1 Fe1 N1 C1 -20.86(17)
Br2 Fe1 N1 C1 98.49(16)
Br1 Fe1 N1 C1 -138.31(16)
S1 Fe1 N1 C5 167.67(13)
Br2 Fe1 N1 C5 -72.98(14)
Br1 Fe1 N1 C5 50.22(14)
C9 P1 N2 C1 174.39(17)
C6 P1 N2 C1 60.58(19)
S1 P1 N2 C1 -67.05(18)
C5 N1 C1 N2 179.60(17)
Fe1 N1 C1 N2 8.4(3)
C5 N1 C1 C2 1.8(3)
Fe1 N1 C1 C2 -169.32(15)
P1 N2 C1 N1 40.9(3)
P1 N2 C1 C2 -141.25(17)
N1 C1 C2 C3 -1.1(3)
N2 C1 C2 C3 -178.89(18)
C1 C2 C3 C4 -0.3(3)
C2 C3 C4 C5 0.8(3)
C1 N1 C5 C4 -1.3(3)
Fe1 N1 C5 C4 171.24(17)
C3 C4 C5 N1 -0.1(3)
N2 P1 C6 C7 -74.47(17)
C9 P1 C6 C7 176.18(15)
S1 P1 C6 C7 53.60(17)
N2 P1 C6 C8 49.86(17)
C9 P1 C6 C8 -59.48(17)
S1 P1 C6 C8 177.94(13)
N2 P1 C9 C10 56.25(16)
C6 P1 C9 C10 170.00(14)
S1 P1 C9 C10 -65.32(15)
N2 P1 C9 C11 -179.87(15)
C6 P1 C9 C11 -66.11(17)
S1 P1 C9 C11 58.56(16)
