#------------------------------------------------------------------------------
#$Date: 2016-03-21 07:02:50 +0200 (Mon, 21 Mar 2016) $
#$Revision: 178546 $
#$URL: svn://www.crystallography.net/cod/cif/4/06/53/4065318.cif $
#------------------------------------------------------------------------------
#
# This file is available in the Crystallography Open Database (COD),
# http://www.crystallography.net/
#
# All data on this site have been placed in the public domain by the
# contributors.
#
data_4065318
loop_
_publ_author_name
'Holzhacker, Christian'
'Standfest-Hauser, Christina M.'
'Puchberger, Michael'
'Mereiter, Kurt'
'Veiros, Luis F.'
'Calhorda, Maria Jos\'e'
'Carvalho, Maria Deus'
'Ferreira, Liliana P.'
'Godinho, Margarida'
'Hartl, Franti\<sek'
'Kirchner, Karl'
_publ_section_title
;
 Reversible Addition of CO to Coordinatively Unsaturated High-Spin
 Iron(II) Complexes
;
_journal_issue                   24
_journal_name_full               Organometallics
_journal_page_first              6587
_journal_paper_doi               10.1021/om200711q
_journal_volume                  30
_journal_year                    2011
_chemical_formula_moiety         'C11 H19 Cl2 Fe N2 P S'
_chemical_formula_sum            'C11 H19 Cl2 Fe N2 P S'
_chemical_formula_weight         369.06
_chemical_name_common            '1562 FeCl2(SPN-iPr) at 100K'
_chemical_name_systematic
; 
 ? 
;
_space_group_IT_number           2
_symmetry_cell_setting           triclinic
_symmetry_space_group_name_Hall  '-P 1'
_symmetry_space_group_name_H-M   'P -1'
_atom_sites_solution_hydrogens   geom
_atom_sites_solution_primary     direct
_atom_sites_solution_secondary   difmap
_audit_creation_method           SHELXL-97
_cell_angle_alpha                85.6410(10)
_cell_angle_beta                 69.4840(10)
_cell_angle_gamma                82.1800(10)
_cell_formula_units_Z            2
_cell_length_a                   8.26740(10)
_cell_length_b                   10.12950(10)
_cell_length_c                   10.34200(10)
_cell_measurement_reflns_used    5255
_cell_measurement_temperature    100(2)
_cell_measurement_theta_max      30.00
_cell_measurement_theta_min      2.65
_cell_volume                     803.237(16)
_computing_cell_refinement       'Bruker SAINT'
_computing_data_collection       'Bruker APEX2'
_computing_data_reduction        'Bruker SAINT, SADABS, XPREP'
_computing_molecular_graphics    'Bruker SHELXTL'
_computing_publication_material  'Bruker SHELXTL'
_computing_structure_refinement  'SHELXL-97 (Sheldrick, 2008)'
_computing_structure_solution    'SHELXS-97 (Sheldrick, 2008)'
_diffrn_ambient_temperature      100(2)
_diffrn_measured_fraction_theta_full 0.996
_diffrn_measured_fraction_theta_max 0.996
_diffrn_measurement_device_type  'Bruker Kappa APEX-II CCD'
_diffrn_measurement_method       '\f and \w scans'
_diffrn_radiation_monochromator  graphite
_diffrn_radiation_source         'fine-focus sealed tube'
_diffrn_radiation_type           MoK\a
_diffrn_radiation_wavelength     0.71073
_diffrn_reflns_av_R_equivalents  0.0178
_diffrn_reflns_av_sigmaI/netI    0.0162
_diffrn_reflns_limit_h_max       11
_diffrn_reflns_limit_h_min       -11
_diffrn_reflns_limit_k_max       13
_diffrn_reflns_limit_k_min       -14
_diffrn_reflns_limit_l_max       14
_diffrn_reflns_limit_l_min       -14
_diffrn_reflns_number            15136
_diffrn_reflns_theta_full        30.00
_diffrn_reflns_theta_max         30.00
_diffrn_reflns_theta_min         2.03
_exptl_absorpt_coefficient_mu    1.485
_exptl_absorpt_correction_T_max  0.75
_exptl_absorpt_correction_T_min  0.53
_exptl_absorpt_correction_type   multi-scan
_exptl_absorpt_process_details   'program SADABS'
_exptl_crystal_colour            colourless
_exptl_crystal_density_diffrn    1.526
_exptl_crystal_density_method    'not measured'
_exptl_crystal_description       prism
_exptl_crystal_F_000             380
_exptl_crystal_size_max          0.42
_exptl_crystal_size_mid          0.34
_exptl_crystal_size_min          0.21
_refine_diff_density_max         0.688
_refine_diff_density_min         -0.200
_refine_diff_density_rms         0.071
_refine_ls_extinction_method     none
_refine_ls_goodness_of_fit_ref   1.070
_refine_ls_hydrogen_treatment    mixed
_refine_ls_matrix_type           full
_refine_ls_number_parameters     170
_refine_ls_number_reflns         4671
_refine_ls_number_restraints     0
_refine_ls_restrained_S_all      1.070
_refine_ls_R_factor_all          0.0249
_refine_ls_R_factor_gt           0.0235
_refine_ls_shift/su_max          0.000
_refine_ls_shift/su_mean         0.000
_refine_ls_structure_factor_coef Fsqd
_refine_ls_weighting_details
'calc w=1/[\s^2^(Fo^2^)+(0.0400P)^2^+0.1817P] where P=(Fo^2^+2Fc^2^)/3'
_refine_ls_weighting_scheme      calc
_refine_ls_wR_factor_gt          0.0643
_refine_ls_wR_factor_ref         0.0651
_reflns_number_gt                4398
_reflns_number_total             4671
_reflns_threshold_expression     >2sigma(I)
_cod_data_source_file            om200711q_si_001.cif
_cod_data_source_block           8a-1562
_cod_depositor_comments
;
The following automatic conversions were performed:

'_symmetry_cell_setting' value 'Triclinic' changed to 'triclinic'
according to /home/saulius/struct/CIF-dictionaries/cif_core.dic
dictionary named 'cif_core.dic' version 2.4.1 from 2010-06-29.

Automatic conversion script
Id: cif_fix_values 1715 2011-07-08 13:25:40Z adriana 
;
_cod_original_cell_volume        803.237(15)
_cod_original_sg_symbol_H-M      P-1
_cod_database_code               4065318
loop_
_symmetry_equiv_pos_as_xyz
'x, y, z'
'-x, -y, -z'
loop_
_atom_site_label
_atom_site_type_symbol
_atom_site_fract_x
_atom_site_fract_y
_atom_site_fract_z
_atom_site_U_iso_or_equiv
_atom_site_adp_type
_atom_site_occupancy
_atom_site_symmetry_multiplicity
_atom_site_calc_flag
_atom_site_refinement_flags
Fe1 Fe 0.036808(19) 0.243635(16) 0.139385(16) 0.01686(5) Uani 1 1 d .
Cl1 Cl -0.21998(3) 0.16526(3) 0.26898(3) 0.02400(7) Uani 1 1 d .
Cl2 Cl 0.09682(4) 0.27508(3) -0.08981(3) 0.02313(7) Uani 1 1 d .
S1 S 0.10523(4) 0.42305(3) 0.23816(3) 0.01948(7) Uani 1 1 d .
P1 P 0.27821(3) 0.32519(3) 0.31597(3) 0.01408(6) Uani 1 1 d .
N1 N 0.21511(11) 0.08047(9) 0.16328(9) 0.01503(16) Uani 1 1 d .
N2 N 0.40738(12) 0.19979(9) 0.21992(9) 0.01527(17) Uani 1 1 d .
H2N H 0.507(2) 0.1908(15) 0.2165(16) 0.018 Uiso 1 1 d .
C1 C 0.36504(13) 0.08066(10) 0.18730(10) 0.01362(18) Uani 1 1 d .
C2 C 0.48420(14) -0.03439(10) 0.17604(11) 0.01590(19) Uani 1 1 d .
H2 H 0.5899 -0.0311 0.1921 0.019 Uiso 1 1 calc R
C3 C 0.44582(14) -0.15224(11) 0.14129(11) 0.0183(2) Uani 1 1 d .
H3 H 0.5255 -0.2309 0.1321 0.022 Uiso 1 1 calc R
C4 C 0.28841(15) -0.15490(11) 0.11975(11) 0.0186(2) Uani 1 1 d .
H4 H 0.2580 -0.2352 0.0975 0.022 Uiso 1 1 calc R
C5 C 0.17889(14) -0.03765(11) 0.13170(11) 0.01704(19) Uani 1 1 d .
H5 H 0.0720 -0.0393 0.1171 0.020 Uiso 1 1 calc R
C6 C 0.17876(15) 0.26066(12) 0.49228(11) 0.0199(2) Uani 1 1 d .
H6 H 0.1206 0.3385 0.5523 0.024 Uiso 1 1 calc R
C7 C 0.04024(17) 0.17084(14) 0.50263(13) 0.0271(3) Uani 1 1 d .
H7A H 0.0959 0.0887 0.4532 0.041 Uiso 1 1 calc R
H7B H -0.0426 0.2174 0.4613 0.041 Uiso 1 1 calc R
H7C H -0.0215 0.1487 0.6000 0.041 Uiso 1 1 calc R
C8 C 0.31734(19) 0.18602(17) 0.54734(15) 0.0341(3) Uani 1 1 d .
H8A H 0.2612 0.1540 0.6424 0.051 Uiso 1 1 calc R
H8B H 0.4011 0.2465 0.5456 0.051 Uiso 1 1 calc R
H8C H 0.3780 0.1100 0.4891 0.051 Uiso 1 1 calc R
C9 C 0.43602(15) 0.43399(11) 0.31728(11) 0.0178(2) Uani 1 1 d .
H9 H 0.5163 0.3833 0.3617 0.021 Uiso 1 1 calc R
C10 C 0.54522(16) 0.47631(12) 0.17055(13) 0.0231(2) Uani 1 1 d .
H10A H 0.4695 0.5288 0.1261 0.035 Uiso 1 1 calc R
H10B H 0.6032 0.3968 0.1171 0.035 Uiso 1 1 calc R
H10C H 0.6329 0.5304 0.1747 0.035 Uiso 1 1 calc R
C11 C 0.34158(18) 0.55527(12) 0.40483(13) 0.0256(2) Uani 1 1 d .
H11A H 0.4262 0.6149 0.4034 0.038 Uiso 1 1 calc R
H11B H 0.2821 0.5255 0.5002 0.038 Uiso 1 1 calc R
H11C H 0.2561 0.6030 0.3669 0.038 Uiso 1 1 calc R
loop_
_atom_site_aniso_label
_atom_site_aniso_U_11
_atom_site_aniso_U_22
_atom_site_aniso_U_33
_atom_site_aniso_U_23
_atom_site_aniso_U_13
_atom_site_aniso_U_12
Fe1 0.01398(8) 0.01703(9) 0.02151(9) -0.00167(6) -0.00855(6) -0.00118(6)
Cl1 0.01309(12) 0.02564(14) 0.03444(15) -0.00083(11) -0.00916(10) -0.00358(10)
Cl2 0.02374(13) 0.02678(14) 0.02295(13) 0.00106(10) -0.01264(10) -0.00524(10)
S1 0.01996(13) 0.01522(12) 0.02629(14) -0.00297(10) -0.01234(10) 0.00087(9)
P1 0.01479(12) 0.01286(12) 0.01515(12) -0.00164(9) -0.00552(9) -0.00189(9)
N1 0.0136(4) 0.0158(4) 0.0164(4) -0.0015(3) -0.0056(3) -0.0022(3)
N2 0.0118(4) 0.0149(4) 0.0200(4) -0.0039(3) -0.0061(3) -0.0009(3)
C1 0.0139(4) 0.0139(4) 0.0129(4) -0.0004(3) -0.0041(3) -0.0024(3)
C2 0.0152(4) 0.0155(5) 0.0171(4) -0.0002(4) -0.0060(4) -0.0008(3)
C3 0.0186(5) 0.0149(5) 0.0200(5) -0.0004(4) -0.0053(4) -0.0007(4)
C4 0.0203(5) 0.0154(5) 0.0195(5) -0.0023(4) -0.0050(4) -0.0047(4)
C5 0.0161(5) 0.0185(5) 0.0176(5) -0.0017(4) -0.0061(4) -0.0044(4)
C6 0.0220(5) 0.0209(5) 0.0155(5) -0.0011(4) -0.0038(4) -0.0048(4)
C7 0.0274(6) 0.0306(6) 0.0210(5) -0.0001(5) -0.0020(4) -0.0132(5)
C8 0.0330(7) 0.0459(8) 0.0262(6) 0.0142(6) -0.0144(5) -0.0113(6)
C9 0.0202(5) 0.0156(5) 0.0200(5) -0.0014(4) -0.0090(4) -0.0043(4)
C10 0.0257(6) 0.0185(5) 0.0247(5) 0.0011(4) -0.0066(4) -0.0081(4)
C11 0.0311(6) 0.0201(5) 0.0275(6) -0.0075(4) -0.0104(5) -0.0047(5)
loop_
_atom_type_symbol
_atom_type_description
_atom_type_scat_dispersion_real
_atom_type_scat_dispersion_imag
_atom_type_scat_source
C C 0.0033 0.0016 'International Tables Vol C Tables 4.2.6.8 and 6.1.1.4'
H H 0.0000 0.0000 'International Tables Vol C Tables 4.2.6.8 and 6.1.1.4'
N N 0.0061 0.0033 'International Tables Vol C Tables 4.2.6.8 and 6.1.1.4'
P P 0.1023 0.0942 'International Tables Vol C Tables 4.2.6.8 and 6.1.1.4'
S S 0.1246 0.1234 'International Tables Vol C Tables 4.2.6.8 and 6.1.1.4'
Cl Cl 0.1484 0.1585 'International Tables Vol C Tables 4.2.6.8 and 6.1.1.4'
Fe Fe 0.3463 0.8444 'International Tables Vol C Tables 4.2.6.8 and 6.1.1.4'
loop_
_geom_angle_atom_site_label_1
_geom_angle_atom_site_label_2
_geom_angle_atom_site_label_3
_geom_angle
N1 Fe1 Cl2 105.88(3)
N1 Fe1 Cl1 100.00(3)
Cl2 Fe1 Cl1 118.475(12)
N1 Fe1 S1 103.77(3)
Cl2 Fe1 S1 112.088(12)
Cl1 Fe1 S1 114.260(12)
P1 S1 Fe1 99.887(14)
N2 P1 C9 101.67(5)
N2 P1 C6 108.42(5)
C9 P1 C6 107.92(5)
N2 P1 S1 114.65(4)
C9 P1 S1 110.35(4)
C6 P1 S1 113.06(4)
C1 N1 C5 117.51(9)
C1 N1 Fe1 129.36(7)
C5 N1 Fe1 112.54(7)
C1 N2 P1 129.70(7)
C1 N2 H2N 110.0(11)
P1 N2 H2N 115.7(11)
N1 C1 N2 119.38(9)
N1 C1 C2 122.17(9)
N2 C1 C2 118.41(9)
C3 C2 C1 119.12(10)
C3 C2 H2 120.4
C1 C2 H2 120.4
C2 C3 C4 119.39(10)
C2 C3 H3 120.3
C4 C3 H3 120.3
C5 C4 C3 118.04(10)
C5 C4 H4 121.0
C3 C4 H4 121.0
N1 C5 C4 123.74(10)
N1 C5 H5 118.1
C4 C5 H5 118.1
C7 C6 C8 110.39(11)
C7 C6 P1 111.88(8)
C8 C6 P1 111.02(8)
C7 C6 H6 107.8
C8 C6 H6 107.8
P1 C6 H6 107.8
C6 C7 H7A 109.5
C6 C7 H7B 109.5
H7A C7 H7B 109.5
C6 C7 H7C 109.5
H7A C7 H7C 109.5
H7B C7 H7C 109.5
C6 C8 H8A 109.5
C6 C8 H8B 109.5
H8A C8 H8B 109.5
C6 C8 H8C 109.5
H8A C8 H8C 109.5
H8B C8 H8C 109.5
C10 C9 C11 111.40(10)
C10 C9 P1 111.53(8)
C11 C9 P1 109.57(8)
C10 C9 H9 108.1
C11 C9 H9 108.1
P1 C9 H9 108.1
C9 C10 H10A 109.5
C9 C10 H10B 109.5
H10A C10 H10B 109.5
C9 C10 H10C 109.5
H10A C10 H10C 109.5
H10B C10 H10C 109.5
C9 C11 H11A 109.5
C9 C11 H11B 109.5
H11A C11 H11B 109.5
C9 C11 H11C 109.5
H11A C11 H11C 109.5
H11B C11 H11C 109.5
loop_
_geom_bond_atom_site_label_1
_geom_bond_atom_site_label_2
_geom_bond_distance
Fe1 N1 2.1203(9)
Fe1 Cl2 2.2517(3)
Fe1 Cl1 2.2882(3)
Fe1 S1 2.3735(3)
S1 P1 1.9937(4)
P1 N2 1.6792(9)
P1 C9 1.8229(11)
P1 C6 1.8283(11)
N1 C1 1.3471(13)
N1 C5 1.3614(14)
N2 C1 1.3972(13)
N2 H2N 0.808(17)
C1 C2 1.4035(14)
C2 C3 1.3795(15)
C2 H2 0.9500
C3 C4 1.3991(16)
C3 H3 0.9500
C4 C5 1.3773(15)
C4 H4 0.9500
C5 H5 0.9500
C6 C7 1.5277(17)
C6 C8 1.5377(18)
C6 H6 1.0000
C7 H7A 0.9800
C7 H7B 0.9800
C7 H7C 0.9800
C8 H8A 0.9800
C8 H8B 0.9800
C8 H8C 0.9800
C9 C10 1.5322(16)
C9 C11 1.5334(16)
C9 H9 1.0000
C10 H10A 0.9800
C10 H10B 0.9800
C10 H10C 0.9800
C11 H11A 0.9800
C11 H11B 0.9800
C11 H11C 0.9800
loop_
_geom_hbond_atom_site_label_D
_geom_hbond_atom_site_label_H
_geom_hbond_atom_site_label_A
_geom_hbond_distance_DH
_geom_hbond_distance_HA
_geom_hbond_distance_DA
_geom_hbond_angle_DHA
_geom_hbond_site_symmetry_A
N2 H2N Cl1 0.808(17) 2.474(17) 3.2629(9) 165.8(14) 1_655
loop_
_geom_torsion_atom_site_label_1
_geom_torsion_atom_site_label_2
_geom_torsion_atom_site_label_3
_geom_torsion_atom_site_label_4
_geom_torsion
N1 Fe1 S1 P1 -6.69(3)
Cl2 Fe1 S1 P1 -120.481(15)
Cl1 Fe1 S1 P1 101.164(16)
Fe1 S1 P1 N2 35.96(4)
Fe1 S1 P1 C9 150.01(4)
Fe1 S1 P1 C6 -89.02(4)
Cl2 Fe1 N1 C1 99.54(9)
Cl1 Fe1 N1 C1 -136.85(9)
S1 Fe1 N1 C1 -18.64(9)
Cl2 Fe1 N1 C5 -71.33(7)
Cl1 Fe1 N1 C5 52.28(7)
S1 Fe1 N1 C5 170.50(7)
C9 P1 N2 C1 175.91(10)
C6 P1 N2 C1 62.33(11)
S1 P1 N2 C1 -65.05(10)
C5 N1 C1 N2 179.94(9)
Fe1 N1 C1 N2 9.45(14)
C5 N1 C1 C2 2.19(15)
Fe1 N1 C1 C2 -168.29(8)
P1 N2 C1 N1 37.28(14)
P1 N2 C1 C2 -144.90(9)
N1 C1 C2 C3 -1.01(15)
N2 C1 C2 C3 -178.77(9)
C1 C2 C3 C4 -0.77(16)
C2 C3 C4 C5 1.25(16)
C1 N1 C5 C4 -1.69(16)
Fe1 N1 C5 C4 170.35(9)
C3 C4 C5 N1 -0.01(16)
N2 P1 C6 C7 -72.18(10)
C9 P1 C6 C7 178.45(9)
S1 P1 C6 C7 56.11(9)
N2 P1 C6 C8 51.64(10)
C9 P1 C6 C8 -57.74(10)
S1 P1 C6 C8 179.92(8)
N2 P1 C9 C10 57.60(9)
C6 P1 C9 C10 171.54(8)
S1 P1 C9 C10 -64.46(8)
N2 P1 C9 C11 -178.59(8)
C6 P1 C9 C11 -64.64(9)
S1 P1 C9 C11 59.35(8)
