#------------------------------------------------------------------------------
#$Date: 2016-03-21 09:00:11 +0200 (Mon, 21 Mar 2016) $
#$Revision: 178615 $
#$URL: svn://www.crystallography.net/cod/cif/4/07/26/4072687.cif $
#------------------------------------------------------------------------------
#
# This file is available in the Crystallography Open Database (COD),
# http://www.crystallography.net/
#
# All data on this site have been placed in the public domain by the
# contributors.
#
data_4072687
loop_
_publ_author_name
'Fei, Zhaofu'
'Zhao, Dongbin'
'Pieraccini, Daniela'
'Ang, Wee Han'
'Geldbach, Tilmann J.'
'Scopelliti, Rosario'
'Chiappe, Cinzia'
'Dyson, Paul J.'
_publ_section_title
;
 Development of Nitrile-Functionalized Ionic Liquids for C&#x2212;C
 Coupling Reactions:&#x00A0; Implication of Carbene and Nanoparticle
 Catalysts
;
_journal_issue                   7
_journal_name_full               Organometallics
_journal_page_first              1588
_journal_paper_doi               10.1021/om060950e
_journal_volume                  26
_journal_year                    2007
_chemical_formula_sum            'C7 H7 Cl N4'
_chemical_formula_weight         182.62
_chemical_name_systematic
; 
 ? 
;
_space_group_IT_number           14
_symmetry_cell_setting           monoclinic
_symmetry_space_group_name_Hall  '-P 2ybc'
_symmetry_space_group_name_H-M   'P 1 21/c 1'
_atom_sites_solution_hydrogens   geom
_atom_sites_solution_primary     direct
_atom_sites_solution_secondary   difmap
_audit_creation_method           SHELXL-97
_cell_angle_alpha                90.00
_cell_angle_beta                 91.663(10)
_cell_angle_gamma                90.00
_cell_formula_units_Z            4
_cell_length_a                   7.7665(10)
_cell_length_b                   15.8822(15)
_cell_length_c                   6.9241(6)
_cell_measurement_reflns_used    4363
_cell_measurement_temperature    140(2)
_cell_measurement_theta_max      28.6958
_cell_measurement_theta_min      2.5276
_cell_volume                     853.72(16)
_computing_cell_refinement       'Oxford Diffraction CrysAlis RED'
_computing_data_collection       'Oxford Diffraction CrysAlis CCD'
_computing_data_reduction        'Oxford Diffraction CrysAlis RED'
_computing_molecular_graphics    'Bruker SHELXTL'
_computing_publication_material  'Bruker SHELXTL'
_computing_structure_refinement  'SHELXL-97 (Sheldrick, 1997)'
_computing_structure_solution    'SHELXS-97 (Sheldrick, 1990)'
_diffrn_ambient_temperature      140(2)
_diffrn_measured_fraction_theta_full 0.973
_diffrn_measured_fraction_theta_max 0.973
_diffrn_measurement_device_type  'Oxford Diffraction KM4/Sapphire CCD'
_diffrn_measurement_method       'phi and omega scans'
_diffrn_radiation_monochromator  graphite
_diffrn_radiation_source         'fine-focus sealed tube'
_diffrn_radiation_type           MoK\a
_diffrn_radiation_wavelength     0.71073
_diffrn_reflns_av_R_equivalents  0.0588
_diffrn_reflns_av_sigmaI/netI    0.0337
_diffrn_reflns_limit_h_max       9
_diffrn_reflns_limit_h_min       -9
_diffrn_reflns_limit_k_max       18
_diffrn_reflns_limit_k_min       -18
_diffrn_reflns_limit_l_max       7
_diffrn_reflns_limit_l_min       -7
_diffrn_reflns_number            4835
_diffrn_reflns_theta_full        25.02
_diffrn_reflns_theta_max         25.02
_diffrn_reflns_theta_min         3.21
_exptl_absorpt_coefficient_mu    0.394
_exptl_absorpt_correction_type   none
_exptl_crystal_colour            colourless
_exptl_crystal_density_diffrn    1.421
_exptl_crystal_density_method    'not measured'
_exptl_crystal_F_000             376
_exptl_crystal_size_max          0.16
_exptl_crystal_size_mid          0.08
_exptl_crystal_size_min          0.07
_refine_diff_density_max         1.121
_refine_diff_density_min         -0.505
_refine_diff_density_rms         0.136
_refine_ls_extinction_method     none
_refine_ls_goodness_of_fit_ref   1.223
_refine_ls_hydrogen_treatment    constr
_refine_ls_matrix_type           full
_refine_ls_number_parameters     110
_refine_ls_number_reflns         1468
_refine_ls_number_restraints     0
_refine_ls_restrained_S_all      1.223
_refine_ls_R_factor_all          0.1017
_refine_ls_R_factor_gt           0.0961
_refine_ls_shift/su_max          0.004
_refine_ls_shift/su_mean         0.000
_refine_ls_structure_factor_coef Fsqd
_refine_ls_weighting_details
'calc w=1/[\s^2^(Fo^2^)+(0.1610P)^2^+5.1344P] where P=(Fo^2^+2Fc^2^)/3'
_refine_ls_weighting_scheme      calc
_refine_ls_wR_factor_gt          0.2857
_refine_ls_wR_factor_ref         0.2953
_reflns_number_gt                1364
_reflns_number_total             1468
_reflns_threshold_expression     >2sigma(I)
_cod_data_source_file            om060950esi20061016_050010.cif
_cod_data_source_block           3a_pd226
_cod_depositor_comments
;
The following automatic conversions were performed:

'_symmetry_cell_setting' value 'Monoclinic' changed to 'monoclinic'
according to /home/saulius/struct/CIF-dictionaries/cif_core.dic
dictionary named 'cif_core.dic' version 2.4.1 from 2010-06-29.

Automatic conversion script
Id: cif_fix_values 1715 2011-07-08 13:25:40Z adriana 
;
_cod_original_sg_symbol_H-M      P2(1)/c
_cod_database_code               4072687
loop_
_symmetry_equiv_pos_as_xyz
'x, y, z'
'-x, y+1/2, -z+1/2'
'-x, -y, -z'
'x, -y-1/2, z-1/2'
loop_
_atom_site_label
_atom_site_type_symbol
_atom_site_fract_x
_atom_site_fract_y
_atom_site_fract_z
_atom_site_U_iso_or_equiv
_atom_site_adp_type
_atom_site_occupancy
_atom_site_symmetry_multiplicity
_atom_site_calc_flag
_atom_site_refinement_flags
Cl1 Cl 0.8572(2) 0.38061(9) 0.1600(3) 0.0228(6) Uani 1 1 d .
N1 N 0.7319(7) 0.0832(3) 0.1964(8) 0.0150(12) Uani 1 1 d .
N2 N 0.6745(7) -0.0432(3) 0.2864(8) 0.0177(12) Uani 1 1 d .
N4 N 0.5225(8) -0.2334(3) 0.1271(10) 0.0258(14) Uani 1 1 d .
C2 C 0.5521(8) 0.0775(4) 0.2025(10) 0.0170(14) Uani 1 1 d .
H2 H 0.4712 0.1207 0.1725 0.020 Uiso 1 1 calc R
N3 N 1.1533(8) 0.1393(5) 0.1514(13) 0.0416(19) Uani 1 1 d .
C3 C 0.5168(8) -0.0017(4) 0.2594(10) 0.0188(14) Uani 1 1 d .
H3 H 0.4058 -0.0250 0.2776 0.023 Uiso 1 1 calc R
C4 C 1.0085(9) 0.1498(4) 0.1530(12) 0.0249(16) Uani 1 1 d .
C9 C 0.6975(9) -0.1306(4) 0.3514(11) 0.0198(15) Uani 1 1 d .
H9A H 0.6571 -0.1363 0.4851 0.024 Uiso 1 1 calc R
H9B H 0.8213 -0.1454 0.3517 0.024 Uiso 1 1 calc R
C5 C 0.8216(8) 0.1629(4) 0.1550(12) 0.0228(15) Uani 1 1 d .
H5A H 0.7807 0.1850 0.0281 0.027 Uiso 1 1 calc R
H5B H 0.7945 0.2052 0.2548 0.027 Uiso 1 1 calc R
C1 C 0.8031(8) 0.0097(4) 0.2481(10) 0.0184(14) Uani 1 1 d .
H1 H 0.9228 -0.0027 0.2561 0.022 Uiso 1 1 calc R
C8 C 0.5999(8) -0.1886(4) 0.2233(10) 0.0193(15) Uani 1 1 d .
loop_
_atom_site_aniso_label
_atom_site_aniso_U_11
_atom_site_aniso_U_22
_atom_site_aniso_U_33
_atom_site_aniso_U_23
_atom_site_aniso_U_13
_atom_site_aniso_U_12
Cl1 0.0134(9) 0.0155(9) 0.0396(11) 0.0004(6) -0.0002(7) -0.0008(5)
N1 0.006(2) 0.008(2) 0.031(3) 0.000(2) 0.001(2) -0.0029(19)
N2 0.011(3) 0.010(3) 0.033(3) 0.001(2) -0.001(2) -0.001(2)
N4 0.024(3) 0.012(3) 0.041(4) -0.001(3) -0.001(3) 0.002(2)
C2 0.006(3) 0.015(3) 0.030(4) -0.002(3) 0.001(2) -0.001(2)
N3 0.011(3) 0.035(4) 0.078(5) 0.006(4) 0.005(3) -0.003(3)
C3 0.006(3) 0.017(3) 0.033(4) -0.003(3) 0.001(3) 0.002(2)
C4 0.015(4) 0.016(3) 0.043(4) 0.003(3) -0.001(3) -0.006(3)
C9 0.018(3) 0.010(3) 0.031(4) 0.002(3) -0.004(3) -0.004(2)
C5 0.013(3) 0.007(3) 0.048(4) 0.006(3) 0.001(3) -0.003(2)
C1 0.010(3) 0.013(3) 0.033(4) 0.002(3) 0.001(3) 0.000(2)
C8 0.018(3) 0.009(3) 0.032(4) 0.003(3) 0.005(3) 0.000(3)
loop_
_atom_type_symbol
_atom_type_description
_atom_type_scat_dispersion_real
_atom_type_scat_dispersion_imag
_atom_type_scat_source
C C 0.0033 0.0016 'International Tables Vol C Tables 4.2.6.8 and 6.1.1.4'
H H 0.0000 0.0000 'International Tables Vol C Tables 4.2.6.8 and 6.1.1.4'
N N 0.0061 0.0033 'International Tables Vol C Tables 4.2.6.8 and 6.1.1.4'
Cl Cl 0.1484 0.1585 'International Tables Vol C Tables 4.2.6.8 and 6.1.1.4'
loop_
_geom_angle_atom_site_label_1
_geom_angle_atom_site_label_2
_geom_angle_atom_site_label_3
_geom_angle
C1 N1 C2 109.9(5)
C1 N1 C5 127.4(5)
C2 N1 C5 122.6(5)
C1 N2 C3 109.5(5)
C1 N2 C9 124.7(5)
C3 N2 C9 125.7(5)
C3 C2 N1 106.3(5)
C3 C2 H2 126.8
N1 C2 H2 126.8
C2 C3 N2 107.1(6)
C2 C3 H3 126.5
N2 C3 H3 126.5
N3 C4 C5 179.8(8)
N2 C9 C8 110.6(6)
N2 C9 H9A 109.5
C8 C9 H9A 109.5
N2 C9 H9B 109.5
C8 C9 H9B 109.5
H9A C9 H9B 108.1
C4 C5 N1 110.6(5)
C4 C5 H5A 109.5
N1 C5 H5A 109.5
C4 C5 H5B 109.5
N1 C5 H5B 109.5
H5A C5 H5B 108.1
N1 C1 N2 107.2(5)
N1 C1 H1 126.4
N2 C1 H1 126.4
N4 C8 C9 178.7(7)
loop_
_geom_bond_atom_site_label_1
_geom_bond_atom_site_label_2
_geom_bond_distance
N1 C1 1.337(8)
N1 C2 1.401(8)
N1 C5 1.477(8)
N2 C1 1.337(8)
N2 C3 1.398(8)
N2 C9 1.469(8)
N4 C8 1.134(9)
C2 C3 1.349(9)
C2 H2 0.9500
N3 C4 1.137(10)
C3 H3 0.9500
C4 C5 1.467(9)
C9 C8 1.474(9)
C9 H9A 0.9900
C9 H9B 0.9900
C5 H5A 0.9900
C5 H5B 0.9900
C1 H1 0.9500
loop_
_geom_torsion_atom_site_label_1
_geom_torsion_atom_site_label_2
_geom_torsion_atom_site_label_3
_geom_torsion_atom_site_label_4
_geom_torsion
C1 N1 C2 C3 0.0(8)
C5 N1 C2 C3 -175.0(6)
N1 C2 C3 N2 -0.2(8)
C1 N2 C3 C2 0.4(8)
C9 N2 C3 C2 179.0(6)
C1 N2 C9 C8 -125.5(7)
C3 N2 C9 C8 56.1(9)
N3 C4 C5 N1 10(100)
C1 N1 C5 C4 7.4(11)
C2 N1 C5 C4 -178.5(6)
C2 N1 C1 N2 0.2(8)
C5 N1 C1 N2 174.9(6)
C3 N2 C1 N1 -0.4(8)
C9 N2 C1 N1 -179.0(6)
N2 C9 C8 N4 -100(31)
