#------------------------------------------------------------------------------
#$Date: 2016-03-21 10:59:28 +0200 (Mon, 21 Mar 2016) $
#$Revision: 178676 $
#$URL: svn://www.crystallography.net/cod/cif/4/07/87/4078779.cif $
#------------------------------------------------------------------------------
#
# This file is available in the Crystallography Open Database (COD),
# http://www.crystallography.net/
#
# All data on this site have been placed in the public domain by the
# contributors.
#
data_4078779
loop_
_publ_author_name
'Lotz, Simon'
'van Jaarsveld, Nina A.'
'Liles, David C.'
'Crause, Chantelle'
'G\"orls, Helmar'
'Terblans, Yvette M.'
_publ_section_title
;
 Fischer Dinuclear and Mononuclear Bis-Carbene Complexes of Thiophene and
 Thiophene Derivatives
;
_journal_issue                   15
_journal_name_full               Organometallics
_journal_page_first              5371
_journal_paper_doi               10.1021/om300414y
_journal_volume                  31
_journal_year                    2012
_chemical_formula_moiety         'C15 H11 N O6 S W'
_chemical_formula_sum            'C15 H11 N O6 S W'
_chemical_formula_weight         517.16
_chemical_name_systematic
; 
[2-(Ethoxymethylidenyl)-4-methyl-4-<i>H</i>-thienopyrrole](pentacarbonyl)
tungsten 
;
_space_group_IT_number           2
_symmetry_cell_setting           triclinic
_symmetry_space_group_name_Hall  '-P 1'
_symmetry_space_group_name_H-M   'P -1'
_atom_sites_solution_hydrogens   geom
_atom_sites_solution_primary     direct
_atom_sites_solution_secondary   difmap
_audit_creation_method           SHELXL-97
_cell_angle_alpha                65.739(3)
_cell_angle_beta                 82.524(3)
_cell_angle_gamma                73.027(3)
_cell_formula_units_Z            2
_cell_length_a                   7.1651(4)
_cell_length_b                   11.4198(7)
_cell_length_c                   11.8024(7)
_cell_measurement_reflns_used    7278
_cell_measurement_temperature    183(2)
_cell_measurement_theta_max      27.48
_cell_measurement_theta_min      1.89
_cell_volume                     842.02(9)
_computing_cell_refinement       'HKL Scalepack (Otwinowski & Minor 1997)'
_computing_data_collection       'COLLECT (Nonius B.V. 1998)'
_computing_data_reduction
' HKL Denzo and Scalepack (Otwinowski & Minor 1997)'
_computing_molecular_graphics
' ORTEP-3 for Windows (Farrugia, 1997), POV-Ray (Cason, 2004)'
_computing_publication_material  ' SHELXL-97, PLATON (Spek, 2009)'
_computing_structure_refinement  'SHELXL-97 (Sheldrick, 2008)'
_computing_structure_solution    'SHELXS-97 (Sheldrick, 2008)'
_diffrn_ambient_temperature      183(2)
_diffrn_measured_fraction_theta_full 0.992
_diffrn_measured_fraction_theta_max 0.973
_diffrn_measurement_device_type  'Nonius Kappa CCD'
_diffrn_measurement_method       '\f and \w scans'
_diffrn_radiation_monochromator  graphite
_diffrn_radiation_source         'fine-focus sealed tube'
_diffrn_radiation_type           MoK\a
_diffrn_radiation_wavelength     0.71073
_diffrn_reflns_av_R_equivalents  0.0679
_diffrn_reflns_av_sigmaI/netI    0.0841
_diffrn_reflns_limit_h_max       8
_diffrn_reflns_limit_h_min       -9
_diffrn_reflns_limit_k_max       14
_diffrn_reflns_limit_k_min       -13
_diffrn_reflns_limit_l_max       15
_diffrn_reflns_limit_l_min       -14
_diffrn_reflns_number            7278
_diffrn_reflns_theta_full        25.24
_diffrn_reflns_theta_max         27.48
_diffrn_reflns_theta_min         1.89
_exptl_absorpt_coefficient_mu    7.013
_exptl_absorpt_correction_T_max  0.581
_exptl_absorpt_correction_T_min  0.382
_exptl_absorpt_correction_type   multi-scan
_exptl_absorpt_process_details   'Sortav (Blessing 1995)'
_exptl_crystal_colour            red-orange
_exptl_crystal_density_diffrn    2.040
_exptl_crystal_density_method    'not measured'
_exptl_crystal_description       prism
_exptl_crystal_F_000             492
_exptl_crystal_size_max          0.12
_exptl_crystal_size_mid          0.11
_exptl_crystal_size_min          0.09
_refine_diff_density_max         0.672
_refine_diff_density_min         -1.404
_refine_diff_density_rms         0.172
_refine_ls_extinction_method     none
_refine_ls_goodness_of_fit_ref   0.944
_refine_ls_hydrogen_treatment    constr
_refine_ls_matrix_type           full
_refine_ls_number_parameters     218
_refine_ls_number_reflns         3753
_refine_ls_number_restraints     0
_refine_ls_restrained_S_all      0.944
_refine_ls_R_factor_all          0.0400
_refine_ls_R_factor_gt           0.0315
_refine_ls_shift/su_max          0.002
_refine_ls_shift/su_mean         0.000
_refine_ls_structure_factor_coef Fsqd
_refine_ls_weighting_details
'calc w=1/[\s^2^(Fo^2^)+(0.0065P)^2^+0.0000P] where P=(Fo^2^+2Fc^2^)/3'
_refine_ls_weighting_scheme      calc
_refine_ls_wR_factor_gt          0.0617
_refine_ls_wR_factor_ref         0.0627
_reflns_number_gt                3121
_reflns_number_total             3753
_reflns_threshold_expression     >2\s(I)
_iucr_refine_instructions_details
;
TITL FO1429 in P1
CELL 0.71073   7.1651  11.4198  11.8024  65.739  82.524  73.027
ZERR    2.00   0.0004   0.0007   0.0007   0.003   0.003   0.003
LATT 1
SFAC C H N O S W
UNIT 30 22 2 12 2 2
L.S. 8
BOND $H
CONF
FMAP 2
PLAN 20
ACTA 50.48
TEMP -90
SIZE 0.12 0.11 0.09
REM   COLOR:red-orange
OMIT 0 1 0
OMIT 1 3 1
WGHT    0.006500
FVAR       0.34592
W1    6    0.608145    0.891095    0.748397    11.00000    0.02996    0.02666 =
         0.02735   -0.01125   -0.00355   -0.00313
C1    1    0.533888    1.084371    0.635031    11.00000    0.04336    0.04240 =
         0.02721   -0.01025   -0.00508   -0.00873
O1    4    0.488163    1.197234    0.574803    11.00000    0.07004    0.03055 =
         0.04234   -0.00619   -0.01692   -0.00472
C2    1    0.844153    0.906098    0.816810    11.00000    0.03703    0.02388 =
         0.02995   -0.01198    0.00424   -0.00358
O2    4    0.978734    0.910791    0.855689    11.00000    0.03724    0.04328 =
         0.05138   -0.02225   -0.00643   -0.01196
C3    1    0.786495    0.858601    0.611116    11.00000    0.03664    0.03104 =
         0.03303   -0.01399   -0.00138   -0.00770
O3    4    0.889165    0.847408    0.529084    11.00000    0.04558    0.06430 =
         0.04480   -0.02896    0.00929   -0.01481
C4    1    0.381818    0.853504    0.689000    11.00000    0.03605    0.03271 =
         0.03740   -0.01425   -0.00115    0.00254
O4    4    0.261910    0.826509    0.658868    11.00000    0.03849    0.07702 =
         0.06154   -0.04001   -0.00329   -0.01827
C5    1    0.424318    0.957090    0.869045    11.00000    0.03217    0.03563 =
         0.03235   -0.01345   -0.00541   -0.00489
O5    4    0.316900    1.007905    0.927586    11.00000    0.04321    0.04765 =
         0.04094   -0.02378   -0.00011   -0.00246
C6    1    0.680980    0.677359    0.875651    11.00000    0.02441    0.03666 =
         0.02680   -0.01240   -0.00123   -0.00785
O6    4    0.699315    0.624718    0.997640    11.00000    0.04012    0.03007 =
         0.02513   -0.01149   -0.00358   -0.00457
S1    5    0.792270    0.402875    0.953314    11.00000    0.03771    0.02736 =
         0.02808   -0.00883   -0.00272   -0.00531
N1    3    0.809039    0.377483    0.641678    11.00000    0.04374    0.03043 =
         0.02691   -0.01104   -0.00110   -0.00893
C7    1    0.722873    0.567720    0.837728    11.00000    0.02822    0.02867 =
         0.03319   -0.01118   -0.00115   -0.00468
C8    1    0.722866    0.566686    0.720790    11.00000    0.03506    0.02756 =
         0.02886   -0.00810   -0.00292   -0.00818
AFIX  43
H8    2    0.688882    0.644664    0.646961    11.00000   -1.20000
AFIX   0
C9    1    0.778581    0.437787    0.724271    11.00000    0.02483    0.03179 =
         0.03079   -0.01319   -0.00231   -0.00749
C10   1    0.822188    0.337143    0.843542    11.00000    0.03053    0.03022 =
         0.02974   -0.01169   -0.00068   -0.00742
C11   1    0.879303    0.213879    0.832801    11.00000    0.04122    0.03036 =
         0.03594   -0.01288    0.00053   -0.00706
AFIX  43
H11   2    0.915810    0.128536    0.898508    11.00000   -1.20000
AFIX   0
C12   1    0.872145    0.240709    0.708173    11.00000    0.04436    0.02777 =
         0.04328   -0.01753    0.00241   -0.01030
AFIX  43
H12   2    0.905250    0.175715    0.673108    11.00000   -1.20000
AFIX   0
C13   1    0.779586    0.441596    0.508983    11.00000    0.05495    0.03890 =
         0.03117   -0.01240   -0.00552   -0.00741
AFIX 137
H13A  2    0.735086    0.538317    0.484214    11.00000   -1.50000
H13B  2    0.680963    0.410849    0.486744    11.00000   -1.50000
H13C  2    0.902729    0.419117    0.465971    11.00000   -1.50000
AFIX   0
C14   1    0.664446    0.704506    1.070814    11.00000    0.03841    0.03812 =
         0.03043   -0.01676   -0.00150   -0.00581
AFIX  23
H14A  2    0.527481    0.759285    1.062322    11.00000   -1.20000
H14B  2    0.751671    0.764546    1.042775    11.00000   -1.20000
AFIX   0
C15   1    0.705735    0.608466    1.204194    11.00000    0.04429    0.04259 =
         0.02909   -0.00831   -0.00359   -0.00956
AFIX  33
H15A  2    0.683542    0.658428    1.257388    11.00000   -1.50000
H15B  2    0.841716    0.555104    1.211194    11.00000   -1.50000
H15C  2    0.618735    0.549552    1.230539    11.00000   -1.50000
 
HKLF 4
 
REM  FO1429 in P1
REM R1 =  0.0315 for   3121 Fo > 4sig(Fo)  and  0.0400 for all   3753 data
REM    218 parameters refined using      0 restraints
 
END  
;
_cod_data_source_file            om300414y_si_002.cif
_cod_data_source_block           complex_8b_fo1429
_cod_database_code               4078779
loop_
_symmetry_equiv_pos_as_xyz
'x, y, z'
'-x, -y, -z'
loop_
_atom_site_label
_atom_site_type_symbol
_atom_site_fract_x
_atom_site_fract_y
_atom_site_fract_z
_atom_site_U_iso_or_equiv
_atom_site_adp_type
_atom_site_occupancy
_atom_site_symmetry_multiplicity
_atom_site_calc_flag
_atom_site_refinement_flags
W1 W 0.60815(3) 0.891095(19) 0.748397(17) 0.02846(7) Uani 1 1 d .
C1 C 0.5339(8) 1.0844(6) 0.6350(5) 0.0390(13) Uani 1 1 d .
O1 O 0.4882(6) 1.1972(4) 0.5748(3) 0.0508(11) Uani 1 1 d .
C2 C 0.8442(8) 0.9061(5) 0.8168(4) 0.0313(11) Uani 1 1 d .
O2 O 0.9787(5) 0.9108(4) 0.8557(3) 0.0418(10) Uani 1 1 d .
C3 C 0.7865(8) 0.8586(5) 0.6111(5) 0.0333(12) Uani 1 1 d .
O3 O 0.8892(6) 0.8474(4) 0.5291(3) 0.0499(11) Uani 1 1 d .
C4 C 0.3818(8) 0.8535(5) 0.6890(5) 0.0378(12) Uani 1 1 d .
O4 O 0.2619(6) 0.8265(4) 0.6589(4) 0.0537(11) Uani 1 1 d .
C5 C 0.4243(8) 0.9571(5) 0.8690(5) 0.0338(12) Uani 1 1 d .
O5 O 0.3169(6) 1.0079(4) 0.9276(3) 0.0440(10) Uani 1 1 d .
C6 C 0.6810(7) 0.6774(5) 0.8757(4) 0.0293(11) Uani 1 1 d .
O6 O 0.6993(5) 0.6247(3) 0.9976(3) 0.0323(8) Uani 1 1 d .
S1 S 0.7923(2) 0.40288(12) 0.95331(11) 0.0323(3) Uani 1 1 d .
N1 N 0.8090(6) 0.3775(4) 0.6417(3) 0.0339(10) Uani 1 1 d .
C7 C 0.7229(7) 0.5677(5) 0.8377(4) 0.0309(11) Uani 1 1 d .
C8 C 0.7229(7) 0.5667(5) 0.7208(4) 0.0313(12) Uani 1 1 d .
H8 H 0.6889 0.6447 0.6470 0.038 Uiso 1 1 calc R
C9 C 0.7786(7) 0.4378(5) 0.7243(4) 0.0286(11) Uani 1 1 d .
C10 C 0.8222(7) 0.3371(5) 0.8435(4) 0.0303(11) Uani 1 1 d .
C11 C 0.8793(8) 0.2139(5) 0.8328(5) 0.0365(12) Uani 1 1 d .
H11 H 0.9158 0.1285 0.8985 0.044 Uiso 1 1 calc R
C12 C 0.8721(8) 0.2407(5) 0.7082(5) 0.0374(13) Uani 1 1 d .
H12 H 0.9052 0.1757 0.6731 0.045 Uiso 1 1 calc R
C13 C 0.7796(8) 0.4416(5) 0.5090(4) 0.0428(14) Uani 1 1 d .
H13A H 0.7351 0.5383 0.4842 0.064 Uiso 1 1 calc R
H13B H 0.6810 0.4108 0.4867 0.064 Uiso 1 1 calc R
H13C H 0.9027 0.4191 0.4660 0.064 Uiso 1 1 calc R
C14 C 0.6644(8) 0.7045(5) 1.0708(4) 0.0354(12) Uani 1 1 d .
H14A H 0.5275 0.7593 1.0623 0.042 Uiso 1 1 calc R
H14B H 0.7517 0.7645 1.0428 0.042 Uiso 1 1 calc R
C15 C 0.7057(8) 0.6085(5) 1.2042(4) 0.0408(14) Uani 1 1 d .
H15A H 0.6835 0.6584 1.2574 0.061 Uiso 1 1 calc R
H15B H 0.8417 0.5551 1.2112 0.061 Uiso 1 1 calc R
H15C H 0.6187 0.5496 1.2305 0.061 Uiso 1 1 calc R
loop_
_atom_site_aniso_label
_atom_site_aniso_U_11
_atom_site_aniso_U_22
_atom_site_aniso_U_33
_atom_site_aniso_U_23
_atom_site_aniso_U_13
_atom_site_aniso_U_12
W1 0.02996(13) 0.02666(12) 0.02735(12) -0.01125(9) -0.00355(8) -0.00313(9)
C1 0.043(3) 0.042(3) 0.027(3) -0.010(2) -0.005(2) -0.009(3)
O1 0.070(3) 0.031(2) 0.042(2) -0.0062(19) -0.017(2) -0.005(2)
C2 0.037(3) 0.024(3) 0.030(3) -0.012(2) 0.004(2) -0.004(2)
O2 0.037(2) 0.043(2) 0.051(2) -0.0223(19) -0.0064(18) -0.012(2)
C3 0.037(3) 0.031(3) 0.033(3) -0.014(2) -0.001(2) -0.008(3)
O3 0.046(3) 0.064(3) 0.045(2) -0.029(2) 0.009(2) -0.015(2)
C4 0.036(3) 0.033(3) 0.037(3) -0.014(2) -0.001(2) 0.003(3)
O4 0.038(2) 0.077(3) 0.062(3) -0.040(2) -0.003(2) -0.018(2)
C5 0.032(3) 0.036(3) 0.032(3) -0.013(2) -0.005(2) -0.005(3)
O5 0.043(3) 0.048(2) 0.041(2) -0.024(2) -0.0001(19) -0.002(2)
C6 0.024(3) 0.037(3) 0.027(3) -0.012(2) -0.001(2) -0.008(2)
O6 0.040(2) 0.0301(18) 0.0251(18) -0.0115(15) -0.0036(15) -0.0046(18)
S1 0.0377(8) 0.0274(6) 0.0281(6) -0.0088(5) -0.0027(5) -0.0053(6)
N1 0.044(3) 0.030(2) 0.027(2) -0.0110(19) -0.0011(19) -0.009(2)
C7 0.028(3) 0.029(3) 0.033(3) -0.011(2) -0.001(2) -0.005(2)
C8 0.035(3) 0.028(3) 0.029(3) -0.008(2) -0.003(2) -0.008(2)
C9 0.025(3) 0.032(3) 0.031(3) -0.013(2) -0.002(2) -0.007(2)
C10 0.031(3) 0.030(3) 0.030(3) -0.012(2) -0.001(2) -0.007(2)
C11 0.041(3) 0.030(3) 0.036(3) -0.013(2) 0.001(2) -0.007(3)
C12 0.044(3) 0.028(3) 0.043(3) -0.018(2) 0.002(3) -0.010(3)
C13 0.055(4) 0.039(3) 0.031(3) -0.012(3) -0.006(3) -0.007(3)
C14 0.038(3) 0.038(3) 0.030(3) -0.017(2) -0.001(2) -0.006(3)
C15 0.044(4) 0.043(3) 0.029(3) -0.008(2) -0.004(2) -0.010(3)
loop_
_atom_type_symbol
_atom_type_description
_atom_type_scat_dispersion_real
_atom_type_scat_dispersion_imag
_atom_type_scat_source
C C 0.0033 0.0016 'International Tables Vol C Tables 4.2.6.8 and 6.1.1.4'
H H 0.0000 0.0000 'International Tables Vol C Tables 4.2.6.8 and 6.1.1.4'
N N 0.0061 0.0033 'International Tables Vol C Tables 4.2.6.8 and 6.1.1.4'
O O 0.0106 0.0060 'International Tables Vol C Tables 4.2.6.8 and 6.1.1.4'
S S 0.1246 0.1234 'International Tables Vol C Tables 4.2.6.8 and 6.1.1.4'
W W -0.8490 6.8722 'International Tables Vol C Tables 4.2.6.8 and 6.1.1.4'
loop_
_geom_angle_atom_site_label_1
_geom_angle_atom_site_label_2
_geom_angle_atom_site_label_3
_geom_angle
C1 W1 C3 87.5(2)
C1 W1 C5 82.9(2)
C3 W1 C5 170.29(18)
C1 W1 C2 93.51(18)
C3 W1 C2 87.08(19)
C5 W1 C2 91.61(19)
C1 W1 C4 92.7(2)
C3 W1 C4 92.0(2)
C5 W1 C4 90.4(2)
C2 W1 C4 173.68(18)
C1 W1 C6 178.26(18)
C3 W1 C6 93.74(19)
C5 W1 C6 95.82(19)
C2 W1 C6 87.74(16)
C4 W1 C6 86.09(18)
O1 C1 W1 176.6(5)
O2 C2 W1 178.1(4)
O3 C3 W1 176.1(4)
O4 C4 W1 176.7(5)
O5 C5 W1 172.7(4)
O6 C6 C7 106.4(4)
O6 C6 W1 128.4(4)
C7 C6 W1 125.2(3)
C6 O6 C14 122.8(4)
C10 S1 C7 91.2(2)
C9 N1 C12 107.9(4)
C9 N1 C13 127.2(4)
C12 N1 C13 124.9(4)
C8 C7 C6 130.4(4)
C8 C7 S1 111.2(4)
C6 C7 S1 118.4(4)
C7 C8 C9 112.0(4)
C7 C8 H8 124.0
C9 C8 H8 124.0
N1 C9 C8 137.8(4)
N1 C9 C10 107.7(4)
C8 C9 C10 114.5(4)
C11 C10 C9 108.3(4)
C11 C10 S1 140.5(4)
C9 C10 S1 111.2(4)
C12 C11 C10 106.5(4)
C12 C11 H11 126.7
C10 C11 H11 126.7
C11 C12 N1 109.5(5)
C11 C12 H12 125.2
N1 C12 H12 125.2
N1 C13 H13A 109.5
N1 C13 H13B 109.5
H13A C13 H13B 109.5
N1 C13 H13C 109.5
H13A C13 H13C 109.5
H13B C13 H13C 109.5
O6 C14 C15 106.7(4)
O6 C14 H14A 110.4
C15 C14 H14A 110.4
O6 C14 H14B 110.4
C15 C14 H14B 110.4
H14A C14 H14B 108.6
C14 C15 H15A 109.5
C14 C15 H15B 109.5
H15A C15 H15B 109.5
C14 C15 H15C 109.5
H15A C15 H15C 109.5
H15B C15 H15C 109.5
loop_
_geom_bond_atom_site_label_1
_geom_bond_atom_site_label_2
_geom_bond_distance
W1 C1 2.004(6)
W1 C3 2.018(6)
W1 C5 2.036(6)
W1 C2 2.044(5)
W1 C4 2.063(5)
W1 C6 2.221(5)
C1 O1 1.155(6)
C2 O2 1.144(5)
C3 O3 1.165(6)
C4 O4 1.133(6)
C5 O5 1.156(6)
C6 O6 1.320(5)
C6 C7 1.437(7)
O6 C14 1.448(6)
S1 C10 1.709(5)
S1 C7 1.781(5)
N1 C9 1.371(6)
N1 C12 1.390(6)
N1 C13 1.445(6)
C7 C8 1.385(6)
C8 C9 1.393(6)
C8 H8 0.9500
C9 C10 1.405(6)
C10 C11 1.401(7)
C11 C12 1.378(7)
C11 H11 0.9500
C12 H12 0.9500
C13 H13A 0.9800
C13 H13B 0.9800
C13 H13C 0.9800
C14 C15 1.510(6)
C14 H14A 0.9900
C14 H14B 0.9900
C15 H15A 0.9800
C15 H15B 0.9800
C15 H15C 0.9800
loop_
_geom_torsion_atom_site_label_1
_geom_torsion_atom_site_label_2
_geom_torsion_atom_site_label_3
_geom_torsion_atom_site_label_4
_geom_torsion
C3 W1 C6 O6 143.7(4)
C5 W1 C6 O6 -34.6(4)
C2 W1 C6 O6 56.8(4)
C4 W1 C6 O6 -124.6(4)
C3 W1 C6 C7 -34.6(4)
C5 W1 C6 C7 147.1(4)
C2 W1 C6 C7 -121.5(4)
C4 W1 C6 C7 57.2(4)
C7 C6 O6 C14 -178.7(4)
W1 C6 O6 C14 2.7(6)
O6 C6 C7 C8 179.3(5)
W1 C6 C7 C8 -2.1(7)
O6 C6 C7 S1 -2.2(5)
W1 C6 C7 S1 176.4(2)
C10 S1 C7 C8 0.7(4)
C10 S1 C7 C6 -178.1(4)
C6 C7 C8 C9 178.0(5)
S1 C7 C8 C9 -0.6(5)
C12 N1 C9 C8 177.8(5)
C13 N1 C9 C8 -3.0(9)
C12 N1 C9 C10 -0.4(5)
C13 N1 C9 C10 178.8(4)
C7 C8 C9 N1 -177.9(5)
C7 C8 C9 C10 0.1(6)
N1 C9 C10 C11 -0.2(5)
C8 C9 C10 C11 -178.8(4)
N1 C9 C10 S1 179.0(3)
C8 C9 C10 S1 0.4(5)
C7 S1 C10 C11 178.3(6)
C7 S1 C10 C9 -0.6(4)
C9 C10 C11 C12 0.7(5)
S1 C10 C11 C12 -178.2(4)
C10 C11 C12 N1 -0.9(6)
C9 N1 C12 C11 0.8(5)
C13 N1 C12 C11 -178.4(4)
C6 O6 C14 C15 -178.5(4)
