#------------------------------------------------------------------------------
#$Date: 2016-03-21 11:18:06 +0200 (Mon, 21 Mar 2016) $
#$Revision: 178687 $
#$URL: svn://www.crystallography.net/cod/cif/4/07/98/4079815.cif $
#------------------------------------------------------------------------------
#
# This file is available in the Crystallography Open Database (COD),
# http://www.crystallography.net/
#
# All data on this site have been placed in the public domain by the
# contributors.
#
data_4079815
loop_
_publ_author_name
'Pal, Manoj K.'
'Kushwah, Nisha'
'Manna, Debashree'
'Wadawale, Amey'
'Sudarsan, V.'
'Ghanty, Tapan K.'
'Jain, Vimal K.'
_publ_section_title
;
 Diorgano-Gallium and -Indium Complexes Derived from Benzoazole Ligands:
 Synthesis, Characterization, Photoluminescence, and Computational Studies
;
_journal_issue                   1
_journal_name_full               Organometallics
_journal_page_first              104
_journal_paper_doi               10.1021/om300855x
_journal_volume                  32
_journal_year                    2013
_chemical_formula_sum            'C30 H28 In2 N2 O2 S2'
_chemical_formula_weight         742.30
_chemical_name_systematic
;
 ?
;
_space_group_IT_number           2
_symmetry_cell_setting           triclinic
_symmetry_Int_Tables_number      2
_symmetry_space_group_name_Hall  '-P 1'
_symmetry_space_group_name_H-M   'P -1'
_atom_sites_solution_hydrogens   geom
_atom_sites_solution_primary     direct
_atom_sites_solution_secondary   difmap
_audit_creation_method           SHELXL-97
_cell_angle_alpha                70.73(3)
_cell_angle_beta                 87.144(18)
_cell_angle_gamma                74.28(2)
_cell_formula_units_Z            1
_cell_length_a                   7.7032(16)
_cell_length_b                   10.000(4)
_cell_length_c                   10.532(3)
_cell_measurement_reflns_used    25
_cell_measurement_temperature    298(2)
_cell_measurement_theta_max      13.2
_cell_measurement_theta_min      10.2
_cell_volume                     736.5(4)
_computing_cell_refinement       WinAFC
_computing_data_collection       WinAFC
_computing_data_reduction        CrystalStructure
_computing_molecular_graphics    'ORTEP-3 for Windows'
_computing_publication_material  'WinGX 1.7.01'
_computing_structure_refinement  'SHELXL-97 (Sheldrick, 1997)'
_computing_structure_solution    SIR-92
_diffrn_ambient_temperature      298(2)
_diffrn_measured_fraction_theta_full 0.960
_diffrn_measured_fraction_theta_max 0.960
_diffrn_measurement_device_type  'Rigaku AFC7S'
_diffrn_measurement_method       \w-2\q
_diffrn_radiation_monochromator  graphite
_diffrn_radiation_source         'fine-focus sealed tube'
_diffrn_radiation_type           MoK\a
_diffrn_radiation_wavelength     0.71069
_diffrn_reflns_av_R_equivalents  0.0110
_diffrn_reflns_av_sigmaI/netI    0.0376
_diffrn_reflns_limit_h_max       9
_diffrn_reflns_limit_h_min       -9
_diffrn_reflns_limit_k_max       12
_diffrn_reflns_limit_k_min       -6
_diffrn_reflns_limit_l_max       13
_diffrn_reflns_limit_l_min       -12
_diffrn_reflns_number            3953
_diffrn_reflns_theta_full        27.55
_diffrn_reflns_theta_max         27.55
_diffrn_reflns_theta_min         2.49
_diffrn_standards_decay_%        0.30
_diffrn_standards_interval_count 150
_diffrn_standards_number         3
_exptl_absorpt_coefficient_mu    1.737
_exptl_absorpt_correction_T_max  0.9182
_exptl_absorpt_correction_T_min  0.5434
_exptl_absorpt_correction_type   psi-scan
_exptl_absorpt_process_details   '(North, Phillips & Mathews, 1968)'
_exptl_crystal_colour            colorless
_exptl_crystal_density_diffrn    1.674
_exptl_crystal_density_method    'not measured'
_exptl_crystal_description       plate
_exptl_crystal_F_000             368
_exptl_crystal_size_max          0.40
_exptl_crystal_size_mid          0.15
_exptl_crystal_size_min          0.05
_refine_diff_density_max         0.436
_refine_diff_density_min         -0.327
_refine_diff_density_rms         0.075
_refine_ls_extinction_method     none
_refine_ls_goodness_of_fit_ref   1.031
_refine_ls_hydrogen_treatment    constr
_refine_ls_matrix_type           full
_refine_ls_number_parameters     174
_refine_ls_number_reflns         3263
_refine_ls_number_restraints     0
_refine_ls_restrained_S_all      1.031
_refine_ls_R_factor_all          0.0408
_refine_ls_R_factor_gt           0.0265
_refine_ls_shift/su_max          0.002
_refine_ls_shift/su_mean         0.000
_refine_ls_structure_factor_coef Fsqd
_refine_ls_weighting_details
'calc w=1/[\s^2^(Fo^2^)+(0.0294P)^2^+0.0000P] where P=(Fo^2^+2Fc^2^)/3'
_refine_ls_weighting_scheme      calc
_refine_ls_wR_factor_gt          0.0611
_refine_ls_wR_factor_ref         0.0655
_reflns_number_gt                2721
_reflns_number_total             3263
_reflns_threshold_expression     >2sigma(I)
_iucr_refine_instructions_details
;
TITL SK-07
CELL  0.71069   7.7032  10.0000  10.5317   70.727   87.144   74.280
ZERR     1.00   0.0016   0.0043   0.0026    0.025    0.018    0.024
LATT   1
SFAC  C    H    N    O    S    IN
UNIT  30   28   2    2    2    2
MERG   2
 
FMAP   2
PLAN   25
SIZE     0.05   0.15   0.40
ACTA
BOND   $H
CONF
LIST   4
L.S.  20
TEMP    25.00
WGHT    0.029400
FVAR       0.68526
C1    1    0.365302    0.376469    0.654500    11.00000    0.05004    0.07596 =
         0.06968   -0.03148    0.00514   -0.02342
AFIX 137
H1A   2    0.415170    0.398772    0.567022    11.00000   -1.50000
H1B   2    0.445681    0.290717    0.715732    11.00000   -1.50000
H1C   2    0.349987    0.458246    0.686472    11.00000   -1.50000
AFIX   0
C2    1   -0.117718    0.292089    0.758925    11.00000    0.05480    0.06956 =
         0.05651   -0.03205    0.01686   -0.02151
AFIX 137
H2A   2   -0.212980    0.296520    0.701013    11.00000   -1.50000
H2B   2   -0.159645    0.364380    0.802942    11.00000   -1.50000
H2C   2   -0.081894    0.195912    0.825323    11.00000   -1.50000
AFIX   0
C3    1    0.314948   -0.030521    0.733409    11.00000    0.03575    0.03768 =
         0.05199   -0.01027    0.00448   -0.00885
C4    1    0.391520   -0.165281    0.705833    11.00000    0.03945    0.03805 =
         0.06606   -0.01342    0.00474   -0.01140
C5    1    0.489598   -0.295237    0.804384    11.00000    0.04773    0.03806 =
         0.09276   -0.01046   -0.00032   -0.00344
AFIX  43
H5    2    0.540895   -0.381026    0.784272    11.00000   -1.20000
AFIX   0
C6    1    0.505438   -0.288897    0.930200    11.00000    0.06373    0.05029 =
         0.08087    0.00773   -0.01887   -0.01348
AFIX  43
H6    2    0.568068   -0.372787    0.997889    11.00000   -1.20000
AFIX   0
C7    1    0.428913   -0.157601    0.961074    11.00000    0.06846    0.06040 =
         0.05780   -0.00197   -0.00810   -0.01675
AFIX  43
H7    2    0.441945   -0.158234    1.048602    11.00000   -1.20000
AFIX   0
C8    1    0.333910   -0.026578    0.862847    11.00000    0.05844    0.04798 =
         0.05189   -0.00966    0.00005   -0.00945
AFIX  43
H8    2    0.285722    0.059221    0.883606    11.00000   -1.20000
AFIX   0
C9    1    0.224115    0.052730    0.515296    11.00000    0.03413    0.03525 =
         0.05016   -0.02036    0.01311   -0.01438
C10   1    0.140413    0.149983    0.382869    11.00000    0.04065    0.04369 =
         0.04205   -0.02267    0.01301   -0.01900
C11   1    0.054099    0.307157    0.349954    11.00000    0.03899    0.04286 =
         0.03514   -0.01886    0.00678   -0.01408
C12   1   -0.021826    0.383638    0.217781    11.00000    0.06251    0.04714 =
         0.04051   -0.01970    0.00102   -0.01207
AFIX  43
H12   2   -0.078515    0.483871    0.192930    11.00000   -1.20000
AFIX   0
C13   1   -0.012938    0.311265    0.124680    11.00000    0.06676    0.06677 =
         0.03782   -0.02589    0.00519   -0.02654
AFIX  43
H13   2   -0.064757    0.364197    0.038680    11.00000   -1.20000
AFIX   0
C14   1    0.072734    0.159233    0.156921    11.00000    0.07684    0.07248 =
         0.04965   -0.04032    0.01489   -0.03066
AFIX  43
H14   2    0.078031    0.113010    0.092774    11.00000   -1.20000
AFIX   0
C15   1    0.147631    0.081160    0.283610    11.00000    0.06679    0.04959 =
         0.05924   -0.03328    0.01114   -0.01556
AFIX  43
H15   2    0.204332   -0.018800    0.305225    11.00000   -1.20000
AFIX   0
N1    3    0.222280    0.090781    0.623472    11.00000    0.04055    0.03671 =
         0.04027   -0.01256    0.00605   -0.00843
O1    4    0.038213    0.387555    0.433549    11.00000    0.06964    0.03783 =
         0.03647   -0.01855   -0.00406   -0.00340
S1    5    0.343092   -0.137404    0.539346    11.00000    0.05351    0.03816 =
         0.07041   -0.02737    0.01016   -0.00650
IN1   6    0.108583    0.335526    0.641709    11.00000    0.03879    0.03875 =
         0.03290   -0.01445    0.00141   -0.00776
HKLF    4
 
REM  SK-07
REM R1 =  0.0265 for   2721 Fo > 4sig(Fo)  and  0.0408 for all   3263 data
REM    174 parameters refined using      0 restraints
 
END
 
WGHT      0.0292      0.0337
REM Highest difference peak  0.436,  deepest hole -0.327,  1-sigma level  0.075
Q1    1   0.1013  0.4336  0.5989  11.00000  0.05    0.44
Q2    1   0.0961  0.2361  0.6709  11.00000  0.05    0.38
Q3    1   0.4660  0.2849  0.6406  11.00000  0.05    0.33
Q4    1   0.1376  0.2299  0.3685  11.00000  0.05    0.33
Q5    1   0.4499  0.3246  0.8448  11.00000  0.05    0.31
Q6    1   0.4781 -0.2143  0.7452  11.00000  0.05    0.31
Q7    1   0.4786  0.4270  0.3852  11.00000  0.05    0.28
Q8    1   0.1330  0.1179  0.4380  11.00000  0.05    0.27
Q9    1  -0.1361  0.1758  0.7696  11.00000  0.05    0.26
Q10   1  -0.2161  0.3926  0.7144  11.00000  0.05    0.26
Q11   1  -0.1637  0.4703  0.7360  11.00000  0.05    0.26
Q12   1   0.4044  0.3575  0.7398  11.00000  0.05    0.26
Q13   1   0.2895 -0.0370  0.5160  11.00000  0.05    0.26
Q14   1   0.1455 -0.2070  0.5754  11.00000  0.05    0.26
Q15   1   0.4954 -0.0257  0.7627  11.00000  0.05    0.26
Q16   1   0.3524 -0.1011  0.9378  11.00000  0.05    0.25
Q17   1   0.2939 -0.0511  0.8000  11.00000  0.05    0.25
Q18   1   0.3617 -0.0170  0.7813  11.00000  0.05    0.25
Q19   1   0.2924 -0.0280  0.2612  11.00000  0.05    0.25
Q20   1   0.3429  0.1067  0.8402  11.00000  0.05    0.24
Q21   1   0.2522 -0.1997  0.4819  11.00000  0.05    0.24
Q22   1   0.3782 -0.0986  0.7238  11.00000  0.05    0.24
Q23   1   0.3661  0.5612  0.5997  11.00000  0.05    0.24
Q24   1   0.1840 -0.2317  0.7385  11.00000  0.05    0.23
Q25   1   0.1699 -0.1100  0.6438  11.00000  0.05    0.23
;
_cod_data_source_file            om300855x_si_002.cif
_cod_data_source_block           '[Me2In(m-hbt)]2'
_cod_database_code               4079815
loop_
_symmetry_equiv_pos_as_xyz
'x, y, z'
'-x, -y, -z'
loop_
_atom_site_label
_atom_site_type_symbol
_atom_site_fract_x
_atom_site_fract_y
_atom_site_fract_z
_atom_site_U_iso_or_equiv
_atom_site_adp_type
_atom_site_occupancy
_atom_site_symmetry_multiplicity
_atom_site_calc_flag
_atom_site_refinement_flags
C1 C 0.3653(5) 0.3765(5) 0.6545(4) 0.0621(10) Uani 1 1 d .
H1A H 0.4152 0.3988 0.5670 0.093 Uiso 1 1 calc R
H1B H 0.4457 0.2907 0.7157 0.093 Uiso 1 1 calc R
H1C H 0.3500 0.4582 0.6865 0.093 Uiso 1 1 calc R
C2 C -0.1177(5) 0.2921(4) 0.7589(4) 0.0569(9) Uani 1 1 d .
H2A H -0.2130 0.2965 0.7010 0.085 Uiso 1 1 calc R
H2B H -0.1596 0.3644 0.8029 0.085 Uiso 1 1 calc R
H2C H -0.0819 0.1959 0.8253 0.085 Uiso 1 1 calc R
C3 C 0.3149(4) -0.0305(4) 0.7334(3) 0.0433(7) Uani 1 1 d .
C4 C 0.3915(4) -0.1653(4) 0.7058(4) 0.0487(8) Uani 1 1 d .
C5 C 0.4896(5) -0.2952(4) 0.8044(5) 0.0639(11) Uani 1 1 d .
H5 H 0.5409 -0.3810 0.7843 0.077 Uiso 1 1 calc R
C6 C 0.5054(5) -0.2889(4) 0.9302(5) 0.0721(12) Uani 1 1 d .
H6 H 0.5681 -0.3728 0.9979 0.086 Uiso 1 1 calc R
C7 C 0.4289(5) -0.1576(4) 0.9611(4) 0.0664(11) Uani 1 1 d .
H7 H 0.4419 -0.1582 1.0486 0.080 Uiso 1 1 calc R
C8 C 0.3339(5) -0.0266(4) 0.8628(4) 0.0554(9) Uani 1 1 d .
H8 H 0.2857 0.0592 0.8836 0.067 Uiso 1 1 calc R
C9 C 0.2241(4) 0.0527(3) 0.5153(3) 0.0376(7) Uani 1 1 d .
C10 C 0.1404(4) 0.1500(3) 0.3829(3) 0.0388(7) Uani 1 1 d .
C11 C 0.0541(4) 0.3072(3) 0.3500(3) 0.0370(6) Uani 1 1 d .
C12 C -0.0218(5) 0.3836(4) 0.2178(3) 0.0492(8) Uani 1 1 d .
H12 H -0.0785 0.4839 0.1929 0.059 Uiso 1 1 calc R
C13 C -0.0129(5) 0.3113(4) 0.1247(3) 0.0532(9) Uani 1 1 d .
H13 H -0.0648 0.3642 0.0387 0.064 Uiso 1 1 calc R
C14 C 0.0727(5) 0.1592(4) 0.1569(4) 0.0594(10) Uani 1 1 d .
H14 H 0.0780 0.1130 0.0928 0.071 Uiso 1 1 calc R
C15 C 0.1476(5) 0.0812(4) 0.2836(4) 0.0549(9) Uani 1 1 d .
H15 H 0.2043 -0.0188 0.3052 0.066 Uiso 1 1 calc R
N1 N 0.2223(3) 0.0908(3) 0.6235(3) 0.0398(6) Uani 1 1 d .
O1 O 0.0382(3) 0.3876(2) 0.4335(2) 0.0484(6) Uani 1 1 d .
S1 S 0.34309(12) -0.13740(9) 0.53935(10) 0.0531(2) Uani 1 1 d .
In1 In 0.10858(3) 0.33553(2) 0.64171(2) 0.03668(8) Uani 1 1 d .
loop_
_atom_site_aniso_label
_atom_site_aniso_U_11
_atom_site_aniso_U_22
_atom_site_aniso_U_33
_atom_site_aniso_U_23
_atom_site_aniso_U_13
_atom_site_aniso_U_12
C1 0.050(2) 0.076(3) 0.070(3) -0.031(2) 0.0051(18) -0.0234(19)
C2 0.055(2) 0.070(2) 0.057(2) -0.0320(19) 0.0169(17) -0.0215(19)
C3 0.0358(15) 0.0377(17) 0.0520(19) -0.0103(14) 0.0045(14) -0.0088(13)
C4 0.0394(17) 0.0381(18) 0.066(2) -0.0134(16) 0.0047(15) -0.0114(14)
C5 0.048(2) 0.038(2) 0.093(3) -0.010(2) 0.000(2) -0.0034(16)
C6 0.064(2) 0.050(2) 0.081(3) 0.008(2) -0.019(2) -0.013(2)
C7 0.068(3) 0.060(3) 0.058(2) -0.002(2) -0.0081(19) -0.017(2)
C8 0.058(2) 0.048(2) 0.052(2) -0.0097(17) 0.0000(17) -0.0095(17)
C9 0.0341(15) 0.0353(16) 0.0502(18) -0.0204(14) 0.0131(13) -0.0144(13)
C10 0.0407(16) 0.0437(17) 0.0420(17) -0.0227(14) 0.0130(13) -0.0190(14)
C11 0.0390(15) 0.0429(17) 0.0351(15) -0.0189(13) 0.0068(12) -0.0141(13)
C12 0.063(2) 0.0471(19) 0.0405(18) -0.0197(15) 0.0010(15) -0.0121(16)
C13 0.067(2) 0.067(2) 0.0378(18) -0.0259(17) 0.0052(16) -0.0265(19)
C14 0.077(3) 0.072(3) 0.050(2) -0.040(2) 0.0149(18) -0.031(2)
C15 0.067(2) 0.050(2) 0.059(2) -0.0333(18) 0.0111(18) -0.0156(18)
N1 0.0405(14) 0.0367(14) 0.0403(14) -0.0126(11) 0.0060(11) -0.0084(11)
O1 0.0696(15) 0.0378(12) 0.0365(12) -0.0185(10) -0.0041(11) -0.0034(11)
S1 0.0535(5) 0.0382(5) 0.0704(6) -0.0274(4) 0.0102(4) -0.0065(4)
In1 0.03879(12) 0.03875(13) 0.03290(12) -0.01445(9) 0.00141(8) -0.00776(9)
loop_
_atom_type_symbol
_atom_type_description
_atom_type_scat_dispersion_real
_atom_type_scat_dispersion_imag
_atom_type_scat_source
C C 0.0033 0.0016 'International Tables Vol C Tables 4.2.6.8 and 6.1.1.4'
H H 0.0000 0.0000 'International Tables Vol C Tables 4.2.6.8 and 6.1.1.4'
N N 0.0061 0.0033 'International Tables Vol C Tables 4.2.6.8 and 6.1.1.4'
O O 0.0106 0.0060 'International Tables Vol C Tables 4.2.6.8 and 6.1.1.4'
S S 0.1246 0.1234 'International Tables Vol C Tables 4.2.6.8 and 6.1.1.4'
In In -0.7276 1.3100 'International Tables Vol C Tables 4.2.6.8 and 6.1.1.4'
loop_
_geom_angle_atom_site_label_1
_geom_angle_atom_site_label_2
_geom_angle_atom_site_label_3
_geom_angle
_geom_angle_site_symmetry_3
In1 C1 H1A 109.5 .
In1 C1 H1B 109.5 .
H1A C1 H1B 109.5 .
In1 C1 H1C 109.5 .
H1A C1 H1C 109.5 .
H1B C1 H1C 109.5 .
In1 C2 H2A 109.5 .
In1 C2 H2B 109.5 .
H2A C2 H2B 109.5 .
In1 C2 H2C 109.5 .
H2A C2 H2C 109.5 .
H2B C2 H2C 109.5 .
C8 C3 N1 124.6(3) .
C8 C3 C4 119.4(3) .
N1 C3 C4 116.0(3) .
C5 C4 C3 122.7(4) .
C5 C4 S1 128.4(3) .
C3 C4 S1 108.9(2) .
C6 C5 C4 116.8(4) .
C6 C5 H5 121.6 .
C4 C5 H5 121.6 .
C5 C6 C7 121.8(4) .
C5 C6 H6 119.1 .
C7 C6 H6 119.1 .
C8 C7 C6 121.9(4) .
C8 C7 H7 119.1 .
C6 C7 H7 119.1 .
C3 C8 C7 117.4(4) .
C3 C8 H8 121.3 .
C7 C8 H8 121.3 .
N1 C9 C10 125.6(3) .
N1 C9 S1 114.3(2) .
C10 C9 S1 120.1(2) .
C15 C10 C11 120.1(3) .
C15 C10 C9 115.5(3) .
C11 C10 C9 124.4(3) .
O1 C11 C12 116.5(3) .
O1 C11 C10 126.6(3) .
C12 C11 C10 116.9(3) .
C13 C12 C11 120.9(3) .
C13 C12 H12 119.5 .
C11 C12 H12 119.5 .
C12 C13 C14 121.8(3) .
C12 C13 H13 119.1 .
C14 C13 H13 119.1 .
C15 C14 C13 119.1(3) .
C15 C14 H14 120.4 .
C13 C14 H14 120.4 .
C14 C15 C10 121.2(3) .
C14 C15 H15 119.4 .
C10 C15 H15 119.4 .
C9 N1 C3 110.6(3) .
C9 N1 In1 127.8(2) .
C3 N1 In1 121.4(2) .
C11 O1 In1 134.13(19) .
C11 O1 In1 122.85(18) 2_566
In1 O1 In1 103.01(8) 2_566
C4 S1 C9 90.29(16) .
O1 In1 C2 108.90(12) .
O1 In1 C1 108.13(13) .
C2 In1 C1 142.12(15) .
O1 In1 N1 81.13(9) .
C2 In1 N1 96.02(12) .
C1 In1 N1 97.24(13) .
O1 In1 O1 76.99(8) 2_566
C2 In1 O1 91.50(12) 2_566
C1 In1 O1 89.17(13) 2_566
N1 In1 O1 158.12(8) 2_566
loop_
_geom_bond_atom_site_label_1
_geom_bond_atom_site_label_2
_geom_bond_distance
_geom_bond_site_symmetry_2
C1 In1 2.144(3) .
C1 H1A 0.9600 .
C1 H1B 0.9600 .
C1 H1C 0.9600 .
C2 In1 2.143(3) .
C2 H2A 0.9600 .
C2 H2B 0.9600 .
C2 H2C 0.9600 .
C3 C8 1.393(5) .
C3 N1 1.417(4) .
C3 C4 1.435(4) .
C4 C5 1.412(5) .
C4 S1 1.726(4) .
C5 C6 1.360(6) .
C5 H5 0.9300 .
C6 C7 1.421(6) .
C6 H6 0.9300 .
C7 C8 1.408(5) .
C7 H7 0.9300 .
C8 H8 0.9300 .
C9 N1 1.313(4) .
C9 C10 1.470(4) .
C9 S1 1.811(3) .
C10 C15 1.421(4) .
C10 C11 1.459(4) .
C11 O1 1.356(3) .
C11 C12 1.414(4) .
C12 C13 1.387(4) .
C12 H12 0.9300 .
C13 C14 1.414(5) .
C13 H13 0.9300 .
C14 C15 1.367(5) .
C14 H14 0.9300 .
C15 H15 0.9300 .
N1 In1 2.434(3) .
O1 In1 2.141(2) .
O1 In1 2.553(2) 2_566
In1 O1 2.553(2) 2_566
loop_
_geom_torsion_atom_site_label_1
_geom_torsion_atom_site_label_2
_geom_torsion_atom_site_label_3
_geom_torsion_atom_site_label_4
_geom_torsion
_geom_torsion_site_symmetry_1
_geom_torsion_site_symmetry_4
C8 C3 C4 C5 -1.3(5) . .
N1 C3 C4 C5 179.2(3) . .
C8 C3 C4 S1 178.9(3) . .
N1 C3 C4 S1 -0.6(3) . .
C3 C4 C5 C6 1.6(5) . .
S1 C4 C5 C6 -178.6(3) . .
C4 C5 C6 C7 -0.7(6) . .
C5 C6 C7 C8 -0.6(6) . .
N1 C3 C8 C7 179.4(3) . .
C4 C3 C8 C7 0.0(5) . .
C6 C7 C8 C3 0.9(6) . .
N1 C9 C10 C15 -175.2(3) . .
S1 C9 C10 C15 5.0(4) . .
N1 C9 C10 C11 4.9(5) . .
S1 C9 C10 C11 -174.9(2) . .
C15 C10 C11 O1 -179.5(3) . .
C9 C10 C11 O1 0.4(5) . .
C15 C10 C11 C12 0.9(4) . .
C9 C10 C11 C12 -179.2(3) . .
O1 C11 C12 C13 -179.9(3) . .
C10 C11 C12 C13 -0.3(5) . .
C11 C12 C13 C14 -0.4(5) . .
C12 C13 C14 C15 0.5(6) . .
C13 C14 C15 C10 0.1(6) . .
C11 C10 C15 C14 -0.8(5) . .
C9 C10 C15 C14 179.2(3) . .
C10 C9 N1 C3 179.7(3) . .
S1 C9 N1 C3 -0.5(3) . .
C10 C9 N1 In1 -6.3(4) . .
S1 C9 N1 In1 173.49(12) . .
C8 C3 N1 C9 -178.8(3) . .
C4 C3 N1 C9 0.7(4) . .
C8 C3 N1 In1 6.8(4) . .
C4 C3 N1 In1 -173.7(2) . .
C12 C11 O1 In1 175.8(2) . .
C10 C11 O1 In1 -3.7(5) . .
C12 C11 O1 In1 -2.4(4) . 2_566
C10 C11 O1 In1 178.0(2) . 2_566
C5 C4 S1 C9 -179.6(3) . .
C3 C4 S1 C9 0.2(2) . .
N1 C9 S1 C4 0.2(2) . .
C10 C9 S1 C4 180.0(2) . .
C11 O1 In1 C2 -91.4(3) . .
In1 O1 In1 C2 87.10(14) 2_566 .
C11 O1 In1 C1 96.8(3) . .
In1 O1 In1 C1 -84.76(14) 2_566 .
C11 O1 In1 N1 2.0(3) . .
In1 O1 In1 N1 -179.53(10) 2_566 .
C11 O1 In1 O1 -178.5(3) . 2_566
In1 O1 In1 O1 0.0 2_566 2_566
C9 N1 In1 O1 2.9(2) . .
C3 N1 In1 O1 176.3(2) . .
C9 N1 In1 C2 111.2(3) . .
C3 N1 In1 C2 -75.4(2) . .
C9 N1 In1 C1 -104.4(3) . .
C3 N1 In1 C1 69.0(2) . .
C9 N1 In1 O1 1.7(4) . 2_566
C3 N1 In1 O1 175.1(2) . 2_566
