#------------------------------------------------------------------------------
#$Date: 2016-03-21 14:21:25 +0200 (Mon, 21 Mar 2016) $
#$Revision: 178714 $
#$URL: svn://www.crystallography.net/cod/cif/4/08/25/4082503.cif $
#------------------------------------------------------------------------------
#
# This file is available in the Crystallography Open Database (COD),
# http://www.crystallography.net/
#
# All data on this site have been placed in the public domain by the
# contributors.
#
data_4082503
loop_
_publ_author_name
'Lister, Julia M.'
'Carreira, Monica'
'Haddow, Mairi F.'
'Hamilton, Alex'
'McMullin, Claire L.'
'Orpen, A. Guy'
'Pringle, Paul G.'
'Stennett, Tom E.'
_publ_section_title
;
 Unexpectedly High Barriers to M--P Rotation in Tertiary Phobane
 Complexes: PhobPR Behavior That Is Commensurate withtBu2PR
;
_journal_issue                   3
_journal_name_full               Organometallics
_journal_page_first              702
_journal_paper_doi               10.1021/om400980e
_journal_volume                  33
_journal_year                    2014
_chemical_formula_moiety         'C12 H23 P Se'
_chemical_formula_sum            'C12 H23 P Se'
_chemical_formula_weight         277.23
_chemical_name_systematic
; 
 ? 
;
_space_group_IT_number           2
_symmetry_cell_setting           triclinic
_symmetry_space_group_name_Hall  '-P 1'
_symmetry_space_group_name_H-M   'P -1'
_atom_sites_solution_hydrogens   geom
_atom_sites_solution_primary     direct
_atom_sites_solution_secondary   difmap
_audit_creation_method           SHELXL-97
_cell_angle_alpha                111.174(1)
_cell_angle_beta                 93.095(1)
_cell_angle_gamma                92.187(1)
_cell_formula_units_Z            2
_cell_length_a                   7.3002(2)
_cell_length_b                   9.1583(2)
_cell_length_c                   10.1355(2)
_cell_measurement_reflns_used    9989
_cell_measurement_temperature    100(2)
_cell_measurement_theta_max      27.56
_cell_measurement_theta_min      3.41
_cell_volume                     629.75(3)
_computing_cell_refinement       'Bruker Apex II'
_computing_data_collection       'Bruker Apex II'
_computing_data_reduction        'Bruker SAINT'
_computing_molecular_graphics    'Bruker ShelXTL'
_computing_publication_material  'Bruker ShelXTL'
_computing_structure_refinement  'SHELXL-97 (Sheldrick, 2008)'
_computing_structure_solution    'SHELXS-97 (Sheldrick, 2008)'
_diffrn_ambient_temperature      100(2)
_diffrn_measured_fraction_theta_full 0.990
_diffrn_measured_fraction_theta_max 0.990
_diffrn_measurement_device_type  'Bruker Apex II kappa CCD area detector'
_diffrn_measurement_method       'phi and omega scans'
_diffrn_radiation_monochromator  graphite
_diffrn_radiation_source         'fine-focus sealed tube'
_diffrn_radiation_type           MoK\a
_diffrn_radiation_wavelength     0.71073
_diffrn_reflns_av_R_equivalents  0.0209
_diffrn_reflns_av_sigmaI/netI    0.0136
_diffrn_reflns_limit_h_max       9
_diffrn_reflns_limit_h_min       -9
_diffrn_reflns_limit_k_max       11
_diffrn_reflns_limit_k_min       -11
_diffrn_reflns_limit_l_max       13
_diffrn_reflns_limit_l_min       -13
_diffrn_reflns_number            18811
_diffrn_reflns_theta_full        27.63
_diffrn_reflns_theta_max         27.63
_diffrn_reflns_theta_min         2.57
_exptl_absorpt_coefficient_mu    3.072
_exptl_absorpt_correction_T_max  0.7456
_exptl_absorpt_correction_T_min  0.6049
_exptl_absorpt_correction_type   multi-scan
_exptl_absorpt_process_details   'SADABS V2008/1'
_exptl_crystal_colour            colourless
_exptl_crystal_density_diffrn    1.462
_exptl_crystal_density_meas      x
_exptl_crystal_density_method    'not measured'
_exptl_crystal_description       block
_exptl_crystal_F_000             288
_exptl_crystal_size_max          0.24
_exptl_crystal_size_mid          0.18
_exptl_crystal_size_min          0.18
_refine_diff_density_max         0.596
_refine_diff_density_min         -0.378
_refine_diff_density_rms         0.069
_refine_ls_extinction_method     none
_refine_ls_goodness_of_fit_ref   1.164
_refine_ls_hydrogen_treatment    constr
_refine_ls_matrix_type           full
_refine_ls_number_parameters     128
_refine_ls_number_reflns         2897
_refine_ls_number_restraints     0
_refine_ls_restrained_S_all      1.164
_refine_ls_R_factor_all          0.0246
_refine_ls_R_factor_gt           0.0228
_refine_ls_shift/su_max          0.001
_refine_ls_shift/su_mean         0.000
_refine_ls_structure_factor_coef Fsqd
_refine_ls_weighting_details
'calc w=1/[\s^2^(Fo^2^)+(0.0211P)^2^+0.7742P] where P=(Fo^2^+2Fc^2^)/3'
_refine_ls_weighting_scheme      calc
_refine_ls_wR_factor_gt          0.0600
_refine_ls_wR_factor_ref         0.0610
_reflns_number_gt                2761
_reflns_number_total             2897
_reflns_threshold_expression     >2sigma(I)
_cod_data_source_file            om400980e_si_002.cif
_cod_data_source_block           a7-PhobPSenBu
_cod_original_sg_symbol_H-M      P-1
_cod_database_code               4082503
loop_
_symmetry_equiv_pos_as_xyz
'x, y, z'
'-x, -y, -z'
loop_
_atom_site_label
_atom_site_type_symbol
_atom_site_fract_x
_atom_site_fract_y
_atom_site_fract_z
_atom_site_U_iso_or_equiv
_atom_site_adp_type
_atom_site_occupancy
_atom_site_symmetry_multiplicity
_atom_site_calc_flag
_atom_site_refinement_flags
Se1 Se -0.16005(3) -0.06463(2) 0.74629(2) 0.01890(7) Uani 1 1 d .
P1 P 0.11389(7) 0.03639(6) 0.79276(5) 0.01407(10) Uani 1 1 d .
C1 C 0.1295(3) 0.2324(2) 0.9321(2) 0.0175(4) Uani 1 1 d .
H1 H 0.0411 0.2320 1.0039 0.021 Uiso 1 1 calc R
C8 C 0.3196(3) 0.2919(2) 1.0105(2) 0.0193(4) Uani 1 1 d .
H8A H 0.3401 0.2373 1.0779 0.023 Uiso 1 1 calc R
H8B H 0.3131 0.4046 1.0679 0.023 Uiso 1 1 calc R
C7 C 0.4920(3) 0.2753(2) 0.9255(2) 0.0189(4) Uani 1 1 d .
H7A H 0.5882 0.3534 0.9862 0.023 Uiso 1 1 calc R
H7B H 0.5372 0.1702 0.9099 0.023 Uiso 1 1 calc R
C6 C 0.4754(3) 0.2947(2) 0.7819(2) 0.0189(4) Uani 1 1 d .
H6A H 0.5995 0.3208 0.7588 0.023 Uiso 1 1 calc R
H6B H 0.4000 0.3849 0.7906 0.023 Uiso 1 1 calc R
C5 C 0.3905(3) 0.1515(2) 0.6585(2) 0.0172(4) Uani 1 1 d .
H5A H 0.4581 0.0595 0.6576 0.021 Uiso 1 1 calc R
H5B H 0.4126 0.1682 0.5693 0.021 Uiso 1 1 calc R
C4 C 0.1847(3) 0.1092(2) 0.65595(19) 0.0148(4) Uani 1 1 d .
H4 H 0.1429 0.0300 0.5605 0.018 Uiso 1 1 calc R
C3 C 0.0667(3) 0.2528(2) 0.6869(2) 0.0193(4) Uani 1 1 d .
H3A H -0.0581 0.2185 0.6395 0.023 Uiso 1 1 calc R
H3B H 0.1226 0.3279 0.6485 0.023 Uiso 1 1 calc R
C2 C 0.0533(3) 0.3348(2) 0.8500(2) 0.0205(4) Uani 1 1 d .
H2A H 0.1240 0.4375 0.8838 0.025 Uiso 1 1 calc R
H2B H -0.0767 0.3540 0.8699 0.025 Uiso 1 1 calc R
C9 C 0.2715(3) -0.0929(2) 0.8354(2) 0.0181(4) Uani 1 1 d .
H9A H 0.3992 -0.0538 0.8331 0.022 Uiso 1 1 calc R
H9B H 0.2548 -0.0873 0.9334 0.022 Uiso 1 1 calc R
C10 C 0.2459(3) -0.2646(2) 0.7353(2) 0.0197(4) Uani 1 1 d .
H10A H 0.3120 -0.3302 0.7788 0.024 Uiso 1 1 calc R
H10B H 0.1136 -0.2984 0.7235 0.024 Uiso 1 1 calc R
C11 C 0.3158(3) -0.2923(2) 0.5893(2) 0.0204(4) Uani 1 1 d .
H11A H 0.2588 -0.2192 0.5498 0.024 Uiso 1 1 calc R
H11B H 0.4504 -0.2684 0.6001 0.024 Uiso 1 1 calc R
C12 C 0.2739(3) -0.4598(3) 0.4852(2) 0.0251(4) Uani 1 1 d .
H12A H 0.3220 -0.5333 0.5267 0.038 Uiso 1 1 calc R
H12B H 0.3320 -0.4737 0.3969 0.038 Uiso 1 1 calc R
H12C H 0.1406 -0.4802 0.4651 0.038 Uiso 1 1 calc R
loop_
_atom_site_aniso_label
_atom_site_aniso_U_11
_atom_site_aniso_U_22
_atom_site_aniso_U_33
_atom_site_aniso_U_23
_atom_site_aniso_U_13
_atom_site_aniso_U_12
Se1 0.01360(10) 0.02420(12) 0.01743(11) 0.00651(8) -0.00017(7) -0.00402(7)
P1 0.0132(2) 0.0169(2) 0.0118(2) 0.00525(18) -0.00020(17) -0.00147(18)
C1 0.0169(9) 0.0198(9) 0.0139(9) 0.0042(7) 0.0018(7) -0.0012(7)
C8 0.0207(10) 0.0204(10) 0.0147(9) 0.0049(8) -0.0014(7) -0.0031(8)
C7 0.0170(9) 0.0214(10) 0.0174(9) 0.0067(8) -0.0023(7) -0.0023(7)
C6 0.0164(9) 0.0208(10) 0.0187(9) 0.0068(8) 0.0009(7) -0.0027(7)
C5 0.0158(9) 0.0205(10) 0.0150(9) 0.0060(7) 0.0018(7) -0.0010(7)
C4 0.0154(9) 0.0177(9) 0.0110(8) 0.0054(7) -0.0016(7) -0.0006(7)
C3 0.0187(9) 0.0214(10) 0.0191(9) 0.0093(8) -0.0024(7) 0.0018(8)
C2 0.0192(10) 0.0191(10) 0.0209(10) 0.0043(8) 0.0006(8) 0.0038(8)
C9 0.0188(9) 0.0209(10) 0.0158(9) 0.0089(8) -0.0022(7) -0.0006(7)
C10 0.0205(10) 0.0188(10) 0.0216(10) 0.0096(8) 0.0012(8) 0.0003(8)
C11 0.0219(10) 0.0188(10) 0.0209(10) 0.0075(8) 0.0021(8) 0.0030(8)
C12 0.0228(10) 0.0228(11) 0.0265(11) 0.0050(9) 0.0038(8) 0.0008(8)
loop_
_atom_type_symbol
_atom_type_description
_atom_type_scat_dispersion_real
_atom_type_scat_dispersion_imag
_atom_type_scat_source
C C 0.0033 0.0016 'International Tables Vol C Tables 4.2.6.8 and 6.1.1.4'
H H 0.0000 0.0000 'International Tables Vol C Tables 4.2.6.8 and 6.1.1.4'
P P 0.1023 0.0942 'International Tables Vol C Tables 4.2.6.8 and 6.1.1.4'
Se Se -0.0929 2.2259 'International Tables Vol C Tables 4.2.6.8 and 6.1.1.4'
loop_
_geom_angle_atom_site_label_1
_geom_angle_atom_site_label_2
_geom_angle_atom_site_label_3
_geom_angle
C9 P1 C4 115.20(9)
C9 P1 C1 111.44(9)
C4 P1 C1 93.60(9)
C9 P1 Se1 111.78(7)
C4 P1 Se1 111.31(6)
C1 P1 Se1 112.31(7)
C8 C1 C2 114.12(17)
C8 C1 P1 116.47(14)
C2 C1 P1 101.86(13)
C8 C1 H1 108.0
C2 C1 H1 108.0
P1 C1 H1 108.0
C1 C8 C7 119.93(16)
C1 C8 H8A 107.3
C7 C8 H8A 107.3
C1 C8 H8B 107.3
C7 C8 H8B 107.3
H8A C8 H8B 106.9
C6 C7 C8 118.68(17)
C6 C7 H7A 107.6
C8 C7 H7A 107.6
C6 C7 H7B 107.6
C8 C7 H7B 107.6
H7A C7 H7B 107.1
C7 C6 C5 115.20(17)
C7 C6 H6A 108.5
C5 C6 H6A 108.5
C7 C6 H6B 108.5
C5 C6 H6B 108.5
H6A C6 H6B 107.5
C6 C5 C4 117.90(16)
C6 C5 H5A 107.8
C4 C5 H5A 107.8
C6 C5 H5B 107.8
C4 C5 H5B 107.8
H5A C5 H5B 107.2
C5 C4 C3 112.86(16)
C5 C4 P1 116.48(13)
C3 C4 P1 100.23(13)
C5 C4 H4 108.9
C3 C4 H4 108.9
P1 C4 H4 108.9
C4 C3 C2 110.08(15)
C4 C3 H3A 109.6
C2 C3 H3A 109.6
C4 C3 H3B 109.6
C2 C3 H3B 109.6
H3A C3 H3B 108.2
C1 C2 C3 111.37(16)
C1 C2 H2A 109.4
C3 C2 H2A 109.4
C1 C2 H2B 109.4
C3 C2 H2B 109.4
H2A C2 H2B 108.0
C10 C9 P1 114.26(14)
C10 C9 H9A 108.7
P1 C9 H9A 108.7
C10 C9 H9B 108.7
P1 C9 H9B 108.7
H9A C9 H9B 107.6
C11 C10 C9 112.99(17)
C11 C10 H10A 109.0
C9 C10 H10A 109.0
C11 C10 H10B 109.0
C9 C10 H10B 109.0
H10A C10 H10B 107.8
C12 C11 C10 112.99(17)
C12 C11 H11A 109.0
C10 C11 H11A 109.0
C12 C11 H11B 109.0
C10 C11 H11B 109.0
H11A C11 H11B 107.8
C11 C12 H12A 109.5
C11 C12 H12B 109.5
H12A C12 H12B 109.5
C11 C12 H12C 109.5
H12A C12 H12C 109.5
H12B C12 H12C 109.5
loop_
_geom_bond_atom_site_label_1
_geom_bond_atom_site_label_2
_geom_bond_distance
Se1 P1 2.1259(5)
P1 C9 1.825(2)
P1 C4 1.8317(19)
P1 C1 1.835(2)
C1 C8 1.537(3)
C1 C2 1.560(3)
C1 H1 1.0000
C8 C7 1.545(3)
C8 H8A 0.9900
C8 H8B 0.9900
C7 C6 1.528(3)
C7 H7A 0.9900
C7 H7B 0.9900
C6 C5 1.529(3)
C6 H6A 0.9900
C6 H6B 0.9900
C5 C4 1.533(3)
C5 H5A 0.9900
C5 H5B 0.9900
C4 C3 1.545(3)
C4 H4 1.0000
C3 C2 1.560(3)
C3 H3A 0.9900
C3 H3B 0.9900
C2 H2A 0.9900
C2 H2B 0.9900
C9 C10 1.531(3)
C9 H9A 0.9900
C9 H9B 0.9900
C10 C11 1.528(3)
C10 H10A 0.9900
C10 H10B 0.9900
C11 C12 1.523(3)
C11 H11A 0.9900
C11 H11B 0.9900
C12 H12A 0.9800
C12 H12B 0.9800
C12 H12C 0.9800
loop_
_geom_torsion_atom_site_label_1
_geom_torsion_atom_site_label_2
_geom_torsion_atom_site_label_3
_geom_torsion_atom_site_label_4
_geom_torsion
C9 P1 C1 C8 32.86(17)
C4 P1 C1 C8 -86.03(15)
Se1 P1 C1 C8 159.17(12)
C9 P1 C1 C2 157.67(12)
C4 P1 C1 C2 38.79(14)
Se1 P1 C1 C2 -76.01(13)
C2 C1 C8 C7 -71.9(2)
P1 C1 C8 C7 46.4(2)
C1 C8 C7 C6 35.8(3)
C8 C7 C6 C5 -79.3(2)
C7 C6 C5 C4 70.4(2)
C6 C5 C4 C3 46.3(2)
C6 C5 C4 P1 -68.9(2)
C9 P1 C4 C5 -38.36(17)
C1 P1 C4 C5 77.39(15)
Se1 P1 C4 C5 -166.96(12)
C9 P1 C4 C3 -160.44(12)
C1 P1 C4 C3 -44.69(13)
Se1 P1 C4 C3 70.97(12)
C5 C4 C3 C2 -87.4(2)
P1 C4 C3 C2 37.16(18)
C8 C1 C2 C3 105.14(19)
P1 C1 C2 C3 -21.23(19)
C4 C3 C2 C1 -10.7(2)
C4 P1 C9 C10 -83.59(16)
C1 P1 C9 C10 171.38(14)
Se1 P1 C9 C10 44.77(16)
P1 C9 C10 C11 73.2(2)
C9 C10 C11 C12 -174.49(17)
