#------------------------------------------------------------------------------
#$Date: 2016-03-21 14:51:05 +0200 (Mon, 21 Mar 2016) $
#$Revision: 178726 $
#$URL: svn://www.crystallography.net/cod/cif/4/08/37/4083773.cif $
#------------------------------------------------------------------------------
#
# This file is available in the Crystallography Open Database (COD),
# http://www.crystallography.net/
#
# All data on this site have been placed in the public domain by the
# contributors.
#
data_4083773
loop_
_publ_author_name
'Samigullin, Kamil'
'Bolte, Michael'
'Lerner, Hans-Wolfram'
'Wagner, Matthias'
_publ_section_title
;
 Facile Synthesis of (3,5-(CF3)2C6H3)2BX (X = H, OMe, F, Cl, Br):
 Reagents for the Introduction of a Strong Boryl Acceptor Unit
;
_journal_name_full               Organometallics
_journal_page_first              140626134355006
_journal_paper_doi               10.1021/om500476d
_journal_year                    2014
_chemical_formula_moiety         'C16 H6 B Cl F12'
_chemical_formula_sum            'C16 H6 B Cl F12'
_chemical_formula_weight         472.47
_chemical_name_systematic        ?
_space_group_crystal_system      triclinic
_space_group_IT_number           2
_space_group_name_Hall           '-P 1'
_space_group_name_H-M_alt        'P -1'
_symmetry_space_group_name_Hall  '-P 1'
_symmetry_space_group_name_H-M   'P -1'
_atom_sites_solution_hydrogens   geom
_audit_creation_method           SHELXL-97
_cell_angle_alpha                106.576(9)
_cell_angle_beta                 97.390(10)
_cell_angle_gamma                107.870(9)
_cell_formula_units_Z            2
_cell_length_a                   8.0642(10)
_cell_length_b                   9.4069(10)
_cell_length_c                   12.8246(15)
_cell_measurement_reflns_used    19194
_cell_measurement_temperature    173(2)
_cell_measurement_theta_max      26.2
_cell_measurement_theta_min      3.3
_cell_volume                     862.17(19)
_computing_cell_refinement       'X-Area (Stoe & Cie, 2001)'
_computing_data_collection       'X-Area (Stoe & Cie, 2001)'
_computing_data_reduction        'X-Area (Stoe & Cie, 2001)'
_computing_molecular_graphics    'XP in SHELXTL-Plus (Sheldrick, 2008)'
_computing_publication_material  SHELXL97
_computing_structure_refinement  'SHELXL (Sheldrick, 2008)'
_computing_structure_solution    'SHELXS (Sheldrick, 2008)'
_diffrn_ambient_temperature      173(2)
_diffrn_measured_fraction_theta_full 0.995
_diffrn_measured_fraction_theta_max 0.978
_diffrn_measurement_device_type  'STOE IPDS II two-circle-diffractometer'
_diffrn_measurement_method       \w
_diffrn_radiation_type           MoK\a
_diffrn_radiation_wavelength     0.71073
_diffrn_reflns_av_R_equivalents  0.0749
_diffrn_reflns_av_unetI/netI     0.0519
_diffrn_reflns_Laue_measured_fraction_full 0.995
_diffrn_reflns_Laue_measured_fraction_max 0.978
_diffrn_reflns_limit_h_max       9
_diffrn_reflns_limit_h_min       -8
_diffrn_reflns_limit_k_max       11
_diffrn_reflns_limit_k_min       -11
_diffrn_reflns_limit_l_max       15
_diffrn_reflns_limit_l_min       -15
_diffrn_reflns_number            10041
_diffrn_reflns_point_group_measured_fraction_full 0.995
_diffrn_reflns_point_group_measured_fraction_max 0.978
_diffrn_reflns_theta_full        25.000
_diffrn_reflns_theta_max         26.001
_diffrn_reflns_theta_min         3.290
_diffrn_source                   'Genix 3D I\mS microfocus X-ray source'
_exptl_absorpt_coefficient_mu    0.346
_exptl_absorpt_correction_T_max  0.937
_exptl_absorpt_correction_T_min  0.922
_exptl_absorpt_correction_type   multi-scan
_exptl_absorpt_process_details   'X-Area (Stoe & Cie, 2001)'
_exptl_crystal_colour            colourless
_exptl_crystal_density_diffrn    1.820
_exptl_crystal_description       block
_exptl_crystal_F_000             464
_exptl_crystal_size_max          0.240
_exptl_crystal_size_mid          0.230
_exptl_crystal_size_min          0.190
_refine_diff_density_max         0.836
_refine_diff_density_min         -0.547
_refine_diff_density_rms         0.082
_refine_ls_extinction_method     none
_refine_ls_goodness_of_fit_ref   1.082
_refine_ls_hydrogen_treatment    constr
_refine_ls_matrix_type           full
_refine_ls_number_parameters     271
_refine_ls_number_reflns         3310
_refine_ls_number_restraints     0
_refine_ls_restrained_S_all      1.082
_refine_ls_R_factor_all          0.0807
_refine_ls_R_factor_gt           0.0714
_refine_ls_shift/su_max          0.000
_refine_ls_shift/su_mean         0.000
_refine_ls_structure_factor_coef Fsqd
_refine_ls_weighting_details
'w=1/[\s^2^(Fo^2^)+(0.1058P)^2^+1.0894P] where P=(Fo^2^+2Fc^2^)/3'
_refine_ls_weighting_scheme      calc
_refine_ls_wR_factor_gt          0.2008
_refine_ls_wR_factor_ref         0.2086
_reflns_Friedel_coverage         0.000
_reflns_number_gt                2785
_reflns_number_total             3310
_reflns_threshold_expression     'I > 2\s(I)'
_cod_data_source_file            om500476d_si_002.cif
_cod_data_source_block           wa1742
_cod_original_cell_volume        862.17(18)
_cod_database_code               4083773
#BEGIN Tags that were not found in dictionaries:
_shelx_space_group_comment
; 
The symmetry employed for this shelxl refinement is uniquely defined 
by the following loop, which should always be used as a source of 
symmetry information in preference to the above space-group names. 
They are only intended as comments. 
;
_shelx_estimated_absorpt_t_min   0.922
_shelx_estimated_absorpt_t_max   0.937
_shelxl_version_number           2013-3
_shelx_res_file
; 
TITL wa1742 in P-1 
CELL 0.71073    8.0642   9.4069  12.8246 106.576  97.390 107.870 
ZERR    2.00    0.0010   0.0010   0.0015   0.009   0.010   0.009 
LATT 1 
SFAC C  H  B CL F 
UNIT 32 12 2 2  24 
TEMP-100 
SIZE.24 .23 .19 
REM colourless block 
L.S. 10 
BOND$H 
CONF 
ACTA50 
FMAP 2 
PLAN 10 
WGHT    0.105800    1.089400 
FVAR       0.87711 
B1    3    0.497862    0.241472    0.750922    11.00000    0.04336    0.04158 = 
         0.03668    0.00765    0.00659    0.01802 
CL1   4    0.594030    0.138235    0.820057    11.00000    0.05414    0.04294 = 
         0.03707    0.00751    0.00363    0.02410 
C1    1    0.385364    0.147875    0.626878    11.00000    0.04042    0.03620 = 
         0.03463    0.00421    0.00720    0.01675 
C2    1    0.364474    0.228394    0.553182    11.00000    0.04303    0.03381 = 
         0.04032    0.00692    0.00967    0.01834 
AFIX  43 
H2    2    0.415630    0.341246    0.578716    11.00000   -1.20000 
AFIX   0 
C3    1    0.268500    0.144108    0.441597    11.00000    0.04404    0.03900 = 
         0.03375    0.00641    0.00733    0.02024 
C4    1    0.193704   -0.021734    0.402909    11.00000    0.04558    0.04032 = 
         0.03226    0.00257    0.00404    0.01844 
AFIX  43 
H4    2    0.127145   -0.079138    0.327661    11.00000   -1.20000 
AFIX   0 
C5    1    0.218058   -0.101562    0.476087    11.00000    0.04242    0.03872 = 
         0.03671    0.00471    0.00695    0.01883 
C6    1    0.311625   -0.019364    0.586569    11.00000    0.04597    0.03737 = 
         0.03351    0.00725    0.00736    0.01960 
AFIX  43 
H6    2    0.326105   -0.076204    0.635413    11.00000   -1.20000 
AFIX   0 
C7    1    0.246279    0.230445    0.362373    11.00000    0.06651    0.04233 = 
         0.03699    0.00749    0.00652    0.02420 
C8    1    0.139043   -0.281310    0.433687    11.00000    0.04644    0.03693 = 
         0.03516    0.00365    0.00405    0.01672 
C11   1    0.531670    0.418777    0.818720    11.00000    0.04562    0.03704 = 
         0.03187    0.00612    0.00684    0.01473 
C12   1    0.406354    0.486801    0.798696    11.00000    0.04459    0.03665 = 
         0.03147    0.00655    0.00274    0.01569 
AFIX  43 
H12   2    0.300311    0.425985    0.740919    11.00000   -1.20000 
AFIX   0 
C13   1    0.433612    0.644215    0.862452    11.00000    0.04990    0.03646 = 
         0.02999    0.00711    0.00765    0.01898 
C14   1    0.588968    0.736295    0.945798    11.00000    0.05070    0.03429 = 
         0.03420    0.00571    0.00822    0.01446 
AFIX  43 
H14   2    0.608986    0.843581    0.987848    11.00000   -1.20000 
AFIX   0 
C15   1    0.714792    0.668497    0.966582    11.00000    0.04732    0.04043 = 
         0.03450    0.00623    0.00837    0.01415 
C16   1    0.686937    0.512132    0.904531    11.00000    0.04501    0.04038 = 
         0.03350    0.00563    0.00457    0.01747 
AFIX  43 
H16   2    0.774217    0.467804    0.920419    11.00000   -1.20000 
AFIX   0 
C17   1    0.289626    0.708343    0.840344    11.00000    0.05912    0.03996 = 
         0.04034    0.00643    0.00700    0.02248 
C18   1    0.881997    0.766826    1.057752    11.00000    0.05141    0.04386 = 
         0.04235    0.00452    0.00375    0.01352 
F71   5    0.334427    0.380539    0.401901    11.00000    0.19782    0.05105 = 
         0.07468    0.02835   -0.03615    0.00805 
F72   5    0.077477    0.223551    0.336992    11.00000    0.10505    0.19430 = 
         0.14093    0.11903    0.03676    0.08656 
F73   5    0.268064    0.165511    0.263986    11.00000    0.23852    0.10879 = 
         0.06165    0.04814    0.07174    0.11492 
F81   5   -0.036861   -0.337673    0.420505    11.00000    0.04803    0.04761 = 
         0.09466    0.00468    0.01503    0.01056 
F82   5    0.207563   -0.344582    0.499160    11.00000    0.09944    0.03967 = 
         0.06163    0.00792   -0.01343    0.02521 
F83   5    0.169443   -0.342981    0.332927    11.00000    0.09438    0.04293 = 
         0.04893   -0.00142    0.02534    0.01668 
F171  5    0.332810    0.860329    0.904844    11.00000    0.07015    0.03895 = 
         0.06477    0.00090    0.00019    0.02824 
F172  5    0.136382    0.627925    0.858348    11.00000    0.05284    0.05701 = 
         0.11296    0.02820    0.02207    0.02722 
F173  5    0.253623    0.703249    0.734806    11.00000    0.10824    0.09510 = 
         0.04298    0.01807    0.00352    0.06714 
F181  5    0.850151    0.860458    1.146830    11.00000    0.06283    0.09853 = 
         0.05057   -0.03063   -0.00684    0.02493 
F182  5    0.957399    0.678985    1.096783    11.00000    0.07041    0.05882 = 
         0.07176    0.01657   -0.02500    0.01158 
F183  5    1.007980    0.862561    1.025518    11.00000    0.05713    0.06574 = 
         0.07238    0.02262   -0.00107   -0.00110 
HKLF 4 
  
REM  wa1742 in P-1 
REM R1 =  0.0714 for    2785 Fo > 4sig(Fo)  and  0.0807 for all    3310 data 
REM    271 parameters refined using      0 restraints 
  
END 
  
WGHT      0.1053      1.0977 
  
REM Highest difference peak  0.836,  deepest hole -0.547,  1-sigma level  0.082 
Q1    1   0.4298  0.2801  0.3401  11.00000  0.05    0.84 
Q2    1   0.1871  0.3296  0.3913  11.00000  0.05    0.63 
Q3    1   0.1304  0.1684  0.2811  11.00000  0.05    0.62 
Q4    1   0.5035  0.1725  0.8174  11.00000  0.05    0.36 
Q5    1   0.6368  0.2300  0.7844  11.00000  0.05    0.35 
Q6    1   0.0492 -0.3300  0.3156  11.00000  0.05    0.35 
Q7    1   0.3994  0.0578  0.3811  11.00000  0.05    0.34 
Q8    1   0.0105 -0.3216  0.5033  11.00000  0.05    0.33 
Q9    1   0.4046  0.6657  0.9819  11.00000  0.05    0.32 
Q10   1   0.0834 -0.3386  0.4999  11.00000  0.05    0.32 
;
_shelx_res_checksum              45814
#END Tags that were not found in dictionaries
loop_
_space_group_symop_operation_xyz
'x, y, z'
'-x, -y, -z'
loop_
_atom_site_label
_atom_site_type_symbol
_atom_site_fract_x
_atom_site_fract_y
_atom_site_fract_z
_atom_site_U_iso_or_equiv
_atom_site_adp_type
_atom_site_occupancy
_atom_site_site_symmetry_order
_atom_site_calc_flag
_atom_site_refinement_flags_posn
_atom_site_refinement_flags_adp
B1 B 0.4979(6) 0.2415(5) 0.7509(3) 0.0415(9) Uani 1 1 d . .
Cl1 Cl 0.59403(13) 0.13823(11) 0.82006(7) 0.0452(3) Uani 1 1 d . .
C1 C 0.3854(5) 0.1479(4) 0.6269(3) 0.0384(8) Uani 1 1 d . .
C2 C 0.3645(5) 0.2284(4) 0.5532(3) 0.0393(8) Uani 1 1 d . .
H2 H 0.4156 0.3412 0.5787 0.047 Uiso 1 1 calc R U
C3 C 0.2685(5) 0.1441(4) 0.4416(3) 0.0392(8) Uani 1 1 d . .
C4 C 0.1937(5) -0.0217(4) 0.4029(3) 0.0414(8) Uani 1 1 d . .
H4 H 0.1271 -0.0791 0.3277 0.050 Uiso 1 1 calc R U
C5 C 0.2181(5) -0.1016(4) 0.4761(3) 0.0404(8) Uani 1 1 d . .
C6 C 0.3116(5) -0.0194(4) 0.5866(3) 0.0392(8) Uani 1 1 d . .
H6 H 0.3261 -0.0762 0.6354 0.047 Uiso 1 1 calc R U
C7 C 0.2463(6) 0.2304(5) 0.3624(3) 0.0495(9) Uani 1 1 d . .
C8 C 0.1390(5) -0.2813(4) 0.4337(3) 0.0417(8) Uani 1 1 d . .
C11 C 0.5317(5) 0.4188(4) 0.8187(3) 0.0398(8) Uani 1 1 d . .
C12 C 0.4064(5) 0.4868(4) 0.7987(3) 0.0391(8) Uani 1 1 d . .
H12 H 0.3003 0.4260 0.7409 0.047 Uiso 1 1 calc R U
C13 C 0.4336(5) 0.6442(4) 0.8625(3) 0.0391(8) Uani 1 1 d . .
C14 C 0.5890(5) 0.7363(4) 0.9458(3) 0.0415(8) Uani 1 1 d . .
H14 H 0.6090 0.8436 0.9878 0.050 Uiso 1 1 calc R U
C15 C 0.7148(5) 0.6685(4) 0.9666(3) 0.0428(8) Uani 1 1 d . .
C16 C 0.6869(5) 0.5121(4) 0.9045(3) 0.0412(8) Uani 1 1 d . .
H16 H 0.7742 0.4678 0.9204 0.049 Uiso 1 1 calc R U
C17 C 0.2896(6) 0.7083(5) 0.8403(3) 0.0475(9) Uani 1 1 d . .
C18 C 0.8820(6) 0.7668(5) 1.0578(3) 0.0499(9) Uani 1 1 d . .
F71 F 0.3344(7) 0.3805(4) 0.4019(3) 0.1223(19) Uani 1 1 d . .
F72 F 0.0775(6) 0.2236(7) 0.3370(4) 0.1239(16) Uani 1 1 d . .
F73 F 0.2681(8) 0.1655(5) 0.2640(3) 0.1155(17) Uani 1 1 d . .
F81 F -0.0369(3) -0.3377(3) 0.4205(3) 0.0698(8) Uani 1 1 d . .
F82 F 0.2076(4) -0.3446(3) 0.4992(2) 0.0723(9) Uani 1 1 d . .
F83 F 0.1694(4) -0.3430(3) 0.3329(2) 0.0672(8) Uani 1 1 d . .
F171 F 0.3328(4) 0.8603(3) 0.9048(2) 0.0613(7) Uani 1 1 d . .
F172 F 0.1364(4) 0.6279(3) 0.8583(3) 0.0724(8) Uani 1 1 d . .
F173 F 0.2536(5) 0.7032(4) 0.7348(2) 0.0773(9) Uani 1 1 d . .
F181 F 0.8502(4) 0.8605(4) 1.1468(2) 0.0866(11) Uani 1 1 d . .
F182 F 0.9574(4) 0.6790(3) 1.0968(3) 0.0754(9) Uani 1 1 d . .
F183 F 1.0080(4) 0.8626(3) 1.0255(2) 0.0727(8) Uani 1 1 d . .
loop_
_atom_site_aniso_label
_atom_site_aniso_U_11
_atom_site_aniso_U_22
_atom_site_aniso_U_33
_atom_site_aniso_U_23
_atom_site_aniso_U_13
_atom_site_aniso_U_12
B1 0.043(2) 0.042(2) 0.037(2) 0.0076(17) 0.0066(17) 0.0180(18)
Cl1 0.0541(6) 0.0429(5) 0.0371(5) 0.0075(4) 0.0036(4) 0.0241(4)
C1 0.0404(18) 0.0362(17) 0.0346(17) 0.0042(14) 0.0072(14) 0.0168(14)
C2 0.0430(18) 0.0338(17) 0.0403(18) 0.0069(14) 0.0097(15) 0.0183(14)
C3 0.0440(19) 0.0390(18) 0.0338(17) 0.0064(14) 0.0073(14) 0.0202(15)
C4 0.0456(19) 0.0403(18) 0.0323(16) 0.0026(14) 0.0040(14) 0.0184(16)
C5 0.0424(19) 0.0387(18) 0.0367(17) 0.0047(14) 0.0069(14) 0.0188(15)
C6 0.0460(19) 0.0374(17) 0.0335(17) 0.0072(14) 0.0074(14) 0.0196(15)
C7 0.067(3) 0.042(2) 0.0370(18) 0.0075(16) 0.0065(17) 0.0242(19)
C8 0.046(2) 0.0369(18) 0.0352(17) 0.0036(14) 0.0040(15) 0.0167(15)
C11 0.0456(19) 0.0370(18) 0.0319(16) 0.0061(14) 0.0068(14) 0.0147(15)
C12 0.0446(19) 0.0366(18) 0.0315(16) 0.0065(14) 0.0027(14) 0.0157(15)
C13 0.050(2) 0.0365(17) 0.0300(16) 0.0071(13) 0.0077(14) 0.0190(15)
C14 0.051(2) 0.0343(17) 0.0342(17) 0.0057(14) 0.0082(15) 0.0145(15)
C15 0.047(2) 0.0404(19) 0.0345(18) 0.0062(15) 0.0084(15) 0.0141(16)
C16 0.0450(19) 0.0404(18) 0.0335(17) 0.0056(14) 0.0046(14) 0.0175(15)
C17 0.059(2) 0.0400(19) 0.0403(19) 0.0064(15) 0.0070(17) 0.0225(18)
C18 0.051(2) 0.044(2) 0.042(2) 0.0045(16) 0.0037(17) 0.0135(18)
F71 0.198(5) 0.0510(17) 0.075(2) 0.0283(16) -0.036(3) 0.008(2)
F72 0.105(3) 0.194(5) 0.141(4) 0.119(4) 0.037(3) 0.087(3)
F73 0.239(5) 0.109(3) 0.0617(19) 0.0481(19) 0.072(3) 0.115(3)
F81 0.0480(14) 0.0476(14) 0.095(2) 0.0047(13) 0.0150(13) 0.0106(11)
F82 0.099(2) 0.0397(13) 0.0616(16) 0.0079(11) -0.0134(15) 0.0252(13)
F83 0.094(2) 0.0429(13) 0.0489(14) -0.0014(11) 0.0253(13) 0.0167(13)
F171 0.0701(16) 0.0390(12) 0.0648(15) 0.0009(11) 0.0002(12) 0.0282(12)
F172 0.0528(15) 0.0570(15) 0.113(2) 0.0282(15) 0.0221(15) 0.0272(12)
F173 0.108(2) 0.095(2) 0.0430(13) 0.0181(14) 0.0035(14) 0.0671(19)
F181 0.0628(17) 0.099(2) 0.0506(15) -0.0306(15) -0.0068(13) 0.0249(16)
F182 0.0704(18) 0.0588(16) 0.0718(18) 0.0166(14) -0.0250(14) 0.0116(13)
F183 0.0571(16) 0.0657(17) 0.0724(18) 0.0226(14) -0.0011(13) -0.0011(13)
loop_
_atom_type_symbol
_atom_type_description
_atom_type_scat_dispersion_real
_atom_type_scat_dispersion_imag
_atom_type_scat_source
C C 0.0033 0.0016 'International Tables Vol C Tables 4.2.6.8 and 6.1.1.4'
H H 0.0000 0.0000 'International Tables Vol C Tables 4.2.6.8 and 6.1.1.4'
B B 0.0013 0.0007 'International Tables Vol C Tables 4.2.6.8 and 6.1.1.4'
Cl Cl 0.1484 0.1585 'International Tables Vol C Tables 4.2.6.8 and 6.1.1.4'
F F 0.0171 0.0103 'International Tables Vol C Tables 4.2.6.8 and 6.1.1.4'
loop_
_geom_angle_atom_site_label_1
_geom_angle_atom_site_label_2
_geom_angle_atom_site_label_3
_geom_angle
C11 B1 C1 125.6(3)
C11 B1 Cl1 117.0(3)
C1 B1 Cl1 117.4(3)
C2 C1 C6 118.7(3)
C2 C1 B1 120.7(3)
C6 C1 B1 120.5(3)
C1 C2 C3 120.5(3)
C1 C2 H2 119.8
C3 C2 H2 119.8
C4 C3 C2 120.3(3)
C4 C3 C7 119.2(3)
C2 C3 C7 120.5(3)
C5 C4 C3 119.0(3)
C5 C4 H4 120.5
C3 C4 H4 120.5
C6 C5 C4 121.1(3)
C6 C5 C8 119.9(3)
C4 C5 C8 118.9(3)
C5 C6 C1 120.3(3)
C5 C6 H6 119.8
C1 C6 H6 119.8
F71 C7 F73 111.9(5)
F71 C7 F72 102.2(4)
F73 C7 F72 101.1(4)
F71 C7 C3 114.7(3)
F73 C7 C3 113.9(3)
F72 C7 C3 111.4(4)
F82 C8 F81 107.2(4)
F82 C8 F83 105.6(3)
F81 C8 F83 105.9(3)
F82 C8 C5 113.3(3)
F81 C8 C5 112.8(3)
F83 C8 C5 111.3(3)
C12 C11 C16 118.0(3)
C12 C11 B1 121.1(3)
C16 C11 B1 121.0(3)
C11 C12 C13 121.1(3)
C11 C12 H12 119.5
C13 C12 H12 119.5
C14 C13 C12 120.5(3)
C14 C13 C17 121.0(3)
C12 C13 C17 118.5(3)
C13 C14 C15 118.7(3)
C13 C14 H14 120.7
C15 C14 H14 120.7
C16 C15 C14 120.9(3)
C16 C15 C18 120.2(4)
C14 C15 C18 118.9(3)
C15 C16 C11 120.9(3)
C15 C16 H16 119.5
C11 C16 H16 119.5
F172 C17 F173 106.4(4)
F172 C17 F171 106.1(3)
F173 C17 F171 106.3(3)
F172 C17 C13 112.6(3)
F173 C17 C13 112.0(3)
F171 C17 C13 112.9(3)
F182 C18 F183 106.5(4)
F182 C18 F181 105.4(4)
F183 C18 F181 106.2(4)
F182 C18 C15 112.9(3)
F183 C18 C15 113.2(3)
F181 C18 C15 112.2(3)
loop_
_geom_bond_atom_site_label_1
_geom_bond_atom_site_label_2
_geom_bond_distance
B1 C11 1.564(5)
B1 C1 1.571(5)
B1 Cl1 1.763(4)
C1 C2 1.393(5)
C1 C6 1.407(5)
C2 C3 1.402(5)
C2 H2 0.9500
C3 C4 1.396(5)
C3 C7 1.496(6)
C4 C5 1.389(5)
C4 H4 0.9500
C5 C6 1.384(5)
C5 C8 1.512(5)
C6 H6 0.9500
C7 F71 1.280(5)
C7 F73 1.296(5)
C7 F72 1.335(6)
C8 F82 1.316(5)
C8 F81 1.322(5)
C8 F83 1.344(4)
C11 C12 1.386(5)
C11 C16 1.403(5)
C12 C13 1.405(5)
C12 H12 0.9500
C13 C14 1.387(5)
C13 C17 1.495(5)
C14 C15 1.390(6)
C14 H14 0.9500
C15 C16 1.389(5)
C15 C18 1.501(5)
C16 H16 0.9500
C17 F172 1.324(5)
C17 F173 1.331(5)
C17 F171 1.340(4)
C18 F182 1.330(5)
C18 F183 1.332(5)
C18 F181 1.337(5)
loop_
_geom_torsion_atom_site_label_1
_geom_torsion_atom_site_label_2
_geom_torsion_atom_site_label_3
_geom_torsion_atom_site_label_4
_geom_torsion
C11 B1 C1 C2 25.3(6)
Cl1 B1 C1 C2 -154.9(3)
C11 B1 C1 C6 -158.0(4)
Cl1 B1 C1 C6 21.8(5)
C6 C1 C2 C3 1.3(5)
B1 C1 C2 C3 178.1(3)
C1 C2 C3 C4 -0.4(5)
C1 C2 C3 C7 -179.9(3)
C2 C3 C4 C5 -0.9(5)
C7 C3 C4 C5 178.6(3)
C3 C4 C5 C6 1.3(6)
C3 C4 C5 C8 -179.2(3)
C4 C5 C6 C1 -0.4(6)
C8 C5 C6 C1 -179.9(3)
C2 C1 C6 C5 -0.9(5)
B1 C1 C6 C5 -177.7(3)
C4 C3 C7 F71 -173.2(4)
C2 C3 C7 F71 6.3(6)
C4 C3 C7 F73 -42.3(6)
C2 C3 C7 F73 137.2(4)
C4 C3 C7 F72 71.3(5)
C2 C3 C7 F72 -109.2(5)
C6 C5 C8 F82 -17.1(5)
C4 C5 C8 F82 163.4(4)
C6 C5 C8 F81 105.1(4)
C4 C5 C8 F81 -74.4(5)
C6 C5 C8 F83 -136.0(4)
C4 C5 C8 F83 44.6(5)
C1 B1 C11 C12 30.4(6)
Cl1 B1 C11 C12 -149.5(3)
C1 B1 C11 C16 -152.0(4)
Cl1 B1 C11 C16 28.2(5)
C16 C11 C12 C13 -0.1(5)
B1 C11 C12 C13 177.6(3)
C11 C12 C13 C14 1.2(6)
C11 C12 C13 C17 -177.2(4)
C12 C13 C14 C15 -1.5(6)
C17 C13 C14 C15 176.9(4)
C13 C14 C15 C16 0.7(6)
C13 C14 C15 C18 -179.2(4)
C14 C15 C16 C11 0.4(6)
C18 C15 C16 C11 -179.8(4)
C12 C11 C16 C15 -0.7(6)
B1 C11 C16 C15 -178.4(4)
C14 C13 C17 F172 -117.4(4)
C12 C13 C17 F172 61.1(5)
C14 C13 C17 F173 122.7(4)
C12 C13 C17 F173 -58.8(5)
C14 C13 C17 F171 2.8(5)
C12 C13 C17 F171 -178.8(3)
C16 C15 C18 F182 -22.7(6)
C14 C15 C18 F182 157.2(4)
C16 C15 C18 F183 98.4(5)
C14 C15 C18 F183 -81.8(5)
C16 C15 C18 F181 -141.5(4)
C14 C15 C18 F181 38.3(5)
