#------------------------------------------------------------------------------
#$Date: 2017-12-10 22:40:43 +0200 (Sun, 10 Dec 2017) $
#$Revision: 204142 $
#$URL: file:///home/coder/svn-repositories/cod/cif/4/08/58/4085828.cif $
#------------------------------------------------------------------------------
#
# This file is available in the Crystallography Open Database (COD),
# http://www.crystallography.net/
#
# All data on this site have been placed in the public domain by the
# contributors.
#
data_4085828
loop_
_publ_author_name
'\<Skoch, Karel'
'C\'isa\<rov\'a, Ivana'
'\<St\<epni\<cka, Petr'
_publ_section_title
;
 Phosphinoferrocene Ureas: Synthesis, Structural Characterization, and
 Catalytic Use in Palladium-Catalyzed Cyanation of Aryl Bromides
;
_journal_issue                   10
_journal_name_full               Organometallics
_journal_page_first              1942
_journal_paper_doi               10.1021/acs.organomet.5b00197
_journal_volume                  34
_journal_year                    2015
_chemical_formula_moiety         'C8 H6 F3 N O'
_chemical_formula_sum            'C8 H6 F3 N O'
_chemical_formula_weight         189.14
_space_group_crystal_system      triclinic
_space_group_IT_number           2
_space_group_name_Hall           '-P 1'
_space_group_name_H-M_alt        'P -1'
_atom_sites_solution_hydrogens   mixed
_atom_sites_solution_primary     direct
_atom_sites_solution_secondary   difmap
_audit_creation_method           SHELXL-97
_cell_angle_alpha                99.455(13)
_cell_angle_beta                 99.158(14)
_cell_angle_gamma                101.021(14)
_cell_formula_units_Z            2
_cell_length_a                   5.008(2)
_cell_length_b                   7.133(3)
_cell_length_c                   11.538(4)
_cell_measurement_reflns_used    979
_cell_measurement_temperature    150(2)
_cell_measurement_theta_max      22.95
_cell_measurement_theta_min      3.65
_cell_volume                     391.3(3)
_computing_cell_refinement       'Bruker SAINT'
_computing_data_collection       'Bruker APEX2'
_computing_data_reduction        'Bruker SAINT'
_computing_molecular_graphics    'PLATON (Spek, 2003)'
_computing_publication_material  'PLATON (Spek, 2003)'
_computing_structure_refinement  'SHELXL-97 (Sheldrick, 2008)'
_computing_structure_solution    'SHELXS-97 (Sheldrick, 2008)'
_diffrn_ambient_temperature      150(2)
_diffrn_measured_fraction_theta_full 0.995
_diffrn_measured_fraction_theta_max 0.995
_diffrn_measurement_device_type  'Bruker APEX-II CCD'
_diffrn_measurement_method       '\f and \w scans'
_diffrn_radiation_monochromator  graphite
_diffrn_radiation_source         'fine-focus sealed tube'
_diffrn_radiation_type           MoK\a
_diffrn_radiation_wavelength     0.71073
_diffrn_reflns_av_R_equivalents  0.0549
_diffrn_reflns_av_sigmaI/netI    0.0877
_diffrn_reflns_limit_h_max       6
_diffrn_reflns_limit_h_min       -5
_diffrn_reflns_limit_k_max       8
_diffrn_reflns_limit_k_min       -8
_diffrn_reflns_limit_l_max       13
_diffrn_reflns_limit_l_min       -14
_diffrn_reflns_number            3732
_diffrn_reflns_theta_full        25.98
_diffrn_reflns_theta_max         25.98
_diffrn_reflns_theta_min         1.82
_exptl_absorpt_coefficient_mu    0.155
_exptl_absorpt_correction_T_max  0.980
_exptl_absorpt_correction_T_min  0.893
_exptl_absorpt_correction_type   multi-scan
_exptl_absorpt_process_details   'SADABS V2014/4 (Bruker AXS Inc.)'
_exptl_crystal_colour            colourless
_exptl_crystal_density_diffrn    1.605
_exptl_crystal_density_method    'not measured'
_exptl_crystal_description       plate
_exptl_crystal_F_000             192
_exptl_crystal_size_max          0.75
_exptl_crystal_size_mid          0.19
_exptl_crystal_size_min          0.13
_refine_diff_density_max         0.265
_refine_diff_density_min         -0.326
_refine_diff_density_rms         0.073
_refine_ls_extinction_method     none
_refine_ls_goodness_of_fit_ref   0.985
_refine_ls_hydrogen_treatment    constr
_refine_ls_matrix_type           full
_refine_ls_number_parameters     118
_refine_ls_number_reflns         1526
_refine_ls_number_restraints     0
_refine_ls_restrained_S_all      0.985
_refine_ls_R_factor_all          0.1191
_refine_ls_R_factor_gt           0.0612
_refine_ls_shift/su_max          0.000
_refine_ls_shift/su_mean         0.000
_refine_ls_structure_factor_coef Fsqd
_refine_ls_weighting_details
'calc w=1/[\s^2^(Fo^2^)+(0.0886P)^2^+0.0000P] where P=(Fo^2^+2Fc^2^)/3'
_refine_ls_weighting_scheme      calc
_refine_ls_wR_factor_gt          0.1420
_refine_ls_wR_factor_ref         0.1690
_reflns_number_gt                921
_reflns_number_total             1526
_reflns_threshold_expression     >2sigma(I)
_cod_data_source_file            om5b00197_si_002.cif
_cod_data_source_block           cf3a
_cod_depositor_comments
;
The following automatic conversions were performed:
'_atom_site_symetry_multiplicity' tag replaced with
'_atom_site_symmetry_multiplicity' tag as specified in the
replacement file
'/usr/data/users/saulius/crontab/automatic-downloads/rss-feeds/ACS/lib/lists/replacement-tags.lst'.

Automatic conversion script
Id: cif_correct_tags 3376 2015-05-07 07:48:27Z andrius 

 Adding full bibliography for 4085821--4085828.cif.
;
_cod_database_code               4085828
loop_
_space_group_symop_id
_space_group_symop_operation_xyz
1 'x, y, z'
2 '-x, -y, -z'
loop_
_atom_site_label
_atom_site_type_symbol
_atom_site_fract_x
_atom_site_fract_y
_atom_site_fract_z
_atom_site_U_iso_or_equiv
_atom_site_adp_type
_atom_site_occupancy
_atom_site_symmetry_multiplicity
_atom_site_calc_flag
_atom_site_refinement_flags
F1 F 0.3874(4) 0.0281(2) 0.83980(18) 0.0544(7) Uani 1 1 d .
F2 F 0.8232(4) 0.1418(3) 0.89647(19) 0.0583(7) Uani 1 1 d .
F3 F 0.5465(5) 0.2584(3) 0.99389(17) 0.0591(7) Uani 1 1 d .
O O 0.2811(4) 0.8147(3) 0.56357(18) 0.0322(6) Uani 1 1 d .
N N 0.7491(5) 0.8961(3) 0.5881(2) 0.0283(6) Uani 1 1 d .
H1N H 0.7242 0.9988 0.5410 0.034 Uiso 1 1 d R
H2N H 0.9182 0.8423 0.6016 0.034 Uiso 1 1 d R
C1 C 0.5130(6) 0.7877(4) 0.6043(2) 0.0236(7) Uani 1 1 d .
C2 C 0.5383(5) 0.6324(4) 0.6746(2) 0.0232(7) Uani 1 1 d .
C3 C 0.3164(6) 0.4731(4) 0.6567(3) 0.0303(8) Uani 1 1 d .
H3 H 0.1535 0.4644 0.5994 0.036 Uiso 1 1 calc R
C4 C 0.3303(6) 0.3274(4) 0.7216(3) 0.0312(8) Uani 1 1 d .
H4 H 0.1797 0.2176 0.7075 0.037 Uiso 1 1 calc R
C5 C 0.5642(6) 0.3426(4) 0.8070(3) 0.0273(7) Uani 1 1 d .
C6 C 0.7876(6) 0.5008(4) 0.8261(3) 0.0309(8) Uani 1 1 d .
H6 H 0.9491 0.5100 0.8844 0.037 Uiso 1 1 calc R
C7 C 0.7736(6) 0.6448(4) 0.7599(3) 0.0283(7) Uani 1 1 d .
H7 H 0.9261 0.7531 0.7729 0.034 Uiso 1 1 calc R
C8 C 0.5792(7) 0.1934(4) 0.8829(3) 0.0338(8) Uani 1 1 d .
loop_
_atom_site_aniso_label
_atom_site_aniso_U_11
_atom_site_aniso_U_22
_atom_site_aniso_U_33
_atom_site_aniso_U_23
_atom_site_aniso_U_13
_atom_site_aniso_U_12
F1 0.0579(14) 0.0303(11) 0.0650(14) 0.0208(10) -0.0025(10) -0.0121(10)
F2 0.0439(14) 0.0572(13) 0.0894(17) 0.0464(12) 0.0165(11) 0.0195(11)
F3 0.0994(19) 0.0429(12) 0.0408(12) 0.0158(10) 0.0262(12) 0.0135(12)
O 0.0168(12) 0.0358(12) 0.0485(13) 0.0207(10) 0.0080(9) 0.0054(9)
N 0.0147(13) 0.0275(13) 0.0455(15) 0.0185(12) 0.0072(11) 0.0008(11)
C1 0.0184(16) 0.0222(15) 0.0300(16) 0.0053(13) 0.0065(12) 0.0022(12)
C2 0.0178(16) 0.0216(15) 0.0306(16) 0.0058(13) 0.0072(12) 0.0025(13)
C3 0.0219(17) 0.0260(16) 0.0393(18) 0.0077(14) 0.0008(13) -0.0004(13)
C4 0.0240(17) 0.0221(15) 0.0420(18) 0.0052(14) 0.0037(14) -0.0047(13)
C5 0.0259(17) 0.0211(15) 0.0335(17) 0.0043(13) 0.0067(13) 0.0019(13)
C6 0.0241(17) 0.0306(17) 0.0339(17) 0.0094(14) -0.0007(13) -0.0012(14)
C7 0.0190(16) 0.0243(15) 0.0385(18) 0.0074(14) 0.0036(13) -0.0021(13)
C8 0.0330(19) 0.0276(17) 0.0391(19) 0.0092(15) 0.0045(15) 0.0026(15)
loop_
_atom_type_symbol
_atom_type_description
_atom_type_scat_dispersion_real
_atom_type_scat_dispersion_imag
_atom_type_scat_source
C C 0.0033 0.0016 'International Tables Vol C Tables 4.2.6.8 and 6.1.1.4'
H H 0.0000 0.0000 'International Tables Vol C Tables 4.2.6.8 and 6.1.1.4'
N N 0.0061 0.0033 'International Tables Vol C Tables 4.2.6.8 and 6.1.1.4'
O O 0.0106 0.0060 'International Tables Vol C Tables 4.2.6.8 and 6.1.1.4'
F F 0.0171 0.0103 'International Tables Vol C Tables 4.2.6.8 and 6.1.1.4'
loop_
_geom_angle_atom_site_label_1
_geom_angle_atom_site_label_2
_geom_angle_atom_site_label_3
_geom_angle
C1 N H1N 115.0
C1 N H2N 116.8
H1N N H2N 125.5
O C1 N 122.1(3)
O C1 C2 120.7(2)
N C1 C2 117.2(3)
C7 C2 C3 119.1(3)
C7 C2 C1 121.9(2)
C3 C2 C1 119.0(3)
C4 C3 C2 120.7(3)
C4 C3 H3 119.6
C2 C3 H3 119.6
C5 C4 C3 119.6(3)
C5 C4 H4 120.2
C3 C4 H4 120.2
C4 C5 C6 120.4(3)
C4 C5 C8 120.8(3)
C6 C5 C8 118.7(3)
C7 C6 C5 119.7(3)
C7 C6 H6 120.2
C5 C6 H6 120.2
C6 C7 C2 120.5(2)
C6 C7 H7 119.7
C2 C7 H7 119.7
F3 C8 F1 106.6(2)
F3 C8 F2 105.3(3)
F1 C8 F2 105.9(2)
F3 C8 C5 111.9(3)
F1 C8 C5 113.4(2)
F2 C8 C5 113.2(2)
loop_
_geom_bond_atom_site_label_1
_geom_bond_atom_site_label_2
_geom_bond_distance
F1 C8 1.335(3)
F2 C8 1.335(4)
F3 C8 1.335(3)
O C1 1.244(3)
N C1 1.341(3)
N H1N 0.9958
N H2N 0.9956
C1 C2 1.489(4)
C2 C7 1.388(4)
C2 C3 1.391(4)
C3 C4 1.382(4)
C3 H3 0.9500
C4 C5 1.380(4)
C4 H4 0.9500
C5 C6 1.390(4)
C5 C8 1.491(4)
C6 C7 1.382(4)
C6 H6 0.9500
C7 H7 0.9500
