#------------------------------------------------------------------------------
#$Date: 2016-03-21 15:17:06 +0200 (Mon, 21 Mar 2016) $
#$Revision: 178742 $
#$URL: svn://www.crystallography.net/cod/cif/4/08/53/4085356.cif $
#------------------------------------------------------------------------------
#
# This file is available in the Crystallography Open Database (COD),
# http://www.crystallography.net/
#
# All data on this site have been placed in the public domain by the
# contributors.
#
data_4085356
loop_
_publ_author_name
'Gonz\'alez-Sebasti\'an, Lucero'
'Flores-Alamo, Marcos'
'Garc\'ia, Juventino J.'
_publ_section_title
;
 SelectiveN-Methylation of Aliphatic Amines with CO2and Hydrosilanes Using
 Nickel-Phosphine Catalysts
;
_journal_issue                   4
_journal_name_full               Organometallics
_journal_page_first              763
_journal_paper_doi               10.1021/om501176u
_journal_volume                  34
_journal_year                    2015
_chemical_absolute_configuration syn
_chemical_formula_moiety         'C15 H14 F2 N2 O'
_chemical_formula_sum            'C15 H14 F2 N2 O'
_chemical_formula_weight         276.28
_chemical_name_systematic
;
 ?
;
_space_group_IT_number           18
_symmetry_cell_setting           orthorhombic
_symmetry_Int_Tables_number      18
_symmetry_space_group_name_Hall  'P 2bc 2'
_symmetry_space_group_name_H-M   'P 2 21 21'
_atom_sites_solution_hydrogens   mixed
_audit_conform_dict_location     ftp://ftp.iucr.org/pub/cif_core.dic
_audit_conform_dict_name         cif_core.dic
_audit_conform_dict_version      2.4.3
_audit_creation_date             2014-11-03T09:22:46-00:00
_audit_creation_method           'WinGX routine CIF_UPDATE'
_cell_angle_alpha                90
_cell_angle_beta                 90
_cell_angle_gamma                90
_cell_formula_units_Z            2
_cell_length_a                   4.6293(7)
_cell_length_b                   6.1725(12)
_cell_length_c                   23.957(4)
_cell_measurement_reflns_used    270
_cell_measurement_temperature    298(2)
_cell_measurement_theta_max      19.891
_cell_measurement_theta_min      4.175
_cell_volume                     684.6(2)
_computing_cell_refinement
;
        CrysAlisPro, Agilent Technologies,
        Version 1.171.36.28 (release 01-02-2013 CrysAlis171 .NET)
        (compiled Feb  1 2013,16:14:44)
;
_computing_data_collection
;
        CrysAlisPro, Agilent Technologies,
        Version 1.171.36.28 (release 01-02-2013 CrysAlis171 .NET)
        (compiled Feb  1 2013,16:14:44)
;
_computing_data_reduction
;
        CrysAlisPro, Agilent Technologies,
        Version 1.171.36.28 (release 01-02-2013 CrysAlis171 .NET)
        (compiled Feb  1 2013,16:14:44)
;
_computing_structure_refinement  'SHELXL-2014 (Sheldrick, 2014)'
_diffrn_ambient_temperature      298(2)
_diffrn_detector_area_resol_mean 10.4685
_diffrn_measured_fraction_theta_full 0.999
_diffrn_measured_fraction_theta_max 0.999
_diffrn_measurement_device_type  'Xcalibur, Atlas, Gemini'
_diffrn_measurement_method       '\w scans'
_diffrn_orient_matrix_UB_11      0.0003013
_diffrn_orient_matrix_UB_12      -0.0581269
_diffrn_orient_matrix_UB_13      -0.0255192
_diffrn_orient_matrix_UB_21      -0.0010177
_diffrn_orient_matrix_UB_22      0.0991221
_diffrn_orient_matrix_UB_23      -0.0150162
_diffrn_orient_matrix_UB_31      0.1532091
_diffrn_orient_matrix_UB_32      0.0008476
_diffrn_orient_matrix_UB_33      -0.0000564
_diffrn_radiation_monochromator  graphite
_diffrn_radiation_type           MoK\a
_diffrn_radiation_wavelength     0.71073
_diffrn_reflns_av_R_equivalents  0.0345
_diffrn_reflns_av_unetI/netI     0.0839
_diffrn_reflns_Laue_measured_fraction_full 0.999
_diffrn_reflns_Laue_measured_fraction_max 0.999
_diffrn_reflns_limit_h_max       4
_diffrn_reflns_limit_h_min       -5
_diffrn_reflns_limit_k_max       7
_diffrn_reflns_limit_k_min       -6
_diffrn_reflns_limit_l_max       21
_diffrn_reflns_limit_l_min       -29
_diffrn_reflns_number            1938
_diffrn_reflns_point_group_measured_fraction_full 0.964
_diffrn_reflns_point_group_measured_fraction_max 0.957
_diffrn_reflns_theta_full        25.242
_diffrn_reflns_theta_max         25.674
_diffrn_reflns_theta_min         3.402
_exptl_absorpt_coefficient_mu    0.104
_exptl_absorpt_correction_T_max  0.997
_exptl_absorpt_correction_T_min  0.98
_exptl_absorpt_correction_type   analytical
_exptl_absorpt_process_details
;
        CrysAlisPro, Agilent Technologies,
        Version 1.171.36.28 (release 01-02-2013 CrysAlis171 .NET)
        (compiled Feb  1 2013,16:14:44)
Analytical numeric absorption correction using a multifaceted crystal
                        model based on expressions derived by R.C. Clark & J.S.
        (Clark, R. C. & Reid, J. S. (1995). Acta Cryst. A51, 887-897)
;
_exptl_crystal_colour            colourless
_exptl_crystal_density_diffrn    1.34
_exptl_crystal_description       plate
_exptl_crystal_F_000             288
_exptl_crystal_size_max          0.4493
_exptl_crystal_size_mid          0.179
_exptl_crystal_size_min          0.0246
_refine_diff_density_max         0.15
_refine_diff_density_min         -0.148
_refine_diff_density_rms         0.037
_refine_ls_extinction_method     none
_refine_ls_goodness_of_fit_ref   0.998
_refine_ls_hydrogen_treatment    mixed
_refine_ls_matrix_type           full
_refine_ls_number_parameters     95
_refine_ls_number_reflns         1258
_refine_ls_number_restraints     1
_refine_ls_restrained_S_all      0.998
_refine_ls_R_factor_all          0.1319
_refine_ls_R_factor_gt           0.0595
_refine_ls_shift/su_max          0
_refine_ls_shift/su_mean         0
_refine_ls_structure_factor_coef Fsqd
_refine_ls_weighting_details
'w=1/[\s^2^(Fo^2^)+(0.0582P)^2^] where P=(Fo^2^+2Fc^2^)/3'
_refine_ls_weighting_scheme      calc
_refine_ls_wR_factor_gt          0.1131
_refine_ls_wR_factor_ref         0.1459
_reflns_number_gt                675
_reflns_number_total             1258
_reflns_threshold_expression     'I > 2\s(I)'
_cod_data_source_file            om501176u_si_002.cif
_cod_data_source_block           lu-302
_cod_depositor_comments          'Adding full bibliography for 4085356.cif.'
_cod_original_cell_volume        684.5(2)
_cod_database_code               4085356
#BEGIN Tags that were not found in dictionaries:
_iucr_refine_reflections_details
;
   0   0  -4 13823.0 215.362   1
   0   0  -5-5.08501 37.5543   1
   0   0  -6 13285.7 260.414   1
   0   0  -7 5.16479 44.9720   1
   0   0  -8 5303.17 196.953   1
   0   0  -9 89.3149 75.8130   1
   0   0 -10 37693.2 568.763   1
   0   0 -11 157.952 97.4502   1
   0   0 -12-40.8403 81.2591   1
   0   0 -13-78.6495 81.5453   1
   0   0  13-22.4762 55.5920   1
   0   0  14 3710.39 215.244   1
   0   0 -14 3720.44 221.602   1
   0   0 -15-4.40663 73.5053   1
   0   0  15 30.3546 55.6997   1
   0   0 -16 37.5266 71.0407   1
   0   0  16 155.113 67.3268   1
   0   0  17-109.256 58.5628   1
   0   0 -17 3.26158 65.5534   1
   0   0 -18 319.843 94.2252   1
   0   0 -19-68.9916 72.6242   1
   0   0 -20 335.861 111.597   1
   0   0 -21 17.6923 77.0105   1
   0   0 -22-1.98347 81.7938   1
   0   0 -23-93.6721 94.5624   1
   0   0 -24 865.841 166.495   1
   0   0 -25 51.3313 100.641   1
   0   0 -26 584.737 156.976   1
   0   0 -27-19.7190 107.440   1
   0   0 -28 314.382 136.743   1
   0   0 -29 68.1513 125.213   1
   0   0 -30 128.190 131.110   1
   0  -1   1 185.432 36.7993   2
   0  -1   2 2939.63 99.4823   2
   0  -1   3 131471. 701.848   2
   0  -1  -4 21142.7 307.333   1
   0  -1  -5 11920.9 251.545   1
   0  -1  -6 422.018 66.3016   1
   0  -1  -7 15613.5 314.765   1
   0  -1  -8 5198.16 197.821   1
   0   1   9-6.90758 58.1837   1
   0  -1  -9-27.3858 57.3632   1
   0   1  10 1139.40 112.705   1
   0  -1 -10 1151.11 109.916   1
   0   1  11 971.722 109.035   1
   0   1 -11 1152.01 119.449   1
   0  -1 -11 1272.01 125.176   1
   0  -1 -12-4.77998 64.7825   1
   0   1  12-37.4934 64.3550   1
   0   1 -12-49.6741 76.8938   1
   0   1  13 1524.03 140.603   1
   0  -1 -13 1961.04 162.606   1
   0   1 -13 1848.09 165.604   1
   0  -1 -14 1443.01 152.026   1
   0   1 -14 1577.18 152.508   1
   0   1  14 1350.33 142.402   1
   0  -1 -15 266.048 93.8107   1
   0   1  15 333.328 91.2887   1
   0   1 -15 360.436 92.3771   1
   0  -1  15 375.178 84.9829   1
   0   1 -16 485.754 108.550   1
   0  -1 -16 475.553 109.729   1
   0  -1  16 585.757 106.215   1
   0   1  16 417.000 99.6833   1
   0   1 -17 179.535 94.4860   1
   0  -1 -17-9.68815 58.2561   1
   0   1  17-17.3622 74.6152   1
   0   1 -18 12.2928 80.8761   1
   0  -1 -18 55.9167 82.1596   1
   0  -1 -19 4.26409 84.6951   1
   0   1 -19 74.5478 77.9505   1
   0  -1 -20 51.6687 91.8567   1
   0  -1 -21 253.880 109.391   1
   0  -1 -22 91.2742 98.5118   1
   0  -1 -23 729.964 153.835   1
   0  -1 -24 762.130 156.986   1
   0  -1 -25 317.410 130.368   1
   0  -1 -26 8.70961 97.3506   1
   0  -1 -27 549.987 156.595   1
   0  -1 -28 215.158 125.301   1
   0  -1 -29 9.40363 82.0925   1
   0  -1 -30-253.506 136.156   1
   0  -1 -31 216.671 148.651   1
   0  -2   0 5054.00 167.924   2
   0  -2   1 1524.83 100.509   2
   0  -2  -1 1649.18 100.542   2
   0   2   1 1570.99 103.203   2
   0   2   2 15030.7 281.881   2
   0  -2   2 15259.1 297.319   2
   0  -2   3 6537.52 202.670   2
   0   2   3 6289.86 189.120   2
   0  -2   4 16468.7 327.533   2
   0  -2   5 5651.44 200.229   2
   0  -2   6 924.943 94.6523   2
   0  -2   7 1156.11 103.648   2
   0  -2  -7 953.634 105.094   1
   0  -2  -8 4551.82 210.138   1
   0  -2   8 4602.66 206.388   2
   0  -2  -9 1714.53 145.250   1
   0  -2 -10 1548.98 140.843   1
   0  -2 -11-4.04187 70.0148   1
   0  -2 -12 1374.50 136.782   1
   0  -2 -13 206.164 71.8673   1
   0  -2 -14 36.0622 66.6300   1
   0  -2 -15 435.483 104.959   1
   0  -2  15 415.792 105.806   1
   0   2  16 447.620 100.634   1
   0  -2 -16 429.749 102.542   1
   0  -2 -17 1609.74 175.193   1
   0  -2 -18 45.5782 86.6033   1
   0  -2 -19 530.852 131.635   1
   0  -2 -20 899.064 156.353   1
   0  -2 -21 1912.09 216.292   1
   0  -2 -22 1691.77 212.898   1
   0  -2 -23 16.8612 86.2071   1
   0  -2 -24 26.7250 112.161   1
   0  -2 -25 354.280 133.993   1
   0  -2 -26-181.161 111.513   1
   0  -2 -27 180.116 120.713   1
   0  -2 -28 81.8183 86.4318   1
   0  -2 -29-1.48418 98.7906   1
   0  -2 -30 222.213 143.446   1
   0  -3   0 9.36602 48.3544   2
   0   3   0-24.2584 53.2296   2
   0   3  -1 5024.42 205.879   2
   0  -3   1 5272.46 211.535   2
   0   3   1 5067.56 201.738   2
   0   3  -2 31.8917 60.2692   2
   0  -3   2 18.6997 43.0443   2
   0   3   2 3.55083 49.5263   2
   0  -3   3 2180.28 144.715   2
   0   3   3 2437.13 146.189   2
   0   3  -3 2581.51 160.147   2
   0   3  -4 457.823 85.3623   2
   0  -3   4 566.900 79.6601   2
   0   3   4 779.092 93.0537   2
   0  -3   5 870.921 101.962   2
   0   3   5 896.578 96.1880   2
   0  -3   6 3028.85 178.704   2
   0   3   6 3063.56 165.506   2
   0  -3   7 5782.96 249.343   2
   0  -3   8 45.6612 48.9787   2
   0  -3   9 2833.23 186.033   2
   0  -3  -9 2569.33 191.599   1
   0  -3  10 6186.14 277.406   2
   0  -3 -10 5317.35 269.407   1
   0  -3  11 46.0084 47.8825   2
   0  -3 -11 105.755 80.6280   1
   0  -3 -12 1062.42 142.920   1
   0  -3  12 964.982 124.243   1
   0  -3  12 1111.62 134.026   2
   0  -3 -13 1365.61 157.678   1
   0  -3 -14 7317.71 342.356   1
   0  -3 -15 1389.52 173.201   1
   0  -3 -16-11.5482 64.6671   1
   0  -3 -17 3187.34 247.964   1
   0  -3 -18 575.551 126.458   1
   0  -3 -19 1816.43 208.029   1
   0  -3 -20-23.3808 88.4363   1
   0  -3 -21 1066.35 175.478   1
   0  -3 -22 29.4030 78.5389   1
   0  -3 -23 5.40220 99.0660   1
   0  -3 -24 1036.31 177.925   1
   0  -3 -25 5.29444 95.5410   1
   0  -3 -26 20.7189 93.2398   1
   0  -3 -27 33.3197 97.1996   1
   0  -3 -28-277.109 128.556   1
   0  -3 -29-86.3556 111.326   1
   0  -4   0 400.603 86.8577   2
   0   4   0 536.102 96.2572   2
   0  -4   1 63.8910 52.2212   2
   0   4  -1 4.11353 40.9372   2
   0   4   1 96.6558 60.9165   2
   0   4   2-32.9951 58.6908   2
   0  -4   2 19.9980 48.9655   2
   0   4  -2 16.8401 60.2633   2
   0   4  -3 390.967 90.8359   2
   0   4   3 318.511 81.0979   2
   0  -4   3 322.601 79.1923   2
   0   4  -4 944.905 121.457   2
   0   4   4 969.031 114.410   2
   0  -4   4 865.441 112.233   2
   0   4   5 30.6089 52.7812   2
   0  -4   5-44.1719 51.1755   2
   0  -4   6 189.749 66.0206   2
   0   4   6 109.609 58.3792   2
   0   4   7 498.768 91.8844   2
   0  -4   7 345.444 78.5874   2
   0  -4   8 25.3375 48.9600   2
   0   4   8-21.2699 53.6328   2
   0   4   9 50.5219 57.6629   2
   0  -4 -10 1766.69 188.805   1
   0  -4 -11 1390.30 169.179   1
   0  -4 -12 2463.86 220.979   1
   0  -4 -13 670.879 139.570   1
   0  -4 -14 2708.28 239.993   1
   0  -4 -15 162.970 101.323   1
   0  -4 -16 678.270 143.830   1
   0  -4 -17 202.293 87.1289   1
   0  -4 -18-31.6369 97.6541   1
   0  -4 -19-20.9899 88.7650   1
   0  -4 -20 179.637 100.580   1
   0  -4 -21-77.7703 101.874   1
   0  -4 -22 92.1448 83.3488   1
   0  -4 -23-194.553 123.562   1
   0  -4 -24-43.6190 91.4441   1
   0  -4 -25 19.0706 96.0536   1
   0  -4 -26-217.652 131.908   1
   0  -4 -27-135.901 108.956   1
   0  -4 -28-214.029 122.423   1
   0   5   0 38.0017 60.0187   2
   0   5  -1 89.1007 69.4378   2
   0   5   1 29.4255 65.9905   2
   0   5  -2 90.1186 61.7244   2
   0   5   2 136.379 77.2818   2
   0   5   3 34.0176 58.0586   2
   0   5  -3 10.6217 71.4993   2
   0   5   4 72.6704 61.9868   2
   0   5   5 66.6913 58.9880   2
   0   5   6 43.8983 59.8752   2
   0   5   7-12.0539 58.1088   2
   0   5   8 114.999 70.2453   2
   0   5   9 687.930 114.015   2
   0   5  10 258.610 85.1811   2
   0  -5 -11 2165.06 224.845   1
   0   5  11 2071.78 180.273   2
   0  -5 -12 1106.87 170.698   1
   0   5  12 820.574 126.226   2
   0   5  13 169.121 78.1120   2
   0  -5 -13 263.184 118.820   1
   0   5  14 71.0109 66.1763   2
   0  -5 -14-25.9057 92.6458   1
   0   5  15 40.6166 60.0384   2
   0  -5 -15 73.5823 94.4897   1
   0  -5 -16 22.9132 88.6475   1
   0  -5 -17 55.7903 94.8051   1
   0  -5 -18-105.861 98.2441   1
   0  -5 -19-8.08355 79.2018   1
   0  -5 -20 28.0653 95.0564   1
   0  -5 -21 356.109 133.715   1
   0  -5 -22 192.465 110.740   1
   0  -5 -23-30.5012 95.2915   1
   0  -5 -24 171.116 101.250   1
   0  -5 -25-19.7408 38.0221   1
   0  -5 -26-25.3192 104.036   1
   0   6   0 60.8545 66.6848   2
   0   6  -1-32.0470 58.1568   2
   0   6   1-132.806 76.5918   2
   0   6  -2 48.2432 62.2325   2
   0   6   2-80.0039 76.2257   2
   0   6   3 60.4349 81.1553   2
   0   6   4 193.959 82.8193   2
   0   6   5-11.6681 60.0957   2
   0   6   6 309.559 95.3070   2
   0   6   7 1550.55 170.980   2
   0   6   8 735.764 131.004   2
   0   6   9 225.346 83.0678   2
   0   6  10 19.6598 61.0303   2
   0   6  11 381.543 97.3755   2
   0  -6 -12-108.958 108.329   1
   0   6  12 68.4417 66.1146   2
   0   6  13 149.507 82.3122   2
   0  -6 -13-36.6133 80.4427   1
   0  -6 -14 352.518 120.482   1
   0   6  14 34.5238 60.9176   2
   0   6  15-45.3135 57.0058   2
   0  -6 -15-24.3688 105.762   1
   0  -6 -16 237.508 134.523   1
   0   6  16 10.4436 42.4497   2
   0   6  17 27.0923 56.5538   2
   0  -6 -17-213.507 127.177   1
   0   6  18-66.7136 69.6366   2
   0  -6 -18 51.3929 97.0879   1
   0  -6 -19 265.879 130.443   1
   0  -6 -20-184.677 105.409   1
   0  -6 -21-162.672 106.008   1
   0  -6 -22 25.3147 95.5068   1
   0   7   0 48.6898 73.4246   2
   0   7   1-23.6096 48.4843   2
   0   7   2 20.5326 60.0089   2
   0   7   3 38.7970 69.4261   2
   0   7   4 201.521 79.8042   2
   0   7   5-13.0504 60.1383   2
   0   7   6 75.9160 65.3206   2
   0   7   7 117.773 70.5221   2
   0   7   8-0.52025 75.0156   2
   0   7   9 28.6316 70.7546   2
   0   7  10 83.0317 66.3528   2
   0   7  11-96.8913 61.9637   2
   0   7  12-269.891 97.4647   2
   0  -7 -12 165.654 123.077   1
   0  -7 -13 96.2416 124.240   1
   0   7  13-89.0844 71.8415   2
   0  -7 -14-46.6738 111.629   1
   0  -7 -15-137.986 106.909   1
   0  -7 -16-42.9879 66.0726   1
   0  -7 -17 207.345 134.630   1
   0   8   3-81.0768 74.1969   2
   0   8   4 422.798 113.139   2
   0   8   5 81.7363 79.8864   2
   0   8   6-217.231 82.0853   2
   0   8   7-43.0038 38.7988   2
  -1   0   0 10376.4 151.053   1
  -1   0  -1 11501.0 183.176   1
  -1   0  -2 2037.31 89.8192   1
  -1   0  -2 2115.02 75.2015   2
  -1   0  -3 37320.3 296.905   2
  -1   0  -3 37489.9 392.044   1
   1   0   3 37194.4 304.886   2
   1   0   4 45317.8 349.692   2
  -1   0  -4 45251.7 472.682   1
  -1   0  -4 45536.6 340.042   2
  -1   0  -5 39352.8 473.856   1
  -1   0   5 39231.1 346.536   1
   1   0   5 38965.6 343.989   2
   1   0   6 3.40491 28.7144   2
  -1   0  -6-17.2341 59.3632   1
  -1   0   6-5.00596 33.9326   1
  -1   0   7 26.6953 36.5030   1
   1   0   7 35.2431 30.4016   2
  -1   0  -7 24.2066 53.4083   1
  -1   0  -8 197.278 68.4160   1
  -1   0   8 153.602 49.3471   1
  -1   0   9 1108.15 92.2857   1
  -1   0  -9 1186.76 128.401   1
   1   0 -10 1693.79 118.402   1
  -1   0  10 1491.86 110.470   1
  -1   0 -10 1823.38 152.360   1
   1   0 -11 2250.96 139.755   1
  -1   0  11 2320.44 141.479   1
  -1   0 -11 2329.25 171.294   1
  -1   0  12 139.736 57.1858   1
  -1   0 -12 229.257 94.7381   1
   1   0 -12 211.888 68.8780   1
  -1   0  13 120.244 56.1018   1
  -1   0 -13 137.964 97.3356   1
   1   0 -13 160.358 67.9054   1
  -1   0  14 8520.69 302.193   1
   1   0 -14 8739.32 307.212   1
  -1   0 -14 8438.69 344.165   1
  -1   0 -15 5074.32 280.230   1
  -1   0  15 4786.45 239.362   1
   1   0 -15 5423.75 255.530   1
   1   0 -16 419.014 97.5974   1
   1   0  16 502.997 106.078   1
  -1   0  16 445.194 95.0660   1
  -1   0 -16 571.993 129.659   1
  -1   0  17 549.237 100.683   1
  -1   0 -17 759.211 144.329   1
   1   0 -17 625.277 108.634   1
  -1   0 -18-26.1940 72.5000   1
  -1   0  18 61.3512 63.0972   1
   1   0 -18-139.195 78.3369   1
  -1   0  19 124.042 68.9741   1
   1   0 -19 95.1405 81.1057   1
  -1   0 -19 148.974 88.3913   1
  -1   0 -20 48.4008 84.5108   1
   1   0 -20 110.020 77.6840   1
   1   0 -21 63.5482 74.3544   1
  -1   0 -21 3.06234 99.5278   1
  -1   0 -22 194.847 120.382   1
  -1   0 -23 101.614 108.318   1
  -1   0 -24-52.5730 110.146   1
  -1   0 -25 58.3212 115.655   1
  -1   0 -26 42.1909 94.9860   1
  -1   0 -27 129.384 109.640   1
  -1   0 -28 204.923 107.275   1
  -1   0 -29-119.128 114.840   1
  -1  -1 -29 127.201 120.126   1
  -1  -1 -28-116.270 109.807   1
  -1  -1 -27 87.7226 103.771   1
  -1  -1 -26 129.338 124.932   1
  -1  -1 -25-46.3588 87.7983   1
  -1  -1 -24 242.369 132.092   1
  -1  -1 -23 600.997 151.289   1
  -1  -1 -22 92.9335 105.749   1
  -1  -1 -21 546.693 138.920   1
  -1  -1 -20 246.797 116.220   1
  -1  -1 -19 247.779 91.7909   1
  -1   1  19 301.463 86.4698   1
  -1   1  18 700.981 115.570   1
  -1  -1 -18 463.336 120.910   1
  -1  -1 -17 418.818 120.847   1
  -1   1  17 657.564 109.714   1
  -1   1  16 62.4799 66.3286   1
  -1  -1 -16 56.1674 78.1669   1
   1  -1  15 141.766 62.1791   1
  -1  -1 -15 290.234 97.8242   1
  -1   1  15 356.639 80.5506   1
  -1   1  14 1468.96 131.152   1
  -1  -1 -14 1315.43 152.652   1
   1  -1  13 285.144 63.7386   2
  -1  -1 -13 258.659 105.190   1
  -1   1  13 282.865 70.7652   1
   1  -1  12 2223.06 149.121   2
  -1   1  12 2395.99 150.658   1
  -1  -1 -12 2501.80 190.400   1
  -1   1  11 11014.8 293.272   1
  -1  -1 -11 10660.0 355.695   1
   1  -1  11 10722.9 306.422   2
   1  -1  10 1427.88 113.756   2
  -1  -1 -10 1578.77 147.708   1
  -1   1  10 1531.52 111.163   1
  -1  -1  -9 4596.19 223.209   1
  -1   1   9 4362.04 164.915   1
   1  -1   9 4222.29 179.867   2
  -1   1   8 8883.67 214.849   1
   1  -1   8 9173.87 252.732   2
  -1  -1  -8 8906.53 291.878   1
   1  -1   7 2181.19 123.714   2
  -1  -1  -7 2116.08 150.310   1
  -1   1   7 2062.32 100.942   1
  -1   1   6 15093.7 231.678   1
   1  -1   6 14980.5 299.933   2
  -1  -1  -6 15035.7 349.940   1
   1  -1   5 850.909 76.6714   2
  -1  -1  -5 912.029 107.192   1
   1  -1   4 43755.2 482.488   2
  -1  -1  -4 43759.8 541.922   1
   1  -1   4 43286.1 477.828   1
   1  -1   3 18384.1 288.118   1
   1  -1   3 18593.2 308.915   2
   1  -1   2 4200.11 149.478   2
   1  -1   2 4369.91 128.942   1
   1  -1   1 58467.5 405.449   1
   1  -1   0 12260.1 163.861   1
  -1   1  -3 18799.0 286.579   1
   1  -1  -4 43588.8 293.935   1
  -1   1  -4 43388.8 474.390   1
   1  -1  -5 891.734 54.8625   1
  -1   1  -5 744.836 88.7488   1
  -1   1  -6 15022.1 303.302   2
   1  -1  -6 15156.2 227.540   1
  -1   1  -6 14775.1 319.280   1
   1  -1  -7 2186.49 101.103   1
  -1   1  -7 2529.92 153.307   1
   1  -1  -8 8976.19 216.247   1
  -1   1  -8 9000.70 283.167   1
   1  -1  -9 3885.69 156.408   1
  -1  -1   9 4192.86 189.425   1
  -1   1  -9 4597.64 218.021   1
  -1   1 -10 1685.08 147.119   1
  -1  -1  10 1417.93 118.325   1
   1  -1 -10 1459.49 109.243   1
   1  -1 -11 11079.2 292.337   1
  -1  -1  11 10747.0 319.666   1
  -1   1 -11 10800.5 349.930   1
  -1  -1  12 2202.74 153.774   1
   1  -1 -12 2235.41 147.919   1
  -1   1 -12 2177.90 179.706   1
  -1  -1  13 307.412 77.9208   1
   1  -1 -13 238.610 68.1831   1
  -1   1 -13 233.909 89.4609   1
   1  -1 -14 1417.78 132.427   1
  -1   1 -14 1315.10 148.015   1
  -1  -1  14 1262.91 133.551   1
  -1   1 -15 250.450 103.395   1
  -1  -1  15 249.615 80.7850   1
   1  -1 -15 179.103 70.7394   1
   1   1  15 168.103 85.6949   1
   1  -1 -16 98.7614 67.1335   1
  -1   1 -16 111.717 75.1117   1
  -1  -1  16 113.805 62.8582   1
   1  -1 -17 453.428 98.3223   1
  -1  -1  17 542.183 106.545   1
  -1   1 -17 594.700 130.599   1
  -1   1 -18 599.056 125.111   1
   1  -1 -18 535.063 108.591   1
   1  -1 -19 392.751 105.732   1
  -1   1 -19 151.366 112.345   1
  -1   1 -20 297.469 117.839   1
   1  -1 -20 255.757 99.6756   1
   1  -1 -21 607.334 124.442   1
  -1   1 -21 445.569 117.901   1
  -1   1 -22 303.254 129.326   1
   1  -1 -22 139.634 95.8117   1
  -1   1 -23 692.019 165.080   1
   1  -1 -23 411.104 114.034   1
  -1   1 -24 95.0616 101.164   1
   1  -1 -24 379.710 108.948   1
  -1   1 -25 143.601 98.3602   1
   1  -1 -25-101.691 95.9986   1
   1  -1 -26 127.043 108.219   1
  -1   1 -26-20.9249 113.422   1
   1  -1 -27-3.67908 66.0013   1
  -1   1 -27 143.401 127.561   1
   1  -1 -28 2.58427 86.6381   1
   1  -1 -29-99.8507 100.177   1
  -1  -2 -29 34.4609 125.470   1
  -1  -2 -28-112.396 116.713   1
  -1  -2 -27-64.6946 102.887   1
  -1  -2 -26 137.800 120.760   1
  -1  -2 -25-2.73220 96.3674   1
  -1  -2 -24-16.3527 96.0229   1
  -1  -2 -23 31.1402 92.6464   1
  -1  -2 -22 110.206 98.2943   1
  -1  -2 -21 357.306 117.998   1
  -1  -2 -20 1770.02 227.388   1
  -1  -2 -19 278.266 111.298   1
  -1   2  19 244.881 88.3276   1
  -1  -2 -18 2953.37 252.089   1
  -1   2  18 2841.55 211.102   1
  -1   2  17 153.567 82.6351   1
  -1  -2 -17 101.892 83.9736   1
  -1  -2 -16 903.558 147.978   1
   1  -2  15-86.3612 59.1496   2
  -1  -2 -15 26.7584 94.0090   1
   1  -2  14 30.0295 46.8002   2
  -1  -2 -14 22.8938 64.1397   1
   1  -2  14 98.5164 66.8789   1
  -1  -2 -13 851.905 134.946   1
   1  -2  13 809.897 110.690   2
   1  -2  13 1206.45 141.017   1
   1  -2  12 1088.10 131.164   1
  -1  -2 -12 999.274 146.623   1
   1  -2  12 1286.95 129.655   2
   1  -2  11 1924.54 154.882   2
   1  -2  11 1762.87 158.127   1
  -1  -2 -11 2001.38 185.261   1
   1  -2  10 2330.69 162.424   2
  -1  -2 -10 2645.59 198.584   1
   1  -2   9 1117.94 114.835   2
   1  -2   9 1087.84 118.670   1
  -1  -2  -9 1105.57 135.965   1
  -1  -2  -8 11198.5 360.405   1
   1  -2   8 10557.7 327.911   1
   1  -2   8 11336.0 328.340   2
  -1  -2  -7 124.668 71.4090   1
   1  -2   7 111.564 56.8988   2
   1  -2   7 162.680 66.6780   1
   1  -2   6 24179.0 454.761   1
   1  -2   6 24164.2 458.843   2
   1  -2   5 1202.89 108.066   1
   1  -2   5 1312.23 114.373   2
   1  -2   4 5396.98 213.187   2
   1  -2   3 4240.97 185.089   2
   1  -2   2 3223.71 162.730   2
  -1  -2  -2 3042.76 98.6573   2
  -1  -2  -1 1938.64 85.0629   2
  -1  -2   0 1014.29 68.4492   2
  -1  -2   1 1942.45 97.5961   2
   1   2   3 4324.25 106.388   2
   1   2   4 5588.63 115.253   2
   1   2   5 1264.39 58.7158   2
   1   2   6 23867.1 256.597   2
   1  -2  -6 23838.0 360.744   1
   1  -2  -7 90.2335 44.1495   1
   1  -2  -8 11014.4 270.849   1
   1  -2  -9 1013.46 95.4238   1
   1  -2 -10 2379.51 140.494   1
   1  -2 -11 1905.00 135.091   1
  -1  -2  12 1041.79 122.899   1
   1  -2 -12 1080.99 110.947   1
   1  -2 -13 797.750 102.622   1
  -1  -2  13 832.706 120.625   1
   1  -2 -14-2.46607 47.0720   1
  -1  -2  14-13.8636 61.9374   1
  -1  -2  15 35.9203 55.8406   1
   1  -2 -15 34.1203 60.3896   1
   1  -2 -16 896.302 120.715   1
   1  -2 -17 143.848 70.8584   1
   1  -2 -18 3207.32 227.800   1
   1  -2 -19 421.704 102.583   1
   1  -2 -20 1777.24 186.618   1
   1  -2 -21 149.308 76.6501   1
   1  -2 -22-176.123 88.1709   1
   1  -2 -23 190.132 95.2730   1
   1  -2 -24 249.343 102.668   1
   1  -2 -25 21.2061 72.8501   1
   1  -2 -26-40.1166 87.6097   1
   1  -2 -27 200.249 111.356   1
   1  -2 -28-9.75336 55.4752   1
   1  -2 -29 341.826 134.697   1
   1  -2 -30-137.170 90.9469   1
   1  -2 -31 236.743 116.482   1
  -1  -3 -28 197.118 119.147   1
  -1  -3 -27-58.1171 122.059   1
  -1  -3 -26-71.6110 97.7013   1
  -1  -3 -25-19.7089 78.3668   1
  -1  -3 -24 390.800 148.770   1
  -1  -3 -23-142.162 126.910   1
  -1  -3 -22 10.7016 101.937   1
  -1  -3 -21 406.461 150.956   1
  -1  -3 -20 35.6866 107.691   1
  -1  -3 -19 250.553 112.610   1
  -1  -3 -18 196.217 105.070   1
  -1  -3 -17 778.662 157.683   1
  -1  -3 -16 720.341 142.886   1
  -1  -3 -15 895.086 162.256   1
  -1  -3 -14 51.4198 82.5120   1
  -1  -3 -13 960.280 149.607   1
   1  -3  12 41.5699 59.2052   1
  -1  -3 -12 107.515 91.5164   1
  -1  -3 -11 20.1456 72.2027   1
   1  -3  11 28.2700 55.2489   2
   1  -3  11 96.0995 61.1666   1
   1  -3  10 880.857 121.998   2
  -1  -3 -10 584.974 121.783   1
   1  -3  10 607.834 103.857   1
  -1  -3  -9 4372.37 266.826   1
   1  -3   9 4175.72 237.669   1
   1  -3   9 4310.43 240.093   2
   1  -3   8 120.228 66.8257   2
   1  -3   8 181.594 66.1007   1
   1  -3   7 1414.16 135.415   2
   1  -3   6 72.2560 43.5319   2
   1  -3   5 2629.96 174.914   2
   1  -3   4 1845.25 148.250   2
   1  -3   3 6479.81 267.120   2
   1  -3   2 1111.85 119.076   2
  -1  -3  -2 890.467 78.7996   2
  -1  -3  -1 295.777 54.0664   2
  -1  -3   0 2467.41 130.639   2
  -1  -3   1 253.971 55.4022   2
   1   3   2 885.769 78.8407   2
  -1  -3   2 1207.55 100.944   2
  -1  -3   3 6164.17 223.134   2
   1   3   3 6049.23 178.780   2
   1   3   4 1661.63 96.9746   2
  -1  -3   4 1845.85 130.443   2
   1   3   5 2572.34 116.342   2
  -1  -3   5 2314.52 149.463   2
   1   3   6 117.041 38.4344   2
  -1  -3   6 230.796 61.9356   2
   1   3   7 1447.49 91.7279   2
  -1  -3   7 1441.51 127.058   2
   1   3   8 97.0704 38.1360   2
   1  -3  -8 145.495 58.5173   1
   1   3   9 4059.42 155.713   2
   1  -3  -9 4292.67 208.586   1
   1  -3 -10 721.030 99.9361   1
   1  -3 -11 91.8066 55.1245   1
   1  -3 -12 100.076 65.4986   1
   1  -3 -13 1049.76 126.842   1
   1  -3 -14 39.1679 61.9565   1
   1  -3 -15 1077.70 136.358   1
   1  -3 -16 956.112 130.499   1
   1  -3 -17 638.332 119.351   1
   1  -3 -18 238.284 85.7091   1
   1  -3 -19 149.767 85.0787   1
   1  -3 -20 87.9355 73.2849   1
   1  -3 -21 315.902 90.7726   1
   1  -3 -22-7.19866 74.6582   1
   1  -3 -23 75.3841 99.8883   1
   1  -3 -24 83.5890 93.1626   1
   1  -3 -25-33.0847 88.9737   1
   1  -3 -26 155.264 87.0067   1
   1  -3 -27-98.2365 94.0769   1
   1  -3 -28-102.598 104.427   1
   1  -3 -29 68.0726 90.8553   1
   1  -3 -30 186.306 118.737   1
  -1  -4 -26 421.706 155.628   1
  -1  -4 -25 148.292 114.444   1
  -1  -4 -24 353.259 138.689   1
  -1  -4 -23 166.400 127.397   1
  -1  -4 -22 161.802 117.784   1
  -1  -4 -21-59.2964 95.0486   1
  -1  -4 -20 56.1526 85.6541   1
  -1  -4 -19 266.673 117.413   1
  -1  -4 -18-69.1167 124.507   1
  -1  -4 -17 313.085 119.949   1
  -1  -4 -16 495.267 147.175   1
  -1  -4 -15 212.342 101.555   1
  -1  -4 -14 138.500 114.056   1
  -1  -4 -13 2158.75 233.550   1
  -1  -4 -12 76.1631 102.598   1
  -1  -4 -11 366.827 121.166   1
  -1  -4 -10 1536.53 186.632   1
  -1   4   7 14.1151 71.1349   2
  -1   4   6 195.502 76.7031   2
  -1   4   5 13.5803 56.6078   2
   1  -4   4 194.176 65.6889   2
  -1   4   4 197.990 76.2535   2
   1  -4   3 1060.04 130.611   2
  -1   4   3 1228.17 143.342   2
  -1   4   2 1346.81 149.419   2
  -1   4   1 1276.92 144.154   2
  -1  -4  -1 1149.69 111.107   2
  -1  -4   0 2799.66 165.542   2
  -1   4   0 2928.05 206.847   2
  -1   4  -1 996.006 125.359   2
  -1  -4   1 1092.15 109.603   2
   1   4   2 1263.02 111.514   2
  -1   4  -2 1164.27 136.632   2
  -1  -4   2 1542.35 129.516   2
   1   4   3 1033.27 96.9458   2
  -1  -4   3 1089.79 112.362   2
  -1   4  -3 987.852 129.380   2
  -1   4  -4 118.854 78.0680   2
   1   4   4 59.7831 41.7614   2
  -1  -4   4 130.922 65.3584   2
   1   4   5 20.6278 37.7329   2
  -1   4  -5 83.6962 66.4470   2
  -1  -4   5-7.66717 45.4304   2
  -1  -4   6 240.308 72.3679   2
  -1   4  -6 151.735 72.6445   2
   1   4   6 132.367 44.6249   2
   1   4   7-5.15927 35.7094   2
  -1   4  -7 4.05763 48.3309   2
  -1  -4   7 22.8055 50.7113   2
   1   4   8 55.7039 40.9664   2
  -1  -4   8 31.6291 48.9992   2
  -1   4  -8-1.91113 45.3660   2
   1   4   9 587.340 77.8850   2
   1  -4 -10 1429.63 148.425   1
   1   4  10 1404.37 114.280   2
   1   4  11 522.641 71.8598   2
   1  -4 -11 419.656 96.6087   1
   1   4  12 54.1249 40.2930   2
   1  -4 -12 109.966 70.4597   1
   1   4  13 2037.43 142.111   2
   1  -4 -13 2505.04 197.782   1
   1  -4 -14 62.6403 69.1784   1
   1  -4 -15 404.881 106.401   1
   1  -4 -16 506.267 99.2622   1
   1  -4 -17 286.395 100.964   1
   1  -4 -18 75.2794 69.9508   1
   1  -4 -19 80.3484 70.9104   1
   1  -4 -20 139.762 82.4033   1
   1  -4 -21 11.0116 67.9864   1
   1  -4 -22 134.498 74.6155   1
   1  -4 -23 57.4209 89.9862   1
   1  -4 -24 146.199 95.4706   1
   1  -4 -25 56.4649 95.5832   1
   1  -4 -26 386.152 111.320   1
   1  -4 -27-86.2473 110.605   1
  -1  -5 -23 66.4267 127.900   1
  -1  -5 -22 86.6720 113.850   1
  -1  -5 -21-222.327 144.991   1
  -1  -5 -20-111.078 128.921   1
  -1  -5 -19-156.334 115.054   1
  -1  -5 -18 197.239 138.287   1
  -1  -5 -17 371.371 125.736   1
  -1  -5 -16 171.210 107.519   1
  -1  -5 -15 206.845 123.231   1
  -1  -5 -14 107.808 91.2448   1
  -1  -5 -13-6.53752 120.745   1
  -1  -5 -12 12.0561 101.284   1
  -1   5  12-26.0921 58.8895   2
  -1   5  11 68.8773 76.0451   2
  -1  -5 -11 276.497 116.002   1
  -1   5  10 332.738 107.216   2
  -1   5   9 403.555 115.255   2
  -1   5   8 879.467 143.769   2
  -1   5   7 551.836 123.663   2
  -1   5   6 625.265 123.607   2
  -1   5   5 196.582 82.7976   2
  -1   5   4 491.476 116.132   2
  -1   5   3 329.339 93.5172   2
  -1   5   2 95.9660 79.5998   2
  -1   5   1 587.168 122.022   2
  -1  -5   0 142.889 60.7588   2
  -1   5   0 210.529 89.2032   2
  -1  -5   1 599.711 103.305   2
  -1   5  -1 583.692 121.057   2
  -1  -5   2 51.5379 56.0492   2
  -1   5  -2 162.099 94.5859   2
  -1  -5   3 483.218 96.0387   2
  -1   5  -3 306.126 97.8412   2
   1   5   3 359.241 76.1763   2
  -1   5  -4 601.301 124.628   2
  -1  -5   4 656.344 110.708   2
   1   5   4 690.838 96.5941   2
  -1   5  -5 140.504 78.9944   2
   1   5   5 266.129 70.6045   2
   1   5   6 534.918 82.9362   2
  -1   5  -6 517.179 116.310   2
   1   5   7 772.118 95.6013   2
  -1   5  -7 639.700 126.043   2
   1   5   8 938.841 105.486   2
   1   5   9 223.070 68.8298   2
   1   5  10 345.665 73.3842   2
   1   5  11 183.494 60.2945   2
   1  -5 -11 182.978 90.0776   1
   1   5  12 9.99026 41.3573   2
   1  -5 -12 43.9610 74.7198   1
   1   5  13 153.035 50.1447   2
   1  -5 -13 8.49726 75.8164   1
   1  -5 -14 275.421 104.116   1
   1   5  14 152.349 59.7540   2
   1   5  15 75.5261 50.1866   2
   1  -5 -15 8.06423 67.9792   1
   1   5  16-32.4100 40.1723   2
   1  -5 -16-10.2407 64.9712   1
   1   5  17 125.848 53.0369   2
   1  -5 -17 19.6485 59.7523   1
   1  -5 -18-37.7664 82.8324   1
   1  -5 -19 96.3003 82.5021   1
   1  -5 -20 99.1372 83.3639   1
   1  -5 -21-8.72385 76.0968   1
   1  -5 -22-42.4540 80.6355   1
   1  -5 -23 13.2273 63.1619   1
   1  -5 -24-101.509 102.928   1
  -1  -6 -20 119.158 120.889   1
  -1   6  20 211.687 110.399   2
  -1   6  19-19.5241 65.1002   2
  -1  -6 -19 63.3528 130.523   1
  -1   6  18-200.677 96.5903   2
  -1  -6 -18 196.163 132.534   1
  -1   6  17-4.19434 55.5967   2
  -1  -6 -17-31.0344 116.699   1
  -1   6  16 91.7217 77.5554   2
  -1  -6 -16 197.970 129.677   1
  -1  -6 -15-91.6027 135.441   1
  -1   6  15-70.0190 43.1272   2
  -1   6  14 210.097 87.9202   2
  -1  -6 -14 185.112 121.578   1
  -1   6  13-110.908 81.5511   2
  -1  -6 -13 138.947 137.500   1
  -1   6  12 159.727 78.0601   2
  -1  -6 -12 92.9399 99.7030   1
  -1   6  11 60.5287 68.9074   2
  -1   6  10-60.3626 76.6842   2
  -1   6   9 117.486 82.4726   2
  -1   6   8 127.635 89.2058   2
  -1   6   7 144.863 96.2429   2
  -1   6   6 75.3272 81.5231   2
  -1   6   5 119.984 80.1092   2
  -1   6   4 136.255 83.3061   2
  -1   6   3 52.0773 75.2009   2
  -1   6   2 160.070 91.8219   2
  -1   6   1 55.1575 80.3624   2
  -1   6   0 34.5561 89.1919   2
  -1   6  -1 37.8470 84.0258   2
  -1   6  -2 104.679 81.0692   2
  -1   6  -3 106.414 87.8547   2
  -1   6  -4 6.34609 74.5915   2
  -1   6  -5 139.181 74.5620   2
   1   6   5-7.89981 51.1946   2
  -1   6  -6 121.404 83.0016   2
   1   6   6 58.3048 57.8026   2
   1   6   7 202.867 74.7499   2
   1   6   8 186.595 67.1909   2
   1   6   9 139.331 53.7410   2
   1   6  10 189.029 60.5916   2
   1   6  11 172.016 61.7342   2
   1  -6 -11 171.542 104.703   1
   1   6  12 140.682 52.8962   2
   1  -6 -12 231.162 103.676   1
   1  -6 -13 100.464 84.6213   1
   1  -6 -14 17.8413 86.5554   1
   1  -6 -15 78.0709 98.8927   1
   1  -6 -16-8.70839 87.9665   1
   1  -6 -17 14.2111 72.8470   1
   1  -6 -18-178.586 105.530   1
   1  -6 -19-153.348 80.1845   1
   1  -6 -20 304.863 110.379   1
  -1   7  18-116.334 73.9952   2
  -1   7  17 40.1272 56.6174   2
  -1   7  16-75.0215 50.1965   2
  -1   7  15 55.1650 70.3258   2
  -1   7  14-29.4704 71.6612   2
  -1  -7 -14 228.970 136.360   1
  -1  -7 -13 5.67888 102.017   1
  -1   7  13 90.7249 61.3673   2
  -1   7  12-26.4643 76.2989   2
  -1  -7 -12-104.704 105.388   1
  -1   7  11 82.8495 74.9756   2
  -1   7  10 53.5169 77.2492   2
  -1   7   9 48.2028 96.1922   2
  -1   7   8-124.595 67.9511   2
  -1   7   7-152.553 92.6369   2
  -1   7   6 14.4811 40.4760   2
  -1   7   5 41.6077 55.4576   2
  -1   7   4-15.6891 60.7051   2
  -1   7   3 120.885 100.203   2
  -1   7   2 98.2539 81.1867   2
  -1   7   1-58.9553 84.6153   2
  -1   7   0-77.5789 82.9545   2
  -1   7  -1-90.7264 86.7379   2
  -1   7  -2-34.4757 73.7133   2
  -1   7  -3-205.315 112.001   2
  -1   7  -4 230.581 105.066   2
   1  -7 -11-123.195 87.5925   1
   1  -7 -12 186.338 99.1566   1
   1  -7 -13 310.539 109.097   1
   1  -7 -14-98.3386 89.7779   1
   1  -7 -15 196.537 112.237   1
  -1   8   9-232.153 109.545   2
  -1   8   8 117.641 92.7833   2
  -1   8   7 225.691 91.9544   2
  -1   8   6 210.663 109.545   2
  -1   8   5-70.5190 75.4411   2
  -1   8   4 174.768 91.9887   2
  -1   8   3 31.2703 60.5066   2
  -1   8   2 124.090 75.4614   2
  -1   8   1-202.050 98.5732   2
  -1   8   0-66.3124 74.3323   2
  -1   8  -1 133.706 104.543   2
  -2   0   0 2526.97 109.270   1
  -2   0  -1 1363.75 90.0742   1
  -2   0   1 1487.49 80.3349   1
  -2   0  -2 4602.02 164.024   1
  -2   0  -3 105.643 44.9221   2
  -2   0  -3 88.2435 51.3270   1
  -2   0  -4 1080.01 78.7061   2
   2   0   4 1107.54 98.8453   1
  -2   0  -4 1144.73 101.719   1
   2   0   5 1309.12 113.616   1
  -2   0  -5 1368.52 114.957   1
  -2   0  -5 1417.89 87.4559   2
   2   0   6 1746.88 132.458   1
  -2   0  -6 1607.72 92.1450   2
  -2   0  -6 1544.23 129.274   1
   2   0   7 139.854 41.0929   2
  -2   0   7 55.7843 33.5110   1
  -2   0  -7 100.461 39.6196   2
   2   0   7 73.0099 51.3427   1
  -2   0  -7 115.774 71.9014   1
  -2   0   8 490.600 57.2918   1
   2   0   8 446.180 56.7002   2
   2   0   8 468.154 85.2156   1
  -2   0  -8 433.392 94.7616   1
   2   0   9 830.928 110.079   1
  -2   0   9 776.998 73.1272   1
  -2   0  -9 968.710 126.118   1
   2   0   9 882.699 76.9841   2
   2   0  10 1240.51 92.4281   2
  -2   0  10 1353.37 99.0022   1
  -2   0 -10 1392.57 138.983   1
   2   0  10 1422.34 141.778   1
   2   0  11 85.4460 35.2760   2
  -2   0 -11 91.5642 90.6612   1
  -2   0  11 84.5551 42.2113   1
   2   0  11 118.546 66.8462   1
   2   0  12 1152.82 95.7562   2
   2   0  12 1197.21 137.945   1
  -2   0  12 1089.06 101.803   1
  -2   0 -12 1149.69 140.145   1
   2   0  13 83.8094 70.2562   1
   2   0  13 39.6874 38.2994   2
  -2   0 -13 22.6287 81.4251   1
  -2   0  13-18.6169 42.6815   1
   2   0  14 1570.17 118.959   2
  -2   0 -14 1397.97 167.061   1
  -2   0  14 1456.88 125.975   1
   2   0  14 1737.81 174.075   1
  -2   0 -15 1680.46 184.267   1
  -2   0  15 1483.06 136.968   1
   2   0  15 1401.50 117.676   2
   2   0  16 85.5100 49.0083   2
  -2   0 -16-15.5835 101.302   1
  -2   0  16 16.5091 43.1704   1
  -2   0 -17-84.5957 107.684   1
   2   0  17 15.9402 43.1211   2
  -2   0  17-20.1545 48.7576   1
  -2   0 -18 12.5030 75.4033   1
   2   0  18 1.93774 35.0081   2
  -2   0  18 162.993 65.4541   1
  -2   0 -19 1557.29 202.402   1
   2   0  19 1095.36 114.849   2
  -2   0  19 1014.91 132.221   1
  -2   0  20 103.945 64.4707   1
  -2   0 -20-48.2865 95.7476   1
   2   0  20 21.9071 29.2081   2
  -2   0 -21 174.194 101.689   1
   2   0  21 131.701 47.8091   2
  -2   0 -22 131.111 104.635   1
  -2   0 -23 70.2533 93.9406   1
  -2   0 -24-208.945 108.178   1
  -2   0 -25 28.5142 90.6743   1
  -2   0 -26 301.513 142.513   1
  -2   0 -27-106.027 117.478   1
  -2   0 -28 130.517 145.710   1
  -2  -1 -27 100.832 122.501   1
  -2  -1 -26 28.9479 114.421   1
  -2  -1 -25 30.6114 112.423   1
  -2  -1 -24-146.319 115.841   1
  -2  -1 -23 273.571 132.546   1
  -2  -1 -22 216.516 122.607   1
  -2  -1 -21 160.237 88.1948   1
  -2   1  20 263.230 81.3357   1
  -2  -1 -20 156.760 119.972   1
  -2   1  19 770.173 116.563   1
  -2  -1 -19 948.691 171.727   1
   2  -1  18 756.791 111.516   2
  -2   1  18 736.221 104.448   1
  -2  -1 -18 922.744 157.246   1
  -2  -1 -17 1955.37 215.524   1
  -2   1  17 1384.94 135.081   1
   2  -1  17 1598.10 149.878   2
   2  -1  16 1034.65 122.957   2
  -2  -1 -16 1140.81 163.623   1
  -2   1  16 879.387 109.647   1
   2  -1  15 1643.21 143.783   2
  -2  -1 -15 1600.18 178.231   1
  -2   1  15 1394.72 120.764   1
   2  -1  14 467.296 83.9835   2
   2  -1  14 686.830 115.074   1
  -2   1  14 519.059 75.5286   1
  -2  -1 -14 607.603 121.937   1
  -2  -1 -13 222.094 84.9702   1
   2  -1  13 157.558 62.4697   2
   2  -1  13 81.6365 55.0907   1
  -2   1  13 214.442 58.5890   1
  -2  -1 -12 691.147 121.637   1
   2  -1  12 939.485 121.291   1
   2  -1  12 905.531 105.542   2
  -2   1  12 831.659 79.8286   1
   2  -1  11 402.713 74.3340   2
  -2  -1 -11 467.210 109.703   1
  -2   1  11 383.339 56.3203   1
   2  -1  11 408.630 88.2600   1
   2  -1  10 2592.67 179.552   1
  -2  -1 -10 2740.16 200.137   1
  -2   1  10 2460.38 110.814   1
   2  -1  10 2713.52 162.982   2
  -2   1   9 9606.47 190.234   1
   2  -1   9 9799.73 329.173   1
  -2  -1  -9 8966.91 337.970   1
   2  -1   9 9614.46 290.959   2
   2  -1   8 2458.83 164.339   1
  -2  -1  -8 2435.06 181.499   1
  -2   1   8 2182.66 80.6480   1
   2  -1   8 2572.63 151.917   2
   2  -1   7 1042.20 97.3117   2
   2  -1   7 1103.03 109.885   1
  -2  -1  -7 1218.30 131.680   1
   2  -1   6 7120.22 242.398   2
   2  -1   6 6858.15 240.505   1
  -2  -1  -6 6963.29 270.876   1
  -2  -1  -5 7640.54 276.024   1
   2  -1   5 7216.62 236.167   1
  -2  -1  -4 4296.16 94.4272   2
   2  -1   4 4685.53 177.822   1
  -2  -1  -4 4626.81 211.889   1
   2  -1   3 7535.05 209.172   1
  -2  -1  -3 7570.72 254.091   1
   2  -1   2 326.014 49.9028   1
   2  -1   1 3531.67 120.057   1
   2  -1   0 58.8556 23.3608   1
  -2   1   0 45.2042 24.3953   1
  -2   1  -1 3644.53 118.718   1
  -2   1  -2 145.538 62.3708   2
  -2   1  -2 304.256 50.5093   1
  -2   1  -3 7568.59 207.014   1
  -2   1  -3 7333.73 237.261   2
  -2   1  -4 4720.39 191.589   2
  -2   1  -4 4540.93 176.623   1
  -2   1  -5 7611.56 237.986   1
  -2   1  -5 7727.57 243.269   2
  -2   1  -6 7336.60 237.411   2
  -2   1  -6 7164.93 247.272   1
  -2   1  -7 1421.18 128.442   1
  -2   1  -7 1145.73 103.900   2
  -2   1  -8 2456.77 145.560   2
  -2   1  -8 2525.59 172.479   1
   2   1   9 9575.11 165.288   2
  -2   1  -9 9293.28 321.907   1
  -2   1 -10 2480.57 179.127   1
   2   1  10 2420.94 92.8692   2
  -2   1 -11 410.032 101.037   1
   2   1  11 430.232 90.2012   1
   2   1  11 427.455 45.6165   2
  -2  -1  11 299.738 68.6562   1
  -2  -1  12 869.459 105.430   1
   2   1  12 955.408 133.022   1
  -2   1 -12 956.855 129.102   1
   2   1  12 926.712 67.6771   2
  -2   1 -13 260.469 102.914   1
  -2  -1  13 213.325 66.3784   1
   2   1  13 212.309 41.2099   2
   2   1  13 215.631 73.8945   1
  -2  -1  14 378.424 86.2042   1
   2   1  14 489.957 59.2280   2
  -2   1 -14 465.252 104.798   1
  -2  -1  15 1388.16 139.916   1
   2   1  15 1523.67 103.709   2
  -2   1 -15 1324.53 170.959   1
  -2   1 -16 1173.19 162.932   1
  -2  -1  16 1104.52 134.826   1
   2   1  16 984.664 88.6045   2
  -2   1 -17 1412.88 179.760   1
  -2  -1  17 1217.62 145.481   1
   2   1  17 1641.32 117.899   2
   2   1  18 860.147 93.1548   2
  -2  -1  18 685.909 122.260   1
  -2   1 -18 846.521 157.221   1
   2   1  19 898.256 96.7164   2
  -2   1 -19 907.105 165.008   1
  -2   1 -20 409.522 122.817   1
   2   1  20 270.868 65.9782   2
  -2   1 -21 149.581 97.8401   1
   2   1  21 74.6799 50.5891   2
  -2   1 -22 178.240 121.779   1
  -2   1 -23 412.713 134.609   1
  -2   1 -24 22.6658 102.407   1
  -2   1 -25 129.744 74.4178   1
  -2   1 -26-77.3953 88.2805   1
  -2   1 -27 162.040 114.530   1
  -2  -2 -27 157.662 144.614   1
  -2  -2 -26 156.362 109.788   1
  -2  -2 -25-112.195 111.240   1
  -2  -2 -24-358.919 143.995   1
  -2  -2 -23 275.453 131.097   1
  -2  -2 -22 175.105 126.816   1
  -2  -2 -21 355.574 140.647   1
  -2  -2 -20 315.566 134.368   1
  -2  -2 -19 26.8018 87.7009   1
  -2  -2 -18 282.489 111.146   1
  -2  -2 -17 265.996 103.624   1
  -2  -2 -16 705.534 134.985   1
  -2  -2 -15 207.049 100.017   1
   2  -2  14 139.129 65.9478   2
  -2  -2 -14 38.5091 93.7065   1
   2  -2  13 909.863 116.786   2
  -2  -2 -13 1027.17 153.647   1
   2  -2  13 888.181 123.520   1
   2  -2  12 273.209 72.0400   2
  -2  -2 -12 210.689 94.1955   1
   2  -2  12 208.900 67.4022   1
   2  -2  11 621.916 98.5808   2
   2  -2  11 876.818 115.342   1
  -2  -2 -11 616.883 120.719   1
   2  -2  10 126.515 60.7106   2
  -2  -2 -10 81.4795 85.9110   1
   2  -2  10 153.072 68.7586   1
  -2  -2  -9 1852.88 183.925   1
   2  -2   9 1845.65 151.483   2
   2  -2   9 1699.61 147.333   1
   2  -2   8 1742.40 143.803   1
  -2  -2  -8 1691.84 175.379   1
   2  -2   8 1647.14 142.859   2
   2  -2   7 8622.77 295.638   1
   2  -2   7 9111.04 318.748   2
  -2  -2  -7 8739.12 344.223   1
   2  -2   6 9685.35 299.445   1
   2  -2   6 9719.22 328.106   2
  -2  -2  -6 9317.50 345.042   1
   2  -2   5 9035.86 276.856   1
   2  -2   4 241.253 56.6054   1
   2  -2   3 3181.35 147.620   1
  -2  -2  -2 2150.07 75.7084   2
   2  -2   2 2377.43 121.039   1
   2  -2   1 1504.38 90.2048   1
   2  -2   0 2008.13 93.7819   1
   2  -2  -1 1531.16 73.6128   1
   2  -2  -2 2239.98 78.8918   1
  -2   2  -2 2335.02 163.189   2
  -2   2  -3 3306.14 190.870   2
   2  -2  -3 3144.41 82.6399   1
  -2   2  -4 238.345 76.5023   2
   2  -2  -4 209.001 23.9386   1
  -2   2  -5 8676.27 302.928   2
   2  -2  -5 8758.80 124.326   1
   2  -2  -6 9298.68 137.395   1
  -2   2  -6 9539.23 318.565   2
   2  -2  -7 8398.53 147.240   1
  -2   2  -7 8274.89 297.372   2
   2  -2  -8 1623.10 74.8471   1
  -2   2  -8 1578.49 140.318   2
  -2   2  -9 1797.58 151.269   2
   2  -2  -9 1737.83 84.7750   1
   2  -2 -10 52.3319 29.6062   1
   2  -2 -11 677.116 67.4282   1
   2  -2 -12 176.310 46.7195   1
   2   2  12 204.379 22.6320   2
  -2  -2  13 832.297 119.556   1
   2  -2 -13 931.378 88.0965   1
   2   2  13 823.459 50.2264   2
   2  -2 -14 17.1204 38.6008   1
   2   2  14 19.1626 17.9069   2
  -2  -2  14 27.7358 55.3514   1
  -2  -2  15 540.994 111.165   1
   2  -2 -15 360.208 70.7498   1
   2   2  15 289.898 39.6905   2
   2  -2 -16 887.427 105.170   1
   2  -2 -17 220.772 70.4360   1
   2  -2 -18 372.844 82.3641   1
   2  -2 -19 80.0989 54.9904   1
   2  -2 -20 102.372 68.5503   1
   2  -2 -21 248.273 78.8120   1
   2  -2 -22 64.0284 63.7074   1
   2  -2 -23 273.033 94.4839   1
   2  -2 -24 29.3875 69.8939   1
   2  -2 -25 8.50697 55.5727   1
   2  -2 -26 64.5177 77.7610   1
  -2  -3 -25 329.388 137.690   1
  -2  -3 -24-161.024 118.732   1
  -2  -3 -23-100.785 94.9844   1
  -2  -3 -22 3.54402 105.911   1
  -2  -3 -21 131.705 114.972   1
  -2  -3 -20-9.13625 113.936   1
  -2  -3 -19 76.7778 119.988   1
  -2  -3 -18 370.639 139.926   1
  -2  -3 -17 98.8073 98.1658   1
  -2  -3 -16 140.092 87.5039   1
  -2  -3 -15-41.2619 104.096   1
  -2  -3 -14 28.3993 92.7602   1
  -2  -3 -13 296.721 99.0884   1
  -2  -3 -12-3.84912 95.7694   1
   2  -3  11 169.963 61.8179   1
  -2  -3 -11 167.609 98.3763   1
  -2  -3 -10 408.411 103.141   1
   2  -3  10 409.794 91.4627   1
   2  -3   9 427.687 89.8634   1
  -2  -3  -9 295.341 107.789   1
   2  -3   8 47.9414 61.1619   2
  -2  -3  -8-27.1883 90.7753   1
   2  -3   8 80.3391 51.8689   1
   2  -3   7 245.869 76.2974   2
   2  -3   7 115.709 57.9644   1
   2  -3   6 82.7603 64.5384   2
   2  -3   6-16.5897 43.1681   1
   2  -3   5 1184.73 115.431   1
   2  -3   4 2394.08 155.196   1
   2  -3   3 160.499 53.8724   1
  -2  -3  -3 111.933 28.6735   2
  -2  -3  -2 481.624 51.0655   2
   2  -3   2 670.538 83.2498   1
  -2  -3  -1 60.6195 33.5849   2
   2  -3   1 68.8804 40.0612   1
  -2  -3   0 22.9073 32.9587   2
  -2  -3   1 48.2674 32.3660   2
  -2  -3   2 551.423 72.2393   2
  -2   3  -3 136.658 80.3288   2
  -2   3  -4 2284.42 181.892   2
  -2   3  -5 865.221 126.313   2
  -2   3  -6 77.7732 61.3989   2
  -2   3  -7 242.940 89.1585   2
   2  -3  -7 288.475 49.3503   1
   2  -3  -8 36.3059 31.7485   1
  -2   3  -8 19.5015 53.8207   2
  -2   3  -9 376.990 97.3549   2
   2  -3  -9 443.137 63.6362   1
   2  -3 -10 480.923 65.8107   1
  -2   3 -10 393.310 99.0473   2
   2  -3 -11 143.790 51.7275   1
   2  -3 -12 10.5049 38.4321   1
   2  -3 -13 233.369 60.3224   1
   2  -3 -14 151.444 58.4001   1
   2  -3 -15-0.26468 47.1986   1
   2   3  15 8.43709 17.4985   2
   2  -3 -16 268.867 76.9165   1
   2  -3 -17 186.950 71.6639   1
   2  -3 -18 479.135 96.3649   1
   2  -3 -19 55.9286 62.5337   1
   2  -3 -20 0.36857 60.6279   1
   2  -3 -21-15.9744 56.7464   1
   2  -3 -22 134.984 82.7967   1
   2  -3 -23 326.866 99.0896   1
  -2  -4 -23-233.689 146.320   1
  -2  -4 -22 106.890 122.023   1
  -2  -4 -21 264.004 142.824   1
  -2  -4 -20-84.2216 109.116   1
  -2  -4 -19-225.256 130.486   1
  -2  -4 -18 47.6406 112.338   1
  -2  -4 -17 72.4706 102.830   1
  -2  -4 -16-12.7495 100.891   1
  -2  -4 -15-2.47126 118.721   1
  -2  -4 -14 585.594 163.415   1
  -2  -4 -13 344.143 120.474   1
  -2  -4 -12 235.924 120.882   1
  -2  -4 -11 72.4611 91.9386   1
  -2  -4 -10 162.509 113.640   1
  -2  -4  -9 221.518 105.399   1
   2  -4   8 102.727 63.2280   1
   2  -4   7 1.85426 47.4144   1
  -2   4   6 701.598 133.878   2
   2  -4   6 740.143 112.415   1
  -2   4   5 1147.91 156.968   2
   2  -4   5 823.173 120.692   1
  -2   4   4-12.9311 55.4116   2
   2  -4   4-10.5463 43.2713   1
  -2   4   3 438.945 112.446   2
  -2  -4  -2 2091.08 124.032   2
  -2   4   2 1996.54 186.915   2
  -2  -4  -1 243.772 57.9386   2
  -2   4   1 120.516 79.1462   2
  -2   4   0 1606.54 176.322   2
  -2  -4   0 1700.76 124.683   2
  -2   4  -1 312.211 100.784   2
  -2  -4   1 268.704 65.0562   2
  -2   4  -2 1958.23 184.555   2
  -2  -4   2 1913.62 136.858   2
  -2   4  -3 379.095 100.040   2
  -2  -4   3 346.343 71.1974   2
  -2   4  -4 52.0356 71.9904   2
  -2  -4   4 24.2291 41.4166   2
  -2   4  -5 861.889 140.694   2
  -2  -4   5 1218.85 126.559   2
  -2   4  -6 942.124 141.523   2
  -2  -4   6 691.955 101.359   2
  -2   4  -7 70.1264 77.7924   2
  -2  -4   7 14.3101 48.9292   2
   2  -4  -8 127.914 59.2498   1
  -2   4  -8 155.819 76.0253   2
  -2  -4   8 165.114 69.9658   2
   2  -4  -9 245.623 68.4829   1
  -2   4  -9 74.7586 86.5084   2
   2  -4 -10 80.7880 55.0802   1
  -2   4 -10 215.014 111.979   2
   2  -4 -11 94.1768 55.6484   1
   2  -4 -12 214.936 66.3389   1
   2  -4 -13 412.291 76.1222   1
   2  -4 -14 561.666 95.0223   1
   2  -4 -15 221.299 71.0800   1
   2  -4 -16 69.2013 55.0421   1
   2  -4 -17-25.1047 45.8695   1
   2  -4 -18 69.5580 62.8033   1
   2  -4 -19 66.1264 56.3358   1
   2  -4 -20 263.804 85.2243   1
  -2  -5 -20-177.151 129.400   1
  -2  -5 -19 26.9925 111.601   1
  -2  -5 -18-6.93306 105.581   1
  -2  -5 -17-145.181 118.770   1
  -2  -5 -16-85.9132 122.450   1
  -2  -5 -15 13.4357 112.045   1
  -2  -5 -14-171.353 116.782   1
  -2  -5 -13 68.7177 101.706   1
  -2  -5 -12 197.827 129.292   1
  -2  -5 -11 244.741 124.693   1
  -2   5  11 512.876 119.473   2
  -2   5  10 199.102 93.1607   2
  -2  -5 -10 45.1135 114.709   1
  -2   5   9 30.0090 67.3186   2
  -2   5   8 137.717 81.9000   2
  -2   5   7 217.566 94.4863   2
  -2   5   6 74.5339 78.1921   2
  -2   5   5 182.790 81.1991   2
  -2   5   4 10.4594 77.5452   2
  -2   5   3 551.457 131.726   2
  -2   5   2 169.344 100.389   2
  -2  -5  -1 356.557 74.6090   2
  -2   5   1 562.035 132.577   2
  -2   5   0 63.1969 68.9136   2
  -2  -5   0 27.5858 50.6467   2
  -2  -5   1 353.566 84.6836   2
  -2   5  -1 489.893 124.018   2
  -2  -5   2 74.5510 61.2823   2
  -2   5  -2-113.458 79.0654   2
  -2  -5   3 869.343 113.952   2
  -2   5  -3 880.481 141.300   2
  -2  -5   4 76.1489 55.5528   2
  -2   5  -4 237.067 95.1126   2
  -2  -5   5-7.29593 56.2751   2
  -2   5  -5 163.261 85.9338   2
  -2   5  -6 64.7112 72.9854   2
  -2   5  -7 206.674 99.7619   2
  -2   5  -8 120.435 81.4262   2
  -2   5  -9-45.1929 95.3755   2
   2  -5  -9-6.57365 53.3692   1
   2  -5 -10-14.0792 56.3010   1
  -2   5 -10 234.590 105.062   2
   2  -5 -11 337.055 86.3715   1
   2  -5 -12 91.6287 60.9476   1
   2  -5 -13 127.318 68.6066   1
   2  -5 -14 32.7783 64.6891   1
   2  -5 -15 27.0271 53.8830   1
   2  -5 -16 93.3954 68.0228   1
  -2   6  18 37.8047 78.9996   2
  -2   6  17 19.5654 64.0298   2
  -2   6  16 64.5470 78.2202   2
  -2  -6 -16 72.4739 122.691   1
  -2   6  15 88.7267 83.5030   2
  -2  -6 -15 146.016 131.292   1
  -2   6  14 0.67635 74.5535   2
  -2  -6 -14 13.9162 125.963   1
  -2   6  13-142.515 84.1353   2
  -2  -6 -13-169.465 130.624   1
  -2  -6 -12 144.511 137.062   1
  -2   6  12-93.0881 84.0820   2
  -2   6  11-64.1257 81.4622   2
  -2  -6 -11-217.931 120.647   1
  -2   6  10-39.3281 72.3483   2
  -2   6   9 38.8378 81.2913   2
  -2   6   8 80.3837 82.5548   2
  -2   6   7 146.465 84.7540   2
  -2   6   6-95.0696 92.0769   2
  -2   6   5 41.1695 62.3577   2
  -2   6   4 152.100 91.6484   2
  -2   6   3 13.6507 86.2299   2
  -2   6   2 101.199 93.0241   2
  -2   6   1-105.229 95.1042   2
  -2   6   0 22.6807 88.3809   2
  -2   6  -1 31.4557 83.6669   2
  -2   6  -2-0.58308 78.1370   2
  -2   6  -3 20.5292 74.6815   2
  -2   6  -4 152.274 93.7839   2
  -2   6  -5 42.6467 95.4362   2
  -2   6  -6-6.60205 77.8169   2
  -2   6  -7 22.0185 74.0993   2
  -2   6  -8 195.083 102.969   2
  -2   6  -9-237.956 108.649   2
   2  -6 -10 65.4081 62.4746   1
   2  -6 -11 13.0384 53.6740   1
  -2   7  12 19.8862 78.6113   2
  -2   7  11 21.0999 71.4770   2
  -2   7  10-136.255 99.4794   2
  -2   7   9-69.4807 73.8470   2
  -2   7   8 80.6486 63.2849   2
  -2   7   7-21.2315 68.8188   2
  -2   7   6 21.6721 66.9971   2
  -2   7   5 56.9568 82.4722   2
  -2   7   4 50.2479 63.4377   2
  -2   7   3-0.68591 95.8859   2
  -2   7   2-42.4895 75.3755   2
  -2   7   1-52.6737 80.2638   2
  -2   7   0 78.2665 82.6193   2
  -2   7  -1 18.5957 75.0591   2
  -2   7  -2-154.217 92.4389   2
  -2   7  -3-158.619 97.6952   2
  -2   7  -4 220.633 108.743   2
  -2   7  -5 96.0208 90.7738   2
  -2   7  -6-74.7449 64.8987   2
  -2   7  -7-31.8103 71.8341   2
  -3   0   0 336.183 58.3264   1
  -3   0  -1 79.2690 53.0776   1
  -3   0   1 37.1010 39.3655   1
  -3   0  -2 2694.99 152.569   1
  -3   0   2 2564.99 120.844   1
  -3   0  -3 385.637 65.9111   2
  -3   0  -3 416.973 73.9535   1
  -3   0   3 385.145 54.5801   1
  -3   0  -4 3290.52 158.549   2
  -3   0  -4 3214.06 178.344   1
  -3   0   4 3167.86 120.183   1
  -3   0  -5 3108.52 182.820   1
  -3   0  -5 3001.01 149.611   2
  -3   0  -6 0.70999 34.3682   2
  -3   0  -6-17.5686 60.2963   1
  -3   0   7 866.590 65.9399   1
  -3   0  -7 1113.40 124.846   1
  -3   0  -7 1102.29 93.1647   2
  -3   0   8 61.3754 28.9862   1
  -3   0  -8 58.3594 39.6735   2
  -3   0  -8 42.6933 67.8846   1
  -3   0   9 452.183 55.8106   1
   3   0   9 439.932 94.7279   1
  -3   0  -9 577.860 114.754   1
  -3   0  10 147.852 43.7186   1
   3   0  10 39.2659 46.1891   1
  -3   0 -10 52.0571 85.9059   1
  -3   0  11 3517.59 151.957   1
  -3   0 -11 3514.15 243.869   1
   3   0  11 3592.29 240.160   1
  -3   0  12 4151.01 173.610   1
  -3   0 -12 4224.33 276.142   1
  -3   0 -13 4242.34 286.948   1
  -3   0  13 4069.91 181.504   1
  -3   0 -14 2382.89 226.320   1
  -3   0  14 2168.29 140.181   1
   3   0  14 2354.79 149.269   2
   3   0  15 252.180 56.8035   2
  -3   0 -15 286.214 108.264   1
  -3   0  15 175.070 54.6319   1
   3   0  16 322.402 68.9507   2
  -3   0 -16 254.056 110.382   1
  -3   0  16 87.8597 46.7115   1
   3   0  17 540.731 82.0474   2
  -3   0 -17 731.013 146.793   1
  -3   0  17 340.525 76.3118   1
  -3   0  18-2.41442 53.7060   1
  -3   0 -18-130.286 102.475   1
  -3   0 -19-134.384 111.326   1
  -3   0 -20 60.0387 90.7425   1
  -3   0 -21-175.084 107.730   1
  -3   0 -22 227.424 117.758   1
  -3   0 -23 56.4618 119.107   1
  -3   0 -24 183.325 143.785   1
  -3   0 -25-95.6333 105.002   1
  -3   0 -26 305.960 156.219   1
  -3  -1 -25-0.81419 100.707   1
  -3  -1 -24 159.827 103.304   1
  -3  -1 -23 56.6772 102.169   1
  -3  -1 -22 128.099 124.801   1
  -3  -1 -21 185.458 109.608   1
  -3  -1 -20-199.050 117.278   1
  -3  -1 -19 304.379 109.516   1
  -3  -1 -18 30.3078 88.4882   1
   3  -1  17 614.761 101.759   2
  -3   1  17 527.744 77.9453   1
  -3  -1 -17 635.507 141.564   1
   3  -1  16 367.497 77.3555   2
  -3   1  16 442.839 66.1923   1
  -3  -1 -16 298.078 116.077   1
   3  -1  15 590.649 96.5876   2
  -3  -1 -15 381.749 122.498   1
  -3   1  15 702.126 75.2521   1
  -3   1  14 1401.51 91.8100   1
   3  -1  14 1430.69 133.907   2
  -3  -1 -14 1533.58 190.472   1
  -3  -1 -13 199.696 99.4900   1
   3  -1  13 340.731 75.5941   2
  -3   1  13 262.604 41.5936   1
  -3  -1 -12 28.1214 87.8437   1
   3  -1  12 154.557 59.6381   2
   3  -1  11 836.234 121.060   1
  -3  -1 -11 962.234 150.419   1
   3  -1  10 1277.27 142.880   1
  -3  -1 -10 1303.25 161.545   1
  -3  -1  -9 2112.57 191.027   1
   3  -1   9 2119.02 172.503   1
   3  -1   8 724.199 104.440   1
  -3  -1  -8 673.934 122.133   1
   3  -1   7 990.384 111.849   1
  -3  -1  -7 1043.44 134.263   1
  -3  -1  -6-9.67220 20.8769   2
  -3  -1  -6 7.24284 71.0767   1
   3  -1   6 29.2329 46.4499   1
  -3  -1  -5 1659.04 152.003   1
   3  -1   5 1768.58 135.466   1
  -3  -1  -5 1553.63 83.0253   2
  -3  -1  -4 366.064 49.5041   2
  -3  -1  -4 394.368 87.6266   1
   3  -1   4 392.892 68.8501   1
  -3  -1  -3 177.111 71.5958   1
   3  -1   3 178.468 51.0677   1
  -3  -1  -2 827.375 104.658   1
  -3   1   1 3583.13 101.335   1
  -3  -1  -1 4087.29 200.696   1
  -3   1   0 1762.86 86.5645   1
  -3  -1   0 1836.01 139.209   1
  -3   1  -1 3704.41 138.860   1
  -3   1  -1 3747.93 206.015   2
  -3   1  -2 586.644 68.9484   1
  -3   1  -2 649.451 97.0159   2
  -3   1  -3 202.068 69.4608   2
  -3   1  -3 164.849 50.7578   1
  -3   1  -4 325.495 73.1980   2
  -3   1  -4 434.683 75.5839   1
  -3   1  -5 1716.75 130.189   1
  -3   1  -5 1522.65 131.429   2
  -3   1  -6-35.8209 51.4756   2
  -3   1  -6 25.8195 49.8263   1
  -3   1  -7 1120.14 120.135   1
  -3   1  -7 982.833 107.651   2
  -3   1  -8 628.990 102.634   1
  -3   1  -8 632.273 93.4937   2
  -3   1  -9 2274.47 181.528   1
  -3   1  -9 2218.92 158.000   2
  -3   1 -10 1230.07 124.727   2
  -3   1 -10 1064.03 137.288   1
  -3   1 -11 688.325 124.124   1
  -3  -1  11 784.105 99.3058   1
  -3   1 -12 149.467 78.8007   1
  -3  -1  12 64.0132 49.2876   1
  -3  -1  13 325.925 77.7861   1
  -3   1 -13 368.235 109.886   1
  -3  -1  14 1668.57 147.060   1
  -3   1 -14 1506.95 174.610   1
  -3   1 -15 635.671 139.781   1
  -3  -1  15 485.035 85.5809   1
  -3   1 -16 515.745 124.325   1
  -3  -1  16 452.205 90.6663   1
   3   1  16 365.190 53.8723   2
  -3   1 -17 765.523 153.335   1
  -3  -1  17 706.182 110.816   1
  -3   1 -18 38.8629 82.4673   1
  -3  -1  18-71.9494 53.2345   1
  -3   1 -19 390.375 131.297   1
  -3   1 -20 30.3067 92.0238   1
  -3   1 -21 278.335 122.963   1
  -3   1 -22 157.824 118.143   1
  -3   1 -23 3.52669 112.157   1
  -3   1 -24 85.9169 108.940   1
  -3   1 -25 101.677 123.003   1
  -3  -2 -24 13.8147 100.993   1
  -3  -2 -23-107.510 100.286   1
  -3  -2 -22 130.109 121.428   1
  -3  -2 -21 163.587 102.809   1
  -3  -2 -20-122.126 101.099   1
  -3  -2 -19 86.2466 100.119   1
  -3  -2 -18 238.232 100.056   1
  -3  -2 -17 5.32167 88.9600   1
  -3  -2 -16 275.004 122.859   1
  -3  -2 -15 108.737 100.140   1
  -3  -2 -14 77.7681 93.5590   1
  -3  -2 -13 435.170 121.797   1
  -3  -2 -12 322.895 118.209   1
   3  -2  11 810.468 112.971   1
  -3  -2 -11 430.554 117.871   1
   3  -2  10 2146.09 175.994   1
  -3  -2 -10 1742.27 189.594   1
  -3  -2  -9 1568.23 183.427   1
   3  -2   9 1556.30 144.158   1
   3  -2   8 2565.38 179.059   1
  -3  -2  -8 2281.43 204.094   1
  -3  -2  -7 1456.43 170.721   1
   3  -2   7 1688.58 140.087   1
  -3  -2  -6 915.628 134.246   1
   3  -2   6 876.673 100.141   1
   3  -2   5 275.913 58.2946   1
  -3  -2  -5 281.387 90.4687   1
  -3  -2  -4 840.568 122.348   1
   3  -2   4 893.305 92.5050   1
   3  -2   3 311.065 55.2541   1
   3  -2   2 1090.50 87.4005   1
   3  -2   1 153.516 35.2570   1
  -3   2   0 66.3044 58.9823   2
   3  -2   0 182.112 33.2005   1
  -3   2  -1 23.0984 66.1996   2
  -3   2  -2 1172.28 132.734   2
  -3   2  -3 238.819 81.6835   2
  -3   2  -4 881.544 123.669   2
  -3   2  -5 252.362 82.2899   2
  -3   2  -6 697.054 106.417   2
  -3   2  -7 1445.40 146.402   2
  -3   2  -8 2412.96 186.381   2
  -3   2  -9 1400.46 152.201   2
  -3   2 -10 1774.83 169.294   2
  -3   2 -11 528.070 105.784   2
  -3   2 -11 522.546 113.354   1
  -3   2 -12 169.178 82.5052   1
  -3   2 -13 352.708 103.908   1
  -3   2 -14-33.9145 73.2568   1
  -3  -2  14 133.745 67.1017   1
  -3   2 -15 107.886 89.2904   1
  -3   2 -16 98.1418 75.8022   1
  -3   2 -17 63.5031 96.5960   1
  -3   2 -18 259.763 113.697   1
  -3   2 -19 152.567 109.170   1
  -3   2 -20 16.7510 89.3469   1
  -3  -3 -23-20.5308 91.7667   1
  -3  -3 -22-230.743 119.202   1
  -3  -3 -21 259.743 131.602   1
  -3  -3 -20 161.695 120.706   1
  -3  -3 -19 152.832 103.276   1
  -3  -3 -18 17.5740 76.1990   1
  -3  -3 -17-24.6068 84.1657   1
  -3  -3 -16 41.3576 69.4858   1
  -3  -3 -15 171.698 104.499   1
  -3  -3 -14 111.402 95.6078   1
  -3  -3 -13 426.171 137.693   1
  -3  -3 -12 582.220 146.444   1
  -3  -3 -11 201.249 108.803   1
  -3  -3 -10 544.376 129.418   1
   3  -3  10 578.281 97.1106   1
   3  -3   9 492.455 88.0988   1
  -3  -3  -9 391.719 122.310   1
  -3  -3  -8 91.5696 84.6681   1
   3  -3   8 171.500 83.6154   1
   3  -3   7 1048.96 114.054   1
  -3  -3  -7 1060.05 164.960   1
  -3  -3  -6 1057.35 157.787   1
   3  -3   6 1192.98 117.235   1
   3  -3   5 1833.57 139.121   1
   3  -3   4 288.934 59.8766   1
   3  -3   3 1862.30 129.749   1
  -3   3   3 1624.58 181.041   2
  -3   3   2 1273.71 168.830   2
   3  -3   2 1354.84 103.917   1
  -3  -3  -2 1124.69 64.3711   2
   3  -3   1 2124.51 118.320   1
  -3   3   1 2160.37 199.739   2
  -3  -3  -1 2213.60 103.708   2
  -3   3   0 108.762 75.3238   2
   3  -3   0 96.1603 32.7645   1
   3  -3  -1 2210.28 99.9039   1
  -3   3  -1 2021.06 194.949   2
  -3   3  -2 1157.89 150.234   2
   3  -3  -2 1310.59 67.3899   1
  -3   3  -3 1711.82 176.021   2
  -3   3  -4 397.420 97.5702   2
  -3   3  -5 1508.36 166.923   2
  -3   3  -6 1023.05 149.028   2
  -3   3  -7 848.987 138.448   2
  -3   3  -8 60.9755 81.1504   2
  -3   3  -9 359.658 104.106   2
  -3   3 -10 447.051 110.903   2
  -3   3 -11 224.661 88.2441   2
  -3   3 -12 375.911 103.125   2
  -3  -4 -20 392.118 138.160   1
  -3  -4 -19-17.1370 93.0880   1
  -3  -4 -18 261.716 115.840   1
  -3  -4 -17 19.9874 78.3319   1
  -3  -4 -16 133.034 116.467   1
  -3  -4 -15 205.333 103.191   1
  -3  -4 -14 142.725 89.8489   1
  -3  -4 -13 47.6816 76.2504   1
  -3  -4 -12 192.510 107.007   1
  -3  -4 -11 187.120 128.137   1
  -3  -4 -10 144.315 123.041   1
  -3  -4  -9 35.5496 86.9719   1
  -3  -4  -8 210.479 104.809   1
  -3  -4  -7-2.81003 96.8904   1
   3  -4   7 36.6680 32.0402   1
  -3   4   6 8.94789 85.3248   2
   3  -4   6 58.9525 29.7076   1
  -3   4   5-107.897 90.6919   2
   3  -4   5 77.9622 40.4660   1
  -3   4   4-17.8807 95.5907   2
   3  -4   4-53.8489 43.6459   1
  -3   4   3 478.874 125.419   2
   3  -4   3 509.031 83.2477   1
  -3   4   2 617.643 132.028   2
   3  -4   2 834.839 97.8249   1
  -3  -4  -2 609.522 58.0816   2
  -3   4   1 733.065 143.991   2
  -3  -4  -1 667.458 70.7678   2
   3  -4   1 751.352 90.7037   1
  -3   4   0 1662.26 197.910   2
   3  -4   0 1771.62 124.631   1
  -3  -4   0 1672.42 112.196   2
  -3   4  -1 769.612 138.957   2
   3  -4  -1 683.844 75.1644   1
  -3  -4   1 724.530 85.2733   2
   3  -4  -2 750.722 73.1861   1
  -3   4  -2 457.310 133.525   2
  -3  -4   2 603.590 84.4732   2
   3  -4  -3 543.958 59.6308   1
  -3   4  -3 510.598 120.139   2
  -3  -4   3 439.784 75.2263   2
   3  -4  -4 95.5376 27.2761   1
  -3   4  -4 70.0787 95.4109   2
  -3  -4   4 97.4243 54.8935   2
   3  -4  -5 52.1482 23.5255   1
  -3   4  -5 73.7859 84.3531   2
  -3  -4   5 68.0790 46.3241   2
   3  -4  -5 125.792 29.4239   1
  -3   4  -6 26.2918 69.3903   2
   3  -4  -6 170.385 32.5952   1
   3  -4  -6 92.9538 21.4632   1
  -3   4  -7 75.4991 83.8679   2
   3  -4  -7-24.9019 19.3531   1
   3  -4  -8 230.126 28.5187   1
  -3   4  -8 165.841 95.2422   2
  -3   4  -9 89.9113 77.7243   2
  -3   4 -10 211.053 106.205   2
  -3   4 -11 50.6348 81.9547   2
  -3   4 -12 75.5113 89.9405   2
  -3  -5 -16 160.609 94.6640   1
  -3  -5 -15-84.7277 90.6810   1
  -3  -5 -14-10.0400 64.6326   1
  -3  -5 -13-13.4930 77.9927   1
  -3  -5 -12-113.021 85.0173   1
  -3  -5 -11 55.3385 91.2944   1
  -3   5  11 7.36767 87.7564   2
  -3   5  10-40.0454 50.4018   2
  -3  -5 -10 48.5748 102.798   1
  -3   5   9-38.5878 95.5116   2
  -3  -5  -9 22.9466 77.7635   1
  -3   5   8 42.1933 75.1273   2
  -3  -5  -8 118.679 85.8907   1
  -3   5   7 179.740 103.470   2
  -3   5   6 172.968 114.499   2
  -3   5   5-1.19863 41.4163   2
  -3   5   4-43.9804 71.1313   2
  -3   5   3 168.006 96.1383   2
  -3   5   2 315.460 127.229   2
  -3   5   1 238.144 111.340   2
  -3   5   0 346.727 122.690   2
  -3   5  -1 115.731 90.3082   2
  -3   5  -2 141.493 83.7590   2
  -3   5  -3 170.183 100.457   2
  -3   5  -4 51.3047 86.2069   2
  -3   5  -5-59.4146 84.9769   2
  -3   5  -6-103.371 80.9855   2
  -3   5  -7 191.740 102.552   2
  -3   5  -8-22.3249 89.6933   2
  -3   5  -9 159.165 90.2631   2
  -3   5 -10-11.6322 95.7573   2
  -3   5 -11 30.8316 111.203   2
  -3   6  12 87.8722 85.4805   2
  -3   6  11 240.580 105.682   2
  -3  -6 -11 190.536 129.169   1
  -3   6  10-27.4183 78.6924   2
  -3  -6 -10 104.767 105.183   1
  -3   6   9-104.321 91.0314   2
  -3  -6  -9-117.957 84.8232   1
  -3   6   8-61.1993 95.4914   2
  -3   6   7 20.6266 63.2026   2
  -3   6   6 135.109 91.3915   2
  -3   6   5 9.07013 82.7052   2
  -3   6   4 391.742 130.136   2
  -3   6   3-21.5486 82.1015   2
  -3   6   2 134.768 93.5925   2
  -3   6   1 0.68450 62.0487   2
  -3   6   0 9.51143 46.8916   2
  -3   6  -1-76.2738 84.1149   2
  -3   6  -2 92.4903 91.7914   2
  -3   6  -3-73.0234 104.661   2
  -3   6  -4 369.463 142.653   2
  -3   6  -5 32.0087 103.835   2
  -3   6  -6 79.1028 97.4508   2
  -3   6  -7-23.3722 103.653   2
  -3   6  -8 201.071 112.940   2
  -3   6  -9 14.2391 84.3188   2
  -3   6 -10-88.9365 115.964   2
  -4   0   0 1768.71 126.802   1
  -4   0   1-9.20037 40.9109   1
  -4   0  -1-70.5419 48.8137   1
  -4   0  -2 20.4609 49.2502   2
  -4   0   2 7.27491 32.5251   1
  -4   0  -2 89.6344 58.5701   1
  -4   0  -3 2721.27 174.610   1
  -4   0   3 2430.21 120.553   1
  -4   0  -3 2708.97 170.693   2
  -4   0  -4 90.9043 47.9275   2
  -4   0   4 121.160 36.6511   1
  -4   0  -4 179.844 66.9673   1
  -4   0  -5-5.80313 45.2780   2
  -4   0   5 58.6445 27.7655   1
  -4   0  -5 1.22867 48.1903   1
  -4   0  -6 149.114 52.1741   2
  -4   0   6 58.4108 27.9582   1
  -4   0  -6 95.7554 72.7309   1
  -4   0  -7 585.387 85.1949   2
  -4   0   7 437.119 43.6861   1
  -4   0  -7 531.685 109.609   1
  -4   0   7 503.462 46.9249   1
  -4   0  -8 907.259 133.376   1
  -4   0   8 828.670 56.5831   1
  -4   0  -8 1024.85 104.974   2
  -4   0  -9 548.826 79.5195   2
  -4   0  -9 562.771 119.395   1
  -4   0   9 431.833 41.2195   1
  -4   0 -10 2473.97 220.136   1
  -4   0  10 2182.63 88.6906   1
  -4   0 -11 189.348 97.2409   1
  -4   0 -12 147.560 103.432   1
  -4   0 -13 151.913 90.0077   1
  -4   0 -14 1209.98 178.469   1
  -4   0 -15 196.752 107.251   1
  -4   0 -16 856.655 160.482   1
  -4   0 -17 134.092 95.2032   1
  -4   0 -18 229.441 111.587   1
  -4   0 -19-6.85583 111.049   1
  -4   0 -20 100.059 110.205   1
  -4   0 -21 63.7364 104.775   1
  -4   0 -22 202.156 123.023   1
  -4   0 -23 350.786 152.461   1
  -4  -1 -22 179.529 113.370   1
  -4  -1 -21 14.6116 99.8571   1
  -4  -1 -20 284.987 137.126   1
  -4  -1 -19 31.2316 94.0931   1
  -4  -1 -18 89.7593 76.8055   1
  -4  -1 -17 93.7734 96.1918   1
  -4  -1 -16 215.618 118.702   1
  -4  -1 -15 175.535 99.7785   1
  -4  -1 -14 154.133 104.755   1
  -4  -1 -13 999.954 162.240   1
  -4  -1 -12 351.735 114.203   1
  -4  -1 -11 1413.42 188.512   1
  -4  -1 -10 981.641 151.624   1
  -4  -1  -9 282.562 108.341   1
  -4  -1  -8 215.005 93.3810   1
  -4  -1  -7 435.478 112.585   1
  -4  -1  -7 355.402 49.7396   2
  -4  -1  -6 461.002 55.5640   2
  -4  -1  -6 398.076 107.015   1
  -4  -1  -5 435.460 60.5653   2
  -4  -1  -5 338.106 92.5460   1
  -4  -1  -4 308.329 54.3149   2
  -4  -1  -4 323.729 91.3394   1
  -4  -1  -3 102.238 44.3538   2
  -4  -1  -3 159.158 80.9060   1
  -4  -1  -2 142.892 71.2709   1
  -4  -1  -1 274.719 76.7016   1
  -4   1   0 1381.80 82.6965   1
  -4  -1   0 1335.08 137.103   1
  -4   1  -1 367.604 55.6705   1
  -4   1  -1 230.562 82.5881   2
  -4  -1   1 429.789 89.0799   1
  -4   1  -2 169.273 73.1364   2
  -4   1  -2 250.920 52.1475   1
  -4  -1   2 248.738 71.3157   1
  -4   1  -3 157.408 56.4642   1
  -4   1  -3 42.6278 57.4886   2
  -4  -1   3 183.370 61.2143   1
  -4   1  -4 220.540 63.4277   1
  -4   1  -4 332.500 83.0056   2
  -4  -1   4 355.880 69.2999   1
  -4   1  -5 335.964 73.8149   1
  -4   1  -5 588.394 95.0116   2
  -4   1  -6 553.170 95.3349   1
  -4   1  -6 372.400 84.1068   2
  -4   1  -7 508.657 102.354   1
  -4   1  -7 320.531 82.4041   2
  -4   1  -8 272.762 84.1697   1
  -4   1  -8 178.691 69.2689   2
  -4   1  -9 66.4056 73.6964   1
  -4   1  -9 85.7115 62.3733   2
  -4   1 -10 1010.17 141.504   1
  -4   1 -10 791.265 110.312   2
  -4   1 -11 1603.61 154.777   2
  -4  -1  11 1489.66 127.826   1
  -4   1 -11 1620.91 175.705   1
  -4   1 -12 210.569 95.1488   1
  -4   1 -13 1147.40 164.423   1
  -4   1 -14 121.879 87.0830   1
  -4   1 -15 220.562 102.234   1
  -4   1 -16 125.735 100.869   1
  -4   1 -17 172.005 99.1572   1
  -4   1 -18 8.60471 103.962   1
  -4   1 -19 89.3202 99.9863   1
  -4   1 -20 170.582 104.976   1
  -4   1 -21 65.1485 91.2882   1
  -4   1 -22 314.925 133.050   1
  -4   1 -23 44.1003 115.031   1
  -4  -2 -21 84.3061 101.041   1
  -4  -2 -20 353.358 128.364   1
  -4  -2 -19 267.433 104.360   1
  -4  -2 -18 119.883 108.729   1
  -4  -2 -17 118.853 99.9878   1
  -4  -2 -16 160.864 112.756   1
  -4  -2 -15 172.049 118.572   1
  -4  -2 -14 48.0505 94.3527   1
  -4  -2 -13 234.406 100.527   1
  -4  -2 -12 298.103 118.793   1
  -4  -2 -11 277.702 111.863   1
  -4  -2 -10 194.624 108.590   1
  -4  -2  -9-28.4058 99.6418   1
   4  -2   9 146.870 57.1876   1
  -4  -2  -8 912.133 148.759   1
   4  -2   8 895.845 118.434   1
   4  -2   7 1234.30 130.084   1
  -4  -2  -7 1265.00 168.641   1
  -4  -2  -6 1067.58 158.359   1
   4  -2   6 1193.48 130.261   1
  -4  -2  -5 572.746 122.919   1
   4  -2   5 516.269 84.6575   1
  -4  -2  -4 617.279 122.168   1
  -4  -2  -4 495.982 44.1725   2
  -4  -2  -3 69.7181 83.1881   1
  -4  -2  -3 115.810 32.3823   2
  -4  -2  -2 562.424 116.031   1
  -4   2   1 392.959 111.105   2
  -4  -2  -1 512.938 116.295   1
  -4   2   0 26.5625 74.2973   2
  -4  -2   0 19.3848 72.9869   1
  -4   2  -1 437.340 105.210   2
  -4   2  -2 594.957 116.306   2
  -4   2  -3 92.1737 81.5124   2
  -4   2  -4 527.897 109.215   2
  -4   2  -5 539.191 106.822   2
  -4   2  -6 771.902 130.881   2
  -4   2  -7 1046.19 139.826   2
  -4   2  -8 848.454 131.427   2
  -4   2  -9 75.9688 70.2389   2
  -4   2 -10 179.459 81.9346   2
  -4   2 -11 238.486 86.6352   2
  -4   2 -12 251.395 93.7690   2
  -4  -3 -19-149.824 111.572   1
  -4  -3 -18 130.135 96.5925   1
  -4  -3 -17 423.544 146.741   1
  -4  -3 -16 337.704 134.876   1
  -4  -3 -15 319.979 128.881   1
  -4  -3 -14-39.4496 86.0871   1
  -4  -3 -13 69.2432 97.7659   1
  -4  -3 -12 209.243 120.515   1
  -4  -3 -11-49.4711 94.2884   1
  -4  -3 -10 542.943 143.703   1
  -4  -3  -9 254.362 123.951   1
  -4  -3  -8 329.112 124.673   1
  -4  -3  -7 302.469 125.051   1
  -4  -3  -6 253.313 115.942   1
  -4  -3  -5 133.796 110.290   1
  -4   3   4 1080.59 165.648   2
  -4  -3  -4 868.937 161.457   1
  -4   3   3 338.394 112.996   2
  -4  -3  -3 389.933 115.523   1
  -4   3   2 117.336 95.0216   2
  -4   3   1 914.847 152.495   2
  -4   3   0 127.466 96.9189   2
  -4   3  -1 884.009 150.465   2
  -4   3  -2 152.144 93.5933   2
  -4   3  -3 447.459 118.608   2
  -4   3  -4 825.127 144.558   2
  -4   3  -5 146.453 93.1200   2
  -4   3  -6 336.544 106.236   2
  -4   3  -7 410.343 121.044   2
  -4   3  -8 255.167 102.000   2
  -4   3  -9 355.983 118.733   2
  -4   3 -10 503.888 125.666   2
  -4   3 -11 3.49476 78.9729   2
  -4   3 -12 104.690 84.4011   2
  -4  -4 -16-25.9997 96.5405   1
  -4  -4 -15-83.4819 99.0463   1
  -4  -4 -14 171.702 140.732   1
  -4  -4 -13 471.517 134.999   1
  -4  -4 -12 336.907 136.231   1
  -4  -4 -11 45.9700 111.116   1
  -4  -4 -10-15.0117 111.282   1
  -4  -4  -9 34.2290 103.052   1
  -4  -4  -8 21.9076 107.231   1
  -4   4   8-116.852 82.3575   2
  -4   4   7 57.0891 89.6214   2
  -4  -4  -7-91.3352 112.085   1
  -4   4   6 77.5146 99.0745   2
  -4  -4  -6 402.906 146.393   1
  -4   4   5 94.1200 80.2474   2
  -4  -4  -5 33.1779 99.6368   1
  -4   4   4 484.773 122.422   2
  -4  -4  -4 395.318 133.038   1
  -4   4   3 123.070 104.719   2
  -4   4   2 502.284 133.055   2
  -4   4   1-52.0813 75.2172   2
  -4   4   0 311.382 107.635   2
  -4   4  -1 191.346 108.805   2
  -4   4  -2 441.676 137.513   2
  -4   4  -3 176.728 95.7878   2
  -4   4  -4 205.214 95.6849   2
  -4   4  -5 156.630 101.470   2
  -4   4  -6-29.2724 66.2707   2
  -4   4  -7-88.4096 94.2152   2
  -4   4  -8 24.2123 81.7488   2
  -4   4  -9 56.6346 88.2885   2
  -4   4 -10 149.069 93.9243   2
  -4   4 -11-120.977 83.6294   2
  -4   4 -12 202.535 108.781   2
  -4  -5 -11-94.3639 107.974   1
  -4   5  10-81.9797 112.068   2
  -4  -5 -10 328.279 125.237   1
  -4   5   9-26.4580 93.3225   2
  -4  -5  -9 31.3384 101.085   1
  -4   5   8-41.3749 101.007   2
  -4  -5  -8 109.373 90.7339   1
  -4   5   7-104.348 103.346   2
  -4  -5  -7 70.0356 102.158   1
  -4   5   6 14.2877 104.159   2
  -4  -5  -6-107.434 96.7394   1
  -4  -5  -5 31.0638 94.6282   1
  -4   5   5 68.5194 89.4396   2
  -4   5   4 0.69949 94.9494   2
  -4   5   3 34.7029 105.298   2
  -4   5   2 171.846 97.7268   2
  -4   5   1 178.050 86.1999   2
  -4   5   0 13.8208 83.9556   2
  -4   5  -1 87.9026 112.263   2
  -4   5  -2 10.2073 111.761   2
  -4   5  -3 250.037 124.619   2
  -4   5  -4-59.2851 85.9214   2
  -4   5  -5 106.435 92.2923   2
  -4   5  -6-41.8369 83.7481   2
  -4   5  -7 104.977 104.897   2
  -4   5  -8 0.67758 87.2012   2
  -4   5  -9 191.116 107.975   2
  -4   5 -10 42.3546 94.8431   2
  -4   5 -11 80.1214 97.5839   2
  -4   5 -12 126.660 93.6526   2
  -5   0   0 624.807 115.403   2
  -5   0  -1 168.861 65.9769   2
  -5   0  -2 85.1585 57.3232   2
  -5   0  -3 611.349 98.9496   2
  -5   0  -3 529.262 99.4955   1
  -5   0  -4 176.965 73.2421   2
  -5   0  -4 128.483 65.2597   1
  -5   0  -5 269.785 69.3730   2
  -5   0  -5 320.545 85.6748   1
  -5   0  -6-2.25038 43.9591   2
  -5   0  -6 156.763 77.6502   1
  -5   0  -7 152.879 89.2320   1
  -5   0  -8 29.4252 76.3246   1
  -5   0  -9-24.3462 65.9725   1
  -5   0 -10 116.463 79.6258   1
  -5   0 -11-16.8657 75.8474   1
  -5   0 -12-115.909 95.4697   1
  -5   0 -13-196.413 99.0472   1
  -5   0 -14 125.691 113.133   1
  -5   0 -15 112.597 85.8653   1
  -5   0 -16 121.048 87.3458   1
  -5   0 -17 109.600 92.2884   1
  -5   0 -18-8.02641 102.895   1
  -5   0 -19 212.587 112.345   1
  -5   0 -20-79.0069 113.315   1
  -5  -1 -19-282.513 138.741   1
  -5  -1 -18 108.740 93.2308   1
  -5  -1 -17 166.751 101.908   1
  -5  -1 -16-118.940 91.4169   1
  -5  -1 -15 194.563 105.849   1
  -5  -1 -14 41.8494 103.387   1
  -5  -1 -13-209.745 103.099   1
  -5  -1 -12-55.6146 84.0714   1
  -5  -1 -11 41.1890 82.2836   1
  -5  -1 -10-116.232 95.0525   1
  -5  -1  -9-81.3056 81.1515   1
  -5  -1  -8 142.338 80.8445   1
  -5  -1  -7 743.310 137.561   1
  -5  -1  -6 122.150 90.0326   1
  -5  -1  -5 57.7888 71.1377   1
  -5  -1  -4 746.748 125.949   1
  -5  -1  -3 292.818 106.699   1
  -5  -1  -2 173.425 56.7889   2
  -5  -1  -2 263.041 91.5763   1
  -5   1   1 27.0240 66.4561   2
  -5  -1  -1 6.95958 46.4154   2
  -5  -1  -1 109.781 72.1193   1
  -5   1   0 244.879 95.5862   2
  -5  -1   0 398.971 89.4438   1
  -5   1  -1-54.2240 68.2774   2
  -5  -1   1 134.241 71.7771   1
  -5   1  -2 212.930 82.7477   2
  -5   1  -3 331.242 96.3221   2
  -5   1  -4 651.159 112.551   2
  -5   1  -5-60.3999 72.3782   2
  -5   1  -6 153.542 72.8888   2
  -5   1  -7 639.511 103.984   2
  -5   1  -8 95.8802 67.0593   1
  -5   1  -8 152.801 64.6641   2
  -5   1  -9 110.407 73.0198   1
  -5   1  -9 59.2393 46.1327   2
  -5   1 -10 61.7821 74.3177   1
  -5   1 -10-49.8619 59.7178   2
  -5   1 -11 98.9248 81.3451   1
  -5   1 -12 49.9278 92.2146   1
  -5   1 -13 53.7022 81.7262   1
  -5   1 -14 72.4281 80.1170   1
  -5   1 -15 25.0889 81.6380   1
  -5   1 -16 82.7181 90.9081   1
  -5   1 -17 140.260 105.381   1
  -5   1 -18-110.022 87.2314   1
  -5   1 -19 2.89338 81.1607   1
  -5   1 -20 106.384 88.7608   1
  -5  -2 -17 177.004 112.262   1
  -5  -2 -16 95.2601 86.8903   1
  -5  -2 -15 165.314 101.534   1
  -5  -2 -14-234.947 101.113   1
  -5  -2 -13-35.6863 76.7832   1
  -5  -2 -12-131.100 90.0154   1
  -5  -2 -11 18.7885 71.0313   1
  -5  -2 -10 157.337 85.7523   1
  -5  -2  -9 47.7707 79.4524   1
  -5  -2  -8 306.795 107.624   1
  -5  -2  -7 147.559 80.1820   1
  -5  -2  -6 200.844 98.7196   1
  -5  -2  -5 7.68096 75.3476   1
  -5  -2  -4 596.551 123.401   1
  -5   2   3-19.1884 65.1943   2
  -5  -2  -3 107.144 68.6577   1
  -5   2   2-40.8139 69.4449   2
  -5  -2  -2 87.1968 73.8966   1
  -5   2   1 389.701 109.871   2
  -5  -2  -1 355.094 101.998   1
  -5   2   0 22.9193 64.0310   2
  -5  -2   0 69.6571 73.0304   1
  -5   2  -1 282.589 86.2243   2
  -5  -2   1 193.320 87.8564   1
  -5   2  -2 170.626 89.1947   2
  -5  -2   2 184.777 76.1470   1
  -5   2  -3-30.2353 60.7408   2
  -5  -2   3 44.6954 52.1970   1
  -5   2  -4 514.060 120.640   2
  -5  -2   4 761.236 124.086   1
  -5   2  -5 30.9982 71.3785   2
  -5   2  -6 298.946 99.8155   2
  -5   2  -7 82.1106 73.0526   2
  -5   2  -8 158.962 87.1268   2
  -5   2  -9-14.7825 72.5363   2
  -5   2 -10 210.316 80.7109   2
  -5   2 -11 268.995 91.6043   2
  -5  -3 -14-5.39274 71.7158   1
  -5  -3 -13 228.786 114.972   1
  -5  -3 -12 123.343 65.0330   1
  -5  -3 -11-22.5465 86.3641   1
  -5  -3 -10 224.383 102.080   1
  -5  -3  -9 14.1421 57.4003   1
  -5  -3  -8-205.912 96.9371   1
  -5  -3  -7 309.918 107.777   1
  -5   3   6 180.858 103.369   2
  -5  -3  -6-14.4385 63.0678   1
  -5   3   5-203.327 113.042   2
  -5  -3  -5 298.558 107.181   1
  -5   3   4 45.1788 92.1371   2
  -5  -3  -4-164.736 89.9958   1
  -5   3   3 78.2876 88.9873   2
  -5  -3  -3-41.8181 75.9074   1
  -5   3   2-80.7688 72.1459   2
  -5  -3  -2-60.5103 82.1484   1
  -5   3   1-118.345 79.0465   2
  -5  -3  -1 22.0230 81.1674   1
  -5   3   0 17.5414 86.6670   2
  -5  -3   0 98.9946 102.023   1
  -5  -3   1-51.2662 80.4839   1
  -5   3  -1 54.9032 92.6799   2
  -5   3  -2 34.2963 71.7375   2
  -5  -3   2-46.2065 83.1988   1
  -5   3  -3-12.3161 74.1667   2
  -5   3  -4 25.8367 69.2752   2
  -5   3  -5 0.56464 83.6026   2
  -5   3  -6 59.9890 80.5520   2
  -5   3  -7 164.430 93.0599   2
  -5   3  -8 0.54843 91.6040   2
  -5   3  -9 72.9881 83.3469   2
  -5   3 -10 59.1085 80.7922   2
  -5   3 -11-14.9764 68.0678   2
  -5   3 -12 209.133 101.555   2
  -5  -4 -10 57.2185 86.1064   1
  -5  -4  -9-209.749 114.006   1
  -5  -4  -8-19.0053 35.3457   1
  -5  -4  -7-79.4630 60.2594   1
  -5   4   6-63.1208 95.2353   2
  -5  -4  -6-70.5260 83.0424   1
  -5   4   5 33.6486 96.1755   2
  -5  -4  -5 90.2080 94.9144   1
  -5  -4  -4 53.3467 97.0862   1
  -5   4   4-61.3301 92.7041   2
  -5   4   3 1.42890 95.3438   2
  -5  -4  -3-128.420 102.451   1
  -5   4   2 148.642 102.068   2
  -5  -4  -2 207.361 115.598   1
  -5   4   1 192.979 100.517   2
  -5  -4  -1-171.273 103.760   1
  -5  -4   0-75.3315 93.8678   1
  -5   4   0-97.6234 94.0340   2
  -5   4  -1-70.3856 88.3205   2
  -5   4  -2-152.719 113.933   2
  -5   4  -3 226.996 120.255   2
  -5   4  -4 81.8013 97.9818   2
  -5   4  -5 80.3721 91.1376   2
  -5   4  -6-182.152 89.5715   2
  -5   4  -7-229.954 111.847   2
  -5   4  -8 172.827 104.382   2
  -5   4  -9 131.585 69.4428   2
  -5   4 -10 92.5065 106.766   2
  -5   4 -11-3.98739 88.4407   2
  -5   4 -12 101.450 115.544   2
  -5  -5  -2-274.974 142.712   1
  -5  -5  -1 183.609 115.849   1
  -6   1   4-8.93252 84.5498   2
  -6   1   3-299.704 117.718   2
  -6   1   2 220.507 91.5757   2
  -6   1   1-104.149 74.5346   2
  -6   2   6 122.958 111.971   2
  -6   2   5 61.5283 91.0211   2
  -6   2   4-207.730 94.7738   2
  -6   2   3-9.55320 109.617   2
  -6   2   2 38.4768 83.2967   2
  -6   2   1 196.068 103.071   2
  -6   2   0 9.99721 86.6140   2
  -6   2  -1 161.798 98.0248   2
  -6   2  -2 218.539 101.805   2
   0   0   0    0.00    0.00   0

;
#END Tags that were not found in dictionaries
loop_
_symmetry_equiv_pos_as_xyz
'x, y, z'
'-x, -y+1/2, z+1/2'
'x, -y, -z'
'-x, y+1/2, -z+1/2'
loop_
_atom_site_label
_atom_site_type_symbol
_atom_site_fract_x
_atom_site_fract_y
_atom_site_fract_z
_atom_site_U_iso_or_equiv
_atom_site_adp_type
_atom_site_occupancy
_atom_site_calc_flag
C7 C 0.3745(10) 0.2631(10) 0.4192(2) 0.091(2) Uani 1 d
H7A H 0.5164 0.1662 0.4355 0.109 Uiso 1 calc
H7B H 0.4751 0.3624 0.3946 0.109 Uiso 1 calc
C8 C 0.3891(11) 0.5 0.5 0.0442(16) Uani 1 d
H1F H 0.043(5) 0.399(7) 0.4662(16) 0.053 Uiso 1 d
C1 C 0.1612(9) 0.1337(9) 0.3860(2) 0.0515(13) Uani 1 d
C2 C 0.0617(11) -0.0583(10) 0.4060(2) 0.0670(15) Uani 1 d
H2 H 0.1274 -0.1074 0.4404 0.08 Uiso 1 calc
C3 C -0.1313(13) -0.1811(10) 0.3771(3) 0.0831(18) Uani 1 d
H3 H -0.1976 -0.3121 0.3913 0.1 Uiso 1 calc
C4 C -0.2239(11) -0.1074(13) 0.3271(3) 0.081(2) Uani 1 d
C5 C -0.1354(13) 0.0806(14) 0.3052(2) 0.087(2) Uani 1 d
H5 H -0.2031 0.1276 0.2707 0.104 Uiso 1 calc
C6 C 0.0602(12) 0.2030(9) 0.3355(2) 0.0723(17) Uani 1 d
H6 H 0.1238 0.3347 0.3212 0.087 Uiso 1 calc
O1 O 0.6564(7) 0.5 0.5 0.0650(15) Uani 1 d
F1 F -0.4146(8) -0.2272(8) 0.29698(18) 0.160(2) Uani 1 d
N1 N 0.2358(7) 0.3835(7) 0.46288(14) 0.0511(11) Uani 1 d
loop_
_atom_site_aniso_label
_atom_site_aniso_U_11
_atom_site_aniso_U_22
_atom_site_aniso_U_33
_atom_site_aniso_U_23
_atom_site_aniso_U_13
_atom_site_aniso_U_12
C7 0.049(3) 0.123(5) 0.100(4) -0.067(4) 0.016(3) -0.011(4)
C8 0.032(3) 0.053(4) 0.048(4) -0.008(4) 0 0
C1 0.042(2) 0.062(3) 0.050(3) -0.018(3) 0.008(2) -0.003(3)
C2 0.063(3) 0.079(4) 0.059(3) 0.001(3) -0.014(3) 0.013(3)
C3 0.083(4) 0.060(4) 0.106(5) -0.014(4) 0.011(4) -0.008(3)
C4 0.052(3) 0.110(6) 0.082(5) -0.057(5) -0.009(3) -0.004(4)
C5 0.081(4) 0.135(6) 0.044(3) -0.005(4) -0.011(3) 0.033(5)
C6 0.080(4) 0.069(4) 0.067(4) 0.000(3) 0.021(3) 0.000(3)
O1 0.0251(18) 0.091(4) 0.079(3) -0.030(3) 0 0
F1 0.085(2) 0.228(5) 0.167(4) -0.134(4) -0.019(2) -0.023(3)
N1 0.0296(17) 0.070(3) 0.054(2) -0.024(2) 0.0018(17) 0.003(2)
loop_
_atom_type_symbol
_atom_type_description
_atom_type_scat_dispersion_real
_atom_type_scat_dispersion_imag
_atom_type_scat_source
C C 0.0033 0.0016 'International Tables Vol C Tables 4.2.6.8 and 6.1.1.4'
H H 0 0 'International Tables Vol C Tables 4.2.6.8 and 6.1.1.4'
O O 0.0106 0.006 'International Tables Vol C Tables 4.2.6.8 and 6.1.1.4'
F F 0.0171 0.0103 'International Tables Vol C Tables 4.2.6.8 and 6.1.1.4'
N N 0.0061 0.0033 'International Tables Vol C Tables 4.2.6.8 and 6.1.1.4'
loop_
_exptl_crystal_face_index_h
_exptl_crystal_face_index_k
_exptl_crystal_face_index_l
_exptl_crystal_face_perp_dist
0 0 34 0.0123
0 0 -34 0.0123
7 0 0 0.2246
-7 0 0 0.2246
0 -9 -6 0.0862
0 9 6 0.0862
loop_
_geom_angle_atom_site_label_1
_geom_angle_atom_site_label_2
_geom_angle_atom_site_label_3
_geom_angle
_geom_angle_site_symmetry_1
_geom_angle_site_symmetry_3
N1 C7 C1 111.6(4) . .
N1 C7 H7A 109.3 . .
C1 C7 H7A 109.3 . .
N1 C7 H7B 109.3 . .
C1 C7 H7B 109.3 . .
H7A C7 H7B 108 . .
O1 C8 N1 121.8(2) . 3_566
O1 C8 N1 121.8(2) . .
N1 C8 N1 116.4(5) 3_566 .
C2 C1 C6 117.9(5) . .
C2 C1 C7 120.1(5) . .
C6 C1 C7 121.9(5) . .
C1 C2 C3 122.0(6) . .
C1 C2 H2 119 . .
C3 C2 H2 119 . .
C4 C3 C2 118.2(6) . .
C4 C3 H3 120.9 . .
C2 C3 H3 120.9 . .
C5 C4 C3 122.8(6) . .
C5 C4 F1 117.6(8) . .
C3 C4 F1 119.6(8) . .
C4 C5 C6 118.0(6) . .
C4 C5 H5 121 . .
C6 C5 H5 121 . .
C1 C6 C5 121.1(6) . .
C1 C6 H6 119.4 . .
C5 C6 H6 119.4 . .
C8 N1 C7 121.5(3) . .
C8 N1 H1F 114(3) . .
C7 N1 H1F 124(3) . .
loop_
_geom_bond_atom_site_label_1
_geom_bond_atom_site_label_2
_geom_bond_distance
_geom_bond_site_symmetry_2
C7 N1 1.434(6) .
C7 C1 1.498(6) .
C7 H7A 0.97 .
C7 H7B 0.97 .
C8 O1 1.237(6) .
C8 N1 1.346(4) 3_566
C8 N1 1.346(4) .
C1 C2 1.358(7) .
C1 C6 1.366(7) .
C2 C3 1.361(7) .
C2 H2 0.93 .
C3 C4 1.351(8) .
C3 H3 0.93 .
C4 C5 1.337(8) .
C4 F1 1.359(6) .
C5 C6 1.385(8) .
C5 H5 0.93 .
C6 H6 0.93 .
N1 H1F 0.90(2) .
loop_
_geom_hbond_atom_site_label_D
_geom_hbond_atom_site_label_H
_geom_hbond_atom_site_label_A
_geom_hbond_distance_DH
_geom_hbond_distance_HA
_geom_hbond_distance_DA
_geom_hbond_angle_DHA
_geom_hbond_site_symmetry_A
N1 H1F O1 0.90(2) 2.06(3) 2.916(4) 158(4) 1_455
C5 H5 F1 0.93 2.56 3.427(7) 154.7 4_455
loop_
_geom_torsion_atom_site_label_1
_geom_torsion_atom_site_label_2
_geom_torsion_atom_site_label_3
_geom_torsion_atom_site_label_4
_geom_torsion
_geom_torsion_site_symmetry_1
N1 C7 C1 C2 -79.9(6) .
N1 C7 C1 C6 99.9(6) .
C6 C1 C2 C3 0.4(7) .
C7 C1 C2 C3 -179.8(5) .
C1 C2 C3 C4 0.1(8) .
C2 C3 C4 C5 -0.4(9) .
C2 C3 C4 F1 179.4(5) .
C3 C4 C5 C6 0.2(8) .
F1 C4 C5 C6 -179.7(5) .
C2 C1 C6 C5 -0.6(7) .
C7 C1 C6 C5 179.5(5) .
C4 C5 C6 C1 0.4(8) .
O1 C8 N1 C7 -3.7(5) .
N1 C8 N1 C7 176.3(5) 3_566
C1 C7 N1 C8 175.7(4) .
