#------------------------------------------------------------------------------
#$Date: 2019-11-26 17:25:28 +0200 (Tue, 26 Nov 2019) $
#$Revision: 243713 $
#$URL: file:///home/coder/svn-repositories/cod/cif/4/08/96/4089650.cif $
#------------------------------------------------------------------------------
#
# This file is available in the Crystallography Open Database (COD),
# http://www.crystallography.net/
#
# All data on this site have been placed in the public domain by the
# contributors.
#
data_4089650
loop_
_publ_author_name
'Izod, Keith'
'Dixon, Casey M.'
'McMeekin, Emma'
'Rodgers, Lee'
'Harrington, Ross W.'
'Baisch, Ulrich'
_publ_section_title
;
 Synthesis and Structural Characterization of Phosphine--Borane-Stabilized
 Dicarbanions with either Rigid or Flexible Spacers
;
_journal_issue                   1
_journal_name_full               Organometallics
_journal_page_first              378
_journal_paper_doi               10.1021/om4011142
_journal_volume                  33
_journal_year                    2013
_chemical_formula_moiety         'C12 H38 B2 P2 Si2'
_chemical_formula_sum            'C12 H38 B2 P2 Si2'
_chemical_formula_weight         322.16
_space_group_crystal_system      triclinic
_space_group_IT_number           2
_space_group_name_Hall           '-P 1'
_space_group_name_H-M_alt        'P -1'
_atom_sites_solution_hydrogens   mixed
_atom_sites_solution_primary     direct
_audit_creation_date             2013-11-12
_audit_creation_method
;
Olex2 1.2
(compiled 2013.09.17 svn.r2790 for OlexSys, GUI svn.r4601)
;
_cell_angle_alpha                93.414(9)
_cell_angle_beta                 90.514(8)
_cell_angle_gamma                117.629(13)
_cell_formula_units_Z            1
_cell_length_a                   6.1097(7)
_cell_length_b                   6.3338(9)
_cell_length_c                   15.3651(14)
_cell_measurement_reflns_used    1444
_cell_measurement_temperature    150.15
_cell_measurement_theta_max      66.5590
_cell_measurement_theta_min      2.8811
_cell_volume                     525.41(12)
_computing_cell_refinement
;
CrysAlisPro, Agilent Technologies,
Version 1.171.34.49 (release 20-01-2011 CrysAlis171 .NET)
(compiled Jan 20 2011,15:58:25)
;
_computing_data_collection
;
CrysAlisPro, Agilent Technologies,
Version 1.171.34.49 (release 20-01-2011 CrysAlis171 .NET)
(compiled Jan 20 2011,15:58:25)
;
_computing_data_reduction
;
CrysAlisPro, Agilent Technologies,
Version 1.171.34.49 (release 20-01-2011 CrysAlis171 .NET)
(compiled Jan 20 2011,15:58:25)
;
_computing_molecular_graphics
;
O. V. Dolomanov, L. J. Bourhis, R. J. Gildea, J. A. K. Howard and H. Puschmann,
OLEX2: a complete structure solution, refinement and analysis program.
J. Appl. Cryst. (2009). 42, 339-341.
;
_computing_publication_material
;
O. V. Dolomanov, L. J. Bourhis, R. J. Gildea, J. A. K. Howard and H. Puschmann,
OLEX2: a complete structure solution, refinement and analysis program.
J. Appl. Cryst. (2009). 42, 339-341.
;
_computing_structure_refinement
;
SHELX, G.M. Sheldrick, Acta Cryst.
(2008). A64, 112-122
;
_computing_structure_solution
;
SHELX, G.M. Sheldrick, Acta Cryst.
(2008). A64, 112-122
;
_diffrn_ambient_temperature      150.15
_diffrn_detector_area_resol_mean 10.3968
_diffrn_measured_fraction_theta_full 0.925
_diffrn_measured_fraction_theta_max 0.948
_diffrn_measurement_details
;
#__ type_ start__ end____ width___ exp.time_
  1 omega   89.00  118.00   1.0000   27.0000
omega____ theta____ kappa____ phi______ frames
    -       40.3405   77.0000  150.0000 29

#__ type_ start__ end____ width___ exp.time_
  2 omega   10.00   85.00   1.0000   27.0000
omega____ theta____ kappa____ phi______ frames
    -       40.3405   77.0000  150.0000 75

#__ type_ start__ end____ width___ exp.time_
  3 omega   19.00   87.00   1.0000   27.0000
omega____ theta____ kappa____ phi______ frames
    -       40.3405 -125.0000   60.0000 68

#__ type_ start__ end____ width___ exp.time_
  4 omega   34.00  114.00   1.0000   27.0000
omega____ theta____ kappa____ phi______ frames
    -       40.3405   38.0000  -90.0000 80

#__ type_ start__ end____ width___ exp.time_
  5 omega -132.00 -102.00   1.0000   27.0000
omega____ theta____ kappa____ phi______ frames
    -      -83.0000  147.0000   16.0000 30

#__ type_ start__ end____ width___ exp.time_
  6 omega   21.00   77.00   1.0000   27.0000
omega____ theta____ kappa____ phi______ frames
    -       93.5000  -45.0000  -60.0000 56

#__ type_ start__ end____ width___ exp.time_
  7 omega   19.00   72.00   1.0000   27.0000
omega____ theta____ kappa____ phi______ frames
    -       93.5000  -45.0000    0.0000 53

#__ type_ start__ end____ width___ exp.time_
  8 omega   89.00  173.00   1.0000   27.0000
omega____ theta____ kappa____ phi______ frames
    -       93.5000   15.0000  -30.0000 84

#__ type_ start__ end____ width___ exp.time_
  9 omega   77.00  115.00   1.0000   27.0000
omega____ theta____ kappa____ phi______ frames
    -       93.5000  125.0000  -30.0000 38

#__ type_ start__ end____ width___ exp.time_
 10 omega  135.00  166.00   1.0000   27.0000
omega____ theta____ kappa____ phi______ frames
    -       93.5000   45.0000 -120.0000 31

#__ type_ start__ end____ width___ exp.time_
 11 omega   62.00   94.00   1.0000   27.0000
omega____ theta____ kappa____ phi______ frames
    -       93.5000 -124.0000  -31.0000 32

#__ type_ start__ end____ width___ exp.time_
 12 omega   77.00  117.00   1.0000   27.0000
omega____ theta____ kappa____ phi______ frames
    -       93.5000  -77.0000  -90.0000 40

#__ type_ start__ end____ width___ exp.time_
 13 omega   64.00  110.00   1.0000   27.0000
omega____ theta____ kappa____ phi______ frames
    -       93.5000  -77.0000  120.0000 46

#__ type_ start__ end____ width___ exp.time_
 14 omega   31.00   71.00   1.0000   27.0000
omega____ theta____ kappa____ phi______ frames
    -       93.5000  -45.0000 -180.0000 40

#__ type_ start__ end____ width___ exp.time_
 15 omega   15.00   45.00   1.0000   27.0000
omega____ theta____ kappa____ phi______ frames
    -       93.5000  -77.0000  120.0000 30

#__ type_ start__ end____ width___ exp.time_
 16 omega   44.00   70.00   1.0000   27.0000
omega____ theta____ kappa____ phi______ frames
    -       93.5000  -45.0000   90.0000 26

#__ type_ start__ end____ width___ exp.time_
 17 omega   23.00   55.00   1.0000   27.0000
omega____ theta____ kappa____ phi______ frames
    -       93.5000  -45.0000  150.0000 32

#__ type_ start__ end____ width___ exp.time_
 18 omega  101.00  127.00   1.0000   27.0000
omega____ theta____ kappa____ phi______ frames
    -       93.5000   45.0000 -120.0000 26

#__ type_ start__ end____ width___ exp.time_
 19 omega   42.00   74.00   1.0000   27.0000
omega____ theta____ kappa____ phi______ frames
    -       93.5000   15.0000  -30.0000 32

#__ type_ start__ end____ width___ exp.time_
 20 omega   26.00   67.00   1.0000   27.0000
omega____ theta____ kappa____ phi______ frames
    -       93.5000  -45.0000 -120.0000 41

#__ type_ start__ end____ width___ exp.time_
 21 omega   75.00  100.00   1.0000   27.0000
omega____ theta____ kappa____ phi______ frames
    -       93.5000  -82.0000    0.0000 25
;
_diffrn_measurement_device_type  'Xcalibur, Atlas, Gemini ultra'
_diffrn_measurement_method       '\w scans'
_diffrn_orient_matrix_UB_11      -0.0344549000
_diffrn_orient_matrix_UB_12      -0.0644703000
_diffrn_orient_matrix_UB_13      -0.0991706000
_diffrn_orient_matrix_UB_21      0.0129542000
_diffrn_orient_matrix_UB_22      -0.2328138000
_diffrn_orient_matrix_UB_23      0.0140718000
_diffrn_orient_matrix_UB_31      -0.2824604000
_diffrn_orient_matrix_UB_32      -0.1319193000
_diffrn_orient_matrix_UB_33      0.0085492000
_diffrn_radiation_monochromator  mirror
_diffrn_radiation_type           'Cu K\a'
_diffrn_radiation_wavelength     1.5418
_diffrn_reflns_av_R_equivalents  0.0230
_diffrn_reflns_av_unetI/netI     0.0300
_diffrn_reflns_Laue_measured_fraction_full 0.925
_diffrn_reflns_Laue_measured_fraction_max 0.948
_diffrn_reflns_limit_h_max       5
_diffrn_reflns_limit_h_min       -7
_diffrn_reflns_limit_k_max       7
_diffrn_reflns_limit_k_min       -7
_diffrn_reflns_limit_l_max       18
_diffrn_reflns_limit_l_min       -16
_diffrn_reflns_number            3048
_diffrn_reflns_point_group_measured_fraction_full 0.925
_diffrn_reflns_point_group_measured_fraction_max 0.948
_diffrn_reflns_theta_full        67.679
_diffrn_reflns_theta_max         66.663
_diffrn_reflns_theta_min         2.883
_diffrn_source                   'Enhance Ultra (Cu) X-ray Source'
_diffrn_standards_number         0
_exptl_absorpt_coefficient_mu    2.833
_exptl_absorpt_correction_T_max  1.00000
_exptl_absorpt_correction_T_min  0.74529
_exptl_absorpt_correction_type   multi-scan
_exptl_absorpt_process_details
;
CrysAlisPro, Agilent Technologies,
Version 1.171.34.49 (release 20-01-2011 CrysAlis171 .NET)
(compiled Jan 20 2011,15:58:25)
Empirical absorption correction using spherical harmonics,
 implemented in SCALE3 ABSPACK scaling algorithm.
;
_exptl_crystal_colour            colourless
_exptl_crystal_colour_primary    colourless
_exptl_crystal_density_diffrn    1.018
_exptl_crystal_description       plate
_exptl_crystal_F_000             178
_exptl_crystal_size_max          0.14
_exptl_crystal_size_mid          0.12
_exptl_crystal_size_min          0.02
_refine_diff_density_max         0.426
_refine_diff_density_min         -0.193
_refine_diff_density_rms         0.051
_refine_ls_extinction_method     none
_refine_ls_goodness_of_fit_ref   1.074
_refine_ls_hydrogen_treatment    mixed
_refine_ls_matrix_type           full
_refine_ls_number_parameters     98
_refine_ls_number_reflns         1774
_refine_ls_number_restraints     0
_refine_ls_restrained_S_all      1.074
_refine_ls_R_factor_all          0.0416
_refine_ls_R_factor_gt           0.0356
_refine_ls_shift/su_max          0.000
_refine_ls_shift/su_mean         0.000
_refine_ls_structure_factor_coef Fsqd
_refine_ls_weighting_details
;
 w=1/[\s^2^(Fo^2^)+(0.0455P)^2^+0.2052P]
 where P=(Fo^2^+2Fc^2^)/3
;
_refine_ls_weighting_scheme      calc
_refine_ls_wR_factor_gt          0.0885
_refine_ls_wR_factor_ref         0.0927
_reflns_Friedel_coverage         0.000
_reflns_number_gt                1568
_reflns_number_total             1774
_reflns_threshold_expression     'I > 2\s(I)'
_cod_data_source_file            om4011142_si_001.cif
_cod_data_source_block           4a_ki505
_cod_database_code               4089650
_shelxl_version_number           2013-2
_chemical_oxdiff_formula         'C12 H36 B2 Li2 P2 Si2'
_shelx_space_group_comment
;
The symmetry employed for this shelxl refinement is uniquely defined
by the following loop, which should always be used as a source of
symmetry information in preference to the above space-group names.
They are only intended as comments.
;
_shelx_estimated_absorpt_t_max   0.946
_shelx_estimated_absorpt_t_min   0.692
_reflns_odcompleteness_completeness 98.27
_reflns_odcompleteness_iscentric 1
_reflns_odcompleteness_theta     63.60
_olex2_refinement_description
;
1. Fixed Uiso
 At 1.2 times of:
  All C(H,H) groups
 At 1.5 times of:
  All C(H,H,H) groups
2.a Secondary CH2 refined with riding coordinates:
 C3(H3A,H3B), C5(H5A,H5B)
2.b Idealised Me refined as rotating group:
 C1(H1D,H1E,H1F), C2(H2A,H2B,H2C), C4(H4A,H4B,H4C), C6(H6A,H6B,H6C)
;
_shelx_res_file
;
TITL ki505 in P-1
CELL 1.54178 6.1097 6.3338 15.3651 93.414 90.514 117.629
ZERR 1 0.0007 0.0009 0.0014 0.009 0.008 0.013
LATT 1
 
SFAC C H B Si P
UNIT 12 38 2 2 2
 
L.S. 8
PLAN  5
SIZE 0.14 0.12 0.02
TEMP -123
LIST 1
BOND $h
REM colourless plate
REM EXTI 0.000000
fmap 2
acta
MORE -1
CONF
REM <HKL>E:\NCLU_Publikations_UB\UnderConstruction\KI_Organometallics\4a_ki505
REM \ki505.hkl</HKL>
 
WGHT    0.045500    0.205200
FVAR       1.00370
P1    5    0.028885    0.294999    0.336850    11.00000    0.02565    0.02632 =
         0.01647    0.00010    0.00221    0.01142
SI1   4   -0.108969    0.102048    0.133434    11.00000    0.02699    0.02686 =
         0.01630    0.00008    0.00169    0.01269
B1    3   -0.001083    0.582706    0.334405    11.00000    0.04459    0.03033 =
         0.02755   -0.00007    0.00677    0.02028
H1A   2    0.005870    0.639085    0.400442    11.00000    0.04379
H1B   2   -0.184964    0.530411    0.298202    11.00000    0.04065
H1C   2    0.162828    0.711989    0.302553    11.00000    0.04644
C1    1    0.274598    0.327228    0.411887    11.00000    0.03568    0.05645 =
         0.02083   -0.00409   -0.00496    0.02201
AFIX 137
H1D   2    0.274590    0.172989    0.414429    11.00000   -1.50000
H1E   2    0.248141    0.381075    0.470119    11.00000   -1.50000
H1F   2    0.433996    0.445056    0.391708    11.00000   -1.50000
AFIX   0
C2    1   -0.244300    0.050839    0.375673    11.00000    0.03492    0.03438 =
         0.02954    0.00496    0.00933    0.01284
AFIX 137
H2A   2   -0.223687   -0.093880    0.372935    11.00000   -1.50000
H2B   2   -0.388577    0.022860    0.338990    11.00000   -1.50000
H2C   2   -0.268758    0.091154    0.436141    11.00000   -1.50000
AFIX   0
C3    1    0.100688    0.190604    0.234929    11.00000    0.02845    0.02749 =
         0.01732   -0.00004    0.00172    0.01327
AFIX  23
H3A   2    0.123986    0.050354    0.246988    11.00000   -1.20000
H3B   2    0.263802    0.316998    0.219175    11.00000   -1.20000
AFIX   0
C4    1   -0.179791    0.346075    0.105116    11.00000    0.05396    0.04488 =
         0.02800    0.00263   -0.00176    0.03140
AFIX 137
H4A   2   -0.257236    0.309801    0.046290    11.00000   -1.50000
H4B   2   -0.026332    0.497266    0.107001    11.00000   -1.50000
H4C   2   -0.293103    0.359676    0.147142    11.00000   -1.50000
AFIX   0
C5    1    0.069824    0.046253    0.044560    11.00000    0.02824    0.03526 =
         0.01846   -0.00142    0.00151    0.01391
AFIX  23
H5A   2    0.221845    0.197108    0.037193    11.00000   -1.20000
H5B   2    0.121344   -0.071421    0.063405    11.00000   -1.20000
AFIX   0
C6    1   -0.401909   -0.175388    0.147886    11.00000    0.03153    0.04001 =
         0.02874   -0.00065    0.00223    0.01051
AFIX 137
H6A   2   -0.484948   -0.244948    0.090767    11.00000   -1.50000
H6B   2   -0.510393   -0.136470    0.184625    11.00000   -1.50000
H6C   2   -0.364342   -0.290555    0.175862    11.00000   -1.50000
AFIX   0
HKLF 4
 
REM  ki505 in P-1
REM R1 =  0.0356 for    1568 Fo > 4sig(Fo)  and  0.0416 for all    1774 data
REM     98 parameters refined using      0 restraints
 
END  
     
WGHT      0.0455      0.2053 

REM Highest difference peak  0.426,  deepest hole -0.193,  1-sigma level  0.051
Q1    1   0.0263  0.4404  0.3361  11.00000  0.05    0.43
Q2    1  -0.1112  0.1896  0.3625  11.00000  0.05    0.40
Q3    1   0.0642  0.2750  0.2804  11.00000  0.05    0.35
Q4    1  -0.1367  0.2405  0.1307  11.00000  0.05    0.34
Q5    1   0.1540  0.3171  0.3778  11.00000  0.05    0.33

REM The information below was added by Olex2.
REM
REM R1 = 0.0356 for 1568 Fo > 4sig(Fo) and 0.0416 for all 3048 data
REM n/a parameters refined using n/a restraints
REM Highest difference peak 0.43, deepest hole -0.19
REM Mean Shift 0, Max Shift 0.

REM +++ Tabular Listing of Refinement Information +++
REM R1_all = 0.0416
REM R1_gt = 0.0356
REM wR_ref = 0.0927
REM GOOF = 1.074
REM Shift_max = 0
REM Shift_mean = 0
REM Reflections_all = 3048
REM Reflections_gt = 1568
REM Parameters = n/a
REM Hole = -0.19
REM Peak = 0.43
REM Flack = n/a
;
loop_
_space_group_symop_operation_xyz
'x, y, z'
'-x, -y, -z'
loop_
_atom_site_label
_atom_site_type_symbol
_atom_site_fract_x
_atom_site_fract_y
_atom_site_fract_z
_atom_site_U_iso_or_equiv
_atom_site_adp_type
_atom_site_occupancy
_atom_site_site_symmetry_order
_atom_site_calc_flag
_atom_site_refinement_flags_posn
_atom_site_refinement_flags_adp
P1 P 0.02888(9) 0.29500(9) 0.33685(3) 0.02313(17) Uani 1 1 d . .
Si1 Si -0.10897(10) 0.10205(10) 0.13343(3) 0.02338(18) Uani 1 1 d . .
B1 B -0.0011(5) 0.5827(5) 0.33440(17) 0.0331(6) Uani 1 1 d . .
H1A H 0.006(5) 0.639(5) 0.4004(18) 0.044(7) Uiso 1 1 d . .
H1B H -0.185(5) 0.530(4) 0.2982(16) 0.041(7) Uiso 1 1 d . .
H1C H 0.163(5) 0.712(5) 0.3026(17) 0.046(7) Uiso 1 1 d . .
C1 C 0.2746(4) 0.3272(5) 0.41189(14) 0.0378(6) Uani 1 1 d . .
H1D H 0.2746 0.1730 0.4144 0.057 Uiso 1 1 calc R U
H1E H 0.2481 0.3811 0.4701 0.057 Uiso 1 1 calc R U
H1F H 0.4340 0.4451 0.3917 0.057 Uiso 1 1 calc R U
C2 C -0.2443(4) 0.0508(4) 0.37567(15) 0.0341(5) Uani 1 1 d . .
H2A H -0.2237 -0.0939 0.3729 0.051 Uiso 1 1 calc R U
H2B H -0.3886 0.0229 0.3390 0.051 Uiso 1 1 calc R U
H2C H -0.2688 0.0912 0.4361 0.051 Uiso 1 1 calc R U
C3 C 0.1007(4) 0.1906(4) 0.23493(12) 0.0244(4) Uani 1 1 d . .
H3A H 0.1240 0.0504 0.2470 0.029 Uiso 1 1 calc R U
H3B H 0.2638 0.3170 0.2192 0.029 Uiso 1 1 calc R U
C4 C -0.1798(5) 0.3461(5) 0.10512(15) 0.0390(6) Uani 1 1 d . .
H4A H -0.2572 0.3098 0.0463 0.058 Uiso 1 1 calc R U
H4B H -0.0263 0.4973 0.1070 0.058 Uiso 1 1 calc R U
H4C H -0.2931 0.3597 0.1471 0.058 Uiso 1 1 calc R U
C5 C 0.0698(4) 0.0463(4) 0.04456(12) 0.0278(5) Uani 1 1 d . .
H5A H 0.2218 0.1971 0.0372 0.033 Uiso 1 1 calc R U
H5B H 0.1213 -0.0714 0.0634 0.033 Uiso 1 1 calc R U
C6 C -0.4019(4) -0.1754(4) 0.14789(15) 0.0360(5) Uani 1 1 d . .
H6A H -0.4849 -0.2449 0.0908 0.054 Uiso 1 1 calc R U
H6B H -0.5104 -0.1365 0.1846 0.054 Uiso 1 1 calc R U
H6C H -0.3643 -0.2906 0.1759 0.054 Uiso 1 1 calc R U
loop_
_atom_site_aniso_label
_atom_site_aniso_U_11
_atom_site_aniso_U_22
_atom_site_aniso_U_33
_atom_site_aniso_U_23
_atom_site_aniso_U_13
_atom_site_aniso_U_12
P1 0.0257(3) 0.0263(3) 0.0165(3) 0.0001(2) 0.0022(2) 0.0114(2)
Si1 0.0270(3) 0.0269(3) 0.0163(3) 0.0001(2) 0.0017(2) 0.0127(3)
B1 0.0446(16) 0.0303(14) 0.0275(13) -0.0001(11) 0.0068(11) 0.0203(13)
C1 0.0357(13) 0.0564(16) 0.0208(11) -0.0041(10) -0.0050(9) 0.0220(12)
C2 0.0349(13) 0.0344(13) 0.0295(12) 0.0050(10) 0.0093(10) 0.0128(11)
C3 0.0284(11) 0.0275(11) 0.0173(10) 0.0000(8) 0.0017(8) 0.0133(9)
C4 0.0540(15) 0.0449(15) 0.0280(12) 0.0026(10) -0.0018(11) 0.0314(13)
C5 0.0282(11) 0.0353(12) 0.0185(10) -0.0014(9) 0.0015(9) 0.0139(10)
C6 0.0315(12) 0.0400(14) 0.0287(12) -0.0007(10) 0.0022(9) 0.0105(11)
loop_
_atom_type_symbol
_atom_type_description
_atom_type_scat_dispersion_real
_atom_type_scat_dispersion_imag
_atom_type_scat_source
C C 0.0181 0.0091 'International Tables Vol C Tables 4.2.6.8 and 6.1.1.4'
H H 0.0000 0.0000 'International Tables Vol C Tables 4.2.6.8 and 6.1.1.4'
B B 0.0090 0.0039 'International Tables Vol C Tables 4.2.6.8 and 6.1.1.4'
Si Si 0.2541 0.3302 'International Tables Vol C Tables 4.2.6.8 and 6.1.1.4'
P P 0.2955 0.4335 'International Tables Vol C Tables 4.2.6.8 and 6.1.1.4'
loop_
_geom_angle_atom_site_label_1
_geom_angle_atom_site_label_2
_geom_angle_atom_site_label_3
_geom_angle
_geom_angle_site_symmetry_1
C1 P1 B1 112.34(12) .
C2 P1 B1 112.46(12) .
C2 P1 C1 103.98(11) .
C3 P1 B1 115.54(10) .
C3 P1 C1 103.88(10) .
C3 P1 C2 107.67(10) .
C4 Si1 C3 111.48(10) .
C4 Si1 C5 109.49(11) .
C4 Si1 C6 109.88(12) .
C5 Si1 C3 105.10(9) .
C6 Si1 C3 110.65(10) .
C6 Si1 C5 110.14(10) .
P1 B1 H1A 104.2(14) .
P1 B1 H1B 106.0(12) .
P1 B1 H1C 106.7(13) .
H1A B1 H1B 114.4(18) .
H1A B1 H1C 110(2) .
H1B B1 H1C 114.8(18) .
P1 C1 H1D 109.5 .
P1 C1 H1E 109.5 .
P1 C1 H1F 109.5 .
H1D C1 H1E 109.5 .
H1D C1 H1F 109.5 .
H1E C1 H1F 109.5 .
P1 C2 H2A 109.5 .
P1 C2 H2B 109.5 .
P1 C2 H2C 109.5 .
H2A C2 H2B 109.5 .
H2A C2 H2C 109.5 .
H2B C2 H2C 109.5 .
P1 C3 Si1 122.83(11) .
P1 C3 H3A 106.6 .
P1 C3 H3B 106.6 .
Si1 C3 H3A 106.6 .
Si1 C3 H3B 106.6 .
H3A C3 H3B 106.6 .
Si1 C4 H4A 109.5 .
Si1 C4 H4B 109.5 .
Si1 C4 H4C 109.5 .
H4A C4 H4B 109.5 .
H4A C4 H4C 109.5 .
H4B C4 H4C 109.5 .
Si1 C5 H5A 108.5 .
Si1 C5 H5B 108.5 .
C5 C5 Si1 115.23(19) 2
C5 C5 H5A 108.5 2
C5 C5 H5B 108.5 2
H5A C5 H5B 107.5 .
Si1 C6 H6A 109.5 .
Si1 C6 H6B 109.5 .
Si1 C6 H6C 109.5 .
H6A C6 H6B 109.5 .
H6A C6 H6C 109.5 .
H6B C6 H6C 109.5 .
loop_
_geom_bond_atom_site_label_1
_geom_bond_atom_site_label_2
_geom_bond_distance
_geom_bond_site_symmetry_2
P1 B1 1.917(3) .
P1 C1 1.811(2) .
P1 C2 1.807(2) .
P1 C3 1.8000(19) .
Si1 C3 1.892(2) .
Si1 C4 1.861(2) .
Si1 C5 1.874(2) .
Si1 C6 1.865(2) .
B1 H1A 1.05(3) .
B1 H1B 1.14(2) .
B1 H1C 1.10(3) .
C1 H1D 0.9800 .
C1 H1E 0.9800 .
C1 H1F 0.9800 .
C2 H2A 0.9800 .
C2 H2B 0.9800 .
C2 H2C 0.9800 .
C3 H3A 0.9900 .
C3 H3B 0.9900 .
C4 H4A 0.9800 .
C4 H4B 0.9800 .
C4 H4C 0.9800 .
C5 C5 1.538(4) 2
C5 H5A 0.9900 .
C5 H5B 0.9900 .
C6 H6A 0.9800 .
C6 H6B 0.9800 .
C6 H6C 0.9800 .
loop_
_geom_torsion_atom_site_label_1
_geom_torsion_atom_site_label_2
_geom_torsion_atom_site_label_3
_geom_torsion_atom_site_label_4
_geom_torsion
_geom_torsion_site_symmetry_4
B1 P1 C3 Si1 -61.34(18) .
C1 P1 C3 Si1 175.15(13) .
C2 P1 C3 Si1 65.28(16) .
C3 Si1 C5 C5 175.9(2) 2
C4 Si1 C3 P1 54.52(17) .
C4 Si1 C5 C5 -64.2(2) 2
C5 Si1 C3 P1 173.05(13) .
C6 Si1 C3 P1 -68.08(16) .
C6 Si1 C5 C5 56.7(3) 2
loop_
_refln_index_h
_refln_index_k
_refln_index_l
_refln_F_squared_meas
_refln_F_squared_sigma
0 0 -1 69.82 1.38
0 0 -2 328.23 4.21
0 0 -3 226.45 4.39
0 0 -4 4122.11 21.63
0 0 -5 122.77 4.37
0 0 -6 252.26 6.81
0 0 -7 0.84 1.47
0 0 -8 216.45 7.48
0 0 9 415.58 10.31
0 0 -9 428.92 11.06
0 0 10 512.09 12.33
0 0 10 526.48 11.07
0 0 11 761.03 14.17
0 0 11 749.88 16.06
0 0 11 753.08 14.34
0 0 12 7.41 1.81
0 0 12 13.07 2.38
0 0 -12 9.74 2.24
0 0 12 11.44 2.57
0 0 13 100.46 6.6
0 0 13 107.67 5.89
0 0 14 1.65 1.93
0 0 15 268.76 10.57
0 0 16 28.72 3.52
0 0 17 1.68 1.74
0 0 18 6.88 1.61
0 -1 18 1.64 0.92
0 -1 17 42.85 3.9
0 -1 16 163.29 7.86
0 -1 15 4.14 2.18
0 -1 15 4.47 1.59
0 -1 14 56.28 4.62
0 -1 14 52.66 4.95
0 -1 13 92.83 5.94
0 -1 13 85.23 6.17
0 -1 12 364.55 11.89
0 1 -12 395.01 12.4
0 -1 12 380.06 11.5
0 -1 11 317.32 10.64
0 1 -11 324.46 11.05
0 -1 11 322.27 10.26
0 -1 10 110.49 5.88
0 1 -10 112.98 6.2
0 -1 9 3.62 1.39
0 1 -9 0.2 1.32
0 1 -8 5.08 1.75
0 1 -7 26.54 2.73
0 1 -6 0.53 1.25
0 1 -5 2.47 1.28
0 1 -4 17.01 1.66
0 1 -3 3.6 1.07
0 1 -2 77.69 2.42
0 -1 2 72.6 2.55
0 -1 1 4978.82 17.45
0 -1 1 4960.94 12.85
0 -1 0 539.01 4.66
0 -1 0 531.99 5.43
0 -1 -1 327.36 4.36
0 -1 -2 317.43 4.99
0 -1 -2 306.01 4.66
0 -1 -3 1283.48 11.19
0 -1 -4 339.54 6.52
0 -1 -5 205.84 5.77
0 -1 -6 5.52 1.89
0 -1 -7 180.9 6.4
0 -1 -8 950.2 15.2
0 -1 -9 409.29 10.02
0 1 9 413.07 10.82
0 -1 -9 401.93 10.62
0 -1 -10 1191.62 17.83
0 -1 -10 1159.16 18.82
0 1 10 1127.49 18.95
0 -1 -11 10.45 2.2
0 1 11 10.63 2.49
0 1 12 300.76 10.73
0 -1 -12 310.51 10.54
0 1 13 0.1 1.85
0 1 13 -0.47 1.62
0 1 14 449.82 13.46
0 1 14 435.18 12.73
0 1 15 5.18 2.04
0 1 15 0.35 1.7
0 1 16 38.78 3.38
0 1 16 44.67 4.11
0 1 17 5.44 1.61
0 -2 17 89.08 4.73
0 -2 16 142.87 6.84
0 -2 16 154.64 6.58
0 -2 15 95.69 6.05
0 -2 15 101.06 5.97
0 -2 14 2.42 1.61
0 -2 14 2.37 1.9
0 -2 13 136.59 7.6
0 -2 13 135.63 7.55
0 2 -12 676.45 16.5
0 -2 12 691.78 16.49
0 2 -11 79.06 5.61
0 -2 11 85.27 5.52
0 -2 11 78.66 5.48
0 2 -10 81.78 5.55
0 -2 10 89.55 5.51
0 -2 10 82.39 5.22
0 -2 9 -0.1 1.23
0 -2 9 -0.18 1.1
0 2 -9 0.55 1.24
0 -2 8 223.53 7.67
0 2 -8 218.92 8.1
0 2 -7 3.97 1.49
0 2 -6 122.21 5.18
0 2 -5 11.08 1.81
0 2 -4 2.79 1.24
0 2 -3 33.62 2.34
0 -2 2 725.2 6.98
0 -2 2 721.96 9.7
0 -2 1 187.9 5.03
0 -2 1 211.43 3.91
0 -2 0 193.35 4.1
0 -2 0 180.72 4.79
0 -2 -1 8.26 1.21
0 -2 -1 7.15 1.23
0 -2 -2 3.18 1.04
0 -2 -3 5.75 1.17
0 -2 -4 26.38 2.17
0 -2 -5 4.15 1.19
0 -2 -6 3.47 1.23
0 -2 -7 151.65 6.61
0 -2 -7 165.36 6.25
0 -2 -7 163.95 6.77
0 2 7 165.84 6.68
0 -2 -8 9.28 1.98
0 2 8 7.15 1.85
0 -2 -8 7.07 1.61
0 -2 -8 5.68 1.98
0 -2 -8 8.35 2.07
0 2 9 882.65 17.39
0 -2 -9 862.99 17.09
0 -2 -9 917.29 17.45
0 2 10 8.11 2.18
0 -2 -10 6.95 2.21
0 2 11 20.87 3.23
0 -2 -11 23.18 3.33
0 -2 -12 69.25 5.09
0 2 12 63.11 5.28
0 2 13 360.99 12.4
0 2 13 355.11 11.8
0 2 14 8.09 2.57
0 2 14 3.75 1.67
0 2 15 1.21 1.67
0 2 16 44.64 3.52
0 -3 16 32.89 2.9
0 -3 15 -1.55 1.36
0 -3 15 3.68 1.55
0 -3 14 29.69 3.35
0 -3 14 24.52 3.27
0 -3 13 734.3 16.28
0 -3 13 743.92 15.81
0 -3 12 2.22 1.68
0 -3 12 2.69 1.61
0 -3 11 260.13 9.83
0 -3 11 257.98 10.49
0 -3 10 0.42 1.88
0 -3 10 0.13 1.33
0 3 -10 0.35 1.05
0 3 -9 271.6 9.92
0 -3 9 274.96 9.53
0 3 -8 57.71 4.42
0 -3 8 60.64 4.42
0 -3 8 62.17 5.03
0 -3 7 626.91 14.59
0 -3 7 605.95 12.82
0 3 -7 627.1 13.37
0 -3 6 50 4.1
0 3 -6 44.69 3.6
0 3 -5 8.69 1.86
0 -3 5 10.3 2.14
0 -3 4 370.76 9.3
0 3 -4 375.51 9.18
0 -3 4 368.39 9.82
0 3 -3 1411.73 17.1
0 -3 2 976.19 13.79
0 -3 1 102.33 4.42
0 -3 0 154.89 5.34
0 -3 0 173.28 4.69
0 -3 -1 200.19 5.37
0 -3 -1 185.25 5.82
0 -3 -2 459.73 8.77
0 -3 -2 454.7 9.04
0 -3 -3 69.91 4.45
0 -3 -3 68.46 3.61
0 -3 -3 65.03 4.26
0 -3 -3 68.05 3.79
0 -3 -4 10.9 1.91
0 -3 -4 9.07 2.01
0 -3 -4 7.16 1.42
0 -3 -5 -0.14 1.47
0 -3 -5 1.49 1.33
0 -3 -6 204.87 8.66
0 -3 -6 202.13 8.04
0 -3 -7 -1.41 1.69
0 -3 -8 577.08 15.38
0 -3 -9 20.89 3.45
0 -3 -10 6.95 2.46
0 -3 -11 100.49 6.41
0 -3 -12 206.17 8.61
0 3 13 16.38 3.33
0 3 14 64.21 4.88
0 3 15 59.39 4.18
0 -4 15 2.05 1.07
0 -4 14 286.1 9.3
0 -4 13 -1.2 1.38
0 -4 12 44.55 4.33
0 -4 11 0.56 1.77
0 -4 10 97.22 7.02
0 -4 9 43.42 4.99
0 -4 8 148.41 8.44
0 -4 7 26.08 3.88
0 4 -7 26.9 3.17
0 4 -6 0.63 0.72
0 -4 6 2.51 2.3
0 -4 5 276.94 10.51
0 4 -5 273.23 9.1
0 4 -4 399.05 10.9
0 -4 4 416.02 12.07
0 -4 4 401.44 12.33
0 -4 3 962.95 17.48
0 -4 3 953.55 18.46
0 4 -3 976.64 16.57
0 -4 3 940.14 18.08
0 -4 2 39.37 3.69
0 4 -2 33.68 3.31
0 -4 2 35.35 3.8
0 -4 2 34.85 3.67
0 -4 1 136.22 7.02
0 -4 1 140.89 6.37
0 -4 0 52.95 4
0 -4 0 55.22 4.63
0 -4 -1 863.31 16.38
0 -4 -1 856.75 17.38
0 -4 -1 876.51 15.35
0 -4 -2 15.93 2.71
0 -4 -2 12.56 2.78
0 -4 -3 6.5 1.85
0 -4 -3 -0.53 1.89
0 -4 -4 0.32 1.85
0 -4 -5 594.79 16.31
0 -4 -6 29.27 4.43
0 -4 -7 389.83 13.93
0 -4 -8 38.72 5.13
0 -4 -9 57.7 5.93
0 -4 -10 119.21 7.66
0 4 11 151.97 7.58
0 -4 -11 144.7 7.84
0 4 12 40.08 3.93
0 -4 -12 30.71 3.59
0 -4 -13 0.91 1.12
0 4 13 6.04 1.78
0 -5 13 18.95 2.23
0 -5 12 4.76 1.51
0 -5 11 35.56 3.68
0 -5 10 7.73 2.26
0 -5 9 15.94 3.25
0 -5 8 4.26 2.64
0 -5 7 0.19 1.99
0 -5 7 -0.46 2.33
0 -5 6 29.92 4.11
0 -5 5 30.43 3.98
0 -5 4 285.76 11.03
0 -5 3 0.16 1.96
0 -5 3 4.15 2.28
0 -5 2 2.46 1.9
0 -5 2 3.71 2.05
0 -5 1 0.53 1.74
0 -5 1 0.43 1.69
0 -5 0 218.72 9.51
0 -5 0 235.49 10.04
0 -5 -1 2.4 1.76
0 -5 -1 1.96 2.33
0 -5 -2 18.45 3.06
0 -5 -2 21.11 3.67
0 -5 -3 7.19 2.72
0 -5 -4 174.52 9.09
0 -5 -5 83.67 6.35
0 -5 -6 186.95 9.28
0 -5 -7 47.85 4.95
0 -5 -8 28.82 3.89
0 -5 -9 127.94 6.76
0 5 9 114.25 5.44
0 -5 -10 45.64 3.77
0 5 10 35.64 2.89
0 -6 9 14.14 2.17
0 -6 8 1.89 1.27
0 -6 7 55.05 4.21
0 -6 6 4.18 1.61
0 -6 5 191.36 8.16
0 -6 4 -3.1 1.83
0 -6 4 0.61 1.25
0 -6 3 2.04 1.59
0 -6 3 1.71 1.6
0 -6 2 2.76 1.63
0 -6 1 68.52 4.7
0 -6 0 6.53 2.16
0 -6 -1 24.84 3.34
0 -6 -2 6.12 2.16
0 -6 -3 8.66 2.35
0 -6 -4 55.52 4.4
0 -6 -5 86.33 5.17
0 -6 -6 77.21 4.64
1 -6 -8 16.12 2.12
1 -6 -7 -1.58 1.39
1 -6 -6 72.95 4.97
1 -6 -5 149.07 7.32
1 -6 -4 88.28 5.83
1 -6 -3 8.56 2.55
1 -6 -2 19.62 3.17
1 -6 -2 21.58 3.34
1 -6 -1 175.79 8.18
1 -6 -1 154.12 8.02
1 -6 0 18.93 3.09
1 -6 0 18 3.19
1 -6 1 80.01 5.98
1 -6 2 27.7 3.98
1 -6 3 34.51 4.27
1 -6 4 17.39 3.31
1 -6 5 239.19 9.82
1 -6 6 5.29 2.32
1 -6 7 12.4 2.78
1 -6 8 5.69 2.24
1 -6 9 22.51 3.08
1 -6 10 68.08 4.44
1 -5 -11 67.57 4.21
-1 5 11 67.59 4.09
1 -5 -10 103.12 5.9
-1 5 10 116.71 5.76
-1 5 9 4.48 1.77
1 -5 -9 -0.11 1.94
-1 5 8 13.07 2.5
1 -5 -8 12.82 2.97
1 -5 -7 96.27 6.05
1 -5 -7 109.09 7
1 -5 -6 421.61 13.4
1 -5 -6 360.86 12.1
1 -5 -5 2.42 2.08
1 -5 -5 0.75 1.86
1 -5 -4 151.26 7.93
1 -5 -4 139.61 7.88
1 -5 -3 1.3 1.97
1 -5 -3 1.23 1.79
1 -5 -2 233.14 9.57
1 -5 -2 227.22 9.91
1 -5 -2 236.06 9.88
1 -5 -1 73.08 5.58
1 -5 -1 75.75 5.9
1 -5 -1 73.72 5.42
1 -5 0 297.12 10.81
1 -5 0 289.28 10.37
1 -5 1 -2.81 1.92
1 -5 1 0.07 1.04
1 -5 1 0.69 2.02
1 -5 2 41.16 4.29
1 -5 2 45.67 4.44
1 -5 3 11.45 2.45
1 -5 3 11.81 3.28
1 -5 3 12.88 2.84
1 -5 4 442.06 14.28
1 -5 5 59.88 5.65
1 -5 6 18.74 3.72
1 -5 7 12.86 3.4
1 -5 7 13.9 2.7
1 -5 8 23.78 3.98
1 -5 8 21.71 3.12
1 -5 9 106 6.24
1 -5 10 19.02 2.77
1 -5 10 16.52 3.26
1 -5 11 5.81 1.64
1 -5 11 11.26 2.32
1 -5 12 3.68 1.63
1 -5 13 34.13 2.89
-1 4 14 19.35 2.6
1 -4 -13 138.86 6.3
-1 4 13 146.73 6.88
1 -4 -12 47 4.38
-1 4 12 52.94 4.67
1 -4 -11 116.46 6.98
-1 4 11 121.6 7.16
1 -4 -10 15.79 3.2
-1 4 10 16.4 3.21
1 -4 -9 -0.55 2.31
-1 4 9 4.22 2.33
1 -4 -8 62.29 5.57
1 -4 -7 590.72 15.67
1 -4 -6 12.65 2.82
1 -4 -5 206.1 8.91
1 -4 -5 196.24 7.95
1 -4 -4 4.01 1.86
1 -4 -4 1.81 1.83
1 -4 -3 206.7 8.25
1 -4 -3 202.05 7.75
1 -4 -3 193.22 7.86
1 -4 -2 388.16 10.53
1 -4 -2 402.91 10.75
1 -4 -2 395.51 11.13
1 -4 -1 333.96 9.67
1 -4 -1 345.34 9.82
1 -4 -1 313.62 9.87
1 -4 0 135.74 6.19
1 -4 0 124.53 6.31
1 -4 0 116.18 5.79
1 -4 1 45.49 3.9
1 -4 1 43.78 3.83
1 -4 1 39.13 3.39
1 -4 1 37.04 3.45
1 -4 2 277.2 9.37
1 -4 2 274.95 8.82
1 -4 2 296.12 9.07
1 -4 2 295.75 9.63
1 -4 3 430.67 11.19
1 -4 3 428.23 11.5
1 -4 3 442.03 11.27
1 -4 4 733.58 15.21
1 -4 4 721.15 15.83
1 -4 5 3.23 1.93
1 -4 6 75.3 5.66
1 -4 7 3.51 2.23
1 -4 8 634.67 16.25
1 -4 8 647.47 15.74
1 -4 9 2.56 1.74
1 -4 9 2.92 2.25
1 -4 10 23.94 3.48
1 -4 11 9.23 2.41
1 -4 11 6.21 2.39
1 -4 12 278.25 10.32
1 -4 12 282.39 10.14
1 -4 13 1.59 1.3
1 -4 14 208.56 7.84
1 -4 14 219.48 8.23
1 -4 15 -1.68 1.19
1 -4 15 0.62 0.87
-1 3 16 26.22 2.65
-1 3 15 52.17 4.25
-1 3 14 200.29 8.73
-1 3 13 22.89 3.77
-1 3 12 173.41 8.9
-1 3 11 98.45 6.91
-1 3 10 10.34 3.12
1 -3 -9 28.92 3.46
1 -3 -8 619.91 14.91
1 -3 -8 650.83 14.19
1 -3 -7 14.82 2.75
1 -3 -7 13.44 2.26
1 -3 -6 241.44 7.98
1 -3 -6 228.84 8.42
1 -3 -5 129.54 6.07
1 -3 -4 167.93 6.5
1 -3 -3 221.92 7.21
1 -3 -2 634.62 11.76
1 -3 -1 24.99 2.7
1 -3 0 21.73 2.48
1 -3 1 233.71 7.04
-1 3 -2 1090 11.69
1 -3 2 1087.77 15.32
1 -3 3 696.06 12.36
-1 3 -3 682.23 9.71
1 -3 4 4.89 1.72
-1 3 -4 5.15 1.14
-1 3 -5 35.28 2.57
-1 3 -6 20.9 2.23
1 -3 6 20.99 2.66
1 -3 7 763.4 14.53
-1 3 -7 713.23 13.04
-1 3 -8 71.48 4.46
1 -3 8 67.17 4.89
1 -3 8 70.39 4.99
-1 3 -9 57.62 4.27
1 -3 9 64.58 5.15
1 -3 10 45.19 4.46
-1 3 -10 41.38 3.75
1 -3 11 435.97 13.53
1 -3 12 101.82 6.64
1 -3 13 351.39 12.09
1 -3 14 2.64 1.82
1 -3 14 -0.73 1.71
1 -3 15 54.57 4.53
1 -3 16 215.59 7.78
1 -3 17 41.03 2.97
-1 2 16 -1.55 1.35
-1 2 15 157.03 7.59
-1 2 15 156.68 6.58
-1 2 14 -0.39 1.98
-1 2 14 1.84 1.52
-1 2 14 0.57 1.89
-1 2 13 311.74 10.34
-1 2 13 295.89 11.14
-1 2 13 305.15 11.41
-1 2 12 22.24 3.22
-1 2 12 19.79 3.62
-1 2 12 21.98 3.65
-1 2 11 1.3 2.11
-1 2 11 1.16 1.75
-1 2 11 0.55 1.32
1 -2 -11 0.77 1.14
-1 2 10 31.45 3.88
-1 2 10 33.51 3.94
1 -2 -10 33.63 3.52
-1 2 9 824.65 16.94
1 -2 -9 873.62 15.73
-1 2 8 228.54 8.47
1 -2 -8 239.79 7.9
1 -2 -7 292.36 8.17
-1 2 7 309.07 9.04
1 -2 -6 41.94 3.12
1 -2 -5 41.58 2.84
1 -2 -4 874.56 10.73
1 -2 -4 873.71 12.91
1 -2 -3 623.32 10.21
1 -2 -3 633.22 8.1
1 -2 -2 67.17 3.44
1 -2 -1 9.99 1.71
1 -2 0 170.92 5.05
1 -2 1 4265.28 24.32
-1 2 -2 312.42 4.69
1 -2 2 344.77 6.98
1 -2 3 83.51 3.77
-1 2 -3 81.79 2.74
-1 2 -4 2.53 0.96
1 -2 4 3.69 1.58
-1 2 -5 105.69 4.05
-1 2 -6 289.74 7.26
-1 2 -7 52.8 3.55
-1 2 -8 127.48 5.71
1 -2 8 136.14 6.27
-1 2 -9 0.01 0.97
1 -2 9 0.82 1.34
-1 2 -10 217.42 8.49
1 -2 10 218.77 9.03
-1 2 -11 71.14 5.07
1 -2 11 71.31 5.48
1 -2 12 466.27 14.03
1 -2 13 43.59 4.81
1 -2 14 19.36 3.59
1 -2 15 165.26 8.23
1 -2 16 26.73 3.28
1 -2 17 94.03 5.12
-1 1 17 6.16 1.55
-1 1 16 120.6 6.31
-1 1 16 113.2 5.62
-1 1 16 128.38 6.88
-1 1 15 26.17 3.69
-1 1 15 27.64 3.4
-1 1 14 253.03 10.42
-1 1 14 243.22 9.51
-1 1 13 53.61 4.7
-1 1 13 49.71 4.79
1 -1 -12 9.32 1.84
-1 1 12 8.17 2.55
-1 1 12 10.4 2.55
1 -1 -11 6.83 1.76
-1 1 11 7.25 2.19
-1 1 11 8.19 2.38
-1 1 10 663.88 14.73
-1 1 10 635.59 14.13
-1 1 9 1086.72 17.26
-1 1 9 1098.24 16.83
-1 1 9 1071.92 17.62
1 -1 -8 92.7 4.87
1 -1 -7 30.34 2.86
1 -1 -6 15.47 2.07
1 -1 -5 4402.56 25.46
1 -1 -4 336.69 6.32
1 -1 -3 845.91 8.57
1 -1 -2 44.15 1.69
1 -1 -1 2695.45 15.39
1 -1 0 212.26 4.08
1 -1 1 3730.31 16.26
-1 1 -1 3712.42 9.87
-1 1 -2 26.38 1.24
-1 1 -2 26.67 1.14
1 -1 2 25.99 1.8
-1 1 -3 113.06 3.09
1 -1 3 109.13 3.28
-1 1 -4 191.8 4.71
-1 1 -5 475.38 8.37
-1 1 -6 566.58 10.12
-1 1 -7 29.09 2.81
-1 1 -8 21.25 2.61
1 -1 9 192.48 7.3
1 -1 10 178.28 7.58
-1 1 -11 541.35 12.92
1 -1 11 545.57 14.2
1 -1 12 129.62 7.32
-1 1 -12 128.12 6.54
-1 1 -13 7.44 2.15
1 -1 13 8.55 2.73
1 -1 14 103.26 6.96
1 -1 15 20.46 3.37
1 -1 16 162.77 7.81
1 -1 17 24.73 3.04
1 -1 18 0.71 0.88
-1 0 18 66.59 3.84
-1 0 17 45.95 3.84
-1 0 16 84.88 5.62
-1 0 15 289.9 10.71
-1 0 14 16.13 3.14
-1 0 13 4.92 1.9
-1 0 13 0.25 1.67
-1 0 13 1.08 1.73
1 0 -12 23.91 3.26
-1 0 12 22.21 3.23
-1 0 12 23.13 3
-1 0 12 20.97 3.06
-1 0 11 643.96 13.76
-1 0 11 660.21 14.76
-1 0 11 657.97 14.86
1 0 -11 637.27 15.29
-1 0 10 277.15 8.7
1 0 -10 278.23 9.68
-1 0 10 275.98 9.04
-1 0 10 282.46 9.15
-1 0 9 118.13 5.52
-1 0 9 120.22 5.65
1 0 -9 120.25 6.02
1 0 -8 3.21 1.62
1 0 -7 1.1 1.5
1 0 -6 1153.8 14.49
1 0 -5 156.4 4.88
1 0 -4 307.54 5.94
1 0 -3 92.7 3.01
1 0 -2 1908.53 11.6
-1 0 1 88.74 2.61
-1 0 0 4475.56 17.02
-1 0 -1 283.59 4.59
-1 0 -2 220.8 4.1
-1 0 -2 224.55 4.49
-1 0 -3 2184.05 14.07
-1 0 -4 273.52 5.79
-1 0 -5 2581.69 19.56
-1 0 -6 12.49 2.18
-1 0 -7 394.89 9.24
-1 0 -8 48.38 3.85
1 0 9 1364.1 18.78
-1 0 -9 1389.91 19.67
-1 0 -10 371.41 10.79
1 0 10 352.8 10.33
-1 0 -10 355.76 10.38
1 0 11 85.51 5.59
-1 0 -11 75.9 5.26
-1 0 -11 83.54 5.5
-1 0 -12 7.88 2.17
-1 0 -12 9.59 2.36
1 0 12 10.99 2.51
1 0 13 530.4 14.49
1 0 13 547.66 13.38
-1 0 -13 565.51 14.55
-1 0 -14 4.01 2.1
1 0 14 -0.69 1.83
1 0 15 132.51 7.22
1 0 16 8.64 2.24
1 0 17 51.57 3.99
-1 -1 17 127.61 5.53
-1 -1 16 161.68 7.18
-1 -1 15 8.28 2.08
-1 -1 15 6.17 2.06
-1 -1 14 4.55 1.92
-1 -1 14 5.63 2.21
-1 -1 13 97.02 6.62
-1 -1 13 90 5.91
1 1 -12 427.18 13.3
-1 -1 12 421.76 12.22
-1 -1 12 408.13 13.01
1 1 -11 363.28 11.95
-1 -1 11 353.89 10.33
-1 -1 11 342.67 11.58
-1 -1 11 343.26 10.56
-1 -1 10 144.24 6.48
1 1 -10 146.19 7.42
-1 -1 10 158.26 6.74
1 1 -9 0.45 1.37
-1 -1 9 -0.28 1.41
-1 -1 9 2.78 1.08
-1 -1 8 -0.88 1.1
1 1 -8 0.1 1.45
1 1 -7 609.1 12.15
1 1 -6 89.78 4.48
1 1 -5 190.68 5.94
1 1 -4 197.46 5.6
1 1 -3 669.65 9.52
-1 -1 2 919.39 9.8
-1 -1 1 3151.34 18.06
-1 -1 0 1.67 1.09
-1 -1 -1 54.14 2.77
-1 -1 -2 26.15 2.25
-1 -1 -2 14.08 0.53
-1 -1 -3 128.06 2.03
-1 -1 -3 143.52 5
-1 -1 -4 721.14 6.31
-1 -1 -5 44.12 1.99
-1 -1 -6 42 3.53
-1 -1 -7 5.26 2.05
-1 -1 -7 5.03 1.65
-1 -1 -8 995.14 16.99
1 1 8 1015.34 15.65
-1 -1 -8 1021.66 16.05
-1 -1 -9 130.91 6.82
-1 -1 -9 129.81 6.6
1 1 9 122.11 6
-1 -1 -9 128.62 6.05
-1 -1 -10 208.75 8.79
1 1 10 208.56 8.16
-1 -1 -10 195.37 8.43
-1 -1 -11 38.64 4.16
-1 -1 -11 39.29 4.11
1 1 11 42.08 3.94
-1 -1 -12 544.65 14.59
1 1 12 547.97 13.98
-1 -1 -13 46.47 4.47
1 1 13 46.35 4.29
1 1 14 113.77 6.58
-1 -1 -14 111.44 6.58
1 1 14 108.56 6.36
1 1 15 1.67 1.59
1 1 15 2.42 1.59
1 1 16 107.66 4.98
1 1 16 122.39 5.86
-1 -2 16 88.37 5.2
-1 -2 15 12.14 2.51
-1 -2 14 67.61 5.6
-1 -2 13 62.28 5.58
-1 -2 13 58.72 4.39
-1 -2 12 571.46 13.5
-1 -2 12 565.65 14.92
1 2 -11 16.81 2.82
-1 -2 11 15.38 2.99
-1 -2 10 24.64 3.58
1 2 -10 25.72 3.35
-1 -2 9 14.06 2.65
1 2 -9 9.92 2.1
-1 -2 8 470.82 12.82
1 2 -8 472.21 12.04
-1 -2 7 219.38 8.38
1 2 -7 229.05 7.94
-1 -2 6 188.67 7.46
1 2 -6 196.24 7.07
1 2 -5 40.26 3.23
1 2 -4 339.27 8.52
-1 -2 3 171.13 5.06
-1 -2 2 2108.46 17.28
-1 -2 1 94.56 3.95
-1 -2 0 25.85 2.29
-1 -2 -1 77.69 3.95
-1 -2 -2 379.34 8.56
-1 -2 -3 411.73 9.38
-1 -2 -4 9.25 2
-1 -2 -5 10.55 2.24
-1 -2 -5 7.97 1.88
-1 -2 -5 8.39 2.1
-1 -2 -6 26.01 3.11
-1 -2 -6 30.21 3.47
-1 -2 -6 37.32 3.62
-1 -2 -7 443.45 12.54
-1 -2 -7 453.85 12.29
-1 -2 -8 29.93 3.93
-1 -2 -8 31.01 3.69
-1 -2 -8 29.52 3.73
-1 -2 -9 435.27 13.25
1 2 9 438.35 11.74
-1 -2 -9 432.34 13.51
-1 -2 -9 417.06 12.96
-1 -2 -10 4.17 2.29
-1 -2 -10 2.7 2.29
-1 -2 -10 1.83 1.36
1 2 10 4.72 1.7
1 2 11 153.8 7.33
-1 -2 -11 158.64 8.26
1 2 12 35.04 3.69
-1 -2 -12 38.34 4.32
-1 -2 -13 137.08 7.25
-1 -2 -14 44.72 3.96
1 2 14 47.24 4.45
1 2 15 39.05 3.46
-1 -3 16 3.06 1.23
-1 -3 15 70.05 4.6
-1 -3 14 15.96 2.81
-1 -3 13 363.65 12.4
-1 -3 12 22.66 3.41
-1 -3 11 3.12 2.09
-1 -3 10 17.88 3.5
1 3 -9 185.64 8.3
-1 -3 9 188.42 9.25
1 3 -8 444.09 12.35
-1 -3 8 426.43 13.61
-1 -3 7 47.04 4.74
1 3 -7 43.65 3.88
-1 -3 6 3.8 1.99
1 3 -6 3.48 1.56
-1 -3 6 0.72 1.61
-1 -3 5 27.96 3.57
1 3 -5 27.07 3.06
-1 -3 5 29.21 3.26
1 3 -4 823.98 15.42
-1 -3 4 871.04 16.9
-1 -3 4 846.65 15.73
-1 -3 4 795.32 15.24
-1 -3 3 289.92 9.58
-1 -3 3 284.03 9.1
-1 -3 3 284.8 8.9
-1 -3 2 284.8 8.6
-1 -3 2 300.21 9.49
-1 -3 2 299.34 9.27
-1 -3 1 8.84 2.09
-1 -3 1 9.26 1.59
-1 -3 1 9.86 1.75
-1 -3 0 536.88 12.39
-1 -3 0 554.43 12.75
-1 -3 -1 3.9 1.4
-1 -3 -1 1.09 1.63
-1 -3 -1 1.48 1.08
-1 -3 -2 509.29 13.68
-1 -3 -2 535.51 13.27
-1 -3 -3 9.27 1.8
-1 -3 -3 6.29 2.13
-1 -3 -3 7.21 2.11
-1 -3 -3 8.36 2.16
-1 -3 -4 48.13 4.61
-1 -3 -4 46.65 4.71
-1 -3 -4 46.86 3.73
-1 -3 -4 56.25 4.76
-1 -3 -5 36.11 4.32
-1 -3 -5 37.6 4.34
-1 -3 -5 37.6 3.51
-1 -3 -5 40.93 4.41
-1 -3 -6 573.96 16.12
-1 -3 -6 553.54 15.54
-1 -3 -6 561.24 13.79
-1 -3 -7 9.76 2.33
-1 -3 -7 10.54 2.95
-1 -3 -7 7.32 2.95
-1 -3 -8 274.07 11.5
-1 -3 -9 1.86 2.69
-1 -3 -10 121.93 7.62
-1 -3 -11 108.34 6.82
-1 -3 -12 110.85 6.43
-1 -3 -13 52.71 4.6
-1 -3 -14 26.94 3.1
1 3 14 32.31 3.17
-1 -4 14 247.92 7.66
-1 -4 13 5.53 1.77
-1 -4 12 6.33 2
-1 -4 11 8.11 2.3
-1 -4 10 143.38 7.95
-1 -4 9 79.86 6.28
-1 -4 8 30.04 4.48
-1 -4 7 4.62 2.69
-1 -4 6 32.21 4.31
-1 -4 5 269.58 10.43
-1 -4 5 251.86 10.99
1 4 -4 163.54 7.67
-1 -4 4 174.92 8.86
-1 -4 4 168.12 8.17
-1 -4 4 171.23 8.87
1 4 -3 197.46 8.27
-1 -4 3 184.19 8.87
-1 -4 3 200.13 8.66
-1 -4 3 200.22 8.92
-1 -4 2 0.36 1.99
-1 -4 2 1.69 1.7
-1 -4 2 1.18 1.38
1 4 -2 0.06 1.18
-1 -4 1 214.16 8.65
-1 -4 1 193.2 8.87
-1 -4 1 205.49 9.14
-1 -4 0 12.7 2.92
-1 -4 0 10.51 2.45
-1 -4 -1 292.63 11.12
-1 -4 -1 290.66 10.8
-1 -4 -2 19.21 3.54
-1 -4 -3 36.74 4.57
-1 -4 -4 150.47 8.48
-1 -4 -5 289.43 11.88
-1 -4 -6 70.44 6.29
-1 -4 -7 130.25 8.46
-1 -4 -8 41.88 4.92
-1 -4 -9 56.76 5.49
-1 -4 -10 215.57 9.27
-1 -4 -11 45.39 4.1
-1 -4 -12 2.72 1.41
1 4 12 -0.29 1.05
-1 -5 11 50.81 3.44
-1 -5 10 77.12 4.69
-1 -5 9 20.76 2.82
-1 -5 8 0.79 1.55
-1 -5 7 16.8 2.92
-1 -5 6 118.69 7.04
-1 -5 5 115.51 7
-1 -5 4 115.39 7
-1 -5 3 0.99 1.84
-1 -5 2 47.11 4.65
-1 -5 1 7.81 2.18
-1 -5 1 4.52 2.49
-1 -5 0 134.25 7.23
-1 -5 0 123.22 7.24
-1 -5 -1 35.28 3.84
-1 -5 -1 34.49 4.12
-1 -5 -2 7.04 2.61
-1 -5 -2 3.76 1.8
-1 -5 -3 8.09 2.79
-1 -5 -4 100.77 6.58
-1 -5 -5 76.27 5.78
-1 -5 -6 82.13 5.68
-1 -5 -7 2.37 1.84
-1 -5 -8 5.15 1.61
-1 -5 -9 119.89 5.31
2 -7 -3 62 4.14
2 -7 -2 3.33 1.49
2 -7 -1 2.04 1.29
2 -7 0 255.14 8.99
2 -7 1 8.42 2.17
2 -7 2 51.32 4.26
2 -7 3 3.41 1.75
2 -7 4 43.09 3.74
2 -7 5 -2.81 1.41
2 -7 6 123.74 5.73
2 -7 7 0.33 1.13
2 -6 -9 32.21 3.17
2 -6 -8 2.44 1.34
2 -6 -8 1.74 1.56
2 -6 -7 25.61 3.61
2 -6 -7 22.26 3.05
2 -6 -6 56.33 5.1
2 -6 -6 45.46 4.41
2 -6 -5 223.34 10.08
2 -6 -5 204.23 9.28
2 -6 -4 22.58 3.61
2 -6 -4 29.68 4.15
2 -6 -3 5.72 2.34
2 -6 -3 13.38 3.3
2 -6 -2 4.53 2.73
2 -6 -2 2.52 2.18
2 -6 -1 442.07 11.78
2 -6 -1 427.83 13.8
2 -6 0 -0.41 1.88
2 -6 1 98.6 6.63
2 -6 2 1.4 2.53
2 -6 3 100.17 6.6
2 -6 3 103.08 7.28
2 -6 4 3.41 2.46
2 -6 5 371.96 12.92
2 -6 6 12.44 3.02
2 -6 7 3.87 2.27
2 -6 7 2.89 1.67
2 -6 8 76.74 5.17
2 -6 8 85.7 5.84
2 -6 9 135.14 6.3
2 -6 10 122.11 5.51
2 -6 10 115.33 6.07
2 -6 11 5.55 1.49
-2 5 12 133.29 5.48
-2 5 11 8.21 1.84
2 -5 -11 7.62 1.59
-2 5 10 54.86 4.4
2 -5 -10 49.37 4.31
-2 5 9 12.52 2.53
2 -5 -9 14.01 2.93
2 -5 -8 32.15 4.17
-2 5 8 33.91 3.79
2 -5 -7 15.62 3.43
2 -5 -6 259.63 11.11
2 -5 -5 8.29 2.99
2 -5 -4 25.57 4.01
2 -5 -4 29.18 3.69
2 -5 -3 24.27 3.29
2 -5 -3 30.76 4.39
2 -5 -2 305.35 10.75
2 -5 -2 326.69 11.97
2 -5 -1 140.46 7.29
2 -5 -1 143.59 8.04
2 -5 -1 136.73 8.25
2 -5 -1 141.88 6.53
2 -5 0 -0.86 2.09
2 -5 0 2.09 1.7
2 -5 0 -0.33 1.35
2 -5 0 0.45 2.16
2 -5 1 -1.32 1.04
2 -5 1 -0.8 1.2
2 -5 1 0.59 1.97
2 -5 1 -0.56 1.85
2 -5 2 55.33 5.27
2 -5 2 57.09 4.55
2 -5 2 53.99 5.07
2 -5 3 64.45 5.64
2 -5 3 69.74 5.22
2 -5 4 122.84 7.46
2 -5 5 92.23 6.58
2 -5 6 3.54 2.31
2 -5 7 210.16 9.55
2 -5 8 19.96 3.46
2 -5 8 21.01 3.5
2 -5 9 316.85 11.3
2 -5 9 310.14 11.54
2 -5 10 0.36 1.58
2 -5 11 13.84 2.63
2 -5 11 13.01 2.63
2 -5 12 13.24 2.39
2 -5 13 139.73 6.29
2 -5 14 7.62 1.51
-2 4 14 -2.37 1.7
-2 4 13 225.61 8.67
-2 4 12 20.08 3.29
-2 4 11 251.23 10.01
-2 4 10 16.05 3.14
-2 4 9 12.52 3.22
2 -4 -8 2.65 1.64
-2 4 8 5.69 2.58
-2 4 7 790.26 17.17
2 -4 -7 769.68 17.89
2 -4 -6 3.15 1.82
-2 4 6 4.07 1.97
-2 4 5 12.32 2.3
2 -4 -5 8 2.31
2 -4 -4 142.73 7.25
-2 4 3 646 11.94
2 -4 -3 620.22 14.53
-2 4 2 344.96 8.54
2 -4 -2 312.19 10.11
-2 4 1 15.12 1.95
2 -4 -1 15.38 2.55
2 -4 0 5.56 2.02
2 -4 0 5.57 1.91
-2 4 0 3.79 1.32
2 -4 1 109.1 6.29
2 -4 1 110.24 5.89
-2 4 -1 108.79 4.67
2 -4 1 107.66 5.83
2 -4 2 125.01 6.69
2 -4 2 130.17 6.32
2 -4 2 115.09 6.14
-2 4 -2 116.26 4.84
2 -4 3 38.1 3.77
2 -4 3 36.86 3.82
2 -4 3 43.17 3.81
2 -4 4 162.3 7.34
2 -4 4 184.61 8.09
2 -4 5 11.28 2.39
2 -4 5 9.25 2.19
2 -4 6 209.15 8.47
-2 4 -6 214.98 7.28
2 -4 7 111.5 6.42
2 -4 8 445.42 12.41
2 -4 9 0.14 1.53
2 -4 9 4.66 2.28
2 -4 10 10.8 2.76
2 -4 11 67.97 5.69
2 -4 12 158.81 8.16
2 -4 13 3.3 1.82
2 -4 14 57.29 4.54
2 -4 15 13.15 2.13
-2 3 16 1.47 1.36
-2 3 15 4.03 1.84
-2 3 14 357.29 9.86
-2 3 14 350.94 11.32
-2 3 13 -0.39 1.4
-2 3 13 0.15 2.38
-2 3 12 184.8 9.11
-2 3 12 204.48 8.64
-2 3 11 -0.13 1.46
-2 3 11 0.84 2.42
-2 3 10 8.97 2.26
2 -3 -10 13.38 2.91
-2 3 10 8.8 3.14
-2 3 9 4.88 2.39
2 -3 -9 2.55 1.72
-2 3 9 5.31 1.9
-2 3 8 1066.18 19.78
-2 3 8 1062.46 18.61
-2 3 7 0.03 1.71
2 -3 -7 2.04 1.69
-2 3 7 -0.2 1.19
2 -3 -6 136.89 7.14
-2 3 6 144.5 6.17
-2 3 6 138.39 6.45
-2 3 6 144.1 5.77
2 -3 -5 299.77 9.87
-2 3 5 297.05 8.68
-2 3 5 312.64 8.44
2 -3 -4 1204.51 18.63
2 -3 -3 799.47 14.55
2 -3 -2 564.73 11.9
2 -3 -1 3.58 1.82
2 -3 0 382.79 9.66
2 -3 1 603.08 11.79
2 -3 2 819.7 13.8
2 -3 3 574.73 11.42
2 -3 4 5.98 1.73
2 -3 5 452.73 11.02
2 -3 5 447.43 10.37
-2 3 -6 35.71 2.87
2 -3 7 897.45 14.68
-2 3 -7 932.71 14.81
-2 3 -8 56.09 3.98
2 -3 8 51.72 4.38
2 -3 9 22.48 3.37
-2 3 -9 27.32 3.03
2 -3 10 63.99 5.38
-2 3 -10 69.97 4.86
2 -3 11 261.53 10.65
2 -3 12 29.45 3.95
2 -3 13 63.31 5.5
2 -3 14 14.16 2.95
-2 3 -15 10.52 2.04
2 -3 15 6.91 2.13
2 -3 16 219.12 7.8
2 -3 17 8.8 1.47
-2 2 16 4.53 1.46
-2 2 15 417.15 11.53
-2 2 15 399.23 11.45
-2 2 14 48.8 4.54
-2 2 14 53 4.71
-2 2 13 13.31 3.31
-2 2 13 9.86 2.53
-2 2 12 37.6 4.5
-2 2 12 36.97 4.29
-2 2 12 38.53 4.33
-2 2 11 54.55 5.15
-2 2 11 49.7 4.83
2 -2 -11 42.83 3.68
-2 2 11 53.23 4.98
-2 2 10 54.91 4.95
-2 2 10 52.72 4.9
-2 2 10 57.39 4.93
2 -2 -10 56.11 3.95
-2 2 9 223.68 9.13
-2 2 9 254.83 9.61
2 -2 -9 248.57 7.84
-2 2 9 224.24 9.06
-2 2 8 184.1 7.65
-2 2 8 188.83 7.82
-2 2 8 201.79 6.57
-2 2 8 190.26 7.86
2 -2 -8 201.06 6.69
-2 2 7 5.27 1.84
-2 2 7 9.53 1.84
-2 2 7 5.73 1.92
2 -2 -7 6.27 1.47
2 -2 -6 408.01 8.26
2 -2 -5 259.54 5.96
2 -2 -4 1666.2 19.5
2 -2 -4 1656.14 12.78
2 -2 -3 2.59 0.66
2 -2 -3 2.1 1.67
2 -2 -2 17.6 0.83
2 -2 -2 18.79 2.38
2 -2 -1 129.62 4.93
2 -2 0 513.55 9.08
2 -2 1 541.78 9.16
2 -2 2 907.61 11.58
-2 2 -3 7.75 0.66
-2 2 -3 6.41 0.62
2 -2 3 7.47 1.44
-2 2 -4 494.11 6.1
2 -2 4 505.47 8.99
-2 2 -5 89.02 2.65
-2 2 -5 87.76 3.15
-2 2 -6 1569.17 15.01
-2 2 -7 215.47 7.24
2 -2 7 212.18 7.44
-2 2 -7 193.4 5.89
2 -2 8 70.14 4.75
-2 2 -8 71.81 4.65
-2 2 -8 69.39 3.84
2 -2 9 36.3 3.74
-2 2 -9 41.31 3.26
-2 2 -9 39.77 3.8
-2 2 -10 641.55 12.86
-2 2 -10 678.2 15.35
2 -2 10 634.54 15.54
2 -2 11 61.65 5.21
2 -2 12 50.75 4.94
2 -2 13 -0.02 1.95
-2 2 -14 125.18 7.24
2 -2 14 115.19 7.18
-2 2 -15 240.46 9.18
2 -2 15 244.62 9.63
-2 2 -16 -2.51 1.12
2 -2 16 1.4 1.29
2 -2 17 91.66 4.75
-2 1 17 11.52 1.94
-2 1 16 292.15 9.82
-2 1 15 74.22 5.37
-2 1 15 75.01 5.58
-2 1 14 93.73 6.21
-2 1 14 84.94 5.62
-2 1 14 86.38 6.2
-2 1 13 10.28 2.65
-2 1 13 9.26 2.37
-2 1 12 35.98 4
-2 1 12 30.99 3.76
-2 1 11 66 5.36
-2 1 11 74.38 5.37
-2 1 10 224.16 7.44
2 -1 -10 207.47 8.11
-2 1 10 210.26 8.93
-2 1 10 224.32 8.77
-2 1 10 226.56 8.94
-2 1 9 245.72 7.61
-2 1 9 247.89 8.88
2 -1 -9 224.35 8.08
-2 1 9 234 8.82
-2 1 9 237.2 8.44
-2 1 8 16.57 2.16
2 -1 -8 13.92 2.15
-2 1 8 11.72 2.34
-2 1 8 18.11 2.55
-2 1 8 11.95 2.15
2 -1 -7 406.94 9.46
2 -1 -6 16.42 2.07
2 -1 -5 1438.33 14.66
2 -1 -4 425.66 7.14
2 -1 -3 244.22 4.72
2 -1 -2 35.98 1.6
-2 1 1 8.07 1.38
2 -1 -1 8.61 0.81
2 -1 -1 9.27 1.49
2 -1 0 198.13 4.54
-2 1 0 189.22 4.33
-2 1 -1 121.83 3.61
2 -1 1 126.87 3.34
-2 1 -2 36.69 2.06
2 -1 2 37.7 1.87
-2 1 -3 45.55 2.36
2 -1 3 46.15 2.13
-2 1 -4 1837.35 14.32
-2 1 -4 1829.88 15.14
-2 1 -5 739.84 10.39
-2 1 -5 725.01 10.5
-2 1 -6 442.28 8.93
-2 1 -6 474.96 9.23
-2 1 -7 4.31 1.6
-2 1 -7 4.05 1.71
-2 1 -8 468.04 10.85
-2 1 -8 491.84 11.94
2 -1 8 496.67 11.06
-2 1 -9 218.04 7.93
2 -1 9 209.67 7.82
-2 1 -10 179.49 7.55
2 -1 10 186.16 7.87
-2 1 -10 163.51 7.09
-2 1 -11 94.06 5.67
2 -1 11 94.14 6.06
-2 1 -12 6.18 2.57
2 -1 12 4.82 2.1
-2 1 -13 32.34 4.09
2 -1 13 33.23 3.94
-2 1 -14 353.51 11.89
2 -1 14 340.39 11.59
-2 1 -15 13.31 2.79
2 -1 15 15.45 2.78
2 -1 16 105.91 5.81
-2 1 -16 96.5 5.31
2 -1 17 45.08 3.33
-2 0 17 183.41 6.95
-2 0 16 135.82 5.93
-2 0 16 149.15 7.13
-2 0 15 188.21 7.71
-2 0 14 13.7 2.62
-2 0 13 4.22 1.85
-2 0 13 -0.78 2.03
-2 0 12 158.99 7.46
-2 0 12 151.57 8.01
2 0 -11 455.09 13.17
-2 0 11 467.84 13.47
-2 0 11 485.11 12.5
2 0 -10 493.64 13.26
-2 0 10 494.31 11.91
-2 0 10 474.23 13.06
-2 0 9 195.87 7.06
2 0 -9 200.07 8.04
-2 0 9 189.72 7.56
-2 0 9 206.89 8.22
-2 0 8 190.35 7.11
2 0 -8 183.29 7.39
2 0 -7 42.01 3.38
-2 0 7 46.32 3.51
2 0 -6 2287.04 21.65
2 0 -5 4.51 1.44
2 0 -4 22.07 2.06
2 0 -3 1.9 0.88
-2 0 2 913.3 11.37
-2 0 1 96.04 3.84
2 0 0 271.24 3.54
-2 0 0 256.09 6.12
-2 0 -1 1.45 1.39
-2 0 -2 0.62 1.25
-2 0 -3 1104.88 13.35
-2 0 -4 163.61 5.62
-2 0 -5 805.28 12.94
-2 0 -6 18.58 2.52
-2 0 -7 676.22 13.89
-2 0 -7 686.51 13.76
-2 0 -8 -1.41 1.4
-2 0 -8 -0.18 1.43
-2 0 -9 362.61 10.51
-2 0 -9 327.48 10.68
2 0 9 353.71 9.68
-2 0 -10 142.93 6.92
-2 0 -10 130.87 7.19
2 0 10 147.61 6.66
-2 0 -10 124.19 6.77
-2 0 -11 9.91 2.61
2 0 11 15.16 2.53
-2 0 -11 7.66 1.99
-2 0 -12 74.59 5.92
2 0 12 81.33 5.51
-2 0 -13 278.58 10.88
2 0 13 295.21 10.23
2 0 14 38.19 3.76
-2 0 -14 34.98 4.05
-2 0 -15 106.96 6.27
2 0 15 111.16 5.86
-2 0 -16 -0.08 1.22
2 0 16 0.62 1.2
-2 -1 17 148.8 5.53
-2 -1 16 2.55 1.39
-2 -1 15 0.74 1.47
-2 -1 14 21.7 3.4
-2 -1 13 119.15 7.6
-2 -1 12 62.58 5.63
2 1 -11 372.73 12.22
-2 -1 11 386.88 12.96
2 1 -10 24.14 3.1
-2 -1 10 24.88 3.52
2 1 -9 71.76 5.1
-2 -1 9 72.7 5.27
2 1 -8 31.36 3.32
-2 -1 8 32.17 3.51
2 1 -7 1676.32 21.51
-2 -1 7 1680.6 22.47
-2 -1 6 46.75 3.47
-2 -1 6 48.18 3.77
2 1 -6 42.9 3.51
2 1 -5 15.47 2.78
-2 -1 5 26.56 2.76
2 1 -4 86.13 4.4
-2 -1 3 1963.03 18.86
-2 -1 2 19.58 2.22
-2 -1 1 999.91 13.72
-2 -1 0 32.79 2.86
-2 -1 -1 478.39 9.81
-2 -1 -2 616.99 11.73
-2 -1 -3 357.18 8.91
-2 -1 -4 861.3 14.43
-2 -1 -5 88.69 5.15
-2 -1 -5 88.2 5.17
-2 -1 -5 102.5 5.43
-2 -1 -6 355.39 10.43
-2 -1 -6 346.94 10.62
-2 -1 -6 367.12 10.71
-2 -1 -7 62.54 4.68
-2 -1 -7 58.93 4.89
-2 -1 -7 58.45 4.7
-2 -1 -8 449.34 12.65
-2 -1 -8 442.65 13.02
-2 -1 -8 432.41 12.76
-2 -1 -9 37.31 4.15
-2 -1 -9 35.49 4.33
-2 -1 -10 3.43 1.86
-2 -1 -10 4.62 2.34
-2 -1 -10 6.24 1.78
-2 -1 -11 8.18 2.13
-2 -1 -11 6.37 2.59
-2 -1 -12 239.5 10.34
-2 -1 -13 70.57 5.58
-2 -1 -14 53.66 4.62
-2 -1 -15 4.5 1.78
2 1 15 6.82 1.42
-2 -2 15 12.69 1.76
-2 -2 15 11.44 1.7
-2 -2 15 13.11 2.36
-2 -2 14 81.97 5.62
-2 -2 13 -0.37 1.87
-2 -2 12 87.68 6.4
-2 -2 11 3.18 2.12
-2 -2 10 20.54 3.42
2 2 -9 118.27 6.62
-2 -2 9 129.37 7.4
2 2 -8 215.62 8.58
-2 -2 8 226.61 9.54
2 2 -7 203.5 8.13
-2 -2 7 200.83 9.01
2 2 -6 4.48 1.6
-2 -2 6 5.26 2.14
-2 -2 6 4.74 1.83
-2 -2 5 105.22 5.91
-2 -2 5 111.03 6.26
2 2 -5 106.39 5.69
2 2 -4 148.58 6.53
-2 -2 4 158.43 7.25
-2 -2 4 153.13 6.09
-2 -2 4 155.16 7.02
-2 -2 3 174.45 7.28
-2 -2 3 176.34 6.43
-2 -2 3 161.95 6.96
-2 -2 3 169.84 6.38
-2 -2 2 205.26 6.98
-2 -2 2 181.51 6.95
-2 -2 2 191.64 6.65
-2 -2 1 18.97 2.49
-2 -2 1 20.32 2.16
-2 -2 0 5.29 1.54
-2 -2 0 8.39 1.8
-2 -2 0 5.03 1.61
-2 -2 -1 615.35 13.58
-2 -2 -1 606.74 12.22
-2 -2 -1 656.23 13.1
-2 -2 -1 619.49 12.61
-2 -2 -2 3.03 1.7
-2 -2 -2 2.69 1.62
-2 -2 -2 1.59 1.29
-2 -2 -2 4.31 1.69
-2 -2 -3 569.4 14.12
-2 -2 -3 610.69 13.73
-2 -2 -3 592.81 13.33
-2 -2 -3 628.75 13.25
-2 -2 -4 45.02 4.04
-2 -2 -4 45.83 4.39
-2 -2 -4 54.92 4.58
-2 -2 -4 48.7 4.01
-2 -2 -5 384.41 12.1
-2 -2 -5 389.4 12.42
-2 -2 -5 365.21 10.97
-2 -2 -6 1.01 1.41
-2 -2 -6 2.13 2.2
-2 -2 -6 0.72 1.25
-2 -2 -7 569.75 15.4
-2 -2 -7 554.1 15.81
-2 -2 -7 564.97 14.65
-2 -2 -8 -0.22 1.88
-2 -2 -8 -0.21 2.4
-2 -2 -8 0.57 1.39
-2 -2 -9 3.64 2.27
-2 -2 -9 3.13 2.56
-2 -2 -10 -0.6 1.95
-2 -2 -10 0.36 2.26
-2 -2 -11 288.77 11.19
-2 -2 -11 266.96 10.87
-2 -2 -12 133.12 7.33
-2 -2 -13 4.46 2.08
-2 -2 -14 44.84 3.65
-2 -3 14 1.77 1.23
-2 -3 13 191.29 7.8
-2 -3 12 0.51 1.51
-2 -3 11 6.55 2.1
-2 -3 10 100.75 6.73
-2 -3 9 189.21 9.22
-2 -3 8 148.73 8.19
-2 -3 7 -0.06 1.96
-2 -3 6 92.63 6.51
-2 -3 5 47.64 4.99
-2 -3 5 35.57 4.16
2 3 -5 35.73 3.66
2 3 -4 131.98 6.89
-2 -3 4 124.94 7.56
-2 -3 4 133.56 7.43
2 3 -3 61.37 4.74
-2 -3 3 58.6 4.61
-2 -3 3 53.71 4.97
-2 -3 3 55.64 4.69
-2 -3 2 17.73 2.85
-2 -3 2 23.2 3.06
-2 -3 2 16.47 3.19
-2 -3 1 29.94 3.02
-2 -3 1 29.05 3.46
-2 -3 0 187.86 8.35
-2 -3 0 177.12 7.21
-2 -3 0 172.66 8.03
-2 -3 -1 60.04 4.37
-2 -3 -1 62.14 5.27
-2 -3 -1 65.62 5.04
-2 -3 -2 264.3 11.03
-2 -3 -2 294.07 9.54
-2 -3 -2 276.66 10.28
-2 -3 -3 -0.08 1.76
-2 -3 -3 1.26 1.73
-2 -3 -3 -1.24 1.02
-2 -3 -4 67.35 6.03
-2 -3 -4 71.34 4.94
-2 -3 -4 80.98 6.03
-2 -3 -5 176.75 9.1
-2 -3 -5 186.35 9.79
-2 -3 -5 185.49 9.39
-2 -3 -6 276.24 11.92
-2 -3 -6 275.44 11.7
-2 -3 -6 281.16 11.47
-2 -3 -7 1.3 2.26
-2 -3 -7 -1.11 2.1
-2 -3 -7 -0.93 2.2
-2 -3 -8 27.67 4.24
-2 -3 -8 29.94 4.28
-2 -3 -9 92.06 6.81
-2 -3 -9 97.86 6.75
-2 -3 -10 85.24 6.08
-2 -3 -10 84.93 6.3
-2 -3 -11 136.8 7.22
-2 -3 -12 7.42 2
-2 -4 11 97.7 4.91
-2 -4 10 222.89 7.99
-2 -4 9 166.7 7.66
-2 -4 8 4.02 1.99
-2 -4 7 85.36 5.98
-2 -4 6 110.32 6.8
-2 -4 5 251.43 10.12
-2 -4 4 76.59 6.2
-2 -4 4 75.33 5.58
-2 -4 3 6.11 2.77
-2 -4 2 1.18 1.99
-2 -4 2 2.65 2.15
-2 -4 1 205.24 9.68
-2 -4 1 201.92 8.88
-2 -4 0 15.3 3.01
-2 -4 0 13.33 3.13
-2 -4 -1 149.82 8.27
-2 -4 -1 148.6 7.75
-2 -4 -2 21.06 3.56
-2 -4 -2 17.21 3.25
-2 -4 -3 56.39 5.07
-2 -4 -4 106.68 6.83
-2 -4 -5 147.62 7.88
-2 -4 -6 5.25 2.38
-2 -4 -7 56.02 4.85
-2 -4 -8 68.75 4.96
-2 -4 -9 16.82 2.44
-2 -5 0 68.79 4.81
-2 -5 -1 32.12 3.42
-2 -5 -1 30.89 3.18
-2 -5 -2 92.5 5.17
-2 -5 -2 101.62 5.46
-2 -5 -3 48.47 3.61
-2 -5 -3 66.33 4.33
-2 -5 -4 86.5 4.76
3 -7 -4 131.5 6.29
3 -7 -3 4.35 1.68
3 -7 -2 39.4 3.82
3 -7 -1 2.93 1.83
3 -7 0 410.63 12.08
3 -7 0 410.46 11.67
3 -7 1 26.32 3.48
3 -7 2 24.68 3.3
3 -7 3 14.47 2.69
3 -7 4 130.13 6.45
3 -7 5 45.74 3.72
3 -7 5 42.44 3.38
3 -7 6 65.85 4.08
3 -7 6 74.68 4.49
3 -6 -9 4.55 1.6
3 -6 -8 0.78 1.61
3 -6 -7 109.58 6.85
3 -6 -6 33.86 4.4
3 -6 -5 30.75 4.47
3 -6 -5 29.13 4.4
3 -6 -4 3.5 2.61
3 -6 -4 8.12 3.28
3 -6 -3 124.26 8.18
3 -6 -3 128.6 8.09
3 -6 -2 -0.05 2.33
3 -6 -2 1.17 2.56
3 -6 -1 317.21 12.61
3 -6 -1 324.36 12.47
3 -6 0 52.49 5.47
3 -6 0 45.75 5.2
3 -6 1 -0.5 2.5
3 -6 2 11.95 3.22
3 -6 3 88.61 6.48
3 -6 3 89.97 6.87
3 -6 4 128.14 7.71
3 -6 5 102.14 6.76
3 -6 6 1.59 1.93
3 -6 7 40.09 4.1
3 -6 8 327.55 10.36
3 -6 8 320.96 11.13
3 -6 9 74.65 5.33
3 -6 10 110.28 5.93
3 -6 11 6.37 1.44
-3 5 12 285.29 7.24
3 -5 -12 282.79 8.22
-3 5 11 1.28 1.14
-3 5 11 2.16 1.15
-3 5 10 28.29 3.22
-3 5 10 26 3.01
-3 5 9 8.57 2.39
-3 5 9 8.2 2.13
-3 5 8 153.51 7.26
-3 5 8 167.86 7.7
-3 5 7 2.9 1.76
-3 5 6 95.41 5.83
-3 5 5 11.54 2.35
-3 5 4 189.07 7.83
3 -5 -3 22.26 3.69
-3 5 3 30.07 3.34
3 -5 -3 25.58 3.63
3 -5 -2 263.87 10.68
-3 5 2 280.11 9.24
3 -5 -2 264.89 10.39
3 -5 -1 40.26 4.88
3 -5 -1 37.62 4.49
-3 5 1 44.49 3.81
3 -5 -1 44.13 4.54
3 -5 0 2.96 1.69
3 -5 0 4.86 2.56
3 -5 0 6.63 2.76
-3 5 0 5.35 1.76
3 -5 1 12.6 2.47
3 -5 1 8.12 2.89
3 -5 1 9.68 2.65
-3 5 -1 9.87 2.05
3 -5 2 17.03 2.8
3 -5 2 13.65 2.71
3 -5 2 14.99 3.34
3 -5 3 32.29 4.37
3 -5 3 29.86 3.51
3 -5 4 44.37 4.24
3 -5 4 52.36 5.4
3 -5 5 -0.01 1.71
3 -5 5 1.19 2.24
3 -5 6 1.09 1.86
-3 5 -6 1.18 1.5
3 -5 7 246.64 9.58
-3 5 -7 266.45 9.45
3 -5 8 4.09 1.6
-3 5 -8 9.95 2.13
3 -5 9 153.12 8.45
3 -5 10 5.15 2.31
3 -5 11 37.24 4.2
3 -5 12 9.96 2.32
3 -5 13 79.3 4.84
3 -5 14 4.33 1.31
-3 4 13 456.05 11.67
-3 4 12 20.11 3.22
-3 4 11 207.74 8.95
-3 4 10 4.1 1.7
-3 4 9 189.44 9.07
-3 4 8 52.59 5.14
3 -4 -7 559 16.01
-3 4 7 510.65 14
3 -4 -6 7.93 2.21
-3 4 6 5.28 2.15
-3 4 5 94.42 5.63
3 -4 -5 95.24 6.49
-3 4 4 242.88 8.42
3 -4 -4 254.58 9.97
-3 4 3 641.93 13.23
3 -4 -3 635.72 15.3
-3 4 2 577.86 12.57
3 -4 -2 584.23 14.45
3 -4 -1 2.02 1.88
-3 4 1 3.45 1.66
3 -4 0 75.31 4.9
-3 4 0 73.8 4.55
3 -4 0 70.86 5.06
3 -4 1 14.59 2.56
3 -4 1 11.31 2.71
3 -4 1 13.14 2.54
-3 4 -1 12.96 2.21
3 -4 2 345.99 11.56
3 -4 2 350.21 10.17
3 -4 2 341.22 10.65
-3 4 -2 337.08 9.39
3 -4 3 65.26 5.27
3 -4 3 63.96 4.45
3 -4 3 57.46 4.57
3 -4 4 11.03 2.22
3 -4 4 12.94 3.03
3 -4 5 14.29 2.36
3 -4 5 19.78 2.74
3 -4 5 14.26 2.83
-3 4 -6 456.73 12.22
-3 4 -7 1.89 1.5
-3 4 -8 234.39 9.1
-3 4 -9 5.56 1.85
3 -4 9 4.8 2.47
3 -4 10 19.85 3.47
-3 4 -10 26.68 3.46
3 -4 11 27.29 3.98
-3 4 -11 28.37 3.35
3 -4 12 32.33 4.02
3 -4 13 8.57 2.26
3 -4 14 22.55 2.89
-3 4 -15 18.09 2.17
3 -4 15 19.14 2.29
-3 3 15 4.34 1.31
-3 3 14 372.04 10.57
-3 3 13 21.44 3.5
-3 3 13 22.94 3.26
-3 3 12 31.65 4.29
-3 3 12 34.16 4.05
-3 3 11 27.5 4.07
-3 3 11 27.29 3.86
-3 3 10 133.48 7.7
-3 3 10 141.82 8.15
-3 3 10 141.73 6.46
-3 3 9 86.61 6.18
3 -3 -9 91.86 6.83
-3 3 9 100.9 6.87
3 -3 -8 288.97 11.71
-3 3 8 287.1 10.53
-3 3 8 260.66 10.46
-3 3 8 288.01 9.51
-3 3 7 2.05 2.24
-3 3 7 -1.55 2.09
3 -3 -7 0.27 1.65
-3 3 7 0.36 1.56
3 -3 -6 62.11 5.18
-3 3 6 65.08 4.8
-3 3 6 73.01 4.94
-3 3 6 63.3 4.89
3 -3 -5 371.16 11.54
-3 3 5 379 10.29
-3 3 5 372.18 10.34
-3 3 5 345.89 10.04
3 -3 -4 621.74 14.22
-3 3 4 628.64 12.82
-3 3 4 631 12.93
3 -3 -3 1199.66 18.9
-3 3 3 1203.67 17.15
-3 3 2 11.16 2.1
3 -3 -2 11.83 2.35
-3 3 2 9.73 1.72
-3 3 1 91.05 4.5
-3 3 1 98.36 4.77
3 -3 -1 96.07 5.27
3 -3 0 1.77 1.58
-3 3 0 1.18 1.36
-3 3 -1 1376.95 17.15
3 -3 1 1406.22 18.94
3 -3 2 0.32 1.21
-3 3 -2 1.45 1.06
3 -3 3 27.01 2.85
3 -3 3 21.42 2.55
-3 3 -3 22.61 2.37
3 -3 4 89.18 5.16
3 -3 4 80.94 4.5
-3 3 -5 1673.68 21.52
3 -3 5 1723.32 20.24
-3 3 -6 106.71 5.76
-3 3 -7 437.43 12.07
-3 3 -8 12.01 2.56
3 -3 8 10.25 2.38
-3 3 -9 316.74 11.11
3 -3 9 300.96 11.16
-3 3 -10 159.73 8.09
3 -3 10 169.37 8.55
-3 3 -11 90.94 6.16
3 -3 11 89.6 6.38
3 -3 12 24.33 3.61
3 -3 13 1.82 1.84
3 -3 14 71.41 5.12
-3 3 -15 6.79 2.05
3 -3 15 9.24 2.14
3 -3 16 203.6 6.7
-3 2 16 3.17 1.34
-3 2 15 316.52 9.9
-3 2 14 45.18 4.38
-3 2 13 11.43 2.94
-3 2 12 47.63 4.94
-3 2 12 50.37 4.96
-3 2 11 80.47 6.23
-3 2 11 79.36 6.1
-3 2 11 83.09 5.16
-3 2 10 82.18 6.16
-3 2 10 92.76 6.45
-3 2 10 94.06 5.56
-3 2 9 80.1 6.06
-3 2 9 79.32 5.86
-3 2 9 88.92 5.45
-3 2 8 70.54 5.46
-3 2 8 75.59 5.46
-3 2 8 77.18 5.08
-3 2 7 25.66 3.43
-3 2 7 29.86 3.37
-3 2 7 27.21 3.18
-3 2 6 361.29 10.33
-3 2 6 344.46 9.75
3 -2 -5 199.2 7.78
-3 2 5 191.26 7.08
-3 2 5 177.71 6.58
-3 2 5 175.03 6.8
3 -2 -4 326.33 9.33
-3 2 4 315.67 9.72
-3 2 4 318.69 8.67
3 -2 -3 37.29 3.28
-3 2 3 36.56 3.45
3 -2 -2 38.13 3.11
-3 2 2 38.29 3.65
3 -2 -1 13.95 2.04
-3 2 1 17.39 2.48
-3 2 0 236.12 8.33
3 -2 0 239.48 6.75
-3 2 -1 35.68 3.34
3 -2 1 29.67 2.46
-3 2 -2 96.52 3.42
3 -2 2 104.77 4.24
-3 2 -3 142.19 4.23
3 -2 3 138.81 4.79
-3 2 -4 813.46 13.72
-3 2 -4 824.19 10.41
3 -2 4 843.07 11.58
-3 2 -5 320.26 9.11
-3 2 -6 602.55 13.27
3 -2 6 613 12.42
3 -2 7 22.52 2.83
-3 2 -7 29.01 3.32
-3 2 -8 286.51 10.5
3 -2 8 275 9.51
3 -2 9 358.12 11.29
-3 2 -9 323.61 11.59
3 -2 10 95.63 6.16
-3 2 -10 89.54 6.31
3 -2 11 62.48 5.23
3 -2 12 12.66 2.63
-3 2 -13 205.64 9.77
3 -2 13 204.06 8.89
-3 2 -14 6.1 2.39
3 -2 14 6.1 1.91
-3 2 -15 362.81 11
3 -2 15 366.17 10.29
-3 2 -16 3.84 1.52
3 -2 16 4.47 1.28
-3 1 16 278.03 8.51
-3 1 15 302.27 9.9
-3 1 14 49.57 4.63
-3 1 13 2.44 1.41
-3 1 13 -1.25 2.14
-3 1 12 25.81 3.84
-3 1 12 28.12 3.32
-3 1 11 404.34 13.23
-3 1 11 401.31 11.72
-3 1 10 169.88 7.67
-3 1 10 149.61 7.97
-3 1 9 12.21 2.51
3 -1 -9 7.97 1.81
-3 1 9 8.72 2.32
-3 1 8 -0.37 1.57
3 -1 -8 1.41 1.13
-3 1 8 2.43 1.72
-3 1 8 1.4 1.39
-3 1 7 623.58 13.69
3 -1 -7 626.38 12.29
-3 1 7 581.45 13.11
-3 1 7 606.44 13.31
-3 1 7 559.23 13.48
-3 1 6 119.54 5.85
3 -1 -6 126.36 5.21
-3 1 6 126.34 6.12
-3 1 6 127.84 5.75
-3 1 6 115.55 5.79
3 -1 -5 562.93 10.05
-3 1 5 568.77 12.68
-3 1 4 19.96 2.63
3 -1 -4 19.29 1.77
3 -1 -3 95.27 3.51
-3 1 3 89.28 5.22
3 -1 -2 8.27 1.53
-3 1 2 6.12 1.68
3 -1 -2 6.96 1.02
3 -1 -1 68.82 3.26
3 -1 -1 67.92 2.75
-3 1 1 65.83 3.64
-3 1 1 59.81 4.17
-3 1 0 17.39 2.1
-3 1 0 18.31 2.45
3 -1 0 18.23 1.59
-3 1 -1 120.6 5.6
-3 1 -1 113.22 4.64
-3 1 -2 111.86 4.71
-3 1 -2 122.9 5.56
-3 1 -3 56.46 3.47
-3 1 -3 59.18 3.82
-3 1 -4 373 8.68
-3 1 -5 460.81 10.97
-3 1 -5 473.9 10.02
-3 1 -6 98.22 5.55
-3 1 -6 98.88 4.96
-3 1 -7 4.03 1.81
-3 1 -7 5.09 1.6
-3 1 -8 171.31 8.15
-3 1 -8 153.66 6.68
-3 1 -9 -0.07 1.19
-3 1 -10 89.6 6.59
3 -1 10 107.82 5.9
-3 1 -11 2.66 2.37
3 -1 11 4.37 1.62
-3 1 -12 32.95 4.53
3 -1 12 30.9 3.37
-3 1 -13 19.65 3.42
3 -1 13 25.31 3.05
-3 1 -14 346.5 11.67
-3 1 -15 12.47 2.52
-3 1 -16 32.52 2.99
-3 0 16 234.31 7.21
-3 0 15 2.52 1.45
-3 0 14 -0.67 1.31
-3 0 14 0.52 1.4
-3 0 13 2.02 1.64
-3 0 13 3.28 1.91
-3 0 12 493.64 13.27
-3 0 12 477.52 13.76
-3 0 12 493.78 14.58
-3 0 11 35.09 4.1
-3 0 11 29.31 3.77
3 0 -10 169.31 7.98
-3 0 10 185.25 8.75
3 0 -9 15.48 2.53
-3 0 9 17.12 2.86
3 0 -8 760.59 15.76
-3 0 8 751.33 15.87
-3 0 8 792.47 17.02
3 0 -7 12.91 2.18
-3 0 7 7.6 1.98
-3 0 7 10.61 1.81
-3 0 7 13.44 2.36
3 0 -6 1485.68 19.72
-3 0 6 1451.98 18.06
-3 0 5 142.03 5.85
-3 0 5 131.13 5.71
3 0 -5 139.21 5.86
-3 0 4 174.89 6.46
3 0 -4 197.15 6.72
3 0 -3 174.82 6.09
-3 0 3 175.2 6.43
3 0 -2 715.2 11.92
-3 0 2 725.87 12.95
-3 0 1 235.91 7.41
-3 0 0 58.28 3.92
-3 0 -1 314.58 8.72
-3 0 -2 276.17 8.24
-3 0 -2 275.01 8.21
-3 0 -3 938.77 15.08
-3 0 -3 902.5 14.93
-3 0 -4 349.36 9.21
-3 0 -4 336.34 9.63
-3 0 -4 344.88 9.52
-3 0 -5 76.85 4.41
-3 0 -5 65.92 4.74
-3 0 -5 69.57 4.58
-3 0 -6 42.31 4.05
-3 0 -6 45.24 3.92
-3 0 -7 325.21 11.13
-3 0 -7 312.76 10.26
-3 0 -8 1.17 1.54
-3 0 -8 3.31 2.06
-3 0 -8 5.4 1.78
-3 0 -9 103.18 6.66
-3 0 -9 97.44 6.78
-3 0 -10 -0.21 1.71
-3 0 -10 3.93 2.55
-3 0 -11 9.56 2.35
-3 0 -11 8.93 3.04
-3 0 -12 59.11 4.76
-3 0 -12 49.64 5.24
-3 0 -13 243.59 10.02
-3 0 -14 42.63 4.27
-3 0 -15 135.39 6.31
-3 -1 15 20.68 2.14
-3 -1 14 1.34 1.23
-3 -1 14 2.63 1.36
-3 -1 13 122.05 6.42
-3 -1 13 128.89 6.27
-3 -1 13 124.82 6.94
-3 -1 12 9.56 2.11
-3 -1 12 6.43 2.23
-3 -1 11 11.03 2.28
-3 -1 11 11.76 2.61
-3 -1 10 28.59 3.67
-3 -1 9 306.88 11.12
3 1 -8 36.81 3.75
-3 -1 8 42.39 4.16
3 1 -7 446.01 12.24
-3 -1 7 461.55 12.73
-3 -1 6 79.24 5.14
-3 -1 6 87.64 5.37
3 1 -6 82.58 5.18
-3 -1 5 113.57 5.88
3 1 -5 121.03 6.12
3 1 -4 182.11 7.36
-3 -1 4 173.98 7.16
3 1 -3 206.78 7.92
-3 -1 3 195.05 7.85
-3 -1 2 267.21 8.66
-3 -1 1 24.74 2.61
-3 -1 1 26.27 3.27
-3 -1 1 24.4 3.06
-3 -1 0 235.23 8.45
-3 -1 0 243.14 9.01
-3 -1 0 250.78 8.51
-3 -1 -1 24.88 3.07
-3 -1 -1 29.15 3.39
-3 -1 -1 35.01 3.47
-3 -1 -2 1382.45 22.13
-3 -1 -2 1353.9 21.12
-3 -1 -2 1387.1 18.68
-3 -1 -2 1416.49 20.54
-3 -1 -3 60.98 4.94
-3 -1 -3 64.6 4.79
-3 -1 -3 57.59 4.26
-3 -1 -3 58.46 4.42
-3 -1 -4 35.17 3.9
-3 -1 -4 34 3.38
-3 -1 -4 38.43 3.87
-3 -1 -4 41.34 3.92
-3 -1 -5 41.37 4.29
-3 -1 -5 44.14 4.37
-3 -1 -5 42.44 4.03
-3 -1 -6 866.16 18.73
-3 -1 -6 878.59 19.14
-3 -1 -6 898.28 18.24
-3 -1 -7 2.3 2.27
-3 -1 -7 4.51 2.41
-3 -1 -7 1.63 1.74
-3 -1 -8 64.16 5.65
-3 -1 -8 67.49 6.05
-3 -1 -9 -1.85 1.98
-3 -1 -9 -0.92 2.43
-3 -1 -10 191.55 9.2
-3 -1 -10 184.56 9.39
-3 -1 -11 95.53 6.4
-3 -1 -11 83.62 6.27
-3 -1 -12 170.8 7.91
-3 -1 -12 158.03 8.05
-3 -1 -13 74.42 5.19
-3 -1 -14 8.86 1.74
-3 -1 -14 8.79 1.99
-3 -2 14 104.98 4.77
-3 -2 13 0.71 1.15
-3 -2 12 20.82 2.83
-3 -2 11 43.04 4.03
-3 -2 10 117.17 6.76
-3 -2 9 25.77 3.46
-3 -2 8 192.3 8.53
-3 -2 7 23.27 3.14
-3 -2 6 49.07 4.85
-3 -2 5 26.27 3.64
3 2 -5 20.02 2.85
3 2 -4 48.29 4.22
-3 -2 4 40.7 4.37
3 2 -3 28.31 3.26
-3 -2 3 26.77 3.6
-3 -2 2 9.91 2.09
-3 -2 2 7.97 2.29
-3 -2 1 3.72 1.42
-3 -2 0 9.75 2.17
-3 -2 0 8.29 2
-3 -2 -1 416.25 12.93
-3 -2 -1 431.06 12.12
-3 -2 -2 1.35 1.47
-3 -2 -2 4.24 1.84
-3 -2 -2 1.57 1.84
-3 -2 -2 2.08 1.44
-3 -2 -3 145.21 8.23
-3 -2 -3 166.36 7.83
-3 -2 -3 153.41 7.51
-3 -2 -3 148.09 7.06
-3 -2 -4 1.96 1.43
-3 -2 -4 2.49 2.35
-3 -2 -4 -0.4 1.69
-3 -2 -5 343.24 12.63
-3 -2 -5 351.86 12.36
-3 -2 -5 341.32 11.44
-3 -2 -6 52.12 5.42
-3 -2 -6 55.54 5.39
-3 -2 -6 51.03 4.71
-3 -2 -7 61.14 5.68
-3 -2 -7 53.13 5.47
-3 -2 -7 60.19 5.28
-3 -2 -8 1.42 1.71
-3 -2 -8 3.05 2.48
-3 -2 -8 3.3 2.35
-3 -2 -9 49.82 4.82
-3 -2 -9 58.1 5.34
-3 -2 -9 53.35 5.16
-3 -2 -10 158.5 8.14
-3 -2 -10 150.26 7.9
-3 -2 -10 136.03 7.14
-3 -2 -11 53.21 4.59
-3 -2 -11 50.13 4.19
-3 -2 -12 90.6 5.21
-3 -2 -12 79.91 4.58
-3 -3 11 53.56 3.52
-3 -3 5 39.7 4.7
-3 -3 4 110.66 7.4
-3 -3 3 6.32 2.62
-3 -3 2 8.67 2.79
-3 -3 1 10.89 2.39
-3 -3 1 4.33 2.36
-3 -3 0 232.34 10.51
-3 -3 0 239.31 8.9
-3 -3 -1 6.2 2.03
-3 -3 -1 5.36 1.67
-3 -3 -2 150.94 8.49
-3 -3 -2 154.86 7.35
-3 -3 -3 -0.17 1.19
-3 -3 -3 8.3 2.5
-3 -3 -4 88.98 6.71
-3 -3 -4 93.36 5.97
-3 -3 -5 48.68 5.16
-3 -3 -5 44.65 4.21
-3 -3 -6 84.89 6.39
-3 -3 -6 80.75 5.45
-3 -3 -7 3.32 1.76
-3 -3 -8 4.15 1.78
-3 -3 -9 61.67 4.14
-3 -4 2 51.85 4.63
-3 -4 1 290.17 10.29
-3 -4 0 33.97 3.86
-3 -4 -1 38.96 4.07
-3 -4 -2 5.39 1.23
-3 -4 -2 3.15 1.8
-3 -4 -3 149.01 7.12
-3 -4 -3 155.1 6.14
-3 -4 -4 80.36 5.14
-3 -4 -4 71.16 4.21
-3 -4 -5 31.62 3.13
4 -7 -5 -1.1 1.34
4 -7 -5 1.71 1.46
4 -7 -4 11.6 2.38
4 -7 -3 4.31 1.92
4 -7 -2 117.4 6.49
4 -7 -1 18.49 3.1
4 -7 0 210.15 8.63
4 -7 1 28.04 3.54
4 -7 1 19.92 2.89
4 -7 2 10.54 2.22
4 -7 3 114.87 5.69
-4 7 -3 125.56 5.39
4 -7 4 48.51 3.57
4 -7 5 68.99 3.93
4 -7 6 3.1 1.3
4 -7 7 40.59 3.23
4 -6 -9 29.42 3.36
4 -6 -9 28.4 3.09
4 -6 -8 2.57 1.77
4 -6 -8 4.61 1.9
-4 6 8 -0.04 1.01
4 -6 -7 142.99 8.06
4 -6 -7 147.98 7.67
-4 6 7 143.12 6.15
4 -6 -6 22.79 3.64
4 -6 -6 21.3 3.47
-4 6 6 18.7 2.59
4 -6 -5 3.69 2.33
4 -6 -5 3.18 2.58
-4 6 5 5.6 1.81
4 -6 -4 5.05 2.7
4 -6 -4 8.07 2.79
-4 6 4 8.15 2.07
4 -6 -3 142.64 8.71
4 -6 -3 157.3 8.66
-4 6 3 165.42 7.14
4 -6 -2 -0.03 2.33
4 -6 -2 -0.08 2.18
-4 6 2 1.03 1.45
4 -6 -1 298.86 12.37
4 -6 -1 315.46 11.47
4 -6 0 8.61 3.28
4 -6 0 7.02 2.56
4 -6 1 1.93 2.62
4 -6 2 105.83 7.55
4 -6 3 90.83 6.92
4 -6 3 91.09 6.01
-4 6 -4 71.03 5.2
4 -6 4 61.43 4.88
4 -6 5 -4.03 1.62
-4 6 -5 1.69 1.69
-4 6 -6 57.81 4.52
-4 6 -7 34.24 3.43
4 -6 7 34.26 4.07
4 -6 8 194.69 8.62
4 -6 9 3.37 1.66
4 -6 10 24.51 2.85
4 -6 11 -0.52 1.03
-4 5 12 292.26 7.48
-4 5 11 6.88 1.67
-4 5 10 8.46 2.09
-4 5 9 11.09 2.41
-4 5 8 195.32 8.56
-4 5 7 36.33 4.03
-4 5 6 8.16 2.49
-4 5 5 2.14 1.85
-4 5 4 146.38 7.36
-4 5 3 83.49 5.59
4 -5 -2 275.77 11.81
4 -5 -2 308.54 11.24
-4 5 2 284.45 10.05
4 -5 -1 54.97 5.82
4 -5 -1 59.74 5.17
-4 5 1 64.6 4.94
4 -5 0 -0.52 2.88
4 -5 0 3.15 2.18
-4 5 0 3.69 1.99
4 -5 1 147.24 8.67
4 -5 1 159.79 7.95
-4 5 -1 159.26 7.57
4 -5 2 69.53 6.24
4 -5 2 80.75 5.63
4 -5 3 92.02 6.97
4 -5 4 11.69 3.2
-4 5 -5 55.22 5.08
-4 5 -6 72.41 5.58
-4 5 -7 205.4 9.08
-4 5 -8 11.16 2.59
4 -5 8 7.87 2.59
-4 5 -9 62.68 4.98
4 -5 9 56.41 5.23
-4 5 -10 20.6 2.88
4 -5 10 22.47 3.39
4 -5 11 59.72 4.68
4 -5 12 44.68 3.69
4 -5 13 40.17 3.09
-4 4 13 333.79 9.06
-4 4 12 13.45 2.45
-4 4 11 2.61 1.78
-4 4 10 37.02 4.21
-4 4 9 189.4 8.94
-4 4 8 161.53 8.13
-4 4 7 4.29 2.12
-4 4 6 -0.46 1.75
-4 4 5 124.22 6.76
4 -4 -5 119.65 7.22
-4 4 4 438.46 12.23
4 -4 -4 435.06 13.35
-4 4 3 69.07 4.97
4 -4 -3 63.24 5.13
-4 4 2 318.84 10.18
4 -4 -2 298.81 10.69
4 -4 -1 -2.22 1.4
4 -4 -1 -2.39 2.48
-4 4 1 0.53 1.77
4 -4 0 455.75 13.63
4 -4 0 470.14 11.97
-4 4 0 471.27 12.29
4 -4 0 477.27 13.03
4 -4 1 47.18 4.67
-4 4 -1 55.34 4.42
4 -4 1 51.7 4.43
4 -4 2 418.74 12.87
4 -4 2 384.08 11.5
-4 4 -2 399.3 11.4
4 -4 3 8.11 1.77
4 -4 3 4.45 1.99
4 -4 4 123.07 7.24
4 -4 4 127.22 6.36
-4 4 -5 26.22 3.58
-4 4 -6 477.59 13.83
-4 4 -7 1.57 1.94
-4 4 -8 66.79 5.62
4 -4 8 67.96 5.63
-4 4 -9 1.33 1.75
4 -4 9 0.6 2.06
-4 4 -10 67.98 5.55
4 -4 10 73.99 5.76
-4 4 -11 105.69 6.41
4 -4 11 118.43 6.81
4 -4 12 26.88 3.24
4 -4 13 12.57 2.16
-4 4 -14 3.49 1.54
4 -4 14 5.06 1.39
-4 3 14 388.34 9.55
-4 3 13 2.95 1.62
-4 3 12 2.02 1.4
-4 3 12 4.48 2.18
-4 3 11 123 7.4
-4 3 11 131.34 6.45
-4 3 10 219.97 10.16
-4 3 10 255.72 9.44
-4 3 9 44.74 4.92
-4 3 9 47.55 4.95
-4 3 8 20.67 3.92
-4 3 8 19.48 3.42
4 -3 -7 37.28 4.28
-4 3 7 47.25 4.63
4 -3 -6 103.57 6.57
-4 3 6 111.4 6.53
-4 3 6 108.03 6.86
4 -3 -5 285.97 10.45
-4 3 5 265.5 9.11
-4 3 5 283.07 10.59
4 -3 -4 113.98 6.43
-4 3 4 115.48 5.94
-4 3 4 105.99 6.6
-4 3 3 263.23 8.7
-4 3 3 286.81 9.64
4 -3 -3 268.98 9.41
-4 3 2 4.34 2.38
4 -3 -2 1.53 1.34
-4 3 2 2.46 1.22
-4 3 1 422.54 10.86
-4 3 1 419.72 10.91
4 -3 -1 405.12 11.14
-4 3 0 109.98 5.65
4 -3 0 109.57 5.71
-4 3 0 113.4 5.73
-4 3 -1 461.82 11.4
4 -3 1 495.27 11.53
4 -3 2 1.02 1.17
-4 3 -2 0.18 1.57
-4 3 -3 176 7.61
4 -3 3 171.48 7.3
-4 3 -4 246.37 9.33
-4 3 -5 607.09 14.95
-4 3 -6 80.48 5.87
4 -3 6 81.8 5.37
-4 3 -7 54.54 5.14
4 -3 7 59.82 4.8
-4 3 -8 39.29 4.61
4 -3 8 37.37 4.03
-4 3 -9 70.64 6.04
4 -3 9 65.96 5.33
-4 3 -10 433.13 14.19
4 -3 10 476.38 13.47
4 -3 11 2.79 1.57
4 -3 12 -1.13 1.35
-4 3 -13 0.44 1.74
4 -3 13 3.34 1.26
-4 3 -14 307.97 9.83
4 -3 14 281.58 7.88
-4 3 -15 3.53 1.33
-4 2 15 295.36 8.11
-4 2 14 45.05 3.75
-4 2 13 7.76 2.14
-4 2 13 6.75 2.15
-4 2 12 130.3 7.28
-4 2 12 133.23 6.6
-4 2 11 132.75 7.69
-4 2 11 150.56 7.39
-4 2 10 102 6.84
-4 2 10 122.81 6.88
-4 2 9 43.03 4.54
-4 2 9 40.52 4.34
4 -2 -8 69.92 5.72
-4 2 8 62.83 5.14
-4 2 8 74.11 5.56
4 -2 -7 51.83 4.6
-4 2 7 50.6 4.46
-4 2 7 42.03 4.35
4 -2 -6 260.39 9.74
-4 2 6 241.19 8.96
4 -2 -5 210.85 8.38
-4 2 5 200.33 7.78
-4 2 5 191.95 9.25
-4 2 5 198.79 7.27
-4 2 5 197.38 8.4
4 -2 -4 249.75 8.67
-4 2 4 244.74 7.95
-4 2 4 237.82 10.31
-4 2 4 249.65 8.48
-4 2 4 235.96 7.73
-4 2 4 249.84 8.9
-4 2 3 0.47 1.26
4 -2 -3 -0.41 0.94
-4 2 3 0.79 1.98
-4 2 3 1.12 0.89
-4 2 2 171.81 8.9
-4 2 2 190.44 6.77
-4 2 2 183.97 6.99
4 -2 -2 195.81 6.92
-4 2 1 1.08 1.54
-4 2 1 4.8 2.33
-4 2 1 6.24 1.43
-4 2 0 376.52 12.72
-4 2 0 374.1 9.37
-4 2 0 354.88 8.97
-4 2 -1 1.22 1.25
-4 2 -1 5.06 1.46
-4 2 -1 4.41 2.11
-4 2 -1 1.31 1.12
-4 2 -2 82.96 4.24
-4 2 -2 86.76 4.92
-4 2 -2 92.31 6.11
-4 2 -3 49.42 4.04
-4 2 -4 424.84 11.81
-4 2 -5 73.31 5.29
-4 2 -6 46 4.66
-4 2 -7 3.35 2.33
-4 2 -8 47.22 5.13
-4 2 -9 364.98 13.16
-4 2 -11 12.08 3.13
-4 2 -12 0.42 2.26
-4 2 -13 340.7 11.45
-4 2 -14 7.45 2.09
-4 2 -15 108.69 5.29
-4 1 15 172.53 5.89
-4 1 14 -4.36 1.69
-4 1 14 1.31 1.17
-4 1 13 93.51 5.54
-4 1 13 107.06 5.66
-4 1 12 6.24 2.07
-4 1 12 3.69 1.89
-4 1 11 325.32 11.18
-4 1 11 373.19 11.78
-4 1 10 11.53 2.84
-4 1 10 9.19 2.38
-4 1 9 27.78 3.53
-4 1 9 33.74 4.15
-4 1 8 0.09 2.05
-4 1 8 -0.39 1.44
-4 1 8 -0.98 1.67
-4 1 7 481.31 14.65
-4 1 7 512.28 12.74
-4 1 7 520.96 14.15
-4 1 6 8.01 2.48
-4 1 6 8.37 1.88
-4 1 6 8.27 2.36
-4 1 5 328.11 9.85
-4 1 5 316.74 11.84
-4 1 5 324.55 9.09
-4 1 5 301.45 10.18
-4 1 4 6.16 1.83
-4 1 4 5.42 1.66
-4 1 4 6.37 2.49
-4 1 3 161.78 7.01
-4 1 3 175.12 8.87
-4 1 3 163.15 6.85
-4 1 2 271.51 9.04
-4 1 2 240.2 10.28
-4 1 2 252.2 7.99
-4 1 1 364.4 10.74
-4 1 1 359.3 12.45
-4 1 1 359.91 9.06
-4 1 0 31.47 3.45
-4 1 0 25.87 2.87
-4 1 0 28.07 3.78
-4 1 -1 28.53 3.39
-4 1 -1 28.91 3
-4 1 -1 31.62 3.87
-4 1 -2 222.59 8.86
-4 1 -2 222.25 7.83
-4 1 -2 214.35 7.57
-4 1 -2 232.94 9.46
-4 1 -3 399.39 11.92
-4 1 -3 398.03 10.55
-4 1 -3 384.21 10.67
-4 1 -4 133.06 6.99
-4 1 -4 137.32 6.76
-4 1 -4 125.26 6.08
-4 1 -4 126.92 6.55
-4 1 -4 140.48 7.05
-4 1 -5 35.56 3.9
-4 1 -5 35.09 3.68
-4 1 -5 33.92 3.71
-4 1 -5 37.84 3.55
-4 1 -6 27.01 3.34
-4 1 -6 27.98 3.58
-4 1 -6 27.42 3.54
-4 1 -6 27.37 3.16
-4 1 -7 65.8 4.81
-4 1 -7 71.3 5.78
-4 1 -8 220.22 10
-4 1 -9 11.38 3.01
-4 1 -10 96.44 6.65
-4 1 -10 84.6 6.43
-4 1 -11 8.06 2.11
-4 1 -11 6.64 2.58
-4 1 -12 131.99 7.49
-4 1 -13 33.77 3.79
-4 1 -14 207.79 7.95
-4 0 14 104.7 4.86
-4 0 13 7.13 1.76
-4 0 12 212.17 8.43
-4 0 11 0.47 1.82
-4 0 10 52.66 4.86
-4 0 9 13.65 3.06
-4 0 9 16.5 2.83
-4 0 8 387.06 12.53
-4 0 8 358.57 12.67
-4 0 7 96.78 6.42
-4 0 7 93.83 6.81
-4 0 6 135.11 8.26
-4 0 5 11.68 2.53
-4 0 5 8.04 2.99
-4 0 4 59.2 4.66
-4 0 4 68.85 5.18
-4 0 4 65.76 6.11
-4 0 3 693.87 14.13
-4 0 3 674.15 15.72
-4 0 3 658.85 18.04
-4 0 2 74.83 4.5
-4 0 2 80.09 5.65
-4 0 1 90.72 6.13
-4 0 1 84.59 5.33
-4 0 0 1.95 1.61
-4 0 0 1.45 1.75
-4 0 0 1.83 1.62
-4 0 -1 832.8 18.14
-4 0 -1 883.2 16.8
-4 0 -1 871.41 19.55
-4 0 -2 79 5.92
-4 0 -2 80.52 5.3
-4 0 -2 78.51 5.83
-4 0 -3 413.22 12.8
-4 0 -3 427.32 11.96
-4 0 -3 433.7 12.9
-4 0 -4 68.79 5.29
-4 0 -4 74.88 5.21
-4 0 -4 69.11 5
-4 0 -4 73.29 5.28
-4 0 -5 28.29 3.43
-4 0 -5 28.36 3.6
-4 0 -5 24.93 3.26
-4 0 -6 0.84 1.55
-4 0 -6 3.66 2.01
-4 0 -7 386.76 13.46
-4 0 -7 374.77 12.98
-4 0 -8 33.96 4.37
-4 0 -8 36.23 4.51
-4 0 -9 16.93 3.2
-4 0 -9 17.68 3.64
-4 0 -10 1.62 1.71
-4 0 -10 5.03 2.55
-4 0 -11 193.41 8.59
-4 0 -11 175.9 8.57
-4 0 -12 111.48 5.87
-4 0 -12 113.15 6.37
-4 0 -13 178.7 7.3
-4 -1 13 188.39 6.56
-4 -1 12 22.74 2.79
-4 -1 11 17.06 2.76
-4 -1 10 12.05 2.69
-4 -1 9 279.91 10.53
-4 -1 8 0.98 1.59
-4 -1 7 128.57 8
-4 -1 6 10.31 3.09
-4 -1 5 72.49 5.35
-4 -1 4 160.77 7.81
-4 -1 3 27.94 3.57
4 1 -3 30.73 3.25
4 1 -2 42.09 3.66
-4 -1 2 48.32 4.58
-4 -1 1 1.15 1.44
4 1 -1 -5.08 1.41
-4 -1 0 394.5 12.42
-4 -1 0 401.85 11.88
-4 -1 -1 0.59 1.44
-4 -1 -2 309.26 12.01
-4 -1 -3 23.85 3.77
-4 -1 -3 29.35 3.87
-4 -1 -4 6.87 2.54
-4 -1 -5 19.39 3.68
-4 -1 -5 22.13 3.25
-4 -1 -6 245.9 10.85
-4 -1 -6 239.57 10
-4 -1 -7 58.08 5.48
-4 -1 -7 52.09 4.98
-4 -1 -8 2.58 2.23
-4 -1 -8 1.43 2.1
-4 -1 -9 57.78 5.04
-4 -1 -9 54.18 4.91
-4 -1 -10 98.73 6.11
-4 -1 -10 94.61 5.98
-4 -1 -11 224.8 8.43
-4 -1 -11 225.83 8.31
-4 -1 -12 67.7 4.21
-4 -2 11 47.35 3.39
-4 -2 10 168.07 6.74
-4 -2 9 53.78 4.16
-4 -2 8 91.24 5.9
-4 -2 7 11.15 2.62
-4 -2 4 30.91 3.89
-4 -2 3 52.58 4.94
-4 -2 2 3.22 2
-4 -2 1 160.59 8.42
-4 -2 0 5.79 2.54
-4 -2 -1 244.75 9.88
-4 -2 -2 -1.89 1.64
-4 -2 -3 2.92 2.02
-4 -2 -3 6.43 1.89
-4 -2 -4 5.44 2.27
-4 -2 -5 112.22 7.01
-4 -2 -6 60.43 5.19
-4 -2 -7 2.87 1.71
-4 -2 -8 1.1 1.5
-4 -2 -9 23.89 2.91
-4 -3 6 166.87 7.52
-4 -3 3 5.01 2.14
-4 -3 2 160.81 7.55
-4 -3 1 51.99 4.52
-4 -3 0 212.33 8.73
-4 -3 -1 0.84 1.67
-4 -3 -2 -0.76 1.75
-4 -3 -3 2.4 1.7
-4 -3 -4 103.01 5.78
-4 -3 -5 58.18 4.24
-4 -3 -6 -0.15 1.28
5 -7 -3 7.97 1.87
5 -7 -2 135.68 6.13
5 -7 -1 13.4 2.18
-5 7 -1 5.97 1.78
-5 7 -2 38.47 3.1
-5 7 -3 126.65 5.28
-5 7 -4 5.67 1.45
5 -6 -8 7.63 1.8
-5 6 8 9.15 1.58
5 -6 -7 155.62 7.06
5 -6 -7 158.24 6.86
-5 6 7 163.84 6.3
5 -6 -6 10.87 2.34
5 -6 -6 10.56 2.33
-5 6 6 14.35 2.32
5 -6 -5 4.24 1.88
5 -6 -5 -1.01 1.68
-5 6 5 2.82 1.31
5 -6 -4 17.79 3.17
5 -6 -4 16.86 2.74
-5 6 4 18.24 2.67
5 -6 -3 214.68 9.4
5 -6 -3 216.74 8.59
-5 6 3 226.79 8.34
5 -6 -2 30 3.9
5 -6 -2 28.95 3.31
-5 6 2 31.83 3.43
5 -6 -1 225.39 9.51
5 -6 -1 218.04 8.28
5 -6 0 4.79 2.16
5 -6 1 72.2 5.63
5 -6 2 256.62 10.16
-5 6 -3 76.41 5.36
-5 6 -4 36.3 3.86
-5 6 -5 30.33 3.52
-5 6 -6 128.56 6.46
5 -6 6 117.51 6.27
-5 6 -7 7.5 1.99
5 -6 7 5.76 1.89
-5 6 -8 94.11 5.01
5 -6 8 87 5
5 -6 9 0.38 0.96
-5 5 10 104.66 5.18
5 -5 -9 37.13 3.67
-5 5 9 31.48 3.23
5 -5 -8 43.69 4.15
-5 5 8 34.27 3.63
5 -5 -7 70.63 5.49
-5 5 7 70.73 5.23
5 -5 -6 23.34 3.46
-5 5 6 21.7 3.35
5 -5 -5 37.51 4.21
-5 5 5 40.84 4.25
5 -5 -4 36.62 4.32
5 -5 -4 42.95 4.29
-5 5 4 39.35 4.28
5 -5 -3 107.67 6.93
5 -5 -3 114.6 6.45
-5 5 3 103.4 6.42
5 -5 -2 68.9 5.63
5 -5 -2 78.67 5.41
-5 5 2 78.81 5.57
5 -5 -1 -0.28 1.79
-5 5 1 -0.5 2.11
5 -5 0 10.08 2.55
-5 5 0 12.18 2.85
5 -5 1 374.87 12.29
5 -5 2 4.8 2.09
-5 5 -3 56.5 5.17
-5 5 -4 21.84 3.67
-5 5 -5 181.43 8.71
-5 5 -6 0.62 2.08
5 -5 6 1.08 1.69
-5 5 -7 161.33 8.2
5 -5 7 164.97 7.77
-5 5 -8 -0.4 1.44
5 -5 8 3.29 1.69
-5 5 -9 -0.41 1.51
5 -5 9 -0.71 1.25
-5 5 -10 9.5 2.1
5 -5 10 8.54 1.71
-5 4 12 6.13 1.45
-5 4 11 60 4.21
-5 4 10 73.75 5.04
-5 4 9 70.44 5.1
-5 4 8 78.12 5.65
-5 4 7 21.62 3.31
-5 4 6 81.92 5.76
-5 4 5 10.17 2.47
-5 4 4 182.07 8.27
-5 4 3 20.76 3.12
-5 4 2 -1.84 1.94
-5 4 1 15.12 2.87
-5 4 0 338.93 11.12
-5 4 -1 53.45 4.72
-5 4 -2 42.75 4.36
-5 4 -3 -0.21 1.71
-5 4 -4 90.99 6.39
-5 4 -5 100.48 6.75
-5 4 -6 88.02 6.61
-5 4 -7 4.48 2.57
-5 4 -8 37.18 4.58
-5 4 -9 80.57 6.03
-5 4 -10 39.86 4.3
-5 4 -12 7.28 1.78
-5 3 12 17.91 2.24
-5 3 11 138.16 6.26
-5 3 11 150.71 6.75
-5 3 10 180.39 7.74
-5 3 10 208.5 8.46
-5 3 9 137.19 6.96
-5 3 9 159.48 8.07
-5 3 8 3.42 3.28
-5 3 8 1.89 1.68
-5 3 7 88.72 5.8
-5 3 7 90.71 6.87
-5 3 6 54.34 4.53
-5 3 6 58.08 6.01
-5 3 5 388.69 11.45
-5 3 5 406.21 13.41
-5 3 4 88.44 5.5
-5 3 4 85.16 5.38
-5 3 4 85.79 6.39
-5 3 3 16.91 3.49
-5 3 3 15.86 2.57
-5 3 2 8.93 2.99
-5 3 2 3.73 1.68
-5 3 1 593.03 13.99
-5 3 1 598.6 13.85
-5 3 0 27.1 3.29
-5 3 0 27.4 3.28
-5 3 -1 91.17 5.83
-5 3 -2 0.32 1.46
-5 3 -3 217.12 9.35
-5 3 -4 119.98 7.23
-5 3 -5 91.23 6.55
-5 3 -6 20.78 3.69
-5 3 -7 35.22 4.67
-5 3 -8 97.52 7.01
-5 3 -9 4.02 2.46
-5 3 -9 3.48 2.3
-5 3 -10 243.55 9.76
-5 3 -11 16.55 2.88
-5 3 -12 10.13 2.17
-5 3 -13 4 1.37
-5 2 13 23.73 2.43
-5 2 12 164.75 6.62
-5 2 11 28.55 3.9
-5 2 10 115.06 6.78
-5 2 9 18.21 3.44
-5 2 8 83.41 6.15
-5 2 7 -3.1 3.33
-5 2 6 353.1 12.24
-5 2 5 4.85 2.52
-5 2 5 17.08 2.46
-5 2 4 39.2 3.99
-5 2 4 45.03 5.68
-5 2 4 36.49 4.14
-5 2 3 20.96 3.16
-5 2 3 16.47 3.99
-5 2 3 20.77 3.32
-5 2 2 585.94 15.03
-5 2 2 593.01 19
-5 2 2 598.24 13.93
-5 2 1 71.72 5.66
-5 2 1 70.01 6.91
-5 2 1 84.55 5.18
-5 2 0 138.23 7.83
-5 2 0 142.75 9.24
-5 2 0 130.72 6.11
-5 2 -1 1.3 2.2
-5 2 -1 1.66 2.25
-5 2 -2 401.03 13.49
-5 2 -2 420.17 12.32
-5 2 -3 129.3 7.81
-5 2 -3 134.7 7.34
-5 2 -4 155.71 8.46
-5 2 -4 150.19 8.01
-5 2 -5 42.81 4.67
-5 2 -5 39.02 4.54
-5 2 -6 1.36 1.73
-5 2 -6 0.83 1.62
-5 2 -6 -0.77 1.87
-5 2 -7 55.36 4.7
-5 2 -7 63.33 5.28
-5 2 -8 17.44 2.76
-5 2 -8 17.41 3.11
-5 2 -9 300.87 10.93
-5 2 -10 6.2 2.06
-5 2 -10 3.62 1.87
-5 2 -11 11.1 2.06
-5 2 -11 7.27 2.2
-5 2 -12 4.9 1.42
-5 1 11 33.93 3.38
-5 1 10 38.36 3.94
-5 1 9 86.94 5.96
-5 1 8 37.73 4.41
-5 1 7 80.42 6.52
-5 1 7 77.19 5.87
-5 1 6 17.11 3.22
-5 1 6 21.26 3.88
-5 1 5 39.18 4.11
-5 1 5 31.03 4.71
-5 1 5 34.07 3.92
-5 1 4 86.69 5.91
-5 1 4 76.09 6.97
-5 1 4 81.13 5.53
-5 1 3 93.29 6.39
-5 1 3 89.8 7.55
-5 1 3 95.12 5.63
-5 1 2 311.09 11.58
-5 1 2 300.23 9.37
-5 1 1 42.08 4.86
-5 1 1 39.13 5.31
-5 1 0 3.66 2.41
-5 1 0 2.13 2.38
-5 1 -1 88.44 6.69
-5 1 -1 92.85 7.26
-5 1 -2 308.46 12.04
-5 1 -2 306.31 12.43
-5 1 -3 36.04 4.6
-5 1 -3 42.58 4.76
-5 1 -4 65.2 5.67
-5 1 -5 6.35 2.33
-5 1 -6 63.74 5.2
-5 1 -7 3.67 1.69
-5 1 -7 -0.49 1.6
-5 1 -8 342.26 12.53
-5 1 -8 316.25 11.05
-5 1 -9 24.33 3.65
-5 1 -9 24.33 3.35
-5 1 -10 16.76 2.85
-5 1 -10 9.17 2.31
-5 1 -11 -1.02 1.34
-5 1 -11 -3.95 1.73
-5 1 -12 277.34 7.96
-5 0 12 106.79 4.66
-5 0 11 1.11 1.18
-5 0 10 94.76 5.44
-5 0 9 20.59 2.83
-5 0 8 128.23 7.44
-5 0 8 138.38 7.04
-5 0 7 4.74 1.95
-5 0 7 6.76 2.52
-5 0 6 43.21 5
-5 0 6 45.06 4.25
-5 0 5 55.17 5.74
-5 0 5 56.79 4.62
-5 0 4 24.8 4.31
-5 0 4 28.6 3.26
-5 0 3 231.99 11.51
-5 0 2 19.37 4.07
-5 0 1 1.84 2.9
-5 0 1 -0.08 2.21
-5 0 0 6.95 2.02
-5 0 0 4.49 2.75
-5 0 0 5.36 2.54
-5 0 -1 262.47 10.87
-5 0 -1 278.16 11.65
-5 0 -1 270.69 11.63
-5 0 -2 1.77 1.83
-5 0 -2 3.87 2.97
-5 0 -2 1.6 1.94
-5 0 -3 59.14 5.59
-5 0 -3 60.4 5.43
-5 0 -3 53.55 4.88
-5 0 -4 46.73 5.13
-5 0 -5 11.62 3.16
-5 0 -6 86.43 6.46
-5 0 -7 187.9 9
-5 0 -8 15.12 2.76
-5 0 -8 14.66 2.47
-5 0 -9 3.58 1.75
-5 0 -9 5.23 1.53
-5 0 -10 71.44 4.63
-5 0 -10 57.61 3.86
-5 -1 9 199.9 6.89
-5 -1 8 24.04 2.95
-5 -1 8 34.15 3.1
-5 -1 7 32.25 3.69
-5 -1 7 33.75 3.19
-5 -1 6 38.13 4.34
-5 -1 6 39.74 3.37
-5 -1 5 78.92 6.19
-5 -1 4 275.42 11.71
-5 -1 3 25.15 3.1
-5 -1 3 26.11 4.07
-5 -1 2 3.12 1.76
-5 -1 2 0.38 1.84
-5 -1 1 39.06 3.85
-5 -1 1 50.13 5.25
-5 -1 0 298.88 10.31
-5 -1 0 327.01 12.54
-5 -1 -1 3.81 1.82
-5 -1 -1 5.81 2.16
-5 -1 -1 9.02 2.55
-5 -1 -2 34.46 3.81
-5 -1 -2 34.67 3.77
-5 -1 -3 3.68 1.78
-5 -1 -4 8.65 2.12
-5 -1 -5 34.92 3.86
-5 -1 -6 101.94 6.03
-5 -1 -7 36.89 3.61
-5 -1 -8 5.87 1.75
-5 -2 3 0.88 1.13
-5 -2 2 5.01 1.65
-5 -2 2 4.47 1.62
-5 -2 1 305.71 8.98
-5 -2 1 333.9 10.84
-5 -2 0 5.77 1.74
-5 -2 -1 32.15 3.19
-5 -2 -2 -1.94 1.39
-5 -2 -3 34.3 3.23
-5 -2 -4 20.13 2.48
-6 6 4 69.36 3.87
-6 6 3 77.82 4.32
-6 6 2 25.12 2.77
-6 6 1 10.22 2.09
-6 6 0 67.95 4.45
-6 6 -1 44.72 3.73
-6 6 -2 282.8 8.85
-6 6 -3 1.94 1.54
-6 6 -4 7.48 1.93
-6 6 -5 2.7 1.16
-6 6 -6 203.72 6.9
-6 5 8 35.55 2.86
-6 5 7 4.1 1.47
-6 5 6 12.84 2.26
-6 5 5 68.63 4.64
-6 5 4 19.17 2.86
-6 5 3 0.68 1.19
-6 5 3 2.96 1.53
-6 5 2 8.28 2.13
-6 5 1 39.14 3.88
-6 5 0 7.54 2.22
-6 5 -1 125.29 6.59
-6 5 -2 3.66 1.79
-6 5 -3 12.53 2.59
-6 5 -4 5.77 2.23
-6 5 -5 98.76 5.98
-6 5 -6 45.88 4.08
-6 5 -7 35.68 3.58
-6 5 -8 10.52 2.1
-6 4 9 44.14 3.06
-6 4 8 50.64 3.69
-6 4 7 2.51 1.38
-6 4 6 185.13 7.38
-6 4 5 10.24 2.15
-6 4 4 52.05 4.2
-6 4 3 25.47 2.97
-6 4 3 22.98 2.88
-6 4 2 56.31 4.52
-6 4 2 59.83 4.51
-6 4 1 0.43 1.87
-6 4 1 3.34 1.71
-6 4 0 156.49 7.45
-6 4 -1 8.19 2.3
-6 4 -2 10.18 2.45
-6 4 -3 2.06 1.77
-6 4 -4 43.57 4.45
-6 4 -5 57.73 4.9
-6 4 -6 25.74 3.48
-6 4 -7 -0.64 1.51
-6 4 -7 1.68 1.93
-6 4 -8 5.38 1.41
-6 3 9 102.92 5.52
-6 3 8 9.7 2.82
-6 3 7 265.44 9.79
-6 3 6 6.55 2.89
-6 3 5 222.49 9.09
-6 3 4 13.3 2.41
-6 3 4 15.42 3.19
-6 3 3 88.44 5.71
-6 3 2 64.43 5.11
-6 3 1 415.88 13.02
-6 3 0 55.04 5.26
-6 3 -1 11.37 3.34
-6 3 -2 6.9 2.95
-6 3 -2 6.74 2.08
-6 3 -3 151 8.52
-6 3 -3 153.9 7.64
-6 3 -4 197.53 9.32
-6 3 -4 175.98 8.2
-6 3 -5 23.23 3.53
-6 3 -5 21.45 3.37
-6 3 -6 4.57 2.06
-6 3 -7 3.75 1.54
-6 3 -8 127.78 5.64
-6 3 -9 17.88 2.51
-6 2 10 18.29 2.46
-6 2 9 6.35 2.07
-6 2 8 111.31 5.99
-6 2 7 9.83 2.7
-6 2 6 70.22 5.17
-6 2 5 8.9 2.66
-6 2 4 37.33 3.85
-6 2 4 34.46 3.63
-6 2 3 98.43 6.27
-6 2 3 91.93 5.3
-6 2 2 196.38 9
-6 2 1 92.48 6.63
-6 2 0 1.3 2.54
-6 2 -1 12.52 3.54
-6 2 -2 95.52 6.95
-6 2 -3 290.21 11.4
-6 2 -4 2.73 2.13
-6 2 -5 1.82 1.73
-6 2 -6 7.71 2.13
-6 2 -7 305.14 9.14
-6 2 -8 1.33 1.35
-6 2 -9 72.99 4.56
-6 1 9 75.22 4.23
-6 1 8 17.96 2.65
-6 1 7 60.58 4.3
-6 1 6 15.37 2.75
-6 1 5 0.23 1.69
-6 1 4 54.37 5.51
-6 1 3 53.47 5.52
-6 1 2 35.08 4.55
-6 1 1 -1.84 2.24
-6 1 1 4.48 2.26
-6 1 0 0.17 1.54
-6 1 0 2.86 2.38
-6 1 0 3.66 2.18
-6 1 -1 25.15 3.35
-6 1 -1 20.18 3.71
-6 1 -2 136.4 7.53
-6 1 -2 132.78 7.74
-6 1 -3 1.69 1.69
-6 1 -3 4.81 2.49
-6 1 -4 7.26 2.23
-6 1 -4 5.08 2.1
-6 1 -5 36.39 3.97
-6 1 -6 119.43 6.63
-6 1 -7 35.45 3.51
-6 1 -8 101.34 5.28
-6 0 5 141.97 7.2
-6 0 4 63.37 5.17
-6 0 3 94.91 6.44
-6 0 2 -0.41 1.69
-6 0 1 4.62 2.01
-6 0 0 22.92 3.26
-6 0 -1 122.8 6.53
-6 0 -2 3.93 1.66
-6 0 -3 15.96 2.12
-6 0 -4 21.99 2.65
-6 0 -5 40.21 3.45
-7 4 2 80.58 4.26
-7 4 1 27.03 2.77
-7 4 0 92.62 5.03
-7 4 -1 7.79 1.89
-7 4 -2 2.29 1.68
-7 4 -3 12.39 2.08
-7 4 -4 63.34 4.08
-7 3 2 118.84 5.42
-7 3 1 41.84 3.63
-7 3 0 17 2.48
-7 3 -1 4.49 1.89
-7 3 -2 76.56 4.96
-7 3 -3 15.1 2.39
-7 3 -4 106 5.17
