#------------------------------------------------------------------------------
#$Date: 2022-09-15 02:29:21 +0300 (Thu, 15 Sep 2022) $
#$Revision: 277856 $
#$URL: file:///home/coder/svn-repositories/cod/cif/4/10/00/4100012.cif $
#------------------------------------------------------------------------------
#
# This file is available in the Crystallography Open Database (COD),
# http://www.crystallography.net/
#
# All data on this site have been placed in the public domain by the
# contributors.
#
data_4100012
loop_
_publ_author_name
'Eisler, Sara'
.
'Slepkov, Aaron D.'
.
'Elliott, Erin'
.
'Luu, Thanh'
.
'McDonald, Robert'
.
'Hegmann, Frank A.'
.
'Tykwinski, Rik R.'
.
_publ_section_title
;
Polyynes as a model for carbyne: synthesis, physical and nonlinear
  optical properties
;
_journal_name_full               'Journal of the American Chemical Society'
_journal_paper_doi               10.1021/ja044526l
_journal_year                    2005
_chemical_formula_moiety         'C26 H42 Si2'
_chemical_formula_sum            'C26 H42 Si2'
_chemical_formula_weight         410.78
_space_group_IT_number           2
_space_group_name_Hall           '-P 1'
_space_group_name_H-M_alt        'P -1'
_symmetry_cell_setting           triclinic
_symmetry_space_group_name_Hall  '-P 1'
_symmetry_space_group_name_H-M   'P -1'
_cell_angle_alpha                104.8780(13)
_cell_angle_beta                 100.6479(15)
_cell_angle_gamma                98.4852(14)
_cell_formula_units_Z            1
_cell_length_a                   7.2615(6)
_cell_length_b                   8.7028(7)
_cell_length_c                   11.4850(9)
_cell_measurement_temperature    193(2)
_cell_volume                     674.70(9)
_cod_depositor_comments
;
The following automatic conversions were performed:
'_symmetry_cell_setting' value 'Triclinic' changed to 'triclinic'
according to '/home/saulius/struct/CIF-dictionaries/cif_core.dic'
dictionary named 'cif_core.dic' version 2.4.1 from 2010-06-29.

Automatic conversion script
Id: cif_fix_enum 1527 2010-12-29 10:47:43Z saulius 
;
_cod_database_code               4100012
loop_
_symmetry_equiv_pos_as_xyz
'x, y, z'
'-x, -y, -z'
loop_
_atom_site_label
_atom_site_type_symbol
_atom_site_fract_x
_atom_site_fract_y
_atom_site_fract_z
_atom_site_U_iso_or_equiv
_atom_site_adp_type
_atom_site_occupancy
_atom_site_symmetry_multiplicity
_atom_site_calc_flag
_atom_site_refinement_flags
_atom_site_disorder_assembly
_atom_site_disorder_group
Si Si 0.63087(5) 0.63416(4) 0.28441(3) 0.02413(13) Uani 1 1 d . . .
C1 C 0.43969(19) 0.44950(16) 0.21079(13) 0.0299(3) Uani 1 1 d . . .
C2 C 0.32077(19) 0.32617(15) 0.15671(12) 0.0292(3) Uani 1 1 d . . .
C3 C 0.1854(2) 0.18872(16) 0.09271(13) 0.0307(3) Uani 1 1 d . . .
C4 C 0.06654(19) 0.06830(15) 0.03372(13) 0.0315(3) Uani 1 1 d . . .
C11 C 0.85951(19) 0.56852(17) 0.25902(13) 0.0302(3) Uani 1 1 d . . .
H11 H 0.9672 0.6638 0.3024 0.036 Uiso 1 1 calc R . .
C12 C 0.8627(3) 0.5192(2) 0.12177(15) 0.0498(4) Uani 1 1 d . . .
H12A H 0.8450 0.6100 0.0880 0.060 Uiso 1 1 calc R . .
H12B H 0.7591 0.4252 0.0767 0.060 Uiso 1 1 calc R . .
H12C H 0.9860 0.4908 0.1126 0.060 Uiso 1 1 calc R . .
C13 C 0.8962(2) 0.4308(2) 0.31441(16) 0.0439(4) Uani 1 1 d . . .
H13A H 0.8984 0.4649 0.4030 0.053 Uiso 1 1 calc R . .
H13B H 1.0197 0.4045 0.3033 0.053 Uiso 1 1 calc R . .
H13C H 0.7940 0.3346 0.2724 0.053 Uiso 1 1 calc R . .
C14 C 0.5747(2) 0.78335(16) 0.19687(13) 0.0339(3) Uani 1 1 d . . .
H14 H 0.5742 0.7288 0.1088 0.041 Uiso 1 1 calc R . .
C15 C 0.3767(3) 0.8251(2) 0.19437(18) 0.0546(5) Uani 1 1 d . . .
H15A H 0.2786 0.7247 0.1650 0.066 Uiso 1 1 calc R . .
H15B H 0.3532 0.8919 0.1385 0.066 Uiso 1 1 calc R . .
H15C H 0.3714 0.8853 0.2780 0.066 Uiso 1 1 calc R . .
C16 C 0.7304(3) 0.93880(19) 0.23753(17) 0.0514(4) Uani 1 1 d . . .
H16A H 0.8555 0.9099 0.2356 0.062 Uiso 1 1 calc R . .
H16B H 0.7316 1.0014 0.3219 0.062 Uiso 1 1 calc R . .
H16C H 0.7035 1.0044 0.1811 0.062 Uiso 1 1 calc R . .
C17 C 0.6330(2) 0.69444(16) 0.45474(12) 0.0308(3) Uani 1 1 d . . .
H17 H 0.6467 0.5958 0.4823 0.037 Uiso 1 1 calc R . .
C18 C 0.4469(2) 0.7384(2) 0.48394(16) 0.0454(4) Uani 1 1 d . . .
H18A H 0.3379 0.6539 0.4305 0.055 Uiso 1 1 calc R . .
H18B H 0.4345 0.8428 0.4691 0.055 Uiso 1 1 calc R . .
H18C H 0.4490 0.7467 0.5709 0.055 Uiso 1 1 calc R . .
C19 C 0.8057(2) 0.82729(19) 0.53414(14) 0.0431(4) Uani 1 1 d . . .
H19A H 0.9230 0.7989 0.5121 0.052 Uiso 1 1 calc R . .
H19B H 0.8138 0.8367 0.6219 0.052 Uiso 1 1 calc R . .
H19C H 0.7907 0.9312 0.5192 0.052 Uiso 1 1 calc R . .
loop_
_atom_site_aniso_label
_atom_site_aniso_U_11
_atom_site_aniso_U_22
_atom_site_aniso_U_33
_atom_site_aniso_U_23
_atom_site_aniso_U_13
_atom_site_aniso_U_12
Si 0.0212(2) 0.01927(19) 0.0265(2) 0.00241(13) 0.00249(14) -0.00090(13)
C1 0.0260(7) 0.0242(6) 0.0345(7) 0.0035(5) 0.0042(5) 0.0019(5)
C2 0.0250(7) 0.0242(6) 0.0334(7) 0.0050(5) 0.0024(5) 0.0015(5)
C3 0.0280(7) 0.0250(6) 0.0344(7) 0.0061(5) 0.0021(6) 0.0017(5)
C4 0.0285(7) 0.0247(7) 0.0359(7) 0.0070(6) 0.0006(6) 0.0004(6)
C11 0.0227(7) 0.0329(7) 0.0330(7) 0.0082(5) 0.0059(5) 0.0030(5)
C12 0.0502(10) 0.0706(12) 0.0407(9) 0.0202(8) 0.0214(8) 0.0288(9)
C13 0.0408(9) 0.0530(10) 0.0482(9) 0.0221(8) 0.0152(7) 0.0225(8)
C14 0.0405(8) 0.0259(7) 0.0317(7) 0.0063(5) 0.0037(6) 0.0059(6)
C15 0.0572(12) 0.0508(10) 0.0601(11) 0.0198(8) 0.0069(9) 0.0261(9)
C16 0.0682(12) 0.0294(8) 0.0533(10) 0.0155(7) 0.0117(9) -0.0032(8)
C17 0.0363(8) 0.0229(6) 0.0300(7) 0.0050(5) 0.0082(6) 0.0009(5)
C18 0.0494(10) 0.0422(9) 0.0472(9) 0.0087(7) 0.0235(8) 0.0095(7)
C19 0.0473(10) 0.0387(8) 0.0300(7) 0.0000(6) 0.0006(7) -0.0037(7)
