#------------------------------------------------------------------------------
#$Date: 2016-02-16 22:30:59 +0200 (Tue, 16 Feb 2016) $
#$Revision: 176467 $
#$URL: svn://www.crystallography.net/cod/cif/4/10/13/4101311.cif $
#------------------------------------------------------------------------------
#
# This file is available in the Crystallography Open Database (COD),
# http://www.crystallography.net/
#
# All data on this site have been placed in the public domain by the
# contributors.
#
data_4101311
loop_
_publ_author_name
'Tancharakorn, Somchai'
'Fabbiani, Francesca P A'
'Allan, David R'
'Kamenev, Konstantin V'
'Robertson, Neil'
_publ_section_title
;
 Combined magnetic and single-crystal X-ray structural study of the
 linear chain antiferromagnet [(CH3)4N][MnCl3] under varying pressure.
;
_journal_issue                   28
_journal_name_full               'Journal of the American Chemical Society'
_journal_page_first              9205
_journal_page_last               9210
_journal_paper_doi               10.1021/ja061923i
_journal_volume                  128
_journal_year                    2006
_chemical_formula_moiety         '[(CH4)3N] [MnCl3]'
_chemical_formula_sum            'C4 H12 Cl3 Mn N'
_chemical_formula_weight         235.44
_space_group_IT_number           176
_symmetry_cell_setting           hexagonal
_symmetry_space_group_name_Hall  '-P 6c'
_symmetry_space_group_name_H-M   'P 63/m'
_atom_sites_solution_hydrogens   none
_atom_sites_solution_primary     direct
_audit_creation_date             06-03-08
_audit_creation_method           CRYSTALS_ver_12.24
_cell_angle_alpha                90
_cell_angle_beta                 90
_cell_angle_gamma                120
_cell_formula_units_Z            2
_cell_length_a                   9.0215(6)
_cell_length_b                   9.0215(6)
_cell_length_c                   6.4395(10)
_cell_measurement_reflns_used    742
_cell_measurement_temperature    293
_cell_measurement_theta_max      26
_cell_measurement_theta_min      4
_cell_volume                     453.88(8)
_computing_cell_refinement       'SAINT (Siemens ,1995)'
_computing_data_collection       'SMART (Siemens, 1993)'
_computing_data_reduction        'SAINT (Siemens ,1995)'
_computing_molecular_graphics    'CAMERON (Watkin et al 1996)'
_computing_publication_material  'CRYSTALS (Betteridge et al 2003)'
_computing_structure_refinement  'CRYSTALS (Betteridge et al 2003)'
_computing_structure_solution    'SIR92 (Altomare et al, 1994)'
_diffrn_ambient_pressure         680000
_diffrn_ambient_temperature      293
_diffrn_measured_fraction_theta_full 0.865
_diffrn_measured_fraction_theta_max 0.776
_diffrn_measurement_device_type  'Bruker SMART'
_diffrn_measurement_method       \w
_diffrn_radiation_monochromator  graphite
_diffrn_radiation_type           'Mo K\a'
_diffrn_radiation_wavelength     0.6984
_diffrn_reflns_av_R_equivalents  0.0526
_diffrn_reflns_limit_h_max       8
_diffrn_reflns_limit_h_min       0
_diffrn_reflns_limit_k_max       6
_diffrn_reflns_limit_k_min       0
_diffrn_reflns_limit_l_max       8
_diffrn_reflns_limit_l_min       0
_diffrn_reflns_number            1552
_diffrn_reflns_theta_full        20.815
_diffrn_reflns_theta_max         26.348
_diffrn_reflns_theta_min         4.101
_diffrn_standards_number         0
_exptl_absorpt_coefficient_mu    2.256
_exptl_absorpt_correction_T_max  0.76
_exptl_absorpt_correction_T_min  0.76
_exptl_absorpt_correction_type   multi-scan
_exptl_absorpt_process_details
; 
 SHADE (Parsons, 2004)
 SADABS (Siemens, 1996) 
 The following data are from Sadabs:
;
_exptl_crystal_colour            pink
_exptl_crystal_density_diffrn    1.634
_exptl_crystal_description       block
_exptl_crystal_F_000             214
_exptl_crystal_size_max          0.15
_exptl_crystal_size_mid          0.12
_exptl_crystal_size_min          0.12
_refine_diff_density_max         0.46
_refine_diff_density_min         -0.44
_refine_ls_extinction_coef       313.961
_refine_ls_extinction_method
'Larson 1970 Crystallographic Computing eq 22'
_refine_ls_goodness_of_fit_ref   1.1506
_refine_ls_hydrogen_treatment    mixed
_refine_ls_matrix_type           full
_refine_ls_number_parameters     17
_refine_ls_number_reflns         191
_refine_ls_number_restraints     2
_refine_ls_R_factor_all          0.0680
_refine_ls_R_factor_gt           0.0557
_refine_ls_shift/su_max          0.000671
_refine_ls_structure_factor_coef F
_refine_ls_weighting_details
;
 Method, part 1, Chebychev polynomial, (Watkin, 1994, Prince, 1982) 
 [weight] = 1.0/[A~0~*T~0~(x)+A~1~*T~1~(x) ... +A~n-1~]*T~n-1~(x)] 
 where A~i~ are the Chebychev coefficients listed below and x= Fcalc/Fmax 
 Method = Robust Weighting (Prince, 1982) 
 W = [weight] * [1-(deltaF/6*sigmaF)^2^]^2^ 
 A~i~ are: 
 0.857E-01 8.32 -2.19 
;
_refine_ls_weighting_scheme      calc
_refine_ls_wR_factor_all         0.0715
_refine_ls_wR_factor_gt          0.0590
_refine_ls_wR_factor_ref         0.0590
_reflns_limit_h_max              0
_reflns_limit_h_min              -6
_reflns_limit_k_max              11
_reflns_limit_k_min              0
_reflns_limit_l_max              8
_reflns_limit_l_min              0
_reflns_number_gt                191
_reflns_number_total             252
_reflns_threshold_expression     I>3.00u(I)
_cod_data_source_file            ja061923isi20060329_052049.cif
_cod_data_source_block           I
_cod_depositor_comments
;
The following automatic conversions were performed:
'_symmetry_cell_setting' value 'Hexagonal' changed to 'hexagonal'
according to '/home/saulius/struct/CIF-dictionaries/cif_core.dic'
dictionary named 'cif_core.dic' version 2.4.1 from
2010-06-29.

'_exptl_absorpt_correction_type' value 'Multi-scan' changed
to 'multi-scan' according to
'/home/saulius/struct/CIF-dictionaries/cif_core.dic' dictionary named
'cif_core.dic' version 2.4.1 from 2010-06-29.

Automatic conversion script
Id: cif_fix_enum 1527 2010-12-29 10:47:43Z saulius 
;
_cod_original_sg_symbol_H-M      'P 63/m '
_cod_original_formula_sum        'C4 H12 Cl3 Mn1 N1'
_cod_database_code               4101311
loop_
_symmetry_equiv_pos_as_xyz
x,y,z
-x,-y,-z
x-y,x,z+1/2
-x+y,-x,-z+1/2
-y,x-y,z
y,-x+y,-z
-x,-y,z+1/2
x,y,-z+1/2
-x+y,-x,z
x-y,x,-z
y,-x+y,z+1/2
-y,x-y,-z+1/2
loop_
_atom_site_label
_atom_site_type_symbol
_atom_site_fract_x
_atom_site_fract_y
_atom_site_fract_z
_atom_site_U_iso_or_equiv
_atom_site_occupancy
_atom_site_adp_type
_atom_site_refinement_flags_posn
_atom_site_refinement_flags_adp
Mn1 Mn 1.0000 0.0000 0.5000 0.0340 1.0000 Uani S T
Cl2 Cl 0.7483(2) -0.1543(2) 0.2500 0.0407 1.0000 Uani S T
N3 N 1.3333 -0.3333 0.7500 0.0309 1.0000 Uani DS T
C4 C 1.3333 -0.3333 0.5146(15) 0.16(2) 0.5000 Uiso DS .
C1 C 1.1516(13) -0.4717(16) 0.702(3) 0.098(7) 0.5000 Uiso D .
loop_
_atom_site_aniso_label
_atom_site_aniso_U_11
_atom_site_aniso_U_22
_atom_site_aniso_U_33
_atom_site_aniso_U_23
_atom_site_aniso_U_13
_atom_site_aniso_U_12
Mn1 0.0392(9) 0.0392(9) 0.0234(9) 0.0000 0.0000 0.0196(4)
Cl2 0.0351(11) 0.0481(12) 0.0329(9) 0.0000 0.0000 0.0162(9)
N3 0.034(3) 0.034(3) 0.025(4) 0.0000 0.0000 0.0168(16)
loop_
_atom_type_symbol
_atom_type_scat_dispersion_real
_atom_type_scat_dispersion_imag
_atom_type_scat_Cromer_Mann_a1
_atom_type_scat_Cromer_Mann_b1
_atom_type_scat_Cromer_Mann_a2
_atom_type_scat_Cromer_Mann_b2
_atom_type_scat_Cromer_Mann_a3
_atom_type_scat_Cromer_Mann_b3
_atom_type_scat_Cromer_Mann_a4
_atom_type_scat_Cromer_Mann_b4
_atom_type_scat_Cromer_Mann_c
_atom_type_scat_source
C 0.0033 0.0016 2.3100 20.8439 1.0200 10.2075 1.5886 0.5687 0.8650 51.6512
0.2156 'International Tables Vol C 4.2.6.8 and 6.1.1.4'
N 0.0061 0.0033 12.2126 0.0057 3.1322 9.8933 2.0125 28.9975 1.1663 0.5826
-11.5290 'International Tables Vol C 4.2.6.8 and 6.1.1.4'
Cl 0.1484 0.1585 11.4604 0.0104 7.1964 1.1662 6.2556 18.5194 1.6455 47.7784
-9.5574 'International Tables Vol C 4.2.6.8 and 6.1.1.4'
Mn 0.3368 0.7283 11.2819 5.3409 7.3573 0.3432 3.0193 17.8674 2.2441 83.7543
1.0896 'International Tables Vol C 4.2.6.8 and 6.1.1.4'
H 0.0000 0.0000 0.4930 10.5109 0.3229 26.1257 0.1402 3.1424 0.0408 57.7998
0.0030 'International Tables Vol C 4.2.6.8 and 6.1.1.4'
loop_
_geom_angle_atom_site_label_1
_geom_angle_site_symmetry_1
_geom_angle_atom_site_label_2
_geom_angle_atom_site_label_3
_geom_angle_site_symmetry_3
_geom_angle
_geom_angle_publ_flag
Cl2 5_645 Mn1 Cl2 7_755 95.50(4) yes
Cl2 5_645 Mn1 Cl2 3_545 95.50(4) yes
Cl2 7_755 Mn1 Cl2 3_545 84.50(4) yes
Cl2 5_645 Mn1 Cl2 6_666 179.995 yes
Cl2 7_755 Mn1 Cl2 6_666 84.50(4) yes
Cl2 3_545 Mn1 Cl2 6_666 84.50(4) yes
Cl2 5_645 Mn1 Cl2 4_765 84.50(4) yes
Cl2 7_755 Mn1 Cl2 4_765 95.50(4) yes
Cl2 3_545 Mn1 Cl2 4_765 179.995 yes
Cl2 6_666 Mn1 Cl2 4_765 95.50(4) yes
Cl2 5_645 Mn1 Cl2 . 84.50(4) yes
Cl2 7_755 Mn1 Cl2 . 179.995 yes
Cl2 3_545 Mn1 Cl2 . 95.50(4) yes
Cl2 6_666 Mn1 Cl2 . 95.50(4) yes
Cl2 4_765 Mn1 Cl2 . 84.50(4) yes
Mn1 . Cl2 Mn1 3_544 78.14(5) yes
C4 4_866 N3 C1 9_865 101.9(6) yes
C4 4_866 N3 C1 8_556 78.1(6) yes
C1 9_865 N3 C1 8_556 121.41(15) yes
C4 4_866 N3 C1 4_866 78.1(6) yes
C1 9_865 N3 C1 4_866 23.7(13) yes
C1 8_556 N3 C1 4_866 115.9(4) yes
C4 4_866 N3 C1 5_635 101.9(6) yes
C1 9_865 N3 C1 5_635 115.9(4) yes
C1 8_556 N3 C1 5_635 121.41(15) yes
C1 4_866 N3 C1 5_635 121.41(15) yes
C4 4_866 N3 C1 12_636 78.1(6) yes
C1 9_865 N3 C1 12_636 121.41(15) yes
C1 8_556 N3 C1 12_636 115.9(4) yes
C1 4_866 N3 C1 12_636 115.9(4) yes
C1 5_635 N3 C1 12_636 23.7(13) yes
C4 4_866 N3 C4 . 179.992 yes
C1 9_865 N3 C4 . 78.1(6) yes
C1 8_556 N3 C4 . 101.9(6) yes
C1 4_866 N3 C4 . 101.9(6) yes
C1 5_635 N3 C4 . 78.1(6) yes
C4 4_866 N3 C1 . 101.9(6) yes
C1 9_865 N3 C1 . 115.9(4) yes
C1 8_556 N3 C1 . 23.7(13) yes
C1 4_866 N3 C1 . 121.41(15) yes
C1 5_635 N3 C1 . 115.9(4) yes
C1 12_636 N3 C4 . 101.9(6) yes
C1 12_636 N3 C1 . 121.41(15) yes
C4 . N3 C1 . 78.1(6) yes
loop_
_geom_bond_atom_site_label_1
_geom_bond_atom_site_label_2
_geom_bond_site_symmetry_2
_geom_bond_distance
_geom_bond_publ_flag
Mn1 Cl2 5_645 2.5543(15) yes
Mn1 Cl2 7_755 2.5543(15) yes
Mn1 Cl2 3_545 2.5543(15) yes
Mn1 Cl2 6_666 2.5543(15) yes
Mn1 Cl2 4_765 2.5543(15) yes
Mn1 Cl2 . 2.5543(15) yes
N3 C4 4_866 1.516(10) yes
N3 C1 9_865 1.516(9) yes
N3 C1 8_556 1.516(9) yes
N3 C1 4_866 1.516(9) yes
N3 C1 5_635 1.516(9) yes
N3 C1 12_636 1.516(9) yes
N3 C4 . 1.516(10) yes
N3 C1 . 1.516(9) yes
