#------------------------------------------------------------------------------
#$Date: 2016-03-21 17:04:53 +0200 (Mon, 21 Mar 2016) $
#$Revision: 178767 $
#$URL: svn://www.crystallography.net/cod/cif/4/10/21/4102191.cif $
#------------------------------------------------------------------------------
#
# This file is available in the Crystallography Open Database (COD),
# http://www.crystallography.net/
#
# All data on this site have been placed in the public domain by the
# contributors.
#
data_4102191
loop_
_publ_author_name
'John S. Tse'
'Alicea A. Leitch'
'Xueyang Yu'
'Xuezhao Bao'
'Sijia Zhang'
'Qingqing Liu'
'Changqing Jin'
'Richard A. Secco'
'Serge Desgreniers'
'Yasuo Ohishi'
'Richard T. Oakley'
_publ_contact_author_address
; Department of Chemistry
University of Waterloo
Waterloo, ON N2L 3G1 Canada
;
_publ_contact_author_email       oakley@uwaterloo.ca
_publ_contact_author_fax         519-746-0435
_publ_contact_author_name        'Richard Oakley'
_publ_contact_author_phone       519-888-4582
_publ_section_title
;
 Metallization of a Hypervalent Radical Dimer: Molecular and Band
 Perspectives
;
_journal_name_full               'Journal of the American Chemical Society'
_journal_page_first              4876
_journal_page_last               4886
_journal_paper_doi               10.1021/ja100216c
_journal_volume                  132
_journal_year                    2010
_chemical_formula_moiety         'C6 H4 N3 S2 Se2'
_chemical_formula_sum            'C6 H4 N3 S2 Se2'
_chemical_formula_weight         340.18
_chemical_name_common            HBPTSMe
_space_group_IT_number           14
_symmetry_cell_setting           monoclinic
_symmetry_space_group_name_Hall  '-P 2ybc'
_symmetry_space_group_name_H-M   'P 1 21/c 1'
_cell_angle_alpha                90.0
_cell_angle_beta                 88.6518(26)
_cell_angle_gamma                90.0
_cell_formula_units_Z            4
_cell_length_a                   4.57430(14)
_cell_length_b                   12.67862(24)
_cell_length_c                   13.8297(4)
_cell_measurement_temperature    293(2)
_cell_volume                     801.84(4)
_computing_data_reduction        'synchrotron powder'
_computing_structure_refinement  GSAS
_diffrn_ambient_temperature      293(2)
_diffrn_radiation_polarisn_ratio 0.95
_diffrn_radiation_probe          x-ray
_diffrn_radiation_type           synchrotron
_diffrn_radiation_wavelength     0.51446
_diffrn_source                   synchrotron
_diffrn_source_type              'SPring-8 BL10XU'
_exptl_absorpt_correction_T_max  1.00000
_exptl_absorpt_correction_T_min  1.00000
_exptl_absorpt_process_details
;   GSAS Absorption/surface roughness correction: function number 0
 No correction is applied.
;
_exptl_crystal_colour            black
_exptl_crystal_density_diffrn    2.818
_pd_calc_method                  'Rietveld Refinement'
_pd_phase_name                   'hbptsme 3.74GPa'
_pd_proc_info_datetime           2009-05-19T19:39:32
_pd_proc_ls_background_function
;   GSAS Background function number 1 with  8 terms.
 Shifted Chebyshev function of 1st kind
      1:    39993.9     2:    26300.8     3:   -1445.79     4:   -387.988    
      5:   -251.607     6:    226.401     7:    27.0924     8:    244.100    
;
_pd_proc_ls_peak_cutoff          0.00100
_pd_proc_ls_profile_function
;
 CW Profile function number 2 with  18 terms
 Profile coefficients for Simpson's rule integration of pseudovoigt function
 C.J. Howard (1982). J. Appl. Cryst.,15,615-620.
 P. Thompson, D.E. Cox & J.B. Hastings (1987). J. Appl. Cryst.,20,79-83.
 Peak tails are ignored  where the intensity is below 0.0010 times the peak
   Aniso. broadening axis   0.0   0.0   1.0
;
_pd_proc_ls_prof_R_factor        0.0076
_pd_proc_ls_prof_wR_expected     0.0048
_pd_proc_ls_prof_wR_factor       0.0126
_refine_ls_matrix_type           full
_refine_ls_number_parameters     1
_refine_ls_number_restraints     0
_refine_ls_R_Fsqd_factor         0.11696
_refine_ls_shift/su_max          0.02
_refine_ls_shift/su_mean         0.02
_cod_data_source_file            ja100216c_si_004.cif
_cod_data_source_block           HBPTSMe_3.74GPa
_cod_depositor_comments
;
The following automatic conversions were performed:

'_geom_bond_publ_flag' value 'N' changed to 'n' according to the
built-in table from CIF Core dictionary named 'cif_core.dic' version
2.4.1 from 2010-06-29 (20 times).

'_geom_angle_publ_flag' value 'N'
changed to 'n' according to the built-in table from CIF Core
dictionary named 'cif_core.dic' version 2.4.1 from 2010-06-29 (31
time).

Automatic conversion script
Id: cif_fix_values 1715 2011-07-08 13:25:40Z adriana 
;
_cod_database_code               4102191
_cod_database_fobs_code          4102191
#BEGIN Tags that were not found in dictionaries:
_gsas_exptl_extinct_corr_t_min   1.00000
_gsas_exptl_extinct_corr_t_max   1.00000
#END Tags that were not found in dictionaries
loop_
_symmetry_equiv_pos_site_id
_symmetry_equiv_pos_as_xyz
1 +x,+y,+z
2 -x,+y+1/2,-z+1/2
-1 -x,-y,-z
-2 +x,-y+1/2,+z+1/2
loop_
_atom_site_type_symbol
_atom_site_label
_atom_site_fract_x
_atom_site_fract_y
_atom_site_fract_z
_atom_site_occupancy
_atom_site_thermal_displace_type
_atom_site_U_iso_or_equiv
_atom_site_symmetry_multiplicity
_atom_site_refinement_flags
Se Se1 0.3077 0.02487 0.39334 1.0 Uiso 0.025 4 G
S S1 0.34304 0.13152 0.26188 1.0 Uiso 0.025 4 G
Se Se2 0.40285 0.50063 0.41667 1.0 Uiso 0.025 4 G
S S2 0.08997 0.46848 0.2581 1.0 Uiso 0.025 4 G
N N1 0.57442 0.10189 0.45779 1.0 Uiso 0.025 4 G
N N2 0.88865 0.24483 0.46015 1.0 Uiso 0.025 4 G
N N3 0.21769 0.38455 0.46676 1.0 Uiso 0.025 4 G
C C2 0.6846 0.18344 0.4125 1.0 Uiso 0.025 4 G
C C1 0.60773 0.21416 0.31571 1.0 Uiso 0.025 4 G
C C5 0.73666 0.30148 0.27176 1.0 Uiso 0.025 4 G
C C4 -0.05813 0.36042 0.32087 1.0 Uiso 0.025 4 G
C C3 0.02484 0.33246 0.4178 1.0 Uiso 0.025 4 G
C C6 -0.037 0.21295 0.55858 1.0 Uiso 0.025 4 G
H H5 0.67766 0.32366 0.19914 1.0 Uiso 0.025 4 G
H H6A 0.11114 0.27127 0.58736 1.0 Uiso 0.025 4 G
H H6B 0.76368 0.20785 0.60317 1.0 Uiso 0.025 4 G
H H6C 0.06634 0.13531 0.55704 1.0 Uiso 0.025 4 G
loop_
_atom_type_symbol
_atom_type_number_in_cell
_atom_type_scat_dispersion_real
_atom_type_scat_dispersion_imag
_atom_type_scat_Cromer_Mann_a1
_atom_type_scat_Cromer_Mann_a2
_atom_type_scat_Cromer_Mann_a3
_atom_type_scat_Cromer_Mann_a4
_atom_type_scat_Cromer_Mann_b1
_atom_type_scat_Cromer_Mann_b2
_atom_type_scat_Cromer_Mann_b3
_atom_type_scat_Cromer_Mann_b4
_atom_type_scat_Cromer_Mann_c
_atom_type_scat_source
Se 8.0 0.000 0.000 17.0006 2.40980 5.81960 0.27260 3.97310 15.2372 4.35430
43.8163 2.84090 International_Tables_Vol_C
S 8.0 0.000 0.000 6.90530 1.46790 5.20340 22.2151 1.43790 0.25360 1.58630
56.1720 0.86690 International_Tables_Vol_C
N 12.0 0.000 0.000 12.2126 0.00570 3.13220 9.89330 2.01250 28.9975 1.16630
0.58260 -11.529 International_Tables_Vol_C
C 24.0 0.000 0.000 2.31000 20.8439 1.02000 10.2075 1.58860 0.56870 0.86500
51.6512 0.21560 International_Tables_Vol_C
H 16.0 0.000 0.000 0.49300 10.5109 0.32291 26.1257 0.14019 3.14236 0.04081
57.7997 0.00304 International_Tables_Vol_C
loop_
_geom_angle_atom_site_label_1
_geom_angle_atom_site_label_2
_geom_angle_atom_site_label_3
_geom_angle
_geom_angle_site_symmetry_1
_geom_angle_site_symmetry_3
_geom_angle_publ_flag
S1 Se1 N1 92.1128 1_555 1_555 n
Se1 S1 C1 92.9858 1_555 1_555 n
Se2 Se2 N3 79.4069 -1_666 1_555 n
Se1 N1 C2 116.6038 1_555 1_555 n
C2 N2 C3 122.9345 1_555 1_655 n
C2 N2 C6 117.2202 1_555 1_655 n
C3 N2 C6 119.8369 1_655 1_655 n
Se2 N3 C3 121.6308 1_555 1_555 n
N1 C2 N2 118.1333 1_555 1_555 n
N1 C2 C1 123.9704 1_555 1_555 n
N2 C2 C1 117.8963 1_555 1_555 n
S1 C1 C2 114.3249 1_555 1_555 n
S1 C1 C5 124.9839 1_555 1_555 n
C2 C1 C5 120.6912 1_555 1_555 n
C1 C5 C4 119.9956 1_555 1_655 n
C1 C5 H5 120.0387 1_555 1_555 n
C4 C5 H5 119.9656 1_655 1_555 n
S2 C4 C5 115.8926 1_555 1_455 n
S2 C4 C3 123.0178 1_555 1_555 n
C5 C4 C3 121.0894 1_455 1_555 n
N2 C3 N3 119.0699 1_455 1_555 n
N2 C3 C4 117.3787 1_455 1_555 n
N3 C3 C4 123.5514 1_555 1_555 n
N2 C6 H6A 108.2374 1_455 1_555 n
N2 C6 H6B 109.3852 1_455 1_455 n
N2 C6 H6C 109.8670 1_455 1_555 n
H6A C6 H6B 110.7358 1_555 1_455 n
H6A C6 H6C 110.3469 1_555 1_555 n
H6B C6 H6C 108.2615 1_455 1_555 n
C5 H5 H6B 135.8696 1_555 -2_565 n
C6 H6B H5 138.4464 1_655 -2_566 n
loop_
_geom_bond_atom_site_label_1
_geom_bond_atom_site_label_2
_geom_bond_distance
_geom_bond_site_symmetry_2
_geom_bond_publ_flag
Se1 S1 2.26848 1_555 n
Se1 N1 1.81321 1_555 n
S1 C1 1.77775 1_555 n
Se2 Se2 2.48978 -1_666 n
Se2 S2 2.67794 1_555 n
Se2 N3 1.826370 1_555 n
S2 C4 1.749830 1_555 n
N1 C2 1.304030 1_555 n
N2 C2 1.392920 1_555 n
N2 C3 1.395830 1_655 n
N2 C6 1.46760 1_655 n
N3 C3 1.304200 1_555 n
C2 C1 1.44544 1_555 n
C1 C5 1.387830 1_555 n
C5 C4 1.389550 1_655 n
C5 H5 1.083200 1_555 n
C4 C3 1.44590 1_555 n
C6 H6A 1.084920 1_555 n
C6 H6B 1.090550 1_455 n
C6 H6C 1.091980 1_555 n
