#------------------------------------------------------------------------------
#$Date: 2017-10-13 14:42:48 +0300 (Fri, 13 Oct 2017) $
#$Revision: 201982 $
#$URL: file:///home/coder/svn-repositories/cod/cif/4/10/23/4102333.cif $
#------------------------------------------------------------------------------
#
# This file is available in the Crystallography Open Database (COD),
# http://www.crystallography.net/
#
# All data on this site have been placed in the public domain by the
# contributors.
#
data_4102333
loop_
_publ_author_name
'Pan\<ce Naumov'
'Janusz Kowalik'
'Kyril M. Solntsev'
'Anthony Baldridge'
'Jong-Seok Moon'
'Christine Kranz'
'Laren M. Tolbert'
_publ_section_title
;
 Topochemistry and Photomechanical Effects in Crystals of Green
 Fluorescent Protein-like Chromophores: Effects of Hydrogen Bonding and
 Crystal Packing
;
_journal_name_full               'Journal of the American Chemical Society'
_journal_page_first              5845
_journal_page_last               5857
_journal_paper_doi               10.1021/ja100844m
_journal_volume                  132
_journal_year                    2010
_chemical_formula_moiety         'C13 H14 N2 O'
_chemical_formula_sum            'C13 H14 N2 O'
_chemical_formula_weight         214.26
_chemical_name_systematic
;
 ?
;
_space_group_IT_number           2
_symmetry_cell_setting           triclinic
_symmetry_space_group_name_Hall  '-P 1'
_symmetry_space_group_name_H-M   'P -1'
_atom_sites_solution_hydrogens   geom
_atom_sites_solution_primary     direct
_atom_sites_solution_secondary   difmap
_audit_creation_method           SHELXL-97
_cell_angle_alpha                96.864(1)
_cell_angle_beta                 100.939(1)
_cell_angle_gamma                115.801(2)
_cell_formula_units_Z            2
_cell_length_a                   7.2224(2)
_cell_length_b                   7.32150(10)
_cell_length_c                   12.4936(3)
_cell_measurement_reflns_used    6427
_cell_measurement_temperature    293(2)
_cell_measurement_theta_max      25.0
_cell_measurement_theta_min      1.7
_cell_volume                     568.51(3)
_computing_cell_refinement       'APEX2 software (Bruker, 2007)'
_computing_data_collection       'APEX2 software (Bruker, 2007)'
_computing_data_reduction        'SAINT (Bruker, 2007)'
_computing_molecular_graphics    'DIAMOND (Brandenburg, 2005)'
_computing_publication_material  'WinGX (Farrugia, 1999)'
_computing_structure_refinement  'SHELXL-97 (Sheldrick, 2008)'
_computing_structure_solution    'SHELXS-97 (Sheldrick, 2008)'
_diffrn_ambient_temperature      293(2)
_diffrn_measured_fraction_theta_full 1.000
_diffrn_measured_fraction_theta_max 1.000
_diffrn_measurement_device_type  'Bruker SMART APEX2 diffractometer'
_diffrn_measurement_method       '\w scans'
_diffrn_radiation_monochromator  'multilayer confocal TXS mirror'
_diffrn_radiation_source         'rotating anode'
_diffrn_radiation_type           MoK\a
_diffrn_radiation_wavelength     0.71073
_diffrn_reflns_av_R_equivalents  0.0232
_diffrn_reflns_av_sigmaI/netI    0.0114
_diffrn_reflns_limit_h_max       8
_diffrn_reflns_limit_h_min       -8
_diffrn_reflns_limit_k_max       8
_diffrn_reflns_limit_k_min       -8
_diffrn_reflns_limit_l_max       14
_diffrn_reflns_limit_l_min       -14
_diffrn_reflns_number            17851
_diffrn_reflns_theta_full        25.00
_diffrn_reflns_theta_max         25.00
_diffrn_reflns_theta_min         1.71
_exptl_absorpt_coefficient_mu    0.081
_exptl_absorpt_correction_T_max  0.94
_exptl_absorpt_correction_T_min  0.92
_exptl_absorpt_correction_type   sphere
_exptl_absorpt_process_details   'SADABS (Sheldrick, 1996)'
_exptl_crystal_colour            yellow
_exptl_crystal_density_diffrn    1.252
_exptl_crystal_density_method    'not measured'
_exptl_crystal_description       prism
_exptl_crystal_F_000             228
_exptl_crystal_size_max          0.200
_exptl_crystal_size_mid          0.065
_exptl_crystal_size_min          0.020
_refine_diff_density_max         0.354
_refine_diff_density_min         -0.135
_refine_diff_density_rms         0.034
_refine_ls_extinction_method     none
_refine_ls_goodness_of_fit_ref   1.072
_refine_ls_hydrogen_treatment    mixed
_refine_ls_matrix_type           full
_refine_ls_number_parameters     152
_refine_ls_number_reflns         2006
_refine_ls_number_restraints     0
_refine_ls_restrained_S_all      1.072
_refine_ls_R_factor_all          0.0550
_refine_ls_R_factor_gt           0.0452
_refine_ls_shift/su_max          0.000
_refine_ls_shift/su_mean         0.000
_refine_ls_structure_factor_coef Fsqd
_refine_ls_weighting_details
'calc w=1/[\s^2^(Fo^2^)+(0.0652P)^2^+0.1887P] where P=(Fo^2^+2Fc^2^)/3'
_refine_ls_weighting_scheme      calc
_refine_ls_wR_factor_gt          0.1276
_refine_ls_wR_factor_ref         0.1399
_reflns_number_gt                1676
_reflns_number_total             2006
_reflns_threshold_expression     >2sigma(I)
_cod_data_source_file            ja100844m_si_010.cif
_cod_data_source_block           t1_1_0m
_cod_database_code               4102333
loop_
_symmetry_equiv_pos_as_xyz
'x, y, z'
'-x, -y, -z'
loop_
_atom_site_label
_atom_site_type_symbol
_atom_site_fract_x
_atom_site_fract_y
_atom_site_fract_z
_atom_site_U_iso_or_equiv
_atom_site_adp_type
_atom_site_occupancy
_atom_site_symmetry_multiplicity
_atom_site_calc_flag
_atom_site_refinement_flags
O16 O 0.1100(2) -0.2312(2) 0.68086(13) 0.0688(5) Uani 1 1 d .
N12 N 0.6245(2) 0.1491(2) 0.68406(13) 0.0505(4) Uani 1 1 d .
C9 C 0.2883(3) -0.1247(3) 0.67438(15) 0.0489(5) Uani 1 1 d .
N10 N 0.4033(2) -0.1940(2) 0.61946(13) 0.0519(4) Uani 1 1 d .
C1 C 0.4946(3) 0.4536(3) 0.81813(13) 0.0424(4) Uani 1 1 d .
C7 C 0.3804(3) 0.2299(3) 0.77355(14) 0.0446(4) Uani 1 1 d .
C2 C 0.3947(3) 0.5525(3) 0.87049(14) 0.0450(4) Uani 1 1 d .
C8 C 0.4350(3) 0.1014(3) 0.71641(14) 0.0451(4) Uani 1 1 d .
C5 C 0.8062(3) 0.7876(3) 0.85014(17) 0.0589(5) Uani 1 1 d .
H5 H 0.9434 0.8661 0.8436 0.071 Uiso 1 1 calc R
C6 C 0.7008(3) 0.5758(3) 0.80875(15) 0.0502(5) Uani 1 1 d .
H6 H 0.7674 0.5122 0.7738 0.060 Uiso 1 1 calc R
C4 C 0.7087(3) 0.8841(3) 0.90154(18) 0.0619(6) Uani 1 1 d .
H4 H 0.7796 1.0277 0.9296 0.074 Uiso 1 1 calc R
C11 C 0.5969(3) -0.0281(3) 0.62909(15) 0.0493(5) Uani 1 1 d .
C14 C 0.7610(3) -0.0511(4) 0.58156(18) 0.0654(6) Uani 1 1 d .
H14A H 0.8747 0.0842 0.5859 0.098 Uiso 1 1 calc R
H14B H 0.6975 -0.1261 0.5047 0.098 Uiso 1 1 calc R
H14C H 0.8168 -0.1265 0.6233 0.098 Uiso 1 1 calc R
C15 C 0.1730(3) 0.4345(3) 0.88374(18) 0.0605(5) Uani 1 1 d .
H15A H 0.1372 0.5293 0.9238 0.091 Uiso 1 1 calc R
H15B H 0.1679 0.3303 0.9247 0.091 Uiso 1 1 calc R
H15C H 0.0726 0.3687 0.8112 0.091 Uiso 1 1 calc R
C3 C 0.5059(3) 0.7665(3) 0.91097(17) 0.0572(5) Uani 1 1 d .
H3 H 0.4414 0.8329 0.9457 0.069 Uiso 1 1 calc R
C13 C 0.3215(4) -0.4090(3) 0.56105(19) 0.0690(6) Uani 1 1 d .
H13A H 0.2938 -0.4186 0.4818 0.104 Uiso 1 1 calc R
H13B H 0.1914 -0.4953 0.5784 0.104 Uiso 1 1 calc R
H13C H 0.4252 -0.4552 0.5844 0.104 Uiso 1 1 calc R
H7 H 0.246(3) 0.157(3) 0.7873(16) 0.057(5) Uiso 1 1 d .
loop_
_atom_site_aniso_label
_atom_site_aniso_U_11
_atom_site_aniso_U_22
_atom_site_aniso_U_33
_atom_site_aniso_U_23
_atom_site_aniso_U_13
_atom_site_aniso_U_12
O16 0.0559(9) 0.0549(9) 0.0911(11) 0.0041(7) 0.0254(8) 0.0230(7)
N12 0.0493(9) 0.0561(9) 0.0499(8) 0.0061(7) 0.0136(7) 0.0294(8)
C9 0.0438(10) 0.0494(10) 0.0522(10) 0.0068(8) 0.0108(8) 0.0228(8)
N10 0.0580(10) 0.0502(9) 0.0504(9) 0.0007(7) 0.0103(7) 0.0323(8)
C1 0.0438(9) 0.0448(9) 0.0389(9) 0.0074(7) 0.0102(7) 0.0221(8)
C7 0.0407(9) 0.0457(10) 0.0473(10) 0.0073(8) 0.0136(7) 0.0203(8)
C2 0.0474(10) 0.0464(10) 0.0423(9) 0.0063(7) 0.0113(7) 0.0241(8)
C8 0.0446(9) 0.0467(10) 0.0450(9) 0.0059(7) 0.0112(7) 0.0239(8)
C5 0.0511(11) 0.0518(11) 0.0605(12) 0.0113(9) 0.0170(9) 0.0122(9)
C6 0.0477(10) 0.0519(11) 0.0502(10) 0.0068(8) 0.0165(8) 0.0226(9)
C4 0.0656(13) 0.0408(10) 0.0660(13) 0.0032(9) 0.0155(10) 0.0165(9)
C11 0.0511(10) 0.0602(12) 0.0439(10) 0.0076(8) 0.0111(8) 0.0342(9)
C14 0.0676(13) 0.0833(15) 0.0626(12) 0.0118(11) 0.0232(10) 0.0496(12)
C15 0.0514(11) 0.0600(12) 0.0722(13) 0.0021(10) 0.0234(10) 0.0287(10)
C3 0.0642(12) 0.0491(11) 0.0594(12) 0.0015(9) 0.0171(9) 0.0302(10)
C13 0.0788(15) 0.0540(12) 0.0738(14) -0.0028(10) 0.0146(11) 0.0375(11)
loop_
_atom_type_symbol
_atom_type_description
_atom_type_scat_dispersion_real
_atom_type_scat_dispersion_imag
_atom_type_scat_source
C C 0.0033 0.0016 'International Tables Vol C Tables 4.2.6.8 and 6.1.1.4'
H H 0.0000 0.0000 'International Tables Vol C Tables 4.2.6.8 and 6.1.1.4'
N N 0.0061 0.0033 'International Tables Vol C Tables 4.2.6.8 and 6.1.1.4'
O O 0.0106 0.0060 'International Tables Vol C Tables 4.2.6.8 and 6.1.1.4'
loop_
_geom_angle_atom_site_label_1
_geom_angle_atom_site_label_2
_geom_angle_atom_site_label_3
_geom_angle
C11 N12 C8 105.25(15)
O16 C9 N10 125.58(17)
O16 C9 C8 131.39(17)
N10 C9 C8 103.01(15)
C11 N10 C9 108.57(15)
C11 N10 C13 127.87(17)
C9 N10 C13 123.55(17)
C6 C1 C2 118.77(16)
C6 C1 C7 121.79(16)
C2 C1 C7 119.43(15)
C8 C7 C1 130.98(17)
C3 C2 C1 118.34(17)
C3 C2 C15 119.03(17)
C1 C2 C15 122.63(16)
C7 C8 N12 129.16(17)
C7 C8 C9 122.04(16)
N12 C8 C9 108.78(15)
C6 C5 C4 119.97(18)
C5 C6 C1 121.24(17)
C3 C4 C5 119.53(18)
N12 C11 N10 114.37(16)
N12 C11 C14 123.56(18)
N10 C11 C14 122.06(17)
C4 C3 C2 122.15(18)
loop_
_geom_bond_atom_site_label_1
_geom_bond_atom_site_label_2
_geom_bond_distance
O16 C9 1.206(2)
N12 C11 1.306(2)
N12 C8 1.409(2)
C9 N10 1.385(2)
C9 C8 1.481(3)
N10 C11 1.367(3)
N10 C13 1.453(2)
C1 C6 1.401(2)
C1 C2 1.412(2)
C1 C7 1.451(2)
C7 C8 1.349(2)
C2 C3 1.385(3)
C2 C15 1.506(3)
C5 C6 1.372(3)
C5 C4 1.380(3)
C4 C3 1.376(3)
C11 C14 1.484(3)
loop_
_cod_related_entry_id
_cod_related_entry_database
_cod_related_entry_code
1 ChemSpider 30660105
