#------------------------------------------------------------------------------
#$Date: 2016-03-21 17:25:37 +0200 (Mon, 21 Mar 2016) $
#$Revision: 178782 $
#$URL: svn://www.crystallography.net/cod/cif/4/10/36/4103601.cif $
#------------------------------------------------------------------------------
#
# This file is available in the Crystallography Open Database (COD),
# http://www.crystallography.net/
#
# All data on this site have been placed in the public domain by the
# contributors.
#
data_4103601
loop_
_publ_author_name
'Michael G\"obel'
'Konstantin Karaghiosoff'
'Thomas M. Klap\"otke'
'Davin G. Piercey'
'J\"org Stierstorfer'
_publ_contact_author_address
;
Ludwig-Maximilian University,
Department of Chemistry,
Butenandtstrasse 5-13 (Haus D), 
D-81377 Munich
;
_publ_contact_author_name        'Thomas M. Klap\"otke'
_publ_section_title
;
 Nitrotetrazolate-2N-oxides and the Strategy of N-Oxide Introduction
;
_journal_name_full               'Journal of the American Chemical Society'
_journal_page_first              17216
_journal_page_last               17226
_journal_paper_doi               10.1021/ja106892a
_journal_volume                  132
_journal_year                    2010
_chemical_formula_moiety         'C1 H6 N3, C1 N5 O3'
_chemical_formula_sum            'C2 H6 N8 O3'
_chemical_formula_weight         190.15
_chemical_name_common            GNTX
_chemical_name_systematic
;
guanidinium 5-nitro-2H-tetrazol-2-olate
;
_space_group_IT_number           2
_symmetry_cell_setting           triclinic
_symmetry_space_group_name_Hall  '-P 1'
_symmetry_space_group_name_H-M   'P -1'
_atom_sites_solution_hydrogens   geom
_atom_sites_solution_primary     direct
_atom_sites_solution_secondary   difmap
_audit_creation_method           SHELXL-97
_audit_update_record
;
2010-07-06 # Formatted by publCIF
;
_cell_angle_alpha                79.360(10)
_cell_angle_beta                 89.576(10)
_cell_angle_gamma                85.918(11)
_cell_formula_units_Z            2
_cell_length_a                   6.0610(8)
_cell_length_b                   7.5528(9)
_cell_length_c                   8.2886(9)
_cell_measurement_reflns_used    2559
_cell_measurement_temperature    173(2)
_cell_measurement_theta_max      25.98
_cell_measurement_theta_min      4.19
_cell_volume                     371.96(8)
_computing_structure_refinement  'SHELXL-97 (Sheldrick, 1997)'
_diffrn_ambient_temperature      173(2)
_diffrn_measured_fraction_theta_full 0.990
_diffrn_measured_fraction_theta_max 0.990
_diffrn_measurement_device_type  'Oxford Diffraction Xcalibur3 CCD'
_diffrn_measurement_method       'omega scan'
_diffrn_radiation_monochromator  graphite
_diffrn_radiation_source         'fine-focus sealed tube'
_diffrn_radiation_type           MoK\a
_diffrn_radiation_wavelength     0.71073
_diffrn_reflns_av_R_equivalents  0.0500
_diffrn_reflns_av_sigmaI/netI    0.0918
_diffrn_reflns_limit_h_max       7
_diffrn_reflns_limit_h_min       -6
_diffrn_reflns_limit_k_max       9
_diffrn_reflns_limit_k_min       -9
_diffrn_reflns_limit_l_max       10
_diffrn_reflns_limit_l_min       -10
_diffrn_reflns_number            2559
_diffrn_reflns_theta_full        25.98
_diffrn_reflns_theta_max         25.98
_diffrn_reflns_theta_min         4.19
_exptl_absorpt_coefficient_mu    0.151
_exptl_absorpt_correction_type   none
_exptl_crystal_colour            colourless
_exptl_crystal_density_diffrn    1.698
_exptl_crystal_density_method    'not measured'
_exptl_crystal_description       platelet
_exptl_crystal_F_000             196
_exptl_crystal_size_max          0.25
_exptl_crystal_size_mid          0.18
_exptl_crystal_size_min          0.06
_refine_diff_density_max         0.559
_refine_diff_density_min         -0.386
_refine_diff_density_rms         0.122
_refine_ls_extinction_method     none
_refine_ls_goodness_of_fit_ref   0.906
_refine_ls_hydrogen_treatment    refall
_refine_ls_matrix_type           full
_refine_ls_number_parameters     142
_refine_ls_number_reflns         1450
_refine_ls_number_restraints     0
_refine_ls_restrained_S_all      0.906
_refine_ls_R_factor_all          0.1166
_refine_ls_R_factor_gt           0.0760
_refine_ls_shift/su_max          0.000
_refine_ls_shift/su_mean         0.000
_refine_ls_structure_factor_coef Fsqd
_refine_ls_weighting_details
'calc w=1/[\s^2^(Fo^2^)+(0.1413P)^2^+0.0000P] where P=(Fo^2^+2Fc^2^)/3'
_refine_ls_weighting_scheme      calc
_refine_ls_wR_factor_gt          0.1943
_refine_ls_wR_factor_ref         0.2089
_reflns_number_gt                826
_reflns_number_total             1450
_reflns_threshold_expression     >2\s(I)
_cod_data_source_file            ja106892a_si_006.cif
_cod_data_source_block           fx235
_cod_database_code               4103601
loop_
_symmetry_equiv_pos_as_xyz
'x, y, z'
'-x, -y, -z'
loop_
_atom_site_label
_atom_site_type_symbol
_atom_site_fract_x
_atom_site_fract_y
_atom_site_fract_z
_atom_site_U_iso_or_equiv
_atom_site_adp_type
_atom_site_occupancy
_atom_site_symmetry_multiplicity
_atom_site_calc_flag
C1 C 0.2472(7) 0.5214(5) 0.8321(5) 0.0234(9) Uani 1 1 d
C2 C 0.2535(7) 1.0315(5) 1.3132(5) 0.0253(10) Uani 1 1 d
N1 N 0.2531(5) 0.4405(4) 0.9884(4) 0.0230(8) Uani 1 1 d
N2 N 0.2469(5) 0.5863(4) 1.0591(4) 0.0227(8) Uani 1 1 d
N3 N 0.2393(6) 0.7435(5) 0.9530(4) 0.0275(9) Uani 1 1 d
N4 N 0.2402(6) 0.6992(4) 0.8027(4) 0.0275(9) Uani 1 1 d
N5 N 0.2524(6) 0.4138(5) 0.7047(4) 0.0274(9) Uani 1 1 d
N6 N 0.2303(7) 0.8700(5) 1.4028(5) 0.0325(10) Uani 1 1 d
N7 N 0.2676(6) 1.1733(5) 1.3856(5) 0.0307(9) Uani 1 1 d
N8 N 0.2657(7) 1.0506(6) 1.1519(4) 0.0307(10) Uani 1 1 d
O1 O 0.2499(5) 0.5742(4) 1.2158(3) 0.0313(8) Uani 1 1 d
O2 O 0.2485(6) 0.4930(4) 0.5620(4) 0.0449(10) Uani 1 1 d
O3 O 0.2580(5) 0.2498(4) 0.7475(4) 0.0365(9) Uani 1 1 d
H6A H 0.227(7) 0.774(7) 1.344(6) 0.034(13) Uiso 1 1 d
H6B H 0.232(8) 0.847(7) 1.512(7) 0.053(16) Uiso 1 1 d
H7A H 0.260(7) 1.156(6) 1.506(6) 0.040(13) Uiso 1 1 d
H7B H 0.264(9) 1.276(9) 1.328(7) 0.056(17) Uiso 1 1 d
H8A H 0.266(10) 1.142(9) 1.100(8) 0.057(19) Uiso 1 1 d
H8B H 0.245(7) 0.948(7) 1.095(6) 0.036(13) Uiso 1 1 d
loop_
_atom_site_aniso_label
_atom_site_aniso_U_11
_atom_site_aniso_U_22
_atom_site_aniso_U_33
_atom_site_aniso_U_23
_atom_site_aniso_U_13
_atom_site_aniso_U_12
C1 0.031(2) 0.020(2) 0.020(2) -0.0049(17) 0.0040(17) -0.0048(16)
C2 0.031(2) 0.022(2) 0.024(2) -0.0056(18) 0.0040(17) -0.0063(17)
N1 0.0307(19) 0.0232(19) 0.0166(16) -0.0059(14) 0.0054(13) -0.0068(14)
N2 0.034(2) 0.0187(17) 0.0162(17) -0.0057(14) 0.0037(14) -0.0038(14)
N3 0.040(2) 0.0231(19) 0.0205(18) -0.0057(15) 0.0008(15) -0.0042(15)
N4 0.042(2) 0.0228(19) 0.0188(18) -0.0051(14) 0.0053(15) -0.0059(15)
N5 0.038(2) 0.023(2) 0.0220(19) -0.0059(15) 0.0019(15) -0.0058(15)
N6 0.053(3) 0.024(2) 0.020(2) -0.0022(17) 0.0033(17) -0.0081(17)
N7 0.049(2) 0.022(2) 0.024(2) -0.0081(17) 0.0033(17) -0.0094(16)
N8 0.055(3) 0.020(2) 0.0188(19) -0.0051(17) 0.0034(17) -0.0061(18)
O1 0.0463(19) 0.0350(19) 0.0150(15) -0.0103(13) 0.0050(13) -0.0062(14)
O2 0.089(3) 0.0308(19) 0.0149(14) -0.0029(13) 0.0033(15) -0.0080(17)
O3 0.063(2) 0.0212(16) 0.0276(17) -0.0082(13) 0.0061(15) -0.0067(13)
loop_
_atom_type_symbol
_atom_type_description
_atom_type_scat_dispersion_real
_atom_type_scat_dispersion_imag
_atom_type_scat_source
C C 0.0033 0.0016 'International Tables Vol C Tables 4.2.6.8 and 6.1.1.4'
H H 0.0000 0.0000 'International Tables Vol C Tables 4.2.6.8 and 6.1.1.4'
N N 0.0061 0.0033 'International Tables Vol C Tables 4.2.6.8 and 6.1.1.4'
O O 0.0106 0.0060 'International Tables Vol C Tables 4.2.6.8 and 6.1.1.4'
loop_
_geom_angle_atom_site_label_1
_geom_angle_atom_site_label_2
_geom_angle_atom_site_label_3
_geom_angle
N4 C1 N1 116.7(4)
N4 C1 N5 123.6(4)
N1 C1 N5 119.7(3)
N8 C2 N6 119.7(4)
N8 C2 N7 120.2(4)
N6 C2 N7 120.1(4)
C1 N1 N2 99.3(3)
O1 N2 N1 122.2(3)
O1 N2 N3 123.5(3)
N1 N2 N3 114.3(3)
N2 N3 N4 105.5(3)
C1 N4 N3 104.3(3)
O3 N5 O2 124.6(4)
O3 N5 C1 117.5(3)
O2 N5 C1 117.9(3)
C2 N6 H6A 116(3)
C2 N6 H6B 124(4)
H6A N6 H6B 120(5)
C2 N7 H7A 119(3)
C2 N7 H7B 119(4)
H7A N7 H7B 121(5)
C2 N8 H8A 120(5)
C2 N8 H8B 121(3)
H8A N8 H8B 117(6)
loop_
_geom_bond_atom_site_label_1
_geom_bond_atom_site_label_2
_geom_bond_distance
C1 N4 1.317(5)
C1 N1 1.326(5)
C1 N5 1.445(6)
C2 N8 1.320(6)
C2 N6 1.322(5)
C2 N7 1.329(6)
N1 N2 1.337(5)
N2 O1 1.286(4)
N2 N3 1.338(5)
N3 N4 1.348(5)
N5 O3 1.223(4)
N5 O2 1.223(4)
N6 H6A 0.95(6)
N6 H6B 0.89(6)
N7 H7A 0.98(5)
N7 H7B 0.83(7)
N8 H8A 0.74(6)
N8 H8B 1.00(5)
loop_
_geom_torsion_atom_site_label_1
_geom_torsion_atom_site_label_2
_geom_torsion_atom_site_label_3
_geom_torsion_atom_site_label_4
_geom_torsion
N4 C1 N1 N2 0.6(5)
N5 C1 N1 N2 179.6(3)
C1 N1 N2 O1 -179.8(3)
C1 N1 N2 N3 -0.4(4)
O1 N2 N3 N4 179.5(3)
N1 N2 N3 N4 0.1(4)
N1 C1 N4 N3 -0.6(5)
N5 C1 N4 N3 -179.5(4)
N2 N3 N4 C1 0.3(4)
N4 C1 N5 O3 -179.7(4)
N1 C1 N5 O3 1.4(6)
N4 C1 N5 O2 -0.5(6)
N1 C1 N5 O2 -179.4(4)
