#------------------------------------------------------------------------------
#$Date: 2016-03-21 17:18:11 +0200 (Mon, 21 Mar 2016) $
#$Revision: 178777 $
#$URL: svn://www.crystallography.net/cod/cif/4/10/31/4103109.cif $
#------------------------------------------------------------------------------
#
# This file is available in the Crystallography Open Database (COD),
# http://www.crystallography.net/
#
# All data on this site have been placed in the public domain by the
# contributors.
#
data_4103109
loop_
_publ_author_name
'Balakrishna R. Bhogala'
'Burjor Captain'
'Anand Parthasarathy'
'V. Ramamurthy'
_publ_section_title
;
 Thiourea as a Template for Photodimerization of Azastilbenes
;
_journal_name_full               'Journal of the American Chemical Society'
_journal_page_first              13434
_journal_page_last               13442
_journal_paper_doi               10.1021/ja105166d
_journal_volume                  132
_journal_year                    2010
_chemical_formula_moiety         2(CH4N2S),C12H10N2
_chemical_formula_sum            'C14 H18 N6 S2'
_chemical_formula_weight         334.46
_chemical_name_systematic
; 
  Thiourea - trans-1-(2-Pyridyl)-2-(4-pyridyl)ethylene (2:1 co-crystal)
;
_space_group_IT_number           2
_symmetry_cell_setting           triclinic
_symmetry_space_group_name_Hall  '-P 1'
_symmetry_space_group_name_H-M   'P -1'
_atom_sites_solution_hydrogens   geom
_atom_sites_solution_primary     direct
_atom_sites_solution_secondary   difmap
_audit_creation_method           SHELXL-97
_cell_angle_alpha                91.245(1)
_cell_angle_beta                 98.067(1)
_cell_angle_gamma                95.441(1)
_cell_formula_units_Z            2
_cell_length_a                   8.4795(3)
_cell_length_b                   9.5571(3)
_cell_length_c                   10.6040(3)
_cell_measurement_reflns_used    6519
_cell_measurement_temperature    296(2)
_cell_measurement_theta_max      32.27
_cell_measurement_theta_min      2.84
_cell_volume                     846.47(5)
_computing_cell_refinement       'SAINT+  V7.46A (Bruker, 2007)'
_computing_data_collection       'APEX2 v2.2-0 (Bruker, 2007)'
_computing_data_reduction        'SAINT+  V7.46A (Bruker, 2007)'
_computing_molecular_graphics    'XSHELL v4.02 (Bruker, 2000)'
_computing_publication_material  'XCIF v6.12 (Bruker, 2001)'
_computing_structure_refinement  'SHELXL-97 (Sheldrick, 1997)'
_computing_structure_solution    'SHELXS-97 (Sheldrick, 1990)'
_diffrn_ambient_temperature      296(2)
_diffrn_measured_fraction_theta_full 1.000
_diffrn_measured_fraction_theta_max 1.000
_diffrn_measurement_device_type  'Bruker SMART APEX2 CCD diffractometer'
_diffrn_measurement_method       'omega scans'
_diffrn_radiation_monochromator  graphite
_diffrn_radiation_source         'fine-focus sealed tube'
_diffrn_radiation_type           MoK\a
_diffrn_radiation_wavelength     0.71073
_diffrn_reflns_av_R_equivalents  0.0207
_diffrn_reflns_av_sigmaI/netI    0.0207
_diffrn_reflns_limit_h_max       10
_diffrn_reflns_limit_h_min       -10
_diffrn_reflns_limit_k_max       11
_diffrn_reflns_limit_k_min       -11
_diffrn_reflns_limit_l_max       13
_diffrn_reflns_limit_l_min       -13
_diffrn_reflns_number            9151
_diffrn_reflns_theta_full        25.99
_diffrn_reflns_theta_max         25.99
_diffrn_reflns_theta_min         1.94
_exptl_absorpt_coefficient_mu    0.320
_exptl_absorpt_correction_T_max  0.9749
_exptl_absorpt_correction_T_min  0.9046
_exptl_absorpt_correction_type   multi-scan
_exptl_absorpt_process_details   '(SADABS 2007/4 Bruker)'
_exptl_crystal_colour            colorless
_exptl_crystal_density_diffrn    1.312
_exptl_crystal_density_method    'not measured'
_exptl_crystal_description       block
_exptl_crystal_F_000             352
_exptl_crystal_size_max          0.32
_exptl_crystal_size_mid          0.21
_exptl_crystal_size_min          0.08
_refine_diff_density_max         0.256
_refine_diff_density_min         -0.413
_refine_diff_density_rms         0.104
_refine_ls_extinction_method     none
_refine_ls_goodness_of_fit_ref   1.082
_refine_ls_hydrogen_treatment    constr
_refine_ls_matrix_type           full
_refine_ls_number_parameters     256
_refine_ls_number_reflns         3323
_refine_ls_number_restraints     33
_refine_ls_restrained_S_all      1.079
_refine_ls_R_factor_all          0.0437
_refine_ls_R_factor_gt           0.0407
_refine_ls_shift/su_max          0.001
_refine_ls_shift/su_mean         0.000
_refine_ls_structure_factor_coef Fsqd
_refine_ls_weighting_details
'calc w=1/[\s^2^(Fo^2^)+(0.0632P)^2^+0.1304P] where P=(Fo^2^+2Fc^2^)/3'
_refine_ls_weighting_scheme      calc
_refine_ls_wR_factor_gt          0.1028
_refine_ls_wR_factor_ref         0.1072
_reflns_number_gt                3020
_reflns_number_total             3323
_reflns_threshold_expression     >2sigma(I)
_cod_data_source_file            ja105166d_si_013.cif
_cod_data_source_block           a
_cod_database_code               4103109
loop_
_symmetry_equiv_pos_as_xyz
'x, y, z'
'-x, -y, -z'
loop_
_atom_site_label
_atom_site_type_symbol
_atom_site_fract_x
_atom_site_fract_y
_atom_site_fract_z
_atom_site_U_iso_or_equiv
_atom_site_adp_type
_atom_site_occupancy
_atom_site_symmetry_multiplicity
_atom_site_calc_flag
_atom_site_refinement_flags
_atom_site_disorder_assembly
_atom_site_disorder_group
S1 S 0.14917(4) 0.39858(5) 0.29101(4) 0.05663(15) Uani 1 1 d . A 1
C2 C 0.12097(17) 0.35751(15) 0.13229(14) 0.0489(3) Uani 1 1 d . A 1
N3 N -0.02317(16) 0.32822(16) 0.06652(14) 0.0671(4) Uani 1 1 d . A 1
H3A H -0.0335 0.3068 -0.0136 0.081 Uiso 1 1 calc R A 1
H3B H -0.1067 0.3306 0.1038 0.081 Uiso 1 1 calc R A 1
N4 N 0.24475(16) 0.35201(18) 0.06925(13) 0.0701(4) Uani 1 1 d . A 1
H4A H 0.2292 0.3301 -0.0109 0.084 Uiso 1 1 calc R A 1
H4B H 0.3406 0.3704 0.1085 0.084 Uiso 1 1 calc R A 1
S5 S 0.64020(4) 0.40207(5) 0.19261(3) 0.05849(15) Uani 1 1 d . B 1
C6 C 0.65942(17) 0.37131(14) 0.35093(13) 0.0470(3) Uani 1 1 d . B 1
N7 N 0.80260(15) 0.36914(15) 0.41971(12) 0.0603(3) Uani 1 1 d . B 1
H7A H 0.8103 0.3526 0.4996 0.072 Uiso 1 1 calc R B 1
H7B H 0.8876 0.3843 0.3843 0.072 Uiso 1 1 calc R B 1
N8 N 0.53343(16) 0.34723(17) 0.41081(13) 0.0662(4) Uani 1 1 d . B 1
H8A H 0.5463 0.3311 0.4909 0.079 Uiso 1 1 calc R B 1
H8B H 0.4386 0.3477 0.3697 0.079 Uiso 1 1 calc R B 1
N9A N 0.0731(5) 1.2081(4) 0.8147(3) 0.0681(8) Uani 0.842(4) 1 d PD C 1
C10A C 0.0909(4) 1.2663(2) 0.7038(3) 0.0628(6) Uani 0.842(4) 1 d PD C 1
H10A H 0.0602 1.3563 0.6906 0.075 Uiso 0.842(4) 1 calc PR C 1
C11A C 0.1527(3) 1.1995(3) 0.6070(2) 0.0585(6) Uani 0.842(4) 1 d PD C 1
H11A H 0.1626 1.2447 0.5314 0.070 Uiso 0.842(4) 1 calc PR C 1
C12A C 0.1998(3) 1.0646(3) 0.62317(19) 0.0518(5) Uani 0.842(4) 1 d PD C 1
C13A C 0.1803(4) 1.0046(3) 0.7374(3) 0.0676(8) Uani 0.842(4) 1 d PD C 1
H13A H 0.2087 0.9143 0.7532 0.081 Uiso 0.842(4) 1 calc PR C 1
C14A C 0.1182(6) 1.0793(4) 0.8284(3) 0.0745(11) Uani 0.842(4) 1 d PD C 1
H14A H 0.1072 1.0364 0.9050 0.089 Uiso 0.842(4) 1 calc PR C 1
C15A C 0.2667(2) 0.98641(19) 0.52620(19) 0.0564(5) Uani 0.842(4) 1 d PD C 1
H15A H 0.3170 0.9077 0.5531 0.068 Uiso 0.842(4) 1 calc PR C 1
C16A C 0.2634(2) 1.01538(19) 0.40582(19) 0.0562(5) Uani 0.842(4) 1 d PD C 1
H16A H 0.2203 1.0973 0.3786 0.067 Uiso 0.842(4) 1 calc PR C 1
C17A C 0.3226(4) 0.9281(3) 0.3109(3) 0.0513(7) Uani 0.842(4) 1 d PD C 1
N18A N 0.3689(5) 0.8024(3) 0.3440(2) 0.0580(8) Uani 0.842(4) 1 d PD C 1
C19A C 0.4202(4) 0.7224(3) 0.2543(3) 0.0645(6) Uani 0.842(4) 1 d PD C 1
H19A H 0.4551 0.6360 0.2773 0.077 Uiso 0.842(4) 1 calc PR C 1
C20A C 0.4235(3) 0.7622(4) 0.1310(2) 0.0702(7) Uani 0.842(4) 1 d PD C 1
H20A H 0.4590 0.7037 0.0720 0.084 Uiso 0.842(4) 1 calc PR C 1
C21A C 0.3739(3) 0.8886(4) 0.0972(2) 0.0761(8) Uani 0.842(4) 1 d PD C 1
H21A H 0.3736 0.9175 0.0140 0.091 Uiso 0.842(4) 1 calc PR C 1
C22A C 0.3236(3) 0.9743(3) 0.1875(3) 0.0728(7) Uani 0.842(4) 1 d PD C 1
H22A H 0.2908 1.0619 0.1658 0.087 Uiso 0.842(4) 1 calc PR C 1
N9B N 0.059(3) 1.1802(17) 0.8345(17) 0.063(5) Uiso 0.158(4) 1 d PD C 2
C10B C 0.078(3) 1.2718(16) 0.7441(17) 0.074(6) Uiso 0.158(4) 1 d PD C 2
H10B H 0.0551 1.3635 0.7595 0.089 Uiso 0.158(4) 1 calc PR C 2
C11B C 0.1274(17) 1.2421(13) 0.6304(13) 0.056(4) Uiso 0.158(4) 1 d PD C 2
H11B H 0.1306 1.3098 0.5688 0.067 Uiso 0.158(4) 1 calc PR C 2
C12B C 0.1734(13) 1.1089(13) 0.6080(8) 0.038(3) Uiso 0.158(4) 1 d PD C 2
C13B C 0.155(2) 1.0131(13) 0.7010(12) 0.059(5) Uiso 0.158(4) 1 d PD C 2
H13B H 0.1813 0.9217 0.6901 0.071 Uiso 0.158(4) 1 calc PR C 2
C14B C 0.098(3) 1.0529(16) 0.8108(14) 0.054(5) Uiso 0.158(4) 1 d PD C 2
H14B H 0.0864 0.9857 0.8718 0.065 Uiso 0.158(4) 1 calc PR C 2
C15B C 0.2207(10) 1.0684(8) 0.4858(7) 0.044(2) Uiso 0.158(4) 1 d PD C 2
H15B H 0.1968 1.1271 0.4184 0.053 Uiso 0.158(4) 1 calc PR C 2
C16B C 0.2931(11) 0.9580(9) 0.4619(9) 0.046(2) Uiso 0.158(4) 1 d PD C 2
H16B H 0.3184 0.9008 0.5302 0.056 Uiso 0.158(4) 1 calc PR C 2
C17B C 0.339(3) 0.9137(18) 0.3396(11) 0.059(6) Uiso 0.158(4) 1 d PD C 2
N18B N 0.386(2) 0.7843(15) 0.3287(13) 0.043(4) Uiso 0.158(4) 1 d PD C 2
C19B C 0.414(2) 0.7425(13) 0.2122(14) 0.065(5) Uiso 0.158(4) 1 d PD C 2
H19B H 0.4337 0.6493 0.2003 0.078 Uiso 0.158(4) 1 calc PR C 2
C20B C 0.4164(19) 0.8279(15) 0.1107(13) 0.059(4) Uiso 0.158(4) 1 d PD C 2
H20B H 0.4475 0.7966 0.0352 0.071 Uiso 0.158(4) 1 calc PR C 2
C21B C 0.3722(18) 0.9587(14) 0.1228(12) 0.064(4) Uiso 0.158(4) 1 d PD C 2
H21B H 0.3666 1.0177 0.0541 0.076 Uiso 0.158(4) 1 calc PR C 2
C22B C 0.335(2) 1.0039(14) 0.2386(14) 0.071(5) Uiso 0.158(4) 1 d PD C 2
H22B H 0.3079 1.0949 0.2490 0.086 Uiso 0.158(4) 1 calc PR C 2
loop_
_atom_site_aniso_label
_atom_site_aniso_U_11
_atom_site_aniso_U_22
_atom_site_aniso_U_33
_atom_site_aniso_U_23
_atom_site_aniso_U_13
_atom_site_aniso_U_12
S1 0.0440(2) 0.0810(3) 0.0472(2) 0.00077(18) 0.00955(15) 0.01368(18)
C2 0.0444(7) 0.0523(7) 0.0514(8) 0.0014(6) 0.0085(6) 0.0100(6)
N3 0.0449(7) 0.0998(11) 0.0560(8) -0.0095(7) 0.0060(6) 0.0081(7)
N4 0.0468(7) 0.1128(12) 0.0513(8) -0.0144(7) 0.0098(6) 0.0107(7)
S5 0.0443(2) 0.0924(3) 0.0407(2) 0.00143(18) 0.00809(15) 0.01362(19)
C6 0.0459(7) 0.0510(7) 0.0455(7) -0.0010(6) 0.0082(6) 0.0106(6)
N7 0.0473(7) 0.0869(9) 0.0464(7) 0.0080(6) 0.0039(5) 0.0088(6)
N8 0.0502(7) 0.1038(11) 0.0496(7) 0.0160(7) 0.0147(6) 0.0188(7)
N9A 0.0790(18) 0.0726(17) 0.0546(15) -0.0095(14) 0.0127(12) 0.0154(16)
C10A 0.0680(15) 0.0582(13) 0.0620(18) -0.0021(10) 0.0043(14) 0.0143(9)
C11A 0.0663(13) 0.0575(14) 0.0518(11) 0.0022(10) 0.0092(9) 0.0064(11)
C12A 0.0534(11) 0.0498(12) 0.0514(11) -0.0029(9) 0.0053(8) 0.0048(10)
C13A 0.092(2) 0.0614(14) 0.0527(14) 0.0043(10) 0.0122(15) 0.0206(11)
C14A 0.101(3) 0.080(2) 0.0462(13) 0.0027(14) 0.0150(16) 0.021(2)
C15A 0.0628(12) 0.0516(10) 0.0564(11) 0.0011(8) 0.0110(9) 0.0109(8)
C16A 0.0608(11) 0.0513(10) 0.0565(11) 0.0007(8) 0.0071(8) 0.0084(8)
C17A 0.0521(13) 0.0527(13) 0.0480(12) 0.0004(11) 0.0077(12) -0.0004(8)
N18A 0.0726(17) 0.0601(15) 0.0437(11) -0.0025(9) 0.0150(9) 0.0100(10)
C19A 0.0811(16) 0.0624(13) 0.0523(15) -0.0064(12) 0.0164(13) 0.0112(10)
C20A 0.0759(15) 0.089(2) 0.0469(13) -0.0104(12) 0.0180(10) 0.0009(13)
C21A 0.0838(18) 0.102(3) 0.0434(11) 0.0109(14) 0.0153(11) 0.0037(18)
C22A 0.0831(17) 0.0767(15) 0.0599(16) 0.0182(13) 0.0115(14) 0.0094(12)
loop_
_atom_type_symbol
_atom_type_description
_atom_type_scat_dispersion_real
_atom_type_scat_dispersion_imag
_atom_type_scat_source
C C 0.0033 0.0016 'International Tables Vol C Tables 4.2.6.8 and 6.1.1.4'
H H 0.0000 0.0000 'International Tables Vol C Tables 4.2.6.8 and 6.1.1.4'
N N 0.0061 0.0033 'International Tables Vol C Tables 4.2.6.8 and 6.1.1.4'
S S 0.1246 0.1234 'International Tables Vol C Tables 4.2.6.8 and 6.1.1.4'
loop_
_geom_angle_atom_site_label_1
_geom_angle_atom_site_label_2
_geom_angle_atom_site_label_3
_geom_angle
N3 C2 N4 117.06(14)
N3 C2 S1 122.21(12)
N4 C2 S1 120.73(11)
C2 N3 H3A 120.0
C2 N3 H3B 120.0
H3A N3 H3B 120.0
C2 N4 H4A 120.0
C2 N4 H4B 120.0
H4A N4 H4B 120.0
N8 C6 N7 117.10(13)
N8 C6 S5 121.79(11)
N7 C6 S5 121.10(11)
C6 N7 H7A 120.0
C6 N7 H7B 120.0
H7A N7 H7B 120.0
C6 N8 H8A 120.0
C6 N8 H8B 120.0
H8A N8 H8B 120.0
C14A N9A C10A 115.9(2)
N9A C10A C11A 123.4(2)
N9A C10A H10A 118.3
C11A C10A H10A 118.3
C10A C11A C12A 119.97(19)
C10A C11A H11A 120.0
C12A C11A H11A 120.0
C13A C12A C11A 116.46(19)
C13A C12A C15A 119.9(2)
C11A C12A C15A 123.6(2)
C12A C13A C14A 119.5(2)
C12A C13A H13A 120.2
C14A C13A H13A 120.2
N9A C14A C13A 124.8(3)
N9A C14A H14A 117.6
C13A C14A H14A 117.6
C16A C15A C12A 127.0(2)
C16A C15A H15A 116.5
C12A C15A H15A 116.5
C15A C16A C17A 124.7(2)
C15A C16A H16A 117.6
C17A C16A H16A 117.6
N18A C17A C22A 121.4(2)
N18A C17A C16A 118.8(3)
C22A C17A C16A 119.8(3)
C17A N18A C19A 117.9(3)
N18A C19A C20A 123.4(3)
N18A C19A H19A 118.3
C20A C19A H19A 118.3
C21A C20A C19A 118.6(2)
C21A C20A H20A 120.7
C19A C20A H20A 120.7
C20A C21A C22A 119.5(2)
C20A C21A H21A 120.3
C22A C21A H21A 120.3
C21A C22A C17A 119.3(2)
C21A C22A H22A 120.4
C17A C22A H22A 120.4
C14B N9B C10B 115.3(11)
N9B C10B C11B 125.2(11)
N9B C10B H10B 117.4
C11B C10B H10B 117.4
C10B C11B C12B 118.9(10)
C10B C11B H11B 120.5
C12B C11B H11B 120.5
C13B C12B C11B 116.4(8)
C13B C12B C15B 121.7(10)
C11B C12B C15B 121.5(9)
C12B C13B C14B 119.8(9)
C12B C13B H13B 120.1
C14B C13B H13B 120.1
N9B C14B C13B 124.2(11)
N9B C14B H14B 117.9
C13B C14B H14B 117.9
C16B C15B C12B 126.5(8)
C16B C15B H15B 116.7
C12B C15B H15B 116.7
C15B C16B C17B 127.6(9)
C15B C16B H16B 116.2
C17B C16B H16B 116.2
N18B C17B C22B 121.0(8)
N18B C17B C16B 118.2(11)
C22B C17B C16B 120.8(10)
C17B N18B C19B 116.7(9)
N18B C19B C20B 124.4(10)
N18B C19B H19B 117.8
C20B C19B H19B 117.8
C21B C20B C19B 118.3(10)
C21B C20B H20B 120.8
C19B C20B H20B 120.8
C20B C21B C22B 119.1(10)
C20B C21B H21B 120.5
C22B C21B H21B 120.5
C21B C22B C17B 120.1(9)
C21B C22B H22B 119.9
C17B C22B H22B 119.9
loop_
_geom_bond_atom_site_label_1
_geom_bond_atom_site_label_2
_geom_bond_distance
S1 C2 1.6984(15)
C2 N3 1.3213(19)
C2 N4 1.3256(19)
N3 H3A 0.8600
N3 H3B 0.8600
N4 H4A 0.8600
N4 H4B 0.8600
S5 C6 1.6986(15)
C6 N8 1.322(2)
C6 N7 1.3279(19)
N7 H7A 0.8600
N7 H7B 0.8600
N8 H8A 0.8600
N8 H8B 0.8600
N9A C14A 1.328(4)
N9A C10A 1.334(4)
C10A C11A 1.386(4)
C10A H10A 0.9300
C11A C12A 1.393(3)
C11A H11A 0.9300
C12A C13A 1.376(3)
C12A C15A 1.466(3)
C13A C14A 1.379(3)
C13A H13A 0.9300
C14A H14A 0.9300
C15A C16A 1.309(3)
C15A H15A 0.9300
C16A C17A 1.465(3)
C16A H16A 0.9300
C17A N18A 1.338(3)
C17A C22A 1.391(4)
N18A C19A 1.351(3)
C19A C20A 1.373(4)
C19A H19A 0.9300
C20A C21A 1.356(4)
C20A H20A 0.9300
C21A C22A 1.384(4)
C21A H21A 0.9300
C22A H22A 0.9300
N9B C14B 1.320(9)
N9B C10B 1.328(9)
C10B C11B 1.366(9)
C10B H10B 0.9300
C11B C12B 1.392(9)
C11B H11B 0.9300
C12B C13B 1.375(9)
C12B C15B 1.464(8)
C13B C14B 1.382(9)
C13B H13B 0.9300
C14B H14B 0.9300
C15B C16B 1.308(8)
C15B H15B 0.9300
C16B C17B 1.471(8)
C16B H16B 0.9300
C17B N18B 1.340(8)
C17B C22B 1.388(9)
N18B C19B 1.351(9)
C19B C20B 1.366(10)
C19B H19B 0.9300
C20B C21B 1.347(10)
C20B H20B 0.9300
C21B C22B 1.378(10)
C21B H21B 0.9300
C22B H22B 0.9300
