#------------------------------------------------------------------------------
#$Date: 2016-03-21 17:41:47 +0200 (Mon, 21 Mar 2016) $
#$Revision: 178790 $
#$URL: svn://www.crystallography.net/cod/cif/4/10/44/4104406.cif $
#------------------------------------------------------------------------------
#
# This file is available in the Crystallography Open Database (COD),
# http://www.crystallography.net/
#
# All data on this site have been placed in the public domain by the
# contributors.
#
data_4104406
loop_
_publ_author_name
'Yoshinori Okano'
'Biao Zhou'
'Hishashi Tanaka'
'Takafumi Adachi'
'Yasuo Ohishi'
'Masaki Takata'
'Shinobu Aoyagi'
'Eiji Nishibori'
'Makoto Sakata'
'Akiko Kobayashi'
'Hayao Kobayashi'
_publ_contact_author_address
;Department of Chemistry
College of Humanities and Sciences
Nihon University
Sakurajosui 3-25-40 Setagaya-Ku
Tokyo 156-8550, JAPAN
;
_publ_contact_author_email       akoba@chs.nihon-u.ac.jp
_publ_contact_author_fax         +81-3-5317-9433
_publ_contact_author_name        'Akiko Kobayashi '
_publ_contact_author_phone       +81-3-5317-9680
_publ_section_title
;
 High-Pressure (up to 10.7 GPa) Crystal Structure of Single-Component
 Molecular Metal [Au(tmdt)2]
;
_journal_name_full               'Journal of the American Chemical Society'
_journal_page_first              7169
_journal_page_last               7174
_journal_paper_doi               10.1021/ja9010018
_journal_volume                  131
_journal_year                    2009
_chemical_formula_moiety         'C18 H12 Au S12'
_chemical_formula_sum            'C18 H12 Au S12'
_chemical_formula_weight         810.09
_chemical_name_systematic        Au(tmdt)2
_space_group_crystal_system      triclinic
_space_group_IT_number           2
_space_group_name_Hall           '-P 1'
_space_group_name_H-M_alt        'P -1'
_symmetry_cell_setting           triclinic
_symmetry_Int_Tables_number      2
_symmetry_space_group_name_Hall  '-P 1'
_symmetry_space_group_name_H-M   'P -1'
_audit_creation_date             2006-07-19
_cell_angle_alpha                89.596(8)
_cell_angle_beta                 96.355(9)
_cell_angle_gamma                102.898(14)
_cell_formula_units_Z            1
_cell_length_a                   6.2925(7)
_cell_length_b                   7.3513(6)
_cell_length_c                   12.0494(11)
_cell_measurement_temperature    300
_cell_volume                     539.89(9)
_computing_cell_refinement       'Synchrotron Powder(Eiji Nishibori,2007)'
_computing_data_reduction        'Synchrotron Powder'
_computing_structure_refinement  'Synchrotron Powder'
_diffrn_ambient_pressure         780000
_diffrn_ambient_temperature      300
_diffrn_detector                 'Imaging Plate'
_diffrn_radiation_monochromator  Si(111)
_diffrn_radiation_type           synchrotron
_diffrn_radiation_wavelength     0.49559
_diffrn_source                   synchrotron
_diffrn_source_type              'SPring-8 BL10XU'
_exptl_absorpt_coefficient_mu    2.971
_exptl_crystal_colour            Black
_exptl_crystal_density_diffrn    2.492
_exptl_crystal_density_method    'not measured'
_exptl_crystal_F_000             391
_pd_instr_location
;
;
_pd_meas_2theta_range_max        18.8998
_pd_meas_2theta_range_min        0.0131
_pd_meas_number_of_points        1530
_pd_meas_scan_method             step
_pd_proc_2theta_range_max        18.900
_pd_proc_2theta_range_min        2.000
_pd_proc_ls_pref_orient_corr     ' ?'
_pd_proc_ls_profile_function     split-Peason7
_pd_proc_ls_prof_R_factor        0.010
_pd_proc_ls_prof_wR_factor       0.018
_pd_proc_wavelength              0.49559
_pd_spec_mounting                ' capillary '
_pd_spec_mount_mode              transmission
_pd_spec_shape                   cylinder
_refine_ls_extinction_method     none
_refine_ls_hydrogen_treatment    noref
_refine_ls_number_parameters     65
_refine_ls_number_restraints     0
_refine_ls_R_I_factor            0.042
_refine_ls_structure_factor_coef Inet
_cod_data_source_file            ja9010018_si_002.cif
_cod_data_source_block           Au(tmdt)2_0.78GPa
_cod_database_code               4104406
loop_
_symmetry_equiv_pos_site_id
_symmetry_equiv_pos_as_xyz
1 x,y,z
2 -x,-y,-z
loop_
_atom_site_aniso_label
_atom_site_aniso_U_11
_atom_site_aniso_U_22
_atom_site_aniso_U_33
_atom_site_aniso_U_23
_atom_site_aniso_U_13
_atom_site_aniso_U_12
Au31 0.012(8) 0.0057(67) 0.006(5) 0.000(6) 0.000(6) 0.001(8)
S2 0.031(26) 0.020(31) 0.019(20) 0.000(23) 0.002(20) 0.005(25)
S3 0.031(26) 0.020(31) 0.019(20) 0.000(23) 0.002(20) 0.005(25)
S6 0.031(26) 0.020(31) 0.019(20) 0.000(23) 0.002(20) 0.005(25)
S7 0.031(26) 0.020(31) 0.019(20) 0.000(23) 0.002(20) 0.005(25)
S10 0.031(26) 0.020(31) 0.019(20) 0.000(23) 0.002(20) 0.005(25)
S11 0.031(26) 0.020(31) 0.019(20) 0.000(23) 0.002(20) 0.005(25)
C4 0.031(26) 0.020(31) 0.019(20) 0.000(23) 0.002(20) 0.005(25)
C5 0.031(26) 0.020(31) 0.019(20) 0.000(23) 0.002(20) 0.005(25)
C8 0.031(26) 0.020(31) 0.019(20) 0.000(23) 0.002(20) 0.005(25)
C9 0.031(26) 0.020(31) 0.019(20) 0.000(23) 0.002(20) 0.005(25)
C12 0.031(26) 0.020(31) 0.019(20) 0.000(23) 0.002(20) 0.005(25)
C13 0.031(26) 0.020(31) 0.019(20) 0.000(23) 0.002(20) 0.005(25)
C14 0.031(26) 0.020(31) 0.019(20) 0.000(23) 0.002(20) 0.005(25)
C15 0.031(26) 0.020(31) 0.019(20) 0.000(23) 0.002(20) 0.005(25)
C20 0.031(26) 0.020(31) 0.019(20) 0.000(23) 0.002(20) 0.005(25)
H16 0.031(26) 0.020(31) 0.019(20) 0.000(23) 0.002(20) 0.005(25)
H17 0.031(26) 0.020(31) 0.019(20) 0.000(23) 0.002(20) 0.005(25)
H18 0.031(26) 0.020(31) 0.019(20) 0.000(23) 0.002(20) 0.005(25)
H19 0.031(26) 0.020(31) 0.019(20) 0.000(23) 0.002(20) 0.005(25)
H21 0.031(26) 0.020(31) 0.019(20) 0.000(23) 0.002(20) 0.005(25)
H22 0.031(26) 0.020(31) 0.019(20) 0.000(23) 0.002(20) 0.005(25)
loop_
_atom_site_label
_atom_site_type_symbol
_atom_site_thermal_displace_type
_atom_site_fract_x
_atom_site_fract_y
_atom_site_fract_z
_atom_site_occupancy
_atom_site_U_iso_or_equiv
_atom_site_calc_flag
_atom_site_refinement_flags
Au31 Au Uani 1.00000 1.00000 1.00000 1.000 0.008(4) d G
S2 S Uani 0.6442(7) 0.932(3) 0.9088(6) 1.000 0.023(16) d G
S3 S Uani 1.1388(7) 0.940(2) 0.8360(5) 1.000 0.023(16) d G
S6 S Uani 0.4712(11) 0.814(3) 0.6696(7) 1.000 0.023(16) d G
S7 S Uani 0.9120(14) 0.821(3) 0.6047(6) 1.000 0.023(16) d G
S10 S Uani 0.2588(17) 0.689(3) 0.4199(8) 1.000 0.023(16) d G
S11 S Uani 0.7000(16) 0.696(3) 0.3550(7) 1.000 0.023(16) d G
C4 C Uani 0.7041(8) 0.883(4) 0.7851(6) 1.000 0.023(16) d G
C5 C Uani 0.9055(10) 0.886(4) 0.7555(7) 1.000 0.023(16) d G
C8 C Uani 0.6269(13) 0.779(5) 0.5611(8) 1.000 0.023(16) d G
C9 C Uani 0.5367(15) 0.726(5) 0.4549(8) 1.000 0.023(16) d G
C12 C Uani 0.2725(19) 0.628(6) 0.2774(9) 1.000 0.023(16) d G
C13 C Uani 0.4739(20) 0.631(5) 0.2478(9) 1.000 0.023(16) d G
C14 C Uani 0.0875(23) 0.569(5) 0.1767(10) 1.000 0.023(16) d G
C15 C Uani 0.4657(24) 0.575(6) 0.1211(9) 1.000 0.023(16) d G
C20 C Uani 0.2263(26) 0.543(7) 0.0898(10) 1.000 0.023(16) d G
H16 H Uani -0.0096(23) 0.674(5) 0.1584(10) 1.000 0.023(16) d G
H17 H Uani -0.0375(23) 0.447(5) 0.1938(10) 1.000 0.023(16) d G
H18 H Uani 0.5650(24) 0.683(6) 0.0739(9) 1.000 0.023(16) d G
H19 H Uani 0.5372(24) 0.455(6) 0.1092(9) 1.000 0.023(16) d G
H21 H Uani 0.1993(26) 0.638(7) 0.0221(10) 1.000 0.023(16) d G
H22 H Uani 0.1700(26) 0.398(7) 0.0593(10) 1.000 0.023(16) d G
loop_
_atom_type_symbol
_atom_type_description
_atom_type_scat_dispersion_real
_atom_type_scat_dispersion_imag
_atom_type_scat_source
C C 0.001 0.001 'International Tables Vol C Tables 4.2.6.8 and 6.1.1.4'
Au Au -0.537 4.955 'International Tables Vol C Tables 4.2.6.8 and 6.1.1.4'
S S 0.066 0.060 'International Tables Vol C Tables 4.2.6.8 and 6.1.1.4'
H H 0.000 0.000 'International Tables Vol C Tables 4.2.6.8 and 6.1.1.4'
loop_
_geom_angle_atom_site_label_1
_geom_angle_atom_site_label_2
_geom_angle_atom_site_label_3
_geom_angle
S2 Au31 S3 90.63
Au31 S2 C4 97.83
Au31 S3 C5 97.89
C4 S6 C8 98.37
C5 S7 C8 98.38
C9 S10 C12 93.77
C9 S11 C13 93.77
S2 C4 S6 118.03
S2 C4 C5 126.84
S6 C4 C5 115.14
S3 C5 S7 118.08
S3 C5 C4 126.82
S7 C5 C4 115.11
S6 C8 S7 113.01
S6 C8 C9 123.49
S7 C8 C9 123.50
S10 C9 S11 119.28
S10 C9 C8 120.37
S11 C9 C8 120.35
S10 C12 C13 116.58
S10 C12 C14 131.46
C13 C12 C14 111.96
S11 C13 C12 116.60
S11 C13 C15 131.28
C12 C13 C15 112.12
C12 C14 C20 99.11
C13 C15 C20 98.71
C14 C20 C15 118.10
C12 C14 H16 113.00
C12 C14 H17 113.00
C20 C14 H16 115.00
C20 C14 H17 116.00
H16 C14 H17 101.00
C13 C15 H18 113.00
C13 C15 H19 113.00
C20 C15 H18 115.00
C20 C15 H19 115.00
H18 C15 H19 102.00
C14 C20 H21 108.00
C14 C20 H22 107.00
C15 C20 H21 107.00
C15 C20 H22 107.00
H21 C20 H22 110.00
loop_
_geom_bond_atom_site_label_1
_geom_bond_atom_site_label_2
_geom_bond_distance
Au31 S2 2.3310
Au31 S3 2.3300
S2 C4 1.6389
S3 C5 1.6382
S6 C4 1.8890
S6 C8 1.7709
S7 C5 1.8892
S7 C8 1.7709
S10 C9 1.7134
S10 C12 1.7938
S11 C9 1.7124
S11 C13 1.7938
C4 C5 1.3495
C8 C9 1.3634
C12 C13 1.3501
C12 C14 1.5745
C13 C15 1.5765
C14 C20 1.4715
C15 C20 1.4815
C14 H16 1.1000
C14 H17 1.0900
C15 H18 1.0900
C15 H19 1.0900
C20 H21 1.0900
C20 H22 1.1000
