#------------------------------------------------------------------------------
#$Date: 2016-03-21 17:41:47 +0200 (Mon, 21 Mar 2016) $
#$Revision: 178790 $
#$URL: svn://www.crystallography.net/cod/cif/4/10/44/4104409.cif $
#------------------------------------------------------------------------------
#
# This file is available in the Crystallography Open Database (COD),
# http://www.crystallography.net/
#
# All data on this site have been placed in the public domain by the
# contributors.
#
data_4104409
loop_
_publ_author_name
'Yoshinori Okano'
'Biao Zhou'
'Hishashi Tanaka'
'Takafumi Adachi'
'Yasuo Ohishi'
'Masaki Takata'
'Shinobu Aoyagi'
'Eiji Nishibori'
'Makoto Sakata'
'Akiko Kobayashi'
'Hayao Kobayashi'
_publ_contact_author_address
;Department of Chemistry
College of Humanities and Sciences
Nihon University
Sakurajosui 3-25-40 Setagaya-Ku
Tokyo 156-8550, JAPAN
;
_publ_contact_author_email       akoba@chs.nihon-u.ac.jp
_publ_contact_author_fax         +81-3-5317-9433
_publ_contact_author_name        'Akiko Kobayashi '
_publ_contact_author_phone       +81-3-5317-9680
_publ_section_title
;
 High-Pressure (up to 10.7 GPa) Crystal Structure of Single-Component
 Molecular Metal [Au(tmdt)2]
;
_journal_name_full               'Journal of the American Chemical Society'
_journal_page_first              7169
_journal_page_last               7174
_journal_paper_doi               10.1021/ja9010018
_journal_volume                  131
_journal_year                    2009
_chemical_formula_moiety         'C18 H12 Au S12'
_chemical_formula_sum            'C18 H12 Au S12'
_chemical_formula_weight         810.09
_chemical_name_systematic        Au(tmdt)2
_space_group_crystal_system      triclinic
_space_group_IT_number           2
_space_group_name_Hall           '-P 1'
_space_group_name_H-M_alt        'P -1'
_symmetry_cell_setting           triclinic
_symmetry_Int_Tables_number      2
_symmetry_space_group_name_Hall  '-P 1'
_symmetry_space_group_name_H-M   'P -1'
_audit_creation_date             2006-07-19
_cell_angle_alpha                87.400(10)
_cell_angle_beta                 94.883(9)
_cell_angle_gamma                102.49(2)
_cell_formula_units_Z            1
_cell_length_a                   5.9126(6)
_cell_length_b                   6.8074(6)
_cell_length_c                   11.7174(8)
_cell_measurement_temperature    300
_cell_volume                     458.61(8)
_computing_cell_refinement       'Synchrotron Powder(Eiji Nishibori,2007)'
_computing_data_reduction        'Synchrotron Powder'
_computing_structure_refinement  'Synchrotron Powder'
_diffrn_ambient_pressure         5500000
_diffrn_ambient_temperature      300
_diffrn_detector                 'Imaging Plate'
_diffrn_radiation_monochromator  Si(111)
_diffrn_radiation_type           synchrotron
_diffrn_radiation_wavelength     0.49559
_diffrn_source                   synchrotron
_diffrn_source_type              'SPring-8 BL10XU'
_exptl_absorpt_coefficient_mu    3.497
_exptl_crystal_colour            Black
_exptl_crystal_density_diffrn    2.933
_exptl_crystal_density_method    'not measured'
_exptl_crystal_F_000             391
_pd_instr_location
;
;
_pd_meas_2theta_range_max        18.9098
_pd_meas_2theta_range_min        0.0231
_pd_meas_number_of_points        1530
_pd_meas_scan_method             step
_pd_proc_2theta_range_max        18.900
_pd_proc_2theta_range_min        2.000
_pd_proc_ls_pref_orient_corr     ' ?'
_pd_proc_ls_profile_function     split-Peason7
_pd_proc_ls_prof_R_factor        0.008
_pd_proc_ls_prof_wR_factor       0.012
_pd_proc_wavelength              0.49559
_pd_spec_mounting                ' capillary '
_pd_spec_mount_mode              transmission
_pd_spec_shape                   cylinder
_refine_ls_extinction_method     none
_refine_ls_hydrogen_treatment    noref
_refine_ls_number_parameters     65
_refine_ls_number_restraints     0
_refine_ls_R_I_factor            0.030
_refine_ls_structure_factor_coef Inet
_cod_data_source_file            ja9010018_si_005.cif
_cod_data_source_block           Au(tmdt)2_5.50GPa
_cod_database_code               4104409
loop_
_symmetry_equiv_pos_site_id
_symmetry_equiv_pos_as_xyz
1 x,y,z
2 -x,-y,-z
loop_
_atom_site_aniso_label
_atom_site_aniso_U_11
_atom_site_aniso_U_22
_atom_site_aniso_U_33
_atom_site_aniso_U_23
_atom_site_aniso_U_13
_atom_site_aniso_U_12
Au31 0.028(4) 0.034(5) 0.0047(35) -0.0001(43) 0.0004(27) 0.0074(41)
S2 0.022(12) 0.037(18) 0.011(13) 0.000(15) 0.001(11) 0.008(14)
S3 0.022(12) 0.037(18) 0.011(13) 0.000(15) 0.001(11) 0.008(14)
S6 0.022(12) 0.037(18) 0.011(13) 0.000(15) 0.001(11) 0.008(14)
S7 0.022(12) 0.037(18) 0.011(13) 0.000(15) 0.001(11) 0.008(14)
S10 0.022(12) 0.037(18) 0.011(13) 0.000(15) 0.001(11) 0.008(14)
S11 0.022(12) 0.037(18) 0.011(13) 0.000(15) 0.001(11) 0.008(14)
C4 0.022(12) 0.037(18) 0.011(13) 0.000(15) 0.001(11) 0.008(14)
C5 0.022(12) 0.037(18) 0.011(13) 0.000(15) 0.001(11) 0.008(14)
C8 0.022(12) 0.037(18) 0.011(13) 0.000(15) 0.001(11) 0.008(14)
C9 0.022(12) 0.037(18) 0.011(13) 0.000(15) 0.001(11) 0.008(14)
C12 0.022(12) 0.037(18) 0.011(13) 0.000(15) 0.001(11) 0.008(14)
C13 0.022(12) 0.037(18) 0.011(13) 0.000(15) 0.001(11) 0.008(14)
C14 0.022(12) 0.037(18) 0.011(13) 0.000(15) 0.001(11) 0.008(14)
C15 0.022(12) 0.037(18) 0.011(13) 0.000(15) 0.001(11) 0.008(14)
C20 0.022(12) 0.037(18) 0.011(13) 0.000(15) 0.001(11) 0.008(14)
H16 0.022(12) 0.037(18) 0.011(13) 0.000(15) 0.001(11) 0.008(14)
H17 0.022(12) 0.037(18) 0.011(13) 0.000(15) 0.001(11) 0.008(14)
H18 0.022(12) 0.037(18) 0.011(13) 0.000(15) 0.001(11) 0.008(14)
H19 0.022(12) 0.037(18) 0.011(13) 0.000(15) 0.001(11) 0.008(14)
H21 0.022(12) 0.037(18) 0.011(13) 0.000(15) 0.001(11) 0.008(14)
H22 0.022(12) 0.037(18) 0.011(13) 0.000(15) 0.001(11) 0.008(14)
loop_
_atom_site_label
_atom_site_type_symbol
_atom_site_thermal_displace_type
_atom_site_fract_x
_atom_site_fract_y
_atom_site_fract_z
_atom_site_occupancy
_atom_site_U_iso_or_equiv
_atom_site_calc_flag
_atom_site_refinement_flags
Au31 Au Uani 1.00000 1.00000 1.00000 1.000 0.022(3) d G
S2 S Uani 0.6346(5) 0.947(2) 0.9066(5) 1.000 0.023(8) d G
S3 S Uani 1.1563(5) 0.925(2) 0.8384(4) 1.000 0.023(8) d G
S6 S Uani 0.4673(8) 0.826(2) 0.6658(5) 1.000 0.023(8) d G
S7 S Uani 0.934(1) 0.807(2) 0.6047(4) 1.000 0.023(8) d G
S10 S Uani 0.260(1) 0.699(2) 0.4130(5) 1.000 0.023(8) d G
S11 S Uani 0.728(1) 0.679(2) 0.3518(5) 1.000 0.023(8) d G
C4 C Uani 0.7016(7) 0.886(3) 0.7783(6) 1.000 0.023(8) d G
C5 C Uani 0.9122(7) 0.877(3) 0.7507(6) 1.000 0.023(8) d G
C8 C Uani 0.650(1) 0.785(4) 0.5727(7) 1.000 0.023(8) d G
C9 C Uani 0.565(1) 0.733(3) 0.4694(7) 1.000 0.023(8) d G
C12 C Uani 0.283(1) 0.630(4) 0.2702(8) 1.000 0.023(8) d G
C13 C Uani 0.497(1) 0.621(4) 0.2422(7) 1.000 0.023(8) d G
C14 C Uani 0.098(2) 0.578(4) 0.1709(8) 1.000 0.023(8) d G
C15 C Uani 0.499(2) 0.561(4) 0.1185(7) 1.000 0.023(8) d G
C20 C Uani 0.247(2) 0.538(5) 0.0820(9) 1.000 0.023(8) d G
H16 H Uani 0.005(2) 0.697(4) 0.1480(8) 1.000 0.023(8) d G
H17 H Uani -0.042(2) 0.451(4) 0.1908(8) 1.000 0.023(8) d G
H18 H Uani 0.615(2) 0.672(4) 0.0683(7) 1.000 0.023(8) d G
H19 H Uani 0.567(2) 0.426(4) 0.1111(7) 1.000 0.023(8) d G
H21 H Uani 0.232(2) 0.642(5) 0.0100(9) 1.000 0.023(8) d G
H22 H Uani 0.182(2) 0.383(5) 0.0550(9) 1.000 0.023(8) d G
loop_
_atom_type_symbol
_atom_type_description
_atom_type_scat_dispersion_real
_atom_type_scat_dispersion_imag
_atom_type_scat_source
C C 0.001 0.001 'International Tables Vol C Tables 4.2.6.8 and 6.1.1.4'
Au Au -0.537 4.955 'International Tables Vol C Tables 4.2.6.8 and 6.1.1.4'
S S 0.066 0.060 'International Tables Vol C Tables 4.2.6.8 and 6.1.1.4'
H H 0.000 0.000 'International Tables Vol C Tables 4.2.6.8 and 6.1.1.4'
loop_
_geom_angle_atom_site_label_1
_geom_angle_atom_site_label_2
_geom_angle_atom_site_label_3
_geom_angle
S2 Au31 S3 91.22
Au31 S2 C4 98.66
Au31 S3 C5 98.71
C4 S6 C8 91.82
C5 S7 C8 92.02
C9 S10 C12 100.12
C9 S11 C13 99.88
S2 C4 S6 117.95
S2 C4 C5 125.76
S6 C4 C5 116.29
S3 C5 S7 118.06
S3 C5 C4 125.65
S7 C5 C4 116.29
S6 C8 S7 123.57
S6 C8 C9 118.08
S7 C8 C9 118.35
S10 C9 S11 106.66
S10 C9 C8 126.78
S11 C9 C8 126.56
S10 C12 C13 116.59
S10 C12 C14 130.68
C13 C12 C14 112.72
S11 C13 C12 116.75
S11 C13 C15 130.54
C12 C13 C15 112.71
C12 C14 C20 99.34
C13 C15 C20 99.36
C14 C20 C15 115.87
C12 C14 H16 113.00
C12 C14 H17 113.00
C20 C14 H16 115.00
C20 C14 H17 114.00
H16 C14 H17 102.00
C13 C15 H18 113.00
C13 C15 H19 113.00
C20 C15 H18 115.00
C20 C15 H19 115.00
H18 C15 H19 102.00
C14 C20 H21 108.00
C14 C20 H22 108.00
C15 C20 H21 108.00
C15 C20 H22 107.00
H21 C20 H22 110.00
loop_
_geom_bond_atom_site_label_1
_geom_bond_atom_site_label_2
_geom_bond_distance
Au31 S2 2.3004
Au31 S3 2.3000
S2 C4 1.6789
S3 C5 1.6792
S6 C4 1.8212
S6 C8 1.6714
S7 C5 1.8189
S7 C8 1.6649
S10 C9 1.8365
S10 C12 1.7823
S11 C9 1.8407
S11 C13 1.7846
C4 C5 1.3275
C8 C9 1.3044
C12 C13 1.3485
C12 C14 1.5260
C13 C15 1.5253
C14 C20 1.4903
C15 C20 1.4914
C14 H16 1.0900
C14 H17 1.0900
C15 H18 1.0900
C15 H19 1.0900
C20 H21 1.0900
C20 H22 1.0900
