#------------------------------------------------------------------------------
#$Date: 2016-03-21 17:41:47 +0200 (Mon, 21 Mar 2016) $
#$Revision: 178790 $
#$URL: svn://www.crystallography.net/cod/cif/4/10/44/4104408.cif $
#------------------------------------------------------------------------------
#
# This file is available in the Crystallography Open Database (COD),
# http://www.crystallography.net/
#
# All data on this site have been placed in the public domain by the
# contributors.
#
data_4104408
loop_
_publ_author_name
'Yoshinori Okano'
'Biao Zhou'
'Hishashi Tanaka'
'Takafumi Adachi'
'Yasuo Ohishi'
'Masaki Takata'
'Shinobu Aoyagi'
'Eiji Nishibori'
'Makoto Sakata'
'Akiko Kobayashi'
'Hayao Kobayashi'
_publ_contact_author_address
;Department of Chemistry
College of Humanities and Sciences
Nihon University
Sakurajosui 3-25-40 Setagaya-Ku
Tokyo 156-8550, JAPAN
;
_publ_contact_author_email       akoba@chs.nihon-u.ac.jp
_publ_contact_author_fax         +81-3-5317-9433
_publ_contact_author_name        'Akiko Kobayashi '
_publ_contact_author_phone       +81-3-5317-9680
_publ_section_title
;
 High-Pressure (up to 10.7 GPa) Crystal Structure of Single-Component
 Molecular Metal [Au(tmdt)2]
;
_journal_name_full               'Journal of the American Chemical Society'
_journal_page_first              7169
_journal_page_last               7174
_journal_paper_doi               10.1021/ja9010018
_journal_volume                  131
_journal_year                    2009
_chemical_formula_moiety         'C18 H12 Au S12'
_chemical_formula_sum            'C18 H12 Au S12'
_chemical_formula_weight         810.09
_chemical_name_systematic        Au(tmdt)2
_space_group_crystal_system      triclinic
_space_group_IT_number           2
_space_group_name_Hall           '-P 1'
_space_group_name_H-M_alt        'P -1'
_symmetry_cell_setting           triclinic
_symmetry_Int_Tables_number      2
_symmetry_space_group_name_Hall  '-P 1'
_symmetry_space_group_name_H-M   'P -1'
_audit_creation_date             2006-07-19
_cell_angle_alpha                88.216(10)
_cell_angle_beta                 95.438(8)
_cell_angle_gamma                102.638(14)
_cell_formula_units_Z            1
_cell_length_a                   6.0539(5)
_cell_length_b                   7.0090(5)
_cell_length_c                   11.8438(10)
_cell_measurement_temperature    300
_cell_volume                     488.14(7)
_computing_cell_refinement       'Synchrotron Powder(Eiji Nishibori,2007)'
_computing_data_reduction        'Synchrotron Powder'
_computing_structure_refinement  'Synchrotron Powder'
_diffrn_ambient_pressure         2960000
_diffrn_ambient_temperature      300
_diffrn_detector                 'Imaging Plate'
_diffrn_radiation_monochromator  Si(111)
_diffrn_radiation_type           synchrotron
_diffrn_radiation_wavelength     0.49559
_diffrn_source                   synchrotron
_diffrn_source_type              'SPring-8 BL10XU'
_exptl_absorpt_coefficient_mu    3.285
_exptl_crystal_colour            Black
_exptl_crystal_density_diffrn    2.756
_exptl_crystal_density_method    'not measured'
_exptl_crystal_F_000             391
_pd_instr_location
;
;
_pd_meas_2theta_range_max        18.8948
_pd_meas_2theta_range_min        0.0081
_pd_meas_number_of_points        1530
_pd_meas_scan_method             step
_pd_proc_2theta_range_max        18.900
_pd_proc_2theta_range_min        2.000
_pd_proc_ls_pref_orient_corr     ' ?'
_pd_proc_ls_profile_function     split-Peason7
_pd_proc_ls_prof_R_factor        0.008
_pd_proc_ls_prof_wR_factor       0.013
_pd_proc_wavelength              0.49559
_pd_spec_mounting                ' capillary '
_pd_spec_mount_mode              transmission
_pd_spec_shape                   cylinder
_refine_ls_extinction_method     none
_refine_ls_hydrogen_treatment    noref
_refine_ls_number_parameters     65
_refine_ls_number_restraints     0
_refine_ls_R_I_factor            0.027
_refine_ls_structure_factor_coef Inet
_cod_data_source_file            ja9010018_si_004.cif
_cod_data_source_block           Au(tmdt)2_2.96GPa
_cod_database_code               4104408
loop_
_symmetry_equiv_pos_site_id
_symmetry_equiv_pos_as_xyz
1 x,y,z
2 -x,-y,-z
loop_
_atom_site_aniso_label
_atom_site_aniso_U_11
_atom_site_aniso_U_22
_atom_site_aniso_U_33
_atom_site_aniso_U_23
_atom_site_aniso_U_13
_atom_site_aniso_U_12
Au31 0.029(5) 0.029(5) 0.0069(36) -0.0001(46) 0.0006(30) 0.006(5)
S2 0.022(14) 0.034(19) 0.028(13) 0.000(16) 0.003(12) 0.007(15)
S3 0.022(14) 0.034(19) 0.028(13) 0.000(16) 0.003(12) 0.007(15)
S6 0.022(14) 0.034(19) 0.028(13) 0.000(16) 0.003(12) 0.007(15)
S7 0.022(14) 0.034(19) 0.028(13) 0.000(16) 0.003(12) 0.007(15)
S10 0.022(14) 0.034(19) 0.028(13) 0.000(16) 0.003(12) 0.007(15)
S11 0.022(14) 0.034(19) 0.028(13) 0.000(16) 0.003(12) 0.007(15)
C4 0.022(14) 0.034(19) 0.028(13) 0.000(16) 0.003(12) 0.007(15)
C5 0.022(14) 0.034(19) 0.028(13) 0.000(16) 0.003(12) 0.007(15)
C8 0.022(14) 0.034(19) 0.028(13) 0.000(16) 0.003(12) 0.007(15)
C9 0.022(14) 0.034(19) 0.028(13) 0.000(16) 0.003(12) 0.007(15)
C12 0.022(14) 0.034(19) 0.028(13) 0.000(16) 0.003(12) 0.007(15)
C13 0.022(14) 0.034(19) 0.028(13) 0.000(16) 0.003(12) 0.007(15)
C14 0.022(14) 0.034(19) 0.028(13) 0.000(16) 0.003(12) 0.007(15)
C15 0.022(14) 0.034(19) 0.028(13) 0.000(16) 0.003(12) 0.007(15)
C20 0.022(14) 0.034(19) 0.028(13) 0.000(16) 0.003(12) 0.007(15)
H16 0.022(14) 0.034(19) 0.028(13) 0.000(16) 0.003(12) 0.007(15)
H17 0.022(14) 0.034(19) 0.028(13) 0.000(16) 0.003(12) 0.007(15)
H18 0.022(14) 0.034(19) 0.028(13) 0.000(16) 0.003(12) 0.007(15)
H19 0.022(14) 0.034(19) 0.028(13) 0.000(16) 0.003(12) 0.007(15)
H21 0.022(14) 0.034(19) 0.028(13) 0.000(16) 0.003(12) 0.007(15)
H22 0.022(14) 0.034(19) 0.028(13) 0.000(16) 0.003(12) 0.007(15)
loop_
_atom_site_label
_atom_site_type_symbol
_atom_site_thermal_displace_type
_atom_site_fract_x
_atom_site_fract_y
_atom_site_fract_z
_atom_site_occupancy
_atom_site_U_iso_or_equiv
_atom_site_calc_flag
_atom_site_refinement_flags
Au31 Au Uani 1.00000 1.00000 1.00000 1.000 0.022(3) d G
S2 S Uani 0.6392(5) 0.944(2) 0.9069(5) 1.000 0.028(9) d G
S3 S Uani 1.1508(5) 0.928(2) 0.8385(4) 1.000 0.028(9) d G
S6 S Uani 0.4703(8) 0.824(2) 0.6659(6) 1.000 0.028(9) d G
S7 S Uani 0.928(1) 0.810(2) 0.6047(5) 1.000 0.028(9) d G
S10 S Uani 0.264(1) 0.698(2) 0.4155(6) 1.000 0.028(9) d G
S11 S Uani 0.721(1) 0.684(2) 0.3543(5) 1.000 0.028(9) d G
C4 C Uani 0.7032(7) 0.886(4) 0.7798(6) 1.000 0.028(9) d G
C5 C Uani 0.9107(7) 0.879(3) 0.7521(6) 1.000 0.028(9) d G
C8 C Uani 0.648(1) 0.786(4) 0.5732(8) 1.000 0.028(9) d G
C9 C Uani 0.563(1) 0.734(4) 0.4700(7) 1.000 0.028(9) d G
C12 C Uani 0.281(1) 0.629(5) 0.2694(8) 1.000 0.028(9) d G
C13 C Uani 0.491(1) 0.623(4) 0.2413(8) 1.000 0.028(9) d G
C14 C Uani 0.101(2) 0.578(4) 0.1737(9) 1.000 0.028(9) d G
C15 C Uani 0.493(2) 0.566(4) 0.1214(7) 1.000 0.028(9) d G
C20 C Uani 0.244(2) 0.539(6) 0.0833(10) 1.000 0.028(9) d G
H16 H Uani 0.008(2) 0.693(4) 0.1520(9) 1.000 0.028(9) d G
H17 H Uani -0.034(2) 0.453(4) 0.1924(9) 1.000 0.028(9) d G
H18 H Uani 0.603(2) 0.675(4) 0.0725(7) 1.000 0.028(9) d G
H19 H Uani 0.560(2) 0.436(4) 0.1129(7) 1.000 0.028(9) d G
H21 H Uani 0.226(2) 0.640(6) 0.0126(10) 1.000 0.028(9) d G
H22 H Uani 0.181(2) 0.389(6) 0.0551(10) 1.000 0.028(9) d G
loop_
_atom_type_symbol
_atom_type_description
_atom_type_scat_dispersion_real
_atom_type_scat_dispersion_imag
_atom_type_scat_source
C C 0.001 0.001 'International Tables Vol C Tables 4.2.6.8 and 6.1.1.4'
Au Au -0.537 4.955 'International Tables Vol C Tables 4.2.6.8 and 6.1.1.4'
S S 0.066 0.060 'International Tables Vol C Tables 4.2.6.8 and 6.1.1.4'
H H 0.000 0.000 'International Tables Vol C Tables 4.2.6.8 and 6.1.1.4'
loop_
_geom_angle_atom_site_label_1
_geom_angle_atom_site_label_2
_geom_angle_atom_site_label_3
_geom_angle
S2 Au31 S3 91.18
Au31 S2 C4 98.53
Au31 S3 C5 98.53
C4 S6 C8 92.17
C5 S7 C8 92.18
C9 S10 C12 100.32
C9 S11 C13 100.50
S2 C4 S6 118.19
S2 C4 C5 125.90
S6 C4 C5 115.90
S3 C5 S7 118.20
S3 C5 C4 125.86
S7 C5 C4 115.94
S6 C8 S7 123.80
S6 C8 C9 118.15
S7 C8 C9 118.05
S10 C9 S11 107.46
S10 C9 C8 126.18
S11 C9 C8 126.35
S10 C12 C13 115.89
S10 C12 C14 130.86
C13 C12 C14 113.25
S11 C13 C12 115.83
S11 C13 C15 130.99
C12 C13 C15 113.18
C12 C14 C20 99.60
C13 C15 C20 99.73
C14 C20 C15 114.24
C12 C14 H16 114.00
C12 C14 H17 113.00
C20 C14 H16 114.00
C20 C14 H17 114.00
H16 C14 H17 103.00
C13 C15 H18 113.00
C13 C15 H19 114.00
C20 C15 H18 114.00
C20 C15 H19 114.00
H18 C15 H19 103.00
C14 C20 H21 108.00
C14 C20 H22 108.00
C15 C20 H21 108.00
C15 C20 H22 108.00
H21 C20 H22 110.00
loop_
_geom_bond_atom_site_label_1
_geom_bond_atom_site_label_2
_geom_bond_distance
Au31 S2 2.3100
Au31 S3 2.3107
S2 C4 1.6730
S3 C5 1.6731
S6 C4 1.8451
S6 C8 1.6737
S7 C5 1.8444
S7 C8 1.6733
S10 C9 1.8291
S10 C12 1.8293
S11 C9 1.8277
S11 C13 1.8261
C4 C5 1.3394
C8 C9 1.3107
C12 C13 1.3540
C12 C14 1.4902
C13 C15 1.4890
C14 C20 1.5060
C15 C20 1.5044
C14 H16 1.0900
C14 H17 1.0900
C15 H18 1.0900
C15 H19 1.0900
C20 H21 1.0900
C20 H22 1.0900
