#------------------------------------------------------------------------------
#$Date: 2016-03-21 17:50:02 +0200 (Mon, 21 Mar 2016) $
#$Revision: 178794 $
#$URL: svn://www.crystallography.net/cod/cif/4/10/48/4104853.cif $
#------------------------------------------------------------------------------
#
# This file is available in the Crystallography Open Database (COD),
# http://www.crystallography.net/
#
# All data on this site have been placed in the public domain by the
# contributors.
#
data_4104853
loop_
_publ_author_name
'Daniel A. DiRocco'
'Kevin M. Oberg'
'Derek M. Dalton'
'Tomislav Rovis'
_publ_section_title
;
 Catalytic Asymmetric Intermolecular Stetter Reaction of Heterocyclic
 Aldehydes with Nitroalkenes: Backbone Fluorination Improves Selectivity
;
_journal_name_full               'Journal of the American Chemical Society'
_journal_page_first              10872
_journal_page_last               10874
_journal_paper_doi               10.1021/ja904375q
_journal_volume                  131
_journal_year                    2009
_chemical_absolute_configuration syn
_chemical_formula_sum            'C14 H13 B F9 N3'
_chemical_formula_weight         405.08
_chemical_name_systematic
;

 ?

;
_space_group_IT_number           4
_symmetry_cell_setting           monoclinic
_symmetry_space_group_name_Hall  'P 2yb'
_symmetry_space_group_name_H-M   'P 1 21 1'
_atom_sites_solution_hydrogens   geom
_atom_sites_solution_primary     direct
_atom_sites_solution_secondary   difmap
_audit_creation_method           SHELXL-97
_cell_angle_alpha                90.00
_cell_angle_beta                 107.6080(10)
_cell_angle_gamma                90.00
_cell_formula_units_Z            2
_cell_length_a                   9.9143(3)
_cell_length_b                   7.5803(2)
_cell_length_c                   11.2293(3)
_cell_measurement_reflns_used    6246
_cell_measurement_temperature    120
_cell_measurement_theta_max      33.11
_cell_measurement_theta_min      2.41
_cell_volume                     804.38(4)
_computing_cell_refinement       'APEX2 (Bruker, 2009)'
_computing_data_collection       'APEX2 (Bruker, 2009)'
_computing_data_reduction        'APEX2 (Bruker, 2009)'
_computing_molecular_graphics    'APEX2 (Bruker, 2009)'
_computing_publication_material  'APEX2 (Bruker, 2009)'
_computing_structure_refinement  'XL (Sheldrick, 2008)'
_computing_structure_solution    'XS (Sheldrick, 2008)'
_diffrn_ambient_temperature      120
_diffrn_measured_fraction_theta_full 0.999
_diffrn_measured_fraction_theta_max 0.999
_diffrn_measurement_device_type  'CCD area detector'
_diffrn_measurement_method       'phi and omega scans'
_diffrn_radiation_monochromator  graphite
_diffrn_radiation_source         'fine-focus sealed tube'
_diffrn_radiation_type           MoK\a
_diffrn_radiation_wavelength     0.71073
_diffrn_reflns_av_R_equivalents  0.0369
_diffrn_reflns_av_sigmaI/netI    0.0650
_diffrn_reflns_limit_h_max       15
_diffrn_reflns_limit_h_min       -15
_diffrn_reflns_limit_k_max       9
_diffrn_reflns_limit_k_min       -11
_diffrn_reflns_limit_l_max       14
_diffrn_reflns_limit_l_min       -17
_diffrn_reflns_number            14071
_diffrn_reflns_theta_full        32.58
_diffrn_reflns_theta_max         32.58
_diffrn_reflns_theta_min         2.41
_exptl_absorpt_coefficient_mu    0.174
_exptl_absorpt_correction_T_max  0.9909
_exptl_absorpt_correction_T_min  0.9683
_exptl_absorpt_correction_type   multi-scan
_exptl_absorpt_process_details   'Sheldrick, G. M. (2008) SADABS.'
_exptl_crystal_colour            colourless
_exptl_crystal_density_diffrn    1.672
_exptl_crystal_description       plate
_exptl_crystal_F_000             408
_exptl_crystal_size_max          0.19
_exptl_crystal_size_mid          0.18
_exptl_crystal_size_min          0.05
_refine_diff_density_max         0.282
_refine_diff_density_min         -0.253
_refine_diff_density_rms         0.058
_refine_ls_abs_structure_details 'Flack H D (1983), Acta Cryst. A39, 876-881'
_refine_ls_abs_structure_Flack   -0.1(5)
_refine_ls_extinction_method     none
_refine_ls_goodness_of_fit_ref   1.013
_refine_ls_hydrogen_treatment    constr
_refine_ls_matrix_type           full
_refine_ls_number_parameters     246
_refine_ls_number_reflns         5310
_refine_ls_number_restraints     1
_refine_ls_restrained_S_all      1.013
_refine_ls_R_factor_all          0.0863
_refine_ls_R_factor_gt           0.0464
_refine_ls_shift/su_max          0.000
_refine_ls_shift/su_mean         0.000
_refine_ls_structure_factor_coef Fsqd
_refine_ls_weighting_details
'calc w=1/[\s^2^(Fo^2^)+(0.0357P)^2^+0.0379P] where P=(Fo^2^+2Fc^2^)/3'
_refine_ls_weighting_scheme      calc
_refine_ls_wR_factor_gt          0.0778
_refine_ls_wR_factor_ref         0.0906
_reflns_number_gt                3593
_reflns_number_total             5310
_reflns_threshold_expression     >2sigma(I)
_cod_data_source_file            ja904375q_si_005.cif
_cod_data_source_block           rovis58_0m
_cod_database_code               4104853
loop_
_symmetry_equiv_pos_as_xyz
'x, y, z'
'-x, y+1/2, -z'
loop_
_atom_site_label
_atom_site_type_symbol
_atom_site_fract_x
_atom_site_fract_y
_atom_site_fract_z
_atom_site_U_iso_or_equiv
_atom_site_adp_type
_atom_site_occupancy
_atom_site_symmetry_multiplicity
_atom_site_calc_flag
_atom_site_refinement_flags
B1 B 0.4041(2) 0.6227(3) 0.1434(2) 0.0257(5) Uani 1 1 d .
C1 C 0.66137(17) 0.5724(2) 0.97712(16) 0.0174(4) Uani 1 1 d .
H1 H 0.5920 0.5036 0.9945 0.021 Uiso 1 1 calc R
C2 C 0.82092(18) 0.6812(3) 1.19542(17) 0.0226(4) Uani 1 1 d .
H2 H 0.7587 0.7645 1.2202 0.027 Uiso 1 1 calc R
C3 C 0.9642(2) 0.7720(3) 1.20795(19) 0.0317(5) Uani 1 1 d .
H3A H 0.9801 0.8666 1.2688 0.038 Uiso 1 1 calc R
H3B H 1.0407 0.6875 1.2358 0.038 Uiso 1 1 calc R
C4 C 0.95948(19) 0.8465(3) 1.07897(18) 0.0260(4) Uani 1 1 d .
H4A H 0.9377 0.9715 1.0732 0.031 Uiso 1 1 calc R
H4B H 1.0484 0.8275 1.0616 0.031 Uiso 1 1 calc R
C5 C 0.84276(17) 0.7415(3) 0.99277(17) 0.0193(4) Uani 1 1 d .
C6 C 0.82646(19) 0.5075(3) 1.26756(18) 0.0248(4) Uani 1 1 d .
H6 H 0.7294 0.4631 1.2481 0.030 Uiso 1 1 calc R
C7 C 0.8786(2) 0.5478(4) 1.40787(18) 0.0379(6) Uani 1 1 d .
H7A H 0.8786 0.4413 1.4541 0.057 Uiso 1 1 calc R
H7B H 0.8170 0.6327 1.4279 0.057 Uiso 1 1 calc R
H7C H 0.9729 0.5946 1.4295 0.057 Uiso 1 1 calc R
C8 C 0.9150(2) 0.3634(3) 1.2326(2) 0.0366(5) Uani 1 1 d .
H8A H 0.8780 0.3387 1.1448 0.055 Uiso 1 1 calc R
H8B H 0.9114 0.2584 1.2793 0.055 Uiso 1 1 calc R
H8C H 1.0113 0.4025 1.2515 0.055 Uiso 1 1 calc R
C9 C 0.58054(18) 0.5586(3) 0.74779(17) 0.0177(4) Uani 1 1 d .
C10 C 0.63076(19) 0.4969(3) 0.65367(18) 0.0210(4) Uani 1 1 d .
C11 C 0.5395(2) 0.4408(3) 0.54111(17) 0.0229(4) Uani 1 1 d .
C12 C 0.3953(2) 0.4442(3) 0.52219(18) 0.0257(4) Uani 1 1 d .
C13 C 0.34431(19) 0.5069(3) 0.61544(19) 0.0242(4) Uani 1 1 d .
C14 C 0.43559(19) 0.5642(3) 0.72700(17) 0.0209(4) Uani 1 1 d .
F1 F 0.76969(11) 0.48344(16) 0.67138(10) 0.0291(3) Uani 1 1 d .
F2 F 0.59173(13) 0.37546(17) 0.45370(11) 0.0350(3) Uani 1 1 d .
F3 F 0.30569(12) 0.38484(17) 0.41605(10) 0.0353(3) Uani 1 1 d .
F4 F 0.20431(11) 0.51204(17) 0.59724(11) 0.0345(3) Uani 1 1 d .
F5 F 0.38225(10) 0.62154(15) 0.81562(10) 0.0267(3) Uani 1 1 d .
F6 F 0.4241(2) 0.62277(19) 0.26935(14) 0.0660(5) Uani 1 1 d .
F7 F 0.49533(11) 0.74575(14) 0.11631(10) 0.0283(3) Uani 1 1 d .
F8 F 0.26677(12) 0.6712(2) 0.08052(17) 0.0610(5) Uani 1 1 d .
F9 F 0.43402(13) 0.45779(15) 0.10439(13) 0.0382(3) Uani 1 1 d .
N1 N 0.76793(14) 0.6546(2) 1.05824(13) 0.0176(3) Uani 1 1 d .
N2 N 0.78984(15) 0.7185(2) 0.87312(14) 0.0209(3) Uani 1 1 d .
N3 N 0.67477(14) 0.60921(19) 0.86532(14) 0.0174(3) Uani 1 1 d .
loop_
_atom_site_aniso_label
_atom_site_aniso_U_11
_atom_site_aniso_U_22
_atom_site_aniso_U_33
_atom_site_aniso_U_23
_atom_site_aniso_U_13
_atom_site_aniso_U_12
B1 0.0284(11) 0.0198(11) 0.0321(13) 0.0001(11) 0.0140(10) -0.0001(9)
C1 0.0139(8) 0.0184(9) 0.0189(9) -0.0015(8) 0.0033(7) -0.0004(7)
C2 0.0172(8) 0.0293(11) 0.0190(9) -0.0061(8) 0.0020(7) -0.0037(8)
C3 0.0239(10) 0.0384(13) 0.0308(11) -0.0054(10) 0.0052(8) -0.0122(9)
C4 0.0173(9) 0.0288(11) 0.0307(11) -0.0032(9) 0.0056(8) -0.0060(8)
C5 0.0139(8) 0.0193(9) 0.0246(10) 0.0003(8) 0.0058(7) -0.0012(7)
C6 0.0189(8) 0.0337(12) 0.0196(10) -0.0001(9) 0.0026(7) -0.0018(8)
C7 0.0318(11) 0.0556(15) 0.0221(11) 0.0034(11) 0.0018(9) -0.0015(11)
C8 0.0351(12) 0.0393(14) 0.0353(12) 0.0060(11) 0.0106(10) 0.0080(10)
C9 0.0182(8) 0.0160(8) 0.0157(9) 0.0023(8) 0.0001(7) 0.0009(7)
C10 0.0200(8) 0.0203(10) 0.0226(10) 0.0021(8) 0.0063(7) 0.0023(8)
C11 0.0307(10) 0.0192(10) 0.0185(10) 0.0002(8) 0.0069(8) 0.0026(8)
C12 0.0292(10) 0.0237(11) 0.0179(10) 0.0002(8) -0.0025(8) -0.0038(9)
C13 0.0181(8) 0.0241(11) 0.0262(10) 0.0036(9) 0.0006(7) -0.0005(8)
C14 0.0211(9) 0.0196(9) 0.0215(10) 0.0026(8) 0.0058(8) 0.0043(8)
F1 0.0212(5) 0.0403(7) 0.0257(6) -0.0045(6) 0.0071(5) 0.0068(5)
F2 0.0416(7) 0.0413(8) 0.0232(6) -0.0091(6) 0.0113(5) 0.0034(6)
F3 0.0366(7) 0.0388(7) 0.0215(6) -0.0049(6) -0.0046(5) -0.0069(6)
F4 0.0176(5) 0.0462(8) 0.0339(7) -0.0004(6) -0.0008(5) -0.0006(5)
F5 0.0205(5) 0.0346(7) 0.0249(6) -0.0030(5) 0.0067(5) 0.0029(5)
F6 0.1307(15) 0.0386(9) 0.0393(8) 0.0027(8) 0.0415(9) -0.0030(9)
F7 0.0280(6) 0.0197(6) 0.0384(6) -0.0016(5) 0.0120(5) -0.0035(5)
F8 0.0213(6) 0.0478(9) 0.1082(13) 0.0035(9) 0.0110(7) 0.0042(6)
F9 0.0395(7) 0.0192(6) 0.0656(9) -0.0100(6) 0.0303(6) -0.0062(6)
N1 0.0146(7) 0.0207(8) 0.0168(7) -0.0022(7) 0.0034(6) -0.0023(6)
N2 0.0165(7) 0.0212(9) 0.0256(9) 0.0013(7) 0.0073(6) 0.0008(6)
N3 0.0143(7) 0.0180(8) 0.0191(8) -0.0015(7) 0.0036(6) 0.0009(6)
loop_
_atom_type_symbol
_atom_type_description
_atom_type_scat_dispersion_real
_atom_type_scat_dispersion_imag
_atom_type_scat_source
C C 0.0033 0.0016 'International Tables Vol C Tables 4.2.6.8 and 6.1.1.4'
H H 0.0000 0.0000 'International Tables Vol C Tables 4.2.6.8 and 6.1.1.4'
B B 0.0013 0.0007 'International Tables Vol C Tables 4.2.6.8 and 6.1.1.4'
F F 0.0171 0.0103 'International Tables Vol C Tables 4.2.6.8 and 6.1.1.4'
N N 0.0061 0.0033 'International Tables Vol C Tables 4.2.6.8 and 6.1.1.4'
loop_
_geom_angle_atom_site_label_1
_geom_angle_atom_site_label_2
_geom_angle_atom_site_label_3
_geom_angle
F6 B1 F8 109.92(19)
F6 B1 F9 110.45(18)
F8 B1 F9 110.54(18)
F6 B1 F7 108.93(18)
F8 B1 F7 108.33(18)
F9 B1 F7 108.61(16)
N1 C1 N3 105.29(15)
N1 C2 C6 112.06(16)
N1 C2 C3 100.49(14)
C6 C2 C3 116.61(16)
C4 C3 C2 108.17(16)
C5 C4 C3 102.18(15)
N2 C5 N1 112.20(15)
N2 C5 C4 137.22(17)
N1 C5 C4 110.46(15)
C8 C6 C7 111.48(17)
C8 C6 C2 114.13(17)
C7 C6 C2 108.53(18)
C10 C9 C14 118.55(16)
C10 C9 N3 121.02(15)
C14 C9 N3 120.39(16)
F1 C10 C9 120.48(16)
F1 C10 C11 118.28(16)
C9 C10 C11 121.18(16)
F2 C11 C10 119.66(16)
F2 C11 C12 120.49(17)
C10 C11 C12 119.76(17)
F3 C12 C13 119.90(17)
F3 C12 C11 120.72(18)
C13 C12 C11 119.37(17)
F4 C13 C14 119.68(17)
F4 C13 C12 119.67(17)
C14 C13 C12 120.65(17)
F5 C14 C13 118.86(15)
F5 C14 C9 120.65(16)
C13 C14 C9 120.47(17)
C1 N1 C5 107.94(15)
C1 N1 C2 137.47(15)
C5 N1 C2 114.53(14)
C5 N2 N3 102.27(14)
C1 N3 N2 112.29(14)
C1 N3 C9 126.48(15)
N2 N3 C9 121.06(14)
loop_
_geom_bond_atom_site_label_1
_geom_bond_atom_site_label_2
_geom_bond_distance
B1 F6 1.368(3)
B1 F8 1.380(3)
B1 F9 1.386(3)
B1 F7 1.396(3)
C1 N1 1.324(2)
C1 N3 1.331(2)
C2 N1 1.483(2)
C2 C6 1.538(3)
C2 C3 1.546(3)
C3 C4 1.542(3)
C4 C5 1.494(3)
C5 N2 1.298(2)
C5 N1 1.362(2)
C6 C8 1.525(3)
C6 C7 1.533(3)
C9 C10 1.379(3)
C9 C14 1.385(2)
C9 N3 1.420(2)
C10 F1 1.335(2)
C10 C11 1.380(3)
C11 F2 1.336(2)
C11 C12 1.381(3)
C12 F3 1.331(2)
C12 C13 1.377(3)
C13 F4 1.341(2)
C13 C14 1.375(3)
C14 F5 1.333(2)
N2 N3 1.391(2)
