#------------------------------------------------------------------------------
#$Date: 2016-03-21 18:12:35 +0200 (Mon, 21 Mar 2016) $
#$Revision: 178805 $
#$URL: svn://www.crystallography.net/cod/cif/4/10/59/4105930.cif $
#------------------------------------------------------------------------------
#
# This file is available in the Crystallography Open Database (COD),
# http://www.crystallography.net/
#
# All data on this site have been placed in the public domain by the
# contributors.
#
data_4105930
loop_
_publ_author_name
'Richard S. Grainger'
'Bhaven Patel'
'Benson M. Kariuki'
'Louise Male'
'Neil Spencer'
_publ_contact_author
;
Dr B.M. Kariuki
School of Chemistry, Cardiff University
Main Building
Park Place
Cardiff
CF10 3AT
;
_publ_contact_author_email       kariukib@cf.ac.uk
_publ_section_title
;
 Sulfur Monoxide Transfer from peri-Substituted Trisulfide-2-oxides to
 Dienes: Substituent Effects, Mechanistic Studies and Application in
 Thiophene Synthesis
;
_journal_name_full               'Journal of the American Chemical Society'
_journal_page_first              5843
_journal_page_last               5852
_journal_paper_doi               10.1021/ja108865w
_journal_volume                  133
_journal_year                    2011
_chemical_formula_moiety         'C10 H5 N O2 S2'
_chemical_formula_sum            'C10 H5 N O2 S2'
_chemical_formula_weight         235.27
_chemical_name_systematic
;
 ?
;
_space_group_IT_number           14
_symmetry_cell_setting           monoclinic
_symmetry_space_group_name_Hall  '-P 2ybc'
_symmetry_space_group_name_H-M   'P 1 21/c 1'
_atom_sites_solution_hydrogens   geom
_atom_sites_solution_primary     direct
_atom_sites_solution_secondary   difmap
_audit_creation_method           SHELXL-97
_cell_angle_alpha                90.00
_cell_angle_beta                 93.499(3)
_cell_angle_gamma                90.00
_cell_formula_units_Z            4
_cell_length_a                   12.4427(6)
_cell_length_b                   9.9312(5)
_cell_length_c                   7.3694(4)
_cell_measurement_reflns_used    1228
_cell_measurement_temperature    296(2)
_cell_measurement_theta_max      65.70
_cell_measurement_theta_min      3.56
_cell_volume                     908.95(8)
_computing_structure_refinement  'SHELXL-97 (Sheldrick, 1997)'
_diffrn_ambient_temperature      296(2)
_diffrn_measured_fraction_theta_full 0.952
_diffrn_measured_fraction_theta_max 0.952
_diffrn_radiation_monochromator  graphite
_diffrn_radiation_source         'fine-focus sealed tube'
_diffrn_radiation_type           CuK\a
_diffrn_radiation_wavelength     1.54178
_diffrn_reflns_av_R_equivalents  0.0323
_diffrn_reflns_av_sigmaI/netI    0.0285
_diffrn_reflns_limit_h_max       14
_diffrn_reflns_limit_h_min       -14
_diffrn_reflns_limit_k_max       10
_diffrn_reflns_limit_k_min       -11
_diffrn_reflns_limit_l_max       8
_diffrn_reflns_limit_l_min       -8
_diffrn_reflns_number            5727
_diffrn_reflns_theta_full        65.70
_diffrn_reflns_theta_max         65.70
_diffrn_reflns_theta_min         3.56
_exptl_absorpt_coefficient_mu    5.115
_exptl_absorpt_correction_T_max  0.7840
_exptl_absorpt_correction_T_min  0.1841
_exptl_absorpt_correction_type   empirical
_exptl_absorpt_process_details   Sadabs
_exptl_crystal_colour            colourless
_exptl_crystal_density_diffrn    1.719
_exptl_crystal_description       needle
_exptl_crystal_F_000             480
_exptl_crystal_size_max          0.50
_exptl_crystal_size_mid          0.05
_exptl_crystal_size_min          0.05
_refine_diff_density_max         0.293
_refine_diff_density_min         -0.181
_refine_diff_density_rms         0.045
_refine_ls_extinction_method     none
_refine_ls_goodness_of_fit_ref   1.064
_refine_ls_hydrogen_treatment    constr
_refine_ls_matrix_type           full
_refine_ls_number_parameters     136
_refine_ls_number_reflns         1501
_refine_ls_number_restraints     0
_refine_ls_restrained_S_all      1.064
_refine_ls_R_factor_all          0.0422
_refine_ls_R_factor_gt           0.0325
_refine_ls_shift/su_max          0.000
_refine_ls_shift/su_mean         0.000
_refine_ls_structure_factor_coef Fsqd
_refine_ls_weighting_details
'calc w=1/[\s^2^(Fo^2^)+(0.0470P)^2^+0.2282P] where P=(Fo^2^+2Fc^2^)/3'
_refine_ls_weighting_scheme      calc
_refine_ls_wR_factor_gt          0.0850
_refine_ls_wR_factor_ref         0.0913
_reflns_number_gt                1228
_reflns_number_total             1501
_reflns_threshold_expression     >2sigma(I)
_cod_data_source_file            ja108865w_si_004.cif
_cod_data_source_block           28
_cod_database_code               4105930
loop_
_symmetry_equiv_pos_as_xyz
'x, y, z'
'-x, y+1/2, -z+1/2'
'-x, -y, -z'
'x, -y-1/2, z-1/2'
loop_
_atom_site_label
_atom_site_type_symbol
_atom_site_fract_x
_atom_site_fract_y
_atom_site_fract_z
_atom_site_U_iso_or_equiv
_atom_site_adp_type
_atom_site_occupancy
_atom_site_symmetry_multiplicity
_atom_site_calc_flag
_atom_site_refinement_flags
C1 C 0.34323(16) 0.8400(2) 1.0667(3) 0.0390(5) Uani 1 1 d .
C2 C 0.42179(16) 0.7495(2) 1.1211(3) 0.0445(5) Uani 1 1 d .
H2 H 0.4890 0.7788 1.1671 0.053 Uiso 1 1 calc R
C3 C 0.39894(17) 0.6141(2) 1.1062(3) 0.0451(6) Uani 1 1 d .
H3 H 0.4522 0.5521 1.1415 0.054 Uiso 1 1 calc R
C4 C 0.29960(17) 0.5674(2) 1.0407(3) 0.0412(5) Uani 1 1 d .
C5 C 0.10831(18) 0.6260(3) 0.9158(3) 0.0460(6) Uani 1 1 d .
H5 H 0.0870 0.5365 0.9048 0.055 Uiso 1 1 calc R
C6 C 0.03741(18) 0.7252(3) 0.8665(3) 0.0513(6) Uani 1 1 d .
H6 H -0.0313 0.7008 0.8215 0.062 Uiso 1 1 calc R
C7 C 0.06234(17) 0.8623(3) 0.8800(3) 0.0471(6) Uani 1 1 d .
H7 H 0.0120 0.9281 0.8454 0.056 Uiso 1 1 calc R
C8 C 0.16429(17) 0.8956(2) 0.9467(3) 0.0407(5) Uani 1 1 d .
C9 C 0.24057(15) 0.7954(2) 0.9993(3) 0.0337(5) Uani 1 1 d .
C10 C 0.21453(16) 0.6572(2) 0.9838(3) 0.0361(5) Uani 1 1 d .
N1 N 0.28798(18) 0.4222(2) 1.0301(3) 0.0529(5) Uani 1 1 d .
O1 O 0.36309(16) 0.3513(2) 1.0800(3) 0.0782(6) Uani 1 1 d .
O2 O 0.20249(18) 0.3758(2) 0.9720(3) 0.0950(8) Uani 1 1 d .
S1 S 0.36159(5) 1.01385(6) 1.07133(8) 0.0528(2) Uani 1 1 d .
S2 S 0.20642(5) 1.06183(6) 0.97438(9) 0.0549(2) Uani 1 1 d .
loop_
_atom_site_aniso_label
_atom_site_aniso_U_11
_atom_site_aniso_U_22
_atom_site_aniso_U_33
_atom_site_aniso_U_23
_atom_site_aniso_U_13
_atom_site_aniso_U_12
C1 0.0369(11) 0.0442(12) 0.0367(11) -0.0011(9) 0.0070(9) -0.0053(9)
C2 0.0305(11) 0.0563(14) 0.0464(13) 0.0002(11) 0.0002(10) -0.0006(10)
C3 0.0357(11) 0.0553(15) 0.0445(13) 0.0041(10) 0.0045(10) 0.0081(11)
C4 0.0452(13) 0.0392(12) 0.0403(13) 0.0018(9) 0.0110(10) 0.0016(10)
C5 0.0413(12) 0.0515(14) 0.0452(13) -0.0053(10) 0.0026(10) -0.0100(11)
C6 0.0345(12) 0.0733(18) 0.0452(13) -0.0048(12) -0.0045(10) -0.0049(12)
C7 0.0349(11) 0.0649(16) 0.0411(13) 0.0043(11) -0.0005(9) 0.0085(11)
C8 0.0410(12) 0.0442(13) 0.0378(12) 0.0019(9) 0.0090(9) 0.0057(10)
C9 0.0312(10) 0.0406(12) 0.0297(10) -0.0004(8) 0.0051(8) 0.0008(9)
C10 0.0366(11) 0.0407(12) 0.0316(11) -0.0003(9) 0.0071(9) -0.0013(9)
N1 0.0592(14) 0.0405(12) 0.0603(13) 0.0036(9) 0.0136(11) 0.0032(10)
O1 0.0732(13) 0.0501(11) 0.1124(17) 0.0091(11) 0.0137(12) 0.0210(10)
O2 0.0836(16) 0.0444(12) 0.154(2) -0.0004(12) -0.0194(15) -0.0142(11)
S1 0.0511(4) 0.0442(4) 0.0632(4) -0.0035(3) 0.0038(3) -0.0105(3)
S2 0.0575(4) 0.0397(4) 0.0682(5) 0.0037(3) 0.0092(3) 0.0064(3)
loop_
_atom_type_symbol
_atom_type_description
_atom_type_scat_dispersion_real
_atom_type_scat_dispersion_imag
_atom_type_scat_source
C C 0.0181 0.0091 'International Tables Vol C Tables 4.2.6.8 and 6.1.1.4'
H H 0.0000 0.0000 'International Tables Vol C Tables 4.2.6.8 and 6.1.1.4'
N N 0.0311 0.0180 'International Tables Vol C Tables 4.2.6.8 and 6.1.1.4'
O O 0.0492 0.0322 'International Tables Vol C Tables 4.2.6.8 and 6.1.1.4'
S S 0.3331 0.5567 'International Tables Vol C Tables 4.2.6.8 and 6.1.1.4'
loop_
_geom_angle_atom_site_label_1
_geom_angle_atom_site_label_2
_geom_angle_atom_site_label_3
_geom_angle
C2 C1 C9 120.7(2)
C2 C1 S1 123.68(17)
C9 C1 S1 115.60(17)
C1 C2 C3 118.5(2)
C2 C3 C4 122.1(2)
C3 C4 C10 121.7(2)
C3 C4 N1 115.9(2)
C10 C4 N1 122.4(2)
C6 C5 C10 120.8(2)
C5 C6 C7 123.4(2)
C8 C7 C6 117.1(2)
C7 C8 C9 121.3(2)
C7 C8 S2 122.40(18)
C9 C8 S2 116.32(16)
C8 C9 C1 117.0(2)
C8 C9 C10 121.00(19)
C1 C9 C10 122.04(19)
C9 C10 C5 116.4(2)
C9 C10 C4 114.89(18)
C5 C10 C4 128.7(2)
O1 N1 O2 122.0(2)
O1 N1 C4 119.3(2)
O2 N1 C4 118.6(2)
C1 S1 S2 95.90(8)
C8 S2 S1 95.17(8)
loop_
_geom_bond_atom_site_label_1
_geom_bond_atom_site_label_2
_geom_bond_distance
C1 C2 1.370(3)
C1 C9 1.413(3)
C1 S1 1.741(2)
C2 C3 1.377(3)
C3 C4 1.379(3)
C4 C10 1.428(3)
C4 N1 1.451(3)
C5 C6 1.357(3)
C5 C10 1.419(3)
C6 C7 1.399(4)
C7 C8 1.372(3)
C8 C9 1.413(3)
C8 S2 1.740(2)
C9 C10 1.413(3)
N1 O1 1.210(3)
N1 O2 1.213(3)
S1 S2 2.0728(9)
