#------------------------------------------------------------------------------
#$Date: 2017-10-13 14:42:48 +0300 (Fri, 13 Oct 2017) $
#$Revision: 201982 $
#$URL: file:///home/coder/svn-repositories/cod/cif/4/10/95/4109581.cif $
#------------------------------------------------------------------------------
#
# This file is available in the Crystallography Open Database (COD),
# http://www.crystallography.net/
#
# All data on this site have been placed in the public domain by the
# contributors.
#
data_4109581
loop_
_publ_author_name
'Shun Su'
'John A. Porco'
_publ_section_title
;
 Synthesis of Pyrrolo-isoquinolines Related to the Lamellarins Using
 Silver-Catalyzed Cycloisomerization/Dipolar Cycloaddition
;
_journal_name_full               'Journal of the American Chemical Society'
_journal_page_first              7744
_journal_page_last               7745
_journal_paper_doi               10.1021/ja072737v
_journal_volume                  129
_journal_year                    2007
_chemical_formula_moiety         'C17 H15 N O4'
_chemical_formula_sum            'C17 H15 N O4'
_chemical_formula_weight         297.30
_chemical_name_systematic
;
 ?
;
_space_group_IT_number           2
_symmetry_cell_setting           triclinic
_symmetry_space_group_name_Hall  '-P 1'
_symmetry_space_group_name_H-M   'P -1'
_atom_sites_solution_hydrogens   difmap
_atom_sites_solution_primary     direct
_atom_sites_solution_secondary   difmap
_audit_creation_method           SHELXL-97
_cell_angle_alpha                104.461(3)
_cell_angle_beta                 103.518(3)
_cell_angle_gamma                108.685(3)
_cell_formula_units_Z            2
_cell_length_a                   8.0265(8)
_cell_length_b                   9.2144(8)
_cell_length_c                   10.8224(10)
_cell_measurement_reflns_used    3580
_cell_measurement_temperature    173(2)
_cell_measurement_theta_max      0.00
_cell_measurement_theta_min      0.00
_cell_volume                     689.92(11)
_computing_cell_refinement       'Bruker SAINT+'
_computing_data_collection       'Bruker APEX2'
_computing_data_reduction        'Bruker SAINT+'
_computing_molecular_graphics    'Bruker SHELXTL'
_computing_publication_material  'Bruker SHELXTL'
_computing_structure_refinement  'SHELXL-97 (Sheldrick, 1997)'
_computing_structure_solution    'SHELXS-97 (Sheldrick, 1990)'
_diffrn_ambient_temperature      173(2)
_diffrn_measured_fraction_theta_full 0.978
_diffrn_measured_fraction_theta_max 0.978
_diffrn_measurement_device_type  'Bruker X8 APEX II diffractometer'
_diffrn_measurement_method       'phi and omega scans'
_diffrn_radiation_monochromator  graphite
_diffrn_radiation_source         'fine-focus sealed tube'
_diffrn_radiation_type           MoK\a
_diffrn_radiation_wavelength     0.71073
_diffrn_reflns_av_R_equivalents  0.0265
_diffrn_reflns_av_sigmaI/netI    0.0300
_diffrn_reflns_limit_h_max       10
_diffrn_reflns_limit_h_min       -10
_diffrn_reflns_limit_k_max       7
_diffrn_reflns_limit_k_min       -11
_diffrn_reflns_limit_l_max       14
_diffrn_reflns_limit_l_min       -13
_diffrn_reflns_number            9161
_diffrn_reflns_theta_full        27.52
_diffrn_reflns_theta_max         27.52
_diffrn_reflns_theta_min         2.07
_exptl_absorpt_coefficient_mu    0.103
_exptl_absorpt_correction_T_max  0.9898
_exptl_absorpt_correction_T_min  0.9409
_exptl_absorpt_correction_type   multi-scan
_exptl_absorpt_process_details   SADABS
_exptl_crystal_colour            colourless
_exptl_crystal_density_diffrn    1.431
_exptl_crystal_description       plate
_exptl_crystal_F_000             312
_exptl_crystal_size_max          0.60
_exptl_crystal_size_mid          0.40
_exptl_crystal_size_min          0.10
_refine_diff_density_max         0.234
_refine_diff_density_min         -0.214
_refine_diff_density_rms         0.041
_refine_ls_extinction_method     refall
_refine_ls_goodness_of_fit_ref   1.038
_refine_ls_hydrogen_treatment    mixed
_refine_ls_matrix_type           full
_refine_ls_number_parameters     259
_refine_ls_number_reflns         3100
_refine_ls_number_restraints     0
_refine_ls_restrained_S_all      1.038
_refine_ls_R_factor_all          0.0527
_refine_ls_R_factor_gt           0.0396
_refine_ls_shift/su_max          0.088
_refine_ls_shift/su_mean         0.009
_refine_ls_structure_factor_coef Fsqd
_refine_ls_weighting_details
'calc w=1/[\s^2^(Fo^2^)+(0.0477P)^2^+0.2001P] where P=(Fo^2^+2Fc^2^)/3'
_refine_ls_weighting_scheme      calc
_refine_ls_wR_factor_gt          0.0978
_refine_ls_wR_factor_ref         0.1039
_reflns_number_gt                2484
_reflns_number_total             3100
_reflns_threshold_expression     >2sigma(I)
_cod_data_source_file            ja072737vsi20070419_092326.cif
_cod_data_source_block           porco74
_cod_database_code               4109581
loop_
_symmetry_equiv_pos_as_xyz
'x, y, z'
'-x, -y, -z'
loop_
_atom_site_label
_atom_site_type_symbol
_atom_site_fract_x
_atom_site_fract_y
_atom_site_fract_z
_atom_site_U_iso_or_equiv
_atom_site_adp_type
_atom_site_occupancy
_atom_site_symmetry_multiplicity
_atom_site_calc_flag
O1 O 0.28282(9) 0.47286(8) -0.28903(6) 0.02970(18) Uani 1 1 d
O2 O -0.02469(10) 0.31954(9) -0.39360(7) 0.03439(19) Uani 1 1 d
O3 O 0.27439(10) 0.46371(8) 0.29640(6) 0.03120(19) Uani 1 1 d
O4 O 0.34954(9) 0.67935(8) 0.22768(6) 0.02805(18) Uani 1 1 d
N1 N -0.00201(10) 0.22457(9) -0.14301(7) 0.02049(18) Uani 1 1 d
C1 C 0.12552(12) 0.35237(11) -0.16400(9) 0.0221(2) Uani 1 1 d
C2 C 0.22954(12) 0.47331(11) -0.04010(9) 0.0229(2) Uani 1 1 d
H2 H 0.3268(14) 0.5755(12) -0.0258(10) 0.030(3) Uiso 1 1 d
C3 C 0.16838(12) 0.42502(10) 0.05987(9) 0.0209(2) Uani 1 1 d
C4 C 0.02038(12) 0.27033(10) -0.00512(8) 0.0193(2) Uani 1 1 d
C5 C -0.10685(11) 0.16225(10) 0.03922(9) 0.0208(2) Uani 1 1 d
C6 C -0.12075(13) 0.20849(11) 0.16957(10) 0.0255(2) Uani 1 1 d
H6 H -0.0426(13) 0.3160(12) 0.2328(10) 0.022(3) Uiso 1 1 d
C7 C -0.24372(14) 0.09780(12) 0.20512(10) 0.0310(2) Uani 1 1 d
H7 H -0.2506(15) 0.1330(14) 0.2947(12) 0.036(3) Uiso 1 1 d
C8 C -0.35463(14) -0.06185(12) 0.11493(11) 0.0327(3) Uani 1 1 d
H8 H -0.4389(17) -0.1419(15) 0.1441(12) 0.050(4) Uiso 1 1 d
C9 C -0.34546(13) -0.10853(11) -0.01291(11) 0.0290(2) Uani 1 1 d
H9 H -0.4274(14) -0.2233(13) -0.0797(11) 0.032(3) Uiso 1 1 d
C10 C -0.22498(12) 0.00323(11) -0.05386(9) 0.0233(2) Uani 1 1 d
C11 C -0.21566(13) -0.04294(11) -0.18725(10) 0.0257(2) Uani 1 1 d
H1 H -0.2881(13) -0.1603(12) -0.2463(10) 0.022(3) Uiso 1 1 d
C12 C -0.10892(12) 0.06226(11) -0.23209(9) 0.0235(2) Uani 1 1 d
C13 C -0.08672(15) 0.00815(13) -0.36697(10) 0.0316(3) Uani 1 1 d
H13C H -0.1512(16) 0.0422(15) -0.4367(12) 0.043(3) Uiso 1 1 d
H13B H -0.1435(15) -0.1173(14) -0.4014(12) 0.038(3) Uiso 1 1 d
H13A H 0.0450(16) 0.0516(14) -0.3583(12) 0.040(3) Uiso 1 1 d
C14 C 0.11445(13) 0.37367(11) -0.29496(9) 0.0238(2) Uani 1 1 d
C15 C 0.28433(16) 0.51745(13) -0.40808(10) 0.0357(3) Uani 1 1 d
H15C H 0.1982(16) 0.5678(14) -0.4242(12) 0.040(3) Uiso 1 1 d
H15B H 0.2394(18) 0.4169(16) -0.4883(13) 0.054(4) Uiso 1 1 d
H15A H 0.4141(18) 0.5881(16) -0.3901(13) 0.053(4) Uiso 1 1 d
C16 C 0.26360(12) 0.51852(11) 0.20567(9) 0.0226(2) Uani 1 1 d
C17 C 0.45742(16) 0.78044(13) 0.36719(11) 0.0357(3) Uani 1 1 d
H17C H 0.3775(17) 0.7687(15) 0.4204(12) 0.044(4) Uiso 1 1 d
H17B H 0.5109(17) 0.8938(16) 0.3664(12) 0.050(4) Uiso 1 1 d
H17A H 0.5632(19) 0.7468(16) 0.3991(13) 0.057(4) Uiso 1 1 d
loop_
_atom_site_aniso_label
_atom_site_aniso_U_11
_atom_site_aniso_U_22
_atom_site_aniso_U_33
_atom_site_aniso_U_23
_atom_site_aniso_U_13
_atom_site_aniso_U_12
O1 0.0319(3) 0.0389(3) 0.0221(3) 0.0178(2) 0.0136(2) 0.0105(3)
O2 0.0345(3) 0.0416(3) 0.0242(3) 0.0175(3) 0.0058(3) 0.0104(3)
O3 0.0381(3) 0.0319(3) 0.0192(3) 0.0115(2) 0.0087(3) 0.0075(3)
O4 0.0309(3) 0.0216(3) 0.0213(3) 0.0046(2) 0.0068(3) 0.0017(3)
N1 0.0224(3) 0.0224(3) 0.0173(3) 0.0084(3) 0.0073(3) 0.0085(3)
C1 0.0246(4) 0.0243(4) 0.0203(4) 0.0110(3) 0.0102(3) 0.0091(3)
C2 0.0243(4) 0.0234(4) 0.0209(4) 0.0099(3) 0.0090(3) 0.0070(3)
C3 0.0235(4) 0.0225(4) 0.0188(4) 0.0097(3) 0.0089(3) 0.0088(3)
C4 0.0219(3) 0.0223(3) 0.0168(4) 0.0087(3) 0.0082(3) 0.0104(3)
C5 0.0206(3) 0.0241(4) 0.0236(4) 0.0124(3) 0.0099(3) 0.0115(3)
C6 0.0271(4) 0.0280(4) 0.0266(4) 0.0132(3) 0.0132(3) 0.0116(3)
C7 0.0350(4) 0.0365(4) 0.0331(4) 0.0191(4) 0.0207(4) 0.0170(4)
C8 0.0304(4) 0.0326(4) 0.0456(5) 0.0236(4) 0.0203(4) 0.0129(4)
C9 0.0240(4) 0.0255(4) 0.0392(5) 0.0151(4) 0.0119(4) 0.0085(3)
C10 0.0202(4) 0.0243(4) 0.0288(4) 0.0129(3) 0.0081(3) 0.0104(3)
C11 0.0242(4) 0.0223(4) 0.0254(4) 0.0063(3) 0.0047(3) 0.0072(3)
C12 0.0241(4) 0.0236(4) 0.0194(4) 0.0058(3) 0.0043(3) 0.0090(3)
C13 0.0385(5) 0.0305(5) 0.0188(4) 0.0048(4) 0.0072(4) 0.0101(4)
C14 0.0305(4) 0.0258(4) 0.0193(4) 0.0102(3) 0.0119(3) 0.0123(3)
C15 0.0424(5) 0.0444(5) 0.0271(4) 0.0225(4) 0.0170(4) 0.0146(4)
C16 0.0216(4) 0.0232(4) 0.0217(4) 0.0070(3) 0.0100(3) 0.0061(3)
C17 0.0365(5) 0.0270(5) 0.0245(5) -0.0010(4) 0.0062(4) -0.0001(4)
loop_
_atom_type_symbol
_atom_type_description
_atom_type_scat_dispersion_real
_atom_type_scat_dispersion_imag
_atom_type_scat_source
C C 0.0033 0.0016 'International Tables Vol C Tables 4.2.6.8 and 6.1.1.4'
H H 0.0000 0.0000 'International Tables Vol C Tables 4.2.6.8 and 6.1.1.4'
N N 0.0061 0.0033 'International Tables Vol C Tables 4.2.6.8 and 6.1.1.4'
O O 0.0106 0.0060 'International Tables Vol C Tables 4.2.6.8 and 6.1.1.4'
loop_
_geom_angle_atom_site_label_1
_geom_angle_atom_site_label_2
_geom_angle_atom_site_label_3
_geom_angle
C14 O1 C15 115.00(7)
C16 O4 C17 114.83(8)
C4 N1 C1 108.73(6)
C4 N1 C12 121.44(8)
C1 N1 C12 128.48(8)
C2 C1 N1 107.47(8)
C2 C1 C14 124.80(8)
N1 C1 C14 125.63(7)
C1 C2 C3 109.21(8)
C2 C3 C4 107.51(7)
C2 C3 C16 123.18(7)
C4 C3 C16 128.98(9)
N1 C4 C3 107.03(8)
N1 C4 C5 118.62(7)
C3 C4 C5 134.30(8)
C6 C5 C10 118.65(9)
C6 C5 C4 123.39(7)
C10 C5 C4 117.96(8)
C7 C6 C5 120.03(8)
C6 C7 C8 121.24(10)
C9 C8 C7 119.66(10)
C8 C9 C10 120.52(8)
C9 C10 C5 119.80(9)
C9 C10 C11 121.17(8)
C5 C10 C11 119.00(9)
C12 C11 C10 122.90(8)
C11 C12 N1 118.20(9)
C11 C12 C13 122.07(8)
N1 C12 C13 119.45(8)
O2 C14 O1 123.11(9)
O2 C14 C1 126.61(9)
O1 C14 C1 110.17(7)
O3 C16 O4 122.66(8)
O3 C16 C3 126.72(8)
O4 C16 C3 110.54(8)
loop_
_geom_bond_atom_site_label_1
_geom_bond_atom_site_label_2
_geom_bond_distance
O1 C14 1.3433(11)
O1 C15 1.4483(13)
O2 C14 1.2064(11)
O3 C16 1.2095(12)
O4 C16 1.3493(11)
O4 C17 1.4376(11)
N1 C4 1.3961(12)
N1 C1 1.3986(12)
N1 C12 1.4048(11)
C1 C2 1.3679(11)
C1 C14 1.4651(13)
C2 C3 1.3994(14)
C3 C4 1.4004(11)
C3 C16 1.4667(12)
C4 C5 1.4426(13)
C5 C6 1.4100(14)
C5 C10 1.4096(11)
C6 C7 1.3751(14)
C7 C8 1.3953(13)
C8 C9 1.3694(16)
C9 C10 1.4079(14)
C10 C11 1.4264(14)
C11 C12 1.3440(14)
C12 C13 1.4920(15)
loop_
_cod_related_entry_id
_cod_related_entry_database
_cod_related_entry_code
1 ChemSpider 26394312
