#------------------------------------------------------------------------------
#$Date: 2016-03-22 10:37:57 +0200 (Tue, 22 Mar 2016) $
#$Revision: 178878 $
#$URL: svn://www.crystallography.net/cod/cif/4/11/07/4110764.cif $
#------------------------------------------------------------------------------
#
# This file is available in the Crystallography Open Database (COD),
# http://www.crystallography.net/
#
# All data on this site have been placed in the public domain by the
# contributors.
#
data_4110764
loop_
_publ_author_name
'Guillermo M\'inguez Espallargas'
'Lee Brammer'
'Jacco van de Streek'
'Kenneth Shankland'
'Alastair J. Florence'
'Harry Adams'
_publ_contact_author_address
; 
     Dept. of Chemistry
     University of Sheffield
     Sheffield, S3 7HF 
     UK
;
_publ_contact_author_email       lee.brammer@sheffield.ac.uk
_publ_contact_author_fax         '+44 114 222 9346'
_publ_contact_author_name        'Lee Brammer'
_publ_contact_author_phone       '+44 141 222 9536'
_publ_section_title
;
 Reversible Extrusion and Uptake of HCl Molecules by Crystalline Solids
 Involving Coordination Bond Cleavage and Formation
;
_journal_name_full               'Journal of the American Chemical Society'
_journal_page_first              9584
_journal_page_last               9585
_journal_paper_doi               10.1021/ja0625733
_journal_volume                  128
_journal_year                    2006
_chemical_formula_moiety         '2(C5 H5 Br N), Cl4 Cu'
_chemical_formula_sum            'C10 H10 Br2 Cl4 Cu N2'
_chemical_formula_weight         523.36
_chemical_name_systematic
; 
 ? 
;
_space_group_IT_number           2
_symmetry_cell_setting           triclinic
_symmetry_space_group_name_Hall  '-P 1'
_symmetry_space_group_name_H-M   'P -1'
_atom_sites_solution_hydrogens   geom
_atom_sites_solution_primary     direct
_atom_sites_solution_secondary   difmap
_audit_creation_method           SHELXL-97
_cell_angle_alpha                82.064(4)
_cell_angle_beta                 78.890(4)
_cell_angle_gamma                67.093(4)
_cell_formula_units_Z            2
_cell_length_a                   7.5702(5)
_cell_length_b                   7.8282(6)
_cell_length_c                   15.5620(11)
_cell_measurement_reflns_used    3468
_cell_measurement_temperature    298(2)
_cell_measurement_theta_max      23.79
_cell_measurement_theta_min      2.96
_cell_volume                     831.54(11)
_computing_cell_refinement       'Bruker SMART'
_computing_data_collection       'Bruker SMART KAPPA APEX II'
_computing_data_reduction        'Bruker SAINT'
_computing_molecular_graphics    'Bruker SHELXTL'
_computing_publication_material  'Bruker SHELXTL'
_computing_structure_refinement  'SHELXL-97 (Sheldrick, 1997)'
_computing_structure_solution    'SHELXS-97 (Sheldrick, 1990)'
_diffrn_ambient_temperature      298(2)
_diffrn_detector_area_resol_mean 100
_diffrn_measured_fraction_theta_full 0.977
_diffrn_measured_fraction_theta_max 0.977
_diffrn_measurement_device_type  'CCD area detector'
_diffrn_measurement_method       'phi and omega scans'
_diffrn_radiation_monochromator  graphite
_diffrn_radiation_source         'fine-focus sealed tube'
_diffrn_radiation_type           MoK\a
_diffrn_radiation_wavelength     0.71073
_diffrn_reflns_av_R_equivalents  0.0576
_diffrn_reflns_av_sigmaI/netI    0.0558
_diffrn_reflns_limit_h_max       10
_diffrn_reflns_limit_h_min       -10
_diffrn_reflns_limit_k_max       11
_diffrn_reflns_limit_k_min       -11
_diffrn_reflns_limit_l_max       22
_diffrn_reflns_limit_l_min       -22
_diffrn_reflns_number            23552
_diffrn_reflns_theta_full        30.63
_diffrn_reflns_theta_max         30.63
_diffrn_reflns_theta_min         1.34
_diffrn_standards_decay_%        0
_diffrn_standards_number         0
_exptl_absorpt_coefficient_mu    6.747
_exptl_absorpt_correction_T_max  0.6495
_exptl_absorpt_correction_T_min  0.3184
_exptl_absorpt_correction_type   multi-scan
_exptl_absorpt_process_details   SADABS
_exptl_crystal_colour            yellow
_exptl_crystal_density_diffrn    2.090
_exptl_crystal_description       block
_exptl_crystal_F_000             502
_exptl_crystal_size_max          0.22
_exptl_crystal_size_mid          0.11
_exptl_crystal_size_min          0.07
_refine_diff_density_max         1.340
_refine_diff_density_min         -0.832
_refine_diff_density_rms         0.165
_refine_ls_extinction_method     none
_refine_ls_goodness_of_fit_ref   0.994
_refine_ls_hydrogen_treatment    constr
_refine_ls_matrix_type           full
_refine_ls_number_parameters     172
_refine_ls_number_reflns         5018
_refine_ls_number_restraints     0
_refine_ls_restrained_S_all      0.994
_refine_ls_R_factor_all          0.1067
_refine_ls_R_factor_gt           0.0557
_refine_ls_shift/su_max          0.000
_refine_ls_shift/su_mean         0.000
_refine_ls_structure_factor_coef Fsqd
_refine_ls_weighting_details
'calc w=1/[\s^2^(Fo^2^)+(0.0930P)^2^+0.0000P] where P=(Fo^2^+2Fc^2^)/3'
_refine_ls_weighting_scheme      calc
_refine_ls_wR_factor_gt          0.1380
_refine_ls_wR_factor_ref         0.1657
_reflns_number_gt                2919
_reflns_number_total             5018
_reflns_threshold_expression     >2sigma(I)
_cod_data_source_file            ja0625733si20060413_052843.cif
_cod_data_source_block           ilb808m
_cod_original_cell_volume        831.54(10)
_cod_database_code               4110764
loop_
_symmetry_equiv_pos_as_xyz
'x, y, z'
'-x, -y, -z'
loop_
_atom_site_label
_atom_site_type_symbol
_atom_site_fract_x
_atom_site_fract_y
_atom_site_fract_z
_atom_site_U_iso_or_equiv
_atom_site_adp_type
_atom_site_occupancy
_atom_site_symmetry_multiplicity
_atom_site_calc_flag
_atom_site_refinement_flags
Cu1 Cu 0.31996(8) 0.86409(8) 0.27651(4) 0.03809(18) Uani 1 1 d .
Cl1 Cl 0.27405(19) 1.10791(18) 0.17731(9) 0.0460(3) Uani 1 1 d .
Cl2 Cl 0.40613(19) 0.7514(2) 0.40820(9) 0.0552(4) Uani 1 1 d .
Cl3 Cl -0.00514(18) 0.9372(2) 0.32677(9) 0.0572(4) Uani 1 1 d .
Cl4 Cl 0.5653(2) 0.6566(2) 0.19594(9) 0.0540(4) Uani 1 1 d .
N11 N 0.1539(6) 0.8846(6) -0.1471(3) 0.0469(11) Uani 1 1 d .
H11 H 0.1116 0.8987 -0.1974 0.056 Uiso 1 1 calc R
C12 C 0.1567(7) 0.7357(7) -0.0946(4) 0.0430(12) Uani 1 1 d .
H12 H 0.1152 0.6465 -0.1110 0.052 Uiso 1 1 calc R
C13 C 0.2216(7) 0.7141(7) -0.0154(3) 0.0390(11) Uani 1 1 d .
Br13 Br 0.22859(9) 0.50107(9) 0.05982(4) 0.0585(2) Uani 1 1 d .
C14 C 0.2817(8) 0.8436(8) 0.0081(4) 0.0461(12) Uani 1 1 d .
H14 H 0.3254 0.8294 0.0629 0.055 Uiso 1 1 calc R
C15 C 0.2768(8) 0.9935(8) -0.0497(4) 0.0529(14) Uani 1 1 d .
H15 H 0.3192 1.0837 -0.0352 0.063 Uiso 1 1 calc R
C16 C 0.2110(8) 1.0151(8) -0.1286(4) 0.0505(13) Uani 1 1 d .
H16 H 0.2065 1.1194 -0.1687 0.061 Uiso 1 1 calc R
N21 N -0.0254(7) 0.2838(6) 0.4751(3) 0.0512(11) Uani 1 1 d .
H21 H -0.0829 0.2411 0.5229 0.061 Uiso 1 1 calc R
C22 C 0.1689(7) 0.2209(8) 0.4606(3) 0.0444(12) Uani 1 1 d .
H22 H 0.2432 0.1316 0.5006 0.053 Uiso 1 1 calc R
C23 C 0.2577(7) 0.2889(7) 0.3863(3) 0.0404(11) Uani 1 1 d .
Br23 Br 0.53143(8) 0.19297(9) 0.36402(4) 0.0578(2) Uani 1 1 d .
C24 C 0.1515(8) 0.4196(8) 0.3294(4) 0.0497(13) Uani 1 1 d .
H24 H 0.2142 0.4690 0.2791 0.060 Uiso 1 1 calc R
C25 C -0.0488(9) 0.4794(8) 0.3457(4) 0.0570(15) Uani 1 1 d .
H25 H -0.1255 0.5679 0.3062 0.068 Uiso 1 1 calc R
C26 C -0.1354(8) 0.4079(8) 0.4206(4) 0.0546(15) Uani 1 1 d .
H26 H -0.2727 0.4473 0.4332 0.065 Uiso 1 1 calc R
loop_
_atom_site_aniso_label
_atom_site_aniso_U_11
_atom_site_aniso_U_22
_atom_site_aniso_U_33
_atom_site_aniso_U_23
_atom_site_aniso_U_13
_atom_site_aniso_U_12
Cu1 0.0377(3) 0.0381(3) 0.0317(3) 0.0038(2) -0.0065(2) -0.0084(2)
Cl1 0.0528(7) 0.0406(7) 0.0419(7) 0.0090(5) -0.0113(6) -0.0164(5)
Cl2 0.0447(7) 0.0694(9) 0.0368(7) 0.0093(6) -0.0119(5) -0.0071(6)
Cl3 0.0357(7) 0.0803(10) 0.0421(7) 0.0189(7) -0.0079(5) -0.0138(6)
Cl4 0.0542(8) 0.0472(7) 0.0448(7) -0.0066(6) -0.0022(6) -0.0033(6)
N11 0.046(2) 0.053(3) 0.035(2) 0.002(2) -0.0103(19) -0.010(2)
C12 0.042(3) 0.042(3) 0.045(3) -0.004(2) -0.013(2) -0.012(2)
C13 0.036(2) 0.040(3) 0.037(3) 0.002(2) -0.007(2) -0.011(2)
Br13 0.0616(4) 0.0546(4) 0.0578(4) 0.0173(3) -0.0182(3) -0.0227(3)
C14 0.045(3) 0.055(3) 0.037(3) 0.002(2) -0.013(2) -0.016(2)
C15 0.044(3) 0.053(3) 0.062(4) 0.002(3) -0.010(3) -0.019(3)
C16 0.045(3) 0.050(3) 0.049(3) 0.008(3) -0.004(2) -0.014(2)
N21 0.051(3) 0.051(3) 0.046(3) 0.002(2) 0.000(2) -0.018(2)
C22 0.041(3) 0.050(3) 0.037(3) 0.004(2) -0.008(2) -0.013(2)
C23 0.039(3) 0.043(3) 0.038(3) -0.006(2) -0.008(2) -0.011(2)
Br23 0.0412(3) 0.0780(5) 0.0516(4) -0.0035(3) -0.0056(2) -0.0204(3)
C24 0.057(3) 0.050(3) 0.037(3) 0.006(2) -0.008(2) -0.017(3)
C25 0.058(4) 0.048(3) 0.060(4) 0.004(3) -0.026(3) -0.010(3)
C26 0.041(3) 0.056(4) 0.065(4) -0.013(3) -0.005(3) -0.014(3)
loop_
_atom_type_symbol
_atom_type_description
_atom_type_scat_dispersion_real
_atom_type_scat_dispersion_imag
_atom_type_scat_source
C C 0.0033 0.0016 'International Tables Vol C Tables 4.2.6.8 and 6.1.1.4'
H H 0.0000 0.0000 'International Tables Vol C Tables 4.2.6.8 and 6.1.1.4'
N N 0.0061 0.0033 'International Tables Vol C Tables 4.2.6.8 and 6.1.1.4'
Cl Cl 0.1484 0.1585 'International Tables Vol C Tables 4.2.6.8 and 6.1.1.4'
Cu Cu 0.3201 1.2651 'International Tables Vol C Tables 4.2.6.8 and 6.1.1.4'
Br Br -0.2901 2.4595 'International Tables Vol C Tables 4.2.6.8 and 6.1.1.4'
loop_
_geom_angle_atom_site_label_1
_geom_angle_atom_site_label_2
_geom_angle_atom_site_label_3
_geom_angle
Cl2 Cu1 Cl4 98.17(6)
Cl2 Cu1 Cl1 144.59(6)
Cl4 Cu1 Cl1 97.62(6)
Cl2 Cu1 Cl3 93.63(5)
Cl4 Cu1 Cl3 139.72(7)
Cl1 Cu1 Cl3 94.48(5)
C12 N11 C16 124.3(5)
C12 N11 H11 117.8
C16 N11 H11 117.8
N11 C12 C13 117.9(5)
N11 C12 H12 121.1
C13 C12 H12 121.1
C14 C13 C12 120.9(5)
C14 C13 Br13 120.6(4)
C12 C13 Br13 118.4(4)
C15 C14 C13 118.1(5)
C15 C14 H14 121.0
C13 C14 H14 121.0
C14 C15 C16 120.9(6)
C14 C15 H15 119.6
C16 C15 H15 119.6
N11 C16 C15 117.9(5)
N11 C16 H16 121.1
C15 C16 H16 121.1
C26 N21 C22 123.0(5)
C26 N21 H21 118.5
C22 N21 H21 118.5
N21 C22 C23 118.2(5)
N21 C22 H22 120.9
C23 C22 H22 120.9
C24 C23 C22 121.0(5)
C24 C23 Br23 121.0(4)
C22 C23 Br23 118.0(4)
C23 C24 C25 119.2(5)
C23 C24 H24 120.4
C25 C24 H24 120.4
C26 C25 C24 118.8(5)
C26 C25 H25 120.6
C24 C25 H25 120.6
N21 C26 C25 119.7(5)
N21 C26 H26 120.2
C25 C26 H26 120.2
loop_
_geom_bond_atom_site_label_1
_geom_bond_atom_site_label_2
_geom_bond_distance
Cu1 Cl2 2.2295(14)
Cu1 Cl4 2.2309(14)
Cu1 Cl1 2.2414(14)
Cu1 Cl3 2.2982(14)
N11 C12 1.323(7)
N11 C16 1.336(7)
N11 H11 0.8800
C12 C13 1.379(7)
C12 H12 0.9500
C13 C14 1.376(7)
C13 Br13 1.890(5)
C14 C15 1.370(8)
C14 H14 0.9500
C15 C16 1.377(8)
C15 H15 0.9500
C16 H16 0.9500
N21 C26 1.331(8)
N21 C22 1.340(7)
N21 H21 0.8800
C22 C23 1.372(7)
C22 H22 0.9500
C23 C24 1.364(7)
C23 Br23 1.887(5)
C24 C25 1.384(8)
C24 H24 0.9500
C25 C26 1.383(9)
C25 H25 0.9500
C26 H26 0.9500
