#------------------------------------------------------------------------------
#$Date: 2017-10-13 14:42:48 +0300 (Fri, 13 Oct 2017) $
#$Revision: 201982 $
#$URL: file:///home/coder/svn-repositories/cod/cif/4/11/06/4110616.cif $
#------------------------------------------------------------------------------
#
# This file is available in the Crystallography Open Database (COD),
# http://www.crystallography.net/
#
# All data on this site have been placed in the public domain by the
# contributors.
#
data_4110616
loop_
_publ_author_name
'Naokazu Kano'
'Fuminori Komatsu'
'Masaki Yamamura'
'Takayuki Kawashima'
_publ_contact_author_address
;
Department of Chemistry, Graduate School of Science,
The University of Tokyo,
7-3-1 Hongo, Bunkyo-ku, Tokyo, 113-0033, Japan
;
_publ_contact_author_email       takayuki@chem.s.u-tokyo.ac.jp
_publ_contact_author_fax         +81-5800-6899
_publ_contact_author_name        'Takayuki Kawashima'
_publ_contact_author_phone       +81-5800-6899
_publ_section_title
;
 Reversible Photoswitching of the Coordination Numbers of Silicon in
 Organosilicon Compounds Bearing a 2-(Phenylazo)phenyl Group
;
_journal_name_full               'Journal of the American Chemical Society'
_journal_page_first              7097
_journal_page_last               7109
_journal_paper_doi               10.1021/ja060926s
_journal_volume                  128
_journal_year                    2006
_chemical_formula_moiety         'C18 H14 F2 N2 Si'
_chemical_formula_sum            'C18 H14 F2 N2 Si'
_chemical_formula_weight         324.40
_chemical_melting_point          355(1)
_chemical_name_common            Difluorophenylsilane
_chemical_name_systematic
; 
Fluorodiphenyl[2-(phenylazo)phenyl]silane
;
_space_group_IT_number           2
_symmetry_cell_setting           triclinic
_symmetry_space_group_name_Hall  '-P 1'
_symmetry_space_group_name_H-M   'P -1'
_atom_sites_solution_hydrogens   geom
_atom_sites_solution_primary     direct
_atom_sites_solution_secondary   difmap
_audit_creation_method           SHELXL-97
_cell_angle_alpha                105.729(8)
_cell_angle_beta                 107.023(8)
_cell_angle_gamma                93.714(7)
_cell_formula_units_Z            2
_cell_length_a                   8.502(6)
_cell_length_b                   9.120(7)
_cell_length_c                   11.061(8)
_cell_measurement_reflns_used    2022
_cell_measurement_temperature    120(2)
_cell_measurement_theta_max      27.4835
_cell_measurement_theta_min      3.1779
_cell_volume                     779.6(10)
_computing_cell_refinement       'CrystalClear (Rigaku Corp., 2000)'
_computing_data_collection       'CrystalClear (Rigaku Corp., 2000)'
_computing_data_reduction        'CrystalClear (Rigaku Corp., 2000)'
_computing_molecular_graphics
'ORTEP-3 for Windows ver 1.08 (Farrugia, 1997-2005)'
_computing_structure_refinement  'SHELXL-97 (Sheldrick, 1997)'
_computing_structure_solution    'SHELXS-97 (Sheldrick, 1990)'
_diffrn_ambient_temperature      120(2)
_diffrn_detector_area_resol_mean 14.5666
_diffrn_measured_fraction_theta_full 0.971
_diffrn_measured_fraction_theta_max 0.971
_diffrn_measurement_details
;
scan:
    Number of images: 600
               Slice: -70.0000 - 110.0000
         Image width: 0.3000
            Exp time: 18.0000
       Rotation axis: Omega
               Omega: 0.0000
                 Chi: 45.0000
                 Phi: 0.0000
                 XTD: 45.1748
              2theta: 19.7881
scan:
    Number of images: 600
               Slice: -70.0000 - 110.0000
         Image width: 0.3000
            Exp time: 18.0000
       Rotation axis: Omega
               Omega: 0.0000
                 Chi: 45.0000
                 Phi: 90.0000
                 XTD: 45.1748
              2theta: 19.7881

;
_diffrn_measurement_device
;
Mercury CCD (2x2 bin mode)
;
_diffrn_measurement_device_details
;
AFC8: Eulerian 3-circle
;
_diffrn_measurement_method       dtprofit.ref
_diffrn_orient_matrix_type       d*Trek
_diffrn_orient_matrix_UB_11      0.0883
_diffrn_orient_matrix_UB_12      -0.0595
_diffrn_orient_matrix_UB_13      -0.0645
_diffrn_orient_matrix_UB_21      -0.0624
_diffrn_orient_matrix_UB_22      -0.0894
_diffrn_orient_matrix_UB_23      -0.0377
_diffrn_orient_matrix_UB_31      -0.0165
_diffrn_orient_matrix_UB_32      0.0135
_diffrn_orient_matrix_UB_33      -0.0969
_diffrn_radiation_detector       CCD
_diffrn_radiation_monochromator  graphite
_diffrn_radiation_source         'fine-focus sealed tube'
_diffrn_radiation_type           MoK\a
_diffrn_radiation_wavelength     0.71070
_diffrn_reflns_av_R_equivalents  0.0150
_diffrn_reflns_av_sigmaI/netI    0.0368
_diffrn_reflns_limit_h_max       8
_diffrn_reflns_limit_h_min       -10
_diffrn_reflns_limit_k_max       10
_diffrn_reflns_limit_k_min       -10
_diffrn_reflns_limit_l_max       13
_diffrn_reflns_limit_l_min       -11
_diffrn_reflns_number            4999
_diffrn_reflns_reduction_process 'Lp corrections applied'
_diffrn_reflns_theta_full        25.00
_diffrn_reflns_theta_max         25.00
_diffrn_reflns_theta_min         3.18
_diffrn_source_current           40.0000
_diffrn_source_power             2.0000
_diffrn_source_voltage           50.0000
_exptl_absorpt_coefficient_mu    0.171
_exptl_absorpt_correction_T_max  0.9915
_exptl_absorpt_correction_T_min  0.9346
_exptl_absorpt_correction_type   multi-scan
_exptl_absorpt_process_details
;
Jacobson, R. (1998) Private communication
;
_exptl_crystal_colour            Yellow
_exptl_crystal_density_diffrn    1.382
_exptl_crystal_description       Block
_exptl_crystal_F_000             336
_exptl_crystal_size_max          0.35
_exptl_crystal_size_mid          0.25
_exptl_crystal_size_min          0.05
_refine_diff_density_max         0.272
_refine_diff_density_min         -0.263
_refine_diff_density_rms         0.040
_refine_ls_extinction_method     none
_refine_ls_goodness_of_fit_ref   1.044
_refine_ls_hydrogen_treatment    riding
_refine_ls_matrix_type           full
_refine_ls_number_parameters     208
_refine_ls_number_reflns         2659
_refine_ls_number_restraints     0
_refine_ls_restrained_S_all      1.044
_refine_ls_R_factor_all          0.0394
_refine_ls_R_factor_gt           0.0312
_refine_ls_shift/su_max          0.000
_refine_ls_shift/su_mean         0.000
_refine_ls_structure_factor_coef Fsqd
_refine_ls_weighting_details
'calc w=1/[\s^2^(Fo^2^)+(0.0409P)^2^+0.0893P] where P=(Fo^2^+2Fc^2^)/3'
_refine_ls_weighting_scheme      calc
_refine_ls_wR_factor_gt          0.0790
_refine_ls_wR_factor_ref         0.0838
_reflns_number_gt                2209
_reflns_number_total             2659
_reflns_threshold_expression     >2sigma(I)
_cod_data_source_file            ja060926ssi20060208_062357.cif
_cod_data_source_block           E4g
_cod_database_code               4110616
loop_
_symmetry_equiv_pos_as_xyz
'x, y, z'
'-x, -y, -z'
loop_
_atom_site_label
_atom_site_type_symbol
_atom_site_fract_x
_atom_site_fract_y
_atom_site_fract_z
_atom_site_U_iso_or_equiv
_atom_site_adp_type
_atom_site_occupancy
_atom_site_symmetry_multiplicity
_atom_site_calc_flag
_atom_site_refinement_flags
Si1 Si 0.12213(5) 0.19650(5) 0.30734(4) 0.02152(14) Uani 1 1 d .
F1 F 0.05392(11) 0.35866(10) 0.30936(9) 0.0284(2) Uani 1 1 d .
F2 F -0.02610(10) 0.08833(10) 0.18322(8) 0.0262(2) Uani 1 1 d .
C1 C 0.13877(18) 0.19559(17) 0.47805(15) 0.0209(3) Uani 1 1 d .
C2 C 0.09273(19) 0.31144(18) 0.56585(16) 0.0244(4) Uani 1 1 d .
H1 H 0.0449 0.3920 0.5364 0.029 Uiso 1 1 calc R
C3 C 0.1150(2) 0.31223(19) 0.69581(16) 0.0286(4) Uani 1 1 d .
H2 H 0.0805 0.3916 0.7533 0.034 Uiso 1 1 calc R
C4 C 0.1874(2) 0.19773(19) 0.74131(16) 0.0294(4) Uani 1 1 d .
H3 H 0.2043 0.1996 0.8305 0.035 Uiso 1 1 calc R
C5 C 0.2353(2) 0.08044(19) 0.65735(15) 0.0264(4) Uani 1 1 d .
H4 H 0.2854 0.0015 0.6881 0.032 Uiso 1 1 calc R
C6 C 0.20899(19) 0.08000(17) 0.52735(15) 0.0218(3) Uani 1 1 d .
N1 N 0.25231(15) -0.04786(15) 0.44368(12) 0.0227(3) Uani 1 1 d .
N2 N 0.20698(15) -0.04702(14) 0.32482(12) 0.0205(3) Uani 1 1 d .
C7 C 0.24187(19) -0.17561(17) 0.23499(15) 0.0212(3) Uani 1 1 d .
C8 C 0.3589(2) -0.26603(19) 0.27690(17) 0.0288(4) Uani 1 1 d .
H5 H 0.4225 -0.2414 0.3681 0.035 Uiso 1 1 calc R
C9 C 0.3821(2) -0.3914(2) 0.18545(17) 0.0343(4) Uani 1 1 d .
H6 H 0.4629 -0.4528 0.2138 0.041 Uiso 1 1 calc R
C10 C 0.2894(2) -0.4289(2) 0.05321(17) 0.0335(4) Uani 1 1 d .
H7 H 0.3054 -0.5164 -0.0093 0.040 Uiso 1 1 calc R
C11 C 0.1729(2) -0.3386(2) 0.01192(16) 0.0330(4) Uani 1 1 d .
H8 H 0.1082 -0.3647 -0.0791 0.040 Uiso 1 1 calc R
C12 C 0.1502(2) -0.21085(19) 0.10208(16) 0.0276(4) Uani 1 1 d .
H9 H 0.0722 -0.1475 0.0731 0.033 Uiso 1 1 calc R
C13 C 0.31895(19) 0.22379(17) 0.27086(15) 0.0216(4) Uani 1 1 d .
C14 C 0.4609(2) 0.30514(19) 0.37495(17) 0.0285(4) Uani 1 1 d .
H10 H 0.4536 0.3449 0.4615 0.034 Uiso 1 1 calc R
C15 C 0.6126(2) 0.3292(2) 0.3549(2) 0.0386(5) Uani 1 1 d .
H11 H 0.7085 0.3832 0.4275 0.046 Uiso 1 1 calc R
C16 C 0.6240(2) 0.2745(2) 0.2290(2) 0.0409(5) Uani 1 1 d .
H12 H 0.7277 0.2917 0.2149 0.049 Uiso 1 1 calc R
C17 C 0.4855(2) 0.1953(2) 0.1240(2) 0.0382(5) Uani 1 1 d .
H13 H 0.4934 0.1586 0.0373 0.046 Uiso 1 1 calc R
C18 C 0.3340(2) 0.16886(19) 0.14475(17) 0.0302(4) Uani 1 1 d .
H14 H 0.2392 0.1126 0.0720 0.036 Uiso 1 1 calc R
loop_
_atom_site_aniso_label
_atom_site_aniso_U_11
_atom_site_aniso_U_22
_atom_site_aniso_U_33
_atom_site_aniso_U_23
_atom_site_aniso_U_13
_atom_site_aniso_U_12
Si1 0.0203(3) 0.0245(3) 0.0202(2) 0.00902(18) 0.00500(19) 0.00401(18)
F1 0.0303(5) 0.0295(5) 0.0303(5) 0.0148(4) 0.0104(4) 0.0110(4)
F2 0.0217(5) 0.0312(5) 0.0231(5) 0.0100(4) 0.0021(4) 0.0037(4)
C1 0.0179(8) 0.0218(8) 0.0209(8) 0.0067(6) 0.0042(7) -0.0013(6)
C2 0.0244(9) 0.0213(8) 0.0274(9) 0.0075(7) 0.0087(7) 0.0003(7)
C3 0.0338(10) 0.0242(9) 0.0248(9) 0.0015(7) 0.0119(8) -0.0012(7)
C4 0.0369(10) 0.0287(9) 0.0191(8) 0.0054(7) 0.0075(7) -0.0045(7)
C5 0.0302(9) 0.0241(9) 0.0220(8) 0.0091(7) 0.0033(7) -0.0002(7)
C6 0.0222(8) 0.0203(8) 0.0202(8) 0.0054(6) 0.0046(7) -0.0017(6)
N1 0.0241(7) 0.0238(7) 0.0196(7) 0.0086(6) 0.0045(6) 0.0028(6)
N2 0.0193(7) 0.0219(7) 0.0184(7) 0.0070(5) 0.0030(6) 0.0004(5)
C7 0.0228(8) 0.0195(8) 0.0224(8) 0.0077(7) 0.0079(7) 0.0017(6)
C8 0.0273(9) 0.0336(10) 0.0235(9) 0.0100(7) 0.0034(7) 0.0077(7)
C9 0.0367(11) 0.0325(10) 0.0352(10) 0.0123(8) 0.0095(8) 0.0167(8)
C10 0.0436(11) 0.0270(9) 0.0307(10) 0.0065(8) 0.0148(9) 0.0091(8)
C11 0.0424(11) 0.0324(10) 0.0207(9) 0.0059(7) 0.0062(8) 0.0089(8)
C12 0.0320(10) 0.0281(9) 0.0232(9) 0.0106(7) 0.0064(7) 0.0090(7)
C13 0.0238(9) 0.0188(8) 0.0245(8) 0.0113(7) 0.0062(7) 0.0057(6)
C14 0.0267(9) 0.0314(9) 0.0284(9) 0.0164(8) 0.0043(7) 0.0021(7)
C15 0.0205(9) 0.0420(11) 0.0551(13) 0.0274(10) 0.0038(9) 0.0016(8)
C16 0.0272(10) 0.0396(11) 0.0738(15) 0.0334(11) 0.0258(10) 0.0138(8)
C17 0.0455(12) 0.0323(10) 0.0520(12) 0.0172(9) 0.0327(10) 0.0138(9)
C18 0.0326(10) 0.0267(9) 0.0321(10) 0.0077(7) 0.0128(8) 0.0030(7)
loop_
_atom_type_symbol
_atom_type_description
_atom_type_scat_dispersion_real
_atom_type_scat_dispersion_imag
_atom_type_scat_source
C C 0.0033 0.0016 'International Tables Vol C Tables 4.2.6.8 and 6.1.1.4'
H H 0.0000 0.0000 'International Tables Vol C Tables 4.2.6.8 and 6.1.1.4'
F F 0.0171 0.0103 'International Tables Vol C Tables 4.2.6.8 and 6.1.1.4'
N N 0.0061 0.0033 'International Tables Vol C Tables 4.2.6.8 and 6.1.1.4'
Si Si 0.0817 0.0704 'International Tables Vol C Tables 4.2.6.8 and 6.1.1.4'
loop_
_geom_angle_atom_site_label_1
_geom_angle_atom_site_label_2
_geom_angle_atom_site_label_3
_geom_angle
F2 Si1 F1 97.65(6)
F2 Si1 C13 113.29(8)
F1 Si1 C13 103.14(7)
F2 Si1 C1 120.49(7)
F1 Si1 C1 99.65(6)
C13 Si1 C1 117.16(7)
C2 C1 C6 116.54(15)
C2 C1 Si1 122.83(13)
C6 C1 Si1 120.53(12)
C1 C2 C3 121.60(16)
C1 C2 H1 119.2
C3 C2 H1 119.2
C4 C3 C2 120.09(15)
C4 C3 H2 120.0
C2 C3 H2 120.0
C3 C4 C5 120.19(16)
C3 C4 H3 119.9
C5 C4 H3 119.9
C4 C5 C6 118.84(16)
C4 C5 H4 120.6
C6 C5 H4 120.6
C5 C6 C1 122.71(15)
C5 C6 N1 116.31(14)
C1 C6 N1 120.94(14)
N2 N1 C6 111.63(13)
N1 N2 C7 114.31(13)
C12 C7 C8 120.22(15)
C12 C7 N2 117.16(14)
C8 C7 N2 122.60(14)
C9 C8 C7 119.51(16)
C9 C8 H5 120.2
C7 C8 H5 120.2
C8 C9 C10 120.67(16)
C8 C9 H6 119.7
C10 C9 H6 119.7
C9 C10 C11 119.62(16)
C9 C10 H7 120.2
C11 C10 H7 120.2
C12 C11 C10 120.41(16)
C12 C11 H8 119.8
C10 C11 H8 119.8
C11 C12 C7 119.54(15)
C11 C12 H9 120.2
C7 C12 H9 120.2
C14 C13 C18 117.71(16)
C14 C13 Si1 118.32(13)
C18 C13 Si1 123.96(12)
C15 C14 C13 121.38(18)
C15 C14 H10 119.3
C13 C14 H10 119.3
C16 C15 C14 119.80(18)
C16 C15 H11 120.1
C14 C15 H11 120.1
C17 C16 C15 120.16(17)
C17 C16 H12 119.9
C15 C16 H12 119.9
C16 C17 C18 119.95(18)
C16 C17 H13 120.0
C18 C17 H13 120.0
C17 C18 C13 120.98(17)
C17 C18 H14 119.5
C13 C18 H14 119.5
loop_
_geom_bond_atom_site_label_1
_geom_bond_atom_site_label_2
_geom_bond_distance
Si1 F2 1.5931(12)
Si1 F1 1.6201(14)
Si1 C13 1.850(2)
Si1 C1 1.854(2)
C1 C2 1.390(2)
C1 C6 1.403(2)
C2 C3 1.392(2)
C2 H1 0.9500
C3 C4 1.382(2)
C3 H2 0.9500
C4 C5 1.383(2)
C4 H3 0.9500
C5 C6 1.388(2)
C5 H4 0.9500
C6 N1 1.422(2)
N1 N2 1.2594(19)
N2 C7 1.427(2)
C7 C12 1.383(2)
C7 C8 1.389(2)
C8 C9 1.374(2)
C8 H5 0.9500
C9 C10 1.377(3)
C9 H6 0.9500
C10 C11 1.383(2)
C10 H7 0.9500
C11 C12 1.379(2)
C11 H8 0.9500
C12 H9 0.9500
C13 C14 1.393(2)
C13 C18 1.395(2)
C14 C15 1.384(3)
C14 H10 0.9500
C15 C16 1.380(3)
C15 H11 0.9500
C16 C17 1.375(3)
C16 H12 0.9500
C17 C18 1.391(3)
C17 H13 0.9500
C18 H14 0.9500
loop_
_geom_torsion_atom_site_label_1
_geom_torsion_atom_site_label_2
_geom_torsion_atom_site_label_3
_geom_torsion_atom_site_label_4
_geom_torsion
F2 Si1 C1 C2 -102.90(14)
F1 Si1 C1 C2 1.98(14)
C13 Si1 C1 C2 112.25(14)
F2 Si1 C1 C6 80.93(14)
F1 Si1 C1 C6 -174.19(12)
C13 Si1 C1 C6 -63.92(14)
C6 C1 C2 C3 -0.1(2)
Si1 C1 C2 C3 -176.43(12)
C1 C2 C3 C4 1.3(2)
C2 C3 C4 C5 -1.1(2)
C3 C4 C5 C6 -0.2(2)
C4 C5 C6 C1 1.4(2)
C4 C5 C6 N1 -176.65(14)
C2 C1 C6 C5 -1.2(2)
Si1 C1 C6 C5 175.18(12)
C2 C1 C6 N1 176.72(13)
Si1 C1 C6 N1 -6.9(2)
C5 C6 N1 N2 172.59(13)
C1 C6 N1 N2 -5.5(2)
C6 N1 N2 C7 -177.94(12)
N1 N2 C7 C12 159.01(14)
N1 N2 C7 C8 -19.3(2)
C12 C7 C8 C9 -0.5(2)
N2 C7 C8 C9 177.75(15)
C7 C8 C9 C10 -0.6(3)
C8 C9 C10 C11 0.6(3)
C9 C10 C11 C12 0.5(3)
C10 C11 C12 C7 -1.6(3)
C8 C7 C12 C11 1.6(2)
N2 C7 C12 C11 -176.72(15)
F2 Si1 C13 C14 -174.48(11)
F1 Si1 C13 C14 81.08(13)
C1 Si1 C13 C14 -27.17(15)
F2 Si1 C13 C18 6.08(16)
F1 Si1 C13 C18 -98.35(14)
C1 Si1 C13 C18 153.39(13)
C18 C13 C14 C15 -0.9(2)
Si1 C13 C14 C15 179.67(13)
C13 C14 C15 C16 1.3(3)
C14 C15 C16 C17 -0.5(3)
C15 C16 C17 C18 -0.6(3)
C16 C17 C18 C13 1.0(3)
C14 C13 C18 C17 -0.3(2)
Si1 C13 C18 C17 179.15(13)
loop_
_cod_related_entry_id
_cod_related_entry_database
_cod_related_entry_code
1 ChemSpider 30660405
