#------------------------------------------------------------------------------
#$Date: 2016-03-22 10:37:57 +0200 (Tue, 22 Mar 2016) $
#$Revision: 178878 $
#$URL: svn://www.crystallography.net/cod/cif/4/11/07/4110760.cif $
#------------------------------------------------------------------------------
#
# This file is available in the Crystallography Open Database (COD),
# http://www.crystallography.net/
#
# All data on this site have been placed in the public domain by the
# contributors.
#
data_4110760
loop_
_publ_author_name
'Guillermo M\'inguez Espallargas'
'Lee Brammer'
'Jacco van de Streek'
'Kenneth Shankland'
'Alastair J. Florence'
'Harry Adams'
_publ_contact_author_address
; 
     Dept. of Chemistry
     University of Sheffield
     Sheffield, S3 7HF 
     UK
;
_publ_contact_author_email       lee.brammer@sheffield.ac.uk
_publ_contact_author_fax         '+44 114 222 9346'
_publ_contact_author_name        'Lee Brammer'
_publ_contact_author_phone       '+44 141 222 9536'
_publ_section_title
;
 Reversible Extrusion and Uptake of HCl Molecules by Crystalline Solids
 Involving Coordination Bond Cleavage and Formation
;
_journal_name_full               'Journal of the American Chemical Society'
_journal_page_first              9584
_journal_page_last               9585
_journal_paper_doi               10.1021/ja0625733
_journal_volume                  128
_journal_year                    2006
_chemical_formula_moiety         '2(C5 H5 Cl N), Cl4 Cu'
_chemical_formula_sum            'C10 H10 Cl6 Cu N2'
_chemical_formula_weight         434.44
_chemical_name_systematic
; 
 ? 
;
_space_group_IT_number           2
_symmetry_cell_setting           triclinic
_symmetry_space_group_name_Hall  '-P 1'
_symmetry_space_group_name_H-M   'P -1'
_atom_sites_solution_hydrogens   geom
_atom_sites_solution_primary     direct
_atom_sites_solution_secondary   difmap
_audit_creation_method           SHELXL-97
_cell_angle_alpha                81.684(3)
_cell_angle_beta                 79.779(3)
_cell_angle_gamma                69.368(3)
_cell_formula_units_Z            2
_cell_length_a                   7.3119(4)
_cell_length_b                   7.7799(4)
_cell_length_c                   15.4970(8)
_cell_measurement_reflns_used    7624
_cell_measurement_temperature    298(2)
_cell_measurement_theta_max      28.92
_cell_measurement_theta_min      2.68
_cell_volume                     808.69(8)
_computing_cell_refinement       'Bruker SMART'
_computing_data_collection       'Bruker SMART KAPPA APEX II'
_computing_data_reduction        'Bruker SAINT'
_computing_molecular_graphics    'Bruker SHELXTL'
_computing_publication_material  'Bruker SHELXTL'
_computing_structure_refinement  'SHELXL-97 (Sheldrick, 1997)'
_computing_structure_solution    'SHELXS-97 (Sheldrick, 1990)'
_diffrn_ambient_temperature      298(2)
_diffrn_detector_area_resol_mean 100
_diffrn_measured_fraction_theta_full 0.975
_diffrn_measured_fraction_theta_max 0.975
_diffrn_measurement_device_type  'CCD area detector'
_diffrn_measurement_method       'phi and omega scans'
_diffrn_radiation_monochromator  graphite
_diffrn_radiation_source         'fine-focus sealed tube'
_diffrn_radiation_type           MoK\a
_diffrn_radiation_wavelength     0.71073
_diffrn_reflns_av_R_equivalents  0.0349
_diffrn_reflns_av_sigmaI/netI    0.0307
_diffrn_reflns_limit_h_max       10
_diffrn_reflns_limit_h_min       -10
_diffrn_reflns_limit_k_max       11
_diffrn_reflns_limit_k_min       -11
_diffrn_reflns_limit_l_max       22
_diffrn_reflns_limit_l_min       -22
_diffrn_reflns_number            23107
_diffrn_reflns_theta_full        30.89
_diffrn_reflns_theta_max         30.89
_diffrn_reflns_theta_min         1.34
_diffrn_standards_decay_%        0
_diffrn_standards_number         0
_exptl_absorpt_coefficient_mu    2.327
_exptl_absorpt_correction_T_max  0.6795
_exptl_absorpt_correction_T_min  0.5051
_exptl_absorpt_correction_type   multi-scan
_exptl_absorpt_process_details   SADABS
_exptl_crystal_colour            yellow
_exptl_crystal_density_diffrn    1.784
_exptl_crystal_description       block
_exptl_crystal_F_000             430
_exptl_crystal_size_max          0.34
_exptl_crystal_size_mid          0.20
_exptl_crystal_size_min          0.18
_refine_diff_density_max         0.471
_refine_diff_density_min         -0.337
_refine_diff_density_rms         0.062
_refine_ls_extinction_coef       0.0240(13)
_refine_ls_extinction_expression Fc^*^=kFc[1+0.001xFc^2^\l^3^/sin(2\q)]^-1/4^
_refine_ls_extinction_method     SHELXL
_refine_ls_goodness_of_fit_ref   1.226
_refine_ls_hydrogen_treatment    constr
_refine_ls_matrix_type           full
_refine_ls_number_parameters     173
_refine_ls_number_reflns         4985
_refine_ls_number_restraints     0
_refine_ls_restrained_S_all      1.226
_refine_ls_R_factor_all          0.0484
_refine_ls_R_factor_gt           0.0302
_refine_ls_shift/su_max          0.000
_refine_ls_shift/su_mean         0.000
_refine_ls_structure_factor_coef Fsqd
_refine_ls_weighting_details
'calc w=1/[\s^2^(Fo^2^)+(0.0267P)^2^+0.0000P] where P=(Fo^2^+2Fc^2^)/3'
_refine_ls_weighting_scheme      calc
_refine_ls_wR_factor_gt          0.0666
_refine_ls_wR_factor_ref         0.0722
_reflns_number_gt                3757
_reflns_number_total             4985
_reflns_threshold_expression     >2sigma(I)
_cod_data_source_file            ja0625733si20060413_052741.cif
_cod_data_source_block           ilb807m
_cod_original_cell_volume        808.69(7)
_cod_database_code               4110760
loop_
_symmetry_equiv_pos_as_xyz
'x, y, z'
'-x, -y, -z'
loop_
_atom_site_label
_atom_site_type_symbol
_atom_site_fract_x
_atom_site_fract_y
_atom_site_fract_z
_atom_site_U_iso_or_equiv
_atom_site_adp_type
_atom_site_occupancy
_atom_site_symmetry_multiplicity
_atom_site_calc_flag
_atom_site_refinement_flags
Cu1 Cu 0.17596(3) 0.63343(3) 0.221736(13) 0.03511(8) Uani 1 1 d .
Cl1 Cl 0.21300(7) 0.39171(7) 0.32274(3) 0.04265(12) Uani 1 1 d .
Cl2 Cl 0.08458(7) 0.74793(8) 0.08951(3) 0.05106(14) Uani 1 1 d .
Cl3 Cl 0.50686(7) 0.55917(8) 0.17141(3) 0.05192(15) Uani 1 1 d .
Cl4 Cl -0.05885(8) 0.84462(7) 0.30129(3) 0.04885(13) Uani 1 1 d .
N11 N 0.3437(2) 0.6191(3) 0.64814(10) 0.0457(4) Uani 1 1 d .
H11 H 0.3844 0.6042 0.6997 0.055 Uiso 1 1 calc R
C12 C 0.3379(3) 0.7733(3) 0.59718(13) 0.0434(4) Uani 1 1 d .
H12 H 0.3757 0.8651 0.6162 0.052 Uiso 1 1 calc R
C13 C 0.2762(3) 0.7963(3) 0.51675(12) 0.0409(4) Uani 1 1 d .
Cl13 Cl 0.26741(10) 0.99555(9) 0.44963(4) 0.06646(18) Uani 1 1 d .
C14 C 0.2222(3) 0.6618(3) 0.48958(13) 0.0441(5) Uani 1 1 d .
H14 H 0.1803 0.6769 0.4335 0.053 Uiso 1 1 calc R
C15 C 0.2301(3) 0.5056(3) 0.54516(14) 0.0500(5) Uani 1 1 d .
H15 H 0.1933 0.4114 0.5279 0.060 Uiso 1 1 calc R
C16 C 0.2915(3) 0.4867(3) 0.62568(14) 0.0495(5) Uani 1 1 d .
H16 H 0.2966 0.3798 0.6649 0.059 Uiso 1 1 calc R
N21 N 0.4875(2) 0.7806(2) 0.97468(11) 0.0443(4) Uani 1 1 d .
H21 H 0.4289 0.7373 1.0231 0.053 Uiso 1 1 calc R
C22 C 0.6832(3) 0.7202(3) 0.96017(12) 0.0413(4) Uani 1 1 d .
H22 H 0.7574 0.6321 1.0012 0.050 Uiso 1 1 calc R
C23 C 0.7766(3) 0.7865(3) 0.88547(11) 0.0365(4) Uani 1 1 d .
Cl23 Cl 1.02924(8) 0.70244(9) 0.86467(4) 0.05677(15) Uani 1 1 d .
C24 C 0.6670(3) 0.9174(3) 0.82726(13) 0.0442(5) Uani 1 1 d .
H24 H 0.7305 0.9668 0.7759 0.053 Uiso 1 1 calc R
C25 C 0.4644(3) 0.9749(3) 0.84496(14) 0.0524(5) Uani 1 1 d .
H25 H 0.3865 1.0640 0.8054 0.063 Uiso 1 1 calc R
C26 C 0.3755(3) 0.9033(3) 0.91969(14) 0.0483(5) Uani 1 1 d .
H26A H 0.2357 0.9408 0.9321 0.058 Uiso 1 1 calc R
loop_
_atom_site_aniso_label
_atom_site_aniso_U_11
_atom_site_aniso_U_22
_atom_site_aniso_U_33
_atom_site_aniso_U_23
_atom_site_aniso_U_13
_atom_site_aniso_U_12
Cu1 0.03445(13) 0.03472(14) 0.02983(12) 0.00105(9) -0.00450(8) -0.00530(10)
Cl1 0.0471(3) 0.0374(3) 0.0388(2) 0.00617(19) -0.00681(19) -0.0117(2)
Cl2 0.0413(3) 0.0649(4) 0.0346(2) 0.0061(2) -0.01016(19) -0.0043(2)
Cl3 0.0320(2) 0.0702(4) 0.0388(3) 0.0149(2) -0.00435(18) -0.0069(2)
Cl4 0.0492(3) 0.0413(3) 0.0434(3) -0.0073(2) -0.0015(2) -0.0007(2)
N11 0.0400(9) 0.0557(11) 0.0343(8) -0.0006(8) -0.0105(7) -0.0059(8)
C12 0.0401(11) 0.0420(12) 0.0437(10) -0.0066(9) -0.0100(8) -0.0053(9)
C13 0.0337(10) 0.0408(11) 0.0407(10) 0.0029(8) -0.0065(7) -0.0050(8)
Cl13 0.0715(4) 0.0553(4) 0.0692(4) 0.0212(3) -0.0226(3) -0.0214(3)
C14 0.0382(11) 0.0559(13) 0.0378(10) -0.0020(9) -0.0099(8) -0.0139(10)
C15 0.0408(11) 0.0544(14) 0.0592(13) -0.0028(11) -0.0099(9) -0.0210(10)
C16 0.0389(11) 0.0538(14) 0.0501(12) 0.0107(10) -0.0044(9) -0.0152(10)
N21 0.0434(10) 0.0441(10) 0.0414(9) -0.0046(7) 0.0042(7) -0.0143(8)
C22 0.0423(11) 0.0398(11) 0.0362(9) -0.0014(8) -0.0061(8) -0.0072(9)
C23 0.0356(10) 0.0392(10) 0.0344(9) -0.0066(7) -0.0047(7) -0.0109(8)
Cl23 0.0354(3) 0.0761(4) 0.0546(3) -0.0082(3) -0.0028(2) -0.0143(3)
C24 0.0517(12) 0.0410(12) 0.0385(10) 0.0021(8) -0.0067(8) -0.0159(10)
C25 0.0556(14) 0.0421(12) 0.0544(12) 0.0029(10) -0.0211(10) -0.0064(10)
C26 0.0359(11) 0.0471(13) 0.0600(13) -0.0107(10) -0.0064(9) -0.0096(9)
loop_
_atom_type_symbol
_atom_type_description
_atom_type_scat_dispersion_real
_atom_type_scat_dispersion_imag
_atom_type_scat_source
C C 0.0033 0.0016 'International Tables Vol C Tables 4.2.6.8 and 6.1.1.4'
H H 0.0000 0.0000 'International Tables Vol C Tables 4.2.6.8 and 6.1.1.4'
N N 0.0061 0.0033 'International Tables Vol C Tables 4.2.6.8 and 6.1.1.4'
Cl Cl 0.1484 0.1585 'International Tables Vol C Tables 4.2.6.8 and 6.1.1.4'
Cu Cu 0.3201 1.2651 'International Tables Vol C Tables 4.2.6.8 and 6.1.1.4'
loop_
_geom_angle_atom_site_label_1
_geom_angle_atom_site_label_2
_geom_angle_atom_site_label_3
_geom_angle
Cl2 Cu1 Cl1 144.49(2)
Cl2 Cu1 Cl4 97.95(2)
Cl1 Cu1 Cl4 98.17(2)
Cl2 Cu1 Cl3 93.963(19)
Cl1 Cu1 Cl3 94.71(2)
Cl4 Cu1 Cl3 138.26(2)
C16 N11 C12 123.70(17)
C16 N11 H11 118.1
C12 N11 H11 118.1
N11 C12 C13 118.31(19)
N11 C12 H12 120.8
C13 C12 H12 120.8
C12 C13 C14 120.42(19)
C12 C13 Cl13 119.04(16)
C14 C13 Cl13 120.53(15)
C15 C14 C13 118.77(18)
C15 C14 H14 120.6
C13 C14 H14 120.6
C16 C15 C14 119.5(2)
C16 C15 H15 120.2
C14 C15 H15 120.2
N11 C16 C15 119.26(19)
N11 C16 H16 120.4
C15 C16 H16 120.4
C22 N21 C26 123.28(17)
C22 N21 H21 118.4
C26 N21 H21 118.4
N21 C22 C23 119.13(18)
N21 C22 H22 120.4
C23 C22 H22 120.4
C22 C23 C24 119.84(18)
C22 C23 Cl23 119.18(15)
C24 C23 Cl23 120.97(15)
C25 C24 C23 118.85(18)
C25 C24 H24 120.6
C23 C24 H24 120.6
C26 C25 C24 119.79(19)
C26 C25 H25 120.1
C24 C25 H25 120.1
N21 C26 C25 119.08(19)
N21 C26 H26A 120.5
C25 C26 H26A 120.5
loop_
_geom_bond_atom_site_label_1
_geom_bond_atom_site_label_2
_geom_bond_distance
Cu1 Cl2 2.2310(5)
Cu1 Cl1 2.2360(5)
Cu1 Cl4 2.2392(5)
Cu1 Cl3 2.2961(5)
N11 C16 1.325(3)
N11 C12 1.329(3)
N11 H11 0.8800
C12 C13 1.366(3)
C12 H12 0.9500
C13 C14 1.381(3)
C13 Cl13 1.725(2)
C14 C15 1.374(3)
C14 H14 0.9500
C15 C16 1.371(3)
C15 H15 0.9500
C16 H16 0.9500
N21 C22 1.327(2)
N21 C26 1.330(3)
N21 H21 0.8800
C22 C23 1.366(3)
C22 H22 0.9500
C23 C24 1.381(3)
C23 Cl23 1.7154(19)
C24 C25 1.377(3)
C24 H24 0.9500
C25 C26 1.369(3)
C25 H25 0.9500
C26 H26A 0.9500
