#------------------------------------------------------------------------------
#$Date: 2017-10-13 14:42:48 +0300 (Fri, 13 Oct 2017) $
#$Revision: 201982 $
#$URL: file:///home/coder/svn-repositories/cod/cif/4/11/01/4110139.cif $
#------------------------------------------------------------------------------
#
# This file is available in the Crystallography Open Database (COD),
# http://www.crystallography.net/
#
# All data on this site have been placed in the public domain by the
# contributors.
#
data_4110139
loop_
_publ_author_name
'Christer B. Aaker\"oy'
'Meg Fasulo'
'Nate Schultheiss'
'John Desper'
'Curtis Moore'
_publ_section_title
;
 Structural Competition between Hydrogen Bonds and Halogen Bonds
;
_journal_name_full               'Journal of the American Chemical Society'
_journal_page_first              13772
_journal_page_last               13773
_journal_paper_doi               10.1021/ja073201c
_journal_volume                  129
_journal_year                    2007
_chemical_formula_moiety         'C7 H2 Br F4 N O'
_chemical_formula_sum            'C7 H2 Br F4 N O'
_chemical_formula_weight         272.01
_chemical_name_systematic
;
NSoximeBr 4-Br-F4-PhCH=NOH
;
_space_group_IT_number           2
_symmetry_cell_setting           triclinic
_symmetry_space_group_name_Hall  '-P 1'
_symmetry_space_group_name_H-M   'P -1'
_atom_sites_solution_hydrogens   geom
_atom_sites_solution_primary     direct
_atom_sites_solution_secondary   difmap
_audit_creation_method           SHELXL-97
_cell_angle_alpha                80.976(3)
_cell_angle_beta                 84.419(4)
_cell_angle_gamma                88.344(3)
_cell_formula_units_Z            2
_cell_length_a                   4.2896(3)
_cell_length_b                   5.9991(4)
_cell_length_c                   15.3706(10)
_cell_measurement_reflns_used    5375
_cell_measurement_temperature    143(2)
_cell_measurement_theta_max      0.00
_cell_measurement_theta_min      0.00
_cell_volume                     388.76(5)
_computing_cell_refinement       'Bruker SMART'
_computing_data_collection       'Bruker SMART'
_computing_data_reduction        'Bruker SAINT'
_computing_molecular_graphics    'Bruker SHELXTL'
_computing_publication_material  'Bruker SHELXTL'
_computing_structure_refinement  'SHELXL-97 (Sheldrick, 1997)'
_computing_structure_solution    'SHELXS-97 (Sheldrick, 1990)'
_diffrn_ambient_temperature      143(2)
_diffrn_measured_fraction_theta_full 0.998
_diffrn_measured_fraction_theta_max 0.998
_diffrn_measurement_device_type  'CCD area detector'
_diffrn_measurement_method       'phi and omega scans'
_diffrn_radiation_monochromator  graphite
_diffrn_radiation_source         'fine-focus sealed tube'
_diffrn_radiation_type           MoK\a
_diffrn_radiation_wavelength     0.71073
_diffrn_reflns_av_R_equivalents  0.0318
_diffrn_reflns_av_sigmaI/netI    0.0264
_diffrn_reflns_limit_h_max       5
_diffrn_reflns_limit_h_min       -5
_diffrn_reflns_limit_k_max       7
_diffrn_reflns_limit_k_min       -7
_diffrn_reflns_limit_l_max       19
_diffrn_reflns_limit_l_min       -19
_diffrn_reflns_number            13002
_diffrn_reflns_theta_full        27.10
_diffrn_reflns_theta_max         27.10
_diffrn_reflns_theta_min         3.44
_exptl_absorpt_coefficient_mu    5.319
_exptl_absorpt_correction_T_max  0.6974
_exptl_absorpt_correction_T_min  0.5147
_exptl_absorpt_correction_type   multi-scan
_exptl_absorpt_process_details   SADABS
_exptl_crystal_colour            colorless
_exptl_crystal_density_diffrn    2.324
_exptl_crystal_description       Block
_exptl_crystal_F_000             260
_exptl_crystal_size_max          0.14
_exptl_crystal_size_mid          0.14
_exptl_crystal_size_min          0.07
_refine_diff_density_max         0.333
_refine_diff_density_min         -0.329
_refine_diff_density_rms         0.076
_refine_ls_extinction_method     none
_refine_ls_goodness_of_fit_ref   1.037
_refine_ls_hydrogen_treatment    mixed
_refine_ls_matrix_type           full
_refine_ls_number_parameters     130
_refine_ls_number_reflns         1724
_refine_ls_number_restraints     0
_refine_ls_restrained_S_all      1.037
_refine_ls_R_factor_all          0.0275
_refine_ls_R_factor_gt           0.0215
_refine_ls_shift/su_max          0.001
_refine_ls_shift/su_mean         0.000
_refine_ls_structure_factor_coef Fsqd
_refine_ls_weighting_details
'calc w=1/[\s^2^(Fo^2^)+(0.0200P)^2^+0.1500P] where P=(Fo^2^+2Fc^2^)/3'
_refine_ls_weighting_scheme      calc
_refine_ls_wR_factor_gt          0.0429
_refine_ls_wR_factor_ref         0.0453
_reflns_number_gt                1543
_reflns_number_total             1724
_reflns_threshold_expression     >2sigma(I)
_cod_data_source_file            ja073201csi20070506_021240_1.cif
_cod_data_source_block           3
_cod_database_code               4110139
loop_
_symmetry_equiv_pos_as_xyz
'x, y, z'
'-x, -y, -z'
loop_
_atom_site_label
_atom_site_type_symbol
_atom_site_fract_x
_atom_site_fract_y
_atom_site_fract_z
_atom_site_U_iso_or_equiv
_atom_site_adp_type
_atom_site_occupancy
_atom_site_symmetry_multiplicity
_atom_site_calc_flag
_atom_site_refinement_flags
Br1 Br 0.76557(5) 0.25956(3) 0.461595(14) 0.02364(8) Uani 1 1 d .
C11 C 0.4755(4) 0.5889(3) 0.18216(13) 0.0166(4) Uani 1 1 d .
C12 C 0.3840(4) 0.3714(3) 0.22179(14) 0.0184(4) Uani 1 1 d .
F12 F 0.2055(3) 0.24908(19) 0.18049(8) 0.0258(3) Uani 1 1 d .
C13 C 0.4688(4) 0.2756(3) 0.30318(14) 0.0169(4) Uani 1 1 d .
F13 F 0.3731(3) 0.06617(18) 0.33672(8) 0.0234(3) Uani 1 1 d .
C14 C 0.6509(4) 0.3899(3) 0.35075(13) 0.0172(4) Uani 1 1 d .
C15 C 0.7460(4) 0.6049(3) 0.31274(14) 0.0179(4) Uani 1 1 d .
F15 F 0.9263(3) 0.72245(19) 0.35509(8) 0.0257(3) Uani 1 1 d .
C16 C 0.6621(4) 0.6991(3) 0.23081(14) 0.0168(4) Uani 1 1 d .
F16 F 0.7656(3) 0.90675(18) 0.19686(8) 0.0234(3) Uani 1 1 d .
C17 C 0.3940(5) 0.7028(3) 0.09622(14) 0.0217(5) Uani 1 1 d .
H17A H 0.4803 0.8426 0.0732 0.026 Uiso 1 1 calc R
N17 N 0.2070(4) 0.6153(3) 0.05195(11) 0.0205(4) Uani 1 1 d .
O17 O 0.1637(4) 0.7537(3) -0.02762(10) 0.0290(4) Uani 1 1 d .
H17 H 0.040(6) 0.679(4) -0.0507(17) 0.035 Uiso 1 1 d .
loop_
_atom_site_aniso_label
_atom_site_aniso_U_11
_atom_site_aniso_U_22
_atom_site_aniso_U_33
_atom_site_aniso_U_23
_atom_site_aniso_U_13
_atom_site_aniso_U_12
Br1 0.03000(13) 0.02278(11) 0.01780(13) 0.00111(8) -0.00757(9) -0.00006(8)
C11 0.0184(10) 0.0167(9) 0.0145(11) -0.0020(8) -0.0014(8) -0.0001(8)
C12 0.0163(10) 0.0186(9) 0.0218(12) -0.0060(9) -0.0030(8) -0.0036(8)
F12 0.0320(7) 0.0216(6) 0.0258(7) -0.0024(5) -0.0116(6) -0.0107(5)
C13 0.0168(10) 0.0136(9) 0.0195(11) -0.0006(8) -0.0002(8) -0.0030(7)
F13 0.0306(7) 0.0158(5) 0.0231(7) 0.0008(5) -0.0021(5) -0.0076(5)
C14 0.0181(10) 0.0174(9) 0.0153(11) 0.0000(8) -0.0012(8) 0.0001(8)
C15 0.0175(10) 0.0194(10) 0.0182(11) -0.0047(8) -0.0043(8) -0.0024(8)
F15 0.0321(7) 0.0229(6) 0.0245(7) -0.0034(5) -0.0122(6) -0.0099(5)
C16 0.0191(10) 0.0121(9) 0.0187(11) -0.0013(8) 0.0001(8) -0.0025(7)
F16 0.0321(7) 0.0152(5) 0.0221(7) 0.0019(5) -0.0038(5) -0.0095(5)
C17 0.0260(11) 0.0185(10) 0.0201(12) -0.0011(9) -0.0026(9) -0.0019(8)
N17 0.0270(9) 0.0209(9) 0.0131(9) -0.0001(7) -0.0044(8) 0.0020(7)
O17 0.0417(9) 0.0271(8) 0.0185(9) 0.0023(7) -0.0129(7) -0.0039(7)
loop_
_atom_type_symbol
_atom_type_description
_atom_type_scat_dispersion_real
_atom_type_scat_dispersion_imag
_atom_type_scat_source
C C 0.0033 0.0016 'International Tables Vol C Tables 4.2.6.8 and 6.1.1.4'
H H 0.0000 0.0000 'International Tables Vol C Tables 4.2.6.8 and 6.1.1.4'
N N 0.0061 0.0033 'International Tables Vol C Tables 4.2.6.8 and 6.1.1.4'
O O 0.0106 0.0060 'International Tables Vol C Tables 4.2.6.8 and 6.1.1.4'
F F 0.0171 0.0103 'International Tables Vol C Tables 4.2.6.8 and 6.1.1.4'
Br Br -0.2901 2.4595 'International Tables Vol C Tables 4.2.6.8 and 6.1.1.4'
loop_
_geom_angle_atom_site_label_1
_geom_angle_atom_site_label_2
_geom_angle_atom_site_label_3
_geom_angle
C16 C11 C12 115.19(18)
C16 C11 C17 119.24(18)
C12 C11 C17 125.57(18)
F12 C12 C13 117.47(17)
F12 C12 C11 120.27(18)
C13 C12 C11 122.26(18)
F13 C13 C12 118.84(17)
F13 C13 C14 119.74(18)
C12 C13 C14 121.42(18)
C13 C14 C15 117.43(18)
C13 C14 Br1 121.37(15)
C15 C14 Br1 121.20(15)
F15 C15 C16 119.07(17)
F15 C15 C14 120.12(18)
C16 C15 C14 120.80(18)
F16 C16 C15 118.01(17)
F16 C16 C11 119.11(18)
C15 C16 C11 122.89(18)
N17 C17 C11 121.53(19)
N17 C17 H17A 119.2
C11 C17 H17A 119.2
C17 N17 O17 111.43(17)
N17 O17 H17 102.7(17)
loop_
_geom_bond_atom_site_label_1
_geom_bond_atom_site_label_2
_geom_bond_distance
Br1 C14 1.865(2)
C11 C16 1.392(3)
C11 C12 1.401(3)
C11 C17 1.459(3)
C12 F12 1.342(2)
C12 C13 1.371(3)
C13 F13 1.341(2)
C13 C14 1.384(3)
C14 C15 1.385(3)
C15 F15 1.339(2)
C15 C16 1.374(3)
C16 F16 1.343(2)
C17 N17 1.275(3)
C17 H17A 0.9300
N17 O17 1.392(2)
O17 H17 0.84(3)
loop_
_geom_hbond_atom_site_label_D
_geom_hbond_atom_site_label_H
_geom_hbond_atom_site_label_A
_geom_hbond_distance_DH
_geom_hbond_distance_HA
_geom_hbond_distance_DA
_geom_hbond_angle_DHA
_geom_hbond_site_symmetry_A
O17 H17 N17 0.84(3) 2.09(3) 2.855(2) 151(2) 2_565
loop_
_geom_torsion_atom_site_label_1
_geom_torsion_atom_site_label_2
_geom_torsion_atom_site_label_3
_geom_torsion_atom_site_label_4
_geom_torsion
C16 C11 C12 F12 -179.56(16)
C17 C11 C12 F12 -0.1(3)
C16 C11 C12 C13 0.8(3)
C17 C11 C12 C13 -179.69(18)
F12 C12 C13 F13 0.6(3)
C11 C12 C13 F13 -179.75(16)
F12 C12 C13 C14 -179.60(16)
C11 C12 C13 C14 0.0(3)
F13 C13 C14 C15 179.39(16)
C12 C13 C14 C15 -0.4(3)
F13 C13 C14 Br1 -0.4(2)
C12 C13 C14 Br1 179.88(14)
C13 C14 C15 F15 -179.03(16)
Br1 C14 C15 F15 0.7(2)
C13 C14 C15 C16 -0.2(3)
Br1 C14 C15 C16 179.58(14)
F15 C15 C16 F16 -0.1(3)
C14 C15 C16 F16 -178.98(16)
F15 C15 C16 C11 179.98(16)
C14 C15 C16 C11 1.1(3)
C12 C11 C16 F16 178.69(16)
C17 C11 C16 F16 -0.8(3)
C12 C11 C16 C15 -1.4(3)
C17 C11 C16 C15 179.10(17)
C16 C11 C17 N17 -175.23(17)
C12 C11 C17 N17 5.3(3)
C11 C17 N17 O17 179.95(16)
loop_
_cod_related_entry_id
_cod_related_entry_database
_cod_related_entry_code
1 ChemSpider 21197220
