#------------------------------------------------------------------------------
#$Date: 2016-03-22 11:11:11 +0200 (Tue, 22 Mar 2016) $
#$Revision: 178888 $
#$URL: svn://www.crystallography.net/cod/cif/4/11/17/4111748.cif $
#------------------------------------------------------------------------------
#
# This file is available in the Crystallography Open Database (COD),
# http://www.crystallography.net/
#
# All data on this site have been placed in the public domain by the
# contributors.
#
data_4111748
loop_
_publ_author_name
'David A. Evans'
'Jimmy Wu'
_publ_section_title
;
 Enantioselective Syn-Selective Scandium-Catalyzed Ene Reactions
;
_journal_name_full               'Journal of the American Chemical Society'
_journal_page_first              8006
_journal_page_last               8007
_journal_paper_doi               10.1021/ja0522130
_journal_volume                  127
_journal_year                    2005
_chemical_formula_sum            'C14 H19 N O2'
_chemical_formula_weight         233.30
_chemical_name_systematic
; 
 ? 
;
_space_group_IT_number           4
_symmetry_cell_setting           monoclinic
_symmetry_space_group_name_Hall  'P 2yb'
_symmetry_space_group_name_H-M   'P 1 21 1'
_atom_sites_solution_hydrogens   geom
_atom_sites_solution_primary     direct
_atom_sites_solution_secondary   difmap
_audit_creation_method           SHELXL-97
_cell_angle_alpha                90.00
_cell_angle_beta                 110.046(5)
_cell_angle_gamma                90.00
_cell_formula_units_Z            2
_cell_length_a                   8.4126(16)
_cell_length_b                   9.7041(18)
_cell_length_c                   8.6749(16)
_cell_measurement_temperature    293(2)
_cell_volume                     665.3(2)
_computing_cell_refinement       'Bruker SMART'
_computing_data_collection       'Bruker SMART'
_computing_data_reduction        'Bruker SAINT'
_computing_molecular_graphics    'Bruker SHELXTL'
_computing_publication_material  'Bruker SHELXTL'
_computing_structure_refinement  'SHELXL-97 (Sheldrick, 1997)'
_computing_structure_solution    'SHELXS-97 (Sheldrick, 1990)'
_diffrn_ambient_temperature      293(2)
_diffrn_measured_fraction_theta_full 0.998
_diffrn_measured_fraction_theta_max 0.998
_diffrn_measurement_device_type  'CCD area detector'
_diffrn_measurement_method       'phi and omega scans'
_diffrn_radiation_monochromator  graphite
_diffrn_radiation_source         'fine-focus sealed tube'
_diffrn_radiation_type           MoK\a
_diffrn_radiation_wavelength     0.71073
_diffrn_reflns_av_R_equivalents  0.0359
_diffrn_reflns_av_sigmaI/netI    0.0312
_diffrn_reflns_limit_h_max       9
_diffrn_reflns_limit_h_min       -8
_diffrn_reflns_limit_k_max       11
_diffrn_reflns_limit_k_min       -11
_diffrn_reflns_limit_l_max       9
_diffrn_reflns_limit_l_min       -10
_diffrn_reflns_number            3755
_diffrn_reflns_theta_full        24.99
_diffrn_reflns_theta_max         24.99
_diffrn_reflns_theta_min         2.50
_exptl_absorpt_coefficient_mu    0.077
_exptl_absorpt_correction_type   none
_exptl_crystal_colour            colorless
_exptl_crystal_density_diffrn    1.165
_exptl_crystal_density_meas      0
_exptl_crystal_description       rod
_exptl_crystal_F_000             252
_exptl_crystal_size_max          0.08
_exptl_crystal_size_mid          0.08
_exptl_crystal_size_min          0.03
_refine_diff_density_max         0.239
_refine_diff_density_min         -0.275
_refine_diff_density_rms         0.079
_refine_ls_abs_structure_details 'Flack H D (1983), Acta Cryst. A39, 876-881'
_refine_ls_abs_structure_Flack   0.7(11)
_refine_ls_extinction_method     none
_refine_ls_goodness_of_fit_ref   1.050
_refine_ls_hydrogen_treatment    mixed
_refine_ls_matrix_type           full
_refine_ls_number_parameters     162
_refine_ls_number_reflns         2190
_refine_ls_number_restraints     1
_refine_ls_restrained_S_all      1.049
_refine_ls_R_factor_all          0.0356
_refine_ls_R_factor_gt           0.0348
_refine_ls_shift/su_max          0.041
_refine_ls_shift/su_mean         0.002
_refine_ls_structure_factor_coef Fsqd
_refine_ls_weighting_details
'calc w=1/[\s^2^(Fo^2^)+(0.0729P)^2^+0.0095P] where P=(Fo^2^+2Fc^2^)/3'
_refine_ls_weighting_scheme      calc
_refine_ls_wR_factor_gt          0.0950
_refine_ls_wR_factor_ref         0.0961
_reflns_number_gt                2126
_reflns_number_total             2190
_reflns_threshold_expression     >2sigma(I)
_cod_data_source_file            ja0522130si20050406_014317.cif
_cod_data_source_block           jwu73t
_cod_database_code               4111748
loop_
_symmetry_equiv_pos_as_xyz
'x, y, z'
'-x, y+1/2, -z'
loop_
_atom_site_label
_atom_site_type_symbol
_atom_site_fract_x
_atom_site_fract_y
_atom_site_fract_z
_atom_site_U_iso_or_equiv
_atom_site_adp_type
_atom_site_occupancy
_atom_site_symmetry_multiplicity
_atom_site_calc_flag
_atom_site_refinement_flags
C1 C 0.44601(18) 0.50415(15) 0.15906(17) 0.0319(3) Uani 1 1 d .
C2 C 0.54010(18) 0.43331(16) 0.05982(18) 0.0303(3) Uani 1 1 d .
H2 H 0.4725 0.4406 -0.0570 0.036 Uiso 1 1 calc R
C3 C 0.71171(17) 0.50627(14) 0.09071(18) 0.0305(3) Uani 1 1 d .
H3 H 0.6870 0.6038 0.0635 0.037 Uiso 1 1 calc R
C4 C 0.79502(18) 0.45062(17) -0.02573(18) 0.0315(3) Uani 1 1 d .
C5 C 0.9271(2) 0.36701(18) 0.0223(2) 0.0410(4) Uani 1 1 d .
H5 H 0.9698 0.3463 0.1337 0.049 Uiso 1 1 calc R
C6 C 1.0157(3) 0.3021(2) -0.0822(3) 0.0589(5) Uani 1 1 d .
H6A H 1.0010 0.2039 -0.0831 0.088 Uiso 1 1 calc R
H6B H 1.1342 0.3236 -0.0384 0.088 Uiso 1 1 calc R
H6C H 0.9689 0.3369 -0.1922 0.088 Uiso 1 1 calc R
C7 C 0.7145(2) 0.4960(2) -0.2010(2) 0.0526(5) Uani 1 1 d .
H7A H 0.7888 0.4754 -0.2607 0.079 Uiso 1 1 calc R
H7B H 0.6938 0.5934 -0.2044 0.079 Uiso 1 1 calc R
H7C H 0.6093 0.4481 -0.2500 0.079 Uiso 1 1 calc R
C8 C 0.8203(2) 0.49955(18) 0.2725(2) 0.0407(4) Uani 1 1 d .
H8A H 0.8389 0.4050 0.3064 0.061 Uiso 1 1 calc R
H8B H 0.7631 0.5459 0.3362 0.061 Uiso 1 1 calc R
H8C H 0.9271 0.5436 0.2891 0.061 Uiso 1 1 calc R
C9 C 0.34082(17) 0.46071(16) 0.39048(17) 0.0310(3) Uani 1 1 d .
C10 C 0.2997(2) 0.35498(19) 0.4783(2) 0.0387(4) Uani 1 1 d .
H10 H 0.3180 0.2638 0.4560 0.046 Uiso 1 1 calc R
C11 C 0.2316(2) 0.3848(2) 0.5990(2) 0.0464(4) Uani 1 1 d .
H11 H 0.2044 0.3135 0.6571 0.056 Uiso 1 1 calc R
C12 C 0.2041(2) 0.5189(2) 0.6334(2) 0.0465(4) Uani 1 1 d .
H12 H 0.1587 0.5390 0.7146 0.056 Uiso 1 1 calc R
C13 C 0.2445(2) 0.6232(2) 0.5461(2) 0.0443(4) Uani 1 1 d .
H13 H 0.2262 0.7141 0.5696 0.053 Uiso 1 1 calc R
C14 C 0.3121(2) 0.59617(16) 0.4236(2) 0.0366(4) Uani 1 1 d .
H14 H 0.3376 0.6679 0.3649 0.044 Uiso 1 1 calc R
N1 N 0.41502(17) 0.42445(13) 0.27239(16) 0.0323(3) Uani 1 1 d .
O1 O 0.40687(17) 0.62557(13) 0.13742(17) 0.0501(4) Uani 1 1 d .
O2 O 0.55961(15) 0.29262(11) 0.10411(13) 0.0373(3) Uani 1 1 d .
H2A H 0.5824 0.2488 0.0336 0.056 Uiso 1 1 calc R
H1B H 0.442(3) 0.346(2) 0.270(3) 0.052(6) Uiso 1 1 d .
loop_
_atom_site_aniso_label
_atom_site_aniso_U_11
_atom_site_aniso_U_22
_atom_site_aniso_U_33
_atom_site_aniso_U_23
_atom_site_aniso_U_13
_atom_site_aniso_U_12
C1 0.0321(7) 0.0318(8) 0.0333(8) 0.0035(7) 0.0131(6) -0.0002(6)
C2 0.0330(7) 0.0304(8) 0.0294(7) 0.0006(6) 0.0132(5) -0.0011(6)
C3 0.0337(7) 0.0227(7) 0.0364(8) 0.0026(6) 0.0137(6) -0.0001(6)
C4 0.0309(7) 0.0283(7) 0.0373(8) 0.0014(6) 0.0141(6) -0.0029(6)
C5 0.0372(8) 0.0394(9) 0.0471(9) 0.0011(8) 0.0153(7) 0.0033(7)
C6 0.0456(10) 0.0625(13) 0.0749(13) -0.0065(12) 0.0286(9) 0.0127(9)
C7 0.0528(10) 0.0691(14) 0.0417(9) 0.0119(9) 0.0238(8) 0.0165(9)
C8 0.0397(8) 0.0420(9) 0.0392(8) -0.0041(7) 0.0121(6) -0.0090(7)
C9 0.0293(7) 0.0343(8) 0.0289(7) -0.0019(6) 0.0096(6) -0.0020(6)
C10 0.0466(9) 0.0351(8) 0.0390(8) 0.0013(7) 0.0207(7) 0.0013(7)
C11 0.0527(9) 0.0526(11) 0.0400(9) 0.0069(8) 0.0240(8) 0.0024(8)
C12 0.0465(9) 0.0636(12) 0.0332(8) -0.0063(9) 0.0185(7) 0.0056(9)
C13 0.0481(9) 0.0430(9) 0.0409(9) -0.0116(8) 0.0142(7) 0.0049(8)
C14 0.0413(8) 0.0314(9) 0.0382(8) -0.0036(7) 0.0148(7) -0.0003(6)
N1 0.0391(7) 0.0268(7) 0.0356(7) -0.0002(6) 0.0186(5) 0.0007(5)
O1 0.0663(8) 0.0399(7) 0.0603(8) 0.0186(6) 0.0424(6) 0.0193(6)
O2 0.0538(7) 0.0249(5) 0.0429(6) -0.0051(5) 0.0290(5) -0.0065(5)
loop_
_atom_type_symbol
_atom_type_description
_atom_type_scat_dispersion_real
_atom_type_scat_dispersion_imag
_atom_type_scat_source
C C 0.0033 0.0016 'International Tables Vol C Tables 4.2.6.8 and 6.1.1.4'
H H 0.0000 0.0000 'International Tables Vol C Tables 4.2.6.8 and 6.1.1.4'
N N 0.0061 0.0033 'International Tables Vol C Tables 4.2.6.8 and 6.1.1.4'
O O 0.0106 0.0060 'International Tables Vol C Tables 4.2.6.8 and 6.1.1.4'
loop_
_geom_angle_atom_site_label_1
_geom_angle_atom_site_label_2
_geom_angle_atom_site_label_3
_geom_angle
O1 C1 N1 123.91(14)
O1 C1 C2 121.02(14)
N1 C1 C2 115.04(13)
O2 C2 C1 108.53(12)
O2 C2 C3 112.38(12)
C1 C2 C3 109.35(12)
C4 C3 C8 115.07(12)
C4 C3 C2 109.84(12)
C8 C3 C2 110.57(12)
C5 C4 C7 122.49(15)
C5 C4 C3 122.70(13)
C7 C4 C3 114.81(13)
C4 C5 C6 127.36(16)
C14 C9 C10 119.54(15)
C14 C9 N1 122.55(14)
C10 C9 N1 117.89(14)
C11 C10 C9 120.33(16)
C12 C11 C10 120.42(17)
C11 C12 C13 119.13(16)
C12 C13 C14 121.68(18)
C9 C14 C13 118.89(16)
C1 N1 C9 129.09(13)
loop_
_geom_bond_atom_site_label_1
_geom_bond_atom_site_label_2
_geom_bond_distance
C1 O1 1.220(2)
C1 N1 1.3449(18)
C1 C2 1.519(2)
C2 O2 1.4125(19)
C2 C3 1.5466(19)
C3 C4 1.513(2)
C3 C8 1.529(2)
C4 C5 1.323(2)
C4 C7 1.503(2)
C5 C6 1.496(2)
C9 C14 1.384(2)
C9 C10 1.391(2)
C9 N1 1.4146(19)
C10 C11 1.385(2)
C11 C12 1.372(3)
C12 C13 1.374(3)
C13 C14 1.392(2)
loop_
_geom_torsion_atom_site_label_1
_geom_torsion_atom_site_label_2
_geom_torsion_atom_site_label_3
_geom_torsion_atom_site_label_4
_geom_torsion
O1 C1 C2 O2 -176.69(14)
N1 C1 C2 O2 5.04(16)
O1 C1 C2 C3 60.40(18)
N1 C1 C2 C3 -117.88(13)
O2 C2 C3 C4 67.71(15)
C1 C2 C3 C4 -171.69(11)
O2 C2 C3 C8 -60.36(16)
C1 C2 C3 C8 60.24(16)
C8 C3 C4 C5 19.1(2)
C2 C3 C4 C5 -106.44(16)
C8 C3 C4 C7 -161.78(15)
C2 C3 C4 C7 72.68(17)
C7 C4 C5 C6 -1.3(3)
C3 C4 C5 C6 177.72(18)
C14 C9 C10 C11 -0.5(2)
N1 C9 C10 C11 177.99(15)
C9 C10 C11 C12 -0.1(3)
C10 C11 C12 C13 0.2(3)
C11 C12 C13 C14 0.2(3)
C10 C9 C14 C13 0.8(2)
N1 C9 C14 C13 -177.56(13)
C12 C13 C14 C9 -0.7(2)
O1 C1 N1 C9 -2.7(2)
C2 C1 N1 C9 175.54(13)
C14 C9 N1 C1 -10.9(2)
C10 C9 N1 C1 170.72(14)
