#------------------------------------------------------------------------------
#$Date: 2017-10-13 14:42:48 +0300 (Fri, 13 Oct 2017) $
#$Revision: 201982 $
#$URL: file:///home/coder/svn-repositories/cod/cif/4/11/18/4111838.cif $
#------------------------------------------------------------------------------
#
# This file is available in the Crystallography Open Database (COD),
# http://www.crystallography.net/
#
# All data on this site have been placed in the public domain by the
# contributors.
#
data_4111838
loop_
_publ_author_name
'Archan Dey'
'Michael T. Kirchner'
'Venu R. Vangala'
'Gautam R. Desiraju'
'Raju Mondal'
'Judith A. K. Howard'
_publ_contact_author_address
;
School of Chemistry
University of Hyderabad
Hyderabad 500 046
India
;
_publ_contact_author_email       desiraju@uohyd.ernet.in
_publ_contact_author_fax         '91 40 23010567'
_publ_contact_author_name        'Professor Gautam R. Desiraju'
_publ_contact_author_phone       '91 40 23134828'
_publ_section_title
;
 Crystal Structure Prediction of Aminols: Advantages of a Supramolecular
 Synthon Approach with Experimental Structures
;
_journal_name_full               'Journal of the American Chemical Society'
_journal_page_first              10545
_journal_page_last               10559
_journal_paper_doi               10.1021/ja042738c
_journal_volume                  127
_journal_year                    2005
_chemical_formula_moiety         'C7 H9 N O'
_chemical_formula_sum            'C7 H9 N O'
_chemical_formula_weight         123.15
_chemical_melting_point          410.70
_chemical_name_common            3A5MP
_chemical_name_systematic        3-Amino-5-methylphenol
_space_group_IT_number           14
_symmetry_cell_setting           monoclinic
_symmetry_space_group_name_Hall  '-P 2yn'
_symmetry_space_group_name_H-M   'P 1 21/n 1'
_atom_sites_solution_hydrogens   geom
_atom_sites_solution_primary     direct
_atom_sites_solution_secondary   difmap
_audit_creation_method           SHELXL-97
_cell_angle_alpha                90.00
_cell_angle_beta                 107.5570(10)
_cell_angle_gamma                90.00
_cell_formula_units_Z            4
_cell_length_a                   6.02390(10)
_cell_length_b                   15.2605(3)
_cell_length_c                   7.4566(2)
_cell_measurement_reflns_used    5407
_cell_measurement_temperature    120(2)
_cell_measurement_theta_max      27.489
_cell_measurement_theta_min      2.669
_cell_volume                     653.54(2)
_computing_cell_refinement       'Bruker SMART'
_computing_data_collection       'Bruker SMART'
_computing_data_reduction        'Bruker SHELXTL'
_computing_molecular_graphics    'Bruker SHELXTL'
_computing_publication_material  'Bruker SHELXTL'
_computing_structure_refinement  'SHELXL-97 (Sheldrick, 1997)'
_computing_structure_solution    'SHELXS-97 (Sheldrick, 1990)'
_diffrn_ambient_temperature      120(2)
_diffrn_detector_area_resol_mean 8
_diffrn_measured_fraction_theta_full 1.000
_diffrn_measured_fraction_theta_max 1.000
_diffrn_measurement_device_type  'smart 6k CCD area detector'
_diffrn_measurement_method       'omega scans'
_diffrn_radiation_monochromator  graphite
_diffrn_radiation_source         'fine-focus sealed tube'
_diffrn_radiation_type           MoK\a
_diffrn_radiation_wavelength     0.71073
_diffrn_reflns_av_R_equivalents  0.0197
_diffrn_reflns_av_sigmaI/netI    0.0113
_diffrn_reflns_limit_h_max       7
_diffrn_reflns_limit_h_min       -7
_diffrn_reflns_limit_k_max       19
_diffrn_reflns_limit_k_min       -19
_diffrn_reflns_limit_l_max       9
_diffrn_reflns_limit_l_min       -9
_diffrn_reflns_number            9951
_diffrn_reflns_theta_full        27.49
_diffrn_reflns_theta_max         27.49
_diffrn_reflns_theta_min         2.67
_diffrn_standards_decay_%        0
_exptl_absorpt_coefficient_mu    0.085
_exptl_absorpt_correction_T_max  1.0000
_exptl_absorpt_correction_T_min  0.906380
_exptl_absorpt_correction_type   multi-scan
_exptl_absorpt_process_details
'SADABS v.2.03 (Bruker, 2001), R(int)=0.0407 before correction'
_exptl_crystal_colour            Colourless
_exptl_crystal_density_diffrn    1.252
_exptl_crystal_description       Plate
_exptl_crystal_F_000             264
_exptl_crystal_size_max          0.30
_exptl_crystal_size_mid          0.18
_exptl_crystal_size_min          0.02
_refine_diff_density_max         0.225
_refine_diff_density_min         -0.205
_refine_diff_density_rms         0.042
_refine_ls_extinction_method     none
_refine_ls_goodness_of_fit_ref   1.066
_refine_ls_hydrogen_treatment    refall
_refine_ls_matrix_type           full
_refine_ls_number_parameters     118
_refine_ls_number_reflns         1502
_refine_ls_number_restraints     0
_refine_ls_restrained_S_all      1.066
_refine_ls_R_factor_all          0.0391
_refine_ls_R_factor_gt           0.0353
_refine_ls_shift/su_max          0.001
_refine_ls_shift/su_mean         0.000
_refine_ls_structure_factor_coef Fsqd
_refine_ls_weighting_details
'calc w=1/[\s^2^(Fo^2^)+(0.0594P)^2^+0.1446P] where P=(Fo^2^+2Fc^2^)/3'
_refine_ls_weighting_scheme      calc
_refine_ls_wR_factor_gt          0.0976
_refine_ls_wR_factor_ref         0.1025
_reflns_number_gt                1341
_reflns_number_total             1502
_reflns_threshold_expression     I>2\s(I)
_cod_data_source_file            ja042738csi20050407_114233_08.cif
_cod_data_source_block           3c
_cod_original_sg_symbol_Hall     '-P 2yn '
_cod_database_code               4111838
loop_
_symmetry_equiv_pos_as_xyz
'x, y, z'
'-x+1/2, y+1/2, -z+1/2'
'-x, -y, -z'
'x-1/2, -y-1/2, z-1/2'
loop_
_atom_site_label
_atom_site_type_symbol
_atom_site_fract_x
_atom_site_fract_y
_atom_site_fract_z
_atom_site_U_iso_or_equiv
_atom_site_adp_type
_atom_site_occupancy
_atom_site_symmetry_multiplicity
_atom_site_calc_flag
O1 O 0.17491(13) 0.84078(5) 0.56825(10) 0.0273(2) Uani 1 1 d
N1 N 0.04877(15) 0.77218(6) 1.16523(11) 0.0244(2) Uani 1 1 d
C2 C 0.12132(16) 0.80581(6) 0.86815(13) 0.0215(2) Uani 1 1 d
C6 C -0.09964(17) 0.92122(6) 0.66993(14) 0.0234(2) Uani 1 1 d
C5 C -0.21310(16) 0.93955(6) 0.80293(14) 0.0227(2) Uani 1 1 d
C4 C -0.15969(16) 0.89057(6) 0.96860(13) 0.0224(2) Uani 1 1 d
C1 C 0.06785(17) 0.85520(6) 0.70295(13) 0.0218(2) Uani 1 1 d
C3 C 0.00657(16) 0.82430(6) 1.00114(13) 0.0209(2) Uani 1 1 d
C7 C -0.39392(19) 1.01105(7) 0.76933(16) 0.0286(3) Uani 1 1 d
H2 H 0.239(2) 0.7594(9) 0.8926(18) 0.026(3) Uiso 1 1 d
H6 H -0.134(2) 0.9544(8) 0.5495(18) 0.027(3) Uiso 1 1 d
H112 H 0.181(3) 0.7394(10) 1.187(2) 0.041(4) Uiso 1 1 d
H4 H -0.240(2) 0.9019(8) 1.0629(19) 0.027(3) Uiso 1 1 d
H111 H 0.047(3) 0.8032(10) 1.267(2) 0.043(4) Uiso 1 1 d
H7C H -0.369(3) 1.0468(10) 0.884(2) 0.044(4) Uiso 1 1 d
H1 H 0.295(3) 0.8037(11) 0.615(2) 0.046(4) Uiso 1 1 d
H7B H -0.551(3) 0.9846(10) 0.735(2) 0.041(4) Uiso 1 1 d
H7A H -0.387(3) 1.0498(11) 0.662(2) 0.048(4) Uiso 1 1 d
loop_
_atom_site_aniso_label
_atom_site_aniso_U_11
_atom_site_aniso_U_22
_atom_site_aniso_U_33
_atom_site_aniso_U_23
_atom_site_aniso_U_13
_atom_site_aniso_U_12
O1 0.0297(4) 0.0367(4) 0.0187(4) 0.0028(3) 0.0123(3) 0.0042(3)
N1 0.0237(4) 0.0348(5) 0.0162(4) 0.0033(3) 0.0081(3) 0.0037(3)
C2 0.0206(4) 0.0261(5) 0.0185(5) -0.0004(4) 0.0068(3) 0.0003(4)
C6 0.0242(5) 0.0252(5) 0.0207(5) 0.0022(4) 0.0065(4) -0.0024(4)
C5 0.0214(5) 0.0227(5) 0.0236(5) -0.0017(4) 0.0061(4) -0.0020(3)
C4 0.0211(5) 0.0276(5) 0.0199(4) -0.0036(4) 0.0082(4) -0.0017(4)
C1 0.0225(5) 0.0271(5) 0.0172(4) -0.0020(3) 0.0079(3) -0.0038(4)
C3 0.0196(4) 0.0271(5) 0.0158(4) -0.0011(3) 0.0051(3) -0.0033(3)
C7 0.0272(5) 0.0260(5) 0.0328(6) 0.0006(4) 0.0096(4) 0.0026(4)
loop_
_atom_type_symbol
_atom_type_description
_atom_type_scat_dispersion_real
_atom_type_scat_dispersion_imag
_atom_type_scat_source
C C 0.0033 0.0016 'International Tables Vol C Tables 4.2.6.8 and 6.1.1.4'
H H 0.0000 0.0000 'International Tables Vol C Tables 4.2.6.8 and 6.1.1.4'
N N 0.0061 0.0033 'International Tables Vol C Tables 4.2.6.8 and 6.1.1.4'
O O 0.0106 0.0060 'International Tables Vol C Tables 4.2.6.8 and 6.1.1.4'
loop_
_geom_angle_atom_site_label_1
_geom_angle_atom_site_label_2
_geom_angle_atom_site_label_3
_geom_angle
C1 O1 H1 108.6(10)
C3 N1 H112 112.1(9)
C3 N1 H111 113.0(10)
H112 N1 H111 111.9(14)
C1 C2 C3 119.01(9)
C1 C2 H2 121.1(7)
C3 C2 H2 119.9(7)
C5 C6 C1 120.27(9)
C5 C6 H6 121.8(7)
C1 C6 H6 117.9(7)
C6 C5 C4 119.42(9)
C6 C5 C7 120.81(9)
C4 C5 C7 119.76(9)
C3 C4 C5 120.32(9)
C3 C4 H4 119.1(8)
C5 C4 H4 120.6(8)
O1 C1 C6 117.63(9)
O1 C1 C2 121.84(9)
C6 C1 C2 120.52(9)
C4 C3 C2 120.44(9)
C4 C3 N1 119.38(9)
C2 C3 N1 120.07(9)
C5 C7 H7C 110.1(9)
C5 C7 H7B 109.5(9)
H7C C7 H7B 109.7(13)
C5 C7 H7A 110.9(9)
H7C C7 H7A 109.2(13)
H7B C7 H7A 107.4(12)
loop_
_geom_bond_atom_site_label_1
_geom_bond_atom_site_label_2
_geom_bond_distance
O1 C1 1.3653(11)
O1 H1 0.902(18)
N1 C3 1.4166(12)
N1 H112 0.915(16)
N1 H111 0.899(17)
C2 C1 1.3964(13)
C2 C3 1.3980(13)
C2 H2 0.980(13)
C6 C5 1.3921(14)
C6 C1 1.3942(14)
C6 H6 0.997(13)
C5 C4 1.3959(14)
C5 C7 1.5083(14)
C4 C3 1.3922(14)
C4 H4 0.980(14)
C7 H7C 0.985(16)
C7 H7B 0.988(16)
C7 H7A 1.004(17)
loop_
_geom_hbond_atom_site_label_D
_geom_hbond_atom_site_label_H
_geom_hbond_atom_site_label_A
_geom_hbond_distance_DH
_geom_hbond_distance_HA
_geom_hbond_distance_DA
_geom_hbond_angle_DHA
_geom_hbond_site_symmetry_A
O1 H1 N1 0.902(18) 1.863(18) 2.7539(12) 169.0(15) 4_675
N1 H111 O1 0.899(17) 2.217(17) 3.0539(11) 154.8(14) 1_556
N1 H112 C1 0.915(16) 2.710(16) 3.6200(13) 172.8(13) 4_676
N1 H112 C2 0.915(16) 2.677(17) 3.5289(13) 155.2(13) 4_676
N1 H112 C3 0.915(16) 2.741(16) 3.4467(12) 134.7(12) 4_676
N1 H112 C4 0.915(16) 2.839(16) 3.4602(13) 126.3(11) 4_676
N1 H112 C5 0.915(16) 2.877(16) 3.5586(13) 132.3(11) 4_676
N1 H112 C6 0.915(16) 2.803(16) 3.6267(13) 150.3(12) 4_676
loop_
_cod_related_entry_id
_cod_related_entry_database
_cod_related_entry_code
1 ChemSpider 2286148
