#------------------------------------------------------------------------------
#$Date: 2016-02-16 22:30:59 +0200 (Tue, 16 Feb 2016) $
#$Revision: 176467 $
#$URL: svn://www.crystallography.net/cod/cif/4/11/16/4111601.cif $
#------------------------------------------------------------------------------
#
# This file is available in the Crystallography Open Database (COD),
# http://www.crystallography.net/
#
# All data on this site have been placed in the public domain by the
# contributors.
#
data_4111601
loop_
_publ_author_name
'Sachio Horiuchi'
'Reiji Kumai'
'Yoshinori Tokura'
_publ_contact_author_email       s-horiuchi@aist.go.jp
_publ_contact_author_fax         +81-29-861-2586
_publ_contact_author_name        'Dr. Sachio HORIUCHI'
_publ_contact_author_phone       +81-29-861-2945
_publ_section_title
;
 Room-Temperature Ferroelectricity and Gigantic Dielectric Susceptibility
 on a Supramolecular Architecture of Phenazine and Deuterated Chloranilic
 Acid
;
_journal_name_full               'Journal of the American Chemical Society'
_journal_page_first              5010
_journal_page_last               5011
_journal_paper_doi               10.1021/ja042212s
_journal_volume                  127
_journal_year                    2005
_chemical_formula_moiety         'C18 H10 Cl2 N2 O4 '
_chemical_formula_sum            'C18 H10 Cl2 N2 O4'
_chemical_formula_weight         389.19
_space_group_IT_number           14
_symmetry_cell_setting           monoclinic
_symmetry_Int_Tables_number      14
_symmetry_space_group_name_Hall  '-P 2yn'
_symmetry_space_group_name_H-M   'P 1 21/n 1'
_audit_creation_date             2004-12-18
_audit_creation_method           'by CrystalStructure 3.6.0'
_cell_angle_alpha                90
_cell_angle_beta                 107.951(6)
_cell_angle_gamma                90
_cell_formula_units_Z            2
_cell_length_a                   12.439(2)
_cell_length_b                   3.8487(7)
_cell_length_c                   16.956(3)
_cell_measurement_reflns_used    8778
_cell_measurement_temperature    305(1)
_cell_measurement_theta_max      62.66
_cell_measurement_theta_min      3
_cell_volume                     772.2(2)
_computing_cell_refinement       PROCESS-AUTO
_computing_data_collection       PROCESS-AUTO
_computing_data_reduction        CrystalStructure
_computing_molecular_graphics    'CrystalStructure 3.6.0'
_computing_publication_material  'CrystalStructure 3.6.0'
_computing_structure_refinement  CRYSTALS
_computing_structure_solution    Sir2002
_diffrn_measured_fraction_theta_full 0.5500
_diffrn_measured_fraction_theta_max 0.5500
_diffrn_measurement_device_type  'Rigaku IPDSC'
_diffrn_radiation_type           synchrotron
_diffrn_radiation_wavelength     0.6868
_diffrn_reflns_av_R_equivalents  0.046
_diffrn_reflns_limit_h_max       17
_diffrn_reflns_limit_h_min       -31
_diffrn_reflns_limit_k_max       4
_diffrn_reflns_limit_k_min       -4
_diffrn_reflns_limit_l_max       42
_diffrn_reflns_limit_l_min       -41
_diffrn_reflns_number            13180
_diffrn_reflns_theta_full        62.66
_diffrn_reflns_theta_max         62.66
_exptl_absorpt_coefficient_mu    0.450
_exptl_absorpt_correction_T_max  0.956
_exptl_absorpt_correction_T_min  0.615
_exptl_absorpt_correction_type   multi-scan
_exptl_crystal_colour            black
_exptl_crystal_density_diffrn    1.674
_exptl_crystal_description       needle
_exptl_crystal_F_000             396.00
_exptl_crystal_size_max          0.30
_exptl_crystal_size_mid          0.20
_exptl_crystal_size_min          0.10
_refine_diff_density_max         0.56
_refine_diff_density_min         -0.47
_refine_ls_extinction_coef       25(5)
_refine_ls_extinction_method
'Larson (1970) Crystallographic Computing eq. 22'
_refine_ls_goodness_of_fit_ref   5.346
_refine_ls_hydrogen_treatment    refall
_refine_ls_number_parameters     124
_refine_ls_number_reflns         2292
_refine_ls_R_factor_gt           0.0550
_refine_ls_shift/su_max          0.0000
_refine_ls_structure_factor_coef F
_refine_ls_weighting_details     'w = 1.0'
_refine_ls_weighting_scheme      unit
_refine_ls_wR_factor_ref         0.0590
_reflns_number_gt                2292
_reflns_number_total             6517
_reflns_threshold_expression     F^2^>2.0\s(F^2^)
_cod_data_source_file            ja042212ssi20041227_050817.cif
_cod_data_source_block           '_PhenD2ca'
_cod_original_formula_sum        'C18 H10 Cl2 N2 O4 '
_cod_database_code               4111601
loop_
_symmetry_equiv_pos_site_id
_symmetry_equiv_pos_as_xyz
1 +X,+Y,+Z
2 1/2-X,1/2+Y,1/2-Z
3 -X,-Y,-Z
4 1/2+X,1/2-Y,1/2+Z
loop_
_atom_site_label
_atom_site_type_symbol
_atom_site_fract_x
_atom_site_fract_y
_atom_site_fract_z
_atom_site_U_iso_or_equiv
_atom_site_adp_type
_atom_site_occupancy
_atom_site_symmetry_multiplicity
_atom_site_calc_flag
Cl(1) Cl 0.64453(6) 0.2024(3) 0.67398(4) 0.0418(2) Uani 1.00 1 d
O(1) O 0.7303(1) 0.5482(8) 0.5516(1) 0.0456(7) Uani 1.00 1 d
O(2) O 0.6063(2) 0.8117(8) 0.4054(1) 0.0462(7) Uani 1.00 1 d
N(1) N 0.8955(2) 0.8710(8) 0.5035(1) 0.0312(6) Uani 1.00 1 d
C(4) C 0.9254(2) 0.842(1) 0.4341(1) 0.0299(7) Uani 1.00 1 d
C(3) C 0.5538(2) 0.670(1) 0.4462(1) 0.0317(8) Uani 1.00 1 d
C(5) C 1.0316(2) 0.973(1) 0.4303(1) 0.0303(7) Uani 1.00 1 d
C(2) C 0.6205(2) 0.521(1) 0.5295(1) 0.0306(8) Uani 1.00 1 d
C(1) C 0.5674(2) 0.367(1) 0.5788(1) 0.0304(7) Uani 1.00 1 d
C(9) C 0.8511(2) 0.677(1) 0.3631(2) 0.0364(8) Uani 1.00 1 d
C(8) C 0.8809(2) 0.649(1) 0.2931(2) 0.0413(9) Uani 1.00 1 d
C(6) C 1.0596(2) 0.938(1) 0.3554(2) 0.0363(9) Uani 1.00 1 d
C(7) C 0.9854(2) 0.781(1) 0.2889(2) 0.0387(9) Uani 1.00 1 d
H(1) H 0.749(3) 0.66(1) 0.517(3) 0.05(1) Uiso 1.00 1 c
H(4) H 0.830(3) 0.53(1) 0.243(3) 0.05(1) Uiso 1.00 1 c
H(3) H 1.004(3) 0.76(1) 0.242(3) 0.05(1) Uiso 1.00 1 c
H(5) H 0.788(3) 0.59(1) 0.368(3) 0.04(1) Uiso 1.00 1 c
H(2) H 1.127(3) 1.02(1) 0.353(3) 0.04(1) Uiso 1.00 1 c
loop_
_atom_site_aniso_label
_atom_site_aniso_U_11
_atom_site_aniso_U_22
_atom_site_aniso_U_33
_atom_site_aniso_U_12
_atom_site_aniso_U_13
_atom_site_aniso_U_23
Cl(1) 0.0344(3) 0.0584(8) 0.0302(3) 0.0005(4) 0.0066(2) 0.0075(4)
O(1) 0.0236(8) 0.069(2) 0.043(1) -0.006(1) 0.0088(7) 0.012(1)
O(2) 0.0320(9) 0.069(2) 0.042(1) -0.004(1) 0.0169(8) 0.012(1)
N(1) 0.0215(7) 0.039(2) 0.032(1) -0.001(1) 0.0077(7) 0.003(1)
C(4) 0.0217(8) 0.037(2) 0.030(1) 0.000(1) 0.0064(7) 0.001(1)
C(3) 0.028(1) 0.039(3) 0.030(1) -0.000(1) 0.0117(8) -0.000(1)
C(5) 0.0221(9) 0.038(3) 0.030(1) 0.001(1) 0.0071(7) 0.002(1)
C(2) 0.0255(9) 0.036(3) 0.031(1) -0.001(1) 0.0089(8) -0.001(1)
C(1) 0.0239(9) 0.039(3) 0.028(1) -0.001(1) 0.0075(7) -0.000(1)
C(9) 0.024(1) 0.045(3) 0.037(1) -0.003(1) 0.0054(9) -0.003(1)
C(8) 0.034(1) 0.051(3) 0.034(1) 0.002(2) 0.004(1) -0.007(1)
C(6) 0.029(1) 0.046(3) 0.037(1) -0.000(1) 0.0133(9) 0.002(1)
C(7) 0.037(1) 0.048(3) 0.033(1) 0.004(2) 0.012(1) -0.003(1)
loop_
_atom_type_symbol
_atom_type_description
_atom_type_scat_dispersion_real
_atom_type_scat_dispersion_imag
_atom_type_scat_source
C C 0.018 0.015
;
International Tables for Crystallography
(1992, Vol. C, Tables 4.2.6.8 and 6.1.1.4)
;
H H 0.000 0.000
;
International Tables for Crystallography
(1992, Vol. C, Table 6.1.1.4)
;
N N 0.036 0.031
;
International Tables for Crystallography
(1992, Vol. C, Tables 4.2.6.8 and 6.1.1.4)
;
O O 0.070 0.057
;
International Tables for Crystallography
(1992, Vol. C, Tables 4.2.6.8 and 6.1.1.4)
;
Br Br -0.275 2.338
;
International Tables for Crystallography
(1992, Vol. C, Tables 4.2.6.8 and 6.1.1.4)
;
loop_
_geom_angle_atom_site_label_1
_geom_angle_atom_site_label_2
_geom_angle_atom_site_label_3
_geom_angle
_geom_angle_site_symmetry_1
_geom_angle_site_symmetry_2
_geom_angle_site_symmetry_3
Cl(1) C(1) C(3) 117.9(2) . . 66603
Cl(1) C(1) C(2) 120.2(2) . . .
O(1) C(2) C(1) 121.7(2) . . .
O(1) C(2) C(3) 117.5(3) . . .
O(2) C(3) C(2) 117.7(2) . . .
O(2) C(3) C(1) 125.0(2) . . 66603
N(1) C(4) C(9) 119.8(2) . . .
N(1) C(4) C(5) 121.1(2) . . .
C(9) C(4) C(5) 119.1(3) . . .
C(4) C(5) C(6) 119.2(2) . . .
C(4) C(9) C(8) 119.8(3) . . .
C(3) C(2) C(1) 120.8(2) . . .
C(1) C(3) C(2) 117.3(3) 66603 . .
C(3) C(1) Cl(1) 117.9(2) . 66603 66603
C(3) C(1) C(2) 121.9(2) . 66603 66603
C(5) C(6) C(7) 119.6(3) . . .
C(2) C(1) C(3) 121.9(2) . . 66603
C(1) C(3) O(2) 125.0(2) . 66603 66603
C(1) C(3) C(2) 117.3(3) . 66603 66603
C(9) C(8) C(7) 121.3(3) . . .
C(8) C(7) C(6) 121.0(3) . . .
H(1) O(1) C(2) 110(2) . . .
C(4) C(9) H(5) 116(2) . . .
C(5) C(6) H(2) 119(2) . . .
H(5) C(9) C(8) 124(2) . . .
C(9) C(8) H(4) 120(2) . . .
H(4) C(8) C(7) 118(2) . . .
C(8) C(7) H(3) 120(2) . . .
H(2) C(6) C(7) 121(2) . . .
C(6) C(7) H(3) 119(2) . . .
loop_
_geom_bond_atom_site_label_1
_geom_bond_atom_site_label_2
_geom_bond_distance
_geom_bond_site_symmetry_2
Cl(1) C(1) 1.724(3) .
O(1) C(2) 1.304(3) .
O(2) C(3) 1.215(4) .
N(1) C(4) 1.344(4) .
C(4) C(5) 1.435(4) .
C(4) C(9) 1.421(4) .
C(3) C(2) 1.514(4) .
C(3) C(1) 1.442(3) 66603
C(5) C(6) 1.423(4) .
C(2) C(1) 1.352(4) .
C(1) C(3) 1.442(3) 66603
C(9) C(8) 1.352(5) .
C(8) C(7) 1.418(5) .
C(6) C(7) 1.358(4) .
O(1) H(1) 0.83(3) .
C(9) H(5) 0.87(3) .
C(8) H(4) 1.00(3) .
C(6) H(2) 0.91(3) .
C(7) H(3) 0.90(3) .
loop_
_geom_contact_atom_site_label_1
_geom_contact_atom_site_label_2
_geom_contact_distance
_geom_contact_site_symmetry_2
Cl(1) O(1) 2.929(3) .
Cl(1) O(2) 2.993(2) 66603
Cl(1) C(3) 2.717(2) 66603
Cl(1) C(2) 3.538(3) 54501
Cl(1) C(2) 2.672(3) .
Cl(1) C(1) 3.594(4) 54501
O(1) O(2) 2.683(3) .
O(1) N(1) 3.565(4) 54501
O(1) N(1) 2.732(3) .
O(1) C(3) 2.412(3) .
O(1) C(1) 2.320(4) .
O(2) Cl(1) 2.993(2) 66603
O(2) N(1) 3.475(3) .
O(2) C(3) 3.478(5) 56501
O(2) C(2) 2.342(4) .
O(2) C(2) 3.418(4) 56501
O(2) C(2) 3.568(4) 66603
O(2) C(1) 3.562(4) .
O(2) C(1) 2.359(4) 66603
O(2) C(9) 3.377(4) .
N(1) O(1) 3.565(4) 56501
N(1) C(5) 2.420(4) .
N(1) C(9) 2.392(4) .
C(4) C(9) 3.457(5) 56501
C(4) C(8) 2.400(4) .
C(4) C(6) 2.465(4) .
C(4) C(7) 2.795(4) .
C(3) Cl(1) 2.717(2) 66603
C(3) O(2) 3.478(5) 54501
C(3) C(3) 2.890(4) 66603
C(3) C(2) 3.561(5) 56501
C(3) C(2) 2.442(4) 66603
C(3) C(1) 2.493(4) .
C(3) C(1) 3.470(5) 56501
C(5) C(9) 2.462(4) .
C(5) C(9) 3.479(5) 56501
C(5) C(8) 2.792(4) .
C(5) C(7) 2.405(4) .
C(2) Cl(1) 3.538(3) 56501
C(2) O(2) 3.418(4) 54501
C(2) O(2) 3.568(4) 66603
C(2) C(3) 3.561(5) 54501
C(2) C(3) 2.442(4) 66603
C(2) C(2) 2.857(3) 66603
C(2) C(1) 3.475(5) 56501
C(2) C(1) 2.525(3) 66603
C(1) Cl(1) 3.594(4) 56501
C(1) O(2) 2.359(4) 66603
C(1) C(3) 3.470(5) 54501
C(1) C(2) 3.475(5) 54501
C(1) C(2) 2.525(3) 66603
C(1) C(1) 2.871(3) 66603
C(9) C(4) 3.457(5) 54501
C(9) C(5) 3.479(5) 54501
C(9) C(6) 2.820(4) .
C(9) C(7) 2.415(5) .
C(8) C(6) 3.480(5) 54501
C(8) C(6) 2.417(4) .
C(8) C(7) 3.594(6) 54501
C(6) C(8) 3.480(5) 56501
C(6) C(7) 3.467(6) 56501
C(7) C(8) 3.594(6) 56501
C(7) C(6) 3.467(6) 54501
Cl(1) H(3) 2.97(4) 45504
Cl(1) H(3) 3.14(4) 46504
Cl(1) H(2) 3.29(4) 46504
O(1) H(1) 3.48(4) 54501
O(1) H(5) 3.41(4) .
O(2) H(1) 2.24(4) .
O(2) H(4) 2.98(3) 65502
O(2) H(3) 3.23(4) 64502
O(2) H(3) 3.00(4) 65502
O(2) H(5) 2.66(4) .
N(1) H(1) 2.06(4) .
N(1) H(1) 3.58(4) 56501
N(1) H(5) 2.51(4) .
C(4) H(1) 3.01(4) .
C(4) H(4) 3.31(4) .
C(4) H(5) 1.97(5) .
C(4) H(5) 3.39(4) 56501
C(4) H(2) 3.28(4) .
C(3) H(1) 2.36(4) .
C(3) H(3) 3.42(4) 64502
C(3) H(5) 3.56(4) .
C(5) H(3) 3.22(4) .
C(5) H(5) 3.23(4) .
C(5) H(2) 2.03(4) .
C(2) H(1) 1.77(4) .
C(1) H(1) 3.00(5) .
C(1) H(3) 3.41(4) 46504
C(9) H(1) 3.22(4) .
C(9) H(4) 2.05(4) .
C(9) H(4) 3.48(4) 64502
C(9) H(4) 2.77(5) 65502
C(9) H(3) 3.22(3) .
C(8) H(4) 3.49(4) 56501
C(8) H(4) 3.47(4) 64502
C(8) H(4) 2.90(4) 65502
C(8) H(3) 2.03(4) .
C(8) H(5) 1.97(4) .
C(8) H(5) 3.58(4) 64502
C(8) H(5) 3.37(4) 65502
C(8) H(2) 3.25(4) .
C(6) H(4) 3.30(4) .
C(6) H(3) 1.96(4) .
C(7) H(4) 2.09(4) .
C(7) H(4) 3.41(4) 56501
C(7) H(5) 3.22(4) .
C(7) H(2) 3.42(3) 54501
C(7) H(2) 1.99(4) .
H(1) O(1) 3.48(4) 56501
H(1) N(1) 3.58(4) 54501
H(4) O(2) 2.98(4) 64502
H(4) C(9) 2.77(4) 64502
H(4) C(9) 3.48(4) 65502
H(4) C(8) 3.49(4) 54501
H(4) C(8) 2.90(4) 64502
H(4) C(8) 3.47(4) 65502
H(4) C(7) 3.41(4) 54501
H(3) Cl(1) 2.97(4) 55404
H(3) Cl(1) 3.14(4) 56404
H(3) O(2) 3.00(4) 64502
H(3) O(2) 3.23(5) 65502
H(3) C(3) 3.42(4) 65502
H(3) C(1) 3.41(4) 56404
H(5) C(4) 3.39(4) 54501
H(5) C(8) 3.37(4) 64502
H(5) C(8) 3.58(4) 65502
H(2) Cl(1) 3.29(4) 56404
H(2) C(7) 3.42(4) 56501
loop_
_geom_torsion_atom_site_label_1
_geom_torsion_atom_site_label_2
_geom_torsion_atom_site_label_3
_geom_torsion_atom_site_label_4
_geom_torsion
N(1) C(4) C(5) C(6) -179.8(3)
C(9) C(4) C(5) C(6) 0.4(5)
N(1) C(4) C(9) C(8) 179.7(4)
C(5) C(4) C(9) C(8) -0.6(5)
O(2) C(3) C(2) O(1) -1.2(5)
O(2) C(3) C(2) C(1) 178.6(4)
C(4) C(5) C(6) C(7) 0.2(4)
O(1) C(2) C(1) Cl(1) 0.4(5)
C(3) C(2) C(1) Cl(1) -179.3(3)
C(4) C(9) C(8) C(7) 0.1(5)
C(9) C(8) C(7) C(6) 0.6(6)
C(5) C(6) C(7) C(8) -0.7(6)
