#------------------------------------------------------------------------------
#$Date: 2017-10-13 14:42:48 +0300 (Fri, 13 Oct 2017) $
#$Revision: 201982 $
#$URL: file:///home/coder/svn-repositories/cod/cif/4/11/18/4111839.cif $
#------------------------------------------------------------------------------
#
# This file is available in the Crystallography Open Database (COD),
# http://www.crystallography.net/
#
# All data on this site have been placed in the public domain by the
# contributors.
#
data_4111839
loop_
_publ_author_name
'Archan Dey'
'Michael T. Kirchner'
'Venu R. Vangala'
'Gautam R. Desiraju'
'Raju Mondal'
'Judith A. K. Howard'
_publ_contact_author_address
;
School of Chemistry
University of Hyderabad
Hyderabad 500 046
India
;
_publ_contact_author_email       desiraju@uohyd.ernet.in
_publ_contact_author_fax         '91 40 23010567'
_publ_contact_author_name        'Professor Gautam R. Desiraju'
_publ_contact_author_phone       '91 40 23134828'
_publ_section_title
;
 Crystal Structure Prediction of Aminols: Advantages of a Supramolecular
 Synthon Approach with Experimental Structures
;
_journal_name_full               'Journal of the American Chemical Society'
_journal_page_first              10545
_journal_page_last               10559
_journal_paper_doi               10.1021/ja042738c
_journal_volume                  127
_journal_year                    2005
_chemical_formula_moiety         'C7 H9 N O'
_chemical_formula_sum            'C7 H9 N O'
_chemical_formula_weight         123.15
_chemical_melting_point          434
_chemical_name_common            5A2MP
_chemical_name_systematic        5-Amino-2-methylphenol
_space_group_IT_number           7
_symmetry_cell_setting           monoclinic
_symmetry_space_group_name_Hall  'P -2yac'
_symmetry_space_group_name_H-M   'P 1 n 1'
_atom_sites_solution_hydrogens   geom
_atom_sites_solution_primary     direct
_atom_sites_solution_secondary   difmap
_audit_creation_method           SHELXL-97
_cell_angle_alpha                90.00
_cell_angle_beta                 110.020(10)
_cell_angle_gamma                90.00
_cell_formula_units_Z            2
_cell_length_a                   5.5990(10)
_cell_length_b                   7.971(2)
_cell_length_c                   7.700(2)
_cell_measurement_reflns_used    2111
_cell_measurement_temperature    105(2)
_cell_measurement_theta_max      27.439
_cell_measurement_theta_min      2.555
_cell_volume                     322.88(13)
_computing_cell_refinement       'Bruker SMART'
_computing_data_collection       'Bruker SMART'
_computing_data_reduction        'Bruker SAINT'
_computing_molecular_graphics    'Bruker SHELXTL'
_computing_publication_material  'Bruker SHELXTL'
_computing_structure_refinement  'SHELXL-97 (Sheldrick, 1997)'
_computing_structure_solution    'SHELXS-97 (Sheldrick, 1990)'
_diffrn_ambient_temperature      105(2)
_diffrn_detector_area_resol_mean 8
_diffrn_measured_fraction_theta_full 1.000
_diffrn_measured_fraction_theta_max 1.000
_diffrn_measurement_device_type  'smart 1k CCD area detector'
_diffrn_measurement_method       'omega scans'
_diffrn_radiation_monochromator  graphite
_diffrn_radiation_source         'fine-focus sealed tube'
_diffrn_radiation_type           MoK\a
_diffrn_radiation_wavelength     0.71073
_diffrn_reflns_av_R_equivalents  0.0472
_diffrn_reflns_av_sigmaI/netI    0.0274
_diffrn_reflns_limit_h_max       7
_diffrn_reflns_limit_h_min       -7
_diffrn_reflns_limit_k_max       10
_diffrn_reflns_limit_k_min       -10
_diffrn_reflns_limit_l_max       9
_diffrn_reflns_limit_l_min       -9
_diffrn_reflns_number            3294
_diffrn_reflns_theta_full        27.45
_diffrn_reflns_theta_max         27.45
_diffrn_reflns_theta_min         2.56
_diffrn_standards_decay_%        0
_exptl_absorpt_coefficient_mu    0.086
_exptl_absorpt_correction_type   none
_exptl_crystal_colour            orange
_exptl_crystal_density_diffrn    1.267
_exptl_crystal_description       block
_exptl_crystal_F_000             132
_exptl_crystal_size_max          0.44
_exptl_crystal_size_mid          0.24
_exptl_crystal_size_min          0.14
_refine_diff_density_max         0.276
_refine_diff_density_min         -0.185
_refine_diff_density_rms         0.047
_refine_ls_abs_structure_details
'undeterminable, Friedel pairs merged, all \Df" set to 0'
_refine_ls_extinction_method     none
_refine_ls_goodness_of_fit_ref   1.122
_refine_ls_hydrogen_treatment    refall
_refine_ls_matrix_type           full
_refine_ls_number_parameters     94
_refine_ls_number_reflns         745
_refine_ls_number_restraints     2
_refine_ls_restrained_S_all      1.121
_refine_ls_R_factor_all          0.0426
_refine_ls_R_factor_gt           0.0393
_refine_ls_shift/su_max          0.000
_refine_ls_shift/su_mean         0.000
_refine_ls_structure_factor_coef Fsqd
_refine_ls_weighting_details
'calc w=1/[\s^2^(Fo^2^)+(0.0497P)^2^+0.1182P] where P=(Fo^2^+2Fc^2^)/3'
_refine_ls_weighting_scheme      calc
_refine_ls_wR_factor_gt          0.0964
_refine_ls_wR_factor_ref         0.0995
_reflns_number_gt                706
_reflns_number_total             745
_reflns_threshold_expression     I>2\s(I)
_cod_data_source_file            ja042738csi20050407_114233_09.cif
_cod_data_source_block           3d
_cod_original_sg_symbol_Hall     'P -2yan '
_cod_database_code               4111839
loop_
_symmetry_equiv_pos_as_xyz
'x, y, z'
'x+1/2, -y, z+1/2'
loop_
_atom_site_label
_atom_site_type_symbol
_atom_site_fract_x
_atom_site_fract_y
_atom_site_fract_z
_atom_site_U_iso_or_equiv
_atom_site_adp_type
_atom_site_occupancy
_atom_site_symmetry_multiplicity
_atom_site_calc_flag
_atom_site_refinement_flags
O1 O 0.1960(3) 0.1501(2) 0.5383(2) 0.0170(4) Uani 1 1 d .
N1 N 0.3111(4) 0.0898(3) -0.0561(3) 0.0152(5) Uani 1 1 d .
C1 C 0.3160(4) 0.1920(3) 0.4168(3) 0.0135(5) Uani 1 1 d .
C2 C 0.2384(4) 0.1271(3) 0.2373(3) 0.0127(5) Uani 1 1 d .
H2A H 0.0953 0.0547 0.1953 0.015 Uiso 1 1 calc R
C3 C 0.3725(4) 0.1693(3) 0.1195(3) 0.0124(5) Uani 1 1 d .
C4 C 0.5796(5) 0.2786(3) 0.1811(3) 0.0153(5) Uani 1 1 d .
H4A H 0.6708 0.3087 0.1019 0.018 Uiso 1 1 calc R
C5 C 0.6509(4) 0.3430(3) 0.3602(3) 0.0157(5) Uani 1 1 d .
H5A H 0.7915 0.4175 0.4010 0.019 Uiso 1 1 calc R
C6 C 0.5237(4) 0.3021(3) 0.4812(3) 0.0152(5) Uani 1 1 d .
C7 C 0.6067(5) 0.3697(4) 0.6768(4) 0.0225(6) Uani 1 1 d .
H7A H 0.7537 0.4438 0.6979 0.034 Uiso 1 1 calc R
H7B H 0.6534 0.2762 0.7646 0.034 Uiso 1 1 calc R
H7C H 0.4666 0.4330 0.6944 0.034 Uiso 1 1 calc R
H112 H 0.160(8) 0.041(5) -0.087(5) 0.034(10) Uiso 1 1 d .
H111 H 0.318(7) 0.161(4) -0.140(5) 0.021(8) Uiso 1 1 d .
H1 H 0.065(6) 0.077(4) 0.486(5) 0.019(8) Uiso 1 1 d .
loop_
_atom_site_aniso_label
_atom_site_aniso_U_11
_atom_site_aniso_U_22
_atom_site_aniso_U_33
_atom_site_aniso_U_23
_atom_site_aniso_U_13
_atom_site_aniso_U_12
O1 0.0161(8) 0.0267(10) 0.0110(8) -0.0008(7) 0.0083(7) -0.0043(8)
N1 0.0146(10) 0.0231(11) 0.0094(9) -0.0005(8) 0.0062(7) -0.0024(9)
C1 0.0118(11) 0.0159(12) 0.0137(13) 0.0013(10) 0.0055(9) 0.0038(11)
C2 0.0103(10) 0.0157(12) 0.0125(10) 0.0010(9) 0.0043(8) -0.0006(9)
C3 0.0122(10) 0.0150(11) 0.0102(10) 0.0018(10) 0.0042(8) 0.0045(10)
C4 0.0158(11) 0.0188(12) 0.0144(11) 0.0025(9) 0.0091(9) 0.0010(9)
C5 0.0136(12) 0.0170(12) 0.0169(11) -0.0008(10) 0.0058(9) -0.0026(10)
C6 0.0170(13) 0.0138(11) 0.0140(12) -0.0005(9) 0.0043(10) 0.0010(10)
C7 0.0280(15) 0.0252(14) 0.0150(12) -0.0058(11) 0.0084(11) -0.0086(12)
loop_
_atom_type_symbol
_atom_type_description
_atom_type_scat_dispersion_real
_atom_type_scat_dispersion_imag
_atom_type_scat_source
C C 0.0033 0.0000 'International Tables Vol C Tables 4.2.6.8 and 6.1.1.4'
H H 0.0000 0.0000 'International Tables Vol C Tables 4.2.6.8 and 6.1.1.4'
N N 0.0061 0.0000 'International Tables Vol C Tables 4.2.6.8 and 6.1.1.4'
O O 0.0106 0.0000 'International Tables Vol C Tables 4.2.6.8 and 6.1.1.4'
loop_
_geom_angle_atom_site_label_1
_geom_angle_atom_site_label_2
_geom_angle_atom_site_label_3
_geom_angle
C1 O1 H1 111.3(19)
C3 N1 H112 111(2)
C3 N1 H111 111(2)
H112 N1 H111 111(3)
O1 C1 C2 121.8(2)
O1 C1 C6 116.94(19)
C2 C1 C6 121.28(19)
C1 C2 C3 119.8(2)
C1 C2 H2A 120.1
C3 C2 H2A 120.1
C4 C3 C2 119.7(2)
C4 C3 N1 120.1(2)
C2 C3 N1 119.9(2)
C5 C4 C3 119.2(2)
C5 C4 H4A 120.4
C3 C4 H4A 120.4
C6 C5 C4 122.5(2)
C6 C5 H5A 118.8
C4 C5 H5A 118.8
C5 C6 C1 117.5(2)
C5 C6 C7 121.9(2)
C1 C6 C7 120.5(2)
C6 C7 H7A 109.5
C6 C7 H7B 109.5
H7A C7 H7B 109.5
C6 C7 H7C 109.5
H7A C7 H7C 109.5
H7B C7 H7C 109.5
loop_
_geom_bond_atom_site_label_1
_geom_bond_atom_site_label_2
_geom_bond_distance
O1 C1 1.367(3)
O1 H1 0.91(4)
N1 C3 1.425(3)
N1 H112 0.89(4)
N1 H111 0.87(4)
C1 C2 1.399(3)
C1 C6 1.405(3)
C2 C3 1.402(3)
C2 H2A 0.9500
C3 C4 1.397(3)
C4 C5 1.396(4)
C4 H4A 0.9500
C5 C6 1.391(3)
C5 H5A 0.9500
C6 C7 1.515(4)
C7 H7A 0.9800
C7 H7B 0.9800
C7 H7C 0.9800
loop_
_cod_related_entry_id
_cod_related_entry_database
_cod_related_entry_code
1 ChemSpider 16837
