#------------------------------------------------------------------------------
#$Date: 2016-03-22 11:00:39 +0200 (Tue, 22 Mar 2016) $
#$Revision: 178881 $
#$URL: svn://www.crystallography.net/cod/cif/4/11/10/4111049.cif $
#------------------------------------------------------------------------------
#
# This file is available in the Crystallography Open Database (COD),
# http://www.crystallography.net/
#
# All data on this site have been placed in the public domain by the
# contributors.
#
data_4111049
loop_
_publ_author_name
'Junhong Mao'
'Sujoy Mukherjee'
'Yong Zhang'
'Rong Cao'
'John M. Sanders'
'Yongcheng Song'
'Yonghui Zhang'
'Gary A. Meints'
'Yi Gui Gao'
'Dushyant Mukkamala'
'Michael P. Hudock'
'Eric Oldfield'
_publ_contact_author
; 
Eric Oldfield
Department of Chemistry
University of Illinois
600 South Mathews Avenue 
Urbana, Illinois  61801 
USA 
;
_publ_contact_author_email       eo@chad.scs.uiuc.edu
_publ_contact_author_fax         '1  217 244 0997'
_publ_contact_author_phone       '1  217 333 3374'
_publ_section_title
;
 Solid-State NMR, Crystallographic, and Computational Investigation of
 Bisphosphonates and Farnesyl Diphosphate Synthase-Bisphosphonate
 Complexes
;
_journal_name_full               'Journal of the American Chemical Society'
_journal_page_first              14485
_journal_page_last               14497
_journal_paper_doi               10.1021/ja061737c
_journal_volume                  128
_journal_year                    2006
_chemical_formula_moiety         'C5 H9 N O6 P2 S'
_chemical_formula_sum            'C5 H9 N O6 P2 S'
_chemical_formula_weight         273.13
_chemical_name_systematic
; 
? 
;
_space_group_IT_number           2
_symmetry_cell_setting           triclinic
_symmetry_space_group_name_Hall  '-P 1'
_symmetry_space_group_name_H-M   'P -1'
_atom_sites_solution_hydrogens   geom
_atom_sites_solution_primary     direct
_atom_sites_solution_secondary   difmap
_audit_creation_method           SHELXL-97
_audit_update_record
; 
2004/04/14, text and data added, JM 
;
_cell_angle_alpha                109.700(12)
_cell_angle_beta                 106.731(12)
_cell_angle_gamma                97.664(13)
_cell_formula_units_Z            2
_cell_length_a                   7.208(6)
_cell_length_b                   8.465(6)
_cell_length_c                   8.911(7)
_cell_measurement_reflns_used    809
_cell_measurement_temperature    193(2)
_cell_measurement_theta_max      28.24
_cell_measurement_theta_min      4.01
_cell_volume                     473.9(6)
_computing_cell_refinement       'SAINT V6.22 (Bruker, 2001)'
_computing_data_collection       'SMART V5.625 (Bruker, 2001)'
_computing_data_reduction        'SAINT V6.22 (Bruker, 2001)'
_computing_molecular_graphics    'SHELXTL V6.12 (Bruker, 2001)'
_computing_publication_material  'XCIF (Bruker, 2001)'
_computing_structure_refinement  'SHELXTL V6.12 (Bruker, 2001)'
_computing_structure_solution    'SHELXTL V6.12 (Bruker, 2001)'
_diffrn_ambient_temperature      193(2)
_diffrn_measured_fraction_theta_full 0.976
_diffrn_measured_fraction_theta_max 0.976
_diffrn_measurement_device       'Siemens Platform/CCD'
_diffrn_measurement_method       'profile data from \w scans'
_diffrn_radiation_monochromator  graphite
_diffrn_radiation_source         'normal-focus sealed tube'
_diffrn_radiation_type           MoK\a
_diffrn_radiation_wavelength     0.71073
_diffrn_radiation_wavelength_id  p45xas
_diffrn_reflns_av_R_equivalents  0.0285
_diffrn_reflns_av_sigmaI/netI    0.0333
_diffrn_reflns_limit_h_max       8
_diffrn_reflns_limit_h_min       -8
_diffrn_reflns_limit_k_max       10
_diffrn_reflns_limit_k_min       -10
_diffrn_reflns_limit_l_max       10
_diffrn_reflns_limit_l_min       -10
_diffrn_reflns_number            5519
_diffrn_reflns_theta_full        25.81
_diffrn_reflns_theta_max         25.81
_diffrn_reflns_theta_min         2.60
_diffrn_standards_decay_%        0.8
_diffrn_standards_interval_time  453
_diffrn_standards_number         65
_exptl_absorpt_coefficient_mu    0.688
_exptl_absorpt_correction_T_max  0.9464
_exptl_absorpt_correction_T_min  0.9072
_exptl_absorpt_correction_type   integration
_exptl_absorpt_process_details   'SHELXTL/XPREP (Bruker, 2001)'
_exptl_crystal_colour            colorless
_exptl_crystal_density_diffrn    1.914
_exptl_crystal_description       prism
_exptl_crystal_F_000             280
_exptl_crystal_id                p45xas
_exptl_crystal_preparation
; 
The data crystal was mounted using oil (Parantone-N, Exxon) to a 
0.3 mm cryo-loop (Hampton Research) with the (0 1 1) scattering planes 
roughly normal to the spindle axis. 
;
_exptl_crystal_size_max          0.16
_exptl_crystal_size_mid          0.14
_exptl_crystal_size_min          0.09
_refine_diff_density_max         0.368
_refine_diff_density_min         -0.352
_refine_diff_density_rms         0.073
_refine_ls_extinction_method     none
_refine_ls_goodness_of_fit_ref   1.048
_refine_ls_hydrogen_treatment    refxyz
_refine_ls_matrix_type           full
_refine_ls_number_parameters     148
_refine_ls_number_reflns         1781
_refine_ls_number_restraints     3
_refine_ls_restrained_S_all      1.048
_refine_ls_R_factor_all          0.0368
_refine_ls_R_factor_gt           0.0298
_refine_ls_shift/su_max          0.002
_refine_ls_shift/su_mean         0.000
_refine_ls_structure_factor_coef Fsqd
_refine_ls_weighting_details
'calc w=1/[\s^2^(Fo^2^)+(0.0438P)^2^+0.2852P] where P=(Fo^2^+2Fc^2^)/3'
_refine_ls_weighting_scheme      calc
_refine_ls_wR_factor_gt          0.0786
_refine_ls_wR_factor_ref         0.0824
_reflns_number_gt                1538
_reflns_number_total             1781
_reflns_threshold_expression     >2sigma(I)
_cod_data_source_file            ja061737csi20060313_054851.cif
_cod_data_source_block           p45xas
_cod_database_code               4111049
loop_
_symmetry_equiv_pos_as_xyz
'x, y, z'
'-x, -y, -z'
loop_
_atom_site_label
_atom_site_type_symbol
_atom_site_fract_x
_atom_site_fract_y
_atom_site_fract_z
_atom_site_U_iso_or_equiv
_atom_site_adp_type
_atom_site_occupancy
_atom_site_symmetry_multiplicity
_atom_site_calc_flag
_atom_site_refinement_flags
P1 P 0.09389(8) 0.88450(7) 1.22217(7) 0.01317(16) Uani 1 1 d .
P2 P 0.44171(8) 0.73847(7) 1.16379(7) 0.01426(16) Uani 1 1 d .
S3 S 0.28121(8) 0.79595(7) 0.69953(7) 0.01990(17) Uani 1 1 d .
N1 N 0.1774(3) 0.4909(2) 0.6727(2) 0.0161(4) Uani 1 1 d .
H1N H 0.109(4) 0.401(4) 0.686(3) 0.024 Uiso 1 1 d .
O1 O 0.0513(2) 0.7527(2) 1.2909(2) 0.0191(4) Uani 1 1 d .
O2 O 0.2177(2) 1.06858(19) 1.35675(19) 0.0190(4) Uani 1 1 d D
H2O H 0.295(4) 1.076(4) 1.449(3) 0.028 Uiso 1 1 d D
O3 O -0.0974(2) 0.9191(2) 1.1148(2) 0.0170(3) Uani 1 1 d D
H3O H -0.201(3) 0.854(3) 1.099(3) 0.026 Uiso 1 1 d D
O4 O 0.5679(2) 0.7211(2) 1.05105(19) 0.0180(3) Uani 1 1 d .
O5 O 0.3454(2) 0.5508(2) 1.1439(2) 0.0213(4) Uani 1 1 d D
H5O H 0.377(4) 0.475(3) 1.077(3) 0.032 Uiso 1 1 d D
O6 O 0.5433(2) 0.8567(2) 1.34717(19) 0.0233(4) Uani 1 1 d .
C1 C 0.2305(3) 0.8193(3) 1.0772(3) 0.0137(4) Uani 1 1 d .
H1 H 0.2880 0.9263 1.0645 0.016 Uiso 1 1 calc R
C2 C 0.0833(3) 0.6914(3) 0.8974(3) 0.0165(5) Uani 1 1 d .
H2A H 0.0278 0.5819 0.9045 0.020 Uiso 1 1 calc R
H2B H -0.0296 0.7418 0.8618 0.020 Uiso 1 1 calc R
C3 C 0.1769(3) 0.6509(3) 0.7637(3) 0.0154(4) Uani 1 1 d .
C4 C 0.2611(3) 0.4787(3) 0.5497(3) 0.0191(5) Uani 1 1 d .
H4 H 0.2709 0.3723 0.4745 0.023 Uiso 1 1 calc R
C5 C 0.3270(3) 0.6328(3) 0.5479(3) 0.0189(5) Uani 1 1 d .
H5 H 0.3906 0.6502 0.4730 0.023 Uiso 1 1 calc R
loop_
_atom_site_aniso_label
_atom_site_aniso_U_11
_atom_site_aniso_U_22
_atom_site_aniso_U_33
_atom_site_aniso_U_23
_atom_site_aniso_U_13
_atom_site_aniso_U_12
P1 0.0150(3) 0.0122(3) 0.0138(3) 0.0051(2) 0.0067(2) 0.0046(2)
P2 0.0131(3) 0.0153(3) 0.0139(3) 0.0049(2) 0.0051(2) 0.0043(2)
S3 0.0259(3) 0.0152(3) 0.0217(3) 0.0074(2) 0.0131(2) 0.0043(2)
N1 0.0166(9) 0.0149(10) 0.0170(10) 0.0063(8) 0.0061(8) 0.0043(7)
O1 0.0216(8) 0.0192(8) 0.0230(8) 0.0118(7) 0.0121(7) 0.0073(6)
O2 0.0232(8) 0.0133(8) 0.0156(8) 0.0030(7) 0.0033(7) 0.0045(7)
O3 0.0136(7) 0.0190(8) 0.0207(8) 0.0098(7) 0.0066(6) 0.0045(6)
O4 0.0147(7) 0.0195(8) 0.0206(8) 0.0065(7) 0.0086(6) 0.0051(6)
O5 0.0263(9) 0.0172(9) 0.0296(9) 0.0107(7) 0.0188(7) 0.0103(7)
O6 0.0217(8) 0.0275(9) 0.0145(8) 0.0041(7) 0.0025(7) 0.0069(7)
C1 0.0139(10) 0.0143(11) 0.0135(11) 0.0060(9) 0.0054(8) 0.0032(8)
C2 0.0143(10) 0.0189(11) 0.0140(11) 0.0037(9) 0.0056(8) 0.0030(8)
C3 0.0139(10) 0.0154(11) 0.0139(10) 0.0048(9) 0.0024(8) 0.0027(8)
C4 0.0183(11) 0.0216(12) 0.0169(11) 0.0050(9) 0.0072(9) 0.0082(9)
C5 0.0200(11) 0.0244(12) 0.0161(11) 0.0087(9) 0.0093(9) 0.0094(9)
loop_
_atom_type_symbol
_atom_type_description
_atom_type_scat_dispersion_real
_atom_type_scat_dispersion_imag
_atom_type_scat_source
C C 0.0033 0.0016 'International Tables Vol C Tables 4.2.6.8 and 6.1.1.4'
H H 0.0000 0.0000 'International Tables Vol C Tables 4.2.6.8 and 6.1.1.4'
N N 0.0061 0.0033 'International Tables Vol C Tables 4.2.6.8 and 6.1.1.4'
O O 0.0106 0.0060 'International Tables Vol C Tables 4.2.6.8 and 6.1.1.4'
P P 0.1023 0.0942 'International Tables Vol C Tables 4.2.6.8 and 6.1.1.4'
S S 0.1246 0.1234 'International Tables Vol C Tables 4.2.6.8 and 6.1.1.4'
loop_
_exptl_crystal_face_index_h
_exptl_crystal_face_index_k
_exptl_crystal_face_index_l
_exptl_crystal_face_perp_dist
1.00 -1.00 0.00 0.0450
-1.00 1.00 0.00 0.0450
0.00 0.00 -1.00 0.0700
0.00 0.00 1.00 0.0700
-1.00 0.00 0.00 0.0600
1.00 1.00 -1.00 0.0800
-1.00 -1.00 1.00 0.0800
loop_
_geom_angle_atom_site_label_1
_geom_angle_atom_site_label_2
_geom_angle_atom_site_label_3
_geom_angle
O1 P1 O2 115.85(11)
O1 P1 O3 114.11(10)
O2 P1 O3 103.43(10)
O1 P1 C1 112.01(10)
O2 P1 C1 105.84(10)
O3 P1 C1 104.51(11)
O6 P2 O4 116.88(10)
O6 P2 O5 111.01(10)
O4 P2 O5 108.01(9)
O6 P2 C1 106.89(10)
O4 P2 C1 108.16(10)
O5 P2 C1 105.23(10)
C3 S3 C5 90.96(12)
C3 N1 C4 114.4(2)
C3 N1 H1N 118.4(16)
C4 N1 H1N 126.6(16)
P1 O2 H2O 118(2)
P1 O3 H3O 114(2)
P2 O5 H5O 112(2)
C2 C1 P2 113.64(15)
C2 C1 P1 110.14(15)
P2 C1 P1 112.43(12)
C2 C1 H1 106.7
P2 C1 H1 106.7
P1 C1 H1 106.7
C3 C2 C1 113.88(18)
C3 C2 H2A 108.8
C1 C2 H2A 108.8
C3 C2 H2B 108.8
C1 C2 H2B 108.8
H2A C2 H2B 107.7
N1 C3 C2 122.9(2)
N1 C3 S3 111.18(17)
C2 C3 S3 125.84(17)
C5 C4 N1 112.6(2)
C5 C4 H4 123.7
N1 C4 H4 123.7
C4 C5 S3 110.92(17)
C4 C5 H5 124.5
S3 C5 H5 124.5
loop_
_geom_bond_atom_site_label_1
_geom_bond_atom_site_label_2
_geom_bond_distance
P1 O1 1.4804(18)
P1 O2 1.5543(18)
P1 O3 1.5623(18)
P1 C1 1.828(2)
P2 O6 1.4905(18)
P2 O4 1.5234(17)
P2 O5 1.575(2)
P2 C1 1.828(2)
S3 C3 1.696(2)
S3 C5 1.721(2)
N1 C3 1.325(3)
N1 C4 1.377(3)
N1 H1N 0.91(3)
O2 H2O 0.824(17)
O3 H3O 0.812(17)
O5 H5O 0.820(17)
C1 C2 1.553(3)
C1 H1 1.0000
C2 C3 1.497(3)
C2 H2A 0.9900
C2 H2B 0.9900
C4 C5 1.335(3)
C4 H4 0.9500
C5 H5 0.9500
loop_
_geom_hbond_atom_site_label_D
_geom_hbond_atom_site_label_H
_geom_hbond_atom_site_label_A
_geom_hbond_distance_DH
_geom_hbond_distance_HA
_geom_hbond_distance_DA
_geom_hbond_angle_DHA
_geom_hbond_site_symmetry_A
N1 H1N O1 0.91(3) 1.73(3) 2.632(3) 171(2) 2_567
O2 H2O O6 0.824(17) 1.701(18) 2.509(3) 167(3) 2_678
O3 H3O O4 0.812(17) 1.729(17) 2.538(3) 175(3) 1_455
O5 H5O O4 0.820(17) 1.840(18) 2.650(3) 169(3) 2_667
loop_
_geom_torsion_atom_site_label_1
_geom_torsion_atom_site_label_2
_geom_torsion_atom_site_label_3
_geom_torsion_atom_site_label_4
_geom_torsion
O6 P2 C1 C2 -168.56(14)
O4 P2 C1 C2 64.79(17)
O5 P2 C1 C2 -50.45(17)
O6 P2 C1 P1 -42.59(14)
O4 P2 C1 P1 -169.24(10)
O5 P2 C1 P1 75.51(13)
O1 P1 C1 C2 81.00(17)
O2 P1 C1 C2 -151.87(15)
O3 P1 C1 C2 -43.03(17)
O1 P1 C1 P2 -46.84(14)
O2 P1 C1 P2 80.29(13)
O3 P1 C1 P2 -170.87(10)
P2 C1 C2 C3 -61.2(2)
P1 C1 C2 C3 171.65(15)
C4 N1 C3 C2 176.70(19)
C4 N1 C3 S3 0.2(2)
C1 C2 C3 N1 122.4(2)
C1 C2 C3 S3 -61.7(3)
C5 S3 C3 N1 -0.57(17)
C5 S3 C3 C2 -176.95(19)
C3 N1 C4 C5 0.5(3)
N1 C4 C5 S3 -0.9(2)
C3 S3 C5 C4 0.83(18)
