#------------------------------------------------------------------------------
#$Date: 2016-02-16 22:30:59 +0200 (Tue, 16 Feb 2016) $
#$Revision: 176467 $
#$URL: svn://www.crystallography.net/cod/cif/4/11/16/4111600.cif $
#------------------------------------------------------------------------------
#
# This file is available in the Crystallography Open Database (COD),
# http://www.crystallography.net/
#
# All data on this site have been placed in the public domain by the
# contributors.
#
data_4111600
loop_
_publ_author_name
'Sachio Horiuchi'
'Reiji Kumai'
'Yoshinori Tokura'
_publ_contact_author_email       s-horiuchi@aist.go.jp
_publ_contact_author_fax         +81-29-861-2586
_publ_contact_author_name        'Dr. Sachio HORIUCHI'
_publ_contact_author_phone       +81-29-861-2945
_publ_section_title
;
 Room-Temperature Ferroelectricity and Gigantic Dielectric Susceptibility
 on a Supramolecular Architecture of Phenazine and Deuterated Chloranilic
 Acid
;
_journal_name_full               'Journal of the American Chemical Society'
_journal_page_first              5010
_journal_page_last               5011
_journal_paper_doi               10.1021/ja042212s
_journal_volume                  127
_journal_year                    2005
_chemical_formula_moiety         'C18 H10 Br2 N2 O4 '
_chemical_formula_sum            'C18 H10 Br2 N2 O4'
_chemical_formula_weight         478.10
_space_group_IT_number           14
_symmetry_cell_setting           monoclinic
_symmetry_Int_Tables_number      14
_symmetry_space_group_name_Hall  '-P 2yn'
_symmetry_space_group_name_H-M   'P 1 21/n 1'
_audit_creation_date             2004-12-16
_audit_creation_method           'by CrystalStructure 3.6.0'
_cell_angle_alpha                90
_cell_angle_beta                 107.882(6)
_cell_angle_gamma                90
_cell_formula_units_Z            2
_cell_length_a                   12.3997(9)
_cell_length_b                   3.9144(3)
_cell_length_c                   17.409(2)
_cell_measurement_reflns_used    4267
_cell_measurement_temperature    298(1)
_cell_measurement_theta_max      80.28
_cell_measurement_theta_min      3
_cell_volume                     804.17(13)
_computing_cell_refinement       PROCESS-AUTO
_computing_data_collection       PROCESS-AUTO
_computing_data_reduction        CrystalStructure
_computing_molecular_graphics    'CrystalStructure 3.6.0'
_computing_publication_material  'CrystalStructure 3.6.0'
_computing_structure_refinement  CRYSTALS
_computing_structure_solution    Sir2002
_diffrn_measured_fraction_theta_full 0.4138
_diffrn_measured_fraction_theta_max 0.4138
_diffrn_measurement_device_type  'Rigaku IPDSC'
_diffrn_radiation_type           synchrotron
_diffrn_radiation_wavelength     0.6868
_diffrn_reflns_av_R_equivalents  0.046
_diffrn_reflns_limit_h_max       33
_diffrn_reflns_limit_h_min       -31
_diffrn_reflns_limit_k_max       5
_diffrn_reflns_limit_k_min       -10
_diffrn_reflns_limit_l_max       14
_diffrn_reflns_limit_l_min       -18
_diffrn_reflns_number            15333
_diffrn_reflns_theta_full        80.28
_diffrn_reflns_theta_max         80.28
_exptl_absorpt_coefficient_mu    5.081
_exptl_absorpt_correction_T_max  1.000
_exptl_absorpt_correction_T_min  0.581
_exptl_absorpt_correction_type   multi-scan
_exptl_crystal_colour            black
_exptl_crystal_density_diffrn    1.973
_exptl_crystal_description       needle
_exptl_crystal_F_000             468.00
_exptl_crystal_size_max          0.30
_exptl_crystal_size_mid          0.20
_exptl_crystal_size_min          0.10
_refine_diff_density_max         0.75
_refine_diff_density_min         -0.60
_refine_ls_extinction_coef       110(4)
_refine_ls_extinction_method
'Larson (1970) Crystallographic Computing eq. 22'
_refine_ls_goodness_of_fit_ref   5.114
_refine_ls_hydrogen_treatment    refall
_refine_ls_number_parameters     124
_refine_ls_number_reflns         2546
_refine_ls_R_factor_gt           0.0410
_refine_ls_shift/su_max          0.0000
_refine_ls_structure_factor_coef F
_refine_ls_weighting_details     'w = 1.0'
_refine_ls_weighting_scheme      unit
_refine_ls_wR_factor_ref         0.0430
_reflns_number_gt                2546
_reflns_number_total             7573
_reflns_threshold_expression     F^2^>2.0\s(F^2^)
_cod_data_source_file            ja042212ssi20041227_050800.cif
_cod_data_source_block           '_PhenD2ba'
_cod_original_cell_volume        804.7(1)
_cod_original_formula_sum        'C18 H10 Br2 N2 O4 '
_cod_database_code               4111600
loop_
_symmetry_equiv_pos_site_id
_symmetry_equiv_pos_as_xyz
1 +X,+Y,+Z
2 1/2-X,1/2+Y,1/2-Z
3 -X,-Y,-Z
4 1/2+X,1/2-Y,1/2+Z
loop_
_atom_site_label
_atom_site_type_symbol
_atom_site_fract_x
_atom_site_fract_y
_atom_site_fract_z
_atom_site_U_iso_or_equiv
_atom_site_adp_type
_atom_site_occupancy
_atom_site_symmetry_multiplicity
_atom_site_calc_flag
Br(1) Br 0.85202(3) -0.33054(9) 0.32392(3) 0.0365(1) Uani 1.00 1 d
O(1) O 0.7681(2) 0.0277(7) 0.4488(2) 0.0399(7) Uani 1.00 1 d
O(2) O 0.8901(2) 0.3085(8) 0.5899(2) 0.0470(9) Uani 1.00 1 d
N(1) N 0.6031(2) 0.3626(7) 0.4958(2) 0.0337(8) Uani 1.00 1 d
C(1) C 0.9338(2) -0.1458(8) 0.4245(2) 0.0288(8) Uani 1.00 1 d
C(2) C 0.8792(2) 0.0090(8) 0.4705(2) 0.0305(9) Uani 1.00 1 d
C(3) C 0.9438(2) 0.1681(9) 0.5514(3) 0.0337(9) Uani 1.00 1 d
C(4) C 0.5748(2) 0.3450(8) 0.5649(2) 0.0298(8) Uani 1.00 1 d
C(5) C 0.4699(2) 0.4868(8) 0.5690(2) 0.0290(9) Uani 1.00 1 d
C(6) C 0.4444(3) 0.466(1) 0.6422(3) 0.039(1) Uani 1.00 1 d
C(7) C 0.5181(3) 0.314(1) 0.7071(3) 0.042(1) Uani 1.00 1 d
C(8) C 0.6213(3) 0.172(1) 0.7031(3) 0.036(1) Uani 1.00 1 d
C(9) C 0.6497(3) 0.1858(9) 0.6343(3) 0.039(1) Uani 1.00 1 d
H(1) H 0.753(3) 0.08(1) 0.499(3) 0.05(1) Uiso 1.00 1 c
H(2) H 0.375(3) 0.56(1) 0.645(3) 0.05(1) Uiso 1.00 1 c
H(3) H 0.500(3) 0.30(1) 0.756(3) 0.05(1) Uiso 1.00 1 c
H(4) H 0.671(3) 0.07(1) 0.750(3) 0.04(1) Uiso 1.00 1 c
H(5) H 0.719(3) 0.09(1) 0.633(3) 0.05(1) Uiso 1.00 1 c
loop_
_atom_site_aniso_label
_atom_site_aniso_U_11
_atom_site_aniso_U_22
_atom_site_aniso_U_33
_atom_site_aniso_U_12
_atom_site_aniso_U_13
_atom_site_aniso_U_23
Br(1) 0.0323(1) 0.0420(2) 0.0325(4) -0.0002(1) 0.0060(1) -0.0039(2)
O(1) 0.0212(7) 0.063(2) 0.035(2) 0.0053(9) 0.0068(9) -0.010(1)
O(2) 0.0283(9) 0.070(2) 0.046(2) 0.005(1) 0.016(1) -0.011(2)
N(1) 0.0223(8) 0.040(1) 0.038(3) 0.0011(9) 0.009(1) -0.002(1)
C(1) 0.0216(9) 0.036(1) 0.026(3) 0.0020(9) 0.003(1) -0.000(1)
C(2) 0.024(1) 0.037(1) 0.030(3) 0.002(1) 0.008(1) 0.003(1)
C(3) 0.025(1) 0.037(1) 0.041(3) 0.003(1) 0.011(1) 0.002(1)
C(4) 0.0207(9) 0.035(1) 0.032(3) -0.001(1) 0.006(1) -0.001(1)
C(5) 0.0240(9) 0.037(1) 0.027(3) -0.002(1) 0.008(1) -0.002(1)
C(6) 0.027(1) 0.049(2) 0.042(3) -0.001(1) 0.011(1) 0.001(2)
C(7) 0.037(1) 0.051(2) 0.040(3) -0.003(1) 0.015(2) 0.005(2)
C(8) 0.037(1) 0.049(2) 0.021(3) -0.002(1) 0.007(2) 0.003(2)
C(9) 0.029(1) 0.043(2) 0.042(3) 0.003(1) 0.007(1) -0.000(2)
loop_
_atom_type_symbol
_atom_type_description
_atom_type_scat_dispersion_real
_atom_type_scat_dispersion_imag
_atom_type_scat_source
C C 0.018 0.015
;
International Tables for Crystallography
(1992, Vol. C, Tables 4.2.6.8 and 6.1.1.4)
;
H H 0.000 0.000
;
International Tables for Crystallography
(1992, Vol. C, Table 6.1.1.4)
;
N N 0.036 0.031
;
International Tables for Crystallography
(1992, Vol. C, Tables 4.2.6.8 and 6.1.1.4)
;
O O 0.070 0.057
;
International Tables for Crystallography
(1992, Vol. C, Tables 4.2.6.8 and 6.1.1.4)
;
Br Br -0.275 2.338
;
International Tables for Crystallography
(1992, Vol. C, Tables 4.2.6.8 and 6.1.1.4)
;
loop_
_geom_angle_atom_site_label_1
_geom_angle_atom_site_label_2
_geom_angle_atom_site_label_3
_geom_angle
_geom_angle_site_symmetry_1
_geom_angle_site_symmetry_2
_geom_angle_site_symmetry_3
Br(1) C(1) C(2) 120.2(2) . . .
O(1) C(2) C(1) 122.1(3) . . .
O(1) C(2) C(3) 116.7(3) . . .
O(2) C(3) C(2) 118.4(2) . . .
C(5) N(1) C(4) 118.4(3) 66603 . .
N(1) C(4) C(9) 119.9(3) . . .
N(1) C(4) C(5) 120.7(3) . . .
N(1) C(5) C(6) 120.3(3) . 66603 66603
N(1) C(5) C(4) 120.9(4) . 66603 66603
C(1) C(2) C(3) 121.2(2) . . .
C(9) C(4) C(5) 119.4(4) . . .
C(4) C(5) N(1) 120.9(4) . . 66603
C(4) C(5) C(6) 118.8(3) . . .
C(4) C(9) C(8) 119.5(3) . . .
C(5) N(1) C(4) 118.4(3) . 66603 66603
C(6) C(5) N(1) 120.3(3) . . 66603
C(5) C(6) C(7) 120.1(3) . . .
C(6) C(7) C(8) 121.2(5) . . .
C(7) C(8) C(9) 121.0(4) . . .
H(1) O(1) C(2) 103(2) . . .
C(4) C(9) H(5) 121(2) . . .
C(5) C(6) H(2) 119(2) . . .
H(2) C(6) C(7) 120(2) . . .
C(6) C(7) H(3) 119(2) . . .
C(7) C(8) H(4) 119(2) . . .
H(3) C(7) C(8) 119(2) . . .
C(8) C(9) H(5) 119(2) . . .
H(4) C(8) C(9) 119(2) . . .
loop_
_geom_bond_atom_site_label_1
_geom_bond_atom_site_label_2
_geom_bond_distance
_geom_bond_site_symmetry_2
Br(1) C(1) 1.879(3) .
O(1) C(2) 1.314(3) .
O(2) C(3) 1.212(5) .
N(1) C(4) 1.355(6) .
N(1) C(5) 1.347(4) 66603
C(1) C(2) 1.342(5) .
C(2) O(1) 1.314(3) .
C(2) C(1) 1.342(5) .
C(2) C(3) 1.524(5) .
C(3) C(2) 1.524(5) .
C(4) C(5) 1.436(4) .
C(4) C(9) 1.422(5) .
C(5) N(1) 1.347(4) 66603
C(5) C(6) 1.406(7) .
C(6) C(7) 1.356(5) .
C(7) C(8) 1.415(5) .
C(8) C(9) 1.350(7) .
O(1) H(1) 0.98(3) .
C(6) H(2) 0.95(3) .
C(7) H(3) 0.95(3) .
C(8) H(4) 0.95(3) .
C(9) H(5) 0.95(3) .
loop_
_geom_contact_atom_site_label_1
_geom_contact_atom_site_label_2
_geom_contact_distance
_geom_contact_site_symmetry_2
Br(1) Br(1) 3.5865(5) 64502
Br(1) Br(1) 3.5865(5) 65502
Br(1) O(1) 3.029(3) .
Br(1) C(2) 3.576(4) 54501
Br(1) C(2) 2.805(4) .
O(1) O(2) 2.693(4) .
O(1) N(1) 3.558(4) 54501
O(1) N(1) 2.756(4) .
O(1) C(1) 2.324(4) .
O(1) C(3) 2.419(4) .
O(1) C(5) 3.506(4) 65603
O(1) C(5) 3.443(4) 66603
O(1) C(6) 3.260(4) 65603
O(1) C(6) 3.289(4) 66603
O(2) N(1) 3.437(3) .
O(2) C(1) 3.567(5) .
O(2) C(2) 2.356(5) .
O(2) C(2) 3.420(5) 56501
O(2) C(3) 3.534(5) 56501
O(2) C(9) 3.336(5) .
N(1) O(1) 3.558(4) 56501
N(1) N(1) 2.819(4) 66603
N(1) C(4) 3.496(4) 65603
N(1) C(4) 2.421(3) 66603
N(1) C(5) 2.427(5) .
N(1) C(5) 3.538(4) 65603
N(1) C(6) 2.387(6) 66603
N(1) C(9) 2.404(6) .
C(1) C(2) 3.518(5) 54501
C(1) C(3) 3.457(5) 54501
C(1) C(3) 2.499(6) .
C(2) Br(1) 2.805(4) .
C(2) Br(1) 3.576(4) 56501
C(2) O(2) 3.420(5) 54501
C(2) O(2) 2.356(5) .
C(2) C(1) 3.518(5) 56501
C(2) C(3) 3.574(5) 54501
C(3) O(2) 3.534(5) 54501
C(3) C(1) 3.457(5) 56501
C(3) C(2) 3.574(5) 56501
C(4) N(1) 3.496(4) 65603
C(4) N(1) 2.421(3) 66603
C(4) C(4) 2.729(4) 66603
C(4) C(5) 2.321(6) 66603
C(4) C(6) 2.447(6) .
C(4) C(7) 2.779(7) .
C(4) C(8) 2.395(6) .
C(4) C(9) 3.531(5) 56501
C(5) O(1) 3.506(4) 65603
C(5) O(1) 3.443(4) 66603
C(5) N(1) 3.538(4) 65603
C(5) C(4) 2.321(6) 66603
C(5) C(5) 2.731(6) 66603
C(5) C(7) 2.392(6) .
C(5) C(8) 2.793(5) .
C(5) C(9) 2.468(4) .
C(5) C(9) 3.492(5) 56501
C(6) O(1) 3.260(4) 65603
C(6) O(1) 3.289(4) 66603
C(6) N(1) 2.387(6) 66603
C(6) C(7) 3.534(6) 56501
C(6) C(8) 2.414(5) .
C(6) C(8) 3.486(5) 56501
C(6) C(9) 2.813(5) .
C(7) C(6) 3.534(6) 54501
C(7) C(9) 2.407(7) .
C(8) C(6) 3.486(5) 54501
C(9) C(4) 3.531(5) 54501
C(9) C(5) 3.492(5) 54501
Br(1) H(2) 3.16(4) 65603
Br(1) H(2) 3.38(5) 55404
Br(1) H(3) 3.08(4) 54404
Br(1) H(3) 3.22(4) 55404
O(1) H(2) 3.06(4) 65603
O(1) H(2) 2.59(4) 66603
O(1) H(5) 3.45(4) .
O(2) H(1) 2.13(3) .
O(2) H(1) 3.59(4) 56501
O(2) H(3) 3.28(4) 64602
O(2) H(3) 3.24(4) 65602
O(2) H(4) 3.28(4) 65602
O(2) H(5) 2.60(4) .
N(1) H(1) 2.14(4) .
N(1) H(1) 3.36(4) 56501
N(1) H(2) 2.58(4) 66603
N(1) H(5) 2.61(5) .
C(1) H(1) 3.05(4) .
C(1) H(3) 3.55(4) 55404
C(2) H(1) 1.81(4) .
C(3) H(1) 2.28(4) .
C(3) H(3) 3.51(3) 64602
C(3) H(5) 3.51(4) .
C(4) H(1) 2.97(3) .
C(4) H(2) 3.31(4) .
C(4) H(4) 3.25(3) .
C(4) H(5) 2.08(4) .
C(4) H(5) 3.43(3) 56501
C(5) H(1) 3.46(4) 65603
C(5) H(1) 3.14(4) 66603
C(5) H(2) 2.05(4) .
C(5) H(3) 3.25(4) .
C(5) H(5) 3.33(3) .
C(6) H(1) 3.39(4) 66603
C(6) H(3) 2.00(4) .
C(6) H(4) 3.26(4) .
C(7) H(2) 3.44(4) 54501
C(7) H(2) 2.01(3) .
C(7) H(4) 2.06(4) .
C(7) H(4) 3.47(4) 56501
C(7) H(5) 3.26(5) .
C(8) H(2) 3.27(4) .
C(8) H(3) 2.05(4) .
C(8) H(4) 3.40(4) 64602
C(8) H(4) 2.89(4) 65602
C(8) H(5) 2.00(4) .
C(8) H(5) 3.35(3) 65602
C(9) H(1) 3.03(4) .
C(9) H(3) 3.25(4) .
C(9) H(4) 1.99(4) .
C(9) H(4) 3.48(5) 64602
C(9) H(4) 2.91(4) 65602
H(1) O(2) 3.59(4) 54501
H(1) N(1) 3.36(4) 54501
H(1) C(2) 1.80(4) .
H(1) C(5) 3.46(4) 65603
H(1) C(5) 3.14(4) 66603
H(1) C(6) 3.39(4) 66603
H(2) Br(1) 3.16(3) 65603
H(2) Br(1) 3.38(4) 45504
H(2) O(1) 3.06(4) 65603
H(2) O(1) 2.59(4) 66603
H(2) N(1) 2.58(4) 66603
H(2) C(7) 3.44(4) 56501
H(3) Br(1) 3.08(4) 44504
H(3) Br(1) 3.23(4) 45504
H(3) O(2) 3.24(5) 64602
H(3) O(2) 3.28(4) 65602
H(3) C(1) 3.55(4) 45504
H(3) C(3) 3.52(4) 65602
H(4) O(2) 3.28(4) 64602
H(4) C(7) 3.47(4) 54501
H(4) C(8) 2.89(4) 64602
H(4) C(8) 3.40(4) 65602
H(4) C(9) 2.91(4) 64602
H(4) C(9) 3.48(4) 65602
H(5) C(4) 3.43(4) 54501
H(5) C(8) 3.35(4) 64602
loop_
_geom_torsion_atom_site_label_1
_geom_torsion_atom_site_label_2
_geom_torsion_atom_site_label_3
_geom_torsion_atom_site_label_4
_geom_torsion
Br(1) C(1) C(2) O(1) 2.3(5)
Br(1) C(1) C(2) C(3) -178.6(3)
O(1) C(2) C(3) O(2) -1.8(5)
C(1) C(2) C(3) O(2) 179.1(4)
N(1) C(4) C(5) C(6) -179.4(3)
C(9) C(4) C(5) C(6) 0.4(5)
N(1) C(4) C(9) C(8) 179.4(3)
C(5) C(4) C(9) C(8) -0.4(5)
C(4) C(5) C(6) C(7) -0.1(4)
C(5) C(6) C(7) C(8) -0.1(5)
C(6) C(7) C(8) C(9) 0.2(5)
C(7) C(8) C(9) C(4) 0.1(4)
