#------------------------------------------------------------------------------
#$Date: 2017-10-13 14:42:48 +0300 (Fri, 13 Oct 2017) $
#$Revision: 201982 $
#$URL: file:///home/coder/svn-repositories/cod/cif/4/11/18/4111840.cif $
#------------------------------------------------------------------------------
#
# This file is available in the Crystallography Open Database (COD),
# http://www.crystallography.net/
#
# All data on this site have been placed in the public domain by the
# contributors.
#
data_4111840
loop_
_publ_author_name
'Archan Dey'
'Michael T. Kirchner'
'Venu R. Vangala'
'Gautam R. Desiraju'
'Raju Mondal'
'Judith A. K. Howard'
_publ_contact_author_address
;
School of Chemistry
University of Hyderabad
Hyderabad 500 046
India
;
_publ_contact_author_email       desiraju@uohyd.ernet.in
_publ_contact_author_fax         '91 40 23010567'
_publ_contact_author_name        'Professor Gautam R. Desiraju'
_publ_contact_author_phone       '91 40 23134828'
_publ_section_title
;
 Crystal Structure Prediction of Aminols: Advantages of a Supramolecular
 Synthon Approach with Experimental Structures
;
_journal_name_full               'Journal of the American Chemical Society'
_journal_page_first              10545
_journal_page_last               10559
_journal_paper_doi               10.1021/ja042738c
_journal_volume                  127
_journal_year                    2005
_chemical_formula_moiety         'C7 H9 N O'
_chemical_formula_sum            'C7 H9 N O'
_chemical_formula_weight         123.15
_chemical_melting_point          448.4
_chemical_name_common            4A2MP
_chemical_name_systematic        4-Amino-2-methylphenol
_space_group_IT_number           14
_symmetry_cell_setting           monoclinic
_symmetry_space_group_name_Hall  '-P 2ybc'
_symmetry_space_group_name_H-M   'P 1 21/c 1'
_atom_sites_solution_hydrogens   geom
_atom_sites_solution_primary     direct
_atom_sites_solution_secondary   difmap
_audit_creation_method           SHELXL-97
_cell_angle_alpha                90.00
_cell_angle_beta                 93.1740(10)
_cell_angle_gamma                90.00
_cell_formula_units_Z            4
_cell_length_a                   4.48940(10)
_cell_length_b                   10.4759(3)
_cell_length_c                   14.3300(4)
_cell_measurement_reflns_used    3059
_cell_measurement_temperature    120(2)
_cell_measurement_theta_max      27.956
_cell_measurement_theta_min      2.409
_cell_volume                     672.91(3)
_computing_cell_refinement       'Bruker SMART'
_computing_data_collection       'Bruker SMART'
_computing_data_reduction        'Bruker SHELXTL'
_computing_molecular_graphics    'Bruker SHELXTL'
_computing_publication_material  'Bruker SHELXTL'
_computing_structure_refinement  'SHELXL-97 (Sheldrick, 1997)'
_computing_structure_solution    'SHELXS-97 (Sheldrick, 1990)'
_diffrn_ambient_temperature      120(2)
_diffrn_detector_area_resol_mean 8
_diffrn_measured_fraction_theta_full 0.999
_diffrn_measured_fraction_theta_max 0.999
_diffrn_measurement_device_type  'Apex microsource CCD area detector'
_diffrn_measurement_method       'omega scans'
_diffrn_radiation_monochromator  graphite
_diffrn_radiation_source         'fine-focus sealed tube'
_diffrn_radiation_type           MoK\a
_diffrn_radiation_wavelength     0.71073
_diffrn_reflns_av_R_equivalents  0.0352
_diffrn_reflns_av_sigmaI/netI    0.0208
_diffrn_reflns_limit_h_max       5
_diffrn_reflns_limit_h_min       -5
_diffrn_reflns_limit_k_max       13
_diffrn_reflns_limit_k_min       -13
_diffrn_reflns_limit_l_max       18
_diffrn_reflns_limit_l_min       -18
_diffrn_reflns_number            6720
_diffrn_reflns_theta_full        27.49
_diffrn_reflns_theta_max         27.49
_diffrn_reflns_theta_min         2.41
_diffrn_standards_decay_%        0
_exptl_absorpt_coefficient_mu    0.082
_exptl_absorpt_correction_type   none
_exptl_crystal_colour            Orange
_exptl_crystal_density_diffrn    1.216
_exptl_crystal_description       Plate
_exptl_crystal_F_000             264
_exptl_crystal_size_max          0.36
_exptl_crystal_size_mid          0.16
_exptl_crystal_size_min          0.08
_refine_diff_density_max         0.332
_refine_diff_density_min         -0.194
_refine_diff_density_rms         0.062
_refine_ls_extinction_method     none
_refine_ls_goodness_of_fit_ref   1.056
_refine_ls_hydrogen_treatment    refall
_refine_ls_matrix_type           full
_refine_ls_number_parameters     118
_refine_ls_number_reflns         1538
_refine_ls_number_restraints     0
_refine_ls_restrained_S_all      1.056
_refine_ls_R_factor_all          0.0454
_refine_ls_R_factor_gt           0.0393
_refine_ls_shift/su_max          0.000
_refine_ls_shift/su_mean         0.000
_refine_ls_structure_factor_coef Fsqd
_refine_ls_weighting_details
'calc w=1/[\s^2^(Fo^2^)+(0.0801P)^2^+0.0414P] where P=(Fo^2^+2Fc^2^)/3'
_refine_ls_weighting_scheme      calc
_refine_ls_wR_factor_gt          0.1121
_refine_ls_wR_factor_ref         0.1181
_reflns_number_gt                1290
_reflns_number_total             1538
_reflns_threshold_expression     I>2\s(I)
_cod_data_source_file            ja042738csi20050407_114233_10.cif
_cod_data_source_block           4a
_cod_original_sg_symbol_Hall     '-P 2ybc '
_cod_database_code               4111840
loop_
_symmetry_equiv_pos_as_xyz
'x, y, z'
'-x, y+1/2, -z+1/2'
'-x, -y, -z'
'x, -y-1/2, z-1/2'
loop_
_atom_site_label
_atom_site_type_symbol
_atom_site_fract_x
_atom_site_fract_y
_atom_site_fract_z
_atom_site_U_iso_or_equiv
_atom_site_adp_type
_atom_site_occupancy
_atom_site_symmetry_multiplicity
_atom_site_calc_flag
O1 O 0.14135(18) 0.38083(7) 0.40654(5) 0.0254(2) Uani 1 1 d
N1 N 0.3118(2) 0.05270(8) 0.10642(6) 0.0234(2) Uani 1 1 d
C1 C 0.1792(2) 0.30155(9) 0.33108(6) 0.0204(3) Uani 1 1 d
C6 C 0.3738(2) 0.19797(9) 0.34452(7) 0.0208(3) Uani 1 1 d
C5 C 0.4199(2) 0.11874(9) 0.26862(7) 0.0214(3) Uani 1 1 d
C2 C 0.0362(2) 0.32409(9) 0.24430(7) 0.0232(3) Uani 1 1 d
C3 C 0.0827(2) 0.24314(9) 0.16970(7) 0.0231(3) Uani 1 1 d
C4 C 0.2757(2) 0.14007(9) 0.18119(6) 0.0204(2) Uani 1 1 d
C7 C 0.5303(3) 0.17392(11) 0.43852(7) 0.0283(3) Uani 1 1 d
H2 H -0.100(3) 0.3968(13) 0.2365(9) 0.033(3) Uiso 1 1 d
H5 H 0.561(3) 0.0479(12) 0.2770(8) 0.026(3) Uiso 1 1 d
H7C H 0.388(3) 0.1578(13) 0.4867(10) 0.046(4) Uiso 1 1 d
H3 H -0.022(3) 0.2590(12) 0.1070(9) 0.029(3) Uiso 1 1 d
H112 H 0.492(4) 0.0127(13) 0.1112(9) 0.038(3) Uiso 1 1 d
H7B H 0.664(3) 0.0988(15) 0.4356(10) 0.047(4) Uiso 1 1 d
H111 H 0.285(3) 0.0929(14) 0.0509(11) 0.043(4) Uiso 1 1 d
H1 H -0.022(4) 0.4382(17) 0.3973(10) 0.054(4) Uiso 1 1 d
H7A H 0.655(3) 0.2466(15) 0.4586(10) 0.047(4) Uiso 1 1 d
loop_
_atom_site_aniso_label
_atom_site_aniso_U_11
_atom_site_aniso_U_22
_atom_site_aniso_U_33
_atom_site_aniso_U_23
_atom_site_aniso_U_13
_atom_site_aniso_U_12
O1 0.0310(4) 0.0251(4) 0.0199(4) -0.0047(3) -0.0015(3) 0.0029(3)
N1 0.0294(5) 0.0237(5) 0.0172(4) -0.0009(3) 0.0019(3) 0.0013(3)
C1 0.0232(5) 0.0199(5) 0.0184(5) -0.0015(3) 0.0019(4) -0.0026(4)
C6 0.0224(5) 0.0211(5) 0.0187(5) 0.0023(3) -0.0002(4) -0.0031(4)
C5 0.0223(5) 0.0199(5) 0.0219(5) 0.0017(4) 0.0008(4) -0.0004(4)
C2 0.0260(5) 0.0220(5) 0.0215(5) 0.0010(4) -0.0004(4) 0.0025(4)
C3 0.0262(5) 0.0247(5) 0.0180(5) 0.0015(4) -0.0016(4) -0.0002(4)
C4 0.0229(5) 0.0203(5) 0.0183(5) 0.0003(3) 0.0030(4) -0.0036(4)
C7 0.0346(6) 0.0287(6) 0.0209(5) 0.0011(4) -0.0045(4) 0.0025(5)
loop_
_atom_type_symbol
_atom_type_description
_atom_type_scat_dispersion_real
_atom_type_scat_dispersion_imag
_atom_type_scat_source
C C 0.0033 0.0016 'International Tables Vol C Tables 4.2.6.8 and 6.1.1.4'
H H 0.0000 0.0000 'International Tables Vol C Tables 4.2.6.8 and 6.1.1.4'
N N 0.0061 0.0033 'International Tables Vol C Tables 4.2.6.8 and 6.1.1.4'
O O 0.0106 0.0060 'International Tables Vol C Tables 4.2.6.8 and 6.1.1.4'
loop_
_geom_angle_atom_site_label_1
_geom_angle_atom_site_label_2
_geom_angle_atom_site_label_3
_geom_angle
C1 O1 H1 113.5(10)
C4 N1 H112 112.1(9)
C4 N1 H111 110.3(9)
H112 N1 H111 110.8(13)
O1 C1 C2 121.89(9)
O1 C1 C6 117.47(8)
C2 C1 C6 120.63(9)
C5 C6 C1 118.23(9)
C5 C6 C7 121.13(9)
C1 C6 C7 120.64(9)
C6 C5 C4 121.61(9)
C6 C5 H5 118.6(7)
C4 C5 H5 119.7(7)
C1 C2 C3 120.26(9)
C1 C2 H2 119.3(7)
C3 C2 H2 120.4(7)
C4 C3 C2 120.18(9)
C4 C3 H3 119.5(7)
C2 C3 H3 120.3(7)
C3 C4 C5 119.09(9)
C3 C4 N1 120.42(9)
C5 C4 N1 120.37(9)
C6 C7 H7C 111.7(9)
C6 C7 H7B 110.4(9)
H7C C7 H7B 108.2(12)
C6 C7 H7A 111.3(9)
H7C C7 H7A 108.1(11)
H7B C7 H7A 107.0(12)
loop_
_geom_bond_atom_site_label_1
_geom_bond_atom_site_label_2
_geom_bond_distance
O1 C1 1.3814(11)
O1 H1 0.952(19)
N1 C4 1.4252(12)
N1 H112 0.910(15)
N1 H111 0.902(16)
C1 C2 1.3877(13)
C1 C6 1.3997(14)
C6 C5 1.3927(13)
C6 C7 1.5055(14)
C5 C4 1.3959(13)
C5 H5 0.979(13)
C2 C3 1.3894(13)
C2 H2 0.981(13)
C3 C4 1.3886(14)
C3 H3 1.003(13)
C7 H7C 0.979(16)
C7 H7B 0.994(16)
C7 H7A 0.978(16)
loop_
_geom_hbond_atom_site_label_D
_geom_hbond_atom_site_label_H
_geom_hbond_atom_site_label_A
_geom_hbond_distance_DH
_geom_hbond_distance_HA
_geom_hbond_distance_DA
_geom_hbond_angle_DHA
_geom_hbond_site_symmetry_A
O1 H1 N1 0.952(19) 1.768(19) 2.7153(12) 173.0(15) 2
N1 H111 O1 0.902(16) 2.151(16) 3.0053(11) 157.8(13) 4_565
N1 H112 O1 0.910(15) 2.175(16) 3.0584(12) 163.6(12) 2_645
loop_
_cod_related_entry_id
_cod_related_entry_database
_cod_related_entry_code
1 ChemSpider 68570
