#------------------------------------------------------------------------------
#$Date: 2017-10-13 14:42:48 +0300 (Fri, 13 Oct 2017) $
#$Revision: 201982 $
#$URL: file:///home/coder/svn-repositories/cod/cif/4/11/43/4114388.cif $
#------------------------------------------------------------------------------
#
# This file is available in the Crystallography Open Database (COD),
# http://www.crystallography.net/
#
# All data on this site have been placed in the public domain by the
# contributors.
#
data_4114388
loop_
_publ_author_name
'Venu R. Vangala'
'Balakrishna R. Bhogala'
'Archan Dey'
'Gautam R. Desiraju'
'Charlotte K. Broder'
'Philip S. Smith'
'Raju Mondal'
'Judith A. K. Howard'
'Chick C. Wilson'
_publ_contact_author_address
;
School of Chemistry
University of Hyderabad
Hyderabad 500 046
India
;
_publ_contact_author_email       desiraju@uohyd.ernet.in
_publ_contact_author_fax         '91 40 3010567'
_publ_contact_author_name        'Professor Gautam R. Desiraju'
_publ_contact_author_phone       '91 40 3010567'
_publ_section_title
;
 Correspondence between Molecular Functionality and Crystal Structures.
 Supramolecular Chemistry of a Family of Homologated Aminophenols
;
_journal_name_full               'Journal of the American Chemical Society'
_journal_page_first              14495
_journal_page_last               14509
_journal_paper_doi               10.1021/ja037227p
_journal_volume                  125
_journal_year                    2003
_chemical_formula_sum            'C14 H15 N O'
_chemical_formula_weight         213.27
_chemical_melting_point          496
_chemical_name_systematic
; 
 4-(4-aminophenethyl)phenol  
;
_space_group_IT_number           7
_symmetry_cell_setting           monoclinic
_symmetry_space_group_name_Hall  'P -2yc'
_symmetry_space_group_name_H-M   'P 1 c 1'
_atom_sites_solution_hydrogens   difmap
_atom_sites_solution_primary     direct
_atom_sites_solution_secondary   difmap
_audit_creation_method           SHELXL-97
_cell_angle_alpha                90.00
_cell_angle_beta                 107.28(3)
_cell_angle_gamma                90.00
_cell_formula_units_Z            2
_cell_length_a                   13.682(3)
_cell_length_b                   5.2619(11)
_cell_length_c                   8.1916(16)
_cell_measurement_reflns_used    933
_cell_measurement_temperature    100(2)
_cell_measurement_theta_max      30.40
_cell_measurement_theta_min      4.98
_cell_volume                     563.1(2)
_computing_cell_refinement       'SMART-NT V5.0 (Bruker, 1998)'
_computing_data_collection       'SMART-NT V5.0 (Bruker, 1998)'
_computing_data_reduction        'SMART-NT V5.0 (Bruker, 1998)'
_computing_molecular_graphics    'SHELXTL-98 (Bruker, 1998)'
_computing_publication_material  'SHELXTL-98 (Bruker, 1998)'
_computing_structure_refinement  'SHELXL-97 (Sheldrick, 1997)'
_computing_structure_solution    'SHELXS-97 (Sheldrick, 1990)'
_diffrn_ambient_temperature      100(2)
_diffrn_measured_fraction_theta_full 0.921
_diffrn_measured_fraction_theta_max 0.921
_diffrn_measurement_device_type  'Bruker SMART-CCD'
_diffrn_measurement_method       /w
_diffrn_radiation_monochromator  graphite
_diffrn_radiation_source         'fine-focus sealed tube'
_diffrn_radiation_type           MoK\a
_diffrn_radiation_wavelength     0.71073
_diffrn_reflns_av_R_equivalents  0.0322
_diffrn_reflns_av_sigmaI/netI    0.0231
_diffrn_reflns_limit_h_max       15
_diffrn_reflns_limit_h_min       -18
_diffrn_reflns_limit_k_max       7
_diffrn_reflns_limit_k_min       -7
_diffrn_reflns_limit_l_max       11
_diffrn_reflns_limit_l_min       -10
_diffrn_reflns_number            6709
_diffrn_reflns_theta_full        30.32
_diffrn_reflns_theta_max         30.32
_diffrn_reflns_theta_min         1.56
_diffrn_standards_decay_%        0
_diffrn_standards_number         0
_exptl_absorpt_coefficient_mu    0.079
_exptl_absorpt_correction_type   none
_exptl_crystal_colour            Colourless
_exptl_crystal_density_diffrn    1.258
_exptl_crystal_description       Plate
_exptl_crystal_F_000             228
_exptl_crystal_size_max          0.50
_exptl_crystal_size_mid          0.35
_exptl_crystal_size_min          0.10
_refine_diff_density_max         0.370
_refine_diff_density_min         -0.186
_refine_diff_density_rms         0.044
_refine_ls_abs_structure_details 'Flack H D (1983), Acta Cryst. A39, 876-881'
_refine_ls_abs_structure_Flack   -0.7(13)
_refine_ls_extinction_coef       'not refined'
_refine_ls_extinction_method     none
_refine_ls_goodness_of_fit_ref   1.034
_refine_ls_hydrogen_treatment    refall
_refine_ls_matrix_type           full
_refine_ls_number_parameters     205
_refine_ls_number_reflns         2509
_refine_ls_number_restraints     2
_refine_ls_restrained_S_all      1.034
_refine_ls_R_factor_all          0.0448
_refine_ls_R_factor_gt           0.0405
_refine_ls_shift/su_max          0.000
_refine_ls_shift/su_mean         0.000
_refine_ls_structure_factor_coef Fsqd
_refine_ls_weighting_details
'calc w=1/[\s^2^(Fo^2^)+(0.0679P)^2^+0.1388P] where P=(Fo^2^+2Fc^2^)/3'
_refine_ls_weighting_scheme      calc
_refine_ls_wR_factor_gt          0.1087
_refine_ls_wR_factor_ref         0.1137
_reflns_number_gt                2321
_reflns_number_total             2509
_reflns_threshold_expression     >2sigma(I)
_cod_data_source_file            ja037227psi20030927_031934_04.cif
_cod_data_source_block           2
_cod_depositor_comments
;
The following automatic conversions were performed:

'_refine_ls_hydrogen_treatment' value 'Refall' changed to 'refall'
according to the built-in table from CIF Core dictionary named
'cif_core.dic' version 2.4.1 from 2010-06-29.

Automatic conversion script
Id: cif_fix_values 1715 2011-07-08 13:25:40Z adriana 
;
_cod_database_code               4114388
loop_
_symmetry_equiv_pos_as_xyz
'x, y, z'
'x, -y, z+1/2'
loop_
_atom_site_label
_atom_site_type_symbol
_atom_site_fract_x
_atom_site_fract_y
_atom_site_fract_z
_atom_site_U_iso_or_equiv
_atom_site_adp_type
_atom_site_occupancy
_atom_site_symmetry_multiplicity
_atom_site_calc_flag
O1 O 0.82040(9) 0.1649(2) 1.43425(16) 0.0215(3) Uani 1 1 d
H1 H 0.841(2) 0.032(5) 1.409(4) 0.031(7) Uiso 1 1 d
C1 C 0.71799(12) 0.2022(3) 1.3471(2) 0.0165(4) Uani 1 1 d
C2 C 0.66862(13) 0.4128(3) 1.3910(2) 0.0185(4) Uani 1 1 d
H2 H 0.7083(18) 0.535(4) 1.480(3) 0.022(6) Uiso 1 1 d
C3 C 0.56534(13) 0.4556(3) 1.3057(2) 0.0187(4) Uani 1 1 d
H3 H 0.5317(19) 0.604(4) 1.332(3) 0.023(6) Uiso 1 1 d
C4 C 0.50961(12) 0.2910(3) 1.1762(2) 0.0172(4) Uani 1 1 d
C5 C 0.56103(13) 0.0825(3) 1.1345(2) 0.0185(4) Uani 1 1 d
H5 H 0.520(2) -0.033(5) 1.040(3) 0.031(6) Uiso 1 1 d
C6 C 0.66368(13) 0.0382(3) 1.2179(2) 0.0182(4) Uani 1 1 d
H6 H 0.698(2) -0.110(5) 1.192(3) 0.030(6) Uiso 1 1 d
C7 C 0.39711(13) 0.3340(3) 1.0895(2) 0.0190(3) Uani 1 1 d
H7A H 0.3465(16) 0.252(4) 1.297(3) 0.020(5) Uiso 1 1 d
H7B H 0.3482(19) 0.009(5) 1.189(3) 0.030(6) Uiso 1 1 d
C8 C 0.32879(13) 0.1866(3) 1.1771(2) 0.0201(4) Uani 1 1 d
H8A H 0.3781(19) 0.287(4) 0.967(3) 0.027(6) Uiso 1 1 d
H8B H 0.3811(19) 0.519(5) 1.100(3) 0.026(6) Uiso 1 1 d
C9 C 0.21555(12) 0.2150(3) 1.0851(2) 0.0170(4) Uani 1 1 d
C10 C 0.15795(13) 0.4136(3) 1.1234(2) 0.0192(4) Uani 1 1 d
H10 H 0.1878(19) 0.539(4) 1.211(3) 0.026(6) Uiso 1 1 d
C11 C 0.05368(12) 0.4398(3) 1.0362(2) 0.0184(4) Uani 1 1 d
H11 H 0.0137(19) 0.585(4) 1.061(3) 0.034(7) Uiso 1 1 d
C12 C 0.00515(12) 0.2658(3) 0.9084(2) 0.0170(3) Uani 1 1 d
C13 C 0.06220(13) 0.0674(3) 0.8690(2) 0.0193(4) Uani 1 1 d
H13 H 0.030(2) -0.053(4) 0.777(3) 0.032(6) Uiso 1 1 d
C14 C 0.16575(14) 0.0441(3) 0.9564(2) 0.0189(4) Uani 1 1 d
H14 H 0.205(2) -0.101(5) 0.929(4) 0.035(7) Uiso 1 1 d
N1 N -0.10251(11) 0.2801(3) 0.8266(2) 0.0204(3) Uani 1 1 d
H1A H -0.127(2) 0.440(5) 0.859(4) 0.046(8) Uiso 1 1 d
H1B H -0.118(2) 0.257(5) 0.712(3) 0.039(6) Uiso 1 1 d
loop_
_atom_site_aniso_label
_atom_site_aniso_U_11
_atom_site_aniso_U_22
_atom_site_aniso_U_33
_atom_site_aniso_U_23
_atom_site_aniso_U_13
_atom_site_aniso_U_12
O1 0.0149(6) 0.0244(6) 0.0225(7) -0.0045(5) 0.0013(5) 0.0003(4)
C1 0.0157(8) 0.0191(7) 0.0153(9) 0.0026(5) 0.0054(7) 0.0001(6)
C2 0.0181(9) 0.0198(7) 0.0161(8) -0.0024(6) 0.0025(6) -0.0020(5)
C3 0.0187(9) 0.0174(7) 0.0210(9) -0.0002(6) 0.0076(7) 0.0018(6)
C4 0.0147(8) 0.0198(7) 0.0166(9) 0.0016(6) 0.0040(7) -0.0014(6)
C5 0.0176(9) 0.0202(7) 0.0168(9) 0.0002(6) 0.0038(7) 0.0001(6)
C6 0.0193(8) 0.0182(7) 0.0169(8) -0.0009(6) 0.0049(7) 0.0004(6)
C7 0.0148(8) 0.0230(7) 0.0187(9) 0.0059(6) 0.0042(6) 0.0028(6)
C8 0.0158(8) 0.0237(7) 0.0196(9) 0.0029(6) 0.0037(6) -0.0002(5)
C9 0.0157(8) 0.0186(7) 0.0173(10) 0.0034(5) 0.0057(7) 0.0003(5)
C10 0.0181(8) 0.0183(7) 0.0189(9) -0.0024(6) 0.0021(7) -0.0022(5)
C11 0.0158(8) 0.0185(7) 0.0206(9) 0.0004(6) 0.0050(7) 0.0023(5)
C12 0.0153(8) 0.0194(7) 0.0151(8) 0.0010(5) 0.0030(7) -0.0024(6)
C13 0.0191(9) 0.0197(7) 0.0191(9) -0.0025(6) 0.0059(7) -0.0011(6)
C14 0.0179(8) 0.0197(7) 0.0192(9) -0.0015(6) 0.0058(7) 0.0018(6)
N1 0.0138(7) 0.0253(6) 0.0209(7) 0.0001(5) 0.0032(6) 0.0011(5)
loop_
_atom_type_symbol
_atom_type_description
_atom_type_scat_dispersion_real
_atom_type_scat_dispersion_imag
_atom_type_scat_source
C C 0.0033 0.0016 'International Tables Vol C Tables 4.2.6.8 and 6.1.1.4'
H H 0.0000 0.0000 'International Tables Vol C Tables 4.2.6.8 and 6.1.1.4'
N N 0.0061 0.0033 'International Tables Vol C Tables 4.2.6.8 and 6.1.1.4'
O O 0.0106 0.0060 'International Tables Vol C Tables 4.2.6.8 and 6.1.1.4'
loop_
_geom_angle_atom_site_label_1
_geom_angle_atom_site_label_2
_geom_angle_atom_site_label_3
_geom_angle
C1 O1 H1 111(2)
O1 C1 C6 122.17(15)
O1 C1 C2 118.14(15)
C6 C1 C2 119.68(15)
C3 C2 C1 119.56(15)
C3 C2 H2 120.7(13)
C1 C2 H2 119.7(13)
C2 C3 C4 121.32(16)
C2 C3 H3 120.0(16)
C4 C3 H3 118.7(16)
C5 C4 C3 117.90(15)
C5 C4 C7 121.27(15)
C3 C4 C7 120.80(16)
C6 C5 C4 121.37(16)
C6 C5 H5 121.7(15)
C4 C5 H5 116.9(15)
C5 C6 C1 120.17(15)
C5 C6 H6 120.9(16)
C1 C6 H6 118.9(16)
C4 C7 C8 112.31(12)
C4 C7 H8A 111.4(15)
C8 C7 H8A 109.4(14)
C4 C7 H8B 108.7(14)
C8 C7 H8B 105.5(13)
H8A C7 H8B 109(2)
C9 C8 C7 112.93(12)
C9 C8 H7A 111.6(12)
C7 C8 H7A 106.2(12)
C9 C8 H7B 110.8(15)
C7 C8 H7B 110.2(15)
H7A C8 H7B 105(2)
C10 C9 C14 117.92(15)
C10 C9 C8 121.52(15)
C14 C9 C8 120.56(15)
C9 C10 C11 121.05(15)
C9 C10 H10 122.1(15)
C11 C10 H10 116.9(15)
C10 C11 C12 120.13(15)
C10 C11 H11 120.7(14)
C12 C11 H11 119.1(14)
C13 C12 C11 119.19(15)
C13 C12 N1 120.01(15)
C11 C12 N1 120.68(15)
C14 C13 C12 120.06(15)
C14 C13 H13 119.4(16)
C12 C13 H13 120.5(16)
C13 C14 C9 121.66(16)
C13 C14 H14 119.0(15)
C9 C14 H14 119.3(15)
C12 N1 H1A 108.2(19)
C12 N1 H1B 111.6(17)
H1A N1 H1B 114(3)
loop_
_geom_bond_atom_site_label_1
_geom_bond_atom_site_label_2
_geom_bond_distance
O1 C1 1.385(2)
O1 H1 0.80(3)
C1 C6 1.396(2)
C1 C2 1.399(2)
C2 C3 1.396(3)
C2 H2 1.00(2)
C3 C4 1.405(2)
C3 H3 0.96(2)
C4 C5 1.400(2)
C4 C7 1.508(2)
C5 C6 1.387(2)
C5 H5 1.01(3)
C6 H6 0.97(2)
C7 C8 1.5452(19)
C7 H8A 0.99(3)
C7 H8B 1.01(2)
C8 C9 1.516(2)
C8 H7A 1.00(2)
C8 H7B 0.97(3)
C9 C10 1.399(2)
C9 C14 1.399(2)
C10 C11 1.400(2)
C10 H10 0.97(2)
C11 C12 1.401(2)
C11 H11 0.99(2)
C12 C13 1.397(2)
C12 N1 1.428(2)
C13 C14 1.390(3)
C13 H13 0.98(3)
C14 H14 0.99(3)
N1 H1A 0.97(3)
N1 H1B 0.91(2)
loop_
_geom_torsion_atom_site_label_1
_geom_torsion_atom_site_label_2
_geom_torsion_atom_site_label_3
_geom_torsion_atom_site_label_4
_geom_torsion
O1 C1 C2 C3 -179.93(15)
C6 C1 C2 C3 0.4(2)
C1 C2 C3 C4 0.0(3)
C2 C3 C4 C5 -0.3(3)
C2 C3 C4 C7 177.74(15)
C3 C4 C5 C6 0.1(3)
C7 C4 C5 C6 -177.95(16)
C4 C5 C6 C1 0.4(3)
O1 C1 C6 C5 179.72(15)
C2 C1 C6 C5 -0.7(3)
C5 C4 C7 C8 85.66(19)
C3 C4 C7 C8 -92.31(18)
C4 C7 C8 C9 -176.50(17)
C7 C8 C9 C10 -88.87(18)
C7 C8 C9 C14 90.08(18)
C14 C9 C10 C11 0.2(2)
C8 C9 C10 C11 179.21(16)
C9 C10 C11 C12 0.1(3)
C10 C11 C12 C13 -0.3(3)
C10 C11 C12 N1 175.71(15)
C11 C12 C13 C14 0.2(3)
N1 C12 C13 C14 -175.89(15)
C12 C13 C14 C9 0.2(3)
C10 C9 C14 C13 -0.4(3)
C8 C9 C14 C13 -179.38(16)
loop_
_cod_related_entry_id
_cod_related_entry_database
_cod_related_entry_code
1 ChemSpider 26457277
