#------------------------------------------------------------------------------
#$Date: 2016-02-16 22:30:59 +0200 (Tue, 16 Feb 2016) $
#$Revision: 176467 $
#$URL: svn://www.crystallography.net/cod/cif/4/11/49/4114975.cif $
#------------------------------------------------------------------------------
#
# This file is available in the Crystallography Open Database (COD),
# http://www.crystallography.net/
#
# All data on this site have been placed in the public domain by the
# contributors.
#
data_4114975
loop_
_publ_author_name
'Akikazu Matsumoto'
'Toshihiro Tanaka'
'Takashi Tsubouchi'
'Kohji Tashiro'
'Seishi Saragai'
'Shinsuke Nakamoto'
_publ_section_title
;
 Crystal Engineering for Topochemical Polymerization of Muconic Esters
 Using Halogen-Halogen and CH/\p Interactions as Weak Intermolecular
 Interactions
;
_journal_name_full               'Journal of the American Chemical Society'
_journal_page_first              8891
_journal_page_last               8902
_journal_paper_doi               10.1021/ja0205333
_journal_volume                  124
_journal_year                    2002
_chemical_formula_moiety         'C10 H12 Br2 O4 '
_chemical_formula_sum            'C10 H12 Br2 O4'
_chemical_formula_weight         356.01
_space_group_IT_number           14
_symmetry_cell_setting           monoclinic
_symmetry_Int_Tables_number      14
_symmetry_space_group_name_Hall  '-P 2yab'
_symmetry_space_group_name_H-M   'P 1 21/a 1'
_cell_angle_alpha                90
_cell_angle_beta                 95.622(8)
_cell_angle_gamma                90
_cell_formula_units_Z            2
_cell_length_a                   8.3045(9)
_cell_length_b                   5.5002(7)
_cell_length_c                   13.840(2)
_cell_measurement_reflns_used    5463
_cell_measurement_temperature    296.1
_cell_measurement_theta_max      27.5
_cell_measurement_theta_min      2.5
_cell_volume                     629.12(14)
_computing_cell_refinement       PROCESS-AUTO
_computing_data_collection       PROCESS-AUTO
_computing_data_reduction        CrystalStructure
_computing_publication_material  'CrystalStructure Ver. 2.00'
_computing_structure_refinement  CRYSTALS
_computing_structure_solution    SIR92
_diffrn_detector_area_resol_mean 10.00
_diffrn_measured_fraction_theta_full 0.9679
_diffrn_measured_fraction_theta_max 0.9697
_diffrn_measurement_device_type  'Rigaku RAXIS-RAPID'
_diffrn_measurement_method       \w
_diffrn_radiation_type           'Mo K\a'
_diffrn_radiation_wavelength     0.7107
_diffrn_reflns_av_R_equivalents  0.045
_diffrn_reflns_limit_h_max       10
_diffrn_reflns_limit_h_min       -10
_diffrn_reflns_limit_k_max       7
_diffrn_reflns_limit_k_min       -7
_diffrn_reflns_limit_l_max       17
_diffrn_reflns_limit_l_min       -17
_diffrn_reflns_number            4516
_diffrn_reflns_theta_full        27.50
_diffrn_reflns_theta_max         27.48
_exptl_absorpt_coefficient_mu    6.457
_exptl_absorpt_correction_T_max  0.524
_exptl_absorpt_correction_T_min  0.153
_exptl_absorpt_correction_type   multi-scan
_exptl_absorpt_process_details
;
    Higashi, T. (1995). Program for Absorption Correction.
    Rigaku Corporation, Tokyo, Japan.
;
_exptl_crystal_colour            colorless
_exptl_crystal_density_diffrn    1.879
_exptl_crystal_description       platelet
_exptl_crystal_size_max          0.40
_exptl_crystal_size_mid          0.30
_exptl_crystal_size_min          0.10
_refine_diff_density_max         0.39
_refine_diff_density_min         -0.77
_refine_ls_extinction_method     none
_refine_ls_goodness_of_fit_ref   0.921
_refine_ls_hydrogen_treatment    refall
_refine_ls_number_parameters     80
_refine_ls_number_reflns         1141
_refine_ls_R_factor_gt           0.0410
_refine_ls_shift/su_max          0.0070
_refine_ls_structure_factor_coef F
_refine_ls_weighting_details     'w = 1/[0.005Fo^2^ + 1.000\s^2^(Fo)]'
_refine_ls_weighting_scheme      calc
_refine_ls_wR_factor_ref         0.0710
_reflns_number_gt                1137
_reflns_number_total             1535
_reflns_threshold_expression     F^2^>2.0\s(F^2^)
_cod_data_source_file            ja0205333_s11.cif
_cod_data_source_block           '_zz-11'
_cod_original_cell_volume        629.1(1)
_cod_original_formula_sum        'C10 H12 Br2 O4 '
_cod_database_code               4114975
loop_
_symmetry_equiv_pos_as_xyz
x,y,z
-x,-y,-z
-x+1/2,y+1/2,-z
x+1/2,-y+1/2,z
loop_
_atom_site_label
_atom_site_type_symbol
_atom_site_fract_x
_atom_site_fract_y
_atom_site_fract_z
_atom_site_U_iso_or_equiv
_atom_site_adp_type
_atom_site_occupancy
_atom_site_symmetry_multiplicity
_atom_site_calc_flag
Br1 Br 0.64655(6) 0.17841(8) 0.92069(4) 0.0479(2) Uani 1.00 1 d
O1 O 0.8859(5) 0.7336(7) 0.6664(3) 0.062(1) Uani 1.00 1 d
O3 O 0.7544(4) 0.4244(5) 0.7253(2) 0.0448(9) Uani 1.00 1 d
C1 C 0.8451(5) 0.5256(8) 0.6610(3) 0.038(1) Uani 1.00 1 d
C2 C 0.8817(6) 0.3434(9) 0.5882(4) 0.046(1) Uani 1.00 1 d
C3 C 0.9641(6) 0.3859(9) 0.5127(4) 0.046(1) Uani 1.00 1 d
C4 C 0.7111(6) 0.5859(8) 0.8010(4) 0.042(1) Uani 1.00 1 d
C5 C 0.5765(5) 0.4743(8) 0.8497(4) 0.042(1) Uani 1.00 1 d
H1 H 0.8445(6) 0.1820(9) 0.5962(4) 0.055(2) Uiso 1.00 1 c
H2 H 0.9841(6) 0.2579(9) 0.4693(4) 0.056(2) Uiso 1.00 1 c
H3 H 0.6790(6) 0.7401(8) 0.7748(4) 0.051(2) Uiso 1.00 1 c
H4 H 0.8024(6) 0.6052(8) 0.8474(4) 0.051(2) Uiso 1.00 1 c
H5 H 0.4921(5) 0.4338(8) 0.8011(4) 0.051(2) Uiso 1.00 1 c
H6 H 0.5375(5) 0.5878(8) 0.8936(4) 0.051(2) Uiso 1.00 1 c
loop_
_atom_site_aniso_label
_atom_site_aniso_U_11
_atom_site_aniso_U_22
_atom_site_aniso_U_33
_atom_site_aniso_U_12
_atom_site_aniso_U_13
_atom_site_aniso_U_23
Br1 0.0571(4) 0.0406(4) 0.0479(4) -0.0004(2) 0.0144(2) 0.0066(2)
O1 0.098(3) 0.040(2) 0.052(2) -0.025(2) 0.032(2) -0.009(2)
O3 0.064(2) 0.035(2) 0.039(2) -0.008(1) 0.023(1) -0.004(1)
C1 0.046(2) 0.040(2) 0.031(2) -0.006(2) 0.010(2) 0.003(2)
C2 0.058(3) 0.038(2) 0.042(3) -0.009(2) 0.014(2) -0.003(2)
C3 0.062(3) 0.038(2) 0.039(3) -0.006(2) 0.018(2) -0.005(2)
C4 0.055(2) 0.035(2) 0.038(2) -0.003(2) 0.018(2) -0.002(2)
C5 0.041(2) 0.045(2) 0.042(2) 0.003(2) 0.009(2) 0.002(2)
loop_
_atom_type_symbol
_atom_type_description
_atom_type_scat_dispersion_real
_atom_type_scat_dispersion_imag
_atom_type_scat_source
C C 0.006 0.003
;
International Tables for Crystallography
(1992, Vol. C, Tables 4.2.6.8 and 6.1.1.4)
;
H H 0.000 0.000
;
International Tables for Crystallography
(1992, Vol. C, Table 6.1.1.4)
;
O O 0.017 0.010
;
International Tables for Crystallography
(1992, Vol. C, Tables 4.2.6.8 and 6.1.1.4)
;
Br Br -0.557 2.708
;
International Tables for Crystallography
(1992, Vol. C, Tables 4.2.6.8 and 6.1.1.4)
;
loop_
_geom_angle_atom_site_label_1
_geom_angle_atom_site_label_2
_geom_angle_atom_site_label_3
_geom_angle
_geom_angle_publ_flag
C1 O3 C4 114.9(3) yes
O1 C1 O3 122.0(4) yes
O1 C1 C2 128.2(4) yes
O3 C1 C2 109.7(4) yes
C1 C2 C3 125.2(4) yes
C1 C2 H1 117.7(2) no
C3 C2 H1 117.1(3) no
C2 C3 H2 120.2(3) no
O3 C4 C5 109.0(4) yes
O3 C4 H3 110.7(2) no
C5 C4 H3 110.2(3) no
O3 C4 H4 108.7(2) no
C5 C4 H4 108.9(3) no
H3 C4 H4 109.46(1) no
Br1 C5 C4 111.7(3) yes
Br1 C5 H5 108.87(15) no
C4 C5 H5 108.0(3) no
Br1 C5 H6 109.17(14) no
C4 C5 H6 109.6(3) no
H5 C5 H6 109.461(9) no
loop_
_geom_bond_atom_site_label_1
_geom_bond_atom_site_label_2
_geom_bond_distance
_geom_bond_publ_flag
Br1 C5 1.959(5) yes
O1 C1 1.193(5) yes
O3 C1 1.342(5) yes
O3 C4 1.446(5) yes
C1 C2 1.473(6) yes
C2 C3 1.325(6) yes
C2 H1 0.94999(11) no
C3 H2 0.95000(8) no
C4 C5 1.493(6) yes
C4 H3 0.9500(1) no
C4 H4 0.94999(11) no
C5 H5 0.9500(1) no
C5 H6 0.95001(8) no
loop_
_geom_contact_atom_site_label_1
_geom_contact_atom_site_label_2
_geom_contact_site_symmetry_2
_geom_contact_distance
_geom_contact_publ_flag
Br1 O3 . 3.228(3) yes
Br1 C4 . 2.869(4) yes
Br1 C5 . 1.959(5) yes
Br1 H3 1_545 3.173(5) no
Br1 H4 1_545 3.592(5) no
Br1 H4 . 2.911(4) no
Br1 H4 3_647 3.222(5) no
Br1 H4 4_455 3.326(5) no
Br1 H5 . 2.438(5) no
Br1 H5 4_555 3.505(4) no
Br1 H6 1_545 3.383(5) no
Br1 H6 . 2.442(5) no
Br1 H6 2_667 3.371(5) no
Br1 H6 3_647 3.524(5) no
O1 O3 . 2.219(4) yes
O1 C1 . 1.193(5) yes
O1 C2 . 2.402(6) yes
O1 C2 1_565 3.524(6) yes
O1 C3 . 2.979(6) yes
O1 C3 2_766 2.954(6) yes
O1 C4 . 2.601(5) yes
O1 C4 4_565 3.281(7) yes
O1 C5 4_565 3.277(6) yes
O1 H1 . 3.194(6) no
O1 H1 1_565 2.661(6) no
O1 H2 2_766 2.256(6) no
O1 H2 3_656 3.443(7) no
O1 H3 . 2.390(6) no
O1 H3 4_565 2.736(7) no
O1 H4 . 2.756(6) no
O1 H5 4_565 2.697(6) no
O1 H6 4_565 3.416(7) no
O3 C1 . 1.342(5) yes
O3 C2 . 2.304(5) yes
O3 C3 . 3.569(5) yes
O3 C4 . 1.446(5) yes
O3 C5 . 2.392(5) yes
O3 H1 . 2.407(6) no
O3 H3 . 1.990(5) no
O3 H4 . 1.968(6) no
O3 H5 . 2.509(5) no
O3 H5 4_555 2.910(6) no
O3 H6 . 3.210(5) no
C1 C2 . 1.473(6) yes
C1 C3 . 2.486(6) yes
C1 C3 2_766 3.044(6) yes
C1 C4 . 2.351(6) yes
C1 H1 . 2.092(7) no
C1 H2 . 3.337(7) no
C1 H2 2_766 2.679(6) no
C1 H2 3_656 3.375(7) no
C1 H3 . 2.491(6) no
C1 H3 4_565 3.313(7) no
C1 H4 . 2.674(6) no
C1 H5 4_555 3.342(6) no
C2 C3 . 1.325(6) yes
C2 C3 2_766 2.481(7) yes
C2 H1 . 0.94999(11) no
C2 H1 3_656 3.545(9) no
C2 H2 . 1.982(6) no
C2 H2 2_766 2.619(7) no
C2 H2 4_455 3.585(8) no
C2 H5 4_555 3.364(7) no
C3 C3 2_766 1.448(9) yes
C3 H1 . 1.951(6) no
C3 H1 2_766 3.304(7) no
C3 H1 3_656 3.276(8) no
C3 H1 4_555 3.277(8) no
C3 H2 . 0.95000(8) no
C3 H2 2_756 3.57(1) no
C3 H2 2_766 2.02(1) no
C4 C5 . 1.493(6) yes
C4 H3 . 0.9500(1) no
C4 H4 . 0.94999(11) no
C4 H5 . 2.002(6) no
C4 H5 4_565 3.524(6) no
C4 H6 . 2.021(6) no
C4 H6 4_565 3.396(6) no
C5 H3 . 2.027(6) no
C5 H4 . 2.013(6) no
C5 H4 4_465 3.243(6) no
C5 H5 . 0.9500(1) no
C5 H6 . 0.95001(8) no
H1 H2 . 2.236(6) no
H1 H2 2_756 2.992(7) no
H1 H2 2_766 3.548(7) no
H1 H2 4_455 3.334(8) no
H1 H5 4_555 3.044(7) no
H2 H2 2_756 2.97(1) no
H2 H2 2_766 2.80(1) no
H2 H3 3_646 3.516(7) no
H3 H4 . 1.55120(14) no
H3 H4 4_465 3.483(2) no
H3 H5 . 2.343(6) no
H3 H5 4_565 3.150(6) no
H3 H6 . 2.272(6) no
H3 H6 4_565 3.392(7) no
H4 H5 . 2.760(6) no
H4 H5 4_555 3.447(6) no
H4 H5 4_565 3.085(6) no
H4 H6 . 2.352(6) no
H4 H6 4_565 2.613(6) no
H5 H6 . 1.55124(15) no
H6 H6 2_667 3.22(1) no
loop_
_geom_torsion_atom_site_label_1
_geom_torsion_atom_site_label_2
_geom_torsion_atom_site_label_3
_geom_torsion_atom_site_label_4
_geom_torsion
_geom_torsion_publ_flag
C4 O3 C1 O1 -0.2(9) yes
C4 O3 C1 C2 179.7(5) yes
C1 O3 C4 C5 164.6(6) yes
O1 C1 C2 C3 -2.5(1) yes
O3 C1 C2 C3 177.6(6) yes
O3 C4 C5 Br1 66.6(5) yes
