#------------------------------------------------------------------------------
#$Date: 2017-10-13 14:42:48 +0300 (Fri, 13 Oct 2017) $
#$Revision: 201982 $
#$URL: file:///home/coder/svn-repositories/cod/cif/4/11/43/4114394.cif $
#------------------------------------------------------------------------------
#
# This file is available in the Crystallography Open Database (COD),
# http://www.crystallography.net/
#
# All data on this site have been placed in the public domain by the
# contributors.
#
data_4114394
loop_
_publ_author_name
'Venu R. Vangala'
'Balakrishna R. Bhogala'
'Archan Dey'
'Gautam R. Desiraju'
'Charlotte K. Broder'
'Philip S. Smith'
'Raju Mondal'
'Judith A. K. Howard'
'Chick C. Wilson'
_publ_contact_author_address
;
School of Chemistry
University of Hyderabad
Hyderabad 500 046
India
;
_publ_contact_author_email       desiraju@uohyd.ernet.in
_publ_contact_author_fax         '91 40 3010567'
_publ_contact_author_name        'Professor Gautam R. Desiraju'
_publ_contact_author_phone       '91 40 3010567'
_publ_section_title
;
 Correspondence between Molecular Functionality and Crystal Structures.
 Supramolecular Chemistry of a Family of Homologated Aminophenols
;
_journal_name_full               'Journal of the American Chemical Society'
_journal_page_first              14495
_journal_page_last               14509
_journal_paper_doi               10.1021/ja037227p
_journal_volume                  125
_journal_year                    2003
_chemical_formula_sum            'C13 H13 N O S'
_chemical_formula_weight         231.30
_chemical_melting_point          480
_chemical_name_systematic
; 
 4-(4-aminophenylsulfamylmethyl)phenol 
;
_space_group_IT_number           7
_symmetry_cell_setting           monoclinic
_symmetry_space_group_name_Hall  'P -2yc'
_symmetry_space_group_name_H-M   'P 1 c 1'
_atom_sites_solution_hydrogens   geom
_atom_sites_solution_primary     direct
_atom_sites_solution_secondary   difmap
_audit_creation_method           SHELXL-97
_cell_angle_alpha                90.00
_cell_angle_beta                 105.548(4)
_cell_angle_gamma                90.00
_cell_formula_units_Z            2
_cell_length_a                   13.7422(12)
_cell_length_b                   5.1725(4)
_cell_length_c                   8.3055(7)
_cell_measurement_reflns_used    586
_cell_measurement_temperature    120(2)
_cell_measurement_theta_max      26.373
_cell_measurement_theta_min      4.230
_cell_volume                     568.76(8)
_computing_cell_refinement       'SMART-NT V5.0 (Bruker, 1998)'
_computing_data_collection       'SMART-NT V5.0 (Bruker, 1998)'
_computing_data_reduction        'SMART-NT V5.0 (Bruker, 1998)'
_computing_molecular_graphics    'SHELXTL-98 (Bruker, 1998)'
_computing_publication_material  'SHELXTL-98 (Bruker, 1998)'
_computing_structure_refinement  'SHELXL-97 (Sheldrick, 1997)'
_computing_structure_solution    'SHELXS-97 (Sheldrick, 1990)'
_diffrn_ambient_temperature      120(2)
_diffrn_measured_fraction_theta_full 0.997
_diffrn_measured_fraction_theta_max 0.997
_diffrn_measurement_device_type  'Bruker Smart'
_diffrn_measurement_method       /w
_diffrn_radiation_monochromator  graphite
_diffrn_radiation_source         'fine-focus sealed tube'
_diffrn_radiation_type           MoK\a
_diffrn_radiation_wavelength     0.71073
_diffrn_reflns_av_R_equivalents  0.0510
_diffrn_reflns_av_sigmaI/netI    0.0597
_diffrn_reflns_limit_h_max       14
_diffrn_reflns_limit_h_min       -17
_diffrn_reflns_limit_k_max       6
_diffrn_reflns_limit_k_min       -6
_diffrn_reflns_limit_l_max       10
_diffrn_reflns_limit_l_min       -8
_diffrn_reflns_number            3913
_diffrn_reflns_theta_full        27.51
_diffrn_reflns_theta_max         27.51
_diffrn_reflns_theta_min         1.54
_diffrn_standards_decay_%        0
_diffrn_standards_number         0
_exptl_absorpt_coefficient_mu    0.261
_exptl_absorpt_correction_type   none
_exptl_crystal_colour            Colourless
_exptl_crystal_density_diffrn    1.351
_exptl_crystal_description       Block
_exptl_crystal_F_000             244
_exptl_crystal_size_max          0.25
_exptl_crystal_size_mid          0.08
_exptl_crystal_size_min          0.04
_refine_diff_density_max         0.269
_refine_diff_density_min         -0.225
_refine_diff_density_rms         0.055
_refine_ls_abs_structure_details 'Flack H D (1983), Acta Cryst. A39, 876-881'
_refine_ls_abs_structure_Flack   0.12(11)
_refine_ls_extinction_coef       'not refined'
_refine_ls_extinction_method     none
_refine_ls_goodness_of_fit_ref   1.021
_refine_ls_hydrogen_treatment    mixed
_refine_ls_matrix_type           full
_refine_ls_number_parameters     157
_refine_ls_number_reflns         1847
_refine_ls_number_restraints     2
_refine_ls_restrained_S_all      1.020
_refine_ls_R_factor_all          0.0533
_refine_ls_R_factor_gt           0.0402
_refine_ls_shift/su_max          0.000
_refine_ls_shift/su_mean         0.000
_refine_ls_structure_factor_coef Fsqd
_refine_ls_weighting_details
'calc w=1/[\s^2^(Fo^2^)+(0.0393P)^2^+0.0000P] where P=(Fo^2^+2Fc^2^)/3'
_refine_ls_weighting_scheme      calc
_refine_ls_wR_factor_gt          0.0841
_refine_ls_wR_factor_ref         0.0882
_reflns_number_gt                1549
_reflns_number_total             1847
_reflns_threshold_expression     >2sigma(I)
_cod_data_source_file            ja037227psi20030927_031934_10.cif
_cod_data_source_block           2b
_cod_database_code               4114394
loop_
_symmetry_equiv_pos_as_xyz
'x, y, z'
'x, -y, z+1/2'
loop_
_atom_site_label
_atom_site_type_symbol
_atom_site_fract_x
_atom_site_fract_y
_atom_site_fract_z
_atom_site_U_iso_or_equiv
_atom_site_adp_type
_atom_site_occupancy
_atom_site_symmetry_multiplicity
_atom_site_calc_flag
_atom_site_refinement_flags
O1 O 1.12565(16) 0.1672(5) 0.7094(3) 0.0228(6) Uani 1 1 d .
H1 H 1.144(3) 0.034(9) 0.756(5) 0.049(14) Uiso 1 1 d .
C1 C 1.0239(2) 0.2061(6) 0.6877(4) 0.0180(7) Uani 1 1 d .
C2 C 0.9792(3) 0.4181(6) 0.5934(4) 0.0208(7) Uani 1 1 d .
H2A H 1.0185 0.5310 0.5459 0.025 Uiso 1 1 calc R
C3 C 0.8772(3) 0.4627(6) 0.5695(5) 0.0212(7) Uani 1 1 d .
H3A H 0.8472 0.6084 0.5055 0.025 Uiso 1 1 calc R
C4 C 0.8165(2) 0.2995(6) 0.6368(4) 0.0174(7) Uani 1 1 d .
C5 C 0.8634(2) 0.0887(6) 0.7307(4) 0.0199(7) Uani 1 1 d .
H5A H 0.8240 -0.0259 0.7768 0.024 Uiso 1 1 calc R
C6 C 0.9658(2) 0.0416(6) 0.7586(4) 0.0184(7) Uani 1 1 d .
H6A H 0.9964 -0.1010 0.8253 0.022 Uiso 1 1 calc R
C7 C 0.7053(2) 0.3479(7) 0.6071(4) 0.0230(7) Uani 1 1 d .
H7A H 0.6904 0.5343 0.5870 0.028 Uiso 1 1 calc R
H7B H 0.6830 0.2945 0.7061 0.028 Uiso 1 1 calc R
S1 S 0.63876(7) 0.15822(17) 0.42323(10) 0.0230(2) Uani 1 1 d .
C8 C 0.5101(2) 0.2088(6) 0.4223(4) 0.0177(7) Uani 1 1 d .
C9 C 0.4534(3) 0.4103(6) 0.3315(4) 0.0191(7) Uani 1 1 d .
H9A H 0.4845 0.5292 0.2736 0.023 Uiso 1 1 calc R
C10 C 0.3524(2) 0.4385(6) 0.3250(4) 0.0204(7) Uani 1 1 d .
H10A H 0.3146 0.5764 0.2626 0.024 Uiso 1 1 calc R
C11 C 0.3053(2) 0.2651(6) 0.4099(4) 0.0159(7) Uani 1 1 d .
C12 C 0.3625(2) 0.0674(6) 0.5026(4) 0.0197(7) Uani 1 1 d .
H12A H 0.3322 -0.0488 0.5634 0.024 Uiso 1 1 calc R
C13 C 0.4630(2) 0.0386(6) 0.5070(4) 0.0194(7) Uani 1 1 d .
H13A H 0.5007 -0.0998 0.5689 0.023 Uiso 1 1 calc R
N1 N 0.2006(2) 0.2821(6) 0.3939(4) 0.0222(6) Uani 1 1 d .
H1B H 0.175(3) 0.431(7) 0.356(5) 0.025(10) Uiso 1 1 d .
H1A H 0.180(3) 0.251(6) 0.491(4) 0.020(9) Uiso 1 1 d .
loop_
_atom_site_aniso_label
_atom_site_aniso_U_11
_atom_site_aniso_U_22
_atom_site_aniso_U_33
_atom_site_aniso_U_23
_atom_site_aniso_U_13
_atom_site_aniso_U_12
O1 0.0120(12) 0.0266(13) 0.0294(13) 0.0056(12) 0.0049(10) 0.0004(10)
C1 0.0131(15) 0.0233(18) 0.0167(16) -0.0022(13) 0.0025(12) -0.0005(12)
C2 0.0207(17) 0.0192(17) 0.0226(18) -0.0002(14) 0.0061(14) -0.0031(14)
C3 0.0234(18) 0.0186(15) 0.0197(16) 0.0020(16) 0.0024(14) 0.0003(17)
C4 0.0159(16) 0.0199(17) 0.0169(16) -0.0047(13) 0.0055(13) 0.0010(13)
C5 0.0197(17) 0.0226(17) 0.0198(16) -0.0025(14) 0.0092(13) -0.0056(13)
C6 0.0196(17) 0.0184(17) 0.0174(17) 0.0012(13) 0.0052(13) -0.0002(13)
C7 0.0186(16) 0.0277(17) 0.0236(17) -0.0053(16) 0.0075(13) 0.0003(15)
S1 0.0141(4) 0.0323(4) 0.0230(4) -0.0069(5) 0.0055(3) 0.0007(4)
C8 0.0103(15) 0.0269(19) 0.0159(16) -0.0061(13) 0.0034(13) 0.0025(13)
C9 0.0222(17) 0.0157(17) 0.0208(17) -0.0012(13) 0.0081(15) -0.0046(13)
C10 0.0181(17) 0.0197(17) 0.0217(18) 0.0036(14) 0.0024(15) 0.0031(14)
C11 0.0145(16) 0.0173(15) 0.0156(16) -0.0054(12) 0.0035(13) -0.0019(12)
C12 0.0192(17) 0.0194(16) 0.0205(16) -0.0006(13) 0.0055(13) -0.0020(13)
C13 0.0186(17) 0.0226(17) 0.0162(17) 0.0008(14) 0.0032(13) 0.0043(14)
N1 0.0162(14) 0.0265(17) 0.0237(16) 0.0019(13) 0.0053(12) 0.0012(11)
loop_
_atom_type_symbol
_atom_type_description
_atom_type_scat_dispersion_real
_atom_type_scat_dispersion_imag
_atom_type_scat_source
C C 0.0033 0.0016 'International Tables Vol C Tables 4.2.6.8 and 6.1.1.4'
H H 0.0000 0.0000 'International Tables Vol C Tables 4.2.6.8 and 6.1.1.4'
N N 0.0061 0.0033 'International Tables Vol C Tables 4.2.6.8 and 6.1.1.4'
O O 0.0106 0.0060 'International Tables Vol C Tables 4.2.6.8 and 6.1.1.4'
S S 0.1246 0.1234 'International Tables Vol C Tables 4.2.6.8 and 6.1.1.4'
loop_
_geom_angle_atom_site_label_1
_geom_angle_atom_site_label_2
_geom_angle_atom_site_label_3
_geom_angle
C1 O1 H1 112(3)
O1 C1 C2 117.9(3)
O1 C1 C6 122.0(3)
C2 C1 C6 120.1(3)
C3 C2 C1 119.3(3)
C3 C2 H2A 120.3
C1 C2 H2A 120.3
C2 C3 C4 122.0(3)
C2 C3 H3A 119.0
C4 C3 H3A 119.0
C5 C4 C3 117.3(3)
C5 C4 C7 121.3(3)
C3 C4 C7 121.4(3)
C6 C5 C4 121.8(3)
C6 C5 H5A 119.1
C4 C5 H5A 119.1
C5 C6 C1 119.4(3)
C5 C6 H6A 120.3
C1 C6 H6A 120.3
C4 C7 S1 107.7(2)
C4 C7 H7A 110.2
S1 C7 H7A 110.2
C4 C7 H7B 110.2
S1 C7 H7B 110.2
H7A C7 H7B 108.5
C8 S1 C7 101.33(14)
C13 C8 C9 118.6(3)
C13 C8 S1 120.0(2)
C9 C8 S1 121.4(2)
C10 C9 C8 120.6(3)
C10 C9 H9A 119.7
C8 C9 H9A 119.7
C9 C10 C11 120.5(3)
C9 C10 H10A 119.8
C11 C10 H10A 119.8
C12 C11 C10 118.7(3)
C12 C11 N1 120.6(3)
C10 C11 N1 120.6(3)
C13 C12 C11 120.5(3)
C13 C12 H12A 119.8
C11 C12 H12A 119.8
C12 C13 C8 121.1(3)
C12 C13 H13A 119.4
C8 C13 H13A 119.4
C11 N1 H1B 113(2)
C11 N1 H1A 116(2)
H1B N1 H1A 106(3)
loop_
_geom_bond_atom_site_label_1
_geom_bond_atom_site_label_2
_geom_bond_distance
O1 C1 1.376(4)
O1 H1 0.80(4)
C1 C2 1.391(4)
C1 C6 1.400(4)
C2 C3 1.382(5)
C2 H2A 0.9500
C3 C4 1.404(5)
C3 H3A 0.9500
C4 C5 1.394(4)
C4 C7 1.503(4)
C5 C6 1.386(4)
C5 H5A 0.9500
C6 H6A 0.9500
C7 S1 1.839(3)
C7 H7A 0.9900
C7 H7B 0.9900
S1 C8 1.786(3)
C8 C13 1.389(5)
C8 C9 1.395(4)
C9 C10 1.383(5)
C9 H9A 0.9500
C10 C11 1.402(4)
C10 H10A 0.9500
C11 C12 1.390(4)
C11 N1 1.412(4)
C12 C13 1.380(4)
C12 H12A 0.9500
C13 H13A 0.9500
N1 H1B 0.87(4)
N1 H1A 0.94(4)
loop_
_geom_torsion_atom_site_label_1
_geom_torsion_atom_site_label_2
_geom_torsion_atom_site_label_3
_geom_torsion_atom_site_label_4
_geom_torsion
O1 C1 C2 C3 -179.9(3)
C6 C1 C2 C3 -0.6(5)
C1 C2 C3 C4 -0.3(5)
C2 C3 C4 C5 0.3(5)
C2 C3 C4 C7 -178.9(3)
C3 C4 C5 C6 0.6(4)
C7 C4 C5 C6 179.9(3)
C4 C5 C6 C1 -1.5(5)
O1 C1 C6 C5 -179.2(3)
C2 C1 C6 C5 1.5(4)
C5 C4 C7 S1 -85.9(3)
C3 C4 C7 S1 93.3(3)
C4 C7 S1 C8 173.5(3)
C7 S1 C8 C13 -91.0(3)
C7 S1 C8 C9 92.0(3)
C13 C8 C9 C10 -0.5(5)
S1 C8 C9 C10 176.6(3)
C8 C9 C10 C11 0.1(5)
C9 C10 C11 C12 1.0(5)
C9 C10 C11 N1 -175.4(3)
C10 C11 C12 C13 -1.8(4)
N1 C11 C12 C13 174.7(3)
C11 C12 C13 C8 1.4(5)
C9 C8 C13 C12 -0.3(5)
S1 C8 C13 C12 -177.4(2)
loop_
_cod_related_entry_id
_cod_related_entry_database
_cod_related_entry_code
1 ChemSpider 30660519
