#------------------------------------------------------------------------------
#$Date: 2016-03-22 12:08:14 +0200 (Tue, 22 Mar 2016) $
#$Revision: 178936 $
#$URL: svn://www.crystallography.net/cod/cif/4/11/65/4116594.cif $
#------------------------------------------------------------------------------
#
# This file is available in the Crystallography Open Database (COD),
# http://www.crystallography.net/
#
# All data on this site have been placed in the public domain by the
# contributors.
#
data_4116594
loop_
_publ_author_name
'Daesung Lee'
'Jason K. Sello'
'Stuart L. Schreiber'
_publ_section_title
;
 A Strategy for Macrocyclic Ring Closure and Functionalization Aimed
 toward Split-Pool Syntheses
;
_journal_name_full               'Journal of the American Chemical Society'
_journal_page_first              10648
_journal_page_last               10649
_journal_paper_doi               10.1021/ja992658m
_journal_volume                  121
_journal_year                    1999
_chemical_formula_sum            'C13 H19 N O5'
_chemical_formula_weight         269.29
_chemical_name_systematic
; 
 ? 
;
_space_group_IT_number           4
_symmetry_cell_setting           monoclinic
_symmetry_space_group_name_Hall  'P 2yb'
_symmetry_space_group_name_H-M   'P 1 21 1'
_atom_sites_solution_hydrogens   geom
_atom_sites_solution_primary     direct
_atom_sites_solution_secondary   difmap
_audit_creation_method           SHELXL-97
_cell_angle_alpha                90.00
_cell_angle_beta                 96.239(2)
_cell_angle_gamma                90.00
_cell_formula_units_Z            2
_cell_length_a                   8.1709(4)
_cell_length_b                   9.6189(4)
_cell_length_c                   8.9825(1)
_cell_measurement_reflns_used    90
_cell_measurement_temperature    213(2)
_cell_measurement_theta_max      20.72
_cell_measurement_theta_min      3.85
_cell_volume                     701.80(5)
_computing_cell_refinement       'SMART (Bruker, V4.050, 1995)'
_computing_data_collection       'ASTRO (Bruker, V4.050, 1995)'
_computing_data_reduction        'SAINT (Bruker, V5.A06, 1997)'
_computing_molecular_graphics    'SHELXTL (Bruker, 1998, ver 5.10)'
_computing_publication_material  'CIFTAB (Sheldrick, 1993)'
_computing_structure_refinement  'SHELXL-97 (Sheldrick, 1997)'
_computing_structure_solution    'SHELXS-97 (Sheldrick, 1990)'
_diffrn_ambient_temperature      213(2)
_diffrn_measured_fraction_theta_full 0.908
_diffrn_measured_fraction_theta_max 0.908
_diffrn_measurement_method       '\w, 0.3 deg'
_diffrn_radiation_monochromator  graphite
_diffrn_radiation_source         'normal-focus sealed tube'
_diffrn_radiation_type           MoK\a
_diffrn_radiation_wavelength     0.71073
_diffrn_reflns_av_R_equivalents  0.0510
_diffrn_reflns_av_sigmaI/netI    0.0412
_diffrn_reflns_limit_h_max       10
_diffrn_reflns_limit_h_min       -10
_diffrn_reflns_limit_k_max       8
_diffrn_reflns_limit_k_min       -12
_diffrn_reflns_limit_l_max       6
_diffrn_reflns_limit_l_min       -11
_diffrn_reflns_number            4668
_diffrn_reflns_theta_full        27.57
_diffrn_reflns_theta_max         27.57
_diffrn_reflns_theta_min         2.28
_diffrn_standards_decay_%        <1
_diffrn_standards_interval_count 0
_diffrn_standards_number         0
_exptl_absorpt_coefficient_mu    0.098
_exptl_absorpt_correction_type   none
_exptl_crystal_colour            colorless
_exptl_crystal_density_diffrn    1.274
_exptl_crystal_description       block
_exptl_crystal_F_000             288
_exptl_crystal_size_max          0.20
_exptl_crystal_size_mid          0.20
_exptl_crystal_size_min          0.10
_refine_diff_density_max         0.206
_refine_diff_density_min         -0.148
_refine_diff_density_rms         0.034
_refine_ls_abs_structure_details 'Flack H D (1983), Acta Cryst. A39, 876-881'
_refine_ls_abs_structure_Flack   -0.4(11)
_refine_ls_extinction_method     none
_refine_ls_goodness_of_fit_ref   1.030
_refine_ls_hydrogen_treatment    mixed
_refine_ls_matrix_type           full
_refine_ls_number_parameters     172
_refine_ls_number_reflns         2459
_refine_ls_number_restraints     1
_refine_ls_restrained_S_all      1.030
_refine_ls_R_factor_all          0.0442
_refine_ls_R_factor_gt           0.0371
_refine_ls_shift/su_max          0.003
_refine_ls_shift/su_mean         0.001
_refine_ls_structure_factor_coef Fsqd
_refine_ls_weighting_details
'calc w=1/[\s^2^(Fo^2^)+(0.0476P)^2^+0.0812P] where P=(Fo^2^+2Fc^2^)/3'
_refine_ls_weighting_scheme      calc
_refine_ls_wR_factor_gt          0.0900
_refine_ls_wR_factor_ref         0.0921
_reflns_number_gt                2126
_reflns_number_total             2459
_reflns_threshold_expression     >2sigma(I)
_cod_data_source_file            ja992658m_10.cif
_cod_data_source_block           sls6
_cod_database_code               4116594
loop_
_symmetry_equiv_pos_as_xyz
'x, y, z'
'-x, y+1/2, -z'
loop_
_atom_site_label
_atom_site_type_symbol
_atom_site_fract_x
_atom_site_fract_y
_atom_site_fract_z
_atom_site_U_iso_or_equiv
_atom_site_adp_type
_atom_site_occupancy
_atom_site_symmetry_multiplicity
_atom_site_calc_flag
_atom_site_refinement_flags
O1 O 0.73203(16) 0.19016(15) -0.25622(14) 0.0348(3) Uani 1 1 d .
O2 O 0.7013(2) 0.40607(17) -0.3456(2) 0.0556(5) Uani 1 1 d .
O3 O 0.44072(18) 0.33975(15) 0.00989(15) 0.0373(3) Uani 1 1 d .
O4 O 0.2403(2) 0.22498(16) -0.45801(17) 0.0522(5) Uani 1 1 d .
O5 O 0.1849(2) 0.05287(19) -0.30491(18) 0.0555(5) Uani 1 1 d .
N1 N 0.45272(19) 0.13054(16) -0.10260(16) 0.0287(3) Uani 1 1 d .
H1A H 0.4585 0.0408 -0.0909 0.034 Uiso 1 1 calc R
C1 C 0.7796(3) 0.3227(2) -0.2686(2) 0.0346(5) Uani 1 1 d .
C2 C 0.9399(3) 0.3535(3) -0.1786(3) 0.0471(6) Uani 1 1 d .
H2A H 0.9346 0.4484 -0.1397 0.057 Uiso 1 1 calc R
H2B H 1.0261 0.3523 -0.2464 0.057 Uiso 1 1 calc R
C3 C 0.9937(3) 0.2577(3) -0.0472(3) 0.0549(6) Uani 1 1 d .
H3A H 0.9940 0.1614 -0.0828 0.066 Uiso 1 1 calc R
H3B H 1.1063 0.2814 -0.0061 0.066 Uiso 1 1 calc R
C4 C 0.8833(3) 0.2692(3) 0.0725(3) 0.0516(6) Uani 1 1 d .
H4A H 0.8740 0.3566 0.1177 0.062 Uiso 1 1 calc R
C5 C 0.7950(3) 0.1632(3) 0.1214(2) 0.0486(6) Uani 1 1 d .
H5A H 0.8095 0.0740 0.0821 0.058 Uiso 1 1 calc R
C6 C 0.6765(3) 0.1801(3) 0.2336(2) 0.0495(6) Uani 1 1 d .
H6A H 0.6777 0.2768 0.2678 0.059 Uiso 1 1 calc R
H6B H 0.7098 0.1209 0.3204 0.059 Uiso 1 1 calc R
C7 C 0.5016(3) 0.1409(2) 0.1672(2) 0.0371(5) Uani 1 1 d .
H7A H 0.4939 0.0400 0.1532 0.045 Uiso 1 1 calc R
H7B H 0.4226 0.1685 0.2364 0.045 Uiso 1 1 calc R
C8 C 0.4604(2) 0.21259(19) 0.01945(19) 0.0270(4) Uani 1 1 d .
C10 C 0.4351(2) 0.1874(2) -0.25247(18) 0.0290(4) Uani 1 1 d .
H10A H 0.4345 0.2899 -0.2434 0.035 Uiso 1 1 calc R
C11 C 0.5793(2) 0.1474(2) -0.34138(19) 0.0306(4) Uani 1 1 d .
H11A H 0.5671 0.1967 -0.4387 0.037 Uiso 1 1 calc R
C12 C 0.5970(3) -0.0064(2) -0.3685(2) 0.0416(5) Uani 1 1 d .
H12A H 0.6891 -0.0223 -0.4259 0.062 Uiso 1 1 calc R
H12B H 0.4969 -0.0415 -0.4238 0.062 Uiso 1 1 calc R
H12C H 0.6162 -0.0544 -0.2732 0.062 Uiso 1 1 calc R
C13 C 0.2724(2) 0.1444(2) -0.3389(2) 0.0338(4) Uani 1 1 d .
C14 C 0.0914(3) 0.1967(3) -0.5562(3) 0.0627(7) Uani 1 1 d .
H14A H 0.0822 0.2622 -0.6387 0.094 Uiso 1 1 calc R
H14B H -0.0033 0.2061 -0.5005 0.094 Uiso 1 1 calc R
H14C H 0.0956 0.1028 -0.5949 0.094 Uiso 1 1 calc R
loop_
_atom_site_aniso_label
_atom_site_aniso_U_11
_atom_site_aniso_U_22
_atom_site_aniso_U_33
_atom_site_aniso_U_23
_atom_site_aniso_U_13
_atom_site_aniso_U_12
O1 0.0327(7) 0.0318(7) 0.0383(7) 0.0025(6) -0.0029(6) -0.0031(6)
O2 0.0578(11) 0.0364(9) 0.0697(11) 0.0111(8) -0.0062(9) -0.0107(9)
O3 0.0499(9) 0.0250(8) 0.0363(7) -0.0034(6) 0.0010(6) 0.0046(6)
O4 0.0538(10) 0.0491(10) 0.0475(8) 0.0116(7) -0.0228(8) -0.0097(8)
O5 0.0455(9) 0.0608(11) 0.0585(9) 0.0062(9) -0.0024(8) -0.0209(9)
N1 0.0368(9) 0.0198(8) 0.0292(7) 0.0015(6) 0.0018(6) 0.0011(7)
C1 0.0369(11) 0.0312(11) 0.0373(10) -0.0026(8) 0.0107(9) -0.0054(9)
C2 0.0350(12) 0.0510(15) 0.0557(13) -0.0083(11) 0.0066(10) -0.0098(11)
C3 0.0317(11) 0.0687(17) 0.0614(15) -0.0134(13) -0.0086(11) 0.0036(12)
C4 0.0372(13) 0.0651(16) 0.0487(13) -0.0055(13) -0.0131(10) 0.0091(13)
C5 0.0425(12) 0.0573(16) 0.0427(11) -0.0029(11) -0.0104(9) 0.0218(12)
C6 0.0591(14) 0.0540(14) 0.0326(10) 0.0058(10) -0.0068(10) 0.0117(12)
C7 0.0509(13) 0.0328(11) 0.0292(9) 0.0019(8) 0.0114(9) 0.0033(10)
C8 0.0256(9) 0.0255(11) 0.0303(9) 0.0009(7) 0.0050(7) 0.0016(8)
C10 0.0363(10) 0.0211(9) 0.0286(8) 0.0005(7) -0.0021(8) -0.0013(8)
C11 0.0341(10) 0.0315(11) 0.0252(8) 0.0007(7) -0.0008(7) -0.0052(9)
C12 0.0508(13) 0.0352(11) 0.0395(11) -0.0083(9) 0.0085(10) -0.0017(10)
C13 0.0361(11) 0.0305(11) 0.0343(9) -0.0036(8) 0.0010(8) 0.0012(9)
C14 0.0560(15) 0.0649(17) 0.0594(14) -0.0057(14) -0.0292(12) 0.0054(14)
loop_
_atom_type_symbol
_atom_type_description
_atom_type_scat_dispersion_real
_atom_type_scat_dispersion_imag
_atom_type_scat_source
C C 0.0033 0.0016 'International Tables Vol C Tables 4.2.6.8 and 6.1.1.4'
H H 0.0000 0.0000 'International Tables Vol C Tables 4.2.6.8 and 6.1.1.4'
N N 0.0061 0.0033 'International Tables Vol C Tables 4.2.6.8 and 6.1.1.4'
O O 0.0106 0.0060 'International Tables Vol C Tables 4.2.6.8 and 6.1.1.4'
loop_
_geom_angle_atom_site_label_1
_geom_angle_atom_site_label_2
_geom_angle_atom_site_label_3
_geom_angle
C1 O1 C11 117.79(15)
C13 O4 C14 117.45(19)
C8 N1 C10 121.84(16)
O2 C1 O1 122.86(19)
O2 C1 C2 124.2(2)
O1 C1 C2 112.91(18)
C1 C2 C3 117.5(2)
C4 C3 C2 111.7(2)
C5 C4 C3 124.7(3)
C4 C5 C6 123.4(2)
C5 C6 C7 111.04(17)
C8 C7 C6 109.91(17)
O3 C8 N1 121.97(16)
O3 C8 C7 122.08(16)
N1 C8 C7 115.90(16)
N1 C10 C13 111.44(16)
N1 C10 C11 112.55(15)
C13 C10 C11 110.03(15)
O1 C11 C12 105.73(17)
O1 C11 C10 108.57(14)
C12 C11 C10 114.80(16)
O5 C13 O4 124.54(18)
O5 C13 C10 125.69(18)
O4 C13 C10 109.76(16)
loop_
_geom_bond_atom_site_label_1
_geom_bond_atom_site_label_2
_geom_bond_distance
O1 C1 1.341(2)
O1 C11 1.450(2)
O2 C1 1.198(3)
O3 C8 1.235(2)
O4 C13 1.324(2)
O4 C14 1.449(3)
O5 C13 1.194(2)
N1 C8 1.347(2)
N1 C10 1.446(2)
C1 C2 1.492(3)
C2 C3 1.524(4)
C3 C4 1.481(4)
C4 C5 1.349(4)
C5 C6 1.481(3)
C6 C7 1.534(3)
C7 C8 1.501(3)
C10 C13 1.522(3)
C10 C11 1.542(3)
C11 C12 1.510(3)
loop_
_geom_torsion_atom_site_label_1
_geom_torsion_atom_site_label_2
_geom_torsion_atom_site_label_3
_geom_torsion_atom_site_label_4
_geom_torsion
C11 O1 C1 O2 0.4(3)
C11 O1 C1 C2 -178.77(16)
O2 C1 C2 C3 158.7(2)
O1 C1 C2 C3 -22.1(3)
C1 C2 C3 C4 -66.3(3)
C2 C3 C4 C5 119.8(3)
C3 C4 C5 C6 -175.4(2)
C4 C5 C6 C7 118.3(2)
C5 C6 C7 C8 -49.2(3)
C10 N1 C8 O3 5.4(3)
C10 N1 C8 C7 -172.03(16)
C6 C7 C8 O3 -68.8(2)
C6 C7 C8 N1 108.7(2)
C8 N1 C10 C13 -115.67(19)
C8 N1 C10 C11 120.17(18)
C1 O1 C11 C12 153.03(16)
C1 O1 C11 C10 -83.31(19)
N1 C10 C11 O1 -55.2(2)
C13 C10 C11 O1 179.83(14)
N1 C10 C11 C12 62.8(2)
C13 C10 C11 C12 -62.1(2)
C14 O4 C13 O5 -2.1(3)
C14 O4 C13 C10 178.49(19)
N1 C10 C13 O5 -15.6(3)
C11 C10 C13 O5 110.0(2)
N1 C10 C13 O4 163.81(17)
C11 C10 C13 O4 -70.6(2)
