#------------------------------------------------------------------------------
#$Date: 2017-10-13 14:42:48 +0300 (Fri, 13 Oct 2017) $
#$Revision: 201982 $
#$URL: file:///home/coder/svn-repositories/cod/cif/4/11/61/4116123.cif $
#------------------------------------------------------------------------------
#
# This file is available in the Crystallography Open Database (COD),
# http://www.crystallography.net/
#
# All data on this site have been placed in the public domain by the
# contributors.
#
data_4116123
loop_
_publ_author_name
'Leonard R. MacGillivray'
'Jennifer L. Reid'
'John A. Ripmeester'
_publ_section_title
;
 Supramolecular Control of Reactivity in the Solid State Using Linear
 Molecular Templates
;
_journal_name_full               'Journal of the American Chemical Society'
_journal_page_first              7817
_journal_page_last               7818
_journal_paper_doi               10.1021/ja001239i
_journal_volume                  122
_journal_year                    2000
_chemical_formula_sum            'C18 H16 N2 O2'
_chemical_formula_weight         292.33
_chemical_name_common            2(1a).2(2b)
_chemical_name_systematic
; 
 ? 
;
_space_group_IT_number           2
_symmetry_cell_setting           triclinic
_symmetry_space_group_name_Hall  '-P 1'
_symmetry_space_group_name_H-M   'P -1'
_atom_sites_solution_hydrogens   geom
_atom_sites_solution_primary     direct
_atom_sites_solution_secondary   difmap
_audit_creation_method           SHELXL
_cell_angle_alpha                79.811(2)
_cell_angle_beta                 73.146(2)
_cell_angle_gamma                77.686(2)
_cell_formula_units_Z            2
_cell_length_a                   7.4833(7)
_cell_length_b                   10.0186(10)
_cell_length_c                   10.5994(10)
_cell_measurement_temperature    173(2)
_cell_volume                     737.38(12)
_computing_structure_refinement  'SHELXL-93 (Sheldrick, 1993)'
_computing_structure_solution    'SHELXS-86 (Sheldrick, 1990)'
_diffrn_ambient_temperature      173(2)
_diffrn_radiation_monochromator  graphite
_diffrn_radiation_source         'fine-focus sealed tube'
_diffrn_radiation_type           MoK\a
_diffrn_radiation_wavelength     0.71070
_diffrn_reflns_av_R_equivalents  0.0593
_diffrn_reflns_av_sigmaI/netI    0.0564
_diffrn_reflns_limit_h_max       10
_diffrn_reflns_limit_h_min       -8
_diffrn_reflns_limit_k_max       13
_diffrn_reflns_limit_k_min       -12
_diffrn_reflns_limit_l_max       13
_diffrn_reflns_limit_l_min       -14
_diffrn_reflns_number            3232
_diffrn_reflns_theta_max         22.49
_diffrn_reflns_theta_min         2.02
_exptl_absorpt_coefficient_mu    0.097
_exptl_crystal_colour            colorless
_exptl_crystal_density_diffrn    1.317
_exptl_crystal_F_000             308
_exptl_crystal_size_max          0.30
_exptl_crystal_size_mid          0.20
_exptl_crystal_size_min          0.10
_refine_diff_density_max         0.275
_refine_diff_density_min         -0.274
_refine_diff_density_rms         0.070
_refine_ls_extinction_coef       0.0322(110)
_refine_ls_extinction_expression Fc^*^=kFc[1+0.001xFc^2^\l^3^/sin(2\q)]^-1/4^
_refine_ls_extinction_method     SHELXL
_refine_ls_goodness_of_fit_all   0.906
_refine_ls_goodness_of_fit_obs   0.959
_refine_ls_matrix_type           full
_refine_ls_number_parameters     202
_refine_ls_number_reflns         1823
_refine_ls_number_restraints     0
_refine_ls_restrained_S_all      0.913
_refine_ls_restrained_S_obs      0.959
_refine_ls_R_factor_all          0.0794
_refine_ls_R_factor_obs          0.0659
_refine_ls_shift/esd_max         0.006
_refine_ls_shift/esd_mean        0.000
_refine_ls_structure_factor_coef Fsqd
_refine_ls_weighting_details
'w=1/[\s^2^(Fo^2^)+(0.1616P)^2^+0.1742P] where P=(Fo^2^+2Fc^2^)/3'
_refine_ls_weighting_scheme      calc
_refine_ls_wR_factor_all         0.2004
_refine_ls_wR_factor_obs         0.1819
_reflns_number_observed          1469
_reflns_number_total             1919
_reflns_observed_criterion       >2sigma(I)
_cod_data_source_file            ja001239i_4.cif
_cod_data_source_block           2
_cod_depositor_comments
;
The following automatic conversions were performed:

'_refine_ls_weighting_scheme' value 'calc
w=1/[\s^2^(Fo^2^)+(0.1616P)^2^+0.1742P] where P=(Fo^2^+2Fc^2^)/3' was
changed to 'calc'. New tag '_refine_ls_weighting_details' was
created. The value of the new tag was set to
'w=1/[\s^2^(Fo^2^)+(0.1616P)^2^+0.1742P] where P=(Fo^2^+2Fc^2^)/3'.

Automatic conversion script
Id: cif_fix_values 3143 2015-03-26 13:38:13Z robertas 
;
_cod_database_code               4116123
loop_
_symmetry_equiv_pos_as_xyz
'x, y, z'
'-x, -y, -z'
loop_
_atom_site_aniso_label
_atom_site_aniso_U_11
_atom_site_aniso_U_22
_atom_site_aniso_U_33
_atom_site_aniso_U_23
_atom_site_aniso_U_13
_atom_site_aniso_U_12
O1 0.0342(13) 0.0515(14) 0.0218(11) -0.0056(10) -0.0018(9) -0.0019(10)
O2 0.0333(13) 0.0442(13) 0.0274(12) -0.0017(10) -0.0067(9) -0.0091(9)
N1 0.0334(15) 0.038(2) 0.0249(14) -0.0064(12) -0.0045(11) -0.0065(11)
N2 0.0316(15) 0.036(2) 0.0267(14) -0.0048(12) -0.0064(11) -0.0056(11)
C1 0.031(2) 0.029(2) 0.023(2) -0.0042(13) 0.0012(13) -0.0064(13)
C2 0.035(2) 0.032(2) 0.021(2) -0.0039(13) -0.0062(13) -0.0043(13)
C3 0.030(2) 0.028(2) 0.025(2) -0.0024(12) -0.0044(13) -0.0079(12)
C4 0.033(2) 0.044(2) 0.027(2) -0.0061(14) 0.0010(14) -0.0088(14)
C5 0.042(2) 0.049(2) 0.020(2) -0.0083(14) -0.0066(14) -0.0060(15)
C6 0.033(2) 0.041(2) 0.026(2) -0.0029(14) -0.0072(14) -0.0068(14)
C7 0.035(2) 0.036(2) 0.031(2) -0.0071(14) -0.0039(14) -0.0072(13)
C8 0.039(2) 0.043(2) 0.032(2) -0.012(2) -0.0068(15) -0.0074(15)
C9 0.048(2) 0.052(2) 0.024(2) -0.005(2) -0.0034(15) -0.008(2)
C10 0.046(2) 0.037(2) 0.030(2) -0.0020(15) -0.0041(15) -0.0084(15)
C11 0.027(2) 0.037(2) 0.023(2) -0.0044(14) -0.0039(13) -0.0045(13)
C12 0.038(2) 0.036(2) 0.029(2) -0.0056(14) -0.0036(14) -0.0060(14)
C13 0.038(2) 0.035(2) 0.030(2) -0.0029(15) -0.0079(15) -0.0047(14)
C14 0.027(2) 0.040(2) 0.028(2) -0.0072(14) -0.0042(13) -0.0037(13)
C15 0.041(2) 0.037(2) 0.033(2) -0.0094(15) -0.0072(14) -0.0044(14)
C16 0.040(2) 0.046(2) 0.032(2) -0.014(2) -0.0075(15) -0.002(2)
C17 0.037(2) 0.058(2) 0.025(2) -0.008(2) -0.0049(14) -0.003(2)
C18 0.042(2) 0.042(2) 0.026(2) -0.0027(15) -0.0048(14) -0.0076(15)
loop_
_atom_site_label
_atom_site_type_symbol
_atom_site_fract_x
_atom_site_fract_y
_atom_site_fract_z
_atom_site_U_iso_or_equiv
_atom_site_thermal_displace_type
_atom_site_occupancy
_atom_site_calc_flag
_atom_site_refinement_flags
O1 O -1.3593(3) 0.3892(2) 0.4094(2) 0.0377(7) Uani 1 d .
H01 H -1.3348(6) 0.3711(33) 0.4837(2) 0.045 Uiso 1 calc R
O2 O -0.6777(3) 0.2995(2) 0.2532(2) 0.0352(6) Uani 1 d .
H02 H -0.6851(6) 0.2764(34) 0.3344(5) 0.042 Uiso 1 calc R
N1 N -0.6941(3) -0.2701(3) 0.3410(2) 0.0323(7) Uani 1 d .
N2 N -0.7267(3) 0.1878(2) 0.5178(2) 0.0316(7) Uani 1 d .
C1 C -1.1940(4) 0.3676(3) 0.3106(3) 0.0294(8) Uani 1 d .
C2 C -1.0196(4) 0.3456(3) 0.3361(3) 0.0297(8) Uani 1 d .
H2 H -1.0109(4) 0.3466(3) 0.4236(3) 0.036 Uiso 1 calc R
C3 C -0.8547(4) 0.3218(3) 0.2333(3) 0.0278(7) Uani 1 d .
C4 C -0.8698(4) 0.3234(3) 0.1060(3) 0.0360(8) Uani 1 d .
H4 H -0.7585(4) 0.3081(3) 0.0353(3) 0.043 Uiso 1 calc R
C5 C -1.0458(4) 0.3473(3) 0.0814(3) 0.0370(8) Uani 1 d .
H5 H -1.0543(4) 0.3494(3) -0.0067(3) 0.044 Uiso 1 calc R
C6 C -1.2111(4) 0.3683(3) 0.1834(3) 0.0338(8) Uani 1 d .
H6 H -1.3322(4) 0.3826(3) 0.1665(3) 0.041 Uiso 1 calc R
C7 C -0.7388(4) 0.2808(3) 0.5970(3) 0.0345(8) Uani 1 d .
H7 H -0.7097(4) 0.3689(3) 0.5567(3) 0.041 Uiso 1 calc R
C8 C -0.7913(4) 0.2568(3) 0.7350(3) 0.0376(9) Uani 1 d .
H8 H -0.7987(4) 0.3265(3) 0.7875(3) 0.045 Uiso 1 calc R
C9 C -0.8323(5) 0.1289(3) 0.7931(3) 0.0424(9) Uani 1 d .
H9 H -0.8678(5) 0.1082(3) 0.8870(3) 0.051 Uiso 1 calc R
C10 C -0.8212(5) 0.0309(3) 0.7130(3) 0.0390(9) Uani 1 d .
H10 H -0.8498(5) -0.0577(3) 0.7515(3) 0.047 Uiso 1 calc R
C11 C -0.7678(4) 0.0630(3) 0.5751(3) 0.0298(8) Uani 1 d .
C12 C -0.7543(4) -0.0422(3) 0.4915(3) 0.0353(8) Uani 1 d .
H12 H -0.7877(4) -0.1278(3) 0.5366(3) 0.042 Uiso 1 calc R
C13 C -0.7010(4) -0.0317(3) 0.3603(3) 0.0348(8) Uani 1 d .
H13 H -0.6697(4) 0.0539(3) 0.3139(3) 0.042 Uiso 1 calc R
C14 C -0.6860(4) -0.1404(3) 0.2805(3) 0.0322(8) Uani 1 d .
C15 C -0.6774(4) -0.3685(3) 0.2660(3) 0.0370(8) Uani 1 d .
H15 H -0.6842(4) -0.4597(3) 0.3088(3) 0.044 Uiso 1 calc R
C16 C -0.6509(4) -0.3452(3) 0.1298(3) 0.0393(9) Uani 1 d .
H16 H -0.6391(4) -0.4184(3) 0.0804(3) 0.047 Uiso 1 calc R
C17 C -0.6420(4) -0.2135(4) 0.0679(3) 0.0409(9) Uani 1 d .
H17 H -0.6235(4) -0.1938(4) -0.0255(3) 0.049 Uiso 1 calc R
C18 C -0.6601(5) -0.1103(3) 0.1433(3) 0.0377(8) Uani 1 d .
H18 H -0.6550(5) -0.0185(3) 0.1019(3) 0.045 Uiso 1 calc R
loop_
_atom_type_symbol
_atom_type_description
_atom_type_scat_dispersion_real
_atom_type_scat_dispersion_imag
_atom_type_scat_source
C C 0.0033 0.0016 'International Tables Vol C Tables 4.2.6.8 and 6.1.1.4'
H H 0.0000 0.0000 'International Tables Vol C Tables 4.2.6.8 and 6.1.1.4'
N N 0.0061 0.0033 'International Tables Vol C Tables 4.2.6.8 and 6.1.1.4'
O O 0.0106 0.0060 'International Tables Vol C Tables 4.2.6.8 and 6.1.1.4'
loop_
_geom_angle_atom_site_label_1
_geom_angle_atom_site_label_2
_geom_angle_atom_site_label_3
_geom_angle
C15 N1 C14 118.1(3)
C7 N2 C11 117.9(2)
O1 C1 C2 121.7(3)
O1 C1 C6 116.9(3)
C2 C1 C6 121.4(3)
C1 C2 C3 119.9(3)
O2 C3 C4 118.4(3)
O2 C3 C2 122.3(2)
C4 C3 C2 119.3(3)
C5 C4 C3 120.2(3)
C4 C5 C6 121.1(3)
C1 C6 C5 118.1(3)
N2 C7 C8 124.0(3)
C9 C8 C7 117.8(3)
C10 C9 C8 119.2(3)
C9 C10 C11 119.5(3)
N2 C11 C10 121.5(3)
N2 C11 C12 119.5(3)
C10 C11 C12 119.0(3)
C13 C12 C11 127.4(3)
C12 C13 C14 125.7(3)
N1 C14 C18 120.8(3)
N1 C14 C13 119.0(3)
C18 C14 C13 120.2(3)
N1 C15 C16 123.8(3)
C15 C16 C17 118.2(3)
C18 C17 C16 119.0(3)
C17 C18 C14 120.1(3)
loop_
_geom_bond_atom_site_label_1
_geom_bond_atom_site_label_2
_geom_bond_distance
O1 C1 1.374(3)
O2 C3 1.367(3)
N1 C15 1.336(4)
N1 C14 1.349(4)
N2 C7 1.333(4)
N2 C11 1.347(4)
C1 C2 1.373(4)
C1 C6 1.390(4)
C2 C3 1.398(4)
C3 C4 1.382(4)
C4 C5 1.380(4)
C5 C6 1.392(4)
C7 C8 1.391(4)
C8 C9 1.376(5)
C9 C10 1.382(4)
C10 C11 1.396(4)
C11 C12 1.463(4)
C12 C13 1.323(5)
C13 C14 1.460(4)
C14 C18 1.396(4)
C15 C16 1.383(4)
C16 C17 1.371(5)
C17 C18 1.376(4)
loop_
_cod_related_entry_id
_cod_related_entry_database
_cod_related_entry_code
1 ChemSpider 30660565
