#------------------------------------------------------------------------------
#$Date: 2016-03-22 12:17:29 +0200 (Tue, 22 Mar 2016) $
#$Revision: 178944 $
#$URL: svn://www.crystallography.net/cod/cif/4/11/73/4117382.cif $
#------------------------------------------------------------------------------
#
# This file is available in the Crystallography Open Database (COD),
# http://www.crystallography.net/
#
# All data on this site have been placed in the public domain by the
# contributors.
#
data_4117382
loop_
_publ_author_name
'Daryl A. Guthrie'
'Nam Y. Kim'
'Maxime A. Siegler'
'Cathy D. Moore'
'John P. Toscano'
_publ_section_title
;
 Development of N-Substituted Hydroxylamines as Efficient Nitroxyl (HNO)
 Donors
;
_journal_name_full               'Journal of the American Chemical Society'
_journal_page_first              1962
_journal_page_last               1965
_journal_paper_doi               10.1021/ja2103923
_journal_volume                  134
_journal_year                    2012
_chemical_formula_moiety         'C7 H12 N O5, H2 O, Cl'
_chemical_formula_sum            'C7 H14 Cl N O6'
_chemical_formula_weight         243.64
_chemical_name_systematic
; 
 ? 
;
_space_group_IT_number           2
_symmetry_cell_setting           triclinic
_symmetry_space_group_name_Hall  '-P 1'
_symmetry_space_group_name_H-M   'P -1'
_atom_sites_solution_hydrogens   difmap
_atom_sites_solution_primary     direct
_atom_sites_solution_secondary   difmap
_audit_creation_method           SHELXL-97
_cell_angle_alpha                74.488(3)
_cell_angle_beta                 85.322(3)
_cell_angle_gamma                86.211(3)
_cell_formula_units_Z            2
_cell_length_a                   6.04443(18)
_cell_length_b                   7.6997(2)
_cell_length_c                   12.3317(4)
_cell_measurement_reflns_used    2586
_cell_measurement_temperature    110(2)
_cell_measurement_theta_max      25.13
_cell_measurement_theta_min      2.74
_cell_volume                     550.59(3)
_computing_cell_refinement
;
CrysAlisPro, Agilent Technologies,
Version 1.171.35.11 (release 16-05-2011 CrysAlis171 .NET)
(compiled May 16 2011,17:55:39)
;
_computing_data_collection
;
CrysAlisPro, Agilent Technologies,
Version 1.171.35.11 (release 16-05-2011 CrysAlis171 .NET)
(compiled May 16 2011,17:55:39)
;
_computing_data_reduction
;
CrysAlisPro, Agilent Technologies,
Version 1.171.35.11 (release 16-05-2011 CrysAlis171 .NET)
(compiled May 16 2011,17:55:39)
;
_computing_molecular_graphics    'SHELXTL v6.10 (Sheldrick, 2008)'
_computing_publication_material  'SHELXTL v6.10 (Sheldrick, 2008)'
_computing_structure_refinement  'SHELXL-97 (Sheldrick, 2008)'
_computing_structure_solution    'SHELXS-97 (Sheldrick, 2008)'
_diffrn_ambient_temperature      110(2)
_diffrn_detector_area_resol_mean 15.989
_diffrn_measured_fraction_theta_full 0.999
_diffrn_measured_fraction_theta_max 0.999
_diffrn_measurement_device_type
'Goniometer KM4/Xcalibur, detector: Sapphire3'
_diffrn_measurement_method       '\w scans'
_diffrn_radiation_monochromator  graphite
_diffrn_radiation_source         'Enhance (Mo) X-ray Source'
_diffrn_radiation_type           MoK\a
_diffrn_radiation_wavelength     0.71073
_diffrn_reflns_av_R_equivalents  0.0180
_diffrn_reflns_av_sigmaI/netI    0.0257
_diffrn_reflns_limit_h_max       7
_diffrn_reflns_limit_h_min       -7
_diffrn_reflns_limit_k_max       9
_diffrn_reflns_limit_k_min       -7
_diffrn_reflns_limit_l_max       14
_diffrn_reflns_limit_l_min       -14
_diffrn_reflns_number            4798
_diffrn_reflns_theta_full        24.98
_diffrn_reflns_theta_max         24.98
_diffrn_reflns_theta_min         2.75
_exptl_absorpt_coefficient_mu    0.357
_exptl_absorpt_correction_T_max  0.969
_exptl_absorpt_correction_T_min  0.922
_exptl_absorpt_correction_type   analytical
_exptl_absorpt_process_details
;
CrysAlisPro, Agilent Technologies,
Version 1.171.35.11 (release 16-05-2011 CrysAlis171 .NET)
(compiled May 16 2011,17:55:39)
Analytical numeric absorption correction using a multifaceted crystal
            model based on expressions derived by R.C. Clark & J.S. Reid.
(Clark, R. C. & Reid, J. S. (1995). Acta Cryst. A51, 887-897)
;
_exptl_crystal_colour            colorless
_exptl_crystal_density_diffrn    1.470
_exptl_crystal_description       block
_exptl_crystal_F_000             256
_exptl_crystal_size_max          0.34
_exptl_crystal_size_mid          0.22
_exptl_crystal_size_min          0.10
_refine_diff_density_max         0.324
_refine_diff_density_min         -0.262
_refine_diff_density_rms         0.044
_refine_ls_extinction_method     none
_refine_ls_goodness_of_fit_ref   1.100
_refine_ls_hydrogen_treatment    mixed
_refine_ls_matrix_type           full
_refine_ls_number_parameters     154
_refine_ls_number_reflns         1936
_refine_ls_number_restraints     6
_refine_ls_restrained_S_all      1.100
_refine_ls_R_factor_all          0.0334
_refine_ls_R_factor_gt           0.0278
_refine_ls_shift/su_max          0.001
_refine_ls_shift/su_mean         0.000
_refine_ls_structure_factor_coef Fsqd
_refine_ls_weighting_details
'calc w=1/[\s^2^(Fo^2^)+(0.0367P)^2^+0.1352P] where P=(Fo^2^+2Fc^2^)/3'
_refine_ls_weighting_scheme      calc
_refine_ls_wR_factor_gt          0.0709
_refine_ls_wR_factor_ref         0.0731
_reflns_number_gt                1680
_reflns_number_total             1936
_reflns_threshold_expression     I>2\s(I)
_iucr_refine_instructions_details
;
TITL x0861a - SHELXL
CELL  0.71073    6.04443    7.6997   12.3317   74.488    85.322    86.211
ZERR     2    0.00018    0.0002    0.0004    0.003    0.003    0.003
LATT   1
SFAC  C  H  Cl  N  O
UNIT    14   28   2   2   12
 
TEMP -163
 
ACTA
HTAB
BOND
BOND $H
CONF
WPDB
 
L.S. 6
FMAP 2
PLAN 5
OMIT -2 50
 
EQIV $2 -x+1, -y, -z+1
EQIV $3 x, y-1, z
EQIV $4 x, y-1, z
EQIV $5 x-1, y, z
 
HTAB N1 Cl1_$2
HTAB N1 Cl1_$3
HTAB O1 O1W_$4
HTAB O1W Cl1_$5
HTAB O1W O2
 
WGHT    0.036700    0.135200
FVAR      11.45005
C1    1    0.832875   -0.138414    0.391342    11.00000    0.01582    0.02303 =
         0.01764   -0.00385   -0.00318    0.00009
AFIX 137
H1A   2    0.753296   -0.116528    0.459263    11.00000   -1.50000
H1B   2    0.944257   -0.047506    0.362278    11.00000   -1.50000
H1C   2    0.906736   -0.258875    0.409968    11.00000   -1.50000
AFIX   0
C2    1    0.667341   -0.126405    0.301286    11.00000    0.01270    0.01519 =
         0.01595   -0.00314    0.00041   -0.00217
C3    1    0.522860    0.047927    0.282122    11.00000    0.01260    0.01660 =
         0.01624   -0.00634   -0.00326   -0.00265
C4    1    0.752223    0.166606    0.108105    11.00000    0.01779    0.01677 =
         0.01773   -0.00482    0.00388    0.00004
C5    1    0.778975   -0.159525    0.192679    11.00000    0.01213    0.01935 =
         0.01822   -0.00433   -0.00062   -0.00217
C6    1    0.955812    0.237511    0.140075    11.00000    0.02179    0.02724 =
         0.02720   -0.00585    0.00033   -0.00565
AFIX 137
H6A   2    0.923167    0.360913    0.146429    11.00000   -1.50000
H6B   2    1.076649    0.237494    0.082042    11.00000   -1.50000
H6C   2    1.000606    0.160442    0.212637    11.00000   -1.50000
AFIX   0
C7    1    0.676951    0.268604   -0.005500    11.00000    0.02450    0.02869 =
         0.01786    0.00072    0.00086    0.00096
AFIX 137
H7A   2    0.540190    0.218648   -0.019318    11.00000   -1.50000
H7B   2    0.792887    0.257598   -0.063960    11.00000   -1.50000
H7C   2    0.648651    0.396137   -0.007365    11.00000   -1.50000
AFIX   0
 
DFIX 0.99 0.03 N1 H1D N1 H1E
DFIX 0.84 0.03 O1 H1F
 
N1    4    0.513235   -0.275145    0.346332    11.00000    0.01425    0.01570 =
         0.01537   -0.00294   -0.00096   -0.00048
H1D   2    0.439361   -0.271140    0.416453    11.00000   -1.20000
H1E   2    0.588361   -0.386153    0.359149    11.00000   -1.20000
O1    5    0.355025   -0.260341    0.265356    11.00000    0.01955    0.02017 =
         0.02165   -0.00300   -0.00722   -0.00623
H1F   2    0.302336   -0.365860    0.282190    11.00000   -1.50000
O2    5    0.371814    0.067216    0.347793    11.00000    0.01498    0.01919 =
         0.01980   -0.00637    0.00296   -0.00076
O3    5    0.565962    0.177800    0.188227    11.00000    0.01811    0.01801 =
         0.01739   -0.00193    0.00364    0.00198
O4    5    0.795845   -0.017758    0.101849    11.00000    0.02351    0.01683 =
         0.01639   -0.00443    0.00417   -0.00083
O5    5    0.844119   -0.306408    0.186031    11.00000    0.02826    0.01915 =
         0.02554   -0.00666    0.00784    0.00241
CL1   3    0.721885    0.338005    0.417901    11.00000    0.01903    0.01835 =
         0.01932   -0.00396    0.00209   -0.00033
DFIX 0.84 0.03 O1W H1W1 O1W H1W2
DFIX 1.33 0.03 H1W1 H1W2
 
rem lattice water molecule
O1W   5    0.198263    0.433842    0.312725    11.00000    0.01315    0.01899 =
         0.07498   -0.01060   -0.00228   -0.00072
H1W1  2    0.069521    0.409770    0.340363    11.00000   -1.50000
H1W2  2    0.273354    0.339061    0.329844    11.00000   -1.50000
 
HKLF    4
 
REM  x0861a - SHELXL
REM R1 =  0.0278 for   1680 Fo > 4sig(Fo)  and  0.0334 for all   1936 data
REM    154 parameters refined using      6 restraints
 
END  
     
WGHT      0.0371      0.1341 
REM Highest difference peak  0.324,  deepest hole -0.262,  1-sigma level  0.044
Q1    1   0.6105 -0.0409  0.2945  11.00000  0.05    0.32
Q2    1   0.7544 -0.1248  0.3370  11.00000  0.05    0.27
Q3    1   0.7282 -0.1258  0.2467  11.00000  0.05    0.26
Q4    1   0.1991  0.4272  0.3850  11.00000  0.05    0.26
Q5    1   0.6060 -0.1840  0.3158  11.00000  0.05    0.22
;
_cod_data_source_file            ja2103923_si_002_1.cif
_cod_data_source_block           1a
_cod_database_code               4117382
loop_
_symmetry_equiv_pos_as_xyz
'x, y, z'
'-x, -y, -z'
loop_
_atom_site_label
_atom_site_type_symbol
_atom_site_fract_x
_atom_site_fract_y
_atom_site_fract_z
_atom_site_U_iso_or_equiv
_atom_site_adp_type
_atom_site_occupancy
_atom_site_symmetry_multiplicity
_atom_site_calc_flag
_atom_site_refinement_flags
C1 C 0.8329(3) -0.1384(2) 0.39134(13) 0.0190(4) Uani 1 1 d .
H1A H 0.7533 -0.1165 0.4593 0.029 Uiso 1 1 calc R
H1B H 0.9443 -0.0475 0.3623 0.029 Uiso 1 1 calc R
H1C H 0.9067 -0.2589 0.4100 0.029 Uiso 1 1 calc R
C2 C 0.6673(2) -0.1264(2) 0.30129(12) 0.0148(3) Uani 1 1 d .
C3 C 0.5229(2) 0.0479(2) 0.28212(12) 0.0145(3) Uani 1 1 d .
C4 C 0.7522(3) 0.1666(2) 0.10811(13) 0.0177(3) Uani 1 1 d .
C5 C 0.7790(2) -0.1595(2) 0.19268(13) 0.0166(3) Uani 1 1 d .
C6 C 0.9558(3) 0.2375(2) 0.14007(15) 0.0256(4) Uani 1 1 d .
H6A H 0.9232 0.3609 0.1464 0.038 Uiso 1 1 calc R
H6B H 1.0766 0.2375 0.0820 0.038 Uiso 1 1 calc R
H6C H 1.0006 0.1604 0.2126 0.038 Uiso 1 1 calc R
C7 C 0.6770(3) 0.2686(2) -0.00550(13) 0.0252(4) Uani 1 1 d .
H7A H 0.5402 0.2186 -0.0193 0.038 Uiso 1 1 calc R
H7B H 0.7929 0.2576 -0.0640 0.038 Uiso 1 1 calc R
H7C H 0.6487 0.3961 -0.0074 0.038 Uiso 1 1 calc R
N1 N 0.5132(2) -0.27514(17) 0.34633(11) 0.0153(3) Uani 1 1 d D
H1D H 0.439(3) -0.271(2) 0.4165(13) 0.018 Uiso 1 1 d D
H1E H 0.588(3) -0.386(2) 0.3591(14) 0.018 Uiso 1 1 d D
O1 O 0.35503(18) -0.26034(15) 0.26536(9) 0.0204(3) Uani 1 1 d D
H1F H 0.302(3) -0.366(2) 0.2822(15) 0.031 Uiso 1 1 d D
O2 O 0.37181(17) 0.06722(14) 0.34779(9) 0.0180(3) Uani 1 1 d .
O3 O 0.56596(18) 0.17780(14) 0.18823(9) 0.0188(3) Uani 1 1 d .
O4 O 0.79585(18) -0.01776(14) 0.10185(9) 0.0192(3) Uani 1 1 d .
O5 O 0.8441(2) -0.30641(15) 0.18603(9) 0.0249(3) Uani 1 1 d .
Cl1 Cl 0.72189(6) 0.33801(5) 0.41790(3) 0.01931(13) Uani 1 1 d .
O1W O 0.1983(2) 0.43384(16) 0.31272(13) 0.0361(4) Uani 1 1 d D
H1W1 H 0.070(3) 0.410(3) 0.3404(19) 0.054 Uiso 1 1 d D
H1W2 H 0.273(3) 0.339(3) 0.3298(19) 0.054 Uiso 1 1 d D
loop_
_atom_site_aniso_label
_atom_site_aniso_U_11
_atom_site_aniso_U_22
_atom_site_aniso_U_33
_atom_site_aniso_U_23
_atom_site_aniso_U_13
_atom_site_aniso_U_12
C1 0.0158(8) 0.0230(9) 0.0176(8) -0.0039(7) -0.0032(6) 0.0001(7)
C2 0.0127(7) 0.0152(8) 0.0159(8) -0.0031(6) 0.0004(6) -0.0022(6)
C3 0.0126(8) 0.0166(8) 0.0162(8) -0.0063(6) -0.0033(6) -0.0027(6)
C4 0.0178(8) 0.0168(8) 0.0177(8) -0.0048(6) 0.0039(6) 0.0000(6)
C5 0.0121(7) 0.0193(9) 0.0182(8) -0.0043(6) -0.0006(6) -0.0022(6)
C6 0.0218(9) 0.0272(9) 0.0272(9) -0.0058(7) 0.0003(7) -0.0057(7)
C7 0.0245(9) 0.0287(9) 0.0179(8) 0.0007(7) 0.0009(7) 0.0010(7)
N1 0.0143(7) 0.0157(7) 0.0154(7) -0.0029(5) -0.0010(5) -0.0005(5)
O1 0.0195(6) 0.0202(6) 0.0216(6) -0.0030(5) -0.0072(5) -0.0062(5)
O2 0.0150(6) 0.0192(6) 0.0198(6) -0.0064(5) 0.0030(5) -0.0008(4)
O3 0.0181(6) 0.0180(6) 0.0174(6) -0.0019(4) 0.0036(4) 0.0020(4)
O4 0.0235(6) 0.0168(6) 0.0164(6) -0.0044(4) 0.0042(5) -0.0008(5)
O5 0.0283(7) 0.0191(6) 0.0255(6) -0.0067(5) 0.0078(5) 0.0024(5)
Cl1 0.0190(2) 0.0183(2) 0.0193(2) -0.00396(15) 0.00209(15) -0.00033(15)
O1W 0.0131(6) 0.0190(7) 0.0750(10) -0.0106(7) -0.0023(6) -0.0007(5)
loop_
_atom_type_symbol
_atom_type_description
_atom_type_scat_dispersion_real
_atom_type_scat_dispersion_imag
_atom_type_scat_source
C C 0.0033 0.0016 'International Tables Vol C Tables 4.2.6.8 and 6.1.1.4'
H H 0.0000 0.0000 'International Tables Vol C Tables 4.2.6.8 and 6.1.1.4'
Cl Cl 0.1484 0.1585 'International Tables Vol C Tables 4.2.6.8 and 6.1.1.4'
N N 0.0061 0.0033 'International Tables Vol C Tables 4.2.6.8 and 6.1.1.4'
O O 0.0106 0.0060 'International Tables Vol C Tables 4.2.6.8 and 6.1.1.4'
loop_
_geom_angle_atom_site_label_1
_geom_angle_atom_site_label_2
_geom_angle_atom_site_label_3
_geom_angle
C2 C1 H1A 109.5
C2 C1 H1B 109.5
H1A C1 H1B 109.5
C2 C1 H1C 109.5
H1A C1 H1C 109.5
H1B C1 H1C 109.5
N1 C2 C5 105.66(12)
N1 C2 C3 105.92(12)
C5 C2 C3 113.35(12)
N1 C2 C1 107.15(12)
C5 C2 C1 112.61(12)
C3 C2 C1 111.54(13)
O2 C3 O3 120.51(14)
O2 C3 C2 121.54(13)
O3 C3 C2 117.93(13)
O4 C4 O3 110.55(11)
O4 C4 C6 110.12(13)
O3 C4 C6 110.62(13)
O4 C4 C7 105.53(13)
O3 C4 C7 105.94(12)
C6 C4 C7 113.91(14)
O5 C5 O4 120.11(14)
O5 C5 C2 122.17(14)
O4 C5 C2 117.68(13)
C4 C6 H6A 109.5
C4 C6 H6B 109.5
H6A C6 H6B 109.5
C4 C6 H6C 109.5
H6A C6 H6C 109.5
H6B C6 H6C 109.5
C4 C7 H7A 109.5
C4 C7 H7B 109.5
H7A C7 H7B 109.5
C4 C7 H7C 109.5
H7A C7 H7C 109.5
H7B C7 H7C 109.5
O1 N1 C2 107.33(11)
O1 N1 H1D 109.7(10)
C2 N1 H1D 112.9(10)
O1 N1 H1E 110.1(10)
C2 N1 H1E 111.2(11)
H1D N1 H1E 105.7(14)
N1 O1 H1F 103.6(12)
C3 O3 C4 123.26(12)
C5 O4 C4 122.69(12)
H1W1 O1W H1W2 106(2)
loop_
_geom_bond_atom_site_label_1
_geom_bond_atom_site_label_2
_geom_bond_distance
C1 C2 1.535(2)
C1 H1A 0.9800
C1 H1B 0.9800
C1 H1C 0.9800
C2 N1 1.4846(19)
C2 C5 1.525(2)
C2 C3 1.526(2)
C3 O2 1.1988(18)
C3 O3 1.3321(18)
C4 O4 1.4479(19)
C4 O3 1.4500(19)
C4 C6 1.500(2)
C4 C7 1.502(2)
C5 O5 1.1943(19)
C5 O4 1.3411(18)
C6 H6A 0.9800
C6 H6B 0.9800
C6 H6C 0.9800
C7 H7A 0.9800
C7 H7B 0.9800
C7 H7C 0.9800
N1 O1 1.4160(16)
N1 H1D 0.947(16)
N1 H1E 0.922(16)
O1 H1F 0.859(17)
O1W H1W1 0.836(19)
O1W H1W2 0.820(19)
loop_
_geom_hbond_atom_site_label_D
_geom_hbond_atom_site_label_H
_geom_hbond_atom_site_label_A
_geom_hbond_distance_DH
_geom_hbond_distance_HA
_geom_hbond_distance_DA
_geom_hbond_angle_DHA
_geom_hbond_site_symmetry_A
N1 H1D Cl1 0.947(16) 2.137(16) 3.0612(14) 164.8(15) 2_656
N1 H1E Cl1 0.922(16) 2.176(16) 3.0856(14) 169.0(15) 1_545
O1 H1F O1W 0.859(17) 1.642(18) 2.5005(16) 179(2) 1_545
O1W H1W1 Cl1 0.836(19) 2.276(19) 3.1109(13) 179(2) 1_455
O1W H1W2 O2 0.820(19) 2.10(2) 2.8785(16) 159(2) .
loop_
_geom_torsion_atom_site_label_1
_geom_torsion_atom_site_label_2
_geom_torsion_atom_site_label_3
_geom_torsion_atom_site_label_4
_geom_torsion
N1 C2 C3 O2 40.06(18)
C5 C2 C3 O2 155.45(13)
C1 C2 C3 O2 -76.19(17)
N1 C2 C3 O3 -138.34(13)
C5 C2 C3 O3 -22.95(18)
C1 C2 C3 O3 105.41(15)
N1 C2 C5 O5 -42.89(19)
C3 C2 C5 O5 -158.44(14)
C1 C2 C5 O5 73.75(19)
N1 C2 C5 O4 134.86(13)
C3 C2 C5 O4 19.31(19)
C1 C2 C5 O4 -108.49(15)
C5 C2 N1 O1 -61.91(14)
C3 C2 N1 O1 58.62(14)
C1 C2 N1 O1 177.79(12)
O2 C3 O3 C4 176.96(13)
C2 C3 O3 C4 -4.62(19)
O4 C4 O3 C3 34.32(18)
C6 C4 O3 C3 -87.92(17)
C7 C4 O3 C3 148.17(14)
O5 C5 O4 C4 -170.23(14)
C2 C5 O4 C4 12.0(2)
O3 C4 O4 C5 -38.28(18)
C6 C4 O4 C5 84.26(17)
C7 C4 O4 C5 -152.40(13)
