#------------------------------------------------------------------------------
#$Date: 2017-10-13 14:42:48 +0300 (Fri, 13 Oct 2017) $
#$Revision: 201982 $
#$URL: file:///home/coder/svn-repositories/cod/cif/4/11/70/4117081.cif $
#------------------------------------------------------------------------------
#
# This file is available in the Crystallography Open Database (COD),
# http://www.crystallography.net/
#
# All data on this site have been placed in the public domain by the
# contributors.
#
data_4117081
loop_
_publ_author_name
'Romana Anulewicz'
'Iwona Wawer'
'Tadeusz Marek Krygowski'
'Ferdinand M\"annle'
'Hans-Heinrich Limbach'
_publ_section_title
;
 Combined X-ray Diffraction and15N CPMAS NMR Study of Molecular Structure
 and Proton Order/Disorder Phenomena in Cyclic N,N'-Bisarylformamidine
 Dimers
;
_journal_name_full               'Journal of the American Chemical Society'
_journal_page_first              12223
_journal_page_last               12230
_journal_paper_doi               10.1021/ja970699h
_journal_volume                  119
_journal_year                    1997
_chemical_formula_sum            'C15 H16 N2'
_chemical_formula_weight         224.30
_chemical_name_systematic
;
 ?
;
_space_group_IT_number           2
_symmetry_cell_setting           triclinic
_symmetry_space_group_name_Hall  '-P 1'
_symmetry_space_group_name_H-M   'P -1'
_atom_sites_solution_hydrogens   geom
_atom_sites_solution_primary     direct
_atom_sites_solution_secondary   difmap
_audit_creation_method           SHELXL
_cell_angle_alpha                93.17(3)
_cell_angle_beta                 96.34(3)
_cell_angle_gamma                80.99(3)
_cell_formula_units_Z            2
_cell_length_a                   6.0990(10)
_cell_length_b                   10.519(2)
_cell_length_c                   10.122(2)
_cell_measurement_reflns_used    25
_cell_measurement_temperature    293(2)
_cell_measurement_theta_max      30
_cell_measurement_theta_min      18
_cell_volume                     637.0(2)
_computing_cell_refinement       'KM-4 KUMA software (KUMA DIffraction, 1991)'
_computing_data_collection       'KM-4 KUMA software (KUMA Diffraction, 1991)'
_computing_data_reduction        'KM-4 KUMA software (KUMA DIffraction, 1991)'
_computing_molecular_graphics    'SHELXTL/PC (Sheldrick 1990)'
_computing_publication_material  'SHELXL93 (Sheldrick, 1993)'
_computing_structure_refinement  'SHELXL-93 (Sheldrick, 1993)'
_computing_structure_solution    'SHELXS-86 (Sheldrick, 1990)'
_diffrn_ambient_temperature      293(2)
_diffrn_measurement_device       'KM-4 diffractometer'
_diffrn_measurement_method       omega/theta
_diffrn_radiation_monochromator  graphite
_diffrn_radiation_source         'fine-focus sealed tube'
_diffrn_radiation_type           CuK\a
_diffrn_radiation_wavelength     1.54178
_diffrn_reflns_av_R_equivalents  0.5168
_diffrn_reflns_av_sigmaI/netI    0.0361
_diffrn_reflns_limit_h_max       7
_diffrn_reflns_limit_h_min       -7
_diffrn_reflns_limit_k_max       12
_diffrn_reflns_limit_k_min       -12
_diffrn_reflns_limit_l_max       11
_diffrn_reflns_limit_l_min       0
_diffrn_reflns_number            2733
_diffrn_reflns_theta_max         80.20
_diffrn_reflns_theta_min         4.26
_diffrn_standards_interval_count 100
_diffrn_standards_number         3
_exptl_absorpt_coefficient_mu    0.535
_exptl_crystal_colour            colourless
_exptl_crystal_density_diffrn    1.169
_exptl_crystal_F_000             240
_exptl_crystal_size_max          0.2
_exptl_crystal_size_mid          0.2
_exptl_crystal_size_min          0.2
_refine_diff_density_max         0.380
_refine_diff_density_min         -0.441
_refine_diff_density_rms         0.129
_refine_ls_extinction_method     none
_refine_ls_goodness_of_fit_all   1.020
_refine_ls_goodness_of_fit_obs   1.053
_refine_ls_matrix_type           full
_refine_ls_number_parameters     176
_refine_ls_number_reflns         2536
_refine_ls_number_restraints     0
_refine_ls_restrained_S_all      1.064
_refine_ls_restrained_S_obs      1.053
_refine_ls_R_factor_all          0.0874
_refine_ls_R_factor_obs          0.0683
_refine_ls_shift/esd_max         0.000
_refine_ls_shift/esd_mean        0.000
_refine_ls_structure_factor_coef Fsqd
_refine_ls_weighting_details
'w=1/[\s^2^(Fo^2^)+(0.1155P)^2^+0.1271P] where P=(Fo^2^+2Fc^2^)/3'
_refine_ls_weighting_scheme      calc
_refine_ls_wR_factor_all         0.1873
_refine_ls_wR_factor_obs         0.1725
_reflns_number_observed          2212
_reflns_number_total             2542
_reflns_observed_criterion       >2sigma(I)
_cod_data_source_file            ja970699h_4.cif
_cod_data_source_block           N,N'-bis(p-methyl)-formamidine
_cod_depositor_comments
;
The following automatic conversions were performed:

'_refine_ls_weighting_scheme' value 'calc
w=1/[\s^2^(Fo^2^)+(0.1155P)^2^+0.1271P] where P=(Fo^2^+2Fc^2^)/3' was
changed to 'calc'. New tag '_refine_ls_weighting_details' was
created. The value of the new tag was set to
'w=1/[\s^2^(Fo^2^)+(0.1155P)^2^+0.1271P] where P=(Fo^2^+2Fc^2^)/3'.

Automatic conversion script
Id: cif_fix_values 3143 2015-03-26 13:38:13Z robertas 
;
_cod_database_code               4117081
loop_
_symmetry_equiv_pos_as_xyz
'x, y, z'
'-x, -y, -z'
loop_
_atom_site_aniso_label
_atom_site_aniso_U_11
_atom_site_aniso_U_22
_atom_site_aniso_U_33
_atom_site_aniso_U_23
_atom_site_aniso_U_13
_atom_site_aniso_U_12
N1 0.0439(6) 0.0493(7) 0.0350(6) 0.0038(5) 0.0051(4) -0.0002(5)
C1 0.0468(8) 0.0446(8) 0.0370(7) 0.0049(5) 0.0049(5) -0.0024(6)
N2 0.0516(7) 0.0472(8) 0.0411(7) 0.0092(5) 0.0094(5) 0.0048(6)
C2 0.0427(7) 0.0415(8) 0.0342(7) 0.0049(5) 0.0052(5) -0.0037(6)
C3 0.0441(7) 0.0579(9) 0.0370(8) 0.0046(6) 0.0002(5) -0.0033(6)
C4 0.0551(9) 0.0618(10) 0.0343(8) -0.0013(6) 0.0029(6) -0.0070(7)
C5 0.0519(8) 0.0502(9) 0.0424(8) 0.0004(6) 0.0126(6) -0.0089(6)
C6 0.0414(7) 0.0532(9) 0.0460(8) 0.0049(6) 0.0054(6) -0.0040(6)
C7 0.0440(7) 0.0501(8) 0.0351(7) 0.0031(5) 0.0019(5) -0.0065(6)
C8 0.0477(8) 0.0401(8) 0.0408(7) 0.0018(5) 0.0009(5) -0.0020(6)
C9 0.0535(9) 0.0513(9) 0.0505(9) 0.0068(7) 0.0097(6) 0.0010(7)
C10 0.0507(9) 0.0573(10) 0.0611(10) 0.0000(7) 0.0045(7) 0.0040(7)
C11 0.0596(9) 0.0426(9) 0.0621(10) 0.0000(7) -0.0114(7) -0.0002(7)
C12 0.0685(11) 0.0468(10) 0.0688(11) 0.0169(8) -0.0012(8) -0.0059(8)
C13 0.0547(9) 0.0524(10) 0.0615(10) 0.0124(7) 0.0073(7) -0.0060(7)
C14 0.0647(11) 0.0772(13) 0.0553(10) -0.0107(9) 0.0217(8) -0.0063(9)
C15 0.0795(14) 0.0544(12) 0.102(2) 0.0105(10) -0.0168(12) 0.0122(10)
loop_
_atom_site_label
_atom_site_type_symbol
_atom_site_fract_x
_atom_site_fract_y
_atom_site_fract_z
_atom_site_U_iso_or_equiv
_atom_site_thermal_displace_type
_atom_site_occupancy
_atom_site_calc_flag
_atom_site_refinement_flags
N1 N 0.3175(2) -0.00371(13) 0.63681(11) 0.0433(3) Uani 1 d .
C1 C 0.4612(2) -0.10153(14) 0.67158(13) 0.0431(4) Uani 1 d .
H1 H 0.4643(28) -0.1391(17) 0.7591(17) 0.049(4) Uiso 1 d .
H2 H 0.6439(31) -0.1146(20) 0.5250(20) 0.058(5) Uiso 1 d .
N2 N 0.6182(2) -0.15793(13) 0.59462(13) 0.0473(4) Uani 1 d .
C2 C 0.1782(2) 0.05333(14) 0.73449(13) 0.0396(3) Uani 1 d .
C3 C 0.2634(2) 0.0791(2) 0.86528(14) 0.0470(4) Uani 1 d .
H3 H 0.4142(2) 0.0541(2) 0.89196(14) 0.058(5) Uiso 1 calc R
C4 C 0.1240(3) 0.1417(2) 0.95541(14) 0.0508(4) Uani 1 d .
H4 H 0.1828(3) 0.1567(2) 1.04261(14) 0.078(6) Uiso 1 calc R
C5 C -0.1004(3) 0.1826(2) 0.91911(15) 0.0475(4) Uani 1 d .
C6 C -0.1850(2) 0.1553(2) 0.78882(15) 0.0470(4) Uani 1 d .
H6 H -0.3358(2) 0.1805(2) 0.76232(15) 0.055(5) Uiso 1 calc R
C7 C -0.0481(2) 0.09104(15) 0.69813(13) 0.0433(4) Uani 1 d .
H7 H -0.1083(2) 0.07300(15) 0.61194(13) 0.059(5) Uiso 1 calc R
C8 C 0.7772(2) -0.26619(14) 0.63108(14) 0.0436(4) Uani 1 d .
C9 C 0.9791(3) -0.2845(2) 0.5776(2) 0.0522(4) Uani 1 d .
H9 H 1.0082(3) -0.2252(2) 0.5195(2) 0.069(6) Uiso 1 calc R
C10 C 1.1384(3) -0.3900(2) 0.6096(2) 0.0578(4) Uani 1 d .
H10 H 1.2719(3) -0.4012(2) 0.5710(2) 0.078(7) Uiso 1 calc R
C11 C 1.1042(3) -0.4786(2) 0.6969(2) 0.0570(5) Uani 1 d .
C12 C 0.9019(3) -0.4598(2) 0.7494(2) 0.0618(5) Uani 1 d .
H12 H 0.8744(3) -0.5188(2) 0.8084(2) 0.091(7) Uiso 1 calc R
C13 C 0.7378(3) -0.3560(2) 0.7171(2) 0.0559(4) Uani 1 d .
H13 H 0.6020(3) -0.3468(2) 0.7530(2) 0.063(5) Uiso 1 calc R
C14 C -0.2485(3) 0.2560(2) 1.0169(2) 0.0655(5) Uani 1 d .
H141 H -0.3978(3) 0.2760(2) 0.9745(2) 0.167(15) Uiso 1 calc R
H142 H -0.1929(3) 0.3344(2) 1.0463(2) 0.147(13) Uiso 1 calc R
H143 H -0.2488(3) 0.2042(2) 1.0920(2) 0.198(18) Uiso 1 calc R
C15 C 1.2819(4) -0.5920(2) 0.7326(3) 0.0827(7) Uani 1 d .
H151 H 1.4098(4) -0.5883(2) 0.6862(3) 0.258(27) Uiso 1 calc R
H152 H 1.2243(4) -0.6707(2) 0.7074(3) 0.196(19) Uiso 1 calc R
H153 H 1.3247(4) -0.5891(2) 0.8268(3) 0.163(15) Uiso 1 calc R
loop_
_atom_type_symbol
_atom_type_description
_atom_type_scat_dispersion_real
_atom_type_scat_dispersion_imag
_atom_type_scat_source
C C 0.0181 0.0091 'International Tables Vol C Tables 4.2.6.8 and 6.1.1.4'
H H 0.0000 0.0000 'International Tables Vol C Tables 4.2.6.8 and 6.1.1.4'
N N 0.0311 0.0180 'International Tables Vol C Tables 4.2.6.8 and 6.1.1.4'
loop_
_geom_angle_atom_site_label_1
_geom_angle_atom_site_label_2
_geom_angle_atom_site_label_3
_geom_angle
C1 N1 C2 116.53(12)
N1 C1 N2 123.25(13)
N1 C1 H1 120.9(10)
N2 C1 H1 115.8(10)
C1 N2 C8 124.02(13)
C1 N2 H2 117.9(12)
C8 N2 H2 116.6(12)
C7 C2 C3 118.45(13)
C7 C2 N1 119.47(12)
C3 C2 N1 121.99(13)
C4 C3 C2 120.19(14)
C4 C3 H3 119.91(9)
C2 C3 H3 119.91(9)
C3 C4 C5 121.73(14)
C3 C4 H4 119.13(9)
C5 C4 H4 119.13(9)
C4 C5 C6 117.80(14)
C4 C5 C14 121.18(15)
C6 C5 C14 121.02(15)
C7 C6 C5 121.04(14)
C7 C6 H6 119.48(8)
C5 C6 H6 119.48(9)
C6 C7 C2 120.76(13)
C6 C7 H7 119.62(8)
C2 C7 H7 119.62(8)
C9 C8 C13 118.49(14)
C9 C8 N2 118.91(14)
C13 C8 N2 122.59(14)
C8 C9 C10 120.8(2)
C8 C9 H9 119.62(9)
C10 C9 H9 119.62(11)
C11 C10 C9 121.6(2)
C11 C10 H10 119.20(11)
C9 C10 H10 119.20(11)
C12 C11 C10 117.3(2)
C12 C11 C15 121.9(2)
C10 C11 C15 120.9(2)
C11 C12 C13 122.2(2)
C11 C12 H12 118.89(10)
C13 C12 H12 118.89(11)
C8 C13 C12 119.7(2)
C8 C13 H13 120.17(10)
C12 C13 H13 120.17(11)
C5 C14 H141 109.47(10)
C5 C14 H142 109.47(10)
H141 C14 H142 109.5
C5 C14 H143 109.47(10)
H141 C14 H143 109.5
H142 C14 H143 109.5
C11 C15 H151 109.47(14)
C11 C15 H152 109.47(12)
H151 C15 H152 109.5
C11 C15 H153 109.47(12)
H151 C15 H153 109.5
H152 C15 H153 109.5
loop_
_geom_bond_atom_site_label_1
_geom_bond_atom_site_label_2
_geom_bond_distance
N1 C1 1.280(2)
N1 C2 1.421(2)
C1 N2 1.346(2)
C1 H1 0.99(2)
N2 C8 1.413(2)
C2 C7 1.389(2)
C2 C3 1.396(2)
C3 C4 1.385(2)
C3 H3 0.93
C4 C5 1.384(2)
C4 H4 0.93
C5 C6 1.394(2)
C5 C14 1.512(2)
C6 C7 1.386(2)
C6 H6 0.93
C7 H7 0.93
C8 C9 1.380(2)
C8 C13 1.384(2)
C9 C10 1.383(2)
C9 H9 0.93
C10 C11 1.373(3)
C10 H10 0.93
C11 C12 1.379(3)
C11 C15 1.512(2)
C12 C13 1.388(2)
C12 H12 0.93
C13 H13 0.93
C14 H141 0.96
C14 H142 0.96
C14 H143 0.96
C15 H151 0.96
C15 H152 0.96
C15 H153 0.96
loop_
_geom_torsion_atom_site_label_1
_geom_torsion_atom_site_label_2
_geom_torsion_atom_site_label_3
_geom_torsion_atom_site_label_4
_geom_torsion
C2 N1 C1 N2 -173.45(14)
N1 C1 N2 C8 -179.70(14)
C1 N1 C2 C7 -137.32(15)
C1 N1 C2 C3 46.1(2)
C7 C2 C3 C4 -0.5(2)
N1 C2 C3 C4 176.15(13)
C2 C3 C4 C5 -1.2(3)
C3 C4 C5 C6 1.9(3)
C3 C4 C5 C14 -177.3(2)
C4 C5 C6 C7 -1.0(2)
C14 C5 C6 C7 178.2(2)
C5 C6 C7 C2 -0.6(2)
C3 C2 C7 C6 1.4(2)
N1 C2 C7 C6 -175.32(13)
C1 N2 C8 C9 -153.4(2)
C1 N2 C8 C13 27.5(2)
C13 C8 C9 C10 -0.2(3)
N2 C8 C9 C10 -179.28(13)
C8 C9 C10 C11 -1.3(3)
C9 C10 C11 C12 1.5(3)
C9 C10 C11 C15 -178.9(2)
C10 C11 C12 C13 -0.3(3)
C15 C11 C12 C13 -179.9(2)
C9 C8 C13 C12 1.3(3)
N2 C8 C13 C12 -179.63(15)
C11 C12 C13 C8 -1.1(3)
loop_
_cod_related_entry_id
_cod_related_entry_database
_cod_related_entry_code
1 ChemSpider 140100
