#------------------------------------------------------------------------------
#$Date: 2018-10-05 15:19:55 +0300 (Fri, 05 Oct 2018) $
#$Revision: 211332 $
#$URL: file:///home/coder/svn-repositories/cod/cif/4/11/78/4117892.cif $
#------------------------------------------------------------------------------
#
# This file is available in the Crystallography Open Database (COD),
# http://www.crystallography.net/
#
# All data on this site have been placed in the public domain by the
# contributors.
#
data_4117892
loop_
_publ_author_name
'Ian A. Tonks'
'Alec C. Durrell'
'Harry B. Gray'
'John E. Bercaw'
_publ_contact_author
;       Michael W. Day
        Beckman Institute
        California Institute of Technology
        Pasadena, CA  91125
        USA
;
_publ_contact_author_email       mikeday@caltech.edu
_publ_contact_author_fax         '(818) 449 4159'
_publ_contact_author_phone       '(818) 395 2734'
_publ_section_title
;
 Groups 5 and 6 Terminal Hydrazido(2-) Complexes: N\b Substituent Effects
 on Ligand-to-Metal Charge-Transfer Energies and Oxidation States
;
_journal_name_full               'Journal of the American Chemical Society'
_journal_page_first              7301
_journal_page_last               7304
_journal_paper_doi               10.1021/ja302275j
_journal_volume                  134
_journal_year                    2012
_chemical_formula_moiety         'C11 H18 Cl3 N2 Nb O2'
_chemical_formula_sum            'C11 H18 Cl3 N2 Nb O2'
_chemical_formula_weight         409.53
_chemical_name_systematic
;
 ?
;
_space_group_IT_number           2
_symmetry_cell_setting           triclinic
_symmetry_space_group_name_Hall  '-P 1'
_symmetry_space_group_name_H-M   'P -1'
_atom_sites_solution_hydrogens   geom
_atom_sites_solution_primary     direct
_atom_sites_solution_secondary   difmap
_audit_creation_method           SHELXL-97
_cell_angle_alpha                64.736(2)
_cell_angle_beta                 79.530(2)
_cell_angle_gamma                83.340(2)
_cell_formula_units_Z            2
_cell_length_a                   7.6003(4)
_cell_length_b                   10.5217(6)
_cell_length_c                   11.2752(6)
_cell_measurement_reflns_used    9515
_cell_measurement_temperature    100(2)
_cell_measurement_theta_max      51.49
_cell_measurement_theta_min      3.15
_cell_volume                     801.09(8)
_computing_cell_refinement       'Bruker SAINT-Plus v7.68A'
_computing_data_collection       'Bruker APEX2 v2009.7-0'
_computing_data_reduction        'Bruker SAINT-Plus v7.68A'
_computing_molecular_graphics    'Bruker XP v5.1'
_computing_publication_material  'Bruker XCIF 2008'
_computing_structure_refinement  'SHELXL-97 (Sheldrick, 2008)'
_computing_structure_solution    'SHELXS-97 (Sheldrick, 2008)'
_diffrn_ambient_temperature      100(2)
_diffrn_measured_fraction_theta_full 0.995
_diffrn_measured_fraction_theta_max 0.995
_diffrn_measurement_device_type  'Bruker KAPPA APEX II'
_diffrn_measurement_method       '\w scans; 31 settings'
_diffrn_radiation_monochromator  graphite
_diffrn_radiation_source         'fine-focus sealed tube'
_diffrn_radiation_type           MoK\a
_diffrn_radiation_wavelength     0.71073
_diffrn_reflns_av_R_equivalents  0.0405
_diffrn_reflns_av_sigmaI/netI    0.0223
_diffrn_reflns_limit_h_max       16
_diffrn_reflns_limit_h_min       -15
_diffrn_reflns_limit_k_max       23
_diffrn_reflns_limit_k_min       -23
_diffrn_reflns_limit_l_max       24
_diffrn_reflns_limit_l_min       -24
_diffrn_reflns_number            99922
_diffrn_reflns_theta_full        51.72
_diffrn_reflns_theta_max         51.72
_diffrn_reflns_theta_min         2.02
_exptl_absorpt_coefficient_mu    1.250
_exptl_absorpt_correction_T_max  0.8748
_exptl_absorpt_correction_T_min  0.6155
_exptl_absorpt_correction_type   none
_exptl_crystal_colour            Green
_exptl_crystal_density_diffrn    1.698
_exptl_crystal_description       Blade
_exptl_crystal_F_000             412
_exptl_crystal_size_max          0.43
_exptl_crystal_size_mid          0.21
_exptl_crystal_size_min          0.11
_refine_diff_density_max         2.331
_refine_diff_density_min         -1.492
_refine_diff_density_rms         0.098
_refine_ls_extinction_method     none
_refine_ls_goodness_of_fit_ref   2.009
_refine_ls_hydrogen_treatment    Riding
_refine_ls_matrix_type           'Full matrix'
_refine_ls_number_parameters     175
_refine_ls_number_reflns         17987
_refine_ls_number_restraints     0
_refine_ls_restrained_S_all      2.009
_refine_ls_R_factor_all          0.0292
_refine_ls_R_factor_gt           0.0223
_refine_ls_shift/su_max          0.004
_refine_ls_shift/su_mean         0.000
_refine_ls_structure_factor_coef Fsqd
_refine_ls_weighting_details     w=1/s^2^(Fo^2^)
_refine_ls_weighting_scheme      sigma
_refine_ls_wR_factor_gt          0.0476
_refine_ls_wR_factor_ref         0.0483
_reflns_number_gt                15582
_reflns_number_total             17987
_reflns_threshold_expression     >2sigma(I)
_cod_data_source_file            ja302275j_si_002_12.cif
_cod_data_source_block           2g
_cod_depositor_comments
;
The following automatic conversions were performed:

'_atom_sites_solution_primary' value 'direct methods' was changed to
'direct'.

'_atom_sites_solution_secondary' value 'Difference Fourier map' was
changed to 'difmap'.

'_atom_sites_solution_hydrogens' value 'Geometric positions' was
changed to 'geom'.

Automatic conversion script
Id: cif_fix_values 6452 2018-10-05 10:23:21Z andrius 
;
_cod_database_code               4117892
loop_
_symmetry_equiv_pos_as_xyz
'x, y, z'
'-x, -y, -z'
loop_
_atom_site_label
_atom_site_type_symbol
_atom_site_fract_x
_atom_site_fract_y
_atom_site_fract_z
_atom_site_U_iso_or_equiv
_atom_site_adp_type
_atom_site_occupancy
_atom_site_symmetry_multiplicity
_atom_site_calc_flag
_atom_site_refinement_flags
Nb1 Nb 0.810398(6) 0.687488(5) 0.683051(4) 0.00834(1) Uani 1 1 d .
Cl1 Cl 0.941860(18) 0.466430(13) 0.827002(13) 0.01263(2) Uani 1 1 d .
Cl2 Cl 0.618200(18) 0.570524(15) 0.618064(15) 0.01435(2) Uani 1 1 d .
Cl3 Cl 0.76205(2) 0.910495(14) 0.506077(13) 0.01433(2) Uani 1 1 d .
O1 O 1.04466(5) 0.67073(4) 0.52728(4) 0.01144(6) Uani 1 1 d .
O2 O 1.04041(5) 0.77466(4) 0.70766(4) 0.01105(6) Uani 1 1 d .
N1 N 0.66428(6) 0.71573(5) 0.81281(4) 0.01099(6) Uani 1 1 d .
N2 N 0.57487(7) 0.72867(5) 0.91934(5) 0.01483(8) Uani 1 1 d .
C1 C 1.01810(9) 0.68492(7) 0.39822(6) 0.01575(9) Uani 1 1 d .
H1A H 0.9910 0.7839 0.3426 0.024 Uiso 1 1 calc R
H1B H 0.9181 0.6283 0.4084 0.024 Uiso 1 1 calc R
H1C H 1.1272 0.6521 0.3563 0.024 Uiso 1 1 calc R
C2 C 1.19587(8) 0.74865(6) 0.51569(6) 0.01413(8) Uani 1 1 d .
H2A H 1.1771 0.8491 0.4566 0.017 Uiso 1 1 calc R
H2B H 1.3063 0.7115 0.4774 0.017 Uiso 1 1 calc R
C3 C 1.21389(7) 0.73355(6) 0.65149(6) 0.01348(8) Uani 1 1 d .
H3A H 1.2478 0.6350 0.7077 0.016 Uiso 1 1 calc R
H3B H 1.3073 0.7949 0.6458 0.016 Uiso 1 1 calc R
C4 C 1.05062(9) 0.79545(7) 0.82475(6) 0.01829(10) Uani 1 1 d .
H4A H 1.0889 0.7067 0.8937 0.027 Uiso 1 1 calc R
H4B H 0.9326 0.8267 0.8570 0.027 Uiso 1 1 calc R
H4C H 1.1373 0.8670 0.8030 0.027 Uiso 1 1 calc R
C5 C 0.59454(9) 0.61269(6) 1.04765(6) 0.01721(10) Uani 1 1 d .
H5A H 0.6887 0.5455 1.0355 0.026 Uiso 1 1 calc R
H5B H 0.4811 0.5653 1.0866 0.026 Uiso 1 1 calc R
H5C H 0.6271 0.6495 1.1069 0.026 Uiso 1 1 calc R
C6 C 0.46656(7) 0.85036(6) 0.90714(5) 0.01178(7) Uani 1 1 d .
C7 C 0.34932(8) 0.85244(7) 1.01768(6) 0.01532(9) Uani 1 1 d .
H7 H 0.3436 0.7728 1.1005 0.018 Uiso 1 1 calc R
C8 C 0.24142(8) 0.97252(8) 1.00473(7) 0.01874(10) Uani 1 1 d .
H8 H 0.1614 0.9739 1.0795 0.022 Uiso 1 1 calc R
C9 C 0.24831(9) 1.09025(7) 0.88487(7) 0.01893(11) Uani 1 1 d .
H9 H 0.1737 1.1715 0.8773 0.023 Uiso 1 1 calc R
C10 C 0.36648(8) 1.08755(6) 0.77564(6) 0.01631(9) Uani 1 1 d .
H10 H 0.3731 1.1681 0.6934 0.020 Uiso 1 1 calc R
C11 C 0.47471(8) 0.96833(6) 0.78565(6) 0.01338(8) Uani 1 1 d .
H11 H 0.5537 0.9671 0.7104 0.016 Uiso 1 1 calc R
loop_
_atom_site_aniso_label
_atom_site_aniso_U_11
_atom_site_aniso_U_22
_atom_site_aniso_U_33
_atom_site_aniso_U_23
_atom_site_aniso_U_13
_atom_site_aniso_U_12
Nb1 0.00826(2) 0.00841(2) 0.00807(2) -0.00349(1) -0.00112(1) 0.00082(1)
Cl1 0.01476(5) 0.00957(4) 0.01135(4) -0.00219(3) -0.00316(4) 0.00113(4)
Cl2 0.01121(5) 0.01760(5) 0.01772(5) -0.01014(4) -0.00348(4) -0.00046(4)
Cl3 0.01979(6) 0.01068(4) 0.01067(4) -0.00321(4) -0.00403(4) 0.00426(4)
O1 0.01213(15) 0.01209(14) 0.00988(13) -0.00487(11) -0.00048(11) -0.00020(12)
O2 0.01037(14) 0.01264(14) 0.01105(14) -0.00568(11) -0.00193(11) -0.00033(11)
N1 0.01032(15) 0.01207(15) 0.01036(15) -0.00521(12) 0.00001(13) 0.00022(12)
N2 0.0172(2) 0.01499(18) 0.00924(15) -0.00444(13) 0.00106(14) 0.00387(15)
C1 0.0191(2) 0.0180(2) 0.01113(18) -0.00779(17) -0.00136(17) 0.00118(19)
C2 0.01183(19) 0.0160(2) 0.01275(19) -0.00502(16) 0.00119(16) -0.00217(16)
C3 0.00966(18) 0.01503(19) 0.0148(2) -0.00535(16) -0.00174(16) -0.00024(15)
C4 0.0192(2) 0.0247(3) 0.0158(2) -0.0120(2) -0.00355(19) -0.0036(2)
C5 0.0226(3) 0.0150(2) 0.01094(19) -0.00336(16) -0.00050(18) -0.00019(19)
C6 0.01005(17) 0.01461(18) 0.01255(18) -0.00789(15) -0.00106(15) 0.00043(15)
C7 0.0129(2) 0.0203(2) 0.0152(2) -0.01085(18) 0.00126(17) -0.00149(18)
C8 0.0135(2) 0.0255(3) 0.0232(3) -0.0175(2) 0.0009(2) 0.0005(2)
C9 0.0153(2) 0.0210(2) 0.0275(3) -0.0171(2) -0.0055(2) 0.0045(2)
C10 0.0162(2) 0.0156(2) 0.0203(2) -0.00995(19) -0.00624(19) 0.00301(18)
C11 0.01295(19) 0.01477(19) 0.01350(19) -0.00728(16) -0.00223(16) 0.00144(16)
loop_
_atom_type_symbol
_atom_type_description
_atom_type_scat_dispersion_real
_atom_type_scat_dispersion_imag
_atom_type_scat_source
C C 0.0033 0.0016 'International Tables Vol C Tables 4.2.6.8 and 6.1.1.4'
H H 0.0000 0.0000 'International Tables Vol C Tables 4.2.6.8 and 6.1.1.4'
N N 0.0061 0.0033 'International Tables Vol C Tables 4.2.6.8 and 6.1.1.4'
O O 0.0106 0.0060 'International Tables Vol C Tables 4.2.6.8 and 6.1.1.4'
Cl Cl 0.1484 0.1585 'International Tables Vol C Tables 4.2.6.8 and 6.1.1.4'
Nb Nb -2.0727 0.6215 'International Tables Vol C Tables 4.2.6.8 and 6.1.1.4'
loop_
_geom_angle_atom_site_label_1
_geom_angle_atom_site_label_2
_geom_angle_atom_site_label_3
_geom_angle
N1 Nb1 O2 94.503(19)
N1 Nb1 O1 167.861(19)
O2 Nb1 O1 73.361(15)
N1 Nb1 Cl3 98.287(16)
O2 Nb1 Cl3 87.385(12)
O1 Nb1 Cl3 81.744(11)
N1 Nb1 Cl2 100.923(16)
O2 Nb1 Cl2 164.261(11)
O1 Nb1 Cl2 91.182(12)
Cl3 Nb1 Cl2 93.413(7)
N1 Nb1 Cl1 95.330(16)
O2 Nb1 Cl1 83.202(12)
O1 Nb1 Cl1 83.177(11)
Cl3 Nb1 Cl1 164.003(6)
Cl2 Nb1 Cl1 92.207(7)
C2 O1 C1 110.61(4)
C2 O1 Nb1 112.26(3)
C1 O1 Nb1 122.48(3)
C4 O2 C3 112.18(5)
C4 O2 Nb1 123.20(4)
C3 O2 Nb1 115.20(3)
N2 N1 Nb1 171.73(4)
N1 N2 C6 120.37(5)
N1 N2 C5 117.17(5)
C6 N2 C5 122.46(5)
O1 C2 C3 108.30(4)
O2 C3 C2 107.02(5)
C11 C6 C7 120.00(5)
C11 C6 N2 120.50(5)
C7 C6 N2 119.50(5)
C8 C7 C6 119.25(6)
C9 C8 C7 121.33(6)
C8 C9 C10 119.00(6)
C11 C10 C9 120.81(6)
C10 C11 C6 119.61(5)
loop_
_geom_bond_atom_site_label_1
_geom_bond_atom_site_label_2
_geom_bond_distance
Nb1 N1 1.7794(4)
Nb1 O2 2.1771(4)
Nb1 O1 2.3110(4)
Nb1 Cl3 2.38586(18)
Nb1 Cl2 2.40020(17)
Nb1 Cl1 2.42292(17)
O1 C2 1.4431(7)
O1 C1 1.4473(7)
O2 C4 1.4438(7)
O2 C3 1.4576(7)
N1 N2 1.3208(6)
N2 C6 1.4079(7)
N2 C5 1.4608(7)
C2 C3 1.5006(8)
C6 C11 1.3988(8)
C6 C7 1.4011(7)
C7 C8 1.3913(9)
C8 C9 1.3871(10)
C9 C10 1.3951(9)
C10 C11 1.3915(8)
