#------------------------------------------------------------------------------
#$Date: 2016-03-22 12:34:31 +0200 (Tue, 22 Mar 2016) $
#$Revision: 178954 $
#$URL: svn://www.crystallography.net/cod/cif/4/11/83/4118334.cif $
#------------------------------------------------------------------------------
#
# This file is available in the Crystallography Open Database (COD),
# http://www.crystallography.net/
#
# All data on this site have been placed in the public domain by the
# contributors.
#
data_4118334
loop_
_publ_author_name
'Sven O. Sylvester'
'Jacqueline M. Cole'
'Paul G. Waddell'
_publ_section_title
;
 Photoconversion Bonding Mechanism in Ruthenium Sulfur Dioxide Linkage
 Photoisomers Revealed by in Situ Diffraction
;
_journal_name_full               'Journal of the American Chemical Society'
_journal_page_first              11860
_journal_page_last               11863
_journal_paper_doi               10.1021/ja303943q
_journal_volume                  134
_journal_year                    2012
_chemical_absolute_configuration unk
_chemical_formula_moiety         'C5 H18 Cl3 N5 O3 Ru1 S1'
_chemical_formula_sum            'C5 H18 Cl3 N5 O3 Ru S'
_chemical_formula_weight         435.72
_chemical_name_systematic
;
 ?
;
_space_group_IT_number           4
_symmetry_cell_setting           monoclinic
_symmetry_space_group_name_Hall  'P 2yb'
_symmetry_space_group_name_H-M   'P 1 21 1'
_atom_sites_solution_hydrogens   geom
_atom_sites_solution_primary     direct
_atom_sites_solution_secondary   difmap
_cell_angle_alpha                90
_cell_angle_beta                 90
_cell_angle_gamma                90
_cell_formula_units_Z            2
_cell_length_a                   7.154(2)
_cell_length_b                   10.698(3)
_cell_length_c                   9.966(3)
_cell_measurement_reflns_used    3376
_cell_measurement_temperature    293(2)
_cell_measurement_theta_max      33
_cell_measurement_theta_min      1.9
_cell_volume                     762.7(4)
_computing_cell_refinement
;
        CrystalClear-SM Expert 2.0 r4 (Rigaku, 2009)
;
_computing_data_collection
;
        CrystalClear-SM Expert 2.0 r4 (Rigaku, 2009)
;
_computing_data_reduction
;
        CrystalClear-SM Expert 2.0 r4 (Rigaku, 2009)
;
_computing_molecular_graphics    'Ortep-3 for Windows (Farrugia, 1997)'
_computing_publication_material  'WinGX publication routines (Farrugia, 1999)'
_computing_structure_refinement  'SHELXL-97 (Sheldrick, 2008)'
_diffrn_ambient_temperature      293(2)
_diffrn_detector_area_resol_mean 28.5714
_diffrn_measured_fraction_theta_full 0.98
_diffrn_measured_fraction_theta_max 0.857
_diffrn_measurement_device_type
;
        Rigaku Saturn724+ (2x2 bin mode)
;
_diffrn_measurement_method       'profile data from \w-scans'
_diffrn_radiation_monochromator  graphite
_diffrn_radiation_type           MoK\a
_diffrn_radiation_wavelength     0.71073
_diffrn_reflns_av_R_equivalents  0.0474
_diffrn_reflns_av_unetI/netI     0.0773
_diffrn_reflns_limit_h_max       10
_diffrn_reflns_limit_h_min       -9
_diffrn_reflns_limit_k_max       15
_diffrn_reflns_limit_k_min       -6
_diffrn_reflns_limit_l_max       13
_diffrn_reflns_limit_l_min       -14
_diffrn_reflns_number            5123
_diffrn_reflns_theta_full        27.5
_diffrn_reflns_theta_max         33.18
_diffrn_reflns_theta_min         3.43
_diffrn_source                   'Sealed Tube'
_exptl_absorpt_coefficient_mu    1.697
_exptl_absorpt_correction_T_max  1
_exptl_absorpt_correction_T_min  0.701
_exptl_absorpt_correction_type   multi-scan
_exptl_crystal_colour            Colorless
_exptl_crystal_density_diffrn    1.897
_exptl_crystal_description       Prism
_exptl_crystal_F_000             436
_exptl_crystal_size_max          0.2
_exptl_crystal_size_mid          0.2
_exptl_crystal_size_min          0.2
_refine_diff_density_max         0.838
_refine_diff_density_min         -0.799
_refine_diff_density_rms         0.122
_refine_ls_abs_structure_details 'Flack H D (1983), Acta Cryst. A39, 876-881'
_refine_ls_abs_structure_Flack   0.57(7)
_refine_ls_extinction_method     none
_refine_ls_goodness_of_fit_ref   0.932
_refine_ls_hydrogen_treatment    constr
_refine_ls_matrix_type           full
_refine_ls_number_parameters     181
_refine_ls_number_reflns         2932
_refine_ls_number_restraints     1
_refine_ls_restrained_S_all      0.932
_refine_ls_R_factor_all          0.0421
_refine_ls_R_factor_gt           0.0363
_refine_ls_shift/su_max          0
_refine_ls_shift/su_mean         0
_refine_ls_structure_factor_coef Fsqd
_refine_ls_weighting_details
'calc w=1/[\s^2^(Fo^2^)+(0.0195P)^2^+0.0000P] where P=(Fo^2^+2Fc^2^)/3'
_refine_ls_weighting_scheme      calc
_refine_ls_wR_factor_ref         0.0747
_reflns_number_gt                2546
_reflns_number_total             2932
_reflns_threshold_expression     >2\s(I)
_cod_data_source_file            ja303943q_si_002_52.cif
_cod_data_source_block           4-cl-pyr-light-7
_cod_original_cell_volume        762.8(4)
_cod_database_code               4118334
loop_
_symmetry_equiv_pos_as_xyz
'x, y, z'
'-x, y+1/2, -z'
loop_
_atom_site_label
_atom_site_fract_x
_atom_site_fract_y
_atom_site_fract_z
_atom_site_U_iso_or_equiv
_atom_site_adp_type
_atom_site_calc_flag
_atom_site_refinement_flags
_atom_site_occupancy
_atom_site_disorder_assembly
_atom_site_disorder_group
_atom_site_type_symbol
Ru01 0.21153(5) 0.18820(5) 0.80997(3) 0.01823(9) Uani d . 1 . . Ru
Cl1 0.66941(18) 0.1859(2) 0.24090(12) 0.0357(3) Uani d . 1 . . Cl
Cl3 0.1096(2) -0.06775(17) 0.48911(14) 0.0358(3) Uani d . 1 . . Cl
Cl2 0.7282(2) -0.04462(16) 0.89389(13) 0.0320(3) Uani d . 1 . . Cl
S1 0.06246(18) 0.1907(3) 0.98911(12) 0.0237(5) Uani d P 0.920(6) A 1 S
N5 0.3581(5) 0.1845(9) 0.6257(3) 0.0194(7) Uani d . 1 A . n
O2 0.1180(8) 0.1165(6) 1.1044(5) 0.0463(14) Uani d P 0.920(6) A 1 O
O1 -0.1048(6) 0.2635(5) 1.0038(4) 0.0334(11) Uani d P 0.920(6) A 1 O
N3 -0.0371(5) 0.1577(4) 0.6932(4) 0.0247(10) Uani d . 1 A . n
H3A -0.122 0.1186 0.7432 0.037 Uiso calc R 1 . . H
H3B -0.0095 0.1109 0.622 0.037 Uiso calc R 1 . . H
H3C -0.0826 0.2308 0.6661 0.037 Uiso calc R 1 . . H
O3 0.6264(6) 0.4282(5) 0.7530(5) 0.0457(11) Uani d . 1 . . O
C3 0.5436(6) 0.1818(9) 0.3883(4) 0.0255(10) Uani d . 1 . . C
N1 0.4724(6) 0.2188(4) 0.9122(4) 0.0244(10) Uani d . 1 A . n
H1A 0.4521 0.2625 0.9867 0.037 Uiso calc R 1 . . H
H1B 0.5497 0.2611 0.8588 0.037 Uiso calc R 1 . . H
H1C 0.5235 0.1455 0.9332 0.037 Uiso calc R 1 . . H
C4 0.3852(8) 0.2527(5) 0.3988(5) 0.0284(11) Uani d . 1 A . C
H4 0.3404 0.2995 0.327 0.034 Uiso calc R 1 . . H
N2 0.2400(8) -0.0098(6) 0.8173(5) 0.0289(12) Uani d . 1 A . n
H2A 0.1514 -0.0416 0.8698 0.043 Uiso calc R 1 . . H
H2B 0.3519 -0.0294 0.8502 0.043 Uiso calc R 1 . . H
H2C 0.2286 -0.041 0.7349 0.043 Uiso calc R 1 . . H
N4 0.1924(7) 0.3846(5) 0.7868(5) 0.0270(12) Uani d . 1 A . n
H4A 0.1554 0.4188 0.8638 0.041 Uiso calc R 1 . . H
H4B 0.1099 0.4024 0.7228 0.041 Uiso calc R 1 . . H
H4C 0.3038 0.4151 0.7642 0.041 Uiso calc R 1 . . H
C1 0.5100(7) 0.1123(5) 0.6099(5) 0.0230(10) Uani d . 1 . . C
H1 0.55 0.0631 0.6813 0.028 Uiso calc R 1 A . H
C2 0.6077(8) 0.1088(5) 0.4920(5) 0.0263(11) Uani d . 1 A . C
H2 0.7134 0.059 0.4823 0.032 Uiso calc R 1 . . H
C5 0.2950(8) 0.2514(5) 0.5213(5) 0.0272(11) Uani d . 1 . . C
H5 0.1868 0.2986 0.5318 0.033 Uiso calc R 1 A . H
S1A 0.144(3) 0.1662(19) 1.052(2) 0.031(6) Uiso d P 0.080(6) A 2 S
O1A -0.020(6) 0.222(4) 0.952(4) 0.012(8) Uiso d P 0.080(6) A 2 O
O2A 0.127(10) 0.046(7) 1.089(7) 0.049(18) Uiso d P 0.080(6) A 2 O
loop_
_atom_site_aniso_label
_atom_site_aniso_U_11
_atom_site_aniso_U_22
_atom_site_aniso_U_33
_atom_site_aniso_U_12
_atom_site_aniso_U_13
_atom_site_aniso_U_23
Ru01 0.01876(15) 0.01949(14) 0.01643(16) -0.00028(19) 0.00220(11) 0.0001(2)
Cl1 0.0481(7) 0.0308(6) 0.0280(6) 0.0030(10) 0.0165(5) -0.0003(8)
Cl3 0.0359(7) 0.0382(8) 0.0332(7) -0.0113(7) 0.0013(6) -0.0085(6)
Cl2 0.0372(7) 0.0330(7) 0.0257(7) 0.0049(6) -0.0016(5) 0.0037(5)
S1 0.0238(7) 0.0287(7) 0.0187(7) 0.0000(12) 0.0055(5) 0.0013(11)
N5 0.0159(15) 0.0222(18) 0.0201(17) 0.001(3) 0.0045(13) 0.001(3)
O2 0.054(3) 0.049(4) 0.036(3) 0.009(3) 0.013(2) 0.021(3)
O1 0.029(2) 0.038(3) 0.033(3) 0.006(2) 0.0043(19) -0.006(2)
N3 0.0170(18) 0.034(3) 0.023(2) -0.0024(17) 0.0011(15) 0.0002(17)
O3 0.044(3) 0.044(3) 0.049(3) -0.011(2) 0.003(2) 0.011(2)
C3 0.029(2) 0.026(2) 0.021(2) -0.003(3) 0.0077(17) -0.007(3)
N1 0.024(2) 0.030(3) 0.019(2) -0.0009(17) 0.0051(16) 0.0003(16)
C4 0.040(3) 0.029(3) 0.016(2) 0.000(2) 0.003(2) 0.002(2)
N2 0.035(3) 0.021(3) 0.031(3) 0.001(2) 0.000(2) 0.0016(19)
N4 0.033(3) 0.022(3) 0.026(2) 0.000(2) 0.001(2) -0.002(2)
C1 0.023(2) 0.026(3) 0.020(2) 0.000(2) -0.0027(19) 0.0022(19)
C2 0.028(3) 0.029(3) 0.022(3) 0.001(2) 0.005(2) -0.001(2)
C5 0.030(3) 0.025(3) 0.026(3) 0.005(2) 0.001(2) 0.000(2)
loop_
_atom_type_symbol
_atom_type_description
_atom_type_scat_dispersion_real
_atom_type_scat_dispersion_imag
_atom_type_scat_source
C C 0.0033 0.0016 'International Tables Vol C Tables 4.2.6.8 and 6.1.1.4'
H H 0 0 'International Tables Vol C Tables 4.2.6.8 and 6.1.1.4'
N N 0.0061 0.0033 'International Tables Vol C Tables 4.2.6.8 and 6.1.1.4'
O O 0.0106 0.006 'International Tables Vol C Tables 4.2.6.8 and 6.1.1.4'
S S 0.1246 0.1234 'International Tables Vol C Tables 4.2.6.8 and 6.1.1.4'
Cl Cl 0.1484 0.1585 'International Tables Vol C Tables 4.2.6.8 and 6.1.1.4'
Ru Ru -1.2594 0.8363 'International Tables Vol C Tables 4.2.6.8 and 6.1.1.4'
loop_
_geom_angle_atom_site_label_1
_geom_angle_atom_site_label_2
_geom_angle_atom_site_label_3
_geom_angle
S1 Ru01 N5 178.82(14)
S1 Ru01 N4 92.72(16)
N5 Ru01 N4 87.5(3)
S1 Ru01 N2 91.87(16)
N5 Ru01 N2 87.9(3)
N4 Ru01 N2 175.37(18)
S1 Ru01 N3 92.43(12)
N5 Ru01 N3 86.40(15)
N4 Ru01 N3 92.20(19)
N2 Ru01 N3 86.93(19)
S1 Ru01 N1 92.10(12)
N5 Ru01 N1 89.08(15)
N4 Ru01 N1 87.51(19)
N2 Ru01 N1 93.00(19)
N3 Ru01 N1 175.47(17)
S1 Ru01 O1A 20.3(12)
N5 Ru01 O1A 158.8(13)
N4 Ru01 O1A 82.0(10)
N2 Ru01 O1A 102.2(10)
N3 Ru01 O1A 75.7(12)
N1 Ru01 O1A 108.7(12)
S1 Ru01 S1A 20.4(5)
N5 Ru01 S1A 160.5(5)
N4 Ru01 S1A 100.8(5)
N2 Ru01 S1A 83.7(5)
N3 Ru01 S1A 110.6(5)
N1 Ru01 S1A 73.9(5)
O1A Ru01 S1A 40.7(14)
O1 S1 O2 116.4(3)
O1 S1 Ru01 121.5(2)
O2 S1 Ru01 122.1(3)
C5 N5 C1 119.3(4)
C5 N5 Ru01 119.8(4)
C1 N5 Ru01 120.9(4)
Ru01 N3 H3A 109.5
Ru01 N3 H3B 109.5
H3A N3 H3B 109.5
Ru01 N3 H3C 109.5
H3A N3 H3C 109.5
H3B N3 H3C 109.5
C4 C3 C2 122.3(4)
C4 C3 Cl1 118.9(5)
C2 C3 Cl1 118.8(5)
Ru01 N1 H1A 109.5
Ru01 N1 H1B 109.5
H1A N1 H1B 109.5
Ru01 N1 H1C 109.5
H1A N1 H1C 109.5
H1B N1 H1C 109.5
C3 C4 C5 116.7(5)
C3 C4 H4 121.7
C5 C4 H4 121.7
Ru01 N2 H2A 109.5
Ru01 N2 H2B 109.5
H2A N2 H2B 109.5
Ru01 N2 H2C 109.5
H2A N2 H2C 109.5
H2B N2 H2C 109.5
Ru01 N4 H4A 109.5
Ru01 N4 H4B 109.5
H4A N4 H4B 109.5
Ru01 N4 H4C 109.5
H4A N4 H4C 109.5
H4B N4 H4C 109.5
N5 C1 C2 122.0(5)
N5 C1 H1 119
C2 C1 H1 119
C1 C2 C3 117.4(5)
C1 C2 H2 121.3
C3 C2 H2 121.3
N5 C5 C4 122.3(5)
N5 C5 H5 118.9
C4 C5 H5 118.9
O2A S1A O1A 117(4)
O2A S1A Ru01 112(3)
O1A S1A Ru01 61.0(16)
S1A O1A Ru01 78.4(19)
loop_
_geom_bond_atom_site_label_1
_geom_bond_atom_site_label_2
_geom_bond_distance
Ru01 S1 2.0798(13)
Ru01 N5 2.115(3)
Ru01 N4 2.118(6)
Ru01 N2 2.129(6)
Ru01 N3 2.151(4)
Ru01 N1 2.151(4)
Ru01 O1A 2.21(4)
Ru01 S1A 2.47(2)
Cl1 C3 1.723(4)
S1 O1 1.435(5)
S1 O2 1.453(6)
N5 C5 1.340(8)
N5 C1 1.343(8)
N3 H3A 0.89
N3 H3B 0.89
N3 H3C 0.89
C3 C4 1.368(9)
C3 C2 1.374(9)
N1 H1A 0.89
N1 H1B 0.89
N1 H1C 0.89
C4 C5 1.381(8)
C4 H4 0.93
N2 H2A 0.89
N2 H2B 0.89
N2 H2C 0.89
N4 H4A 0.89
N4 H4B 0.89
N4 H4C 0.89
C1 C2 1.368(7)
C1 H1 0.93
C2 H2 0.93
C5 H5 0.93
S1A O2A 1.34(7)
S1A O1A 1.65(6)
loop_
_geom_torsion_atom_site_label_1
_geom_torsion_atom_site_label_2
_geom_torsion_atom_site_label_3
_geom_torsion_atom_site_label_4
_geom_torsion
N5 Ru01 S1 O1 -55(15)
N4 Ru01 S1 O1 44.7(3)
N2 Ru01 S1 O1 -134.6(3)
N3 Ru01 S1 O1 -47.6(3)
N1 Ru01 S1 O1 132.3(3)
O1A Ru01 S1 O1 -13(3)
S1A Ru01 S1 O1 159.0(14)
N5 Ru01 S1 O2 123(14)
N4 Ru01 S1 O2 -137.3(4)
N2 Ru01 S1 O2 43.4(4)
N3 Ru01 S1 O2 130.4(4)
N1 Ru01 S1 O2 -49.7(4)
O1A Ru01 S1 O2 165(3)
S1A Ru01 S1 O2 -23.0(13)
S1 Ru01 N5 C5 55(15)
N4 Ru01 N5 C5 -44.9(6)
N2 Ru01 N5 C5 134.5(6)
N3 Ru01 N5 C5 47.5(6)
N1 Ru01 N5 C5 -132.4(6)
O1A Ru01 N5 C5 15(3)
S1A Ru01 N5 C5 -161.0(14)
S1 Ru01 N5 C1 -123(14)
N4 Ru01 N5 C1 137.6(6)
N2 Ru01 N5 C1 -43.0(6)
N3 Ru01 N5 C1 -130.0(6)
N1 Ru01 N5 C1 50.0(6)
O1A Ru01 N5 C1 -162(3)
S1A Ru01 N5 C1 21.5(18)
C2 C3 C4 C5 2.3(10)
Cl1 C3 C4 C5 -176.6(5)
C5 N5 C1 C2 2.8(10)
Ru01 N5 C1 C2 -179.6(4)
N5 C1 C2 C3 -0.6(9)
C4 C3 C2 C1 -2.1(10)
Cl1 C3 C2 C1 176.8(5)
C1 N5 C5 C4 -2.6(11)
Ru01 N5 C5 C4 179.9(4)
C3 C4 C5 N5 0.1(9)
S1 Ru01 S1A O2A 105(4)
N5 Ru01 S1A O2A -73(4)
N4 Ru01 S1A O2A 173(4)
N2 Ru01 S1A O2A -8(4)
N3 Ru01 S1A O2A 76(4)
N1 Ru01 S1A O2A -103(4)
O1A Ru01 S1A O2A 109(4)
S1 Ru01 S1A O1A -4.1(16)
N5 Ru01 S1A O1A 177.9(18)
N4 Ru01 S1A O1A 63.9(16)
N2 Ru01 S1A O1A -117.0(16)
N3 Ru01 S1A O1A -32.6(16)
N1 Ru01 S1A O1A 148.1(16)
O2A S1A O1A Ru01 -102(4)
S1 Ru01 O1A S1A 4.1(16)
N5 Ru01 O1A S1A -178.0(16)
N4 Ru01 O1A S1A -117.1(14)
N2 Ru01 O1A S1A 65.0(14)
N3 Ru01 O1A S1A 148.6(15)
N1 Ru01 O1A S1A -32.5(16)
