#------------------------------------------------------------------------------
#$Date: 2016-03-22 12:34:31 +0200 (Tue, 22 Mar 2016) $
#$Revision: 178954 $
#$URL: svn://www.crystallography.net/cod/cif/4/11/83/4118328.cif $
#------------------------------------------------------------------------------
#
# This file is available in the Crystallography Open Database (COD),
# http://www.crystallography.net/
#
# All data on this site have been placed in the public domain by the
# contributors.
#
data_4118328
loop_
_publ_author_name
'Sven O. Sylvester'
'Jacqueline M. Cole'
'Paul G. Waddell'
_publ_section_title
;
 Photoconversion Bonding Mechanism in Ruthenium Sulfur Dioxide Linkage
 Photoisomers Revealed by in Situ Diffraction
;
_journal_name_full               'Journal of the American Chemical Society'
_journal_page_first              11860
_journal_page_last               11863
_journal_paper_doi               10.1021/ja303943q
_journal_volume                  134
_journal_year                    2012
_chemical_absolute_configuration unk
_chemical_formula_moiety         'C5 H18 Cl3 N5 O3 Ru1 S1'
_chemical_formula_sum            'C5 H18 Cl3 N5 O3 Ru S'
_chemical_formula_weight         435.72
_chemical_name_systematic
;
 ?
;
_space_group_IT_number           4
_symmetry_cell_setting           monoclinic
_symmetry_space_group_name_Hall  'P 2yb'
_symmetry_space_group_name_H-M   'P 1 21 1'
_atom_sites_solution_hydrogens   geom
_atom_sites_solution_primary     direct
_atom_sites_solution_secondary   difmap
_cell_angle_alpha                90
_cell_angle_beta                 90.978(4)
_cell_angle_gamma                90
_cell_formula_units_Z            2
_cell_length_a                   7.146(2)
_cell_length_b                   10.780(4)
_cell_length_c                   9.935(3)
_cell_measurement_reflns_used    3278
_cell_measurement_temperature    293(2)
_cell_measurement_theta_max      33
_cell_measurement_theta_min      1.9
_cell_volume                     765.2(4)
_computing_cell_refinement
;
        CrystalClear-SM Expert 2.0 r4 (Rigaku, 2009)
;
_computing_data_collection
;
        CrystalClear-SM Expert 2.0 r4 (Rigaku, 2009)
;
_computing_data_reduction
;
        CrystalClear-SM Expert 2.0 r4 (Rigaku, 2009)
;
_computing_molecular_graphics    'Ortep-3 for Windows (Farrugia, 1997)'
_computing_publication_material  'WinGX publication routines (Farrugia, 1999)'
_computing_structure_refinement  'SHELXL-97 (Sheldrick, 2008)'
_diffrn_ambient_temperature      293(2)
_diffrn_detector_area_resol_mean 28.5714
_diffrn_measured_fraction_theta_full 0.978
_diffrn_measured_fraction_theta_max 0.859
_diffrn_measurement_device_type
;
        Rigaku Saturn724+ (2x2 bin mode)
;
_diffrn_measurement_method       'profile data from \w-scans'
_diffrn_radiation_monochromator  graphite
_diffrn_radiation_type           MoK\a
_diffrn_radiation_wavelength     0.71073
_diffrn_reflns_av_R_equivalents  0.0528
_diffrn_reflns_av_unetI/netI     0.086
_diffrn_reflns_limit_h_max       9
_diffrn_reflns_limit_h_min       -10
_diffrn_reflns_limit_k_max       16
_diffrn_reflns_limit_k_min       -6
_diffrn_reflns_limit_l_max       14
_diffrn_reflns_limit_l_min       -13
_diffrn_reflns_number            5137
_diffrn_reflns_theta_full        27.5
_diffrn_reflns_theta_max         33.1
_diffrn_reflns_theta_min         3.42
_diffrn_source                   'Sealed Tube'
_exptl_absorpt_coefficient_mu    1.691
_exptl_absorpt_correction_T_max  1
_exptl_absorpt_correction_T_min  0.507
_exptl_absorpt_correction_type   multi-scan
_exptl_crystal_colour            Colorless
_exptl_crystal_density_diffrn    1.891
_exptl_crystal_description       Prism
_exptl_crystal_F_000             436
_exptl_crystal_size_max          0.2
_exptl_crystal_size_mid          0.2
_exptl_crystal_size_min          0.2
_refine_diff_density_max         0.953
_refine_diff_density_min         -0.517
_refine_diff_density_rms         0.114
_refine_ls_abs_structure_details 'Flack H D (1983), Acta Cryst. A39, 876-881'
_refine_ls_abs_structure_Flack   0.16(7)
_refine_ls_extinction_method     none
_refine_ls_goodness_of_fit_ref   0.827
_refine_ls_hydrogen_treatment    constr
_refine_ls_matrix_type           full
_refine_ls_number_parameters     181
_refine_ls_number_reflns         2932
_refine_ls_number_restraints     1
_refine_ls_restrained_S_all      0.827
_refine_ls_R_factor_all          0.0473
_refine_ls_R_factor_gt           0.0345
_refine_ls_shift/su_max          0.001
_refine_ls_shift/su_mean         0
_refine_ls_structure_factor_coef Fsqd
_refine_ls_weighting_details
'calc w=1/[\s^2^(Fo^2^)+(0.0208P)^2^+0.0000P] where P=(Fo^2^+2Fc^2^)/3'
_refine_ls_weighting_scheme      calc
_refine_ls_wR_factor_ref         0.0728
_reflns_number_gt                2160
_reflns_number_total             2932
_reflns_threshold_expression     >2\s(I)
_cod_data_source_file            ja303943q_si_002_46.cif
_cod_data_source_block           4-cl-pyr-light-200k-1
_cod_original_cell_volume        765.3(4)
_cod_database_code               4118328
loop_
_symmetry_equiv_pos_as_xyz
'x, y, z'
'-x, y+1/2, -z'
loop_
_atom_site_label
_atom_site_fract_x
_atom_site_fract_y
_atom_site_fract_z
_atom_site_U_iso_or_equiv
_atom_site_adp_type
_atom_site_calc_flag
_atom_site_refinement_flags
_atom_site_occupancy
_atom_site_disorder_assembly
_atom_site_disorder_group
_atom_site_type_symbol
Ru01 0.78980(5) 0.02095(7) 0.18975(4) 0.02117(9) Uani d . 1 . . Ru
Cl1 0.3286(2) 0.0241(3) 0.76098(13) 0.0396(3) Uani d . 1 . . Cl
Cl3 0.2783(2) 0.25357(18) 0.10646(15) 0.0381(4) Uani d . 1 . . Cl
Cl2 0.8948(2) 0.27600(18) 0.51004(15) 0.0389(4) Uani d . 1 . . Cl
S1 0.9380(3) 0.0184(5) 0.01086(17) 0.0273(6) Uani d P 0.783(7) A 1 S
N5 0.6420(5) 0.0264(10) 0.3752(4) 0.0221(9) Uani d . 1 A . n
O3 0.3726(6) -0.2168(5) 0.2503(5) 0.0506(13) Uani d . 1 . . O
C3 0.4552(7) 0.0271(10) 0.6131(5) 0.0259(11) Uani d . 1 . . C
C5 0.4899(8) 0.0983(5) 0.3915(6) 0.0249(12) Uani d . 1 . . C
H5 0.4492 0.1479 0.3203 0.03 Uiso calc R 1 A . H
N4 1.0390(6) 0.0510(5) 0.3052(5) 0.0282(12) Uani d . 1 A . n
H4A 1.0166 0.1054 0.3704 0.042 Uiso calc R 1 . . H
H4B 1.1277 0.0805 0.2522 0.042 Uiso calc R 1 . . H
H4C 1.077 -0.0204 0.3414 0.042 Uiso calc R 1 . . H
O2 0.8815(11) 0.0915(7) -0.1033(7) 0.053(2) Uani d P 0.783(7) A 1 O
N2 0.5267(6) -0.0098(5) 0.0901(4) 0.0285(13) Uani d . 1 A . n
H2A 0.4665 0.062 0.0808 0.043 Uiso calc R 1 . . H
H2B 0.4583 -0.0616 0.1388 0.043 Uiso calc R 1 . . H
H2C 0.5457 -0.0427 0.0093 0.043 Uiso calc R 1 . . H
C4 0.3936(8) 0.1010(5) 0.5088(6) 0.0284(12) Uani d . 1 A . C
H4 0.289 0.1515 0.5179 0.034 Uiso calc R 1 . . H
C1 0.7013(9) -0.0408(6) 0.4798(6) 0.0308(13) Uani d . 1 . . C
H1 0.808 -0.0892 0.4702 0.037 Uiso calc R 1 A . H
O1 1.1037(8) -0.0548(6) -0.0050(6) 0.0395(16) Uani d P 0.783(7) A 1 O
N3 0.8057(8) -0.1725(6) 0.2119(6) 0.0331(16) Uani d . 1 A . n
H3A 0.8879 -0.191 0.2771 0.05 Uiso calc R 1 . . H
H3B 0.8423 -0.2063 0.1349 0.05 Uiso calc R 1 . . H
H3C 0.6937 -0.2021 0.2329 0.05 Uiso calc R 1 . . H
C2 0.6125(8) -0.0422(5) 0.6014(5) 0.0294(13) Uani d . 1 A . C
H2 0.6587 -0.0891 0.6732 0.035 Uiso calc R 1 . . H
S1A 0.8542(11) 0.0429(8) -0.0524(8) 0.032(3) Uiso d P 0.217(7) A 2 S
O1A 0.875(3) 0.162(2) -0.095(2) 0.038(6) Uiso d P 0.217(7) A 2 O
O2A 1.015(3) -0.0118(17) 0.044(2) 0.022(4) Uiso d P 0.217(7) A 2 O
N1 0.7677(8) 0.2182(6) 0.1828(5) 0.0322(15) Uani d . 1 A . n
H1A 0.8575 0.2487 0.1314 0.048 Uiso calc R 1 . . H
H1B 0.7801 0.2487 0.2657 0.048 Uiso calc R 1 . . H
H1C 0.6564 0.2393 0.1485 0.048 Uiso calc R 1 . . H
loop_
_atom_site_aniso_label
_atom_site_aniso_U_11
_atom_site_aniso_U_22
_atom_site_aniso_U_33
_atom_site_aniso_U_12
_atom_site_aniso_U_13
_atom_site_aniso_U_23
Ru01 0.02194(16) 0.02218(16) 0.01938(18) -0.0007(3) 0.00048(12) 0.0002(3)
Cl1 0.0528(8) 0.0346(7) 0.0319(7) 0.0021(13) 0.0151(6) 0.0020(10)
Cl3 0.0454(9) 0.0406(9) 0.0283(8) 0.0089(8) -0.0022(7) 0.0039(7)
Cl2 0.0408(9) 0.0420(9) 0.0341(8) -0.0122(7) 0.0011(7) -0.0093(7)
S1 0.0273(11) 0.0349(10) 0.0200(10) 0.0003(17) 0.0053(8) 0.0017(16)
N5 0.0188(17) 0.022(2) 0.026(2) 0.001(3) 0.0005(15) -0.001(4)
O3 0.044(3) 0.046(3) 0.063(3) -0.008(2) 0.005(3) 0.012(3)
C3 0.031(2) 0.025(3) 0.023(2) -0.002(4) 0.0060(19) -0.008(4)
C5 0.025(3) 0.023(3) 0.026(3) 0.000(2) -0.006(2) 0.002(2)
N4 0.022(2) 0.035(3) 0.028(2) -0.002(2) 0.0031(18) -0.0002(19)
O2 0.068(5) 0.040(4) 0.053(4) 0.012(4) 0.026(4) 0.019(4)
N2 0.025(2) 0.037(4) 0.023(2) 0.000(2) -0.0003(18) -0.0044(19)
C4 0.032(3) 0.027(3) 0.026(3) 0.001(2) 0.000(2) 0.000(2)
C1 0.031(3) 0.028(3) 0.033(3) 0.005(3) -0.008(3) 0.003(2)
O1 0.033(3) 0.046(4) 0.039(4) 0.012(3) 0.004(3) -0.010(3)
N3 0.045(4) 0.024(3) 0.030(3) 0.004(2) -0.001(3) 0.000(2)
C2 0.040(3) 0.029(3) 0.019(3) 0.002(3) 0.003(2) 0.003(2)
N1 0.043(4) 0.022(3) 0.032(4) 0.003(3) 0.005(3) 0.002(2)
loop_
_atom_type_symbol
_atom_type_description
_atom_type_scat_dispersion_real
_atom_type_scat_dispersion_imag
_atom_type_scat_source
C C 0.0033 0.0016 'International Tables Vol C Tables 4.2.6.8 and 6.1.1.4'
H H 0 0 'International Tables Vol C Tables 4.2.6.8 and 6.1.1.4'
N N 0.0061 0.0033 'International Tables Vol C Tables 4.2.6.8 and 6.1.1.4'
O O 0.0106 0.006 'International Tables Vol C Tables 4.2.6.8 and 6.1.1.4'
S S 0.1246 0.1234 'International Tables Vol C Tables 4.2.6.8 and 6.1.1.4'
Cl Cl 0.1484 0.1585 'International Tables Vol C Tables 4.2.6.8 and 6.1.1.4'
Ru Ru -1.2594 0.8363 'International Tables Vol C Tables 4.2.6.8 and 6.1.1.4'
loop_
_geom_angle_atom_site_label_1
_geom_angle_atom_site_label_2
_geom_angle_atom_site_label_3
_geom_angle
S1 Ru01 N3 92.8(2)
S1 Ru01 N4 91.66(13)
N3 Ru01 N4 92.9(2)
S1 Ru01 N1 91.4(2)
N3 Ru01 N1 175.7(2)
N4 Ru01 N1 85.8(2)
S1 Ru01 N2 93.38(13)
N3 Ru01 N2 86.6(2)
N4 Ru01 N2 174.95(17)
N1 Ru01 N2 94.4(2)
S1 Ru01 N5 178.8(3)
N3 Ru01 N5 87.9(3)
N4 Ru01 N5 87.27(16)
N1 Ru01 N5 87.9(3)
N2 Ru01 N5 87.70(16)
S1 Ru01 O2A 19.0(6)
N3 Ru01 O2A 82.6(5)
N4 Ru01 O2A 76.3(6)
N1 Ru01 O2A 101.1(5)
N2 Ru01 O2A 108.6(6)
N5 Ru01 O2A 160.5(6)
S1 Ru01 S1A 20.7(2)
N3 Ru01 S1A 100.8(3)
N4 Ru01 S1A 110.1(2)
N1 Ru01 S1A 83.6(2)
N2 Ru01 S1A 75.0(2)
N5 Ru01 S1A 160.0(2)
O2A Ru01 S1A 39.5(7)
O2 S1 O1 116.0(4)
O2 S1 Ru01 121.8(3)
O1 S1 Ru01 122.3(3)
C1 N5 C5 117.8(5)
C1 N5 Ru01 120.2(5)
C5 N5 Ru01 122.0(5)
C2 C3 C4 120.7(5)
C2 C3 Cl1 120.4(6)
C4 C3 Cl1 118.9(5)
N5 C5 C4 122.4(6)
N5 C5 H5 118.8
C4 C5 H5 118.8
Ru01 N4 H4A 109.5
Ru01 N4 H4B 109.5
H4A N4 H4B 109.5
Ru01 N4 H4C 109.5
H4A N4 H4C 109.5
H4B N4 H4C 109.5
Ru01 N2 H2A 109.5
Ru01 N2 H2B 109.5
H2A N2 H2B 109.5
Ru01 N2 H2C 109.5
H2A N2 H2C 109.5
H2B N2 H2C 109.5
C5 C4 C3 118.2(5)
C5 C4 H4 120.9
C3 C4 H4 120.9
N5 C1 C2 123.2(6)
N5 C1 H1 118.4
C2 C1 H1 118.4
Ru01 N3 H3A 109.5
Ru01 N3 H3B 109.5
H3A N3 H3B 109.5
Ru01 N3 H3C 109.5
H3A N3 H3C 109.5
H3B N3 H3C 109.5
C3 C2 C1 117.7(5)
C3 C2 H2 121.2
C1 C2 H2 121.2
O1A S1A O2A 116.9(13)
O1A S1A Ru01 114.7(10)
O2A S1A Ru01 61.5(7)
S1A O2A Ru01 79.0(9)
Ru01 N1 H1A 109.5
Ru01 N1 H1B 109.5
H1A N1 H1B 109.5
Ru01 N1 H1C 109.5
H1A N1 H1C 109.5
H1B N1 H1C 109.5
loop_
_geom_bond_atom_site_label_1
_geom_bond_atom_site_label_2
_geom_bond_distance
Ru01 S1 2.0847(17)
Ru01 N3 2.099(7)
Ru01 N4 2.126(4)
Ru01 N1 2.133(7)
Ru01 N2 2.135(4)
Ru01 N5 2.140(4)
Ru01 O2A 2.21(2)
Ru01 S1A 2.468(8)
Cl1 C3 1.739(5)
S1 O2 1.433(8)
S1 O1 1.434(7)
N5 C1 1.330(9)
N5 C5 1.347(9)
C3 C2 1.357(9)
C3 C4 1.374(9)
C5 C4 1.364(8)
C5 H5 0.93
N4 H4A 0.89
N4 H4B 0.89
N4 H4C 0.89
N2 H2A 0.89
N2 H2B 0.89
N2 H2C 0.89
C4 H4 0.93
C1 C2 1.374(8)
C1 H1 0.93
N3 H3A 0.89
N3 H3B 0.89
N3 H3C 0.89
C2 H2 0.93
S1A O1A 1.36(2)
S1A O2A 1.60(3)
N1 H1A 0.89
N1 H1B 0.89
N1 H1C 0.89
loop_
_geom_torsion_atom_site_label_1
_geom_torsion_atom_site_label_2
_geom_torsion_atom_site_label_3
_geom_torsion_atom_site_label_4
_geom_torsion
N3 Ru01 S1 O2 136.6(5)
N4 Ru01 S1 O2 -130.3(5)
N1 Ru01 S1 O2 -44.5(5)
N2 Ru01 S1 O2 49.9(5)
N5 Ru01 S1 O2 -99(15)
O2A Ru01 S1 O2 -166.0(16)
S1A Ru01 S1 O2 23.1(7)
N3 Ru01 S1 O1 -44.3(4)
N4 Ru01 S1 O1 48.7(4)
N1 Ru01 S1 O1 134.6(4)
N2 Ru01 S1 O1 -131.0(4)
N5 Ru01 S1 O1 80(15)
O2A Ru01 S1 O1 13.1(14)
S1A Ru01 S1 O1 -157.9(9)
S1 Ru01 N5 C1 -80(15)
N3 Ru01 N5 C1 44.1(7)
N4 Ru01 N5 C1 -48.9(7)
N1 Ru01 N5 C1 -134.8(7)
N2 Ru01 N5 C1 130.8(7)
O2A Ru01 N5 C1 -16.6(19)
S1A Ru01 N5 C1 160.5(6)
S1 Ru01 N5 C5 99(14)
N3 Ru01 N5 C5 -137.1(7)
N4 Ru01 N5 C5 129.8(7)
N1 Ru01 N5 C5 44.0(7)
N2 Ru01 N5 C5 -50.5(7)
O2A Ru01 N5 C5 162.2(14)
S1A Ru01 N5 C5 -20.7(15)
C1 N5 C5 C4 -2.1(12)
Ru01 N5 C5 C4 179.1(5)
N5 C5 C4 C3 -0.1(10)
C2 C3 C4 C5 2.9(11)
Cl1 C3 C4 C5 -177.3(5)
C5 N5 C1 C2 1.6(12)
Ru01 N5 C1 C2 -179.6(5)
C4 C3 C2 C1 -3.4(11)
Cl1 C3 C2 C1 176.8(5)
N5 C1 C2 C3 1.1(10)
S1 Ru01 S1A O1A -103.9(14)
N3 Ru01 S1A O1A -172.6(12)
N4 Ru01 S1A O1A -75.4(12)
N1 Ru01 S1A O1A 7.7(12)
N2 Ru01 S1A O1A 104.0(12)
N5 Ru01 S1A O1A 73.1(16)
O2A Ru01 S1A O1A -108.5(14)
S1 Ru01 S1A O2A 4.6(9)
N3 Ru01 S1A O2A -64.1(8)
N4 Ru01 S1A O2A 33.1(8)
N1 Ru01 S1A O2A 116.2(8)
N2 Ru01 S1A O2A -147.6(8)
N5 Ru01 S1A O2A -178.5(11)
O1A S1A O2A Ru01 105.0(12)
S1 Ru01 O2A S1A -5.0(9)
N3 Ru01 O2A S1A 117.0(7)
N4 Ru01 O2A S1A -148.2(7)
N1 Ru01 O2A S1A -65.3(7)
N2 Ru01 O2A S1A 33.1(7)
N5 Ru01 O2A S1A 178.4(11)
