#------------------------------------------------------------------------------
#$Date: 2016-03-22 12:34:31 +0200 (Tue, 22 Mar 2016) $
#$Revision: 178954 $
#$URL: svn://www.crystallography.net/cod/cif/4/11/83/4118335.cif $
#------------------------------------------------------------------------------
#
# This file is available in the Crystallography Open Database (COD),
# http://www.crystallography.net/
#
# All data on this site have been placed in the public domain by the
# contributors.
#
data_4118335
loop_
_publ_author_name
'Sven O. Sylvester'
'Jacqueline M. Cole'
'Paul G. Waddell'
_publ_section_title
;
 Photoconversion Bonding Mechanism in Ruthenium Sulfur Dioxide Linkage
 Photoisomers Revealed by in Situ Diffraction
;
_journal_name_full               'Journal of the American Chemical Society'
_journal_page_first              11860
_journal_page_last               11863
_journal_paper_doi               10.1021/ja303943q
_journal_volume                  134
_journal_year                    2012
_chemical_absolute_configuration unk
_chemical_formula_moiety         'C5 H18 Cl3 N5 O3 Ru1 S1'
_chemical_formula_sum            'C5 H18 Cl3 N5 O3 Ru S'
_chemical_formula_weight         435.72
_chemical_name_systematic
;
 ?
;
_space_group_IT_number           4
_symmetry_cell_setting           monoclinic
_symmetry_space_group_name_Hall  'P 2yb'
_symmetry_space_group_name_H-M   'P 1 21 1'
_atom_sites_solution_hydrogens   geom
_atom_sites_solution_primary     direct
_atom_sites_solution_secondary   difmap
_cell_angle_alpha                90
_cell_angle_beta                 91.327(5)
_cell_angle_gamma                90
_cell_formula_units_Z            2
_cell_length_a                   7.157(2)
_cell_length_b                   10.694(3)
_cell_length_c                   9.972(3)
_cell_measurement_reflns_used    3400
_cell_measurement_temperature    293(2)
_cell_measurement_theta_max      33
_cell_measurement_theta_min      2
_cell_volume                     763.0(4)
_computing_cell_refinement
;
        CrystalClear-SM Expert 2.0 r4 (Rigaku, 2009)
;
_computing_data_collection
;
        CrystalClear-SM Expert 2.0 r4 (Rigaku, 2009)
;
_computing_data_reduction
;
        CrystalClear-SM Expert 2.0 r4 (Rigaku, 2009)
;
_computing_molecular_graphics    'Ortep-3 for Windows (Farrugia, 1997)'
_computing_publication_material  'WinGX publication routines (Farrugia, 1999)'
_computing_structure_refinement  'SHELXL-97 (Sheldrick, 2008)'
_diffrn_ambient_temperature      293(2)
_diffrn_detector_area_resol_mean 28.5714
_diffrn_measured_fraction_theta_full 0.978
_diffrn_measured_fraction_theta_max 0.859
_diffrn_measurement_device_type
;
        Rigaku Saturn724+ (2x2 bin mode)
;
_diffrn_measurement_method       'profile data from \w-scans'
_diffrn_radiation_monochromator  graphite
_diffrn_radiation_type           MoK\a
_diffrn_radiation_wavelength     0.71073
_diffrn_reflns_av_R_equivalents  0.0491
_diffrn_reflns_av_unetI/netI     0.0747
_diffrn_reflns_limit_h_max       10
_diffrn_reflns_limit_h_min       -9
_diffrn_reflns_limit_k_max       15
_diffrn_reflns_limit_k_min       -6
_diffrn_reflns_limit_l_max       13
_diffrn_reflns_limit_l_min       -14
_diffrn_reflns_number            5133
_diffrn_reflns_theta_full        27.5
_diffrn_reflns_theta_max         33.12
_diffrn_reflns_theta_min         3.43
_diffrn_source                   'Sealed Tube'
_exptl_absorpt_coefficient_mu    1.696
_exptl_absorpt_correction_T_max  1
_exptl_absorpt_correction_T_min  0.624
_exptl_absorpt_correction_type   multi-scan
_exptl_crystal_colour            Colorless
_exptl_crystal_density_diffrn    1.896
_exptl_crystal_description       Prism
_exptl_crystal_F_000             436
_exptl_crystal_size_max          0.2
_exptl_crystal_size_mid          0.2
_exptl_crystal_size_min          0.2
_refine_diff_density_max         0.969
_refine_diff_density_min         -0.735
_refine_diff_density_rms         0.123
_refine_ls_abs_structure_details 'Flack H D (1983), Acta Cryst. A39, 876-881'
_refine_ls_abs_structure_Flack   0.60(7)
_refine_ls_extinction_method     none
_refine_ls_goodness_of_fit_ref   0.983
_refine_ls_hydrogen_treatment    constr
_refine_ls_matrix_type           full
_refine_ls_number_parameters     181
_refine_ls_number_reflns         2940
_refine_ls_number_restraints     1
_refine_ls_restrained_S_all      0.983
_refine_ls_R_factor_all          0.0422
_refine_ls_R_factor_gt           0.0384
_refine_ls_shift/su_max          0.001
_refine_ls_shift/su_mean         0
_refine_ls_structure_factor_coef Fsqd
_refine_ls_weighting_details
'calc w=1/[\s^2^(Fo^2^)+(0.0170P)^2^+0.0000P] where P=(Fo^2^+2Fc^2^)/3'
_refine_ls_weighting_scheme      calc
_refine_ls_wR_factor_ref         0.0794
_reflns_number_gt                2700
_reflns_number_total             2940
_reflns_threshold_expression     >2\s(I)
_cod_data_source_file            ja303943q_si_002_53.cif
_cod_data_source_block           4-cl-pyr-light-8
_cod_database_code               4118335
loop_
_symmetry_equiv_pos_as_xyz
'x, y, z'
'-x, y+1/2, -z'
loop_
_atom_site_label
_atom_site_fract_x
_atom_site_fract_y
_atom_site_fract_z
_atom_site_U_iso_or_equiv
_atom_site_adp_type
_atom_site_calc_flag
_atom_site_refinement_flags
_atom_site_occupancy
_atom_site_disorder_assembly
_atom_site_disorder_group
_atom_site_type_symbol
Ru01 0.21167(4) 0.10363(4) 0.80997(3) 0.01803(9) Uani d . 1 . . Ru
Cl1 0.66888(18) 0.1013(2) 0.24126(12) 0.0346(3) Uani d . 1 . . Cl
Cl3 0.1101(2) -0.15217(17) 0.48881(14) 0.0345(3) Uani d . 1 . . Cl
Cl2 0.72884(19) -0.12916(16) 0.89388(13) 0.0312(3) Uani d . 1 . . Cl
S1 0.06279(17) 0.1063(3) 0.98907(12) 0.0233(4) Uani d P 0.934(6) A 1 S
N5 0.3580(5) 0.1000(8) 0.6259(3) 0.0202(7) Uani d . 1 A . n
O2 0.1185(8) 0.0322(6) 1.1048(5) 0.0444(14) Uani d P 0.934(6) A 1 O
O3 0.6275(6) 0.3436(5) 0.7536(5) 0.0453(11) Uani d . 1 . . O
C3 0.5434(6) 0.0983(8) 0.3877(4) 0.0236(9) Uani d . 1 . . C
O1 -0.1056(6) 0.1785(5) 1.0032(4) 0.0333(11) Uani d P 0.934(6) A 1 O
C1 0.5099(7) 0.0273(5) 0.6100(5) 0.0224(10) Uani d . 1 . . C
H1 0.551 -0.0223 0.6814 0.027 Uiso calc R 1 A . H
N3 0.2394(7) -0.0951(6) 0.8174(5) 0.0282(12) Uani d . 1 A . n
H3A 0.3519 -0.1149 0.8509 0.042 Uiso calc R 1 . . H
H3B 0.2261 -0.1263 0.735 0.042 Uiso calc R 1 . . H
H3C 0.1519 -0.1268 0.8695 0.042 Uiso calc R 1 . . H
N4 -0.0367(6) 0.0731(4) 0.6938(4) 0.0258(10) Uani d . 1 A . n
H4A -0.1158 0.0271 0.7406 0.039 Uiso calc R 1 . . H
H4B -0.0089 0.0331 0.6186 0.039 Uiso calc R 1 . . H
H4C -0.0894 0.1463 0.6736 0.039 Uiso calc R 1 . . H
C4 0.2964(8) 0.1674(5) 0.5201(5) 0.0259(11) Uani d . 1 . . C
H4 0.1888 0.2152 0.5287 0.031 Uiso calc R 1 A . H
N2 0.4738(6) 0.1345(4) 0.9121(4) 0.0253(10) Uani d . 1 A . n
H2A 0.5282 0.0613 0.9298 0.038 Uiso calc R 1 . . H
H2B 0.4548 0.1751 0.9885 0.038 Uiso calc R 1 . . H
H2C 0.5474 0.18 0.8604 0.038 Uiso calc R 1 . . H
C2 0.6068(7) 0.0239(5) 0.4920(5) 0.0243(10) Uani d . 1 A . C
H2 0.7113 -0.0269 0.4832 0.029 Uiso calc R 1 . . H
N1 0.1926(7) 0.2999(5) 0.7874(5) 0.0271(11) Uani d . 1 A . n
H1A 0.3022 0.3299 0.7621 0.041 Uiso calc R 1 . . H
H1B 0.1623 0.3342 0.8653 0.041 Uiso calc R 1 . . H
H1C 0.1053 0.3181 0.7255 0.041 Uiso calc R 1 . . H
C5 0.3866(8) 0.1687(5) 0.3986(5) 0.0285(11) Uani d . 1 A . C
H5 0.3412 0.2162 0.3269 0.034 Uiso calc R 1 . . H
S1A 0.142(3) 0.080(2) 1.056(3) 0.030(7) Uiso d P 0.066(6) A 2 S
O1A -0.026(8) 0.143(4) 0.955(5) 0.012(10) Uiso d P 0.066(6) A 2 O
O2A 0.121(11) -0.030(7) 1.098(7) 0.034(18) Uiso d P 0.066(6) A 2 O
loop_
_atom_site_aniso_label
_atom_site_aniso_U_11
_atom_site_aniso_U_22
_atom_site_aniso_U_33
_atom_site_aniso_U_12
_atom_site_aniso_U_13
_atom_site_aniso_U_23
Ru01 0.01869(16) 0.01914(14) 0.01631(16) -0.00039(18) 0.00190(11) 0.0001(2)
Cl1 0.0461(7) 0.0311(6) 0.0273(6) 0.0033(9) 0.0152(5) 0.0018(7)
Cl3 0.0350(7) 0.0374(7) 0.0313(7) -0.0101(6) 0.0016(6) -0.0093(6)
Cl2 0.0356(7) 0.0324(7) 0.0254(6) 0.0045(6) -0.0017(5) 0.0043(5)
S1 0.0246(7) 0.0279(6) 0.0178(6) 0.0010(10) 0.0056(5) -0.0004(10)
N5 0.0178(15) 0.0202(17) 0.0225(17) -0.003(3) 0.0014(13) 0.001(3)
O2 0.052(3) 0.050(4) 0.031(3) 0.012(3) 0.011(2) 0.019(3)
O3 0.043(3) 0.043(3) 0.049(3) -0.011(2) 0.003(2) 0.010(2)
C3 0.029(2) 0.019(2) 0.023(2) -0.008(3) 0.0066(17) -0.006(3)
O1 0.029(2) 0.041(3) 0.030(2) 0.007(2) 0.0071(19) -0.0056(19)
C1 0.022(2) 0.025(2) 0.021(2) 0.0009(19) -0.0009(19) 0.0009(18)
N3 0.032(3) 0.025(3) 0.028(3) 0.000(2) 0.004(2) 0.0012(18)
N4 0.0224(19) 0.031(3) 0.024(2) -0.0030(17) -0.0015(16) 0.0017(16)
C4 0.030(3) 0.022(2) 0.026(3) 0.006(2) 0.001(2) 0.0021(19)
N2 0.0227(19) 0.031(3) 0.022(2) -0.0002(17) 0.0005(16) -0.0004(16)
C2 0.027(3) 0.029(3) 0.018(2) 0.000(2) 0.005(2) 0.0028(19)
N1 0.037(3) 0.021(2) 0.024(2) 0.0037(19) 0.001(2) -0.0017(19)
C5 0.038(3) 0.029(3) 0.018(2) 0.005(2) 0.003(2) 0.006(2)
loop_
_atom_type_symbol
_atom_type_description
_atom_type_scat_dispersion_real
_atom_type_scat_dispersion_imag
_atom_type_scat_source
C C 0.0033 0.0016 'International Tables Vol C Tables 4.2.6.8 and 6.1.1.4'
H H 0 0 'International Tables Vol C Tables 4.2.6.8 and 6.1.1.4'
N N 0.0061 0.0033 'International Tables Vol C Tables 4.2.6.8 and 6.1.1.4'
O O 0.0106 0.006 'International Tables Vol C Tables 4.2.6.8 and 6.1.1.4'
S S 0.1246 0.1234 'International Tables Vol C Tables 4.2.6.8 and 6.1.1.4'
Cl Cl 0.1484 0.1585 'International Tables Vol C Tables 4.2.6.8 and 6.1.1.4'
Ru Ru -1.2594 0.8363 'International Tables Vol C Tables 4.2.6.8 and 6.1.1.4'
loop_
_geom_angle_atom_site_label_1
_geom_angle_atom_site_label_2
_geom_angle_atom_site_label_3
_geom_angle
S1 Ru01 N1 92.52(16)
S1 Ru01 N4 91.79(12)
N1 Ru01 N4 92.50(19)
S1 Ru01 N5 178.88(12)
N1 Ru01 N5 87.6(3)
N4 Ru01 N5 87.10(15)
S1 Ru01 N3 91.88(15)
N1 Ru01 N3 175.55(17)
N4 Ru01 N3 86.67(19)
N5 Ru01 N3 88.0(3)
S1 Ru01 N2 92.84(13)
N1 Ru01 N2 87.19(18)
N4 Ru01 N2 175.37(17)
N5 Ru01 N2 88.27(15)
N3 Ru01 N2 93.28(19)
S1 Ru01 O1A 20.8(13)
N1 Ru01 O1A 80.6(12)
N4 Ru01 O1A 75.5(13)
N5 Ru01 O1A 158.4(13)
N3 Ru01 O1A 103.4(12)
N2 Ru01 O1A 109.0(13)
S1 Ru01 S1A 20.1(5)
N1 Ru01 S1A 101.0(5)
N4 Ru01 S1A 109.4(6)
N5 Ru01 S1A 160.8(6)
N3 Ru01 S1A 83.4(5)
N2 Ru01 S1A 75.2(6)
O1A Ru01 S1A 40.8(15)
O1 S1 O2 115.5(3)
O1 S1 Ru01 122.2(2)
O2 S1 Ru01 122.3(3)
C4 N5 C1 117.8(4)
C4 N5 Ru01 120.5(4)
C1 N5 Ru01 121.6(4)
C5 C3 C2 121.2(4)
C5 C3 Cl1 120.2(5)
C2 C3 Cl1 118.6(5)
N5 C1 C2 122.5(5)
N5 C1 H1 118.7
C2 C1 H1 118.7
Ru01 N3 H3A 109.5
Ru01 N3 H3B 109.5
H3A N3 H3B 109.5
Ru01 N3 H3C 109.5
H3A N3 H3C 109.5
H3B N3 H3C 109.5
Ru01 N4 H4A 109.5
Ru01 N4 H4B 109.5
H4A N4 H4B 109.5
Ru01 N4 H4C 109.5
H4A N4 H4C 109.5
H4B N4 H4C 109.5
N5 C4 C5 122.7(5)
N5 C4 H4 118.6
C5 C4 H4 118.6
Ru01 N2 H2A 109.5
Ru01 N2 H2B 109.5
H2A N2 H2B 109.5
Ru01 N2 H2C 109.5
H2A N2 H2C 109.5
H2B N2 H2C 109.5
C3 C2 C1 117.7(5)
C3 C2 H2 121.2
C1 C2 H2 121.2
Ru01 N1 H1A 109.5
Ru01 N1 H1B 109.5
H1A N1 H1B 109.5
Ru01 N1 H1C 109.5
H1A N1 H1C 109.5
H1B N1 H1C 109.5
C3 C5 C4 117.9(5)
C3 C5 H5 121.1
C4 C5 H5 121.1
O2A S1A O1A 119(4)
O2A S1A Ru01 116(4)
O1A S1A Ru01 62.4(19)
S1A O1A Ru01 77(2)
loop_
_geom_bond_atom_site_label_1
_geom_bond_atom_site_label_2
_geom_bond_distance
Ru01 S1 2.1010(13)
Ru01 N1 2.115(6)
Ru01 N4 2.124(4)
Ru01 N5 2.134(4)
Ru01 N3 2.135(6)
Ru01 N2 2.139(4)
Ru01 O1A 2.30(5)
Ru01 S1A 2.52(3)
Cl1 C3 1.733(5)
S1 O1 1.440(5)
S1 O2 1.448(6)
N5 C4 1.344(7)
N5 C1 1.349(8)
C3 C5 1.357(8)
C3 C2 1.378(8)
C1 C2 1.380(7)
C1 H1 0.93
N3 H3A 0.89
N3 H3B 0.89
N3 H3C 0.89
N4 H4A 0.89
N4 H4B 0.89
N4 H4C 0.89
C4 C5 1.385(7)
C4 H4 0.93
N2 H2A 0.89
N2 H2B 0.89
N2 H2C 0.89
C2 H2 0.93
N1 H1A 0.89
N1 H1B 0.89
N1 H1C 0.89
C5 H5 0.93
S1A O2A 1.26(7)
S1A O1A 1.69(6)
loop_
_geom_torsion_atom_site_label_1
_geom_torsion_atom_site_label_2
_geom_torsion_atom_site_label_3
_geom_torsion_atom_site_label_4
_geom_torsion
N1 Ru01 S1 O1 45.1(3)
N4 Ru01 S1 O1 -47.4(3)
N5 Ru01 S1 O1 -52(15)
N3 Ru01 S1 O1 -134.2(3)
N2 Ru01 S1 O1 132.5(3)
O1A Ru01 S1 O1 -10(3)
S1A Ru01 S1 O1 160.9(16)
N1 Ru01 S1 O2 -137.2(4)
N4 Ru01 S1 O2 130.2(4)
N5 Ru01 S1 O2 126(14)
N3 Ru01 S1 O2 43.4(4)
N2 Ru01 S1 O2 -49.9(4)
O1A Ru01 S1 O2 168(3)
S1A Ru01 S1 O2 -21.5(15)
S1 Ru01 N5 C4 52(15)
N1 Ru01 N5 C4 -44.5(6)
N4 Ru01 N5 C4 48.1(5)
N3 Ru01 N5 C4 134.9(6)
N2 Ru01 N5 C4 -131.8(6)
O1A Ru01 N5 C4 12(3)
S1A Ru01 N5 C4 -161.9(16)
S1 Ru01 N5 C1 -125(14)
N1 Ru01 N5 C1 137.9(6)
N4 Ru01 N5 C1 -129.5(6)
N3 Ru01 N5 C1 -42.7(5)
N2 Ru01 N5 C1 50.6(5)
O1A Ru01 N5 C1 -165(3)
S1A Ru01 N5 C1 20.5(19)
C4 N5 C1 C2 2.5(10)
Ru01 N5 C1 C2 -179.8(4)
C1 N5 C4 C5 -2.6(10)
Ru01 N5 C4 C5 179.8(4)
C5 C3 C2 C1 -2.7(9)
Cl1 C3 C2 C1 177.0(4)
N5 C1 C2 C3 0.0(8)
C2 C3 C5 C4 2.7(10)
Cl1 C3 C5 C4 -177.0(5)
N5 C4 C5 C3 0.0(9)
S1 Ru01 S1A O2A 105(5)
N1 Ru01 S1A O2A 172(4)
N4 Ru01 S1A O2A 75(4)
N5 Ru01 S1A O2A -73(5)
N3 Ru01 S1A O2A -9(4)
N2 Ru01 S1A O2A -104(4)
O1A Ru01 S1A O2A 111(5)
S1 Ru01 S1A O1A -5.2(19)
N1 Ru01 S1A O1A 61.3(18)
N4 Ru01 S1A O1A -35.4(19)
N5 Ru01 S1A O1A 177(2)
N3 Ru01 S1A O1A -119.5(18)
N2 Ru01 S1A O1A 145.4(18)
O2A S1A O1A Ru01 -107(4)
S1 Ru01 O1A S1A 5.0(19)
N1 Ru01 O1A S1A -119.2(16)
N4 Ru01 O1A S1A 145.7(17)
N5 Ru01 O1A S1A -177.0(18)
N3 Ru01 O1A S1A 62.8(17)
N2 Ru01 O1A S1A -35.5(18)
