#------------------------------------------------------------------------------
#$Date: 2016-03-22 12:34:31 +0200 (Tue, 22 Mar 2016) $
#$Revision: 178954 $
#$URL: svn://www.crystallography.net/cod/cif/4/11/83/4118327.cif $
#------------------------------------------------------------------------------
#
# This file is available in the Crystallography Open Database (COD),
# http://www.crystallography.net/
#
# All data on this site have been placed in the public domain by the
# contributors.
#
data_4118327
loop_
_publ_author_name
'Sven O. Sylvester'
'Jacqueline M. Cole'
'Paul G. Waddell'
_publ_section_title
;
 Photoconversion Bonding Mechanism in Ruthenium Sulfur Dioxide Linkage
 Photoisomers Revealed by in Situ Diffraction
;
_journal_name_full               'Journal of the American Chemical Society'
_journal_page_first              11860
_journal_page_last               11863
_journal_paper_doi               10.1021/ja303943q
_journal_volume                  134
_journal_year                    2012
_chemical_absolute_configuration unk
_chemical_formula_moiety         'C5 H18 Cl3 N5 O3 Ru1 S1'
_chemical_formula_sum            'C5 H18 Cl3 N5 O3 Ru S'
_chemical_formula_weight         435.72
_chemical_name_systematic
;
 ?
;
_space_group_IT_number           4
_symmetry_cell_setting           monoclinic
_symmetry_space_group_name_Hall  'P 2yb'
_symmetry_space_group_name_H-M   'P 1 21 1'
_atom_sites_solution_hydrogens   geom
_atom_sites_solution_primary     direct
_atom_sites_solution_secondary   difmap
_cell_angle_alpha                90
_cell_angle_beta                 90.921(3)
_cell_angle_gamma                90
_cell_formula_units_Z            2
_cell_length_a                   7.1389(17)
_cell_length_b                   10.738(3)
_cell_length_c                   9.936(2)
_cell_measurement_reflns_used    3213
_cell_measurement_temperature    293(2)
_cell_measurement_theta_max      32.9
_cell_measurement_theta_min      2
_cell_volume                     761.6(3)
_computing_cell_refinement
;
        CrystalClear-SM Expert 2.0 r4 (Rigaku, 2009)
;
_computing_data_collection
;
        CrystalClear-SM Expert 2.0 r4 (Rigaku, 2009)
;
_computing_data_reduction
;
        CrystalClear-SM Expert 2.0 r4 (Rigaku, 2009)
;
_computing_molecular_graphics    'Ortep-3 for Windows (Farrugia, 1997)'
_computing_publication_material  'WinGX publication routines (Farrugia, 1999)'
_computing_structure_refinement  'SHELXL-97 (Sheldrick, 2008)'
_diffrn_ambient_temperature      293(2)
_diffrn_detector_area_resol_mean 28.5714
_diffrn_measured_fraction_theta_full 0.979
_diffrn_measured_fraction_theta_max 0.871
_diffrn_measurement_device_type
;
        Rigaku Saturn724+ (2x2 bin mode)
;
_diffrn_measurement_method       'profile data from \w-scans'
_diffrn_radiation_monochromator  graphite
_diffrn_radiation_type           MoK\a
_diffrn_radiation_wavelength     0.71073
_diffrn_reflns_av_R_equivalents  0.0518
_diffrn_reflns_av_unetI/netI     0.0917
_diffrn_reflns_limit_h_max       10
_diffrn_reflns_limit_h_min       -9
_diffrn_reflns_limit_k_max       16
_diffrn_reflns_limit_k_min       -6
_diffrn_reflns_limit_l_max       13
_diffrn_reflns_limit_l_min       -14
_diffrn_reflns_number            5109
_diffrn_reflns_theta_full        27.5
_diffrn_reflns_theta_max         33.01
_diffrn_reflns_theta_min         3.43
_diffrn_source                   'Sealed Tube'
_exptl_absorpt_coefficient_mu    1.699
_exptl_absorpt_correction_T_max  1
_exptl_absorpt_correction_T_min  0.62
_exptl_absorpt_correction_type   multi-scan
_exptl_crystal_colour            Colorless
_exptl_crystal_density_diffrn    1.9
_exptl_crystal_description       Prism
_exptl_crystal_F_000             436
_exptl_crystal_size_max          0.2
_exptl_crystal_size_mid          0.2
_exptl_crystal_size_min          0.2
_refine_diff_density_max         0.954
_refine_diff_density_min         -1.006
_refine_diff_density_rms         0.129
_refine_ls_abs_structure_details 'Flack H D (1983), Acta Cryst. A39, 876-881'
_refine_ls_abs_structure_Flack   0.57(8)
_refine_ls_extinction_method     none
_refine_ls_goodness_of_fit_ref   0.895
_refine_ls_hydrogen_treatment    constr
_refine_ls_matrix_type           full
_refine_ls_number_parameters     181
_refine_ls_number_reflns         2936
_refine_ls_number_restraints     1
_refine_ls_restrained_S_all      0.895
_refine_ls_R_factor_all          0.0472
_refine_ls_R_factor_gt           0.0374
_refine_ls_shift/su_max          0.001
_refine_ls_shift/su_mean         0
_refine_ls_structure_factor_coef Fsqd
_refine_ls_weighting_details
'calc w=1/[\s^2^(Fo^2^)+(0.0186P)^2^+0.0000P] where P=(Fo^2^+2Fc^2^)/3'
_refine_ls_weighting_scheme      calc
_refine_ls_wR_factor_ref         0.0744
_reflns_number_gt                2430
_reflns_number_total             2936
_reflns_threshold_expression     >2\s(I)
_cod_data_source_file            ja303943q_si_002_45.cif
_cod_data_source_block           4-cl-pyr-light-150k-1
_cod_database_code               4118327
loop_
_symmetry_equiv_pos_as_xyz
'x, y, z'
'-x, y+1/2, -z'
loop_
_atom_site_label
_atom_site_fract_x
_atom_site_fract_y
_atom_site_fract_z
_atom_site_U_iso_or_equiv
_atom_site_adp_type
_atom_site_calc_flag
_atom_site_refinement_flags
_atom_site_occupancy
_atom_site_disorder_assembly
_atom_site_disorder_group
_atom_site_type_symbol
Ru01 0.21043(5) 0.17546(5) 0.81027(3) 0.01836(9) Uani d . 1 . . Ru
Cl3 0.67193(19) 0.1723(2) 0.23885(12) 0.0328(3) Uani d . 1 . . Cl
Cl1 0.7217(2) -0.05686(17) 0.89376(14) 0.0336(3) Uani d . 1 . . Cl
Cl2 0.1061(2) -0.07989(17) 0.49001(15) 0.0317(3) Uani d . 1 . . Cl
S1 0.0623(3) 0.1792(4) 0.98909(16) 0.0222(6) Uani d P 0.753(7) A 1 S
N5 0.3579(5) 0.1711(9) 0.6260(4) 0.0211(8) Uani d . 1 A . n
N1 0.2356(8) -0.0229(6) 0.8166(5) 0.0286(13) Uani d . 1 A . n
H1A 0.2165 -0.0539 0.7345 0.043 Uiso calc R 1 . . H
H1B 0.1509 -0.0539 0.8722 0.043 Uiso calc R 1 . . H
H1C 0.35 -0.0435 0.8459 0.043 Uiso calc R 1 . . H
O3 0.6247(6) 0.4138(5) 0.7498(5) 0.0434(12) Uani d . 1 . . O
N4 -0.0378(6) 0.1449(4) 0.6943(4) 0.0245(11) Uani d . 1 A . n
H4A -0.0167 0.0867 0.6326 0.037 Uiso calc R 1 . . H
H4B -0.0718 0.2155 0.6538 0.037 Uiso calc R 1 . . H
H4C -0.1289 0.1198 0.748 0.037 Uiso calc R 1 . . H
O1 0.1177(11) 0.1042(7) 1.1052(7) 0.0474(18) Uani d P 0.753(7) A 1 O
C3 0.5468(6) 0.1711(10) 0.3850(5) 0.0243(10) Uani d . 1 . . C
O2 -0.1039(8) 0.2516(6) 1.0043(6) 0.0313(15) Uani d P 0.753(7) A 1 O
C1 0.5086(8) 0.0981(5) 0.6081(5) 0.0216(11) Uani d . 1 . . C
H1 0.5474 0.0468 0.6786 0.026 Uiso calc R 1 A . H
N2 0.4732(6) 0.2079(5) 0.9097(4) 0.0243(11) Uani d . 1 A . n
H2A 0.5446 0.2553 0.858 0.036 Uiso calc R 1 . . H
H2B 0.5304 0.1355 0.925 0.036 Uiso calc R 1 . . H
H2C 0.4542 0.2464 0.9876 0.036 Uiso calc R 1 . . H
C2 0.6071(8) 0.0955(5) 0.4923(5) 0.0257(12) Uani d . 1 A . C
H2 0.712 0.0447 0.4843 0.031 Uiso calc R 1 . . H
C4 0.3871(8) 0.2407(6) 0.3982(5) 0.0280(12) Uani d . 1 A . C
H4 0.341 0.2887 0.3271 0.034 Uiso calc R 1 . . H
C5 0.2968(8) 0.2378(5) 0.5194(6) 0.0246(11) Uani d . 1 . . C
H5 0.1879 0.2844 0.5281 0.029 Uiso calc R 1 A . H
N3 0.1925(8) 0.3698(6) 0.7878(5) 0.0251(12) Uani d . 1 A . n
H3A 0.3051 0.4003 0.769 0.038 Uiso calc R 1 . . H
H3B 0.1524 0.4035 0.864 0.038 Uiso calc R 1 . . H
H3C 0.1126 0.388 0.721 0.038 Uiso calc R 1 . . H
S1A 0.1479(10) 0.1525(7) 1.0536(7) 0.031(2) Uiso d P 0.247(7) A 2 S
O2A 0.125(3) 0.031(2) 1.0952(19) 0.035(5) Uiso d P 0.247(7) A 2 O
O1A -0.012(3) 0.2109(17) 0.9599(19) 0.027(4) Uiso d P 0.247(7) A 2 O
loop_
_atom_site_aniso_label
_atom_site_aniso_U_11
_atom_site_aniso_U_22
_atom_site_aniso_U_33
_atom_site_aniso_U_12
_atom_site_aniso_U_13
_atom_site_aniso_U_23
Ru01 0.01954(17) 0.01851(16) 0.01704(17) -0.0009(2) 0.00063(12) 0.0002(2)
Cl3 0.0434(7) 0.0274(6) 0.0280(6) 0.0007(10) 0.0111(5) 0.0012(8)
Cl1 0.0420(9) 0.0355(8) 0.0232(7) 0.0073(7) -0.0013(6) 0.0035(6)
Cl2 0.0328(7) 0.0336(8) 0.0287(7) -0.0088(7) 0.0008(6) -0.0069(6)
S1 0.0229(10) 0.0273(10) 0.0166(9) -0.0003(14) 0.0044(7) -0.0019(14)
N5 0.0170(16) 0.019(2) 0.0268(19) -0.002(3) -0.0031(14) -0.003(4)
N1 0.037(3) 0.017(3) 0.031(3) 0.002(2) 0.001(2) 0.002(2)
O3 0.035(3) 0.046(3) 0.050(3) -0.004(2) 0.013(2) 0.011(2)
N4 0.019(2) 0.027(3) 0.027(2) -0.0004(18) -0.0024(17) 0.0006(17)
O1 0.064(5) 0.029(4) 0.050(4) 0.007(3) 0.023(3) 0.019(3)
C3 0.026(2) 0.022(2) 0.025(2) -0.005(4) 0.0035(18) 0.000(4)
O2 0.025(3) 0.040(3) 0.029(3) 0.005(3) 0.008(2) -0.001(3)
C1 0.025(3) 0.019(3) 0.021(3) 0.002(2) -0.004(2) -0.0014(19)
N2 0.021(2) 0.031(3) 0.021(2) -0.0004(18) 0.0035(17) -0.0003(17)
C2 0.029(3) 0.022(3) 0.025(3) 0.001(2) -0.002(2) -0.001(2)
C4 0.035(3) 0.026(3) 0.022(3) 0.003(3) -0.004(2) 0.002(2)
C5 0.022(3) 0.024(3) 0.028(3) 0.003(2) -0.001(2) 0.002(2)
N3 0.029(3) 0.022(3) 0.024(2) 0.001(2) 0.002(2) -0.004(2)
loop_
_atom_type_symbol
_atom_type_description
_atom_type_scat_dispersion_real
_atom_type_scat_dispersion_imag
_atom_type_scat_source
C C 0.0033 0.0016 'International Tables Vol C Tables 4.2.6.8 and 6.1.1.4'
H H 0 0 'International Tables Vol C Tables 4.2.6.8 and 6.1.1.4'
N N 0.0061 0.0033 'International Tables Vol C Tables 4.2.6.8 and 6.1.1.4'
O O 0.0106 0.006 'International Tables Vol C Tables 4.2.6.8 and 6.1.1.4'
S S 0.1246 0.1234 'International Tables Vol C Tables 4.2.6.8 and 6.1.1.4'
Cl Cl 0.1484 0.1585 'International Tables Vol C Tables 4.2.6.8 and 6.1.1.4'
Ru Ru -1.2594 0.8363 'International Tables Vol C Tables 4.2.6.8 and 6.1.1.4'
loop_
_geom_angle_atom_site_label_1
_geom_angle_atom_site_label_2
_geom_angle_atom_site_label_3
_geom_angle
S1 Ru01 N3 92.31(19)
S1 Ru01 N4 92.02(13)
N3 Ru01 N4 92.7(2)
S1 Ru01 N5 179.14(14)
N3 Ru01 N5 87.7(3)
N4 Ru01 N5 87.13(16)
S1 Ru01 N2 93.23(13)
N3 Ru01 N2 86.5(2)
N4 Ru01 N2 174.72(18)
N5 Ru01 N2 87.63(16)
S1 Ru01 N1 92.17(19)
N3 Ru01 N1 175.40(19)
N4 Ru01 N1 86.1(2)
N5 Ru01 N1 87.8(3)
N2 Ru01 N1 94.4(2)
S1 Ru01 O1A 18.0(5)
N3 Ru01 O1A 81.9(5)
N4 Ru01 O1A 78.0(5)
N5 Ru01 O1A 161.3(6)
N2 Ru01 O1A 107.0(5)
N1 Ru01 O1A 102.2(5)
S1 Ru01 S1A 21.19(17)
N3 Ru01 S1A 101.0(2)
N4 Ru01 S1A 110.6(2)
N5 Ru01 S1A 159.6(2)
N2 Ru01 S1A 74.7(2)
N1 Ru01 S1A 83.6(2)
O1A Ru01 S1A 39.0(6)
O2 S1 O1 115.6(4)
O2 S1 Ru01 122.3(3)
O1 S1 Ru01 122.0(3)
C5 N5 C1 117.1(4)
C5 N5 Ru01 120.5(5)
C1 N5 Ru01 122.3(4)
Ru01 N1 H1A 109.5
Ru01 N1 H1B 109.5
H1A N1 H1B 109.5
Ru01 N1 H1C 109.5
H1A N1 H1C 109.5
H1B N1 H1C 109.5
Ru01 N4 H4A 109.5
Ru01 N4 H4B 109.5
H4A N4 H4B 109.5
Ru01 N4 H4C 109.5
H4A N4 H4C 109.5
H4B N4 H4C 109.5
C4 C3 C2 119.3(5)
C4 C3 Cl3 121.4(5)
C2 C3 Cl3 119.3(5)
N5 C1 C2 123.4(5)
N5 C1 H1 118.3
C2 C1 H1 118.3
Ru01 N2 H2A 109.5
Ru01 N2 H2B 109.5
H2A N2 H2B 109.5
Ru01 N2 H2C 109.5
H2A N2 H2C 109.5
H2B N2 H2C 109.5
C1 C2 C3 118.3(5)
C1 C2 H2 120.8
C3 C2 H2 120.8
C3 C4 C5 118.3(5)
C3 C4 H4 120.9
C5 C4 H4 120.9
N5 C5 C4 123.4(5)
N5 C5 H5 118.3
C4 C5 H5 118.3
Ru01 N3 H3A 109.5
Ru01 N3 H3B 109.5
H3A N3 H3B 109.5
Ru01 N3 H3C 109.5
H3A N3 H3C 109.5
H3B N3 H3C 109.5
O2A S1A O1A 117.5(11)
O2A S1A Ru01 114.2(8)
O1A S1A Ru01 61.8(7)
S1A O1A Ru01 79.2(9)
loop_
_geom_bond_atom_site_label_1
_geom_bond_atom_site_label_2
_geom_bond_distance
Ru01 S1 2.0827(16)
Ru01 N3 2.103(7)
Ru01 N4 2.123(4)
Ru01 N5 2.127(4)
Ru01 N2 2.135(4)
Ru01 N1 2.139(6)
Ru01 O1A 2.22(2)
Ru01 S1A 2.478(7)
Cl3 C3 1.718(5)
S1 O2 1.428(7)
S1 O1 1.456(8)
N5 C5 1.346(8)
N5 C1 1.345(9)
N1 H1A 0.89
N1 H1B 0.89
N1 H1C 0.89
N4 H4A 0.89
N4 H4B 0.89
N4 H4C 0.89
C3 C4 1.371(9)
C3 C2 1.402(9)
C1 C2 1.359(8)
C1 H1 0.93
N2 H2A 0.89
N2 H2B 0.89
N2 H2C 0.89
C2 H2 0.93
C4 C5 1.375(8)
C4 H4 0.93
C5 H5 0.93
N3 H3A 0.89
N3 H3B 0.89
N3 H3C 0.89
S1A O2A 1.38(2)
S1A O1A 1.59(2)
loop_
_geom_torsion_atom_site_label_1
_geom_torsion_atom_site_label_2
_geom_torsion_atom_site_label_3
_geom_torsion_atom_site_label_4
_geom_torsion
N3 Ru01 S1 O2 44.8(4)
N4 Ru01 S1 O2 -48.0(4)
N5 Ru01 S1 O2 -5E1(3)
N2 Ru01 S1 O2 131.4(4)
N1 Ru01 S1 O2 -134.1(4)
O1A Ru01 S1 O2 -9.6(14)
S1A Ru01 S1 O2 159.9(8)
N3 Ru01 S1 O1 -137.7(5)
N4 Ru01 S1 O1 129.5(5)
N5 Ru01 S1 O1 13E1(2)
N2 Ru01 S1 O1 -51.1(5)
N1 Ru01 S1 O1 43.4(5)
O1A Ru01 S1 O1 167.9(16)
S1A Ru01 S1 O1 -22.6(6)
S1 Ru01 N5 C5 5E1(3)
N3 Ru01 N5 C5 -44.9(6)
N4 Ru01 N5 C5 48.0(6)
N2 Ru01 N5 C5 -131.4(6)
N1 Ru01 N5 C5 134.1(6)
O1A Ru01 N5 C5 11.1(19)
S1A Ru01 N5 C5 -161.0(6)
S1 Ru01 N5 C1 -13E1(2)
N3 Ru01 N5 C1 138.5(6)
N4 Ru01 N5 C1 -128.7(7)
N2 Ru01 N5 C1 52.0(6)
N1 Ru01 N5 C1 -42.5(6)
O1A Ru01 N5 C1 -165.5(14)
S1A Ru01 N5 C1 22.4(13)
C5 N5 C1 C2 4.6(11)
Ru01 N5 C1 C2 -178.7(5)
N5 C1 C2 C3 -1.1(9)
C4 C3 C2 C1 -2.7(10)
Cl3 C3 C2 C1 178.5(5)
C2 C3 C4 C5 3.0(11)
Cl3 C3 C4 C5 -178.3(5)
C1 N5 C5 C4 -4.3(11)
Ru01 N5 C5 C4 178.9(5)
C3 C4 C5 N5 0.6(10)
S1 Ru01 S1A O2A 104.3(12)
N3 Ru01 S1A O2A 171.5(10)
N4 Ru01 S1A O2A 74.3(10)
N5 Ru01 S1A O2A -74.5(13)
N2 Ru01 S1A O2A -105.3(10)
N1 Ru01 S1A O2A -9.0(10)
O1A Ru01 S1A O2A 109.5(12)
S1 Ru01 S1A O1A -5.2(8)
N3 Ru01 S1A O1A 62.0(7)
N4 Ru01 S1A O1A -35.1(7)
N5 Ru01 S1A O1A 176.0(10)
N2 Ru01 S1A O1A 145.2(7)
N1 Ru01 S1A O1A -118.4(7)
O2A S1A O1A Ru01 -104.2(11)
S1 Ru01 O1A S1A 6.0(10)
N3 Ru01 O1A S1A -118.9(6)
N4 Ru01 O1A S1A 146.6(7)
N5 Ru01 O1A S1A -175.6(11)
N2 Ru01 O1A S1A -35.1(7)
N1 Ru01 O1A S1A 63.4(7)
