#------------------------------------------------------------------------------
#$Date: 2016-03-22 12:41:31 +0200 (Tue, 22 Mar 2016) $
#$Revision: 178959 $
#$URL: svn://www.crystallography.net/cod/cif/4/11/88/4118882.cif $
#------------------------------------------------------------------------------
#
# This file is available in the Crystallography Open Database (COD),
# http://www.crystallography.net/
#
# All data on this site have been placed in the public domain by the
# contributors.
#
data_4118882
loop_
_publ_author_name
'Hong-Ling Cai'
'Yi Zhang'
'Da-Wei Fu'
'Wen Zhang'
'Tao Liu'
'Hirofumi Yoshikawa'
'Kunio Awaga'
'Ren-Gen Xiong'
_publ_section_title
;
 Above-Room-Temperature Magnetodielectric Coupling in a Possible
 Molecule-Based Multiferroic: Triethylmethylammonium
 Tetrabromoferrate(III)
;
_journal_name_full               'Journal of the American Chemical Society'
_journal_page_first              18487
_journal_page_last               18490
_journal_paper_doi               10.1021/ja3073319
_journal_volume                  134
_journal_year                    2012
_chemical_formula_sum            'C7 H18 Br4 Fe N'
_chemical_formula_weight         491.71
_chemical_name_systematic
; 
 ? 
;
_space_group_IT_number           186
_symmetry_space_group_name_Hall  'P 6c -2c'
_symmetry_space_group_name_H-M   'P 63 m c'
_atom_sites_solution_hydrogens   geom
_atom_sites_solution_primary     direct
_atom_sites_solution_secondary   difmap
_audit_creation_method           SHELXL-97
_cell_angle_alpha                90.00
_cell_angle_beta                 90.00
_cell_angle_gamma                120.00
_cell_formula_units_Z            2
_cell_length_a                   8.344(9)
_cell_length_b                   8.344(9)
_cell_length_c                   13.67(2)
_cell_measurement_reflns_used    542
_cell_measurement_temperature    363(2)
_cell_measurement_theta_max      27.5
_cell_measurement_theta_min      2.5
_cell_volume                     824.2(17)
_computing_structure_refinement  'SHELXL-97 (Sheldrick, 1997)'
_computing_structure_solution    'SHELXS-97 (Sheldrick, 1990)'
_diffrn_ambient_temperature      363(2)
_diffrn_measured_fraction_theta_full 1.000
_diffrn_measured_fraction_theta_max 1.000
_diffrn_radiation_monochromator  graphite
_diffrn_radiation_source         'fine-focus sealed tube'
_diffrn_radiation_type           MoK\a
_diffrn_radiation_wavelength     0.71073
_diffrn_reflns_av_R_equivalents  0.1046
_diffrn_reflns_av_sigmaI/netI    0.0521
_diffrn_reflns_limit_h_max       9
_diffrn_reflns_limit_h_min       -9
_diffrn_reflns_limit_k_max       9
_diffrn_reflns_limit_k_min       -9
_diffrn_reflns_limit_l_max       15
_diffrn_reflns_limit_l_min       -15
_diffrn_reflns_number            6657
_diffrn_reflns_theta_full        24.49
_diffrn_reflns_theta_max         24.49
_diffrn_reflns_theta_min         2.82
_exptl_absorpt_coefficient_mu    10.582
_exptl_absorpt_correction_T_max  1.0
_exptl_absorpt_correction_T_min  0.9
_exptl_absorpt_correction_type   multi-scan
_exptl_absorpt_process_details   crystalclear
_exptl_crystal_colour            blue
_exptl_crystal_density_diffrn    1.982
_exptl_crystal_description       block
_exptl_crystal_F_000             466
_exptl_crystal_size_max          0.3
_exptl_crystal_size_mid          0.1
_exptl_crystal_size_min          0.1
_refine_diff_density_max         1.100
_refine_diff_density_min         -0.502
_refine_diff_density_rms         0.180
_refine_ls_abs_structure_details 'Flack H D (1983), Acta Cryst. A39, 876-881'
_refine_ls_abs_structure_Flack   0.16(3)
_refine_ls_extinction_coef       0.0331(18)
_refine_ls_extinction_expression Fc^*^=kFc[1+0.001xFc^2^\l^3^/sin(2\q)]^-1/4^
_refine_ls_extinction_method     SHELXL
_refine_ls_goodness_of_fit_ref   1.139
_refine_ls_hydrogen_treatment    constr
_refine_ls_matrix_type           full
_refine_ls_number_parameters     26
_refine_ls_number_reflns         569
_refine_ls_number_restraints     1
_refine_ls_restrained_S_all      1.138
_refine_ls_R_factor_all          0.1064
_refine_ls_R_factor_gt           0.0813
_refine_ls_shift/su_max          0.042
_refine_ls_shift/su_mean         0.010
_refine_ls_structure_factor_coef Fsqd
_refine_ls_weighting_details
'calc w=1/[\s^2^(Fo^2^)+(0.1174P)^2^+0.0000P] where P=(Fo^2^+2Fc^2^)/3'
_refine_ls_weighting_scheme      calc
_refine_ls_wR_factor_gt          0.1869
_refine_ls_wR_factor_ref         0.2063
_reflns_number_gt                418
_reflns_number_total             569
_reflns_threshold_expression     >2sigma(I)
_cod_data_source_file            ja3073319_si_006.cif
_cod_data_source_block           1
_cod_original_cell_volume        824.1(18)
_cod_database_code               4118882
loop_
_symmetry_equiv_pos_as_xyz
'x, y, z'
'x-y, x, z+1/2'
'-y, x-y, z'
'-x, -y, z+1/2'
'-x+y, -x, z'
'y, -x+y, z+1/2'
'y, x, z+1/2'
'-x+y, y, z'
'-x, -x+y, z+1/2'
'-y, -x, z'
'x-y, -y, z+1/2'
'x, x-y, z'
loop_
_atom_site_label
_atom_site_type_symbol
_atom_site_fract_x
_atom_site_fract_y
_atom_site_fract_z
_atom_site_U_iso_or_equiv
_atom_site_adp_type
_atom_site_occupancy
_atom_site_symmetry_multiplicity
_atom_site_calc_flag
_atom_site_refinement_flags
N1 N -0.3333 -0.6667 0.7736(12) 0.118(2) Uani 1 6 d S
C1 C -0.113(2) -0.474(2) 0.7709(19) 0.118(2) Uani 0.33 1 d P
H1A H -0.0651 -0.4605 0.8368 0.141 Uiso 0.35 1 d PR
H1B H -0.1206 -0.3638 0.7560 0.141 Uiso 0.35 1 d PR
C2 C -0.005(3) -0.5025(14) 0.7274(9) 0.118(2) Uani 0.67 2 d SP
H2A H 0.1161 -0.3927 0.7323 0.176 Uiso 0.36 1 d PR
H2B H 0.0043 -0.6108 0.7429 0.176 Uiso 0.36 1 d PR
H2C H -0.0518 -0.5239 0.6614 0.176 Uiso 0.72 2 d SPR
C3 C -0.2791(10) -0.7209(10) 0.8377(10) 0.118(2) Uani 0.67 2 d SP
H3A H -0.1457 -0.6729 0.8357 0.141 Uiso 0.35 1 d PR
H3B H -0.3341 -0.8613 0.8357 0.141 Uiso 0.35 1 d PR
C4 C -0.3333 -0.6667 0.9557(12) 0.118(2) Uani 1 6 d S
H4A H -0.2924 -0.7076 1.0118 0.176 Uiso 0.34 2 d SPR
H4B H -0.2772 -0.5544 0.9573 0.176 Uiso 0.34 2 d SPR
H4C H -0.4669 -0.7334 0.9573 0.176 Uiso 0.34 2 d SPR
Fe1 Fe 0.0000 0.0000 1.02405(10) 0.0696(4) Uani 1 6 d S
Br1 Br 0.0000 0.0000 1.19342(10) 0.1162(5) Uani 1 6 d S
Br2 Br 0.15232(6) -0.15232(6) 0.96873(8) 0.1197(3) Uani 1 2 d S
loop_
_atom_site_aniso_label
_atom_site_aniso_U_11
_atom_site_aniso_U_22
_atom_site_aniso_U_33
_atom_site_aniso_U_23
_atom_site_aniso_U_13
_atom_site_aniso_U_12
N1 0.106(3) 0.106(3) 0.141(6) 0.000 0.000 0.0529(13)
C1 0.106(3) 0.106(3) 0.141(6) 0.000 0.000 0.0529(13)
C2 0.106(3) 0.106(3) 0.141(6) 0.000 0.000 0.0529(13)
C3 0.106(3) 0.106(3) 0.141(6) 0.000 0.000 0.0529(13)
C4 0.106(3) 0.106(3) 0.141(6) 0.000 0.000 0.0529(13)
Fe1 0.0747(5) 0.0747(5) 0.0594(8) 0.000 0.000 0.0373(2)
Br1 0.1384(7) 0.1384(7) 0.0719(8) 0.000 0.000 0.0692(4)
Br2 0.1330(2) 0.1330(2) 0.1133(6) -0.0090(3) 0.0090(3) 0.0817(3)
loop_
_atom_type_symbol
_atom_type_description
_atom_type_scat_dispersion_real
_atom_type_scat_dispersion_imag
_atom_type_scat_source
C C 0.0033 0.0016 'International Tables Vol C Tables 4.2.6.8 and 6.1.1.4'
Br Br -0.2901 2.4595 'International Tables Vol C Tables 4.2.6.8 and 6.1.1.4'
Fe Fe 0.3463 0.8444 'International Tables Vol C Tables 4.2.6.8 and 6.1.1.4'
N N 0.0061 0.0033 'International Tables Vol C Tables 4.2.6.8 and 6.1.1.4'
H H 0.0000 0.0000 'International Tables Vol C Tables 4.2.6.8 and 6.1.1.4'
loop_
_geom_angle_atom_site_label_1
_geom_angle_atom_site_label_2
_geom_angle_atom_site_label_3
_geom_angle
_geom_angle_site_symmetry_1
_geom_angle_site_symmetry_3
C3 N1 C3 70.5(14) . 3_445
C3 N1 C3 70.5(14) . 5_545
C3 N1 C3 70.5(14) 3_445 5_545
C3 N1 C1 58.7(10) . 5_545
C3 N1 C1 128.8(14) 3_445 5_545
C3 N1 C1 86.6(9) 5_545 5_545
C3 N1 C1 58.7(10) . 12_545
C3 N1 C1 86.6(9) 3_445 12_545
C3 N1 C1 128.8(14) 5_545 12_545
C1 N1 C1 72.9(14) 5_545 12_545
C3 N1 C1 86.6(9) . .
C3 N1 C1 58.7(10) 3_445 .
C3 N1 C1 128.8(15) 5_545 .
C1 N1 C1 119.95(8) 5_545 .
C1 N1 C1 47.1(15) 12_545 .
C3 N1 C1 86.6(9) . 10_445
C3 N1 C1 128.8(14) 3_445 10_445
C3 N1 C1 58.7(10) 5_545 10_445
C1 N1 C1 47.1(15) 5_545 10_445
C1 N1 C1 119.95(8) 12_545 10_445
C1 N1 C1 166.9(15) . 10_445
C3 N1 C1 128.8(14) . 8
C3 N1 C1 58.7(10) 3_445 8
C3 N1 C1 86.6(9) 5_545 8
C1 N1 C1 166.9(15) 5_545 8
C1 N1 C1 119.95(9) 12_545 8
C1 N1 C1 72.9(15) . 8
C1 N1 C1 119.95(8) 10_445 8
C3 N1 C1 128.8(14) . 3_445
C3 N1 C1 86.6(9) 3_445 3_445
C3 N1 C1 58.7(10) 5_545 3_445
C1 N1 C1 119.95(8) 5_545 3_445
C1 N1 C1 166.9(15) 12_545 3_445
C1 N1 C1 119.95(8) . 3_445
C1 N1 C1 72.9(15) 10_445 3_445
C1 N1 C1 47.1(15) 8 3_445
C2 C1 C1 54.8(10) . 12_545
C2 C1 C3 144.2(18) . 3_445
C1 C1 C3 89.4(9) 12_545 3_445
C2 C1 N1 112.1(16) . .
C1 C1 N1 66.4(7) 12_545 .
C3 C1 N1 41.8(8) 3_445 .
C2 C1 C3 102.5(14) . .
C1 C1 C3 47.7(8) 12_545 .
C3 C1 C3 41.7(10) 3_445 .
N1 C1 C3 35.2(6) . .
C2 C1 H1A 99.8 . .
C1 C1 H1A 84.5 12_545 .
C3 C1 H1A 73.9 3_445 .
N1 C1 H1A 105.8 . .
C3 C1 H1A 74.4 . .
C2 C1 H1B 119.6 . .
C1 C1 H1B 167.4 12_545 .
C3 C1 H1B 95.4 3_445 .
N1 C1 H1B 110.2 . .
C3 C1 H1B 136.0 . .
H1A C1 H1B 107.9 . .
C1 C2 C1 70(2) . 12_545
C1 C2 H2A 108.0 . .
C1 C2 H2A 142.9 12_545 .
C1 C2 H2B 119.9 . .
C1 C2 H2B 51.4 12_545 .
H2A C2 H2B 109.5 . .
C1 C2 H2C 103.0 . .
C1 C2 H2C 104.2 12_545 .
H2A C2 H2C 112.0 . .
H2B C2 H2C 104.3 . .
N1 C3 C3 54.7(7) . 5_545
N1 C3 C3 54.7(7) . 3_445
C3 C3 C3 60.000(4) 5_545 3_445
N1 C3 C1 79.6(11) . 5_545
C3 C3 C1 90.6(9) 5_545 5_545
C3 C3 C1 133.9(9) 3_445 5_545
N1 C3 C1 79.6(11) . 12_545
C3 C3 C1 133.9(9) 5_545 12_545
C3 C3 C1 90.6(9) 3_445 12_545
C1 C3 C1 86.3(19) 5_545 12_545
N1 C3 C4 112.3(12) . .
C3 C3 C4 67.8(4) 5_545 .
C3 C3 C4 67.8(4) 3_445 .
C1 C3 C4 136.3(10) 5_545 .
C1 C3 C4 136.3(10) 12_545 .
N1 C3 C1 58.2(7) . 10_445
C3 C3 C1 47.7(8) 5_545 10_445
C3 C3 C1 99.9(7) 3_445 10_445
C1 C3 C1 42.9(14) 5_545 10_445
C1 C3 C1 115.1(16) 12_545 10_445
C4 C3 C1 106.1(9) . 10_445
N1 C3 C1 58.2(7) . .
C3 C3 C1 100.0(7) 5_545 .
C3 C3 C1 47.7(8) 3_445 .
C1 C3 C1 115.1(16) 5_545 .
C1 C3 C1 42.9(14) 12_545 .
C4 C3 C1 106.1(9) . .
C1 C3 C1 115.5(14) 10_445 .
N1 C3 H3A 113.5 . .
C3 C3 H3A 159.1 5_545 .
C3 C3 H3A 99.2 3_445 .
C1 C3 H3A 104.8 5_545 .
C1 C3 H3A 36.5 12_545 .
C4 C3 H3A 107.6 . .
C1 C3 H3A 145.6 10_445 .
C1 C3 H3A 60.9 . .
N1 C3 H3B 112.4 . .
C3 C3 H3B 97.1 5_545 .
C3 C3 H3B 157.1 3_445 .
C1 C3 H3B 36.2 5_545 .
C1 C3 H3B 106.4 12_545 .
C4 C3 H3B 106.8 . .
C1 C3 H3B 59.2 10_445 .
C1 C3 H3B 146.7 . .
H3A C3 H3B 103.6 . .
C3 C4 C3 44.5(9) . 5_545
C3 C4 C3 44.5(9) . 3_445
C3 C4 C3 44.5(9) 5_545 3_445
C3 C4 H4A 116.5 . .
C3 C4 H4A 147.8 5_545 .
C3 C4 H4A 147.8 3_445 .
C3 C4 H4B 104.1 . .
C3 C4 H4B 104.1 5_545 .
C3 C4 H4B 65.7 3_445 .
H4A C4 H4B 106.4 . .
C3 C4 H4C 103.9 . .
C3 C4 H4C 65.4 5_545 .
C3 C4 H4C 103.9 3_445 .
H4A C4 H4C 106.6 . .
H4B C4 H4C 119.9 . .
Br1 Fe1 Br2 108.96(5) . 5
Br1 Fe1 Br2 108.96(5) . 3
Br2 Fe1 Br2 109.98(5) 5 3
Br1 Fe1 Br2 108.96(5) . .
Br2 Fe1 Br2 109.98(5) 5 .
Br2 Fe1 Br2 109.98(5) 3 .
loop_
_geom_bond_atom_site_label_1
_geom_bond_atom_site_label_2
_geom_bond_distance
_geom_bond_site_symmetry_2
N1 C3 1.175(18) .
N1 C3 1.175(18) 3_445
N1 C3 1.175(18) 5_545
N1 C1 1.735(13) 5_545
N1 C1 1.735(13) 12_545
N1 C1 1.735(14) .
N1 C1 1.735(14) 10_445
N1 C1 1.735(13) 8
N1 C1 1.735(13) 3_445
C1 C2 1.20(3) .
C1 C1 1.39(4) 12_545
C1 C3 1.51(2) 3_445
C1 C3 2.04(2) .
C1 H1A 0.9693 .
C1 H1B 0.9691 .
C2 C1 1.20(3) 12_545
C2 H2A 0.9695 .
C2 H2B 0.9685 .
C2 H2C 0.9636 .
C3 C3 1.36(3) 5_545
C3 C3 1.36(3) 3_445
C3 C1 1.51(2) 5_545
C3 C1 1.51(2) 12_545
C3 C4 1.79(2) .
C3 C1 2.04(2) 10_445
C3 H3A 0.9768 .
C3 H3B 1.0228 .
C4 C3 1.79(2) 5_545
C4 C3 1.79(2) 3_445
C4 H4A 0.9693 .
C4 H4B 0.8118 .
C4 H4C 0.9651 .
Fe1 Br1 2.315(4) .
Fe1 Br2 2.328(3) 5
Fe1 Br2 2.328(3) 3
Fe1 Br2 2.328(3) .
