#------------------------------------------------------------------------------
#$Date: 2016-03-22 12:34:31 +0200 (Tue, 22 Mar 2016) $
#$Revision: 178954 $
#$URL: svn://www.crystallography.net/cod/cif/4/11/83/4118331.cif $
#------------------------------------------------------------------------------
#
# This file is available in the Crystallography Open Database (COD),
# http://www.crystallography.net/
#
# All data on this site have been placed in the public domain by the
# contributors.
#
data_4118331
loop_
_publ_author_name
'Sven O. Sylvester'
'Jacqueline M. Cole'
'Paul G. Waddell'
_publ_section_title
;
 Photoconversion Bonding Mechanism in Ruthenium Sulfur Dioxide Linkage
 Photoisomers Revealed by in Situ Diffraction
;
_journal_name_full               'Journal of the American Chemical Society'
_journal_page_first              11860
_journal_page_last               11863
_journal_paper_doi               10.1021/ja303943q
_journal_volume                  134
_journal_year                    2012
_chemical_absolute_configuration unk
_chemical_formula_moiety         'C5 H18 Cl3 N5 O3 Ru1 S1'
_chemical_formula_sum            'C5 H18 Cl3 N5 O3 Ru S'
_chemical_formula_weight         435.72
_chemical_name_systematic
;
 ?
;
_space_group_IT_number           4
_symmetry_cell_setting           monoclinic
_symmetry_space_group_name_Hall  'P 2yb'
_symmetry_space_group_name_H-M   'P 1 21 1'
_atom_sites_solution_hydrogens   geom
_atom_sites_solution_primary     direct
_atom_sites_solution_secondary   difmap
_cell_angle_alpha                90
_cell_angle_beta                 91.143(4)
_cell_angle_gamma                90
_cell_formula_units_Z            2
_cell_length_a                   7.151(2)
_cell_length_b                   10.730(3)
_cell_length_c                   9.954(3)
_cell_measurement_reflns_used    3285
_cell_measurement_temperature    293(2)
_cell_measurement_theta_max      33.1
_cell_measurement_theta_min      2
_cell_volume                     763.6(4)
_computing_cell_refinement
;
        CrystalClear-SM Expert 2.0 r4 (Rigaku, 2009)
;
_computing_data_collection
;
        CrystalClear-SM Expert 2.0 r4 (Rigaku, 2009)
;
_computing_data_reduction
;
        CrystalClear-SM Expert 2.0 r4 (Rigaku, 2009)
;
_computing_molecular_graphics    'Ortep-3 for Windows (Farrugia, 1997)'
_computing_publication_material  'WinGX publication routines (Farrugia, 1999)'
_computing_structure_refinement  'SHELXL-97 (Sheldrick, 2008)'
_diffrn_ambient_temperature      293(2)
_diffrn_detector_area_resol_mean 28.5714
_diffrn_measured_fraction_theta_full 0.981
_diffrn_measured_fraction_theta_max 0.861
_diffrn_measurement_device_type
;
        Rigaku Saturn724+ (2x2 bin mode)
;
_diffrn_measurement_method       'profile data from \w-scans'
_diffrn_radiation_monochromator  graphite
_diffrn_radiation_type           MoK\a
_diffrn_radiation_wavelength     0.71073
_diffrn_reflns_av_R_equivalents  0.052
_diffrn_reflns_av_unetI/netI     0.1014
_diffrn_reflns_limit_h_max       10
_diffrn_reflns_limit_h_min       -9
_diffrn_reflns_limit_k_max       16
_diffrn_reflns_limit_k_min       -6
_diffrn_reflns_limit_l_max       13
_diffrn_reflns_limit_l_min       -14
_diffrn_reflns_number            5145
_diffrn_reflns_theta_full        27.5
_diffrn_reflns_theta_max         33.12
_diffrn_reflns_theta_min         2.05
_diffrn_source                   'Sealed Tube'
_exptl_absorpt_coefficient_mu    1.695
_exptl_absorpt_correction_T_max  1
_exptl_absorpt_correction_T_min  0.694
_exptl_absorpt_correction_type   multi-scan
_exptl_crystal_colour            Colorless
_exptl_crystal_density_diffrn    1.895
_exptl_crystal_description       Prism
_exptl_crystal_F_000             436
_exptl_crystal_size_max          0.2
_exptl_crystal_size_mid          0.2
_exptl_crystal_size_min          0.2
_refine_diff_density_max         0.674
_refine_diff_density_min         -0.674
_refine_diff_density_rms         0.144
_refine_ls_abs_structure_details 'Flack H D (1983), Acta Cryst. A39, 876-881'
_refine_ls_abs_structure_Flack   0.42(10)
_refine_ls_extinction_method     none
_refine_ls_goodness_of_fit_ref   0.869
_refine_ls_hydrogen_treatment    constr
_refine_ls_matrix_type           full
_refine_ls_number_parameters     181
_refine_ls_number_reflns         2934
_refine_ls_number_restraints     1
_refine_ls_restrained_S_all      0.869
_refine_ls_R_factor_all          0.0465
_refine_ls_R_factor_gt           0.0351
_refine_ls_shift/su_max          0.003
_refine_ls_shift/su_mean         0
_refine_ls_structure_factor_coef Fsqd
_refine_ls_weighting_details
'calc w=1/[\s^2^(Fo^2^)+(0.0497P)^2^+0.0000P] where P=(Fo^2^+2Fc^2^)/3'
_refine_ls_weighting_scheme      calc
_refine_ls_wR_factor_ref         0.1159
_reflns_number_gt                2305
_reflns_number_total             2934
_reflns_threshold_expression     >2\s(I)
_cod_data_source_file            ja303943q_si_002_49.cif
_cod_data_source_block           4-cl-pyr-light-4
_cod_database_code               4118331
loop_
_symmetry_equiv_pos_as_xyz
'x, y, z'
'-x, y+1/2, -z'
loop_
_atom_site_label
_atom_site_fract_x
_atom_site_fract_y
_atom_site_fract_z
_atom_site_U_iso_or_equiv
_atom_site_adp_type
_atom_site_calc_flag
_atom_site_refinement_flags
_atom_site_occupancy
_atom_site_disorder_assembly
_atom_site_disorder_group
_atom_site_type_symbol
Ru01 0.21097(6) 0.39660(6) 0.81003(4) 0.01893(12) Uani d . 1 . . Ru
Cl1 0.6701(3) 0.3993(3) 0.24055(17) 0.0364(4) Uani d . 1 . . Cl
Cl2 0.1079(3) 0.6520(2) 0.4895(2) 0.0359(4) Uani d . 1 . . Cl
Cl3 0.7259(3) 0.6291(2) 0.89341(19) 0.0339(4) Uani d . 1 . . Cl
S1 0.0623(3) 0.3947(5) 0.98890(18) 0.0241(6) Uani d P 0.856(9) A 1 S
N5 0.3577(7) 0.4008(12) 0.6244(5) 0.0211(10) Uani d . 1 A . n
O3 0.6260(9) 0.1575(7) 0.7494(7) 0.0480(16) Uani d . 1 . . O
O2 0.1177(12) 0.4669(8) 1.1063(9) 0.048(2) Uani d P 0.856(9) A 1 O
C3 0.5449(9) 0.4049(12) 0.3879(7) 0.0250(14) Uani d . 1 . . C
N1 0.2359(10) 0.5938(8) 0.8137(6) 0.0265(16) Uani d . 1 A . n
H1A 0.1418 0.6261 0.8595 0.04 Uiso calc R 1 . . H
H1B 0.2323 0.623 0.73 0.04 Uiso calc R 1 . . H
H1C 0.344 0.6149 0.8533 0.04 Uiso calc R 1 . . H
N4 -0.0366(8) 0.4262(6) 0.6904(6) 0.0260(14) Uani d . 1 A . n
H4A -0.1193 0.4688 0.7378 0.039 Uiso calc R 1 . . H
H4B -0.0853 0.353 0.6666 0.039 Uiso calc R 1 . . H
H4C -0.0081 0.4692 0.6171 0.039 Uiso calc R 1 . . H
O1 -0.1049(9) 0.3207(7) 1.0041(7) 0.0343(17) Uani d P 0.856(9) A 1 O
C1 0.5092(10) 0.4729(7) 0.6075(7) 0.0247(14) Uani d . 1 . . C
H1 0.5484 0.5233 0.6786 0.03 Uiso calc R 1 A . H
N2 0.4733(8) 0.3655(6) 0.9096(6) 0.0249(13) Uani d . 1 A . n
H2A 0.5226 0.4382 0.9346 0.037 Uiso calc R 1 . . H
H2B 0.5503 0.327 0.8539 0.037 Uiso calc R 1 . . H
H2C 0.4565 0.3182 0.9818 0.037 Uiso calc R 1 . . H
C2 0.6076(11) 0.4762(7) 0.4932(7) 0.0268(15) Uani d . 1 A . C
H2 0.7142 0.5253 0.4864 0.032 Uiso calc R 1 . . H
C5 0.2964(11) 0.3340(7) 0.5190(7) 0.0273(15) Uani d . 1 . . C
H5 0.1881 0.2869 0.5277 0.033 Uiso calc R 1 A . H
C4 0.3856(11) 0.3320(7) 0.3998(7) 0.0283(15) Uani d . 1 A . C
H4 0.3415 0.2835 0.3286 0.034 Uiso calc R 1 . . H
N3 0.1918(10) 0.2005(8) 0.7829(8) 0.0303(17) Uani d . 1 A . n
H3A 0.2965 0.1725 0.7466 0.045 Uiso calc R 1 . . H
H3B 0.095 0.183 0.7286 0.045 Uiso calc R 1 . . H
H3C 0.1759 0.1639 0.8621 0.045 Uiso calc R 1 . . H
S1A 0.145(2) 0.4195(15) 1.0543(17) 0.035(5) Uiso d P 0.144(9) A 2 S
O1A -0.020(7) 0.361(4) 0.960(4) 0.030(9) Uiso d P 0.144(9) A 2 O
O2A 0.130(7) 0.533(5) 1.105(5) 0.039(11) Uiso d P 0.144(9) A 2 O
loop_
_atom_site_aniso_label
_atom_site_aniso_U_11
_atom_site_aniso_U_22
_atom_site_aniso_U_33
_atom_site_aniso_U_12
_atom_site_aniso_U_13
_atom_site_aniso_U_23
Ru01 0.0195(2) 0.02038(19) 0.0169(2) 0.0007(3) 0.00123(15) -0.0002(3)
Cl1 0.0485(10) 0.0321(8) 0.0291(8) -0.0030(13) 0.0149(7) -0.0025(11)
Cl2 0.0367(10) 0.0391(11) 0.0320(10) 0.0113(9) 0.0020(8) 0.0082(8)
Cl3 0.0393(10) 0.0357(10) 0.0264(9) -0.0056(9) -0.0022(7) -0.0039(7)
S1 0.0244(11) 0.0306(10) 0.0176(10) 0.0003(16) 0.0060(7) -0.0022(16)
N5 0.018(2) 0.021(2) 0.024(2) -0.001(4) -0.0001(18) 0.001(5)
O3 0.039(3) 0.047(4) 0.058(4) 0.006(3) 0.002(3) -0.010(3)
O2 0.058(5) 0.041(5) 0.044(5) -0.011(4) 0.016(4) -0.022(4)
C3 0.032(3) 0.020(3) 0.023(3) 0.000(4) 0.010(2) 0.007(4)
N1 0.038(4) 0.019(3) 0.022(4) 0.002(3) 0.006(3) -0.003(2)
N4 0.020(3) 0.031(4) 0.027(3) 0.003(2) -0.001(2) -0.003(2)
O1 0.025(3) 0.042(4) 0.037(4) -0.006(3) 0.007(3) 0.004(3)
C1 0.027(4) 0.024(3) 0.023(3) -0.002(3) 0.000(3) -0.003(3)
N2 0.024(3) 0.030(4) 0.022(3) -0.001(2) 0.003(2) 0.003(2)
C2 0.032(4) 0.027(3) 0.022(3) -0.001(3) 0.001(3) -0.001(3)
C5 0.032(4) 0.024(4) 0.025(4) -0.007(3) 0.001(3) -0.003(3)
C4 0.031(4) 0.032(4) 0.022(4) -0.003(3) 0.002(3) -0.005(3)
N3 0.039(4) 0.025(4) 0.027(3) -0.007(3) 0.002(3) -0.001(3)
loop_
_atom_type_symbol
_atom_type_description
_atom_type_scat_dispersion_real
_atom_type_scat_dispersion_imag
_atom_type_scat_source
C C 0.0033 0.0016 'International Tables Vol C Tables 4.2.6.8 and 6.1.1.4'
H H 0 0 'International Tables Vol C Tables 4.2.6.8 and 6.1.1.4'
N N 0.0061 0.0033 'International Tables Vol C Tables 4.2.6.8 and 6.1.1.4'
O O 0.0106 0.006 'International Tables Vol C Tables 4.2.6.8 and 6.1.1.4'
S S 0.1246 0.1234 'International Tables Vol C Tables 4.2.6.8 and 6.1.1.4'
Cl Cl 0.1484 0.1585 'International Tables Vol C Tables 4.2.6.8 and 6.1.1.4'
Ru Ru -1.2594 0.8363 'International Tables Vol C Tables 4.2.6.8 and 6.1.1.4'
loop_
_geom_angle_atom_site_label_1
_geom_angle_atom_site_label_2
_geom_angle_atom_site_label_3
_geom_angle
S1 Ru01 N1 92.2(2)
S1 Ru01 N3 93.8(2)
N1 Ru01 N3 173.6(3)
S1 Ru01 N2 93.46(17)
N1 Ru01 N2 94.3(3)
N3 Ru01 N2 87.6(3)
S1 Ru01 N4 92.65(17)
N1 Ru01 N4 86.0(3)
N3 Ru01 N4 91.5(3)
N2 Ru01 N4 173.9(2)
S1 Ru01 N5 178.6(2)
N1 Ru01 N5 87.2(4)
N3 Ru01 N5 86.7(4)
N2 Ru01 N5 87.9(2)
N4 Ru01 N5 86.0(2)
S1 Ru01 O1A 18.9(12)
N1 Ru01 O1A 102.6(10)
N3 Ru01 O1A 82.6(11)
N2 Ru01 O1A 108.1(12)
N4 Ru01 O1A 77.8(12)
N5 Ru01 O1A 160.3(13)
S1 Ru01 S1A 20.6(4)
N1 Ru01 S1A 84.4(4)
N3 Ru01 S1A 102.0(4)
N2 Ru01 S1A 75.1(4)
N4 Ru01 S1A 111.0(4)
N5 Ru01 S1A 160.4(4)
O1A Ru01 S1A 39.3(13)
O1 S1 O2 115.0(4)
O1 S1 Ru01 122.0(3)
O2 S1 Ru01 123.0(4)
C5 N5 C1 117.6(6)
C5 N5 Ru01 120.4(6)
C1 N5 Ru01 122.0(6)
C2 C3 C4 120.5(6)
C2 C3 Cl1 120.0(6)
C4 C3 Cl1 119.4(7)
Ru01 N1 H1A 109.5
Ru01 N1 H1B 109.5
H1A N1 H1B 109.5
Ru01 N1 H1C 109.5
H1A N1 H1C 109.5
H1B N1 H1C 109.5
Ru01 N4 H4A 109.5
Ru01 N4 H4B 109.5
H4A N4 H4B 109.5
Ru01 N4 H4C 109.5
H4A N4 H4C 109.5
H4B N4 H4C 109.5
N5 C1 C2 123.7(7)
N5 C1 H1 118.1
C2 C1 H1 118.1
Ru01 N2 H2A 109.5
Ru01 N2 H2B 109.5
H2A N2 H2B 109.5
Ru01 N2 H2C 109.5
H2A N2 H2C 109.5
H2B N2 H2C 109.5
C1 C2 C3 117.6(7)
C1 C2 H2 121.2
C3 C2 H2 121.2
N5 C5 C4 122.8(7)
N5 C5 H5 118.6
C4 C5 H5 118.6
C5 C4 C3 117.8(7)
C5 C4 H4 121.1
C3 C4 H4 121.1
Ru01 N3 H3A 109.5
Ru01 N3 H3B 109.5
H3A N3 H3B 109.5
Ru01 N3 H3C 109.5
H3A N3 H3C 109.5
H3B N3 H3C 109.5
O2A S1A O1A 121(3)
O2A S1A Ru01 119(2)
O1A S1A Ru01 63.1(16)
S1A O1A Ru01 78(2)
loop_
_geom_bond_atom_site_label_1
_geom_bond_atom_site_label_2
_geom_bond_distance
Ru01 S1 2.0920(18)
Ru01 N1 2.124(8)
Ru01 N3 2.126(8)
Ru01 N2 2.130(6)
Ru01 N4 2.137(6)
Ru01 N5 2.143(5)
Ru01 O1A 2.28(5)
Ru01 S1A 2.498(17)
Cl1 C3 1.735(6)
S1 O1 1.445(8)
S1 O2 1.450(8)
N5 C5 1.337(10)
N5 C1 1.345(11)
C3 C2 1.366(12)
C3 C4 1.388(12)
N1 H1A 0.89
N1 H1B 0.89
N1 H1C 0.89
N4 H4A 0.89
N4 H4B 0.89
N4 H4C 0.89
C1 C2 1.350(10)
C1 H1 0.93
N2 H2A 0.89
N2 H2B 0.89
N2 H2C 0.89
C2 H2 0.93
C5 C4 1.359(11)
C5 H5 0.93
C4 H4 0.93
N3 H3A 0.89
N3 H3B 0.89
N3 H3C 0.89
S1A O2A 1.32(5)
S1A O1A 1.62(6)
loop_
_geom_torsion_atom_site_label_1
_geom_torsion_atom_site_label_2
_geom_torsion_atom_site_label_3
_geom_torsion_atom_site_label_4
_geom_torsion
N1 Ru01 S1 O1 134.5(5)
N3 Ru01 S1 O1 -43.2(5)
N2 Ru01 S1 O1 -131.0(5)
N4 Ru01 S1 O1 48.4(5)
N5 Ru01 S1 O1 67(16)
O1A Ru01 S1 O1 10(3)
S1A Ru01 S1 O1 -157.9(13)
N1 Ru01 S1 O2 -45.4(6)
N3 Ru01 S1 O2 136.9(6)
N2 Ru01 S1 O2 49.1(6)
N4 Ru01 S1 O2 -131.4(6)
N5 Ru01 S1 O2 -113(16)
O1A Ru01 S1 O2 -169(3)
S1A Ru01 S1 O2 22.3(11)
S1 Ru01 N5 C5 -67(17)
N1 Ru01 N5 C5 -134.0(9)
N3 Ru01 N5 C5 43.9(9)
N2 Ru01 N5 C5 131.6(9)
N4 Ru01 N5 C5 -47.8(8)
O1A Ru01 N5 C5 -13(3)
S1A Ru01 N5 C5 161.2(12)
S1 Ru01 N5 C1 111(16)
N1 Ru01 N5 C1 43.6(8)
N3 Ru01 N5 C1 -138.5(8)
N2 Ru01 N5 C1 -50.8(8)
N4 Ru01 N5 C1 129.8(9)
O1A Ru01 N5 C1 164(3)
S1A Ru01 N5 C1 -21(2)
C5 N5 C1 C2 -3.7(15)
Ru01 N5 C1 C2 178.6(6)
N5 C1 C2 C3 2.1(13)
C4 C3 C2 C1 0.0(14)
Cl1 C3 C2 C1 -177.2(7)
C1 N5 C5 C4 3.2(15)
Ru01 N5 C5 C4 -179.0(6)
N5 C5 C4 C3 -1.3(13)
C2 C3 C4 C5 -0.4(14)
Cl1 C3 C4 C5 176.8(7)
S1 Ru01 S1A O2A -106(3)
N1 Ru01 S1A O2A 6(3)
N3 Ru01 S1A O2A -174(3)
N2 Ru01 S1A O2A 102(3)
N4 Ru01 S1A O2A -78(3)
N5 Ru01 S1A O2A 71(3)
O1A Ru01 S1A O2A -112(3)
S1 Ru01 S1A O1A 5.9(17)
N1 Ru01 S1A O1A 117.7(16)
N3 Ru01 S1A O1A -62.1(16)
N2 Ru01 S1A O1A -146.3(16)
N4 Ru01 S1A O1A 34.2(16)
N5 Ru01 S1A O1A -177.0(19)
O2A S1A O1A Ru01 109(3)
S1 Ru01 O1A S1A -6.4(18)
N1 Ru01 O1A S1A -64.5(14)
N3 Ru01 O1A S1A 119.4(14)
N2 Ru01 O1A S1A 34.4(16)
N4 Ru01 O1A S1A -147.5(15)
N5 Ru01 O1A S1A 177.0(19)
