#------------------------------------------------------------------------------
#$Date: 2016-03-22 12:51:35 +0200 (Tue, 22 Mar 2016) $
#$Revision: 178966 $
#$URL: svn://www.crystallography.net/cod/cif/4/11/95/4119557.cif $
#------------------------------------------------------------------------------
#
# This file is available in the Crystallography Open Database (COD),
# http://www.crystallography.net/
#
# All data on this site have been placed in the public domain by the
# contributors.
#
data_4119557
loop_
_publ_author_name
'Wen Zhang'
'Heng-Yun Ye'
'Robert Graf'
'Hans W. Spiess'
'Ye-Feng Yao'
'Run-Qiang Zhu'
'Ren-Gen Xiong'
_publ_section_title
;
 Tunable and Switchable Dielectric Constant in an Amphidynamic Crystal
;
_journal_name_full               'Journal of the American Chemical Society'
_journal_page_first              5230
_journal_page_last               5233
_journal_paper_doi               10.1021/ja3110335
_journal_volume                  135
_journal_year                    2013
_chemical_formula_sum            'C10 H16 Co K N8'
_chemical_formula_weight         346.34
_chemical_name_systematic
; 
 ? 
;
_space_group_IT_number           128
_symmetry_cell_setting           tetragonal
_symmetry_space_group_name_Hall  '-P 4 2n'
_symmetry_space_group_name_H-M   'P 4/m n c'
_atom_sites_solution_hydrogens   ..
_atom_sites_solution_primary     direct
_atom_sites_solution_secondary   difmap
_audit_creation_method           SHELXL-97
_cell_angle_alpha                90.00
_cell_angle_beta                 90.00
_cell_angle_gamma                90.00
_cell_formula_units_Z            2
_cell_length_a                   8.2895(13)
_cell_length_b                   8.2895(13)
_cell_length_c                   11.621(3)
_cell_measurement_reflns_used    1926
_cell_measurement_temperature    293(2)
_cell_measurement_theta_max      27.4816
_cell_measurement_theta_min      3.0184
_cell_volume                     798.5(3)
_computing_structure_refinement  'SHELXL-97 (Sheldrick, 1997)'
_computing_structure_solution    'SHELXS-97 (Sheldrick, 1990)'
_diffrn_ambient_temperature      293(2)
_diffrn_measured_fraction_theta_full 0.988
_diffrn_measured_fraction_theta_max 0.988
_diffrn_radiation_monochromator  graphite
_diffrn_radiation_source         'fine-focus sealed tube'
_diffrn_radiation_type           MoK\a
_diffrn_radiation_wavelength     0.71073
_diffrn_reflns_av_R_equivalents  0.0369
_diffrn_reflns_av_sigmaI/netI    0.0133
_diffrn_reflns_limit_h_max       10
_diffrn_reflns_limit_h_min       -10
_diffrn_reflns_limit_k_max       10
_diffrn_reflns_limit_k_min       -10
_diffrn_reflns_limit_l_max       15
_diffrn_reflns_limit_l_min       -15
_diffrn_reflns_number            7532
_diffrn_reflns_theta_full        27.46
_diffrn_reflns_theta_max         27.46
_diffrn_reflns_theta_min         3.02
_exptl_absorpt_coefficient_mu    1.338
_exptl_absorpt_correction_T_max  1.0000
_exptl_absorpt_correction_T_min  0.8623
_exptl_absorpt_correction_type   multi-scan
_exptl_crystal_colour            yellow
_exptl_crystal_density_diffrn    1.440
_exptl_crystal_description       block
_exptl_crystal_F_000             356
_exptl_crystal_size_max          0.2
_exptl_crystal_size_mid          0.2
_exptl_crystal_size_min          0.2
_refine_diff_density_max         0.271
_refine_diff_density_min         -0.283
_refine_diff_density_rms         0.059
_refine_ls_extinction_method     none
_refine_ls_goodness_of_fit_ref   1.412
_refine_ls_hydrogen_treatment    ..
_refine_ls_matrix_type           full
_refine_ls_number_parameters     39
_refine_ls_number_reflns         482
_refine_ls_number_restraints     0
_refine_ls_restrained_S_all      1.412
_refine_ls_R_factor_all          0.0348
_refine_ls_R_factor_gt           0.0344
_refine_ls_shift/su_max          0.000
_refine_ls_shift/su_mean         0.000
_refine_ls_structure_factor_coef Fsqd
_refine_ls_weighting_details
'calc w=1/[\s^2^(Fo^2^)+(0.0397P)^2^+0.2326P] where P=(Fo^2^+2Fc^2^)/3'
_refine_ls_weighting_scheme      calc
_refine_ls_wR_factor_gt          0.0904
_refine_ls_wR_factor_ref         0.0906
_reflns_number_gt                477
_reflns_number_total             482
_reflns_threshold_expression     >2sigma(I)
_cod_data_source_file            ja3110335_si_002_2.cif
_cod_data_source_block           1-293K
_cod_original_cell_volume        798.6(3)
_cod_database_code               4119557
loop_
_symmetry_equiv_pos_as_xyz
'x, y, z'
'-x, -y, z'
'-y, x, z'
'y, -x, z'
'-x+1/2, y+1/2, -z+1/2'
'x+1/2, -y+1/2, -z+1/2'
'y+1/2, x+1/2, -z+1/2'
'-y+1/2, -x+1/2, -z+1/2'
'-x, -y, -z'
'x, y, -z'
'y, -x, -z'
'-y, x, -z'
'x-1/2, -y-1/2, z-1/2'
'-x-1/2, y-1/2, z-1/2'
'-y-1/2, -x-1/2, z-1/2'
'y-1/2, x-1/2, z-1/2'
loop_
_atom_site_label
_atom_site_type_symbol
_atom_site_fract_x
_atom_site_fract_y
_atom_site_fract_z
_atom_site_U_iso_or_equiv
_atom_site_adp_type
_atom_site_occupancy
_atom_site_symmetry_multiplicity
_atom_site_calc_flag
_atom_site_refinement_flags
_atom_site_disorder_group
Co1 Co 0.0000 1.0000 0.0000 0.0221(3) Uani 1 8 d S .
K1 K 0.5000 0.5000 0.0000 0.0296(3) Uani 1 8 d S .
C1 C 0.1920(3) 0.8737(3) 0.0000 0.0351(6) Uani 1 2 d S .
C2 C 0.0000 1.0000 0.1629(4) 0.0412(10) Uani 1 4 d S .
N1 N 0.3088(4) 0.8009(4) 0.0000 0.0648(9) Uani 1 2 d S .
N2 N 0.5000 0.5000 0.2392(3) 0.075(2) Uani 1 4 d S .
C3 C 0.3990(5) 0.1010(5) 0.2500 0.102(2) Uani 0.61(3) 2 d SP 1
H3A H 0.3861 0.2180 0.2500 0.153 Uiso 0.303(13) 1 d PR 1
H3B H 0.3490 0.0585 0.1826 0.153 Uiso 0.303(13) 1 d PR 1
H3C H 0.3490 0.0585 0.3175 0.153 Uiso 0.303(13) 1 d PR 1
N3 N 0.5638(10) 0.0638(10) 0.2500 0.051(4) Uani 0.303(13) 2 d SP 1
H3D H 0.6093 0.1095 0.3124 0.062 Uiso 0.303(13) 1 d PR 1
C3' C 0.3990(5) 0.1010(5) 0.2500 0.102(2) Uani 0.39(3) 2 d SP 2
H3'A H 0.3325 0.1673 0.1989 0.153 Uiso 0.197(13) 1 d PR 2
H3'B H 0.3276 0.0385 0.2976 0.153 Uiso 0.197(13) 1 d PR 2
H3'C H 0.4613 0.1722 0.2976 0.153 Uiso 0.197(13) 1 d PR 2
N3' N 0.5000 0.0000 0.1855(19) 0.086(11) Uani 0.197(13) 2 d SP 2
H3'D H 0.5619 0.0619 0.1397 0.103 Uiso 0.197(13) 1 d PR 2
loop_
_atom_site_aniso_label
_atom_site_aniso_U_11
_atom_site_aniso_U_22
_atom_site_aniso_U_33
_atom_site_aniso_U_23
_atom_site_aniso_U_13
_atom_site_aniso_U_12
Co1 0.0243(3) 0.0243(3) 0.0177(4) 0.000 0.000 0.000
K1 0.0343(4) 0.0343(4) 0.0201(5) 0.000 0.000 0.000
C1 0.0366(14) 0.0345(13) 0.0341(12) 0.000 0.000 0.0027(11)
C2 0.0500(15) 0.0500(15) 0.0236(18) 0.000 0.000 0.000
N1 0.0465(16) 0.0585(17) 0.089(3) 0.000 0.000 0.0212(15)
N2 0.100(3) 0.100(3) 0.023(2) 0.000 0.000 0.000
C3 0.090(3) 0.090(3) 0.125(6) -0.024(2) -0.024(2) 0.021(3)
N3 0.059(5) 0.059(5) 0.036(6) -0.001(3) 0.001(3) -0.024(6)
C3' 0.090(3) 0.090(3) 0.125(6) -0.024(2) -0.024(2) 0.021(3)
N3' 0.117(19) 0.102(17) 0.038(12) 0.000 0.000 -0.073(16)
loop_
_atom_type_symbol
_atom_type_description
_atom_type_scat_dispersion_real
_atom_type_scat_dispersion_imag
_atom_type_scat_source
C C 0.0033 0.0016 'International Tables Vol C Tables 4.2.6.8 and 6.1.1.4'
H H 0.0000 0.0000 'International Tables Vol C Tables 4.2.6.8 and 6.1.1.4'
N N 0.0061 0.0033 'International Tables Vol C Tables 4.2.6.8 and 6.1.1.4'
K K 0.2009 0.2494 'International Tables Vol C Tables 4.2.6.8 and 6.1.1.4'
Co Co 0.3494 0.9721 'International Tables Vol C Tables 4.2.6.8 and 6.1.1.4'
loop_
_geom_angle_atom_site_label_1
_geom_angle_atom_site_label_2
_geom_angle_atom_site_label_3
_geom_angle
_geom_angle_site_symmetry_1
_geom_angle_site_symmetry_3
C2 Co1 C2 180.0 9_575 .
C2 Co1 C1 90.0 9_575 11_465
C2 Co1 C1 90.0 . 11_465
C2 Co1 C1 90.0 9_575 3_665
C2 Co1 C1 90.0 . 3_665
C1 Co1 C1 180.0 11_465 3_665
C2 Co1 C1 90.0 9_575 .
C2 Co1 C1 90.0 . .
C1 Co1 C1 90.0 11_465 .
C1 Co1 C1 90.0 3_665 .
C2 Co1 C1 90.0 9_575 9_575
C2 Co1 C1 90.0 . 9_575
C1 Co1 C1 90.0 11_465 9_575
C1 Co1 C1 90.0 3_665 9_575
C1 Co1 C1 180.0 . 9_575
N2 K1 N2 180.0 9_665 .
N2 K1 N1 90.0 9_665 .
N2 K1 N1 90.0 . .
N2 K1 N1 90.0 9_665 11_565
N2 K1 N1 90.0 . 11_565
N1 K1 N1 90.0 . 11_565
N2 K1 N1 90.0 9_665 3_655
N2 K1 N1 90.0 . 3_655
N1 K1 N1 90.0 . 3_655
N1 K1 N1 180.0 11_565 3_655
N2 K1 N1 90.0 9_665 9_665
N2 K1 N1 90.0 . 9_665
N1 K1 N1 180.0 . 9_665
N1 K1 N1 90.0 11_565 9_665
N1 K1 N1 90.0 3_655 9_665
N1 C1 Co1 178.6(3) . .
N2 C2 Co1 180.000(1) 5 .
C1 N1 K1 154.4(3) . .
C2 N2 K1 180.000(1) 5_545 .
N3 C3 N3 64.5(8) 2_655 .
C3 N3 C3 115.5(8) . 2_655
C3 N3 N3 57.7(4) . 2_655
C3 N3 N3 57.7(4) 2_655 2_655
C3' N3' N3' 57.7(8) 2_655 7_545
loop_
_geom_bond_atom_site_label_1
_geom_bond_atom_site_label_2
_geom_bond_distance
_geom_bond_site_symmetry_2
Co1 C2 1.893(4) 9_575
Co1 C2 1.893(4) .
Co1 C1 1.905(3) 11_465
Co1 C1 1.905(3) 3_665
Co1 C1 1.905(3) .
Co1 C1 1.905(3) 9_575
K1 N2 2.780(4) 9_665
K1 N2 2.780(4) .
K1 N1 2.955(3) .
K1 N1 2.955(3) 11_565
K1 N1 2.955(3) 3_655
K1 N1 2.955(3) 9_665
C1 N1 1.141(4) .
C2 N2 1.138(5) 5
N2 C2 1.138(5) 5_545
C3 N3 1.401(7) 2_655
C3 N3 1.401(7) .
N3 C3 1.401(7) 2_655
N3 N3 1.50(2) 2_655
N3' C3' 1.402(12) 2_655
N3' N3' 1.50(4) 7_545
