#------------------------------------------------------------------------------
#$Date: 2016-03-22 13:01:05 +0200 (Tue, 22 Mar 2016) $
#$Revision: 178969 $
#$URL: svn://www.crystallography.net/cod/cif/4/11/98/4119829.cif $
#------------------------------------------------------------------------------
#
# This file is available in the Crystallography Open Database (COD),
# http://www.crystallography.net/
#
# All data on this site have been placed in the public domain by the
# contributors.
#
data_4119829
loop_
_publ_author_name
'Deshun Huang'
'Xiaoqin Liu'
'Lijun Li'
'Yudong Cai'
'Weigang Liu'
'Yian Shi'
_publ_section_title
;
 Enantioselective Bromoaminocyclization of Allyl N-Tosylcarbamates
 Catalyzed by a Chiral Phosphine-Sc(OTf)3 Complex
;
_journal_name_full               'Journal of the American Chemical Society'
_journal_page_first              8101
_journal_page_last               8104
_journal_paper_doi               10.1021/ja4010877
_journal_volume                  135
_journal_year                    2013
_chemical_absolute_configuration ad
_chemical_formula_moiety         'C14 H18 Br N O4 S'
_chemical_formula_sum            'C14 H18 Br N O4 S'
_chemical_formula_weight         376.26
_chemical_name_systematic
; 
 ? 
;
_space_group_IT_number           4
_symmetry_cell_setting           monoclinic
_symmetry_space_group_name_Hall  'P 2yb'
_symmetry_space_group_name_H-M   'P 1 21 1'
_atom_sites_solution_hydrogens   geom
_atom_sites_solution_primary     direct
_atom_sites_solution_secondary   difmap
_audit_creation_method           SHELXL-97
_cell_angle_alpha                90.00
_cell_angle_beta                 95.035(5)
_cell_angle_gamma                90.00
_cell_formula_units_Z            2
_cell_length_a                   8.056(3)
_cell_length_b                   11.620(4)
_cell_length_c                   8.287(3)
_cell_measurement_reflns_used    2633
_cell_measurement_temperature    173(2)
_cell_measurement_theta_max      27.45
_cell_measurement_theta_min      1.75
_cell_volume                     772.8(5)
_computing_cell_refinement       'CrystalClear (Rigaku Inc., 2007)'
_computing_data_collection       'CrystalClear (Rigaku Inc., 2007)'
_computing_data_reduction        'CrystalClear (Rigaku Inc., 2007)'
_computing_molecular_graphics    'Olex2 ver 1.1'
_computing_publication_material  'SHELX97 (Sheldrick, 2008)'
_computing_structure_refinement  'Olex2 ver 1.1'
_computing_structure_solution    'SHELXS-97 (Sheldrick, 2008)'
_diffrn_ambient_temperature      173(2)
_diffrn_measured_fraction_theta_full 0.991
_diffrn_measured_fraction_theta_max 0.991
_diffrn_measurement_device_type  'Saturn724+ CCD'
_diffrn_measurement_method       '\w scans at fixed \c = 45\%'
_diffrn_radiation_monochromator  graphite
_diffrn_radiation_source         'sealed tube'
_diffrn_radiation_type           MoK\a
_diffrn_radiation_wavelength     0.71073
_diffrn_reflns_av_R_equivalents  0.0421
_diffrn_reflns_av_sigmaI/netI    0.0393
_diffrn_reflns_limit_h_max       10
_diffrn_reflns_limit_h_min       -10
_diffrn_reflns_limit_k_max       15
_diffrn_reflns_limit_k_min       -14
_diffrn_reflns_limit_l_max       10
_diffrn_reflns_limit_l_min       -10
_diffrn_reflns_number            8667
_diffrn_reflns_theta_full        27.45
_diffrn_reflns_theta_max         27.45
_diffrn_reflns_theta_min         3.03
_exptl_absorpt_coefficient_mu    2.809
_exptl_absorpt_correction_T_max  1.0000
_exptl_absorpt_correction_T_min  0.5395
_exptl_absorpt_correction_type   multi-scan
_exptl_absorpt_process_details   'CrystalClear (Rigaku Inc., 2007)'
_exptl_crystal_colour            colorless
_exptl_crystal_density_diffrn    1.617
_exptl_crystal_description       plate
_exptl_crystal_F_000             384
_exptl_crystal_size_max          0.37
_exptl_crystal_size_mid          0.13
_exptl_crystal_size_min          0.05
_refine_diff_density_max         0.426
_refine_diff_density_min         -0.357
_refine_diff_density_rms         0.060
_refine_ls_abs_structure_details 'Flack H D (1983), Acta Cryst. A39, 876-881'
_refine_ls_abs_structure_Flack   0.027(6)
_refine_ls_extinction_method     none
_refine_ls_goodness_of_fit_ref   1.103
_refine_ls_hydrogen_treatment    constr
_refine_ls_matrix_type           full
_refine_ls_number_parameters     192
_refine_ls_number_reflns         3281
_refine_ls_number_restraints     1
_refine_ls_restrained_S_all      1.103
_refine_ls_R_factor_all          0.0306
_refine_ls_R_factor_gt           0.0290
_refine_ls_shift/su_max          0.001
_refine_ls_shift/su_mean         0.000
_refine_ls_structure_factor_coef Fsqd
_refine_ls_weighting_details
'calc w=1/[\s^2^(Fo^2^)+(0.0310P)^2^+0.1175P] where P=(Fo^2^+2Fc^2^)/3'
_refine_ls_weighting_scheme      calc
_refine_ls_wR_factor_gt          0.0698
_refine_ls_wR_factor_ref         0.0707
_reflns_number_gt                3186
_reflns_number_total             3281
_reflns_threshold_expression     >2sigma(I)
_cod_data_source_file            ja4010877_si_004.cif
_cod_data_source_block           sa2376
_cod_original_cell_volume        772.7(5)
_cod_database_code               4119829
loop_
_symmetry_equiv_pos_as_xyz
'x, y, z'
'-x, y+1/2, -z'
loop_
_atom_site_label
_atom_site_type_symbol
_atom_site_fract_x
_atom_site_fract_y
_atom_site_fract_z
_atom_site_U_iso_or_equiv
_atom_site_adp_type
_atom_site_occupancy
_atom_site_symmetry_multiplicity
_atom_site_calc_flag
_atom_site_refinement_flags
Br1 Br 0.29095(3) 0.42427(3) 1.14164(3) 0.03593(10) Uani 1 1 d .
S02 S 0.50170(7) 0.44393(5) 0.69065(7) 0.02140(14) Uani 1 1 d .
O1 O 0.6397(3) 0.28064(18) 1.0870(2) 0.0294(4) Uani 1 1 d .
O2 O 0.6060(2) 0.22878(16) 0.8324(2) 0.0269(4) Uani 1 1 d .
O3 O 0.4501(2) 0.56199(15) 0.6889(2) 0.0278(4) Uani 1 1 d .
O4 O 0.6276(2) 0.40975(19) 0.58904(19) 0.0284(4) Uani 1 1 d .
N1 N 0.5712(2) 0.4191(2) 0.8864(2) 0.0204(4) Uani 1 1 d .
C1 C 0.5276(3) 0.4664(2) 1.1650(3) 0.0264(6) Uani 1 1 d .
H1 H 0.5448 0.5271 1.2504 0.032 Uiso 1 1 calc R
C2 C 0.5794(3) 0.5151(2) 1.0057(3) 0.0237(5) Uani 1 1 d .
H2 H 0.4989 0.5765 0.9662 0.028 Uiso 1 1 calc R
C3 C 0.6060(3) 0.3054(2) 0.9301(3) 0.0232(5) Uani 1 1 d .
C4 C 0.6302(4) 0.3623(3) 1.2183(3) 0.0321(7) Uani 1 1 d .
H4A H 0.7441 0.3871 1.2579 0.038 Uiso 1 1 calc R
H4B H 0.5799 0.3242 1.3092 0.038 Uiso 1 1 calc R
C5 C 0.7556(4) 0.5673(3) 1.0319(3) 0.0306(6) Uani 1 1 d .
H5A H 0.7540 0.6309 1.1113 0.037 Uiso 1 1 calc R
H5B H 0.8331 0.5077 1.0792 0.037 Uiso 1 1 calc R
C6 C 0.8215(4) 0.6129(3) 0.8789(4) 0.0297(6) Uani 1 1 d .
H6A H 0.7381 0.6658 0.8243 0.036 Uiso 1 1 calc R
H6B H 0.8369 0.5479 0.8046 0.036 Uiso 1 1 calc R
C7 C 0.9862(4) 0.6764(3) 0.9119(4) 0.0352(7) Uani 1 1 d .
H7A H 1.0284 0.6983 0.8088 0.053 Uiso 1 1 calc R
H7B H 1.0671 0.6262 0.9724 0.053 Uiso 1 1 calc R
H7C H 0.9690 0.7458 0.9756 0.053 Uiso 1 1 calc R
C8 C 0.3248(3) 0.3555(2) 0.6516(3) 0.0217(5) Uani 1 1 d .
C9 C 0.3376(3) 0.2522(2) 0.5715(3) 0.0243(5) Uani 1 1 d .
H9 H 0.4417 0.2273 0.5385 0.029 Uiso 1 1 calc R
C10 C 0.1948(3) 0.1848(2) 0.5400(3) 0.0274(6) Uani 1 1 d .
H10 H 0.2020 0.1136 0.4848 0.033 Uiso 1 1 calc R
C11 C 0.0419(4) 0.2208(3) 0.5886(3) 0.0281(6) Uani 1 1 d .
C12 C 0.0337(3) 0.3260(3) 0.6695(3) 0.0285(6) Uani 1 1 d .
H12 H -0.0701 0.3513 0.7029 0.034 Uiso 1 1 calc R
C13 C 0.1735(3) 0.3941(2) 0.7019(3) 0.0250(6) Uani 1 1 d .
H13 H 0.1667 0.4653 0.7571 0.030 Uiso 1 1 calc R
C14 C -0.1118(4) 0.1483(3) 0.5584(4) 0.0405(8) Uani 1 1 d .
H14A H -0.0804 0.0669 0.5573 0.061 Uiso 1 1 calc R
H14B H -0.1701 0.1691 0.4537 0.061 Uiso 1 1 calc R
H14C H -0.1855 0.1617 0.6446 0.061 Uiso 1 1 calc R
loop_
_atom_site_aniso_label
_atom_site_aniso_U_11
_atom_site_aniso_U_22
_atom_site_aniso_U_33
_atom_site_aniso_U_23
_atom_site_aniso_U_13
_atom_site_aniso_U_12
Br1 0.03463(15) 0.03043(16) 0.04474(18) -0.00065(13) 0.01490(11) -0.00239(12)
S02 0.0237(3) 0.0212(3) 0.0189(3) 0.0016(2) -0.0004(2) -0.0029(2)
O1 0.0426(11) 0.0245(10) 0.0208(10) 0.0020(8) 0.0021(8) 0.0090(8)
O2 0.0358(11) 0.0208(10) 0.0237(9) -0.0027(8) 0.0001(8) 0.0031(8)
O3 0.0338(10) 0.0198(10) 0.0286(10) 0.0048(8) -0.0046(8) -0.0025(8)
O4 0.0294(9) 0.0344(13) 0.0219(9) -0.0014(9) 0.0061(7) -0.0058(9)
N1 0.0253(9) 0.0165(10) 0.0193(9) -0.0003(9) 0.0018(7) 0.0018(10)
C1 0.0323(14) 0.0244(13) 0.0231(13) -0.0031(11) 0.0060(11) -0.0020(11)
C2 0.0289(14) 0.0193(13) 0.0227(13) -0.0031(10) 0.0019(11) -0.0021(10)
C3 0.0223(13) 0.0207(13) 0.0268(14) 0.0003(11) 0.0030(11) 0.0012(10)
C4 0.0432(18) 0.0318(16) 0.0211(14) 0.0002(12) 0.0020(12) 0.0043(13)
C5 0.0341(15) 0.0311(15) 0.0265(14) -0.0063(12) 0.0028(12) -0.0084(12)
C6 0.0296(15) 0.0284(15) 0.0310(15) -0.0038(12) 0.0032(12) -0.0035(12)
C7 0.0311(15) 0.0322(16) 0.0432(17) -0.0041(14) 0.0088(13) -0.0078(12)
C8 0.0225(12) 0.0229(14) 0.0194(12) 0.0020(10) -0.0005(10) -0.0024(10)
C9 0.0233(12) 0.0280(14) 0.0223(13) -0.0012(11) 0.0052(10) 0.0000(10)
C10 0.0326(15) 0.0278(15) 0.0216(13) -0.0026(12) 0.0004(11) -0.0039(12)
C11 0.0287(14) 0.0322(15) 0.0231(14) 0.0018(12) 0.0012(11) -0.0048(12)
C12 0.0235(13) 0.0290(15) 0.0331(14) -0.0044(12) 0.0033(11) 0.0014(11)
C13 0.0264(13) 0.0240(14) 0.0241(13) -0.0048(10) 0.0000(10) 0.0025(10)
C14 0.0332(16) 0.0436(19) 0.0452(19) -0.0092(15) 0.0066(14) -0.0128(14)
loop_
_atom_type_symbol
_atom_type_description
_atom_type_scat_dispersion_real
_atom_type_scat_dispersion_imag
_atom_type_scat_source
C C 0.0033 0.0016 'International Tables Vol C Tables 4.2.6.8 and 6.1.1.4'
H H 0.0000 0.0000 'International Tables Vol C Tables 4.2.6.8 and 6.1.1.4'
N N 0.0061 0.0033 'International Tables Vol C Tables 4.2.6.8 and 6.1.1.4'
O O 0.0106 0.0060 'International Tables Vol C Tables 4.2.6.8 and 6.1.1.4'
S S 0.1246 0.1234 'International Tables Vol C Tables 4.2.6.8 and 6.1.1.4'
Br Br -0.2901 2.4595 'International Tables Vol C Tables 4.2.6.8 and 6.1.1.4'
loop_
_geom_angle_atom_site_label_1
_geom_angle_atom_site_label_2
_geom_angle_atom_site_label_3
_geom_angle
O4 S02 O3 118.70(12)
O4 S02 N1 108.94(10)
O3 S02 N1 104.12(11)
O4 S02 C8 109.48(12)
O3 S02 C8 109.05(13)
N1 S02 C8 105.71(11)
C3 O1 C4 124.7(2)
C3 N1 C2 122.9(2)
C3 N1 S02 116.94(18)
C2 N1 S02 120.01(18)
C4 C1 C2 111.5(2)
C4 C1 Br1 109.3(2)
C2 C1 Br1 110.13(18)
C4 C1 H1 108.6
C2 C1 H1 108.6
Br1 C1 H1 108.6
N1 C2 C1 107.3(2)
N1 C2 C5 112.0(2)
C1 C2 C5 110.0(2)
N1 C2 H2 109.2
C1 C2 H2 109.2
C5 C2 H2 109.2
O2 C3 O1 118.9(2)
O2 C3 N1 122.6(2)
O1 C3 N1 118.5(2)
O1 C4 C1 111.6(2)
O1 C4 H4A 109.3
C1 C4 H4A 109.3
O1 C4 H4B 109.3
C1 C4 H4B 109.3
H4A C4 H4B 108.0
C6 C5 C2 114.0(2)
C6 C5 H5A 108.8
C2 C5 H5A 108.8
C6 C5 H5B 108.8
C2 C5 H5B 108.8
H5A C5 H5B 107.7
C5 C6 C7 112.6(2)
C5 C6 H6A 109.1
C7 C6 H6A 109.1
C5 C6 H6B 109.1
C7 C6 H6B 109.1
H6A C6 H6B 107.8
C6 C7 H7A 109.5
C6 C7 H7B 109.5
H7A C7 H7B 109.5
C6 C7 H7C 109.5
H7A C7 H7C 109.5
H7B C7 H7C 109.5
C9 C8 C13 121.8(2)
C9 C8 S02 120.1(2)
C13 C8 S02 118.1(2)
C8 C9 C10 118.8(2)
C8 C9 H9 120.6
C10 C9 H9 120.6
C11 C10 C9 120.8(3)
C11 C10 H10 119.6
C9 C10 H10 119.6
C10 C11 C12 118.7(3)
C10 C11 C14 121.4(3)
C12 C11 C14 119.8(3)
C13 C12 C11 121.4(3)
C13 C12 H12 119.3
C11 C12 H12 119.3
C12 C13 C8 118.4(2)
C12 C13 H13 120.8
C8 C13 H13 120.8
C11 C14 H14A 109.5
C11 C14 H14B 109.5
H14A C14 H14B 109.5
C11 C14 H14C 109.5
H14A C14 H14C 109.5
H14B C14 H14C 109.5
loop_
_geom_bond_atom_site_label_1
_geom_bond_atom_site_label_2
_geom_bond_distance
Br1 C1 1.961(3)
S02 O4 1.4300(18)
S02 O3 1.433(2)
S02 N1 1.694(2)
S02 C8 1.763(3)
O1 C3 1.336(3)
O1 C4 1.451(3)
O2 C3 1.203(3)
N1 C3 1.392(3)
N1 C2 1.488(3)
C1 C4 1.510(4)
C1 C2 1.528(4)
C1 H1 1.0000
C2 C5 1.542(4)
C2 H2 1.0000
C4 H4A 0.9900
C4 H4B 0.9900
C5 C6 1.512(4)
C5 H5A 0.9900
C5 H5B 0.9900
C6 C7 1.522(4)
C6 H6A 0.9900
C6 H6B 0.9900
C7 H7A 0.9800
C7 H7B 0.9800
C7 H7C 0.9800
C8 C9 1.380(4)
C8 C13 1.396(4)
C9 C10 1.397(4)
C9 H9 0.9500
C10 C11 1.393(4)
C10 H10 0.9500
C11 C12 1.399(4)
C11 C14 1.500(4)
C12 C13 1.383(4)
C12 H12 0.9500
C13 H13 0.9500
C14 H14A 0.9800
C14 H14B 0.9800
C14 H14C 0.9800
loop_
_geom_torsion_atom_site_label_1
_geom_torsion_atom_site_label_2
_geom_torsion_atom_site_label_3
_geom_torsion_atom_site_label_4
_geom_torsion
O4 S02 N1 C3 -62.1(2)
O3 S02 N1 C3 170.31(18)
C8 S02 N1 C3 55.5(2)
O4 S02 N1 C2 122.88(19)
O3 S02 N1 C2 -4.7(2)
C8 S02 N1 C2 -119.55(19)
C3 N1 C2 C1 -32.9(3)
S02 N1 C2 C1 141.78(18)
C3 N1 C2 C5 87.9(3)
S02 N1 C2 C5 -97.4(2)
C4 C1 C2 N1 53.9(3)
Br1 C1 C2 N1 -67.7(2)
C4 C1 C2 C5 -68.2(3)
Br1 C1 C2 C5 170.26(19)
C4 O1 C3 O2 -174.5(3)
C4 O1 C3 N1 5.1(4)
C2 N1 C3 O2 -176.8(2)
S02 N1 C3 O2 8.3(3)
C2 N1 C3 O1 3.6(4)
S02 N1 C3 O1 -171.27(18)
C3 O1 C4 C1 18.0(4)
C2 C1 C4 O1 -48.2(3)
Br1 C1 C4 O1 73.8(3)
N1 C2 C5 C6 58.0(3)
C1 C2 C5 C6 177.3(2)
C2 C5 C6 C7 173.1(3)
O4 S02 C8 C9 17.3(2)
O3 S02 C8 C9 148.6(2)
N1 S02 C8 C9 -99.9(2)
O4 S02 C8 C13 -162.0(2)
O3 S02 C8 C13 -30.6(2)
N1 S02 C8 C13 80.8(2)
C13 C8 C9 C10 0.2(4)
S02 C8 C9 C10 -179.0(2)
C8 C9 C10 C11 -0.1(4)
C9 C10 C11 C12 0.1(4)
C9 C10 C11 C14 -178.8(3)
C10 C11 C12 C13 -0.1(4)
C14 C11 C12 C13 178.8(3)
C11 C12 C13 C8 0.1(4)
C9 C8 C13 C12 -0.2(4)
S02 C8 C13 C12 179.0(2)
