#------------------------------------------------------------------------------
#$Date: 2016-03-22 13:02:56 +0200 (Tue, 22 Mar 2016) $
#$Revision: 178970 $
#$URL: svn://www.crystallography.net/cod/cif/4/11/99/4119976.cif $
#------------------------------------------------------------------------------
#
# This file is available in the Crystallography Open Database (COD),
# http://www.crystallography.net/
#
# All data on this site have been placed in the public domain by the
# contributors.
#
data_4119976
loop_
_publ_author_name
'Alexander G. Tskhovrebov'
'Basile Vuichoud'
'Euro Solari'
'Rosario Scopelliti'
'Kay Severin'
_publ_section_title
;
 Adducts of Nitrous Oxide and N-Heterocyclic Carbenes: Syntheses,
 Structures, and Reactivity
;
_journal_name_full               'Journal of the American Chemical Society'
_journal_page_first              9486
_journal_page_last               9492
_journal_paper_doi               10.1021/ja4030287
_journal_volume                  135
_journal_year                    2013
_chemical_formula_moiety         'C5 H8 N4 O'
_chemical_formula_sum            'C5 H8 N4 O'
_chemical_formula_weight         140.15
_space_group_IT_number           14
_symmetry_cell_setting           monoclinic
_symmetry_space_group_name_Hall  '-P 2ybc'
_symmetry_space_group_name_H-M   'P 1 21/c 1'
_atom_sites_solution_hydrogens   geom
_atom_sites_solution_primary     direct
_atom_sites_solution_secondary   difmap
_audit_creation_method           SHELXL-97
_audit_update_record
;
2013-01-17 # Formatted by publCIF
;
_cell_angle_alpha                90.00
_cell_angle_beta                 94.942(4)
_cell_angle_gamma                90.00
_cell_formula_units_Z            4
_cell_length_a                   5.9744(4)
_cell_length_b                   14.5125(10)
_cell_length_c                   7.4590(3)
_cell_measurement_reflns_used    156
_cell_measurement_temperature    100(2)
_cell_measurement_theta_max      22
_cell_measurement_theta_min      3
_cell_volume                     644.32(7)
_computing_cell_refinement
'Dirax/lsq (Duisenberg & Schreurs, 1989-2000)'
_computing_data_collection       'Collect (Bruker AXS BV, 1997-2004)'
_computing_data_reduction        'EvalCCD (Duisenberg & Schreurs, 1990-2000)'
_computing_molecular_graphics    'Bruker SHELXTL'
_computing_publication_material  'Bruker SHELXTL'
_computing_structure_refinement  'SHELXL-97 (Sheldrick, 1997)'
_computing_structure_solution    'SHELXS-97 (Sheldrick, 1990)'
_diffrn_ambient_temperature      100(2)
_diffrn_measured_fraction_theta_full 0.996
_diffrn_measured_fraction_theta_max 0.996
_diffrn_measurement_device_type  'Bruker APEX II CCD'
_diffrn_measurement_method       'phi and omega scans'
_diffrn_radiation_monochromator  graphite
_diffrn_radiation_source         'fine-focus sealed tube'
_diffrn_radiation_type           MoK\a
_diffrn_radiation_wavelength     0.71073
_diffrn_reflns_av_R_equivalents  0.0281
_diffrn_reflns_av_sigmaI/netI    0.0138
_diffrn_reflns_limit_h_max       7
_diffrn_reflns_limit_h_min       -7
_diffrn_reflns_limit_k_max       17
_diffrn_reflns_limit_k_min       -16
_diffrn_reflns_limit_l_max       8
_diffrn_reflns_limit_l_min       -7
_diffrn_reflns_number            8799
_diffrn_reflns_theta_full        24.99
_diffrn_reflns_theta_max         24.99
_diffrn_reflns_theta_min         3.08
_exptl_absorpt_coefficient_mu    0.108
_exptl_absorpt_correction_T_max  0.7452
_exptl_absorpt_correction_T_min  0.6881
_exptl_absorpt_correction_type   multi-scan
_exptl_absorpt_process_details   'SADABS 2008, Bruker AXS, 2008'
_exptl_crystal_colour            yellow
_exptl_crystal_density_diffrn    1.445
_exptl_crystal_description       prismatic
_exptl_crystal_F_000             296
_exptl_crystal_size_max          0.44
_exptl_crystal_size_mid          0.25
_exptl_crystal_size_min          0.21
_refine_diff_density_max         0.195
_refine_diff_density_min         -0.184
_refine_diff_density_rms         0.035
_refine_ls_extinction_coef       0.019(6)
_refine_ls_extinction_expression Fc^*^=kFc[1+0.001xFc^2^\l^3^/sin(2\q)]^-1/4^
_refine_ls_extinction_method     SHELXL
_refine_ls_goodness_of_fit_ref   1.122
_refine_ls_hydrogen_treatment    refall
_refine_ls_matrix_type           full
_refine_ls_number_parameters     124
_refine_ls_number_reflns         1128
_refine_ls_number_restraints     0
_refine_ls_restrained_S_all      1.122
_refine_ls_R_factor_all          0.0341
_refine_ls_R_factor_gt           0.0288
_refine_ls_shift/su_max          0.000
_refine_ls_shift/su_mean         0.000
_refine_ls_structure_factor_coef Fsqd
_refine_ls_weighting_details
'calc w=1/[\s^2^(Fo^2^)+(0.0376P)^2^+0.1963P] where P=(Fo^2^+2Fc^2^)/3'
_refine_ls_weighting_scheme      calc
_refine_ls_wR_factor_gt          0.0725
_refine_ls_wR_factor_ref         0.0763
_reflns_number_gt                1014
_reflns_number_total             1128
_reflns_threshold_expression     >2sigma(I)
_iucr_refine_instructions_details
;
TITL AL283 in P2(1)/c
CELL 0.71073   5.9744  14.5125   7.4590  90.0000  94.9415  90.0000
ZERR    4.00   0.0004   0.0010   0.0003   0.0000   0.0042   0.0000
LATT  1
SYMM -X, 0.5+Y, 0.5-Z
SFAC C H N O
UNIT 20 32 16 4
REM   ----------------------------------------------------------
REM   Data collection: Bruker Nonius APEX II CCD
REM   Absorption correction: SADABS
REM   Crystal habit: prismatic; Crystal colour: yellow
REM   ----------------------------------------------------------
L.S.  10
ACTA
CONF
WPDB -2
BOND  $H
SIZE  0.441 0.247 0.208
FMAP  2
PLAN  10
TEMP -173
WGHT    0.037600    0.196300
EXTI    0.018934
FVAR       1.30768
O1    4    0.697708    0.437515    0.189793    11.00000    0.02003    0.01834 =
         0.02199    0.00262   -0.00237    0.00340
N1    3    1.227547    0.300404    0.457284    11.00000    0.01490    0.01635 =
         0.01456   -0.00086    0.00012   -0.00012
N2    3    1.050083    0.174513    0.369195    11.00000    0.01539    0.01510 =
         0.01482   -0.00023    0.00138    0.00039
N3    3    0.850212    0.309124    0.279939    11.00000    0.01869    0.01563 =
         0.02425    0.00251   -0.00443   -0.00128
N4    3    0.867439    0.398446    0.268226    11.00000    0.02154    0.01663 =
         0.02731   -0.00024   -0.00418    0.00160
C1    1    1.036806    0.267665    0.365403    11.00000    0.01401    0.01654 =
         0.01176   -0.00008    0.00245   -0.00046
C2    1    1.360205    0.225523    0.517881    11.00000    0.01515    0.02190 =
         0.01603    0.00074    0.00016    0.00423
H2    2    1.501503    0.234496    0.586157    11.00000    0.02164
C3    1    1.250653    0.147860    0.463986    11.00000    0.01708    0.01813 =
         0.01696    0.00088    0.00156    0.00359
H3    2    1.288404    0.084717    0.477462    11.00000    0.01746
C4    1    1.300651    0.396687    0.481559    11.00000    0.01880    0.01820 =
         0.02318   -0.00139   -0.00283   -0.00347
H4A   2    1.360658    0.419491    0.372925    11.00000    0.03554
H4B   2    1.417046    0.399101    0.580615    11.00000    0.03992
H4C   2    1.178491    0.434454    0.513152    11.00000    0.03364
C5    1    0.873612    0.112384    0.291045    11.00000    0.01763    0.01715 =
         0.02058   -0.00113    0.00047   -0.00155
H5A   2    0.741630    0.117110    0.357000    11.00000    0.02826
H5B   2    0.932390    0.050468    0.296575    11.00000    0.02960
H5C   2    0.831356    0.129385    0.164557    11.00000    0.02391
HKLF  4
 
REM  AL283 in P2(1)/c
REM R1 =  0.0288 for   1014 Fo > 4sig(Fo)  and  0.0341 for all   1128 data
REM    124 parameters refined using      0 restraints
 
END  
     
WGHT      0.0375      0.1978 
REM Highest difference peak  0.195,  deepest hole -0.184,  1-sigma level  0.035
Q1    1   1.1545  0.2917  0.3764  11.00000  0.05    0.20
Q2    1   1.2584  0.3443  0.4663  11.00000  0.05    0.16
Q3    1   1.3134  0.2651  0.4649  11.00000  0.05    0.16
Q4    1   0.9554  0.2975  0.3216  11.00000  0.05    0.16
Q5    1   1.1229  0.1582  0.4244  11.00000  0.05    0.16
Q6    1   1.0540  0.2232  0.3321  11.00000  0.05    0.16
Q7    1   1.0077  0.4294  0.3197  11.00000  0.05    0.15
Q8    1   1.3552  0.1830  0.4482  11.00000  0.05    0.15
Q9    1   0.7271  0.2771  0.2401  11.00000  0.05    0.14
Q10   1   0.9746  0.1467  0.3210  11.00000  0.05    0.14
;
_cod_data_source_file            ja4030287_si_004.cif
_cod_data_source_block           al283
_cod_original_sg_symbol_H-M      'P 21/c'
_cod_database_code               4119976
loop_
_symmetry_equiv_pos_as_xyz
'x, y, z'
'-x, y+1/2, -z+1/2'
'-x, -y, -z'
'x, -y-1/2, z-1/2'
loop_
_atom_site_label
_atom_site_type_symbol
_atom_site_fract_x
_atom_site_fract_y
_atom_site_fract_z
_atom_site_U_iso_or_equiv
_atom_site_adp_type
_atom_site_occupancy
_atom_site_symmetry_multiplicity
_atom_site_calc_flag
O1 O 0.69771(14) 0.43752(6) 0.18979(11) 0.0204(3) Uani 1 1 d
N1 N 1.22755(16) 0.30040(7) 0.45728(13) 0.0153(3) Uani 1 1 d
N2 N 1.05008(16) 0.17451(7) 0.36919(12) 0.0151(3) Uani 1 1 d
N3 N 0.85021(17) 0.30912(7) 0.27994(14) 0.0199(3) Uani 1 1 d
N4 N 0.86744(18) 0.39845(7) 0.26823(15) 0.0222(3) Uani 1 1 d
C1 C 1.03681(19) 0.26767(8) 0.36540(14) 0.0140(3) Uani 1 1 d
C2 C 1.3602(2) 0.22552(9) 0.51788(16) 0.0178(3) Uani 1 1 d
H2 H 1.502(3) 0.2345(10) 0.586(2) 0.022(4) Uiso 1 1 d
C3 C 1.2507(2) 0.14786(9) 0.46399(16) 0.0174(3) Uani 1 1 d
H3 H 1.288(2) 0.0847(10) 0.4775(18) 0.017(3) Uiso 1 1 d
C4 C 1.3007(2) 0.39669(9) 0.48156(18) 0.0203(3) Uani 1 1 d
H4A H 1.361(3) 0.4195(11) 0.373(2) 0.036(4) Uiso 1 1 d
H4B H 1.417(3) 0.3991(12) 0.581(2) 0.040(5) Uiso 1 1 d
H4C H 1.178(3) 0.4345(11) 0.513(2) 0.034(4) Uiso 1 1 d
C5 C 0.8736(2) 0.11238(9) 0.29105(17) 0.0185(3) Uani 1 1 d
H5A H 0.742(3) 0.1171(11) 0.357(2) 0.028(4) Uiso 1 1 d
H5B H 0.932(3) 0.0505(12) 0.297(2) 0.030(4) Uiso 1 1 d
H5C H 0.831(2) 0.1294(10) 0.165(2) 0.024(4) Uiso 1 1 d
loop_
_atom_site_aniso_label
_atom_site_aniso_U_11
_atom_site_aniso_U_22
_atom_site_aniso_U_33
_atom_site_aniso_U_23
_atom_site_aniso_U_13
_atom_site_aniso_U_12
O1 0.0200(5) 0.0183(5) 0.0220(5) 0.0026(4) -0.0024(4) 0.0034(4)
N1 0.0149(5) 0.0163(6) 0.0146(5) -0.0009(4) 0.0001(4) -0.0001(4)
N2 0.0154(5) 0.0151(6) 0.0148(5) -0.0002(4) 0.0014(4) 0.0004(4)
N3 0.0187(6) 0.0156(6) 0.0242(6) 0.0025(4) -0.0044(4) -0.0013(4)
N4 0.0215(6) 0.0166(6) 0.0273(6) -0.0002(4) -0.0042(4) 0.0016(5)
C1 0.0140(6) 0.0165(7) 0.0118(5) -0.0001(4) 0.0025(5) -0.0005(5)
C2 0.0152(6) 0.0219(7) 0.0160(6) 0.0007(5) 0.0002(5) 0.0042(5)
C3 0.0171(6) 0.0181(7) 0.0170(6) 0.0009(5) 0.0016(5) 0.0036(5)
C4 0.0188(7) 0.0182(7) 0.0232(7) -0.0014(5) -0.0028(5) -0.0035(5)
C5 0.0176(6) 0.0172(7) 0.0206(7) -0.0011(5) 0.0005(5) -0.0016(5)
loop_
_atom_type_symbol
_atom_type_description
_atom_type_scat_dispersion_real
_atom_type_scat_dispersion_imag
_atom_type_scat_source
C C 0.0033 0.0016 'International Tables Vol C Tables 4.2.6.8 and 6.1.1.4'
H H 0.0000 0.0000 'International Tables Vol C Tables 4.2.6.8 and 6.1.1.4'
N N 0.0061 0.0033 'International Tables Vol C Tables 4.2.6.8 and 6.1.1.4'
O O 0.0106 0.0060 'International Tables Vol C Tables 4.2.6.8 and 6.1.1.4'
loop_
_geom_angle_atom_site_label_1
_geom_angle_atom_site_label_2
_geom_angle_atom_site_label_3
_geom_angle
C1 N1 C2 108.53(10)
C1 N1 C4 128.28(10)
C2 N1 C4 123.03(10)
C1 N2 C3 109.52(10)
C1 N2 C5 124.44(10)
C3 N2 C5 125.99(11)
N4 N3 C1 113.63(10)
O1 N4 N3 114.40(10)
N2 C1 N1 107.00(10)
N2 C1 N3 119.37(10)
N1 C1 N3 133.63(11)
C3 C2 N1 107.86(11)
C3 C2 H2 131.0(9)
N1 C2 H2 121.1(9)
C2 C3 N2 107.09(11)
C2 C3 H3 132.3(8)
N2 C3 H3 120.6(8)
N1 C4 H4A 110.4(10)
N1 C4 H4B 108.3(10)
H4A C4 H4B 109.3(13)
N1 C4 H4C 110.4(10)
H4A C4 H4C 110.7(14)
H4B C4 H4C 107.6(14)
N2 C5 H5A 110.1(9)
N2 C5 H5B 108.0(9)
H5A C5 H5B 110.7(13)
N2 C5 H5C 110.0(9)
H5A C5 H5C 108.4(12)
H5B C5 H5C 109.6(12)
loop_
_geom_bond_atom_site_label_1
_geom_bond_atom_site_label_2
_geom_bond_distance
O1 N4 1.2609(14)
N1 C1 1.3636(15)
N1 C2 1.3970(16)
N1 C4 1.4705(16)
N2 C1 1.3543(16)
N2 C3 1.3926(16)
N2 C5 1.4692(16)
N3 N4 1.3039(15)
N3 C1 1.3743(16)
C2 C3 1.3472(19)
C2 H2 0.956(16)
C3 H3 0.947(14)
C4 H4A 0.972(17)
C4 H4B 0.971(18)
C4 H4C 0.958(17)
C5 H5A 0.967(16)
C5 H5B 0.964(17)
C5 H5C 0.987(15)
loop_
_geom_torsion_atom_site_label_1
_geom_torsion_atom_site_label_2
_geom_torsion_atom_site_label_3
_geom_torsion_atom_site_label_4
_geom_torsion
C1 N3 N4 O1 179.86(9)
C3 N2 C1 N1 -0.05(12)
C5 N2 C1 N1 177.57(10)
C3 N2 C1 N3 -179.28(10)
C5 N2 C1 N3 -1.66(16)
C2 N1 C1 N2 0.18(12)
C4 N1 C1 N2 175.64(11)
C2 N1 C1 N3 179.26(12)
C4 N1 C1 N3 -5.3(2)
N4 N3 C1 N2 -172.94(10)
N4 N3 C1 N1 8.07(18)
C1 N1 C2 C3 -0.26(13)
C4 N1 C2 C3 -176.00(11)
N1 C2 C3 N2 0.22(13)
C1 N2 C3 C2 -0.11(13)
C5 N2 C3 C2 -177.69(10)
