#------------------------------------------------------------------------------
#$Date: 2016-02-14 06:40:26 +0200 (Sun, 14 Feb 2016) $
#$Revision: 176432 $
#$URL: svn://www.crystallography.net/cod/cif/4/12/05/4120508.cif $
#------------------------------------------------------------------------------
#
# This file is available in the Crystallography Open Database (COD),
# http://www.crystallography.net/
#
# All data on this site have been placed in the public domain by the
# contributors.
#
data_4120508
loop_
_publ_author_name
'Wong, Joanne W. L.'
'Mailman, Aaron'
'Lekin, Kristina'
'Winter, Stephen M.'
'Yong, Wenjun'
'Zhao, Jianbao'
'Garimella, Subrahmanyam V.'
'Tse, John S.'
'Secco, Richard A.'
'Desgreniers, Serge'
'Ohishi, Yasuo'
'Borondics, Ferenc'
'Oakley, Richard T.'
_publ_section_title
;
 Pressure induced phase transitions and metallization of a neutral radical
 conductor.
;
_journal_issue                   3
_journal_name_full               'Journal of the American Chemical Society'
_journal_page_first              1070
_journal_page_last               1081
_journal_paper_doi               10.1021/ja411057x
_journal_volume                  136
_journal_year                    2014
_chemical_formula_moiety         'C6 H N2 O S4'
_chemical_formula_sum            'C6 H N2 O S4'
_chemical_formula_weight         245.33
_chemical_name_common            HBBO
_chemical_name_systematic        ' ?'
_space_group_IT_number           33
_symmetry_cell_setting           orthorhombic
_symmetry_space_group_name_Hall  'P 2c -2ab'
_symmetry_space_group_name_H-M   'P b n 21'
_cell_angle_alpha                90.0
_cell_angle_beta                 90.0
_cell_angle_gamma                90.0
_cell_formula_units_Z            4
_cell_length_a                   12.9187(19)
_cell_length_b                   14.8422(23)
_cell_length_c                   2.96191(26)
_cell_measurement_temperature    293(2)
_cell_volume                     567.92(13)
_computing_structure_refinement  GSAS
_diffrn_ambient_temperature      293(2)
_diffrn_measurement_device_type  'SPring-8 BL10XU'
_diffrn_radiation_polarisn_ratio 0.95
_diffrn_radiation_probe          x-ray
_diffrn_radiation_type           synchrotron
_diffrn_radiation_wavelength     0.41337
_diffrn_source                   synchrotron
_exptl_absorpt_correction_T_max  1.00000
_exptl_absorpt_correction_T_min  1.00000
_exptl_absorpt_process_details
;   GSAS Absorption/surface roughness correction: function number 0
 No correction is applied.
;
_exptl_crystal_colour            black
_exptl_crystal_density_diffrn    2.870
_pd_calc_method                  'Rietveld Refinement'
_pd_instr_location               ' ?'
_pd_meas_2theta_range_inc        0.01
_pd_meas_2theta_range_max        27.61
_pd_meas_2theta_range_min        1.0
_pd_meas_number_of_points        2662
_pd_phase_name                   HBBO_33/hbbo_33_pbn21_dash.cif
_pd_proc_2theta_range_inc        0.01
_pd_proc_2theta_range_max        27.61223
_pd_proc_2theta_range_min        1.00223
_pd_proc_info_datetime           2013-05-08T12:56:12
_pd_proc_info_excluded_regions   ' ?'
_pd_proc_ls_background_function
;   GSAS Background function number 1 with  8 terms.
 Shifted Chebyshev function of 1st kind
      1:    54838.3     2:    29746.5     3:   -2233.31     4:   -440.173    
      5:   -382.004     6:   -79.1890     7:    21.0579     8:    82.4418    
;
_pd_proc_ls_peak_cutoff          0.00100
_pd_proc_ls_profile_function
;
 CW Profile function number 2 with  18 terms
 Profile coefficients for Simpson's rule integration of pseudovoigt function
 C.J. Howard (1982). J. Appl. Cryst.,15,615-620.
 P. Thompson, D.E. Cox & J.B. Hastings (1987). J. Appl. Cryst.,20,79-83.
 Peak tails are ignored  where the intensity is below 0.0010 times the peak
   Aniso. broadening axis   0.0   0.0   1.0
;
_pd_proc_ls_prof_R_factor        0.0056
_pd_proc_ls_prof_wR_expected     0.0042
_pd_proc_ls_prof_wR_factor       0.0076
_pd_proc_number_of_points        2662
_pd_spec_mounting                ' ?'
_refine_ls_goodness_of_fit_all   1.83
_refine_ls_matrix_type           full
_refine_ls_number_parameters     4
_refine_ls_number_restraints     0
_refine_ls_R_Fsqd_factor         0.38714
_refine_ls_shift/su_max          0.04
_refine_ls_shift/su_mean         0.02
_reflns_d_resolution_high        1.787
_reflns_d_resolution_low         7.421
_reflns_limit_h_max              8
_reflns_limit_h_min              0
_reflns_limit_k_max              9
_reflns_limit_k_min              0
_reflns_limit_l_max              1
_reflns_limit_l_min              0
_reflns_number_total             76
_cod_data_source_file            ja411057x_si_007.cif
_cod_data_source_block           HBBO_12.98GPa
_cod_depositor_comments
;
The following automatic conversions were performed:

'_geom_bond_publ_flag' value 'N' changed to 'n' according to
/usr/data/users/saulius/automatic-downloads/current/ACS/lib/dictionaries/cif_core.dic
dictionary named 'cif_core.dic' version 2.4.2 from 2011-04-26 (17
times).

'_geom_angle_publ_flag' value 'N' changed to 'n' according
to
/usr/data/users/saulius/automatic-downloads/current/ACS/lib/dictionaries/cif_core.dic
dictionary named 'cif_core.dic' version 2.4.2 from 2011-04-26 (24
times).

Automatic conversion script
Id: cif_fix_values 2281 2013-09-26 08:29:07Z andrius 
;
_cod_original_cell_volume        567.93(10)
_cod_original_sg_symbol_Hall     'c -2ab'
_cod_database_code               4120508
#BEGIN Tags that were not found in dictionaries:
_gsas_exptl_extinct_corr_t_min   1.00000
_gsas_exptl_extinct_corr_t_max   1.00000
#END Tags that were not found in dictionaries
loop_
_symmetry_equiv_pos_site_id
_symmetry_equiv_pos_as_xyz
1 +x,+y,+z
2 -x+1/2,+y+1/2,+z
3 +x+1/2,-y+1/2,+z+1/2
4 -x,-y,+z+1/2
loop_
_atom_site_type_symbol
_atom_site_label
_atom_site_fract_x
_atom_site_fract_y
_atom_site_fract_z
_atom_site_occupancy
_atom_site_thermal_displace_type
_atom_site_U_iso_or_equiv
_atom_site_symmetry_multiplicity
S S3 0.23942 1.09636 0.86502 1.0 Uiso 0.0843 4
S S4 0.09302 1.04561 1.08987 1.0 Uiso 0.0843 4
S S1 0.49715 0.70112 0.27731 1.0 Uiso 0.0843 4
S S2 0.53751 0.84181 0.25668 1.0 Uiso 0.0843 4
C C2 0.2065 0.91365 0.81664 1.0 Uiso 0.0843 4
C C1 0.23025 0.81514 0.69946 1.0 Uiso 0.0843 4
C C4 0.38514 0.96631 0.56197 1.0 Uiso 0.0843 4
N N1 0.37388 0.71204 0.45681 1.0 Uiso 0.0843 4
O O1 0.1624 0.75401 0.72257 1.0 Uiso 0.0843 4
C C6 0.34096 0.79841 0.54151 1.0 Uiso 0.0843 4
N N2 0.11228 0.93569 0.98985 1.0 Uiso 0.0843 4
C C3 0.28424 0.98502 0.73376 1.0 Uiso 0.0843 4
C C5 0.41255 0.87383 0.46959 1.0 Uiso 0.0843 4
H H4 0.43906 1.01556 0.51331 1.0 Uiso 0.1686 4
loop_
_atom_type_symbol
_atom_type_number_in_cell
_atom_type_scat_dispersion_real
_atom_type_scat_dispersion_imag
_atom_type_scat_Cromer_Mann_a1
_atom_type_scat_Cromer_Mann_a2
_atom_type_scat_Cromer_Mann_a3
_atom_type_scat_Cromer_Mann_a4
_atom_type_scat_Cromer_Mann_b1
_atom_type_scat_Cromer_Mann_b2
_atom_type_scat_Cromer_Mann_b3
_atom_type_scat_Cromer_Mann_b4
_atom_type_scat_Cromer_Mann_c
_atom_type_scat_source
S 16.0 0.000 0.000 6.90530 1.46790 5.20340 22.2151 1.43790 0.25360 1.58630
56.1720 0.86690 International_Tables_Vol_C
C 24.0 0.000 0.000 2.31000 20.8439 1.02000 10.2075 1.58860 0.56870 0.86500
51.6512 0.21560 International_Tables_Vol_C
N 8.0 0.000 0.000 12.2126 0.00570 3.13220 9.89330 2.01250 28.9975 1.16630
0.58260 -11.529 International_Tables_Vol_C
O 4.0 0.000 0.000 3.04850 13.2771 2.28680 5.70110 1.54630 0.32390 0.86700
32.9089 0.25080 International_Tables_Vol_C
H 4.0 0.000 0.000 0.49300 10.5109 0.32291 26.1257 0.14019 3.14236 0.04081
57.7997 0.00304 International_Tables_Vol_C
loop_
_geom_angle_atom_site_label_1
_geom_angle_atom_site_label_2
_geom_angle_atom_site_label_3
_geom_angle
_geom_angle_site_symmetry_1
_geom_angle_site_symmetry_3
_geom_angle_publ_flag
S4 S3 C3 91.630 1_555 1_555 n
S3 S4 N2 98.987 1_555 1_555 n
S2 S1 N1 98.302 1_555 1_555 n
S1 S2 C5 91.661 1_555 1_555 n
C1 C2 N2 119.5650 1_555 1_555 n
C1 C2 C3 120.594 1_555 1_555 n
N2 C2 C3 119.827 1_555 1_555 n
C2 C1 O1 122.246 1_555 1_555 n
C2 C1 C6 114.3442 1_555 1_555 n
O1 C1 C6 123.388 1_555 1_555 n
C3 C4 C5 118.4754 1_555 1_555 n
C3 C4 H4 122.338 1_555 1_555 n
C5 C4 H4 119.149 1_555 1_555 n
S1 N1 C6 116.0736 1_555 1_555 n
C1 C6 N1 119.8853 1_555 1_555 n
C1 C6 C5 120.751 1_555 1_555 n
N1 C6 C5 119.352 1_555 1_555 n
S4 N2 C2 115.6739 1_555 1_555 n
S3 C3 C2 113.851 1_555 1_555 n
S3 C3 C4 123.4776 1_555 1_555 n
C2 C3 C4 122.670 1_555 1_555 n
S2 C5 C4 122.5652 1_555 1_555 n
S2 C5 C6 114.539 1_555 1_555 n
C4 C5 C6 122.896 1_555 1_555 n
loop_
_geom_bond_atom_site_label_1
_geom_bond_atom_site_label_2
_geom_bond_distance
_geom_bond_site_symmetry_2
_geom_bond_publ_flag
S3 S4 2.14196 1_555 n
S3 C3 1.79369 1_555 n
S4 N2 1.67671 1_555 n
S1 S2 2.15314 1_555 n
S1 N1 1.68671 1_555 n
S2 S1 2.15314 1_555 n
S2 C5 1.79711 1_555 n
C2 C1 1.53375 1_555 n
C2 N2 1.36081 1_555 n
C2 C3 1.48020 1_555 n
C1 O1 1.26342 1_555 n
C1 C6 1.52516 1_555 n
C4 C3 1.42659 1_555 n
C4 C5 1.44372 1_555 n
C4 H4 1.01997 1_555 n
N1 C6 1.37374 1_555 n
C6 C5 1.46759 1_555 n
loop_
_pd_meas_counts_total
_pd_proc_ls_weight
_pd_proc_intensity_bkg_calc
_pd_calc_intensity_total
0.0 0.0 -7971.00000 .
0.0 0.0 -7675.57324 .
0.0 0.0 -7382.57080 .
0.0 0.0 -7091.97266 .
0.0 0.0 -6803.76123 .
0.0 0.0 -6517.91797 .
0.0 0.0 -6234.41943 .
0.0 0.0 -5953.23535 .
0.0 0.0 -5674.36084 .
0.0 0.0 -5397.77295 .
0.0 0.0 -5123.44678 .
0.0 0.0 -4851.35791 .
0.0 0.0 -4581.49854 .
0.0 0.0 -4313.84229 .
0.0 0.0 -4048.37280 .
0.0 0.0 -3785.06470 .
0.0 0.0 -3523.90405 .
0.0 0.0 -3264.86987 .
0.0 0.0 -3007.94653 .
0.0 0.0 -2753.10449 .
0.0 0.0 -2500.33984 .
0.0 0.0 -2249.62817 .
0.0 0.0 -2000.95142 .
0.0 0.0 -1754.28296 .
0.0 0.0 -1509.61609 .
0.0 0.0 -1266.92993 .
0.0 0.0 -1026.20483 .
0.0 0.0 -787.41492 .
0.0 0.0 -550.56000 .
0.0 0.0 -315.61359 .
0.0 0.0 -82.55471 .
0.0 0.0 148.63332 .
0.0 0.0 377.96246 .
0.0 0.0 605.45142 .
0.0 0.0 831.11578 .
0.0 0.0 1054.98279 .
0.0 0.0 1277.05542 .
0.0 0.0 1497.35339 .
0.0 0.0 1715.89771 .
0.0 0.0 1932.70801 .
0.0 0.0 2147.78955 .
0.0 0.0 2361.16333 .
0.0 0.0 2572.84595 .
0.0 0.0 2782.85815 .
0.0 0.0 2991.20850 .
0.0 0.0 3197.91553 .
0.0 0.0 3402.99365 .
0.0 0.0 3606.45996 .
0.0 0.0 3808.32739 .
0.0 0.0 4008.61133 .
0.0 0.0 4207.32813 .
0.0 0.0 4404.50000 .
0.0 0.0 4600.12891 .
0.0 0.0 4794.23291 .
0.0 0.0 4986.82813 .
0.0 0.0 5177.93896 .
0.0 0.0 5367.56592 .
0.0 0.0 5555.72852 .
0.0 0.0 5742.43750 .
0.0 0.0 5927.71729 .
0.0 0.0 6111.57178 .
0.0 0.0 6294.01660 .
0.0 0.0 6475.06396 .
0.0 0.0 6654.73779 .
0.0 0.0 6833.04346 .
0.0 0.0 7009.99121 .
0.0 0.0 7185.59766 .
0.0 0.0 7359.88428 .
0.0 0.0 7532.85254 .
0.0 0.0 7704.52197 .
0.0 0.0 7874.90137 .
0.0 0.0 8044.01172 .
0.0 0.0 8211.85547 .
0.0 0.0 8378.44727 .
0.0 0.0 8543.80371 .
8680.0 0.0 8707.94336 .
8746.0 0.0 8870.86523 .
8657.0 0.0 9032.58691 .
8602.0 0.0 9193.12109 .
8462.0 0.0 9352.48633 .
8362.0 0.0 9510.68457 .
8132.0 0.0 9667.72852 .
7979.0 0.0 9823.63965 .
7901.0 0.0 9978.42285 .
7934.0 0.0 10132.08398 .
7992.0 0.0 10284.64453 .
8079.0 0.0 10436.11133 .
8137.0 0.0 10586.50195 .
8188.0 0.0 10735.81348 .
8264.0 0.0 10884.06934 .
8376.0 0.0 11031.27930 .
8457.0 0.0 11177.45410 .
8550.0 0.0 11322.59961 .
8642.0 0.0 11466.72852 .
8769.0 0.0 11609.85742 .
8847.0 0.0 11751.99512 .
8949.0 0.0 11893.14258 .
9075.0 0.0 12033.32031 .
9210.0 0.0 12172.53711 .
9311.0 0.0 12310.80371 .
9435.0 0.0 12448.12500 .
9581.0 0.0 12584.51270 .
9705.0 0.0 12719.98340 .
9830.0 0.0 12854.54590 .
9975.0 0.0 12988.20215 .
10142.0 0.0 13120.96680 .
10240.0 0.0 13252.84961 .
10440.0 0.0 13383.86133 .
10616.0 0.0 13514.01172 .
10708.0 0.0 13643.30762 .
10875.0 0.0 13771.75977 .
11058.0 0.0 13899.37695 .
11222.0 0.0 14026.17285 .
11329.0 0.0 14152.15039 .
11513.0 0.0 14277.32422 .
11720.0 0.0 14401.69629 .
11841.0 0.0 14525.28027 .
12026.0 0.0 14648.08105 .
12224.0 0.0 14770.11426 .
12362.0 0.0 14891.38867 .
12496.0 0.0 15011.90723 .
12696.0 0.0 15131.67676 .
12904.0 0.0 15250.70898 .
13025.0 0.0 15369.02051 .
13165.0 0.0 15486.60840 .
13419.0 0.0 15603.48145 .
13553.0 0.0 15719.65723 .
13677.0 0.0 15835.13574 .
13910.0 0.0 15949.92480 .
14108.0 0.0 16064.03613 .
14247.0 0.0 16177.47559 .
14393.0 0.0 16290.24707 .
14636.0 0.0 16402.37305 .
14799.0 0.0 16513.84570 .
14870.0 0.0 16624.67578 .
15132.0 0.0 16734.87305 .
15360.0 0.0 16844.45313 .
15521.0 0.0 16953.41016 .
15766.0 0.0 17061.76367 .
16099.0 0.0 17169.50391 .
16438.0 0.0 17276.65234 .
16883.0 0.0 17383.20898 .
17724.0 0.0 17489.18555 .
18420.0 0.0 17594.59180 .
18210.0 0.0 17699.42773 .
17762.0 0.0 17803.70508 .
17557.0 0.0 17907.42188 .
17492.0 0.0 18010.59961 .
17524.0 0.0 18113.23438 .
17688.0 0.0 18215.33398 .
17840.0 0.0 18316.90625 .
17913.0 0.0 18417.96484 .
18055.0 0.0 18518.50000 .
18253.0 0.0 18618.53125 .
18395.0 0.0 18718.06250 .
18471.0 0.0 18817.09766 .
18647.0 0.0 18915.64844 .
18830.0 0.0 19013.71094 .
18960.0 0.0 19111.29688 .
19050.0 0.0 19208.41602 .
19240.0 0.0 19305.06836 .
19387.0 0.0 19401.26367 .
19446.0 0.0 19497.00391 .
19643.0 0.0 19592.30469 .
19772.0 0.0 19687.15625 .
19899.0 0.0 19781.57617 .
20001.0 0.0 19875.56445 .
20150.0 0.0 19969.13477 .
20291.0 0.0 20062.27734 .
20361.0 0.0 20155.01172 .
20529.0 0.0 20247.33594 .
20643.0 0.0 20339.26367 .
20713.0 0.0 20430.79102 .
20822.0 0.0 20521.92383 .
20966.0 0.0 20612.67188 .
21103.0 0.0 20703.04297 .
21174.0 0.0 20793.03320 .
21318.0 0.0 20882.65234 .
21424.0 0.0 20971.90430 .
21461.0 0.0 21060.79688 .
21545.0 0.0 21149.33789 .
21637.0 0.0 21237.52344 .
21754.0 0.0 21325.35938 .
21833.0 0.0 21412.85547 .
21915.0 0.0 21500.02148 .
22033.0 0.0 21586.84570 .
22093.0 0.0 21673.34180 .
22124.0 0.0 21759.51758 .
22233.0 0.0 21845.38086 .
22336.0 0.0 21930.91992 .
22430.0 0.0 22016.15234 .
22487.0 0.0 22101.08203 .
22577.0 0.0 22185.70703 .
22639.0 0.0 22270.03516 .
22729.0 0.0 22354.06836 .
22813.0 0.0 22437.81641 .
22889.0 0.0 22521.28320 .
22965.0 0.0 22604.46094 .
23065.0 0.0 22687.36328 .
23146.0 0.0 22770.00195 .
23216.0 0.0 22852.36523 .
23231.0 0.0000430 22934.46680 22968.88867
23315.0 0.0000429 23016.30273 23054.35352
23407.0 0.0000427 23097.88672 23140.19922
23523.0 0.0000425 23179.21680 23226.57617
23610.0 0.0000424 23260.29688 23313.70508
23711.0 0.0000422 23341.12891 23401.87109
23766.0 0.0000421 23421.72266 23491.50391
23860.0 0.0000419 23502.07422 23583.22852
23934.0 0.0000418 23582.19336 23679.04102
23978.0 0.0000417 23662.07813 23778.61914
24050.0 0.0000416 23741.74023 23885.48047
24119.0 0.0000415 23821.17773 24003.39063
24228.0 0.0000413 23900.38867 24137.40820
24295.0 0.0000412 23979.38867 24293.50195
24375.0 0.0000410 24058.16797 24478.60938
24508.0 0.0000408 24136.74219 24692.21680
24631.0 0.0000406 24215.10352 24927.20117
24835.0 0.0000403 24293.26172 25151.39648
25034.0 0.0000399 24371.21875 25305.37109
25149.0 0.0000398 24448.98047 25344.91406
25102.0 0.0000398 24526.53906 25293.80469
25030.0 0.0000400 24603.90820 25213.74805
25076.0 0.0000399 24681.09180 25147.48047
25110.0 0.0000398 24758.09180 25109.93945
25141.0 0.0000398 24834.90234 25101.46094
25207.0 0.0000397 24911.53125 25117.16016
25256.0 0.0000396 24987.98828 25151.03516
25307.0 0.0000395 25064.26563 25197.62891
25348.0 0.0000395 25140.37500 25252.74219
25415.0 0.0000393 25216.31250 25313.44531
25543.0 0.0000391 25292.09180 25377.85352
25627.0 0.0000390 25367.69922 25444.77930
25717.0 0.0000389 25443.14453 25513.50195
25775.0 0.0000388 25518.43750 25583.56641
25843.0 0.0000387 25593.56836 25654.65039
25910.0 0.0000386 25668.54883 25726.54102
25965.0 0.0000385 25743.37891 25799.08398
26031.0 0.0000384 25818.06250 25872.16797
26080.0 0.0000383 25892.59766 25945.71094
26115.0 0.0000383 25966.99219 26019.66406
26219.0 0.0000381 26041.24219 26093.99023
26326.0 0.0000380 26115.35742 26168.68555
26382.0 0.0000379 26189.33398 26243.73828
26445.0 0.0000378 26263.17773 26319.17773
26528.0 0.0000377 26336.88672 26395.03125
26626.0 0.0000376 26410.47266 26471.35742
26667.0 0.0000375 26483.92383 26548.21875
26741.0 0.0000374 26557.25586 26625.72266
26805.0 0.0000373 26630.45898 26703.99219
26858.0 0.0000372 26703.54688 26783.20117
26947.0 0.0000371 26776.51563 26863.57422
27019.0 0.0000370 26849.36523 26945.41211
27128.0 0.0000369 26922.10156 27029.14648
27197.0 0.0000368 26994.72656 27115.38477
27285.0 0.0000367 27067.24023 27205.01367
27366.0 0.0000365 27139.64063 27299.36523
27427.0 0.0000365 27211.93945 27400.39844
27462.0 0.0000364 27284.13281 27510.89648
27562.0 0.0000363 27356.22070 27634.67773
27609.0 0.0000362 27428.21289 27776.75195
27714.0 0.0000361 27500.09766 27943.76758
27842.0 0.0000359 27571.89258 28145.81445
27984.0 0.0000357 27643.58789 28400.69727
28183.0 0.0000355 27715.19141 28737.50391
28519.0 0.00003506 27786.69922 29184.15039
29097.0 0.00003437 27858.12109 29724.82422
29723.0 0.00003364 27929.44922 30245.46094
30265.0 0.00003304 28000.69336 30499.42188
30144.0 0.00003317 28071.84766 30281.25977
29489.0 0.00003391 28142.91992 29791.37305
29006.0 0.00003448 28213.90820 29332.81055
28786.0 0.00003474 28284.81445 29025.92969
28748.0 0.00003479 28355.64453 28865.11719
28778.0 0.00003475 28426.39453 28800.66797
28798.0 0.00003472 28497.06836 28788.74023
28847.0 0.00003467 28567.66602 28804.50977
28888.0 0.00003462 28638.19141 28836.29102
28918.0 0.00003458 28708.64063 28878.36523
28977.0 0.00003451 28779.02344 28927.52539
29034.0 0.00003444 28849.33203 28981.73242
29122.0 0.00003434 28919.57422 29039.69922
29168.0 0.00003428 28989.74609 29100.57422
29223.0 0.00003422 29059.85938 29163.82422
29313.0 0.00003411 29129.90234 29229.10156
29349.0 0.00003407 29199.88477 29296.23438
29458.0 0.00003395 29269.80078 29365.15625
29553.0 0.00003384 29339.65820 29435.93750
29597.0 0.00003379 29409.45703 29508.79883
29672.0 0.00003370 29479.19727 29584.13086
29767.0 0.00003359 29548.87891 29662.66406
29840.0 0.00003351 29618.50000 29745.80859
29891.0 0.00003345 29688.07422 29836.46680
29954.0 0.00003338 29757.58398 29940.64258
30047.0 0.00003328 29827.05078 30069.67188
30155.0 0.00003316 29896.45313 30241.37109
30283.0 0.00003302 29965.81445 30477.06836
30499.0 0.00003279 30035.12500 30791.31836
30829.0 0.00003244 30104.38086 31172.33203
31228.0 0.00003202 30173.58789 31546.39648
31450.0 0.00003180 30242.75000 31753.86523
31343.0 0.00003191 30311.87109 31685.79297
31077.0 0.00003218 30380.93750 31448.75000
30890.0 0.00003237 30449.96289 31203.10938
30854.0 0.00003241 30518.94336 31023.69922
30867.0 0.00003240 30587.88867 30922.83594
30911.0 0.00003235 30656.77930 30886.09570
30945.0 0.00003232 30725.63477 30892.16211
31005.0 0.00003225 30794.44922 30923.08789
31064.0 0.00003219 30863.22461 30967.41211
31132.0 0.00003212 30931.95703 31019.01953
31169.0 0.00003208 31000.65625 31074.92383
31250.0 0.00003200 31069.31641 31133.62891
31326.0 0.00003192 31137.94141 31194.30859
31386.0 0.00003186 31206.52539 31256.43359
31473.0 0.00003177 31275.07422 31319.65820
31547.0 0.00003170 31343.59180 31392.60938
31609.0 0.00003164 31412.07422 31457.59570
31619.0 0.00003163 31480.52344 31523.10938
31682.0 0.00003156 31548.93750 31589.04688
31747.0 0.00003150 31617.32227 31655.33008
31820.0 0.00003143 31685.67383 31721.89258
31924.0 0.00003132 31753.99023 31790.54492
31974.0 0.00003128 31822.28125 31857.58398
32042.0 0.00003121 31890.54102 31924.78320
32152.0 0.00003110 31958.76953 31992.12500
32206.0 0.00003105 32026.97266 32059.59180
32293.0 0.00003097 32095.14453 32127.16211
32313.0 0.00003095 32163.29102 32194.82617
32374.0 0.00003089 32231.40625 32262.57031
32443.0 0.00003082 32299.49805 32330.38867
32496.0 0.00003077 32367.55664 32398.27344
32601.0 0.00003067 32435.59766 32465.39844
32660.0 0.00003062 32503.60742 32533.41797
32712.0 0.00003057 32571.59570 32601.50000
32798.0 0.00003049 32639.55078 32669.62695
32837.0 0.00003045 32707.49219 32737.81641
32947.0 0.00003035 32775.40234 32806.05469
32993.0 0.00003031 32843.29297 32874.34766
33046.0 0.00003026 32911.16016 32942.69922
33098.0 0.00003021 32979.00781 33011.10938
33147.0 0.00003017 33046.81641 33079.55469
33284.0 0.00003004 33114.61328 33148.08594
33341.0 0.00002999 33182.39063 33216.68359
33431.0 0.00002991 33250.14844 33285.35938
33519.0 0.00002983 33317.87500 33354.10156
33552.0 0.00002980 33385.58594 33422.94141
33632.0 0.00002973 33453.27734 33491.87500
33677.0 0.00002969 33520.94531 33560.91406
33764.0 0.00002962 33588.59375 33630.06641
33831.0 0.00002956 33656.22266 33699.34766
33893.0 0.00002950 33723.83594 33768.78125
33971.0 0.00002944 33791.42188 33838.36719
34032.0 0.00002938 33858.99609 33908.14453
34113.0 0.00002931 33926.54688 33978.11719
34219.0 0.00002922 33994.07422 34048.32422
34278.0 0.00002917 34061.58203 34118.78906
34330.0 0.00002913 34129.08203 34189.56250
34374.0 0.00002909 34196.55469 34260.67188
34454.0 0.00002902 34264.01172 34332.17969
34556.0 0.00002894 34331.44531 34406.12891
34607.0 0.00002890 34398.87109 34478.65234
34689.0 0.00002883 34466.26953 34551.78906
34760.0 0.00002877 34533.65234 34625.64844
34811.0 0.00002873 34601.02344 34700.36328
34892.0 0.00002866 34668.37109 34776.07422
34956.0 0.00002861 34735.70313 34853.00000
35027.0 0.00002855 34803.02344 34931.37891
35104.0 0.00002849 34870.31641 35011.51953
35187.0 0.00002842 34937.59375 35093.83203
35301.0 0.00002833 35004.85547 35178.82813
35426.0 0.00002823 35072.09766 35267.19141
35524.0 0.00002815 35139.33203 35359.84766
35634.0 0.00002806 35206.54297 35458.01953
35791.0 0.00002794 35273.73828 35563.42969
36040.0 0.00002775 35340.91406 35678.51563
36324.0 0.00002753 35408.07813 35807.13281
36608.0 0.00002732 35475.22656 35955.96094
36900.0 0.00002710 35542.34766 36138.84766
37192.0 0.00002689 35609.46094 36386.72266
37420.0 0.00002672 35676.55078 36764.99609
37709.0 0.00002652 35743.62891 37391.45313
38247.0 0.00002615 35810.69141 38429.62500
39290.0 0.00002545 35877.73047 40024.43750
41270.0 0.00002423 35944.75781 42168.68750
44498.0 0.00002247 36011.76563 44501.41016
47290.0 0.00002115 36078.76563 46083.39063
46713.0 0.00002141 36145.73828 45856.54688
43545.0 0.00002296 36212.70313 44058.60547
40743.0 0.00002454 36279.64453 41849.89063
39136.0 0.00002555 36346.57031 39989.33594
38334.0 0.00002609 36413.47266 38706.86719
37943.0 0.00002636 36480.36719 37946.90234
37714.0 0.00002652 36547.23828 37548.08984
37613.0 0.00002659 36614.10547 37357.05078
37599.0 0.00002660 36680.94531 37272.72266
37594.0 0.00002660 36747.76953 37242.26563
37553.0 0.00002663 36814.57031 37241.50781
37537.0 0.00002664 36881.34766 37259.71094
37539.0 0.00002664 36948.12500 37291.66016
37562.0 0.00002662 37014.87891 37334.51953
37581.0 0.00002661 37081.62109 37386.86719
37607.0 0.00002659 37148.33203 37448.07422
37650.0 0.00002656 37215.03125 37519.01563
37729.0 0.00002650 37281.71484 37602.51563
37765.0 0.00002648 37348.37109 37703.20313
37885.0 0.00002640 37415.01953 37836.81250
38035.0 0.00002629 37481.64844 38020.75781
38153.0 0.00002621 37548.25391 38279.53906
38384.0 0.00002605 37614.85156 38635.19531
38735.0 0.00002582 37681.41797 39092.36719
39414.0 0.00002537 37747.96484 39613.52344
40439.0 0.00002473 37814.50391 40079.42969
41154.0 0.00002430 37881.01563 40292.04297
40872.0 0.00002447 37947.50391 40147.54688
40015.0 0.00002499 38013.98047 39783.18359
39399.0 0.00002538 38080.44141 39391.20313
39052.0 0.00002561 38146.87500 39073.78125
38886.0 0.00002572 38213.29297 38858.54688
38838.0 0.00002575 38279.68750 38736.19141
38776.0 0.00002579 38346.06250 38683.14063
38801.0 0.00002577 38412.42188 38675.11719
38855.0 0.00002574 38478.75781 38693.68359
38900.0 0.00002571 38545.07422 38727.35547
38998.0 0.00002564 38611.36719 38769.79688
39010.0 0.00002563 38677.64453 38817.73047
39076.0 0.00002559 38743.89453 38869.42188
39163.0 0.00002553 38810.12500 38923.85938
39209.0 0.00002550 38876.34375 38980.40625
39262.0 0.00002547 38942.52734 39038.58203
39283.0 0.00002546 39008.70313 39098.07813
39312.0 0.00002544 39074.83984 39158.61328
39385.0 0.00002539 39140.96875 39220.03906
39420.0 0.00002537 39207.06641 39282.17578
39490.0 0.00002532 39273.15625 39344.94141
39568.0 0.00002527 39339.20703 39408.21875
39619.0 0.00002524 39405.24219 39471.96094
39653.0 0.00002522 39471.25391 39536.11328
39709.0 0.00002518 39537.24219 39600.62109
39770.0 0.00002514 39603.20313 39665.46094
39815.0 0.00002512 39669.15234 39730.63281
39863.0 0.00002509 39735.07422 39796.09375
39922.0 0.00002505 39800.96875 39861.83984
39984.0 0.00002501 39866.84375 39927.87891
40049.0 0.00002497 39932.69141 39994.20703
40125.0 0.00002492 39998.51563 40060.83594
40182.0 0.00002489 40064.31641 40127.85547
40245.0 0.00002485 40130.08984 40195.14844
40308.0 0.00002481 40195.84375 40262.81641
40399.0 0.00002475 40261.56250 40330.89844
40474.0 0.00002471 40327.26953 40399.46484
40522.0 0.00002468 40392.94922 40469.38672
40580.0 0.00002464 40458.60156 40539.11719
40624.0 0.00002462 40524.22266 40609.58984
40687.0 0.00002458 40589.82031 40680.91797
40750.0 0.00002454 40655.40234 40753.30859
40839.0 0.00002449 40720.94922 40826.94922
40915.0 0.00002444 40786.46875 40893.34375
40994.0 0.00002439 40851.96875 40970.73438
41028.0 0.00002437 40917.43750 41050.57813
41120.0 0.00002432 40982.88672 41133.65234
41175.0 0.00002429 41048.29297 41221.12500
41259.0 0.00002424 41113.67969 41314.95313
41344.0 0.00002419 41179.05078 41418.45313
41378.0 0.00002417 41244.37500 41537.08594
41469.0 0.00002411 41309.69141 41679.53125
41592.0 0.00002404 41374.96875 41858.05469
41724.0 0.00002397 41440.22656 42087.89063
41942.0 0.00002384 41505.44531 42384.40625
42226.0 0.00002368 41570.63672 42757.84375
42640.0 0.00002345 41635.80469 43203.92188
43231.0 0.00002313 41700.94531 43686.70703
43880.0 0.00002279 41766.05469 44113.65625
44200.0 0.00002262 41831.13281 44342.55078
43919.0 0.00002277 41896.18750 44286.01563
43396.0 0.00002304 41961.21094 44010.90625
43043.0 0.00002323 42026.21094 43660.32031
42824.0 0.00002335 42091.17188 43336.64063
42725.0 0.00002341 42156.10938 43082.83984
42682.0 0.00002343 42221.01563 42906.62500
42647.0 0.00002345 42285.89453 42799.28516
42696.0 0.00002342 42350.73828 42745.81641
42691.0 0.00002342 42415.55078 42730.76953
42730.0 0.00002340 42480.33203 42741.35938
42769.0 0.00002338 42545.08984 42768.48438
42784.0 0.00002337 42609.81641 42806.26563
42825.0 0.00002335 42674.51563 42851.21875
42864.0 0.00002333 42739.17188 42901.33594
42953.0 0.00002328 42803.80469 42955.50000
43031.0 0.00002324 42868.41016 43013.07813
43092.0 0.00002321 42932.98047 43073.74609
43182.0 0.00002316 42997.51172 43137.47656
43259.0 0.00002312 43062.02734 43204.52344
43316.0 0.00002309 43126.50000 43275.58594
43450.0 0.00002301 43190.94141 43352.29688
43544.0 0.00002297 43255.35156 43438.09766
43636.0 0.00002292 43319.73828 43540.50781
43690.0 0.00002289 43384.08594 43668.90234
43783.0 0.00002284 43448.40234 43839.70703
43904.0 0.00002278 43512.68359 44069.36328
44112.0 0.00002267 43576.93359 44367.19141
44436.0 0.00002250 43641.15234 44722.81641
44947.0 0.00002225 43705.33594 45087.19141
45469.0 0.00002199 43769.48828 45354.09766
45549.0 0.00002195 43833.60547 45405.79688
45183.0 0.00002213 43897.69922 45251.96875
44795.0 0.00002232 43961.75391 45010.30469
44544.0 0.00002245 44025.77734 44782.86328
44401.0 0.00002252 44089.76563 44614.90234
44402.0 0.00002252 44153.71875 44514.69922
44456.0 0.00002249 44217.63672 44471.95313
44448.0 0.00002250 44281.52734 44470.01563
44462.0 0.00002249 44345.37891 44493.51172
44481.0 0.00002248 44409.19922 44531.56641
44552.0 0.00002245 44472.99219 44577.73047
44604.0 0.00002242 44536.74609 44628.58203
44662.0 0.00002239 44600.46094 44682.40625
44732.0 0.00002236 44664.14063 44738.39063
44830.0 0.00002231 44727.79688 44795.83984
44869.0 0.00002229 44791.41406 44854.50000
44912.0 0.00002227 44854.99219 44914.12891
44958.0 0.00002224 44918.54688 44974.58984
45037.0 0.00002220 44982.06250 45035.73828
45086.0 0.00002218 45045.53516 45097.51563
45146.0 0.00002215 45108.98438 45159.95703
45226.0 0.00002211 45172.39063 45222.95703
45307.0 0.00002207 45235.76953 45293.47656
45392.0 0.00002203 45299.10938 45358.13281
45464.0 0.00002200 45362.42188 45424.00781
45515.0 0.00002197 45425.69141 45491.65234
45584.0 0.00002194 45488.92969 45561.89063
45665.0 0.00002190 45552.13672 45635.70313
45775.0 0.00002185 45615.30078 45714.10156
45925.0 0.00002177 45678.43359 45797.73047
46047.0 0.00002172 45741.53516 45886.29297
46222.0 0.00002163 45804.59375 45977.53516
46392.0 0.00002156 45867.62891 46066.39063
46405.0 0.00002155 45930.62109 46146.42578
46375.0 0.00002156 45993.57813 46213.81641
46347.0 0.00002158 46056.50000 46268.17578
46324.0 0.00002159 46119.39063 46311.85156
46353.0 0.00002157 46182.24609 46367.25781
46342.0 0.00002158 46245.06641 46405.62891
46378.0 0.00002156 46307.84766 46447.44922
46449.0 0.00002153 46370.60156 46493.92969
46481.0 0.00002151 46433.31250 46544.92188
46525.0 0.00002149 46495.98438 46599.87500
46548.0 0.00002148 46558.62891 46658.09375
46623.0 0.00002145 46621.24219 46718.97266
46707.0 0.00002141 46683.81250 46782.02344
46781.0 0.00002138 46746.35547 46847.01563
46830.0 0.00002135 46808.85938 46913.84375
46901.0 0.00002132 46871.32813 46982.68359
46968.0 0.00002129 46933.76563 47054.04297
47057.0 0.00002125 46996.16016 47128.88672
47096.0 0.00002123 47058.52734 47209.03125
47154.0 0.00002121 47120.85156 47297.46484
47263.0 0.00002116 47183.15234 47398.73828
47370.0 0.00002111 47245.41016 47518.92578
47497.0 0.00002105 47307.63281 47664.82031
47602.0 0.00002101 47369.82422 47842.17188
47838.0 0.00002090 47431.97656 48052.66797
48191.0 0.00002075 47494.09375 48289.04297
48687.0 0.00002054 47556.18750 48526.76563
49370.0 0.00002026 47618.24219 48716.61719
49748.0 0.00002010 47680.25391 48802.06250
49491.0 0.00002021 47742.24219 48770.65234
49027.0 0.00002040 47804.19141 48668.30469
48624.0 0.00002057 47866.09766 48551.47266
48426.0 0.00002065 47927.98438 48453.78906
48329.0 0.00002069 47989.82813 48387.86719
48305.0 0.00002070 48051.64844 48354.68750
48353.0 0.00002068 48113.42188 48349.58984
48376.0 0.00002067 48175.16406 48365.87891
48376.0 0.00002067 48236.86719 48397.05859
48429.0 0.00002065 48298.55078 48437.96094
48440.0 0.00002064 48360.19531 48484.94922
48491.0 0.00002062 48421.80469 48535.78906
48532.0 0.00002060 48483.37891 48589.12891
48554.0 0.00002060 48544.91406 48644.19922
48626.0 0.00002057 48606.42578 48700.53906
48719.0 0.00002053 48667.90234 48757.83984
48766.0 0.00002051 48729.34375 48815.89453
48798.0 0.00002049 48790.75000 48874.55859
48841.0 0.00002047 48852.12891 48933.71094
48951.0 0.00002043 48913.46875 48993.26953
49037.0 0.00002039 48974.78125 49055.51563
49088.0 0.00002037 49036.06250 49115.77734
49163.0 0.00002034 49097.30078 49177.98047
49224.0 0.00002032 49158.50781 49238.71094
49287.0 0.00002029 49219.69922 49299.63281
49335.0 0.00002027 49280.83984 49360.70703
49364.0 0.00002026 49341.95703 49421.92578
49446.0 0.00002022 49403.03516 49483.26953
49498.0 0.00002020 49464.08984 49544.73828
49539.0 0.00002019 49525.10156 49606.31250
49611.0 0.00002016 49586.08984 49667.98828
49676.0 0.00002013 49647.05078 49729.78125
49712.0 0.00002012 49707.97656 49791.67188
49744.0 0.00002010 49768.87109 49853.66797
49777.0 0.00002009 49829.73438 49921.23828
49837.0 0.00002007 49890.56641 49983.50391
49908.0 0.00002004 49951.35547 50045.88281
49969.0 0.00002001 50012.13281 50108.39063
50038.0 0.00001998 50072.87109 50171.03906
50091.0 0.00001996 50133.58594 50233.83594
50135.0 0.00001995 50194.26172 50296.79297
50184.0 0.00001993 50254.91406 50360.89844
50235.0 0.00001991 50315.52734 50424.26563
50288.0 0.00001989 50376.10938 50487.88281
50360.0 0.00001986 50436.67188 50551.78516
50438.0 0.00001983 50497.20703 50616.00781
50516.0 0.00001980 50557.70703 50680.60938
50542.0 0.00001979 50618.17578 50745.63672
50603.0 0.00001976 50678.61719 50811.21484
50665.0 0.00001974 50739.03125 50877.40234
50694.0 0.00001973 50799.41016 50944.35547
50769.0 0.00001970 50859.76953 51012.26563
50825.0 0.00001968 50920.09766 51081.37500
50891.0 0.00001965 50980.40234 51152.06250
50966.0 0.00001962 51040.66797 51224.91406
51038.0 0.00001959 51100.91406 51300.84766
51143.0 0.00001955 51161.13281 51381.29297
51235.0 0.00001952 51221.31641 51468.33203
51264.0 0.00001951 51281.47656 51564.76172
51340.0 0.00001948 51341.61719 51673.91016
51427.0 0.00001945 51401.72656 51799.22266
51517.0 0.00001941 51461.80078 51943.41406
51635.0 0.00001937 51521.85938 52107.16797
51755.0 0.00001932 51581.88281 52287.10938
51931.0 0.00001926 51641.88672 52476.89063
52135.0 0.00001918 51701.85156 52665.67969
52416.0 0.00001908 51761.80859 52845.52344
52695.0 0.00001898 51821.73438 52997.87500
52872.0 0.00001891 51881.62891 53095.48047
52905.0 0.00001890 51941.50391 53121.76172
52961.0 0.00001888 52001.34766 53086.35156
52952.0 0.00001889 52061.17188 53015.74609
52827.0 0.00001893 52120.96875 52935.65625
52686.0 0.00001898 52180.75391 52864.21094
52550.0 0.00001903 52240.50000 52811.27344
52537.0 0.00001903 52300.22656 52780.05078
52525.0 0.00001904 52359.92969 52769.97656
52586.0 0.00001902 52419.60938 52777.65625
52640.0 0.00001900 52479.26563 52799.25391
52644.0 0.00001900 52538.89063 52832.39063
52704.0 0.00001897 52598.50000 52873.53516
52789.0 0.00001894 52658.08594 52920.35156
52876.0 0.00001891 52717.65625 52971.19531
52926.0 0.00001889 52777.19141 53024.83203
52979.0 0.00001888 52836.71484 53080.44141
53078.0 0.00001884 52896.21484 53137.30078
53192.0 0.00001880 52955.68359 53194.93359
53215.0 0.00001879 53015.14063 53253.19141
53300.0 0.00001876 53074.57813 53312.09375
53398.0 0.00001873 53133.98828 53371.72656
53417.0 0.00001872 53193.37500 53432.30859
53513.0 0.00001869 53252.75000 53493.43750
53599.0 0.00001866 53312.10156 53555.24609
53722.0 0.00001861 53371.42969 53617.69531
53837.0 0.00001857 53430.73828 53680.73438
53974.0 0.00001853 53490.03125 53744.33203
54087.0 0.00001849 53549.30469 53808.42969
54183.0 0.00001846 53608.55078 53873.03516
54302.0 0.00001842 53667.78516 53938.14844
54498.0 0.00001835 53726.99609 54003.72656
54658.0 0.00001830 53786.19141 54070.55859
54819.0 0.00001824 53845.37500 54137.16797
54951.0 0.00001820 53904.53125 54204.29688
55075.0 0.00001816 53963.67188 54271.96484
55194.0 0.00001812 54022.79297 54340.22266
55299.0 0.00001808 54081.89063 54409.09375
55365.0 0.00001806 54140.98828 54478.64453
55432.0 0.00001804 54200.05859 54548.89063
55514.0 0.00001801 54259.10547 54619.89453
55551.0 0.00001800 54318.14453 54691.74609
55533.0 0.00001801 54377.16797 54764.50781
55502.0 0.00001802 54436.17969 54837.82422
55523.0 0.00001801 54495.16016 54911.85156
55514.0 0.00001801 54554.13281 54987.94531
55532.0 0.00001801 54613.09766 55065.42188
55562.0 0.00001800 54672.03125 55144.41016
55574.0 0.00001799 54730.96484 55225.14453
55638.0 0.00001797 54789.87500 55307.85938
55679.0 0.00001796 54848.77344 55392.86328
55708.0 0.00001795 54907.65625 55480.53125
55766.0 0.00001793 54966.51563 55571.33203
55808.0 0.00001792 55025.37891 55666.04688
55884.0 0.00001789 55084.22266 55765.65625
55978.0 0.00001786 55143.05078 55871.85547
56067.0 0.00001784 55201.85938 55986.74219
56198.0 0.00001779 55260.66406 56115.46875
56369.0 0.00001774 55319.44922 56263.57813
56539.0 0.00001769 55378.23047 56439.26172
56721.0 0.00001763 55436.99609 56652.50391
56992.0 0.00001755 55495.74219 56912.36719
57341.0 0.00001744 55554.48828 57225.80859
57837.0 0.00001729 55613.21094 57592.23438
58507.0 0.00001709 55671.93750 57996.80859
59254.0 0.00001688 55730.63281 58399.53516
59844.0 0.00001671 55789.33203 58728.64844
59891.0 0.00001670 55848.01172 58907.07813
59482.0 0.00001681 55906.68359 58917.13672
58996.0 0.00001695 55965.33984 58820.62109
58711.0 0.00001703 56024.00000 58701.71875
58592.0 0.00001707 56082.64453 58618.92578
58643.0 0.00001705 56141.27344 58601.69141
58771.0 0.00001702 56199.89063 58661.91406
58955.0 0.00001696 56258.50000 58803.06250
59254.0 0.00001688 56317.11719 59025.24219
59638.0 0.00001677 56375.70703 59329.67969
60179.0 0.00001662 56434.28516 59720.43359
60766.0 0.00001646 56492.86719 60205.01953
61474.0 0.00001627 56551.43750 60793.58203
62321.0 0.00001605 56609.99609 61496.50781
63214.0 0.00001582 56668.54297 62320.45703
64220.0 0.00001557 56727.09766 63262.10938
65302.0 0.00001531 56785.63281 64298.13281
66395.0 0.00001506 56844.16016 65371.24609
67369.0 0.00001484 56902.67969 66380.28906
68060.0 0.00001469 56961.19531 67196.60938
68237.0 0.00001465 57019.70313 67717.41406
68015.0 0.00001470 57078.21094 67916.63281
67511.0 0.00001481 57136.69922 67854.65625
66916.0 0.00001494 57195.19531 67652.37500
66417.0 0.00001506 57253.67969 67448.87500
66088.0 0.00001513 57312.16016 67365.59375
65973.0 0.00001516 57370.62891 67490.90625
66268.0 0.00001509 57429.09375 67881.39063
67002.0 0.00001492 57487.55078 68572.64063
68202.0 0.00001466 57546.01172 69582.20313
69786.0 0.00001433 57604.45703 70905.16406
71746.0 0.00001394 57662.89844 72507.39844
73961.0 0.00001352 57721.34375 74303.92188
76137.0 0.00001313 57779.77734 76136.07813
78040.0 0.00001281 57838.21094 77749.23438
79362.0 0.00001260 57896.63281 78843.42188
79773.0 0.00001254 57955.06250 79169.50781
79228.0 0.00001262 58013.48438 78659.19531
78022.0 0.00001282 58071.90234 77463.66406
76359.0 0.00001310 58130.30469 75864.70313
74512.0 0.00001342 58188.72266 74134.96094
72707.0 0.00001375 58247.12109 72445.98438
71041.0 0.00001408 58305.52734 70848.74219
69370.0 0.00001442 58363.91797 69322.07031
67700.0 0.00001477 58422.32031 67863.77344
66234.0 0.00001510 58480.71484 66523.91406
65053.0 0.00001537 58539.10547 65357.71875
64108.0 0.00001560 58597.48828 64387.64453
63377.0 0.00001578 58655.88281 63608.02734
62846.0 0.00001591 58714.26953 62997.72266
62394.0 0.00001603 58772.64844 62528.97656
62076.0 0.00001611 58831.03125 62173.33984
61806.0 0.00001618 58889.40625 61905.14844
61620.0 0.00001623 58947.78125 61703.58984
61449.0 0.00001627 59006.15234 61552.96875
61316.0 0.00001631 59064.53516 61441.98438
61280.0 0.00001632 59122.90625 61362.73047
61266.0 0.00001632 59181.27734 61311.27734
61279.0 0.00001632 59239.64844 61280.18359
61272.0 0.00001632 59298.02344 61267.80469
61311.0 0.00001631 59356.38281 61273.46875
61350.0 0.00001630 59414.75781 61291.26172
61436.0 0.00001628 59473.11719 61322.37109
61516.0 0.00001626 59531.48828 61367.42578
61631.0 0.00001623 59589.84375 61428.39063
61798.0 0.00001618 59648.21484 61508.30078
61969.0 0.00001614 59706.57813 61610.95313
62187.0 0.00001608 59764.94922 61741.27734
62406.0 0.00001602 59823.31250 61905.51563
62742.0 0.00001594 59881.67578 62111.60938
63144.0 0.00001584 59940.03906 62369.44141
63609.0 0.00001572 59998.40625 62688.93750
64142.0 0.00001559 60056.76172 63083.56250
64724.0 0.00001545 60115.12500 63562.47656
65304.0 0.00001531 60173.49219 64131.03906
65956.0 0.00001516 60231.85938 64785.01563
66584.0 0.00001502 60290.22266 65502.80859
67174.0 0.00001489 60348.58594 66235.14063
67546.0 0.00001480 60406.94922 66900.69531
67566.0 0.00001480 60465.31250 67405.69531
67242.0 0.00001487 60523.67969 67683.27344
66825.0 0.00001496 60582.04688 67718.28125
66431.0 0.00001505 60640.41406 67549.72656
66175.0 0.00001511 60698.78125 67257.89063
66024.0 0.00001515 60757.15625 66936.43750
65970.0 0.00001516 60815.51953 66664.25000
66026.0 0.00001515 60873.89063 66493.35938
66196.0 0.00001511 60932.26172 66450.57031
66469.0 0.00001504 60990.63281 66546.07813
66785.0 0.00001497 61049.00000 66768.38281
67107.0 0.00001490 61107.37109 67097.65625
67396.0 0.00001484 61165.74219 67491.82031
67704.0 0.00001477 61224.11719 67884.75000
67903.0 0.00001473 61282.48438 68189.25000
68009.0 0.00001470 61340.86328 68318.31250
67989.0 0.00001471 61399.24219 68218.82813
67830.0 0.00001474 61457.61719 67897.35156
67593.0 0.00001479 61515.98828 67414.24219
67254.0 0.00001487 61574.36328 66847.67188
66823.0 0.00001496 61632.73828 66268.79688
66338.0 0.00001507 61691.11719 65724.38281
65880.0 0.00001518 61749.49219 65239.09375
65411.0 0.00001529 61807.87109 64822.18750
64951.0 0.00001540 61866.25000 64473.73828
64558.0 0.00001549 61924.62500 64189.03906
64248.0 0.00001556 61983.00781 63961.10938
63940.0 0.00001564 62041.38281 63782.16797
63699.0 0.00001570 62099.75781 63644.51172
63504.0 0.00001575 62158.14453 63541.00000
63334.0 0.00001579 62216.52344 63465.28125
63215.0 0.00001582 62274.89453 63411.98047
63094.0 0.00001585 62333.27344 63376.68750
63028.0 0.00001587 62391.65234 63355.87891
63001.0 0.00001587 62450.02734 63346.78516
63029.0 0.00001587 62508.39453 63347.32422
63058.0 0.00001586 62566.77344 63355.91797
63117.0 0.00001584 62625.14844 63371.41406
63188.0 0.00001583 62683.51953 63392.99219
63250.0 0.00001581 62741.88672 63420.19531
63357.0 0.00001578 62800.26172 63452.81250
63501.0 0.00001575 62858.63281 63490.95313
63673.0 0.00001571 62917.00000 63535.02734
63834.0 0.00001567 62975.36328 63585.79297
64001.0 0.00001562 63033.73047 63644.19141
64153.0 0.00001559 63092.09766 63711.33984
64325.0 0.00001555 63150.45703 63788.19531
64486.0 0.00001551 63208.82422 63875.32031
64689.0 0.00001546 63267.17188 63972.26563
64884.0 0.00001541 63325.52734 64076.78125
65049.0 0.00001537 63383.88672 64183.54297
65183.0 0.00001534 63442.23047 64283.73828
65226.0 0.00001533 63500.57813 64367.89453
65208.0 0.00001534 63558.92188 64431.91797
65168.0 0.00001534 63617.26172 64479.51172
65144.0 0.00001535 63675.59375 64517.33203
65152.0 0.00001535 63733.92188 64549.51563
65141.0 0.00001535 63792.26172 64576.31250
65142.0 0.00001535 63850.58594 64597.65234
65130.0 0.00001535 63908.90234 64615.16797
65120.0 0.00001536 63967.22266 64632.02344
65113.0 0.00001536 64025.52734 64651.94531
65135.0 0.00001535 64083.83984 64677.86719
65096.0 0.00001536 64142.14453 64711.48828
65077.0 0.00001537 64200.43750 64753.51953
65087.0 0.00001536 64258.72656 64803.97656
65036.0 0.00001538 64317.02344 64862.39844
65017.0 0.00001538 64375.29688 64927.75391
64996.0 0.00001539 64433.56250 64999.23438
64989.0 0.00001539 64491.82813 65072.30078
64983.0 0.00001539 64550.08984 65144.26172
65018.0 0.00001538 64608.34766 65211.57031
65038.0 0.00001538 64666.59766 65272.12500
65116.0 0.00001536 64724.82813 65326.48438
65154.0 0.00001535 64783.05469 65377.62891
65233.0 0.00001533 64841.27344 65429.43359
65346.0 0.00001530 64899.49219 65485.41406
65463.0 0.00001528 64957.68750 65548.12500
65593.0 0.00001525 65015.89063 65619.81250
65712.0 0.00001522 65074.08203 65703.30469
65831.0 0.00001519 65132.25000 65803.95313
65878.0 0.00001518 65190.42188 65931.19531
65933.0 0.00001517 65248.57031 66099.46875
66031.0 0.00001514 65306.72656 66328.38281
66202.0 0.00001511 65364.85938 66642.14063
66427.0 0.00001505 65422.97656 67067.19531
66843.0 0.00001496 65481.08984 67627.78125
67467.0 0.00001482 65539.19531 68338.06250
68300.0 0.00001464 65597.28125 69190.78125
69481.0 0.00001439 65655.35938 70135.20313
70919.0 0.00001410 65713.42188 71064.11719
72117.0 0.00001387 65771.46094 71819.01563
72591.0 0.00001378 65829.50781 72244.42188
72367.0 0.00001382 65887.52344 72251.31250
71612.0 0.00001396 65945.53125 71851.35156
70717.0 0.00001414 66003.53906 71153.70313
69977.0 0.00001429 66061.49219 70318.20313
69266.0 0.00001444 66119.46094 69481.21875
68520.0 0.00001459 66177.39844 68729.32031
67866.0 0.00001473 66235.33594 68102.54688
67389.0 0.00001484 66293.25000 67609.65625
67082.0 0.00001491 66351.14844 67240.41406
66855.0 0.00001496 66409.02344 66975.53906
66692.0 0.00001499 66466.88281 66795.29688
66631.0 0.00001501 66524.73438 66683.69531
66582.0 0.00001502 66582.55469 66628.82031
66527.0 0.00001503 66640.35156 66620.82813
66505.0 0.00001504 66698.13281 66649.47656
66532.0 0.00001503 66755.89844 66703.92969
66530.0 0.00001503 66813.64844 66774.29688
66568.0 0.00001502 66871.35938 66852.82813
66596.0 0.00001502 66929.07031 66934.52344
66625.0 0.00001501 66986.74219 67016.55469
66672.0 0.00001500 67044.41406 67096.68750
66728.0 0.00001499 67102.04688 67176.27344
66787.0 0.00001497 67159.64844 67255.43750
66825.0 0.00001496 67217.23438 67337.25781
66853.0 0.00001496 67274.80469 67414.06250
66920.0 0.00001494 67332.34375 67490.33594
66976.0 0.00001493 67389.85156 67565.88281
67058.0 0.00001491 67447.33594 67639.71094
67110.0 0.00001490 67504.80469 67710.02344
67168.0 0.00001489 67562.25000 67774.42969
67221.0 0.00001488 67619.63281 67829.67969
67294.0 0.00001486 67677.02344 67874.54688
67357.0 0.00001485 67734.37500 67909.38281
67448.0 0.00001483 67791.70313 67936.14844
67502.0 0.00001481 67848.99219 67957.20313
67591.0 0.00001479 67906.25781 67974.14063
67626.0 0.00001479 67963.50000 67987.67969
67666.0 0.00001478 68020.71094 68001.20313
67716.0 0.00001477 68077.85938 68005.87500
67776.0 0.00001475 68135.00781 68004.05469
67856.0 0.00001474 68192.10938 67994.04688
67936.0 0.00001472 68249.20313 67974.69531
68005.0 0.00001470 68306.22656 67945.75781
68032.0 0.00001470 68363.24219 67909.09375
68074.0 0.00001469 68420.22656 67862.61719
68147.0 0.00001467 68477.14844 67828.92969
68184.0 0.00001467 68534.05469 67815.44531
68266.0 0.00001465 68590.91406 67842.60938
68361.0 0.00001463 68647.73438 67937.06250
68443.0 0.00001461 68704.53125 68128.85938
68580.0 0.00001458 68761.27344 68444.75781
68774.0 0.00001454 68817.98438 68891.39063
69029.0 0.00001449 68874.66406 69433.65625
69272.0 0.00001444 68931.29688 69980.56250
69530.0 0.00001438 68987.90625 70408.78906
69633.0 0.00001436 69044.43750 70638.29688
69639.0 0.00001436 69100.95313 70689.83594
69674.0 0.00001435 69157.42969 70650.78906
69807.0 0.00001433 69213.85938 70604.86719
70113.0 0.00001426 69270.22656 70582.94531
70523.0 0.00001418 69326.57031 70633.12500
70969.0 0.00001409 69382.85938 70720.59375
71371.0 0.00001401 69439.10938 70801.96875
71407.0 0.00001400 69495.29688 70823.73438
71085.0 0.00001407 69551.45313 70755.64063
70720.0 0.00001414 69607.55469 70612.61719
70403.0 0.00001420 69663.60938 70436.95313
70157.0 0.00001425 69719.63281 70269.30469
70004.0 0.00001428 69775.58594 70133.71094
69874.0 0.00001431 69831.49219 70042.32031
69818.0 0.00001432 69887.35938 69995.96094
69788.0 0.00001433 69943.14844 69988.53125
69781.0 0.00001433 69998.92188 70010.69531
69772.0 0.00001433 70054.61719 70052.95313
69821.0 0.00001432 70110.25000 70107.64063
69871.0 0.00001431 70165.85938 70169.03125
69895.0 0.00001431 70221.39063 70233.43750
69932.0 0.00001430 70276.88281 70298.65625
69954.0 0.00001430 70332.30469 70363.46094
69984.0 0.00001429 70387.67188 70427.43750
70045.0 0.00001428 70442.99219 70490.33594
70060.0 0.00001427 70498.23438 70552.28125
70098.0 0.00001427 70553.44531 70613.46875
70195.0 0.00001425 70608.57813 70673.99219
70241.0 0.00001424 70663.66406 70734.10156
70289.0 0.00001423 70718.67969 70793.89063
70345.0 0.00001422 70773.63281 70853.62500
70425.0 0.00001420 70828.51563 70913.34375
70540.0 0.00001418 70883.34375 70973.19531
70612.0 0.00001416 70938.10938 71033.25781
70693.0 0.00001415 70992.80469 71093.54688
70835.0 0.00001412 71047.43750 71155.57813
70981.0 0.00001409 71102.00000 71216.74219
71097.0 0.00001407 71156.50000 71277.51563
71223.0 0.00001404 71210.93750 71340.00000
71323.0 0.00001402 71265.31250 71404.61719
71462.0 0.00001399 71319.59375 71469.11719
71625.0 0.00001396 71373.82031 71535.00000
71769.0 0.00001393 71427.98438 71602.89063
71925.0 0.00001390 71482.06250 71673.02344
72095.0 0.00001387 71536.07031 71746.60156
72284.0 0.00001383 71590.01563 71825.22656
72467.0 0.00001380 71643.88281 71911.30469
72659.0 0.00001376 71697.67188 72008.30469
72888.0 0.00001372 71751.39063 72116.22656
73118.0 0.00001368 71805.03125 72250.05469
73404.0 0.00001362 71858.60156 72410.81250
73668.0 0.00001357 71912.08594 72603.39063
74012.0 0.00001351 71965.50000 72829.61719
74494.0 0.00001342 72018.83594 73085.92969
75140.0 0.00001331 72072.08594 73359.64063
75874.0 0.00001318 72125.25781 73623.37500
76537.0 0.00001307 72178.34375 73834.30469
76679.0 0.00001304 72231.35156 73948.56250
76278.0 0.00001311 72284.28125 73952.51563
75773.0 0.00001320 72337.13281 73874.31250
75363.0 0.00001327 72389.88281 73759.42969
75017.0 0.00001333 72442.57031 73644.71875
74785.0 0.00001337 72495.14844 73546.42969
74642.0 0.00001340 72547.65625 73487.76563
74506.0 0.00001342 72600.06250 73467.04688
74440.0 0.00001343 72652.39844 73484.51563
74390.0 0.00001344 72704.64063 73537.95313
74386.0 0.00001344 72756.79688 73624.67188
74457.0 0.00001343 72808.85156 73742.44531
74560.0 0.00001341 72860.82031 73890.44531
74723.0 0.00001338 72912.69531 74068.96875
74956.0 0.00001334 72964.49219 74278.78906
75145.0 0.00001331 73016.18750 74519.21094
75221.0 0.00001329 73067.78906 74786.22656
75197.0 0.00001330 73119.28125 75071.48438
75152.0 0.00001331 73170.69531 75358.42969
75251.0 0.00001329 73222.00781 75615.56250
75376.0 0.00001327 73273.23438 75797.92188
75450.0 0.00001325 73324.35156 75872.44531
75523.0 0.00001324 73375.35938 75850.72656
75660.0 0.00001322 73426.29688 75778.03906
75992.0 0.00001316 73477.10938 75704.49219
76504.0 0.00001307 73527.83594 75655.79688
76983.0 0.00001299 73578.46094 75631.31250
77212.0 0.00001295 73628.98438 75610.53125
76937.0 0.00001300 73679.39844 75568.48438
76415.0 0.00001309 73729.69531 75493.17969
75920.0 0.00001317 73779.92188 75395.14844
75538.0 0.00001324 73830.01563 75294.60938
75289.0 0.00001328 73880.00781 75208.53906
75130.0 0.00001331 73929.90625 75145.97656
75037.0 0.00001333 73979.70313 75111.35938
75009.0 0.00001333 74029.36719 75108.40625
74982.0 0.00001334 74078.93750 75142.20313
74996.0 0.00001333 74128.39063 75219.23438
75054.0 0.00001332 74177.73438 75347.58594
75135.0 0.00001331 74226.97656 75537.64844
75227.0 0.00001329 74276.11719 75801.50000
75376.0 0.00001327 74325.13281 76151.82031
75604.0 0.00001323 74374.02344 76599.09375
75962.0 0.00001316 74422.80469 77147.72656
76435.0 0.00001308 74471.47656 77790.16406
77185.0 0.00001296 74520.05469 78497.53125
78327.0 0.00001277 74568.47656 79206.09375
79925.0 0.00001251 74616.80469 79807.51563
81352.0 0.00001229 74665.00781 80169.85938
81666.0 0.00001224 74713.10156 80205.89063
80740.0 0.00001239 74761.07031 79942.44531
79448.0 0.00001259 74808.92969 79502.96094
78437.0 0.00001275 74856.66406 79027.34375
77896.0 0.00001284 74904.28125 78620.82031
77642.0 0.00001288 74951.76563 78346.04688
77652.0 0.00001288 74999.14063 78234.42188
77843.0 0.00001285 75046.38281 78295.31250
78287.0 0.00001277 75093.52344 78519.69531
78979.0 0.00001266 75140.50781 78878.88281
79880.0 0.00001252 75187.39063 79318.58594
80751.0 0.00001238 75234.13281 79749.65625
81189.0 0.00001232 75280.76563 80051.58594
80900.0 0.00001236 75327.25781 80112.17969
80158.0 0.00001248 75373.62500 79895.03125
79346.0 0.00001260 75419.86719 79462.37500
78690.0 0.00001271 75465.99219 78923.88281
78244.0 0.00001278 75511.96094 78373.92969
77897.0 0.00001284 75557.83594 77870.03125
77611.0 0.00001288 75603.55469 77438.77344
77447.0 0.00001291 75649.15625 77087.38281
77323.0 0.00001293 75694.62500 76811.43750
77238.0 0.00001295 75739.95313 76600.81250
77142.0 0.00001296 75785.15625 76442.94531
77069.0 0.00001298 75830.22656 76325.55469
77061.0 0.00001298 75875.15625 76238.64063
77062.0 0.00001298 75919.95313 76175.48438
77019.0 0.00001298 75964.64063 76134.64063
76985.0 0.00001299 76009.16406 76113.14844
76970.0 0.00001299 76053.56250 76113.80469
76943.0 0.00001300 76097.80469 76136.94531
76941.0 0.00001300 76141.94531 76180.65625
76956.0 0.00001299 76185.93750 76241.00781
76992.0 0.00001299 76229.77344 76313.96875
76996.0 0.00001299 76273.50000 76396.76563
76991.0 0.00001299 76317.07031 76488.44531
76984.0 0.00001299 76360.50000 76589.16406
76943.0 0.00001300 76403.80469 76701.99219
76937.0 0.00001300 76446.96094 76822.70313
76953.0 0.00001299 76489.97656 76951.81250
76941.0 0.00001300 76532.85156 77085.14063
76949.0 0.00001300 76575.57813 77213.35938
76969.0 0.00001299 76618.17188 77320.82031
76988.0 0.00001299 76660.61719 77388.75781
77029.0 0.00001298 76702.92969 77405.43750
77067.0 0.00001298 76745.09375 77375.18750
77137.0 0.00001296 76787.11719 77315.46875
77157.0 0.00001296 76828.98438 77245.46875
77164.0 0.00001296 76870.72656 77179.46875
77222.0 0.00001295 76912.32813 77126.62500
77264.0 0.00001294 76953.75781 77093.44531
77329.0 0.00001293 76995.05469 77085.48438
77405.0 0.00001292 77036.21875 77106.83594
77480.0 0.00001291 77077.21875 77158.44531
77512.0 0.00001290 77118.08594 77234.80469
77561.0 0.00001289 77158.81250 77323.32031
77620.0 0.00001288 77199.38281 77408.96094
77692.0 0.00001287 77239.82031 77480.91406
77758.0 0.00001286 77280.10156 77535.93750
77812.0 0.00001285 77320.22656 77577.38281
77855.0 0.00001284 77360.19531 77609.49219
77918.0 0.00001283 77400.03906 77637.36719
77971.0 0.00001283 77439.73438 77664.34375
78028.0 0.00001282 77479.27344 77693.09375
78041.0 0.00001281 77518.67969 77724.64063
78070.0 0.00001281 77557.92188 77760.98438
78075.0 0.00001281 77597.01563 77802.01563
78093.0 0.00001281 77635.96875 77849.01563
78124.0 0.00001280 77674.77344 77902.26563
78105.0 0.00001280 77713.42969 77961.67188
78063.0 0.00001281 77751.92969 78026.27344
78054.0 0.00001281 77790.28906 78093.62500
78067.0 0.00001281 77828.50000 78159.19531
78057.0 0.00001281 77866.55469 78216.25000
78044.0 0.00001281 77904.47656 78258.19531
78035.0 0.00001281 77942.22656 78283.01563
78044.0 0.00001281 77979.84375 78294.93750
78053.0 0.00001281 78017.31250 78300.86719
78075.0 0.00001281 78054.62500 78306.80469
78125.0 0.00001280 78091.78906 78316.39844
78145.0 0.00001280 78128.82031 78331.60938
78194.0 0.00001279 78165.68750 78353.09375
78225.0 0.00001278 78202.40625 78380.92969
78272.0 0.00001278 78238.98438 78415.13281
78284.0 0.00001277 78275.40625 78456.07031
78294.0 0.00001277 78311.68750 78501.25000
78297.0 0.00001277 78347.82031 78551.75781
78293.0 0.00001277 78383.80469 78606.51563
78326.0 0.00001277 78419.63281 78666.35156
78390.0 0.00001276 78455.32031 78728.39063
78471.0 0.00001274 78490.86719 78792.89063
78553.0 0.00001273 78526.26563 78857.93750
78596.0 0.00001272 78561.52344 78921.33594
78618.0 0.00001272 78596.61719 78979.87500
78663.0 0.00001271 78631.58594 79030.22656
78715.0 0.00001270 78666.38281 79069.86719
78748.0 0.00001270 78701.06250 79098.29688
78780.0 0.00001269 78735.58594 79116.85156
78834.0 0.00001268 78769.96094 79128.67969
78924.0 0.00001267 78804.19531 79137.03125
78983.0 0.00001266 78838.28906 79144.83594
79058.0 0.00001265 78872.23438 79153.58594
79117.0 0.00001264 78906.04688 79164.17969
79166.0 0.00001263 78939.71875 79178.10156
79197.0 0.00001263 78973.23438 79195.20313
79247.0 0.00001262 79006.62500 79215.75781
79279.0 0.00001261 79039.85938 79239.87500
79348.0 0.00001260 79072.96875 79267.75000
79449.0 0.00001259 79105.92188 79299.35938
79535.0 0.00001257 79138.76563 79334.82031
79618.0 0.00001256 79171.45313 79373.69531
79718.0 0.00001254 79204.00781 79415.48438
79771.0 0.00001254 79236.41406 79459.34375
79845.0 0.00001252 79268.68750 79505.39844
79911.0 0.00001251 79300.83594 79556.89063
79982.0 0.00001250 79332.86719 79620.78125
80049.0 0.00001249 79364.74219 79705.01563
80127.0 0.00001248 79396.49219 79814.55469
80216.0 0.00001247 79428.10156 79949.75781
80277.0 0.00001246 79459.57813 80107.04688
80322.0 0.00001245 79490.93750 80280.14844
80369.0 0.00001244 79522.17188 80461.42969
80408.0 0.00001244 79553.26563 80640.01563
80459.0 0.00001243 79584.22656 80797.93750
80455.0 0.00001243 79615.07813 80925.85938
80447.0 0.00001243 79645.79688 81018.49219
80467.0 0.00001243 79676.39063 81079.78125
80498.0 0.00001242 79706.86719 81118.85938
80536.0 0.00001242 79737.21875 81141.67969
80567.0 0.00001241 79767.45313 81147.35156
80575.0 0.00001241 79797.56250 81132.89063
80592.0 0.00001241 79827.54688 81099.75781
80639.0 0.00001240 79857.42969 81056.10938
80713.0 0.00001239 79887.19531 81013.20313
80813.0 0.00001237 79916.83594 80981.46094
81003.0 0.00001235 79946.37500 80967.91406
81246.0 0.00001231 79975.78906 80975.65625
81550.0 0.00001226 80005.10938 81003.95313
81877.0 0.00001221 80034.31250 81047.68750
82092.0 0.00001218 80063.39063 81097.43750
82061.0 0.00001219 80092.39844 81142.60156
81838.0 0.00001222 80121.27344 81176.07813
81611.0 0.00001225 80150.05469 81196.89063
81382.0 0.00001229 80178.71875 81206.30469
81203.0 0.00001231 80207.32031 81203.14844
81083.0 0.00001233 80235.79688 81183.36719
80980.0 0.00001235 80264.18750 81147.04688
80878.0 0.00001236 80292.46094 81100.09375
80817.0 0.00001237 80320.66406 81052.16406
80789.0 0.00001238 80348.76563 81010.85156
80768.0 0.00001238 80376.77344 80981.71875
80754.0 0.00001238 80404.71094 80967.22656
80768.0 0.00001238 80432.55469 80968.25781
80840.0 0.00001237 80460.29688 80984.60938
80878.0 0.00001236 80487.96875 81015.28125
80938.0 0.00001236 80515.56250 81059.82813
80999.0 0.00001235 80543.07813 81116.41406
81060.0 0.00001234 80570.51563 81182.93750
81128.0 0.00001233 80597.88281 81257.56250
81208.0 0.00001231 80625.17188 81339.34375
81186.0 0.00001232 80652.39063 81429.24219
81191.0 0.00001232 80679.53125 81527.96094
81214.0 0.00001231 80706.63281 81636.97656
81230.0 0.00001231 80733.64844 81756.12500
81263.0 0.00001231 80760.60156 81884.38281
81289.0 0.00001230 80787.50781 82017.09375
81308.0 0.00001230 80814.34375 82144.47656
81362.0 0.00001229 80841.13281 82253.52344
81396.0 0.00001229 80867.88281 82329.62500
81454.0 0.00001228 80894.56250 82362.06250
81499.0 0.00001227 80921.21094 82349.18750
81530.0 0.00001227 80947.80469 82299.21094
81584.0 0.00001226 80974.35938 82225.08594
81618.0 0.00001225 81000.87500 82140.42969
81622.0 0.00001225 81027.34375 82054.98438
81646.0 0.00001225 81053.80469 81974.52344
81722.0 0.00001224 81080.20313 81901.78125
81793.0 0.00001223 81106.58594 81837.93750
81834.0 0.00001222 81132.94531 81783.64844
81873.0 0.00001221 81159.28906 81739.39063
81879.0 0.00001221 81185.59375 81705.36719
81922.0 0.00001221 81211.88281 81681.10938
81932.0 0.00001221 81238.17969 81666.14844
81952.0 0.00001220 81264.43750 81659.74219
81983.0 0.00001220 81290.71094 81661.35938
82030.0 0.00001219 81316.98438 81670.55469
82089.0 0.00001218 81343.23438 81687.10156
82145.0 0.00001217 81369.49219 81711.31250
82220.0 0.00001216 81395.75000 81743.49219
82268.0 0.00001216 81422.02344 81784.23438
82320.0 0.00001215 81448.30469 81834.35156
82404.0 0.00001214 81474.60938 81892.96094
82435.0 0.00001213 81500.93750 81958.75000
82489.0 0.00001212 81527.26563 82037.43750
82528.0 0.00001212 81553.61719 82112.17969
82594.0 . . .
82674.0 . . .
82716.0 . . .
82763.0 . . .
82764.0 . . .
82737.0 . . .
82785.0 . . .
82814.0 . . .
82889.0 . . .
82949.0 . . .
82995.0 . . .
82996.0 . . .
83032.0 . . .
83062.0 . . .
83068.0 . . .
83118.0 . . .
83158.0 . . .
83227.0 . . .
83272.0 . . .
83308.0 . . .
83381.0 . . .
83434.0 . . .
83524.0 . . .
83630.0 . . .
83725.0 . . .
83800.0 . . .
83911.0 . . .
83985.0 . . .
84037.0 . . .
84146.0 . . .
84312.0 . . .
84423.0 . . .
84551.0 . . .
84645.0 . . .
84789.0 . . .
84956.0 . . .
85007.0 . . .
85044.0 . . .
85099.0 . . .
85166.0 . . .
85245.0 . . .
85371.0 . . .
85463.0 . . .
85520.0 . . .
85532.0 . . .
85506.0 . . .
85520.0 . . .
85495.0 . . .
85486.0 . . .
85489.0 . . .
85476.0 . . .
85475.0 . . .
85499.0 . . .
85483.0 . . .
85469.0 . . .
85467.0 . . .
85465.0 . . .
85482.0 . . .
85500.0 . . .
85574.0 . . .
85674.0 . . .
85812.0 . . .
85921.0 . . .
86052.0 . . .
86122.0 . . .
86134.0 . . .
86081.0 . . .
86044.0 . . .
86003.0 . . .
85982.0 . . .
85953.0 . . .
85959.0 . . .
85920.0 . . .
85917.0 . . .
85890.0 . . .
85912.0 . . .
85955.0 . . .
85980.0 . . .
85982.0 . . .
86001.0 . . .
86050.0 . . .
86084.0 . . .
86114.0 . . .
86145.0 . . .
86134.0 . . .
86126.0 . . .
86151.0 . . .
86187.0 . . .
86217.0 . . .
86260.0 . . .
86292.0 . . .
86309.0 . . .
86326.0 . . .
86347.0 . . .
86372.0 . . .
86403.0 . . .
86446.0 . . .
86475.0 . . .
86492.0 . . .
86551.0 . . .
86601.0 . . .
86676.0 . . .
86758.0 . . .
86868.0 . . .
86957.0 . . .
87043.0 . . .
87133.0 . . .
87230.0 . . .
87259.0 . . .
87273.0 . . .
87274.0 . . .
87275.0 . . .
87282.0 . . .
87350.0 . . .
87419.0 . . .
87457.0 . . .
87503.0 . . .
87564.0 . . .
87606.0 . . .
87657.0 . . .
87731.0 . . .
87794.0 . . .
87870.0 . . .
87928.0 . . .
87967.0 . . .
87956.0 . . .
87960.0 . . .
88007.0 . . .
88035.0 . . .
88111.0 . . .
88185.0 . . .
88198.0 . . .
88262.0 . . .
88292.0 . . .
88332.0 . . .
88369.0 . . .
88392.0 . . .
88462.0 . . .
88539.0 . . .
88652.0 . . .
88716.0 . . .
88751.0 . . .
88749.0 . . .
88753.0 . . .
88777.0 . . .
88813.0 . . .
88873.0 . . .
88961.0 . . .
88980.0 . . .
88998.0 . . .
88985.0 . . .
88921.0 . . .
88859.0 . . .
88819.0 . . .
88830.0 . . .
88864.0 . . .
88877.0 . . .
88887.0 . . .
88891.0 . . .
88908.0 . . .
88931.0 . . .
88929.0 . . .
88967.0 . . .
89022.0 . . .
89071.0 . . .
89094.0 . . .
89137.0 . . .
89200.0 . . .
89288.0 . . .
89355.0 . . .
89415.0 . . .
89494.0 . . .
89556.0 . . .
89604.0 . . .
89679.0 . . .
89800.0 . . .
89914.0 . . .
90024.0 . . .
90103.0 . . .
90185.0 . . .
90303.0 . . .
90436.0 . . .
90587.0 . . .
90780.0 . . .
90964.0 . . .
91083.0 . . .
91165.0 . . .
91236.0 . . .
91260.0 . . .
91305.0 . . .
91359.0 . . .
91354.0 . . .
91360.0 . . .
91415.0 . . .
91457.0 . . .
91450.0 . . .
91528.0 . . .
91598.0 . . .
91607.0 . . .
91646.0 . . .
91636.0 . . .
91671.0 . . .
91711.0 . . .
91718.0 . . .
91677.0 . . .
91675.0 . . .
91710.0 . . .
91723.0 . . .
91735.0 . . .
91768.0 . . .
91804.0 . . .
91863.0 . . .
91931.0 . . .
91984.0 . . .
92004.0 . . .
92003.0 . . .
91994.0 . . .
91961.0 . . .
91913.0 . . .
91893.0 . . .
91910.0 . . .
91935.0 . . .
91938.0 . . .
91927.0 . . .
91944.0 . . .
91965.0 . . .
91924.0 . . .
91891.0 . . .
91951.0 . . .
91964.0 . . .
91979.0 . . .
91979.0 . . .
91990.0 . . .
91997.0 . . .
92026.0 . . .
92066.0 . . .
92102.0 . . .
92129.0 . . .
92180.0 . . .
92197.0 . . .
92215.0 . . .
92258.0 . . .
92367.0 . . .
92415.0 . . .
92389.0 . . .
92349.0 . . .
92389.0 . . .
92433.0 . . .
92473.0 . . .
92480.0 . . .
92480.0 . . .
92469.0 . . .
92454.0 . . .
92484.0 . . .
92485.0 . . .
92468.0 . . .
92501.0 . . .
92543.0 . . .
92611.0 . . .
92653.0 . . .
92689.0 . . .
92712.0 . . .
92755.0 . . .
92798.0 . . .
92855.0 . . .
92918.0 . . .
92955.0 . . .
93036.0 . . .
93153.0 . . .
93251.0 . . .
93308.0 . . .
93396.0 . . .
93485.0 . . .
93563.0 . . .
93668.0 . . .
93826.0 . . .
93917.0 . . .
93983.0 . . .
94062.0 . . .
94112.0 . . .
94186.0 . . .
94260.0 . . .
94263.0 . . .
94259.0 . . .
94275.0 . . .
94286.0 . . .
94321.0 . . .
94368.0 . . .
94367.0 . . .
94380.0 . . .
94416.0 . . .
94474.0 . . .
94524.0 . . .
94550.0 . . .
94556.0 . . .
94546.0 . . .
94552.0 . . .
94557.0 . . .
94549.0 . . .
94515.0 . . .
94481.0 . . .
94480.0 . . .
94493.0 . . .
94518.0 . . .
94504.0 . . .
94497.0 . . .
94561.0 . . .
94634.0 . . .
94711.0 . . .
94759.0 . . .
94825.0 . . .
94911.0 . . .
94988.0 . . .
95074.0 . . .
95143.0 . . .
95178.0 . . .
95193.0 . . .
95173.0 . . .
95178.0 . . .
95147.0 . . .
95127.0 . . .
95132.0 . . .
95128.0 . . .
95105.0 . . .
95125.0 . . .
95170.0 . . .
95156.0 . . .
95178.0 . . .
95206.0 . . .
95230.0 . . .
95275.0 . . .
95348.0 . . .
95418.0 . . .
95446.0 . . .
95477.0 . . .
95416.0 . . .
95374.0 . . .
95299.0 . . .
95274.0 . . .
95274.0 . . .
95291.0 . . .
95297.0 . . .
95273.0 . . .
95275.0 . . .
95316.0 . . .
95374.0 . . .
95400.0 . . .
95425.0 . . .
95496.0 . . .
95535.0 . . .
95544.0 . . .
95579.0 . . .
95596.0 . . .
95625.0 . . .
95647.0 . . .
95635.0 . . .
95662.0 . . .
95671.0 . . .
95709.0 . . .
95738.0 . . .
95748.0 . . .
95768.0 . . .
95819.0 . . .
95870.0 . . .
95879.0 . . .
95877.0 . . .
95880.0 . . .
95894.0 . . .
95902.0 . . .
95877.0 . . .
95898.0 . . .
95957.0 . . .
95981.0 . . .
95995.0 . . .
96034.0 . . .
96066.0 . . .
96130.0 . . .
96245.0 . . .
96329.0 . . .
96451.0 . . .
96538.0 . . .
96590.0 . . .
96575.0 . . .
96527.0 . . .
96483.0 . . .
96466.0 . . .
96460.0 . . .
96469.0 . . .
96495.0 . . .
96524.0 . . .
96577.0 . . .
96667.0 . . .
96721.0 . . .
96790.0 . . .
96835.0 . . .
96838.0 . . .
96793.0 . . .
96760.0 . . .
96722.0 . . .
96726.0 . . .
96724.0 . . .
96728.0 . . .
96756.0 . . .
96793.0 . . .
96812.0 . . .
96856.0 . . .
96880.0 . . .
96909.0 . . .
96940.0 . . .
96984.0 . . .
97012.0 . . .
97038.0 . . .
97051.0 . . .
97049.0 . . .
97114.0 . . .
97121.0 . . .
97164.0 . . .
97182.0 . . .
97200.0 . . .
97226.0 . . .
97253.0 . . .
97281.0 . . .
97319.0 . . .
97412.0 . . .
97472.0 . . .
97488.0 . . .
97510.0 . . .
97577.0 . . .
97655.0 . . .
97670.0 . . .
97708.0 . . .
97785.0 . . .
97847.0 . . .
97909.0 . . .
97916.0 . . .
97910.0 . . .
97860.0 . . .
97818.0 . . .
97753.0 . . .
97740.0 . . .
97739.0 . . .
97740.0 . . .
97775.0 . . .
97783.0 . . .
97781.0 . . .
97752.0 . . .
97722.0 . . .
97705.0 . . .
97689.0 . . .
97679.0 . . .
97705.0 . . .
97740.0 . . .
97751.0 . . .
97782.0 . . .
97791.0 . . .
97806.0 . . .
97821.0 . . .
97821.0 . . .
97866.0 . . .
97889.0 . . .
97927.0 . . .
97962.0 . . .
97980.0 . . .
97976.0 . . .
97994.0 . . .
98046.0 . . .
98078.0 . . .
98093.0 . . .
98119.0 . . .
98113.0 . . .
98146.0 . . .
98177.0 . . .
98183.0 . . .
98193.0 . . .
98239.0 . . .
98274.0 . . .
98258.0 . . .
98285.0 . . .
98331.0 . . .
98360.0 . . .
98423.0 . . .
98461.0 . . .
98526.0 . . .
98618.0 . . .
98729.0 . . .
98876.0 . . .
99026.0 . . .
99202.0 . . .
99287.0 . . .
99264.0 . . .
99147.0 . . .
99076.0 . . .
99020.0 . . .
98935.0 . . .
98877.0 . . .
98851.0 . . .
98854.0 . . .
98846.0 . . .
98851.0 . . .
98866.0 . . .
98814.0 . . .
98831.0 . . .
98863.0 . . .
98880.0 . . .
98916.0 . . .
98910.0 . . .
98939.0 . . .
98983.0 . . .
99056.0 . . .
99066.0 . . .
99061.0 . . .
99085.0 . . .
99126.0 . . .
99130.0 . . .
99138.0 . . .
99151.0 . . .
99218.0 . . .
99282.0 . . .
99306.0 . . .
99309.0 . . .
99318.0 . . .
99320.0 . . .
99332.0 . . .
99355.0 . . .
99374.0 . . .
99378.0 . . .
99386.0 . . .
99432.0 . . .
99480.0 . . .
99523.0 . . .
99543.0 . . .
99555.0 . . .
99566.0 . . .
99578.0 . . .
99618.0 . . .
99685.0 . . .
99730.0 . . .
99762.0 . . .
99802.0 . . .
99811.0 . . .
99834.0 . . .
99881.0 . . .
99925.0 . . .
99880.0 . . .
99881.0 . . .
99903.0 . . .
99916.0 . . .
99933.0 . . .
99960.0 . . .
99950.0 . . .
99980.0 . . .
99994.0 . . .
99988.0 . . .
100000.0 . . .
100010.0 . . .
100019.0 . . .
100030.0 . . .
100036.0 . . .
100021.0 . . .
100044.0 . . .
100042.0 . . .
100006.0 . . .
100017.0 . . .
100029.0 . . .
100059.0 . . .
100069.0 . . .
100083.0 . . .
100109.0 . . .
100094.0 . . .
100089.0 . . .
100080.0 . . .
100090.0 . . .
100133.0 . . .
100146.0 . . .
100157.0 . . .
100144.0 . . .
100144.0 . . .
100129.0 . . .
100091.0 . . .
100125.0 . . .
100165.0 . . .
100201.0 . . .
100251.0 . . .
100269.0 . . .
100319.0 . . .
100368.0 . . .
100369.0 . . .
100371.0 . . .
100337.0 . . .
100368.0 . . .
100369.0 . . .
100391.0 . . .
100390.0 . . .
100374.0 . . .
100395.0 . . .
100447.0 . . .
100472.0 . . .
100499.0 . . .
100541.0 . . .
100532.0 . . .
100589.0 . . .
100614.0 . . .
100664.0 . . .
100682.0 . . .
100741.0 . . .
100762.0 . . .
100790.0 . . .
100794.0 . . .
100815.0 . . .
100855.0 . . .
100852.0 . . .
100864.0 . . .
100934.0 . . .
101043.0 . . .
101144.0 . . .
101162.0 . . .
101238.0 . . .
101371.0 . . .
101480.0 . . .
101554.0 . . .
101584.0 . . .
101580.0 . . .
101521.0 . . .
101458.0 . . .
101404.0 . . .
101338.0 . . .
101290.0 . . .
101271.0 . . .
101233.0 . . .
101185.0 . . .
101147.0 . . .
101074.0 . . .
101001.0 . . .
100943.0 . . .
100927.0 . . .
100848.0 . . .
100784.0 . . .
100737.0 . . .
100703.0 . . .
100704.0 . . .
100679.0 . . .
100623.0 . . .
100579.0 . . .
100560.0 . . .
100535.0 . . .
100533.0 . . .
100488.0 . . .
100463.0 . . .
100471.0 . . .
100458.0 . . .
100446.0 . . .
100443.0 . . .
100396.0 . . .
100362.0 . . .
100358.0 . . .
100374.0 . . .
100395.0 . . .
100427.0 . . .
100463.0 . . .
100432.0 . . .
100378.0 . . .
100363.0 . . .
100381.0 . . .
100391.0 . . .
100401.0 . . .
100423.0 . . .
100421.0 . . .
100412.0 . . .
100460.0 . . .
100534.0 . . .
100577.0 . . .
100654.0 . . .
100698.0 . . .
100686.0 . . .
100593.0 . . .
100383.0 . . .
100164.0 . . .
99898.0 . . .
99647.0 . . .
99334.0 . . .
99047.0 . . .
98718.0 . . .
98384.0 . . .
98004.0 . . .
97759.0 . . .
98335.0 . . .
98580.0 . . .
98724.0 . . .
98814.0 . . .
98866.0 . . .
98913.0 . . .
98971.0 . . .
99040.0 . . .
99046.0 . . .
99072.0 . . .
99101.0 . . .
99142.0 . . .
99125.0 . . .
99119.0 . . .
99122.0 . . .
99161.0 . . .
99198.0 . . .
99223.0 . . .
99198.0 . . .
99200.0 . . .
99208.0 . . .
99186.0 . . .
99176.0 . . .
99141.0 . . .
99108.0 . . .
99080.0 . . .
99065.0 . . .
99052.0 . . .
99045.0 . . .
99036.0 . . .
99063.0 . . .
99085.0 . . .
99094.0 . . .
99114.0 . . .
99124.0 . . .
99146.0 . . .
99186.0 . . .
99242.0 . . .
99260.0 . . .
99195.0 . . .
99177.0 . . .
99206.0 . . .
99198.0 . . .
99190.0 . . .
99204.0 . . .
99231.0 . . .
99219.0 . . .
99201.0 . . .
99221.0 . . .
99220.0 . . .
99214.0 . . .
99197.0 . . .
99194.0 . . .
99208.0 . . .
99210.0 . . .
99161.0 . . .
99132.0 . . .
99135.0 . . .
99136.0 . . .
99148.0 . . .
99166.0 . . .
99165.0 . . .
99178.0 . . .
99218.0 . . .
99225.0 . . .
99237.0 . . .
99229.0 . . .
99221.0 . . .
99252.0 . . .
99204.0 . . .
99146.0 . . .
99118.0 . . .
99076.0 . . .
99069.0 . . .
99047.0 . . .
99014.0 . . .
98976.0 . . .
98940.0 . . .
98930.0 . . .
98929.0 . . .
98934.0 . . .
98899.0 . . .
98884.0 . . .
98886.0 . . .
98853.0 . . .
98852.0 . . .
98853.0 . . .
98811.0 . . .
98804.0 . . .
98787.0 . . .
98770.0 . . .
98763.0 . . .
98737.0 . . .
98717.0 . . .
98717.0 . . .
98712.0 . . .
98667.0 . . .
98630.0 . . .
98616.0 . . .
98613.0 . . .
98620.0 . . .
98632.0 . . .
98609.0 . . .
98596.0 . . .
98575.0 . . .
98579.0 . . .
98584.0 . . .
98597.0 . . .
98566.0 . . .
98497.0 . . .
98478.0 . . .
98472.0 . . .
98483.0 . . .
98476.0 . . .
98449.0 . . .
98402.0 . . .
98379.0 . . .
98378.0 . . .
98355.0 . . .
98373.0 . . .
98326.0 . . .
98290.0 . . .
98316.0 . . .
98320.0 . . .
98344.0 . . .
98340.0 . . .
98320.0 . . .
98267.0 . . .
98250.0 . . .
98283.0 . . .
98276.0 . . .
98257.0 . . .
98274.0 . . .
98313.0 . . .
98310.0 . . .
98303.0 . . .
98307.0 . . .
98267.0 . . .
98243.0 . . .
98196.0 . . .
98174.0 . . .
98174.0 . . .
98194.0 . . .
98205.0 . . .
98225.0 . . .
98252.0 . . .
98261.0 . . .
98236.0 . . .
98175.0 . . .
98150.0 . . .
98131.0 . . .
98153.0 . . .
98170.0 . . .
98185.0 . . .
98164.0 . . .
98135.0 . . .
98084.0 . . .
98086.0 . . .
98126.0 . . .
98149.0 . . .
98144.0 . . .
98138.0 . . .
98104.0 . . .
98142.0 . . .
98177.0 . . .
98203.0 . . .
98212.0 . . .
98194.0 . . .
98132.0 . . .
98137.0 . . .
98113.0 . . .
98091.0 . . .
98056.0 . . .
97967.0 . . .
97933.0 . . .
97934.0 . . .
97939.0 . . .
97898.0 . . .
97875.0 . . .
97840.0 . . .
97820.0 . . .
97814.0 . . .
97779.0 . . .
97794.0 . . .
97812.0 . . .
97798.0 . . .
97761.0 . . .
97723.0 . . .
97719.0 . . .
97726.0 . . .
97720.0 . . .
97711.0 . . .
97701.0 . . .
97688.0 . . .
97683.0 . . .
97653.0 . . .
97658.0 . . .
97676.0 . . .
97666.0 . . .
97636.0 . . .
97560.0 . . .
97589.0 . . .
97620.0 . . .
97604.0 . . .
97570.0 . . .
97566.0 . . .
97530.0 . . .
97521.0 . . .
97555.0 . . .
97552.0 . . .
97461.0 . . .
97435.0 . . .
97446.0 . . .
97460.0 . . .
97458.0 . . .
97398.0 . . .
97342.0 . . .
97322.0 . . .
97304.0 . . .
97280.0 . . .
97286.0 . . .
97308.0 . . .
97266.0 . . .
97282.0 . . .
97335.0 . . .
97319.0 . . .
97275.0 . . .
97298.0 . . .
97277.0 . . .
97216.0 . . .
97236.0 . . .
97274.0 . . .
97305.0 . . .
97302.0 . . .
97277.0 . . .
97280.0 . . .
97323.0 . . .
97315.0 . . .
97308.0 . . .
97313.0 . . .
97347.0 . . .
97392.0 . . .
97422.0 . . .
97428.0 . . .
97451.0 . . .
97453.0 . . .
97442.0 . . .
97433.0 . . .
97520.0 . . .
97579.0 . . .
97616.0 . . .
97663.0 . . .
97665.0 . . .
97667.0 . . .
97674.0 . . .
97687.0 . . .
97736.0 . . .
97774.0 . . .
97801.0 . . .
97803.0 . . .
97827.0 . . .
97868.0 . . .
97925.0 . . .
97937.0 . . .
97969.0 . . .
98012.0 . . .
98033.0 . . .
98005.0 . . .
97953.0 . . .
97923.0 . . .
97856.0 . . .
97845.0 . . .
97833.0 . . .
97803.0 . . .
97794.0 . . .
97774.0 . . .
97763.0 . . .
97767.0 . . .
97739.0 . . .
97721.0 . . .
97682.0 . . .
97650.0 . . .
97658.0 . . .
97683.0 . . .
97677.0 . . .
97673.0 . . .
97676.0 . . .
97687.0 . . .
97652.0 . . .
97613.0 . . .
97582.0 . . .
97578.0 . . .
97582.0 . . .
97594.0 . . .
97624.0 . . .
97646.0 . . .
97631.0 . . .
97584.0 . . .
97548.0 . . .
97523.0 . . .
97518.0 . . .
97552.0 . . .
97532.0 . . .
97539.0 . . .
97552.0 . . .
97497.0 . . .
97465.0 . . .
97484.0 . . .
97482.0 . . .
97470.0 . . .
97430.0 . . .
97363.0 . . .
97364.0 . . .
97398.0 . . .
97378.0 . . .
97361.0 . . .
97379.0 . . .
97370.0 . . .
97336.0 . . .
97366.0 . . .
97320.0 . . .
97277.0 . . .
97293.0 . . .
97271.0 . . .
97234.0 . . .
97274.0 . . .
97295.0 . . .
97302.0 . . .
97259.0 . . .
97267.0 . . .
97244.0 . . .
97232.0 . . .
97210.0 . . .
97191.0 . . .
97182.0 . . .
97176.0 . . .
97221.0 . . .
97222.0 . . .
97152.0 . . .
97143.0 . . .
97159.0 . . .
97142.0 . . .
97087.0 . . .
97019.0 . . .
96995.0 . . .
96941.0 . . .
96972.0 . . .
97019.0 . . .
96986.0 . . .
96938.0 . . .
96925.0 . . .
96930.0 . . .
96858.0 . . .
96870.0 . . .
96861.0 . . .
96875.0 . . .
96834.0 . . .
96762.0 . . .
96695.0 . . .
96688.0 . . .
96667.0 . . .
96656.0 . . .
96691.0 . . .
96667.0 . . .
96613.0 . . .
96583.0 . . .
96601.0 . . .
96641.0 . . .
96593.0 . . .
96516.0 . . .
96523.0 . . .
96583.0 . . .
96601.0 . . .
96577.0 . . .
96514.0 . . .
96482.0 . . .
96467.0 . . .
96453.0 . . .
96485.0 . . .
96483.0 . . .
96466.0 . . .
96448.0 . . .
96432.0 . . .
96452.0 . . .
96429.0 . . .
96378.0 . . .
96402.0 . . .
96390.0 . . .
96331.0 . . .
96371.0 . . .
96357.0 . . .
96335.0 . . .
96360.0 . . .
96371.0 . . .
96359.0 . . .
96410.0 . . .
96431.0 . . .
96439.0 . . .
96378.0 . . .
96335.0 . . .
96339.0 . . .
96314.0 . . .
96281.0 . . .
96293.0 . . .
96286.0 . . .
96307.0 . . .
96294.0 . . .
96200.0 . . .
96189.0 . . .
96208.0 . . .
96124.0 . . .
96095.0 . . .
96042.0 . . .
96059.0 . . .
96089.0 . . .
96101.0 . . .
96143.0 . . .
96128.0 . . .
96102.0 . . .
96037.0 . . .
96041.0 . . .
95961.0 . . .
95978.0 . . .
96016.0 . . .
95943.0 . . .
95885.0 . . .
95895.0 . . .
95911.0 . . .
95945.0 . . .
95944.0 . . .
95878.0 . . .
95872.0 . . .
95882.0 . . .
95928.0 . . .
95924.0 . . .
95832.0 . . .
95780.0 . . .
95787.0 . . .
95722.0 . . .
95652.0 . . .
95647.0 . . .
95647.0 . . .
95718.0 . . .
95713.0 . . .
95650.0 . . .
95504.0 . . .
95544.0 . . .
95546.0 . . .
95445.0 . . .
95372.0 . . .
95337.0 . . .
95274.0 . . .
95268.0 . . .
95355.0 . . .
95369.0 . . .
95335.0 . . .
95331.0 . . .
95249.0 . . .
95191.0 . . .
95248.0 . . .
95330.0 . . .
95276.0 . . .
95260.0 . . .
95192.0 . . .
95154.0 . . .
95247.0 . . .
95228.0 . . .
95230.0 . . .
95184.0 . . .
95188.0 . . .
95219.0 . . .
95238.0 . . .
95232.0 . . .
95239.0 . . .
95143.0 . . .
95051.0 . . .
95036.0 . . .
95031.0 . . .
95027.0 . . .
94996.0 . . .
94891.0 . . .
94840.0 . . .
94867.0 . . .
94887.0 . . .
94904.0 . . .
94789.0 . . .
94847.0 . . .
94840.0 . . .
94800.0 . . .
94777.0 . . .
94720.0 . . .
94756.0 . . .
94715.0 . . .
94823.0 . . .
94844.0 . . .
94735.0 . . .
94689.0 . . .
94707.0 . . .
94692.0 . . .
94726.0 . . .
94695.0 . . .
94652.0 . . .
94669.0 . . .
94644.0 . . .
94679.0 . . .
94568.0 . . .
94597.0 . . .
94624.0 . . .
94661.0 . . .
94704.0 . . .
94717.0 . . .
94646.0 . . .
94668.0 . . .
94642.0 . . .
94687.0 . . .
94649.0 . . .
94640.0 . . .
94687.0 . . .
94629.0 . . .
94571.0 . . .
94602.0 . . .
94604.0 . . .
94556.0 . . .
94524.0 . . .
94522.0 . . .
94623.0 . . .
94580.0 . . .
94554.0 . . .
94575.0 . . .
94580.0 . . .
94609.0 . . .
94593.0 . . .
94500.0 . . .
94493.0 . . .
94444.0 . . .
94387.0 . . .
94392.0 . . .
94270.0 . . .
94248.0 . . .
94219.0 . . .
94277.0 . . .
94389.0 . . .
94392.0 . . .
94365.0 . . .
94422.0 . . .
94346.0 . . .
94333.0 . . .
94324.0 . . .
94292.0 . . .
94281.0 . . .
94221.0 . . .
94125.0 . . .
94127.0 . . .
94134.0 . . .
94152.0 . . .
94165.0 . . .
94021.0 . . .
93946.0 . . .
93909.0 . . .
93873.0 . . .
93856.0 . . .
93891.0 . . .
93920.0 . . .
93942.0 . . .
93970.0 . . .
93958.0 . . .
93989.0 . . .
93918.0 . . .
93813.0 . . .
93791.0 . . .
93813.0 . . .
93832.0 . . .
93781.0 . . .
93758.0 . . .
93761.0 . . .
93775.0 . . .
93656.0 . . .
93643.0 . . .
93619.0 . . .
93578.0 . . .
93585.0 . . .
93592.0 . . .
93427.0 . . .
93425.0 . . .
93466.0 . . .
93413.0 . . .
93454.0 . . .
93549.0 . . .
93422.0 . . .
93319.0 . . .
93356.0 . . .
93374.0 . . .
93423.0 . . .
93405.0 . . .
93366.0 . . .
93368.0 . . .
93322.0 . . .
93192.0 . . .
93260.0 . . .
93204.0 . . .
93064.0 . . .
93111.0 . . .
93181.0 . . .
93104.0 . . .
93069.0 . . .
92983.0 . . .
92946.0 . . .
93062.0 . . .
92975.0 . . .
92848.0 . . .
92900.0 . . .
92872.0 . . .
92773.0 . . .
92778.0 . . .
92898.0 . . .
92816.0 . . .
92851.0 . . .
92929.0 . . .
92950.0 . . .
92800.0 . . .
92557.0 . . .
92367.0 . . .
92434.0 . . .
92523.0 . . .
92342.0 . . .
92408.0 . . .
92462.0 . . .
92317.0 . . .
92192.0 . . .
92306.0 . . .
92327.0 . . .
92234.0 . . .
92218.0 . . .
92052.0 . . .
91886.0 . . .
92013.0 . . .
92090.0 . . .
91940.0 . . .
91920.0 . . .
91902.0 . . .
91798.0 . . .
91890.0 . . .
92013.0 . . .
91751.0 . . .
91668.0 . . .
91935.0 . . .
91785.0 . . .
91581.0 . . .
91650.0 . . .
91699.0 . . .
91501.0 . . .
91691.0 . . .
91803.0 . . .
91615.0 . . .
91557.0 . . .
91622.0 . . .
91382.0 . . .
91222.0 . . .
91259.0 . . .
91174.0 . . .
91151.0 . . .
91374.0 . . .
91236.0 . . .
90859.0 . . .
90994.0 . . .
91043.0 . . .
90589.0 . . .
90629.0 . . .
91082.0 . . .
90752.0 . . .
90309.0 . . .
90650.0 . . .
90610.0 . . .
90216.0 . . .
90169.0 . . .
90377.0 . . .
90101.0 . . .
89661.0 . . .
89895.0 . . .
89990.0 . . .
89395.0 . . .
89666.0 . . .
89844.0 . . .
89389.0 . . .
89032.0 . . .
89275.0 . . .
89087.0 . . .
88472.0 . . .
88611.0 . . .
88480.0 . . .
88194.0 . . .
88041.0 . . .
88231.0 . . .
88041.0 . . .
87438.0 . . .
87771.0 . . .
87465.0 . . .
87095.0 . . .
86961.0 . . .
86980.0 . . .
86534.0 . . .
86011.0 . . .
86315.0 . . .
86138.0 . . .
85831.0 . . .
86638.0 . . .
87346.0 . . .
87628.0 . . .
88007.0 . . .
88566.0 . . .
88234.0 . . .
87516.0 . . .
87608.0 . . .
87767.0 . . .
87525.0 . . .
86369.0 . . .
86778.0 . . .
86499.0 . . .
85580.0 . . .
85569.0 . . .
86089.0 . . .
85244.0 . . .
83592.0 . . .
83835.0 . . .
83341.0 . . .
82493.0 . . .
81675.0 . . .
82375.0 . . .
81061.0 . . .
79186.0 . . .
79406.0 . . .
77882.0 . . .
76285.0 . . .
74159.0 . . .
74310.0 . . .
71272.0 . . .
68199.0 . . .
66367.0 . . .
61577.0 . . .
56113.0 . . .
48701.0 . . .
38620.0 . . .
26080.0 . . .
19722.0 . . .
10257.0 . . .
3699.0 . . .
2213.0 . . .
loop_
_refln_index_h
_refln_index_k
_refln_index_l
_refln_observed_status
_refln_F_squared_meas
_refln_F_squared_calc
_refln_phase_calc
_refln_d_spacing
_gsas_i100_meas
0 2 0 o 282.142 214.064 180.00 7.42113 3.63
2 0 0 o 170.730 171.999 0.00 6.45937 3.54
2 1 0 o 186.270 186.252 180.00 5.92279 3.27
1 2 0 o 200.935 231.844 -180.00 6.43496 2.18
2 2 0 o 2703.940 2405.253 180.00 4.87225 23.36
1 3 0 o 1046.974 854.772 0.00 4.62020 6.94
3 1 0 o 507.330 633.485 -180.00 4.13570 5.85
0 4 0 o 147.544 115.907 0.00 3.71056 0.53
2 3 0 o 662.595 726.759 -180.00 3.92770 3.45
3 2 0 o 54.493 33.761 -180.00 3.72460 0.32
1 4 0 o 649.073 608.935 -180.00 3.56637 3.36
4 0 0 o 448.948 755.167 0.00 3.22968 2.17
4 1 0 o 2.175 2.393 -180.00 3.15583 0.02
3 3 0 o 33.220 86.662 0.00 3.24817 0.14
2 4 0 o 36.079 52.238 0.00 3.21748 0.14
1 0 1 o 7083.284 6808.300 9.98 2.88701 39.66
1 1 1 o 8191.250 8193.827 -161.73 2.83389 100.00
0 2 1 o 1809.994 1736.038 86.40 2.75090 0.34
1 2 1 o 2121.047 2116.760 97.07 2.69058 25.60
4 2 0 o 1584.542 1336.676 -180.00 2.96139 7.09
2 1 1 o 4654.524 4736.956 112.12 2.64912 30.20
1 5 0 o 786.597 743.158 0.00 2.89306 3.35
3 4 0 o 1513.074 1519.696 0.00 2.81097 4.93
2 2 1 o 334.760 237.468 -92.50 2.53094 2.13
3 0 1 o 0.000 2166.230 -165.24 2.44038 0.00
1 3 1 o 233.185 286.617 37.92 2.49351 0.97
4 3 0 o 24.817 22.038 -180.00 2.70444 0.08
2 5 0 o 887.040 839.720 -180.00 2.69726 2.91
3 1 1 o -2542.198 1084.954 161.13 2.40805 6.33
5 1 0 o 380.360 234.108 180.00 2.54547 1.89
2 3 1 o 0.000 671.043 97.48 2.36486 0.00
0 6 0 o 44.052 63.174 180.00 2.47371 0.09
3 2 1 o -960.302 1270.699 145.86 2.31825 4.79
0 4 1 o -681.652 947.413 75.84 2.31485 4.62
5 2 0 o 1728.210 3357.684 -180.00 2.44009 6.01
1 6 0 o 92.738 322.630 0.00 2.42957 0.34
1 4 1 o -2581.988 559.520 -109.78 2.27856 7.48
3 5 0 o 1229.829 2085.953 0.00 2.44403 3.46
4 4 0 o 1409.001 2747.849 180.00 2.43613 3.67
4 1 1 o 1664.765 1241.499 146.55 2.15969 1.62
3 3 1 o 0.000 0.802 -84.89 2.18861 0.00
2 6 0 o 0.000 3613.024 0.00 2.31010 0.00
2 4 1 o 377.915 228.770 153.62 2.17915 1.12
5 3 0 o 0.000 2000.985 180.00 2.29024 0.00
6 0 0 o 718.505 579.319 180.00 2.15312 1.31
4 2 1 o 0.000 366.438 22.31 2.09421 0.00
4 5 0 o 4007.237 2025.139 180.00 2.18554 9.44
1 5 1 o 0.000 196.861 54.24 2.06962 0.00
3 6 0 o 2522.547 2274.741 -180.00 2.14499 6.71
3 4 1 o 0.000 440.661 96.85 2.03893 0.00
6 1 0 o 1587.383 1303.163 0.00 2.13082 5.27
5 4 0 o 125.934 119.135 180.00 2.12035 0.26
5 0 1 o 0.000 2050.933 41.83 1.94705 0.00
4 3 1 o 0.000 813.096 31.54 1.99716 0.00
2 5 1 o 953.740 411.253 -155.66 1.99427 11.15
1 7 0 o 6427.766 6155.707 -180.00 2.09233 20.40
5 1 1 o 575.365 1091.266 168.05 1.93051 0.95
6 2 0 o 9208.715 6309.215 -180.00 2.06785 24.27
0 6 1 o 0.000 4867.328 179.04 1.89864 0.00
5 2 1 o 45.240 46.108 -33.16 1.88331 0.14
2 7 0 o 1645.984 897.854 -180.00 2.01456 4.79
3 5 1 o 850.014 838.479 11.96 1.88512 7.36
6 3 0 o 13.459 7.989 -180.00 1.97426 0.03
4 4 1 o 0.000 1017.658 -1.79 1.88148 0.00
1 6 1 o 796.359 834.079 -117.80 1.87846 6.64
4 6 0 o 327.932 392.098 0.00 1.96385 0.74
5 5 0 o 1.327 4.747 -180.00 1.94890 0.00
5 3 1 o 675.385 674.510 0.69 1.81179 0.61
2 6 1 o 236.426 325.867 172.00 1.82158 4.97
3 7 0 o 389.351 227.906 -180.00 1.90223 1.02
0 8 0 o 1353.982 1312.700 180.00 1.85528 1.95
7 1 0 o 64.727 93.953 180.00 1.83143 0.14
6 4 0 o 1034.988 835.404 0.00 1.86230 1.79
1 8 0 o 99.944 133.309 0.00 1.83644 0.29
7 2 0 o 6.181 3.243 -180.00 1.79098 0.01
5 6 0 o 49.625 26.394 0.00 1.78681 0.09
