#------------------------------------------------------------------------------
#$Date: 2016-02-14 06:40:26 +0200 (Sun, 14 Feb 2016) $
#$Revision: 176432 $
#$URL: svn://www.crystallography.net/cod/cif/4/12/05/4120506.cif $
#------------------------------------------------------------------------------
#
# This file is available in the Crystallography Open Database (COD),
# http://www.crystallography.net/
#
# All data on this site have been placed in the public domain by the
# contributors.
#
data_4120506
loop_
_publ_author_name
'Wong, Joanne W. L.'
'Mailman, Aaron'
'Lekin, Kristina'
'Winter, Stephen M.'
'Yong, Wenjun'
'Zhao, Jianbao'
'Garimella, Subrahmanyam V.'
'Tse, John S.'
'Secco, Richard A.'
'Desgreniers, Serge'
'Ohishi, Yasuo'
'Borondics, Ferenc'
'Oakley, Richard T.'
_publ_section_title
;
 Pressure induced phase transitions and metallization of a neutral radical
 conductor.
;
_journal_issue                   3
_journal_name_full               'Journal of the American Chemical Society'
_journal_page_first              1070
_journal_page_last               1081
_journal_paper_doi               10.1021/ja411057x
_journal_volume                  136
_journal_year                    2014
_chemical_formula_moiety         'C6 H N2 O S4'
_chemical_formula_sum            'C6 H N2 O S4'
_chemical_formula_weight         245.33
_chemical_name_common            HBBO
_chemical_name_systematic        ' ?'
_space_group_IT_number           33
_symmetry_cell_setting           orthorhombic
_symmetry_space_group_name_Hall  'P 2c -2ab'
_symmetry_space_group_name_H-M   'P b n 21'
_cell_angle_alpha                90.0
_cell_angle_beta                 90.0
_cell_angle_gamma                90.0
_cell_formula_units_Z            4
_cell_length_a                   13.0010(21)
_cell_length_b                   14.9086(30)
_cell_length_c                   2.99495(29)
_cell_measurement_temperature    293(2)
_cell_volume                     580.50(16)
_computing_structure_refinement  GSAS
_diffrn_ambient_temperature      293(2)
_diffrn_measurement_device_type  'SPring-8 BL10XU'
_diffrn_radiation_polarisn_ratio 0.95
_diffrn_radiation_probe          x-ray
_diffrn_radiation_type           synchrotron
_diffrn_radiation_wavelength     0.41337
_diffrn_source                   synchrotron
_exptl_absorpt_correction_T_max  1.00000
_exptl_absorpt_correction_T_min  1.00000
_exptl_absorpt_process_details
;   GSAS Absorption/surface roughness correction: function number 0
 No correction is applied.
;
_exptl_crystal_colour            black
_exptl_crystal_density_diffrn    2.807
_pd_calc_method                  'Rietveld Refinement'
_pd_instr_location               ' ?'
_pd_meas_2theta_range_inc        0.01
_pd_meas_2theta_range_max        27.61
_pd_meas_2theta_range_min        1.0
_pd_meas_number_of_points        2662
_pd_phase_name
'from C:/gsas/MyWork/HBBO_29/HBBO_29_pbn21.cif'
_pd_proc_2theta_range_inc        0.01
_pd_proc_2theta_range_max        27.6097
_pd_proc_2theta_range_min        0.9997
_pd_proc_info_datetime           2013-05-08T12:51:39
_pd_proc_info_excluded_regions   ' ?'
_pd_proc_ls_background_function
;   GSAS Background function number 1 with  8 terms.
 Shifted Chebyshev function of 1st kind
      1:    54824.3     2:    29629.1     3:   -1934.34     4:   -245.296    
      5:   -295.323     6:   -119.760     7:   -73.2077     8:    79.3870    
;
_pd_proc_ls_peak_cutoff          0.00100
_pd_proc_ls_profile_function
;
 CW Profile function number 2 with  18 terms
 Profile coefficients for Simpson's rule integration of pseudovoigt function
 C.J. Howard (1982). J. Appl. Cryst.,15,615-620.
 P. Thompson, D.E. Cox & J.B. Hastings (1987). J. Appl. Cryst.,20,79-83.
 Peak tails are ignored  where the intensity is below 0.0010 times the peak
   Aniso. broadening axis   0.0   0.0   1.0
;
_pd_proc_ls_prof_R_factor        0.0062
_pd_proc_ls_prof_wR_expected     0.0042
_pd_proc_ls_prof_wR_factor       0.0087
_pd_proc_number_of_points        2662
_pd_spec_mounting                ' ?'
_refine_ls_goodness_of_fit_all   2.07
_refine_ls_matrix_type           full
_refine_ls_number_parameters     1
_refine_ls_number_restraints     0
_refine_ls_R_Fsqd_factor         0.28205
_refine_ls_shift/su_max          0.01
_refine_ls_shift/su_mean         0.01
_reflns_d_resolution_high        1.826
_reflns_d_resolution_low         7.454
_reflns_limit_h_max              8
_reflns_limit_h_min              0
_reflns_limit_k_max              9
_reflns_limit_k_min              0
_reflns_limit_l_max              1
_reflns_limit_l_min              0
_reflns_number_total             74
_cod_data_source_file            ja411057x_si_006.cif
_cod_data_source_block           HBBO_11.11GPa
_cod_depositor_comments
;
The following automatic conversions were performed:

'_geom_bond_publ_flag' value 'N' changed to 'n' according to
/usr/data/users/saulius/automatic-downloads/current/ACS/lib/dictionaries/cif_core.dic
dictionary named 'cif_core.dic' version 2.4.2 from 2011-04-26 (17
times).

'_geom_angle_publ_flag' value 'N' changed to 'n' according
to
/usr/data/users/saulius/automatic-downloads/current/ACS/lib/dictionaries/cif_core.dic
dictionary named 'cif_core.dic' version 2.4.2 from 2011-04-26 (24
times).

Automatic conversion script
Id: cif_fix_values 2281 2013-09-26 08:29:07Z andrius 
;
_cod_original_cell_volume        580.50(12)
_cod_original_sg_symbol_Hall     'c -2ab'
_cod_database_code               4120506
#BEGIN Tags that were not found in dictionaries:
_gsas_exptl_extinct_corr_t_min   1.00000
_gsas_exptl_extinct_corr_t_max   1.00000
#END Tags that were not found in dictionaries
loop_
_symmetry_equiv_pos_site_id
_symmetry_equiv_pos_as_xyz
1 +x,+y,+z
2 -x+1/2,+y+1/2,+z
3 +x+1/2,-y+1/2,+z+1/2
4 -x,-y,+z+1/2
loop_
_atom_site_type_symbol
_atom_site_label
_atom_site_fract_x
_atom_site_fract_y
_atom_site_fract_z
_atom_site_occupancy
_atom_site_thermal_displace_type
_atom_site_U_iso_or_equiv
_atom_site_symmetry_multiplicity
S S3 -0.0394 0.34669 0.3236 1.0 Uiso 0.0365 4
S S4 -0.00069 0.2071 0.34604 1.0 Uiso 0.0365 4
S S1 0.40663 0.54405 1.1609 1.0 Uiso 0.0365 4
S S2 0.26241 0.59588 0.91848 1.0 Uiso 0.0365 4
C C2 0.15421 0.30068 0.61387 1.0 Uiso 0.0365 4
C C1 0.26507 0.31573 0.77284 1.0 Uiso 0.0365 4
C C4 0.11445 0.46822 0.62183 1.0 Uiso 0.0365 4
N N1 0.38542 0.43435 1.05802 1.0 Uiso 0.0365 4
O O1 0.3296 0.25256 0.7987 1.0 Uiso 0.0365 4
C C6 0.29084 0.41309 0.88251 1.0 Uiso 0.0365 4
N N2 0.12039 0.21576 0.53476 1.0 Uiso 0.0365 4
C C3 0.08461 0.37773 0.53662 1.0 Uiso 0.0365 4
C C5 0.2164 0.48496 0.79427 1.0 Uiso 0.0365 4
H H4 0.06554 0.52093 0.57579 1.0 Uiso 0.073 4
loop_
_atom_type_symbol
_atom_type_number_in_cell
_atom_type_scat_dispersion_real
_atom_type_scat_dispersion_imag
_atom_type_scat_Cromer_Mann_a1
_atom_type_scat_Cromer_Mann_a2
_atom_type_scat_Cromer_Mann_a3
_atom_type_scat_Cromer_Mann_a4
_atom_type_scat_Cromer_Mann_b1
_atom_type_scat_Cromer_Mann_b2
_atom_type_scat_Cromer_Mann_b3
_atom_type_scat_Cromer_Mann_b4
_atom_type_scat_Cromer_Mann_c
_atom_type_scat_source
S 16.0 0.000 0.000 6.90530 1.46790 5.20340 22.2151 1.43790 0.25360 1.58630
56.1720 0.86690 International_Tables_Vol_C
C 24.0 0.000 0.000 2.31000 20.8439 1.02000 10.2075 1.58860 0.56870 0.86500
51.6512 0.21560 International_Tables_Vol_C
N 8.0 0.000 0.000 12.2126 0.00570 3.13220 9.89330 2.01250 28.9975 1.16630
0.58260 -11.529 International_Tables_Vol_C
O 4.0 0.000 0.000 3.04850 13.2771 2.28680 5.70110 1.54630 0.32390 0.86700
32.9089 0.25080 International_Tables_Vol_C
H 4.0 0.000 0.000 0.49300 10.5109 0.32291 26.1257 0.14019 3.14236 0.04081
57.7997 0.00304 International_Tables_Vol_C
loop_
_geom_angle_atom_site_label_1
_geom_angle_atom_site_label_2
_geom_angle_atom_site_label_3
_geom_angle
_geom_angle_site_symmetry_1
_geom_angle_site_symmetry_3
_geom_angle_publ_flag
S4 S3 C3 91.623 1_555 1_555 n
S3 S4 N2 98.989 1_555 1_555 n
S2 S1 N1 98.277 1_555 1_555 n
S1 S2 C5 91.684 1_555 1_555 n
C1 C2 N2 119.5711 1_555 1_555 n
C1 C2 C3 120.605 1_555 1_555 n
N2 C2 C3 119.810 1_555 1_555 n
C2 C1 O1 122.252 1_555 1_555 n
C2 C1 C6 114.3466 1_555 1_555 n
O1 C1 C6 123.379 1_555 1_555 n
C3 C4 C5 118.4829 1_555 1_555 n
C3 C4 H4 122.323 1_555 1_555 n
C5 C4 H4 119.157 1_555 1_555 n
S1 N1 C6 116.0851 1_555 1_555 n
C1 C6 N1 119.8882 1_555 1_555 n
C1 C6 C5 120.733 1_555 1_555 n
N1 C6 C5 119.367 1_555 1_555 n
S4 N2 C2 115.683 1_555 1_555 n
S3 C3 C2 113.863 1_555 1_555 n
S3 C3 C4 123.4834 1_555 1_555 n
C2 C3 C4 122.652 1_555 1_555 n
S2 C5 C4 122.5750 1_555 1_555 n
S2 C5 C6 114.515 1_555 1_555 n
C4 C5 C6 122.910 1_555 1_555 n
loop_
_geom_bond_atom_site_label_1
_geom_bond_atom_site_label_2
_geom_bond_distance
_geom_bond_site_symmetry_2
_geom_bond_publ_flag
S3 S4 2.1422 1_555 n
S3 C3 1.79457 1_555 n
S4 N2 1.67751 1_555 n
S1 S2 2.15402 1_555 n
S1 N1 1.68698 1_555 n
S2 S1 2.15402 1_555 n
S2 C5 1.79749 1_555 n
C2 C1 1.53437 1_555 n
C2 N2 1.36103 1_555 n
C2 C3 1.48051 1_555 n
C1 O1 1.26365 1_555 n
C1 C6 1.52549 1_555 n
C4 C3 1.42680 1_555 n
C4 C5 1.44422 1_555 n
C4 H4 1.02025 1_555 n
N1 C6 1.37431 1_555 n
C6 C5 1.46785 1_555 n
loop_
_pd_meas_counts_total
_pd_proc_ls_weight
_pd_proc_intensity_bkg_calc
_pd_calc_intensity_total
0.0 0.0 -14389.30859 .
0.0 0.0 -14006.60840 .
0.0 0.0 -13627.22656 .
0.0 0.0 -13251.12012 .
0.0 0.0 -12878.27344 .
0.0 0.0 -12508.64844 .
0.0 0.0 -12142.22949 .
0.0 0.0 -11778.98145 .
0.0 0.0 -11418.89063 .
0.0 0.0 -11061.90820 .
0.0 0.0 -10708.02246 .
0.0 0.0 -10357.20703 .
0.0 0.0 -10009.43457 .
0.0 0.0 -9664.67480 .
0.0 0.0 -9322.90918 .
0.0 0.0 -8984.10156 .
0.0 0.0 -8648.23633 .
0.0 0.0 -8315.28125 .
0.0 0.0 -7985.21533 .
0.0 0.0 -7658.00293 .
0.0 0.0 -7333.63867 .
0.0 0.0 -7012.09131 .
0.0 0.0 -6693.32861 .
0.0 0.0 -6377.33105 .
0.0 0.0 -6064.07520 .
0.0 0.0 -5753.53564 .
0.0 0.0 -5445.68994 .
0.0 0.0 -5140.51074 .
0.0 0.0 -4837.97754 .
0.0 0.0 -4538.06934 .
0.0 0.0 -4240.75928 .
0.0 0.0 -3946.02148 .
0.0 0.0 -3653.83740 .
0.0 0.0 -3364.18701 .
0.0 0.0 -3077.03784 .
0.0 0.0 -2792.37622 .
0.0 0.0 -2510.17920 .
0.0 0.0 -2230.42261 .
0.0 0.0 -1953.08508 .
0.0 0.0 -1678.14246 .
0.0 0.0 -1405.58081 .
0.0 0.0 -1135.36780 .
0.0 0.0 -867.48694 .
0.0 0.0 -601.91992 .
0.0 0.0 -338.63937 .
0.0 0.0 -77.62569 .
0.0 0.0 181.13605 .
0.0 0.0 437.67059 .
0.0 0.0 691.99756 .
0.0 0.0 944.13904 .
0.0 0.0 1194.11462 .
0.0 0.0 1441.94934 .
0.0 0.0 1687.65271 .
0.0 0.0 1931.24963 .
0.0 0.0 2172.76001 .
0.0 0.0 2412.20679 .
0.0 0.0 2649.60034 .
0.0 0.0 2884.96851 .
0.0 0.0 3118.32788 .
0.0 0.0 3349.69263 .
0.0 0.0 3579.09033 .
0.0 0.0 3806.53271 .
0.0 0.0 4032.04321 .
0.0 0.0 4255.63623 .
0.0 0.0 4477.33350 .
0.0 0.0 4697.15186 .
0.0 0.0 4915.10693 .
0.0 0.0 5131.22168 .
0.0 0.0 5345.51416 .
0.0 0.0 5557.99902 .
0.0 0.0 5768.68555 .
0.0 0.0 5977.60254 .
0.0 0.0 6184.76611 .
0.0 0.0 6390.19141 .
0.0 0.0 6593.89209 .
8605.0 0.0 6795.88965 .
8833.0 0.0 6996.20410 .
8774.0 0.0 7194.84375 .
8677.0 0.0 7391.82813 .
8528.0 0.0 7587.17578 .
8379.0 0.0 7780.90430 .
8106.0 0.0 7973.02588 .
7971.0 0.0 8163.56445 .
7949.0 0.0 8352.52148 .
7999.0 0.0 8539.92383 .
8040.0 0.0 8725.78320 .
8143.0 0.0 8910.11426 .
8187.0 0.0 9092.93848 .
8259.0 0.0 9274.26465 .
8347.0 0.0 9454.10840 .
8455.0 0.0 9632.48926 .
8548.0 0.0 9809.42285 .
8605.0 0.0 9984.91699 .
8706.0 0.0 10158.99219 .
8798.0 0.0 10331.66504 .
8921.0 0.0 10502.94238 .
9044.0 0.0 10672.84375 .
9160.0 0.0 10841.37988 .
9244.0 0.0 11008.57324 .
9362.0 0.0 11174.43262 .
9499.0 0.0 11338.96582 .
9643.0 0.0 11502.19629 .
9739.0 0.0 11664.13379 .
9872.0 0.0 11824.79004 .
10035.0 0.0 11984.18066 .
10187.0 0.0 12142.32227 .
10341.0 0.0 12299.22168 .
10530.0 0.0 12454.89648 .
10687.0 0.0 12609.36230 .
10798.0 0.0 12762.62695 .
10976.0 0.0 12914.70313 .
11172.0 0.0 13065.60742 .
11311.0 0.0 13215.35352 .
11428.0 0.0 13363.95508 .
11636.0 0.0 13511.40820 .
11815.0 0.0 13657.74707 .
11955.0 0.0 13802.96973 .
12109.0 0.0 13947.09863 .
12319.0 0.0 14090.13672 .
12488.0 0.0 14232.09961 .
12594.0 0.0 14373.00391 .
12788.0 0.0 14512.85352 .
12990.0 0.0 14651.66113 .
13096.0 0.0 14789.44824 .
13269.0 0.0 14926.21387 .
13458.0 0.0 15061.97949 .
13670.0 0.0 15196.74707 .
13767.0 0.0 15330.53613 .
13978.0 0.0 15463.35156 .
14167.0 0.0 15595.20801 .
14306.0 0.0 15726.11621 .
14486.0 0.0 15856.08301 .
14725.0 0.0 15985.12988 .
14888.0 0.0 16113.25195 .
15035.0 0.0 16240.47168 .
15293.0 0.0 16366.79395 .
15537.0 0.0 16492.23047 .
15697.0 0.0 16616.79297 .
15972.0 0.0 16740.49609 .
16346.0 0.0 16863.33789 .
16858.0 0.0 16985.33594 .
17546.0 0.0 17106.50000 .
18064.0 0.0 17226.83984 .
17850.0 0.0 17346.36523 .
17460.0 0.0 17465.08984 .
17345.0 0.0 17583.00977 .
17478.0 0.0 17700.15234 .
17549.0 0.0 17816.51563 .
17624.0 0.0 17932.10938 .
17802.0 0.0 18046.94727 .
17943.0 0.0 18161.03516 .
18056.0 0.0 18274.38281 .
18215.0 0.0 18387.00000 .
18424.0 0.0 18498.89648 .
18534.0 0.0 18610.08008 .
18631.0 0.0 18720.56055 .
18817.0 0.0 18830.34570 .
18971.0 0.0 18939.44531 .
19100.0 0.0 19047.86328 .
19212.0 0.0 19155.61523 .
19403.0 0.0 19262.70898 .
19522.0 0.0 19369.14258 .
19618.0 0.0 19474.93555 .
19789.0 0.0 19580.09570 .
19914.0 0.0 19684.62500 .
20010.0 0.0 19788.53320 .
20149.0 0.0 19891.82813 .
20320.0 0.0 19994.52148 .
20453.0 0.0 20096.61523 .
20530.0 0.0 20198.11914 .
20681.0 0.0 20299.04688 .
20811.0 0.0 20399.40039 .
20900.0 0.0 20499.18164 .
21017.0 0.0 20598.41016 .
21186.0 0.0 20697.08594 .
21289.0 0.0 20795.21680 .
21398.0 0.0 20892.81250 .
21478.0 0.0 20989.87500 .
21552.0 0.0 21086.42578 .
21609.0 0.0 21182.45117 .
21671.0 0.0 21277.96680 .
21837.0 0.0 21372.98438 .
21924.0 0.0 21467.50977 .
22012.0 0.0 21561.54102 .
22099.0 0.0 21655.09180 .
22161.0 0.0 21748.17383 .
22224.0 0.0 21840.78125 .
22296.0 0.0 21932.93164 .
22387.0 0.0 22024.62305 .
22462.0 0.0 22115.86719 .
22520.0 0.0 22206.66797 .
22638.0 0.0 22297.03711 .
22748.0 0.0 22386.97070 .
22858.0 0.0 22476.48242 .
22936.0 0.0 22565.57617 .
22994.0 0.0 22654.25195 .
23080.0 0.0 22742.52734 .
23156.0 0.0 22830.40039 .
23240.0 0.0 22917.87500 .
23296.0 0.0 23004.96484 .
23382.0 0.0 23091.67188 .
23461.0 0.0000426 23178.00195 23206.70703
23555.0 0.0000425 23263.95508 23295.94336
23625.0 0.0000423 23349.54492 23385.43164
23718.0 0.0000422 23434.77344 23475.34180
23772.0 0.0000421 23519.64648 23565.89844
23877.0 0.0000419 23604.16992 23657.41602
23939.0 0.0000418 23688.34961 23751.16406
24006.0 0.0000417 23772.18555 23846.13867
24102.0 0.0000415 23855.68750 23944.09766
24159.0 0.0000414 23938.85938 24046.45117
24223.0 0.0000413 24021.71094 24155.27148
24303.0 0.0000411 24104.23633 24273.47656
24385.0 0.0000410 24186.45508 24406.24609
24464.0 0.0000409 24268.35547 24555.55273
24557.0 0.0000407 24349.95508 24725.54102
24713.0 0.0000405 24431.25195 24910.88867
24958.0 0.0000401 24512.25781 25085.90820
25130.0 0.0000398 24592.96484 25204.54492
25165.0 0.0000397 24673.39453 25241.63281
25089.0 0.0000399 24753.53711 25226.01563
25071.0 0.0000399 24833.40234 25203.07813
25146.0 0.0000398 24913.00000 25196.54688
25212.0 0.0000397 24992.32617 25210.67578
25305.0 0.0000395 25071.38477 25242.28320
25346.0 0.0000395 25150.18750 25286.92188
25408.0 0.0000394 25228.73438 25340.77930
25498.0 0.0000392 25307.02539 25401.00195
25547.0 0.0000391 25385.07227 25465.60938
25624.0 0.0000390 25462.87695 25533.24219
25670.0 0.0000390 25540.44727 25603.00391
25717.0 0.0000389 25617.77539 25674.27930
25768.0 0.0000388 25694.87500 25746.66992
25817.0 0.0000387 25771.75000 25819.88281
25938.0 0.0000386 25848.39844 25893.71289
26017.0 0.0000384 25924.82813 25968.01758
26103.0 0.0000383 26001.04297 26042.68750
26204.0 0.0000382 26077.04102 26117.65039
26254.0 0.0000381 26152.83789 26192.86523
26308.0 0.0000380 26228.42969 26268.28711
26337.0 0.0000380 26303.81641 26343.89844
26431.0 0.0000378 26379.01172 26419.71094
26492.0 0.0000377 26454.00586 26495.71289
26580.0 0.0000376 26528.81445 26571.94336
26667.0 0.0000375 26603.43164 26648.42578
26719.0 0.0000374 26677.86914 26725.22266
26797.0 0.0000373 26752.12500 26802.39453
26879.0 0.0000372 26826.20703 26880.04297
26913.0 0.0000372 26900.10938 26958.27930
26996.0 0.0000370 26973.84570 27037.26953
27025.0 0.0000370 27047.41211 27117.21875
27110.0 0.0000369 27120.81250 27198.41406
27211.0 0.0000367 27194.05469 27281.24609
27264.0 0.0000367 27267.13672 27366.25000
27353.0 0.0000366 27340.06836 27454.18555
27445.0 0.0000364 27412.84375 27546.11523
27519.0 0.0000363 27485.46875 27643.54102
27614.0 0.0000362 27557.94922 27748.56445
27658.0 0.0000362 27630.28516 27864.04688
27728.0 0.0000361 27702.47852 27993.82031
27813.0 0.0000360 27774.53906 28142.77734
27934.0 0.0000358 27846.46289 28316.98828
28127.0 0.0000356 27918.25391 28525.17773
28407.0 0.0000352 27989.91211 28785.90625
28784.0 0.00003474 28061.44531 29138.69141
29263.0 0.00003417 28132.85352 29626.98242
29804.0 0.00003355 28204.14258 30146.80078
29931.0 0.00003341 28275.30664 30162.66797
29535.0 0.00003386 28346.35742 29659.54883
29130.0 0.00003433 28417.29297 29230.20117
28935.0 0.00003456 28488.11328 29006.96484
28818.0 0.00003470 28558.82227 28921.53711
28834.0 0.00003468 28629.42969 28903.59961
28867.0 0.00003464 28699.92969 28917.31641
28918.0 0.00003458 28770.32617 28948.29102
28971.0 0.00003452 28840.61914 28990.12109
29021.0 0.00003446 28910.81445 29039.28711
29109.0 0.00003435 28980.91797 29093.60352
29164.0 0.00003429 29050.92188 29151.66797
29199.0 0.00003425 29120.83789 29212.56250
29259.0 0.00003418 29190.65820 29275.67773
29316.0 0.00003411 29260.39648 29340.63281
29377.0 0.00003404 29330.04688 29407.17773
29465.0 0.00003394 29399.61133 29475.19531
29548.0 0.00003384 29469.09180 29544.66992
29626.0 0.00003375 29538.49414 29615.70117
29651.0 0.00003373 29607.82031 29688.51758
29783.0 0.00003358 29677.06836 29763.50000
29850.0 0.00003350 29746.24219 29841.29492
29906.0 0.00003344 29815.34180 29922.96289
29977.0 0.00003336 29884.36914 30010.32227
30037.0 0.00003329 29953.33203 30106.80469
30138.0 0.00003318 30022.22266 30219.07227
30214.0 0.00003310 30091.04883 30359.39063
30381.0 0.00003292 30159.81055 30547.05859
30625.0 0.00003265 30228.50781 30805.18555
30980.0 0.00003228 30297.14648 31143.24219
31432.0 0.00003181 30365.71875 31496.20117
31567.0 0.00003168 30434.24414 31658.35938
31384.0 0.00003186 30502.70313 31527.64648
31131.0 0.00003212 30571.11328 31298.88672
30979.0 0.00003228 30639.47070 31126.19141
30952.0 0.00003231 30707.77148 31033.68750
30951.0 0.00003231 30776.02148 31002.58203
30972.0 0.00003229 30844.22266 31010.32031
31005.0 0.00003225 30912.37891 31040.34570
31045.0 0.00003221 30980.48438 31082.85547
31138.0 0.00003212 31048.54688 31132.68555
31170.0 0.00003208 31116.56445 31187.14648
31240.0 0.00003201 31184.53711 31244.73242
31323.0 0.00003193 31252.46875 31304.52344
31431.0 0.00003182 31320.36328 31365.91406
31541.0 0.00003170 31388.21875 31428.48633
31587.0 0.00003166 31456.03320 31502.21680
31629.0 0.00003162 31523.80859 31566.65625
31681.0 0.00003156 31591.55273 31631.64648
31732.0 0.00003151 31659.25977 31697.06641
31797.0 0.00003145 31726.93555 31762.83008
31845.0 0.00003140 31794.57227 31828.87109
31917.0 0.00003133 31862.18555 31895.15234
32012.0 0.00003124 31929.76172 31964.12305
32062.0 0.00003119 31997.31445 32030.81445
32128.0 0.00003113 32064.83398 32097.63672
32217.0 0.00003104 32132.32813 32164.58008
32304.0 0.00003096 32199.79297 32231.62695
32371.0 0.00003089 32267.23438 32298.76758
32451.0 0.00003082 32334.65039 32365.99219
32519.0 0.00003075 32402.03906 32433.28711
32579.0 0.00003069 32469.40820 32500.65820
32648.0 0.00003063 32536.75000 32568.08984
32715.0 0.00003057 32604.07422 32635.58789
32753.0 0.00003053 32671.37695 32703.14453
32791.0 0.00003050 32738.66602 32770.76953
32906.0 0.00003039 32805.92188 32838.44531
32983.0 0.00003032 32873.16797 32906.18359
33037.0 0.00003027 32940.39063 32973.98828
33094.0 0.00003022 33007.60156 33041.84766
33158.0 0.00003016 33074.79688 33109.79688
33228.0 0.00003010 33141.97266 33177.80469
33277.0 0.00003005 33209.12500 33245.88281
33356.0 0.00002998 33276.27344 33314.05078
33444.0 0.00002990 33343.40234 33382.30859
33489.0 0.00002986 33410.51953 33450.66016
33572.0 0.00002979 33477.62891 33519.12109
33618.0 0.00002975 33544.72266 33587.70313
33700.0 0.00002967 33611.80469 33656.40625
33783.0 0.00002960 33678.87109 33725.25000
33851.0 0.00002954 33745.92578 33794.23828
33924.0 0.00002948 33812.98047 33863.41797
33987.0 0.00002942 33880.00781 33932.75781
34016.0 0.00002940 33947.04297 34002.33984
34135.0 0.00002930 34014.05859 34072.14844
34187.0 0.00002925 34081.07031 34142.23047
34243.0 0.00002920 34148.06641 34212.60156
34353.0 0.00002911 34215.06250 34283.33594
34432.0 0.00002904 34282.05078 34354.44922
34509.0 0.00002898 34349.03516 34425.60547
34543.0 0.00002895 34416.00391 34499.96094
34644.0 0.00002887 34482.96875 34572.67578
34704.0 0.00002882 34549.92969 34646.07813
34735.0 0.00002879 34616.87891 34720.26953
34855.0 0.00002869 34683.82813 34795.41406
34915.0 0.00002864 34750.77344 34871.67578
34990.0 0.00002858 34817.71484 34949.25000
35023.0 0.00002855 34884.64453 35028.40625
35144.0 0.00002845 34951.57813 35109.49609
35236.0 0.00002838 35018.49609 35192.91016
35324.0 0.00002831 35085.42188 35279.23438
35403.0 0.00002825 35152.33594 35369.15625
35481.0 0.00002818 35219.24219 35463.63672
35618.0 0.00002808 35286.15234 35563.98438
35809.0 0.00002793 35353.06641 35671.95703
36002.0 0.00002778 35419.96094 35790.02344
36228.0 0.00002760 35486.86328 35921.80859
36528.0 0.00002738 35553.75781 36072.58203
36903.0 0.00002710 35620.65234 36250.65234
37320.0 0.00002680 35687.54688 36470.25391
37657.0 0.00002656 35754.43750 36759.37109
37944.0 0.00002635 35821.32422 37177.73438
38233.0 0.00002616 35888.20703 37846.66797
38820.0 0.00002576 35955.09375 38970.05469
40158.0 0.00002490 36021.96875 40793.13672
42814.0 0.00002336 36088.84766 43420.24219
46459.0 0.00002152 36155.71875 46288.30859
47915.0 0.00002087 36222.59375 47474.70313
45496.0 0.00002198 36289.46484 45774.75781
42089.0 0.00002376 36356.33594 42979.67578
39942.0 0.00002504 36423.20313 40683.20313
38851.0 0.00002574 36490.07422 39197.46484
38338.0 0.00002608 36556.92969 38351.92969
38095.0 0.00002625 36623.79297 37902.05469
37966.0 0.00002634 36690.65234 37664.83203
37918.0 0.00002637 36757.50781 37537.78125
37856.0 0.00002642 36824.36719 37471.91797
37855.0 0.00002642 36891.21484 37444.16406
37846.0 0.00002642 36958.06641 37442.56641
37785.0 0.00002647 37024.91797 37460.16797
37778.0 0.00002647 37091.76172 37492.68750
37792.0 0.00002646 37158.60547 37537.75781
37830.0 0.00002643 37225.44141 37593.70703
37869.0 0.00002641 37292.28125 37660.52734
37928.0 0.00002637 37359.12109 37739.24609
38011.0 0.00002631 37425.94531 37832.65234
38051.0 0.00002628 37492.77734 37945.31641
38156.0 0.00002621 37559.60156 38091.36719
38246.0 0.00002615 37626.43359 38289.02344
38386.0 0.00002605 37693.24609 38567.37500
38658.0 0.00002587 37760.06641 38961.23828
39109.0 0.00002557 37826.88281 39496.26563
39872.0 0.00002508 37893.68750 40145.30859
40939.0 0.00002443 37960.49219 40730.43750
41533.0 0.00002408 38027.28906 40909.12891
40951.0 0.00002442 38094.08594 40580.19922
40122.0 0.00002492 38160.88281 40047.51953
39539.0 0.00002529 38227.66797 39577.75000
39236.0 0.00002549 38294.44922 39247.88281
39059.0 0.00002560 38361.21875 39046.25000
38991.0 0.00002565 38427.99609 38938.84766
38982.0 0.00002565 38494.75781 38892.92578
39009.0 0.00002564 38561.52344 38884.41016
39059.0 0.00002560 38628.27344 38898.31250
39107.0 0.00002557 38695.02344 38926.01953
39127.0 0.00002556 38761.76172 38962.85156
39158.0 0.00002554 38828.50000 39006.10156
39190.0 0.00002552 38895.22656 39054.03516
39277.0 0.00002546 38961.94922 39105.51172
39282.0 0.00002546 39028.66797 39159.73047
39347.0 0.00002541 39095.37109 39216.07813
39393.0 0.00002539 39162.07813 39274.16016
39468.0 0.00002534 39228.76172 39333.61328
39530.0 0.00002530 39295.44922 39394.23438
39595.0 0.00002526 39362.12109 39455.79688
39680.0 0.00002520 39428.78906 39518.18359
39714.0 0.00002518 39495.43750 39581.25781
39760.0 0.00002515 39562.08984 39644.95703
39848.0 0.00002510 39628.72266 39709.19531
39884.0 0.00002507 39695.35547 39773.92969
39916.0 0.00002505 39761.97656 39839.12109
39957.0 0.00002503 39828.58594 39904.73438
40027.0 0.00002498 39895.17578 39970.75000
40094.0 0.00002494 39961.76563 40037.17578
40158.0 0.00002490 40028.34375 40104.00000
40220.0 0.00002486 40094.90625 40171.22266
40291.0 0.00002482 40161.45703 40238.87109
40331.0 0.00002479 40228.00000 40306.98047
40382.0 0.00002476 40294.51953 40375.55469
40444.0 0.00002473 40361.03906 40444.68750
40486.0 0.00002470 40427.53906 40514.40625
40564.0 0.00002465 40494.03125 40584.81250
40642.0 0.00002461 40560.50391 40656.92188
40713.0 0.00002456 40626.96484 40729.04297
40741.0 0.00002455 40693.41797 40802.26172
40783.0 0.00002452 40759.85156 40876.77734
40848.0 0.00002448 40826.26172 40952.87109
40951.0 0.00002442 40892.67188 41020.43750
41051.0 0.00002436 40959.05859 41101.20703
41094.0 0.00002433 41025.43359 41185.05859
41171.0 0.00002429 41091.78516 41272.86719
41271.0 0.00002423 41158.12500 41365.98438
41346.0 0.00002419 41224.44922 41466.37500
41434.0 0.00002413 41290.75781 41577.19922
41485.0 0.00002411 41357.04297 41703.41016
41570.0 0.00002406 41423.31641 41852.72656
41670.0 0.00002400 41489.57031 42036.29688
41814.0 0.00002392 41555.80859 42269.52734
42009.0 0.00002380 41622.02344 42567.87500
42338.0 0.00002362 41688.21875 42946.68750
42813.0 0.00002336 41754.40234 43406.36328
43539.0 0.00002297 41820.56250 43903.82422
44251.0 0.00002260 41886.69922 44312.48828
44347.0 0.00002255 41952.82031 44456.46484
43961.0 0.00002275 42018.92578 44285.66016
43462.0 0.00002301 42085.00391 43941.51563
43156.0 0.00002317 42151.06641 43587.72656
43006.0 0.00002325 42217.10156 43302.72266
42893.0 0.00002331 42283.11719 43101.48047
42844.0 0.00002334 42349.11719 42973.73438
42802.0 0.00002336 42415.08984 42902.82813
42786.0 0.00002337 42481.03906 42872.75391
42815.0 0.00002336 42546.96484 42870.69141
42828.0 0.00002335 42612.86719 42887.43750
42882.0 0.00002332 42678.75391 42916.91016
42922.0 0.00002330 42744.60938 42955.24219
42975.0 0.00002327 42810.44141 43000.08203
43007.0 0.00002325 42876.25000 43049.91406
43032.0 0.00002324 42942.02734 43109.58203
43091.0 0.00002321 43007.79688 43167.01953
43150.0 0.00002317 43073.52734 43227.58984
43253.0 0.00002312 43139.23438 43291.20313
43345.0 0.00002307 43204.91797 43358.00000
43407.0 0.00002304 43270.57813 43428.41016
43484.0 0.00002300 43336.20703 43503.31641
43583.0 0.00002294 43401.81641 43584.47266
43662.0 0.00002290 43467.38672 43675.28125
43770.0 0.00002285 43532.93750 43782.16016
43870.0 0.00002279 43598.45703 43915.64844
43960.0 0.00002275 43663.95313 44090.48438
44127.0 0.00002266 43729.42188 44322.22266
44429.0 0.00002251 43794.85938 44618.15625
44895.0 0.00002227 43860.26563 44954.68359
45452.0 0.00002200 43925.64844 45235.53516
45604.0 0.00002193 43991.00781 45311.18750
45282.0 0.00002208 44056.32422 45174.50000
44894.0 0.00002227 44121.61719 44965.16797
44640.0 0.00002240 44186.88281 44789.67188
44556.0 0.00002244 44252.10938 44677.69531
44498.0 0.00002247 44317.31250 44623.95313
44538.0 0.00002245 44382.48438 44613.16797
44568.0 0.00002244 44447.62500 44630.20313
44607.0 0.00002242 44512.73047 44663.84375
44666.0 0.00002239 44577.80078 44707.21094
44694.0 0.00002237 44642.85547 44756.48828
44745.0 0.00002235 44707.86328 44809.60156
44826.0 0.00002231 44772.84766 44865.52734
44867.0 0.00002229 44837.78906 44923.35938
44959.0 0.00002224 44902.71094 44982.77344
44996.0 0.00002222 44967.58984 45043.41016
45061.0 0.00002219 45032.43359 45105.06641
45126.0 0.00002216 45097.24609 45167.62109
45168.0 0.00002214 45162.03906 45230.97266
45203.0 0.00002212 45226.78516 45295.14844
45302.0 0.00002207 45291.49219 45359.98828
45387.0 0.00002203 45356.16797 45425.66406
45442.0 0.00002201 45420.81250 45492.26953
45505.0 0.00002198 45485.42188 45560.05859
45594.0 0.00002193 45550.00000 45629.44141
45617.0 0.00002192 45614.53906 45701.05469
45669.0 0.00002190 45679.03906 45775.88281
45751.0 0.00002186 45743.51172 45855.17578
45880.0 0.00002180 45807.93359 45940.35547
46007.0 0.00002174 45872.33594 46032.62109
46171.0 0.00002166 45936.68750 46131.78516
46366.0 0.00002157 46001.01563 46234.41406
46470.0 0.00002152 46065.29688 46350.84766
46468.0 0.00002152 46129.54297 46439.55469
46445.0 0.00002153 46193.75781 46516.94141
46455.0 0.00002153 46257.93359 46580.20313
46477.0 0.00002152 46322.06641 46626.16406
46462.0 0.00002152 46386.16797 46658.70313
46483.0 0.00002151 46450.23047 46686.87109
46502.0 0.00002150 46514.25000 46717.98438
46541.0 0.00002149 46578.23438 46755.15625
46594.0 0.00002146 46642.17969 46798.79688
46629.0 0.00002145 46706.08203 46848.19531
46699.0 0.00002141 46769.95703 46902.39063
46749.0 0.00002139 46833.78516 46960.48047
46808.0 0.00002136 46897.58203 47021.76563
46898.0 0.00002132 46961.32813 47085.72266
46923.0 0.00002131 47025.04297 47152.16797
47013.0 0.00002127 47088.71094 47221.05859
47107.0 0.00002123 47152.35156 47292.70313
47166.0 0.00002120 47215.94531 47367.73438
47240.0 0.00002117 47279.50000 47447.34375
47311.0 0.00002114 47343.01172 47533.52344
47363.0 0.00002111 47406.48438 47629.44141
47426.0 0.00002109 47469.92188 47739.68750
47544.0 0.00002103 47533.31250 47870.21094
47694.0 0.00002097 47596.66406 48027.63672
47873.0 0.00002089 47659.98438 48219.90625
48146.0 0.00002077 47723.24609 48441.69141
48625.0 0.00002057 47786.48438 48679.18750
49358.0 0.00002026 47849.67969 48885.35156
49923.0 0.00002003 47912.81641 48991.89453
49793.0 0.00002008 47975.92969 48972.10156
49263.0 0.00002030 48039.00000 48874.55469
48851.0 0.00002047 48102.02734 48765.08203
48613.0 0.00002057 48165.00781 48679.38281
48527.0 0.00002061 48227.95313 48626.85156
48500.0 0.00002062 48290.85938 48605.08984
48470.0 0.00002063 48353.71875 48607.90625
48499.0 0.00002062 48416.53516 48628.75781
48564.0 0.00002059 48479.31250 48662.07031
48587.0 0.00002058 48542.04297 48703.68359
48637.0 0.00002056 48604.74609 48750.78516
48665.0 0.00002055 48667.39844 48801.59766
48738.0 0.00002052 48730.01172 48854.98438
48748.0 0.00002051 48792.58203 48910.26172
48792.0 0.00002050 48855.09766 48970.20313
48868.0 0.00002046 48917.58984 49028.91406
48941.0 0.00002043 48980.02344 49087.62500
49023.0 0.00002040 49042.42969 49147.05078
49110.0 0.00002036 49104.78906 49207.03906
49152.0 0.00002035 49167.11328 49267.50781
49201.0 0.00002032 49229.37500 49326.08594
49279.0 0.00002029 49291.60938 49387.28906
49320.0 0.00002028 49353.80078 49448.78906
49368.0 0.00002026 49415.94922 49510.52344
49419.0 0.00002024 49478.05469 49572.46094
49490.0 0.00002021 49540.11719 49634.58203
49548.0 0.00002018 49602.12891 49696.86719
49618.0 0.00002015 49664.11719 49759.30859
49658.0 0.00002014 49726.05078 49827.66406
49686.0 0.00002013 49787.94922 49890.43750
49707.0 0.00002012 49849.80078 49953.33594
49779.0 0.00002009 49911.61328 50016.36719
49829.0 0.00002007 49973.37500 50079.52734
49897.0 0.00002004 50035.10156 50142.80469
49918.0 0.00002003 50096.79297 50206.23047
49988.0 0.00002000 50158.44141 50269.80078
50046.0 0.00001998 50220.03516 50333.51563
50118.0 0.00001995 50281.59375 50397.39453
50181.0 0.00001993 50343.11328 50461.46094
50279.0 0.00001989 50404.58984 50525.73438
50344.0 0.00001986 50466.01953 50590.23047
50394.0 0.00001984 50527.40625 50654.98047
50430.0 0.00001983 50588.76172 50720.02734
50492.0 0.00001981 50650.06641 50785.41406
50590.0 0.00001977 50711.33203 50851.19922
50657.0 0.00001974 50772.56250 50917.44141
50692.0 0.00001973 50833.75000 50984.23047
50775.0 0.00001969 50894.88672 51051.67578
50799.0 0.00001969 50955.98828 51119.88672
50833.0 0.00001967 51017.04688 51189.03906
50931.0 0.00001963 51078.07422 51259.36328
50998.0 0.00001961 51139.04688 51331.13281
51078.0 0.00001958 51199.98438 51404.74219
51148.0 0.00001955 51260.87500 51480.78906
51201.0 0.00001953 51321.73438 51560.10547
51244.0 0.00001951 51382.55078 51643.92188
51330.0 0.00001948 51443.32813 51734.01953
51365.0 0.00001947 51504.05859 51832.82031
51449.0 0.00001944 51564.75000 51943.43750
51582.0 0.00001939 51625.40234 52069.41016
51683.0 0.00001935 51686.02344 52214.18359
51761.0 0.00001932 51746.59766 52379.78516
51885.0 0.00001927 51807.12891 52564.13672
52021.0 0.00001922 51867.62109 52759.95313
52251.0 0.00001914 51928.07813 52952.25000
52541.0 0.00001903 51988.49219 53127.49609
52775.0 0.00001895 52048.87109 53262.53906
52865.0 0.00001892 52109.21484 53332.57422
52845.0 0.00001892 52169.50781 53333.94141
52916.0 0.00001890 52229.76172 53289.20703
53034.0 0.00001886 52289.98047 53225.95313
53059.0 0.00001885 52350.16797 53160.30859
52944.0 0.00001889 52410.30469 53102.06250
52841.0 0.00001892 52470.41016 53060.43750
52781.0 0.00001895 52530.48438 53038.94531
52750.0 0.00001896 52590.51172 53035.69922
52812.0 0.00001894 52650.49609 53048.35938
52863.0 0.00001892 52710.44922 53073.60547
52923.0 0.00001890 52770.36719 53108.39844
52978.0 0.00001888 52830.25000 53150.19141
53023.0 0.00001886 52890.08984 53197.12891
53090.0 0.00001884 52949.89063 53247.82031
53163.0 0.00001881 53009.66406 53301.29297
53218.0 0.00001879 53069.39844 53356.82813
53305.0 0.00001876 53129.08203 53413.99219
53378.0 0.00001873 53188.75000 53471.98438
53485.0 0.00001870 53248.36719 53531.27734
53569.0 0.00001867 53307.95313 53591.53906
53661.0 0.00001864 53367.50781 53652.75391
53793.0 0.00001859 53427.02734 53714.82813
53889.0 0.00001856 53486.50000 53777.67969
54014.0 0.00001851 53545.94922 53841.28906
54146.0 0.00001847 53605.36328 53905.58984
54309.0 0.00001841 53664.73047 53970.53906
54486.0 0.00001835 53724.07031 54036.13281
54688.0 0.00001829 53783.37891 54102.35938
54919.0 0.00001821 53842.66016 54169.21484
55195.0 0.00001812 53901.89453 54236.68750
55440.0 0.00001804 53961.10547 54305.01172
55654.0 0.00001797 54020.27734 54373.82031
55890.0 0.00001789 54079.41797 54443.30859
56056.0 0.00001784 54138.51953 54513.53125
56212.0 0.00001779 54197.59766 54584.55078
56347.0 0.00001775 54256.63281 54656.39453
56420.0 0.00001772 54315.64453 54729.14844
56469.0 0.00001771 54374.61719 54802.84766
56485.0 0.00001770 54433.56641 54877.60156
56478.0 0.00001771 54492.48438 54953.49219
56449.0 0.00001772 54551.36719 55030.64453
56384.0 0.00001774 54610.21484 55109.16797
56328.0 0.00001775 54669.03906 55189.21875
56289.0 0.00001777 54727.82422 55270.43359
56236.0 0.00001778 54786.58984 55353.16797
56214.0 0.00001779 54845.31641 55438.95703
56165.0 0.00001780 54904.01172 55527.15625
56210.0 0.00001779 54962.68359 55618.10547
56239.0 0.00001778 55021.32813 55712.23047
56284.0 0.00001777 55079.94141 55810.00000
56305.0 0.00001776 55138.52344 55912.07813
56391.0 0.00001773 55197.07813 56019.27344
56438.0 0.00001772 55255.60547 56132.67578
56532.0 0.00001769 55314.10547 56253.85938
56629.0 0.00001766 55372.56641 56385.08203
56756.0 0.00001762 55431.01953 56529.80078
56938.0 0.00001756 55489.42578 56693.01563
57154.0 0.00001750 55547.81641 56881.92578
57372.0 0.00001743 55606.17188 57106.06250
57613.0 0.00001736 55664.51563 57376.42578
57952.0 0.00001726 55722.81641 57704.65625
58431.0 0.00001711 55781.09766 58099.31641
59111.0 0.00001692 55839.35938 58558.83203
59960.0 0.00001668 55897.58594 59056.65625
60812.0 0.00001644 55955.79688 59521.16016
61193.0 0.00001634 56013.97656 59844.26953
60960.0 0.00001640 56072.13672 59962.64453
60549.0 0.00001652 56130.26172 59930.41797
60258.0 0.00001660 56188.37109 59864.62500
60199.0 0.00001661 56246.45313 59852.71094
60325.0 0.00001658 56304.51172 59937.84766
60631.0 0.00001649 56362.55469 60135.25000
61064.0 0.00001638 56420.55859 60449.27344
61639.0 0.00001622 56478.55469 60881.35547
62377.0 0.00001603 56536.52344 61433.05078
63236.0 0.00001581 56594.47656 62106.26563
64178.0 0.00001558 56652.39844 62900.52734
65156.0 0.00001535 56710.29688 63807.08203
66120.0 0.00001512 56768.18359 64799.14453
66964.0 0.00001493 56826.04688 65821.26563
67707.0 0.00001477 56883.87500 66785.53906
68203.0 0.00001466 56941.69922 67587.69531
68410.0 0.00001462 56999.49609 68145.82813
68268.0 0.00001465 57057.27734 68439.22656
67875.0 0.00001473 57115.02734 68510.14844
67369.0 0.00001484 57172.76953 68434.50781
66821.0 0.00001497 57230.48828 68309.63281
66368.0 0.00001507 57288.19141 68258.90625
66280.0 0.00001509 57345.87500 68407.01563
66692.0 0.00001499 57403.53906 68845.32031
67592.0 0.00001479 57461.18359 69627.97656
69113.0 0.00001447 57518.81641 70780.79688
71118.0 0.00001406 57576.42188 72297.01563
73475.0 0.00001361 57634.01953 74121.54688
75987.0 0.00001316 57691.58984 76115.98438
78304.0 0.00001277 57749.15234 78023.35938
80030.0 0.00001250 57806.69922 79474.64844
80807.0 0.00001238 57864.22656 80097.29688
80485.0 0.00001242 57921.73438 79684.12500
79115.0 0.00001264 57979.23438 78342.39063
77151.0 0.00001296 58036.71484 76403.22656
74935.0 0.00001334 58094.17188 74249.11719
72711.0 0.00001375 58151.62500 72169.85938
70610.0 0.00001416 58209.05859 70331.17188
68839.0 0.00001453 58266.48047 68801.32813
67409.0 0.00001483 58323.89063 67588.32813
66322.0 0.00001508 58381.28516 66659.78906
65524.0 0.00001526 58438.65625 65946.09375
64916.0 0.00001540 58496.03125 65339.48438
64219.0 0.00001557 58553.37891 64738.73828
63483.0 0.00001575 58610.72266 64124.28516
62831.0 0.00001592 58668.05469 63549.04688
62333.0 0.00001604 58725.37109 63063.40234
61969.0 0.00001614 58782.67578 62685.75000
61744.0 0.00001620 58839.97266 62413.71484
61597.0 0.00001623 58897.25391 62236.92578
61563.0 0.00001624 58954.52344 62143.19922
61536.0 0.00001625 59011.78125 62120.78125
61496.0 0.00001626 59069.03125 62158.22266
61483.0 0.00001626 59126.27344 62242.11719
61510.0 0.00001626 59183.50781 62353.15234
61569.0 0.00001624 59240.72656 62462.85938
61625.0 0.00001623 59297.93359 62536.71875
61694.0 0.00001621 59355.13281 62548.12500
61764.0 0.00001619 59412.32422 62494.40234
61824.0 0.00001617 59469.51172 62398.05859
61936.0 0.00001615 59526.67969 62291.58984
62061.0 0.00001611 59583.84766 62202.07422
62225.0 0.00001607 59641.00781 62146.26172
62417.0 0.00001602 59698.15625 62133.00781
62680.0 0.00001595 59755.29297 62166.62500
63000.0 0.00001587 59812.42969 62251.74219
63433.0 0.00001576 59869.56641 62391.98047
63848.0 0.00001566 59926.68359 62592.63672
64382.0 0.00001553 59983.79297 62860.41406
64925.0 0.00001540 60040.90234 63202.92188
65467.0 0.00001527 60098.00781 63627.28516
65938.0 0.00001517 60155.10547 64136.84375
66351.0 0.00001507 60212.19141 64724.79297
66636.0 0.00001501 60269.27344 65363.91797
66786.0 0.00001497 60326.35156 65996.47656
66844.0 0.00001496 60383.42578 66536.23438
66779.0 0.00001497 60440.49609 66895.78906
66819.0 0.00001497 60497.55859 67028.76563
66861.0 0.00001496 60554.61719 66950.17969
66680.0 0.00001500 60611.67578 66727.57031
66314.0 0.00001508 60668.73047 66461.28125
66024.0 0.00001515 60725.77734 66249.66406
65965.0 0.00001516 60782.82031 66157.84375
66115.0 0.00001513 60839.85938 66214.53906
66360.0 0.00001507 60896.89844 66422.65625
66719.0 0.00001499 60953.92578 66764.89063
67084.0 0.00001491 61010.95703 67201.43750
67350.0 0.00001485 61067.99219 67665.13281
67565.0 0.00001480 61125.01563 68056.48438
67717.0 0.00001477 61182.03125 68269.71875
67713.0 0.00001477 61239.05859 68229.86719
67580.0 0.00001480 61296.07813 67930.80469
67346.0 0.00001485 61353.09375 67435.92188
67031.0 0.00001492 61410.10547 66839.90625
66663.0 0.00001500 61467.12500 66227.66406
66228.0 0.00001510 61524.12891 65656.31250
65776.0 0.00001520 61581.14844 65151.09766
65291.0 0.00001532 61638.15234 64721.84375
64887.0 0.00001541 61695.16406 64365.80469
64529.0 0.00001550 61752.17188 64077.34375
64189.0 0.00001558 61809.17969 63847.08203
63937.0 0.00001564 61866.18359 63665.94531
63680.0 0.00001570 61923.19141 63525.55078
63484.0 0.00001575 61980.19531 63418.53125
63322.0 0.00001579 62037.21484 63338.62500
63231.0 0.00001582 62094.21484 63280.56250
63167.0 0.00001583 62151.21875 63240.15234
63169.0 0.00001583 62208.22656 63214.08984
63141.0 0.00001584 62265.23047 63199.73047
63138.0 0.00001584 62322.25000 63195.08594
63165.0 0.00001583 62379.25391 63198.55078
63194.0 0.00001582 62436.26953 63208.96094
63214.0 0.00001582 62493.27734 63225.37109
63319.0 0.00001579 62550.28906 63247.10938
63369.0 0.00001578 62607.29688 63273.64844
63466.0 0.00001576 62664.30859 63304.68359
63611.0 0.00001572 62721.32422 63340.01563
63764.0 0.00001568 62778.34375 63379.67188
63935.0 0.00001564 62835.35156 63423.81641
64083.0 0.00001560 62892.38281 63472.96875
64272.0 0.00001556 62949.40234 63527.71484
64476.0 0.00001551 63006.42969 63589.01563
64628.0 0.00001547 63063.44531 63657.96484
64731.0 0.00001545 63120.47266 63735.75391
64846.0 0.00001542 63177.50000 63823.40625
64942.0 0.00001540 63234.53125 63921.40234
65046.0 0.00001537 63291.56641 64028.69922
65163.0 0.00001535 63348.59766 64141.28125
65284.0 0.00001532 63405.63672 64250.55859
65376.0 0.00001530 63462.67188 64344.34375
65365.0 0.00001530 63519.71875 64412.30078
65317.0 0.00001531 63576.75391 64451.93359
65282.0 0.00001532 63633.79688 64468.55078
65254.0 0.00001532 63690.85156 64471.32422
65195.0 0.00001534 63747.89844 64468.37109
65192.0 0.00001534 63804.94922 64467.47266
65180.0 0.00001534 63862.00000 64473.47656
65211.0 0.00001533 63919.05469 64488.77344
65170.0 0.00001534 63976.11719 64514.00781
65127.0 0.00001535 64033.16797 64548.91016
65110.0 0.00001536 64090.23438 64592.75391
65095.0 0.00001536 64147.28906 64644.52344
65039.0 0.00001538 64204.35938 64702.94922
65010.0 0.00001538 64261.42969 64766.12109
64968.0 0.00001539 64318.50000 64832.71875
65011.0 0.00001538 64375.57813 64897.73047
65017.0 0.00001538 64432.64844 64957.02344
65016.0 0.00001538 64489.72656 65011.30469
65012.0 0.00001538 64546.80859 65062.59375
65053.0 0.00001537 64603.89063 65114.32813
65121.0 0.00001536 64660.96875 65169.79297
65216.0 0.00001533 64718.05469 65231.39063
65286.0 0.00001532 64775.13672 65300.58984
65388.0 0.00001529 64832.22656 65378.34375
65492.0 0.00001527 64889.32031 65465.15234
65585.0 0.00001525 64946.41016 65560.82813
65751.0 0.00001521 65003.49609 65664.35938
65923.0 0.00001517 65060.59766 65774.18750
66094.0 0.00001513 65117.68750 65890.67969
66193.0 0.00001511 65174.78516 66020.55469
66240.0 0.00001510 65231.88281 66179.64063
66287.0 0.00001509 65288.97266 66391.57813
66421.0 0.00001506 65346.08203 66685.60156
66678.0 0.00001500 65403.17969 67093.14063
67013.0 0.00001492 65460.27734 67646.75000
67556.0 0.00001480 65517.38281 68370.97656
68410.0 0.00001462 65574.47656 69265.90625
69654.0 0.00001436 65631.59375 70276.22656
71134.0 0.00001406 65688.67969 71248.13281
72158.0 0.00001386 65745.78125 71961.91406
72293.0 0.00001383 65802.89063 72236.17188
71778.0 0.00001393 65859.98438 72043.43750
70921.0 0.00001410 65917.07813 71485.60938
70004.0 0.00001428 65974.17188 70720.74219
69386.0 0.00001441 66031.27344 69909.80469
69056.0 0.00001448 66088.37500 69163.97656
68637.0 0.00001457 66145.45313 68532.54688
68105.0 0.00001468 66202.55469 68028.13281
67616.0 0.00001479 66259.64844 67651.96875
67294.0 0.00001486 66316.73438 67385.22656
67071.0 0.00001491 66373.83594 67214.42188
66937.0 0.00001494 66430.91406 67119.05469
66826.0 0.00001496 66488.00000 67079.01563
66797.0 0.00001497 66545.08594 67077.44531
66769.0 0.00001498 66602.16406 67102.32813
66767.0 0.00001498 66659.22656 67144.89844
66805.0 0.00001497 66716.29688 67200.84375
66826.0 0.00001496 66773.35938 67268.07813
66867.0 0.00001496 66830.42188 67345.90625
66927.0 0.00001494 66887.47656 67434.77344
66967.0 0.00001493 66944.53125 67535.04688
67004.0 0.00001492 67001.57813 67647.77344
67010.0 0.00001492 67058.63281 67773.39063
67051.0 0.00001491 67115.67969 67910.76563
67102.0 0.00001490 67172.70313 68055.82031
67142.0 0.00001489 67229.73438 68199.92188
67221.0 0.00001488 67286.75781 68328.17188
67294.0 0.00001486 67343.76563 68423.75781
67320.0 0.00001485 67400.76563 68474.72656
67371.0 0.00001484 67457.78125 68481.60938
67435.0 0.00001483 67514.77344 68457.00000
67499.0 0.00001482 67571.75000 68418.06250
67561.0 0.00001480 67628.71875 68378.81250
67636.0 0.00001479 67685.69531 68347.69531
67711.0 0.00001477 67742.65625 68328.44531
67823.0 0.00001474 67799.60938 68321.86719
67883.0 0.00001473 67856.55469 68327.28125
67949.0 0.00001472 67913.48438 68343.30469
68035.0 0.00001470 67970.40625 68368.26563
68087.0 0.00001469 68027.32031 68400.46094
68131.0 0.00001468 68084.21094 68438.46094
68196.0 0.00001466 68141.11719 68480.05469
68291.0 0.00001464 68197.97656 68523.89844
68313.0 0.00001464 68254.85156 68568.51563
68354.0 0.00001463 68311.69531 68612.33594
68417.0 0.00001462 68368.53906 68654.48438
68542.0 0.00001459 68425.37500 68695.91406
68620.0 0.00001457 68482.19531 68742.76563
68673.0 0.00001456 68538.98438 68809.29688
68740.0 0.00001455 68595.77344 68916.88281
68846.0 0.00001453 68652.53906 69085.88281
68943.0 0.00001450 68709.28906 69324.68750
69157.0 0.00001446 68766.03125 69624.96094
69383.0 0.00001441 68822.74219 69961.48438
69671.0 0.00001435 68879.44531 70291.36719
70009.0 0.00001428 68936.14844 70558.51563
70219.0 0.00001424 68992.82031 70721.11719
70218.0 0.00001424 69049.46875 70787.11719
70243.0 0.00001424 69106.11719 70807.75781
70356.0 0.00001421 69162.72656 70835.61719
70693.0 0.00001415 69219.32031 70896.00000
71179.0 0.00001405 69275.89844 70980.41406
71617.0 0.00001396 69332.45313 71049.15625
71706.0 0.00001395 69388.99219 71048.48438
71358.0 0.00001401 69445.50000 70950.83594
70925.0 0.00001410 69501.98438 70781.93750
70603.0 0.00001416 69558.45313 70596.06250
70347.0 0.00001422 69614.90625 70435.46094
70219.0 0.00001424 69671.32813 70317.61719
70134.0 0.00001426 69727.72656 70242.60938
70054.0 0.00001427 69784.10156 70203.57813
70008.0 0.00001428 69840.46094 70192.38281
70027.0 0.00001428 69896.78906 70201.66406
70064.0 0.00001427 69953.06250 70225.29688
70081.0 0.00001427 70009.35156 70237.50000
70096.0 0.00001427 70065.58594 70277.46094
70117.0 0.00001426 70121.80469 70321.51563
70155.0 0.00001425 70177.98438 70368.22656
70179.0 0.00001425 70234.14844 70416.82031
70207.0 0.00001424 70290.28125 70466.32813
70259.0 0.00001423 70346.39063 70517.29688
70340.0 0.00001422 70402.45313 70569.19531
70388.0 0.00001421 70458.48438 70620.90625
70454.0 0.00001419 70514.49219 70674.46094
70474.0 0.00001419 70570.46094 70728.78125
70566.0 0.00001417 70626.39844 70783.75781
70654.0 0.00001415 70682.31250 70839.46094
70710.0 0.00001414 70738.17969 70895.76563
70786.0 0.00001413 70794.01563 70953.44531
70850.0 0.00001411 70849.81250 71011.17969
70938.0 0.00001410 70905.58594 71069.96094
71053.0 0.00001407 70961.29688 71129.14844
71187.0 0.00001405 71017.00781 71189.47656
71321.0 0.00001402 71072.65625 71250.50781
71452.0 0.00001400 71128.27344 71312.66406
71629.0 0.00001396 71183.84375 71376.09375
71835.0 0.00001392 71239.37500 71441.04688
72018.0 0.00001389 71294.87500 71507.82031
72174.0 0.00001386 71350.32031 71576.96094
72338.0 0.00001382 71405.72656 71649.03125
72543.0 0.00001378 71461.09375 71725.01563
72711.0 0.00001375 71516.42188 71806.28906
72876.0 0.00001372 71571.70313 71891.47656
73071.0 0.00001369 71626.93750 71990.64063
73238.0 0.00001365 71682.13281 72104.38281
73413.0 0.00001362 71737.27344 72237.94531
73565.0 0.00001359 71792.35938 72397.71875
73763.0 0.00001356 71847.41406 72589.85156
73994.0 0.00001351 71902.41406 72819.27344
74317.0 0.00001346 71957.36719 73086.75781
74722.0 0.00001338 72012.26563 73384.33594
75337.0 0.00001327 72067.11719 73686.69531
76087.0 0.00001314 72121.90625 73943.50000
76556.0 0.00001306 72176.66406 74087.66406
76379.0 0.00001309 72231.35938 74076.89844
75848.0 0.00001318 72286.00000 73925.90625
75311.0 0.00001328 72340.57813 73710.96875
74881.0 0.00001335 72395.13281 73486.25781
74595.0 0.00001341 72449.60156 73287.91406
74371.0 0.00001345 72504.02344 73133.25781
74215.0 0.00001347 72558.38281 73030.25000
74124.0 0.00001349 72612.68750 72983.17188
74108.0 0.00001349 72666.93750 72994.21094
74103.0 0.00001349 72721.12500 73062.59375
74179.0 0.00001348 72775.25000 73183.34375
74297.0 0.00001346 72829.31250 73347.46094
74520.0 0.00001342 72883.32031 73543.06250
74761.0 0.00001338 72937.26563 73756.70313
74838.0 0.00001336 72991.14844 73975.97656
74809.0 0.00001337 73044.96875 74194.25000
74755.0 0.00001338 73098.71094 74414.59375
74730.0 0.00001338 73152.39844 74645.57813
74880.0 0.00001335 73206.00781 74890.73438
75200.0 0.00001330 73259.57031 75137.59375
75503.0 0.00001324 73313.05469 75364.29688
75762.0 0.00001320 73366.46875 75557.55469
76027.0 0.00001315 73419.82031 75725.92969
76483.0 0.00001307 73473.08594 75887.03906
77087.0 0.00001297 73526.28906 76039.01563
77518.0 0.00001290 73579.42969 76151.51563
77431.0 0.00001291 73632.47656 76183.73438
76986.0 0.00001299 73685.46875 76118.08594
76439.0 0.00001308 73738.37500 75977.19531
76013.0 0.00001316 73791.21094 75805.19531
75736.0 0.00001320 73843.96875 75640.49219
75524.0 0.00001324 73896.64844 75502.84375
75455.0 0.00001325 73949.25781 75397.47656
75412.0 0.00001326 74001.78906 75323.82813
75376.0 0.00001327 74054.23438 75282.18750
75399.0 0.00001326 74106.60156 75274.80469
75450.0 0.00001325 74158.88281 75304.17969
75485.0 0.00001325 74211.09375 75373.20313
75484.0 0.00001325 74263.20313 75486.05469
75552.0 0.00001324 74315.25000 75649.39063
75615.0 0.00001322 74367.19531 75872.45313
75714.0 0.00001321 74419.06250 76166.63281
75883.0 0.00001318 74470.84375 76543.52344
76165.0 0.00001313 74522.55469 77011.57813
76527.0 0.00001307 74574.15625 77571.53906
77147.0 0.00001296 74625.67188 78205.69531
78169.0 0.00001279 74677.10938 78864.71875
79708.0 0.00001255 74728.44531 79456.08594
81427.0 0.00001228 74779.67969 79859.92188
82181.0 0.00001217 74830.84375 79993.44531
81415.0 0.00001228 74881.91406 79878.92188
80115.0 0.00001248 74932.88281 79631.98438
79046.0 0.00001265 74983.75781 79385.85156
78469.0 0.00001274 75034.53125 79237.10156
78332.0 0.00001277 75085.23438 79237.29688
78517.0 0.00001274 75135.81250 79404.42188
79013.0 0.00001266 75186.31250 79727.81250
79804.0 0.00001253 75236.70313 80162.70313
80774.0 0.00001238 75286.97656 80616.71094
81367.0 0.00001229 75337.17969 80949.78906
81265.0 0.00001231 75387.26563 81021.34375
80622.0 0.00001240 75437.26563 80777.91406
79911.0 0.00001251 75487.14844 80290.10938
79285.0 0.00001261 75536.92188 79690.84375
78827.0 0.00001269 75586.59375 79094.16406
78474.0 0.00001274 75636.18750 78565.04688
78235.0 0.00001278 75685.64844 78129.22656
78063.0 0.00001281 75735.00000 77789.95313
77938.0 0.00001283 75784.25781 77539.46875
77870.0 0.00001284 75833.39063 77364.96875
77808.0 0.00001285 75882.42969 77251.80469
77773.0 0.00001286 75931.35938 77184.56250
77686.0 0.00001287 75980.17188 77147.74219
77593.0 0.00001289 76028.86719 77126.57813
77539.0 0.00001290 76077.45313 77109.00781
77478.0 0.00001291 76125.92188 77088.07031
77475.0 0.00001291 76174.29688 77062.80469
77491.0 0.00001290 76222.53906 77036.46094
77520.0 0.00001290 76270.66406 77013.50000
77504.0 0.00001290 76318.67969 76997.53125
77524.0 0.00001290 76366.57031 76990.54688
77537.0 0.00001290 76414.34375 76994.86719
77562.0 0.00001289 76462.00000 77008.55469
77545.0 0.00001290 76509.54688 77033.16406
77554.0 0.00001289 76556.95313 77069.09375
77581.0 0.00001289 76604.25781 77116.91406
77634.0 0.00001288 76651.42188 77176.96875
77650.0 0.00001288 76698.48438 77249.31250
77686.0 0.00001287 76745.40625 77332.96094
77687.0 0.00001287 76792.20313 77424.85156
77668.0 0.00001288 76838.88281 77518.03906
77690.0 0.00001287 76885.42969 77601.27344
77721.0 0.00001287 76931.85156 77662.35156
77746.0 0.00001286 76978.14844 77696.09375
77762.0 0.00001286 77024.32031 77708.98438
77782.0 0.00001286 77070.34375 77713.72656
77824.0 0.00001285 77116.25000 77721.37500
77892.0 0.00001284 77162.03906 77737.69531
77943.0 0.00001283 77207.67969 77763.00781
78007.0 0.00001282 77253.18750 77793.66406
78057.0 0.00001281 77298.57031 77823.78125
78092.0 0.00001281 77343.82031 77848.49219
78141.0 0.00001280 77388.92969 77866.17969
78190.0 0.00001279 77433.91406 77878.82813
78210.0 0.00001279 77478.75000 77890.38281
78240.0 0.00001278 77523.45313 77903.50781
78283.0 0.00001277 77568.01563 77920.75781
78331.0 0.00001277 77612.44531 77943.10938
78361.0 0.00001276 77656.74219 77971.14063
78389.0 0.00001276 77700.89063 78004.68750
78418.0 0.00001275 77744.90625 78043.87500
78440.0 0.00001275 77788.77344 78087.35938
78428.0 0.00001275 77832.51563 78134.75000
78420.0 0.00001275 77876.09375 78184.42969
78422.0 0.00001275 77919.55469 78234.82813
78442.0 0.00001275 77962.85156 78284.76563
78441.0 0.00001275 78006.00000 78334.81250
78422.0 0.00001275 78049.01563 78386.65625
78427.0 0.00001275 78091.89844 78442.21094
78453.0 0.00001275 78134.62500 78502.33594
78460.0 0.00001275 78177.20313 78566.63281
78459.0 0.00001275 78219.64063 78634.02344
78495.0 0.00001274 78261.92188 78702.70313
78498.0 0.00001274 78304.06250 78771.28906
78486.0 0.00001274 78346.05469 78840.64844
78500.0 0.00001274 78387.89844 78909.73438
78538.0 0.00001273 78429.58594 78976.83594
78563.0 0.00001273 78471.13281 79038.88281
78603.0 0.00001272 78512.52344 79092.85156
78646.0 0.00001272 78553.75781 79136.73438
78703.0 0.00001271 78594.85156 79171.55469
78721.0 0.00001270 78635.78906 79198.22656
78728.0 0.00001270 78676.58594 79222.90625
78736.0 0.00001270 78717.22656 79248.17969
78758.0 0.00001270 78757.68750 79275.07031
78791.0 0.00001269 78798.02344 79304.91406
78816.0 0.00001269 78838.19531 79336.50000
78830.0 0.00001269 78878.21094 79367.74219
78872.0 0.00001268 78918.07813 79395.74219
78934.0 0.00001267 78957.78125 79418.27344
78961.0 0.00001266 78997.33594 79434.70313
78979.0 0.00001266 79036.74219 79446.34375
79001.0 0.00001266 79075.97656 79454.46094
79077.0 0.00001265 79115.06250 79461.79688
79128.0 0.00001264 79153.98438 79470.18750
79168.0 0.00001263 79192.75781 79480.66406
79236.0 0.00001262 79231.37500 79493.65625
79313.0 0.00001261 79269.82031 79509.40625
79356.0 0.00001260 79308.11719 79527.12500
79378.0 0.00001260 79346.25000 79546.67969
79403.0 0.00001259 79384.22656 79567.58594
79457.0 0.00001259 79422.04688 79589.55469
79551.0 0.00001257 79459.71875 79612.37500
79664.0 0.00001255 79497.20313 79635.94531
79742.0 0.00001254 79534.54688 79660.74219
79836.0 0.00001253 79571.72656 79687.43750
79938.0 0.00001251 79608.75781 79717.57031
80033.0 0.00001249 79645.60156 79753.65625
80133.0 0.00001248 79682.31250 79799.55469
80225.0 0.00001246 79718.84375 79859.89063
80306.0 0.00001245 79755.22656 79938.86719
80430.0 0.00001243 79791.44531 80038.52344
80494.0 0.00001242 79827.50781 80158.75000
80574.0 0.00001241 79863.40625 80297.39844
80640.0 0.00001240 79899.13281 80453.00781
80676.0 0.00001240 79934.71875 80622.53125
80736.0 0.00001239 79970.12500 80800.75000
80767.0 0.00001238 80005.37500 80977.27344
80792.0 0.00001238 80040.46875 81139.36719
80802.0 0.00001238 80075.40625 81272.39844
80805.0 0.00001238 80110.17969 81365.34375
80825.0 0.00001237 80144.78906 81413.35938
80851.0 0.00001237 80179.24219 81420.76563
80849.0 0.00001237 80213.53125 81396.46094
80830.0 0.00001237 80247.64844 81350.73438
80833.0 0.00001237 80281.62500 81293.85938
80855.0 0.00001237 80315.43750 81235.34375
80845.0 0.00001237 80349.09375 81183.47656
80876.0 0.00001236 80382.57813 81144.89063
80884.0 0.00001236 80415.91406 81124.03125
80939.0 0.00001235 80449.08594 81123.22656
81017.0 0.00001234 80482.09375 81143.40625
81156.0 0.00001232 80514.94531 81183.89844
81377.0 0.00001229 80547.64063 81242.32813
81705.0 0.00001224 80580.18750 81312.48438
82087.0 0.00001218 80612.57031 81384.31250
82312.0 0.00001215 80644.79688 81443.66406
82266.0 0.00001216 80676.84375 81476.89844
82057.0 0.00001219 80708.76563 81481.36719
81809.0 0.00001222 80740.52344 81465.84375
81603.0 0.00001225 80772.11719 81442.97656
81444.0 0.00001228 80803.56250 81421.86719
81345.0 0.00001229 80834.85938 81405.39063
81272.0 0.00001230 80865.99219 81392.67188
81270.0 0.00001230 80896.96875 81381.91406
81240.0 0.00001231 80927.81250 81372.49219
81236.0 0.00001231 80958.49219 81366.58594
81223.0 0.00001231 80989.00781 81366.60938
81207.0 0.00001231 81019.39063 81374.33594
81213.0 0.00001231 81049.61719 81390.68750
81253.0 0.00001231 81079.70313 81415.85938
81268.0 0.00001230 81109.62500 81449.96094
81314.0 0.00001230 81139.39844 81492.78125
81394.0 0.00001229 81169.02344 81544.07031
81507.0 0.00001227 81198.52344 81602.82031
81646.0 0.00001225 81227.85938 81666.65625
81739.0 0.00001223 81257.05469 81732.80469
81794.0 0.00001223 81286.10938 81798.05469
81769.0 0.00001223 81315.02344 81860.54688
81785.0 0.00001223 81343.78906 81919.91406
81789.0 0.00001223 81372.40625 81976.08594
81831.0 0.00001222 81400.90625 82026.96875
81871.0 0.00001221 81429.25000 82067.18750
81893.0 0.00001221 81457.46094 82089.50000
81901.0 0.00001221 81485.53125 82088.74219
81939.0 0.00001220 81513.46875 82065.07813
81953.0 0.00001220 81541.26563 82024.57813
82039.0 0.00001219 81568.92969 81976.48438
82102.0 0.00001218 81596.47656 81929.84375
82142.0 0.00001217 81623.87500 81891.50000
82178.0 0.00001217 81651.15625 81865.42188
82198.0 0.00001217 81678.28906 81852.54688
82234.0 0.00001216 81705.33594 81851.68750
82287.0 0.00001215 81732.21875 81860.28125
82310.0 0.00001215 81758.99219 81875.78906
82343.0 0.00001214 81785.64063 81895.98438
82385.0 0.00001214 81812.17188 81919.18750
82404.0 0.00001214 81838.57031 81944.39063
82433.0 0.00001213 81864.85938 81970.85156
82496.0 . . .
82533.0 . . .
82542.0 . . .
82554.0 . . .
82600.0 . . .
82671.0 . . .
82764.0 . . .
82787.0 . . .
82805.0 . . .
82854.0 . . .
82939.0 . . .
83002.0 . . .
83067.0 . . .
83072.0 . . .
83086.0 . . .
83189.0 . . .
83276.0 . . .
83317.0 . . .
83329.0 . . .
83328.0 . . .
83341.0 . . .
83435.0 . . .
83522.0 . . .
83591.0 . . .
83613.0 . . .
83605.0 . . .
83625.0 . . .
83632.0 . . .
83669.0 . . .
83725.0 . . .
83806.0 . . .
83872.0 . . .
83901.0 . . .
83972.0 . . .
84046.0 . . .
84109.0 . . .
84200.0 . . .
84305.0 . . .
84378.0 . . .
84470.0 . . .
84538.0 . . .
84647.0 . . .
84778.0 . . .
84911.0 . . .
85026.0 . . .
85131.0 . . .
85250.0 . . .
85324.0 . . .
85369.0 . . .
85474.0 . . .
85581.0 . . .
85657.0 . . .
85729.0 . . .
85823.0 . . .
85894.0 . . .
85917.0 . . .
85934.0 . . .
85927.0 . . .
85886.0 . . .
85868.0 . . .
85845.0 . . .
85851.0 . . .
85846.0 . . .
85802.0 . . .
85770.0 . . .
85802.0 . . .
85868.0 . . .
85909.0 . . .
85919.0 . . .
85927.0 . . .
85950.0 . . .
86020.0 . . .
86116.0 . . .
86184.0 . . .
86275.0 . . .
86426.0 . . .
86571.0 . . .
86714.0 . . .
86802.0 . . .
86789.0 . . .
86710.0 . . .
86661.0 . . .
86598.0 . . .
86540.0 . . .
86531.0 . . .
86513.0 . . .
86515.0 . . .
86508.0 . . .
86519.0 . . .
86534.0 . . .
86561.0 . . .
86583.0 . . .
86596.0 . . .
86619.0 . . .
86620.0 . . .
86642.0 . . .
86691.0 . . .
86722.0 . . .
86727.0 . . .
86752.0 . . .
86745.0 . . .
86783.0 . . .
86820.0 . . .
86853.0 . . .
86917.0 . . .
86952.0 . . .
86914.0 . . .
86923.0 . . .
87014.0 . . .
87053.0 . . .
87103.0 . . .
87134.0 . . .
87198.0 . . .
87246.0 . . .
87352.0 . . .
87449.0 . . .
87570.0 . . .
87697.0 . . .
87815.0 . . .
87878.0 . . .
87895.0 . . .
87858.0 . . .
87861.0 . . .
87876.0 . . .
87922.0 . . .
87974.0 . . .
88002.0 . . .
88050.0 . . .
88105.0 . . .
88195.0 . . .
88237.0 . . .
88289.0 . . .
88345.0 . . .
88396.0 . . .
88473.0 . . .
88530.0 . . .
88589.0 . . .
88600.0 . . .
88637.0 . . .
88655.0 . . .
88659.0 . . .
88672.0 . . .
88704.0 . . .
88739.0 . . .
88784.0 . . .
88830.0 . . .
88868.0 . . .
88923.0 . . .
88976.0 . . .
89060.0 . . .
89161.0 . . .
89234.0 . . .
89237.0 . . .
89242.0 . . .
89223.0 . . .
89219.0 . . .
89231.0 . . .
89296.0 . . .
89420.0 . . .
89519.0 . . .
89577.0 . . .
89538.0 . . .
89487.0 . . .
89413.0 . . .
89360.0 . . .
89347.0 . . .
89327.0 . . .
89336.0 . . .
89312.0 . . .
89349.0 . . .
89428.0 . . .
89468.0 . . .
89479.0 . . .
89507.0 . . .
89551.0 . . .
89595.0 . . .
89659.0 . . .
89726.0 . . .
89799.0 . . .
89853.0 . . .
89887.0 . . .
89942.0 . . .
89984.0 . . .
90090.0 . . .
90152.0 . . .
90224.0 . . .
90308.0 . . .
90431.0 . . .
90543.0 . . .
90641.0 . . .
90729.0 . . .
90857.0 . . .
91024.0 . . .
91178.0 . . .
91351.0 . . .
91518.0 . . .
91701.0 . . .
91809.0 . . .
91885.0 . . .
91925.0 . . .
91959.0 . . .
91995.0 . . .
92003.0 . . .
92004.0 . . .
92030.0 . . .
92056.0 . . .
92085.0 . . .
92118.0 . . .
92159.0 . . .
92169.0 . . .
92171.0 . . .
92178.0 . . .
92177.0 . . .
92185.0 . . .
92192.0 . . .
92126.0 . . .
92146.0 . . .
92157.0 . . .
92163.0 . . .
92220.0 . . .
92218.0 . . .
92251.0 . . .
92303.0 . . .
92363.0 . . .
92429.0 . . .
92524.0 . . .
92606.0 . . .
92670.0 . . .
92697.0 . . .
92677.0 . . .
92636.0 . . .
92571.0 . . .
92531.0 . . .
92499.0 . . .
92539.0 . . .
92554.0 . . .
92545.0 . . .
92542.0 . . .
92543.0 . . .
92576.0 . . .
92576.0 . . .
92591.0 . . .
92637.0 . . .
92666.0 . . .
92695.0 . . .
92729.0 . . .
92787.0 . . .
92798.0 . . .
92799.0 . . .
92795.0 . . .
92832.0 . . .
92846.0 . . .
92870.0 . . .
92913.0 . . .
92956.0 . . .
92964.0 . . .
92981.0 . . .
93024.0 . . .
93068.0 . . .
93067.0 . . .
93073.0 . . .
93092.0 . . .
93128.0 . . .
93166.0 . . .
93209.0 . . .
93238.0 . . .
93293.0 . . .
93372.0 . . .
93435.0 . . .
93505.0 . . .
93524.0 . . .
93580.0 . . .
93674.0 . . .
93774.0 . . .
93848.0 . . .
93938.0 . . .
93991.0 . . .
94060.0 . . .
94155.0 . . .
94272.0 . . .
94424.0 . . .
94513.0 . . .
94584.0 . . .
94664.0 . . .
94765.0 . . .
94795.0 . . .
94790.0 . . .
94790.0 . . .
94756.0 . . .
94712.0 . . .
94714.0 . . .
94775.0 . . .
94799.0 . . .
94830.0 . . .
94852.0 . . .
94875.0 . . .
94865.0 . . .
94837.0 . . .
94820.0 . . .
94823.0 . . .
94833.0 . . .
94802.0 . . .
94770.0 . . .
94741.0 . . .
94775.0 . . .
94798.0 . . .
94785.0 . . .
94760.0 . . .
94788.0 . . .
94789.0 . . .
94803.0 . . .
94870.0 . . .
94921.0 . . .
94950.0 . . .
95044.0 . . .
95137.0 . . .
95194.0 . . .
95269.0 . . .
95324.0 . . .
95378.0 . . .
95401.0 . . .
95416.0 . . .
95479.0 . . .
95505.0 . . .
95517.0 . . .
95553.0 . . .
95601.0 . . .
95599.0 . . .
95631.0 . . .
95579.0 . . .
95508.0 . . .
95460.0 . . .
95434.0 . . .
95415.0 . . .
95425.0 . . .
95427.0 . . .
95463.0 . . .
95525.0 . . .
95583.0 . . .
95632.0 . . .
95717.0 . . .
95859.0 . . .
96000.0 . . .
96074.0 . . .
96104.0 . . .
96070.0 . . .
96025.0 . . .
96006.0 . . .
95967.0 . . .
95970.0 . . .
95974.0 . . .
95997.0 . . .
96003.0 . . .
96008.0 . . .
96021.0 . . .
96025.0 . . .
96053.0 . . .
96012.0 . . .
96011.0 . . .
96023.0 . . .
96023.0 . . .
96033.0 . . .
96045.0 . . .
96101.0 . . .
96147.0 . . .
96204.0 . . .
96227.0 . . .
96233.0 . . .
96235.0 . . .
96257.0 . . .
96255.0 . . .
96283.0 . . .
96281.0 . . .
96322.0 . . .
96361.0 . . .
96426.0 . . .
96479.0 . . .
96551.0 . . .
96599.0 . . .
96638.0 . . .
96672.0 . . .
96652.0 . . .
96618.0 . . .
96639.0 . . .
96662.0 . . .
96674.0 . . .
96734.0 . . .
96789.0 . . .
96833.0 . . .
96915.0 . . .
97028.0 . . .
97133.0 . . .
97244.0 . . .
97284.0 . . .
97220.0 . . .
97135.0 . . .
97074.0 . . .
97064.0 . . .
97023.0 . . .
97012.0 . . .
97068.0 . . .
97186.0 . . .
97285.0 . . .
97350.0 . . .
97411.0 . . .
97418.0 . . .
97407.0 . . .
97409.0 . . .
97418.0 . . .
97404.0 . . .
97423.0 . . .
97448.0 . . .
97491.0 . . .
97516.0 . . .
97554.0 . . .
97589.0 . . .
97618.0 . . .
97632.0 . . .
97642.0 . . .
97678.0 . . .
97673.0 . . .
97709.0 . . .
97751.0 . . .
97761.0 . . .
97800.0 . . .
97856.0 . . .
97871.0 . . .
97877.0 . . .
97910.0 . . .
97976.0 . . .
98005.0 . . .
98037.0 . . .
98042.0 . . .
98042.0 . . .
98088.0 . . .
98142.0 . . .
98190.0 . . .
98254.0 . . .
98286.0 . . .
98325.0 . . .
98336.0 . . .
98323.0 . . .
98377.0 . . .
98467.0 . . .
98554.0 . . .
98629.0 . . .
98632.0 . . .
98595.0 . . .
98549.0 . . .
98479.0 . . .
98426.0 . . .
98373.0 . . .
98369.0 . . .
98391.0 . . .
98400.0 . . .
98429.0 . . .
98425.0 . . .
98440.0 . . .
98416.0 . . .
98370.0 . . .
98362.0 . . .
98379.0 . . .
98406.0 . . .
98426.0 . . .
98444.0 . . .
98456.0 . . .
98483.0 . . .
98498.0 . . .
98527.0 . . .
98563.0 . . .
98610.0 . . .
98633.0 . . .
98614.0 . . .
98647.0 . . .
98695.0 . . .
98737.0 . . .
98740.0 . . .
98749.0 . . .
98744.0 . . .
98776.0 . . .
98797.0 . . .
98844.0 . . .
98870.0 . . .
98876.0 . . .
98921.0 . . .
98954.0 . . .
99002.0 . . .
98992.0 . . .
99016.0 . . .
99029.0 . . .
99098.0 . . .
99180.0 . . .
99236.0 . . .
99308.0 . . .
99410.0 . . .
99504.0 . . .
99649.0 . . .
99841.0 . . .
100006.0 . . .
100040.0 . . .
99969.0 . . .
99850.0 . . .
99784.0 . . .
99702.0 . . .
99648.0 . . .
99620.0 . . .
99596.0 . . .
99563.0 . . .
99569.0 . . .
99598.0 . . .
99585.0 . . .
99573.0 . . .
99590.0 . . .
99583.0 . . .
99621.0 . . .
99681.0 . . .
99711.0 . . .
99739.0 . . .
99776.0 . . .
99798.0 . . .
99826.0 . . .
99861.0 . . .
99877.0 . . .
99901.0 . . .
99961.0 . . .
99948.0 . . .
99954.0 . . .
99993.0 . . .
100041.0 . . .
100055.0 . . .
100120.0 . . .
100172.0 . . .
100181.0 . . .
100152.0 . . .
100191.0 . . .
100228.0 . . .
100241.0 . . .
100217.0 . . .
100233.0 . . .
100300.0 . . .
100345.0 . . .
100366.0 . . .
100381.0 . . .
100418.0 . . .
100456.0 . . .
100480.0 . . .
100519.0 . . .
100556.0 . . .
100562.0 . . .
100604.0 . . .
100595.0 . . .
100605.0 . . .
100613.0 . . .
100660.0 . . .
100626.0 . . .
100615.0 . . .
100625.0 . . .
100638.0 . . .
100663.0 . . .
100649.0 . . .
100637.0 . . .
100649.0 . . .
100645.0 . . .
100635.0 . . .
100634.0 . . .
100655.0 . . .
100688.0 . . .
100677.0 . . .
100704.0 . . .
100679.0 . . .
100678.0 . . .
100683.0 . . .
100720.0 . . .
100761.0 . . .
100773.0 . . .
100775.0 . . .
100779.0 . . .
100771.0 . . .
100817.0 . . .
100830.0 . . .
100876.0 . . .
100857.0 . . .
100869.0 . . .
100906.0 . . .
100898.0 . . .
100903.0 . . .
100890.0 . . .
100898.0 . . .
100928.0 . . .
100944.0 . . .
100989.0 . . .
101040.0 . . .
101081.0 . . .
101116.0 . . .
101167.0 . . .
101218.0 . . .
101258.0 . . .
101282.0 . . .
101255.0 . . .
101227.0 . . .
101253.0 . . .
101233.0 . . .
101233.0 . . .
101263.0 . . .
101286.0 . . .
101311.0 . . .
101300.0 . . .
101318.0 . . .
101311.0 . . .
101348.0 . . .
101364.0 . . .
101388.0 . . .
101449.0 . . .
101530.0 . . .
101584.0 . . .
101641.0 . . .
101685.0 . . .
101729.0 . . .
101758.0 . . .
101739.0 . . .
101742.0 . . .
101795.0 . . .
101860.0 . . .
101918.0 . . .
101986.0 . . .
102086.0 . . .
102184.0 . . .
102293.0 . . .
102413.0 . . .
102464.0 . . .
102462.0 . . .
102361.0 . . .
102295.0 . . .
102230.0 . . .
102128.0 . . .
102072.0 . . .
102042.0 . . .
102007.0 . . .
101968.0 . . .
101927.0 . . .
101925.0 . . .
101911.0 . . .
101904.0 . . .
101846.0 . . .
101766.0 . . .
101693.0 . . .
101653.0 . . .
101573.0 . . .
101570.0 . . .
101562.0 . . .
101547.0 . . .
101526.0 . . .
101472.0 . . .
101445.0 . . .
101418.0 . . .
101408.0 . . .
101386.0 . . .
101363.0 . . .
101332.0 . . .
101349.0 . . .
101320.0 . . .
101293.0 . . .
101248.0 . . .
101223.0 . . .
101215.0 . . .
101209.0 . . .
101186.0 . . .
101201.0 . . .
101193.0 . . .
101166.0 . . .
101152.0 . . .
101169.0 . . .
101163.0 . . .
101153.0 . . .
101171.0 . . .
101217.0 . . .
101265.0 . . .
101293.0 . . .
101335.0 . . .
101375.0 . . .
101445.0 . . .
101518.0 . . .
101592.0 . . .
101680.0 . . .
101761.0 . . .
101766.0 . . .
101704.0 . . .
101634.0 . . .
101538.0 . . .
101436.0 . . .
101366.0 . . .
101295.0 . . .
101205.0 . . .
101130.0 . . .
100985.0 . . .
100836.0 . . .
100698.0 . . .
100500.0 . . .
100254.0 . . .
100030.0 . . .
99812.0 . . .
99514.0 . . .
99226.0 . . .
98877.0 . . .
98668.0 . . .
99283.0 . . .
99546.0 . . .
99737.0 . . .
99859.0 . . .
99947.0 . . .
99981.0 . . .
100015.0 . . .
100057.0 . . .
100077.0 . . .
100081.0 . . .
100087.0 . . .
100065.0 . . .
100041.0 . . .
100029.0 . . .
100037.0 . . .
100030.0 . . .
100036.0 . . .
100042.0 . . .
100078.0 . . .
100025.0 . . .
100038.0 . . .
100060.0 . . .
100054.0 . . .
100059.0 . . .
100064.0 . . .
100060.0 . . .
100034.0 . . .
100031.0 . . .
100010.0 . . .
100016.0 . . .
100005.0 . . .
100040.0 . . .
100073.0 . . .
100094.0 . . .
100121.0 . . .
100160.0 . . .
100151.0 . . .
100126.0 . . .
100118.0 . . .
100120.0 . . .
100146.0 . . .
100118.0 . . .
100106.0 . . .
100080.0 . . .
100073.0 . . .
100065.0 . . .
100069.0 . . .
100071.0 . . .
100066.0 . . .
100052.0 . . .
100069.0 . . .
100118.0 . . .
100102.0 . . .
100104.0 . . .
100128.0 . . .
100127.0 . . .
100132.0 . . .
100138.0 . . .
100113.0 . . .
100054.0 . . .
100010.0 . . .
99999.0 . . .
100013.0 . . .
100018.0 . . .
99982.0 . . .
99927.0 . . .
99921.0 . . .
99920.0 . . .
99979.0 . . .
99930.0 . . .
99928.0 . . .
99935.0 . . .
99924.0 . . .
99893.0 . . .
99870.0 . . .
99855.0 . . .
99842.0 . . .
99821.0 . . .
99796.0 . . .
99750.0 . . .
99788.0 . . .
99819.0 . . .
99787.0 . . .
99735.0 . . .
99741.0 . . .
99730.0 . . .
99718.0 . . .
99739.0 . . .
99762.0 . . .
99716.0 . . .
99677.0 . . .
99694.0 . . .
99688.0 . . .
99624.0 . . .
99604.0 . . .
99553.0 . . .
99570.0 . . .
99518.0 . . .
99499.0 . . .
99506.0 . . .
99465.0 . . .
99436.0 . . .
99434.0 . . .
99454.0 . . .
99455.0 . . .
99448.0 . . .
99453.0 . . .
99420.0 . . .
99373.0 . . .
99332.0 . . .
99322.0 . . .
99324.0 . . .
99325.0 . . .
99279.0 . . .
99240.0 . . .
99230.0 . . .
99254.0 . . .
99244.0 . . .
99244.0 . . .
99217.0 . . .
99215.0 . . .
99213.0 . . .
99275.0 . . .
99294.0 . . .
99261.0 . . .
99217.0 . . .
99200.0 . . .
99228.0 . . .
99274.0 . . .
99276.0 . . .
99263.0 . . .
99271.0 . . .
99320.0 . . .
99324.0 . . .
99298.0 . . .
99302.0 . . .
99288.0 . . .
99279.0 . . .
99244.0 . . .
99222.0 . . .
99224.0 . . .
99192.0 . . .
99184.0 . . .
99198.0 . . .
99168.0 . . .
99133.0 . . .
99128.0 . . .
99120.0 . . .
99110.0 . . .
99141.0 . . .
99176.0 . . .
99203.0 . . .
99220.0 . . .
99234.0 . . .
99226.0 . . .
99188.0 . . .
99102.0 . . .
99059.0 . . .
99053.0 . . .
99013.0 . . .
98987.0 . . .
98949.0 . . .
98921.0 . . .
98941.0 . . .
98884.0 . . .
98893.0 . . .
98873.0 . . .
98834.0 . . .
98796.0 . . .
98793.0 . . .
98820.0 . . .
98865.0 . . .
98854.0 . . .
98844.0 . . .
98802.0 . . .
98777.0 . . .
98768.0 . . .
98740.0 . . .
98703.0 . . .
98704.0 . . .
98742.0 . . .
98741.0 . . .
98715.0 . . .
98720.0 . . .
98710.0 . . .
98704.0 . . .
98679.0 . . .
98682.0 . . .
98630.0 . . .
98609.0 . . .
98596.0 . . .
98610.0 . . .
98593.0 . . .
98557.0 . . .
98507.0 . . .
98502.0 . . .
98508.0 . . .
98517.0 . . .
98539.0 . . .
98521.0 . . .
98499.0 . . .
98482.0 . . .
98457.0 . . .
98405.0 . . .
98375.0 . . .
98363.0 . . .
98398.0 . . .
98378.0 . . .
98414.0 . . .
98379.0 . . .
98370.0 . . .
98354.0 . . .
98296.0 . . .
98272.0 . . .
98300.0 . . .
98333.0 . . .
98328.0 . . .
98285.0 . . .
98246.0 . . .
98240.0 . . .
98229.0 . . .
98253.0 . . .
98266.0 . . .
98260.0 . . .
98247.0 . . .
98267.0 . . .
98261.0 . . .
98229.0 . . .
98205.0 . . .
98184.0 . . .
98173.0 . . .
98163.0 . . .
98189.0 . . .
98208.0 . . .
98219.0 . . .
98264.0 . . .
98257.0 . . .
98292.0 . . .
98302.0 . . .
98359.0 . . .
98414.0 . . .
98444.0 . . .
98447.0 . . .
98446.0 . . .
98493.0 . . .
98483.0 . . .
98479.0 . . .
98483.0 . . .
98512.0 . . .
98546.0 . . .
98559.0 . . .
98578.0 . . .
98584.0 . . .
98676.0 . . .
98704.0 . . .
98719.0 . . .
98720.0 . . .
98753.0 . . .
98809.0 . . .
98835.0 . . .
98780.0 . . .
98733.0 . . .
98766.0 . . .
98794.0 . . .
98797.0 . . .
98755.0 . . .
98726.0 . . .
98716.0 . . .
98751.0 . . .
98765.0 . . .
98712.0 . . .
98689.0 . . .
98734.0 . . .
98759.0 . . .
98724.0 . . .
98699.0 . . .
98725.0 . . .
98697.0 . . .
98629.0 . . .
98622.0 . . .
98627.0 . . .
98633.0 . . .
98626.0 . . .
98655.0 . . .
98669.0 . . .
98627.0 . . .
98601.0 . . .
98594.0 . . .
98596.0 . . .
98599.0 . . .
98582.0 . . .
98546.0 . . .
98594.0 . . .
98602.0 . . .
98621.0 . . .
98575.0 . . .
98504.0 . . .
98542.0 . . .
98555.0 . . .
98531.0 . . .
98489.0 . . .
98472.0 . . .
98406.0 . . .
98373.0 . . .
98378.0 . . .
98363.0 . . .
98351.0 . . .
98373.0 . . .
98385.0 . . .
98385.0 . . .
98364.0 . . .
98333.0 . . .
98337.0 . . .
98361.0 . . .
98351.0 . . .
98331.0 . . .
98324.0 . . .
98289.0 . . .
98233.0 . . .
98283.0 . . .
98310.0 . . .
98308.0 . . .
98295.0 . . .
98295.0 . . .
98250.0 . . .
98235.0 . . .
98215.0 . . .
98197.0 . . .
98170.0 . . .
98150.0 . . .
98156.0 . . .
98163.0 . . .
98174.0 . . .
98102.0 . . .
98088.0 . . .
98026.0 . . .
98052.0 . . .
98036.0 . . .
97968.0 . . .
97931.0 . . .
97904.0 . . .
97934.0 . . .
97940.0 . . .
97918.0 . . .
97910.0 . . .
97941.0 . . .
97931.0 . . .
97881.0 . . .
97918.0 . . .
97885.0 . . .
97821.0 . . .
97760.0 . . .
97756.0 . . .
97813.0 . . .
97805.0 . . .
97759.0 . . .
97716.0 . . .
97656.0 . . .
97621.0 . . .
97619.0 . . .
97645.0 . . .
97638.0 . . .
97665.0 . . .
97655.0 . . .
97622.0 . . .
97591.0 . . .
97545.0 . . .
97600.0 . . .
97656.0 . . .
97625.0 . . .
97606.0 . . .
97591.0 . . .
97619.0 . . .
97607.0 . . .
97591.0 . . .
97588.0 . . .
97634.0 . . .
97618.0 . . .
97586.0 . . .
97560.0 . . .
97557.0 . . .
97554.0 . . .
97566.0 . . .
97542.0 . . .
97606.0 . . .
97585.0 . . .
97592.0 . . .
97547.0 . . .
97527.0 . . .
97588.0 . . .
97528.0 . . .
97466.0 . . .
97473.0 . . .
97447.0 . . .
97429.0 . . .
97372.0 . . .
97308.0 . . .
97286.0 . . .
97344.0 . . .
97338.0 . . .
97382.0 . . .
97394.0 . . .
97359.0 . . .
97311.0 . . .
97322.0 . . .
97304.0 . . .
97261.0 . . .
97220.0 . . .
97133.0 . . .
97144.0 . . .
97056.0 . . .
97058.0 . . .
97041.0 . . .
96998.0 . . .
97015.0 . . .
96976.0 . . .
96991.0 . . .
96967.0 . . .
96953.0 . . .
96893.0 . . .
96819.0 . . .
96806.0 . . .
96765.0 . . .
96728.0 . . .
96671.0 . . .
96628.0 . . .
96604.0 . . .
96587.0 . . .
96548.0 . . .
96587.0 . . .
96564.0 . . .
96537.0 . . .
96563.0 . . .
96527.0 . . .
96489.0 . . .
96468.0 . . .
96450.0 . . .
96382.0 . . .
96393.0 . . .
96418.0 . . .
96357.0 . . .
96322.0 . . .
96259.0 . . .
96274.0 . . .
96268.0 . . .
96279.0 . . .
96303.0 . . .
96322.0 . . .
96286.0 . . .
96199.0 . . .
96210.0 . . .
96222.0 . . .
96263.0 . . .
96199.0 . . .
96210.0 . . .
96255.0 . . .
96246.0 . . .
96271.0 . . .
96254.0 . . .
96203.0 . . .
96160.0 . . .
96111.0 . . .
96056.0 . . .
96103.0 . . .
96075.0 . . .
96032.0 . . .
95998.0 . . .
95999.0 . . .
95926.0 . . .
95852.0 . . .
95822.0 . . .
95796.0 . . .
95870.0 . . .
95903.0 . . .
95864.0 . . .
95855.0 . . .
95783.0 . . .
95741.0 . . .
95742.0 . . .
95781.0 . . .
95804.0 . . .
95807.0 . . .
95759.0 . . .
95803.0 . . .
95801.0 . . .
95762.0 . . .
95746.0 . . .
95772.0 . . .
95887.0 . . .
95959.0 . . .
95948.0 . . .
95834.0 . . .
95763.0 . . .
95777.0 . . .
95734.0 . . .
95636.0 . . .
95646.0 . . .
95697.0 . . .
95714.0 . . .
95716.0 . . .
95730.0 . . .
95684.0 . . .
95648.0 . . .
95633.0 . . .
95681.0 . . .
95674.0 . . .
95633.0 . . .
95656.0 . . .
95646.0 . . .
95585.0 . . .
95608.0 . . .
95565.0 . . .
95493.0 . . .
95474.0 . . .
95459.0 . . .
95472.0 . . .
95518.0 . . .
95570.0 . . .
95513.0 . . .
95454.0 . . .
95449.0 . . .
95466.0 . . .
95485.0 . . .
95425.0 . . .
95388.0 . . .
95420.0 . . .
95453.0 . . .
95370.0 . . .
95325.0 . . .
95352.0 . . .
95295.0 . . .
95329.0 . . .
95249.0 . . .
95208.0 . . .
95200.0 . . .
95251.0 . . .
95224.0 . . .
95267.0 . . .
95209.0 . . .
95116.0 . . .
95116.0 . . .
95049.0 . . .
95024.0 . . .
95083.0 . . .
95030.0 . . .
94994.0 . . .
94950.0 . . .
94972.0 . . .
95048.0 . . .
95008.0 . . .
94993.0 . . .
94979.0 . . .
94935.0 . . .
94940.0 . . .
94988.0 . . .
94880.0 . . .
94801.0 . . .
94764.0 . . .
94745.0 . . .
94697.0 . . .
94719.0 . . .
94754.0 . . .
94719.0 . . .
94757.0 . . .
94782.0 . . .
94771.0 . . .
94718.0 . . .
94717.0 . . .
94661.0 . . .
94531.0 . . .
94424.0 . . .
94410.0 . . .
94497.0 . . .
94420.0 . . .
94395.0 . . .
94400.0 . . .
94429.0 . . .
94455.0 . . .
94439.0 . . .
94378.0 . . .
94340.0 . . .
94338.0 . . .
94298.0 . . .
94268.0 . . .
94318.0 . . .
94316.0 . . .
94223.0 . . .
94212.0 . . .
94256.0 . . .
94196.0 . . .
94247.0 . . .
94271.0 . . .
94300.0 . . .
94244.0 . . .
94171.0 . . .
94105.0 . . .
94136.0 . . .
94032.0 . . .
93953.0 . . .
94009.0 . . .
93965.0 . . .
93888.0 . . .
93949.0 . . .
93992.0 . . .
93949.0 . . .
93884.0 . . .
93784.0 . . .
93756.0 . . .
93852.0 . . .
93848.0 . . .
93718.0 . . .
93641.0 . . .
93522.0 . . .
93501.0 . . .
93406.0 . . .
93395.0 . . .
93445.0 . . .
93445.0 . . .
93387.0 . . .
93405.0 . . .
93403.0 . . .
93345.0 . . .
93254.0 . . .
93235.0 . . .
93203.0 . . .
93133.0 . . .
93116.0 . . .
93158.0 . . .
93141.0 . . .
93126.0 . . .
93069.0 . . .
92971.0 . . .
92927.0 . . .
92905.0 . . .
92907.0 . . .
92904.0 . . .
92892.0 . . .
92926.0 . . .
92848.0 . . .
92753.0 . . .
92728.0 . . .
92783.0 . . .
92841.0 . . .
92601.0 . . .
92658.0 . . .
92642.0 . . .
92676.0 . . .
92699.0 . . .
92475.0 . . .
92334.0 . . .
92352.0 . . .
92352.0 . . .
92404.0 . . .
92316.0 . . .
92194.0 . . .
92073.0 . . .
92062.0 . . .
92134.0 . . .
92235.0 . . .
92156.0 . . .
91986.0 . . .
91889.0 . . .
91877.0 . . .
91919.0 . . .
91734.0 . . .
91752.0 . . .
91606.0 . . .
91476.0 . . .
91369.0 . . .
91372.0 . . .
91206.0 . . .
90925.0 . . .
91027.0 . . .
91153.0 . . .
90960.0 . . .
90735.0 . . .
90614.0 . . .
90579.0 . . .
90423.0 . . .
90394.0 . . .
90550.0 . . .
90209.0 . . .
90115.0 . . .
90060.0 . . .
89986.0 . . .
89889.0 . . .
89585.0 . . .
89835.0 . . .
89441.0 . . .
89118.0 . . .
88831.0 . . .
88720.0 . . .
88530.0 . . .
88090.0 . . .
88562.0 . . .
88318.0 . . .
87676.0 . . .
87526.0 . . .
87679.0 . . .
87679.0 . . .
86848.0 . . .
87021.0 . . .
87020.0 . . .
86891.0 . . .
87157.0 . . .
87414.0 . . .
88014.0 . . .
88708.0 . . .
89285.0 . . .
88760.0 . . .
88998.0 . . .
88963.0 . . .
87889.0 . . .
87889.0 . . .
87755.0 . . .
87110.0 . . .
86554.0 . . .
87096.0 . . .
86615.0 . . .
85394.0 . . .
86026.0 . . .
85982.0 . . .
85113.0 . . .
83973.0 . . .
84739.0 . . .
83404.0 . . .
82128.0 . . .
82519.0 . . .
82248.0 . . .
80771.0 . . .
78240.0 . . .
79075.0 . . .
76960.0 . . .
74884.0 . . .
73868.0 . . .
72874.0 . . .
69641.0 . . .
65429.0 . . .
63196.0 . . .
57280.0 . . .
50813.0 . . .
40435.0 . . .
27524.0 . . .
20713.0 . . .
11655.0 . . .
4479.0 . . .
1969.0 . . .
loop_
_refln_index_h
_refln_index_k
_refln_index_l
_refln_observed_status
_refln_F_squared_meas
_refln_F_squared_calc
_refln_phase_calc
_refln_d_spacing
_gsas_i100_meas
0 2 0 o 191.984 154.198 180.00 7.45430 2.23
2 0 0 o 104.133 151.019 0.00 6.50051 1.44
2 1 0 o 161.525 182.027 -180.00 5.95871 2.17
1 2 0 o 162.007 206.537 180.00 6.46675 1.60
2 2 0 o 2835.927 2609.079 -180.00 4.89929 22.77
1 3 0 o 1400.923 1245.396 0.00 4.64197 7.33
3 1 0 o 662.003 875.041 -180.00 4.16142 5.43
0 4 0 o 110.661 252.600 0.00 3.72715 0.32
2 3 0 o 594.235 671.773 180.00 3.94801 2.63
3 2 0 o 32.914 45.696 180.00 3.74654 0.16
1 4 0 o 648.269 803.129 -180.00 3.58283 2.38
4 0 0 o 467.420 1069.042 0.00 3.25025 1.62
1 0 1 o 10343.346 9583.270 32.95 2.91851 42.80
4 1 0 o 1.353 1.441 -180.00 3.17566 0.01
3 3 0 o 18.698 81.862 0.00 3.26619 0.07
2 4 0 o 62.832 103.955 0.00 3.23337 0.16
1 1 1 o 10211.511 10098.349 -135.67 2.86415 100.00
4 2 0 o 2519.702 1993.114 -180.00 2.97936 8.47
0 2 1 o 1893.285 2041.647 102.10 2.77904 5.81
1 2 1 o 2729.731 2452.219 124.32 2.71764 21.58
1 5 0 o 1336.160 1345.765 0.00 2.90626 3.65
2 1 1 o 6798.762 6401.872 136.35 2.67596 32.44
3 4 0 o 1551.213 1641.858 0.00 2.82581 3.79
2 2 1 o 408.003 217.054 -62.59 2.55532 2.51
4 3 0 o 2.620 2.316 0.00 2.72013 0.01
3 0 1 o 0.000 3298.162 -142.32 2.46383 0.00
2 5 0 o 1468.724 1382.419 -180.00 2.71021 2.51
1 3 1 o 501.942 380.314 67.13 2.51662 0.85
3 1 1 o 0.000 1658.707 -173.06 2.43086 0.00
5 1 0 o 542.769 274.465 180.00 2.56154 2.06
0 6 0 o 529.606 503.922 180.00 2.48477 0.69
2 3 1 o 149.511 905.390 123.37 2.38608 0.67
3 2 1 o 932.420 2008.853 168.54 2.33936 0.86
0 4 1 o 0.000 1321.174 96.53 2.33462 0.00
3 5 0 o 3573.556 3961.363 0.00 2.45645 5.74
5 2 0 o 3866.763 4297.622 -180.00 2.45513 10.05
4 4 0 o 2855.136 3195.051 180.00 2.44965 5.73
1 6 0 o 396.176 467.067 0.00 2.44059 0.83
1 4 1 o 0.000 746.023 -91.83 2.29786 0.00
4 1 1 o 0.000 1904.190 174.07 2.17884 0.00
3 3 1 o 3.174 1.317 -50.58 2.20742 0.01
2 6 0 o 2520.461 3837.890 0.00 2.32099 3.39
2 4 1 o 895.002 385.855 173.57 2.19721 2.39
5 3 0 o 2453.238 2766.629 180.00 2.30389 4.57
4 2 1 o 0.000 584.122 41.04 2.11222 0.00
6 0 0 o 2486.658 1283.079 180.00 2.16684 3.87
6 1 0 o 3557.621 2684.210 0.00 2.14431 9.86
4 5 0 o 8594.209 3704.970 -180.00 2.19721 13.15
1 5 1 o 0.000 135.609 91.20 2.08569 0.00
3 4 1 o 910.058 644.415 130.13 2.05534 2.55
3 6 0 o 3897.772 2747.210 180.00 2.15558 4.40
1 7 0 o 11009.475 10448.935 -180.00 2.10178 18.01
5 4 0 o 344.463 295.070 -180.00 2.13253 0.53
6 2 0 o 9845.621 9271.776 180.00 2.08071 20.41
5 0 1 o 2045.677 3767.489 57.72 1.96346 1.23
4 3 1 o 0.000 1136.961 57.97 2.01359 0.00
2 5 1 o 833.802 570.029 -133.35 2.00955 2.05
5 1 1 o 738.392 1929.542 -170.53 1.94665 0.55
2 7 0 o 1991.074 1468.199 180.00 2.02394 2.24
5 2 1 o 0.000 52.604 -11.46 1.89870 0.00
6 3 0 o 216.181 156.790 180.00 1.98624 0.33
0 6 1 o 0.000 9351.135 -157.16 1.91231 0.00
3 5 1 o 1126.702 1084.227 37.48 1.89931 3.78
4 4 1 o 1897.264 1960.319 23.11 1.89616 1.79
1 6 1 o 1240.309 1355.369 -98.50 1.89195 1.09
4 6 0 o 130.298 176.888 0.00 1.97400 0.15
5 3 1 o 0.000 1785.311 23.96 1.82610 0.00
5 5 0 o 8.243 24.890 -180.00 1.95972 0.01
3 7 0 o 1203.346 679.041 180.00 1.91144 1.05
2 6 1 o 1211.295 894.465 -158.43 1.83457 3.78
6 4 0 o 2099.729 1655.705 0.00 1.87327 2.52
0 8 0 o 917.325 912.993 180.00 1.86357 0.69
1 8 0 o 197.608 206.200 0.00 1.84472 0.26
7 1 0 o 190.752 191.854 -180.00 1.84304 0.40
