#------------------------------------------------------------------------------
#$Date: 2016-02-14 06:40:26 +0200 (Sun, 14 Feb 2016) $
#$Revision: 176432 $
#$URL: svn://www.crystallography.net/cod/cif/4/12/05/4120504.cif $
#------------------------------------------------------------------------------
#
# This file is available in the Crystallography Open Database (COD),
# http://www.crystallography.net/
#
# All data on this site have been placed in the public domain by the
# contributors.
#
data_4120504
loop_
_publ_author_name
'Wong, Joanne W. L.'
'Mailman, Aaron'
'Lekin, Kristina'
'Winter, Stephen M.'
'Yong, Wenjun'
'Zhao, Jianbao'
'Garimella, Subrahmanyam V.'
'Tse, John S.'
'Secco, Richard A.'
'Desgreniers, Serge'
'Ohishi, Yasuo'
'Borondics, Ferenc'
'Oakley, Richard T.'
_publ_section_title
;
 Pressure induced phase transitions and metallization of a neutral radical
 conductor.
;
_journal_issue                   3
_journal_name_full               'Journal of the American Chemical Society'
_journal_page_first              1070
_journal_page_last               1081
_journal_paper_doi               10.1021/ja411057x
_journal_volume                  136
_journal_year                    2014
_chemical_formula_moiety         'C6 H N2 O S4'
_chemical_formula_sum            'C6 H N2 O S4'
_chemical_formula_weight         245.33
_chemical_name_common            HBBO
_chemical_name_systematic        ' ?'
_space_group_IT_number           33
_symmetry_cell_setting           orthorhombic
_symmetry_space_group_name_Hall  'P 2c -2ab'
_symmetry_space_group_name_H-M   'P b n 21'
_cell_angle_alpha                90.0
_cell_angle_beta                 90.0
_cell_angle_gamma                90.0
_cell_formula_units_Z            4
_cell_length_a                   13.2110(31)
_cell_length_b                   15.162(4)
_cell_length_c                   3.3733(6)
_cell_volume                     675.7(3)
_computing_structure_refinement  GSAS
_diffrn_ambient_temperature      293(2)
_diffrn_measurement_device_type  'SPring-8 BL10XU'
_diffrn_radiation_polarisn_ratio 0.95
_diffrn_radiation_probe          x-ray
_diffrn_radiation_type           synchrotron
_diffrn_radiation_wavelength     0.41337
_diffrn_source                   synchrotron
_exptl_absorpt_correction_T_max  1.00000
_exptl_absorpt_correction_T_min  1.00000
_exptl_absorpt_process_details
;   GSAS Absorption/surface roughness correction: function number 0
 No correction is applied.
;
_exptl_crystal_colour            black
_exptl_crystal_density_diffrn    2.412
_pd_calc_method                  'Rietveld Refinement'
_pd_instr_location               ' ?'
_pd_meas_2theta_range_inc        0.01
_pd_meas_2theta_range_max        27.6
_pd_meas_2theta_range_min        1.0
_pd_meas_number_of_points        2661
_pd_phase_name                   HBBO_14_2/hbbo_14_pbn21_KL1.cif
_pd_proc_2theta_range_inc        0.01
_pd_proc_2theta_range_max        27.6
_pd_proc_2theta_range_min        1.0
_pd_proc_info_datetime           2013-04-29T15:39:07
_pd_proc_info_excluded_regions   ' ?'
_pd_proc_ls_background_function
;   GSAS Background function number 1 with  8 terms.
 Shifted Chebyshev function of 1st kind
      1:    50979.0     2:    26832.7     3:   -1175.70     4:    53.6987    
      5:   -6.02778     6:   -97.9622     7:   -255.080     8:   -108.635    
;
_pd_proc_ls_peak_cutoff          0.00100
_pd_proc_ls_profile_function
;
 CW Profile function number 2 with  18 terms
 Profile coefficients for Simpson's rule integration of pseudovoigt function
 C.J. Howard (1982). J. Appl. Cryst.,15,615-620.
 P. Thompson, D.E. Cox & J.B. Hastings (1987). J. Appl. Cryst.,20,79-83.
 Peak tails are ignored  where the intensity is below 0.0010 times the peak
   Aniso. broadening axis   0.0   0.0   1.0
;
_pd_proc_ls_prof_R_factor        0.0064
_pd_proc_ls_prof_wR_expected     0.0044
_pd_proc_ls_prof_wR_factor       0.0111
_pd_proc_number_of_points        2661
_pd_spec_mounting                ' ?'
_refine_ls_goodness_of_fit_all   2.57
_refine_ls_matrix_type           full
_refine_ls_number_parameters     9
_refine_ls_number_restraints     0
_refine_ls_R_Fsqd_factor         0.30365
_refine_ls_shift/su_max          0.03
_refine_ls_shift/su_mean         0.01
_reflns_d_resolution_high        1.992
_reflns_d_resolution_low         7.581
_reflns_limit_h_max              8
_reflns_limit_h_min              0
_reflns_limit_k_max              9
_reflns_limit_k_min              0
_reflns_limit_l_max              2
_reflns_limit_l_min              0
_reflns_number_total             67
_cod_data_source_file            ja411057x_si_003.cif
_cod_data_source_block           HBBO_4.36GPa
_cod_depositor_comments
;
The following automatic conversions were performed:

'_geom_bond_publ_flag' value 'N' changed to 'n' according to
/usr/data/users/saulius/automatic-downloads/current/ACS/lib/dictionaries/cif_core.dic
dictionary named 'cif_core.dic' version 2.4.2 from 2011-04-26 (17
times).

'_geom_angle_publ_flag' value 'N' changed to 'n' according
to
/usr/data/users/saulius/automatic-downloads/current/ACS/lib/dictionaries/cif_core.dic
dictionary named 'cif_core.dic' version 2.4.2 from 2011-04-26 (24
times).

Automatic conversion script
Id: cif_fix_values 2281 2013-09-26 08:29:07Z andrius 
;
_cod_original_cell_volume        675.68(20)
_cod_original_sg_symbol_Hall     'c -2ab'
_cod_database_code               4120504
#BEGIN Tags that were not found in dictionaries:
_gsas_exptl_extinct_corr_t_min   1.00000
_gsas_exptl_extinct_corr_t_max   1.00000
#END Tags that were not found in dictionaries
loop_
_symmetry_equiv_pos_site_id
_symmetry_equiv_pos_as_xyz
1 +x,+y,+z
2 -x+1/2,+y+1/2,+z
3 +x+1/2,-y+1/2,+z+1/2
4 -x,-y,+z+1/2
loop_
_atom_site_type_symbol
_atom_site_label
_atom_site_fract_x
_atom_site_fract_y
_atom_site_fract_z
_atom_site_occupancy
_atom_site_thermal_displace_type
_atom_site_U_iso_or_equiv
_atom_site_symmetry_multiplicity
S S3 0.54291 0.8343 0.15802 1.0 Uiso 0.0533 4
S S4 0.46748 0.73028 -0.15491 1.0 Uiso 0.0533 4
S S1 0.13583 1.07868 0.87931 1.0 Uiso 0.0533 4
S S2 0.29772 1.09097 0.9285 1.0 Uiso 0.0533 4
C C2 0.33491 0.83127 0.1746 1.0 Uiso 0.0533 4
C C1 0.22797 0.86004 0.2959 1.0 Uiso 0.0533 4
C C4 0.41678 0.96034 0.5396 1.0 Uiso 0.0533 4
N N1 0.13189 0.98302 0.62365 1.0 Uiso 0.0533 4
O O1 0.15069 0.81383 0.22093 1.0 Uiso 0.0533 4
C C6 0.22384 0.94708 0.52281 1.0 Uiso 0.0533 4
N N2 0.34735 0.7577 -0.05189 1.0 Uiso 0.0533 4
C C3 0.42458 0.88168 0.30886 1.0 Uiso 0.0533 4
C C5 0.31722 0.99229 0.64256 1.0 Uiso 0.0533 4
H H4 0.47875 0.99571 0.62519 1.0 Uiso 0.1066 4
loop_
_atom_type_symbol
_atom_type_number_in_cell
_atom_type_scat_dispersion_real
_atom_type_scat_dispersion_imag
_atom_type_scat_Cromer_Mann_a1
_atom_type_scat_Cromer_Mann_a2
_atom_type_scat_Cromer_Mann_a3
_atom_type_scat_Cromer_Mann_a4
_atom_type_scat_Cromer_Mann_b1
_atom_type_scat_Cromer_Mann_b2
_atom_type_scat_Cromer_Mann_b3
_atom_type_scat_Cromer_Mann_b4
_atom_type_scat_Cromer_Mann_c
_atom_type_scat_source
S 16.0 0.000 0.000 6.90530 1.46790 5.20340 22.2151 1.43790 0.25360 1.58630
56.1720 0.86690 International_Tables_Vol_C
C 24.0 0.000 0.000 2.31000 20.8439 1.02000 10.2075 1.58860 0.56870 0.86500
51.6512 0.21560 International_Tables_Vol_C
N 8.0 0.000 0.000 12.2126 0.00570 3.13220 9.89330 2.01250 28.9975 1.16630
0.58260 -11.529 International_Tables_Vol_C
O 4.0 0.000 0.000 3.04850 13.2771 2.28680 5.70110 1.54630 0.32390 0.86700
32.9089 0.25080 International_Tables_Vol_C
H 4.0 0.000 0.000 0.49300 10.5109 0.32291 26.1257 0.14019 3.14236 0.04081
57.7997 0.00304 International_Tables_Vol_C
loop_
_geom_angle_atom_site_label_1
_geom_angle_atom_site_label_2
_geom_angle_atom_site_label_3
_geom_angle
_geom_angle_site_symmetry_1
_geom_angle_site_symmetry_3
_geom_angle_publ_flag
S4 S3 C3 91.673 1_555 1_555 n
S3 S4 N2 98.946 1_555 1_555 n
S2 S1 N1 98.2990 1_555 1_555 n
S1 S2 C5 91.659 1_555 1_555 n
C1 C2 N2 119.577 1_555 1_555 n
C1 C2 C3 120.557 1_555 1_555 n
N2 C2 C3 119.853 1_555 1_555 n
C2 C1 O1 122.204 1_555 1_555 n
C2 C1 C6 114.358 1_555 1_555 n
O1 C1 C6 123.416 1_555 1_555 n
C3 C4 C5 118.492 1_555 1_555 n
C3 C4 H4 122.365 1_555 1_555 n
C5 C4 H4 119.106 1_555 1_555 n
S1 N1 C6 116.097 1_555 1_555 n
C1 C6 N1 119.902 1_555 1_555 n
C1 C6 C5 120.771 1_555 1_555 n
N1 C6 C5 119.315 1_555 1_555 n
S4 N2 C2 115.6884 1_555 1_555 n
S3 C3 C2 113.808 1_555 1_555 n
S3 C3 C4 123.499 1_555 1_555 n
C2 C3 C4 122.691 1_555 1_555 n
S2 C5 C4 122.580 1_555 1_555 n
S2 C5 C6 114.558 1_555 1_555 n
C4 C5 C6 122.862 1_555 1_555 n
loop_
_geom_bond_atom_site_label_1
_geom_bond_atom_site_label_2
_geom_bond_distance
_geom_bond_site_symmetry_2
_geom_bond_publ_flag
S3 S4 2.1435 1_555 n
S3 C3 1.79408 1_555 n
S4 N2 1.67699 1_555 n
S1 S2 2.1532 1_555 n
S1 N1 1.6882 1_555 n
S2 S1 2.1532 1_555 n
S2 C5 1.7987 1_555 n
C2 C1 1.53416 1_555 n
C2 N2 1.36197 1_555 n
C2 C3 1.48075 1_555 n
C1 O1 1.26379 1_555 n
C1 C6 1.52658 1_555 n
C4 C3 1.42787 1_555 n
C4 C5 1.44405 1_555 n
C4 H4 1.02039 1_555 n
N1 C6 1.37414 1_555 n
C6 C5 1.46796 1_555 n
loop_
_pd_meas_counts_total
_pd_proc_ls_weight
_pd_proc_intensity_bkg_calc
_pd_calc_intensity_total
0.0 0.0 14492.66309 .
0.0 0.0 14428.15625 .
0.0 0.0 14365.92676 .
0.0 0.0 14305.95020 .
0.0 0.0 14248.19531 .
0.0 0.0 14192.63477 .
0.0 0.0 14139.23828 .
0.0 0.0 14087.98730 .
0.0 0.0 14038.84570 .
0.0 0.0 13991.79688 .
0.0 0.0 13946.81055 .
0.0 0.0 13903.85645 .
0.0 0.0 13862.91309 .
0.0 0.0 13823.95508 .
0.0 0.0 13786.95410 .
0.0 0.0 13751.88574 .
0.0 0.0 13718.73242 .
0.0 0.0 13687.46094 .
0.0 0.0 13658.04883 .
0.0 0.0 13630.47363 .
0.0 0.0 13604.71094 .
0.0 0.0 13580.73633 .
0.0 0.0 13558.52832 .
0.0 0.0 13538.05957 .
0.0 0.0 13519.31055 .
0.0 0.0 13502.25879 .
0.0 0.0 13486.88086 .
0.0 0.0 13473.15234 .
0.0 0.0 13461.05566 .
0.0 0.0 13450.55859 .
0.0 0.0 13441.65039 .
0.0 0.0 13434.30664 .
0.0 0.0 13428.50586 .
0.0 0.0 13424.22168 .
0.0 0.0 13421.44043 .
0.0 0.0 13420.13770 .
0.0 0.0 13420.29492 .
0.0 0.0 13421.88867 .
0.0 0.0 13424.89844 .
0.0 0.0 13429.31055 .
0.0 0.0 13435.09668 .
0.0 0.0 13442.24414 .
0.0 0.0 13450.73145 .
0.0 0.0 13460.53613 .
0.0 0.0 13471.64258 .
0.0 0.0 13484.03320 .
0.0 0.0 13497.68066 .
0.0 0.0 13512.57813 .
0.0 0.0 13528.70508 .
0.0 0.0 13546.03711 .
0.0 0.0 13564.56055 .
0.0 0.0 13584.25781 .
0.0 0.0 13605.10547 .
0.0 0.0 13627.09570 .
0.0 0.0 13650.20605 .
0.0 0.0 13674.41992 .
0.0 0.0 13699.72168 .
0.0 0.0 13726.09277 .
0.0 0.0 13753.51953 .
0.0 0.0 13781.98242 .
0.0 0.0 13811.46777 .
0.0 0.0 13841.95215 .
0.0 0.0 13873.43262 .
0.0 0.0 13905.88477 .
0.0 0.0 13939.29492 .
0.0 0.0 13973.64844 .
0.0 0.0 14008.93066 .
0.0 0.0 14045.12109 .
0.0 0.0 14082.21289 .
0.0 0.0 14120.18848 .
0.0 0.0 14159.03320 .
0.0 0.0 14198.73145 .
0.0 0.0 14239.27051 .
8273.0 0.0 14280.63379 .
8318.0 0.0 14322.81152 .
8311.0 0.0 14365.78613 .
8329.0 0.0 14409.54102 .
8343.0 0.0 14454.07324 .
8329.0 0.0 14499.36035 .
8274.0 0.0 14545.39355 .
8250.0 0.0 14592.15723 .
8208.0 0.0 14639.64258 .
8119.0 0.0 14687.83398 .
8009.0 0.0 14736.71777 .
7928.0 0.0 14786.27930 .
7903.0 0.0 14836.51367 .
7941.0 0.0 14887.40234 .
8000.0 0.0 14938.93945 .
8080.0 0.0 14991.10547 .
8169.0 0.0 15043.89453 .
8236.0 0.0 15097.29395 .
8314.0 0.0 15151.28613 .
8394.0 0.0 15205.86914 .
8534.0 0.0 15261.02832 .
8644.0 0.0 15316.75293 .
8721.0 0.0 15373.03027 .
8829.0 0.0 15429.84766 .
8949.0 0.0 15487.20020 .
9031.0 0.0 15545.07227 .
9121.0 0.0 15603.45313 .
9263.0 0.0 15662.33887 .
9404.0 0.0 15721.71191 .
9524.0 0.0 15781.56836 .
9667.0 0.0 15841.89258 .
9823.0 0.0 15902.68164 .
9965.0 0.0 15963.91699 .
10098.0 0.0 16025.59570 .
10281.0 0.0 16087.70703 .
10424.0 0.0 16150.24414 .
10550.0 0.0 16213.19238 .
10720.0 0.0 16276.54199 .
10910.0 0.0 16340.29297 .
11037.0 0.0 16404.42578 .
11143.0 0.0 16468.93945 .
11330.0 0.0 16533.82617 .
11520.0 0.0 16599.06641 .
11669.0 0.0 16664.66406 .
11838.0 0.0 16730.60352 .
12043.0 0.0 16796.87891 .
12218.0 0.0 16863.48242 .
12327.0 0.0 16930.40625 .
12559.0 0.0 16997.64453 .
12728.0 0.0 17065.18164 .
12864.0 0.0 17133.01758 .
13050.0 0.0 17201.14453 .
13217.0 0.0 17269.55273 .
13410.0 0.0 17338.23828 .
13512.0 0.0 17407.18555 .
13718.0 0.0 17476.39648 .
13909.0 0.0 17545.85547 .
14004.0 0.0 17615.56641 .
14200.0 0.0 17685.51563 .
14458.0 0.0 17755.69531 .
14633.0 0.0 17826.09961 .
14787.0 0.0 17896.72656 .
15110.0 0.0 17967.56250 .
15547.0 0.0 18038.60938 .
15889.0 0.0 18109.85156 .
16055.0 0.0 18181.29102 .
16041.0 0.0 18252.91992 .
15957.0 0.0 18324.73242 .
15986.0 0.0 18396.71680 .
16175.0 0.0 18468.86914 .
16364.0 0.0 18541.19141 .
16511.0 0.0 18613.67188 .
16685.0 0.0 18686.29883 .
16874.0 0.0 18759.08203 .
17002.0 0.0 18832.00195 .
17101.0 0.0 18905.06445 .
17311.0 0.0 18978.25586 .
17510.0 0.0 19051.57227 .
17626.0 0.0 19125.01367 .
17754.0 0.0 19198.56836 .
17944.0 0.0 19272.24023 .
18073.0 0.0 19346.01367 .
18161.0 0.0 19419.89258 .
18360.0 0.0 19493.87109 .
18485.0 0.0 19567.93945 .
18608.0 0.0 19642.09961 .
18757.0 0.0 19716.33984 .
18953.0 0.0 19790.66016 .
19072.0 0.0 19865.06055 .
19172.0 0.0 19939.53125 .
19329.0 0.0 20014.06836 .
19503.0 0.0 20088.66797 .
19605.0 0.0 20163.32617 .
19747.0 0.0 20238.04102 .
19905.0 0.0 20312.80664 .
20017.0 0.0 20387.61914 .
20106.0 0.0 20462.47656 .
20240.0 0.0 20537.37500 .
20412.0 0.0 20612.31250 .
20496.0 0.0 20687.28125 .
20592.0 0.0 20762.27930 .
20703.0 0.0 20837.30664 .
20777.0 0.0 20912.35352 .
20849.0 0.0 20987.41992 .
20968.0 0.0 21062.50195 .
21083.0 0.0 21137.60352 .
21174.0 0.0 21212.71680 .
21191.0 0.0 21287.83203 .
21350.0 0.0 21362.95703 .
21402.0 0.0 21438.07617 .
21488.0 0.0 21513.19922 .
21600.0 0.0 21588.32227 .
21695.0 0.0 21663.43555 .
21767.0 0.0 21738.53711 .
21804.0 0.0 21813.62891 .
21916.0 0.0 21888.70703 .
22012.0 0.0 21963.77148 .
22045.0 0.0 22038.81445 .
22156.0 0.0 22113.83203 .
22248.0 0.0 22188.83203 .
22344.0 0.0 22263.80273 .
22400.0 0.0 22338.74805 .
22499.0 0.0 22413.66016 .
22619.0 0.0 22488.54297 .
22644.0 0.0 22563.38867 .
22725.0 0.0 22638.19531 .
22846.0 0.0 22712.96875 .
22882.0 0.0 22787.70117 .
22966.0 0.0000435 22862.39258 23051.76563
23061.0 0.0000434 22937.03906 23123.49219
23150.0 0.0000432 23011.63672 23195.88477
23194.0 0.0000431 23086.18945 23268.94141
23295.0 0.0000429 23160.69727 23342.60938
23345.0 0.0000428 23235.14844 23416.78906
23425.0 0.0000427 23309.54883 23491.31055
23497.0 0.0000426 23383.89648 23565.92188
23623.0 0.0000423 23458.18750 23640.27148
23695.0 0.0000422 23532.42188 23713.94141
23795.0 0.0000420 23606.59961 23786.50781
23921.0 0.0000418 23680.72070 23857.65234
24024.0 0.0000416 23754.77930 23927.29297
24057.0 0.0000416 23828.77344 23995.59766
24062.0 0.0000416 23902.70508 24062.93945
24117.0 0.0000415 23976.57422 24129.74805
24213.0 0.0000413 24050.37500 24196.41211
24261.0 0.0000412 24124.11133 24263.22266
24365.0 0.0000410 24197.78125 24330.37305
24423.0 0.0000409 24271.38086 24397.97266
24470.0 0.0000409 24344.91016 24466.08203
24533.0 0.0000408 24418.37109 24534.70313
24606.0 0.0000406 24491.75586 24603.80859
24738.0 0.0000404 24565.07422 24673.35547
24773.0 0.0000404 24638.31641 24743.27734
24823.0 0.0000403 24711.48242 24813.51758
24922.0 0.0000401 24784.57617 24884.01367
24982.0 0.0000400 24857.59180 24954.71289
25051.0 0.0000399 24930.53516 25025.56641
25130.0 0.0000398 25003.39258 25096.53711
25190.0 0.0000397 25076.18359 25167.59961
25273.0 0.0000396 25148.89063 25238.73047
25316.0 0.0000395 25221.51758 25309.91797
25401.0 0.0000394 25294.07031 25381.16406
25473.0 0.0000393 25366.54297 25452.44922
25519.0 0.0000392 25438.92773 25523.78125
25618.0 0.0000390 25511.23828 25595.17188
25704.0 0.0000389 25583.46680 25666.61133
25776.0 0.0000388 25655.60938 25738.12891
25825.0 0.0000387 25727.67383 25809.73828
25902.0 0.0000386 25799.65430 25881.47266
25941.0 0.0000385 25871.55469 25953.38867
25979.0 0.0000385 25943.36914 26025.57617
26076.0 0.0000383 26015.09961 26098.16992
26157.0 0.0000382 26086.75000 26171.38867
26226.0 0.0000381 26158.31250 26245.53125
26298.0 0.0000380 26229.79297 26321.04883
26363.0 0.0000379 26301.18945 26398.49023
26459.0 0.0000378 26372.50195 26478.53516
26503.0 0.0000377 26443.72852 26505.39453
26590.0 0.0000376 26514.87305 26593.79688
26676.0 0.0000375 26585.93555 26686.71680
26743.0 0.0000374 26656.90820 26784.31055
26797.0 0.0000373 26727.79688 26886.16406
26900.0 0.0000372 26798.60352 26991.11719
27030.0 0.0000370 26869.32227 27097.08398
27212.0 0.0000367 26939.96289 27200.96484
27380.0 0.0000365 27010.51367 27298.73438
27565.0 0.0000363 27080.98438 27386.12109
27767.0 0.0000360 27151.36719 27459.90234
27733.0 0.0000361 27221.66602 27519.39258
27612.0 0.0000362 27291.88281 27573.21094
27518.0 0.0000363 27362.01367 27615.13867
27543.0 0.0000363 27432.06445 27651.49414
27606.0 0.0000362 27502.02930 27687.96875
27670.0 0.0000361 27571.91211 27727.03906
27718.0 0.0000361 27641.71094 27770.20117
27782.0 0.0000360 27711.42969 27818.12109
27842.0 0.0000359 27781.06445 27870.86914
27892.0 0.0000359 27850.61719 27928.07227
27938.0 0.0000358 27920.08789 27989.12109
28011.0 0.0000357 27989.47852 28053.35547
28080.0 0.0000356 28058.78516 28120.17969
28191.0 0.0000355 28128.01367 28189.16992
28269.0 0.0000354 28197.16406 28260.14648
28307.0 0.0000353 28266.23242 28333.25977
28407.0 0.0000352 28335.22461 28409.04688
28452.0 0.0000351 28404.13281 28488.50391
28544.0 0.00003503 28472.96094 28573.14648
28604.0 0.00003496 28541.71680 28665.01367
28673.0 0.00003488 28610.39258 28766.55859
28768.0 0.00003476 28678.98828 28880.33789
28861.0 0.00003465 28747.50781 29008.54492
28963.0 0.00003453 28815.95117 29152.34180
29077.0 0.00003439 28884.32227 29311.11523
29245.0 0.00003419 28952.61328 29481.72461
29570.0 0.00003382 29020.83594 29657.80859
30037.0 0.00003329 29088.98242 29829.32422
30694.0 0.00003258 29157.05273 29982.78906
31130.0 0.00003212 29225.05469 30103.44141
30795.0 0.00003247 29292.97461 30179.96484
30284.0 0.00003302 29360.83203 30210.06055
29921.0 0.00003342 29428.61328 30202.06836
29793.0 0.00003356 29496.32813 30170.53711
29806.0 0.00003355 29563.96875 30130.16797
29807.0 0.00003355 29631.54102 30092.41797
29882.0 0.00003346 29699.04492 30064.85352
29949.0 0.00003339 29766.48047 30051.61328
30008.0 0.00003332 29833.84570 30054.04297
30068.0 0.00003326 29901.14844 30071.48047
30088.0 0.00003324 29968.38281 30101.96289
30167.0 0.00003315 30035.55273 30142.92578
30227.0 0.00003308 30102.65625 30191.79688
30266.0 0.00003304 30169.69531 30246.30078
30332.0 0.00003297 30236.67383 30304.63867
30382.0 0.00003291 30303.58398 30365.50391
30414.0 0.00003288 30370.44141 30428.00781
30505.0 0.00003278 30437.22656 30491.57031
30572.0 0.00003271 30503.95703 30555.83203
30652.0 0.00003262 30570.62500 30620.58398
30689.0 0.00003258 30637.23633 30685.69141
30761.0 0.00003251 30703.78516 30751.06055
30826.0 0.00003244 30770.27734 30816.64648
30873.0 0.00003239 30836.71094 30882.40820
30967.0 0.00003229 30903.08984 30948.32617
31043.0 0.00003221 30969.41211 31014.36133
31118.0 0.00003214 31035.68359 31080.51953
31170.0 0.00003208 31101.89648 31146.76367
31249.0 0.00003200 31168.05859 31213.10352
31326.0 0.00003192 31234.16602 31279.51563
31365.0 0.00003188 31300.22461 31346.01367
31414.0 0.00003183 31366.22461 31412.57617
31485.0 0.00003176 31432.18359 31479.21484
31534.0 0.00003171 31498.08398 31545.91406
31623.0 0.00003162 31563.94141 31612.68945
31718.0 0.00003153 31629.75000 31679.53320
31777.0 0.00003147 31695.50977 31746.44922
31890.0 0.00003136 31761.22070 31813.45508
31963.0 0.00003129 31826.88477 31880.53516
31999.0 0.00003125 31892.50977 31947.71289
32054.0 0.00003120 31958.08594 32014.98438
32103.0 0.00003115 32023.61719 32082.36523
32206.0 0.00003105 32089.10742 32149.87109
32229.0 0.00003103 32154.55664 32217.50391
32283.0 0.00003098 32219.96484 32285.28320
32360.0 0.00003090 32285.33008 32353.22852
32422.0 0.00003084 32350.65430 32421.34961
32495.0 0.00003077 32415.94531 32489.67773
32534.0 0.00003074 32481.19141 32558.22070
32639.0 0.00003064 32546.40430 32627.03125
32685.0 0.00003060 32611.57617 32697.15625
32727.0 0.00003056 32676.71484 32766.57031
32840.0 0.00003045 32741.81445 32836.34375
32904.0 0.00003039 32806.88672 32906.53125
32998.0 0.00003030 32871.92188 32977.17969
33091.0 0.00003022 32936.91797 33048.35547
33133.0 0.00003018 33001.89453 33122.14063
33204.0 0.00003012 33066.82813 33194.64453
33288.0 0.00003004 33131.73438 33267.93750
33375.0 0.00002996 33196.60938 33342.14844
33419.0 0.00002992 33261.46094 33417.41797
33464.0 0.00002988 33326.26953 33493.92578
33567.0 0.00002979 33391.06641 33571.88672
33624.0 0.00002974 33455.82422 33651.56250
33730.0 0.00002965 33520.56641 33733.26563
33802.0 0.00002958 33585.26953 33817.42188
33827.0 0.00002956 33649.96484 33904.60938
33938.0 0.00002947 33714.61719 33995.62500
34048.0 0.00002937 33779.25391 34091.70313
34162.0 0.00002927 33843.86719 34194.81641
34331.0 0.00002913 33908.46484 34308.19531
34445.0 0.00002903 33973.03125 34437.02344
34613.0 0.00002889 34037.57422 34589.52344
34759.0 0.00002877 34102.10156 34778.84375
34889.0 0.00002866 34166.62109 35020.03125
35070.0 0.00002851 34231.10547 35335.51953
35238.0 0.00002838 34295.58203 35749.53125
35454.0 0.00002821 34360.03125 36285.20703
35767.0 0.00002796 34424.46484 36958.59766
36228.0 0.00002760 34488.89453 37771.00000
37036.0 0.00002700 34553.30078 38700.26953
38632.0 0.00002589 34617.68750 39691.09766
41486.0 0.00002410 34682.06250 40645.37109
45104.0 0.00002217 34746.42578 41421.09375
46624.0 0.00002145 34810.77734 41860.80469
44349.0 0.00002255 34875.11719 41860.96094
40970.0 0.00002441 34939.43750 41439.99219
38648.0 0.00002587 35003.75391 40725.42969
37402.0 0.00002674 35068.05469 39880.34375
36768.0 0.00002720 35132.35156 39036.41016
36564.0 0.00002735 35196.62500 38277.68750
36482.0 0.00002741 35260.90625 37647.77734
36506.0 0.00002739 35325.17578 37160.41406
36611.0 0.00002731 35389.43359 36808.96875
36785.0 0.00002718 35453.67578 36574.77734
37059.0 0.00002698 35517.92188 36434.51563
37382.0 0.00002675 35582.16406 36365.67188
37744.0 0.00002649 35646.39453 36349.97266
38032.0 0.00002629 35710.61719 36374.90234
38134.0 0.00002622 35774.84375 36433.73438
37978.0 0.00002633 35839.06250 36524.74609
37715.0 0.00002651 35903.27734 36650.14844
37445.0 0.00002671 35967.49219 36814.46094
37218.0 0.00002687 36031.69922 37023.00391
37097.0 0.00002696 36095.90234 37279.76953
37038.0 0.00002700 36160.11719 37585.24219
37086.0 0.00002696 36224.31641 37933.61719
37236.0 0.00002686 36288.52344 38309.01563
37590.0 0.00002660 36352.72266 38682.04688
38279.0 0.00002612 36416.93359 39006.16797
39328.0 0.00002543 36481.13672 39225.24609
40199.0 0.00002488 36545.33984 39295.54688
39874.0 0.00002508 36609.54688 39212.08594
38867.0 0.00002573 36673.75781 39011.93359
38091.0 0.00002625 36737.97266 38753.20703
37681.0 0.00002654 36802.17969 38484.62109
37537.0 0.00002664 36866.40625 38238.52344
37467.0 0.00002669 36930.62500 38032.07422
37432.0 0.00002672 36994.85156 37871.92969
37448.0 0.00002670 37059.07813 37757.44531
37462.0 0.00002669 37123.31641 37684.07422
37512.0 0.00002666 37187.55078 37645.71875
37603.0 0.00002659 37251.80078 37633.55469
37670.0 0.00002655 37316.04688 37641.48828
37732.0 0.00002650 37380.29688 37663.87891
37790.0 0.00002646 37444.56250 37696.38672
37891.0 0.00002639 37508.83594 37735.93359
37990.0 0.00002632 37573.11328 37780.41406
38048.0 0.00002628 37637.39453 37828.43359
38143.0 0.00002622 37701.67969 37879.09766
38221.0 0.00002616 37765.98828 37931.83203
38317.0 0.00002610 37830.28906 37986.20703
38368.0 0.00002606 37894.60547 38041.98828
38420.0 0.00002603 37958.92578 38098.93359
38487.0 0.00002598 38023.26172 38156.89453
38470.0 0.00002599 38087.60156 38215.76172
38486.0 0.00002598 38151.95703 38275.41797
38515.0 0.00002596 38216.31641 38335.80859
38532.0 0.00002595 38280.67969 38396.85156
38565.0 0.00002593 38345.06641 38458.53125
38611.0 0.00002590 38409.46094 38520.77734
38655.0 0.00002587 38473.85938 38583.59766
38712.0 0.00002583 38538.26953 38646.98438
38736.0 0.00002582 38602.69531 38710.92969
38826.0 0.00002576 38667.10938 38775.43359
38915.0 0.00002570 38731.55859 38840.53906
38989.0 0.00002565 38796.01563 38906.28516
39051.0 0.00002561 38860.47656 38972.70703
39080.0 0.00002559 38924.95313 39039.88672
39141.0 0.00002555 38989.44922 39107.91016
39206.0 0.00002551 39053.94922 39194.72266
39296.0 0.00002545 39118.45703 39265.02734
39362.0 0.00002541 39182.98047 39336.69922
39403.0 0.00002538 39247.51563 39410.03906
39483.0 0.00002533 39312.05859 39485.52344
39556.0 0.00002528 39376.62109 39563.87109
39604.0 0.00002525 39441.19141 39646.18359
39678.0 0.00002520 39505.77344 39735.30859
39732.0 0.00002517 39570.35938 39832.17578
39859.0 0.00002509 39634.97266 39942.03906
39983.0 0.00002501 39699.59375 40070.82031
40130.0 0.00002492 39764.21875 40225.87109
40296.0 0.00002482 39828.87109 40415.25391
40524.0 0.00002468 39893.52344 40646.07813
40886.0 0.00002446 39958.18750 40922.12500
41474.0 0.00002411 40022.86719 41240.29297
42403.0 0.00002358 40087.55859 41585.47656
43153.0 0.00002317 40152.25781 41923.68359
43028.0 0.00002324 40216.97656 42198.76172
42265.0 0.00002366 40281.71094 42347.46094
41632.0 0.00002402 40346.44141 42338.21094
41255.0 0.00002424 40411.19531 42198.03516
41109.0 0.00002433 40475.96094 41990.71875
41068.0 0.00002435 40540.72656 41774.07422
41074.0 0.00002435 40605.51563 41583.80078
41112.0 0.00002432 40670.31250 41435.60547
41189.0 0.00002428 40735.12500 41332.92969
41293.0 0.00002422 40799.94141 41272.20703
41398.0 0.00002416 40864.76953 41246.41797
41522.0 0.00002408 40929.60938 41247.51953
41548.0 0.00002407 40994.46094 41268.08203
41569.0 0.00002406 41059.32422 41302.17188
41567.0 0.00002406 41124.19922 41345.50781
41542.0 0.00002407 41189.07813 41395.23828
41590.0 0.00002404 41253.97656 41449.64453
41617.0 0.00002403 41318.88281 41507.76563
41631.0 0.00002402 41383.79297 41569.20703
41647.0 0.00002401 41448.72266 41634.02734
41722.0 0.00002397 41513.65625 41703.06641
41768.0 0.00002394 41578.59766 41776.83594
41804.0 0.00002392 41643.53906 41857.42578
41868.0 0.00002388 41708.49609 41948.23828
41954.0 0.00002384 41773.47656 42050.86328
42055.0 0.00002378 41838.44922 42169.43359
42176.0 0.00002371 41903.42578 42306.59375
42314.0 0.00002363 41968.42969 42462.85156
42532.0 0.00002351 42033.42188 42634.24219
42853.0 0.00002334 42098.43359 42802.40234
43241.0 0.00002313 42163.44531 42956.85156
43455.0 0.00002301 42228.46484 43061.30859
43329.0 0.00002308 42293.48828 43098.34375
43093.0 0.00002321 42358.51953 43079.12891
42907.0 0.00002331 42423.56250 43033.16406
42805.0 0.00002336 42488.60547 42986.49219
42792.0 0.00002337 42553.66406 42953.34766
42831.0 0.00002335 42618.71094 42945.35938
42839.0 0.00002334 42683.76563 42949.59375
42880.0 0.00002332 42748.83203 42970.08984
42941.0 0.00002329 42813.89844 43003.41016
43030.0 0.00002324 42878.97266 43046.17578
43067.0 0.00002322 42944.03906 43095.53516
43136.0 0.00002318 43009.10938 43149.34766
43200.0 0.00002315 43074.19922 43206.14063
43271.0 0.00002311 43139.27734 43265.00000
43335.0 0.00002308 43204.36328 43325.33594
43411.0 0.00002304 43269.44922 43386.80859
43486.0 0.00002300 43334.53516 43449.19531
43597.0 0.00002294 43399.61328 43512.35547
43663.0 0.00002290 43464.70703 43576.24609
43751.0 0.00002286 43529.78906 43640.82031
43856.0 0.00002280 43594.87500 43706.10938
43907.0 0.00002278 43659.95313 43772.23047
43934.0 0.00002276 43725.03906 43839.41016
43947.0 0.00002275 43790.11719 43907.98828
43978.0 0.00002274 43855.19531 43978.53516
44028.0 0.00002271 43920.27344 44051.71875
44144.0 0.00002265 43985.34766 44128.30859
44234.0 0.00002261 44050.41016 44208.71484
44333.0 0.00002256 44115.48047 44292.85547
44476.0 0.00002248 44180.54297 44379.04297
44558.0 0.00002244 44245.59766 44462.79688
44554.0 0.00002244 44310.64453 44537.37891
44544.0 0.00002245 44375.69141 44598.48047
44567.0 0.00002244 44440.71875 44648.87500
44688.0 0.00002238 44505.75391 44695.49609
44791.0 0.00002233 44570.78125 44743.58984
44769.0 0.00002234 44635.79688 44795.37500
44777.0 0.00002233 44700.80078 44851.23047
44845.0 0.00002230 44765.80078 44910.73828
44887.0 0.00002228 44830.78516 44973.26172
44945.0 0.00002225 44895.76563 45038.12500
44976.0 0.00002223 44960.73828 45104.83984
45039.0 0.00002220 45025.69531 45173.05859
45062.0 0.00002219 45090.64453 45242.70703
45107.0 0.00002217 45155.57813 45313.76953
45178.0 0.00002213 45220.50781 45386.39844
45251.0 0.00002210 45285.41016 45460.92188
45299.0 0.00002208 45350.30859 45537.80078
45381.0 0.00002204 45415.19141 45617.78516
45454.0 0.00002200 45480.06250 45699.81250
45539.0 0.00002196 45544.91406 45789.93359
45612.0 0.00002192 45609.75781 45888.41406
45659.0 0.00002190 45674.57813 45998.70703
45754.0 0.00002186 45739.38672 46125.26563
45867.0 0.00002180 45804.17188 46273.30469
46056.0 0.00002171 45868.94922 46447.73828
46300.0 0.00002160 45933.69531 46650.03516
46662.0 0.00002143 45998.42969 46870.95703
47336.0 0.00002113 46063.14453 47079.48047
48154.0 0.00002077 46127.84375 47222.94141
48606.0 0.00002057 46192.51953 47261.26563
48222.0 0.00002074 46257.17578 47209.25781
47509.0 0.00002105 46321.81250 47120.60547
47049.0 0.00002125 46386.41406 47039.44922
46839.0 0.00002135 46451.00781 46984.14453
46721.0 0.00002140 46515.57031 46956.84766
46704.0 0.00002141 46580.11719 46953.55078
46736.0 0.00002140 46644.62891 46968.94141
46756.0 0.00002139 46709.12891 47005.16016
46812.0 0.00002136 46773.59375 47044.23828
46857.0 0.00002134 46838.03125 47090.22656
46928.0 0.00002131 46902.45313 47141.08203
46992.0 0.00002128 46966.83984 47195.43750
47051.0 0.00002125 47031.19922 47252.38672
47139.0 0.00002121 47095.53516 47311.28516
47235.0 0.00002117 47159.83594 47371.73047
47338.0 0.00002112 47224.11328 47433.40234
47425.0 0.00002109 47288.35547 47496.06250
47492.0 0.00002106 47352.57813 47559.58203
47598.0 0.00002101 47416.75391 47623.80078
47719.0 0.00002096 47480.91016 47688.62500
47846.0 0.00002090 47545.03125 47754.00000
48014.0 0.00002083 47609.11719 47819.82422
48154.0 0.00002077 47673.16797 47886.09766
48359.0 0.00002068 47737.19141 47952.75391
48545.0 0.00002060 47801.17969 48019.89844
48696.0 0.00002054 47865.13281 48087.28516
48856.0 0.00002047 47929.04297 48155.01953
49006.0 0.00002041 47992.92969 48223.07422
49107.0 0.00002036 48056.76563 48291.46094
49147.0 0.00002035 48120.57422 48360.16797
49148.0 0.00002035 48184.34766 48429.22266
49125.0 0.00002036 48248.07422 48498.62500
49060.0 0.00002038 48311.76563 48568.37891
49008.0 0.00002040 48375.41406 48638.50000
48985.0 0.00002041 48439.02734 48709.01172
48942.0 0.00002043 48502.59766 48779.93750
48880.0 0.00002046 48566.12500 48851.31641
48885.0 0.00002046 48629.61719 48923.16406
48863.0 0.00002047 48693.06250 48995.51953
48860.0 0.00002047 48756.46094 49068.42969
48865.0 0.00002046 48819.82813 49141.92188
48881.0 0.00002046 48883.14063 49216.09375
48931.0 0.00002044 48946.41016 49291.12500
48998.0 0.00002041 49009.64063 49366.78516
49014.0 0.00002040 49072.82422 49443.35938
49072.0 0.00002038 49135.95703 49520.91797
49133.0 0.00002035 49199.04297 49599.57813
49178.0 0.00002033 49262.08984 49679.47266
49289.0 0.00002029 49325.08594 49760.82031
49383.0 0.00002025 49388.02734 49843.78516
49464.0 0.00002022 49450.93359 49928.62109
49542.0 0.00002018 49513.78125 50015.66797
49640.0 0.00002015 49576.57422 50105.30078
49727.0 0.00002011 49639.32813 50198.08203
49822.0 0.00002007 49702.02344 50294.72266
49950.0 0.00002002 49764.66797 50396.24609
50070.0 0.00001997 49827.26953 50504.03516
50209.0 0.00001992 49889.81641 50620.08203
50449.0 0.00001982 49952.30078 50747.04688
50702.0 0.00001972 50014.74219 50888.49609
51054.0 0.00001959 50077.12891 51048.82422
51490.0 0.00001942 50139.46484 51232.96875
51926.0 0.00001926 50201.72656 51445.53906
52212.0 0.00001915 50263.95703 51688.51563
52274.0 0.00001913 50326.11719 51957.91406
52331.0 0.00001911 50388.23047 52241.50391
52513.0 0.00001904 50450.28516 52522.29688
52784.0 0.00001895 50512.27734 52782.81250
53064.0 0.00001885 50574.21484 53000.33594
53247.0 0.00001878 50636.10156 53149.74219
53316.0 0.00001876 50697.92188 53231.76953
53347.0 0.00001875 50759.68750 53288.94141
53452.0 0.00001871 50821.38672 53379.98438
53652.0 0.00001864 50883.04297 53553.16406
53948.0 0.00001854 50944.62891 53844.14844
54348.0 0.00001840 51006.15234 54283.37891
54820.0 0.00001824 51067.61719 54899.61719
55402.0 0.00001805 51129.01953 55717.10547
56095.0 0.00001783 51190.36719 56746.23047
57053.0 0.00001753 51251.64453 57962.88672
58057.0 0.00001722 51312.87500 59270.60547
59173.0 0.00001690 51374.01953 60456.05469
60395.0 0.00001656 51435.11719 61209.25391
61466.0 0.00001627 51496.14453 61296.06641
62055.0 0.00001611 51557.11328 60762.16406
61887.0 0.00001616 51618.00781 59888.49609
60992.0 0.00001640 51678.85156 58960.77344
59660.0 0.00001676 51739.62500 58141.69141
58288.0 0.00001716 51800.32813 57484.89063
57118.0 0.00001751 51860.96875 56985.14453
56256.0 0.00001778 51921.54688 56614.29688
55715.0 0.00001795 51982.05859 56341.10156
55443.0 0.00001804 52042.50000 56140.82813
55397.0 0.00001805 52102.87891 55998.36328
55471.0 0.00001803 52163.18750 55905.01953
55635.0 0.00001797 52223.42969 55858.49219
55814.0 0.00001792 52283.60547 55858.75391
55975.0 0.00001787 52343.71094 55907.23828
56148.0 0.00001781 52403.75000 56006.41016
56321.0 0.00001776 52463.72656 56159.85547
56558.0 0.00001768 52523.62500 56372.49609
56858.0 0.00001759 52583.45313 56651.01563
57242.0 0.00001747 52643.21875 57003.96875
57719.0 0.00001733 52702.92188 57442.08594
58301.0 0.00001715 52762.54688 57978.12500
58937.0 0.00001697 52822.09766 58626.76953
59714.0 0.00001675 52881.58984 59404.05078
60584.0 0.00001651 52941.00391 60326.55469
61629.0 0.00001623 53000.34375 61409.87500
62825.0 0.00001592 53059.60938 62666.04688
64246.0 0.00001557 53118.82031 64099.34375
65834.0 0.00001519 53177.95313 65699.00781
67531.0 0.00001481 53237.01172 67428.64063
69275.0 0.00001444 53296.00781 69212.57813
71026.0 0.00001408 53354.92188 70923.85938
72555.0 0.00001378 53413.76953 72384.98438
73522.0 0.00001360 53472.54297 73395.37500
73912.0 0.00001353 53531.24609 73789.42188
73643.0 0.00001358 53589.87500 73501.51563
72710.0 0.00001375 53648.43359 72595.89844
71285.0 0.00001403 53706.92188 71237.66406
69625.0 0.00001436 53765.33984 69627.52344
67899.0 0.00001473 53823.67969 67943.28906
66210.0 0.00001510 53881.95313 66311.97656
64814.0 0.00001543 53940.15234 64809.05469
63706.0 0.00001570 53998.26563 63470.49219
62945.0 0.00001589 54056.33203 62306.44531
62533.0 0.00001599 54114.30469 61312.06641
62115.0 0.00001610 54172.21484 60474.53125
61144.0 0.00001635 54230.04688 59777.45313
59857.0 0.00001671 54287.81250 59203.25391
58664.0 0.00001705 54345.49609 58737.45313
57776.0 0.00001731 54403.11328 58358.96484
57207.0 0.00001748 54460.65625 58055.99609
56817.0 0.00001760 54518.13281 57816.40234
56590.0 0.00001767 54575.52734 57629.94922
56434.0 0.00001772 54632.85938 57488.21094
56365.0 0.00001774 54690.10938 57384.50391
56286.0 0.00001777 54747.29297 57313.63281
56299.0 0.00001776 54804.39844 57271.56641
56355.0 0.00001774 54861.43750 57255.27344
56455.0 0.00001771 54918.40234 57262.46875
56532.0 0.00001769 54975.29297 57291.33203
56674.0 0.00001764 55032.11719 57340.31250
56833.0 0.00001760 55088.86328 57407.85547
56963.0 0.00001756 55145.54688 57492.16016
57134.0 0.00001750 55202.14844 57590.73047
57262.0 0.00001746 55258.68359 57700.12891
57438.0 0.00001741 55315.14063 57815.59766
57650.0 0.00001735 55371.53516 57931.03125
57908.0 0.00001727 55427.85938 58039.37109
58067.0 0.00001722 55484.10547 58133.48438
58027.0 0.00001723 55540.28906 58207.81250
57970.0 0.00001725 55596.39453 58259.81250
58048.0 0.00001723 55652.43750 58290.94531
58157.0 0.00001719 55708.40625 58306.69141
58372.0 0.00001713 55764.30078 58315.52344
58659.0 0.00001705 55820.13281 58328.82813
58957.0 0.00001696 55875.89453 58355.66406
59281.0 0.00001687 55931.58594 58409.12891
59649.0 0.00001676 55987.21094 58502.40234
60073.0 0.00001665 56042.76172 58650.47656
60530.0 0.00001652 56098.25781 58870.53906
61077.0 0.00001637 56153.67188 59181.79688
61639.0 0.00001622 56209.02344 59604.29688
62233.0 0.00001607 56264.30859 60156.75391
62748.0 0.00001594 56319.52734 60853.10547
63235.0 0.00001581 56374.67188 61698.05078
63673.0 0.00001571 56429.75781 62680.81641
64055.0 0.00001561 56484.77734 63766.21094
64448.0 0.00001552 56539.73438 64882.12500
64771.0 0.00001544 56594.61328 65907.51563
64925.0 0.00001540 56649.44141 66677.02344
64710.0 0.00001545 56704.20703 67026.25000
64230.0 0.00001557 56758.90234 66872.27344
63701.0 0.00001570 56813.53516 66265.79688
63314.0 0.00001579 56868.10156 65358.68750
62929.0 0.00001589 56922.60547 64322.44141
62589.0 0.00001598 56977.05078 63290.60156
62270.0 0.00001606 57031.44141 62346.10156
61941.0 0.00001614 57085.75781 61531.46094
61615.0 0.00001623 57140.01953 60862.06250
61252.0 0.00001633 57194.22656 60336.05469
60917.0 0.00001642 57248.36719 59941.07813
60597.0 0.00001650 57302.44531 59659.16016
60328.0 0.00001658 57356.47656 59470.51563
60080.0 0.00001664 57410.44141 59356.14063
59925.0 0.00001669 57464.35547 59299.38672
59802.0 0.00001672 57518.19531 59286.61328
59670.0 0.00001676 57571.99219 59306.98828
59593.0 0.00001678 57625.73047 59352.07813
59574.0 0.00001679 57679.41797 59414.84375
59606.0 0.00001678 57733.04688 59488.97656
59589.0 0.00001678 57786.61719 59568.20313
59597.0 0.00001678 57840.13281 59646.20703
59616.0 0.00001677 57893.60547 59717.40625
59606.0 0.00001678 57947.01953 59774.98438
59605.0 0.00001678 58000.38281 59816.11719
59608.0 0.00001678 58053.69531 59839.81250
59549.0 0.00001679 58106.96094 59847.97266
59534.0 0.00001680 58160.17578 59844.56641
59458.0 0.00001682 58213.33203 59834.75391
59414.0 0.00001683 58266.45313 59823.45703
59385.0 0.00001684 58319.51953 59814.78906
59417.0 0.00001683 58372.53906 59811.31641
59521.0 0.00001680 58425.50781 59814.00391
59769.0 0.00001673 58478.43750 59822.05078
60080.0 0.00001664 58531.32031 59833.30469
60384.0 0.00001656 58584.15234 59844.71094
60413.0 0.00001655 58636.94922 59853.54688
60166.0 0.00001662 58689.69922 59858.04688
59906.0 0.00001669 58742.41016 59857.67578
59712.0 0.00001675 58795.08203 59852.78906
59629.0 0.00001677 58847.70703 59844.42578
59621.0 0.00001677 58900.29688 59834.64063
59619.0 0.00001677 58952.84375 59823.81250
59649.0 0.00001676 59005.36719 59814.33203
59669.0 0.00001676 59057.83203 59807.67969
59695.0 0.00001675 59110.27344 59804.92188
59721.0 0.00001674 59162.67188 59806.67578
59735.0 0.00001674 59215.03906 59813.12500
59812.0 0.00001672 59267.37500 59824.17578
59909.0 0.00001669 59319.67578 59839.63281
60030.0 0.00001666 59371.94141 59859.13672
60128.0 0.00001663 59424.17188 59882.29688
60202.0 0.00001661 59476.38281 59908.73047
60296.0 0.00001658 59528.55078 59938.08203
60337.0 0.00001657 59580.69922 59970.05078
60352.0 0.00001657 59632.81641 60004.29688
60331.0 0.00001658 59684.90625 60040.58203
60285.0 0.00001659 59736.97656 60078.65234
60229.0 0.00001660 59789.01172 60118.31250
60190.0 0.00001661 59841.02734 60159.38672
60145.0 0.00001663 59893.01953 60201.71094
60108.0 0.00001664 59944.98047 60246.25781
60078.0 0.00001665 59996.93359 60290.76563
60111.0 0.00001664 60048.85938 60336.25391
60169.0 0.00001662 60100.76953 60382.67188
60207.0 0.00001661 60152.64844 60429.99219
60271.0 0.00001659 60204.51563 60478.27344
60320.0 0.00001658 60256.37109 60527.54297
60379.0 0.00001656 60308.20703 60578.45703
60465.0 0.00001654 60360.02734 60630.16016
60561.0 0.00001651 60411.83203 60683.41797
60628.0 0.00001649 60463.62891 60738.59375
60693.0 0.00001648 60515.40625 60796.08203
60775.0 0.00001645 60567.17578 60856.39844
60872.0 0.00001643 60618.93750 60920.10547
60957.0 0.00001641 60670.69141 60987.76563
61068.0 0.00001638 60722.43359 61059.93750
61161.0 0.00001635 60774.17188 61136.99609
61293.0 0.00001632 60825.90234 61219.15625
61438.0 0.00001628 60877.62109 61306.27344
61611.0 0.00001623 60929.33594 61397.76172
61840.0 0.00001617 60981.06250 61492.39453
61967.0 0.00001614 61032.77344 61588.10156
61994.0 0.00001613 61084.48047 61681.71094
61906.0 0.00001615 61136.19922 61769.01563
61840.0 0.00001617 61187.90625 61845.42188
61791.0 0.00001618 61239.62500 61907.22656
61754.0 0.00001619 61291.34375 61953.17578
61766.0 0.00001619 61343.07031 61984.99219
61770.0 0.00001619 61394.80469 62010.97266
61844.0 0.00001617 61446.53125 62026.62109
61859.0 0.00001617 61498.27734 62040.16406
61883.0 0.00001616 61550.02734 62054.32813
61959.0 0.00001614 61601.78906 62070.82813
62040.0 0.00001612 61653.55469 62090.77344
62084.0 0.00001611 61705.33594 62114.69141
62164.0 0.00001609 61757.13281 62142.86719
62263.0 0.00001606 61808.94531 62175.35156
62350.0 0.00001604 61860.75781 62212.07422
62446.0 0.00001601 61912.58984 62252.82031
62508.0 0.00001600 61964.44531 62297.34766
62585.0 0.00001598 62016.32031 62345.48828
62633.0 0.00001597 62068.21094 62397.09375
62657.0 0.00001596 62120.12109 62452.16406
62692.0 0.00001595 62172.05469 62510.94141
62715.0 0.00001595 62224.00781 62573.88281
62736.0 0.00001594 62275.98438 62641.71094
62733.0 0.00001594 62327.98438 62715.55859
62731.0 0.00001594 62380.00781 62796.97266
62750.0 0.00001594 62432.06641 62887.84766
62767.0 0.00001593 62484.14453 62990.57813
62794.0 0.00001593 62536.25000 63107.92188
62873.0 0.00001591 62588.38672 63242.78516
63033.0 0.00001586 62640.55078 63398.20313
63185.0 0.00001583 62692.75000 63576.82422
63294.0 0.00001580 62744.97656 63780.68359
63447.0 0.00001576 62797.24219 64010.70703
63706.0 0.00001570 62849.53125 64266.19531
64042.0 0.00001561 62901.87500 64544.21875
64636.0 0.00001547 62954.23438 64838.90234
65505.0 0.00001527 63006.64844 65140.34766
66590.0 0.00001502 63059.09375 65433.83203
67462.0 0.00001482 63111.58984 65699.34375
67795.0 0.00001475 63164.10547 65913.35156
67697.0 0.00001477 63216.67188 66053.49219
67349.0 0.00001485 63269.28906 66105.74219
66739.0 0.00001498 63321.94531 66070.10156
66046.0 0.00001514 63374.64453 65960.46875
65484.0 0.00001527 63427.37891 65799.10938
65235.0 0.00001533 63480.17188 65609.64844
65193.0 0.00001534 63533.01172 65412.07813
65203.0 0.00001534 63585.89453 65221.15625
65049.0 0.00001537 63638.83203 65046.75781
64769.0 0.00001544 63691.82422 64894.79297
64537.0 0.00001549 63744.85156 64768.21484
64385.0 0.00001553 63797.94531 64667.69141
64287.0 0.00001556 63851.08203 64592.29688
64258.0 0.00001556 63904.28125 64539.98828
64227.0 0.00001557 63957.53125 64508.04297
64147.0 0.00001559 64010.84375 64493.46094
64172.0 0.00001558 64064.19922 64493.21875
64197.0 0.00001558 64117.62500 64504.55469
64224.0 0.00001557 64171.10938 64525.01953
64253.0 0.00001556 64224.64453 64552.60156
64266.0 0.00001556 64278.23828 64585.64453
64298.0 0.00001555 64331.89844 64622.92578
64341.0 0.00001554 64385.61719 64663.46875
64373.0 0.00001553 64439.40625 64706.64063
64426.0 0.00001552 64493.24609 64751.92188
64466.0 0.00001551 64547.15625 64798.97656
64511.0 0.00001550 64601.12500 64847.55078
64558.0 0.00001549 64655.17578 64897.51172
64652.0 0.00001547 64709.28516 64948.76563
64688.0 0.00001546 64763.44922 65001.22656
64745.0 0.00001545 64817.69141 65054.90625
64829.0 0.00001543 64872.01172 65109.83203
64911.0 0.00001541 64926.39063 65166.10938
64992.0 0.00001539 64980.83203 65223.81250
65086.0 0.00001536 65035.35547 65283.19141
65189.0 0.00001534 65089.94531 65344.53516
65285.0 0.00001532 65144.61328 65408.18750
65344.0 0.00001530 65199.34375 65474.68359
65432.0 0.00001528 65254.14453 65544.70313
65536.0 0.00001526 65309.03125 65619.02344
65642.0 0.00001523 65363.99219 65698.58594
65772.0 0.00001520 65419.00391 65784.46094
65876.0 0.00001518 65474.10938 65877.88281
65969.0 0.00001516 65529.28906 65980.02344
66098.0 0.00001513 65584.56250 66092.13281
66216.0 0.00001510 65639.88281 66215.25000
66303.0 0.00001508 65695.29688 66350.23438
66434.0 0.00001505 65750.78125 66497.49219
66539.0 0.00001503 65806.33594 66656.91406
66656.0 0.00001500 65861.98438 66827.64063
66778.0 0.00001497 65917.71094 67007.77344
66978.0 0.00001493 65973.51563 67194.18750
67167.0 0.00001489 66029.39844 67381.96094
67385.0 0.00001484 66085.35156 67564.49219
67674.0 0.00001478 66141.39063 67733.71094
67990.0 0.00001471 66197.50781 67881.53906
68321.0 0.00001464 66253.69531 68001.63281
68477.0 0.00001460 66309.98438 68091.51563
68605.0 0.00001458 66366.33594 68152.77344
68758.0 0.00001454 66422.78125 68190.35938
68986.0 0.00001450 66479.29688 68209.79688
69064.0 0.00001448 66535.89063 68215.56250
68868.0 0.00001452 66592.57813 68210.05469
68519.0 0.00001459 66649.35156 68193.91406
68217.0 0.00001466 66706.17969 68167.15625
67993.0 0.00001471 66763.10938 68130.69531
67801.0 0.00001475 66820.11719 68086.66406
67696.0 0.00001477 66877.19531 68038.63281
67641.0 0.00001478 66934.36719 67990.31250
67578.0 0.00001480 66991.61719 67945.20313
67581.0 0.00001480 67048.94531 67905.75781
67562.0 0.00001480 67106.35156 67873.74219
67584.0 0.00001480 67163.84375 67850.17969
67646.0 0.00001478 67221.42188 67835.41406
67688.0 0.00001477 67279.05469 67829.49219
67728.0 0.00001476 67336.78906 67832.10156
67817.0 0.00001475 67394.59375 67842.64844
67866.0 0.00001473 67452.48438 67860.45313
67950.0 0.00001472 67510.45313 67884.79688
68029.0 0.00001470 67568.49219 67914.80469
68114.0 0.00001468 67626.59375 67949.74219
68205.0 0.00001466 67684.79688 67988.85156
68270.0 0.00001465 67743.06250 68031.60938
68338.0 0.00001463 67801.41406 68077.42969
68426.0 0.00001461 67859.82813 68125.86719
68468.0 0.00001461 67918.33594 68176.57031
68534.0 0.00001459 67976.89063 68229.32813
68610.0 0.00001458 68035.53906 68283.87500
68623.0 0.00001457 68094.25000 68340.15625
68637.0 0.00001457 68153.03125 68398.10156
68668.0 0.00001456 68211.88281 68457.70313
68664.0 0.00001456 68270.82031 68519.03906
68712.0 0.00001455 68329.81250 68582.20313
68735.0 0.00001455 68388.86719 68646.26563
68796.0 0.00001454 68448.00000 68713.79688
68794.0 0.00001454 68507.17969 68783.97656
68836.0 0.00001453 68566.43750 68857.20313
68889.0 0.00001452 68625.75781 68933.90625
68952.0 0.00001450 68685.13281 69014.56250
68991.0 0.00001449 68744.57813 69099.67969
69016.0 0.00001449 68804.08594 69189.67969
69093.0 0.00001447 68863.64063 69284.96094
69127.0 0.00001447 68923.25781 69385.71875
69205.0 0.00001445 68982.93750 69492.03125
69298.0 0.00001443 69042.64063 69603.71875
69415.0 0.00001441 69102.42969 69720.32031
69579.0 0.00001437 69162.25000 69840.94531
69829.0 0.00001432 69222.13281 69964.31250
70138.0 0.00001426 69282.04688 70088.46875
70581.0 0.00001417 69342.02344 70210.72656
71071.0 0.00001407 69402.02344 70327.74219
71433.0 0.00001400 69462.10156 70435.67969
71522.0 0.00001398 69522.17969 70530.92969
71339.0 0.00001402 69582.31250 70611.00000
71014.0 0.00001408 69642.47656 70675.37500
70717.0 0.00001414 69702.68750 70725.83594
70498.0 0.00001418 69762.92188 70766.26563
70382.0 0.00001421 69823.17969 70801.57813
70330.0 0.00001422 69883.49219 70836.76563
70334.0 0.00001422 69943.80469 70876.39844
70347.0 0.00001422 70004.14063 70924.23438
70466.0 0.00001419 70064.50781 70983.28125
70666.0 0.00001415 70124.88281 71055.69531
70828.0 0.00001412 70185.28906 71142.88281
70950.0 0.00001409 70245.69531 71245.55469
70963.0 0.00001409 70306.11719 71363.55469
70938.0 0.00001410 70366.54688 71496.00781
70961.0 0.00001409 70426.98438 71641.07031
71082.0 0.00001407 70487.41406 71795.82813
71289.0 0.00001403 70547.86719 71956.34375
71615.0 0.00001396 70608.28906 72117.43750
72078.0 0.00001387 70668.71875 72273.13281
72642.0 0.00001377 70729.13281 72417.02344
73321.0 0.00001364 70789.52344 72543.58594
73970.0 0.00001352 70849.92188 72649.14844
74378.0 0.00001344 70910.30469 72732.60938
74315.0 0.00001346 70970.64063 72795.32813
73880.0 0.00001354 71030.96094 72840.26563
73414.0 0.00001362 71091.26563 72871.09375
73112.0 0.00001368 71151.52344 72891.42188
72939.0 0.00001371 71211.73438 72905.28125
72798.0 0.00001374 71271.93750 72917.17969
72755.0 0.00001374 71332.06250 72932.35938
72743.0 0.00001375 71392.17188 72956.54688
72748.0 0.00001375 71452.20313 72995.53125
72750.0 0.00001375 71512.17969 73054.73438
72773.0 0.00001374 71572.10938 73138.67188
72803.0 0.00001374 71631.97656 73251.17969
72869.0 0.00001372 71691.78125 73394.85156
72929.0 0.00001371 71751.49219 73571.22656
72981.0 0.00001370 71811.14063 73780.75000
73060.0 0.00001369 71870.71094 74022.52344
73142.0 0.00001367 71930.18750 74294.13281
73267.0 0.00001365 71989.59375 74591.49219
73417.0 0.00001362 72048.87500 74908.50000
73559.0 0.00001359 72108.08594 75236.62500
73812.0 0.00001355 72167.17188 75564.60156
74158.0 0.00001348 72226.16406 75878.10156
74653.0 0.00001340 72285.03125 76160.17188
75524.0 0.00001324 72343.78125 76392.57031
76787.0 0.00001302 72402.39844 76558.36719
78357.0 0.00001276 72460.90625 76645.35156
79153.0 0.00001263 72519.26563 76649.23438
78663.0 0.00001271 72577.49219 76574.60938
77617.0 0.00001288 72635.57031 76433.59375
76926.0 0.00001300 72693.48438 76242.68750
76806.0 0.00001302 72751.25000 76019.48438
77155.0 0.00001296 72808.86719 75779.92188
77662.0 0.00001288 72866.28906 75537.24219
77733.0 0.00001286 72923.55469 75301.63281
77095.0 0.00001297 72980.62500 75080.45313
76152.0 0.00001313 73037.52344 74878.71875
75383.0 0.00001327 73094.21875 74699.68750
74805.0 0.00001337 73150.72656 74544.86719
74436.0 0.00001343 73207.00781 74414.60938
74195.0 0.00001348 73263.10156 74308.26563
74007.0 0.00001351 73318.95313 74224.56250
73891.0 0.00001353 73374.59375 74161.44531
73802.0 0.00001355 73429.99219 74116.83594
73775.0 0.00001355 73485.15625 74088.34375
73738.0 0.00001356 73540.06250 74073.61719
73739.0 0.00001356 73594.73438 74070.50000
73728.0 0.00001356 73649.12500 74076.94531
73781.0 0.00001355 73703.25000 74091.13281
73825.0 0.00001355 73757.10938 74111.53906
73850.0 0.00001354 73810.67188 74136.85938
73888.0 0.00001353 73863.96094 74166.10938
73939.0 0.00001352 73916.93750 74198.37500
73962.0 0.00001352 73969.60156 74232.99219
74007.0 0.00001351 74021.96875 74269.46094
74096.0 0.00001350 74073.99219 74307.39063
74157.0 0.00001348 74125.69531 74346.42969
74208.0 0.00001348 74177.04688 74386.32031
74255.0 0.00001347 74228.04688 74426.89844
74335.0 0.00001345 74278.70313 74468.06250
74379.0 0.00001344 74329.00000 74509.60156
74376.0 0.00001345 74378.89844 74543.87500
74399.0 0.00001344 74428.43750 74586.00781
74465.0 0.00001343 74477.56250 74628.29688
74513.0 0.00001342 74526.29688 74670.73438
74563.0 0.00001341 74574.62500 74713.17969
74602.0 0.00001340 74622.52344 74755.64063
74640.0 0.00001340 74669.99219 74798.08594
74754.0 0.00001338 74717.03125 74840.44531
74823.0 0.00001336 74763.60938 74882.67969
74856.0 0.00001336 74809.73438 74924.79688
74839.0 0.00001336 74855.37500 74966.75000
74884.0 0.00001335 74900.54688 75008.53125
74971.0 0.00001334 74945.23438 75050.07031
75054.0 0.00001332 74989.41406 75091.38281
75147.0 0.00001331 75033.08594 75132.43750
75226.0 0.00001329 75076.23438 75173.21094
75285.0 0.00001328 75118.85938 75213.68750
75357.0 0.00001327 75160.91406 75253.81250
75397.0 0.00001326 75202.42969 75293.59375
75440.0 0.00001326 75243.39063 75333.00000
75511.0 0.00001324 75283.75000 75371.99219
75545.0 0.00001324 75323.53906 75410.53906
75567.0 0.00001323 75362.72656 75448.60938
75577.0 0.00001323 75401.29688 75486.17188
75587.0 0.00001323 75439.24219 75523.14844
75584.0 0.00001323 75476.56250 75559.53125
75600.0 0.00001323 75513.21094 75595.25000
75624.0 0.00001322 75549.21094 75630.26563
75674.0 0.00001321 75584.53906 75664.53906
75658.0 0.00001322 75619.17188 75698.08594
75673.0 0.00001321 75653.10938 75730.85156
75740.0 0.00001320 75686.34375 75762.92188
75749.0 0.00001320 75718.84375 75794.23438
75768.0 0.00001320 75750.61719 75824.86719
75779.0 0.00001320 75781.62500 75854.85156
75841.0 0.00001319 75811.87500 75884.20313
75859.0 0.00001318 75841.34375 75912.91406
75927.0 0.00001317 75870.00781 75940.98438
75973.0 0.00001316 75897.89063 75968.39063
75992.0 0.00001316 75924.93750 75995.13281
76007.0 0.00001316 75951.14844 76021.17969
76057.0 0.00001315 75976.52344 76046.40625
76131.0 0.00001314 76001.01563 76070.78906
76197.0 0.00001312 76024.64063 76094.16406
76248.0 0.00001312 76047.35938 76260.93750
76295.0 0.00001311 76069.17188 76283.37500
76371.0 0.00001309 76090.05469 76369.10156
76374.0 0.00001309 76110.01563 76438.24219
76363.0 0.00001310 76129.01563 76457.81250
76373.0 0.00001309 76147.03125 76476.12500
76414.0 0.00001309 76164.06250 76493.24219
76478.0 0.00001308 76180.10156 76509.22656
76593.0 0.00001306 76195.10938 76524.14844
76653.0 0.00001305 76209.07813 76538.03906
76724.0 0.00001303 76221.99219 76550.94531
76800.0 . . .
76834.0 . . .
76881.0 . . .
76958.0 . . .
77029.0 . . .
77026.0 . . .
77081.0 . . .
77100.0 . . .
77126.0 . . .
77124.0 . . .
77195.0 . . .
77240.0 . . .
77269.0 . . .
77289.0 . . .
77281.0 . . .
77267.0 . . .
77237.0 . . .
77247.0 . . .
77299.0 . . .
77322.0 . . .
77353.0 . . .
77367.0 . . .
77401.0 . . .
77424.0 . . .
77433.0 . . .
77445.0 . . .
77480.0 . . .
77470.0 . . .
77498.0 . . .
77511.0 . . .
77558.0 . . .
77588.0 . . .
77592.0 . . .
77613.0 . . .
77729.0 . . .
77796.0 . . .
77833.0 . . .
77858.0 . . .
77962.0 . . .
78116.0 . . .
78318.0 . . .
78548.0 . . .
78768.0 . . .
78865.0 . . .
78773.0 . . .
78644.0 . . .
78545.0 . . .
78492.0 . . .
78448.0 . . .
78389.0 . . .
78381.0 . . .
78402.0 . . .
78458.0 . . .
78521.0 . . .
78539.0 . . .
78530.0 . . .
78584.0 . . .
78588.0 . . .
78641.0 . . .
78651.0 . . .
78698.0 . . .
78764.0 . . .
78839.0 . . .
78908.0 . . .
78996.0 . . .
79099.0 . . .
79182.0 . . .
79229.0 . . .
79248.0 . . .
79246.0 . . .
79268.0 . . .
79323.0 . . .
79347.0 . . .
79408.0 . . .
79490.0 . . .
79573.0 . . .
79619.0 . . .
79659.0 . . .
79739.0 . . .
79823.0 . . .
79880.0 . . .
79960.0 . . .
80036.0 . . .
80111.0 . . .
80186.0 . . .
80273.0 . . .
80341.0 . . .
80417.0 . . .
80484.0 . . .
80494.0 . . .
80560.0 . . .
80599.0 . . .
80627.0 . . .
80644.0 . . .
80651.0 . . .
80673.0 . . .
80687.0 . . .
80687.0 . . .
80698.0 . . .
80727.0 . . .
80810.0 . . .
80822.0 . . .
80850.0 . . .
80912.0 . . .
80957.0 . . .
81015.0 . . .
81053.0 . . .
81080.0 . . .
81135.0 . . .
81195.0 . . .
81272.0 . . .
81308.0 . . .
81308.0 . . .
81309.0 . . .
81301.0 . . .
81316.0 . . .
81333.0 . . .
81356.0 . . .
81371.0 . . .
81416.0 . . .
81477.0 . . .
81531.0 . . .
81578.0 . . .
81639.0 . . .
81649.0 . . .
81639.0 . . .
81689.0 . . .
81776.0 . . .
81808.0 . . .
81862.0 . . .
81886.0 . . .
81923.0 . . .
81958.0 . . .
81982.0 . . .
82027.0 . . .
82123.0 . . .
82175.0 . . .
82242.0 . . .
82293.0 . . .
82318.0 . . .
82385.0 . . .
82415.0 . . .
82415.0 . . .
82421.0 . . .
82469.0 . . .
82490.0 . . .
82490.0 . . .
82515.0 . . .
82538.0 . . .
82561.0 . . .
82570.0 . . .
82614.0 . . .
82704.0 . . .
82786.0 . . .
82815.0 . . .
82853.0 . . .
82905.0 . . .
82950.0 . . .
83009.0 . . .
83115.0 . . .
83262.0 . . .
83394.0 . . .
83566.0 . . .
83742.0 . . .
83830.0 . . .
83837.0 . . .
83782.0 . . .
83745.0 . . .
83724.0 . . .
83656.0 . . .
83628.0 . . .
83620.0 . . .
83611.0 . . .
83615.0 . . .
83659.0 . . .
83679.0 . . .
83732.0 . . .
83794.0 . . .
83825.0 . . .
83853.0 . . .
83911.0 . . .
83954.0 . . .
83970.0 . . .
83997.0 . . .
84068.0 . . .
84101.0 . . .
84127.0 . . .
84147.0 . . .
84180.0 . . .
84243.0 . . .
84277.0 . . .
84297.0 . . .
84353.0 . . .
84418.0 . . .
84449.0 . . .
84480.0 . . .
84586.0 . . .
84707.0 . . .
84850.0 . . .
85011.0 . . .
85094.0 . . .
85117.0 . . .
85102.0 . . .
85093.0 . . .
85058.0 . . .
85043.0 . . .
85028.0 . . .
85001.0 . . .
85030.0 . . .
85065.0 . . .
85125.0 . . .
85169.0 . . .
85200.0 . . .
85260.0 . . .
85331.0 . . .
85391.0 . . .
85430.0 . . .
85476.0 . . .
85525.0 . . .
85609.0 . . .
85678.0 . . .
85725.0 . . .
85828.0 . . .
85906.0 . . .
85958.0 . . .
86066.0 . . .
86222.0 . . .
86310.0 . . .
86425.0 . . .
86579.0 . . .
86774.0 . . .
86964.0 . . .
87104.0 . . .
87159.0 . . .
87212.0 . . .
87202.0 . . .
87218.0 . . .
87248.0 . . .
87314.0 . . .
87389.0 . . .
87490.0 . . .
87517.0 . . .
87533.0 . . .
87565.0 . . .
87579.0 . . .
87604.0 . . .
87672.0 . . .
87738.0 . . .
87784.0 . . .
87883.0 . . .
87995.0 . . .
88171.0 . . .
88316.0 . . .
88429.0 . . .
88545.0 . . .
88620.0 . . .
88638.0 . . .
88574.0 . . .
88510.0 . . .
88534.0 . . .
88556.0 . . .
88545.0 . . .
88561.0 . . .
88596.0 . . .
88663.0 . . .
88710.0 . . .
88777.0 . . .
88847.0 . . .
88878.0 . . .
88909.0 . . .
88910.0 . . .
88935.0 . . .
88967.0 . . .
89011.0 . . .
89038.0 . . .
89088.0 . . .
89181.0 . . .
89242.0 . . .
89259.0 . . .
89295.0 . . .
89325.0 . . .
89303.0 . . .
89257.0 . . .
89217.0 . . .
89191.0 . . .
89174.0 . . .
89114.0 . . .
89066.0 . . .
89044.0 . . .
89058.0 . . .
89053.0 . . .
89029.0 . . .
89043.0 . . .
89050.0 . . .
89050.0 . . .
89028.0 . . .
89055.0 . . .
89087.0 . . .
89158.0 . . .
89220.0 . . .
89229.0 . . .
89263.0 . . .
89316.0 . . .
89359.0 . . .
89386.0 . . .
89409.0 . . .
89483.0 . . .
89557.0 . . .
89673.0 . . .
89731.0 . . .
89809.0 . . .
89832.0 . . .
89777.0 . . .
89721.0 . . .
89671.0 . . .
89662.0 . . .
89644.0 . . .
89635.0 . . .
89605.0 . . .
89624.0 . . .
89645.0 . . .
89648.0 . . .
89669.0 . . .
89692.0 . . .
89705.0 . . .
89725.0 . . .
89775.0 . . .
89806.0 . . .
89811.0 . . .
89843.0 . . .
89881.0 . . .
89955.0 . . .
89998.0 . . .
90040.0 . . .
90087.0 . . .
90154.0 . . .
90214.0 . . .
90238.0 . . .
90269.0 . . .
90314.0 . . .
90359.0 . . .
90402.0 . . .
90442.0 . . .
90488.0 . . .
90517.0 . . .
90532.0 . . .
90566.0 . . .
90571.0 . . .
90548.0 . . .
90558.0 . . .
90565.0 . . .
90579.0 . . .
90608.0 . . .
90640.0 . . .
90659.0 . . .
90643.0 . . .
90658.0 . . .
90664.0 . . .
90676.0 . . .
90674.0 . . .
90715.0 . . .
90738.0 . . .
90743.0 . . .
90781.0 . . .
90824.0 . . .
90848.0 . . .
90857.0 . . .
90910.0 . . .
90926.0 . . .
90911.0 . . .
90932.0 . . .
90937.0 . . .
90958.0 . . .
90962.0 . . .
90989.0 . . .
91034.0 . . .
91036.0 . . .
91057.0 . . .
91060.0 . . .
91090.0 . . .
91106.0 . . .
91138.0 . . .
91141.0 . . .
91180.0 . . .
91185.0 . . .
91217.0 . . .
91247.0 . . .
91271.0 . . .
91283.0 . . .
91304.0 . . .
91334.0 . . .
91371.0 . . .
91426.0 . . .
91476.0 . . .
91508.0 . . .
91528.0 . . .
91577.0 . . .
91621.0 . . .
91651.0 . . .
91681.0 . . .
91735.0 . . .
91796.0 . . .
91823.0 . . .
91867.0 . . .
91905.0 . . .
91993.0 . . .
92078.0 . . .
92201.0 . . .
92323.0 . . .
92396.0 . . .
92443.0 . . .
92453.0 . . .
92461.0 . . .
92445.0 . . .
92468.0 . . .
92514.0 . . .
92606.0 . . .
92670.0 . . .
92765.0 . . .
92879.0 . . .
92900.0 . . .
92883.0 . . .
92872.0 . . .
92827.0 . . .
92789.0 . . .
92773.0 . . .
92727.0 . . .
92765.0 . . .
92795.0 . . .
92798.0 . . .
92803.0 . . .
92802.0 . . .
92811.0 . . .
92845.0 . . .
92896.0 . . .
92923.0 . . .
92940.0 . . .
92987.0 . . .
93055.0 . . .
93123.0 . . .
93157.0 . . .
93242.0 . . .
93286.0 . . .
93299.0 . . .
93333.0 . . .
93359.0 . . .
93358.0 . . .
93375.0 . . .
93402.0 . . .
93443.0 . . .
93471.0 . . .
93487.0 . . .
93551.0 . . .
93584.0 . . .
93595.0 . . .
93644.0 . . .
93678.0 . . .
93739.0 . . .
93758.0 . . .
93766.0 . . .
93787.0 . . .
93852.0 . . .
93885.0 . . .
93922.0 . . .
93952.0 . . .
94026.0 . . .
94038.0 . . .
94056.0 . . .
94148.0 . . .
94221.0 . . .
94314.0 . . .
94393.0 . . .
94437.0 . . .
94481.0 . . .
94493.0 . . .
94485.0 . . .
94437.0 . . .
94445.0 . . .
94446.0 . . .
94470.0 . . .
94508.0 . . .
94515.0 . . .
94472.0 . . .
94451.0 . . .
94422.0 . . .
94379.0 . . .
94358.0 . . .
94342.0 . . .
94371.0 . . .
94380.0 . . .
94433.0 . . .
94461.0 . . .
94493.0 . . .
94504.0 . . .
94540.0 . . .
94558.0 . . .
94592.0 . . .
94606.0 . . .
94634.0 . . .
94656.0 . . .
94670.0 . . .
94701.0 . . .
94753.0 . . .
94769.0 . . .
94779.0 . . .
94799.0 . . .
94823.0 . . .
94871.0 . . .
94908.0 . . .
94932.0 . . .
94979.0 . . .
95023.0 . . .
95081.0 . . .
95134.0 . . .
95232.0 . . .
95318.0 . . .
95366.0 . . .
95378.0 . . .
95369.0 . . .
95363.0 . . .
95404.0 . . .
95477.0 . . .
95576.0 . . .
95634.0 . . .
95698.0 . . .
95753.0 . . .
95806.0 . . .
95775.0 . . .
95761.0 . . .
95768.0 . . .
95779.0 . . .
95788.0 . . .
95810.0 . . .
95863.0 . . .
95932.0 . . .
96038.0 . . .
96087.0 . . .
96115.0 . . .
96155.0 . . .
96133.0 . . .
96084.0 . . .
96048.0 . . .
96042.0 . . .
96040.0 . . .
96067.0 . . .
96077.0 . . .
96043.0 . . .
96027.0 . . .
96031.0 . . .
96039.0 . . .
96039.0 . . .
96057.0 . . .
96062.0 . . .
96047.0 . . .
96080.0 . . .
96094.0 . . .
96112.0 . . .
96127.0 . . .
96137.0 . . .
96207.0 . . .
96203.0 . . .
96237.0 . . .
96245.0 . . .
96302.0 . . .
96361.0 . . .
96363.0 . . .
96397.0 . . .
96439.0 . . .
96489.0 . . .
96496.0 . . .
96557.0 . . .
96659.0 . . .
96746.0 . . .
96812.0 . . .
96899.0 . . .
96982.0 . . .
97023.0 . . .
97022.0 . . .
96955.0 . . .
96894.0 . . .
96856.0 . . .
96824.0 . . .
96833.0 . . .
96806.0 . . .
96773.0 . . .
96783.0 . . .
96808.0 . . .
96829.0 . . .
96869.0 . . .
96882.0 . . .
96891.0 . . .
96933.0 . . .
96975.0 . . .
97045.0 . . .
97086.0 . . .
97091.0 . . .
97137.0 . . .
97126.0 . . .
97127.0 . . .
97138.0 . . .
97174.0 . . .
97190.0 . . .
97220.0 . . .
97263.0 . . .
97279.0 . . .
97267.0 . . .
97287.0 . . .
97329.0 . . .
97330.0 . . .
97282.0 . . .
97302.0 . . .
97295.0 . . .
97298.0 . . .
97297.0 . . .
97282.0 . . .
97340.0 . . .
97304.0 . . .
97303.0 . . .
97336.0 . . .
97365.0 . . .
97409.0 . . .
97416.0 . . .
97446.0 . . .
97451.0 . . .
97445.0 . . .
97463.0 . . .
97464.0 . . .
97447.0 . . .
97453.0 . . .
97507.0 . . .
97512.0 . . .
97576.0 . . .
97607.0 . . .
97643.0 . . .
97681.0 . . .
97710.0 . . .
97764.0 . . .
97775.0 . . .
97780.0 . . .
97833.0 . . .
97857.0 . . .
97879.0 . . .
97901.0 . . .
97932.0 . . .
97978.0 . . .
98013.0 . . .
98066.0 . . .
98091.0 . . .
98105.0 . . .
98157.0 . . .
98213.0 . . .
98248.0 . . .
98261.0 . . .
98318.0 . . .
98367.0 . . .
98391.0 . . .
98395.0 . . .
98385.0 . . .
98410.0 . . .
98448.0 . . .
98442.0 . . .
98464.0 . . .
98497.0 . . .
98531.0 . . .
98569.0 . . .
98578.0 . . .
98636.0 . . .
98650.0 . . .
98687.0 . . .
98675.0 . . .
98668.0 . . .
98655.0 . . .
98638.0 . . .
98626.0 . . .
98645.0 . . .
98669.0 . . .
98728.0 . . .
98699.0 . . .
98695.0 . . .
98690.0 . . .
98690.0 . . .
98667.0 . . .
98659.0 . . .
98677.0 . . .
98673.0 . . .
98678.0 . . .
98729.0 . . .
98808.0 . . .
98853.0 . . .
98844.0 . . .
98876.0 . . .
98886.0 . . .
98897.0 . . .
98930.0 . . .
98941.0 . . .
98998.0 . . .
99035.0 . . .
99103.0 . . .
99190.0 . . .
99275.0 . . .
99340.0 . . .
99359.0 . . .
99306.0 . . .
99278.0 . . .
99215.0 . . .
99118.0 . . .
99043.0 . . .
99025.0 . . .
99028.0 . . .
99008.0 . . .
99018.0 . . .
99018.0 . . .
99029.0 . . .
99050.0 . . .
99073.0 . . .
99081.0 . . .
99093.0 . . .
99120.0 . . .
99184.0 . . .
99225.0 . . .
99249.0 . . .
99233.0 . . .
99249.0 . . .
99244.0 . . .
99222.0 . . .
99239.0 . . .
99254.0 . . .
99246.0 . . .
99287.0 . . .
99284.0 . . .
99278.0 . . .
99296.0 . . .
99268.0 . . .
99266.0 . . .
99225.0 . . .
99192.0 . . .
99238.0 . . .
99263.0 . . .
99270.0 . . .
99257.0 . . .
99220.0 . . .
99220.0 . . .
99233.0 . . .
99245.0 . . .
99229.0 . . .
99228.0 . . .
99278.0 . . .
99293.0 . . .
99309.0 . . .
99318.0 . . .
99347.0 . . .
99350.0 . . .
99358.0 . . .
99372.0 . . .
99395.0 . . .
99393.0 . . .
99402.0 . . .
99432.0 . . .
99500.0 . . .
99548.0 . . .
99564.0 . . .
99579.0 . . .
99550.0 . . .
99490.0 . . .
99427.0 . . .
99355.0 . . .
99292.0 . . .
99217.0 . . .
99172.0 . . .
99134.0 . . .
99119.0 . . .
99126.0 . . .
99099.0 . . .
99089.0 . . .
99058.0 . . .
99074.0 . . .
99090.0 . . .
99063.0 . . .
99041.0 . . .
99057.0 . . .
99065.0 . . .
99046.0 . . .
99036.0 . . .
99035.0 . . .
98992.0 . . .
98986.0 . . .
98980.0 . . .
99038.0 . . .
99067.0 . . .
99071.0 . . .
99066.0 . . .
99079.0 . . .
99098.0 . . .
99100.0 . . .
99073.0 . . .
99095.0 . . .
99092.0 . . .
99061.0 . . .
99083.0 . . .
99092.0 . . .
99068.0 . . .
99054.0 . . .
99038.0 . . .
98991.0 . . .
98914.0 . . .
98786.0 . . .
98653.0 . . .
98487.0 . . .
98280.0 . . .
98059.0 . . .
97855.0 . . .
97575.0 . . .
97288.0 . . .
96945.0 . . .
96692.0 . . .
97319.0 . . .
97577.0 . . .
97726.0 . . .
97823.0 . . .
97902.0 . . .
97969.0 . . .
98029.0 . . .
98084.0 . . .
98104.0 . . .
98096.0 . . .
98128.0 . . .
98149.0 . . .
98153.0 . . .
98181.0 . . .
98167.0 . . .
98161.0 . . .
98202.0 . . .
98213.0 . . .
98222.0 . . .
98195.0 . . .
98171.0 . . .
98155.0 . . .
98138.0 . . .
98119.0 . . .
98145.0 . . .
98117.0 . . .
98072.0 . . .
98057.0 . . .
98034.0 . . .
98067.0 . . .
98113.0 . . .
98111.0 . . .
98097.0 . . .
98110.0 . . .
98113.0 . . .
98094.0 . . .
98091.0 . . .
98110.0 . . .
98133.0 . . .
98099.0 . . .
98101.0 . . .
98072.0 . . .
98068.0 . . .
98087.0 . . .
98109.0 . . .
98106.0 . . .
98054.0 . . .
98042.0 . . .
98046.0 . . .
98026.0 . . .
98014.0 . . .
98033.0 . . .
98037.0 . . .
98022.0 . . .
98010.0 . . .
98037.0 . . .
98052.0 . . .
98048.0 . . .
98038.0 . . .
98017.0 . . .
97982.0 . . .
97935.0 . . .
97927.0 . . .
97932.0 . . .
97895.0 . . .
97901.0 . . .
97893.0 . . .
97881.0 . . .
97878.0 . . .
97877.0 . . .
97877.0 . . .
97866.0 . . .
97874.0 . . .
97806.0 . . .
97782.0 . . .
97768.0 . . .
97776.0 . . .
97770.0 . . .
97755.0 . . .
97768.0 . . .
97748.0 . . .
97684.0 . . .
97684.0 . . .
97670.0 . . .
97665.0 . . .
97684.0 . . .
97668.0 . . .
97641.0 . . .
97587.0 . . .
97575.0 . . .
97562.0 . . .
97574.0 . . .
97581.0 . . .
97605.0 . . .
97594.0 . . .
97544.0 . . .
97529.0 . . .
97526.0 . . .
97544.0 . . .
97524.0 . . .
97524.0 . . .
97507.0 . . .
97519.0 . . .
97554.0 . . .
97538.0 . . .
97472.0 . . .
97453.0 . . .
97460.0 . . .
97497.0 . . .
97518.0 . . .
97534.0 . . .
97531.0 . . .
97525.0 . . .
97520.0 . . .
97455.0 . . .
97412.0 . . .
97440.0 . . .
97453.0 . . .
97442.0 . . .
97460.0 . . .
97440.0 . . .
97395.0 . . .
97385.0 . . .
97370.0 . . .
97348.0 . . .
97360.0 . . .
97364.0 . . .
97350.0 . . .
97340.0 . . .
97357.0 . . .
97390.0 . . .
97369.0 . . .
97352.0 . . .
97368.0 . . .
97377.0 . . .
97370.0 . . .
97321.0 . . .
97310.0 . . .
97317.0 . . .
97322.0 . . .
97339.0 . . .
97314.0 . . .
97266.0 . . .
97285.0 . . .
97236.0 . . .
97228.0 . . .
97251.0 . . .
97217.0 . . .
97163.0 . . .
97189.0 . . .
97229.0 . . .
97242.0 . . .
97247.0 . . .
97227.0 . . .
97246.0 . . .
97206.0 . . .
97197.0 . . .
97206.0 . . .
97202.0 . . .
97147.0 . . .
97149.0 . . .
97168.0 . . .
97196.0 . . .
97164.0 . . .
97110.0 . . .
97107.0 . . .
97108.0 . . .
97160.0 . . .
97183.0 . . .
97159.0 . . .
97107.0 . . .
97086.0 . . .
97137.0 . . .
97128.0 . . .
97130.0 . . .
97149.0 . . .
97117.0 . . .
97071.0 . . .
97067.0 . . .
97099.0 . . .
97091.0 . . .
97098.0 . . .
97112.0 . . .
97071.0 . . .
97044.0 . . .
97060.0 . . .
97048.0 . . .
97065.0 . . .
97052.0 . . .
97038.0 . . .
97053.0 . . .
97038.0 . . .
97056.0 . . .
97053.0 . . .
97048.0 . . .
97031.0 . . .
97019.0 . . .
97008.0 . . .
97014.0 . . .
97029.0 . . .
97025.0 . . .
96999.0 . . .
96945.0 . . .
96947.0 . . .
96917.0 . . .
96929.0 . . .
96953.0 . . .
96968.0 . . .
96951.0 . . .
96902.0 . . .
96848.0 . . .
96830.0 . . .
96830.0 . . .
96834.0 . . .
96850.0 . . .
96877.0 . . .
96882.0 . . .
96860.0 . . .
96793.0 . . .
96765.0 . . .
96707.0 . . .
96686.0 . . .
96672.0 . . .
96621.0 . . .
96595.0 . . .
96590.0 . . .
96574.0 . . .
96591.0 . . .
96572.0 . . .
96543.0 . . .
96516.0 . . .
96491.0 . . .
96477.0 . . .
96479.0 . . .
96488.0 . . .
96528.0 . . .
96528.0 . . .
96527.0 . . .
96585.0 . . .
96605.0 . . .
96595.0 . . .
96586.0 . . .
96576.0 . . .
96602.0 . . .
96650.0 . . .
96646.0 . . .
96733.0 . . .
96809.0 . . .
96833.0 . . .
96785.0 . . .
96718.0 . . .
96760.0 . . .
96805.0 . . .
96837.0 . . .
96844.0 . . .
96792.0 . . .
96777.0 . . .
96792.0 . . .
96826.0 . . .
96834.0 . . .
96849.0 . . .
96865.0 . . .
96867.0 . . .
96890.0 . . .
96874.0 . . .
96884.0 . . .
96889.0 . . .
96868.0 . . .
96899.0 . . .
96932.0 . . .
96940.0 . . .
96917.0 . . .
96938.0 . . .
96949.0 . . .
96929.0 . . .
96876.0 . . .
96900.0 . . .
96950.0 . . .
96951.0 . . .
96926.0 . . .
96889.0 . . .
96834.0 . . .
96774.0 . . .
96813.0 . . .
96819.0 . . .
96796.0 . . .
96798.0 . . .
96817.0 . . .
96825.0 . . .
96816.0 . . .
96806.0 . . .
96753.0 . . .
96731.0 . . .
96654.0 . . .
96673.0 . . .
96673.0 . . .
96664.0 . . .
96679.0 . . .
96660.0 . . .
96676.0 . . .
96641.0 . . .
96623.0 . . .
96631.0 . . .
96652.0 . . .
96625.0 . . .
96623.0 . . .
96571.0 . . .
96545.0 . . .
96581.0 . . .
96532.0 . . .
96513.0 . . .
96537.0 . . .
96515.0 . . .
96533.0 . . .
96519.0 . . .
96479.0 . . .
96448.0 . . .
96399.0 . . .
96383.0 . . .
96424.0 . . .
96443.0 . . .
96387.0 . . .
96274.0 . . .
96231.0 . . .
96250.0 . . .
96257.0 . . .
96231.0 . . .
96266.0 . . .
96312.0 . . .
96295.0 . . .
96261.0 . . .
96243.0 . . .
96285.0 . . .
96247.0 . . .
96204.0 . . .
96200.0 . . .
96181.0 . . .
96169.0 . . .
96138.0 . . .
96159.0 . . .
96150.0 . . .
96116.0 . . .
96109.0 . . .
96098.0 . . .
96101.0 . . .
96106.0 . . .
96075.0 . . .
96067.0 . . .
96080.0 . . .
96029.0 . . .
95963.0 . . .
95937.0 . . .
95902.0 . . .
95898.0 . . .
95869.0 . . .
95839.0 . . .
95815.0 . . .
95813.0 . . .
95747.0 . . .
95724.0 . . .
95734.0 . . .
95813.0 . . .
95783.0 . . .
95732.0 . . .
95702.0 . . .
95725.0 . . .
95740.0 . . .
95711.0 . . .
95677.0 . . .
95674.0 . . .
95679.0 . . .
95599.0 . . .
95580.0 . . .
95604.0 . . .
95616.0 . . .
95616.0 . . .
95555.0 . . .
95506.0 . . .
95491.0 . . .
95425.0 . . .
95402.0 . . .
95394.0 . . .
95409.0 . . .
95417.0 . . .
95399.0 . . .
95420.0 . . .
95487.0 . . .
95465.0 . . .
95425.0 . . .
95339.0 . . .
95280.0 . . .
95230.0 . . .
95193.0 . . .
95135.0 . . .
95138.0 . . .
95135.0 . . .
95185.0 . . .
95157.0 . . .
95119.0 . . .
95068.0 . . .
95065.0 . . .
95021.0 . . .
95100.0 . . .
95086.0 . . .
95076.0 . . .
95040.0 . . .
95031.0 . . .
95002.0 . . .
94937.0 . . .
94911.0 . . .
94927.0 . . .
94846.0 . . .
94783.0 . . .
94793.0 . . .
94810.0 . . .
94810.0 . . .
94798.0 . . .
94779.0 . . .
94783.0 . . .
94788.0 . . .
94686.0 . . .
94647.0 . . .
94694.0 . . .
94682.0 . . .
94676.0 . . .
94670.0 . . .
94674.0 . . .
94700.0 . . .
94673.0 . . .
94645.0 . . .
94602.0 . . .
94584.0 . . .
94588.0 . . .
94503.0 . . .
94476.0 . . .
94467.0 . . .
94507.0 . . .
94499.0 . . .
94535.0 . . .
94574.0 . . .
94583.0 . . .
94539.0 . . .
94459.0 . . .
94419.0 . . .
94384.0 . . .
94372.0 . . .
94390.0 . . .
94379.0 . . .
94371.0 . . .
94337.0 . . .
94292.0 . . .
94257.0 . . .
94299.0 . . .
94349.0 . . .
94343.0 . . .
94324.0 . . .
94307.0 . . .
94275.0 . . .
94191.0 . . .
94166.0 . . .
94132.0 . . .
94166.0 . . .
94155.0 . . .
94198.0 . . .
94209.0 . . .
94107.0 . . .
94067.0 . . .
94004.0 . . .
94021.0 . . .
94033.0 . . .
94098.0 . . .
94111.0 . . .
94063.0 . . .
93996.0 . . .
93994.0 . . .
93938.0 . . .
93899.0 . . .
93865.0 . . .
93904.0 . . .
93869.0 . . .
93799.0 . . .
93799.0 . . .
93867.0 . . .
93793.0 . . .
93742.0 . . .
93798.0 . . .
93834.0 . . .
93788.0 . . .
93807.0 . . .
93795.0 . . .
93805.0 . . .
93825.0 . . .
93807.0 . . .
93677.0 . . .
93621.0 . . .
93634.0 . . .
93628.0 . . .
93612.0 . . .
93703.0 . . .
93663.0 . . .
93650.0 . . .
93722.0 . . .
93707.0 . . .
93650.0 . . .
93525.0 . . .
93517.0 . . .
93552.0 . . .
93603.0 . . .
93620.0 . . .
93589.0 . . .
93569.0 . . .
93556.0 . . .
93544.0 . . .
93573.0 . . .
93533.0 . . .
93488.0 . . .
93433.0 . . .
93443.0 . . .
93495.0 . . .
93548.0 . . .
93473.0 . . .
93415.0 . . .
93513.0 . . .
93499.0 . . .
93471.0 . . .
93415.0 . . .
93457.0 . . .
93446.0 . . .
93400.0 . . .
93290.0 . . .
93211.0 . . .
93232.0 . . .
93226.0 . . .
93248.0 . . .
93255.0 . . .
93221.0 . . .
93155.0 . . .
93151.0 . . .
93133.0 . . .
93054.0 . . .
92970.0 . . .
92969.0 . . .
93059.0 . . .
93093.0 . . .
93099.0 . . .
93024.0 . . .
92982.0 . . .
92986.0 . . .
92952.0 . . .
92877.0 . . .
92854.0 . . .
92849.0 . . .
92883.0 . . .
92864.0 . . .
92779.0 . . .
92817.0 . . .
92848.0 . . .
92838.0 . . .
92714.0 . . .
92723.0 . . .
92741.0 . . .
92771.0 . . .
92823.0 . . .
92794.0 . . .
92749.0 . . .
92806.0 . . .
92807.0 . . .
92760.0 . . .
92705.0 . . .
92731.0 . . .
92709.0 . . .
92591.0 . . .
92657.0 . . .
92671.0 . . .
92663.0 . . .
92623.0 . . .
92561.0 . . .
92599.0 . . .
92588.0 . . .
92599.0 . . .
92507.0 . . .
92471.0 . . .
92439.0 . . .
92357.0 . . .
92309.0 . . .
92393.0 . . .
92331.0 . . .
92388.0 . . .
92372.0 . . .
92329.0 . . .
92361.0 . . .
92344.0 . . .
92316.0 . . .
92325.0 . . .
92268.0 . . .
92297.0 . . .
92293.0 . . .
92235.0 . . .
92139.0 . . .
92177.0 . . .
92158.0 . . .
92150.0 . . .
92079.0 . . .
92064.0 . . .
92001.0 . . .
92020.0 . . .
91921.0 . . .
91875.0 . . .
91932.0 . . .
91884.0 . . .
91811.0 . . .
91849.0 . . .
91863.0 . . .
91830.0 . . .
91740.0 . . .
91738.0 . . .
91653.0 . . .
91523.0 . . .
91432.0 . . .
91467.0 . . .
91475.0 . . .
91454.0 . . .
91427.0 . . .
91397.0 . . .
91317.0 . . .
91285.0 . . .
91230.0 . . .
91247.0 . . .
91186.0 . . .
91041.0 . . .
90989.0 . . .
91028.0 . . .
91064.0 . . .
90916.0 . . .
90839.0 . . .
90753.0 . . .
90756.0 . . .
90869.0 . . .
90828.0 . . .
90820.0 . . .
90846.0 . . .
90739.0 . . .
90637.0 . . .
90649.0 . . .
90781.0 . . .
90761.0 . . .
90756.0 . . .
90770.0 . . .
90623.0 . . .
90541.0 . . .
90510.0 . . .
90363.0 . . .
90346.0 . . .
90307.0 . . .
90284.0 . . .
90168.0 . . .
90092.0 . . .
90162.0 . . .
90079.0 . . .
90078.0 . . .
90027.0 . . .
89962.0 . . .
89946.0 . . .
89860.0 . . .
89651.0 . . .
89647.0 . . .
89633.0 . . .
89633.0 . . .
89393.0 . . .
89277.0 . . .
89249.0 . . .
89037.0 . . .
89113.0 . . .
88944.0 . . .
88759.0 . . .
88716.0 . . .
88811.0 . . .
88785.0 . . .
88688.0 . . .
88633.0 . . .
88632.0 . . .
88175.0 . . .
88170.0 . . .
88129.0 . . .
87819.0 . . .
87773.0 . . .
87401.0 . . .
87556.0 . . .
87217.0 . . .
87155.0 . . .
87080.0 . . .
87084.0 . . .
87020.0 . . .
86412.0 . . .
86451.0 . . .
86158.0 . . .
85911.0 . . .
86008.0 . . .
85956.0 . . .
85806.0 . . .
84979.0 . . .
85028.0 . . .
84930.0 . . .
84485.0 . . .
84436.0 . . .
84489.0 . . .
85223.0 . . .
85193.0 . . .
85881.0 . . .
86584.0 . . .
87150.0 . . .
86830.0 . . .
86084.0 . . .
86665.0 . . .
86317.0 . . .
85173.0 . . .
84587.0 . . .
85008.0 . . .
84552.0 . . .
83463.0 . . .
84047.0 . . .
83609.0 . . .
82756.0 . . .
81763.0 . . .
82472.0 . . .
81031.0 . . .
79572.0 . . .
79727.0 . . .
78544.0 . . .
77116.0 . . .
75364.0 . . .
76489.0 . . .
74003.0 . . .
71513.0 . . .
69528.0 . . .
66684.0 . . .
63196.0 . . .
57835.0 . . .
53931.0 . . .
43847.0 . . .
31813.0 . . .
22801.0 . . .
14231.0 . . .
6862.0 . . .
2906.0 . . .
2012.0 . . .
loop_
_refln_index_h
_refln_index_k
_refln_index_l
_refln_observed_status
_refln_F_squared_meas
_refln_F_squared_calc
_refln_phase_calc
_refln_d_spacing
_gsas_i100_meas
0 2 0 o 31.949 31.949 0.00 7.58092 0.02
1 2 0 o 146.884 146.884 0.00 6.57526 0.11
2 0 0 o 0.202 0.202 0.00 6.60550 0.00
2 1 0 o 303.021 303.021 0.00 6.05575 0.31
2 2 0 o 5086.529 5086.529 0.00 4.98019 2.41
1 3 0 o 2219.466 2219.466 0.00 4.72033 0.99
1 0 1 o 0.002 0.002 0.00 3.26841 0.00
1 1 1 o 470.867 470.867 0.00 3.19502 1.02
3 1 0 o 1165.920 1165.920 0.00 4.22890 0.67
2 1 1 o 655.028 655.028 0.00 2.94692 1.07
2 3 0 o 878.838 878.838 0.00 4.01385 0.24
0 4 0 o 0.001 0.001 0.00 3.79046 0.00
1 2 1 o 0.001 0.001 0.00 3.00135 0.00
3 2 0 o 105.272 105.272 0.00 3.80784 0.04
1 4 0 o 1118.331 1118.331 0.00 3.64346 0.32
0 2 1 o 14821.423 14821.423 0.00 3.08194 11.58
3 0 1 o 0.001 0.001 0.00 2.67789 0.00
2 2 1 o 748.643 748.643 0.00 2.79290 0.86
3 1 1 o 0.001 0.001 0.00 2.63708 0.00
1 3 1 o 298.340 298.340 0.00 2.74450 0.24
3 3 0 o 0.001 0.001 0.00 3.32012 0.00
4 0 0 o 627.681 627.681 0.00 3.30275 0.13
2 4 0 o 1767.355 1767.355 0.00 3.28763 0.34
4 1 0 o 7924.396 7924.396 0.00 3.22707 2.80
3 2 1 o 0.001 0.001 0.00 2.52499 0.00
2 3 1 o 66.282 66.282 0.00 2.58241 0.05
1 5 0 o 0.001 0.001 0.00 2.95551 0.00
4 2 0 o 0.001 0.001 0.00 3.02787 0.00
1 4 1 o 0.001 0.001 0.00 2.47528 0.00
3 4 0 o 27876.809 27876.809 0.00 2.87280 3.99
3 3 1 o 0.001 0.001 0.00 2.36625 0.00
4 1 1 o 150.234 150.234 0.00 2.33186 0.11
0 4 1 o 0.001 0.001 0.00 2.51990 0.00
4 3 0 o 0.001 0.001 0.00 2.76474 0.00
2 5 0 o 474.854 474.854 0.00 2.75585 0.07
2 4 1 o 0.002 0.002 0.00 2.35440 0.00
4 2 1 o 54.870 54.870 0.00 2.25328 0.03
0 6 0 o 0.001 0.001 0.00 2.52697 0.00
3 4 1 o 0.001 0.001 0.00 2.18714 0.00
5 1 0 o 910.448 910.448 0.00 2.60297 0.21
1 6 0 o 0.001 0.001 0.00 2.48198 0.00
1 5 1 o 0.001 0.001 0.00 2.22298 0.00
4 3 1 o 0.001 0.001 0.00 2.13830 0.00
3 5 0 o 12296.713 12296.713 0.00 2.49751 1.33
5 2 0 o 333.839 333.839 0.00 2.49500 0.06
4 4 0 o 0.001 0.001 0.00 2.49009 0.00
5 0 1 o 0.001 0.001 0.00 2.08007 0.00
2 6 0 o 6380.778 6380.778 0.00 2.36016 0.72
5 1 1 o 0.001 0.001 0.00 2.06077 0.00
2 5 1 o 3.139 3.139 0.00 2.13418 0.00
3 5 1 o 0.001 0.001 0.00 2.00724 0.00
5 2 1 o 0.001 0.001 0.00 2.00593 0.00
4 4 1 o 0.001 0.001 0.00 2.00338 0.00
5 3 0 o 2422.661 2422.661 0.00 2.34151 0.34
4 5 0 o 4970.010 4970.010 0.00 2.23369 0.44
0 6 1 o 181.296 181.296 0.00 2.02244 0.01
6 0 0 o 0.001 0.001 0.00 2.20183 0.00
1 6 1 o 0.001 0.001 0.00 1.99915 0.00
3 6 0 o 7641.041 7641.041 0.00 2.19175 0.66
6 1 0 o 1932.229 1932.229 0.00 2.17898 0.32
5 4 0 o 0.001 0.001 0.00 2.16756 0.00
1 7 0 o 24286.109 24286.109 0.00 2.13744 2.56
6 2 0 o 1.069 1.069 0.00 2.11445 0.00
2 7 0 o 0.001 0.001 0.00 2.05815 0.00
6 3 0 o 0.001 0.001 0.00 2.01858 0.00
4 6 0 o 0.001 0.001 0.00 2.00693 0.00
5 5 0 o 203.001 203.001 0.00 1.99207 0.02
