#------------------------------------------------------------------------------
#$Date: 2016-02-14 06:40:26 +0200 (Sun, 14 Feb 2016) $
#$Revision: 176432 $
#$URL: svn://www.crystallography.net/cod/cif/4/12/05/4120505.cif $
#------------------------------------------------------------------------------
#
# This file is available in the Crystallography Open Database (COD),
# http://www.crystallography.net/
#
# All data on this site have been placed in the public domain by the
# contributors.
#
data_4120505
loop_
_publ_author_name
'Wong, Joanne W. L.'
'Mailman, Aaron'
'Lekin, Kristina'
'Winter, Stephen M.'
'Yong, Wenjun'
'Zhao, Jianbao'
'Garimella, Subrahmanyam V.'
'Tse, John S.'
'Secco, Richard A.'
'Desgreniers, Serge'
'Ohishi, Yasuo'
'Borondics, Ferenc'
'Oakley, Richard T.'
_publ_section_title
;
 Pressure induced phase transitions and metallization of a neutral radical
 conductor.
;
_journal_issue                   3
_journal_name_full               'Journal of the American Chemical Society'
_journal_page_first              1070
_journal_page_last               1081
_journal_paper_doi               10.1021/ja411057x
_journal_volume                  136
_journal_year                    2014
_chemical_formula_moiety         'C6 H N2 O S4'
_chemical_formula_sum            'C6 H N2 O S4'
_chemical_formula_weight         245.33
_chemical_name_common            HBBO
_chemical_name_systematic        ' ?'
_space_group_IT_number           33
_symmetry_cell_setting           orthorhombic
_symmetry_space_group_name_Hall  'P 2c -2ab'
_symmetry_space_group_name_H-M   'P b n 21'
_cell_angle_alpha                90.0
_cell_angle_beta                 90.0
_cell_angle_gamma                90.0
_cell_formula_units_Z            4
_cell_length_a                   12.8799(24)
_cell_length_b                   14.888(4)
_cell_length_c                   3.2737(5)
_cell_volume                     627.8(2)
_computing_structure_refinement  GSAS
_diffrn_ambient_temperature      293(2)
_diffrn_measurement_device_type  'SPring-8 BL10XU'
_diffrn_radiation_polarisn_ratio 0.95
_diffrn_radiation_probe          x-ray
_diffrn_radiation_type           synchrotron
_diffrn_radiation_wavelength     0.41337
_diffrn_source                   synchrotron
_exptl_absorpt_correction_T_max  1.00000
_exptl_absorpt_correction_T_min  1.00000
_exptl_absorpt_process_details
;   GSAS Absorption/surface roughness correction: function number 0
 No correction is applied.
;
_exptl_crystal_colour            black
_exptl_crystal_density_diffrn    2.596
_pd_calc_method                  'Rietveld Refinement'
_pd_instr_location               ' ?'
_pd_meas_2theta_range_inc        0.01
_pd_meas_2theta_range_max        27.6
_pd_meas_2theta_range_min        1.0
_pd_meas_number_of_points        2661
_pd_phase_name                   HBBO_18_again/HBBO_18_pbn21.cif
_pd_proc_2theta_range_inc        0.01
_pd_proc_2theta_range_max        27.67433
_pd_proc_2theta_range_min        1.07433
_pd_proc_info_datetime           2013-04-30T17:18:20
_pd_proc_info_excluded_regions   ' ?'
_pd_proc_ls_background_function
;   GSAS Background function number 1 with  8 terms.
 Shifted Chebyshev function of 1st kind
      1:    53714.7     2:    28763.3     3:   -1335.67     4:    7.16806    
      5:   -309.797     6:   -229.811     7:   -83.1807     8:   -29.6382    
;
_pd_proc_ls_peak_cutoff          0.00100
_pd_proc_ls_profile_function
;
 CW Profile function number 2 with  18 terms
 Profile coefficients for Simpson's rule integration of pseudovoigt function
 C.J. Howard (1982). J. Appl. Cryst.,15,615-620.
 P. Thompson, D.E. Cox & J.B. Hastings (1987). J. Appl. Cryst.,20,79-83.
 Peak tails are ignored  where the intensity is below 0.0010 times the peak
   Aniso. broadening axis   0.0   0.0   1.0
;
_pd_proc_ls_prof_R_factor        0.0049
_pd_proc_ls_prof_wR_expected     0.0042
_pd_proc_ls_prof_wR_factor       0.0085
_pd_proc_number_of_points        2661
_pd_spec_mounting                ' ?'
_refine_ls_goodness_of_fit_all   2.01
_refine_ls_matrix_type           full
_refine_ls_number_parameters     2
_refine_ls_number_restraints     0
_refine_ls_R_Fsqd_factor         0.71681
_refine_ls_shift/su_max          0.04
_refine_ls_shift/su_mean         0.02
_reflns_d_resolution_high        1.906
_reflns_d_resolution_low         7.444
_reflns_limit_h_max              8
_reflns_limit_h_min              0
_reflns_limit_k_max              9
_reflns_limit_k_min              0
_reflns_limit_l_max              2
_reflns_limit_l_min              0
_reflns_number_total             68
_cod_data_source_file            ja411057x_si_004.cif
_cod_data_source_block           HBBO_6.01GPa
_cod_depositor_comments
;
The following automatic conversions were performed:

'_geom_bond_publ_flag' value 'N' changed to 'n' according to
/usr/data/users/saulius/automatic-downloads/current/ACS/lib/dictionaries/cif_core.dic
dictionary named 'cif_core.dic' version 2.4.2 from 2011-04-26 (17
times).

'_geom_angle_publ_flag' value 'N' changed to 'n' according
to
/usr/data/users/saulius/automatic-downloads/current/ACS/lib/dictionaries/cif_core.dic
dictionary named 'cif_core.dic' version 2.4.2 from 2011-04-26 (24
times).

Automatic conversion script
Id: cif_fix_values 2281 2013-09-26 08:29:07Z andrius 
;
_cod_original_cell_volume        627.73(16)
_cod_original_sg_symbol_Hall     'c -2ab'
_cod_database_code               4120505
#BEGIN Tags that were not found in dictionaries:
_gsas_exptl_extinct_corr_t_min   1.00000
_gsas_exptl_extinct_corr_t_max   1.00000
#END Tags that were not found in dictionaries
loop_
_symmetry_equiv_pos_site_id
_symmetry_equiv_pos_as_xyz
1 +x,+y,+z
2 -x+1/2,+y+1/2,+z
3 +x+1/2,-y+1/2,+z+1/2
4 -x,-y,+z+1/2
loop_
_atom_site_type_symbol
_atom_site_label
_atom_site_fract_x
_atom_site_fract_y
_atom_site_fract_z
_atom_site_occupancy
_atom_site_thermal_displace_type
_atom_site_U_iso_or_equiv
_atom_site_symmetry_multiplicity
S S3 -0.04327 0.33198 0.39727 1.0 Uiso 0.0247 4
S S4 0.02148 0.21633 0.10064 1.0 Uiso 0.0247 4
S S1 0.40041 0.55791 1.04627 1.0 Uiso 0.0247 4
S S2 0.23691 0.58532 1.08992 1.0 Uiso 0.0247 4
C C2 0.16899 0.3187 0.35784 1.0 Uiso 0.0247 4
C C1 0.28202 0.34835 0.41224 1.0 Uiso 0.0247 4
C C4 0.10022 0.45662 0.73539 1.0 Uiso 0.0247 4
N N1 0.39374 0.46288 0.76495 1.0 Uiso 0.0247 4
O O1 0.35652 0.30677 0.24728 1.0 Uiso 0.0247 4
C C6 0.29586 0.43308 0.67009 1.0 Uiso 0.0247 4
N N2 0.14759 0.24069 0.15648 1.0 Uiso 0.0247 4
C C3 0.08314 0.37513 0.51441 1.0 Uiso 0.0247 4
C C5 0.20563 0.48451 0.81202 1.0 Uiso 0.0247 4
H H4 0.0408 0.49438 0.84909 1.0 Uiso 0.0494 4
loop_
_atom_type_symbol
_atom_type_number_in_cell
_atom_type_scat_dispersion_real
_atom_type_scat_dispersion_imag
_atom_type_scat_Cromer_Mann_a1
_atom_type_scat_Cromer_Mann_a2
_atom_type_scat_Cromer_Mann_a3
_atom_type_scat_Cromer_Mann_a4
_atom_type_scat_Cromer_Mann_b1
_atom_type_scat_Cromer_Mann_b2
_atom_type_scat_Cromer_Mann_b3
_atom_type_scat_Cromer_Mann_b4
_atom_type_scat_Cromer_Mann_c
_atom_type_scat_source
S 16.0 0.000 0.000 6.90530 1.46790 5.20340 22.2151 1.43790 0.25360 1.58630
56.1720 0.86690 International_Tables_Vol_C
C 24.0 0.000 0.000 2.31000 20.8439 1.02000 10.2075 1.58860 0.56870 0.86500
51.6512 0.21560 International_Tables_Vol_C
N 8.0 0.000 0.000 12.2126 0.00570 3.13220 9.89330 2.01250 28.9975 1.16630
0.58260 -11.529 International_Tables_Vol_C
O 4.0 0.000 0.000 3.04850 13.2771 2.28680 5.70110 1.54630 0.32390 0.86700
32.9089 0.25080 International_Tables_Vol_C
H 4.0 0.000 0.000 0.49300 10.5109 0.32291 26.1257 0.14019 3.14236 0.04081
57.7997 0.00304 International_Tables_Vol_C
loop_
_geom_angle_atom_site_label_1
_geom_angle_atom_site_label_2
_geom_angle_atom_site_label_3
_geom_angle
_geom_angle_site_symmetry_1
_geom_angle_site_symmetry_3
_geom_angle_publ_flag
S4 S3 C3 91.798 1_555 1_555 n
S3 S4 N2 98.851 1_555 1_555 n
S2 S1 N1 98.355 1_555 1_555 n
S1 S2 C5 91.569 1_555 1_555 n
C1 C2 N2 119.5909 1_555 1_555 n
C1 C2 C3 120.410 1_555 1_555 n
N2 C2 C3 119.986 1_555 1_555 n
C2 C1 O1 122.079 1_555 1_555 n
C2 C1 C6 114.3916 1_555 1_555 n
O1 C1 C6 123.507 1_555 1_555 n
C3 C4 C5 118.5145 1_555 1_555 n
C3 C4 H4 122.477 1_555 1_555 n
C5 C4 H4 118.971 1_555 1_555 n
S1 N1 C6 116.145 1_555 1_555 n
C1 C6 N1 119.9390 1_555 1_555 n
C1 C6 C5 120.882 1_555 1_555 n
N1 C6 C5 119.167 1_555 1_555 n
S4 N2 C2 115.6818 1_555 1_555 n
S3 C3 C2 113.652 1_555 1_555 n
S3 C3 C4 123.5317 1_555 1_555 n
C2 C3 C4 122.815 1_555 1_555 n
S2 C5 C4 122.5913 1_555 1_555 n
S2 C5 C6 114.691 1_555 1_555 n
C4 C5 C6 122.717 1_555 1_555 n
loop_
_geom_bond_atom_site_label_1
_geom_bond_atom_site_label_2
_geom_bond_distance
_geom_bond_site_symmetry_2
_geom_bond_publ_flag
S3 S4 2.14545 1_555 n
S3 C3 1.79181 1_555 n
S4 N2 1.67429 1_555 n
S1 S2 2.1498 1_555 n
S1 N1 1.69030 1_555 n
S2 S1 2.1498 1_555 n
S2 C5 1.80068 1_555 n
C2 C1 1.53165 1_555 n
C2 N2 1.36357 1_555 n
C2 C3 1.48026 1_555 n
C1 O1 1.26316 1_555 n
C1 C6 1.52824 1_555 n
C4 C3 1.42953 1_555 n
C4 C5 1.44174 1_555 n
C4 H4 1.01994 1_555 n
N1 C6 1.37207 1_555 n
C6 C5 1.46722 1_555 n
loop_
_pd_meas_counts_total
_pd_proc_ls_weight
_pd_proc_intensity_bkg_calc
_pd_calc_intensity_total
0.0 0.0 11894.11816 .
0.0 0.0 11912.64648 .
0.0 0.0 11931.90625 .
0.0 0.0 11951.89844 .
0.0 0.0 11972.60645 .
0.0 0.0 11994.03320 .
0.0 0.0 12016.16309 .
0.0 0.0 12038.99512 .
0.0 0.0 12062.51465 .
0.0 0.0 12086.72559 .
0.0 0.0 12111.60938 .
0.0 0.0 12137.16797 .
0.0 0.0 12163.38770 .
0.0 0.0 12190.27051 .
0.0 0.0 12217.79688 .
0.0 0.0 12245.97266 .
0.0 0.0 12274.78320 .
0.0 0.0 12304.22852 .
0.0 0.0 12334.29199 .
0.0 0.0 12364.97754 .
0.0 0.0 12396.26953 .
0.0 0.0 12428.17090 .
0.0 0.0 12460.66602 .
0.0 0.0 12493.75879 .
0.0 0.0 12527.43164 .
0.0 0.0 12561.68848 .
0.0 0.0 12596.51465 .
0.0 0.0 12631.90625 .
0.0 0.0 12667.86426 .
0.0 0.0 12704.37500 .
0.0 0.0 12741.43555 .
0.0 0.0 12779.03613 .
0.0 0.0 12817.17773 .
0.0 0.0 12855.85059 .
0.0 0.0 12895.04395 .
0.0 0.0 12934.75781 .
0.0 0.0 12974.98828 .
0.0 0.0 13015.72363 .
0.0 0.0 13056.96484 .
0.0 0.0 13098.70020 .
0.0 0.0 13140.92969 .
0.0 0.0 13183.64355 .
0.0 0.0 13226.83789 .
0.0 0.0 13270.50488 .
0.0 0.0 13314.64551 .
0.0 0.0 13359.24609 .
0.0 0.0 13404.30859 .
0.0 0.0 13449.82422 .
0.0 0.0 13495.78906 .
0.0 0.0 13542.19434 .
0.0 0.0 13589.04199 .
0.0 0.0 13636.31738 .
0.0 0.0 13684.02637 .
0.0 0.0 13732.15234 .
0.0 0.0 13780.70215 .
0.0 0.0 13829.66016 .
0.0 0.0 13879.02930 .
0.0 0.0 13928.80176 .
0.0 0.0 13978.97559 .
0.0 0.0 14029.53809 .
0.0 0.0 14080.49414 .
0.0 0.0 14131.83203 .
0.0 0.0 14183.55273 .
0.0 0.0 14235.64258 .
0.0 0.0 14288.10352 .
0.0 0.0 14340.93750 .
0.0 0.0 14394.12695 .
0.0 0.0 14447.67676 .
0.0 0.0 14501.57422 .
0.0 0.0 14555.82813 .
0.0 0.0 14610.42090 .
0.0 0.0 14665.35645 .
0.0 0.0 14720.62207 .
8650.0 0.0 14776.22461 .
8727.0 0.0 14832.15039 .
8749.0 0.0 14888.40234 .
8698.0 0.0 14944.96973 .
8700.0 0.0 15001.85645 .
8655.0 0.0 15059.04785 .
8619.0 0.0 15116.55078 .
8554.0 0.0 15174.35059 .
8460.0 0.0 15232.45605 .
8382.0 0.0 15290.85059 .
8273.0 0.0 15349.54004 .
8263.0 0.0 15408.51172 .
8194.0 0.0 15467.77344 .
8225.0 0.0 15527.30762 .
8302.0 0.0 15587.12109 .
8358.0 0.0 15647.20410 .
8462.0 0.0 15707.56152 .
8526.0 0.0 15768.17578 .
8612.0 0.0 15829.05566 .
8690.0 0.0 15890.18750 .
8810.0 0.0 15951.57715 .
8903.0 0.0 16013.21973 .
9004.0 0.0 16075.10938 .
9143.0 0.0 16137.23535 .
9260.0 0.0 16199.60938 .
9375.0 0.0 16262.21387 .
9505.0 0.0 16325.05078 .
9643.0 0.0 16388.11914 .
9750.0 0.0 16451.41602 .
9872.0 0.0 16514.93945 .
10000.0 0.0 16578.67773 .
10147.0 0.0 16642.63477 .
10297.0 0.0 16706.80469 .
10435.0 0.0 16771.18750 .
10652.0 0.0 16835.77148 .
10811.0 0.0 16900.56445 .
10939.0 0.0 16965.55664 .
11137.0 0.0 17030.75195 .
11279.0 0.0 17096.13477 .
11438.0 0.0 17161.71484 .
11560.0 0.0 17227.48242 .
11746.0 0.0 17293.43750 .
11933.0 0.0 17359.57422 .
12073.0 0.0 17425.89258 .
12282.0 0.0 17492.38867 .
12397.0 0.0 17559.06055 .
12580.0 0.0 17625.90234 .
12738.0 0.0 17692.91406 .
12936.0 0.0 17760.09180 .
13107.0 0.0 17827.43750 .
13248.0 0.0 17894.93750 .
13420.0 0.0 17962.59961 .
13559.0 0.0 18030.41797 .
13753.0 0.0 18098.38867 .
13937.0 0.0 18166.50977 .
14161.0 0.0 18234.78320 .
14343.0 0.0 18303.19336 .
14504.0 0.0 18371.75195 .
14696.0 0.0 18440.45117 .
14894.0 0.0 18509.28906 .
15093.0 0.0 18578.26367 .
15277.0 0.0 18647.36719 .
15545.0 0.0 18716.60352 .
15759.0 0.0 18785.97070 .
16040.0 0.0 18855.46289 .
16462.0 0.0 18925.08203 .
16933.0 0.0 18994.81445 .
17218.0 0.0 19064.67383 .
17088.0 0.0 19134.64648 .
17036.0 0.0 19204.73438 .
16993.0 0.0 19274.93555 .
17088.0 0.0 19345.24805 .
17231.0 0.0 19415.66992 .
17389.0 0.0 19486.19336 .
17557.0 0.0 19556.82617 .
17695.0 0.0 19627.55664 .
17898.0 0.0 19698.38867 .
18032.0 0.0 19769.31836 .
18158.0 0.0 19840.34570 .
18338.0 0.0 19911.46680 .
18501.0 0.0 19982.67773 .
18651.0 0.0 20053.97852 .
18770.0 0.0 20125.36719 .
18907.0 0.0 20196.84570 .
19045.0 0.0 20268.40625 .
19196.0 0.0 20340.04688 .
19338.0 0.0 20411.76953 .
19491.0 0.0 20483.57227 .
19631.0 0.0 20555.44531 .
19755.0 0.0 20627.40234 .
19921.0 0.0 20699.42969 .
20038.0 0.0 20771.52930 .
20196.0 0.0 20843.70117 .
20337.0 0.0 20915.93164 .
20505.0 0.0 20988.23438 .
20620.0 0.0 21060.60156 .
20739.0 0.0 21133.03516 .
20887.0 0.0 21205.52148 .
20971.0 0.0 21278.07422 .
21121.0 0.0 21350.68359 .
21216.0 0.0 21423.34375 .
21327.0 0.0 21496.06641 .
21451.0 0.0 21568.83984 .
21524.0 0.0 21641.66797 .
21693.0 0.0 21714.54102 .
21772.0 0.0 21787.46875 .
21864.0 0.0 21860.43945 .
21955.0 0.0 21933.45703 .
22050.0 0.0 22006.51563 .
22132.0 0.0 22079.62109 .
22200.0 0.0 22152.76758 .
22259.0 0.0 22225.95703 .
22331.0 0.0 22299.18164 .
22432.0 0.0 22372.44336 .
22523.0 0.0 22445.74219 .
22643.0 0.0 22519.07813 .
22700.0 0.0 22592.44141 .
22771.0 0.0 22665.84570 .
22873.0 0.0 22739.27344 .
22973.0 0.0 22812.73633 .
23079.0 0.0 22886.22070 .
23150.0 0.0 22959.74023 .
23244.0 0.0 23033.27734 .
23272.0 0.0 23106.84375 .
23357.0 0.0 23180.42969 .
23467.0 0.0 23254.04297 .
23556.0 0.0 23327.67383 .
23640.0 0.0 23401.32813 .
23656.0 0.0000423 23474.99609 23902.69141
23728.0 0.0000421 23548.68359 23963.99805
23799.0 0.0000420 23622.39063 24025.87891
23891.0 0.0000419 23696.10938 24088.29297
24007.0 0.0000417 23769.84570 24151.22266
24083.0 0.0000415 23843.59180 24214.62500
24177.0 0.0000414 23917.34961 24278.48633
24244.0 0.0000412 23991.12500 24342.78516
24305.0 0.0000411 24064.90820 24407.48438
24356.0 0.0000411 24138.69141 24472.56836
24418.0 0.0000410 24212.49609 24538.02930
24497.0 0.0000408 24286.29883 24603.83203
24594.0 0.0000407 24360.11523 24669.97461
24737.0 0.0000404 24433.93164 24736.42969
24896.0 0.0000402 24507.75000 24803.18359
24990.0 0.0000400 24581.58203 24870.23242
25029.0 0.0000400 24655.40430 24937.54883
25060.0 0.0000399 24729.23438 25005.13281
25116.0 0.0000398 24803.06641 25072.96875
25185.0 0.0000397 24876.89648 25141.04688
25226.0 0.0000396 24950.72070 25209.35156
25290.0 0.0000395 25024.54883 25277.88672
25397.0 0.0000394 25098.37500 25346.63867
25486.0 0.0000392 25172.19141 25415.59570
25554.0 0.0000391 25246.00586 25484.76172
25561.0 0.0000391 25319.81641 25554.12305
25636.0 0.0000390 25393.62109 25623.78320
25752.0 0.0000388 25467.41406 25693.52930
25812.0 0.0000387 25541.20508 25764.87305
25921.0 0.0000386 25614.98242 25835.00000
25985.0 0.0000385 25688.75586 25905.31836
26083.0 0.0000383 25762.51758 25975.83203
26176.0 0.0000382 25836.27148 26046.53516
26207.0 0.0000382 25910.00586 26117.42969
26290.0 0.0000380 25983.73438 26188.53711
26309.0 0.0000380 26057.44922 26259.86914
26395.0 0.0000379 26131.14844 26331.44141
26465.0 0.0000378 26204.83203 26403.28320
26567.0 0.0000376 26278.50586 26475.44727
26646.0 0.0000375 26352.16016 26548.22266
26707.0 0.0000374 26425.80078 26627.45703
26779.0 0.0000373 26499.41992 26701.19141
26870.0 0.0000372 26573.02930 26775.77734
26910.0 0.0000372 26646.61133 26851.46289
27006.0 0.0000370 26720.17969 26928.63281
27052.0 0.0000370 26793.72852 27007.73828
27119.0 0.0000369 26867.25781 27089.33984
27210.0 0.0000368 26940.76563 27174.05664
27269.0 0.0000367 27014.25000 27262.54492
27379.0 0.0000365 27087.71484 27355.44336
27433.0 0.0000365 27161.15625 27453.25977
27489.0 0.0000364 27234.57617 27556.28516
27593.0 0.0000362 27307.97070 27664.47656
27641.0 0.0000362 27381.34180 27777.33594
27758.0 0.0000360 27454.69141 27893.79688
27818.0 0.0000359 27528.01367 28012.07031
27891.0 0.0000359 27601.31055 28129.57422
27988.0 0.0000357 27674.58203 28242.81445
28096.0 0.0000356 27747.82617 28347.61328
28337.0 0.0000353 27821.04297 28439.77539
28572.0 0.00003500 27894.23438 28516.25586
28812.0 0.00003471 27967.39648 28576.33203
29009.0 0.00003447 28040.53320 28621.91406
29025.0 0.00003445 28113.64063 28656.75586
28862.0 0.00003465 28186.71484 28685.17188
28720.0 0.00003482 28259.75586 28711.08398
28662.0 0.00003489 28332.77344 28739.25586
28699.0 0.00003484 28405.75977 28768.57813
28738.0 0.00003480 28478.71484 28802.12500
28830.0 0.00003469 28551.63867 28840.71680
28897.0 0.00003461 28624.53125 28884.64258
28952.0 0.00003454 28697.39063 28933.81055
29031.0 0.00003445 28770.21875 28987.87500
29072.0 0.00003440 28843.00977 29046.33398
29133.0 0.00003433 28915.77148 29108.69922
29202.0 0.00003424 28988.49805 29174.51172
29293.0 0.00003414 29061.18945 29243.51367
29381.0 0.00003404 29133.84766 29315.69922
29408.0 0.00003400 29206.47461 29391.36328
29466.0 0.00003394 29279.06641 29471.16016
29567.0 0.00003382 29351.61523 29556.11328
29628.0 0.00003375 29424.13477 29647.60938
29738.0 0.00003363 29496.61523 29747.24414
29794.0 0.00003356 29569.06055 29856.63281
29896.0 0.00003345 29641.46875 29977.14648
29981.0 0.00003335 29713.84375 30109.52148
30068.0 0.00003326 29786.17773 30253.46289
30168.0 0.00003315 29858.47656 30407.30273
30309.0 0.00003299 29930.73438 30567.65625
30456.0 0.00003283 30002.95703 30729.20117
30679.0 0.00003260 30075.14258 30884.54297
31004.0 0.00003225 30147.28711 31024.46680
31475.0 0.00003177 30219.39063 31139.27344
31859.0 0.00003139 30291.45703 31221.50977
31797.0 0.00003145 30363.49023 31269.05273
31480.0 0.00003177 30435.47266 31286.17383
31186.0 0.00003207 30507.41992 31281.52148
31093.0 0.00003216 30579.33008 31264.86133
31063.0 0.00003219 30651.19922 31244.80664
31061.0 0.00003219 30723.02539 31228.00977
31088.0 0.00003217 30794.81445 31219.07227
31123.0 0.00003213 30866.56250 31220.71680
31205.0 0.00003205 30938.26758 31234.04102
31258.0 0.00003199 31009.92969 31258.89648
31325.0 0.00003192 31081.55469 31294.23047
31409.0 0.00003184 31153.13477 31338.47266
31431.0 0.00003182 31224.67383 31389.87891
31535.0 0.00003171 31296.17188 31446.76563
31614.0 0.00003163 31367.62305 31507.67188
31657.0 0.00003159 31439.03711 31571.43164
31701.0 0.00003154 31510.41016 31637.14648
31766.0 0.00003148 31581.73047 31704.18945
31849.0 0.00003140 31653.01758 31772.14453
31899.0 0.00003135 31724.25977 31840.71094
31964.0 0.00003129 31795.46094 31909.71680
32088.0 0.00003116 31866.61328 31979.03320
32129.0 0.00003112 31937.72656 32048.59961
32190.0 0.00003107 32008.79492 32118.36328
32245.0 0.00003101 32079.82031 32188.29297
32301.0 0.00003096 32150.80078 32258.35352
32381.0 0.00003088 32221.73828 32328.54688
32433.0 0.00003083 32292.63086 32398.84570
32511.0 0.00003076 32363.48047 32469.24805
32574.0 0.00003070 32434.28516 32539.73633
32634.0 0.00003064 32505.04102 32610.31055
32694.0 0.00003059 32575.76563 32680.98242
32778.0 0.00003051 32646.43555 32751.71680
32885.0 0.00003041 32717.06250 32822.54297
32950.0 0.00003035 32787.63672 32893.42188
33004.0 0.00003030 32858.18359 32965.70313
33054.0 0.00003025 32928.66797 33036.76953
33111.0 0.00003020 32999.12500 33107.92578
33169.0 0.00003015 33069.52734 33179.16406
33233.0 0.00003009 33139.87891 33250.49609
33321.0 0.00003001 33210.19141 33321.91797
33420.0 0.00002992 33280.45703 33393.44141
33498.0 0.00002985 33350.67578 33465.08203
33522.0 0.00002983 33420.85547 33536.86328
33568.0 0.00002979 33490.98438 33608.76172
33644.0 0.00002972 33561.07422 33680.82031
33741.0 0.00002964 33631.10547 33753.02344
33818.0 0.00002957 33701.10547 33825.42578
33866.0 0.00002953 33771.05469 33898.02734
33915.0 0.00002949 33840.96484 33970.86719
34020.0 0.00002939 33910.81250 34043.94922
34104.0 0.00002932 33980.62891 34117.32031
34187.0 0.00002925 34050.39063 34191.00391
34251.0 0.00002920 34120.11328 34265.05859
34318.0 0.00002914 34189.78125 34339.50391
34373.0 0.00002909 34259.42188 34414.44531
34419.0 0.00002905 34329.00000 34489.89453
34514.0 0.00002897 34398.53906 34565.94922
34586.0 0.00002891 34468.02734 34642.70313
34687.0 0.00002883 34537.46875 34720.23828
34780.0 0.00002875 34606.87109 34798.71094
34854.0 0.00002869 34676.22266 34878.26953
34903.0 0.00002865 34745.53125 34959.09766
34975.0 0.00002859 34814.79297 35041.98438
35048.0 0.00002853 34884.00781 35126.18750
35136.0 0.00002846 34953.17578 35212.71094
35171.0 0.00002843 35022.29688 35302.28516
35310.0 0.00002832 35091.37500 35396.02734
35452.0 0.00002821 35160.40234 35495.72656
35607.0 0.00002808 35229.39453 35604.19141
35797.0 0.00002794 35298.33203 35725.83984
36022.0 0.00002776 35367.22656 35866.83203
36325.0 0.00002753 35436.07031 36036.19922
36591.0 0.00002733 35504.87109 36245.63281
36804.0 0.00002717 35573.62891 36509.35547
36962.0 0.00002705 35642.33594 36842.97266
37104.0 0.00002695 35711.00391 37261.37109
37302.0 0.00002681 35779.61719 37775.63672
37511.0 0.00002666 35848.18750 38389.35938
37877.0 0.00002640 35916.71094 39094.56250
38464.0 0.00002600 35985.19922 39867.93750
39329.0 0.00002543 36053.64063 40667.05469
40918.0 0.00002444 36122.02344 41396.26563
43363.0 0.00002306 36190.36719 42031.31250
45917.0 0.00002178 36258.66016 42445.82422
46571.0 0.00002147 36326.92188 42568.28906
44668.0 0.00002239 36395.12500 42387.12109
42105.0 0.00002375 36463.28516 41957.73047
40232.0 0.00002486 36531.40234 41372.06641
39130.0 0.00002556 36599.46875 40721.94922
38538.0 0.00002595 36667.49219 40079.81641
38220.0 0.00002616 36735.47656 39495.29688
38109.0 0.00002624 36803.41406 38997.93359
38056.0 0.00002628 36871.30469 38600.85547
38050.0 0.00002628 36939.14844 38304.70703
38082.0 0.00002626 37006.94531 38101.67188
38153.0 0.00002621 37074.69922 37979.52734
38279.0 0.00002612 37142.40625 37925.05078
38345.0 0.00002608 37210.07031 37926.37500
38412.0 0.00002603 37277.69141 37974.50000
38528.0 0.00002596 37345.26172 38063.41797
38552.0 0.00002594 37412.79688 38189.57813
38566.0 0.00002593 37480.27734 38351.67969
38527.0 0.00002596 37547.71094 38545.71484
38520.0 0.00002596 37615.10938 38769.02344
38541.0 0.00002595 37682.46484 39015.12500
38593.0 0.00002591 37749.76953 39273.27734
38770.0 0.00002579 37817.03125 39526.82031
39036.0 0.00002562 37884.25000 39752.54688
39456.0 0.00002534 37951.41797 39923.24609
40152.0 0.00002491 38018.54688 40015.87891
40954.0 0.00002442 38085.63672 40022.47266
41231.0 0.00002425 38152.67969 39954.57813
40634.0 0.00002461 38219.67578 39836.79688
39886.0 0.00002507 38286.62500 39695.58594
39406.0 0.00002538 38353.52734 39552.35938
39169.0 0.00002553 38420.40234 39421.75781
39051.0 0.00002561 38487.21484 39312.50000
39041.0 0.00002561 38553.99609 39228.82422
39050.0 0.00002561 38620.72266 39171.60938
39045.0 0.00002561 38687.41797 39139.35938
39040.0 0.00002561 38754.06641 39129.04297
39072.0 0.00002559 38820.66406 39136.97656
39119.0 0.00002556 38887.23047 39160.59766
39187.0 0.00002552 38953.74609 39193.94922
39269.0 0.00002547 39020.22266 39235.37109
39293.0 0.00002545 39086.65234 39282.57813
39341.0 0.00002542 39153.03125 39350.58203
39423.0 0.00002537 39219.38281 39404.92969
39507.0 0.00002531 39285.67578 39461.38281
39535.0 0.00002529 39351.93750 39519.38281
39637.0 0.00002523 39418.16016 39578.60547
39703.0 0.00002519 39484.33203 39638.42969
39811.0 0.00002512 39550.46484 39699.38672
39866.0 0.00002508 39616.54688 39761.01172
39904.0 0.00002506 39682.60156 39823.23438
39983.0 0.00002501 39748.60547 39885.95313
40021.0 0.00002499 39814.56250 39949.13672
39992.0 0.00002501 39880.48438 40012.73047
40037.0 0.00002498 39946.36328 40076.70313
40082.0 0.00002495 40012.19922 40141.04297
40172.0 0.00002489 40077.99609 40205.72656
40221.0 0.00002486 40143.74609 40270.73047
40268.0 0.00002483 40209.45703 40336.05469
40396.0 0.00002475 40275.12109 40401.68750
40412.0 0.00002475 40340.75391 40467.67188
40464.0 0.00002471 40406.33984 40533.98828
40540.0 0.00002467 40471.88672 40600.66797
40597.0 0.00002463 40537.38672 40667.72266
40661.0 0.00002459 40602.85156 40735.20703
40716.0 0.00002456 40668.26953 40803.16406
40772.0 0.00002453 40733.65234 40871.65625
40815.0 0.00002450 40798.98438 40940.75391
40890.0 0.00002446 40864.28906 41010.59766
40975.0 0.00002441 40929.54297 41081.30859
41072.0 0.00002435 40994.76563 41153.15234
41135.0 0.00002431 41059.94531 41226.45313
41233.0 0.00002425 41125.08594 41301.75391
41336.0 0.00002419 41190.18359 41379.82031
41422.0 0.00002414 41255.23438 41461.80469
41506.0 0.00002409 41320.25391 41549.35156
41608.0 0.00002403 41385.22656 41644.62500
41739.0 0.00002396 41450.16406 41750.36719
41907.0 0.00002386 41515.05469 41869.72656
42123.0 0.00002374 41579.91797 42006.01953
42350.0 0.00002361 41644.73438 42162.16016
42702.0 0.00002342 41709.50781 42340.04688
43217.0 0.00002314 41774.24609 42539.71875
43876.0 0.00002279 41838.94531 42758.23438
44479.0 0.00002248 41903.60156 42988.43359
44472.0 0.00002249 41968.23047 43216.76563
43985.0 0.00002274 42032.80469 43422.32031
43436.0 0.00002302 42097.34375 43579.06250
43039.0 0.00002323 42161.84766 43664.98047
42857.0 0.00002333 42226.30859 43674.51953
42775.0 0.00002338 42290.73438 43622.32422
42747.0 0.00002339 42355.12109 43533.90625
42821.0 0.00002335 42419.47266 43433.64063
42895.0 0.00002331 42483.78516 43338.90625
42947.0 0.00002328 42548.04688 43259.99219
42996.0 0.00002326 42612.28516 43201.94922
43041.0 0.00002323 42676.48047 43166.17578
43081.0 0.00002321 42740.64063 43151.70703
43069.0 0.00002322 42804.75781 43156.14063
43068.0 0.00002322 42868.83203 43176.38281
43165.0 0.00002317 42932.88281 43209.33984
43226.0 0.00002313 42996.88281 43257.67969
43299.0 0.00002310 43060.84766 43308.46875
43345.0 0.00002307 43124.77734 43365.72656
43407.0 0.00002304 43188.67578 43428.91016
43492.0 0.00002299 43252.52734 43498.66016
43578.0 0.00002295 43316.35156 43575.10156
43677.0 0.00002290 43380.12109 43660.16406
43725.0 0.00002287 43443.86719 43755.73438
43804.0 0.00002283 43507.57031 43863.61719
43923.0 0.00002277 43571.24609 43985.07031
44029.0 0.00002271 43634.87500 44120.36719
44191.0 0.00002263 43698.47656 44267.05469
44401.0 0.00002252 43762.03516 44420.15625
44763.0 0.00002234 43825.56250 44569.92578
45115.0 0.00002217 43889.04297 44701.29688
45232.0 0.00002211 43952.49609 44797.27344
45044.0 0.00002220 44015.90625 44847.57422
44824.0 0.00002231 44079.28125 44856.04297
44654.0 0.00002239 44142.62500 44837.70703
44608.0 0.00002242 44205.93359 44809.25781
44612.0 0.00002242 44269.21094 44783.05859
44636.0 0.00002240 44332.43750 44766.17969
44647.0 0.00002240 44395.64063 44761.94141
44670.0 0.00002239 44458.79688 44771.04688
44715.0 0.00002236 44521.92969 44792.64844
44773.0 0.00002233 44585.02734 44824.92969
44826.0 0.00002231 44648.08203 44865.73828
44895.0 0.00002227 44711.10938 44913.05078
44968.0 0.00002224 44774.09766 44965.03125
45034.0 0.00002221 44837.04297 45020.32813
45090.0 0.00002218 44899.96484 45077.96094
45148.0 0.00002215 44962.84375 45137.25781
45222.0 0.00002211 45025.68750 45197.81641
45332.0 0.00002206 45088.50391 45259.41016
45362.0 0.00002204 45151.28125 45321.87891
45439.0 0.00002201 45214.02344 45385.23438
45494.0 0.00002198 45276.73438 45449.52344
45567.0 0.00002195 45339.41797 45514.85547
45644.0 0.00002191 45402.05859 45581.41406
45706.0 0.00002188 45464.66406 45649.50781
45771.0 0.00002185 45527.23828 45719.44922
45833.0 0.00002182 45589.77734 45791.61719
45893.0 0.00002179 45652.27734 45866.39453
45996.0 0.00002174 45714.75391 45944.07031
46094.0 0.00002169 45777.19531 46024.74609
46183.0 0.00002165 45839.60547 46108.11328
46319.0 0.00002159 45901.97656 46193.19531
46372.0 0.00002156 45964.31641 46277.99609
46395.0 0.00002155 46026.62109 46359.27734
46430.0 0.00002154 46088.89453 46433.24219
46481.0 0.00002151 46151.13281 46497.28906
46560.0 0.00002148 46213.33984 46551.83203
46566.0 0.00002147 46275.51172 46600.04688
46572.0 0.00002147 46337.65625 46645.96484
46617.0 0.00002145 46399.76563 46692.60938
46640.0 0.00002144 46461.84375 46741.80469
46731.0 0.00002140 46523.89063 46794.38281
46739.0 0.00002140 46585.89844 46850.65234
46796.0 0.00002137 46647.87891 46910.64453
46864.0 0.00002134 46709.82813 46974.26172
46899.0 0.00002132 46771.74219 47041.45703
46990.0 0.00002128 46833.62500 47112.37891
47079.0 0.00002124 46895.47656 47187.41797
47136.0 0.00002122 46957.29688 47267.46875
47215.0 0.00002118 47019.08203 47353.94531
47295.0 0.00002114 47080.83984 47448.91016
47351.0 0.00002112 47142.57031 47555.14453
47429.0 0.00002108 47204.26953 47675.96875
47510.0 0.00002105 47265.92969 47815.00781
47644.0 0.00002099 47327.56250 47975.59766
47805.0 0.00002092 47389.17188 48159.91016
48040.0 0.00002082 47450.73438 48367.40234
48303.0 0.00002070 47512.27734 48592.09766
48692.0 0.00002054 47573.78516 48818.30859
49304.0 0.00002028 47635.26172 49017.13672
49956.0 0.00002002 47696.71094 49151.70313
50159.0 0.00001994 47758.12500 49197.14063
49750.0 0.00002010 47819.51172 49162.34375
49196.0 0.00002033 47880.87500 49075.58984
48865.0 0.00002046 47942.20313 48974.35156
48713.0 0.00002053 48003.50000 48882.24219
48640.0 0.00002056 48064.76563 48810.54688
48627.0 0.00002056 48126.00781 48762.65234
48656.0 0.00002055 48187.20703 48737.75781
48662.0 0.00002055 48248.38672 48733.06641
48711.0 0.00002053 48309.53906 48745.01563
48755.0 0.00002051 48370.65234 48769.97266
48783.0 0.00002050 48431.74609 48804.70703
48850.0 0.00002047 48492.81250 48846.59375
48911.0 0.00002045 48553.84375 48893.64844
48946.0 0.00002043 48614.84766 48950.88672
48982.0 0.00002042 48675.81641 49004.46484
49046.0 0.00002039 48736.75781 49060.13281
49120.0 0.00002036 48797.67969 49117.42969
49187.0 0.00002033 48858.57031 49176.01172
49273.0 0.00002030 48919.43359 49235.67578
49353.0 0.00002026 48980.25391 49296.26953
49408.0 0.00002024 49041.06641 49357.65625
49503.0 0.00002020 49101.83984 49419.74219
49577.0 0.00002017 49162.58594 49482.44922
49604.0 0.00002016 49223.30859 49545.73047
49693.0 0.00002012 49284.00391 49609.51953
49817.0 0.00002007 49344.66406 49673.80859
49897.0 0.00002004 49405.30078 49738.55469
49998.0 0.00002000 49465.91016 49803.73828
50119.0 0.00001995 49526.49609 49869.35156
50225.0 0.00001991 49587.04688 49935.36719
50302.0 0.00001988 49647.57422 50001.82031
50409.0 0.00001984 49708.07031 50068.67969
50504.0 0.00001980 49768.54688 50135.96484
50537.0 0.00001979 49829.00000 50203.68750
50545.0 0.00001978 49889.41406 50271.82813
50569.0 0.00001977 49949.80469 50340.44922
50623.0 0.00001975 50010.17969 50409.55859
50704.0 0.00001972 50070.51953 50479.13281
50715.0 0.00001972 50130.83203 50549.26953
50739.0 0.00001971 50191.11328 50619.94141
50820.0 0.00001968 50251.38672 50691.26563
50822.0 0.00001968 50311.61719 50763.19531
50827.0 0.00001967 50371.82813 50835.82813
50883.0 0.00001965 50432.02344 50909.23047
50905.0 0.00001964 50492.17578 50983.44141
50939.0 0.00001963 50552.31250 51058.56641
51016.0 0.00001960 50612.42188 51134.70313
51049.0 0.00001959 50672.50781 51211.92578
51081.0 0.00001958 50732.56641 51290.37891
51111.0 0.00001957 50792.60156 51370.23828
51210.0 0.00001953 50852.60547 51451.66016
51290.0 0.00001950 50912.59766 51534.92969
51360.0 0.00001947 50972.55859 51620.31641
51433.0 0.00001944 51032.48828 51708.18359
51539.0 0.00001940 51092.39844 51799.06641
51633.0 0.00001937 51152.28906 51893.62109
51719.0 0.00001934 51212.16016 51992.76172
51788.0 0.00001931 51271.99219 52097.78125
51913.0 0.00001926 51331.81250 52210.54688
52076.0 0.00001920 51391.59766 52333.71875
52249.0 0.00001914 51451.36719 52471.14453
52450.0 0.00001907 51511.11328 52627.94531
52715.0 0.00001897 51570.83203 52810.14453
53065.0 0.00001884 51630.53516 53021.43750
53447.0 0.00001871 51690.21484 53253.35156
53727.0 0.00001861 51749.86328 53470.96094
53808.0 0.00001858 51809.50000 53625.41016
53798.0 0.00001859 51869.10547 53711.90234
53849.0 0.00001857 51928.69531 53780.17578
54009.0 0.00001852 51988.25391 53872.90625
54112.0 0.00001848 52047.79688 53993.64063
54129.0 0.00001847 52107.31250 54116.10938
54162.0 0.00001846 52166.80859 54214.97656
54210.0 0.00001845 52226.28125 54295.82031
54304.0 0.00001841 52285.73828 54384.80469
54441.0 0.00001837 52345.16406 54502.08984
54641.0 0.00001830 52404.57031 54656.92578
54882.0 0.00001822 52463.96484 54853.79688
55170.0 0.00001813 52523.33594 55098.12891
55528.0 0.00001801 52582.67578 55399.23828
55943.0 0.00001788 52642.00781 55771.97266
56490.0 0.00001770 52701.30859 56237.46875
57104.0 0.00001751 52760.59375 56823.33594
57813.0 0.00001730 52819.85547 57561.98828
58639.0 0.00001705 52879.09766 58485.43750
59629.0 0.00001677 52938.31641 59610.39453
60734.0 0.00001647 52997.52344 60902.90234
61909.0 0.00001615 53056.70703 62215.27344
62929.0 0.00001589 53115.87109 63239.99609
63518.0 0.00001574 53175.01953 63619.07031
63482.0 0.00001575 53234.14453 63235.07813
62759.0 0.00001593 53293.24609 62332.64844
61659.0 0.00001622 53352.33203 61278.63672
60499.0 0.00001653 53411.40234 60319.14453
59491.0 0.00001681 53470.44141 59548.64063
58709.0 0.00001703 53529.47656 58974.35938
58152.0 0.00001720 53588.48828 58569.53125
57775.0 0.00001731 53647.48047 58299.35938
57557.0 0.00001737 53706.45313 58131.17969
57454.0 0.00001741 53765.41406 58038.13672
57489.0 0.00001739 53824.35547 57999.93359
57604.0 0.00001736 53883.27734 58002.46484
57778.0 0.00001731 53942.17969 58036.92578
58027.0 0.00001723 54001.06250 58098.62500
58326.0 0.00001715 54059.92969 58185.99219
58602.0 0.00001706 54118.77734 58299.69531
58918.0 0.00001697 54177.61328 58442.15234
59216.0 0.00001689 54236.42969 58617.04688
59530.0 0.00001680 54295.22656 58829.13281
59818.0 0.00001672 54354.01953 59084.28125
60132.0 0.00001663 54412.78125 59389.51563
60456.0 0.00001654 54471.54297 59752.40625
60791.0 0.00001645 54530.27734 60182.19141
61220.0 0.00001633 54588.99219 60689.03516
61689.0 0.00001621 54647.69141 61284.17578
62272.0 0.00001606 54706.37891 61979.60547
62937.0 0.00001589 54765.06250 62787.75000
63767.0 0.00001568 54823.71484 63720.30469
64701.0 0.00001546 54882.35938 64786.87109
65873.0 0.00001518 54940.98047 65991.92969
67217.0 0.00001488 54999.59766 67330.56250
68651.0 0.00001457 55058.19922 68781.57813
70213.0 0.00001424 55116.78906 70299.32813
71720.0 0.00001394 55175.35156 71805.35156
73084.0 0.00001368 55233.91016 73185.17188
74036.0 0.00001351 55292.44922 74297.78125
74549.0 0.00001341 55350.98438 75002.76563
74671.0 0.00001339 55409.49219 75200.92188
74426.0 0.00001344 55467.98828 74869.60938
74088.0 0.00001350 55526.48047 74071.69531
73517.0 0.00001360 55584.96094 72931.60156
72574.0 0.00001378 55643.42578 71594.39844
71106.0 0.00001406 55701.87109 70191.83594
69417.0 0.00001441 55760.30469 68818.00000
67881.0 0.00001473 55818.73438 67535.94531
66553.0 0.00001503 55877.14844 66378.08594
65442.0 0.00001528 55935.55469 65356.49219
64473.0 0.00001551 55993.93359 64470.53906
63620.0 0.00001572 56052.31641 63712.52734
62841.0 0.00001591 56110.67969 63071.33984
62148.0 0.00001609 56169.03516 62534.68359
61612.0 0.00001623 56227.37500 62090.25781
61146.0 0.00001635 56285.71484 61726.41797
60810.0 0.00001644 56344.03516 61432.41406
60537.0 0.00001652 56402.35156 61198.65625
60317.0 0.00001658 56460.64453 61016.66406
60197.0 0.00001661 56518.94922 60879.14844
60116.0 0.00001663 56577.22656 60779.77344
60145.0 0.00001663 56635.50391 60713.25000
60209.0 0.00001661 56693.75781 60675.01563
60340.0 0.00001657 56752.01172 60661.19922
60502.0 0.00001653 56810.25781 60668.49609
60625.0 0.00001649 56868.49609 60694.00781
60598.0 0.00001650 56926.72266 60735.09766
60520.0 0.00001652 56984.94141 60789.43750
60506.0 0.00001653 57043.14844 60854.81250
60535.0 0.00001652 57101.35156 60929.21094
60588.0 0.00001650 57159.54297 61010.67578
60695.0 0.00001648 57217.72656 61097.53125
60804.0 0.00001645 57275.90625 61188.33594
60995.0 0.00001639 57334.07813 61282.10547
61164.0 0.00001635 57392.23828 61378.48047
61318.0 0.00001631 57450.39453 61478.03516
61502.0 0.00001626 57508.53906 61582.69141
61708.0 0.00001621 57566.68750 61696.05078
61955.0 0.00001614 57624.82031 61823.92969
62224.0 0.00001607 57682.95703 61974.73828
62515.0 0.00001600 57741.07813 62159.67578
62849.0 0.00001591 57799.19922 62392.63672
63181.0 0.00001583 57857.31250 62689.55078
63577.0 0.00001573 57915.41406 63067.06641
64084.0 0.00001560 57973.51953 63540.54688
64680.0 0.00001546 58031.61328 64121.27344
65315.0 0.00001531 58089.71094 64812.54688
65866.0 0.00001518 58147.78906 65603.95313
66195.0 0.00001511 58205.87500 66462.82031
66398.0 0.00001506 58263.95703 67322.20313
66438.0 0.00001505 58322.02734 68072.11719
66482.0 0.00001504 58380.09766 68571.54688
66546.0 0.00001503 58438.15625 68698.24219
66506.0 0.00001504 58496.22656 68417.08594
66419.0 0.00001506 58554.28516 67803.29688
66264.0 0.00001509 58612.33594 66995.15625
66032.0 0.00001514 58670.38672 66126.59375
65824.0 0.00001519 58728.44922 65292.06641
65560.0 0.00001525 58786.49609 64545.25391
65270.0 0.00001532 58844.54297 63910.42578
65009.0 0.00001538 58902.58203 63393.29688
64712.0 0.00001545 58960.62891 62988.38672
64443.0 0.00001552 59018.66797 62683.87500
64171.0 0.00001558 59076.70313 62464.92188
63939.0 0.00001564 59134.74219 62316.16797
63728.0 0.00001569 59192.78125 62223.20313
63614.0 0.00001572 59250.82031 62173.68750
63493.0 0.00001575 59308.85156 62157.53516
63402.0 0.00001577 59366.88672 62166.91797
63326.0 0.00001579 59424.91016 62195.86719
63266.0 0.00001581 59482.95313 62239.90625
63191.0 0.00001583 59540.99219 62295.45313
63063.0 0.00001586 59599.02344 62359.61719
62984.0 0.00001588 59657.05469 62429.86719
62884.0 0.00001590 59715.09766 62503.84766
62744.0 0.00001594 59773.13672 62579.21875
62639.0 0.00001596 59831.16797 62653.72656
62546.0 0.00001599 59889.20703 62728.72266
62509.0 0.00001600 59947.25000 62795.07422
62530.0 0.00001599 60005.29688 62854.38281
62608.0 0.00001597 60063.33203 62905.07813
62811.0 0.00001592 60121.38281 62945.98438
63024.0 0.00001587 60179.43359 62976.39063
63133.0 0.00001584 60237.48828 62996.09375
63071.0 0.00001586 60295.54297 63005.39453
62827.0 0.00001592 60353.60156 63006.37109
62606.0 0.00001597 60411.66016 62997.67188
62457.0 0.00001601 60469.71875 62981.74609
62368.0 0.00001603 60527.78125 62960.23828
62334.0 0.00001604 60585.85547 62934.78516
62299.0 0.00001605 60643.92969 62906.86719
62295.0 0.00001605 60702.01563 62877.92188
62309.0 0.00001605 60760.09766 62849.15234
62319.0 0.00001605 60818.18359 62821.62891
62240.0 0.00001607 60876.27344 62796.16406
62239.0 0.00001607 60934.37109 62773.47266
62242.0 0.00001607 60992.48047 62754.04688
62235.0 0.00001607 61050.57813 62738.16797
62239.0 0.00001607 61108.69922 62726.12500
62248.0 0.00001606 61166.82031 62718.00781
62304.0 0.00001605 61224.94141 62713.85547
62352.0 0.00001604 61283.06641 62713.66797
62379.0 0.00001603 61341.20703 62717.33984
62456.0 0.00001601 61399.35547 62724.81641
62545.0 0.00001599 61457.50391 62735.92969
62621.0 0.00001597 61515.65625 62750.51953
62726.0 0.00001594 61573.82031 62768.45313
62861.0 0.00001591 61631.98828 62789.53906
62992.0 0.00001588 61690.16797 62813.63281
63079.0 0.00001585 61748.35547 62840.53906
63175.0 0.00001583 61806.54297 62870.08984
63234.0 0.00001581 61864.75391 62902.09375
63276.0 0.00001580 61922.96094 62936.40625
63260.0 0.00001581 61981.17188 62972.83984
63255.0 0.00001581 62039.40234 63011.24219
63225.0 0.00001582 62097.63672 63051.42969
63191.0 0.00001583 62155.87891 63093.26953
63164.0 0.00001583 62214.13281 63136.60547
63159.0 0.00001583 62272.39063 63181.29297
63118.0 0.00001584 62330.66016 63227.19141
63116.0 0.00001584 62388.94141 63274.23438
63189.0 0.00001583 62447.23438 63322.42969
63209.0 0.00001582 62505.51953 63371.33984
63277.0 0.00001580 62563.83203 63421.08594
63305.0 0.00001580 62622.15625 63471.55078
63370.0 0.00001578 62680.48047 63522.66016
63499.0 0.00001575 62738.81641 63574.35547
63611.0 0.00001572 62797.16797 63626.57813
63731.0 0.00001569 62855.52734 63679.28906
63821.0 0.00001567 62913.90234 63732.44922
63960.0 0.00001563 62972.27734 63786.01563
64141.0 0.00001559 63030.67188 63840.00781
64278.0 0.00001556 63089.08203 63894.43750
64340.0 0.00001554 63147.50000 63949.30078
64331.0 0.00001554 63205.91406 64004.62500
64257.0 0.00001556 63264.35938 64060.49609
64205.0 0.00001558 63322.81250 64116.87500
64220.0 0.00001557 63381.27734 64173.82813
64250.0 0.00001556 63439.74609 64231.25391
64242.0 0.00001557 63498.23047 64289.10156
64271.0 0.00001556 63556.73438 64347.11719
64343.0 0.00001554 63615.24609 64405.01172
64377.0 0.00001553 63673.76563 64462.43750
64473.0 0.00001551 63732.29688 64519.17578
64541.0 0.00001549 63790.84766 64575.18750
64596.0 0.00001548 63849.41406 64630.88672
64667.0 0.00001546 63907.98828 64686.89453
64724.0 0.00001545 63966.57422 64744.06641
64806.0 0.00001543 64025.17969 64803.23047
64901.0 0.00001541 64083.79297 64865.19141
65014.0 0.00001538 64142.42578 64930.69922
65087.0 0.00001536 64201.06250 65000.41406
65132.0 0.00001535 64259.71875 65075.00781
65227.0 0.00001533 64318.38281 65155.14844
65282.0 0.00001532 64377.06641 65241.58984
65308.0 0.00001531 64435.76172 65335.05078
65330.0 0.00001531 64494.47656 65436.32813
65405.0 0.00001529 64553.19922 65546.23438
65446.0 0.00001528 64611.93750 65665.60938
65542.0 0.00001526 64670.69141 65795.17969
65634.0 0.00001524 64729.45313 65935.88281
65793.0 0.00001520 64788.24219 66088.26563
65990.0 0.00001515 64847.03516 66252.86719
66107.0 0.00001513 64905.83984 66430.00000
66177.0 0.00001511 64964.66406 66619.48438
66298.0 0.00001508 65023.50391 66820.66406
66453.0 0.00001505 65082.35938 67032.05469
66731.0 0.00001499 65141.23047 67250.94531
67136.0 0.00001490 65200.10938 67473.31250
67671.0 0.00001478 65259.00781 67693.34375
68425.0 0.00001461 65317.92578 67903.54688
69409.0 0.00001441 65376.84766 68094.92969
70297.0 0.00001423 65435.78516 68258.17969
70794.0 0.00001413 65494.75000 68384.85156
70672.0 0.00001415 65553.71875 68469.03906
70178.0 0.00001425 65612.71094 68508.53906
69591.0 0.00001437 65671.69531 68505.10156
69038.0 0.00001448 65730.71875 68463.89063
68637.0 0.00001457 65789.75000 68392.21875
68419.0 0.00001462 65848.79688 68298.41406
68209.0 0.00001466 65907.85938 68190.94531
67880.0 0.00001473 65966.92969 68077.54688
67552.0 0.00001480 66026.03125 67964.77344
67302.0 0.00001486 66085.11719 67857.62500
67154.0 0.00001489 66144.25000 67759.61719
67053.0 0.00001491 66203.39063 67672.96094
67012.0 0.00001492 66262.52344 67598.79688
66979.0 0.00001493 66321.69531 67537.59375
66976.0 0.00001493 66380.85938 67489.20313
66946.0 0.00001494 66440.06250 67453.17188
66942.0 0.00001494 66499.25781 67428.72656
66933.0 0.00001494 66558.50000 67415.01563
66923.0 0.00001494 66617.72656 67411.15625
66941.0 0.00001494 66676.96094 67415.75000
66963.0 0.00001493 66736.25000 67428.03906
67008.0 0.00001492 66795.51563 67446.97656
67046.0 0.00001492 66854.81250 67471.75000
67088.0 0.00001491 66914.10938 67501.51563
67129.0 0.00001490 66973.42969 67535.56250
67128.0 0.00001490 67032.77344 67573.34375
67191.0 0.00001488 67092.11719 67614.31250
67278.0 0.00001486 67151.46094 67658.07031
67347.0 0.00001485 67210.84375 67704.35156
67413.0 0.00001483 67270.22656 67752.81250
67461.0 0.00001482 67329.64063 67803.29688
67540.0 0.00001481 67389.03906 67855.61719
67623.0 0.00001479 67448.46094 67909.75781
67711.0 0.00001477 67507.90625 67965.71875
67803.0 0.00001475 67567.35938 68023.50781
67914.0 0.00001472 67626.82031 68083.28125
68033.0 0.00001470 67686.28125 68145.17969
68098.0 0.00001468 67745.78906 68209.53906
68211.0 0.00001466 67805.28125 68276.75000
68343.0 0.00001463 67864.78906 68347.37500
68443.0 0.00001461 67924.29688 68422.08594
68566.0 0.00001458 67983.83594 68501.75000
68704.0 0.00001456 68043.36719 68587.35156
68823.0 0.00001453 68102.92969 68680.06250
68975.0 0.00001450 68162.48438 68781.06250
69136.0 0.00001446 68222.06250 68891.75000
69259.0 0.00001444 68281.65625 69013.35938
69400.0 0.00001441 68341.23438 69147.07031
69505.0 0.00001439 68400.83594 69293.85156
69621.0 0.00001436 68460.45313 69454.20313
69781.0 0.00001433 68520.07031 69628.21094
69950.0 0.00001430 68579.69531 69815.16406
70126.0 0.00001426 68639.33594 70013.41406
70346.0 0.00001422 68698.96875 70220.17188
70547.0 0.00001417 68758.63281 70431.09375
70738.0 0.00001414 68818.28906 70639.84375
70858.0 0.00001411 68877.94531 70838.11719
70973.0 0.00001409 68937.62500 71015.79688
71068.0 0.00001407 68997.29688 71161.97656
71242.0 0.00001404 69056.98438 71267.29688
71467.0 0.00001399 69116.66406 71326.21094
71686.0 0.00001395 69176.35938 71338.89844
71782.0 0.00001393 69236.05469 71311.17969
71625.0 0.00001396 69295.77344 71252.61719
71330.0 0.00001402 69355.46094 71173.97656
71065.0 0.00001407 69415.17969 71085.42188
70845.0 0.00001412 69474.89844 70995.20313
70640.0 0.00001416 69534.60938 70909.39063
70535.0 0.00001418 69594.32813 70832.36719
70469.0 0.00001419 69654.04688 70766.77344
70452.0 0.00001419 69713.76563 70714.25781
70423.0 0.00001420 69773.49219 70675.48438
70401.0 0.00001420 69833.21094 70650.33594
70440.0 0.00001420 69892.93750 70638.26563
70454.0 0.00001419 69952.65625 70638.35156
70489.0 0.00001419 70012.38281 70649.41406
70552.0 0.00001417 70072.09375 70670.12500
70570.0 0.00001417 70131.80469 70699.21094
70627.0 0.00001416 70191.50781 70735.42188
70711.0 0.00001414 70251.22656 70777.62500
70801.0 0.00001412 70310.92969 70824.86719
70883.0 0.00001411 70370.63281 70876.25000
70926.0 0.00001410 70430.32031 70931.12500
70965.0 0.00001409 70490.01563 70988.92969
71109.0 0.00001406 70549.70313 71049.27344
71205.0 0.00001404 70609.37500 71111.76563
71288.0 0.00001403 70669.04688 71176.23438
71382.0 0.00001401 70728.69531 71242.55469
71452.0 0.00001400 70788.35938 71310.52344
71520.0 0.00001398 70847.98438 71380.11719
71545.0 0.00001398 70907.61719 71451.29688
71590.0 0.00001397 70967.25781 71524.03125
71618.0 0.00001396 71026.86719 71598.28125
71679.0 0.00001395 71086.45313 71674.04688
71752.0 0.00001394 71146.03125 71751.36719
71825.0 0.00001392 71205.60156 71830.18750
71884.0 0.00001391 71265.17188 71910.58594
71911.0 0.00001391 71324.70313 71992.43750
71961.0 0.00001390 71384.21094 72075.84375
72013.0 0.00001389 71443.72656 72160.71094
72068.0 0.00001388 71503.21094 72247.02344
72146.0 0.00001386 71562.69531 72334.67188
72260.0 0.00001384 71622.12500 72423.53906
72372.0 0.00001382 71681.57031 72513.58594
72464.0 0.00001380 71740.96875 72604.53906
72557.0 0.00001378 71800.36719 72696.22656
72709.0 0.00001375 71859.72656 72788.36719
72914.0 0.00001371 71919.07031 72880.64844
73177.0 0.00001367 71978.37500 72972.71094
73495.0 0.00001361 72037.67188 73064.21875
73837.0 0.00001354 72096.93750 73154.69531
74181.0 0.00001348 72156.17188 73243.77344
74347.0 0.00001345 72215.38281 73331.08594
74296.0 0.00001346 72274.54688 73416.23438
74120.0 0.00001349 72333.68750 73499.00781
73867.0 0.00001354 72392.81250 73579.39063
73649.0 0.00001358 72451.89844 73657.35156
73523.0 0.00001360 72510.95313 73733.18750
73429.0 0.00001362 72569.96094 73807.32031
73416.0 0.00001362 72628.95313 73880.56250
73404.0 0.00001362 72687.89063 73953.65625
73450.0 0.00001361 72746.79688 74027.80469
73601.0 0.00001359 72805.65625 74104.23438
73780.0 0.00001355 72864.47656 74184.22656
74018.0 0.00001351 72923.25781 74269.21875
74274.0 0.00001346 72982.00000 74360.47656
74490.0 0.00001342 73040.70313 74459.28125
74588.0 0.00001341 73099.35156 74566.57031
74602.0 0.00001340 73157.95313 74683.14063
74651.0 0.00001340 73216.52344 74809.33594
74769.0 0.00001337 73275.03125 74945.02344
74983.0 0.00001334 73333.46875 75089.55469
75239.0 0.00001329 73391.88281 75241.64844
75520.0 0.00001324 73450.25000 75399.08594
75866.0 0.00001318 73508.55469 75558.69531
76264.0 0.00001311 73566.78906 75716.26563
76735.0 0.00001303 73624.97656 75866.42969
77157.0 0.00001296 73683.11719 76003.04688
77255.0 0.00001294 73741.18750 76119.99219
76982.0 0.00001299 73799.20313 76212.10156
76566.0 0.00001306 73857.14063 76276.73438
76161.0 0.00001313 73915.03125 76314.44531
75918.0 0.00001317 73972.85156 76329.07813
75831.0 0.00001319 74030.60938 76327.16406
75759.0 0.00001320 74088.28906 76316.53906
75738.0 0.00001320 74145.90625 76305.21094
75775.0 0.00001320 74203.44531 76300.75000
75839.0 0.00001319 74260.92969 76309.72656
75903.0 0.00001317 74318.31250 76337.67969
75946.0 0.00001317 74375.63281 76389.28125
76055.0 0.00001315 74432.86719 76468.28125
76207.0 0.00001312 74490.03906 76577.62500
76331.0 0.00001310 74547.11719 76719.33594
76469.0 0.00001308 74604.11719 76894.53125
76611.0 0.00001305 74661.02344 77103.46094
76823.0 0.00001302 74717.85938 77345.12500
77097.0 0.00001297 74774.58594 77617.41406
77526.0 0.00001290 74831.22656 77916.79688
78216.0 0.00001279 74887.81250 78238.21094
79271.0 0.00001261 74944.27344 78574.49219
80573.0 0.00001241 75000.63281 78916.35156
81802.0 0.00001222 75056.91406 79251.92188
82129.0 0.00001218 75113.08594 79566.85156
81321.0 0.00001230 75169.15625 79844.74219
80197.0 0.00001247 75225.11719 80068.71875
79406.0 0.00001259 75280.98438 80223.81250
78998.0 0.00001266 75336.74219 80299.75000
78879.0 0.00001268 75392.39844 80293.25781
79062.0 0.00001265 75447.93750 80208.71094
79551.0 0.00001257 75503.36719 80057.15625
80065.0 0.00001249 75558.66406 79853.57031
80465.0 0.00001243 75613.86719 79614.29688
80342.0 0.00001245 75668.93750 79354.58594
79791.0 0.00001253 75723.89063 79087.57031
79081.0 0.00001265 75778.72656 78823.64063
78417.0 0.00001275 75833.42188 78570.67188
77950.0 0.00001283 75887.99219 78334.41406
77670.0 0.00001287 75942.43750 78118.67188
77460.0 0.00001291 75996.76563 77925.82031
77304.0 0.00001294 76050.92188 77756.94531
77245.0 0.00001295 76104.98438 77612.25000
77179.0 0.00001296 76158.87500 77491.05469
77145.0 0.00001296 76212.64063 77392.20313
77173.0 0.00001296 76266.25781 77314.01563
77233.0 0.00001295 76319.73438 77254.63281
77254.0 0.00001294 76373.05469 77212.00000
77277.0 0.00001294 76426.23438 77184.04688
77286.0 0.00001294 76479.24219 77168.78906
77286.0 0.00001294 76532.10938 77164.41406
77287.0 0.00001294 76584.80469 77169.27344
77290.0 0.00001294 76637.33594 77181.87500
77255.0 0.00001294 76689.72656 77201.03125
77280.0 0.00001294 76741.93750 77225.71875
77315.0 0.00001293 76793.98438 77255.03125
77350.0 0.00001293 76845.84375 77288.35156
77355.0 0.00001293 76897.53125 77325.09375
77395.0 0.00001292 76949.05469 77364.89063
77444.0 0.00001291 77000.38281 77407.28906
77496.0 0.00001290 77051.53906 77452.08594
77541.0 0.00001290 77102.50000 77498.97656
77582.0 0.00001289 77153.28906 77547.74219
77645.0 0.00001288 77203.86719 77598.08594
77718.0 0.00001287 77254.25781 77649.67969
77824.0 0.00001285 77304.45313 77702.27344
77875.0 0.00001284 77354.46875 77755.45313
77934.0 0.00001283 77404.24219 77808.64063
78011.0 0.00001282 77453.82813 77861.39063
78062.0 0.00001281 77503.20313 77913.00000
78101.0 0.00001280 77552.36719 77962.84375
78130.0 0.00001280 77601.32031 78010.28125
78157.0 0.00001279 77650.03906 78054.84375
78203.0 0.00001279 77698.54688 78096.28125
78204.0 0.00001279 77746.83594 78134.68750
78229.0 0.00001278 77794.89063 78170.28906
78243.0 0.00001278 77842.69531 78203.57031
78265.0 0.00001278 77890.29688 78235.18750
78241.0 0.00001278 77937.64844 78265.61719
78267.0 0.00001278 77984.75000 78295.44531
78285.0 0.00001277 78031.60938 78325.09375
78289.0 0.00001277 78078.21094 78354.89844
78318.0 0.00001277 78124.57813 78385.14063
78351.0 0.00001276 78170.67188 78415.96875
78357.0 0.00001276 78216.53125 78447.60156
78385.0 0.00001276 78262.10938 78479.99219
78383.0 0.00001276 78307.42188 78513.27344
78420.0 0.00001275 78352.47656 78547.33594
78455.0 0.00001275 78397.24219 78582.20313
78495.0 0.00001274 78441.74219 78617.79688
78514.0 0.00001274 78485.96094 78654.06250
78553.0 0.00001273 78529.89063 78690.92188
78577.0 0.00001273 78573.53125 78728.25000
78639.0 0.00001272 78616.87500 78766.01563
78669.0 0.00001271 78659.92188 78804.07031
78721.0 0.00001270 78702.67969 78842.34375
78746.0 0.00001270 78745.13281 78880.82031
78786.0 0.00001269 78787.26563 78919.35938
78836.0 0.00001268 78829.09375 78957.92969
78871.0 0.00001268 78870.60938 78996.50000
78904.0 0.00001267 78911.78125 79034.97656
78945.0 0.00001267 78952.65625 79073.37500
79006.0 0.00001266 78993.20313 79111.67188
79050.0 0.00001265 79033.39844 79149.77344
79109.0 0.00001264 79073.26563 79187.69531
79158.0 0.00001263 79112.80469 79225.46875
79217.0 0.00001262 79151.98438 79263.00781
79209.0 0.00001262 79190.80469 79300.33594
79237.0 0.00001262 79229.28125 79337.46875
79238.0 0.00001262 79267.39844 79374.32813
79247.0 0.00001262 79305.14844 79411.01563
79274.0 0.00001261 79342.53906 79447.43750
79298.0 0.00001261 79379.54688 79483.67188
79337.0 0.00001260 79416.18750 79519.71875
79410.0 0.00001259 79452.43750 79555.55469
79434.0 0.00001259 79488.32031 79591.58594
79472.0 0.00001258 79523.77344 79627.13281
79569.0 0.00001257 79558.86719 79662.60938
79570.0 0.00001257 79593.53906 79697.96875
79625.0 0.00001256 79627.82031 79733.38281
79694.0 0.00001255 79661.67969 79768.83594
79805.0 0.00001253 79695.13281 79804.44531
79853.0 0.00001252 79728.15625 79840.23438
79914.0 0.00001251 79760.75000 79876.25000
79950.0 0.00001251 79792.92188 79912.66406
80006.0 0.00001250 79824.66406 79949.46094
80074.0 0.00001249 79855.95313 79986.74219
80148.0 0.00001248 79886.80469 80024.57813
80194.0 0.00001247 79917.21094 80063.02344
80255.0 0.00001246 79947.14844 80102.03125
80293.0 0.00001245 79976.63281 80141.63281
80312.0 0.00001245 80005.63281 80181.78906
80329.0 0.00001245 80034.17969 80222.39844
80369.0 0.00001244 80062.25000 80263.35156
80391.0 0.00001244 80089.82813 80304.41406
80377.0 0.00001244 80116.92188 80345.43750
80392.0 0.00001244 80143.50781 80385.93750
80425.0 0.00001243 80169.60156 80425.62500
80436.0 0.00001243 80195.20313 80463.99219
80456.0 0.00001243 80220.26563 80500.39844
80476.0 0.00001243 80244.82031 80534.28906
80483.0 0.00001242 80268.87500 80565.05469
80525.0 0.00001242 80292.38281 80592.21875
80562.0 0.00001241 80315.35938 80615.47656
80581.0 0.00001241 80337.78906 80634.68750
80617.0 0.00001240 80359.67188 80650.09375
80655.0 0.00001240 80381.01563 80662.07031
80715.0 0.00001239 80401.78125 80671.14063
80706.0 0.00001239 80421.99219 80677.90625
80746.0 0.00001238 80441.61719 80861.19531
80804.0 0.00001238 80460.68750 80866.25781
80915.0 0.00001236 80479.15625 80870.58594
80991.0 0.00001235 80497.04688 80874.54688
81071.0 . . .
81145.0 . . .
81312.0 . . .
81480.0 . . .
81660.0 . . .
81836.0 . . .
81971.0 . . .
81983.0 . . .
81927.0 . . .
81781.0 . . .
81669.0 . . .
81557.0 . . .
81549.0 . . .
81567.0 . . .
81590.0 . . .
81590.0 . . .
81621.0 . . .
81639.0 . . .
81667.0 . . .
81717.0 . . .
81762.0 . . .
81823.0 . . .
81899.0 . . .
81981.0 . . .
82031.0 . . .
82120.0 . . .
82240.0 . . .
82292.0 . . .
82326.0 . . .
82346.0 . . .
82394.0 . . .
82417.0 . . .
82423.0 . . .
82470.0 . . .
82540.0 . . .
82575.0 . . .
82651.0 . . .
82721.0 . . .
82795.0 . . .
82870.0 . . .
82935.0 . . .
83013.0 . . .
83064.0 . . .
83112.0 . . .
83168.0 . . .
83209.0 . . .
83262.0 . . .
83320.0 . . .
83348.0 . . .
83390.0 . . .
83405.0 . . .
83434.0 . . .
83454.0 . . .
83512.0 . . .
83550.0 . . .
83594.0 . . .
83602.0 . . .
83612.0 . . .
83643.0 . . .
83700.0 . . .
83737.0 . . .
83765.0 . . .
83797.0 . . .
83826.0 . . .
83859.0 . . .
83903.0 . . .
83942.0 . . .
83979.0 . . .
84006.0 . . .
84031.0 . . .
84102.0 . . .
84162.0 . . .
84194.0 . . .
84236.0 . . .
84248.0 . . .
84254.0 . . .
84263.0 . . .
84327.0 . . .
84332.0 . . .
84398.0 . . .
84442.0 . . .
84468.0 . . .
84504.0 . . .
84530.0 . . .
84558.0 . . .
84624.0 . . .
84670.0 . . .
84690.0 . . .
84735.0 . . .
84794.0 . . .
84858.0 . . .
84904.0 . . .
84971.0 . . .
85038.0 . . .
85094.0 . . .
85139.0 . . .
85157.0 . . .
85221.0 . . .
85251.0 . . .
85328.0 . . .
85366.0 . . .
85446.0 . . .
85521.0 . . .
85578.0 . . .
85594.0 . . .
85653.0 . . .
85689.0 . . .
85742.0 . . .
85779.0 . . .
85792.0 . . .
85812.0 . . .
85865.0 . . .
85875.0 . . .
85916.0 . . .
85938.0 . . .
85988.0 . . .
86008.0 . . .
86069.0 . . .
86117.0 . . .
86128.0 . . .
86212.0 . . .
86324.0 . . .
86410.0 . . .
86516.0 . . .
86652.0 . . .
86771.0 . . .
86877.0 . . .
86930.0 . . .
86906.0 . . .
86850.0 . . .
86822.0 . . .
86797.0 . . .
86776.0 . . .
86759.0 . . .
86778.0 . . .
86801.0 . . .
86831.0 . . .
86844.0 . . .
86862.0 . . .
86872.0 . . .
86946.0 . . .
86986.0 . . .
86996.0 . . .
87029.0 . . .
87034.0 . . .
87035.0 . . .
87102.0 . . .
87165.0 . . .
87220.0 . . .
87252.0 . . .
87266.0 . . .
87329.0 . . .
87397.0 . . .
87434.0 . . .
87516.0 . . .
87570.0 . . .
87603.0 . . .
87665.0 . . .
87702.0 . . .
87747.0 . . .
87806.0 . . .
87884.0 . . .
87978.0 . . .
88063.0 . . .
88128.0 . . .
88203.0 . . .
88259.0 . . .
88295.0 . . .
88330.0 . . .
88369.0 . . .
88369.0 . . .
88358.0 . . .
88371.0 . . .
88411.0 . . .
88425.0 . . .
88454.0 . . .
88496.0 . . .
88570.0 . . .
88632.0 . . .
88661.0 . . .
88739.0 . . .
88813.0 . . .
88863.0 . . .
88966.0 . . .
89067.0 . . .
89126.0 . . .
89179.0 . . .
89237.0 . . .
89288.0 . . .
89395.0 . . .
89504.0 . . .
89600.0 . . .
89673.0 . . .
89778.0 . . .
89892.0 . . .
90000.0 . . .
90153.0 . . .
90275.0 . . .
90346.0 . . .
90372.0 . . .
90337.0 . . .
90319.0 . . .
90313.0 . . .
90306.0 . . .
90338.0 . . .
90393.0 . . .
90473.0 . . .
90530.0 . . .
90550.0 . . .
90543.0 . . .
90541.0 . . .
90520.0 . . .
90531.0 . . .
90579.0 . . .
90605.0 . . .
90651.0 . . .
90730.0 . . .
90809.0 . . .
90907.0 . . .
90971.0 . . .
91117.0 . . .
91210.0 . . .
91323.0 . . .
91447.0 . . .
91588.0 . . .
91737.0 . . .
91911.0 . . .
92083.0 . . .
92250.0 . . .
92379.0 . . .
92480.0 . . .
92534.0 . . .
92563.0 . . .
92566.0 . . .
92570.0 . . .
92589.0 . . .
92603.0 . . .
92592.0 . . .
92575.0 . . .
92633.0 . . .
92695.0 . . .
92753.0 . . .
92802.0 . . .
92792.0 . . .
92775.0 . . .
92775.0 . . .
92748.0 . . .
92712.0 . . .
92682.0 . . .
92641.0 . . .
92629.0 . . .
92619.0 . . .
92655.0 . . .
92660.0 . . .
92673.0 . . .
92687.0 . . .
92681.0 . . .
92709.0 . . .
92736.0 . . .
92744.0 . . .
92735.0 . . .
92739.0 . . .
92723.0 . . .
92725.0 . . .
92726.0 . . .
92709.0 . . .
92718.0 . . .
92720.0 . . .
92759.0 . . .
92825.0 . . .
92891.0 . . .
92933.0 . . .
92997.0 . . .
93071.0 . . .
93134.0 . . .
93174.0 . . .
93193.0 . . .
93172.0 . . .
93149.0 . . .
93193.0 . . .
93198.0 . . .
93212.0 . . .
93207.0 . . .
93206.0 . . .
93227.0 . . .
93231.0 . . .
93225.0 . . .
93260.0 . . .
93298.0 . . .
93307.0 . . .
93310.0 . . .
93349.0 . . .
93361.0 . . .
93365.0 . . .
93322.0 . . .
93359.0 . . .
93355.0 . . .
93325.0 . . .
93321.0 . . .
93316.0 . . .
93337.0 . . .
93410.0 . . .
93434.0 . . .
93425.0 . . .
93429.0 . . .
93442.0 . . .
93474.0 . . .
93498.0 . . .
93520.0 . . .
93578.0 . . .
93602.0 . . .
93615.0 . . .
93657.0 . . .
93690.0 . . .
93728.0 . . .
93782.0 . . .
93861.0 . . .
93895.0 . . .
93960.0 . . .
94021.0 . . .
94082.0 . . .
94164.0 . . .
94202.0 . . .
94248.0 . . .
94284.0 . . .
94323.0 . . .
94387.0 . . .
94405.0 . . .
94423.0 . . .
94467.0 . . .
94546.0 . . .
94611.0 . . .
94680.0 . . .
94689.0 . . .
94697.0 . . .
94720.0 . . .
94723.0 . . .
94725.0 . . .
94700.0 . . .
94697.0 . . .
94721.0 . . .
94701.0 . . .
94673.0 . . .
94697.0 . . .
94725.0 . . .
94732.0 . . .
94733.0 . . .
94753.0 . . .
94765.0 . . .
94775.0 . . .
94740.0 . . .
94787.0 . . .
94855.0 . . .
94879.0 . . .
94931.0 . . .
94910.0 . . .
94911.0 . . .
94934.0 . . .
94985.0 . . .
95027.0 . . .
95059.0 . . .
95085.0 . . .
95109.0 . . .
95155.0 . . .
95198.0 . . .
95252.0 . . .
95267.0 . . .
95285.0 . . .
95327.0 . . .
95399.0 . . .
95501.0 . . .
95591.0 . . .
95635.0 . . .
95675.0 . . .
95731.0 . . .
95776.0 . . .
95812.0 . . .
95783.0 . . .
95788.0 . . .
95831.0 . . .
95878.0 . . .
95919.0 . . .
95955.0 . . .
96013.0 . . .
96121.0 . . .
96215.0 . . .
96289.0 . . .
96394.0 . . .
96456.0 . . .
96532.0 . . .
96491.0 . . .
96435.0 . . .
96398.0 . . .
96398.0 . . .
96378.0 . . .
96343.0 . . .
96346.0 . . .
96345.0 . . .
96371.0 . . .
96414.0 . . .
96439.0 . . .
96473.0 . . .
96496.0 . . .
96526.0 . . .
96526.0 . . .
96597.0 . . .
96643.0 . . .
96650.0 . . .
96652.0 . . .
96712.0 . . .
96794.0 . . .
96843.0 . . .
96888.0 . . .
96879.0 . . .
96895.0 . . .
96940.0 . . .
96996.0 . . .
97000.0 . . .
97039.0 . . .
97034.0 . . .
97058.0 . . .
97087.0 . . .
97099.0 . . .
97120.0 . . .
97166.0 . . .
97185.0 . . .
97195.0 . . .
97238.0 . . .
97316.0 . . .
97357.0 . . .
97362.0 . . .
97372.0 . . .
97448.0 . . .
97558.0 . . .
97639.0 . . .
97706.0 . . .
97756.0 . . .
97809.0 . . .
97892.0 . . .
97940.0 . . .
97889.0 . . .
97868.0 . . .
97883.0 . . .
97895.0 . . .
97904.0 . . .
97900.0 . . .
97911.0 . . .
97943.0 . . .
97981.0 . . .
97992.0 . . .
98000.0 . . .
97995.0 . . .
97990.0 . . .
97999.0 . . .
97954.0 . . .
97934.0 . . .
97940.0 . . .
97965.0 . . .
97990.0 . . .
98007.0 . . .
98026.0 . . .
98029.0 . . .
98055.0 . . .
98072.0 . . .
98123.0 . . .
98147.0 . . .
98172.0 . . .
98173.0 . . .
98232.0 . . .
98289.0 . . .
98309.0 . . .
98342.0 . . .
98335.0 . . .
98356.0 . . .
98391.0 . . .
98426.0 . . .
98437.0 . . .
98479.0 . . .
98502.0 . . .
98577.0 . . .
98651.0 . . .
98701.0 . . .
98792.0 . . .
98812.0 . . .
98841.0 . . .
98881.0 . . .
98907.0 . . .
99003.0 . . .
99068.0 . . .
99159.0 . . .
99223.0 . . .
99255.0 . . .
99298.0 . . .
99320.0 . . .
99324.0 . . .
99324.0 . . .
99382.0 . . .
99418.0 . . .
99458.0 . . .
99512.0 . . .
99584.0 . . .
99614.0 . . .
99635.0 . . .
99643.0 . . .
99572.0 . . .
99533.0 . . .
99527.0 . . .
99522.0 . . .
99506.0 . . .
99524.0 . . .
99523.0 . . .
99512.0 . . .
99482.0 . . .
99514.0 . . .
99506.0 . . .
99525.0 . . .
99516.0 . . .
99522.0 . . .
99560.0 . . .
99573.0 . . .
99576.0 . . .
99596.0 . . .
99619.0 . . .
99618.0 . . .
99620.0 . . .
99627.0 . . .
99669.0 . . .
99707.0 . . .
99715.0 . . .
99753.0 . . .
99793.0 . . .
99840.0 . . .
99876.0 . . .
99910.0 . . .
99960.0 . . .
100031.0 . . .
100061.0 . . .
100151.0 . . .
100230.0 . . .
100331.0 . . .
100430.0 . . .
100516.0 . . .
100607.0 . . .
100688.0 . . .
100650.0 . . .
100634.0 . . .
100601.0 . . .
100575.0 . . .
100541.0 . . .
100524.0 . . .
100506.0 . . .
100497.0 . . .
100499.0 . . .
100488.0 . . .
100468.0 . . .
100485.0 . . .
100522.0 . . .
100562.0 . . .
100575.0 . . .
100564.0 . . .
100556.0 . . .
100612.0 . . .
100671.0 . . .
100687.0 . . .
100703.0 . . .
100692.0 . . .
100678.0 . . .
100709.0 . . .
100697.0 . . .
100750.0 . . .
100819.0 . . .
100818.0 . . .
100812.0 . . .
100815.0 . . .
100830.0 . . .
100842.0 . . .
100842.0 . . .
100859.0 . . .
100824.0 . . .
100841.0 . . .
100835.0 . . .
100828.0 . . .
100806.0 . . .
100841.0 . . .
100850.0 . . .
100834.0 . . .
100839.0 . . .
100900.0 . . .
100885.0 . . .
100886.0 . . .
100935.0 . . .
100972.0 . . .
100981.0 . . .
100989.0 . . .
100983.0 . . .
101004.0 . . .
101007.0 . . .
101011.0 . . .
101053.0 . . .
101076.0 . . .
101090.0 . . .
101106.0 . . .
101135.0 . . .
101191.0 . . .
101236.0 . . .
101248.0 . . .
101247.0 . . .
101281.0 . . .
101297.0 . . .
101340.0 . . .
101378.0 . . .
101419.0 . . .
101483.0 . . .
101512.0 . . .
101538.0 . . .
101570.0 . . .
101588.0 . . .
101605.0 . . .
101648.0 . . .
101706.0 . . .
101732.0 . . .
101731.0 . . .
101726.0 . . .
101768.0 . . .
101846.0 . . .
101876.0 . . .
101896.0 . . .
101908.0 . . .
101907.0 . . .
101896.0 . . .
101921.0 . . .
101948.0 . . .
101991.0 . . .
102050.0 . . .
102068.0 . . .
102028.0 . . .
102016.0 . . .
102046.0 . . .
102070.0 . . .
102122.0 . . .
102146.0 . . .
102148.0 . . .
102198.0 . . .
102172.0 . . .
102160.0 . . .
102151.0 . . .
102190.0 . . .
102225.0 . . .
102204.0 . . .
102199.0 . . .
102213.0 . . .
102215.0 . . .
102213.0 . . .
102251.0 . . .
102260.0 . . .
102264.0 . . .
102261.0 . . .
102293.0 . . .
102323.0 . . .
102329.0 . . .
102340.0 . . .
102380.0 . . .
102387.0 . . .
102387.0 . . .
102384.0 . . .
102400.0 . . .
102453.0 . . .
102515.0 . . .
102560.0 . . .
102596.0 . . .
102645.0 . . .
102702.0 . . .
102726.0 . . .
102724.0 . . .
102690.0 . . .
102631.0 . . .
102559.0 . . .
102529.0 . . .
102525.0 . . .
102563.0 . . .
102573.0 . . .
102539.0 . . .
102519.0 . . .
102549.0 . . .
102583.0 . . .
102579.0 . . .
102585.0 . . .
102601.0 . . .
102597.0 . . .
102567.0 . . .
102530.0 . . .
102500.0 . . .
102477.0 . . .
102477.0 . . .
102523.0 . . .
102551.0 . . .
102522.0 . . .
102490.0 . . .
102439.0 . . .
102440.0 . . .
102457.0 . . .
102452.0 . . .
102482.0 . . .
102487.0 . . .
102488.0 . . .
102445.0 . . .
102435.0 . . .
102441.0 . . .
102452.0 . . .
102454.0 . . .
102436.0 . . .
102427.0 . . .
102415.0 . . .
102407.0 . . .
102418.0 . . .
102400.0 . . .
102403.0 . . .
102422.0 . . .
102444.0 . . .
102458.0 . . .
102458.0 . . .
102484.0 . . .
102491.0 . . .
102520.0 . . .
102553.0 . . .
102584.0 . . .
102654.0 . . .
102693.0 . . .
102723.0 . . .
102710.0 . . .
102651.0 . . .
102563.0 . . .
102517.0 . . .
102492.0 . . .
102446.0 . . .
102383.0 . . .
102346.0 . . .
102388.0 . . .
102411.0 . . .
102408.0 . . .
102427.0 . . .
102421.0 . . .
102384.0 . . .
102378.0 . . .
102350.0 . . .
102303.0 . . .
102301.0 . . .
102335.0 . . .
102342.0 . . .
102332.0 . . .
102296.0 . . .
102252.0 . . .
102241.0 . . .
102172.0 . . .
102066.0 . . .
101964.0 . . .
101833.0 . . .
101629.0 . . .
101395.0 . . .
101148.0 . . .
100911.0 . . .
100558.0 . . .
100235.0 . . .
99910.0 . . .
99793.0 . . .
100404.0 . . .
100624.0 . . .
100740.0 . . .
100819.0 . . .
100871.0 . . .
100947.0 . . .
100993.0 . . .
101013.0 . . .
101054.0 . . .
101063.0 . . .
101102.0 . . .
101108.0 . . .
101103.0 . . .
101137.0 . . .
101145.0 . . .
101174.0 . . .
101164.0 . . .
101201.0 . . .
101197.0 . . .
101189.0 . . .
101203.0 . . .
101219.0 . . .
101212.0 . . .
101175.0 . . .
101179.0 . . .
101178.0 . . .
101199.0 . . .
101188.0 . . .
101184.0 . . .
101221.0 . . .
101248.0 . . .
101256.0 . . .
101226.0 . . .
101255.0 . . .
101271.0 . . .
101286.0 . . .
101338.0 . . .
101360.0 . . .
101353.0 . . .
101321.0 . . .
101309.0 . . .
101297.0 . . .
101300.0 . . .
101275.0 . . .
101247.0 . . .
101267.0 . . .
101235.0 . . .
101237.0 . . .
101222.0 . . .
101212.0 . . .
101218.0 . . .
101194.0 . . .
101196.0 . . .
101179.0 . . .
101160.0 . . .
101168.0 . . .
101153.0 . . .
101165.0 . . .
101157.0 . . .
101166.0 . . .
101134.0 . . .
101120.0 . . .
101088.0 . . .
101065.0 . . .
101043.0 . . .
101023.0 . . .
101033.0 . . .
101046.0 . . .
101031.0 . . .
101012.0 . . .
101037.0 . . .
101032.0 . . .
101003.0 . . .
100978.0 . . .
100978.0 . . .
100959.0 . . .
100931.0 . . .
100943.0 . . .
100950.0 . . .
100954.0 . . .
100903.0 . . .
100881.0 . . .
100876.0 . . .
100821.0 . . .
100806.0 . . .
100769.0 . . .
100774.0 . . .
100783.0 . . .
100761.0 . . .
100764.0 . . .
100758.0 . . .
100715.0 . . .
100712.0 . . .
100662.0 . . .
100643.0 . . .
100669.0 . . .
100675.0 . . .
100670.0 . . .
100633.0 . . .
100579.0 . . .
100586.0 . . .
100584.0 . . .
100592.0 . . .
100583.0 . . .
100584.0 . . .
100573.0 . . .
100566.0 . . .
100574.0 . . .
100529.0 . . .
100491.0 . . .
100502.0 . . .
100479.0 . . .
100442.0 . . .
100457.0 . . .
100482.0 . . .
100499.0 . . .
100507.0 . . .
100497.0 . . .
100492.0 . . .
100495.0 . . .
100480.0 . . .
100472.0 . . .
100414.0 . . .
100386.0 . . .
100385.0 . . .
100345.0 . . .
100394.0 . . .
100416.0 . . .
100408.0 . . .
100384.0 . . .
100380.0 . . .
100396.0 . . .
100429.0 . . .
100456.0 . . .
100489.0 . . .
100460.0 . . .
100444.0 . . .
100396.0 . . .
100337.0 . . .
100355.0 . . .
100337.0 . . .
100311.0 . . .
100257.0 . . .
100228.0 . . .
100253.0 . . .
100246.0 . . .
100249.0 . . .
100247.0 . . .
100208.0 . . .
100203.0 . . .
100229.0 . . .
100250.0 . . .
100261.0 . . .
100210.0 . . .
100179.0 . . .
100126.0 . . .
100175.0 . . .
100165.0 . . .
100145.0 . . .
100155.0 . . .
100140.0 . . .
100121.0 . . .
100135.0 . . .
100138.0 . . .
100095.0 . . .
100052.0 . . .
100080.0 . . .
100071.0 . . .
100059.0 . . .
100091.0 . . .
100059.0 . . .
100046.0 . . .
100070.0 . . .
100065.0 . . .
100064.0 . . .
100046.0 . . .
100027.0 . . .
99995.0 . . .
99994.0 . . .
100000.0 . . .
99999.0 . . .
100012.0 . . .
99981.0 . . .
99904.0 . . .
99880.0 . . .
99882.0 . . .
99898.0 . . .
99902.0 . . .
99878.0 . . .
99877.0 . . .
99903.0 . . .
99930.0 . . .
99919.0 . . .
99888.0 . . .
99899.0 . . .
99902.0 . . .
99866.0 . . .
99848.0 . . .
99814.0 . . .
99810.0 . . .
99814.0 . . .
99779.0 . . .
99758.0 . . .
99776.0 . . .
99778.0 . . .
99782.0 . . .
99794.0 . . .
99792.0 . . .
99787.0 . . .
99796.0 . . .
99814.0 . . .
99806.0 . . .
99816.0 . . .
99791.0 . . .
99820.0 . . .
99825.0 . . .
99774.0 . . .
99787.0 . . .
99725.0 . . .
99670.0 . . .
99660.0 . . .
99647.0 . . .
99653.0 . . .
99678.0 . . .
99645.0 . . .
99674.0 . . .
99692.0 . . .
99683.0 . . .
99662.0 . . .
99650.0 . . .
99691.0 . . .
99657.0 . . .
99613.0 . . .
99634.0 . . .
99626.0 . . .
99625.0 . . .
99662.0 . . .
99684.0 . . .
99700.0 . . .
99757.0 . . .
99809.0 . . .
99804.0 . . .
99780.0 . . .
99741.0 . . .
99703.0 . . .
99719.0 . . .
99807.0 . . .
99830.0 . . .
99867.0 . . .
99902.0 . . .
99903.0 . . .
99923.0 . . .
99963.0 . . .
99990.0 . . .
99994.0 . . .
100022.0 . . .
100044.0 . . .
100055.0 . . .
100039.0 . . .
100046.0 . . .
100082.0 . . .
100111.0 . . .
100158.0 . . .
100161.0 . . .
100163.0 . . .
100181.0 . . .
100184.0 . . .
100160.0 . . .
100188.0 . . .
100175.0 . . .
100167.0 . . .
100181.0 . . .
100136.0 . . .
100104.0 . . .
100114.0 . . .
100108.0 . . .
100018.0 . . .
99995.0 . . .
100007.0 . . .
99968.0 . . .
99933.0 . . .
99948.0 . . .
99929.0 . . .
99971.0 . . .
99949.0 . . .
99908.0 . . .
99907.0 . . .
99919.0 . . .
99916.0 . . .
99884.0 . . .
99902.0 . . .
99833.0 . . .
99755.0 . . .
99782.0 . . .
99753.0 . . .
99770.0 . . .
99776.0 . . .
99767.0 . . .
99771.0 . . .
99738.0 . . .
99705.0 . . .
99687.0 . . .
99669.0 . . .
99633.0 . . .
99653.0 . . .
99650.0 . . .
99675.0 . . .
99663.0 . . .
99671.0 . . .
99605.0 . . .
99589.0 . . .
99602.0 . . .
99593.0 . . .
99569.0 . . .
99606.0 . . .
99608.0 . . .
99564.0 . . .
99559.0 . . .
99568.0 . . .
99588.0 . . .
99598.0 . . .
99596.0 . . .
99582.0 . . .
99570.0 . . .
99583.0 . . .
99553.0 . . .
99537.0 . . .
99489.0 . . .
99446.0 . . .
99434.0 . . .
99435.0 . . .
99419.0 . . .
99431.0 . . .
99390.0 . . .
99364.0 . . .
99367.0 . . .
99297.0 . . .
99266.0 . . .
99268.0 . . .
99257.0 . . .
99278.0 . . .
99251.0 . . .
99213.0 . . .
99201.0 . . .
99203.0 . . .
99174.0 . . .
99139.0 . . .
99121.0 . . .
99095.0 . . .
99032.0 . . .
99004.0 . . .
99011.0 . . .
99030.0 . . .
99005.0 . . .
99036.0 . . .
99071.0 . . .
99035.0 . . .
99000.0 . . .
98890.0 . . .
98877.0 . . .
98875.0 . . .
98887.0 . . .
98865.0 . . .
98818.0 . . .
98866.0 . . .
98828.0 . . .
98799.0 . . .
98760.0 . . .
98721.0 . . .
98731.0 . . .
98723.0 . . .
98708.0 . . .
98710.0 . . .
98668.0 . . .
98637.0 . . .
98576.0 . . .
98579.0 . . .
98602.0 . . .
98568.0 . . .
98553.0 . . .
98534.0 . . .
98515.0 . . .
98489.0 . . .
98465.0 . . .
98431.0 . . .
98420.0 . . .
98360.0 . . .
98359.0 . . .
98417.0 . . .
98344.0 . . .
98320.0 . . .
98377.0 . . .
98333.0 . . .
98320.0 . . .
98294.0 . . .
98232.0 . . .
98290.0 . . .
98305.0 . . .
98256.0 . . .
98220.0 . . .
98228.0 . . .
98154.0 . . .
98096.0 . . .
98121.0 . . .
98068.0 . . .
98031.0 . . .
97996.0 . . .
97969.0 . . .
98023.0 . . .
97971.0 . . .
97938.0 . . .
97890.0 . . .
97907.0 . . .
97820.0 . . .
97763.0 . . .
97789.0 . . .
97798.0 . . .
97746.0 . . .
97733.0 . . .
97760.0 . . .
97756.0 . . .
97704.0 . . .
97671.0 . . .
97685.0 . . .
97660.0 . . .
97690.0 . . .
97681.0 . . .
97693.0 . . .
97678.0 . . .
97646.0 . . .
97676.0 . . .
97643.0 . . .
97662.0 . . .
97633.0 . . .
97608.0 . . .
97624.0 . . .
97609.0 . . .
97537.0 . . .
97516.0 . . .
97536.0 . . .
97512.0 . . .
97439.0 . . .
97426.0 . . .
97373.0 . . .
97316.0 . . .
97343.0 . . .
97407.0 . . .
97455.0 . . .
97425.0 . . .
97359.0 . . .
97242.0 . . .
97215.0 . . .
97184.0 . . .
97144.0 . . .
97131.0 . . .
97127.0 . . .
97215.0 . . .
97261.0 . . .
97192.0 . . .
97131.0 . . .
97152.0 . . .
97181.0 . . .
97172.0 . . .
97174.0 . . .
97071.0 . . .
97112.0 . . .
97181.0 . . .
97246.0 . . .
97284.0 . . .
97183.0 . . .
97212.0 . . .
97143.0 . . .
97097.0 . . .
97079.0 . . .
97065.0 . . .
97074.0 . . .
97046.0 . . .
97004.0 . . .
96981.0 . . .
96972.0 . . .
97006.0 . . .
96920.0 . . .
96819.0 . . .
96834.0 . . .
96809.0 . . .
96785.0 . . .
96708.0 . . .
96682.0 . . .
96720.0 . . .
96728.0 . . .
96769.0 . . .
96733.0 . . .
96757.0 . . .
96675.0 . . .
96616.0 . . .
96649.0 . . .
96629.0 . . .
96628.0 . . .
96617.0 . . .
96534.0 . . .
96592.0 . . .
96606.0 . . .
96582.0 . . .
96559.0 . . .
96583.0 . . .
96667.0 . . .
96653.0 . . .
96574.0 . . .
96525.0 . . .
96534.0 . . .
96635.0 . . .
96590.0 . . .
96481.0 . . .
96486.0 . . .
96523.0 . . .
96612.0 . . .
96547.0 . . .
96496.0 . . .
96558.0 . . .
96506.0 . . .
96451.0 . . .
96450.0 . . .
96473.0 . . .
96536.0 . . .
96445.0 . . .
96301.0 . . .
96334.0 . . .
96350.0 . . .
96341.0 . . .
96410.0 . . .
96378.0 . . .
96409.0 . . .
96334.0 . . .
96324.0 . . .
96328.0 . . .
96294.0 . . .
96305.0 . . .
96268.0 . . .
96143.0 . . .
96154.0 . . .
96171.0 . . .
96116.0 . . .
96175.0 . . .
96170.0 . . .
96177.0 . . .
96165.0 . . .
96089.0 . . .
96022.0 . . .
96015.0 . . .
95991.0 . . .
95996.0 . . .
95999.0 . . .
96116.0 . . .
96101.0 . . .
96023.0 . . .
95990.0 . . .
96008.0 . . .
95914.0 . . .
95834.0 . . .
95915.0 . . .
95836.0 . . .
95809.0 . . .
95771.0 . . .
95658.0 . . .
95685.0 . . .
95615.0 . . .
95626.0 . . .
95720.0 . . .
95673.0 . . .
95594.0 . . .
95595.0 . . .
95594.0 . . .
95609.0 . . .
95670.0 . . .
95564.0 . . .
95446.0 . . .
95522.0 . . .
95512.0 . . .
95452.0 . . .
95414.0 . . .
95308.0 . . .
95359.0 . . .
95375.0 . . .
95355.0 . . .
95342.0 . . .
95258.0 . . .
95239.0 . . .
95277.0 . . .
95290.0 . . .
95248.0 . . .
95339.0 . . .
95388.0 . . .
95332.0 . . .
95349.0 . . .
95312.0 . . .
95244.0 . . .
95213.0 . . .
95168.0 . . .
95030.0 . . .
95090.0 . . .
95179.0 . . .
95038.0 . . .
95012.0 . . .
95010.0 . . .
94872.0 . . .
94854.0 . . .
94825.0 . . .
94756.0 . . .
94809.0 . . .
94812.0 . . .
94733.0 . . .
94784.0 . . .
94755.0 . . .
94553.0 . . .
94463.0 . . .
94454.0 . . .
94365.0 . . .
94319.0 . . .
94389.0 . . .
94420.0 . . .
94452.0 . . .
94512.0 . . .
94452.0 . . .
94480.0 . . .
94519.0 . . .
94337.0 . . .
94018.0 . . .
94192.0 . . .
94252.0 . . .
94133.0 . . .
94171.0 . . .
94241.0 . . .
94058.0 . . .
94045.0 . . .
93998.0 . . .
93854.0 . . .
93961.0 . . .
94005.0 . . .
93745.0 . . .
93754.0 . . .
93883.0 . . .
93751.0 . . .
93770.0 . . .
93977.0 . . .
93762.0 . . .
93495.0 . . .
93678.0 . . .
93609.0 . . .
93404.0 . . .
93279.0 . . .
93345.0 . . .
93094.0 . . .
93071.0 . . .
93144.0 . . .
93085.0 . . .
92894.0 . . .
93014.0 . . .
92829.0 . . .
92723.0 . . .
92927.0 . . .
92909.0 . . .
92658.0 . . .
92770.0 . . .
92771.0 . . .
92303.0 . . .
92254.0 . . .
92475.0 . . .
92210.0 . . .
91877.0 . . .
92438.0 . . .
92497.0 . . .
92001.0 . . .
91992.0 . . .
92016.0 . . .
91646.0 . . .
91271.0 . . .
91610.0 . . .
91568.0 . . .
91244.0 . . .
91430.0 . . .
91577.0 . . .
91128.0 . . .
90898.0 . . .
91003.0 . . .
90791.0 . . .
90434.0 . . .
90800.0 . . .
90749.0 . . .
90198.0 . . .
90196.0 . . .
90232.0 . . .
90064.0 . . .
89530.0 . . .
89779.0 . . .
89388.0 . . .
88676.0 . . .
89060.0 . . .
88827.0 . . .
88378.0 . . .
87649.0 . . .
87958.0 . . .
87786.0 . . .
86990.0 . . .
87516.0 . . .
87476.0 . . .
87374.0 . . .
87457.0 . . .
88519.0 . . .
88833.0 . . .
88857.0 . . .
89625.0 . . .
89259.0 . . .
88888.0 . . .
88714.0 . . .
89133.0 . . .
88565.0 . . .
87181.0 . . .
87825.0 . . .
87692.0 . . .
86787.0 . . .
85795.0 . . .
86518.0 . . .
85660.0 . . .
84077.0 . . .
84405.0 . . .
84099.0 . . .
82749.0 . . .
80890.0 . . .
82228.0 . . .
80637.0 . . .
78680.0 . . .
77699.0 . . .
76944.0 . . .
74196.0 . . .
70656.0 . . .
70785.0 . . .
66610.0 . . .
61019.0 . . .
55219.0 . . .
49253.0 . . .
35702.0 . . .
25000.0 . . .
17040.0 . . .
7641.0 . . .
3345.0 . . .
2184.0 . . .
loop_
_refln_index_h
_refln_index_k
_refln_index_l
_refln_observed_status
_refln_F_squared_meas
_refln_F_squared_calc
_refln_phase_calc
_refln_d_spacing
_gsas_i100_meas
0 2 0 o 0.001 0.001 0.00 7.44382 0.00
2 0 0 o 624.260 624.260 0.00 6.43994 0.06
2 1 1 o 12734.939 12734.939 0.00 2.86377 1.03
1 2 0 o 22.282 22.282 0.00 6.44489 0.00
2 1 0 o 574.197 574.197 0.00 5.91065 0.10
1 0 1 o 2305.989 2305.989 0.00 3.17281 0.11
3 0 1 o 1266.605 1266.605 0.00 2.60323 0.04
1 1 1 o 4717.637 4717.637 0.00 3.10312 0.45
3 1 1 o 1473.891 1473.891 0.00 2.56433 0.10
2 2 1 o 11824.441 11824.441 0.00 2.71694 0.86
2 2 0 o 6012.620 6012.620 0.00 4.87027 0.71
1 3 0 o 2165.246 2165.246 0.00 4.63072 0.23
1 2 1 o 7.580 7.580 0.00 2.91873 0.00
3 2 1 o 0.002 0.002 0.00 2.45730 0.00
3 1 0 o 2015.705 2015.705 0.00 4.12519 0.17
2 3 0 o 1035.191 1035.191 0.00 3.93085 0.08
2 3 1 o 4.908 4.908 0.00 2.51555 0.00
4 1 1 o 3.422 3.422 0.00 2.26881 0.00
0 4 0 o 460.465 460.465 0.00 3.72191 0.02
3 2 0 o 85.663 85.663 0.00 3.71905 0.01
3 3 1 o 0.356 0.356 0.00 2.30530 0.00
4 2 1 o 8679.102 8679.102 0.00 2.19367 0.41
1 3 1 o 0.001 0.001 0.00 2.67315 0.00
1 4 0 o 2309.389 2309.389 0.00 3.57561 0.15
0 2 1 o 84240.59 84240.59 0.00 2.99669 3.75
4 0 0 o 392.138 392.138 0.00 3.21997 0.01
4 1 0 o 18446.426 18446.426 0.00 3.14720 0.90
3 3 0 o 1058.273 1058.273 0.00 3.24685 0.06
5 0 1 o 0.001 0.001 0.00 2.02440 0.00
2 4 0 o 599.435 599.435 0.00 3.22244 0.03
1 4 1 o 0.001 0.001 0.00 2.41454 0.00
2 4 1 o 0.062 0.062 0.00 2.29651 0.00
5 1 1 o 0.001 0.001 0.00 2.00594 0.00
4 3 1 o 4.470 4.470 0.00 2.08350 0.00
4 2 0 o 14.618 14.618 0.00 2.95533 0.00
3 4 1 o 6.535 6.535 0.00 2.13322 0.00
1 5 0 o 0.028 0.028 0.00 2.90102 0.00
0 4 1 o 19414.254 19414.254 0.00 2.45812 0.58
3 4 0 o 26097.512 26097.512 0.00 2.81227 1.02
2 5 0 o 0.001 0.001 0.00 2.70264 0.00
4 4 1 o 0.001 0.001 0.00 1.95386 0.00
5 2 1 o 0.001 0.001 0.00 1.95345 0.00
1 5 1 o 156.819 156.819 0.00 2.17119 0.01
2 5 1 o 10.927 10.927 0.00 2.08416 0.00
4 3 0 o 0.001 0.001 0.00 2.70118 0.00
0 6 0 o 12.181 12.181 0.00 2.48127 0.00
3 5 1 o 0.001 0.001 0.00 1.95982 0.00
5 1 0 o 320.319 320.319 0.00 2.53826 0.01
1 6 0 o 0.001 0.001 0.00 2.43647 0.00
3 5 0 o 1184.304 1184.304 0.00 2.44670 0.04
4 4 0 o 0.001 0.001 0.00 2.43514 0.00
5 2 0 o 0.001 0.001 0.00 2.43434 0.00
2 6 0 o 13317.769 13317.769 0.00 2.31536 0.35
5 3 0 o 0.001 0.001 0.00 2.28631 0.00
1 6 1 o 0.001 0.001 0.00 1.95455 0.00
4 5 0 o 13.351 13.351 0.00 2.18612 0.00
0 6 1 o 0.001 0.001 0.00 1.97745 0.00
1 7 0 o 44898.27 44898.27 0.00 2.09839 0.98
3 6 0 o 12984.384 12984.384 0.00 2.14830 0.30
6 0 0 o 2402.833 2402.833 0.00 2.14665 0.03
6 1 0 o 0.045 0.045 0.00 2.12467 0.00
5 4 0 o 7.518 7.518 0.00 2.11814 0.00
2 7 0 o 2108.092 2108.092 0.00 2.01952 0.04
6 2 0 o 4.392 4.392 0.00 2.06259 0.00
6 3 0 o 0.001 0.001 0.00 1.97022 0.00
4 6 0 o 0.001 0.001 0.00 1.96543 0.00
5 5 0 o 0.001 0.001 0.00 1.94811 0.00
3 7 0 o 3037.599 3037.599 0.00 1.90578 0.05
