#------------------------------------------------------------------------------
#$Date: 2016-02-14 06:40:26 +0200 (Sun, 14 Feb 2016) $
#$Revision: 176432 $
#$URL: svn://www.crystallography.net/cod/cif/4/12/05/4120507.cif $
#------------------------------------------------------------------------------
#
# This file is available in the Crystallography Open Database (COD),
# http://www.crystallography.net/
#
# All data on this site have been placed in the public domain by the
# contributors.
#
data_4120507
loop_
_publ_author_name
'Wong, Joanne W. L.'
'Mailman, Aaron'
'Lekin, Kristina'
'Winter, Stephen M.'
'Yong, Wenjun'
'Zhao, Jianbao'
'Garimella, Subrahmanyam V.'
'Tse, John S.'
'Secco, Richard A.'
'Desgreniers, Serge'
'Ohishi, Yasuo'
'Borondics, Ferenc'
'Oakley, Richard T.'
_publ_section_title
;
 Pressure induced phase transitions and metallization of a neutral radical
 conductor.
;
_journal_issue                   3
_journal_name_full               'Journal of the American Chemical Society'
_journal_page_first              1070
_journal_page_last               1081
_journal_paper_doi               10.1021/ja411057x
_journal_volume                  136
_journal_year                    2014
_chemical_formula_moiety         'C6 H N2 O S4'
_chemical_formula_sum            'C6 H N2 O S4'
_chemical_formula_weight         245.33
_chemical_name_common            HBBO
_chemical_name_systematic        ' ?'
_space_group_IT_number           33
_symmetry_cell_setting           orthorhombic
_symmetry_space_group_name_Hall  'P 2c -2ab'
_symmetry_space_group_name_H-M   'P b n 21'
_cell_angle_alpha                90.0
_cell_angle_beta                 90.0
_cell_angle_gamma                90.0
_cell_formula_units_Z            4
_cell_length_a                   13.0632(24)
_cell_length_b                   14.9449(33)
_cell_length_c                   3.02303(28)
_cell_measurement_temperature    293(2)
_cell_volume                     590.18(18)
_computing_structure_refinement  GSAS
_diffrn_ambient_temperature      293(2)
_diffrn_measurement_device_type  'SPring-8 BL10XU'
_diffrn_radiation_polarisn_ratio 0.95
_diffrn_radiation_probe          x-ray
_diffrn_radiation_wavelength     0.41337
_diffrn_source                   synchrotron
_exptl_absorpt_correction_T_max  1.00000
_exptl_absorpt_correction_T_min  1.00000
_exptl_absorpt_process_details
;   GSAS Absorption/surface roughness correction: function number 0
 No correction is applied.
;
_exptl_crystal_colour            black
_exptl_crystal_density_diffrn    2.761
_pd_calc_method                  'Rietveld Refinement'
_pd_instr_location               ' ?'
_pd_meas_2theta_range_inc        0.01
_pd_meas_2theta_range_max        27.59
_pd_meas_2theta_range_min        1.0
_pd_meas_number_of_points        2660
_pd_phase_name                   HBBO_26/HBBO_26_pbn21.cif
_pd_proc_2theta_range_inc        0.01
_pd_proc_2theta_range_max        27.59118
_pd_proc_2theta_range_min        1.00118
_pd_proc_info_datetime           2013-05-08T12:48:56
_pd_proc_info_excluded_regions   ' ?'
_pd_proc_ls_background_function
;   GSAS Background function number 1 with  8 terms.
 Shifted Chebyshev function of 1st kind
      1:    54995.9     2:    29717.6     3:   -2197.19     4:   -494.114    
      5:   -287.922     6:   -133.473     7:   -174.350     8:   -35.4568    
;
_pd_proc_ls_peak_cutoff          0.00100
_pd_proc_ls_profile_function
;
 CW Profile function number 2 with  18 terms
 Profile coefficients for Simpson's rule integration of pseudovoigt function
 C.J. Howard (1982). J. Appl. Cryst.,15,615-620.
 P. Thompson, D.E. Cox & J.B. Hastings (1987). J. Appl. Cryst.,20,79-83.
 Peak tails are ignored  where the intensity is below 0.0010 times the peak
   Aniso. broadening axis   0.0   0.0   1.0
;
_pd_proc_ls_prof_R_factor        0.0059
_pd_proc_ls_prof_wR_expected     0.0042
_pd_proc_ls_prof_wR_factor       0.0083
_pd_proc_number_of_points        2660
_pd_spec_mounting                ' ?'
_refine_ls_goodness_of_fit_all   1.99
_refine_ls_matrix_type           full
_refine_ls_number_parameters     4
_refine_ls_number_restraints     0
_refine_ls_R_Fsqd_factor         0.46085
_refine_ls_shift/su_max          0.03
_refine_ls_shift/su_mean         0.01
_reflns_d_resolution_high        1.837
_reflns_d_resolution_low         7.472
_reflns_limit_h_max              8
_reflns_limit_h_min              0
_reflns_limit_k_max              9
_reflns_limit_k_min              0
_reflns_limit_l_max              1
_reflns_limit_l_min              0
_reflns_number_total             74
_cod_data_source_file            ja411057x_si_005.cif
_cod_data_source_block           HBBO_9.77GPa
_cod_depositor_comments
;
The following automatic conversions were performed:

'_geom_bond_publ_flag' value 'N' changed to 'n' according to
/usr/data/users/saulius/automatic-downloads/current/ACS/lib/dictionaries/cif_core.dic
dictionary named 'cif_core.dic' version 2.4.2 from 2011-04-26 (17
times).

'_geom_angle_publ_flag' value 'N' changed to 'n' according
to
/usr/data/users/saulius/automatic-downloads/current/ACS/lib/dictionaries/cif_core.dic
dictionary named 'cif_core.dic' version 2.4.2 from 2011-04-26 (24
times).

Automatic conversion script
Id: cif_fix_values 2281 2013-09-26 08:29:07Z andrius 
;
_cod_original_cell_volume        590.18(13)
_cod_original_sg_symbol_Hall     'c -2ab'
_cod_database_code               4120507
#BEGIN Tags that were not found in dictionaries:
_gsas_exptl_extinct_corr_t_min   1.00000
_gsas_exptl_extinct_corr_t_max   1.00000
#END Tags that were not found in dictionaries
loop_
_symmetry_equiv_pos_site_id
_symmetry_equiv_pos_as_xyz
1 +x,+y,+z
2 -x+1/2,+y+1/2,+z
3 +x+1/2,-y+1/2,+z+1/2
4 -x,-y,+z+1/2
loop_
_atom_site_type_symbol
_atom_site_label
_atom_site_fract_x
_atom_site_fract_y
_atom_site_fract_z
_atom_site_occupancy
_atom_site_thermal_displace_type
_atom_site_U_iso_or_equiv
_atom_site_symmetry_multiplicity
S S3 0.24065 0.09906 0.06543 1.0 Uiso 0.0821 4
S S4 0.09657 0.04736 0.28845 1.0 Uiso 0.0821 4
S S1 0.50019 -0.29215 -0.50656 1.0 Uiso 0.0821 4
S S2 0.53836 -0.15183 -0.52979 1.0 Uiso 0.0821 4
C C2 0.21032 -0.08306 0.0216 1.0 Uiso 0.0821 4
C C1 0.23498 -0.18092 -0.09184 1.0 Uiso 0.0821 4
C C4 0.38625 -0.02918 -0.231 1.0 Uiso 0.0821 4
N N1 0.37821 -0.28231 -0.32944 1.0 Uiso 0.0821 4
O O1 0.16864 -0.24235 -0.06743 1.0 Uiso 0.0821 4
C C6 0.34462 -0.19664 -0.24759 1.0 Uiso 0.0821 4
N N2 0.11694 -0.06189 0.1921 1.0 Uiso 0.0821 4
C C3 0.2863 -0.01138 -0.06178 1.0 Uiso 0.0821 4
C C5 0.41446 -0.12099 -0.32024 1.0 Uiso 0.0821 4
H H4 0.43895 0.02029 -0.28017 1.0 Uiso 0.1642 4
loop_
_atom_type_symbol
_atom_type_number_in_cell
_atom_type_scat_dispersion_real
_atom_type_scat_dispersion_imag
_atom_type_scat_Cromer_Mann_a1
_atom_type_scat_Cromer_Mann_a2
_atom_type_scat_Cromer_Mann_a3
_atom_type_scat_Cromer_Mann_a4
_atom_type_scat_Cromer_Mann_b1
_atom_type_scat_Cromer_Mann_b2
_atom_type_scat_Cromer_Mann_b3
_atom_type_scat_Cromer_Mann_b4
_atom_type_scat_Cromer_Mann_c
_atom_type_scat_source
S 16.0 0.000 0.000 6.90530 1.46790 5.20340 22.2151 1.43790 0.25360 1.58630
56.1720 0.86690 International_Tables_Vol_C
C 24.0 0.000 0.000 2.31000 20.8439 1.02000 10.2075 1.58860 0.56870 0.86500
51.6512 0.21560 International_Tables_Vol_C
N 8.0 0.000 0.000 12.2126 0.00570 3.13220 9.89330 2.01250 28.9975 1.16630
0.58260 -11.529 International_Tables_Vol_C
O 4.0 0.000 0.000 3.04850 13.2771 2.28680 5.70110 1.54630 0.32390 0.86700
32.9089 0.25080 International_Tables_Vol_C
H 4.0 0.000 0.000 0.49300 10.5109 0.32291 26.1257 0.14019 3.14236 0.04081
57.7997 0.00304 International_Tables_Vol_C
loop_
_geom_angle_atom_site_label_1
_geom_angle_atom_site_label_2
_geom_angle_atom_site_label_3
_geom_angle
_geom_angle_site_symmetry_1
_geom_angle_site_symmetry_3
_geom_angle_publ_flag
S4 S3 C3 91.583 1_555 1_555 n
S3 S4 N2 99.018 1_555 1_555 n
S2 S1 N1 98.274 1_555 1_555 n
S1 S2 C5 91.700 1_555 1_555 n
C1 C2 N2 119.5753 1_555 1_555 n
C1 C2 C3 120.646 1_555 1_555 n
N2 C2 C3 119.766 1_555 1_555 n
C2 C1 O1 122.300 1_555 1_555 n
C2 C1 C6 114.3473 1_555 1_555 n
O1 C1 C6 123.330 1_555 1_555 n
C3 C4 C5 118.4775 1_555 1_555 n
C3 C4 H4 122.274 1_555 1_555 n
C5 C4 H4 119.211 1_555 1_555 n
S1 N1 C6 116.061 1_555 1_555 n
C1 C6 N1 119.8763 1_555 1_555 n
C1 C6 C5 120.697 1_555 1_555 n
N1 C6 C5 119.415 1_555 1_555 n
S4 N2 C2 115.6866 1_555 1_555 n
S3 C3 C2 113.914 1_555 1_555 n
S3 C3 C4 123.4755 1_555 1_555 n
C2 C3 C4 122.608 1_555 1_555 n
S2 C5 C4 122.5677 1_555 1_555 n
S2 C5 C6 114.477 1_555 1_555 n
C4 C5 C6 122.955 1_555 1_555 n
loop_
_geom_bond_atom_site_label_1
_geom_bond_atom_site_label_2
_geom_bond_distance
_geom_bond_site_symmetry_2
_geom_bond_publ_flag
S3 S4 2.14337 1_555 n
S3 C3 1.79659 1_555 n
S4 N2 1.67973 1_555 n
S1 S2 2.1567 1_555 n
S1 N1 1.68743 1_555 n
S2 S1 2.1567 1_555 n
S2 C5 1.79816 1_555 n
C2 C1 1.53634 1_555 n
C2 N2 1.36154 1_555 n
C2 C3 1.48198 1_555 n
C1 O1 1.26464 1_555 n
C1 C6 1.52585 1_555 n
C4 C3 1.42732 1_555 n
C4 C5 1.44611 1_555 n
C4 H4 1.02110 1_555 n
N1 C6 1.37587 1_555 n
C6 C5 1.46929 1_555 n
loop_
_pd_meas_counts_total
_pd_proc_ls_weight
_pd_proc_intensity_bkg_calc
_pd_calc_intensity_total
0.0 0.0 2704.14014 .
0.0 0.0 2836.57690 .
0.0 0.0 2968.66577 .
0.0 0.0 3100.40942 .
0.0 0.0 3231.80518 .
0.0 0.0 3362.85913 .
0.0 0.0 3493.56470 .
0.0 0.0 3623.92480 .
0.0 0.0 3753.93652 .
0.0 0.0 3883.60400 .
0.0 0.0 4012.92651 .
0.0 0.0 4141.90332 .
0.0 0.0 4270.53613 .
0.0 0.0 4398.82422 .
0.0 0.0 4526.76855 .
0.0 0.0 4654.36963 .
0.0 0.0 4781.62646 .
0.0 0.0 4908.54102 .
0.0 0.0 5035.11328 .
0.0 0.0 5161.34668 .
0.0 0.0 5287.23340 .
0.0 0.0 5412.77881 .
0.0 0.0 5537.98291 .
0.0 0.0 5662.84766 .
0.0 0.0 5787.37061 .
0.0 0.0 5911.55469 .
0.0 0.0 6035.39893 .
0.0 0.0 6158.90527 .
0.0 0.0 6282.07275 .
0.0 0.0 6404.90137 .
0.0 0.0 6527.39209 .
0.0 0.0 6649.54736 .
0.0 0.0 6771.36816 .
0.0 0.0 6892.85156 .
0.0 0.0 7014.00391 .
0.0 0.0 7134.81885 .
0.0 0.0 7255.29834 .
0.0 0.0 7375.44629 .
0.0 0.0 7495.26025 .
0.0 0.0 7614.74219 .
0.0 0.0 7733.89453 .
0.0 0.0 7852.71338 .
0.0 0.0 7971.20459 .
0.0 0.0 8089.36572 .
0.0 0.0 8207.19824 .
0.0 0.0 8324.70410 .
0.0 0.0 8441.88086 .
0.0 0.0 8558.73145 .
0.0 0.0 8675.25684 .
0.0 0.0 8791.45703 .
0.0 0.0 8907.33301 .
0.0 0.0 9022.88965 .
0.0 0.0 9138.12012 .
0.0 0.0 9253.02832 .
0.0 0.0 9367.61523 .
0.0 0.0 9481.88379 .
0.0 0.0 9595.83008 .
0.0 0.0 9709.46094 .
0.0 0.0 9822.77148 .
0.0 0.0 9935.76270 .
0.0 0.0 10048.44434 .
0.0 0.0 10160.80664 .
0.0 0.0 10272.85449 .
0.0 0.0 10384.58887 .
0.0 0.0 10496.01172 .
0.0 0.0 10607.12402 .
0.0 0.0 10717.92383 .
0.0 0.0 10828.41504 .
0.0 0.0 10938.59961 .
0.0 0.0 11048.47363 .
0.0 0.0 11158.03906 .
0.0 0.0 11267.29883 .
8246.0 0.0 11376.25684 .
8535.0 0.0 11484.90723 .
8624.0 0.0 11593.25488 .
8665.0 0.0 11701.29883 .
8693.0 0.0 11809.04492 .
8704.0 0.0 11916.49023 .
8654.0 0.0 12023.63379 .
8568.0 0.0 12130.47949 .
8559.0 0.0 12237.02930 .
8505.0 0.0 12343.28320 .
8406.0 0.0 12449.24609 .
8274.0 0.0 12554.91016 .
8220.0 0.0 12660.28125 .
8179.0 0.0 12765.35938 .
8170.0 0.0 12870.14746 .
8252.0 0.0 12974.64551 .
8281.0 0.0 13078.85547 .
8359.0 0.0 13182.77539 .
8462.0 0.0 13286.41113 .
8547.0 0.0 13389.75879 .
8665.0 0.0 13492.82422 .
8782.0 0.0 13595.60547 .
8891.0 0.0 13698.10156 .
8966.0 0.0 13800.31934 .
9070.0 0.0 13902.25684 .
9179.0 0.0 14003.91504 .
9292.0 0.0 14105.29688 .
9420.0 0.0 14206.40137 .
9556.0 0.0 14307.22949 .
9662.0 0.0 14407.78125 .
9793.0 0.0 14508.05859 .
9930.0 0.0 14608.06543 .
10069.0 0.0 14707.80176 .
10219.0 0.0 14807.26855 .
10346.0 0.0 14906.46582 .
10516.0 0.0 15005.39648 .
10711.0 0.0 15104.05566 .
10829.0 0.0 15202.45313 .
10991.0 0.0 15300.58496 .
11142.0 0.0 15398.45508 .
11306.0 0.0 15496.06348 .
11429.0 0.0 15593.41504 .
11620.0 0.0 15690.50293 .
11844.0 0.0 15787.33105 .
11937.0 0.0 15883.90430 .
12120.0 0.0 15980.22266 .
12310.0 0.0 16076.28125 .
12464.0 0.0 16172.08984 .
12598.0 0.0 16267.64355 .
12797.0 0.0 16362.94727 .
13013.0 0.0 16458.00195 .
13124.0 0.0 16552.80469 .
13295.0 0.0 16647.36328 .
13533.0 0.0 16741.67578 .
13693.0 0.0 16835.74023 .
13818.0 0.0 16929.56445 .
14062.0 0.0 17023.14063 .
14284.0 0.0 17116.48047 .
14383.0 0.0 17209.57617 .
14534.0 0.0 17302.43164 .
14749.0 0.0 17395.05469 .
14937.0 0.0 17487.44336 .
15026.0 0.0 17579.58984 .
15316.0 0.0 17671.50586 .
15591.0 0.0 17763.18750 .
15795.0 0.0 17854.63672 .
16153.0 0.0 17945.85352 .
16644.0 0.0 18036.84570 .
17226.0 0.0 18127.60352 .
17513.0 0.0 18218.13672 .
17462.0 0.0 18308.44727 .
17325.0 0.0 18398.53516 .
17231.0 0.0 18488.39844 .
17311.0 0.0 18578.03516 .
17469.0 0.0 18667.45703 .
17570.0 0.0 18756.65625 .
17642.0 0.0 18845.63477 .
17814.0 0.0 18934.40234 .
18007.0 0.0 19022.95117 .
18095.0 0.0 19111.28516 .
18238.0 0.0 19199.40625 .
18455.0 0.0 19287.31836 .
18596.0 0.0 19375.01367 .
18698.0 0.0 19462.50391 .
18859.0 0.0 19549.78516 .
19019.0 0.0 19636.85547 .
19120.0 0.0 19723.72461 .
19245.0 0.0 19810.38672 .
19432.0 0.0 19896.85156 .
19543.0 0.0 19983.10742 .
19661.0 0.0 20069.16602 .
19830.0 0.0 20155.02539 .
20007.0 0.0 20240.68555 .
20100.0 0.0 20326.14844 .
20207.0 0.0 20411.41406 .
20344.0 0.0 20496.49023 .
20497.0 0.0 20581.36719 .
20606.0 0.0 20666.05273 .
20755.0 0.0 20750.54883 .
20901.0 0.0 20834.85547 .
20954.0 0.0 20918.97070 .
21085.0 0.0 21002.90039 .
21208.0 0.0 21086.64453 .
21311.0 0.0 21170.20313 .
21381.0 0.0 21253.58008 .
21493.0 0.0 21336.77148 .
21606.0 0.0 21419.79102 .
21676.0 0.0 21502.62109 .
21758.0 0.0 21585.27734 .
21884.0 0.0 21667.75195 .
21939.0 0.0 21750.05469 .
22002.0 0.0 21832.17969 .
22088.0 0.0 21914.13086 .
22189.0 0.0 21995.90820 .
22268.0 0.0 22077.51563 .
22328.0 0.0 22158.95117 .
22425.0 0.0 22240.22070 .
22497.0 0.0 22321.32422 .
22569.0 0.0 22402.25586 .
22650.0 0.0 22483.02930 .
22763.0 0.0 22563.63086 .
22830.0 0.0 22644.07227 .
22914.0 0.0 22724.35742 .
23003.0 0.0 22804.47266 .
23099.0 0.0 22884.43164 .
23165.0 0.0 22964.23633 .
23253.0 0.0 23043.87500 .
23341.0 0.0 23123.36719 .
23396.0 0.0 23202.70117 .
23472.0 0.0000426 23281.88086 23326.32617
23565.0 0.0000424 23360.91016 23409.99414
23648.0 0.0000423 23439.78711 23494.42773
23724.0 0.0000422 23518.51563 23579.87891
23780.0 0.0000421 23597.09180 23666.68555
23885.0 0.0000419 23675.52344 23755.31836
23954.0 0.0000417 23753.80273 23846.41797
24031.0 0.0000416 23831.94336 23940.88867
24091.0 0.0000415 23909.93750 24039.94922
24172.0 0.0000414 23987.78906 24145.22656
24251.0 0.0000412 24065.50195 24258.80469
24319.0 0.0000411 24143.06641 24383.02930
24427.0 0.0000409 24220.49609 24519.83008
24541.0 0.0000407 24297.78711 24668.60938
24666.0 0.0000405 24374.94141 24821.98828
24875.0 0.0000402 24451.95703 24961.50195
25015.0 0.0000400 24528.83984 25062.28516
25025.0 0.0000400 24605.58398 25112.37500
25021.0 0.0000400 24682.19727 25125.28516
25007.0 0.0000400 24758.68359 25125.96289
25081.0 0.0000399 24835.03516 25132.09180
25138.0 0.0000398 24911.25781 25150.41211
25225.0 0.0000396 24987.35352 25181.25391
25317.0 0.0000395 25063.31641 25222.61523
25361.0 0.0000394 25139.15625 25272.15625
25450.0 0.0000393 25214.87500 25327.83594
25518.0 0.0000392 25290.46680 25388.05664
25570.0 0.0000391 25365.93359 25451.62891
25609.0 0.0000390 25441.28125 25517.68750
25673.0 0.0000390 25516.50391 25585.60156
25773.0 0.0000388 25591.61133 25654.93164
25837.0 0.0000387 25666.60156 25725.34961
25891.0 0.0000386 25741.47070 25796.62305
25985.0 0.0000385 25816.22266 25868.57617
26063.0 0.0000384 25890.85938 25941.08789
26161.0 0.0000382 25965.38086 26014.06445
26196.0 0.0000382 26039.79297 26087.44336
26269.0 0.0000381 26114.09180 26161.17969
26320.0 0.0000380 26188.27930 26235.23828
26390.0 0.0000379 26262.35547 26309.60938
26468.0 0.0000378 26336.32031 26384.28711
26526.0 0.0000377 26410.17773 26459.29102
26583.0 0.0000376 26483.93164 26534.64844
26649.0 0.0000375 26557.57813 26610.39453
26729.0 0.0000374 26631.11523 26686.59180
26824.0 0.0000373 26704.55078 26763.31836
26901.0 0.0000372 26777.88477 26840.68945
26953.0 0.0000371 26851.11133 26918.83789
27058.0 0.0000370 26924.24805 26997.96875
27121.0 0.0000369 26997.27539 27078.31445
27206.0 0.0000368 27070.20313 27160.19922
27290.0 0.0000366 27143.03516 27244.07813
27348.0 0.0000366 27215.77344 27330.52344
27392.0 0.0000365 27288.41211 27420.31641
27462.0 0.0000364 27360.95898 27514.51367
27522.0 0.0000363 27433.40820 27614.53906
27594.0 0.0000362 27505.76172 27722.33594
27724.0 0.0000361 27578.02539 27840.64453
27837.0 0.0000359 27650.19922 27973.68555
27938.0 0.0000358 27722.28125 28129.20313
28123.0 0.0000356 27794.27344 28323.19727
28375.0 0.0000352 27866.17773 28586.73828
28666.0 0.00003488 27937.99414 28966.16602
29096.0 0.00003437 28009.72656 29475.87891
29505.0 0.00003389 28081.37109 29889.48438
29481.0 0.00003392 28152.93164 29779.09180
29107.0 0.00003436 28224.41016 29366.53320
28860.0 0.00003465 28295.80273 29045.42773
28805.0 0.00003472 28367.11133 28872.98633
28799.0 0.00003472 28438.34375 28801.87891
28783.0 0.00003474 28509.49414 28788.14063
28828.0 0.00003469 28580.56250 28805.36719
28873.0 0.00003463 28651.55469 28840.14844
28891.0 0.00003461 28722.46484 28885.82031
28951.0 0.00003454 28793.30469 28938.84375
29017.0 0.00003446 28864.06836 28997.12109
29073.0 0.00003440 28934.75586 29059.37305
29139.0 0.00003432 29005.36719 29124.80859
29215.0 0.00003423 29075.90820 29192.95313
29300.0 0.00003413 29146.37305 29263.57422
29405.0 0.00003401 29216.76953 29336.63086
29447.0 0.00003396 29287.09375 29412.26367
29471.0 0.00003393 29357.34961 29490.79688
29564.0 0.00003382 29427.53711 29572.80859
29641.0 0.00003374 29497.65430 29659.19727
29702.0 0.00003367 29567.70313 29751.35742
29773.0 0.00003359 29637.68945 29851.47461
29861.0 0.00003349 29707.60938 29962.96289
29948.0 0.00003339 29777.46289 30091.11328
30036.0 0.00003329 29847.25195 30243.94922
30153.0 0.00003316 29916.97461 30441.61719
30279.0 0.00003303 29986.63867 30681.11719
30485.0 0.00003280 30056.24023 30983.04297
30836.0 0.00003243 30125.78320 31336.73047
31256.0 0.00003199 30195.26367 31664.94336
31476.0 0.00003177 30264.68164 31821.44922
31358.0 0.00003189 30334.04102 31735.65820
31084.0 0.00003217 30403.34961 31523.22656
30922.0 0.00003234 30472.59766 31318.85352
30855.0 0.00003241 30541.78711 31174.20703
30853.0 0.00003241 30610.92188 31089.22266
30889.0 0.00003237 30680.00195 31049.95703
30959.0 0.00003230 30749.02930 31042.75781
31019.0 0.00003224 30818.00391 31057.28711
31079.0 0.00003218 30886.92578 31086.40625
31122.0 0.00003213 30955.78906 31125.43164
31194.0 0.00003206 31024.60938 31171.35156
31279.0 0.00003197 31093.37109 31222.17578
31373.0 0.00003187 31162.08984 31276.62305
31440.0 0.00003181 31230.75586 31333.76563
31511.0 0.00003173 31299.37695 31392.98633
31570.0 0.00003168 31367.94727 31453.81445
31582.0 0.00003166 31436.47070 31515.90820
31639.0 0.00003161 31504.94727 31579.00781
31698.0 0.00003155 31573.38477 31642.92969
31777.0 0.00003147 31641.76563 31707.50586
31834.0 0.00003141 31710.10938 31772.63672
31902.0 0.00003135 31778.40234 31838.20898
31947.0 0.00003130 31846.66211 31904.16992
32030.0 0.00003122 31914.87305 31970.45313
32129.0 0.00003112 31983.04883 32037.01172
32225.0 0.00003103 32051.17578 32103.80273
32228.0 0.00003103 32119.26563 32170.80078
32274.0 0.00003098 32187.31445 32237.97852
32326.0 0.00003093 32255.32617 32305.32031
32432.0 0.00003083 32323.29688 32372.80273
32526.0 0.00003074 32391.22852 32440.41406
32610.0 0.00003067 32459.12695 32508.15430
32671.0 0.00003061 32526.98242 32578.47461
32750.0 0.00003053 32594.80859 32646.47266
32805.0 0.00003048 32662.59180 32714.56641
32834.0 0.00003046 32730.34375 32782.76953
32921.0 0.00003038 32798.05859 32851.06250
32962.0 0.00003034 32865.74219 32919.46875
33062.0 0.00003025 32933.39453 32987.97656
33117.0 0.00003020 33001.00781 33056.58203
33194.0 0.00003013 33068.59375 33125.31250
33270.0 0.00003006 33136.14844 33194.15625
33294.0 0.00003004 33203.66406 33263.11328
33410.0 0.00002993 33271.16016 33332.22266
33470.0 0.00002988 33338.61719 33401.47266
33548.0 0.00002981 33406.04688 33470.87109
33607.0 0.00002976 33473.44531 33540.44922
33662.0 0.00002971 33540.82813 33610.23047
33757.0 0.00002962 33608.17188 33680.20313
33807.0 0.00002958 33675.48438 33750.41797
33904.0 0.00002950 33742.77344 33820.88672
33971.0 0.00002944 33810.03906 33891.64844
34009.0 0.00002940 33877.27344 33962.73047
34049.0 0.00002937 33944.48438 34034.17969
34129.0 0.00002930 34011.67578 34106.05469
34201.0 0.00002924 34078.82813 34178.37891
34281.0 0.00002917 34145.96875 34251.25391
34358.0 0.00002911 34213.08203 34324.73047
34448.0 0.00002903 34280.17188 34398.91406
34516.0 0.00002897 34347.23828 34473.92188
34559.0 0.00002894 34414.28906 34549.86328
34650.0 0.00002886 34481.31250 34626.90625
34713.0 0.00002881 34548.31250 34705.25000
34834.0 0.00002871 34615.29297 34785.12500
34890.0 0.00002866 34682.25391 34866.82422
34969.0 0.00002860 34749.19531 34950.71484
35040.0 0.00002854 34816.11328 35037.24609
35097.0 0.00002849 34883.01172 35127.01172
35188.0 0.00002842 34949.89844 35220.76953
35307.0 0.00002832 35016.75781 35319.48828
35454.0 0.00002821 35083.60938 35424.50391
35574.0 0.00002811 35150.43359 35537.52734
35709.0 0.00002800 35217.24219 35661.08594
35880.0 0.00002787 35284.03125 35798.34766
36086.0 0.00002771 35350.81250 35954.23828
36427.0 0.00002745 35417.56641 36135.78125
36859.0 0.00002713 35484.31250 36353.91797
37330.0 0.00002679 35551.03906 36626.24609
37773.0 0.00002647 35617.75391 36982.83203
38075.0 0.00002626 35684.45313 37475.57031
38303.0 0.00002611 35751.12891 38190.82031
38819.0 0.00002576 35817.80859 39258.71094
39996.0 0.00002500 35884.46484 40838.51172
42429.0 0.00002357 35951.10938 42995.08984
45873.0 0.00002180 36017.73047 45244.31250
47097.0 0.00002123 36084.35156 46116.50781
44698.0 0.00002237 36150.94922 44803.72656
41721.0 0.00002397 36217.54688 42607.55469
39873.0 0.00002508 36284.12109 40747.89453
38976.0 0.00002566 36350.69141 39473.17188
38552.0 0.00002594 36417.24219 38664.26953
38329.0 0.00002609 36483.79297 38165.58984
38200.0 0.00002618 36550.32422 37860.27344
38120.0 0.00002623 36616.85156 37673.60156
38054.0 0.00002628 36683.36719 37561.50000
37968.0 0.00002634 36749.87109 37498.64063
37934.0 0.00002636 36816.36328 37470.11328
37903.0 0.00002638 36882.84375 37466.79688
37910.0 0.00002638 36949.32031 37482.93359
37915.0 0.00002637 37015.79297 37514.95703
37960.0 0.00002634 37082.24609 37560.79297
37981.0 0.00002633 37148.69922 37619.72266
38075.0 0.00002626 37215.13672 37692.19141
38097.0 0.00002625 37281.57031 37780.15234
38164.0 0.00002620 37348.00391 37887.65234
38217.0 0.00002617 37414.41797 38021.84375
38299.0 0.00002611 37480.82813 38194.69141
38472.0 0.00002599 37547.23047 38424.43750
38676.0 0.00002586 37613.62500 38736.37891
39020.0 0.00002563 37680.01563 39158.18359
39716.0 0.00002518 37746.40625 39695.61328
40734.0 0.00002455 37812.77734 40259.22266
41432.0 0.00002414 37879.15234 40592.05469
41062.0 0.00002435 37945.52344 40476.28906
40169.0 0.00002489 38011.87500 40058.23438
39497.0 0.00002532 38078.23438 39619.76563
39168.0 0.00002553 38144.58203 39287.70313
39069.0 0.00002560 38210.92969 39069.65625
39027.0 0.00002562 38277.26172 38939.25391
39007.0 0.00002564 38343.59766 38869.55078
39021.0 0.00002563 38409.92969 38840.25000
39059.0 0.00002560 38476.25391 38837.32031
39115.0 0.00002557 38542.57422 38852.01953
39128.0 0.00002556 38608.89453 38878.82813
39207.0 0.00002551 38675.20313 38914.23047
39275.0 0.00002546 38741.51172 38956.87109
39276.0 0.00002546 38807.82031 39003.35156
39320.0 0.00002543 38874.11719 39053.46094
39355.0 0.00002541 38940.41797 39106.47266
39391.0 0.00002539 39006.71094 39161.77344
39445.0 0.00002535 39073.00000 39218.92969
39478.0 0.00002533 39139.28906 39277.64453
39540.0 0.00002529 39205.57422 39337.64453
39589.0 0.00002526 39271.85156 39399.13281
39627.0 0.00002524 39338.13672 39461.21094
39696.0 0.00002519 39404.41016 39524.14453
39754.0 0.00002515 39470.67578 39587.83203
39817.0 0.00002511 39536.94922 39652.24219
39874.0 0.00002508 39603.21484 39717.30469
39929.0 0.00002504 39669.48047 39783.00391
39972.0 0.00002502 39735.73828 39849.31641
39977.0 0.00002501 39802.00000 39916.26563
40052.0 0.00002497 39868.26172 39983.83203
40112.0 0.00002493 39934.51953 40052.06250
40156.0 0.00002490 40000.77344 40120.98828
40231.0 0.00002486 40067.02344 40190.66797
40273.0 0.00002483 40133.26953 40261.18359
40357.0 0.00002478 40199.51953 40332.62109
40421.0 0.00002474 40265.76172 40405.10547
40498.0 0.00002469 40332.01172 40478.81641
40569.0 0.00002465 40398.24219 40553.91016
40649.0 0.00002460 40464.48828 40630.67578
40695.0 0.00002457 40530.71875 40709.40234
40768.0 0.00002453 40596.96094 40790.51953
40823.0 0.00002450 40663.19141 40874.52344
40868.0 0.00002447 40729.42969 40962.14453
40945.0 0.00002442 40795.65234 41054.24609
41011.0 0.00002438 40861.88672 41152.12109
41071.0 0.00002435 40928.10938 41257.41406
41153.0 0.00002430 40994.33594 41372.53125
41225.0 0.00002426 41060.56250 41500.78125
41312.0 0.00002421 41126.77344 41645.57422
41376.0 0.00002417 41192.99609 41815.98047
41480.0 0.00002411 41259.21875 42019.47266
41596.0 0.00002404 41325.43359 42267.32422
41764.0 0.00002394 41391.64844 42572.62891
42053.0 0.00002378 41457.85938 42946.68359
42416.0 0.00002358 41524.06641 43387.88281
42980.0 0.00002327 41590.27344 43857.80469
43720.0 0.00002287 41656.47656 44254.82031
44100.0 0.00002268 41722.69141 44439.51563
43909.0 0.00002277 41788.89063 44348.57813
43551.0 0.00002296 41855.08984 44064.66016
43247.0 0.00002312 41921.28125 43727.16016
43054.0 0.00002323 41987.48047 43427.75391
42925.0 0.00002330 42053.66797 43197.39453
42850.0 0.00002334 42119.85938 43025.90234
42815.0 0.00002336 42186.05469 42918.87500
42772.0 0.00002338 42252.23828 42854.48047
42819.0 0.00002335 42318.42188 42821.83594
42821.0 0.00002335 42384.60547 42812.59766
42852.0 0.00002334 42450.78516 42820.59375
42884.0 0.00002332 42516.95703 42841.42578
42894.0 0.00002331 42583.13281 42872.01563
42979.0 0.00002327 42649.30469 42910.18359
42996.0 0.00002326 42715.47266 42954.42969
43011.0 0.00002325 42781.63672 43003.74219
43069.0 0.00002322 42847.79688 43057.41797
43105.0 0.00002320 42913.95313 43115.07422
43185.0 0.00002316 42980.11719 43176.60156
43279.0 0.00002311 43046.26172 43242.10547
43354.0 0.00002307 43112.41016 43312.07422
43421.0 0.00002303 43178.56250 43387.41016
43505.0 0.00002299 43244.70313 43469.74609
43578.0 0.00002295 43310.83594 43561.90625
43616.0 0.00002293 43376.97656 43668.58984
43724.0 0.00002287 43443.09766 43797.18750
43888.0 0.00002279 43509.22266 43958.43750
44051.0 0.00002270 43575.34766 44165.50391
44357.0 0.00002254 43641.46484 44426.94531
44825.0 0.00002231 43707.57813 44720.86719
45241.0 0.00002210 43773.68750 44950.38281
45187.0 0.00002213 43839.78516 44989.12891
44856.0 0.00002229 43905.88672 44858.98828
44569.0 0.00002244 43971.98828 44694.01953
44444.0 0.00002250 44038.07031 44571.52344
44387.0 0.00002253 44104.15234 44502.50781
44432.0 0.00002251 44170.23047 44475.91406
44493.0 0.00002248 44236.30469 44478.81641
44508.0 0.00002247 44302.37500 44501.14063
44561.0 0.00002244 44368.43750 44536.07031
44583.0 0.00002243 44434.48828 44579.25000
44664.0 0.00002239 44500.54688 44635.42578
44764.0 0.00002234 44566.57813 44688.31641
44796.0 0.00002232 44632.61719 44744.04297
44810.0 0.00002232 44698.64844 44801.97656
44831.0 0.00002231 44764.67578 44861.62891
44866.0 0.00002229 44830.68359 44922.67578
44948.0 0.00002225 44896.69922 44984.90234
45005.0 0.00002222 44962.70313 45048.14063
45093.0 0.00002218 45028.69531 45112.31641
45158.0 0.00002214 45094.68359 45177.49609
45242.0 0.00002210 45160.66797 45243.48047
45299.0 0.00002208 45226.64063 45310.46094
45338.0 0.00002206 45292.60156 45378.60156
45443.0 0.00002201 45358.55859 45446.20313
45503.0 0.00002198 45424.50781 45517.69531
45550.0 0.00002195 45490.44922 45591.69531
45637.0 0.00002191 45556.38281 45684.58594
45730.0 0.00002187 45622.30859 45766.56641
45829.0 0.00002182 45688.21484 45853.89063
45988.0 0.00002174 45754.12109 45946.24609
46137.0 0.00002167 45820.01172 46039.67578
46242.0 0.00002163 45885.90625 46126.05078
46238.0 0.00002163 45951.76953 46199.85156
46207.0 0.00002164 46017.63672 46264.92969
46242.0 0.00002163 46083.49219 46327.25000
46291.0 0.00002160 46149.33984 46387.07813
46313.0 0.00002159 46215.17578 46441.52734
46384.0 0.00002156 46280.99609 46490.37500
46379.0 0.00002156 46346.81250 46536.99219
46401.0 0.00002155 46412.61719 46585.12500
46454.0 0.00002153 46478.39453 46636.73438
46493.0 0.00002151 46544.17969 46692.31250
46580.0 0.00002147 46609.94531 46751.54297
46652.0 0.00002144 46675.70313 46813.98047
46703.0 0.00002141 46741.44531 46879.22266
46706.0 0.00002141 46807.17969 46947.02734
46770.0 0.00002138 46872.89453 47017.32422
46835.0 0.00002135 46938.60547 47090.21875
46902.0 0.00002132 47004.28906 47166.01172
46960.0 0.00002129 47069.97656 47245.25781
47034.0 0.00002126 47135.64063 47328.84766
47082.0 0.00002124 47201.29297 47418.11328
47156.0 0.00002121 47266.92969 47515.13672
47233.0 0.00002117 47332.55469 47622.96875
47320.0 0.00002113 47398.16797 47746.05078
47407.0 0.00002109 47463.75781 47892.94531
47537.0 0.00002104 47529.34375 48066.62500
47732.0 0.00002095 47594.91016 48277.85938
48091.0 0.00002079 47660.46484 48530.50000
48630.0 0.00002056 47726.00391 48809.73828
49371.0 0.00002025 47791.52344 49060.26953
49707.0 0.00002012 47857.02344 49193.01953
49391.0 0.00002025 47922.51172 49165.26172
48962.0 0.00002042 47987.98438 49034.77734
48677.0 0.00002054 48053.44531 48888.62891
48524.0 0.00002061 48118.89453 48773.92578
48467.0 0.00002063 48184.31641 48700.66016
48438.0 0.00002064 48249.72266 48663.54688
48471.0 0.00002063 48315.10938 48654.07422
48489.0 0.00002062 48380.47656 48664.66797
48528.0 0.00002061 48445.83594 48689.48828
48551.0 0.00002060 48511.16406 48724.31641
48574.0 0.00002059 48576.49219 48766.25781
48672.0 0.00002055 48641.79688 48813.30469
48733.0 0.00002052 48707.07422 48864.13281
48764.0 0.00002051 48772.33984 48917.80469
48825.0 0.00002048 48837.58594 48973.66406
48877.0 0.00002046 48902.80469 49032.26953
48914.0 0.00002044 48968.01563 49091.21875
48987.0 0.00002041 49033.20313 49151.26172
49050.0 0.00002039 49098.36328 49212.18359
49122.0 0.00002036 49163.51172 49274.56250
49202.0 0.00002032 49228.63672 49336.85547
49209.0 0.00002032 49293.74219 49399.66406
49258.0 0.00002030 49358.82813 49467.01563
49300.0 0.00002028 49423.88672 49530.67969
49362.0 0.00002026 49488.92969 49594.68359
49425.0 0.00002023 49553.94922 49658.95703
49464.0 0.00002022 49618.95313 49723.50781
49527.0 0.00002019 49683.92969 49788.29297
49583.0 0.00002017 49748.88281 49853.28516
49637.0 0.00002015 49813.81641 49918.47656
49685.0 0.00002013 49878.72266 49983.86328
49711.0 0.00002012 49943.61328 50049.41797
49777.0 0.00002009 50008.47656 50115.15234
49849.0 0.00002006 50073.31641 50181.05469
49905.0 0.00002004 50138.13281 50247.14063
50000.0 0.00002000 50202.92969 50313.40234
50068.0 0.00001997 50267.70313 50379.85547
50092.0 0.00001996 50332.43750 50447.08984
50144.0 0.00001994 50397.16406 50513.94531
50198.0 0.00001992 50461.86328 50585.31641
50238.0 0.00001991 50526.53906 50652.69922
50305.0 0.00001988 50591.18750 50720.37109
50366.0 0.00001985 50655.80859 50788.34375
50443.0 0.00001982 50720.39844 50856.66016
50489.0 0.00001981 50784.98047 50922.93359
50565.0 0.00001978 50849.51563 50992.18359
50647.0 0.00001974 50914.03516 51061.98828
50711.0 0.00001972 50978.53125 51132.46875
50757.0 0.00001970 51042.99609 51203.74609
50803.0 0.00001968 51107.44531 51276.00781
50846.0 0.00001967 51171.85156 51349.45703
50939.0 0.00001963 51236.23438 51424.40625
51008.0 0.00001960 51300.58594 51501.25781
51081.0 0.00001958 51364.92578 51580.55078
51165.0 0.00001954 51429.22266 51663.00000
51266.0 0.00001951 51493.49609 51749.60156
51345.0 0.00001948 51557.75391 51841.68359
51391.0 0.00001946 51621.96484 51940.89453
51492.0 0.00001942 51686.15234 52049.27734
51585.0 0.00001939 51750.31641 52168.82813
51677.0 0.00001935 51814.44922 52300.33203
51813.0 0.00001930 51878.53906 52440.70313
51952.0 0.00001925 51942.61719 52580.32031
52180.0 0.00001916 52006.66406 52706.47266
52421.0 0.00001908 52070.67578 52810.37109
52572.0 0.00001902 52134.66406 52886.53906
52580.0 0.00001902 52198.61328 52933.30078
52587.0 0.00001902 52262.53516 52961.50000
52680.0 0.00001898 52326.42188 52982.47266
52853.0 0.00001892 52390.28516 53003.33594
52959.0 0.00001888 52454.11328 53021.17578
52928.0 0.00001889 52517.91797 53031.78516
52820.0 0.00001893 52581.68359 53040.14844
52810.0 0.00001894 52645.41797 53055.28906
52807.0 0.00001894 52709.12109 53079.99219
52838.0 0.00001893 52772.79688 53114.43750
52865.0 0.00001892 52836.43359 53156.93750
52947.0 0.00001889 52900.03906 53205.69531
53008.0 0.00001887 52963.60938 53259.23047
53105.0 0.00001883 53027.16016 53316.42969
53173.0 0.00001881 53090.66406 53376.32422
53225.0 0.00001879 53154.14453 53438.05469
53290.0 0.00001877 53217.58203 53500.77734
53363.0 0.00001874 53280.98828 53563.97266
53450.0 0.00001871 53344.36328 53627.57422
53582.0 0.00001866 53407.70313 53691.84766
53667.0 0.00001863 53471.01172 53757.00391
53755.0 0.00001860 53534.29297 53823.17188
53929.0 0.00001854 53597.52734 53890.28125
54083.0 0.00001849 53660.73047 53958.30078
54281.0 0.00001842 53723.90234 54027.17578
54521.0 0.00001834 53787.03125 54096.83984
54748.0 0.00001827 53850.13281 54167.27734
55015.0 0.00001818 53913.19922 54238.44531
55302.0 0.00001808 53976.23047 54310.37109
55614.0 0.00001798 54039.22266 54383.29688
55988.0 0.00001786 54102.18359 54456.74609
56367.0 0.00001774 54165.10156 54530.98438
56741.0 0.00001762 54227.99219 54606.09375
57011.0 0.00001754 54290.83203 54682.08203
57190.0 0.00001749 54353.64844 54759.05469
57271.0 0.00001746 54416.42969 54837.06641
57249.0 0.00001747 54479.16797 54916.19141
57167.0 0.00001749 54541.86719 54996.55078
57116.0 0.00001751 54604.54297 55078.26953
57038.0 0.00001753 54667.16797 55161.45703
56961.0 0.00001756 54729.76172 55246.27344
56825.0 0.00001760 54792.31641 55332.92188
56780.0 0.00001761 54854.83203 55421.59766
56715.0 0.00001763 54917.31250 55512.61719
56648.0 0.00001765 54979.75781 55606.15234
56592.0 0.00001767 55042.16016 55702.61328
56578.0 0.00001767 55104.53125 55801.58984
56581.0 0.00001767 55166.85547 55905.21094
56585.0 0.00001767 55229.14844 56013.28906
56667.0 0.00001765 55291.39844 56126.55469
56640.0 0.00001766 55353.61719 56245.95313
56688.0 0.00001764 55415.79297 56372.62109
56774.0 0.00001761 55477.92578 56508.08984
56882.0 0.00001758 55540.01953 56654.31250
57023.0 0.00001754 55602.07813 56813.94531
57202.0 0.00001748 55664.10156 56990.55859
57394.0 0.00001742 55726.07422 57189.03906
57632.0 0.00001735 55788.01563 57416.12500
57943.0 0.00001726 55849.91797 57680.79297
58274.0 0.00001716 55911.78125 57994.81250
58663.0 0.00001705 55973.60156 58372.64453
59126.0 0.00001691 56035.38281 58829.19531
59776.0 0.00001673 56097.12500 59373.77344
60562.0 0.00001651 56158.82813 59992.16797
61481.0 0.00001627 56220.49609 60617.73828
62105.0 0.00001610 56282.11719 61123.16797
62129.0 0.00001610 56343.69922 61398.17969
61910.0 0.00001615 56405.24219 61467.70703
61807.0 0.00001618 56466.73828 61473.29688
61951.0 0.00001614 56528.19922 61551.80859
62311.0 0.00001605 56589.61328 61769.59375
62890.0 0.00001590 56651.00391 62154.48438
63628.0 0.00001572 56712.33984 62711.33203
64524.0 0.00001550 56773.64063 63432.71094
65418.0 0.00001529 56834.90234 64299.38281
66251.0 0.00001509 56896.11719 65258.55859
66931.0 0.00001494 56957.28516 66214.72656
67438.0 0.00001483 57018.41797 67031.31250
67662.0 0.00001478 57079.51953 67570.86719
67521.0 0.00001481 57140.56641 67769.03125
67130.0 0.00001490 57201.57813 67680.07813
66544.0 0.00001503 57262.55078 67450.22656
65966.0 0.00001516 57323.47656 67246.07031
65601.0 0.00001524 57384.37109 67200.85156
65567.0 0.00001525 57445.21094 67398.18750
65934.0 0.00001517 57506.01563 67875.06250
66845.0 0.00001496 57566.77344 68626.10156
68122.0 0.00001468 57627.50391 69626.94531
69759.0 0.00001434 57688.17969 70883.32813
71809.0 0.00001393 57748.81250 72441.13281
74141.0 0.00001349 57809.41016 74306.78125
76513.0 0.00001307 57869.96484 76341.73438
78513.0 0.00001274 57930.47656 78201.86719
79683.0 0.00001255 57990.94922 79386.16406
79780.0 0.00001253 58051.37891 79461.04688
78811.0 0.00001269 58111.76953 78347.40625
77068.0 0.00001298 58172.10547 76376.76563
74883.0 0.00001335 58232.41406 74047.28125
72574.0 0.00001378 58292.67578 71757.89844
70396.0 0.00001421 58352.89844 69726.35156
68494.0 0.00001460 58413.07422 68026.00000
66881.0 0.00001495 58473.20313 66647.23438
65592.0 0.00001525 58533.30469 65554.11719
64559.0 0.00001549 58593.35938 64703.07813
63738.0 0.00001569 58653.36719 64055.09766
63110.0 0.00001585 58713.32422 63578.81250
62785.0 0.00001593 58773.25000 63249.02344
62676.0 0.00001596 58833.14063 63039.60938
62710.0 0.00001595 58892.98438 62908.35938
62665.0 0.00001596 58952.78125 62785.78906
62429.0 0.00001602 59012.53906 62608.44531
62107.0 0.00001610 59072.26172 62380.99219
61890.0 0.00001616 59131.93359 62160.21094
61742.0 0.00001620 59191.55859 61990.23828
61669.0 0.00001622 59251.14844 61885.02344
61666.0 0.00001622 59310.70313 61841.75000
61684.0 0.00001621 59370.20703 61850.19141
61706.0 0.00001621 59429.67188 61892.87109
61729.0 0.00001620 59489.09766 61946.03906
61743.0 0.00001620 59548.47656 61979.31250
61765.0 0.00001619 59607.81641 61973.30078
61833.0 0.00001617 59667.11328 61932.16797
61905.0 0.00001615 59726.36719 61878.26563
61959.0 0.00001614 59785.57813 61835.10938
62075.0 0.00001611 59844.75391 61817.56641
62246.0 0.00001607 59903.89063 61832.38281
62391.0 0.00001603 59962.98047 61882.30859
62616.0 0.00001597 60022.02734 61968.75781
62856.0 0.00001591 60081.03906 62094.55469
63212.0 0.00001582 60140.00391 62264.29297
63591.0 0.00001573 60198.91797 62484.92969
64077.0 0.00001561 60257.80859 62766.08594
64610.0 0.00001548 60316.65234 63119.60547
65095.0 0.00001536 60375.45703 63558.36328
65478.0 0.00001527 60434.21094 64090.55078
65744.0 0.00001521 60492.93359 64711.08984
65868.0 0.00001518 60551.61328 65382.26953
65821.0 0.00001519 60610.25781 66015.00781
65691.0 0.00001522 60668.84375 66476.90625
65509.0 0.00001527 60727.40234 66658.91406
65314.0 0.00001531 60785.91797 66561.60156
65165.0 0.00001535 60844.39844 66300.64063
65117.0 0.00001536 60902.83203 66022.70313
65284.0 0.00001532 60961.22266 65830.84375
65684.0 0.00001522 61019.57813 65763.98438
66113.0 0.00001513 61077.89063 65807.12500
66334.0 0.00001508 61136.16406 65922.92969
66428.0 0.00001505 61194.40625 66097.64063
66517.0 0.00001503 61252.59766 66344.90625
66706.0 0.00001499 61310.75781 66659.03906
66895.0 0.00001495 61368.86719 66982.63281
67003.0 0.00001492 61426.93750 67214.54688
66964.0 0.00001493 61484.97656 67252.07031
66868.0 0.00001495 61542.97656 67049.60938
66659.0 0.00001500 61600.92969 66647.10156
66311.0 0.00001508 61658.84766 66134.92188
65870.0 0.00001518 61716.72266 65605.45313
65480.0 0.00001527 61774.57422 65118.31641
65077.0 0.00001537 61832.37500 64700.10938
64679.0 0.00001546 61890.12891 64355.78125
64371.0 0.00001553 61947.86328 64079.62891
64080.0 0.00001561 62005.54297 63862.00391
63818.0 0.00001567 62063.19141 63692.88672
63561.0 0.00001573 62120.79688 63563.23828
63366.0 0.00001578 62178.37109 63465.39453
63248.0 0.00001581 62235.91016 63393.09375
63155.0 0.00001583 62293.40234 63341.31250
63118.0 0.00001584 62350.85547 63306.26563
63106.0 0.00001585 62408.27344 63284.55469
63127.0 0.00001584 62465.66406 63273.85938
63127.0 0.00001584 62523.00781 63272.28516
63064.0 0.00001586 62580.31641 63278.32422
63070.0 0.00001586 62637.58594 63290.79297
63082.0 0.00001585 62694.82422 63308.76563
63118.0 0.00001584 62752.02344 63331.46484
63133.0 0.00001584 62809.18750 63358.33594
63140.0 0.00001584 62866.30078 63388.87500
63204.0 0.00001582 62923.39844 63422.76563
63268.0 0.00001581 62980.45313 63459.74219
63360.0 0.00001578 63037.46484 63499.61328
63469.0 0.00001576 63094.44141 63542.08203
63561.0 0.00001573 63151.39063 63587.63281
63724.0 0.00001569 63208.30469 63636.19922
63852.0 0.00001566 63265.17578 63688.00000
63998.0 0.00001563 63322.01172 63743.46484
64132.0 0.00001559 63378.82031 63803.21484
64243.0 0.00001557 63435.58594 63868.04297
64302.0 0.00001555 63492.32422 63939.00000
64374.0 0.00001553 63549.01953 64017.26953
64429.0 0.00001552 63605.68750 64104.06641
64516.0 0.00001550 63662.31641 64199.96484
64638.0 0.00001547 63718.91797 64303.86328
64744.0 0.00001545 63775.47656 64411.04688
64854.0 0.00001542 63832.01172 64511.79297
64968.0 0.00001539 63888.50781 64591.47656
64959.0 0.00001539 63944.97266 64639.11328
64909.0 0.00001541 64001.39453 64655.96484
64866.0 0.00001542 64057.79688 64653.44922
64851.0 0.00001542 64114.16016 64645.73047
64864.0 0.00001542 64170.49609 64642.55469
64857.0 0.00001542 64226.79688 64648.07813
64823.0 0.00001543 64283.05469 64663.09375
64782.0 0.00001544 64339.29297 64686.88281
64698.0 0.00001546 64395.49609 64718.26563
64653.0 0.00001547 64451.67578 64756.07031
64620.0 0.00001548 64507.80469 64799.03516
64591.0 0.00001548 64563.91016 64845.71484
64567.0 0.00001549 64619.99219 64893.96094
64545.0 0.00001549 64676.03906 64940.94922
64527.0 0.00001550 64732.05469 64985.28906
64591.0 0.00001548 64788.03516 65024.18359
64652.0 0.00001547 64843.98438 65061.10938
64691.0 0.00001546 64899.91406 65095.68750
64719.0 0.00001545 64955.80078 65130.21875
64789.0 0.00001543 65011.67188 65165.07031
64872.0 0.00001541 65067.50000 65199.92969
64945.0 0.00001540 65123.30469 65234.30859
65047.0 0.00001537 65179.07813 65267.44141
65152.0 0.00001535 65234.82422 65298.73438
65260.0 0.00001532 65290.54297 65327.60938
65370.0 0.00001530 65346.22656 65353.73828
65494.0 0.00001527 65401.88672 65377.16016
65601.0 0.00001524 65457.51563 65398.61328
65672.0 0.00001523 65513.11719 65419.90625
65831.0 0.00001519 65568.69531 65445.32422
65963.0 0.00001516 65624.25781 65484.35938
66069.0 0.00001514 65679.75781 65557.56250
66139.0 0.00001512 65735.25781 65698.82031
66299.0 0.00001508 65790.71094 65949.90625
66495.0 0.00001504 65846.14844 66347.85938
66798.0 0.00001497 65901.55469 66914.57031
67317.0 0.00001486 65956.95313 67653.78906
68146.0 0.00001467 66012.30469 68545.75000
69301.0 0.00001443 66067.64063 69523.85156
70471.0 0.00001419 66122.93750 70451.89063
71139.0 0.00001406 66178.21094 71120.57813
71138.0 0.00001406 66233.47656 71371.16406
70658.0 0.00001415 66288.69531 71186.18750
69909.0 0.00001430 66343.89844 70665.43750
69101.0 0.00001447 66399.07813 69960.32031
68507.0 0.00001460 66454.21875 69241.87500
68259.0 0.00001465 66509.35938 68635.32813
68134.0 0.00001468 66564.43750 68180.08594
67907.0 0.00001473 66619.52344 67858.75000
67539.0 0.00001481 66674.57813 67629.58594
67235.0 0.00001487 66729.61719 67470.67188
67041.0 0.00001492 66784.60938 67365.43750
66965.0 0.00001493 66839.59375 67301.10938
66872.0 0.00001495 66894.54688 67265.57031
66864.0 0.00001496 66949.48438 67249.83594
66839.0 0.00001496 67004.39063 67246.08594
66821.0 0.00001497 67059.27344 67249.67969
66858.0 0.00001496 67114.13281 67256.84375
66865.0 0.00001496 67168.97656 67264.59375
66894.0 0.00001495 67223.81250 67270.50000
66887.0 0.00001495 67278.59375 67272.56250
66929.0 0.00001494 67333.37500 67270.07031
66960.0 0.00001493 67388.11719 67263.71875
66974.0 0.00001493 67442.85156 67258.17969
66993.0 0.00001493 67497.56250 67262.28125
67065.0 0.00001491 67552.23438 67287.22656
67077.0 0.00001491 67606.91406 67339.74219
67123.0 0.00001490 67661.54688 67416.41406
67192.0 0.00001488 67716.17188 67506.53125
67227.0 0.00001487 67770.78125 67599.19531
67266.0 0.00001487 67825.34375 67687.52344
67341.0 0.00001485 67879.91406 67768.56250
67407.0 0.00001484 67934.43750 67841.64063
67448.0 0.00001483 67988.96875 67907.15625
67510.0 0.00001481 68043.46875 67965.60156
67594.0 0.00001479 68097.93750 68017.27344
67667.0 0.00001478 68152.39844 68062.19531
67703.0 0.00001477 68206.82813 68099.83594
67757.0 0.00001476 68261.26563 68129.48438
67868.0 0.00001473 68315.65625 68142.51563
67920.0 0.00001472 68370.03906 68152.42969
67993.0 0.00001471 68424.38281 68150.40625
68078.0 0.00001469 68478.71875 68136.46094
68170.0 0.00001467 68533.03906 68111.74219
68272.0 0.00001465 68587.34375 68081.78906
68320.0 0.00001464 68641.62500 68057.13281
68405.0 0.00001462 68695.88281 68054.89063
68453.0 0.00001461 68750.13281 68096.77344
68554.0 0.00001459 68804.35938 68199.58594
68655.0 0.00001457 68858.55469 68363.27344
68771.0 0.00001454 68912.75000 68571.73438
68887.0 0.00001452 68966.92188 68805.78906
69039.0 0.00001448 69021.06250 69054.44531
69212.0 0.00001445 69075.19531 69315.79688
69402.0 0.00001441 69129.31250 69573.94531
69683.0 0.00001435 69183.41406 69860.49219
70001.0 0.00001429 69237.49219 70136.28125
70224.0 0.00001424 69291.53906 70359.60938
70276.0 0.00001423 69345.58594 70493.97656
70280.0 0.00001423 69399.61719 70548.15625
70434.0 0.00001420 69453.60938 70570.21094
70759.0 0.00001413 69507.60156 70600.62500
71185.0 0.00001405 69561.57031 70641.02344
71391.0 0.00001401 69615.52344 70658.24219
71175.0 0.00001405 69669.45313 70618.56250
70797.0 0.00001412 69723.37500 70527.96875
70445.0 0.00001420 69777.27344 70424.75781
70198.0 0.00001425 69831.16406 70341.13281
70042.0 0.00001428 69885.02344 70287.86719
69940.0 0.00001430 69938.86719 70262.57031
69895.0 0.00001431 69992.68750 70258.93750
69926.0 0.00001430 70046.49219 70271.17188
69908.0 0.00001430 70100.29688 70294.67188
69909.0 0.00001430 70154.07031 70326.11719
69960.0 0.00001429 70207.82031 70363.20313
69975.0 0.00001429 70261.57813 70404.29688
69999.0 0.00001429 70315.28125 70448.24219
70018.0 0.00001428 70369.00000 70493.82813
70031.0 0.00001428 70422.67969 70541.56250
70074.0 0.00001427 70476.34375 70590.61719
70138.0 0.00001426 70529.99219 70640.72656
70167.0 0.00001425 70583.64063 70691.76563
70207.0 0.00001424 70637.25000 70743.55469
70256.0 0.00001423 70690.84375 70795.96875
70331.0 0.00001422 70744.41406 70848.92188
70389.0 0.00001421 70797.98438 70902.77344
70497.0 0.00001419 70851.52344 70956.78906
70557.0 0.00001417 70905.05469 71011.61719
70661.0 0.00001415 70958.55469 71066.42969
70721.0 0.00001414 71012.03125 71121.73438
70810.0 0.00001412 71065.50781 71177.41406
70961.0 0.00001409 71118.96094 71233.75000
71089.0 0.00001407 71172.36719 71290.32813
71229.0 0.00001404 71225.79688 71347.42969
71402.0 0.00001401 71279.17969 71405.00000
71545.0 0.00001398 71332.55469 71463.14063
71719.0 0.00001394 71385.89844 71521.92969
71916.0 0.00001391 71439.24219 71581.44531
72098.0 0.00001387 71492.53906 71641.74219
72296.0 0.00001383 71545.83594 71702.96875
72490.0 0.00001380 71599.10938 71765.34375
72653.0 0.00001376 71652.35156 71828.94531
72766.0 0.00001374 71705.58594 71894.78906
72896.0 0.00001372 71758.78906 71962.38281
73007.0 0.00001370 71811.99219 72033.18750
73174.0 0.00001367 71865.14844 72108.63281
73278.0 0.00001365 71918.30469 72191.21875
73372.0 0.00001363 71971.42188 72284.88281
73503.0 0.00001360 72024.52344 72395.96094
73699.0 0.00001357 72077.59375 72534.00000
73917.0 0.00001353 72130.65625 72711.21094
74311.0 0.00001346 72183.67969 72936.68750
74857.0 0.00001336 72236.69531 73202.98438
75407.0 0.00001326 72289.67188 73463.00000
75497.0 0.00001325 72342.64844 73662.21875
75136.0 0.00001331 72395.57813 73742.38281
74666.0 0.00001339 72448.49219 73718.25000
74221.0 0.00001347 72501.37500 73648.17188
73891.0 0.00001353 72554.23438 73579.57031
73673.0 0.00001357 72607.07031 73531.54688
73543.0 0.00001360 72659.87500 73506.26563
73470.0 0.00001361 72712.66406 73501.02344
73399.0 0.00001362 72765.42969 73514.03906
73440.0 0.00001362 72818.16406 73544.64844
73518.0 0.00001360 72870.86719 73592.53906
73693.0 0.00001357 72923.53125 73656.67188
73934.0 0.00001353 72976.19531 73734.75781
74115.0 0.00001349 73028.80469 73823.45313
74187.0 0.00001348 73081.39844 73920.32031
74155.0 0.00001349 73133.94531 74026.42969
74118.0 0.00001349 73186.48438 74148.57813
74147.0 0.00001349 73238.97656 74294.93750
74283.0 0.00001346 73291.44531 74474.21094
74569.0 0.00001341 73343.87500 74688.17188
74953.0 0.00001334 73396.28125 74925.51563
75421.0 0.00001326 73448.67188 75156.05469
75832.0 0.00001319 73500.99219 75345.60938
76255.0 0.00001311 73553.29688 75479.39063
76686.0 0.00001304 73605.56250 75562.72656
76871.0 0.00001301 73657.80469 75595.69531
76664.0 0.00001304 73710.00781 75570.84375
76252.0 0.00001311 73762.14844 75494.01563
75865.0 0.00001318 73814.28125 75390.82813
75589.0 0.00001323 73866.36719 75291.68750
75423.0 0.00001326 73918.42188 75216.67969
75331.0 0.00001327 73970.42188 75173.21875
75308.0 0.00001328 74022.40625 75160.09375
75336.0 0.00001327 74074.32813 75173.46094
75398.0 0.00001326 74126.21875 75210.83594
75461.0 0.00001325 74178.06250 75271.96875
75511.0 0.00001324 74229.86719 75356.53125
75541.0 0.00001324 74281.64844 75463.00781
75590.0 0.00001323 74333.35938 75588.14063
75578.0 0.00001323 74385.03906 75728.17188
75626.0 0.00001322 74436.66406 75881.48438
75705.0 0.00001321 74488.25000 76051.76563
75790.0 0.00001319 74539.78906 76250.14844
75930.0 0.00001317 74591.26563 76492.84375
76115.0 0.00001314 74642.71094 76798.67188
76386.0 0.00001309 74694.10156 77185.86719
76877.0 0.00001301 74745.44531 77667.61719
77700.0 0.00001287 74796.73438 78241.73438
79113.0 0.00001264 74847.97656 78871.37500
80885.0 0.00001236 74899.16406 79462.82031
81785.0 0.00001223 74950.29688 79876.56250
81222.0 0.00001231 75001.37500 80009.92969
79969.0 0.00001250 75052.37500 79890.42188
79057.0 0.00001265 75103.36719 79659.26563
78627.0 0.00001272 75154.25781 79466.19531
78641.0 0.00001272 75205.11719 79402.34375
79049.0 0.00001265 75255.90625 79491.78906
79793.0 0.00001253 75306.61719 79697.63281
80550.0 0.00001241 75357.30469 79922.68750
80809.0 0.00001237 75407.89063 80029.36719
80493.0 0.00001242 75458.42969 79909.10938
79927.0 0.00001251 75508.91406 79559.32813
79352.0 0.00001260 75559.32031 79075.33594
78915.0 0.00001267 75609.64844 78569.09375
78559.0 0.00001273 75659.91406 78111.53906
78284.0 0.00001277 75710.12500 77729.24219
78077.0 0.00001281 75760.25781 77422.41406
77961.0 0.00001283 75810.32031 77181.07813
77873.0 0.00001284 75860.28906 76993.08594
77791.0 0.00001285 75910.20313 76848.55469
77726.0 0.00001287 75960.03125 76740.83594
77670.0 0.00001287 76009.79688 76666.71094
77648.0 0.00001288 76059.47656 76623.85938
77657.0 0.00001288 76109.07031 76608.35156
77643.0 0.00001288 76158.59375 76613.71875
77619.0 0.00001288 76208.03125 76632.93750
77598.0 0.00001289 76257.38281 76660.58594
77583.0 0.00001289 76306.64844 76692.93750
77532.0 0.00001290 76355.82813 76729.08594
77526.0 0.00001290 76404.92188 76769.00781
77538.0 0.00001290 76453.92188 76810.64063
77518.0 0.00001290 76502.82031 76855.10156
77530.0 0.00001290 76551.64844 76902.82031
77535.0 0.00001290 76600.38281 76954.42188
77527.0 0.00001290 76649.00781 77010.69531
77583.0 0.00001289 76697.53906 77072.67188
77605.0 0.00001289 76745.96094 77141.64844
77608.0 0.00001289 76794.28906 77219.33594
77648.0 0.00001288 76842.52344 77308.41406
77708.0 0.00001287 76890.64063 77408.62500
77744.0 0.00001286 76938.67188 77521.56250
77763.0 0.00001286 76986.58594 77645.01563
77796.0 0.00001285 77034.37500 77770.85156
77853.0 0.00001284 77082.07813 77883.40625
77891.0 0.00001284 77129.64844 77964.03125
77899.0 0.00001284 77177.14063 78002.00000
77925.0 0.00001283 77224.47656 78000.70313
77956.0 0.00001283 77271.71094 77973.57031
77986.0 0.00001282 77318.81250 77935.87500
78048.0 0.00001281 77365.82031 77899.57031
78097.0 0.00001280 77412.68750 77871.36719
78117.0 0.00001280 77459.43750 77853.73438
78129.0 0.00001280 77506.05469 77846.85938
78192.0 0.00001279 77552.53125 77848.78125
78206.0 0.00001279 77598.89844 77858.28125
78196.0 0.00001279 77645.11719 77873.79688
78223.0 0.00001278 77691.20313 77894.09375
78248.0 0.00001278 77737.14844 77918.12500
78238.0 0.00001278 77782.96875 77944.94531
78219.0 0.00001278 77828.64063 77973.81250
78207.0 0.00001279 77874.15625 78004.25781
78203.0 0.00001279 77919.53906 78035.71094
78215.0 0.00001279 77964.76563 78067.78906
78187.0 0.00001279 78009.85938 78100.12500
78193.0 0.00001279 78054.77344 78132.22656
78185.0 0.00001279 78099.55469 78163.97656
78178.0 0.00001279 78144.16406 78195.08594
78184.0 0.00001279 78188.63281 78225.72656
78209.0 0.00001279 78232.92969 78255.75781
78246.0 0.00001278 78277.06250 78285.27344
78306.0 0.00001277 78321.02344 78314.26563
78353.0 0.00001276 78364.80469 78342.40625
78368.0 0.00001276 78408.44531 78369.07031
78354.0 0.00001276 78451.89844 78394.67969
78367.0 0.00001276 78495.16406 78421.95313
78388.0 0.00001276 78538.27344 78455.71875
78431.0 0.00001275 78581.17969 78499.33594
78495.0 0.00001274 78623.90625 78553.16406
78554.0 0.00001273 78666.42969 78615.10156
78611.0 0.00001272 78708.80469 78682.21875
78642.0 0.00001272 78750.95313 78751.67969
78658.0 0.00001271 78792.91406 78821.50000
78629.0 0.00001272 78834.68750 78890.03125
78659.0 0.00001271 78876.25781 78955.74219
78687.0 0.00001271 78917.62500 79016.82031
78721.0 0.00001270 78958.78125 79071.67188
78737.0 0.00001270 78999.71094 79119.31250
78767.0 0.00001270 79040.46875 79160.21875
78769.0 0.00001270 79080.98438 79195.97656
78775.0 0.00001269 79121.28906 79227.97656
78811.0 0.00001269 79161.36719 79258.15625
78871.0 0.00001268 79201.23438 79287.71875
78908.0 0.00001267 79240.86719 79317.42188
78914.0 0.00001267 79280.26563 79346.87500
78951.0 0.00001267 79319.42969 79376.24219
79011.0 0.00001266 79358.36719 79405.08594
79075.0 0.00001265 79397.05469 79433.06250
79135.0 0.00001264 79435.50781 79459.61719
79180.0 0.00001263 79473.71875 79484.00000
79237.0 0.00001262 79511.67188 79505.46875
79300.0 0.00001261 79549.37500 79523.09375
79385.0 0.00001260 79586.82813 79535.77344
79472.0 0.00001258 79624.00781 79542.46094
79550.0 0.00001257 79660.92969 79542.28906
79667.0 0.00001255 79697.57813 79535.15625
79773.0 0.00001254 79733.98438 79522.95313
79866.0 0.00001252 79770.09375 79511.12500
79950.0 0.00001251 79805.93750 79510.11719
80094.0 0.00001249 79841.49219 79537.51563
80218.0 0.00001247 79876.77344 79609.48438
80293.0 0.00001245 79911.74219 79733.85156
80393.0 0.00001244 79946.45313 79904.17969
80471.0 0.00001243 79980.85938 80105.42188
80521.0 0.00001242 80014.96094 80317.40625
80560.0 0.00001241 80048.75000 80529.42188
80563.0 0.00001241 80082.24219 80732.46875
80575.0 0.00001241 80115.42969 80915.24219
80621.0 0.00001240 80148.28906 81063.43750
80613.0 0.00001240 80180.85156 81165.51563
80607.0 0.00001241 80213.07813 81219.32813
80616.0 0.00001240 80244.96875 81232.19531
80615.0 0.00001240 80276.55469 81216.67188
80611.0 0.00001241 80307.77344 81183.41406
80592.0 0.00001241 80338.67969 81140.33594
80574.0 0.00001241 80369.22656 81094.24219
80574.0 0.00001241 80399.44531 81052.35156
80591.0 0.00001241 80429.29688 81020.71094
80615.0 0.00001240 80458.79688 81003.39844
80627.0 0.00001240 80487.94531 81002.20313
80664.0 0.00001240 80516.71875 81018.02344
80733.0 0.00001239 80545.13281 81051.34375
80840.0 0.00001237 80573.17188 81102.86719
81010.0 0.00001234 80600.82031 81171.92969
81264.0 0.00001231 80628.08594 81256.69531
81602.0 0.00001225 80654.98438 81349.04688
81834.0 0.00001222 80681.47656 81432.28906
81872.0 0.00001221 80707.57031 81484.84375
81740.0 0.00001223 80733.28125 81493.24219
81556.0 0.00001226 80758.57031 81463.99219
81366.0 0.00001229 80783.46094 81417.50781
81197.0 0.00001232 80807.91406 81372.58594
81087.0 0.00001233 80831.96094 81339.47656
81058.0 0.00001234 80855.59375 81320.23438
81044.0 0.00001234 80878.77344 81313.15625
81053.0 0.00001234 80901.53906 81314.60156
81084.0 0.00001233 80923.85938 81320.58594
81081.0 0.00001233 80945.72656 81329.33594
81069.0 0.00001234 80967.14063 81339.21875
81103.0 0.00001233 80988.10938 81352.72656
81113.0 0.00001233 81008.60938 81371.71094
81154.0 0.00001232 81028.64844 81397.53906
81215.0 0.00001231 81048.21094 81430.46875
81264.0 0.00001231 81067.30469 81472.92969
81296.0 0.00001230 81085.91406 81525.17188
81359.0 0.00001229 81104.03125 81588.31250
81460.0 0.00001228 81121.66406 81663.14063
81574.0 0.00001226 81138.78125 81750.03125
81685.0 0.00001224 81155.41406 81848.29688
81693.0 0.00001224 81171.52344 81955.42188
81690.0 0.00001224 81187.11719 82066.80469
81695.0 0.00001224 81202.18750 82174.59375
81699.0 0.00001224 81216.72656 82267.99219
81746.0 0.00001223 81230.76563 82337.10156
81801.0 0.00001222 81244.22656 82378.32813
81837.0 0.00001222 81257.15625 82394.50000
81895.0 0.00001221 81269.53906 82388.32813
81937.0 0.00001220 81281.35938 82359.29688
81992.0 0.00001220 81292.62500 82306.17188
82022.0 0.00001219 81303.31250 82231.91406
82025.0 0.00001219 81313.42969 82144.93750
82068.0 0.00001219 81322.94531 82055.39063
82112.0 0.00001218 81331.89844 81971.28906
82159.0 0.00001217 81340.25781 81897.03906
82218.0 0.00001216 81348.00000 81833.95313
82248.0 0.00001216 81355.13281 81781.78906
82276.0 0.00001215 81361.65625 81739.18750
82279.0 0.00001215 81367.57813 81704.16406
82334.0 0.00001215 81372.85938 81676.33594
82344.0 0.00001214 81377.50781 81654.00781
82418.0 0.00001213 81381.50781 81636.08594
82451.0 0.00001213 81384.86719 81621.72656
82525.0 0.00001212 81387.57031 81610.55469
82561.0 0.00001211 81389.61719 81601.71875
82601.0 0.00001211 81390.99219 81594.56250
82698.0 . . .
82748.0 . . .
82768.0 . . .
82779.0 . . .
82817.0 . . .
82837.0 . . .
82874.0 . . .
82911.0 . . .
82969.0 . . .
83036.0 . . .
83073.0 . . .
83128.0 . . .
83201.0 . . .
83251.0 . . .
83284.0 . . .
83344.0 . . .
83377.0 . . .
83450.0 . . .
83504.0 . . .
83505.0 . . .
83518.0 . . .
83518.0 . . .
83547.0 . . .
83582.0 . . .
83654.0 . . .
83772.0 . . .
83803.0 . . .
83827.0 . . .
83910.0 . . .
83995.0 . . .
84092.0 . . .
84139.0 . . .
84224.0 . . .
84329.0 . . .
84450.0 . . .
84548.0 . . .
84632.0 . . .
84716.0 . . .
84816.0 . . .
84913.0 . . .
84989.0 . . .
85065.0 . . .
85146.0 . . .
85238.0 . . .
85299.0 . . .
85364.0 . . .
85392.0 . . .
85431.0 . . .
85479.0 . . .
85505.0 . . .
85539.0 . . .
85542.0 . . .
85525.0 . . .
85508.0 . . .
85493.0 . . .
85484.0 . . .
85504.0 . . .
85507.0 . . .
85497.0 . . .
85521.0 . . .
85523.0 . . .
85566.0 . . .
85601.0 . . .
85671.0 . . .
85735.0 . . .
85824.0 . . .
85868.0 . . .
85955.0 . . .
86032.0 . . .
86166.0 . . .
86273.0 . . .
86442.0 . . .
86597.0 . . .
86630.0 . . .
86612.0 . . .
86547.0 . . .
86478.0 . . .
86426.0 . . .
86403.0 . . .
86376.0 . . .
86393.0 . . .
86389.0 . . .
86396.0 . . .
86400.0 . . .
86397.0 . . .
86392.0 . . .
86433.0 . . .
86488.0 . . .
86527.0 . . .
86530.0 . . .
86534.0 . . .
86575.0 . . .
86617.0 . . .
86641.0 . . .
86685.0 . . .
86691.0 . . .
86720.0 . . .
86746.0 . . .
86830.0 . . .
86878.0 . . .
86921.0 . . .
86940.0 . . .
86997.0 . . .
87048.0 . . .
87061.0 . . .
87095.0 . . .
87136.0 . . .
87215.0 . . .
87294.0 . . .
87411.0 . . .
87525.0 . . .
87603.0 . . .
87700.0 . . .
87734.0 . . .
87695.0 . . .
87720.0 . . .
87742.0 . . .
87793.0 . . .
87805.0 . . .
87793.0 . . .
87845.0 . . .
87910.0 . . .
87967.0 . . .
88020.0 . . .
88068.0 . . .
88180.0 . . .
88245.0 . . .
88307.0 . . .
88340.0 . . .
88416.0 . . .
88494.0 . . .
88515.0 . . .
88547.0 . . .
88558.0 . . .
88552.0 . . .
88583.0 . . .
88646.0 . . .
88714.0 . . .
88759.0 . . .
88771.0 . . .
88817.0 . . .
88888.0 . . .
88988.0 . . .
89050.0 . . .
89088.0 . . .
89096.0 . . .
89078.0 . . .
89034.0 . . .
89040.0 . . .
89063.0 . . .
89125.0 . . .
89192.0 . . .
89294.0 . . .
89368.0 . . .
89374.0 . . .
89377.0 . . .
89295.0 . . .
89254.0 . . .
89258.0 . . .
89267.0 . . .
89262.0 . . .
89277.0 . . .
89302.0 . . .
89309.0 . . .
89375.0 . . .
89433.0 . . .
89455.0 . . .
89489.0 . . .
89532.0 . . .
89613.0 . . .
89671.0 . . .
89714.0 . . .
89755.0 . . .
89823.0 . . .
89887.0 . . .
89968.0 . . .
90055.0 . . .
90098.0 . . .
90173.0 . . .
90258.0 . . .
90354.0 . . .
90435.0 . . .
90515.0 . . .
90640.0 . . .
90773.0 . . .
90920.0 . . .
91029.0 . . .
91155.0 . . .
91317.0 . . .
91495.0 . . .
91632.0 . . .
91713.0 . . .
91778.0 . . .
91815.0 . . .
91844.0 . . .
91851.0 . . .
91886.0 . . .
91894.0 . . .
91894.0 . . .
91890.0 . . .
91920.0 . . .
91974.0 . . .
91997.0 . . .
91986.0 . . .
92001.0 . . .
92003.0 . . .
91970.0 . . .
91988.0 . . .
91973.0 . . .
91998.0 . . .
92059.0 . . .
92068.0 . . .
92087.0 . . .
92094.0 . . .
92115.0 . . .
92115.0 . . .
92168.0 . . .
92197.0 . . .
92320.0 . . .
92469.0 . . .
92564.0 . . .
92593.0 . . .
92580.0 . . .
92538.0 . . .
92518.0 . . .
92495.0 . . .
92506.0 . . .
92499.0 . . .
92501.0 . . .
92507.0 . . .
92534.0 . . .
92552.0 . . .
92590.0 . . .
92561.0 . . .
92581.0 . . .
92626.0 . . .
92652.0 . . .
92642.0 . . .
92635.0 . . .
92658.0 . . .
92676.0 . . .
92692.0 . . .
92734.0 . . .
92792.0 . . .
92875.0 . . .
92906.0 . . .
92961.0 . . .
93008.0 . . .
92996.0 . . .
92985.0 . . .
92998.0 . . .
93043.0 . . .
93063.0 . . .
93152.0 . . .
93209.0 . . .
93239.0 . . .
93291.0 . . .
93386.0 . . .
93449.0 . . .
93543.0 . . .
93643.0 . . .
93719.0 . . .
93813.0 . . .
93896.0 . . .
93948.0 . . .
94047.0 . . .
94127.0 . . .
94208.0 . . .
94257.0 . . .
94269.0 . . .
94260.0 . . .
94262.0 . . .
94278.0 . . .
94272.0 . . .
94283.0 . . .
94302.0 . . .
94337.0 . . .
94371.0 . . .
94403.0 . . .
94478.0 . . .
94535.0 . . .
94510.0 . . .
94466.0 . . .
94457.0 . . .
94451.0 . . .
94401.0 . . .
94410.0 . . .
94387.0 . . .
94370.0 . . .
94363.0 . . .
94338.0 . . .
94349.0 . . .
94356.0 . . .
94350.0 . . .
94357.0 . . .
94385.0 . . .
94426.0 . . .
94482.0 . . .
94516.0 . . .
94513.0 . . .
94612.0 . . .
94650.0 . . .
94714.0 . . .
94756.0 . . .
94825.0 . . .
94858.0 . . .
94895.0 . . .
94904.0 . . .
94923.0 . . .
94941.0 . . .
94971.0 . . .
94989.0 . . .
95008.0 . . .
95026.0 . . .
95018.0 . . .
95057.0 . . .
95085.0 . . .
95121.0 . . .
95144.0 . . .
95200.0 . . .
95279.0 . . .
95330.0 . . .
95344.0 . . .
95324.0 . . .
95301.0 . . .
95332.0 . . .
95324.0 . . .
95375.0 . . .
95416.0 . . .
95468.0 . . .
95497.0 . . .
95575.0 . . .
95700.0 . . .
95819.0 . . .
95945.0 . . .
95983.0 . . .
95968.0 . . .
95912.0 . . .
95902.0 . . .
95879.0 . . .
95853.0 . . .
95818.0 . . .
95796.0 . . .
95794.0 . . .
95802.0 . . .
95800.0 . . .
95809.0 . . .
95820.0 . . .
95776.0 . . .
95800.0 . . .
95794.0 . . .
95828.0 . . .
95870.0 . . .
95881.0 . . .
95910.0 . . .
95922.0 . . .
95930.0 . . .
95995.0 . . .
96075.0 . . .
96095.0 . . .
96102.0 . . .
96130.0 . . .
96123.0 . . .
96129.0 . . .
96150.0 . . .
96182.0 . . .
96179.0 . . .
96222.0 . . .
96321.0 . . .
96395.0 . . .
96471.0 . . .
96519.0 . . .
96540.0 . . .
96541.0 . . .
96581.0 . . .
96550.0 . . .
96503.0 . . .
96541.0 . . .
96570.0 . . .
96604.0 . . .
96635.0 . . .
96698.0 . . .
96748.0 . . .
96850.0 . . .
96971.0 . . .
97092.0 . . .
97140.0 . . .
97128.0 . . .
97090.0 . . .
97010.0 . . .
96995.0 . . .
97012.0 . . .
97031.0 . . .
97087.0 . . .
97156.0 . . .
97212.0 . . .
97218.0 . . .
97263.0 . . .
97256.0 . . .
97244.0 . . .
97263.0 . . .
97283.0 . . .
97332.0 . . .
97385.0 . . .
97412.0 . . .
97422.0 . . .
97468.0 . . .
97491.0 . . .
97530.0 . . .
97586.0 . . .
97614.0 . . .
97674.0 . . .
97730.0 . . .
97737.0 . . .
97732.0 . . .
97771.0 . . .
97795.0 . . .
97803.0 . . .
97796.0 . . .
97804.0 . . .
97855.0 . . .
97831.0 . . .
97854.0 . . .
97881.0 . . .
97939.0 . . .
97969.0 . . .
97955.0 . . .
98015.0 . . .
98053.0 . . .
98103.0 . . .
98128.0 . . .
98122.0 . . .
98144.0 . . .
98127.0 . . .
98148.0 . . .
98163.0 . . .
98218.0 . . .
98294.0 . . .
98388.0 . . .
98491.0 . . .
98523.0 . . .
98498.0 . . .
98405.0 . . .
98336.0 . . .
98313.0 . . .
98290.0 . . .
98301.0 . . .
98296.0 . . .
98339.0 . . .
98367.0 . . .
98398.0 . . .
98400.0 . . .
98386.0 . . .
98353.0 . . .
98347.0 . . .
98328.0 . . .
98340.0 . . .
98389.0 . . .
98446.0 . . .
98456.0 . . .
98479.0 . . .
98499.0 . . .
98553.0 . . .
98580.0 . . .
98599.0 . . .
98617.0 . . .
98634.0 . . .
98658.0 . . .
98675.0 . . .
98718.0 . . .
98754.0 . . .
98805.0 . . .
98843.0 . . .
98831.0 . . .
98850.0 . . .
98834.0 . . .
98908.0 . . .
98952.0 . . .
98980.0 . . .
98985.0 . . .
98979.0 . . .
99004.0 . . .
99050.0 . . .
99094.0 . . .
99143.0 . . .
99216.0 . . .
99321.0 . . .
99386.0 . . .
99480.0 . . .
99637.0 . . .
99796.0 . . .
99885.0 . . .
99852.0 . . .
99787.0 . . .
99708.0 . . .
99662.0 . . .
99611.0 . . .
99569.0 . . .
99564.0 . . .
99601.0 . . .
99565.0 . . .
99551.0 . . .
99554.0 . . .
99561.0 . . .
99569.0 . . .
99605.0 . . .
99625.0 . . .
99638.0 . . .
99663.0 . . .
99721.0 . . .
99755.0 . . .
99816.0 . . .
99821.0 . . .
99856.0 . . .
99869.0 . . .
99880.0 . . .
99920.0 . . .
99936.0 . . .
99976.0 . . .
100048.0 . . .
100063.0 . . .
100113.0 . . .
100126.0 . . .
100142.0 . . .
100182.0 . . .
100225.0 . . .
100243.0 . . .
100269.0 . . .
100280.0 . . .
100283.0 . . .
100274.0 . . .
100308.0 . . .
100351.0 . . .
100380.0 . . .
100374.0 . . .
100365.0 . . .
100383.0 . . .
100435.0 . . .
100488.0 . . .
100518.0 . . .
100503.0 . . .
100487.0 . . .
100485.0 . . .
100506.0 . . .
100492.0 . . .
100501.0 . . .
100488.0 . . .
100481.0 . . .
100488.0 . . .
100496.0 . . .
100497.0 . . .
100498.0 . . .
100509.0 . . .
100524.0 . . .
100537.0 . . .
100534.0 . . .
100561.0 . . .
100573.0 . . .
100578.0 . . .
100613.0 . . .
100614.0 . . .
100619.0 . . .
100644.0 . . .
100675.0 . . .
100681.0 . . .
100692.0 . . .
100710.0 . . .
100722.0 . . .
100719.0 . . .
100760.0 . . .
100814.0 . . .
100802.0 . . .
100839.0 . . .
100868.0 . . .
100884.0 . . .
100901.0 . . .
100929.0 . . .
100937.0 . . .
100950.0 . . .
100946.0 . . .
100995.0 . . .
101013.0 . . .
101035.0 . . .
101073.0 . . .
101109.0 . . .
101149.0 . . .
101195.0 . . .
101241.0 . . .
101224.0 . . .
101197.0 . . .
101203.0 . . .
101200.0 . . .
101196.0 . . .
101190.0 . . .
101180.0 . . .
101171.0 . . .
101158.0 . . .
101218.0 . . .
101228.0 . . .
101287.0 . . .
101352.0 . . .
101396.0 . . .
101424.0 . . .
101434.0 . . .
101480.0 . . .
101524.0 . . .
101548.0 . . .
101598.0 . . .
101655.0 . . .
101664.0 . . .
101732.0 . . .
101780.0 . . .
101857.0 . . .
101900.0 . . .
101932.0 . . .
102006.0 . . .
102092.0 . . .
102204.0 . . .
102301.0 . . .
102385.0 . . .
102397.0 . . .
102336.0 . . .
102277.0 . . .
102218.0 . . .
102150.0 . . .
102074.0 . . .
102000.0 . . .
101955.0 . . .
101905.0 . . .
101847.0 . . .
101763.0 . . .
101754.0 . . .
101781.0 . . .
101788.0 . . .
101800.0 . . .
101765.0 . . .
101733.0 . . .
101715.0 . . .
101717.0 . . .
101720.0 . . .
101667.0 . . .
101612.0 . . .
101588.0 . . .
101567.0 . . .
101519.0 . . .
101502.0 . . .
101486.0 . . .
101500.0 . . .
101480.0 . . .
101472.0 . . .
101452.0 . . .
101406.0 . . .
101377.0 . . .
101382.0 . . .
101381.0 . . .
101374.0 . . .
101372.0 . . .
101365.0 . . .
101322.0 . . .
101308.0 . . .
101287.0 . . .
101268.0 . . .
101277.0 . . .
101260.0 . . .
101268.0 . . .
101234.0 . . .
101255.0 . . .
101288.0 . . .
101295.0 . . .
101317.0 . . .
101325.0 . . .
101351.0 . . .
101408.0 . . .
101420.0 . . .
101469.0 . . .
101511.0 . . .
101588.0 . . .
101725.0 . . .
101790.0 . . .
101738.0 . . .
101672.0 . . .
101599.0 . . .
101551.0 . . .
101490.0 . . .
101452.0 . . .
101442.0 . . .
101425.0 . . .
101405.0 . . .
101397.0 . . .
101380.0 . . .
101352.0 . . .
101322.0 . . .
101274.0 . . .
101223.0 . . .
101119.0 . . .
100986.0 . . .
100887.0 . . .
100686.0 . . .
100472.0 . . .
100254.0 . . .
100010.0 . . .
99719.0 . . .
99425.0 . . .
99073.0 . . .
98845.0 . . .
99411.0 . . .
99617.0 . . .
99740.0 . . .
99845.0 . . .
99939.0 . . .
99978.0 . . .
100004.0 . . .
100050.0 . . .
100096.0 . . .
100100.0 . . .
100075.0 . . .
100087.0 . . .
100092.0 . . .
100111.0 . . .
100107.0 . . .
100117.0 . . .
100150.0 . . .
100156.0 . . .
100135.0 . . .
100124.0 . . .
100157.0 . . .
100149.0 . . .
100152.0 . . .
100200.0 . . .
100230.0 . . .
100214.0 . . .
100201.0 . . .
100178.0 . . .
100185.0 . . .
100198.0 . . .
100243.0 . . .
100242.0 . . .
100196.0 . . .
100203.0 . . .
100197.0 . . .
100198.0 . . .
100180.0 . . .
100166.0 . . .
100156.0 . . .
100186.0 . . .
100200.0 . . .
100212.0 . . .
100251.0 . . .
100253.0 . . .
100259.0 . . .
100243.0 . . .
100249.0 . . .
100244.0 . . .
100219.0 . . .
100211.0 . . .
100255.0 . . .
100225.0 . . .
100211.0 . . .
100172.0 . . .
100148.0 . . .
100162.0 . . .
100151.0 . . .
100148.0 . . .
100157.0 . . .
100172.0 . . .
100167.0 . . .
100179.0 . . .
100185.0 . . .
100144.0 . . .
100099.0 . . .
100110.0 . . .
100140.0 . . .
100107.0 . . .
100061.0 . . .
100023.0 . . .
100023.0 . . .
100053.0 . . .
100086.0 . . .
100045.0 . . .
100011.0 . . .
99997.0 . . .
99976.0 . . .
99941.0 . . .
99958.0 . . .
99914.0 . . .
99854.0 . . .
99833.0 . . .
99854.0 . . .
99826.0 . . .
99802.0 . . .
99816.0 . . .
99786.0 . . .
99769.0 . . .
99771.0 . . .
99778.0 . . .
99746.0 . . .
99718.0 . . .
99688.0 . . .
99634.0 . . .
99612.0 . . .
99594.0 . . .
99574.0 . . .
99594.0 . . .
99597.0 . . .
99566.0 . . .
99575.0 . . .
99555.0 . . .
99524.0 . . .
99507.0 . . .
99504.0 . . .
99487.0 . . .
99472.0 . . .
99471.0 . . .
99438.0 . . .
99432.0 . . .
99442.0 . . .
99463.0 . . .
99439.0 . . .
99398.0 . . .
99412.0 . . .
99417.0 . . .
99388.0 . . .
99408.0 . . .
99432.0 . . .
99463.0 . . .
99478.0 . . .
99503.0 . . .
99486.0 . . .
99448.0 . . .
99405.0 . . .
99398.0 . . .
99396.0 . . .
99431.0 . . .
99429.0 . . .
99427.0 . . .
99422.0 . . .
99392.0 . . .
99397.0 . . .
99351.0 . . .
99317.0 . . .
99274.0 . . .
99281.0 . . .
99319.0 . . .
99315.0 . . .
99319.0 . . .
99295.0 . . .
99269.0 . . .
99270.0 . . .
99324.0 . . .
99322.0 . . .
99347.0 . . .
99335.0 . . .
99301.0 . . .
99266.0 . . .
99260.0 . . .
99213.0 . . .
99188.0 . . .
99121.0 . . .
99102.0 . . .
99124.0 . . .
99085.0 . . .
99093.0 . . .
99076.0 . . .
99018.0 . . .
99040.0 . . .
99071.0 . . .
99066.0 . . .
99028.0 . . .
99007.0 . . .
99025.0 . . .
99057.0 . . .
99022.0 . . .
98985.0 . . .
98965.0 . . .
98965.0 . . .
98987.0 . . .
98952.0 . . .
98921.0 . . .
98917.0 . . .
98889.0 . . .
98857.0 . . .
98867.0 . . .
98855.0 . . .
98826.0 . . .
98841.0 . . .
98818.0 . . .
98848.0 . . .
98837.0 . . .
98808.0 . . .
98809.0 . . .
98763.0 . . .
98767.0 . . .
98797.0 . . .
98746.0 . . .
98769.0 . . .
98749.0 . . .
98729.0 . . .
98718.0 . . .
98682.0 . . .
98635.0 . . .
98624.0 . . .
98597.0 . . .
98589.0 . . .
98565.0 . . .
98538.0 . . .
98551.0 . . .
98532.0 . . .
98514.0 . . .
98493.0 . . .
98479.0 . . .
98539.0 . . .
98531.0 . . .
98503.0 . . .
98494.0 . . .
98522.0 . . .
98534.0 . . .
98518.0 . . .
98498.0 . . .
98507.0 . . .
98487.0 . . .
98441.0 . . .
98422.0 . . .
98394.0 . . .
98423.0 . . .
98404.0 . . .
98363.0 . . .
98369.0 . . .
98390.0 . . .
98424.0 . . .
98464.0 . . .
98421.0 . . .
98390.0 . . .
98369.0 . . .
98411.0 . . .
98460.0 . . .
98419.0 . . .
98344.0 . . .
98322.0 . . .
98350.0 . . .
98320.0 . . .
98355.0 . . .
98352.0 . . .
98358.0 . . .
98410.0 . . .
98431.0 . . .
98421.0 . . .
98430.0 . . .
98472.0 . . .
98523.0 . . .
98542.0 . . .
98586.0 . . .
98631.0 . . .
98659.0 . . .
98680.0 . . .
98708.0 . . .
98780.0 . . .
98751.0 . . .
98727.0 . . .
98727.0 . . .
98709.0 . . .
98692.0 . . .
98791.0 . . .
98795.0 . . .
98737.0 . . .
98724.0 . . .
98758.0 . . .
98796.0 . . .
98840.0 . . .
98930.0 . . .
98952.0 . . .
98929.0 . . .
98930.0 . . .
98947.0 . . .
98965.0 . . .
99035.0 . . .
99081.0 . . .
99030.0 . . .
98976.0 . . .
98923.0 . . .
98889.0 . . .
98911.0 . . .
98924.0 . . .
98912.0 . . .
98931.0 . . .
98857.0 . . .
98789.0 . . .
98796.0 . . .
98837.0 . . .
98841.0 . . .
98797.0 . . .
98706.0 . . .
98650.0 . . .
98634.0 . . .
98662.0 . . .
98654.0 . . .
98674.0 . . .
98736.0 . . .
98732.0 . . .
98701.0 . . .
98641.0 . . .
98626.0 . . .
98616.0 . . .
98580.0 . . .
98592.0 . . .
98594.0 . . .
98630.0 . . .
98561.0 . . .
98527.0 . . .
98506.0 . . .
98532.0 . . .
98508.0 . . .
98478.0 . . .
98415.0 . . .
98484.0 . . .
98493.0 . . .
98507.0 . . .
98503.0 . . .
98513.0 . . .
98517.0 . . .
98494.0 . . .
98477.0 . . .
98475.0 . . .
98456.0 . . .
98475.0 . . .
98449.0 . . .
98473.0 . . .
98392.0 . . .
98355.0 . . .
98386.0 . . .
98402.0 . . .
98430.0 . . .
98341.0 . . .
98276.0 . . .
98261.0 . . .
98271.0 . . .
98308.0 . . .
98317.0 . . .
98293.0 . . .
98227.0 . . .
98275.0 . . .
98285.0 . . .
98271.0 . . .
98253.0 . . .
98233.0 . . .
98237.0 . . .
98189.0 . . .
98155.0 . . .
98144.0 . . .
98173.0 . . .
98151.0 . . .
98055.0 . . .
98055.0 . . .
98106.0 . . .
98106.0 . . .
98094.0 . . .
98044.0 . . .
97992.0 . . .
98056.0 . . .
98070.0 . . .
98048.0 . . .
98033.0 . . .
98025.0 . . .
97989.0 . . .
97973.0 . . .
97955.0 . . .
97955.0 . . .
97971.0 . . .
97950.0 . . .
97856.0 . . .
97880.0 . . .
97919.0 . . .
97949.0 . . .
97967.0 . . .
97924.0 . . .
97902.0 . . .
97879.0 . . .
97782.0 . . .
97779.0 . . .
97799.0 . . .
97821.0 . . .
97851.0 . . .
97818.0 . . .
97799.0 . . .
97790.0 . . .
97780.0 . . .
97755.0 . . .
97703.0 . . .
97667.0 . . .
97693.0 . . .
97704.0 . . .
97646.0 . . .
97606.0 . . .
97625.0 . . .
97642.0 . . .
97570.0 . . .
97505.0 . . .
97458.0 . . .
97479.0 . . .
97504.0 . . .
97428.0 . . .
97362.0 . . .
97355.0 . . .
97350.0 . . .
97400.0 . . .
97345.0 . . .
97264.0 . . .
97273.0 . . .
97272.0 . . .
97214.0 . . .
97178.0 . . .
97179.0 . . .
97157.0 . . .
97146.0 . . .
97112.0 . . .
97071.0 . . .
97012.0 . . .
96964.0 . . .
96946.0 . . .
96936.0 . . .
96871.0 . . .
96857.0 . . .
96816.0 . . .
96750.0 . . .
96789.0 . . .
96810.0 . . .
96824.0 . . .
96806.0 . . .
96797.0 . . .
96761.0 . . .
96732.0 . . .
96727.0 . . .
96701.0 . . .
96690.0 . . .
96687.0 . . .
96725.0 . . .
96724.0 . . .
96649.0 . . .
96557.0 . . .
96609.0 . . .
96625.0 . . .
96537.0 . . .
96512.0 . . .
96523.0 . . .
96541.0 . . .
96538.0 . . .
96533.0 . . .
96481.0 . . .
96516.0 . . .
96560.0 . . .
96505.0 . . .
96486.0 . . .
96494.0 . . .
96461.0 . . .
96427.0 . . .
96422.0 . . .
96439.0 . . .
96432.0 . . .
96374.0 . . .
96304.0 . . .
96261.0 . . .
96271.0 . . .
96215.0 . . .
96176.0 . . .
96200.0 . . .
96186.0 . . .
96161.0 . . .
96130.0 . . .
96120.0 . . .
96105.0 . . .
96064.0 . . .
96056.0 . . .
96066.0 . . .
96106.0 . . .
96026.0 . . .
95968.0 . . .
96012.0 . . .
96090.0 . . .
96061.0 . . .
96043.0 . . .
96065.0 . . .
96076.0 . . .
96069.0 . . .
96030.0 . . .
96010.0 . . .
96017.0 . . .
95974.0 . . .
95967.0 . . .
95997.0 . . .
95956.0 . . .
95911.0 . . .
95940.0 . . .
95972.0 . . .
95894.0 . . .
95829.0 . . .
95812.0 . . .
95816.0 . . .
95849.0 . . .
95852.0 . . .
95841.0 . . .
95861.0 . . .
95830.0 . . .
95800.0 . . .
95785.0 . . .
95812.0 . . .
95740.0 . . .
95648.0 . . .
95681.0 . . .
95680.0 . . .
95630.0 . . .
95605.0 . . .
95570.0 . . .
95619.0 . . .
95641.0 . . .
95714.0 . . .
95749.0 . . .
95653.0 . . .
95548.0 . . .
95430.0 . . .
95490.0 . . .
95591.0 . . .
95654.0 . . .
95603.0 . . .
95592.0 . . .
95564.0 . . .
95506.0 . . .
95489.0 . . .
95502.0 . . .
95550.0 . . .
95462.0 . . .
95383.0 . . .
95357.0 . . .
95404.0 . . .
95482.0 . . .
95479.0 . . .
95406.0 . . .
95385.0 . . .
95336.0 . . .
95331.0 . . .
95303.0 . . .
95288.0 . . .
95216.0 . . .
95217.0 . . .
95251.0 . . .
95267.0 . . .
95202.0 . . .
95149.0 . . .
95119.0 . . .
95060.0 . . .
95077.0 . . .
95093.0 . . .
95020.0 . . .
94969.0 . . .
94976.0 . . .
94924.0 . . .
94926.0 . . .
94902.0 . . .
94851.0 . . .
94927.0 . . .
94915.0 . . .
94809.0 . . .
94818.0 . . .
94800.0 . . .
94793.0 . . .
94819.0 . . .
94752.0 . . .
94756.0 . . .
94809.0 . . .
94805.0 . . .
94792.0 . . .
94825.0 . . .
94793.0 . . .
94800.0 . . .
94749.0 . . .
94709.0 . . .
94715.0 . . .
94696.0 . . .
94656.0 . . .
94664.0 . . .
94649.0 . . .
94611.0 . . .
94618.0 . . .
94571.0 . . .
94522.0 . . .
94513.0 . . .
94462.0 . . .
94462.0 . . .
94450.0 . . .
94445.0 . . .
94475.0 . . .
94469.0 . . .
94336.0 . . .
94378.0 . . .
94442.0 . . .
94453.0 . . .
94485.0 . . .
94441.0 . . .
94417.0 . . .
94364.0 . . .
94228.0 . . .
94138.0 . . .
94194.0 . . .
94192.0 . . .
94178.0 . . .
94261.0 . . .
94204.0 . . .
94140.0 . . .
94110.0 . . .
94035.0 . . .
93976.0 . . .
93829.0 . . .
93752.0 . . .
93731.0 . . .
93819.0 . . .
93788.0 . . .
93735.0 . . .
93731.0 . . .
93644.0 . . .
93517.0 . . .
93586.0 . . .
93548.0 . . .
93495.0 . . .
93526.0 . . .
93503.0 . . .
93447.0 . . .
93536.0 . . .
93606.0 . . .
93497.0 . . .
93432.0 . . .
93442.0 . . .
93364.0 . . .
93362.0 . . .
93380.0 . . .
93298.0 . . .
93170.0 . . .
93195.0 . . .
93170.0 . . .
93091.0 . . .
93134.0 . . .
93062.0 . . .
93100.0 . . .
93181.0 . . .
93105.0 . . .
92927.0 . . .
92838.0 . . .
92841.0 . . .
92799.0 . . .
92839.0 . . .
92837.0 . . .
92659.0 . . .
92648.0 . . .
92686.0 . . .
92567.0 . . .
92470.0 . . .
92596.0 . . .
92551.0 . . .
92251.0 . . .
92278.0 . . .
92361.0 . . .
92276.0 . . .
92126.0 . . .
92149.0 . . .
91979.0 . . .
92037.0 . . .
92161.0 . . .
91987.0 . . .
91806.0 . . .
91826.0 . . .
91731.0 . . .
91578.0 . . .
91726.0 . . .
91841.0 . . .
91487.0 . . .
91341.0 . . .
91560.0 . . .
91400.0 . . .
91175.0 . . .
91263.0 . . .
91288.0 . . .
90835.0 . . .
90729.0 . . .
90825.0 . . .
90387.0 . . .
90239.0 . . .
90246.0 . . .
90261.0 . . .
90034.0 . . .
90281.0 . . .
90292.0 . . .
90015.0 . . .
89866.0 . . .
90075.0 . . .
89685.0 . . .
89051.0 . . .
89103.0 . . .
88969.0 . . .
88610.0 . . .
88405.0 . . .
88527.0 . . .
88199.0 . . .
88061.0 . . .
88257.0 . . .
87875.0 . . .
87385.0 . . .
87488.0 . . .
87404.0 . . .
86760.0 . . .
86468.0 . . .
86909.0 . . .
86809.0 . . .
86085.0 . . .
86458.0 . . .
86697.0 . . .
86796.0 . . .
86849.0 . . .
88326.0 . . .
88676.0 . . .
88030.0 . . .
87774.0 . . .
87781.0 . . .
87344.0 . . .
86572.0 . . .
87088.0 . . .
86725.0 . . .
85837.0 . . .
85181.0 . . .
85621.0 . . .
84775.0 . . .
83434.0 . . .
84072.0 . . .
83378.0 . . .
81914.0 . . .
80555.0 . . .
81221.0 . . .
79484.0 . . .
77655.0 . . .
77848.0 . . .
76706.0 . . .
74646.0 . . .
71533.0 . . .
71370.0 . . .
67580.0 . . .
63889.0 . . .
58988.0 . . .
52780.0 . . .
44112.0 . . .
31192.0 . . .
23222.0 . . .
14192.0 . . .
6436.0 . . .
2685.0 . . .
loop_
_refln_index_h
_refln_index_k
_refln_index_l
_refln_observed_status
_refln_F_squared_meas
_refln_F_squared_calc
_refln_phase_calc
_refln_d_spacing
_gsas_i100_meas
2 0 0 o 81.809 85.282 0.00 6.53161 1.00
0 2 0 o 161.528 132.193 180.00 7.47246 2.51
2 1 0 o 160.641 205.592 180.00 5.98498 3.59
1 2 0 o 200.076 236.913 -180.00 6.48625 2.61
2 2 0 o 2755.870 2541.168 -180.00 4.91775 26.69
1 3 0 o 1232.058 996.175 0.00 4.65467 9.10
3 1 0 o 676.401 899.001 180.00 4.18057 7.67
0 4 0 o 55.377 120.159 0.00 3.73623 0.22
2 3 0 o 585.606 599.515 -180.00 3.96104 3.04
3 2 0 o 37.299 47.175 -180.00 3.76224 0.29
1 4 0 o 445.110 850.942 -180.00 3.59219 2.27
4 0 0 o 167.737 801.125 0.00 3.26580 0.51
4 1 0 o 5.717 6.766 -180.00 3.19052 0.04
1 0 1 o 8516.393 7961.394 85.03 2.94520 45.43
3 3 0 o 0.017 66.816 0.00 3.27850 0.00
2 4 0 o 56.715 114.983 0.00 3.24313 0.19
1 1 1 o 8408.147 8281.499 -84.55 2.88962 100.00
4 2 0 o 2223.907 1837.753 180.00 2.99249 12.37
1 5 0 o 1127.531 1161.744 0.00 2.91369 4.21
0 2 1 o 2160.519 2122.971 154.94 2.80239 3.64
2 1 1 o 5067.836 5094.542 -174.18 2.69835 24.62
3 4 0 o 1011.009 1045.923 0.00 2.83551 2.82
1 2 1 o 2159.760 2096.277 171.34 2.74005 21.60
2 2 1 o 242.587 206.553 -4.98 2.57535 1.02
3 0 1 o 0.000 2135.578 -91.80 2.48326 0.00
4 3 0 o 4.896 5.001 180.00 2.73122 0.02
2 5 0 o 989.197 987.620 180.00 2.71792 2.36
5 1 0 o 384.367 325.726 180.00 2.57361 1.56
1 3 1 o 0.000 339.572 122.98 2.53526 0.00
3 1 1 o 0.000 1088.953 -118.28 2.44967 0.00
0 6 0 o 153.927 390.611 180.00 2.49082 0.27
5 2 0 o 2266.924 3376.995 -180.00 2.46624 8.89
1 6 0 o 265.776 606.349 0.00 2.44674 0.75
3 2 1 o 0.000 1207.412 -144.53 2.35654 0.00
2 3 1 o -154.202 726.353 172.89 2.40312 0.39
3 5 0 o 1815.342 2616.763 0.00 2.46428 3.59
4 4 0 o 1821.253 2818.651 180.00 2.45888 4.43
0 4 1 o 0.000 1009.750 144.60 2.35011 0.00
4 1 1 o 1640.743 1075.634 -137.46 2.19443 1.83
5 3 0 o 1040.964 1886.641 -180.00 2.31375 3.21
1 4 1 o 0.000 603.383 -39.68 2.31298 0.00
3 3 1 o 0.000 4.561 61.48 2.22244 0.00
2 6 0 o 1185.663 2146.536 0.00 2.32733 2.23
6 0 0 o 815.506 677.430 180.00 2.17720 1.09
2 4 1 o 0.000 258.098 -145.64 2.21132 0.00
4 2 1 o 466.515 470.182 88.08 2.12673 1.77
1 5 1 o 0.000 118.317 144.33 2.09788 0.00
6 1 0 o 2363.333 1911.595 0.00 2.15446 6.59
4 5 0 o 5678.315 2680.702 -180.00 2.20491 9.88
5 4 0 o 113.752 100.271 180.00 2.14109 0.25
3 4 1 o 0.000 396.523 171.93 2.06813 0.00
3 6 0 o 2265.854 1874.705 -180.00 2.16208 3.37
1 7 0 o 8287.514 7923.388 -180.00 2.10703 18.18
6 2 0 o 6975.408 5866.668 -180.00 2.09029 19.63
5 0 1 o -12975.497 2458.380 108.46 1.97671 8.18
4 3 1 o 932.128 838.898 104.98 2.02660 2.62
2 5 1 o 0.000 252.071 -76.43 2.02115 0.00
5 1 1 o 0.000 1224.317 -114.56 1.95964 0.00
2 7 0 o 900.249 770.835 -180.00 2.02933 1.39
5 2 1 o 0.000 73.705 27.22 1.91098 0.00
6 3 0 o 0.486 4.460 -180.00 1.99499 0.00
4 6 0 o 0.000 173.608 0.00 1.98052 0.00
0 6 1 o -4326.876 6230.877 -103.29 1.92234 2.50
5 5 0 o 0.000 1.051 0.00 1.96710 0.00
3 5 1 o 41.455 740.910 85.16 1.91007 0.12
4 4 1 o 66.750 1073.140 70.83 1.90755 0.15
1 6 1 o 102.642 767.214 -40.34 1.90186 0.17
5 3 1 o 824.416 828.750 69.38 1.83735 3.57
3 7 0 o 8.596 284.424 -180.00 1.91697 0.01
7 1 0 o 17.638 29.359 -180.00 1.85179 0.04
2 6 1 o 312.597 432.244 -109.98 1.84413 2.06
6 4 0 o 887.148 1302.531 0.00 1.88112 1.70
0 8 0 o 182.483 396.764 180.00 1.86812 0.18
1 8 0 o 87.729 139.012 0.00 1.84930 0.15
