#------------------------------------------------------------------------------
#$Date: 2016-03-22 21:07:06 +0200 (Tue, 22 Mar 2016) $
#$Revision: 179012 $
#$URL: svn://www.crystallography.net/cod/cif/4/12/10/4121043.cif $
#------------------------------------------------------------------------------
#
# This file is available in the Crystallography Open Database (COD),
# http://www.crystallography.net/
#
# All data on this site have been placed in the public domain by the
# contributors.
#
data_4121043
loop_
_publ_author_name
'Xin-Hua Zhao'
'Xing-Cai Huang'
'Shao-Liang Zhang'
'Dong Shao'
'Hai-Yan Wei'
'Xin-Yi Wang'
_publ_contact_author
;
        Xinyi Wang
        School of Chemistry and Chemical Engineering
        State Key Labatory of Coordination Chemistry
        Nanjing National Lab of Microstructure 
        Nanjing University
;
_publ_contact_author_email       wangxy66@nju.edu.cn
_publ_contact_author_fax         86-25-83314502
_publ_contact_author_phone       86-25-83621651
_publ_section_title
;
 Cation-Dependent Magnetic Ordering and Room-Temperature Bistability in
 Azido-Bridged Perovskite-Type Compounds
;
_journal_name_full               'Journal of the American Chemical Society'
_journal_page_first              16006
_journal_page_last               16009
_journal_paper_doi               10.1021/ja407654n
_journal_volume                  135
_journal_year                    2013
_chemical_formula_sum            'C3 H10 Mn N10'
_chemical_formula_weight         241.15
_chemical_name_common            MnN3TriMA393K
_chemical_name_systematic
; 
 ? 
;
_space_group_IT_number           166
_symmetry_cell_setting           trigonal
_symmetry_space_group_name_Hall  '-R 3 2"'
_symmetry_space_group_name_H-M   'R -3 m :H'
_atom_sites_solution_primary     direct
_atom_sites_solution_secondary   difmap
_audit_creation_method           SHELXL-97
_cell_angle_alpha                90.00
_cell_angle_beta                 90.00
_cell_angle_gamma                120.00
_cell_formula_units_Z            3
_cell_length_a                   9.6669(17)
_cell_length_b                   9.6669(17)
_cell_length_c                   9.3443(17)
_cell_measurement_reflns_used    1848
_cell_measurement_temperature    393(2)
_cell_measurement_theta_max      27.9621
_cell_measurement_theta_min      3.2672
_cell_volume                     756.2(2)
_computing_cell_refinement       'Bruker SAINT'
_computing_data_collection       'Bruker ApexII'
_computing_data_reduction        'Bruker SAINT'
_computing_molecular_graphics    Diamond
_computing_publication_material  'SHELXL-97 (Sheldrick, 2008)'
_computing_structure_refinement  'SHELXL-97 (Sheldrick, 2008)'
_computing_structure_solution    'SHELXS-97 (Sheldrick, 2008)'
_diffrn_ambient_temperature      393(2)
_diffrn_measured_fraction_theta_full 0.996
_diffrn_measured_fraction_theta_max 0.996
_diffrn_measurement_device_type  'Bruker ApexII'
_diffrn_measurement_method       'phi and omega scans'
_diffrn_radiation_monochromator  graphite
_diffrn_radiation_source         'fine-focus sealed tube'
_diffrn_radiation_type           MoK\a
_diffrn_radiation_wavelength     0.71073
_diffrn_reflns_av_R_equivalents  0.0247
_diffrn_reflns_av_sigmaI/netI    0.0134
_diffrn_reflns_limit_h_max       11
_diffrn_reflns_limit_h_min       -12
_diffrn_reflns_limit_k_max       12
_diffrn_reflns_limit_k_min       -12
_diffrn_reflns_limit_l_max       12
_diffrn_reflns_limit_l_min       -12
_diffrn_reflns_number            2449
_diffrn_reflns_theta_full        27.50
_diffrn_reflns_theta_max         28.31
_diffrn_reflns_theta_min         3.27
_exptl_absorpt_coefficient_mu    1.292
_exptl_absorpt_correction_T_max  0.7457
_exptl_absorpt_correction_T_min  0.5595
_exptl_absorpt_correction_type   multi-scan
_exptl_absorpt_process_details   'SADABS: Bruker, 2000'
_exptl_crystal_colour            'light yellow'
_exptl_crystal_density_diffrn    1.589
_exptl_crystal_description       block
_exptl_crystal_F_000             369
_exptl_crystal_size_max          0.49
_exptl_crystal_size_mid          0.48
_exptl_crystal_size_min          0.39
_refine_diff_density_max         0.326
_refine_diff_density_min         -0.297
_refine_diff_density_rms         0.073
_refine_ls_extinction_method     none
_refine_ls_goodness_of_fit_ref   1.163
_refine_ls_hydrogen_treatment    none
_refine_ls_matrix_type           full
_refine_ls_number_parameters     25
_refine_ls_number_reflns         253
_refine_ls_number_restraints     0
_refine_ls_restrained_S_all      1.163
_refine_ls_R_factor_all          0.0304
_refine_ls_R_factor_gt           0.0304
_refine_ls_shift/su_max          0.000
_refine_ls_shift/su_mean         0.000
_refine_ls_structure_factor_coef Fsqd
_refine_ls_weighting_details
'calc w=1/[\s^2^(Fo^2^)+(0.0685P)^2^+0.0000P] where P=(Fo^2^+2Fc^2^)/3'
_refine_ls_weighting_scheme      calc
_refine_ls_wR_factor_gt          0.0799
_refine_ls_wR_factor_ref         0.0799
_reflns_number_gt                253
_reflns_number_total             253
_reflns_threshold_expression     >2sigma(I)
_cod_data_source_file            ja407654n_si_002_17.cif
_cod_data_source_block           Mn-N3-TriMA-393K
_cod_depositor_comments
;
The following automatic conversions were performed:

'_exptl_absorpt_correction_type' value 'multi-Scan' changed to
'multi-scan' according to the built-in table from CIF Core dictionary
named 'cif_core.dic' version 2.4.1 from 2010-06-29.

Automatic conversion script
Id: cif_fix_values 2281 2013-09-26 08:29:07Z andrius 
;
_cod_original_sg_symbol_H-M      'R -3 m'
_cod_database_code               4121043
loop_
_symmetry_equiv_pos_as_xyz
'x, y, z'
'-y, x-y, z'
'-x+y, -x, z'
'x-y, -y, -z'
'-x, -x+y, -z'
'y, x, -z'
'x+2/3, y+1/3, z+1/3'
'-y+2/3, x-y+1/3, z+1/3'
'-x+y+2/3, -x+1/3, z+1/3'
'x-y+2/3, -y+1/3, -z+1/3'
'-x+2/3, -x+y+1/3, -z+1/3'
'y+2/3, x+1/3, -z+1/3'
'x+1/3, y+2/3, z+2/3'
'-y+1/3, x-y+2/3, z+2/3'
'-x+y+1/3, -x+2/3, z+2/3'
'x-y+1/3, -y+2/3, -z+2/3'
'-x+1/3, -x+y+2/3, -z+2/3'
'y+1/3, x+2/3, -z+2/3'
'-x, -y, -z'
'y, -x+y, -z'
'x-y, x, -z'
'-x+y, y, z'
'x, x-y, z'
'-y, -x, z'
'-x+2/3, -y+1/3, -z+1/3'
'y+2/3, -x+y+1/3, -z+1/3'
'x-y+2/3, x+1/3, -z+1/3'
'-x+y+2/3, y+1/3, z+1/3'
'x+2/3, x-y+1/3, z+1/3'
'-y+2/3, -x+1/3, z+1/3'
'-x+1/3, -y+2/3, -z+2/3'
'y+1/3, -x+y+2/3, -z+2/3'
'x-y+1/3, x+2/3, -z+2/3'
'-x+y+1/3, y+2/3, z+2/3'
'x+1/3, x-y+2/3, z+2/3'
'-y+1/3, -x+2/3, z+2/3'
loop_
_atom_site_label
_atom_site_type_symbol
_atom_site_fract_x
_atom_site_fract_y
_atom_site_fract_z
_atom_site_U_iso_or_equiv
_atom_site_adp_type
_atom_site_occupancy
_atom_site_symmetry_multiplicity
_atom_site_calc_flag
_atom_site_refinement_flags
Mn1 Mn 0.0000 0.0000 0.0000 0.0420(3) Uani 1 12 d S
N1 N -0.0627(6) 0.1433(6) 0.1428(7) 0.1031(16) Uani 0.50 1 d P
N2 N -0.1667 0.1667 0.1667 0.0713(8) Uani 1 4 d S
C1 C -0.0802(7) -0.1604(14) 0.5126(19) 0.234(18) Uani 0.50 2 d SP
N3 N 0.0000 0.0000 0.4480(8) 0.0640(17) Uani 0.50 6 d SP
loop_
_atom_site_aniso_label
_atom_site_aniso_U_11
_atom_site_aniso_U_22
_atom_site_aniso_U_33
_atom_site_aniso_U_23
_atom_site_aniso_U_13
_atom_site_aniso_U_12
Mn1 0.0406(3) 0.0406(3) 0.0448(4) 0.000 0.000 0.02029(16)
N1 0.099(4) 0.097(4) 0.132(3) -0.039(3) 0.003(3) 0.063(3)
N2 0.0893(18) 0.0893(18) 0.0572(14) -0.0079(6) 0.0079(6) 0.061(2)
C1 0.41(4) 0.064(5) 0.110(7) -0.030(5) -0.015(3) 0.032(2)
N3 0.073(3) 0.073(3) 0.047(2) 0.000 0.000 0.0363(14)
loop_
_atom_type_symbol
_atom_type_description
_atom_type_scat_dispersion_real
_atom_type_scat_dispersion_imag
_atom_type_scat_source
C C 0.0033 0.0016 'International Tables Vol C Tables 4.2.6.8 and 6.1.1.4'
H H 0.0000 0.0000 'International Tables Vol C Tables 4.2.6.8 and 6.1.1.4'
N N 0.0061 0.0033 'International Tables Vol C Tables 4.2.6.8 and 6.1.1.4'
Mn Mn 0.3368 0.7283 'International Tables Vol C Tables 4.2.6.8 and 6.1.1.4'
loop_
_geom_angle_atom_site_label_1
_geom_angle_atom_site_label_2
_geom_angle_atom_site_label_3
_geom_angle
_geom_angle_site_symmetry_1
_geom_angle_site_symmetry_3
N1 Mn1 N1 108.2(3) 21 23
N1 Mn1 N1 20.2(3) 21 4
N1 Mn1 N1 92.6(3) 23 4
N1 Mn1 N1 92.6(3) 21 2
N1 Mn1 N1 20.2(3) 23 2
N1 Mn1 N1 80.7(4) 4 2
N1 Mn1 N1 99.3(4) 21 6
N1 Mn1 N1 92.6(3) 23 6
N1 Mn1 N1 87.4(3) 4 6
N1 Mn1 N1 108.2(3) 2 6
N1 Mn1 N1 80.7(4) 21 24
N1 Mn1 N1 87.4(3) 23 24
N1 Mn1 N1 92.6(3) 4 24
N1 Mn1 N1 71.8(3) 2 24
N1 Mn1 N1 180.0(3) 6 24
N1 Mn1 N1 159.8(3) 21 22
N1 Mn1 N1 87.4(3) 23 22
N1 Mn1 N1 180.0 4 22
N1 Mn1 N1 99.3(4) 2 22
N1 Mn1 N1 92.6(3) 6 22
N1 Mn1 N1 87.4(3) 24 22
N1 Mn1 N1 87.4(3) 21 20
N1 Mn1 N1 159.8(3) 23 20
N1 Mn1 N1 99.3(4) 4 20
N1 Mn1 N1 180.0 2 20
N1 Mn1 N1 71.8(3) 6 20
N1 Mn1 N1 108.2(3) 24 20
N1 Mn1 N1 80.7(4) 22 20
N1 Mn1 N1 87.4(3) 21 19
N1 Mn1 N1 80.7(4) 23 19
N1 Mn1 N1 71.8(3) 4 19
N1 Mn1 N1 92.6(3) 2 19
N1 Mn1 N1 20.2(3) 6 19
N1 Mn1 N1 159.8(3) 24 19
N1 Mn1 N1 108.2(3) 22 19
N1 Mn1 N1 87.4(3) 20 19
N1 Mn1 N1 71.8(3) 21 5
N1 Mn1 N1 180.0 23 5
N1 Mn1 N1 87.4(3) 4 5
N1 Mn1 N1 159.8(3) 2 5
N1 Mn1 N1 87.4(3) 6 5
N1 Mn1 N1 92.6(3) 24 5
N1 Mn1 N1 92.6(3) 22 5
N1 Mn1 N1 20.2(3) 20 5
N1 Mn1 N1 99.3(4) 19 5
N1 Mn1 N1 180.0 21 3
N1 Mn1 N1 71.8(3) 23 3
N1 Mn1 N1 159.8(3) 4 3
N1 Mn1 N1 87.4(3) 2 3
N1 Mn1 N1 80.7(4) 6 3
N1 Mn1 N1 99.3(4) 24 3
N1 Mn1 N1 20.2(3) 22 3
N1 Mn1 N1 92.6(3) 20 3
N1 Mn1 N1 92.6(3) 19 3
N1 Mn1 N1 108.2(3) 5 3
N1 Mn1 N1 92.6(3) 21 .
N1 Mn1 N1 99.3(4) 23 .
N1 Mn1 N1 108.2(3) 4 .
N1 Mn1 N1 87.4(3) 2 .
N1 Mn1 N1 159.8(3) 6 .
N1 Mn1 N1 20.2(3) 24 .
N1 Mn1 N1 71.8(3) 22 .
N1 Mn1 N1 92.6(3) 20 .
N1 Mn1 N1 180.0 19 .
N1 Mn1 N1 80.7(4) 5 .
N1 Mn1 N1 87.4(3) 3 .
N1 N1 N2 70.3(3) 24 .
N1 N1 Mn1 79.88(14) 24 .
N2 N1 Mn1 140.7(4) . .
N1 N2 N1 39.4(5) 12_455 25_455
N1 N2 N1 140.7(5) 12_455 .
N1 N2 N1 179.998(1) 25_455 .
N1 N2 N1 179.997(1) 12_455 24
N1 N2 N1 140.6(5) 25_455 24
N1 N2 N1 39.4(5) . 24
C1 C1 C1 117.1(8) 21_556 20_556
C1 C1 N3 64.6(3) 21_556 19_556
C1 C1 N3 64.6(3) 20_556 19_556
C1 C1 N3 58.7(5) 21_556 .
C1 C1 N3 58.7(5) 20_556 .
N3 C1 N3 39.5(7) 19_556 .
N3 N3 C1 74.7(8) 19_556 21_556
N3 N3 C1 74.7(8) 19_556 20_556
C1 N3 C1 113.3(7) 21_556 20_556
N3 N3 C1 74.7(8) 19_556 19_556
C1 N3 C1 113.3(7) 21_556 19_556
C1 N3 C1 113.3(7) 20_556 19_556
N3 N3 C1 65.8(7) 19_556 .
C1 N3 C1 56.8(3) 21_556 .
C1 N3 C1 56.8(3) 20_556 .
C1 N3 C1 140.5(7) 19_556 .
N3 N3 C1 65.8(7) 19_556 3
C1 N3 C1 140.5(7) 21_556 3
C1 N3 C1 56.8(3) 20_556 3
C1 N3 C1 56.8(3) 19_556 3
C1 N3 C1 104.3(8) . 3
N3 N3 C1 65.8(7) 19_556 2
C1 N3 C1 56.8(3) 21_556 2
C1 N3 C1 140.5(7) 20_556 2
C1 N3 C1 56.8(3) 19_556 2
C1 N3 C1 104.3(8) . 2
C1 N3 C1 104.3(8) 3 2
loop_
_geom_bond_atom_site_label_1
_geom_bond_atom_site_label_2
_geom_bond_distance
_geom_bond_site_symmetry_2
Mn1 N1 2.215(4) 21
Mn1 N1 2.215(4) 23
Mn1 N1 2.215(4) 4
Mn1 N1 2.215(4) 2
Mn1 N1 2.215(4) 6
Mn1 N1 2.215(4) 24
Mn1 N1 2.215(4) 22
Mn1 N1 2.215(4) 20
Mn1 N1 2.215(4) 19
Mn1 N1 2.215(4) 5
Mn1 N1 2.215(4) 3
Mn1 N1 2.215(4) .
N1 N1 0.779(10) 24
N1 N2 1.156(4) .
N2 N1 1.156(4) 12_455
N2 N1 1.156(4) 25_455
N2 N1 1.156(4) 24
C1 C1 1.363(15) 21_556
C1 C1 1.363(15) 20_556
C1 N3 1.392(11) 19_556
C1 N3 1.472(15) .
N3 N3 0.972(15) 19_556
N3 C1 1.392(11) 21_556
N3 C1 1.392(11) 20_556
N3 C1 1.392(11) 19_556
N3 C1 1.472(15) 3
N3 C1 1.472(15) 2
