#------------------------------------------------------------------------------
#$Date: 2016-03-22 21:07:06 +0200 (Tue, 22 Mar 2016) $
#$Revision: 179012 $
#$URL: svn://www.crystallography.net/cod/cif/4/12/10/4121041.cif $
#------------------------------------------------------------------------------
#
# This file is available in the Crystallography Open Database (COD),
# http://www.crystallography.net/
#
# All data on this site have been placed in the public domain by the
# contributors.
#
data_4121041
loop_
_publ_author_name
'Xin-Hua Zhao'
'Xing-Cai Huang'
'Shao-Liang Zhang'
'Dong Shao'
'Hai-Yan Wei'
'Xin-Yi Wang'
_publ_contact_author
;
        Xinyi Wang
        School of Chemistry and Chemical Engineering
        State Key Labatory of Coordination Chemistry
        Nanjing National Lab of Microstructure 
        Nanjing University
;
_publ_contact_author_email       wangxy66@nju.edu.cn
_publ_contact_author_fax         86-25-83314502
_publ_contact_author_phone       86-25-83621651
_publ_section_title
;
 Cation-Dependent Magnetic Ordering and Room-Temperature Bistability in
 Azido-Bridged Perovskite-Type Compounds
;
_journal_name_full               'Journal of the American Chemical Society'
_journal_page_first              16006
_journal_page_last               16009
_journal_paper_doi               10.1021/ja407654n
_journal_volume                  135
_journal_year                    2013
_chemical_formula_sum            'C3 H10 Mn N10'
_chemical_formula_weight         241.15
_chemical_name_common            MnN3TriMA350K
_chemical_name_systematic
; 
 ? 
;
_space_group_IT_number           15
_symmetry_cell_setting           monoclinic
_symmetry_space_group_name_Hall  '-C 2yc'
_symmetry_space_group_name_H-M   'C 1 2/c 1'
_atom_sites_solution_hydrogens   geom
_atom_sites_solution_primary     direct
_atom_sites_solution_secondary   difmap
_audit_creation_method           SHELXL-97
_cell_angle_alpha                90.00
_cell_angle_beta                 104.77(2)
_cell_angle_gamma                90.00
_cell_formula_units_Z            4
_cell_length_a                   8.502(16)
_cell_length_b                   9.431(17)
_cell_length_c                   12.93(2)
_cell_measurement_reflns_used    2236
_cell_measurement_temperature    350(2)
_cell_measurement_theta_max      28.3031
_cell_measurement_theta_min      3.2581
_cell_volume                     1003(3)
_computing_cell_refinement       'Bruker SAINT'
_computing_data_collection       'Bruker ApexII'
_computing_data_reduction        'Bruker SAINT'
_computing_molecular_graphics    Diamond
_computing_publication_material  'SHELXL-97 (Sheldrick, 2008)'
_computing_structure_refinement  'SHELXL-97 (Sheldrick, 2008)'
_computing_structure_solution    'SHELXS-97 (Sheldrick, 2008)'
_diffrn_ambient_temperature      350(2)
_diffrn_measured_fraction_theta_full 0.992
_diffrn_measured_fraction_theta_max 0.986
_diffrn_measurement_device_type  'Bruker ApexII'
_diffrn_measurement_method       'phi and omega scans'
_diffrn_radiation_monochromator  graphite
_diffrn_radiation_source         'fine-focus sealed tube'
_diffrn_radiation_type           MoK\a
_diffrn_radiation_wavelength     0.71073
_diffrn_reflns_av_R_equivalents  0.0252
_diffrn_reflns_av_sigmaI/netI    0.0221
_diffrn_reflns_limit_h_max       11
_diffrn_reflns_limit_h_min       -11
_diffrn_reflns_limit_k_max       12
_diffrn_reflns_limit_k_min       -9
_diffrn_reflns_limit_l_max       17
_diffrn_reflns_limit_l_min       -17
_diffrn_reflns_number            4615
_diffrn_reflns_theta_full        27.50
_diffrn_reflns_theta_max         28.44
_diffrn_reflns_theta_min         3.26
_exptl_absorpt_coefficient_mu    1.299
_exptl_absorpt_correction_T_max  0.7457
_exptl_absorpt_correction_T_min  0.5612
_exptl_absorpt_correction_type   multi-scan
_exptl_absorpt_process_details   'SADABS: Bruker, 2000'
_exptl_crystal_colour            'light yellow'
_exptl_crystal_density_diffrn    1.597
_exptl_crystal_description       block
_exptl_crystal_F_000             492
_exptl_crystal_size_max          0.49
_exptl_crystal_size_mid          0.48
_exptl_crystal_size_min          0.39
_refine_diff_density_max         0.570
_refine_diff_density_min         -0.396
_refine_diff_density_rms         0.096
_refine_ls_extinction_coef       0.021(4)
_refine_ls_extinction_expression Fc^*^=kFc[1+0.001xFc^2^\l^3^/sin(2\q)]^-1/4^
_refine_ls_extinction_method     SHELXL
_refine_ls_goodness_of_fit_ref   1.138
_refine_ls_hydrogen_treatment    constr
_refine_ls_matrix_type           full
_refine_ls_number_parameters     75
_refine_ls_number_reflns         1251
_refine_ls_number_restraints     12
_refine_ls_restrained_S_all      1.451
_refine_ls_R_factor_all          0.0420
_refine_ls_R_factor_gt           0.0378
_refine_ls_shift/su_max          0.000
_refine_ls_shift/su_mean         0.000
_refine_ls_structure_factor_coef Fsqd
_refine_ls_weighting_details
'calc w=1/[\s^2^(Fo^2^)+(0.0694P)^2^+0.8234P] where P=(Fo^2^+2Fc^2^)/3'
_refine_ls_weighting_scheme      calc
_refine_ls_wR_factor_gt          0.1139
_refine_ls_wR_factor_ref         0.1199
_reflns_number_gt                1078
_reflns_number_total             1251
_reflns_threshold_expression     >2sigma(I)
_cod_data_source_file            ja407654n_si_002_15.cif
_cod_data_source_block           Mn-N3-TriMA-350K
_cod_depositor_comments
;
The following automatic conversions were performed:

'_exptl_absorpt_correction_type' value 'multi-Scan' changed to
'multi-scan' according to the built-in table from CIF Core dictionary
named 'cif_core.dic' version 2.4.1 from 2010-06-29.

Automatic conversion script
Id: cif_fix_values 2281 2013-09-26 08:29:07Z andrius 
;
_cod_database_code               4121041
loop_
_symmetry_equiv_pos_as_xyz
'x, y, z'
'-x, y, -z+1/2'
'x+1/2, y+1/2, z'
'-x+1/2, y+1/2, -z+1/2'
'-x, -y, -z'
'x, -y, z-1/2'
'-x+1/2, -y+1/2, -z'
'x+1/2, -y+1/2, z-1/2'
loop_
_atom_site_label
_atom_site_type_symbol
_atom_site_fract_x
_atom_site_fract_y
_atom_site_fract_z
_atom_site_U_iso_or_equiv
_atom_site_adp_type
_atom_site_occupancy
_atom_site_symmetry_multiplicity
_atom_site_calc_flag
_atom_site_refinement_flags
Mn1 Mn 0.5000 0.0000 0.0000 0.0295(3) Uani 1 2 d S
N2 N 0.5000 0.0436(4) 0.2500 0.0442(7) Uani 1 2 d SU
N5 N 0.7185(4) 0.1295(3) -0.0019(3) 0.0625(9) Uani 1 1 d .
N1 N 0.5504(5) 0.0463(5) 0.1750(2) 0.0666(8) Uani 1 1 d U
N3 N 0.3373(4) 0.1898(3) -0.0403(3) 0.0600(7) Uani 1 1 d U
N6 N 0.7500 0.2500 0.0000 0.0423(8) Uani 1 2 d S
N4 N 0.2500 0.2500 0.0000 0.0446(8) Uani 1 2 d SU
N7 N -0.0505(8) 0.0189(6) 0.2244(5) 0.0455(13) Uani 0.50 1 d P
H7 H -0.1504 0.0189 0.1773 0.055 Uiso 0.50 1 calc PR
C1 C 0.0000 0.1688(6) 0.2500 0.0771(18) Uani 1 2 d S
C2 C 0.0640(7) -0.0548(8) 0.1747(5) 0.0946(18) Uani 1 1 d .
loop_
_atom_site_aniso_label
_atom_site_aniso_U_11
_atom_site_aniso_U_22
_atom_site_aniso_U_33
_atom_site_aniso_U_23
_atom_site_aniso_U_13
_atom_site_aniso_U_12
Mn1 0.0310(4) 0.0280(4) 0.0318(4) -0.00142(17) 0.0125(2) 0.00078(17)
N2 0.0603(18) 0.0421(16) 0.0324(14) 0.000 0.0158(13) 0.000
N5 0.0518(16) 0.0504(18) 0.092(2) 0.0044(15) 0.0296(16) -0.0112(13)
N1 0.0763(18) 0.0848(19) 0.0421(13) -0.0086(14) 0.0213(13) -0.0039(16)
N3 0.0679(16) 0.0474(14) 0.0711(16) 0.0091(13) 0.0297(13) 0.0215(13)
N6 0.0315(15) 0.052(2) 0.0458(18) 0.0068(16) 0.0138(14) -0.0068(14)
N4 0.0504(17) 0.0316(15) 0.0560(17) 0.0095(14) 0.0210(14) 0.0136(13)
N7 0.039(3) 0.050(3) 0.045(3) 0.002(2) 0.005(2) 0.0021(19)
C1 0.116(5) 0.048(3) 0.061(3) 0.000 0.012(3) 0.000
C2 0.079(3) 0.103(4) 0.103(4) -0.050(4) 0.026(3) 0.007(3)
loop_
_atom_type_symbol
_atom_type_description
_atom_type_scat_dispersion_real
_atom_type_scat_dispersion_imag
_atom_type_scat_source
C C 0.0033 0.0016 'International Tables Vol C Tables 4.2.6.8 and 6.1.1.4'
H H 0.0000 0.0000 'International Tables Vol C Tables 4.2.6.8 and 6.1.1.4'
Mn Mn 0.3368 0.7283 'International Tables Vol C Tables 4.2.6.8 and 6.1.1.4'
N N 0.0061 0.0033 'International Tables Vol C Tables 4.2.6.8 and 6.1.1.4'
loop_
_geom_angle_atom_site_label_1
_geom_angle_atom_site_label_2
_geom_angle_atom_site_label_3
_geom_angle
_geom_angle_site_symmetry_1
_geom_angle_site_symmetry_3
N5 Mn1 N5 180.0 . 5_655
N5 Mn1 N1 92.36(15) . 5_655
N5 Mn1 N1 87.64(15) 5_655 5_655
N5 Mn1 N1 87.64(15) . .
N5 Mn1 N1 92.36(15) 5_655 .
N1 Mn1 N1 180.0 5_655 .
N5 Mn1 N3 88.49(18) . 5_655
N5 Mn1 N3 91.51(18) 5_655 5_655
N1 Mn1 N3 91.55(15) 5_655 5_655
N1 Mn1 N3 88.45(15) . 5_655
N5 Mn1 N3 91.51(18) . .
N5 Mn1 N3 88.49(18) 5_655 .
N1 Mn1 N3 88.45(15) 5_655 .
N1 Mn1 N3 91.55(15) . .
N3 Mn1 N3 180.0 5_655 .
N1 N2 N1 177.5(6) . 2_655
N6 N5 Mn1 136.2(2) . .
N2 N1 Mn1 145.9(3) . .
N4 N3 Mn1 135.7(2) . .
N5 N6 N5 180.0 7_655 .
N3 N4 N3 179.998(1) . 7
C2 N7 C1 111.1(5) . .
C2 N7 C2 111.4(7) . 2
C1 N7 C2 109.0(5) . 2
N7 C1 N7 36.8(5) . 2
N7 C2 N7 36.8(5) . 2
loop_
_geom_bond_atom_site_label_1
_geom_bond_atom_site_label_2
_geom_bond_distance
_geom_bond_site_symmetry_2
Mn1 N5 2.229(4) .
Mn1 N5 2.229(4) 5_655
Mn1 N1 2.236(5) 5_655
Mn1 N1 2.236(5) .
Mn1 N3 2.240(4) 5_655
Mn1 N3 2.240(4) .
N2 N1 1.157(4) .
N2 N1 1.157(4) 2_655
N5 N6 1.166(4) .
N3 N4 1.159(3) .
N6 N5 1.166(4) 7_655
N4 N3 1.159(3) 7
N7 C2 1.471(8) .
N7 C1 1.490(8) .
N7 C2 1.509(8) 2
C1 N7 1.490(8) 2
C2 N7 1.509(8) 2
