#------------------------------------------------------------------------------
#$Date: 2016-03-22 21:53:30 +0200 (Tue, 22 Mar 2016) $
#$Revision: 179027 $
#$URL: svn://www.crystallography.net/cod/cif/4/12/25/4122565.cif $
#------------------------------------------------------------------------------
#
# This file is available in the Crystallography Open Database (COD),
# http://www.crystallography.net/
#
# All data on this site have been placed in the public domain by the
# contributors.
#
data_4122565
loop_
_publ_author_name
'Bagchi, Vivek'
'Paraskevopoulou, Patrina'
'Das, Purak'
'Chi, Lingyu'
'Wang, Qiuwen'
'Choudhury, Amitava'
'Mathieson, Jennifer S.'
'Cronin, Leroy'
'Pardue, Daniel B.'
'Cundari, Thomas R.'
'Mitrikas, George'
'Sanakis, Yiannis'
'Stavropoulos, Pericles'
_publ_section_title
;
 A Versatile Tripodal Cu(I) Reagent for C-N Bond Construction via
 Nitrene-Transfer Chemistry: Catalytic Perspectives and Mechanistic
 Insights on C-H Aminations/Amidinations and Olefin Aziridinations.
;
_journal_issue                   32
_journal_name_full               'Journal of the American Chemical Society'
_journal_page_first              11362
_journal_page_last               11381
_journal_paper_doi               10.1021/ja503869j
_journal_volume                  136
_journal_year                    2014
_chemical_formula_moiety         'C15 H20 N O2 S'
_chemical_formula_sum            'C15 H20 N O2 S'
_chemical_formula_weight         278.38
_chemical_name_systematic
; 
 ? 
;
_space_group_IT_number           2
_symmetry_cell_setting           triclinic
_symmetry_space_group_name_Hall  '-P 1'
_symmetry_space_group_name_H-M   'P -1'
_atom_sites_solution_hydrogens   geom
_atom_sites_solution_primary     direct
_atom_sites_solution_secondary   difmap
_audit_creation_method           SHELXL-97
_cell_angle_alpha                109.494(2)
_cell_angle_beta                 109.760(2)
_cell_angle_gamma                94.602(3)
_cell_formula_units_Z            2
_cell_length_a                   7.5770(16)
_cell_length_b                   10.156(2)
_cell_length_c                   11.053(2)
_cell_measurement_reflns_used    976
_cell_measurement_temperature    140(2)
_cell_measurement_theta_max      28.25
_cell_measurement_theta_min      3.50
_cell_volume                     736.5(3)
_computing_cell_refinement       'Bruker SAINT (Bruker, 2008)'
_computing_data_collection       'Bruker SMART (Bruker, 2001)'
_computing_data_reduction        'Bruker SAINT'
_computing_molecular_graphics    'Bruker SHELXTL'
_computing_publication_material  'Bruker SHELXTL'
_computing_structure_refinement  'SHELXL-97 (Sheldrick, 2008)'
_computing_structure_solution    'SHELXS-97 (Sheldrick, 2008)'
_diffrn_ambient_temperature      140(2)
_diffrn_measured_fraction_theta_full 0.992
_diffrn_measured_fraction_theta_max 0.992
_diffrn_measurement_device_type  'Smart-Apex CCD area detector'
_diffrn_measurement_method       'phi and omega scans'
_diffrn_radiation_monochromator  graphite
_diffrn_radiation_source         'fine-focus sealed tube'
_diffrn_radiation_type           MoK\a
_diffrn_radiation_wavelength     0.71073
_diffrn_reflns_av_R_equivalents  0.0248
_diffrn_reflns_av_sigmaI/netI    0.0278
_diffrn_reflns_limit_h_max       9
_diffrn_reflns_limit_h_min       -9
_diffrn_reflns_limit_k_max       12
_diffrn_reflns_limit_k_min       -12
_diffrn_reflns_limit_l_max       14
_diffrn_reflns_limit_l_min       -14
_diffrn_reflns_number            8143
_diffrn_reflns_theta_full        27.00
_diffrn_reflns_theta_max         27.00
_diffrn_reflns_theta_min         2.12
_exptl_absorpt_coefficient_mu    0.218
_exptl_absorpt_correction_T_max  0.9892
_exptl_absorpt_correction_T_min  0.9376
_exptl_absorpt_correction_type   multi-scan
_exptl_absorpt_process_details   '(SADABS; Bruker, 2008)'
_exptl_crystal_colour            colorless
_exptl_crystal_density_diffrn    1.255
_exptl_crystal_density_method    'not measured'
_exptl_crystal_description       plate
_exptl_crystal_F_000             298
_exptl_crystal_size_max          0.30
_exptl_crystal_size_mid          0.15
_exptl_crystal_size_min          0.05
_refine_diff_density_max         0.733
_refine_diff_density_min         -0.605
_refine_diff_density_rms         0.065
_refine_ls_extinction_method     none
_refine_ls_goodness_of_fit_ref   1.056
_refine_ls_hydrogen_treatment    constr
_refine_ls_matrix_type           full
_refine_ls_number_parameters     172
_refine_ls_number_reflns         3189
_refine_ls_number_restraints     0
_refine_ls_restrained_S_all      1.056
_refine_ls_R_factor_all          0.0484
_refine_ls_R_factor_gt           0.0443
_refine_ls_shift/su_max          0.000
_refine_ls_shift/su_mean         0.000
_refine_ls_structure_factor_coef Fsqd
_refine_ls_weighting_details
'calc w=1/[\s^2^(Fo^2^)+(0.0647P)^2^+0.4933P] where P=(Fo^2^+2Fc^2^)/3'
_refine_ls_weighting_scheme      calc
_refine_ls_wR_factor_gt          0.1214
_refine_ls_wR_factor_ref         0.1250
_reflns_number_gt                2880
_reflns_number_total             3189
_reflns_threshold_expression     >2sigma(I)
_cod_data_source_file            Cyclooctene_NTs.cif
_cod_data_source_block           sad
_cod_depositor_comments
;
The following automatic conversions were performed:

'_symmetry_cell_setting' value 'Triclinic' changed to 'triclinic'
according to
/usr/data/users/saulius/crontab/automatic-downloads/current/ACS/lib/dictionaries/cif_core.dic
dictionary named 'cif_core.dic' version 2.4.2 from
2011-04-26.

'_exptl_absorpt_correction_type' value 'Multi-scan'
changed to 'multi-scan' according to
/usr/data/users/saulius/crontab/automatic-downloads/current/ACS/lib/dictionaries/cif_core.dic
dictionary named 'cif_core.dic' version 2.4.2 from 2011-04-26.

Automatic conversion script
Id: cif_fix_values 2281 2013-09-26 08:29:07Z andrius 
;
_cod_original_sg_symbol_H-M      P-1
_cod_database_code               4122565
loop_
_symmetry_equiv_pos_as_xyz
'x, y, z'
'-x, -y, -z'
loop_
_atom_site_label
_atom_site_type_symbol
_atom_site_fract_x
_atom_site_fract_y
_atom_site_fract_z
_atom_site_U_iso_or_equiv
_atom_site_adp_type
_atom_site_occupancy
_atom_site_symmetry_multiplicity
_atom_site_calc_flag
_atom_site_refinement_flags
N1 N 0.4096(2) 0.62727(15) 0.23168(15) 0.0228(3) Uani 1 1 d .
C1 C 0.4424(2) 0.70973(18) 0.14790(18) 0.0225(4) Uani 1 1 d .
H1A H 0.4143 0.6506 0.0482 0.027 Uiso 1 1 calc R
C2 C 0.2729(3) 0.71557(18) 0.18604(19) 0.0232(4) Uani 1 1 d .
H2A H 0.1474 0.6601 0.1082 0.028 Uiso 1 1 calc R
C3 C 0.2616(3) 0.8446(2) 0.2964(2) 0.0368(5) Uani 1 1 d .
H3A H 0.3924 0.8946 0.3668 0.044 Uiso 1 1 calc R
H3B H 0.1854 0.8147 0.3437 0.044 Uiso 1 1 calc R
C4 C 0.1679(3) 0.9461(2) 0.2323(3) 0.0496(7) Uani 1 1 d .
H4A H 0.1743 1.0347 0.3085 0.060 Uiso 1 1 calc R
H4B H 0.0305 0.9007 0.1749 0.060 Uiso 1 1 calc R
C5 C 0.2590(3) 0.9870(2) 0.1415(3) 0.0409(5) Uani 1 1 d .
H5A H 0.2326 0.9007 0.0569 0.049 Uiso 1 1 calc R
H5B H 0.1945 1.0581 0.1111 0.049 Uiso 1 1 calc R
C6 C 0.4759(3) 1.0489(2) 0.2104(2) 0.0314(4) Uani 1 1 d .
H6A H 0.5154 1.0807 0.3125 0.038 Uiso 1 1 calc R
H6B H 0.5018 1.1348 0.1904 0.038 Uiso 1 1 calc R
C7 C 0.6027(3) 0.9479(2) 0.1659(2) 0.0323(4) Uani 1 1 d .
H7A H 0.6659 0.9597 0.1080 0.039 Uiso 1 1 calc R
C8 C 0.6213(3) 0.8270(2) 0.2203(2) 0.0283(4) Uani 1 1 d .
H8A H 0.7307 0.7857 0.2073 0.034 Uiso 1 1 calc R
H8B H 0.6499 0.8673 0.3215 0.034 Uiso 1 1 calc R
C9 C 0.2272(2) 0.40184(17) 0.24467(17) 0.0207(3) Uani 1 1 d .
C10 C 0.3392(3) 0.37177(18) 0.35671(18) 0.0234(4) Uani 1 1 d .
H10A H 0.4727 0.3772 0.3781 0.028 Uiso 1 1 calc R
C11 C 0.2545(3) 0.33370(19) 0.43706(18) 0.0260(4) Uani 1 1 d .
H11A H 0.3313 0.3142 0.5144 0.031 Uiso 1 1 calc R
C12 C 0.0592(3) 0.32364(19) 0.40616(19) 0.0263(4) Uani 1 1 d .
C13 C -0.0514(3) 0.3545(2) 0.2936(2) 0.0304(4) Uani 1 1 d .
H13A H -0.1851 0.3481 0.2717 0.036 Uiso 1 1 calc R
C14 C 0.0319(3) 0.3948(2) 0.21298(19) 0.0268(4) Uani 1 1 d .
H14A H -0.0438 0.4171 0.1373 0.032 Uiso 1 1 calc R
C15 C -0.0312(3) 0.2785(2) 0.4926(2) 0.0372(5) Uani 1 1 d .
H15A H -0.1689 0.2774 0.4569 0.056 Uiso 1 1 calc R
H15B H 0.0297 0.3463 0.5897 0.056 Uiso 1 1 calc R
H15C H -0.0132 0.1825 0.4872 0.056 Uiso 1 1 calc R
S1 S 0.33714(6) 0.45143(4) 0.14505(4) 0.02115(14) Uani 1 1 d .
O1 O 0.19578(18) 0.41403(13) 0.00632(12) 0.0256(3) Uani 1 1 d .
O2 O 0.50818(19) 0.39612(15) 0.15924(14) 0.0307(3) Uani 1 1 d .
loop_
_atom_site_aniso_label
_atom_site_aniso_U_11
_atom_site_aniso_U_22
_atom_site_aniso_U_33
_atom_site_aniso_U_23
_atom_site_aniso_U_13
_atom_site_aniso_U_12
N1 0.0245(7) 0.0223(7) 0.0219(7) 0.0112(6) 0.0074(6) 0.0030(6)
C1 0.0256(9) 0.0237(8) 0.0237(8) 0.0133(7) 0.0115(7) 0.0080(7)
C2 0.0235(8) 0.0218(8) 0.0279(9) 0.0110(7) 0.0124(7) 0.0060(7)
C3 0.0454(12) 0.0257(10) 0.0475(12) 0.0075(9) 0.0353(10) 0.0034(8)
C4 0.0384(12) 0.0243(10) 0.094(2) 0.0166(11) 0.0394(13) 0.0115(9)
C5 0.0339(11) 0.0272(10) 0.0602(14) 0.0214(10) 0.0111(10) 0.0107(8)
C6 0.0348(10) 0.0236(9) 0.0410(11) 0.0162(8) 0.0173(9) 0.0062(8)
C7 0.0383(11) 0.0289(10) 0.0435(11) 0.0197(9) 0.0260(9) 0.0086(8)
C8 0.0235(9) 0.0273(9) 0.0390(10) 0.0160(8) 0.0145(8) 0.0058(7)
C9 0.0238(8) 0.0181(8) 0.0207(8) 0.0084(6) 0.0084(7) 0.0045(6)
C10 0.0226(8) 0.0215(8) 0.0247(9) 0.0110(7) 0.0056(7) 0.0036(6)
C11 0.0287(9) 0.0249(9) 0.0219(8) 0.0123(7) 0.0042(7) 0.0035(7)
C12 0.0313(9) 0.0239(9) 0.0243(9) 0.0100(7) 0.0118(7) 0.0018(7)
C13 0.0236(9) 0.0402(11) 0.0311(10) 0.0173(8) 0.0112(8) 0.0074(8)
C14 0.0237(9) 0.0350(10) 0.0245(9) 0.0160(8) 0.0076(7) 0.0087(7)
C15 0.0417(12) 0.0427(12) 0.0333(11) 0.0193(9) 0.0185(9) 0.0040(9)
S1 0.0229(2) 0.0216(2) 0.0221(2) 0.01089(17) 0.00948(17) 0.00687(16)
O1 0.0297(7) 0.0257(6) 0.0205(6) 0.0088(5) 0.0089(5) 0.0051(5)
O2 0.0295(7) 0.0367(8) 0.0388(8) 0.0226(6) 0.0185(6) 0.0159(6)
loop_
_atom_type_symbol
_atom_type_description
_atom_type_scat_dispersion_real
_atom_type_scat_dispersion_imag
_atom_type_scat_source
C C 0.0033 0.0016 'International Tables Vol C Tables 4.2.6.8 and 6.1.1.4'
H H 0.0000 0.0000 'International Tables Vol C Tables 4.2.6.8 and 6.1.1.4'
N N 0.0061 0.0033 'International Tables Vol C Tables 4.2.6.8 and 6.1.1.4'
O O 0.0106 0.0060 'International Tables Vol C Tables 4.2.6.8 and 6.1.1.4'
S S 0.1246 0.1234 'International Tables Vol C Tables 4.2.6.8 and 6.1.1.4'
loop_
_geom_angle_atom_site_label_1
_geom_angle_atom_site_label_2
_geom_angle_atom_site_label_3
_geom_angle
C2 N1 C1 59.22(11)
C2 N1 S1 116.41(11)
C1 N1 S1 114.85(11)
C2 C1 N1 60.03(11)
C2 C1 C8 123.96(16)
N1 C1 C8 115.63(15)
C2 C1 H1A 115.2
N1 C1 H1A 115.2
C8 C1 H1A 115.2
C1 C2 N1 60.75(10)
C1 C2 C3 121.96(16)
N1 C2 C3 117.54(16)
C1 C2 H2A 115.2
N1 C2 H2A 115.2
C3 C2 H2A 115.2
C2 C3 C4 110.30(19)
C2 C3 H3A 109.6
C4 C3 H3A 109.6
C2 C3 H3B 109.6
C4 C3 H3B 109.6
H3A C3 H3B 108.1
C3 C4 C5 114.81(17)
C3 C4 H4A 108.6
C5 C4 H4A 108.6
C3 C4 H4B 108.6
C5 C4 H4B 108.6
H4A C4 H4B 107.5
C6 C5 C4 115.9(2)
C6 C5 H5A 108.3
C4 C5 H5A 108.3
C6 C5 H5B 108.3
C4 C5 H5B 108.3
H5A C5 H5B 107.4
C5 C6 C7 116.15(17)
C5 C6 H6A 108.2
C7 C6 H6A 108.2
C5 C6 H6B 108.2
C7 C6 H6B 108.2
H6A C6 H6B 107.4
C8 C7 C6 116.16(16)
C8 C7 H7A 121.9
C6 C7 H7A 121.9
C1 C8 C7 112.76(16)
C1 C8 H8A 109.0
C7 C8 H8A 109.0
C1 C8 H8B 109.0
C7 C8 H8B 109.0
H8A C8 H8B 107.8
C10 C9 C14 120.65(16)
C10 C9 S1 118.87(13)
C14 C9 S1 120.47(13)
C11 C10 C9 119.47(17)
C11 C10 H10A 120.3
C9 C10 H10A 120.3
C10 C11 C12 120.97(16)
C10 C11 H11A 119.5
C12 C11 H11A 119.5
C11 C12 C13 118.94(17)
C11 C12 C15 120.19(17)
C13 C12 C15 120.87(18)
C14 C13 C12 120.83(17)
C14 C13 H13A 119.6
C12 C13 H13A 119.6
C9 C14 C13 119.13(16)
C9 C14 H14A 120.4
C13 C14 H14A 120.4
C12 C15 H15A 109.5
C12 C15 H15B 109.5
H15A C15 H15B 109.5
C12 C15 H15C 109.5
H15A C15 H15C 109.5
H15B C15 H15C 109.5
O2 S1 O1 117.75(8)
O2 S1 N1 106.22(8)
O1 S1 N1 112.05(7)
O2 S1 C9 108.86(8)
O1 S1 C9 109.02(8)
N1 S1 C9 101.70(8)
loop_
_geom_bond_atom_site_label_1
_geom_bond_atom_site_label_2
_geom_bond_distance
N1 C2 1.493(2)
N1 C1 1.504(2)
N1 S1 1.6593(15)
C1 C2 1.481(2)
C1 C8 1.506(2)
C1 H1A 1.0000
C2 C3 1.495(3)
C2 H2A 1.0000
C3 C4 1.527(3)
C3 H3A 0.9900
C3 H3B 0.9900
C4 C5 1.536(4)
C4 H4A 0.9900
C4 H4B 0.9900
C5 C6 1.531(3)
C5 H5A 0.9900
C5 H5B 0.9900
C6 C7 1.535(3)
C6 H6A 0.9900
C6 H6B 0.9900
C7 C8 1.534(3)
C7 H7A 0.9500
C8 H8A 0.9900
C8 H8B 0.9900
C9 C10 1.389(2)
C9 C14 1.391(2)
C9 S1 1.7557(17)
C10 C11 1.387(3)
C10 H10A 0.9500
C11 C12 1.389(3)
C11 H11A 0.9500
C12 C13 1.395(3)
C12 C15 1.509(2)
C13 C14 1.393(3)
C13 H13A 0.9500
C14 H14A 0.9500
C15 H15A 0.9800
C15 H15B 0.9800
C15 H15C 0.9800
S1 O2 1.4346(14)
S1 O1 1.4416(13)
loop_
_geom_torsion_atom_site_label_1
_geom_torsion_atom_site_label_2
_geom_torsion_atom_site_label_3
_geom_torsion_atom_site_label_4
_geom_torsion
S1 N1 C1 C2 107.13(13)
C2 N1 C1 C8 116.01(18)
S1 N1 C1 C8 -136.86(14)
C8 C1 C2 N1 -102.33(18)
N1 C1 C2 C3 105.97(19)
C8 C1 C2 C3 3.6(3)
S1 N1 C2 C1 -104.50(13)
C1 N1 C2 C3 -113.09(18)
S1 N1 C2 C3 142.41(14)
C1 C2 C3 C4 91.0(2)
N1 C2 C3 C4 162.07(16)
C2 C3 C4 C5 -52.6(3)
C3 C4 C5 C6 -54.0(3)
C4 C5 C6 C7 104.2(2)
C5 C6 C7 C8 -72.6(2)
C2 C1 C8 C7 -82.8(2)
N1 C1 C8 C7 -152.64(15)
C6 C7 C8 C1 73.7(2)
C14 C9 C10 C11 0.3(3)
S1 C9 C10 C11 179.42(13)
C9 C10 C11 C12 0.7(3)
C10 C11 C12 C13 -0.9(3)
C10 C11 C12 C15 178.46(17)
C11 C12 C13 C14 0.1(3)
C15 C12 C13 C14 -179.32(18)
C10 C9 C14 C13 -1.2(3)
S1 C9 C14 C13 179.75(15)
C12 C13 C14 C9 1.0(3)
C2 N1 S1 O2 154.64(12)
C1 N1 S1 O2 88.20(13)
C2 N1 S1 O1 24.77(14)
C1 N1 S1 O1 -41.67(14)
C2 N1 S1 C9 -91.52(13)
C1 N1 S1 C9 -157.97(12)
C10 C9 S1 O2 24.15(17)
C14 C9 S1 O2 -156.75(15)
C10 C9 S1 O1 153.81(14)
C14 C9 S1 O1 -27.08(17)
C10 C9 S1 N1 -87.71(15)
C14 C9 S1 N1 91.40(16)
