#------------------------------------------------------------------------------
#$Date: 2016-03-22 22:13:18 +0200 (Tue, 22 Mar 2016) $
#$Revision: 179035 $
#$URL: svn://www.crystallography.net/cod/cif/4/12/33/4123361.cif $
#------------------------------------------------------------------------------
#
# This file is available in the Crystallography Open Database (COD),
# http://www.crystallography.net/
#
# All data on this site have been placed in the public domain by the
# contributors.
#
data_4123361
loop_
_publ_author_name
'Chen, Te-Yu'
'Tsutsumi, Ryosuke'
'Montgomery, T. Patrick'
'Volchkov, Ivan'
'Krische, Michael J.'
_publ_section_title
;
 Ruthenium-Catalyzed C-C Coupling of Amino Alcohols with Dienes via
 Transfer Hydrogenation: Redox-Triggered Imine Addition and Related
 Hydroaminoalkylations.
;
_journal_issue                   5
_journal_name_full               'Journal of the American Chemical Society'
_journal_page_first              1798
_journal_page_last               1801
_journal_paper_doi               10.1021/ja5130258
_journal_volume                  137
_journal_year                    2015
_chemical_absolute_configuration syn
_chemical_formula_moiety         'C15 H21 N O2 S'
_chemical_formula_sum            'C15 H21 N O2 S'
_chemical_formula_weight         279.39
_chemical_name_systematic
;
 ?
;
_space_group_crystal_system      monoclinic
_space_group_IT_number           4
_space_group_name_Hall           'P 2yb'
_space_group_name_H-M_alt        'P 1 21 1'
_symmetry_space_group_name_Hall  'P 2yb'
_symmetry_space_group_name_H-M   'P 1 21 1'
_atom_sites_solution_hydrogens   geom
_audit_creation_method           SHELXL-2013
_cell_angle_alpha                90
_cell_angle_beta                 101.959(7)
_cell_angle_gamma                90
_cell_formula_units_Z            2
_cell_length_a                   6.2588(7)
_cell_length_b                   14.0040(16)
_cell_length_c                   8.5176(9)
_cell_measurement_reflns_used    3592
_cell_measurement_temperature    133(2)
_cell_measurement_theta_max      26.43
_cell_measurement_theta_min      2.44
_cell_volume                     730.35(14)
_computing_cell_refinement       'Apex II release 2010, Bruker AXS, Inc.'
_computing_data_collection       'Apex II release 2010, Bruker AXS, Inc.'
_computing_data_reduction        'Apex II release 2010, Bruker AXS, Inc.'
_computing_molecular_graphics    'XP SHELXTL/PC, Siemens Analytical'
_computing_publication_material  'XL SHELXTL/PC, Siemens Analytical'
_computing_structure_refinement  'Shelxl-2013, Sheldrick, G. M.'
_computing_structure_solution
;

SUPERFLIP.  Palatinus, L. and Chapuis, G., J. Appl. Cryst. 40, 786-790.
;
_diffrn_ambient_temperature      133(2)
_diffrn_measured_fraction_theta_full 0.965
_diffrn_measured_fraction_theta_max 0.998
_diffrn_measurement_device_type  'Nonius Kappa CCD with Bruker Apex II CCD'
_diffrn_radiation_type           MoK\a
_diffrn_radiation_wavelength     0.71073
_diffrn_reflns_av_unetI/netI     0.0854
_diffrn_reflns_Laue_measured_fraction_full 0.965
_diffrn_reflns_Laue_measured_fraction_max 0.998
_diffrn_reflns_limit_h_max       7
_diffrn_reflns_limit_h_min       -7
_diffrn_reflns_limit_k_max       16
_diffrn_reflns_limit_k_min       -16
_diffrn_reflns_limit_l_max       10
_diffrn_reflns_limit_l_min       -10
_diffrn_reflns_point_group_measured_fraction_full 0.966
_diffrn_reflns_point_group_measured_fraction_max 0.998
_diffrn_reflns_theta_full        25.242
_diffrn_reflns_theta_max         24.992
_diffrn_reflns_theta_min         2.845
_diffrn_source                   'sealed tube'
_exptl_absorpt_coefficient_mu    0.220
_exptl_absorpt_correction_T_max  1.00
_exptl_absorpt_correction_T_min  0.778
_exptl_absorpt_correction_type   multi-scan
_exptl_absorpt_process_details
;
SADABS. Apex II release 2010, Bruker AXS, Inc.
;
_exptl_crystal_colour            colorless
_exptl_crystal_density_diffrn    1.270
_exptl_crystal_description       plates
_exptl_crystal_F_000             300
_exptl_crystal_size_max          0.270
_exptl_crystal_size_mid          0.200
_exptl_crystal_size_min          0.100
_refine_diff_density_max         0.338
_refine_diff_density_min         -0.283
_refine_diff_density_rms         0.063
_refine_ls_abs_structure_details
;
 Refined as an inversion twin.
;
_refine_ls_abs_structure_Flack   -0.2(2)
_refine_ls_extinction_method     none
_refine_ls_goodness_of_fit_ref   1.086
_refine_ls_hydrogen_treatment    constr
_refine_ls_matrix_type           full
_refine_ls_number_parameters     175
_refine_ls_number_reflns         2570
_refine_ls_number_restraints     1
_refine_ls_restrained_S_all      1.086
_refine_ls_R_factor_all          0.0885
_refine_ls_R_factor_gt           0.0610
_refine_ls_shift/su_max          0.002
_refine_ls_shift/su_mean         0.000
_refine_ls_structure_factor_coef Fsqd
_refine_ls_weighting_details
'w=1/[\s^2^(Fo^2^)+(0.0607P)^2^+0.8277P] where P=(Fo^2^+2Fc^2^)/3'
_refine_ls_weighting_scheme      calc
_refine_ls_wR_factor_gt          0.1339
_refine_ls_wR_factor_ref         0.1440
_reflns_Friedel_coverage         0.915
_reflns_Friedel_fraction_full    0.966
_reflns_Friedel_fraction_max     0.999
_reflns_number_gt                2072
_reflns_number_total             2570
_reflns_threshold_expression     'I > 2\s(I)'
_cod_data_source_file            ja5130258_si_002.cif
_cod_data_source_block           shelx
_cod_depositor_comments
'Adding full bibliography for 4123360--4123361.cif.'
_cod_database_code               4123361
#BEGIN Tags that were not found in dictionaries:
_shelx_space_group_comment
;
The symmetry employed for this shelxl refinement is uniquely defined
by the following loop, which should always be used as a source of
symmetry information in preference to the above space-group names.
They are only intended as comments.
;
_shelx_estimated_absorpt_t_min   0.943
_shelx_estimated_absorpt_t_max   0.978
_refine_ls_abs_structure_parsons 0.06(5)
_refine_ls_abs_structure_hooft   -0.04(6)
_shelxl_version_number           2013-4
_shelx_res_file
;
TITL ntsp21
CELL  0.71073   6.2588  14.0040   8.5176   90.000  101.959   90.000
ZERR     2.00   0.0007   0.0016   0.0009    0.000    0.007    0.000
LATT  -1
SYMM  - X, 1/2 + Y, - Z
SFAC  C    H    N    O    S
UNIT  30   42   2    4    2
MERG   2
OMIT    -4.00  50.00
TWIN
rem isor .01 .02 c1 > s1
size .27 .20 .10
FMAP   2
PLAN   20
ACTA
BOND   $H
CONF
L.S.   4
TEMP  -140.00
WGHT    0.060700    0.827700
BASF  -0.16827
FVAR       1.29398
C1    1    0.693002    0.580416    0.515565    11.00000    0.01388    0.02358 =
         0.02440    0.00128    0.00491    0.00452
AFIX  13
H1    2    0.806683    0.564439    0.612970    11.00000   -1.20000
AFIX   0
C2    1    0.767231    0.669304    0.433765    11.00000    0.02783    0.03040 =
         0.03246    0.00341    0.01173   -0.00878
AFIX  23
H2A   2    0.928113    0.676039    0.461653    11.00000   -1.20000
H2B   2    0.720227    0.664912    0.315633    11.00000   -1.20000
AFIX   0
C3    1    0.657883    0.752430    0.497967    11.00000    0.04817    0.02386 =
         0.04681    0.00315    0.01481   -0.00196
AFIX  23
H3A   2    0.743767    0.773834    0.603018    11.00000   -1.20000
H3B   2    0.638981    0.806832    0.422120    11.00000   -1.20000
AFIX   0
C4    1    0.440479    0.712607    0.514700    11.00000    0.03616    0.02776 =
         0.02649    0.00577    0.00475    0.00911
AFIX  23
H4A   2    0.380668    0.748610    0.595909    11.00000   -1.20000
H4B   2    0.334129    0.714874    0.411039    11.00000   -1.20000
AFIX   0
C5    1    0.646619    0.491808    0.409007    11.00000    0.02664    0.03242 =
         0.03502   -0.00289    0.01486   -0.00317
AFIX  13
H5    2    0.602996    0.440050    0.476923    11.00000   -1.20000
AFIX   0
C6    1    0.852564    0.458640    0.360885    11.00000    0.03154    0.03289 =
         0.03049    0.00023    0.01035    0.00699
AFIX  43
H6    2    0.980125    0.455014    0.443519    11.00000   -1.20000
AFIX   0
C7    1    0.873693    0.433891    0.214084    11.00000    0.03860    0.04910 =
         0.05782   -0.01535    0.01764   -0.00493
AFIX  93
H7A   2    0.750904    0.436294    0.127322    11.00000   -1.20000
H7B   2    1.011570    0.413813    0.196009    11.00000   -1.20000
AFIX   0
C8    1    0.455740    0.505480    0.267376    11.00000    0.01860    0.06168 =
         0.07075   -0.03487    0.00487   -0.00261
AFIX 137
H8A   2    0.499555    0.548390    0.188791    11.00000   -1.50000
H8B   2    0.331879    0.533305    0.305235    11.00000   -1.50000
H8C   2    0.413027    0.443538    0.217013    11.00000   -1.50000
AFIX   0
C9    1    0.612991    0.657333    0.885401    11.00000    0.01517    0.01923 =
         0.01992    0.00439    0.00682    0.00042
C10   1    0.834791    0.638559    0.939118    11.00000    0.02292    0.02078 =
         0.02293    0.00083    0.00706    0.00685
AFIX  43
H10   2    0.898156    0.582406    0.905856    11.00000   -1.20000
AFIX   0
C11   1    0.961198    0.702799    1.041452    11.00000    0.01505    0.02985 =
         0.02432    0.00468    0.00641    0.00066
AFIX  43
H11   2    1.112422    0.690214    1.078406    11.00000   -1.20000
AFIX   0
C12   1    0.871572    0.785736    1.091684    11.00000    0.02324    0.02487 =
         0.01674    0.00337    0.00515   -0.00472
C13   1    0.649360    0.801326    1.038644    11.00000    0.02801    0.02172 =
         0.01918    0.00335    0.00821    0.00302
AFIX  43
H13   2    0.584825    0.856304    1.074831    11.00000   -1.20000
AFIX   0
C14   1    0.520057    0.739298    0.935075    11.00000    0.01706    0.01835 =
         0.02531    0.00453    0.00368    0.00795
AFIX  43
H14   2    0.369048    0.752257    0.897877    11.00000   -1.20000
AFIX   0
C15   1    1.010530    0.854044    1.203936    11.00000    0.03241    0.02864 =
         0.03214   -0.00148    0.00294   -0.00360
AFIX 137
H15A  2    0.940975    0.917067    1.194421    11.00000   -1.50000
H15B  2    1.154663    0.858864    1.176488    11.00000   -1.50000
H15C  2    1.026920    0.830919    1.314382    11.00000   -1.50000
AFIX   0
N1    3    0.490136    0.612446    0.566921    11.00000    0.01656    0.01925 =
         0.02687    0.00059    0.00369    0.00003
O1    4    0.227434    0.601324    0.743927    11.00000    0.01649    0.03539 =
         0.03842   -0.00728    0.01372   -0.00237
O2    4    0.532706    0.486037    0.769590    11.00000    0.02861    0.01450 =
         0.03739    0.00083    0.01449   -0.00038
S1    5    0.451617    0.581414    0.742125    11.00000    0.01658    0.01908 =
         0.02595   -0.00116    0.00871   -0.00215
HKLF    4

REM  ntsp21
REM R1 =  0.0610 for    2072 Fo > 4sig(Fo)  and  0.0885 for all    2570 data
REM    175 parameters refined using      1 restraints

END

WGHT      0.0546      0.9280

REM Highest difference peak  0.338,  deepest hole -0.283,  1-sigma level  0.063
Q1    1   0.4526  0.4999  0.1404  11.00000  0.05    0.34
Q2    1   0.5826  0.5435  0.8334  11.00000  0.05    0.29
Q3    1   0.5678  0.6200  0.8193  11.00000  0.05    0.28
Q4    1   0.5290  0.7188  0.3858  11.00000  0.05    0.24
Q5    1   0.4172  0.6870  0.2853  11.00000  0.05    0.24
Q6    1   0.9346  0.4164  0.4552  11.00000  0.05    0.23
Q7    1   1.2707  0.6172  1.0690  11.00000  0.05    0.22
Q8    1   0.6020  0.9497  1.0601  11.00000  0.05    0.22
Q9    1   0.4784  0.6746  0.1539  11.00000  0.05    0.21
Q10   1   0.4202  0.5781  0.4768  11.00000  0.05    0.21
Q11   1   0.4159  0.8227  1.1522  11.00000  0.05    0.21
Q12   1   0.4229  0.7626  0.2489  11.00000  0.05    0.20
Q13   1   0.0839  0.6553  0.6638  11.00000  0.05    0.20
Q14   1   0.5111  0.3770  0.1370  11.00000  0.05    0.20
Q15   1   0.7018  0.6751  0.8541  11.00000  0.05    0.20
Q16   1   0.0843  0.5788  0.6712  11.00000  0.05    0.20
Q17   1   1.2444  0.4541  0.5526  11.00000  0.05    0.20
Q18   1   0.3975  0.7674  0.3195  11.00000  0.05    0.20
Q19   1   0.5312  0.4274  0.3634  11.00000  0.05    0.19
Q20   1   0.4704  0.4045  0.4630  11.00000  0.05    0.19
;
_shelx_res_checksum              80671
_shelx_hkl_file
;
   1   0   0 7518.31 75.9962
   2   0   0 2778.01 37.6433
   3   0   0 1130.92 17.7145
   4   0   0 164.490 11.0663
   5   0   0 0.00000 11.7157
   6   0   0 43.2487 26.8583
   7   0   0 39.3462 52.2684
   0  -1   0 9.54042 5.80038
   0   1   0 4.40424 2.38792
  -1  -1   0 2434.02 28.1550
   1   1   0 2447.86 29.1938
  -2  -1   0 729.337 16.1301
   2   1   0 673.533 14.1871
  -3  -1   0 19.2283 3.24604
   3   1   0 17.5683 2.80775
  -4  -1   0 845.049 20.3509
   4   1   0 858.494 16.7614
  -5  -1   0 1038.42 28.1024
   5   1   0 982.726 24.0918
  -6  -1   0 191.952 22.4867
   6   1   0 182.982 16.2160
  -7  -1   0 6.13356 28.2300
   7   1   0 32.5304 22.8786
   0  -2   0 6974.33 315.224
   0   2   0 5717.17 314.268
  -1  -2   0 4825.97 56.8366
   1   2   0 4765.88 57.0925
  -2  -2   0 184.701 10.0421
   2   2   0 138.140 11.8143
  -3  -2   0 1511.92 25.5705
   3   2   0 1531.31 22.4669
  -4  -2   0 551.872 20.1628
   4   2   0 578.063 16.4275
  -5  -2   0 43.6697 12.3168
   5   2   0 41.0590 12.7234
  -6  -2   0 30.4457 14.2029
   6   2   0 47.3432 11.4538
  -7  -2   0 56.9768 28.7276
   7   2   0 1.25918 22.6699
   0  -3   0 1.15205 4.31644
   0   3   0 3.28068 4.50745
  -1  -3   0 2163.68 27.3981
   1   3   0 2144.40 29.1030
  -2  -3   0 121.724 5.55670
   2   3   0 128.211 7.52097
  -3  -3   0 532.195 12.7823
   3   3   0 541.085 11.6860
  -4  -3   0 407.977 18.1141
   4   3   0 449.083 13.6672
  -5  -3   0 398.161 19.9093
   5   3   0 393.493 16.8142
  -6  -3   0 209.584 22.5830
   6   3   0 224.338 18.4080
  -7  -3   0 159.001 31.0271
   7   3   0 83.5191 25.2006
   0  -4   0 74.5244 5.96979
   0   4   0 48.6102 7.24007
  -1  -4   0 2060.90 30.4960
   1   4   0 2010.31 29.4081
  -2  -4   0 277.006 14.6581
   2   4   0 182.001 14.8322
  -3  -4   0 44.5436 3.81649
   3   4   0 47.3220 4.17797
  -4  -4   0 261.019 20.9312
   4   4   0 274.934 12.3089
  -5  -4   0 182.075 31.1206
   5   4   0 116.650 19.6308
  -6  -4   0 22.8798 24.6262
   6   4   0 1.09048 11.5581
  -7  -4   0 38.0851 56.0326
   7   4   0 11.2041 20.6281
   0  -5   0 3.52409 5.46446
   0   5   0 3.36623 5.76579
  -1  -5   0 769.187 13.9651
   1   5   0 748.830 12.6606
  -2  -5   0 73.6509 7.48358
   2   5   0 73.8876 7.75177
  -3  -5   0 251.245 8.14541
   3   5   0 243.527 8.59443
  -4  -5   0 750.139 41.4922
   4   5   0 867.489 28.4156
  -5  -5   0 565.491 31.3439
   5   5   0 664.364 20.8907
  -6  -5   0 27.1427 24.7465
   6   5   0 12.6966 18.8785
  -7  -5   0 126.833 35.0844
   7   5   0 154.161 36.8081
   0  -6   0 1597.40 110.741
   0   6   0 1488.23 84.5517
  -1  -6   0 391.771 11.8495
   1   6   0 377.453 8.14162
  -2  -6   0 445.008 28.9798
   2   6   0 387.839 23.6944
  -3  -6   0 637.646 16.8263
   3   6   0 631.290 14.8911
  -4  -6   0 171.055 20.9516
   4   6   0 275.135 16.7599
  -5  -6   0 93.3215 38.4128
   5   6   0 183.415 27.4892
  -6  -6   0 37.8420 32.9766
   6   6   0 16.9974 15.8924
   0  -7   0 3.17743 27.9553
   0   7   0 3.26876 11.5085
  -1  -7   0 789.108 21.1057
   1   7   0 752.697 16.5269
  -2  -7   0 524.074 16.0385
   2   7   0 469.440 17.0924
  -3  -7   0 436.851 12.9158
   3   7   0 402.617 13.1891
  -4  -7   0 553.568 22.6372
   4   7   0 593.679 18.7602
  -5  -7   0 82.3837 25.7252
   5   7   0 229.333 18.5948
  -6  -7   0 83.9655 17.5245
   6   7   0 88.5696 12.8423
   0  -8   0 2591.93 287.665
   0   8   0 1160.37 118.425
  -1  -8   0 916.357 27.6450
   1   8   0 932.329 20.4509
  -2  -8   0 758.321 34.5125
   2   8   0 849.780 27.3938
  -3  -8   0 182.049 9.34269
   3   8   0 161.010 11.2617
  -4  -8   0 562.628 26.3488
   4   8   0 628.141 19.9766
  -5  -8   0 21.6291 23.9861
   5   8   0 19.8760 19.2667
  -6  -8   0 97.8347 18.4033
   6   8   0 76.0053 15.1909
   0  -9   0 9.26874 33.5197
   0   9   0 0.87536 13.7993
  -1  -9   0 535.118 22.4172
   1   9   0 544.486 14.1458
  -2  -9   0 157.903 29.4793
   2   9   0 119.922 17.1028
  -3  -9   0 88.9493 10.0681
   3   9   0 88.9281 10.6635
  -4  -9   0 539.562 37.0417
   4   9   0 656.225 21.4521
  -5  -9   0 180.555 25.4765
   5   9   0 181.083 21.0688
  -6  -9   0 73.3883 18.1858
   6   9   0 64.1883 15.5675
   0 -10   0 1284.41 170.422
   0  10   0 676.249 70.1599
  -1 -10   0 476.605 21.1877
   1  10   0 496.032 14.4688
  -2 -10   0 243.358 36.1572
   2  10   0 92.9082 17.4634
  -3 -10   0 0.00000 29.9270
   3  10   0 10.5420 16.8758
  -4 -10   0 151.866 31.1395
   4  10   0 81.8002 17.9432
  -5 -10   0 0.00002 29.6334
   5  10   0 39.9100 22.0647
   0 -11   0 13.8361 26.1578
   0  11   0 4.29992 10.7695
  -1 -11   0 111.371 14.6569
   1  11   0 130.000 7.75981
  -2 -11   0 170.715 31.3595
   2  11   0 93.6803 20.4135
  -3 -11   0 156.794 30.5542
   3  11   0 124.112 19.1538
  -4 -11   0 305.667 53.0069
   4  11   0 272.528 27.4097
  -5 -11   0 55.2099 30.1548
   5  11   0 82.5576 22.3744
   0 -12   0 619.027 68.2687
   0  12   0 319.229 28.1074
  -1 -12   0 942.357 35.7451
   1  12   0 958.593 29.6072
  -2 -12   0 284.982 50.9395
   2  12   0 86.0652 22.9612
  -3 -12   0 0.00236 81.3381
   3  12   0 3.81903 22.3949
   4  12   0 72.8307 28.6607
  -5 -12   0 0.00000 33.4801
   5  12   0 10.6801 25.6698
   0 -13   0 16.6188 53.2875
   0  13   0 0.00000 21.9381
  -1 -13   0 86.5710 32.4811
   1  13   0 74.4427 13.3496
  -2 -13   0 215.821 49.5009
   2  13   0 41.1595 23.6979
  -3 -13   0 61.2593 68.5651
   3  13   0 147.408 30.6414
  -4 -13   0 175.494 63.7707
   4  13   0 163.191 32.5911
   0 -14   0 656.451 122.571
   0  14   0 373.786 50.4607
  -1 -14   0 145.633 66.2574
   1  14   0 124.329 23.4249
  -2 -14   0 111.451 47.8315
   2  14   0 70.4316 25.2200
  -3 -14   0 0.00064 74.2376
   3  14   0 7.77259 32.4800
  -4 -14   0 133.157 90.1377
   4  14   0 0.00000 50.6662
   0 -15   0 22.0272 61.7694
   0  15   0 8.32860 25.4295
  -1 -15   0 0.00000 65.4622
   1  15   0 19.2010 23.4718
  -2 -15   0 272.331 54.6201
   2  15   0 180.875 29.5486
  -3 -15   0 142.297 84.3258
   3  15   0 116.755 35.6182
   0 -16   0 49.4169 73.6275
   0  16   0 38.1233 30.3113
  -1 -16   0 13.2039 15.6649
   1  16   0 10.0188 20.9396
  -2 -16   0 47.5633 52.8921
   2  16   0 5.42439 30.0368
  -7   0   1 29.9155 30.4777
  -6   0   1 95.0084 23.6113
  -5   0   1 2.84350 7.78195
  -4   0   1 2.09170 2.86597
  -3   0   1 45.1491 2.64488
  -2   0   1 0.00000 22.9508
  -1   0   1 1.58984 0.74907
   1   0   1 6743.29 71.9454
   2   0   1 1012.24 43.8119
   3   0   1 24.4988 3.34391
   4   0   1 394.084 17.2320
   5   0   1 211.339 15.2285
   6   0   1 18.6517 20.4235
   7   0   1 24.8136 22.6231
   7  -1  -1 85.7341 27.9963
  -7   1   1 0.00000 30.4092
   6  -1  -1 9.04198 14.3694
  -6   1   1 9.14874 25.8565
   5  -1  -1 35.1411 9.97044
  -5   1   1 6.64650 8.60158
   4  -1  -1 1387.10 30.3672
  -4   1   1 1359.88 29.0448
   3  -1  -1 3707.64 47.7212
  -3   1   1 3676.46 44.9869
   2  -1  -1 377.642 10.7063
  -2   1   1 328.363 14.8886
   1  -1  -1 3060.87 33.3721
  -1   1   1 3095.44 32.3864
   0  -1  -1 2479.97 48.6849
   0   1   1 2421.53 48.9585
  -1  -1  -1 3685.41 37.7348
   1   1   1 3641.74 37.2518
  -2  -1  -1 1031.45 20.9515
   2   1   1 1010.85 20.2833
  -3  -1  -1 137.748 6.43834
   3   1   1 150.859 5.33520
  -4  -1  -1 150.708 10.1428
   4   1   1 147.629 11.2871
  -5  -1  -1 109.065 19.2364
   5   1   1 100.103 16.9261
  -6  -1  -1 5.48145 19.7404
   6   1   1 0.00000 18.8995
  -7  -1  -1 0.00058 22.7165
   7   1   1 4.72467 22.1662
   7  -2  -1 101.958 30.4751
  -7   2   1 62.5786 23.9546
   6  -2  -1 70.8741 16.8634
  -6   2   1 107.730 17.6350
   5  -2  -1 387.544 12.8438
  -5   2   1 464.464 15.5490
   4  -2  -1 116.367 6.38317
  -4   2   1 122.524 7.36602
   3  -2  -1 16.9939 3.18613
  -3   2   1 15.2407 3.64497
   2  -2  -1 679.460 14.9760
  -2   2   1 640.763 14.5476
   1  -2  -1 728.958 8.61560
  -1   2   1 713.905 9.19356
   0  -2  -1 2368.61 60.8914
   0   2   1 2483.71 51.7918
  -1  -2  -1 1001.63 11.4166
   1   2   1 1006.49 11.9389
  -2  -2  -1 247.348 19.1468
   2   2   1 151.057 13.9312
  -3  -2  -1 7.34496 4.19263
   3   2   1 5.08120 2.53796
  -4  -2  -1 762.472 26.3741
   4   2   1 770.506 20.8895
  -5  -2  -1 1106.78 34.3760
   5   2   1 1291.15 36.3188
  -6  -2  -1 137.640 16.8257
   6   2   1 126.092 15.5010
  -7  -2  -1 145.846 51.3743
   7   2   1 146.506 26.1983
   7  -3  -1 33.5976 28.1242
  -7   3   1 71.7271 23.7348
   6  -3  -1 74.2176 18.0784
  -6   3   1 89.7345 15.4455
   5  -3  -1 119.591 16.0418
  -5   3   1 122.619 12.2232
   4  -3  -1 102.724 6.42570
  -4   3   1 92.6470 8.22981
   3  -3  -1 641.745 12.7472
  -3   3   1 647.448 12.9483
   2  -3  -1 97.9238 6.97877
  -2   3   1 109.845 5.69027
   1  -3  -1 52.3608 2.67465
  -1   3   1 51.2323 2.50261
   0  -3  -1 7117.95 187.904
   0   3   1 7266.11 186.818
  -1  -3  -1 478.502 7.46012
   1   3   1 467.364 8.03670
  -2  -3  -1 14.2186 20.3688
   2   3   1 49.4826 17.6838
  -3  -3  -1 1022.57 20.5563
   3   3   1 1010.11 16.2254
  -4  -3  -1 124.725 19.7689
   4   3   1 121.494 12.5553
  -5  -3  -1 78.2005 28.0733
   5   3   1 57.9655 18.6943
  -6  -3  -1 43.2652 21.7840
   6   3   1 45.8977 12.5643
   7   3   1 132.077 1098.48
   7  -4  -1 155.109 57.1583
  -7   4   1 92.0276 24.7374
   6  -4  -1 182.785 14.1088
  -6   4   1 182.107 12.3112
   5  -4  -1 304.379 17.7674
  -5   4   1 359.718 14.2508
   4  -4  -1 187.210 9.52101
  -4   4   1 170.182 11.3640
   3  -4  -1 540.614 11.1967
  -3   4   1 540.709 11.8549
   2  -4  -1 503.164 18.6728
  -2   4   1 432.278 12.9012
   1  -4  -1 55.0074 3.16824
  -1   4   1 49.1077 2.93334
   0  -4  -1 60.6286 3.89109
   0   4   1 47.6089 4.77398
  -1  -4  -1 201.136 5.27722
   1   4   1 210.180 5.55186
  -2  -4  -1 1887.78 49.2282
   2   4   1 2108.61 45.1085
  -3  -4  -1 317.985 9.49263
   3   4   1 308.537 10.5278
  -4  -4  -1 1517.15 63.8237
   4   4   1 1856.40 41.4673
  -5  -4  -1 1395.39 49.1350
   5   4   1 1402.29 34.4023
  -6  -4  -1 233.633 27.9551
   6   4   1 263.019 17.0280
   7  -5  -1 80.2060 56.9574
  -7   5   1 60.2878 20.8348
   6  -5  -1 44.8866 13.3765
  -6   5   1 47.8302 10.0549
   5  -5  -1 442.967 26.8372
  -5   5   1 360.927 17.8217
   4  -5  -1 379.083 19.9741
  -4   5   1 350.961 14.9254
   3  -5  -1 100.572 6.75279
  -3   5   1 86.6066 4.57407
   2  -5  -1 71.0031 10.2078
  -2   5   1 63.7907 5.71399
   1  -5  -1 1231.08 21.0198
  -1   5   1 1255.15 21.6481
   0  -5  -1 2774.94 140.941
   0   5   1 2601.60 89.5933
  -1  -5  -1 51.4856 4.10602
   1   5   1 41.5586 3.69318
  -2  -5  -1 496.189 27.6925
   2   5   1 442.522 26.1776
  -3  -5  -1 102.333 5.82965
   3   5   1 106.618 5.90697
  -4  -5  -1 79.7203 19.2273
   4   5   1 103.588 15.1053
  -5  -5  -1 45.6488 31.2353
   5   5   1 139.286 23.6702
  -6  -5  -1 0.00000 27.4616
   6   5   1 9.86066 17.7078
   6  -6  -1 155.315 17.6850
  -6   6   1 148.444 10.4781
   5  -6  -1 468.570 26.5254
  -5   6   1 498.788 22.4225
   4  -6  -1 1203.01 73.0121
  -4   6   1 1214.79 38.3740
   3  -6  -1 1191.00 30.6171
  -3   6   1 1174.55 26.6777
   2  -6  -1 931.678 46.1394
  -2   6   1 940.444 23.6144
   1  -6  -1 594.173 13.5807
  -1   6   1 558.826 12.9860
   0  -6  -1 367.843 33.3005
   0   6   1 173.842 13.7113
  -1  -6  -1 1035.38 23.0130
   1   6   1 1079.06 21.3068
  -2  -6  -1 144.508 8.34176
   2   6   1 135.034 9.26670
  -3  -6  -1 223.837 9.50114
   3   6   1 230.126 8.55474
  -4  -6  -1 473.156 27.4796
   4   6   1 654.580 21.8184
  -5  -6  -1 306.978 25.7433
   5   6   1 431.871 20.8151
  -6  -6  -1 340.249 31.6787
   6   6   1 340.321 22.8007
   6  -7  -1 106.323 11.9712
  -6   7   1 86.4103 12.8005
   5  -7  -1 363.506 37.7977
  -5   7   1 286.553 29.3877
   4  -7  -1 827.858 52.9867
  -4   7   1 797.090 23.1712
   3  -7  -1 222.706 17.3375
  -3   7   1 173.664 8.68127
   2  -7  -1 46.3289 24.4355
  -2   7   1 41.0141 9.04653
   1  -7  -1 393.976 11.0067
  -1   7   1 394.326 11.2243
   0  -7  -1 2047.95 113.365
   0   7   1 846.637 46.6790
  -1  -7  -1 1917.53 39.7546
   1   7   1 2029.96 35.4221
  -2  -7  -1 376.302 14.0619
   2   7   1 416.162 17.0032
  -3  -7  -1 298.149 10.4780
   3   7   1 307.319 10.7871
  -4  -7  -1 0.00000 20.4067
   4   7   1 59.9922 13.7246
  -5  -7  -1 115.741 26.0163
   5   7   1 145.382 22.6509
  -6  -7  -1 0.00000 28.7021
   6   7   1 52.1542 15.7209
   6  -8  -1 314.284 17.6489
  -6   8   1 257.573 19.3848
   5  -8  -1 244.161 24.6296
  -5   8   1 197.240 19.3150
   4  -8  -1 1001.88 60.7808
  -4   8   1 889.845 31.8251
   3  -8  -1 26.1272 14.3083
  -3   8   1 43.7735 6.90758
   2  -8  -1 307.392 38.2650
  -2   8   1 226.582 16.6401
   1  -8  -1 160.865 7.80012
  -1   8   1 153.783 7.50345
   0  -8  -1 834.251 62.1372
   0   8   1 376.601 25.5843
  -1  -8  -1 619.788 16.7721
   1   8   1 590.036 13.3484
  -2  -8  -1 60.3978 12.2222
   2   8   1 75.3927 15.0927
  -3  -8  -1 810.484 23.1517
   3   8   1 818.348 21.9006
  -4  -8  -1 361.093 24.5532
   4   8   1 355.877 17.4128
  -5  -8  -1 243.461 27.3943
   5   8   1 202.648 23.2578
  -6  -8  -1 174.082 36.9827
   6   8   1 150.824 19.8364
   6  -9  -1 96.4971 16.1143
  -6   9   1 81.1782 16.3724
   5  -9  -1 194.903 25.5161
  -5   9   1 242.616 20.1671
   4  -9  -1 167.236 34.8354
  -4   9   1 232.551 19.9306
   3  -9  -1 468.147 31.4185
  -3   9   1 422.282 17.3496
   2  -9  -1 672.274 33.6869
  -2   9   1 627.621 19.2180
   1  -9  -1 253.701 13.2833
  -1   9   1 241.911 10.0005
   0  -9  -1 1190.72 84.7757
   0   9   1 546.951 34.9055
  -1  -9  -1 449.289 14.4200
   1   9   1 453.993 11.6509
  -2  -9  -1 246.601 19.6751
   2   9   1 228.116 15.3498
  -3  -9  -1 279.796 16.5602
   3   9   1 342.047 18.2227
  -4  -9  -1 311.620 22.8775
   4   9   1 289.535 18.9581
  -5  -9  -1 0.00001 27.2205
   5   9   1 51.5463 20.4029
  -6  -9  -1 0.00000 136.781
   5 -10  -1 43.6871 24.7986
  -5  10   1 91.8763 22.1318
   4 -10  -1 43.0900 33.3020
  -4  10   1 113.831 19.4643
   3 -10  -1 123.309 34.0949
  -3  10   1 222.356 19.7825
   2 -10  -1 319.843 29.6303
  -2  10   1 246.018 14.8881
   1 -10  -1 114.878 10.6456
  -1  10   1 105.623 7.16833
   0 -10  -1 89.4745 26.2917
   0  10   1 41.7221 10.8250
  -1 -10  -1 486.488 16.0324
   1  10   1 490.853 16.5408
  -2 -10  -1 723.498 66.8766
   2  10   1 124.809 21.3220
  -3 -10  -1 41.8105 16.7518
   3  10   1 103.283 19.7490
  -4 -10  -1 165.828 26.9313
   4  10   1 124.276 18.0852
  -5 -10  -1 58.9990 29.2222
   5  10   1 96.9366 22.3784
   5 -11  -1 85.2803 61.0575
  -5  11   1 76.5638 23.1713
   4 -11  -1 74.7562 36.4512
  -4  11   1 35.1787 20.5756
   3 -11  -1 304.636 37.8668
  -3  11   1 211.225 21.9349
   2 -11  -1 211.469 49.5585
  -2  11   1 117.374 12.9123
   1 -11  -1 10.3088 17.1299
  -1  11   1 21.9485 6.10402
   0 -11  -1 650.977 41.8818
   0  11   1 314.856 17.2454
  -1 -11  -1 1271.74 30.1741
   1  11   1 1256.30 32.4143
  -2 -11  -1 363.476 37.0634
   2  11   1 305.490 21.5308
  -3 -11  -1 83.5671 23.5019
   3  11   1 112.448 24.8314
  -4 -11  -1 73.7486 28.1707
   4  11   1 94.7230 20.6554
  -5 -11  -1 23.8844 32.9967
   5  11   1 6.56249 25.4832
   5 -12  -1 80.6930 70.7691
  -5  12   1 87.9615 25.8569
   4 -12  -1 259.924 63.5932
  -4  12   1 181.416 26.1850
   3 -12  -1 292.900 43.0627
  -3  12   1 230.750 28.1982
   2 -12  -1 315.787 55.7451
  -2  12   1 276.876 20.9738
   1 -12  -1 122.038 26.4146
  -1  12   1 105.888 9.21818
   0 -12  -1 109.597 17.8789
   0  12   1 142.662 11.8385
  -1 -12  -1 243.620 12.7898
   1  12   1 265.898 12.7641
  -2 -12  -1 665.541 65.9136
   2  12   1 76.4669 26.6612
  -3 -12  -1 80.7355 19.8773
   3  12   1 53.7785 26.6223
  -4 -12  -1 82.4799 226.485
   4  12   1 51.1740 24.4922
   4 -13  -1 141.441 73.3206
  -4  13   1 44.8902 30.1881
   3 -13  -1 103.702 75.2049
  -3  13   1 147.427 30.9661
   2 -13  -1 222.248 57.5330
  -2  13   1 170.624 20.3826
   1 -13  -1 227.495 32.7854
  -1  13   1 216.673 15.9048
   0 -13  -1 252.722 24.4858
   0  13   1 265.839 15.8546
  -1 -13  -1 182.745 14.1705
   1  13   1 201.082 14.7600
  -2 -13  -1 553.298 69.0548
   2  13   1 153.070 28.5094
  -3 -13  -1 48.5252 32.4939
   3  13   1 0.00000 29.6852
  -4 -13  -1 0.00000 33.4834
   4  13   1 11.7847 25.7862
   4 -14  -1 72.6292 95.5136
  -4  14   1 59.1369 39.3252
   3 -14  -1 202.140 82.9814
  -3  14   1 187.807 34.1672
   2 -14  -1 157.429 61.2246
  -2  14   1 37.0086 19.6956
   1 -14  -1 309.173 26.2319
  -1  14   1 339.174 24.4074
   0 -14  -1 122.506 20.9394
   0  14   1 63.6149 14.4154
  -1 -14  -1 40.3260 10.8796
   1  14   1 14.6557 13.7142
  -2 -14  -1 399.659 60.1470
   2  14   1 55.0642 25.9243
  -3 -14  -1 28.3926 35.8809
   3  14   1 72.5265 32.6176
   3 -15  -1 53.5789 80.4179
  -3  15   1 21.6583 33.1107
   2 -15  -1 272.597 71.7320
  -2  15   1 86.1997 22.4907
   1 -15  -1 158.615 21.2460
  -1  15   1 239.509 23.9932
   0 -15  -1 0.00000 13.7929
   0  15   1 28.8146 13.2255
  -1 -15  -1 25.1032 11.2905
   1  15   1 29.0839 15.2103
  -2 -15  -1 55.6733 51.8880
   2  15   1 49.9708 27.2000
  -3 -15  -1 58.6603 53.0330
   3  15   1 40.3160 22.9393
   2 -16  -1 42.6154 72.9207
  -2  16   1 21.1803 21.7776
   1 -16  -1 0.70364 16.0425
  -1  16   1 6.07823 21.2493
   0 -16  -1 19.3079 14.9179
   0  16   1 0.00000 13.0350
  -1 -16  -1 0.00086 72.7990
   1  16   1 13.4528 34.2237
  -7   0   2 53.0534 31.3452
  -6   0   2 172.493 16.9609
  -5   0   2 9.40362 6.81155
  -4   0   2 1422.75 24.9433
  -3   0   2 2194.36 32.7460
  -2   0   2 2150.95 38.9262
  -1   0   2 1143.67 13.2299
   0   0   2 18.6302 2.79617
   1   0   2 275.807 6.83832
   2   0   2 334.908 10.0165
   3   0   2 546.310 13.0990
   4   0   2 45.4810 12.7643
   5   0   2 93.2005 15.2319
   6   0   2 96.7869 17.3175
   7  -1  -2 265.859 35.2101
  -7   1   2 158.527 35.6571
   6  -1  -2 78.4813 19.4018
  -6   1   2 70.2849 12.5934
   5  -1  -2 149.344 9.11300
  -5   1   2 115.749 10.0632
   4  -1  -2 0.56043 5.01451
  -4   1   2 0.00000 12.4598
   3  -1  -2 103.590 4.28935
  -3   1   2 101.115 4.70522
   2  -1  -2 281.007 13.6246
  -2   1   2 249.742 13.6520
   1  -1  -2 5973.70 59.7822
  -1   1   2 6019.80 63.1000
   0  -1  -2 1132.55 21.7820
   0   1   2 1127.24 25.4169
  -1  -1  -2 2431.15 31.2821
   1   1   2 2415.51 29.9745
  -2  -1  -2 724.901 25.6048
   2   1   2 692.432 19.9718
  -3  -1  -2 55.1858 5.07771
   3   1   2 58.3106 5.49257
  -4  -1  -2 419.717 37.5288
   4   1   2 493.890 24.1129
  -5  -1  -2 474.164 24.0238
   5   1   2 515.775 21.2532
  -6  -1  -2 23.7293 16.9817
   6   1   2 35.3248 20.6007
   7  -2  -2 0.00000 51.6614
  -7   2   2 12.8533 34.3617
   6  -2  -2 84.6990 18.3985
  -6   2   2 104.280 13.7665
   5  -2  -2 18.8599 11.8719
  -5   2   2 47.0558 11.1070
   4  -2  -2 133.910 9.72864
  -4   2   2 149.451 11.2778
   3  -2  -2 1506.96 22.3306
  -3   2   2 1535.29 27.4276
   2  -2  -2 1054.26 17.5056
  -2   2   2 933.898 21.0640
   1  -2  -2 7222.14 89.2782
  -1   2   2 7396.14 77.6374
   0  -2  -2 9999.99 221.534
   0   2   2 9887.64 206.324
  -1  -2  -2 1160.67 15.0462
   1   2   2 1185.06 15.8593
  -2  -2  -2 1366.67 27.1346
   2   2   2 1357.20 25.5513
  -3  -2  -2 222.436 7.44556
   3   2   2 222.758 7.98126
  -4  -2  -2 195.977 16.6443
   4   2   2 144.815 13.6068
  -5  -2  -2 123.487 31.0827
   5   2   2 113.691 23.5275
  -6  -2  -2 113.039 15.5224
   6   2   2 87.8400 21.3929
   7  -3  -2 41.4983 26.2394
  -7   3   2 21.7487 19.9459
   6  -3  -2 214.025 21.4036
  -6   3   2 211.994 18.6896
   5  -3  -2 248.428 13.2176
  -5   3   2 247.352 13.1235
   4  -3  -2 199.915 16.8877
  -4   3   2 238.819 11.5130
   3  -3  -2 130.225 5.04779
  -3   3   2 123.624 5.84291
   2  -3  -2 1515.48 24.7378
  -2   3   2 1485.09 24.4194
   1  -3  -2 50.1284 2.52893
  -1   3   2 42.7383 1.90782
   0  -3  -2 294.325 8.62931
   0   3   2 277.444 7.76849
  -1  -3  -2 2341.04 29.3609
   1   3   2 2391.07 31.4482
  -2  -3  -2 343.147 15.4730
   2   3   2 356.210 14.3963
  -3  -3  -2 212.656 7.67941
   3   3   2 220.152 8.97023
  -4  -3  -2 1253.16 49.4805
   4   3   2 1205.15 35.8312
  -5  -3  -2 474.217 25.9833
   5   3   2 518.292 20.4458
  -6  -3  -2 346.007 28.9829
   6   3   2 381.815 24.8784
   7  -4  -2 2.36877 27.0763
  -7   4   2 25.5932 19.6350
   6  -4  -2 133.783 12.5818
  -6   4   2 140.083 14.8510
   5  -4  -2 35.1682 12.6799
  -5   4   2 75.9404 13.8182
   4  -4  -2 255.045 17.1855
  -4   4   2 261.694 11.1972
   3  -4  -2 427.987 10.4259
  -3   4   2 438.486 11.0898
   2  -4  -2 768.435 35.5269
  -2   4   2 783.760 28.8433
   1  -4  -2 194.668 5.55508
  -1   4   2 202.028 5.06032
   0  -4  -2 1370.85 38.7005
   0   4   2 1399.82 34.0202
  -1  -4  -2 1553.87 24.0738
   1   4   2 1519.09 23.7114
  -2  -4  -2 557.083 17.8671
   2   4   2 548.081 16.8260
  -3  -4  -2 365.169 12.1816
   3   4   2 353.464 12.2015
  -4  -4  -2 387.902 23.0114
   4   4   2 365.867 19.7630
  -5  -4  -2 317.503 34.5957
   5   4   2 388.503 25.3494
  -6  -4  -2 91.2258 29.2104
   6   4   2 83.7829 26.3765
   7  -5  -2 250.929 62.3227
  -7   5   2 95.0424 25.6593
   6  -5  -2 394.741 18.7661
  -6   5   2 376.303 19.7093
   5  -5  -2 179.821 16.3624
  -5   5   2 149.455 17.2510
   4  -5  -2 611.082 27.1265
  -4   5   2 702.157 24.0536
   3  -5  -2 101.775 6.02723
  -3   5   2 94.8194 5.12203
   2  -5  -2 1386.84 34.4212
  -2   5   2 1280.32 28.8212
   1  -5  -2 217.426 6.34045
  -1   5   2 205.636 6.16570
   0  -5  -2 1775.04 63.6219
   0   5   2 1564.41 45.2044
  -1  -5  -2 2357.83 42.1906
   1   5   2 2340.88 42.0834
  -2  -5  -2 335.197 13.1612
   2   5   2 347.567 10.3704
  -3  -5  -2 398.100 13.4906
   3   5   2 369.402 11.8266
  -4  -5  -2 214.535 24.1026
   4   5   2 257.096 18.3034
  -5  -5  -2 218.692 28.2537
   5   5   2 268.428 19.4943
  -6  -5  -2 315.773 33.0946
   6   5   2 309.008 23.3279
   6  -6  -2 185.020 11.9610
  -6   6   2 193.577 17.5709
   5  -6  -2 123.819 42.4738
  -5   6   2 46.1827 15.1628
   4  -6  -2 61.9880 30.9671
  -4   6   2 137.328 12.2350
   3  -6  -2 210.550 7.70593
  -3   6   2 216.533 8.85924
   2  -6  -2 111.686 11.7829
  -2   6   2 107.501 7.96398
   1  -6  -2 722.659 16.6256
  -1   6   2 739.318 16.4008
   0  -6  -2 58.7440 7.63811
   0   6   2 70.4256 5.35409
  -1  -6  -2 170.676 8.22952
   1   6   2 163.111 6.55561
  -2  -6  -2 17.2195 7.36580
   2   6   2 40.6303 7.35763
  -3  -6  -2 135.551 7.79095
   3   6   2 130.079 7.02957
  -4  -6  -2 5.72116 20.6161
   4   6   2 11.5971 18.0430
  -5  -6  -2 261.207 31.0566
   5   6   2 259.243 21.0192
  -6  -6  -2 192.096 31.9984
   6   6   2 153.434 20.6768
   6  -7  -2 167.564 13.2335
  -6   7   2 183.766 15.6478
   5  -7  -2 1296.07 60.1336
  -5   7   2 1067.52 31.9064
   4  -7  -2 0.00000 33.6015
  -4   7   2 39.2826 12.8639
   3  -7  -2 184.923 7.58026
  -3   7   2 174.900 7.34921
   2  -7  -2 161.786 28.2799
  -2   7   2 195.906 11.2867
   1  -7  -2 41.1848 5.17267
  -1   7   2 49.7346 4.84458
   0  -7  -2 398.939 18.7389
   0   7   2 381.559 13.8491
  -1  -7  -2 238.025 9.95838
   1   7   2 229.814 8.20607
  -2  -7  -2 161.639 8.87020
   2   7   2 211.913 10.8684
  -3  -7  -2 18.7174 6.35639
   3   7   2 10.9796 5.71067
  -4  -7  -2 107.635 28.1692
   4   7   2 127.312 22.0364
  -5  -7  -2 104.937 29.1923
   5   7   2 145.392 20.2839
  -6  -7  -2 81.2196 30.7948
   6   7   2 36.2115 15.9779
   6  -8  -2 34.0518 10.6136
  -6   8   2 28.5344 14.5739
   5  -8  -2 179.804 39.7201
  -5   8   2 143.653 17.4535
   4  -8  -2 0.01674 36.1970
  -4   8   2 42.7857 17.0548
   3  -8  -2 440.095 19.6402
  -3   8   2 435.545 13.3796
   2  -8  -2 50.2795 36.6408
  -2   8   2 49.3454 8.37131
   1  -8  -2 67.9328 6.53087
  -1   8   2 77.6850 5.76423
   0  -8  -2 534.103 25.2720
   0   8   2 566.206 18.7262
  -1  -8  -2 259.334 11.0073
   1   8   2 271.273 9.48261
  -2  -8  -2 116.767 12.1302
   2   8   2 109.759 11.6705
  -3  -8  -2 272.311 12.3578
   3   8   2 287.731 13.2389
  -4  -8  -2 61.7088 25.1436
   4   8   2 30.9832 18.1234
  -5  -8  -2 1.42380 33.0337
   5   8   2 39.7083 21.2384
   6  -9  -2 42.5663 11.6544
  -6   9   2 33.6511 16.8834
   5  -9  -2 124.176 41.2507
  -5   9   2 182.940 18.7229
   4  -9  -2 60.5261 38.6286
  -4   9   2 78.9323 19.4720
   3  -9  -2 60.2529 21.8309
  -3   9   2 43.6854 9.24735
   2  -9  -2 127.952 27.1947
  -2   9   2 114.185 11.3085
   1  -9  -2 20.7842 3.53477
  -1   9   2 21.9407 5.18341
   0  -9  -2 53.4082 9.64020
   0   9   2 48.1875 8.18196
  -1  -9  -2 212.564 10.7546
   1   9   2 215.495 9.25253
  -2  -9  -2 84.0508 16.1392
   2   9   2 100.221 15.0475
  -3  -9  -2 72.6121 9.91895
   3   9   2 69.5185 16.0731
  -4  -9  -2 0.00000 26.4444
   4   9   2 0.00000 17.1386
  -5  -9  -2 144.406 31.9766
   5   9   2 133.576 22.1112
   6 -10  -2 0.00000 48.2239
  -6  10   2 0.00000 106.483
   5 -10  -2 3.48914 43.2072
  -5  10   2 51.9690 20.1584
   4 -10  -2 133.281 34.6266
  -4  10   2 95.5574 19.1044
   3 -10  -2 466.588 40.9715
  -3  10   2 480.818 19.4107
   2 -10  -2 999.519 43.3268
  -2  10   2 667.048 27.5374
   1 -10  -2 803.914 23.5511
  -1  10   2 828.845 19.9982
   0 -10  -2 382.035 20.9660
   0  10   2 380.706 16.8229
  -1 -10  -2 945.614 24.4427
   1  10   2 922.237 20.1051
  -2 -10  -2 482.699 20.7126
   2  10   2 464.464 19.4026
  -3 -10  -2 431.127 24.9302
   3  10   2 557.941 26.2621
  -4 -10  -2 148.564 32.1011
   4  10   2 185.146 20.4048
  -5 -10  -2 0.00000 32.4089
   5  10   2 49.6330 29.5758
   5 -11  -2 99.4424 43.6946
  -5  11   2 200.734 25.1402
   4 -11  -2 122.920 45.6634
  -4  11   2 86.2314 21.8262
   3 -11  -2 140.259 13.2071
  -3  11   2 118.543 18.1706
   2 -11  -2 276.321 52.2734
  -2  11   2 144.726 15.2617
   1 -11  -2 379.624 14.9082
  -1  11   2 389.934 13.0778
   0 -11  -2 451.817 25.4967
   0  11   2 519.022 20.5048
  -1 -11  -2 23.8897 7.75155
   1  11   2 39.0636 7.87030
  -2 -11  -2 152.026 22.0514
   2  11   2 148.986 20.2351
  -3 -11  -2 143.458 21.8000
   3  11   2 171.272 23.2752
  -4 -11  -2 110.771 217.676
   4  11   2 122.263 24.4227
  -5 -11  -2 0.00000 70.5708
   5  11   2 172.479 20.8045
   5 -12  -2 26.0666 62.7773
  -5  12   2 2.22610 29.1383
   4 -12  -2 14.9816 69.5825
   3 -12  -2 452.167 43.5905
  -3  12   2 514.193 33.4888
   2 -12  -2 737.345 64.7276
  -2  12   2 615.483 27.1410
   1 -12  -2 529.102 18.9337
  -1  12   2 546.859 16.3140
   0 -12  -2 441.793 24.1371
   0  12   2 417.186 19.4163
  -1 -12  -2 82.1599 9.71519
   1  12   2 85.5620 9.53649
  -2 -12  -2 282.417 17.9916
   2  12   2 302.448 18.2647
  -3 -12  -2 68.0784 29.5519
   3  12   2 103.627 22.7740
  -4 -12  -2 50.9598 31.0456
   4  12   2 0.00000 21.5736
   4 -13  -2 228.562 79.1241
  -4  13   2 224.417 26.2573
   3 -13  -2 6.03404 74.3862
  -3  13   2 67.0679 28.2304
   2 -13  -2 545.984 69.2142
  -2  13   2 430.475 28.4329
   1 -13  -2 161.681 18.3691
  -1  13   2 166.831 12.2973
   0 -13  -2 66.6002 14.2482
   0  13   2 95.7450 11.8159
  -1 -13  -2 89.6074 11.0337
   1  13   2 83.8469 12.7149
  -2 -13  -2 148.076 18.9219
   2  13   2 187.860 21.1231
  -3 -13  -2 24.7714 32.8252
   3  13   2 52.6489 27.0091
  -4 -13  -2 0.00000 34.7188
   4  13   2 80.4546 27.9892
   4 -14  -2 46.4654 13.2806
  -4  14   2 32.8189 19.7340
   3 -14  -2 78.2303 78.8537
  -3  14   2 65.9763 30.5643
   2 -14  -2 312.539 62.9378
  -2  14   2 275.850 24.7653
   1 -14  -2 51.4933 14.9287
  -1  14   2 56.8926 13.3505
   0 -14  -2 108.050 16.0492
   0  14   2 86.8288 15.0215
  -1 -14  -2 159.573 14.5771
   1  14   2 140.138 15.4164
  -2 -14  -2 95.0292 19.2382
   2  14   2 89.3462 20.8411
  -3 -14  -2 10.0173 39.7714
   3  14   2 0.00000 27.4774
   3 -15  -2 68.1119 86.4701
  -3  15   2 129.373 34.7196
   2 -15  -2 57.7155 66.0326
  -2  15   2 6.19127 21.3651
   1 -15  -2 29.4514 15.8109
  -1  15   2 33.6506 18.0743
   0 -15  -2 21.8444 14.8645
   0  15   2 9.31335 13.9820
  -1 -15  -2 20.7926 11.5388
   1  15   2 18.8300 13.8846
  -2 -15  -2 26.5112 21.9080
   2  15   2 72.0713 25.4232
   1 -16  -2 131.534 83.0851
  -1  16   2 199.174 29.9745
   0 -16  -2 48.8221 16.7884
   0  16   2 55.8316 15.6890
  -1 -16  -2 157.279 15.6598
   1  16   2 167.584 13.4433
  -7   0   3 14.4096 30.3909
  -6   0   3 63.7338 17.6180
  -5   0   3 225.357 12.6993
  -4   0   3 557.056 17.5405
  -3   0   3 226.739 8.20284
  -2   0   3 0.00000 6.25503
  -1   0   3 309.960 7.05709
   0   0   3 573.908 17.1855
   1   0   3 117.635 3.89750
   2   0   3 29.3448 19.1671
   3   0   3 34.8522 6.32121
   4   0   3 181.054 17.0790
   5   0   3 39.2536 17.2945
   6   0   3 42.1242 20.1545
   7  -1  -3 44.5023 30.5232
  -7   1   3 5.37958 23.2402
   6  -1  -3 109.909 18.9178
  -6   1   3 79.8216 17.5891
   5  -1  -3 43.3841 15.0662
  -5   1   3 4.61496 24.5947
   4  -1  -3 285.022 9.77435
  -4   1   3 240.680 9.35779
   3  -1  -3 135.087 4.77669
  -3   1   3 122.548 5.90910
   2  -1  -3 683.560 18.1363
  -2   1   3 627.936 19.3508
   1  -1  -3 764.111 11.9136
  -1   1   3 772.355 12.1092
   0  -1  -3 1047.42 27.0169
   0   1   3 1056.17 27.9859
  -1  -1  -3 334.375 6.77435
   1   1   3 325.702 6.94140
  -2  -1  -3 318.038 20.9556
   2   1   3 263.924 21.4367
  -3  -1  -3 43.2569 5.20867
   3   1   3 39.6907 6.15923
  -4  -1  -3 155.269 22.4799
   4   1   3 177.452 15.6417
  -5  -1  -3 48.7703 17.2709
   5   1   3 68.0871 16.2149
  -6  -1  -3 129.843 21.4542
   6   1   3 141.762 22.8386
   7  -2  -3 80.9333 27.9457
  -7   2   3 77.9586 25.1052
   6  -2  -3 65.1898 15.7144
  -6   2   3 59.7769 15.9673
   5  -2  -3 240.419 11.5424
  -5   2   3 223.210 11.3551
   4  -2  -3 299.838 13.3554
  -4   2   3 279.484 18.0204
   3  -2  -3 153.890 5.20175
  -3   2   3 167.541 5.42288
   2  -2  -3 158.467 15.0692
  -2   2   3 116.309 14.3107
   1  -2  -3 3455.45 44.9937
  -1   2   3 3470.90 41.6276
   0  -2  -3 12.4424 3.09729
   0   2   3 6.69908 3.62523
  -1  -2  -3 274.495 6.01806
   1   2   3 276.784 6.60318
  -2  -2  -3 606.115 30.2395
   2   2   3 656.234 19.8542
  -3  -2  -3 213.244 7.48612
   3   2   3 204.768 10.4808
  -4  -2  -3 402.965 31.6465
   4   2   3 436.748 27.0599
  -5  -2  -3 0.00000 23.6539
   5   2   3 0.00000 19.6529
  -6  -2  -3 33.5171 21.7339
   6   2   3 65.4364 25.5873
   7  -3  -3 54.5220 27.7655
  -7   3   3 77.1335 20.4344
   6  -3  -3 322.289 24.6229
  -6   3   3 277.398 23.9932
   5  -3  -3 163.381 18.0195
  -5   3   3 177.696 13.9417
   4  -3  -3 382.016 15.5802
  -4   3   3 400.286 14.9792
   3  -3  -3 561.413 11.5748
  -3   3   3 538.642 11.9266
   2  -3  -3 301.096 10.3199
  -2   3   3 272.010 8.57475
   1  -3  -3 2003.17 28.0599
  -1   3   3 1941.76 25.3472
   0  -3  -3 658.644 17.4458
   0   3   3 679.706 16.5937
  -1  -3  -3 1401.83 19.4076
   1   3   3 1421.94 22.2055
  -2  -3  -3 15.7690 20.4148
   2   3   3 94.5417 18.1984
  -3  -3  -3 108.067 9.45806
   3   3   3 112.595 9.85480
  -4  -3  -3 305.927 27.5223
   4   3   3 290.060 19.0028
  -5  -3  -3 9.24546 28.7233
   5   3   3 64.6975 23.0515
  -6  -3  -3 139.033 26.1075
   6   3   3 159.089 28.0806
   7  -4  -3 82.7733 28.4724
  -7   4   3 17.8689 23.5338
   6  -4  -3 232.964 21.2393
  -6   4   3 217.509 19.2289
   5  -4  -3 1048.90 31.1150
  -5   4   3 1011.78 29.7032
   4  -4  -3 741.783 31.4114
  -4   4   3 870.297 33.3787
   3  -4  -3 168.236 8.45105
  -3   4   3 188.363 6.61296
   2  -4  -3 276.517 12.5788
  -2   4   3 260.774 10.1922
   1  -4  -3 740.394 13.6622
  -1   4   3 781.563 12.0273
   0  -4  -3 64.1898 4.81883
   0   4   3 83.6657 4.02835
  -1  -4  -3 2047.84 28.2148
   1   4   3 2065.17 31.0428
  -2  -4  -3 144.486 8.69959
   2   4   3 131.507 8.94736
  -3  -4  -3 303.555 10.8107
   3   4   3 313.694 14.2863
  -4  -4  -3 126.878 37.9257
   4   4   3 159.123 23.1566
  -5  -4  -3 244.284 30.0599
   5   4   3 333.133 20.5458
  -6  -4  -3 22.8261 29.0845
   6   4   3 42.3545 25.2291
   7  -5  -3 37.7243 27.2066
  -7   5   3 10.0414 23.4523
   6  -5  -3 69.2634 12.1524
  -6   5   3 45.5069 17.0025
   5  -5  -3 91.7620 21.0828
  -5   5   3 152.642 18.2709
   4  -5  -3 157.746 16.6990
  -4   5   3 179.683 11.1164
   3  -5  -3 194.039 7.77006
  -3   5   3 201.729 6.46933
   2  -5  -3 112.566 8.57694
  -2   5   3 86.6871 7.84531
   1  -5  -3 368.042 10.1691
  -1   5   3 371.479 8.23888
   0  -5  -3 146.664 7.76215
   0   5   3 135.789 6.13537
  -1  -5  -3 190.236 6.42155
   1   5   3 191.175 6.28125
  -2  -5  -3 155.309 16.3089
   2   5   3 141.431 13.8016
  -3  -5  -3 38.5786 8.57953
   3   5   3 36.2064 8.25608
  -4  -5  -3 0.00000 26.2065
   4   5   3 20.5520 17.7497
  -5  -5  -3 55.0987 25.0452
   5   5   3 61.8143 19.7831
  -6  -5  -3 91.2035 30.4425
   6   5   3 107.068 21.7682
   6  -6  -3 533.879 22.0068
  -6   6   3 478.314 28.8225
   5  -6  -3 1138.77 44.0662
  -5   6   3 1159.06 30.8128
   4  -6  -3 69.3980 25.3041
  -4   6   3 211.386 14.6822
   3  -6  -3 89.3917 5.15850
  -3   6   3 77.0719 5.92342
   2  -6  -3 5.87039 6.93444
  -2   6   3 36.9928 6.82528
   1  -6  -3 569.573 13.8447
  -1   6   3 577.325 14.0719
   0  -6  -3 110.973 9.24425
   0   6   3 122.711 6.29874
  -1  -6  -3 570.200 12.9464
   1   6   3 558.664 11.6450
  -2  -6  -3 495.019 17.2066
   2   6   3 548.517 16.3915
  -3  -6  -3 325.774 18.3899
   3   6   3 322.624 16.0423
  -4  -6  -3 431.645 32.3200
   4   6   3 427.537 23.0932
  -5  -6  -3 178.621 27.9523
   5   6   3 178.340 20.8454
  -6  -6  -3 75.2798 140.009
   6   6   3 103.268 35.5968
   6  -7  -3 73.1528 10.3774
  -6   7   3 42.5680 21.4033
   5  -7  -3 181.422 25.6648
  -5   7   3 282.923 17.1034
   4  -7  -3 58.2685 19.3861
  -4   7   3 132.973 13.4255
   3  -7  -3 23.6582 3.93324
  -3   7   3 30.7243 5.31701
   2  -7  -3 152.783 12.3904
  -2   7   3 217.767 9.96711
   1  -7  -3 415.233 12.5556
  -1   7   3 391.232 11.4228
   0  -7  -3 53.5332 8.24161
   0   7   3 74.0503 5.55676
  -1  -7  -3 90.4075 7.30431
   1   7   3 82.5278 4.60155
  -2  -7  -3 170.799 9.72128
   2   7   3 146.093 11.8237
  -3  -7  -3 235.049 13.3285
   3   7   3 240.307 16.2107
  -4  -7  -3 131.438 29.8066
   4   7   3 124.906 20.4677
  -5  -7  -3 49.6341 27.6278
   5   7   3 63.1645 24.7534
   6  -8  -3 208.062 15.1557
  -6   8   3 231.023 22.6280
   5  -8  -3 350.790 27.9847
  -5   8   3 349.283 20.3430
   4  -8  -3 288.605 25.0214
  -4   8   3 224.210 18.0842
   3  -8  -3 522.250 19.3328
  -3   8   3 518.912 16.2011
   2  -8  -3 65.3244 11.0935
  -2   8   3 88.7313 9.46648
   1  -8  -3 228.977 10.2590
  -1   8   3 224.926 9.07298
   0  -8  -3 18.0326 7.77113
   0   8   3 26.7529 5.00655
  -1  -8  -3 6.11566 5.79723
   1   8   3 16.0832 5.29248
  -2  -8  -3 298.151 18.7252
   2   8   3 310.316 14.0636
  -3  -8  -3 65.5482 9.77198
   3   8   3 79.2516 18.0160
  -4  -8  -3 65.5085 28.3213
   4   8   3 78.2379 21.4191
  -5  -8  -3 113.052 30.2068
   5   8   3 97.4279 26.4162
   6  -9  -3 116.612 13.5420
  -6   9   3 96.2020 21.1119
   5  -9  -3 71.6377 26.2224
  -5   9   3 115.354 19.7283
   4  -9  -3 145.132 24.1043
  -4   9   3 111.206 17.2394
   3  -9  -3 365.909 23.6598
  -3   9   3 404.055 14.8325
   2  -9  -3 444.869 18.1918
  -2   9   3 442.494 15.0283
   1  -9  -3 279.455 11.7968
  -1   9   3 284.285 10.6349
   0  -9  -3 2444.66 95.4137
   0   9   3 2411.95 69.1700
  -1  -9  -3 403.720 14.7577
   1   9   3 409.851 12.8665
  -2  -9  -3 415.102 19.4705
   2   9   3 415.835 20.2463
  -3  -9  -3 322.859 18.7544
   3   9   3 344.251 23.2475
  -4  -9  -3 63.8214 29.4980
   4   9   3 70.4714 20.5836
  -5  -9  -3 65.7831 32.6730
   5   9   3 72.6566 26.5660
   5 -10  -3 363.367 30.9236
  -5  10   3 375.707 23.2106
   4 -10  -3 145.919 25.2706
  -4  10   3 93.6262 18.3383
   3 -10  -3 14.1909 47.9449
  -3  10   3 75.4097 17.8798
   2 -10  -3 148.876 17.0565
  -2  10   3 122.958 14.2496
   1 -10  -3 30.9838 7.22616
  -1  10   3 33.0991 6.30545
   0 -10  -3 39.5288 11.0773
   0  10   3 66.1096 9.03583
  -1 -10  -3 13.8613 7.32433
   1  10   3 22.0293 6.46039
  -2 -10  -3 364.072 19.8214
   2  10   3 364.800 18.5824
  -3 -10  -3 597.532 25.4054
   3  10   3 649.649 28.6584
  -4 -10  -3 49.5063 30.7107
   4  10   3 0.00000 23.3611
  -5 -10  -3 20.4015 42.9968
   5  10   3 127.323 17.4435
   5 -11  -3 5.61342 27.0742
  -5  11   3 76.5971 21.2650
   4 -11  -3 84.7596 26.1155
  -4  11   3 111.772 19.2727
   3 -11  -3 798.830 49.3674
  -3  11   3 718.612 21.7123
   2 -11  -3 673.809 27.0590
  -2  11   3 696.084 21.2690
   1 -11  -3 1071.24 27.7068
  -1  11   3 1071.96 25.5139
   0 -11  -3 556.681 29.5928
   0  11   3 623.590 22.9090
  -1 -11  -3 121.088 10.6959
   1  11   3 141.120 8.72769
  -2 -11  -3 13.8040 15.0436
   2  11   3 0.00000 15.1466
  -3 -11  -3 173.915 22.6168
   3  11   3 216.212 23.9853
  -4 -11  -3 38.8458 224.618
   4  11   3 36.2679 26.3038
   5 -12  -3 53.0812 31.6394
  -5  12   3 80.4180 29.2189
   4 -12  -3 47.8158 59.4658
  -4  12   3 54.8598 556.828
   3 -12  -3 115.025 47.3735
  -3  12   3 77.1587 18.6384
   2 -12  -3 8.90125 16.2798
  -2  12   3 13.2802 13.2528
   1 -12  -3 5.18005 7.99037
  -1  12   3 11.1674 7.10057
   0 -12  -3 66.3714 13.5215
   0  12   3 71.4778 11.2065
  -1 -12  -3 160.208 12.2014
   1  12   3 167.667 12.4498
  -2 -12  -3 168.268 19.1122
   2  12   3 169.098 18.4872
  -3 -12  -3 427.796 37.7969
   3  12   3 519.615 29.0252
  -4 -12  -3 82.8912 33.1187
   4  12   3 140.833 28.0429
   4 -13  -3 50.3570 29.4754
  -4  13   3 62.3548 25.0799
   3 -13  -3 97.2451 72.0638
  -3  13   3 73.7537 25.1551
   2 -13  -3 93.9759 18.3780
  -2  13   3 123.456 17.3306
   1 -13  -3 360.247 24.0552
  -1  13   3 359.298 15.3217
   0 -13  -3 88.2173 14.8245
   0  13   3 82.4879 12.1639
  -1 -13  -3 202.486 14.3163
   1  13   3 219.338 13.8163
  -2 -13  -3 242.301 19.8426
   2  13   3 225.942 19.5911
  -3 -13  -3 67.1838 35.0095
   3  13   3 27.7376 28.3518
   3 -14  -3 56.6980 79.1828
  -3  14   3 128.871 27.5833
   2 -14  -3 20.8462 17.7197
  -2  14   3 49.8527 17.8225
   1 -14  -3 0.75832 12.8405
  -1  14   3 14.0051 12.8913
   0 -14  -3 3.85581 14.0148
   0  14   3 15.9844 11.6822
  -1 -14  -3 79.3912 12.1018
   1  14   3 86.9062 12.8399
  -2 -14  -3 145.157 21.7985
   2  14   3 169.794 25.3183
   3  14   3 194.258 36.3497
   2 -15  -3 233.982 34.0120
  -2  15   3 315.702 21.4987
   1 -15  -3 125.734 17.1345
  -1  15   3 107.798 19.5709
   0 -15  -3 45.9372 16.3849
   0  15   3 41.3636 15.0934
  -1 -15  -3 51.1220 15.7337
   1  15   3 93.9902 15.5775
  -2 -15  -3 230.765 119.891
   2  15   3 173.495 52.5650
   1 -16  -3 140.137 73.5204
   0 -16  -3 83.5063 59.7566
   0  16   3 0.00000 31.3836
  -7   0   4 0.00000 33.8342
  -6   0   4 26.8718 17.3910
  -5   0   4 21.3769 16.8726
  -4   0   4 344.436 13.9338
  -3   0   4 195.841 6.62640
  -2   0   4 800.724 19.3218
  -1   0   4 1071.58 16.2188
   0   0   4 2776.67 82.6109
   1   0   4 1372.82 20.6940
   2   0   4 351.248 19.3653
   3   0   4 23.6625 8.46471
   4   0   4 656.153 34.3944
   5   0   4 10.7852 21.6817
   6   0   4 0.00000 30.9506
   7  -1  -4 4.97305 25.7404
  -7   1   4 31.7655 23.3608
   6  -1  -4 101.466 18.9538
  -6   1   4 109.607 18.8791
   5  -1  -4 732.092 22.7213
  -5   1   4 704.753 28.2448
   4  -1  -4 1544.26 35.6502
  -4   1   4 1481.00 49.7461
   3  -1  -4 195.599 6.59432
  -3   1   4 184.437 6.91418
   2  -1  -4 846.971 18.6812
  -2   1   4 810.342 20.1197
   1  -1  -4 756.507 12.5447
  -1   1   4 744.849 13.8082
   0  -1  -4 61.5650 5.72256
   0   1   4 0.00000 5.12323
  -1  -1  -4 187.568 5.78833
   1   1   4 194.483 7.06234
  -2  -1  -4 0.00207 15.9270
   2   1   4 0.29100 11.3246
  -3  -1  -4 307.630 13.8326
   3   1   4 313.705 18.9896
  -4  -1  -4 633.587 28.5400
   4   1   4 632.608 28.9882
  -5  -1  -4 64.6765 22.5071
   5   1   4 23.0024 30.3689
  -6  -1  -4 31.9394 24.3916
   6   1   4 22.2797 31.2397
   7  -2  -4 104.471 26.9111
  -7   2   4 26.9081 23.0817
   6  -2  -4 0.00000 14.1028
  -6   2   4 1.55502 15.8039
   5  -2  -4 279.161 27.0517
  -5   2   4 314.754 28.6039
   4  -2  -4 736.895 18.6609
  -4   2   4 672.345 22.1732
   3  -2  -4 507.914 12.1480
  -3   2   4 501.885 11.0734
   2  -2  -4 404.485 14.9423
  -2   2   4 370.833 17.2394
   1  -2  -4 249.877 6.02295
  -1   2   4 232.326 7.07178
   0  -2  -4 969.503 28.8498
   0   2   4 907.700 32.8164
  -1  -2  -4 954.064 18.5700
   1   2   4 915.083 17.4559
  -2  -2  -4 84.3635 8.79964
   2   2   4 80.4494 10.5855
  -3  -2  -4 392.836 15.1835
   3   2   4 434.390 20.8138
  -4  -2  -4 226.085 25.4048
   4   2   4 214.819 29.4338
  -5  -2  -4 0.00000 29.6805
   5   2   4 0.00000 30.4097
  -6  -2  -4 48.7481 32.9826
   6   2   4 104.608 32.0388
   7  -3  -4 140.303 29.3509
  -7   3   4 102.154 26.5966
   6  -3  -4 57.2715 16.9116
  -6   3   4 10.9324 15.8108
   5  -3  -4 777.111 23.1580
  -5   3   4 743.566 28.1257
   4  -3  -4 648.150 30.2995
  -4   3   4 564.179 33.7863
   3  -3  -4 449.859 12.2312
  -3   3   4 436.805 9.36411
   2  -3  -4 1290.80 23.3104
  -2   3   4 1329.52 23.7760
   1  -3  -4 936.461 16.0026
  -1   3   4 926.990 13.7180
   0  -3  -4 88.2290 5.50752
   0   3   4 114.459 5.89383
  -1  -3  -4 69.0521 4.30511
   1   3   4 76.3960 5.26843
  -2  -3  -4 96.4798 9.83083
   2   3   4 92.1059 13.1023
  -3  -3  -4 151.695 10.4514
   3   3   4 138.368 12.8597
  -4  -3  -4 86.7170 25.7549
   4   3   4 73.7231 18.2641
  -5  -3  -4 0.00001 29.1076
   5   3   4 21.0552 26.0511
   6   3   4 0.00000 66.0027
   7  -4  -4 41.7282 26.2414
  -7   4   4 1.73083 23.0695
   6  -4  -4 8.92963 15.4926
  -6   4   4 9.60869 16.7528
   5  -4  -4 0.00000 24.7371
  -5   4   4 0.00000 26.4785
   4  -4  -4 153.256 17.3296
  -4   4   4 112.924 8.57506
   3  -4  -4 20.0306 5.24028
  -3   4   4 24.0686 3.76752
   2  -4  -4 7.57215 6.33967
  -2   4   4 0.00000 4.94447
   1  -4  -4 2059.18 31.0272
  -1   4   4 2042.86 27.0815
   0  -4  -4 681.971 21.4543
   0   4   4 652.240 21.3157
  -1  -4  -4 82.7879 4.13385
   1   4   4 84.0102 5.26568
  -2  -4  -4 393.387 25.1850
   2   4   4 467.910 17.6504
  -3  -4  -4 29.0744 23.9101
   3   4   4 13.5468 11.1675
  -4  -4  -4 5.51501 23.9269
   4   4   4 0.00000 16.1536
  -5  -4  -4 0.00000 30.0790
   5   4   4 0.00000 28.7978
   6  -5  -4 258.369 17.2252
  -6   5   4 288.141 22.3560
   5  -5  -4 693.210 29.2935
  -5   5   4 741.954 24.6085
   4  -5  -4 218.143 20.4851
  -4   5   4 297.193 14.2738
   3  -5  -4 3.85496 3.77807
  -3   5   4 0.46201 3.26332
   2  -5  -4 543.141 16.6426
  -2   5   4 524.688 13.3045
   1  -5  -4 978.876 18.6579
  -1   5   4 996.266 16.5099
   0  -5  -4 129.454 8.08135
   0   5   4 147.954 7.84889
  -1  -5  -4 159.353 5.57740
   1   5   4 150.325 6.57120
  -2  -5  -4 65.6873 9.54975
   2   5   4 70.9984 10.2442
  -3  -5  -4 197.368 15.5135
   3   5   4 216.243 14.2396
  -4  -5  -4 376.788 31.1910
   4   5   4 495.238 21.5398
  -5  -5  -4 468.704 33.5468
   5   5   4 367.689 28.2649
   6  -6  -4 56.9672 11.8574
  -6   6   4 19.8291 18.1147
   5  -6  -4 6.54011 19.6811
  -5   6   4 68.8391 14.5608
   4  -6  -4 66.7749 21.0111
  -4   6   4 33.6866 12.7751
   3  -6  -4 66.2520 6.16646
  -3   6   4 68.1372 5.28414
   2  -6  -4 0.00000 13.3816
  -2   6   4 21.6780 10.0435
   1  -6  -4 834.024 16.2184
  -1   6   4 830.451 15.1231
   0  -6  -4 931.396 28.4842
   0   6   4 950.222 27.0228
  -1  -6  -4 79.2129 4.75136
   1   6   4 78.1330 5.54574
  -2  -6  -4 173.162 11.4615
   2   6   4 179.262 13.3799
  -3  -6  -4 4.29469 8.16383
   3   6   4 12.0521 9.91033
  -4  -6  -4 7.73957 27.4185
   4   6   4 20.1290 23.6560
  -5  -6  -4 0.00002 31.0754
   5   6   4 18.4095 27.0338
   6  -7  -4 91.2942 11.8738
  -6   7   4 112.385 20.6099
   5  -7  -4 174.496 27.9209
  -5   7   4 217.176 16.2963
   4  -7  -4 461.752 29.9088
  -4   7   4 504.194 19.4123
   3  -7  -4 25.0252 5.75463
  -3   7   4 26.9430 5.62636
   2  -7  -4 126.140 12.9919
  -2   7   4 107.600 10.1372
   1  -7  -4 128.263 6.53797
  -1   7   4 140.014 5.61993
   0  -7  -4 25.5088 9.56244
   0   7   4 79.6590 7.73393
  -1  -7  -4 29.2763 4.45677
   1   7   4 31.7914 3.47377
  -2  -7  -4 435.831 17.3657
   2   7   4 423.482 16.0714
  -3  -7  -4 159.385 22.1219
   3   7   4 205.955 23.3689
  -4  -7  -4 318.096 33.4805
   4   7   4 373.324 27.6574
  -5  -7  -4 356.765 33.8715
   5   7   4 351.979 30.6925
   6  -8  -4 88.4109 12.4619
  -6   8   4 64.6617 30.6563
   5  -8  -4 0.00000 26.3672
  -5   8   4 1.22180 17.5934
   4  -8  -4 152.582 23.3623
  -4   8   4 166.548 16.7185
   3  -8  -4 44.5555 6.89709
  -3   8   4 67.9048 7.66477
   2  -8  -4 265.725 16.5940
  -2   8   4 274.380 14.9994
   1  -8  -4 708.480 17.6247
  -1   8   4 708.533 16.5995
   0  -8  -4 834.538 41.9629
   0   8   4 1047.08 32.3826
  -1  -8  -4 125.621 8.62655
   1   8   4 143.584 7.31823
  -2  -8  -4 118.147 14.7069
   2   8   4 155.490 11.8622
  -3  -8  -4 58.5705 11.1984
   3   8   4 127.814 27.0749
  -4  -8  -4 41.9299 33.6314
   4   8   4 44.4554 25.9895
  -5  -8  -4 22.9676 34.7147
   5   8   4 81.7085 34.7044
   6  -9  -4 370.336 19.8090
  -6   9   4 352.571 24.7175
   5  -9  -4 61.4470 25.8075
  -5   9   4 109.889 18.9411
   4  -9  -4 257.430 25.5051
  -4   9   4 282.509 18.9267
   3  -9  -4 94.2546 24.1989
  -3   9   4 123.223 10.2343
   2  -9  -4 121.704 17.0745
  -2   9   4 140.505 13.4646
   1  -9  -4 51.8732 7.83512
  -1   9   4 64.6760 6.84794
   0  -9  -4 357.047 19.3023
   0   9   4 322.853 14.3326
  -1  -9  -4 186.232 11.2473
   1   9   4 185.878 10.8579
  -2  -9  -4 8.64680 18.0294
   2   9   4 15.5335 18.2232
  -3  -9  -4 130.354 14.2567
   3   9   4 135.131 24.0601
  -4  -9  -4 183.428 35.9035
   4   9   4 257.094 28.4875
   5 -10  -4 49.2816 27.4751
  -5  10   4 71.9167 20.1174
   4 -10  -4 315.315 29.6674
  -4  10   4 364.930 22.3000
   3 -10  -4 193.162 36.4380
  -3  10   4 339.790 18.0223
   2 -10  -4 99.6992 16.9480
  -2  10   4 143.295 14.3088
   1 -10  -4 780.660 23.5176
  -1  10   4 816.562 20.5759
   0 -10  -4 356.455 23.1241
   0  10   4 487.030 17.3084
  -1 -10  -4 176.282 11.8557
   1  10   4 168.228 10.8012
  -2 -10  -4 170.711 17.3715
   2  10   4 178.324 17.1545
  -3 -10  -4 32.8077 12.4219
   3  10   4 11.7677 22.7607
  -4 -10  -4 6.79732 230.177
   4  10   4 24.9454 31.2861
   5 -11  -4 188.517 32.0089
  -5  11   4 196.877 24.9142
   4 -11  -4 73.0796 59.2935
  -4  11   4 93.7370 535.179
   3 -11  -4 269.472 33.5634
  -3  11   4 313.555 19.5149
   2 -11  -4 65.1980 14.7384
  -2  11   4 85.7221 12.7934
   1 -11  -4 44.2697 8.94832
  -1  11   4 41.7166 7.80141
   0 -11  -4 218.774 18.1778
   0  11   4 267.224 14.5123
  -1 -11  -4 19.5926 8.93912
   1  11   4 29.9936 8.64669
  -2 -11  -4 77.6471 17.9749
   2  11   4 134.987 18.3561
  -3 -11  -4 6.33371 34.7019
   3  11   4 44.9445 24.6926
  -4 -11  -4 76.0265 38.3781
   4  11   4 89.4254 33.3091
   4 -12  -4 80.8696 26.4186
  -4  12   4 13.1955 23.9742
   3 -12  -4 97.3008 30.7277
  -3  12   4 168.172 19.7426
   2 -12  -4 150.848 18.0922
  -2  12   4 146.096 15.2218
   1 -12  -4 52.9588 12.5073
  -1  12   4 37.5162 8.17396
   0 -12  -4 272.210 20.2947
   0  12   4 291.645 16.1739
  -1 -12  -4 245.673 14.7598
   1  12   4 226.791 13.5763
  -2 -12  -4 36.8198 17.5195
   2  12   4 17.3134 19.0429
  -3 -12  -4 241.513 38.9263
   3  12   4 122.268 29.6015
   4 -13  -4 127.788 31.5315
  -4  13   4 121.561 20.1298
   3 -13  -4 26.7182 32.4836
  -3  13   4 28.2259 22.7938
   2 -13  -4 26.8998 17.9120
  -2  13   4 13.5622 15.2895
   1 -13  -4 33.9100 13.0130
  -1  13   4 21.1958 9.40076
   0 -13  -4 107.178 15.9501
   0  13   4 88.6871 13.3861
  -1 -13  -4 36.4129 13.7079
   1  13   4 16.8701 10.8993
  -2 -13  -4 177.429 22.3751
   2  13   4 291.005 23.7032
  -3 -13  -4 227.437 55.6459
   3  13   4 260.497 17.7625
   3 -14  -4 65.4515 34.8561
  -3  14   4 47.5632 33.5883
   2 -14  -4 154.643 32.4695
  -2  14   4 190.828 19.9669
   1 -14  -4 116.834 15.9726
  -1  14   4 116.668 12.0993
   0 -14  -4 82.6393 17.6086
   0  14   4 127.338 15.0809
  -1 -14  -4 65.1697 14.8216
   1  14   4 70.4664 13.7432
  -2 -14  -4 96.4691 21.6774
   2  14   4 109.108 26.4737
   2 -15  -4 122.768 21.7987
  -2  15   4 83.0553 16.9795
   1 -15  -4 20.8465 20.8618
  -1  15   4 37.4049 13.2531
   0 -15  -4 23.4877 16.3874
   0  15   4 5.85029 14.6626
  -1 -15  -4 86.6796 66.8598
   1  15   4 86.7629 21.7622
  -7   0   5 45.8045 22.6801
  -6   0   5 9.57529 16.8771
  -5   0   5 285.358 19.9329
  -4   0   5 279.267 18.8342
  -3   0   5 65.6241 5.50485
  -2   0   5 421.668 14.9839
  -1   0   5 14.8200 3.15509
   0   0   5 84.8554 7.34048
   1   0   5 766.302 14.3966
   2   0   5 116.127 15.3361
   3   0   5 128.239 14.6880
   4   0   5 9.77097 23.5859
   5   0   5 220.117 25.0031
   7  -1  -5 17.7299 22.4288
  -7   1   5 36.1280 23.6852
   6  -1  -5 79.3206 19.1218
  -6   1   5 85.1712 18.6052
   5  -1  -5 383.709 21.0686
  -5   1   5 392.433 27.0392
   4  -1  -5 716.557 21.1547
  -4   1   5 683.646 25.2168
   3  -1  -5 1566.62 26.5979
  -3   1   5 1515.31 26.0774
   2  -1  -5 269.205 8.66848
  -2   1   5 271.675 10.1358
   1  -1  -5 1066.49 21.3858
  -1   1   5 1045.33 19.2964
   0  -1  -5 1488.33 48.2572
   0   1   5 1285.38 55.3682
  -1  -1  -5 863.493 15.8673
   1   1   5 817.655 18.7525
  -2  -1  -5 151.873 14.7715
   2   1   5 135.094 15.1397
  -3  -1  -5 480.146 29.3131
   3   1   5 524.488 34.3783
  -4  -1  -5 88.3543 30.8907
   4   1   5 0.00000 24.0736
  -5  -1  -5 26.4871 26.8669
   5   1   5 0.00000 30.2988
   7  -2  -5 92.6189 30.4694
  -7   2   5 143.853 29.4893
   6  -2  -5 85.4822 18.0555
  -6   2   5 82.6562 16.8233
   5  -2  -5 924.345 26.9916
  -5   2   5 869.973 31.1297
   4  -2  -5 541.234 23.3072
  -4   2   5 566.468 26.5356
   3  -2  -5 172.792 9.14233
  -3   2   5 194.252 5.89110
   2  -2  -5 94.7649 7.43081
  -2   2   5 83.9405 6.99768
   1  -2  -5 69.9411 3.92861
  -1   2   5 70.9698 5.13390
   0  -2  -5 748.660 27.2217
   0   2   5 769.932 28.8094
  -1  -2  -5 236.099 7.79385
   1   2   5 235.954 9.23476
  -2  -2  -5 119.540 19.2361
   2   2   5 90.4777 16.3854
  -3  -2  -5 39.0983 13.3571
   3   2   5 44.2623 19.3601
  -4  -2  -5 302.887 31.5979
   4   2   5 195.030 25.4056
  -5  -2  -5 237.755 35.2377
   5   2   5 117.953 30.6867
   7  -3  -5 52.3915 459.659
   6  -3  -5 37.6529 17.4689
  -6   3   5 46.0328 18.7228
   5  -3  -5 59.0214 17.0092
  -5   3   5 67.5894 16.7106
   4  -3  -5 185.686 16.5796
  -4   3   5 173.297 19.7523
   3  -3  -5 71.6758 8.49359
  -3   3   5 78.2932 4.82985
   2  -3  -5 355.633 10.5124
  -2   3   5 328.450 11.0897
   1  -3  -5 84.1214 4.51700
  -1   3   5 87.9718 4.33824
   0  -3  -5 1019.92 30.6830
   0   3   5 980.138 32.2664
  -1  -3  -5 254.496 7.65640
   1   3   5 259.126 8.59356
  -2  -3  -5 144.877 17.3828
   2   3   5 75.7251 12.1849
  -3  -3  -5 74.6010 20.9638
   3   3   5 68.0060 18.6822
  -4  -3  -5 72.3610 30.2755
   4   3   5 40.9981 24.5154
  -5  -3  -5 0.00000 34.9791
   5   3   5 0.94862 32.5629
   6  -4  -5 229.515 25.7770
  -6   4   5 299.438 25.9337
   5  -4  -5 437.623 24.1602
  -5   4   5 455.625 24.1243
   4  -4  -5 1035.90 30.4939
  -4   4   5 1007.03 34.6799
   3  -4  -5 119.795 11.8063
  -3   4   5 108.404 5.39537
   2  -4  -5 420.510 14.3588
  -2   4   5 463.445 13.7080
   1  -4  -5 272.332 7.88025
  -1   4   5 266.745 7.01612
   0  -4  -5 77.6887 6.45527
   0   4   5 72.9758 7.44155
  -1  -4  -5 116.760 5.83705
   1   4   5 117.996 6.28877
  -2  -4  -5 12.0685 12.0194
   2   4   5 0.00000 11.8362
  -3  -4  -5 64.6003 24.7538
   3   4   5 154.895 18.4971
  -4  -4  -5 217.633 31.7034
   4   4   5 171.688 26.8940
  -5  -4  -5 140.745 35.5456
   5   4   5 159.610 31.0585
   6  -5  -5 190.889 16.4020
  -6   5   5 197.019 23.1063
   5  -5  -5 0.00000 18.1546
  -5   5   5 78.8738 17.5602
   4  -5  -5 407.165 22.6355
  -4   5   5 496.309 18.4637
   3  -5  -5 8.63411 4.87434
  -3   5   5 14.3663 4.56493
   2  -5  -5 183.976 11.4135
  -2   5   5 189.591 7.43971
   1  -5  -5 89.3247 5.57270
  -1   5   5 77.3930 3.86571
   0  -5  -5 570.632 21.2797
   0   5   5 582.442 19.9078
  -1  -5  -5 527.191 11.9479
   1   5   5 511.620 12.9855
  -2  -5  -5 54.8787 16.6723
   2   5   5 49.7066 17.4456
  -3  -5  -5 79.2597 23.7911
   3   5   5 127.651 19.5694
  -4  -5  -5 79.5957 28.7265
   4   5   5 106.097 23.9505
  -5  -5  -5 69.5208 34.2783
   5   5   5 0.00000 31.8039
   6  -6  -5 135.361 15.0412
  -6   6   5 90.2469 20.2142
   5  -6  -5 117.498 22.1454
  -5   6   5 142.163 22.5467
   4  -6  -5 205.237 28.2783
  -4   6   5 247.292 19.9896
   3  -6  -5 384.618 15.8963
  -3   6   5 405.298 11.8206
   2  -6  -5 142.721 14.4073
  -2   6   5 171.765 9.57205
   1  -6  -5 223.338 8.37056
  -1   6   5 224.655 5.78038
   0  -6  -5 246.525 12.2441
   0   6   5 263.713 11.7772
  -1  -6  -5 264.765 9.39158
   1   6   5 272.431 9.78100
  -2  -6  -5 39.4039 17.6128
   2   6   5 13.8185 18.9143
  -3  -6  -5 23.7539 28.0095
   3   6   5 106.263 19.8129
  -4  -6  -5 347.992 33.9322
   4   6   5 397.671 30.5585
  -5  -6  -5 200.114 21.5287
   5   6   5 210.399 18.4594
   6  -7  -5 16.5783 13.9822
  -6   7   5 0.00000 18.9585
   5  -7  -5 0.00000 24.8150
  -5   7   5 25.8972 22.1594
   4  -7  -5 354.310 28.8306
  -4   7   5 424.387 21.7524
   3  -7  -5 488.534 20.3170
  -3   7   5 511.912 13.5962
   2  -7  -5 57.4742 14.6918
  -2   7   5 40.3864 10.5837
   1  -7  -5 654.475 17.3385
  -1   7   5 676.404 13.5127
   0  -7  -5 1509.64 47.8116
   0   7   5 1382.88 44.8495
  -1  -7  -5 547.275 13.8943
   1   7   5 575.993 14.5567
  -2  -7  -5 186.657 16.0840
   2   7   5 175.876 18.7571
  -3  -7  -5 60.2378 42.8422
   3   7   5 80.8209 36.6871
  -4  -7  -5 61.6663 32.9850
   4   7   5 72.2927 26.7474
   6  -8  -5 109.408 17.1149
  -6   8   5 119.023 16.7030
   5  -8  -5 264.212 29.1447
  -5   8   5 260.052 29.3087
   4  -8  -5 71.7658 26.3578
  -4   8   5 79.0376 19.9109
   3  -8  -5 182.891 25.5554
  -3   8   5 218.786 10.8424
   2  -8  -5 44.5729 13.2117
  -2   8   5 79.0516 10.6848
   1  -8  -5 27.0036 6.52499
  -1   8   5 30.2951 5.55823
   0  -8  -5 0.00000 8.99700
   0   8   5 34.0272 8.76132
  -1  -8  -5 203.716 10.5611
   1   8   5 208.848 9.76110
  -2  -8  -5 122.368 21.8076
   2   8   5 134.870 24.4945
  -3  -8  -5 147.080 33.7707
   3   8   5 83.4583 30.1814
  -4  -8  -5 249.350 264.412
   4   8   5 301.178 44.4513
   5  -9  -5 0.00000 27.8345
  -5   9   5 29.6563 22.4641
   4  -9  -5 168.701 27.8629
  -4   9   5 211.268 19.8317
   3  -9  -5 542.362 40.0602
  -3   9   5 708.555 27.2876
   2  -9  -5 450.487 20.5903
  -2   9   5 476.754 17.8969
   1  -9  -5 628.597 20.7088
  -1   9   5 627.102 15.9430
   0  -9  -5 245.040 19.5773
   0   9   5 342.192 16.8275
  -1  -9  -5 125.001 9.72491
   1   9   5 109.915 9.23169
  -2  -9  -5 60.4251 42.1099
   2   9   5 64.8115 49.5194
  -3  -9  -5 0.00000 35.3025
   3   9   5 14.2214 26.2126
  -4  -9  -5 0.00000 235.419
   4   9   5 4.30220 39.7841
   5 -10  -5 0.00000 32.3421
  -5  10   5 54.3579 23.7899
   4 -10  -5 279.665 33.5539
  -4  10   5 306.402 22.2723
   3 -10  -5 37.4958 35.9178
  -3  10   5 52.6575 17.1982
   2 -10  -5 17.3237 15.7992
  -2  10   5 44.2011 14.2756
   1 -10  -5 379.034 16.8685
  -1  10   5 367.454 14.0491
   0 -10  -5 3.29314 12.2774
   0  10   5 27.3685 11.3982
  -1 -10  -5 15.5901 7.77935
   1  10   5 20.8351 8.90001
  -2 -10  -5 4.19529 17.2326
   2  10   5 0.00000 18.5989
  -3 -10  -5 100.220 17.0370
   3  10   5 97.7074 144.179
   4 -11  -5 119.409 63.8616
  -4  11   5 108.447 552.254
   3 -11  -5 0.00000 31.4597
  -3  11   5 41.7216 20.2982
   2 -11  -5 150.018 18.3078
  -2  11   5 174.665 15.8710
   1 -11  -5 178.570 13.2527
  -1  11   5 167.063 9.94739
   0 -11  -5 139.926 17.5960
   0  11   5 167.315 15.2301
  -1 -11  -5 279.607 15.6020
   1  11   5 224.770 13.6393
  -2 -11  -5 231.188 22.8188
   2  11   5 207.108 23.1370
  -3 -11  -5 0.00000 40.7447
   3  11   5 17.8303 35.0359
   4 -12  -5 146.234 32.1986
  -4  12   5 173.151 23.2528
   3 -12  -5 0.00000 36.6332
  -3  12   5 51.1814 23.5441
   2 -12  -5 23.3537 25.9001
  -2  12   5 20.8540 15.5976
   1 -12  -5 4.18084 9.38887
  -1  12   5 8.31971 7.80138
   0 -12  -5 55.1421 16.0437
   0  12   5 27.2529 14.5358
  -1 -12  -5 134.895 15.9453
   1  12   5 145.113 12.6040
  -2 -12  -5 96.8622 22.9395
   2  12   5 130.592 23.9718
   3 -13  -5 70.9043 35.3149
  -3  13   5 65.3325 26.1452
   2 -13  -5 167.094 33.2234
  -2  13   5 213.948 18.1863
   1 -13  -5 66.2634 15.3004
  -1  13   5 54.6490 11.0346
   0 -13  -5 40.4877 17.2837
   0  13   5 68.5519 15.7842
  -1 -13  -5 74.5572 14.5299
   1  13   5 49.6377 12.4432
  -2 -13  -5 247.221 26.3025
   2  13   5 288.153 30.1522
   2 -14  -5 8.25635 31.1005
  -2  14   5 0.00000 22.1376
   1 -14  -5 34.3896 15.7321
  -1  14   5 23.2261 11.0546
   0 -14  -5 94.1212 18.1126
   0  14   5 18.5328 16.4178
  -1 -14  -5 196.221 38.7799
   1  14   5 151.993 19.2750
  -6   0   6 67.7498 18.0444
  -5   0   6 222.613 20.9193
  -4   0   6 799.258 31.4946
  -3   0   6 687.856 20.1433
  -2   0   6 189.420 9.30807
  -1   0   6 460.658 10.7288
   0   0   6 1576.74 57.2514
   1   0   6 542.174 16.4475
   2   0   6 266.204 20.5009
   3   0   6 504.028 24.1145
   4   0   6 62.0633 30.2535
   5   0   6 31.5996 27.4957
   6  -1  -6 207.381 21.1725
  -6   1   6 197.221 21.5801
   5  -1  -6 263.976 21.2176
  -5   1   6 277.161 20.8679
   4  -1  -6 307.977 24.4969
  -4   1   6 251.941 24.4163
   3  -1  -6 182.494 14.1501
  -3   1   6 161.757 11.7804
   2  -1  -6 31.8620 8.64675
  -2   1   6 0.00000 8.75100
   1  -1  -6 64.9437 5.23807
  -1   1   6 67.8408 4.37411
   0  -1  -6 242.592 11.6694
   0   1   6 148.391 11.5547
  -1  -1  -6 92.9928 5.86138
   1   1   6 97.8268 8.13292
  -2  -1  -6 336.175 19.1119
   2   1   6 414.143 30.6776
  -3  -1  -6 178.355 17.1478
   3   1   6 194.774 51.4963
  -4  -1  -6 61.5128 31.4588
   4   1   6 61.5486 28.7739
  -5  -1  -6 101.044 29.7898
   5   1   6 132.662 34.1382
   6  -2  -6 70.1518 19.1651
  -6   2   6 99.9594 20.2054
   5  -2  -6 69.7365 16.0434
  -5   2   6 64.5251 20.3345
   4  -2  -6 517.848 22.6001
  -4   2   6 504.987 23.0870
   3  -2  -6 299.386 14.5973
  -3   2   6 285.722 11.0194
   2  -2  -6 432.610 12.8518
  -2   2   6 381.611 14.5013
   1  -2  -6 644.297 14.8668
  -1   2   6 630.567 15.7245
   0  -2  -6 748.513 28.2306
   0   2   6 745.889 32.4831
  -1  -2  -6 476.520 12.6259
   1   2   6 497.347 15.9973
  -2  -2  -6 96.7904 15.7381
   2   2   6 104.543 16.6363
  -3  -2  -6 192.217 26.3131
   3   2   6 131.005 34.1391
  -4  -2  -6 97.3004 31.3241
   4   2   6 67.5718 28.6103
  -5  -2  -6 0.00000 143.742
   5   2   6 0.00000 168.538
   6  -3  -6 291.436 25.7081
  -6   3   6 299.790 25.5704
   5  -3  -6 359.304 20.7039
  -5   3   6 391.420 24.2634
   4  -3  -6 108.508 17.7059
  -4   3   6 125.443 17.7624
   3  -3  -6 70.0732 9.39413
  -3   3   6 33.8158 6.39009
   2  -3  -6 149.300 8.77781
  -2   3   6 100.386 10.0531
   1  -3  -6 119.653 6.70004
  -1   3   6 122.805 5.95341
   0  -3  -6 17.3043 7.58615
   0   3   6 22.8333 8.17532
  -1  -3  -6 580.572 15.7661
   1   3   6 594.632 16.0195
  -2  -3  -6 275.232 18.2880
   2   3   6 259.803 20.2066
  -3  -3  -6 124.525 27.7897
   3   3   6 174.881 33.1061
  -4  -3  -6 313.645 38.8163
   4   3   6 424.761 43.5166
   6  -4  -6 1.40487 18.0727
  -6   4   6 36.3717 19.3492
   5  -4  -6 25.9171 19.4849
  -5   4   6 74.9083 23.6293
   4  -4  -6 81.5663 17.2487
  -4   4   6 115.713 17.5153
   3  -4  -6 691.290 20.8316
  -3   4   6 621.153 18.6896
   2  -4  -6 136.420 8.99070
  -2   4   6 114.127 8.46448
   1  -4  -6 194.305 7.76461
  -1   4   6 173.579 7.44397
   0  -4  -6 270.374 11.4519
   0   4   6 227.430 12.7664
  -1  -4  -6 94.0174 8.81059
   1   4   6 98.5577 9.08105
  -2  -4  -6 293.993 16.2932
   2   4   6 306.142 21.2255
  -3  -4  -6 18.9891 26.8230
   3   4   6 49.3610 25.3588
  -4  -4  -6 0.00000 34.4642
   4   4   6 0.00000 34.4907
   6  -5  -6 45.4974 12.7275
  -6   5   6 64.5622 19.8623
   5  -5  -6 160.890 22.8694
  -5   5   6 141.633 17.1340
   4  -5  -6 17.5826 19.6530
  -4   5   6 96.6320 19.4569
   3  -5  -6 24.6410 15.0889
  -3   5   6 0.00000 5.79931
   2  -5  -6 592.093 17.7489
  -2   5   6 558.253 14.2887
   1  -5  -6 56.6958 6.14895
  -1   5   6 59.7601 5.32054
   0  -5  -6 87.9546 9.68147
   0   5   6 163.090 9.54760
  -1  -5  -6 807.371 21.8004
   1   5   6 810.977 21.4760
  -2  -5  -6 315.479 18.4612
   2   5   6 299.107 22.2642
  -3  -5  -6 63.6414 49.9181
   3   5   6 89.0515 25.5325
  -4  -5  -6 125.284 39.2353
   4   5   6 105.256 37.1545
   6  -6  -6 63.0506 13.2942
  -6   6   6 65.8239 15.2898
   5  -6  -6 64.3320 22.4988
  -5   6   6 96.4057 17.3617
   4  -6  -6 212.302 28.3993
  -4   6   6 222.622 19.9056
   3  -6  -6 611.244 26.5483
  -3   6   6 588.676 19.3021
   2  -6  -6 713.169 24.3369
  -2   6   6 665.956 17.1228
   1  -6  -6 51.5868 6.97867
  -1   6   6 51.1837 5.51924
   0  -6  -6 155.265 11.3563
   0   6   6 214.791 10.7033
  -1  -6  -6 51.2552 6.87853
   1   6   6 48.4422 8.58529
  -2  -6  -6 27.2059 22.6547
   2   6   6 17.1922 21.0860
  -3  -6  -6 68.2150 36.1871
   3   6   6 32.9770 32.1635
  -4  -6  -6 0.00000 35.1321
   4   6   6 57.4243 33.4284
   5  -7  -6 0.00000 27.0299
  -5   7   6 26.7946 17.5758
   4  -7  -6 0.00000 29.4950
  -4   7   6 31.9824 22.2763
   3  -7  -6 46.6855 27.9140
  -3   7   6 98.0185 12.8292
   2  -7  -6 94.5589 16.1519
  -2   7   6 68.8090 11.0931
   1  -7  -6 613.678 17.0253
  -1   7   6 558.706 14.2511
   0  -7  -6 263.253 13.6963
   0   7   6 258.494 13.6822
  -1  -7  -6 107.799 9.88764
   1   7   6 102.359 10.4317
  -2  -7  -6 139.039 24.2003
   2   7   6 105.341 22.8006
  -3  -7  -6 252.798 39.5103
   3   7   6 124.292 33.6439
  -4  -7  -6 129.202 257.735
   4   7   6 141.973 45.0108
   5  -8  -6 97.6767 29.2046
  -5   8   6 19.6192 19.6185
   4  -8  -6 274.820 30.7472
  -4   8   6 271.633 28.7117
   3  -8  -6 68.6987 31.3665
  -3   8   6 234.152 14.1907
   2  -8  -6 567.493 25.0517
  -2   8   6 578.072 20.7392
   1  -8  -6 276.580 14.5605
  -1   8   6 301.405 10.7863
   0  -8  -6 78.6333 13.9107
   0   8   6 37.1415 11.5756
  -1  -8  -6 207.680 12.2429
   1   8   6 213.796 11.6504
  -2  -8  -6 21.0293 17.2652
   2   8   6 18.1330 23.4210
  -3  -8  -6 41.9254 36.7741
   3   8   6 0.00000 33.6337
   5  -9  -6 0.00000 29.1936
  -5   9   6 73.5221 20.0581
   4  -9  -6 48.9873 30.6378
  -4   9   6 185.566 28.5232
   3  -9  -6 26.7045 27.6747
  -3   9   6 54.6725 17.1756
   2  -9  -6 47.8960 20.3879
  -2   9   6 31.8537 17.3390
   1  -9  -6 75.6883 10.5814
  -1   9   6 66.0997 7.53960
   0  -9  -6 94.6368 14.9856
   0   9   6 75.4307 12.7915
  -1  -9  -6 76.5609 10.7744
   1   9   6 88.8419 10.5965
  -2  -9  -6 77.2612 51.0045
   2   9   6 40.2586 67.7125
  -3  -9  -6 99.2323 38.0555
   3   9   6 0.00000 35.2922
   4 -10  -6 66.7682 75.9601
  -4  10   6 21.5639 565.932
   3 -10  -6 80.7773 30.0140
  -3  10   6 113.458 18.9526
   2 -10  -6 76.5170 16.2342
  -2  10   6 65.4879 14.7689
   1 -10  -6 89.1306 11.7887
  -1  10   6 101.039 9.42062
   0 -10  -6 186.985 19.7461
   0  10   6 265.474 17.1172
  -1 -10  -6 84.4503 11.4964
   1  10   6 121.804 12.2283
  -2 -10  -6 95.3050 20.9601
   2  10   6 58.2461 26.2880
  -3 -10  -6 12.0752 15.6034
   3  10   6 1.56418 11.2773
   4 -11  -6 93.9467 34.7010
  -4  11   6 73.2843 35.6912
   3 -11  -6 185.506 35.3760
  -3  11   6 177.989 25.3348
   2 -11  -6 60.7497 28.0125
  -2  11   6 24.9285 21.6833
   1 -11  -6 16.4706 10.1387
  -1  11   6 21.3985 8.71666
   0 -11  -6 14.8947 15.4949
   0  11   6 61.0717 13.9041
  -1 -11  -6 4.14524 12.0982
   1  11   6 12.2959 9.98971
  -2 -11  -6 57.5764 24.9917
   2  11   6 68.4496 31.2331
   3 -12  -6 191.405 39.5003
  -3  12   6 78.4981 27.9222
   2 -12  -6 47.4697 31.6463
  -2  12   6 112.261 23.3094
   1 -12  -6 198.280 15.3473
  -1  12   6 206.419 14.1688
   0 -12  -6 158.638 19.4520
   0  12   6 145.135 17.6479
  -1 -12  -6 159.944 17.3894
   1  12   6 133.169 13.4774
   2 -13  -6 80.3771 35.9754
  -2  13   6 83.6797 25.3062
   1 -13  -6 70.1339 20.3134
  -1  13   6 73.2685 10.9811
   0 -13  -6 13.5722 16.8292
   0  13   6 0.00000 15.8639
  -1 -13  -6 165.328 69.3623
  -6   0   7 545.674 34.9670
  -5   0   7 124.024 24.4521
  -4   0   7 47.6256 19.0414
  -3   0   7 2.76463 11.7507
  -2   0   7 17.4670 13.0440
  -1   0   7 11.8195 5.43125
   0   0   7 157.934 14.0834
   1   0   7 246.125 14.1758
   2   0   7 23.6021 27.4358
   3   0   7 37.4923 36.9924
   4   0   7 207.381 40.5773
   6  -1  -7 44.2572 20.6281
  -6   1   7 30.3430 19.8221
   5  -1  -7 127.342 26.4107
  -5   1   7 50.4450 24.6678
   4  -1  -7 311.121 22.4561
  -4   1   7 277.485 23.1805
   3  -1  -7 439.788 22.3546
  -3   1   7 442.050 22.5725
   2  -1  -7 62.0423 15.0163
  -2   1   7 61.6588 14.1168
   1  -1  -7 395.072 16.0969
  -1   1   7 403.882 13.4926
   0  -1  -7 361.303 19.3388
   0   1   7 288.976 20.1386
  -1  -1  -7 38.2363 10.3817
   1   1   7 7.45373 8.60237
  -2  -1  -7 169.625 19.8840
   2   1   7 45.3430 25.9811
  -3  -1  -7 139.373 27.9814
   3   1   7 111.365 40.7802
  -4  -1  -7 23.8331 36.6569
   4   1   7 0.00000 40.3233
   6  -2  -7 114.668 21.6022
  -6   2   7 162.488 28.6578
   5  -2  -7 102.848 27.2796
  -5   2   7 145.325 22.9178
   4  -2  -7 83.1102 20.7261
  -4   2   7 4.12482 21.4079
   3  -2  -7 103.871 15.2593
  -3   2   7 59.1237 11.6163
   2  -2  -7 35.5971 15.5988
  -2   2   7 48.8774 12.4032
   1  -2  -7 27.6828 7.79465
  -1   2   7 31.7189 5.16194
   0  -2  -7 245.257 14.0017
   0   2   7 176.371 17.4239
  -1  -2  -7 269.097 14.0719
   1   2   7 276.882 15.2985
  -2  -2  -7 520.112 25.5093
   2   2   7 440.928 27.0092
  -3  -2  -7 11.6129 34.0062
   3   2   7 1.69294 60.0732
  -4  -2  -7 73.7937 39.1249
   4   2   7 80.6653 40.5463
   6  -3  -7 154.714 17.9042
  -6   3   7 131.968 15.5521
   5  -3  -7 123.608 21.1925
  -5   3   7 163.297 20.5958
   4  -3  -7 190.692 19.9117
  -4   3   7 146.663 22.0726
   3  -3  -7 207.512 14.2327
  -3   3   7 222.674 14.1733
   2  -3  -7 287.776 16.7313
  -2   3   7 236.065 13.6149
   1  -3  -7 173.697 10.3143
  -1   3   7 178.887 10.3249
   0  -3  -7 188.616 12.7210
   0   3   7 192.124 14.7746
  -1  -3  -7 75.9561 10.7889
   1   3   7 89.4387 9.91447
  -2  -3  -7 55.7691 17.6678
   2   3   7 0.00000 21.3363
  -3  -3  -7 185.946 34.5831
   3   3   7 130.751 61.3244
  -4  -3  -7 104.736 40.4138
   4   3   7 0.00000 47.3912
   6  -4  -7 71.3561 12.6771
  -6   4   7 86.8873 13.0667
   5  -4  -7 276.043 23.8443
  -5   4   7 320.815 23.1994
   4  -4  -7 151.423 21.2436
  -4   4   7 145.734 20.5675
   3  -4  -7 96.7401 14.5652
  -3   4   7 116.251 15.1504
   2  -4  -7 80.4432 15.1090
  -2   4   7 80.2545 10.4614
   1  -4  -7 88.0694 7.71468
  -1   4   7 89.5214 7.81322
   0  -4  -7 150.270 14.4934
   0   4   7 160.437 14.2076
  -1  -4  -7 359.530 16.0926
   1   4   7 394.496 15.7732
  -2  -4  -7 180.887 19.0155
   2   4   7 186.818 23.4162
  -3  -4  -7 476.156 41.2933
   3   4   7 450.367 42.5164
   4   4   7 5932.66 419.867
   5  -5  -7 90.4900 25.6753
  -5   5   7 50.3412 20.3746
   4  -5  -7 0.00000 23.4393
  -4   5   7 44.8426 17.6539
   3  -5  -7 34.9744 13.6516
  -3   5   7 58.5002 14.0351
   2  -5  -7 172.278 15.3686
  -2   5   7 167.310 13.5262
   1  -5  -7 639.687 18.1663
  -1   5   7 672.558 17.0159
   0  -5  -7 89.1653 12.5011
   0   5   7 88.9032 11.3211
  -1  -5  -7 55.2514 9.85130
   1   5   7 45.6235 8.57469
  -2  -5  -7 33.6532 24.0930
   2   5   7 56.4301 21.6639
  -3  -5  -7 62.7599 34.3547
   3   5   7 0.00000 27.8439
   5  -6  -7 369.439 27.9016
  -5   6   7 399.927 23.7446
   4  -6  -7 156.873 35.5960
  -4   6   7 204.094 21.3710
   3  -6  -7 17.0139 14.7055
  -3   6   7 63.3117 24.5843
   2  -6  -7 307.248 17.2809
  -2   6   7 292.055 15.4521
   1  -6  -7 147.121 10.3742
  -1   6   7 134.964 8.48610
   0  -6  -7 14.7086 9.53132
   0   6   7 18.7280 9.71349
  -1  -6  -7 181.386 16.5682
   1   6   7 179.099 11.7399
  -2  -6  -7 258.698 30.1083
   2   6   7 273.929 22.1942
  -3  -6  -7 140.222 36.9473
   3   6   7 156.907 42.0779
   5  -7  -7 0.00000 33.3936
  -5   7   7 5.92611 21.8465
   4  -7  -7 146.101 32.4690
  -4   7   7 188.076 27.2887
   3  -7  -7 190.670 89.0507
  -3   7   7 140.712 134.100
   2  -7  -7 218.232 19.7166
  -2   7   7 173.966 15.3795
   1  -7  -7 189.838 11.9360
  -1   7   7 201.207 9.54652
   0  -7  -7 95.6687 14.9515
   0   7   7 131.284 11.4480
  -1  -7  -7 45.7514 10.0310
   1   7   7 39.7039 11.8133
  -2  -7  -7 18.5330 26.8764
   2   7   7 56.4074 19.7251
  -3  -7  -7 68.8695 16.5091
   3   7   7 88.1189 17.8152
   5  -8  -7 165.602 37.8076
  -5   8   7 187.041 28.4391
   4  -8  -7 147.003 107.922
  -4   8   7 219.206 650.113
   3  -8  -7 19.1629 35.9196
  -3   8   7 8.45510 25.2969
   2  -8  -7 157.299 19.0399
  -2   8   7 146.751 14.1999
   1  -8  -7 71.3529 10.4987
  -1   8   7 54.4979 8.08813
   0  -8  -7 1.57022 13.1294
   0   8   7 16.3030 10.1089
  -1  -8  -7 49.3793 11.1860
   1   8   7 51.2196 10.6803
  -2  -8  -7 144.290 29.2063
   2   8   7 146.675 26.6976
   4  -9  -7 38.4174 96.5897
  -4   9   7 2.53095 578.829
   3  -9  -7 138.276 33.9122
  -3   9   7 116.556 28.0379
   2  -9  -7 169.613 27.8775
  -2   9   7 134.347 21.0021
   1  -9  -7 196.638 14.4902
  -1   9   7 213.766 10.9242
   0  -9  -7 230.112 18.3441
   0   9   7 168.120 13.7642
  -1  -9  -7 173.005 14.1865
   1   9   7 127.864 12.2705
  -2  -9  -7 73.7489 32.2468
   2   9   7 75.4130 21.3359
   4 -10  -7 49.6821 16.7670
  -4  10   7 47.6008 14.6132
   3 -10  -7 81.5392 59.3490
  -3  10   7 58.9856 23.0131
   2 -10  -7 23.2453 31.4838
  -2  10   7 0.40830 18.2401
   1 -10  -7 32.2843 10.9555
  -1  10   7 10.3926 8.58470
   0 -10  -7 79.9139 16.7211
   0  10   7 91.5023 13.6041
  -1 -10  -7 61.8274 14.9484
   1  10   7 67.8829 12.0160
   3 -11  -7 352.142 42.7991
  -3  11   7 365.865 31.6317
   2 -11  -7 500.308 42.6576
  -2  11   7 447.068 25.0550
   1 -11  -7 102.110 13.4654
  -1  11   7 83.8717 12.0290
   0 -11  -7 82.7462 17.5487
   0  11   7 101.478 14.4502
  -1 -11  -7 122.999 14.3473
   1  11   7 108.822 12.2508
   2 -12  -7 170.983 42.2972
  -2  12   7 37.6336 29.6956
   1 -12  -7 38.0139 12.7775
  -1  12   7 56.0829 13.4319
   0 -12  -7 60.9570 58.7639
   0  12   7 43.8784 21.8343
  -5   0   8 29.3690 26.1467
  -4   0   8 1.55579 20.7504
  -3   0   8 42.7202 19.2085
  -2   0   8 316.385 22.7953
  -1   0   8 466.494 21.9033
   0   0   8 94.3334 14.5109
   1   0   8 118.279 19.6122
   2   0   8 43.5609 29.8132
   3   0   8 15.2381 20.2976
   5  -1  -8 258.731 29.5505
  -5   1   8 224.148 26.0476
   4  -1  -8 294.058 30.7704
  -4   1   8 286.763 25.1837
   3  -1  -8 9.12843 30.1073
  -3   1   8 34.1186 15.3935
   2  -1  -8 66.9100 20.2002
  -2   1   8 0.00000 18.4805
   1  -1  -8 151.064 12.8950
  -1   1   8 124.020 14.0426
   0  -1  -8 23.5083 297.870
   0   1   8 49.3909 732.309
  -1  -1  -8 0.87474 16.5877
   1   1   8 0.00000 16.7062
  -2  -1  -8 9.59302 30.2946
   2   1   8 0.00001 29.5329
  -3  -1  -8 119.058 22.4020
   3   1   8 137.096 18.3202
   5  -2  -8 105.324 28.0155
  -5   2   8 0.00000 25.5772
   4  -2  -8 171.214 29.0240
  -4   2   8 127.464 25.6978
   3  -2  -8 177.191 29.8323
  -3   2   8 128.586 19.1047
   2  -2  -8 136.157 21.9532
  -2   2   8 63.8312 22.4283
   1  -2  -8 314.227 16.5572
  -1   2   8 298.016 17.8344
   0  -2  -8 289.900 27.1946
   0   2   8 265.215 23.8503
  -1  -2  -8 15.6072 11.7327
   1   2   8 16.5106 9.62698
  -2  -2  -8 47.1497 21.1969
   2   2   8 0.00000 29.3991
  -3  -2  -8 77.3794 16.0641
   3   2   8 55.9859 18.3315
   5  -3  -8 120.714 39.4605
  -5   3   8 151.411 27.6885
   4  -3  -8 0.00000 40.9163
  -4   3   8 80.7036 27.1476
   3  -3  -8 9.46095 29.1010
  -3   3   8 58.3496 23.0174
   2  -3  -8 96.1878 19.1240
  -2   3   8 22.9823 15.6335
   1  -3  -8 39.5169 9.87855
  -1   3   8 29.4788 9.77955
   0  -3  -8 39.4350 13.8291
   0   3   8 4.90125 12.2478
  -1  -3  -8 338.899 19.2724
   1   3   8 343.600 18.4462
  -2  -3  -8 156.781 23.1526
   2   3   8 126.001 26.2003
  -3  -3  -8 21.5284 17.1592
   3   3   8 18.1015 16.2825
   5  -4  -8 0.00000 27.5125
  -5   4   8 4.72177 26.9442
   4  -4  -8 208.610 29.4002
  -4   4   8 174.852 27.6449
   3  -4  -8 86.8748 17.3204
  -3   4   8 269.500 68.5658
   2  -4  -8 64.4210 21.3317
  -2   4   8 46.2039 16.7177
   1  -4  -8 156.122 10.7476
  -1   4   8 117.310 10.3261
   0  -4  -8 124.522 15.8018
   0   4   8 93.9319 14.3366
  -1  -4  -8 17.1012 10.9971
   1   4   8 2.54265 10.0944
  -2  -4  -8 0.00000 27.7071
   2   4   8 0.00000 27.5604
   3   4   8 202.911 161.805
   5  -5  -8 123.080 29.0294
  -5   5   8 140.746 24.7347
   4  -5  -8 211.511 31.3038
  -4   5   8 191.053 30.1847
   3  -5  -8 140.416 22.6415
  -3   5   8 168.071 152.579
   2  -5  -8 87.3270 17.9413
  -2   5   8 71.9389 18.5812
   1  -5  -8 61.3255 11.5328
  -1   5   8 45.6448 9.13030
   0  -5  -8 175.711 16.7819
   0   5   8 175.622 17.0104
  -1  -5  -8 75.0746 14.8202
   1   5   8 76.2777 12.0593
  -2  -5  -8 132.055 31.1009
   2   5   8 120.375 29.1126
   4  -6  -8 21.1747 35.1025
  -4   6   8 117.545 28.4061
   3  -6  -8 58.0605 33.3708
  -3   6   8 15.5024 30.0799
   2  -6  -8 77.5790 18.5119
  -2   6   8 84.3960 27.7199
   1  -6  -8 43.4616 9.51315
  -1   6   8 27.0744 9.25924
   0  -6  -8 112.799 23.5191
   0   6   8 164.850 16.2856
  -1  -6  -8 34.8764 13.6063
   1   6   8 49.6687 11.7774
  -2  -6  -8 81.0604 31.0748
   2   6   8 136.746 30.6054
   4  -7  -8 180.322 109.280
  -4   7   8 118.544 633.708
   3  -7  -8 147.305 37.3886
  -3   7   8 33.8860 33.9113
   2  -7  -8 5.67490 16.4203
  -2   7   8 0.00000 25.8427
   1  -7  -8 63.4489 12.0926
  -1   7   8 74.1558 10.7095
   0  -7  -8 92.0156 16.8557
   0   7   8 73.0851 14.1745
  -1  -7  -8 32.2695 21.6943
   1   7   8 43.7403 12.5422
  -2  -7  -8 89.2356 639.529
   2   7   8 234.497 576.369
   4  -8  -8 6.32655 15.5867
  -4   8   8 26.2176 13.1860
   3  -8  -8 276.968 40.2526
  -3   8   8 181.107 34.5256
   2  -8  -8 145.315 32.6028
  -2   8   8 103.416 29.1684
   1  -8  -8 88.7063 12.3138
  -1   8   8 105.732 11.3465
   0  -8  -8 138.356 19.0897
   0   8   8 133.049 15.4310
  -1  -8  -8 28.6757 15.2809
   1   8   8 31.0541 10.3661
   3  -9  -8 125.917 39.7863
  -3   9   8 3.86344 34.2821
   2  -9  -8 160.733 30.5507
  -2   9   8 126.867 31.0718
   1  -9  -8 13.7096 11.3900
  -1   9   8 28.3702 10.3830
   0  -9  -8 85.0998 18.1659
   0   9   8 52.6094 14.7605
  -1  -9  -8 10.5458 40.8896
   1   9   8 10.9334 15.7833
   2 -10  -8 254.671 24.6870
  -2  10   8 234.274 20.4290
   1 -10  -8 197.491 16.5561
  -1  10   8 202.287 14.7935
   0 -10  -8 213.564 674.233
   0  10   8 168.105 281.044
  -4   0   9 92.0123 36.5147
  -3   0   9 62.6787 33.5661
  -2   0   9 22.9595 22.7326
  -1   0   9 9.17608 12.4849
   1   0   9 42.1382 23.7115
   2   0   9 28.4710 34.7247
   4  -1  -9 167.144 37.9781
  -4   1   9 158.865 36.8537
   3  -1  -9 47.6432 33.9938
  -3   1   9 0.65637 32.0416
   2  -1  -9 34.0996 22.5994
  -2   1   9 6.11897 29.2200
   1  -1  -9 200.590 16.9383
  -1   1   9 178.892 17.4060
  -1  -1  -9 72.2016 21.0376
   1   1   9 47.5742 36.6328
  -2  -1  -9 152.660 91.9808
   2   1   9 0.00000 35.4995
   4  -2  -9 241.130 40.0154
  -4   2   9 184.665 39.2067
   3  -2  -9 126.941 145.800
  -3   2   9 18.1544 82.5417
   2  -2  -9 15.0416 22.3259
  -2   2   9 4.71238 20.7934
   1  -2  -9 43.5894 19.3556
  -1   2   9 24.6048 11.2099
   0  -2  -9 42.7133 23.7102
   0   2   9 64.4191 19.2300
  -1  -2  -9 11.6630 17.3728
   1   2   9 5.72116 18.9515
   4  -3  -9 136.196 39.0528
  -4   3   9 77.8942 51.9503
   3  -3  -9 0.00000 148.839
  -3   3   9 0.00000 83.9405
   2  -3  -9 135.445 24.7459
  -2   3   9 70.4436 24.6427
   1  -3  -9 84.6553 20.5798
  -1   3   9 70.9568 12.1004
   0  -3  -9 150.633 23.8084
   0   3   9 137.915 17.2190
  -1  -3  -9 40.6594 18.8947
   1   3   9 46.8172 16.9127
   4  -4  -9 117.268 23.6353
  -4   4   9 102.559 15.0190
   3  -4  -9 20.5034 34.0595
  -3   4   9 0.00000 37.1863
   2  -4  -9 191.764 39.1341
  -2   4   9 109.703 25.5943
   1  -4  -9 51.1877 18.4997
  -1   4   9 55.3013 10.4409
   0  -4  -9 69.1114 17.3105
   0   4   9 46.5668 15.3580
  -1  -4  -9 48.0240 17.6287
   1   4   9 40.8119 17.9386
   4  -5  -9 79.2691 60.3260
  -4   5   9 105.172 125.383
   3  -5  -9 125.019 32.3481
  -3   5   9 89.1707 27.5623
   2  -5  -9 29.3575 35.1191
  -2   5   9 34.2132 29.2497
   1  -5  -9 12.6105 11.7286
  -1   5   9 5.58764 9.85476
   0  -5  -9 126.767 25.5546
   0   5   9 45.9690 18.4227
  -1  -5  -9 57.8620 17.6820
   1   5   9 32.5377 16.2853
   3  -6  -9 93.1984 45.1592
  -3   6   9 38.0151 33.3030
   2  -6  -9 70.4506 37.8024
  -2   6   9 96.9882 30.1022
   1  -6  -9 37.1759 16.0784
  -1   6   9 18.3823 10.4738
   0  -6  -9 93.3501 25.0054
   0   6   9 101.697 16.9448
   2  -7  -9 11.7487 240.268
  -2   7   9 6.00929 266.598
   1  -7  -9 96.7916 18.2269
  -1   7   9 64.5688 12.2093
   0  -7  -9 109.058 29.5486
   0   7   9 86.0623 23.6442
   1  -8  -9 31.9903 61.9200
  -1   8   9 0.00000 24.8282
  -2   0  10 63.6853 18.6802
  -1   0  10 51.3887 24.5535
   2  -1 -10 166.421 21.3703
  -2   1  10 117.383 22.1733
   1  -1 -10 15.7026 24.9511
  -1   1  10 31.4125 25.8049
   2  -2 -10 173.283 27.0156
  -2   2  10 175.664 18.9600
   1  -2 -10 15.7952 23.2185
  -1   2  10 13.5346 12.4853
   2  -3 -10 149.440 30.0792
  -2   3  10 59.9101 28.6977
   1  -3 -10 12.0445 25.0403
  -1   3  10 15.3847 24.5968
   0   0   0    0.00    0.00   0
;
_shelx_hkl_checksum              77491
#END Tags that were not found in dictionaries
loop_
_space_group_symop_operation_xyz
'x, y, z'
'-x, y+1/2, -z'
loop_
_atom_site_label
_atom_site_type_symbol
_atom_site_fract_x
_atom_site_fract_y
_atom_site_fract_z
_atom_site_U_iso_or_equiv
_atom_site_adp_type
_atom_site_occupancy
_atom_site_site_symmetry_order
_atom_site_calc_flag
_atom_site_refinement_flags_posn
_atom_site_refinement_flags_adp
C1 C 0.6930(9) 0.5804(6) 0.5156(7) 0.0205(13) Uani 1 1 d . .
H1 H 0.8067 0.5644 0.6130 0.025 Uiso 1 1 calc R U
C2 C 0.7672(12) 0.6693(5) 0.4338(9) 0.0294(17) Uani 1 1 d . .
H2A H 0.9281 0.6760 0.4617 0.035 Uiso 1 1 calc R U
H2B H 0.7202 0.6649 0.3156 0.035 Uiso 1 1 calc R U
C3 C 0.6579(13) 0.7524(6) 0.4980(10) 0.039(2) Uani 1 1 d . .
H3A H 0.7438 0.7738 0.6030 0.047 Uiso 1 1 calc R U
H3B H 0.6390 0.8068 0.4221 0.047 Uiso 1 1 calc R U
C4 C 0.4405(12) 0.7126(5) 0.5147(9) 0.0304(17) Uani 1 1 d . .
H4A H 0.3807 0.7486 0.5959 0.036 Uiso 1 1 calc R U
H4B H 0.3341 0.7149 0.4110 0.036 Uiso 1 1 calc R U
C5 C 0.6466(12) 0.4918(5) 0.4090(9) 0.0301(17) Uani 1 1 d . .
H5 H 0.6030 0.4401 0.4769 0.036 Uiso 1 1 calc R U
C6 C 0.8526(12) 0.4586(5) 0.3609(9) 0.0311(18) Uani 1 1 d . .
H6 H 0.9801 0.4550 0.4435 0.037 Uiso 1 1 calc R U
C7 C 0.8737(15) 0.4339(6) 0.2141(11) 0.047(2) Uani 1 1 d . .
H7A H 0.7509 0.4363 0.1273 0.057 Uiso 1 1 calc R U
H7B H 1.0116 0.4138 0.1960 0.057 Uiso 1 1 calc R U
C8 C 0.4557(12) 0.5055(7) 0.2674(11) 0.051(3) Uani 1 1 d . .
H8A H 0.4996 0.5484 0.1888 0.076 Uiso 1 1 calc R U
H8B H 0.3319 0.5333 0.3052 0.076 Uiso 1 1 calc R U
H8C H 0.4130 0.4435 0.2170 0.076 Uiso 1 1 calc R U
C9 C 0.6130(10) 0.6573(5) 0.8854(7) 0.0176(14) Uani 1 1 d . .
C10 C 0.8348(11) 0.6386(5) 0.9391(8) 0.0219(15) Uani 1 1 d . .
H10 H 0.8982 0.5824 0.9059 0.026 Uiso 1 1 calc R U
C11 C 0.9612(11) 0.7028(5) 1.0415(8) 0.0227(15) Uani 1 1 d . .
H11 H 1.1124 0.6902 1.0784 0.027 Uiso 1 1 calc R U
C12 C 0.8716(11) 0.7857(5) 1.0917(7) 0.0215(16) Uani 1 1 d . .
C13 C 0.6494(12) 0.8013(5) 1.0386(8) 0.0225(16) Uani 1 1 d . .
H13 H 0.5848 0.8563 1.0748 0.027 Uiso 1 1 calc R U
C14 C 0.5201(11) 0.7393(5) 0.9351(7) 0.0203(15) Uani 1 1 d . .
H14 H 0.3690 0.7523 0.8979 0.024 Uiso 1 1 calc R U
C15 C 1.0105(12) 0.8540(5) 1.2039(9) 0.0316(17) Uani 1 1 d . .
H15A H 0.9410 0.9171 1.1944 0.047 Uiso 1 1 calc R U
H15B H 1.1547 0.8589 1.1765 0.047 Uiso 1 1 calc R U
H15C H 1.0269 0.8309 1.3144 0.047 Uiso 1 1 calc R U
N1 N 0.4901(9) 0.6124(3) 0.5669(7) 0.0210(13) Uani 1 1 d . .
O1 O 0.2274(7) 0.6013(3) 0.7439(6) 0.0289(13) Uani 1 1 d . .
O2 O 0.5327(7) 0.4860(3) 0.7696(5) 0.0257(11) Uani 1 1 d . .
S1 S 0.4516(3) 0.58141(12) 0.74212(18) 0.0199(4) Uani 1 1 d . .
loop_
_atom_site_aniso_label
_atom_site_aniso_U_11
_atom_site_aniso_U_22
_atom_site_aniso_U_33
_atom_site_aniso_U_23
_atom_site_aniso_U_13
_atom_site_aniso_U_12
C1 0.014(3) 0.024(3) 0.024(3) 0.001(4) 0.005(2) 0.005(4)
C2 0.028(4) 0.030(4) 0.032(4) 0.003(3) 0.012(3) -0.009(4)
C3 0.048(5) 0.024(4) 0.047(5) 0.003(3) 0.015(4) -0.002(4)
C4 0.036(5) 0.028(4) 0.026(4) 0.006(3) 0.005(3) 0.009(3)
C5 0.027(4) 0.032(4) 0.035(4) -0.003(3) 0.015(4) -0.003(4)
C6 0.032(4) 0.033(4) 0.030(4) 0.000(3) 0.010(4) 0.007(3)
C7 0.039(5) 0.049(6) 0.058(6) -0.015(4) 0.018(5) -0.005(4)
C8 0.019(4) 0.062(6) 0.071(6) -0.035(5) 0.005(4) -0.003(4)
C9 0.015(3) 0.019(3) 0.020(3) 0.004(3) 0.007(3) 0.000(3)
C10 0.023(4) 0.021(4) 0.023(4) 0.001(3) 0.007(3) 0.007(3)
C11 0.015(3) 0.030(4) 0.024(4) 0.005(3) 0.006(3) 0.001(3)
C12 0.023(4) 0.025(4) 0.017(3) 0.003(3) 0.005(3) -0.005(3)
C13 0.028(4) 0.022(4) 0.019(3) 0.003(3) 0.008(3) 0.003(3)
C14 0.017(3) 0.018(4) 0.025(4) 0.005(3) 0.004(3) 0.008(3)
C15 0.032(4) 0.029(4) 0.032(4) -0.001(3) 0.003(3) -0.004(4)
N1 0.017(3) 0.019(3) 0.027(3) 0.001(2) 0.004(2) 0.000(2)
O1 0.016(2) 0.035(3) 0.038(3) -0.007(2) 0.014(2) -0.002(2)
O2 0.029(3) 0.015(2) 0.037(3) 0.001(2) 0.014(2) 0.000(2)
S1 0.0166(7) 0.0191(8) 0.0259(8) -0.0012(8) 0.0087(6) -0.0022(9)
loop_
_atom_type_symbol
_atom_type_description
_atom_type_scat_dispersion_real
_atom_type_scat_dispersion_imag
_atom_type_scat_source
C C 0.0033 0.0016 'International Tables Vol C Tables 4.2.6.8 and 6.1.1.4'
H H 0.0000 0.0000 'International Tables Vol C Tables 4.2.6.8 and 6.1.1.4'
N N 0.0061 0.0033 'International Tables Vol C Tables 4.2.6.8 and 6.1.1.4'
O O 0.0106 0.0060 'International Tables Vol C Tables 4.2.6.8 and 6.1.1.4'
S S 0.1246 0.1234 'International Tables Vol C Tables 4.2.6.8 and 6.1.1.4'
loop_
_geom_angle_atom_site_label_1
_geom_angle_atom_site_label_2
_geom_angle_atom_site_label_3
_geom_angle
N1 C1 C5 110.4(5)
N1 C1 C2 104.1(5)
C5 C1 C2 115.1(5)
N1 C1 H1 109.0
C5 C1 H1 109.0
C2 C1 H1 109.0
C3 C2 C1 104.9(6)
C3 C2 H2A 110.8
C1 C2 H2A 110.8
C3 C2 H2B 110.8
C1 C2 H2B 110.8
H2A C2 H2B 108.8
C4 C3 C2 103.6(6)
C4 C3 H3A 111.0
C2 C3 H3A 111.0
C4 C3 H3B 111.0
C2 C3 H3B 111.0
H3A C3 H3B 109.0
N1 C4 C3 104.0(6)
N1 C4 H4A 111.0
C3 C4 H4A 111.0
N1 C4 H4B 111.0
C3 C4 H4B 111.0
H4A C4 H4B 109.0
C6 C5 C8 113.5(6)
C6 C5 C1 110.1(6)
C8 C5 C1 112.9(6)
C6 C5 H5 106.6
C8 C5 H5 106.6
C1 C5 H5 106.6
C7 C6 C5 126.4(8)
C7 C6 H6 116.8
C5 C6 H6 116.8
C6 C7 H7A 120.0
C6 C7 H7B 120.0
H7A C7 H7B 120.0
C5 C8 H8A 109.5
C5 C8 H8B 109.5
H8A C8 H8B 109.5
C5 C8 H8C 109.5
H8A C8 H8C 109.5
H8B C8 H8C 109.5
C14 C9 C10 120.4(6)
C14 C9 S1 119.4(5)
C10 C9 S1 120.0(5)
C11 C10 C9 119.0(6)
C11 C10 H10 120.5
C9 C10 H10 120.5
C10 C11 C12 121.4(6)
C10 C11 H11 119.3
C12 C11 H11 119.3
C13 C12 C11 118.1(6)
C13 C12 C15 121.2(6)
C11 C12 C15 120.7(7)
C14 C13 C12 121.8(6)
C14 C13 H13 119.1
C12 C13 H13 119.1
C13 C14 C9 119.2(6)
C13 C14 H14 120.4
C9 C14 H14 120.4
C12 C15 H15A 109.5
C12 C15 H15B 109.5
H15A C15 H15B 109.5
C12 C15 H15C 109.5
H15A C15 H15C 109.5
H15B C15 H15C 109.5
C4 N1 C1 109.5(5)
C4 N1 S1 117.9(4)
C1 N1 S1 119.1(4)
O2 S1 O1 119.6(3)
O2 S1 N1 106.6(3)
O1 S1 N1 106.9(3)
O2 S1 C9 108.4(3)
O1 S1 C9 107.2(3)
N1 S1 C9 107.6(3)
loop_
_geom_bond_atom_site_label_1
_geom_bond_atom_site_label_2
_geom_bond_distance
C1 N1 1.495(8)
C1 C5 1.529(10)
C1 C2 1.544(10)
C1 H1 1.0000
C2 C3 1.509(10)
C2 H2A 0.9900
C2 H2B 0.9900
C3 C4 1.504(11)
C3 H3A 0.9900
C3 H3B 0.9900
C4 N1 1.485(8)
C4 H4A 0.9900
C4 H4B 0.9900
C5 C6 1.505(10)
C5 C8 1.524(11)
C5 H5 1.0000
C6 C7 1.330(11)
C6 H6 0.9500
C7 H7A 0.9500
C7 H7B 0.9500
C8 H8A 0.9800
C8 H8B 0.9800
C8 H8C 0.9800
C9 C14 1.392(9)
C9 C10 1.394(9)
C9 S1 1.769(7)
C10 C11 1.382(9)
C10 H10 0.9500
C11 C12 1.395(9)
C11 H11 0.9500
C12 C13 1.388(10)
C12 C15 1.497(10)
C13 C14 1.375(10)
C13 H13 0.9500
C14 H14 0.9500
C15 H15A 0.9800
C15 H15B 0.9800
C15 H15C 0.9800
N1 S1 1.620(6)
O1 S1 1.434(5)
O2 S1 1.431(5)
loop_
_geom_torsion_atom_site_label_1
_geom_torsion_atom_site_label_2
_geom_torsion_atom_site_label_3
_geom_torsion_atom_site_label_4
_geom_torsion
N1 C1 C2 C3 20.8(7)
C5 C1 C2 C3 141.8(6)
C1 C2 C3 C4 -35.5(7)
C2 C3 C4 N1 36.4(7)
N1 C1 C5 C6 -178.7(5)
C2 C1 C5 C6 63.8(8)
N1 C1 C5 C8 53.3(8)
C2 C1 C5 C8 -64.2(8)
C8 C5 C6 C7 -6.0(12)
C1 C5 C6 C7 -133.6(8)
C14 C9 C10 C11 -0.4(9)
S1 C9 C10 C11 175.0(5)
C9 C10 C11 C12 -0.1(9)
C10 C11 C12 C13 1.4(9)
C10 C11 C12 C15 179.4(6)
C11 C12 C13 C14 -2.2(9)
C15 C12 C13 C14 179.8(6)
C12 C13 C14 C9 1.8(9)
C10 C9 C14 C13 -0.4(9)
S1 C9 C14 C13 -175.9(5)
C3 C4 N1 C1 -23.9(7)
C3 C4 N1 S1 116.6(5)
C5 C1 N1 C4 -122.2(6)
C2 C1 N1 C4 1.9(7)
C5 C1 N1 S1 97.9(5)
C2 C1 N1 S1 -138.0(5)
C4 N1 S1 O2 -174.0(5)
C1 N1 S1 O2 -37.4(5)
C4 N1 S1 O1 57.0(5)
C1 N1 S1 O1 -166.4(5)
C4 N1 S1 C9 -57.9(5)
C1 N1 S1 C9 78.7(5)
C14 C9 S1 O2 -150.8(5)
C10 C9 S1 O2 33.7(6)
C14 C9 S1 O1 -20.4(6)
C10 C9 S1 O1 164.2(5)
C14 C9 S1 N1 94.3(5)
C10 C9 S1 N1 -81.2(5)
