#------------------------------------------------------------------------------
#$Date: 2015-09-06 01:57:36 +0300 (Sun, 06 Sep 2015) $
#$Revision: 154639 $
#$URL: svn://www.crystallography.net/cod/cif/4/12/42/4124200.cif $
#------------------------------------------------------------------------------
#
# This file is available in the Crystallography Open Database (COD),
# http://www.crystallography.net/
#
# All data on this site have been placed in the public domain by the
# contributors.
#
data_4124200
loop_
_publ_author_name
'Lu, Hongcheng'
'Yamamoto, Takafumi'
'Yoshimune, Wataru'
'Hayashi, Naoaki'
'Kobayashi, Yoji'
'Ajiro, Yoshitami'
'Kageyama, Hiroshi'
_publ_section_title
;
 A Nearly Ideal One-Dimensional S = 5/2 Antiferromagnet FeF3(4,4'-bpy)
 (4,4'-bpy =4,4'-bipyridyl) with Strong Intrachain Interactions.
;
_journal_issue                   31
_journal_name_full               'Journal of the American Chemical Society'
_journal_page_first              9804
_journal_page_last               9807
_journal_paper_doi               10.1021/jacs.5b06120
_journal_volume                  137
_journal_year                    2015
_chemical_formula_moiety         'C10 H8 F3 Fe N2'
_chemical_formula_sum            'C10 H8 F3 Fe N2'
_chemical_formula_weight         269.03
_space_group_crystal_system      orthorhombic
_space_group_IT_number           23
_space_group_name_Hall           'I 2 2'
_space_group_name_H-M_alt        'I 2 2 2'
_symmetry_cell_setting           orthorhombic
_symmetry_Int_Tables_number      23
_symmetry_space_group_name_Hall  'I 2 2'
_symmetry_space_group_name_H-M   'I 2 2 2'
_atom_sites_solution_hydrogens   geom
_audit_creation_method           SHELXL-2014/7
_cell_angle_alpha                90
_cell_angle_beta                 90
_cell_angle_gamma                90
_cell_formula_units_Z            2
_cell_length_a                   3.8900(3)
_cell_length_b                   10.7997(9)
_cell_length_c                   11.3951(8)
_cell_measurement_temperature    296(2)
_cell_volume                     478.72(6)
_computing_cell_refinement       RAPID-AUTO
_computing_data_collection       RAPID-AUTO
_computing_data_reduction        RAPID-AUTO
_computing_molecular_graphics    'Ortep-3 for Windows (Farrugia, 1997)'
_computing_publication_material  'WinGX publication routines (Farrugia, 1999)'
_computing_structure_refinement  'SHELXL-97 (Sheldrick, 1997)'
_computing_structure_solution    'SIR97 (Giacovazzo et al, 1997)'
_diffrn_ambient_temperature      296(2)
_diffrn_measured_fraction_theta_full 0.996
_diffrn_measured_fraction_theta_max 0.997
_diffrn_measurement_device_type  'Rigaku R-AXIS RAPID'
_diffrn_radiation_probe          x-ray
_diffrn_radiation_type           MoK\a
_diffrn_radiation_wavelength     0.71073
_diffrn_reflns_av_R_equivalents  0.0281
_diffrn_reflns_av_unetI/netI     0.0238
_diffrn_reflns_laue_measured_fraction_full 0.996
_diffrn_reflns_laue_measured_fraction_max 0.997
_diffrn_reflns_limit_h_max       5
_diffrn_reflns_limit_h_min       -5
_diffrn_reflns_limit_k_max       13
_diffrn_reflns_limit_k_min       -13
_diffrn_reflns_limit_l_max       14
_diffrn_reflns_limit_l_min       -14
_diffrn_reflns_number            2319
_diffrn_reflns_point_group_measured_fraction_full 0.998
_diffrn_reflns_point_group_measured_fraction_max 0.998
_diffrn_reflns_theta_full        25.240
_diffrn_reflns_theta_max         27.336
_diffrn_reflns_theta_min         3.576
_exptl_absorpt_coefficient_mu    1.589
_exptl_absorpt_correction_T_max  0.837
_exptl_absorpt_correction_T_min  0.714
_exptl_absorpt_correction_type   multi-scan
_exptl_absorpt_process_details   RAPID-AUTO-2.4
_exptl_crystal_colour            Green
_exptl_crystal_density_diffrn    1.866
_exptl_crystal_description       block
_exptl_crystal_F_000             270
_exptl_crystal_size_max          0.261
_exptl_crystal_size_mid          0.182
_exptl_crystal_size_min          0.112
_refine_diff_density_max         0.571
_refine_diff_density_min         -0.277
_refine_diff_density_rms         0.063
_refine_ls_abs_structure_details
;
 Refined as an inversion twin.
;
_refine_ls_abs_structure_Flack   0.06(4)
_refine_ls_extinction_method     none
_refine_ls_goodness_of_fit_ref   1.146
_refine_ls_hydrogen_treatment    constr
_refine_ls_matrix_type           full
_refine_ls_number_parameters     41
_refine_ls_number_reflns         546
_refine_ls_number_restraints     0
_refine_ls_restrained_S_all      1.146
_refine_ls_R_factor_all          0.0208
_refine_ls_R_factor_gt           0.0196
_refine_ls_shift/su_max          0.000
_refine_ls_shift/su_mean         0.000
_refine_ls_structure_factor_coef Fsqd
_refine_ls_weighting_details
'w=1/[\s^2^(Fo^2^)+(0.0205P)^2^+0.4306P] where P=(Fo^2^+2Fc^2^)/3'
_refine_ls_weighting_scheme      calc
_refine_ls_wR_factor_gt          0.0498
_refine_ls_wR_factor_ref         0.0512
_reflns_Friedel_coverage         0.601
_reflns_friedel_fraction_full    1.000
_reflns_friedel_fraction_max     1.000
_reflns_number_gt                534
_reflns_number_total             548
_reflns_threshold_expression     'I > 2\s(I)'
_cod_data_source_file            ja5b06120_si_002.cif
_cod_data_source_block           C10H8N2FeF3
_cod_depositor_comments          'Adding full bibliography for 4124200.cif.'
_cod_database_code               4124200
_shelx_space_group_comment
;
The symmetry employed for this shelxl refinement is uniquely defined
by the following loop, which should always be used as a source of
symmetry information in preference to the above space-group names.
They are only intended as comments.
;
_shelx_estimated_absorpt_t_min   0.714
_shelx_estimated_absorpt_t_max   0.837
_shelx_res_file
;

    shelx.res created by SHELXL-2014/7


TITL C:\USERS\HL\DESKTOP\HL2_2GC2\H in I222
CELL  0.71069   3.88999  10.79967  11.39513   90.000   90.000   90.000
ZERR     4.00   0.00032   0.00088   0.00078    0.000    0.000    0.000
LATT  -2
SYMM  - X, - Y,   Z
SYMM    X, - Y, - Z
SYMM  - X,   Y, - Z
SFAC  C    H    N    F    FE
UNIT  20   16   4    6    2
MERG   2
ACTA
BOND $H
FMAP   2
PLAN   25
TWIN
LIST   1
L.S.  10
WGHT    0.020500    0.430600
BASF   0.05762
FVAR       0.51692
FE1   5    0.000000    0.000000    0.000000    10.25000    0.01024    0.01543 =
         0.00966    0.00000    0.00000    0.00000
F1    4    0.000000    0.172186    0.000000    10.50000    0.04874    0.01701 =
         0.02146    0.00000   -0.00070    0.00000
F2    4   -0.500000    0.000000    0.000000    10.25000    0.01031    0.06776 =
         0.02719    0.00000    0.00000    0.00000
N1    3    0.000000    0.000000    0.189609    10.50000    0.01837    0.01995 =
         0.01231    0.00000    0.00000    0.00120
C1    1    0.000000    0.000000    0.434813    10.50000    0.02124    0.02233 =
         0.01227    0.00000    0.00000    0.00142
C3    1   -0.105504    0.099672    0.250955    11.00000    0.03223    0.01900 =
         0.01649    0.00217   -0.00065    0.00676
AFIX  43
H3    2   -0.181455    0.168774    0.209729    11.00000   -1.50000
AFIX   0

C2    1   -0.106318    0.104174    0.371654    11.00000    0.03212    0.01956 =
         0.01667   -0.00153    0.00184    0.00527
AFIX  43
H2    2   -0.176566    0.175472    0.410637    11.00000   -1.50000

AFIX   0
HKLF    4

REM  C:\USERS\HL\DESKTOP\HL2_2GC2\H in I222
REM R1 =  0.0196 for     534 Fo > 4sig(Fo)  and  0.0208 for all     546 data
REM     41 parameters refined using      0 restraints

END

WGHT      0.0210      0.4385

REM Highest difference peak  0.571,  deepest hole -0.277,  1-sigma level  0.063
Q1    1   0.0000  0.0835  0.0000  10.50000  0.05    0.57
Q2    1   0.0000  0.0000  0.5000  10.25000  0.05    0.36
Q3    1   0.0006 -0.0565  0.4043  11.00000  0.05    0.28
Q4    1   0.0000  0.0000  0.0718  10.50000  0.05    0.22
Q5    1   0.1291  0.0024  0.1348  11.00000  0.05    0.20
Q6    1  -0.0373  0.1123  0.3131  11.00000  0.05    0.19
Q7    1   0.0000  0.2230  0.0000  10.50000  0.05    0.18
Q8    1  -0.0067  0.0796  0.2333  11.00000  0.05    0.16
Q9    1  -0.0915  0.1432  0.3874  11.00000  0.05    0.16
Q10   1   0.0000  0.2401  0.5000  10.50000  0.05    0.16
Q11   1  -0.0077  0.2209  0.2477  11.00000  0.05    0.15
Q12   1  -0.4575  0.0440 -0.0075  11.00000  0.05    0.14
Q13   1  -0.5000 -0.1546  0.0000  10.50000  0.05    0.13
Q14   1  -0.5000  0.0000  0.3725  10.50000  0.05    0.13
Q15   1  -0.4992  0.1580  0.1278  11.00000  0.05    0.13
Q16   1  -0.3493 -0.0537  0.3888  11.00000  0.05    0.12
Q17   1  -0.3660  0.1609  0.4173  11.00000  0.05    0.12
Q18   1  -0.3539  0.1454  0.1947  11.00000  0.05    0.12
Q19   1  -0.0019  0.1857  0.1779  11.00000  0.05    0.12
Q20   1   0.0081  0.1914  0.4577  11.00000  0.05    0.12
Q21   1  -0.1795  0.2614  0.4962  11.00000  0.05    0.12
Q22   1   0.1891  0.1422  0.0016  11.00000  0.05    0.12
Q23   1  -0.6406  0.1525  0.4172  11.00000  0.05    0.11
Q24   1  -0.4021  0.1158  0.5051  11.00000  0.05    0.11
Q25   1  -0.4904  0.0633  0.2020  11.00000  0.05    0.11
;
_shelx_res_checksum              36240
_shelx_hkl_file
;
   0   0   2  689.97   13.58
   0   0  -2  604.50   11.12
   0   0  -2  688.58   13.61
   0   0   4 1837.08   41.47
   0   0  -4 1792.99   40.55
   0   0  -4 1755.62   36.89
   0   0  -6  516.75   12.57
   0   0   6  517.39   10.23
   0   0   6  522.50   12.66
   0   0   8 1023.47   21.90
   0   0   8  999.48   27.01
   0   0  -8  986.98   26.91
   0   0  10  220.38    5.58
   0   0  10  221.04    4.79
   0   0  10  220.62   10.42
   0   0  12  209.79    4.48
   0   0  12  201.82    4.53
   0   0  12  217.95    9.16
   0   0  14   82.31    6.84
   0   1  -3 1223.22   26.82
   0  -1   3 1241.43   27.10
   0   1   3 1265.63   25.82
   0   1  -3 1170.08   23.52
   0  -1   3 1213.28   24.33
   0   1   3 1244.23   26.46
   0   1  -5 2637.02   57.91
   0  -1   5 2648.08   57.76
   0   1  -5 2594.72   62.12
   0   1   5 2640.42   62.21
   0  -1   5 2596.64   61.93
   0   1   5 2652.13   59.96
   0  -1   7  421.89    8.72
   0   1  -7  410.62   11.10
   0   1  -7  420.46    8.64
   0   1   7  433.42    9.75
   0   1   7  426.15   10.96
   0  -1   7  411.30   10.96
   0   1   9  309.35    7.98
   0   1   9  324.81    7.89
   0   1  -9  314.26    9.89
   0   1   9  311.83    9.76
   0  -1   9  307.85    9.84
   0  -1   9  311.85    6.76
   0  -1  11  421.00    8.47
   0  -1  11  431.31   16.47
   0  -1  11  441.43    8.69
   0   1  11  431.45   10.97
   0   1  11  427.98   13.71
   0   1  11  448.43   10.51
   0   1 -11  421.22   14.00
   0  -1  13   85.25    6.51
   0   1  13   82.66    6.18
   0   2   0 2744.09   62.02
   0  -2   0 2963.07   66.93
   0   2   2  200.53    4.88
   0  -2   2  202.49    4.97
   0  -2   2  196.68    4.40
   0   2  -2  201.51    4.95
   0   2  -2  198.91    4.33
   0  -2   4  410.09    8.75
   0   2   4  417.03    9.26
   0   2  -4  406.70    9.85
   0   2   4  402.88    9.02
   0  -2   4  407.70   11.09
   0   2   6  204.41    5.21
   0  -2   6  201.35    6.20
   0   2   6  207.92    5.73
   0   2  -6  215.29    4.83
   0   2  -6  202.38    7.62
   0  -2   6  205.67    4.37
   0   2   6  201.71    4.86
   0   2  -8  101.18    2.75
   0  -2   8   99.17    6.67
   0   2   8   94.83    4.19
   0   2   8   97.02    4.17
   0   2   8   93.85    2.95
   0  -2   8   99.32    2.84
   0   2  -8   96.90    4.81
   0   2  10  103.67    5.22
   0   2  10  102.57    3.21
   0   2  10   94.27    3.51
   0  -2  10  100.03    2.69
   0   2 -10   96.21    5.64
   0  -2  10  104.45    5.75
   0   2 -12   88.90    6.25
   0   2  12   84.97    3.06
   0   2  12   76.86    3.28
   0   2  12   84.52    5.56
   0  -2  12   87.60    9.00
   0  -2  14   51.50    6.06
   0   2  14   42.24    5.44
   0   3   1  251.41    6.43
   0   3  -1  244.59    6.06
   0  -3  -1  256.10    8.13
   0  -3   1  252.30    6.37
   0  -3   3    2.60    1.22
   0   3  -3    0.06    0.82
   0   3  -3    3.63    1.91
   0   3   3    0.17    1.85
   0  -3   3    3.43    0.88
   0   3   5  266.98    6.60
   0  -3   5  260.16    5.91
   0  -3   5  259.30    8.69
   0   3  -5  262.39    5.78
   0   3   5  260.04    6.74
   0   3  -5  258.98    7.27
   0   3   7  224.27    6.50
   0   3   7  218.20    6.70
   0  -3   7  209.75    7.07
   0   3  -7  217.03    7.16
   0  -3   7  222.10    5.83
   0   3  -7  223.00    4.90
   0   3   7  220.70    6.22
   0  -3   9  146.25    4.22
   0   3   9  152.78    5.85
   0   3   9  148.41    5.53
   0   3   9  146.86    4.97
   0   3  -9  159.84    9.03
   0  -3   9  150.17    8.91
   0   3  -9  151.19    3.94
   0   3 -11   89.57    5.92
   0   3  11   85.70    5.16
   0  -3  11   92.79    5.99
   0   3  11   87.54    3.40
   0   3  11   94.32    5.29
   0  -3  13    4.17    3.06
   0   3  13   -0.43    2.63
   0   3 -13    2.83    3.27
   0   4   0  141.11    5.94
   0  -4   0  145.20    6.21
   0   4  -2  941.22   21.36
   0   4  -2  926.02   20.93
   0   4   2  943.52   22.00
   0  -4   2  956.87   22.00
   0  -4  -2  964.27   23.98
   0  -4   4  349.37    8.45
   0  -4   4  347.42    9.14
   0   4  -4  343.54    8.89
   0   4  -4  353.25    9.12
   0   4   4  346.57    9.01
   0   4  -6  477.60   12.82
   0  -4   6  476.97   12.12
   0   4   6  502.07   12.03
   0   4  -6  485.98   10.95
   0  -4   6  471.47   14.50
   0   4   6  471.01   12.22
   0   4   8   26.60    2.39
   0   4   8   24.93    3.64
   0   4   8   25.62    3.18
   0  -4   8   25.83    1.67
   0   4  -8   26.92    2.02
   0   4  -8   31.49    5.22
   0  -4   8   32.10    3.33
   0   4  10  268.32    8.51
   0   4  10  286.14    8.15
   0   4  10  280.84    9.43
   0   4 -10  264.54    6.53
   0   4 -10  283.37   10.50
   0  -4  10  272.13   10.12
   0  -4  10  286.18    7.45
   0   4  12   77.02    3.67
   0   4  12   91.82    7.74
   0  -4  12   82.33   10.11
   0   4  12   78.16    5.65
   0   4 -12   81.99    6.56
   0   4 -14   94.67    8.59
   0   4  14   97.24   10.12
   0  -4  14  115.17    8.83
   0   5  -1 1234.37   29.25
   0   5   1 1241.47   29.73
   0  -5  -1 1262.84   30.49
   0  -5   1 1271.42   30.47
   0   5  -3  114.30    3.95
   0  -5   3  117.13    4.12
   0   5   3  112.26    4.42
   0   5  -3  121.83    5.42
   0   5  -5  781.81   21.30
   0   5   5  759.22   19.34
   0   5  -5  777.57   19.51
   0  -5   5  763.41   20.13
   0   5  -7  697.02   18.93
   0  -5   7  686.76   18.88
   0   5   7  676.40   18.14
   0  -5   7  701.05   18.51
   0   5  -7  677.95   16.86
   0   5   7  716.88   19.03
   0   5   9  411.83   11.90
   0  -5   9  438.00   13.92
   0  -5   9  434.69   11.98
   0   5   9  436.44   14.07
   0   5  -9  440.97   16.87
   0   5  -9  417.74   10.93
   0   5   9  410.22   14.40
   0  -5  11  115.51    4.28
   0   5 -11  133.57    7.75
   0  -5  11  136.97    7.93
   0   5  11  123.83    5.09
   0   5  11  136.64    6.16
   0   5  11  127.48    5.67
   0   5 -13   14.20    4.81
   0   5  13    0.10    3.54
   0   5  13   15.27    2.34
   0  -5  13   25.58    5.09
   0   5  13   11.50    4.43
   0   6   0  821.30   20.59
   0  -6   0  818.43   20.80
   0  -6   2 1239.87   30.90
   0  -6  -2 1244.55   31.35
   0   6   2 1247.87   31.11
   0   6  -2 1238.01   30.43
   0   6  -2 1262.38   30.16
   0   6  -4  589.06   16.60
   0   6  -4  571.40   14.91
   0   6   4  610.76   18.10
   0  -6   4  598.26   17.36
   0  -6   6  702.30   19.97
   0   6  -6  710.42   19.25
   0   6  -6  695.34   18.71
   0   6   6  704.65   21.46
   0   6   8    9.03    1.81
   0   6   8    5.65    3.86
   0   6  -8    9.51    1.50
   0   6  -8    7.19    2.81
   0  -6   8    4.48    1.71
   0   6   8    5.74    2.07
   0   6  10  377.12   12.59
   0   6 -10  399.18   13.95
   0   6 -10  368.79    9.73
   0  -6  10  376.07   10.56
   0   6  10  385.18   12.01
   0   6  10  396.21   12.24
   0   6  12  113.22    7.35
   0   6 -12  114.43    8.26
   0   6  12  105.97    5.95
   0   7  -1  375.84   12.89
   0   7   1  358.98   10.79
   0  -7   1  364.03   10.88
   0  -7  -1  356.41   10.92
   0   7  -1  370.07    9.80
   0  -7   3  131.96    7.40
   0   7  -3  131.11    5.32
   0   7   3  137.01    8.06
   0   7  -3  130.18    4.97
   0   7  -5  448.30   12.95
   0  -7   5  452.61   13.17
   0   7   5  454.70   13.70
   0   7  -5  453.03   14.57
   0   7  -7  227.81    7.22
   0   7   7  243.24    8.98
   0   7  -7  241.13    8.99
   0   7   7  244.32    8.53
   0  -7   7  237.91    9.75
   0   7  -9  185.84    8.47
   0   7   9  177.26    8.94
   0   7   9  166.02    6.34
   0   7  -9  161.78    7.08
   0   7   9  176.08   10.45
   0  -7   9  171.83    6.45
   0   7 -11  117.59    5.47
   0   7  11  145.59    8.76
   0   7  11  129.72    7.09
   0   7 -11  134.17    8.50
   0   7  11  136.38    8.39
   0   8   0  522.73   15.44
   0  -8   0  504.76   15.22
   0   8   2   54.83    4.42
   0  -8  -2   53.78    4.41
   0   8  -2   49.60    3.19
   0  -8   2   58.18    6.27
   0   8  -2   57.61    5.99
   0   8  -4   68.60    4.06
   0   8  -4   71.37    4.45
   0  -8   4   70.11    4.59
   0   8   4   70.33    4.94
   0   8   6   60.28    7.39
   0   8  -6   67.37    4.58
   0   8  -6   65.49    5.69
   0  -8   6   59.82    4.21
   0  -8   8   36.70    3.50
   0   8  -8   41.46    3.33
   0   8   8   36.37    2.81
   0   8   8   35.30    4.48
   0   8  -8   47.01    4.68
   0   8  10   31.40    3.60
   0   8  10   27.91    4.34
   0   8 -10   24.25    7.93
   0   8  10   25.71    4.53
   0  -8  10   27.11    2.92
   0   8 -10   30.11    3.99
   0   8  12   24.05    4.62
   0   8 -12   27.87    5.97
   0   8  12   27.73    4.03
   0  -9  -1    8.11    3.09
   0   9  -1    6.36    3.00
   0   9   1    5.62    3.12
   0  -9   1    8.52    3.00
   0   9  -1    7.11    3.11
   0  -9   3   55.13    4.62
   0   9  -3   61.72    7.02
   0   9   3   57.95    7.62
   0   9  -3   56.31    5.61
   0   9  -5  155.81    7.21
   0   9   5  167.23    8.12
   0  -9   5  163.63    9.90
   0   9  -5  162.09    7.00
   0  -9   7   13.17    4.68
   0   9  -7   20.00    4.63
   0   9   7   12.81    3.90
   0   9  -7   14.74    5.73
   0   9  -9   20.34    3.02
   0   9   9   22.34    4.10
   0   9   9   21.45    3.88
   0  -9   9   21.04    3.18
   0   9   9   16.61    6.91
   0   9  -9   21.54    4.54
   0   9  11  103.69    6.66
   0   9  11   95.80    7.68
   0   9 -11  108.04    8.43
   0 -10   0  672.29   21.53
   0  10   0  692.61   19.20
   0  10   0  724.27   22.42
   0  10  -2   20.09    2.83
   0  10  -2   21.24    4.14
   0 -10   2   18.70    6.21
   0  10   2   23.54    4.46
   0  10   4  103.13    7.08
   0  10  -4   89.61    7.27
   0  10  -4   94.79    8.86
   0 -10   4   88.48    6.04
   0  10  -6   29.30    4.03
   0  10  -6   24.47    4.04
   0  10   6   29.37    7.80
   0 -10   6   28.32    3.89
   0  10  -8  123.70    9.07
   0 -10   8  111.82    9.04
   0  10   8  112.85    4.88
   0  10  -8  119.90    7.66
   0  10   8  121.46    8.19
   0  10  10    0.12    3.63
   0  10 -10    3.58    5.88
   0  10 -10    4.85    2.34
   0  10  10   -0.13    2.97
   0 -11   1  103.31    7.35
   0  11  -1  104.05    7.39
   0  11  -1   99.48    7.02
   0  11   1   93.51    4.87
   0  11   1  105.20    7.66
   0  11   3  139.31   12.52
   0  11  -3  130.15    7.98
   0 -11   3  126.73    7.72
   0  11  -3  121.74    6.03
   0  11   5  280.73   12.96
   0 -11   5  238.36   13.87
   0  11  -5  264.83   14.84
   0  11  -5  253.80   13.02
   0 -11   7   75.46    6.19
   0  11  -7   91.05    6.44
   0  11   7   87.39    7.97
   0  11  -7   84.29    6.46
   0  11  -9   76.62    7.19
   0  11   9   71.00    6.86
   0  11  -9   65.62    7.92
   0  11   9   81.58   11.69
   0  12   0  311.32   13.89
   0  12   0  290.32    9.91
   0  12  -2   97.78    5.50
   0  12  -2  108.97    7.91
   0  12   2  110.84    8.75
   0 -12   2   89.89    7.59
   0  12   2   89.44    4.98
   0  12  -4  140.82    7.33
   0  12  -4  141.71    9.05
   0 -12   4  120.04    8.67
   0  12   4  151.32    9.95
   0  12   6   82.82   12.12
   0  12  -6   75.90    9.95
   0 -12   6   61.75    6.58
   0  12  -6   69.09    9.05
   0  13  -1   76.94   11.91
   0  13   1   73.08    8.16
   0  13  -1   69.66    6.99
   0  13   1   69.32    6.52
   0  13   3   11.78    2.56
   0  13  -3    5.25    3.19
   0  13  -3    4.26    7.68
   0  13   3    2.27    8.63
   0  13   5   72.67    8.90
   0  13  -5   64.50    6.06
   0  13  -5   67.18    7.36
   1   0   1  242.36    5.41
  -1   0  -1  249.70    5.55
  -1   0   1  247.18    5.95
   1   0  -1  254.18    6.03
   1   0   3  586.01   11.83
   1   0  -3  620.11   13.61
   1   0  -3  612.43   14.73
  -1   0  -3  593.85   12.05
  -1   0   3  590.96   13.25
  -1   0  -5 1479.56   29.67
   1   0   5 1414.15   28.10
  -1   0   5 1571.32   35.94
   1   0  -5 1640.20   37.81
   1   0  -5 1625.39   37.15
   1   0   5 1647.72   38.79
   1   0  -7  234.04    8.37
  -1   0   7  245.75    7.38
   1   0  -7  250.37    6.81
  -1   0   7  241.44    6.56
   1   0   7  254.56    7.86
  -1   0   9  210.96    6.20
   1   0  -9  198.28    6.96
   1   0  -9  203.69    5.97
  -1   0   9  202.34    7.41
   1   0   9  200.11    7.78
   1   0 -11  329.25   11.14
  -1   0  11  371.26   11.52
  -1   0  11  339.68   11.94
   1   0  11  347.56   15.33
  -1   0  13   65.78    5.80
   1   0  13   55.63    9.38
  -1   0  13   65.00    4.87
   1   0 -13   60.70    5.50
  -1  -1   0 4218.63  101.27
   1   1   0 4250.56  103.08
   1  -1   0 4137.99   98.75
  -1   1   0 4393.50  104.68
   1  -1  -2  104.55    3.45
   1   1   2  107.42    3.74
  -1  -1  -2  126.64    4.02
   1   1  -2  133.87    5.02
   1  -1   2  133.83    3.60
  -1   1   2  133.93    5.04
   1  -1  -4  373.03    8.92
   1   1   4  362.06    7.77
  -1   1  -4  361.96    6.69
   1  -1  -4  367.49    8.82
  -1  -1   4  349.89    8.30
   1   1  -4  367.98   10.29
   1   1  -4  374.68    9.82
  -1  -1  -4  367.18    7.59
  -1   1   4  368.45    8.79
   1  -1   4  378.24   10.53
  -1  -1   6  140.47    4.17
   1   1   6  147.53    5.17
   1  -1  -6  150.57    4.48
   1  -1  -6  140.68    4.20
   1   1   6  144.55    3.23
   1   1  -6  133.44    5.05
   1   1  -6  130.94    6.03
  -1   1   6  133.83    5.40
  -1   1   6  131.45    4.19
   1  -1   6  132.49    4.96
   1   1   8  219.44    9.64
  -1  -1   8  191.45    7.04
  -1  -1   8  212.43    6.08
   1  -1  -8  203.74    6.48
   1  -1  -8  202.52    7.35
  -1   1   8  210.97    7.49
   1  -1   8  212.59    9.54
   1   1  -8  199.80    8.74
  -1   1   8  203.63    6.66
   1   1  -8  209.82    5.98
   1   1  10   74.43    5.22
  -1  -1  10   75.85    3.37
   1  -1 -10   77.21    4.33
  -1  -1  10   72.71    5.05
   1   1 -10   78.06    3.34
  -1   1  10   83.48    6.61
  -1   1  10   80.15    3.60
   1  -1  10   82.29    8.06
   1   1 -10   78.88    4.73
  -1  -1  12   96.80    5.28
   1  -1 -12   92.42    5.67
   1   1  12   94.97    9.50
   1  -1  12   83.36    9.68
   1   1 -12   84.69    8.56
  -1   1  12   93.30    5.95
  -1   1  12   93.01    5.57
   1   1  14   42.86    9.01
   1  -1  14   34.95    9.41
   1   1 -14   34.93    5.43
  -1   1  14   43.80    5.37
  -1  -2   1  407.11    9.39
   1  -2  -1  415.80    9.37
  -1   2  -1  433.37   10.10
   1   2   1  417.11   10.39
  -1  -2  -1  359.93    9.83
   1  -2   1  363.26    8.06
   1  -2   1  342.23    7.28
   1   2  -1  356.55   10.00
  -1   2   1  350.16    9.62
   1   2   3    6.55    1.07
  -1  -2   3    7.97    1.41
  -1   2  -3    5.99    1.10
   1  -2  -3    6.80    1.41
   1  -2  -3    7.62    0.91
   1   2  -3   14.29    1.47
  -1   2   3   12.08    1.47
   1  -2   3   10.34    1.43
  -1  -2  -3   13.02    1.23
   1   2   5  286.52    6.38
  -1  -2   5  283.48    8.21
  -1   2  -5  270.51    4.86
   1  -2  -5  302.30    7.39
   1  -2  -5  293.02    7.63
  -1   2  -5  264.43    4.88
  -1  -2  -5  283.71    6.63
   1   2  -5  292.49    8.08
   1  -2   5  288.37    7.76
  -1   2   5  286.34    8.51
   1   2  -5  281.87    7.11
  -1   2   5  292.30    7.49
   1   2   7  101.28    4.65
   1   2   7  101.12    2.75
  -1  -2   7   95.92    3.59
   1  -2  -7   98.87    3.60
   1   2  -7  119.22    4.93
   1  -2   7  120.99    5.04
  -1   2   7  123.77    5.17
   1   2  -7  120.06    4.93
  -1   2   7  126.78    4.31
   1   2   9  106.24    2.98
   1  -2  -9  104.42    4.40
  -1  -2   9  109.84    5.07
   1   2   9  112.68    7.63
   1   2   9  100.26    3.03
   1   2  -9   91.37    5.00
   1  -2   9   92.10    5.46
  -1   2   9   91.51    4.36
  -1   2   9   88.04    5.35
   1   2  -9   91.25    3.63
   1   2  11   95.66    6.11
  -1  -2  11  107.07    5.49
   1   2 -11  100.44    6.07
  -1   2  11   97.97    5.39
   1   2 -11  105.65    4.01
  -1   2  11  105.82    4.54
   1  -2  11   99.58    6.40
   1   2  13    4.99    5.22
   1   2 -13    4.37    4.91
  -1   2  13    4.48    1.83
  -1   2  13    0.96    2.80
  -1   2  13    6.01    2.09
   1  -2  13    4.42    3.41
   1   2 -13    0.59    1.39
   1   3   0   63.96    4.10
  -1  -3   0   66.38    4.24
  -1   3   0   60.15    2.56
   1  -3   0   63.93    1.82
   1   3  -2   87.62    3.26
  -1  -3  -2   92.53    3.33
  -1   3   2   86.94    3.30
   1  -3   2   89.74    2.77
  -1  -3   4   12.63    1.57
  -1   3  -4   11.80    2.60
  -1   3  -4   12.83    1.18
  -1   3  -4   13.18    0.97
   1   3   4   11.53    1.39
  -1  -3  -4   10.45    2.30
   1   3  -4    9.29    2.03
   1   3  -4    8.12    1.51
  -1   3   4    9.20    1.72
  -1   3   4    8.96    1.12
   1  -3   4   11.69    1.62
   1   3   6   64.22    3.35
  -1  -3   6   62.25    2.81
  -1   3  -6   57.99    1.43
  -1   3  -6   58.57    1.47
  -1   3  -6   69.94    3.55
   1   3  -6   46.60    3.65
  -1  -3  -6   49.62    2.31
  -1   3   6   49.70    4.07
  -1   3   6   49.17    2.13
   1  -3   6   47.98    3.26
   1   3  -6   52.25    3.47
   1   3   8   39.72    3.48
   1   3   8   37.57    2.80
  -1   3  -8   40.61    3.88
  -1  -3   8   42.28    2.50
   1   3  -8   44.53    3.72
  -1   3   8   35.66    2.72
   1  -3   8   38.03    5.62
  -1   3   8   43.63    2.53
   1   3  -8   41.51    2.51
   1   3  10   56.38    2.20
   1   3  10   68.88    4.78
  -1  -3  10   60.32    3.17
   1   3 -10   70.84    4.98
   1   3 -10   67.80    4.37
   1  -3  10   70.11    5.08
  -1   3  10   70.18    5.56
  -1   3  10   68.78    3.67
   1   3  12   23.04    6.73
  -1  -3  12   30.14    3.82
   1   3 -12   24.38    3.46
   1   3 -12   37.53    7.07
  -1   3  12   28.80    3.53
  -1   3  12   27.84    3.29
   1  -3  12   24.07    4.77
   1   3 -14   34.10    5.83
   1  -3  14   40.40    6.09
  -1   3  14   37.92    4.90
   1   4   1  189.06    6.94
  -1  -4   1  196.67    7.25
  -1   4  -1  189.03    4.74
  -1   4  -1  194.49    5.46
   1   4  -1  169.72    5.24
  -1  -4  -1  174.94    7.05
   1  -4   1  176.23    4.67
  -1   4   1  172.91    5.23
   1   4   3   32.69    3.43
  -1   4  -3   34.09    1.92
  -1   4  -3   29.32    2.88
  -1  -4   3   34.58    3.63
  -1  -4  -3   42.38    2.61
   1   4  -3   38.61    2.48
   1  -4   3   39.52    2.09
  -1   4   3   36.69    2.47
  -1  -4   5  161.09    5.22
   1   4   5  144.49    4.70
  -1   4  -5  156.07    5.28
  -1   4  -5  148.14    3.61
  -1   4  -5  164.00    4.86
   1   4  -5  163.13    7.64
  -1  -4  -5  152.70    6.32
   1  -4   5  150.64    5.19
  -1   4   5  161.07    4.11
  -1   4   5  161.00    6.79
   1   4  -5  152.09    6.13
  -1  -4   7  176.55    5.87
  -1   4  -7  177.12    6.66
  -1   4  -7  174.79    3.97
  -1   4  -7  165.24    3.73
   1   4   7  175.91    6.80
   1   4  -7  183.55    5.79
   1   4  -7  188.65    7.15
   1  -4   7  197.16    6.94
  -1   4   7  198.18    6.13
  -1   4   7  193.65    6.35
   1   4   9  152.41    6.62
  -1  -4   9  149.05    6.85
   1   4   9  145.31    5.01
  -1   4  -9  154.25    7.18
   1   4  -9  141.04    5.06
   1   4  -9  149.15    9.47
   1  -4   9  133.48    6.60
  -1   4   9  140.79    7.24
  -1   4   9  141.86    5.07
   1   4  11   44.18    3.84
   1   4  11   44.06    2.42
  -1  -4  11   48.97    4.63
   1   4  11   49.34    4.70
   1   4 -11   49.85    4.26
   1   4 -11   48.99    5.16
   1  -4  11   45.71    5.07
  -1   4  11   53.69    5.41
  -1   4  11   50.80    5.23
  -1   4  11   52.86    5.84
   1   4 -13    0.08    2.82
   1  -4  13   -1.04    1.75
  -1   4  13   -0.10    1.04
  -1   4  13    0.39    1.20
  -1   4  13    0.17    1.19
  -1  -5   0  278.04    8.14
   1   5   0  258.53    9.13
  -1   5   0  251.56    5.11
  -1   5   0  268.72    9.26
  -1  -5   2  685.33   18.97
   1   5   2  658.52   16.62
  -1   5  -2  642.51   14.55
  -1   5  -2  658.86   16.09
  -1  -5  -2  691.50   19.35
   1   5  -2  656.14   16.49
   1  -5   2  683.46   15.35
  -1   5   2  676.89   17.12
  -1   5   2  673.17   16.68
   1   5   4  278.19    9.72
  -1  -5   4  293.66    8.53
  -1   5  -4  280.63    7.42
  -1   5  -4  276.37    7.59
  -1  -5  -4  294.97   10.44
   1   5  -4  293.15    8.93
   1   5  -4  284.03    8.19
   1  -5   4  270.07    7.55
  -1   5   4  266.15    5.00
  -1   5   4  274.62    8.05
  -1  -5   6  384.49   12.80
   1   5   6  362.73   10.62
  -1   5  -6  386.56    9.17
  -1   5  -6  391.21   13.06
  -1  -5  -6  370.53   10.80
   1   5  -6  412.24   14.63
   1   5  -6  374.50   11.82
   1  -5   6  403.51   13.13
  -1   5   6  407.71   11.45
  -1   5   6  395.62    9.26
   1   5   8   10.76    2.61
   1   5   8    7.56    3.14
  -1  -5   8    8.47    3.32
  -1   5  -8    7.98    2.81
  -1   5  -8    8.41    1.13
  -1   5  -8    8.66    1.04
   1   5  -8    7.91    4.89
   1   5  -8    9.21    1.99
  -1   5   8   14.62    2.33
   1  -5   8    9.44    4.38
  -1   5   8   15.35    2.63
  -1   5   8    7.49    2.22
   1   5  10  238.90    8.22
   1   5  10  253.26    7.94
  -1  -5  10  259.01   10.40
   1   5  10  261.76   10.03
  -1   5 -10  259.80   10.60
   1   5 -10  259.09    8.16
   1   5 -10  243.40   10.42
   1  -5  10  253.67   10.09
  -1   5  10  258.37    8.09
  -1   5  10  271.09    9.73
  -1   5  10  244.74   10.85
  -1  -5  12   76.74    6.20
   1   5 -12   69.21    5.25
   1   5 -12   85.21   10.24
   1  -5  12   82.14    9.83
  -1   5  12   74.18    5.35
  -1   5  12   74.49    4.71
  -1   5  12   79.04    4.77
   1   6   1  490.39   15.35
  -1   6  -1  499.14   15.05
  -1   6  -1  476.24   10.61
  -1  -6   1  510.32   14.12
  -1  -6  -1  543.91   16.96
   1   6  -1  510.53   13.75
  -1   6   1  524.41   10.43
  -1   6   1  533.24   14.17
  -1  -6   3   97.87    6.23
   1   6   3   85.28    4.26
  -1   6  -3   85.20    3.36
  -1   6  -3   90.58    3.92
  -1  -6  -3   93.09    4.67
   1   6  -3   89.22    5.80
  -1   6   3   90.26    4.64
  -1   6   3   84.35    4.24
   1  -6   3   90.47    3.51
  -1  -6   5  427.17   12.72
   1   6   5  415.60   12.29
  -1   6  -5  441.22   11.47
  -1   6  -5  437.91   13.57
   1   6  -5  435.70   13.95
  -1  -6  -5  427.07   12.78
   1  -6   5  426.30   11.83
  -1   6   5  432.74   12.38
  -1   6   5  453.48   15.65
  -1   6   5  417.13    8.57
   1   6  -5  444.81   13.15
   1   6   7  318.54   10.39
  -1  -6   7  323.80   10.52
  -1   6  -7  331.98   10.74
  -1   6  -7  323.94    8.39
   1   6  -7  327.44    9.94
   1   6  -7  331.79   11.31
  -1   6   7  341.60   10.70
   1  -6   7  328.13   12.69
  -1   6   7  336.81    8.68
  -1   6   7  337.86   11.31
   1   6   9  220.53   10.37
   1   6   9  241.26   11.53
  -1   6  -9  219.64    5.52
  -1   6  -9  235.26    9.43
  -1  -6   9  238.03   10.60
   1   6  -9  260.55   10.52
   1   6  -9  255.42    8.44
  -1   6   9  253.45    9.05
   1  -6   9  239.45   12.19
  -1   6   9  248.56    8.34
  -1   6   9  251.96    9.72
   1   6  11  114.78    9.47
   1   6  11  109.20    7.62
   1   6  11  102.55    4.88
  -1  -6  11  120.17    5.86
  -1   6 -11  122.16    7.75
   1   6 -11  125.19   11.29
   1   6 -11  111.90    5.02
   1  -6  11  109.13    7.27
  -1   6  11  118.21    6.69
  -1   6  11  115.34    5.15
  -1   6  11  118.83    8.40
  -1  -7   0  384.91   12.16
   1   7   0  376.51   11.54
  -1   7   0  381.43   11.48
  -1   7   0  378.15    8.27
   1   7   2  216.67    7.78
  -1  -7   2  219.23    8.07
  -1   7  -2  214.07    7.40
  -1   7  -2  212.06    5.71
   1   7  -2  210.23    7.61
  -1  -7  -2  211.77    8.22
  -1   7   2  208.93    7.81
  -1   7   2  198.41    4.11
  -1  -7   4  133.55    6.07
   1   7   4  128.84    8.13
  -1   7  -4  119.23    5.01
  -1   7  -4  123.10    4.68
   1   7  -4  137.21    6.32
   1   7  -4  129.39    5.70
  -1   7   4  137.39    8.83
  -1   7   4  131.67    5.82
  -1  -7  -4  140.57    6.34
   1   7   6  159.71    6.92
  -1  -7   6  155.50    6.98
  -1   7  -6  160.33    8.43
  -1   7  -6  148.80    5.36
   1   7  -6  172.14    7.56
  -1  -7  -6  164.76    9.20
   1   7  -6  169.41    6.61
  -1   7   6  163.01    4.16
   1  -7   6  170.41    6.62
  -1   7   6  162.09    6.86
  -1   7   6  185.21   10.25
  -1  -7   8    6.52    2.68
   1   7   8   12.52    2.73
  -1   7  -8    5.26    4.73
  -1   7  -8    7.81    1.43
   1   7  -8    7.55    3.47
   1   7  -8    6.78    2.39
  -1   7   8    8.85    1.92
  -1   7   8    9.17    3.13
   1  -7   8    8.34    4.69
  -1   7   8    6.11    4.54
   1   7  10  102.88    6.06
  -1  -7  10  106.86    5.82
   1   7  10   98.19    5.89
  -1   7 -10   99.60    7.06
   1   7 -10   97.57    6.90
   1  -7  10  103.62    9.95
  -1   7  10  105.16    6.11
  -1   7  10  102.74    5.76
   1   7 -10   96.90    7.38
  -1   7  10  107.38    9.58
   1   7  12   37.63    5.50
   1   7  12   36.66    4.27
  -1   7 -12   41.62    6.35
   1   7 -12   44.89    6.40
   1   7 -12   37.20    4.93
  -1   7  12   40.54    6.91
   1  -7  12   46.38    6.48
  -1   7  12   48.17    8.04
  -1   8  -1   34.75    3.87
   1   8   1   37.71    6.37
  -1  -8   1   40.77    4.41
   1   8  -1   49.68    6.56
  -1   8   1   45.65    1.61
  -1   8   1   51.05    4.41
  -1  -8  -1   57.71    4.67
  -1   8  -3   19.70    2.85
  -1   8  -3   20.05    2.01
  -1  -8   3   22.30    5.49
   1   8   3   16.61    3.41
  -1   8   3   13.07    3.53
   1   8  -3   13.35    3.19
  -1  -8  -3   12.84    5.58
  -1  -8   5  117.93    6.26
  -1   8  -5  107.35    5.10
   1   8   5  116.16    6.26
  -1   8  -5  118.47    5.13
   1   8  -5  122.66    9.04
   1   8  -5  122.46    8.09
  -1  -8  -5  112.93    6.40
  -1   8   5  116.80    6.02
  -1   8   5  128.20    9.43
  -1   8  -7   51.22    4.58
  -1  -8   7   49.01    4.34
   1   8   7   51.87    4.61
  -1   8  -7   49.88    4.23
  -1   8   7   43.46    7.48
   1   8  -7   43.69    6.15
  -1   8   7   41.91    6.56
  -1   8   7   35.65    2.07
   1   8  -7   42.35    4.78
  -1  -8   9   46.17    6.84
   1   8   9   46.18    4.43
  -1   8  -9   43.55    7.71
  -1   8  -9   40.10    4.06
   1   8   9   43.98    7.19
   1  -8   9   31.21    4.90
  -1   8   9   55.00    3.56
  -1   8   9   64.15    5.10
  -1   8   9   61.51    5.63
   1   8  -9   54.95    6.06
   1   8  -9   54.50    6.26
   1   8  11   77.24    5.12
  -1   8 -11   82.84   10.36
   1   8  11   69.40    5.73
  -1  -8  11   73.50    7.87
  -1   8  11   78.19    9.86
  -1   8  11   70.82    5.84
   1   8 -11   68.96    7.62
   1   8 -11   72.33    4.49
  -1   9   0  335.39   14.89
  -1   9   0  327.38    8.95
   1   9   0  339.02   12.26
  -1  -9   0  349.15   16.00
   1   9   2    3.97    2.65
  -1   9  -2    5.62    2.04
  -1   9  -2    2.62    3.67
  -1  -9   2    4.94    2.79
  -1   9   2    1.39    0.90
  -1   9   2    1.04    2.71
  -1  -9  -2   -0.11    4.45
   1   9  -2    0.40    2.52
   1   9   4   16.17    6.04
  -1   9  -4   19.63    3.79
  -1   9  -4   21.34    3.11
  -1  -9   4   25.36    3.83
  -1  -9  -4   22.04    3.85
   1   9  -4   16.57    3.53
  -1   9   4   15.47    0.77
  -1   9   4   15.44    0.73
  -1   9   4   18.34    4.00
  -1   9   4    7.96    3.48
   1   9  -4   18.85    3.52
   1   9   6    4.30    5.25
  -1   9  -6    5.92    2.52
  -1   9  -6    3.77    3.78
  -1  -9   6    5.07    3.17
   1   9  -6    7.45    5.38
   1   9  -6   10.05    3.07
  -1   9   6    6.80    0.72
  -1   9   6    6.92    4.89
  -1   9   6    7.46    3.64
  -1  -9  -6    6.18    3.25
  -1   9  -8   34.83    4.41
   1   9   8   38.13    7.30
  -1   9  -8   29.59    3.29
  -1  -9   8   29.05    4.47
   1   9  -8   39.43    5.20
  -1   9   8   34.07    4.74
  -1   9   8   41.31    8.29
   1   9  -8   37.39    4.31
  -1   9 -10    5.62    3.28
  -1  -9  10    3.92    2.82
   1   9  10   -0.03    3.02
   1   9 -10    3.00    6.07
  -1   9  10    3.20    3.47
  -1   9  10   -0.04    3.13
   1   9 -10    1.90    2.30
  -1  10  -1   18.51    1.95
  -1  10  -1   23.04    4.07
   1  10   1   28.61    7.00
  -1 -10   1   24.49    4.66
  -1  10   1   21.08    2.17
  -1  10   1   25.21    4.30
  -1 -10  -1   18.46    7.39
   1  10  -1   17.41    6.94
  -1  10  -3   54.63    3.27
  -1  10  -3   56.65    4.99
   1  10   3   50.58    5.63
  -1 -10   3   50.52    5.72
  -1  10   3   58.98    5.76
  -1  10   3   45.76    1.93
  -1 -10  -3   55.40    8.64
   1  10  -3   52.17    7.88
   1  10  -3   50.86    4.96
  -1  10  -5  149.56    6.68
  -1  10  -5  147.94   10.13
  -1 -10   5  152.17    8.74
   1  10   5  165.70    8.69
  -1  10   5  153.88    8.22
  -1  10   5  162.65    9.17
   1  10  -5  159.85    8.35
  -1 -10  -5  150.24    8.75
   1  10  -5  171.98    8.35
  -1  10  -7   29.98    3.81
  -1  10  -7   35.23    6.43
   1  10   7   -0.00    8.02
  -1 -10   7   32.58    4.96
  -1  10   7   28.48    4.69
  -1  10   7   31.18    5.63
   1  10  -7   43.54    8.08
   1  10  -7   38.66    6.88
  -1  10  -9   23.97    7.83
  -1  10  -9   29.87    5.37
   1  10   9   39.05    5.35
  -1 -10   9   33.51    7.73
  -1  10   9   26.28    5.31
  -1  10   9   34.55    9.44
   1  10  -9   38.87    5.90
   1  10  -9   29.37    6.35
  -1  11   0  421.10   15.80
  -1  11   0  390.34   10.34
  -1 -11   0  432.32   16.93
   1  11   0  435.15   16.63
  -1  11  -2   67.65    6.34
  -1  11  -2   57.52    4.84
   1  11   2   63.61   10.26
  -1 -11   2   64.40    6.96
  -1  11   2   71.01    6.81
  -1  11   2   61.01    2.95
  -1 -11  -2   68.45   10.26
   1  11  -2   66.62    5.59
   1  11  -2   55.86    6.28
  -1  11  -4  127.59    7.55
  -1  11  -4  115.79    7.54
   1  11   4  124.42    8.40
  -1 -11   4  124.27    8.66
  -1  11   4  122.01    8.65
  -1 -11  -4  105.60   11.95
   1  11  -4  110.76    7.13
   1  11  -4  112.76    8.06
  -1  11  -6   52.01    4.72
  -1  11  -6   57.32    5.21
   1  11   6   56.82    6.64
  -1 -11   6   53.91    6.49
  -1  11   6   55.64    9.29
  -1  11   6   51.20    6.83
   1  11  -6   54.11    8.90
   1  11  -6   47.66    5.89
  -1  11  -8   57.28    5.43
  -1  11  -8   59.75    5.79
   1  11   8   61.74    7.09
  -1 -11   8   58.11    6.71
   1  11  -8   67.30    8.66
  -1  11   8   69.01    9.75
  -1  11   8   65.31    7.84
   1  11  -8   72.79   10.63
  -1  12  -1   95.49    5.82
  -1 -12   1   98.16    8.75
  -1  12  -1  116.60    8.49
   1  12   1  118.16    8.91
  -1  12   1   96.38    8.36
  -1 -12  -1  107.86    8.76
   1  12  -1   93.67    8.18
  -1  12  -3   47.00    6.09
  -1  12  -3   45.97    5.38
   1  12   3   57.12   10.73
  -1 -12   3   40.56    6.87
  -1  12   3   55.94   11.04
  -1 -12  -3   42.57   10.55
   1  12  -3   54.04    5.39
   1  12  -3   45.68    6.42
  -1  12  -5  140.61    6.93
  -1  12  -5  133.18   11.93
   1  12   5  136.95    9.93
  -1 -12   5  131.45   13.81
  -1  12   5  145.89   15.23
  -1  12   5  125.48    8.73
   1  12  -5  139.90   12.21
   1  12  -5  133.28    9.01
  -1  13   0   67.40    7.97
  -1 -13   0   51.82    7.84
   1  13   0   57.53   11.78
  -1  13  -2   62.62    7.37
  -1  13  -2   54.06    5.51
   1  13   2   60.94    7.91
  -1 -13   2   56.02   11.91
  -1  13   2   72.45   12.38
  -1 -13  -2   58.96   12.23
   1  13  -2   58.35    6.00
   1  13  -2   59.00    7.79
  -1  13  -4   51.76    4.43
  -1  13  -4   50.24    6.74
   1  13   4   45.49   12.31
  -1 -13   4   44.48    7.53
  -1  13   4   59.45    7.95
  -1  13   4   43.04    6.64
   1  13  -4   56.51    6.14
   1  13  -4   54.69   10.91
   2   0   0 2443.62   60.38
  -2   0   0 2472.19   59.89
   2   0  -2  805.62   19.44
  -2   0  -2  806.20   19.84
   2   0   2  810.59   18.60
  -2   0   2  779.73   19.13
  -2   0  -4  811.57   18.23
   2   0   4  801.97   17.91
  -2   0   4  807.42   20.14
   2   0  -4  799.61   19.92
   2   0  -6  484.65   14.20
  -2   0  -6  497.25   11.41
   2   0   6  506.15   14.47
   2   0   6  504.43   11.21
  -2   0   6  494.51   15.35
   2   0  -6  494.59   13.54
   2   0   8  228.27   11.49
  -2   0   8  230.53    8.06
   2   0  -8  229.61    7.62
   2   0  -8  232.47   10.10
   2   0  10  218.15    9.63
  -2   0  10  217.62    8.09
   2   0 -10  215.72    8.08
   2   0 -10  197.59    7.96
   2   0  12  150.94   12.67
   2   0 -12  156.56    9.56
   2   0 -12  148.94    7.51
  -2   0  12  157.56    7.16
   2  -1  -1  731.70   17.43
  -2   1  -1  704.24   16.66
  -2  -1   1  770.27   20.21
   2   1   1  730.73   17.20
   2  -1   1  688.58   16.19
  -2  -1  -1  721.38   17.35
   2   1  -1  689.66   16.95
  -2   1   1  720.41   18.87
   2   1   3  369.80    9.00
  -2  -1   3  376.78   10.15
  -2   1  -3  376.32    8.89
   2  -1  -3  382.95   11.69
  -2  -1  -3  378.73    9.30
   2   1  -3  377.40   10.14
   2  -1   3  391.38   10.00
  -2   1   3  390.74   12.14
  -2  -1   5  847.17   21.55
  -2   1  -5  860.92   19.46
   2  -1  -5  866.15   21.55
   2  -1  -5  873.35   22.04
   2   1   5  871.65   19.60
  -2  -1  -5  855.93   20.68
   2   1  -5  864.39   21.82
   2   1  -5  848.12   21.92
   2  -1   5  879.66   22.64
   2  -1   5  868.53   18.68
  -2   1   5  849.51   21.74
   2   1   7  383.84    9.09
   2   1   7  394.37   12.45
  -2  -1   7  375.89   11.16
  -2   1  -7  382.66    7.79
   2  -1  -7  375.49   10.23
   2  -1  -7  386.65   11.52
   2   1  -7  393.78   11.44
  -2  -1  -7  390.60    9.59
   2   1  -7  394.00   13.26
   2  -1   7  410.09   12.46
  -2   1   7  394.01   11.59
   2   1   9  276.93   10.46
  -2  -1   9  282.00    9.69
   2  -1  -9  271.43    8.61
   2  -1  -9  282.73   11.32
   2   1  -9  256.44    9.18
   2  -1   9  276.25   10.45
  -2   1   9  259.72    9.13
   2   1  -9  273.31    9.20
   2   1  11  233.68   10.54
  -2  -1  11  237.03    8.90
   2  -1 -11  237.35    9.09
   2  -1 -11  220.91    8.50
   2   1 -11  237.82   11.13
   2   1 -11  225.33    9.21
   2  -1  11  234.11   13.70
  -2   1  11  234.88    8.99
   2   1  13   56.33    9.85
  -2  -1  13   43.86    4.30
   2  -1 -13   43.23    6.97
   2   1 -13   45.24    6.17
   2   1 -13   41.98    5.15
   2  -1  13   33.59    6.48
  -2   1  13   52.60    6.86
  -2  -2   0 1005.31   24.35
   2   2   0  999.22   25.51
   2  -2   0 1010.80   23.98
  -2   2   0 1007.01   24.11
  -2  -2   2  295.66    8.62
   2   2   2  297.81    7.94
  -2   2  -2  305.40    7.89
   2  -2  -2  310.82    8.62
  -2  -2  -2  335.64    8.69
   2   2  -2  330.92   10.54
   2  -2   2  338.75    9.25
  -2   2   2  331.40    9.09
  -2  -2   4  240.68    7.53
   2  -2  -4  246.94    5.86
   2  -2  -4  249.62    9.32
  -2   2  -4  247.61    6.79
   2   2   4  240.83    7.62
  -2  -2  -4  246.61    7.94
   2   2  -4  243.10    7.58
   2  -2   4  236.16    8.59
   2  -2   4  236.14    5.66
  -2   2   4  241.17    7.52
   2   2   6  220.43    5.76
  -2   2  -6  221.67    5.32
   2  -2  -6  225.79    5.91
   2  -2  -6  231.13    7.67
  -2  -2   6  227.94    7.56
  -2  -2  -6  209.90    5.92
   2   2  -6  200.74    7.02
   2   2  -6  194.46    7.17
   2  -2   6  207.17    7.46
  -2   2   6  215.82    9.56
   2   2   8   34.59    3.97
  -2  -2   8   32.86    3.18
   2  -2  -8   30.82    3.30
   2  -2  -8   27.93    3.26
   2   2   8   28.98    2.20
  -2  -2  -8   29.60    1.67
   2   2  -8   30.66    3.07
   2  -2   8   28.74    5.82
  -2   2   8   30.91    5.25
   2   2  -8   32.26    5.10
   2   2  10  122.31    7.41
  -2  -2  10  115.47    5.86
   2  -2 -10  119.89    6.74
   2  -2 -10  124.77    6.31
   2   2 -10  137.44    9.14
   2   2 -10  133.52    8.16
   2  -2  10  127.63    7.31
  -2   2  10  134.21    8.50
   2   2  12   70.70    6.64
  -2  -2  12   63.28    4.68
   2  -2 -12   64.41    4.58
   2   2 -12   72.48    7.06
   2   2 -12   61.02    8.44
   2  -2  12   60.22    6.76
  -2   2  12   74.10    7.52
  -2   3  -1  347.43   10.17
   2  -3  -1  341.15    9.00
   2   3   1  336.92   10.49
  -2  -3   1  320.09    8.98
  -2  -3  -1  298.43    8.54
   2   3  -1  304.42   10.32
   2  -3   1  287.01    6.99
   2  -3   1  304.60    9.24
  -2   3   1  294.66    8.40
   2   3   3   24.39    2.29
  -2  -3   3   28.32    4.28
  -2   3  -3   25.69    2.75
   2  -3  -3   24.52    2.62
   2  -3  -3   25.35    1.47
  -2  -3  -3   37.25    3.68
   2   3  -3   33.70    2.91
   2  -3   3   38.96    3.21
  -2   3   3   37.47    4.19
  -2   3  -5  335.10    8.62
   2  -3  -5  323.93    9.67
   2  -3  -5  316.51    6.89
  -2  -3   5  319.54    9.83
   2   3   5  317.57    8.62
  -2  -3  -5  314.50   10.27
   2   3  -5  323.09    9.65
   2  -3   5  315.78    9.33
  -2   3   5  328.72    9.96
   2   3   7  187.85    5.76
  -2  -3   7  193.49    9.29
  -2   3  -7  193.93    4.66
   2  -3  -7  194.02    6.07
   2  -3  -7  199.16    7.63
  -2  -3  -7  202.57    6.24
   2   3  -7  207.32    7.98
   2  -3   7  219.60    7.96
  -2   3   7  235.97    8.10
   2   3  -7  216.64    7.56
   2   3   9  181.93    6.16
  -2  -3   9  180.89    7.18
   2  -3  -9  183.52    5.69
   2   3   9  188.91   11.47
   2   3  -9  165.08    7.63
   2   3  -9  170.77    9.12
   2  -3   9  160.02    7.85
  -2   3   9  166.38    7.32
   2   3  11   86.84    7.05
  -2  -3  11   93.91    7.56
   2   3 -11   86.14    6.44
   2   3 -11   94.36    7.65
   2  -3  11  100.37    7.08
  -2   3  11   97.46    5.87
  -2  -3  13    6.29    2.92
   2   3 -13    3.94    4.40
   2   3 -13    3.82    3.82
   2  -3  13    3.53    4.42
  -2   3  13   11.00    3.12
  -2  -4   0  574.67   17.36
   2   4   0  564.60   14.83
  -2   4   0  567.72   14.67
   2  -4   0  567.03   12.57
   2   4   2  297.25    8.64
  -2  -4   2  293.98   11.18
  -2   4  -2  287.85    8.02
  -2  -4  -2  314.82    9.35
   2   4  -2  310.76    9.15
   2  -4   2  314.90    7.79
  -2   4   2  313.70    9.12
   2   4   4  215.38    8.37
  -2  -4   4  228.87    7.78
  -2   4  -4  210.26    5.82
   2   4  -4  224.53    7.67
   2  -4   4  218.60    6.63
  -2   4   4  226.44    9.69
  -2  -4  -4  209.69    7.00
   2   4   6  215.34    8.29
  -2  -4   6  213.36    7.78
  -2   4  -6  224.74    6.29
  -2   4  -6  215.08    5.61
   2  -4  -6  211.64    4.62
  -2  -4  -6  202.50    6.92
   2   4  -6  210.56    7.51
   2   4  -6  210.30   10.58
   2  -4   6  195.39    7.30
  -2   4   6  204.65    7.68
   2   4   8    8.47    1.76
  -2  -4   8    8.73    2.64
  -2  -4  -8   10.45    1.87
   2   4  -8   10.19    4.23
   2   4  -8   15.27    3.18
   2  -4   8    8.33    4.84
  -2   4   8    8.65    2.84
   2   4  10  133.68    7.72
   2   4  10  120.35    5.92
  -2  -4  10  128.27    8.86
   2   4 -10  143.17    6.77
   2   4 -10  135.02    7.57
   2  -4  10  139.13   10.67
  -2   4  10  131.66    6.83
  -2  -4  12   68.25    7.59
   2   4 -12   68.66    9.71
   2   4 -12   68.20    7.09
   2  -4  12   57.32    6.55
  -2   4  12   65.30    8.05
  -2  -5   1  474.99   15.98
  -2   5  -1  457.72   12.35
   2   5   1  456.91   14.97
  -2  -5  -1  476.68   15.77
   2   5  -1  461.84   15.19
   2  -5   1  468.32   10.43
  -2   5   1  469.08   12.92
   2   5   3  189.40    6.76
  -2  -5   3  198.20    7.57
  -2   5  -3  183.97    5.76
  -2  -5  -3  190.48    7.02
   2   5  -3  203.89    9.25
   2  -5   3  194.32    7.04
  -2   5   3  197.71    7.12
   2   5   5  483.65   15.59
  -2  -5   5  479.39   14.30
  -2   5  -5  501.91   14.15
  -2   5  -5  479.45   13.04
  -2  -5  -5  462.91   15.66
   2   5  -5  483.16   14.36
   2  -5   5  487.02   13.62
  -2   5   5  475.22   14.19
   2   5   7  288.13   10.97
  -2   5  -7  292.95    8.40
  -2   5  -7  267.35    6.67
  -2  -5   7  287.71   10.11
  -2  -5  -7  265.16    9.14
   2   5  -7  290.09   12.01
   2   5  -7  290.07   13.73
   2  -5   7  306.94   10.20
  -2   5   7  293.19   10.21
   2   5   9  220.01    7.75
  -2  -5   9  211.56   11.34
  -2  -5  -9  188.70    7.03
   2   5  -9  216.27   12.79
   2   5  -9  235.69   11.89
   2  -5   9  216.95    9.11
  -2   5   9  218.56    8.97
   2   5  11  145.23    8.83
  -2  -5  11  146.14   10.12
   2   5 -11  154.16    9.96
   2   5 -11  146.46    9.01
   2  -5  11  158.18   12.02
  -2   5  11  161.04    8.06
   2   6   0  713.37   19.70
  -2   6   0  716.35   19.41
   2  -6   0  709.72   14.71
  -2  -6   0  712.84   20.36
  -2  -6   2  482.26   14.56
  -2   6  -2  474.44   13.67
  -2   6  -2  451.98   12.79
   2   6   2  476.64   16.18
  -2  -6  -2  475.13   17.03
   2   6  -2  474.91   14.19
   2  -6   2  467.86   11.27
  -2   6   2  461.25   13.81
  -2  -6   4  355.80   12.13
   2   6   4  350.94   11.14
  -2   6  -4  356.11   12.18
  -2   6  -4  354.16   11.21
  -2  -6  -4  350.98   11.74
   2   6  -4  367.44   14.38
   2  -6   4  348.62   11.30
  -2   6   4  366.19   11.68
  -2  -6   6  325.31   14.09
  -2   6  -6  300.25    8.18
  -2   6  -6  315.99   10.51
   2   6   6  306.71   10.33
  -2  -6  -6  316.85   11.19
   2   6  -6  324.06   11.09
   2   6  -6  335.83   15.31
   2  -6   6  324.74   12.57
  -2   6   6  349.08   14.21
   2   6   8   58.46    4.06
  -2  -6   8   64.75    4.99
  -2   6  -8   48.25    2.85
  -2   6  -8   53.59    2.31
  -2  -6  -8   57.11    5.93
   2   6  -8   66.35    7.35
   2   6  -8   65.92    8.52
   2  -6   8   58.99    4.70
  -2   6   8   58.49    7.39
   2   6  10  174.40    9.13
   2   6  10  144.65    6.62
  -2  -6  10  163.25    8.21
   2   6 -10  164.26    9.21
   2   6 -10  167.83   10.56
   2  -6  10  169.98    8.50
  -2   6  10  162.18    8.34
  -2  -7   1  253.53    9.98
  -2   7  -1  238.46    8.43
  -2   7  -1  255.95   11.45
   2   7   1  246.07    9.15
  -2  -7  -1  284.71   10.69
   2   7  -1  280.02   10.08
  -2   7   1  277.87    9.92
  -2   7   1  277.66   11.98
   2   7   3  123.52    8.31
  -2  -7   3  119.55    6.60
  -2   7  -3  116.05    6.76
  -2   7  -3  118.53    5.63
  -2  -7  -3  116.77    6.49
   2   7  -3  118.11    6.34
   2  -7   3  115.62    5.50
  -2   7   3  124.58    6.28
   2   7   5  296.38   12.92
  -2  -7   5  283.51   11.08
  -2   7  -5  287.93    9.25
  -2   7  -5  266.06    8.18
  -2  -7  -5  276.55   10.81
   2   7  -5  279.66   12.79
   2  -7   5  278.03    9.04
  -2   7   5  291.06   13.47
   2   7   7  205.79   10.72
  -2  -7   7  190.16    9.03
  -2   7  -7  176.08    6.94
  -2   7  -7  184.97    6.23
  -2  -7  -7  169.13    8.05
   2   7  -7  192.08    8.87
   2   7  -7  187.81   12.51
   2  -7   7  169.69    7.43
  -2   7   7  178.73   11.45
  -2  -7   9  158.64    8.32
   2   7   9  137.34    7.12
  -2  -7  -9  144.57    7.11
   2   7  -9  162.99    7.89
   2   7  -9  164.27    9.38
   2  -7   9  161.62    8.11
  -2   7   9  190.93    9.43
  -2   7   9  171.41   11.65
   2   7  11   92.91    7.96
  -2  -7  11  126.58   10.49
   2   7 -11  104.74    6.27
   2   7 -11  116.42    8.84
   2  -7  11  108.78    7.66
  -2   7  11  115.55    7.77
  -2   7  11  120.87    8.15
   2   8   0  290.06   10.70
  -2   8   0  277.14   10.55
  -2  -8   0  287.71   11.39
  -2   8   0  274.74    9.98
   2   8   2   73.23    8.07
  -2  -8   2   84.33    9.13
  -2   8  -2   79.87    5.19
  -2   8  -2   78.31    4.70
  -2  -8  -2   73.14    8.66
   2   8  -2   68.81    5.56
  -2   8   2   66.45    5.22
  -2   8   2   80.42    8.51
   2   8   4   63.81    5.32
  -2   8  -4   67.37    6.71
  -2   8  -4   60.94    3.91
  -2  -8   4   70.00    5.76
  -2  -8  -4   72.12    5.88
   2   8  -4   75.65    8.07
   2  -8   4   73.13    3.83
  -2   8   4   65.40    5.48
  -2   8   4   69.74    5.82
   2   8   6   54.52    5.15
  -2  -8   6   59.88    5.72
  -2   8  -6   52.94    3.51
  -2   8  -6   58.52    3.90
  -2  -8  -6   58.79    8.15
   2   8  -6   71.62    5.64
   2  -8   6   65.25    4.24
  -2   8   6   60.38    6.01
   2   8  -6   69.59    6.05
  -2   8   6   67.57    8.39
   2   8   8   18.34    3.76
  -2  -8   8   21.59    4.12
  -2   8  -8   16.34    3.45
  -2   8  -8   12.42    2.93
  -2  -8  -8    9.65    5.79
   2   8  -8   16.26    3.78
   2   8  -8    9.75    7.60
   2  -8   8   14.00    3.34
  -2   8   8   16.54    7.27
  -2   8   8   15.66    6.71
   2   8  10   39.35    4.57
  -2  -8  10   47.79    8.48
   2   8 -10   43.19    6.50
   2   8 -10   36.59    4.48
   2  -8  10   45.58    5.17
  -2   8  10   37.55    8.71
  -2   8  10   44.20    6.15
   2   9   1   43.06    4.93
  -2  -9   1   38.96    5.55
  -2   9  -1   44.20    7.25
  -2   9  -1   38.16    6.49
  -2  -9  -1   47.82    5.81
   2   9  -1   48.60    7.98
  -2   9   1   53.49    4.81
  -2   9   1   44.07    5.21
  -2  -9   3   29.20    4.83
  -2   9  -3   23.25    5.27
   2   9   3   23.78    4.37
  -2   9  -3   22.61    3.83
  -2  -9  -3   22.71    4.74
   2   9  -3   21.86    6.88
  -2   9   3   17.72    4.58
  -2   9   3   20.41    4.22
   2   9   5   96.91    7.02
  -2  -9   5  106.36    7.91
  -2   9  -5  108.52    8.25
  -2   9  -5  102.56    5.30
  -2  -9  -5  115.42    7.83
   2   9  -5  117.03   10.92
   2   9  -5  115.40    7.97
  -2   9   5  121.01    7.50
  -2   9   5  121.08    7.80
   2   9   7   57.21    5.44
  -2  -9   7   43.06    5.85
  -2   9  -7   47.78    3.89
  -2   9  -7   46.81    3.46
  -2  -9  -7   42.06    5.36
   2   9  -7   46.21    6.23
   2   9  -7   46.84    5.23
  -2   9   7   53.68    8.81
   2  -9   7   42.54    4.36
  -2   9   7   45.65    6.16
   2   9   9   31.32    5.04
  -2  -9   9   41.83    5.79
   2   9  -9   37.97    4.77
   2   9  -9   47.41   10.48
   2  -9   9   45.69    5.18
  -2   9   9   47.94    6.18
  -2   9   9   47.06    6.53
  -2 -10   0  240.75   12.09
   2  10   0  230.35   10.75
  -2  10   0  237.26   10.91
  -2  10   0  215.71   12.53
   2  10   2   60.44    6.12
  -2 -10   2   54.37    9.94
  -2  10  -2   57.14    5.56
  -2  10  -2   46.26    4.70
  -2 -10  -2   67.42    6.77
   2  10  -2   59.35    6.17
  -2  10   2   59.47    9.49
  -2  10   2   60.64    5.65
   2  10   4   75.40    6.58
  -2 -10   4   77.79    7.27
  -2  10  -4   66.83    5.67
  -2  10  -4   70.63    7.26
  -2 -10  -4   77.92    7.38
   2  10  -4   81.37    6.98
  -2  10   4   74.05    7.29
  -2  10   4   75.34    6.55
   2  10   6   41.16    5.93
  -2 -10   6   48.09    6.24
  -2  10  -6   43.48    4.63
  -2  10  -6   40.86    4.05
  -2 -10  -6   46.95    9.40
   2  10  -6   42.33    5.88
   2  10  -6   55.11    6.30
  -2  10   6   41.21    6.61
  -2  10   6   49.26    6.17
   2  10   8   20.86    4.83
  -2 -10   8   17.71    5.36
  -2  10  -8   21.57    3.36
  -2  10  -8   18.61    4.44
  -2 -10  -8   24.94    4.88
   2  10  -8    9.37    6.95
   2  10  -8   25.91    5.81
  -2  10   8   26.77    5.34
  -2  10   8   25.56    5.87
  -2 -11   1  118.46   13.62
  -2  11  -1   95.86    6.80
   2  11   1  117.42   12.00
  -2  11  -1  109.75    7.89
  -2 -11  -1  109.79    9.14
   2  11  -1  104.52    8.09
  -2  11   1   91.26   10.36
  -2  11   1   98.87   11.87
   2  11   3   57.03    6.86
  -2 -11   3   53.65    7.20
  -2  11  -3   58.87    6.00
  -2  11  -3   48.94    5.18
  -2 -11  -3   53.32    7.40
   2  11  -3   59.48    6.96
  -2  11   3   49.19    6.25
  -2  11   3   59.68    7.23
   2  11   5  150.72    9.72
  -2 -11   5  142.23   10.41
  -2  11  -5  147.45    8.42
  -2  11  -5  128.83   10.01
  -2 -11  -5  144.24   10.07
   2  11  -5  151.45    9.50
   2  11  -5  141.51    9.60
  -2  11   5  140.29   13.20
  -2  11   5  152.31   10.51
  -2 -12   0  162.98   16.28
   2  12   0  162.80   10.47
  -2  12   0  155.33   14.75
  -2  12   0  133.86    8.76
   2  12   2   93.24    8.98
  -2 -12   2  103.90    9.66
  -2  12  -2  103.29   11.92
  -2  12  -2   76.89    6.80
  -2 -12  -2  113.17    9.82
   2  12  -2  117.29   13.19
  -2  12   2   97.19    9.13
  -2  12   2   94.96   11.69
   2  12   4   68.66    8.35
  -2 -12   4   79.21    9.11
  -2  12  -4   84.29    7.48
  -2  12  -4   75.68    9.42
  -2 -12  -4   79.94    8.97
   2  12  -4   83.78   12.31
   2  12  -4   83.98    8.31
  -2  12   4  100.73    8.98
  -2  12   4   70.07    7.85
   3   0   1  218.79    9.06
  -3   0   1  224.20    7.93
   3   0  -1  207.30    7.47
  -3   0  -1  217.21    9.78
   3   0   3   56.84    3.30
   3   0  -3   60.39    4.29
  -3   0   3   52.85    6.66
  -3   0  -3   55.22    3.45
  -3   0  -5  231.58    6.97
   3   0   5  240.10    8.53
  -3   0   5  237.63   11.93
   3   0  -5  238.30    9.00
   3   0   7  189.47    8.87
  -3   0  -7  178.88    6.55
   3   0   7  185.48    6.26
  -3   0   7  186.14    8.29
   3   0  -7  180.04    6.92
   3   0  -7  187.27    8.07
   3   0  -9  132.36    8.19
   3   0   9  136.82   11.63
  -3   0   9  138.56    7.42
   3   0  -9  139.89    7.55
   3   0  11   80.29    7.85
  -3   0  11   91.77    6.94
   3   0 -11   86.23    6.48
   3   0 -11   76.31    5.46
   3   1   0  231.35    7.91
   3  -1   0  235.83    7.87
  -3   1   0  237.79    8.16
  -3  -1   0  242.95   10.51
  -3   1  -2  171.62    6.26
  -3  -1   2  192.46    7.63
   3  -1  -2  178.98    9.21
   3   1   2  176.46    6.41
  -3  -1  -2  185.91    6.71
   3   1  -2  180.13    7.12
   3  -1   2  201.03    8.16
  -3   1   2  187.14    7.27
   3   1   4  127.82    6.49
  -3   1  -4  123.42    6.25
  -3  -1   4  126.65    6.52
   3  -1  -4  122.67    6.03
  -3  -1  -4  113.20    6.42
   3   1  -4  123.78    8.57
   3  -1   4  122.88    4.60
  -3   1   4  135.53    6.37
   3   1   6  141.40    4.92
  -3  -1   6  143.44    7.21
  -3   1  -6  136.44    4.57
   3  -1  -6  156.39    9.81
   3  -1  -6  130.15    6.59
  -3  -1  -6  127.08    4.78
   3   1  -6  132.09    6.23
   3  -1   6  127.83    6.67
   3  -1   6  131.27    5.53
  -3   1   6  143.64    9.56
   3   1  -6  137.77    6.70
   3  -1  -8    2.74    1.48
   3   1   8    2.58    2.62
   3   1   8    0.20    0.90
  -3  -1   8    1.90    2.45
  -3   1  -8    1.55    1.24
   3  -1  -8    1.11    3.67
  -3  -1  -8    1.43    1.09
   3   1  -8    2.54    1.87
   3   1  -8    1.57    3.57
   3  -1   8    4.79    3.94
   3  -1   8   -0.17    0.68
  -3   1   8    1.46    2.39
   3   1  10  114.01   11.34
  -3  -1  10  101.12    9.74
   3  -1 -10   87.52    9.38
   3  -1 -10   95.70    7.04
   3   1 -10   96.49    6.17
   3   1 -10  107.06    9.54
   3  -1  10  107.28    7.73
  -3   1  10  105.30    9.95
  -3   2  -1  113.48    5.10
  -3  -2   1  125.01    8.19
   3  -2  -1  119.84    5.49
   3   2   1  116.92    5.22
   3   2  -1   97.47    5.31
  -3  -2  -1  101.85    7.15
   3  -2   1  103.82    4.80
  -3   2   1   91.54    5.15
   3  -2  -3    6.01    2.60
   3   2   3    6.56    3.35
  -3  -2   3    3.12    2.73
  -3   2  -3    4.46    1.86
  -3  -2  -3    8.28    2.17
   3   2  -3    7.76    2.74
   3  -2   3    8.39    2.96
  -3   2   3   10.83    2.75
   3   2   5  127.64    5.12
  -3  -2   5  129.98    6.65
  -3   2  -5  125.03    4.55
   3  -2  -5  125.20    9.16
   3  -2  -5  119.83    5.50
  -3  -2  -5  118.33    4.94
   3  -2   5  111.29    7.94
   3  -2   5  124.02    5.50
  -3   2   5  122.67    6.42
   3   2  -5  112.62    6.30
   3  -2  -7   79.88    3.68
   3   2   7   91.61    3.83
  -3  -2   7   93.95    6.08
  -3   2  -7   81.96    3.10
   3  -2  -7   91.02    6.04
  -3  -2  -7   98.15    4.30
   3   2  -7  102.48    5.72
   3   2  -7  110.53    5.97
   3  -2   7  106.25    6.09
  -3   2   7   99.53    9.11
   3   2   9   96.33    7.44
   3   2   9   80.78    3.12
  -3  -2   9   98.93    9.25
   3  -2  -9  103.52    6.33
   3  -2  -9   95.85    4.27
  -3  -2  -9   71.56    4.62
   3   2  -9   87.52    8.35
   3   2  -9   87.25    5.98
   3  -2   9   77.86    6.58
  -3   2   9   82.04    6.26
   3   2  11   60.62    6.94
  -3  -2  11   47.28    5.66
   3  -2 -11   48.38    3.92
   3  -2 -11   56.53    5.68
   3   2 -11   44.98    8.26
   3   2 -11   52.51    8.03
   3  -2  11   51.45    6.36
  -3   2  11   57.08    5.90
  -3  -3   0  185.21    7.53
   3   3   0  192.64    7.36
  -3   3   0  201.12    7.66
   3  -3   0  197.34    7.31
  -3  -3   2   32.79    6.18
  -3   3  -2   30.52    3.06
   3  -3  -2   32.63    3.65
   3   3   2   33.44    5.21
  -3  -3  -2   36.97    5.30
   3   3  -2   50.31    6.00
   3  -3   2   42.18    3.11
  -3   3   2   44.95    4.09
  -3  -3   4   26.21    3.97
   3   3   4   33.07    4.53
  -3   3  -4   26.00    2.47
   3  -3  -4   33.27    5.86
   3  -3  -4   27.19    1.77
  -3  -3  -4   25.73    3.06
   3   3  -4   30.92    3.80
   3  -3   4   22.63    2.91
   3  -3   4   24.81    2.45
  -3   3   4   25.00    4.01
   3   3   6   40.81    3.06
  -3  -3   6   37.92    4.60
  -3   3  -6   36.55    3.40
   3  -3  -6   37.67    2.88
   3  -3  -6   35.95    4.29
   3   3  -6   23.68    4.20
  -3  -3  -6   34.35    4.78
   3   3  -6   34.91    4.24
   3  -3   6   31.72    3.81
  -3   3   6   35.87    7.00
   3   3   8    1.88    1.86
  -3  -3   8   -0.43    3.55
  -3   3  -8    0.76    1.14
  -3   3  -8    0.09    0.65
   3  -3  -8    0.72    3.66
   3  -3  -8    0.63    1.51
  -3  -3  -8    0.25    2.16
   3   3  -8    1.28    3.40
   3   3  -8    1.08    2.11
   3  -3   8    0.48    3.47
  -3   3   8    1.35    2.28
   3   3  10   36.63    9.12
  -3  -3  10   26.94    4.73
   3  -3 -10   30.74    4.08
   3  -3 -10   33.09    4.96
   3   3 -10   39.93    4.94
   3   3 -10   40.17    4.69
   3  -3  10   35.06    8.27
  -3   3  10   37.65    5.34
  -3   4  -1   49.76    3.76
   3  -4  -1   45.59    6.14
   3   4   1   56.66    6.19
  -3  -4   1   48.89    4.35
  -3  -4  -1   43.05    4.04
   3   4  -1   37.43    4.11
   3  -4   1   36.50    3.33
   3  -4   1   42.28    3.67
  -3   4   1   43.29    3.99
   3   4   3   22.84    3.32
  -3  -4   3   27.06    6.16
  -3   4  -3   27.65    2.85
   3  -4  -3   22.96    5.82
  -3  -4  -3   28.23    5.25
   3   4  -3   29.71    3.85
   3  -4   3   25.70    2.53
  -3   4   3   22.37    3.88
  -3   4  -5  144.97    6.61
   3  -4  -5  139.19    3.91
   3  -4  -5  153.60    7.65
  -3  -4   5  143.74    7.51
   3   4   5  151.46    6.71
  -3  -4  -5  138.62    8.50
   3   4  -5  148.35    7.41
   3  -4   5  143.77    6.28
  -3   4   5  151.23    7.48
   3   4   7   46.18    3.48
  -3  -4   7   50.74    7.96
  -3   4  -7   49.39    2.72
  -3   4  -7   49.62    3.48
   3  -4  -7   43.66    2.46
   3  -4  -7   58.39    5.34
   3   4  -7   58.88    7.98
  -3  -4  -7   54.39    4.06
   3   4  -7   59.87    5.06
   3  -4   7   55.23    4.69
  -3   4   7   60.20    5.60
  -3  -4   9   45.87    5.45
   3   4   9   50.29    3.20
  -3  -4  -9   43.12    3.59
   3   4  -9   44.49    5.08
   3   4  -9   55.01    5.50
   3  -4   9   48.46    5.41
   3   4  11   67.08    7.86
  -3  -4  11   69.04    6.50
   3   4 -11   72.41   10.38
   3   4 -11   83.52    6.99
   3  -4  11   79.07    7.21
  -3   4  11   78.19   10.44
  -3  -5   0  442.65   14.57
   3   5   0  444.82   14.12
  -3   5   0  431.58   13.74
   3  -5   0  401.93   10.56
   3   5   2   78.48    7.24
  -3   5  -2   77.95    6.31
   3  -5  -2   65.55    2.02
  -3  -5   2   73.55    5.49
  -3  -5  -2   74.68    5.18
   3   5  -2   78.61    7.76
   3  -5   2   71.75    4.39
  -3   5   2   78.87    5.21
  -3  -5   4  116.94    9.97
  -3   5  -4  111.51    6.74
   3   5   4  110.80    5.87
  -3  -5  -4  110.90    8.49
   3   5  -4  109.54    9.41
   3  -5   4  102.55    4.87
  -3   5   4  113.01    6.64
   3   5   6   66.58    6.69
  -3  -5   6   69.77    8.74
  -3   5  -6   68.69    3.74
  -3   5  -6   64.40    3.36
  -3  -5  -6   73.81    7.22
   3   5  -6   72.74    8.40
   3  -5   6   77.68    7.00
  -3   5   6   69.32    5.88
  -3  -5   8   46.89    8.35
  -3   5  -8   40.81    2.56
  -3   5  -8   41.31    3.28
   3   5   8   44.50    3.65
  -3  -5  -8   45.76    4.17
   3   5  -8   45.92    5.02
   3   5  -8   58.38    8.79
   3  -5   8   50.58    7.50
  -3   5   8   51.18    8.80
   3   5  10   46.46    6.75
  -3  -5  10   37.98    5.68
   3   5 -10   45.32    5.98
   3   5 -10   37.88    9.22
   3  -5  10   36.80    5.73
  -3   5  10   42.12    6.07
  -3  -6   1  122.30    9.83
  -3   6  -1  105.70    7.87
   3   6   1  102.18    6.29
   3   6  -1  113.54    9.20
   3  -6   1  110.84    4.53
  -3   6   1  108.54    6.13
  -3  -6  -1  120.38    9.73
   3   6   3   84.66    8.11
  -3  -6   3   84.55    6.40
  -3   6  -3   78.83    4.73
  -3  -6  -3   79.57    5.81
   3  -6   3   77.01    5.24
  -3   6   3   84.18    8.61
   3   6  -3   81.66    6.05
   3   6   5  203.85   11.75
  -3  -6   5  218.96   10.07
  -3   6  -5  192.53    6.93
  -3   6  -5  205.72    7.79
   3   6  -5  198.22    9.11
   3  -6   5  206.07    7.67
  -3   6   5  209.10    9.76
  -3  -6  -5  197.52    9.07
   3   6   7   93.22    5.35
  -3  -6   7  102.51    7.26
  -3   6  -7   88.45    3.98
  -3   6  -7   87.44    4.52
  -3  -6  -7   79.46    8.40
   3   6  -7   91.50   10.69
   3  -6   7   84.12    5.88
  -3   6   7  102.35   10.64
   3   6  -7   90.92    9.60
   3   6   9   64.53    6.62
  -3  -6   9   84.32    7.15
  -3  -6  -9   75.54    5.46
   3   6  -9   80.30    6.19
   3   6  -9   84.21   11.39
   3  -6   9   89.01    6.49
  -3   6   9   91.41    7.45
  -3   7   0  219.75    8.91
   3  -7   0  209.81    5.28
  -3  -7   0  226.91   10.34
   3   7   0  215.46   12.66
  -3   7  -2   67.47    4.76
   3   7   2   76.49    5.94
  -3  -7   2   77.48    6.36
   3  -7   2   60.15    2.90
  -3   7   2   54.17    5.35
  -3  -7  -2   61.32    5.95
   3   7  -2   66.71    5.61
  -3   7  -4   80.27    7.40
  -3   7  -4   65.08    6.42
   3   7   4   76.61    5.90
  -3  -7   4   78.02    6.71
   3   7  -4   76.68    6.32
   3  -7   4   68.48    5.58
  -3   7   4   72.99    6.18
  -3  -7  -4   70.51    6.15
  -3  -7   6   51.26    6.43
  -3   7  -6   46.72    3.54
  -3   7  -6   58.90    6.23
   3   7   6   51.81    5.12
   3   7  -6   49.53    5.72
   3   7  -6   60.47    6.63
   3  -7   6   58.64    6.45
  -3   7   6   74.41    9.26
  -3  -7  -6   61.52    5.64
  -3  -7   8    0.09    4.47
   3   7   8   19.50    3.12
   3   7  -8    0.31    5.81
   3   7  -8   17.97    7.51
   3  -7   8    0.01    5.39
  -3   7   8   15.59    4.63
  -3  -7  -8   -0.53    3.64
  -3   8  -1   52.88    5.30
  -3   8  -1   44.10    4.63
   3   8   1   45.69    5.72
  -3  -8   1   46.48    9.57
  -3   8   1   60.81    5.40
  -3  -8  -1   60.59    9.49
   3   8  -1   63.97    9.30
  -3   8  -3    9.30    3.20
  -3   8  -3    5.87    4.42
  -3  -8   3    6.91    4.18
   3  -8   3    7.38    2.87
  -3   8   3    3.66    5.97
  -3  -8  -3    7.78    6.27
   3   8  -3    7.77    3.88
  -3   8  -5   72.42    7.63
  -3   8  -5   60.56    6.34
   3   8   5   62.04    8.67
  -3  -8   5   63.86    7.19
   3  -8   5   69.22    4.45
  -3   8   5   62.16    6.66
  -3  -8  -5   73.32    6.59
   3   8  -5   74.22    6.89
  -3   8  -7   53.43    4.45
  -3   8  -7   46.63    3.68
   3   8   7   55.60    7.94
  -3  -8   7   63.80    6.90
   3  -8   7   42.79    4.59
  -3   8   7   42.94    9.81
  -3  -8  -7   54.42    8.93
   3   8  -7   44.31    8.34
   3   8  -7   50.32    6.80
  -3   9   0   59.88    9.19
  -3   9   0   50.70    5.47
   3   9   0   55.08    6.54
  -3  -9   0   50.04    6.79
  -3   9  -2   34.52    7.35
  -3   9  -2   23.71    4.31
  -3  -9   2   28.07    6.04
   3   9   2   34.19    5.37
  -3   9   2   23.63    5.42
  -3   9   2   35.28    5.16
  -3  -9  -2   31.96    5.77
   3   9  -2   25.68    8.92
  -3   9  -4   30.09    6.85
  -3   9  -4   27.03    5.82
   3   9   4   23.49    5.01
  -3  -9   4   30.60    5.98
   3  -9   4   29.23    2.95
  -3   9   4   26.16    5.91
  -3   9   4   26.64    5.56
  -3  -9  -4   22.81    5.71
   3   9  -4   32.23    5.78
  -3   9  -6   28.12    6.36
  -3   9  -6   26.39    5.16
   3   9   6   25.99    4.79
  -3  -9   6   19.85    6.21
   3  -9   6   29.86    3.55
  -3   9   6   28.72    6.25
  -3   9   6   29.48    5.80
  -3  -9  -6   18.31    8.78
   3   9  -6   21.86    8.13
   3   9  -6   25.43    6.52
  -3  10  -1   51.33    5.97
  -3  10  -1   42.26    8.01
   3  10   1   42.74    6.61
  -3 -10   1   54.64   11.13
  -3  10   1   31.97    9.01
  -3  10   1   39.66    6.35
  -3 -10  -1   44.08    7.11
   3  10  -1   43.24    6.78
  -3  10  -3    9.54    3.79
  -3  10  -3    6.02    3.34
   3  10   3    4.50    4.32
  -3 -10   3    6.31    5.08
  -3  10   3    7.52    4.62
  -3  10   3    6.64    4.36
  -3 -10  -3    2.66    4.86
   3  10  -3    7.07    7.36
  -3  10  -5   51.23    8.27
  -3  10  -5   46.79    7.12
   3  10   5   54.30    6.23
  -3 -10   5   50.70    7.98
  -3  10   5   55.65    7.70
  -3  10   5   56.92    7.24
  -3 -10  -5   52.64    7.36
   3  10  -5   58.02   10.42
   3  10  -5   18.50    7.44
  -3  11   0   68.63   11.60
  -3  11   0   63.06    6.85
  -3 -11   0   83.23   13.74
   3  11   0   76.89   12.15
  -3  11  -2   74.92    7.41
  -3  11  -2   68.00    6.47
   3  11   2   66.50    7.89
  -3 -11   2   87.11    9.11
  -3  11   2   71.92    7.65
  -3  11   2   82.44    8.46
  -3 -11  -2   70.17    9.09
   3  11  -2   69.78    8.87
   4   0   0  160.24    7.70
  -4   0   0  160.45    8.15
  -4   0   2  272.77   11.67
  -4   0  -2  266.24   10.37
   4   0   2  269.54   10.15
   4   0  -2  273.06   10.86
   4   0   4  178.69    9.75
  -4   0   4  170.80   13.14
   4   0  -4  170.85   12.06
  -4   0  -4  165.63    9.69
  -4   0  -6  194.74    9.77
   4   0   6  202.85    9.53
   4   0  -6  190.21    8.37
   4   0  -6  202.93   10.06
  -4   0   6  197.67   10.78
   4   0   8    1.57    5.93
  -4   0   8    4.40    3.99
   4   0  -8    4.65    3.74
   4   0  -8    1.13    3.96
   4  -1  -1  187.23    8.59
  -4  -1   1  193.52    9.11
  -4   1  -1  196.39   11.54
   4   1   1  186.69    8.14
  -4  -1  -1  183.44    8.59
   4   1  -1  178.29    8.35
  -4   1   1  188.65    8.71
   4  -1   1  183.04    8.09
  -4  -1   3   61.56    6.01
   4   1   3   58.12    4.71
  -4   1  -3   52.20    6.87
   4  -1  -3   64.67    5.58
  -4  -1  -3   55.08    4.86
   4   1  -3   60.36    5.43
   4  -1   3   61.16    6.64
  -4   1   3   57.04    5.93
   4   1   5  177.92    9.63
  -4  -1   5  178.25   13.54
  -4   1  -5  161.21    6.93
   4  -1  -5  173.16    9.34
  -4  -1  -5  164.67    9.71
   4   1  -5  164.39    8.96
   4  -1   5  186.15    9.51
  -4   1   5  173.46    9.45
   4   1   7  156.47    7.98
  -4  -1   7  152.18    9.66
  -4   1  -7  153.75    8.07
   4  -1  -7  142.72    6.60
   4  -1  -7  165.04   13.33
  -4  -1  -7  141.36    6.49
   4   1  -7  152.86    8.93
   4   1  -7  144.67    7.69
   4  -1   7  151.18   12.49
   4  -1   7  150.41    5.69
  -4   1   7  163.35    9.48
  -4  -2   0  184.79   12.07
  -4   2   0  175.47    8.39
   4   2   0  176.89    8.34
   4  -2   0  185.58    8.35
   4   2   2  124.96    6.76
  -4   2  -2  122.24    6.55
   4  -2  -2  127.49    7.33
  -4  -2   2  115.92    7.68
  -4  -2  -2  119.98    9.73
   4   2  -2  121.59    7.29
   4  -2   2  133.00    9.00
  -4   2   2  132.02    7.53
  -4  -2   4   91.44   10.92
  -4   2  -4   91.29    5.40
   4  -2  -4  102.39   10.13
   4   2   4   92.34    6.00
  -4  -2  -4   94.75    5.84
   4   2  -4   87.66    9.77
   4  -2   4   92.54    5.24
  -4   2   4   93.07    7.21
   4   2   6   90.45    7.20
  -4  -2   6   94.51   11.66
  -4   2  -6   93.97    4.92
   4  -2  -6   89.30    6.14
   4  -2  -6  105.64    7.53
  -4  -2  -6   97.47    7.79
   4   2  -6   90.49    7.05
   4  -2   6   90.17    6.57
   4  -2   6   95.47    6.55
  -4   2   6   95.24    7.68
  -4  -2   8    7.04    4.21
   4  -2  -8    4.43    3.22
   4  -2  -8    7.77    6.19
  -4  -2  -8   -0.16    3.85
   4   2  -8   -0.03    3.20
   4   2  -8    6.73    3.79
   4  -2   8    5.82    3.74
  -4   2   8    6.21    4.12
   4   3   1   60.58    5.57
  -4  -3   1   63.15    5.95
  -4   3  -1   70.66    7.87
   4  -3  -1   66.77    8.16
  -4  -3  -1   55.02    5.49
   4   3  -1   57.33    5.56
   4  -3   1   63.03    7.28
  -4   3   1   58.33    5.69
  -4   3  -3   53.77    6.63
   4  -3  -3   53.98    8.29
   4   3   3   52.02    4.95
  -4  -3   3   46.26    5.82
  -4  -3  -3   52.02    4.84
   4   3  -3   52.44    8.48
   4  -3   3   47.36    4.16
   4  -3   3   47.74    4.22
  -4   3   3   53.74    5.84
   4   3   5  138.42    7.00
  -4  -3   5  145.08   12.86
  -4   3  -5  138.50    6.41
   4  -3  -5  125.31    8.28
   4  -3  -5  116.86    4.74
  -4  -3  -5  133.47    9.76
   4   3  -5  133.02    8.33
   4  -3   5  123.15    7.01
   4  -3   5  140.19    6.20
  -4   3   5  138.63    8.91
   4   3   7   50.20    4.14
  -4  -3   7   63.81   10.54
  -4   3  -7   56.37    5.40
   4  -3  -7   57.00    6.55
  -4  -3  -7   54.46    5.00
   4   3  -7   63.65    6.33
   4   3  -7   59.96    9.47
   4  -3   7   67.73    8.86
  -4   3   7   69.69    7.13
  -4  -4   0  368.78   18.00
   4   4   0  364.26   14.02
  -4   4   0  351.85   16.72
   4  -4   0  368.15   16.59
   4   4   2   53.91    5.57
  -4   4  -2   48.50    4.80
   4  -4  -2   55.14    8.04
  -4  -4   2   56.58    6.21
  -4  -4  -2   52.56    8.50
   4   4  -2   59.17    8.88
   4  -4   2   48.94    3.68
   4  -4   2   63.75    4.89
  -4   4   2   49.02    5.90
   4   4   4   92.15    6.23
  -4  -4   4   84.60   11.04
  -4   4  -4   79.78    5.38
   4  -4  -4   93.40   10.77
  -4  -4  -4   86.60    6.22
   4   4  -4   78.40    6.99
   4  -4   4   79.45    5.24
  -4   4   4   88.56    7.31
   4   4   6   49.35    4.53
  -4  -4   6   53.47   10.22
  -4   4  -6   49.83    4.04
   4  -4  -6   51.61    6.42
  -4  -4  -6   48.94    7.51
   4   4  -6   45.68    6.11
   4  -4   6   38.72    4.91
  -4   4   6   51.70   10.21
   4   5   1   73.56    6.55
  -4  -5   1   64.26    6.73
  -4   5  -1   67.82    5.70
   4  -5  -1   52.68    3.81
  -4  -5  -1   78.50    6.59
   4   5  -1   81.65    9.63
   4  -5   1   62.69    3.63
  -4   5   1   78.52    9.38
   4   5   3  102.04    7.26
  -4  -5   3  106.30    8.21
  -4   5  -3  106.38    8.77
   4  -5  -3   83.10    7.29
  -4  -5  -3   99.69    7.10
   4   5  -3  105.93    7.61
   4  -5   3   91.47    5.11
  -4   5   3  113.37   11.47
   4   5   5  185.80    9.06
  -4  -5   5  203.13   15.48
  -4   5  -5  192.89    8.06
  -4  -5  -5  183.56   12.92
   4   5  -5  186.85   10.12
   4  -5   5  182.11    8.29
  -4   5   5  205.23   15.21
   4   5   7   56.13    7.27
  -4  -5   7   63.67   11.77
  -4  -5  -7   61.82    8.71
   4   5  -7   61.53    7.30
   4   5  -7   58.29   10.88
   4  -5   7   57.35    8.43
  -4   5   7   68.48    7.49
  -4  -6   0  351.85   19.22
   4   6   0  380.23   19.45
  -4   6   0  344.21   14.18
   4   6   2   77.10   10.20
  -4  -6   2   70.83    7.54
  -4  -6  -2   62.04   10.06
   4   6  -2   68.30    6.71
   4  -6   2   57.93    5.23
  -4   6   2   72.59    6.86
   4   6   4  106.32    7.16
  -4  -6   4  110.61   13.36
  -4   6  -4  103.44    8.76
  -4  -6  -4   99.62    7.76
   4   6  -4  106.23    8.26
   4  -6   4  102.72    5.73
  -4   6   4  108.29    8.67
   4   6   6   48.50    7.75
  -4  -6   6   60.62   11.54
  -4   6  -6   56.95    5.04
  -4   6  -6   53.29    4.61
  -4  -6  -6   54.84    6.23
   4   6  -6   62.11   10.99
   4  -6   6   57.61    7.65
  -4   6   6   60.23    7.51
  -4  -7   1   59.25    7.47
   4   7   1   66.19    7.35
  -4   7  -1   69.91    9.41
  -4  -7  -1   69.13    7.47
   4   7  -1   70.56    7.46
  -4   7   1   65.81    6.66
   4   7   3   41.41    5.58
  -4  -7   3   49.85    7.03
  -4   7  -3   39.92    5.08
  -4  -7  -3   43.04    6.25
   4   7  -3   48.02    6.20
   4  -7   3   36.75    5.07
  -4   7   3   41.36    6.35
   4   7   5   82.32    7.10
  -4  -7   5  118.35   14.26
  -4   7  -5  117.14    7.02
  -4   7  -5  101.84    6.34
  -4  -7  -5  110.95    8.59
   4   7  -5  127.86   13.65
   4  -7   5  105.18    8.53
  -4  -8   0   76.10   12.32
   4   8   0   81.54   12.01
  -4   8   0   68.76    6.95
   4   8   2   48.81    6.26
  -4  -8   2   46.45    7.51
  -4   8  -2   47.09    5.67
  -4  -8  -2   49.74    7.01
   4   8  -2   43.96    6.82
  -4   8   2   46.25    6.74
  -5   0  -1   49.74    6.44
   5   0   1   51.90    6.00
  -5   0   1   48.63    6.90
   5   0  -1   49.48    6.35
  -5  -1   0   43.94    9.72
   5   1   0   37.12    5.79
  -5   1   0   41.97    6.11
   5  -1   0   42.00    5.73
   0   0   0    0.00    0.00
;
_shelx_hkl_checksum              72950
loop_
_space_group_symop_operation_xyz
'x, y, z'
'-x, -y, z'
'x, -y, -z'
'-x, y, -z'
'x+1/2, y+1/2, z+1/2'
'-x+1/2, -y+1/2, z+1/2'
'x+1/2, -y+1/2, -z+1/2'
'-x+1/2, y+1/2, -z+1/2'
loop_
_atom_site_label
_atom_site_type_symbol
_atom_site_fract_x
_atom_site_fract_y
_atom_site_fract_z
_atom_site_U_iso_or_equiv
_atom_site_adp_type
_atom_site_occupancy
_atom_site_site_symmetry_order
_atom_site_calc_flag
_atom_site_refinement_flags_posn
_atom_site_refinement_flags_adp
_atom_site_refinement_flags_occupancy
Fe1 Fe 0.0000 0.0000 0.0000 0.01178(19) Uani 1 4 d S T P
F1 F 0.0000 0.17219(17) 0.0000 0.0291(5) Uani 1 2 d S T P
F2 F -0.5000 0.0000 0.0000 0.0351(7) Uani 1 4 d S T P
N1 N 0.0000 0.0000 0.1896(2) 0.0169(5) Uani 1 2 d S T P
C1 C 0.0000 0.0000 0.4348(2) 0.0186(6) Uani 1 2 d S T P
C3 C -0.1055(7) 0.0997(3) 0.2510(3) 0.0226(7) Uani 1 1 d . . .
H3 H -0.1815 0.1688 0.2097 0.034 Uiso 1 1 calc R U .
C2 C -0.1063(8) 0.1042(3) 0.3717(2) 0.0228(7) Uani 1 1 d . . .
H2 H -0.1766 0.1755 0.4106 0.034 Uiso 1 1 calc R U .
loop_
_atom_site_aniso_label
_atom_site_aniso_U_11
_atom_site_aniso_U_22
_atom_site_aniso_U_33
_atom_site_aniso_U_23
_atom_site_aniso_U_13
_atom_site_aniso_U_12
Fe1 0.0102(3) 0.0154(3) 0.0097(3) 0.000 0.000 0.000
F1 0.0487(13) 0.0170(10) 0.0215(9) 0.000 -0.001(3) 0.000
F2 0.0103(13) 0.068(2) 0.0272(14) 0.000 0.000 0.000
N1 0.0184(12) 0.0199(13) 0.0123(11) 0.000 0.000 0.001(3)
C1 0.0212(15) 0.0223(17) 0.0123(15) 0.000 0.000 0.001(4)
C3 0.0322(17) 0.0190(14) 0.0165(12) 0.0022(10) -0.0006(10) 0.0068(11)
C2 0.0321(17) 0.0196(14) 0.0167(12) -0.0015(10) 0.0018(10) 0.0053(11)
loop_
_atom_type_symbol
_atom_type_description
_atom_type_scat_dispersion_real
_atom_type_scat_dispersion_imag
_atom_type_scat_source
C C 0.0033 0.0016 'International Tables Vol C Tables 4.2.6.8 and 6.1.1.4'
H H 0.0000 0.0000 'International Tables Vol C Tables 4.2.6.8 and 6.1.1.4'
N N 0.0061 0.0033 'International Tables Vol C Tables 4.2.6.8 and 6.1.1.4'
F F 0.0171 0.0103 'International Tables Vol C Tables 4.2.6.8 and 6.1.1.4'
Fe Fe 0.3463 0.8444 'International Tables Vol C Tables 4.2.6.8 and 6.1.1.4'
loop_
_geom_angle_atom_site_label_1
_geom_angle_atom_site_label_2
_geom_angle_atom_site_label_3
_geom_angle
_geom_angle_site_symmetry_1
_geom_angle_site_symmetry_3
F1 Fe1 F1 180.0 2 .
F1 Fe1 F2 90.0 2 1_655
F1 Fe1 F2 90.0 . 1_655
F1 Fe1 F2 90.0 2 .
F1 Fe1 F2 90.0 . .
F2 Fe1 F2 180.0 1_655 .
F1 Fe1 N1 90.0 2 .
F1 Fe1 N1 90.0 . .
F2 Fe1 N1 90.0 1_655 .
F2 Fe1 N1 90.0 . .
F1 Fe1 N1 90.0 2 3
F1 Fe1 N1 90.0 . 3
F2 Fe1 N1 90.0 1_655 3
F2 Fe1 N1 90.0 . 3
N1 Fe1 N1 180.0 . 3
Fe1 F2 Fe1 180.0 1_455 .
C3 N1 C3 117.5(3) 2 .
C3 N1 Fe1 121.25(15) 2 .
C3 N1 Fe1 121.25(15) . .
C2 C1 C2 118.0(3) 2 .
C2 C1 C1 120.98(15) 2 3_556
C2 C1 C1 120.98(15) . 3_556
N1 C3 C2 123.2(3) . .
N1 C3 H3 118.4 . .
C2 C3 H3 118.4 . .
C3 C2 C1 119.0(2) . .
C3 C2 H2 120.5 . .
C1 C2 H2 120.5 . .
loop_
_geom_bond_atom_site_label_1
_geom_bond_atom_site_label_2
_geom_bond_distance
_geom_bond_site_symmetry_2
Fe1 F1 1.8595(19) 2
Fe1 F1 1.8595(19) .
Fe1 F2 1.94499(16) 1_655
Fe1 F2 1.94499(16) .
Fe1 N1 2.161(2) .
Fe1 N1 2.161(2) 3
F2 Fe1 1.94499(16) 1_455
N1 C3 1.347(3) 2
N1 C3 1.348(3) .
C1 C2 1.398(3) 2
C1 C2 1.398(3) .
C1 C1 1.486(5) 3_556
C3 C2 1.376(4) .
C3 H3 0.9300 .
C2 H2 0.9300 .
