#------------------------------------------------------------------------------
#$Date: 2016-05-04 19:02:54 +0300 (Wed, 04 May 2016) $
#$Revision: 182503 $
#$URL: svn://www.crystallography.net/cod/cif/4/12/50/4125019.cif $
#------------------------------------------------------------------------------
#
# This file is available in the Crystallography Open Database (COD),
# http://www.crystallography.net/
#
# All data on this site have been placed in the public domain by the
# contributors.
#
data_4125019
loop_
_publ_author_name
'Piotrowski, David W.'
'Kamlet, Adam S.'
'Dechert-Schmitt, Anne-Marie R'
'Yan, Jiangli'
'Brandt, Thomas A.'
'Xiao, Jun'
'Wei, Liuqing'
'Barrila, Mark T.'
_publ_section_title
;
 Regio- and Enantioselective Synthesis of Azole Hemiaminal Esters by Lewis
 Base Catalyzed Dynamic Kinetic Resolution.
;
_journal_issue                   14
_journal_name_full               'Journal of the American Chemical Society'
_journal_page_first              4818
_journal_page_last               4823
_journal_paper_doi               10.1021/jacs.6b00207
_journal_volume                  138
_journal_year                    2016
_chemical_formula_sum            'C12 H14 N4 O3'
_chemical_formula_weight         262.27
_chemical_name_systematic
; 
 ? 
;
_space_group_IT_number           2
_symmetry_cell_setting           triclinic
_symmetry_space_group_name_Hall  '-P 1'
_symmetry_space_group_name_H-M   'P -1'
_atom_sites_solution_hydrogens   geom
_atom_sites_solution_primary     direct
_atom_sites_solution_secondary   difmap
_audit_creation_method           SHELXL-97
_cell_angle_alpha                86.5842(12)
_cell_angle_beta                 82.1820(11)
_cell_angle_gamma                76.2332(11)
_cell_formula_units_Z            2
_cell_length_a                   7.9189(2)
_cell_length_b                   8.9993(2)
_cell_length_c                   9.5359(3)
_cell_measurement_reflns_used    9920
_cell_measurement_temperature    273(2)
_cell_measurement_theta_max      69.69
_cell_measurement_theta_min      4.68
_cell_volume                     653.65(3)
_computing_cell_refinement       'Bruker SAINT'
_computing_data_collection       'Bruker APEX2'
_computing_data_reduction        'Bruker SAINT'
_computing_molecular_graphics    'Bruker SHELXTL'
_computing_publication_material  'Bruker SHELXTL'
_computing_structure_refinement  'SHELXL-97 (Sheldrick, 2008)'
_computing_structure_solution    'SHELXS-97 (Sheldrick, 2008)'
_diffrn_ambient_temperature      273(2)
_diffrn_measured_fraction_theta_full 0.978
_diffrn_measured_fraction_theta_max 0.978
_diffrn_measurement_device_type  'Bruker D8 QUEST diffractometer'
_diffrn_measurement_method       '\f and \w scans'
_diffrn_radiation_monochromator  graphite
_diffrn_radiation_source         'fine-focus sealed tube'
_diffrn_radiation_type           CuK\a
_diffrn_radiation_wavelength     1.54178
_diffrn_reflns_av_R_equivalents  0.0529
_diffrn_reflns_av_sigmaI/netI    0.0201
_diffrn_reflns_limit_h_max       9
_diffrn_reflns_limit_h_min       -9
_diffrn_reflns_limit_k_max       10
_diffrn_reflns_limit_k_min       -10
_diffrn_reflns_limit_l_max       11
_diffrn_reflns_limit_l_min       -11
_diffrn_reflns_number            19289
_diffrn_reflns_theta_full        70.20
_diffrn_reflns_theta_max         70.20
_diffrn_reflns_theta_min         4.68
_exptl_absorpt_coefficient_mu    0.824
_exptl_absorpt_correction_T_max  1.0
_exptl_absorpt_correction_T_min  0.832
_exptl_absorpt_correction_type   empirical
_exptl_absorpt_process_details   sadabs
_exptl_crystal_density_diffrn    1.333
_exptl_crystal_density_method    'not measured'
_exptl_crystal_F_000             276
_refine_diff_density_max         0.220
_refine_diff_density_min         -0.137
_refine_diff_density_rms         0.031
_refine_ls_extinction_method     none
_refine_ls_goodness_of_fit_ref   0.965
_refine_ls_hydrogen_treatment    mixed
_refine_ls_matrix_type           full
_refine_ls_number_parameters     174
_refine_ls_number_reflns         2430
_refine_ls_number_restraints     0
_refine_ls_restrained_S_all      0.965
_refine_ls_R_factor_all          0.0463
_refine_ls_R_factor_gt           0.0391
_refine_ls_shift/su_max          0.000
_refine_ls_shift/su_mean         0.000
_refine_ls_structure_factor_coef Fsqd
_refine_ls_weighting_details
'calc w=1/[\s^2^(Fo^2^)+(0.0456P)^2^+0.2105P] where P=(Fo^2^+2Fc^2^)/3'
_refine_ls_weighting_scheme      calc
_refine_ls_wR_factor_gt          0.0972
_refine_ls_wR_factor_ref         0.1022
_reflns_number_gt                2074
_reflns_number_total             2430
_reflns_threshold_expression     >2sigma(I)
_cod_data_source_file            ja6b00207_si_003.cif
_cod_data_source_block           z388
_cod_depositor_comments
;
The following automatic conversions were performed:

'_symmetry_cell_setting' value 'Triclinic' changed to 'triclinic'
according to
/usr/data/users/saulius/crontab/automatic-downloads/rss-feeds/ACS/lib/dictionaries/cif_core.dic
dictionary named 'cif_core.dic' version 2.4.2 from 2011-04-26.

Automatic conversion script
Id: cif_fix_values 4268 2015-11-12 08:31:59Z antanas 

 Adding full bibliography for 4125018--4125020.cif.
;
_cod_original_sg_symbol_H-M      P-1
_cod_database_code               4125019
loop_
_symmetry_equiv_pos_as_xyz
'x, y, z'
'-x, -y, -z'
loop_
_atom_site_label
_atom_site_type_symbol
_atom_site_fract_x
_atom_site_fract_y
_atom_site_fract_z
_atom_site_U_iso_or_equiv
_atom_site_adp_type
_atom_site_occupancy
_atom_site_symmetry_multiplicity
_atom_site_calc_flag
_atom_site_refinement_flags
C1 C 0.1152(2) 0.19161(19) 0.31089(18) 0.0549(4) Uani 1 1 d .
H1 H 0.0886 0.0987 0.3410 0.066 Uiso 1 1 calc R
C2 C 0.1247(2) 0.2342(2) 0.16946(19) 0.0684(5) Uani 1 1 d .
H2 H 0.1052 0.1693 0.1041 0.082 Uiso 1 1 calc R
C3 C 0.1629(2) 0.3719(2) 0.12406(19) 0.0689(5) Uani 1 1 d .
H3 H 0.1694 0.3997 0.0283 0.083 Uiso 1 1 calc R
C4 C 0.1914(2) 0.4685(2) 0.22053(18) 0.0603(4) Uani 1 1 d .
H4 H 0.2167 0.5617 0.1896 0.072 Uiso 1 1 calc R
C5 C 0.18257(19) 0.42775(17) 0.36297(16) 0.0477(4) Uani 1 1 d .
H5 H 0.2013 0.4935 0.4278 0.057 Uiso 1 1 calc R
C6 C 0.14554(17) 0.28801(16) 0.40878(15) 0.0420(3) Uani 1 1 d .
C7 C 0.13047(17) 0.23929(15) 0.55861(15) 0.0418(3) Uani 1 1 d .
C8 C 0.40506(19) 0.29365(17) 0.64024(16) 0.0460(3) Uani 1 1 d .
H8 H 0.4234 0.3480 0.5494 0.055 Uiso 1 1 calc R
C9 C 0.36256(19) 0.54286(17) 0.72490(16) 0.0466(4) Uani 1 1 d .
C10 C 0.3495(3) 0.77594(19) 0.8269(2) 0.0626(4) Uani 1 1 d .
H10A H 0.2420 0.8262 0.7891 0.075 Uiso 1 1 calc R
H10B H 0.4478 0.7967 0.7627 0.075 Uiso 1 1 calc R
C11 C 0.3502(3) 0.8324(2) 0.9688(2) 0.0792(6) Uani 1 1 d .
H11A H 0.2460 0.8208 1.0286 0.119 Uiso 1 1 calc R
H11B H 0.3534 0.9386 0.9613 0.119 Uiso 1 1 calc R
H11C H 0.4514 0.7746 1.0090 0.119 Uiso 1 1 calc R
C12 C 0.5535(2) 0.1560(2) 0.6517(2) 0.0638(5) Uani 1 1 d .
H12A H 0.6620 0.1879 0.6431 0.096 Uiso 1 1 calc R
H12B H 0.5577 0.0873 0.5774 0.096 Uiso 1 1 calc R
H12C H 0.5358 0.1049 0.7418 0.096 Uiso 1 1 calc R
N1 N 0.00878(17) 0.17137(16) 0.62135(15) 0.0560(4) Uani 1 1 d .
N2 N 0.04341(19) 0.14012(17) 0.75729(16) 0.0641(4) Uani 1 1 d .
N3 N 0.18023(18) 0.18519(16) 0.77899(14) 0.0583(4) Uani 1 1 d .
N4 N 0.23684(15) 0.24969(13) 0.65496(12) 0.0437(3) Uani 1 1 d .
O1 O 0.39958(16) 0.39109(12) 0.75410(11) 0.0569(3) Uani 1 1 d .
O2 O 0.33774(16) 0.60124(13) 0.61186(12) 0.0619(3) Uani 1 1 d .
O3 O 0.36322(16) 0.61125(12) 0.84256(12) 0.0583(3) Uani 1 1 d .
loop_
_atom_site_aniso_label
_atom_site_aniso_U_11
_atom_site_aniso_U_22
_atom_site_aniso_U_33
_atom_site_aniso_U_23
_atom_site_aniso_U_13
_atom_site_aniso_U_12
C1 0.0494(9) 0.0536(9) 0.0633(10) -0.0098(8) -0.0089(7) -0.0124(7)
C2 0.0681(11) 0.0815(13) 0.0565(11) -0.0198(10) -0.0131(8) -0.0122(10)
C3 0.0669(11) 0.0878(14) 0.0460(10) 0.0008(9) -0.0085(8) -0.0061(10)
C4 0.0618(10) 0.0590(10) 0.0566(10) 0.0120(8) -0.0083(8) -0.0098(8)
C5 0.0476(8) 0.0438(8) 0.0507(9) 0.0010(7) -0.0088(6) -0.0078(6)
C6 0.0332(7) 0.0430(8) 0.0485(8) -0.0018(6) -0.0063(5) -0.0058(6)
C7 0.0375(7) 0.0358(7) 0.0520(8) -0.0004(6) -0.0046(6) -0.0091(6)
C8 0.0478(8) 0.0471(8) 0.0476(8) 0.0034(6) -0.0108(6) -0.0183(6)
C9 0.0444(8) 0.0470(8) 0.0507(9) 0.0038(7) -0.0082(6) -0.0151(6)
C10 0.0748(11) 0.0459(9) 0.0687(11) -0.0001(8) -0.0127(9) -0.0150(8)
C11 0.1049(16) 0.0596(11) 0.0727(13) -0.0101(10) -0.0074(11) -0.0184(11)
C12 0.0514(9) 0.0616(11) 0.0796(12) -0.0016(9) -0.0177(8) -0.0106(8)
N1 0.0490(7) 0.0549(8) 0.0670(9) 0.0058(7) -0.0039(6) -0.0215(6)
N2 0.0616(9) 0.0649(9) 0.0672(10) 0.0132(7) 0.0016(7) -0.0264(7)
N3 0.0638(9) 0.0598(8) 0.0517(8) 0.0139(6) -0.0028(6) -0.0216(7)
N4 0.0447(6) 0.0438(7) 0.0438(7) 0.0072(5) -0.0051(5) -0.0150(5)
O1 0.0822(8) 0.0446(6) 0.0518(6) 0.0057(5) -0.0216(5) -0.0244(5)
O2 0.0789(8) 0.0509(7) 0.0534(7) 0.0067(5) -0.0130(6) -0.0095(6)
O3 0.0768(8) 0.0481(6) 0.0550(7) 0.0007(5) -0.0156(5) -0.0208(5)
loop_
_atom_type_symbol
_atom_type_description
_atom_type_scat_dispersion_real
_atom_type_scat_dispersion_imag
_atom_type_scat_source
C C 0.0181 0.0091 'International Tables Vol C Tables 4.2.6.8 and 6.1.1.4'
H H 0.0000 0.0000 'International Tables Vol C Tables 4.2.6.8 and 6.1.1.4'
N N 0.0311 0.0180 'International Tables Vol C Tables 4.2.6.8 and 6.1.1.4'
O O 0.0492 0.0322 'International Tables Vol C Tables 4.2.6.8 and 6.1.1.4'
loop_
_geom_angle_atom_site_label_1
_geom_angle_atom_site_label_2
_geom_angle_atom_site_label_3
_geom_angle
C2 C1 C6 119.85(16)
C3 C2 C1 120.51(17)
C2 C3 C4 119.95(17)
C3 C4 C5 120.40(17)
C4 C5 C6 119.68(15)
C5 C6 C1 119.60(14)
C5 C6 C7 122.45(13)
C1 C6 C7 117.91(14)
N1 C7 N4 107.84(13)
N1 C7 C6 124.33(13)
N4 C7 C6 127.81(12)
O1 C8 N4 107.47(12)
O1 C8 C12 108.03(13)
N4 C8 C12 111.03(13)
O2 C9 O3 127.45(14)
O2 C9 O1 125.38(14)
O3 C9 O1 107.15(12)
O3 C10 C11 107.13(15)
C7 N1 N2 106.28(13)
N3 N2 N1 111.12(12)
N2 N3 N4 106.17(13)
C7 N4 N3 108.59(12)
C7 N4 C8 131.55(12)
N3 N4 C8 119.06(12)
C9 O1 C8 116.77(11)
C9 O3 C10 114.91(13)
loop_
_geom_bond_atom_site_label_1
_geom_bond_atom_site_label_2
_geom_bond_distance
C1 C2 1.377(2)
C1 C6 1.392(2)
C2 C3 1.376(3)
C3 C4 1.378(3)
C4 C5 1.382(2)
C5 C6 1.390(2)
C6 C7 1.467(2)
C7 N1 1.3191(18)
C7 N4 1.3493(18)
C8 O1 1.4255(18)
C8 N4 1.4642(18)
C8 C12 1.501(2)
C9 O2 1.1906(18)
C9 O3 1.3126(18)
C9 O1 1.3474(18)
C10 O3 1.4602(19)
C10 C11 1.474(3)
N1 N2 1.361(2)
N2 N3 1.2889(19)
N3 N4 1.3545(17)
