#------------------------------------------------------------------------------
#$Date: 2017-03-04 07:40:33 +0200 (Sat, 04 Mar 2017) $
#$Revision: 193196 $
#$URL: file:///home/coder/svn-repositories/cod/cif/4/12/58/4125844.cif $
#------------------------------------------------------------------------------
#
# This file is available in the Crystallography Open Database (COD),
# http://www.crystallography.net/
#
# All data on this site have been placed in the public domain by the
# contributors.
#
data_4125844
loop_
_publ_author_name
'Calbo, Joaqu\'in'
'Weston, Claire E.'
'White, Andrew J. P.'
'Rzepa, Henry S.'
'Contreras-Garc\'ia, Julia'
'Fuchter, Matthew J.'
_publ_section_title
;
 Tuning Azoheteroarene Photoswitch Performance through Heteroaryl Design.
;
_journal_issue                   3
_journal_name_full               'Journal of the American Chemical Society'
_journal_page_first              1261
_journal_page_last               1274
_journal_paper_doi               10.1021/jacs.6b11626
_journal_volume                  139
_journal_year                    2017
_chemical_formula_moiety         'C5 H7 N3 O2'
_chemical_formula_sum            'C5 H7 N3 O2'
_chemical_formula_weight         141.14
_space_group_crystal_system      monoclinic
_space_group_IT_number           14
_space_group_name_Hall           '-P 2ybc'
_space_group_name_H-M_alt        'P 1 21/c 1'
_symmetry_space_group_name_Hall  '-P 2ybc'
_symmetry_space_group_name_H-M   'P 1 21/c 1'
_atom_sites_solution_hydrogens   geom
_audit_creation_method           SHELXL-2014/7
_cell_angle_alpha                90
_cell_angle_beta                 113.418(8)
_cell_angle_gamma                90
_cell_formula_units_Z            4
_cell_length_a                   8.0120(5)
_cell_length_b                   11.4910(6)
_cell_length_c                   7.7899(5)
_cell_measurement_reflns_used    979
_cell_measurement_temperature    173(2)
_cell_measurement_theta_max      28.4490
_cell_measurement_theta_min      2.9630
_cell_volume                     658.11(8)
_computing_cell_refinement       'CrysAlisPro, Agilent Technologies'
_computing_data_collection       'CrysAlisPro, Agilent Technologies'
_computing_data_reduction        'CrysAlisPro, Agilent Technologies'
_computing_molecular_graphics    'Bruker SHELXTL'
_computing_publication_material  'CIFTAB-2013 (Sheldrick, 2013)'
_computing_structure_refinement  'SHELXL-2014/7 (Sheldrick, 2014)'
_computing_structure_solution    'SHELXS-2013 (Sheldrick, 2013)'
_diffrn_ambient_temperature      173(2)
_diffrn_detector_area_resol_mean 16.0382
_diffrn_measured_fraction_theta_full 0.988
_diffrn_measured_fraction_theta_max 0.796
_diffrn_measurement_device_type  'Agilent Xcalibur 3 E'
_diffrn_measurement_method       'omega scans'
_diffrn_radiation_type           MoK\a
_diffrn_radiation_wavelength     0.71073
_diffrn_reflns_av_R_equivalents  0.0279
_diffrn_reflns_av_unetI/netI     0.0374
_diffrn_reflns_Laue_measured_fraction_full 0.988
_diffrn_reflns_Laue_measured_fraction_max 0.796
_diffrn_reflns_limit_h_max       10
_diffrn_reflns_limit_h_min       -6
_diffrn_reflns_limit_k_max       14
_diffrn_reflns_limit_k_min       -14
_diffrn_reflns_limit_l_max       9
_diffrn_reflns_limit_l_min       -10
_diffrn_reflns_number            2259
_diffrn_reflns_point_group_measured_fraction_full 0.988
_diffrn_reflns_point_group_measured_fraction_max 0.796
_diffrn_reflns_theta_full        25.242
_diffrn_reflns_theta_max         28.334
_diffrn_reflns_theta_min         2.771
_diffrn_source                   'Enhance (Mo) X-ray Source'
_exptl_absorpt_coefficient_mu    0.113
_exptl_absorpt_correction_T_max  0.973
_exptl_absorpt_correction_T_min  0.943
_exptl_absorpt_correction_type   analytical
_exptl_absorpt_process_details
; 
CrysAlisPro, Agilent Technologies, 
Version 1.171.37.35 (release 13-08-2014 CrysAlis171 .NET) 
(compiled Aug 13 2014,18:06:01) 
Analytical numeric absorption correction using a multifaceted crystal 
model based on expressions derived by R.C. Clark & J.S. Reid. 
(Clark, R. C. & Reid, J. S. (1995). Acta Cryst. A51, 887-897) 
Empirical absorption correction using spherical harmonics, 
implemented in SCALE3 ABSPACK scaling algorithm. 
;
_exptl_crystal_colour            Colourless
_exptl_crystal_density_diffrn    1.424
_exptl_crystal_description       tablets
_exptl_crystal_F_000             296
_exptl_crystal_size_max          0.83
_exptl_crystal_size_mid          0.55
_exptl_crystal_size_min          0.23
_refine_diff_density_max         0.216
_refine_diff_density_min         -0.279
_refine_diff_density_rms         0.051
_refine_ls_extinction_coef       0.104(10)
_refine_ls_extinction_expression Fc^*^=kFc[1+0.001xFc^2^\l^3^/sin(2\q)]^-1/4^
_refine_ls_extinction_method     'SHELXL-2014/7 (Sheldrick 2014'
_refine_ls_goodness_of_fit_ref   1.106
_refine_ls_hydrogen_treatment    constr
_refine_ls_matrix_type           full
_refine_ls_number_parameters     94
_refine_ls_number_reflns         1316
_refine_ls_number_restraints     0
_refine_ls_restrained_S_all      1.106
_refine_ls_R_factor_all          0.0479
_refine_ls_R_factor_gt           0.0415
_refine_ls_shift/su_max          0.000
_refine_ls_shift/su_mean         0.000
_refine_ls_structure_factor_coef Fsqd
_refine_ls_weighting_details
'w=1/[\s^2^(Fo^2^)+(0.0597P)^2^+0.0874P] where P=(Fo^2^+2Fc^2^)/3'
_refine_ls_weighting_scheme      calc
_refine_ls_wR_factor_gt          0.1114
_refine_ls_wR_factor_ref         0.1173
_reflns_Friedel_coverage         0.000
_reflns_number_gt                1130
_reflns_number_total             1316
_reflns_threshold_expression     'I > 2\s(I)'
_cod_data_source_file            ja6b11626_si_002.cif
_cod_data_source_block           5a
_cod_original_cell_volume        658.10(8)
_cod_database_code               4125844
_shelx_shelxl_version_number     2014/7
_shelx_space_group_comment
; 
The symmetry employed for this shelxl refinement is uniquely defined 
by the following loop, which should always be used as a source of 
symmetry information in preference to the above space-group names. 
They are only intended as comments. 
;
_shelx_res_file
; 
  
    MF1502.res created by SHELXL-2014/7 
  
TITL MF1502 in P2(1)/c 
REM P2(1)/c (#14 in standard setting) 
REM CEW555 
CELL 0.71073   8.011991  11.490992   7.789863  90.0000 113.4182  90.0000 
ZERR    4.00   0.000543   0.000572   0.000525   0.0000   0.0083   0.0000 
LATT  1 
SYMM -x, y+1/2,-z+1/2 
SFAC C H N O 
UNIT 20 28 12 8 
TEMP -100 
  
L.S. 6 
FMAP 2 
PLAN 10 
  
ACTA 
  
WGHT    0.059700    0.087400 
EXTI    0.104034 
FVAR      10.10169 
N1    3    0.447729    0.594109    0.169365    11.00000    0.02127    0.03239 = 
         0.02478    0.00290    0.00454    0.00356 
N2    3    0.521562    0.503791    0.282630    11.00000    0.02274    0.02860 = 
         0.02441   -0.00016    0.00547    0.00236 
C3    1    0.674514    0.549084    0.409250    11.00000    0.02085    0.02935 = 
         0.02239   -0.00150    0.00727    0.00240 
C4    1    0.701707    0.666956    0.380987    11.00000    0.02365    0.02981 = 
         0.02708   -0.00116    0.01060    0.00074 
C5    1    0.548827    0.692000    0.222588    11.00000    0.02833    0.02966 = 
         0.03156    0.00429    0.01196    0.00261 
AFIX  43 
H5A   2    0.519701    0.765334    0.161543    11.00000   -1.20000 
AFIX   0 
C6    1    0.272572    0.580289    0.011842    11.00000    0.02541    0.04355 = 
         0.02678    0.00043    0.00076    0.00260 
AFIX 137 
H6A   2    0.253534    0.645190   -0.075555    11.00000   -1.50000 
H6B   2    0.175085    0.579592    0.057784    11.00000   -1.50000 
H6C   2    0.271524    0.506810   -0.052439    11.00000   -1.50000 
AFIX   0 
N7    3    0.791714    0.475043    0.555756    11.00000    0.02252    0.03107 = 
         0.02587   -0.00199    0.00528    0.00159 
O8    4    0.750829    0.372403    0.559185    11.00000    0.03476    0.02782 = 
         0.04033    0.00255    0.00471    0.00245 
O9    4    0.929841    0.519053    0.673098    11.00000    0.03085    0.04764 = 
         0.03388    0.00058   -0.00730   -0.00639 
C10   1    0.854914    0.747470    0.485268    11.00000    0.03126    0.03293 = 
         0.04123   -0.00329    0.01302   -0.00488 
AFIX 137 
H10A  2    0.834931    0.822449    0.420198    11.00000   -1.50000 
H10B  2    0.969578    0.713607    0.491887    11.00000   -1.50000 
H10C  2    0.860778    0.759190    0.612152    11.00000   -1.50000 
  
AFIX   0 
HKLF 4 
  
REM  MF1502 in P2(1)/c 
REM R1 =  0.0415 for    1130 Fo > 4sig(Fo)  and  0.0479 for all    1316 data 
REM     94 parameters refined using      0 restraints 
  
END 
  
WGHT      0.0596      0.0875 
  
REM Highest difference peak  0.216,  deepest hole -0.279,  1-sigma level  0.051 
Q1    1   0.9729  0.7663  0.4551  11.00000  0.05    0.22 
Q2    1   0.7189  0.6076  0.3953  11.00000  0.05    0.19 
Q3    1   0.6738  0.6757  0.2775  11.00000  0.05    0.17 
Q4    1   0.7648  0.6972  0.4099  11.00000  0.05    0.15 
Q5    1   0.3183  0.5441 -0.0950  11.00000  0.05    0.15 
Q6    1   0.2150  0.6537  0.0155  11.00000  0.05    0.14 
Q7    1   0.1805  0.5178  0.0785  11.00000  0.05    0.14 
Q8    1   1.0231  0.4367  0.7567  11.00000  0.05    0.14 
Q9    1   0.1979  0.6604  0.0766  11.00000  0.05    0.14 
Q10   1   0.9293  0.7004  0.6107  11.00000  0.05    0.14 
;
_shelx_res_checksum              43171
_shelx_hkl_file
; 
  -1   0   0 92164.9 661.846   2 
   1   0   0 38228.1 672.789   2 
   2   0   0 51859.4 780.497   2 
  -2   0   0 51687.4 742.194   2 
  -3   0   0 73566.6 1106.75   2 
   3   0   0 72420.4 1138.86   2 
  -4   0   0 151536. 1879.62   2 
   4   0   0 137704. 1857.12   2 
   5   0   0 52914.2 1245.67   2 
   6   0   0 3014.23 324.109   2 
   7   0   0 639.957 159.719   2 
   8   0   0 7497.54 580.967   2 
   1   1   0 5596.82 177.663   2 
   1  -1   0 5653.31 189.550   2 
  -1  -1   0 9678.62 232.582   2 
  -1   1   0 8811.80 228.055   2 
  -2   1   0 7318.11 280.229   2 
  -2  -1   0 7351.76 267.571   2 
   2  -1   0 7275.96 287.104   2 
   2   1   0 7326.27 285.718   2 
   3  -1   0 75221.9 1207.87   2 
  -3  -1   0 71424.4 1066.91   2 
  -3   1   0 103104. 1524.69   2 
   3   1   0 91215.1 1389.79   2 
   4  -1   0 3352.90 276.548   2 
  -4  -1   0 3172.70 236.896   2 
   4   1   0 3172.27 261.784   2 
   5  -1   0 25003.2 848.549   2 
   5   1   0 26305.8 869.944   2 
   6   1   0 8690.87 551.555   2 
   6  -1   0 8849.37 548.314   2 
   7  -1   0 10221.0 636.700   2 
   7   1   0 11010.2 674.435   2 
   8  -1   0 519.898 164.449   2 
   8   1   0 641.713 173.314   2 
   0   2   0 245367. 1623.38   1 
   0  -2   0 244260. 1628.33   1 
   1   2   0 6685.42 189.665   1 
  -1  -2   0 6651.64 193.778   1 
   1   2   0 6908.11 223.578   2 
   2  -2   0 1818.32 148.049   2 
  -2  -2   0 1782.21 139.668   2 
  -2   2   0 1844.77 150.241   2 
   2   2   0 1754.49 139.567   2 
   3  -2   0 750.842 117.005   2 
  -3  -2   0 962.292 124.979   2 
   3   2   0 936.612 128.900   2 
  -3   2   0 787.940 112.489   2 
   4   2   0 27311.3 672.239   2 
   4  -2   0 35983.5 893.077   2 
   5  -2   0 3512.62 316.553   2 
   5   2   0 4088.79 367.055   2 
   6  -2   0 1424.31 217.991   2 
   6   2   0 1503.36 235.471   2 
   7   2   0 33661.6 1178.81   2 
   7  -2   0 32587.9 1149.76   2 
   8  -2   0 2914.17 358.782   2 
   8   2   0 2943.78 382.468   2 
   0   3   0 23.7116 23.6503   1 
   0  -3   0-6.34760 15.6425   1 
   1   3   0 266423. 1884.92   1 
   1  -3   0 266834. 2128.31   1 
  -1  -3   0 269336. 1912.20   1 
   2   3   0 4713.95 206.485   1 
  -2   3   0 4521.26 242.335   2 
   2   3   0 4843.10 254.148   2 
   3   3   0 10147.5 423.183   2 
  -3   3   0 10300.6 422.954   2 
  -3  -3   0 9798.21 381.668   2 
   4   3   0 90431.3 1505.43   2 
   4  -3   0 89601.5 1543.05   2 
   5   3   0 34767.0 1028.58   2 
   5  -3   0 33628.5 1005.37   2 
   6  -3   0 11605.4 646.205   2 
   6   3   0 12311.6 656.558   2 
   7   3   0 901.808 211.087   2 
   7  -3   0 929.247 193.624   2 
   8  -3   0 1313.25 257.814   2 
   8   3   0 1511.22 278.425   2 
   0   4   0 77918.1 930.691   1 
   0  -4   0 75277.0 940.608   1 
   1  -4   0 49006.1 829.109   1 
  -1  -4   0 49999.5 710.102   1 
   1   4   0 49968.4 699.825   1 
  -2   4   0 116409. 1423.34   2 
   2   4   0 114795. 1392.70   2 
   3   4   0 47999.4 803.997   1 
   3   4   0 49091.0 954.053   2 
  -3   4   0 49170.8 961.143   2 
   4   4   0 19162.0 694.628   2 
   4   4   0 17934.8 536.715   1 
   5   4   0 801.311 157.281   2 
   6   4   0 21640.9 1035.16   2 
   7   4   0 14916.5 768.906   2 
   8   4   0 669.598 174.313   2 
   0   5   0 180.903 44.6535   1 
   0  -5   0-21.0005 24.9356   1 
  -1  -5   0 13855.1 402.498   1 
   1   5   0 13348.4 386.967   1 
   2  -5   0 15533.5 556.490   1 
   2   5   0 16020.6 432.914   1 
   2   5   0 16820.9 530.907   2 
  -2  -5   0 17196.5 468.703   1 
   3   5   0 12989.7 528.049   2 
   3   5   0 11761.6 392.778   1 
   4   5   0 8346.56 434.846   2 
   4   5   0 8157.01 358.726   1 
   5   5   0 2761.06 299.704   2 
   6   5   0 76.8802 61.5616   2 
   7   5   0 215.019 121.523   2 
   8   5   0 160.474 75.2066   2 
   0   6   0 22895.7 574.717   1 
   0  -6   0 22283.3 581.139   1 
   1   6   0 71.1081 28.7489   1 
  -1  -6   0 164.041 57.4229   1 
   1  -6   0 142.179 53.4376   1 
   2   6   0 5059.60 249.681   1 
   2  -6   0 4514.18 316.718   1 
  -2  -6   0 5127.06 269.784   1 
   3  -6   0-26.6766 65.3928   1 
   3   6   0-7.98253 29.9886   1 
   3   6   0 57.0905 43.4060   2 
   4   6   0 12694.7 571.322   2 
   4   6   0 11486.6 431.350   1 
   5   6   0 2592.81 291.953   2 
   6   6   0 46.1304 52.3902   2 
   7   6   0 21298.4 1119.69   2 
   8   6   0 1273.31 248.183   2 
   0  -7   0-23.1966 30.9020   1 
   0   7   0-47.2901 56.6722   1 
  -1  -7   0 31548.9 727.998   1 
   1  -7   0 31550.0 807.762   1 
   1   7   0 32231.5 697.999   1 
  -2  -7   0 51364.2 930.459   1 
   2   7   0 50127.1 873.483   1 
   3  -7   0 4731.62 361.016   1 
   3   7   0 4890.30 345.461   2 
   3   7   0 4724.79 264.836   1 
   4   7   0 12113.8 441.620   1 
   4  -7   0 13118.3 656.863   1 
   4   7   0 12767.1 587.416   2 
   5  -7   0 27725.6 1038.16   1 
   5   7   0 32063.3 1058.65   2 
   6   7   0 16350.4 783.822   2 
   7   7   0 3763.50 412.624   2 
   8   7   0 921.317 217.972   2 
   0   8   0 26361.5 706.528   1 
   0  -8   0 24580.5 701.564   1 
   1   8   0 9465.15 392.008   1 
  -1  -8   0 10161.0 432.940   1 
   1  -8   0 10192.0 476.605   1 
   2   8   0 181.718 53.9938   1 
   2  -8   0 199.665 84.5497   1 
  -2  -8   0 257.224 71.4583   1 
   3   8   0 24560.2 637.568   1 
   3   8   0 25584.4 818.327   2 
   4  -8   0 3241.92 339.647   1 
   4   8   0 3267.59 314.107   2 
   5   8   0-116.776 94.8716   2 
   5  -8   0 124.654 76.4187   1 
   6  -8   0 215.652 113.836   1 
   6   8   0 330.259 126.992   2 
   7  -8   0 3869.30 440.229   1 
   7   8   0 2898.20 303.548   2 
   0  -9   0 18.6519 36.7118   1 
   1  -9   0-2.34719 36.1174   1 
  -1  -9   0 24.2546 36.3419   1 
   2  -9   0 626.485 133.934   1 
   2   9   0 546.723 100.516   1 
  -2  -9   0 549.125 105.499   1 
   3   9   0 19198.5 737.329   2 
   3  -9   0 16775.4 733.381   1 
   4   9   0 9192.76 552.805   2 
   4  -9   0 7755.58 519.007   1 
   5   9   0 1489.58 224.277   2 
   5  -9   0 1347.36 240.291   1 
   6  -9   0 5007.07 480.771   1 
   6   9   0 6030.38 505.343   2 
   7   9   0 489.583 174.933   2 
   0 -10   0 2964.92 263.399   1 
  -1 -10   0 14052.5 563.520   1 
   1 -10   0 13108.9 595.305   1 
  -2 -10   0 34213.0 871.274   1 
   2 -10   0 30807.0 983.637   1 
   3 -10   0 8910.08 565.288   1 
   3  10   0 8935.55 509.778   2 
  -3 -10   0 10275.1 473.174   1 
   4 -10   0 7619.93 533.270   1 
   4  10   0 9491.00 576.065   2 
   5 -10   0 194.560 125.511   1 
   5  10   0 111.340 53.4365   2 
   6  10   0 3068.30 362.266   2 
   6 -10   0 2634.11 344.976   1 
   7  10   0 478.726 166.684   2 
   0 -11   0-45.3644 76.3723   1 
   1 -11   0 9806.26 531.195   1 
  -1 -11   0 10105.7 491.740   1 
   2 -11   0 416.916 120.780   1 
  -2 -11   0 542.815 110.697   1 
  -3 -11   0 10461.6 499.727   1 
   3 -11   0 10005.4 608.869   1 
   3  11   0 9949.30 556.219   2 
   4  11   0 1148.28 213.593   2 
   4 -11   0 818.383 192.059   1 
   5 -11   0 3031.29 364.224   1 
   5  11   0 3551.39 359.568   2 
   6  11   0 122.758 80.8539   2 
   0 -12   0 4171.53 344.791   1 
  -1 -12   0 1115.21 178.376   1 
   1 -12   0 814.861 155.119   1 
  -2 -12   0 3775.63 305.346   1 
   2 -12   0 3520.12 344.177   1 
   3 -12   0 2342.05 304.208   1 
   3  12   0 2197.76 274.832   2 
   4 -12   0 43.3164 54.9202   1 
   4  12   0 46.6565 79.7928   2 
   5  12   0 3303.82 356.975   2 
   0 -13   0 58.4333 42.4673   1 
   1 -13   0 1257.87 203.347   1 
   2 -13   0 2394.88 295.664   1 
   3  13   0 174.645 76.2936   2 
   3 -13   0 2.57931 65.3470   1 
   4 -13   0 2448.60 325.550   1 
   1 -14   0 434.401 127.373   1 
   2 -14   0 924.184 191.120   1 
   3 -14   0-26.5006 54.7851   1 
   9   0  -1-88.2487 74.6279   2 
   8   0  -1-110.754 119.220   2 
   7   0  -1-46.4619 96.5745   2 
   6   0  -1 75.8804 74.0755   2 
   5   0  -1-8.65026 44.0611   2 
  -4   0   1-34.1094 45.9811   2 
   4   0  -1-20.8370 34.4932   2 
   3   0  -1 31.1882 34.9216   2 
  -3   0   1 21.6057 26.1197   2 
  -2   0   1-4.91440 22.4193   2 
   2   0  -1 18.8894 23.4037   2 
  -1   0   1 914.348 57.6986   1 
   1   0  -1 570.208 46.3127   1 
   0   0   1 88.6510 23.2697   1 
  -1   0  -1 91.4235 33.0219   2 
   1   0   1 82.5230 33.4168   2 
   2   0   1 35.3518 29.0492   2 
  -2   0  -1 19.4600 26.0557   2 
   3   0   1-41.9339 55.0993   2 
  -3   0  -1-16.2295 42.0290   2 
   4   0   1-45.3517 82.0160   2 
   5   0   1 51.3139 65.5159   2 
   6   0   1-2.97338 67.8166   2 
   7   0   1 44.1536 73.2036   2 
   8   0   1-121.226 102.847   2 
   9  -1  -1 6478.26 578.223   2 
   9   1  -1 6059.90 537.331   2 
   8   1  -1 2521.13 328.662   2 
   8  -1  -1 1999.45 294.205   2 
   7  -1  -1 3574.42 364.239   2 
   7   1  -1 3765.97 366.237   2 
   6  -1  -1 7203.06 478.216   2 
   6   1  -1 7908.98 501.312   2 
   5  -1  -1 13552.9 580.179   2 
   5   1  -1 14206.2 598.310   2 
   4   1  -1 2664.94 226.499   2 
  -4  -1   1 2863.60 222.854   2 
  -4   1   1 2554.46 210.636   2 
   4  -1  -1 2419.24 216.296   2 
  -3  -1   1 6441.22 274.947   2 
   3  -1  -1 6061.19 302.186   2 
  -3   1   1 6648.05 305.345   2 
  -2   1   1 243386. 1891.63   2 
  -2  -1   1 235928. 1743.83   2 
  -1   1   1 2118.70 114.183   1 
   1  -1  -1 1712.63 104.177   1 
   0   1   1 177078. 1323.13   1 
   0  -1   1 179279. 1098.14   2 
  -1   1  -1 63352.3 791.977   2 
   1   1   1 62062.5 844.358   2 
   2   1   1 9248.92 368.746   2 
  -2  -1  -1 9704.50 362.275   2 
  -2   1  -1 9408.48 358.982   2 
   2  -1   1 9016.94 350.981   2 
   3  -1   1 21818.8 664.405   2 
  -3   1  -1 23400.9 657.798   2 
  -3  -1  -1 23601.9 660.758   2 
   3   1   1 22371.0 666.772   2 
   4  -1   1 2767.47 261.735   2 
   4   1   1 3299.62 297.822   2 
   5   1   1 15811.5 753.425   2 
   5  -1   1 14017.0 675.977   2 
   6   1   1 12947.7 711.538   2 
   6  -1   1 13902.4 744.531   2 
   7   1   1 29393.5 1140.04   2 
   7  -1   1 28836.6 1112.32   2 
   8  -1   1 885.669 223.163   2 
   8   1   1 1157.78 247.440   2 
   9   2  -1 8539.62 637.750   2 
   8   2  -1 8405.91 590.675   2 
   8  -2  -1 9398.14 652.878   2 
   7   2  -1 87.1309 95.6294   2 
   7  -2  -1 120.705 98.2647   2 
   6   2  -1 12446.5 623.517   2 
   6  -2  -1 12550.9 649.187   2 
   5  -2  -1-15.2673 73.3230   2 
   5   2  -1-2.27393 43.0148   2 
   4   2  -1 837.007 129.164   2 
  -4  -2   1 801.777 112.202   2 
  -4   2   1 851.565 124.746   2 
  -3  -2   1 24624.9 544.140   2 
  -3   2   1 24544.2 610.054   2 
   2   2  -1 34071.3 524.314   2 
   2  -2  -1 33294.2 639.225   1 
   1  -2  -1 204965. 1671.59   1 
  -1   2   1 205812. 1661.01   1 
   0  -2  -1 254198. 1932.05   1 
   0   2   1 254106. 1911.92   1 
   1  -2   1 70020.1 845.197   2 
   1   2   1 69324.1 884.482   1 
   1   2   1 72113.6 970.703   2 
  -1   2  -1 73199.1 847.724   2 
  -1  -2  -1 72274.1 937.807   1 
   2  -2   1 45070.8 840.994   2 
   2   2   1 44231.9 857.739   2 
   2   2   1 42009.4 774.242   1 
  -2  -2  -1 43143.8 800.740   2 
   3   2   1 4144.58 302.388   2 
  -3  -2  -1 4010.79 264.997   2 
   3  -2   1 4020.66 288.131   2 
  -3   2  -1 3902.28 249.485   2 
   4  -2   1 58000.8 1254.28   2 
   4   2   1 57024.8 1227.54   2 
   5  -2   1 2934.44 304.256   2 
   5   2   1 3897.03 390.022   2 
   6  -2   1 13661.3 707.095   2 
   6   2   1 14507.7 754.653   2 
   7   2   1 17248.1 875.464   2 
   7  -2   1 15875.4 821.427   2 
   8  -2   1 159.823 105.990   2 
   8   2   1 297.427 148.284   2 
   9   3  -1 12729.5 766.180   2 
   8   3  -1 8621.27 617.366   2 
   7   3  -1 11101.5 647.853   2 
   6   3  -1 388.400 119.609   2 
   5   3  -1 51.5586 55.2807   2 
  -4  -3   1 40465.1 865.560   2 
   4   3  -1 47173.8 1041.26   2 
  -3   3   1 65356.3 1074.66   2 
   3   3  -1 65775.7 996.394   2 
   2  -3  -1 2410.76 177.618   1 
   2   3  -1 2472.52 140.082   2 
   2   3  -1 2887.86 110.578   1 
   1  -3  -1 7220.06 289.091   1 
  -1  -3   1 7143.00 156.690   1 
  -1   3   1 7707.85 287.364   1 
   0   3   1 16870.2 414.625   1 
   0  -3  -1 16733.7 434.290   1 
  -1  -3  -1 30386.9 621.243   1 
  -1   3  -1 31698.9 577.123   2 
   1   3   1 30252.4 586.423   1 
   2   3   1 80100.1 1225.20   2 
   2   3   1 76958.3 1077.94   1 
  -2   3  -1 78121.0 1098.18   2 
   3   3   1 434.012 86.1112   1 
   3  -3   1 426.869 101.168   2 
   3   3   1 490.855 107.040   2 
  -3  -3  -1 483.678 99.8791   2 
   4   3   1 1657.87 220.032   2 
   4  -3   1 1476.37 193.018   2 
   5   3   1 9609.63 540.021   2 
   5  -3   1 9533.99 545.606   2 
   6   3   1 8586.28 722.692   2 
   6  -3   1 5247.41 441.445   2 
   7  -3   1 7357.88 567.487   2 
   7   3   1 7773.01 579.065   2 
   8   3   1 1301.01 266.106   2 
   8  -3   1 1183.16 231.596   2 
   9   4  -1 54.8453 75.6030   2 
   8   4  -1 221.765 108.349   2 
   7   4  -1 1081.48 196.368   2 
   6   4  -1 14937.1 677.286   2 
   5   4  -1 462.531 120.119   2 
   4   4  -1 4008.02 217.378   1 
  -4  -4   1 4361.23 270.266   2 
   4   4  -1 4434.67 291.403   2 
   3   4  -1 9416.19 366.334   2 
   3  -4  -1 8458.66 417.762   1 
   3   4  -1 8822.34 264.831   1 
  -3   4   1 9433.27 418.445   2 
   2  -4  -1 2141.80 184.213   1 
   2   4  -1 2000.36 104.173   1 
  -1   4   1 29612.7 627.651   1 
   1  -4  -1 30410.3 663.588   1 
  -1  -4   1 29297.3 434.966   1 
   0   4   1 2745.03 181.915   1 
   0  -4  -1 2876.43 194.753   1 
   0  -4   1 2664.23 163.075   1 
   1   4   1 3271.22 203.741   1 
  -1  -4  -1 3337.10 214.919   1 
  -1   4  -1 3309.37 193.033   2 
   2   4   1 22592.3 578.509   1 
  -2   4  -1 24812.7 624.495   2 
   2   4   1 24368.1 671.810   2 
  -3   4  -1 1039.60 141.563   2 
   3   4   1 1038.31 132.902   1 
   3   4   1 1216.06 174.026   2 
   3  -4   1 882.284 138.714   2 
   4  -4   1 2961.73 286.172   2 
   4   4   1 2984.49 290.850   2 
   5  -4   1 6283.53 456.807   2 
   5   4   1 6904.72 492.467   2 
   6  -4   1 609.794 146.443   2 
   6   4   1 653.418 138.761   2 
   7  -4   1-20.0902 73.8273   2 
   7   4   1-47.0203 109.519   2 
   8   4   1 189.251 130.096   2 
   9   5  -1 2916.94 377.872   2 
   8   5  -1 9650.43 631.407   2 
   7   5  -1 7556.31 518.550   2 
   6   5  -1 51903.1 1579.72   2 
   5   5  -1 9454.82 476.057   2 
   5   5  -1 10431.9 394.182   1 
   4   5  -1 32064.6 622.635   1 
   4  -5  -1 33163.4 960.758   1 
   3   5  -1 1830.03 123.327   1 
   3  -5  -1 1990.23 207.882   1 
   3   5  -1 2161.86 178.755   2 
   2   5  -1 60245.9 874.467   2 
   2   5  -1 56411.5 692.089   1 
  -2  -5   1 60515.1 730.924   1 
   2  -5  -1 57412.1 1065.89   1 
  -1   5   1 8034.31 349.648   1 
   1  -5  -1 8174.81 361.781   1 
  -1  -5   1 8095.84 258.565   1 
   0   5   1 76132.4 1090.07   1 
   0  -5  -1 73717.3 1126.11   1 
  -1   5  -1 11693.8 398.897   2 
  -1  -5  -1 11281.0 421.923   1 
   1   5   1 10546.9 388.188   1 
   2   5   1 89682.9 1257.02   1 
  -2  -5  -1 92007.6 1353.43   1 
  -2   5  -1 92800.0 1304.24   2 
   2   5   1 92080.9 1446.32   2 
   3   5   1 5417.23 382.348   2 
   3   5   1 4888.50 291.854   1 
   4   5   1 46784.0 1164.51   2 
   5   5   1 22984.5 932.053   2 
   6   5   1 23877.0 955.636   2 
   7   5   1 8516.69 736.336   2 
   8  -6  -1 1102.35 244.531   1 
   8   6  -1 1030.89 210.276   2 
   7  -6  -1 1898.67 293.663   1 
   7   6  -1 1984.23 283.812   2 
   6  -6  -1 10088.3 635.593   1 
   6   6  -1 11343.1 611.910   2 
   5   6  -1 36.0331 27.5311   1 
   5   6  -1 35.1741 60.1881   2 
   5  -6  -1 91.2421 90.3371   1 
   4   6  -1 23580.6 534.992   1 
   4  -6  -1 22980.0 825.146   1 
   3   6  -1 1367.58 114.274   1 
   3   6  -1 1605.17 171.052   2 
   3  -6  -1 1428.79 187.818   1 
   2   6  -1 1077.86 123.039   2 
   2   6  -1 1032.88 96.6246   1 
  -2  -6   1 993.109 94.9662   1 
   2  -6  -1 883.968 139.751   1 
  -1  -6   1 70876.3 932.223   1 
   1  -6  -1 69692.8 1182.01   1 
  -1   6   1 72005.6 1198.46   1 
   0  -6  -1 8.78264 36.4380   1 
   0   6   1-65.1125 50.6078   1 
   0  -6   1 15.5667 22.1271   1 
   1   6   1 125.046 47.2913   1 
  -1  -6  -1 171.572 58.5163   1 
   1  -6   1 182.952 64.9803   1 
  -2  -6  -1 3144.86 252.507   1 
   2   6   1 3731.23 248.900   1 
  -2   6  -1 2994.82 231.678   2 
   2   6   1 3128.33 274.838   2 
   3   6   1 2950.97 288.844   2 
   4   6   1 16372.4 704.793   2 
   5   6   1 1824.09 262.065   2 
   6   6   1 1250.43 229.553   2 
   7   6   1 277.396 142.833   2 
   8   7  -1-30.0892 63.3660   2 
   7   7  -1 3052.50 463.850   2 
   7  -7  -1 1919.38 307.984   1 
   6   7  -1 21413.9 801.734   2 
   6  -7  -1 21874.1 939.397   1 
   5   7  -1 174.695 77.9830   2 
   5  -7  -1 120.675 91.3456   1 
   4  -7  -1 4071.02 350.085   1 
   4   7  -1 4613.59 317.173   2 
   4   7  -1 4212.51 222.622   1 
   3   7  -1 1345.13 165.725   2 
   3  -7  -1 1003.96 165.700   1 
   3   7  -1 1194.24 116.284   1 
  -2  -7   1 38443.5 683.653   1 
   2  -7  -1 35986.9 945.208   1 
  -1  -7   1 3886.83 222.351   1 
   1  -7  -1 3742.95 283.816   1 
   0  -7  -1 63248.8 1166.34   1 
   0   7   1 65084.7 1126.99   1 
   1   7   1 755.947 115.177   1 
   1  -7   1 727.066 124.276   1 
  -1  -7  -1 892.349 135.871   1 
   2  -7   1 884.614 153.345   1 
  -2  -7  -1 1093.21 155.361   1 
   2   7   1 966.944 132.337   1 
   3   7   1 1330.44 193.859   2 
   4   7   1 33782.3 1070.35   2 
   5   7   1 109.922 64.7440   2 
   6   7   1 184.007 89.2771   2 
   7   7   1 240.926 110.103   2 
   8   8  -1 139.283 65.1145   2 
   7   8  -1 1727.38 321.366   2 
   7  -8  -1 1046.64 226.723   1 
   6   8  -1 7767.60 498.451   2 
   6  -8  -1 7372.93 556.354   1 
   5   8  -1 2981.76 298.811   2 
   5  -8  -1 2247.36 286.845   1 
   4   8  -1 10698.5 498.607   2 
   4  -8  -1 10253.8 578.637   1 
   3   8  -1 53.8160 31.9982   1 
   3  -8  -1-13.0508 53.6773   1 
   3   8  -1 91.1040 54.0585   2 
   2  -8  -1 9196.47 492.091   1 
   2   8  -1 9771.91 352.374   1 
  -2  -8   1 9874.45 370.254   1 
   1  -8  -1 1945.21 218.404   1 
  -1  -8   1 1877.31 170.363   1 
   0  -8  -1 2185.82 227.324   1 
   0  -8   1 2007.35 190.609   1 
  -1  -8  -1 4793.75 321.410   1 
   1  -8   1 4159.97 297.526   1 
   2  -8   1 24897.2 820.243   1 
  -2  -8  -1 26874.7 801.814   1 
   3  -8   1 7890.15 498.855   1 
   3   8   1 8094.75 505.589   2 
   4   8   1 18705.6 823.993   2 
   5   8   1 3588.95 363.939   2 
   6   8   1 2223.80 325.200   2 
   7   8   1 377.361 131.440   2 
   8   9  -1 1766.46 273.287   2 
   7   9  -1 2521.74 318.306   2 
   6  -9  -1 1710.16 274.606   1 
   6   9  -1 2203.18 270.220   2 
   5  -9  -1 918.306 192.297   1 
   5   9  -1 1014.62 181.618   2 
   4  -9  -1 533.588 154.803   1 
   4   9  -1 529.665 106.356   2 
   3   9  -1 4455.22 319.409   2 
  -3  -9   1 4919.77 270.678   1 
   3  -9  -1 4486.43 384.800   1 
  -2  -9   1 1450.44 152.381   1 
   2   9  -1 1324.08 139.920   1 
   2  -9  -1 1417.04 204.534   1 
   1  -9  -1 1189.70 182.499   1 
  -1  -9   1 1033.24 135.547   1 
   0  -9  -1 178.444 61.3358   1 
   0  -9   1 114.626 65.5736   1 
  -1  -9  -1 22800.3 744.519   1 
   1  -9   1 21415.1 722.611   1 
   2  -9   1 201.471 89.2029   1 
  -2  -9  -1 247.535 74.8781   1 
   3  -9   1 6361.07 462.543   1 
   3   9   1 6970.95 487.213   2 
   4  -9   1 8773.54 595.694   1 
   4   9   1 10866.5 648.144   2 
   5   9   1 2462.62 312.603   2 
   5  -9   1 2222.80 313.151   1 
   6  -9   1 3309.34 403.800   1 
   6   9   1 4198.88 451.901   2 
   6 -10  -1 71.5514 90.1977   1 
   6  10  -1 88.6765 59.3684   2 
   5 -10  -1 12352.1 721.198   1 
   5  10  -1 12938.5 643.547   2 
   4 -10  -1 44.5785 68.3799   1 
   4  10  -1-1.13561 50.9640   2 
   3  10  -1 34771.6 938.729   2 
   3 -10  -1 33126.0 1075.01   1 
  -3 -10   1 34289.4 776.821   1 
   2 -10  -1 6806.16 462.435   1 
  -2 -10   1 6991.73 347.708   1 
  -1 -10   1 24234.6 694.935   1 
   1 -10  -1 23231.9 828.025   1 
   0 -10  -1 3067.66 285.189   1 
   0 -10   1 2697.17 245.040   1 
   1 -10   1 22453.3 770.698   1 
  -1 -10  -1 24577.6 814.952   1 
  -2 -10  -1 799.616 149.522   1 
   2 -10   1 742.855 154.842   1 
   3  10   1 12887.4 664.138   2 
   3 -10   1 10841.9 612.680   1 
   4  10   1 1859.35 277.499   2 
   4 -10   1 1326.84 226.943   1 
   5 -10   1 336.208 145.876   1 
   5  10   1 260.355 115.153   2 
   6  10   1 402.704 155.277   2 
   5 -11  -1 1937.59 301.433   1 
   5  11  -1 2108.88 249.392   2 
   4 -11  -1 3208.07 361.728   1 
   4  11  -1 3694.13 336.312   2 
   3  11  -1 1310.56 190.859   2 
   3 -11  -1 1157.38 207.860   1 
  -2 -11   1 4383.29 289.553   1 
   2 -11  -1 4103.40 377.615   1 
  -1 -11   1 1465.29 176.360   1 
   1 -11  -1 1309.38 200.578   1 
   0 -11  -1 13826.6 632.471   1 
   0 -11   1 13141.6 557.243   1 
   1 -11   1 168.477 66.9734   1 
  -1 -11  -1 345.749 119.754   1 
  -2 -11  -1 4440.20 358.323   1 
   2 -11   1 4319.75 374.828   1 
   3  11   1 162.720 95.3640   2 
   3 -11   1-121.001 81.3348   1 
   4 -11   1 56.0053 79.3938   1 
   4  11   1 13.1471 72.8528   2 
   5 -11   1 215.474 122.236   1 
   5  11   1 208.674 111.977   2 
   5 -12  -1-154.573 112.590   1 
   4 -12  -1 166.487 89.8909   1 
   3  12  -1 9213.60 506.778   2 
   3 -12  -1 9156.65 595.460   1 
   2 -12  -1 1742.52 248.585   1 
  -1 -12   1 2308.98 229.949   1 
   1 -12  -1 2251.15 275.069   1 
   0 -12  -1 1715.41 233.648   1 
   0 -12   1 1597.59 203.305   1 
   1 -12   1 14024.8 638.620   1 
  -1 -12  -1 14811.4 664.652   1 
  -2 -12  -1 622.806 140.380   1 
   2 -12   1 616.832 149.002   1 
   3 -12   1 539.070 145.750   1 
   3  12   1 624.150 157.223   2 
   4 -12   1 2134.26 299.314   1 
   4  12   1 2555.42 345.154   2 
   5  12   1 1716.51 271.710   2 
   4 -13  -1 274.381 112.745   1 
   3 -13  -1 2022.64 287.017   1 
   2 -13  -1 6757.06 506.530   1 
   1 -13  -1 110.658 64.1064   1 
   0 -13  -1 2500.23 288.260   1 
  -1 -13  -1 12.7785 55.5386   1 
   1 -13   1 121.041 72.7427   1 
   2 -13   1 1682.72 246.200   1 
   3 -13   1 198.889 84.2913   1 
   3  13   1 165.438 80.1000   2 
   4  13   1 1184.81 240.229   2 
   3 -14  -1 288.642 124.720   1 
   2 -14  -1-146.240 107.511   1 
   1 -14  -1 2844.52 323.898   1 
   0 -14  -1 148.698 72.0068   1 
   2  14   1 22.6980 93.8491   2 
   3  14   1 502.778 141.096   2 
   3 -14   1 331.070 126.384   1 
   9   0  -2 1619.13 271.162   2 
   8   0  -2 12058.4 689.751   2 
   7   0  -2 40904.2 1177.11   2 
   6   0  -2 53646.4 1246.24   2 
   5   0  -2 1508.86 186.068   2 
   4   0  -2 2344.80 204.741   2 
  -4   0   2 2371.58 191.038   2 
   3   0  -2 43469.2 712.666   1 
  -3   0   2 45248.8 732.066   2 
  -2   0   2 999999. 5646.91   1 
  -1   0   2 192612. 1514.71   1 
   1   0  -2 194479. 1535.28   1 
   0   0   2 54267.2 731.890   2 
   0   0   2 52265.3 761.267   1 
   1   0   2 148953. 1516.60   2 
  -1   0  -2 145906. 1464.06   2 
  -2   0  -2 178473. 1903.33   2 
   2   0   2 186973. 2065.46   2 
   3   0   2 4469.00 306.785   2 
   4   0   2 565.318 159.516   2 
   5   0   2 31906.9 1057.15   2 
   6   0   2 24809.2 1025.52   2 
   7   0   2 3122.20 392.869   2 
   9   1  -2 507.428 161.030   2 
   8   1  -2 599.271 162.194   2 
   7   1  -2 324.086 120.593   2 
   6   1  -2 524.783 121.702   2 
   5   1  -2 22505.6 687.786   2 
   4  -1  -2 2745.79 216.122   1 
  -4   1   2 3056.91 229.282   2 
   4   1  -2 2709.44 205.575   2 
  -3   1   2 235.615 61.2119   2 
   3   1  -2 265.166 57.0605   2 
  -3  -1   2 233.094 48.8191   2 
   3   1  -2 250.497 47.3156   1 
   3  -1  -2 332.300 64.6822   1 
  -2  -1   2 302932. 1956.22   1 
   2   1  -2 306715. 1938.19   1 
   2  -1  -2 303305. 2331.07   1 
  -2   1   2 299327. 2275.38   1 
   1  -1  -2 41779.5 655.058   1 
   1   1  -2 42943.1 534.379   1 
  -1  -1   2 41708.3 519.075   1 
   0   1  -2 25708.0 426.251   2 
   0  -1   2 25408.3 425.546   2 
   0   1   2 25057.3 526.809   1 
   0  -1  -2 25706.2 551.661   1 
   1  -1   2 554.866 85.8584   2 
  -1   1  -2 501.572 79.7482   2 
   1   1   2 418.804 77.6193   1 
   1   1   2 486.670 88.5760   2 
  -2   1  -2 36696.2 744.493   2 
  -2  -1  -2 36256.8 766.883   2 
   2   1   2 35948.1 822.294   2 
   3   1   2 58492.0 1283.49   2 
   3  -1   2 96896.1 1979.10   2 
   4   1   2 1680.03 225.816   2 
   4  -1   2 1991.37 238.971   2 
   5   1   2 51371.6 1687.86   2 
   5  -1   2 34506.6 1112.45   2 
   6   1   2 247.194 119.696   2 
   6  -1   2 225.199 119.478   2 
   7  -1   2 1460.22 276.267   2 
   7   1   2 1153.78 242.339   2 
   9   2  -2 12949.8 748.818   2 
   8   2  -2 6523.11 493.747   2 
   7   2  -2 2744.71 297.935   2 
   6   2  -2 28309.0 860.356   2 
   5   2  -2 8078.61 411.415   2 
  -5  -2   2 8795.25 411.435   2 
  -4   2   2 309.450 76.7823   2 
   4   2  -2 205.201 62.3464   2 
   4  -2  -2 256.809 67.0752   1 
  -4  -2   2 305.765 72.4293   2 
   3   2  -2 35639.0 598.492   2 
   3  -2  -2 34722.9 737.207   1 
  -2   2   2 395190. 2946.79   1 
   2  -2  -2 388463. 2987.59   1 
   1  -2  -2 59713.6 889.793   1 
  -1   2   2 60174.9 868.789   1 
   0   2  -2 17502.9 326.262   2 
   0   2   2 16803.6 450.466   1 
  -1   2  -2 2.77292 20.3299   2 
   1   2   2-2.90263 27.6148   1 
   1  -2   2 33.7021 30.1634   2 
   1   2   2 69.1558 56.6435   2 
   2   2   2 2086.20 216.358   2 
   2   2   2 2031.54 187.316   1 
  -2   2  -2 2113.63 182.873   2 
   2  -2   2 1796.37 175.506   2 
   3   2   2 8092.09 430.982   2 
   3  -2   2 8129.18 432.697   2 
   4   2   2 19080.1 795.528   2 
   4  -2   2 19681.4 765.985   2 
   5   2   2 15244.3 718.084   2 
   5  -2   2 15598.6 750.201   2 
   6  -2   2 2529.99 329.389   2 
   6   2   2 4693.27 609.258   2 
   7   2   2 820.137 206.746   2 
   7  -2   2 554.718 167.771   2 
   9   3  -2 2430.91 324.299   2 
   8   3  -2 7837.34 543.506   2 
   7   3  -2 18772.0 784.472   2 
   6  -3  -2 4164.13 360.185   1 
   6   3  -2 4313.07 343.440   2 
   5   3  -2 32.6525 35.5709   2 
  -5  -3   2 35.6186 34.9542   2 
   5  -3  -2 50.0533 46.3897   1 
  -4  -3   2 11905.5 396.637   2 
   4   3  -2 12694.3 434.097   2 
   4  -3  -2 12236.0 518.734   1 
   3   3  -2 16809.8 401.167   2 
   3  -3  -2 15833.6 523.948   1 
  -2   3   2 137.343 45.8102   1 
   2   3  -2 108.036 21.3699   2 
   1  -3  -2 114916. 1386.08   1 
  -1   3   2 116310. 1357.45   1 
   0   3  -2 2531.29 119.861   2 
   0  -3  -2 2611.07 198.466   1 
   0  -3   2 2851.13 131.139   2 
   0   3   2 2728.23 192.589   1 
   1  -3   2 94821.6 1126.59   2 
  -1   3  -2 97700.3 1117.86   2 
  -1  -3  -2 94664.3 1366.44   1 
   1   3   2 92818.9 1266.50   1 
  -2   3  -2 190989. 1972.60   2 
   2   3   2 191540. 2236.70   2 
   2  -3   2 190251. 2055.75   2 
   3  -3   2 57248.6 1198.50   2 
   3   3   2 57584.8 1227.78   2 
   4  -3   2 33.5217 46.9962   2 
   4   3   2-1.47256 66.7354   2 
   5  -3   2 136.550 66.5079   2 
   5   3   2 69.1663 77.6467   2 
   6  -3   2 378.887 122.749   2 
   6   3   2 739.271 213.620   2 
   7  -3   2 1516.23 269.420   2 
   7   3   2 1793.67 302.685   2 
   9  -4  -2 13885.7 808.333   1 
   9   4  -2 14252.8 773.466   2 
   8   4  -2 1398.08 234.613   2 
   8  -4  -2 1119.28 217.366   1 
   7  -4  -2 70.5953 74.3943   1 
   7   4  -2 76.4635 56.3184   2 
   6  -4  -2 4637.10 393.016   1 
   6   4  -2 4588.52 348.670   2 
   5  -4  -2 6454.91 421.060   1 
  -5  -4   2 6648.68 344.262   2 
   5   4  -2 6485.19 370.408   2 
  -4  -4   2 52193.4 871.770   2 
   4   4  -2 52965.6 926.877   2 
   4   4  -2 49830.1 634.515   1 
   3   4  -2 37005.3 541.415   2 
   3  -4  -2 48273.1 1025.30   1 
   2   4  -2 24635.4 373.514   2 
   2  -4  -2 22347.8 637.316   1 
  -2   4   2 23481.9 616.109   1 
   1  -4  -2 4481.89 272.717   1 
  -1   4   2 4788.12 269.662   1 
   0  -4  -2 22273.0 610.155   1 
   0   4   2 22952.5 592.908   1 
   0   4  -2 22163.0 410.750   2 
   1   4   2 24790.6 648.292   1 
  -1  -4  -2 25405.1 705.093   1 
   2  -4   2-29.2479 53.4731   2 
  -2   4  -2 8.61110 33.4137   2 
   2   4   2 54.7196 41.2010   1 
   2   4   2-43.2731 62.3758   2 
   3   4   2 7196.02 460.736   2 
   3  -4   2 6787.12 398.213   2 
   4   4   2 15916.0 698.335   2 
   4  -4   2 17142.9 706.174   2 
   5   4   2 24043.6 996.469   2 
   5  -4   2 22151.5 880.146   2 
   6   4   2 5791.07 485.012   2 
   6  -4   2 5725.47 488.901   2 
   7  -4   2 6552.95 551.874   2 
   7   4   2 11083.0 916.800   2 
   9   5  -2-45.8351 80.4692   2 
   8  -5  -2 967.468 204.641   1 
   8   5  -2 1275.38 228.138   2 
   7  -5  -2 2136.56 296.415   1 
   7   5  -2 2247.15 269.366   2 
   6  -5  -2 27046.2 977.122   1 
   6   5  -2 28198.5 874.510   2 
  -5  -5   2 17711.2 569.770   2 
   5  -5  -2 16745.0 708.100   1 
   5   5  -2 16748.7 412.237   1 
   4   5  -2 2745.96 127.492   1 
   4  -5  -2 2619.61 261.630   1 
   4   5  -2 2237.42 157.068   2 
   3  -5  -2 1040.98 156.917   1 
   3   5  -2 1278.46 119.861   2 
  -2  -5   2 524.154 39.5787   1 
  -2   5   2 601.037 105.863   1 
   2  -5  -2 487.686 102.046   1 
  -1   5   2 13986.8 495.406   1 
   1  -5  -2 13048.4 496.404   1 
   0   5   2 14503.1 498.604   1 
   0  -5  -2 14305.1 523.634   1 
   0   5  -2 14400.5 353.915   2 
  -1   5  -2 153.217 59.2496   2 
  -1  -5  -2 182.330 71.2004   1 
   1   5   2 164.435 62.2042   1 
  -2   5  -2 109.110 55.9140   2 
   2   5   2 28.5761 43.9584   2 
   3   5   2 26.2165 82.7233   2 
   4   5   2 5121.31 416.430   2 
   4  -5   2 5191.01 403.802   2 
   5  -5   2 116.271 101.076   2 
   5   5   2 61.3795 80.1859   2 
   6  -5   2 1091.53 234.492   2 
   6   5   2 968.092 210.504   2 
   7   5   2 721.932 220.975   2 
   9   6  -2 2461.54 324.684   2 
   8   6  -2-0.85045 63.6280   2 
   8  -6  -2 2.61243 76.2438   1 
   7  -6  -2 1605.07 264.720   1 
   7   6  -2 1554.98 223.080   2 
   6  -6  -2 5235.28 440.403   1 
   6   6  -2 5249.32 367.226   2 
   5  -6  -2 2387.15 275.918   1 
   5   6  -2 2468.61 146.643   1 
   4  -6  -2 2575.98 273.177   1 
   4   6  -2 2789.38 216.609   2 
   4   6  -2 2358.15 115.739   1 
   3   6  -2 2192.71 156.344   2 
   3  -6  -2 2024.64 230.976   1 
   2  -6  -2 20701.0 692.705   1 
   2   6  -2 21327.9 437.001   2 
  -2  -6   2 19865.8 338.220   1 
   1  -6  -2 2326.15 224.468   1 
  -1  -6   2 2325.56 148.283   1 
   0  -6  -2 55030.3 1098.02   1 
   0   6  -2 52275.9 785.582   2 
  -1  -6  -2 6189.81 368.643   1 
  -1   6  -2 6235.76 301.781   2 
  -2  -6  -2 628.994 125.736   1 
  -2   6  -2 552.001 104.210   2 
   2   6   2 709.184 150.183   2 
   3   6   2 21600.4 843.434   2 
   4   6   2 4066.08 381.038   2 
   5   6   2 30078.9 1153.17   2 
   6   6   2-4.08306 102.842   2 
   7   6   2 138.526 97.4309   2 
   9   7  -2 2538.91 329.999   2 
   8  -7  -2 9467.86 661.249   1 
   8   7  -2 10148.6 614.984   2 
   7  -7  -2 6833.11 530.128   1 
   7   7  -2 7764.07 497.604   2 
   6   7  -2 4039.75 433.738   2 
   6  -7  -2 2039.78 278.045   1 
   5   7  -2 98.7830 56.5573   2 
   5  -7  -2 61.3656 64.0920   1 
   4   7  -2 13623.7 297.093   1 
   4  -7  -2 14267.0 677.948   1 
   3   7  -2 38061.6 738.250   2 
   3  -7  -2 34559.1 991.377   1 
   2  -7  -2 205.254 73.5524   1 
  -2  -7   2 289.491 47.9774   1 
   2   7  -2 282.073 51.4629   2 
   1  -7  -2 7089.26 412.620   1 
  -1  -7   2 6801.43 278.888   1 
   0  -7   2 14145.8 485.033   1 
   0  -7  -2 15206.5 611.276   1 
   0   7  -2 15686.8 448.274   2 
  -1  -7  -2 35734.4 953.458   1 
  -1   7  -2 36540.4 772.831   2 
   2   7   2 19446.7 782.737   2 
  -2  -7  -2 19887.7 733.247   1 
   3   7   2 12991.9 667.548   2 
   4   7   2 16499.2 806.974   2 
   5   7   2 1344.72 227.138   2 
   6   7   2 6785.25 585.337   2 
   8   8  -2 14.3352 74.2085   2 
   7  -8  -2 3692.90 405.802   1 
   7   8  -2 3801.07 351.174   2 
   6   8  -2 4376.42 387.392   2 
   6  -8  -2 3017.13 345.150   1 
   5  -8  -2 2871.15 330.836   1 
   5   8  -2 3085.55 265.813   2 
   4   8  -2 18894.7 601.143   2 
   4  -8  -2 16679.8 762.701   1 
   3   8  -2 626.001 99.7853   2 
   3  -8  -2 596.504 144.149   1 
  -2  -8   2 8253.98 284.749   1 
   2  -8  -2 7650.07 467.756   1 
   1  -8  -2 14087.0 616.150   1 
  -1  -8   2 13017.5 415.518   1 
   0  -8  -2 2332.82 253.334   1 
   0   8  -2 2586.93 196.837   2 
   0  -8   2 2590.43 210.969   1 
   1  -8   2 34341.8 893.653   1 
  -1   8  -2 35639.2 794.943   2 
   2   8   2 7309.66 501.850   2 
  -2  -8  -2 7301.03 457.342   1 
   3   8   2 15040.4 744.066   2 
   4   8   2 3692.54 395.931   2 
   5   8   2 5570.81 481.007   2 
   6   8   2 125.731 77.4014   2 
   7  -9  -2 58.7461 79.9505   1 
   6  -9  -2 6982.12 552.797   1 
   6   9  -2 5528.09 336.467   2 
   5   9  -2 10115.6 504.151   2 
   5  -9  -2 8713.27 594.837   1 
   4   9  -2 2886.57 236.454   2 
   4  -9  -2 2845.80 321.726   1 
   3   9  -2 7633.47 364.322   2 
   3  -9  -2 6992.22 479.454   1 
   2  -9  -2 1524.81 219.682   1 
  -2  -9   2 1550.69 133.361   1 
  -1  -9   2 5770.84 296.478   1 
   1  -9  -2 6091.72 431.445   1 
   0  -9  -2 16599.9 687.595   1 
   0  -9   2 16558.3 570.444   1 
  -1  -9  -2 11461.8 578.793   1 
   1  -9   2 10033.5 479.182   1 
   2  -9   2 7569.36 470.209   1 
  -2  -9  -2 8970.34 520.015   1 
   3  -9   2 192.592 77.1551   1 
   3   9   2 236.565 100.761   2 
   4   9   2 4088.66 433.254   2 
   5   9   2 337.610 132.567   2 
   6 -10  -2 1637.92 283.931   1 
   5 -10  -2 8683.28 610.783   1 
   4  10  -2 10578.2 469.053   2 
   4 -10  -2 9678.26 610.959   1 
   3  10  -2 12215.1 481.655   2 
   3 -10  -2 11128.1 639.995   1 
  -2 -10   2 5613.80 269.864   1 
   2 -10  -2 5110.27 416.876   1 
   1 -10  -2 1143.80 193.298   1 
  -1 -10   2 1134.86 140.799   1 
   0 -10  -2 29845.7 957.299   1 
   0 -10   2 26930.5 758.619   1 
   1 -10   2 12995.1 572.062   1 
  -1 -10  -2 14060.1 665.798   1 
  -2 -10  -2 6401.21 450.603   1 
   2 -10   2 5125.22 394.199   1 
   3  10   2 3342.27 363.722   2 
   3 -10   2 2860.48 323.407   1 
   4 -10   2 4606.81 444.720   1 
   4  10   2 5003.26 488.832   2 
   5  10   2 245.169 104.007   2 
   5 -10   2-38.9540 88.4538   1 
   5 -11  -2 5384.46 486.527   1 
   4 -11  -2 393.853 117.638   1 
   3 -11  -2 352.006 124.284   1 
   2 -11  -2 120.019 58.9535   1 
   1 -11  -2 6642.95 475.595   1 
  -1 -11   2 6175.45 337.054   1 
   0 -11   2 858.772 140.082   1 
   0 -11  -2 1111.38 194.090   1 
   1 -11   2 6832.16 432.681   1 
  -1 -11  -2 7660.91 496.795   1 
   2 -11   2 6439.13 447.736   1 
  -2 -11  -2 7765.23 508.846   1 
   3  11   2 4850.90 454.329   2 
   3 -11   2 4403.27 393.145   1 
   4 -11   2 4545.08 437.391   1 
   4  11   2 5337.49 511.871   2 
   5 -12  -2 3376.80 390.845   1 
   4 -12  -2 7632.93 572.984   1 
   3 -12  -2 478.788 136.453   1 
   2 -12  -2 854.344 181.501   1 
   1 -12  -2 13483.5 690.858   1 
   0 -12  -2 972.179 181.397   1 
  -1 -12  -2 135.441 69.2116   1 
   1 -12   2 152.065 65.5807   1 
  -2 -12  -2 104.760 51.3377   1 
   2 -12   2 97.6635 64.7194   1 
   3  12   2 885.044 203.425   2 
   3 -12   2 819.643 179.656   1 
   4 -12   2 427.927 131.627   1 
   4  12   2 466.039 166.278   2 
   4 -13  -2 756.187 185.825   1 
   3 -13  -2 231.183 109.798   1 
   2 -13  -2 1337.89 228.538   1 
   1 -13  -2 83.8353 96.9275   1 
   0 -13  -2 1361.96 221.626   1 
  -1 -13  -2 493.271 129.220   1 
   2 -13   2 844.915 172.020   1 
  -2 -13  -2 796.203 177.845   1 
   2  13   2 939.102 200.223   2 
   3 -13   2 36.1743 57.4055   1 
   3  13   2 23.4644 55.8072   2 
   2 -14  -2 225.660 122.877   1 
   1 -14  -2 235.733 86.9582   1 
   0 -14  -2 1059.24 202.404   1 
  10   0  -3-127.363 132.400   1 
   9   0  -3-37.6767 90.3681   1 
   8   0  -3 47.2136 73.5945   1 
   7   0  -3 148.372 75.9146   1 
   6   0  -3 24.0532 39.9311   1 
  -5   0   3-0.28420 31.7082   2 
   5   0  -3-23.6377 37.6832   1 
  -4   0   3 390.405 80.6573   2 
   4   0  -3 34.5644 44.8517   1 
   3   0  -3 16.4113 25.3348   1 
  -3   0   3 92.6040 44.5024   1 
   2   0  -3 406.458 72.9555   1 
  -2   0   3-19.3264 26.9055   1 
   1   0  -3-2.49372 23.2536   1 
  -1   0   3 24.1542 17.2965   1 
   0   0   3-11.4135 22.6348   1 
   0   0   3 33.8046 25.4311   2 
   1   0   3 15.2440 46.3366   2 
   1   0   3-26.2537 42.7387   1 
   2   0   3-39.4088 72.9768   2 
  -2   0  -3 16.1609 30.6059   2 
   3   0   3-63.3750 71.6544   2 
   4   0   3 15.1897 67.8658   2 
   5   0   3 59.3924 100.319   2 
   6   0   3-58.7707 76.1271   2 
   7   0   3 228.594 143.535   2 
  10  -1  -3 91.4853 95.8029   1 
   9  -1  -3 1609.88 247.287   1 
   9   1  -3 1491.87 212.211   1 
   8  -1  -3 1746.41 244.232   1 
   7  -1  -3 4393.57 358.427   1 
   7   1  -3 4216.25 320.942   1 
   6   1  -3 2078.28 203.154   1 
   6  -1  -3 1890.13 214.850   1 
   5   1  -3 837.087 111.187   1 
   5  -1  -3 684.008 118.097   1 
  -4   1   3 82684.6 1188.66   2 
   4   1  -3 83135.7 1055.47   1 
   4  -1  -3 83787.7 1242.37   1 
  -4  -1   3 83733.6 1109.85   2 
  -3   1   3 4219.95 230.949   1 
  -3  -1   3 4666.91 204.344   1 
   3   1  -3 4199.65 195.334   1 
   3  -1  -3 4299.66 246.183   1 
  -3  -1   3 4605.18 205.622   2 
   2  -1  -3 32417.9 668.393   1 
  -2  -1   3 31427.5 519.890   1 
  -2   1   3 31567.9 634.872   1 
   2   1  -3 33630.2 555.453   1 
  -1   1   3 84617.1 1110.58   1 
  -1  -1   3 84042.0 1008.83   1 
   1  -1  -3 83544.5 1148.59   1 
   0  -1  -3 29528.7 714.538   1 
   0  -1   3 29571.5 644.736   1 
   0   1   3 28370.8 663.618   1 
   1   1   3 1932.11 187.762   2 
  -1   1  -3 1766.82 153.475   2 
   1  -1   3 1985.06 182.498   2 
   1   1   3 1805.09 180.276   1 
   2   1   3 3130.17 267.756   2 
  -2   1  -3 3457.37 247.441   2 
   2  -1   3 3120.22 261.887   2 
   3   1   3 34588.3 1032.95   2 
   3  -1   3 38682.8 1134.52   2 
   4   1   3 34254.9 1075.35   2 
   4  -1   3 35736.9 1102.18   2 
   5  -1   3 65213.6 1645.81   2 
   5   1   3 82620.4 2035.44   2 
   6   1   3 2084.23 310.967   2 
   6  -1   3 2053.65 315.918   2 
   7  -1   3-27.9459 101.332   2 
   7   1   3 178.256 117.640   2 
  10  -2  -3 1753.80 267.948   1 
   9  -2  -3 681.812 171.275   1 
   9   2  -3 542.708 157.581   2 
   8   2  -3 1133.33 204.350   2 
   8  -2  -3 971.612 187.745   1 
   7  -2  -3 1322.46 201.904   1 
   7   2  -3 1370.51 201.519   2 
   6  -2  -3 1846.13 223.483   1 
   6   2  -3 2128.33 192.750   1 
   6   2  -3 2189.89 228.964   2 
   5  -2  -3 482.719 99.3649   1 
  -5  -2   3 555.996 97.2324   2 
   5   2  -3 472.313 76.9866   1 
   5   2  -3 546.359 100.170   2 
   4   2  -3 4990.58 208.548   1 
   4  -2  -3 5053.59 312.692   1 
  -3   2   3 41390.6 811.830   1 
   3   2  -3 41373.0 527.338   1 
   3  -2  -3 41951.8 846.538   1 
  -3  -2   3 42910.3 596.422   2 
   2  -2  -3 167337. 1808.05   1 
  -2  -2   3 166944. 1289.06   1 
  -2   2   3 170104. 1767.91   1 
  -2  -2   3 167884. 1174.48   2 
  -1  -2   3 25504.0 375.758   2 
  -1   2   3 24308.4 607.672   1 
  -1  -2   3 24773.7 490.528   1 
   1  -2  -3 24316.6 635.088   1 
   0  -2  -3 79240.8 1258.92   1 
   0   2  -3 81912.8 941.660   2 
  -1   2  -3 5697.21 275.367   2 
   1   2   3 5618.96 338.081   2 
   1   2   3 5221.44 302.439   1 
   2   2   3 58471.5 1259.79   2 
  -2   2  -3 60105.5 1101.03   2 
   3   2   3 1145.71 172.160   2 
   3  -2   3 1229.68 187.817   2 
   4   2   3 10952.0 649.590   2 
   4  -2   3 10758.7 593.038   2 
   5   2   3 6312.39 490.504   2 
   5  -2   3 7281.82 541.050   2 
   6  -2   3-184.073 146.516   2 
   6   2   3 82.7670 128.304   2 
   7  -2   3 741.568 199.971   2 
  10   3  -3 7976.53 604.509   2 
   9   3  -3 1266.88 223.763   2 
   9  -3  -3 1187.85 239.537   1 
   8   3  -3-80.5840 47.1313   2 
   8  -3  -3 67.5309 74.3404   1 
   7   3  -3-85.0903 82.2234   2 
   7  -3  -3-55.7806 49.2100   1 
   6  -3  -3 2076.09 244.319   1 
   6   3  -3 2348.63 227.834   2 
   5   3  -3 10387.5 327.270   1 
  -5  -3   3 10988.5 413.271   2 
   5  -3  -3 9985.91 494.416   1 
   5   3  -3 10564.7 423.658   2 
   4   3  -3-22.9256 26.8076   2 
  -4  -3   3-4.50708 31.8778   2 
   4   3  -3 14.5939 10.7140   1 
  -3  -3   3 13546.4 280.929   2 
   3  -3  -3 12734.2 490.212   1 
  -3   3   3 12650.4 465.771   1 
  -2  -3   3 100528. 831.133   1 
   2  -3  -3 100276. 1416.05   1 
   1  -3  -3 111.866 52.3237   1 
  -1   3   3 132.431 49.1941   1 
  -1  -3   3 183.564 26.3657   2 
   0   3   3 63892.9 1084.11   1 
   0  -3  -3 65868.8 1176.00   1 
   0  -3   3 65109.9 814.293   2 
   1  -3   3 79.0882 50.7315   2 
  -1   3  -3 29.7991 24.8704   2 
  -2   3  -3 27204.2 685.860   2 
   2   3   3 28549.8 896.538   2 
   2  -3   3 28956.4 762.152   2 
   3  -3   3 180.378 69.8905   2 
   3   3   3 236.813 97.8768   2 
   4  -3   3 4789.01 402.234   2 
   4   3   3 5027.29 441.564   2 
   5  -3   3 2313.38 306.934   2 
   5   3   3 2257.59 308.737   2 
   6  -3   3 3181.76 366.982   2 
   6   3   3 3686.30 434.851   2 
   7  -3   3 4036.75 446.949   2 
  10   4  -3-10.5052 73.6413   2 
   9  -4  -3 5249.66 478.515   1 
   9   4  -3 5541.42 460.947   2 
   8  -4  -3 17902.5 840.964   1 
   8   4  -3 17854.6 770.272   2 
   7   4  -3 569.637 126.559   2 
   7  -4  -3 598.003 147.960   1 
   6   4  -3 1625.06 188.631   2 
   6  -4  -3 1336.05 203.313   1 
   5   4  -3 12718.0 458.938   2 
   5  -4  -3 12229.2 581.357   1 
   5   4  -3 11737.3 287.876   1 
  -4  -4   3 20647.4 460.370   2 
   4  -4  -3 18923.5 690.160   1 
   4   4  -3 19422.6 457.024   2 
   3  -4  -3 32575.1 860.658   1 
  -2  -4   3 408.847 34.9473   1 
   2  -4  -3 416.003 100.185   1 
  -2   4   3 496.128 92.8231   1 
   1  -4  -3 6479.10 363.348   1 
  -1   4   3 6463.11 339.231   1 
   0   4  -3 40033.9 590.361   2 
   0   4   3 39284.9 887.302   1 
   0  -4   3 39503.1 609.290   2 
   0  -4  -3 40225.7 951.987   1 
   1  -4   3 2048.83 169.261   2 
  -1   4  -3 1974.61 163.807   2 
  -1  -4  -3 1968.62 218.622   1 
  -2   4  -3 2050.81 192.677   2 
   2  -4   3 1956.54 199.893   2 
   2   4   3 2179.85 249.986   2 
   3   4   3 38961.1 1150.28   2 
   3  -4   3 34762.6 956.800   2 
   4   4   3 7155.24 499.957   2 
   4  -4   3 7792.04 499.331   2 
   5  -4   3 434.744 132.335   2 
   5   4   3 641.877 186.646   2 
   6  -4   3-4.60698 66.2537   2 
   6   4   3 54.6716 123.490   2 
  10   5  -3 831.670 185.643   2 
   9   5  -3 361.318 111.098   2 
   9  -5  -3 276.727 119.660   1 
   8   5  -3 13170.7 652.896   2 
   8  -5  -3 12663.5 711.945   1 
   7   5  -3 3942.44 319.917   2 
   7  -5  -3 3977.28 385.190   1 
   6  -5  -3 1961.75 259.259   1 
   6   5  -3 2037.66 211.622   2 
   5   5  -3 904.163 55.2238   1 
  -5  -5   3 1261.63 134.841   2 
   5  -5  -3 1113.90 184.565   1 
   5   5  -3 849.915 56.2746   1 
   5   5  -3 1198.05 144.606   2 
   4  -5  -3 22013.4 770.070   1 
   4   5  -3 24313.1 525.816   2 
   3  -5  -3 9657.28 486.929   1 
   3   5  -3 9116.63 212.716   2 
   2  -5  -3 29822.9 830.049   1 
  -2  -5   3 30115.6 328.793   1 
   1   5  -3 10000.0 173.819   2 
   1  -5  -3 10659.7 495.433   1 
   0   5  -3 38036.6 610.522   2 
   0  -5  -3 33259.6 919.041   1 
  -1  -5  -3 522.493 116.486   1 
  -1   5  -3 525.369 90.8008   2 
  -2   5  -3 35145.0 830.928   2 
   2   5   3 34667.2 1021.23   2 
   2  -5   3 33519.8 841.044   2 
   3   5   3 17043.0 801.207   2 
   3  -5   3 15035.2 610.388   2 
   4   5   3 16204.7 799.048   2 
   4  -5   3 16798.7 735.287   2 
   5   5   3 5499.28 518.938   2 
   5  -5   3 4569.06 408.260   2 
   6  -5   3-163.571 118.142   2 
   6   5   3 28.9304 77.8349   2 
   9   6  -3 111.483 67.7033   2 
   8   6  -3 4014.87 356.138   2 
   8  -6  -3 4191.09 421.374   1 
   7  -6  -3 1923.55 280.256   1 
   7   6  -3 2030.70 236.731   2 
   6  -6  -3 22860.0 916.887   1 
   6   6  -3 25477.5 752.128   2 
   5  -6  -3 1136.80 194.377   1 
   5   6  -3 1311.86 146.181   2 
   4   6  -3 320.760 58.4185   2 
   4  -6  -3 261.520 95.7821   1 
   3  -6  -3 7669.23 462.352   1 
   3   6  -3 7967.14 217.085   2 
   2  -6  -3 1079.78 167.073   1 
  -2  -6   3 992.232 63.2626   1 
   1  -6  -3 1831.31 215.147   1 
   1   6  -3 1774.43 98.0244   2 
   0   6  -3 142.133 43.4391   2 
   0  -6  -3 107.850 63.0997   1 
  -1  -6  -3 2285.64 252.705   1 
  -1   6  -3 2043.57 163.778   2 
   2   6   3 11410.0 609.407   2 
   3   6   3 141.432 89.2592   2 
   4   6   3 13256.7 727.910   2 
   5   6   3 1245.48 251.003   2 
   6   6   3 124.780 85.0842   2 
   8  -7  -3 8895.09 641.633   1 
   7   7  -3 62.6646 71.8582   2 
   7  -7  -3-107.912 98.7951   1 
   6  -7  -3 1599.76 258.230   1 
   6   7  -3 1309.79 165.174   2 
   5  -7  -3 429.631 130.090   1 
   5   7  -3 467.567 86.6375   2 
   4  -7  -3 2529.86 284.805   1 
   4   7  -3 4210.34 268.759   2 
   3   7  -3 11337.3 284.773   2 
   3  -7  -3 10586.7 561.650   1 
   2   7  -3 40938.6 496.114   2 
   2  -7  -3 40565.3 1082.29   1 
  -2  -7   3 38342.7 504.749   1 
   1  -7  -3 1916.84 232.268   1 
   1   7  -3 1760.73 113.668   2 
  -1  -7   3 1655.93 140.746   1 
   0   7  -3 6335.81 263.461   2 
   0  -7  -3 6060.08 418.670   1 
  -1  -7  -3 10394.6 561.955   1 
  -1   7  -3 16398.7 617.071   2 
   2   7   3 30410.0 1040.73   2 
   3   7   3 99.2394 69.7000   2 
   4   7   3 60.1566 71.1190   2 
   5   7   3 1737.23 285.364   2 
   7  -8  -3 763.674 203.132   1 
   6  -8  -3 984.481 197.343   1 
   6   8  -3 1415.18 179.259   2 
   5  -8  -3-3.99296 58.4283   1 
   5   8  -3 49.0611 41.0293   2 
   4  -8  -3 14841.8 710.832   1 
   4   8  -3 14519.3 408.399   2 
   3   8  -3 1287.40 107.991   2 
   3  -8  -3 1016.82 191.183   1 
  -2  -8   3 222.068 41.2157   1 
   2  -8  -3 272.711 104.307   1 
   2   8  -3 204.452 38.7913   2 
   1  -8  -3 10940.8 572.640   1 
  -1  -8   3 10313.0 370.397   1 
   1   8  -3 10712.8 309.939   2 
   0  -8   3 14269.6 526.520   1 
   0   8  -3 14609.6 425.069   2 
   0  -8  -3 15185.7 682.559   1 
  -1  -8  -3 13210.4 657.242   1 
  -1   8  -3 13348.8 466.596   2 
   2   8   3 17944.9 832.360   2 
  -2  -8  -3 17916.8 783.889   1 
   3   8   3 4844.17 443.446   2 
   4   8   3 6430.63 548.595   2 
   5   8   3 217.214 100.789   2 
   7  -9  -3-97.7252 120.557   1 
   6  -9  -3 990.952 211.895   1 
   5  -9  -3 255.040 118.840   1 
   4  -9  -3 1731.88 263.946   1 
   3   9  -3 6999.23 265.284   2 
   3  -9  -3 6612.82 482.365   1 
   2  -9  -3 451.243 131.721   1 
   2   9  -3 391.868 62.4706   2 
  -2  -9   3 391.861 59.2841   1 
   1  -9  -3 18035.9 782.512   1 
  -1  -9   3 17570.4 508.206   1 
   0  -9   3 1557.83 172.096   1 
   0  -9  -3 1767.53 244.102   1 
   1  -9   3 7371.32 436.900   1 
  -1  -9  -3 8269.28 526.012   1 
   2   9   3 16356.3 823.152   2 
  -2  -9  -3 17472.1 787.930   1 
   3   9   3 410.212 138.694   2 
   4   9   3 1828.66 297.881   2 
   5   9   3 147.257 106.022   2 
   6 -10  -3 49.1435 105.776   1 
   5 -10  -3 13939.6 768.900   1 
   4 -10  -3 1598.52 250.868   1 
   3 -10  -3 5069.80 438.070   1 
   2 -10  -3 2.43429 79.2579   1 
   1 -10  -3 7172.61 507.809   1 
  -1 -10   3 6284.32 312.892   1 
   0 -10   3 4700.82 312.842   1 
   0 -10  -3 5281.77 432.139   1 
   1 -10   3 1649.26 209.707   1 
  -1 -10  -3 1789.12 249.862   1 
   2 -10   3 6196.41 450.633   1 
   2  10   3 6496.13 532.433   2 
  -2 -10  -3 7180.32 516.194   1 
   3  10   3 635.392 180.342   2 
   3 -10   3 510.935 150.933   1 
   4  10   3 365.772 162.088   2 
   5 -11  -3 3239.97 381.941   1 
   4 -11  -3 664.636 178.267   1 
   3 -11  -3 7519.53 542.710   1 
   2 -11  -3 11239.2 663.613   1 
   1 -11  -3 1187.31 218.739   1 
   0 -11   3 1196.20 165.088   1 
   0 -11  -3 1501.73 236.214   1 
  -1 -11  -3 1378.73 227.490   1 
   1 -11   3 1135.86 173.870   1 
  -2 -11  -3 132.508 96.2345   1 
   2 -11   3 196.806 90.6174   1 
   2  11   3 50.6010 97.5975   2 
   3 -11   3 1364.60 227.912   1 
   3  11   3 1504.41 276.879   2 
   4 -11   3 1552.92 265.740   1 
   4 -12  -3 9.53148 70.8284   1 
   3 -12  -3 168.264 84.4370   1 
   2 -12  -3 83.4211 72.6751   1 
   1 -12  -3 7827.73 548.373   1 
   0 -12  -3 651.001 154.034   1 
  -1 -12  -3 236.363 103.934   1 
   2  12   3 3862.70 434.674   2 
  -2 -12  -3 3726.57 386.095   1 
   2 -12   3 3060.50 311.087   1 
   3 -12   3 1618.21 246.571   1 
   3 -13  -3 103.382 77.3195   1 
   2 -13  -3 688.803 173.150   1 
   1 -13  -3 2467.26 313.124   1 
   0 -13  -3 3683.93 388.618   1 
  -1 -13  -3 153.398 92.1643   1 
  -2 -13  -3 20.0495 85.7766   1 
   1 -14  -3 135.720 66.4184   1 
   0 -14  -3 95.7346 89.9157   1 
  -1 -14  -3 154.753 73.7927   1 
   9   0  -4 5759.24 420.245   1 
   8   0  -4 27275.3 867.753   1 
   7   0  -4 3664.15 292.695   1 
   6   0  -4 1295.99 164.417   1 
   5   0  -4 16328.6 543.630   1 
  -5   0   4 17301.0 549.677   2 
  -4   0   4 157240. 1706.03   1 
   4   0  -4 153593. 1725.48   1 
   3   0  -4 1103.16 129.115   1 
  -3   0   4 1023.82 117.401   1 
  -2   0   4 15654.8 462.038   1 
   2   0  -4 15135.1 481.672   1 
  -1   0   4 18255.8 525.517   1 
   1   0  -4 18290.2 577.191   1 
   0   0   4 6374.13 329.024   2 
   0   0   4 6000.07 323.897   1 
   1   0   4 1869.30 200.250   2 
   2   0   4 1063.89 178.838   2 
   3   0   4 94370.1 1801.36   2 
   4   0   4 20778.4 909.845   2 
   5   0   4 12421.9 787.189   2 
   6   0   4 69.4614 103.777   2 
  10  -1  -4 3539.81 355.060   1 
   9  -1  -4 374.618 120.106   1 
   9   1  -4 359.588 114.428   1 
   8  -1  -4-53.4359 54.7277   1 
   8   1  -4 39.6877 51.3664   1 
   7  -1  -4 64.9601 73.3738   1 
   7   1  -4 127.244 62.9637   1 
   6   1  -4 903.500 126.951   1 
   6  -1  -4 917.186 152.302   1 
  -5  -1   4 147.753 53.2588   2 
   5   1  -4 124.977 42.9084   1 
   5  -1  -4 136.033 50.0657   1 
   4   1  -4 80958.3 1077.66   1 
  -4  -1   4 82592.0 1079.25   2 
   3  -1  -4 72526.0 1167.14   1 
  -3  -1   4 73991.7 973.610   1 
  -3   1   4 76478.2 1146.81   1 
   3   1  -4 73474.3 1003.14   1 
  -2  -1   4 12645.0 396.672   1 
  -2   1   4 12771.7 448.348   1 
   2   1  -4 12534.5 415.080   1 
   2  -1  -4 12228.3 465.925   1 
  -1  -1   4 535.920 81.1777   2 
   1  -1  -4 404.569 95.5269   1 
  -1  -1   4 434.360 83.5887   1 
  -1   1   4 474.315 91.0434   1 
   0  -1   4 96615.0 1305.20   2 
   0   1   4 97566.4 1450.53   2 
   0  -1   4 91704.1 1350.86   1 
   0   1   4 91950.8 1387.37   1 
   1  -1   4 18858.4 633.147   2 
   1   1   4 18507.5 678.786   2 
   2  -1   4 1175.62 172.073   2 
   2   1   4 1012.80 176.460   2 
   3   1   4 5025.34 418.297   2 
   3  -1   4 4970.08 402.112   2 
   4   1   4 4369.58 423.070   2 
   4  -1   4 4797.88 449.054   2 
   5  -1   4 248.879 134.086   2 
   5   1   4 394.975 167.368   2 
   6  -1   4 962.121 213.896   2 
   6   1   4 1146.70 259.564   2 
  10  -2  -4 4192.40 400.835   1 
   9  -2  -4 7795.45 530.232   1 
   8   2  -4 7315.43 396.680   1 
   8  -2  -4 7296.61 485.020   1 
   7  -2  -4 6880.90 449.404   1 
   7   2  -4 7056.95 356.928   1 
   6   2  -4 1513.49 151.059   1 
   6  -2  -4 1489.04 197.551   1 
   5   2  -4 12471.0 381.810   1 
   5  -2  -4 11758.4 520.626   1 
  -4   2   4 218880. 2291.25   1 
   4   2  -4 215573. 1767.07   1 
   4  -2  -4 212261. 2356.55   1 
   3  -2  -4 2411.93 216.562   1 
  -3  -2   4 2413.67 143.308   1 
  -3   2   4 2532.64 210.175   1 
   3   2  -4 2518.75 154.592   1 
   2  -2  -4 783.531 128.547   1 
  -2  -2   4 740.170 88.5970   1 
  -2   2   4 760.883 112.400   1 
  -1  -2   4 26376.4 504.246   2 
  -1   2   4 24478.2 670.851   1 
  -1  -2   4 23705.0 565.229   1 
   1  -2  -4 24865.5 729.908   1 
   0  -2   4 1410.68 145.361   2 
   0  -2  -4 1463.53 188.428   1 
   0  -2   4 1437.27 156.122   1 
   1  -2   4 1697.23 174.648   2 
   1   2   4 1756.29 210.278   2 
  -1   2  -4 1703.99 162.331   2 
   2   2   4 6001.69 429.530   2 
   2  -2   4 7141.52 457.900   2 
   3   2   4 1823.26 236.308   2 
   3  -2   4 2363.81 272.617   2 
   4   2   4 10855.1 679.893   2 
   4  -2   4 10489.5 626.987   2 
   5  -2   4 125.042 89.2791   2 
   5   2   4-4.21182 71.8726   2 
   6  -2   4 862.616 210.239   2 
   6   2   4 1650.85 363.521   2 
  10  -3  -4 97.3575 76.4797   1 
   9  -3  -4 6473.85 503.707   1 
   8  -3  -4 47.7676 66.2751   1 
   7  -3  -4 1161.98 196.948   1 
   7   3  -4 1234.53 135.384   1 
  -6  -3   4 11562.3 456.856   2 
   6   3  -4 11001.4 357.103   1 
   6  -3  -4 11011.5 567.926   1 
  -5  -3   4 700.933 103.109   2 
   5   3  -4 660.283 72.9940   1 
   5  -3  -4 454.459 104.340   1 
   4  -3  -4 19439.8 680.316   1 
   4   3  -4 18771.7 337.265   1 
   3  -3  -4 1439.25 180.092   1 
  -3  -3   4 1449.64 92.1692   1 
  -3  -3   4 1293.23 68.6045   2 
  -2  -3   4 543.119 70.0475   1 
   2  -3  -4 501.022 101.719   1 
  -1  -3   4 17147.9 470.345   1 
   1  -3  -4 16762.2 619.030   1 
  -1  -3   4 17156.6 356.311   2 
   0  -3  -4 50128.0 1168.10   1 
   0  -3   4 88371.1 1393.34   2 
  -1   3  -4 38588.2 787.926   2 
   1   3   4 37285.8 1012.90   2 
   1  -3   4 38072.4 837.036   2 
   2   3   4 4105.47 377.384   2 
   2  -3   4 3723.32 298.252   2 
   3   3   4 2484.69 294.827   2 
   3  -3   4 2685.00 289.325   2 
   4  -3   4 76.1745 86.1941   2 
   4   3   4-66.3113 126.228   2 
   5  -3   4 206.204 86.0509   2 
   5   3   4 196.495 131.221   2 
   6  -3   4 23.4927 74.8351   2 
   6   3   4 178.674 133.935   2 
   9  -4  -4 609.099 164.769   1 
   8  -4  -4 1041.74 202.512   1 
   7  -4  -4-36.1086 48.8923   1 
   6  -4  -4 1059.67 179.656   1 
   6   4  -4 921.405 82.6038   1 
  -6  -4   4 860.171 114.859   2 
  -5  -4   4 3897.21 214.254   2 
   5  -4  -4 3969.35 339.838   1 
  -4  -4   4 11951.7 281.418   2 
   4  -4  -4 11410.7 548.150   1 
   3  -4  -4 3923.20 307.493   1 
   2  -4  -4 5203.54 357.860   1 
  -2  -4   4 5332.90 200.732   1 
   1  -4  -4 478.754 116.755   1 
  -1  -4   4 386.438 43.3253   2 
   0   4  -4 14642.5 384.406   2 
   0  -4  -4 15210.7 647.874   1 
   0  -4   4 14530.3 411.728   2 
  -1   4  -4 27865.3 666.903   2 
   1   4   4 28824.6 942.466   2 
   1  -4   4 28337.6 716.606   2 
   2  -4   4 301.804 85.8937   2 
   2   4   4 630.047 159.123   2 
   3   4   4 23822.0 958.699   2 
   3  -4   4 23171.8 837.103   2 
   4   4   4 3743.78 410.884   2 
   4  -4   4 3142.40 331.182   2 
   5   4   4 6178.64 565.117   2 
   5  -4   4 5475.11 469.867   2 
   6  -4   4 3900.58 422.561   2 
   9  -5  -4 486.756 148.338   1 
   8  -5  -4 14408.5 780.758   1 
   8   5  -4 14370.7 651.633   2 
   7  -5  -4 2714.95 321.518   1 
   7   5  -4 2866.50 262.974   2 
   6  -5  -4 11805.5 641.299   1 
  -5  -5   4 1743.10 135.140   2 
   5  -5  -4 1538.78 215.561   1 
   4  -5  -4 3313.64 307.463   1 
   3  -5  -4-0.26470 41.2186   1 
  -2  -5   4 130.899 28.7231   1 
   2  -5  -4 124.581 76.9647   1 
   1  -5  -4 1664.12 213.635   1 
   0   5  -4 6496.45 253.696   2 
   0  -5  -4 5992.65 419.155   1 
  -1   5  -4 3448.52 228.908   2 
   1   5   4 3950.12 358.326   2 
  -1  -5  -4 3257.01 322.783   1 
   1  -5   4 3433.56 238.501   2 
   2   5   4 4006.62 386.696   2 
   2  -5   4 3823.74 288.427   2 
   3  -5   4 147.112 92.3833   2 
   3   5   4 67.4045 75.6218   2 
   4   5   4 7394.33 563.626   2 
   4  -5   4 7482.71 508.565   2 
   5  -5   4 436.415 128.573   2 
   5   5   4 647.075 201.386   2 
   6  -5   4 37.3033 80.8946   2 
   8  -6  -4 88.0855 112.449   1 
   7  -6  -4 5047.26 452.949   1 
   7   6  -4 4913.17 323.764   2 
   6  -6  -4 175.619 92.1671   1 
   6   6  -4 123.844 47.7749   2 
   5  -6  -4 13274.6 664.272   1 
   4  -6  -4 4241.69 359.803   1 
   3  -6  -4 1101.69 179.664   1 
   2  -6  -4 23799.4 831.165   1 
  -2  -6   4 24084.5 414.117   1 
   1  -6  -4 36117.7 1049.86   1 
   0   6  -4 1708.62 129.586   2 
   0  -6  -4 1861.51 239.264   1 
  -1   6  -4 6133.05 292.843   2 
  -1  -6  -4 6123.28 457.503   1 
   2   6   4 22727.2 937.986   2 
   3   6   4 33743.1 1228.10   2 
   3  -6   4 30742.3 961.735   2 
   4  -6   4 37.0645 67.2474   2 
   4   6   4-67.6050 114.517   2 
   5   6   4 90.6674 88.5205   2 
   5  -6   4 78.7321 84.3114   2 
   6  -6   4 712.051 183.682   2 
   8  -7  -4 1005.06 210.958   1 
   7  -7  -4 727.411 172.875   1 
   6  -7  -4 101.636 83.1212   1 
   5  -7  -4 4626.53 410.764   1 
   4  -7  -4 926.138 181.347   1 
   3  -7  -4 1432.70 218.196   1 
  -2  -7   4 131.207 29.6749   1 
   2  -7  -4 72.3859 46.7616   1 
   1  -7  -4 25801.6 903.789   1 
   1   7  -4 24013.1 305.324   2 
   0   7  -4 3437.06 180.811   2 
   0  -7  -4 3509.75 341.456   1 
  -1  -7  -4 1307.12 220.254   1 
   2   7   4 1858.67 271.482   2 
   3   7   4 924.288 214.851   2 
   4   7   4 2799.31 363.665   2 
   7  -8  -4 340.650 144.969   1 
   6  -8  -4 15187.8 793.539   1 
   5  -8  -4 14477.4 748.656   1 
   4  -8  -4 391.921 129.107   1 
   3  -8  -4 3774.81 366.564   1 
   2  -8  -4 2029.73 266.534   1 
  -2  -8   4 1637.36 109.560   1 
   1  -8  -4 13858.3 694.237   1 
  -1  -8   4 13286.3 446.238   1 
   0  -8  -4 3606.25 358.704   1 
  -1  -8  -4 9267.94 589.956   1 
   2   8   4 9042.45 612.474   2 
   3   8   4 6319.24 542.692   2 
   4   8   4 2910.18 381.547   2 
   7  -9  -4 480.197 167.261   1 
   6  -9  -4-79.5467 87.7853   1 
   5  -9  -4 3381.36 382.531   1 
   4  -9  -4-41.4537 71.9077   1 
   3  -9  -4 5937.33 477.007   1 
   2  -9  -4 35283.7 1155.46   1 
   1  -9  -4 8036.91 544.102   1 
  -1  -9   4 7248.66 324.843   1 
   0  -9   4 10108.3 467.992   1 
   0  -9  -4 11196.3 652.811   1 
  -1  -9  -4 15832.3 796.760   1 
   2   9   4 6155.25 525.562   2 
   3   9   4 1171.91 250.643   2 
   6 -10  -4 4169.90 440.380   1 
   5 -10  -4 921.270 208.850   1 
   4 -10  -4 4474.03 434.087   1 
   3 -10  -4 76.2234 52.8285   1 
   2 -10  -4 1760.27 269.764   1 
   1 -10  -4 12167.1 684.942   1 
   0 -10  -4 2845.59 332.477   1 
   0 -10   4 2466.85 233.832   1 
   1 -10   4 1889.23 234.878   1 
  -1 -10  -4 1844.18 286.475   1 
   2  10   4 1172.71 243.355   2 
   3  10   4 2636.83 363.608   2 
   5 -11  -4 328.905 138.935   1 
   4 -11  -4 234.008 103.700   1 
   3 -11  -4 308.908 156.450   1 
   2 -11  -4 2118.95 297.972   1 
   1 -11  -4 42.9619 84.7576   1 
   0 -11  -4 6659.39 530.702   1 
  -1 -11  -4 2164.17 313.204   1 
   2 -11   4 6547.69 480.485   1 
   2  11   4 7651.08 611.271   2 
   3 -11   4 1983.61 274.286   1 
   4 -12  -4-16.1443 73.6569   1 
   3 -12  -4 9132.68 643.953   1 
   2 -12  -4 1791.20 284.190   1 
   1 -12  -4 1612.84 267.250   1 
   0 -12  -4 691.316 175.727   1 
  -1 -12  -4 805.929 191.930   1 
   1 -13  -4 272.563 114.043   1 
   0 -13  -4 1065.93 222.695   1 
   9   0  -5-87.1681 87.2782   1 
   8   0  -5-13.4329 59.6207   1 
   7   0  -5-59.4246 71.5631   1 
   6   0  -5 56.9782 40.3118   1 
   5   0  -5-13.5575 33.0527   1 
  -5   0   5 58.1878 50.1372   2 
   4   0  -5 983.708 130.291   1 
  -4   0   5-33.7959 46.5066   1 
   3   0  -5-4.37057 42.8493   1 
  -3   0   5-48.1632 49.3007   1 
  -2   0   5-33.2780 38.3021   1 
   2   0  -5-19.3918 44.1273   1 
  -1   0   5-50.4591 50.0118   2 
   0   0   5-6.75637 50.6038   2 
   1   0   5-42.7104 61.7251   2 
   2   0   5 46.6872 64.1305   2 
   3   0   5 68.8231 68.0017   2 
   4   0   5 0.28092 71.7920   2 
   5   0   5-88.1380 100.584   2 
   9  -1  -5 563.335 127.681   1 
   8   1  -5 569.016 116.891   1 
   8  -1  -5 539.789 132.025   1 
   7  -1  -5 329.079 81.7337   1 
   7   1  -5 193.471 56.6062   1 
   6   1  -5 8045.66 375.950   1 
   6  -1  -5 8079.21 442.201   1 
   5   1  -5 2134.61 188.700   1 
   5  -1  -5 1951.16 207.839   1 
  -5  -1   5 1950.61 171.005   2 
  -4  -1   5 336.507 68.7132   1 
   4   1  -5 330.594 71.2442   1 
   4  -1  -5 300.870 91.1427   1 
  -3  -1   5 27695.6 634.094   1 
  -3   1   5 27733.5 712.310   1 
   3   1  -5 27372.3 682.503   1 
   3  -1  -5 27882.7 776.899   1 
  -2  -1   5 25346.5 636.614   1 
   2  -1  -5 26526.8 779.396   1 
  -1  -1   5 447.055 87.4716   2 
  -1  -1   5 513.925 100.067   1 
   1  -1  -5 304.986 75.7776   1 
   0  -1   5 8257.62 396.099   2 
   0   1   5 8194.91 439.902   2 
   1  -1   5 30392.1 907.543   2 
   1   1   5 30772.8 968.478   2 
   2  -1   5 37895.7 1075.58   2 
   2   1   5 37478.9 1089.75   2 
   3   1   5 77844.3 1809.81   2 
   3  -1   5 74983.2 1698.00   2 
   4   1   5 2446.94 319.094   2 
   4  -1   5 3012.22 379.411   2 
   5  -1   5 530.089 164.283   2 
   5   1   5 952.622 263.881   2 
  10  -2  -5 298.188 127.949   1 
   9  -2  -5 1594.21 243.794   1 
   8  -2  -5 1290.00 204.250   1 
   7   2  -5 224.328 60.9320   1 
   7  -2  -5 86.8142 67.9908   1 
   6   2  -5 4454.81 250.314   1 
   6  -2  -5 4962.37 368.195   1 
   5   2  -5 3802.99 220.235   1 
   5  -2  -5 3619.85 300.603   1 
  -5  -2   5 3777.83 224.193   2 
   4  -2  -5 20361.2 702.536   1 
  -4  -2   5 20108.9 455.956   2 
   4   2  -5 20402.3 507.176   1 
  -4  -2   5 18784.2 452.922   1 
  -3  -2   5 12.9613 25.5211   1 
   3  -2  -5 104.473 63.1782   1 
  -2  -2   5 35933.2 734.881   1 
   2  -2  -5 37211.8 968.750   1 
  -1  -2   5 2250.19 169.181   2 
   1  -2  -5 2241.83 245.761   1 
  -1  -2   5 2037.91 184.518   1 
   0  -2   5 9572.39 428.856   2 
   0   2   5 9327.20 493.680   2 
   1  -2   5 4449.57 316.241   2 
   1   2   5 4542.02 373.474   2 
   2   2   5 2640.55 304.813   2 
   2  -2   5 3427.56 348.957   2 
   3  -2   5-42.4343 64.5895   2 
   3   2   5 84.9113 103.092   2 
   4  -2   5 88.3506 86.3403   2 
   4   2   5 24.0886 112.910   2 
   5   2   5 4104.15 442.414   2 
   5  -2   5 4663.60 461.007   2 
  10  -3  -5 689.807 172.992   1 
   9  -3  -5-54.6075 112.479   1 
   8  -3  -5 18.1040 65.6073   1 
   7  -3  -5-28.8125 99.7536   1 
  -6  -3   5 7098.68 331.262   2 
   6   3  -5 6724.04 258.593   1 
   6  -3  -5 6874.26 454.956   1 
   5  -3  -5 3734.05 322.457   1 
   5   3  -5 3750.23 176.856   1 
  -5  -3   5 3605.39 190.923   2 
  -4  -3   5 75625.5 885.352   1 
   4  -3  -5 76886.3 1484.98   1 
   3  -3  -5 5204.96 369.311   1 
  -3  -3   5 5343.05 159.842   2 
  -3  -3   5 5027.81 224.945   1 
  -3  -3   5 4871.40 147.205   2 
  -2  -3   5 13689.0 419.258   1 
  -2  -3   5 14461.1 309.921   2 
   2  -3  -5 13897.9 615.003   1 
  -1  -3   5 458.018 72.0197   2 
   1  -3  -5 443.737 118.844   1 
  -1  -3   5 503.984 95.8743   1 
   0  -3   5 33445.5 760.316   2 
   1   3   5 14123.5 679.158   2 
   1  -3   5 21550.3 890.245   2 
   2   3   5 9239.16 591.962   2 
   2  -3   5 8401.31 479.944   2 
   3   3   5 2315.35 304.697   2 
   3  -3   5 2578.84 292.646   2 
   4   3   5 2473.44 354.191   2 
   4  -3   5 2221.62 309.656   2 
   5   3   5 8036.70 641.274   2 
   5  -3   5 7797.98 597.710   2 
   9  -4  -5 941.422 201.755   1 
   8  -4  -5 397.992 129.382   1 
   7  -4  -5 2183.64 276.163   1 
   6  -4  -5 11900.2 624.223   1 
  -5  -4   5 28573.9 497.728   2 
   5  -4  -5 28380.1 937.880   1 
   4  -4  -5 4493.91 360.217   1 
   3  -4  -5 2151.40 248.266   1 
  -3  -4   5 2239.55 130.250   1 
  -2  -4   5 14288.2 415.667   1 
   2  -4  -5 15225.9 663.415   1 
  -1  -4   5 481.232 82.0338   1 
   1  -4  -5 617.327 130.058   1 
  -1  -4   5 593.620 70.6681   2 
   0  -4  -5 3442.67 341.871   1 
   0  -4   5 3239.25 216.551   2 
   1   4   5 21184.3 849.670   2 
  -1   4  -5 21596.4 606.640   2 
   1  -4   5 20928.2 657.024   2 
   2   4   5 13479.7 745.233   2 
   2  -4   5 12909.5 588.651   2 
   3   4   5 1556.21 251.697   2 
   3  -4   5 1912.79 253.920   2 
   4  -4   5 332.484 129.050   2 
   4   4   5 419.717 163.558   2 
   5  -4   5 6537.00 524.701   2 
   9  -5  -5 339.257 141.340   1 
   8  -5  -5 1142.27 221.566   1 
   7  -5  -5 2103.61 282.513   1 
   6  -5  -5 2071.53 269.131   1 
   5  -5  -5 55.9838 65.0778   1 
   4  -5  -5 16227.5 721.589   1 
  -3  -5   5 737.209 60.4518   1 
   3  -5  -5 827.607 166.915   1 
  -2  -5   5 5593.17 244.525   1 
   2  -5  -5 5953.69 437.221   1 
  -1  -5   5 52.7719 30.3306   1 
   1  -5  -5-58.7338 82.1346   1 
   0  -5  -5 17114.3 774.649   1 
   0  -5   5 15531.8 444.864   2 
  -1   5  -5 1273.43 138.816   2 
   1   5   5 1019.12 189.481   2 
   1  -5   5 1137.66 144.823   2 
   2  -5   5 506.891 114.344   2 
   2   5   5 669.149 189.122   2 
   3   5   5 1527.57 253.592   2 
   3  -5   5 1351.17 208.390   2 
   4  -5   5-53.3332 80.7258   2 
   4   5   5 140.337 95.3322   2 
   5  -5   5 7324.65 550.161   2 
   8  -6  -5 9526.62 648.833   1 
   7  -6  -5 327.694 120.475   1 
   6  -6  -5 248.021 114.731   1 
   5  -6  -5 246.747 104.241   1 
   4  -6  -5 764.202 163.270   1 
   3  -6  -5 3414.80 339.891   1 
  -2  -6   5 513.829 70.3495   1 
   2  -6  -5 549.790 139.995   1 
   1  -6  -5 449.466 131.522   1 
   0  -6  -5 6798.84 503.797   1 
   1   6   5 2474.12 323.384   2 
   2   6   5 18323.5 892.711   2 
   2  -6   5 16919.2 644.403   2 
   3  -6   5 398.408 118.179   2 
   3   6   5 581.514 179.096   2 
   4  -6   5-153.514 117.000   2 
   4   6   5-66.7365 100.080   2 
   5  -6   5-64.2779 73.7317   2 
   8  -7  -5 67.5583 63.5434   1 
   7  -7  -5 80.2799 56.3960   1 
   6  -7  -5 272.691 120.792   1 
   5  -7  -5 7108.52 523.783   1 
   4  -7  -5 11007.5 637.864   1 
   3  -7  -5 527.054 152.074   1 
   2  -7  -5 10015.2 603.253   1 
   1  -7  -5 19676.1 849.189   1 
   0  -7  -5 14094.2 745.373   1 
   1   7   5-151.006 120.939   2 
  -1  -7  -5-14.7822 82.9356   1 
   2   7   5 340.498 141.996   2 
   3   7   5 2723.68 377.797   2 
   7  -8  -5 384.100 153.245   1 
   6  -8  -5 6749.10 533.308   1 
   5  -8  -5 1016.93 200.053   1 
   4  -8  -5 1971.25 282.847   1 
   3  -8  -5 9607.48 608.474   1 
   2  -8  -5 2216.71 294.299   1 
   1  -8  -5 5013.25 443.427   1 
   0  -8  -5 7149.75 543.964   1 
   1   8   5 3167.74 383.552   2 
  -1  -8  -5 2711.30 346.771   1 
   2   8   5 7420.89 593.527   2 
   3   8   5-104.750 91.4917   2 
   6  -9  -5 75.8026 71.2308   1 
   5  -9  -5 3386.21 378.799   1 
   4  -9  -5 554.833 157.670   1 
   3  -9  -5 6895.61 537.074   1 
   2  -9  -5 474.881 139.076   1 
   1  -9  -5 1935.40 288.673   1 
   0  -9  -5 10993.6 689.847   1 
  -1  -9  -5 1033.56 212.369   1 
   1   9   5 1262.24 257.075   2 
   2   9   5 84.1634 94.6770   2 
   5 -10  -5-12.2010 58.6556   1 
   4 -10  -5 1286.48 244.328   1 
   3 -10  -5 1261.41 237.526   1 
   2 -10  -5 4020.69 414.276   1 
   1 -10  -5 462.324 159.770   1 
   0 -10  -5 12970.3 772.022   1 
   1  10   5 1790.25 311.302   2 
  -1 -10  -5 2282.94 328.211   1 
   4 -11  -5 3947.48 436.832   1 
   3 -11  -5 1447.73 259.201   1 
   2 -11  -5 64.6014 52.9148   1 
   1 -11  -5 376.315 120.634   1 
   0 -11  -5 72.2201 98.5197   1 
  -1 -11  -5 785.381 203.175   1 
   8   0  -6 724.140 136.176   1 
   7   0  -6 3596.84 290.365   1 
   6   0  -6 11237.2 501.598   1 
   5   0  -6 8130.80 417.525   1 
   4   0  -6 7873.32 416.009   1 
   3   0  -6 4714.89 340.293   1 
  -1   0   6 4074.89 300.984   2 
   0   0   6 626.762 133.850   2 
   1   0   6 35418.4 1026.34   2 
   2   0   6 6523.64 498.637   2 
   3   0   6 6775.20 508.606   2 
   4   0   6 155.772 118.712   2 
   9  -1  -6 1128.21 183.061   1 
   8  -1  -6 1632.14 221.569   1 
   7   1  -6 149.093 66.9964   1 
   7  -1  -6 181.406 83.4836   1 
   6   1  -6 3835.20 271.896   1 
   6  -1  -6 4246.17 335.476   1 
   5  -1  -6 12998.4 569.606   1 
  -5  -1   6 12949.6 455.540   1 
  -5  -1   6 13244.7 447.785   2 
   5   1  -6 12904.1 493.064   1 
  -4  -1   6 714.286 110.118   1 
   4  -1  -6 760.175 132.811   1 
   4   1  -6 723.051 121.149   1 
   3  -1  -6 335.350 97.9989   1 
   3   1  -6 323.037 83.2720   1 
  -2  -1   6 22667.1 626.622   2 
   2  -1  -6 21610.8 789.144   1 
  -1  -1   6 6000.11 360.566   2 
  -1   1   6 6193.13 400.417   2 
   0  -1   6 989.766 157.219   2 
   0   1   6 843.113 162.132   2 
   1  -1   6 4696.21 381.291   2 
   1   1   6 4716.99 389.507   2 
   2  -1   6 2771.36 307.396   2 
   2   1   6 2699.29 331.431   2 
   3   1   6 2547.42 340.680   2 
   3  -1   6 2362.47 310.834   2 
   4  -1   6-6.85161 86.2542   2 
   4   1   6 137.619 104.378   2 
   9  -2  -6 125.867 77.7703   1 
   8  -2  -6 1077.76 189.792   1 
   7  -2  -6 3568.76 329.732   1 
   6  -2  -6 56747.9 1299.14   1 
   6   2  -6 56180.1 953.641   1 
   5  -2  -6 4285.11 345.000   1 
  -5  -2   6 4301.84 240.253   1 
   5   2  -6 4157.10 249.408   1 
  -5  -2   6 4730.59 247.976   2 
  -4  -2   6 876.705 111.226   1 
   4   2  -6 809.768 120.441   1 
   4  -2  -6 801.711 151.941   1 
  -4  -2   6 807.030 94.0022   2 
  -3  -2   6 5086.68 282.411   1 
   3  -2  -6 5682.82 399.036   1 
  -2  -2   6 800.711 106.371   2 
   2  -2  -6 804.687 161.609   1 
  -1  -2   6 57.8818 36.8104   2 
   0  -2   6 16.0033 39.2688   2 
   0   2   6-96.1334 71.0179   2 
   1  -2   6 2861.24 272.368   2 
   1   2   6 3617.67 373.717   2 
   2   2   6 20994.5 903.748   2 
   2  -2   6 25987.6 1014.86   2 
   3  -2   6 68.8483 62.5883   2 
   3   2   6-71.1140 83.4021   2 
   4  -2   6 465.154 144.953   2 
   4   2   6 604.073 187.521   2 
  10  -3  -6 365.473 132.350   1 
   9  -3  -6 1613.14 243.038   1 
   8  -3  -6 244.120 93.9965   1 
   7  -3  -6 485.244 131.561   1 
   6  -3  -6 18766.0 775.524   1 
   5  -3  -6 342.929 115.129   1 
   4  -3  -6 3298.44 311.486   1 
  -4  -3   6 3143.44 189.783   1 
  -4  -3   6 3041.31 145.241   2 
  -3  -3   6 66.5138 27.9879   1 
  -3  -3   6 109.611 30.8269   2 
   3  -3  -6 113.753 67.6210   1 
  -2  -3   6 7342.35 278.743   2 
   2  -3  -6 6950.42 472.999   1 
  -1  -3   6 1882.41 163.479   2 
   1  -3  -6 1945.73 266.174   1 
   0  -3   6 21.0061 43.4506   2 
   0   3   6-49.0120 71.6894   2 
   1   3   6 6386.35 493.655   2 
   1  -3   6 10799.7 681.129   2 
   2   3   6 2804.25 339.515   2 
   2  -3   6 2389.53 275.777   2 
   3  -3   6 983.543 198.679   2 
   3   3   6 1021.16 210.723   2 
   4  -3   6 1293.26 240.180   2 
   4   3   6 1300.01 269.592   2 
   9  -4  -6 10.2151 55.2444   1 
   8  -4  -6 2882.41 330.944   1 
   7  -4  -6 33.3500 75.0992   1 
   6  -4  -6 13024.0 666.267   1 
   5  -4  -6 186.806 100.571   1 
   4  -4  -6 1221.20 201.788   1 
  -3  -4   6 218.366 48.1319   1 
   3  -4  -6 331.741 116.825   1 
  -2  -4   6 2549.34 194.881   1 
   2  -4  -6 2580.62 294.731   1 
  -2  -4   6 2260.96 107.315   2 
   1  -4  -6 25933.8 986.886   1 
  -1  -4   6 26449.2 561.633   2 
   0  -4   6 134.173 50.0593   2 
   0   4   6 69.8290 58.6883   2 
   1   4   6 7708.98 555.540   2 
   1  -4   6 7330.17 406.773   2 
   2  -4   6 133.848 99.5783   2 
   2   4   6-96.4877 133.985   2 
   3  -4   6 472.246 141.671   2 
   3   4   6 883.896 209.970   2 
   4  -4   6 1516.62 250.566   2 
   9  -5  -6 84.4469 95.0423   1 
   8  -5  -6 2593.15 326.432   1 
   7  -5  -6 746.796 167.869   1 
   6  -5  -6 386.554 131.114   1 
   5  -5  -6 381.824 123.734   1 
   4  -5  -6 1449.00 229.994   1 
   3  -5  -6 11454.8 642.825   1 
   2  -5  -6 12099.7 664.394   1 
   1  -5  -6 367.171 140.675   1 
   0   5   6 1911.66 276.816   2 
   0  -5  -6 1739.03 269.607   1 
   0  -5   6 1550.98 148.569   2 
   1  -5   6 550.936 112.274   2 
   1   5   6 772.640 194.070   2 
   2   5   6 8096.04 626.846   2 
   2  -5   6 6312.74 410.751   2 
   3  -5   6 206.756 64.4254   2 
   3   5   6 243.490 123.627   2 
   4  -5   6 714.489 150.579   2 
   8  -6  -6 1546.49 260.043   1 
   7  -6  -6 5422.09 480.146   1 
   6  -6  -6 558.385 148.043   1 
   5  -6  -6-18.3335 87.6814   1 
   4  -6  -6 4236.16 404.094   1 
   3  -6  -6 17582.7 819.185   1 
   2  -6  -6-120.628 90.1095   1 
   1  -6  -6 611.892 170.386   1 
   0  -6  -6 11686.7 708.238   1 
   1   6   6 26646.1 1078.40   2 
   2   6   6 788.025 205.980   2 
   3   6   6 758.629 205.594   2 
   7  -7  -6 2453.28 336.074   1 
   6  -7  -6 1000.03 206.683   1 
   5  -7  -6 67.6307 68.8580   1 
   4  -7  -6 1461.21 243.719   1 
   3  -7  -6 4558.22 425.774   1 
   2  -7  -6 144.583 94.2700   1 
   1  -7  -6 1802.17 277.821   1 
   0  -7  -6 4360.92 440.879   1 
   1   7   6-13.2149 78.2841   2 
   2   7   6 339.766 168.549   2 
   7  -8  -6 7759.21 599.663   1 
   6  -8  -6 1187.87 228.261   1 
   5  -8  -6 614.087 173.404   1 
   4  -8  -6 9719.32 647.270   1 
   3  -8  -6 6837.19 536.956   1 
   2  -8  -6 30.2214 77.8791   1 
   1  -8  -6 121.105 76.3688   1 
   0  -8  -6 1343.98 255.263   1 
   1   8   6 320.013 118.403   2 
   5  -9  -6 3283.94 391.912   1 
   4  -9  -6 9821.57 670.968   1 
   3  -9  -6 5568.13 494.334   1 
   2  -9  -6 4298.84 448.951   1 
   1  -9  -6 13109.8 779.390   1 
   0  -9  -6 11544.7 753.908   1 
   4 -10  -6 1449.14 266.845   1 
   3 -10  -6 1105.04 229.499   1 
   2 -10  -6 2101.49 318.050   1 
   1 -10  -6-81.7519 102.853   1 
   7   0  -7 29.5359 50.2538   1 
   6   0  -7 65.0695 38.0553   1 
   5   0  -7 55.5686 47.2312   1 
   4   0  -7 40.9974 81.8989   1 
  -2   0   7-80.0255 79.0068   2 
  -1   0   7-61.9135 72.1275   2 
   0   0   7 72.8041 72.2264   2 
   1   0   7 57.2607 93.0969   2 
   2   0   7-115.177 109.813   2 
   3   0   7 80.7107 91.8218   2 
   8  -1  -7 444.398 119.761   1 
   7  -1  -7 389.986 114.260   1 
   6   1  -7 197.493 54.1945   1 
   6  -1  -7 233.126 95.3204   1 
   5   1  -7 3297.73 271.083   1 
   5  -1  -7 3329.28 303.866   1 
   4   1  -7 16079.0 622.394   1 
   4  -1  -7 15734.3 680.470   1 
   3  -1  -7 1135.35 199.775   1 
  -2  -1   7 5633.20 337.296   2 
  -1  -1   7 6483.61 392.353   2 
  -1   1   7 5975.24 420.427   2 
   0  -1   7 22360.9 796.732   2 
   0   1   7 26175.1 958.395   2 
   1  -1   7 39775.0 1173.01   2 
   1   1   7 35434.5 1146.24   2 
   2  -1   7 1279.18 217.202   2 
   2   1   7 1363.46 247.991   2 
   3   1   7 1961.00 298.572   2 
   3  -1   7 2871.20 434.123   2 
   8  -2  -7 266.130 102.393   1 
   7  -2  -7 407.356 128.869   1 
   6  -2  -7 68.7030 87.4757   1 
   5   2  -7 2948.57 236.228   1 
   5  -2  -7 2942.92 299.842   1 
   4  -2  -7 5877.58 429.714   1 
   3  -2  -7 607.777 150.305   1 
  -3  -2   7 675.432 98.5394   2 
  -2  -2   7 949.558 128.617   2 
   2  -2  -7 951.729 188.278   1 
  -1  -2   7 14840.0 557.670   2 
  -1   2   7 14729.0 683.385   2 
   0  -2   7 355.792 91.0049   2 
   0   2   7 376.768 131.820   2 
   1  -2   7 3473.40 314.092   2 
   1   2   7 4189.35 412.106   2 
   2  -2   7 215.829 141.355   2 
   2   2   7 108.655 89.3280   2 
   3   2   7 7409.24 624.692   2 
   3  -2   7 7069.90 532.050   2 
   4  -2   7 245.069 132.098   2 
   9  -3  -7 352.057 121.993   1 
   8  -3  -7 6881.00 497.505   1 
   7  -3  -7 247.097 117.129   1 
   6  -3  -7 20479.2 838.442   1 
   5  -3  -7 2888.59 312.254   1 
   4  -3  -7 2968.23 322.132   1 
   3  -3  -7 298.256 88.3242   1 
   2  -3  -7 10436.2 634.261   1 
  -1  -3   7 6887.73 336.749   2 
  -1   3   7 7723.31 519.724   2 
   0   3   7 11581.0 673.557   2 
   0  -3   7 14348.1 631.785   2 
   1   3   7 7741.65 589.547   2 
   1  -3   7 8470.15 520.109   2 
   2  -3   7 566.538 156.533   2 
   2   3   7 510.057 154.482   2 
   3   3   7 6094.90 577.944   2 
   3  -3   7 5827.88 474.437   2 
   9  -4  -7-39.8805 62.4232   1 
   8  -4  -7 1405.83 235.842   1 
   7  -4  -7 11793.3 676.238   1 
   6  -4  -7 6611.04 494.930   1 
   5  -4  -7 101.830 63.8338   1 
   4  -4  -7 6059.93 472.018   1 
   3  -4  -7-59.4458 83.6795   1 
   2  -4  -7 4116.00 403.352   1 
   0   4   7 2299.70 301.731   2 
   1   4   7 1886.49 302.874   2 
   2   4   7 376.322 130.264   2 
   8  -5  -7 209.519 109.471   1 
   7  -5  -7 3712.77 395.949   1 
   6  -5  -7 10468.4 648.024   1 
   5  -5  -7-78.7384 78.6042   1 
   4  -5  -7 843.440 188.482   1 
   3  -5  -7 1442.29 245.405   1 
   2  -5  -7 4995.06 463.846   1 
   1  -5  -7 275.090 114.026   1 
   0   5   7 2198.49 308.332   2 
   1   5   7 193.725 128.052   2 
   2   5   7 55.9941 77.6587   2 
   8  -6  -7 1000.25 224.508   1 
   7  -6  -7 483.205 160.579   1 
   6  -6  -7 23.8152 67.8221   1 
   5  -6  -7 834.235 188.327   1 
   4  -6  -7 2604.54 337.127   1 
   3  -6  -7 3886.02 406.830   1 
   2  -6  -7 2502.60 340.233   1 
   1  -6  -7 1386.40 254.878   1 
   0   6   7 5623.41 512.861   2 
   1   6   7-29.8833 59.2492   2 
   7  -7  -7 2922.57 369.334   1 
   6  -7  -7 1746.15 284.288   1 
   5  -7  -7 349.274 141.601   1 
   4  -7  -7 3631.03 400.253   1 
   3  -7  -7 10121.3 672.071   1 
   2  -7  -7 6951.63 569.655   1 
   1  -7  -7 573.776 178.276   1 
   0   7   7 1161.70 251.777   2 
   1   7   7 1217.28 248.115   2 
   5  -8  -7 4763.92 476.270   1 
   4  -8  -7 9.65028 63.8570   1 
   3  -8  -7-4.00363 77.7508   1 
   2  -8  -7 2546.23 349.565   1 
   1  -8  -7 519.883 178.418   1 
   0   8   7 4840.52 501.226   2 
   3  -9  -7 42.6373 84.6326   1 
   6   0  -8-37.9270 36.0969   1 
   5   0  -8 1150.13 186.878   1 
  -3   0   8 7898.80 445.527   2 
  -2   0   8 380.283 105.176   2 
  -1   0   8 1440.98 212.665   2 
   0   0   8 2373.88 279.899   2 
   1   0   8 72.2043 83.9551   2 
   2   0   8 359.878 116.821   2 
   7  -1  -8 183.581 77.2525   1 
   6  -1  -8 2232.45 264.370   1 
   5  -1  -8-74.7475 78.5263   1 
   5   1  -8 34.0685 37.0428   1 
   4  -1  -8-9.00095 63.4557   1 
  -2  -1   8 692.369 128.445   2 
  -2   1   8 594.287 135.394   2 
  -1  -1   8 2810.86 267.643   2 
  -1   1   8 3037.28 331.340   2 
   0  -1   8 75.6369 74.9985   2 
   0   1   8-34.2464 58.4717   2 
   1  -1   8 3698.73 361.595   2 
   1   1   8 3397.27 380.741   2 
   2  -1   8 237.730 114.968   2 
   2   1   8 360.085 150.347   2 
   7  -2  -8 3415.48 342.960   1 
   6  -2  -8 193.756 95.8427   1 
   5  -2  -8 8.36962 50.4625   1 
   4  -2  -8 421.412 135.851   1 
   3  -2  -8 226.466 97.2392   1 
  -2   2   8-198.558 104.690   2 
  -1   2   8 6227.65 471.254   2 
   0   2   8 10274.9 659.431   2 
   1   2   8 667.225 164.362   2 
   2   2   8 210.955 119.910   2 
   8  -3  -8 5482.27 453.248   1 
   7  -3  -8 2428.45 295.206   1 
   6  -3  -8 1560.36 238.469   1 
   5  -3  -8-1.12984 51.6475   1 
   4  -3  -8 3036.24 343.556   1 
   3  -3  -8 185.007 105.893   1 
  -1   3   8 2188.02 292.030   2 
   0   3   8 12306.7 740.364   2 
   1   3   8 856.142 191.931   2 
   9  -4  -8 51.1623 117.076   1 
   8  -4  -8 8204.99 571.641   1 
   7  -4  -8 104.216 78.2015   1 
   6  -4  -8 41.2697 72.6599   1 
   5  -4  -8 2932.28 344.085   1 
   4  -4  -8-68.2157 91.3144   1 
   3  -4  -8 3555.15 393.349   1 
   2  -4  -8 1570.16 271.144   1 
  -1   4   8 1816.43 271.216   2 
   0   4   8 241.918 127.654   2 
   1   4   8 79.9371 100.127   2 
   8  -5  -8 2223.94 314.304   1 
   7  -5  -8 22.3376 82.3210   1 
   6  -5  -8 1780.47 285.050   1 
   5  -5  -8 5486.30 484.848   1 
   4  -5  -8 4170.12 423.092   1 
   3  -5  -8 5573.63 511.655   1 
   2  -5  -8 2172.51 329.011   1 
  -1   5   8 4850.08 474.046   2 
   0   5   8 1584.63 269.251   2 
   7  -6  -8-27.6248 110.965   1 
   6  -6  -8 2374.57 328.410   1 
   5  -6  -8 3657.93 405.420   1 
   4  -6  -8 333.988 146.598   1 
   3  -6  -8 278.315 144.003   1 
   2  -6  -8 113.864 128.134   1 
  -1   6   8 9578.03 676.160   2 
   0   6   8 602.899 172.311   2 
   5  -7  -8 1911.91 307.504   1 
   4  -7  -8 677.893 192.335   1 
   3  -7  -8 89.0627 66.0998   1 
   5  -1  -9 1110.51 206.359   1 
   6  -2  -9 712.727 160.782   1 
   5  -2  -9 53.7281 64.9460   1 
   4  -2  -9 3202.11 363.737   1 
  -3   2   9 11167.0 615.369   2 
  -2   2   9 261.692 116.140   2 
  -1   2   9 2627.66 334.178   2 
   0   2   9 1.66542 66.2818   2 
   7  -3  -9 409.294 134.103   1 
   6  -3  -9 1407.38 230.406   1 
   5  -3  -9 329.555 151.498   1 
   4  -3  -9 144.425 105.923   1 
  -2   3   9 6796.32 512.218   2 
  -1   3   9 9063.83 616.586   2 
   0   3   9 152.779 111.080   2 
   7  -4  -9-81.9915 87.2798   1 
   6  -4  -9 2241.09 309.678   1 
   5  -4  -9 18.3919 80.6013   1 
   4  -4  -9 1860.00 295.261   1 
   3  -4  -9 31.1575 61.7399   1 
  -2   4   9 230.260 125.255   2 
  -1   4   9 118.687 116.610   2 
   6  -5  -9 286.168 95.1596   1 
   5  -5  -9 3099.85 376.915   1 
   4  -5  -9 2757.22 373.420   1 
  -2   5   9 1510.11 263.291   2 
   6  -3 -10 995.565 219.533   1 
   0   0   0    0.00    0.00   0 
TITL MF1502 in P2(1)/c 
REM P2(1)/c (#14 in standard setting) 
CELL 0.71073   8.011991  11.490992   7.789863  90.0000 113.4182  90.0000 
ZERR    4.00   0.000543   0.000572   0.000525   0.0000   0.0083   0.0000 
LATT  1 
SYMM -x, y+1/2,-z+1/2 
SFAC C H N O 
UNIT 20.00 28.00 12.00 8.00 
TREF 
HKLF 4 
END 
;
_shelx_hkl_checksum              660
loop_
_space_group_symop_operation_xyz
'x, y, z'
'-x, y+1/2, -z+1/2'
'-x, -y, -z'
'x, -y-1/2, z-1/2'
loop_
_atom_site_label
_atom_site_type_symbol
_atom_site_fract_x
_atom_site_fract_y
_atom_site_fract_z
_atom_site_U_iso_or_equiv
_atom_site_adp_type
_atom_site_occupancy
_atom_site_site_symmetry_order
_atom_site_calc_flag
_atom_site_refinement_flags_posn
_atom_site_refinement_flags_adp
N1 N 0.44773(17) 0.59411(11) 0.16936(17) 0.0276(3) Uani 1 1 d . .
N2 N 0.52156(17) 0.50379(10) 0.28263(17) 0.0265(3) Uani 1 1 d . .
C3 C 0.67451(19) 0.54908(13) 0.40925(19) 0.0246(4) Uani 1 1 d . .
C4 C 0.70171(19) 0.66696(13) 0.3810(2) 0.0267(4) Uani 1 1 d . .
C5 C 0.5488(2) 0.69200(13) 0.2226(2) 0.0298(4) Uani 1 1 d . .
H5A H 0.5197 0.7653 0.1615 0.036 Uiso 1 1 calc R U
C6 C 0.2726(2) 0.58029(16) 0.0118(2) 0.0349(4) Uani 1 1 d . .
H6A H 0.2535 0.6452 -0.0756 0.052 Uiso 1 1 calc R U
H6B H 0.1751 0.5796 0.0578 0.052 Uiso 1 1 calc R U
H6C H 0.2715 0.5068 -0.0524 0.052 Uiso 1 1 calc R U
N7 N 0.79171(17) 0.47504(11) 0.55576(17) 0.0278(3) Uani 1 1 d . .
O8 O 0.75083(15) 0.37240(9) 0.55918(16) 0.0375(4) Uani 1 1 d . .
O9 O 0.92984(16) 0.51905(11) 0.67310(16) 0.0438(4) Uani 1 1 d . .
C10 C 0.8549(2) 0.74747(14) 0.4853(2) 0.0356(4) Uani 1 1 d . .
H10A H 0.8349 0.8224 0.4202 0.053 Uiso 1 1 calc R U
H10B H 0.9696 0.7136 0.4919 0.053 Uiso 1 1 calc R U
H10C H 0.8608 0.7592 0.6122 0.053 Uiso 1 1 calc R U
loop_
_atom_site_aniso_label
_atom_site_aniso_U_11
_atom_site_aniso_U_22
_atom_site_aniso_U_33
_atom_site_aniso_U_23
_atom_site_aniso_U_13
_atom_site_aniso_U_12
N1 0.0213(7) 0.0324(7) 0.0248(7) 0.0029(5) 0.0045(5) 0.0036(5)
N2 0.0227(7) 0.0286(7) 0.0244(7) -0.0002(5) 0.0055(6) 0.0024(5)
C3 0.0208(7) 0.0294(8) 0.0224(8) -0.0015(6) 0.0073(6) 0.0024(6)
C4 0.0237(8) 0.0298(7) 0.0271(7) -0.0012(6) 0.0106(6) 0.0007(6)
C5 0.0283(8) 0.0297(8) 0.0316(8) 0.0043(6) 0.0120(7) 0.0026(6)
C6 0.0254(8) 0.0436(10) 0.0268(8) 0.0004(7) 0.0008(7) 0.0026(7)
N7 0.0225(7) 0.0311(7) 0.0259(7) -0.0020(5) 0.0053(5) 0.0016(5)
O8 0.0348(7) 0.0278(6) 0.0403(7) 0.0026(5) 0.0047(5) 0.0025(5)
O9 0.0309(7) 0.0476(7) 0.0339(7) 0.0006(5) -0.0073(5) -0.0064(5)
C10 0.0313(9) 0.0329(8) 0.0412(9) -0.0033(7) 0.0130(8) -0.0049(7)
loop_
_atom_type_symbol
_atom_type_description
_atom_type_scat_dispersion_real
_atom_type_scat_dispersion_imag
_atom_type_scat_source
C C 0.0033 0.0016 'International Tables Vol C Tables 4.2.6.8 and 6.1.1.4'
H H 0.0000 0.0000 'International Tables Vol C Tables 4.2.6.8 and 6.1.1.4'
N N 0.0061 0.0033 'International Tables Vol C Tables 4.2.6.8 and 6.1.1.4'
O O 0.0106 0.0060 'International Tables Vol C Tables 4.2.6.8 and 6.1.1.4'
loop_
_geom_angle_atom_site_label_1
_geom_angle_atom_site_label_2
_geom_angle_atom_site_label_3
_geom_angle
N2 N1 C5 112.91(12)
N2 N1 C6 119.68(12)
C5 N1 C6 127.38(13)
C3 N2 N1 102.71(12)
N2 C3 C4 114.48(12)
N2 C3 N7 118.35(13)
C4 C3 N7 127.17(13)
C5 C4 C3 101.75(13)
C5 C4 C10 127.07(14)
C3 C4 C10 131.15(13)
N1 C5 C4 108.15(13)
O8 N7 O9 123.25(13)
O8 N7 C3 119.44(13)
O9 N7 C3 117.31(13)
loop_
_geom_bond_atom_site_label_1
_geom_bond_atom_site_label_2
_geom_bond_distance
N1 N2 1.3382(16)
N1 C5 1.3514(19)
N1 C6 1.4600(19)
N2 C3 1.3359(18)
C3 C4 1.403(2)
C3 N7 1.4340(18)
C4 C5 1.380(2)
C4 C10 1.493(2)
N7 O8 1.2272(17)
N7 O9 1.2296(16)
