#------------------------------------------------------------------------------
#$Date: 2017-03-04 16:01:41 +0200 (Sat, 04 Mar 2017) $
#$Revision: 193516 $
#$URL: file:///home/coder/svn-repositories/cod/cif/4/12/55/4125513.cif $
#------------------------------------------------------------------------------
#
# This file is available in the Crystallography Open Database (COD),
# http://www.crystallography.net/
#
# All data on this site have been placed in the public domain by the
# contributors.
#
data_4125513
loop_
_publ_author_name
'Georgiou, Irene'
'Kervyn, Simon'
'Rossignon, Alexandre'
'De Leo, Federica'
'Wouters, Johan'
'Bruylants, Gilles'
'Bonifazi, Davide'
_publ_section_title
;
 Versatile Self-Adapting Boronic Acids for H-Bond Recognition: From
 Discrete to Polymeric Supramolecules.
;
_journal_issue                   7
_journal_name_full               'Journal of the American Chemical Society'
_journal_page_first              2710
_journal_page_last               2727
_journal_paper_doi               10.1021/jacs.6b11362
_journal_volume                  139
_journal_year                    2017
_chemical_formula_moiety         'C14 H8 N4, 2(C6 H7 B O2)'
_chemical_formula_sum            'C26 H22 B2 N4 O4'
_chemical_formula_weight         476.11
_chemical_name_systematic
;
 ?
;
_space_group_IT_number           2
_symmetry_cell_setting           triclinic
_symmetry_space_group_name_Hall  '-P 1'
_symmetry_space_group_name_H-M   'P -1'
_atom_sites_solution_hydrogens   geom
_atom_sites_solution_primary     direct
_atom_sites_solution_secondary   difmap
_audit_creation_method           SHELXL-97
_cell_angle_alpha                95.785(9)
_cell_angle_beta                 103.104(9)
_cell_angle_gamma                114.473(11)
_cell_formula_units_Z            1
_cell_length_a                   7.4283(8)
_cell_length_b                   8.3837(9)
_cell_length_c                   10.8769(12)
_cell_measurement_reflns_used    1947
_cell_measurement_temperature    293(2)
_cell_measurement_theta_max      66.7270
_cell_measurement_theta_min      4.2850
_cell_volume                     585.80(13)
_computing_cell_refinement
;
CrysAlisPro, Agilent Technologies,
Version 1.171.37.34 (release 22-05-2014 CrysAlis171 .NET)
(compiled May 22 2014,16:03:01)
;
_computing_data_collection
;
CrysAlisPro, Agilent Technologies,
Version 1.171.37.34 (release 22-05-2014 CrysAlis171 .NET)
(compiled May 22 2014,16:03:01)
;
_computing_data_reduction
;
CrysAlisPro, Agilent Technologies,
Version 1.171.37.34 (release 22-05-2014 CrysAlis171 .NET)
(compiled May 22 2014,16:03:01)
;
_computing_structure_refinement  'SHELXL-97 (Sheldrick, 1997)'
_computing_structure_solution    Shelxs86
_diffrn_ambient_temperature      293(2)
_diffrn_detector                 'CCD plate'
_diffrn_detector_area_resol_mean 5.1856
_diffrn_detector_type            Ruby
_diffrn_measured_fraction_theta_full 0.991
_diffrn_measured_fraction_theta_max 0.991
_diffrn_measurement_device       'four-circle diffractometer'
_diffrn_measurement_device_type  'Xcalibur, Ruby, Gemini ultra'
_diffrn_measurement_method       '\w scans'
_diffrn_radiation_monochromator  mirror
_diffrn_radiation_source         'fine-focus sealed tube'
_diffrn_radiation_type           CuK\a
_diffrn_radiation_wavelength     1.54184
_diffrn_reflns_av_R_equivalents  0.0333
_diffrn_reflns_av_sigmaI/netI    0.0365
_diffrn_reflns_limit_h_max       7
_diffrn_reflns_limit_h_min       -8
_diffrn_reflns_limit_k_max       9
_diffrn_reflns_limit_k_min       -9
_diffrn_reflns_limit_l_max       12
_diffrn_reflns_limit_l_min       -12
_diffrn_reflns_number            4490
_diffrn_reflns_theta_full        66.58
_diffrn_reflns_theta_max         66.58
_diffrn_reflns_theta_min         4.28
_exptl_absorpt_coefficient_mu    0.741
_exptl_absorpt_correction_T_max  0.9569
_exptl_absorpt_correction_T_min  0.8557
_exptl_absorpt_correction_type   multi-scan
_exptl_absorpt_process_details
;
CrysAlisPro, Agilent Technologies,
Version 1.171.37.34 (release 22-05-2014 CrysAlis171 .NET)
(compiled May 22 2014,16:03:01)
Empirical absorption correction using spherical harmonics,
 implemented in SCALE3 ABSPACK scaling algorithm.
;
_exptl_crystal_colour            Purple
_exptl_crystal_density_diffrn    1.350
_exptl_crystal_density_method    'not measured'
_exptl_crystal_description       prism
_exptl_crystal_F_000             248
_exptl_crystal_size_max          0.22
_exptl_crystal_size_mid          0.10
_exptl_crystal_size_min          0.06
_refine_diff_density_max         0.163
_refine_diff_density_min         -0.170
_refine_diff_density_rms         0.038
_refine_ls_extinction_method     none
_refine_ls_goodness_of_fit_ref   1.359
_refine_ls_hydrogen_treatment    mixed
_refine_ls_matrix_type           full
_refine_ls_number_parameters     171
_refine_ls_number_reflns         2045
_refine_ls_number_restraints     0
_refine_ls_restrained_S_all      1.359
_refine_ls_R_factor_all          0.0883
_refine_ls_R_factor_gt           0.0655
_refine_ls_shift/su_max          0.000
_refine_ls_shift/su_mean         0.000
_refine_ls_structure_factor_coef Fsqd
_refine_ls_weighting_details
'calc w=1/[\s^2^(Fo^2^)+(0.0277P)^2^+0.7454P] where P=(Fo^2^+2Fc^2^)/3'
_refine_ls_weighting_scheme      calc
_refine_ls_wR_factor_gt          0.1889
_refine_ls_wR_factor_ref         0.1951
_reflns_number_gt                1450
_reflns_number_total             2045
_reflns_threshold_expression     >2sigma(I)
_iucr_refine_instructions_details
;
TITL bn_birge-7-67-AB in P-1
CELL  1.54184   7.4283   8.3837  10.8769   95.785  103.104  114.473
ZERR     1.00   0.0008   0.0009   0.0012    0.009    0.009    0.011
LATT   1
SFAC  C        2.31000 20.84392  1.02000 10.20751   1.58860   0.56870 =
         0.86500  51.65125   0.21560   0.018   0.009    89.900   0.770  12.011
SFAC  H        0.49300 10.51091  0.32291 26.12573   0.14019   3.14236 =
         0.04081  57.79977   0.00304   0.000   0.000     0.660   0.320   1.008
SFAC  B        2.05450 23.21852  1.33260  1.02100   1.09790  60.34987 =
         0.70680   0.14030  -0.19320   0.009   0.004    41.500   0.880  10.811
SFAC  N       12.21261  0.00570  3.13220  9.89331   2.01250  28.99754 =
         1.16630   0.58260 -11.52901   0.031   0.018   173.000   0.700  14.007
SFAC  O        3.04850 13.27711  2.28680  5.70111   1.54630   0.32390 =
         0.86700  32.90894   0.25080   0.049   0.032   304.000   0.660  15.999
UNIT  26   22   2    4    4
MERG   2
FMAP   2
PLAN   10
ACTA
BOND   $H
L.S.  10
HTAB
SHEL 99 0.84
temp 20
size 0.06 0.096 0.217
WGHT    0.027700    0.745400
FVAR      14.76358
mole 1
C7    1    0.262446    0.404919    0.786541    11.00000    0.04586    0.04026 =
         0.04443    0.01251    0.01595    0.02164
C8    1    0.139513    0.384622    0.659091    11.00000    0.05570    0.04954 =
         0.04596    0.01697    0.01496    0.02632
AFIX  43
H8    2    0.160422    0.484722    0.623330    11.00000   -1.20000
AFIX   0
C9    1   -0.006889    0.220674    0.590379    11.00000    0.05242    0.05736 =
         0.04723    0.01092    0.01191    0.02734
AFIX  43
H9    2   -0.086727    0.208652    0.507461    11.00000   -1.20000
AFIX   0
C10   1   -0.040849    0.065503    0.643235    11.00000    0.05586    0.04680 =
         0.05597    0.00535    0.00857    0.02142
AFIX  43
H10   2   -0.143207   -0.046186    0.594205    11.00000   -1.20000
AFIX   0
C11   1    0.072215    0.077191    0.762752    11.00000    0.05456    0.03965 =
         0.05680    0.01284    0.01150    0.01945
AFIX  43
H11   2    0.048241   -0.025981    0.795013    11.00000   -1.20000
AFIX   0
C12   1    0.227992    0.246871    0.839563    11.00000    0.04809    0.03960 =
         0.04488    0.01269    0.01568    0.02091
C13   1    0.483841    0.421633    1.025947    11.00000    0.04585    0.03925 =
         0.04393    0.01516    0.01688    0.02009
 
N1    4    0.404793    0.567479    0.854181    11.00000    0.05080    0.03945 =
         0.04411    0.01598    0.01431    0.02010
N2    4    0.338502    0.257418    0.957768    11.00000    0.05106    0.03768 =
         0.04655    0.01384    0.01320    0.01854
mole 2
C1    1    0.352546    0.785675    0.233261    11.00000    0.04478    0.04121 =
         0.04713    0.01418    0.01450    0.02222
C2    1    0.445329    0.792546    0.361130    11.00000    0.04796    0.05068 =
         0.04921    0.01386    0.00798    0.02177
AFIX  43
H2    2    0.542621    0.902813    0.414919    11.00000   -1.20000
AFIX   0
C3    1    0.396167    0.638825    0.410300    11.00000    0.06205    0.06701 =
         0.05560    0.02945    0.01285    0.03361
AFIX  43
H3    2    0.459405    0.646471    0.496379    11.00000   -1.20000
AFIX   0
C4    1    0.253542    0.474804    0.331464    11.00000    0.07028    0.04988 =
         0.07464    0.03267    0.02388    0.03238
AFIX  43
H4    2    0.220378    0.371405    0.364284    11.00000   -1.20000
AFIX   0
C5    1    0.159904    0.463456    0.204193    11.00000    0.07042    0.04054 =
         0.06499    0.01450    0.01634    0.02236
AFIX  43
H5    2    0.064110    0.352527    0.150667    11.00000   -1.20000
AFIX   0
C6    1    0.208853    0.617595    0.156310    11.00000    0.06099    0.04551 =
         0.04527    0.01265    0.01233    0.02216
AFIX  43
H6    2    0.144055    0.608874    0.070311    11.00000   -1.20000
AFIX   0
B1    3    0.396666    0.958419    0.177249    11.00000    0.05144    0.04460 =
         0.04866    0.01634    0.01548    0.02024
O1    5    0.542524    1.118418    0.254214    11.00000    0.09200    0.04273 =
         0.06265    0.01920   -0.00082    0.01289
O2    5    0.282872    0.938975    0.056235    11.00000    0.08438    0.04851 =
         0.05404    0.02415    0.00548    0.01845
H2O   2    0.305493    1.036742    0.025830    11.00000    0.08520
H1O   2    0.564915    1.214440    0.217701    11.00000    0.09999
HKLF    4
 
REM  bn_birge-7-67-AB in P-1
REM R1 =  0.0655 for   1450 Fo > 4sig(Fo)  and  0.0883 for all   2045 data
REM    171 parameters refined using      0 restraints
 
END
 
WGHT      0.0259      0.7619
REM Highest difference peak  0.163,  deepest hole -0.170,  1-sigma level  0.038
Q1    1   0.3316  0.8797  0.2200  11.00000  0.05    0.16
Q2    1   0.5000  0.5000  1.0000  10.50000  0.05    0.16
Q3    1   0.2425  0.3245  0.8105  11.00000  0.05    0.15
Q4    1   0.1636  0.6198  0.6342  11.00000  0.05    0.15
Q5    1   0.3327  0.1617  0.9735  11.00000  0.05    0.14
Q6    1   0.0315  0.6085  0.0588  11.00000  0.05    0.13
Q7    1   0.4135  0.8777  0.2131  11.00000  0.05    0.13
Q8    1   0.7209  1.2230  0.3139  11.00000  0.05    0.13
Q9    1  -0.2196  0.3176  0.4532  11.00000  0.05    0.13
Q10   1   0.2734  0.5762  0.6486  11.00000  0.05    0.13
;
_cod_data_source_file            ja6b11362_si_033.cif
_cod_data_source_block           shelxl
_cod_depositor_comments
'Adding full bibliography for 4125513--4125529.cif.'
_cod_original_cell_volume        585.80(11)
_cod_original_sg_symbol_H-M      P-1
_cod_database_code               4125513
loop_
_symmetry_equiv_pos_as_xyz
'x, y, z'
'-x, -y, -z'
loop_
_atom_site_label
_atom_site_type_symbol
_atom_site_fract_x
_atom_site_fract_y
_atom_site_fract_z
_atom_site_U_iso_or_equiv
_atom_site_adp_type
_atom_site_occupancy
_atom_site_symmetry_multiplicity
_atom_site_calc_flag
_atom_site_refinement_flags
C7 C 0.2624(6) 0.4049(5) 0.7865(4) 0.0420(9) Uani 1 1 d .
C8 C 0.1395(6) 0.3846(5) 0.6591(4) 0.0490(10) Uani 1 1 d .
H8 H 0.1604 0.4847 0.6233 0.059 Uiso 1 1 calc R
C9 C -0.0069(6) 0.2207(6) 0.5904(4) 0.0520(10) Uani 1 1 d .
H9 H -0.0867 0.2087 0.5075 0.062 Uiso 1 1 calc R
C10 C -0.0408(7) 0.0655(6) 0.6432(4) 0.0554(11) Uani 1 1 d .
H10 H -0.1432 -0.0462 0.5942 0.067 Uiso 1 1 calc R
C11 C 0.0722(6) 0.0772(5) 0.7628(4) 0.0517(10) Uani 1 1 d .
H11 H 0.0482 -0.0260 0.7950 0.062 Uiso 1 1 calc R
C12 C 0.2280(6) 0.2469(5) 0.8396(4) 0.0432(9) Uani 1 1 d .
C13 C 0.4838(6) 0.4216(5) 1.0259(4) 0.0416(9) Uani 1 1 d .
N1 N 0.4048(5) 0.5675(4) 0.8542(3) 0.0443(8) Uani 1 1 d .
N2 N 0.3385(5) 0.2574(4) 0.9578(3) 0.0455(8) Uani 1 1 d .
C1 C 0.3525(6) 0.7857(5) 0.2333(4) 0.0428(9) Uani 1 1 d .
C2 C 0.4453(6) 0.7925(6) 0.3611(4) 0.0504(10) Uani 1 1 d .
H2 H 0.5426 0.9028 0.4149 0.060 Uiso 1 1 calc R
C3 C 0.3962(7) 0.6388(6) 0.4103(4) 0.0595(12) Uani 1 1 d .
H3 H 0.4594 0.6465 0.4964 0.071 Uiso 1 1 calc R
C4 C 0.2535(7) 0.4748(6) 0.3315(5) 0.0611(12) Uani 1 1 d .
H4 H 0.2204 0.3714 0.3643 0.073 Uiso 1 1 calc R
C5 C 0.1599(7) 0.4635(6) 0.2042(5) 0.0601(12) Uani 1 1 d .
H5 H 0.0641 0.3525 0.1507 0.072 Uiso 1 1 calc R
C6 C 0.2089(7) 0.6176(5) 0.1563(4) 0.0517(10) Uani 1 1 d .
H6 H 0.1441 0.6089 0.0703 0.062 Uiso 1 1 calc R
B1 B 0.3967(7) 0.9584(6) 0.1772(5) 0.0481(11) Uani 1 1 d .
O1 O 0.5425(6) 1.1184(4) 0.2542(3) 0.0758(11) Uani 1 1 d .
O2 O 0.2829(5) 0.9390(4) 0.0562(3) 0.0682(10) Uani 1 1 d .
H2O H 0.305(8) 1.037(7) 0.026(5) 0.085(17) Uiso 1 1 d .
H1O H 0.565(9) 1.214(8) 0.218(5) 0.100(19) Uiso 1 1 d .
loop_
_atom_site_aniso_label
_atom_site_aniso_U_11
_atom_site_aniso_U_22
_atom_site_aniso_U_33
_atom_site_aniso_U_23
_atom_site_aniso_U_13
_atom_site_aniso_U_12
C7 0.046(2) 0.040(2) 0.044(2) 0.0125(16) 0.0160(17) 0.0216(17)
C8 0.056(2) 0.050(2) 0.046(2) 0.0170(18) 0.0150(19) 0.026(2)
C9 0.052(3) 0.057(3) 0.047(2) 0.0109(19) 0.0119(19) 0.027(2)
C10 0.056(3) 0.047(2) 0.056(3) 0.0053(19) 0.009(2) 0.021(2)
C11 0.055(3) 0.040(2) 0.057(3) 0.0128(18) 0.012(2) 0.0195(19)
C12 0.048(2) 0.040(2) 0.045(2) 0.0127(16) 0.0157(17) 0.0209(17)
C13 0.046(2) 0.039(2) 0.044(2) 0.0152(16) 0.0169(17) 0.0201(17)
N1 0.0508(19) 0.0394(17) 0.0441(18) 0.0160(14) 0.0143(15) 0.0201(15)
N2 0.0511(19) 0.0377(17) 0.0466(18) 0.0138(14) 0.0132(15) 0.0185(15)
C1 0.045(2) 0.041(2) 0.047(2) 0.0142(17) 0.0145(17) 0.0222(17)
C2 0.048(2) 0.051(2) 0.049(2) 0.0139(18) 0.0080(18) 0.0218(19)
C3 0.062(3) 0.067(3) 0.056(3) 0.029(2) 0.013(2) 0.034(2)
C4 0.070(3) 0.050(3) 0.075(3) 0.033(2) 0.024(2) 0.032(2)
C5 0.070(3) 0.041(2) 0.065(3) 0.015(2) 0.016(2) 0.022(2)
C6 0.061(3) 0.046(2) 0.045(2) 0.0126(18) 0.0123(19) 0.022(2)
B1 0.051(3) 0.045(2) 0.049(3) 0.016(2) 0.015(2) 0.020(2)
O1 0.092(3) 0.0427(18) 0.063(2) 0.0192(15) -0.0008(17) 0.0129(17)
O2 0.084(2) 0.0485(18) 0.0540(18) 0.0242(15) 0.0055(16) 0.0185(16)
loop_
_atom_type_symbol
_atom_type_description
_atom_type_scat_dispersion_real
_atom_type_scat_dispersion_imag
_atom_type_scat_source
C C 0.0180 0.0090 'International Tables Vol C Tables 4.2.6.8 and 6.1.1.4'
H H 0.0000 0.0000 'International Tables Vol C Tables 4.2.6.8 and 6.1.1.4'
B B 0.0090 0.0040 'International Tables Vol C Tables 4.2.6.8 and 6.1.1.4'
N N 0.0310 0.0180 'International Tables Vol C Tables 4.2.6.8 and 6.1.1.4'
O O 0.0490 0.0320 'International Tables Vol C Tables 4.2.6.8 and 6.1.1.4'
loop_
_geom_angle_atom_site_label_1
_geom_angle_atom_site_label_2
_geom_angle_atom_site_label_3
_geom_angle
_geom_angle_site_symmetry_1
_geom_angle_site_symmetry_3
N1 C7 C8 119.7(3) . .
N1 C7 C12 121.4(3) . .
C8 C7 C12 118.9(3) . .
C9 C8 C7 120.1(4) . .
C9 C8 H8 119.9 . .
C7 C8 H8 119.9 . .
C8 C9 C10 120.8(4) . .
C8 C9 H9 119.6 . .
C10 C9 H9 119.6 . .
C11 C10 C9 121.4(4) . .
C11 C10 H10 119.3 . .
C9 C10 H10 119.3 . .
C10 C11 C12 120.1(4) . .
C10 C11 H11 119.9 . .
C12 C11 H11 119.9 . .
N2 C12 C11 119.8(3) . .
N2 C12 C7 121.5(3) . .
C11 C12 C7 118.7(3) . .
N2 C13 N1 117.1(3) . 2_667
N2 C13 C13 121.4(4) . 2_667
N1 C13 C13 121.5(4) 2_667 2_667
C7 N1 C13 117.0(3) . 2_667
C12 N2 C13 117.1(3) . .
C2 C1 C6 117.2(4) . .
C2 C1 B1 122.5(4) . .
C6 C1 B1 120.3(4) . .
C3 C2 C1 121.5(4) . .
C3 C2 H2 119.3 . .
C1 C2 H2 119.3 . .
C4 C3 C2 119.8(4) . .
C4 C3 H3 120.1 . .
C2 C3 H3 120.1 . .
C5 C4 C3 120.1(4) . .
C5 C4 H4 119.9 . .
C3 C4 H4 119.9 . .
C4 C5 C6 119.6(4) . .
C4 C5 H5 120.2 . .
C6 C5 H5 120.2 . .
C5 C6 C1 121.8(4) . .
C5 C6 H6 119.1 . .
C1 C6 H6 119.1 . .
O2 B1 O1 124.0(4) . .
O2 B1 C1 117.8(4) . .
O1 B1 C1 118.3(4) . .
B1 O1 H1O 115(4) . .
B1 O2 H2O 118(3) . .
loop_
_geom_bond_atom_site_label_1
_geom_bond_atom_site_label_2
_geom_bond_distance
_geom_bond_site_symmetry_2
C7 N1 1.330(5) .
C7 C8 1.426(5) .
C7 C12 1.447(5) .
C8 C9 1.348(6) .
C8 H8 0.9300 .
C9 C10 1.425(6) .
C9 H9 0.9300 .
C10 C11 1.348(6) .
C10 H10 0.9300 .
C11 C12 1.421(5) .
C11 H11 0.9300 .
C12 N2 1.332(5) .
C13 N2 1.346(5) .
C13 N1 1.348(5) 2_667
C13 C13 1.433(7) 2_667
N1 C13 1.348(5) 2_667
C1 C2 1.389(5) .
C1 C6 1.392(5) .
C1 B1 1.566(6) .
C2 C3 1.385(6) .
C2 H2 0.9300 .
C3 C4 1.375(6) .
C3 H3 0.9300 .
C4 C5 1.375(6) .
C4 H4 0.9300 .
C5 C6 1.380(6) .
C5 H5 0.9300 .
C6 H6 0.9300 .
B1 O2 1.346(5) .
B1 O1 1.354(6) .
O1 H1O 0.90(6) .
O2 H2O 0.88(5) .
