#------------------------------------------------------------------------------
#$Date: 2017-06-28 02:37:52 +0300 (Wed, 28 Jun 2017) $
#$Revision: 198170 $
#$URL: file:///home/coder/svn-repositories/cod/cif/4/12/62/4126239.cif $
#------------------------------------------------------------------------------
#
# This file is available in the Crystallography Open Database (COD),
# http://www.crystallography.net/
#
# All data on this site have been placed in the public domain by the
# contributors.
#
data_4126239
loop_
_publ_author_name
'Sessler, Chanan D.'
'Rahm, Martin'
'Becker, Sabine'
'Goldberg, Jacob M.'
'Wang, Fang'
'Lippard, Stephen J.'
_publ_section_title
;
 CF2H, a Hydrogen Bond Donor.
;
_journal_name_full               'Journal of the American Chemical Society'
_journal_paper_doi               10.1021/jacs.7b04457
_journal_year                    2017
_chemical_formula_sum            'C7 H5 Br F2'
_chemical_formula_weight         207.02
_chemical_name_common            2-CF2H
_space_group_crystal_system      monoclinic
_space_group_IT_number           14
_space_group_name_Hall           '-P 2ybc'
_space_group_name_H-M_alt        'P 1 21/c 1'
_symmetry_space_group_name_Hall  '-P 2ybc'
_symmetry_space_group_name_H-M   'P 1 21/c 1'
_atom_sites_solution_hydrogens   geom
_audit_creation_method           SHELXL-2016/6
_cell_angle_alpha                90
_cell_angle_beta                 92.557(4)
_cell_angle_gamma                90
_cell_formula_units_Z            2
_cell_length_a                   7.962(2)
_cell_length_b                   7.097(2)
_cell_length_c                   6.1966(18)
_cell_measurement_reflns_used    224
_cell_measurement_temperature    100(2)
_cell_measurement_theta_max      30.69
_cell_measurement_theta_min      2.67
_cell_volume                     349.80(17)
_computing_cell_refinement       'Bruker SMART'
_computing_data_collection       'Bruker SMART'
_computing_data_reduction        'Bruker SAINT'
_computing_molecular_graphics    'ShelXle (Huebschle, 2014)'
_computing_publication_material  ORETP
_computing_structure_refinement  'SHELXL-2016/6 (Sheldrick, 2016)'
_computing_structure_solution    'SHELXS-2015 (Sheldrick, 2015)'
_diffrn_ambient_temperature      100(2)
_diffrn_measured_fraction_theta_full 0.998
_diffrn_measured_fraction_theta_max 0.998
_diffrn_measurement_device_type  'CCD area detector'
_diffrn_measurement_method       'phi and omega scans'
_diffrn_radiation_type           MoK\a
_diffrn_radiation_wavelength     0.71073
_diffrn_reflns_av_unetI/netI     0.0605
_diffrn_reflns_Laue_measured_fraction_full 0.998
_diffrn_reflns_Laue_measured_fraction_max 0.998
_diffrn_reflns_limit_h_max       11
_diffrn_reflns_limit_h_min       0
_diffrn_reflns_limit_k_max       0
_diffrn_reflns_limit_k_min       -9
_diffrn_reflns_limit_l_max       8
_diffrn_reflns_limit_l_min       -8
_diffrn_reflns_number            1066
_diffrn_reflns_point_group_measured_fraction_full 0.998
_diffrn_reflns_point_group_measured_fraction_max 0.998
_diffrn_reflns_theta_full        25.242
_diffrn_reflns_theta_max         29.477
_diffrn_reflns_theta_min         2.561
_exptl_absorpt_coefficient_mu    5.825
_exptl_absorpt_correction_T_max  0.745882
_exptl_absorpt_correction_T_min  0.257008
_exptl_absorpt_correction_type   multi-scan
_exptl_absorpt_process_details   'Blessing, 1993'
_exptl_crystal_colour            colourless
_exptl_crystal_density_diffrn    1.966
_exptl_crystal_density_meas      ?
_exptl_crystal_density_method    'not measured'
_exptl_crystal_description       block
_exptl_crystal_F_000             200
_exptl_crystal_size_max          0.700
_exptl_crystal_size_mid          0.400
_exptl_crystal_size_min          0.400
_refine_diff_density_max         0.888
_refine_diff_density_min         -0.669
_refine_diff_density_rms         0.192
_refine_ls_extinction_method     none
_refine_ls_goodness_of_fit_ref   1.125
_refine_ls_hydrogen_treatment    constr
_refine_ls_matrix_type           full
_refine_ls_number_parameters     69
_refine_ls_number_reflns         1066
_refine_ls_number_restraints     96
_refine_ls_restrained_S_all      1.087
_refine_ls_R_factor_all          0.0824
_refine_ls_R_factor_gt           0.0578
_refine_ls_shift/su_max          0.000
_refine_ls_shift/su_mean         0.000
_refine_ls_structure_factor_coef Fsqd
_refine_ls_weighting_details
'w=1/[\s^2^(Fo^2^)+(0.0544P)^2^+0.7660P] where P=(Fo^2^+2Fc^2^)/3'
_refine_ls_weighting_scheme      calc
_refine_ls_wR_factor_gt          0.1367
_refine_ls_wR_factor_ref         0.1549
_reflns_Friedel_coverage         0.000
_reflns_number_gt                858
_reflns_number_total             1066
_reflns_threshold_expression     'I > 2\s(I)'
_cod_data_source_file            ja7b04457_si_002.cif
_cod_data_source_block           2-CF2H
_cod_depositor_comments
;
The following automatic conversions were performed:

'_exptl_crystal_density_meas' value 'not measured' was changed to '?'
- the value is perceived as not measured.

Automatic conversion script
Id: cif_fix_values 4973 2017-02-22 13:04:09Z antanas 
;
_cod_original_cell_volume        349.76(17)
_cod_database_code               4126239
_shelx_shelxl_version_number     2016/6
_shelx_space_group_comment
;
The symmetry employed for this shelxl refinement is uniquely defined
by the following loop, which should always be used as a source of
symmetry information in preference to the above space-group names.
They are only intended as comments.
;
_shelx_estimated_absorpt_t_min   0.106
_shelx_estimated_absorpt_t_max   0.204
_shelx_res_file
;
TITL BrPhCF2H_a.res in P2(1)/c
    twin5.res
    created by SHELXL-2016/6 at 17:16:57 on 15-Dec-2016
REM Old TITL BrPhCF2H in Pc
REM SHELXT solution in P2(1)/c
REM R1 0.196,  Rweak 0.014,  Alpha 0.031,  Orientation as input
REM Formula found by SHELXT:  F3 Br
CELL  0.71073   7.9616   7.0965   6.1966   90.000   92.557   90.000
ZERR    2.000   0.0022   0.0020   0.0018    0.000    0.004    0.000
LATT  1
SYMM -X, 1/2+Y, 1/2-Z
SFAC C H F BR
UNIT 14 10 4 2
TEMP -173

OMIT   5  -5  -1
SIZE 0.70x0.40x0.40
ACTA

MERG 0
L.S. 50
BOND $H
LIST 6
FMAP 2
PLAN 5

SIMU
RIGU
SADI F1 C4 F2 C4
DFIX 21.0 C1 Br1
DFIX 31.0 C1 C4
DFIX 41.0 C4 Br1
SUMP 0 0 1 2 -1 3 -1 4
FLAT Br1 > C4

WGHT    0.054400    0.766000
BASF   0.26665   0.14246
FVAR       1.00673   1.91648   1.48991   0.42657
PART 1
BR1   4    0.849640    0.551765    0.799179    10.50000    0.02329    0.03530 =
         0.02587    0.00197   -0.00776   -0.00416
PART 0
C1    1    0.648901    0.524034    0.619570    11.00000    0.01837    0.01741 =
         0.02379    0.00054   -0.00031   -0.00189
C3    1    0.502654    0.422027    0.292803    11.00000    0.02274    0.01774 =
         0.02415   -0.00387    0.00249   -0.00145
AFIX  43
H3    2    0.503556    0.368856    0.152162    11.00000   -1.20000
AFIX   0
C2    1    0.652216    0.447328    0.414531    11.00000    0.01802    0.02086 =
         0.02209   -0.00013    0.00377    0.00060
AFIX  43
H2    2    0.756249    0.412016    0.356950    11.00000   -1.20000
AFIX   0
PART 2
C4    1    0.812613    0.556966    0.739550    10.50000    0.03139    0.03540 =
         0.01715   -0.00153   -0.00821   -0.00933
AFIX  13
H4    2    0.856468    0.685402    0.706856    10.50000   -1.20000
AFIX   0
F2    3    0.925146    0.425108    0.690436    10.50000    0.03237    0.09647 =
         0.04528   -0.01670   -0.00809    0.01991
F1    3    0.791432    0.538826    0.950770    10.50000    0.03270    0.12262 =
         0.02234   -0.00734   -0.00762   -0.00384
PART 0
HKLF 5 1  0 0 1 0 -1 0 1 0 0




REM  BrPhCF2H_a.res in P2(1)/c
REM R1 =  0.0578 for     858 Fo > 4sig(Fo)  and  0.0824 for all    1066 data
REM     69 parameters refined using     96 restraints

END

WGHT      0.0544      0.7621

REM Highest difference peak  0.888,  deepest hole -0.669,  1-sigma level  0.192
Q1    1   0.9966  0.5562  0.7948  11.00000  0.05    0.89
Q2    1   0.8425  0.4231  0.9051  11.00000  0.05    0.87
Q3    1   0.8978  0.6474  0.7627  11.00000  0.05    0.84
Q4    1   0.7244  0.5505  0.7846  11.00000  0.05    0.80
Q5    1   0.9285  0.5630  0.6576  11.00000  0.05    0.67
;
_shelx_res_checksum              51643
_shelx_hkl_file
;
   1   0   0 3.61369 0.41883  -3
   1   0   0 3.61369 0.41883  -2
   1   0   0 3.61369 0.41883   1
   2   0   0 5396.59 450.182  -3
   2   0   0 5396.59 450.182  -2
   2   0   0 5396.59 450.182   1
   3   0   0 0.28181 0.60265   1
   4   0   0 42.0597 2.47222   1
  -5   0   1 5.05854 4.95698  -2
   5   0   0 5.05854 4.95698   1
  -6   0   1 243.853 14.1077  -2
   6   0   0 243.853 14.1077   1
  -7   0   1 3.39878 3.57366  -2
   7   0   0 3.39878 3.57366   1
  -8   0   1 113.389 8.44721  -2
   8   0   0 113.389 8.44721   1
   0   1   0 8.08060 0.43057  -2
   0   1   0 8.08060 0.43057   1
   0   1   0 18.6743 2.03294  -3
   0   1   0 18.6743 2.03294  -2
   0   1   0 18.6743 2.03294   1
   1   1   0 129.912 7.75119  -3
   1   1   0 129.912 7.75119  -2
   1   1   0 129.912 7.75119   1
   2   1   0 7.52536 0.79076  -3
   2   1   0 7.52536 0.79076   1
   2   1   0 26.2506 3.35929  -3
   2   1   0 26.2506 3.35929  -2
   2   1   0 26.2506 3.35929   1
   3   1   0 18.2955 1.04851  -3
   3   1   0 18.2955 1.04851   1
   4   1   0 85.3106 3.39340  -3
   4   1   0 85.3106 3.39340   1
  -5   1   1 491.449 41.5839  -2
   5   1   0 491.449 41.5839   1
   5   1   0 568.642 42.4037  -3
   5   1   0 568.642 42.4037   1
  -6   1   1 35.8876 6.35155  -2
   6   1   0 35.8876 6.35155   1
  -7   1   1 84.1194 11.0440  -3
  -7   1   1 84.1194 11.0440  -2
   7   1   0 84.1194 11.0440   1
   7   1   0 67.5355 6.55523  -3
  -7   1   1 67.5355 6.55523  -2
   7   1   0 67.5355 6.55523   1
   8   1   0 -7.3360 9.14437  -3
  -8   1   1 -7.3360 9.14437  -2
   8   1   0 -7.3360 9.14437   1
  -8   1   1 22.5477 10.6969  -3
  -8   1   1 22.5477 10.6969  -2
   8   1   0 22.5477 10.6969   1
   0   2   0 9999.99 362.238  -2
   0   2   0 9999.99 362.238   1
   1   2   0 3876.77 181.509  -2
   1   2   0 3876.77 181.509   1
   2   2   0 769.301 19.3245   1
   3   2   0 65.0998 5.49312  -3
   3   2   0 65.0998 5.49312   1
   4   2   0 19.8162 2.67103  -3
   4   2   0 19.8162 2.67103   1
   5   2   0 58.6550 4.30093  -3
  -5   2   1 58.6550 4.30093  -2
   5   2   0 58.6550 4.30093   1
  -6   2   1 221.701 10.9725  -3
  -6   2   1 221.701 10.9725  -2
   6   2   0 221.701 10.9725   1
   6   2   0 143.615 6.83499  -3
  -6   2   1 143.615 6.83499  -2
   6   2   0 143.615 6.83499   1
  -7   2   1 55.3208 4.73940  -3
  -7   2   1 55.3208 4.73940  -2
   7   2   0 55.3208 4.73940   1
   7   2   0 47.1529 3.43130  -3
  -7   2   1 47.1529 3.43130  -2
   7   2   0 47.1529 3.43130   1
   8   2   0 54.3866 6.86702  -3
  -8   2   1 54.3866 6.86702  -2
   8   2   0 54.3866 6.86702   1
  -8   2   1 59.0519 7.43165  -3
  -8   2   1 59.0519 7.43165  -2
   8   2   0 59.0519 7.43165   1
   0   3   0 0.70303 0.56812  -2
   0   3   0 0.70303 0.56812   1
   1   3   0 5.17689 1.67506  -2
   1   3   0 5.17689 1.67506   1
   2   3   0 82.1938 7.49732  -2
   2   3   0 82.1938 7.49732   1
  -3   3   1 69.9411 3.03629  -3
   3   3   0 69.9411 3.03629   1
  -4   3   1 548.719 23.6266  -3
   4   3   0 548.719 23.6266   1
  -5   3   1 248.417 18.7793  -3
   5   3   0 248.417 18.7793   1
  -5   3   1 278.392 24.3174  -3
  -5   3   1 278.392 24.3174  -2
   5   3   0 278.392 24.3174   1
   5   3   0 301.024 16.8459  -3
  -5   3   1 301.024 16.8459  -2
   5   3   0 301.024 16.8459   1
  -6   3   1 219.088 19.8935  -3
  -6   3   1 219.088 19.8935  -2
   6   3   0 219.088 19.8935   1
   6   3   0 215.856 10.0369  -3
  -6   3   1 215.856 10.0369  -2
   6   3   0 215.856 10.0369   1
   7   3   0 44.6778 4.22872  -3
  -7   3   1 44.6778 4.22872  -2
   7   3   0 44.6778 4.22872   1
  -7   3   1 48.7913 9.18220  -3
  -7   3   1 48.7913 9.18220  -2
   7   3   0 48.7913 9.18220   1
   8   3   0 10.2899 11.6547  -3
  -8   3   1 10.2899 11.6547  -2
   8   3   0 10.2899 11.6547   1
  -8   3   1 14.9760 10.0235  -3
  -8   3   1 14.9760 10.0235  -2
   8   3   0 14.9760 10.0235   1
   0   4   1 231.331 9.84279  -3
   0   4   0 231.331 9.84279  -2
   0   4   0 231.331 9.84279   1
   1   4   1 2894.07 163.794  -3
   1   4   0 2894.07 163.794  -2
   1   4   0 2894.07 163.794   1
  -2   4   1 14.3455 3.56108  -3
   2   4   0 14.3455 3.56108   1
  -2   4   1 4.45860 4.14430  -3
   2   4   0 4.45860 4.14430  -2
   2   4   0 4.45860 4.14430   1
  -3   4   1 89.6381 5.48675  -3
   3   4   0 89.6381 5.48675   1
  -4   4   1 2.02531 4.48966  -3
   4   4   0 2.02531 4.48966   1
   5   4   0 189.445 19.3587  -3
  -5   4   1 189.445 19.3587  -2
   5   4   0 189.445 19.3587   1
  -5   4   1 74.5162 8.75506  -3
   5   4   0 74.5162 8.75506   1
  -5   4   1 90.8494 6.02502  -2
   5   4   0 90.8494 6.02502   1
  -6   4   1 24.5345 3.47596  -2
   6   4   0 24.5345 3.47596   1
  -7   4   1 79.9696 4.49615  -2
   7   4   0 79.9696 4.49615   1
   0   5   1 119.402 5.77576  -3
   0   5   0 119.402 5.77576  -2
   0   5   0 119.402 5.77576   1
  -1   5   1 -2.9755 4.02062  -3
   1   5   0 -2.9755 4.02062  -2
   1   5   0 -2.9755 4.02062   1
   1   5   1 -7.2407 2.65964  -3
   1   5   0 -7.2407 2.65964  -2
   1   5   0 -7.2407 2.65964   1
   1   5   1 -2.8641 3.35303  -3
   1   5   0 -2.8641 3.35303   1
   2   5   1 17.7469 2.47078  -3
   2   5   0 17.7469 2.47078   1
  -2   5   1 289.936 24.9824  -3
   2   5   0 289.936 24.9824  -2
   2   5   0 289.936 24.9824   1
   3   5   1 -0.2675 3.11701  -3
   3   5   0 -0.2675 3.11701   1
  -3   5   1 11.0146 5.73378  -3
   3   5   0 11.0146 5.73378  -2
   3   5   0 11.0146 5.73378   1
   4   5   1 288.458 22.0810  -3
   4   5   0 288.458 22.0810   1
   5   5   0 25.4160 4.41621   1
  -6   5   1 154.876 8.80111  -2
   6   5   0 154.876 8.80111   1
  -7   5   1 12.0747 5.32485  -2
   7   5   0 12.0747 5.32485   1
   0   6   0 238.798 12.5046  -2
   0   6   0 238.798 12.5046   1
   1   6   0 725.311 34.9777  -2
   1   6   0 725.311 34.9777   1
  -1   6   1 854.802 71.9328  -3
   1   6   0 854.802 71.9328  -2
   1   6   0 854.802 71.9328   1
   1   6   1 1038.73 87.4126  -3
   1   6   0 1038.73 87.4126  -2
   1   6   0 1038.73 87.4126   1
   2   6   1 140.755 9.24038  -3
   2   6   0 140.755 9.24038   1
   3   6   1 87.4535 5.26633  -3
   3   6   0 87.4535 5.26633   1
  -3   6   1 50.9057 8.67192  -3
   3   6   0 50.9057 8.67192  -2
   3   6   0 50.9057 8.67192   1
   4   6   1 8.37778 11.9194  -3
  -4   6   1 8.37778 11.9194  -2
   4   6   0 8.37778 11.9194   1
   5   6   1 40.5029 4.96346  -3
  -5   6   1 40.5029 4.96346  -2
   5   6   0 40.5029 4.96346   1
  -6   6   1 7.10862 8.96194  -2
   6   6   0 7.10862 8.96194   1
   6   6   1 -6.0750 5.22739  -3
  -6   6   1 -6.0750 5.22739  -2
   6   6   0 -6.0750 5.22739   1
   0   7   0 2.91931 2.47613  -2
   0   7   0 2.91931 2.47613   1
   1   7   0 -0.2791 2.30351  -2
   1   7   0 -0.2791 2.30351   1
   2   7   0 20.0993 3.89437  -2
   2   7   0 20.0993 3.89437   1
  -3   7   2 38.5133 6.61942  -3
   3   7   0 38.5133 6.61942   1
   3   7   0 51.1504 8.72375  -2
   3   7   0 51.1504 8.72375   1
   4   7   1 81.4135 8.71165  -3
  -4   7   1 81.4135 8.71165  -2
   4   7   0 81.4135 8.71165   1
  -4   7   2 80.5512 7.90593  -3
   4   7   0 80.5512 7.90593   1
  -5   7   2 12.1013 6.15802  -3
   5   7   0 12.1013 6.15802   1
   5   7   1 5.47519 6.93801  -3
  -5   7   1 5.47519 6.93801  -2
   5   7   0 5.47519 6.93801   1
  -6   7   1 40.8069 6.60780  -2
   6   7   0 40.8069 6.60780   1
   0   8   2 290.942 16.2028  -3
   0   8   0 290.942 16.2028  -2
   0   8   0 290.942 16.2028   1
  -1   8   2 64.5385 6.28233  -3
   1   8   0 64.5385 6.28233  -2
   1   8   0 64.5385 6.28233   1
   2   8   0 89.7752 10.8693   1
  -3   8   2 -2.1542 6.99830  -3
   3   8   0 -2.1542 6.99830   1
   4   8   1 2.93861 14.0234  -3
  -4   8   1 2.93861 14.0234  -2
   4   8   0 2.93861 14.0234   1
  -4   8   2 17.9075 5.62926  -3
   4   8   0 17.9075 5.62926   1
   0   9   2 0.46914 5.84346  -3
   0   9   0 0.46914 5.84346  -2
   0   9   0 0.46914 5.84346   1
  -1   9   2 13.4788 5.86538  -3
   1   9   0 13.4788 5.86538  -2
   1   9   0 13.4788 5.86538   1
   1   9   2 34.8847 11.8763  -3
   1   9   0 34.8847 11.8763  -2
   1   9   0 34.8847 11.8763   1
  -2   9   2 -10.312 8.70348  -3
   2   9   0 -10.312 8.70348  -2
   2   9   0 -10.312 8.70348   1
   3   9   0 22.9153 3.79085   1
  -8   0   2 70.4575 6.92394  -2
  -8   0   1 70.4575 6.92394   1
  -7   0   2 2.75225 4.12526  -2
  -7   0   1 2.75225 4.12526   1
  -6   0   2 511.024 28.7208  -2
  -6   0   1 511.024 28.7208   1
  -5   0   2 4.27110 5.01427  -2
  -5   0   1 4.27110 5.01427   1
  -4   0   1 7.43975 1.47611   1
  -3   0   1 -2.1139 0.96635   1
  -2   0   1 18.1800 2.47180  -2
  -2   0   1 18.1800 2.47180   1
  -1   0   1 -0.1606 0.89444  -2
  -1   0   1 -0.1606 0.89444   1
   0   0   1 151.224 10.2952  -2
   0   0   1 151.224 10.2952   1
   0   0   1 127.344 9.44898  -3
   0   0   1 127.344 9.44898   1
   1   0   1 0.30321 0.94429  -3
   1   0   1 0.30321 0.94429   1
   1   0   1 0.40991 0.85630  -2
   1   0   1 0.40991 0.85630   1
   2   0   1 1895.49 68.6743   1
   3   0   1 1.44216 0.53883   1
   4   0   1 422.506 15.3903   1
   5   0   0 -1.7354 2.77279  -2
   5   0   1 -1.7354 2.77279   1
   6   0   0 161.036 7.54816  -2
   6   0   1 161.036 7.54816   1
   7   0   0 4.57145 4.21093  -2
   7   0   1 4.57145 4.21093   1
   8   0   0 36.8132 6.09034  -2
   8   0   1 36.8132 6.09034   1
  -8   1   2 4.10342 3.61420  -2
  -8   1   1 4.10342 3.61420   1
  -7   1   2 55.9743 3.77237  -2
  -7   1   1 55.9743 3.77237   1
  -6   1   2 21.6025 2.93687  -2
  -6   1   1 21.6025 2.93687   1
  -5   1   1 169.898 14.1028  -3
  -5   1   1 169.898 14.1028   1
  -5   1   2 143.599 9.42506  -2
  -5   1   1 143.599 9.42506   1
  -4   1   1 163.659 7.19286  -3
  -4   1   1 163.659 7.19286   1
  -3   1   1 1395.75 57.8035  -3
  -3   1   1 1395.75 57.8035   1
  -2   1   1 696.310 58.2041  -2
  -2   1   1 696.310 58.2041   1
  -1   1   1 5280.68 138.730   1
   0   1   1 248.798 11.9650  -2
   0   1   1 248.798 11.9650   1
   1   1   1 1092.13 45.4344  -2
   1   1   1 1092.13 45.4344   1
   2   1   1 8.71647 2.90781  -2
   2   1   1 8.71647 2.90781   1
   2   1   1 6.08702 2.47466  -3
   2   1   1 6.08702 2.47466   1
   3   1   1 5.40151 1.50249  -3
   3   1   1 5.40151 1.50249   1
   4   1   1 8.00018 2.57738  -3
   4   1   1 8.00018 2.57738   1
   5   1   0 439.016 37.2726  -3
   5   1   0 439.016 37.2726  -2
   5   1   1 439.016 37.2726   1
   5   1   0 335.358 23.0742  -2
   5   1   1 335.358 23.0742   1
   5   1   1 86.3620 7.97982  -3
   5   1   1 86.3620 7.97982   1
   6   1   0 62.6452 5.73365  -2
   6   1   1 62.6452 5.73365   1
   6   1   0 74.2759 9.56682  -3
   6   1   0 74.2759 9.56682  -2
   6   1   1 74.2759 9.56682   1
   7   1   0 227.299 17.9479  -2
   7   1   1 227.299 17.9479   1
   7   1   0 237.946 14.3826  -3
   7   1   0 237.946 14.3826  -2
   7   1   1 237.946 14.3826   1
   7   1   1 281.877 25.8201  -3
   7   1   0 281.877 25.8201  -2
   7   1   1 281.877 25.8201   1
   8   1   0 11.5055 9.03133  -3
   8   1   0 11.5055 9.03133  -2
   8   1   1 11.5055 9.03133   1
   8   1   1 29.4375 11.8688  -3
   8   1   0 29.4375 11.8688  -2
   8   1   1 29.4375 11.8688   1
   8   1   0 5.34083 7.65893  -2
   8   1   1 5.34083 7.65893   1
  -8   2   2 59.1113 7.03152  -2
  -8   2   1 59.1113 7.03152   1
  -8   2   1 56.5468 8.33806  -3
  -8   2   2 56.5468 8.33806  -2
  -8   2   1 56.5468 8.33806   1
  -7   2   2 66.6654 4.73689  -2
  -7   2   1 66.6654 4.73689   1
  -7   2   1 91.6243 10.5684  -3
  -7   2   2 91.6243 10.5684  -2
  -7   2   1 91.6243 10.5684   1
  -6   2   2 305.685 11.2332  -2
  -6   2   1 305.685 11.2332   1
  -5   2   2 168.086 7.11942  -2
  -5   2   1 168.086 7.11942   1
  -4   2   1 2.88374 0.90148   1
  -3   2   1 45.4940 1.45089   1
  -2   2   1 0.80700 0.36040   1
  -1   2   1 348.815 9.57379   1
   0   2   1 97.2895 3.39860  -2
   0   2   1 97.2895 3.39860   1
   1   2   1 168.523 6.08417  -2
   1   2   1 168.523 6.08417   1
   2   2   1 825.012 20.0753   1
   3   2   0 316.089 26.8954  -3
   3   2   0 316.089 26.8954  -2
   3   2   1 316.089 26.8954   1
   4   2   1 311.382 23.4597  -3
   4   2   1 311.382 23.4597   1
   5   2   1 158.258 9.35383  -3
   5   2   0 158.258 9.35383  -2
   5   2   1 158.258 9.35383   1
   5   2   0 107.159 7.53141  -3
   5   2   0 107.159 7.53141  -2
   5   2   1 107.159 7.53141   1
   6   2   1 121.376 6.34405  -3
   6   2   0 121.376 6.34405  -2
   6   2   1 121.376 6.34405   1
   6   2   0 100.139 5.76180  -3
   6   2   0 100.139 5.76180  -2
   6   2   1 100.139 5.76180   1
   7   2   1 36.3318 3.92747  -3
   7   2   0 36.3318 3.92747  -2
   7   2   1 36.3318 3.92747   1
   7   2   0 29.1229 3.76845  -3
   7   2   0 29.1229 3.76845  -2
   7   2   1 29.1229 3.76845   1
   8   2   1 15.0555 7.46355  -3
   8   2   0 15.0555 7.46355  -2
   8   2   1 15.0555 7.46355   1
   8   2   0 25.2435 5.86185  -3
   8   2   0 25.2435 5.86185  -2
   8   2   1 25.2435 5.86185   1
  -8   3   2 29.9432 8.64088  -2
  -8   3   1 29.9432 8.64088   1
  -7   3   2 13.6085 3.21456  -2
  -7   3   1 13.6085 3.21456   1
  -6   3   2 63.8312 4.22588  -2
  -6   3   1 63.8312 4.22588   1
  -5   3   2 16.3021 4.56817  -2
  -5   3   1 16.3021 4.56817   1
  -4   3   1 528.393 15.4437   1
  -3   3   1 227.717 6.06072   1
  -2   3   1 1509.14 41.2603   1
  -1   3   1 995.686 27.2370   1
   0   3   1 779.448 27.0017  -2
   0   3   1 779.448 27.0017   1
   1   3   1 125.471 3.91745  -2
   1   3   1 125.471 3.91745   1
   1   3   0 98.8250 8.91957  -3
   1   3   1 98.8250 8.91957   1
   2   3   0 22.9069 4.05671  -3
   2   3   1 22.9069 4.05671  -2
   2   3   1 22.9069 4.05671   1
   3   3   0 16.2804 1.32158  -3
   3   3   1 16.2804 1.32158   1
   4   3   0 148.283 8.57149  -3
   4   3   1 148.283 8.57149   1
   5   3   0 105.619 5.77447  -3
   5   3   1 105.619 5.77447   1
   6   3   1 291.366 13.3173  -3
   6   3   0 291.366 13.3173  -2
   6   3   1 291.366 13.3173   1
   6   3   0 289.496 25.3766  -3
   6   3   0 289.496 25.3766  -2
   6   3   1 289.496 25.3766   1
   7   3   1 59.1120 7.01790  -3
   7   3   0 59.1120 7.01790  -2
   7   3   1 59.1120 7.01790   1
   7   3   0 60.5704 9.01594  -3
   7   3   0 60.5704 9.01594  -2
   7   3   1 60.5704 9.01594   1
   8   3   1 69.6263 7.02031  -3
   8   3   1 69.6263 7.02031   1
  -7   4   2 130.937 6.29415  -2
  -7   4   1 130.937 6.29415   1
  -6   4   2 44.3666 3.87382  -2
  -6   4   1 44.3666 3.87382   1
  -5   4   2 384.013 21.1544  -2
  -5   4   1 384.013 21.1544   1
  -4   4   1 2.68375 1.46254   1
  -3   4   1 30.3509 1.46444   1
  -2   4   1 27.6757 1.26560   1
  -1   4   2 151.009 11.0172  -3
  -1   4   1 151.009 11.0172   1
  -1   4   1 124.167 9.00775  -2
  -1   4   1 124.167 9.00775   1
   0   4   0 48.0169 2.35606  -3
   0   4   1 48.0169 2.35606  -2
   0   4   1 48.0169 2.35606   1
   0   4   2 20.9052 5.77653  -3
   0   4   1 20.9052 5.77653   1
   0   4   1 13.1375 2.17858  -2
   0   4   1 13.1375 2.17858   1
   1   4   1 381.010 18.5292  -2
   1   4   1 381.010 18.5292   1
   1   4   0 784.637 33.6681  -3
   1   4   1 784.637 33.6681  -2
   1   4   1 784.637 33.6681   1
   1   4   2 366.912 32.1019  -3
   1   4   1 366.912 32.1019  -2
   1   4   1 366.912 32.1019   1
   2   4   0 42.3254 3.46411  -3
   2   4   1 42.3254 3.46411   1
   2   4   0 48.9867 5.89507  -3
   2   4   1 48.9867 5.89507  -2
   2   4   1 48.9867 5.89507   1
   3   4   0 480.659 24.0360  -3
   3   4   1 480.659 24.0360   1
   4   4   0 43.2308 5.79293  -3
   4   4   1 43.2308 5.79293   1
   5   4   0 163.435 13.3072  -2
   5   4   1 163.435 13.3072   1
   6   4   0 18.8450 3.93325  -2
   6   4   1 18.8450 3.93325   1
   7   4   0 24.3582 3.79734  -2
   7   4   1 24.3582 3.79734   1
  -7   5   2 -3.8938 3.90245  -2
  -7   5   1 -3.8938 3.90245   1
  -6   5   2 29.2484 3.90598  -2
  -6   5   1 29.2484 3.90598   1
   5   5   0 14.9141 13.7195  -3
  -5   5   2 14.9141 13.7195  -2
  -5   5   1 14.9141 13.7195   1
  -5   5   2 27.4134 8.23111  -2
  -5   5   1 27.4134 8.23111   1
   4   5   0 398.878 20.4977  -3
  -4   5   1 398.878 20.4977   1
   3   5   0 15.2289 2.98024  -3
  -3   5   1 15.2289 2.98024   1
   2   5   0 1085.01 45.0332  -3
  -2   5   1 1085.01 45.0332   1
  -2   5   2 1091.88 91.5235  -3
  -2   5   1 1091.88 91.5235   1
  -1   5   2 -7.5619 5.63647  -3
  -1   5   1 -7.5619 5.63647   1
   1   5   0 -3.4266 2.74690  -3
  -1   5   1 -3.4266 2.74690   1
  -1   5   1 8.18191 3.32316  -2
  -1   5   1 8.18191 3.32316   1
   1   5   0 1.40821 3.02538  -3
  -1   5   1 1.40821 3.02538  -2
  -1   5   1 1.40821 3.02538   1
   0   5   1 623.090 31.8824  -2
   0   5   1 623.090 31.8824   1
   0   5   0 645.481 26.9932  -3
   0   5   1 645.481 26.9932  -2
   0   5   1 645.481 26.9932   1
   1   5   1 -2.9131 3.75538  -2
   1   5   1 -2.9131 3.75538   1
   1   5   0 -11.487 4.96591  -3
   1   5   1 -11.487 4.96591  -2
   1   5   1 -11.487 4.96591   1
   2   5   0 5.07439 5.07529  -3
   2   5   1 5.07439 5.07529  -2
   2   5   1 5.07439 5.07529   1
   2   5   2 85.2720 6.03857  -3
   2   5   1 85.2720 6.03857   1
   3   5   2 8.27510 4.97301  -3
   3   5   1 8.27510 4.97301   1
   4   5   2 93.2856 13.4343  -3
   4   5   1 93.2856 13.4343   1
   5   5   0 5.61518 4.14038  -2
   5   5   1 5.61518 4.14038   1
   6   5   0 181.619 9.14943  -2
   6   5   1 181.619 9.14943   1
   7   5   0 9.32471 5.21000  -2
   7   5   1 9.32471 5.21000   1
  -6   6   2 24.7072 10.0721  -2
  -6   6   1 24.7072 10.0721   1
   6   6   0 -2.1195 6.05574  -3
  -6   6   2 -2.1195 6.05574  -2
  -6   6   1 -2.1195 6.05574   1
   5   6   0 75.8331 8.50066  -3
  -5   6   2 75.8331 8.50066  -2
  -5   6   1 75.8331 8.50066   1
   4   6   0 11.2310 4.70226  -3
  -4   6   1 11.2310 4.70226   1
   4   6   0 -23.079 12.5663  -3
  -4   6   2 -23.079 12.5663  -2
  -4   6   1 -23.079 12.5663   1
  -3   6   1 5.68900 6.83771  -2
  -3   6   1 5.68900 6.83771   1
   3   6   0 1.05451 3.79376  -3
  -3   6   1 1.05451 3.79376   1
   2   6   0 60.6392 3.62765  -3
  -2   6   1 60.6392 3.62765   1
  -2   6   1 53.2911 7.52192  -2
  -2   6   1 53.2911 7.52192   1
  -1   6   1 7.58810 2.13801  -2
  -1   6   1 7.58810 2.13801   1
   1   6   0 110.135 13.2321  -3
  -1   6   1 110.135 13.2321  -2
  -1   6   1 110.135 13.2321   1
   0   6   1 -0.8233 2.13964  -2
   0   6   1 -0.8233 2.13964   1
   0   6   0 34.6637 8.19400  -3
   0   6   1 34.6637 8.19400  -2
   0   6   1 34.6637 8.19400   1
   1   6   1 217.464 10.9688  -2
   1   6   1 217.464 10.9688   1
   2   6   2 42.4740 11.0659  -3
   2   6   1 42.4740 11.0659   1
   2   6   1 85.2929 7.83105  -2
   2   6   1 85.2929 7.83105   1
   3   6   2 329.551 19.1975  -3
   3   6   1 329.551 19.1975   1
   4   6   2 16.6340 12.0552  -3
   4   6   1 16.6340 12.0552   1
   5   6   2 108.504 11.3202  -3
   5   6   0 108.504 11.3202  -2
   5   6   1 108.504 11.3202   1
   6   6   0 -14.375 6.08031  -2
   6   6   1 -14.375 6.08031   1
  -6   6   1 4.02887 4.59515  -3
   6   6   0 4.02887 4.59515  -2
   6   6   1 4.02887 4.59515   1
   6   6   2 -18.572 10.5293  -3
   6   6   0 -18.572 10.5293  -2
   6   6   1 -18.572 10.5293   1
  -6   7   1 1.59561 5.32532   1
   5   7   0 -5.8406 7.82670  -3
  -5   7   2 -5.8406 7.82670  -2
  -5   7   1 -5.8406 7.82670   1
   4   7   0 -7.3463 13.6988  -3
  -4   7   2 -7.3463 13.6988  -2
  -4   7   1 -7.3463 13.6988   1
  -3   7   1 195.835 18.7164  -2
  -3   7   1 195.835 18.7164   1
  -2   7   1 237.977 13.1323  -2
  -2   7   1 237.977 13.1323   1
  -1   7   1 116.738 5.97769  -2
  -1   7   1 116.738 5.97769   1
   0   7   1 170.142 6.18425  -2
   0   7   1 170.142 6.18425   1
   1   7   1 13.3310 2.71459  -2
   1   7   1 13.3310 2.71459   1
   2   7   1 8.37572 3.98531  -2
   2   7   1 8.37572 3.98531   1
  -3   7   1 36.5783 10.1679  -3
   3   7   1 36.5783 10.1679  -2
   3   7   1 36.5783 10.1679   1
  -3   7   1 47.2040 7.35910  -3
   3   7   1 47.2040 7.35910   1
  -4   7   1 13.1346 5.08063  -3
   4   7   1 13.1346 5.08063   1
   4   7   2 23.1326 15.1719  -3
   4   7   0 23.1326 15.1719  -2
   4   7   1 23.1326 15.1719   1
   5   7   2 -20.510 8.64719  -3
   5   7   0 -20.510 8.64719  -2
   5   7   1 -20.510 8.64719   1
  -5   7   1 35.5170 7.89342  -3
   5   7   0 35.5170 7.89342  -2
   5   7   1 35.5170 7.89342   1
  -4   8   1 12.0070 2.37377   1
  -3   8   1 34.1064 9.83299  -2
  -3   8   1 34.1064 9.83299   1
  -2   8   1 20.2413 3.67686  -2
  -2   8   1 20.2413 3.67686   1
  -1   8   1 17.8025 3.27472  -2
  -1   8   1 17.8025 3.27472   1
   0   8   1 48.2728 5.70605  -3
   0   8   1 48.2728 5.70605  -2
   0   8   1 48.2728 5.70605   1
   0   8   1 17.1333 4.14045  -2
   0   8   1 17.1333 4.14045   1
  -1   8   1 38.5124 5.46480  -3
   1   8   1 38.5124 5.46480  -2
   1   8   1 38.5124 5.46480   1
   1   8   1 29.3561 5.11242  -2
   1   8   1 29.3561 5.11242   1
  -2   8   1 144.993 9.66644  -3
   2   8   1 144.993 9.66644  -2
   2   8   1 144.993 9.66644   1
  -3   8   1 64.9595 11.4012  -3
   3   8   1 64.9595 11.4012  -2
   3   8   1 64.9595 11.4012   1
  -3   8   1 36.8223 6.43371  -3
   3   8   1 36.8223 6.43371   1
   4   8   2 -5.2090 16.5035  -3
   4   8   0 -5.2090 16.5035  -2
   4   8   1 -5.2090 16.5035   1
  -4   8   1 15.5279 5.25409  -3
   4   8   1 15.5279 5.25409   1
  -3   9   1 118.652 15.1692  -2
  -3   9   1 118.652 15.1692   1
  -2   9   1 5.02365 4.08782  -2
  -2   9   1 5.02365 4.08782   1
   1   9   1 111.532 14.1669  -3
  -1   9   1 111.532 14.1669  -2
  -1   9   1 111.532 14.1669   1
  -1   9   1 80.9223 6.44331  -2
  -1   9   1 80.9223 6.44331   1
   0   9   1 31.9747 9.01133  -3
   0   9   1 31.9747 9.01133  -2
   0   9   1 31.9747 9.01133   1
   0   9   1 11.6877 4.77392  -2
   0   9   1 11.6877 4.77392   1
  -1   9   1 23.8686 5.33153  -3
   1   9   1 23.8686 5.33153  -2
   1   9   1 23.8686 5.33153   1
   1   9   1 21.1010 9.64767  -2
   1   9   1 21.1010 9.64767   1
  -2   9   1 -0.1748 5.88493  -3
   2   9   1 -0.1748 5.88493  -2
   2   9   1 -0.1748 5.88493   1
   3   9   1 5.17946 3.34120   1
  -8   0   3 10.0004 5.97357  -2
  -8   0   2 10.0004 5.97357   1
  -7   0   3 2.71903 4.95170  -2
  -7   0   2 2.71903 4.95170   1
  -6   0   3 180.852 16.5137  -2
  -6   0   2 180.852 16.5137   1
  -5   0   3 7.93866 5.51082  -2
  -5   0   2 7.93866 5.51082   1
  -4   0   2 425.185 23.8015   1
  -3   0   2 1.03043 1.20539   1
  -2   0   2 211.319 17.8181  -2
  -2   0   2 211.319 17.8181   1
  -1   0   2 2.04213 1.19593  -2
  -1   0   2 2.04213 1.19593   1
   0   0   2 320.762 10.5402   1
   1   0   2 1.28652 0.27726   1
   2   0   2 809.581 26.5675   1
   3   0   2 -0.0074 0.48206   1
   4   0   2 401.439 17.3552   1
   5   0   1 5.04610 6.22511  -2
   5   0   2 5.04610 6.22511   1
   6   0   1 181.380 10.4560  -2
   6   0   2 181.380 10.4560   1
   7   0   1 4.62185 5.06566  -2
   7   0   2 4.62185 5.06566   1
   8   0   1 30.8377 11.4124  -2
   8   0   2 30.8377 11.4124   1
  -8   1   3 5.53362 3.72881  -2
  -8   1   2 5.53362 3.72881   1
  -7   1   3 169.974 9.03440  -2
  -7   1   2 169.974 9.03440   1
  -6   1   3 16.3962 4.66625  -2
  -6   1   2 16.3962 4.66625   1
  -5   1   3 80.5983 6.13035  -2
  -5   1   2 80.5983 6.13035   1
  -4   1   2 -1.1311 1.12701   1
  -3   1   2 69.6681 2.18050   1
  -2   1   2 33.3528 1.03230   1
  -1   1   2 1487.66 34.4848   1
   0   1   2 279.724 6.51026   1
   1   1   2 4716.58 248.203  -2
   1   1   2 4716.58 248.203   1
   2   1   2 86.7748 2.11141   1
   3   1   2 751.289 18.2965   1
   4   1   2 38.4806 1.61514   1
   5   1   1 409.188 35.0111  -2
   5   1   2 409.188 35.0111   1
   6   1   1 30.4675 3.24528  -2
   6   1   2 30.4675 3.24528   1
   7   1   1 97.9948 4.29042  -2
   7   1   2 97.9948 4.29042   1
   8   1   1 6.83697 6.03206  -2
   8   1   2 6.83697 6.03206   1
  -8   2   3 8.11651 4.55715  -2
  -8   2   2 8.11651 4.55715   1
  -7   2   3 16.8822 3.84754  -2
  -7   2   2 16.8822 3.84754   1
  -6   2   3 93.8722 6.04809  -2
  -6   2   2 93.8722 6.04809   1
  -5   2   3 231.228 20.3542  -2
  -5   2   2 231.228 20.3542   1
  -4   2   2 267.816 7.26875   1
  -3   2   2 209.463 6.11384   1
  -2   2   2 186.777 5.77381   1
  -1   2   2 155.516 3.83616   1
   0   2   2 383.221 26.0758  -2
   0   2   2 383.221 26.0758   1
   1   2   2 -0.0136 1.95991  -2
   1   2   2 -0.0136 1.95991   1
   2   2   2 377.127 9.22670   1
   3   2   2 299.201 7.04793   1
   4   2   2 241.461 6.59155   1
   5   2   1 201.488 12.7055  -2
   5   2   2 201.488 12.7055   1
   6   2   1 113.090 9.39731  -3
   6   2   1 113.090 9.39731  -2
   6   2   2 113.090 9.39731   1
   6   2   1 103.770 5.06373  -2
   6   2   2 103.770 5.06373   1
   7   2   1 39.7675 3.87709  -2
   7   2   2 39.7675 3.87709   1
   8   2   2 12.7630 2.89712   1
  -8   3   2 44.4083 4.17376   1
  -7   3   3 37.3192 4.96715  -2
  -7   3   2 37.3192 4.96715   1
  -6   3   3 53.1739 4.42744  -2
  -6   3   2 53.1739 4.42744   1
  -5   3   3 17.2277 8.89298  -2
  -5   3   2 17.2277 8.89298   1
  -4   3   2 1.00609 1.00661   1
  -3   3   2 46.9643 1.82891   1
  -2   3   2 89.6463 2.85168   1
  -1   3   2 200.152 13.8023  -2
  -1   3   2 200.152 13.8023   1
   0   3   2 1129.32 54.2287  -2
   0   3   2 1129.32 54.2287   1
   1   3   2 462.100 31.5843  -2
   1   3   2 462.100 31.5843   1
   2   3   2 368.646 9.04548   1
   3   3   2 127.481 3.51733   1
   4   3   2 184.666 5.43956   1
   5   3   2 85.8469 3.13526   1
   6   3   1 126.605 5.19759  -2
   6   3   2 126.605 5.19759   1
   7   3   1 24.0734 7.45394  -2
   7   3   2 24.0734 7.45394   1
  -7   4   3 22.4329 4.01263  -2
  -7   4   2 22.4329 4.01263   1
  -6   4   3 -3.6698 4.53700  -2
  -6   4   2 -3.6698 4.53700   1
  -5   4   3 331.829 30.1281  -2
  -5   4   2 331.829 30.1281   1
  -4   4   2 39.9215 2.18401   1
  -3   4   2 289.972 8.81198   1
  -2   4   2 92.8056 2.84854   1
  -1   4   2 369.432 25.3172  -2
  -1   4   2 369.432 25.3172   1
   0   4   2 113.343 5.99426  -2
   0   4   2 113.343 5.99426   1
   1   4   2 8.98762 3.44267  -2
   1   4   2 8.98762 3.44267   1
   1   4   1 50.5483 6.08927  -3
   1   4   2 50.5483 6.08927   1
   2   4   1 30.1168 5.26141  -3
   2   4   2 30.1168 5.26141   1
   3   4   1 479.587 40.5250  -3
   3   4   2 479.587 40.5250   1
   4   4   2 20.2698 1.65609   1
   5   4   1 274.947 24.0070  -2
   5   4   2 274.947 24.0070   1
   6   4   1 8.62224 3.20218  -2
   6   4   2 8.62224 3.20218   1
   7   4   1 40.3760 5.53727  -2
   7   4   2 40.3760 5.53727   1
  -7   5   3 -3.4314 5.43494  -2
  -7   5   2 -3.4314 5.43494   1
  -6   5   3 36.2869 4.67554  -2
  -6   5   2 36.2869 4.67554   1
  -5   5   3 -9.4597 12.0865  -2
  -5   5   2 -9.4597 12.0865   1
  -4   5   2 0.49980 1.64137   1
  -3   5   2 39.1264 1.92447   1
  -2   5   2 112.258 3.75394   1
  -1   5   2 20.7500 4.19649  -2
  -1   5   2 20.7500 4.19649   1
   0   5   2 749.888 26.0501  -2
   0   5   2 749.888 26.0501   1
   1   5   2 53.6605 5.88582  -2
   1   5   2 53.6605 5.88582   1
   1   5   1 46.2149 6.74275  -3
   1   5   2 46.2149 6.74275   1
   2   5   2 431.886 30.0008  -2
   2   5   2 431.886 30.0008   1
   2   5   1 310.455 26.6707  -3
   2   5   2 310.455 26.6707   1
   3   5   2 7.07411 1.41794   1
   4   5   2 164.128 6.00513   1
   5   5   2 -2.5943 1.73500   1
   6   5   1 66.1817 5.83964  -2
   6   5   2 66.1817 5.83964   1
   7   5   1 -14.455 8.30469  -2
   7   5   2 -14.455 8.30469   1
  -6   6   3 14.7092 5.02587  -2
  -6   6   2 14.7092 5.02587   1
  -5   6   3 79.5769 9.24292  -2
  -5   6   2 79.5769 9.24292   1
  -4   6   2 13.1560 1.49180   1
  -3   6   2 127.682 4.03384   1
  -2   6   2 5.50948 1.17981   1
  -1   6   2 156.011 8.84221  -2
  -1   6   2 156.011 8.84221   1
   0   6   2 -2.1521 3.11713  -2
   0   6   2 -2.1521 3.11713   1
   1   6   2 5.41295 4.92642  -2
   1   6   2 5.41295 4.92642   1
   2   6   2 -4.4612 5.99575  -2
   2   6   2 -4.4612 5.99575   1
   3   6   2 121.811 5.49445   1
   4   6   2 26.9143 2.13848   1
   5   6   1 85.9346 9.59235  -2
   5   6   2 85.9346 9.59235   1
   6   6   1 -19.803 5.67132  -2
   6   6   2 -19.803 5.67132   1
   6   6   0 16.9093 10.6739  -3
   6   6   1 16.9093 10.6739  -2
   6   6   2 16.9093 10.6739   1
  -5   7   3 -14.175 8.91624  -2
  -5   7   2 -14.175 8.91624   1
  -4   7   2 7.36821 1.57369   1
  -3   7   2 12.3929 1.66210   1
  -2   7   2 59.2172 2.78624   1
  -1   7   2 106.435 6.76167  -2
  -1   7   2 106.435 6.76167   1
   0   7   2 154.052 7.30586  -2
   0   7   2 154.052 7.30586   1
   1   7   2 230.268 13.0802  -2
   1   7   2 230.268 13.0802   1
   2   7   2 71.4616 6.23191  -2
   2   7   2 71.4616 6.23191   1
   3   7   0 42.5258 8.82079  -3
   3   7   2 42.5258 8.82079   1
   4   7   0 57.1551 9.84048  -3
   4   7   2 57.1551 9.84048   1
   5   7   0 43.3106 11.4093  -3
   5   7   1 43.3106 11.4093  -2
   5   7   2 43.3106 11.4093   1
   5   7   0 13.5353 7.88022  -3
   5   7   2 13.5353 7.88022   1
  -4   8   3 27.0995 12.7766  -2
  -4   8   2 27.0995 12.7766   1
  -3   8   2 27.1905 2.13376   1
  -2   8   2 7.56790 1.94084   1
  -1   8   2 39.8069 4.74105  -2
  -1   8   2 39.8069 4.74105   1
   0   8   2 11.8522 4.78292  -2
   0   8   2 11.8522 4.78292   1
   0   8   0 58.3379 12.5378  -3
   0   8   2 58.3379 12.5378  -2
   0   8   2 58.3379 12.5378   1
   1   8   0 17.2375 10.9699  -3
   1   8   2 17.2375 10.9699  -2
   1   8   2 17.2375 10.9699   1
   2   8   2 1.56908 6.55783  -2
   2   8   2 1.56908 6.55783   1
   2   8   0 31.9305 12.0624  -3
   2   8   2 31.9305 12.0624  -2
   2   8   2 31.9305 12.0624   1
   3   8   0 13.5691 5.71076  -3
   3   8   2 13.5691 5.71076   1
   4   8   0 43.6721 6.36708  -3
   4   8   2 43.6721 6.36708   1
  -3   9   2 3.76983 3.65838   1
  -2   9   2 15.6421 2.41379   1
   1   9   0 117.449 15.8376  -3
  -1   9   2 117.449 15.8376  -2
  -1   9   2 117.449 15.8376   1
  -1   9   2 80.1215 6.73171  -2
  -1   9   2 80.1215 6.73171   1
   0   9   2 12.1944 8.88063  -2
   0   9   2 12.1944 8.88063   1
   0   9   0 16.2340 10.8412  -3
   0   9   2 16.2340 10.8412  -2
   0   9   2 16.2340 10.8412   1
   1   9   0 111.486 14.5102  -3
   1   9   2 111.486 14.5102  -2
   1   9   2 111.486 14.5102   1
   2   9   0 23.2823 12.1660  -3
   2   9   2 23.2823 12.1660  -2
   2   9   2 23.2823 12.1660   1
   3   9   2 8.16694 3.75911   1
  -8   0   3 33.5833 4.36794   1
  -7   0   3 -3.0749 2.91909   1
  -6   0   3 13.3821 2.58541   1
  -5   0   3 0.10190 1.75023   1
  -4   0   3 619.248 28.0278   1
  -3   0   3 0.79826 1.03365   1
  -2   0   3 1136.66 37.2882   1
  -1   0   3 1.08545 0.30522   1
   0   0   3 1809.16 64.4789   1
   1   0   3 0.16839 0.37654   1
   2   0   3 1854.74 60.8036   1
   3   0   3 -0.6731 0.63521   1
   4   0   3 204.769 9.02183   1
   5   0   3 -1.1563 1.58142   1
   6   0   3 77.5095 4.17152   1
   7   0   2 14.4668 9.40576  -2
   7   0   3 14.4668 9.40576   1
   8   0   2 173.199 19.4186  -2
   8   0   3 173.199 19.4186   1
  -8   1   3 0.81256 2.30013   1
  -7   1   3 68.0591 3.24885   1
  -6   1   3 8.03441 1.58378   1
  -5   1   3 115.384 4.15653   1
  -4   1   3 12.2308 1.14350   1
  -3   1   3 97.4459 2.78221   1
  -2   1   3 42.9300 1.28961   1
  -1   1   3 194.005 4.54256   1
   0   1   3 3.01756 0.28046   1
   1   1   3 2112.03 48.9480   1
   2   1   3 105.846 2.48664   1
   3   1   3 840.866 19.6706   1
   4   1   3 16.3222 1.06487   1
   5   1   3 31.6714 1.59846   1
   6   1   2 11.8718 7.51412  -2
   6   1   3 11.8718 7.51412   1
   7   1   2 43.5736 5.50707  -2
   7   1   3 43.5736 5.50707   1
   8   1   2 9.04709 8.50413  -2
   8   1   3 9.04709 8.50413   1
  -8   2   3 15.1110 2.84801   1
  -7   2   3 13.2992 2.33764   1
  -6   2   4 3.91521 6.99803  -2
  -6   2   3 3.91521 6.99803   1
  -5   2   3 45.9537 2.23818   1
  -4   2   3 388.298 11.4493   1
  -3   2   3 575.392 15.4571   1
  -2   2   3 512.441 12.6894   1
  -1   2   3 721.251 16.7562   1
   0   2   3 509.939 11.8730   1
   1   2   3 667.800 16.2811   1
   2   2   3 671.919 16.3867   1
   3   2   3 124.682 3.28284   1
   4   2   3 89.4522 2.71848   1
   5   2   3 12.8957 1.21934   1
   6   2   2 74.7011 6.87109  -2
   6   2   3 74.7011 6.87109   1
   7   2   2 85.2539 6.82706  -2
   7   2   3 85.2539 6.82706   1
  -7   3   4 16.6372 9.30115  -2
  -7   3   3 16.6372 9.30115   1
  -6   3   3 43.6584 2.26243   1
  -5   3   3 41.5913 2.35003   1
  -4   3   3 49.9982 2.45897   1
  -3   3   3 53.4161 2.16788   1
  -2   3   3 179.133 4.80223   1
  -1   3   3 84.0328 2.21490   1
   0   3   3 2.47210 0.47125   1
   1   3   3 383.669 9.41382   1
   2   3   3 431.896 10.6032   1
   3   3   3 215.197 5.78937   1
   4   3   3 63.6952 2.28014   1
   5   3   3 10.9439 1.25299   1
   6   3   2 48.6871 7.82001  -2
   6   3   3 48.6871 7.82001   1
   7   3   2 18.3806 7.84657  -2
   7   3   3 18.3806 7.84657   1
  -7   4   4 26.6902 10.1435  -2
  -7   4   3 26.6902 10.1435   1
  -6   4   3 -1.3522 1.84320   1
  -5   4   3 61.4642 2.78883   1
  -4   4   3 73.3728 3.23432   1
  -3   4   3 738.448 25.3901   1
  -2   4   3 20.5873 1.12358   1
  -1   4   3 655.515 20.1193   1
   0   4   3 4.60875 0.58361   1
   1   4   3 569.272 13.9429   1
   2   4   3 9.90086 0.82149   1
   3   4   3 200.262 5.92799   1
   4   4   3 7.77089 1.17366   1
   5   4   3 12.4559 1.76903   1
   6   4   2 8.04591 6.99288  -2
   6   4   3 8.04591 6.99288   1
   7   4   2 121.559 13.0761  -2
   7   4   3 121.559 13.0761   1
  -7   5   3 -1.6943 2.72769   1
  -6   5   3 33.6927 2.47383   1
  -5   5   3 -1.8649 1.81036   1
  -4   5   3 45.1615 2.55678   1
  -3   5   3 9.37861 1.11719   1
  -2   5   3 111.304 3.74986   1
  -1   5   3 8.55381 0.91808   1
   0   5   3 8.31246 0.90039   1
   1   5   3 4.91830 5.26251  -2
   1   5   3 4.91830 5.26251   1
   2   5   3 427.301 12.1149   1
   3   5   3 4.59521 1.47331   1
   4   5   3 76.6123 3.40816   1
   5   5   3 -0.2450 1.85243   1
   6   5   2 33.4094 8.46523  -2
   6   5   3 33.4094 8.46523   1
  -6   6   3 -2.5082 2.17092   1
  -5   6   3 19.8128 2.19741   1
  -4   6   3 2.17925 1.71784   1
  -3   6   3 266.520 8.41741   1
  -2   6   3 80.4790 2.96770   1
  -1   6   3 161.386 5.27341   1
   0   6   3 129.483 4.91866   1
   1   6   3 186.774 14.4011  -2
   1   6   3 186.774 14.4011   1
   2   6   3 62.9996 2.88399   1
   3   6   3 104.452 5.78050   1
   4   6   3 1.34784 1.83025   1
   5   6   3 1.70894 2.02533   1
   6   6   2 19.3684 9.99146  -2
   6   6   3 19.3684 9.99146   1
  -5   7   3 1.98972 2.13038   1
  -4   7   3 20.5865 1.69797   1
  -3   7   3 2.05940 1.49327   1
  -2   7   3 43.1567 2.26894   1
  -1   7   3 1.60015 1.64234   1
   0   7   3 19.6666 2.04774   1
   1   7   3 14.3243 6.77051  -2
   1   7   3 14.3243 6.77051   1
   2   7   3 163.462 8.26872   1
   3   7   3 23.3329 3.21491   1
   4   7   3 33.1275 3.54536   1
   5   7   3 3.60399 3.00508   1
  -4   7   5 22.8458 5.07833  -3
  -4   8   3 22.8458 5.07833   1
  -3   8   3 22.5348 2.00584   1
  -2   8   3 104.097 4.77938   1
  -1   8   3 -0.0389 1.82993   1
   0   8   3 92.1707 4.46329   1
   1   8   3 -5.3130 7.39393  -2
   1   8   3 -5.3130 7.39393   1
   2   8   3 55.9847 4.19538   1
   3   8   3 13.7712 3.25768   1
   4   8   3 0.62504 3.32918   1
  -2   8   5 50.6913 12.2462  -3
  -2   9   3 50.6913 12.2462   1
  -1   9   3 10.0393 2.14090   1
   0   9   3 24.0424 9.34616  -2
   0   9   3 24.0424 9.34616   1
   1   9   3 44.2504 10.4574  -2
   1   9   3 44.2504 10.4574   1
   2   9   3 26.6032 4.30185   1
  -8   0   4 6.60526 5.37645   1
  -7   0   4 -4.2120 4.61530   1
  -6   0   4 67.5225 4.36155   1
  -5   0   4 0.29807 2.47808   1
  -4   0   4 219.711 10.2864   1
  -3   0   4 0.25214 1.12696   1
  -2   0   4 15.8867 0.82557   1
  -1   0   4 0.98490 0.50890   1
   0   0   4 980.892 35.0108   1
   1   0   4 1.14305 0.44158   1
   2   0   4 1255.65 41.2106   1
   3   0   4 0.66670 0.76076   1
   4   0   4 209.535 8.17624   1
   5   0   4 1.01244 1.73410   1
   6   0   4 80.6956 4.41509   1
   7   0   4 1.02124 2.40259   1
  -8   1   4 -2.7381 3.86212   1
  -7   1   4 23.7515 2.53087   1
  -6   1   4 28.9619 2.20896   1
  -5   1   4 672.188 23.6841   1
  -4   1   4 107.794 4.25463   1
  -3   1   4 442.746 11.2676   1
  -2   1   4 75.9181 1.90570   1
  -1   1   4 147.608 3.43602   1
   0   1   4 151.919 3.77232   1
   1   1   4 412.169 9.62565   1
   2   1   4 7.90908 0.50309   1
   3   1   4 144.729 3.62067   1
   4   1   4 42.1725 1.65247   1
   5   1   4 210.739 6.26721   1
   6   1   4 36.2117 1.82267   1
   7   1   4 139.129 4.53122   1
  -7   2   4 4.14010 2.98383   1
  -6   2   4 30.6198 2.34931   1
  -5   2   4 35.1169 1.98331   1
  -4   2   4 120.584 3.86444   1
  -3   2   4 15.0133 1.06927   1
  -2   2   4 2.25518 0.46820   1
  -1   2   4 26.3391 0.87817   1
   0   2   4 564.420 13.1424   1
   1   2   4 128.800 3.14616   1
   2   2   4 617.257 15.0797   1
   3   2   4 58.1234 1.78832   1
   4   2   4 81.8808 2.63209   1
   5   2   4 31.7902 1.55334   1
   6   2   4 41.4706 2.00591   1
   7   2   4 1.93062 1.60522   1
  -7   2   5 -8.3636 8.78159  -3
  -7   3   4 -8.3636 8.78159   1
  -6   2   5 137.879 13.6426  -3
  -6   3   4 137.879 13.6426   1
  -5   2   5 193.434 17.0047  -3
  -5   3   4 193.434 17.0047   1
  -4   3   4 480.969 16.6294   1
  -3   3   4 114.478 3.88113   1
  -2   3   4 300.405 8.60060   1
  -1   3   4 30.9922 1.12551   1
   0   3   4 537.115 13.1485   1
   1   3   4 117.650 3.07316   1
   2   3   4 26.1233 1.02810   1
   3   3   4 19.1297 1.17828   1
   4   3   4 191.758 5.74439   1
   5   3   4 52.2436 2.31484   1
   6   3   4 135.535 4.75667   1
   7   3   4 47.8835 2.91347   1
  -7   4   4 1.81248 3.03932   1
  -6   3   5 4.67770 9.55137  -3
  -6   4   4 4.67770 9.55137   1
  -5   3   5 61.4871 9.83036  -3
  -5   4   4 61.4871 9.83036   1
  -4   3   5 12.4243 7.46565  -3
  -4   4   4 12.4243 7.46565   1
  -3   3   5 49.2771 7.86076  -3
  -3   4   4 49.2771 7.86076   1
  -2   4   4 7.73745 0.89329   1
  -1   4   4 104.337 3.53707   1
   0   4   4 125.581 3.51134   1
   1   4   4 323.845 8.60402   1
   2   4   4 75.0210 2.35482   1
   3   4   4 106.374 3.54443   1
   4   4   4 0.58277 1.19081   1
   5   4   4 47.9599 2.68222   1
   6   4   4 0.18640 1.97117   1
   7   4   4 3.03833 5.57343   1
  -6   5   4 78.0038 3.88462   1
  -5   5   4 -2.6056 2.30392   1
  -4   5   4 318.306 11.2588   1
  -3   5   4 3.54789 1.06162   1
  -2   4   5 130.133 13.5373  -3
  -2   5   4 130.133 13.5373   1
  -1   4   5 31.4842 3.69405  -3
  -1   5   4 31.4842 3.69405   1
   0   4   5 274.300 14.9916  -3
   0   5   4 274.300 14.9916   1
   1   4   5 10.0468 8.08323  -3
   1   5   4 10.0468 8.08323   1
   2   5   4 27.9556 1.41752   1
   3   5   4 18.3882 1.74232   1
   4   5   4 117.218 4.77148   1
   5   5   4 1.53299 1.93494   1
   6   5   4 94.6151 4.37440   1
  -6   6   4 5.06102 2.75222   1
  -5   6   4 27.3923 2.54534   1
  -4   6   4 16.0352 2.28495   1
  -3   6   4 11.1004 1.33313   1
  -2   6   4 3.96520 1.14379   1
  -1   6   4 118.076 4.07815   1
   0   6   4 1.47867 1.54656   1
   1   6   4 255.727 9.19082   1
   2   5   5 43.9216 6.45572  -3
   2   6   4 43.9216 6.45572   1
   3   5   5 86.2170 14.5189  -3
   3   6   4 86.2170 14.5189   1
   4   5   5 6.12970 11.8977  -3
   4   6   4 6.12970 11.8977   1
   5   5   5 -12.189 13.2769  -3
   5   6   4 -12.189 13.2769   1
  -5   7   4 38.2796 3.16085   1
  -4   6   6 51.4948 10.9649  -3
  -4   7   4 51.4948 10.9649   1
  -3   7   4 51.3167 2.72883   1
  -2   7   4 9.39206 1.56345   1
  -1   7   4 66.2172 3.46688   1
   0   7   4 35.2661 2.56064   1
   1   7   4 19.6582 2.06453   1
   2   7   4 18.7219 3.09249   1
   3   7   4 33.1213 3.71400   1
   4   6   5 1.68509 12.9748  -3
   4   7   4 1.68509 12.9748   1
   5   6   5 -10.793 13.9934  -3
   5   7   4 -10.793 13.9934   1
  -4   7   6 19.1523 4.00407  -3
  -4   8   4 19.1523 4.00407   1
  -3   7   6 3.74564 4.33138  -3
  -3   8   4 3.74564 4.33138   1
  -2   7   6 6.57253 4.80734  -3
  -2   8   4 6.57253 4.80734   1
  -1   7   6 37.9097 9.99893  -3
  -1   8   4 37.9097 9.99893   1
   0   8   4 28.2387 2.45077   1
   1   8   4 85.6407 4.96913   1
   2   8   4 15.2345 3.35726   1
   3   8   4 14.5940 3.53849   1
  -1   8   6 33.7142 5.21939  -3
  -1   9   4 33.7142 5.21939   1
   0   8   6 0.00912 7.20513  -3
   0   9   4 0.00912 7.20513   1
   1   8   6 11.4581 7.35202  -3
   1   9   4 11.4581 7.35202   1
  -7   0   5 -2.3309 4.97467   1
  -6   0   5 199.770 17.2221   1
  -5   0   5 -3.0166 4.96361   1
  -4   0   5 257.058 14.2302   1
  -3   1   5 26.6388 4.37197  -3
  -3   0   5 26.6388 4.37197   1
  -2   1   5 78.5230 7.78934  -3
  -2   0   5 78.5230 7.78934   1
  -1   0   5 -1.0955 0.78889   1
   0   0   5 10.8526 0.82684   1
   1   0   5 -0.2786 0.58685   1
   2   0   5 633.709 19.4394   1
   3   0   5 -0.1871 1.20743   1
   4   0   5 407.924 15.5588   1
   5   0   5 4.78103 1.87080   1
   6   0   5 196.905 9.09362   1
   7   0   5 0.07025 2.19365   1
  -7   2   5 10.8753 7.59792  -3
  -7   1   5 10.8753 7.59792   1
  -6   2   5 24.5681 10.2015  -3
  -6   1   5 24.5681 10.2015   1
  -5   1   5 37.7875 3.21741   1
  -4   1   5 5.63369 2.13819   1
  -3   1   5 131.982 5.41335   1
  -2   1   5 67.5143 2.08880   1
  -1   1   5 312.665 9.39625   1
   0   1   5 105.512 2.73268   1
   1   1   5 1070.23 24.8642   1
   2   1   5 114.996 2.86204   1
   3   1   5 298.514 7.72982   1
   4   1   5 9.23770 1.06027   1
   5   1   5 3.40800 1.22960   1
   6   1   5 2.33294 1.44708   1
   7   1   5 3.90665 1.68643   1
  -7   2   5 26.5948 5.14860   1
  -6   2   5 112.213 7.64215   1
  -5   2   5 51.2727 3.77187   1
  -4   2   5 145.668 5.86431   1
  -3   2   5 43.5551 2.03894   1
  -2   2   5 37.0313 1.40467   1
  -1   2   5 24.6698 1.04754   1
   0   2   5 2.04130 0.59665   1
   1   2   5 21.2748 0.83457   1
   2   1   5 241.982 20.7587  -3
   2   2   5 241.982 20.7587   1
   3   1   5 182.997 16.1012  -3
   3   2   5 182.997 16.1012   1
   4   1   5 198.596 18.0399  -3
   4   2   5 198.596 18.0399   1
   5   1   5 51.8218 8.93465  -3
   5   2   5 51.8218 8.93465   1
   6   2   5 121.119 4.10973   1
   7   1   5 33.1076 11.5899  -3
   7   2   5 33.1076 11.5899   1
  -7   3   5 -3.0683 4.41869   1
  -6   3   5 57.1788 4.97587   1
  -5   3   5 -0.1741 2.37768   1
  -4   3   5 15.9359 1.84118   1
  -3   3   5 58.6047 2.62451   1
  -2   3   5 269.321 8.24463   1
  -1   3   5 116.903 3.49992   1
   0   3   5 421.337 11.0189   1
   1   3   5 259.720 6.91655   1
   2   3   5 482.750 12.7287   1
   3   3   5 35.7781 1.67329   1
   4   3   5 37.7035 1.77821   1
   5   2   5 9.46718 7.38785  -3
   5   3   5 9.46718 7.38785   1
   6   2   5 38.4791 9.02811  -3
   6   3   5 38.4791 9.02811   1
   7   2   5 6.29570 10.4109  -3
   7   3   5 6.29570 10.4109   1
  -6   3   6 15.9780 9.87765  -3
  -6   4   5 15.9780 9.87765   1
  -5   3   6 65.1091 10.1852  -3
  -5   4   5 65.1091 10.1852   1
  -4   3   6 19.4249 8.11480  -3
  -4   4   5 19.4249 8.11480   1
  -3   3   6 74.7498 10.1620  -3
  -3   4   5 74.7498 10.1620   1
  -2   3   6 10.5754 2.83491  -3
  -2   4   5 10.5754 2.83491   1
  -1   4   5 43.2465 1.92539   1
   0   4   5 12.2313 0.93557   1
   1   4   5 33.1991 1.34915   1
   2   4   5 0.31039 0.97403   1
   3   4   5 150.708 4.80042   1
   4   4   5 11.3371 1.44034   1
   5   4   5 92.6386 4.04222   1
   6   4   5 21.4154 2.40015   1
  -6   5   5 28.2842 2.95826   1
  -5   5   5 2.50772 2.31445   1
  -4   5   5 11.3987 2.06773   1
  -3   5   5 3.02132 1.13838   1
  -2   4   6 181.924 16.9331  -3
  -2   5   5 181.924 16.9331   1
  -1   4   6 48.1754 4.18589  -3
  -1   5   5 48.1754 4.18589   1
   0   4   6 294.697 16.2141  -3
   0   5   5 294.697 16.2141   1
   1   4   6 117.140 7.03998  -3
   1   5   5 117.140 7.03998   1
   2   4   6 339.647 15.0048  -3
   2   5   5 339.647 15.0048   1
   3   4   6 11.8272 9.25335  -3
   3   5   5 11.8272 9.25335   1
   4   5   5 22.3617 2.22788   1
   5   5   5 11.1128 2.16602   1
   6   5   5 3.58263 2.58644   1
  -5   6   5 41.3522 3.13666   1
  -4   6   5 0.06672 2.10924   1
  -3   6   5 40.9613 2.09315   1
  -2   6   5 22.2615 1.54862   1
  -1   6   5 18.6116 1.44635   1
   0   6   5 4.33811 1.75672   1
   1   5   6 18.9327 4.37860  -3
   1   6   5 18.9327 4.37860   1
   2   5   6 72.2714 5.84751  -3
   2   6   5 72.2714 5.84751   1
   3   6   5 71.4083 5.31118   1
   4   5   6 33.1884 10.9330  -3
   4   6   5 33.1884 10.9330   1
   5   6   5 56.9606 3.97923   1
  -4   7   5 2.94440 2.25330   1
  -3   7   5 11.0254 1.59234   1
  -2   7   5 56.1849 2.94027   1
  -1   7   5 11.4427 2.05373   1
   0   7   5 76.9033 4.39384   1
   1   7   5 43.9370 3.25563   1
   2   7   5 59.8874 5.15729   1
   3   7   5 76.4190 5.89791   1
   4   7   5 3.74599 3.52708   1
  -3   8   5 2.29475 2.75038   1
  -2   7   7 37.2608 6.06390  -3
  -2   8   5 37.2608 6.06390   1
  -1   7   7 6.98854 6.71770  -3
  -1   8   5 6.98854 6.71770   1
   0   8   5 2.58851 2.14473   1
   1   8   5 -1.0275 2.40446   1
   2   8   5 49.4505 6.68742   1
  -7   0   6 -1.1137 5.27761   1
  -6   0   6 27.5364 7.54628   1
  -5   0   6 -0.4371 5.16003   1
  -4   0   6 241.362 13.5073   1
  -3   0   6 2.17583 1.12394   1
  -2   0   6 462.514 19.5188   1
  -1   0   6 -1.7104 0.99278   1
   0   0   6 1001.87 42.1169   1
   1   0   6 -0.3449 0.95287   1
   2   0   6 71.8244 3.14355   1
   3   0   6 -3.2378 1.48815   1
   4   0   6 142.921 5.46147   1
   5   0   6 1.71240 1.78942   1
   6   0   6 24.3695 2.38419   1
  -7   1   6 11.0798 5.21674   1
  -6   1   6 1.18929 4.78153   1
  -5   1   6 134.297 6.88007   1
  -4   1   6 2.04827 2.25399   1
  -3   1   6 9.28819 0.86308   1
  -2   1   6 7.23296 0.78973   1
  -1   1   6 57.7177 2.11355   1
   0   1   6 13.4954 0.93655   1
   1   1   6 81.4189 2.56362   1
   2   1   6 21.6533 1.04329   1
   3   1   6 422.509 10.8704   1
   4   1   6 24.7673 1.44287   1
   5   1   6 200.492 5.80599   1
   6   1   6 2.09335 1.55789   1
  -7   2   6 -0.9031 4.89755   1
  -6   2   6 15.4170 5.93623   1
  -5   2   6 35.1443 3.32271   1
  -4   2   6 112.926 4.76992   1
  -3   2   6 132.429 5.27430   1
  -2   2   6 249.390 7.58926   1
  -1   2   6 353.021 10.6590   1
   0   2   6 533.151 15.9698   1
   1   2   6 375.618 10.4052   1
   2   2   6 28.1601 1.26808   1
   3   2   6 1.53583 1.14509   1
   4   2   6 93.9320 3.44425   1
   5   2   6 24.8332 1.80641   1
   6   2   6 11.5666 1.74099   1
  -6   3   6 12.1298 3.74253   1
  -5   3   6 45.6459 3.23086   1
  -4   3   6 38.5390 2.78446   1
  -3   3   6 0.42030 1.54474   1
  -2   3   6 32.6463 1.57948   1
  -1   3   6 35.2394 1.53586   1
   0   3   6 54.8751 2.04488   1
   1   3   6 10.8507 0.99888   1
   2   3   6 73.9636 2.69619   1
   3   3   6 99.9892 3.96013   1
   4   3   6 106.741 3.88246   1
   5   3   6 75.8790 3.14365   1
   6   3   6 11.8164 1.93263   1
  -6   4   6 -3.0013 3.64420   1
  -5   4   6 45.1327 3.38618   1
  -4   4   6 3.55526 2.17639   1
  -3   4   6 179.793 8.14567   1
  -2   4   6 24.5364 1.56273   1
  -1   4   6 480.416 17.4175   1
   0   4   6 39.4658 1.86485   1
   1   4   6 457.402 13.9247   1
   2   4   6 -1.0088 1.12008   1
   3   4   6 0.41637 1.48772   1
   4   4   6 22.1116 1.95519   1
   5   4   6 33.2852 2.61980   1
   6   4   6 -1.2062 2.30130   1
  -5   5   6 -0.9521 2.64891   1
  -4   5   6 46.0297 3.26217   1
  -3   5   6 11.1939 1.38928   1
  -2   5   6 29.9658 1.88707   1
  -1   5   6 2.53679 1.25792   1
   0   5   6 53.8543 2.38979   1
   1   5   6 7.33229 1.50625   1
   2   5   6 65.5829 2.61719   1
   3   5   6 3.22276 1.91190   1
   4   5   6 124.672 6.23304   1
   5   5   6 10.1628 2.40738   1
  -5   6   6 17.3533 4.72493   1
  -4   6   6 25.8855 2.83999   1
  -3   6   6 52.3643 2.62617   1
  -2   6   6 19.9323 1.64476   1
  -1   6   6 166.385 6.86497   1
   0   6   6 42.1446 2.54571   1
   1   6   6 120.920 6.22489   1
   2   6   6 33.7138 2.81321   1
   3   6   6 14.7786 3.55151   1
   4   6   6 4.53469 3.40612   1
  -4   7   6 14.5717 2.98427   1
  -3   7   6 13.0984 1.74066   1
  -2   7   6 14.4890 1.93023   1
  -1   7   6 3.02369 2.00934   1
   0   7   6 16.7719 2.34839   1
   1   7   6 10.8197 2.37504   1
   2   7   6 26.5289 5.18448   1
   3   7   6 15.5150 3.98811   1
  -1   8   6 20.2684 2.49630   1
   0   8   6 70.4603 4.34997   1
   1   8   6 2.07864 2.50001   1
  -6   0   7 69.4555 9.18145   1
  -5   0   7 -8.7178 5.13963   1
  -4   0   7 15.1878 4.35262   1
  -3   0   7 -0.8629 1.22937   1
  -2   0   7 65.6834 3.34205   1
  -1   0   7 0.76369 1.17613   1
   0   0   7 8.15588 1.40067   1
   1   0   7 0.73360 1.31890   1
   2   0   7 390.006 16.8645   1
   3   0   7 -4.8458 2.17966   1
   4   0   7 120.653 6.27004   1
   5   0   7 1.67208 2.86046   1
   6   0   7 2.19556 3.13203   1
  -6   1   7 2.45228 4.78555   1
  -5   1   7 74.7455 5.73695   1
  -4   1   7 24.3859 2.03440   1
  -3   1   7 439.296 14.2541   1
  -2   1   7 45.9987 1.80622   1
  -1   1   7 298.908 9.10960   1
   0   1   7 7.87263 0.97548   1
   1   1   7 16.1639 1.16061   1
   2   1   7 1.86468 1.04867   1
   3   1   7 270.503 9.55679   1
   4   1   7 14.7990 1.88703   1
   5   1   7 140.303 5.39166   1
   6   1   7 15.1748 2.40411   1
  -6   2   7 33.5285 6.69891   1
  -5   2   7 9.14969 3.39008   1
  -4   2   7 23.5388 2.09696   1
  -3   2   7 22.7968 1.35629   1
  -2   2   7 62.4027 2.32607   1
  -1   2   7 20.9184 1.24996   1
   0   2   7 10.1910 1.02012   1
   1   2   7 75.8690 2.69937   1
   2   2   7 227.313 8.08135   1
   3   2   7 115.068 4.63101   1
   4   2   7 72.4158 3.75151   1
   5   2   7 2.73014 2.02286   1
   6   2   7 3.40606 2.86523   1
  -6   3   7 21.1013 4.15631   1
  -5   3   7 2.02493 2.33337   1
  -4   3   7 96.8807 4.92589   1
  -3   3   7 100.483 4.79991   1
  -2   3   7 229.959 7.70533   1
  -1   3   7 86.3076 3.06157   1
   0   3   7 39.3210 1.73598   1
   1   3   7 2.89557 1.05963   1
   2   3   7 32.0378 2.05838   1
   3   3   7 68.9255 3.48568   1
   4   3   7 71.2838 3.80600   1
   5   3   7 23.0286 2.52885   1
  -5   4   7 12.1991 2.51746   1
  -4   4   7 24.1210 2.54118   1
  -3   4   7 44.9192 2.19857   1
  -2   4   7 43.8307 2.23136   1
  -1   4   7 31.4027 1.91882   1
   0   4   7 6.12619 1.19897   1
   1   4   7 118.394 4.79458   1
   2   4   7 38.5216 2.29315   1
   3   4   7 188.112 7.76152   1
   4   4   7 8.30572 2.21182   1
   5   4   7 5.38183 2.97042   1
  -5   5   7 15.7900 3.93047   1
  -4   5   7 66.5551 4.03909   1
  -3   5   7 4.04500 1.30548   1
  -2   5   7 194.585 8.86770   1
  -1   5   7 -0.4668 1.35161   1
   0   5   7 19.4138 1.72342   1
   1   5   7 -1.7012 1.77167   1
   2   5   7 44.9242 3.10208   1
   3   5   7 -7.5564 2.86681   1
   4   5   7 55.6016 4.46288   1
  -4   6   7 14.0506 2.64525   1
  -3   6   7 40.5118 2.32182   1
  -2   6   7 10.5536 1.65753   1
  -1   6   7 17.5223 1.79473   1
   0   6   7 -0.5319 1.85282   1
   1   6   7 44.3387 4.33378   1
   2   6   7 0.15583 10.7802   1
   3   6   7 122.944 16.3939   1
  -2   7   7 56.2382 3.37772   1
  -1   7   7 24.9895 2.98227   1
   0   7   7 -0.7511 2.56869   1
   1   7   7 -1.3237 2.77576   1
   2   7   7 8.32043 10.8326   1
  -6   0   8 9.57689 6.41870   1
  -5   0   8 -4.4006 5.07771   1
  -4   0   8 150.707 12.3757   1
  -3   0   8 0.39216 1.38802   1
  -2   0   8 12.4296 1.57422   1
  -1   0   8 -0.7081 1.36120   1
   0   0   8 39.7454 2.62606   1
   1   0   8 -3.5380 1.58568   1
   2   0   8 211.513 9.89043   1
   3   0   8 -4.4097 3.04253   1
   4   0   8 296.444 17.3542   1
   5   0   8 3.21479 3.26357   1
  -6   1   8 -5.7224 4.34990   1
  -5   1   8 20.2048 4.00832   1
  -4   1   8 -0.9861 2.53675   1
  -3   1   8 80.1006 3.02866   1
  -2   1   8 12.4868 1.12580   1
  -1   1   8 136.814 4.49668   1
   0   1   8 41.8178 1.91989   1
   1   1   8 208.835 6.75232   1
   2   1   8 25.9981 2.11788   1
   3   1   8 41.2988 3.13471   1
   4   1   8 -3.8008 2.36133   1
   5   1   8 11.5062 2.44480   1
  -5   2   8 23.5502 5.14931   1
  -4   2   8 82.4113 3.98635   1
  -3   2   8 12.5679 1.17366   1
  -2   2   8 8.62828 1.12427   1
  -1   2   8 30.5328 1.55407   1
   0   2   8 23.8546 1.43612   1
   1   2   8 39.6036 1.88221   1
   2   2   8 114.451 4.66065   1
   3   2   8 89.7649 4.82297   1
   4   2   8 148.507 7.67236   1
   5   2   8 38.5139 3.19406   1
  -5   3   8 15.3332 2.40529   1
  -4   3   8 4.86861 2.07113   1
  -3   3   8 41.0483 2.05994   1
  -2   3   8 49.8702 2.24959   1
  -1   3   8 41.2060 1.95615   1
   0   3   8 175.492 5.75444   1
   1   3   8 54.1773 2.29111   1
   2   3   8 140.804 5.80967   1
   3   3   8 9.01826 2.48288   1
   4   3   8 2.32651 2.58723   1
   5   3   8 -1.6811 3.20577   1
  -5   4   8 60.1730 8.83876   1
  -4   4   8 11.1532 2.22670   1
  -3   4   8 36.7201 2.03479   1
  -2   4   8 4.87420 1.35179   1
  -1   4   8 28.5084 1.81900   1
   0   4   8 1.37783 1.38633   1
   1   4   8 56.0486 3.02941   1
   2   4   8 15.5317 1.90880   1
   3   4   8 156.950 7.72984   1
   4   4   8 0.99126 2.56422   1
  -4   5   8 11.4266 3.93243   1
  -3   5   8 10.2481 1.44496   1
  -2   5   8 44.5893 2.42969   1
  -1   5   8 4.91674 1.50734   1
   0   5   8 120.938 6.00322   1
   1   5   8 1.65236 2.08668   1
   2   5   8 82.4378 4.59383   1
   3   5   8 1.91624 14.7763   1
  -2   6   8 1.18701 1.61235   1
   0   6   8 4.47583 13.9234  -2
  -1   6   8 4.47583 13.9234   1
   0   6   8 3.27763 2.11451   1
   1   6   8 27.3422 3.31556   1
   2   6   8 -8.1612 12.4569   1
  -5   0   9 -0.6578 5.19403   1
  -4   0   9 130.677 11.1688   1
  -3   0   9 -1.3899 1.61631   1
  -1   0   9 265.137 20.9331  -2
  -2   0   9 265.137 20.9331   1
   0   0   9 15.5810 3.21689  -2
  -1   0   9 15.5810 3.21689   1
   1   0   9 57.1487 5.20283  -2
   0   0   9 57.1487 5.20283   1
   1   0   9 -2.4614 1.87533   1
   2   0   9 30.3768 4.63993   1
   3   0   9 -9.4087 3.42195   1
   4   0   9 31.6405 4.70222   1
  -5   1   9 2.14046 3.68350   1
  -4   1   9 -2.1595 1.84113   1
  -3   1   9 0.58639 1.14029   1
  -1   1   9 -8.8035 7.24300  -2
  -2   1   9 -8.8035 7.24300   1
   0   1   9 16.6981 2.25802  -2
  -1   1   9 16.6981 2.25802   1
   1   1   9 56.9447 4.76859  -2
   0   1   9 56.9447 4.76859   1
   1   1   9 142.147 4.86494   1
   2   1   9 25.4641 2.95683   1
   3   1   9 117.540 6.13227   1
   4   1   9 -1.0611 2.73319   1
  -4   2   9 82.2861 4.43083   1
  -3   2   9 62.4966 2.58419   1
  -1   2   9 130.467 12.0208  -2
  -2   2   9 130.467 12.0208   1
   0   2   9 57.9574 2.99964  -2
  -1   2   9 57.9574 2.99964   1
   1   2   9 40.7583 4.57549  -2
   0   2   9 40.7583 4.57549   1
   1   2   9 19.9038 1.61396   1
   2   2   9 18.7793 2.79117   1
   3   2   9 0.42160 2.57784   1
   4   2   9 9.40290 2.99555   1
  -4   3   9 1.32586 2.10664   1
  -3   3   9 -0.1882 1.25812   1
  -2   3   9 5.65623 1.41034   1
   0   3   9 28.5692 2.74801  -2
  -1   3   9 28.5692 2.74801   1
   1   3   9 74.6702 5.89034  -2
   0   3   9 74.6702 5.89034   1
   1   3   9 76.1027 3.45547   1
   2   3   9 134.539 5.69413   1
   3   3   9 36.8404 3.79109   1
  -3   4   9 108.570 5.27448   1
  -2   4   9 2.95716 1.45905   1
   0   4   9 76.5039 5.06133  -2
  -1   4   9 76.5039 5.06133   1
   1   4   9 7.00408 4.36184  -2
   0   4   9 7.00408 4.36184   1
   1   4   9 17.6143 2.39382   1
   2   4   9 4.08312 2.60192   1
   3   4   9 6.64821 2.77640   1
  -1   5   9 4.76017 13.6346  -2
  -2   5   9 4.76017 13.6346   1
   0   5   9 23.1799 3.90936  -2
  -1   5   9 23.1799 3.90936   1
   1   5   9 37.1359 5.47103  -2
   0   5   9 37.1359 5.47103   1
   1   5   9 10.4444 2.39297   1
   2   5   9 121.416 8.45287   1
  -3   0  10 -1.0192 1.81607   1
  -1   0  10 33.6643 3.76407  -2
  -2   0  10 33.6643 3.76407   1
   0   0  10 54.4275 4.09311  -2
  -1   0  10 54.4275 4.09311   1
   1   0  10 165.123 8.67827  -2
   0   0  10 165.123 8.67827   1
   2   0  10 12.3635 5.79061  -2
   1   0  10 12.3635 5.79061   1
   2   0  10 26.6070 4.63792   1
  -3   1  10 42.0919 2.11693   1
  -1   1  10 -2.5247 2.64062  -2
  -2   1  10 -2.5247 2.64062   1
   0   1  10 -2.4196 2.27694  -2
  -1   1  10 -2.4196 2.27694   1
   1   1  10 -0.9445 2.66580  -2
   0   1  10 -0.9445 2.66580   1
   2   1  10 19.1878 4.02019  -2
   1   1  10 19.1878 4.02019   1
   2   1  10 -4.4497 2.76646   1
  -3   2  10 3.90775 1.30254   1
  -1   2  10 32.8806 2.91583  -2
  -2   2  10 32.8806 2.91583   1
   0   2  10 68.0554 3.38176  -2
  -1   2  10 68.0554 3.38176   1
   1   2  10 137.881 5.27857  -2
   0   2  10 137.881 5.27857   1
   2   2  10 39.7208 6.23486  -2
   1   2  10 39.7208 6.23486   1
   2   2  10 14.4130 3.01547   1
  -1   3  10 9.81254 3.22042  -2
  -2   3  10 9.81254 3.22042   1
   0   3  10 4.26240 2.81348  -2
  -1   3  10 4.26240 2.81348   1
   1   3  10 0.79434 2.86356  -2
   0   3  10 0.79434 2.86356   1
   2   3  10 10.4537 5.96294  -2
   1   3  10 10.4537 5.96294   1
   2   3  10 9.65379 4.28749   1
   0   4  10 82.7451 7.76548  -2
  -1   4  10 82.7451 7.76548   1
   0   4  10 42.6363 2.73410   1
   0   0  11 6.88166 2.88874   1
   0   0   0    0.00    0.00   0
;
_shelx_hkl_checksum              91881
loop_
_space_group_symop_operation_xyz
'x, y, z'
'-x, y+1/2, -z+1/2'
'-x, -y, -z'
'x, -y-1/2, z-1/2'
loop_
_atom_site_label
_atom_site_type_symbol
_atom_site_fract_x
_atom_site_fract_y
_atom_site_fract_z
_atom_site_U_iso_or_equiv
_atom_site_adp_type
_atom_site_occupancy
_atom_site_site_symmetry_order
_atom_site_calc_flag
_atom_site_refinement_flags_posn
_atom_site_refinement_flags_adp
_atom_site_refinement_flags_occupancy
_atom_site_disorder_assembly
_atom_site_disorder_group
Br1 Br 0.84964(15) 0.5518(2) 0.7992(2) 0.0284(3) Uani 0.5 1 d D U P A 1
C1 C 0.6489(5) 0.5240(5) 0.6196(7) 0.0199(8) Uani 1 1 d D U . . .
C3 C 0.5027(5) 0.4220(6) 0.2928(7) 0.0215(8) Uani 1 1 d . U . . .
H3 H 0.503556 0.368856 0.152162 0.026 Uiso 1 1 calc R U . . .
C2 C 0.6522(5) 0.4473(6) 0.4145(7) 0.0202(8) Uani 1 1 d . U . . .
H2 H 0.756249 0.412016 0.356950 0.024 Uiso 1 1 calc R U . . .
C4 C 0.8126(15) 0.557(2) 0.7395(18) 0.028(3) Uani 0.5 1 d D U P A 2
H4 H 0.856468 0.685402 0.706856 0.034 Uiso 0.5 1 calc R U P A 2
F2 F 0.9251(8) 0.4251(12) 0.6904(12) 0.058(2) Uani 0.5 1 d D U P A 2
F1 F 0.7914(8) 0.5388(13) 0.9508(10) 0.059(2) Uani 0.5 1 d D U P A 2
loop_
_atom_site_aniso_label
_atom_site_aniso_U_11
_atom_site_aniso_U_22
_atom_site_aniso_U_33
_atom_site_aniso_U_23
_atom_site_aniso_U_13
_atom_site_aniso_U_12
Br1 0.0233(5) 0.0353(6) 0.0259(6) 0.0020(6) -0.0078(4) -0.0042(4)
C1 0.0184(17) 0.0174(18) 0.0238(18) 0.0005(15) -0.0003(14) -0.0019(13)
C3 0.0227(17) 0.0177(18) 0.024(2) -0.0039(16) 0.0025(15) -0.0014(14)
C2 0.0180(16) 0.0209(18) 0.0221(19) -0.0001(16) 0.0038(13) 0.0006(14)
C4 0.031(6) 0.035(5) 0.017(5) -0.002(5) -0.008(4) -0.009(4)
F2 0.032(3) 0.096(6) 0.045(4) -0.017(4) -0.008(3) 0.020(3)
F1 0.033(3) 0.123(7) 0.022(3) -0.007(4) -0.008(2) -0.004(4)
loop_
_atom_type_symbol
_atom_type_description
_atom_type_scat_dispersion_real
_atom_type_scat_dispersion_imag
_atom_type_scat_source
C C 0.0033 0.0016 'International Tables Vol C Tables 4.2.6.8 and 6.1.1.4'
H H 0.0000 0.0000 'International Tables Vol C Tables 4.2.6.8 and 6.1.1.4'
F F 0.0171 0.0103 'International Tables Vol C Tables 4.2.6.8 and 6.1.1.4'
Br Br -0.2901 2.4595 'International Tables Vol C Tables 4.2.6.8 and 6.1.1.4'
loop_
_geom_angle_atom_site_label_1
_geom_angle_atom_site_label_2
_geom_angle_atom_site_label_3
_geom_angle
_geom_angle_site_symmetry_1
_geom_angle_site_symmetry_3
C2 C1 C3 121.1(4) . 3_666
C2 C1 C4 117.9(5) . .
C3 C1 C4 120.9(6) 3_666 .
C2 C1 Br1 121.6(3) . .
C3 C1 Br1 117.3(3) 3_666 .
C2 C3 C1 119.1(4) . 3_666
C2 C3 H3 120.5 . .
C1 C3 H3 120.5 3_666 .
C1 C2 C3 119.8(3) . .
C1 C2 H2 120.1 . .
C3 C2 H2 120.1 . .
F1 C4 F2 105.7(11) . .
F1 C4 C1 109.2(9) . .
F2 C4 C1 110.9(9) . .
F1 C4 H4 110.3 . .
F2 C4 H4 110.3 . .
C1 C4 H4 110.3 . .
loop_
_geom_bond_atom_site_label_1
_geom_bond_atom_site_label_2
_geom_bond_distance
_geom_bond_site_symmetry_2
Br1 C1 1.916(4) .
C1 C2 1.384(6) .
C1 C3 1.398(5) 3_666
C1 C4 1.490(11) .
C3 C2 1.392(6) .
C3 H3 0.9500 .
C2 H2 0.9500 .
C4 F1 1.333(12) .
C4 F2 1.340(13) .
C4 H4 1.0000 .
