#------------------------------------------------------------------------------
#$Date: 2017-07-27 01:34:31 +0300 (Thu, 27 Jul 2017) $
#$Revision: 199346 $
#$URL: file:///home/coder/svn-repositories/cod/cif/4/12/63/4126320.cif $
#------------------------------------------------------------------------------
#
# This file is available in the Crystallography Open Database (COD),
# http://www.crystallography.net/
#
# All data on this site have been placed in the public domain by the
# contributors.
#
data_4126320
loop_
_publ_author_name
'Surbella, Robert G.'
'Ducati, Lucas Colucci'
'Pellegrini, Kristi L.'
'McNamara, Bruce K.'
'Autschbach, Jochen'
'Schwantes, Jon Michael'
'Cahill, Christopher L.'
_publ_section_title
;
 Transuranic Hybrid Materials: Crystallographic and Computational Metrics
 of Supramolecular Assembly.
;
_journal_name_full               'Journal of the American Chemical Society'
_journal_paper_doi               10.1021/jacs.7b05689
_journal_year                    2017
_chemical_formula_moiety         '(C5 H5 N I 1+)2, (Np O2 Cl4)'
_chemical_formula_sum            'C10 H10 Cl4 I2 N2 Np O2'
_chemical_formula_weight         822.80
_space_group_crystal_system      monoclinic
_space_group_IT_number           12
_space_group_name_Hall           '-C 2y'
_space_group_name_H-M_alt        'C 1 2/m 1'
_symmetry_cell_setting           monoclinic
_symmetry_Int_Tables_number      12
_symmetry_space_group_name_Hall  '-C 2y'
_symmetry_space_group_name_H-M   'C 1 2/m 1'
_atom_sites_solution_hydrogens   mixed
_audit_creation_method           SHELXL-2014/7
_cell_angle_alpha                90
_cell_angle_beta                 103.004(3)
_cell_angle_gamma                90
_cell_formula_units_Z            2
_cell_length_a                   16.084(4)
_cell_length_b                   8.610(2)
_cell_length_c                   6.9394(18)
_cell_measurement_reflns_used    1573
_cell_measurement_temperature    110(2)
_cell_measurement_theta_max      54.334
_cell_measurement_theta_min      5.398
_cell_volume                     936.3(4)
_computing_cell_refinement       'SAINT, Bruker-AXS'
_computing_data_collection       'APEX, Bruker-AXS'
_computing_data_reduction        'SAINT, Bruker-AXS'
_computing_molecular_graphics    'WINGX (Farrugia, 2012)'
_computing_publication_material  'Crystal Maker (Palmer, 2009)'
_computing_structure_refinement  'SHELXL-2014/7 (Sheldrick, 2014)'
_computing_structure_solution    'SIR92 (Gualardi, 1994)'
_diffrn_ambient_temperature      110(2)
_diffrn_measured_fraction_theta_full 0.996
_diffrn_measured_fraction_theta_max 0.993
_diffrn_measurement_device_type  'Bruker Quazar'
_diffrn_radiation_probe          x-ray
_diffrn_radiation_type           MoK\a
_diffrn_radiation_wavelength     0.71073
_diffrn_reflns_av_R_equivalents  0.0212
_diffrn_reflns_av_unetI/netI     0.0269
_diffrn_reflns_Laue_measured_fraction_full 0.996
_diffrn_reflns_Laue_measured_fraction_max 0.993
_diffrn_reflns_limit_h_max       16
_diffrn_reflns_limit_h_min       -20
_diffrn_reflns_limit_k_max       10
_diffrn_reflns_limit_k_min       -10
_diffrn_reflns_limit_l_max       8
_diffrn_reflns_limit_l_min       -8
_diffrn_reflns_number            2759
_diffrn_reflns_point_group_measured_fraction_full 0.996
_diffrn_reflns_point_group_measured_fraction_max 0.993
_diffrn_reflns_theta_full        25.500
_diffrn_reflns_theta_max         27.178
_diffrn_reflns_theta_min         2.599
_diffrn_source                   'moly microfocus'
_exptl_absorpt_coefficient_mu    9.419
_exptl_absorpt_correction_T_max  0.7455
_exptl_absorpt_correction_T_min  0.6156
_exptl_absorpt_correction_type   multi-scan
_exptl_absorpt_process_details   'Krause et. al 2015'
_exptl_crystal_colour            Green-Yellow
_exptl_crystal_density_diffrn    2.918
_exptl_crystal_description       Prismatic
_exptl_crystal_F_000             734
_exptl_crystal_recrystallization_method 'Aqueous acidic (HCl) evaporation'
_exptl_crystal_size_max          0.045
_exptl_crystal_size_mid          0.030
_exptl_crystal_size_min          0.020
_refine_diff_density_max         1.794
_refine_diff_density_min         -0.753
_refine_diff_density_rms         0.154
_refine_ls_extinction_method     none
_refine_ls_goodness_of_fit_ref   1.140
_refine_ls_hydrogen_treatment    mixed
_refine_ls_matrix_type           full
_refine_ls_number_parameters     61
_refine_ls_number_reflns         1101
_refine_ls_number_restraints     1
_refine_ls_restrained_S_all      1.139
_refine_ls_R_factor_all          0.0233
_refine_ls_R_factor_gt           0.0198
_refine_ls_shift/su_max          0.001
_refine_ls_shift/su_mean         0.000
_refine_ls_structure_factor_coef Fsqd
_refine_ls_weighting_details
'w=1/[\s^2^(Fo^2^)+(0.0120P)^2^+2.1864P] where P=(Fo^2^+2Fc^2^)/3'
_refine_ls_weighting_scheme      calc
_refine_ls_wR_factor_gt          0.0409
_refine_ls_wR_factor_ref         0.0425
_reflns_Friedel_coverage         0.000
_reflns_number_gt                979
_reflns_number_total             1101
_reflns_threshold_expression     'I > 2\s(I)'
_cod_data_source_file            ja7b05689_si_002.cif
_cod_data_source_block           Compound_8_110K
_cod_original_sg_symbol_H-M      'C 2/m'
_cod_database_code               4126320
_shelx_shelxl_version_number     2014/7
_shelx_space_group_comment
;
The symmetry employed for this shelxl refinement is uniquely defined
by the following loop, which should always be used as a source of
symmetry information in preference to the above space-group names.
They are only intended as comments.
;
_shelx_estimated_absorpt_t_min   0.677
_shelx_estimated_absorpt_t_max   0.834
_shelx_res_file
;

    shelx.res created by SHELXL-2014/7

TITL SIR92 run in space group C 1 2/m 1
CELL  0.71073  16.0839   8.6098   6.9394   90.000  103.004   90.000
ZERR     2.00   0.0041   0.0022   0.0018    0.000    0.003    0.000
LATT   7
SYMM  - X,   Y, - Z
SFAC  C    H    N    O    CL   I    NP
UNIT  20 20 4 4 8 4 2
MERG   2
DFIX 0.88 0.02 N1 HN1
EQIV $1 -x+1, -y+1, -z+1
HTAB C1 O1_$1
HTAB C1 Cl1_$1
EQIV $2 -x+1, -y+1, -z
HTAB C2 Cl2_$2
EQIV $3 x, y-1, z+1
HTAB N1 Cl1_$3
HTAB N1 Cl1_$1
HTAB C1 O1_$1
HTAB C1 Cl1_$1
HTAB C2 Cl2_$2
HTAB N1 Cl1_$3
HTAB N1 Cl1_$1
FMAP   2
PLAN   25
SIZE     0.020   0.030   0.045
ACTA    51.00
BOND   $H
CONF
L.S.  12
TEMP  -163.15
WGHT    0.012000    2.186400
FVAR       0.06638
C1    1    0.605367    0.136788    0.622566    11.00000    0.01734    0.01482 =
         0.01794   -0.00472    0.00346   -0.00079
AFIX  43
H1    2    0.590371    0.230965    0.677527    11.00000   -1.20000
AFIX   0
C2    1    0.646693    0.140392    0.469078    11.00000    0.01473    0.01455 =
         0.01722    0.00121    0.00445   -0.00050
AFIX  43
H2    2    0.659999    0.236565    0.416011    11.00000   -1.20000
AFIX   0
C3    1    0.668669    0.000000    0.392923    10.50000    0.01221    0.01751 =
         0.00841    0.00000   -0.00175    0.00000
N1    3    0.586371    0.000000    0.694155    10.50000    0.01808    0.01997 =
         0.01011    0.00000    0.00463    0.00000
O1    4    0.468109    0.500000    0.226001    10.50000    0.02183    0.01557 =
         0.01429    0.00000    0.00624    0.00000
CL1   5    0.500000    0.807639    0.000000    10.50000    0.02080    0.00985 =
         0.01834    0.00000    0.00914    0.00000
CL2   5    0.337581    0.500000   -0.191154    10.50000    0.01433    0.01817 =
         0.01587    0.00000    0.00289    0.00000
I1    6    0.737373    0.000000    0.172630    10.50000    0.01452    0.02249 =
         0.01256    0.00000    0.00577    0.00000
NP1   7    0.500000    0.500000    0.000000    10.25000    0.01248    0.00938 =
         0.00979    0.00000    0.00487    0.00000
HN1   2    0.555523    0.000000    0.783575    10.50000    0.03904
HKLF    4

REM  SIR92 run in space group C 1 2/m 1
REM R1 =  0.0198 for     979 Fo > 4sig(Fo)  and  0.0233 for all    1101 data
REM     61 parameters refined using      1 restraints

END

WGHT      0.0119      2.2008

REM Highest difference peak  1.794,  deepest hole -0.753,  1-sigma level  0.154
Q1    1   0.5246  0.0000  0.6503  10.50000  0.05    1.79
Q2    1   0.4006  0.5000  0.3548  10.50000  0.05    1.28
Q3    1   0.2603  0.3107 -0.1756  11.00000  0.05    1.12
Q4    1   0.5733  0.0000  0.9818  10.50000  0.05    1.02
Q5    1   0.4344  0.5000  0.2192  10.50000  0.05    0.66
Q6    1   0.4040  0.5000  0.0349  10.50000  0.05    0.65
Q7    1   0.7710 -0.1074  0.1974  11.00000  0.05    0.64
Q8    1   0.7702  0.0000  0.2760  10.50000  0.05    0.62
Q9    1   0.4093  0.5000 -0.1041  10.50000  0.05    0.61
Q10   1   0.8175  0.0000  0.1246  10.50000  0.05    0.60
Q11   1   0.7608  0.0000 -0.0447  10.50000  0.05    0.53
Q12   1   0.3324  0.5000 -0.5143  10.50000  0.05    0.48
Q13   1   0.4902  0.3681  0.1601  11.00000  0.05    0.48
Q14   1   0.5019  0.1253  0.5913  11.00000  0.05    0.47
Q15   1   0.4737  0.5000  0.3255  10.50000  0.05    0.45
Q16   1   0.6794 -0.0907  0.2224  11.00000  0.05    0.42
Q17   1   0.2903  0.5000 -0.4171  10.50000  0.05    0.41
Q18   1   0.7274 -0.0558  0.5630  11.00000  0.05    0.40
Q19   1   0.5426  0.5000  0.1200  10.50000  0.05    0.40
Q20   1   0.5603  0.6243  0.0005  11.00000  0.05    0.39
Q21   1   0.3310  0.4147  0.0325  11.00000  0.05    0.38
Q22   1   0.6303  0.2433  0.4536  11.00000  0.05    0.38
Q23   1   0.6219  0.1287  0.3998  11.00000  0.05    0.38
Q24   1   0.6994  0.2079  0.7128  11.00000  0.05    0.38
Q25   1   0.6444  0.3697  0.5641  11.00000  0.05    0.37
;
_shelx_res_checksum              95025
_shelx_hkl_file
;
  -2   0   0    2.19    0.21
  -2   0   0    2.13    0.18
  -4   0   0  321.04    5.91
  -4   0   0  322.01    5.72
  -6   0   0   31.92    1.23
  -6   0   0   31.39    1.03
  -8   0   0  315.17    6.48
  -8   0   0  312.31    6.00
 -10   0   0    1.09    0.39
 -10   0   0    1.28    0.31
 -12   0   0  213.52    5.48
 -12   0   0  214.94    4.75
 -14   0   0   10.76    1.35
 -14   0   0    9.56    0.79
 -16   0   0   23.63    1.82
 -16   0   0   23.14    1.29
   1  -1   0   48.70    0.91
  -1   1   0   46.56    1.23
   1   1   0   49.02    1.01
   3   1   0  159.06    2.90
  -3   1   0  161.33    2.82
  -3   1   0  157.75    3.38
  -5  -1   0   58.81    1.59
  -5  -1   0   58.99    1.46
  -5   1   0   61.58    1.37
  -5   1   0   59.85    1.90
  -7  -1   0  198.41    4.14
  -7  -1   0  197.76    4.06
  -7   1   0  197.79    4.64
  -7   1   0  185.87    3.78
  -9  -1   0    2.82    0.50
  -9  -1   0    2.89    0.46
  -9   1   0    3.01    0.65
  -9   1   0    2.53    0.38
 -11  -1   0  117.02    3.27
 -11  -1   0  115.02    3.00
 -11   1   0  107.16    3.65
 -11   1   0  112.95    2.79
 -13  -1   0    0.27    0.26
 -13  -1   0    0.31    0.31
 -13   1   0    0.16    0.34
 -13   1   0    0.04    0.19
 -15  -1   0   71.29    2.91
 -15  -1   0   69.39    2.46
 -15   1   0   74.62    2.50
 -15   1   0   75.63    3.39
 -17  -1   0    0.88    0.35
 -17   1   0    0.34    0.56
   0  -2   0  692.60   11.70
   0   2   0  704.44   12.15
  -2  -2   0   21.65    0.77
   2  -2   0   23.50    0.60
  -2   2   0   24.92    1.09
  -4  -2   0  248.20    4.84
   4   2   0  251.41    4.52
  -4   2   0  252.16    4.40
  -4   2   0  253.70    5.46
  -6  -2   0   -0.06    0.10
  -6  -2   0   -0.08    0.16
  -6   2   0   -0.03    0.27
  -6   2   0   -0.10    0.09
  -8  -2   0  121.52    3.07
  -8  -2   0  119.46    2.77
  -8   2   0  122.80    2.58
  -8   2   0  118.48    3.73
 -10  -2   0    3.23    0.50
 -10  -2   0    5.47    0.72
 -10   2   0    4.19    0.85
 -10   2   0    4.39    0.48
 -12  -2   0  113.80    3.23
 -12  -2   0  113.88    3.24
 -12   2   0  116.26    4.23
 -12   2   0  112.62    2.82
 -14  -2   0    0.19    0.23
 -14   2   0    0.44    0.47
 -16  -2   0    8.95    1.03
 -16   2   0    8.92    1.52
 -18  -2   0    9.81    1.17
 -18   2   0   10.17    1.73
   1  -3   0  233.63    4.20
  -1  -3   0  227.26    4.33
   1   3   0  222.18    4.61
  -1   3   0  230.17    4.94
   3  -3   0  113.14    2.19
  -3  -3   0  113.03    2.58
   3   3   0  110.68    2.41
   5   3   0   53.57    1.38
  -5   3   0   54.30    1.28
  -5   3   0   55.83    2.26
  -7  -3   0  297.93    6.15
  -7   3   0  301.27    7.22
   7   3   0  302.86    5.66
  -7   3   0  306.01    5.45
  -9  -3   0    4.56    0.63
  -9  -3   0    4.03    0.49
  -9   3   0    4.52    0.98
  -9   3   0    4.27    0.35
 -11  -3   0  146.92    3.52
 -11  -3   0  141.51    3.86
 -11   3   0  144.05    4.99
 -13  -3   0    3.97    0.69
 -13   3   0    3.11    0.89
 -15  -3   0   82.21    2.89
 -15   3   0   81.12    4.05
 -17  -3   0    0.08    0.29
 -17   3   0    0.13    0.64
 -19  -3   0   94.51    3.47
 -19   3   0   97.57    4.98
   0  -4   0  464.28    8.35
   0   4   0  471.06    9.10
  -2  -4   0    0.46    0.20
   2  -4   0    0.53    0.17
  -2   4   0    0.74    0.37
   2   4   0    0.69    0.24
   4  -4   0  289.13    5.18
  -4  -4   0  295.58    5.80
   4   4   0  283.99    5.46
  -4   4   0  281.35    6.72
   6  -4   0    4.88    0.33
  -6  -4   0    5.10    0.63
   6   4   0    5.13    0.40
  -6   4   0    7.72    1.17
  -8  -4   0  110.19    3.11
  -8   4   0  109.73    4.11
   8   4   0  115.39    2.64
  -8   4   0  109.56    2.40
 -10  -4   0    0.11    0.18
 -10   4   0    0.30    0.45
 -12  -4   0  121.01    3.66
 -12   4   0  117.07    4.86
 -14  -4   0    2.43    0.63
 -14   4   0    1.76    0.87
 -16  -4   0   18.55    1.38
 -16   4   0   16.57    2.33
 -18  -4   0   12.04    1.41
 -18   4   0   15.72    2.43
  -1  -5   0   35.50    1.29
   1  -5   0   34.25    1.18
   1   5   0   35.53    1.56
  -1   5   0   34.34    1.73
  -3  -5   0   28.56    1.23
   3  -5   0   28.38    0.99
   3   5   0   27.78    1.20
  -3   5   0   29.02    1.70
   5  -5   0    7.54    0.46
  -5  -5   0    8.07    0.69
  -5   5   0    8.33    1.25
   5   5   0    8.36    0.57
  -7  -5   0  106.81    3.06
  -7   5   0  102.82    4.03
   7   5   0  104.36    2.51
  -9  -5   0    2.54    0.58
  -9   5   0    3.00    0.92
 -11  -5   0   54.74    2.32
 -11   5   0   62.11    3.48
 -13  -5   0    0.31    0.34
 -13   5   0    0.69    0.66
 -15  -5   0   34.75    1.98
 -15   5   0   34.27    2.94
 -17  -5   0    1.49    0.53
 -17   5   0    2.64    1.14
   0  -6   0  404.94    7.69
   0   6   0  398.17    8.59
  -2  -6   0    0.39    0.22
   2  -6   0    0.06    0.14
  -2   6   0    0.10    0.27
   2   6   0    0.36    0.26
  -4  -6   0  145.16    3.73
   4  -6   0  151.00    3.46
   4   6   0  148.89    3.58
  -4   6   0  146.60    4.75
  -6  -6   0   10.21    0.86
   6   6   0   10.02    0.67
  -6   6   0    7.30    1.23
  -8  -6   0  107.93    3.34
  -8   6   0  111.87    4.56
 -10  -6   0    1.01    0.44
 -10   6   0    1.32    0.74
 -12  -6   0   96.76    3.50
 -12   6   0  102.86    4.95
 -14  -6   0    5.33    0.93
 -14   6   0    3.03    1.15
 -16  -6   0   14.36    1.61
 -16   6   0   13.18    2.32
   1  -7   0   41.23    1.55
  -1  -7   0   40.81    1.64
   1   7   0   41.17    1.97
  -1   7   0   43.03    2.22
  -3  -7   0   68.56    2.35
   3   7   0   72.64    2.45
  -3   7   0   72.24    3.21
  -5  -7   0   35.93    1.70
  -5   7   0   36.82    2.38
  -7  -7   0   91.46    3.07
  -7   7   0   96.05    4.22
  -9  -7   0    0.71    0.39
  -9   7   0    1.30    0.77
 -11  -7   0   70.81    2.88
 -11   7   0   66.98    3.99
 -13  -7   0    2.39    0.71
 -13   7   0    1.21    0.85
 -15  -7   0   45.75    2.51
 -15   7   0   47.70    3.80
   0  -8   0  161.49    4.06
   0   8   0  163.66    4.89
  -2  -8   0    2.26    0.49
   2   8   0    2.58    0.63
  -2   8   0    3.01    0.83
  -4  -8   0   44.57    1.96
  -4   8   0   40.00    2.56
  -6  -8   0    0.36    0.33
  -6   8   0   -0.34    0.40
  -8  -8   0   42.53    2.14
  -8   8   0   43.86    3.03
 -10  -8   0    0.53    0.38
 -10   8   0    1.46    0.88
 -12  -8   0   35.53    2.20
 -12   8   0   39.80    3.26
  -1   9   0   28.12    1.99
  -3  -9   0   26.91    1.55
  -3   9   0   21.72    1.92
  -5  -9   0   15.06    1.23
  -5   9   0   18.35    2.28
  -7  -9   0   55.01    2.52
  -7   9   0   54.72    3.47
  -9  -9   0    1.92    0.63
  -9   9   0    0.45    0.69
 -11  -9   0   33.71    2.16
 -11   9   0   35.98    3.15
  -2  10   0    1.78    0.86
  -4  10   0   79.29    3.96
  -6 -10   0    8.84    1.22
  -6  10   0    9.01    1.71
  -8 -10   0   38.89    2.26
  -8  10   0   41.22    3.19
 -18   0   1   80.43    3.58
 -16   0   1    2.64    0.72
 -14   0   1  135.01    3.39
 -14   0   1  132.53    4.15
 -12   0   1    6.31    0.56
 -12   0   1    6.55    0.90
 -10   0   1   80.26    2.60
 -10   0   1   83.76    2.22
  -8   0   1  141.87    3.39
  -8   0   1  132.51    2.95
  -6   0   1  115.80    2.46
  -6   0   1  121.34    2.76
  -4   0   1  142.60    2.61
  -4   0   1  132.09    2.79
   2   0  -1  124.53    2.38
  -2   0   1  121.80    2.23
   0   0  -1  246.33    4.32
   0   0  -1  252.16    4.33
  -2   0  -1   38.00    0.97
  -2   0  -1   36.22    1.05
  -4   0  -1 1000.00   16.78
  -4   0  -1  989.34   17.09
  -6   0  -1   15.03    0.73
  -6   0  -1   14.23    0.91
  -8   0  -1  160.01    4.21
  -8   0  -1  170.59    3.72
 -10   0  -1    6.49    0.96
 -10   0  -1    6.88    0.74
 -12   0  -1  260.36    6.66
 -12   0  -1  259.01    5.67
 -14   0  -1    0.76    0.55
 -14   0  -1    0.42    0.28
 -16   0  -1  133.34    3.82
 -19   1   1   45.73    2.91
 -17  -1   1    0.96    0.52
 -17  -1   1    0.47    0.30
 -17   1   1    0.84    0.58
 -15  -1   1   73.64    2.90
 -15  -1   1   74.78    2.45
 -15   1   1   70.46    3.14
 -13  -1   1    1.03    0.34
 -13  -1   1    1.26    0.46
 -13   1   1    1.32    0.30
 -13   1   1    1.50    0.55
 -11  -1   1  125.53    3.27
 -11  -1   1  131.79    3.51
 -11   1   1  130.43    3.86
 -11   1   1  132.35    2.97
  -9  -1   1   24.05    1.12
  -9  -1   1   22.97    1.03
  -9   1   1   23.11    0.87
  -9   1   1   23.00    1.31
  -7  -1   1  312.86    5.99
  -7  -1   1  317.12    6.05
  -7   1   1  315.17    5.68
  -7   1   1  322.21    6.54
  -5  -1   1   46.09    1.28
  -5   1   1   47.33    1.55
  -5   1   1   45.94    1.04
   5   1  -1   46.29    1.32
  -3  -1   1  331.13    5.85
  -3   1   1  334.91    6.07
  -3   1   1  332.15    5.47
   3   1  -1  322.00    5.87
   1  -1  -1   19.09    0.48
  -1  -1   1   18.98    0.60
   1   1  -1   18.89    0.68
  -1   1   1   18.92    0.60
  -1  -1  -1  409.12    7.01
  -1   1  -1  403.36    7.39
  -3  -1  -1   40.09    1.17
  -3  -1  -1   41.86    0.98
  -3   1  -1   37.99    1.41
  -3   1  -1   39.65    1.05
  -5  -1  -1  267.65    5.28
  -5  -1  -1  268.76    5.14
  -5   1  -1  271.55    5.06
  -5   1  -1  280.35    5.90
  -7  -1  -1   17.71    0.93
  -7  -1  -1   19.31    0.95
  -7   1  -1   19.22    0.85
  -7   1  -1   18.16    1.22
  -9  -1  -1   90.95    2.68
  -9  -1  -1   84.30    2.46
  -9   1  -1   79.66    3.05
  -9   1  -1   85.95    2.32
 -11  -1  -1   36.57    1.79
 -11  -1  -1   35.25    1.54
 -11   1  -1   34.93    2.11
 -11   1  -1   36.12    1.46
 -13  -1  -1   22.99    1.29
 -13   1  -1   21.89    1.21
 -13   1  -1   21.14    1.76
 -15  -1  -1    8.57    0.97
 -15   1  -1    6.97    1.32
 -15   1  -1    9.35    1.01
 -17  -1  -1   11.10    1.19
 -19  -1  -1   23.99    1.58
 -20   2   1    0.10    0.62
 -18  -2   1   44.33    2.06
 -18   2   1   44.04    2.90
 -16  -2   1    2.15    0.52
 -16  -2   1    2.43    0.63
 -16   2   1    2.36    0.84
 -14  -2   1   79.04    2.68
 -14  -2   1   77.05    2.79
 -14   2   1   82.23    3.47
 -12  -2   1    0.76    0.34
 -12  -2   1    0.64    0.25
 -12   2   1    0.21    0.36
 -10  -2   1   22.59    1.14
 -10  -2   1   21.32    1.07
 -10   2   1   22.45    0.81
 -10   2   1   20.30    1.43
  -8  -2   1   39.17    1.42
  -8  -2   1   38.74    1.33
   8   2  -1   38.68    1.38
  -8   2   1   37.74    1.78
  -8   2   1   37.50    0.98
  -6  -2   1   28.75    1.09
   6   2  -1   27.46    1.01
  -6   2   1   27.67    1.35
  -6   2   1   28.00    0.64
  -4  -2   1    6.73    0.46
   4   2  -1    7.01    0.45
  -4   2   1    7.66    0.63
   2  -2  -1   20.63    0.49
  -2  -2   1   20.59    0.74
  -2   2   1   21.75    0.89
   2   2  -1   19.91    0.80
   0  -2  -1  178.27    3.41
   0  -2   1  180.15    3.43
   0   2   1  187.60    3.49
   0   2  -1  178.86    3.87
  -2  -2  -1    6.42    0.45
  -2   2  -1    6.15    0.38
  -2   2  -1    4.37    0.59
  -4  -2  -1  316.29    6.03
  -4  -2  -1  322.17    5.34
  -4   2  -1  310.76    5.67
  -4   2  -1  296.55    6.60
  -6  -2  -1    0.03    0.15
  -6  -2  -1    0.14    0.14
  -6   2  -1    0.04    0.24
  -6   2  -1    0.05    0.11
  -8  -2  -1  134.57    3.38
  -8  -2  -1  135.99    3.11
  -8   2  -1  134.38    4.26
  -8   2  -1  132.21    3.01
 -10  -2  -1    0.95    0.35
 -10  -2  -1    0.80    0.32
 -10   2  -1    1.03    0.53
 -10   2  -1    1.20    0.29
 -12  -2  -1  136.39    3.67
 -12   2  -1  130.69    3.33
 -12   2  -1  125.32    4.74
 -14  -2  -1    8.69    1.01
 -14   2  -1    7.22    0.82
 -14   2  -1    6.53    1.33
 -16  -2  -1   78.00    2.84
 -16   2  -1   77.70    4.05
 -18  -2  -1    0.31    0.36
 -19  -3   1   46.33    2.29
 -19   3   1   44.07    3.20
 -17  -3   1    2.68    0.62
 -17   3   1    3.23    1.01
 -15  -3   1  108.87    3.49
 -15   3   1  106.75    4.51
 -13  -3   1    3.92    0.68
 -13  -3   1    4.79    0.73
 -13   3   1    4.59    0.98
 -11  -3   1  144.68    3.88
 -11  -3   1  155.50    3.72
 -11   3   1  154.85    4.92
  -9  -3   1    1.06    0.34
  -9   3   1    0.77    0.42
   9   3  -1    0.92    0.28
  -9   3   1    1.24    0.24
  -7  -3   1  355.87    6.99
  -7   3   1  352.12    5.96
   7   3  -1  360.35    6.74
  -7   3   1  348.98    7.83
  -5  -3   1   -0.22    0.10
   5   3  -1   -0.07    0.12
  -5   3   1   -0.07    0.22
  -3  -3   1  457.10    8.23
   3  -3  -1  441.41    7.62
  -3   3   1  457.61    8.81
   3   3  -1  456.80    8.30
  -1  -3   1    9.07    0.53
   1  -3  -1   10.44    0.49
   1   3  -1    9.89    0.71
   1  -3   1  317.41    5.85
  -1  -3  -1  325.49    6.00
  -1   3  -1  325.90    6.72
   1   3   1  318.12    5.95
  -3  -3  -1   14.17    0.79
  -3   3  -1   16.18    1.11
  -3   3  -1   13.76    0.65
   3   3   1   14.74    0.46
  -5  -3  -1  398.39    7.74
  -5   3  -1  399.97    7.23
  -5   3  -1  398.52    8.66
  -7  -3  -1   13.22    0.89
  -7  -3  -1   12.16    0.57
  -7   3  -1   12.51    1.46
  -7   3  -1   13.71    0.69
  -9  -3  -1   95.67    2.89
  -9   3  -1   99.59    2.48
  -9   3  -1  100.89    3.91
 -11  -3  -1   80.07    2.68
 -11   3  -1   81.64    3.77
 -11   3  -1   81.35    2.29
 -13  -3  -1   42.62    1.93
 -13   3  -1   43.22    2.87
 -15  -3  -1   16.15    1.24
 -15   3  -1   14.65    2.10
 -17  -3  -1   20.71    1.46
 -17   3  -1   18.56    2.52
 -18  -4   1   46.80    2.35
 -18   4   1   42.96    3.24
 -16  -4   1    1.35    0.52
 -16   4   1    1.28    0.74
 -14  -4   1   89.00    3.13
 -14   4   1   84.54    4.12
 -12  -4   1    6.48    0.87
 -12  -4   1    5.58    0.73
 -12   4   1    5.64    1.15
 -10  -4   1   38.66    1.73
  10   4  -1   39.53    1.53
 -10   4   1   37.69    2.36
  -8  -4   1   60.72    2.11
   8   4  -1   62.27    1.89
  -8   4   1   63.99    2.87
  -6  -4   1   44.35    1.64
   6   4  -1   45.01    1.48
  -6   4   1   44.89    2.18
  -4  -4   1   17.04    0.89
   4  -4  -1   16.83    0.53
   4   4  -1   15.08    0.84
  -4   4   1   16.61    1.19
   2  -4  -1   49.88    1.27
  -2  -4   1   49.92    1.54
   2   4  -1   44.02    1.67
   0  -4  -1  227.62    4.49
   0  -4   1  228.45    4.53
   0   4  -1  226.37    5.26
   0   4   1  231.07    4.95
   2  -4   1    0.20    0.12
  -2  -4  -1    0.09    0.13
   2   4   1    0.48    0.18
  -2   4  -1    0.09    0.21
  -4  -4  -1  241.59    5.02
   4  -4   1  229.29    4.50
  -4   4  -1  233.56    5.92
   4   4   1  229.26    4.22
  -6  -4  -1    9.91    1.00
   6   4   1    6.91    0.37
  -6   4  -1   10.34    1.38
  -6   4  -1    7.52    0.52
  -8  -4  -1  165.36    4.20
  -8   4  -1  163.34    5.33
  -8   4  -1  160.57    3.55
 -10  -4  -1    0.41    0.26
 -10   4  -1    0.43    0.48
 -10   4  -1    0.08    0.17
 -12  -4  -1  129.78    3.79
 -12   4  -1  126.70    5.24
 -14  -4  -1    0.91    0.42
 -14   4  -1    1.82    0.87
 -16  -4  -1   78.87    3.07
 -16   4  -1   83.78    4.61
 -18  -4  -1   -0.05    0.37
 -18   4  -1    0.93    0.88
 -17  -5   1    0.29    0.39
 -17   5   1    0.28    0.71
 -15  -5   1   45.57    2.34
 -15   5   1   47.85    3.33
 -13  -5   1    0.02    0.29
 -13   5   1   -0.38    0.41
 -11  -5   1   60.86    2.41
 -11   5   1   62.96    3.41
  11   5  -1   62.24    2.27
  -9  -5   1   15.89    1.11
   9   5  -1   16.01    0.92
  -9   5   1   15.63    1.95
  -7  -5   1  147.26    3.84
   7   5  -1  149.48    3.50
  -7   5   1  151.25    4.92
  -5  -5   1   15.98    0.98
  -5   5   1   15.27    1.32
   5   5  -1   16.99    0.93
  -3  -5   1  153.24    3.56
   3  -5  -1  143.79    3.00
   3   5  -1  140.52    3.65
  -3   5   1  153.01    4.32
  -1  -5   1    0.07    0.16
   1  -5  -1    0.21    0.15
   1   5  -1    0.34    0.27
  -1   5   1    0.32    0.27
   1  -5   1  109.92    2.69
  -1  -5  -1  117.10    2.80
   1   5   1  110.36    2.98
  -1   5  -1  112.79    3.55
  -3  -5  -1    2.84    0.48
   3  -5   1    2.72    0.38
  -3   5  -1    4.18    0.86
  -5  -5  -1  126.16    3.38
   5  -5   1  130.33    2.91
  -5   5  -1  129.70    4.37
  -7  -5  -1    0.38    0.26
  -7   5  -1    0.18    0.19
  -7   5  -1    1.04    0.55
  -9  -5  -1   28.21    1.56
  -9   5  -1   34.21    2.43
 -11  -5  -1   21.80    1.42
 -11   5  -1   22.48    2.15
 -13  -5  -1   10.75    1.20
 -13   5  -1   10.97    1.97
 -15  -5  -1    4.13    0.80
 -15   5  -1    1.62    0.95
 -17  -5  -1    5.17    0.96
 -17   5  -1    3.12    1.23
 -16  -6   1    0.53    0.43
 -16   6   1    0.60    0.83
 -14  -6   1   71.72    2.94
 -14   6   1   57.02    3.81
 -12  -6   1    5.73    0.95
 -12   6   1    3.03    1.01
 -10  -6   1   36.16    1.86
 -10   6   1   40.06    2.78
  -8  -6   1   51.79    2.14
   8   6  -1   51.11    1.80
  -6  -6   1   43.86    1.84
  -6   6   1   39.97    2.40
   6   6  -1   45.01    1.68
  -4  -6   1   42.66    1.72
  -4   6   1   39.64    2.21
   4   6  -1   40.68    1.71
  -2  -6   1   35.87    1.50
   2  -6  -1   38.89    1.30
   2   6  -1   38.44    1.79
  -2   6   1   35.03    1.91
   0  -6  -1  111.33    2.81
   0  -6   1  106.89    2.85
   0   6  -1  114.06    3.63
   0   6   1  110.84    3.35
   2  -6   1    5.63    0.63
  -2  -6  -1    5.77    0.71
   2   6   1    5.24    0.66
  -2   6  -1    6.51    1.06
   4  -6   1  236.85    4.82
  -4  -6  -1  231.92    5.28
  -4   6  -1  228.53    6.48
  -6  -6  -1    7.81    0.92
  -6   6  -1    6.08    1.21
  -8  -6  -1   89.78    3.10
  -8   6  -1   97.96    4.26
 -10  -6  -1    2.78    0.65
 -10   6  -1    3.90    1.08
 -12  -6  -1  114.78    3.81
 -12   6  -1  113.90    5.33
 -14  -6  -1    0.07    0.29
 -14   6  -1    0.37    0.66
 -16  -6  -1   68.55    2.99
 -16   6  -1   58.38    4.20
 -15  -7   1   49.87    2.64
 -15   7   1   47.14    3.69
 -13  -7   1    7.70    1.12
 -13   7   1    7.15    1.67
 -11  -7   1   79.78    3.08
  -9  -7   1   -0.24    0.22
  -9   7   1    0.20    0.55
  -7  -7   1  159.65    4.36
   7   7  -1  159.23    3.95
  -7   7   1  151.34    5.50
  -5  -7   1    0.57    0.27
  -5   7   1    0.43    0.46
   5   7  -1    0.59    0.31
  -3  -7   1  129.29    3.60
   3   7  -1  134.23    3.87
  -3   7   1  141.73    4.60
  -1  -7   1   20.00    1.13
  -1   7   1   19.38    1.44
   1   7  -1   16.80    1.32
   1  -7   1  148.08    3.68
  -1  -7  -1  145.20    3.69
   1   7   1  147.62    4.05
  -1   7  -1  157.45    4.79
  -3  -7  -1    0.06    0.18
   3  -7   1   -0.08    0.14
  -3   7  -1    0.02    0.32
  -5  -7  -1  125.11    3.60
  -5   7  -1  123.39    4.72
  -7  -7  -1   20.74    1.39
  -7   7  -1   20.19    1.94
  -9  -7  -1   55.82    2.45
  -9   7  -1   48.65    3.22
 -11  -7  -1   27.55    1.76
 -11   7  -1   28.65    2.61
 -13  -7  -1   18.41    1.49
 -13   7  -1   16.33    2.46
 -14  -8   1   27.53    1.94
 -14   8   1   26.09    3.26
 -12  -8   1    0.68    0.43
 -12   8   1    0.36    0.75
 -10  -8   1    8.47    1.17
 -10   8   1    7.85    1.66
  -8  -8   1   12.69    1.37
  -8   8   1   15.71    2.15
  -6  -8   1   10.61    1.17
  -6   8   1    8.32    1.45
  -4  -8   1    7.43    0.92
  -4   8   1    7.64    1.37
   4   8  -1    7.37    0.97
  -2  -8   1    6.15    0.84
  -2   8   1    4.05    0.91
   2   8  -1    7.13    1.04
   0  -8   1   28.44    1.44
   0   8  -1   28.13    1.87
  -2  -8  -1    0.03    0.21
  -2   8  -1   -0.04    0.30
  -4  -8  -1   95.14    3.10
  -4   8  -1   94.84    4.10
  -6  -8  -1    0.72    0.32
  -6   8  -1   -0.49    0.37
  -8  -8  -1   25.85    1.69
  -8   8  -1   26.93    2.44
 -10  -8  -1   -0.15    0.26
 -10   8  -1    0.04    0.60
 -12  -8  -1   48.45    2.52
 -12   8  -1   52.96    3.80
 -11  -9   1   43.77    2.45
 -11   9   1   44.85    3.47
  -9  -9   1    0.13    0.36
  -9   9   1    0.12    0.61
  -7  -9   1   81.77    3.16
  -7   9   1   80.31    4.14
  -5  -9   1    0.21    0.32
  -5   9   1    0.17    0.52
  -3  -9   1   75.80    2.80
   3   9  -1   75.47    3.02
  -3   9   1   76.50    3.55
  -1  -9   1    4.24    0.73
   1   9  -1    4.41    0.93
  -1   9  -1   67.35    3.23
  -3   9  -1    0.44    0.50
  -5  -9  -1   73.38    2.81
  -5   9  -1   64.60    3.60
  -7  -9  -1    7.16    1.11
  -7   9  -1    3.01    0.99
  -9  -9  -1   26.32    1.82
  -9   9  -1   26.10    3.11
  -8 -10   1   28.58    1.94
  -8  10   1   31.05    2.77
  -6 -10   1   22.58    1.65
  -6  10   1   23.70    2.70
  -4 -10   1   15.61    1.33
   0  10  -1   67.68    3.26
  -2  10  -1    3.65    1.02
  -4  10  -1   65.95    3.65
  -6 -10  -1    8.28    1.24
  -6  10  -1   10.26    1.83
 -20   0   2    7.31    1.39
 -18   0   2   69.10    3.25
 -16   0   2    1.74    0.65
 -14   0   2  244.75    6.30
 -14   0   2  257.46    5.45
 -12   0   2    0.03    0.21
 -12   0   2    0.23    0.18
 -10   0   2  278.97    6.11
 -10   0   2  279.79    5.49
  -8   0   2    0.75    0.22
  -8   0   2    1.04    0.32
  -6   0   2  352.71    6.75
  -6   0   2  360.37    6.41
   4   0  -2   12.19    0.64
  -4   0   2   12.62    0.52
   2   0  -2  515.10    8.86
   2   0  -2  508.97    8.91
   0   0  -2    9.46    0.47
   0   0  -2    8.94    0.46
  -2   0  -2  156.98    3.26
  -2   0  -2  160.66    3.23
  -4   0  -2   43.26    1.50
  -4   0  -2   43.21    1.35
  -6   0  -2  144.67    3.37
  -6   0  -2  148.37    3.71
  -8   0  -2  136.46    3.39
 -10   0  -2   49.38    1.88
 -12   0  -2   56.43    2.16
 -14   0  -2   11.43    1.20
 -16   0  -2   92.86    3.21
 -18   0  -2    1.44    0.51
 -19  -1   2    1.18    0.57
 -19   1   2    1.10    0.68
 -17  -1   2   25.40    1.83
 -17   1   2   29.89    2.10
 -15  -1   2   24.67    1.62
 -15  -1   2   22.71    1.31
 -15   1   2   22.93    1.69
 -13  -1   2   25.82    1.50
 -13  -1   2   26.19    1.29
 -13   1   2   25.38    1.64
 -11  -1   2   24.38    1.30
 -11  -1   2   24.58    1.15
 -11   1   2   24.28    1.46
 -11   1   2   24.73    0.99
  -9  -1   2   56.92    1.89
  -9  -1   2   56.40    1.74
  -9   1   2   54.74    2.09
  -9   1   2   57.32    1.48
  -7  -1   2  118.42    2.76
  -7   1   2  121.09    2.43
   7   1  -2  125.41    2.99
  -7   1   2  120.71    3.12
  -5  -1   2   20.64    0.80
  -5   1   2   20.34    0.92
  -5   1   2   20.36    0.61
   5   1  -2   19.64    0.87
  -3  -1   2  269.53    4.87
   3  -1  -2  268.24    4.64
  -3   1   2  249.30    4.90
   3   1  -2  257.43    4.98
   1  -1  -2    4.16    0.28
   1  -1  -2    4.20    0.30
   1   1  -2    3.78    0.40
   1   1  -2    3.93    0.45
  -1  -1  -2  174.03    3.04
  -1  -1  -2  166.92    3.31
  -1   1  -2  160.57    3.37
  -1   1  -2  168.17    3.65
  -3  -1  -2    2.18    0.33
  -3  -1  -2    2.61    0.23
  -3   1  -2    2.66    0.48
  -3   1  -2    2.34    0.33
  -5  -1  -2  305.89    5.97
  -5  -1  -2  309.16    5.79
  -5   1  -2  301.80    5.83
  -5   1  -2  294.73    6.50
  -7  -1  -2   53.68    1.84
  -7   1  -2   59.11    2.36
  -7   1  -2   56.59    1.78
  -9  -1  -2  198.62    4.68
  -9   1  -2  204.67    4.57
  -9   1  -2  205.61    5.62
 -11  -1  -2    2.25    0.51
 -11   1  -2    2.02    0.73
 -11   1  -2    2.09    0.47
 -13  -1  -2   73.93    2.61
 -13   1  -2   73.03    3.48
 -13   1  -2   73.60    2.54
 -15  -1  -2    0.10    0.31
 -15   1  -2    0.53    0.36
 -17  -1  -2   56.12    2.47
 -17   1  -2   54.19    2.86
 -20   2   2    0.14    0.57
 -18  -2   2   42.97    2.07
 -18  -2   2   48.32    2.54
 -18   2   2   40.96    2.72
 -16  -2   2    0.00    0.27
 -16  -2   2    0.07    0.33
 -16   2   2    0.38    0.44
 -14  -2   2  138.26    3.80
 -14  -2   2  135.95    4.01
 -14   2   2  146.20    4.70
 -12  -2   2   17.37    1.13
 -12  -2   2   19.77    1.14
 -12   2   2   17.40    1.39
 -10  -2   2  182.40    4.24
 -10  -2   2  180.94    4.19
 -10   2   2  182.10    4.88
  -8  -2   2    1.53    0.33
  -8   2   2    2.15    0.19
  -8   2   2    1.59    0.44
   8   2  -2    1.68    0.37
  -6  -2   2  143.61    3.25
  -6   2   2  147.12    3.66
   6   2  -2  144.47    3.30
  -6   2   2  141.84    2.51
   4  -2  -2    4.59    0.22
  -4  -2   2    4.55    0.41
   4   2  -2    4.59    0.43
  -4   2   2    5.18    0.63
   2  -2  -2  216.05    3.84
  -2  -2   2  217.49    4.22
   2   2  -2  215.78    4.44
  -2   2   2  206.13    4.23
   0  -2  -2   22.77    0.77
   0   2  -2   23.79    0.93
   0   2  -2   22.59    1.08
   0   2   2   21.61    0.71
  -2  -2  -2   72.83    1.86
  -2   2  -2   69.08    1.86
  -2   2  -2   77.96    2.40
  -4  -2  -2   26.84    1.11
  -4   2  -2   26.29    1.03
  -4   2  -2   25.05    1.42
  -6  -2  -2   30.37    1.30
  -6  -2  -2   28.47    0.91
  -6   2  -2   28.20    1.14
  -6   2  -2   29.29    1.67
  -8  -2  -2   24.83    1.27
  -8   2  -2   25.63    1.14
  -8   2  -2   28.14    1.81
 -10  -2  -2   24.89    1.36
 -10   2  -2   26.94    1.26
 -10   2  -2   25.95    1.94
 -12  -2  -2   33.89    1.68
 -12   2  -2   28.67    1.44
 -12   2  -2   34.25    2.39
 -14  -2  -2    0.12    0.26
 -14   2  -2   -0.24    0.50
 -14   2  -2    0.76    0.36
 -16  -2  -2   47.99    2.25
 -18  -2  -2    0.01    0.38
 -19  -3   2    9.19    1.20
 -19   3   2    7.92    1.56
 -17  -3   2   26.80    1.87
 -17  -3   2   25.39    1.65
 -17   3   2   23.44    2.13
 -15  -3   2   36.65    1.85
 -15  -3   2   36.19    1.87
 -15   3   2   37.09    2.45
 -13  -3   2   79.28    2.71
 -13  -3   2   82.19    2.71
 -13   3   2   76.23    3.38
 -11  -3   2   58.38    2.13
 -11   3   2   54.74    2.62
  11   3  -2   57.51    2.12
  -9  -3   2   60.97    2.08
   9   3  -2   61.17    2.04
  -9   3   2   64.05    2.62
  -7  -3   2  165.78    3.86
   7   3  -2  164.40    3.79
  -7   3   2  167.50    4.41
  -5  -3   2    0.26    0.17
  -5   3   2    0.23    0.22
   5   3  -2    0.37    0.20
   3  -3  -2  319.81    5.36
  -3  -3   2  318.80    6.04
  -3   3   2  293.43    6.21
   3   3  -2  312.39    6.25
  -1  -3   2   20.14    0.87
   1  -3  -2   20.86    0.72
  -1   3   2   21.19    0.91
   1   3  -2   18.85    1.06
  -1  -3  -2  256.48    4.97
  -1   3  -2  258.10    5.14
  -1   3  -2  249.44    5.72
  -3  -3  -2    0.64    0.25
  -3   3  -2    0.63    0.36
  -3   3  -2    0.34    0.18
  -5  -3  -2  319.22    6.52
  -5   3  -2  321.83    7.49
  -5   3  -2  318.87    6.23
  -7  -3  -2    0.58    0.28
  -7   3  -2    0.52    0.23
  -7   3  -2    0.52    0.39
  -9  -3  -2  263.27    5.95
  -9   3  -2  258.69    7.18
  -9   3  -2  255.55    5.47
 -11  -3  -2    1.43    0.44
 -11   3  -2    2.56    0.86
 -11   3  -2    2.04    0.46
 -13  -3  -2   87.14    3.04
 -13   3  -2   86.31    2.79
 -13   3  -2   87.91    4.27
 -15  -3  -2    7.15    1.01
 -15   3  -2    6.76    1.52
 -17  -3  -2   67.46    2.84
 -18  -4   2   59.15    2.77
 -18   4   2   65.60    3.92
 -16  -4   2    3.40    0.73
 -16   4   2    3.65    1.06
 -14  -4   2  136.34    4.04
 -14  -4   2  135.40    3.85
 -14   4   2  131.09    5.10
 -12  -4   2    8.22    0.99
 -12   4   2    9.57    1.52
  12   4  -2    8.04    0.96
 -10  -4   2  190.01    4.75
  10   4  -2  197.86    4.61
 -10   4   2  195.28    5.76
  -8  -4   2    0.89    0.31
   8   4  -2    0.87    0.28
  -8   4   2    1.26    0.55
  -6  -4   2  165.96    3.93
   6   4  -2  165.49    3.88
  -6   4   2  166.57    4.59
  -4  -4   2    1.37    0.32
   4  -4  -2    1.72    0.14
   4   4  -2    1.58    0.39
  -4   4   2    0.83    0.34
   2  -4  -2  199.15    3.77
  -2  -4   2  196.08    4.25
   2   4  -2  197.84    4.66
  -2   4   2  197.98    4.58
   0  -4   2    2.14    0.36
   0  -4  -2    3.28    0.43
   0   4  -2    2.31    0.54
  -2  -4  -2  102.56    2.70
   2  -4   2  108.33    2.61
  -2   4  -2  109.19    3.46
  -4  -4  -2   56.42    1.94
  -4   4  -2   56.48    1.79
  -4   4  -2   54.10    2.49
  -6  -4  -2   32.80    1.53
  -6   4  -2   34.84    2.11
  -6   4  -2   35.19    1.36
  -8  -4  -2   29.39    1.50
  -8   4  -2   27.02    1.24
  -8   4  -2   27.03    2.01
 -10  -4  -2   45.12    2.00
 -10   4  -2   42.12    1.67
 -10   4  -2   44.51    2.80
 -12  -4  -2   47.31    2.18
 -12   4  -2   45.52    3.06
 -14  -4  -2    0.83    0.39
 -14   4  -2    1.30    0.83
 -16  -4  -2   49.79    2.42
 -16   4  -2   49.55    3.59
 -17  -5   2    7.71    1.15
 -17   5   2   10.35    1.89
 -15  -5   2    7.00    1.06
 -15   5   2    9.94    1.77
 -13  -5   2   19.44    1.40
  13   5  -2   21.96    1.36
 -13   5   2   18.22    2.20
 -11  -5   2   11.81    1.03
 -11   5   2    9.72    1.50
  11   5  -2   12.08    0.94
  -9  -5   2   15.94    1.12
  -9   5   2   16.90    1.60
   9   5  -2   16.09    1.01
  -7  -5   2   46.07    1.87
   7   5  -2   48.17    1.81
  -7   5   2   51.16    2.55
  -5  -5   2    8.49    0.73
   5   5  -2    9.51    0.78
  -5   5   2   11.17    1.33
   3  -5  -2  109.74    2.36
  -3  -5   2  114.26    2.99
   3   5  -2  113.47    3.25
  -3   5   2  105.06    3.40
  -1  -5   2    0.41    0.21
   1  -5  -2    0.68    0.21
  -1   5   2    0.50    0.31
   1   5  -2    0.23    0.23
   1  -5   2   76.89    2.18
  -1  -5  -2   73.32    2.19
   1   5   2   74.40    2.16
  -1   5  -2   79.20    2.93
   3  -5   2    2.03    0.37
  -3  -5  -2    2.39    0.48
  -3   5  -2    1.46    0.53
  -5  -5  -2  136.15    3.62
  -5   5  -2  133.66    3.36
  -5   5  -2  130.99    4.54
  -7  -5  -2   19.99    1.25
  -7   5  -2   17.86    1.67
  -7   5  -2   18.87    1.05
  -9  -5  -2  107.68    3.40
  -9   5  -2  104.88    4.53
  -9   5  -2  111.26    3.02
 -11  -5  -2   -0.04    0.24
 -11   5  -2    0.10    0.51
 -13  -5  -2   34.95    1.95
 -13   5  -2   34.08    2.86
 -15  -5  -2    0.03    0.30
 -15   5  -2   -0.01    0.65
 -16  -6   2    0.32    0.38
 -16   6   2    2.26    1.07
 -14  -6   2  124.91    4.12
 -14   6   2  121.17    5.53
 -12  -6   2    0.22    0.25
 -12   6   2   -0.10    0.50
 -10  -6   2  134.86    4.00
  10   6  -2  132.98    3.63
 -10   6   2  132.02    5.18
  -8  -6   2    1.90    0.49
  -8   6   2    1.74    0.72
   8   6  -2    2.12    0.46
  -6  -6   2  124.74    3.53
  -6   6   2  124.69    4.40
   6   6  -2  121.06    3.42
  -4  -6   2    2.93    0.56
  -4   6   2    2.86    0.68
   4   6  -2    1.88    0.48
  -2  -6   2  169.94    4.14
   2   6  -2  168.35    4.63
  -2   6   2  173.84    4.74
   0  -6   2    2.16    0.43
   0  -6  -2    2.13    0.42
   0   6   2    2.95    0.59
   0   6  -2    2.89    0.70
  -2  -6  -2   69.68    2.30
   2  -6   2   69.87    2.16
  -2   6  -2   69.59    2.99
   4  -6   2   29.41    1.27
  -4  -6  -2   27.90    1.45
  -4   6  -2   26.15    1.90
   6  -6   2   46.92    1.71
  -6  -6  -2   48.29    2.04
  -6   6  -2   50.73    2.86
  -8  -6  -2   45.17    2.03
  -8   6  -2   39.64    2.73
 -10  -6  -2   29.51    1.72
 -10   6  -2   33.48    2.66
 -12  -6  -2   30.44    1.83
 -12   6  -2   31.19    2.79
 -14  -6  -2    3.29    0.76
 -14   6  -2    3.99    1.29
 -15  -7   2   25.78    1.88
 -15   7   2   16.95    2.65
 -13  -7   2   19.54    1.56
 -13   7   2   16.90    2.53
 -11  -7   2   24.04    1.62
 -11   7   2   20.44    2.62
  -9  -7   2   42.11    2.09
   9   7  -2   44.88    1.90
  -7  -7   2   68.85    2.62
   7   7  -2   71.72    2.48
  -7   7   2   63.46    3.32
  -5  -7   2    0.81    0.33
   5   7  -2    0.87    0.38
  -5   7   2    0.45    0.47
  -3  -7   2  130.55    3.61
   3   7  -2  130.01    3.96
  -3   7   2  125.83    4.25
  -1  -7   2    2.53    0.50
   1   7  -2    2.09    0.61
   1  -7   2   88.93    2.63
  -1  -7  -2   79.66    2.58
  -1   7  -2   83.34    3.40
  -3  -7  -2   11.03    0.93
   3  -7   2   10.29    0.80
  -3   7  -2   10.65    1.47
  -5  -7  -2  138.86    3.94
  -5   7  -2  134.87    5.02
  -7  -7  -2    5.60    0.88
  -7   7  -2    5.80    1.31
  -9  -7  -2  109.61    3.61
  -9   7  -2  103.39    4.89
 -11  -7  -2    8.20    1.10
 -11   7  -2    5.62    1.50
 -13  -7  -2   42.12    2.30
 -13   7  -2   41.99    3.46
 -14  -8   2   54.25    2.79
 -14   8   2   52.54    3.91
 -12  -8   2    1.70    0.60
 -12   8   2    2.14    1.00
 -10  -8   2   53.12    2.53
 -10   8   2   48.87    3.36
  -8  -8   2    0.35    0.35
  -8   8   2    0.49    0.60
  -6  -8   2   40.23    2.00
  -6   8   2   39.98    2.62
   6   8  -2   39.65    1.93
  -4  -8   2    0.42    0.32
  -4   8   2    0.42    0.45
   4   8  -2    0.40    0.34
  -2  -8   2   59.92    2.30
   2   8  -2   58.59    2.68
   0  -8   2    0.35    0.27
   0   8  -2    0.17    0.35
   2  -8   2   16.60    1.10
  -2   8  -2   15.92    1.89
  -4  -8  -2    3.17    0.67
  -4   8  -2    2.11    0.78
  -6  -8  -2   12.44    1.11
  -6   8  -2   11.52    1.74
  -8  -8  -2   14.24    1.23
  -8   8  -2   14.94    2.13
 -10  -8  -2    6.81    1.02
 -10   8  -2    6.98    1.70
 -12  -8  -2    6.41    1.04
 -12   8  -2    5.72    1.58
 -11  -9   2   11.84    1.51
 -11   9   2   10.72    2.01
  -9  -9   2   18.66    1.53
  -9   9   2   18.87    2.43
  -7  -9   2   37.75    2.08
  -7   9   2   36.86    2.72
  -5  -9   2    0.44    0.34
   5   9  -2    0.23    0.33
  -3  -9   2   60.24    2.50
   3   9  -2   59.31    2.75
  -1  -9   2    1.37    0.44
   1   9  -2    2.85    0.81
  -1   9  -2   47.81    2.77
  -3   9  -2    1.98    0.79
  -5  -9  -2   69.81    2.77
  -5   9  -2   70.03    3.77
  -7  -9  -2    0.97    0.45
  -7   9  -2    0.37    0.65
  -9  -9  -2   57.46    2.67
  -9   9  -2   61.94    3.94
  -8 -10   2    6.31    1.11
  -6 -10   2   51.07    2.53
  -4 -10   2    7.19    1.11
  -2 -10   2   64.00    2.85
   2  10  -2   69.90    3.20
   0  10  -2    1.91    0.75
  -2  10  -2   43.76    2.85
  -4  10  -2   23.27    2.18
  -6  10  -2   18.52    2.42
 -20   0   3   13.57    1.81
 -18   0   3   26.56    2.05
 -16   0   3   49.98    2.59
 -14   0   3   71.26    2.89
 -12   0   3   10.07    0.71
 -12   0   3    9.29    1.07
 -10   0   3  313.83    6.78
 -10   0   3  318.82    6.14
  -8   0   3   21.95    0.91
  -8   0   3   22.21    1.13
   6   0  -3  240.44    5.08
  -6   0   3  241.07    4.66
   4   0  -3    7.01    0.54
  -4   0   3    6.28    0.43
   2   0  -3  563.66   10.03
   2   0  -3  566.18   10.01
   0   0  -3    1.22    0.28
   0   0  -3    1.34    0.28
  -2   0  -3  467.14    8.42
  -2   0  -3  448.64    8.32
  -4   0  -3    0.73    0.26
  -4   0  -3    0.79    0.29
  -6   0  -3  130.93    3.47
  -6   0  -3  133.97    3.34
  -8   0  -3    0.55    0.29
  -8   0  -3    0.38    0.34
 -10   0  -3  195.78    4.82
 -12   0  -3    3.57    0.69
 -14   0  -3   56.51    2.41
 -16   0  -3    9.58    1.20
 -19  -1   3    4.33    1.03
 -19   1   3    3.03    0.92
 -17  -1   3   91.26    3.67
 -17   1   3   92.98    3.87
 -15  -1   3    0.08    0.26
 -15  -1   3   -0.17    0.20
 -15   1   3    0.38    0.38
 -13  -1   3  108.72    3.41
 -13  -1   3  102.60    2.93
 -13   1   3  105.07    3.65
 -11  -1   3    0.63    0.32
 -11  -1   3    0.11    0.17
 -11   1   3   -0.06    0.19
 -11   1   3    0.06    0.14
  -9  -1   3  199.36    4.33
  -9   1   3  205.39    4.88
  -9   1   3  203.61    3.99
   9   1  -3  198.88    4.75
  -7  -1   3    0.09    0.12
  -7   1   3    0.11    0.10
  -7   1   3    0.06    0.16
   7   1  -3    0.33    0.19
  -5  -1   3  210.07    4.38
  -5   1   3  219.90    4.12
  -5   1   3  221.18    4.59
   5   1  -3  222.79    4.64
   3  -1  -3   38.75    1.28
   3  -1  -3   37.12    1.13
  -3  -1   3   38.43    1.24
   3   1  -3   37.73    1.33
   3   1  -3   38.02    1.33
   1  -1  -3   19.85    0.80
   1  -1  -3   19.15    0.76
   1   1  -3   20.49    0.93
   1   1  -3   20.09    0.90
  -1  -1  -3   30.11    0.91
  -1  -1  -3   30.35    1.09
  -1   1  -3   31.24    1.26
  -1   1  -3   30.65    1.16
  -3  -1  -3   45.61    1.24
  -3  -1  -3   47.23    1.54
  -3   1  -3   49.37    1.59
  -3   1  -3   47.61    1.77
  -5  -1  -3   37.65    1.48
  -5  -1  -3   38.52    1.24
  -5   1  -3   39.18    1.74
  -5   1  -3   37.55    1.43
  -7  -1  -3    6.75    0.77
  -7   1  -3    7.04    0.98
  -7   1  -3    7.86    0.68
  -9  -1  -3   94.80    2.99
  -9   1  -3   94.43    3.51
  -9   1  -3  102.90    2.95
 -11  -1  -3    5.66    0.86
 -11   1  -3    7.07    0.90
 -13  -1  -3   59.00    2.48
 -13   1  -3   59.30    2.40
 -15  -1  -3    2.81    0.70
 -15   1  -3    3.62    0.75
 -17  -1  -3   35.98    2.05
 -17   1  -3   39.14    2.10
 -20  -2   3    7.27    1.26
 -20   2   3    6.47    1.32
 -18  -2   3    4.25    0.93
 -18   2   3    4.96    1.17
 -16  -2   3   12.36    1.05
 -16  -2   3   11.29    1.33
 -16   2   3   14.58    1.77
 -14  -2   3   43.15    1.87
 -14  -2   3   43.13    2.04
 -14   2   3   43.94    2.40
 -12  -2   3    0.95    0.34
 -12  -2   3    1.34    0.41
 -12   2   3    1.52    0.53
 -10  -2   3  146.45    3.61
 -10   2   3  143.36    4.20
  10   2  -3  144.93    3.84
  -8  -2   3    0.56    0.22
  -8   2   3    0.96    0.38
  -8   2   3    0.82    0.15
   8   2  -3    0.96    0.31
  -6  -2   3  148.16    3.42
  -6   2   3  144.65    2.80
  -6   2   3  149.20    3.71
   6   2  -3  149.94    3.58
   4  -2  -3    0.25    0.12
  -4  -2   3    0.34    0.18
  -4   2   3    0.25    0.19
   4   2  -3    0.15    0.17
   2  -2  -3  259.10    4.86
  -2  -2   3  259.74    5.17
   2   2  -3  255.43    5.42
  -2   2   3  266.54    5.06
   0  -2  -3   27.62    1.02
   0   2  -3   29.10    1.34
   0   2   3   31.09    0.92
   0   2  -3   31.35    1.23
  -2  -2  -3  241.34    4.89
  -2  -2  -3  239.67    4.26
  -2   2  -3  243.49    5.03
  -2   2  -3  238.58    5.48
  -4   2  -3   17.09    0.93
  -4   2  -3   14.32    1.11
  -6  -2  -3   88.38    2.64
  -6   2  -3   90.38    2.55
  -6   2  -3   85.56    3.15
  -8  -2  -3    0.59    0.27
  -8   2  -3    0.55    0.26
  -8   2  -3    0.20    0.35
 -10  -2  -3   91.55    3.04
 -10   2  -3   93.89    2.89
 -10   2  -3   96.28    3.88
 -12  -2  -3    1.11    0.44
 -12   2  -3    1.00    0.66
 -12   2  -3    1.49    0.46
 -14  -2  -3   41.53    2.13
 -14   2  -3   41.04    2.00
 -16  -2  -3    2.44    0.65
 -16   2  -3    2.76    0.71
 -19  -3   3    0.28    0.47
 -19   3   3    0.63    0.62
 -17  -3   3  131.46    4.43
 -17  -3   3  145.73    4.31
 -17   3   3  145.83    5.45
 -15  -3   3    3.27    0.68
 -15  -3   3    2.83    0.64
 -15   3   3    2.78    0.85
 -13  -3   3   91.10    2.97
 -13  -3   3   87.29    2.88
 -13   3   3   80.15    3.44
 -11  -3   3    5.97    0.77
 -11   3   3    5.59    0.96
  11   3  -3    5.62    0.80
  -9  -3   3  328.76    6.88
  -9   3   3  328.50    7.62
   9   3  -3  337.79    7.00
  -7  -3   3    6.22    0.71
   7   3  -3    6.79    0.64
  -7   3   3    6.67    0.90
   5  -3  -3  189.97    3.51
  -5  -3   3  196.48    4.32
   5   3  -3  192.39    4.41
  -5   3   3  194.44    4.62
  -3  -3   3   76.15    2.18
   3  -3  -3   77.71    1.74
  -3   3   3   77.02    2.25
   3   3  -3   76.45    2.38
  -1  -3   3   58.10    1.79
   1  -3  -3   55.54    1.51
   1   3  -3   57.28    2.07
  -1   3   3   57.56    1.65
  -1  -3  -3   71.29    1.94
   1   3   3   70.60    1.60
  -1   3  -3   70.96    2.15
  -1   3  -3   67.34    2.47
  -3  -3  -3  118.72    3.00
  -3   3  -3  116.84    3.03
  -3   3  -3  122.27    3.72
  -5  -3  -3   67.14    2.20
  -5   3  -3   65.38    2.10
  -5   3  -3   61.15    2.69
  -7  -3  -3    7.48    0.90
  -7   3  -3    7.89    1.27
  -7   3  -3    5.34    0.70
  -9  -3  -3  131.50    3.81
  -9   3  -3  133.45    3.62
  -9   3  -3  133.15    4.82
 -11  -3  -3    1.93    0.50
 -11   3  -3    1.10    0.65
 -11   3  -3    2.27    0.53
 -13  -3  -3   67.61    2.78
 -13   3  -3   72.08    2.67
 -13   3  -3   70.21    3.81
 -15  -3  -3    2.32    0.64
 -18  -4   3    7.00    1.10
 -18   4   3    6.79    1.55
 -16  -4   3   13.70    1.25
 -16  -4   3   18.21    1.40
 -16   4   3   14.82    2.08
 -14  -4   3   69.03    2.65
 -14  -4   3   59.16    2.43
 -14   4   3   62.08    3.28
 -12  -4   3   12.90    1.05
  12   4  -3   11.42    0.98
 -12   4   3   14.21    1.78
 -10  -4   3  122.36    3.54
 -10   4   3  126.14    4.32
  10   4  -3  127.80    3.56
  -8  -4   3    0.13    0.20
  -8   4   3    0.34    0.37
   8   4  -3    0.22    0.20
  -6  -4   3  159.19    3.97
  -6   4   3  166.37    4.49
   6   4  -3  162.10    4.04
  -4  -4   3    4.03    0.57
  -4   4   3    3.67    0.62
   4   4  -3    3.55    0.60
  -2  -4   3  259.30    5.50
   2  -4  -3  259.21    4.92
   2   4  -3  264.07    5.99
  -2   4   3  266.07    5.56
   0  -4  -3    3.62    0.46
   0  -4   3    3.36    0.52
   0   4  -3    2.74    0.64
   0   4   3    4.30    0.53
  -2  -4  -3  205.39    4.50
  -2   4  -3  212.54    4.74
  -2   4  -3  200.05    5.39
  -4  -4  -3    3.55    0.59
  -4   4  -3    2.31    0.65
  -4   4  -3    2.87    0.51
  -6  -4  -3  109.60    3.27
  -6   4  -3  117.24    4.19
  -6   4  -3  111.04    3.10
  -8  -4  -3    1.74    0.45
  -8   4  -3    2.07    0.48
  -8   4  -3    1.58    0.68
 -10  -4  -3   85.71    3.04
 -10   4  -3   85.94    2.80
 -10   4  -3   84.53    4.05
 -12  -4  -3    0.17    0.30
 -12   4  -3    0.08    0.58
 -12   4  -3    0.46    0.32
 -14  -4  -3   52.59    2.48
 -14   4  -3   47.31    3.39
 -17  -5   3   63.43    2.87
 -17   5   3   60.11    3.81
 -15  -5   3   -0.11    0.30
 -15  -5   3    0.40    0.31
 -15   5   3    0.79    0.62
 -13  -5   3   34.04    1.88
  13   5  -3   32.33    1.76
 -13   5   3   38.66    2.66
 -11  -5   3    0.02    0.22
 -11   5   3   -0.03    0.38
  11   5  -3    0.09    0.24
  -9  -5   3  126.43    3.73
  -9   5   3  135.52    4.65
   9   5  -3  133.61    3.70
  -7  -5   3    1.38    0.40
   7   5  -3    0.83    0.34
  -7   5   3    0.96    0.48
  -5  -5   3   72.82    2.41
  -5   5   3   68.34    2.73
   5   5  -3   74.13    2.53
  -3  -5   3   12.69    0.89
   3   5  -3   15.15    1.11
  -3   5   3   10.89    0.97
   1  -5  -3    7.62    0.54
  -1  -5   3    8.49    0.70
   1   5  -3    7.58    1.00
  -1   5   3    6.30    0.80
   1  -5   3   12.49    0.86
  -1  -5  -3   11.92    0.78
  -1   5  -3   14.84    1.25
  -3  -5  -3   25.64    1.32
   3  -5   3   29.79    1.33
  -3   5  -3   25.46    1.75
  -5  -5  -3   15.24    1.08
  -5   5  -3   15.16    1.02
  -5   5  -3   16.39    1.85
  -7  -5  -3    0.15    0.23
  -7   5  -3    0.01    0.38
  -7   5  -3    0.31    0.25
  -9  -5  -3   58.01    2.42
  -9   5  -3   52.17    2.13
  -9   5  -3   56.86    3.28
 -11  -5  -3    1.89    0.56
 -11   5  -3    1.39    0.76
 -13  -5  -3   35.33    2.00
 -13   5  -3   28.75    2.74
 -15  -5  -3    0.38    0.41
 -15   5  -3   -0.05    0.76
 -16  -6   3   22.84    1.72
 -16   6   3   18.51    2.60
 -14  -6   3   39.13    2.17
 -14   6   3   41.23    3.07
  14   6  -3   40.28    2.05
 -12  -6   3    6.71    1.04
 -12   6   3    7.38    1.50
  12   6  -3    5.65    0.88
 -10  -6   3  131.61    3.99
  10   6  -3  132.37    3.80
 -10   6   3  124.83    4.96
  -8  -6   3    7.31    1.01
  -8   6   3    5.65    1.16
   8   6  -3    7.16    0.95
  -6  -6   3  108.95    3.32
  -6   6   3  113.32    4.04
   6   6  -3  107.08    3.35
  -4  -6   3    4.43    0.69
  -4   6   3    7.03    1.11
   4   6  -3    6.58    0.94
  -2  -6   3  185.94    4.62
   2   6  -3  201.51    5.31
   0  -6   3    0.69    0.26
   0  -6  -3    0.69    0.26
   0   6  -3    0.64    0.40
  -2  -6  -3  187.14    4.47
   2  -6   3  179.43    4.40
  -2   6  -3  187.82    5.55
  -4  -6  -3    0.24    0.25
   4  -6   3    0.24    0.23
  -4   6  -3    0.45    0.43
  -6  -6  -3   71.28    2.67
   6  -6   3   68.68    2.35
  -6   6  -3   77.26    3.61
  -8  -6  -3    2.14    0.60
  -8   6  -3    0.78    0.38
  -8   6  -3    1.17    0.67
 -10  -6  -3   92.80    3.39
 -10   6  -3   98.25    4.73
 -12  -6  -3    1.47    0.49
 -12   6  -3    1.50    0.86
 -15  -7   3    1.89    0.66
 -15   7   3    2.53    1.20
 -13  -7   3   67.39    2.99
 -13   7   3   70.33    4.19
 -11  -7   3    4.33    0.84
  11   7  -3    3.76    0.71
 -11   7   3    5.75    1.43
  -9  -7   3  104.72    3.56
  -9   7   3  102.17    4.53
   9   7  -3  103.03    3.34
  -7  -7   3    3.32    0.71
   7   7  -3    4.05    0.77
  -7   7   3    2.64    0.86
  -5  -7   3  103.12    3.31
   5   7  -3  104.93    3.49
  -3  -7   3   31.93    1.65
   3   7  -3   34.27    1.94
  -1  -7   3   27.58    1.46
   1   7  -3   27.68    1.83
   1  -7   3   30.58    1.52
  -1   7  -3   27.63    1.95
  -3  -7  -3   30.83    1.60
   3  -7   3   35.01    1.62
  -3   7  -3   38.48    2.39
   5  -7   3   30.74    1.51
  -5  -7  -3   28.90    1.63
  -5   7  -3   29.95    2.25
  -7  -7  -3   14.19    1.21
  -7   7  -3   14.87    2.06
  -9  -7  -3   62.08    2.70
  -9   7  -3   62.84    3.76
 -11  -7  -3    0.92    0.49
 -11   7  -3   -0.16    0.59
 -12  -8   3    0.22    0.39
 -12   8   3    0.55    0.79
 -10  -8   3   51.51    2.53
  10   8  -3   54.04    2.38
  -8  -8   3    0.21    0.31
  -8   8   3    0.62    0.56
   8   8  -3    0.19    0.32
  -6  -8   3   27.85    1.70
   6   8  -3   30.75    1.80
  -4  -8   3   -0.02    0.24
   4   8  -3   -0.09    0.29
  -2  -8   3   73.29    2.71
   2   8  -3   75.05    3.19
   0  -8   3    4.91    0.77
   0   8  -3    4.03    0.96
   2  -8   3   74.84    2.63
  -2   8  -3   68.38    3.38
  -4  -8  -3    0.75    0.42
  -4   8  -3    1.24    0.72
  -6  -8  -3   18.97    1.41
  -6   8  -3   21.23    2.03
  -8  -8  -3   -0.47    0.28
  -8   8  -3    0.06    0.51
 -10  -8  -3   38.71    2.19
 -10   8  -3   39.64    3.21
 -11  -9   3    1.79    0.68
 -11   9   3    1.38    0.94
  -9  -9   3   67.93    2.99
  -9   9   3   60.55    3.77
  -7  -9   3    0.84    0.50
   7   9  -3    0.98    0.47
  -5  -9   3   50.97    2.40
   5   9  -3   48.89    2.47
  -3  -9   3   17.21    1.32
   3   9  -3   16.96    1.50
  -1  -9   3   11.73    1.27
   1   9  -3   10.20    1.48
   1  -9   3   13.52    1.15
  -1   9  -3   15.22    1.94
  -3   9  -3   24.36    2.12
  -5   9  -3   11.66    1.82
  -7  -9  -3    3.10    0.72
  -7   9  -3    4.84    1.30
  -6 -10   3   53.18    2.62
   6  10  -3   50.00    3.25
  -4 -10   3    7.35    1.12
   4  10  -3    6.89    1.19
  -2 -10   3   71.80    2.96
   2  10  -3   73.62    3.45
   0  10  -3    1.86    0.78
  -2  10  -3   69.32    3.68
 -20   0   4   59.78    3.36
 -18   0   4    0.86    0.54
 -16   0   4  111.62    4.12
 -14   0   4    1.74    0.60
 -12   0   4  147.79    4.22
 -12   0   4  143.76    3.52
 -10   0   4   33.41    1.63
 -10   0   4   32.99    1.28
  -8   0   4   87.41    2.28
   8   0  -4   85.90    2.74
   6   0  -4  125.21    3.27
  -6   0   4  124.45    2.90
   4   0  -4  158.57    3.60
   4   0  -4  158.05    3.69
   2   0  -4   69.71    2.01
   2   0  -4   69.60    2.03
   0   0  -4   42.67    1.43
   0   0  -4   41.57    1.52
  -2   0  -4  312.58    6.10
  -2   0  -4  302.83    6.25
  -4   0  -4    4.71    0.61
  -4   0  -4    4.04    0.59
  -6   0  -4  163.11    4.08
  -8   0  -4    6.96    0.86
 -10   0  -4   74.82    2.74
 -12   0  -4    0.51    0.36
 -14   0  -4  121.76    4.04
 -19  -1   4    0.35    0.55
 -19   1   4    0.57    0.59
 -17  -1   4   75.49    3.32
 -17   1   4   74.08    3.50
 -15  -1   4    0.93    0.47
 -15   1   4    0.83    0.48
 -13  -1   4   74.51    2.41
 -13  -1   4   76.33    2.85
 -13   1   4   71.77    2.96
 -11  -1   4    0.83    0.37
 -11  -1   4    0.82    0.31
 -11   1   4    0.17    0.25
  -9  -1   4  168.73    3.90
  -9   1   4  165.22    3.54
  -9   1   4  168.60    4.33
   9   1  -4  166.99    4.31
  -7  -1   4   10.52    0.71
  -7   1   4   10.57    0.81
  -7   1   4   10.20    0.59
   7   1  -4    9.96    0.80
   5  -1  -4  302.22    5.95
   5  -1  -4  303.42    6.34
  -5  -1   4  313.44    6.13
   5   1  -4  315.47    6.38
   3  -1  -4    1.47    0.34
   3  -1  -4    0.85    0.25
   3   1  -4    1.14    0.31
   3   1  -4    0.73    0.28
   1  -1  -4  254.26    5.12
   1  -1  -4  249.53    4.95
   1   1  -4  246.12    5.25
   1   1  -4  248.82    5.26
  -1  -1  -4    0.15    0.17
  -1  -1  -4    0.32    0.15
  -1   1  -4    0.05    0.15
  -1   1  -4    0.18    0.19
  -3  -1  -4  133.58    2.87
  -3  -1  -4  129.78    3.30
  -3   1  -4  131.87    3.41
  -3   1  -4  137.23    3.54
  -5  -1  -4    1.99    0.42
  -5   1  -4    1.70    0.45
  -5   1  -4    1.98    0.49
  -7  -1  -4  104.45    3.13
  -7   1  -4  100.41    3.34
  -7   1  -4  103.07    3.08
  -9  -1  -4    3.39    0.65
  -9   1  -4    3.91    0.69
 -11  -1  -4   25.17    1.58
 -11   1  -4   22.33    1.45
 -13  -1  -4    7.84    1.10
 -13   1  -4    8.42    1.11
 -15  -1  -4    5.30    0.93
 -15   1  -4    4.47    0.87
 -18  -2   4    0.20    0.41
 -18   2   4   -0.09    0.45
 -16  -2   4   67.33    2.93
 -16  -2   4   66.02    2.97
 -16   2   4   72.66    3.42
 -14  -2   4    2.58    0.56
 -14  -2   4    5.69    0.91
 -14   2   4    5.44    1.08
 -12  -2   4   58.69    2.36
 -12  -2   4   64.83    2.26
 -12   2   4   65.49    2.82
  12   2  -4   59.27    2.50
 -10  -2   4   13.58    0.94
  10   2  -4   16.59    1.15
 -10   2   4   15.95    1.24
  -8  -2   4   37.62    1.53
   8   2  -4   38.28    1.69
  -8   2   4   42.88    1.87
  -6  -2   4   23.56    1.14
  -6   2   4   21.53    1.18
  -6   2   4   22.27    0.82
   6   2  -4   22.60    1.21
  -4  -2   4   50.36    1.74
   4  -2  -4   52.48    1.51
   4   2  -4   50.33    1.84
  -4   2   4   49.86    1.71
   2  -2  -4   34.72    1.23
   2   2  -4   34.52    1.49
  -2   2   4   35.57    1.25
   2   2  -4   34.24    1.47
   0  -2  -4    7.35    0.49
   0  -2  -4    7.32    0.56
   0   2  -4    8.19    0.74
   0   2  -4    7.81    0.68
  -2  -2  -4  145.26    3.52
  -2   2  -4  146.03    3.97
  -2   2  -4  155.22    3.78
  -4  -2  -4    0.73    0.29
  -4   2  -4    0.54    0.34
  -4   2  -4    0.96    0.32
  -6  -2  -4   79.50    2.58
  -6   2  -4   75.43    2.52
  -6   2  -4   70.54    2.86
  -8  -2  -4    0.19    0.26
  -8   2  -4   -0.30    0.16
  -8   2  -4    0.25    0.36
 -10  -2  -4   47.51    2.22
 -10   2  -4   50.78    2.19
 -10   2  -4   47.87    3.34
 -12  -2  -4    3.21    0.75
 -12   2  -4    2.67    0.66
 -14  -2  -4   70.69    2.99
 -14   2  -4   68.46    2.90
 -19  -3   4    2.19    0.75
 -19   3   4    3.73    1.15
 -17  -3   4   75.10    3.17
 -17  -3   4   72.14    2.87
 -17   3   4   72.44    3.67
 -15  -3   4    2.12    0.58
 -15  -3   4    1.49    0.50
 -15   3   4    1.20    0.65
 -13  -3   4  144.28    4.04
 -13   3   4  143.30    4.84
  13   3  -4  142.66    4.33
 -11  -3   4    5.48    0.78
  11   3  -4    5.49    0.85
 -11   3   4    4.34    0.88
  -9  -3   4  145.67    3.80
   9   3  -4  137.51    3.88
  -9   3   4  149.17    4.38
  -7  -3   4    0.39    0.24
   7   3  -4    0.20    0.21
  -7   3   4    0.33    0.29
  -5  -3   4  446.12    8.66
   5  -3  -4  459.71    8.82
  -5   3   4  426.64    8.83
   5   3  -4  439.68    8.85
   3  -3  -4    0.63    0.19
  -3  -3   4    0.31    0.23
   3   3  -4    0.83    0.33
  -3   3   4    0.49    0.22
   1  -3  -4  227.19    4.61
  -1   3   4  225.01    4.62
   1   3  -4  222.04    5.16
   1   3  -4  227.67    5.38
  -1  -3  -4   10.95    0.73
  -1   3  -4   11.39    1.00
  -1   3  -4   11.01    0.86
  -3  -3  -4  165.79    4.07
  -3   3  -4  182.87    4.93
  -3   3  -4  171.63    4.26
  -5  -3  -4    1.41    0.40
  -5   3  -4    1.91    0.57
  -5   3  -4    1.21    0.41
  -7  -3  -4  158.06    4.33
  -7   3  -4  162.93    4.24
  -7   3  -4  154.92    5.02
  -9  -3  -4    8.36    1.08
  -9   3  -4    9.64    1.50
  -9   3  -4    7.77    1.00
 -11  -3  -4   21.93    1.55
 -11   3  -4   22.01    1.48
 -11   3  -4   20.57    1.92
 -13  -3  -4   24.99    1.73
 -13   3  -4   20.88    1.55
 -15  -3  -4   22.16    1.71
 -15   3  -4   19.36    2.36
 -18  -4   4    0.44    0.42
 -18  -4   4    0.93    0.50
 -18   4   4    0.92    0.64
 -16  -4   4   74.83    3.00
 -16  -4   4   77.24    3.11
 -16   4   4   78.34    3.95
 -14  -4   4    2.07    0.59
  14   4  -4    1.47    0.52
 -14   4   4    2.68    0.85
 -12  -4   4   63.74    2.54
 -12   4   4   71.18    3.26
  12   4  -4   69.22    2.70
 -10  -4   4   37.12    1.77
  10   4  -4   35.05    1.76
 -10   4   4   35.89    2.14
  -8  -4   4   58.60    2.24
   8   4  -4   59.85    2.29
  -8   4   4   59.53    2.60
  -6  -4   4   26.88    1.37
   6   4  -4   23.57    1.35
  -6   4   4   20.34    1.37
  -4  -4   4   57.75    2.08
  -4   4   4   58.18    2.16
   4   4  -4   58.84    2.26
   2  -4  -4   53.83    1.60
  -2  -4   4   54.82    2.00
  -2   4   4   59.00    1.91
   2   4  -4   53.50    2.24
   0  -4  -4   20.10    0.97
   0  -4   4   21.61    1.17
   0   4  -4   20.01    1.38
  -2  -4  -4  156.18    3.81
  -2   4  -4  155.53    4.10
  -2   4  -4  159.81    4.70
  -4  -4  -4    1.01    0.37
  -4   4  -4    0.60    0.38
  -4   4  -4    0.65    0.30
  -6  -4  -4   73.78    2.67
  -6   4  -4   74.91    2.62
  -6   4  -4   76.83    3.37
  -8  -4  -4    1.34    0.48
  -8   4  -4    1.25    0.45
  -8   4  -4    1.45    0.67
 -10  -4  -4   67.17    2.82
 -10   4  -4   69.85    2.70
 -10   4  -4   68.43    3.61
 -12  -4  -4    0.02    0.34
 -12   4  -4    0.54    0.34
 -12   4  -4    0.13    0.54
 -14  -4  -4   66.28    3.01
 -17  -5   4   33.12    2.08
 -17  -5   4   34.34    2.07
 -17   5   4   33.93    2.86
 -15  -5   4    0.50    0.42
 -15   5   4    0.61    0.63
  15   5  -4    0.35    0.39
 -13  -5   4   48.63    2.32
  13   5  -4   50.22    2.34
 -13   5   4   49.32    3.02
 -11  -5   4    0.13    0.28
 -11   5   4   -0.19    0.37
  11   5  -4    0.01    0.22
  -9  -5   4   64.26    2.49
  -9   5   4   63.03    2.99
   9   5  -4   63.10    2.48
  -7  -5   4    5.70    0.82
  -7   5   4    8.43    1.22
   7   5  -4    6.66    0.95
  -5  -5   4  178.95    4.59
   5   5  -4  185.06    4.85
  -5   5   4  186.41    4.96
  -3  -5   4    2.90    0.57
   3   5  -4    4.52    0.81
   1  -5  -4  100.58    2.52
  -1  -5   4   93.36    2.92
   1   5  -4   97.95    3.42
   1  -5   4    0.00    0.18
  -1  -5  -4    0.11    0.17
  -1   5  -4    0.26    0.32
  -3  -5  -4   71.53    2.37
  -3   5  -4   67.78    2.51
  -3   5  -4   61.51    2.92
  -5  -5  -4    1.17    0.41
  -5   5  -4    1.83    0.72
  -5   5  -4    1.66    0.49
  -7  -5  -4   64.23    2.61
  -7   5  -4   64.17    3.32
  -7   5  -4   66.84    2.56
  -9  -5  -4    0.43    0.36
  -9   5  -4    0.80    0.43
  -9   5  -4    0.12    0.46
 -11  -5  -4    8.27    1.21
 -11   5  -4    6.91    1.02
 -11   5  -4    7.38    1.53
 -13  -5  -4    4.47    0.89
 -13   5  -4    5.69    1.50
 -16  -6   4   55.31    2.76
 -16  -6   4   56.61    2.62
 -16   6   4   56.78    3.80
  16   6  -4   52.74    2.67
 -14  -6   4    0.60    0.41
  14   6  -4    0.40    0.38
 -14   6   4    0.37    0.62
 -12  -6   4   73.67    2.98
  12   6  -4   71.82    2.85
 -12   6   4   67.49    3.71
 -10  -6   4   18.29    1.38
  10   6  -4   17.94    1.32
 -10   6   4   20.56    1.89
  -8  -6   4   41.59    2.04
   8   6  -4   41.50    2.03
  -8   6   4   45.60    2.59
  -6  -6   4   40.95    1.97
  -6   6   4   43.91    2.36
   6   6  -4   48.66    2.18
  -4  -6   4   64.32    2.44
   4   6  -4   62.60    2.65
  -2  -6   4   35.19    1.72
   2   6  -4   37.28    2.06
   0  -6   4   19.61    1.24
   0   6  -4   20.39    1.58
  -2  -6  -4  125.20    3.45
   2  -6   4  127.85    3.67
  -2   6  -4  126.55    4.48
   4  -6   4    1.93    0.47
  -4  -6  -4    1.68    0.48
  -4   6  -4    1.66    0.66
  -6  -6  -4   69.76    2.75
  -6   6  -4   74.32    3.64
  -6   6  -4   79.11    2.88
  -8  -6  -4    5.28    0.88
  -8   6  -4    4.76    0.84
  -8   6  -4    4.68    1.18
 -10  -6  -4   40.92    2.22
 -10   6  -4   39.56    2.98
 -12  -6  -4   -0.05    0.32
 -12   6  -4   -0.12    0.65
 -13  -7   4   47.16    2.47
  13   7  -4   42.97    2.26
 -13   7   4   40.37    3.12
 -11  -7   4    5.11    0.91
 -11   7   4    5.84    1.33
  11   7  -4    5.95    0.97
  -9  -7   4  106.57    3.72
  -9   7   4  108.37    4.60
   9   7  -4  109.39    3.65
  -7  -7   4    0.03    0.25
  -7   7   4    0.08    0.65
   7   7  -4   -0.17    0.24
  -5  -7   4  144.90    4.28
   5   7  -4  143.74    4.46
  -3  -7   4    1.31    0.44
   3   7  -4    1.85    0.59
  -1  -7   4  116.42    3.62
   1   7  -4  121.81    4.27
   1  -7   4    7.56    0.98
  -1   7  -4    5.72    1.08
  -3  -7  -4   81.53    2.86
   3  -7   4   78.39    2.79
  -3   7  -4   74.29    3.54
   5  -7   4   -0.02    0.25
  -5  -7  -4    0.75    0.37
  -5   7  -4    0.78    0.56
   7  -7   4   62.86    3.37
  -7  -7  -4   57.09    2.56
  -7   7  -4   59.23    3.46
  -9  -7  -4    6.05    0.97
  -9   7  -4    9.03    1.73
 -12  -8   4   26.63    1.89
 -12   8   4   25.87    3.00
  12   8  -4   22.05    1.62
 -10  -8   4    2.13    0.65
  10   8  -4    1.50    0.53
 -10   8   4    2.43    1.00
  -8  -8   4    7.90    1.14
   8   8  -4    8.39    1.19
  -6  -8   4   15.15    1.56
   6   8  -4   12.39    1.42
  -4  -8   4   20.15    1.45
   4   8  -4   18.02    1.55
  -2  -8   4    6.09    0.90
   2   8  -4    5.37    1.08
   0  -8   4    1.96    0.56
   0   8  -4    3.09    0.86
   2  -8   4   45.81    2.16
  -2   8  -4   50.72    2.91
   4  -8   4    0.02    0.30
  -4   8  -4   -0.14    0.39
  -6  -8  -4   26.64    1.71
  -6   8  -4   26.73    2.33
  -8  -8  -4    0.78    0.43
  -8   8  -4    0.96    0.80
  -9  -9   4   40.40    2.37
   9   9  -4   44.85    2.36
  -7  -9   4   -0.10    0.34
   7   9  -4    0.41    0.38
  -5  -9   4   89.37    3.43
   5   9  -4   93.57    3.70
  -3  -9   4    0.48    0.39
   3   9  -4   -0.06    0.38
  -1  -9   4   63.40    2.72
   1   9  -4   60.70    3.14
   1  -9   4    3.46    0.72
  -1   9  -4    2.18    0.84
  -3   9  -4   40.38    2.78
  -5   9  -4    0.21    0.56
 -18   0   5    9.02    1.50
 -16   0   5  101.28    3.98
 -14   0   5    0.44    0.37
 -12   0   5  212.61    5.58
 -10   0   5    0.02    0.17
 -10   0   5    0.19    0.27
  -8   0   5  195.58    4.35
   8   0  -5  197.04    4.95
   6   0  -5    4.13    0.65
  -6   0   5    4.36    0.58
   4   0  -5  218.55    4.89
   4   0  -5  209.69    4.79
   2   0  -5    5.82    0.73
   2   0  -5    6.39    0.61
   0   0  -5  254.39    5.38
   0   0  -5  254.95    5.61
  -2   0  -5    6.68    0.83
  -2   0  -5    5.89    0.56
  -4   0  -5   78.01    2.62
  -6   0  -5   69.45    2.55
  -8   0  -5   45.79    2.11
 -10   0  -5   20.32    1.46
 -12   0  -5   21.52    1.59
 -14   0  -5   22.85    1.73
 -19  -1   5   41.03    2.67
 -19   1   5   47.18    3.00
 -17  -1   5    0.97    0.56
 -17   1   5    0.44    0.50
 -15  -1   5   20.67    1.58
 -15   1   5   21.52    1.74
 -13  -1   5   19.00    1.40
 -13   1   5   17.99    1.46
 -11  -1   5   25.74    1.52
 -11  -1   5   23.39    1.25
 -11   1   5   25.26    1.57
  11   1  -5   25.06    1.60
  -9  -1   5   16.67    1.00
  -9   1   5   13.87    1.08
   9   1  -5   15.41    1.14
  -7  -1   5   14.02    0.89
   7   1  -5   12.36    0.96
  -7   1   5   13.57    0.78
  -7   1   5   12.82    0.95
   5  -1  -5  108.81    2.84
   5  -1  -5  107.33    3.06
  -5  -1   5  107.78    2.90
   5   1  -5  108.95    3.11
   3  -1  -5    1.10    0.32
   3  -1  -5    0.93    0.29
   3   1  -5    0.67    0.28
   3   1  -5    0.91    0.31
   1  -1  -5  128.44    3.12
   1  -1  -5  138.82    3.39
   1   1  -5  123.71    3.33
   1   1  -5  122.73    3.41
  -1  -1  -5    5.05    0.69
  -1  -1  -5    4.11    0.52
  -1   1  -5    4.75    0.68
  -1   1  -5    4.42    0.66
  -3  -1  -5  124.95    3.42
  -3   1  -5  124.09    3.53
  -3   1  -5  124.13    3.44
  -5   1  -5    1.42    0.46
  -5   1  -5    1.94    0.52
  -7  -1  -5  134.63    3.89
  -7   1  -5  128.54    3.85
  -9  -1  -5    3.04    0.71
  -9   1  -5    3.47    0.74
 -11  -1  -5   59.50    2.66
 -11   1  -5   59.89    2.68
 -13  -1  -5    0.68    0.42
 -13   1  -5    0.68    0.46
 -18  -2   5    0.27    0.44
 -18   2   5    0.32    0.59
 -16  -2   5   53.74    2.65
 -16   2   5   47.72    2.84
 -14  -2   5    8.35    1.12
 -14  -2   5    6.33    0.87
 -14   2   5    9.74    1.46
 -12  -2   5  131.68    3.61
  12   2  -5  125.78    4.05
 -12   2   5  121.41    4.18
 -10  -2   5   16.66    1.10
 -10   2   5   17.95    1.35
  10   2  -5   16.75    1.24
  -8  -2   5   94.35    2.86
   8   2  -5   97.02    3.10
  -8   2   5   96.73    3.12
  -6  -2   5    0.42    0.22
   6  -2  -5    0.33    0.21
   6   2  -5    0.23    0.22
  -6   2   5    0.29    0.24
  -4  -2   5  126.66    3.28
   4  -2  -5  112.58    2.93
  -4   2   5  120.34    3.15
   4   2  -5  119.54    3.38
   2  -2  -5    6.41    0.70
  -2   2   5    6.54    0.56
   2   2  -5    6.24    0.84
   2   2  -5    7.08    0.85
   0  -2  -5  137.98    3.48
   0   2  -5  136.64    3.79
   0   2  -5  138.20    3.76
  -2  -2  -5    0.62    0.27
  -2   2  -5    1.47    0.43
  -2   2  -5    1.34    0.43
  -4  -2  -5   34.68    1.61
  -4   2  -5   33.06    1.66
  -4   2  -5   31.76    1.74
  -6  -2  -5   29.11    1.57
  -6   2  -5   25.95    1.53
  -6   2  -5   28.93    1.76
  -8  -2  -5   16.49    1.27
  -8   2  -5   16.94    1.30
 -10  -2  -5    4.26    0.82
 -10   2  -5    5.65    0.96
 -12  -2  -5    6.46    1.05
 -12   2  -5   10.15    1.35
 -17  -3   5    6.87    1.16
 -17   3   5    6.01    1.29
 -15  -3   5   32.46    1.79
 -15  -3   5   31.84    1.91
 -15   3   5   27.95    2.16
 -13  -3   5   24.61    1.51
 -13   3   5   24.39    1.90
  13   3  -5   26.58    1.73
 -11  -3   5   58.44    2.30
  11   3  -5   55.96    2.45
 -11   3   5   57.06    2.73
  -9  -3   5   52.66    2.13
   9   3  -5   54.80    2.31
  -9   3   5   60.61    2.61
  -7  -3   5   22.64    1.29
  -7   3   5   19.40    1.34
   7   3  -5   20.90    1.32
  -5  -3   5   94.67    2.89
   5   3  -5   92.55    3.01
  -5   3   5   96.65    2.95
   3  -3  -5    8.17    0.63
  -3  -3   5    8.90    0.79
   3   3  -5    9.39    1.06
  -3   3   5    9.31    0.76
   1  -3  -5  205.53    4.67
   1   3  -5  215.70    5.26
   1   3  -5  219.87    5.40
  -1  -3  -5    9.48    0.74
  -1   3  -5    9.15    1.04
  -1   3  -5    9.61    1.17
  -3  -3  -5  132.59    3.62
  -3   3  -5  140.92    4.28
  -3   3  -5  135.42    3.89
  -5  -3  -5    1.32    0.42
  -5   3  -5    2.27    0.68
  -5   3  -5    1.33    0.47
  -7  -3  -5  148.28    4.32
  -7   3  -5  146.32    4.31
  -7   3  -5  152.35    4.95
  -9  -3  -5   -0.21    0.23
  -9   3  -5   -0.36    0.51
  -9   3  -5   -0.18    0.26
 -11  -3  -5   87.92    3.43
 -11   3  -5   84.64    3.32
 -13  -3  -5    1.32    0.64
 -13   3  -5    0.58    0.50
 -16  -4   5   58.72    2.65
 -16  -4   5   58.67    2.76
 -16   4   5   56.03    3.31
 -14  -4   5    0.75    0.41
 -14   4   5    0.55    0.54
  14   4  -5    0.52    0.38
 -12  -4   5  133.03    4.04
 -12   4   5  133.72    4.78
  12   4  -5  130.37    4.19
 -10  -4   5    9.95    1.15
  10   4  -5    8.62    1.12
 -10   4   5    8.19    1.26
  -8  -4   5   97.61    3.19
   8   4  -5  102.49    3.36
  -8   4   5  102.63    3.62
  -6  -4   5    9.11    1.02
   6   4  -5   11.23    1.01
  -6   4   5   11.43    1.07
  -4  -4   5  128.10    3.63
   4   4  -5  129.29    3.82
  -4   4   5  121.30    3.95
  -2  -4   5    1.71    0.47
   2  -4  -5    2.29    0.42
   2   4  -5    2.29    0.58
   0  -4  -5  133.12    3.36
   0  -4   5  134.09    3.74
   0   4  -5  133.35    4.17
   0   4  -5  133.83    3.94
  -2  -4  -5    6.70    0.79
  -2   4  -5    5.67    0.98
  -2   4  -5    6.06    0.89
  -4  -4  -5   44.30    1.93
  -4   4  -5   45.76    2.10
  -4   4  -5   44.94    2.45
  -6  -4  -5   34.53    1.82
  -6   4  -5   37.74    1.94
  -6   4  -5   31.06    2.14
  -8  -4  -5   22.07    1.57
  -8   4  -5   28.11    2.12
  -8   4  -5   23.71    1.60
 -10  -4  -5    4.06    0.86
 -10   4  -5    6.05    1.02
 -10   4  -5    5.45    1.22
 -12  -4  -5    9.85    1.38
 -12   4  -5   15.65    1.70
 -15  -5   5    7.76    1.13
  15   5  -5    9.37    1.31
 -15   5   5    6.88    1.57
 -13  -5   5    6.98    1.05
 -13   5   5    6.22    1.28
  13   5  -5    5.58    1.01
 -11  -5   5   12.06    1.30
 -11   5   5   14.98    1.87
  11   5  -5   14.23    1.25
  -9  -5   5    9.11    1.12
  -9   5   5    8.64    1.33
   9   5  -5    9.12    1.17
  -7  -5   5    3.17    0.65
  -7   5   5    2.62    0.70
   7   5  -5    2.12    0.58
  -5  -5   5   34.79    1.79
   5   5  -5   37.95    1.95
  -3  -5   5    0.12    0.22
   3   5  -5    0.34    0.28
  -1  -5   5   81.55    2.87
   1   5  -5   85.62    3.29
  -1  -5  -5   -0.04    0.17
   1  -5   5    0.22    0.24
  -1   5  -5    0.07    0.30
  -3  -5  -5   57.40    2.21
  -3   5  -5   53.59    2.42
  -3   5  -5   61.66    2.95
  -5  -5  -5    1.29    0.44
  -5   5  -5    0.73    0.37
  -5   5  -5    1.41    0.60
  -7  -5  -5   71.86    2.92
  -7   5  -5   68.21    2.85
  -7   5  -5   71.16    3.56
  -9  -5  -5    1.93    0.65
  -9   5  -5    1.55    0.77
  -9   5  -5    1.06    0.47
 -11  -5  -5   41.60    2.40
 -11   5  -5   44.40    3.11
 -11   5  -5   40.75    2.30
 -14  -6   5    0.03    0.37
  14   6  -5    0.00    0.35
 -14   6   5    0.12    0.65
 -12  -6   5  105.94    3.84
  12   6  -5  110.66    3.88
 -12   6   5  110.94    4.80
 -10  -6   5    0.25    0.32
 -10   6   5    0.38    0.50
  10   6  -5    0.09    0.27
  -8  -6   5   88.62    3.27
   8   6  -5   88.68    3.29
  -8   6   5   87.41    4.55
  -6  -6   5    4.51    0.78
   6   6  -5    5.02    0.90
  -4  -6   5  107.48    3.52
   4   6  -5  102.94    3.70
  -2  -6   5    1.19    0.45
   2   6  -5    1.23    0.57
   0  -6   5  117.35    3.67
   0   6  -5  110.62    4.11
   2  -6   5    4.34    0.77
  -2  -6  -5    7.40    1.44
  -2   6  -5    4.41    0.97
  -4  -6  -5   38.53    1.93
   4  -6   5   38.62    1.95
  -4   6  -5   41.14    2.58
  -6  -6  -5   34.30    1.93
  -6   6  -5   31.74    1.92
  -6   6  -5   32.09    2.39
  -8  -6  -5   21.40    1.62
  -8   6  -5   22.09    2.14
  -8   6  -5   23.08    1.67
 -10  -6  -5   12.38    1.50
 -13  -7   5   24.34    1.83
  13   7  -5   23.77    1.77
 -13   7   5   21.40    2.74
 -11  -7   5   24.85    1.78
 -11   7   5   16.99    2.27
  11   7  -5   20.01    1.56
  -9  -7   5   13.05    1.52
   9   7  -5   12.37    1.46
  -7  -7   5   18.45    1.46
   7   7  -5   19.20    1.51
  -5  -7   5   74.18    2.95
   5   7  -5   71.58    3.10
  -3  -7   5    1.24    0.48
   3   7  -5    1.75    0.65
  -1  -7   5   74.59    2.90
   1   7  -5   71.30    3.27
   1  -7   5   11.20    1.25
  -1   7  -5    9.88    1.45
   3  -7   5   78.73    3.00
  -3   7  -5   73.99    3.60
   5  -7   5    0.55    0.39
  -5  -7  -5    0.32    0.37
  -5   7  -5    0.76    0.56
   7  -7   5   70.11    2.89
  -7  -7  -5   70.08    3.05
  -7   7  -5   83.88    4.19
 -10  -8   5    1.47    0.55
  10   8  -5    0.91    0.52
  -8  -8   5   30.63    1.98
   8   8  -5   33.94    2.10
  -6  -8   5   -0.29    0.26
   6   8  -5    0.15    0.33
  -4  -8   5   33.02    1.97
   4   8  -5   33.08    2.15
  -2  -8   5   -0.05    0.30
   2   8  -5   -0.18    0.37
   0  -8   5   45.47    2.30
   0   8  -5   45.96    2.73
   2  -8   5    0.03    0.32
  -2   8  -5    0.11    0.41
   4  -8   5   12.14    1.40
  -4   8  -5   12.85    1.93
  -5  -9   5   28.41    1.94
   5   9  -5   26.38    1.99
  -3  -9   5    1.83    0.63
   3   9  -5    1.45    0.66
  -1  -9   5   44.81    2.39
   1   9  -5   48.14    2.86
 -18   0   6   35.33    2.51
 -16   0   6   20.26    1.75
 -14   0   6   38.46    2.21
 -12   0   6   84.12    3.22
 -10   0   6    0.69    0.38
  -8   0   6  142.94    3.62
   8   0  -6  138.99    4.11
   6   0  -6   11.73    0.97
  -6   0   6   10.01    0.79
   4   0  -6  112.42    3.28
   4   0  -6  113.27    3.29
   2   0  -6    0.20    0.20
   2   0  -6    0.57    0.28
   0   0  -6  210.77    5.19
   0   0  -6  211.59    4.87
  -2   0  -6    0.04    0.20
  -4   0  -6  156.95    4.43
  -6   0  -6    0.48    0.36
  -8   0  -6   76.18    3.05
 -10   0  -6    2.63    0.68
 -17  -1   6    1.22    0.60
 -17   1   6    1.53    0.73
 -15  -1   6   70.83    3.16
 -15   1   6   71.36    3.33
 -13  -1   6    0.07    0.27
 -13   1   6   -0.11    0.29
 -11  -1   6   86.35    2.78
 -11   1   6   89.26    3.28
  11   1  -6   88.14    3.35
  -9  -1   6    0.42    0.25
  -9   1   6    0.20    0.29
   9   1  -6    0.18    0.26
  -7  -1   6  106.11    3.14
  -7   1   6  119.76    3.45
   7   1  -6  112.67    3.51
  -7   1   6  108.74    2.95
   5  -1  -6    0.02    0.16
  -5  -1   6    0.14    0.21
   5  -1  -6    0.17    0.23
   5   1  -6    0.47    0.26
   3  -1  -6   43.33    1.78
   3  -1  -6   39.43    1.69
   3   1  -6   43.48    1.91
   3   1  -6   41.63    1.83
   1  -1  -6   16.13    1.08
   1   1  -6   17.28    1.12
   1   1  -6   15.93    1.16
  -1  -1  -6   19.00    1.22
  -1   1  -6   19.35    1.29
  -1   1  -6   17.52    1.13
  -3  -1  -6   12.01    1.00
  -3   1  -6    8.94    1.07
  -5  -1  -6   29.89    1.69
  -5   1  -6   27.61    1.67
  -7  -1  -6   36.89    1.97
  -7   1  -6   32.20    1.89
  -9  -1  -6    0.19    0.33
  -9   1  -6    0.53    0.39
 -11  -1  -6   42.73    2.40
 -11   1  -6   46.22    2.50
 -16  -2   6    6.55    1.12
 -16   2   6    5.81    1.23
 -14  -2   6   14.43    1.31
 -14   2   6   13.88    1.69
 -12  -2   6   41.22    1.92
 -12   2   6   35.75    2.16
  12   2  -6   41.27    2.23
 -10  -2   6    0.94    0.37
  10   2  -6    1.05    0.45
 -10   2   6    0.46    0.40
  -8  -2   6   76.50    2.63
  -8   2   6   78.52    2.84
   8   2  -6   74.40    2.83
  -6  -2   6    0.84    0.34
   6   2  -6    1.61    0.49
  -6   2   6    0.88    0.35
  -4  -2   6   57.67    2.20
   4  -2  -6   59.80    2.05
  -4   2   6   57.70    2.09
   4   2  -6   56.32    2.28
   2  -2  -6    0.10    0.19
   2   2  -6    0.12    0.23
   2   2  -6    0.01    0.21
   0  -2  -6  114.02    3.33
   0   2  -6  116.53    3.62
   0   2  -6  116.96    3.53
  -2  -2  -6   13.80    1.05
  -2   2  -6   17.63    1.29
  -2   2  -6   15.58    1.19
  -4  -2  -6   95.90    3.12
  -4   2  -6   88.83    3.17
  -4   2  -6   90.06    3.23
  -6  -2  -6    0.32    0.32
  -6   2  -6    0.32    0.31
  -8  -2  -6   43.57    2.24
  -8   2  -6   42.20    2.25
 -10  -2  -6    0.61    0.46
 -10   2  -6    0.34    0.40
 -15  -3   6   87.72    3.36
 -15  -3   6   83.39    3.39
 -15   3   6   77.41    3.78
 -13  -3   6    2.35    0.61
 -13   3   6    3.94    0.98
  13   3  -6    2.34    0.67
 -11  -3   6  102.78    3.41
 -11   3   6  100.11    3.89
  11   3  -6  106.93    3.73
  -9  -3   6    0.64    0.34
   9   3  -6    0.59    0.32
  -9   3   6    0.21    0.35
  -7  -3   6  169.15    4.54
  -7   3   6  174.71    4.76
   7   3  -6  168.97    4.75
  -5  -3   6    6.81    0.89
  -5   3   6    8.16    0.99
   5   3  -6   10.18    1.17
   3  -3  -6   45.13    2.55
  -3  -3   6   43.01    1.94
   3   3  -6   42.91    2.03
   1  -3  -6   20.97    1.20
   1   3  -6   24.07    1.53
   1   3  -6   20.13    1.39
  -1  -3  -6   60.19    2.24
  -1   3  -6   55.26    2.48
  -1   3  -6   59.00    2.51
  -3  -3  -6   33.17    1.67
  -3   3  -6   32.62    1.87
  -3   3  -6   33.06    1.93
  -5  -3  -6   30.33    1.70
  -5   3  -6   31.62    1.87
  -5   3  -6   32.83    2.00
  -7  -3  -6   41.61    2.17
  -7   3  -6   44.86    2.31
  -9  -3  -6    2.11    0.63
  -9   3  -6    2.91    0.76
 -16  -4   6   10.06    1.37
 -16  -4   6    8.49    1.20
 -16   4   6   13.10    1.98
 -14  -4   6   22.96    1.61
 -14   4   6   21.99    1.98
  14   4  -6   19.46    1.64
 -12  -4   6   52.73    2.41
  12   4  -6   46.05    2.43
 -12   4   6   47.64    2.77
 -10  -4   6    1.45    0.52
 -10   4   6    1.21    0.60
  10   4  -6    0.91    0.44
  -8  -4   6   81.14    2.98
   8   4  -6   81.22    3.11
  -8   4   6   80.87    3.23
  -6  -4   6   -0.04    0.24
   6   4  -6    0.05    0.26
  -4  -4   6   64.89    2.58
   4   4  -6   68.67    2.76
  -2  -4   6    4.37    0.79
   2   4  -6    4.84    0.89
   0  -4   6  120.85    3.72
   0  -4  -6  119.53    3.35
   0   4  -6  119.78    4.06
   0   4  -6  118.36    3.91
  -2  -4  -6   10.31    0.88
  -2   4  -6    7.35    1.07
  -2   4  -6    9.22    1.28
  -4  -4  -6  104.60    3.38
  -4   4  -6  104.62    3.68
  -4   4  -6  101.03    3.91
  -6  -4  -6    1.19    0.41
  -6   4  -6    1.34    0.65
  -6   4  -6    0.85    0.44
  -8  -4  -6   48.17    2.47
  -8   4  -6   44.23    2.40
 -13  -5   6    0.09    0.36
  13   5  -6    0.06    0.35
 -13   5   6    0.33    0.55
 -11  -5   6   34.77    2.05
 -11   5   6   39.50    2.52
  11   5  -6   44.52    2.34
  -9  -5   6    1.66    0.56
   9   5  -6    1.44    0.54
  -7  -5   6   71.72    2.88
   7   5  -6   74.99    3.02
  -5  -5   6    0.09    0.24
   5   5  -6    0.13    0.29
  -3  -5   6   12.91    1.39
   3   5  -6   11.16    1.34
  -1  -5   6    4.34    0.81
   1   5  -6    5.57    1.02
   1  -5   6   13.63    1.19
  -1   5  -6   17.44    1.55
  -3  -5  -6    6.96    0.94
  -3   5  -6    6.19    1.07
  -3   5  -6    5.04    1.01
  -5  -5  -6   13.05    1.39
  -5   5  -6   10.55    1.52
  -5   5  -6   12.77    1.53
  -7  -5  -6   13.48    1.49
  -7   5  -6   13.23    1.56
  -7   5  -6   13.49    1.80
 -12  -6   6   48.22    2.51
 -12   6   6   39.01    2.82
  12   6  -6   45.07    2.48
 -10  -6   6    0.78    0.44
  10   6  -6    1.33    0.55
  -8  -6   6   76.41    3.10
   8   6  -6   71.88    3.10
  -6  -6   6    6.22    0.99
   6   6  -6    3.33    0.76
  -4  -6   6   59.34    2.65
   4   6  -6   59.72    2.81
  -2  -6   6    1.96    0.55
   2   6  -6    1.48    0.56
   0  -6   6  110.71    3.78
   0   6  -6  106.83    4.17
   2  -6   6   -0.04    0.29
  -2   6  -6    0.36    0.44
  -4  -6  -6   80.20    3.02
   4  -6   6   79.39    3.14
  -4   6  -6   80.33    3.78
  -6  -6  -6    1.04    0.50
  -6   6  -6    1.60    0.75
  -6   6  -6    1.43    0.59
  -9  -7   6    0.79    0.49
   9   7  -6    1.60    0.63
  -7  -7   6   68.88    3.04
   7   7  -6   66.16    3.09
  -5  -7   6    2.25    0.62
   5   7  -6    1.17    0.52
  -3  -7   6   38.75    2.18
   3   7  -6   38.56    2.36
  -1  -7   6   25.35    1.73
   1   7  -6   24.31    1.94
   1  -7   6   15.10    1.34
  -1   7  -6   13.11    1.67
   3  -7   6   12.38    1.48
  -3   7  -6   12.70    1.81
  -6  -8   6    0.03    0.38
   6   8  -6    0.03    0.34
  -4  -8   6   18.01    1.56
   4   8  -6   18.84    1.72
  -2  -8   6    0.29    0.44
   2   8  -6    0.32    0.43
   0  -8   6   40.90    2.34
 -16   0   7    2.37    0.84
 -14   0   7  118.32    4.32
 -12   0   7    2.49    0.71
 -10   0   7   95.88    3.44
   8   0  -7   28.58    1.77
  -8   0   7   31.76    1.57
  -6   0   7   36.35    1.70
   6   0  -7   35.90    1.88
   4   0  -7   31.04    1.67
   4   0  -7   31.89    1.72
   2   0  -7   49.42    2.22
   0   0  -7   33.16    1.83
  -2   0  -7    4.50    0.86
  -4   0  -7   87.93    3.30
  -6   0  -7    3.31    0.75
  -8   0  -7   42.48    2.41
 -15  -1   7   52.55    2.79
 -15   1   7   53.42    2.95
 -13  -1   7    0.57    0.43
 -13   1   7    0.65    0.45
 -11   1   7   48.86    2.48
  11   1  -7   53.78    2.67
  -9  -1   7    0.14    0.25
  -9   1   7   -0.02    0.25
   9   1  -7   -0.03    0.25
  -7  -1   7  124.99    3.66
  -7   1   7  122.39    3.78
   7   1  -7  126.50    3.99
   5  -1  -7    4.81    0.76
  -5  -1   7    5.64    0.85
   5  -1  -7    6.19    0.91
   5   1  -7    4.72    0.81
   3  -1  -7  104.69    3.38
   3   1  -7  111.06    3.47
   3   1  -7  111.50    3.63
   1  -1  -7    0.72    0.35
   1   1  -7    0.74    0.38
   1   1  -7    0.58    0.32
  -1  -1  -7   53.26    2.33
  -1   1  -7   55.20    2.47
  -3  -1  -7   -0.13    0.25
  -3   1  -7   -0.05    0.26
  -5  -1  -7   52.50    2.52
  -5   1  -7   59.44    2.71
  -7  -1  -7    0.25    0.36
  -7   1  -7    0.76    0.47
 -14  -2   7   55.73    2.76
 -14   2   7   59.02    3.11
 -12  -2   7    0.38    0.55
  12   2  -7   -0.22    0.28
 -12   2   7    0.25    0.35
 -10  -2   7   46.46    2.13
  10   2  -7   45.46    2.37
 -10   2   7   41.39    2.27
  -8  -2   7    9.89    1.11
   8   2  -7   11.50    1.38
  -8   2   7    7.76    1.06
  -6  -2   7   16.16    1.23
   6   2  -7   16.43    1.30
  -6   2   7   15.01    1.29
  -4  -2   7    5.71    0.87
   4   2  -7    6.29    0.94
   2  -2  -7   11.04    0.97
   2   2  -7   11.42    1.04
   2   2  -7   13.59    1.45
   0  -2  -7   16.08    1.21
   0   2  -7   15.83    1.23
   0   2  -7   16.45    1.35
  -2  -2  -7    1.40    0.50
  -2   2  -7    1.49    0.50
  -4  -2  -7   39.59    2.08
  -4   2  -7   42.09    2.30
  -6  -2  -7    0.46    0.36
  -6   2  -7    0.47    0.43
  -8  -2  -7   26.14    1.90
  -8   2  -7   25.71    1.90
 -13  -3   7    4.70    0.84
 -13   3   7    6.18    1.26
  13   3  -7    6.19    1.10
 -11  -3   7   65.46    2.70
  11   3  -7   60.60    2.88
 -11   3   7   63.74    3.09
  -9  -3   7    4.67    0.85
  -9   3   7    4.34    0.90
   9   3  -7    4.61    0.89
  -7  -3   7  130.95    4.01
   7   3  -7  130.40    4.21
  -5  -3   7    0.53    0.34
   5   3  -7    0.55    0.39
  -3  -3   7  162.00    4.61
   3   3  -7  157.35    4.69
   1  -3  -7    2.04    0.50
   1   3  -7    1.22    0.50
   1   3  -7    1.78    0.54
  -1  -3  -7   47.94    2.14
  -1   3  -7   45.99    2.32
  -1   3  -7   47.12    2.42
  -3  -3  -7    0.64    0.35
  -3   3  -7    0.50    0.38
  -3   3  -7    1.00    0.48
  -5  -3  -7   93.09    3.47
  -5   3  -7   94.70    3.70
  -7  -3  -7    0.55    0.43
  -7   3  -7    0.00    0.38
 -12  -4   7    1.67    0.60
  12   4  -7    0.77    0.47
 -12   4   7    0.46    0.52
 -10  -4   7   58.42    2.63
  10   4  -7   56.11    2.74
  -8  -4   7   19.15    1.45
   8   4  -7   16.61    1.44
  -6  -4   7   28.76    1.75
   6   4  -7   27.62    1.82
  -4  -4   7    9.62    1.19
   4   4  -7   10.10    1.34
  -2  -4   7   12.02    1.35
   2   4  -7   15.05    1.33
   0  -4   7   27.89    1.75
   0   4  -7   26.59    1.84
   0   4  -7   25.14    1.77
  -2  -4  -7    6.61    0.94
  -2   4  -7    7.16    1.13
  -2   4  -7    5.73    1.03
  -4  -4  -7   40.83    2.12
  -4   4  -7   40.61    2.37
  -4   4  -7   46.18    2.59
  -6  -4  -7    0.16    0.37
  -6   4  -7    0.48    0.39
 -11  -5   7   24.15    1.77
  11   5  -7   24.53    1.87
  -9  -5   7    0.01    0.33
   9   5  -7    0.19    0.31
  -7  -5   7   64.38    2.88
   7   5  -7   71.63    3.13
  -5  -5   7    4.73    0.90
   5   5  -7    5.94    1.02
  -3  -5   7   75.95    3.09
   3   5  -7   71.33    3.14
  -1  -5   7    0.63    0.40
   1   5  -7    0.14    0.38
   1  -5   7   16.42    1.42
  -1   5  -7   22.12    1.79
  -3   5  -7    0.29    0.53
  -3   5  -7    0.06    0.39
  -8  -6   7   20.88    1.66
   8   6  -7   17.05    1.58
  -6  -6   7   18.40    1.55
   6   6  -7   20.35    1.69
  -4  -6   7   11.68    1.41
   4   6  -7   16.23    1.52
  -2  -6   7   26.30    1.83
   2   6  -7   26.74    1.99
   0  -6   7   20.44    1.64
   0   6  -7   23.06    1.90
   2  -6   7    3.71    0.87
  -2   6  -7    4.61    1.07
 -12   0   8    0.01    0.36
 -10   0   8  127.87    4.31
   8   0  -8    1.06    0.51
   6   0  -8  106.12    3.69
  -6   0   8  102.03    3.37
   4   0  -8    2.67    0.69
   2   0  -8   93.36    3.47
   0   0  -8    2.21    0.62
  -2   0  -8   76.09    3.21
  -4   0  -8    5.90    1.04
 -11   1   8   11.20    1.47
  11   1  -8   10.72    1.50
   9   1  -8   25.76    1.83
  -9   1   8   22.30    1.65
  -7  -1   8   12.85    1.34
   7   1  -8   12.70    1.49
  -5  -1   8    4.70    0.84
   5   1  -8    4.61    0.89
   3  -1  -8   68.23    2.81
   3   1  -8   68.83    2.97
   1  -1  -8   -0.07    0.27
   1   1  -8    0.24    0.33
  -1  -1  -8   43.44    2.27
  -1   1  -8   42.36    2.37
  -3  -1  -8    0.67    0.45
  -3   1  -8    0.73    0.49
 -12   2   8    4.55    1.03
  12   2  -8    3.90    0.93
 -10  -2   8   72.93    2.92
  10   2  -8   70.13    3.20
 -10   2   8   72.04    3.20
  -8  -2   8    0.07    0.32
   8   2  -8    0.36    0.36
  -6  -2   8   56.94    2.56
   6   2  -8   58.88    2.71
  -4  -2   8   -0.13    0.29
   4   2  -8    0.00    0.27
   2  -2  -8   64.81    3.26
   2   2  -8   64.04    2.73
   2   2  -8   55.32    2.79
   0  -2  -8    1.53    0.52
   0   2  -8    1.24    0.54
  -2  -2  -8   33.26    1.96
  -2   2  -8   31.80    2.10
 -11  -3   8   23.03    1.69
  11   3  -8   25.76    1.93
  -9  -3   8   39.24    2.17
   9   3  -8   41.19    2.38
  -7  -3   8   22.99    1.63
   7   3  -8   24.30    1.76
  -5  -3   8   11.19    1.36
   5   3  -8   12.20    1.44
  -3  -3   8   76.06    3.09
   3   3  -8   72.69    3.09
   1   3  -8    3.35    0.78
   1   3  -8    2.06    0.69
  -1  -3  -8   67.92    2.80
  -1   3  -8   64.09    3.10
  -8  -4   8    0.71    0.43
   8   4  -8    0.58    0.38
  -6  -4   8   68.13    2.99
   6   4  -8   63.11    3.01
  -4  -4   8    1.17    0.53
   4   4  -8    1.06    0.53
  -2  -4   8   65.54    3.00
   2   4  -8   66.33    3.06
   0  -4   8   -0.14    0.35
   0   4  -8    0.34    0.42
   0   0   0    0.00    0.00
;
_shelx_hkl_checksum              2389
loop_
_space_group_symop_operation_xyz
'x, y, z'
'-x, y, -z'
'x+1/2, y+1/2, z'
'-x+1/2, y+1/2, -z'
'-x, -y, -z'
'x, -y, z'
'-x+1/2, -y+1/2, -z'
'x+1/2, -y+1/2, z'
loop_
_atom_site_label
_atom_site_type_symbol
_atom_site_fract_x
_atom_site_fract_y
_atom_site_fract_z
_atom_site_U_iso_or_equiv
_atom_site_adp_type
_atom_site_occupancy
_atom_site_site_symmetry_order
_atom_site_calc_flag
_atom_site_refinement_flags_posn
_atom_site_refinement_flags_adp
_atom_site_refinement_flags_occupancy
C1 C 0.6054(2) 0.1368(5) 0.6226(5) 0.0168(8) Uani 1 1 d . . .
H1 H 0.5904 0.2310 0.6775 0.020 Uiso 1 1 calc R U .
C2 C 0.6467(2) 0.1404(5) 0.4691(5) 0.0154(8) Uani 1 1 d . . .
H2 H 0.6600 0.2366 0.4160 0.018 Uiso 1 1 calc R U .
C3 C 0.6687(3) 0.0000 0.3929(7) 0.0134(11) Uani 1 2 d S T P
N1 N 0.5864(3) 0.0000 0.6942(6) 0.0158(10) Uani 1 2 d DS T P
O1 O 0.4681(2) 0.5000 0.2260(5) 0.0169(8) Uani 1 2 d S T P
Cl1 Cl 0.5000 0.80764(15) 0.0000 0.0156(3) Uani 1 2 d S T P
Cl2 Cl 0.33758(8) 0.5000 -0.19115(19) 0.0162(3) Uani 1 2 d S T P
I1 I 0.73737(2) 0.0000 0.17263(5) 0.01609(10) Uani 1 2 d S T P
Np1 Np 0.5000 0.5000 0.0000 0.01018(9) Uani 1 4 d S T P
HN1 H 0.556(4) 0.0000 0.784(8) 0.04(2) Uiso 1 2 d DS . P
loop_
_atom_site_aniso_label
_atom_site_aniso_U_11
_atom_site_aniso_U_22
_atom_site_aniso_U_33
_atom_site_aniso_U_23
_atom_site_aniso_U_13
_atom_site_aniso_U_12
C1 0.017(2) 0.015(2) 0.0179(19) -0.0047(16) 0.0035(16) -0.0008(17)
C2 0.015(2) 0.015(2) 0.0172(18) 0.0012(16) 0.0044(15) -0.0005(16)
C3 0.012(3) 0.018(3) 0.008(2) 0.000 -0.002(2) 0.000
N1 0.018(3) 0.020(3) 0.010(2) 0.000 0.0046(19) 0.000
O1 0.022(2) 0.016(2) 0.0143(19) 0.000 0.0062(16) 0.000
Cl1 0.0208(7) 0.0098(7) 0.0183(6) 0.000 0.0091(5) 0.000
Cl2 0.0143(6) 0.0182(7) 0.0159(6) 0.000 0.0029(5) 0.000
I1 0.01452(19) 0.0225(2) 0.01256(18) 0.000 0.00577(14) 0.000
Np1 0.01248(16) 0.00938(16) 0.00979(15) 0.000 0.00487(11) 0.000
loop_
_atom_type_symbol
_atom_type_description
_atom_type_scat_dispersion_real
_atom_type_scat_dispersion_imag
_atom_type_scat_source
C C 0.0033 0.0016 'International Tables Vol C Tables 4.2.6.8 and 6.1.1.4'
H H 0.0000 0.0000 'International Tables Vol C Tables 4.2.6.8 and 6.1.1.4'
N N 0.0061 0.0033 'International Tables Vol C Tables 4.2.6.8 and 6.1.1.4'
O O 0.0106 0.0060 'International Tables Vol C Tables 4.2.6.8 and 6.1.1.4'
Cl Cl 0.1484 0.1585 'International Tables Vol C Tables 4.2.6.8 and 6.1.1.4'
I I -0.4742 1.8119 'International Tables Vol C Tables 4.2.6.8 and 6.1.1.4'
Np Np -11.4937 4.1493 'International Tables Vol C Tables 4.2.6.8 and 6.1.1.4'
loop_
_geom_angle_atom_site_label_1
_geom_angle_atom_site_label_2
_geom_angle_atom_site_label_3
_geom_angle
_geom_angle_site_symmetry_1
_geom_angle_site_symmetry_3
N1 C1 C2 119.8(4) . .
N1 C1 H1 120.1 . .
C2 C1 H1 120.1 . .
C1 C2 C3 118.7(4) . .
C1 C2 H2 120.6 . .
C3 C2 H2 120.6 . .
C2 C3 C2 119.9(5) . 6
C2 C3 I1 120.0(2) . .
C2 C3 I1 120.0(2) 6 .
C1 N1 C1 123.0(5) . 6
C1 N1 HN1 118.3(4) . .
C1 N1 HN1 118.3(4) 6 .
O1 Np1 O1 180.0 5_665 .
O1 Np1 Cl1 90.0 5_665 .
O1 Np1 Cl1 90.0 . .
O1 Np1 Cl1 90.0 5_665 5_665
O1 Np1 Cl1 90.0 . 5_665
Cl1 Np1 Cl1 180.0 . 5_665
O1 Np1 Cl2 89.65(13) 5_665 5_665
O1 Np1 Cl2 90.35(13) . 5_665
Cl1 Np1 Cl2 90.0 . 5_665
Cl1 Np1 Cl2 90.0 5_665 5_665
O1 Np1 Cl2 90.35(13) 5_665 .
O1 Np1 Cl2 89.65(13) . .
Cl1 Np1 Cl2 90.0 . .
Cl1 Np1 Cl2 90.0 5_665 .
Cl2 Np1 Cl2 180.0 5_665 .
loop_
_geom_bond_atom_site_label_1
_geom_bond_atom_site_label_2
_geom_bond_distance
_geom_bond_site_symmetry_2
C1 N1 1.340(4) .
C1 C2 1.377(5) .
C1 H1 0.9500 .
C2 C3 1.396(5) .
C2 H2 0.9500 .
C3 C2 1.396(5) 6
C3 I1 2.078(5) .
N1 C1 1.340(4) 6
N1 HN1 0.88(2) .
O1 Np1 1.756(4) .
Cl1 Np1 2.6487(15) .
Cl2 Np1 2.6504(14) .
Np1 O1 1.756(4) 5_665
Np1 Cl1 2.6487(15) 5_665
Np1 Cl2 2.6504(14) 5_665
loop_
_geom_hbond_atom_site_label_D
_geom_hbond_atom_site_label_H
_geom_hbond_atom_site_label_A
_geom_hbond_distance_DH
_geom_hbond_distance_HA
_geom_hbond_distance_DA
_geom_hbond_angle_DHA
_geom_hbond_site_symmetry_A
C1 H1 O1 0.95 2.64 3.583(4) 170.7 5_666
C1 H1 Cl1 0.95 2.95 3.458(4) 114.9 5_666
C2 H2 Cl2 0.95 2.76 3.686(4) 165.7 5_665
N1 HN1 Cl1 0.88(2) 2.530(16) 3.241(4) 138.7(8) 1_546
N1 HN1 Cl1 0.88(2) 2.530(16) 3.241(4) 138.7(8) 5_666
C1 H1 O1 0.95 2.64 3.583(4) 170.7 5_666
C1 H1 Cl1 0.95 2.95 3.458(4) 114.9 5_666
C2 H2 Cl2 0.95 2.76 3.686(4) 165.7 5_665
N1 HN1 Cl1 0.88(2) 2.530(16) 3.241(4) 138.7(8) 1_546
N1 HN1 Cl1 0.88(2) 2.530(16) 3.241(4) 138.7(8) 5_666
loop_
_geom_torsion_atom_site_label_1
_geom_torsion_atom_site_label_2
_geom_torsion_atom_site_label_3
_geom_torsion_atom_site_label_4
_geom_torsion
_geom_torsion_site_symmetry_4
N1 C1 C2 C3 -0.7(6) .
C1 C2 C3 C2 1.7(8) 6
C1 C2 C3 I1 -176.4(3) .
C2 C1 N1 C1 -0.3(8) 6
