#------------------------------------------------------------------------------
#$Date: 2018-01-01 05:20:54 +0200 (Mon, 01 Jan 2018) $
#$Revision: 204639 $
#$URL: file:///home/coder/svn-repositories/cod/cif/4/12/69/4126951.cif $
#------------------------------------------------------------------------------
#
# This file is available in the Crystallography Open Database (COD),
# http://www.crystallography.net/
#
# All data on this site have been placed in the public domain by the
# contributors.
#
data_4126951
loop_
_publ_author_name
'Harada, Jun'
'Yoneyama, Naho'
'Yokokura, Seiya'
'Takahashi, Yukihiro'
'Miura, Atsushi'
'Kitamura, Noboru'
'Inabe, Tamotsu'
_publ_section_title
;
 Ferroelectricity and Piezoelectricity in Free-Standing Polycrystalline
 Films of Plastic Crystals.
;
_journal_name_full               'Journal of the American Chemical Society'
_journal_paper_doi               10.1021/jacs.7b10539
_journal_year                    2017
_chemical_formula_moiety         '2(Cl2 Fe0.5), C4 H9 N'
_chemical_formula_sum            'C4 H12 Cl4 Fe N'
_chemical_formula_weight         271.80
_space_group_crystal_system      orthorhombic
_space_group_IT_number           38
_space_group_name_Hall           'A 2 -2'
_space_group_name_H-M_alt        'A m m 2'
_symmetry_space_group_name_Hall  'A 2 -2'
_symmetry_space_group_name_H-M   'A m m 2'
_atom_sites_solution_hydrogens   geom
_atom_sites_solution_primary     dual
_audit_creation_date             2017-08-22
_audit_creation_method
;
Olex2 1.2
(compiled 2017.08.10 svn.r3458 for OlexSys, GUI svn.r5381)
;
_cell_angle_alpha                90
_cell_angle_beta                 90
_cell_angle_gamma                90
_cell_formula_units_Z            2
_cell_length_a                   7.218(8)
_cell_length_b                   9.019(9)
_cell_length_c                   9.362(10)
_cell_measurement_reflns_used    1181
_cell_measurement_temperature    330
_cell_measurement_theta_max      27.346
_cell_measurement_theta_min      2.822
_cell_volume                     609.5(11)
_computing_cell_refinement       'SAINT v8.34A (Bruker, 2013)'
_computing_data_collection       'Bruker APEX2 2014.1-1 (Bruker, 2014)'
_computing_data_reduction        'SAINT v8.34A (Bruker, 2013)'
_computing_molecular_graphics    'Olex2 (Dolomanov et al., 2009)'
_computing_publication_material  'Olex2 (Dolomanov et al., 2009)'
_computing_structure_refinement  'ShelXL (Sheldrick, 2015)'
_computing_structure_solution    'ShelXT (Sheldrick, 2015)'
_diffrn_ambient_temperature      330
_diffrn_detector_area_resol_mean 8.3333
_diffrn_measured_fraction_theta_full 1.000
_diffrn_measured_fraction_theta_max 0.998
_diffrn_measurement_device_type  'Bruker APEX-II CCD'
_diffrn_measurement_method       '\w scans'
_diffrn_radiation_type           MoK\a
_diffrn_radiation_wavelength     0.71073
_diffrn_reflns_av_R_equivalents  0.0326
_diffrn_reflns_av_unetI/netI     0.0179
_diffrn_reflns_Laue_measured_fraction_full 1.000
_diffrn_reflns_Laue_measured_fraction_max 0.998
_diffrn_reflns_limit_h_max       9
_diffrn_reflns_limit_h_min       -9
_diffrn_reflns_limit_k_max       11
_diffrn_reflns_limit_k_min       -11
_diffrn_reflns_limit_l_max       12
_diffrn_reflns_limit_l_min       -12
_diffrn_reflns_number            4233
_diffrn_reflns_point_group_measured_fraction_full 1.000
_diffrn_reflns_point_group_measured_fraction_max 0.998
_diffrn_reflns_theta_full        25.242
_diffrn_reflns_theta_max         27.404
_diffrn_reflns_theta_min         2.822
_diffrn_source                   'rotating-anode X-ray tube'
_diffrn_standards_number         0
_exptl_absorpt_coefficient_mu    2.059
_exptl_absorpt_correction_T_max  0.704102
_exptl_absorpt_correction_T_min  0.539113
_exptl_absorpt_correction_type   multi-scan
_exptl_absorpt_process_details
;
 TWINABS-2012/1 (Bruker,2012) was used for absorption correction.
 
For component 1:
 wR2(int) was 0.0896 before and 0.0400 after correction.
 The Ratio of minimum to maximum transmission is 0.77.
 The \l/2 correction factor is Not present
 
For component 2:
 wR2(int) was 0.0898 before and 0.0424 after correction.
 The Ratio of minimum to maximum transmission is 0.77.
 The \l/2 correction factor is Not present

Final HKLF 4 output contains 4233 reflections, Rint = 0.0326
 (3725 with I > 3sig(I), Rint = 0.0324)
;
_exptl_crystal_colour            yellow
_exptl_crystal_colour_primary    yellow
_exptl_crystal_density_diffrn    1.481
_exptl_crystal_description       block
_exptl_crystal_F_000             274
_exptl_crystal_size_max          0.25
_exptl_crystal_size_mid          0.188
_exptl_crystal_size_min          0.125
_refine_diff_density_max         0.347
_refine_diff_density_min         -0.196
_refine_diff_density_rms         0.062
_refine_ls_abs_structure_details
;
 Refined as an inversion twin.
;
_refine_ls_abs_structure_Flack   0.13(6)
_refine_ls_extinction_method     none
_refine_ls_goodness_of_fit_ref   1.127
_refine_ls_hydrogen_treatment    constr
_refine_ls_matrix_type           full
_refine_ls_number_parameters     43
_refine_ls_number_reflns         803
_refine_ls_number_restraints     31
_refine_ls_restrained_S_all      1.188
_refine_ls_R_factor_all          0.0367
_refine_ls_R_factor_gt           0.0355
_refine_ls_shift/su_max          0.001
_refine_ls_shift/su_mean         0.000
_refine_ls_structure_factor_coef Fsqd
_refine_ls_weighting_details
'w=1/[\s^2^(Fo^2^)+(0.0638P)^2^+0.1268P] where P=(Fo^2^+2Fc^2^)/3'
_refine_ls_weighting_scheme      calc
_refine_ls_wR_factor_gt          0.0997
_refine_ls_wR_factor_ref         0.1008
_reflns_Friedel_coverage         0.885
_reflns_Friedel_fraction_full    1.000
_reflns_Friedel_fraction_max     0.997
_reflns_number_gt                776
_reflns_number_total             803
_reflns_threshold_expression     'I > 2\s(I)'
_iucr_refine_instructions_details
;

    TMA_FeCl4_330K.res created by SHELXL-2014/7

 
TITL Tetramethylammonium tetrachloroferrate(III) at 300 K in Amm2
CELL  0.71073   7.2181   9.0185   9.3615   90.000   90.000   90.000
ZERR    2.000   0.0075   0.0093   0.0097    0.000    0.000    0.000
LATT -5
SYMM -X, -Y, Z
SYMM X, -Y, Z
SYMM -X, Y, Z
SFAC C H N CL FE
UNIT 8 24 2 8 2
TEMP 57
SIZE 0.125 0.188 0.25
MERG 0
L.S. 10
BOND $H
CONF
LIST 4
FMAP 2
ACTA
EQIV $1  x, 1-y, z
EQIV $2 -x, 1-y, z
EQIV $3 -x,y,z
PLAN 20
TWIN
RIGU
SADI N1 C1 N1 C2 N1 C3
FREE C2 C2_$1 C1 C1_$1 C1 C3_$1 C3 C1_$1
FREE C3 C1_$2 C1_$2 C1_$3 C3_$1 C1_$3
WGHT    0.063800    0.126800
BASF   0.12615
FVAR       0.99987
FE1   5    0.500000    0.000000    0.413661    10.25000    0.04941    0.06555 =
         0.07836    0.00000    0.00000    0.00000
CL1   4    0.247544    0.000000    0.541233    10.50000    0.06250    0.12531 =
         0.13610    0.00000    0.02869    0.00000
CL2   4    0.500000    0.197874    0.277699    10.50000    0.13555    0.10590 =
         0.13416    0.04778    0.00000    0.00000
N1    3    0.000000    0.500000    0.500301    10.25000    0.09982    0.06443 =
         0.07880    0.00000    0.00000    0.00000
C1    1    0.178106    0.560497    0.454806    10.50000    0.18409    0.21361 =
         0.14222    0.00954    0.02821   -0.06642
AFIX  33
H1A   2    0.250812    0.585192    0.537314    10.50000   -1.50000
H1B   2    0.242730    0.488030    0.398596    10.50000   -1.50000
H1C   2    0.157883    0.648045    0.398596    10.50000   -1.50000
AFIX   0
C2    1    0.000000    0.445784    0.648509    10.25000    0.19083    0.18028 =
         0.10844    0.03023    0.00000    0.00000
AFIX  33
H2C   2    0.111688    0.477019    0.695357    10.25000   -1.50000
H2A   2   -0.105209    0.485490    0.698232    10.25000   -1.50000
H2B   2   -0.006479    0.339463    0.648657    10.25000   -1.50000
AFIX   0
C3    1    0.000000    0.354444    0.432181    10.25000    0.19379    0.10433 =
         0.17482   -0.01747    0.00000    0.00000
AFIX  33
H3B   2    0.124606    0.317624    0.426970    10.25000   -1.50000
H3C   2   -0.074448    0.287240    0.487222    10.25000   -1.50000
H3A   2   -0.050159    0.362720    0.337541    10.25000   -1.50000
AFIX   0
HKLF 4
 
REM  Tetramethylammonium tetrachloroferrate(III) at 300 K in Amm2
REM R1 =  0.0355 for     776 Fo > 4sig(Fo)  and  0.0367 for all     803 data
REM     43 parameters refined using     31 restraints
 
END  
     
WGHT      0.0632      0.1298 

REM Highest difference peak  0.347,  deepest hole -0.196,  1-sigma level  0.062
Q1    1   0.5000  0.0737  0.4745  10.50000  0.05    0.35
Q2    1  -0.0485  0.3489  0.5467  11.00000  0.05    0.26
Q3    1   0.5000  0.0810  0.3399  10.50000  0.05    0.26
Q4    1   0.3381  0.0000  0.5706  10.50000  0.05    0.23
Q5    1   0.4223  0.1247  0.2872  11.00000  0.05    0.22
Q6    1   0.4136  0.0000  0.3493  10.50000  0.05    0.21
Q7    1   0.2651  0.0746  0.4943  11.00000  0.05    0.18
Q8    1   0.3463  0.0000  0.2628  10.50000  0.05    0.16
Q9    1  -0.1019  0.4562  0.2056  11.00000  0.05    0.14
Q10   1   0.5000  0.1261  0.5990  10.50000  0.05    0.13
Q11   1   0.0000  0.3454  0.3211  10.50000  0.05    0.13
Q12   1   0.0921  0.5000  0.3719  10.50000  0.05    0.12
Q13   1   0.0000  0.5450  0.4807  10.50000  0.05    0.12
Q14   1   0.0000  0.4621  0.3568  10.50000  0.05    0.11
Q15   1   0.1432  0.0000  0.4432  10.50000  0.05    0.11
Q16   1   0.2050  0.0000  0.5656  10.50000  0.05    0.11
Q17   1   0.1127  0.0000  0.5036  10.50000  0.05    0.11
Q18   1   0.5000  0.2817  0.0612  10.50000  0.05    0.10
Q19   1   0.5000  0.2422  0.2587  10.50000  0.05    0.10
Q20   1   0.5000  0.2700  0.3602  10.50000  0.05    0.10
;
_cod_data_source_file            ja7b10539_si_004.cif
_cod_data_source_block           TMA_FeCl4_330K
_cod_original_cell_volume        609.4(11)
_cod_database_code               4126951
_shelx_shelxl_version_number     2014/7
_shelx_space_group_comment
;
The symmetry employed for this shelxl refinement is uniquely defined
by the following loop, which should always be used as a source of
symmetry information in preference to the above space-group names.
They are only intended as comments.
;
_shelx_estimated_absorpt_t_max   0.783
_shelx_estimated_absorpt_t_min   0.627
_olex2_refinement_description
;
1. Twinned data refinement
 Scales: 0.87(6)
 0.13(6)
2. Fixed Uiso
 At 1.5 times of:
  All C(H,H,H) groups
3. Restrained distances
 N1-C1 \\sim N1-C2 \\sim N1-C3
 with sigma of 0.02
4. Rigid body (RIGU) restrains
 All non-hydrogen atoms
 with sigma for 1-2 distances of 0.004 and sigma for 1-3 distances of 0.004
5. Others
 Fixed Sof: C1(0.5) H1A(0.5) H1B(0.5) H1C(0.5) C2(0.25) H2C(0.25) H2A(0.25)
 H2B(0.25) C3(0.25) H3B(0.25) H3C(0.25) H3A(0.25)
6.a Me refined with riding coordinates:
 C1(H1A,H1B,H1C), C3(H3B,H3C,H3A)
;
_olex2_submission_special_instructions 'No special instructions were received'
loop_
_space_group_symop_operation_xyz
'x, y, z'
'-x, -y, z'
'x, -y, z'
'-x, y, z'
'x, y+1/2, z+1/2'
'-x, -y+1/2, z+1/2'
'x, -y+1/2, z+1/2'
'-x, y+1/2, z+1/2'
loop_
_atom_site_label
_atom_site_type_symbol
_atom_site_fract_x
_atom_site_fract_y
_atom_site_fract_z
_atom_site_U_iso_or_equiv
_atom_site_adp_type
_atom_site_occupancy
_atom_site_site_symmetry_order
_atom_site_calc_flag
_atom_site_refinement_flags_posn
_atom_site_refinement_flags_adp
_atom_site_refinement_flags_occupancy
Fe1 Fe 0.5000 0.0000 0.41366(6) 0.0644(4) Uani 1 4 d S TU P
Cl1 Cl 0.2475(3) 0.0000 0.5412(3) 0.1080(8) Uani 1 2 d S TU P
Cl2 Cl 0.5000 0.1979(3) 0.2777(3) 0.1252(9) Uani 1 2 d S TU P
N1 N 0.0000 0.5000 0.5003(8) 0.081(2) Uani 1 4 d DS TU P
C1 C 0.178(4) 0.560(3) 0.455(2) 0.180(11) Uani 0.5 1 d D U P
H1A H 0.2508 0.5852 0.5373 0.270 Uiso 0.5 1 calc R U P
H1B H 0.2427 0.4880 0.3986 0.270 Uiso 0.5 1 calc R U P
H1C H 0.1579 0.6480 0.3986 0.270 Uiso 0.5 1 calc R U P
C2 C 0.0000 0.446(4) 0.649(2) 0.160(11) Uani 0.5 2 d DS TU P
H2C H 0.1117 0.4770 0.6954 0.240 Uiso 0.25 1 calc R U P
H2A H -0.1052 0.4855 0.6982 0.240 Uiso 0.25 1 calc R U P
H2B H -0.0065 0.3395 0.6487 0.240 Uiso 0.5 2 calc R U P
C3 C 0.0000 0.354(2) 0.432(4) 0.158(9) Uani 0.5 2 d DS TU P
H3B H 0.1246 0.3176 0.4270 0.236 Uiso 0.25 1 calc R U P
H3C H -0.0744 0.2872 0.4872 0.236 Uiso 0.25 1 calc R U P
H3A H -0.0502 0.3627 0.3375 0.236 Uiso 0.25 1 calc R U P
loop_
_atom_site_aniso_label
_atom_site_aniso_U_11
_atom_site_aniso_U_22
_atom_site_aniso_U_33
_atom_site_aniso_U_23
_atom_site_aniso_U_13
_atom_site_aniso_U_12
Fe1 0.0494(5) 0.0655(5) 0.0784(6) 0.000 0.000 0.000
Cl1 0.0625(12) 0.1253(16) 0.1361(19) 0.000 0.0287(11) 0.000
Cl2 0.136(2) 0.1059(15) 0.1342(18) 0.0478(14) 0.000 0.000
N1 0.100(6) 0.064(4) 0.079(4) 0.000 0.000 0.000
C1 0.184(15) 0.21(3) 0.142(14) 0.010(12) 0.028(11) -0.066(17)
C2 0.19(3) 0.18(2) 0.108(9) 0.030(10) 0.000 0.000
C3 0.19(3) 0.104(10) 0.175(17) -0.017(12) 0.000 0.000
loop_
_atom_type_symbol
_atom_type_description
_atom_type_scat_dispersion_real
_atom_type_scat_dispersion_imag
_atom_type_scat_source
C C 0.0033 0.0016 'International Tables Vol C Tables 4.2.6.8 and 6.1.1.4'
H H 0.0000 0.0000 'International Tables Vol C Tables 4.2.6.8 and 6.1.1.4'
N N 0.0061 0.0033 'International Tables Vol C Tables 4.2.6.8 and 6.1.1.4'
Cl Cl 0.1484 0.1585 'International Tables Vol C Tables 4.2.6.8 and 6.1.1.4'
Fe Fe 0.3463 0.8444 'International Tables Vol C Tables 4.2.6.8 and 6.1.1.4'
loop_
_geom_angle_atom_site_label_1
_geom_angle_atom_site_label_2
_geom_angle_atom_site_label_3
_geom_angle
_geom_angle_site_symmetry_1
_geom_angle_site_symmetry_3
Cl1 Fe1 Cl1 113.52(17) . 2_655
Cl1 Fe1 Cl2 108.56(7) 2_655 .
Cl1 Fe1 Cl2 108.56(7) . .
Cl1 Fe1 Cl2 108.56(7) . 2_655
Cl1 Fe1 Cl2 108.56(7) 2_655 2_655
Cl2 Fe1 Cl2 109.0(2) 2_655 .
C1 N1 C1 44(2) 2_565 4
C1 N1 C1 44(2) . 3_565
C1 N1 C1 146.1(19) 4 3_565
C1 N1 C1 146.1(19) 2_565 .
C1 N1 C1 123(2) 4 .
C1 N1 C1 123(2) 2_565 3_565
C1 N1 C2 113.5(11) 4 .
C1 N1 C2 98.7(11) . 3_565
C1 N1 C2 98.7(11) 2_565 .
C1 N1 C2 98.7(11) 3_565 .
C1 N1 C2 113.5(11) 3_565 3_565
C1 N1 C2 113.5(11) 2_565 3_565
C1 N1 C2 98.7(11) 4 3_565
C1 N1 C2 113.5(11) . .
C1 N1 C3 102.0(13) 2_565 3_565
C1 N1 C3 102.0(13) . .
C1 N1 C3 102.0(13) 3_565 3_565
C1 N1 C3 62.4(12) 4 3_565
C1 N1 C3 62.4(12) . 3_565
C1 N1 C3 62.4(12) 2_565 .
C1 N1 C3 102.0(13) 4 .
C1 N1 C3 62.4(12) 3_565 .
C2 N1 C2 39(3) 3_565 .
C3 N1 C2 135(2) 3_565 .
C3 N1 C2 96(2) 3_565 3_565
C3 N1 C2 96(2) . .
C3 N1 C2 135(2) . 3_565
C3 N1 C3 128(3) . 3_565
N1 C1 H1A 109.5 . .
N1 C1 H1B 109.5 . .
N1 C1 H1C 109.5 . .
H1A C1 H1B 109.5 . .
H1A C1 H1C 109.5 . .
H1B C1 H1C 109.5 . .
N1 C2 H2C 109.5 . .
N1 C2 H2A 109.5 . .
N1 C2 H2B 109.5 . .
H2C C2 H2A 109.5 . .
H2C C2 H2B 109.5 . .
H2A C2 H2B 109.5 . .
N1 C3 H3B 109.5 . .
N1 C3 H3C 109.5 . .
N1 C3 H3A 109.5 . .
H3B C3 H3C 109.5 . .
H3B C3 H3A 109.5 . .
H3C C3 H3A 109.5 . .
loop_
_geom_bond_atom_site_label_1
_geom_bond_atom_site_label_2
_geom_bond_distance
_geom_bond_site_symmetry_2
Fe1 Cl1 2.179(3) .
Fe1 Cl1 2.179(3) 2_655
Fe1 Cl2 2.192(3) 2_655
Fe1 Cl2 2.192(3) .
N1 C1 1.46(2) 4
N1 C1 1.46(2) 3_565
N1 C1 1.46(2) .
N1 C1 1.46(2) 2_565
N1 C2 1.471(19) .
N1 C2 1.471(19) 3_565
N1 C3 1.46(2) .
N1 C3 1.46(2) 3_565
C1 H1A 0.9600 .
C1 H1B 0.9600 .
C1 H1C 0.9600 .
C2 H2C 0.9600 .
C2 H2A 0.9600 .
C2 H2B 0.9600 .
C3 H3B 0.9600 .
C3 H3C 0.9600 .
C3 H3A 0.9600 .
loop_
_refln_index_h
_refln_index_k
_refln_index_l
_refln_F_squared_meas
_refln_F_squared_sigma
1 0 0 3254.17 114.79
2 0 0 2921.31 103.59
3 0 0 3609.24 128.19
4 0 0 6029.4 211.08
5 0 0 605.84 20.9
6 0 0 58.59 3
7 0 0 173.38 8.1
8 0 0 213.08 10
9 0 0 14.1 1.8
0 2 0 7666.93 169.08
1 2 0 254.67 4.1
2 2 0 1138.19 17.5
3 2 0 77.39 28.4
4 2 0 1519.55 33.1
5 2 0 84.69 6.1
6 2 0 60.49 6.5
7 2 0 71.59 3.1
8 2 0 110.99 3.3
9 2 0 8.3 1.2
0 4 0 4604.44 82.39
1 4 0 1261.07 15
2 4 0 104.09 1.7
3 4 0 592.24 8.1
4 4 0 1397.26 17.7
5 4 0 148.89 2.8
6 4 0 23.7 4.1
7 4 0 68.49 2.3
8 4 0 85.09 2.3
0 6 0 1567.24 24.7
1 6 0 336.67 4.3
2 6 0 174.38 2.5
3 6 0 185.78 2.6
4 6 0 452.45 7.5
5 6 0 61.59 2
6 6 0 13.1 1
7 6 0 22.6 1.6
8 6 0 30.7 2.1
0 8 0 118.89 2.3
1 8 0 5.7 0.3
2 8 0 5.2 0.3
3 8 0 11.3 0.5
4 8 0 57.59 1.2
5 8 0 8.9 0.7
6 8 0 2 0.5
0 10 0 71.79 1.9
1 10 0 40.3 1.1
2 10 0 24.4 1
3 10 0 23.4 1
4 10 0 25.2 1.2
0 -1 -1 3958.5 110.59
0 1 1 3806.92 115.69
-1 -1 -1 6987.6 118.69
1 1 1 7430.16 120.09
-2 -1 -1 3070.09 53.99
2 1 1 2930.81 46.7
-3 -1 -1 1803.92 35
3 1 1 1810.62 33.6
-4 -1 -1 1896.11 50.49
4 1 1 1968.1 45.2
-5 -1 -1 439.26 11.5
5 1 1 448.46 10.2
-6 -1 -1 156.58 4.4
6 1 1 132.29 4.4
-7 -1 -1 143.49 4.5
7 1 1 144.39 4.5
-8 -1 -1 118.59 3.9
8 1 1 122.79 3.9
-9 -1 -1 14.5 1.2
9 1 1 13.7 1.2
0 -3 -1 4231.58 72.39
0 3 1 4396.66 89.99
-1 -3 -1 1002.4 13
1 3 1 1091.79 20.1
-2 -3 -1 69.09 1.1
2 3 1 65.79 3
-3 -3 -1 562.64 7.5
3 3 1 622.74 10.9
-4 -3 -1 908.61 11.2
4 3 1 941.21 13.1
-5 -3 -1 173.28 3.2
5 3 1 180.78 3.6
-6 -3 -1 58.89 6.1
6 3 1 44.3 5.6
-7 -3 -1 76.89 3.1
7 3 1 79.39 2.6
-8 -3 -1 68.49 1.9
8 3 1 71.69 2
0 -5 -1 2224.58 35.5
0 5 1 2160.08 39.4
-1 -5 -1 1529.95 17.8
1 5 1 1493.35 20
-2 -5 -1 897.51 11.6
2 5 1 850.21 11.4
-3 -5 -1 831.62 9.8
3 5 1 812.62 11.4
-4 -5 -1 527.55 7.6
4 5 1 531.85 7
-5 -5 -1 190.88 3.6
5 5 1 189.28 3.8
-6 -5 -1 71.99 2
6 5 1 64.99 4.9
-7 -5 -1 56.59 1.7
7 5 1 55.09 2.1
-8 -5 -1 37.3 1.8
8 5 1 39.2 1.7
0 -7 -1 151.58 3.1
0 7 1 166.48 2.7
-1 -7 -1 126.09 1.6
1 7 1 134.69 1.8
-2 -7 -1 7.6 0.4
2 7 1 3.4 0.5
-3 -7 -1 93.49 1.4
3 7 1 94.69 1.4
-4 -7 -1 77.69 1.8
4 7 1 83.79 1.5
-5 -7 -1 25.6 1
5 7 1 28.7 1
-6 -7 -1 5.6 0.7
6 7 1 3.1 1.1
-7 -7 -1 14.2 1.2
7 7 1 12.5 1.4
0 -9 -1 70.39 1.9
0 9 1 73.59 1.7
-1 -9 -1 62.09 1.1
1 9 1 62.39 1.2
-2 -9 -1 25.3 0.8
2 9 1 24.2 0.8
-3 -9 -1 38.6 1.1
3 9 1 40.7 1
-4 -9 -1 30.1 1.2
4 9 1 33.2 1
-5 -9 -1 13.4 1
5 9 1 13.4 0.7
0 -11 -1 13.9 1
0 11 1 11.1 1.3
-1 -11 -1 10 0.6
1 11 1 10.1 1.1
-2 -11 -1 7.1 0.7
2 11 1 5.9 0.9
-3 -11 -1 5.5 1.2
3 11 1 8.4 1.7
0 0 -2 4209.68 158.48
0 0 2 4256.97 149.59
-1 0 -2 5407.06 112.99
1 0 2 5131.79 81.09
-2 0 -2 6505.55 133.89
2 0 2 6784.12 102.99
-3 0 -2 1851.91 41.9
3 0 2 1812.52 31.7
-4 0 -2 684.23 48.1
4 0 2 726.43 41.6
-5 0 -2 281.07 9.1
5 0 2 246.38 7.5
-6 0 -2 355.56 8.7
6 0 2 328.97 8.6
-7 0 -2 102.79 4.1
7 0 2 98.29 4.1
-8 0 -2 70.29 4.5
8 0 2 69.99 4.4
-9 0 -2 12.4 1.8
9 0 2 8.3 1.6
0 -2 -2 9487.15 208.38
0 2 2 9999 295.87
-1 -2 -2 2066.89 29.3
1 2 2 2140.29 36.1
-2 -2 -2 1047.1 15.2
2 2 2 1041.6 18.6
-3 -2 -2 1290.67 20.2
3 2 2 1300.27 20.2
-4 -2 -2 1634.34 30.3
4 2 2 1721.43 28.7
-5 -2 -2 179.98 3.7
5 2 2 179.28 3.4
-6 -2 -2 199.28 5.8
6 2 2 183.48 5
-7 -2 -2 106.39 4
7 2 2 104.79 3
-8 -2 -2 67.59 2.6
8 2 2 74.19 2.6
-9 -2 -2 9.7 1.2
9 2 2 8.2 1.4
0 -4 -2 1335.17 23.3
0 4 2 1369.96 32.6
-1 -4 -2 996 13.5
1 4 2 982.8 18.6
-2 -4 -2 1255.97 17.1
2 4 2 1211.78 30.3
-3 -4 -2 588.34 8.2
3 4 2 577.04 13.3
-4 -4 -2 464.15 5.6
4 4 2 479.95 7.1
-5 -4 -2 139.29 2.4
5 4 2 128.99 3
-6 -4 -2 162.48 4
6 4 2 147.29 4
-7 -4 -2 59.59 1.8
7 4 2 55.19 1.8
-8 -4 -2 28.8 1.5
8 4 2 28.6 1.5
0 -6 -2 270.47 4.7
0 6 2 274.77 7.4
-1 -6 -2 162.08 1.9
1 6 2 141.69 3.2
-2 -6 -2 276.07 3.5
2 6 2 263.77 3.8
-3 -6 -2 104.69 1.4
3 6 2 97.59 1.8
-4 -6 -2 121.39 1.9
4 6 2 133.19 2.8
-5 -6 -2 35.7 1
5 6 2 33.1 1.3
-6 -6 -2 46.5 1.3
6 6 2 43.5 1.9
-7 -6 -2 19.4 1.4
7 6 2 17.3 1.3
0 -8 -2 206.28 4.7
0 8 2 218.88 4.1
-1 -8 -2 77.09 1.4
1 8 2 83.69 1.4
-2 -8 -2 97.79 1.7
2 8 2 100.19 1.5
-3 -8 -2 55.79 1.1
3 8 2 55.79 1.1
-4 -8 -2 59.09 1.5
4 8 2 62.79 1.3
-5 -8 -2 16.8 1
5 8 2 22 0.9
-6 -8 -2 12.7 0.9
6 8 2 14.7 0.9
0 -10 -2 17.2 1.1
0 10 2 15.9 1.2
-1 -10 -2 22.5 0.9
1 10 2 18.5 0.8
-2 -10 -2 24 0.9
2 10 2 21.3 1
-3 -10 -2 15.5 0.8
3 10 2 13.5 0.9
-4 -10 -2 6.6 0.9
4 10 2 6.6 0.6
0 -1 -3 401.76 15.3
0 1 3 441.46 11.4
-1 -1 -3 684.63 13.9
1 1 3 676.03 9.5
-2 -1 -3 2909.21 42
2 1 3 2845.42 30.2
-3 -1 -3 391.66 9
3 1 3 413.26 5.7
-4 -1 -3 104.29 3.1
4 1 3 115.39 2
-5 -1 -3 154.98 3.4
5 1 3 141.59 2.8
-6 -1 -3 353.06 5.8
6 1 3 345.87 6
-7 -1 -3 70.69 3.1
7 1 3 74.29 2.6
-8 -1 -3 14.4 1.9
8 1 3 18.5 2
-9 -1 -3 13.1 0.8
9 1 3 12.5 1
0 -3 -3 1593.84 44.8
0 3 3 1649.54 36.8
-1 -3 -3 2168.08 35
1 3 3 2227.18 47.4
-2 -3 -3 3525.15 63.69
2 3 3 3545.65 62.19
-3 -3 -3 1148.59 16.2
3 3 3 1156.78 16.3
-4 -3 -3 271.07 4.3
4 3 3 283.87 4.2
-5 -3 -3 249.08 4.2
5 3 3 249.08 4
-6 -3 -3 334.17 7
6 3 3 323.87 6.8
-7 -3 -3 77.19 2.3
7 3 3 77.49 2
-8 -3 -3 10.2 1.2
8 3 3 12 1
0 -5 -3 33.9 1
0 5 3 28.6 2
-1 -5 -3 74.09 1.2
1 5 3 61.09 1.6
-2 -5 -3 575.24 8.1
2 5 3 534.75 10.3
-3 -5 -3 58.89 1.1
3 5 3 57.69 1.5
-4 -5 -3 1.9 0.3
4 5 3 2.2 0.6
-5 -5 -3 33.9 1
5 5 3 32.3 1.3
-6 -5 -3 92.79 3
6 5 3 86.09 2.3
-7 -5 -3 16.7 1.3
7 5 3 14.8 1.2
-8 -5 -3 3.1 1
8 5 3 2.7 1
0 -7 -3 134.99 3.4
0 7 3 138.59 3.8
-1 -7 -3 217.28 3.4
1 7 3 240.28 3.4
-2 -7 -3 240.78 3.4
2 7 3 243.58 3.5
-3 -7 -3 143.99 2.3
3 7 3 147.89 2.2
-4 -7 -3 42.5 1.1
4 7 3 44 1.2
-5 -7 -3 37.5 1
5 7 3 43.4 1.5
-6 -7 -3 43.6 1.4
6 7 3 42.8 1.6
-7 -7 -3 13.4 1.1
7 7 3 12.7 1.2
0 -9 -3 21.7 1.3
0 9 3 18.9 1.1
-1 -9 -3 30.8 1.1
1 9 3 29.3 0.9
-2 -9 -3 52.09 1.3
2 9 3 48.6 1.1
-3 -9 -3 19.8 1.1
3 9 3 20.1 0.9
-4 -9 -3 6.9 0.8
4 9 3 8 0.6
-5 -9 -3 5.3 0.9
5 9 3 6.5 0.6
0 -11 -3 1.3 0.8
0 11 3 1.9 1.1
-1 -11 -3 3.3 0.6
1 11 3 4.5 0.7
-2 -11 -3 6.1 1.1
2 11 3 5.3 0.7
0 0 -4 667.13 25.5
0 0 4 634.54 24.2
-1 0 -4 8.2 37.6
1 0 4 10.5 0.6
-2 0 -4 995.4 24.3
2 0 4 968 13.7
-3 0 -4 118.89 3.6
3 0 4 138.29 2.5
-4 0 -4 87.49 2.8
4 0 4 99.69 2.3
-5 0 -4 101.79 5.4
5 0 4 92.89 2.2
-6 0 -4 213.98 5.6
6 0 4 224.38 5.4
-7 0 -4 28.7 3.4
7 0 4 31.9 2.8
-8 0 -4 0 2.9
8 0 4 3.2 3.2
0 -2 -4 595.74 16.6
0 2 4 638.74 12.7
-1 -2 -4 2085.69 32.2
1 2 4 2020.1 26.9
-2 -2 -4 3188.68 51.89
2 2 4 3209.78 39
-3 -2 -4 984.6 15.7
3 2 4 985.1 13.5
-4 -2 -4 70.29 1.8
4 2 4 74.79 1.4
-5 -2 -4 341.07 5
5 2 4 332.97 5.4
-6 -2 -4 327.07 5.8
6 2 4 335.77 6.6
-7 -2 -4 51.79 1.8
7 2 4 52.99 1.8
-8 -2 -4 3.3 1.2
8 2 4 1.7 1
0 -4 -4 16.1 0.9
0 4 4 8.4 0.8
-1 -4 -4 359.96 5.7
1 4 4 332.67 5.9
-2 -4 -4 520.05 7.8
2 4 4 512.15 8
-3 -4 -4 165.38 2.5
3 4 4 154.18 2.6
-4 -4 -4 0 0.3
4 4 4 0.3 0.3
-5 -4 -4 103.89 2.1
5 4 4 94.49 2.4
-6 -4 -4 111.59 2.9
6 4 4 107.99 2.4
-7 -4 -4 16.2 1
7 4 4 15.5 1
-8 -4 -4 0.3 0.9
8 4 4 0.6 0.7
0 -6 -4 33 1.5
0 6 4 42.3 1.5
-1 -6 -4 123.89 2.6
1 6 4 126.89 2.5
-2 -6 -4 222.48 3.6
2 6 4 233.18 3.8
-3 -6 -4 75.39 1.4
3 6 4 74.89 1.5
-4 -6 -4 10.2 0.6
4 6 4 12.6 0.7
-5 -6 -4 40.4 1.1
5 6 4 39.9 1.3
-6 -6 -4 45.1 1.5
6 6 4 46.8 1.5
-7 -6 -4 10.2 0.9
7 6 4 9.8 1
0 -8 -4 51.19 2.1
0 8 4 52.89 2.2
-1 -8 -4 117.39 2.3
1 8 4 113.09 2.3
-2 -8 -4 117.39 2.1
2 8 4 115.69 2.1
-3 -8 -4 56.69 1.6
3 8 4 55.29 1.4
-4 -8 -4 16.3 1.1
4 8 4 17.1 1
-5 -8 -4 24.1 1.2
5 8 4 24.9 1.2
-6 -8 -4 18.2 1.6
6 8 4 17 1.3
0 -10 -4 0 0.9
0 10 4 0 0.6
-1 -10 -4 2.5 0.7
1 10 4 2.3 0.5
-2 -10 -4 3.9 0.8
2 10 4 4.4 0.6
-3 -10 -4 1.8 0.7
3 10 4 3 0.6
0 -1 -5 370.66 10.2
0 1 5 342.37 6
-1 -1 -5 529.55 9.5
1 1 5 537.25 6.1
-2 -1 -5 1293.07 20.5
2 1 5 1302.47 14.6
-3 -1 -5 161.48 4.7
3 1 5 175.38 2.3
-4 -1 -5 134.19 4.8
4 1 5 119.69 2
-5 -1 -5 156.18 4.3
5 1 5 154.18 2.5
-6 -1 -5 172.68 3.4
6 1 5 183.78 3.5
-7 -1 -5 11.4 1.3
7 1 5 13.8 1.1
-8 -1 -5 10.5 1.4
8 1 5 8.4 1.3
0 -3 -5 915.01 15.9
0 3 5 830.02 14.8
-1 -3 -5 446.06 6.2
1 3 5 422.06 5.1
-2 -3 -5 847.32 13.4
2 3 5 813.42 11.3
-3 -3 -5 132.79 2.1
3 3 5 122.89 1.9
-4 -3 -5 232.58 3.3
4 3 5 211.38 2.9
-5 -3 -5 120.29 2.2
5 3 5 113.19 2
-6 -3 -5 114.09 2.5
6 3 5 120.09 3.7
-7 -3 -5 7.9 1
7 3 5 7.3 1.3
-8 -3 -5 11.1 1.2
8 3 5 6 1
0 -5 -5 36 1.4
0 5 5 37.3 1.4
-1 -5 -5 94.09 1.9
1 5 5 107.49 2
-2 -5 -5 299.37 5.4
2 5 5 308.87 5.6
-3 -5 -5 55.39 1.2
3 5 5 62.99 1.2
-4 -5 -5 19.8 0.7
4 5 5 16.4 0.7
-5 -5 -5 38 1.2
5 5 5 38.6 1.2
-6 -5 -5 53.29 1.7
6 5 5 53.59 1.4
-7 -5 -5 3.8 0.7
7 5 5 5.6 0.8
0 -7 -5 148.19 4.4
0 7 5 142.49 4.4
-1 -7 -5 108.99 2.3
1 7 5 107.89 2.3
-2 -7 -5 155.38 2.9
2 7 5 152.18 2.8
-3 -7 -5 50.79 1.5
3 7 5 48.6 1.3
-4 -7 -5 44.3 1.6
4 7 5 44.2 1.3
-5 -7 -5 30.4 1.3
5 7 5 31.3 1.4
-6 -7 -5 21.6 1.3
6 7 5 19.5 1.3
0 -9 -5 8.1 1.1
0 9 5 3.9 1
-1 -9 -5 2.5 0.7
1 9 5 1.2 0.6
-2 -9 -5 8.8 0.8
2 9 5 8.8 0.8
-3 -9 -5 2.2 0.7
3 9 5 1.6 0.7
-4 -9 -5 3.1 0.7
4 9 5 3.8 0.8
0 0 -6 397.26 11.3
0 0 6 385.86 7.4
-1 0 -6 798.12 17.3
1 0 6 795.52 11.5
-2 0 -6 524.65 12.3
2 0 6 551.24 8
-3 0 -6 292.57 6.5
3 0 6 296.47 4.5
-4 0 -6 188.58 15.1
4 0 6 137.19 3.1
-5 0 -6 188.18 5.6
5 0 6 193.08 4.3
-6 0 -6 67.99 2.4
6 0 6 76.89 2
-7 0 -6 11.7 3.1
7 0 6 9.5 1.2
-8 0 -6 22.3 2.3
8 0 6 13.4 1.8
0 -2 -6 466.55 9.4
0 2 6 445.16 7.9
-1 -2 -6 388.06 5.5
1 2 6 384.36 4.5
-2 -2 -6 74.29 1.4
2 2 6 74.49 1.1
-3 -2 -6 155.48 2.5
3 2 6 145.09 2
-4 -2 -6 159.98 2.8
4 2 6 142.89 2.3
-5 -2 -6 114.49 2.4
5 2 6 107.19 1.8
-6 -2 -6 27.1 1.6
6 2 6 26.9 1.4
-7 -2 -6 6.4 1
7 2 6 5.1 1.2
0 -4 -6 67.09 1.9
0 4 6 59.79 1.9
-1 -4 -6 155.38 3
1 4 6 158.18 2.9
-2 -4 -6 95.99 2.2
2 4 6 104.09 2.2
-3 -4 -6 58.99 1.2
3 4 6 61.39 1.3
-4 -4 -6 40.2 0.9
4 4 6 36.6 0.9
-5 -4 -6 59.19 1.5
5 4 6 58.79 1.3
-6 -4 -6 24.1 1.2
6 4 6 24.3 1.5
-7 -4 -6 4.3 0.8
7 4 6 4.3 0.9
0 -6 -6 129.49 3.7
0 6 6 120.79 3.7
-1 -6 -6 161.08 3.2
1 6 6 157.98 3.1
-2 -6 -6 75.79 1.8
2 6 6 79.29 1.8
-3 -6 -6 67.29 1.7
3 6 6 65.29 1.6
-4 -6 -6 49.5 1.5
4 6 6 46.7 1.3
-5 -6 -6 40.1 1.5
5 6 6 38.9 1.5
-6 -6 -6 11.7 1.1
6 6 6 12.2 0.9
0 -8 -6 20 1.5
0 8 6 17.2 1.4
-1 -8 -6 13.4 0.8
1 8 6 11.5 0.8
-2 -8 -6 1.9 0.6
2 8 6 1.6 0.6
-3 -8 -6 8.1 0.8
3 8 6 5.7 0.7
-4 -8 -6 8.8 0.9
4 8 6 6.9 0.8
5 8 6 4.7 1.7
0 -10 -6 6.6 1.2
0 10 6 6.6 1.2
-1 -10 -6 10 1
1 10 6 12.5 0.9
0 -1 -7 540.35 11.6
0 1 7 540.65 7.4
-1 -1 -7 160.58 2.6
1 1 7 154.08 1.7
-2 -1 -7 112.49 1.8
2 1 7 119.29 1.3
-3 -1 -7 90.59 1.7
3 1 7 78.79 1
-4 -1 -7 198.58 4.3
4 1 7 186.08 2.3
-5 -1 -7 50.19 1.3
5 1 7 49.2 1.2
-6 -1 -7 9.4 1.2
6 1 7 13.3 0.8
-7 -1 -7 10.7 1.5
7 1 7 8.6 1
0 -3 -7 124.79 3.1
0 3 7 119.29 3.5
-1 -3 -7 14.5 0.9
1 3 7 12.4 0.8
-2 -3 -7 20.6 1
2 3 7 24.5 1.1
-3 -3 -7 14.2 0.8
3 3 7 11.7 0.7
-4 -3 -7 68.09 1.6
4 3 7 69.39 1.3
-5 -3 -7 18.4 1.1
5 3 7 17 0.8
-6 -3 -7 4.8 0.7
6 3 7 5 0.8
-7 -3 -7 5.7 0.9
7 3 7 3.9 1.1
0 -5 -7 244.88 6.2
0 5 7 234.68 6
-1 -5 -7 118.89 2.4
1 5 7 110.09 2.3
-2 -5 -7 82.59 2
2 5 7 84.09 2
-3 -5 -7 54.49 1.5
3 5 7 54.89 1.4
-4 -5 -7 84.39 1.8
4 5 7 83.39 1.9
-5 -5 -7 32.5 1.4
5 5 7 32.1 1.2
-6 -5 -7 7.6 0.9
6 5 7 7.9 1.1
0 -7 -7 28 1.6
0 7 7 25 1.5
-1 -7 -7 12.9 0.8
1 7 7 9.7 0.7
-2 -7 -7 3.4 0.6
2 7 7 2.9 0.6
-3 -7 -7 8.9 0.8
3 7 7 7.5 0.7
-4 -7 -7 12.6 0.9
4 7 7 11.2 0.8
-5 -7 -7 2.8 0.9
5 7 7 3.7 0.7
0 -9 -7 13.6 1.4
0 9 7 13.2 1.3
-1 -9 -7 5 0.8
1 9 7 5.7 0.8
-2 -9 -7 5.2 0.9
2 9 7 5.7 0.8
0 0 -8 278.07 8.2
0 0 8 272.57 5.7
-1 0 -8 134.09 3.1
1 0 8 134.29 2
-2 0 -8 70.99 1.8
2 0 8 64.79 1.2
-3 0 -8 83.39 2.1
3 0 8 81.59 1.5
-4 0 -8 100.49 3
4 0 8 99.79 2.2
-5 0 -8 23.3 1.7
5 0 8 24.7 1.3
-6 0 -8 4.9 0.8
6 0 8 4.4 0.8
-7 0 -8 12.2 1.5
7 0 8 10.6 1.4
0 -2 -8 67.59 2
0 2 8 67.99 1.7
-1 -2 -8 28.8 0.8
1 2 8 31.6 0.7
-2 -2 -8 4.3 0.5
2 2 8 2 0.4
-3 -2 -8 21.3 0.7
3 2 8 21.6 0.7
-4 -2 -8 40.1 1.4
4 2 8 40.2 0.9
-5 -2 -8 11.8 0.7
5 2 8 11.6 0.7
-6 -2 -8 1 0.7
6 2 8 0 0.7
0 -4 -8 116.39 3.2
0 4 8 108.09 3.1
-1 -4 -8 71.59 1.8
1 4 8 69.29 1.7
-2 -4 -8 23.4 1.2
2 4 8 21.9 1.1
-3 -4 -8 44.6 1.3
3 4 8 45.6 1.3
-4 -4 -8 46.5 1.3
4 4 8 49.2 1.6
-5 -4 -8 16.2 1.1
5 4 8 16.8 1.1
-6 -4 -8 4.2 0.8
6 4 8 3.5 1.3
0 -6 -8 34.7 1.6
0 6 8 30.1 1.6
-1 -6 -8 18.4 1
1 6 8 16.6 0.9
-2 -6 -8 12.7 0.8
2 6 8 10.1 0.8
-3 -6 -8 14.3 0.9
3 6 8 15 0.9
-4 -6 -8 13 0.9
4 6 8 14.2 0.9
-5 -6 -8 4.3 0.8
5 6 8 5.1 0.7
0 -8 -8 5.1 1.1
0 8 8 5.8 1
-1 -8 -8 4.6 0.8
1 8 8 6 0.7
-2 -8 -8 0.2 0.7
2 8 8 0.8 0.6
0 -1 -9 44.2 1.7
0 1 9 46.4 1.1
-1 -1 -9 29.8 0.9
1 1 9 28.8 0.6
-2 -1 -9 12.9 0.7
2 1 9 11.5 0.5
-3 -1 -9 32.9 1.2
3 1 9 30.1 0.8
-4 -1 -9 21.7 1
4 1 9 22.7 0.9
-5 -1 -9 4.3 0.5
5 1 9 4.7 0.7
-6 -1 -9 3.1 0.5
6 1 9 2 0.7
0 -3 -9 55.79 1.9
0 3 9 58.19 1.6
-1 -3 -9 28 1.1
1 3 9 28.3 0.8
-2 -3 -9 13.3 0.9
2 3 9 13.6 0.6
-3 -3 -9 23.9 1
3 3 9 25.5 0.9
-4 -3 -9 23.5 1.3
4 3 9 25.2 0.9
-5 -3 -9 4 0.9
5 3 9 5.7 0.7
0 -5 -9 18.7 1.4
0 5 9 20.5 1.4
-1 -5 -9 18.9 1
1 5 9 18.6 0.9
-2 -5 -9 13.1 0.9
2 5 9 14.8 0.9
-3 -5 -9 15.6 1
3 5 9 16.4 0.9
-4 -5 -9 7.1 1
4 5 9 9.7 0.8
0 -7 -9 4.4 1.1
0 7 9 7.7 1.2
-1 -7 -9 1.6 0.7
1 7 9 2.5 0.8
-2 -7 -9 0.6 0.8
2 7 9 1.5 0.7
0 0 -10 6.2 1.9
0 0 10 7.5 0.8
-1 0 -10 6.4 1.3
1 0 10 7.5 0.6
-2 0 -10 15.3 1
2 0 10 15.1 1
-3 0 -10 7 0.8
3 0 10 7.7 1
-4 0 -10 3.5 0.7
4 0 10 2.4 1.3
-5 0 -10 2.1 0.7
5 0 10 0.3 1.3
0 -2 -10 18.2 1.2
0 2 10 17.8 1
-1 -2 -10 14.7 0.7
1 2 10 15.6 0.7
-2 -2 -10 20.5 0.9
2 2 10 18.6 0.8
-3 -2 -10 13.8 0.8
3 2 10 15.6 0.8
-4 -2 -10 6.2 0.8
4 2 10 8.3 0.7
-5 -2 -10 3 0.8
5 2 10 3.2 0.9
0 -4 -10 9.6 1.2
0 4 10 10.1 0.9
-1 -4 -10 7 0.8
1 4 10 8.1 0.6
-2 -4 -10 12.7 0.9
2 4 10 14.6 0.7
-3 -4 -10 5.9 0.8
3 4 10 6.8 0.6
-4 -4 -10 2.9 0.9
4 4 10 3.6 0.6
0 -6 -10 1.8 1.1
0 6 10 1.6 1.1
-1 -6 -10 1.2 0.7
1 6 10 1.6 0.8
-2 -6 -10 1.8 0.8
2 6 10 3 0.6
0 -1 -11 3.8 0.9
0 1 11 3.4 0.8
-1 -1 -11 6.1 0.7
1 1 11 5.4 0.7
-2 -1 -11 6.7 0.7
2 1 11 6.4 0.7
-3 -1 -11 4.8 0.6
3 1 11 4.7 0.9
0 -3 -11 4.2 0.8
0 3 11 3.5 0.7
-1 -3 -11 7.7 0.7
1 3 11 8.8 0.7
-2 -3 -11 6.9 0.7
2 3 11 7.4 0.7
-3 -3 -11 6.5 1.2
3 3 11 4.9 0.7
0 0 -12 0.1 1.9
-1 0 -12 1.6 1.2
1 0 12 1.1 1
loop_
_twin_individual_id
_twin_individual_mass_fraction_refined
1 0.87(6)
2 0.13(6)
