#------------------------------------------------------------------------------
#$Date: 2017-11-15 02:12:30 +0200 (Wed, 15 Nov 2017) $
#$Revision: 203188 $
#$URL: file:///home/coder/svn-repositories/cod/cif/4/12/67/4126739.cif $
#------------------------------------------------------------------------------
#
# This file is available in the Crystallography Open Database (COD),
# http://www.crystallography.net/
#
# All data on this site have been placed in the public domain by the
# contributors.
#
data_4126739
loop_
_publ_author_name
'Zhu, Chendan'
'Wang, Dingyi'
'Zhao, Yue'
'Sun, Wei-Yin'
'Shi, Zhuangzhi'
_publ_section_title
;
 Enantioselective Palladium-Catalyzed Intramolecular \a-Arylative
 Desymmetrization of 1,3-Diketones.
;
_journal_name_full               'Journal of the American Chemical Society'
_journal_paper_doi               10.1021/jacs.7b10365
_journal_year                    2017
_chemical_absolute_configuration ad
_chemical_formula_sum            'C15 H13 N O2'
_chemical_formula_weight         239.26
_space_group_crystal_system      monoclinic
_space_group_IT_number           4
_space_group_name_Hall           'P 2yb'
_space_group_name_H-M_alt        'P 1 21 1'
_symmetry_space_group_name_Hall  'P 2yb'
_symmetry_space_group_name_H-M   'P 1 21 1'
_atom_sites_solution_hydrogens   geom
_audit_creation_method           SHELXL-2014/7
_cell_angle_alpha                90
_cell_angle_beta                 95.131(5)
_cell_angle_gamma                90
_cell_formula_units_Z            2
_cell_length_a                   7.1098(7)
_cell_length_b                   11.3290(12)
_cell_length_c                   7.2326(7)
_cell_measurement_reflns_used    2588
_cell_measurement_temperature    296(2)
_cell_measurement_theta_max      68.34
_cell_measurement_theta_min      6.14
_cell_volume                     580.23(10)
_computing_cell_refinement       'Bruker SAINT'
_computing_data_collection       'Bruker APEX2'
_computing_data_reduction        'Bruker SAINT'
_computing_molecular_graphics    'Bruker SHELXTL'
_computing_publication_material  'Bruker SHELXTL'
_computing_structure_refinement  'SHELXL-2014 (Sheldrick 2014)'
_computing_structure_solution    'SHELXS-97 (Sheldrick 2008)'
_diffrn_ambient_temperature      296(2)
_diffrn_measured_fraction_theta_full 0.980
_diffrn_measured_fraction_theta_max 0.980
_diffrn_measurement_device_type  'Bruker APEX-II CCD'
_diffrn_measurement_method       '\f and \w scans'
_diffrn_radiation_type           CuK\a
_diffrn_radiation_wavelength     1.54178
_diffrn_reflns_av_R_equivalents  0.0248
_diffrn_reflns_av_unetI/netI     0.0348
_diffrn_reflns_Laue_measured_fraction_full 0.980
_diffrn_reflns_Laue_measured_fraction_max 0.980
_diffrn_reflns_limit_h_max       8
_diffrn_reflns_limit_h_min       -8
_diffrn_reflns_limit_k_max       11
_diffrn_reflns_limit_k_min       -13
_diffrn_reflns_limit_l_max       8
_diffrn_reflns_limit_l_min       -8
_diffrn_reflns_number            2580
_diffrn_reflns_point_group_measured_fraction_full 0.755
_diffrn_reflns_point_group_measured_fraction_max 0.755
_diffrn_reflns_theta_full        64.996
_diffrn_reflns_theta_max         64.996
_diffrn_reflns_theta_min         6.143
_exptl_absorpt_coefficient_mu    0.737
_exptl_crystal_colour
;
;
_exptl_crystal_density_diffrn    1.369
_exptl_crystal_description
;
;
_exptl_crystal_F_000             252
_exptl_crystal_size_max          0.260
_exptl_crystal_size_mid          0.240
_exptl_crystal_size_min          0.220
_refine_diff_density_max         0.206
_refine_diff_density_min         -0.289
_refine_diff_density_rms         0.062
_refine_ls_abs_structure_details
;
 Flack x determined using 462 quotients [(I+)-(I-)]/[(I+)+(I-)]
 (Parsons, Flack and Wagner, Acta Cryst. B69 (2013) 249-259).
;
_refine_ls_abs_structure_Flack   0.16(12)
_refine_ls_extinction_method     none
_refine_ls_goodness_of_fit_ref   1.083
_refine_ls_hydrogen_treatment    constr
_refine_ls_matrix_type           full
_refine_ls_number_parameters     164
_refine_ls_number_reflns         1500
_refine_ls_number_restraints     1
_refine_ls_restrained_S_all      1.082
_refine_ls_R_factor_all          0.0315
_refine_ls_R_factor_gt           0.0315
_refine_ls_shift/su_max          0.000
_refine_ls_shift/su_mean         0.000
_refine_ls_structure_factor_coef Fsqd
_refine_ls_weighting_details
'w=1/[\s^2^(Fo^2^)+(0.0566P)^2^+0.0661P] where P=(Fo^2^+2Fc^2^)/3'
_refine_ls_weighting_scheme      calc
_refine_ls_wR_factor_gt          0.0840
_refine_ls_wR_factor_ref         0.0841
_reflns_Friedel_coverage         0.458
_reflns_Friedel_fraction_full    0.503
_reflns_Friedel_fraction_max     0.503
_reflns_number_gt                1493
_reflns_number_total             1500
_reflns_threshold_expression     'I > 2\s(I)'
_cod_data_source_file            ja7b10365_si_003.cif
_cod_data_source_block           cu_20170315szzz_0m_a
_cod_database_code               4126739
_shelx_shelxl_version_number     2014/7
_shelx_space_group_comment
;
The symmetry employed for this shelxl refinement is uniquely defined
by the following loop, which should always be used as a source of
symmetry information in preference to the above space-group names.
They are only intended as comments.
;
_shelx_estimated_absorpt_t_min   0.831
_shelx_estimated_absorpt_t_max   0.855
_shelx_res_file
;

    cu_20170315szzz_0m_a.res created by SHELXL-2014/7

TITL cu_20170315szzz_0m_a.res in P2(1)
CELL  1.54178   7.1098  11.3290   7.2326   90.000   95.131   90.000
ZERR   2.000   0.0007   0.0012   0.0007    0.000    0.005    0.000
LATT -1
SYMM -X, 1/2+Y, -Z
SFAC C  H  N  O
UNIT 30 26 2 4
OMIT  -3.00 130.00
L.S. 10
ACTA
BOND $H
FMAP 2
PLAN 20
LIST 6
SIZE .26 .24 .22
TEMP 23.000
WGHT    0.056600    0.066100
FVAR       1.33979
C1    1   -0.004868    0.423255   -0.103578    11.00000    0.03223    0.03087 =
         0.02699    0.00839   -0.00962   -0.00103
C2    1    0.167040    0.474326   -0.017172    11.00000    0.02231    0.03091 =
         0.01727    0.00026   -0.00067   -0.00106
C3    1    0.207839    0.593212   -0.041389    11.00000    0.02479    0.02787 =
         0.01932    0.00479   -0.00102    0.00594
AFIX  43
H3    2    0.124838    0.641446   -0.113661    11.00000   -1.20000
AFIX   0
C4    1    0.374567    0.638173    0.044356    11.00000    0.02803    0.02032 =
         0.01894    0.00164    0.00291    0.00043
AFIX  43
H4    2    0.402552    0.717613    0.029513    11.00000   -1.20000
AFIX   0
C5    1    0.501796    0.567127    0.152628    11.00000    0.02180    0.02190 =
         0.01766   -0.00148    0.00246    0.00021
C6    1    0.454743    0.449254    0.181483    11.00000    0.02178    0.02235 =
         0.01673   -0.00100   -0.00058    0.00129
C7    1    0.288609    0.402760    0.095844    11.00000    0.02634    0.02195 =
         0.01892   -0.00059   -0.00062   -0.00230
AFIX  43
H7    2    0.258335    0.323969    0.113770    11.00000   -1.20000
AFIX   0
C8    1    0.574759    0.374228    0.320423    11.00000    0.02676    0.01835 =
         0.02221   -0.00069   -0.00531   -0.00043
AFIX  13
H8    2    0.573055    0.291948    0.278484    11.00000   -1.20000
AFIX   0
C9    1    0.776074    0.418200    0.346035    11.00000    0.02375    0.02405 =
         0.01687    0.00139   -0.00087    0.00260
C10   1    0.791665    0.548579    0.398563    11.00000    0.01782    0.02372 =
         0.02098   -0.00184   -0.00124   -0.00093
C11   1    0.689875    0.616715    0.230200    11.00000    0.02477    0.02069 =
         0.02387    0.00007    0.00085   -0.00208
AFIX  23
H11A  2    0.670652    0.697640    0.268067    11.00000   -1.20000
H11B  2    0.773390    0.618551    0.131276    11.00000   -1.20000
AFIX   0
C12   1    0.995494    0.588744    0.433647    11.00000    0.02069    0.03437 =
         0.02792   -0.00093   -0.00064   -0.00440
AFIX 137
H12A  2    1.056090    0.545814    0.536833    11.00000   -1.50000
H12B  2    0.998827    0.671651    0.461188    11.00000   -1.50000
H12C  2    1.060428    0.574158    0.325102    11.00000   -1.50000
AFIX   0
C13   1    0.683529    0.572125    0.571125    11.00000    0.02096    0.02150 =
         0.02106    0.00051   -0.00289    0.00435
C14   1    0.499883    0.507860    0.586138    11.00000    0.02146    0.03861 =
         0.01956   -0.00354   -0.00008   -0.00218
AFIX  23
H14A  2    0.399241    0.552715    0.519491    11.00000   -1.20000
H14B  2    0.474713    0.505916    0.715721    11.00000   -1.20000
AFIX   0
C15   1    0.493031    0.382270    0.512090    11.00000    0.02401    0.03076 =
         0.02203    0.00454   -0.00435   -0.00797
AFIX  23
H15A  2    0.363237    0.354904    0.500171    11.00000   -1.20000
H15B  2    0.564907    0.331104    0.599718    11.00000   -1.20000
AFIX   0
N1    3   -0.139405    0.380620   -0.171459    11.00000    0.04149    0.04369 =
         0.05725    0.01618   -0.02692   -0.01103
O1    4    0.911438    0.356665    0.326049    11.00000    0.02768    0.02750 =
         0.03894   -0.00005    0.00324    0.00795
O2    4    0.743101    0.643097    0.686509    11.00000    0.03624    0.02537 =
         0.02782   -0.00743    0.00138   -0.00435
HKLF 4

REM  cu_20170315szzz_0m_a.res in P2(1)
REM R1 =  0.0315 for    1493 Fo > 4sig(Fo)  and  0.0315 for all    1500 data
REM    164 parameters refined using      1 restraints

END

WGHT      0.0565      0.0669

REM Highest difference peak  0.206,  deepest hole -0.289,  1-sigma level  0.062
Q1    1   0.7410  0.5572  0.4816  11.00000  0.05    0.21
Q2    1   0.2624  0.4660  0.7497  11.00000  0.05    0.17
Q3    1   0.8569  0.5223  0.0862  11.00000  0.05    0.17
Q4    1   0.8448  0.4989  0.0455  11.00000  0.05    0.16
Q5    1   0.5244  0.3867  0.4073  11.00000  0.05    0.16
Q6    1   1.2524  0.5527  0.2588  11.00000  0.05    0.15
Q7    1   0.2442  0.4596  0.2486  11.00000  0.05    0.15
Q8    1   0.5041  0.4115  0.8597  11.00000  0.05    0.15
Q9    1  -0.2849  0.4437  0.0129  11.00000  0.05    0.15
Q10   1   1.1069  0.5969  0.2121  11.00000  0.05    0.14
Q11   1   1.1233  0.5494  0.7047  11.00000  0.05    0.14
Q12   1   0.9721  0.6240  0.1331  11.00000  0.05    0.14
Q13   1   1.1313  0.6210  0.1813  11.00000  0.05    0.14
Q14   1   1.1124  0.4840  0.6667  11.00000  0.05    0.13
Q15   1  -0.2679  0.3791 -0.0798  11.00000  0.05    0.13
Q16   1   0.4410  0.5210  0.8225  11.00000  0.05    0.13
Q17   1   0.5358  0.8011  0.0960  11.00000  0.05    0.13
Q18   1   0.2300  0.3676 -0.2345  11.00000  0.05    0.12
Q19   1   0.5753  0.4724  0.9192  11.00000  0.05    0.12
Q20   1   0.5390  0.2049  0.6266  11.00000  0.05    0.12
;
_shelx_res_checksum              76538
_shelx_hkl_file
;
   1   0   0  652.73   32.80
   2   0   0   19.00    1.40
   3   0   0  410.06   14.40
   4   0   0 1153.18   41.50
   5   0   0   41.50    3.50
   6   0   0  137.19    4.60
   7   0   0    6.30    0.50
   8   0   0   18.40    1.10
   8   0   0   20.10    0.80
   1  -1   0  967.10   46.50
   1   1   0  857.71   42.90
   2  -1   0  653.33   23.20
   2   1   0  630.54   39.60
   3  -1   0 1776.12   98.49
   3   1   0 1787.22   99.79
   4  -1   0  332.07   13.00
   4   1   0  344.77   12.90
   5  -1   0   41.30    3.60
   5   1   0   41.40    3.40
   6  -1   0   65.29    2.40
   6   1   0   66.69    2.40
   7  -1   0   69.39    2.40
   7   1   0   68.99    2.50
   8  -1   0   18.80    1.10
   8   1   0   20.00    1.10
   8   1   0   21.00    0.90
   0  -2   0 6907.71  243.18
   1  -2   0  236.88    8.40
   1   2   0  248.48   12.70
   2  -2   0 1525.75   72.59
   2   2   0 1460.35   65.29
   3  -2   0 1318.87   46.40
   3   2   0 1347.07   45.00
   4  -2   0  688.53   24.10
   4   2   0  712.43   23.60
   4   2   0  663.83   21.70
   6   2   0  286.97   11.20
   6   2   0  310.67    9.60
   7   2   0   50.69    1.90
   7   2   0   51.19    2.30
   8  -2   0    2.20    0.40
   8   2   0    3.00    0.60
   8   2   0    3.10    0.40
   0  -3   0    0.50    0.50
  -1  -3   0  906.71   31.20
   1  -3   0 1006.90   32.60
   2  -3   0 1061.09   36.90
   2   3   0 1059.89   51.89
   3  -3   0  534.65   19.00
   3   3   0  552.74   19.00
   4  -3   0  127.99    6.60
   4   3   0  131.89    4.60
   4   3   0  134.89    6.00
   6   3   0  322.17   10.10
   6   3   0  307.37   11.70
   7   3   0  102.79    3.80
   7   3   0  106.09    3.60
   8   3   0   11.50    0.60
   0  -4   0 7540.55  279.67
   1  -4   0   67.49    3.50
   1   4   0   78.19    2.40
   2  -4   0  218.58    8.90
   2   4   0  234.98    8.20
   3  -4   0  309.37   12.20
   3   4   0  319.67   11.30
   3   4   0  308.67   10.20
   4  -4   0    9.50    1.80
   4   4   0    9.50    1.40
   4   4   0   10.40    0.90
   5   4   0   49.70    2.20
   5   4   0   51.59    3.00
  -6  -4   0   59.19    2.10
  -6  -4   0   62.29    2.10
   6   4   0   60.49    2.30
   6   4   0   55.99    3.50
   6   4   0   62.19    2.50
   7   4   0   88.39    3.30
   7   4   0   89.49    3.10
   8   4   0   10.10    0.60
   1  -5   0  515.45   18.50
   1   5   0  553.04   16.60
   2  -5   0   85.89    4.60
   3  -5   0  763.82   27.10
   3   5   0  792.42   24.50
   4  -5   0   51.49    4.20
   4   5   0   53.99    2.30
   4   5   0   53.59    3.30
  -5  -5   0   34.90    1.30
   5   5   0   37.00    1.90
  -6  -5   0   17.90    0.90
  -6  -5   0   19.90    0.80
   7   5   0   17.90    0.90
   0   6   0  744.93   23.20
   2   6   0  303.27    9.90
   3   6   0  273.67    9.20
  -3   6   0  286.97    8.90
   4   6   0  319.17   10.60
  -5  -6   0  134.69    4.50
   5   6   0  142.39    5.10
  -6  -6   0   87.69    2.80
  -6  -6   0   79.79    2.90
   7   6   0   36.80    1.40
   0   7   0   -0.10    0.20
   1   7   0  215.18    7.10
  -1   7   0  207.98    6.80
   2   7   0  187.58    6.40
  -2   7   0  188.38    6.10
   3   7   0   66.89    2.60
  -3   7   0   53.09    2.10
  -4  -7   0  407.06   13.00
  -4   7   0  403.46   13.10
   4   7   0  432.26   13.60
  -5  -7   0  111.89    3.70
   5   7   0  114.09    4.30
  -6  -7   0  132.29    4.40
  -6  -7   0  141.99    4.40
   6   7   0  133.09    4.50
   7   7   0   13.60    0.70
   0   8   0  112.89    3.90
   0   8   0  121.39    4.30
  -1   8   0   73.59    2.60
   1   8   0   77.79    3.10
  -2   8   0   85.39    3.00
   2   8   0   87.29    3.40
   3  -8   0   19.20    0.80
  -3  -8   0   19.70    0.80
   3   8   0   19.60    1.30
  -3   8   0   18.20    1.00
  -4  -8   0  143.29    4.70
   4   8   0  146.99    5.30
  -5  -8   0   65.19    2.20
   5   8   0   63.29    2.80
  -6  -8   0   30.40    1.10
  -6  -8   0   30.80    1.20
   6   8   0   28.40    1.20
   0   9   0    0.00    0.30
   0   9   0    0.40    0.50
   1  -9   0   29.60    1.10
  -1  -9   0   26.90    1.20
  -1  -9   0   32.80    1.10
  -1   9   0   28.80    1.30
   1   9   0   31.10    1.70
  -1   9   0   32.00    1.80
  -2  -9   0   78.99    2.60
  -2  -9   0   74.99    2.70
  -2  -9   0   77.59    2.60
   2  -9   0   79.19    2.60
  -2   9   0   74.49    2.80
   2   9   0   80.19    3.20
  -3  -9   0  387.66   12.40
   3   9   0  400.36   13.00
  -4  -9   0  141.59    4.60
   4   9   0  142.29    5.20
  -5  -9   0   11.90    0.60
   5   9   0   11.10    1.50
  -6  -9   0   57.69    2.00
  -6  -9   0   63.39    2.00
   0 -10   0   71.09    2.40
   0  10   0   71.89    3.00
   1 -10   0    4.30    0.40
  -1 -10   0    4.30    0.50
   1  10   0    3.90    0.80
  -2 -10   0   80.99    2.70
  -2 -10   0   80.89    2.80
   2 -10   0   84.49    2.70
  -2 -10   0   80.59    2.80
   2  10   0   80.49    3.30
  -3 -10   0  113.39    3.60
   3  10   0  105.99    4.20
  -4 -10   0   51.89    1.70
   4  10   0   46.70    2.20
  -5 -10   0   19.90    0.80
  -5 -10   0   17.70    0.80
   0 -11   0    0.90    0.20
   0 -11   0    0.20    0.30
  -1 -11   0   72.39    2.40
  -1 -11   0   69.89    2.50
   1 -11   0   71.39    2.30
  -1 -11   0   70.59    2.40
   1  11   0   65.29    3.30
  -2 -11   0   55.69    1.90
   2 -11   0   54.49    1.80
  -2 -11   0   54.79    2.00
  -2 -11   0   54.79    1.90
   2  11   0   52.29    2.40
  -3 -11   0   26.50    1.00
  -4 -11   0   13.00    0.60
  -5 -11   0   20.00    0.70
  -5 -11   0   19.30    0.80
   0 -12   0   54.59    1.90
   0 -12   0   53.49    1.80
   0 -12   0   53.19    1.90
  -1 -12   0   87.79    2.90
   1 -12   0   91.59    3.00
   1 -12   0   88.69    2.90
  -1 -12   0   88.19    2.90
  -1 -12   0   86.69    3.00
   1 -12   0   85.49    2.90
  -2 -12   0   67.69    2.40
   2 -12   0   67.49    2.40
   2 -12   0   74.79    2.40
  -2 -12   0   72.99    2.60
  -2 -12   0   70.59    2.30
  -3 -12   0   26.90    1.00
   3 -12   0   26.50    1.00
  -4 -12   0   62.69    2.00
   0 -13   0    0.60    0.30
   0 -13   0    0.40    0.20
  -1 -13   0    5.20    0.40
   1 -13   0    5.30    0.40
  -1 -13   0    5.10    0.30
  -2 -13   0    5.70    0.30
   2 -13   0    5.30    0.40
  -7   0   1   41.60    1.50
  -6   0   1   36.40    1.40
   6   0  -1   35.50    1.50
   5   0  -1   68.79    4.70
   4   0  -1  278.77   11.30
   3   0  -1  172.48    7.20
   2   0  -1 1055.69   36.70
   1   0  -1   29.20    1.50
   0   0   1  136.69    4.60
   1   0   1  305.37   10.60
   2   0   1  210.58    7.50
   3   0   1   29.80    2.10
   4   0   1  379.36   14.10
   5   0   1  114.19    5.20
   6   0   1  127.59    6.00
   6   0   1  131.19    4.40
   7   0   1   49.50    1.90
   7   0   1   52.49    2.30
   8   0   1   61.99    2.10
   8   0   1   59.79    2.30
  -8  -1   1   22.40    1.00
   8   1  -1   23.10    0.90
   8   1  -1   20.40    1.20
  -7  -1   1   39.30    1.40
  -7   1   1   39.70    1.40
   7   1  -1   39.60    1.60
  -6  -1   1  166.88    5.30
  -6   1   1  163.28    5.30
   6   1  -1  162.48    5.40
   5  -1  -1   76.09    5.10
   5   1  -1   76.79    4.90
   4  -1  -1  134.59    6.70
   4   1  -1  139.69    6.60
   3  -1  -1  229.08    9.00
   3   1  -1  227.48    8.90
   2  -1  -1  295.37   10.40
   2   1  -1  287.77   12.00
  -1  -1   1 5738.23  211.68
   1  -1  -1 6363.16  218.08
   0  -1   1 1697.33   71.39
   0  -1   1 1641.04   65.39
   0   1   1 1700.43   61.19
   1  -1   1 2274.77   90.09
   1   1   1 1931.11   76.09
   2  -1   1   62.59    2.90
   2   1   1   59.39    2.70
   3  -1   1  207.28    8.10
   3   1   1  205.58    7.80
   4  -1   1   60.49    3.80
   4   1   1   59.39    3.60
   5   1   1   14.60    1.60
   6  -1   1  364.66   13.80
   6  -1   1  381.86   11.90
   6   1   1  371.96   13.80
   6   1   1  386.46   12.00
   7  -1   1    1.90    0.60
   7   1   1    1.70    0.30
   7   1   1    2.80    0.60
   8  -1   1   65.49    2.20
   8  -1   1   64.29    2.50
   8   1   1   67.69    2.20
   8   1   1   64.39    2.50
  -8  -2   1    2.70    0.20
   8   2  -1    3.20    0.40
   8   2  -1    2.90    0.60
  -7  -2   1  737.03   23.00
  -7   2   1  734.13   23.00
   7   2  -1  744.53   23.10
  -6  -2   1   44.40    1.60
  -6   2   1   44.20    1.60
   5  -2  -1   97.69    6.10
   4  -2  -1   76.69    4.70
   3  -2  -1  398.16   14.80
   3   2  -1  425.16   14.60
   2  -2  -1  192.38    7.40
  -2   2   1  191.48    6.10
   2   2  -1  204.18    7.30
  -1  -2   1 1240.88   56.09
   1  -2  -1 1191.18   57.49
  -1   2   1 1175.18   49.00
  -1   2   1 1218.78   37.60
   1   2  -1 1242.68   58.99
   0  -2   1    8.00    0.70
   0  -2   1   10.10    1.30
   1  -2   1 2240.28   96.59
   1   2   1 1989.90   78.19
   2  -2   1  191.48    7.10
   2   2   1  179.28    6.50
   3  -2   1 1224.48   42.40
   3   2   1 1189.38   40.90
   4  -2   1  183.18    8.20
   4   2   1  188.78    7.00
   4   2   1  187.18    7.50
   4   2   1  173.18    6.10
   5  -2   1  152.28    6.60
   5   2   1  161.08    6.60
   6  -2   1  195.78    6.40
   6  -2   1  192.68    8.10
   6   2   1  191.78    8.10
   6   2   1  204.18    6.50
   6   2   1  202.88    6.80
   7  -2   1   58.99    2.10
   7  -2   1   57.89    2.50
   7   2   1   58.79    2.20
   7   2   1   59.89    2.50
   8  -2   1   28.20    1.00
   8   2   1   27.30    1.30
   8   2   1   29.20    1.10
  -8  -3   1   90.69    3.00
   8   3  -1   92.49    3.10
  -7  -3   1   45.80    1.60
   7   3  -1   42.20    2.00
   7   3  -1   47.00    1.80
  -6  -3   1   58.79    2.10
  -6   3   1   58.89    2.00
   4  -3  -1  322.97   13.30
   4   3  -1  339.97   12.70
   4   3  -1  333.97   10.80
   3  -3  -1   64.19    3.90
   3   3  -1   68.99    3.60
  -3   3   1   66.29    2.20
  -2  -3   1 1020.20   36.40
   2  -3  -1 1041.50   36.60
  -2   3   1 1055.79   32.50
   2   3  -1 1065.69   55.19
   1  -3  -1   81.69    3.70
  -1  -3   1   88.59    3.30
  -1  -3   1   86.59    4.10
  -1   3   1   85.59    2.80
   0  -3   1  107.49    3.90
   0  -3   1  111.59    4.80
   0   3   1  109.39    3.50
   1  -3   1  684.93   24.30
   2  -3   1  292.97   10.50
   2   3   1  282.27    9.60
   2   3   1  279.67    9.60
   3  -3   1  359.66   13.30
   3   3   1  348.97   12.30
   3   3   1  367.66   12.10
   4  -3   1    3.40    1.20
   4   3   1    3.90    0.90
   4   3   1    4.00    0.80
   4   3   1    2.70    0.50
   5   3   1   21.30    1.90
   5   3   1   21.50    1.30
   6  -3   1  390.66   12.70
   6   3   1  421.56   13.10
   6   3   1  402.56   14.40
   6   3   1  391.76   12.80
   7  -3   1   76.69    2.50
   7  -3   1   70.19    2.90
   7   3   1   73.39    2.90
   7   3   1   74.99    2.60
   8   3   1   19.50    0.80
  -8  -4   1   39.00    1.30
   8   4  -1   39.40    1.40
  -7  -4   1  121.89    4.00
   7   4  -1  123.19    4.20
  -6  -4   1    6.00    0.50
  -4  -4   1   72.39    4.10
   4   4  -1   78.99    4.30
   4   4  -1   73.49    2.90
   3  -4  -1  573.44   20.90
  -3  -4   1  560.74   19.40
  -3   4   1  575.34   17.90
   3   4  -1  569.04   19.60
   3   4  -1  600.74   18.60
  -2  -4   1  103.69    5.40
  -2  -4   1   98.39    4.20
   2   4  -1  108.09    4.50
  -2   4   1  103.79    3.40
  -1  -4   1  509.75   18.60
  -1  -4   1  511.85   18.20
  -1   4   1  548.65   16.30
   0  -4   1 1241.28   55.09
   0  -4   1 1126.59   38.90
   0   4   1 1223.98   37.20
   1  -4   1  161.08    6.70
   2  -4   1  282.47   10.80
   2   4   1  288.37    9.80
   3  -4   1  399.66   15.10
   3   4   1  410.76   13.90
   3   4   1  373.26   13.00
   3   4   1  437.06   13.60
   4  -4   1    2.00    1.00
   4   4   1    2.00    0.50
   4   4   1    2.60    0.80
   4   4   1    2.30    0.80
  -5  -4  -1   36.60    1.60
   5   4   1   38.40    2.50
   5   4   1   42.40    1.90
   5   4   1   38.10    1.80
  -6  -4  -1   96.69    3.10
   6   4   1   93.49    3.40
   6   4   1   90.09    4.90
   6   4   1  101.19    3.60
   7   4   1   48.60    2.10
   7   4   1   50.79    1.90
   8   4   1    6.90    0.40
  -7  -5   1   20.50    0.90
   7   5  -1   20.00    1.00
  -6  -5   1   50.49    1.80
  -6  -5   1   50.59    1.90
  -5  -5   1  106.99    3.50
   4   5  -1    7.90    1.40
   4   5  -1    8.20    0.90
  -3   5   1   98.39    3.30
   3   5  -1   97.19    3.60
  -2   5   1  183.88    5.90
  -1  -5   1 1091.29   38.20
  -1   5   1 1227.78   36.10
   0  -5   1  578.14   20.30
   0   5   1  596.24   18.30
   1  -5   1   91.39    4.70
   2  -5   1   62.99    3.90
   3  -5   1   57.19    4.00
   3   5   1   59.09    2.30
   4   5   1  284.97    9.40
  -5  -5  -1    8.50    0.50
   5   5   1   10.00    0.90
   5   5   1    9.60    1.10
  -6  -5  -1   38.40    1.40
   6   5   1   37.20    1.80
   6   5   1   37.60    1.60
   7   5   1    7.80    0.60
   7   5   1    7.20    0.70
  -7  -6   1   93.09    3.10
   7   6  -1   92.99    3.20
  -6  -6   1   86.49    2.90
  -6  -6   1   85.89    3.00
  -5  -6   1  346.07   11.40
  -5  -6   1  370.96   11.30
   4   6  -1  283.67    9.50
   3   6  -1   28.50    1.50
  -3   6   1   29.10    1.20
   2   6  -1   71.19    2.80
  -2   6   1   73.79    2.50
  -1   6   1  111.09    3.70
   0  -6   1 1014.10   34.00
   0   6   1 1012.20   31.50
   1  -6   1  176.48    7.90
   2  -6   1   75.39    4.70
   2   6   1   77.39    2.80
   3  -6   1  543.75   20.90
   3   6   1  578.54   17.90
   4   6   1   48.30    2.20
  -5  -6  -1   89.39    3.10
   5   6   1   95.09    3.70
  -6  -6  -1   15.50    0.70
   6   6   1   17.20    0.90
   7   6   1   27.50    1.10
  -7  -7   1   65.09    2.10
   7   7  -1   60.99    2.20
  -6  -7   1   38.90    1.40
  -6  -7   1   37.20    1.40
  -5  -7   1    9.90    0.60
   4  -7  -1  258.47    8.30
  -4  -7   1  258.27    8.40
   4   7  -1  269.37    9.00
  -4   7   1  272.87    8.90
   3   7  -1   22.20    1.40
  -3   7   1   21.50    1.00
  -2  -7   1   29.00    1.20
   2   7  -1   31.00    1.60
  -2   7   1   31.90    1.30
   1   7  -1  207.98    7.00
  -1   7   1  209.18    6.70
   0   7   1  146.69    4.90
   0   7  -1  152.18    5.30
   2  -7   1  215.18   10.10
   2   7   1  192.88    6.90
   3   7   1  662.93   21.10
  -4  -7  -1  262.57    8.50
   4   7   1  272.27    9.00
  -5  -7  -1   75.89    2.60
   5   7   1   80.49    3.20
  -6  -7  -1   28.80    1.10
   6   7   1   28.60    1.20
   7   7   1   50.29    1.70
  -6  -8   1   28.10    1.10
  -6  -8   1   26.40    1.00
  -5  -8   1   34.30    1.30
  -4  -8   1  219.48    6.90
   4  -8  -1  210.48    6.80
   4   8  -1  220.58    7.60
   3  -8  -1  359.56   10.90
  -3  -8   1  327.07   11.00
  -3  -8   1  357.66   10.90
  -3   8   1  333.97   11.10
   3   8  -1  357.56   11.60
  -2  -8   1  201.98    6.60
  -2   8   1  212.48    6.80
   2   8  -1  208.08    7.10
  -1   8   1  252.87    8.30
   1   8  -1  263.17    8.70
   0   8   1   11.90    0.70
   1   8   1   61.29    2.60
   2   8   1  806.92   25.60
  -3  -8  -1  748.73   24.20
   3   8   1  804.22   24.80
  -3   8  -1  786.32   24.40
  -4  -8  -1  194.98    6.40
   4   8   1  202.98    7.00
  -5  -8  -1  105.89    3.50
   5   8   1  104.49    4.00
  -6  -8  -1   55.49    1.90
  -6  -9   1   12.60    0.50
  -6  -9   1   13.00    0.60
   6   9  -1   12.20    0.60
  -5  -9   1    1.70    0.30
  -5  -9   1    1.90    0.30
  -4  -9   1   45.80    1.60
   3  -9  -1  264.67    8.00
  -3  -9   1  246.38    8.20
  -3  -9   1  256.17    8.10
  -3  -9   1  251.37    8.10
   3   9  -1  256.97    8.80
  -2  -9   1   65.19    2.30
  -2  -9   1   67.49    2.40
  -2  -9   1   67.49    2.30
   2  -9  -1   69.39    2.20
   2   9  -1   67.09    2.90
  -2   9   1   65.69    3.00
  -1  -9   1   14.40    0.70
  -1  -9   1   15.10    0.80
   1  -9  -1   15.70    0.60
  -1  -9   1   15.80    0.70
  -1   9   1   14.30    0.90
   0  -9  -1   68.09    2.40
   0  -9   1   74.49    2.40
  -1  -9  -1    9.00    0.50
   1  -9   1    9.10    0.50
   1   9   1   11.00    1.00
  -1   9  -1   10.50    0.70
  -2  -9  -1  422.06   13.40
   2   9   1  434.16   14.00
  -3  -9  -1  244.08    7.90
   3   9   1  253.57    8.50
  -4  -9  -1    7.80    0.50
   4   9   1    7.10    0.90
  -5  -9  -1   11.30    0.60
  -6  -9  -1   25.20    0.90
  -5 -10   1   22.30    0.80
  -5 -10   1   23.20    0.90
  -4 -10   1   10.40    0.50
   3 -10  -1  392.26   11.80
  -3 -10   1  371.66   11.90
  -3 -10   1  376.06   11.90
  -3 -10   1  373.56   12.00
  -2 -10   1   64.49    2.20
   2 -10  -1   65.29    2.10
  -2 -10   1   63.19    2.30
  -2 -10   1   62.79    2.20
  -1 -10   1   38.30    1.40
  -1 -10   1   37.10    1.40
  -1 -10   1   38.00    1.50
   1 -10  -1   37.60    1.30
  -1  10   1   36.90    2.00
   0 -10   1   46.30    1.70
   0 -10   1   44.90    1.70
   0 -10   1   45.00    1.60
   0 -10  -1   45.70    1.60
   0  10   1   47.80    2.30
   1 -10   1   96.09    3.30
   1 -10   1  102.09    3.30
  -1 -10  -1   99.09    3.20
  -1 -10  -1   95.59    3.30
   1  10   1  102.19    3.90
  -2 -10  -1  544.45   16.90
   2  10   1  542.35   17.60
  -3 -10  -1   74.89    2.50
   3  10   1   71.39    3.00
  -4 -10  -1   29.30    1.10
   4  10   1   27.20    1.60
  -5 -10  -1   51.69    1.70
  -5 -11   1   36.20    1.30
  -4 -11   1    2.00    0.30
  -3 -11   1   95.59    3.20
   3 -11  -1   94.89    3.10
  -3 -11   1   97.99    3.10
   2 -11  -1  274.27    8.50
  -2 -11   1  274.77    8.60
  -2 -11   1  266.17    8.70
  -2 -11   1  272.27    8.60
  -1 -11   1   93.29    3.10
   1 -11  -1   96.29    3.10
  -1 -11   1   92.69    3.10
  -1 -11   1   96.99    3.20
  -1  11   1   89.49    4.00
   0 -11  -1   43.30    1.50
   0 -11   1   40.80    1.50
   0 -11  -1   40.30    1.60
   0 -11   1   42.90    1.60
   0 -11   1   42.50    1.60
   0  11   1   41.50    2.10
   1 -11   1   14.40    0.80
   1 -11   1   14.40    0.70
  -1 -11  -1   14.40    0.70
  -1 -11  -1   14.20    0.60
   1  11   1   13.90    1.20
  -2 -11  -1   98.19    3.20
  -2 -11  -1   95.29    3.20
   2 -11   1  102.29    3.30
   2  11   1   91.09    3.70
   3 -11   1   29.10    1.10
  -3 -11  -1   29.00    1.10
  -4 -11  -1   71.19    2.30
  -4 -12   1   47.10    1.60
  -3 -12   1   20.30    0.80
  -2 -12   1   26.90    1.10
  -2 -12   1   27.10    1.00
   2 -12  -1   26.80    1.00
  -2 -12   1   28.30    1.10
   1 -12  -1   68.09    2.20
  -1 -12   1   64.29    2.20
  -1 -12   1   68.09    2.30
  -1 -12   1   67.49    2.30
   1 -12  -1   67.09    2.30
   0 -12   1    8.30    0.60
   0 -12  -1    8.10    0.50
   0 -12   1    8.30    0.50
   0 -12  -1    8.00    0.40
   1 -12   1   74.09    2.50
  -1 -12  -1   73.59    2.50
   1 -12   1   75.19    2.60
  -1 -12  -1   75.09    2.50
  -2 -12  -1   34.30    1.20
   2 -12   1   33.20    1.30
  -3 -12  -1   18.10    0.70
   3 -12   1   18.50    0.80
   2 -13  -1   14.00    0.70
   1 -13  -1   35.30    1.20
   1 -13  -1   35.50    1.30
  -1 -13   1   36.30    1.30
   0 -13  -1   18.40    0.80
   0 -13  -1   19.10    0.70
   0 -13   1   18.30    0.80
   1 -13   1   81.59    2.80
  -1 -13  -1   84.89    2.70
  -2 -13  -1   30.00    1.10
  -8   0   2    1.60    0.20
  -7   0   2   54.59    1.90
  -6   0   2  316.77   10.00
  -5   0   2  417.16   15.90
   5   0  -2  419.96   16.60
   4   0  -2   27.20    2.70
  -3   0   2  454.25   15.80
   3   0  -2  456.95   16.20
   2   0  -2  273.57   10.10
  -2   0   2  289.37   10.00
   1   0  -2  736.13   38.70
  -1   0   2  830.82   26.80
   0   0   2  185.78    6.50
   1   0   2  670.73   31.60
   1   0   2  658.83   23.00
   2   0   2   11.00    1.00
   2   0   2    8.10    0.80
   3   0   2  406.46   13.90
   3   0   2  395.06   13.60
   4   0   2  227.88    8.40
   4   0   2  220.88    9.00
   5   0   2   33.70    1.70
   5   0   2   33.90    2.50
   6   0   2  275.67    9.00
   6   0   2  264.97   10.50
   6   0   2  265.07    8.60
   7   0   2   12.50    0.70
   7   0   2   12.50    1.00
   8   0   2   52.99    1.80
  -8  -1   2    4.70    0.30
  -7  -1   2    2.90    0.30
  -7   1   2    2.30    0.30
  -6  -1   2   69.49    2.40
  -6   1   2   68.79    2.40
  -5   1   2  550.74   20.00
   5   1  -2  553.34   22.60
  -4  -1   2  188.08    7.70
   4  -1  -2  154.48    8.50
   4   1  -2  188.08    8.20
  -3  -1   2  131.59    5.70
   3  -1  -2  131.89    6.10
   3   1  -2  131.99    5.90
  -3   1   2  136.09    5.70
  -2  -1   2  288.77    9.90
   2  -1  -2  265.57   10.00
   2   1  -2  266.57    9.80
  -2   1   2  286.97    9.80
  -1  -1   2 8354.76  318.17
  -1   1   2 9139.09  315.57
   1   1  -2 9999.00  319.47
   0  -1   2 1372.56   63.49
   0  -1   2 1320.67   63.59
   0   1   2 1364.66   43.80
   1  -1   2  696.63   40.00
   1  -1   2  726.33   42.50
   2  -1   2  403.06   29.30
   2  -1   2  363.06   12.60
   2   1   2  379.46   12.60
   2   1   2  373.26   12.80
   3  -1   2  211.58    8.10
   3  -1   2  197.48    7.40
   3   1   2  207.78    7.40
   3   1   2  204.18    7.60
   4  -1   2   46.70    2.60
   4  -1   2   40.30    3.00
   4   1   2   39.40    2.70
   4   1   2   40.50    2.50
   5  -1   2  808.52   25.40
   5  -1   2  822.82   27.10
   5   1   2  799.32   25.70
   5   1   2  817.02   27.50
   6  -1   2   38.10    2.80
   6  -1   2   38.00    1.50
   6  -1   2   39.10    2.00
   6   1   2   39.40    1.60
   6   1   2   40.60    2.00
   6   1   2   39.10    2.80
   7  -1   2   19.80    1.20
   7  -1   2   19.40    0.90
   7   1   2   23.40    1.30
   7   1   2   20.00    1.00
   8  -1   2   18.50    0.70
   8   1   2   18.60    0.80
  -8  -2   2    7.90    0.40
  -7  -2   2    2.20    0.30
  -7   2   2    2.30    0.30
   7   2  -2    2.30    0.40
  -6  -2   2   68.89    2.30
  -6   2   2   65.09    2.30
  -5   2   2  144.99    8.30
  -4  -2   2  468.45   17.40
   4   2  -2  508.25   17.90
  -3  -2   2   89.19    4.30
   3   2  -2   89.59    4.50
  -3   2   2   90.69    4.20
  -2  -2   2   73.39    3.40
   2   2  -2   70.39    3.40
  -2   2   2   74.09    3.30
  -1  -2   2 1666.23   73.29
  -1   2   2 1672.33   53.99
   1   2  -2 1679.43   73.69
   0  -2   2  881.71   29.80
   0  -2   2  898.81   29.60
   0   2   2  859.11   28.60
   1  -2   2 4823.32  190.28
   1  -2   2 4665.83  181.28
   2  -2   2  464.45   15.90
   2  -2   2  404.26   14.10
   2   2   2  418.46   14.30
   2   2   2  441.06   14.20
   3  -2   2   23.80    2.10
   3  -2   2   22.30    1.50
   3   2   2   24.60    1.60
   3   2   2   22.10    1.50
   4  -2   2  208.58    7.80
   4  -2   2  209.48    9.00
   4   2   2  188.28    6.80
   4   2   2  211.58    8.40
   4   2   2  219.48    8.00
   5  -2   2  631.24   21.30
   5   2   2  637.44   21.30
   5   2   2  607.64   19.90
   6  -2   2  273.57    9.10
   6  -2   2  262.97    8.70
   6  -2   2  268.17   10.40
   6   2   2  266.97   10.40
   6   2   2  279.77    9.10
   6   2   2  275.27    8.80
   7  -2   2    1.80    0.50
   7  -2   2    1.60    0.30
   7   2   2    2.40    0.50
   7   2   2    1.90    0.30
   8  -2   2    7.10    0.40
   8   2   2    6.60    0.40
  -8  -3   2   42.30    1.40
   8   3  -2   38.10    1.40
  -7  -3   2   29.60    1.10
   7   3  -2   29.60    1.30
  -6  -3   2    1.90    0.30
  -6   3   2    1.30    0.20
  -5  -3   2   86.39    3.20
  -4  -3   2    0.50    0.70
   4   3  -2    0.60    0.60
  -3  -3   2   75.79    3.90
   3   3  -2   78.19    4.10
  -2  -3   2  581.84   19.90
   2   3  -2  585.74   26.50
  -1  -3   2  625.84   21.90
  -1  -3   2  659.63   21.60
   0  -3   2  897.11   29.70
   0  -3   2  899.61   31.00
   1  -3   2 1036.50   38.00
   1   3   2  948.11   32.00
   2  -3   2 2114.39  111.09
   2   3   2 2069.79   67.09
   3  -3   2  356.86   13.60
   3   3   2  371.46   12.40
   4  -3   2  119.29    6.30
   4   3   2  112.39    4.10
   4   3   2  125.99    5.20
   5  -3   2  253.67    7.90
   5   3   2  246.58    8.30
   5   3   2  252.27    9.50
   5   3   2  232.98    8.10
   6  -3   2   53.79    2.00
   6  -3   2   50.69    1.90
   6   3   2   52.99    2.00
   6   3   2   53.19    2.30
   7  -3   2   12.70    0.60
   7   3   2   13.10    0.70
   7   3   2   13.80    1.00
  -8  -4   2   52.69    1.70
   8   4  -2   47.70    1.70
  -7  -4   2   84.99    2.80
   7   4  -2   81.39    2.90
  -6  -4   2   17.30    0.80
   5  -4  -2   20.50    0.80
  -5  -4   2   21.60    0.90
  -5  -4   2   24.70    1.00
  -4  -4   2  109.09    5.50
   4   4  -2  118.39    5.90
  -3  -4   2  560.84   19.20
   3   4  -2  560.74   19.50
  -2  -4   2  374.06   12.70
  -2  -4   2  360.36   14.20
  -1  -4   2  142.39    6.70
  -1  -4   2  145.99    5.50
   0  -4   2  329.67   12.20
   0  -4   2  315.57   10.90
   1  -4   2  423.86   15.00
   1   4   2  407.86   13.60
   2  -4   2  540.75   19.50
   2   4   2  523.15   17.30
   3  -4   2  139.19    6.80
   3   4   2  143.09    5.50
   4   4   2   70.99    2.80
   4   4   2   74.19    3.60
   4   4   2   71.59    2.80
   5  -4   2   88.79    3.00
   5   4   2   84.69    4.30
   5   4   2   92.19    3.20
   5   4   2   91.49    3.40
   6  -4   2   65.69    2.50
   6  -4   2   69.59    2.40
   6   4   2   70.89    2.50
   6   4   2   71.89    2.80
   7  -4   2   26.70    1.00
   7   4   2   25.40    1.10
   7   4   2   25.30    1.30
  -7  -5   2    6.70    0.50
   7   5  -2    6.90    0.60
  -6  -5   2  242.88    7.80
  -5  -5   2  293.07    9.60
   5  -5  -2  306.97    9.50
  -5  -5   2  306.97    9.70
  -5  -5   2  305.07    9.50
  -2  -5   2  118.19    6.50
  -2   5   2  115.29    3.90
  -1  -5   2  953.80   32.50
   0  -5   2  682.13   23.80
   1  -5   2  390.26   14.60
   2  -5   2  521.35   19.00
   3  -5   2  401.16   15.70
   4   5   2   39.00    1.80
   4   5   2   39.10    1.80
   5  -5   2   51.49    1.90
   5   5   2   55.69    2.40
   5   5   2   53.39    2.30
   6  -5   2   54.89    1.90
  -6  -5  -2   52.19    1.80
   6   5   2   52.19    2.00
   6   5   2   54.19    2.20
   7  -5   2    3.40    0.50
   7   5   2    3.10    0.40
   7   5   2    2.60    0.50
  -7  -6   2   16.10    0.70
   7   6  -2   15.40    0.80
  -6  -6   2    7.00    0.50
  -5  -6   2   76.09    2.70
   5  -6  -2   77.99    2.50
  -5  -6   2   76.79    2.60
  -5  -6   2   76.79    2.70
   4  -6  -2  171.68    5.30
  -4  -6   2  163.18    5.40
  -4  -6   2  162.68    5.40
  -3  -6   2    5.40    0.40
  -2   6   2   91.79    3.10
  -1  -6   2  274.97   11.70
   0  -6   2   74.29    4.70
   1  -6   2 1185.58   41.10
   2  -6   2  263.87   11.30
   3   6   2  298.77    9.80
   4  -6   2  323.17   10.70
   4   6   2  346.97   11.00
   4   6   2  329.17   10.90
   5   6   2  168.18    5.90
   5   6   2  175.68    6.10
  -6  -6  -2   10.90    0.50
   6   6   2   12.00    0.90
  -7  -7   2   12.10    0.50
   7   7  -2   12.30    0.60
  -6  -7   2   88.69    3.00
   5  -7  -2  343.87   10.50
  -5  -7   2  333.77   10.70
  -5  -7   2  337.07   10.50
  -5  -7   2  326.57   10.70
   4  -7  -2   81.49    2.50
  -4  -7   2   73.79    2.70
  -4  -7   2   74.59    2.60
  -3  -7   2    8.70    0.60
  -3  -7   2    8.90    0.60
  -2  -7   2   43.40    1.60
  -1  -7   2  126.29    4.10
   0  -7   2   65.59    4.70
   0  -7   2   82.39    2.50
   1  -7   2  444.46   14.70
   1  -7   2  497.85   18.20
   2   7   2  124.29    4.40
   3   7   2  273.87    9.10
   4   7   2  297.27    9.90
   5   7   2  176.88    6.20
  -6  -7  -2    4.00    0.30
  -6  -8   2    3.00    0.30
  -5  -8   2  132.19    4.40
  -5  -8   2  132.29    4.30
   4  -8  -2  117.89    3.80
  -4  -8   2  115.39    3.90
  -4  -8   2  117.29    3.80
  -3  -8   2   30.00    1.20
   3  -8  -2   32.70    1.10
  -3  -8   2   30.00    1.30
  -3  -8   2   29.60    1.20
  -2  -8   2   98.39    3.30
  -2  -8   2  100.79    3.40
  -1  -8   2  122.39    4.00
  -1  -8   2  119.39    4.10
   0  -8   2   34.80    1.30
   1  -8   2  344.57   10.80
   2   8   2  256.57    8.60
   3   8   2  556.14   17.90
   4   8   2    3.70    0.80
  -5  -8  -2   48.20    1.70
   5   8   2   48.00    2.20
   6  -8   2  101.79    3.20
  -6  -8  -2   90.49    3.10
  -6  -9   2   33.30    1.20
  -5  -9   2   15.40    0.60
  -5  -9   2   15.20    0.70
  -4  -9   2  135.89    4.30
   4  -9  -2  135.09    4.20
  -4  -9   2  127.49    4.40
  -3  -9   2   66.39    2.40
  -3  -9   2   68.19    2.30
   3  -9  -2   66.69    2.20
  -3  -9   2   63.29    2.30
  -2  -9   2  105.59    3.60
  -2  -9   2  108.29    3.60
  -2  -9   2  107.39    3.70
   2  -9  -2  114.99    3.50
   1  -9  -2   27.70    1.00
  -1  -9   2   28.20    1.20
  -1  -9   2   26.90    1.20
  -1  -9   2   28.60    1.10
   0  -9   2   84.09    2.90
   0  -9  -2   83.09    2.70
   0  -9   2   81.99    2.80
   1  -9   2  237.58    7.70
   1  -9   2  237.78    7.70
   1   9   2  246.78    8.20
   2   9   2  229.28    7.80
   3   9   2   19.30    1.30
  -4  -9  -2    2.10    0.30
   4   9   2    2.70    0.70
   5  -9   2    1.40    0.20
  -5  -9  -2    1.60    0.20
  -5 -10   2   11.80    0.60
   4 -10  -2  161.98    5.10
  -4 -10   2  159.38    5.20
  -4 -10   2  159.58    5.10
  -3 -10   2  175.48    5.70
  -3 -10   2  179.58    5.80
   3 -10  -2  182.98    5.70
  -3 -10   2  178.48    5.80
  -2 -10   2   31.90    1.20
   2 -10  -2   32.50    1.20
  -2 -10   2   33.10    1.40
  -2 -10   2   32.10    1.30
   1 -10  -2    5.30    0.40
  -1 -10   2    5.20    0.50
  -1 -10   2    5.90    0.60
   0 -10   2   90.19    3.00
   0 -10   2   91.19    3.10
   0 -10  -2   87.29    2.90
   0  10   2   88.09    3.60
   1 -10   2   13.50    0.80
  -1 -10  -2   13.00    0.60
   1 -10   2   13.90    0.70
   1  10   2   13.30    1.20
  -2 -10  -2  115.39    3.90
   2 -10   2  123.49    4.00
   2  10   2  119.29    4.40
  -3 -10  -2   40.60    1.40
   3  10   2   40.80    1.90
  -4 -10  -2   42.40    1.50
  -5 -10  -2   15.90    0.60
  -4 -11   2  139.69    4.40
  -4 -11   2  135.79    4.40
   3 -11  -2    3.20    0.30
  -3 -11   2    3.00    0.40
  -3 -11   2    3.00    0.40
   2 -11  -2   19.30    0.70
  -2 -11   2   19.10    0.90
  -2 -11   2   20.30    0.90
  -2  11   2   16.60    1.50
  -1 -11   2    4.40    0.40
  -1 -11   2    4.00    0.50
   1 -11  -2    4.20    0.30
  -1  11   2    4.50    0.80
   0 -11  -2   27.10    1.00
   0 -11   2   28.40    1.10
   0 -11   2   27.70    1.20
   0  11   2   25.90    1.60
  -1 -11  -2   13.40    0.60
   1 -11   2   13.80    0.70
   1 -11   2   13.50    0.70
   1  11   2   13.00    1.10
   2 -11   2    6.20    0.50
  -2 -11  -2    5.50    0.40
   2  11   2    4.80    0.80
  -3 -11  -2  126.29    4.10
  -4 -11  -2   76.99    2.50
  -3 -12   2    5.20    0.40
   3 -12  -2    4.90    0.30
  -2 -12   2    4.40    0.40
  -2 -12   2    4.20    0.40
   2 -12  -2    4.20    0.30
   1 -12  -2    9.60    0.50
  -1 -12   2    9.20    0.50
   1 -12  -2    8.70    0.40
  -1 -12   2    9.40    0.60
   0 -12  -2   77.59    2.60
   0 -12   2   77.89    2.60
   0 -12   2   79.89    2.70
   1 -12   2   15.00    0.70
  -1 -12  -2   15.00    0.70
  -1 -12  -2   14.80    0.60
   1 -12   2   14.00    0.70
  -2 -12  -2    4.70    0.30
   2 -12   2    4.80    0.40
  -3 -12  -2  116.89    3.70
   1 -13  -2   26.50    0.90
  -1 -13   2   27.00    1.10
   0 -13  -2   58.69    1.90
   0 -13   2   56.09    2.00
  -1 -13  -2   72.89    2.40
  -8   0   3    1.60    0.20
  -7   0   3    8.80    0.50
  -6   0   3  857.51   26.70
  -5   0   3   70.69    2.40
  -4   0   3  139.49    6.60
  -3   0   3   67.19    3.80
  -2   0   3 4180.78  176.68
  -1   0   3  666.33   22.50
   0   0   3  246.88    8.80
   1   0   3  155.78    6.10
   1   0   3  145.19    5.60
   1   0   3  165.08    5.50
   2   0   3   17.40    1.30
   3   0   3   35.30    2.10
   4   0   3  779.92   26.30
   5   0   3  464.95   14.70
   5   0   3  472.85   14.70
   5   0   3  479.25   16.50
   5   0   3  444.16   15.00
   6   0   3   86.19    3.00
   6   0   3   85.19    3.30
   7   0   3   51.29    2.10
   7   0   3   54.49    1.90
  -8  -1   3  120.29    3.80
  -7  -1   3   16.50    0.70
  -7   1   3   16.70    0.70
  -6  -1   3  127.99    4.30
  -6  -1   3  132.79    4.30
  -6   1   3  134.29    4.30
  -5  -1   3  792.22   24.90
  -5   1   3  803.72   24.90
  -4  -1   3    8.50    1.60
  -4   1   3    8.80    1.60
  -3  -1   3  314.87   11.80
  -3   1   3  314.87   11.60
  -2  -1   3 1176.08   53.99
  -2   1   3 1244.78   47.40
  -1  -1   3  259.77    9.70
  -1   1   3  286.27    9.60
   0  -1   3  146.49    5.80
   0  -1   3  149.59    6.20
   0   1   3  156.78    5.80
   1  -1   3  164.08    6.40
   1  -1   3  155.48    5.80
   1  -1   3  172.28    6.20
   1   1   3  158.38    5.90
   2  -1   3   82.59    3.50
   2  -1   3   88.39    3.80
   2   1   3   87.19    3.60
   3  -1   3  139.89    5.90
   3  -1   3  138.39    5.50
   3   1   3  141.59    5.60
   4  -1   3    6.20    1.10
   4  -1   3    6.00    0.40
   4   1   3    6.20    1.10
   4   1   3    7.50    0.90
   5  -1   3  330.07   10.20
   5  -1   3  320.07   10.20
   5  -1   3  324.77   11.80
   5  -1   3  300.87   10.50
   5   1   3  312.67   10.20
   5   1   3  321.67   10.50
   5   1   3  325.67   11.80
   5   1   3  313.07   10.20
   6  -1   3   34.60    1.40
   6  -1   3   34.10    1.70
   6  -1   3   34.30    1.40
   6   1   3   33.70    1.40
   6   1   3   35.30    1.80
   7  -1   3   18.40    0.80
   7   1   3   16.60    0.80
   7   1   3   17.30    1.10
  -8  -2   3   20.40    0.80
  -7  -2   3   14.00    0.70
  -7   2   3   13.80    0.60
  -6  -2   3   26.40    1.10
  -6  -2   3   26.80    1.10
  -6   2   3   27.50    1.10
  -5  -2   3  102.39    3.40
   5  -2  -3   97.89    3.40
  -4  -2   3  241.18    9.90
  -4   2   3  238.38    9.60
  -3  -2   3   56.89    3.40
  -3   2   3   54.99    3.20
  -2  -2   3 1388.36   47.40
  -2   2   3 1420.26   45.90
  -1  -2   3  234.68    8.80
  -1   2   3  246.28    8.50
   0  -2   3  138.69    5.50
   0  -2   3  135.39    6.10
   0   2   3  137.89    5.20
   1  -2   3  482.95   16.70
   1  -2   3  501.75   17.00
   2  -2   3  140.19    5.80
   2  -2   3  128.79    5.00
   2   2   3  135.09    5.20
   3  -2   3  134.59    5.30
   3  -2   3  138.09    6.20
   3   2   3  137.59    5.50
   4  -2   3  205.08    7.90
   4  -2   3  205.38    6.60
   4   2   3  216.28    8.10
   4   2   3  202.78    7.00
   5  -2   3  215.78    6.80
   5  -2   3  204.48    9.10
   5  -2   3  219.28    6.80
   5   2   3  201.58    7.10
   5   2   3  204.08    6.80
   5   2   3  210.38    8.40
   6  -2   3  105.39    3.60
   6  -2   3  109.69    3.70
   6   2   3  104.79    3.70
   6   2   3  110.79    4.00
   7  -2   3    8.10    0.50
   7   2   3    6.90    0.70
   7   2   3    7.10    0.50
  -8  -3   3  273.87    8.60
  -7  -3   3   16.70    0.70
  -6  -3   3    3.60    0.40
  -6  -3   3    3.10    0.40
  -6   3   3    3.50    0.40
  -5  -3   3   34.70    1.40
   5  -3  -3   34.40    1.20
  -4  -3   3  112.49    5.70
  -3  -3   3   77.39    4.20
  -2  -3   3 1475.85   49.00
  -1  -3   3   55.59    3.00
  -1  -3   3   60.39    3.90
   0  -3   3  110.29    5.50
   0  -3   3  112.99    4.80
   1  -3   3  933.31   42.50
   1  -3   3  934.91   33.40
   2  -3   3  171.98    7.30
   2   3   3  167.88    6.40
   3  -3   3    1.20    0.80
   3   3   3    1.20    0.60
   4   3   3   16.70    1.20
   4   3   3   20.60    1.80
   5  -3   3  643.34   19.80
   5  -3   3  648.84   20.00
   5   3   3  628.54   21.50
   5   3   3  607.14   19.90
   5   3   3  641.84   20.20
   6  -3   3   38.00    1.50
   6  -3   3   39.80    1.60
   6   3   3   39.30    1.90
   6   3   3   38.90    1.60
   7  -3   3   11.90    0.50
   7   3   3   10.70    0.60
   7   3   3   10.90    0.80
  -7  -4   3   15.00    0.70
   7   4  -3   13.70    0.70
  -6  -4   3  538.35   16.80
  -6  -4   3  534.35   16.80
  -5  -4   3    2.50    0.40
  -5  -4   3    2.40    0.40
   5  -4  -3    2.90    0.30
  -3  -4   3   96.99    4.90
  -2  -4   3  288.27   10.40
  -2  -4   3  275.57   12.00
  -1  -4   3   90.59    4.10
  -1  -4   3   82.99    5.10
   0  -4   3   81.29    3.80
   0  -4   3   81.19    4.70
   1  -4   3  255.37   10.40
   2  -4   3  258.07   10.60
   2   4   3  256.57    9.20
   3  -4   3   59.49    4.10
   3   4   3   62.29    3.20
   4  -4   3  100.39    3.40
   4   4   3  109.39    4.90
   4   4   3  105.19    3.90
   5  -4   3   80.99    2.80
   5  -4   3   86.59    3.00
   5   4   3   81.09    4.20
   5   4   3   83.29    3.20
   6  -4   3  220.98    7.10
   6  -4   3  236.58    7.20
   6   4   3  214.48    7.20
   6   4   3  217.38    7.40
   7  -4   3   46.10    1.50
   7  -4   3   42.20    1.80
   7   4   3   41.90    1.70
   7   4   3   42.10    1.50
  -7  -5   3    0.80    0.20
   7   5  -3    1.30    0.30
  -6  -5   3   73.39    2.60
  -6  -5   3   73.89    2.50
  -5  -5   3   20.40    0.90
   5  -5  -3   20.20    0.80
  -5  -5   3   18.60    0.90
  -4  -5   3   62.89    2.30
   4  -5  -3   67.69    2.20
  -3  -5   3   88.09    6.20
  -3  -5   3   94.59    3.10
  -2  -5   3   66.49    5.00
  -2  -5   3   75.79    4.90
  -1  -5   3   71.59    4.70
  -1  -5   3   75.49    5.00
   0  -5   3   15.70    2.20
   1  -5   3  159.98    7.70
   2  -5   3   79.69    5.00
   3   5   3  322.77   11.30
   3   5   3  309.67   10.30
   4  -5   3   67.49    2.30
   4  -5   3   68.59    2.30
   4   5   3   65.99    2.70
   4   5   3   64.89    3.50
   5  -5   3  165.78    5.50
   5   5   3  172.28    5.90
   6  -5   3    0.90    0.20
   6  -5   3    1.00    0.30
   6   5   3    0.90    0.40
   7  -5   3    9.80    0.50
  -7  -6   3   10.40    0.50
   7   6  -3    9.60    0.60
  -6  -6   3  320.57   10.00
  -6  -6   3  314.47   10.00
  -5  -6   3   70.69    2.50
  -5  -6   3   71.29    2.50
   5  -6  -3   72.39    2.30
  -4  -6   3   83.79    3.00
  -4  -6   3   81.19    2.90
   4  -6  -3   91.99    2.80
  -3  -6   3   50.29    1.80
  -3  -6   3   47.30    1.80
  -2  -6   3  336.47   10.20
  -2  -6   3  307.77   14.00
  -1  -6   3   55.99    1.90
  -1  -6   3   54.49    4.40
   0  -6   3  408.46   16.10
   1  -6   3    2.30    1.30
   2   6   3   82.99    3.10
   3   6   3   73.19    2.80
   4  -6   3  115.09    3.90
   4  -6   3  118.59    3.90
   4   6   3  119.79    4.30
   5  -6   3  106.79    3.40
   5  -6   3  104.59    3.50
   5   6   3  100.39    3.80
   6  -6   3   39.60    1.40
   6  -6   3   40.40    1.50
   6   6   3   36.80    1.60
  -6  -7   3   27.20    1.10
  -6  -7   3   28.10    1.10
  -5  -7   3   77.49    2.70
  -5  -7   3   78.49    2.70
   5  -7  -3   78.09    2.50
  -4  -7   3    5.10    0.50
   4  -7  -3    5.70    0.40
  -3  -7   3  152.18    5.00
  -3  -7   3  150.88    5.00
   3  -7  -3  152.78    4.80
  -2  -7   3  240.08    7.50
  -2  -7   3  224.78    7.40
  -1  -7   3   82.69    2.80
   0  -7   3   71.59    2.50
   2   7   3  198.08    6.70
   2   7   3  202.28    6.70
   3  -7   3   59.29    2.10
   3   7   3   58.19    2.40
   4  -7   3  127.19    4.00
   4   7   3  113.09    4.30
   4   7   3  118.39    4.20
   5  -7   3   19.60    0.80
   5  -7   3   19.30    0.80
   5   7   3   19.20    1.10
   6  -7   3   36.30    1.40
  -6  -8   3    7.10    0.40
  -5  -8   3    1.10    0.30
   5  -8  -3    0.90    0.20
  -4  -8   3   37.20    1.50
   4  -8  -3   36.60    1.30
  -3  -8   3   53.39    2.00
  -3  -8   3   49.99    1.90
   3  -8  -3   50.89    1.70
  -2  -8   3   60.49    2.20
  -2  -8   3   55.39    2.10
   2  -8  -3   57.09    1.90
  -1  -8   3   84.29    3.00
  -1  -8   3   83.49    2.90
  -1  -8   3   87.89    2.90
   0  -8   3  121.49    4.10
   0  -8   3  124.49    4.10
   1  -8   3  225.78    7.20
   2  -8   3  113.89    3.90
   2   8   3  118.39    4.20
   3  -8   3   14.10    0.70
   3   8   3   14.40    1.10
   4  -8   3   75.29    2.50
   4  -8   3   76.99    2.50
   4   8   3   67.69    2.90
   5  -8   3    3.50    0.30
  -5  -9   3    0.40    0.20
  -5  -9   3    0.30    0.20
   4  -9  -3   65.99    2.20
  -4  -9   3   64.29    2.30
  -4  -9   3   67.09    2.30
   3  -9  -3  325.17    9.90
  -3  -9   3  309.97   10.10
  -3  -9   3  315.57   10.00
  -2  -9   3   83.19    2.90
  -2  -9   3   84.49    2.90
   2  -9  -3   82.89    2.70
  -1  -9   3   22.90    1.00
   1  -9  -3   20.40    0.80
  -1  -9   3   20.10    1.00
  -1  -9   3   20.80    1.00
   0  -9   3   63.29    2.30
   0  -9   3   62.29    2.20
   0  -9   3   63.39    2.20
   1  -9   3  306.47    9.90
   1  -9   3  313.27    9.80
   2  -9   3  472.45   14.70
   2   9   3  466.35   15.20
   3   9   3  184.18    6.30
   4  -9   3   20.90    0.80
   5  -9   3    1.10    0.20
  -5 -10   3   52.29    1.80
  -4 -10   3   46.80    1.70
  -4 -10   3   43.50    1.60
   4 -10  -3   46.40    1.50
  -3 -10   3   96.69    3.30
  -3 -10   3  100.09    3.30
   3 -10  -3   98.39    3.20
  -2 -10   3   10.70    0.70
  -2 -10   3   10.50    0.60
   2 -10  -3   10.30    0.50
  -1 -10   3   16.10    0.90
  -1 -10   3   16.30    0.80
   1 -10  -3   16.10    0.70
   0 -10   3   39.80    1.50
   0 -10  -3   38.70    1.40
   0 -10   3   43.20    1.50
   0 -10   3   40.50    1.60
   1 -10   3  141.39    4.60
   1  10   3  136.59    5.00
   2  10   3   15.10    1.10
   3 -10   3   23.30    0.90
   4 -10   3   37.90    1.30
   4 -11  -3   36.70    1.20
  -4 -11   3   35.30    1.30
  -4 -11   3   37.60    1.50
  -3 -11   3    3.50    0.40
   3 -11  -3    4.30    0.30
  -3 -11   3    4.10    0.40
  -2 -11   3   21.50    1.00
   2 -11  -3   20.30    0.80
  -2 -11   3   21.20    0.90
  -1 -11   3    6.50    0.50
   1 -11  -3    7.10    0.40
  -1 -11   3    6.80    0.50
  -1  11   3    5.60    0.80
   0 -11   3   42.90    1.50
   0 -11   3   41.60    1.60
   0 -11  -3   41.50    1.40
   0  11   3   39.40    1.90
  -1 -11  -3   27.20    1.00
   1 -11   3   26.70    1.10
   2 -11   3   86.59    2.80
   3 -11   3   64.29    2.10
   3 -12  -3   53.39    1.80
  -2 -12   3   71.39    2.40
   2 -12  -3   71.49    2.30
  -1 -12   3    2.30    0.40
   1 -12  -3    2.50    0.20
   0 -12   3    0.90    0.30
   0 -12  -3    0.90    0.20
  -1 -12  -3   13.10    0.50
   1 -12   3   11.90    0.60
  -2 -12  -3   14.80    0.60
   2 -12   3   15.60    0.60
  -7   0   4    8.40    0.50
  -6   0   4   63.49    2.20
  -3   0   4  229.38    9.40
  -2   0   4  227.08    8.90
  -1   0   4  223.68    8.70
   0   0   4  204.88    7.90
   0   0   4  199.28    8.40
   2   0   4   83.79    3.80
   3   0   4  343.27   10.90
   3   0   4  354.66   12.40
   4   0   4  451.65   15.70
   4   0   4  523.05   15.60
   4   0   4  491.15   17.00
   4   0   4  506.95   15.30
   4   0   4  478.35   15.50
   5   0   4    3.00    0.40
   5   0   4    2.40    0.50
   5   0   4    2.50    1.10
   5   0   4    3.50    0.40
   6   0   4   17.80    0.80
   7   0   4   22.20    0.90
  -7  -1   4   14.60    0.60
  -7   1   4   13.70    0.60
  -6  -1   4  180.08    6.00
  -6  -1   4  188.98    6.00
  -6   1   4  187.68    6.00
   5  -1  -4  119.69    3.80
  -5  -1   4  115.19    3.90
  -5  -1   4  122.09    4.00
  -5   1   4  119.09    3.90
  -3  -1   4  118.29    5.80
  -3   1   4  107.39    5.40
  -2  -1   4  224.28    9.10
  -2   1   4  241.18    9.10
  -1  -1   4  566.34   20.20
  -1   1   4  617.34   20.00
   0  -1   4  809.92   27.90
   0  -1   4  816.02   28.10
   0   1   4  903.61   27.80
   1  -1   4  170.98    7.30
   2   1   4  143.79    5.80
   3  -1   4   21.40    0.90
   3  -1   4   24.00    1.80
   3  -1   4   22.40    0.80
   3   1   4   21.40    0.90
   3   1   4   22.80    1.80
   4  -1   4  842.92   25.70
   4  -1   4  816.32   25.50
   4  -1   4  813.22   25.60
   4  -1   4  814.82   27.20
   4   1   4  777.12   25.90
   4   1   4  818.72   25.60
   4   1   4  845.82   25.50
   4   1   4  831.42   27.30
   5  -1   4  156.38    5.10
   5  -1   4  156.48    7.20
   5  -1   4  150.78    5.00
   5   1   4  151.88    5.00
   5   1   4  153.68    6.80
   5   1   4  149.19    5.40
   6  -1   4   75.29    2.50
   6   1   4   72.19    2.50
   6   1   4   71.59    2.80
   7  -1   4   11.70    0.60
   7   1   4   15.20    0.60
  -7  -2   4    3.40    0.30
  -6  -2   4   27.50    1.10
  -6  -2   4   27.60    1.10
   6  -2  -4   24.20    1.00
  -6   2   4   27.30    1.10
   5  -2  -4  115.49    3.60
  -5  -2   4  109.39    3.70
  -5  -2   4  115.19    3.80
  -5   2   4  113.39    3.70
   5   2  -4  109.69    3.60
  -4  -2   4   86.29    3.00
  -3  -2   4  833.02   28.30
  -2  -2   4   73.59    4.10
  -2   2   4   75.29    4.00
  -1  -2   4  923.31   30.10
  -1  -2   4  846.62   30.80
  -1   2   4  946.11   29.60
   0  -2   4  337.67   12.30
   0  -2   4  325.67   12.70
   0   2   4  343.27   12.00
   1  -2   4  341.17   12.70
   1  -2   4  341.67   12.50
   2  -2   4  188.78    8.20
   3  -2   4    4.70    0.40
   3  -2   4    4.40    0.30
   3   2   4    4.90    1.00
   3   2   4    4.30    0.30
   3   2   4    4.10    0.70
   4  -2   4  175.98    5.90
   4  -2   4  177.58    5.80
   4  -2   4  175.88    5.70
   4   2   4  177.18    6.10
   4   2   4  182.78    7.30
   5  -2   4    3.90    0.40
   5  -2   4    3.50    0.50
   5  -2   4    4.70    0.40
   5   2   4    3.70    0.70
   6  -2   4   25.10    1.10
   6  -2   4   25.70    1.00
   6   2   4   25.20    1.10
   6   2   4   26.40    1.40
   7  -2   4  222.48    6.60
   7   2   4  198.28    6.70
  -7  -3   4   26.00    1.00
  -6  -3   4   14.60    0.80
   6  -3  -4   17.50    0.60
  -6  -3   4   14.90    0.70
  -5  -3   4   15.10    0.80
   5  -3  -4   15.60    0.60
  -5  -3   4   15.70    0.80
  -5   3   4   15.90    0.70
  -4  -3   4  334.77   10.60
  -3  -3   4  274.97   11.00
  -2  -3   4  308.77   11.40
  -2  -3   4  284.67   12.60
  -1  -3   4  106.69    5.00
  -1  -3   4   99.69    5.80
   0  -3   4  749.42   25.20
   0  -3   4  744.73   26.00
   1  -3   4  101.09    5.30
   2  -3   4   77.49    4.40
   3  -3   4   25.60    1.00
   3  -3   4   24.80    1.10
   3  -3   4   25.50    1.00
   3   3   4   26.80    2.10
   3   3   4   25.00    1.40
   4  -3   4  213.48    6.80
   4  -3   4  207.68    6.90
   4  -3   4  218.88    6.70
   4  -3   4  208.08    6.70
   4   3   4  214.08    8.40
   4   3   4  207.38    7.20
   5  -3   4   33.80    1.30
   5  -3   4   34.30    1.40
   5  -3   4   35.70    1.50
   5   3   4   35.20    1.70
   6  -3   4   27.80    1.10
   6  -3   4   29.50    1.20
   6   3   4   28.40    1.40
  -7  -4   4   87.79    2.90
  -6  -4   4   15.10    0.70
  -6  -4   4   15.80    0.80
   6  -4  -4   14.80    0.60
   5  -4  -4   59.29    2.00
  -5  -4   4   61.39    2.10
  -5  -4   4   60.99    2.20
   4  -4  -4  160.78    5.10
  -4  -4   4  156.58    5.20
   4   4  -4  161.98    5.10
  -2  -4   4   87.39    3.20
  -2  -4   4   74.69    5.50
  -2  -4   4   82.79    4.40
  -1  -4   4  148.09    7.90
  -1  -4   4  160.48    6.70
   0  -4   4    4.20    1.10
   1  -4   4  419.96   16.00
   2  -4   4  328.47   10.60
   2   4   4  350.46   11.00
   3  -4   4  117.39    4.10
   3  -4   4  123.39    3.90
   3   4   4  123.29    4.40
   4  -4   4  164.38    5.20
   4  -4   4  162.78    5.30
   4  -4   4  163.78    5.20
   4  -4   4  151.78    5.40
   4   4   4  163.98    5.60
   5  -4   4   27.50    1.10
   5  -4   4   28.30    1.10
   5  -4   4   28.30    1.30
   5   4   4   28.20    1.50
   6  -4   4   37.20    1.40
   6  -4   4   38.50    1.50
   6   4   4   35.60    1.60
  -7  -5   4   48.80    1.60
  -6  -5   4  133.29    4.20
  -6  -5   4  129.19    4.20
   6  -5  -4  120.89    4.00
  -5  -5   4  169.78    5.70
   5  -5  -4  180.08    5.60
  -5  -5   4  181.78    5.80
   4  -5  -4   25.40    0.90
  -4  -5   4   25.80    1.10
  -3  -5   4    3.90    0.50
  -2  -5   4  120.09    5.90
  -2  -5   4  127.79    4.10
  -1  -5   4    8.80    1.40
  -1  -5   4    7.30    0.80
  -1  -5   4    7.40    2.00
  -1  -5   4    8.40    0.50
   0  -5   4  371.06   13.00
   0  -5   4  393.06   12.50
   0  -5   4  403.56   14.50
   0  -5   4  427.66   16.20
   1  -5   4   26.60    1.40
   1  -5   4   25.00    1.00
   1   5   4   28.50    1.40
   2  -5   4   30.30    1.60
   2  -5   4   30.80    1.20
   2   5   4   31.90    1.50
   3  -5   4    3.80    0.40
   3   5   4    4.90    0.80
   4  -5   4  267.27    8.30
   4  -5   4  259.37    8.60
   4  -5   4  271.97    8.40
   4  -5   4  255.57    8.40
   4   5   4  263.57    8.70
   5  -5   4   56.89    2.10
   5  -5   4   54.69    2.00
   5  -5   4   56.09    1.90
   5   5   4   53.19    2.20
   6  -5   4   41.20    1.50
   6  -5   4   39.10    1.40
   6   5   4   36.70    1.60
  -6  -6   4   37.80    1.30
   6  -6  -4   35.80    1.20
  -6  -6   4   36.30    1.40
   5  -6  -4   21.30    0.80
  -5  -6   4   20.50    1.00
  -5  -6   4   21.40    0.90
   4  -6  -4   31.50    1.10
  -4  -6   4   29.60    1.30
   3  -6  -4   59.89    1.90
  -3  -6   4   57.89    2.10
   3   6  -4   55.59    2.00
  -2  -6   4  196.88    6.30
  -2  -6   4  193.48    6.30
  -1  -6   4  256.07    8.50
  -1  -6   4  259.37    8.20
   0  -6   4  271.67    8.60
   1  -6   4   68.79    2.30
   2  -6   4   65.79    2.30
   2  -6   4   63.09    2.30
   2  -6   4   65.29    2.20
   2   6   4   69.79    2.60
   3  -6   4  147.29    4.80
   3  -6   4  139.49    4.80
   3   6   4  156.48    5.20
   4  -6   4  162.18    5.20
   4  -6   4  164.58    5.20
   4  -6   4  153.78    5.40
   4   6   4  162.58    5.50
   5  -6   4   23.90    1.10
   5  -6   4   23.80    0.90
   5  -6   4   24.00    1.00
   5  -6   4   24.70    0.90
   5   6   4   23.20    1.20
   6  -6   4    6.00    0.30
   6  -6   4    6.00    0.40
  -6  -7   4   28.00    1.00
  -6  -7   4   28.50    1.10
   5  -7  -4   26.50    0.90
  -5  -7   4   26.00    1.10
  -5  -7   4   27.20    1.10
   4  -7  -4   32.70    1.20
  -4  -7   4   32.60    1.40
   3  -7  -4  183.38    5.90
  -3  -7   4  191.98    6.20
  -2  -7   4  579.64   17.80
  -2  -7   4  570.94   17.70
  -2  -7   4  546.65   17.80
  -1  -7   4   19.70    0.90
  -1  -7   4   17.80    0.90
  -1  -7   4   18.60    0.90
   0  -7   4  460.95   15.10
   0  -7   4  488.25   15.10
   0   7   4  492.35   15.40
   1  -7   4    6.10    0.50
   1  -7   4    6.50    0.40
   1   7   4    7.30    0.60
   2  -7   4  418.96   13.20
   2  -7   4  432.96   13.30
   2   7   4  413.46   13.40
   3  -7   4    9.20    0.50
   3  -7   4    9.00    0.60
   3   7   4    9.20    0.80
   4  -7   4   11.70    0.60
   4  -7   4   10.80    0.70
   4  -7   4   10.60    0.60
   4   7   4   10.60    0.80
   5  -7   4    8.10    0.40
   5  -7   4    8.10    0.50
   5  -7   4    8.30    0.60
   5  -7   4    8.40    0.40
   5   7   4    9.70    0.70
  -6  -8   4   22.30    0.90
   5  -8  -4    3.40    0.20
  -5  -8   4    3.10    0.30
  -5  -8   4    3.80    0.40
   4  -8  -4  104.39    3.50
  -4  -8   4  111.79    3.70
   3  -8  -4   60.19    2.00
  -3  -8   4   60.29    2.20
  -2  -8   4  206.98    6.80
   2  -8  -4  213.58    6.60
  -2  -8   4  205.98    6.70
  -1  -8   4   67.89    2.50
  -1  -8   4   70.39    2.40
  -1  -8   4   69.89    2.40
   0  -8   4  264.67    8.60
   0  -8   4  277.77    8.70
   1  -8   4  372.76   11.90
   1  -8   4  384.76   12.00
   1   8   4  380.16   12.30
   2  -8   4  181.98    5.90
   2  -8   4  184.48    5.90
   3  -8   4   45.10    1.60
   3  -8   4   42.30    1.60
   4  -8   4   20.30    0.80
   4  -8   4   19.80    0.90
   4  -8   4   19.70    0.80
   5  -8   4   45.50    1.50
   5  -8   4   44.90    1.60
   5  -9  -4   21.40    0.80
  -5  -9   4   22.30    0.90
  -4  -9   4  107.79    3.60
   4  -9  -4  108.79    3.50
   3  -9  -4  150.58    4.90
  -3  -9   4  159.08    5.10
   2  -9  -4   42.30    1.40
  -2  -9   4   45.00    1.70
  -2  -9   4   42.60    1.60
  -2  -9   4   39.50    1.60
  -1  -9   4    7.60    0.60
  -1  -9   4    9.30    0.60
  -1  -9   4    7.80    0.60
   0  -9   4   87.49    3.10
   0  -9   4   94.19    3.10
   1  -9   4  190.68    6.20
   1  -9   4  197.88    6.30
   2  -9   4   92.99    3.10
   2  -9   4   88.59    3.00
   2  -9   4   88.39    3.00
   3  -9   4   30.00    1.20
   3  -9   4   32.50    1.20
   4  -9   4    3.60    0.30
   4  -9   4    3.70    0.40
   4  -9   4    3.50    0.30
   4  -9   4    3.60    0.40
   4 -10  -4   31.00    1.10
  -4 -10   4   31.50    1.20
  -3 -10   4   79.99    2.70
   3 -10  -4   76.69    2.50
   2 -10  -4   13.90    0.60
  -2 -10   4   13.10    0.80
  -2 -10   4   14.70    0.70
  -2 -10   4   14.50    0.70
  -1 -10   4   47.00    1.70
   1 -10  -4   44.60    1.50
  -1 -10   4   45.90    1.70
   0 -10   4    9.60    0.60
   0 -10   4   10.00    0.60
   1 -10   4  227.88    7.30
   1  10   4  228.38    8.40
   2 -10   4    6.00    0.40
   2 -10   4    5.50    0.40
   3 -10   4  124.89    4.00
   3 -11  -4   37.50    1.30
  -3 -11   4   37.60    1.30
  -2 -11   4   51.89    1.80
   2 -11  -4   51.89    1.70
  -1 -11   4   52.79    1.80
  -1 -11   4   49.80    1.80
   1 -11  -4   51.19    1.70
  -1 -11   4   52.79    1.80
   0 -11   4   10.10    0.50
   0 -11  -4    9.90    0.50
   0 -11   4    8.40    0.60
   1 -11   4   58.99    2.00
   2 -11   4   30.90    1.10
   1 -12  -4   55.79    1.90
   0 -12   4   65.99    2.20
   6   0  -5  221.68    7.30
  -6   0   5  242.98    7.40
  -5   0   5   15.60    0.80
   5   0  -5   16.20    0.70
   4   0  -5    0.30    0.20
  -4   0   5   -0.10    0.20
  -3   0   5   16.60    0.90
  -2   0   5   69.59    4.20
  -2   0   5   71.99    2.70
  -1   0   5   18.20    2.00
   0   0   5    4.60    1.40
   1   0   5    3.90    0.30
   1   0   5    4.40    0.30
   2   0   5   19.90    0.80
   2   0   5   20.50    0.80
   3   0   5  282.07    8.90
   4   0   5  121.99    4.00
   5   0   5    2.80    0.40
   6   0   5   36.20    1.30
  -7  -1   5  118.69    3.80
  -6  -1   5   12.00    0.60
   6  -1  -5   10.00    0.50
  -6   1   5   10.50    0.50
  -5  -1   5    0.80    0.30
   5   1  -5    1.00    0.20
  -4  -1   5    4.80    0.40
  -4  -1   5    4.80    0.40
   4  -1  -5    5.30    0.30
   4   1  -5    5.90    0.40
  -4   1   5    4.40    0.40
  -3  -1   5  361.76   11.30
  -3   1   5  353.66   11.30
  -2  -1   5   40.70    1.80
  -2  -1   5   38.00    3.10
  -2   1   5   35.50    2.90
  -1  -1   5   96.69    5.80
  -1  -1   5  116.19    4.10
  -1  -1   5  110.89    5.60
  -1   1   5  119.49    5.50
   0  -1   5  436.16   14.30
   0  -1   5  438.56   16.30
   0   1   5  456.55   16.10
   1  -1   5   64.79    2.20
   1  -1   5   64.89    2.20
   1   1   5   66.79    2.20
   2  -1   5    1.00    0.30
   2  -1   5    1.50    0.20
   2  -1   5    1.40    0.20
   3  -1   5  535.25   16.90
   3  -1   5  517.95   16.70
   3  -1   5  557.64   16.80
   3   1   5  563.14   16.70
   3   1   5  508.95   17.10
   4  -1   5  230.08    7.50
   4  -1   5  246.88    7.50
   4  -1   5  240.78    7.60
   4   1   5  223.78    7.80
   5  -1   5   57.59    1.90
   5  -1   5   56.79    2.00
   5   1   5   58.09    2.30
   6  -1   5   34.50    1.30
  -7  -2   5   22.00    0.80
  -6  -2   5   29.40    1.20
  -6  -2   5   31.30    1.20
   6  -2  -5   27.90    1.00
  -5  -2   5  116.39    3.80
   5  -2  -5  117.19    3.70
   5   2  -5  108.99    3.70
   4  -2  -5   52.29    1.70
  -4  -2   5   48.10    1.90
  -4  -2   5   49.20    1.80
   4   2  -5   55.39    1.80
  -3  -2   5  470.25   14.80
  -2  -2   5   20.50    1.20
  -1  -2   5  120.09    6.00
  -1  -2   5  116.49    6.60
  -1  -2   5  134.99    4.50
   0  -2   5  690.13   27.20
   0  -2   5  623.84   23.60
   0  -2   5  636.54   21.60
   0  -2   5  775.12   21.40
   1  -2   5   54.79    1.90
   1  -2   5   52.69    2.30
   1  -2   5   55.19    1.90
   1   2   5   58.49    2.40
   2  -2   5  124.39    4.30
   2  -2   5  132.19    4.20
   2  -2   5  131.89    4.20
   2   2   5  127.99    4.50
   3  -2   5   31.30    1.20
   3  -2   5   31.40    1.20
   3  -2   5   31.20    1.20
   3  -2   5   31.40    1.30
   3   2   5   30.80    1.60
   4  -2   5   50.79    1.80
   4  -2   5   57.79    1.90
   4  -2   5   48.10    1.80
   4  -2   5   51.39    2.00
   4   2   5   50.59    2.20
   5  -2   5   79.79    2.80
   5  -2   5   79.89    2.70
   5  -2   5   78.09    2.60
   5   2   5   77.89    3.00
   6  -2   5   73.09    2.40
  -7  -3   5   90.99    2.90
  -6  -3   5   13.20    0.60
   6  -3  -5   12.50    0.50
  -5  -3   5   63.49    2.20
   5  -3  -5   62.89    2.10
   5   3  -5   61.99    2.10
   4  -3  -5   15.10    0.60
  -4  -3   5   13.70    0.80
   4   3  -5   15.10    0.70
   3  -3  -5  195.38    5.90
  -3  -3   5  169.38    6.00
   3   3  -5  192.18    5.90
  -2  -3   5    7.10    0.80
  -1  -3   5  150.98    5.30
   0  -3   5  175.48    6.00
   0  -3   5  171.88    5.50
   1  -3   5   10.00    0.50
   1  -3   5   12.80    1.10
   1  -3   5   10.20    0.50
   1   3   5   10.40    0.80
   2  -3   5   26.40    1.20
   2  -3   5   26.80    1.10
   2  -3   5   26.10    1.10
   2  -3   5   28.70    1.10
   2   3   5   29.70    1.40
   3  -3   5    3.00    0.40
   3   3   5    3.50    0.70
   4  -3   5   28.10    1.30
   4  -3   5   26.20    1.00
   4  -3   5   28.90    1.10
   4  -3   5   26.60    1.10
   4   3   5   28.10    1.50
   5  -3   5   46.20    1.60
   5  -3   5   44.30    1.60
   5  -3   5   46.20    1.80
   5   3   5   43.80    1.90
   6  -3   5  182.58    5.80
  -6  -4   5   26.40    1.10
   6  -4  -5   27.00    0.90
  -5  -4   5   21.40    1.00
   5  -4  -5   20.70    0.80
  -4  -4   5  269.87    8.90
   4  -4  -5  287.97    8.70
   4   4  -5  273.87    8.70
   3  -4  -5  531.65   15.40
  -3  -4   5  468.15   15.60
   3   4  -5  485.25   15.40
  -2  -4   5   95.49    3.60
  -1  -4   5   67.59    2.70
   0  -4   5  551.64   18.00
   0  -4   5  575.24   17.50
   1  -4   5   61.09    2.10
   1  -4   5   65.39    2.70
   1  -4   5   63.89    2.10
   1  -4   5   59.89    2.30
   2  -4   5   19.50    1.30
   2  -4   5   19.10    0.80
   2  -4   5   19.60    0.80
   2  -4   5   18.40    0.90
   2  -4   5   18.60    0.90
   2   4   5   20.10    1.20
   3  -4   5   10.00    0.50
   3  -4   5    8.40    0.60
   3  -4   5    7.80    0.60
   3  -4   5    8.10    0.50
   3   4   5   10.00    0.90
   4  -4   5  103.99    3.70
   4  -4   5  104.49    3.50
   4  -4   5  106.09    3.60
   4  -4   5  108.29    3.50
   4   4   5  108.29    3.90
   5  -4   5   18.50    0.90
   5  -4   5   18.50    0.80
   5  -4   5   18.20    0.80
   5   4   5   22.80    1.10
   6  -4   5  140.39    4.50
   6  -5  -5    1.00    0.10
  -6  -5   5    1.80    0.30
   5  -5  -5   94.49    3.10
  -5  -5   5  100.19    3.30
  -4  -5   5   26.10    1.10
   4  -5  -5   26.70    0.90
   4   5  -5   24.20    1.00
  -3  -5   5  135.29    4.50
   3  -5  -5  138.49    4.30
   3   5  -5  134.99    4.40
  -2  -5   5   11.60    0.60
  -2  -5   5   12.10    0.70
  -2   5   5   11.70    0.60
  -1  -5   5  440.76   13.50
  -1  -5   5  394.66   13.60
  -1  -5   5  419.06   13.90
  -1   5   5  465.85   13.80
   0  -5   5  204.88    6.10
   0  -5   5  193.08    6.00
   0  -5   5  173.48    6.30
   0  -5   5  169.38    5.90
   0   5   5  186.88    6.00
   1  -5   5   15.60    0.80
   1  -5   5   15.10    0.70
   1  -5   5   15.50    0.70
   1  -5   5   16.20    1.20
   1  -5   5   16.30    0.80
   2  -5   5   25.90    1.50
   2  -5   5   25.50    1.10
   2  -5   5   24.60    1.00
   2  -5   5   25.70    1.10
   2  -5   5   27.50    1.10
   2   5   5   27.70    1.40
   3  -5   5   71.89    2.70
   3  -5   5   73.69    2.60
   3  -5   5   75.59    2.50
   3  -5   5   71.89    3.00
   3  -5   5   76.49    2.50
   3   5   5   78.09    2.90
   4  -5   5  122.69    4.60
   4  -5   5  131.59    4.30
   4  -5   5  128.59    4.40
   4  -5   5  135.19    4.20
   4  -5   5  128.89    4.20
   4   5   5  134.19    4.60
   5  -5   5   37.80    1.40
   5  -5   5   35.70    1.30
   5  -5   5   36.50    1.30
   5   5   5   34.40    1.50
  -6  -6   5   59.09    1.90
   6  -6  -5   54.69    1.80
  -5  -6   5   77.69    2.60
   5  -6  -5   74.89    2.50
   4  -6  -5   14.70    0.60
  -4  -6   5   17.20    0.80
   3  -6  -5   23.30    0.80
  -3  -6   5   22.80    1.10
   3   6  -5   22.30    0.90
  -2  -6   5  127.79    4.20
  -2  -6   5  124.89    4.10
  -2  -6   5  124.39    4.20
  -1  -6   5  193.78    6.70
  -1  -6   5  205.38    6.40
  -1  -6   5  190.38    6.40
  -1   6   5  198.28    6.70
   0  -6   5   53.39    2.00
   0  -6   5   53.69    1.90
   0  -6   5   51.79    2.30
   0   6   5   54.19    2.00
   1  -6   5    4.70    0.40
   1  -6   5    4.20    0.40
   1  -6   5    3.90    0.50
   1   6   5    4.30    0.40
   2  -6   5   62.09    2.20
   2  -6   5   61.59    2.20
   2  -6   5   63.49    2.20
   2  -6   5   63.69    2.20
   3  -6   5   79.39    2.70
   3  -6   5   76.39    2.70
   3  -6   5   74.79    2.80
   3  -6   5   82.09    2.70
   3   6   5   85.79    3.00
   4  -6   5   22.50    0.90
   4  -6   5   21.40    0.90
   4  -6   5   22.70    1.00
   4  -6   5   23.50    0.90
   4   6   5   22.50    1.20
   5  -6   5    3.30    0.30
   5  -6   5    2.70    0.40
   5   6   5    2.30    0.40
   5  -7  -5   12.70    0.50
  -5  -7   5   12.40    0.60
   4  -7  -5   55.09    1.80
  -4  -7   5   56.59    2.00
   3  -7  -5   71.49    2.20
  -3  -7   5   70.19    2.40
   3   7  -5   62.29    2.30
  -2  -7   5   70.99    2.50
  -2  -7   5   70.79    2.50
  -1  -7   5  420.26   13.40
  -1  -7   5  433.16   13.40
   0  -7   5  100.39    3.50
   0  -7   5  103.49    3.40
   0   7   5  102.99    3.70
   1  -7   5   14.20    0.70
   1  -7   5   10.90    0.60
   1  -7   5   11.70    0.70
   1   7   5   11.90    0.70
   2  -7   5  160.78    5.30
   2  -7   5  166.98    5.20
   2  -7   5  159.68    5.30
   2   7   5  158.98    5.40
   3  -7   5   26.10    1.00
   3  -7   5   23.90    1.00
   3  -7   5   25.30    1.00
   4  -7   5   21.60    0.90
   4  -7   5   21.30    0.90
   4  -7   5   21.80    0.80
   4  -7   5   21.60    0.90
   5  -7   5    4.60    0.30
   5  -8  -5    5.20    0.30
  -5  -8   5    6.00    0.40
   4  -8  -5  152.08    4.80
  -4  -8   5  152.28    4.90
  -3  -8   5  163.78    5.30
   3  -8  -5  158.28    5.10
  -2  -8   5    7.30    0.60
  -2  -8   5    7.40    0.50
  -1  -8   5   31.60    1.30
  -1  -8   5   33.80    1.30
   0  -8   5  179.18    5.90
   0  -8   5  184.78    5.90
   1  -8   5  124.49    4.00
   1  -8   5  130.09    4.20
   1   8   5  121.09    4.40
   2  -8   5   25.10    1.00
   2  -8   5   27.00    1.00
   2  -8   5   24.80    1.00
   2  -8   5   24.10    1.00
   3  -8   5   21.50    0.80
   3  -8   5   21.00    0.90
   3  -8   5   21.10    0.90
   4  -8   5    2.30    0.20
   4  -9  -5   59.49    1.90
  -4  -9   5   60.19    2.00
   3  -9  -5   17.90    0.70
  -3  -9   5   17.50    0.80
   2  -9  -5    2.20    0.20
  -2  -9   5    2.20    0.30
  -2  -9   5    2.30    0.40
  -1  -9   5   10.80    0.60
   0  -9   5  156.28    5.10
   0  -9   5  154.98    5.10
   1  -9   5   59.39    2.00
   1  -9   5   56.39    2.00
   2  -9   5   15.60    0.70
   2  -9   5   14.60    0.60
   2  -9   5   15.40    0.70
   2  -9   5   16.10    0.60
   3  -9   5   13.70    0.60
  -3 -10   5   18.40    0.80
   3 -10  -5   18.20    0.70
   2 -10  -5   89.29    2.90
  -2 -10   5   89.89    3.00
  -1 -10   5   46.60    1.60
   0 -10   5    5.10    0.40
   1 -10   5  155.68    4.90
   1 -10   5  151.88    4.90
   2 -10   5    5.80    0.30
   2 -10   5    5.70    0.30
  -1 -11   5   71.99    2.50
   0 -11   5   10.90    0.50
   6   0  -6  107.69    3.40
   5   0  -6    2.10    0.20
   4   0  -6   12.70    0.60
  -4   0   6   12.70    0.60
  -3   0   6    1.70    0.30
   3   0  -6    1.50    0.20
  -2   0   6    4.40    0.40
  -2   0   6    3.60    0.70
  -1   0   6  270.77    9.40
  -1   0   6  297.67    9.30
   0   0   6   90.69    3.50
   0   0   6   89.09    3.20
   1   0   6   81.09    2.70
   1   0   6   83.09    3.30
   2   0   6  134.79    4.90
   2   0   6  134.09    4.30
   3   0   6 1644.54   50.89
   6  -1  -6    6.80    0.30
   5  -1  -6   19.90    0.80
   5   1  -6   19.70    0.80
   4  -1  -6  115.89    3.70
  -4  -1   6  115.09    3.80
  -4  -1   6  116.39    3.80
   4   1  -6  116.49    3.70
  -4   1   6  115.39    3.90
  -3  -1   6   23.50    1.00
   3  -1  -6   25.80    0.90
   3   1  -6   25.10    0.90
  -3   1   6   24.60    1.00
  -2  -1   6   62.39    2.10
  -2  -1   6   60.19    2.60
  -2   1   6   61.39    2.10
  -1  -1   6  151.28    5.30
  -1  -1   6  147.99    4.90
  -1   1   6  144.39    5.20
  -1   1   6  149.69    4.80
   0  -1   6   51.89    2.40
   0   1   6   54.79    2.00
   0   1   6   53.89    2.00
   1  -1   6   43.90    1.60
   1  -1   6   46.50    2.20
   1   1   6   43.50    2.10
   2  -1   6   48.20    2.30
   2  -1   6   45.80    1.70
   2   1   6   46.10    2.20
   3  -1   6   94.49    3.10
   4  -1   6   10.80    0.50
   5  -1   6   32.30    1.70
   6  -2  -6   23.10    0.80
  -5  -2   6   52.89    1.80
   5  -2  -6   49.10    1.70
   5   2  -6   47.50    1.70
  -4  -2   6   40.90    1.50
   4  -2  -6   43.20    1.40
  -4  -2   6   40.90    1.60
   4   2  -6   41.60    1.50
   3  -2  -6   64.99    2.10
  -3  -2   6   63.19    2.20
  -3   2   6   62.99    2.20
   3   2  -6   64.39    2.20
  -2  -2   6   39.30    1.40
  -2  -2   6   36.30    1.90
  -2   2   6   38.00    1.40
  -1  -2   6  129.69    4.30
  -1  -2   6  137.89    4.80
  -1   2   6  133.49    4.30
  -1   2   6  133.29    4.70
   0  -2   6  322.07   10.30
   0  -2   6  291.97    9.70
   0   2   6  305.57    9.80
   0   2   6  315.17    9.70
   1  -2   6   70.69    2.30
   1  -2   6   67.19    2.30
   1  -2   6   70.19    2.90
   1   2   6   66.89    2.30
   2  -2   6   18.20    1.40
   2  -2   6   18.20    0.80
   2  -2   6   18.10    0.80
   3  -2   6  126.09    4.00
   3  -2   6  122.19    4.60
   3   2   6  122.09    4.30
   4  -2   6   40.50    1.40
   4  -2   6   39.20    1.50
   4  -2   6   41.70    2.00
   4   2   6   41.30    1.70
   5  -2   6   18.20    0.70
   6  -3  -6   14.20    0.50
  -5  -3   6   20.70    0.80
  -5  -3   6   20.50    0.90
   5  -3  -6   20.20    0.80
   5   3  -6   22.00    0.80
  -4  -3   6  218.68    7.10
   4  -3  -6  229.28    7.00
  -4  -3   6  214.18    7.10
   4   3  -6  229.88    7.00
  -3  -3   6  127.99    4.40
   3  -3  -6  146.19    4.30
  -3   3   6  133.19    4.40
   3   3  -6  135.89    4.40
  -2  -3   6   83.59    3.30
  -2  -3   6   83.49    2.90
  -2   3   6   85.39    2.80
  -1  -3   6  309.97   10.40
  -1  -3   6  308.97    9.90
  -1   3   6  316.47   10.30
  -1   3   6  323.77    9.90
   0  -3   6   10.80    0.50
   0  -3   6   11.90    0.60
   0   3   6   10.60    0.50
   0   3   6    9.90    0.60
   1  -3   6  308.17    9.90
   1  -3   6  323.87   10.50
   1  -3   6  317.17    9.90
   1   3   6  308.87    9.90
   2  -3   6  156.28    5.10
   2  -3   6  161.68    5.70
   2  -3   6  157.48    5.10
   3  -3   6    4.30    0.40
   3  -3   6    3.20    0.40
   3  -3   6    3.40    0.30
   3  -3   6    4.60    0.90
   4  -3   6   32.80    1.70
   4  -3   6   33.10    1.20
   4  -3   6   31.60    1.20
   4   3   6   32.80    1.50
   5  -3   6   52.79    1.80
   6  -4  -6   10.10    0.40
  -5  -4   6   76.59    2.50
  -5  -4   6   73.09    2.50
   5  -4  -6   75.39    2.40
  -4  -4   6    0.90    0.30
  -4  -4   6    0.40    0.30
   4  -4  -6    0.50    0.20
   4   4  -6    0.80    0.20
  -3  -4   6    7.80    0.60
   3  -4  -6    8.60    0.40
   3   4  -6    8.40    0.50
  -3   4   6    8.20    0.40
  -2  -4   6  162.48    5.30
  -2   4   6  166.08    5.30
  -1  -4   6   67.19    2.40
  -1  -4   6   74.49    2.90
  -1  -4   6   66.09    2.40
  -1   4   6   69.59    2.70
  -1   4   6   70.19    2.30
   0  -4   6  173.18    6.10
   0  -4   6  175.58    5.70
   0  -4   6  178.38    5.60
   0   4   6  174.98    5.80
   0   4   6  183.18    5.70
   1  -4   6   16.30    1.30
   1  -4   6   15.20    0.80
   1  -4   6   16.10    0.70
   1  -4   6   16.00    0.70
   1  -4   6   15.80    0.80
   2  -4   6   58.49    2.00
   2  -4   6   57.59    2.00
   2  -4   6   56.09    2.10
   2  -4   6   59.29    2.60
   3  -4   6  540.75   16.70
   3  -4   6  525.85   16.70
   3  -4   6  537.55   16.70
   3  -4   6  534.85   17.20
   4  -4   6   50.49    1.80
   4  -4   6   47.70    2.10
   4  -4   6   49.70    1.70
   4  -4   6   51.49    1.70
   5  -4   6   24.30    0.90
  -5  -5   6    0.50    0.20
  -5  -5   6    0.50    0.20
   5  -5  -6    0.70    0.10
   4  -5  -6   50.19    1.60
  -4  -5   6   50.39    1.70
  -4  -5   6   46.50    1.70
   4   5  -6   44.70    1.60
  -3  -5   6   93.09    3.30
  -3  -5   6   91.39    3.10
   3  -5  -6  100.59    3.00
   3   5  -6   87.79    3.00
  -2  -5   6    8.50    0.60
  -2  -5   6   10.50    0.60
  -2   5   6    9.70    0.50
  -1  -5   6   22.10    1.00
  -1  -5   6   26.30    1.00
  -1  -5   6   24.00    1.40
  -1  -5   6   23.40    1.00
  -1   5   6   24.40    1.30
  -1   5   6   24.90    1.00
   0  -5   6  121.59    4.40
   0  -5   6  123.29    4.00
   0  -5   6  119.69    4.00
   0  -5   6  119.49    3.90
   0   5   6  120.49    4.10
   1  -5   6   99.29    3.30
   1  -5   6   92.49    3.30
   1  -5   6   97.39    3.70
   1  -5   6  102.79    3.20
   2  -5   6   51.99    1.80
   2  -5   6   51.29    1.80
   2  -5   6   50.39    2.30
   2  -5   6   51.39    1.80
   2  -5   6   50.19    1.80
   3  -5   6  250.47    7.80
   3  -5   6  231.78    8.20
   3  -5   6  253.37    7.80
   3  -5   6  248.48    7.70
   4  -5   6   30.40    1.10
   4  -5   6   30.00    1.10
   4  -5   6   30.60    1.10
   5  -6  -6    7.70    0.30
  -5  -6   6    7.30    0.40
  -5  -6   6    7.20    0.40
   4  -6  -6    7.80    0.40
  -4  -6   6    7.10    0.50
  -4  -6   6    8.20    0.50
   3  -6  -6  101.29    3.40
  -3  -6   6  103.69    3.50
  -3  -6   6  105.99    3.50
   3   6  -6  112.89    3.40
  -2  -6   6  214.68    6.80
  -2  -6   6  214.28    6.90
  -1  -6   6  278.57    9.20
  -1  -6   6  274.27    8.80
  -1  -6   6  274.07    8.90
  -1  -6   6  281.67    8.90
  -1   6   6  286.17    9.20
   0  -6   6   33.00    1.30
   0  -6   6   33.20    1.30
   0  -6   6   34.60    1.70
   0   6   6   33.10    1.40
   1  -6   6   21.70    0.90
   1  -6   6   23.50    1.00
   1  -6   6   21.20    1.30
   1  -6   6   21.50    0.90
   1   6   6   22.80    1.00
   2  -6   6   67.89    2.40
   2  -6   6   70.49    2.40
   2  -6   6   69.99    2.40
   2  -6   6   67.39    2.70
   2  -6   6   71.39    2.30
   2   6   6   73.29    2.40
   3  -6   6  238.38    7.50
   3  -6   6  235.08    7.50
   3  -6   6  237.18    7.50
   4  -6   6   16.40    0.70
   4  -7  -6   17.50    0.60
  -4  -7   6   16.60    0.70
  -4  -7   6   17.90    0.70
  -3  -7   6   76.79    2.50
  -3  -7   6   75.99    2.50
   3  -7  -6   74.09    2.40
   3   7  -6   72.49    2.40
  -2  -7   6   22.30    0.90
  -2  -7   6   22.50    0.90
  -1  -7   6  170.78    5.60
  -1  -7   6  179.28    5.60
   0  -7   6    9.00    0.60
   0  -7   6    9.40    0.60
   0   7   6    9.60    0.70
   1  -7   6   69.89    2.30
   1  -7   6   69.59    2.40
   1  -7   6   72.69    2.40
   1   7   6   69.99    2.50
   2  -7   6    2.20    0.30
   2  -7   6    1.70    0.30
   2  -7   6    2.40    0.30
   3  -7   6   55.69    1.90
   3  -7   6   55.59    1.80
  -4  -8   6   26.40    1.00
   4  -8  -6   27.40    0.90
   3  -8  -6   62.19    2.00
  -3  -8   6   64.19    2.10
  -3  -8   6   63.19    2.10
  -2  -8   6   17.30    0.70
  -2  -8   6   18.50    0.70
   2   8  -6   17.60    0.70
  -1  -8   6   66.49    2.30
   0  -8   6   32.40    1.20
   0  -8   6   32.90    1.20
   0   8   6   31.00    1.40
   1  -8   6   24.40    1.00
   1  -8   6   22.90    0.90
   2  -8   6    7.10    0.40
   2  -8   6    7.80    0.40
   2  -8   6    8.10    0.40
   3  -8   6    7.70    0.40
  -3  -9   6   77.89    2.50
  -2  -9   6    6.80    0.40
  -1  -9   6   62.19    2.10
   0  -9   6  202.68    6.30
   0  -9   6  197.68    6.40
   1  -9   6   26.30    1.00
   1  -9   6   26.80    1.00
   2  -9   6   10.00    0.40
   5   0  -7    3.70    0.20
  -4   0   7    8.50    0.40
   4   0  -7    9.00    0.40
   3   0  -7   21.20    0.80
  -3   0   7   21.40    0.90
  -2   0   7    0.50    0.20
  -1   0   7    0.90    0.20
   0   0   7   14.50    1.00
   0   0   7   15.70    0.70
   0   0   7   15.20    1.10
   1   0   7   -0.30    0.70
   1   0   7    0.30    0.30
   2   0   7  100.29    3.80
   2   0   7   99.99    3.50
   3   0   7    2.70    0.80
   3   0   7    2.70    0.40
   4   0   7    1.00    0.30
   5  -1  -7    1.30    0.20
   5   1  -7    1.30    0.20
   4  -1  -7   21.00    0.80
  -4  -1   7   21.00    0.80
   4   1  -7   20.40    0.80
  -4   1   7   21.20    0.80
  -3  -1   7    8.80    0.50
   3  -1  -7    9.30    0.40
   3   1  -7    9.60    0.50
  -3   1   7    8.80    0.50
  -2  -1   7  209.18    6.70
   2   1  -7  210.58    6.60
  -2   1   7  209.38    6.70
  -1  -1   7   18.40    0.80
  -1  -1   7   18.00    1.20
  -1   1   7   18.80    0.80
   0  -1   7   46.80    2.10
   0  -1   7   44.10    1.60
   0   1   7   44.40    1.60
   0   1   7   43.30    1.90
   1  -1   7   75.69    3.00
   1   1   7   70.19    2.60
   2  -1   7  535.05   17.80
   2  -1   7  575.24   18.00
   2   1   7  572.64   17.60
   3  -1   7    9.90    0.90
   3  -1   7   10.30    0.70
   3   1   7   11.10    0.60
   3   1   7    8.60    0.90
   4   1   7   13.90    0.70
  -5  -2   7    1.30    0.20
   5  -2  -7    1.00    0.10
   5   2  -7    1.00    0.10
   4  -2  -7  230.88    7.10
  -4  -2   7  226.48    7.10
   4   2  -7  228.18    7.10
  -4   2   7  220.58    7.20
   3  -2  -7    5.50    0.30
  -3  -2   7    5.20    0.40
  -3   2   7    4.90    0.40
   3   2  -7    4.90    0.40
  -2  -2   7   15.40    0.70
  -2   2   7   13.50    0.60
   2   2  -7   13.50    0.60
  -1  -2   7  122.59    4.10
  -1  -2   7  128.99    4.60
  -1   2   7  128.29    4.10
   0  -2   7  178.08    6.00
   0   2   7  167.88    5.80
   0   2   7  171.58    5.50
   1  -2   7  185.28    6.30
   1   2   7  173.28    5.70
   1   2   7  181.18    5.90
   2  -2   7  130.69    4.20
   2  -2   7  128.29    4.60
   2   2   7  128.09    4.20
   3  -2   7   38.20    1.80
   4   2   7   43.60    1.50
   5  -3  -7   75.29    2.30
  -5  -3   7   77.49    2.40
   5   3  -7   66.69    2.30
   4  -3  -7  199.18    6.20
  -4  -3   7  198.98    6.30
   4   3  -7  196.78    6.20
  -3  -3   7    2.50    0.30
   3  -3  -7    2.60    0.20
   3   3  -7    2.50    0.30
  -3   3   7    2.20    0.30
  -2  -3   7   20.30    0.90
  -2   3   7   20.00    0.80
   2   3  -7   20.70    0.80
  -1  -3   7   45.10    1.70
  -1  -3   7   47.90    2.20
  -1   3   7   53.79    1.70
  -1   3   7   45.50    2.00
   0  -3   7   71.19    2.80
   0   3   7   68.49    2.30
   0   3   7   69.39    2.60
   1  -3   7   66.99    2.70
   1   3   7   62.99    2.30
   2  -3   7    0.70    0.20
   2   3   7    1.00    0.20
   3  -3   7   12.20    0.50
   3  -3   7   12.30    0.90
   3   3   7   10.90    0.50
   3   3   7   14.00    0.50
   5  -4  -7   17.00    0.60
  -5  -4   7   18.50    0.70
   4  -4  -7   62.69    2.00
  -4  -4   7   64.99    2.10
   4   4  -7   59.89    2.00
  -3  -4   7   17.80    0.70
  -3   4   7   16.00    0.70
   3   4  -7   18.20    0.70
  -2  -4   7   24.30    1.00
  -2   4   7   27.00    1.00
   2   4  -7   26.80    1.00
  -1  -4   7   50.19    2.20
  -1  -4   7   48.90    1.70
  -1   4   7   48.70    2.00
  -1   4   7   47.90    1.70
   0  -4   7  179.78    6.20
   0   4   7  182.58    6.00
   1  -4   7   48.90    2.10
   1   4   7   49.40    1.80
   2  -4   7    0.50    0.20
   2  -4   7    0.70    0.60
  -4  -5   7   11.40    0.50
   4  -5  -7   10.20    0.40
   4   5  -7   10.50    0.40
  -3  -5   7   11.50    0.50
   3   5  -7   11.10    0.50
  -2  -5   7   28.90    1.10
   2   5  -7   29.90    1.10
  -1  -5   7   61.19    2.10
  -1   5   7   62.79    2.40
   0  -5   7    5.80    0.70
   0   5   7    5.30    0.50
   1  -5   7   11.90    0.90
   1   5   7   12.30    0.60
   2  -5   7   30.60    1.20
   2  -5   7   30.00    1.10
   2  -5   7   29.60    1.40
   3  -5   7   18.20    0.70
  -4  -6   7   21.70    0.80
  -3  -6   7  136.59    4.20
   3   6  -7  127.29    4.20
  -2  -6   7  135.29    4.50
   2   6  -7  147.69    4.50
  -1   6   7   72.29    2.90
   0  -6   7    2.80    0.30
   0  -6   7    3.00    0.60
   0   6   7    3.00    0.40
   1  -6   7   29.90    1.40
   1  -6   7   31.90    1.20
   1   6   7   33.70    1.20
   2  -6   7  121.59    3.90
  -3  -7   7    2.00    0.20
  -2  -7   7    2.60    0.20
   2   7  -7    2.70    0.20
   0  -7   7    0.90    0.20
   0   7   7    1.20    0.30
   1  -7   7    1.90    0.20
  -4   0   8   13.50    0.50
   4   0  -8   12.80    0.50
  -3   0   8    4.60    0.30
   3   0  -8    4.50    0.30
  -2   0   8   59.59    2.00
  -1   0   8    5.10    0.30
   0   0   8  103.89    3.30
   1   0   8    9.00    0.70
   2   0   8   13.50    0.70
  -4  -1   8   12.40    0.50
   4  -1  -8   11.00    0.50
   4   1  -8   10.90    0.40
   3  -1  -8   11.90    0.50
  -3  -1   8   12.20    0.50
  -3   1   8   12.60    0.50
   3   1  -8   12.50    0.50
  -2  -1   8   60.39    2.00
  -2   1   8   59.39    2.00
   2   1  -8   58.89    1.90
  -1  -1   8   17.60    0.70
  -1   1   8   17.70    0.70
   0  -1   8   46.70    1.90
   0   1   8   47.60    1.60
   0   1   8   44.40    1.90
   1   1   8    9.00    0.60
   2   1   8  114.69    3.80
  -3  -2   8   14.60    0.60
   3  -2  -8   13.20    0.50
  -3   2   8   14.70    0.60
   3   2  -8   15.00    0.60
  -2  -2   8   65.09    2.20
   2   2  -8   66.79    2.10
  -2   2   8   65.59    2.20
  -1  -2   8    3.10    0.30
  -1   2   8    3.40    0.30
   0  -2   8   22.30    1.20
   0   2   8   22.20    1.10
   1   2   8   42.90    1.60
   2   2   8   98.19    3.20
  -3  -3   8   18.90    0.70
   3   3  -8   17.90    0.70
  -2  -3   8    3.40    0.30
   2   3  -8    3.20    0.20
  -2   3   8    3.40    0.30
  -1  -3   8   28.00    1.00
   1   3  -8   27.40    1.00
   0  -3   8   22.50    1.30
   0   3   8   23.30    1.00
   1   3   8    8.60    0.50
   3   4  -8    5.10    0.30
  -2  -4   8   14.40    0.60
   2   4  -8   13.50    0.50
   1   4  -8   50.49    1.60
  -1   4   8   48.60    1.90
   0   4   8   45.70    1.70
   1   4   8   90.69    2.90
   2   5  -8  189.68    6.00
   1   5  -8    7.20    0.30
   0   5   8    9.60    0.50
   0   0   0    0.00    0.00

_computing_structure_solution     'SHELXT 2014/5 (Sheldrick, 2014)'
;
_shelx_hkl_checksum              36942
loop_
_space_group_symop_operation_xyz
'x, y, z'
'-x, y+1/2, -z'
loop_
_atom_site_label
_atom_site_type_symbol
_atom_site_fract_x
_atom_site_fract_y
_atom_site_fract_z
_atom_site_U_iso_or_equiv
_atom_site_adp_type
_atom_site_occupancy
_atom_site_site_symmetry_order
_atom_site_calc_flag
_atom_site_refinement_flags_posn
_atom_site_refinement_flags_adp
C1 C -0.0049(3) 0.4233(2) -0.1036(3) 0.0308(5) Uani 1 1 d . .
C2 C 0.1670(3) 0.4743(2) -0.0172(3) 0.0236(5) Uani 1 1 d . .
C3 C 0.2078(3) 0.5932(2) -0.0414(3) 0.0242(5) Uani 1 1 d . .
H3 H 0.1248 0.6414 -0.1137 0.029 Uiso 1 1 calc R U
C4 C 0.3746(3) 0.63817(19) 0.0444(3) 0.0224(5) Uani 1 1 d . .
H4 H 0.4026 0.7176 0.0295 0.027 Uiso 1 1 calc R U
C5 C 0.5018(3) 0.56713(19) 0.1526(3) 0.0204(4) Uani 1 1 d . .
C6 C 0.4547(3) 0.44925(19) 0.1815(3) 0.0204(4) Uani 1 1 d . .
C7 C 0.2886(3) 0.40276(19) 0.0958(3) 0.0226(5) Uani 1 1 d . .
H7 H 0.2583 0.3240 0.1138 0.027 Uiso 1 1 calc R U
C8 C 0.5748(3) 0.37423(19) 0.3204(3) 0.0229(5) Uani 1 1 d . .
H8 H 0.5731 0.2919 0.2785 0.027 Uiso 1 1 calc R U
C9 C 0.7761(3) 0.4182(2) 0.3460(3) 0.0217(5) Uani 1 1 d . .
C10 C 0.7917(3) 0.54858(18) 0.3986(3) 0.0210(5) Uani 1 1 d . .
C11 C 0.6899(3) 0.61671(19) 0.2302(3) 0.0232(5) Uani 1 1 d . .
H11A H 0.6707 0.6976 0.2681 0.028 Uiso 1 1 calc R U
H11B H 0.7734 0.6186 0.1313 0.028 Uiso 1 1 calc R U
C12 C 0.9955(3) 0.5887(2) 0.4336(3) 0.0278(5) Uani 1 1 d . .
H12A H 1.0561 0.5458 0.5368 0.042 Uiso 1 1 calc R U
H12B H 0.9988 0.6717 0.4612 0.042 Uiso 1 1 calc R U
H12C H 1.0604 0.5742 0.3251 0.042 Uiso 1 1 calc R U
C13 C 0.6835(3) 0.5721(2) 0.5711(3) 0.0215(4) Uani 1 1 d . .
C14 C 0.4999(3) 0.5079(2) 0.5861(3) 0.0267(5) Uani 1 1 d . .
H14A H 0.3992 0.5527 0.5195 0.032 Uiso 1 1 calc R U
H14B H 0.4747 0.5059 0.7157 0.032 Uiso 1 1 calc R U
C15 C 0.4930(3) 0.3823(2) 0.5121(3) 0.0260(5) Uani 1 1 d . .
H15A H 0.3632 0.3549 0.5002 0.031 Uiso 1 1 calc R U
H15B H 0.5649 0.3311 0.5997 0.031 Uiso 1 1 calc R U
N1 N -0.1394(3) 0.3806(2) -0.1715(4) 0.0494(7) Uani 1 1 d . .
O1 O 0.9114(2) 0.35666(15) 0.3260(2) 0.0314(4) Uani 1 1 d . .
O2 O 0.7431(2) 0.64310(15) 0.6865(2) 0.0299(4) Uani 1 1 d . .
loop_
_atom_site_aniso_label
_atom_site_aniso_U_11
_atom_site_aniso_U_22
_atom_site_aniso_U_33
_atom_site_aniso_U_23
_atom_site_aniso_U_13
_atom_site_aniso_U_12
C1 0.0322(12) 0.0309(13) 0.0270(10) 0.0084(10) -0.0096(9) -0.0010(10)
C2 0.0223(10) 0.0309(12) 0.0173(9) 0.0003(9) -0.0007(7) -0.0011(9)
C3 0.0248(10) 0.0279(12) 0.0193(9) 0.0048(9) -0.0010(7) 0.0059(9)
C4 0.0280(10) 0.0203(11) 0.0189(8) 0.0016(8) 0.0029(8) 0.0004(9)
C5 0.0218(10) 0.0219(11) 0.0177(9) -0.0015(8) 0.0025(7) 0.0002(9)
C6 0.0218(9) 0.0223(10) 0.0167(8) -0.0010(8) -0.0006(7) 0.0013(9)
C7 0.0263(10) 0.0220(11) 0.0189(8) -0.0006(8) -0.0006(8) -0.0023(9)
C8 0.0268(10) 0.0184(10) 0.0222(9) -0.0007(8) -0.0053(8) -0.0004(9)
C9 0.0238(10) 0.0240(12) 0.0169(8) 0.0014(8) -0.0009(7) 0.0026(9)
C10 0.0178(9) 0.0237(12) 0.0210(9) -0.0018(8) -0.0012(8) -0.0009(8)
C11 0.0248(11) 0.0207(11) 0.0239(9) 0.0001(9) 0.0009(8) -0.0021(9)
C12 0.0207(10) 0.0344(13) 0.0279(10) -0.0009(10) -0.0006(8) -0.0044(10)
C13 0.0210(9) 0.0215(10) 0.0211(9) 0.0005(8) -0.0029(7) 0.0043(8)
C14 0.0215(10) 0.0386(14) 0.0196(9) -0.0035(9) -0.0001(7) -0.0022(9)
C15 0.0240(9) 0.0308(12) 0.0220(9) 0.0045(9) -0.0043(7) -0.0080(9)
N1 0.0415(12) 0.0437(14) 0.0572(14) 0.0162(12) -0.0269(11) -0.0110(11)
O1 0.0277(8) 0.0275(8) 0.0389(8) -0.0001(7) 0.0032(6) 0.0079(8)
O2 0.0362(8) 0.0254(9) 0.0278(7) -0.0074(7) 0.0014(6) -0.0044(7)
loop_
_atom_type_symbol
_atom_type_description
_atom_type_scat_dispersion_real
_atom_type_scat_dispersion_imag
_atom_type_scat_source
C C 0.0181 0.0091 'International Tables Vol C Tables 4.2.6.8 and 6.1.1.4'
H H 0.0000 0.0000 'International Tables Vol C Tables 4.2.6.8 and 6.1.1.4'
N N 0.0311 0.0180 'International Tables Vol C Tables 4.2.6.8 and 6.1.1.4'
O O 0.0492 0.0322 'International Tables Vol C Tables 4.2.6.8 and 6.1.1.4'
loop_
_geom_angle_atom_site_label_1
_geom_angle_atom_site_label_2
_geom_angle_atom_site_label_3
_geom_angle
N1 C1 C2 178.6(3)
C3 C2 C7 120.7(2)
C3 C2 C1 120.8(2)
C7 C2 C1 118.5(2)
C4 C3 C2 118.63(19)
C4 C3 H3 120.7
C2 C3 H3 120.7
C3 C4 C5 121.6(2)
C3 C4 H4 119.2
C5 C4 H4 119.2
C6 C5 C4 118.86(18)
C6 C5 C11 121.04(18)
C4 C5 C11 120.06(19)
C7 C6 C5 120.12(19)
C7 C6 C8 119.23(19)
C5 C6 C8 120.39(17)
C6 C7 C2 119.9(2)
C6 C7 H7 120.0
C2 C7 H7 120.0
C9 C8 C6 111.50(17)
C9 C8 C15 107.29(15)
C6 C8 C15 108.96(17)
C9 C8 H8 109.7
C6 C8 H8 109.7
C15 C8 H8 109.7
O1 C9 C8 123.5(2)
O1 C9 C10 123.19(19)
C8 C9 C10 113.35(17)
C12 C10 C9 112.24(17)
C12 C10 C13 110.45(16)
C9 C10 C13 109.72(17)
C12 C10 C11 110.52(17)
C9 C10 C11 105.40(16)
C13 C10 C11 108.33(16)
C5 C11 C10 115.98(17)
C5 C11 H11A 108.3
C10 C11 H11A 108.3
C5 C11 H11B 108.3
C10 C11 H11B 108.3
H11A C11 H11B 107.4
C10 C12 H12A 109.5
C10 C12 H12B 109.5
H12A C12 H12B 109.5
C10 C12 H12C 109.5
H12A C12 H12C 109.5
H12B C12 H12C 109.5
O2 C13 C14 121.62(19)
O2 C13 C10 120.23(19)
C14 C13 C10 118.11(18)
C13 C14 C15 115.31(19)
C13 C14 H14A 108.4
C15 C14 H14A 108.4
C13 C14 H14B 108.4
C15 C14 H14B 108.4
H14A C14 H14B 107.5
C14 C15 C8 111.52(18)
C14 C15 H15A 109.3
C8 C15 H15A 109.3
C14 C15 H15B 109.3
C8 C15 H15B 109.3
H15A C15 H15B 108.0
loop_
_geom_bond_atom_site_label_1
_geom_bond_atom_site_label_2
_geom_bond_distance
C1 N1 1.142(3)
C1 C2 1.443(3)
C2 C3 1.392(3)
C2 C7 1.395(3)
C3 C4 1.385(3)
C3 H3 0.9300
C4 C5 1.397(3)
C4 H4 0.9300
C5 C6 1.397(3)
C5 C11 1.511(3)
C6 C7 1.388(3)
C6 C8 1.519(3)
C7 H7 0.9300
C8 C9 1.511(3)
C8 C15 1.553(3)
C8 H8 0.9800
C9 O1 1.207(3)
C9 C10 1.527(3)
C10 C12 1.518(3)
C10 C13 1.546(3)
C10 C11 1.564(3)
C11 H11A 0.9700
C11 H11B 0.9700
C12 H12A 0.9600
C12 H12B 0.9600
C12 H12C 0.9600
C13 O2 1.208(3)
C13 C14 1.507(3)
C14 C15 1.520(4)
C14 H14A 0.9700
C14 H14B 0.9700
C15 H15A 0.9700
C15 H15B 0.9700
