#------------------------------------------------------------------------------
#$Date: 2018-01-01 05:20:25 +0200 (Mon, 01 Jan 2018) $
#$Revision: 204638 $
#$URL: file:///home/coder/svn-repositories/cod/cif/4/12/69/4126950.cif $
#------------------------------------------------------------------------------
#
# This file is available in the Crystallography Open Database (COD),
# http://www.crystallography.net/
#
# All data on this site have been placed in the public domain by the
# contributors.
#
data_4126950
loop_
_publ_author_name
'Harada, Jun'
'Yoneyama, Naho'
'Yokokura, Seiya'
'Takahashi, Yukihiro'
'Miura, Atsushi'
'Kitamura, Noboru'
'Inabe, Tamotsu'
_publ_section_title
;
 Ferroelectricity and Piezoelectricity in Free-Standing Polycrystalline
 Films of Plastic Crystals.
;
_journal_name_full               'Journal of the American Chemical Society'
_journal_paper_doi               10.1021/jacs.7b10539
_journal_year                    2017
_chemical_formula_moiety         '4(Cl1 Fe0.25), 4(C1 N0.25)'
_chemical_formula_sum            'C4 H12 Cl4 Fe N'
_chemical_formula_weight         271.80
_space_group_crystal_system      cubic
_space_group_IT_number           221
_space_group_name_Hall           '-P 4 2 3'
_space_group_name_H-M_alt        'P m -3 m'
_symmetry_space_group_name_Hall  '-P 4 2 3'
_symmetry_space_group_name_H-M   'P m -3 m'
_atom_sites_solution_primary     dual
_audit_creation_date             2017-08-10
_audit_creation_method
;
Olex2 1.2
(compiled 2017.07.20 svn.r3457 for OlexSys, GUI svn.r5370)
;
_cell_angle_alpha                90
_cell_angle_beta                 90
_cell_angle_gamma                90
_cell_formula_units_Z            1
_cell_length_a                   6.81(3)
_cell_length_b                   6.81(3)
_cell_length_c                   6.81(3)
_cell_measurement_reflns_used    1001
_cell_measurement_temperature    400
_cell_measurement_theta_max      24.866
_cell_measurement_theta_min      2.990
_cell_volume                     316(2)
_computing_cell_refinement       'SAINT v8.34A (Bruker, 2013)'
_computing_data_collection       'Bruker APEX2 2014.1-1 (Bruker, 2014)'
_computing_data_reduction        'SAINT v8.34A (Bruker, 2013)'
_computing_molecular_graphics    'Olex2 (Dolomanov et al., 2009)'
_computing_publication_material  'Olex2 (Dolomanov et al., 2009)'
_computing_structure_refinement  'ShelXL (Sheldrick, 2015)'
_computing_structure_solution    'ShelXT (Sheldrick, 2015)'
_diffrn_ambient_temperature      400
_diffrn_detector_area_resol_mean 8.3333
_diffrn_measured_fraction_theta_full 1.000
_diffrn_measured_fraction_theta_max 1.000
_diffrn_measurement_device_type  'Bruker APEX-II CCD'
_diffrn_measurement_method       '\f and \w scans'
_diffrn_radiation_type           MoK\a
_diffrn_radiation_wavelength     0.71073
_diffrn_reflns_av_R_equivalents  0.0562
_diffrn_reflns_av_unetI/netI     0.0135
_diffrn_reflns_Laue_measured_fraction_full 1.000
_diffrn_reflns_Laue_measured_fraction_max 1.000
_diffrn_reflns_limit_h_max       8
_diffrn_reflns_limit_h_min       -8
_diffrn_reflns_limit_k_max       8
_diffrn_reflns_limit_k_min       -8
_diffrn_reflns_limit_l_max       8
_diffrn_reflns_limit_l_min       -8
_diffrn_reflns_number            3464
_diffrn_reflns_point_group_measured_fraction_full 1.000
_diffrn_reflns_point_group_measured_fraction_max 1.000
_diffrn_reflns_theta_full        25.242
_diffrn_reflns_theta_max         25.272
_diffrn_reflns_theta_min         2.990
_diffrn_source                   'rotating-anode X-ray tube'
_diffrn_standards_number         0
_exptl_absorpt_coefficient_mu    1.984
_exptl_absorpt_correction_T_max  0.7240
_exptl_absorpt_correction_T_min  0.4389
_exptl_absorpt_correction_type   multi-scan
_exptl_absorpt_process_details
'SADABS-2014/4 (Bruker,2014/4) was used for absorption correction. wR2(int) was 0.1302 before and 0.0750 after correction. The Ratio of minimum to maximum transmission is 0.6062. The \l/2 correction factor is Not present.'
_exptl_crystal_colour            yellow
_exptl_crystal_colour_primary    yellow
_exptl_crystal_density_diffrn    1.427
_exptl_crystal_description       block
_exptl_crystal_F_000             137
_exptl_crystal_size_max          0.25
_exptl_crystal_size_mid          0.188
_exptl_crystal_size_min          0.125
_refine_diff_density_max         0.537
_refine_diff_density_min         -0.226
_refine_diff_density_rms         0.157
_refine_ls_extinction_method     none
_refine_ls_goodness_of_fit_ref   2.166
_refine_ls_hydrogen_treatment    undef
_refine_ls_matrix_type           full
_refine_ls_number_parameters     9
_refine_ls_number_reflns         86
_refine_ls_number_restraints     1
_refine_ls_restrained_S_all      2.154
_refine_ls_R_factor_all          0.1905
_refine_ls_R_factor_gt           0.1740
_refine_ls_shift/su_max          0.000
_refine_ls_shift/su_mean         0.000
_refine_ls_structure_factor_coef Fsqd
_refine_ls_weighting_details
'w=1/[\s^2^(Fo^2^)+(0.2000P)^2^] where P=(Fo^2^+2Fc^2^)/3'
_refine_ls_weighting_scheme      calc
_refine_ls_wR_factor_gt          0.4640
_refine_ls_wR_factor_ref         0.5132
_reflns_Friedel_coverage         0.000
_reflns_number_gt                57
_reflns_number_total             86
_reflns_threshold_expression     'I > 2\s(I)'
_iucr_refine_instructions_details
;
TITL Tetramethylammonium tetrachloroferrate(III) at 400 K in Pm-3m
CELL 0.71073   6.81340   6.81340   6.81340  90.0000  90.0000  90.0000
ZERR    1.00   0.02770   0.02770   0.02770   0.0000   0.0000   0.0000
LATT  1
SYMM -X, -Y, Z
SYMM -X, Y, -Z
SYMM X, -Y, -Z
SYMM Z, X, Y
SYMM Z, -X, -Y
SYMM -Z, -X, Y
SYMM -Z, X, -Y
SYMM Y, Z, X
SYMM -Y, Z, -X
SYMM Y, -Z, -X
SYMM -Y, -Z, X
SYMM Y, X, -Z
SYMM -Y, -X, -Z
SYMM Y, -X, Z
SYMM -Y, X, Z
SYMM X, Z, -Y
SYMM -X, Z, Y
SYMM -X, -Z, -Y
SYMM X, -Z, Y
SYMM Z, Y, -X
SYMM Z, -Y, X
SYMM -Z, Y, X
SYMM -Z, -Y, -X
SFAC C H N CL FE
UNIT 4 12 1 4 1
TEMP 127
SIZE 0.125 0.188 0.25
L.S. 10
BOND $H
CONF
ACTA
LIST 4
FMAP 2
PLAN 20
DFIX 1.46 N1 C1
WGHT    0.200000
FVAR       0.69907
FE1   5    0.500000    0.500000    0.500000    10.02083    0.20394    0.20394 =
         0.20394    0.00000    0.00000    0.00000
CL1   4    0.500000    0.500000    0.174541    10.08333    0.54754    0.54754 =
         0.23107    0.00000    0.00000    0.00000
N1    3    0.000000    0.000000    0.000000    10.02083    0.26657    0.26657 =
         0.26657    0.00000    0.00000    0.00000
C1    1    0.000000   -0.215556    0.000000    10.08333    0.65429    0.39648 =
         0.65429    0.00000    0.00000    0.00000
HKLF 4
 
REM  Tetramethylammonium tetrachloroferrate(III) at 400 K in Pm-3m
REM R1 =  0.1740 for      57 Fo > 4sig(Fo)  and  0.1905 for all      86 data
REM      9 parameters refined using      1 restraints
 
END  
     
WGHT      0.2000      0.0000 

REM Highest difference peak  0.537,  deepest hole -0.226,  1-sigma level  0.157
Q1    1   0.3459  0.3459  0.3459  10.16667  0.05    0.54
;
_cod_data_source_file            ja7b10539_si_006.cif
_cod_data_source_block           TMA_FeCl4_400K
_cod_original_cell_volume        316(4)
_cod_database_code               4126950
_shelxl_version_number           2014/6
_shelx_space_group_comment
;
The symmetry employed for this shelxl refinement is uniquely defined
by the following loop, which should always be used as a source of
symmetry information in preference to the above space-group names.
They are only intended as comments.
;
_shelx_estimated_absorpt_t_max   0.790
_shelx_estimated_absorpt_t_min   0.637
_olex2_refinement_description
;
1. Restrained distances
 N1-C1
 1.46 with sigma of 0.02
2. Others
 Fixed Sof: Cl1(0.08333) C1(0.08333)
;
_olex2_submission_special_instructions 'No special instructions were received'
loop_
_space_group_symop_operation_xyz
'x, y, z'
'-x, -y, z'
'-x, y, -z'
'x, -y, -z'
'z, x, y'
'z, -x, -y'
'-z, -x, y'
'-z, x, -y'
'y, z, x'
'-y, z, -x'
'y, -z, -x'
'-y, -z, x'
'y, x, -z'
'-y, -x, -z'
'y, -x, z'
'-y, x, z'
'x, z, -y'
'-x, z, y'
'-x, -z, -y'
'x, -z, y'
'z, y, -x'
'z, -y, x'
'-z, y, x'
'-z, -y, -x'
'-x, -y, -z'
'x, y, -z'
'x, -y, z'
'-x, y, z'
'-z, -x, -y'
'-z, x, y'
'z, x, -y'
'z, -x, y'
'-y, -z, -x'
'y, -z, x'
'-y, z, x'
'y, z, -x'
'-y, -x, z'
'y, x, z'
'-y, x, -z'
'y, -x, -z'
'-x, -z, y'
'x, -z, -y'
'x, z, y'
'-x, z, -y'
'-z, -y, x'
'-z, y, -x'
'z, -y, -x'
'z, y, x'
loop_
_atom_site_label
_atom_site_type_symbol
_atom_site_fract_x
_atom_site_fract_y
_atom_site_fract_z
_atom_site_U_iso_or_equiv
_atom_site_adp_type
_atom_site_occupancy
_atom_site_site_symmetry_order
_atom_site_calc_flag
_atom_site_refinement_flags_posn
_atom_site_refinement_flags_adp
_atom_site_refinement_flags_occupancy
Fe1 Fe 0.5000 0.5000 0.5000 0.204(7) Uani 1 48 d S T P
Cl1 Cl 0.5000 0.5000 0.175(3) 0.44(3) Uani 0.6666 8 d S T P
N1 N 0.0000 0.0000 0.0000 0.27(4) Uani 1 48 d DS T P
C1 C 0.0000 -0.216(3) 0.0000 0.57(17) Uani 0.6666 8 d DS T P
loop_
_atom_site_aniso_label
_atom_site_aniso_U_11
_atom_site_aniso_U_22
_atom_site_aniso_U_33
_atom_site_aniso_U_23
_atom_site_aniso_U_13
_atom_site_aniso_U_12
Fe1 0.204(7) 0.204(7) 0.204(7) 0.000 0.000 0.000
Cl1 0.55(4) 0.55(4) 0.23(2) 0.000 0.000 0.000
N1 0.27(4) 0.27(4) 0.27(4) 0.000 0.000 0.000
C1 0.7(3) 0.4(2) 0.7(3) 0.000 0.000 0.000
loop_
_atom_type_symbol
_atom_type_description
_atom_type_scat_dispersion_real
_atom_type_scat_dispersion_imag
_atom_type_scat_source
C C 0.0033 0.0016 'International Tables Vol C Tables 4.2.6.8 and 6.1.1.4'
H H 0.0000 0.0000 'International Tables Vol C Tables 4.2.6.8 and 6.1.1.4'
N N 0.0061 0.0033 'International Tables Vol C Tables 4.2.6.8 and 6.1.1.4'
Cl Cl 0.1484 0.1585 'International Tables Vol C Tables 4.2.6.8 and 6.1.1.4'
Fe Fe 0.3463 0.8444 'International Tables Vol C Tables 4.2.6.8 and 6.1.1.4'
loop_
_geom_angle_atom_site_label_1
_geom_angle_atom_site_label_2
_geom_angle_atom_site_label_3
_geom_angle
_geom_angle_site_symmetry_1
_geom_angle_site_symmetry_3
Cl1 Fe1 Cl1 90.0 . 33_666
Cl1 Fe1 Cl1 180.0 5 29_666
Cl1 Fe1 Cl1 90.000(4) 5 9
Cl1 Fe1 Cl1 90.000(4) 25_666 29_666
Cl1 Fe1 Cl1 180.0 33_666 9
Cl1 Fe1 Cl1 90.0 25_666 9
Cl1 Fe1 Cl1 90.000(6) 33_666 29_666
Cl1 Fe1 Cl1 180.0 . 25_666
Cl1 Fe1 Cl1 90.000(2) 33_666 5
Cl1 Fe1 Cl1 90.000(2) . 9
Cl1 Fe1 Cl1 90.000(1) 25_666 5
Cl1 Fe1 Cl1 90.0 33_666 25_666
Cl1 Fe1 Cl1 90.0 . 29_666
Cl1 Fe1 Cl1 90.000(2) 29_666 9
Cl1 Fe1 Cl1 90.000(3) . 5
Fe1 Cl1 Cl1 180.0 . 25_665
C1 N1 C1 180.0 33 9
C1 N1 C1 180.0 5 29
C1 N1 C1 90.0 5 .
C1 N1 C1 90.000(1) 25 29
C1 N1 C1 90.000(1) 9 .
C1 N1 C1 180.0 25 .
C1 N1 C1 90.000(1) 9 29
C1 N1 C1 90.000(1) 33 25
C1 N1 C1 90.000(1) 9 5
C1 N1 C1 90.000(1) 33 .
C1 N1 C1 90.000(1) 25 5
C1 N1 C1 90.000(1) 9 25
C1 N1 C1 90.000(1) 33 29
C1 N1 C1 90.0 29 .
C1 N1 C1 90.000(1) 33 5
loop_
_geom_bond_atom_site_label_1
_geom_bond_atom_site_label_2
_geom_bond_distance
_geom_bond_site_symmetry_2
Fe1 Cl1 2.22(3) .
Fe1 Cl1 2.22(3) 9
Fe1 Cl1 2.22(3) 33_666
Fe1 Cl1 2.22(3) 29_666
Fe1 Cl1 2.22(3) 25_666
Fe1 Cl1 2.22(3) 5
Cl1 Cl1 2.38(5) 25_665
N1 C1 1.47(2) 33
N1 C1 1.47(2) .
N1 C1 1.47(2) 9
N1 C1 1.47(2) 29
N1 C1 1.47(2) 25
N1 C1 1.47(2) 5
loop_
_refln_index_h
_refln_index_k
_refln_index_l
_refln_F_squared_meas
_refln_F_squared_sigma
-1 0 0 420.09 24.09
0 -1 0 475.86 24.22
0 0 1 455.87 24.13
0 0 1 474.59 24.2
0 1 0 453.83 24.14
1 0 0 487.28 24.18
0 1 0 423.03 24.39
-1 0 0 407.45 24.06
0 -1 0 410.99 24.09
0 0 1 443.12 24.35
1 0 0 466.79 24.1
0 1 1 861.13 47.44
0 -1 1 777.57 47.25
1 -1 0 1000 47.41
1 0 -1 824.64 47.49
1 0 1 893.99 47.34
1 -1 0 878.69 47.32
-1 -1 0 916.33 47.46
0 -1 1 826.6 47.26
-1 1 0 905.38 47.76
0 -1 1 878.1 47.82
0 1 1 860.81 47.69
1 0 1 943.19 47.48
1 1 0 870.69 47.61
1 -1 0 865.02 47.33
1 0 -1 906.97 47.32
1 0 1 986.41 47.34
1 1 0 975.39 47.27
-1 0 1 764.99 47.58
0 1 -1 869.01 47.23
-1 0 1 848.99 47.38
0 -1 -1 741.73 47.5
-1 -1 0 894.2 47.35
-1 0 -1 861.9 47.32
-1 0 1 833.34 47.21
0 -1 -1 904.63 47.31
0 -1 1 865.24 47.33
1 -1 0 925.96 47.23
1 1 0 850.49 47.43
1 0 1 948.82 47.33
1 1 -1 3.34 0.18
1 -1 1 2.78 0.17
1 -1 1 2.53 0.16
1 -1 1 3.18 0.16
-1 -1 1 3.11 0.17
1 -1 1 3.33 0.17
-1 -1 1 2.53 0.19
-1 1 1 2.8 0.19
1 -1 1 2.86 0.2
1 1 1 3.32 0.18
1 1 1 2.94 0.18
-1 1 1 3 0.18
1 -1 -1 3.25 0.2
-1 -1 -1 2.9 0.17
1 -1 -1 2.84 0.17
1 1 -1 2.41 0.16
0 -2 0 410.37 19.84
0 0 2 377.36 19.69
0 0 2 361.6 19.79
-2 0 0 363.37 19.64
-2 0 0 348.83 19.66
0 -2 0 332.26 19.75
-2 0 0 323.1 19.74
0 0 -2 370.44 19.76
2 0 0 386.06 19.64
0 2 0 376.36 19.65
2 0 0 389.24 19.65
0 2 0 352.92 19.7
0 0 2 363.01 19.91
2 0 1 28.54 1.43
2 0 -1 27.7 1.43
1 -2 0 27.14 1.43
1 0 -2 27.27 1.43
1 0 2 27.24 1.43
2 -1 0 27.14 1.43
2 1 0 28.06 1.43
2 -1 0 25.5 1.43
2 -1 0 29.56 1.44
2 1 0 27.14 1.44
0 2 1 26.82 1.45
1 0 2 25.92 1.44
-1 0 2 25.26 1.43
0 -2 -1 29.32 1.45
0 -2 1 25.88 1.43
0 -2 1 26.75 1.43
0 2 1 25.8 1.44
-2 -1 0 27.38 1.44
0 -1 -2 26 1.43
0 1 -2 26.41 1.43
-2 0 1 24.68 1.43
-1 -2 0 27.48 1.44
0 -1 2 24.53 1.43
0 -1 2 27.77 1.43
0 1 2 25.46 1.43
1 -2 0 27.85 1.43
1 2 0 26.35 1.44
2 0 -1 26.37 1.44
2 0 1 26.57 1.43
-2 0 -1 26.6 1.43
-2 0 1 24.99 1.43
-1 -2 0 26.32 1.43
0 -1 -2 28.34 1.43
0 -1 2 27.26 1.43
1 -2 0 26.4 1.43
-2 -1 0 25.64 1.43
-1 0 -2 26.61 1.43
2 0 1 28.48 1.43
0 -2 -1 25.31 1.43
0 2 -1 26.7 1.43
-2 0 1 24.32 1.44
-1 2 0 26.26 1.45
0 -1 2 26.53 1.45
0 1 2 25.15 1.44
1 2 0 25.56 1.44
-2 1 0 27.06 1.44
-1 0 2 26 1.44
0 -2 1 24.99 1.43
1 0 2 26.16 1.43
0 -2 -1 25.25 1.43
2 -1 0 26.48 1.43
1 -1 2 10.32 0.53
-1 -2 1 9.22 0.56
-1 -1 2 9.92 0.55
2 -1 1 9.02 0.53
1 -1 2 9.53 0.53
2 -1 -1 9.01 0.53
-1 -1 2 9.89 0.53
-1 -1 2 8.2 0.54
-1 1 2 10.74 0.54
-1 2 1 9.07 0.54
1 -2 -1 9.58 0.56
1 -2 1 9.33 0.53
2 1 1 9.88 0.53
1 1 -2 9.75 0.53
1 2 -1 10.04 0.55
-2 1 1 8.96 0.54
-1 -2 1 9.81 0.54
-2 -1 -1 9.86 0.53
-2 -1 1 9.29 0.53
-1 2 -1 9.57 0.56
-1 2 1 9.38 0.55
1 -1 2 9.54 0.55
1 1 2 9.45 0.54
1 2 1 9.96 0.55
1 2 1 10.81 0.54
2 -1 -1 9.14 0.54
2 -1 1 10.33 0.53
2 1 -1 10.42 0.54
2 1 1 10.41 0.54
-1 -2 1 9.83 0.53
-1 -1 -2 10.26 0.53
1 -2 1 10.12 0.54
1 -2 -1 9.57 0.53
1 -2 1 9.04 0.53
1 -1 -2 10.68 0.53
-2 -1 1 9.45 0.54
-2 1 -1 9.4 0.54
-1 -1 2 9.91 0.53
2 1 -1 9.7 0.53
-1 1 2 8.47 0.55
1 1 2 10.45 0.54
1 -2 -1 10.3 0.53
1 -2 1 9.5 0.52
1 -1 -2 9.61 0.53
-2 -1 -1 11.07 0.55
-2 1 1 9.22 0.53
1 1 2 9.79 0.53
1 2 -1 9.9 0.53
1 2 1 9.94 0.53
2 -1 -1 9.36 0.53
2 -1 1 9.86 0.53
-1 -2 -1 9.31 0.53
-2 0 2 37.22 2.05
2 2 0 36.85 2.06
2 2 0 40.26 2.05
0 -2 2 36.04 2.07
0 2 2 37.13 2.06
-2 0 -2 38.68 2.05
-2 -2 0 39.4 2.06
-2 0 2 35.88 2.05
2 -2 0 36.55 2.05
0 -2 -2 36.93 2.05
0 2 -2 39.42 2.05
2 -2 0 38.17 2.05
2 0 -2 37.96 2.05
-2 0 2 37.35 2.06
2 0 2 40.43 2.05
-2 -2 0 35.84 2.05
0 -2 2 36.89 2.05
0 2 2 37.29 2.05
2 0 2 38.31 2.05
2 2 0 37.51 2.06
2 0 -2 38.66 2.06
2 0 2 38.97 2.05
2 0 2 38.15 2.05
0 -2 -2 36.8 2.05
0 -2 2 39.23 2.05
2 -2 0 43.34 2.06
-2 2 0 39.02 2.07
2 -2 0 38.04 2.05
0 -2 -2 37.84 2.06
2 1 2 11.54 0.64
2 -1 2 11.83 0.65
1 2 2 11.82 0.66
-2 -2 1 11.18 0.65
-2 -1 2 11.11 0.64
2 2 1 11.56 0.64
-2 -2 -1 12.61 0.65
2 2 -1 11.25 0.65
2 -1 2 11.57 0.63
2 -1 2 12.37 0.63
2 1 -2 10.94 0.65
2 1 2 11.66 0.64
-2 -2 -1 11.19 0.64
-2 -2 1 11.23 0.64
-2 -1 -2 11.29 0.64
-2 -1 2 12.02 0.63
-1 -2 -2 11.87 0.64
2 2 1 12.05 0.65
1 2 -2 11.69 0.63
1 2 2 12.23 0.63
2 -2 -1 12.59 0.63
2 -2 1 11.48 0.63
2 -1 -2 11.4 0.63
1 2 2 11.32 0.64
2 -2 -1 10.39 0.66
2 -2 1 11.43 0.63
2 -2 1 12.81 0.64
2 1 -2 12.23 0.63
2 1 2 11.95 0.63
2 2 -1 12.16 0.63
2 2 1 12.08 0.63
-2 2 1 11.45 0.66
-1 -2 2 11.28 0.66
-1 2 2 10.73 0.66
1 -2 2 11.57 0.66
-2 1 2 10.78 0.65
-2 2 -1 11.88 0.66
1 -2 -2 11.78 0.63
2 -1 2 11.88 0.63
-1 -2 2 11.65 0.63
1 -2 -2 11.67 0.63
1 -2 2 11.28 0.64
2 -2 -1 11.61 0.63
2 -2 1 10.85 0.64
2 -1 2 11.84 0.63
-2 -2 1 11.57 0.65
-2 -1 2 11.61 0.66
-2 1 2 11.17 0.64
-2 2 1 11.2 0.64
-1 -2 2 10.88 0.64
-1 2 2 12.07 0.64
1 -2 2 11.81 0.63
-2 2 2 13.4 0.76
2 2 -2 13.81 0.77
2 2 2 13.48 0.76
-2 2 2 12.96 0.78
2 2 2 13.94 0.77
2 -2 2 13.19 0.75
-2 -2 2 13.68 0.78
-2 -2 -2 13.79 0.75
-2 -2 2 14.09 0.75
-2 -2 -2 12.81 0.77
-2 -2 2 13.78 0.76
2 -2 -2 14.35 0.75
2 -2 2 14.34 0.75
2 2 -2 14.35 0.75
2 2 2 14.74 0.75
2 -2 -2 14.7 0.75
-2 2 -2 12.8 0.78
0 3 0 98.96 5.49
0 -3 0 96.38 5.47
0 0 -3 94.25 5.46
3 0 0 104.23 5.47
0 0 3 101.07 5.48
3 0 0 108.83 5.47
-3 0 0 96.35 5.47
0 0 3 101.92 5.48
-3 0 0 101.77 5.47
0 -3 0 114.8 5.48
-3 0 0 98.17 5.47
0 3 0 101.4 5.47
0 0 -3 105.65 5.47
-3 0 1 74.34 4
3 0 1 76.85 4
1 3 0 77.17 3.99
1 0 3 75.9 4
0 1 -3 78.01 4
1 -3 0 70.5 3.99
0 3 1 72.09 4
3 0 -1 74.04 4
3 -1 0 78.72 4
3 1 0 76.88 4.01
1 -3 0 71.21 4
0 -3 -1 73.41 3.99
1 0 -3 78.96 4
-3 0 -1 73.22 4
3 -1 0 75.36 4
3 1 0 75.84 4
0 -1 -3 82.78 3.99
-3 -1 0 73.6 4
-1 0 -3 78.01 4
0 -3 -1 71.16 4
0 -3 1 70.59 4
0 3 1 72.66 4.02
1 0 3 75.95 4.01
1 0 3 76.52 4
-1 -3 0 79.58 4.01
0 -1 3 70.03 3.99
0 -1 3 69.03 4
0 1 3 75.96 4
1 -3 0 72.25 4
1 -3 0 81.99 4.01
1 3 0 74.87 4.01
3 0 -1 74.55 4.01
3 0 1 68.79 4
3 0 1 78.96 4
0 1 3 73.74 4.01
-3 1 0 72.34 4
-1 0 3 76.62 4.02
0 3 -1 73.18 4.02
-3 0 1 73.42 4.01
-1 3 0 72.29 4.02
0 -1 3 77.83 4.02
-3 0 1 74.24 4
1 3 0 72.49 4.02
0 -3 1 65.78 4
0 -1 3 74.23 3.99
-3 -1 0 70.09 4
-3 1 0 69.26 4
-1 0 3 70.82 4
0 -3 1 78.78 4
0 -3 -1 73.17 4.01
-1 -3 0 73.04 4
0 -1 -3 77.03 4
-1 -3 1 26.81 1.44
3 1 1 29.04 1.44
3 1 -1 26.61 1.43
-1 1 3 25.7 1.43
3 1 1 27.48 1.43
-3 -1 -1 26.44 1.43
-1 3 1 25.57 1.45
3 -1 -1 27.31 1.43
1 1 3 26.18 1.44
1 3 -1 25.93 1.46
1 -3 -1 25.72 1.43
1 -3 -1 26.62 1.42
3 -1 1 27.1 1.43
1 -3 1 25.59 1.43
1 -3 1 28.94 1.43
-3 -1 -1 26.74 1.43
-3 -1 1 25.86 1.43
-3 1 1 24.97 1.43
-1 -3 -1 26.98 1.43
-1 -3 1 26.32 1.43
-1 -1 -3 26.03 1.43
-1 -1 3 26.87 1.42
1 -1 3 25.98 1.45
1 1 3 26.63 1.42
1 3 -1 26.09 1.42
1 3 1 26.67 1.42
-3 1 1 25.82 1.43
-1 -3 -1 25.73 1.45
-1 -1 3 27.23 1.46
-1 -1 3 25.57 1.43
3 -1 1 25.37 1.43
3 -1 1 27.29 1.43
1 -1 -3 26.74 1.43
1 -1 3 25.95 1.42
1 1 -3 26.64 1.42
1 1 3 26.21 1.43
-3 -1 1 25.9 1.44
-3 1 -1 27.81 1.43
-3 1 1 24.34 1.44
1 3 1 26.44 1.44
-1 1 3 25.72 1.44
-1 3 -1 26.37 1.46
1 3 1 26.13 1.45
3 1 -1 26.91 1.44
-1 3 1 26.39 1.43
3 -1 -1 29.44 1.44
1 -3 1 24.38 1.43
1 -1 3 25.59 1.42
3 -2 0 41.25 2.04
-3 0 -2 39.82 2.04
2 0 -3 38.46 2.03
0 -2 -3 37.57 2.03
-3 2 0 38.2 2.05
-2 0 3 38.93 2.06
-3 0 2 37.52 2.03
0 2 -3 39.36 2.03
2 -3 0 37.39 2.03
2 3 0 40.67 2.03
3 0 -2 37.29 2.03
0 -2 3 38.18 2.04
3 2 0 38.93 2.05
-2 -3 0 35.6 2.04
-3 0 2 36.69 2.05
-2 3 0 37.47 2.06
0 -2 3 37.84 2.06
0 2 3 37.72 2.05
2 3 0 38.55 2.06
0 -3 2 37.71 2.07
0 3 2 38.65 2.06
2 0 3 38.25 2.05
3 2 0 39.19 2.05
2 -3 0 37.85 2.04
2 -3 0 41.46 2.05
2 3 0 37.26 2.05
3 0 -2 35.78 2.05
3 0 2 37 2.03
0 -3 2 38.06 2.04
2 -3 0 37.38 2.04
-3 -2 0 37.76 2.05
-2 0 3 37.09 2.04
0 -3 -2 31.6 2.06
0 -3 2 32.59 2.04
0 -3 2 36.8 2.04
0 3 2 37.9 2.05
2 0 3 37.76 2.03
3 -2 0 38.3 2.04
-3 -2 0 37.17 2.04
0 -3 -2 38.13 2.03
3 0 2 37.66 2.03
3 -2 0 37.75 2.04
-2 0 -3 40.15 2.04
0 -3 -2 38.04 2.04
3 2 0 39.79 2.03
0 -2 -3 38.01 2.03
-3 0 2 37.1 2.04
-2 -3 0 38.25 2.05
0 -2 3 32.35 2.03
0 -2 3 33.62 2.03
0 2 3 38.17 2.04
3 -2 0 38.94 2.03
2 0 3 38.55 2.03
0 3 -2 37.84 2.03
3 0 2 39.68 2.04
3 2 1 28.19 1.46
3 1 -2 26.48 1.45
2 -3 1 25.39 1.45
-3 -2 1 26.79 1.47
2 -1 -3 26.64 1.45
3 -2 -1 27.67 1.45
2 -3 1 26.15 1.44
2 1 3 27.32 1.45
-2 3 1 27.36 1.46
-3 -2 1 25.83 1.45
3 2 1 27.47 1.45
-1 2 3 27.68 1.46
2 3 -1 26.12 1.46
3 -2 -1 27.2 1.46
-1 -2 -3 27.82 1.45
2 -3 1 27.82 1.45
1 -2 3 27 1.44
1 -3 -2 27.21 1.45
-2 -3 -1 23.97 1.47
3 -1 2 26.3 1.45
1 3 2 27.93 1.45
3 1 -2 25.55 1.47
1 -3 -2 25.43 1.49
1 -2 3 26.59 1.48
1 2 -3 27.17 1.45
1 3 2 27.23 1.48
-3 2 -1 28.74 1.47
2 1 3 28.26 1.46
3 2 1 26.16 1.46
3 -1 2 27.83 1.45
-3 -1 -2 27.97 1.46
-3 1 2 26.13 1.47
3 -2 -1 28.29 1.45
3 -1 2 26.5 1.45
-2 -3 -1 26.2 1.45
-1 -3 2 26.88 1.46
-2 -1 3 27.47 1.45
1 3 2 25.99 1.46
-1 -3 2 26.73 1.48
-1 3 -2 26.29 1.49
-2 -1 3 26.33 1.45
-2 3 1 25.72 1.48
-3 -2 1 25.88 1.47
-1 2 3 26.34 1.47
1 -3 -2 26.08 1.45
1 -2 3 24.84 1.45
2 3 -1 26.78 1.49
-3 1 2 26.59 1.46
-2 -1 3 27.9 1.49
2 1 3 27.51 1.45
2 -3 1 29.36 1.46
2 3 -1 26.72 1.44
-1 -3 2 28.24 1.45
-3 1 2 25.86 1.45
2 -1 3 27.05 1.47
3 -2 1 28.97 1.46
2 -1 3 27.24 1.45
2 1 -3 26.77 1.45
1 -3 2 26.65 1.45
2 -1 3 27.4 1.45
3 1 2 26.5 1.45
-3 -2 -1 26.42 1.46
2 3 1 26.53 1.46
2 -3 -1 22.42 1.48
1 3 -2 28.09 1.44
3 2 -1 26.17 1.47
1 2 3 28.53 1.47
3 -2 1 26.8 1.45
3 1 2 28.44 1.46
3 1 2 26.51 1.45
3 -1 -2 26.96 1.45
3 -2 1 26.93 1.45
3 2 -1 27.09 1.45
-1 -2 3 26.44 1.45
-3 -2 -1 26.35 1.45
-1 -2 3 22.54 1.46
-1 -2 3 27.25 1.48
-3 2 1 25.73 1.47
-3 -1 2 26.66 1.45
-2 1 3 27.69 1.47
1 -2 -3 27.6 1.45
-2 -3 1 26.08 1.45
-1 3 2 26.65 1.48
1 2 3 27.87 1.45
2 -3 -1 27.7 1.44
1 -3 2 24.46 1.44
2 -3 -1 26.33 1.45
-2 -1 -3 27.52 1.45
2 3 1 27.05 1.45
1 2 3 26.63 1.46
-1 3 2 28.57 1.46
3 -1 -2 26.62 1.47
-1 -2 3 28.67 1.45
1 -2 -3 28.44 1.45
-2 1 3 25.54 1.46
3 1 2 28.3 1.46
2 1 -3 25.41 1.46
-2 -3 1 26.89 1.46
-3 2 1 27.17 1.46
-3 -1 2 27.19 1.48
-3 1 -2 28.81 1.46
2 3 1 26.72 1.48
3 -2 1 26.38 1.45
1 -3 2 23.91 1.45
1 -3 2 25.35 1.45
-3 -1 2 26.41 1.46
-1 -3 -2 26.97 1.45
-2 3 -1 27.95 1.48
-2 1 3 24.24 1.44
-2 3 -2 10.76 0.66
-3 2 2 10.76 0.6
-2 -3 2 10.39 0.61
-3 2 -2 10.91 0.63
-3 -2 2 9.9 0.62
-3 -2 -2 10.23 0.59
-3 -2 2 10.39 0.59
-2 -3 -2 10.42 0.59
-2 -3 2 10.67 0.6
-2 -2 -3 10.2 0.59
-2 -2 3 10.33 0.59
2 -3 -2 10.9 0.59
2 -3 2 10.05 0.59
2 -2 -3 11.28 0.58
2 -2 3 9.91 0.59
3 -2 -2 12.21 0.59
3 -2 2 10.72 0.59
2 2 3 10.96 0.58
2 3 -2 10.44 0.58
-3 2 2 10.14 0.64
-2 -3 2 10.7 0.64
-2 -2 3 10.87 0.64
-2 2 3 11 0.63
3 2 2 10.67 0.58
-2 3 2 10.86 0.64
3 -2 2 10.63 0.59
2 -3 -2 10.66 0.58
2 -3 2 10.36 0.58
-3 -2 2 10.49 0.63
3 2 -2 9.91 0.62
3 2 2 10.93 0.61
2 -2 -3 10.68 0.58
2 -2 3 10.81 0.58
2 2 -3 10.76 0.58
3 -2 2 10.28 0.58
2 3 2 10.77 0.58
3 -2 -2 10.88 0.58
3 -2 2 10.53 0.58
3 2 -2 10.69 0.58
2 3 -2 9.3 0.61
2 3 2 9.46 0.61
3 -2 -2 9.95 0.62
2 -3 2 10.3 0.58
2 -3 2 10.69 0.59
-2 -2 3 10.72 0.6
-2 2 3 9.87 0.61
-2 3 2 10.63 0.6
2 -2 3 11.02 0.65
2 2 3 10.59 0.61
2 3 2 10.73 0.63
3 2 2 9.64 0.59
3 -3 0 27.75 1.53
3 -3 0 30.18 1.54
3 0 -3 24.31 1.54
3 3 0 29.32 1.52
-3 -3 0 27.17 1.53
-3 3 0 28.88 1.56
3 0 3 27.19 1.52
0 -3 -3 28.46 1.52
0 -3 3 26.73 1.52
0 3 3 28.72 1.54
3 -3 0 27.84 1.53
3 0 3 26.56 1.52
-3 0 3 27.42 1.53
-3 0 3 26.6 1.52
0 -3 -3 28.77 1.52
0 -3 3 28.25 1.52
0 3 3 27.81 1.55
3 0 3 28.69 1.53
3 0 -3 28.62 1.52
3 3 0 28.39 1.54
-3 0 -3 30.54 1.52
3 3 0 29.77 1.55
-3 0 3 28.7 1.56
-3 -3 0 27.77 1.54
0 3 -3 29.14 1.52
3 -3 0 27.9 1.52
0 -3 3 27.17 1.56
3 -3 1 10.24 0.58
1 -3 -3 9.83 0.56
3 3 1 9.66 0.61
3 -3 1 9.22 0.56
3 -1 -3 10.45 0.56
3 -1 3 10.33 0.56
-3 3 -1 10.8 0.64
-3 3 1 9.95 0.64
1 -3 3 9.46 0.57
3 1 -3 10.35 0.56
3 3 1 9.77 0.56
3 -3 -1 10.54 0.57
3 -1 3 10.18 0.61
3 1 3 10.84 0.58
-1 -3 3 10.08 0.58
-1 3 3 10.62 0.6
1 3 3 9.31 0.6
3 -3 -1 10.13 0.63
3 -3 1 10.36 0.57
3 -3 1 10.73 0.58
3 -1 3 10.55 0.56
-1 -3 3 10.33 0.63
-1 3 3 10.25 0.62
1 -3 3 10.55 0.65
1 3 -3 9.78 0.56
-3 -3 -1 10.1 0.58
-3 -3 1 9.7 0.58
-3 -1 -3 9.68 0.58
-3 -1 3 9.83 0.57
-3 1 -3 10.77 0.57
-3 1 3 9.32 0.56
-1 -3 -3 10.28 0.57
-1 -3 3 11.17 0.58
1 -3 -3 9.96 0.57
3 3 -1 9.74 0.56
3 -1 3 9.85 0.56
3 1 -3 9.38 0.61
3 1 3 10.21 0.58
-1 3 -3 10.9 0.56
-3 -1 3 9.49 0.65
-3 1 3 10.24 0.63
-3 -3 -1 9.1 0.6
-3 -3 1 10.53 0.61
-3 -1 3 10.83 0.59
-3 1 3 10.14 0.58
-3 3 1 9.46 0.58
3 3 -1 9.91 0.61
3 3 1 10.66 0.59
1 3 3 10.19 0.56
3 -3 -1 10.56 0.56
1 3 3 11.48 0.63
3 1 3 10.19 0.56
-2 -3 3 7.06 0.43
-2 3 3 6.3 0.42
2 3 3 7.42 0.45
3 -3 2 7.05 0.4
3 -3 2 7.12 0.4
3 -2 -3 6.59 0.46
3 2 3 7.01 0.43
3 3 -2 6.72 0.44
-3 -3 -2 6.52 0.41
-3 -3 2 6.72 0.41
-3 -2 -3 7.21 0.41
-3 -2 3 7.28 0.4
-2 -3 -3 6.45 0.41
-2 -3 3 6.26 0.41
2 -3 -3 7.3 0.39
2 -3 3 6.6 0.41
3 -3 -2 7.06 0.4
-3 3 2 6.67 0.42
3 -2 3 6.26 0.41
-3 -3 2 7.58 0.44
-3 -2 3 6.4 0.44
-3 2 3 7.26 0.42
-3 -3 2 6.87 0.48
-3 -2 3 7.65 0.49
-3 2 3 6.89 0.5
-3 3 -2 6.58 0.52
-3 3 2 7.17 0.49
-2 -3 3 6.84 0.48
-2 3 3 7.22 0.48
2 3 3 7.88 0.47
3 2 3 7.13 0.42
3 3 2 6.8 0.45
3 2 3 6.66 0.39
3 3 -2 5.63 0.39
3 3 2 6.42 0.39
2 3 -3 6.79 0.39
2 3 3 6.44 0.39
3 3 2 6.14 0.44
3 -3 2 6.59 0.38
3 -2 -3 6.72 0.39
3 -2 3 6.84 0.39
3 2 -3 6.48 0.39
3 -3 2 6.46 0.41
3 -3 -2 6.21 0.39
2 -3 3 6.3 0.38
2 -3 -3 6.51 0.39
3 -3 -3 1.45 0.16
3 3 3 1.38 0.15
3 -3 3 1.38 0.14
-3 3 3 1.94 0.37
-3 -3 3 1.56 0.28
3 3 3 1.36 0.29
-3 -3 3 1.88 0.35
-3 -3 -3 1.45 0.2
-3 -3 3 1.41 0.21
3 -3 -3 1.42 0.18
3 -3 3 1.46 0.2
3 -3 -3 0.7 0.26
3 3 3 1.52 0.22
3 3 -3 1.37 0.15
-3 3 3 1.61 0.22
0 0 4 15.45 0.76
0 0 -4 13.76 0.75
0 4 0 12.17 0.78
0 0 -4 14.68 0.76
4 0 0 12.52 0.76
4 0 0 15.2 0.79
-4 0 0 14.42 0.77
0 -4 0 13.5 0.77
0 -4 0 14.7 0.82
0 0 4 15.56 0.81
0 4 0 12.61 0.82
-4 0 0 11.98 0.76
0 -1 -4 3.19 0.19
-4 0 -1 3.73 0.24
-1 -4 0 3.91 0.24
0 -4 1 3.08 0.24
-4 0 1 3.77 0.24
0 -1 -4 2.95 0.2
0 1 -4 3.2 0.21
1 4 0 2.87 0.19
4 0 -1 3.4 0.21
4 0 1 3.02 0.22
4 0 -1 3.61 0.32
4 0 1 3.27 0.23
0 -1 4 3.71 0.21
-1 0 4 2.82 0.3
-4 1 0 3.45 0.24
-1 0 4 2.9 0.31
0 4 -1 3.46 0.32
0 4 1 3.27 0.32
1 0 4 2.99 0.32
4 -1 0 3.55 0.3
0 -4 -1 3.05 0.19
1 0 -4 3.19 0.2
1 0 4 3.46 0.21
4 -1 0 3.13 0.21
4 1 0 3.12 0.21
0 -1 4 2.75 0.26
-4 1 0 3.47 0.25
-1 0 -4 3.24 0.2
0 -4 -1 3.85 0.24
-1 4 0 3 0.32
0 -1 4 2.78 0.32
1 4 0 3.56 0.34
0 -4 -1 3.07 0.35
-4 -1 0 3.62 0.25
-4 1 0 3.9 0.23
-1 -4 0 3.3 0.33
0 4 1 3.69 0.27
0 -1 4 3.31 0.2
0 1 4 3.05 0.23
1 -4 0 3.32 0.25
1 4 0 3.16 0.26
1 -4 0 3.15 0.24
0 -4 1 2.53 0.32
1 0 4 3 0.21
-1 1 4 4.44 0.33
-1 -1 4 3.2 0.36
4 -1 1 4.17 0.3
1 -4 -1 3.52 0.23
1 -4 1 4.08 0.26
4 -1 1 3.67 0.25
-4 -1 -1 4.75 0.28
-4 -1 1 3.94 0.29
-4 1 -1 3.65 0.26
-1 4 -1 4.26 0.36
1 1 -4 3.87 0.24
1 -1 4 4.22 0.23
1 1 4 4.33 0.26
-4 -1 1 3.57 0.28
-4 1 -1 3.34 0.26
1 -1 4 3.93 0.24
1 -1 -4 3.68 0.24
1 -1 4 4.23 0.24
-4 1 1 4.4 0.28
-1 -4 1 4.75 0.33
-1 -1 4 4.62 0.25
-1 1 4 4.21 0.27
-1 4 1 3.88 0.29
1 -4 -1 4.1 0.37
1 -4 1 3.82 0.27
1 1 4 4.09 0.24
1 4 -1 3.4 0.22
1 4 1 3.47 0.23
4 -1 -1 4.03 0.24
1 4 -1 3.93 0.36
-4 -1 -1 3.92 0.28
-4 -1 1 4.11 0.27
4 1 1 3.64 0.24
-4 1 1 4.42 0.26
-1 -4 -1 4.5 0.27
-1 -4 1 4.4 0.28
-1 -1 -4 3.76 0.24
-1 -1 4 3.9 0.23
1 -4 -1 3.39 0.27
1 4 1 3.64 0.36
4 1 -1 4.45 0.34
4 1 -1 3.69 0.24
-1 4 1 3.89 0.34
1 -1 4 3.83 0.35
-4 1 1 3.71 0.3
0 2 -4 5.87 0.34
2 0 4 5.61 0.35
-4 0 -2 6.22 0.36
4 0 -2 5.39 0.34
-4 -2 0 5.67 0.39
-2 0 4 6.51 0.36
0 2 4 6.27 0.43
2 0 -4 5.76 0.34
0 -2 4 4.92 0.35
0 2 4 5.63 0.37
2 -4 0 5.43 0.38
-4 0 2 6.24 0.35
4 2 0 5.72 0.34
0 -4 2 5.41 0.4
4 -2 0 5.88 0.35
-4 -2 0 6.86 0.36
-2 0 -4 6.33 0.35
0 -4 -2 6.21 0.36
0 -4 2 5.81 0.37
4 -2 0 6.05 0.37
2 4 0 6.32 0.47
0 -2 -4 5.92 0.34
-4 2 0 6.39 0.42
-2 0 4 6.32 0.44
0 4 -2 5.47 0.44
0 4 2 6.16 0.43
2 0 4 6.27 0.43
4 2 0 5.75 0.37
2 -4 0 5.25 0.33
2 4 0 5.54 0.33
0 -4 -2 5.74 0.33
0 4 -2 5.16 0.32
2 4 0 6.09 0.38
4 0 -2 5.71 0.42
4 0 2 5.75 0.35
4 0 2 6.54 0.37
0 4 2 5.52 0.39
4 -2 0 6.68 0.36
-2 -4 0 6.66 0.41
-2 -4 0 5.64 0.37
-4 0 2 6.13 0.38
2 0 4 6.11 0.34
4 0 2 5.9 0.34
4 2 0 6.48 0.42
0 -2 4 6.07 0.34
2 -4 0 6.1 0.36
0 -2 -4 5.84 0.33
-2 4 0 5.67 0.44
0 -2 4 6.3 0.43
-4 0 2 5.08 0.4
2 4 -1 1.33 0.11
-4 -1 -2 1.36 0.21
-1 -2 -4 1.53 0.15
-2 -1 4 1.19 0.12
1 4 2 1.15 0.2
-4 1 2 1.18 0.24
-2 -4 -1 1.48 0.17
2 1 4 1.91 0.26
-2 4 1 1.76 0.27
4 1 -2 1.29 0.14
-2 -4 -1 1.53 0.26
1 -2 4 1.25 0.15
-1 -4 2 1.65 0.18
1 -4 -2 1.1 0.12
4 -1 2 1.11 0.16
1 4 2 1.06 0.12
2 -1 -4 1.49 0.12
2 4 -1 1.87 0.18
2 -4 1 1.53 0.18
2 1 4 1.66 0.14
4 -2 -1 1.48 0.14
-2 -1 4 1.12 0.27
-4 2 -1 1.6 0.24
1 -4 -2 1.43 0.18
1 -4 -2 0.98 0.33
-4 -2 1 1.51 0.2
1 2 -4 1.27 0.13
4 2 1 1.24 0.14
4 -1 2 1.57 0.18
-1 -4 2 1.66 0.19
-2 4 1 1.51 0.21
4 -1 2 1.71 0.14
2 4 -1 1.66 0.34
-1 2 4 1.09 0.19
-1 2 4 2 0.28
2 -1 -4 1.15 0.25
2 -4 1 1.58 0.27
4 1 -2 1.39 0.24
-4 -2 1 1.48 0.21
-1 4 -2 1.27 0.28
1 4 -2 1.24 0.29
2 1 -4 1.75 0.12
-2 -1 -4 1.02 0.17
2 -4 -1 1.88 0.17
4 -2 1 1.15 0.14
4 2 -1 1.36 0.14
-4 -1 2 1.24 0.25
2 -4 -1 1.07 0.12
2 -1 4 1.41 0.3
-4 -2 -1 1.89 0.23
2 -1 4 1.75 0.14
1 -4 2 1.26 0.17
-2 4 -1 1.42 0.3
4 -2 1 1.2 0.16
4 -2 1 1.48 0.2
4 2 -1 1.51 0.23
-4 1 -2 1.04 0.18
1 -4 2 1.41 0.23
2 4 1 0.98 0.12
4 -1 -2 1.59 0.14
-4 1 -2 1.76 0.17
2 4 1 1.27 0.22
1 -2 -4 0.57 0.32
-2 -4 1 1.4 0.18
4 1 2 1.76 0.13
1 2 4 1.43 0.14
-1 -2 4 1.93 0.26
-1 -4 -2 1.58 0.17
2 4 1 1.42 0.34
-4 -1 2 1.63 0.16
1 -4 2 1.46 0.17
2 -4 -1 1.8 0.3
-2 1 4 1.57 0.27
-1 4 2 1.68 0.23
-4 -1 2 1.84 0.23
-1 -2 4 1.75 0.14
1 -2 -4 1.57 0.11
-4 2 1 1.78 0.28
-1 -2 4 1.02 0.18
-1 2 -4 1.46 0.14
-2 1 4 1.34 0.18
1 2 4 1.87 0.18
1 -2 -4 1.26 0.13
-4 2 2 1.79 0.33
2 -4 2 1.12 0.16
2 4 2 1.61 0.35
2 -2 -4 1.14 0.29
2 2 4 1.78 0.18
2 -4 -2 1.46 0.13
4 -2 2 1.34 0.15
2 -4 -2 0.73 0.31
-4 -2 -2 1.68 0.19
-2 -4 -2 1.37 0.17
-2 -4 2 1.49 0.21
-2 -2 -4 1.68 0.18
-2 -2 4 1.14 0.15
2 -4 -2 1.62 0.17
2 -4 2 1.87 0.17
2 -2 4 1.48 0.17
-4 2 -2 1.1 0.26
4 -2 2 1.55 0.17
2 2 4 1.19 0.14
2 4 -2 1.13 0.11
2 4 2 1.27 0.13
4 2 -2 1.41 0.13
2 2 -4 1.68 0.13
2 4 2 1.39 0.21
4 -2 2 1.33 0.18
4 2 2 1.45 0.13
-2 -2 4 1.7 0.28
-2 2 4 1.44 0.29
-2 4 -2 1.39 0.32
-2 2 4 1.64 0.21
4 2 -2 1.35 0.23
4 2 2 1.16 0.19
4 -2 -2 1.25 0.15
4 -2 2 1.4 0.14
2 -4 2 1.15 0.11
-4 -2 2 1.33 0.22
2 -2 -4 1.54 0.13
2 -4 2 0.88 0.19
2 2 4 1.5 0.27
2 -2 4 1.61 0.14
-4 0 3 1.47 0.26
0 -3 -4 1.16 0.14
0 3 4 1.42 0.23
0 -4 3 1.25 0.19
0 4 -3 1.2 0.11
-4 0 3 1.26 0.14
0 -3 4 1.86 0.28
3 -4 0 1.3 0.12
3 4 0 1.1 0.13
4 0 -3 1.4 0.13
4 0 3 1.48 0.13
4 0 -3 1.78 0.24
-3 0 -4 1.42 0.18
0 4 3 0.95 0.2
3 0 4 1.62 0.14
3 0 4 1.25 0.15
0 -3 4 1 0.14
0 -3 4 1.26 0.16
4 0 3 1.28 0.16
3 -4 0 1.09 0.24
3 4 0 1.48 0.21
-3 -4 0 1.39 0.17
0 -3 -4 1.62 0.15
0 -3 4 1.31 0.17
4 0 3 1.58 0.15
3 0 -4 1.5 0.13
-4 3 0 1.52 0.27
4 3 0 1.24 0.21
3 -4 0 1.88 0.17
0 -4 -3 1.55 0.18
0 -4 3 1.27 0.19
4 -3 0 1.72 0.18
3 4 0 2.01 0.31
-3 4 0 1.36 0.28
-4 0 3 1.55 0.21
-3 -4 0 1.88 0.25
0 -3 -4 0.84 0.39
4 3 0 1.35 0.14
0 3 -4 1.24 0.13
3 0 4 1.61 0.27
4 3 0 1.34 0.26
-3 0 4 1.51 0.18
4 -3 0 1.29 0.14
3 0 4 1.42 0.13
0 -4 -3 1.26 0.13
-3 0 4 1.47 0.27
-4 -3 0 1.39 0.21
-4 0 -3 1.3 0.18
1 3 -4 1.61 0.14
-4 1 3 1.53 0.29
-1 -3 -4 1.66 0.16
4 3 1 1.16 0.2
4 3 1 1.45 0.22
3 -4 1 1.16 0.12
-1 4 -3 1.06 0.11
3 -1 -4 1.4 0.13
-1 -4 3 1.55 0.32
-1 4 -3 1.57 0.32
3 1 4 1.33 0.14
-3 4 1 1.65 0.33
-1 3 4 1.68 0.3
1 -3 4 2.04 0.33
3 1 4 1.66 0.16
3 4 -1 2.24 0.37
3 -4 1 1.65 0.2
3 4 -1 1.42 0.13
1 -3 4 1.61 0.18
3 -4 1 1.87 0.18
1 -4 -3 1.45 0.18
1 -4 -3 1.55 0.13
4 -1 3 1.54 0.14
-4 -3 1 1.93 0.2
-4 1 3 1.61 0.2
-3 -4 -1 0.85 0.22
-1 -4 3 2.01 0.22
4 -3 -1 1.35 0.14
-4 -1 -3 1.41 0.21
-1 3 4 1.24 0.19
-1 -4 3 1.69 0.2
3 4 -1 1.22 0.21
4 3 1 1.4 0.14
-3 -1 4 1.43 0.14
-3 -4 -1 1.26 0.17
1 4 3 1.29 0.21
3 -1 -4 1.15 0.24
-3 -1 4 1.63 0.31
4 -1 3 1.29 0.15
4 -1 3 1.42 0.16
4 1 -3 0.93 0.22
-4 3 -1 1.35 0.28
4 1 -3 1.38 0.14
3 1 4 1.42 0.25
-4 -3 1 1.72 0.23
-3 -1 4 1.28 0.19
-3 1 -4 1.3 0.17
4 -3 -1 1.38 0.19
-1 -3 4 1.75 0.28
4 1 3 1.24 0.19
-3 1 4 1.55 0.2
1 -3 -4 1.46 0.14
-3 -4 1 1.41 0.18
-1 3 -4 1.37 0.14
-1 -3 4 1.74 0.18
1 -3 -4 1.61 0.14
3 -1 4 1.62 0.12
3 -4 -1 1.87 0.18
4 -3 1 2.04 0.22
-1 -3 4 1.39 0.18
3 -1 4 1.63 0.12
-4 1 -3 1.21 0.18
1 3 4 1.76 0.34
3 4 1 1.74 0.3
4 3 -1 1.56 0.15
-3 -4 1 1.91 0.25
4 -1 -3 2.01 0.3
4 -1 -3 1.31 0.14
1 4 -3 1.36 0.12
-4 -1 3 1.54 0.33
3 -1 4 1.46 0.14
3 1 -4 1.55 0.13
-3 4 -1 1.76 0.32
4 -3 1 1.42 0.14
-1 4 3 1.12 0.2
-4 -1 3 1.43 0.19
3 -4 -1 1.13 0.13
-1 -4 -3 1.24 0.18
-1 4 3 1.75 0.3
3 4 1 1.05 0.13
1 -4 3 1.52 0.18
3 4 1 1.45 0.24
4 -3 1 1.63 0.19
4 1 3 1.46 0.14
-4 3 1 1.79 0.31
-3 -1 -4 1.34 0.2
-3 1 4 1.46 0.29
1 -3 -4 0.47 0.36
1 3 4 1.66 0.23
3 -4 -1 0.95 0.27
-4 -1 3 1.74 0.15
4 3 -1 1.31 0.22
-1 -4 -3 0.69 0.28
-4 -3 -1 1.72 0.19
2 4 3 0.99 0.34
3 4 -2 0.19 0.1
-2 4 -3 -0.01 0.32
3 -4 2 0.01 0.14
-3 4 2 0.6 0.28
-2 -4 3 0.25 0.2
4 -2 3 0.27 0.1
4 -2 3 0.28 0.1
4 -2 3 0.26 0.1
4 -3 -2 0.33 0.17
-3 -2 4 0.46 0.26
3 -2 -4 0.52 0.21
-2 -4 3 0.27 0.27
-4 -2 -3 0.2 0.19
2 -3 4 0.2 0.1
-4 2 3 0.03 0.11
-3 -4 -2 0.16 0.15
3 2 4 0.33 0.2
-2 -3 -4 0.37 0.16
3 -4 2 0.29 0.09
2 4 3 0.28 0.21
2 -3 4 0.29 0.15
4 -3 -2 0.25 0.12
3 -4 2 0.41 0.15
4 2 -3 0.25 0.11
-4 2 3 0.35 0.15
-3 -4 -2 0.15 0.23
-2 -4 3 0.39 0.16
-2 3 4 0.33 0.26
-2 3 4 0.26 0.15
-4 -3 2 0.58 0.27
4 3 2 0.25 0.11
2 -4 -3 -0.22 0.35
2 -4 -3 0.19 0.1
3 2 4 0.34 0.13
4 -3 -2 0.86 0.24
2 4 3 0.23 0.11
3 -2 -4 0.41 0.1
-4 -3 2 0.36 0.24
-4 -3 2 0.6 0.18
4 -2 3 0.34 0.11
-4 2 3 0.14 0.32
3 -4 2 0.41 0.13
-3 -2 4 0.3 0.14
4 3 2 0.17 0.2
2 3 -4 0.38 0.11
2 -4 -3 0.36 0.15
-4 3 -2 0.13 0.31
3 2 4 0.26 0.1
3 2 -4 0.44 0.11
4 2 3 0.26 0.16
3 -4 -2 0.42 0.16
-3 -4 2 0.47 0.19
3 -4 -2 0.47 0.29
2 -4 3 0.52 0.16
-3 2 4 0.45 0.15
-3 -4 2 0.57 0.21
-2 4 3 0.08 0.17
3 -2 4 0.3 0.15
2 -3 -4 0.29 0.13
-2 -4 -3 0.17 0.15
2 -4 3 0.25 0.08
2 4 -3 0.32 0.09
4 -3 2 0.46 0.13
4 -3 2 0.2 0.12
3 -2 4 0.88 0.3
-4 -2 3 -0.16 0.2
4 -2 -3 0.68 0.23
2 3 4 0.19 0.11
3 -4 -2 0.24 0.11
-2 -3 4 0.29 0.17
4 -3 2 0.47 0.16
3 4 2 0.31 0.11
4 -2 -3 0.27 0.11
4 -3 2 0.41 0.11
4 3 -2 0.21 0.11
4 2 3 0.37 0.1
3 4 2 0.09 0.3
-4 -3 -2 0.59 0.18
-2 4 3 0.65 0.25
-3 -2 -4 0.39 0.17
3 -2 4 0.37 0.11
2 -3 -4 0.44 0.11
-2 -3 4 0.55 0.25
2 -3 -4 0.66 0.33
2 3 4 0.38 0.16
2 3 4 0.33 0.29
-4 3 2 0.51 0.33
-3 4 -2 0.3 0.34
-2 -3 4 0.29 0.16
-3 2 4 -0.01 0.28
-4 -2 3 0.86 0.29
-4 2 -3 0.78 0.24
-4 -2 3 0.69 0.17
3 4 2 0.37 0.2
-4 3 3 0.62 0.38
3 4 -3 0.25 0.12
-3 -4 3 0.49 0.38
-4 3 -3 0.45 0.38
-4 -3 3 0.6 0.38
3 -4 -3 0.22 0.13
3 -4 3 0.38 0.11
3 -3 -4 0.23 0.12
3 -3 4 0.32 0.13
3 3 -4 0.38 0.14
3 3 4 0.27 0.13
-4 -3 3 0.21 0.28
-3 -4 3 0.29 0.23
-3 -3 4 0.39 0.22
-3 3 4 0.5 0.18
3 -4 -3 0.99 0.35
3 -3 -4 0.76 0.31
-4 -3 -3 0.52 0.21
-4 -3 3 0.63 0.21
-3 -4 -3 0.3 0.19
-3 -4 3 0.61 0.23
-3 -3 -4 0.49 0.2
-3 -3 4 0.54 0.2
3 -4 -3 0.35 0.18
3 -4 3 0.43 0.18
3 -3 4 0.19 0.19
4 -3 -3 0.05 0.18
4 -3 3 0.46 0.18
-3 4 3 0.39 0.33
3 3 4 0.64 0.3
3 4 3 -0.04 0.35
3 4 3 0.17 0.25
4 -3 -3 0.57 0.29
4 -3 3 0.27 0.1
4 3 3 0.23 0.21
-3 -3 4 0.66 0.35
-3 3 4 0.62 0.34
-3 4 -3 0.68 0.45
4 3 -3 0.41 0.13
3 4 3 0.24 0.13
4 -3 -3 0.38 0.14
4 -3 3 0.25 0.13
3 3 4 0.54 0.18
4 3 3 0.21 0.12
4 4 0 -0.4 0.21
0 4 -4 -0.01 0.09
4 -4 0 0.13 0.11
0 -4 -4 0.24 0.12
0 -4 4 0.07 0.18
4 -4 0 0.11 0.17
0 -4 4 0.35 0.28
0 4 4 0.23 0.33
-4 -4 0 -0.11 0.23
-4 0 4 0.01 0.15
0 -4 4 0 0.15
0 -4 4 0.06 0.13
0 4 4 0.13 0.2
0 -4 -4 0.29 0.16
-4 0 4 0.02 0.31
-4 4 0 0.08 0.36
4 0 -4 0.09 0.1
4 0 4 0.1 0.11
4 4 0 0.06 0.12
-4 0 -4 0.04 0.19
-4 -4 0 0.12 0.16
4 4 0 0.04 0.31
4 -4 0 0.19 0.2
4 0 4 0.17 0.1
-1 -4 4 0 0.14
-4 1 4 0.06 0.16
-4 -1 4 -0.02 0.35
-4 1 4 -0.09 0.36
-4 4 -1 -0.29 0.39
-4 -4 -1 0.03 0.16
-4 -4 1 0.03 0.17
-4 -1 -4 -0.1 0.21
-4 1 -4 0.08 0.17
-1 -4 -4 0.07 0.17
-1 -4 4 0.1 0.2
-4 4 1 -0.17 0.39
-1 -4 4 0.14 0.27
-1 4 4 0.17 0.3
1 -4 4 0 0.33
1 4 4 0.17 0.38
4 4 -1 0.56 0.4
4 4 1 -0.44 0.31
4 -4 -1 0.02 0.25
4 -4 1 0.01 0.16
4 -1 4 0.08 0.1
4 -1 4 0.1 0.09
4 -1 4 0.11 0.09
4 1 4 0.08 0.12
1 -4 -4 -0.04 0.16
1 -4 4 0.15 0.18
4 -4 -1 0.13 0.18
4 -4 1 0.13 0.17
-1 4 4 0.07 0.2
1 4 4 -0.04 0.22
4 1 -4 0.05 0.1
4 1 4 0.11 0.11
-4 -4 -1 0.26 0.25
-4 -4 1 0.03 0.25
-4 -1 4 -0.05 0.16
-1 -4 -4 0.01 0.12
-1 4 -4 -0.09 0.1
1 -4 -4 0.08 0.12
1 4 -4 0.13 0.1
4 -4 -1 -0.12 0.11
4 -4 1 0 0.11
4 -1 -4 0.13 0.1
4 -1 4 -0.08 0.12
4 4 1 0.07 0.11
4 4 1 0.02 0.22
4 4 -1 -0.09 0.12
-4 -2 -4 -0.3 0.23
2 -4 -4 0.18 0.13
2 4 -4 0.05 0.13
2 4 4 -0.06 0.14
4 -4 -2 0.16 0.13
4 -4 2 -0.04 0.12
-4 -2 4 0.3 0.19
4 -2 4 0.08 0.14
4 2 -4 0.04 0.13
4 2 4 -0.02 0.12
4 4 -2 -0.06 0.13
4 4 2 0.15 0.13
2 4 4 0.01 0.23
4 -4 -2 0.25 0.3
4 -4 2 -0.09 0.14
4 -2 -4 0.77 0.32
4 2 4 -0.04 0.15
-2 -4 -4 0.14 0.18
-2 -4 4 -0.2 0.25
2 -4 4 0.1 0.19
4 -4 -2 0.12 0.2
4 -4 2 -0.03 0.18
-2 4 -4 0.24 0.44
-2 4 4 0.27 0.32
-4 -4 2 0.05 0.28
-4 2 4 -0.01 0.18
4 4 2 0.12 0.26
-2 -4 4 0.02 0.32
4 -2 -4 -0.11 0.12
2 4 4 0.13 0.42
-2 -4 4 0.04 0.17
-2 4 4 0.04 0.2
2 -4 -4 0.18 0.41
-4 -2 4 0.31 0.41
-4 2 4 0.03 0.4
-4 4 -2 -0.09 0.49
-4 4 2 0.05 0.41
-4 -4 2 0.06 0.21
-4 -4 -2 0.01 0.19
3 4 4 0.21 0.42
-4 -3 4 -0.16 0.31
-3 -4 4 0.11 0.23
3 -4 -4 0.9 0.4
3 4 4 0.37 0.26
-3 -4 -4 0.12 0.22
-3 -4 4 0.16 0.28
4 3 4 0.09 0.21
4 4 3 0.27 0.29
4 -3 -4 0.33 0.16
4 -3 4 -0.05 0.14
4 3 -4 0.09 0.16
-4 -4 3 0.15 0.52
-4 -3 4 0.9 0.53
3 4 4 0.09 0.16
4 -4 -3 -0.05 0.16
-4 4 -3 -0.18 0.59
4 4 -3 0 0.15
4 -4 3 0.2 0.2
4 -4 -3 -0.05 0.22
4 4 3 0.25 0.15
4 -3 4 0.11 0.21
-4 3 4 0.77 0.5
3 -4 -4 0.16 0.16
3 -4 4 -0.01 0.13
3 4 -4 0.25 0.15
3 -4 4 0.42 0.22
-4 -4 3 0.49 0.31
-4 -4 3 0.25 0.27
-4 -3 -4 0.46 0.25
-4 -3 4 0.72 0.25
4 3 4 0.01 0.14
-3 4 4 0.67 0.4
-4 -4 -3 0.37 0.23
-3 -4 4 0.48 0.47
-4 4 3 0.41 0.49
4 -4 3 0.22 0.14
4 -4 -3 0.31 0.34
-4 -4 4 0.9 0.63
4 -4 -4 0.03 0.18
-4 4 -4 1.33 0.71
-4 4 4 0.82 0.57
4 4 4 0.35 0.16
-4 -4 4 0.54 0.3
4 -4 4 -0.13 0.23
-4 -4 -4 0.47 0.26
4 4 4 0.27 0.27
4 4 -4 0.15 0.17
-4 -4 4 0.12 0.31
4 -4 -4 0.88 0.41
5 0 0 0.69 0.19
0 -5 0 1.09 0.27
0 0 5 0.86 0.12
0 0 5 0.97 0.23
0 5 0 0.79 0.22
0 -5 0 1.09 0.16
-5 0 0 0.99 0.17
5 0 0 0.77 0.11
0 0 -5 0.86 0.11
0 -1 5 1.15 0.24
0 -1 -5 1.02 0.11
0 1 -5 1.19 0.12
5 0 -1 0.81 0.11
5 0 1 0.98 0.12
0 5 1 1.01 0.23
0 5 -1 0.84 0.23
-1 5 0 0.86 0.22
-1 0 -5 1.37 0.13
1 0 -5 0.95 0.1
1 0 5 1.08 0.11
0 1 5 1 0.13
1 -5 0 0.75 0.23
5 0 -1 0.87 0.21
-1 0 5 1.17 0.14
0 -5 -1 0.94 0.28
0 -5 1 1.17 0.23
5 1 0 1.01 0.22
1 -5 0 1.02 0.16
-5 0 1 1.11 0.17
-1 -5 0 1.16 0.17
5 -1 0 0.94 0.12
-5 -1 0 1.11 0.18
-5 1 0 0.94 0.15
-1 0 -5 0.78 0.12
0 -5 -1 1.1 0.17
0 -5 1 1.09 0.17
-5 0 1 0.66 0.17
-1 -5 0 1.03 0.26
0 -1 5 1.08 0.11
5 1 0 1.04 0.12
5 -1 0 0.87 0.19
1 0 5 1.57 0.32
-5 1 0 1.14 0.16
1 5 0 0.95 0.27
-1 0 5 1.2 0.24
-5 0 -1 1.1 0.17
5 0 1 0.74 0.17
1 1 5 0.23 0.09
-1 -5 1 0.33 0.16
-1 1 5 0.19 0.23
-1 -5 -1 0.34 0.15
1 -1 5 0.33 0.07
-5 1 1 0.22 0.14
-1 -1 -5 0.08 0.11
1 -1 -5 0.26 0.08
1 1 -5 0.12 0.08
5 -1 -1 0.15 0.1
5 -1 1 0.07 0.11
5 1 -1 0.22 0.09
5 1 1 0.22 0.1
1 -1 5 0.26 0.24
1 1 5 0.44 0.25
1 5 -1 0.16 0.24
-5 -1 1 0.19 0.16
-1 -5 -1 0.12 0.26
-1 -5 1 0.19 0.2
-1 -1 5 0.28 0.08
-1 1 5 0.42 0.11
1 -5 -1 0.22 0.26
5 1 1 0.07 0.18
-1 1 -5 0.18 0.11
-1 5 -1 0.24 0.22
1 -5 1 0.25 0.21
-1 -1 5 0.14 0.21
-5 -1 -1 0.27 0.17
-5 -1 1 0.34 0.15
-5 1 -1 0.24 0.14
-5 1 1 0.34 0.17
5 1 -1 0.16 0.22
-1 -1 -5 0.46 0.1
1 -5 -1 0.09 0.16
1 5 1 0.09 0.16
5 -1 -1 0.25 0.2
5 -1 1 0.17 0.14
-1 5 1 0.29 0.2
1 5 1 0.23 0.25
1 -5 1 0.37 0.14
0 -5 -2 0.52 0.18
-5 0 2 0.77 0.2
0 2 -5 0.61 0.11
0 -5 2 0.29 0.19
-2 0 5 0.54 0.11
-2 5 0 0.59 0.24
0 -2 5 0.44 0.23
-2 0 -5 0.42 0.13
2 -5 0 0.32 0.26
5 0 -2 0.23 0.24
5 0 2 0.3 0.14
-5 0 -2 0.74 0.18
0 2 5 0.4 0.12
5 0 2 0.37 0.1
0 -5 -2 0.65 0.08
2 0 -5 0.43 0.09
2 0 5 0.45 0.1
5 -2 0 0.61 0.12
5 2 0 0.47 0.11
-2 0 5 0.52 0.24
0 5 2 0.22 0.18
2 0 5 0.35 0.08
-5 0 2 0.34 0.16
0 -5 2 0.58 0.17
5 0 -2 0.39 0.1
0 -2 -5 0.36 0.1
0 -5 -2 0.39 0.32
2 5 0 0.51 0.07
-5 -2 0 0.5 0.16
0 5 -2 0.29 0.23
0 5 2 0.54 0.24
2 0 5 0.93 0.28
-2 -5 0 0.52 0.23
0 -2 5 0.04 0.15
-5 2 0 0.16 0.2
2 5 0 0.35 0.33
5 -2 0 0.21 0.17
-5 2 0 0.2 0.14
0 2 5 0.46 0.25
2 -5 0 0.53 0.15
5 2 0 0.16 0.23
0 -2 5 0.41 0.1
-2 -5 0 0.43 0.15
-5 0 2 0.54 0.16
-1 -5 2 0.44 0.19
2 5 -1 0.38 0.34
-2 1 -5 0.64 0.13
-5 2 -1 0.16 0.14
5 -2 -1 0.4 0.12
-1 -2 -5 0.36 0.12
-1 -2 -5 0.73 0.13
1 -5 -2 0.14 0.35
2 1 5 0.94 0.28
-1 -5 2 0.44 0.18
2 -5 1 0.33 0.14
-1 2 5 0.4 0.25
2 -5 1 0.07 0.22
-2 -5 -1 0.39 0.15
1 -5 -2 0.6 0.09
-5 1 2 0.33 0.15
-2 -5 -1 0.22 0.26
2 1 5 0.39 0.1
-5 -2 1 0.7 0.18
1 5 2 0.39 0.19
-2 -1 5 0.28 0.27
-2 -1 5 0.39 0.1
-1 5 -2 0.28 0.24
1 5 2 0.43 0.31
1 2 -5 0.46 0.11
-5 1 2 0.64 0.25
1 -2 5 0.69 0.28
5 -1 2 0.41 0.11
1 -2 5 0.4 0.13
2 1 5 0.32 0.1
-5 1 2 0.29 0.15
-5 -1 -2 0.58 0.19
5 -1 2 0.25 0.13
5 2 1 0.04 0.21
-5 -2 1 0.75 0.23
-1 2 5 0.42 0.13
5 2 1 0.4 0.11
5 1 -2 0.38 0.1
-5 -2 1 0.6 0.17
2 -1 -5 0.45 0.09
-2 5 1 0.34 0.24
5 1 -2 0.11 0.23
5 -2 -1 0.15 0.22
1 -5 -2 0.59 0.18
5 2 -1 0.41 0.11
-1 2 -5 0.4 0.13
2 5 1 0.72 0.36
-2 -5 1 0.36 0.16
5 -2 1 0.51 0.13
-2 -5 1 0.52 0.22
-1 -2 5 0.28 0.22
2 -5 -1 0.13 0.32
5 -2 1 0.23 0.15
1 2 5 0.46 0.28
-2 -1 -5 0.58 0.15
2 5 1 0.3 0.08
-5 2 1 0.18 0.14
1 -2 -5 0.52 0.1
-5 -1 2 0.41 0.15
2 -5 -1 0.42 0.16
-5 -2 -1 0.47 0.18
-2 1 5 0.34 0.28
-5 1 -2 0.42 0.16
-2 1 5 0.54 0.13
5 1 2 0.45 0.1
5 -1 -2 0.34 0.1
5 2 -1 0.22 0.25
2 5 1 0.34 0.19
5 -1 -2 0.36 0.25
1 2 5 0.33 0.12
1 5 -2 0.55 0.24
-5 2 1 0.22 0.25
1 -5 2 0.3 0.2
5 1 2 0.19 0.16
2 -1 5 0.38 0.11
1 -5 2 0.51 0.16
-1 5 2 0.41 0.24
2 1 -5 0.4 0.09
-2 5 -1 0.31 0.27
-1 -5 -2 0.28 0.3
2 -1 5 0.32 0.29
-1 -5 -2 0.49 0.17
2 2 5 0.03 0.11
5 2 -2 0.33 0.11
-5 2 -2 0.09 0.15
-5 -2 2 -0.15 0.24
-5 -2 2 0.75 0.27
-2 2 5 0.3 0.16
-5 -2 -2 -0.14 0.2
-5 -2 2 0.13 0.16
5 -2 -2 0.19 0.12
2 -5 2 -0.16 0.2
2 -2 -5 0 0.09
5 2 2 0.2 0.11
2 -5 -2 0.15 0.38
2 5 2 -0.27 0.39
5 2 -2 -0.2 0.27
5 2 2 0.01 0.2
2 -5 2 0.16 0.16
2 -2 5 -0.02 0.15
-5 2 2 0.23 0.33
-2 -2 5 -0.16 0.24
-2 2 5 0 0.27
-2 -5 -2 0.29 0.3
2 -5 -2 0.26 0.18
2 -2 5 0.12 0.36
2 5 2 0.04 0.11
2 5 -2 0.17 0.38
-2 -2 -5 0.17 0.16
-2 -5 2 0.02 0.2
2 5 2 -0.03 0.24
2 -2 5 0.2 0.12
2 2 -5 0.23 0.11
2 2 5 0.2 0.11
-2 -5 2 -0.07 0.21
-2 5 -2 0.26 0.32
2 2 5 0.36 0.3
5 -2 -2 0.13 0.28
-5 2 2 0.01 0.14
-2 -5 -2 0.18 0.18
5 -2 2 0.17 0.13
-2 5 2 0.1 0.26
5 -2 2 0.07 0.14
5 -3 0 0.07 0.2
3 5 0 0.4 0.1
0 3 5 0.99 0.34
-5 0 -3 0.54 0.21
0 3 -5 0.54 0.14
0 -5 -3 0.6 0.21
0 -5 3 0.58 0.21
5 3 0 0.58 0.27
0 -5 -3 0.81 0.35
0 -5 3 0.34 0.19
5 0 -3 0.47 0.12
-3 -5 0 0.39 0.17
3 0 5 0.44 0.14
3 5 0 0.44 0.45
0 3 5 0.41 0.17
-3 0 5 0.62 0.14
-5 3 0 -0.25 0.36
5 0 3 0.37 0.14
5 0 3 0.43 0.12
0 5 -3 0.43 0.3
-5 -3 0 0.4 0.18
3 0 5 0.31 0.09
-3 0 -5 0.71 0.19
-5 0 3 0.41 0.15
0 -3 -5 0.45 0.13
0 -3 5 0 0.16
3 0 5 0.57 0.12
-5 0 3 0.33 0.2
3 -5 0 0.51 0.26
5 0 -3 0.15 0.28
0 -3 5 0.71 0.16
3 -5 0 0.22 0.17
5 -3 0 0.51 0.19
-5 0 3 0.87 0.33
-3 5 0 0.27 0.36
0 -3 5 0.39 0.28
3 0 -5 0.51 0.1
0 -3 5 0.64 0.12
0 5 3 0.35 0.23
5 -3 0 0.41 0.14
5 3 0 0.53 0.14
-3 -5 0 0.15 0.26
0 5 3 0.61 0.34
0 -5 -3 0.65 0.11
-3 0 5 0.76 0.32
-3 1 -5 0.19 0.17
5 3 1 0.03 0.12
5 -1 3 -0.03 0.12
5 -3 -1 0.13 0.14
5 -3 -1 0.27 0.2
-3 5 1 0.04 0.33
-3 -1 5 -0.02 0.35
1 3 -5 -0.07 0.13
-1 3 5 0.17 0.32
1 5 3 0 0.42
3 1 5 0.2 0.12
-3 -5 -1 0.12 0.16
1 -5 -3 0.16 0.11
-3 -5 -1 0.16 0.27
3 -1 -5 0.12 0.1
-5 -1 -3 -0.06 0.22
-1 3 5 0.21 0.18
-1 -5 3 0.21 0.22
-5 1 3 0.12 0.15
3 -5 1 -0.05 0.22
1 5 3 -0.18 0.26
3 1 5 -0.01 0.1
-5 1 3 -0.17 0.18
3 -5 1 0.08 0.16
5 3 1 0.05 0.26
5 1 -3 0.06 0.11
-1 -3 -5 0.15 0.14
1 -5 -3 0 0.21
5 -3 -1 -0.21 0.27
-5 1 3 0.23 0.36
3 5 -1 0.17 0.1
-3 -1 5 0.07 0.12
-1 -3 -5 0.25 0.15
5 -1 3 0.05 0.12
-1 -5 3 -0.12 0.19
1 -5 -3 0.19 0.42
1 -3 5 -0.11 0.35
-5 -3 1 0.24 0.22
3 5 -1 0.3 0.49
-1 5 -3 0.15 0.32
1 -3 5 0.02 0.16
-5 -3 1 0.17 0.27
1 -3 -5 0.14 0.12
1 3 5 0.72 0.38
-3 -5 1 -0.46 0.27
-1 -3 5 0.19 0.14
-1 -3 5 0.15 0.27
-5 1 -3 0.11 0.18
-1 -3 5 0.08 0.15
5 -3 1 0.26 0.18
-3 -5 1 0.18 0.17
-3 1 5 0.26 0.16
-1 -5 -3 0.38 0.31
-1 3 -5 0.09 0.14
3 -5 -1 0.3 0.18
1 -5 3 0.02 0.16
3 -1 5 0.03 0.13
-1 -5 -3 0.09 0.1
5 -3 1 0.18 0.14
-5 -1 3 0.11 0.21
-3 5 -1 0.06 0.4
3 5 1 0.15 0.1
5 3 -1 -0.07 0.28
5 -1 -3 -0.25 0.29
1 3 5 0.02 0.16
-5 3 1 -0.29 0.35
3 -5 -1 0.31 0.31
1 -5 3 -0.17 0.18
-3 -1 -5 -0.32 0.2
-1 -5 -3 0.16 0.2
5 -3 1 -0.01 0.15
5 -1 -3 0.09 0.12
5 1 3 0.17 0.14
-3 1 5 0.05 0.36
3 -1 5 0.31 0.36
3 5 1 -0.3 0.43
5 3 -1 0.13 0.13
1 -5 3 0.07 0.18
-5 -1 3 0.75 0.36
5 1 3 0.02 0.11
1 5 -3 -0.29 0.32
-1 5 3 0.17 0.3
-5 -1 3 0.15 0.15
-5 -3 -1 0.16 0.2
3 1 -5 0.13 0.1
2 5 3 -0.32 0.51
-5 -3 2 0.47 0.38
5 -2 3 0.26 0.12
5 2 -3 0.17 0.13
3 -5 2 -0.11 0.18
2 -3 5 0.11 0.19
2 -5 -3 0.28 0.21
-2 3 5 0.21 0.2
2 -5 -3 0.19 0.13
-5 2 3 -0.23 0.15
-5 2 3 0.65 0.44
3 2 5 0.84 0.35
3 5 -2 0.15 0.59
2 5 3 0.1 0.13
-2 5 -3 0.58 0.43
5 3 2 -0.13 0.25
-3 -2 5 0 0.35
5 3 2 0.19 0.13
2 -3 5 0.19 0.46
3 -2 -5 0.05 0.11
-2 -5 3 -0.22 0.2
-5 -3 2 -0.1 0.24
3 -5 2 0 0.18
-3 5 2 0.08 0.38
-2 -5 3 0.5 0.27
2 -5 -3 -0.29 0.44
-2 3 5 0.43 0.34
2 5 3 0.42 0.28
5 -2 3 0.39 0.14
-3 -5 -2 0.15 0.18
3 2 5 0.02 0.12
-2 -3 -5 0.48 0.19
2 3 -5 0.04 0.14
-5 -2 -3 -0.03 0.23
-5 -3 2 -0.01 0.31
3 2 5 0.2 0.13
5 -3 -2 -0.39 0.3
5 -3 -2 -0.04 0.15
-5 -2 3 0.15 0.28
5 -2 -3 0.06 0.14
-3 2 5 0.55 0.19
3 -2 5 0.31 0.44
3 -5 -2 0.12 0.21
-3 2 5 0.17 0.37
2 3 5 -0.11 0.16
3 5 2 -0.18 0.29
5 -3 2 0.16 0.14
5 -3 2 0.24 0.19
-3 -5 2 0.42 0.22
2 -3 -5 0.13 0.13
2 3 5 0.08 0.13
-2 -3 5 0.22 0.17
2 5 -3 -0.7 0.44
3 5 2 -0.55 0.47
-2 5 3 0.29 0.34
3 -2 5 0.29 0.14
-5 2 -3 0.27 0.18
2 -5 3 -0.09 0.19
-3 -2 -5 0.27 0.22
-2 -5 -3 -0.02 0.21
5 -3 2 0.17 0.14
3 5 2 0.16 0.12
5 2 3 0.06 0.19
-5 3 2 0.39 0.44
-5 -3 -2 0.1 0.22
5 2 3 -0.05 0.12
-3 5 -2 0.09 0.52
3 -5 -2 0.29 0.36
-5 -2 3 0.34 0.24
5 3 -2 -0.11 0.14
5 -2 -3 -0.06 0.34
-2 -3 5 0.16 0.33
-3 -5 2 -0.3 0.26
2 -5 3 0.05 0.14
3 2 -5 -0.05 0.13
-5 -3 3 0.98 0.51
-5 3 3 1.34 0.55
5 3 -3 0.18 0.15
5 -3 -3 0.14 0.34
5 -3 3 0.23 0.16
-5 -3 3 0.48 0.36
-5 3 3 0.45 0.15
-3 -3 5 -0.04 0.23
3 -5 -3 0.18 0.15
5 3 3 0.19 0.14
3 -5 3 0.25 0.2
3 -3 5 0.21 0.21
-3 -3 -5 0.55 0.23
3 3 5 0 0.17
5 -3 -3 -0.07 0.16
3 -3 -5 -0.17 0.14
3 -3 5 0.4 0.15
3 3 -5 0.17 0.18
3 3 5 0.15 0.14
3 5 3 -0.04 0.15
-3 -5 -3 0.34 0.21
-3 -5 3 0.36 0.3
3 -5 3 0.02 0.13
-3 -5 3 -0.09 0.26
3 5 -3 1.2 0.66
-5 -3 3 0.4 0.26
-3 -3 5 0.22 0.46
-3 3 5 0.59 0.44
-3 5 -3 0.15 0.63
-3 5 3 -0.1 0.42
3 -3 5 0.28 0.57
3 5 3 0.72 0.31
-5 -3 -3 0.1 0.25
-3 3 5 0.53 0.22
3 -5 -3 0.52 0.4
3 -5 -3 0.44 0.23
5 -3 3 0.24 0.14
5 3 3 -0.06 0.25
0 -5 4 -0.26 0.18
0 -4 5 0.2 0.16
-4 0 -5 -0.32 0.23
-4 0 5 -0.03 0.18
4 -5 0 -0.39 0.19
0 4 -5 -0.09 0.14
4 5 0 0.16 0.13
-5 0 4 0.59 0.48
4 0 5 -0.05 0.1
5 0 4 -0.23 0.11
0 5 4 0.02 0.25
4 0 -5 -0.13 0.12
5 0 -4 0.07 0.12
-5 0 4 -0.37 0.21
0 -4 5 -0.47 0.39
-4 -5 0 0.32 0.17
0 -4 5 -0.1 0.21
0 4 5 0.37 0.45
4 5 0 -0.58 0.53
5 -4 0 0.02 0.21
5 -4 0 -0.03 0.15
0 5 4 -0.58 0.39
-5 0 -4 -0.11 0.24
4 0 5 0.15 0.12
0 -4 5 -0.12 0.15
4 -5 0 0.09 0.23
5 0 4 -0.11 0.12
-5 -4 0 -0.19 0.2
0 4 5 -0.06 0.23
0 -5 -4 0.24 0.24
0 -5 4 -0.07 0.24
0 -4 -5 -0.01 0.15
5 -4 0 -0.35 0.23
5 4 0 0.13 0.15
0 -5 -4 -0.09 0.15
-4 0 5 -0.03 0.48
-5 -1 -4 -0.34 0.25
-1 4 5 -0.16 0.24
-1 -5 4 -0.39 0.27
-1 5 -4 -0.43 0.44
5 -4 -1 -0.28 0.25
5 -1 4 -0.08 0.13
1 -4 5 0.13 0.21
-5 1 4 -0.09 0.5
-1 -5 4 -0.26 0.15
-4 -1 5 -0.27 0.49
4 1 5 -0.18 0.11
5 1 -4 -0.16 0.13
4 1 5 -0.11 0.12
-1 -4 -5 -0.11 0.15
-4 5 1 -0.72 0.53
-4 -1 5 -0.32 0.17
1 4 -5 0.22 0.15
-4 -5 -1 0.11 0.17
4 5 -1 -0.03 0.6
5 -1 4 0.02 0.11
1 -4 5 -0.52 0.48
-5 -4 1 -0.38 0.22
1 5 4 0.16 0.26
-4 1 -5 -0.3 0.21
4 5 -1 0.17 0.14
-5 -4 1 -0.2 0.31
4 -1 -5 -0.11 0.12
5 -4 -1 -0.03 0.15
5 4 1 -0.11 0.29
4 -5 1 -0.28 0.19
4 -5 1 -0.03 0.19
5 4 1 -0.08 0.15
1 -5 -4 -0.07 0.14
1 -5 -4 0.04 0.24
-5 1 4 -0.24 0.2
-1 4 5 0.58 0.4
1 5 4 -0.31 0.49
5 -4 -1 -0.02 0.22
1 4 5 -0.07 0.22
5 -4 1 0.04 0.2
1 4 5 0.6 0.51
-4 1 5 -0.28 0.5
1 -5 4 0.09 0.23
-1 -4 5 0.07 0.15
5 4 -1 -0.11 0.15
5 -4 1 0.21 0.15
-5 1 -4 -0.24 0.21
5 -1 -4 -0.01 0.12
-1 -4 5 -0.27 0.22
5 1 4 -0.08 0.13
4 5 1 0.18 0.13
-1 5 4 -0.11 0.37
-4 -1 -5 -0.38 0.25
-4 5 -1 -0.91 0.59
4 -5 -1 -0.16 0.21
4 1 -5 -0.09 0.12
-1 -4 5 -0.37 0.35
4 -1 5 -0.05 0.13
-1 -5 -4 -0.11 0.24
-1 -5 -4 -0.12 0.14
-5 -1 4 0.07 0.51
-1 4 -5 -0.24 0.15
1 -4 -5 -0.16 0.15
-5 -1 4 -0.34 0.23
-4 -5 1 -0.41 0.29
-5 -4 -1 -0.07 0.2
-4 1 5 0.23 0.19
5 -4 1 -0.31 0.18
-4 -5 1 0.03 0.19
5 1 4 0.01 0.11
4 -5 -1 -0.3 0.29
4 -2 -5 0.12 0.14
4 2 5 -0.2 0.13
-2 -5 4 0.17 0.33
4 2 5 0.04 0.13
5 -4 -2 -0.18 0.16
5 -4 -2 -0.31 0.23
4 -5 2 -0.2 0.19
5 -2 4 0.04 0.15
-2 -5 4 0.04 0.48
-2 5 -4 0.44 0.6
-4 2 -5 0.44 0.22
4 5 -2 -0.12 0.15
-4 5 2 -0.6 0.55
4 -5 2 -0.08 0.17
2 -5 -4 0.14 0.15
2 5 4 -0.18 0.15
2 5 4 0.05 0.3
-5 -2 -4 -0.21 0.27
-2 -4 -5 0.17 0.22
5 -4 -2 -0.13 0.3
-2 4 5 -0.04 0.22
5 4 2 -0.31 0.3
2 -4 5 -0.47 0.59
-5 -4 2 -0.02 0.34
5 4 2 0.25 0.16
4 5 -2 0.51 0.73
-2 -5 4 -0.2 0.18
-5 2 4 0.3 0.55
2 -4 5 0.24 0.22
-4 -2 5 -0.34 0.54
2 4 -5 0.07 0.17
-2 4 5 0.36 0.43
5 -2 4 0.17 0.11
-4 -5 -2 -0.04 0.19
-5 -4 2 -0.08 0.25
5 2 -4 -0.08 0.15
2 4 5 -0.19 0.16
-4 2 5 0.45 0.52
4 5 2 0.18 0.14
-4 5 -2 -0.89 0.71
-5 -2 4 1.23 0.57
5 -4 2 0.4 0.15
-2 4 -5 0.22 0.17
4 -2 5 0.08 0.16
-2 -4 5 0.01 0.26
2 4 5 0.72 0.54
-5 -2 4 -0.25 0.31
-4 -5 2 -0.4 0.3
-2 -4 5 0.16 0.17
5 -4 2 -0.09 0.15
2 4 5 0.19 0.24
4 -5 -2 -0.15 0.33
5 4 -2 -0.26 0.16
4 5 2 -0.28 0.32
-2 -4 5 -0.5 0.42
5 2 4 -0.05 0.16
-2 5 4 0.09 0.42
-5 2 -4 0.17 0.21
5 -2 -4 0.05 0.14
-4 -5 2 0.17 0.25
2 -4 -5 0.14 0.16
-5 -4 -2 -0.23 0.22
-4 2 5 0.32 0.22
4 -5 -2 -0.26 0.23
5 -4 2 -0.02 0.2
-2 -5 -4 0 0.24
4 2 -5 -0.12 0.15
2 -5 4 0.12 0.22
-5 4 2 -0.48 0.56
5 2 4 -0.12 0.12
-4 -2 -5 -0.02 0.26
-5 -4 3 0.02 0.29
-5 3 4 1.15 0.65
3 5 4 0.09 0.16
5 -4 -3 -0.02 0.18
3 4 -5 0.11 0.18
-3 -4 -5 0.39 0.24
3 -5 -4 -0.07 0.18
-3 -5 4 0.32 0.64
-4 5 3 -0.42 0.58
-5 -4 3 0.19 0.61
5 3 -4 0.09 0.17
-4 -3 5 -0.03 0.66
5 4 3 0.1 0.3
-3 4 5 0.65 0.54
-3 5 -4 1 0.76
4 -3 -5 -0.05 0.17
4 -5 3 0.07 0.21
4 3 5 0.01 0.15
-3 -5 4 0.18 0.34
-4 -3 5 -0.39 0.31
-3 -5 4 -0.26 0.23
3 5 4 0.2 0.32
4 3 5 -0.08 0.17
5 -4 -3 -0.44 0.33
-5 -4 3 0.08 0.36
5 -3 4 0.01 0.17
-5 -3 -4 -0.05 0.3
5 4 3 0.14 0.16
-4 -5 -3 0.39 0.22
3 -4 5 0.08 0.24
4 5 3 -0.04 0.15
-4 -5 3 -0.37 0.32
-5 -4 -3 0.11 0.25
4 5 3 -0.24 0.34
5 3 4 0.04 0.22
-3 -4 5 -0.04 0.6
3 -4 -5 0.05 0.17
5 -4 3 0.37 0.16
5 4 -3 -0.1 0.17
-5 -3 4 0.12 0.36
3 4 5 -0.05 0.24
-4 -5 3 0.47 0.3
3 4 5 0.78 0.52
5 -3 -4 0.15 0.17
4 -5 -3 -0.32 0.24
4 -3 5 -0.09 0.17
4 3 -5 -0.04 0.18
-4 3 5 0.92 0.61
-5 -3 4 0.8 0.65
4 -5 -3 0.36 0.37
-4 5 -3 -0.18 0.8
-4 -3 -5 0.16 0.28
-3 -5 -4 0.24 0.24
5 -4 3 -0.02 0.14
3 -5 4 -0.01 0.23
5 -4 3 0.09 0.22
-3 -4 5 0.08 0.22
-3 5 4 -0.27 0.52
3 4 5 0.11 0.16
-5 4 3 0.45 0.63
5 3 4 0.08 0.15
-5 -4 4 -0.31 0.37
-4 -5 -4 0.51 0.25
-4 -4 5 -0.18 0.3
-4 4 5 0.8 0.68
-4 5 -4 -0.32 0.85
-4 5 4 -0.21 0.67
-4 -5 4 -0.31 0.31
4 5 4 0.03 0.33
5 4 4 -0.04 0.3
5 4 4 -0.03 0.3
-4 -5 4 0.14 0.35
-4 -4 -5 0.3 0.27
-5 -4 4 0.37 0.33
4 -5 4 -0.32 0.23
4 -4 5 -0.33 0.25
5 -4 4 -0.2 0.23
4 4 5 -0.11 0.24
-5 -4 4 0.32 0.71
-5 4 4 1.02 0.73
-4 -5 4 0.37 0.76
4 4 -5 -0.5 0.19
4 4 5 0.16 0.18
4 5 4 -0.1 0.17
-4 -4 5 0.25 0.77
5 4 -4 -0.23 0.18
5 4 4 -0.04 0.17
-5 -4 -4 0.3 0.29
5 -4 -4 -0.07 0.19
4 -4 -5 -0.01 0.2
4 -5 -4 -0.11 0.19
0 -5 5 -0.15 0.53
0 5 5 0.22 0.6
5 -5 0 -0.12 0.21
5 0 5 -0.01 0.11
0 -5 5 -0.05 0.25
5 5 0 0.13 0.16
5 0 5 0.02 0.13
-5 0 5 -0.12 0.22
0 -5 5 0.09 0.19
0 5 5 0.68 0.28
5 -5 0 -0.13 0.22
-5 -5 0 0.03 0.18
-5 0 -5 -0.19 0.29
0 -5 -5 -0.05 0.18
5 0 -5 -0.14 0.12
1 -5 5 -0.48 0.25
5 -5 -1 -0.3 0.24
5 -5 1 -0.31 0.21
-1 -5 5 -0.23 0.55
5 1 -5 -0.11 0.14
5 1 5 0.07 0.13
-1 -5 5 -0.02 0.28
5 5 1 0.28 0.16
1 5 5 0.09 0.27
5 -5 -1 -0.04 0.27
-5 1 -5 -0.28 0.24
-5 -5 -1 0.05 0.19
-5 -5 1 0.31 0.21
-5 -1 -5 -0.69 0.3
-5 -1 5 0.59 0.67
5 -1 -5 0.02 0.13
5 -1 5 -0.01 0.14
-1 5 5 0.26 0.55
1 5 5 0.43 0.64
5 1 5 0.09 0.12
-1 -5 5 -0.13 0.15
-5 -5 1 -0.04 0.31
-5 -1 5 -0.48 0.24
5 -5 1 -0.13 0.21
5 -1 5 -0.01 0.11
-5 1 5 -0.12 0.22
-1 -5 -5 0.19 0.18
1 -5 -5 -0.15 0.18
5 5 -1 0.06 0.17
-2 -5 -5 0.61 0.26
-5 -2 -5 -0.67 0.31
-5 2 -5 0.15 0.25
5 5 2 0.08 0.17
-5 -5 2 0.22 0.27
-2 -5 5 0.11 0.63
-5 -5 -2 0.13 0.21
-2 -5 -5 0.43 0.18
2 -5 -5 -0.24 0.18
-2 5 5 0.37 0.54
2 5 5 0.4 0.64
5 5 2 0.13 0.36
-5 -5 2 -0.4 0.35
-5 -2 5 -0.01 0.33
-2 -5 5 -0.07 0.17
2 5 5 -0.18 0.28
5 -5 -2 0.07 0.32
5 -5 2 -0.15 0.16
5 2 5 -0.09 0.14
5 -2 -5 0.04 0.15
5 -2 5 -0.11 0.16
5 2 -5 0.08 0.16
5 2 5 -0.01 0.13
5 5 -2 0.25 0.17
-5 -2 5 -0.33 0.71
2 -5 5 -0.45 0.25
-2 -5 5 0.45 0.32
5 -5 -2 -0.31 0.25
5 -5 2 -0.21 0.2
3 -5 -5 -0.25 0.2
5 -3 -5 -0.07 0.18
5 5 3 0.02 0.18
5 -5 -3 0.29 0.35
3 5 5 -0.04 0.18
5 -5 3 -0.24 0.22
-5 5 3 -1.17 0.73
-3 -5 5 0.72 0.79
-3 5 5 0.66 0.66
5 -3 5 -0.04 0.17
-5 -5 3 -0.13 0.36
-5 -3 5 0.3 0.38
-3 -5 5 -0.1 0.21
-5 3 -5 0.94 0.25
5 5 3 0 0.36
-5 -3 5 -0.02 0.8
-5 -3 -5 0.21 0.33
-5 -5 3 0.49 0.32
3 -5 5 -0.36 0.26
5 3 -5 0.01 0.2
5 3 5 0.09 0.15
5 3 5 0.11 0.19
-5 -5 -3 0.37 0.25
-3 -5 -5 0.56 0.26
4 5 5 -0.06 0.19
-4 5 -5 1.52 0.94
5 4 5 -0.24 0.18
5 5 4 -0.17 0.18
-5 -5 -4 0.55 0.29
-5 -5 4 1.02 0.36
-5 -4 -5 0.43 0.32
-4 -5 -5 0.87 0.27
-4 5 5 0.65 0.79
-5 5 4 -0.28 0.79
5 4 -5 0.12 0.21
-5 -4 5 0.34 0.87
-5 4 5 2.06 0.82
-4 -5 5 0.38 0.89
-6 0 0 0.97 0.22
6 0 0 0.52 0.13
0 0 -6 0.91 0.13
0 -6 0 0.82 0.21
0 -6 0 0.99 0.39
0 0 6 1.23 0.15
6 0 0 0.67 0.27
0 6 0 0.49 0.3
-1 -6 0 0.08 0.38
0 1 6 0.29 0.13
1 -6 0 0.84 0.35
6 0 -1 0.29 0.28
6 0 1 0.5 0.21
1 0 6 0.59 0.42
1 0 6 0.18 0.1
0 1 6 0.9 0.37
-6 -1 0 0.2 0.22
-6 1 0 0.33 0.18
0 -6 -1 0.63 0.21
0 -6 1 0.24 0.2
6 -1 0 0.29 0.13
6 1 0 0.09 0.12
-1 0 6 0.42 0.11
0 -6 -1 1.29 0.44
-6 0 -1 0.7 0.22
0 -1 6 0.3 0.09
-1 -6 0 0.64 0.21
1 -6 0 0.34 0.2
6 -1 0 0.23 0.23
6 1 0 0.7 0.29
6 0 1 0.25 0.13
0 -1 6 -0.2 0.36
-1 0 6 0.67 0.34
1 6 0 0.56 0.39
0 6 1 0.28 0.34
-1 0 -6 0.46 0.13
1 0 -6 0.12 0.11
0 6 -1 0.53 0.33
0 -1 -6 0.21 0.11
0 1 -6 0.23 0.12
6 0 -1 0.21 0.12
-1 6 0 0.24 0.29
-6 0 1 0.72 0.22
0 -6 1 0.02 0.32
6 1 1 0.18 0.13
6 -1 1 0.1 0.2
6 1 -1 0.71 0.32
1 -1 6 0.05 0.12
6 -1 -1 0.34 0.13
-6 -1 1 0.05 0.21
1 -6 -1 0.26 0.22
1 -6 1 0.26 0.19
1 6 1 0.47 0.44
-1 6 -1 0.45 0.34
-1 6 1 0.26 0.31
1 1 -6 0.13 0.12
-1 -1 -6 0.39 0.13
-1 1 -6 0.45 0.13
1 -1 -6 0.24 0.11
6 -1 1 0.39 0.14
-6 1 -1 0.4 0.18
-6 1 1 0.44 0.2
-1 -6 -1 0.21 0.42
6 1 -1 0.32 0.12
-1 -1 6 0.3 0.1
-1 1 6 0.44 0.13
1 -6 -1 0.98 0.39
1 -6 1 0.35 0.27
-1 -1 6 0.09 0.33
-1 1 6 0.67 0.34
1 -1 6 0.33 0.09
6 1 1 0.34 0.24
1 -1 6 -0.25 0.41
1 1 6 0.91 0.41
1 6 -1 0.58 0.38
-1 -6 1 0.54 0.2
-1 -6 1 -0.53 0.32
-6 -1 -1 0.39 0.22
-1 -6 -1 0.51 0.21
-6 0 2 0.37 0.2
6 -2 0 -0.15 0.23
6 2 0 0.5 0.3
0 -6 -2 1.1 0.49
2 0 -6 0.04 0.1
2 0 6 0.58 0.13
0 6 -2 0.38 0.33
0 -2 -6 0.41 0.12
-2 -6 0 0.45 0.19
-2 6 0 0.45 0.38
-2 -6 0 -0.3 0.35
0 2 6 0.12 0.13
6 -2 0 0.42 0.16
6 0 -2 -0.21 0.32
-2 0 6 0.52 0.13
-6 -2 0 0.04 0.22
0 6 2 -0.09 0.37
2 0 6 0.81 0.47
0 -6 2 0.31 0.22
6 2 0 0.37 0.14
6 0 2 0.25 0.18
0 -6 2 0.07 0.27
2 -6 0 0.17 0.19
0 -2 6 -0.21 0.36
2 -6 0 0.65 0.34
6 0 2 0.06 0.12
-2 0 6 0.66 0.38
-6 2 0 0.38 0.18
0 -6 -2 0.77 0.25
2 6 0 0.58 0.54
6 0 -2 0.29 0.12
0 2 -6 0.29 0.16
-6 0 -2 0.26 0.22
6 1 -2 0.11 0.12
-1 -2 -6 0.2 0.12
-1 2 6 0.16 0.17
2 -1 -6 -0.02 0.1
-2 -6 -1 0.28 0.19
-1 -6 2 -0.12 0.26
-2 6 1 -0.07 0.35
6 1 -2 0 0.33
-2 -1 6 0.2 0.11
6 2 1 0.08 0.13
6 -2 -1 0.1 0.27
-2 -6 -1 0.24 0.39
2 1 6 0.29 0.12
6 -1 2 0.03 0.14
6 2 1 0.37 0.28
2 -6 1 0.34 0.28
-2 -1 6 -0.32 0.35
-1 2 6 0.99 0.4
2 -6 1 0.07 0.18
2 6 -1 0.31 0.55
6 -1 2 0.4 0.17
1 6 2 -0.23 0.49
-1 -6 2 0.44 0.22
1 -6 -2 0.34 0.26
2 1 6 -0.08 0.1
-1 6 -2 0.23 0.36
1 2 -6 -0.08 0.14
-6 -1 -2 0.01 0.22
-6 1 2 0.35 0.2
6 -2 -1 0.24 0.15
-6 -2 1 -0.04 0.21
-6 2 -1 0.09 0.18
1 -6 -2 0.49 0.46
-6 2 1 0.37 0.19
-1 -2 6 -0.38 0.32
1 -6 2 -0.08 0.19
1 -2 -6 0.17 0.12
-2 -6 1 0.25 0.2
6 -2 1 0.2 0.16
6 2 -1 -0.01 0.13
1 -6 2 0.05 0.24
6 1 2 0.35 0.21
2 6 1 -0.47 0.57
2 1 -6 -0.15 0.11
-1 2 -6 0.27 0.17
-6 -1 2 0.11 0.2
-2 6 -1 0.23 0.4
6 1 2 -0.1 0.12
-1 6 2 0.13 0.34
1 6 -2 0.37 0.39
2 -6 -1 0.02 0.21
2 -1 6 -0.28 0.49
1 2 6 -0.06 0.13
2 -6 -1 1.11 0.42
-1 -6 -2 0.37 0.24
-2 -6 1 -0.28 0.31
-1 -6 -2 0.95 0.47
-6 1 -2 0.27 0.18
6 -1 -2 -0.56 0.32
6 -2 1 0 0.18
6 2 -1 0.12 0.33
-2 1 6 0.38 0.36
-2 1 6 0.44 0.16
-6 -2 -1 -0.04 0.22
6 -1 -2 0.11 0.12
-2 -2 6 -0.44 0.37
2 -6 2 -0.09 0.25
-2 6 -2 0.39 0.5
-2 2 -6 0.79 0.2
6 -2 2 0.27 0.17
2 -6 -2 0.09 0.25
2 -6 2 0.15 0.19
6 2 -2 0.19 0.14
2 2 -6 0.04 0.15
-6 -2 2 -0.1 0.2
6 2 2 0.03 0.25
2 -2 -6 0.06 0.11
-2 -6 -2 0.3 0.21
6 -2 2 0.4 0.17
-2 -6 2 -0.17 0.25
6 2 2 -0.01 0.13
-2 6 2 -0.13 0.39
2 -6 -2 0.72 0.47
2 6 -2 0.17 0.55
2 6 2 -0.52 0.62
-6 -2 -2 -0.03 0.24
-2 2 6 0.44 0.19
2 2 6 0.21 0.13
2 2 6 -0.1 0.12
6 -2 -2 -0.05 0.32
-2 -6 -2 0.83 0.44
-6 2 -2 0.31 0.2
-6 2 2 0.25 0.19
6 -2 -2 0.19 0.15
-2 2 6 0.71 0.43
2 -2 6 -0.39 0.55
-2 -6 2 0.49 0.25
3 0 -6 0.05 0.11
0 -6 3 -0.38 0.23
6 0 -3 0.02 0.11
3 0 6 0.1 0.12
0 -6 -3 0.82 0.5
6 3 0 0.03 0.16
6 -3 0 -0.4 0.21
-3 0 -6 -0.53 0.23
0 -6 -3 0.22 0.28
0 6 3 -0.56 0.49
0 3 -6 -0.04 0.18
6 3 0 0.27 0.33
0 -3 6 -0.5 0.45
0 -6 3 -0.04 0.24
6 -3 0 0.16 0.18
6 0 3 0.18 0.16
-3 0 6 0.13 0.15
3 -6 0 -0.07 0.2
-3 6 0 -0.27 0.55
0 -3 -6 0.21 0.15
6 0 3 0.09 0.13
-3 0 6 0.16 0.47
3 0 6 0.67 0.47
3 6 0 -0.16 0.69
0 -3 6 0.41 0.16
0 -3 6 0.25 0.14
0 3 6 -0.06 0.19
0 6 -3 0.37 0.39
-6 0 3 -0.03 0.19
-3 -6 0 0.16 0.17
-6 0 -3 0.01 0.24
3 0 6 -0.02 0.1
-6 3 0 -0.05 0.17
3 -6 0 0.34 0.3
-6 -3 0 -0.15 0.22
-3 -6 0 -0.59 0.31
6 -1 3 0.19 0.15
-1 6 -3 0.43 0.43
-3 -6 -1 0.22 0.17
1 -6 -3 0.15 0.28
-1 -6 3 0.05 0.27
-1 3 6 0.12 0.2
3 1 6 0.18 0.12
3 6 -1 -0.08 0.72
-6 -1 -3 -0.14 0.25
3 -1 -6 -0.08 0.11
6 -3 -1 -0.35 0.28
-3 6 1 -0.56 0.49
3 1 6 -0.08 0.11
6 -3 -1 -0.09 0.17
1 -6 -3 0.32 0.49
-6 -3 1 -0.07 0.21
6 1 -3 0.1 0.12
-3 -1 6 -0.25 0.47
-3 -1 6 0.16 0.13
3 -6 1 0.52 0.26
1 -3 6 -0.78 0.53
6 3 1 0.14 0.15
-6 1 3 -0.12 0.19
-1 -6 3 -0.18 0.22
-6 3 -1 0.01 0.18
-3 -6 -1 -0.28 0.35
1 3 -6 -0.36 0.17
6 3 1 -0.04 0.31
6 -1 3 0.08 0.14
-1 -3 -6 0.09 0.14
3 -6 1 -0.04 0.19
-3 1 -6 -0.34 0.21
3 6 1 -0.6 0.68
1 -6 3 0.05 0.21
6 -3 1 -0.15 0.18
6 -1 -3 0.17 0.12
6 -3 1 -0.01 0.18
-3 -6 1 0.49 0.19
3 -1 6 0.19 0.14
3 1 -6 -0.05 0.12
-1 -3 6 0.3 0.15
-6 1 -3 0.02 0.2
-3 -6 1 -0.55 0.3
-3 1 6 0.35 0.45
3 -1 6 0.38 0.52
-3 6 -1 0.12 0.6
-1 6 3 -0.3 0.43
1 6 -3 0.21 0.42
-6 -3 -1 -0.35 0.23
6 3 -1 0.06 0.16
6 1 3 -0.12 0.12
-6 3 1 -0.02 0.18
6 1 3 0.09 0.17
-3 1 6 0.43 0.18
-1 3 -6 0.09 0.2
1 -3 -6 -0.14 0.14
-1 -3 6 -0.44 0.41
1 -6 3 -0.22 0.22
1 3 6 0.03 0.17
3 -6 -1 0.55 0.36
-6 -1 3 0.1 0.19
6 -1 -3 -0.56 0.33
-1 -6 -3 0.48 0.27
3 -6 -1 -0.09 0.23
-3 -6 -2 0.18 0.21
3 -6 2 0.35 0.22
-2 -6 3 0.3 0.32
-2 -6 3 -0.17 0.2
6 -2 3 0.04 0.16
3 -6 2 0.09 0.2
2 6 3 -1.05 0.71
-2 3 6 1.07 0.5
-3 -2 6 -0.25 0.5
-3 2 -6 0.62 0.22
3 -2 -6 -0.03 0.12
2 -6 -3 0.56 0.49
6 2 -3 0.14 0.14
3 2 6 -0.06 0.12
6 -3 -2 -0.21 0.33
-6 -3 2 0.57 0.31
6 3 2 0.12 0.29
6 3 2 0.18 0.14
2 -6 -3 0.16 0.26
-6 3 -2 0.3 0.19
6 -3 -2 0.18 0.17
3 2 6 0.03 0.13
-3 6 2 -0.78 0.54
2 3 -6 -0.35 0.17
-2 3 6 0.25 0.22
3 6 -2 0.79 0.74
2 -3 6 -0.22 0.2
6 -2 3 0.07 0.14
-6 -2 -3 -0.33 0.26
2 -3 6 -0.16 0.62
-2 6 -3 0.53 0.6
-3 2 6 1.11 0.55
-2 3 -6 0.4 0.21
-6 -2 3 0.37 0.37
2 -6 3 -0.05 0.21
-2 -3 6 0.18 0.17
6 -3 2 0.1 0.18
3 -6 -2 0.93 0.4
6 2 3 0.19 0.21
-6 -2 3 0.74 0.32
-6 2 -3 0.12 0.21
3 -2 6 0.22 0.58
2 -6 3 -0.22 0.22
-2 -6 -3 0.5 0.24
-3 -6 2 -0.13 0.29
-2 -3 6 -0.11 0.48
6 3 -2 0.07 0.17
6 -3 2 -0.1 0.16
2 6 -3 0.81 0.66
-2 6 3 -0.2 0.47
3 -2 6 0.08 0.16
3 2 -6 -0.06 0.15
3 -6 -2 -0.03 0.25
6 -2 -3 0.15 0.35
6 2 3 0.04 0.13
-3 2 6 0.43 0.22
2 3 6 -0.12 0.15
-6 3 2 1.12 0.53
-6 3 2 -0.08 0.18
-6 -3 -2 -0.19 0.25
2 -3 -6 0.07 0.15
-3 6 -2 0.3 0.75
6 -2 -3 0.39 0.15
-3 -6 2 0.55 0.25
-3 -6 -3 0.22 0.24
6 3 3 0.07 0.27
3 -6 -3 -0.29 0.26
-3 -3 6 -0.63 0.63
6 -3 -3 0.09 0.18
3 -3 6 -0.11 0.66
6 3 -3 0.02 0.17
3 -3 -6 -0.02 0.15
-6 -3 3 0.85 0.31
3 3 6 -0.16 0.15
3 -6 3 0.08 0.16
3 -3 6 -0.11 0.16
3 6 -3 1.54 0.82
-3 6 3 -0.67 0.59
-3 -3 6 -0.04 0.21
6 -3 3 -0.09 0.17
3 3 6 -0.02 0.14
-6 3 -3 0.32 0.2
3 3 -6 0.08 0.2
-3 -6 3 0.75 0.33
-3 6 -3 0.84 0.84
-3 3 6 0.19 0.24
-6 -3 3 0.15 0.39
6 -3 3 0.03 0.15
6 3 3 0.15 0.15
3 -6 -3 0.61 0.42
-6 -3 -3 -0.16 0.27
-3 -6 3 -0.17 0.26
3 -6 3 0.01 0.21
6 -3 -3 -0.7 0.37
-6 0 -4 -0.25 0.28
0 4 6 -0.09 0.24
-6 -4 0 0.31 0.24
-4 0 -6 -0.55 0.27
4 0 6 0.11 0.14
0 -6 4 -0.22 0.28
0 -4 6 -0.13 0.57
4 -6 0 0.05 0.22
6 4 0 0.24 0.18
-4 0 6 1.17 0.67
4 -6 0 -0.18 0.26
-4 -6 0 0.08 0.19
0 4 6 1.07 0.62
4 0 6 -0.01 0.11
0 -6 -4 0.14 0.31
0 4 -6 -0.04 0.19
6 0 -4 -0.08 0.13
6 0 4 0.02 0.12
4 0 -6 -0.18 0.12
4 6 0 -0.84 0.74
6 0 4 0.03 0.14
-4 -6 0 0.11 0.31
6 -4 0 -0.14 0.24
6 -4 0 -0.16 0.22
6 -4 0 0.28 0.19
0 -6 4 0 0.22
-4 0 6 0.19 0.2
0 -4 -6 0.11 0.19
0 6 4 -0.42 0.6
0 -6 -4 0.15 0.31
0 6 -4 0.18 0.57
-1 -6 4 -0.2 0.21
4 1 6 -0.03 0.13
4 -6 1 -0.02 0.21
1 -6 -4 -0.35 0.31
1 4 -6 -0.2 0.18
-6 -1 -4 -0.48 0.28
-4 1 -6 -0.35 0.24
-1 -6 4 0.11 0.33
1 -4 6 -0.33 0.65
-6 -4 1 0.09 0.27
6 -1 4 -0.05 0.14
4 -1 -6 -0.09 0.12
-4 -6 -1 0.29 0.19
4 1 6 -0.05 0.1
6 -4 -1 -0.13 0.3
6 -4 -1 -0.03 0.18
6 -1 4 0 0.13
-4 -1 6 0.43 0.66
6 1 -4 0.32 0.14
-1 6 -4 0.47 0.59
1 6 4 -0.48 0.69
4 -6 1 0.06 0.2
-1 -4 -6 0.24 0.19
4 6 -1 -0.2 0.8
6 4 1 -0.41 0.33
-4 -1 6 0 0.18
-1 4 6 -0.16 0.24
6 4 1 -0.07 0.17
1 4 6 1.28 0.64
-1 -4 6 -0.38 0.54
-4 1 6 -0.03 0.21
-4 -6 1 -0.24 0.3
1 -6 4 0.07 0.22
4 -1 6 0.21 0.15
1 6 -4 0.18 0.6
-6 -1 4 -0.04 0.27
4 -6 -1 0.05 0.33
-4 -1 -6 -0.49 0.28
-1 6 4 -0.6 0.52
1 -4 -6 -0.06 0.18
6 4 -1 0.05 0.18
6 1 4 0 0.12
6 -1 -4 0.07 0.14
1 -6 4 -0.07 0.26
6 -4 1 -0.12 0.17
4 1 -6 -0.04 0.14
-1 4 -6 0.06 0.22
-6 1 -4 -0.11 0.23
-1 -4 6 0.05 0.16
-1 -6 -4 0.41 0.29
-4 -6 1 -0.02 0.19
6 1 4 0.09 0.16
-6 -4 -1 0.18 0.24
4 -6 -1 -0.07 0.24
1 4 6 -0.2 0.23
6 -4 1 0.23 0.18
6 -4 1 -0.26 0.22
2 -4 6 0.16 0.72
-6 -2 -4 -0.4 0.3
-6 -4 2 0.48 0.3
-4 -2 6 -0.13 0.75
-2 -4 -6 0.25 0.2
2 4 -6 -0.29 0.19
6 -4 -2 0.15 0.18
4 2 6 -0.01 0.14
6 2 -4 0.06 0.15
6 -4 -2 -0.25 0.35
-4 2 -6 0.05 0.25
4 -6 2 0.04 0.18
4 -6 2 -0.14 0.2
6 4 2 0.39 0.33
6 4 2 0.14 0.17
-2 -6 4 -0.01 0.18
-2 -6 4 0.14 0.34
4 2 6 -0.07 0.12
4 -2 -6 -0.05 0.14
4 6 -2 1.6 0.83
6 -2 4 0.02 0.13
-2 4 6 0.14 0.26
6 -2 4 0.13 0.17
-4 -6 -2 0.27 0.2
-2 6 -4 1.36 0.76
2 -6 4 -0.09 0.25
2 4 6 0.08 0.22
-4 6 -2 -1.1 0.87
-6 2 -4 -0.01 0.24
4 -6 -2 0.02 0.25
6 -4 2 -0.14 0.16
-4 -2 -6 0.06 0.29
4 -2 6 -0.17 0.17
2 -4 -6 -0.26 0.18
-4 -6 2 -0.1 0.31
-6 4 2 -0.78 0.61
-2 -4 6 -0.01 0.17
-6 -2 4 -0.06 0.35
6 -2 -4 0.07 0.16
-2 6 4 -0.54 0.55
6 2 4 -0.02 0.18
6 2 4 0.24 0.13
4 2 -6 0.1 0.18
-2 -4 6 -0.22 0.64
-4 2 6 -0.05 0.24
6 4 -2 0.02 0.19
6 -4 2 -0.13 0.17
-2 -6 -4 0.54 0.27
4 -6 -2 0.34 0.36
2 6 -4 1.41 0.76
-6 -4 -2 0.19 0.25
-4 -6 2 0.52 0.26
-6 -4 3 1.06 0.31
4 -6 3 -0.13 0.15
4 3 6 -0.14 0.15
-6 -4 3 -0.59 0.39
-3 -6 4 -0.04 0.23
-4 -3 6 0.4 0.3
4 -6 3 0.01 0.22
4 -3 -6 -0.07 0.18
-6 -3 -4 -0.1 0.33
-3 6 -4 -0.07 0.93
-4 -6 -3 0.22 0.23
6 -4 -3 -0.06 0.38
6 3 -4 -0.15 0.18
4 3 6 -0.03 0.15
-3 -6 4 0.7 0.4
3 4 -6 -0.3 0.2
-4 -3 6 -1.28 0.83
6 -3 4 0.08 0.18
6 4 3 0.03 0.33
6 4 3 -0.1 0.17
6 -4 -3 0.1 0.19
4 -3 6 0.01 0.17
3 -4 -6 -0.22 0.19
-4 6 -3 -0.35 0.98
6 -4 3 0.04 0.16
6 3 4 0.19 0.24
6 -3 -4 0.24 0.19
-4 -6 3 -0.09 0.31
-6 -3 4 0.24 0.39
4 -6 -3 -0.32 0.27
-3 -4 6 -0.09 0.21
3 4 6 -0.1 0.17
4 -6 -3 0.34 0.38
4 3 -6 -0.04 0.2
-3 -4 6 -0.6 0.78
6 4 -3 0.32 0.2
6 -4 3 0.03 0.16
-6 -4 -3 0.11 0.28
-4 -6 3 0.12 0.34
-3 -6 -4 0.41 0.27
6 3 4 0.04 0.16
-3 6 4 -0.89 0.68
-6 4 3 0.23 0.71
3 4 6 -0.07 0.22
3 -6 4 -0.32 0.24
-6 3 -4 0.18 0.24
6 -5 0 -0.15 0.25
5 0 -6 0.07 0.14
-6 0 -5 -0.02 0.33
-5 0 -6 -0.43 0.32
5 -6 0 0.1 0.24
6 0 5 0.08 0.13
0 -5 -6 0.08 0.22
-5 -6 0 0.21 0.2
0 -6 5 -0.01 0.3
0 5 6 0.24 0.29
6 0 5 0.08 0.15
0 6 5 0.58 0.75
0 -5 6 0.22 0.75
-5 0 6 0.25 0.25
5 0 6 0.12 0.15
5 0 6 0.1 0.11
6 -5 0 0.03 0.26
0 5 6 1.38 0.76
5 -6 0 0.1 0.24
6 0 -5 0.14 0.15
-6 -5 0 0.39 0.23
6 5 0 0.45 0.19
0 -6 5 0.32 0.23
-6 -1 -5 -0.79 0.34
6 -1 5 -0.01 0.13
-1 6 -5 0.97 0.85
5 1 6 0.09 0.14
-1 -5 -6 0.29 0.22
-6 -5 1 0.62 0.26
6 -5 -1 -0.12 0.31
6 5 1 0.18 0.19
-5 1 -6 -0.33 0.3
-5 -1 6 -0.26 0.25
6 -1 5 0.06 0.17
-1 -6 5 -0.08 0.2
-1 -6 5 0.52 0.34
5 1 6 0.03 0.12
-1 5 6 0.07 0.29
-5 -6 -1 0.41 0.2
5 -6 1 -0.11 0.21
-1 5 6 0.96 0.74
1 -5 6 0.88 0.79
5 -6 1 0.03 0.23
6 -5 -1 -0.13 0.27
1 6 5 0.11 0.77
-5 -1 6 1.79 0.86
5 -6 1 -0.12 0.21
6 1 -5 0.07 0.16
5 -1 -6 -0.07 0.14
1 -6 5 -0.08 0.3
6 1 5 0.09 0.14
6 -5 1 -0.11 0.24
6 -5 1 0.04 0.19
-1 -5 6 -0.05 0.17
-1 6 5 0.45 0.72
6 1 5 0.19 0.14
6 1 5 0.1 0.14
5 1 -6 0.02 0.15
5 -6 -1 0.13 0.26
5 -1 6 0.22 0.17
-6 -1 5 -0.03 0.29
-6 -5 -1 0.55 0.23
1 -5 -6 -0.29 0.2
6 -1 -5 0.2 0.15
-5 1 6 0.04 0.25
5 -6 -1 -0.06 0.3
-5 -6 1 0.36 0.23
-5 -1 -6 -0.54 0.33
-1 -5 6 0.79 0.75
1 5 6 0.28 0.29
-6 1 -5 -0.19 0.3
6 5 -1 0.18 0.2
-2 5 6 1.62 0.75
5 2 6 0.1 0.15
6 2 -5 0.21 0.18
-2 -5 -6 0.32 0.21
2 6 5 -0.34 0.76
-6 -5 2 0.86 0.31
-6 -2 -5 -0.39 0.36
-2 -6 5 0.41 0.37
6 5 2 0.17 0.19
-5 2 -6 -0.35 0.28
-5 -2 6 0.71 0.35
5 -2 -6 0.09 0.16
-5 -6 -2 0.39 0.21
6 -2 5 0.24 0.18
-5 -2 6 0.32 0.88
5 -6 2 0.04 0.22
5 -6 -2 -0.55 0.27
2 -6 5 -0.27 0.28
6 -2 -5 0.08 0.17
-6 -2 5 0.05 0.36
6 2 5 0.17 0.14
-6 2 -5 -0.35 0.29
6 -5 2 -0.04 0.23
-6 -5 -2 0.63 0.25
5 2 -6 -0.01 0.19
-2 -5 6 -0.02 0.17
6 5 -2 0.55 0.2
-2 6 5 0.22 0.7
-2 -5 6 0.64 0.84
-5 -6 2 0.4 0.28
5 -2 6 -0.04 0.19
2 -5 -6 -0.03 0.22
-5 -2 -6 -0.14 0.32
0 0 -7 0.03 0.13
7 0 0 0.1 0.13
0 0 7 0.59 0.56
7 0 0 -0.09 0.3
0 0 7 0.18 0.11
0 -7 0 0.39 0.46
0 -7 0 0.07 0.23
0 7 0 0.2 0.51
-7 0 0 0.18 0.24
7 1 0 -0.02 0.13
0 -7 -1 0.24 0.49
0 -7 1 0.33 0.37
0 -1 -7 -0.06 0.13
0 1 -7 0.13 0.15
1 0 7 0.17 0.11
7 -1 0 0.17 0.26
7 1 0 -0.3 0.31
1 -7 0 -0.11 0.22
0 1 7 0.97 0.55
1 0 -7 0.12 0.12
7 -1 0 0.09 0.15
-1 7 0 0.04 0.51
0 -1 7 -0.37 0.52
7 0 -1 -0.09 0.33
1 7 0 -0.19 0.63
7 0 1 -0.06 0.24
0 -7 -1 0.29 0.25
-1 0 -7 0.08 0.13
-7 0 -1 0.12 0.25
-7 0 1 -0.07 0.24
-1 -7 0 -0.06 0.22
0 -7 1 -0.06 0.23
1 -7 0 0.23 0.39
-1 0 7 0.63 0.53
0 7 -1 0.44 0.55
0 7 1 -0.38 0.54
1 0 7 0.68 0.59
0 -1 7 0.02 0.09
-1 -7 0 0.17 0.43
-7 -1 0 0.1 0.24
-7 1 0 -0.05 0.23
-1 0 7 0.11 0.12
7 0 -1 0.06 0.13
7 0 1 -0.12 0.14
0 1 7 0.09 0.12
7 -1 -1 -0.15 0.3
1 -7 -1 0.05 0.25
1 -7 1 0.13 0.21
-1 7 1 -0.25 0.51
1 7 -1 0.04 0.63
-1 -7 1 0.05 0.38
-1 -1 7 0.05 0.1
-1 1 7 0.12 0.14
1 -7 -1 0.74 0.45
1 -7 1 -0.18 0.32
1 -1 7 0.07 0.09
-1 -7 -1 0.03 0.23
1 -1 -7 0.02 0.12
1 1 -7 -0.12 0.13
-1 1 -7 0.16 0.16
-1 -7 1 0.09 0.22
7 -1 1 0.18 0.23
7 1 -1 -0.41 0.35
7 1 1 -0.12 0.27
-1 -1 7 -0.06 0.47
-1 1 7 0.79 0.52
1 1 7 1.23 0.59
1 1 7 -0.01 0.12
-7 -1 -1 0.05 0.24
-7 -1 1 0.08 0.23
-7 1 -1 -0.02 0.22
-7 1 1 0.09 0.23
7 -1 -1 0.16 0.14
7 -1 1 0.04 0.16
7 1 -1 0.02 0.13
7 1 1 0.07 0.13
-1 7 -1 0.01 0.52
1 7 1 -0.52 0.69
1 -1 7 -0.21 0.6
-1 -1 -7 0.26 0.13
-1 -7 -1 0.65 0.47
0 -7 -2 0.94 0.49
-2 -7 0 0.17 0.21
2 -7 0 0.04 0.22
-2 0 7 0.69 0.56
0 7 -2 0.31 0.57
0 -7 2 0.16 0.3
7 -2 0 0.2 0.18
7 2 0 0.07 0.15
0 2 -7 0.1 0.2
-2 0 7 0.07 0.13
2 0 7 0.1 0.1
7 -2 0 -0.17 0.24
-7 0 -2 -0.43 0.25
0 2 7 1.04 0.62
2 7 0 -0.86 0.78
0 7 2 -0.87 0.6
2 0 7 0.8 0.59
7 0 -2 0.01 0.13
7 0 2 0.11 0.14
-7 -2 0 0.24 0.24
0 -7 -2 0.08 0.3
0 -2 -7 -0.12 0.13
2 0 -7 -0.12 0.11
-2 -7 0 0.35 0.39
0 2 7 0.06 0.15
7 2 0 -0.41 0.33
0 -2 7 -0.43 0.57
7 0 -2 -0.27 0.33
7 0 2 -0.28 0.19
-7 2 0 0.05 0.21
-7 0 2 0.12 0.23
0 -7 2 0.04 0.23
-2 7 0 -0.56 0.59
2 -7 0 -0.05 0.38
-2 0 -7 0.34 0.17
-7 2 -1 -0.25 0.21
2 -1 -7 -0.12 0.11
-7 1 2 0.07 0.24
2 7 -1 0.23 0.79
-7 -1 -2 0.04 0.25
-2 -7 -1 0.04 0.21
1 7 2 -1.02 0.72
-1 2 7 1.17 0.62
1 -2 7 -0.12 0.64
-1 -7 2 0.08 0.24
-1 2 7 0.07 0.17
7 1 -2 -0.09 0.13
-1 -2 -7 -0.07 0.14
-2 -1 7 0.02 0.11
2 -7 1 -0.27 0.31
-2 -1 7 0.1 0.53
7 -2 -1 0.09 0.17
1 -7 -2 0.03 0.3
7 -2 -1 -0.01 0.3
-2 7 1 -0.55 0.57
2 -7 1 0.01 0.2
7 2 1 -0.01 0.31
-1 -7 2 0.38 0.31
7 -1 2 -0.14 0.19
-2 1 -7 0.36 0.19
-2 -7 -1 0.68 0.42
7 2 1 0.13 0.14
-7 -2 1 0.36 0.24
1 2 -7 0.07 0.18
-1 7 -2 0.43 0.59
2 1 7 0.06 0.1
7 -1 2 -0.1 0.15
1 -7 -2 0.38 0.48
-1 -7 -2 0.88 0.52
1 -2 -7 -0.08 0.13
-7 -2 -1 0.07 0.24
7 2 -1 -0.2 0.36
-2 -7 1 -0.11 0.35
7 -1 -2 0.11 0.14
1 -7 2 0.01 0.27
1 2 7 1.22 0.61
2 -1 7 0.38 0.62
2 7 1 -1.03 0.8
7 -1 -2 -0.16 0.34
-1 -2 7 -0.42 0.52
1 2 7 -0.02 0.12
7 1 2 0.13 0.13
1 7 -2 0.27 0.64
-2 7 -1 -0.29 0.65
7 -2 1 -0.06 0.2
-2 1 7 0.39 0.53
-7 2 1 -0.28 0.2
-1 -7 -2 -0.01 0.27
7 -2 1 0.04 0.19
7 2 -1 0.07 0.14
7 1 2 -0.22 0.23
2 -7 -1 -0.17 0.45
-7 -1 2 0.1 0.23
-7 1 -2 -0.07 0.22
-2 -7 1 -0.13 0.2
2 -7 -1 0.14 0.24
1 -7 2 0.05 0.21
-1 2 -7 -0.02 0.21
-2 -1 -7 0.38 0.17
2 1 -7 -0.07 0.13
-2 1 7 0.16 0.16
-1 7 2 -0.59 0.55
-2 7 2 -0.8 0.61
2 -7 -2 0.23 0.29
2 -7 2 0.09 0.2
2 -2 -7 -0.14 0.12
2 2 -7 -0.22 0.18
-2 7 -2 0.4 0.77
-2 2 7 1.13 0.65
-2 -7 2 0.33 0.32
-2 2 7 0.12 0.2
-7 -2 2 0.22 0.23
2 -7 2 0.15 0.28
2 2 7 0 0.12
-2 -2 -7 0.21 0.17
-2 2 -7 0.45 0.22
7 2 -2 0.08 0.14
-7 2 2 -0.34 0.21
-2 -7 -2 0.19 0.24
2 -7 -2 0.36 0.49
-7 -2 -2 0.15 0.25
7 2 2 0 0.14
7 -2 -2 -0.01 0.33
-2 -2 7 0.13 0.58
7 2 2 -0.11 0.29
2 7 -2 -0.27 0.79
7 -2 -2 0.01 0.16
-2 -7 2 -0.05 0.25
7 -2 2 0.03 0.18
-7 2 -2 -0.21 0.22
2 -2 7 0.06 0.68
7 -2 2 0.28 0.19
7 -3 0 -0.05 0.24
0 3 7 1.19 0.66
3 -7 0 -0.3 0.33
0 -3 -7 0.07 0.16
3 -7 0 0.08 0.23
7 0 -3 0.03 0.13
-3 -7 0 0.4 0.35
-3 0 7 0.14 0.16
-7 3 0 -0.07 0.2
0 -7 -3 -0.14 0.34
7 -3 0 0.2 0.21
3 0 -7 -0.06 0.12
7 3 0 0.05 0.17
0 3 -7 -0.08 0.22
0 -3 7 -0.16 0.68
-3 -7 0 0.15 0.19
3 0 7 -0.01 0.12
-3 0 7 0.92 0.68
7 0 3 -0.11 0.18
0 -7 3 0.13 0.27
-7 -3 0 0.28 0.25
0 7 -3 0.37 0.65
7 0 3 0.06 0.14
0 -7 3 -0.15 0.26
0 3 7 0.04 0.18
-7 0 -3 -0.31 0.27
7 3 0 -0.66 0.37
3 0 7 -0.01 0.14
-7 -1 -3 -0.14 0.27
7 -1 3 0.12 0.16
3 7 -1 0.28 0.9
7 -3 -1 -0.12 0.2
-3 -1 7 -0.01 0.13
3 1 7 0.06 0.11
-7 -3 1 0.42 0.24
7 -3 -1 -0.08 0.28
7 3 1 -0.67 0.35
7 3 1 0.11 0.16
-1 -7 3 -0.01 0.31
3 -7 1 -0.35 0.28
7 -1 3 -0.1 0.17
7 1 -3 -0.07 0.13
-1 7 -3 -0.44 0.72
-1 3 7 0.09 0.22
-1 3 7 0.69 0.66
1 -3 7 -0.37 0.71
-1 -7 3 0.1 0.26
3 -1 -7 0.03 0.12
-7 3 -1 -0.26 0.21
-1 -3 -7 -0.17 0.16
3 1 7 -0.07 0.13
3 -7 1 0.28 0.21
1 -7 -3 0.46 0.53
-3 -1 7 0.65 0.7
-3 -7 -1 -0.02 0.19
1 -7 -3 0.37 0.33
1 3 -7 -0.45 0.21
1 -7 3 0.22 0.26
-1 -7 -3 0.08 0.31
-7 3 1 -0.24 0.2
1 3 7 0.07 0.16
-3 7 -1 -0.35 0.87
1 -7 3 0.13 0.24
-1 -3 7 -0.32 0.66
7 1 3 -0.16 0.19
7 3 -1 -0.02 0.17
7 1 3 0.14 0.14
-1 -3 7 0.02 0.16
3 1 -7 -0.18 0.14
3 -7 -1 -0.34 0.39
7 -3 1 0.24 0.21
-7 -3 -1 0.05 0.26
-3 -7 1 0.25 0.32
-3 1 7 1.23 0.68
-3 -7 1 0.12 0.21
-1 3 -7 -0.11 0.25
1 -3 -7 -0.08 0.16
7 -3 1 -0.09 0.18
3 -7 -1 -0.01 0.25
7 -1 -3 -0.05 0.13
-7 1 -3 -0.18 0.25
1 7 -3 0.45 0.71
-3 1 7 -0.12 0.19
3 -1 7 -0.24 0.15
-7 -1 3 0.35 0.25
3 -1 7 1.13 0.69
3 7 -2 0.28 0.9
7 2 -3 -0.05 0.15
3 -2 -7 -0.08 0.13
-2 -3 -7 0.33 0.2
3 2 7 -0.04 0.14
-2 -7 3 0.21 0.23
-7 -3 2 1.32 0.37
7 -3 -2 0.18 0.2
7 -2 3 -0.01 0.18
3 -7 2 -0.05 0.25
-2 3 7 1.17 0.69
2 -3 7 0.13 0.73
2 3 -7 -0.27 0.21
-2 3 7 0.13 0.25
3 -7 2 -0.05 0.21
-7 -2 -3 -0.16 0.28
7 3 2 -0.16 0.31
7 3 2 0.08 0.16
7 -2 3 -0.21 0.16
2 -7 -3 0.7 0.51
-2 7 -3 -0.56 0.88
2 -7 -3 0.13 0.31
-7 3 -2 -0.06 0.22
-3 -2 7 -0.23 0.73
7 -3 -2 0.02 0.33
-3 -7 -2 0.35 0.22
-2 -7 3 0.1 0.32
3 2 7 0.06 0.12
7 -3 2 0.23 0.2
-3 -7 2 0.05 0.26
-7 2 -3 -0.1 0.23
7 3 -2 -0.13 0.18
3 -7 -2 0.21 0.42
-7 -3 -2 0.07 0.28
-3 2 7 0.22 0.24
-2 -3 7 0.02 0.17
-2 -7 -3 0.13 0.29
-7 -2 3 0.54 0.22
2 3 7 0.1 0.14
3 -7 -2 -0.12 0.28
2 7 -3 0.89 0.84
7 -3 2 -0.07 0.18
3 2 -7 -0.19 0.18
7 -2 -3 0 0.36
-3 -7 2 0.86 0.31
-3 7 -2 -0.29 0.94
2 -3 -7 0.04 0.16
-2 -3 7 -0.36 0.72
3 -2 7 0.93 0.7
7 2 3 0.01 0.24
2 -7 3 -0.11 0.23
-2 3 -7 0.28 0.25
2 -7 3 0.24 0.26
7 -2 -3 0.25 0.17
7 2 3 -0.1 0.14
-7 3 -3 -0.17 0.23
7 -4 0 0.19 0.22
-7 4 0 0.06 0.19
-7 -4 0 0.65 0.29
-7 0 -4 -0.45 0.31
-4 -7 0 0 0.19
4 -7 0 0.22 0.24
4 0 7 0.04 0.15
0 -4 7 -0.1 0.79
4 0 -7 0.13 0.14
0 -7 -4 -0.28 0.36
0 -7 4 -0.08 0.33
7 0 4 0.11 0.14
0 7 -4 1.26 0.81
7 4 0 0.47 0.21
0 4 7 1.57 0.74
7 0 -4 0.01 0.13
0 -4 -7 0.26 0.23
-7 4 -1 0.09 0.2
4 1 7 -0.13 0.13
-4 -7 -1 0.2 0.19
4 -7 1 0.13 0.22
7 -1 4 0.11 0.17
7 1 -4 -0.1 0.13
-1 7 -4 1.54 0.88
4 7 -1 -0.49 0.93
-7 -4 1 0.9 0.33
1 -4 7 0.46 0.79
-1 4 7 1.66 0.75
-7 -1 -4 -0.26 0.31
-1 -7 4 0.11 0.37
7 4 1 0.27 0.2
-4 -7 1 0.06 0.2
4 -7 -1 0.08 0.27
7 -1 -4 0.01 0.14
-7 -4 -1 0.35 0.27
4 -1 7 0.07 0.16
1 7 -4 1.29 0.86
-1 -4 7 -0.24 0.17
7 1 4 0.26 0.14
-1 7 4 -1.22 0.77
-7 1 -4 -0.4 0.28
1 -7 4 -0.16 0.3
-1 -4 7 0.02 0.79
7 4 -1 -0.03 0.21
-7 4 1 0.18 0.2
-1 -7 -4 0.64 0.34
7 -4 1 0.34 0.21
8 0 0 -0.22 0.32
-8 0 0 -0.15 0.25
8 0 0 0.04 0.15
0 0 -8 -0.03 0.15
0 8 0 -0.74 0.84
0 -8 0 0.17 0.26
-1 -8 0 0.21 0.24
0 -8 1 0.11 0.25
0 -8 -1 -0.01 0.28
-8 1 0 -0.31 0.26
0 -1 -8 0 0.15
0 1 -8 -0.06 0.18
8 0 -1 0.02 0.14
0 -1 8 0.77 0.72
0 1 8 1.57 0.72
0 8 -1 -1 0.82
-1 8 0 -1.28 0.83
-8 0 -1 -0.51 0.26
-8 0 1 -0.31 0.25
8 -1 0 0.09 0.16
1 -8 0 -0.13 0.24
-8 -1 0 0.16 0.26
1 0 -8 -0.28 0.13
-1 0 -8 0.06 0.15
8 1 0 0.11 0.14
8 0 1 0 0.15
-8 -1 1 0.11 0.25
-8 1 -1 -0.3 0.25
-8 1 1 -0.51 0.26
-1 -8 -1 -0.04 0.25
-1 -8 1 0.04 0.24
1 -8 -1 -0.03 0.28
1 -8 1 0.09 0.23
-8 -1 -1 -0.03 0.26
-1 -1 8 1.45 0.73
8 -1 -1 0.08 0.16
8 -1 1 0.16 0.17
8 1 -1 -0.05 0.14
8 1 1 -0.09 0.14
