#------------------------------------------------------------------------------
#$Date: 2019-11-02 05:54:19 +0200 (Sat, 02 Nov 2019) $
#$Revision: 220759 $
#$URL: file:///home/coder/svn-repositories/cod/cif/4/12/74/4127490.cif $
#------------------------------------------------------------------------------
#
# This file is available in the Crystallography Open Database (COD),
# http://www.crystallography.net/
#
# All data on this site have been placed in the public domain by the
# contributors.
#
data_4127490
loop_
_publ_author_name
'Ai, Yong'
'Chen, Xiao-Gang'
'Shi, Ping-Ping'
'Tang, Yuan-Yuan'
'Li, Peng-Fei'
'Liao, Wei-Qiang'
'Xiong, Ren-Gen'
_publ_section_title
;
 Fluorine Substitution Induced High T<sub>c</sub> of Enantiomeric
 Perovskite Ferroelectrics: ( R) - and ( S)
 -3-(Fluoropyrrolidinium)MnCl<sub>3</sub>.
;
_journal_issue                   10
_journal_name_full               'Journal of the American Chemical Society'
_journal_page_first              4474
_journal_page_last               4479
_journal_paper_doi               10.1021/jacs.9b00886
_journal_volume                  141
_journal_year                    2019
_chemical_formula_moiety         'Cl3 Mn, C4 H9 F N'
_chemical_formula_sum            'C4 H9 Cl3 F Mn N'
_chemical_formula_weight         251.41
_space_group_crystal_system      orthorhombic
_space_group_IT_number           20
_space_group_name_Hall           'C 2c 2'
_space_group_name_H-M_alt        'C 2 2 21'
_symmetry_space_group_name_Hall  'C 2c 2'
_symmetry_space_group_name_H-M   'C 2 2 21'
_atom_sites_solution_hydrogens   difmap
_audit_creation_method           SHELXL-2014/7
_cell_angle_alpha                90
_cell_angle_beta                 90
_cell_angle_gamma                90
_cell_formula_units_Z            4
_cell_length_a                   7.6808(6)
_cell_length_b                   17.7492(14)
_cell_length_c                   6.4998(5)
_cell_measurement_reflns_used    1942
_cell_measurement_temperature    363(2)
_cell_measurement_theta_max      30.6510
_cell_measurement_theta_min      4.2310
_cell_volume                     886.11(12)
_computing_structure_refinement  'SHELXL-2014/7 (Sheldrick, 2014)'
_diffrn_ambient_temperature      363(2)
_diffrn_measured_fraction_theta_full 0.998
_diffrn_measured_fraction_theta_max 0.839
_diffrn_measurement_device_type  'XtaLAB Synergy R, DW system, HyPix'
_diffrn_radiation_type           MoK\a
_diffrn_radiation_wavelength     0.71073
_diffrn_reflns_av_R_equivalents  0.0086
_diffrn_reflns_av_unetI/netI     0.0101
_diffrn_reflns_Laue_measured_fraction_full 0.998
_diffrn_reflns_Laue_measured_fraction_max 0.839
_diffrn_reflns_limit_h_max       8
_diffrn_reflns_limit_h_min       -10
_diffrn_reflns_limit_k_max       25
_diffrn_reflns_limit_k_min       -21
_diffrn_reflns_limit_l_max       7
_diffrn_reflns_limit_l_min       -8
_diffrn_reflns_number            2508
_diffrn_reflns_point_group_measured_fraction_full 0.999
_diffrn_reflns_point_group_measured_fraction_max 0.831
_diffrn_reflns_theta_full        25.242
_diffrn_reflns_theta_max         30.373
_diffrn_reflns_theta_min         2.890
_exptl_absorpt_coefficient_mu    2.337
_exptl_absorpt_correction_T_max  0.558
_exptl_absorpt_correction_T_min  0.501
_exptl_absorpt_correction_type   multi-scan
_exptl_absorpt_process_details
;
CrysAlisPro 1.171.40.14e (Rigaku Oxford Diffraction, 2018)
Empirical absorption correction using spherical harmonics,
 implemented in SCALE3 ABSPACK scaling algorithm.
;
_exptl_crystal_colour            red
_exptl_crystal_density_diffrn    1.885
_exptl_crystal_description       needle
_exptl_crystal_F_000             500
_exptl_crystal_size_max          0.3
_exptl_crystal_size_mid          0.28
_exptl_crystal_size_min          0.25
_refine_diff_density_max         1.086
_refine_diff_density_min         -1.123
_refine_diff_density_rms         0.114
_refine_ls_abs_structure_details
;
 Refined as an inversion twin.
;
_refine_ls_abs_structure_Flack   0.44(14)
_refine_ls_extinction_method     none
_refine_ls_goodness_of_fit_ref   1.054
_refine_ls_hydrogen_treatment    constr
_refine_ls_matrix_type           full
_refine_ls_number_parameters     39
_refine_ls_number_reflns         1057
_refine_ls_number_restraints     60
_refine_ls_restrained_S_all      1.078
_refine_ls_R_factor_all          0.0548
_refine_ls_R_factor_gt           0.0511
_refine_ls_shift/su_max          0.059
_refine_ls_shift/su_mean         0.006
_refine_ls_structure_factor_coef Fsqd
_refine_ls_weighting_details
'w=1/[\s^2^(Fo^2^)+(0.0867P)^2^+3.4841P] where P=(Fo^2^+2Fc^2^)/3'
_refine_ls_weighting_scheme      calc
_refine_ls_wR_factor_gt          0.1523
_refine_ls_wR_factor_ref         0.1572
_reflns_Friedel_coverage         0.689
_reflns_Friedel_fraction_full    1.000
_reflns_Friedel_fraction_max     0.819
_reflns_number_gt                952
_reflns_number_total             1350
_reflns_threshold_expression     'I > 2\s(I)'
_cod_data_source_file            ja9b00886_si_005.cif
_cod_data_source_block           C2221
_cod_depositor_comments
;
The following automatic conversions were performed:

'_exptl_absorpt_correction_type' value 'Multi-scan' changed to
'multi-scan' according to
/home/data/users/saulius/crontab/automatic-downloads/current/ACS/lib/dictionaries/cif_core.dic
dictionary named 'cif_core.dic' version 2.4.2 from 2011-04-26.

Automatic conversion script
Id: cif_fix_values 4973 2017-02-22 13:04:09Z antanas 
;
_cod_database_code               4127490
_shelx_shelxl_version_number     2014/7
_shelx_space_group_comment
;
The symmetry employed for this shelxl refinement is uniquely defined
by the following loop, which should always be used as a source of
symmetry information in preference to the above space-group names.
They are only intended as comments.
;
_shelx_res_file
;

    C2221.res created by SHELXL-2014/7


TITL C2221 in C222(1)
CELL 0.71073   7.6808  17.7492   6.4998  90.000  90.000  90.000
ZERR    4.00   0.0006   0.0014   0.0005   0.000   0.000   0.000
LATT -7
SYMM -X, -Y, 0.5+Z
SYMM -X, Y, 0.5-Z
SYMM X, -Y, -Z
SFAC C  H  N  F  Cl Mn
UNIT 16 36 4 4 12 4
L.S. 200
ACTA
BOND
FMAP 2
PLAN 5
CONF
TWIN
DFIX 0.96 0.002 C2 H2A C2 H2B
DFIX 0.96 0.002 C3 H3A
DFIX 3.352 0.002 Cl1 Cl2
DFIX 2.548 0.002 Mn1 Cl1
DFIX 2.540 0.002 Mn1 Cl2
DFIX 1.54 0.002 C1 C2  C2 C3
DFIX 1.55 0.002 F1 C3
ISOR N1 C1
DELU 0.002 C1 N1
SIMU 0.002 C1 N1
ISOR F1 C3
DELU 0.002 F1 C3 C2
SIMU 0.002 F1 C3 C2
EADP C1 C2 C3 N1 F1
exyz N1 C1
FREE F1   C2
WGHT    0.086700    3.484100
BASF   0.43611
FVAR       0.37368
MN1   6   -0.000035    0.000000    0.000000    10.50000    0.04545    0.05603 =
         0.02417    0.00038    0.00000    0.00000
CL1   5    0.000000    0.111310    0.250000    10.50000    0.08744    0.04702 =
         0.03909    0.00000   -0.00657    0.00000
CL2   5   -0.225839   -0.051517    0.248318    11.00000    0.05842    0.08180 =
         0.03654    0.00179    0.00093   -0.02420
C1    1    0.005900    0.615498    0.352718    10.50000    0.12311    0.11104 =
         0.12895   -0.00678    0.03722   -0.00054
AFIX   3
H1A   2   -0.072350    0.580398    0.416587    10.50000   -1.20000
H1B   2    0.123150    0.604138    0.393398    10.50000   -1.20000
AFIX   0
N1    3    0.005900    0.615498    0.352718    10.50000    0.12311    0.11104 =
         0.12895   -0.00678    0.03722   -0.00054
AFIX   3
H1C   2    0.115820    0.604849    0.390847    10.50000   -1.20000
H1D   2   -0.067460    0.582598    0.412597    10.50000   -1.20000
AFIX   0
C2    1   -0.036431    0.696924    0.416245    11.00000    0.12311    0.11104 =
         0.12895   -0.00678    0.03722   -0.00054
AFIX   3
H2A   2    0.039579    0.715654    0.521734    11.00000   -1.20000
H2B   2   -0.155041    0.701654    0.460965    11.00000   -1.20000
AFIX   0
C3    1   -0.004297    0.738216    0.211011    10.50000    0.12311    0.11104 =
         0.12895   -0.00678    0.03722   -0.00054
AFIX   3
H3A   2   -0.089727    0.770556    0.149211    10.50000   -1.20000
AFIX   0
F1    4   -0.184909    0.752458    0.309945    10.50000    0.12311    0.11104 =
         0.12895   -0.00678    0.03722   -0.00054

HKLF 4

REM  C2221 in C222(1)
REM R1 =  0.0511 for     952 Fo > 4sig(Fo)  and  0.0548 for all    1057 data
REM     39 parameters refined using     60 restraints

END

WGHT      0.0824      2.8058

REM Highest difference peak  1.086,  deepest hole -1.123,  1-sigma level  0.114
Q1    1   0.0013  0.6685  0.4602  11.00000  0.05    1.09
Q2    1   0.0000  0.1301  0.2500  10.50000  0.05    0.74
Q3    1   0.0123  0.7412  0.1451  11.00000  0.05    0.68
Q4    1  -0.0015  0.6398  0.6014  11.00000  0.05    0.25
Q5    1   0.1444  0.7181  0.4992  11.00000  0.05    0.22
;
_shelx_res_checksum              29210
_shelx_hkl_file
;
   0   0  -1    0.02    0.06
   0   0  -2  880.13    7.75
   0   0  -3    0.02    0.18
   0   0  -3    0.14    0.11
   0   0  -4 2320.41   19.33
   0   0  -4 2276.37   19.92
   0   0  -5    0.08    0.17
   0   0  -6   37.11    0.91
   0   0  -7    0.71    0.25
   0   0  -8  282.97    3.47
   0  -2  -1  181.18    1.82
   0   2  -2    4.04    0.16
   0  -2   2    3.64    0.15
   0  -2  -2    3.78    0.26
   0   2  -3  113.00    1.32
   0  -2  -3  111.13    1.67
   0   2  -4 1407.79   12.05
   0  -2  -4 1423.05   12.73
   0   2  -5   10.17    0.42
   0  -2  -5    9.93    0.48
   0  -2  -5   10.20    0.65
   0   2  -6    1.22    0.22
   0  -2  -6    1.06    0.25
   0  -2  -6    0.96    0.42
   0  -2  -7    1.60    0.31
   0  -2  -8  157.85    2.45
   0   4   0  742.67    6.28
   0  -4  -1 1130.52    9.65
   0  -4  -1 1137.92    9.35
   0  -4   2  848.53    7.12
   0  -4  -2  840.97    7.58
   0  -4  -3  255.65    2.99
   0  -4   3  252.35    2.47
   0  -4  -4  293.63    3.59
   0  -4  -5  173.78    2.71
   0   4  -5  168.87    2.62
   0  -4  -6  183.01    2.97
   0  -4  -6  177.74    2.55
   0  -4  -7   44.49    1.18
   0  -4  -8   23.98    0.92
   0   6   0   41.62    0.65
   0   6   1 2268.65   18.92
   0  -6  -1 2267.95   19.24
   0   6   2 2580.06   21.52
   0  -6  -2 2556.68   20.93
   0  -6   3  929.40    7.97
   0   6   3  934.69    8.61
   0   6   4   42.83    1.11
   0  -6  -4   40.26    1.10
   0  -6   4   41.15    0.73
   0  -6  -5  280.32    3.72
   0   6  -5  278.54    3.63
   0   6  -6  225.64    3.35
   0  -6  -6  229.27    3.46
   0  -6  -7  113.48    2.10
   0  -6  -8    5.72    0.56
   0   8   0  503.49    4.62
   0  -8  -1  641.27    5.61
   0   8   1  636.74    5.93
   0   8   1  636.88    5.59
   0   8   2  384.71    4.04
   0  -8  -2  385.60    3.50
   0  -8  -2  383.80    4.03
   0   8   3  201.35    2.66
   0  -8  -3  206.00    2.04
   0  -8  -3  201.56    2.65
   0  -8   4   39.28    0.71
   0   8   4   39.20    1.11
   0   8   5   61.80    1.53
   0   8  -6  182.24    2.96
   0  -8  -7   34.70    1.16
   0  -8  -8   14.40    0.83
   0  10   0   68.38    1.08
   0  10   0   69.53    1.18
   0  10   1  187.57    2.33
   0  10   1  190.49    2.05
   0  10  -1  188.23    2.28
   0  10   2  746.33    7.10
   0 -10  -2  736.31    7.09
   0 -10  -2  745.45    6.52
   0 -10  -3   50.04    0.76
   0 -10  -3   49.62    1.19
   0  10   3   48.35    1.18
   0 -10   4   21.35    0.52
   0 -10  -4   20.62    0.85
   0  10   4   20.39    0.84
   0 -10  -4   20.79    0.46
   0 -10  -5    7.10    0.28
   0 -10   5    6.51    0.31
   0 -10  -5    7.48    0.61
   0  10   5    6.69    0.57
   0 -10  -6  126.73    1.52
   0 -10  -7    9.40    0.35
   0  12   0    0.09    0.21
   0  12   0    0.31    0.18
   0  12   1  299.34    3.09
   0  12  -1  306.26    3.36
   0  12   1  296.06    3.41
   0  12  -2  558.24    5.65
   0  12   2  569.30    5.77
   0  12   3  160.83    2.44
   0 -12  -3  161.80    2.42
   0 -12  -3  157.93    1.80
   0  12   4    2.14    0.39
   0 -12   4    2.49    0.21
   0 -12  -4    2.27    0.18
   0 -12  -4    1.93    0.40
   0 -12   5   82.52    1.19
   0 -12  -5   81.91    1.05
   0 -12  -5   78.84    1.83
   0  12   5   82.43    1.84
   0 -12  -6  135.46    1.49
   0  12   6  139.78    2.63
   0  14   0    1.67    0.26
   0  14   0    1.93    0.30
   0  14   1   31.58    0.74
   0  14   1   31.30    0.91
   0  14  -1   33.33    0.88
   0  14  -2  310.19    3.64
   0 -14  -3   30.19    1.00
   0  14   3   28.87    0.97
   0  14  -3   28.64    0.92
   0  14   4    2.16    0.41
   0 -14  -4    1.70    0.42
   0 -14   5   14.63    0.46
   0  14   5   13.50    0.79
   0  14   6   56.71    1.65
   0  16   0  203.54    2.57
   0  16   0  204.11    2.76
   0  16  -1    2.40    0.34
   0  16   1    2.42    0.28
   0  16  -2    3.90    0.40
   0  16   2    4.66    0.46
   0  16   3   -0.06    0.32
   0 -16  -4   66.86    1.65
   0  16   4   69.14    1.65
   0 -16   5    0.18    0.19
   0  16   5    0.04    0.42
   0  16   6    4.21    0.61
   0  18   0  192.18    2.54
   0  18   0  192.75    2.76
   0  18  -1    6.45    0.51
   0  18  -1    7.37    0.50
   0  18   1    7.17    0.42
   0  18   2    7.77    0.57
   0  18  -3    2.05    0.17
   0  18   3    2.16    0.45
   0  18   4   89.80    1.96
   0  18   5    1.01    0.45
   0  20   0   48.14    1.15
   0  20   0   45.21    1.26
   0  20  -1    7.51    0.55
   0  20   1    7.31    0.44
   0  20  -2    0.38    0.34
   0  20   2    0.03    0.35
   0  20   3    2.96    0.49
   0  20   4   23.96    1.04
   0  20   5    1.20    0.48
   0  22   0    0.19    0.33
   0  22  -1    0.19    0.36
   0  22   2   17.41    0.88
   0  22  -2   16.78    0.82
   0  22   3    0.63    0.45
   0  22   4    2.15    0.50
   0  24  -1    8.95    0.68
   0  24   2    5.10    0.61
  -1  -1   0 1451.92   12.01
  -1   1   0 1460.34   11.89
  -1  -1   1  184.32    1.75
  -1   1   1  183.27    1.61
  -1   1   1  182.65    1.81
   1  -1  -1  182.73    1.81
   1  -1  -1  183.99    1.61
  -1  -1   1  187.88    1.80
  -1   1   2  107.70    1.41
   1   1  -2  109.98    1.25
   1   1  -3  166.45    1.90
  -1  -1  -3  164.28    2.15
   1  -1  -3  163.10    1.94
  -1   1   3  164.73    2.16
  -1   1  -4 1083.50    9.96
   1   1  -4 1068.49    9.50
  -1   1  -4 1074.89    9.25
  -1  -1  -4 1078.57    9.97
   1  -1  -4 1078.80    9.57
   1   1  -4 1060.00    9.94
  -1   1  -5   24.00    0.62
   1   1  -5   26.43    0.94
  -1  -1  -5   24.73    0.94
   1   1  -5   24.66    0.72
  -1   1  -5   26.11    0.93
   1  -1  -5   25.02    0.75
  -1  -1  -5   25.63    0.70
   1   1  -6   26.90    1.06
  -1   1  -6   27.20    1.05
  -1  -1  -6   28.32    1.08
  -1   1  -6   25.92    0.70
   1   1  -6   27.75    0.81
  -1  -1  -6   27.78    0.78
   1  -1  -6   25.87    0.82
  -1  -1  -7    4.95    0.39
   1   1  -7    5.40    0.40
   1  -1  -7    5.55    0.44
  -1   1  -7    5.71    0.39
   1  -1  -8   92.31    1.80
  -1   1  -8   89.11    1.54
  -1  -3   0 2332.71   19.13
   1   3   0 2352.82   19.18
  -1  -3  -1  221.88    2.16
   1  -3  -1  230.07    2.35
  -1   3   1  225.25    2.34
   1   3   1  226.67    2.16
  -1  -3  -2 1555.03   13.13
  -1   3   2 1537.08   13.28
  -1  -3   2 1543.65   12.92
   1   3  -2 1548.06   13.10
   1  -3  -3   85.19    1.45
  -1   3  -3   87.60    0.96
  -1  -3  -3   87.12    1.43
  -1  -3   3   85.18    1.18
  -1   3   3   84.55    1.46
   1   3  -3   88.06    1.40
  -1   3  -4  163.53    1.75
   1  -3  -4  162.76    2.41
  -1  -3  -4  163.83    2.40
   1  -3  -4  163.16    2.16
  -1   3   4  171.01    2.44
   1   3  -4  169.86    2.36
   1   3  -5   29.02    0.97
  -1   3  -5   30.51    0.64
   1  -3  -5   28.59    0.85
   1  -3  -5   29.30    1.03
  -1  -3  -5   30.24    1.03
  -1  -3  -6  172.99    2.87
   1   3  -6  167.63    2.76
   1  -3  -6  170.63    2.48
   1  -3  -6  165.47    2.82
  -1  -3  -7    4.21    0.40
   1  -3  -7    4.30    0.43
  -1  -3  -8   30.22    0.96
   1  -3  -8   30.70    1.04
   1   5   0   80.47    1.03
  -1   5   0   81.25    0.89
  -1  -5   0   81.84    0.89
   1   5   0   79.24    0.86
   1   5   1  227.71    2.26
   1  -5  -1  230.73    2.50
  -1   5   1  229.95    2.00
   1   5  -1  230.23    2.37
  -1  -5  -1  228.53    2.26
   1  -5  -2 1087.66    9.73
  -1  -5  -2 1093.31    9.54
   1   5   2 1096.20    9.51
  -1  -5   3  128.50    1.57
  -1  -5  -3  126.97    1.85
   1   5  -4   33.35    0.95
  -1  -5   4   35.51    0.75
  -1  -5  -4   32.61    0.97
   1   5  -5   17.03    0.78
   1  -5  -5   16.05    0.68
  -1  -5  -5   17.58    0.82
   1   5  -6  267.28    3.71
  -1  -5  -6  273.50    3.87
  -1   5  -6  270.98    3.81
   1  -5  -6  271.10    3.48
   1  -5  -7    7.17    0.55
  -1  -5  -7    6.99    0.52
  -1  -5  -8   11.43    0.67
   1  -5  -8   12.97    0.71
  -1  -7   0  660.43    5.54
   1   7   0  654.14    5.70
  -1   7   0  660.42    5.54
   1   7   0  662.36    5.88
   1   7  -1   41.61    0.64
  -1  -7  -1   41.23    0.71
  -1   7   1   42.26    0.57
   1  -7  -1   38.62    0.62
   1   7  -1   42.70    0.81
   1   7   1   40.21    0.71
  -1  -7  -1   40.56    0.71
   1  -7  -2  531.47    5.27
   1   7   2  528.79    5.03
   1   7  -2  525.85    5.09
  -1  -7  -2  531.18    4.81
   1   7   3   94.68    1.55
   1  -7  -3   94.74    1.66
   1  -7   3   93.29    1.00
  -1  -7  -4  216.83    2.94
   1   7  -4  220.50    2.84
  -1  -7   4  217.17    2.42
  -1  -7  -5  101.34    1.98
  -1  -7   5  101.47    1.49
   1   7  -5   97.91    1.89
  -1  -7  -6   90.87    2.03
   1   7  -6   90.38    1.93
   1  -7  -6   89.05    1.81
   1  -7  -7   16.18    0.81
   1  -7  -8   28.30    1.07
  -1  -7  -8   26.02    1.01
   1   9   0  466.86    4.49
  -1  -9   0  473.81    4.51
   1   9   0  466.79    4.35
   1   9  -1    7.08    0.24
  -1   9   1    7.04    0.41
   1   9  -1    6.19    0.35
  -1   9   1    6.74    0.25
   1  -9  -1    6.98    0.23
   1   9   2  160.76    2.08
  -1  -9  -2  161.58    1.87
  -1  -9  -2  161.29    2.09
   1   9  -2  163.39    2.13
   1  -9  -2  160.91    2.25
  -1   9   3    0.16    0.27
   1   9   3    0.40    0.22
   1  -9  -3    0.68    0.30
   1   9   4  381.94    4.44
  -1   9   4  391.85    4.62
   1  -9  -4  395.29    4.61
   1  -9   4  384.90    3.47
  -1  -9   4  384.70    3.88
  -1  -9   5    2.62    0.26
   1   9  -5    3.44    0.45
  -1   9   5    2.21    0.46
   1  -9  -5    2.45    0.10
   1  -9  -5    2.84    0.47
  -1   9   6   16.49    0.90
   1   9  -6   16.41    0.83
   1  -9  -7    0.22    0.35
  -1  -9  -8   38.26    1.31
  -1  11   0  230.88    2.88
   1  11   0  232.05    2.54
  -1  11   0  232.35    2.55
   1  11   0  230.53    2.64
  -1  11   1   95.53    1.25
  -1 -11  -1   96.34    1.41
   1  11  -1   98.33    1.53
  -1  11   1   96.13    1.67
   1  11   1   97.21    1.38
  -1 -11  -2  152.98    1.88
  -1 -11  -2  150.84    2.07
   1  11   2  152.84    2.07
   1  11  -2  152.50    2.13
   1  11  -3  100.73    1.70
  -1  11   3   98.22    1.86
   1 -11  -3   96.87    1.82
   1  11   3   94.11    1.67
  -1 -11  -3   99.72    1.73
  -1 -11  -3   94.39    1.35
  -1 -11  -4   75.10    1.16
   1  11   4   71.76    1.56
  -1 -11   4   76.49    1.22
   1 -11   4   73.57    0.93
  -1  11   4   73.84    1.68
  -1 -11  -4   77.52    1.61
   1 -11  -4   76.82    1.69
  -1 -11  -5   48.87    0.91
   1 -11  -5   47.35    1.42
   1  11  -5   46.71    1.22
  -1 -11   5   47.89    0.95
  -1  11   5   48.46    1.42
  -1 -11   6   47.27    0.97
  -1 -11  -6   46.92    0.92
  -1  11   6   47.04    1.49
   1 -11  -7    9.57    0.71
  -1 -11  -7    8.58    0.41
  -1  13   0   44.79    0.91
   1  13   0   41.85    0.94
  -1  13   0   44.81    1.12
   1  13   0   42.01    0.91
   1  13  -1    8.09    0.47
  -1  13  -1    8.51    0.44
   1  13   1    8.66    0.40
  -1  13   1    7.64    0.34
  -1  13   1    8.51    0.54
   1  13  -2  294.39    3.45
  -1 -13  -2  286.50    3.13
   1  13  -2  285.92    2.86
   1 -13  -2  291.63    2.85
   1  13   2  283.59    3.35
   1 -13  -3    7.09    0.57
  -1  13   3    7.30    0.56
   1  13   3    6.38    0.48
  -1 -13  -3    6.36    0.49
   1  13  -3    6.07    0.46
  -1 -13  -3    6.36    0.37
  -1 -13  -4    7.86    0.59
   1 -13  -4    7.59    0.62
   1  13   4    7.46    0.56
   1  13  -4    6.78    0.51
  -1 -13  -4    6.75    0.35
   1 -13   4    7.20    0.27
  -1  13   4    6.35    0.58
  -1  13   5    3.60    0.51
   1  13   5    3.15    0.45
  -1 -13  -5    3.54    0.53
  -1 -13  -5    3.30    0.27
  -1 -13   5    3.14    0.29
  -1 -13  -6   67.15    1.12
  -1 -13   6   71.06    1.22
  -1  13   6   71.02    1.86
  -1  15   0   61.65    1.16
  -1  15   0   60.73    1.41
   1  15   0   58.80    1.18
   1  15   0   62.75    1.23
  -1  15  -1    5.99    0.42
   1  15   1    5.44    0.37
  -1  15   1    6.05    0.52
  -1  15   1    5.07    0.32
   1  15  -1    5.24    0.39
   1  15  -1    5.30    0.42
  -1  15  -2   72.50    1.44
   1  15   2   73.09    1.45
   1  15  -2   76.39    1.52
   1  15  -2   77.14    0.95
   1  15   3   11.75    0.62
  -1  15   3   13.68    0.77
   1 -15  -3   13.23    0.48
   1  15  -3   13.90    0.68
   1  15  -3   13.09    0.48
  -1 -15  -3   14.38    0.53
  -1 -15  -4   27.17    0.99
   1 -15  -4   25.40    1.04
  -1 -15  -4   25.05    0.67
  -1  15   4   27.93    1.08
   1  15   4   25.86    0.95
  -1 -15   5    6.08    0.38
  -1 -15  -5    6.28    0.36
   1  15   5    6.24    0.61
  -1  15   5    5.56    0.61
   1 -15   5    6.08    0.24
  -1  15   6   25.87    1.17
  -1  17   0   85.86    1.46
   1  17   0   83.01    1.49
  -1  17   0   82.48    1.71
   1  17   0   83.76    1.52
  -1  17  -1    8.30    0.59
   1  17  -1    7.42    0.47
   1  17  -1    7.52    0.50
  -1  17   1    8.50    0.41
  -1  17   1    8.60    0.62
  -1  17  -1    7.97    0.50
   1  17  -2    3.53    0.41
   1  17   2    3.16    0.39
  -1  17  -2    3.86    0.42
   1  17  -3    4.80    0.28
  -1  17   3    4.33    0.52
   1  17   3    4.79    0.47
   1 -17  -3    4.72    0.27
   1 -17  -4   58.50    1.14
   1  17   4   56.32    1.45
   1  17  -4   58.50    1.15
  -1  17   4   60.71    1.63
   1  17   5    2.78    0.50
  -1  17   5    3.31    0.58
   1  19   0   63.06    1.33
  -1  19   0   61.83    1.54
   1  19   0   58.06    1.27
  -1  19   0   62.14    1.26
  -1  19   1    2.90    0.44
  -1  19   1    3.11    0.31
  -1  19  -1    2.93    0.38
  -1  19  -1    3.53    0.51
   1  19  -1    2.71    0.37
   1  19   2    2.01    0.37
   1  19  -2    2.06    0.36
  -1  19   3    2.88    0.52
   1  19   3    2.89    0.41
  -1  19   4   30.40    1.21
   1  19   4   31.96    1.11
   1  19   5    2.17    0.50
  -1  19   5    1.67    0.51
  -1  21   0    2.57    0.49
  -1  21   0    2.21    0.35
  -1  21  -1    1.53    0.45
   1  21  -1    1.56    0.35
   1  21   1    2.00    0.37
  -1  21  -2   17.27    0.91
   1  21   2   18.40    0.80
   1  21  -2   17.88    0.76
  -1  21   3    1.64    0.50
   1  21   3    1.31    0.40
  -1  21   4    1.74    0.53
   1  21   4    1.65    0.44
   1  21   5    1.51    0.48
  -1  23   0    0.08    0.42
   1  23   1    0.81    0.36
  -1  23  -1    0.15    0.44
  -1  23   2   10.78    0.78
  -1  23  -2   11.73    0.79
  -1  23   3    0.89    0.52
  -1  25  -1    1.36    0.49
  -2   0   0 1449.63   12.23
   2   0  -1   21.68    0.53
   2   0  -1   22.01    0.48
  -2   0   1   22.48    0.48
  -2   0   2 2021.48   16.84
   2   0  -2 2039.57   16.71
   2   0  -3    5.58    0.32
   2   0  -3    6.19    0.26
   2   0  -3    5.74    0.38
  -2   0   3    5.70    0.37
  -2   0   3    5.32    0.31
   2   0  -4   26.17    0.72
   2   0  -4   26.25    0.60
   2   0  -4   26.45    0.86
  -2   0   4   27.41    0.86
   2   0  -5    0.57    0.35
  -2   0  -5    0.75    0.38
   2   0  -5    0.41    0.22
   2   0  -6  276.90    3.43
   2   0  -6  281.57    3.89
  -2   0  -6  277.72    3.86
  -2   0  -6  279.43    3.08
   2   0  -6  279.56    3.14
   2   0  -7    0.26    0.24
   2   0  -7   -0.03    0.26
  -2   0  -7    0.04    0.21
   2  -2   0   13.84    0.31
  -2  -2   0   13.90    0.40
  -2   2   0   13.82    0.31
  -2  -2   1 2410.71   19.70
  -2   2   1 2397.70   19.87
   2   2  -1 2404.61   19.69
  -2   2   1 2399.96   20.01
   2  -2  -1 2392.32   20.00
  -2   2  -1 2405.01   19.52
  -2  -2   1 2394.09   19.82
   2   2  -2 1792.37   14.97
  -2  -2   2 1784.47   14.97
   2  -2  -2 1779.86   15.01
   2   2  -2 1785.09   14.85
   2  -2  -2 1763.32   14.54
  -2   2   2 1774.40   15.20
   2   2  -3  438.04    4.45
  -2   2   3  440.29    4.61
   2   2  -3  441.75    4.19
  -2  -2  -3  439.89    4.51
   2  -2  -3  440.56    4.38
   2  -2  -3  435.67    3.90
  -2  -2   3  438.56    4.29
  -2   2   4   28.57    0.90
  -2  -2  -4   29.36    0.91
  -2  -2   4   28.36    0.74
   2   2  -4   29.03    0.70
   2   2  -4   28.93    0.87
   2  -2  -4   29.30    0.79
  -2   2  -4   29.09    0.52
   2  -2  -4   29.09    0.57
   2  -2  -5  202.11    2.23
  -2   2  -5  200.01    2.15
   2   2  -5  205.35    2.93
   2  -2  -5  194.08    2.96
   2   2  -5  198.78    2.47
   2  -2  -5  202.28    2.67
  -2   2   5  201.74    3.00
  -2  -2  -5  206.31    2.97
   2   2  -6  339.91    4.36
  -2  -2  -6  331.28    4.34
  -2   2  -6  337.62    3.38
   2  -2  -6  332.39    3.99
   2  -2  -6  331.08    3.46
  -2   2  -6  327.10    4.37
   2   2  -6  330.26    3.72
  -2  -2  -7   72.26    1.37
   2  -2  -7   68.27    1.55
  -2   2  -7   69.01    1.15
   2  -2  -7   72.39    1.24
   2   2  -7   71.39    1.40
  -2  -2  -8    5.24    0.42
   2  -2  -8    4.56    0.49
  -2  -4   0   55.84    0.85
  -2   4   0   55.17    0.85
   2  -4   0   54.30    0.74
   2  -4  -1 1140.23    9.71
  -2  -4   1 1125.12    9.67
  -2  -4  -1 1128.71    9.42
   2   4  -1 1118.05    9.33
  -2   4   1 1129.42    9.92
   2  -4   1 1124.22    9.24
   2   4  -1 1113.03    9.70
  -2  -4  -2 2052.42   17.29
   2   4  -2 2054.26   17.29
   2   4  -2 2069.34   17.18
  -2  -4  -3  663.97    6.33
   2  -4  -3  649.06    5.45
   2   4  -3  662.90    6.11
  -2  -4   3  669.91    6.12
  -2   4   3  661.13    6.52
   2  -4  -3  675.64    6.28
   2   4  -3  672.49    6.25
   2  -4  -4   28.81    0.47
  -2  -4  -4   30.30    0.91
  -2   4   4   29.13    0.95
  -2  -4   4   29.73    0.75
   2   4  -4   29.60    0.77
   2  -4  -4   29.46    0.83
  -2  -4  -5  178.78    2.76
   2  -4  -5  179.14    1.89
   2  -4  -5  177.02    2.53
   2   4  -5  180.74    2.71
   2   4  -5  181.35    2.38
  -2   4   5  184.51    2.85
   2  -4  -6  298.44    3.77
   2   4  -6  301.69    4.02
  -2  -4  -6  309.31    4.14
   2  -4  -6  305.30    3.03
   2   4  -6  299.24    3.57
   2  -4  -7   66.65    1.08
   2   4  -7   68.60    1.44
   2  -4  -7   67.66    1.56
  -2  -4  -8    2.80    0.39
   2  -4  -8    2.38    0.42
  -2   6   0  753.27    6.58
  -2  -6   0  749.07    6.58
   2   6   0  746.26    6.69
   2   6  -1   77.57    0.87
  -2  -6  -1   78.21    1.14
   2   6  -1   77.50    1.17
  -2  -6   1   78.61    1.20
   2   6  -1   79.84    1.11
   2  -6  -1   76.45    1.11
   2   6  -2  446.27    4.21
  -2  -6  -2  449.10    4.33
   2  -6  -2  458.60    4.70
  -2  -6   3   75.72    1.20
  -2   6   3   74.06    1.49
   2   6  -3   74.44    1.27
   2  -6  -3   76.37    1.49
   2   6  -3   75.54    1.29
  -2  -6  -3   76.57    1.35
   2  -6  -4  299.13    3.73
  -2  -6   4  295.51    3.21
   2   6  -4  296.87    3.36
  -2   6   4  286.94    3.72
   2  -6  -4  295.24    3.50
   2   6  -4  293.60    3.47
  -2  -6  -4  290.34    3.58
  -2  -6  -5   47.03    1.30
   2  -6  -5   44.14    0.54
  -2  -6   5   46.30    1.01
   2   6  -5   44.99    1.08
  -2   6   5   46.25    1.33
   2   6  -5   45.22    1.23
   2   6  -6   54.19    1.46
  -2  -6  -6   53.13    1.51
   2  -6  -6   53.86    0.72
  -2   6   6   53.79    1.56
   2   6  -6   55.34    1.27
   2  -6  -6   54.67    1.37
   2  -6  -7    9.59    0.63
   2  -6  -7    9.05    0.29
  -2  -6  -8   30.90    1.05
   2  -6  -8   34.60    1.18
  -2   8   0 2211.35   18.38
  -2  -8   0 2211.44   18.38
   2   8   0 2229.50   18.63
   2  -8  -1    0.63    0.15
   2   8   1    0.56    0.12
  -2  -8  -1    0.49    0.13
   2   8  -1    0.61    0.15
   2   8  -1    0.57    0.18
  -2  -8  -1    0.58    0.16
   2  -8  -2   65.86    1.34
   2   8  -2   65.69    1.13
  -2  -8  -2   67.29    1.10
   2  -8  -2   63.31    1.11
   2   8   2   65.50    1.07
   2   8  -3    6.57    0.39
  -2  -8  -3    6.60    0.43
   2  -8  -3    6.54    0.50
  -2  -8  -4  701.60    7.01
   2   8  -4  691.93    6.83
   2  -8  -4  688.19    7.24
  -2  -8   4  707.42    6.58
   2   8  -4  699.12    6.84
  -2  -8  -5    9.90    0.66
   2  -8  -5    9.95    0.69
  -2  -8   5    9.20    0.46
   2   8  -5   10.95    0.57
   2   8  -5    9.15    0.58
   2  -8  -5    8.45    0.56
   2  -8  -6    0.53    0.31
  -2  -8   6    1.06    0.28
   2   8  -6    0.67    0.38
   2  -8  -7    1.26    0.39
   2  10   0 1722.77   14.68
  -2 -10   0 1742.70   14.78
  -2  10   1   73.37    0.98
  -2 -10  -1   71.20    1.23
   2  10  -1   73.80    1.29
  -2  10   1   75.06    1.48
   2  10   1   72.30    1.03
   2  10  -2   33.09    0.76
   2  10  -2   35.70    0.89
   2 -10  -2   34.12    0.77
  -2 -10  -2   34.68    0.79
   2  10   2   33.50    0.76
  -2 -10  -2   32.96    0.78
  -2 -10  -3   19.88    0.60
   2 -10  -3   20.76    0.84
  -2  10   3   21.07    0.87
   2  10   3   19.51    0.67
   2 -10   3   19.36    0.27
  -2 -10   4  579.66    5.64
  -2  10   4  569.30    6.39
   2  10  -4  576.32    5.95
   2 -10  -4  575.91    6.33
  -2 -10  -4  578.85    5.59
   2  10  -4  585.75    5.90
   2  10  -5    1.12    0.34
  -2  10   5    0.54    0.36
  -2 -10   5    0.81    0.23
   2  10  -5    1.18    0.33
  -2 -10   6    3.73    0.35
  -2  10   6    3.67    0.53
   2  10  -6    4.13    0.51
   2 -10  -6    3.50    0.46
  -2  10   7    2.94    0.60
   2 -10  -7    2.81    0.48
  -2  12   0  203.35    2.82
   2  12   0  196.41    2.46
  -2 -12   0  199.64    2.56
  -2  12   1    0.78    0.16
  -2  12   1    0.94    0.35
   2  12  -1    0.77    0.23
   2  12   1    0.65    0.18
  -2  12  -1    0.43    0.14
  -2 -12  -1    0.39    0.14
   2 -12  -2   67.45    1.09
   2  12   2   68.45    1.19
   2  12  -2   70.67    1.38
  -2 -12  -2   66.51    1.22
  -2  12   2   69.06    0.83
   2  12  -2   66.15    1.09
  -2 -12  -2   67.23    1.21
   2  12  -3    3.50    0.33
  -2 -12  -3    4.01    0.32
  -2  12   3    3.31    0.49
   2  12  -3    3.98    0.41
   2 -12  -3    3.95    0.36
   2  12   3    3.75    0.37
   2 -12  -3    3.58    0.49
  -2 -12  -3    3.36    0.39
   2  12  -4  151.65    2.25
  -2 -12  -4  149.83    2.38
  -2  12   4  148.77    2.63
  -2 -12  -4  147.90    2.02
   2 -12  -4  154.09    2.62
   2  12  -5    0.03    0.33
  -2  12   5    0.24    0.39
  -2 -12  -5    0.19    0.35
  -2 -12  -5    0.11    0.20
  -2 -12   5    0.12    0.20
  -2  12   6   12.42    0.84
   2 -12  -6   14.20    0.81
  -2 -12  -6   12.84    0.55
  -2 -12   6   13.44    0.57
  -2 -12  -7    0.28    0.25
  -2  14   0   12.64    0.70
   2  14   0   13.15    0.56
  -2  14   0   12.68    0.50
   2  14  -1  107.11    1.78
   2  14   1  108.78    1.50
  -2 -14  -1  107.59    1.19
  -2  14   1  106.12    1.43
  -2  14  -1  102.30    1.20
  -2  14   1  108.09    2.03
   2  14  -1  104.37    1.44
  -2 -14  -1  108.65    1.74
   2  14  -2  149.40    2.26
  -2 -14  -2  145.68    2.08
   2  14  -2  151.82    1.79
   2  14   2  145.33    1.99
   2 -14  -2  146.39    1.76
  -2  14   2  148.36    1.60
   2  14   3   58.41    1.24
  -2 -14  -3   58.97    1.28
   2  14  -3   57.97    1.36
  -2 -14  -3   59.39    1.18
   2  14  -3   58.77    1.15
   2 -14  -3   59.86    1.14
  -2  14   3   62.42    1.58
   2 -14  -4   13.54    0.62
  -2  14   4   14.29    0.83
  -2 -14  -4   12.68    0.54
  -2 -14  -4   13.04    0.69
   2  14  -5   32.53    1.04
  -2 -14  -5   30.78    0.82
  -2 -14  -5   31.45    1.12
  -2 -14   5   30.12    0.84
  -2  14   5   30.73    1.22
  -2 -14   6   30.17    0.85
  -2 -14  -6   30.17    0.81
  -2  14   6   30.53    1.28
  -2  16   0   41.51    0.94
  -2  16   0   41.49    1.28
   2  16   0   43.71    1.05
  -2  16  -1  124.28    1.91
   2  16   1  125.10    1.76
  -2  16   1  126.58    1.68
  -2  16   1  127.18    2.34
   2  16  -1  126.14    1.70
   2  16  -1  130.91    2.09
   2  16  -2   57.43    1.34
  -2 -16  -2   56.51    1.23
  -2  16  -2   55.84    0.84
   2  16   2   54.27    1.13
  -2 -16  -2   56.41    0.81
   2  16   3   70.11    1.41
   2 -16  -3   70.13    1.17
  -2  16   3   72.16    1.77
  -2 -16  -3   71.41    1.36
   2  16  -3   69.23    1.19
  -2 -16  -4   15.93    0.75
  -2  16   4   14.71    0.88
   2  16  -4   15.25    0.62
   2 -16  -4   16.69    0.66
  -2 -16  -4   15.20    0.60
   2 -16   4   13.79    0.30
   2  16   4   15.03    0.72
   2  16  -5   27.83    0.98
  -2 -16   5   27.22    0.82
  -2 -16  -5   27.76    0.80
  -2  16   5   27.66    1.19
   2 -16  -5   27.41    0.94
   2  16  -5   26.49    0.92
  -2  18   0   35.41    1.20
  -2  18   0   35.39    0.90
   2  18   0   36.32    1.02
   2  18   1    0.14    0.22
  -2  18   1    0.41    0.38
   2  18  -1    0.27    0.22
  -2  18   1    0.50    0.20
  -2  18  -1    0.89    0.41
  -2  18  -1    0.05    0.28
   2  18   2   13.95    0.60
   2  18  -2   13.76    0.56
  -2  18   3    1.07    0.44
   2  18   3    1.09    0.31
  -2  18   4   14.66    0.90
   2  18   4   12.88    0.68
  -2 -18  -4   13.34    0.59
   2  18  -4   13.97    0.55
  -2  18   5    0.84    0.51
   2  18  -5    0.60    0.33
  -2  20   0    1.10    0.29
  -2  20   0    1.70    0.46
   2  20  -1   10.21    0.49
  -2  20   1   11.02    0.76
   2  20   1    9.81    0.50
  -2  20  -1   10.94    0.75
   2  20   2   25.10    0.80
   2  20  -2   24.14    0.74
   2  20   3    5.73    0.48
  -2  20   3    5.43    0.67
   2  20   4    0.75    0.38
  -2  20   4    0.87    0.47
  -2  22   0    0.85    0.46
  -2  22  -1    4.56    0.63
  -2  22  -2   29.21    1.24
  -2  22   3    2.03    0.58
  -2  24   0    0.84    0.53
  -2  24  -1    0.71    0.48
  -3   1   0  250.65    2.52
  -3  -1   0  257.25    2.80
  -3  -1   1  101.17    1.28
   3  -1  -1   99.10    1.47
  -3   1   1   98.84    1.33
  -3   1   1  101.40    1.43
  -3  -1   1  102.50    1.49
  -3  -1   1   98.22    1.34
   3  -1  -2  571.00    5.71
  -3   1   2  581.13    5.15
   3   1  -2  588.74    5.47
  -3  -1   2  580.33    5.29
  -3  -1   2  575.92    5.49
   3  -1  -2  574.74    5.60
  -3   1   2  591.15    5.62
  -3   1   2  583.29    5.50
   3  -1  -2  573.91    5.48
  -3  -1   2  587.80    5.49
   3   1  -2  598.16    5.28
   3  -1  -3  170.83    1.83
  -3  -1   3  173.50    2.29
   3   1  -3  173.23    1.97
  -3   1   3  170.69    2.35
   3  -1  -3  170.22    2.31
   3  -1  -3  174.31    2.22
  -3  -1   4  255.18    3.24
  -3   1   4  257.91    3.31
   3   1  -4  258.47    2.78
   3  -1  -4  256.28    3.08
  -3  -1   4  258.23    3.06
   3  -1  -4  256.20    2.62
  -3  -1  -5   41.78    1.22
   3  -1  -5   42.68    0.82
   3   1  -5   42.73    0.90
   3  -1  -5   42.66    1.09
  -3   1   5   39.59    1.21
  -3   1  -6  104.32    1.42
   3  -1  -6  105.48    1.92
   3  -1  -6  106.23    1.52
   3   1  -6  109.95    1.64
  -3  -1  -6  106.78    2.16
  -3   1  -7   12.20    0.45
   3   1  -7   12.23    0.55
   3  -1  -7   12.03    0.49
  -3  -1  -7   11.53    0.51
  -3  -3   0  430.28    4.11
  -3   3   0  424.48    3.95
  -3  -3   0  436.47    4.24
  -3   3   0  425.01    4.22
  -3  -3   1  275.64    2.99
  -3   3   1  266.89    2.96
  -3  -3   1  269.67    2.83
  -3  -3   1  270.16    2.58
  -3   3  -1  270.34    2.52
  -3   3   1  267.29    3.04
   3   3  -1  270.88    2.57
   3  -3  -1  269.69    2.97
   3  -3  -1  272.74    2.80
  -3   3   1  271.63    2.82
  -3  -3   2 1042.45    9.06
  -3   3  -2 1040.50    8.59
  -3   3   2 1037.74    8.70
   3  -3  -2 1031.79    9.44
  -3  -3   2 1052.13    9.14
   3  -3  -2 1027.62    9.42
   3   3  -2 1045.04    9.08
   3  -3  -3  233.29    2.79
   3   3  -3  235.69    2.62
  -3   3   3  237.38    3.02
   3  -3  -3  235.50    2.97
  -3  -3   3  237.02    2.75
  -3  -3   3  231.92    2.75
  -3   3   4   46.35    1.22
   3   3  -4   45.03    1.11
   3   3  -4   45.80    0.94
  -3  -3  -4   48.26    1.18
   3  -3  -4   46.50    1.20
   3  -3  -4   45.40    0.67
  -3   3  -4   45.17    0.56
   3  -3  -4   45.54    1.08
  -3  -3   4   47.82    1.05
  -3  -3  -5  112.53    2.08
  -3   3   5  111.45    2.14
   3  -3  -5  113.51    1.95
  -3   3  -5  115.37    1.23
   3   3  -5  113.24    2.05
   3   3  -5  113.54    1.72
   3  -3  -5  112.54    1.36
  -3  -3   5  115.11    1.85
   3  -3  -6  178.39    1.98
  -3  -3  -6  174.88    2.92
   3   3  -6  178.25    2.89
   3  -3  -6  178.65    2.70
   3   3  -6  181.09    2.41
  -3   3  -6  176.68    1.83
  -3   3   6  174.82    2.98
   3  -3  -7   29.53    0.67
   3   3  -7   31.14    0.90
   3  -3  -7   29.95    1.04
   3  -3  -8    9.64    0.67
  -3  -5   0  213.29    2.42
  -3  -5   0  216.93    2.44
  -3   5   0  212.42    2.43
   3  -5   0  210.27    2.22
  -3  -5  -1  105.74    1.19
  -3  -5   1  102.59    1.48
  -3   5   1  108.15    1.68
   3   5  -1  106.67    1.08
   3   5  -1  104.24    1.52
   3  -5  -1  104.92    1.53
   3  -5  -1  105.62    1.43
  -3  -5  -2  591.64    5.48
  -3   5   2  594.12    4.96
   3   5  -2  606.87    5.81
   3  -5  -2  596.54    5.80
  -3  -5   2  591.60    5.65
  -3  -5  -3   10.85    0.51
   3  -5  -3   10.42    0.49
   3   5  -3   11.37    0.47
  -3   5   3   10.72    0.60
   3   5  -3   10.85    0.47
  -3  -5   3   10.25    0.46
  -3   5   4   62.01    1.49
   3   5  -4   60.83    1.30
  -3  -5  -4   61.64    1.35
   3   5  -4   62.08    1.20
  -3  -5   4   62.03    1.22
   3  -5  -4   62.38    1.31
   3  -5  -5   11.85    0.62
  -3   5   5   11.45    0.73
  -3  -5  -5   12.59    0.71
   3   5  -5   11.14    0.54
   3   5  -5   12.66    0.68
  -3  -5   5   12.15    0.57
  -3   5   6  141.26    2.66
   3  -5  -6  139.84    1.43
  -3  -5  -6  141.94    2.54
   3   5  -6  142.20    2.49
   3   5  -6  143.86    2.16
   3  -5  -6  145.12    2.40
   3  -5  -7    3.86    0.46
  -3   7   0  820.82    7.43
   3  -7   0  828.56    7.26
  -3  -7   0  819.48    7.44
   3   7  -1   14.22    0.50
   3  -7  -1   12.62    0.46
   3  -7   1   13.39    0.33
   3   7  -1   12.31    0.47
  -3  -7   1   13.55    0.52
  -3   7   1   13.44    0.60
   3  -7  -1   12.34    0.48
  -3  -7  -2   52.15    0.92
   3   7  -2   54.11    0.84
  -3   7   2   54.10    1.25
   3  -7  -2   56.43    1.10
   3   7  -2   55.74    1.12
   3  -7  -2   55.90    1.12
  -3  -7   2   54.60    1.10
   3   7  -3   11.66    0.58
   3  -7  -3   11.08    0.56
  -3  -7  -3   11.63    0.52
   3   7  -3   10.74    0.46
   3   7  -3   10.92    0.50
  -3   7   3   11.81    0.65
   3  -7  -3   11.09    0.63
   3  -7  -4  345.95    4.07
  -3  -7  -4  349.66    4.06
   3   7  -4  339.14    3.86
  -3   7   4  338.88    4.34
   3   7  -4  347.83    3.88
  -3  -7   4  352.88    3.84
  -3   7   5   17.68    0.88
  -3  -7  -5   17.92    0.84
   3   7  -5   17.52    0.76
   3   7  -5   17.54    0.70
  -3  -7   5   16.16    0.64
   3  -7  -5   17.40    0.76
  -3   7   6   15.01    0.87
  -3  -7  -6   13.31    0.80
   3   7  -6   14.93    0.81
   3   7  -6   16.22    0.71
  -3  -7   6   16.63    0.69
   3  -7  -6   15.45    0.77
  -3   7   7    0.77    0.48
   3  -7  -7    1.45    0.38
  -3  -9   0  764.67    6.95
  -3   9   0  761.45    6.94
  -3  -9   1    0.48    0.21
   3   9  -1    0.78    0.21
   3  -9   1    1.19    0.15
  -3  -9  -1    0.99    0.22
  -3  -9  -1    0.63    0.12
   3   9  -2    6.46    0.27
   3  -9  -2    7.67    0.41
   3  -9   2    6.76    0.18
   3   9  -2    7.03    0.41
  -3  -9  -2    6.68    0.39
   3   9  -3    0.62    0.22
   3  -9  -3    0.27    0.35
   3   9  -3    0.98    0.29
   3  -9  -3    1.07    0.30
   3   9  -3    0.63    0.25
   3   9  -4  464.96    4.88
  -3  -9  -4  466.21    5.08
   3   9  -4  469.55    5.01
  -3  -9   4  467.00    4.85
   3  -9  -4  469.03    5.46
   3  -9  -5    0.38    0.30
   3   9  -5    0.30    0.30
  -3  -9  -5    0.03    0.37
  -3  -9   5    0.26    0.24
   3   9  -5    0.24    0.28
  -3   9   6   -0.22    0.42
   3   9  -6   -0.16    0.38
   3  -9  -6   -0.18    0.35
  -3  -9   6    0.27    0.26
   3  -9  -7   -0.42    0.39
  -3 -11   0  301.59    3.13
  -3  11   0  292.95    3.12
  -3 -11   0  300.02    3.48
  -3  11  -1   -0.04    0.19
  -3 -11  -1   -0.01    0.19
  -3 -11  -1   -0.06    0.23
   3  11  -2   28.93    0.57
  -3 -11  -2   28.39    0.82
   3  11  -2   29.63    0.86
  -3  11   2   28.90    0.40
   3 -11   2   29.87    0.51
   3  11  -2   31.25    0.79
   3 -11  -2   29.07    0.78
  -3 -11  -2   28.75    0.68
  -3 -11  -3    5.41    0.40
  -3 -11  -3    4.86    0.38
   3  11  -3    5.97    0.45
   3 -11  -3    4.89    0.41
   3  11  -3    4.76    0.33
   3  11  -4  110.14    1.76
   3  11  -4  112.56    1.99
   3 -11  -4  112.21    1.97
   3  11  -4  113.94    1.97
   3 -11  -4  110.65    2.21
  -3 -11  -4  117.67    1.84
   3  11  -5    3.47    0.41
  -3 -11   5    3.57    0.37
   3 -11  -5    4.20    0.49
   3  11  -6   12.39    0.72
  -3 -11   6   11.80    0.59
   3 -11  -6   12.93    0.78
  -3 -13   0   23.64    0.80
  -3  13   0   24.58    0.97
  -3  13  -1    5.94    0.35
  -3  13   1    6.86    0.32
  -3 -13  -1    7.22    0.48
   3  13  -1    6.83    0.46
  -3  13   1    7.64    0.61
  -3 -13  -1    7.03    0.36
   3  13  -2  198.96    2.14
  -3  13   2  204.02    1.94
   3  13  -2  208.17    2.78
  -3 -13  -2  208.69    2.70
   3 -13  -2  203.64    2.47
  -3  13   2  210.56    3.17
   3  13  -2  200.55    2.45
   3  13  -3    5.83    0.36
  -3 -13  -3    6.92    0.46
  -3 -13  -3    5.66    0.43
   3  13  -3    5.99    0.43
   3 -13  -3    6.67    0.44
   3  13  -4    5.58    0.41
  -3 -13  -4    5.99    0.43
  -3  13   4    5.84    0.61
   3  13  -4    5.59    0.48
   3 -13  -4    4.99    0.44
  -3 -13  -4    5.82    0.50
   3  13  -5    2.76    0.39
  -3  13   5    3.37    0.56
   3  13  -5    3.41    0.46
   3 -13  -5    3.72    0.48
  -3 -13  -5    3.81    0.48
  -3 -13  -5    3.09    0.35
  -3 -13   5    3.28    0.39
   3 -13  -6   48.66    1.50
  -3 -13  -6   49.25    1.17
  -3  13   6   48.06    1.63
   3  13  -6   49.33    1.36
   3  15   0   13.70    0.31
  -3  15   0   14.16    0.80
   3  15   1   28.18    0.57
   3  15  -1   28.67    0.90
  -3 -15  -1   30.29    0.64
  -3  15  -1   28.18    0.63
  -3  15   1   29.03    0.67
  -3  15   1   30.18    1.13
  -3 -15  -1   30.73    0.95
  -3  15   2   89.61    1.07
  -3 -15  -2   92.29    1.37
   3  15  -2   91.24    1.74
  -3  15  -2   91.03    1.37
  -3  15   2   88.84    1.99
  -3 -15  -2   90.25    1.65
   3  15  -2   89.32    1.21
   3  15  -3   30.35    0.74
  -3 -15  -3   31.12    0.93
   3  15  -3   31.18    0.84
  -3 -15  -3   29.12    0.85
   3 -15  -3   30.45    0.83
   3 -15   3   29.48    0.47
   3  15  -4    5.07    0.41
  -3 -15  -4    5.53    0.44
  -3  15   4    5.12    0.60
  -3 -15  -4    5.59    0.49
   3 -15  -4    5.83    0.46
   3  15  -4    5.07    0.44
   3  15  -5   14.25    0.68
  -3  15   5   15.51    0.99
  -3 -15  -5   15.51    0.67
   3  15  -5   14.41    0.73
   3 -15  -5   13.14    0.71
  -3 -15  -6   33.62    0.96
   3  15  -6   32.94    1.17
   3 -15  -6   33.17    1.17
   3  17   0   16.24    0.38
  -3  17   0   16.65    0.89
  -3  17   0   17.09    0.61
   3  17   1    3.87    0.25
  -3  17   1    4.27    0.31
  -3 -17  -1    4.10    0.43
  -3  17   1    4.53    0.56
   3  17  -2   21.42    0.53
  -3 -17  -2   23.45    0.83
  -3  17   2   23.46    0.49
  -3 -17  -2   21.94    0.55
  -3  17  -2   22.86    0.56
   3  17  -3    3.00    0.29
  -3 -17  -3    3.28    0.38
   3  17  -4   16.46    0.63
   3  17  -4   16.93    0.67
  -3  17   4   15.17    0.96
  -3 -17  -4   17.85    0.73
   3  17  -5    2.69    0.43
  -3 -17  -5    2.13    0.36
   3  19   0   19.88    0.44
  -3  19   0   21.37    0.72
  -3  19   0   21.44    1.02
   3  19   1    6.39    0.31
  -3  19   1    6.44    0.68
  -3  19  -1    6.56    0.67
  -3  19  -1    6.20    0.47
   3  19  -1    6.16    0.27
   3  19  -2    7.42    0.35
   3  19  -3    5.59    0.37
  -3 -19  -3    6.10    0.52
  -3 -19  -4   13.41    0.67
  -3  21   0    0.73    0.50
  -3  21   1    4.58    0.66
  -3  21  -1    4.80    0.66
  -4   0   0 3354.61   28.11
   4   0  -1    0.41    0.20
  -4   0   1    0.22    0.13
  -4   0   1    0.05    0.18
  -4   0   1   -0.25    0.29
  -4   0   1    0.18    0.17
  -4   0   2   55.74    0.94
  -4   0   2   53.85    1.10
   4   0  -2   56.80    1.08
  -4   0   2   53.22    1.06
   4   0  -2   54.03    1.20
   4   0  -3    0.03    0.27
  -4   0   3    0.04    0.14
  -4   0   3    0.05    0.24
   4   0  -3    0.34    0.26
   4   0  -4  794.65    7.16
   4   0  -4  805.45    7.88
  -4   0   4  801.76    7.92
   4   0  -5    0.01    0.16
  -4   0   5    0.03    0.32
   4   0  -6    3.86    0.30
   4   0  -7    0.09    0.20
  -4  -2   0 1156.56   10.35
  -4   2   0 1149.51    9.97
  -4  -2   1   11.11    0.43
   4  -2  -1   12.03    0.53
  -4  -2   1   11.60    0.55
  -4   2   1   11.61    0.51
  -4   2  -1   11.49    0.36
  -4   2   1   11.43    0.44
  -4   2   2   13.60    0.39
  -4  -2   2   13.43    0.49
   4  -2  -2   13.83    0.57
  -4  -2   2   14.39    0.49
   4  -2  -2   12.96    0.59
   4   2  -2   13.33    0.48
  -4  -2   2   13.16    0.52
  -4   2   2   13.43    0.52
  -4  -2   3    7.17    0.43
  -4   2   3    8.39    0.53
   4  -2  -3    6.34    0.49
   4   2  -3    6.45    0.42
   4  -2  -3    7.16    0.48
   4  -2  -3    7.63    0.43
  -4  -2   4  528.68    5.56
   4   2  -4  523.34    5.08
  -4   2   4  523.79    5.76
   4  -2  -4  522.50    5.50
   4  -2  -4  526.61    5.70
  -4  -2   4  528.24    5.45
  -4  -2   5    1.22    0.30
   4  -2  -5    1.02    0.17
  -4  -2  -5    0.99    0.38
  -4   2   5    0.99    0.38
   4  -2  -5    2.23    0.42
   4   2  -5    1.10    0.23
   4  -2  -5    1.47    0.31
   4   2  -6    5.34    0.37
  -4   2   6    4.70    0.55
   4  -2  -6    4.59    0.45
  -4   2  -6    5.09    0.23
   4  -2  -6    4.75    0.28
   4   2  -7    0.50    0.26
  -4  -4   0  176.77    2.31
  -4   4   0  176.86    2.32
  -4  -4   0  180.89    1.80
  -4   4   0  174.89    2.03
  -4  -4   0  181.34    2.24
  -4  -4   1  177.38    2.22
  -4  -4   1  177.70    1.86
  -4  -4   1  180.47    2.39
  -4   4   1  171.28    2.36
   4   4  -1  181.22    2.40
   4  -4  -1  185.22    2.41
  -4   4   1  179.52    2.43
   4  -4  -1  177.19    2.16
  -4   4  -1  175.78    1.90
  -4   4   1  179.10    2.17
   4   4  -2  341.96    3.93
   4  -4  -2  347.78    3.94
  -4  -4   2  345.06    3.45
   4   4  -2  348.70    3.44
   4  -4  -2  344.21    3.73
  -4   4  -2  347.09    3.13
  -4   4   2  354.06    3.24
   4   4  -3   76.14    1.27
  -4   4   3   74.76    1.58
  -4  -4   3   74.56    1.37
   4   4  -3   74.46    1.27
   4   4  -3   72.07    1.54
   4  -4  -3   74.93    1.55
   4  -4  -3   75.11    1.52
  -4   4  -3   72.50    0.72
  -4  -4   3   73.73    1.30
  -4  -4  -4  129.70    2.10
   4   4  -4  131.92    1.89
   4   4  -4  125.04    2.24
   4  -4  -4  130.77    2.28
  -4   4   4  127.46    2.29
   4  -4  -4  127.90    2.24
   4  -4  -4  129.51    2.09
  -4  -4   4  126.96    1.98
  -4  -4  -5   50.46    1.35
  -4   4   5   50.86    1.44
   4   4  -5   48.99    1.08
   4  -4  -5   49.64    1.28
   4  -4  -5   50.08    1.42
  -4  -4   5   51.85    1.23
  -4   4   6   71.32    1.83
   4   4  -6   71.82    1.40
   4  -4  -6   71.64    1.63
   4   4  -7   13.58    0.63
   4  -4  -7   11.26    0.70
  -4  -6   0   60.87    1.16
  -4  -6   0   61.56    1.19
  -4   6   0   60.22    1.18
   4  -6   0   60.43    0.99
  -4  -6  -1  468.87    4.18
  -4  -6   1  467.73    4.85
  -4   6   1  460.50    4.87
  -4  -6   1  473.73    4.81
  -4   6   1  486.38    5.10
   4  -6  -1  477.26    4.67
  -4  -6  -2  556.00    5.20
   4   6  -2  551.70    5.69
   4  -6  -2  548.01    5.69
  -4   6   2  566.55    5.90
  -4   6   2  550.83    4.83
   4   6  -2  554.79    5.03
  -4  -6   2  554.95    5.54
   4  -6  -2  563.02    5.52
   4   6  -2  572.55    5.46
   4  -6  -3  261.86    3.43
   4   6  -3  260.80    3.05
  -4  -6  -3  255.98    3.03
   4   6  -3  257.16    3.39
   4  -6  -3  257.23    3.37
  -4  -6   3  260.65    3.11
  -4  -6  -4   43.35    1.12
   4   6  -4   45.08    1.05
  -4   6   4   42.51    1.29
   4   6  -4   43.01    1.26
   4  -6  -4   43.43    1.25
   4  -6  -4   41.78    1.24
  -4  -6   4   44.50    1.09
   4  -6  -4   40.46    1.11
  -4  -6  -5   95.20    1.89
  -4   6   5   95.11    2.08
   4   6  -5   98.67    1.69
   4  -6  -5   91.83    2.02
   4  -6  -5   94.91    1.87
  -4  -6   5   92.17    1.71
  -4   6   6   88.58    2.11
   4   6  -6   92.80    1.70
   4  -6  -6   91.29    1.91
  -4   6   7   40.94    1.49
   4  -6  -7   41.88    1.32
   4  -8   0  153.05    1.89
  -4   8   0  155.11    2.11
  -4  -8   1  175.82    2.40
  -4  -8  -1  175.28    1.62
   4  -8   1  175.49    1.90
   4  -8  -1  174.85    2.22
  -4  -8  -2  189.58    2.16
   4   8  -2  196.16    2.61
   4  -8  -2  190.88    2.51
  -4   8   2  197.68    2.89
   4  -8  -2  185.36    2.56
   4   8  -2  192.47    1.95
  -4  -8   2  194.10    2.59
  -4  -8  -2  196.83    2.57
   4   8  -2  194.39    2.49
  -4  -8  -3   90.94    1.50
   4   8  -3   93.44    1.77
   4  -8  -3   92.68    1.74
   4  -8  -3   91.85    1.67
   4   8  -3   90.51    1.59
   4   8  -4   36.27    0.98
  -4  -8  -4   34.02    0.99
  -4   8   4   34.39    1.22
   4   8  -4   33.92    0.91
   4   8  -4   33.33    1.10
   4  -8  -4   35.15    1.12
  -4  -8   4   35.92    0.98
  -4  -8   5   32.00    0.96
   4   8  -5   32.12    1.15
   4  -8  -5   32.82    1.15
  -4   8   5   31.53    1.21
  -4  -8  -5   31.57    1.06
   4   8  -5   30.37    0.95
   4   8  -5   31.09    0.98
   4  -8  -5   31.47    1.06
  -4   8   6   69.11    1.89
   4   8  -6   70.05    1.61
   4  -8  -6   65.30    1.64
  -4 -10   0   43.99    1.00
  -4  10   0   44.20    1.01
   4 -10   0   43.99    0.89
  -4 -10  -1   29.26    0.88
  -4 -10   1   30.70    0.91
  -4  10   1   28.03    1.02
   4 -10   1   29.94    0.62
  -4 -10  -1   29.59    0.82
   4 -10  -1   30.58    0.81
  -4  10  -1   29.61    0.83
  -4 -10  -2  242.75    3.06
  -4 -10  -2  240.65    2.52
  -4  10   2  243.79    3.47
   4  10  -2  240.61    2.20
  -4 -10   2  237.72    3.10
   4 -10  -2  246.44    3.04
   4 -10  -2  244.05    3.04
   4  10  -2  244.84    3.07
   4  10  -3    7.95    0.50
   4 -10  -3    6.58    0.49
   4  10  -3    8.37    0.54
  -4 -10  -3    6.61    0.47
   4 -10  -3    6.78    0.50
   4  10  -4   15.96    0.69
  -4  10   4   14.53    0.86
   4  10  -4   15.70    0.61
  -4 -10  -4   15.56    0.68
   4  10  -4   13.99    0.72
   4 -10  -4   14.13    0.73
  -4 -10   4   14.10    0.64
   4 -10  -4   13.49    0.79
   4 -10  -5    0.25    0.35
  -4  10   5    1.40    0.49
   4  10  -5    0.72    0.36
   4  10  -5    0.76    0.32
  -4 -10  -5    0.86    0.39
  -4 -10   5    0.41    0.27
  -4  10   6   58.49    1.76
   4  10  -6   60.69    1.67
   4 -10  -6   60.52    1.68
   4  10  -6   63.24    1.51
   4 -10  -6   58.11    1.57
  -4 -12   0    0.51    0.30
  -4  12   0    0.65    0.26
  -4 -12   0    0.40    0.24
   4 -12   0    0.47    0.19
  -4 -12  -1   66.29    1.25
  -4 -12  -1   68.67    1.44
  -4  12  -1   65.35    1.24
   4 -12   1   67.45    1.07
   4  12  -1   65.59    1.36
   4 -12  -1   69.47    1.33
   4  12  -2  275.89    3.40
  -4 -12  -2  271.00    3.40
  -4  12   2  273.71    2.47
   4 -12   2  272.68    2.58
  -4 -12  -2  269.07    2.75
   4 -12  -2  273.42    3.41
  -4 -12  -3   37.14    1.04
   4  12  -3   36.42    1.03
   4  12  -3   35.79    0.72
   4 -12  -3   36.63    1.02
  -4 -12  -3   36.37    0.88
   4 -12  -3   37.56    1.09
   4  12  -4    0.70    0.33
   4 -12  -4    1.06    0.33
   4  12  -4    0.36    0.23
  -4 -12  -4    1.37    0.32
   4 -12  -4    0.78    0.33
   4  12  -5   23.10    0.79
   4  12  -5   19.98    0.91
   4 -12  -5   20.25    0.91
  -4 -12  -5   20.95    0.83
   4  12  -6   74.70    1.64
   4  12  -6   72.00    1.82
   4 -12  -6   73.87    1.85
  -4 -12  -6   73.27    1.57
  -4 -12  -7    5.13    0.50
  -4 -14   0    0.14    0.26
  -4  14   0    0.42    0.37
   4 -14   0    0.75    0.22
  -4  14  -1   10.75    0.49
  -4 -14  -1   11.21    0.62
  -4  14   1   12.09    0.79
  -4 -14  -1   11.23    0.50
   4 -14   1   12.03    0.46
   4  14  -1   10.89    0.59
   4 -14  -1   10.68    0.54
  -4 -14  -2  148.20    2.07
  -4  14   2  147.31    1.49
  -4 -14  -2  154.43    2.37
  -4  14  -2  149.66    2.09
  -4  14   2  147.29    2.74
   4 -14   2  145.63    1.64
   4 -14  -2  151.48    2.35
  -4 -14  -3   11.11    0.62
   4  14  -3   10.33    0.36
  -4 -14  -3   10.00    0.48
   4 -14  -3   10.79    0.64
   4 -14  -3   10.69    0.57
   4  14  -4    0.96    0.25
  -4  14   4    1.45    0.49
   4  14  -4    0.65    0.31
  -4 -14  -4    0.31    0.29
  -4 -14  -4    0.64    0.28
   4 -14  -4    0.34    0.29
   4 -14  -4    0.03    0.33
   4  14  -5    4.68    0.53
   4 -14  -5    4.47    0.53
  -4  14   5    3.75    0.63
  -4 -14  -5    3.92    0.45
   4 -14  -5    3.74    0.51
  -4 -14  -6   34.07    1.05
   4  14  -6   31.85    1.21
   4 -14  -6   34.93    1.26
  -4 -16   0   65.29    1.53
  -4  16   0   65.23    1.75
  -4 -16  -1   -0.06    0.31
  -4  16   1    0.24    0.19
  -4 -16  -1   -0.14    0.21
  -4  16  -1    0.08    0.20
  -4  16   1    0.17    0.43
   4 -16   1    0.10    0.18
  -4  16   2    8.24    0.25
  -4 -16  -2    8.43    0.44
  -4  16  -2    8.59    0.45
  -4  16   2    7.93    0.71
  -4 -16  -2    8.25    0.57
   4 -16   2    8.37    0.34
   4  16  -3    0.29    0.14
  -4 -16  -3    0.09    0.29
   4 -16  -3    0.23    0.32
  -4  16   4   27.21    1.25
  -4 -16  -4   27.40    0.95
   4  16  -4   26.87    0.91
   4 -16  -4   27.30    0.91
   4 -16  -4   27.52    1.08
   4  16  -5    0.66    0.35
  -4 -16  -5    0.80    0.36
   4  16  -6    4.02    0.57
  -4 -16  -6    4.22    0.48
  -4  18   0   74.13    1.97
  -4  18   0   75.34    1.37
  -4  18   1    7.37    0.73
  -4  18  -1    6.05    0.69
  -4 -18  -1    6.70    0.56
   4 -18   1    6.83    0.41
  -4 -18  -2    0.32    0.33
  -4  18  -2    0.85    0.24
   4 -18   2    0.59    0.18
  -4 -18  -3    3.22    0.44
   4 -18  -3    3.52    0.50
  -4 -18  -4   35.92    1.12
  -4 -18  -5    1.55    0.39
  -4  20   0   24.67    1.19
  -4  20   1    5.29    0.71
  -4  20  -1    5.41    0.68
   4 -20   1    5.23    0.40
  -4 -20  -2    0.49    0.38
  -4 -20  -3    2.94    0.48
  -4 -20  -4   14.29    0.75
  -5  -1   0  835.19    8.02
  -5   1   0  826.77    7.59
  -5  -1   0  837.18    7.58
  -5  -1   1   18.88    0.76
  -5  -1   1   19.04    0.61
  -5   1   1   19.42    0.67
  -5  -1   1   18.78    0.62
  -5   1   1   19.13    0.62
  -5  -1   1   18.10    0.58
  -5  -1   2    0.23    0.22
   5  -1  -2    0.22    0.26
  -5   1   2    1.48    0.20
  -5  -1   2    0.02    0.19
  -5  -1   2    0.54    0.24
  -5   1   2    1.60    0.27
  -5   1   3    0.89    0.20
  -5  -1   3    1.19    0.23
  -5  -1   3    0.70    0.28
  -5   1   3    0.82    0.33
   5  -1  -3    0.95    0.35
   5   1  -3    0.91    0.28
   5  -1  -3    1.13    0.33
  -5  -1   3    0.32    0.23
  -5   1   3    0.75    0.27
  -5  -1   4  459.82    5.08
  -5   1   4  455.51    5.21
   5  -1  -4  450.16    5.42
   5   1  -4  448.76    5.04
   5  -1  -4  454.83    5.10
  -5  -1   5   -0.03    0.31
  -5   1   5    0.07    0.33
   5   1  -5    0.53    0.35
   5  -1  -5    0.30    0.34
   5  -1  -5   -0.36    0.40
  -5   1   6    0.20    0.38
   5  -1  -6    0.46    0.40
   5   1  -6    0.16    0.20
  -5  -3   0  383.65    4.31
  -5   3   0  385.54    4.33
  -5  -3   0  391.33    3.76
  -5   3   0  381.83    3.90
  -5  -3   1    8.81    0.44
  -5  -3   1    7.90    0.53
  -5   3   1    8.63    0.55
  -5   3   1    8.68    0.52
  -5   3  -1    9.11    0.37
  -5   3   1    8.03    0.42
  -5   3   2  150.35    1.81
  -5  -3   2  152.50    1.98
  -5  -3   2  152.56    2.09
   5  -3  -2  154.07    2.39
  -5  -3   2  150.61    2.14
  -5   3  -2  152.07    1.74
  -5   3   2  155.04    2.17
   5  -3  -3    8.59    0.58
  -5  -3   3    9.53    0.51
  -5   3   3    9.04    0.62
  -5   3  -3    8.75    0.28
  -5   3   3    8.21    0.35
   5   3  -3    8.08    0.46
  -5  -3   3    8.81    0.47
   5   3  -3    7.66    0.59
   5  -3  -3    8.30    0.58
  -5  -3   4  117.02    1.97
  -5   3   4  113.45    2.16
   5   3  -4  119.23    1.95
   5   3  -4  114.73    2.26
   5  -3  -4  117.85    2.27
   5  -3  -4  117.92    2.13
  -5   3  -4  114.41    1.21
  -5  -3   4  115.09    1.95
   5   3  -4  115.85    1.72
  -5  -3  -5    3.30    0.45
  -5   3   5    3.82    0.51
   5   3  -5    3.97    0.48
   5  -3  -5    3.96    0.50
   5   3  -5    3.08    0.51
   5  -3  -5    3.73    0.52
   5   3  -5    3.26    0.33
  -5   3   6   34.85    1.28
   5   3  -6   31.72    1.26
   5  -3  -6   31.10    1.28
   5   3  -6   31.39    0.87
  -5  -5   0   49.05    1.15
  -5   5   0   46.09    1.13
  -5  -5   0   47.35    0.71
  -5  -5   0   47.35    1.07
  -5  -5   1  160.81    1.76
  -5  -5   1  163.12    2.26
  -5  -5   1  168.00    2.43
  -5   5   1  165.03    2.43
  -5   5   1  161.92    2.46
  -5  -5  -1  166.03    2.37
  -5   5  -1  162.19    1.91
  -5   5   2  329.58    3.21
  -5  -5   2  326.22    3.32
  -5  -5   2  329.09    3.73
  -5   5   2  323.29    4.06
   5  -5  -2  331.34    3.74
   5   5  -2  330.51    4.02
   5  -5  -2  332.61    4.01
  -5   5   3  107.39    1.29
   5   5  -3  110.01    1.62
   5  -5  -3  107.23    1.84
   5  -5  -3  108.40    2.03
  -5  -5   3  112.30    1.81
   5   5  -3  111.83    2.06
  -5  -5  -4   14.41    0.68
  -5   5   4   12.79    0.76
   5   5  -4   11.92    0.58
   5   5  -4   12.80    0.76
   5  -5  -4   13.56    0.76
   5  -5  -4   12.78    0.73
  -5  -5   4   13.09    0.63
   5   5  -4   12.45    0.56
   5   5  -5   40.79    1.02
  -5  -5  -5   41.22    1.22
  -5   5   5   41.83    1.38
   5   5  -5   40.80    1.36
   5  -5  -5   41.66    1.37
   5   5  -5   40.50    1.13
   5  -5  -5   39.42    1.19
   5   5  -6   91.82    1.68
  -5   5   6   95.01    2.18
   5   5  -6   89.92    2.15
   5  -5  -6   92.15    2.20
   5  -5  -6   90.39    1.94
  -5  -7   0   31.45    0.91
  -5  -7   0   32.17    0.93
  -5   7   0   31.18    0.92
  -5  -7  -1   48.47    0.67
  -5  -7   1   48.05    1.17
  -5   7   1   51.03    1.20
  -5  -7  -1   48.19    1.15
  -5   7  -1   48.58    1.17
  -5  -7   1   49.49    1.17
  -5   7   1   49.76    1.30
   5  -7  -1   49.09    1.04
   5   7  -2  261.64    3.43
  -5  -7  -2  265.81    2.81
   5  -7  -2  265.06    3.44
  -5   7   2  271.22    3.63
  -5  -7   2  264.01    3.29
   5  -7  -2  260.75    3.22
  -5   7   2  264.28    2.61
  -5  -7  -3   58.37    1.17
   5   7  -3   59.73    1.45
   5  -7  -3   60.59    1.46
   5   7  -3   58.63    1.05
  -5  -7   3   56.92    1.28
   5  -7  -3   60.07    1.34
   5   7  -3   60.52    1.27
  -5  -7  -4   18.87    0.75
  -5   7   4   19.53    0.96
   5   7  -4   17.57    0.65
   5   7  -4   19.40    0.89
   5  -7  -4   17.99    0.86
   5  -7  -4   18.60    0.90
  -5  -7   4   17.20    0.74
   5   7  -4   19.63    0.74
   5   7  -5   44.31    1.14
  -5  -7  -5   44.05    1.25
  -5   7   5   44.16    1.48
   5   7  -5   43.39    1.40
   5  -7  -5   43.42    1.40
   5  -7  -5   43.35    1.26
  -5   7   6   65.93    1.86
   5   7  -6   64.07    1.80
   5  -7  -6   65.66    1.84
   5  -7  -6   67.19    1.68
  -5  -9   0   37.35    1.04
  -5  -9   0   38.86    1.03
  -5   9   0   39.84    1.04
   5  -9   0   36.36    0.82
  -5   9   0   37.54    1.19
  -5  -9  -1    0.59    0.30
  -5   9  -1    0.60    0.31
  -5   9   1    0.30    0.36
   5  -9  -1    0.34    0.21
  -5  -9   1    0.23    0.30
  -5  -9  -2  145.21    1.72
  -5  -9   2  149.22    2.33
   5  -9  -2  150.64    2.22
  -5  -9  -2  149.42    2.33
   5   9  -3    0.60    0.31
  -5  -9  -3    0.32    0.22
   5  -9  -3    0.50    0.29
   5   9  -3    0.37    0.25
   5   9  -3    0.52    0.18
   5  -9  -3    0.57    0.26
   5   9  -4   35.97    1.03
  -5  -9  -4   34.49    0.98
  -5   9   4   38.73    1.35
   5   9  -4   35.64    0.87
  -5  -9   4   37.31    1.07
   5  -9  -4   38.20    1.14
   5   9  -4   37.54    1.20
   5  -9  -4   36.02    1.18
   5   9  -5    0.72    0.42
   5  -9  -5    0.51    0.41
  -5   9   5    0.92    0.49
  -5  -9  -5    1.32    0.38
  -5   9   6   36.17    1.42
   5   9  -6   36.05    1.33
   5  -9  -6   37.06    1.37
   5  -9  -6   35.11    1.25
  -5 -11   0   19.87    0.74
  -5  11   0   18.73    0.73
  -5  11   0   18.70    0.90
   5 -11   0   18.87    0.60
  -5 -11  -1   67.37    1.48
  -5 -11  -1   67.76    1.37
  -5  11  -1   69.02    1.38
  -5 -11   1   68.04    1.52
  -5  11   1   68.08    1.72
   5 -11   1   68.42    1.08
   5 -11  -1   65.96    1.29
  -5 -11  -2  119.61    2.05
  -5  11   2  119.15    2.38
  -5 -11  -2  113.43    1.29
  -5 -11   2  114.14    2.06
   5 -11  -2  116.05    1.94
   5  11  -3   52.87    0.78
   5  11  -3   51.89    1.34
   5 -11  -3   54.10    1.36
   5 -11  -3   53.33    1.32
  -5 -11  -3   55.33    1.35
   5  11  -4    6.74    0.58
   5 -11  -4    6.57    0.58
  -5  11   4    6.48    0.66
   5  11  -4    6.02    0.38
   5 -11  -4    6.85    0.55
  -5 -11  -4    6.39    0.53
  -5  11   5   24.20    1.17
   5  11  -5   26.47    1.09
   5 -11  -5   24.89    1.06
   5 -11  -5   24.33    1.00
   5  11  -6   33.37    1.31
   5 -11  -6   32.09    1.28
  -5 -13   0   15.66    0.65
  -5  13   0   16.24    0.67
   5 -13   0   15.68    0.58
  -5 -13  -1   21.64    0.86
   5 -13   1   20.51    0.58
   5 -13  -1   20.45    0.72
  -5 -13  -1   20.74    0.74
  -5  13  -1   19.62    0.73
  -5  13  -2   77.64    1.52
  -5 -13  -2   78.99    1.68
  -5  13   2   75.68    1.92
   5 -13  -2   76.59    1.57
  -5 -13  -2   79.51    1.53
  -5 -13  -3   16.63    0.78
   5  13  -3   16.76    0.75
   5 -13  -3   18.18    0.78
  -5 -13  -3   16.67    0.54
   5 -13  -3   16.16    0.76
  -5 -13  -4    5.35    0.50
   5  13  -4    5.52    0.51
  -5  13   4    4.29    0.63
   5  13  -4    4.69    0.30
   5 -13  -4    5.30    0.52
   5 -13  -4    4.20    0.48
  -5 -13  -5   12.12    0.70
   5 -13  -5   10.21    0.71
  -5  13   5   10.10    0.87
   5 -13  -5   12.27    0.76
   5  13  -5   10.16    0.71
   5  13  -6   25.12    1.10
   5 -13  -6   26.39    1.11
  -5 -13  -6   26.36    1.01
  -5 -15   0   42.22    1.25
   5 -15   0   42.73    1.00
  -5 -15  -1    1.45    0.39
  -5 -15  -1    1.62    0.32
  -5  15  -1    2.04    0.33
   5 -15   1    1.58    0.23
   5 -15  -1    1.75    0.31
  -5 -15  -2   11.09    0.57
  -5 -15  -2   12.52    0.70
  -5  15  -2   12.74    0.59
   5 -15  -2   11.72    0.64
  -5 -15  -3    0.03    0.32
   5 -15  -3    0.23    0.30
   5 -15  -4   17.88    0.81
  -5 -15  -4   18.89    0.84
   5 -15  -4   18.92    0.90
   5  15  -4   18.28    0.83
   5  15  -5   -0.18    0.38
   5 -15  -5   -0.38    0.39
  -5 -15  -5   -0.13    0.40
  -5 -15  -6    5.65    0.56
   5  15  -6    5.42    0.62
  -5  17   0   61.02    1.81
  -5 -17   0   58.54    1.54
   5 -17   0   59.26    1.25
  -5 -17  -1    0.45    0.36
  -5  17   1    0.83    0.51
  -5  17  -1    0.76    0.49
   5 -17   1    0.53    0.21
   5 -17  -1    0.58    0.30
  -5 -17  -2    0.41    0.37
   5 -17  -2    0.37    0.30
  -5  17  -2    0.49    0.27
  -5  17   2    0.20    0.44
   5 -17   2    0.39    0.14
   5 -17  -3    0.28    0.34
  -5 -17  -3    0.64    0.37
  -5 -17  -4   37.11    1.21
  -5 -17  -5   -0.37    0.43
  -5  19   0   27.99    1.27
   5 -19   0   28.19    0.87
  -5 -19  -1   -0.04    0.40
  -5  19   1    0.41    0.51
  -5  19  -1   -0.36    0.53
   5 -19   1    0.14    0.21
   5 -19  -1    0.22    0.30
  -5 -19  -2    0.29    0.37
   5 -19  -2   -0.23    0.34
  -5 -19  -3    0.04    0.40
   5 -21   0    2.49    0.36
   5 -21  -1    0.15    0.34
  -6   0   0  142.41    2.30
  -6   0   0  137.52    1.95
  -6   0   0  136.31    2.02
  -6   0  -1    0.20    0.31
  -6   0   1    0.52    0.22
  -6   0   1    0.72    0.26
  -6   0   1    0.51    0.38
  -6   0   2  186.25    2.37
   6   0  -2  186.65    2.89
  -6   0   2  186.18    2.56
  -6   0   3    1.30    0.26
  -6   0   3    0.79    0.31
   6   0  -3    0.73    0.37
  -6   0   3    1.54    0.33
   6   0  -4   28.68    0.99
  -6   0   4   27.90    1.01
   6   0  -4   28.45    1.12
   6   0  -5   -0.31    0.39
  -6   0   5    0.14    0.36
   6   0  -5    0.73    0.40
   6   0  -6   50.76    1.67
  -6   0   6   51.01    1.53
  -6  -2   0   16.42    0.74
  -6  -2   0   17.71    0.59
  -6   2   0   16.37    0.69
  -6   2   0   17.23    0.60
  -6  -2   1   86.09    1.51
  -6  -2  -1   85.41    1.72
  -6  -2   1   91.61    1.82
  -6   2   1   90.18    1.66
  -6  -2   1   83.91    1.52
  -6   2  -1   87.57    1.37
  -6   2   1   87.15    1.52
  -6   2   2  247.18    2.84
  -6  -2   2  243.33    3.01
  -6  -2   2  251.95    3.03
   6  -2  -2  255.99    3.51
  -6   2  -2  252.06    2.72
  -6  -2   2  250.60    3.15
  -6   2   2  251.76    3.15
  -6  -2   3   33.92    0.95
  -6   2   3   32.63    1.09
   6  -2  -3   32.74    1.15
  -6   2   3   34.57    0.80
  -6  -2   3   33.93    0.90
  -6  -2   3   33.54    1.00
  -6   2   3   34.84    1.02
  -6  -2   4   15.23    0.72
  -6   2   4   13.00    0.75
   6   2  -4   16.39    0.71
   6  -2  -4   14.34    0.75
   6  -2  -4   13.99    0.82
  -6  -2   5   17.60    0.84
  -6   2   5   19.61    0.93
   6   2  -5   17.96    0.80
   6  -2  -5   18.31    0.97
  -6   2   6   65.22    1.77
   6  -2  -6   65.16    1.90
  -6  -4   0   10.89    0.42
  -6   4   0   10.19    0.60
  -6   4   0   10.55    0.48
  -6  -4   0    9.94    0.61
  -6  -4   0   10.29    0.55
  -6   4   0   10.02    0.61
  -6   4  -1   65.35    1.49
  -6  -4   1   62.70    1.33
  -6  -4   1   63.23    1.48
  -6   4   1   63.92    1.51
  -6   4   1   65.92    1.48
  -6   4  -1   64.02    1.11
  -6   4   1   63.54    1.27
  -6  -4  -1   61.61    1.43
  -6   4   2  258.05    2.87
  -6  -4   2  263.40    2.95
  -6  -4   2  264.41    3.24
  -6  -4   2  265.96    3.29
  -6   4  -2  266.17    2.77
  -6  -4   3   44.50    1.03
  -6   4   3   44.42    1.32
  -6   4   3   42.89    0.84
   6   4  -3   45.07    1.34
   6  -4  -3   47.67    1.37
  -6  -4   3   46.12    1.13
  -6  -4   3   42.59    1.15
  -6   4  -3   44.42    0.72
   6   4  -4   11.59    0.75
   6  -4  -4    9.96    0.70
  -6   4   4    9.05    0.68
   6   4  -4   10.54    0.55
  -6   4  -4    9.05    0.22
  -6  -4   4   10.34    0.58
  -6  -4  -5   14.36    0.75
  -6   4   5   16.20    0.90
   6   4  -5   15.07    0.72
   6   4  -5   14.31    0.88
   6  -4  -5   16.78    0.95
  -6   4   6   64.99    1.83
   6   4  -6   69.79    1.96
   6  -4  -6   67.89    1.95
  -6  -6   0   59.02    1.34
  -6   6   0   56.29    1.43
  -6  -6   0   56.70    1.37
  -6   6   0   57.54    1.38
  -6  -6   1    4.67    0.23
  -6  -6   1    4.56    0.48
  -6   6   1    4.76    0.49
  -6  -6   1    3.90    0.40
  -6   6   1    4.31    0.51
  -6  -6  -1    4.26    0.46
  -6   6  -1    5.03    0.49
  -6  -6  -1    4.40    0.44
  -6  -6   2  113.82    1.48
  -6  -6   2  114.80    1.94
  -6   6   2  112.77    2.15
  -6   6   2  111.41    1.49
  -6  -6  -3    6.80    0.44
  -6   6   3    6.67    0.29
   6   6  -3    6.55    0.58
  -6  -6   3    6.54    0.50
   6  -6  -3    6.76    0.57
  -6  -6  -4   41.61    1.10
   6   6  -4   41.00    1.34
   6  -6  -4   42.59    1.35
  -6   6   4   39.44    1.35
   6   6  -4   42.71    1.02
   6  -6  -4   40.17    1.18
  -6  -6  -5    5.59    0.52
  -6   6   5    5.50    0.63
   6   6  -5    5.45    0.49
   6   6  -5    6.58    0.65
   6  -6  -5    5.90    0.63
  -6   6   6   26.03    1.22
   6   6  -6   27.35    1.23
   6  -6  -6   27.46    1.25
  -6  -8   0  263.32    3.45
  -6  -8   0  271.74    3.50
  -6   8   0  268.43    3.50
  -6   8   0  262.91    3.73
  -6  -8  -1    6.36    0.50
  -6  -8   1    7.38    0.52
  -6  -8  -1    6.58    0.52
  -6   8  -1    6.53    0.52
  -6   8   1    7.19    0.62
  -6  -8   2    1.42    0.34
  -6  -8  -2    1.88    0.22
  -6   8   2    1.25    0.42
  -6   8   2    2.56    0.21
   6  -8  -2    1.45    0.30
  -6  -8  -3    7.79    0.44
  -6  -8   3    6.42    0.52
  -6   8   3    6.52    0.24
   6  -8  -3    6.82    0.51
   6   8  -3    7.28    0.60
   6  -8  -3    6.61    0.57
  -6  -8  -4   95.43    1.70
  -6   8   4   95.47    2.19
   6   8  -4   97.66    2.08
   6  -8  -4   91.24    2.03
   6   8  -4   94.06    1.50
   6  -8  -4   90.91    1.87
  -6   8   5    2.90    0.56
   6   8  -5    1.91    0.46
   6  -8  -5    3.36    0.53
   6   8  -5    2.88    0.40
   6   8  -6    2.27    0.53
   6  -8  -6    2.22    0.56
  -6 -10   0  192.84    2.88
  -6 -10   0  199.09    2.83
  -6  10   0  196.90    2.84
  -6  10   0  194.10    3.17
  -6 -10  -1   17.11    0.75
  -6  10  -1   14.25    0.71
  -6 -10   1   17.86    0.80
  -6  10   1   15.87    0.89
   6 -10  -1   15.92    0.64
  -6 -10  -2   -0.26    0.35
  -6  10  -2    0.24    0.37
  -6  10   2    0.17    0.40
  -6 -10  -2    0.22    0.28
   6 -10  -2   -0.18    0.31
  -6 -10  -3    7.63    0.41
   6  10  -3    8.62    0.62
   6 -10  -3    7.68    0.61
   6 -10  -3    7.91    0.54
  -6 -10  -3    8.83    0.62
  -6  10   4   97.56    2.29
   6  10  -4   94.13    2.05
   6 -10  -4   96.83    2.06
   6  10  -4   94.45    1.40
   6 -10  -4   99.81    1.98
  -6  10   5    4.83    0.68
   6  10  -5    4.34    0.58
   6 -10  -5    4.27    0.51
   6 -10  -5    4.43    0.58
  -6 -12   0   69.24    1.51
  -6  12   0   69.29    1.52
   6 -12   0   72.10    1.30
  -6  12   0   67.01    1.81
  -6 -12   1    2.64    0.42
  -6 -12  -1    2.95    0.41
  -6  12  -1    2.35    0.38
  -6  12   1    2.60    0.50
  -6 -12  -1    2.73    0.43
   6 -12  -1    2.58    0.32
  -6 -12  -2    8.64    0.62
  -6  12   2    9.42    0.75
  -6 -12   2    8.50    0.63
  -6 -12  -2    7.83    0.55
   6 -12  -2    6.99    0.51
  -6  12  -2    7.77    0.57
  -6 -12  -3    1.27    0.37
   6 -12  -3    0.95    0.33
  -6  12   4   40.60    1.52
   6 -12  -4   39.49    1.26
   6  12  -4   40.71    1.33
   6 -12  -4   42.31    1.35
  -6 -12  -4   41.05    1.27
   6  12  -5   -0.04    0.39
   6 -12  -5    0.28    0.41
  -6 -12  -5    0.25    0.38
  -6  14   0   16.29    0.96
   6 -14   0   17.55    0.64
  -6 -14  -1   13.90    0.76
  -6  14   1   14.97    0.94
  -6 -14  -1   13.73    0.68
  -6  14  -1   14.95    0.70
   6 -14  -1   13.80    0.64
  -6 -14  -2   16.46    0.82
  -6 -14  -2   15.93    0.73
  -6  14  -2   16.37    0.74
  -6  14   2   14.81    0.95
   6 -14  -2   15.50    0.73
  -6 -14  -3    9.08    0.65
  -6 -14  -3    8.49    0.60
  -6  14  -3    8.46    0.62
   6 -14  -3    8.37    0.60
  -6 -14  -4   14.58    0.82
   6  14  -4   15.15    0.83
   6 -14  -4   14.12    0.80
   6  14  -5    3.46    0.55
   6 -14  -5    3.71    0.59
  -6 -16   0   19.55    0.93
   6 -16   0   20.27    0.71
  -6  16  -1   18.09    0.76
  -6 -16  -1   18.25    0.90
   6 -16   1   17.51    0.57
   6 -16  -1   18.72    0.75
  -6 -16  -2    5.24    0.57
  -6  16  -2    4.39    0.48
   6 -16  -2    5.48    0.50
  -6 -16  -3   12.04    0.77
   6 -16  -3    9.86    0.67
   6  16  -5    4.35    0.58
   6 -18   0   10.34    0.55
   6 -18  -1    2.73    0.39
   6 -18  -2    3.49    0.46
   6 -20  -1    0.50    0.32
  -7  -1   0    7.52    0.46
  -7   1   0    7.79    0.51
  -7  -1   0    7.46    0.46
  -7   1   0    8.29    0.48
  -7  -1   0    6.67    0.57
  -7  -1   1   17.73    0.69
  -7  -1   1   17.82    0.86
  -7  -1   1   17.50    0.67
  -7   1   1   20.18    0.78
  -7  -1  -1   19.19    0.86
  -7   1  -1   17.50    0.63
  -7  -1   1   18.83    0.73
  -7   1   1   18.22    0.71
  -7   1   1   18.18    0.68
  -7   1   2  156.64    2.19
  -7  -1   2  154.01    2.26
  -7  -1   2  159.74    2.34
  -7   1  -2  157.44    2.07
  -7  -1   2  155.96    2.39
  -7   1   2  158.05    2.40
   7  -1  -3   16.17    0.88
  -7  -1   3   15.51    0.72
  -7   1   3   14.93    0.77
  -7   1   3   17.54    0.64
  -7  -1   3   16.05    0.65
  -7  -1   4    7.23    0.57
  -7   1   4    7.26    0.60
   7  -1  -4    7.44    0.66
  -7  -1   5    5.89    0.58
  -7   1   5    7.20    0.65
   7  -1  -5    7.18    0.71
  -7   1   6   45.85    1.49
  -7  -3   0   14.07    0.55
  -7   3   0   13.36    0.69
  -7  -3   0   12.55    0.72
  -7   3   0   13.38    0.74
  -7   3   0   13.61    0.58
  -7  -3   0   13.11    0.64
  -7  -3   1   54.23    1.27
  -7  -3   1   55.75    1.48
  -7   3   1   54.78    1.49
  -7   3   1   58.86    1.42
  -7  -3  -1   52.83    1.40
  -7   3  -1   54.96    1.45
  -7  -3   1   56.28    1.28
  -7   3  -1   56.72    1.12
  -7   3   1   58.43    1.27
  -7   3   2  149.75    2.06
  -7  -3   2  153.59    2.17
  -7  -3   2  149.03    2.29
  -7  -3   2  155.94    2.39
  -7   3  -2  153.30    1.96
  -7   3   2  155.27    2.38
  -7  -3   3   49.34    1.17
   7   3  -3   48.72    1.48
   7  -3  -3   51.56    1.52
  -7   3   3   46.02    1.37
  -7   3   3   48.61    1.01
  -7  -3   3   49.54    1.20
  -7   3  -3   48.82    0.90
  -7  -3   4    6.23    0.51
  -7   3   4    6.01    0.61
   7   3  -4    5.86    0.62
   7  -3  -4    4.84    0.59
  -7   3   5   28.33    1.17
   7   3  -5   28.54    1.24
   7  -3  -5   28.57    1.24
   7   3  -5   28.58    1.01
  -7   3   6   42.54    1.49
  -7  -5   0   52.23    1.31
  -7   5   0   51.43    1.40
  -7  -5   0   54.19    1.43
  -7   5   0   54.25    1.44
  -7   5   0   55.05    1.16
  -7  -5   1   39.23    1.10
  -7  -5   1   39.74    1.25
  -7   5   1   38.94    1.24
  -7  -5   1   37.69    0.79
  -7  -5  -1   38.19    1.17
  -7   5  -1   36.83    1.18
  -7   5   1   39.43    1.23
  -7  -5  -1   36.98    0.81
  -7  -5  -1   39.60    1.15
  -7   5  -1   40.53    0.92
  -7   5   2   54.71    1.06
  -7  -5   2   55.99    1.05
  -7  -5   2   57.55    1.36
  -7  -5  -2   58.63    1.49
  -7   5  -2   57.66    1.52
  -7   5  -2   57.03    1.03
  -7  -5   3   21.37    0.71
  -7   5   3   22.16    0.62
   7   5  -3   22.62    1.04
   7  -5  -3   24.36    1.05
  -7  -5   3   22.06    0.86
  -7  -5  -4   16.99    0.74
  -7   5   4   17.75    0.95
   7   5  -4   17.40    0.95
   7  -5  -4   18.13    0.96
  -7   5   5   10.54    0.82
   7   5  -5   11.12    0.83
   7  -5  -5    9.85    0.80
   7   5  -5   11.14    0.64
  -7  -7   0  136.70    2.33
  -7  -7   0  142.68    2.43
  -7   7   0  138.11    2.43
  -7   7   0  138.89    2.52
  -7  -7  -1    2.72    0.45
  -7   7  -1    2.74    0.45
  -7  -7  -1    3.07    0.22
  -7   7   1    3.82    0.52
  -7  -7  -1    3.32    0.44
  -7  -7   1    3.72    0.44
  -7  -7  -1    3.11    0.22
  -7  -7   2    2.54    0.38
  -7  -7  -2    2.11    0.25
  -7   7   2    2.06    0.49
  -7   7  -2    3.03    0.47
  -7   7   2    2.33    0.25
  -7  -7   3    1.35    0.37
  -7  -7  -3    1.25    0.29
  -7   7   3    1.31    0.20
  -7   7   4   77.22    1.99
   7   7  -4   82.02    2.02
   7  -7  -4   81.43    2.00
   7   7  -5    1.11    0.49
  -7   7   5    0.58    0.53
   7  -7  -5    0.64    0.47
  -7  -9   0  160.71    2.64
  -7  -9   0  160.16    2.63
  -7   9   0  165.30    2.69
  -7   9   0  160.10    2.85
  -7  -9  -1   -0.03    0.37
  -7   9   1   -0.12    0.42
  -7   9  -1    0.20    0.36
  -7  -9  -1    0.07    0.32
  -7  -9   1    0.68    0.34
  -7  -9   2    1.71    0.37
  -7   9   2    1.45    0.47
  -7   9   2    1.93    0.22
  -7  -9   3    0.23    0.35
  -7  -9  -3    0.18    0.32
   7   9  -4   97.96    2.20
   7  -9  -4   95.01    2.17
  -7   9   4   91.10    2.26
   7  -9  -5   -0.09    0.47
   7   9  -5    0.23    0.42
  -7 -11   0   66.51    1.65
  -7 -11   0   64.31    1.58
  -7  11   0   68.02    1.62
  -7  11   0   66.17    1.81
  -7 -11  -1    2.29    0.43
  -7  11  -1    2.53    0.44
  -7  11   1    2.13    0.52
  -7 -11   1    2.53    0.42
  -7 -11   2    2.32    0.44
  -7  11   2    2.13    0.52
  -7  11   2    1.83    0.19
  -7 -11  -2    2.16    0.43
   7 -11  -2    1.77    0.34
  -7 -11  -3    1.06    0.40
   7 -11  -3    0.80    0.34
   7  11  -4   37.81    1.35
   7 -11  -4   39.17    1.26
  -7 -11  -4   40.33    1.33
  -7  13   0   12.51    0.73
  -7  13   0   12.00    0.86
  -7 -13  -1    9.66    0.70
  -7 -13   1    9.66    0.69
  -7  13   1    9.24    0.80
  -7  13  -1    8.61    0.64
  -7  13  -1    9.40    0.79
  -7 -13  -2   18.00    0.91
  -7  13   2   18.15    1.05
   7 -13  -2   18.61    0.79
  -7 -13   2   19.34    0.93
  -7 -13  -3    6.65    0.66
   7 -13  -3    6.76    0.57
  -7  15   0    1.39    0.54
  -7 -15  -1   11.90    0.80
   7 -15  -1   12.08    0.63
   7 -15  -2   19.25    0.81
   7 -15  -3   10.09    0.69
   7 -17  -1    1.04    0.32
   7 -17  -2    9.22    0.61
  -8   0   0   99.77    1.82
  -8   0   0  106.46    1.84
  -8   0   1   -0.03    0.33
  -8   0   1    0.28    0.24
  -8   0  -1   -0.25    0.28
  -8   0   1    0.26    0.29
  -8   0   2    4.64    0.41
  -8   0  -2    4.42    0.37
  -8   0   3    0.27    0.26
  -8   0   3   -0.28    0.33
  -8   0  -3    0.18    0.20
  -8   0   4   50.11    1.42
   8   0  -4   54.50    1.72
  -8   0   5   -0.23    0.47
  -8   0   6    1.80    0.51
  -8  -2   0   80.22    1.50
  -8   2   0   82.60    1.71
  -8  -2   0   81.31    1.59
  -8   2   0   83.30    1.56
  -8  -2   0   81.23    1.67
  -8   2   1    0.62    0.33
  -8   2   1    0.73    0.27
  -8  -2   1    0.94    0.30
  -8  -2  -1    0.32    0.27
  -8   2  -1    0.90    0.26
  -8   2   1    0.74    0.32
  -8   2   2    8.47    0.50
  -8  -2   2    8.83    0.55
  -8   2  -2    8.95    0.47
  -8  -2   3    0.29    0.31
  -8  -2   3    0.52    0.33
  -8   2   3    0.14    0.36
  -8   2   3    0.34    0.24
  -8  -2   4   34.96    1.12
  -8   2   4   33.64    1.22
   8  -2  -4   37.19    1.42
  -8  -2   5   -0.28    0.43
  -8   2   5   -0.53    0.47
  -8  -4   0   25.48    0.94
  -8  -4   0   26.54    0.74
  -8   4   0   25.87    1.00
  -8   4   0   26.75    0.86
  -8  -4   1    1.75    0.30
  -8  -4  -1    2.25    0.39
  -8   4   1    1.36    0.40
  -8  -4  -1    1.83    0.28
  -8  -4   1    1.64    0.38
  -8   4  -1    1.25    0.28
  -8   4   1    1.28    0.35
  -8   4   2   26.08    0.78
  -8  -4   2   27.39    0.80
  -8  -4   2   25.54    0.93
  -8   4  -2   27.92    0.76
  -8  -4   3    1.85    0.37
  -8  -4   3    1.92    0.34
  -8   4   3    1.67    0.46
  -8   4   3    1.40    0.26
  -8  -4   4   22.62    0.86
  -8   4   4   23.29    1.07
   8   4  -4   23.73    1.14
   8  -4  -4   23.32    1.14
  -8   4   5    0.36    0.50
  -8  -6   0   32.17    1.09
  -8   6   0   30.39    1.14
  -8  -6   1   14.89    0.45
  -8  -6   1   16.53    0.78
  -8   6   1   15.11    0.86
  -8  -6  -1   15.91    0.50
  -8  -6  -1   14.78    0.78
  -8   6   2   20.86    0.66
  -8  -6   2   21.48    0.89
  -8  -6   3    8.72    0.63
  -8   6   4   16.38    1.00
  -8  -8   0   26.87    1.02
  -8   8   0   25.59    1.11
  -8  -8  -1   12.32    0.74
  -8  -8   1   12.23    0.72
  -8   8   1   10.87    0.80
  -8   8   2   14.85    0.54
  -8  -8   2   15.51    0.80
  -8  -8  -2   15.99    0.85
  -8  -8   3    7.58    0.62
  -8   8   4   13.82    0.94
  -8 -10   0   10.67    0.72
  -8  10   0   10.87    0.80
  -8  10   1    0.37    0.43
  -8  10  -1    0.51    0.47
  -8 -10  -1    1.01    0.42
  -8 -10   1    0.26    0.35
  -8  10   2   18.81    1.03
  -8 -10   2   19.95    0.91
  -8 -10   3    0.52    0.38
  -8  12   0   -0.15    0.46
  -8 -12   0   -0.12    0.37
  -8 -12   1    0.20    0.38
  -8  12   1   -0.05    0.47
  -8  12  -1   -0.10    0.50
  -9  -1   0   71.80    1.51
  -9   1   0   70.16    1.59
  -9  -1   0   71.29    1.61
  -9   1   1    0.69    0.30
  -9  -1  -1    0.46    0.34
  -9   1  -1   -0.03    0.40
  -9  -1   1    0.09    0.30
  -9   1  -1    1.14    0.34
  -9  -1   2    0.26    0.34
  -9   1   2   -0.08    0.29
  -9  -1  -2   -0.23    0.27
  -9  -1   2   -0.06    0.30
  -9   1   3    0.46    0.29
  -9  -1   3    0.42    0.31
  -9  -1   3    1.17    0.42
  -9   1   3    0.57    0.42
  -9   1   4   43.74    1.38
  -9  -3   0   35.05    1.13
  -9  -3   0   31.41    0.90
  -9   3   0   33.75    1.16
  -9  -3   1    7.46    0.59
  -9   3   1    6.66    0.62
  -9  -3  -1    6.74    0.47
  -9   3  -1    5.69    0.59
  -9   3  -1    6.45    0.47
  -9  -3  -1    7.92    0.61
  -9   3   1    6.77    0.48
  -9   3   2    4.65    0.42
  -9  -3   2    5.11    0.50
  -9  -3   3    3.71    0.48
  -9   3   3    3.33    0.56
  -9   3   4   17.43    0.96
  -9  -5   0    8.00    0.64
  -9   5   0    7.83    0.66
  -9  -5   1   14.78    0.78
  -9   5   1   13.92    0.84
  -9   5  -1   15.31    0.89
  -9   5   1   14.80    0.66
  -9  -5  -1   15.32    0.82
  -9   5   2   21.45    0.75
  -9  -5   2   23.07    0.95
  -9  -5  -2   21.79    0.98
  -9   5   3   12.27    0.84
  -9  -5   3   12.75    0.74
  -9   5   4    3.88    0.63
  -9   7   0    0.97    0.46
  -9  -7   0    2.10    0.45
  -9  -7  -1    7.96    0.65
  -9  -7   1    7.11    0.62
  -9   7   1    6.87    0.69
  -9   7  -1    7.62    0.73
  -9  -7   2   25.91    1.03
  -9  -7   3    6.34    0.61
  -9   9   0    0.14    0.47
  -9   9   1    0.94    0.52
  -9   9  -1    0.19    0.49
 -10   0   0    9.48    0.62
 -10   0   1    0.03    0.34
 -10   0   2    5.98    0.54
 -10  -2   0    4.83    0.53
 -10   2   0    5.23    0.58
 -10   2   0    4.39    0.47
 -10   2  -1    0.07    0.37
 -10   2   1    0.09    0.31
 -10  -2   1   -0.23    0.35
 -10   2   2    9.63    0.60
 -10  -2   2   10.23    0.68
 -10   2  -2   11.05    0.75
 -10  -2   3    0.03    0.37
 -10   4   0    2.55    0.51
 -10   4   1   -0.12    0.43
 -10   4   1   -0.03    0.28
 -10   4  -1   -0.12    0.42
 -10   4  -2   11.04    0.80
 -10   6   0    2.42    0.57
 -10   6   1   -0.21    0.45
 -10   6  -1    0.48    0.46
   0   0   0    0.00    0.00
;
_shelx_hkl_checksum              55287
loop_
_space_group_symop_operation_xyz
'x, y, z'
'-x, -y, z+1/2'
'-x, y, -z+1/2'
'x, -y, -z'
'x+1/2, y+1/2, z'
'-x+1/2, -y+1/2, z+1/2'
'-x+1/2, y+1/2, -z+1/2'
'x+1/2, -y+1/2, -z'
loop_
_atom_site_label
_atom_site_type_symbol
_atom_site_fract_x
_atom_site_fract_y
_atom_site_fract_z
_atom_site_U_iso_or_equiv
_atom_site_adp_type
_atom_site_occupancy
_atom_site_site_symmetry_order
_atom_site_calc_flag
_atom_site_refinement_flags_posn
_atom_site_refinement_flags_adp
_atom_site_refinement_flags_occupancy
Mn1 Mn -0.00003(16) 0.0000 0.0000 0.04188(15) Uani 1 2 d DS T P
Cl1 Cl 0.0000 0.11131(5) 0.2500 0.0578(3) Uani 1 2 d DS T P
Cl2 Cl -0.22584(10) -0.05152(5) 0.2483(3) 0.0589(2) Uani 1 1 d D . .
C1 C 0.0059(9) 0.61550(10) 0.3527(7) 0.1210(4) Uani 0.5 1 d D U P
H1A H -0.0723 0.5804 0.4166 0.145 Uiso 0.5 1 d R U P
H1B H 0.1232 0.6041 0.3934 0.145 Uiso 0.5 1 d R U P
N1 N 0.0059(9) 0.61550(10) 0.3527(7) 0.1210(4) Uani 0.5 1 d . U P
H1C H 0.1158 0.6048 0.3908 0.145 Uiso 0.5 1 d R U P
H1D H -0.0675 0.5826 0.4126 0.145 Uiso 0.5 1 d R U P
C2 C -0.0364(7) 0.69692(9) 0.4162(3) 0.1210(4) Uani 1 1 d D U .
H2A H 0.0396 0.7157 0.5217 0.145 Uiso 1 1 d DR U .
H2B H -0.1550 0.7017 0.4610 0.145 Uiso 1 1 d DR U .
C3 C -0.0043(2) 0.73822(18) 0.2110(3) 0.1210(4) Uani 0.5 1 d D U P
H3A H -0.0897 0.7706 0.1492 0.145 Uiso 0.5 1 d DR U P
F1 F -0.1849(2) 0.7525(4) 0.3099(6) 0.1210(4) Uani 0.5 1 d D U P
loop_
_atom_site_aniso_label
_atom_site_aniso_U_11
_atom_site_aniso_U_22
_atom_site_aniso_U_33
_atom_site_aniso_U_23
_atom_site_aniso_U_13
_atom_site_aniso_U_12
Mn1 0.0454(3) 0.0560(3) 0.0242(2) 0.0004(2) 0.000 0.000
Cl1 0.0874(7) 0.0470(5) 0.0391(5) 0.000 -0.0066(13) 0.000
Cl2 0.0584(4) 0.0818(5) 0.0365(3) 0.0018(17) 0.0009(7) -0.0242(3)
C1 0.1231(7) 0.1110(7) 0.1289(7) -0.0068(7) 0.0372(7) -0.0005(7)
N1 0.1231(7) 0.1110(7) 0.1289(7) -0.0068(7) 0.0372(7) -0.0005(7)
C2 0.1231(7) 0.1110(7) 0.1289(7) -0.0068(7) 0.0372(7) -0.0005(7)
C3 0.1231(7) 0.1110(7) 0.1289(7) -0.0068(7) 0.0372(7) -0.0005(7)
F1 0.1231(7) 0.1110(7) 0.1289(7) -0.0068(7) 0.0372(7) -0.0005(7)
loop_
_atom_type_symbol
_atom_type_description
_atom_type_scat_dispersion_real
_atom_type_scat_dispersion_imag
_atom_type_scat_source
C C 0.0033 0.0016 'International Tables Vol C Tables 4.2.6.8 and 6.1.1.4'
H H 0.0000 0.0000 'International Tables Vol C Tables 4.2.6.8 and 6.1.1.4'
N N 0.0061 0.0033 'International Tables Vol C Tables 4.2.6.8 and 6.1.1.4'
F F 0.0171 0.0103 'International Tables Vol C Tables 4.2.6.8 and 6.1.1.4'
Cl Cl 0.1484 0.1585 'International Tables Vol C Tables 4.2.6.8 and 6.1.1.4'
Mn Mn 0.3368 0.7283 'International Tables Vol C Tables 4.2.6.8 and 6.1.1.4'
loop_
_geom_angle_atom_site_label_1
_geom_angle_atom_site_label_2
_geom_angle_atom_site_label_3
_geom_angle
_geom_angle_site_symmetry_1
_geom_angle_site_symmetry_3
Cl2 Mn1 Cl2 93.85(7) . 4
Cl2 Mn1 Cl2 85.87(3) . 3
Cl2 Mn1 Cl2 179.63(7) 4 3
Cl2 Mn1 Cl2 179.63(7) . 2_554
Cl2 Mn1 Cl2 85.87(3) 4 2_554
Cl2 Mn1 Cl2 94.42(7) 3 2_554
Cl2 Mn1 Cl1 97.22(4) . 2_554
Cl2 Mn1 Cl1 82.79(3) 4 2_554
Cl2 Mn1 Cl1 97.49(4) 3 2_554
Cl2 Mn1 Cl1 82.50(3) 2_554 2_554
Cl2 Mn1 Cl1 82.79(3) . .
Cl2 Mn1 Cl1 97.22(4) 4 .
Cl2 Mn1 Cl1 82.50(3) 3 .
Cl2 Mn1 Cl1 97.49(4) 2_554 .
Cl1 Mn1 Cl1 179.99(6) 2_554 .
Mn1 Cl1 Mn1 78.87(2) . 2
Mn1 Cl2 Mn1 79.30(2) . 2
N1 C1 C1 0.0 3 3
N1 C1 C2 104.7(3) 3 .
C1 C1 C2 104.7(3) 3 .
C3 C2 C1 110.4(3) 3 .
C3 C2 C3 14.09(13) 3 .
C1 C2 C3 100.4(2) . .
C3 C3 C2 132.8(3) 3 3
C3 C3 F1 88.0(4) 3 3
C2 C3 F1 77.0(4) 3 3
C3 C3 C2 33.2(2) 3 .
C2 C3 C2 111.3(3) 3 .
F1 C3 C2 108.5(3) 3 .
C3 C3 F1 72.8(4) 3 .
C2 C3 F1 130.3(4) 3 .
F1 C3 F1 152.7(4) 3 .
C2 C3 F1 64.9(3) . .
C3 F1 C3 19.24(13) 3 .
loop_
_geom_bond_atom_site_label_1
_geom_bond_atom_site_label_2
_geom_bond_distance
_geom_bond_site_symmetry_2
Mn1 Cl2 2.5395(13) .
Mn1 Cl2 2.5395(13) 4
Mn1 Cl2 2.5538(15) 3
Mn1 Cl2 2.5538(15) 2_554
Mn1 Cl1 2.5581(7) 2_554
Mn1 Cl1 2.5581(7) .
Cl1 Mn1 2.5581(7) 2
Cl2 Mn1 2.5538(15) 2
C1 N1 1.338(9) 3
C1 C1 1.338(9) 3
C1 C2 1.538(2) .
C2 C3 1.149(3) 3
C2 C3 1.542(2) .
C3 C3 0.511(3) 3
C3 C2 1.149(3) 3
C3 F1 1.481(3) 3
C3 F1 1.550(2) .
F1 C3 1.481(3) 3
loop_
_geom_torsion_atom_site_label_1
_geom_torsion_atom_site_label_2
_geom_torsion_atom_site_label_3
_geom_torsion_atom_site_label_4
_geom_torsion
_geom_torsion_site_symmetry_1
_geom_torsion_site_symmetry_4
N1 C1 C2 C3 -29.6(8) 3 3
C1 C1 C2 C3 -29.6(8) 3 3
N1 C1 C2 C3 -19.3(7) 3 .
C1 C1 C2 C3 -19.3(7) 3 .
C1 C2 C3 C3 -136.5(8) . 3
C3 C2 C3 C2 137.4(8) 3 3
C1 C2 C3 C2 0.9(3) . 3
C3 C2 C3 F1 54.5(7) 3 3
C1 C2 C3 F1 -82.0(5) . 3
C3 C2 C3 F1 -96.9(6) 3 .
C1 C2 C3 F1 126.6(4) . .
C2 C3 F1 C3 132.0(3) 3 3
F1 C3 F1 C3 -47.1(10) 3 3
C2 C3 F1 C3 34.64(16) . 3
